
#######################################################################
#
#                 Cambridge Crystallographic Data Centre
#                                CCDC
#
#######################################################################
#
# If this CIF has been generated from an entry in the Cambridge
# Structural Database, then it will include bibliographic, chemical,
# crystal, experimental, refinement or atomic coordinate data resulting
# from the CCDC's data processing and validation procedures.
#
#######################################################################

data_CSD_CIF_ABEDAQ
_audit_creation_date 2021-08-19
_audit_creation_method CSD-ConQuest-V1
_database_code_CSD ABEDAQ
_database_code_depnum_ccdc_archive 'CCDC 2081309'
_chemical_formula_sum 'C63 H63 Co3 F1 N6 O16 P2'
_chemical_formula_moiety
;
(C52 H34 Co3 F1 N2 O13 P2 1-)n,3(C3 H7 N1 O1),C2 H8 N1 1+
;
_journal_coden_Cambridge 4
_journal_year 2021
_journal_name_full 'J.Am.Chem.Soc. '
loop_
_publ_author_name
"R.Eric Sikma"
"N.Katyal"
"Su-Kyung Lee"
"J.W.Fryer"
"C.G.Romero"
"S.K.Emslie"
"E.L.Taylor"
"V.M.Lynch"
"Jong-San Chang"
"G.Henkelman"
"S.M.Humphrey"
_chemical_name_systematic
;
catena-[(dimethylammonium) 
bis(\m-4,4',4''-phosphanetriyltribenzoato)-(\m-4,4'-bipyridine)-(\m-fluoro)-aq
ua-tri-cobalt(ii) N,N-dimethylformamide unknown solvate]
;
_chemical_name_common
;
PCM-102
;
_cell_volume   8216.419
_exptl_crystal_colour 'colorless'
_exptl_crystal_density_diffrn 1.146
_exptl_special_details
;
The paper describes the bridging fluoro atom to be disordered with a bridging 
hydroxide group (0.56:0.44) which does not appear to have been modelled and 
so has not been represented here
;
_exptl_crystal_description 'plate'
_diffrn_ambient_temperature 100.2
_refine_special_details
;
Disordered solvent molecules were not modelled and the disordered density was 
taken into account using the MASK/OLEX2 procedure.
;
#These two values have been output from a single CSD field.
_refine_ls_R_factor_gt 0.0719
_refine_ls_wR_factor_gt 0.0719
_symmetry_cell_setting monoclinic
_symmetry_space_group_name_H-M 'P 21/n'
_symmetry_Int_Tables_number 14
loop_
_symmetry_equiv_pos_site_id
_symmetry_equiv_pos_as_xyz
1 x,y,z
2 1/2-x,1/2+y,1/2-z
3 -x,-y,-z
4 -1/2+x,-1/2-y,-1/2+z
_cell_length_a 13.1378(2)
_cell_length_b 26.3432(4)
_cell_length_c 23.7446(3)
_cell_angle_alpha 90
_cell_angle_beta 91.0539(14)
_cell_angle_gamma 90
_cell_formula_units_Z 4
loop_
_atom_type_symbol
_atom_type_radius_bond
C 0.68
H 0.23
Co 1.26
F 0.64
N 0.68
O 0.68
P 1.05
loop_
_atom_site_label
_atom_site_type_symbol
_atom_site_fract_x
_atom_site_fract_y
_atom_site_fract_z
Co1 Co 0.38437(5) 0.30988(2) 0.24488(3)
Co2 Co 0.47798(5) 0.43071(2) 0.25381(3)
Co3 Co 0.35032(5) 0.67215(2) 0.74845(3)
F1 F 0.50698(18) 0.35596(8) 0.24949(10)
P1 P 0.04789(8) 0.44089(4) 0.53122(4)
P2 P 0.04552(8) 0.44509(4) -0.03790(4)
O1 O 0.3190(2) 0.34048(11) 0.31593(12)
O2 O 0.3543(2) 0.42338(11) 0.30626(13)
O3 O 0.4262(2) 0.56383(12) 0.67521(13)
O4 O 0.2966(2) 0.61767(11) 0.69003(13)
O5 O 0.1149(2) 0.22984(11) 0.69426(13)
O6 O -0.0528(3) 0.22464(12) 0.67412(14)
O7 O 0.3801(2) 0.43029(12) 0.18373(13)
O8 O 0.2995(2) 0.35550(11) 0.19216(12)
O9 O 0.1210(3) 0.22278(12) -0.18218(13)
O10 O -0.0396(3) 0.24302(12) -0.20543(14)
O11 O 0.4001(2) 0.55360(12) -0.20240(13)
O12 O 0.3038(2) 0.62269(11) -0.18859(13)
O13 O 0.1996(3) 0.70090(14) 0.74633(17)
H1 H 0.16103 0.71618 0.71447
H2 H 0.15037 0.70212 0.77732
N1 N 0.0463(3) 0.01049(13) 0.24236(15)
N2 N 0.2646(3) 0.25492(13) 0.24266(15)
C1 C 0.1246(3) 0.42236(16) 0.47064(17)
C2 C 0.1436(4) 0.37221(17) 0.45623(19)
H3 H 0.11742 0.34561 0.47877
C3 C 0.2001(4) 0.36057(17) 0.40953(19)
H4 H 0.21106 0.32607 0.39970
C4 C 0.2412(3) 0.39888(16) 0.37677(17)
C5 C 0.2222(3) 0.44884(16) 0.39059(18)
H5 H 0.24974 0.47529 0.36835
C6 C 0.1634(3) 0.46079(16) 0.43653(18)
H6 H 0.14926 0.49531 0.44493
C7 C 0.3109(3) 0.38622(16) 0.32843(17)
C8 C 0.1389(3) 0.48072(16) 0.57113(17)
C9 C 0.2434(3) 0.48016(17) 0.56350(19)
H7 H 0.27171 0.45832 0.53607
C10 C 0.3072(3) 0.51143(17) 0.59582(19)
H8 H 0.37873 0.51022 0.59075
C11 C 0.2672(3) 0.54418(16) 0.63521(17)
C12 C 0.1621(3) 0.54498(18) 0.64261(19)
H9 H 0.13359 0.56727 0.66951
C13 C 0.0993(3) 0.51341(18) 0.61089(19)
H10 H 0.02786 0.51416 0.61646
C14 C 0.3364(3) 0.57803(16) 0.67006(18)
C15 C 0.0498(3) 0.38221(16) 0.57342(17)
C16 C 0.1365(4) 0.36176(19) 0.5987(2)
H11 H 0.20020 0.37828 0.59447
C17 C 0.1312(4) 0.31764(19) 0.6298(2)
H12 H 0.19115 0.30436 0.64721
C18 C 0.0399(3) 0.29257(16) 0.63587(18)
C19 C -0.0468(4) 0.3124(2) 0.6097(2)
H13 H -0.11020 0.29545 0.61315
C20 C -0.0412(4) 0.3570(2) 0.5786(2)
H14 H -0.10080 0.37025 0.56073
C21 C 0.0336(4) 0.24462(17) 0.67135(18)
C22 C 0.1278(3) 0.43173(16) 0.02318(17)
C23 C 0.1137(4) 0.38731(17) 0.05388(19)
H15 H 0.06280 0.36377 0.04216
C24 C 0.1731(4) 0.37711(17) 0.10126(19)
H16 H 0.16362 0.34618 0.12106
C25 C 0.2460(3) 0.41109(16) 0.12027(17)
C26 C 0.2569(4) 0.45662(17) 0.09142(19)
H17 H 0.30477 0.48111 0.10465
C27 C 0.1982(4) 0.46661(17) 0.04322(19)
H18 H 0.20666 0.49784 0.02385
C28 C 0.3147(3) 0.39806(16) 0.16956(17)
C29 C 0.0502(3) 0.38460(16) -0.07681(17)
C30 C 0.1283(4) 0.34819(19) -0.0723(2)
H19 H 0.18278 0.35320 -0.04602
C31 C 0.1264(4) 0.30551(18) -0.1054(2)
H20 H 0.18040 0.28161 -0.10245
C32 C 0.0465(3) 0.29695(16) -0.14308(18)
C33 C -0.0309(4) 0.33252(19) -0.1476(2)
H21 H -0.08596 0.32717 -0.17338
C34 C -0.0284(4) 0.3756(2) -0.1146(2)
H22 H -0.08198 0.39970 -0.11818
C35 C 0.0422(4) 0.25006(16) -0.18043(18)
C36 C 0.1312(3) 0.48383(16) -0.08087(17)
C37 C 0.0971(4) 0.52976(18) -0.1015(2)
H23 H 0.03003 0.54075 -0.09353
C38 C 0.1599(4) 0.56025(18) -0.1338(2)
H24 H 0.13551 0.59206 -0.14720
C39 C 0.2571(3) 0.54477(16) -0.14650(17)
C40 C 0.2891(4) 0.4974(2) -0.1279(2)
H25 H 0.35485 0.48549 -0.13734
C41 C 0.2269(4) 0.4673(2) -0.0958(2)
H26 H 0.25007 0.43480 -0.08378
C42 C 0.3262(3) 0.57639(16) -0.18248(17)
C43 C 0.0506(4) 0.03787(18) 0.2895(2)
H27 H 0.03135 0.02227 0.32376
C44 C 0.0817(4) 0.08788(18) 0.2907(2)
H28 H 0.08275 0.10604 0.32529
C45 C 0.1116(4) 0.11183(16) 0.24134(19)
C46 C 0.1030(4) 0.08355(17) 0.1917(2)
H29 H 0.11944 0.09847 0.15662
C47 C 0.0702(3) 0.03353(16) 0.19401(19)
H30 H 0.06451 0.01481 0.15990
C48 C 0.1578(4) 0.16311(17) 0.2420(2)
C49 C 0.1881(4) 0.18634(19) 0.2917(2)
H31 H 0.17243 0.17116 0.32681
C50 C 0.2409(4) 0.23128(17) 0.2905(2)
H32 H 0.26154 0.24629 0.32528
C51 C 0.2304(4) 0.23478(17) 0.1945(2)
H33 H 0.24287 0.25241 0.16041
C52 C 0.1774(4) 0.18925(18) 0.1918(2)
H34 H 0.15483 0.17597 0.15650
N3 N -0.1692(7) 0.3191(4) 0.3744(4)
H35 H -0.20382 0.33885 0.34910
H36 H -0.17101 0.28644 0.36194
C53 C -0.2149(14) 0.3226(6) 0.4286(5)
H37 H -0.28582 0.31114 0.42576
H38 H -0.17733 0.30108 0.45543
H39 H -0.21289 0.35788 0.44152
C54 C -0.0630(12) 0.3366(6) 0.3802(9)
H40 H -0.03004 0.33452 0.34362
H41 H -0.06198 0.37177 0.39352
H42 H -0.02642 0.31497 0.40743
N4 N 0.3194(15) 0.5831(7) 0.4659(8)
H43 H 0.26439 0.56221 0.46808
H44 H 0.33329 0.59500 0.50114
C55 C 0.4152(15) 0.5502(8) 0.4454(8)
H45 H 0.42789 0.52234 0.47201
H46 H 0.40043 0.53623 0.40790
H47 H 0.47553 0.57197 0.44393
C56 C 0.2939(8) 0.6240(4) 0.4311(4)
H48 H 0.23514 0.64189 0.44651
H49 H 0.35181 0.64736 0.42925
H50 H 0.27671 0.61161 0.39323
O14 O 0.3283(6) 0.2995(3) 0.0068(3)
N5 N 0.4467(5) 0.3607(3) 0.0353(3)
C57 C 0.3887(7) 0.3190(3) 0.0442(4)
H51 H 0.39280 0.30328 0.08015
C58 C 0.4411(9) 0.3886(4) -0.0156(4)
H52 H 0.38780 0.41446 -0.01297
H53 H 0.42486 0.36555 -0.04691
H54 H 0.50668 0.40506 -0.02216
C59 C 0.5109(6) 0.3789(3) 0.0805(3)
H55 H 0.51132 0.35433 0.11141
H56 H 0.48484 0.41155 0.09389
H57 H 0.58034 0.38346 0.06694
O15 O -0.134(1) 0.2004(5) 0.2192(8)
N6 N -0.2081(8) 0.1232(4) 0.2318(4)
C60 C -0.2804(13) 0.1435(6) 0.2669(6)
H58 H -0.32302 0.11616 0.28158
H59 H -0.24634 0.16112 0.29831
H60 H -0.32305 0.16756 0.24566
C61 C -0.1425(9) 0.1547(5) 0.2076(6)
H61 H -0.09938 0.14125 0.17959
C62 C -0.2045(9) 0.0727(4) 0.2189(5)
H62 H -0.25687 0.05453 0.23976
H63 H -0.21677 0.06816 0.17835
H64 H -0.13726 0.05912 0.22922
O16 O 0.4410(7) 0.4584(4) 0.4810(4)
N7 N 0.4584(8) 0.3715(4) 0.4660(4)
C63 C 0.4596(6) 0.4211(3) 0.4527(4)
H65 H 0.47810 0.42825 0.41497
C64 C 0.4810(12) 0.3355(5) 0.4303(6)
H66 H 0.47515 0.30240 0.44882
H67 H 0.43378 0.33688 0.39785
H68 H 0.55080 0.34018 0.41742
C65 C 0.4267(12) 0.3569(6) 0.5222(5)
H69 H 0.41236 0.38738 0.54424
H70 H 0.36523 0.33591 0.51922
H71 H 0.48131 0.33743 0.54080
O17 O 0.1836(13) 0.1344(7) 0.4235(6)
N8 N 0.2158(11) 0.1843(6) 0.5045(5)
C66 C 0.2384(16) 0.1427(7) 0.4748(8)
H72 H 0.28929 0.11958 0.48765
C67 C 0.1463(15) 0.2169(7) 0.4807(9)
H73 H 0.13584 0.24574 0.50604
H74 H 0.17174 0.22927 0.44465
H75 H 0.08155 0.19916 0.47435
C68 C 0.249(2) 0.1935(9) 0.5599(7)
H76 H 0.22288 0.22633 0.57249
H77 H 0.22460 0.16657 0.58458
H78 H 0.32389 0.19418 0.56136
O18 O -0.0078(8) 0.5767(5) 0.7403(5)
N9 N -0.0902(7) 0.4999(5) 0.7585(4)
C69 C -0.0852(8) 0.5495(5) 0.7511(5)
H79 H -0.14767 0.56730 0.75438
C70 C -0.1780(8) 0.4785(6) 0.7695(6)
H80 H -0.16857 0.44183 0.77369
H81 H -0.20456 0.49263 0.80447
H82 H -0.22645 0.48522 0.73845
C71 C 0.0043(8) 0.4721(6) 0.7581(5)
H83 H 0.06015 0.49514 0.74897
H84 H 0.01712 0.45707 0.79535
H85 H -0.00007 0.44505 0.72980
Co1C Co -0.11563(5) 0.19012(2) -0.25512(3)
Co1C* Co -0.11563(5) 0.19012(2) 0.74488(3)
Co2A Co 0.02202(5) -0.06929(2) 0.24619(3)
Co2B Co 0.52202(5) 0.56929(2) -0.25381(3)
Co2B* Co 0.52202(5) 0.56929(2) 0.74619(3)
Co3* Co 0.35032(5) 0.67215(2) -0.25155(3)
Co3A Co 0.14968(5) 0.17215(2) -0.24845(3)
Co3A* Co 0.14968(5) 0.17215(2) 0.75155(3)
Co3B Co 0.64968(5) 0.32785(2) 0.25155(3)
F1B F 0.49302(18) 0.64404(8) 0.75051(10)
O3B O 0.5738(2) 0.43617(12) 0.32479(13)
O5A O 0.3851(2) 0.72984(11) 0.80574(13)
O6C O 0.4472(3) 0.27536(12) 0.17412(14)
O9A O 0.3790(3) 0.72278(12) 0.68218(13)
O10C O 0.4604(3) 0.25698(12) 0.29457(14)
O11B O 0.5999(2) 0.44640(12) 0.20240(13)
O12* O 0.3038(2) 0.62269(11) 0.81141(13)
N1A N 0.4537(3) 0.51049(13) 0.25764(15)
#END
