
#######################################################################
#
#                 Cambridge Crystallographic Data Centre
#                                CCDC
#
#######################################################################
#
# If this CIF has been generated from an entry in the Cambridge
# Structural Database, then it will include bibliographic, chemical,
# crystal, experimental, refinement or atomic coordinate data resulting
# from the CCDC's data processing and validation procedures.
#
#######################################################################

data_CSD_CIF_ABEFUL
_audit_creation_date 2016-11-23
_audit_creation_method CSD-ConQuest-V1
_database_code_CSD ABEFUL
_database_code_depnum_ccdc_archive 'CCDC 993277'
_chemical_formula_sum 'C44 H33 N4 O15 S4 Tb1'
_chemical_formula_moiety
;
(C44 H26 N4 O12 S4 Tb1 1-)n,n(H3 O1 1+),2n(H2 O1)
;
_journal_coden_Cambridge 908
_journal_volume 12
_journal_year 2015
_journal_page_first 937
_journal_name_full 'J.Iran.Chem.Soc. '
loop_
_publ_author_name
"Wen-Tong Chen"
"Rong-Hua Hu"
"Ya-Ping Xu"
"Qiu-Yan Luo"
"Yan-Kang Dai"
"Shan-Lin Huang"
"Pei-Yu Guo"
_chemical_name_systematic
;
catena-(oxonium (5,10,15,20-tetrakis(4-sulfonatophenyl)porphyin)-terbium 
dihydrate)
;
_cell_volume   2329.310
_exptl_crystal_colour 'purple'
_exptl_crystal_density_diffrn 1.632
_exptl_crystal_description 'block'
_diffrn_ambient_temperature 123.2
#These two values have been output from a single CSD field.
_refine_ls_R_factor_gt 0.0566
_refine_ls_wR_factor_gt 0.0566
_symmetry_cell_setting tetragonal
_symmetry_space_group_name_H-M 'P 4/m c c'
_symmetry_Int_Tables_number 124
loop_
_symmetry_equiv_pos_site_id
_symmetry_equiv_pos_as_xyz
1 x,y,z
2 -x,-y,z
3 -y,x,z
4 y,-x,z
5 -x,y,1/2-z
6 x,-y,1/2-z
7 y,x,1/2-z
8 -y,-x,1/2-z
9 -x,-y,-z
10 x,y,-z
11 y,-x,-z
12 -y,x,-z
13 x,-y,-1/2+z
14 -x,y,-1/2+z
15 -y,-x,-1/2+z
16 y,x,-1/2+z
_cell_length_a 15.3873(6)
_cell_length_b 15.3873(6)
_cell_length_c 9.8379(8)
_cell_angle_alpha 90
_cell_angle_beta 90
_cell_angle_gamma 90
_cell_formula_units_Z 2
loop_
_atom_type_symbol
_atom_type_radius_bond
C 0.68
H 0.23
N 0.68
O 0.68
S 1.02
Tb 1.94
loop_
_atom_site_label
_atom_site_type_symbol
_atom_site_fract_x
_atom_site_fract_y
_atom_site_fract_z
Tb1 Tb 0.50000 0.50000 0.25000
S1 S 0.52674(6) 0.32096(6) 0.00000
N1 N 0.0299(2) 0.1297(2) 0.00000
C1 C 0.4250(2) 0.2685(2) 0.00000
C2 C 0.38697(19) 0.24501(17) 0.1222(3)
H1 H 0.41160 0.26270 0.20400
C3 C 0.31227(19) 0.19518(18) 0.1219(3)
H2 H 0.28760 0.17820 0.20400
C4 C 0.2735(2) 0.1700(2) 0.00000
C5 C 0.1915(2) 0.1179(2) 0.00000
C6 C 0.1127(3) 0.1644(2) 0.00000
C7 C 0.1058(2) 0.2580(2) 0.00000
H3 H 0.15160 0.29740 0.00000
C8 C 0.0207(3) 0.2774(3) 0.00000
H4 H -0.00280 0.33310 0.00000
C9 C -0.0280(3) 0.1981(3) 0.00000
O1 O 0.53184(13) 0.37360(14) 0.1223(3)
O2 O 0.58954(17) 0.25267(17) 0.00000
O3 O 0.00000 0.00000 0.25000
O4 O 0.00000 0.00000 0.0775(10)
S1B S -0.32096(6) 0.52674(6) 0.00000
N1B N -0.1297(2) 0.0299(2) 0.00000
C1B C -0.2685(2) 0.4250(2) 0.00000
C2B C -0.24501(19) 0.38697(17) 0.1222(3)
H1B H -0.26270 0.41160 0.20400
C3B C -0.19518(19) 0.31227(18) 0.1219(3)
H2B H -0.17820 0.28760 0.20400
C4B C -0.1700(2) 0.2735(2) 0.00000
C5B C -0.1179(2) 0.1915(2) 0.00000
C6B C -0.1644(3) 0.1127(2) 0.00000
C7B C -0.2580(2) 0.1058(2) 0.00000
H3B H -0.29740 0.15160 0.00000
C8B C -0.2774(3) 0.0207(3) 0.00000
H4B H -0.33310 -0.00280 0.00000
C9B C -0.1981(3) -0.0280(3) 0.00000
O1B O -0.37360(13) 0.53184(14) 0.1223(3)
O2B O -0.25267(17) 0.58954(17) 0.00000
S1C S 0.32096(6) -0.52674(6) 0.00000
N1C N 0.1297(2) -0.0299(2) 0.00000
C1C C 0.2685(2) -0.4250(2) 0.00000
C2C C 0.24501(19) -0.38697(17) 0.1222(3)
H1C H 0.26270 -0.41160 0.20400
C3C C 0.19518(19) -0.31227(18) 0.1219(3)
H2C H 0.17820 -0.28760 0.20400
C4C C 0.1700(2) -0.2735(2) 0.00000
C5C C 0.1179(2) -0.1915(2) 0.00000
C6C C 0.1644(3) -0.1127(2) 0.00000
C7C C 0.2580(2) -0.1058(2) 0.00000
H3C H 0.29740 -0.15160 0.00000
C8C C 0.2774(3) -0.0207(3) 0.00000
H4C H 0.33310 0.00280 0.00000
C9C C 0.1981(3) 0.0280(3) 0.00000
O1C O 0.37360(13) -0.53184(14) 0.1223(3)
O2C O 0.25267(17) -0.58954(17) 0.00000
C2I C 0.38697(19) 0.24501(17) -0.1222(3)
H1I H 0.41160 0.26270 -0.20400
C3I C 0.31227(19) 0.19518(18) -0.1219(3)
H2I H 0.28760 0.17820 -0.20400
O1I O 0.53184(13) 0.37360(14) -0.1223(3)
C2J C 0.24501(19) -0.38697(17) -0.1222(3)
H1J H 0.26270 -0.41160 -0.20400
C3J C 0.19518(19) -0.31227(18) -0.1219(3)
H2J H 0.17820 -0.28760 -0.20400
O1J O 0.37360(13) -0.53184(14) -0.1223(3)
C2K C -0.24501(19) 0.38697(17) -0.1222(3)
H1K H -0.26270 0.41160 -0.20400
C3K C -0.19518(19) 0.31227(18) -0.1219(3)
H2K H -0.17820 0.28760 -0.20400
O1K O -0.37360(13) 0.53184(14) -0.1223(3)
S1A S -0.52674(6) -0.32096(6) 0.00000
N1A N -0.0299(2) -0.1297(2) 0.00000
C1A C -0.4250(2) -0.2685(2) 0.00000
C2A C -0.38697(19) -0.24501(17) 0.1222(3)
H1A H -0.41160 -0.26270 0.20400
C3A C -0.31227(19) -0.19518(18) 0.1219(3)
H2A H -0.28760 -0.17820 0.20400
C4A C -0.2735(2) -0.1700(2) 0.00000
C5A C -0.1915(2) -0.1179(2) 0.00000
C6A C -0.1127(3) -0.1644(2) 0.00000
C7A C -0.1058(2) -0.2580(2) 0.00000
H3A H -0.15160 -0.29740 0.00000
C8A C -0.0207(3) -0.2774(3) 0.00000
H4A H 0.00280 -0.33310 0.00000
C9A C 0.0280(3) -0.1981(3) 0.00000
O1A O -0.53184(13) -0.37360(14) 0.1223(3)
O2A O -0.58954(17) -0.25267(17) 0.00000
C2H C -0.38697(19) -0.24501(17) -0.1222(3)
H1H H -0.41160 -0.26270 -0.20400
C3H C -0.31227(19) -0.19518(18) -0.1219(3)
H2H H -0.28760 -0.17820 -0.20400
O1H O -0.53184(13) -0.37360(14) -0.1223(3)
Tb1* Tb -0.50000 -0.50000 0.25000
Tb1** Tb -0.50000 0.50000 0.25000
Tb1*** Tb 0.50000 -0.50000 0.25000
Tb1H Tb -0.50000 -0.50000 -0.25000
Tb1H* Tb -0.50000 0.50000 -0.25000
Tb1H** Tb 0.50000 -0.50000 -0.25000
Tb1H*** Tb 0.50000 0.50000 -0.25000
O1A* O 0.46816(13) 0.62640(14) 0.1223(3)
O1B* O 0.62640(13) 0.53184(14) 0.1223(3)
O1C* O 0.37360(13) 0.46816(14) 0.1223(3)
O1D O 0.46816(13) 0.37360(14) 0.3777(3)
O1E O 0.53184(13) 0.62640(14) 0.3777(3)
O1F O 0.37360(13) 0.53184(14) 0.3777(3)
O1G O 0.62640(13) 0.46816(14) 0.3777(3)
#END
