
#######################################################################
#
#                 Cambridge Crystallographic Data Centre
#                                CCDC
#
#######################################################################
#
# If this CIF has been generated from an entry in the Cambridge
# Structural Database, then it will include bibliographic, chemical,
# crystal, experimental, refinement or atomic coordinate data resulting
# from the CCDC's data processing and validation procedures.
#
#######################################################################

data_CSD_CIF_ABETIN
_audit_creation_date 2016-11-23
_audit_creation_method CSD-ConQuest-V1
_database_code_CSD ABETIN
_database_code_depnum_ccdc_archive 'CCDC 1473396'
_chemical_formula_sum 'C66 H84 Cu2 N13 O50 P1 W12'
_chemical_formula_moiety
;
(C26 H18 Cu1 N4 1+)2n,n(O40 P1 W12 3-),n(C2 H8 N1 1+),4n(C3 H7 N1 O1),6n(H2 
O1)
;
_journal_coden_Cambridge 1500
_journal_volume 6
_journal_year 2016
_journal_page_first 111549
_journal_name_full 'RSC Advances '
loop_
_publ_author_name
"Miao Huo"
"Wenbin Yang"
"Hailong Zhang"
"Lei Zhang"
"Jianzhen Liao"
"Lang Lin"
"Canzhong Lu"
_chemical_name_systematic
;
catena-(bis((1,2,4,5-tetrakis(4-pyridyl)benzene)-copper) dimethylammonium 
(\m-phosphato)-tetracosakis(\m-oxo)-dodecaoxo-dodeca-tungsten 
dimethylformamide solvate hexahydrate)
;
_cell_volume  20018.980
_exptl_crystal_colour 'brown'
_exptl_crystal_density_diffrn 2.803
_exptl_crystal_description 'block'
_diffrn_ambient_temperature 293
_refine_special_details
;
C50,C51,N5 disordered by symmetry over two configurations with occupancy 
0.25. The SQUEEZE/PLATON program was used to model the solvent molecules.
;
#These two values have been output from a single CSD field.
_refine_ls_R_factor_gt 0.0407
_refine_ls_wR_factor_gt 0.0407
_symmetry_cell_setting tetragonal
_symmetry_space_group_name_H-M 'I 41/a c d'
_symmetry_Int_Tables_number 142
loop_
_symmetry_equiv_pos_site_id
_symmetry_equiv_pos_as_xyz
1 x,y,z
2 1/4-y,3/4+x,1/4+z
3 -x,1/2-y,z
4 1/4+y,1/4-x,3/4+z
5 x,-y,1/2-z
6 1/2-x,y,-z
7 3/4+y,1/4+x,1/4-z
8 1/4-y,1/4-x,1/4-z
9 1/2+x,1/2+y,1/2+z
10 3/4-y,1/4+x,3/4+z
11 1/2-x,-y,1/2+z
12 3/4+y,3/4-x,1/4+z
13 1/2+x,1/2-y,-z
14 -x,1/2+y,1/2-z
15 1/4+y,3/4+x,3/4-z
16 3/4-y,3/4-x,3/4-z
17 -x,-y,-z
18 -1/4+y,-3/4-x,-1/4-z
19 x,-1/2+y,-z
20 -1/4-y,-1/4+x,-3/4-z
21 -x,y,-1/2+z
22 -1/2+x,-y,z
23 -3/4-y,-1/4-x,-1/4+z
24 -1/4+y,-1/4+x,-1/4+z
25 -1/2-x,-1/2-y,-1/2-z
26 -3/4+y,-1/4-x,-3/4-z
27 -1/2+x,y,-1/2-z
28 -3/4-y,-3/4+x,-1/4-z
29 -1/2-x,-1/2+y,z
30 x,-1/2-y,-1/2+z
31 -1/4-y,-3/4-x,-3/4+z
32 -3/4+y,-3/4+x,-3/4+z
_cell_length_a 26.9629(3)
_cell_length_b 26.9629(3)
_cell_length_c 27.5365(4)
_cell_angle_alpha 90
_cell_angle_beta 90
_cell_angle_gamma 90
_cell_formula_units_Z 8
loop_
_atom_type_symbol
_atom_type_radius_bond
C 0.68
H 0.23
Cu 1.32
N 0.68
O 0.68
P 1.05
W 1.62
loop_
_atom_site_label
_atom_site_type_symbol
_atom_site_fract_x
_atom_site_fract_y
_atom_site_fract_z
W1 W 0.59143(2) 0.26973(2) 0.53347(2)
W2 W 0.61303(2) 0.18220(2) 0.62211(2)
W3 W 0.58979(2) 0.27557(2) 0.71660(2)
P1 P 0.50000 0.25000 0.62500
O1 O 0.6659(2) 0.1499(2) 0.6310(3)
O2 O 0.5829(2) 0.1438(2) 0.5714(3)
O3 O 0.5683(2) 0.1532(2) 0.6670(2)
O4 O 0.6335(2) 0.2274(2) 0.5713(2)
O5 O 0.6313(2) 0.2895(2) 0.4900(3)
O6 O 0.5312(2) 0.3020(2) 0.5169(2)
O7 O 0.54029(19) 0.22562(19) 0.5923(2)
O8 O 0.6177(2) 0.2354(2) 0.6669(2)
O9 O 0.6345(2) 0.2769(2) 0.7598(3)
O10 O 0.5398(2) 0.3159(2) 0.7464(3)
Cu1 Cu 0.75000 0.37085(6) 0.50000
N1 N 0.4185(2) 0.4877(2) 0.6897(2)
N2 N 0.6919(2) 0.4166(2) 0.4855(2)
C1 C 0.3957(3) 0.4670(3) 0.6510(3)
H1 H 0.36630 0.44970 0.65620
C2 C 0.4139(3) 0.4701(3) 0.6044(3)
H2 H 0.39690 0.45560 0.57860
C3 C 0.4585(3) 0.4955(3) 0.5965(3)
C4 C 0.4832(3) 0.5143(3) 0.6364(3)
H3 H 0.51400 0.52940 0.63280
C5 C 0.4615(3) 0.5104(3) 0.6820(3)
H4 H 0.47790 0.52430 0.70840
C6 C 0.4797(3) 0.4994(3) 0.5474(3)
C7 C 0.5286(3) 0.4853(3) 0.5390(3)
H5 H 0.54800 0.47580 0.56530
C8 C 0.5494(3) 0.4849(3) 0.4932(3)
C9 C 0.5996(3) 0.4635(3) 0.4880(3)
C10 C 0.6383(3) 0.4797(3) 0.5171(3)
H6 H 0.63400 0.50660 0.53780
C11 C 0.6836(3) 0.4554(3) 0.5148(3)
H7 H 0.70940 0.46660 0.53450
C12 C 0.6550(3) 0.4020(3) 0.4568(3)
H8 H 0.66080 0.37590 0.43540
C13 C 0.6083(3) 0.4237(3) 0.4571(3)
H9 H 0.58330 0.41180 0.43700
C14 C 0.7108(12) 0.3108(13) 1.0066(12)
H10 H 0.69550 0.28000 1.01570
H11 H 0.71310 0.33200 1.03450
C15 C 0.692(3) 0.367(3) 0.928(2)
H12 H 0.72200 0.35650 0.91300
H13 H 0.69480 0.40040 0.93910
H14 H 0.66490 0.36450 0.90530
N3 N 0.681(2) 0.335(2) 0.9695(17)
H15 H 0.65920 0.35200 0.98660
H16 H 0.66430 0.30980 0.95650
H17? H 0.74350 0.30450 0.99420
O7B O 0.45971(19) 0.27438(19) 0.5923(2)
O7S O 0.52438(19) 0.29029(19) 0.6577(2)
O7Y O 0.47562(19) 0.20971(19) 0.6577(2)
W1B W 0.40857(2) 0.23027(2) 0.53347(2)
W2B W 0.38697(2) 0.31780(2) 0.62211(2)
W3B W 0.41021(2) 0.22443(2) 0.71660(2)
O1B O 0.3341(2) 0.3501(2) 0.6310(3)
O2B O 0.4171(2) 0.3562(2) 0.5714(3)
O3B O 0.4317(2) 0.3468(2) 0.6670(2)
O4B O 0.3665(2) 0.2726(2) 0.5713(2)
O5B O 0.3687(2) 0.2105(2) 0.4900(3)
O6B O 0.4688(2) 0.1980(2) 0.5169(2)
O8B O 0.3823(2) 0.2646(2) 0.6669(2)
O9B O 0.3655(2) 0.2231(2) 0.7598(3)
O10B O 0.4602(2) 0.1841(2) 0.7464(3)
W1S W 0.48027(2) 0.34143(2) 0.71653(2)
W2S W 0.56780(2) 0.36303(2) 0.62789(2)
W3S W 0.47443(2) 0.33979(2) 0.53340(2)
O1S O 0.6001(2) 0.4159(2) 0.6190(3)
O2S O 0.6062(2) 0.3329(2) 0.6786(3)
O3S O 0.5968(2) 0.3183(2) 0.5830(2)
O4S O 0.5226(2) 0.3835(2) 0.6787(2)
O5S O 0.4605(2) 0.3813(2) 0.7600(3)
O6S O 0.4480(2) 0.2812(2) 0.7331(2)
O8S O 0.5146(2) 0.3677(2) 0.5831(2)
O9S O 0.4731(2) 0.3845(2) 0.4902(3)
O10S O 0.4341(2) 0.2898(2) 0.5036(3)
W1Y W 0.51973(2) 0.15857(2) 0.71653(2)
W2Y W 0.43220(2) 0.13697(2) 0.62789(2)
W3Y W 0.52557(2) 0.16021(2) 0.53340(2)
O1Y O 0.3999(2) 0.0841(2) 0.6190(3)
O2Y O 0.3938(2) 0.1671(2) 0.6786(3)
O3Y O 0.4032(2) 0.1817(2) 0.5830(2)
O4Y O 0.4774(2) 0.1165(2) 0.6787(2)
O5Y O 0.5395(2) 0.1187(2) 0.7600(3)
O6Y O 0.5520(2) 0.2188(2) 0.7331(2)
O8Y O 0.4854(2) 0.1323(2) 0.5831(2)
O9Y O 0.5269(2) 0.1155(2) 0.4902(3)
O10Y O 0.5659(2) 0.2102(2) 0.5036(3)
N1P N 0.5815(2) 0.5123(2) 0.3103(2)
N2P N 0.3081(2) 0.5834(2) 0.5145(2)
C1P C 0.6043(3) 0.5330(3) 0.3490(3)
H1P H 0.63370 0.55030 0.34380
C2P C 0.5861(3) 0.5299(3) 0.3956(3)
H2P H 0.60310 0.54440 0.42140
C3P C 0.5415(3) 0.5045(3) 0.4035(3)
C4P C 0.5168(3) 0.4857(3) 0.3636(3)
H3P H 0.48600 0.47060 0.36720
C5P C 0.5385(3) 0.4896(3) 0.3180(3)
H4P H 0.52210 0.47570 0.29160
C6P C 0.5203(3) 0.5006(3) 0.4526(3)
C7P C 0.4714(3) 0.5147(3) 0.4610(3)
H5P H 0.45200 0.52420 0.43470
C8P C 0.4506(3) 0.5151(3) 0.5068(3)
C9P C 0.4004(3) 0.5365(3) 0.5120(3)
C10P C 0.3617(3) 0.5203(3) 0.4829(3)
H6P H 0.36600 0.49340 0.46220
C11P C 0.3164(3) 0.5446(3) 0.4852(3)
H7P H 0.29060 0.53340 0.46550
C12P C 0.3450(3) 0.5980(3) 0.5432(3)
H8P H 0.33920 0.62410 0.56460
C13P C 0.3917(3) 0.5763(3) 0.5429(3)
H9P H 0.41670 0.58820 0.56300
Cu1C Cu 0.62085 0.50000(6) 0.25000
Cu1P Cu 0.25000 0.62915(6) 0.50000
Cu1S Cu 0.37915 0.50000(6) 0.75000
N1V N 0.7623(2) 0.3315(2) 0.4397(2)
N1Y N 0.7377(2) 0.3315(2) 0.5603(2)
N2E N 0.8081(2) 0.4166(2) 0.5145(2)
#END
