
#######################################################################
#
#                 Cambridge Crystallographic Data Centre
#                                CCDC
#
#######################################################################
#
# If this CIF has been generated from an entry in the Cambridge
# Structural Database, then it will include bibliographic, chemical,
# crystal, experimental, refinement or atomic coordinate data resulting
# from the CCDC's data processing and validation procedures.
#
#######################################################################

data_CSD_CIF_ABIJUS
_audit_creation_date 2011-11-16
_audit_creation_method CSD-ConQuest-V1
_database_code_CSD ABIJUS
_database_code_depnum_ccdc_archive 'CCDC 793931'
_chemical_formula_sum 'C62 H80 Br2 Fe1 Mn1 Mo1 N22 O9'
_chemical_formula_moiety
;
(C32 H44 Fe1 N12 2+)n,n(C28 H18 Br2 Mn1 Mo1 N10 O2 2-),2n(C1 H4 O1),5n(H2 O1)
;
_journal_coden_Cambridge 182
_journal_volume 47
_journal_year 2011
_journal_page_first 10416
_journal_name_full 'Chem.Commun. '
loop_
_publ_author_name
"Jung Hee Yoon"
"Dae Won Ryu"
"Sang Yup Choi"
"Hyoung Chan Kim"
"Eui Kwan Koh"
"Jun Tao"
"Chang Seop Hong"
_chemical_name_systematic
;
catena-(bis(tris(3,5-Dimethylpyrazolyl)methane-N,N',N'')-iron(ii) 
bis(\m~2~-cyano)-hexacyano-(N,N'-bis(5-bromo-2-oxybenzylidene)cyclohexane-1,2-
diamine)-manganese(iii)-molybdenum(v) methanol solvate pentahydrate)
;
_cell_volume   3622.471
_exptl_crystal_colour 'red'
_exptl_crystal_density_diffrn 1.507
_exptl_crystal_description 'block'
_diffrn_ambient_temperature 90
_refine_special_details
;
O9A and O9B disordered over two sites with occupancies 0.50:0.50.

;
#These two values have been output from a single CSD field.
_refine_ls_R_factor_gt 0.0551
_refine_ls_wR_factor_gt 0.0551
_symmetry_cell_setting triclinic
_symmetry_space_group_name_H-M 'P -1'
_symmetry_Int_Tables_number 2
loop_
_symmetry_equiv_pos_site_id
_symmetry_equiv_pos_as_xyz
1 x,y,z
2 -x,-y,-z
_cell_length_a 10.7696(6)
_cell_length_b 13.8437(7)
_cell_length_c 24.4199(14)
_cell_angle_alpha 89.154(3)
_cell_angle_beta 89.071(3)
_cell_angle_gamma 84.376(3)
_cell_formula_units_Z 2
loop_
_atom_type_symbol
_atom_type_radius_bond
C 0.68
H 0.23
Br 1.21
Fe 1.52
Mn 1.55
Mo 1.13
N 0.68
O 0.68
loop_
_atom_site_label
_atom_site_type_symbol
_atom_site_fract_x
_atom_site_fract_y
_atom_site_fract_z
Mo1 Mo 0.45431(4) 0.96317(2) 0.254636(16)
C1 C 0.2659(5) 1.0161(3) 0.23126(19)
N1 N 0.1644(4) 1.0420(3) 0.22027(16)
C2 C 0.3387(4) 0.9446(3) 0.3262(2)
N2 N 0.2769(4) 0.9361(3) 0.36419(18)
C3 C 0.3553(5) 0.8412(3) 0.2323(2)
N3 N 0.3022(4) 0.7765(3) 0.2221(2)
C4 C 0.5782(5) 0.8314(4) 0.2580(3)
N4 N 0.6447(5) 0.7625(4) 0.2601(4)
C5 C 0.5585(5) 0.9780(4) 0.3280(2)
N5 N 0.6145(5) 0.9866(4) 0.3674(2)
C6 C 0.4593(4) 0.9798(3) 0.1670(2)
N6 N 0.4563(4) 0.9930(3) 0.12038(19)
C7 C 0.4358(4) 1.1191(3) 0.26335(19)
N7 N 0.4273(4) 1.2014(3) 0.26728(18)
C8 C 0.6368(5) 1.0061(3) 0.23211(19)
N8 N 0.7351(4) 1.0285(3) 0.22257(18)
Mn1 Mn -0.05075(7) 1.04425(5) 0.21528(3)
O1 O -0.0675(3) 1.1810(2) 0.21466(13)
O2 O -0.0567(3) 1.0370(2) 0.13946(13)
N9 N -0.0473(4) 1.0393(3) 0.29646(17)
N10 N -0.0264(4) 0.9005(3) 0.22411(16)
C9 C -0.0251(4) 1.2353(3) 0.2527(2)
C10 C -0.0113(5) 1.3341(3) 0.2388(2)
H1 H -0.02910 1.35690 0.20260
C11 C 0.0272(5) 1.3968(3) 0.2765(2)
H2 H 0.03690 1.46220 0.26640
C12 C 0.0518(5) 1.3640(4) 0.3298(2)
C13 C 0.0397(5) 1.2698(3) 0.3449(2)
H3 H 0.05690 1.24870 0.38150
C14 C 0.0021(4) 1.2046(3) 0.3069(2)
C15 C -0.0170(5) 1.1074(3) 0.3265(2)
H4 H -0.00610 1.09370 0.36450
C16 C -0.0709(5) 0.9413(3) 0.3179(2)
H5 H -0.16090 0.93320 0.31180
C17 C -0.0463(5) 0.9228(4) 0.3776(2)
H6 H -0.10420 0.96690 0.39980
H7 H 0.04010 0.93610 0.38580
C18 C -0.0642(6) 0.8172(4) 0.3926(2)
H8 H -0.04070 0.80440 0.43120
H9 H -0.15330 0.80680 0.38910
C19 C 0.0128(6) 0.7473(4) 0.3566(2)
H10 H -0.00400 0.68030 0.36670
H11 H 0.10230 0.75320 0.36290
C20 C -0.0150(6) 0.7655(3) 0.2962(2)
H12 H -0.10240 0.75370 0.28900
H13 H 0.04070 0.72030 0.27370
C21 C 0.0055(6) 0.8701(3) 0.2811(2)
H14 H 0.09560 0.87840 0.28650
C22 C -0.0375(5) 0.8395(3) 0.1856(2)
H15 H -0.02870 0.77250 0.19530
C23 C -0.0617(4) 0.8635(3) 0.1296(2)
C24 C -0.0712(4) 0.7862(3) 0.0932(2)
H16 H -0.06560 0.72120 0.10660
C25 C -0.0883(5) 0.8054(3) 0.0390(2)
C26 C -0.1017(5) 0.9001(3) 0.0188(2)
H17 H -0.11660 0.91210 -0.01900
C27 C -0.0935(5) 0.9761(3) 0.0534(2)
H18 H -0.10370 1.04060 0.03920
C28 C -0.0704(4) 0.9607(3) 0.1093(2)
Br1 Br 0.09938(6) 1.45340(4) 0.38204(2)
Br2 Br -0.09750(5) 0.70239(3) -0.01083(2)
Fe1 Fe 0.50000 0.50000 0.50000
N11 N 0.4683(4) 0.5432(3) 0.41533(17)
N12 N 0.4482(4) 0.4699(3) 0.38030(17)
N13 N 0.6316(4) 0.3873(3) 0.46468(16)
N14 N 0.5978(4) 0.3482(3) 0.41709(17)
N15 N 0.3604(4) 0.4012(3) 0.48463(18)
N16 N 0.3817(4) 0.3446(3) 0.43909(17)
C29 C 0.4540(6) 0.7214(3) 0.4105(2)
H19 H 0.47610 0.71310 0.44920
H20 H 0.37430 0.76180 0.40750
H21 H 0.51920 0.75310 0.39070
C30 C 0.4424(5) 0.6252(3) 0.3863(2)
C31 C 0.4067(6) 0.6044(4) 0.3335(2)
H22 H 0.38340 0.65030 0.30530
C32 C 0.4115(5) 0.5051(3) 0.3300(2)
C33 C 0.3845(6) 0.4423(4) 0.2839(2)
H23 H 0.46050 0.40160 0.27340
H24 H 0.35530 0.48290 0.25260
H25 H 0.31970 0.40080 0.29520
C34 C 0.8207(6) 0.3729(4) 0.5215(2)
H26 H 0.77390 0.42550 0.54180
H27 H 0.90050 0.39400 0.50880
H28 H 0.83600 0.31580 0.54560
C35 C 0.7467(5) 0.3476(3) 0.4733(2)
C36 C 0.7850(5) 0.2826(3) 0.4322(2)
H29 H 0.86320 0.24460 0.42960
C37 C 0.6890(5) 0.2837(3) 0.3961(2)
C38 C 0.6758(5) 0.2312(4) 0.3441(3)
H30 H 0.58740 0.22410 0.33810
H31 H 0.72240 0.16690 0.34650
H32 H 0.70890 0.26810 0.31360
C39 C 0.2278(6) 0.3979(4) 0.5680(2)
H33 H 0.26870 0.45610 0.57630
H34 H 0.24470 0.34940 0.59730
H35 H 0.13760 0.41490 0.56550
C40 C 0.2777(5) 0.3569(3) 0.5145(2)
C41 C 0.2487(5) 0.2727(4) 0.4892(2)
H36 H 0.19220 0.22910 0.50260
C42 C 0.3166(5) 0.2647(3) 0.4419(2)
C43 C 0.3271(5) 0.1899(4) 0.3984(2)
H37 H 0.26390 0.14450 0.40480
H38 H 0.41040 0.15440 0.39910
H39 H 0.31400 0.22160 0.36250
C44 C 0.4712(4) 0.3695(3) 0.3980(2)
H40 H 0.46150 0.32810 0.36540
Fe2 Fe 0.50000 0.50000 0.00000
N17 N 0.3602(4) 0.4554(3) 0.05752(19)
N18 N 0.3740(4) 0.3603(2) 0.07538(17)
N19 N 0.6307(4) 0.4066(3) 0.04937(19)
N20 N 0.5925(4) 0.3164(3) 0.06264(18)
N21 N 0.4680(4) 0.3690(3) -0.04197(19)
N22 N 0.4525(4) 0.2894(2) -0.00900(17)
C45 C 0.2187(6) 0.6000(4) 0.0806(3)
H41 H 0.24100 0.63490 0.11310
H42 H 0.12780 0.60720 0.07670
H43 H 0.25780 0.62700 0.04810
C46 C 0.2634(5) 0.4952(3) 0.0867(3)
C47 C 0.2171(5) 0.4263(4) 0.1225(2)
H44 H 0.14890 0.43720 0.14760
C48 C 0.2893(5) 0.3405(3) 0.1142(2)
C49 C 0.2806(5) 0.2420(3) 0.1395(2)
H45 H 0.26770 0.19550 0.11070
H46 H 0.21020 0.24490 0.16560
H47 H 0.35800 0.22120 0.15870
C50 C 0.8220(6) 0.4881(4) 0.0615(3)
H48 H 0.88620 0.47430 0.03300
H49 H 0.86180 0.50010 0.09620
H50 H 0.76690 0.54560 0.05080
C51 C 0.7471(5) 0.4030(4) 0.0682(3)
C52 C 0.7825(5) 0.3120(4) 0.0923(3)
H51 H 0.86100 0.29160 0.10800
C53 C 0.6830(5) 0.2583(3) 0.0891(2)
C54 C 0.6649(5) 0.1578(4) 0.1072(3)
H52 H 0.59770 0.15940 0.13480
H53 H 0.74240 0.12730 0.12310
H54 H 0.64270 0.12030 0.07570
C55 C 0.4549(6) 0.4060(4) -0.1414(2)
H55 H 0.48320 0.46750 -0.12960
H56 H 0.51500 0.37520 -0.16790
H57 H 0.37310 0.41840 -0.15840
C56 C 0.4451(5) 0.3397(3) -0.0925(2)
C57 C 0.4145(5) 0.2440(3) -0.0914(2)
H58 H 0.39390 0.20750 -0.12200
C58 C 0.4199(5) 0.2128(3) -0.0382(2)
C59 C 0.4006(5) 0.1185(3) -0.0113(2)
H59 H 0.33250 0.12800 0.01570
H60 H 0.37910 0.07260 -0.03900
H61 H 0.47740 0.09270 0.00690
C60 C 0.4696(4) 0.2940(3) 0.0494(2)
H62 H 0.45990 0.22780 0.06470
O3 O 0.0194(4) 0.1160(3) 0.46702(15)
O4 O 0.1895(8) 0.6014(5) 0.2197(4)
O5 O 0.9590(7) 0.5790(4) 0.1783(3)
O6 O 0.1933(4) 0.9476(3) 0.47453(16)
O7 O 0.7862(6) 0.5803(4) 0.2596(3)
H63 H 0.79940 0.62020 0.28390
C61 C 0.7247(9) 0.5067(6) 0.2824(5)
H64 H 0.77400 0.47600 0.31250
H65 H 0.71340 0.45830 0.25450
H66 H 0.64300 0.53340 0.29650
O8 O 0.2986(4) 0.9267(3) 0.03711(16)
H67 H 0.34760 0.95030 0.05850
C62 C 0.2448(6) 0.8519(4) 0.0632(3)
H68 H 0.30990 0.80030 0.07300
H69 H 0.18540 0.82600 0.03860
H70 H 0.20090 0.87620 0.09640
O9 O 0.3964(10) 1.0022(6) 0.5167(3)
O10? O 0.3995(10) 0.8914(6) 0.5314(3)
N8* N -0.2649(4) 1.0285(3) 0.22257(18)
Mn1* Mn 0.94925(7) 1.04425(5) 0.21528(3)
N11A N 0.5317(4) 0.4568(3) 0.58467(17)
N12A N 0.5518(4) 0.5301(3) 0.61970(17)
N13A N 0.3684(4) 0.6127(3) 0.53532(16)
N14A N 0.4022(4) 0.6518(3) 0.58291(17)
N15A N 0.6396(4) 0.5988(3) 0.51537(18)
N16A N 0.6183(4) 0.6554(3) 0.56091(17)
C29A C 0.5460(6) 0.2786(3) 0.5895(2)
H19A H 0.52390 0.28690 0.55080
H20A H 0.62570 0.23820 0.59250
H21A H 0.48080 0.24690 0.60930
C30A C 0.5576(5) 0.3748(3) 0.6137(2)
C31A C 0.5933(6) 0.3956(4) 0.6665(2)
H22A H 0.61660 0.34970 0.69470
C32A C 0.5885(5) 0.4949(3) 0.6700(2)
C33A C 0.6155(6) 0.5577(4) 0.7161(2)
H23A H 0.53950 0.59840 0.72660
H24A H 0.64470 0.51710 0.74740
H25A H 0.68030 0.59920 0.70480
C34A C 0.1793(6) 0.6271(4) 0.4785(2)
H26A H 0.22610 0.57450 0.45820
H27A H 0.09950 0.60600 0.49120
H28A H 0.16400 0.68420 0.45440
C35A C 0.2533(5) 0.6524(3) 0.5267(2)
C36A C 0.2150(5) 0.7174(3) 0.5678(2)
H29A H 0.13680 0.75540 0.57040
C37A C 0.3110(5) 0.7163(3) 0.6039(2)
C38A C 0.3242(5) 0.7688(4) 0.6559(3)
H30A H 0.41260 0.77590 0.66190
H31A H 0.27760 0.83310 0.65350
H32A H 0.29110 0.73190 0.68640
C39A C 0.7722(6) 0.6021(4) 0.4320(2)
H33A H 0.73130 0.54390 0.42370
H34A H 0.75530 0.65060 0.40270
H35A H 0.86240 0.58510 0.43450
C40A C 0.7223(5) 0.6431(3) 0.4855(2)
C41A C 0.7513(5) 0.7273(4) 0.5108(2)
H36A H 0.80780 0.77090 0.49740
C42A C 0.6834(5) 0.7353(3) 0.5581(2)
C43A C 0.6729(5) 0.8101(4) 0.6016(2)
H37A H 0.73610 0.85550 0.59520
H38A H 0.58960 0.84560 0.60090
H39A H 0.68600 0.77840 0.63750
C44A C 0.5288(4) 0.6305(3) 0.6020(2)
H40A H 0.53850 0.67190 0.63460
N17A N 0.6398(4) 0.5446(3) -0.05752(19)
N18A N 0.6260(4) 0.6397(2) -0.07538(17)
N19A N 0.3693(4) 0.5934(3) -0.04937(19)
N20A N 0.4075(4) 0.6836(3) -0.06264(18)
N21A N 0.5320(4) 0.6310(3) 0.04197(19)
N22A N 0.5475(4) 0.7106(2) 0.00900(17)
C45A C 0.7813(6) 0.4000(4) -0.0806(3)
H41A H 0.75900 0.36510 -0.11310
H42A H 0.87220 0.39280 -0.07670
H43A H 0.74220 0.37300 -0.04810
C46A C 0.7366(5) 0.5048(3) -0.0867(3)
C47A C 0.7829(5) 0.5737(4) -0.1225(2)
H44A H 0.85110 0.56280 -0.14760
C48A C 0.7107(5) 0.6595(3) -0.1142(2)
C49A C 0.7194(5) 0.7580(3) -0.1395(2)
H45A H 0.73230 0.80450 -0.11070
H46A H 0.78980 0.75510 -0.16560
H47A H 0.64200 0.77880 -0.15870
C50A C 0.1780(6) 0.5119(4) -0.0615(3)
H48A H 0.11380 0.52570 -0.03300
H49A H 0.13820 0.49990 -0.09620
H50A H 0.23310 0.45440 -0.05080
C51A C 0.2529(5) 0.5970(4) -0.0682(3)
C52A C 0.2175(5) 0.6880(4) -0.0923(3)
H51A H 0.13900 0.70840 -0.10800
C53A C 0.3170(5) 0.7417(3) -0.0891(2)
C54A C 0.3351(5) 0.8422(4) -0.1072(3)
H52A H 0.40230 0.84060 -0.13480
H53A H 0.25760 0.87270 -0.12310
H54A H 0.35730 0.87970 -0.07570
C55A C 0.5451(6) 0.5940(4) 0.1414(2)
H55A H 0.51680 0.53250 0.12960
H56A H 0.48500 0.62480 0.16790
H57A H 0.62690 0.58160 0.15840
C56A C 0.5549(5) 0.6603(3) 0.0925(2)
C57A C 0.5855(5) 0.7560(3) 0.0914(2)
H58A H 0.60610 0.79250 0.12200
C58A C 0.5801(5) 0.7872(3) 0.0382(2)
C59A C 0.5994(5) 0.8815(3) 0.0113(2)
H59A H 0.66750 0.87200 -0.01570
H60A H 0.62090 0.92740 0.03900
H61A H 0.52260 0.90730 -0.00690
C60A C 0.5304(4) 0.7060(3) -0.0494(2)
H62A H 0.54010 0.77220 -0.06470
#END
