
#######################################################################
#
#                 Cambridge Crystallographic Data Centre
#                                CCDC
#
#######################################################################
#
# If this CIF has been generated from an entry in the Cambridge
# Structural Database, then it will include bibliographic, chemical,
# crystal, experimental, refinement or atomic coordinate data resulting
# from the CCDC's data processing and validation procedures.
#
#######################################################################

data_CSD_CIF_ABIKAZ
_audit_creation_date 2011-11-16
_audit_creation_method CSD-ConQuest-V1
_database_code_CSD ABIKAZ
_database_code_depnum_ccdc_archive 'CCDC 821662'
_chemical_formula_sum 'C62 H80 Br2 Cd1 Mn1 Mo1 N22 O9'
_chemical_formula_moiety
;
(C32 H44 Cd1 N12 2+)n,n(C28 H18 Br2 Mn1 Mo1 N10 O2 2-),2n(C1 H4 O1),5n(H2 O1)
;
_journal_coden_Cambridge 182
_journal_volume 47
_journal_year 2011
_journal_page_first 10416
_journal_name_full 'Chem.Commun. '
loop_
_publ_author_name
"Jung Hee Yoon"
"Dae Won Ryu"
"Sang Yup Choi"
"Hyoung Chan Kim"
"Eui Kwan Koh"
"Jun Tao"
"Chang Seop Hong"
_chemical_name_systematic
;
catena-(bis(tris(3,5-Dimethylpyrazolyl)methane-N,N',N'')-cadmium(ii) 
bis(\m~2~-cyano)-hexacyano-(N,N'-bis(5-bromo-2-oxybenzylidene)cyclohexane-1,2-
diamine)-manganese(iii)-molybdenum(v) methanol solvate pentahydrate)
;
_cell_volume   3686.269
_exptl_crystal_colour 'red'
_exptl_crystal_density_diffrn 1.532
_exptl_crystal_description 'block'
_diffrn_ambient_temperature 100
_refine_special_details
;
O3A and O3B disordered over two sites with occupancies 0.50:0.50.

;
#These two values have been output from a single CSD field.
_refine_ls_R_factor_gt 0.085
_refine_ls_wR_factor_gt 0.085
_symmetry_cell_setting triclinic
_symmetry_space_group_name_H-M 'P -1'
_symmetry_Int_Tables_number 2
loop_
_symmetry_equiv_pos_site_id
_symmetry_equiv_pos_as_xyz
1 x,y,z
2 -x,-y,-z
_cell_length_a 10.7993(9)
_cell_length_b 14.0068(11)
_cell_length_c 24.4363(19)
_cell_angle_alpha 90
_cell_angle_beta 90
_cell_angle_gamma 94.227(4)
_cell_formula_units_Z 2
loop_
_atom_type_symbol
_atom_type_radius_bond
C 0.68
H 0.23
Br 1.21
Cd 1.44
Mn 1.56
Mo 1.54
N 0.68
O 0.68
loop_
_atom_site_label
_atom_site_type_symbol
_atom_site_fract_x
_atom_site_fract_y
_atom_site_fract_z
Mo1 Mo 1.05676(6) -0.04118(5) 0.25305(3)
C1 C 1.2451(9) 0.0113(6) 0.2325(4)
N1 N 1.3451(7) 0.0391(6) 0.2221(4)
C2 C 0.9540(9) -0.0155(7) 0.3275(4)
N2 N 0.9017(9) 0.0000(7) 0.3667(4)
C3 C 1.0717(8) 0.1136(6) 0.2602(4)
N3 N 1.0749(8) 0.1941(6) 0.2627(4)
C4 C 1.1677(9) -0.0704(8) 0.3259(4)
N4 N 1.2262(8) -0.0848(7) 0.3629(4)
C5 C 1.1571(9) -0.1621(7) 0.2275(5)
N5 N 1.2103(9) -0.2273(7) 0.2154(5)
C6 C 1.0565(8) -0.0224(7) 0.1635(4)
N6 N 1.0598(8) -0.0126(7) 0.1191(4)
C7 C 0.9373(9) -0.1693(7) 0.2597(5)
N7 N 0.8724(9) -0.2395(7) 0.2651(5)
C8 C 0.8728(8) -0.0004(7) 0.2305(4)
N8 N 0.7731(7) 0.0199(6) 0.2199(4)
Mn1 Mn 1.56031(12) 0.03977(10) 0.21504(6)
O1 O 1.5755(6) 0.1747(5) 0.2140(3)
O2 O 1.5611(6) 0.0298(4) 0.1391(3)
N9 N 1.5607(7) 0.0417(5) 0.2940(4)
N10 N 1.5392(7) -0.1019(5) 0.2259(3)
C9 C 1.5306(8) 0.2305(6) 0.2515(4)
C10 C 1.5150(9) 0.3259(7) 0.2340(4)
H1 H 1.53300 0.34510 0.19740
C11 C 1.4724(9) 0.3908(7) 0.2720(4)
H2 H 1.46010 0.45460 0.26120
C12 C 1.4483(9) 0.3621(7) 0.3253(4)
C13 C 1.4643(9) 0.2714(7) 0.3428(5)
H3 H 1.44800 0.25370 0.37980
C14 C 1.5057(9) 0.2038(7) 0.3048(4)
C15 C 1.5260(9) 0.1083(7) 0.3260(4)
H4 H 1.51360 0.09510 0.36380
C16 C 1.5860(9) -0.0538(7) 0.3194(4)
H5 H 1.67590 -0.06310 0.31310
C17 C 1.5625(10) -0.0686(7) 0.3780(5)
H6 H 1.47620 -0.05440 0.38660
H7 H 1.61930 -0.02430 0.39950
C18 C 1.5826(11) -0.1734(7) 0.3941(5)
H8 H 1.67160 -0.18440 0.39000
H9 H 1.56020 -0.18340 0.43310
C19 C 1.5057(12) -0.2459(8) 0.3593(5)
H10 H 1.41620 -0.23970 0.36600
H11 H 1.52490 -0.31150 0.36960
C20 C 1.5346(10) -0.2288(7) 0.2989(4)
H12 H 1.62270 -0.23960 0.29180
H13 H 1.48250 -0.27490 0.27650
C21 C 1.5101(10) -0.1281(7) 0.2826(5)
H14 H 1.42000 -0.12000 0.28870
C22 C 1.5447(9) -0.1645(7) 0.1868(4)
H15 H 1.53540 -0.23020 0.19670
C23 C 1.5639(8) -0.1417(6) 0.1298(4)
C24 C 1.5720(9) -0.2225(7) 0.0935(4)
H16 H 1.56970 -0.28570 0.10770
C25 C 1.5826(8) -0.2070(7) 0.0398(4)
C26 C 1.5945(9) -0.1115(7) 0.0168(4)
H17 H 1.60590 -0.10120 -0.02140
C27 C 1.5885(9) -0.0358(7) 0.0528(4)
H18 H 1.59630 0.02750 0.03870
C28 C 1.5716(7) -0.0484(6) 0.1090(4)
Br1 Br 1.39816(10) 0.45756(7) 0.37525(5)
Br2 Br 1.59254(10) -0.30981(7) -0.01008(5)
Cd1 Cd 0.00000 0.50000 0.50000
N11 N -0.1224(7) 0.3678(6) 0.4636(4)
N12 N -0.0914(7) 0.3369(5) 0.4129(4)
N13 N 0.0112(8) 0.5353(6) 0.4076(4)
N14 N 0.0408(7) 0.4625(5) 0.3732(3)
N15 N 0.1578(8) 0.4053(7) 0.4725(4)
N16 N 0.1265(7) 0.3433(5) 0.4294(3)
C29 C -0.2987(12) 0.3402(9) 0.5285(6)
H19 H -0.30170 0.28010 0.54920
H20 H -0.38330 0.35860 0.52220
H21 H -0.25210 0.39060 0.54950
C30 C -0.2349(9) 0.3269(7) 0.4739(5)
C31 C -0.2759(10) 0.2666(8) 0.4309(5)
H22 H -0.35120 0.22720 0.42890
C32 C -0.1819(9) 0.2768(7) 0.3914(5)
C33 C -0.1747(9) 0.2321(9) 0.3354(5)
H23 H -0.18380 0.28110 0.30730
H24 H -0.24150 0.18130 0.33140
H25 H -0.09430 0.20490 0.33110
C34 C 0.0069(13) 0.7133(7) 0.4012(5)
H26 H -0.06770 0.73600 0.38420
H27 H 0.07810 0.75880 0.39360
H28 H -0.00560 0.70790 0.44080
C35 C 0.0312(10) 0.6164(7) 0.3780(5)
C36 C 0.0690(11) 0.5935(8) 0.3248(5)
H29 H 0.08670 0.63750 0.29570
C37 C 0.0758(10) 0.4956(7) 0.3223(4)
C38 C 0.1088(15) 0.4310(9) 0.2746(5)
H30 H 0.19170 0.40870 0.28050
H31 H 0.10810 0.46720 0.24030
H32 H 0.04780 0.37570 0.27240
C39 C 0.3023(12) 0.4107(9) 0.5503(6)
H33 H 0.24820 0.45850 0.56420
H34 H 0.38330 0.44230 0.54050
H35 H 0.31330 0.36260 0.57870
C40 C 0.2446(9) 0.3632(7) 0.5010(4)
C41 C 0.2701(9) 0.2767(7) 0.4769(4)
H36 H 0.32820 0.23380 0.48920
C42 C 0.1948(8) 0.2657(6) 0.4319(4)
C43 C 0.1781(10) 0.1858(7) 0.3914(5)
H37 H 0.08930 0.16740 0.38690
H38 H 0.22030 0.13070 0.40460
H39 H 0.21350 0.20690 0.35610
C44 C 0.0297(8) 0.3619(6) 0.3920(4)
H40 H 0.04050 0.32090 0.35900
Cd2 Cd 1.00000 0.50000 0.00000
N17 N 0.8579(7) 0.5567(5) -0.0630(4)
N18 N 0.8707(7) 0.6505(6) -0.0774(3)
N19 N 1.1304(8) 0.6030(5) -0.0516(4)
N20 N 1.0886(7) 0.6913(5) -0.0651(4)
N21 N 0.9594(8) 0.6416(6) 0.0423(4)
N22 N 0.9475(7) 0.7199(6) 0.0063(3)
C45 C 0.9648(8) 0.7135(6) -0.0517(4)
H41 H 0.95470 0.77890 -0.06660
C46 C 0.8946(9) 0.8907(7) 0.0086(5)
H42 H 0.86810 0.93630 0.03580
H43 H 0.83050 0.88090 -0.01970
H44 H 0.97250 0.91620 -0.00830
C47 C 0.9140(8) 0.7980(7) 0.0356(5)
C48 C 0.9060(9) 0.7683(6) 0.0902(4)
H45 H 0.88460 0.80680 0.12020
C49 C 0.9352(9) 0.6707(7) 0.0933(4)
C50 C 0.9444(13) 0.6088(8) 0.1402(5)
H46 H 0.98930 0.55320 0.12990
H47 H 0.86090 0.58710 0.15280
H48 H 0.98930 0.64400 0.16960
C51 C 0.7206(11) 0.4139(7) -0.0864(5)
H49 H 0.76580 0.38640 -0.05610
H50 H 0.63140 0.40810 -0.07850
H51 H 0.73660 0.37950 -0.12030
C52 C 0.7638(9) 0.5179(7) -0.0930(4)
C53 C 0.7191(10) 0.5872(8) -0.1285(4)
H52 H 0.65370 0.57720 -0.15430
C54 C 0.7887(9) 0.6723(6) -0.1186(4)
C55 C 0.7792(12) 0.7700(8) -0.1401(5)
H53 H 0.77950 0.81540 -0.10960
H54 H 0.85000 0.78710 -0.16420
H55 H 0.70180 0.77240 -0.16080
C56 C 1.1574(11) 0.8485(7) -0.1070(5)
H56 H 1.11490 0.88080 -0.07770
H57 H 1.23720 0.88380 -0.11480
H58 H 1.10580 0.84620 -0.14010
C57 C 1.1793(10) 0.7484(8) -0.0895(5)
C58 C 1.2819(10) 0.6975(7) -0.0946(4)
H59 H 1.35930 0.71810 -0.11080
C59 C 1.2474(10) 0.6069(8) -0.0703(5)
C60 C 1.323(1) 0.5227(7) -0.0637(5)
H60 H 1.26780 0.46410 -0.06150
H61 H 1.37880 0.51870 -0.09510
H62 H 1.37220 0.52990 -0.03000
C61 C 0.9060(16) 0.0098(12) 0.4828(7)
O3 O 0.9062(14) 0.1016(11) 0.4681(7)
O4 O 0.2047(9) 0.9152(6) 0.0297(4)
H63 H 0.17190 0.94750 0.05400
C62 C 0.2497(11) 0.8322(8) 0.0536(6)
H64 H 0.31220 0.85120 0.08140
H65 H 0.28720 0.79430 0.02520
H66 H 0.18070 0.79380 0.07080
O5 O 0.3234(9) 0.6022(6) 0.2338(4)
O6 O 0.5493(10) 0.5806(7) 0.1777(5)
O7 O 0.7317(12) -0.4214(8) 0.2579(6)
O8 O 0.3142(8) 0.9493(8) 0.4739(4)
O9 O 0.4838(8) 0.1148(5) 0.4660(3)
O10? O 0.977(2) 0.0956(17) 0.4969(10)
N8* N 1.7731(7) 0.0199(6) 0.2199(4)
Mn1* Mn 0.56031(12) 0.03977(10) 0.21504(6)
N11A N 0.1224(7) 0.6322(6) 0.5364(4)
N12A N 0.0914(7) 0.6631(5) 0.5871(4)
N13A N -0.0112(8) 0.4647(6) 0.5924(4)
N14A N -0.0408(7) 0.5375(5) 0.6268(3)
N15A N -0.1578(8) 0.5947(7) 0.5275(4)
N16A N -0.1265(7) 0.6567(5) 0.5706(3)
C29A C 0.2987(12) 0.6598(9) 0.4715(6)
H19A H 0.30170 0.71990 0.45080
H20A H 0.38330 0.64140 0.47780
H21A H 0.25210 0.60940 0.45050
C30A C 0.2349(9) 0.6731(7) 0.5261(5)
C31A C 0.2759(10) 0.7334(8) 0.5691(5)
H22A H 0.35120 0.77280 0.57110
C32A C 0.1819(9) 0.7232(7) 0.6086(5)
C33A C 0.1747(9) 0.7679(9) 0.6646(5)
H23A H 0.18380 0.71890 0.69270
H24A H 0.24150 0.81870 0.66860
H25A H 0.09430 0.79510 0.66890
C34A C -0.0069(13) 0.2867(7) 0.5988(5)
H26A H 0.06770 0.26400 0.61580
H27A H -0.07810 0.24120 0.60640
H28A H 0.00560 0.29210 0.55920
C35A C -0.0312(10) 0.3836(7) 0.6220(5)
C36A C -0.0690(11) 0.4065(8) 0.6752(5)
H29A H -0.08670 0.36250 0.70430
C37A C -0.0758(10) 0.5044(7) 0.6777(4)
C38A C -0.1088(15) 0.5690(9) 0.7254(5)
H30A H -0.19170 0.59130 0.71950
H31A H -0.10810 0.53280 0.75970
H32A H -0.04780 0.62430 0.72760
C39A C -0.3023(12) 0.5893(9) 0.4497(6)
H33A H -0.24820 0.54150 0.43580
H34A H -0.38330 0.55770 0.45950
H35A H -0.31330 0.63740 0.42130
C40A C -0.2446(9) 0.6368(7) 0.4990(4)
C41A C -0.2701(9) 0.7233(7) 0.5231(4)
H36A H -0.32820 0.76620 0.51080
C42A C -0.1948(8) 0.7343(6) 0.5681(4)
C43A C -0.1781(10) 0.8142(7) 0.6086(5)
H37A H -0.08930 0.83260 0.61310
H38A H -0.22030 0.86930 0.59540
H39A H -0.21350 0.79310 0.64390
C44A C -0.0297(8) 0.6381(6) 0.6080(4)
H40A H -0.04050 0.67910 0.64100
N17A N 1.1421(7) 0.4433(5) 0.0630(4)
N18A N 1.1293(7) 0.3495(6) 0.0774(3)
N19A N 0.8696(8) 0.3970(5) 0.0516(4)
N20A N 0.9114(7) 0.3087(5) 0.0651(4)
N21A N 1.0406(8) 0.3584(6) -0.0423(4)
N22A N 1.0525(7) 0.2801(6) -0.0063(3)
C45A C 1.0352(8) 0.2865(6) 0.0517(4)
H41A H 1.04530 0.22110 0.06660
C46A C 1.1054(9) 0.1093(7) -0.0086(5)
H42A H 1.13190 0.06370 -0.03580
H43A H 1.16950 0.11910 0.01970
H44A H 1.02750 0.08380 0.00830
C47A C 1.0860(8) 0.2020(7) -0.0356(5)
C48A C 1.0940(9) 0.2317(6) -0.0902(4)
H45A H 1.11540 0.19320 -0.12020
C49A C 1.0648(9) 0.3293(7) -0.0933(4)
C50A C 1.0556(13) 0.3912(8) -0.1402(5)
H46A H 1.01070 0.44680 -0.12990
H47A H 1.13910 0.41290 -0.15280
H48A H 1.01070 0.35600 -0.16960
C51A C 1.2794(11) 0.5861(7) 0.0864(5)
H49A H 1.23420 0.61360 0.05610
H50A H 1.36860 0.59190 0.07850
H51A H 1.26340 0.62050 0.12030
C52A C 1.2362(9) 0.4821(7) 0.0930(4)
C53A C 1.2809(10) 0.4128(8) 0.1285(4)
H52A H 1.34630 0.42280 0.15430
C54A C 1.2113(9) 0.3277(6) 0.1186(4)
C55A C 1.2208(12) 0.2300(8) 0.1401(5)
H53A H 1.22050 0.18460 0.10960
H54A H 1.15000 0.21290 0.16420
H55A H 1.29820 0.22760 0.16080
C56A C 0.8426(11) 0.1515(7) 0.1070(5)
H56A H 0.88510 0.11920 0.07770
H57A H 0.76280 0.11620 0.11480
H58A H 0.89420 0.15380 0.14010
C57A C 0.8207(10) 0.2516(8) 0.0895(5)
C58A C 0.7181(10) 0.3025(7) 0.0946(4)
H59A H 0.64070 0.28190 0.11080
C59A C 0.7526(10) 0.3931(8) 0.0703(5)
C60A C 0.677(1) 0.4773(7) 0.0637(5)
H60A H 0.73220 0.53590 0.06150
H61A H 0.62120 0.48130 0.09510
H62A H 0.62780 0.47010 0.03000
#END
