
#######################################################################
#
#                 Cambridge Crystallographic Data Centre
#                                CCDC
#
#######################################################################
#
# If this CIF has been generated from an entry in the Cambridge
# Structural Database, then it will include bibliographic, chemical,
# crystal, experimental, refinement or atomic coordinate data resulting
# from the CCDC's data processing and validation procedures.
#
#######################################################################

data_CSD_CIF_ABINEF
_audit_creation_date 2005-02-04
_audit_creation_method CSD-ConQuest-V1
_database_code_CSD ABINEF
_database_code_depnum_ccdc_archive 'CCDC 237005'
_chemical_formula_sum 'C54 H65.5 Cu10 N16.5 O0.25 S12'
_chemical_formula_moiety
;
(C12 H28 N1 1+)2n,n(C28 H6 Cu10 N14 S12 2-),0.5n(C2 H3 N1),0.25n(C4 H8 O1)
;
_journal_coden_Cambridge 222
_journal_year 2004
_journal_page_first 2394
_journal_name_full 'Dalton Trans. '
loop_
_publ_author_name
"S.Perruchas"
"K.Boubekeur"
_chemical_name_systematic
;
catena-(bis(Tetrapropylammonium) 
hexakis(\m~5~-isomaleonitriledithiolato)-bis(acetonitrile)-deca-copper(i) 
acetonitrile tetrahydrofuran solvate)
;
_cell_volume  10127.902
_exptl_crystal_colour 'red'
_exptl_crystal_density_diffrn 1.292
_exptl_crystal_description 'prism'
_diffrn_ambient_temperature 223
_refine_special_details
;
One acetonitrile ligand is equally disordered over three sites. The 
tetrahydrofuran solvent molecule is also disordered.
;
#These two values have been output from a single CSD field.
_refine_ls_R_factor_gt 0.0834
_refine_ls_wR_factor_gt 0.0834
_symmetry_cell_setting monoclinic
_symmetry_space_group_name_H-M 'C 2/c'
_symmetry_Int_Tables_number 15
loop_
_symmetry_equiv_pos_site_id
_symmetry_equiv_pos_as_xyz
1 x,y,z
2 1/2+x,1/2+y,z
3 x,-y,1/2+z
4 1/2+x,1/2-y,1/2+z
5 -x,-y,-z
6 -1/2-x,-1/2-y,-z
7 -x,y,-1/2-z
8 -1/2-x,-1/2+y,-1/2-z
_cell_length_a 14.2656(8)
_cell_length_b 24.5432(12)
_cell_length_c 29.298(2)
_cell_angle_alpha 90
_cell_angle_beta 99.132(8)
_cell_angle_gamma 90
_cell_formula_units_Z 4
loop_
_atom_type_symbol
_atom_type_radius_bond
C 0.68
H 0.23
Cu 1.52
N 0.68
O 0.68
S 1.02
loop_
_atom_site_label
_atom_site_type_symbol
_atom_site_fract_x
_atom_site_fract_y
_atom_site_fract_z
Cu1 Cu 0.97344(8) 0.00182(4) 0.41629(5)
Cu2 Cu 1.04773(8) 0.08814(4) 0.47305(5)
Cu3 Cu 1.09331(8) -0.07290(4) 0.47253(5)
Cu4 Cu 0.83221(8) -0.01558(4) 0.47225(5)
S1 S 1.19810(17) 0.06525(9) 0.46740(11)
S2 S 1.11573(17) -0.03119(9) 0.40670(11)
C1 C 1.1976(6) 0.0221(3) 0.4204(4)
C2 C 1.2652(7) 0.0297(4) 0.3927(4)
C3 C 1.2720(8) -0.0050(5) 0.3544(5)
C4 C 1.3319(7) 0.0730(4) 0.3993(4)
N1 N 1.3857(6) 0.1071(3) 0.4037(4)
N2 N 1.2803(8) -0.0326(5) 0.3232(5)
S3 S 0.94279(17) 0.09138(9) 0.40700(11)
S4 S 1.21242(17) -0.07250(9) 0.53254(11)
C5 C 0.8280(6) 0.1021(3) 0.4199(4)
C6 C 0.7687(7) 0.1349(3) 0.3915(5)
C7 C 0.6740(8) 0.1448(4) 0.3994(5)
C8 C 0.7955(8) 0.1621(5) 0.3525(6)
N3 N 0.5981(7) 0.1548(3) 0.4042(5)
N4 N 0.813(1) 0.1844(5) 0.3188(6)
S5 S 1.02016(16) 0.13769(8) 0.53401(10)
S6 S 0.85003(16) -0.05660(8) 0.40552(10)
C9 C 1.1013(6) 0.1214(3) 0.5811(4)
C10 C 1.1330(7) 0.1622(3) 0.6134(4)
C11 C 1.1950(8) 0.1527(4) 0.6559(5)
C12 C 1.1003(7) 0.2173(3) 0.6053(4)
N5 N 1.2422(9) 0.1448(4) 0.6898(4)
N6 N 1.0759(6) 0.2610(3) 0.5996(4)
Cu5 Cu 1.47330(8) 0.16753(4) 0.42147(5)
N7 N 1.436(2) 0.1670(13) 0.4904(12)
C13 C 1.403(3) 0.1601(17) 0.5236(15)
C14 C 1.354(4) 0.167(2) 0.5599(19)
H1 H 1.39490 0.18300 0.58540
H2 H 1.33280 0.13180 0.56900
H3 H 1.30020 0.18980 0.55060
N8? N 1.034(3) -0.3511(15) 0.4857(12)
C15? C 1.072(3) -0.3698(17) 0.5177(15)
C16? C 1.123(4) -0.3878(19) 0.5580(18)
H4? H 1.10360 -0.42430 0.56390
H5? H 1.11100 -0.36450 0.58290
H6? H 1.18910 -0.38730 0.55590
N9? N 1.004(2) -0.3039(13) 0.4834(11)
C17? C 1.026(4) -0.276(2) 0.512(2)
C18? C 1.058(4) -0.2462(19) 0.559(3)
H7? H 1.00380 -0.22900 0.56880
H8? H 1.10450 -0.21910 0.55540
H9? H 1.08450 -0.27210 0.58210
N10 N 0.50000 0.4173(5) 0.25000
C19 C 0.4794(8) 0.3842(5) 0.2062(5)
H10 H 0.53530 0.36280 0.20320
H11 H 0.46880 0.40910 0.18020
C20 C 0.3919(9) 0.3445(5) 0.2024(5)
H12 H 0.40090 0.31940 0.22840
H13 H 0.33460 0.36530 0.20370
C21 C 0.3814(12) 0.3135(6) 0.1589(6)
H14 H 0.32780 0.28950 0.15720
H15 H 0.43780 0.29250 0.15790
H16 H 0.37170 0.33830 0.13330
C22 C 0.5892(8) 0.4525(4) 0.2483(5)
H17 H 0.60650 0.47070 0.27780
H18 H 0.64140 0.42880 0.24390
C23 C 0.5762(10) 0.4954(5) 0.2099(6)
H19 H 0.55630 0.47820 0.18020
H20 H 0.52820 0.52160 0.21520
C24 C 0.6717(11) 0.5236(6) 0.2109(6)
H21 H 0.66620 0.55090 0.18720
H22 H 0.71850 0.49720 0.20570
H23 H 0.69050 0.54040 0.24050
N11 N 0.00000 0.4198(4) 0.25000
C25 C 0.0633(7) 0.3845(4) 0.2254(4)
H24 H 0.10490 0.36370 0.24840
H25 H 0.10310 0.40820 0.21010
C26 C 0.0128(11) 0.3449(6) 0.1897(6)
H26 H -0.02490 0.36490 0.16460
H27 H -0.02920 0.32150 0.20380
C27 C 0.0888(13) 0.3102(7) 0.1707(6)
H28 H 0.05810 0.28530 0.14780
H29 H 0.12510 0.29010 0.19560
H30 H 0.13030 0.33370 0.15690
C28 C -0.0672(8) 0.4552(5) 0.2176(4)
H31 H -0.11420 0.43190 0.19970
H32 H -0.10050 0.47910 0.23600
C29 C -0.0219(9) 0.4895(5) 0.1850(6)
H33 H 0.02200 0.51500 0.20240
H34 H 0.01370 0.46640 0.16700
C30 C -0.0953(11) 0.5202(6) 0.1532(6)
H35 H -0.06510 0.54180 0.13240
H36 H -0.12970 0.54360 0.17100
H37 H -0.13840 0.49500 0.13580
O1 O 0.5000(11) 0.2324(6) 0.2500(6)
C31 C 0.5526(11) 0.1946(6) 0.2357(6)
H38 H 0.61330 0.20310 0.25430
H39 H 0.55800 0.20870 0.20530
C32 C 0.5648(11) 0.1412(6) 0.2285(6)
H40 H 0.63010 0.13170 0.24060
H41 H 0.55530 0.13470 0.19550
O2 O 0.5000(11) 0.1035(6) 0.2500(6)
N12 N 0.8339(11) 0.1189(6) 0.1878(6)
C33 C 0.8065(11) 0.1626(6) 0.1906(6)
C34 C 0.8121(11) 0.2149(6) 0.1924(6)
H42 H 0.77710 0.22830 0.21550
H43 H 0.78600 0.22990 0.16290
H44 H 0.87750 0.22560 0.20030
Cu3D Cu 0.90669(8) 0.07290(4) 0.52747(5)
Cu1D Cu 1.02656(8) -0.00182(4) 0.58371(5)
Cu2D Cu 0.95227(8) -0.08814(4) 0.52695(5)
S1D S 0.80190(17) -0.06525(9) 0.53260(11)
S2D S 0.88427(17) 0.03119(9) 0.59330(11)
Cu4D Cu 1.16779(8) 0.01558(4) 0.52775(5)
S4D S 0.78758(17) 0.07250(9) 0.46746(11)
C9D C 0.8987(6) -0.1214(3) 0.4189(4)
S5D S 0.97984(16) -0.13769(8) 0.46599(10)
S3D S 1.05721(17) -0.09138(9) 0.59300(11)
S6D S 1.14997(16) 0.05660(8) 0.59448(10)
C5D C 1.1720(6) -0.1021(3) 0.5801(4)
C6D C 1.2313(7) -0.1349(3) 0.6085(5)
C7D C 1.3260(8) -0.1448(4) 0.6006(5)
N3D N 1.4019(7) -0.1548(3) 0.5958(5)
Cu5D Cu 1.52670(8) -0.16753(4) 0.57853(5)
C8D C 1.2045(8) -0.1621(5) 0.6475(6)
N4D N 1.187(1) -0.1844(5) 0.6812(6)
C10D C 0.8670(7) -0.1622(3) 0.3866(4)
C11D C 0.8050(8) -0.1527(4) 0.3441(5)
N5D N 0.7578(9) -0.1448(4) 0.3102(4)
C12D C 0.8997(7) -0.2173(3) 0.3947(4)
N6D N 0.9241(6) -0.2610(3) 0.4004(4)
Cu5A Cu 0.97330(8) -0.33247(4) 0.42147(5)
N1A N 0.8857(6) -0.3929(3) 0.4037(4)
N3A N 1.0981(7) -0.3452(3) 0.4042(5)
N7A N 0.936(2) -0.3330(13) 0.4904(12)
C13A C 0.903(3) -0.3399(17) 0.5236(15)
C14A C 0.854(4) -0.333(2) 0.5599(19)
H1A H 0.89490 -0.31700 0.58540
H2A H 0.83280 -0.36820 0.56900
H3A H 0.80020 -0.31020 0.55060
C1D C 0.8024(6) -0.0221(3) 0.5796(4)
Cu5* Cu 0.47330(8) 0.16753(4) 0.42147(5)
Cu5E Cu 1.02670(8) 0.33247(4) 0.57853(5)
N3* N 1.5981(7) 0.1548(3) 0.4042(5)
N6E N 1.4241(6) 0.2390(3) 0.4004(4)
C19F C 0.5206(8) 0.3842(5) 0.2938(5)
H10F H 0.46470 0.36280 0.29680
H11F H 0.53120 0.40910 0.31980
C20F C 0.6081(9) 0.3445(5) 0.2976(5)
H12F H 0.59910 0.31940 0.27160
H13F H 0.66540 0.36530 0.29630
C21F C 0.6186(12) 0.3135(6) 0.3411(6)
H14F H 0.67220 0.28950 0.34280
H15F H 0.56220 0.29250 0.34210
H16F H 0.62830 0.33830 0.36670
C22F C 0.4108(8) 0.4525(4) 0.2517(5)
H17F H 0.39350 0.47070 0.22220
H18F H 0.35860 0.42880 0.25610
C23F C 0.4238(10) 0.4954(5) 0.2901(6)
H19F H 0.44370 0.47820 0.31980
H20F H 0.47180 0.52160 0.28480
C24F C 0.3283(11) 0.5236(6) 0.2891(6)
H21F H 0.33380 0.55090 0.31280
H22F H 0.28150 0.49720 0.29430
H23F H 0.30950 0.54040 0.25950
C25F C -0.0633(7) 0.3845(4) 0.2746(4)
H24F H -0.10490 0.36370 0.25160
H25F H -0.10310 0.40820 0.28990
C26F C -0.0128(11) 0.3449(6) 0.3103(6)
H26F H 0.02490 0.36490 0.33540
H27F H 0.02920 0.32150 0.29620
C27F C -0.0888(13) 0.3102(7) 0.3293(6)
H28F H -0.05810 0.28530 0.35220
H29F H -0.12510 0.29010 0.30440
H30F H -0.13030 0.33370 0.34310
C28F C 0.0672(8) 0.4552(5) 0.2824(4)
H31F H 0.11420 0.43190 0.30030
H32F H 0.10050 0.47910 0.26400
C29F C 0.0219(9) 0.4895(5) 0.3150(6)
H33F H -0.02200 0.51500 0.29760
H34F H -0.01370 0.46640 0.33300
C30F C 0.0953(11) 0.5202(6) 0.3468(6)
H35F H 0.06510 0.54180 0.36760
H36F H 0.12970 0.54360 0.32900
H37F H 0.13840 0.49500 0.36420
C32F C 0.4352(11) 0.1412(6) 0.2715(6)
C31F C 0.4474(11) 0.1946(6) 0.2643(6)
H38F H 0.38670 0.20310 0.24570
H39F H 0.44200 0.20870 0.29470
H40F H 0.36990 0.13170 0.25940
H41F H 0.44470 0.13470 0.30450
C2D C 0.7348(7) -0.0297(4) 0.6073(4)
C3D C 0.7280(8) 0.0050(5) 0.6456(5)
C4D C 0.6681(7) -0.0730(4) 0.6007(4)
N2D N 0.7197(8) 0.0326(5) 0.6768(5)
N1D N 0.6143(6) -0.1071(3) 0.5963(4)
Cu5D* Cu 0.52670(8) -0.16753(4) 0.57853(5)
#END
