
#######################################################################
#
#                 Cambridge Crystallographic Data Centre
#                                CCDC
#
#######################################################################
#
# If this CIF has been generated from an entry in the Cambridge
# Structural Database, then it will include bibliographic, chemical,
# crystal, experimental, refinement or atomic coordinate data resulting
# from the CCDC's data processing and validation procedures.
#
#######################################################################

data_CSD_CIF_ABOHOO
_audit_creation_date 2001-10-16
_audit_creation_method CSD-ConQuest-V1
_database_code_CSD ABOHOO
_database_code_depnum_ccdc_archive 'CCDC 153421'
_chemical_formula_sum 'C50 H54 Co3 N15 O43 P1 W11'
_chemical_formula_moiety
;
(Co1 O39 P1 W11 5-)n,2n(C20 H22 Co1 N6 O2 2+),n(C10 H10 N3 1+)
;
_journal_coden_Cambridge 186
_journal_year 2001
_journal_page_first 2009
_journal_name_full 'J.Chem.Soc.,Dalton Trans. '
loop_
_publ_author_name
"Bangbo Yan"
"Yan Xu"
"Xianhui Bu"
"N.K.Goh"
"L.S.Chia"
"G.D.Stucky"
_chemical_name_systematic
;
catena-((\m~2~-Oxo)-phosphato-tetratriacontaoxo-cobalt(ii)-undeca-tungsten(vi)
 bis(diaqua-bis(di-2-pyridylamine)-cobalt(ii)) di-2-pyridylammonium)
;
_cell_volume   3967.597
_exptl_crystal_colour 'deep red'
_exptl_crystal_density_diffrn 3.167
_exptl_crystal_description 'rod'
_diffrn_ambient_temperature 293
#These two values have been output from a single CSD field.
_refine_ls_R_factor_gt 0.0404
_refine_ls_wR_factor_gt 0.0404
_symmetry_cell_setting monoclinic
_symmetry_space_group_name_H-M 'C m'
_symmetry_Int_Tables_number 8
loop_
_symmetry_equiv_pos_site_id
_symmetry_equiv_pos_as_xyz
1 x,y,z
2 x,-y,z
3 1/2+x,1/2+y,z
4 1/2+x,1/2-y,z
_cell_length_a 16.331(3)
_cell_length_b 25.873(4)
_cell_length_c 10.726(2)
_cell_angle_alpha 90
_cell_angle_beta 118.902(14)
_cell_angle_gamma 90
_cell_formula_units_Z 2
loop_
_atom_type_symbol
_atom_type_radius_bond
C 0.68
H 0.23
Co 1.33
N 0.68
O 0.68
P 1.05
W 1.39
loop_
_atom_site_label
_atom_site_type_symbol
_atom_site_fract_x
_atom_site_fract_y
_atom_site_fract_z
W1 W 0.31192(4) 0.56669(3) -0.00563(5)
W2 W 0.31053(4) 0.56609(3) -0.35388(6)
W3 W -0.04257(4) 0.42922(3) -0.27742(6)
W4 W -0.03961(4) 0.56972(3) -0.60073(6)
W5 W 0.13028(9) 0.636907(19) -0.30778(11)
W6 W 0.14033(9) 0.50000 0.02845(12)
Co1 Co 0.1440(3) 0.50000 -0.6220(3)
P1 P 0.1380(6) 0.50000 -0.3073(9)
O1 O -0.0759(13) 0.50000 -0.303(2)
O2 O -0.0768(13) 0.50000 -0.605(2)
O3 O 0.3977(12) 0.6058(7) 0.1172(18)
O4 O -0.1257(11) 0.5993(7) -0.7465(14)
O5 O 0.2377(9) 0.5507(5) 0.0848(13)
O6 O -0.1268(11) 0.4047(7) -0.2422(17)
O7 O 0.2140(9) 0.6136(5) -0.1209(12)
O8 O 0.0451(10) 0.5526(5) -0.6492(13)
O9 O 0.3955(13) 0.6053(8) -0.3399(18)
O10 O 0.2444(9) 0.5554(5) -0.5455(13)
O11 O 0.120(2) 0.50000 0.174(2)
O12 O 0.0523(8) 0.4501(5) -0.0905(12)
O13 O 0.2181(10) 0.6129(5) -0.3620(13)
O14 O 0.0322(9) 0.6310(5) -0.5004(12)
O15 O 0.1449(13) 0.7021(4) -0.2959(15)
O16 O 0.3411(9) 0.5609(5) -0.1502(12)
O17 O 0.1981(11) 0.50000 -0.3750(17)
O18 O 0.3745(12) 0.50000 -0.316(2)
O19 O 0.1950(11) 0.50000 -0.1447(15)
O20 O -0.0978(9) 0.4184(5) -0.4758(12)
O21 O 0.3678(13) 0.50000 0.0641(19)
O22 O 0.0734(8) 0.5484(4) -0.3519(10)
O23 O 0.0341(11) 0.3693(5) -0.2540(14)
Co2 Co 0.1388(3) 0.29504(7) -0.8030(3)
O24 O 0.1474(11) 0.3534(6) -0.6586(15)
H1 H 0.18230 0.33430 -0.57730
H2 H 0.09140 0.36380 -0.66200
O25 O 0.1321(11) 0.3552(6) -0.9359(15)
H3 H 0.15080 0.38480 -0.88240
H4 H 0.13230 0.36100 -1.02660
N1 N 0.2850(12) 0.2904(8) -0.7134(19)
N2 N -0.0056(13) 0.2877(8) -0.8833(18)
N3 N 0.0036(13) 0.1994(7) -0.833(2)
H5 H -0.01810 0.16980 -0.87100
N4 N 0.1380(14) 0.2387(8) -0.9483(18)
N5 N 0.1434(13) 0.2396(7) -0.6567(18)
N6 N 0.2759(16) 0.2005(8) -0.774(2)
H6 H 0.30060 0.17150 -0.73460
C1 C -0.1543(18) 0.3242(10) -1.049(3)
H7 H -0.18990 0.35270 -1.09780
C2 C 0.3365(12) 0.3296(8) -0.648(2)
H8 H 0.30760 0.36170 -0.66260
C3 C -0.0481(15) 0.2409(9) -0.905(2)
C4 C 0.1927(14) 0.1966(9) -0.899(2)
C5 C -0.1426(16) 0.2344(8) -0.993(2)
H9 H -0.17110 0.20280 -0.99670
C6 C 0.3264(18) 0.2443(9) -0.702(2)
C7 C 0.0884(16) 0.1982(8) -0.703(2)
C8 C 0.4233(16) 0.2379(9) -0.602(2)
H10 H 0.44970 0.20510 -0.58560
C9 C 0.4750(15) 0.277(1) -0.533(2)
H11 H 0.53820 0.27260 -0.46860
C10 C 0.215(2) 0.235(1) -0.528(2)
H12 H 0.25170 0.26420 -0.48830
C11 C 0.0599(19) 0.2350(11) -1.082(2)
H13 H 0.02380 0.26470 -1.11820
C12 C 0.110(2) 0.1483(10) -0.633(3)
H14 H 0.07260 0.11960 -0.67550
C13 C 0.089(3) 0.1509(10) -1.102(4)
H15 H 0.06920 0.11990 -1.15130
C14 C 0.1686(19) 0.1515(9) -0.978(3)
H16 H 0.20680 0.12240 -0.94640
C15 C 0.188(2) 0.1446(10) -0.502(3)
H17 H 0.20450 0.11340 -0.45280
C16 C 0.242(3) 0.1888(11) -0.445(3)
H18 H 0.29380 0.18830 -0.35480
C17 C 0.033(2) 0.1940(14) -1.159(3)
H19 H -0.02000 0.19350 -1.24850
C18 C -0.066(2) 0.3291(7) -0.956(2)
H20 H -0.04160 0.36230 -0.93640
C19 C 0.4330(16) 0.3272(11) -0.556(3)
H21 H 0.46810 0.35660 -0.51340
C20 C -0.1938(15) 0.2752(10) -1.074(3)
H22 H -0.25500 0.27010 -1.14570
N7 N -0.4248(17) 0.50000 -0.097(2)
N8 N -0.301(3) 0.50000 -0.147(3)
H23 H -0.26320 0.52780 -0.12490
N9 N -0.443(3) 0.50000 -0.338(4)
C21 C -0.305(3) 0.50000 -0.370(4)
H24 H -0.24000 0.50000 -0.32810
C22 C -0.408(5) 0.50000 0.137(8)
H25 H -0.43410 0.50000 0.19610
C23 C -0.459(3) 0.50000 -0.009(4)
H26 H -0.52370 0.50000 -0.04850
C24 C -0.273(2) 0.50000 0.091(3)
H27 H -0.20870 0.50000 0.12430
C25 C -0.334(2) 0.50000 -0.051(3)
C26 C -0.3522(18) 0.50000 -0.287(3)
C27 C -0.309(5) 0.50000 0.188(7)
H28 H -0.26860 0.50000 0.28520
C28 C -0.363(4) 0.50000 -0.520(4)
H29 H -0.33510 0.50000 -0.57880
C29 C -0.502(3) 0.50000 -0.493(5)
H30 H -0.56650 0.50000 -0.53260
C30 C -0.462(3) 0.50000 -0.583(5)
H31 H -0.49960 0.50000 -0.68130
O22A O 0.0734(8) 0.4516(4) -0.3519(10)
O5A O 0.2377(9) 0.4493(5) 0.0848(13)
O12A O 0.0523(8) 0.5499(5) -0.0905(12)
W1A W 0.31192(4) 0.43331(3) -0.00563(5)
W2A W 0.31053(4) 0.43391(3) -0.35388(6)
W3A W -0.04257(4) 0.57078(3) -0.27742(6)
W4A W -0.03961(4) 0.43028(3) -0.60073(6)
W5A W 0.13028(9) 0.363093(19) -0.30778(11)
O20A O -0.0978(9) 0.5816(5) -0.4758(12)
O23A O 0.0341(11) 0.6307(5) -0.2540(14)
O3A O 0.3977(12) 0.3942(7) 0.1172(18)
O7A O 0.2140(9) 0.3864(5) -0.1209(12)
O16A O 0.3411(9) 0.4391(5) -0.1502(12)
O9A O 0.3955(13) 0.3947(8) -0.3399(18)
O13A O 0.2181(10) 0.3871(5) -0.3620(13)
O6A O -0.1268(11) 0.5953(7) -0.2422(17)
O4A O -0.1257(11) 0.4007(7) -0.7465(14)
O14A O 0.0322(9) 0.3690(5) -0.5004(12)
O15A O 0.1449(13) 0.2979(4) -0.2959(15)
Co1* Co 0.1440(3) 0.50000 0.3780(3)
O10A O 0.2444(9) 0.4446(5) -0.5455(13)
O8A O 0.0451(10) 0.4474(5) -0.6492(13)
O11* O 0.120(2) 0.50000 -0.826(2)
H23A H -0.26320 0.47220 -0.12490
#END
