
#######################################################################
#
#                 Cambridge Crystallographic Data Centre
#                                CCDC
#
#######################################################################
#
# If this CIF has been generated from an entry in the Cambridge
# Structural Database, then it will include bibliographic, chemical,
# crystal, experimental, refinement or atomic coordinate data resulting
# from the CCDC's data processing and validation procedures.
#
#######################################################################

data_CSD_CIF_ACACAL
_audit_creation_date 2016-11-24
_audit_creation_method CSD-ConQuest-V1
_database_code_CSD ACACAL
_database_code_depnum_ccdc_archive 'CCDC 1504491'
_chemical_formula_sum 'C32 H27 Br13 Co1 N7 Pb5'
_chemical_formula_moiety
;
(C30 H24 Co1 N6 3+)n,n(Br13 Pb5 3-),n(C2 H3 N1)
;
_journal_coden_Cambridge 222
_journal_volume 45
_journal_year 2016
_journal_page_first 19389
_journal_name_full 'Dalton Trans. '
loop_
_publ_author_name
"Xiao-Wu Lei"
"Cheng-Yang Yue"
"Jun-Chao Wei"
"Rui-Qing Li"
"Yan Li"
"Fu-Qi Mi"
_chemical_name_systematic
;
catena-[tris(2,2'-bipyridine)-cobalt undecakis(\m-bromo)-dibromo-penta-lead 
acetonitrile solvate]
;
_cell_volume   5406.942
_exptl_crystal_colour 'orange'
_exptl_crystal_density_diffrn 3.247
_exptl_crystal_description 'block'
_diffrn_ambient_temperature 296
#These two values have been output from a single CSD field.
_refine_ls_R_factor_gt 0.0347
_refine_ls_wR_factor_gt 0.0347
_symmetry_cell_setting monoclinic
_symmetry_space_group_name_H-M 'P 21/c'
_symmetry_Int_Tables_number 14
loop_
_symmetry_equiv_pos_site_id
_symmetry_equiv_pos_as_xyz
1 x,y,z
2 -x,1/2+y,1/2-z
3 -x,-y,-z
4 x,-1/2-y,-1/2+z
_cell_length_a 14.4759(10)
_cell_length_b 24.9146(17)
_cell_length_c 15.7555(11)
_cell_angle_alpha 90
_cell_angle_beta 107.913(1)
_cell_angle_gamma 90
_cell_formula_units_Z 4
loop_
_atom_type_symbol
_atom_type_radius_bond
C 0.68
H 0.23
Br 1.21
Co 1.26
N 0.68
Pb 1.46
loop_
_atom_site_label
_atom_site_type_symbol
_atom_site_fract_x
_atom_site_fract_y
_atom_site_fract_z
Pb1 Pb 0.374640(19) 0.291136(10) 0.319699(17)
Pb2 Pb 0.49788(2) 0.202611(11) 0.589136(17)
Pb3 Pb 0.22817(2) 0.300038(12) 0.537392(18)
Pb4 Pb 0.35036(2) 0.392584(11) 0.807842(17)
Pb5 Pb 0.352437(19) 0.568278(11) 0.793150(17)
Br1 Br 0.30215(5) 0.20887(3) 0.42521(5)
Br2 Br 0.45230(6) 0.47042(3) 0.73854(5)
Br3 Br 0.23844(6) 0.47890(3) 0.85018(5)
Br4 Br 0.28429(5) 0.37436(3) 0.39721(5)
Br5 Br 0.19904(6) 0.28912(3) 0.15381(5)
Br6 Br 0.17545(6) 0.38046(3) 0.64955(5)
Br7 Br 0.55012(5) 0.28611(3) 0.48387(5)
Br8 Br 0.48669(6) 0.37078(3) 0.24925(5)
Br9 Br 0.45012(6) 0.20012(3) 0.21114(5)
Br10 Br 0.21924(6) 0.58960(4) 0.63162(5)
Br11 Br 0.70280(6) 0.18201(3) 0.65388(5)
Br12 Br 0.49632(5) 0.09674(3) 0.49870(5)
Br13 Br 0.04356(7) 0.29195(4) 0.42502(6)
Co1 Co 0.18647(6) 0.58463(3) 0.27613(5)
N1 N 0.0667(3) 0.5973(2) 0.1829(3)
N2 N 0.2294(3) 0.5306(2) 0.2095(3)
N3 N 0.1422(3) 0.64236(19) 0.3358(3)
N4 N 0.3025(4) 0.5720(2) 0.3731(3)
N5 N 0.1284(4) 0.5354(2) 0.3390(3)
N6 N 0.2458(3) 0.6329(2) 0.2118(3)
C1 C 0.1914(5) 0.5165(3) 0.4163(4)
C2 C 0.2890(4) 0.5380(2) 0.4369(4)
C3 C 0.2685(4) 0.5511(3) 0.1482(4)
C4 C 0.0149(5) 0.6398(3) 0.1988(4)
C5 C 0.0358(5) 0.5191(3) 0.3150(4)
H1 H -0.00690 0.53210 0.26210
C6 C 0.1827(5) 0.6604(3) 0.4182(4)
H2 H 0.23960 0.64430 0.45330
C7 C 0.2246(5) 0.4775(3) 0.2178(4)
H3 H 0.19830 0.46370 0.26020
C8 C 0.0566(4) 0.6649(3) 0.2848(4)
C9 C 0.4531(6) 0.5519(3) 0.5261(5)
H4 H 0.50340 0.54640 0.57870
C10 C 0.0172(5) 0.7074(3) 0.3182(5)
H5 H -0.03970 0.72350 0.28310
C11 C 0.3031(5) 0.5162(3) 0.0945(5)
H6 H 0.33000 0.53010 0.05260
C12 C 0.3904(5) 0.5933(3) 0.3848(4)
H7 H 0.40020 0.61520 0.34050
C13 C 0.0015(5) 0.4839(3) 0.3652(5)
H8 H -0.06350 0.47380 0.34750
C14 C 0.2737(5) 0.6089(3) 0.1468(4)
C15 C 0.4668(5) 0.5838(3) 0.4608(5)
H9 H 0.52730 0.59900 0.46740
C16 C 0.2573(5) 0.4421(3) 0.1656(5)
H10 H 0.25230 0.40530 0.17220
C17 C 0.0656(6) 0.4640(3) 0.4424(5)
H11 H 0.04450 0.43920 0.47640
C18 C 0.1601(6) 0.4806(3) 0.4693(4)
H12 H 0.20300 0.46800 0.52250
C19 C 0.2517(5) 0.6860(3) 0.2197(4)
H13 H 0.23480 0.70220 0.26600
C20 C 0.3642(5) 0.5277(3) 0.5140(4)
H14 H 0.35490 0.50470 0.55720
C21 C 0.0612(6) 0.7257(3) 0.4023(6)
H15 H 0.03470 0.75440 0.42460
C22 C 0.0319(5) 0.5702(3) 0.1060(4)
H16 H 0.06670 0.54100 0.09500
C23 C 0.2822(6) 0.7181(3) 0.1612(5)
H17 H 0.28700 0.75510 0.16850
C24 C 0.2972(5) 0.4625(3) 0.1037(5)
H18 H 0.32010 0.43940 0.06840
C25 C 0.3003(6) 0.6387(4) 0.0852(5)
H19 H 0.31520 0.62190 0.03840
C26 C 0.1439(6) 0.7018(3) 0.4535(5)
H20 H 0.17380 0.71340 0.51160
C27 C -0.0542(5) 0.5843(3) 0.0429(5)
H21 H -0.07670 0.56520 -0.01020
C28 C -0.1057(5) 0.6265(4) 0.0594(5)
H22 H -0.16460 0.63610 0.01820
C29 C 0.3050(7) 0.6935(4) 0.0926(6)
H23 H 0.32360 0.71380 0.05120
C30 C -0.0700(6) 0.6547(3) 0.1374(5)
H24 H -0.10400 0.68420 0.14840
C31 C -0.0237(7) 0.3635(4) 0.2279(7)
H25 H -0.05840 0.33150 0.20300
H26 H -0.04780 0.37700 0.27420
H27 H 0.04420 0.35540 0.25250
C32 C -0.0380(13) 0.4060(5) 0.1547(10)
N7 N -0.0409(12) 0.4378(5) 0.1122(9)
Pb2C Pb 0.49788(2) 0.297389(11) 0.089136(17)
Pb3C Pb 0.22817(2) 0.199962(12) 0.037392(18)
Pb4C Pb 0.35036(2) 0.107416(11) 0.307842(17)
Pb5A Pb 0.647563(19) 0.068278(11) 0.706850(17)
Pb5B Pb 0.647563(19) 0.431722(11) 0.206850(17)
Br1C Br 0.30215(5) 0.29113(3) 0.92521(5)
Br5C Br 0.19904(6) 0.21088(3) 0.65381(5)
Br8B Br 0.51331(6) 0.62922(3) 0.75075(5)
Br8C Br 0.48669(6) 0.12922(3) 0.74925(5)
Br9C Br 0.45012(6) 0.29988(3) 0.71114(5)
Br11A Br 0.29720(6) 0.68201(3) 0.84612(5)
Br12C Br 0.49632(5) 0.40326(3) 0.99870(5)
#END
