
#######################################################################
#
#                 Cambridge Crystallographic Data Centre
#                                CCDC
#
#######################################################################
#
# If this CIF has been generated from an entry in the Cambridge
# Structural Database, then it will include bibliographic, chemical,
# crystal, experimental, refinement or atomic coordinate data resulting
# from the CCDC's data processing and validation procedures.
#
#######################################################################

data_CSD_CIF_ACECIV
_audit_creation_date 2005-02-04
_audit_creation_method CSD-ConQuest-V1
_database_code_CSD ACECIV
_database_code_depnum_ccdc_archive 'CCDC 199463'
_chemical_formula_sum 'C30 H36 K6 N6 O24 Pb6 S6'
_chemical_formula_moiety
;
(C26 H36 N2 O24 Pb6 S2 2-)n,6n(K1 1+),4n(C1 N1 S1 1-)
;
_journal_coden_Cambridge 10
_journal_volume 87
_journal_year 2004
_journal_page_first 2717
_journal_name_full 'Helv.Chim.Acta '
loop_
_publ_author_name
"A.Morsali"
"A.R.Mahjoub"
_chemical_name_systematic
;
catena-(Hexa-potassium 
bis(\m~3~-acetato)-decakis(\m~2~-acetato)-di-isothiocyanato-hexa-lead(ii) 
tetracyanate)
;
_chemical_melting_point 405.15
_cell_volume   3235.398
_exptl_crystal_colour 'colorless'
_exptl_crystal_density_diffrn 2.602
_exptl_special_details
;
The structure is further polymerised by very long Pb-S bonds and by acetate 
and isothiocyanate ligand bonding to potassium ions, as described in the 
paper
;
_exptl_crystal_description 'prism'
_diffrn_ambient_temperature 293
_refine_special_details
;
One thiocyanate ligand is two-fold disordered and another has imposed 
disorder.
;
#These two values have been output from a single CSD field.
_refine_ls_R_factor_gt 0.071
_refine_ls_wR_factor_gt 0.071
_symmetry_cell_setting monoclinic
_symmetry_space_group_name_H-M 'P 21/n'
_symmetry_Int_Tables_number 14
loop_
_symmetry_equiv_pos_site_id
_symmetry_equiv_pos_as_xyz
1 x,y,z
2 1/2+x,1/2-y,1/2+z
3 -x,-y,-z
4 -1/2-x,-1/2+y,-1/2-z
_cell_length_a 10.601(2)
_cell_length_b 26.841(5)
_cell_length_c 11.464(2)
_cell_angle_alpha 90
_cell_angle_beta 97.32(3)
_cell_angle_gamma 90
_cell_formula_units_Z 2
loop_
_atom_type_symbol
_atom_type_radius_bond
C 0.55
H 0.23
K 1.33
N 0.68
O 0.81
Pb 1.71
S 1.02
loop_
_atom_site_label
_atom_site_type_symbol
_atom_site_fract_x
_atom_site_fract_y
_atom_site_fract_z
Pb1 Pb 0.13332(6) 0.37412(2) -0.43636(5)
Pb2 Pb 0.26127(6) 0.39041(2) -0.08777(6)
Pb3 Pb 0.39172(7) 0.39575(3) -0.72173(6)
K1 K 0.5167(4) 0.37406(19) -0.3149(4)
K2 K 0.8964(5) 0.49039(13) -0.3608(3)
K3 K 0.8149(4) 0.24226(15) -0.3837(3)
S1 S 0.5311(6) 0.2303(2) -0.0601(5)
S2 S -0.3155(6) 0.3597(3) -0.5405(7)
S3 S 0.511(6) 0.517(3) -0.509(6)
S4? S 0.608(3) 0.5109(8) -0.048(3)
O1 O -0.0374(12) 0.3243(4) -0.3216(10)
O2 O 0.0386(13) 0.3969(5) -0.2607(12)
O3 O 0.1565(13) 0.4693(5) -0.4169(11)
O4 O 0.3007(12) 0.4290(4) -0.2954(11)
O5 O 0.4378(12) 0.3581(5) 0.0814(10)
O6 O 0.4875(14) 0.3831(5) -0.0888(11)
O7 O 0.2020(13) 0.3016(5) -0.0879(10)
O8 O 0.2728(12) 0.3292(4) -0.2480(11)
O9 O 0.3932(14) 0.3093(6) -0.6794(13)
O10 O 0.3799(12) 0.3498(5) -0.5225(11)
O11 O 0.1641(12) 0.4054(5) -0.6802(11)
O12 O 0.2003(14) 0.3690(7) -0.8450(14)
N1 N 0.6215(18) 0.2752(7) -0.2527(18)
N2 N -0.0834(13) 0.4106(5) -0.5180(12)
N3 N 0.651(3) 0.4760(13) -0.315(3)
N4? N 0.841(9) 0.504(8) -0.127(17)
C1 C -0.0368(16) 0.3615(6) -0.2549(14)
C2 C -0.126(2) 0.3622(10) -0.161(2)
H1 H -0.17700 0.33260 -0.16730
H2 H -0.18000 0.39100 -0.17200
H3 H -0.07680 0.36360 -0.08480
C3 C 0.2475(17) 0.4694(6) -0.3322(15)
C4 C 0.288(3) 0.5186(11) -0.265(3)
H4 H 0.23910 0.54590 -0.30070
H5 H 0.37690 0.52460 -0.26830
H6 H 0.27350 0.51550 -0.18430
C5 C 0.5206(15) 0.3696(6) 0.0153(13)
C6 C 0.6583(19) 0.3673(9) 0.0628(19)
H7 H 0.66720 0.35460 0.14180
H8 H 0.69450 0.40010 0.06280
H9 H 0.70180 0.34560 0.01450
C7 C 0.2258(16) 0.2949(6) -0.1891(14)
C8 C 0.200(3) 0.2446(7) -0.2462(16)
H10 H 0.27710 0.22540 -0.23820
H11 H 0.16990 0.24900 -0.32820
H12 H 0.13680 0.22740 -0.20870
C9 C 0.3890(15) 0.3086(8) -0.5755(15)
C10 C 0.399(2) 0.2627(10) -0.512(2)
H13 H 0.36230 0.26650 -0.44040
H14 H 0.48670 0.25350 -0.49470
H15 H 0.35390 0.23710 -0.55940
C11 C 0.132(2) 0.3830(6) -0.7724(15)
C12 C -0.0159(17) 0.3745(10) -0.8121(17)
H16 H -0.05920 0.37170 -0.74370
H17 H -0.02790 0.34440 -0.85750
H18 H -0.04970 0.40220 -0.85890
C13 C 0.5841(16) 0.2558(6) -0.1740(18)
C14 C -0.180(2) 0.3909(8) -0.5248(19)
C15 C 0.593(3) 0.4885(13) -0.399(4)
C16? C 0.742(6) 0.504(2) -0.103(6)
S3B S 0.489(6) 0.483(3) -0.491(6)
C15B C 0.407(3) 0.5115(13) -0.601(4)
N3B N 0.349(3) 0.5240(13) -0.685(3)
Pb2* Pb 0.26127(6) 0.39041(2) -1.08777(6)
O11* O 0.1641(12) 0.4054(5) 0.3198(11)
O12* O 0.2003(14) 0.3690(7) 0.1550(14)
C11* C 0.132(2) 0.3830(6) 0.2276(15)
C12* C -0.0159(17) 0.3745(10) 0.1879(17)
H16* H -0.05920 0.37170 0.25630
H17* H -0.02790 0.34440 0.14250
H18* H -0.04970 0.40220 0.14110
O5* O 0.4378(12) 0.3581(5) -0.9186(10)
O6* O 0.4875(14) 0.3831(5) -1.0888(11)
C5* C 0.5206(15) 0.3696(6) -0.9847(13)
C6* C 0.6583(19) 0.3673(9) -0.9372(19)
H7* H 0.66720 0.35460 -0.85820
H8* H 0.69450 0.40010 -0.93720
H9* H 0.70180 0.34560 -0.98550
O1* O -0.0374(12) 0.3243(4) -1.3216(10)
O2* O 0.0386(13) 0.3969(5) -1.2607(12)
C1* C -0.0368(16) 0.3615(6) -1.2549(14)
C2* C -0.126(2) 0.3622(10) -1.161(2)
H1* H -0.17700 0.33260 -1.16730
H2* H -0.18000 0.39100 -1.17200
H3* H -0.07680 0.36360 -1.08480
O3* O 0.1565(13) 0.4693(5) -1.4169(11)
O4* O 0.3007(12) 0.4290(4) -1.2954(11)
C3* C 0.2475(17) 0.4694(6) -1.3322(15)
C4* C 0.288(3) 0.5186(11) -1.265(3)
H4* H 0.23910 0.54590 -1.30070
H5* H 0.37690 0.52460 -1.26830
H6* H 0.27350 0.51550 -1.18430
O7* O 0.2020(13) 0.3016(5) -1.0879(10)
O8* O 0.2728(12) 0.3292(4) -1.2480(11)
C7* C 0.2258(16) 0.2949(6) -1.1891(14)
C8* C 0.200(3) 0.2446(7) -1.2462(16)
H10* H 0.27710 0.22540 -1.23820
H11* H 0.16990 0.24900 -1.32820
H12* H 0.13680 0.22740 -1.20870
Pb1* Pb 0.13332(6) 0.37412(2) -1.43636(5)
Pb3* Pb 0.39172(7) 0.39575(3) 0.27827(6)
O9* O 0.3932(14) 0.3093(6) -1.6794(13)
O10* O 0.3799(12) 0.3498(5) -1.5225(11)
C9* C 0.3890(15) 0.3086(8) -1.5755(15)
C10* C 0.399(2) 0.2627(10) -1.512(2)
H13* H 0.36230 0.26650 -1.44040
H14* H 0.48670 0.25350 -1.49470
H15* H 0.35390 0.23710 -1.55940
S2* S -0.3155(6) 0.3597(3) -1.5405(7)
N2* N -0.0834(13) 0.4106(5) -1.5180(12)
C14* C -0.180(2) 0.3909(8) -1.5248(19)
Pb1** Pb 0.13332(6) 0.37412(2) 0.56364(5)
O11** O 0.1641(12) 0.4054(5) -1.6802(11)
O9** O 0.3932(14) 0.3093(6) 0.3206(13)
O10** O 0.3799(12) 0.3498(5) 0.4775(11)
Pb3** Pb 0.39172(7) 0.39575(3) -1.72173(6)
#END
