
#######################################################################
#
#                 Cambridge Crystallographic Data Centre
#                                CCDC
#
#######################################################################
#
# If this CIF has been generated from an entry in the Cambridge
# Structural Database, then it will include bibliographic, chemical,
# crystal, experimental, refinement or atomic coordinate data resulting
# from the CCDC's data processing and validation procedures.
#
#######################################################################

data_CSD_CIF_ACODON
_audit_creation_date 2012-11-29
_audit_creation_method CSD-ConQuest-V1
_database_code_CSD ACODON
_database_code_depnum_ccdc_archive 'CCDC 859102'
_chemical_formula_sum 'C49 H46 N2 O21 P2 Tb2'
_chemical_formula_moiety
;
(H3 O1 1+)n,n(C43 H25 O16 P2 Tb2 1-),2n(C3 H7 N1 O1),2n(H2 O1)
;
_journal_coden_Cambridge 182
_journal_volume 48
_journal_year 2012
_journal_page_first 10847
_journal_name_full 'Chem.Commun. '
loop_
_publ_author_name
"Woo Ram Lee"
"Dae Won Ryu"
"Won Ju Phang"
"Ji Hye Park"
"Chang Seop Hong"
_chemical_name_systematic
;
catena-[Oxonium 
bis(\m~5~-4,4',4''-phosphoryltribenzoato)-(\m~2~-formato-O,O')-di-terbium(iii)
 N,N-dimethylformamide solvate dihydrate]
;
_cell_volume   3402.626
_exptl_crystal_colour 'colorless'
_exptl_crystal_density_diffrn 1.344
_exptl_crystal_description 'block'
_diffrn_ambient_temperature 296
_refine_special_details
;
Disordered solvent molecules were not modelled and the disordered density was 
taken into account using the SQUEEZE/PLATON procedure. The unit cell was 
found to contain a void of 1685 A$3! holding 199 electrons.
;
#These two values have been output from a single CSD field.
_refine_ls_R_factor_gt 0.0447
_refine_ls_wR_factor_gt 0.0447
_symmetry_cell_setting monoclinic
_symmetry_space_group_name_H-M 'P 2/n'
_symmetry_Int_Tables_number 13
loop_
_symmetry_equiv_pos_site_id
_symmetry_equiv_pos_as_xyz
1 x,y,z
2 1/2-x,y,1/2-z
3 -x,-y,-z
4 -1/2+x,-y,-1/2+z
_cell_length_a 14.4794(6)
_cell_length_b 10.5573(5)
_cell_length_c 23.3160(11)
_cell_angle_alpha 90
_cell_angle_beta 107.316(3)
_cell_angle_gamma 90
_cell_formula_units_Z 2
loop_
_atom_type_symbol
_atom_type_radius_bond
C 0.68
H 0.23
O 0.68
P 1.05
Tb 1.70
loop_
_atom_site_label
_atom_site_type_symbol
_atom_site_fract_x
_atom_site_fract_y
_atom_site_fract_z
Tb1 Tb 0.574091(15) 0.95195(2) 0.230027(10)
O1 O 0.4861(2) 1.0752(3) 0.14949(15)
O2 O 0.4700(2) 1.7973(3) 0.15866(16)
O3 O 0.5806(2) 1.7247(3) 0.23828(16)
O4 O 0.0504(3) 0.9007(4) 0.22199(18)
O5 O 0.0063(2) 1.0983(3) 0.22062(16)
O6 O 0.3221(2) 1.0990(4) -0.17739(16)
O7 O 0.1730(2) 1.0892(4) -0.17287(15)
O8 O 0.6733(2) 1.1328(3) 0.24817(19)
O9 O 0.75000 0.6351(15) 0.25000
P1 P 0.40153(8) 1.16027(11) 0.12202(5)
C1 C 0.2999(3) 1.1216(4) 0.1479(2)
C2 C 0.2385(4) 1.2116(5) 0.1590(2)
H1 H 0.25000 1.29680 0.15380
C3 C 0.4321(3) 1.3220(4) 0.1384(2)
C4 C 0.5049(5) 1.3501(6) 0.1907(3)
H2 H 0.53730 1.28440 0.21510
C5 C 0.3603(3) 1.1445(4) 0.0418(2)
C6 C 0.2631(4) 1.1360(6) 0.0112(3)
H3 H 0.21780 1.13930 0.03220
C7 C 0.2326(4) 1.1228(6) -0.0502(2)
H4 H 0.16670 1.11800 -0.07020
C8 C 0.4261(4) 1.1415(6) 0.0097(2)
H5 H 0.49190 1.14950 0.02950
C9 C 0.5298(5) 1.4729(5) 0.2071(3)
H6 H 0.57830 1.48950 0.24270
C10 C 0.4833(4) 1.5739(4) 0.1709(3)
C11 C 0.4114(4) 1.5466(5) 0.1187(3)
H7 H 0.37950 1.61220 0.09410
C12 C 0.3858(4) 1.4219(5) 0.1023(3)
H8 H 0.33720 1.40500 0.06690
C13 C 0.5133(4) 1.7066(5) 0.1909(3)
C14 C 0.2801(3) 0.9952(5) 0.1556(2)
H9 H 0.32060 0.93300 0.14820
C15 C 0.2028(3) 0.9604(5) 0.1737(2)
H10 H 0.19010 0.87510 0.17760
C16 C 0.1431(3) 1.0512(5) 0.1863(2)
C17 C 0.1599(4) 1.1774(5) 0.1779(2)
H11 H 0.11880 1.23920 0.18490
C18 C 0.0605(3) 1.0153(5) 0.2101(2)
C19 C 0.3948(3) 1.1268(6) -0.0522(2)
H12 H 0.43970 1.12390 -0.07350
C20 C 0.2975(3) 1.1165(5) -0.0825(2)
C21 C 0.2619(3) 1.0996(4) -0.1495(2)
C22 C 0.75000 1.1798(7) 0.25000
H13 H 0.75000 1.26790 0.25000
Tb1* Tb 0.574091(15) -0.04805(2) 0.230027(10)
Tb1** Tb 0.574091(15) 1.95195(2) 0.230027(10)
Tb1A Tb -0.074091(15) 0.95195(2) 0.269973(10)
Tb1B Tb 0.425909(15) 1.04805(2) -0.230027(10)
Tb1C Tb 0.074091(15) 1.04805(2) -0.269973(10)
Tb1A* Tb 0.925909(15) 0.95195(2) 0.269973(10)
Tb1A** Tb -0.074091(15) -0.04805(2) 0.269973(10)
Tb1B* Tb 0.425909(15) 0.04805(2) -0.230027(10)
Tb1C* Tb 0.074091(15) 0.04805(2) -0.269973(10)
O1* O 0.4861(2) 0.0752(3) 0.14949(15)
O2* O 0.4700(2) 0.7973(3) 0.15866(16)
O2** O 0.4700(2) -0.2027(3) 0.15866(16)
O3* O 0.5806(2) 0.7247(3) 0.23828(16)
O3** O 0.5806(2) -0.2753(3) 0.23828(16)
O4* O 0.0504(3) -0.0993(4) 0.22199(18)
O4A O 0.4496(3) 0.9007(4) 0.27801(18)
O4A* O 0.4496(3) -0.0993(4) 0.27801(18)
O5* O 0.0063(2) 0.0983(3) 0.22062(16)
O5A O 0.4937(2) 1.0983(3) 0.27938(16)
O5A* O 0.4937(2) 0.0983(3) 0.27938(16)
O6* O 0.3221(2) 0.0990(4) -0.17739(16)
O6B O 0.6779(2) 0.9010(4) 0.17739(16)
O6B* O 0.6779(2) -0.0990(4) 0.17739(16)
O7* O 0.1730(2) 0.0892(4) -0.17287(15)
O7C O 0.6730(2) 0.9108(4) 0.32713(15)
O7C* O 0.6730(2) -0.0892(4) 0.32713(15)
O8A O 0.8267(2) 1.1328(3) 0.25183(19)
O8* O 0.6733(2) 0.1328(3) 0.24817(19)
P1* P 0.40153(8) 0.16027(11) 0.12202(5)
C1* C 0.2999(3) 0.1216(4) 0.1479(2)
C2* C 0.2385(4) 0.2116(5) 0.1590(2)
H1* H 0.25000 0.29680 0.15380
C3* C 0.4321(3) 0.3220(4) 0.1384(2)
C4* C 0.5049(5) 0.3501(6) 0.1907(3)
H2* H 0.53730 0.28440 0.21510
C5* C 0.3603(3) 0.1445(4) 0.0418(2)
C6* C 0.2631(4) 0.1360(6) 0.0112(3)
H3* H 0.21780 0.13930 0.03220
C7* C 0.2326(4) 0.1228(6) -0.0502(2)
H4* H 0.16670 0.11800 -0.07020
C8* C 0.4261(4) 0.1415(6) 0.0097(2)
H5* H 0.49190 0.14950 0.02950
C9* C 0.5298(5) 0.4729(5) 0.2071(3)
H6* H 0.57830 0.48950 0.24270
C10* C 0.4833(4) 0.5739(4) 0.1709(3)
C11* C 0.4114(4) 0.5466(5) 0.1187(3)
H7* H 0.37950 0.61220 0.09410
C12* C 0.3858(4) 0.4219(5) 0.1023(3)
H8* H 0.33720 0.40500 0.06690
C13* C 0.5133(4) 0.7066(5) 0.1909(3)
C14* C 0.2801(3) -0.0048(5) 0.1556(2)
H9* H 0.32060 -0.06700 0.14820
C15* C 0.2028(3) -0.0396(5) 0.1737(2)
H10* H 0.19010 -0.12490 0.17760
C16* C 0.1431(3) 0.0512(5) 0.1863(2)
C17* C 0.1599(4) 0.1774(5) 0.1779(2)
H11* H 0.11880 0.23920 0.18490
C18* C 0.0605(3) 0.0153(5) 0.2101(2)
C19* C 0.3948(3) 0.1268(6) -0.0522(2)
H12* H 0.43970 0.12390 -0.07350
C20* C 0.2975(3) 0.1165(5) -0.0825(2)
C21* C 0.2619(3) 0.0996(4) -0.1495(2)
#END
