
#######################################################################
#
#                 Cambridge Crystallographic Data Centre
#                                CCDC
#
#######################################################################
#
# If this CIF has been generated from an entry in the Cambridge
# Structural Database, then it will include bibliographic, chemical,
# crystal, experimental, refinement or atomic coordinate data resulting
# from the CCDC's data processing and validation procedures.
#
#######################################################################

data_CSD_CIF_ACOLAG
_audit_creation_date 2006-07-27
_audit_creation_method CSD-ConQuest-V1
_database_code_CSD ACOLAG
_database_code_depnum_ccdc_archive 'CCDC 280931'
_chemical_formula_sum 'C22 H16 Cl2 Fe1 O4 S8 Se8'
_chemical_formula_moiety
;
(C10 H8 S4 Se4 1+)n,n(C10 H8 S4 Se4),n(C2 Cl2 Fe1 O4 1-)
;
_journal_coden_Cambridge 9
_journal_volume 45
_journal_year 2006
_journal_page_first 3275
_journal_name_full 'Inorg.Chem. '
loop_
_publ_author_name
"Bin Zhang"
"Zheming Wang"
"Yan Zhang"
"K.Takahashi"
"Y.Okano"
"Hengbo Cui"
"H.Kobayashi"
"K.Inoue"
"M.Kurmoo"
"F.L.Pratt"
"Daoben Zhu"
_chemical_name_systematic
;
catena-(bis(bis(Ethylenedithio)tetraselenafulvalene) 
(\m~2~-oxalato)-dichloro-iron(iii))
;
_cell_volume   3611.853
_exptl_crystal_colour 'black'
_exptl_crystal_density_diffrn 2.5
_exptl_crystal_description 'plate'
_diffrn_ambient_temperature 293.1500
#These two values have been output from a single CSD field.
_refine_ls_R_factor_gt 0.0393
_refine_ls_wR_factor_gt 0.0393
_symmetry_cell_setting monoclinic
_symmetry_space_group_name_H-M 'C 2/c'
_symmetry_Int_Tables_number 15
loop_
_symmetry_equiv_pos_site_id
_symmetry_equiv_pos_as_xyz
1 x,y,z
2 1/2+x,1/2+y,z
3 -x,y,1/2-z
4 1/2-x,1/2+y,1/2-z
5 -x,-y,-z
6 -1/2-x,-1/2-y,-z
7 x,-y,-1/2+z
8 -1/2+x,-1/2-y,-1/2+z
_cell_length_a 37.884(5)
_cell_length_b 11.2578(17)
_cell_length_c 8.4692(14)
_cell_angle_alpha 90
_cell_angle_beta 90.573(2)
_cell_angle_gamma 90
_cell_formula_units_Z 4
loop_
_atom_type_symbol
_atom_type_radius_bond
C 0.68
H 0.23
Cl 0.99
Fe 1.34
O 0.68
S 1.02
Se 1.22
loop_
_atom_site_label
_atom_site_type_symbol
_atom_site_fract_x
_atom_site_fract_y
_atom_site_fract_z
Se1 Se 0.682918(12) 0.26114(4) 0.28948(6)
Se2 Se 0.679858(13) 0.04012(4) 0.05727(6)
Se3 Se 0.771897(12) 0.25856(4) 0.27797(6)
Se4 Se 0.769269(12) 0.04222(4) 0.03712(6)
Fe1 Fe 0.50000 0.34781(9) -0.25000
Cl1 Cl 0.53526(5) 0.21429(17) -0.3676(2)
S1 S 0.60273(4) 0.26062(12) 0.3326(2)
S2 S 0.60064(4) 0.01079(13) 0.0940(2)
S3 S 0.85206(3) 0.25573(11) 0.29655(18)
S4 S 0.84838(3) 0.01434(12) 0.03723(18)
O1 O 0.52884(9) 0.3865(3) -0.0528(4)
O2 O 0.53053(9) 0.5091(3) 0.1530(5)
C1 C 0.70783(11) 0.1486(3) 0.1710(5)
C2 C 0.74392(11) 0.1497(3) 0.1638(5)
C3 C 0.63851(11) 0.1886(4) 0.2468(6)
C4 C 0.63763(12) 0.0930(4) 0.1503(6)
C5 C 0.81487(12) 0.1864(4) 0.2162(5)
C6 C 0.81340(11) 0.0947(4) 0.1158(6)
C7 C 0.56616(16) 0.1956(7) 0.2319(9)
H1 H 0.54690 0.19660 0.30630
H2 H 0.55970 0.25100 0.14870
C8 C 0.5656(2) 0.0931(8) 0.1686(18)
H3 H 0.54880 0.09940 0.08190
H4 H 0.55460 0.04180 0.24610
C9 C 0.88546(18) 0.1946(8) 0.1835(11)
H5 H 0.88750 0.24480 0.09100
H6 H 0.90710 0.20510 0.24390
C10 C 0.88587(15) 0.0827(6) 0.1307(12)
H7 H 0.89220 0.03300 0.22010
H8 H 0.90520 0.07730 0.05670
C11 C 0.51700(13) 0.4704(5) 0.0303(6)
Fe1F Fe 0.50000 0.65219(9) 0.25000
Cl1B Cl 0.46474(5) 0.21429(17) -0.1324(2)
O1D O 0.47116(9) 0.6135(3) 0.0528(4)
O1B O 0.47116(9) 0.3865(3) -0.4472(4)
O2D O 0.46947(9) 0.4909(3) -0.1530(5)
O2F O 0.53053(9) 0.4909(3) -0.3470(5)
C11D C 0.48300(13) 0.5296(5) -0.0303(6)
#END
