
#######################################################################
#
#                 Cambridge Crystallographic Data Centre
#                                CCDC
#
#######################################################################
#
# If this CIF has been generated from an entry in the Cambridge
# Structural Database, then it will include bibliographic, chemical,
# crystal, experimental, refinement or atomic coordinate data resulting
# from the CCDC's data processing and validation procedures.
#
#######################################################################

data_CSD_CIF_ACOZAW
_audit_creation_date 2017-10-01
_audit_creation_method CSD-ConQuest-V1
_database_code_CSD ACOZAW
_database_code_depnum_ccdc_archive 'CCDC 1577440'
_chemical_formula_sum 'C38 H22 Cu6 N14 Ni1 S1'
_chemical_formula_moiety
;
C30 H22 N6 Ni1 2+,n(C8 Cu6 N8 S1 2-)
;
_journal_coden_Cambridge 1564
_journal_volume 81
_journal_year 2016
_journal_page_first 724
_journal_name_full 'ChemPlusChem '
loop_
_publ_author_name
"Shi-Hong Lin"
"Mian Li"
"Dong Luo"
"De-Xiang Zhang"
"Tian Wen"
"Xiao-Ping Zhou"
"Dan Li"
_chemical_name_systematic
;
catena-[bis(1^2^,2^2^:2^6^,3^2^-terpyridine)-nickel(ii) 
heptakis(\m-cyano)-(\m-thiocyanato)-hexa-copper(i)]
;
_cell_volume   4012.938
_exptl_crystal_colour 'deep red'
_exptl_crystal_density_diffrn 1.898
_exptl_crystal_description 'block'
_diffrn_ambient_temperature 293
#These two values have been output from a single CSD field.
_refine_ls_R_factor_gt 0.0747
_refine_ls_wR_factor_gt 0.0747
_symmetry_cell_setting orthorhombic
_symmetry_space_group_name_H-M 'P 21 21 21'
_symmetry_Int_Tables_number 19
loop_
_symmetry_equiv_pos_site_id
_symmetry_equiv_pos_as_xyz
1 x,y,z
2 1/2-x,-y,1/2+z
3 -x,1/2+y,1/2-z
4 1/2+x,1/2-y,-z
_cell_length_a 13.5915(6)
_cell_length_b 13.8687(6)
_cell_length_c 21.2892(7)
_cell_angle_alpha 90
_cell_angle_beta 90
_cell_angle_gamma 90
_cell_formula_units_Z 4
loop_
_atom_type_symbol
_atom_type_radius_bond
C 0.68
H 0.23
Cu 1.32
N 0.68
Ni 1.24
S 1.02
loop_
_atom_site_label
_atom_site_type_symbol
_atom_site_fract_x
_atom_site_fract_y
_atom_site_fract_z
C1 C 0.3720(12) 0.7336(11) 0.2864(8)
C2 C 0.5704(17) 0.5722(14) 0.1740(7)
C3 C 0.7171(11) 1.029(1) 0.2714(8)
C4 C 0.8804(11) 0.7170(11) 0.1841(6)
C5 C 0.8583(13) 0.6061(12) 0.0328(8)
C6 C 0.7395(10) 0.5010(13) 0.2751(6)
C7 C 0.715(2) 0.4096(14) -0.0314(9)
C8 C 0.9083(15) 0.4554(13) 0.1748(9)
Cu1 Cu 0.38201(16) 0.61956(15) 0.23999(10)
Cu2 Cu 0.89271(16) 0.88982(14) 0.27451(10)
Cu3 Cu 0.86869(19) 0.6378(2) 0.11647(10)
Cu4 Cu 0.78208(17) 0.50211(18) -0.08167(8)
Cu5 Cu 0.77513(16) 0.49969(18) 0.19158(8)
Cu6 Cu 0.66751(19) 0.37074(19) 0.10681(11)
N1 N 0.3580(13) 0.7911(12) 0.3232(8)
N2 N 0.5041(16) 0.5937(12) 0.2015(8)
N3 N 0.7805(11) 0.9790(9) 0.2752(7)
N4 N 0.8876(11) 0.7800(13) 0.2225(7)
N5 N 0.8439(14) 0.5776(10) -0.0181(7)
N6 N 0.7302(10) 0.4990(12) 0.3284(7)
N7 N 0.6962(17) 0.3880(14) 0.0188(10)
N8 N 0.9853(12) 0.4245(10) 0.1806(6)
S1 S 0.6642(4) 0.5537(3) 0.1241(2)
C9 C 0.6959(9) 0.8631(10) 0.1136(5)
H1 H 0.75190 0.82710 0.10480
C10 C 0.6343(13) 0.8363(11) 0.1645(6)
H2 H 0.65250 0.78480 0.19000
C11 C 0.5529(11) 0.8825(14) 0.1763(6)
H3 H 0.51040 0.86120 0.20760
C12 C 0.5307(11) 0.9641(12) 0.1414(7)
H4 H 0.47610 1.00180 0.15080
C13 C 0.5925(8) 0.9876(9) 0.0922(5)
C14 C 0.5735(9) 1.0708(9) 0.0490(6)
C15 C 0.4878(11) 1.1243(11) 0.0475(7)
H5 H 0.43690 1.11280 0.07570
C16 C 0.4808(12) 1.1955(11) 0.0022(9)
H6 H 0.42500 1.23430 0.00090
C17 C 0.5541(11) 1.2101(10) -0.0405(7)
H7 H 0.54780 1.25740 -0.07120
C18 C 0.6381(10) 1.1536(9) -0.0375(6)
C19 C 0.7269(11) 1.1628(9) -0.0775(6)
C20 C 0.7359(13) 1.2298(10) -0.1241(6)
H8 H 0.68540 1.27360 -0.13140
C21 C 0.8176(16) 1.2326(12) -0.1597(7)
H9 H 0.82360 1.27720 -0.19210
C22 C 0.8918(15) 1.1687(14) -0.1474(7)
H10 H 0.94960 1.16950 -0.17070
C23 C 0.8785(10) 1.102(1) -0.0987(6)
H11 H 0.92860 1.05810 -0.09070
C24 C 0.6451(10) 0.8921(9) -0.0954(6)
H12 H 0.59570 0.93690 -0.08750
C25 C 0.6307(13) 0.8231(12) -0.1434(7)
H13 H 0.57230 0.82150 -0.16610
C26 C 0.7040(13) 0.7592(10) -0.1555(7)
H14 H 0.69710 0.71400 -0.18750
C27 C 0.7893(12) 0.762(1) -0.1197(6)
H15 H 0.83930 0.71740 -0.12610
C28 C 0.7981(10) 0.8321(8) -0.0744(5)
C29 C 0.8881(9) 0.8447(8) -0.0347(5)
C30 C 0.9730(11) 0.7886(10) -0.0409(7)
H16 H 0.97690 0.73960 -0.07060
C31 C 1.0509(11) 0.8086(11) -0.0013(8)
H17 H 1.10900 0.77350 -0.00440
C32 C 1.0420(9) 0.8812(11) 0.0431(7)
H18 H 1.09390 0.89460 0.07020
C33 C 0.9544(10) 0.9343(9) 0.0470(6)
C34 C 0.9347(9) 1.0142(9) 0.0903(5)
C35 C 0.9969(13) 1.0372(13) 0.1405(7)
H19 H 1.05300 1.00150 0.14970
C36 C 0.9691(13) 1.1168(13) 0.1756(6)
H20 H 1.01000 1.13740 0.20790
C37 C 0.8863(12) 1.1650(12) 0.1648(6)
H21 H 0.86780 1.21590 0.19070
C38 C 0.8263(11) 1.1378(10) 0.1131(6)
H22 H 0.76960 1.17240 0.10360
N9 N 0.6745(8) 0.9373(7) 0.0793(4)
N10 N 0.6456(7) 1.0852(7) 0.0066(5)
N11 N 0.7990(8) 1.0982(7) -0.0637(5)
N12 N 0.7258(8) 0.8953(7) -0.0617(4)
N13 N 0.8808(7) 0.9147(6) 0.0073(5)
N14 N 0.8518(8) 1.0635(7) 0.0793(4)
Ni1 Ni 0.7626(1) 0.99935(13) 0.00755(6)
C3B C 0.2829(11) 0.529(1) 0.2286(8)
Cu1B Cu 0.61799(16) 1.11956(15) 0.26001(10)
Cu2B Cu 1.10729(16) 0.38982(14) 0.22549(10)
Cu4A Cu 0.71792(17) 0.49789(18) 0.41833(8)
Cu6B Cu 0.33249(19) 0.87074(19) 0.39319(11)
N1B N 0.6420(13) 0.2911(12) 0.1768(8)
N6A N 0.7698(10) 0.5010(12) -0.1716(7)
N8B N 1.0147(12) 0.9245(10) 0.3194(6)
#END
