
#######################################################################
#
#                 Cambridge Crystallographic Data Centre
#                                CCDC
#
#######################################################################
#
# If this CIF has been generated from an entry in the Cambridge
# Structural Database, then it will include bibliographic, chemical,
# crystal, experimental, refinement or atomic coordinate data resulting
# from the CCDC's data processing and validation procedures.
#
#######################################################################

data_CSD_CIF_ACOZEA
_audit_creation_date 2017-10-01
_audit_creation_method CSD-ConQuest-V1
_database_code_CSD ACOZEA
_database_code_depnum_ccdc_archive 'CCDC 1577441'
_chemical_formula_sum 'C38 H22 Cu6 N14 Ni1'
_chemical_formula_moiety
;
C30 H22 N6 Ni1 2+,n(C8 Cu6 N8 2-)
;
_journal_coden_Cambridge 1564
_journal_volume 81
_journal_year 2016
_journal_page_first 724
_journal_name_full 'ChemPlusChem '
loop_
_publ_author_name
"Shi-Hong Lin"
"Mian Li"
"Dong Luo"
"De-Xiang Zhang"
"Tian Wen"
"Xiao-Ping Zhou"
"Dan Li"
_chemical_name_systematic
;
catena-[bis(1^2^,2^2^:2^6^,3^2^-terpyridine)-nickel(ii) 
octakis(\m-cyano)-hexa-copper(i)]
;
_cell_volume   1947.924
_exptl_crystal_colour 'deep red'
_exptl_crystal_density_diffrn 1.9
_exptl_crystal_description 'needle'
_diffrn_ambient_temperature 293
_refine_special_details
;
The structure is disordered.

;
#These two values have been output from a single CSD field.
_refine_ls_R_factor_gt 0.0517
_refine_ls_wR_factor_gt 0.0517
_symmetry_cell_setting orthorhombic
_symmetry_space_group_name_H-M 'P 21 21 2'
_symmetry_Int_Tables_number 18
loop_
_symmetry_equiv_pos_site_id
_symmetry_equiv_pos_as_xyz
1 x,y,z
2 -x,-y,z
3 1/2+x,1/2-y,-z
4 1/2-x,1/2+y,-z
_cell_length_a 13.555(1)
_cell_length_b 13.3555(8)
_cell_length_c 10.7600(4)
_cell_angle_alpha 90
_cell_angle_beta 90
_cell_angle_gamma 90
_cell_formula_units_Z 2
loop_
_atom_type_symbol
_atom_type_radius_bond
C 0.68
H 0.23
Cu 1.32
N 0.68
Ni 1.24
loop_
_atom_site_label
_atom_site_type_symbol
_atom_site_fract_x
_atom_site_fract_y
_atom_site_fract_z
Cu1 Cu 0.13662(10) 0.59689(9) 0.26418(9)
C1 C 0.2197(6) 0.6175(6) 0.3968(7)
C2 C 0.1092(7) 0.5822(7) 0.0977(7)
N1 N -0.0392(6) 0.6372(7) 0.3681(6)
N2 N 0.2798(6) 0.6352(5) 0.4693(6)
N3 N 0.0860(6) 0.5636(6) -0.0020(7)
Cu2 Cu 0.39867(8) 0.65503(7) 0.56861(9)
Cu3 Cu 0.00000 0.50000 -0.12391(10)
C3 C 0.4329(6) 0.7831(6) 0.6279(7)
N4 N 0.4779(6) 0.5383(5) 0.5792(6)
C4 C 0.00000 0.50000 -0.2974(8)
N5 N 0.00000 0.50000 -0.4023(7)
Cu4 Cu 0.50000 1.00000 0.58704(9)
N6 N 0.9394(4) 0.0901(4) 0.8394(4)
N7 N 1.0877(4) 0.1195(4) 0.9846(5)
N8 N 1.1031(4) -0.0390(4) 1.1207(4)
Ni1 Ni 1.00000 0.00000 0.98119(8)
C5 C 0.8648(6) 0.0675(6) 0.7620(6)
H1 H 0.82800 0.01000 0.77730
C6 C 0.8404(7) 0.1262(7) 0.6604(6)
H2 H 0.78850 0.10830 0.60840
C7 C 0.8930(7) 0.2091(7) 0.6385(7)
H3 H 0.87740 0.24910 0.57060
C8 C 0.9696(7) 0.2358(5) 0.7151(6)
H4 H 1.00680 0.29300 0.69960
C9 C 0.9899(6) 0.1749(4) 0.8165(5)
C10 C 1.0694(5) 0.1954(5) 0.9073(6)
C11 C 1.1219(6) 0.2836(6) 0.9163(7)
H5 H 1.11000 0.33620 0.86160
C12 C 1.1924(7) 0.2923(6) 1.0080(9)
H6 H 1.22820 0.35130 1.01640
C13 C 1.2093(6) 0.2132(6) 1.0868(7)
H7 H 1.25610 0.21880 1.14960
C14 C 1.1568(5) 0.1259(4) 1.0726(6)
C15 C 1.1673(5) 0.0338(5) 1.1474(5)
C16 C 1.2375(5) 0.0222(6) 1.2393(6)
H8 H 1.28170 0.07360 1.25670
C17 C 1.2414(6) -0.0653(7) 1.3042(6)
H9 H 1.28910 -0.07440 1.36530
C18 C 1.1758(6) -0.1388(6) 1.2797(6)
H10 H 1.17650 -0.19820 1.32470
C19 C 1.1068(6) -0.1232(5) 1.1849(6)
H11 H 1.06200 -0.17390 1.16650
C20? C 0.5221(6) 0.4617(5) 0.5792(6)
N1A N 0.0392(6) 0.3628(7) 0.3681(6)
N3A N -0.0860(6) 0.4364(6) -0.0020(7)
Cu1A Cu -0.13662(10) 0.40311(9) 0.26418(9)
N1B N 0.4608(6) 0.8628(7) 0.6319(6)
N4A N 0.5221(6) 0.4617(5) 0.5792(6)
C2A C -0.1092(7) 0.4178(7) 0.0977(7)
C1A C -0.2197(6) 0.3825(6) 0.3968(7)
Cu1B Cu 0.63662(10) 0.90311(9) 0.73582(9)
Cu2A Cu 0.60133(8) 0.34497(7) 0.56861(9)
Cu4B Cu 0.00000 0.50000 -0.58704(9)
N2A N -0.2798(6) 0.3648(5) 0.4693(6)
N1* N -0.0392(6) 0.6372(7) -0.6319(6)
N1A* N 0.0392(6) 0.3628(7) -0.6319(6)
Cu2A* Cu -0.39867(8) 0.34497(7) 0.56861(9)
C3A C -0.4329(6) 0.2169(6) 0.6279(7)
N4A* N -0.4779(6) 0.4617(5) 0.5792(6)
N1C N -0.4608(6) 0.1372(7) 0.6319(6)
Cu1C Cu -0.63662(10) 0.09689(9) 0.73582(9)
Cu4* Cu -0.50000 0.00000 0.58704(9)
N6A N 1.0606(4) -0.0901(4) 0.8394(4)
N7A N 0.9123(4) -0.1195(4) 0.9846(5)
N8A N 0.8969(4) 0.0390(4) 1.1207(4)
C5A C 1.1352(6) -0.0675(6) 0.7620(6)
H1A H 1.17200 -0.01000 0.77730
C6A C 1.1596(7) -0.1262(7) 0.6604(6)
H2A H 1.21150 -0.10830 0.60840
C7A C 1.1070(7) -0.2091(7) 0.6385(7)
H3A H 1.12260 -0.24910 0.57060
C8A C 1.0304(7) -0.2358(5) 0.7151(6)
H4A H 0.99320 -0.29300 0.69960
C9A C 1.0101(6) -0.1749(4) 0.8165(5)
C10A C 0.9306(5) -0.1954(5) 0.9073(6)
C11A C 0.8781(6) -0.2836(6) 0.9163(7)
H5A H 0.89000 -0.33620 0.86160
C12A C 0.8076(7) -0.2923(6) 1.0080(9)
H6A H 0.77180 -0.35130 1.01640
C13A C 0.7907(6) -0.2132(6) 1.0868(7)
H7A H 0.74390 -0.21880 1.14960
C14A C 0.8432(5) -0.1259(4) 1.0726(6)
C15A C 0.8327(5) -0.0338(5) 1.1474(5)
C16A C 0.7625(5) -0.0222(6) 1.2393(6)
H8A H 0.71830 -0.07360 1.25670
C17A C 0.7586(6) 0.0653(7) 1.3042(6)
H9A H 0.71090 0.07440 1.36530
C18A C 0.8242(6) 0.1388(6) 1.2797(6)
H10A H 0.82350 0.19820 1.32470
C19A C 0.8932(6) 0.1232(5) 1.1849(6)
H11A H 0.93800 0.17390 1.16650
#END
