
#######################################################################
#
#                 Cambridge Crystallographic Data Centre
#                                CCDC
#
#######################################################################
#
# If this CIF has been generated from an entry in the Cambridge
# Structural Database, then it will include bibliographic, chemical,
# crystal, experimental, refinement or atomic coordinate data resulting
# from the CCDC's data processing and validation procedures.
#
#######################################################################

data_CSD_CIF_ACULIW
_audit_creation_date 2017-10-02
_audit_creation_method CSD-ConQuest-V1
_database_code_CSD ACULIW
_database_code_depnum_ccdc_archive 'CCDC 1524213'
_chemical_formula_sum 'C30 H50 N4 O32 Tb2'
_chemical_formula_moiety
;
(C20 H24 O26 Tb2 2-)n,2(C5 H7 N2 1+),6(H2 O1)
;
_journal_coden_Cambridge 440
_journal_volume 41
_journal_year 2017
_journal_page_first 12713
_journal_name_full 'New J.Chem. '
loop_
_publ_author_name
"R.F.Bogale"
"Yanzhen Chen"
"Junwei Ye"
"Siqi Zhang"
"Yiwen Li"
"Xigang Liu"
"Ting Zheng"
"A.Rauf"
"Guiling Ning"
_chemical_name_systematic
;
catena-(bis(4-aminopyridinium) 
bis(\m-benzene-1,2,4,5-tetracarboxylato)-deca-aqua-di-terbium hexahydrate)
;
_cell_volume   2165.212
_exptl_crystal_colour 'yellow'
_exptl_crystal_density_diffrn 1.989
_exptl_crystal_description 'block'
_diffrn_ambient_temperature 296
#These two values have been output from a single CSD field.
_refine_ls_R_factor_gt 0.0255
_refine_ls_wR_factor_gt 0.0255
_symmetry_cell_setting monoclinic
_symmetry_space_group_name_H-M 'P 21/c'
_symmetry_Int_Tables_number 14
loop_
_symmetry_equiv_pos_site_id
_symmetry_equiv_pos_as_xyz
1 x,y,z
2 -x,1/2+y,1/2-z
3 -x,-y,-z
4 x,-1/2-y,-1/2+z
_cell_length_a 13.0587(7)
_cell_length_b 11.2253(6)
_cell_length_c 17.2297(8)
_cell_angle_alpha 90
_cell_angle_beta 120.987(3)
_cell_angle_gamma 90
_cell_formula_units_Z 2
loop_
_atom_type_symbol
_atom_type_radius_bond
C 0.68
H 0.23
N 0.68
O 0.68
Tb 1.94
loop_
_atom_site_label
_atom_site_type_symbol
_atom_site_fract_x
_atom_site_fract_y
_atom_site_fract_z
Tb1 Tb 0.243849(10) 0.881094(10) 0.751456(7)
O1 O 0.38090(18) 0.71313(18) 0.81110(13)
O2 O 0.29161(17) 0.74940(17) 0.88686(13)
O3 O 0.5274(2) 0.82473(18) 1.03809(15)
O4 O 0.5561(4) 0.7383(2) 1.16102(18)
O5 O 0.20209(17) 0.75268(17) 0.61745(13)
O6 O 0.10947(18) 0.71120(18) 0.68970(13)
O7 O -0.03484(19) 0.82365(17) 0.46192(14)
O8 O -0.0352(2) 0.74203(19) 0.34481(15)
O9 O 0.3816(2) 0.9273(2) 0.70298(14)
H1 H 0.42940 0.97730 0.73710
H2 H 0.44460 0.89560 0.75950
O10 O 0.40880(19) 0.95955(18) 0.88479(13)
H3 H 0.39980 1.03130 0.88780
H4 H 0.45200 0.92070 0.91040
O11 O 0.10737(19) 0.91577(19) 0.80248(14)
H5 H 0.05490 0.96170 0.76760
H6 H 0.04780 0.88430 0.79470
O12 O 0.23703(19) 1.1010(2) 0.75187(13)
H7 H 0.16810 1.12370 0.71860
H8 H 0.29280 1.14320 0.78810
O13 O 0.0783(2) 0.95746(18) 0.61474(13)
H9 H 0.09060 1.02740 0.60850
H10 H 0.02210 0.97330 0.62470
C1 C 0.5301(3) 0.7352(3) 1.0811(2)
C2 C 0.5093(3) 0.6142(2) 1.03671(18)
C3 C 0.4406(2) 0.5961(2) 0.94309(18)
C4 C 0.4324(2) 0.4831(2) 0.90794(18)
H11 H 0.38660 0.47200 0.84560
C5 C 0.3677(2) 0.6929(2) 0.87735(17)
C6 C 0.0619(2) 0.4825(2) 0.59195(18)
H12 H 0.10400 0.47110 0.65430
C7 C 0.0567(2) 0.5961(2) 0.55791(18)
C8 C -0.0060(2) 0.6144(2) 0.46446(18)
C9 C -0.0247(2) 0.7363(2) 0.42132(19)
C10 C 0.1261(2) 0.6933(2) 0.62458(18)
N1 N 0.7275(3) 0.5108(3) 0.4895(2)
H13 H 0.68580 0.47520 0.43830
H14 H 0.76270 0.47010 0.53880
N2 N 0.7557(3) 0.8720(3) 0.5002(3)
H15 H 0.75990 0.94850 0.50240
C11 C 0.8118(4) 0.8088(4) 0.5760(3)
H16 H 0.85660 0.84790 0.63110
C12 C 0.8051(3) 0.6878(4) 0.5745(3)
H17 H 0.84550 0.64480 0.62810
C13 C 0.7378(3) 0.6289(3) 0.4925(3)
C14 C 0.6813(4) 0.6980(4) 0.4131(3)
H18 H 0.63730 0.66200 0.35660
C15 C 0.6923(4) 0.8172(4) 0.4207(3)
H19 H 0.65420 0.86310 0.36830
O14 O 0.4431(2) 0.5862(2) 0.70161(17)
H20 H 0.47890 0.64000 0.68690
H21 H 0.41070 0.61330 0.72130
O15 O 0.9278(2) 0.0586(2) 0.70450(16)
H22 H 0.92980 0.09030 0.65960
H23 H 0.91070 0.10260 0.73680
O16 O 0.7621(3) 0.1201(2) 0.5002(2)
H24 H 0.73960 0.16560 0.52850
H25 H 0.83340 0.12570 0.50590
O1B O 0.61910(18) 0.28687(18) 1.18890(13)
O2B O 0.70839(17) 0.25060(17) 1.11314(13)
O3B O 0.4726(2) 0.17527(18) 0.96191(15)
O4B O 0.4439(4) 0.2617(2) 0.83898(18)
C1B C 0.4699(3) 0.2648(3) 0.9189(2)
C2B C 0.4907(3) 0.3858(2) 0.96329(18)
C3B C 0.5594(2) 0.4039(2) 1.05691(18)
C4B C 0.5676(2) 0.5169(2) 1.09206(18)
H11B H 0.61340 0.52800 1.15440
C5B C 0.6323(2) 0.3071(2) 1.12265(17)
O5B O -0.20209(17) 0.24732(17) 0.38255(13)
O6B O -0.10947(18) 0.28880(18) 0.31030(13)
O7B O 0.03484(19) 0.17635(17) 0.53808(14)
O8B O 0.0352(2) 0.25797(19) 0.65519(15)
C6B C -0.0619(2) 0.5175(2) 0.40805(18)
H12B H -0.10400 0.52890 0.34570
C7B C -0.0567(2) 0.4039(2) 0.44209(18)
C8B C 0.0060(2) 0.3856(2) 0.53554(18)
C9B C 0.0247(2) 0.2637(2) 0.57868(19)
C10B C -0.1261(2) 0.3067(2) 0.37542(18)
Tb1B Tb -0.243849(10) 0.118906(10) 0.248544(7)
O9B O -0.3816(2) 0.0727(2) 0.29702(14)
H1B H -0.42940 0.02270 0.26290
H2B H -0.44460 0.10440 0.24050
O10B O -0.40880(19) 0.04045(18) 0.11521(13)
H3B H -0.39980 -0.03130 0.11220
H4B H -0.45200 0.07930 0.08960
O11B O -0.10737(19) 0.08423(19) 0.19752(14)
H5B H -0.05490 0.03830 0.23240
H6B H -0.04780 0.11570 0.20530
O12B O -0.23703(19) -0.1010(2) 0.24813(13)
H7B H -0.16810 -0.12370 0.28140
H8B H -0.29280 -0.14320 0.21190
O13B O -0.0783(2) 0.04254(18) 0.38526(13)
H9B H -0.09060 -0.02740 0.39150
H10B H -0.02210 0.02670 0.37530
Tb1B* Tb 0.756151(10) 0.118906(10) 1.248544(7)
O1B* O -0.38090(18) 0.28687(18) 0.18890(13)
O2B* O -0.29161(17) 0.25060(17) 0.11314(13)
#END
