
#######################################################################
#
#                 Cambridge Crystallographic Data Centre
#                                CCDC
#
#######################################################################
#
# If this CIF has been generated from an entry in the Cambridge
# Structural Database, then it will include bibliographic, chemical,
# crystal, experimental, refinement or atomic coordinate data resulting
# from the CCDC's data processing and validation procedures.
#
#######################################################################

data_CSD_CIF_ADEGEY
_audit_creation_date 2017-10-02
_audit_creation_method CSD-ConQuest-V1
_database_code_CSD ADEGEY
_database_code_depnum_ccdc_archive 'CCDC 1064045'
_chemical_formula_sum 'C79 H127 Cd2 Cl2 N11 O29'
_chemical_formula_moiety
;
(C42 H18 Cd2 Cl2 O12 4-)n,4(C2 H8 N1 1+),7(C3 H7 N1 O1),2(C4 H8 O2),6(H2 O1)
;
_journal_coden_Cambridge 211
_journal_volume 69
_journal_year 2016
_journal_page_first 996
_journal_name_full 'J.Coord.Chem. '
loop_
_publ_author_name
"Yun-Nan Gong"
"Shi-Yong Zhang"
"Peng Xiong"
"Yong-Rong Xie"
"Zi-Yi Du"
"DiChang Zhong"
_chemical_name_systematic
;
catena-[tetrakis(dimethylammonium) 
bis(\m-triphenylene-2,6,10-tricarboxylato)-dichloro-di-cadmium(ii) 
;
_cell_volume   6574.338
_exptl_crystal_colour 'colorless'
_exptl_crystal_density_diffrn 1.021
_exptl_crystal_description 'block'
_diffrn_ambient_temperature 150
_refine_special_details
;
Disordered dimethylammonium cations and all the solvent molecules were not 
modelled and the disordered density was taken into account using the 
SQUEEZE/PLATON procedure.
;
#These two values have been output from a single CSD field.
_refine_ls_R_factor_gt 0.0483
_refine_ls_wR_factor_gt 0.0483
_symmetry_cell_setting monoclinic
_symmetry_space_group_name_H-M 'P 2/c'
_symmetry_Int_Tables_number 13
loop_
_symmetry_equiv_pos_site_id
_symmetry_equiv_pos_as_xyz
1 x,y,z
2 -x,y,1/2-z
3 -x,-y,-z
4 x,-y,-1/2+z
_cell_length_a 22.4759(9)
_cell_length_b 14.1031(6)
_cell_length_c 21.9032(13)
_cell_angle_alpha 90
_cell_angle_beta 108.752(5)
_cell_angle_gamma 90
_cell_formula_units_Z 4
loop_
_atom_type_symbol
_atom_type_radius_bond
C 0.68
H 0.23
Cd 1.44
Cl 0.99
O 0.68
loop_
_atom_site_label
_atom_site_type_symbol
_atom_site_fract_x
_atom_site_fract_y
_atom_site_fract_z
C1 C 0.1936(2) 0.7949(3) 0.1236(3)
Cd1 Cd 0.310211(14) 0.77450(2) 0.207632(18)
Cl1 Cl 0.34821(7) 0.78737(12) 0.32683(8)
O1 O 0.20480(14) 0.8091(2) 0.18228(18)
C2 C 0.1268(2) 0.8073(4) 0.0801(2)
Cd2 Cd 0.800033(15) 0.28936(3) 0.17499(2)
Cl2 Cl 0.84589(13) 0.42847(19) 0.1208(2)
O2 O 0.23470(15) 0.7707(3) 0.09931(17)
C3 C 0.1035(2) 0.7619(4) 0.0219(3)
H1 H 0.12940 0.72270 0.00740
O3 O -0.10394(19) 1.2055(3) 0.1893(2)
C4 C 0.0418(2) 0.7742(4) -0.0148(3)
H2 H 0.02660 0.74160 -0.05360
O4 O -0.18589(16) 1.1600(3) 0.11166(19)
C5 C 0.0008(2) 0.8339(4) 0.0036(3)
O5 O -0.21503(17) 0.8138(3) -0.24448(19)
C6 C -0.0641(2) 0.8496(4) -0.0377(2)
O6 O -0.15022(19) 0.6933(3) -0.2081(2)
C7 C -0.0908(2) 0.8007(4) -0.0957(3)
H3 H -0.06760 0.75360 -0.10740
O7 O 0.36089(14) 0.6487(2) 0.18195(17)
C8 C -0.1500(2) 0.8206(5) -0.1354(3)
O8 O 0.27819(15) 0.5953(2) 0.20560(19)
C9 C -0.1739(3) 0.7716(5) -0.2003(3)
O9 O 0.71558(15) 0.3853(3) 0.17355(18)
C10 C -0.1851(2) 0.8899(5) -0.1174(3)
H4 H -0.22510 0.90480 -0.14490
O10 O 0.68857(15) 0.2486(3) 0.12410(18)
C11 C -0.1621(2) 0.9354(4) -0.0613(3)
H5 H -0.18730 0.98040 -0.05040
O11 O 0.38852(15) -0.1362(2) 0.18654(18)
C12 C -0.1020(2) 0.9185(4) -0.0179(3)
O12 O 0.31313(15) -0.0404(2) 0.19414(18)
C13 C -0.0771(2) 0.9685(4) 0.0435(3)
C14 C -0.1140(2) 1.0324(4) 0.0643(3)
H6 H -0.15590 1.04090 0.03980
C15 C -0.0893(2) 1.0831(4) 0.1204(3)
C16 C -0.1285(3) 1.1540(4) 0.1420(3)
C17 C -0.0255(2) 1.0727(5) 0.1572(3)
H7 H -0.00810 1.10950 0.19380
C18 C 0.0105(3) 1.0081(4) 0.1384(3)
H8 H 0.05210 0.99970 0.16370
C19 C -0.0137(2) 0.9541(4) 0.0818(3)
C20 C 0.0255(2) 0.8846(4) 0.0611(3)
C21 C 0.0882(2) 0.8685(4) 0.1001(2)
H9 H 0.10390 0.89910 0.13970
C22 C 0.3270(2) 0.5826(3) 0.1895(2)
C23 C 0.3468(2) 0.4823(3) 0.1816(2)
C24 C 0.4037(2) 0.4673(3) 0.1719(2)
H10 H 0.42740 0.51930 0.16760
C25 C 0.42673(19) 0.3759(3) 0.1685(2)
C26 C 0.4893(2) 0.3621(3) 0.1614(2)
C27 C 0.5285(2) 0.4396(3) 0.1619(3)
H11 H 0.51450 0.50050 0.16630
C28 C 0.5877(2) 0.4275(4) 0.1560(3)
H12 H 0.61300 0.47980 0.15640
C29 C 0.6088(2) 0.3374(4) 0.1497(3)
C30 C 0.6754(2) 0.3228(4) 0.1480(3)
C31 C 0.5703(2) 0.2593(3) 0.1480(2)
H13 H 0.58400 0.19900 0.14150
C32 C 0.5114(2) 0.2704(3) 0.1559(2)
C33 C 0.4737(2) 0.1884(3) 0.1624(2)
C34 C 0.4943(2) 0.0948(3) 0.1591(2)
H14 H 0.53220 0.08520 0.15150
C35 C 0.4609(2) 0.0180(3) 0.1668(2)
H15 H 0.47620 -0.04280 0.16480
C36 C 0.4032(2) 0.0305(3) 0.1777(2)
C37 C 0.3650(2) -0.0537(3) 0.1880(2)
C38 C 0.3814(2) 0.1206(3) 0.1812(2)
H16 H 0.34350 0.12870 0.18910
C39 C 0.4154(2) 0.2016(3) 0.1729(2)
C40 C 0.3913(2) 0.2972(3) 0.1754(2)
C41 C 0.3323(2) 0.3136(3) 0.1835(2)
H17 H 0.30750 0.26200 0.18630
C42 C 0.3105(2) 0.4041(3) 0.1873(2)
H18 H 0.27190 0.41320 0.19370
Cd1* Cd 0.310211(14) -0.22550(2) 0.207632(18)
Cd2* Cd -0.199967(15) 1.28936(3) 0.17499(2)
Cd2C Cd -0.199967(15) 0.71064(3) -0.32501(2)
O3* O 0.89606(19) 0.2055(3) 0.1893(2)
O4* O 0.81411(16) 0.1600(3) 0.11166(19)
O5C O 0.78497(17) 0.1862(3) 0.25552(19)
O6C O 0.84978(19) 0.3067(3) 0.2919(2)
O11* O 0.38852(15) 0.8638(2) 0.18654(18)
O12* O 0.31313(15) 0.9596(2) 0.19414(18)
#END
