
#######################################################################
#
#                 Cambridge Crystallographic Data Centre
#                                CCDC
#
#######################################################################
#
# If this CIF has been generated from an entry in the Cambridge
# Structural Database, then it will include bibliographic, chemical,
# crystal, experimental, refinement or atomic coordinate data resulting
# from the CCDC's data processing and validation procedures.
#
#######################################################################

data_CSD_CIF_ADIJIJ
_audit_creation_date 2017-10-03
_audit_creation_method CSD-ConQuest-V1
_database_code_CSD ADIJIJ
_database_code_depnum_ccdc_archive 'CCDC 1554016'
_chemical_formula_sum 'C41 H49 Cu1 N12 O68 P2 W18'
_chemical_formula_moiety
;
(C5 H5 Cu1 N6 O63 P2 W18 4-)n,2(C12 H11 N2 1+),5(H2 O1),C12 H12 N2 2+
;
_journal_coden_Cambridge 222
_journal_volume 46
_journal_year 2017
_journal_page_first 13897
_journal_name_full 'Dalton Trans. '
loop_
_publ_author_name
"Guangning Wang"
"Tingting Chen"
"Shaobin Li"
"Haijun Pang"
"Huiyuan Ma"
_chemical_name_systematic
;
catena-[bis(4-[2-(pyridin-4-yl)ethenyl]pyridinium) 
4,4'-ethene-1,2-diyldipyridinium 
bis(\m-phosphato)-octatriacontakis(\m-oxo)-(\m-5-(pyrazin-2-yl)-tetrazolato)-h
exadecaoxo-aqua-copper-octadeca-tungsten monohydrate]
;
_cell_volume   8562.558
_exptl_crystal_colour 'green'
_exptl_crystal_density_diffrn 4.047
_exptl_crystal_description 'block'
_diffrn_ambient_temperature 296
#These two values have been output from a single CSD field.
_refine_ls_R_factor_gt 0.0483
_refine_ls_wR_factor_gt 0.0483
_symmetry_cell_setting monoclinic
_symmetry_space_group_name_H-M 'P 21/n'
_symmetry_Int_Tables_number 14
loop_
_symmetry_equiv_pos_site_id
_symmetry_equiv_pos_as_xyz
1 x,y,z
2 1/2-x,1/2+y,1/2-z
3 -x,-y,-z
4 -1/2+x,-1/2-y,-1/2+z
_cell_length_a 13.9484(9)
_cell_length_b 28.7451(17)
_cell_length_c 21.4103(13)
_cell_angle_alpha 90
_cell_angle_beta 94.090(1)
_cell_angle_gamma 90
_cell_formula_units_Z 4
loop_
_atom_type_symbol
_atom_type_radius_bond
C 0.68
H 0.23
Cu 1.32
N 0.68
O 0.68
P 1.05
W 1.62
loop_
_atom_site_label
_atom_site_type_symbol
_atom_site_fract_x
_atom_site_fract_y
_atom_site_fract_z
P1 P 0.7208(4) 0.12850(16) 0.2787(2)
P2 P 0.4702(3) 0.14619(15) 0.1796(2)
O1 O 0.9342(11) 0.1995(5) 0.4623(7)
O2 O 0.8969(10) 0.1066(4) 0.4286(6)
O3 O 0.9149(10) 0.0112(5) 0.4199(6)
O4 O 0.9721(10) 0.0723(4) 0.3281(6)
O5 O 0.9825(9) 0.1635(4) 0.3497(5)
O6 O 1.0897(10) 0.1247(5) 0.2589(6)
O7 O 0.7475(9) 0.1642(4) 0.4274(6)
O8 O 0.825(1) 0.2195(4) 0.3515(6)
O9 O 0.9209(10) 0.1789(4) 0.2319(6)
O10 O 0.9139(9) 0.0896(4) 0.2085(5)
O11 O 0.8199(9) 0.1222(4) 0.3171(6)
O12 O 0.8144(9) 0.0237(4) 0.3013(5)
O13 O 0.7376(9) 0.0557(4) 0.3988(5)
O14 O 0.5685(10) 0.0122(4) 0.4285(6)
O15 O 0.5906(9) 0.1075(4) 0.4356(6)
O16 O 0.5888(11) 0.1981(5) 0.4786(6)
O17 O 0.6404(10) 0.2214(4) 0.3571(5)
O18 O 0.7355(11) 0.3039(5) 0.3323(6)
O19 O 0.8107(9) 0.2558(4) 0.2375(5)
O20 O 0.7221(9) 0.1775(4) 0.2495(5)
O21 O 0.6402(9) 0.1229(4) 0.3234(5)
O22 O 0.9022(9) 0.2338(4) 0.1301(6)
O23 O 0.8112(10) 0.1481(4) 0.1382(6)
O24 O 0.882(1) 0.0659(4) 0.0823(6)
O25 O 0.7912(10) 0.0201(4) 0.1756(6)
O26 O 0.7149(9) 0.0904(4) 0.2281(5)
O27 O 0.6262(9) 0.0229(4) 0.3054(6)
O28 O 0.7186(11) -0.0501(5) 0.2476(6)
O29 O 0.4857(10) 0.1709(5) 0.3707(6)
O30 O 0.7085(10) 0.2260(4) 0.1351(6)
O31 O 0.6166(10) 0.2612(4) 0.2452(6)
O32 O 0.6902(10) 0.0806(4) 0.0983(5)
O33 O 0.6010(9) 0.0146(4) 0.1834(5)
O34 O 0.4736(9) 0.0681(4) 0.3426(6)
O35 O 0.4479(9) 0.2342(4) 0.2802(5)
O36 O 0.3148(10) 0.2147(4) 0.3698(6)
O37 O 0.2934(11) 0.0308(4) 0.3177(6)
O38 O 0.3214(10) 0.1254(4) 0.3283(6)
O39 O 0.5280(9) 0.1919(4) 0.1740(5)
O40 O 0.4481(9) 0.1362(4) 0.2478(5)
O41 O 0.5214(9) 0.1043(4) 0.1510(5)
O42 O 0.4620(11) 0.3210(5) 0.2279(6)
O43 O 0.5417(9) 0.2745(4) 0.1290(5)
O44 O 0.6333(10) 0.2531(5) 0.0208(6)
O45 O 0.6181(9) 0.1614(4) 0.0634(5)
O46 O 0.5217(10) 0.0395(4) 0.0694(5)
O47 O 0.6155(9) 0.0870(4) -0.0207(5)
O48 O 0.4353(11) -0.0308(4) 0.1376(6)
O49 O 0.2839(10) 0.1952(4) 0.2434(6)
O50 O 0.2763(9) 0.0860(4) 0.2120(6)
O51 O 0.3536(10) 0.0544(4) 0.1164(6)
O52 O 0.3698(9) 0.1531(4) 0.1402(5)
O53 O 0.3644(10) 0.2509(4) 0.1688(6)
O54 O 0.4541(9) 0.1252(4) 0.0270(5)
O55 O 0.4625(9) 0.2126(4) 0.0502(5)
O56 O 0.3271(11) 0.1842(5) -0.0437(6)
O57 O 0.1559(10) 0.0608(4) 0.1020(6)
O58 O 0.1874(9) 0.1532(4) 0.1437(6)
O59 O 0.2694(10) 0.1220(4) 0.0451(6)
O60 O 0.1668(11) 0.2489(4) 0.1639(6)
O61 O 0.2706(9) 0.2116(4) 0.0705(5)
O62 O 0.433(1) 0.0371(4) 0.2288(5)
W1 W 0.87839(7) 0.17078(3) 0.40150(4)
W2 W 0.86321(7) 0.05535(3) 0.37647(4)
W3 W 0.97376(7) 0.12502(3) 0.27669(4)
W4 W 0.72258(6) 0.24960(3) 0.30221(3)
W5 W 0.61507(6) 0.17038(3) 0.41146(3)
W6 W 0.59665(6) 0.05605(3) 0.37916(3)
W7 W 0.70973(6) 0.00949(3) 0.24230(3)
W8 W 0.81288(6) 0.08126(3) 0.14284(3)
W9 W 0.82673(6) 0.20630(3) 0.17684(3)
W10 W 0.59202(6) 0.22440(3) 0.08246(3)
W11 W 0.48717(6) 0.26476(3) 0.20932(4)
W12 W 0.57528(6) 0.09901(3) 0.05182(3)
W13 W 0.47379(6) 0.02532(3) 0.14877(3)
W14 W 0.37717(6) 0.18517(3) 0.31824(3)
W15 W 0.35984(6) 0.07224(3) 0.28455(4)
W16 W 0.35817(7) 0.17271(3) 0.03159(4)
W17 W 0.25625(7) 0.20969(3) 0.16092(4)
W18 W 0.25139(6) 0.09594(3) 0.12307(4)
O63 O 0.7557(13) 0.0358(6) -0.0621(7)
Cu1 Cu 0.85592(19) 0.00438(9) -0.00874(12)
N1 N 0.9530(13) -0.0333(5) 0.0423(7)
N2 N 0.7626(12) -0.0331(5) 0.0378(7)
N3 N 1.0463(12) -0.0391(5) 0.0527(7)
N4 N 1.0641(13) -0.0684(6) 0.0967(8)
N5 N 0.9808(12) -0.0845(5) 0.1160(7)
N6 N 0.6594(16) -0.0921(7) 0.1139(10)
C1 C 0.9142(15) -0.0621(6) 0.0825(9)
C2 C 0.8117(17) -0.0642(7) 0.0805(9)
C3 C 0.7567(19) -0.0931(8) 0.1178(10)
H1 H 0.78840 -0.11350 0.14590
C4 C 0.6181(19) -0.0633(8) 0.0742(10)
H2 H 0.55140 -0.06180 0.07010
C5 C 0.6715(17) -0.0339(7) 0.0369(10)
H3 H 0.63750 -0.01370 0.00960
O64 O 0.7518(17) 0.3309(6) 0.1203(10)
O65 O 0.8987(13) 0.2862(6) 0.0174(8)
N7 N -0.0821(15) 0.8240(7) -0.0156(10)
N8 N 0.5127(16) 0.7773(7) 0.1903(9)
C6 C 0.4289(18) 0.7641(8) 0.2082(11)
H4 H 0.42590 0.74340 0.24150
C7 C 0.522(3) 0.8069(11) 0.1455(14)
H5 H 0.58130 0.81740 0.13480
C8 C 0.3488(19) 0.7799(8) 0.1791(11)
H6 H 0.29050 0.77180 0.19470
C9 C 0.433(2) 0.8226(11) 0.1130(13)
H7 H 0.43670 0.84420 0.08090
C10 C 0.3473(17) 0.8083(7) 0.1259(9)
C11 C 0.2638(18) 0.8205(7) 0.0885(10)
H8 H 0.27400 0.83370 0.04990
C12 C 0.1736(16) 0.8156(7) 0.101(1)
H9 H 0.16440 0.80730 0.14220
C13 C 0.0868(15) 0.8210(7) 0.0614(10)
C14 C 0.0848(17) 0.8383(7) 0.0014(9)
H10 H 0.14130 0.84880 -0.01450
C15 C -0.0014(19) 0.8402(8) -0.0354(11)
H11 H -0.00200 0.85330 -0.07510
C16 C -0.0829(19) 0.8073(8) 0.0470(12)
H12 H -0.14030 0.79750 0.06240
C17 C -0.0020(17) 0.8058(9) 0.0834(11)
H13 H -0.00320 0.79460 0.12410
N9 N -0.0066(13) 0.9979(6) 0.2350(8)
N10 N 0.565(2) 0.8501(9) 0.3404(12)
C18 C 0.579(3) 0.8950(14) 0.3216(18)
H14 H 0.63790 0.90980 0.32820
C19 C 0.497(3) 0.9183(14) 0.2909(18)
H15 H 0.50270 0.94800 0.27440
C20 C 0.403(2) 0.894(1) 0.2861(14)
C21 C 0.400(2) 0.8531(9) 0.3146(13)
H16 H 0.34120 0.83830 0.31790
C22 C 0.482(3) 0.8323(9) 0.3392(14)
H17 H 0.47630 0.80270 0.35630
C23 C 0.3200(19) 0.9230(9) 0.2632(12)
H18 H 0.33300 0.95170 0.24560
C24 C 0.234(2) 0.9116(8) 0.2656(12)
H19 H 0.22130 0.88140 0.27790
C25 C 0.1532(18) 0.9415(8) 0.251(1)
C26 C 0.1575(17) 0.9850(7) 0.2211(9)
H20 H 0.21440 0.99570 0.20600
C27 C 0.0779(18) 1.0103(7) 0.2151(10)
H21 H 0.08140 1.03900 0.19530
C28 C -0.0145(19) 0.9577(9) 0.2623(12)
H22 H -0.07240 0.94940 0.27820
C29 C 0.0629(19) 0.9272(7) 0.2679(10)
H23 H 0.05460 0.89720 0.28290
N11 N 0.6068(19) 0.6638(8) 0.9208(10)
N12 N 0.7762(17) 0.3535(7) 0.9724(9)
C30 C 0.549(2) 0.6296(9) 0.9209(12)
H24 H 0.48410 0.63620 0.91430
C31 C 0.575(2) 0.5828(8) 0.9300(11)
H25 H 0.52840 0.55980 0.93270
C32 C 0.733(2) 0.6128(8) 0.9375(10)
H26 H 0.79880 0.60910 0.94500
C33 C 0.698(2) 0.6546(9) 0.9298(11)
H27 H 0.74070 0.67940 0.93090
C34 C 0.6728(17) 0.5724(8) 0.9349(9)
C35 C 0.7145(18) 0.5269(7) 0.9437(11)
H28 H 0.78060 0.52490 0.95280
C36 C 0.665(2) 0.4877(8) 0.9396(10)
H29 H 0.59920 0.48970 0.92890
C37 C 0.708(2) 0.4403(8) 0.9513(11)
C38 C 0.803(2) 0.4336(9) 0.9733(11)
H30 H 0.84290 0.45880 0.98270
C39 C 0.835(2) 0.3886(8) 0.9808(13)
H31 H 0.90010 0.38310 0.99190
C40 C 0.681(2) 0.3596(10) 0.9506(13)
H32 H 0.64170 0.33400 0.94310
C41 C 0.6459(19) 0.4039(8) 0.9399(11)
H33 H 0.58220 0.40880 0.92540
O66 O 0.963(2) 0.5721(10) 0.9443(11)
O67 O 0.675(3) 0.3710(11) 0.2162(17)
O68 O -0.179(4) 0.9261(16) 0.376(2)
O57B O 0.8441(10) -0.0608(4) -0.1020(6)
Cu1B Cu 0.14408(19) -0.00438(9) 0.00874(12)
Cu1B* Cu 1.14408(19) -0.00438(9) 0.00874(12)
N3B N 0.9537(12) 0.0391(5) -0.0527(7)
#END
