
#######################################################################
#
#                 Cambridge Crystallographic Data Centre
#                                CCDC
#
#######################################################################
#
# If this CIF has been generated from an entry in the Cambridge
# Structural Database, then it will include bibliographic, chemical,
# crystal, experimental, refinement or atomic coordinate data resulting
# from the CCDC's data processing and validation procedures.
#
#######################################################################

data_CSD_CIF_ADOFOO
_audit_creation_date 2002-05-16
_audit_creation_method CSD-ConQuest-V1
_database_code_CSD ADOFOO
_database_code_depnum_ccdc_archive 'CCDC 167484'
_chemical_formula_sum 'C52 H94 N32 Ni1 O41'
_chemical_formula_moiety
;
(C36 H36 N24 O12)n,n(C16 H32 N4 Ni1 O4 4+),4n(N1 O3 1-),13n(H2 O1)
;
_journal_coden_Cambridge 1220
_journal_volume 8
_journal_year 2002
_journal_page_first 498
_journal_name_full 'Chem.-Eur.J. '
loop_
_publ_author_name
"K.-M.Park"
"Dongmok Whang"
"Eunsung Lee"
"Jungseok Heo"
"K.Kim"
_chemical_name_systematic
;
catena-(((\m~2~-N,N'-bis(4-Pyridylmethyl)butane-1,4-diammonium)-tetra-aqua-nic
kel(ii))-(cucurbituril)-polyrotaxane tetranitrate tridecahydrate)
;
_chemical_melting_point 513.15
_cell_volume   7683.886
_exptl_crystal_colour 'pale green'
_exptl_crystal_density_diffrn 1.619
_exptl_special_details
;
Melts above 513.15K
isostructural with the Co(ii) analogue

;
_exptl_crystal_description 'block'
_diffrn_ambient_temperature 293
_refine_special_details
;
The structure is disordered.

;
#These two values have been output from a single CSD field.
_refine_ls_R_factor_gt 0.0945
_refine_ls_wR_factor_gt 0.0945
_symmetry_cell_setting monoclinic
_symmetry_space_group_name_H-M 'P 21/c'
_symmetry_Int_Tables_number 14
loop_
_symmetry_equiv_pos_site_id
_symmetry_equiv_pos_as_xyz
1 x,y,z
2 -x,1/2+y,1/2-z
3 -x,-y,-z
4 x,-1/2-y,-1/2+z
_cell_length_a 12.430(3)
_cell_length_b 21.318(4)
_cell_length_c 29.012(6)
_cell_angle_alpha 90
_cell_angle_beta 91.80(3)
_cell_angle_gamma 90
_cell_formula_units_Z 4
loop_
_atom_type_symbol
_atom_type_radius_bond
C 0.68
H 0.23
N 0.68
Ni 1.50
O 0.68
loop_
_atom_site_label
_atom_site_type_symbol
_atom_site_fract_x
_atom_site_fract_y
_atom_site_fract_z
Ni1 Ni 0.80775(13) 0.59083(8) 0.88905(6)
O1 O 0.8904(7) 0.5168(4) 0.8604(3)
O2 O 0.7262(7) 0.6609(4) 0.9214(3)
O3 O 0.7105(7) 0.5248(4) 0.9203(3)
O4 O 0.8989(7) 0.6576(4) 0.8549(3)
N1 N 0.9140(8) 0.5897(5) 0.9462(4)
N2 N 1.1617(8) 0.6802(5) 1.0671(3)
H1 H 1.09740 0.70470 1.06980
H2 H 1.19670 0.69360 1.03970
N3 N 1.4559(9) 0.8429(5) 1.2025(4)
H3 H 1.51770 0.81600 1.20110
H4 H 1.41480 0.82960 1.22820
N4 N 1.7042(9) 0.9079(5) 1.3317(4)
C1 C 1.0182(12) 0.5959(6) 0.9412(5)
H5 H 1.04450 0.59610 0.91050
C2 C 1.0947(11) 0.6024(6) 0.9788(4)
H6 H 1.17010 0.60710 0.97350
C3 C 1.0572(10) 0.6018(6) 1.0220(4)
C4 C 0.9478(12) 0.5931(6) 1.0286(5)
H7 H 0.91950 0.58970 1.05890
C5 C 0.8816(13) 0.5897(7) 0.9893(5)
H8 H 0.80550 0.58720 0.99370
C6 C 1.1321(11) 0.6122(6) 1.0624(4)
H9 H 1.09840 0.59840 1.09000
H10 H 1.19610 0.58770 1.05880
C7 C 1.2341(11) 0.6918(6) 1.1078(5)
H11 H 1.19710 0.68010 1.13510
H12 H 1.29600 0.66510 1.10580
C8 C 1.2726(11) 0.7599(6) 1.1132(4)
H13 H 1.21130 0.78680 1.11630
H14 H 1.30870 0.77230 1.08590
C9 C 1.3475(12) 0.7683(6) 1.1541(5)
H15 H 1.31060 0.75690 1.18150
H16 H 1.40750 0.74040 1.15140
C10 C 1.3888(11) 0.8348(6) 1.1592(5)
H17 H 1.32890 0.86310 1.15960
H18 H 1.43100 0.84510 1.13320
C11 C 1.4931(12) 0.9077(6) 1.2110(5)
H19 H 1.53030 0.92270 1.18460
H20 H 1.43230 0.93450 1.21550
C12 C 1.7418(11) 0.9112(6) 1.2886(4)
H21 H 1.81820 0.91380 1.28510
C13 C 1.6758(11) 0.9108(6) 1.2492(5)
H22 H 1.70680 0.91120 1.21930
C14 C 1.5674(10) 0.9099(6) 1.2530(4)
C15 C 1.5246(12) 0.9073(6) 1.2961(5)
H23 H 1.44820 0.90660 1.30000
C16 C 1.5964(10) 0.9058(6) 1.3340(5)
H24 H 1.56660 0.90300 1.36410
O5 O 0.2946(7) 0.7931(4) 0.4937(3)
O6 O 0.0566(7) 0.7283(5) 0.5125(3)
O7 O -0.0429(8) 0.7765(4) 0.6097(3)
O8 O 0.0910(7) 0.8937(4) 0.6829(3)
O9 O 0.3196(7) 0.9472(4) 0.6543(3)
O10 O 0.4249(8) 0.9029(5) 0.5567(3)
O11 O 0.5328(7) 0.5784(4) 0.5807(3)
O12 O 0.3082(7) 0.5239(4) 0.6101(3)
O13 O 0.2041(8) 0.5796(4) 0.7132(3)
O14 O 0.3273(7) 0.6861(4) 0.7796(3)
O15 O 0.5634(7) 0.7496(4) 0.7577(3)
O16 O 0.6564(7) 0.6998(4) 0.6600(3)
N5 N 0.4679(9) 0.7522(5) 0.4947(4)
N6 N 0.3299(9) 0.6869(6) 0.4841(4)
N7 N 0.1588(9) 0.6410(5) 0.4977(4)
N8 N 0.0342(8) 0.6348(5) 0.5506(4)
N9 N -0.0498(9) 0.6685(5) 0.6211(4)
N10 N -0.0267(8) 0.7313(4) 0.6820(4)
N11 N 0.0657(8) 0.8080(5) 0.7302(4)
N12 N 0.1915(9) 0.8772(5) 0.7505(3)
N13 N 0.3653(8) 0.9192(5) 0.7287(4)
N14 N 0.4908(9) 0.9247(5) 0.6792(3)
N15 N 0.5675(9) 0.8883(5) 0.6083(4)
N16 N 0.5544(9) 0.8284(5) 0.5461(3)
N17 N 0.5549(8) 0.6686(5) 0.5385(4)
N18 N 0.4366(9) 0.5983(5) 0.5121(4)
N19 N 0.2622(8) 0.5609(5) 0.5375(4)
N20 N 0.1379(9) 0.5535(5) 0.5898(3)
N21 N 0.0660(8) 0.5932(5) 0.6601(3)
N22 N 0.0669(9) 0.6485(5) 0.7249(4)
N23 N 0.1571(9) 0.7263(5) 0.7749(3)
N24 N 0.2899(8) 0.7916(5) 0.7875(3)
N25 N 0.4635(9) 0.8382(5) 0.7710(3)
N26 N 0.5910(8) 0.8429(5) 0.7202(3)
N27 N 0.6675(9) 0.8076(5) 0.6492(3)
N28 N 0.6488(9) 0.7445(5) 0.5876(4)
C17 C 0.3591(14) 0.7501(8) 0.4912(5)
C18 C 0.2274(11) 0.6705(7) 0.4651(5)
H25 H 0.23690 0.64250 0.43960
H26 H 0.19260 0.70760 0.45330
C19 C 0.0815(12) 0.6724(8) 0.5203(5)
C20 C -0.0623(11) 0.6512(6) 0.5733(4)
H27 H -0.11080 0.61620 0.57100
H28 H -0.09560 0.68560 0.55690
C21 C -0.0424(11) 0.7295(8) 0.6357(5)
C22 C -0.0325(11) 0.7877(6) 0.7094(5)
H29 H -0.06020 0.82090 0.69000
H30 H -0.08310 0.78090 0.73310
C23 C 0.1127(11) 0.8635(7) 0.7179(5)
C24 C 0.2565(11) 0.9314(6) 0.7477(5)
H31 H 0.26580 0.94920 0.77800
H32 H 0.21980 0.96180 0.72860
C25 C 0.3836(13) 0.9313(6) 0.6850(6)
C26 C 0.5464(12) 0.9401(7) 0.6375(5)
H33 H 0.50390 0.97020 0.62030
H34 H 0.61350 0.95980 0.64600
C27 C 0.5074(14) 0.8754(7) 0.5696(5)
C28 C 0.5226(11) 0.8122(6) 0.4992(5)
H35 H 0.58560 0.81130 0.48090
H36 H 0.47600 0.84440 0.48690
C29 C 0.5172(12) 0.6914(7) 0.4934(5)
H37 H 0.57370 0.69030 0.47160
C30 C 0.4259(11) 0.6469(7) 0.4792(5)
H38 H 0.43250 0.63180 0.44830
C31 C 0.0771(11) 0.5715(7) 0.5493(4)
H39 H 0.02310 0.54110 0.54070
C32 C 0.1641(11) 0.5773(6) 0.5132(5)
H40 H 0.15010 0.54890 0.48800
C33 C -0.0345(11) 0.6264(7) 0.6581(5)
H41 H -0.09350 0.59750 0.65920
C34 C -0.0303(11) 0.6676(6) 0.7014(4)
H42 H -0.09210 0.66150 0.72000
C35 C 0.1038(10) 0.7867(6) 0.7764(4)
H43 H 0.04850 0.78810 0.79870
C36 C 0.1963(10) 0.8322(6) 0.7876(5)
H44 H 0.18830 0.85190 0.81710
C37 C 0.4606(10) 0.9021(6) 0.7565(5)
H45 H 0.47260 0.93040 0.78190
C38 C 0.5498(10) 0.9068(6) 0.7214(4)
H46 H 0.60430 0.93680 0.73030
C39 C 0.6647(11) 0.8502(7) 0.6103(4)
H47 H 0.72860 0.87540 0.60950
C40 C 0.6524(12) 0.8080(7) 0.5683(5)
H48 H 0.71210 0.81270 0.54840
C41 C 0.5080(13) 0.6116(8) 0.5471(6)
C42 C 0.3629(12) 0.5446(7) 0.5151(5)
H49 H 0.34620 0.52920 0.48460
H50 H 0.39820 0.51150 0.53220
C43 C 0.2436(13) 0.5438(6) 0.5819(6)
C44 C 0.0894(11) 0.5376(6) 0.6326(4)
H51 H 0.13700 0.51060 0.65010
H52 H 0.02370 0.51500 0.62630
C45 C 0.1206(14) 0.6033(7) 0.7006(5)
C46 C 0.0995(12) 0.6668(6) 0.7712(5)
H53 H 0.14460 0.63440 0.78430
H54 H 0.03640 0.66930 0.78940
C47 C 0.2677(13) 0.7303(8) 0.7804(5)
C48 C 0.3949(11) 0.8120(7) 0.8049(5)
H55 H 0.38480 0.84270 0.82860
H56 H 0.43090 0.77670 0.81900
C49 C 0.5413(13) 0.8046(9) 0.7508(5)
C50 C 0.6868(12) 0.8234(7) 0.6972(5)
H57 H 0.73890 0.85660 0.69920
H58 H 0.71690 0.78760 0.71290
C51 C 0.6585(11) 0.7453(8) 0.6349(6)
C52 C 0.6539(11) 0.6886(7) 0.5614(5)
H59 H 0.67860 0.65540 0.58140
H60 H 0.70700 0.69410 0.53840
N29 N 0.8158(18) 0.9021(9) 0.9655(8)
O17 O 0.7406(18) 0.9115(9) 0.9874(7)
O18 O 0.9009(15) 0.9276(7) 0.9698(6)
O19 O 0.8091(14) 0.8609(8) 0.9337(6)
N30 N 0.3103(18) 0.6766(12) 0.8892(5)
O20 O 0.2241(13) 0.6500(8) 0.8811(5)
O21 O 0.3159(14) 0.7341(9) 0.8870(5)
O22 O 0.3958(13) 0.6474(9) 0.8962(5)
N31 N 0.7774(15) 1.0179(10) 1.1200(6)
O23 O 0.7488(13) 0.9718(8) 1.1423(6)
O24 O 0.7272(13) 1.0665(7) 1.1216(5)
O25 O 0.8556(13) 1.0129(8) 1.0950(5)
O26 O 0.8392(8) 0.7450(5) 0.9762(3)
O27 O 0.7856(8) 0.7377(5) 0.7979(3)
O28 O 1.0492(9) 0.7378(5) 0.8846(4)
O29 O 0.5744(9) 0.7341(5) 0.8849(4)
O30 O 1.019(1) 0.8683(6) 0.8897(4)
O31 O 0.2961(11) 0.4563(6) 0.6990(5)
O32 O 0.6196(13) 0.5179(8) 1.0043(6)
O33 O -0.1408(14) 0.8605(8) 0.8115(6)
O34 O 0.2785(17) 0.5178(10) 0.9196(7)
O35 O 0.4899(9) 0.9620(5) 0.8665(4)
O36 O 0.6109(12) 0.8577(7) 0.8808(5)
O37 O 0.040(3) 1.0011(19) 0.7719(14)
O38 O 0.726(3) 1.0309(17) 0.6907(12)
N32? N 0.850(4) 0.9707(19) 0.6869(18)
O39? O -0.057(5) 0.966(2) 0.7485(15)
O40? O 0.8682(14) 0.9472(12) 0.6407(7)
O41? O 0.052(2) 0.5234(7) 0.8008(14)
N4C N 0.7042(9) 0.5921(5) 0.8317(4)
Ni1C Ni 1.80775(13) 0.90917(8) 1.38905(6)
#END
