
#######################################################################
#
#                 Cambridge Crystallographic Data Centre
#                                CCDC
#
#######################################################################
#
# If this CIF has been generated from an entry in the Cambridge
# Structural Database, then it will include bibliographic, chemical,
# crystal, experimental, refinement or atomic coordinate data resulting
# from the CCDC's data processing and validation procedures.
#
#######################################################################

data_CSD_CIF_ADOSES
_audit_creation_date 2007-10-17
_audit_creation_method CSD-ConQuest-V1
_database_code_CSD ADOSES
_database_code_depnum_ccdc_archive 'CCDC 633399'
_chemical_formula_sum 'C6 H12 Co2 N2 Na2 O16 P2'
_chemical_formula_moiety
;
(C4 H2 Co2 Na2 O16 P2 2-)n,n(C2 H10 N2 2+)
;
_journal_coden_Cambridge 208
_journal_volume 180
_journal_year 2007
_journal_page_first 2110
_journal_name_full 'J.Solid State Chem. '
loop_
_publ_author_name
"Tao Huang"
"B.A.Vanchura"
"Yongkui Shan"
"S.D.Huang"
_chemical_name_systematic
;
catena-[Ethylene-1,2-diammonium bis(\m~6~-oxalato)-bis(\m~5~-hydrogen 
phosphato)-di-cobalt(ii)-di-sodium]
;
_cell_volume    772.896
_exptl_crystal_colour 'purple-red'
_exptl_crystal_density_diffrn 2.552
_exptl_special_details
;
magnetic properties

;
_exptl_crystal_description 'needle'
_diffrn_ambient_temperature 296.2
#These two values have been output from a single CSD field.
_refine_ls_R_factor_gt 0.0395
_refine_ls_wR_factor_gt 0.0395
_symmetry_cell_setting monoclinic
_symmetry_space_group_name_H-M 'P 21/c'
_symmetry_Int_Tables_number 14
loop_
_symmetry_equiv_pos_site_id
_symmetry_equiv_pos_as_xyz
1 x,y,z
2 -x,1/2+y,1/2-z
3 -x,-y,-z
4 x,-1/2-y,-1/2+z
_cell_length_a 5.8189(6)
_cell_length_b 10.235(1)
_cell_length_c 13.066(1)
_cell_angle_alpha 90
_cell_angle_beta 96.671(2)
_cell_angle_gamma 90
_cell_formula_units_Z 2
loop_
_atom_type_symbol
_atom_type_radius_bond
C 0.68
H 0.23
Co 1.33
N 0.68
Na 1.48
O 0.68
P 1.05
loop_
_atom_site_label
_atom_site_type_symbol
_atom_site_fract_x
_atom_site_fract_y
_atom_site_fract_z
Na1 Na 0.8877(2) 0.0523(1) 0.3702(1)
Co1 Co 0.35498(7) 0.24829(4) 0.73987(3)
P1 P 0.3892(1) 0.20321(8) 0.49267(7)
O1 O 0.3773(4) 0.2909(2) 0.5865(2)
O2 O 0.6488(4) 0.1513(2) 0.4984(2)
O3 O 0.3494(4) 0.2873(2) 0.3954(2)
O4 O 0.2285(4) 0.0861(2) 0.4895(2)
O5 O 1.2065(4) 0.0664(2) 0.2540(2)
O6 O 1.5330(4) -0.0510(2) 0.2736(2)
O7 O 1.2693(4) -0.2701(2) 0.2389(2)
O8 O 0.9692(3) -0.1535(2) 0.2840(2)
N1 N 0.7891(5) 0.0414(3) 0.0936(2)
C1 C 1.1723(5) -0.1666(3) 0.2620(2)
C2 C 1.3172(5) -0.0395(3) 0.2641(2)
C3 C 0.9008(6) 0.0479(3) -0.0026(3)
H1 H 0.65100 0.10110 0.08110
H2 H 0.73730 -0.04220 0.09940
H3 H 0.86230 0.05610 0.13460
H4 H 0.77840 0.03190 -0.06350
H5 H 0.94700 0.13470 -0.02010
Na1* Na 1.8877(2) 0.0523(1) 0.3702(1)
Na1** Na -0.1123(2) 0.0523(1) 0.3702(1)
Na1B Na 0.1123(2) -0.0523(1) 0.6298(1)
Na1A Na 1.1123(2) -0.4477(1) 0.1298(1)
Na1B* Na 1.1123(2) -0.0523(1) 0.6298(1)
Na1A* Na 0.1123(2) -0.4477(1) 0.1298(1)
Co1* Co 1.35498(7) 0.24829(4) 0.73987(3)
Co1C Co 0.35498(7) 0.25171(4) 0.23987(3)
Co1C* Co 1.35498(7) 0.25171(4) 0.23987(3)
Co1B Co 1.64502(7) -0.24829(4) 0.26013(3)
Co1B* Co 0.64502(7) -0.24829(4) 0.26013(3)
Co1B** Co -0.35498(7) -0.24829(4) 0.26013(3)
P1* P 1.3892(1) 0.20321(8) 0.49267(7)
O1* O 1.3773(4) 0.2909(2) 0.5865(2)
O2* O 1.6488(4) 0.1513(2) 0.4984(2)
O3* O 1.3494(4) 0.2873(2) 0.3954(2)
O3C O 0.3494(4) 0.2127(2) 0.8954(2)
O3C* O 1.3494(4) 0.2127(2) 0.8954(2)
O4* O 1.2285(4) 0.0861(2) 0.4895(2)
O4B O 0.7715(4) -0.0861(2) 0.5105(2)
O4** O 2.2285(4) 0.0861(2) 0.4895(2)
O4B* O 1.7715(4) -0.0861(2) 0.5105(2)
O5* O 0.2065(4) 0.0664(2) 0.2540(2)
O5C O 0.2065(4) 0.4336(2) 0.7540(2)
O5** O 2.2065(4) 0.0664(2) 0.2540(2)
O5C* O 1.2065(4) 0.4336(2) 0.7540(2)
O6* O 0.5330(4) -0.0510(2) 0.2736(2)
O6B O 0.4670(4) 0.0510(2) 0.7264(2)
O6B* O 1.4670(4) 0.0510(2) 0.7264(2)
O7* O 0.2693(4) -0.2701(2) 0.2389(2)
O7A O 0.7307(4) 0.2299(2) 0.2611(2)
O7B O 0.7307(4) 0.2701(2) 0.7611(2)
O7A* O 1.7307(4) 0.2299(2) 0.2611(2)
O7B* O 1.7307(4) 0.2701(2) 0.7611(2)
O8* O -0.0308(3) -0.1535(2) 0.2840(2)
O8B O 0.0308(3) 0.1535(2) 0.7160(2)
O8** O 1.9692(3) -0.1535(2) 0.2840(2)
O8B* O 1.0308(3) 0.1535(2) 0.7160(2)
N1B N 1.2109(5) -0.0414(3) -0.0936(2)
C1* C 0.1723(5) -0.1666(3) 0.2620(2)
C2* C 0.3172(5) -0.0395(3) 0.2641(2)
C3B C 1.0992(6) -0.0479(3) 0.0026(3)
H1B H 1.34900 -0.10110 -0.08110
H2B H 1.26270 0.04220 -0.09940
H3B H 1.13770 -0.05610 -0.13460
H4B H 1.22160 -0.03190 0.06350
H5B H 1.05300 -0.13470 0.02010
#END
