
#######################################################################
#
#                 Cambridge Crystallographic Data Centre
#                                CCDC
#
#######################################################################
#
# If this CIF has been generated from an entry in the Cambridge
# Structural Database, then it will include bibliographic, chemical,
# crystal, experimental, refinement or atomic coordinate data resulting
# from the CCDC's data processing and validation procedures.
#
#######################################################################

data_CSD_CIF_ADUVAY
_audit_creation_date 2013-09-17
_audit_creation_method CSD-ConQuest-V1
_database_code_CSD ADUVAY
_database_code_depnum_ccdc_archive 'CCDC 938494'
_chemical_formula_sum 'C15 H24 Cu0.5 Mo4 N3 Na1 O22'
_chemical_formula_moiety
;
(H6 Mo4 Na1 O16 1-)n,0.5n(C10 H16 Cu1 N2 O6 2+),n(C10 H8 N2 O2),n(H2 O1)
;
_journal_coden_Cambridge 644
_journal_volume 68
_journal_year 2013
_journal_page_first 987
_journal_name_full 'Z.Naturforsch.,B:Chem.Sci. '
loop_
_publ_author_name
"Yan Hua Fan"
"Lei Li"
"Shuai Chen"
"Rui Min Zhou"
"Yan Bai"
"Dong Bin Dang"
_chemical_name_systematic
;
catena-(hemikis((\m~2~-4,4'-Bipyridinium-N,N'-diolato)-tetra-aqua-copper) 
(\m~5~-oxo)-bis(\m~3~-oxo)-(\m~2~-aqua)-pentakis(\m~2~-oxo)-diaqua-pentaoxo-te
tra-molybdenum-sodium 4,4'-bipyridinium-N,N'-diolate monohydrate)
;
_cell_volume   1429.369
_exptl_crystal_density_diffrn 2.409
_exptl_crystal_description 'block'
_diffrn_ambient_temperature 296
#These two values have been output from a single CSD field.
_refine_ls_R_factor_gt 0.0324
_refine_ls_wR_factor_gt 0.0324
_symmetry_cell_setting triclinic
_symmetry_space_group_name_H-M 'P -1'
_symmetry_Int_Tables_number 2
loop_
_symmetry_equiv_pos_site_id
_symmetry_equiv_pos_as_xyz
1 x,y,z
2 -x,-y,-z
_cell_length_a 10.586(4)
_cell_length_b 11.535(4)
_cell_length_c 12.447(4)
_cell_angle_alpha 97.410(5)
_cell_angle_beta 94.445(5)
_cell_angle_gamma 107.159(5)
_cell_formula_units_Z 2
loop_
_atom_type_symbol
_atom_type_radius_bond
C 0.68
H 0.23
Cu 1.32
Mo 1.54
N 0.68
Na 1.66
O 0.68
loop_
_atom_site_label
_atom_site_type_symbol
_atom_site_fract_x
_atom_site_fract_y
_atom_site_fract_z
Mo1 Mo 1.00371(4) 0.70012(4) -0.11407(3)
Mo2 Mo 0.75889(4) 0.46399(4) -0.23638(3)
Mo3 Mo 0.92524(4) 0.28421(4) -0.16180(3)
Mo4 Mo 1.16282(4) 0.51933(3) -0.04128(3)
O1 O 1.0820(3) 0.6979(3) -0.2282(3)
O2 O 1.0199(4) 0.8503(3) -0.0730(3)
O3 O 0.8419(4) 0.4728(3) -0.3479(3)
O4 O 0.5976(4) 0.4424(4) -0.2841(3)
O5 O 1.0088(4) 0.3011(3) -0.2735(3)
O6 O 0.8767(4) 0.1316(3) -0.1572(3)
O7 O 1.2353(3) 0.5251(3) -0.1572(3)
O8 O 1.2929(3) 0.5396(3) 0.0615(3)
O9 O 0.8230(3) 0.6354(3) -0.1740(3)
O10 O 0.7604(3) 0.3030(3) -0.2124(3)
O11 O 1.0830(3) 0.3431(3) -0.0490(2)
O12 O 1.1499(3) 0.6851(3) -0.0104(2)
O13 O 0.9619(3) 0.4928(3) -0.1094(2)
Na1 Na 0.9981(2) 0.6319(2) -0.42245(18)
O14 O 0.8549(6) 0.7473(6) -0.3893(5)
H1 H 0.79320 0.74300 -0.34870
H2 H 0.82930 0.76350 -0.45040
O15 O 1.1163(6) 0.7972(5) -0.5077(4)
H3 H 1.19670 0.79750 -0.50760
H4 H 1.07820 0.78220 -0.57290
O16 O 1.1313(4) 0.4949(4) -0.4132(3)
H5 H 1.13360 0.48300 -0.34720
H6 H 1.21100 0.52030 -0.42770
Cu1 Cu 0.50000 1.00000 -0.50000
O17 O 0.3713(8) 0.7919(7) -0.5479(6)
H7 H 0.40060 0.74460 -0.51300
H8 H 0.36800 0.77510 -0.61680
O18 O 0.6331(4) 0.9452(4) -0.4216(4)
H9 H 0.61720 0.88390 -0.38780
H10 H 0.69790 0.94510 -0.45790
O19 O 0.6154(4) 1.0173(4) -0.6136(5)
N1 N 0.5754(5) 1.0164(5) -0.7196(6)
C1 C 0.6470(6) 1.1053(6) -0.7685(8)
H11 H 0.71620 1.16970 -0.72830
C2 C 0.6182(6) 1.1015(6) -0.8779(7)
H12 H 0.66780 1.16410 -0.91190
C3 C 0.5147(6) 1.0043(5) -0.9401(6)
C4 C 0.4428(6) 0.9152(5) -0.8826(7)
H13 H 0.37300 0.84920 -0.91980
C5 C 0.4734(6) 0.9234(6) -0.7732(7)
H14 H 0.42340 0.86450 -0.73590
O20 O 0.5776(5) 0.7528(4) -1.3115(5)
O21 O 0.8265(5) 0.9007(5) -0.5285(6)
N2 N 0.6138(6) 0.7667(5) -1.2036(6)
N3 N 0.7993(6) 0.8671(6) -0.6371(6)
C6 C 0.7558(7) 0.8799(6) -1.0466(7)
H15 H 0.82590 0.94880 -1.01480
C7 C 0.7181(7) 0.8624(5) -1.1552(7)
H16 H 0.76510 0.91760 -1.19720
C8 C 0.5471(6) 0.6842(6) -1.1447(7)
H17 H 0.47560 0.61750 -1.17840
C9 C 0.5850(6) 0.6988(6) -1.0337(7)
H18 H 0.53770 0.64160 -0.99360
C10 C 0.6915(6) 0.7963(5) -0.9808(7)
C11 C 0.7330(6) 0.8160(5) -0.8619(7)
C12 C 0.6653(7) 0.7395(6) -0.7926(7)
H19 H 0.59620 0.66880 -0.82220
C13 C 0.6992(8) 0.7669(7) -0.6829(8)
H20 H 0.65190 0.71510 -0.63850
C14 C 0.8735(7) 0.9393(7) -0.7004(8)
H21 H 0.94680 1.00550 -0.66900
C15 C 0.8410(7) 0.9150(6) -0.8107(8)
H22 H 0.89260 0.96610 -0.85340
O22 O 0.4073(6) 0.5710(7) -1.4584(4)
H23 H 0.47330 0.61910 -1.41510
H24 H 0.40110 0.49640 -1.44610
Mo1A Mo 0.99629(4) 0.29988(4) 0.11407(3)
Mo2A Mo 1.24111(4) 0.53601(4) 0.23638(3)
Mo3A Mo 1.07476(4) 0.71579(4) 0.16180(3)
Mo4A Mo 0.83718(4) 0.48067(3) 0.04128(3)
O8A O 0.7071(3) 0.4604(3) -0.0615(3)
O11A O 0.9170(3) 0.6569(3) 0.0490(2)
O12A O 0.8501(3) 0.3149(3) 0.0104(2)
O13A O 1.0381(3) 0.5072(3) 0.1094(2)
Na1A Na 1.0019(2) 0.3681(2) -0.57755(18)
O16A O 0.8687(4) 0.5051(4) -0.5868(3)
O19A O 0.3846(4) 0.9827(4) -1.3864(5)
N1A N 0.4246(5) 0.9836(5) -1.2804(6)
C1A C 0.3530(6) 0.8947(6) -1.2315(8)
H11A H 0.28380 0.83030 -1.27170
C2A C 0.3818(6) 0.8985(6) -1.1221(7)
H12A H 0.33220 0.83590 -1.08810
C3A C 0.4853(6) 0.9957(5) -1.0599(6)
C4A C 0.5572(6) 1.0848(5) -1.1174(7)
H13A H 0.62700 1.15080 -1.08020
C5A C 0.5266(6) 1.0766(6) -1.2268(7)
H14A H 0.57660 1.13550 -1.26410
O17A O 0.6287(8) 1.2081(7) -0.4521(6)
H7A H 0.59940 1.25540 -0.48700
H8A H 0.63200 1.22490 -0.38320
O18A O 0.3669(4) 1.0548(4) -0.5784(4)
H9A H 0.38280 1.11610 -0.61220
H10A H 0.30210 1.05490 -0.54210
Cu1* Cu 0.50000 1.00000 -1.50000
O19A* O 0.3846(4) 0.9827(4) -0.3864(5)
#END
