
#######################################################################
#
#                 Cambridge Crystallographic Data Centre
#                                CCDC
#
#######################################################################
#
# If this CIF has been generated from an entry in the Cambridge
# Structural Database, then it will include bibliographic, chemical,
# crystal, experimental, refinement or atomic coordinate data resulting
# from the CCDC's data processing and validation procedures.
#
#######################################################################

data_CSD_CIF_ADUWON
_audit_creation_date 2013-09-17
_audit_creation_method CSD-ConQuest-V1
_database_code_CSD ADUWON
_database_code_depnum_ccdc_archive 'CCDC 957606'
_chemical_formula_sum 'C129 H183 N9 Ni3 O60'
_chemical_formula_moiety
;
(C108 H84 Ni3 O42 6-)n,3n(C3 H7 N1 O1),15n(H2 O1),6n(C2 H8 N1 1+)
;
_journal_coden_Cambridge 1220
_journal_volume 19
_journal_year 2013
_journal_page_first 14591
_journal_name_full 'Chem.-Eur.J. '
loop_
_publ_author_name
"Yun Wang"
"Jin Yang"
"Ying-Ying Liu"
"Jian-Fang Ma"
_chemical_name_systematic
;
catena-[hexakis(dimethylammonium) 
bis(\m~6~-3,3',3'',3''',3'''',3'''''-(benzene-1,2,3,4,5,6-hexaylhexakis(methyl
eneoxy))hexabenzoato)-hexa-aqua-tri-nickel(ii) N,N-dimethylformamide solvate 
pentadecahydrate]
;
_chemical_name_common
;
MOF-2
;
_cell_volume  27037.818
_exptl_crystal_colour 'green'
_exptl_crystal_density_diffrn 0.736
_exptl_crystal_description 'block'
_diffrn_ambient_temperature 293
_refine_special_details
;
Disordered cation and solvent molecules were not modelled and the disordered 
density was taken into account using the SQUEEZE/PLATON procedure.
;
#These two values have been output from a single CSD field.
_refine_ls_R_factor_gt 0.099
_refine_ls_wR_factor_gt 0.099
_symmetry_cell_setting cubic
_symmetry_space_group_name_H-M 'I m -3 m'
_symmetry_Int_Tables_number 229
loop_
_symmetry_equiv_pos_site_id
_symmetry_equiv_pos_as_xyz
1 x,y,z
2 -x,-y,z
3 x,-y,-z
4 -x,y,-z
5 z,x,y
6 y,z,x
7 -z,-x,y
8 -y,z,-x
9 z,-x,-y
10 -y,-z,x
11 -z,x,-y
12 y,-z,-x
13 -y,-x,-z
14 y,x,-z
15 y,-x,z
16 -y,x,z
17 -x,-z,-y
18 -z,-y,-x
19 x,z,-y
20 -z,y,x
21 x,-z,y
22 z,y,-x
23 -x,z,y
24 z,-y,x
25 1/2+x,1/2+y,1/2+z
26 1/2-x,1/2-y,1/2+z
27 1/2+x,1/2-y,1/2-z
28 1/2-x,1/2+y,1/2-z
29 1/2+z,1/2+x,1/2+y
30 1/2+y,1/2+z,1/2+x
31 1/2-z,1/2-x,1/2+y
32 1/2-y,1/2+z,1/2-x
33 1/2+z,1/2-x,1/2-y
34 1/2-y,1/2-z,1/2+x
35 1/2-z,1/2+x,1/2-y
36 1/2+y,1/2-z,1/2-x
37 1/2-y,1/2-x,1/2-z
38 1/2+y,1/2+x,1/2-z
39 1/2+y,1/2-x,1/2+z
40 1/2-y,1/2+x,1/2+z
41 1/2-x,1/2-z,1/2-y
42 1/2-z,1/2-y,1/2-x
43 1/2+x,1/2+z,1/2-y
44 1/2-z,1/2+y,1/2+x
45 1/2+x,1/2-z,1/2+y
46 1/2+z,1/2+y,1/2-x
47 1/2-x,1/2+z,1/2+y
48 1/2+z,1/2-y,1/2+x
49 -x,-y,-z
50 x,y,-z
51 -x,y,z
52 x,-y,z
53 -z,-x,-y
54 -y,-z,-x
55 z,x,-y
56 y,-z,x
57 -z,x,y
58 y,z,-x
59 z,-x,y
60 -y,z,x
61 y,x,z
62 -y,-x,z
63 -y,x,-z
64 y,-x,-z
65 x,z,y
66 z,y,x
67 -x,-z,y
68 z,-y,-x
69 -x,z,-y
70 -z,-y,x
71 x,-z,-y
72 -z,y,-x
73 -1/2-x,-1/2-y,-1/2-z
74 -1/2+x,-1/2+y,-1/2-z
75 -1/2-x,-1/2+y,-1/2+z
76 -1/2+x,-1/2-y,-1/2+z
77 -1/2-z,-1/2-x,-1/2-y
78 -1/2-y,-1/2-z,-1/2-x
79 -1/2+z,-1/2+x,-1/2-y
80 -1/2+y,-1/2-z,-1/2+x
81 -1/2-z,-1/2+x,-1/2+y
82 -1/2+y,-1/2+z,-1/2-x
83 -1/2+z,-1/2-x,-1/2+y
84 -1/2-y,-1/2+z,-1/2+x
85 -1/2+y,-1/2+x,-1/2+z
86 -1/2-y,-1/2-x,-1/2+z
87 -1/2-y,-1/2+x,-1/2-z
88 -1/2+y,-1/2-x,-1/2-z
89 -1/2+x,-1/2+z,-1/2+y
90 -1/2+z,-1/2+y,-1/2+x
91 -1/2-x,-1/2-z,-1/2+y
92 -1/2+z,-1/2-y,-1/2-x
93 -1/2-x,-1/2+z,-1/2-y
94 -1/2-z,-1/2-y,-1/2+x
95 -1/2+x,-1/2-z,-1/2-y
96 -1/2-z,-1/2+y,-1/2-x
_cell_length_a 30.0140(4)
_cell_length_b 30.0140(4)
_cell_length_c 30.0140(4)
_cell_angle_alpha 90
_cell_angle_beta 90
_cell_angle_gamma 90
_cell_formula_units_Z 4
loop_
_atom_type_symbol
_atom_type_radius_bond
C 0.68
H 0.23
Ni 1.24
O 0.68
loop_
_atom_site_label
_atom_site_type_symbol
_atom_site_fract_x
_atom_site_fract_y
_atom_site_fract_z
Ni1 Ni 0.00000 0.00000 0.37657(6)
C1 C 0.06793(18) 0.06793(18) 0.3518(3)
C2 C 0.10191(14) 0.10191(14) 0.3686(2)
C3 C 0.1099(2) 0.1099(2) 0.4108(2)
H1 H 0.09380 0.09380 0.43190
C4 C 0.1374(2) 0.1374(2) 0.4242(2)
H2 H 0.14100 0.14100 0.45480
C5 C 0.1641(2) 0.1641(2) 0.3950(2)
H3 H 0.18470 0.18470 0.40550
C6 C 0.15711(14) 0.15711(14) 0.3501(2)
C7 C 0.12524(13) 0.12524(13) 0.3352(2)
H4 H 0.12010 0.12010 0.30510
C8 C 0.21207(13) 0.21207(13) 0.33140(18)
H5 H 0.23530 0.19820 0.34910
C9 C 0.23111(12) 0.23111(12) 0.28973(14)
O1 O 0.06390(12) 0.06390(12) 0.31089(18)
O2 O 0.04748(11) 0.04748(11) 0.38002(17)
O3 O 0.17918(9) 0.17918(9) 0.31775(12)
O4 O 0.00000 0.00000 0.3079(3)
O5 O 0.00000 0.00000 0.4450(2)
C1NA C 0.43207(18) 0.14820(18) 0.43207(30)
C2NA C 0.39809(14) 0.13140(14) 0.39809(20)
C3NA C 0.3901(2) 0.0892(2) 0.3901(2)
H1NA H 0.40620 0.06810 0.40620
C4NA C 0.3626(2) 0.0758(2) 0.3626(2)
H2NA H 0.35900 0.04520 0.35900
C5NA C 0.3359(2) 0.1050(2) 0.3359(2)
H3NA H 0.31530 0.09450 0.31530
C6NA C 0.34289(14) 0.14990(14) 0.34289(20)
C7NA C 0.37476(13) 0.16480(13) 0.37476(20)
H4NA H 0.37990 0.19490 0.37990
C8NA C 0.28793(13) 0.16860(13) 0.28793(18)
H5NA H 0.26470 0.15090 0.30180
C9NA C 0.26889(12) 0.21027(12) 0.26889(14)
O1NA O 0.43610(12) 0.18911(12) 0.43610(18)
O2NA O 0.45252(11) 0.11998(11) 0.45252(17)
O3NA O 0.32082(9) 0.18225(9) 0.32082(12)
C1OA C 0.14820(18) 0.43207(18) 0.43207(30)
C2OA C 0.13140(14) 0.39809(14) 0.39809(20)
C3OA C 0.0892(2) 0.3901(2) 0.3901(2)
H1OA H 0.06810 0.40620 0.40620
C4OA C 0.0758(2) 0.3626(2) 0.3626(2)
H2OA H 0.04520 0.35900 0.35900
C5OA C 0.1050(2) 0.3359(2) 0.3359(2)
H3OA H 0.09450 0.31530 0.31530
C6OA C 0.14990(14) 0.34289(14) 0.34289(20)
C7OA C 0.16480(13) 0.37476(13) 0.37476(20)
H4OA H 0.19490 0.37990 0.37990
C8OA C 0.16860(13) 0.28793(13) 0.28793(18)
H5OA H 0.15090 0.30180 0.26470
C9OA C 0.21027(12) 0.26889(12) 0.26889(14)
O1OA O 0.18911(12) 0.43610(12) 0.43610(18)
O2OA O 0.11998(11) 0.45252(11) 0.45252(17)
O3OA O 0.18225(9) 0.32082(9) 0.32082(12)
H5HB H 0.19820 0.23530 0.34910
C1E C 0.06793(18) 0.35180(18) 0.06793(30)
C2E C 0.10191(14) 0.36860(14) 0.10191(20)
C3E C 0.1099(2) 0.4108(2) 0.1099(2)
H1E H 0.09380 0.43190 0.09380
C4E C 0.1374(2) 0.4242(2) 0.1374(2)
H2E H 0.14100 0.45480 0.14100
C5E C 0.1641(2) 0.3950(2) 0.1641(2)
H3E H 0.18470 0.40550 0.18470
C6E C 0.15711(14) 0.35010(14) 0.15711(20)
C7E C 0.12524(13) 0.33520(13) 0.12524(20)
H4E H 0.12010 0.30510 0.12010
C8E C 0.21207(13) 0.33140(13) 0.21207(18)
H5LB H 0.23530 0.34910 0.19820
C9E C 0.23111(12) 0.28973(12) 0.23111(14)
O1E O 0.06390(12) 0.31089(12) 0.06390(18)
O2E O 0.04748(11) 0.38002(11) 0.04748(17)
O3E O 0.17918(9) 0.31775(9) 0.17918(12)
C1D C 0.35180(18) 0.06793(18) 0.06793(30)
C2D C 0.36860(14) 0.10191(14) 0.10191(20)
C3D C 0.4108(2) 0.1099(2) 0.1099(2)
H1D H 0.43190 0.09380 0.09380
C4D C 0.4242(2) 0.1374(2) 0.1374(2)
H2D H 0.45480 0.14100 0.14100
C5D C 0.3950(2) 0.1641(2) 0.1641(2)
H3D H 0.40550 0.18470 0.18470
C6D C 0.35010(14) 0.15711(14) 0.15711(20)
C7D C 0.33520(13) 0.12524(13) 0.12524(20)
H4D H 0.30510 0.12010 0.12010
C8D C 0.33140(13) 0.21207(13) 0.21207(18)
H5MB H 0.34910 0.19820 0.23530
C9D C 0.28973(12) 0.23111(12) 0.23111(14)
O1D O 0.31089(12) 0.06390(12) 0.06390(18)
O2D O 0.38002(11) 0.04748(11) 0.04748(17)
O3D O 0.31775(9) 0.17918(9) 0.17918(12)
H5XB H 0.15090 0.26470 0.30180
H5YB H 0.30180 0.15090 0.26470
H5D H 0.34910 0.23530 0.19820
H5E H 0.19820 0.34910 0.23530
C1JA C 0.43207(18) 0.43207(18) 0.1482(3)
C2JA C 0.39809(14) 0.39809(14) 0.1314(2)
C3JA C 0.3901(2) 0.3901(2) 0.0892(2)
H1JA H 0.40620 0.40620 0.06810
C4JA C 0.3626(2) 0.3626(2) 0.0758(2)
H2JA H 0.35900 0.35900 0.04520
C5JA C 0.3359(2) 0.3359(2) 0.1050(2)
H3JA H 0.31530 0.31530 0.09450
C6JA C 0.34289(14) 0.34289(14) 0.1499(2)
C7JA C 0.37476(13) 0.37476(13) 0.1648(2)
H4JA H 0.37990 0.37990 0.19490
C8JA C 0.28793(13) 0.28793(13) 0.16860(18)
H5JA H 0.30180 0.26470 0.15090
C9JA C 0.26889(12) 0.26889(12) 0.21027(14)
O1JA O 0.43610(12) 0.43610(12) 0.18911(18)
O2JA O 0.45252(11) 0.45252(11) 0.11998(17)
O3JA O 0.32082(9) 0.32082(9) 0.18225(12)
H5TB H 0.26470 0.30180 0.15090
C1A C -0.06793(18) -0.06793(18) 0.3518(3)
C2A C -0.10191(14) -0.10191(14) 0.3686(2)
C3A C -0.1099(2) -0.1099(2) 0.4108(2)
H1A H -0.09380 -0.09380 0.43190
C4A C -0.1374(2) -0.1374(2) 0.4242(2)
H2A H -0.14100 -0.14100 0.45480
C5A C -0.1641(2) -0.1641(2) 0.3950(2)
H3A H -0.18470 -0.18470 0.40550
C6A C -0.15711(14) -0.15711(14) 0.3501(2)
C7A C -0.12524(13) -0.12524(13) 0.3352(2)
H4A H -0.12010 -0.12010 0.30510
C8A C -0.21207(13) -0.21207(13) 0.33140(18)
H5A H -0.23530 -0.19820 0.34910
C9A C -0.23111(12) -0.23111(12) 0.28973(14)
O1A O -0.06390(12) -0.06390(12) 0.31089(18)
O2A O -0.04748(11) -0.04748(11) 0.38002(17)
O3A O -0.17918(9) -0.17918(9) 0.31775(12)
C1PA C -0.43207(18) -0.14820(18) 0.43207(30)
C2PA C -0.39809(14) -0.13140(14) 0.39809(20)
C3PA C -0.3901(2) -0.0892(2) 0.3901(2)
H1PA H -0.40620 -0.06810 0.40620
C4PA C -0.3626(2) -0.0758(2) 0.3626(2)
H2PA H -0.35900 -0.04520 0.35900
C5PA C -0.3359(2) -0.1050(2) 0.3359(2)
H3PA H -0.31530 -0.09450 0.31530
C6PA C -0.34289(14) -0.14990(14) 0.34289(20)
C7PA C -0.37476(13) -0.16480(13) 0.37476(20)
H4PA H -0.37990 -0.19490 0.37990
C8PA C -0.28793(13) -0.16860(13) 0.28793(18)
H5PA H -0.26470 -0.15090 0.30180
C9PA C -0.26889(12) -0.21027(12) 0.26889(14)
O1PA O -0.43610(12) -0.18911(12) 0.43610(18)
O2PA O -0.45252(11) -0.11998(11) 0.45252(17)
O3PA O -0.32082(9) -0.18225(9) 0.32082(12)
C1SA C -0.14820(18) -0.43207(18) 0.43207(30)
C2SA C -0.13140(14) -0.39809(14) 0.39809(20)
C3SA C -0.0892(2) -0.3901(2) 0.3901(2)
H1SA H -0.06810 -0.40620 0.40620
C4SA C -0.0758(2) -0.3626(2) 0.3626(2)
H2SA H -0.04520 -0.35900 0.35900
C5SA C -0.1050(2) -0.3359(2) 0.3359(2)
H3SA H -0.09450 -0.31530 0.31530
C6SA C -0.14990(14) -0.34289(14) 0.34289(20)
C7SA C -0.16480(13) -0.37476(13) 0.37476(20)
H4SA H -0.19490 -0.37990 0.37990
C8SA C -0.16860(13) -0.28793(13) 0.28793(18)
H5SA H -0.15090 -0.30180 0.26470
C9SA C -0.21027(12) -0.26889(12) 0.26889(14)
O1SA O -0.18911(12) -0.43610(12) 0.43610(18)
O2SA O -0.11998(11) -0.45252(11) 0.45252(17)
O3SA O -0.18225(9) -0.32082(9) 0.32082(12)
H5IB H -0.19820 -0.23530 0.34910
C1I C -0.06793(18) -0.35180(18) 0.06793(30)
C2I C -0.10191(14) -0.36860(14) 0.10191(20)
C3I C -0.1099(2) -0.4108(2) 0.1099(2)
H1I H -0.09380 -0.43190 0.09380
C4I C -0.1374(2) -0.4242(2) 0.1374(2)
H2I H -0.14100 -0.45480 0.14100
C5I C -0.1641(2) -0.3950(2) 0.1641(2)
H3I H -0.18470 -0.40550 0.18470
C6I C -0.15711(14) -0.35010(14) 0.15711(20)
C7I C -0.12524(13) -0.33520(13) 0.12524(20)
H4I H -0.12010 -0.30510 0.12010
C8I C -0.21207(13) -0.33140(13) 0.21207(18)
H5NB H -0.23530 -0.34910 0.19820
C9I C -0.23111(12) -0.28973(12) 0.23111(14)
O1I O -0.06390(12) -0.31089(12) 0.06390(18)
O2I O -0.04748(11) -0.38002(11) 0.04748(17)
O3I O -0.17918(9) -0.31775(9) 0.17918(12)
C1F C -0.35180(18) -0.06793(18) 0.06793(30)
C2F C -0.36860(14) -0.10191(14) 0.10191(20)
C3F C -0.4108(2) -0.1099(2) 0.1099(2)
H1F H -0.43190 -0.09380 0.09380
C4F C -0.4242(2) -0.1374(2) 0.1374(2)
H2F H -0.45480 -0.14100 0.14100
C5F C -0.3950(2) -0.1641(2) 0.1641(2)
H3F H -0.40550 -0.18470 0.18470
C6F C -0.35010(14) -0.15711(14) 0.15711(20)
C7F C -0.33520(13) -0.12524(13) 0.12524(20)
H4F H -0.30510 -0.12010 0.12010
C8F C -0.33140(13) -0.21207(13) 0.21207(18)
H5QB H -0.34910 -0.19820 0.23530
C9F C -0.28973(12) -0.23111(12) 0.23111(14)
O1F O -0.31089(12) -0.06390(12) 0.06390(18)
O2F O -0.38002(11) -0.04748(11) 0.04748(17)
O3F O -0.31775(9) -0.17918(9) 0.17918(12)
H5ZB H -0.15090 -0.26470 0.30180
H5CC H -0.30180 -0.15090 0.26470
H5F H -0.34910 -0.23530 0.19820
H5I H -0.19820 -0.34910 0.23530
C1KA C -0.43207(18) -0.43207(18) 0.1482(3)
C2KA C -0.39809(14) -0.39809(14) 0.1314(2)
C3KA C -0.3901(2) -0.3901(2) 0.0892(2)
H1KA H -0.40620 -0.40620 0.06810
C4KA C -0.3626(2) -0.3626(2) 0.0758(2)
H2KA H -0.35900 -0.35900 0.04520
C5KA C -0.3359(2) -0.3359(2) 0.1050(2)
H3KA H -0.31530 -0.31530 0.09450
C6KA C -0.34289(14) -0.34289(14) 0.1499(2)
C7KA C -0.37476(13) -0.37476(13) 0.1648(2)
H4KA H -0.37990 -0.37990 0.19490
C8KA C -0.28793(13) -0.28793(13) 0.16860(18)
H5KA H -0.30180 -0.26470 0.15090
C9KA C -0.26889(12) -0.26889(12) 0.21027(14)
O1KA O -0.43610(12) -0.43610(12) 0.18911(18)
O2KA O -0.45252(11) -0.45252(11) 0.11998(17)
O3KA O -0.32082(9) -0.32082(9) 0.18225(12)
H5UB H -0.26470 -0.30180 0.15090
Ni1D Ni 0.37657 0.00000 0.00000(6)
O4D O 0.30790 0.00000 0.0000(3)
O5D O 0.44500 0.00000 0.0000(2)
Ni1E Ni 0.00000 0.37657 0.00000(6)
O4E O 0.00000 0.30790 0.0000(3)
O5E O 0.00000 0.44500 0.0000(2)
Ni1F Ni -0.37657 0.00000 0.00000(6)
Ni1I Ni 0.00000 -0.37657 0.00000(6)
Ni1Z Ni -0.50000 -0.50000 0.12343(6)
Ni1Z* Ni 0.50000 0.50000 0.12343(6)
Ni1BA Ni -0.12343 -0.50000 0.50000(6)
Ni1CA Ni -0.50000 -0.12343 0.50000(6)
Ni1DA Ni 0.12343 0.50000 0.50000(6)
Ni1GA Ni 0.50000 0.12343 0.50000(6)
O2G O -0.04748(11) 0.38002(11) -0.04748(17)
O2H O 0.38002(11) -0.04748(11) -0.04748(17)
O2N O 0.04748(11) -0.04748(11) 0.38002(17)
O2O O -0.04748(11) 0.04748(11) 0.38002(17)
O2R O 0.04748(11) 0.38002(11) -0.04748(17)
O2U O 0.38002(11) 0.04748(11) -0.04748(17)
O2V O -0.04748(11) 0.38002(11) 0.04748(17)
O2W O 0.38002(11) -0.04748(11) 0.04748(17)
#END
