
#######################################################################
#
#                 Cambridge Crystallographic Data Centre
#                                CCDC
#
#######################################################################
#
# If this CIF has been generated from an entry in the Cambridge
# Structural Database, then it will include bibliographic, chemical,
# crystal, experimental, refinement or atomic coordinate data resulting
# from the CCDC's data processing and validation procedures.
#
#######################################################################

data_CSD_CIF_AFEHUQ
_audit_creation_date 2013-09-17
_audit_creation_method CSD-ConQuest-V1
_database_code_CSD AFEHUQ
_database_code_depnum_ccdc_archive 'CCDC 961542'
_chemical_formula_sum 'C36 H36 Cu2 N8 O8'
_chemical_formula_moiety
;
(C32 H20 Cu2 N6 O8 2-)n,2n(C2 H8 N1 1+)
;
_journal_coeditor_code "TK5232"
_journal_coden_Cambridge 1370
_journal_volume 69
_journal_year 2013
_journal_page_first m400
_journal_name_full 'Acta Crystallogr.,Sect.E:Struct.Rep.Online '
loop_
_publ_author_name
"L.Na"
_chemical_name_systematic
;
catena-[bis(dimethylammonium) 
bis(\m~2~-benzene-1,2-dicarboxylato)-bis[\m~2~-3-(pyridin-4-yl)-1H-pyrazol-1-i
do]-di-copper(ii)]]
;
_cell_volume    920.656
_exptl_crystal_colour 'blue'
_exptl_crystal_density_diffrn 1.507
_exptl_crystal_description 'block'
_diffrn_ambient_temperature 293
_refine_special_details
;
Disordered dimethyl ammonium cations are not modelled and the disordered 
density was taken into account using the SQUEEZE/PLATON procedure.
;
#These two values have been output from a single CSD field.
_refine_ls_R_factor_gt 0.0458
_refine_ls_wR_factor_gt 0.0458
_symmetry_cell_setting triclinic
_symmetry_space_group_name_H-M 'P -1'
_symmetry_Int_Tables_number 2
loop_
_symmetry_equiv_pos_site_id
_symmetry_equiv_pos_as_xyz
1 x,y,z
2 -x,-y,-z
_cell_length_a 8.0978(16)
_cell_length_b 9.7244(19)
_cell_length_c 11.694(2)
_cell_angle_alpha 89.26(3)
_cell_angle_beta 89.12(3)
_cell_angle_gamma 89.64(3)
_cell_formula_units_Z 1
loop_
_atom_type_symbol
_atom_type_radius_bond
C 0.68
H 0.23
Cu 1.32
N 0.68
O 0.68
loop_
_atom_site_label
_atom_site_type_symbol
_atom_site_fract_x
_atom_site_fract_y
_atom_site_fract_z
Cu1 Cu 1.00000 0.50000 0.50000
Cu2 Cu 1.00000 0.50000 0.00000
O1 O 0.9981(3) 0.6272(3) 0.3683(2)
O2 O 0.8655(4) 0.7485(3) 0.4981(3)
O3 O 0.8239(3) 0.5948(3) 0.1664(2)
O4 O 1.0087(3) 0.6914(3) 0.0509(2)
N1 N 0.1845(4) 0.4575(3) 0.1055(3)
N2 N 0.7841(4) 0.4230(3) 0.4546(3)
N3 N 0.7012(4) 0.4575(3) 0.3568(3)
C1 C 0.9180(5) 0.7341(4) 0.3997(3)
C2 C 0.8933(5) 0.8487(4) 0.3141(3)
C3 C 0.8962(5) 0.8307(4) 0.1954(3)
C4 C 0.9107(5) 0.6958(4) 0.1364(3)
C5 C 0.8805(5) 0.9467(4) 0.1244(4)
H1 H 0.88420 0.93620 0.04550
C6 C 0.8600(6) 1.0754(5) 0.1688(4)
H2 H 0.84880 1.15110 0.12000
C7 C 0.8559(7) 1.0929(5) 0.2847(4)
H3 H 0.84240 1.18030 0.31500
C8 C 0.8719(6) 0.9800(5) 0.3561(4)
H4 H 0.86830 0.99240 0.43490
C9 C 0.6856(5) 0.3392(4) 0.5137(3)
H5 H 0.71160 0.29920 0.58390
C10 C 0.5388(5) 0.3190(4) 0.4571(3)
H6 H 0.45020 0.26490 0.48120
C11 C 0.5517(5) 0.3955(4) 0.3579(3)
C12 C 0.4293(4) 0.4167(4) 0.2673(3)
C13 C 0.2849(5) 0.3433(5) 0.2711(4)
H7 H 0.26660 0.27810 0.32870
C14 C 0.1682(5) 0.3670(5) 0.1896(4)
H8 H 0.07150 0.31600 0.19390
C15 C 0.3227(6) 0.5277(6) 0.1017(4)
H9 H 0.33670 0.59350 0.04400
C16 C 0.4478(6) 0.5087(5) 0.1790(4)
H10 H 0.54500 0.55870 0.17100
N1A N 0.8155(4) 0.5425(3) -0.1055(3)
N2A N 0.2159(4) 0.5770(3) -0.4546(3)
N3A N 0.2988(4) 0.5425(3) -0.3568(3)
C9A C 0.3144(5) 0.6608(4) -0.5137(3)
H5A H 0.28840 0.70080 -0.58390
C10A C 0.4612(5) 0.6810(4) -0.4571(3)
H6A H 0.54980 0.73510 -0.48120
C11A C 0.4483(5) 0.6045(4) -0.3579(3)
C12A C 0.5707(4) 0.5833(4) -0.2673(3)
C13A C 0.7151(5) 0.6567(5) -0.2711(4)
H7A H 0.73340 0.72190 -0.32870
C14A C 0.8318(5) 0.6330(5) -0.1896(4)
H8A H 0.92850 0.68400 -0.19390
C15A C 0.6773(6) 0.4723(6) -0.1017(4)
H9A H 0.66330 0.40650 -0.04400
C16A C 0.5522(6) 0.4913(5) -0.1790(4)
H10A H 0.45500 0.44130 -0.17100
O1A O 1.0019(3) 0.3728(3) 0.6317(2)
O2A O 1.1345(4) 0.2515(3) 0.5019(3)
O3A O 1.1761(3) 0.4052(3) 0.8336(2)
O4A O 0.9913(3) 0.3086(3) 0.9491(2)
C1A C 1.0820(5) 0.2659(4) 0.6003(3)
C2A C 1.1067(5) 0.1513(4) 0.6859(3)
C3A C 1.1038(5) 0.1693(4) 0.8046(3)
C4A C 1.0893(5) 0.3042(4) 0.8636(3)
C5A C 1.1195(5) 0.0533(4) 0.8756(4)
H1A H 1.11580 0.06380 0.95450
C6A C 1.1400(6) -0.0754(5) 0.8312(4)
H2A H 1.15120 -0.15110 0.88000
C7A C 1.1441(7) -0.0929(5) 0.7153(4)
H3A H 1.15760 -0.18030 0.68500
C8A C 1.1281(6) 0.0200(5) 0.6439(4)
H4A H 1.13170 0.00760 0.56510
Cu1* Cu 0.00000 0.50000 -0.50000
Cu2* Cu 0.00000 0.50000 0.00000
Cu2** Cu 1.00000 0.50000 1.00000
O3A* O 1.1761(3) 0.4052(3) -0.1664(2)
O4A* O 0.9913(3) 0.3086(3) -0.0509(2)
N1* N 1.1845(4) 0.4575(3) 0.1055(3)
N2A* N 1.2159(4) 0.5770(3) 0.5454(3)
#END
