
#######################################################################
#
#                 Cambridge Crystallographic Data Centre
#                                CCDC
#
#######################################################################
#
# If this CIF has been generated from an entry in the Cambridge
# Structural Database, then it will include bibliographic, chemical,
# crystal, experimental, refinement or atomic coordinate data resulting
# from the CCDC's data processing and validation procedures.
#
#######################################################################

data_CSD_CIF_AFOXAX
_audit_creation_date 2018-10-04
_audit_creation_method CSD-ConQuest-V1
_database_code_CSD AFOXAX
_database_code_depnum_ccdc_archive 'CCDC 1509483'
_chemical_formula_sum 'C72 H42 K8 O31'
_chemical_formula_moiety
;
(C72 H24 K8 O24 4-)n,3(H2 O1),4(H3 O1 1+)
;
_journal_coden_Cambridge 1540
_journal_volume 8
_journal_year 2018
_journal_page_first 14414
_journal_name_full 'Scientific Reports '
loop_
_publ_author_name
"J.M.Seco"
"E.S.Sebastian"
"J.Cepeda"
"B.Biel"
"A.Salinas-Castillo"
"B.Fernandez"
"D.P.Morales"
"M.Bobinger"
"S.Gomez-Ruiz"
"F.C.Loghin"
"A.Rivadeneyra"
"A.Rodriguez-Dieguez"
_chemical_name_systematic
;
catena-[tetrakis(oxonium) 
tris(\m-perylene-3,4,9,10-tetracarboxylato)-octa-potassium trihydrate]
;
_cell_volume   1799.888
_exptl_crystal_colour 'colorless'
_exptl_crystal_density_diffrn 1.583
_exptl_crystal_description 'square plate'
_diffrn_ambient_temperature 100
_diffrn_special_details
;
twin

;
#These two values have been output from a single CSD field.
_refine_ls_R_factor_gt 0.0765
_refine_ls_wR_factor_gt 0.0765
_symmetry_cell_setting hexagonal
_symmetry_space_group_name_H-M 'P -3'
_symmetry_Int_Tables_number 147
loop_
_symmetry_equiv_pos_site_id
_symmetry_equiv_pos_as_xyz
1 x,y,z
2 -y,x-y,z
3 -x+y,-x,z
4 -x,-y,-z
5 y,-x+y,-z
6 x-y,x,-z
_cell_length_a 12.1841(6)
_cell_length_b 12.1841(6)
_cell_length_c 14.0000(7)
_cell_angle_alpha 90
_cell_angle_beta 90
_cell_angle_gamma 120
_cell_formula_units_Z 1
loop_
_atom_type_symbol
_atom_type_radius_bond
C 0.68
H 0.23
K 2.03
O 0.68
loop_
_atom_site_label
_atom_site_type_symbol
_atom_site_fract_x
_atom_site_fract_y
_atom_site_fract_z
K1 K 0.33330 0.66670 0.45925(7)
C1 C 0.4374(4) 0.3388(4) 0.3537(2)
C2 C 0.2250(3) 0.3816(3) 0.3138(2)
C3 C 0.4836(3) 0.4136(3) 0.26158(19)
C4 C 0.4031(3) 0.4241(3) 0.19206(18)
C5 C 0.2796(3) 0.4017(3) 0.21365(19)
C6 C 0.2067(3) 0.4104(3) 0.1420(2)
H1 H 0.12550 0.39450 0.15630
C7 C 0.2519(3) 0.4425(3) 0.0482(2)
H2 H 0.20000 0.44710 0.00160
C8 C 0.3722(3) 0.4674(3) 0.02374(19)
C9 C 0.4510(3) 0.4619(2) 0.09671(18)
C10 C 0.4201(3) 0.5021(3) -0.07487(18)
C11 C 0.3422(3) 0.4977(3) -0.1482(2)
H3 H 0.25620 0.46520 -0.13680
C12 C 0.3915(3) 0.5417(3) -0.2398(2)
H4 H 0.33750 0.54040 -0.28740
O1 O 0.3359(3) 0.2351(2) 0.34996(17)
O2 O 0.5086(3) 0.3799(3) 0.42542(16)
O3 O 0.1105(3) 0.2965(3) 0.32330(19)
O4 O 0.2947(3) 0.4529(2) 0.37793(15)
K2 K 0.32459(14) 0.36729(11) 0.55137(6)
O5 O 0.132(18) 0.11(3) 0.442(10)
O6 O -0.066(6) 0.113(6) 0.223(4)
O7 O -0.151(6) -0.075(8) -0.050(4)
C1C C 0.5626(4) 0.6612(4) -0.3537(2)
C2C C 0.7750(3) 0.6184(3) -0.3138(2)
C3C C 0.5164(3) 0.5864(3) -0.26158(19)
C4C C 0.5969(3) 0.5759(3) -0.19206(18)
C5C C 0.7204(3) 0.5983(3) -0.21365(19)
C6C C 0.7933(3) 0.5896(3) -0.1420(2)
H1C H 0.87450 0.60550 -0.15630
C7C C 0.7481(3) 0.5575(3) -0.0482(2)
H2C H 0.80000 0.55290 -0.00160
C8C C 0.6278(3) 0.5326(3) -0.02374(19)
C9C C 0.5490(3) 0.5381(2) -0.09671(18)
C10C C 0.5799(3) 0.4979(3) 0.07487(18)
C11C C 0.6578(3) 0.5023(3) 0.1482(2)
H3C H 0.74380 0.53480 0.13680
C12C C 0.6085(3) 0.4583(3) 0.2398(2)
H4C H 0.66250 0.45960 0.28740
O1C O 0.6641(3) 0.7649(2) -0.34996(17)
O2C O 0.4914(3) 0.6201(3) -0.42542(16)
O3C O 0.8895(3) 0.7035(3) -0.32330(19)
O4C O 0.7053(3) 0.5471(2) -0.37793(15)
C1A C 0.6612(4) 1.0986(4) 0.3537(2)
C2A C 0.6184(3) 0.8434(3) 0.3138(2)
C3A C 0.5864(3) 1.0700(3) 0.26158(19)
C4A C 0.5759(3) 0.9790(3) 0.19206(18)
C5A C 0.5983(3) 0.8779(3) 0.21365(19)
C6A C 0.5896(3) 0.7963(3) 0.1420(2)
H1A H 0.60550 0.73100 0.15630
C7A C 0.5575(3) 0.8094(3) 0.0482(2)
H2A H 0.55290 0.75290 0.00160
C8A C 0.5326(3) 0.9048(3) 0.02374(19)
C9A C 0.5381(3) 0.9891(2) 0.09671(18)
C10A C 0.4979(3) 0.9180(3) -0.07487(18)
C11A C 0.5023(3) 0.8445(3) -0.1482(2)
H3A H 0.53480 0.79100 -0.13680
C12A C 0.4583(3) 0.8498(3) -0.2398(2)
H4A H 0.45960 0.79710 -0.28740
O1A O 0.7649(3) 1.1008(2) 0.34996(17)
O2A O 0.6201(3) 1.1287(3) 0.42542(16)
O3A O 0.7035(3) 0.8140(3) 0.32330(19)
O4A O 0.5471(3) 0.8418(2) 0.37793(15)
K2A K 0.63271(14) 0.95730(11) 0.55137(6)
C1D C 0.3388(4) 0.9014(4) -0.3537(2)
C2D C 0.3816(3) 1.1566(3) -0.3138(2)
C3D C 0.4136(3) 0.9300(3) -0.26158(19)
C4D C 0.4241(3) 1.0210(3) -0.19206(18)
C5D C 0.4017(3) 1.1221(3) -0.21365(19)
C6D C 0.4104(3) 1.2037(3) -0.1420(2)
H1D H 0.39450 1.26900 -0.15630
C7D C 0.4425(3) 1.1906(3) -0.0482(2)
H2D H 0.44710 1.24710 -0.00160
C8D C 0.4674(3) 1.0952(3) -0.02374(19)
C9D C 0.4619(3) 1.0109(2) -0.09671(18)
C10D C 0.5021(3) 1.0820(3) 0.07487(18)
C11D C 0.4977(3) 1.1555(3) 0.1482(2)
H3D H 0.46520 1.20900 0.13680
C12D C 0.5417(3) 1.1502(3) 0.2398(2)
H4D H 0.54040 1.20290 0.28740
O1D O 0.2351(3) 0.8992(2) -0.34996(17)
O2D O 0.3799(3) 0.8713(3) -0.42542(16)
O3D O 0.2965(3) 1.1860(3) -0.32330(19)
O4D O 0.4529(3) 1.1582(2) -0.37793(15)
C1B C -0.0986(4) 0.5626(4) 0.3537(2)
C2B C 0.1566(3) 0.7750(3) 0.3138(2)
C3B C -0.0700(3) 0.5164(3) 0.26158(19)
C4B C 0.0210(3) 0.5969(3) 0.19206(18)
C5B C 0.1221(3) 0.7204(3) 0.21365(19)
C6B C 0.2037(3) 0.7933(3) 0.1420(2)
H1B H 0.26900 0.87450 0.15630
C7B C 0.1906(3) 0.7481(3) 0.0482(2)
H2B H 0.24710 0.80000 0.00160
C8B C 0.0952(3) 0.6278(3) 0.02374(19)
C9B C 0.0109(3) 0.5490(2) 0.09671(18)
C10B C 0.0820(3) 0.5799(3) -0.07487(18)
C11B C 0.1555(3) 0.6578(3) -0.1482(2)
H3B H 0.20900 0.74380 -0.13680
C12B C 0.1502(3) 0.6085(3) -0.2398(2)
H4B H 0.20290 0.66250 -0.28740
O1B O -0.1008(3) 0.6641(2) 0.34996(17)
O2B O -0.1287(3) 0.4914(3) 0.42542(16)
O3B O 0.1860(3) 0.8895(3) 0.32330(19)
O4B O 0.1582(3) 0.7053(2) 0.37793(15)
K2B K 0.04270(14) 0.67541(11) 0.55137(6)
C1E C 0.0986(4) 0.4374(4) -0.3537(2)
C2E C -0.1566(3) 0.2250(3) -0.3138(2)
C3E C 0.0700(3) 0.4836(3) -0.26158(19)
C4E C -0.0210(3) 0.4031(3) -0.19206(18)
C5E C -0.1221(3) 0.2796(3) -0.21365(19)
C6E C -0.2037(3) 0.2067(3) -0.1420(2)
H1E H -0.26900 0.12550 -0.15630
C7E C -0.1906(3) 0.2519(3) -0.0482(2)
H2E H -0.24710 0.20000 -0.00160
C8E C -0.0952(3) 0.3722(3) -0.02374(19)
C9E C -0.0109(3) 0.4510(2) -0.09671(18)
C10E C -0.0820(3) 0.4201(3) 0.07487(18)
C11E C -0.1555(3) 0.3422(3) 0.1482(2)
H3E H -0.20900 0.25620 0.13680
C12E C -0.1502(3) 0.3915(3) 0.2398(2)
H4E H -0.20290 0.33750 0.28740
O1E O 0.1008(3) 0.3359(2) -0.34996(17)
O2E O 0.1287(3) 0.5086(3) -0.42542(16)
O3E O -0.1860(3) 0.1105(3) -0.32330(19)
O4E O -0.1582(3) 0.2947(2) -0.37793(15)
K1C K -0.33330 0.33330 -0.45925(7)
K2E K -0.04270(14) 0.32459(11) -0.55137(6)
K2* K 0.32459(14) 0.36729(11) -0.44863(6)
K2C K 0.67541(14) 0.63271(11) 0.44863(6)
K1* K 0.33330 0.66670 -0.54075(7)
K1C* K -0.33330 0.33330 0.54075(7)
K1C** K 0.66670 0.33330 -0.45925(7)
K1C*** K 0.66670 0.33330 0.54075(7)
K1C**** K 0.66670 1.33330 -0.45925(7)
K1C***** K 0.66670 1.33330 0.54075(7)
O2* O -0.4914(3) 0.3799(3) -0.57458(16)
O2** O 0.5086(3) 0.3799(3) -0.57458(16)
O2A* O -0.3799(3) 0.1287(3) -0.57458(16)
O2B* O -0.1287(3) 0.4914(3) -0.57458(16)
O2C* O 0.4914(3) 0.6201(3) 0.57458(16)
O2D* O 0.3799(3) 0.8713(3) 0.57458(16)
O2E* O 0.1287(3) 0.5086(3) 0.57458(16)
O3* O 0.1105(3) 0.2965(3) -0.67670(19)
O3C* O -0.1105(3) 0.7035(3) 0.67670(19)
O3D* O 0.2965(3) 0.1860(3) -0.32330(19)
O3D** O 0.2965(3) 0.1860(3) 0.67670(19)
O3E* O 0.8140(3) 1.1105(3) 0.67670(19)
O4* O 0.2947(3) 0.4529(2) -0.62207(15)
O4C* O -0.2947(3) 0.5471(2) -0.37793(15)
O4C** O 0.7053(3) 0.5471(2) 0.62207(15)
O4D* O -0.5471(3) 0.1582(2) -0.37793(15)
K2** K 0.32459(14) 1.36729(11) -0.44863(6)
K2A* K -0.36729(14) -0.04270(11) -0.44863(6)
K2A** K 0.63271(14) 0.95730(11) -0.44863(6)
K2B* K 0.04270(14) 0.67541(11) -0.44863(6)
K2B** K 1.04270(14) 0.67541(11) -0.44863(6)
K2C* K 0.67541(14) 0.63271(11) -0.55137(6)
K2D K 0.36729(14) 1.04270(11) -0.55137(6)
K2D* K 0.36729(14) 1.04270(11) 0.44863(6)
K2E* K -0.04270(14) 0.32459(11) 0.44863(6)
#END
