
#######################################################################
#
#                 Cambridge Crystallographic Data Centre
#                                CCDC
#
#######################################################################
#
# If this CIF has been generated from an entry in the Cambridge
# Structural Database, then it will include bibliographic, chemical,
# crystal, experimental, refinement or atomic coordinate data resulting
# from the CCDC's data processing and validation procedures.
#
#######################################################################

data_CSD_CIF_AFUWEG
_audit_creation_date 2018-10-05
_audit_creation_method CSD-ConQuest-V1
_database_code_CSD AFUWEG
_database_code_depnum_ccdc_archive 'CCDC 1575781'
_chemical_formula_sum 'C39 H43 N9 O19 Zn2'
_chemical_formula_moiety
;
(C25 H15 N3 O13 Zn2 2-)n,2(C7 H8 N3 1+),6(H2 O1)
;
_journal_coden_Cambridge 1350
_journal_volume 20
_journal_year 2018
_journal_page_first 6602
_journal_name_full 'CrystEngComm '
loop_
_publ_author_name
"R.K.Tiwari"
"J.N.Behera"
_chemical_name_systematic
;
catena-[bis(1,3-dihydro-2H-benzimidazol-2-iminium) 
bis(\m-benzene-1,3,5-tricarboxylato)-aqua-(1H-benzimidazol-2-amine)-di-zinc 
hexahydrate]
;
_cell_volume   2244.136
_exptl_crystal_density_diffrn 1.587
_diffrn_ambient_temperature 296.1
#These two values have been output from a single CSD field.
_refine_ls_R_factor_gt 0.0342
_refine_ls_wR_factor_gt 0.0342
_symmetry_cell_setting triclinic
_symmetry_space_group_name_H-M 'P -1'
_symmetry_Int_Tables_number 2
loop_
_symmetry_equiv_pos_site_id
_symmetry_equiv_pos_as_xyz
1 x,y,z
2 -x,-y,-z
_cell_length_a 10.2050(3)
_cell_length_b 14.3969(4)
_cell_length_c 16.5940(4)
_cell_angle_alpha 97.411(2)
_cell_angle_beta 102.378(2)
_cell_angle_gamma 105.892(2)
_cell_formula_units_Z 2
loop_
_atom_type_symbol
_atom_type_radius_bond
C 0.68
H 0.23
N 0.68
O 0.68
Zn 1.22
loop_
_atom_site_label
_atom_site_type_symbol
_atom_site_fract_x
_atom_site_fract_y
_atom_site_fract_z
Zn1 Zn 0.80819(3) 0.19952(2) 0.63218(2)
Zn2 Zn 0.49037(3) 0.40907(2) 0.09416(2)
O1 O 0.91243(18) 0.28819(13) 0.74194(10)
O2 O 1.30904(17) 0.38407(14) 1.00448(11)
O3 O 0.66466(18) 0.22546(14) 0.54763(10)
O4 O 0.52025(18) 0.36968(13) 0.20477(10)
O5 O 0.31086(19) -0.06778(13) 0.36460(11)
O6 O 0.60889(17) 0.36969(14) 1.02414(11)
O7 O 0.5900(2) 0.55613(14) 0.12650(13)
H1 H 0.53140 0.59050 0.13430
H2 H 0.62970 0.57850 0.08690
O8 O 0.3848(2) 0.23297(16) 0.11714(12)
O9 O 1.2705(2) 0.43572(18) 1.12437(12)
O10 O 0.1904(2) -0.06216(14) 0.23844(12)
O11 O 0.6971(2) 0.2665(2) 0.75308(12)
O12 O 0.7836(2) 0.4224(2) 1.13971(12)
O13 O 0.7546(2) 0.35208(15) 0.49138(13)
N1 N 0.9617(2) 0.17966(15) 0.58345(13)
C1 C 0.9807(2) 0.39474(19) 1.05097(15)
H3 H 1.01380 0.41610 1.10910
C2 C 0.8828(2) 0.33205(17) 0.87805(14)
N2 N 1.1680(3) 0.1652(2) 0.57390(17)
H4 H 1.25590 0.16940 0.58840
C3 C 1.0250(2) 0.35245(17) 0.91692(14)
H5 H 1.08740 0.34570 0.88480
C4 C 1.0743(2) 0.38308(18) 1.00411(14)
C5 C 0.4732(2) 0.12654(17) 0.39375(15)
H6 H 0.47860 0.09300 0.43800
C6 C 0.3790(2) 0.07956(17) 0.31620(14)
C7 C 0.5592(2) 0.22277(18) 0.40594(14)
C8 C 0.8260(3) 0.29389(19) 0.78511(15)
C9 C 1.2268(3) 0.40364(19) 1.04810(16)
C10 C 0.3722(3) 0.12988(19) 0.25018(15)
H7 H 0.30950 0.09870 0.19800
C11 C 0.8385(2) 0.37508(18) 1.01276(14)
C12 C 0.6688(3) 0.27238(19) 0.48776(15)
C13 C 0.7390(3) 0.3904(2) 1.06391(15)
C14 C 0.2853(3) -0.02489(18) 0.30384(15)
C15 C 0.4580(3) 0.22595(18) 0.26129(14)
C16 C 0.5510(3) 0.27224(18) 0.33973(15)
H8 H 0.60820 0.33700 0.34770
C17 C 0.7908(3) 0.34368(18) 0.92605(15)
H9 H 0.69570 0.33020 0.89970
C18 C 0.4527(3) 0.2788(2) 0.18948(16)
C19 C 0.9471(3) 0.13368(18) 0.50106(16)
C20 C 1.0773(3) 0.1254(2) 0.4953(2)
N3 N 1.1519(3) 0.2372(2) 0.70595(17)
H10 H 1.10030 0.25460 0.73590
H11 H 1.23960 0.24610 0.72850
C21 C 1.0954(3) 0.1962(2) 0.62380(18)
C22 C 0.8322(3) 0.0993(2) 0.43235(18)
H12 H 0.74420 0.10360 0.43590
C23 C 1.0970(4) 0.0831(3) 0.4206(2)
H13 H 1.18420 0.07720 0.41720
C24 C 0.9827(5) 0.0507(3) 0.3524(2)
H14 H 0.99260 0.02280 0.30120
C25 C 0.8522(5) 0.0581(3) 0.3575(2)
H15 H 0.77650 0.03510 0.30980
N4 N 1.0251(3) 0.43336(18) 0.57950(15)
H16 H 0.93740 0.41600 0.55280
N5 N 1.2193(3) 0.49836(19) 0.67885(16)
H17 H 1.27740 0.52960 0.72650
N6 N 1.0148(3) 0.5212(2) 0.70790(17)
H18 H 1.06070 0.55590 0.75710
H19 H 0.92510 0.50990 0.69090
C26 C 1.0816(3) 0.4853(2) 0.65861(18)
C27 C 1.1301(4) 0.4124(2) 0.5479(2)
C28 C 1.2544(3) 0.4540(2) 0.6116(2)
C29 C 1.1279(5) 0.3627(3) 0.4706(3)
H20 H 1.04480 0.33490 0.42790
C30 C 1.3824(5) 0.4489(3) 0.5999(4)
H21 H 1.46610 0.47770 0.64200
C31 C 1.2567(8) 0.3567(3) 0.4602(4)
H22 H 1.26100 0.32320 0.40960
C32 C 1.3798(6) 0.4003(4) 0.5248(5)
H23 H 1.46440 0.39540 0.51530
N7 N 0.1028(3) 0.1568(2) 0.02905(17)
H24 H 0.19220 0.17320 0.05130
N8 N -0.0993(3) 0.1043(2) -0.0644(2)
H25 H -0.16170 0.08180 -0.11200
N9 N 0.1024(4) 0.1201(2) -0.1141(2)
H26 H 0.05350 0.10030 -0.16570
H27 H 0.19290 0.13590 -0.10210
C33 C 0.0391(4) 0.1264(2) -0.0538(2)
C34 C 0.0027(5) 0.1575(3) 0.0727(3)
C35 C -0.1272(5) 0.1225(3) 0.0114(3)
C36 C 0.0153(8) 0.1875(4) 0.1566(3)
H28 H 0.10270 0.20990 0.19600
C37 C -0.2520(7) 0.1169(5) 0.0325(6)
H29 H -0.33910 0.09410 -0.00710
C38 C -0.1075(15) 0.1830(7) 0.1797(6)
H30 H -0.10450 0.20300 0.23580
C39 C -0.2376(11) 0.1481(7) 0.1183(9)
H31 H -0.31910 0.14570 0.13570
O14 O 1.4297(3) 0.1382(2) 0.6100(2)
H32 H 1.45150 0.10790 0.64900
H33 H 1.49230 0.14720 0.58280
O15 O 0.7242(3) 0.4829(3) 0.7108(2)
H34 H 0.74750 0.54530 0.71650
H35 H 0.72040 0.45740 0.66090
O16 O 0.4024(4) 0.1795(3) -0.0764(3)
H36 H 0.46470 0.23290 -0.04870
H37 H 0.44120 0.14380 -0.10160
O17 O 0.5398(5) 0.6922(6) 0.2299(5)
H38 H 0.46880 0.65790 0.24350
H39 H 0.53430 0.74990 0.22910
O18 O 1.5299(9) 0.0935(4) 0.8171(6)
H40 H 1.58060 0.07130 0.79020
H41 H 1.45390 0.04800 0.81290
O19 O -0.409(6) -0.051(4) -0.063(3)
H42 H -0.32990 -0.01090 -0.03450
H43 H -0.46960 -0.05230 -0.03420
Zn1A Zn 0.19181(3) -0.19952(2) 0.36782(2)
Zn2* Zn 0.49037(3) 0.40907(2) 1.09416(2)
Zn2** Zn 1.49037(3) 0.40907(2) 1.09416(2)
O2* O 0.30904(17) 0.38407(14) 0.00448(11)
O5A O 0.68914(19) 0.06778(13) 0.63540(11)
O6* O 0.60889(17) 0.36969(14) 0.02414(11)
O9* O 0.2705(2) 0.43572(18) 0.12437(12)
#END
