
#######################################################################
#
#                 Cambridge Crystallographic Data Centre
#                                CCDC
#
#######################################################################
#
# If this CIF has been generated from an entry in the Cambridge
# Structural Database, then it will include bibliographic, chemical,
# crystal, experimental, refinement or atomic coordinate data resulting
# from the CCDC's data processing and validation procedures.
#
#######################################################################

data_CSD_CIF_AGAMAZ
_audit_creation_date 2018-10-05
_audit_creation_method CSD-ConQuest-V1
_database_code_CSD AGAMAZ
_database_code_depnum_ccdc_archive 'CCDC 1584819'
_chemical_formula_sum 'C20 H96 N4 Na4 O46 P8'
_chemical_formula_moiety
;
(C20 H68 N4 Na3 O32 P8 1-)n,H12 Na1 O6 1+,8(H2 O1)
;
_journal_coden_Cambridge 1350
_journal_volume 20
_journal_year 2018
_journal_page_first 7648
_journal_name_full 'CrystEngComm '
loop_
_publ_author_name
"I.R.Salcedo"
"R.M.P.Colodrero"
"M.Bazaga-Garcia"
"A.Vasileiou"
"M.Papadaki"
"P.Olivera-Pastor"
"A.Infantes-Molina"
"E.R.Losilla"
"G.Mezei"
"A.Cabeza"
"K.D.Demadis"
_chemical_name_systematic
;
catena-(hexa-aqua-sodium bis(\m-tetrahydrogen 
1,6-bis(bis(phosphonatomethyl)ammonio)hexane)-bis(\m-aqua)-tetra-aqua-tri-sodi
um octahydrate)
;
_cell_volume   1542.609
_exptl_crystal_colour 'colorless'
_exptl_crystal_density_diffrn 1.581
_exptl_crystal_description 'plate'
_diffrn_ambient_temperature 296
#These two values have been output from a single CSD field.
_refine_ls_R_factor_gt 0.0368
_refine_ls_wR_factor_gt 0.0368
_symmetry_cell_setting triclinic
_symmetry_space_group_name_H-M 'P -1'
_symmetry_Int_Tables_number 2
loop_
_symmetry_equiv_pos_site_id
_symmetry_equiv_pos_as_xyz
1 x,y,z
2 -x,-y,-z
_cell_length_a 7.6682(1)
_cell_length_b 11.5335(1)
_cell_length_c 18.0768(2)
_cell_angle_alpha 97.378(1)
_cell_angle_beta 94.792(1)
_cell_angle_gamma 101.705(1)
_cell_formula_units_Z 1
loop_
_atom_type_symbol
_atom_type_radius_bond
C 0.68
H 0.23
N 0.68
Na 1.66
O 0.68
P 1.05
loop_
_atom_site_label
_atom_site_type_symbol
_atom_site_fract_x
_atom_site_fract_y
_atom_site_fract_z
Na1 Na 0.00000 0.00000 1.00000
Na2 Na -0.36336(8) -0.03213(6) 1.07122(4)
P1 P 0.56533(5) 0.43674(3) 0.20636(2)
P2 P 0.14120(5) 0.60557(3) 0.33826(2)
P3 P -0.05114(5) 0.04699(3) 0.81549(2)
P4 P 0.35806(5) -0.10337(3) 0.65714(2)
O1 O 0.67237(15) 0.35278(10) 0.17087(6)
O2 O 0.43714(15) 0.48014(11) 0.15482(7)
O3 O 0.69031(15) 0.54642(11) 0.25723(7)
H1 H 0.793(2) 0.544(2) 0.2587(13)
O4 O 0.01769(15) 0.55288(10) 0.26725(6)
O5 O 0.22646(16) 0.73925(10) 0.33473(7)
H2 H 0.241(3) 0.7877(18) 0.3722(10)
O6 O 0.06662(15) 0.58827(10) 0.41107(7)
O7 O 0.07278(15) -0.00296(10) 0.86523(6)
O8 O -0.17472(15) -0.0618(1) 0.76139(7)
H3 H -0.271(2) -0.052(2) 0.7462(12)
O9 O -0.15933(15) 0.12824(10) 0.85249(6)
O10 O 0.50192(14) -0.05571(10) 0.72189(6)
O11 O 0.27482(15) -0.23837(10) 0.65882(7)
H4 H 0.258(3) -0.2842(18) 0.6205(10)
O12 O 0.40766(15) -0.08058(10) 0.58137(6)
O13 O 0.26233(16) 0.14485(11) 1.02851(7)
H5 H 0.321(3) 0.136(2) 1.0655(10)
H6 H 0.246(3) 0.2140(15) 1.0339(13)
O14 O -0.27810(19) 0.10979(11) 0.98941(7)
H7 H -0.249(3) 0.111(2) 0.9468(10)
H8 H -0.272(3) 0.1808(15) 1.0045(13)
O15 O -0.48060(15) -0.15581(11) 1.15855(7)
H9 H -0.475(3) -0.2191(15) 1.1373(12)
H10 H -0.583(2) -0.157(2) 1.1646(12)
O16 O -0.47485(16) 0.11764(11) 1.13699(7)
H11 H -0.480(3) 0.100(2) 1.1798(9)
H12 H -0.423(3) 0.1873(15) 1.1457(12)
N1 N 0.27878(17) 0.40608(11) 0.29525(7)
H13 H 0.206(2) 0.3992(19) 0.256(1)
N2 N 0.22400(17) 0.08946(11) 0.71926(7)
H14 H 0.303(2) 0.0936(18) 0.7557(10)
C1 C 0.4325(2) 0.35490(14) 0.26959(9)
H15 H 0.38540 0.27350 0.24470
H16 H 0.51150 0.35090 0.31360
C2 C 0.33294(19) 0.53642(13) 0.32708(9)
H17 H 0.40880 0.57810 0.29420
H18 H 0.40270 0.54530 0.37560
C3 C 0.0756(2) 0.13693(14) 0.75345(9)
H19 H -0.00820 0.14750 0.71290
H20 H 0.12690 0.21560 0.78170
C4 C 0.17010(19) -0.03893(13) 0.68389(9)
H21 H 0.08620 -0.04540 0.63960
H22 H 0.10860 -0.08520 0.71880
C5 C 0.1816(2) 0.32945(13) 0.34776(8)
H23 H 0.15510 0.24640 0.32430
H24 H 0.06830 0.35230 0.35450
C6 C 0.2857(2) 0.33953(14) 0.42452(9)
H25 H 0.29370 0.41850 0.45240
H26 H 0.40650 0.32940 0.41850
C7 C 0.1932(2) 0.24421(14) 0.46839(9)
H27 H 0.07070 0.25230 0.47220
H28 H 0.18960 0.16540 0.44120
C8 C 0.2895(2) 0.25501(14) 0.54673(9)
H29 H 0.29270 0.33380 0.57380
H30 H 0.41220 0.24750 0.54270
C9 C 0.1999(2) 0.16032(14) 0.59137(9)
H31 H 0.08020 0.17110 0.59910
H32 H 0.18970 0.08120 0.56340
C10 C 0.30998(19) 0.17092(13) 0.66676(8)
H33 H 0.42550 0.15300 0.65810
H34 H 0.33140 0.25320 0.69130
Na3 Na 1.00000 0.50000 1.00000
O17 O 0.72902(17) 0.35786(11) 1.02285(7)
H35 H 0.712(3) 0.357(2) 1.0661(9)
H36 H 0.635(2) 0.363(2) 0.9990(12)
O18 O 1.00987(19) 0.37995(12) 0.88274(7)
H37 H 0.950(3) 0.3118(16) 0.8761(14)
H38 H 0.984(3) 0.396(2) 0.8403(10)
O19 O 0.84162(17) 0.63592(11) 0.94538(7)
H39 H 0.758(3) 0.5978(19) 0.9167(12)
H40 H 0.909(3) 0.661(2) 0.9146(11)
O20 O 0.00404(16) 0.72312(11) 0.82346(7)
H41 H 0.094(2) 0.701(2) 0.8160(13)
H42 H 0.028(3) 0.7944(14) 0.8328(13)
O21 O 0.20539(17) 0.58694(11) 0.55368(7)
H43 H 0.136(3) 0.5322(18) 0.5655(13)
H44 H 0.173(3) 0.595(2) 0.5108(10)
O22 O 0.28898(16) 0.91717(11) 0.43714(7)
H45 H 0.312(3) 0.907(2) 0.4809(10)
H46 H 0.372(3) 0.9678(18) 0.4290(13)
O23 O 0.58032(17) 0.64441(11) 0.07457(8)
H47 H 0.684(2) 0.641(2) 0.0667(13)
H48 H 0.548(3) 0.5897(18) 0.0990(12)
Na2A Na -0.63664(8) 0.03213(6) 0.92878(4)
O14A O -0.72190(19) -0.10979(11) 1.01059(7)
H7A H -0.751(3) -0.111(2) 1.0532(10)
H8A H -0.728(3) -0.1808(15) 0.9955(13)
O15A O -0.51940(15) 0.15581(11) 0.84145(7)
H9A H -0.525(3) 0.2191(15) 0.8627(12)
H10A H -0.417(2) 0.157(2) 0.8354(12)
O16A O -0.52515(16) -0.11764(11) 0.86301(7)
H11A H -0.520(3) -0.100(2) 0.8202(9)
H12A H -0.577(3) -0.1873(15) 0.8543(12)
P1A P -0.56533(5) -0.43674(3) 1.79364(2)
P2A P -0.14120(5) -0.60557(3) 1.66174(2)
P3A P 0.05114(5) -0.04699(3) 1.18451(2)
P4A P -0.35806(5) 0.10337(3) 1.34286(2)
O1A O -0.67237(15) -0.35278(10) 1.82913(6)
O2A O -0.43714(15) -0.48014(11) 1.84518(7)
O3A O -0.69031(15) -0.54642(11) 1.74277(7)
H1A H -0.793(2) -0.544(2) 1.7413(13)
O4A O -0.01769(15) -0.55288(10) 1.73275(6)
O5A O -0.22646(16) -0.73925(10) 1.66527(7)
H2A H -0.241(3) -0.7877(18) 1.6278(10)
O6A O -0.06662(15) -0.58827(10) 1.58893(7)
O7A O -0.07278(15) 0.00296(10) 1.13477(6)
O8A O 0.17472(15) 0.0618(1) 1.23861(7)
H3A H 0.271(2) 0.052(2) 1.2538(12)
O9A O 0.15933(15) -0.12824(10) 1.14751(6)
O10A O -0.50192(14) 0.05571(10) 1.27811(6)
O11A O -0.27482(15) 0.23837(10) 1.34118(7)
H4A H -0.258(3) 0.2842(18) 1.3795(10)
O12A O -0.40766(15) 0.08058(10) 1.41863(6)
N1A N -0.27878(17) -0.40608(11) 1.70475(7)
H13A H -0.206(2) -0.3992(19) 1.744(1)
N2A N -0.22400(17) -0.08946(11) 1.28074(7)
H14A H -0.303(2) -0.0936(18) 1.2443(10)
C1A C -0.4325(2) -0.35490(14) 1.73041(9)
H15A H -0.38540 -0.27350 1.75530
H16A H -0.51150 -0.35090 1.68640
C2A C -0.33294(19) -0.53642(13) 1.67292(9)
H17A H -0.40880 -0.57810 1.70580
H18A H -0.40270 -0.54530 1.62440
C3A C -0.0756(2) -0.13693(14) 1.24655(9)
H19A H 0.00820 -0.14750 1.28710
H20A H -0.12690 -0.21560 1.21830
C4A C -0.17010(19) 0.03893(13) 1.31611(9)
H21A H -0.08620 0.04540 1.36040
H22A H -0.10860 0.08520 1.28120
C5A C -0.1816(2) -0.32945(13) 1.65224(8)
H23A H -0.15510 -0.24640 1.67570
H24A H -0.06830 -0.35230 1.64550
C6A C -0.2857(2) -0.33953(14) 1.57548(9)
H25A H -0.29370 -0.41850 1.54760
H26A H -0.40650 -0.32940 1.58150
C7A C -0.1932(2) -0.24421(14) 1.53161(9)
H27A H -0.07070 -0.25230 1.52780
H28A H -0.18960 -0.16540 1.55880
C8A C -0.2895(2) -0.25501(14) 1.45327(9)
H29A H -0.29270 -0.33380 1.42620
H30A H -0.41220 -0.24750 1.45730
C9A C -0.1999(2) -0.16032(14) 1.40863(9)
H31A H -0.08020 -0.17110 1.40090
H32A H -0.18970 -0.08120 1.43660
C10A C -0.30998(19) -0.17092(13) 1.33324(8)
H33A H -0.42550 -0.15300 1.34190
H34A H -0.33140 -0.25320 1.30870
O13A O -0.26233(16) -0.14485(11) 0.97149(7)
H5A H -0.321(3) -0.136(2) 0.9345(10)
H6A H -0.246(3) -0.2140(15) 0.9661(13)
Na1* Na -1.00000 0.00000 1.00000
Na2A* Na 0.36336(8) 0.03213(6) 0.92878(4)
O7* O -0.92722(15) -0.00296(10) 0.86523(6)
O13* O -0.73767(16) 0.14485(11) 1.02851(7)
O14A* O 0.27810(19) -0.10979(11) 1.01059(7)
O17A O 1.27098(17) 0.64214(11) 0.97715(7)
H35A H 1.288(3) 0.643(2) 0.9339(9)
H36A H 1.365(2) 0.637(2) 1.0010(12)
O18A O 0.99013(19) 0.62005(12) 1.11726(7)
H37A H 1.050(3) 0.6882(16) 1.1239(14)
H38A H 1.016(3) 0.604(2) 1.1597(10)
O19A O 1.15838(17) 0.36408(11) 1.05462(7)
H39A H 1.242(3) 0.4022(19) 1.0833(12)
H40A H 1.091(3) 0.339(2) 1.0854(11)
#END
