
#######################################################################
#
#                 Cambridge Crystallographic Data Centre
#                                CCDC
#
#######################################################################
#
# If this CIF has been generated from an entry in the Cambridge
# Structural Database, then it will include bibliographic, chemical,
# crystal, experimental, refinement or atomic coordinate data resulting
# from the CCDC's data processing and validation procedures.
#
#######################################################################

data_CSD_CIF_AGEQEK
_audit_creation_date 2013-09-19
_audit_creation_method CSD-ConQuest-V1
_database_code_CSD AGEQEK
_database_code_depnum_ccdc_archive 'CCDC 933085'
_chemical_formula_sum 'C66 H96 Ag4 N16 O27'
_chemical_formula_moiety
;
(C38 H30 Ag2 N8 O8 2-)n,2n(C14 H14 Ag1 N4 1+),19n(H2 O1)
;
_journal_coden_Cambridge 119
_journal_volume 1050
_journal_year 2013
_journal_page_first 97
_journal_name_full 'J.Mol.Struct. '
loop_
_publ_author_name
"Zhan-Hui Wang"
"Shu-Fen Chen"
"Dan-Feng Wang"
"Hong-Jun Hao"
"Hong-Xin Mei"
"Rong-Bin Huang"
"Lan-Sun Zheng"
_chemical_name_systematic
;
catena-[(\m~2~-Benzene-1,2,4,5-tetracarboxylato)-bis(\m~2~-1,1'-(1,4-phenylene
bis(methylene))bis(1H-imidazole))-di-silver(i) 
bis((\m~2~-1,1'-(1,4-phenylenebis(methylene))bis(1H-imidazole))-silver(i)) 
nonadecahydrate]
;
_cell_volume   8112.072
_exptl_crystal_colour 'light colorless'
_exptl_crystal_density_diffrn 1.618
_exptl_crystal_description 'cube'
_diffrn_ambient_temperature 173.2
#These two values have been output from a single CSD field.
_refine_ls_R_factor_gt 0.0399
_refine_ls_wR_factor_gt 0.0399
_symmetry_cell_setting monoclinic
_symmetry_space_group_name_H-M 'C 2/c'
_symmetry_Int_Tables_number 15
loop_
_symmetry_equiv_pos_site_id
_symmetry_equiv_pos_as_xyz
1 x,y,z
2 -x,y,1/2-z
3 1/2+x,1/2+y,z
4 1/2-x,1/2+y,1/2-z
5 -x,-y,-z
6 x,-y,-1/2+z
7 -1/2-x,-1/2-y,-z
8 -1/2+x,-1/2-y,-1/2+z
_cell_length_a 14.570(4)
_cell_length_b 25.221(6)
_cell_length_c 26.294(3)
_cell_angle_alpha 90
_cell_angle_beta 122.906(8)
_cell_angle_gamma 90
_cell_formula_units_Z 4
loop_
_atom_type_symbol
_atom_type_radius_bond
C 0.68
H 0.23
Ag 1.45
N 0.68
O 0.68
loop_
_atom_site_label
_atom_site_type_symbol
_atom_site_fract_x
_atom_site_fract_y
_atom_site_fract_z
Ag1 Ag 0.385327(19) 0.561369(9) 0.688759(10)
O1 O 0.4367(2) 0.55249(10) 0.60737(12)
N1 N 0.3696(2) 0.4783(1) 0.69407(11)
N2 N 0.3867(2) 0.64513(10) 0.68292(11)
C1 C 0.5208(3) 0.53505(12) 0.61132(16)
C2 C 0.3485(2) 0.45314(12) 0.73039(14)
C3 C 0.3852(2) 0.43980(11) 0.66266(15)
O2 O 0.6115(2) 0.52716(10) 0.65891(11)
C4 C 0.5098(3) 0.51917(11) 0.55291(14)
N3 N 0.34954(19) 0.40057(10) 0.72352(11)
H1 H 0.33460 0.46960 0.75720
H2 H 0.40190 0.44590 0.63370
C5 C 0.3725(2) 0.39167(13) 0.68043(13)
C6 C 0.4304(3) 0.48185(11) 0.51609(14)
C7 C 0.5804(3) 0.53817(11) 0.53643(14)
C8 C 0.3316(3) 0.36030(13) 0.75725(14)
H3 H 0.37830 0.35890 0.66610
H4 H 0.38280 0.46990 0.52690
C9 C 0.6624(3) 0.58175(12) 0.57156(15)
H5 H 0.33820 0.37660 0.79250
H6 H 0.38760 0.33320 0.77130
C10 C 0.2200(3) 0.33455(12) 0.71905(14)
O3 O 0.7564(2) 0.57588(10) 0.58049(11)
O4 O 0.6307(2) 0.62098(9) 0.58682(11)
C11 C 0.2081(3) 0.28589(12) 0.69207(14)
C12 C 0.1277(3) 0.36038(12) 0.70970(15)
C13 C 0.1059(3) 0.26305(12) 0.65614(15)
H7 H 0.26940 0.26830 0.69810
H8 H 0.13480 0.39310 0.72780
C14 C 0.0254(3) 0.33768(12) 0.67353(16)
H9 H 0.09900 0.23020 0.63830
C15 C 0.0138(3) 0.28875(12) 0.64662(14)
H10 H -0.03600 0.35540 0.66720
C16 C -0.0971(3) 0.26200(13) 0.60986(16)
N4 N -0.1094(2) 0.22233(10) 0.64645(12)
H11 H -0.15430 0.28840 0.59580
H12 H -0.10460 0.24500 0.57470
C17 C -0.0967(2) 0.16977(11) 0.64450(14)
C18 C -0.1336(2) 0.23209(13) 0.68903(15)
H13 H -0.07880 0.15310 0.61950
C19 C -0.1367(2) 0.18396(12) 0.71102(15)
H14 H -0.14550 0.26490 0.70050
H15 H -0.15220 0.17810 0.74050
Ag2 Ag 0.14019(2) 0.555419(9) 0.561137(12)
N5 N 0.0972(2) 0.71058(10) 0.60644(12)
N6 N -0.36467(19) 0.88954(9) 0.53014(10)
N7 N 0.1237(2) 0.63668(9) 0.57258(12)
N8 N -0.3697(2) 0.97218(9) 0.55411(12)
C20 C -0.0456(3) 0.81954(12) 0.57961(16)
H16 H 0.01370 0.83620 0.58220
C21 C -0.2230(3) 0.77114(11) 0.57203(15)
H17 H -0.28220 0.75470 0.56970
C22 C -0.0307(3) 0.77251(12) 0.61000(14)
C23 C -0.3494(3) 0.84308(12) 0.50221(14)
H18 H -0.35990 0.85350 0.46390
H19 H -0.40470 0.81690 0.49380
C24 C 0.1061(2) 0.65773(12) 0.61254(14)
H20 H 0.10080 0.63850 0.64100
C25 C -0.1196(3) 0.74848(12) 0.60644(15)
H21 H -0.11000 0.71700 0.62720
C26 C -0.3955(2) 0.93993(11) 0.58628(15)
H22 H -0.41250 0.95150 0.61380
C27 C 0.1265(2) 0.67779(12) 0.53958(15)
H23 H 0.13800 0.67470 0.50820
C28 C -0.2382(2) 0.81808(11) 0.54117(13)
C29 C -0.3926(2) 0.88909(12) 0.57223(14)
H24 H -0.40670 0.85940 0.58790
C30 C 0.1099(3) 0.72406(12) 0.56027(15)
H25 H 0.10760 0.75800 0.54580
C31 C -0.3518(2) 0.94036(11) 0.52031(14)
H26 H -0.33300 0.95170 0.49350
C32 C 0.0816(3) 0.74694(14) 0.64484(16)
H27 H 0.13710 0.77440 0.66040
H28 H 0.09040 0.72750 0.67910
C33 C -0.1486(3) 0.84211(12) 0.54534(15)
H29 H -0.15780 0.87370 0.52490
O5 O 0.1441(2) 0.51881(11) 0.39944(14)
H30 H 0.17110 0.48790 0.41050
H31 H 0.16020 0.53050 0.37490
O6 O 0.2750(2) 0.64639(11) 0.37297(13)
H32 H 0.31280 0.64650 0.41150
H33 H 0.26170 0.61440 0.36080
O7 O 0.5942(2) 0.34295(10) 0.49463(13)
H34 H 0.52940 0.35430 0.47070
H35 H 0.63830 0.36450 0.49390
O8 O 0.7803(3) 0.46131(11) 0.67808(13)
H36 H 0.72250 0.47900 0.66650
H37 H 0.82950 0.47190 0.71330
O9 O 0.2508(2) 0.58630(11) 0.50466(14)
H38 H 0.22460 0.56440 0.47540
H39 H 0.30860 0.57310 0.53480
O10 O 0.2421(2) 0.41399(12) 0.24148(13)
H40 H 0.18640 0.43410 0.22560
H41 H 0.29310 0.42890 0.27350
O11 O 0.0749(3) 0.48981(13) 0.20016(15)
H42 H 0.04360 0.47260 0.21440
H43 H 0.01860 0.50630 0.17280
O12 O 0.0435(2) 0.38763(13) 0.33007(16)
H44 H 0.09580 0.40350 0.36070
H45 H 0.07040 0.36970 0.31380
O13 O 0.1961(3) 0.33692(11) 0.30180(15)
H46 H 0.24490 0.34550 0.33800
H47 H 0.20060 0.35810 0.27810
O14 O 0.00000 0.2698(7) 0.25000
H48 H 0.05620 0.28950 0.26480
Ag1A Ag 0.614673(19) 0.561369(9) 0.811241(10)
N1A N 0.6304(2) 0.4783(1) 0.80593(11)
O1A O 0.5633(2) 0.55249(10) 0.89263(12)
N2A N 0.6133(2) 0.64513(10) 0.81708(11)
C2A C 0.6515(2) 0.45314(12) 0.76961(14)
C3A C 0.6148(2) 0.43980(11) 0.83734(15)
N3A N 0.65046(19) 0.40057(10) 0.77648(11)
H1A H 0.66540 0.46960 0.74280
H2A H 0.59810 0.44590 0.86630
C5A C 0.6275(2) 0.39167(13) 0.81957(13)
C7D C 0.4196(3) 0.46183(11) 0.46357(14)
C6D C 0.5696(3) 0.51815(11) 0.48391(14)
C8A C 0.6684(3) 0.36030(13) 0.74275(14)
H3A H 0.62170 0.35890 0.83390
C4D C 0.4902(3) 0.48083(11) 0.44709(14)
C9D C 0.3376(3) 0.41825(12) 0.42844(15)
H4D H 0.61720 0.53010 0.47310
H5A H 0.66180 0.37660 0.70750
H6A H 0.61240 0.33320 0.72870
C10A C 0.7800(3) 0.33455(12) 0.78095(14)
C1D C 0.4792(3) 0.46495(12) 0.38868(16)
O3D O 0.2436(2) 0.42412(10) 0.41951(11)
O4D O 0.3693(2) 0.37902(9) 0.41318(11)
C11A C 0.7919(3) 0.28589(12) 0.80793(14)
C12A C 0.8723(3) 0.36038(12) 0.79030(15)
O1D O 0.5633(2) 0.44751(10) 0.39263(12)
O2D O 0.3885(2) 0.47284(10) 0.34109(11)
C13A C 0.8941(3) 0.26305(12) 0.84386(15)
H7A H 0.73060 0.26830 0.80190
H8A H 0.86520 0.39310 0.77220
C14A C 0.9746(3) 0.33768(12) 0.82647(16)
Ag1D Ag 0.614673(19) 0.438631(9) 0.311241(10)
H9A H 0.90100 0.23020 0.86170
C15A C 0.9862(3) 0.28875(12) 0.85338(14)
H10A H 1.03600 0.35540 0.83280
C16A C 1.0971(3) 0.26200(13) 0.89014(16)
N4A N 1.1094(2) 0.22233(10) 0.85355(12)
H11A H 1.15430 0.28840 0.90420
H12A H 1.10460 0.24500 0.92530
N2B N -0.1133(2) 0.14513(10) 0.68292(11)
C17A C 1.0967(2) 0.16977(11) 0.85550(14)
C18A C 1.1336(2) 0.23209(13) 0.81097(15)
Ag1B Ag -0.114673(19) 0.061369(9) 0.688759(10)
N2C N 1.1133(2) 0.14513(10) 0.81708(11)
H13A H 1.07880 0.15310 0.88050
C19A C 1.1367(2) 0.18396(12) 0.78898(15)
H14A H 1.14550 0.26490 0.79950
Ag1C Ag 1.114673(19) 0.061369(9) 0.811241(10)
H15A H 1.15220 0.17810 0.75950
Ag2B Ag -0.35981(2) 1.055419(9) 0.561137(12)
N8B N 0.1303(2) 0.47218(9) 0.55411(12)
H48A H -0.05620 0.28950 0.23520
#END
