
#######################################################################
#
#                 Cambridge Crystallographic Data Centre
#                                CCDC
#
#######################################################################
#
# If this CIF has been generated from an entry in the Cambridge
# Structural Database, then it will include bibliographic, chemical,
# crystal, experimental, refinement or atomic coordinate data resulting
# from the CCDC's data processing and validation procedures.
#
#######################################################################

data_CSD_CIF_AGETUE
_audit_creation_date 2018-10-08
_audit_creation_method CSD-ConQuest-V1
_database_code_CSD AGETUE
_database_code_depnum_ccdc_archive 'CCDC 1818907'
_chemical_formula_sum 'C36 H32 N12 O28 Zn4'
_chemical_formula_moiety
;
(C12 O24 Zn4 4-)n,2(C12 H16 N6 O2 2+)
;
_journal_coden_Cambridge 222
_journal_volume 47
_journal_year 2018
_journal_page_first 15288
_journal_name_full 'Dalton Trans. '
loop_
_publ_author_name
"Jingyu Shi"
"Jing Li"
"Hongmei Zeng"
"Guohong Zou"
"Qinghua Zhang"
"Zhien Lin"
_chemical_name_systematic
;
catena-(bis(5,5'-[(3,6-dioxopiperazine-2,5-diyl)bis(methylene)]bis(1H-imidazol
-3-ium)) hexakis(\m-oxalato)-tetra-zinc(ii))
;
_chemical_name_common
;
SCU-63
;
_cell_volume   1190.648
_exptl_crystal_colour 'colorless'
_exptl_crystal_density_diffrn 1.872
_exptl_crystal_description 'block'
_diffrn_ambient_temperature 292.3
#These two values have been output from a single CSD field.
_refine_ls_R_factor_gt 0.032
_refine_ls_wR_factor_gt 0.032
_symmetry_cell_setting triclinic
_symmetry_space_group_name_H-M 'P -1'
_symmetry_Int_Tables_number 2
loop_
_symmetry_equiv_pos_site_id
_symmetry_equiv_pos_as_xyz
1 x,y,z
2 -x,-y,-z
_cell_length_a 8.4179(3)
_cell_length_b 9.1478(4)
_cell_length_c 16.4206(5)
_cell_angle_alpha 84.686(3)
_cell_angle_beta 84.283(3)
_cell_angle_gamma 71.497(3)
_cell_formula_units_Z 1
loop_
_atom_type_symbol
_atom_type_radius_bond
C 0.68
H 0.23
N 0.68
O 0.68
Zn 1.22
loop_
_atom_site_label
_atom_site_type_symbol
_atom_site_fract_x
_atom_site_fract_y
_atom_site_fract_z
Zn1 Zn 0.51954(4) 0.48763(4) 0.33647(2)
Zn2 Zn 0.49215(4) 1.02375(4) 0.15973(2)
O1 O 0.6474(2) 0.2587(2) 0.31712(12)
O2 O 0.6532(2) 0.0758(2) 0.23536(12)
O3 O 0.3675(2) 0.4451(2) 0.25196(12)
O4 O 0.3654(2) 0.2583(2) 0.17491(12)
O5 O 0.6581(2) 0.5731(2) 0.24357(12)
O6 O 0.6403(3) 0.7881(2) 0.16464(12)
O7 O 0.3719(2) 0.7220(2) 0.32977(12)
O8 O 0.3633(3) 0.9402(2) 0.25682(12)
O9 O 0.6610(2) 0.5115(3) 0.42695(12)
O10 O 0.6361(2) 0.5433(2) 0.56033(11)
O11 O 0.3380(3) 1.0004(3) 0.07551(13)
O12 O 0.3638(2) 0.9426(2) -0.05451(12)
C1 C 0.5911(3) 0.2057(3) 0.26336(16)
C2 C 0.4263(3) 0.3117(3) 0.22706(15)
C3 C 0.5912(3) 0.7130(3) 0.22244(16)
C4 C 0.4273(3) 0.7998(3) 0.27417(16)
C5 C 0.5861(3) 0.5157(3) 0.49570(16)
C6 C 0.4133(3) 0.9835(3) 0.00615(17)
O13 O -0.0994(3) 0.3248(3) 0.12171(14)
C7 C 0.0317(4) 0.8120(4) 0.2030(2)
H1 H 0.01090 0.82870 0.25860
C8 C 0.0143(4) 0.8375(4) 0.0709(2)
H2 H -0.02400 0.87680 0.01960
C9 C 0.1430(3) 0.7096(3) 0.08624(17)
C10 C 0.2617(4) 0.5973(4) 0.03066(19)
H3 H 0.35340 0.53130 0.06140
H4 H 0.30870 0.65360 -0.01300
C11 C 0.1773(4) 0.4959(4) -0.00734(18)
H5 H 0.26510 0.42110 -0.03950
C12 C -0.0516(4) 0.4043(4) 0.06669(18)
N1 N -0.0501(3) 0.8993(3) 0.14403(19)
H6 H -0.13220 0.98310 0.15020
N2 N 0.1499(3) 0.6949(3) 0.16987(15)
H7 H 0.22000 0.62130 0.19660
N3 N 0.1050(3) 0.4088(3) 0.05595(16)
H8 H 0.17240 0.35310 0.09090
O14 O 1.0643(3) 1.1970(3) 0.59311(15)
C13 C 1.0101(4) 0.5406(4) 0.65988(19)
H9 H 1.05920 0.43400 0.66520
C14 C 0.9377(4) 0.7864(4) 0.68071(19)
H10 H 0.93060 0.87720 0.70410
C15 C 0.8581(3) 0.7747(3) 0.61545(17)
C16 C 0.7418(3) 0.8917(4) 0.56144(18)
H11 H 0.65230 0.95840 0.59560
H12 H 0.69100 0.83870 0.52830
C17 C 0.8268(4) 0.9924(3) 0.50434(18)
H13 H 0.74190 1.05890 0.46890
C18 C 1.0331(4) 1.1077(3) 0.55089(18)
N4 N 1.0305(3) 0.6406(3) 0.70628(15)
H14 H 1.09300 0.61800 0.74690
N5 N 0.9066(3) 0.6184(3) 0.60386(15)
H15 H 0.87450 0.57780 0.56590
N6 N 0.8808(3) 1.0929(3) 0.55165(15)
H16 H 0.80460 1.14990 0.58420
O9A O 0.3390(2) 0.4885(3) 0.57305(12)
O10A O 0.3639(2) 0.4567(2) 0.43967(11)
C5A C 0.4139(3) 0.4843(3) 0.50430(16)
O11A O 0.6620(3) 0.9996(3) -0.07551(13)
O12A O 0.6362(2) 1.0574(2) 0.05451(12)
C6A C 0.5867(3) 1.0165(3) -0.00615(17)
Zn1A Zn 0.48046(4) 0.51237(4) 0.66353(2)
Zn2A Zn 0.50785(4) -0.02375(4) 0.84027(2)
O1A O 0.3526(2) 0.7413(2) 0.68288(12)
O2A O 0.3468(2) 0.9242(2) 0.76464(12)
O3A O 0.6325(2) 0.5549(2) 0.74804(12)
O4A O 0.6346(2) 0.7417(2) 0.82509(12)
O5A O 0.3419(2) 0.4269(2) 0.75643(12)
O6A O 0.3597(3) 0.2119(2) 0.83536(12)
O7A O 0.6281(2) 0.2780(2) 0.67023(12)
O8A O 0.6367(3) 0.0598(2) 0.74318(12)
C1A C 0.4089(3) 0.7943(3) 0.73664(16)
C2A C 0.5737(3) 0.6883(3) 0.77294(15)
C3A C 0.4088(3) 0.2870(3) 0.77756(16)
C4A C 0.5727(3) 0.2002(3) 0.72583(16)
Zn2* Zn 0.49215(4) 0.02375(4) 0.15973(2)
Zn2A* Zn 0.50785(4) 0.97625(4) -0.15973(2)
Zn2A** Zn 0.50785(4) 0.97625(4) 0.84027(2)
O2* O 0.6532(2) 1.0758(2) 0.23536(12)
O2A* O 0.3468(2) -0.0758(2) 0.76464(12)
O4* O 0.3654(2) 1.2583(2) 0.17491(12)
O4A* O 0.6346(2) -0.2583(2) 0.82509(12)
O11A* O 0.6620(3) -0.0004(3) 0.92449(13)
O12* O 0.3638(2) -0.0574(2) 0.94549(12)
O13A O 0.0994(3) 0.6752(3) -0.12171(14)
C7A C -0.0317(4) 0.1880(4) -0.2030(2)
H1A H -0.01090 0.17130 -0.25860
C8A C -0.0143(4) 0.1625(4) -0.0709(2)
H2A H 0.02400 0.12320 -0.01960
C9A C -0.1430(3) 0.2904(3) -0.08624(17)
C10A C -0.2617(4) 0.4027(4) -0.03066(19)
H3A H -0.35340 0.46870 -0.06140
H4A H -0.30870 0.34640 0.01300
C11A C -0.1773(4) 0.5041(4) 0.00734(18)
H5A H -0.26510 0.57890 0.03950
C12A C 0.0516(4) 0.5957(4) -0.06669(18)
N1A N 0.0501(3) 0.1007(3) -0.14403(19)
H6A H 0.13220 0.01690 -0.15020
N2A N -0.1499(3) 0.3051(3) -0.16987(15)
H7A H -0.22000 0.37870 -0.19660
N3A N -0.1050(3) 0.5912(3) -0.05595(16)
H8A H -0.17240 0.64690 -0.09090
O14A O 0.9357(3) 0.8030(3) 0.40689(15)
C13A C 0.9899(4) 1.4594(4) 0.34012(19)
H9A H 0.94080 1.56600 0.33480
C14A C 1.0623(4) 1.2136(4) 0.31929(19)
H10A H 1.06940 1.12280 0.29590
C15A C 1.1419(3) 1.2253(3) 0.38455(17)
C16A C 1.2582(3) 1.1083(4) 0.43856(18)
H11A H 1.34770 1.04160 0.40440
H12A H 1.30900 1.16130 0.47170
C17A C 1.1732(4) 1.0076(3) 0.49566(18)
H13A H 1.25810 0.94110 0.53110
C18A C 0.9669(4) 0.8923(3) 0.44911(18)
N4A N 0.9695(3) 1.3594(3) 0.29372(15)
H14A H 0.90700 1.38200 0.25310
N5A N 1.0934(3) 1.3816(3) 0.39614(15)
H15A H 1.12550 1.42220 0.43410
N6A N 1.1192(3) 0.9071(3) 0.44835(15)
H16A H 1.19540 0.85010 0.41580
#END
