
#######################################################################
#
#                 Cambridge Crystallographic Data Centre
#                                CCDC
#
#######################################################################
#
# If this CIF has been generated from an entry in the Cambridge
# Structural Database, then it will include bibliographic, chemical,
# crystal, experimental, refinement or atomic coordinate data resulting
# from the CCDC's data processing and validation procedures.
#
#######################################################################

data_CSD_CIF_AGOGUA
_audit_creation_date 2013-09-21
_audit_creation_method CSD-ConQuest-V1
_database_code_CSD AGOGUA
_database_code_depnum_ccdc_archive 'CCDC 948604'
_chemical_formula_sum 'C12 H26 F10 Fe4 N14 O2'
_chemical_formula_moiety
;
(C8 H10 F10 Fe4 N12 O2 2-)n,2n(C2 H8 N1 1+)
;
_journal_coden_Cambridge 222
_journal_volume 42
_journal_year 2013
_journal_page_first 15748
_journal_name_full 'Dalton Trans. '
loop_
_publ_author_name
"M.Smida"
"J.Lhoste"
"V.Pimenta"
"A.Hemon-Ribaud"
"L.Jouffret"
"M.Leblanc"
"M.Dammak"
"J.-M.Greneche"
"V.Maisonneuve"
_chemical_name_systematic
;
catena-[bis(dimethylammonium) 
bis(\m~3~-1,2,4-triazolato)-bis(\m~2~-1,2,4-triazole)-bis(\m~2~-fluoro)-octafl
uoro-dioxo-tetra-iron]
;
_cell_volume    690.911
_exptl_crystal_colour 'brown'
_exptl_crystal_density_diffrn 1.951
_exptl_crystal_description 'platelet'
_diffrn_ambient_temperature 296
#These two values have been output from a single CSD field.
_refine_ls_R_factor_gt 0.0311
_refine_ls_wR_factor_gt 0.0311
_symmetry_cell_setting triclinic
_symmetry_space_group_name_H-M 'P -1'
_symmetry_Int_Tables_number 2
loop_
_symmetry_equiv_pos_site_id
_symmetry_equiv_pos_as_xyz
1 x,y,z
2 -x,-y,-z
_cell_length_a 8.8392(5)
_cell_length_b 9.1948(5)
_cell_length_c 9.5877(5)
_cell_angle_alpha 82.070(3)
_cell_angle_beta 63.699(3)
_cell_angle_gamma 89.202(3)
_cell_formula_units_Z 1
loop_
_atom_type_symbol
_atom_type_radius_bond
C 0.68
H 0.23
F 0.64
Fe 1.52
N 0.68
O 0.68
loop_
_atom_site_label
_atom_site_type_symbol
_atom_site_fract_x
_atom_site_fract_y
_atom_site_fract_z
Fe1 Fe 0.32425(7) 0.27136(6) 0.38112(6)
Fe2 Fe 0.00000 0.00000 0.00000
Fe3 Fe 0.50000 0.50000 0.00000
F1 F 0.4751(3) 0.4337(2) 0.2221(2)
F2 F 0.1494(3) 0.4150(3) 0.4347(3)
F3 F 0.3709(3) 0.3357(3) 0.5416(3)
F4 F 0.1617(3) 0.1213(2) 0.5193(2)
F5 F 0.5015(3) 0.1403(3) 0.3306(3)
O1 O 0.2102(4) 0.0119(3) -0.2356(3)
N1 N 0.0976(4) 0.8035(4) 0.0830(4)
N2 N 0.2656(4) 0.2266(4) 0.1986(4)
N3 N 0.1536(4) 0.1337(4) 0.0614(4)
N4 N 0.3285(4) 0.3105(4) 0.0520(4)
N5 N 0.2846(4) 0.6418(4) 0.0915(4)
N6 N 0.1320(4) 0.6079(4) 0.2177(4)
H1 H 0.10920 0.53400 0.29070
C1 C 0.1631(5) 0.1239(4) 0.1982(4)
H2 H 0.10350 0.05210 0.28390
C2 C 0.2590(5) 0.2503(4) -0.0243(5)
H3 H 0.28100 0.28530 -0.12760
C3 C 0.0240(5) 0.7056(4) 0.2111(4)
H4 H -0.08790 0.70560 0.28590
C4 C 0.2583(4) 0.7608(3) 0.0132(3)
H5 H 0.34150 0.81030 -0.08040
N7 N 0.3087(5) 0.6561(4) 0.5018(5)
H6 H 0.28020 0.57950 0.46750
H7 H 0.41720 0.64840 0.48400
C5 C 0.2947(4) 0.7963(3) 0.4075(3)
H8 H 0.17930 0.80600 0.42590
H9 H 0.36470 0.79380 0.29760
H10 H 0.33120 0.87860 0.43880
C6 C 0.2019(4) 0.6460(3) 0.6726(3)
H11 H 0.22340 0.73210 0.70880
H12 H 0.22770 0.56030 0.72590
H13 H 0.08500 0.63910 0.69440
Fe1A Fe -0.32425(7) -0.27136(6) -0.38112(6)
F1A F -0.4751(3) -0.4337(2) -0.2221(2)
F2A F -0.1494(3) -0.4150(3) -0.4347(3)
F3A F -0.3709(3) -0.3357(3) -0.5416(3)
F4A F -0.1617(3) -0.1213(2) -0.5193(2)
F5A F -0.5015(3) -0.1403(3) -0.3306(3)
O1A O -0.2102(4) -0.0119(3) 0.2356(3)
N2A N -0.2656(4) -0.2266(4) -0.1986(4)
N3A N -0.1536(4) -0.1337(4) -0.0614(4)
N4A N -0.3285(4) -0.3105(4) -0.0520(4)
C1A C -0.1631(5) -0.1239(4) -0.1982(4)
H2A H -0.10350 -0.05210 -0.28390
C2A C -0.2590(5) -0.2503(4) 0.0243(5)
H3A H -0.28100 -0.28530 0.12760
N1A N -0.0976(4) 0.1965(4) -0.0830(4)
N5A N -0.2846(4) 0.3582(4) -0.0915(4)
N6A N -0.1320(4) 0.3921(4) -0.2177(4)
H1A H -0.10920 0.46600 -0.29070
C3A C -0.0240(5) 0.2944(4) -0.2111(4)
H4A H 0.08790 0.29440 -0.28590
C4A C -0.2583(4) 0.2392(3) -0.0132(3)
H5A H -0.34150 0.18970 0.08040
Fe2* Fe 0.00000 1.00000 0.00000
Fe3* Fe -0.50000 -0.50000 0.00000
Fe3** Fe -0.50000 0.50000 0.00000
F1A* F 0.5249(3) 0.5663(2) -0.2221(2)
N1* N 0.0976(4) -0.1965(4) 0.0830(4)
N4A* N 0.6715(4) 0.6895(4) -0.0520(4)
N5A* N 0.7154(4) 0.3582(4) -0.0915(4)
#END
