
#######################################################################
#
#                 Cambridge Crystallographic Data Centre
#                                CCDC
#
#######################################################################
#
# If this CIF has been generated from an entry in the Cambridge
# Structural Database, then it will include bibliographic, chemical,
# crystal, experimental, refinement or atomic coordinate data resulting
# from the CCDC's data processing and validation procedures.
#
#######################################################################

data_CSD_CIF_AGONAM
_audit_creation_date 2009-01-29
_audit_creation_method CSD-ConQuest-V1
_database_code_CSD AGONAM
_database_code_depnum_ccdc_archive 'CCDC 631857'
_chemical_formula_sum 'C34 H22 Cd2 N4 O16'
_chemical_formula_moiety
;
(C14 H16 N4 2+)n,n(C20 H6 Cd2 O16 2-)
;
_journal_coden_Cambridge 1147
_journal_volume 8
_journal_year 2008
_journal_page_first 3345
_journal_name_full 'Cryst.Growth Des. '
loop_
_publ_author_name
"Jian-Di Lin"
"Jian-Wen Cheng"
"Shao-Wu Du"
_chemical_name_systematic
;
catena-(1,4-bis(imidazol-3-ium-1-ylmethyl)benzene bis(\m~4~-hydrogen 
1,2,4,5-benzenetetracarboxylato)-di-cadmium)
;
_cell_volume   1679.562
_exptl_crystal_colour 'colorless'
_exptl_crystal_density_diffrn 1.913
_exptl_special_details
;
luminescent

;
_exptl_crystal_description 'prism'
_diffrn_ambient_temperature 293
#These two values have been output from a single CSD field.
_refine_ls_R_factor_gt 0.0288
_refine_ls_wR_factor_gt 0.0288
_symmetry_cell_setting monoclinic
_symmetry_space_group_name_H-M 'P 21/n'
_symmetry_Int_Tables_number 14
loop_
_symmetry_equiv_pos_site_id
_symmetry_equiv_pos_as_xyz
1 x,y,z
2 1/2-x,1/2+y,1/2-z
3 -x,-y,-z
4 -1/2+x,-1/2-y,-1/2+z
_cell_length_a 7.9105(19)
_cell_length_b 11.128(3)
_cell_length_c 19.441(5)
_cell_angle_alpha 90
_cell_angle_beta 101.061(2)
_cell_angle_gamma 90
_cell_formula_units_Z 2
loop_
_atom_type_symbol
_atom_type_radius_bond
C 0.68
H 0.23
Cd 1.61
N 0.68
O 0.68
loop_
_atom_site_label
_atom_site_type_symbol
_atom_site_fract_x
_atom_site_fract_y
_atom_site_fract_z
Cd1 Cd 0.85245(2) -0.003724(16) 0.076975(9)
O1 O 0.9434(2) 0.17124(18) 0.13962(10)
O2 O 1.0237(3) 0.00053(17) 0.19297(11)
O3 O 1.3633(3) 0.1071(2) 0.18364(10)
H1 H 1.43930 0.07050 0.16900
O4 O 1.5464(3) 0.0918(3) 0.28457(13)
O5 O 1.4557(2) 0.38465(18) 0.4663(1)
O6 O 1.1915(2) 0.41011(19) 0.48444(10)
O7 O 0.9059(3) 0.49249(16) 0.36990(11)
O8 O 0.8112(2) 0.32722(18) 0.41170(11)
C1 C 1.0985(3) 0.1818(2) 0.25680(13)
C2 C 1.2761(3) 0.1832(2) 0.28474(13)
C3 C 1.3347(3) 0.2464(2) 0.34608(13)
H2 H 1.45210 0.24710 0.36480
C4 C 1.2235(3) 0.3088(2) 0.38044(13)
C5 C 1.0469(3) 0.3084(2) 0.35220(13)
C6 C 0.9865(3) 0.2441(2) 0.29139(13)
H3 H 0.86890 0.24240 0.27330
C7 C 1.0193(3) 0.1116(2) 0.19232(13)
C8 C 1.4086(3) 0.1216(3) 0.25153(14)
C9 C 1.2955(3) 0.3732(2) 0.44754(13)
C10 C 0.9154(3) 0.3808(2) 0.38145(12)
N1 N 0.6113(5) 0.4073(4) 0.1619(3)
H4 H 0.67450 0.44960 0.19390
N2 N 0.3922(3) 0.3336(2) 0.08808(13)
C11 C 0.6650(3) 0.3196(3) 0.12372(17)
H5 H 0.77850 0.29440 0.12770
C12 C 0.5331(4) 0.2753(3) 0.08015(17)
H6 H 0.53760 0.21290 0.04870
C13 C 0.4389(5) 0.4161(4) 0.1403(2)
H7 H 0.36580 0.46850 0.15780
C14 C 0.2168(4) 0.2984(3) 0.05386(18)
H8 H 0.16280 0.25560 0.08740
H9 H 0.22380 0.24390 0.01550
C15 C 0.1063(4) 0.4041(3) 0.02593(16)
C16 C 0.0022(4) 0.4587(3) 0.06690(17)
H10 H 0.00400 0.43120 0.11220
C17 C 0.1041(4) 0.4464(3) -0.04098(17)
H11 H 0.17400 0.41110 -0.06870
Cd1A Cd 1.64755(2) -0.503724(16) 0.423025(9)
Cd1A* Cd 1.64755(2) 0.496276(16) 0.423025(9)
Cd1C Cd 1.35245(2) 0.503724(16) 0.576975(9)
Cd1A** Cd 0.64755(2) 0.496276(16) 0.423025(9)
Cd1B Cd 1.14755(2) 0.003724(16) -0.076975(9)
Cd1* Cd 1.85245(2) -0.003724(16) 0.076975(9)
O1A O 1.5566(2) -0.32876(18) 0.36038(10)
O2A O 1.4763(3) -0.49947(17) 0.30703(11)
O3A O 1.1367(3) -0.3929(2) 0.31636(10)
H1A H 1.06070 -0.42950 0.33100
O4A O 0.9536(3) -0.4082(3) 0.21543(13)
O5A O 1.0443(2) -0.11535(18) 0.0337(1)
O5* O 1.4557(2) -0.61535(18) 0.4663(1)
O6A O 1.3085(2) -0.08989(19) 0.01556(10)
O6C O 0.6915(2) 0.08989(19) -0.01556(10)
O6B O 1.8085(2) -0.41011(19) 0.51556(10)
O7A O 1.5941(3) -0.00751(16) 0.13010(11)
O7A* O 0.5941(3) -0.00751(16) 0.13010(11)
O7* O 1.9059(3) -0.50751(16) 0.36990(11)
O8A O 1.6888(2) -0.17278(18) 0.08830(11)
O8A* O 0.6888(2) -0.17278(18) 0.08830(11)
O8* O 1.8112(2) -0.67278(18) 0.41170(11)
C1A C 1.4015(3) -0.3182(2) 0.24320(13)
C2A C 1.2239(3) -0.3168(2) 0.21526(13)
C3A C 1.1653(3) -0.2536(2) 0.15392(13)
H2A H 1.04790 -0.25290 0.13520
C4A C 1.2765(3) -0.1912(2) 0.11956(13)
C5A C 1.4531(3) -0.1916(2) 0.14780(13)
C6A C 1.5135(3) -0.2559(2) 0.20861(13)
H3A H 1.63110 -0.25760 0.22670
C7A C 1.4807(3) -0.3884(2) 0.30768(13)
C8A C 1.0914(3) -0.3784(3) 0.24847(14)
C9A C 1.2045(3) -0.1268(2) 0.05246(13)
C10A C 1.5846(3) -0.1192(2) 0.11855(12)
N1B N -0.6113(5) 0.5927(4) -0.1619(3)
H4B H -0.67450 0.55040 -0.19390
N2B N -0.3922(3) 0.6664(2) -0.08808(13)
C11B C -0.6650(3) 0.6804(3) -0.12372(17)
H5B H -0.77850 0.70560 -0.12770
C12B C -0.5331(4) 0.7247(3) -0.08015(17)
H6B H -0.53760 0.78710 -0.04870
C13B C -0.4389(5) 0.5839(4) -0.1403(2)
H7B H -0.36580 0.53150 -0.15780
C14B C -0.2168(4) 0.7016(3) -0.05386(18)
H8B H -0.16280 0.74440 -0.08740
H9B H -0.22380 0.75610 -0.01550
C15B C -0.1063(4) 0.5959(3) -0.02593(16)
C16B C -0.0022(4) 0.5413(3) -0.06690(17)
H10B H -0.00400 0.56880 -0.11220
C17B C -0.1041(4) 0.5536(3) 0.04098(17)
H11B H -0.17400 0.58890 0.06870
#END
