
#######################################################################
#
#                 Cambridge Crystallographic Data Centre
#                                CCDC
#
#######################################################################
#
# If this CIF has been generated from an entry in the Cambridge
# Structural Database, then it will include bibliographic, chemical,
# crystal, experimental, refinement or atomic coordinate data resulting
# from the CCDC's data processing and validation procedures.
#
#######################################################################

data_CSD_CIF_AGOPUI
_audit_creation_date 2009-01-29
_audit_creation_method CSD-ConQuest-V1
_database_code_CSD AGOPUI
_database_code_depnum_ccdc_archive 'CCDC 675674'
_chemical_formula_sum 'C42 H82 Cu5 Mo10 N28 O58 P4'
_chemical_formula_moiety
;
(C6 H16 Cu1 N4 O4 2+)n,n(C36 H54 Cu4 Mo10 N24 O48 P4 2-),6n(H2 O1)
;
_journal_coden_Cambridge 1147
_journal_volume 8
_journal_year 2008
_journal_page_first 3390
_journal_name_full 'Cryst.Growth Des. '
loop_
_publ_author_name
"J.Thomas"
"A.Ramanan"
_chemical_name_systematic
;
catena-(tetra-aqua-bis(pyrazole-N^2^)-copper 
bis(\m~6~-phosphato)-bis(\m~5~-hydrogen 
phosphato)-hexadecakis(\m~2~-oxo)-dodecakis(pyrazole-N^2^)-tetradecaoxo-diaqua
-deca-molybdenum-tetra-copper(ii) hexahydrate)
;
_cell_volume   2499.543
_exptl_crystal_colour 'blue'
_exptl_crystal_density_diffrn 2.183
_exptl_crystal_description 'Block'
_diffrn_ambient_temperature 273
#These two values have been output from a single CSD field.
_refine_ls_R_factor_gt 0.0565
_refine_ls_wR_factor_gt 0.0565
_symmetry_cell_setting triclinic
_symmetry_space_group_name_H-M 'P -1'
_symmetry_Int_Tables_number 2
loop_
_symmetry_equiv_pos_site_id
_symmetry_equiv_pos_as_xyz
1 x,y,z
2 -x,-y,-z
_cell_length_a 9.187(5)
_cell_length_b 12.409(7)
_cell_length_c 22.099(12)
_cell_angle_alpha 90.640(1)
_cell_angle_beta 94.513(5)
_cell_angle_gamma 95.490(2)
_cell_formula_units_Z 1
loop_
_atom_type_symbol
_atom_type_radius_bond
C 0.68
H 0.23
Cu 1.63
Mo 1.40
N 0.68
O 0.68
P 1.05
loop_
_atom_site_label
_atom_site_type_symbol
_atom_site_fract_x
_atom_site_fract_y
_atom_site_fract_z
Mo1 Mo 0.61738(7) 0.70621(6) 0.36358(3)
Mo2 Mo 0.69038(7) 0.52750(6) 0.23688(3)
Mo3 Mo 0.47086(8) 0.60317(6) 0.11758(3)
Mo4 Mo 0.36202(8) 0.84863(6) 0.15094(3)
Mo5 Mo 0.47636(8) 0.92273(6) 0.29452(3)
P1 P 0.3496(2) 0.64584(17) 0.25567(9)
P2 P 0.7066(2) 0.79174(17) 0.21288(9)
O1 O 0.3424(6) 0.7669(4) 0.2425(2)
O2 O 0.6469(6) 0.5420(4) 0.1505(2)
O3 O 0.5005(5) 0.8277(5) 0.3641(2)
O4 O 0.3208(6) 0.6995(4) 0.1248(2)
O5 O 0.6879(6) 0.5973(4) 0.3137(2)
O6 O 0.5623(6) 0.6384(5) 0.4261(2)
O7 O 0.4047(5) 0.6334(4) 0.3219(2)
O8 O 0.5910(6) 0.7760(4) 0.1586(2)
O9 O 0.4685(6) 0.9484(4) 0.2090(3)
O10 O 0.7973(5) 0.6964(4) 0.2193(2)
O11 O 0.1876(6) 0.8823(5) 0.1511(3)
O12 O 0.6398(6) 0.8096(4) 0.2733(2)
O13 O 0.4212(6) 0.9024(5) 0.0855(3)
O14 O 0.1998(6) 0.5808(4) 0.2440(2)
O15 O 0.7859(6) 0.7697(5) 0.3902(3)
O16 O 0.5883(6) 0.4090(5) 0.2488(3)
O17 O 0.4622(5) 0.5976(4) 0.2166(2)
O18 O 0.5320(7) 0.6416(5) 0.0495(3)
O19 O 0.8649(6) 0.4894(5) 0.2363(3)
O20 O 0.8088(6) 0.8962(4) 0.1994(3)
O21 O 0.5990(7) 1.0286(5) 0.3195(3)
O22 O 0.3102(6) 0.9621(5) 0.3107(3)
O23 O 0.3583(7) 0.4886(5) 0.1029(3)
C1 C 0.7296(8) 0.8678(7) 0.0526(3)
H1 H 0.67550 0.85070 0.08560
C2 C 0.8546(13) 0.8307(9) 0.0442(5)
H2 H 0.90120 0.78270 0.06930
C3 C 0.9055(12) 0.8731(8) -0.0069(5)
H3 H 0.99290 0.86250 -0.02360
C4 C 0.6379(11) 1.1115(8) 0.1163(4)
H4 H 0.67470 1.04920 0.13160
C5 C 0.6373(13) 1.2090(9) 0.1494(5)
H5 H 0.67220 1.22400 0.18950
C6 C 0.5753(13) 1.2749(8) 0.1100(5)
H6 H 0.55900 1.34630 0.11820
C7 C 0.0200(11) 0.3800(8) 0.0593(5)
H7 H 0.10590 0.34570 0.06190
C8 C -0.0894(11) 0.3674(9) 0.0114(4)
H8 H -0.09010 0.32370 -0.02310
C9 C -0.1943(10) 0.4316(9) 0.0251(4)
H9 H -0.28070 0.44060 0.00160
C10 C 0.0652(13) 0.2721(9) 0.1995(6)
H10 H -0.03440 0.26190 0.18720
C11 C 0.1483(17) 0.1923(10) 0.2187(8)
H11 H 0.11700 0.11920 0.22160
C12 C 0.2829(14) 0.2392(9) 0.2326(6)
H12 H 0.36350 0.20500 0.24770
C13 C 0.1509(13) 0.4233(11) 0.3706(5)
H13 H 0.10230 0.43210 0.33280
C14 C 0.1129(14) 0.3486(12) 0.4116(6)
H14 H 0.03700 0.29320 0.40690
C15 C 0.2123(12) 0.3716(10) 0.4632(5)
H15 H 0.21020 0.33580 0.49990
C16 C 0.5982(10) 0.3814(8) 0.3907(4)
H16 H 0.54460 0.42000 0.36250
C17 C 0.6826(12) 0.3022(9) 0.3757(5)
H17 H 0.69810 0.27730 0.33710
C18 C 0.7395(12) 0.2674(9) 0.4306(5)
H18 H 0.80250 0.21340 0.43660
C19 C 0.2437(14) 0.0752(11) 0.4243(6)
H19 H 0.18670 0.06610 0.38760
C20 C 0.3868(15) 0.1172(11) 0.4309(6)
H20 H 0.44430 0.14260 0.40030
C21 C 0.4269(14) 0.1145(11) 0.4887(7)
H21 H 0.52040 0.13630 0.50640
Cu1 Cu 0.50000 1.00000 0.00000
Cu2 Cu 0.08567(11) 0.51007(9) 0.17583(5)
Cu3 Cu 0.50000 0.50000 0.50000
Cu4 Cu 0.00000 0.00000 0.50000
N1 N 0.6887(7) 0.9329(6) 0.0086(3)
N2 N 0.7964(11) 0.9366(8) -0.0287(5)
H22 H 0.79830 0.97310 -0.06160
N3 N 0.5788(8) 1.1210(5) 0.0603(3)
N4 N 0.5406(10) 1.2228(6) 0.0574(4)
H23 H 0.49920 1.25040 0.02580
N5 N -0.0178(8) 0.4484(6) 0.1006(3)
N6 N -0.1497(8) 0.4793(7) 0.0788(3)
H24 H -0.19830 0.52380 0.09710
N7 N 0.1451(8) 0.3651(6) 0.2006(4)
N8 N 0.2816(8) 0.3441(7) 0.2208(4)
H25 H 0.35660 0.39140 0.22550
N9 N 0.3096(8) 0.4535(6) 0.4506(3)
N10 N 0.2710(8) 0.4824(6) 0.3943(3)
H26 H 0.31800 0.53320 0.37540
N11 N 0.6010(8) 0.3972(6) 0.4496(3)
N12 N 0.6876(9) 0.3256(6) 0.4737(3)
H27 H 0.70720 0.31800 0.51200
N13 N 0.1969(9) 0.0488(7) 0.4793(4)
N14 N 0.3131(10) 0.0756(8) 0.5184(5)
H28 H 0.31450 0.06890 0.55720
O24 O 0.2364(6) 0.7671(5) 0.4132(3)
O25 O 0.0272(7) 0.6769(6) 0.3273(3)
O26 O 0.0110(7) 0.9011(6) 0.2960(3)
O27 O -0.1166(9) 0.0295(7) 0.3856(3)
O28 O 0.0169(7) -0.1458(5) 0.4653(3)
H29 H 0.08790 -0.14340 0.44490
O29 O 0.0158(6) 0.6549(5) 0.1525(2)
H30 H -0.03500 0.67530 0.17850
Mo1A Mo 0.38262(7) 1.29379(6) -0.36358(3)
Mo2A Mo 0.30962(7) 1.47250(6) -0.23688(3)
Mo2* Mo -0.30962(7) 0.52750(6) 0.23688(3)
Mo3A Mo 0.52914(8) 1.39683(6) -0.11758(3)
Mo4A Mo 0.63798(8) 1.15137(6) -0.15094(3)
Mo5A Mo 0.52364(8) 1.07727(6) -0.29452(3)
P1A P 0.6504(2) 1.35416(17) -0.25567(9)
P2A P 0.2934(2) 1.20826(17) -0.21288(9)
O1A O 0.6576(6) 1.2331(4) -0.2425(2)
O2A O 0.3531(6) 1.4580(4) -0.1505(2)
O3A O 0.4995(5) 1.1723(5) -0.3641(2)
O4A O 0.6792(6) 1.3005(4) -0.1248(2)
O5A O 0.3121(6) 1.4027(4) -0.3137(2)
O6A O 0.4377(6) 1.3616(5) -0.4261(2)
O6A* O 0.4377(6) 0.3616(5) 0.5739(2)
O7A O 0.5953(5) 1.3666(4) -0.3219(2)
O8A O 0.4090(6) 1.2240(4) -0.1586(2)
O9A O 0.5315(6) 1.0516(4) -0.2090(3)
O10A O 0.2027(5) 1.3036(4) -0.2193(2)
O11A O 0.8124(6) 1.1177(5) -0.1511(3)
O12A O 0.3602(6) 1.1904(4) -0.2733(2)
O13A O 0.5788(6) 1.0976(5) -0.0855(3)
O14A O 0.8002(6) 1.4192(4) -0.2440(2)
O15A O 0.2141(6) 1.2303(5) -0.3902(3)
O16A O 0.4117(6) 1.5910(5) -0.2488(3)
O17A O 0.5378(5) 1.4024(4) -0.2166(2)
O18A O 0.4680(7) 1.3584(5) -0.0495(3)
O19* O -0.1351(6) 0.4894(5) 0.2363(3)
O19A O 0.1351(6) 1.5106(5) -0.2363(3)
O19A* O 1.1351(6) 1.5106(5) -0.2363(3)
O20A O 0.1912(6) 1.1038(4) -0.1994(3)
O21A O 0.4010(7) 0.9714(5) -0.3195(3)
O22A O 0.6898(6) 1.0379(5) -0.3107(3)
O23A O 0.6417(7) 1.5114(5) -0.1029(3)
C1A C 0.2704(8) 1.1322(7) -0.0526(3)
H1A H 0.32450 1.14930 -0.08560
C2A C 0.1454(13) 1.1693(9) -0.0442(5)
H2A H 0.09880 1.21730 -0.06930
C3A C 0.0945(12) 1.1269(8) 0.0069(5)
H3A H 0.00710 1.13750 0.02360
C4A C 0.3621(11) 0.8885(8) -0.1163(4)
H4A H 0.32530 0.95080 -0.13160
C5A C 0.3627(13) 0.7910(9) -0.1494(5)
H5A H 0.32780 0.77600 -0.18950
C6A C 0.4247(13) 0.7251(8) -0.1100(5)
H6A H 0.44100 0.65370 -0.11820
C7A C 0.9800(11) 1.6200(8) -0.0593(5)
H7A H 0.89410 1.65430 -0.06190
C8A C 1.0894(11) 1.6326(9) -0.0114(4)
H8A H 1.09010 1.67630 0.02310
C9A C 1.1943(10) 1.5684(9) -0.0251(4)
H9A H 1.28070 1.55940 -0.00160
C10A C 0.9348(13) 1.7279(9) -0.1995(6)
H10A H 1.03440 1.73810 -0.18720
C11A C 0.8517(17) 1.8077(10) -0.2187(8)
H11A H 0.88300 1.88080 -0.22160
C12A C 0.7171(14) 1.7608(9) -0.2326(6)
H12A H 0.63650 1.79500 -0.24770
C13A C 0.8491(13) 0.5767(11) 0.6294(5)
H13A H 0.89770 0.56790 0.66720
C14A C 0.8871(14) 0.6514(12) 0.5884(6)
H14A H 0.96300 0.70680 0.59310
C15A C 0.7877(12) 0.6284(10) 0.5368(5)
H15A H 0.78980 0.66420 0.50010
C16A C 0.4018(10) 0.6186(8) 0.6093(4)
H16A H 0.45540 0.58000 0.63750
C17A C 0.3174(12) 0.6978(9) 0.6243(5)
H17A H 0.30190 0.72270 0.66290
C18A C 0.2605(12) 0.7326(9) 0.5694(5)
H18A H 0.19750 0.78660 0.56340
C19A C -0.2437(14) -0.0752(11) 0.5757(6)
H19A H -0.18670 -0.06610 0.61240
C20A C -0.3868(15) -0.1172(11) 0.5691(6)
H20A H -0.44430 -0.14260 0.59970
C21A C -0.4269(14) -0.1145(11) 0.5113(7)
H21A H -0.52040 -0.13630 0.49360
Cu2A Cu 0.91433(11) 1.48993(9) -0.17583(5)
Cu2* Cu 1.08567(11) 0.51007(9) 0.17583(5)
Cu3* Cu 0.50000 1.50000 -0.50000
N1A N 0.3113(7) 1.0671(6) -0.0086(3)
N2A N 0.2036(11) 1.0634(8) 0.0287(5)
H22A H 0.20170 1.02690 0.06160
N3A N 0.4212(8) 0.8790(5) -0.0603(3)
N4A N 0.4594(10) 0.7772(6) -0.0574(4)
H23A H 0.50080 0.74960 -0.02580
N5A N 1.0178(8) 1.5516(6) -0.1006(3)
N6A N 1.1497(8) 1.5207(7) -0.0788(3)
H24A H 1.19830 1.47620 -0.09710
N7A N 0.8549(8) 1.6349(6) -0.2006(4)
N8A N 0.7184(8) 1.6559(7) -0.2208(4)
H25A H 0.64340 1.60860 -0.22550
N9A N 0.6904(8) 0.5465(6) 0.5494(3)
N10A N 0.7290(8) 0.5176(6) 0.6057(3)
H26A H 0.68200 0.46680 0.62460
N11A N 0.3990(8) 0.6028(6) 0.5504(3)
N12A N 0.3124(9) 0.6744(6) 0.5263(3)
H27A H 0.29280 0.68200 0.48800
N13A N -0.1969(9) -0.0488(7) 0.5207(4)
N14A N -0.3131(10) -0.0756(8) 0.4816(5)
H28A H -0.31450 -0.06890 0.44280
O27A O 0.1166(9) -0.0295(7) 0.6144(3)
O28A O -0.0169(7) 0.1458(5) 0.5347(3)
H29A H -0.08790 0.14340 0.55510
O29A O 0.9842(6) 1.3451(5) -0.1525(2)
H30A H 1.03500 1.32470 -0.17850
#END
