
#######################################################################
#
#                 Cambridge Crystallographic Data Centre
#                                CCDC
#
#######################################################################
#
# If this CIF has been generated from an entry in the Cambridge
# Structural Database, then it will include bibliographic, chemical,
# crystal, experimental, refinement or atomic coordinate data resulting
# from the CCDC's data processing and validation procedures.
#
#######################################################################

data_CSD_CIF_AHAMAY
_audit_creation_date 2010-08-24
_audit_creation_method CSD-ConQuest-V1
_database_code_CSD AHAMAY
_database_code_depnum_ccdc_archive 'CCDC 627194'
_chemical_formula_sum 'C18 H48 N2 O58 P8 Zn10'
_chemical_formula_moiety
;
(C16 H26 O52 P8 Zn10 2-)n,n(C2 H10 N2 2+),6n(H2 O1)
;
_journal_coden_Cambridge 29
_journal_volume 635
_journal_year 2009
_journal_page_first 2617
_journal_name_full 'Z.Anorg.Allg.Chem. '
loop_
_publ_author_name
"Xin Lu"
"Jing Li"
"Zhen-Gang Sun"
"Da-Peng Dong"
"Rui-Nian Hua"
"Na Zhang"
"Lei Liu"
"Fei Tong"
"Wei-Nan Wang"
_chemical_name_systematic
;
catena-(Ethylenediammonium 
tetrakis(\m~5~-2-hydroxyphosphonoacetato)-bis(\m~4~-2-hydroxyphosphonoacetato)
-bis(\m~3~-hydrogen 2-hydroxyphosphonoacetato)-tetra-aqua-deca-zinc 
hexahydrate)
;
_cell_volume   1387.489
_exptl_crystal_colour 'colorless'
_exptl_crystal_density_diffrn 2.54
_exptl_crystal_description 'block'
_diffrn_ambient_temperature 295
#These two values have been output from a single CSD field.
_refine_ls_R_factor_gt 0.0305
_refine_ls_wR_factor_gt 0.0305
_symmetry_cell_setting triclinic
_symmetry_space_group_name_H-M 'P -1'
_symmetry_Int_Tables_number 2
loop_
_symmetry_equiv_pos_site_id
_symmetry_equiv_pos_as_xyz
1 x,y,z
2 -x,-y,-z
_cell_length_a 10.2492(7)
_cell_length_b 11.0716(8)
_cell_length_c 12.8991(9)
_cell_angle_alpha 92.518(1)
_cell_angle_beta 95.255(1)
_cell_angle_gamma 107.331(1)
_cell_formula_units_Z 1
loop_
_atom_type_symbol
_atom_type_radius_bond
C 0.68
H 0.23
N 0.68
O 0.68
P 1.05
Zn 1.27
loop_
_atom_site_label
_atom_site_type_symbol
_atom_site_fract_x
_atom_site_fract_y
_atom_site_fract_z
Zn1 Zn -0.38450(4) 0.84909(4) -0.33020(3)
Zn2 Zn -0.02123(4) 0.71857(4) -0.01049(3)
Zn3 Zn -0.61741(4) 0.64828(4) -0.67462(3)
Zn4 Zn -0.07575(4) 0.55982(3) -0.58725(3)
Zn5 Zn 0.08008(4) 0.94119(3) -0.41643(3)
P1 P -0.15643(9) 0.91635(8) -0.12223(7)
P2 P 0.15804(8) 0.56979(8) 0.11577(6)
P3 P -0.22323(8) 0.77120(7) -0.52085(6)
P4 P -0.77685(8) 0.72693(7) -0.48200(6)
O1 O -0.2778(2) 0.8438(2) -0.19744(19)
O2 O -0.1694(3) 1.0471(2) -0.0821(2)
H1 H -0.24880 1.04780 -0.09590
O3 O -0.1302(2) 0.8444(2) -0.02977(18)
O4 O -0.0144(3) 1.0196(2) -0.28114(19)
H2 H 0.00340 1.09600 -0.26650
O5 O 0.0640(3) 0.7717(3) -0.1469(2)
O6 O 0.0349(2) 0.8069(2) -0.31235(18)
O7 O 0.1330(2) 0.6454(2) 0.02454(18)
O8 O 0.2840(2) 0.6443(2) 0.18836(19)
O9 O 0.1672(2) 0.4395(2) 0.07985(19)
O10 O 0.0211(3) 0.4828(2) 0.28328(18)
H3 H 0.00350 0.40600 0.27090
O11 O -0.0295(2) 0.6958(2) 0.30860(18)
O12 O -0.0555(3) 0.7275(2) 0.14248(19)
O13 O -0.1779(2) 0.6542(2) -0.50480(18)
O14 O -0.1019(2) 0.8935(2) -0.51336(17)
O15 O -0.3327(2) 0.7785(2) -0.45265(19)
O16 O -0.4151(2) 0.6387(2) -0.6734(2)
H4 H -0.41120 0.60280 -0.72950
O17 O -0.2822(2) 0.9733(2) -0.67449(19)
O18 O -0.4927(2) 0.8365(2) -0.69473(19)
O19 O -0.8982(2) 0.6058(2) -0.48641(17)
O20 O -0.8209(2) 0.8444(2) -0.49920(17)
O21 O -0.6691(2) 0.7165(2) -0.5504(2)
O22 O -0.5837(2) 0.8599(2) -0.3286(2)
H5 H -0.61400 0.92050 -0.32610
O23 O -0.7231(2) 0.5276(2) -0.31995(19)
O24 O -0.5113(2) 0.6614(2) -0.30144(18)
O25 O -0.3184(3) 1.0368(2) -0.3462(2)
H6 H -0.35790 1.05280 -0.40240
H7 H -0.33780 1.07630 -0.29460
O26 O -0.6780(3) 0.4624(2) -0.6493(2)
H8 H -0.76520 0.43650 -0.65200
H9 H -0.65210 0.42090 -0.69610
C1 C 0.0000(3) 0.9574(3) -0.1881(3)
H10 H 0.07570 1.01350 -0.14020
C2 C 0.0358(3) 0.8371(3) -0.2175(3)
C3 C 0.0052(3) 0.5409(3) 0.1877(2)
H11 H -0.07340 0.48360 0.14320
C4 C -0.0287(3) 0.6630(3) 0.2143(3)
C5 C -0.3050(3) 0.7547(3) -0.6562(3)
H12 H -0.23680 0.75470 -0.70470
C6 C -0.3645(3) 0.8628(3) -0.6766(2)
C7 C -0.6954(3) 0.7448(3) -0.3468(3)
H13 H -0.76400 0.74750 -0.29940
C8 C -0.6395(3) 0.6367(3) -0.3215(2)
O27 O -0.4078(4) 1.0905(4) -0.1100(3)
H14 H -0.45950 1.08830 -0.06180
H15 H -0.35650 1.16610 -0.11290
O28 O -0.3523(4) 0.8022(4) 0.0877(3)
H16 H -0.36900 0.77090 0.14590
H17 H -0.33490 0.88230 0.09520
O29 O -0.6274(4) 0.7754(5) -0.0882(3)
H18 H -0.66920 0.75520 -0.03460
H19 H -0.62100 0.85190 -0.09930
N1 N -0.4142(3) 0.6186(3) -0.0907(3)
H20 H -0.43800 0.62940 -0.15690
H21 H -0.33340 0.60350 -0.08530
H22 H -0.40770 0.68840 -0.05100
C9 C -0.5194(4) 0.5099(4) -0.0557(3)
H23 H -0.52770 0.43400 -0.09950
H24 H -0.60780 0.52580 -0.06210
Zn1A Zn 0.38450(4) 1.15091(4) -0.66980(3)
Zn1* Zn 0.61550(4) 0.84909(4) -0.33020(3)
Zn2A Zn 0.02123(4) 1.28143(4) -0.98951(3)
Zn2A* Zn 0.02123(4) 0.28143(4) 0.01049(3)
Zn3* Zn 0.38259(4) 0.64828(4) 0.32538(3)
Zn3A Zn -0.38259(4) 0.35172(4) -0.32538(3)
Zn3** Zn 0.38259(4) 0.64828(4) -0.67462(3)
Zn3A* Zn 0.61741(4) 1.35172(4) -0.32538(3)
Zn4* Zn -1.07575(4) 0.55982(3) -0.58725(3)
Zn4** Zn -0.07575(4) 0.55982(3) 0.41275(3)
Zn4A Zn -0.92425(4) 0.44018(3) -0.41275(3)
Zn4A* Zn 0.07575(4) 0.44018(3) -0.41275(3)
Zn4A** Zn 0.07575(4) 1.44018(3) -0.41275(3)
Zn5A Zn -0.08008(4) 1.05881(3) -0.58357(3)
Zn5* Zn -0.91992(4) 0.94119(3) -0.41643(3)
P1A P 0.15643(9) 1.08365(8) -0.87777(7)
P2A P -0.15804(8) 0.43021(8) -0.11577(6)
P3A P 0.22323(8) 1.22880(7) -0.47915(6)
P4* P 0.22315(8) 0.72693(7) -0.48200(6)
O1A O 0.2778(2) 1.1562(2) -0.80256(19)
O2A O 0.1694(3) 0.9529(2) -0.9179(2)
H1A H 0.24880 0.95220 -0.90410
O3A O 0.1302(2) 1.1556(2) -0.97023(18)
O4A O 0.0144(3) 0.9804(2) -0.71886(19)
H2A H -0.00340 0.90400 -0.73350
O5A O -0.0640(3) 1.2283(3) -0.8531(2)
O6A O -0.0349(2) 1.1931(2) -0.68765(18)
O7A O -0.1330(2) 0.3546(2) -0.02454(18)
O7A* O -0.1330(2) 1.3546(2) -1.02454(18)
O8A O -0.2840(2) 0.3557(2) -0.18836(19)
O8* O -0.7160(2) 0.6443(2) -0.81164(19)
O9A O -0.1672(2) 0.5605(2) -0.07985(19)
O9* O 0.1672(2) 1.4395(2) -0.92015(19)
O10A O -0.0211(3) 0.5172(2) -0.28328(18)
O10* O 0.0211(3) 0.4828(2) -0.71672(18)
O10** O -0.9789(3) 0.4828(2) -0.71672(18)
H3A H -0.00350 0.59400 -0.27090
H3* H 0.00350 0.40600 -0.72910
H3** H -0.99650 0.40600 -0.72910
O11A O 0.0295(2) 0.3042(2) -0.30860(18)
O11* O -0.0295(2) 0.6958(2) -0.69140(18)
O11** O -1.0295(2) 0.6958(2) -0.69140(18)
O12A O 0.0555(3) 0.2725(2) -0.14248(19)
O12A* O 0.0555(3) 1.2725(2) -1.14248(19)
O13A O 0.1779(2) 1.3458(2) -0.49520(18)
O13* O -1.1779(2) 0.6542(2) -0.50480(18)
O14A O 0.1019(2) 1.1065(2) -0.48664(17)
O15A O 0.3327(2) 1.2215(2) -0.54735(19)
O16A O 0.4151(2) 1.3613(2) -0.3266(2)
O16* O 0.5849(2) 0.6387(2) 0.3266(2)
H4A H 0.41120 1.39720 -0.27050
H4* H 0.58880 0.60280 0.27050
O17A O 0.2822(2) 1.0267(2) -0.32551(19)
O18A O 0.4927(2) 1.1635(2) -0.30527(19)
O18* O 0.5073(2) 0.8365(2) 0.30527(19)
O19* O 0.1018(2) 0.6058(2) -0.48641(17)
O19A O -0.1018(2) 0.3942(2) -0.51359(17)
O19A* O -1.1018(2) 0.3942(2) -0.51359(17)
O20* O 0.1791(2) 0.8444(2) -0.49920(17)
O20A O -0.1791(2) 1.1556(2) -0.50080(17)
O21* O 0.3309(2) 0.7165(2) -0.5504(2)
O21** O 0.3309(2) 0.7165(2) 0.4496(2)
O22* O 0.4163(2) 0.8599(2) -0.3286(2)
O22A O 0.5837(2) 1.1401(2) -0.6714(2)
H5* H 0.38600 0.92050 -0.32610
H5A H 0.61400 1.07950 -0.67390
O23* O 0.2769(2) 0.5276(2) -0.31995(19)
O23A O -0.2769(2) 0.4724(2) -0.68005(19)
O23A* O -1.2769(2) 0.4724(2) -0.68005(19)
O24* O 0.4887(2) 0.6614(2) -0.30144(18)
O24A O 0.5113(2) 1.3386(2) -0.69856(18)
O25A O 0.3184(3) 0.9632(2) -0.6538(2)
H6A H 0.35790 0.94720 -0.59760
H7A H 0.33780 0.92370 -0.70540
O26* O 0.3220(3) 0.4624(2) 0.3507(2)
H8* H 0.23480 0.43650 0.34800
H9* H 0.34790 0.42090 0.30390
C1A C 0.0000(3) 1.0426(3) -0.8119(3)
H10A H -0.07570 0.98650 -0.85980
C2A C -0.0358(3) 1.1629(3) -0.7825(3)
C3A C -0.0052(3) 0.4591(3) -0.1877(2)
H11A H 0.07340 0.51640 -0.14320
C4A C 0.0287(3) 0.3370(3) -0.2143(3)
C5A C 0.3050(3) 1.2453(3) -0.3438(3)
H12A H 0.23680 1.24530 -0.29530
C6A C 0.3645(3) 1.1372(3) -0.3234(2)
C7* C 0.3046(3) 0.7448(3) -0.3468(3)
H13* H 0.23600 0.74750 -0.29940
C8* C 0.3605(3) 0.6367(3) -0.3215(2)
N1A N -0.5858(3) 0.3814(3) 0.0907(3)
H20A H -0.56200 0.37060 0.15690
H21A H -0.66660 0.39650 0.08530
H22A H -0.59230 0.31160 0.05100
C9A C -0.4806(4) 0.4901(4) 0.0557(3)
H23A H -0.47230 0.56600 0.09950
H24A H -0.39220 0.47420 0.06210
#END
