
#######################################################################
#
#                 Cambridge Crystallographic Data Centre
#                                CCDC
#
#######################################################################
#
# If this CIF has been generated from an entry in the Cambridge
# Structural Database, then it will include bibliographic, chemical,
# crystal, experimental, refinement or atomic coordinate data resulting
# from the CCDC's data processing and validation procedures.
#
#######################################################################

data_CSD_CIF_AHEDOI
_audit_creation_date 2015-07-24
_audit_creation_method CSD-ConQuest-V1
_database_code_CSD AHEDOI
_database_code_depnum_ccdc_archive 'CCDC 999046'
_chemical_formula_sum 'C46 H67 Cl7 Cu4 N2 O16'
_chemical_formula_moiety
;
C27 H37 N2 1+,(C16 H24 Cl1 Cu4 O16 1-)n,3(C1 H2 Cl2)
;
_journal_coeditor_code "su5152"
_journal_coden_Cambridge 1828
_journal_volume 71
_journal_year 2015
_journal_page_first m148
_journal_name_full 'Acta Crystallogr.,Sect.E:Cryst.Commun. '
loop_
_publ_author_name
"M.Iqbal"
"J.Raftery"
"P.Quayle"
_chemical_name_systematic
;
catena-[1,3-bis(2,6-diisopropylphenyl)-1H-imidazol-3-ium 
bis(\m~3~-acetato)-hexakis(\m~2~-acetato)-(\m~2~-chloro)-tetra-copper(ii) 
dichloromethane solvate]
;
_cell_volume   6103.461
_exptl_crystal_colour 'blue'
_exptl_crystal_density_diffrn 1.53
_exptl_crystal_description 'block'
_diffrn_ambient_temperature 100
#These two values have been output from a single CSD field.
_refine_ls_R_factor_gt 0.0539
_refine_ls_wR_factor_gt 0.0539
_symmetry_cell_setting monoclinic
_symmetry_space_group_name_H-M 'C 2/c'
_symmetry_Int_Tables_number 15
loop_
_symmetry_equiv_pos_site_id
_symmetry_equiv_pos_as_xyz
1 x,y,z
2 -x,y,1/2-z
3 1/2+x,1/2+y,z
4 1/2-x,1/2+y,1/2-z
5 -x,-y,-z
6 x,-y,-1/2+z
7 -1/2-x,-1/2-y,-z
8 -1/2+x,-1/2-y,-1/2+z
_cell_length_a 22.097(2)
_cell_length_b 13.146(2)
_cell_length_c 23.607(3)
_cell_angle_alpha 90
_cell_angle_beta 117.122(4)
_cell_angle_gamma 90
_cell_formula_units_Z 4
loop_
_atom_type_symbol
_atom_type_radius_bond
C 0.68
H 0.23
Cl 0.99
Cu 1.32
N 0.68
O 0.68
loop_
_atom_site_label
_atom_site_type_symbol
_atom_site_fract_x
_atom_site_fract_y
_atom_site_fract_z
Cu1 Cu 0.11018(2) 0.34481(3) 0.34274(2)
Cu2 Cu 0.22901(2) 0.32446(3) 0.44052(2)
Cl1 Cl 0.00000 0.36569(9) 0.25000
O1 O 0.15907(12) 0.45167(19) 0.32111(12)
O2 O 0.26294(13) 0.4197(2) 0.39901(12)
O3 O 0.09345(12) 0.4383(2) 0.39834(12)
O4 O 0.19967(13) 0.43484(19) 0.47704(12)
O5 O 0.08495(12) 0.23045(19) 0.38354(12)
O6 O 0.18267(11) 0.22502(18) 0.47165(11)
O7 O 0.14402(13) 0.24162(19) 0.30413(12)
O8 O 0.24153(12) 0.2136(2) 0.39190(12)
C1 C 0.2223(2) 0.4655(3) 0.34956(18)
C2 C 0.2526(2) 0.5414(3) 0.32215(19)
H1 H 0.21610 0.57730 0.28660
H2 H 0.28130 0.50590 0.30680
H3 H 0.28020 0.59050 0.35510
C3 C 0.1390(2) 0.4647(3) 0.45198(18)
C4 C 0.1181(2) 0.5375(3) 0.4893(2)
H4 H 0.09650 0.59740 0.46320
H5 H 0.15830 0.55860 0.52800
H6 H 0.08590 0.50370 0.50110
C5 C 0.12274(18) 0.1946(3) 0.43727(17)
C6 C 0.09553(18) 0.1106(3) 0.46205(17)
H7 H 0.05570 0.13510 0.46600
H8 H 0.13070 0.08890 0.50390
H9 H 0.08230 0.05300 0.43250
C7 C 0.19844(19) 0.1934(3) 0.33588(18)
C8 C 0.2120(2) 0.1034(3) 0.30460(19)
H10 H 0.26080 0.08840 0.32540
H11 H 0.19710 0.11830 0.25950
H12 H 0.18690 0.04440 0.30840
N1 N 0.45188(14) 0.2152(2) 0.25127(13)
C9 C 0.38905(18) 0.2530(3) 0.24934(18)
C10 C 0.33835(18) 0.2839(3) 0.19043(18)
C11 C 0.27799(19) 0.3182(3) 0.18894(18)
H13 H 0.24170 0.33960 0.14970
C12 C 0.27022(19) 0.3217(3) 0.24336(19)
H14 H 0.22840 0.34470 0.24120
C13 C 0.32230(19) 0.2922(3) 0.30130(19)
H15 H 0.31620 0.29660 0.33850
C14 C 0.38368(18) 0.2560(3) 0.30584(18)
C15 C 0.34523(19) 0.2799(3) 0.12880(18)
H16 H 0.39230 0.25590 0.14000
C16 C 0.3369(2) 0.3836(3) 0.09913(19)
H17 H 0.29010 0.40730 0.08490
H18 H 0.34660 0.37980 0.06260
H19 H 0.36850 0.43130 0.13060
C17 C 0.2957(2) 0.2034(3) 0.0823(2)
H20 H 0.30100 0.20230 0.04330
H21 H 0.24910 0.22300 0.07200
H22 H 0.30520 0.13560 0.10170
C18 C 0.44195(19) 0.2267(3) 0.36975(18)
H23 H 0.46910 0.17250 0.36210
C19 C 0.4890(2) 0.3180(3) 0.4002(2)
H24 H 0.46290 0.37370 0.40600
H25 H 0.50840 0.34060 0.37240
H26 H 0.52570 0.29800 0.44160
C20 C 0.4180(2) 0.1848(3) 0.41638(19)
H27 H 0.38660 0.12810 0.39650
H28 H 0.39470 0.23860 0.42770
H29 H 0.45730 0.16080 0.45490
C21 C 0.46971(17) 0.1151(3) 0.25048(16)
H30 H 0.44420 0.05700 0.25060
C22 C 0.50000 0.2738(4) 0.25000
H31 H 0.50000 0.34600 0.25000
Cl2 Cl 0.08838(7) 0.23037(12) 0.10086(7)
Cl3 Cl 0.09648(6) 0.43818(10) 0.14520(6)
C23 C 0.0688(2) 0.3145(4) 0.1482(2)
H32 H 0.01900 0.31500 0.13320
H33 H 0.09070 0.29030 0.19290
Cl4 Cl 0.03361(6) 0.02638(9) 0.20944(6)
C24 C 0.00000 0.1022(4) 0.25000
H34 H -0.03630 0.14650 0.21910
H35? H -0.03630 0.14650 0.21910
Cu1A Cu -0.11018(2) 0.34481(3) 0.15726(2)
Cu2A Cu -0.22901(2) 0.32446(3) 0.05948(2)
O1A O -0.15907(12) 0.45167(19) 0.17889(12)
O2A O -0.26294(13) 0.4197(2) 0.10099(12)
O3A O -0.09345(12) 0.4383(2) 0.10166(12)
O4A O -0.19967(13) 0.43484(19) 0.02296(12)
O5A O -0.08495(12) 0.23045(19) 0.11646(12)
O6A O -0.18267(11) 0.22502(18) 0.02835(11)
O7A O -0.14402(13) 0.24162(19) 0.19587(12)
O8A O -0.24153(12) 0.2136(2) 0.10810(12)
C1A C -0.2223(2) 0.4655(3) 0.15044(18)
C2A C -0.2526(2) 0.5414(3) 0.17785(19)
H1A H -0.21610 0.57730 0.21340
H2A H -0.28130 0.50590 0.19320
H3A H -0.28020 0.59050 0.14490
C3A C -0.1390(2) 0.4647(3) 0.04802(18)
C4A C -0.1181(2) 0.5375(3) 0.0107(2)
H4A H -0.09650 0.59740 0.03680
H5A H -0.15830 0.55860 -0.02800
H6A H -0.08590 0.50370 -0.00110
C5A C -0.12274(18) 0.1946(3) 0.06273(17)
C6A C -0.09553(18) 0.1106(3) 0.03795(17)
H7A H -0.05570 0.13510 0.03400
H8A H -0.13070 0.08890 -0.00390
H9A H -0.08230 0.05300 0.06750
C7A C -0.19844(19) 0.1934(3) 0.16412(18)
C8A C -0.2120(2) 0.1034(3) 0.19540(19)
H10A H -0.26080 0.08840 0.17460
H11A H -0.19710 0.11830 0.24050
H12A H -0.18690 0.04440 0.19160
Cu2F Cu 0.27099(2) 0.17554(3) 0.55948(2)
Cu2G Cu -0.27099(2) 0.17554(3) -0.05948(2)
O6F O 0.31733(11) 0.27498(18) 0.52835(11)
O6G O -0.31733(11) 0.27498(18) -0.02835(11)
N1A N 0.54812(14) 0.2152(2) 0.24873(13)
C9A C 0.61095(18) 0.2530(3) 0.25066(18)
C10A C 0.66165(18) 0.2839(3) 0.30957(18)
C11A C 0.72201(19) 0.3182(3) 0.31106(18)
H13A H 0.75830 0.33960 0.35030
C12A C 0.72978(19) 0.3217(3) 0.25664(19)
H14A H 0.77160 0.34470 0.25880
C13A C 0.67770(19) 0.2922(3) 0.19870(19)
H15A H 0.68380 0.29660 0.16150
C14A C 0.61632(18) 0.2560(3) 0.19416(18)
C15A C 0.65477(19) 0.2799(3) 0.37120(18)
H16A H 0.60770 0.25590 0.36000
C16A C 0.6631(2) 0.3836(3) 0.40087(19)
H17A H 0.70990 0.40730 0.41510
H18A H 0.65340 0.37980 0.43740
H19A H 0.63150 0.43130 0.36940
C17A C 0.7043(2) 0.2034(3) 0.4177(2)
H20A H 0.69900 0.20230 0.45670
H21A H 0.75090 0.22300 0.42800
H22A H 0.69480 0.13560 0.39830
C18A C 0.55805(19) 0.2267(3) 0.13025(18)
H23A H 0.53090 0.17250 0.13790
C19A C 0.5110(2) 0.3180(3) 0.0998(2)
H24A H 0.53710 0.37370 0.09400
H25A H 0.49160 0.34060 0.12760
H26A H 0.47430 0.29800 0.05840
C20A C 0.5820(2) 0.1848(3) 0.08362(19)
H27A H 0.61340 0.12810 0.10350
H28A H 0.60530 0.23860 0.07230
H29A H 0.54270 0.16080 0.04510
C21A C 0.53029(17) 0.1151(3) 0.24952(16)
H30A H 0.55580 0.05700 0.24940
H34A H 0.03630 0.14650 0.28090
Cl4A Cl -0.03361(6) 0.02638(9) 0.29056(6)
#END
