
#######################################################################
#
#                 Cambridge Crystallographic Data Centre
#                                CCDC
#
#######################################################################
#
# If this CIF has been generated from an entry in the Cambridge
# Structural Database, then it will include bibliographic, chemical,
# crystal, experimental, refinement or atomic coordinate data resulting
# from the CCDC's data processing and validation procedures.
#
#######################################################################

data_CSD_CIF_AHEHAY
_audit_creation_date 2015-07-24
_audit_creation_method CSD-ConQuest-V1
_database_code_CSD AHEHAY
_database_code_depnum_ccdc_archive 'CCDC 1414877'
_chemical_formula_sum 'C10 H22 Cl2 Ho1 N9 S2'
_chemical_formula_moiety
;
(C4 H6 Cl2 Ho1 N8 S2 1-)n,C6 H16 N1 1+
;
_journal_coden_Cambridge 1078
_journal_year 2015
_journal_name_full 'CSD Communication(Private Communication) '
loop_
_publ_author_name
"K.Muller Buschbaum"
"N.Dannenbauer"
_chemical_name_systematic
;
catena-[triethylammonium 
(\m-3-amino-1H-1,2,4-triazole-5-thiolato)-(3-amino-1H-1,2,4-triazole-5-thiolat
o)-dichloro-holmium]
;
_cell_volume   1904.715
_exptl_crystal_colour 'light colorless'
_exptl_crystal_density_diffrn 1.982
_exptl_special_details
;
Air-sensitive, Moisture-sensitive

;
_exptl_crystal_description 'block'
_diffrn_ambient_temperature 100
_diffrn_special_details
;
twin

;
#These two values have been output from a single CSD field.
_refine_ls_R_factor_gt 0.0193
_refine_ls_wR_factor_gt 0.0193
_symmetry_cell_setting monoclinic
_symmetry_space_group_name_H-M 'P 21/c'
_symmetry_Int_Tables_number 14
loop_
_symmetry_equiv_pos_site_id
_symmetry_equiv_pos_as_xyz
1 x,y,z
2 -x,1/2+y,1/2-z
3 -x,-y,-z
4 x,-1/2-y,-1/2+z
_cell_length_a 13.026(3)
_cell_length_b 9.901(2)
_cell_length_c 14.842(3)
_cell_angle_alpha 90
_cell_angle_beta 95.70(3)
_cell_angle_gamma 90
_cell_formula_units_Z 4
loop_
_atom_type_symbol
_atom_type_radius_bond
C 0.68
H 0.23
Cl 0.99
Ho 1.92
N 0.68
S 1.02
loop_
_atom_site_label
_atom_site_type_symbol
_atom_site_fract_x
_atom_site_fract_y
_atom_site_fract_z
Ho1 Ho 0.303900(7) 0.703051(10) 0.231867(8)
Cl1 Cl 0.33498(5) 0.67443(7) 0.05918(4)
S1 S 0.39596(5) 0.61416(7) 0.40610(4)
Cl2 Cl 0.17084(5) 0.50806(6) 0.21652(5)
S2 S 0.18738(5) 0.86123(7) 0.34619(4)
N1 N 0.44781(15) 0.5449(2) 0.24297(17)
N2 N 0.56696(16) 0.3804(2) 0.26853(15)
N3 N 0.18619(17) 0.8732(2) 0.16550(15)
N4 N 0.04217(17) 0.9909(3) 0.11663(15)
N5 N 0.05356(18) 0.9784(3) 0.21076(18)
N6 N 0.1478(2) 0.9166(3) 0.00672(17)
C1 C 0.12446(19) 0.9253(3) 0.09336(18)
C2 C 0.1382(2) 0.9082(3) 0.23852(17)
N7 N 0.53312(17) 0.4263(2) 0.34923(17)
C3 C 0.5124(2) 0.4565(3) 0.20665(18)
C4 C 0.46268(18) 0.5232(2) 0.33318(19)
N8 N 0.5220(2) 0.4521(3) 0.11725(18)
H1 H 0.103(3) 0.930(3) -0.034(2)
H2 H 0.482(3) 0.488(4) 0.089(2)
H3 H 0.551(3) 0.399(4) 0.392(3)
H4 H 0.557(3) 0.391(4) 0.096(3)
H5 H 0.188(3) 0.863(4) -0.004(2)
H6 H 0.010(3) 0.996(5) 0.237(3)
N9 N 0.20476(19) 1.1710(3) 0.45256(17)
C5 C 0.1048(2) 1.1960(3) 0.4936(2)
H7 H 0.1072(2) 1.1498(3) 0.5529(2)
H8 H 0.0969(2) 1.2940(3) 0.5040(2)
C6 C 0.2954(2) 1.1739(3) 0.5236(2)
H9 H 0.2855(2) 1.1034(3) 0.5693(2)
H10 H 0.3585(2) 1.1510(3) 0.4949(2)
C7 C 0.2167(2) 1.2646(3) 0.3744(2)
H11 H 0.1526(2) 1.2628(3) 0.3325(2)
H12 H 0.2266(2) 1.3580(3) 0.3975(2)
C8 C 0.0129(2) 1.1454(3) 0.4330(2)
H13 H 0.0051(11) 1.1990(16) 0.3773(7)
H14 H 0.0235(9) 1.0504(8) 0.4180(13)
H15 H -0.0494(4) 1.154(2) 0.4645(7)
C9 C 0.3114(3) 1.3074(3) 0.5711(2)
H16 H 0.323(2) 1.3777(6) 0.5267(4)
H17 H 0.2501(9) 1.3299(13) 0.6014(15)
H18 H 0.3716(13) 1.3017(9) 0.6161(13)
C10 C 0.3070(2) 1.2260(3) 0.3231(3)
H19 H 0.3714(3) 1.237(3) 0.3624(6)
H20 H 0.3000(11) 1.1315(8) 0.3038(15)
H21 H 0.3082(12) 1.2842(18) 0.2697(10)
H22 H 0.203(3) 1.086(4) 0.427(3)
Ho1A Ho 0.696100(7) 0.203051(10) 0.268133(8)
N2A N 0.43304(16) 0.8804(2) 0.23147(15)
#END
