
#######################################################################
#
#                 Cambridge Crystallographic Data Centre
#                                CCDC
#
#######################################################################
#
# If this CIF has been generated from an entry in the Cambridge
# Structural Database, then it will include bibliographic, chemical,
# crystal, experimental, refinement or atomic coordinate data resulting
# from the CCDC's data processing and validation procedures.
#
#######################################################################

data_CSD_CIF_AHEHEC
_audit_creation_date 2015-07-24
_audit_creation_method CSD-ConQuest-V1
_database_code_CSD AHEHEC
_database_code_depnum_ccdc_archive 'CCDC 1414878'
_chemical_formula_sum 'C10 H22 Cl2 Er1 N9 S2'
_chemical_formula_moiety
;
(C4 H6 Cl2 Er1 N8 S2 1-)n,C6 H16 N1 1+
;
_journal_coden_Cambridge 1078
_journal_year 2015
_journal_name_full 'CSD Communication(Private Communication) '
loop_
_publ_author_name
"K.Muller Buschbaum"
"N.Dannenbauer"
_chemical_name_systematic
;
catena-[triethylammonium 
(\m-3-amino-1H-1,2,4-triazole-5-thiolato)-(3-amino-1H-1,2,4-triazole-5-thiolat
o)-dichloro-erbium]
;
_cell_volume   1895.941
_exptl_crystal_colour 'light colorless'
_exptl_crystal_density_diffrn 1.999
_exptl_special_details
;
Air-sensitive, Moisture-sensitive

;
_exptl_crystal_description 'block'
_diffrn_ambient_temperature 100
_diffrn_special_details
;
twin

;
#These two values have been output from a single CSD field.
_refine_ls_R_factor_gt 0.0201
_refine_ls_wR_factor_gt 0.0201
_symmetry_cell_setting monoclinic
_symmetry_space_group_name_H-M 'P 21/c'
_symmetry_Int_Tables_number 14
loop_
_symmetry_equiv_pos_site_id
_symmetry_equiv_pos_as_xyz
1 x,y,z
2 -x,1/2+y,1/2-z
3 -x,-y,-z
4 x,-1/2-y,-1/2+z
_cell_length_a 12.969(3)
_cell_length_b 9.892(2)
_cell_length_c 14.856(3)
_cell_angle_alpha 90
_cell_angle_beta 95.85(3)
_cell_angle_gamma 90
_cell_formula_units_Z 4
loop_
_atom_type_symbol
_atom_type_radius_bond
C 0.68
H 0.23
Cl 0.99
Er 1.89
N 0.68
S 1.02
loop_
_atom_site_label
_atom_site_type_symbol
_atom_site_fract_x
_atom_site_fract_y
_atom_site_fract_z
Er1 Er 0.30429(2) 0.29743(2) 0.23174(2)
Cl1 Cl 0.33508(6) 0.32627(7) 0.05966(5)
S1 S 0.39602(6) 0.38603(8) 0.40591(5)
Cl2 Cl 0.17079(5) 0.49129(7) 0.21647(7)
S2 S 0.18865(6) 0.14012(8) 0.34589(5)
N1 N 0.44800(17) 0.4550(2) 0.24279(19)
N2 N 0.5333(2) 0.5749(3) 0.3492(2)
N3 N 0.1863(2) 0.1283(3) 0.16540(17)
N4 N 0.0543(2) 0.0215(3) 0.2107(2)
N5 N 0.1480(2) 0.0850(3) 0.0063(2)
C1 C 0.1389(2) 0.0924(3) 0.2382(2)
C2 C 0.4633(2) 0.4771(3) 0.3333(2)
C3 C 0.1244(2) 0.0759(3) 0.0936(2)
N6 N 0.56708(19) 0.6207(2) 0.26864(17)
N7 N 0.5219(2) 0.5475(3) 0.1172(2)
N8 N 0.0426(2) 0.0092(3) 0.11650(19)
C4 C 0.5128(2) 0.5437(3) 0.2068(2)
H1 H 0.190(3) 0.139(4) -0.004(2)
H2 H 0.103(3) 0.076(4) -0.031(3)
H3 H 0.550(3) 0.608(5) 0.393(3)
H4 H 0.554(3) 0.599(4) 0.099(3)
H5 H 0.480(3) 0.502(4) 0.082(3)
H6 H 0.007(4) -0.001(5) 0.241(3)
N9 N 0.2055(3) 0.6715(3) -0.0473(2)
C5 C 0.1044(3) 0.6951(4) -0.0067(3)
H7 H 0.10700 0.64870 0.05250
H8 H 0.09580 0.79310 0.00380
C6 C 0.2957(3) 0.6747(4) 0.0236(3)
H9 H 0.28620 0.60350 0.06880
H10 H 0.35940 0.65300 -0.00490
C7 C 0.0136(3) 0.6442(4) -0.0668(3)
H11 H 0.00560 0.69760 -0.12270
H12 H -0.04920 0.65240 -0.03570
H13 H 0.02470 0.54910 -0.08160
C8 C 0.2166(3) 0.7668(4) -0.1248(3)
H14 H 0.22770 0.85980 -0.10120
H15 H 0.15190 0.76630 -0.16640
C9 C 0.3104(4) 0.8070(4) 0.0713(3)
H16 H 0.32220 0.87800 0.02740
H17 H 0.37050 0.80150 0.11690
H18 H 0.24830 0.82860 0.10100
C10 C 0.3073(3) 0.7261(4) -0.1767(3)
H19 H 0.30910 0.78480 -0.22970
H20 H 0.29880 0.63190 -0.19650
H21 H 0.37220 0.73570 -0.13730
H22 H 0.193(4) 0.575(5) -0.076(4)
Er1A Er 0.69571(2) 0.79743(2) 0.26826(2)
N6A N 0.43292(19) 0.1207(2) 0.23136(17)
#END
