
#######################################################################
#
#                 Cambridge Crystallographic Data Centre
#                                CCDC
#
#######################################################################
#
# If this CIF has been generated from an entry in the Cambridge
# Structural Database, then it will include bibliographic, chemical,
# crystal, experimental, refinement or atomic coordinate data resulting
# from the CCDC's data processing and validation procedures.
#
#######################################################################

data_CSD_CIF_AHEZEV
_audit_creation_date 2020-04-30
_audit_creation_method CSD-ConQuest-V1
_database_code_CSD AHEZEV
_database_code_depnum_ccdc_archive 'CCDC 1988082'
_chemical_formula_sum 'C48 H63 Bi2 N11 O26'
_chemical_formula_moiety
;
(C32 H10 Bi2 N4 O24 4-)n,4n(C2 H8 N1 1+),n(C2 H7 N1),2n(C3 H7 N1 O1)
;
_journal_coden_Cambridge 580
_journal_volume 184
_journal_year 2020
_journal_page_first 114564
_journal_name_full 'Polyhedron '
loop_
_publ_author_name
"L.Senior"
"Anthony Linden"
_chemical_name_systematic
;
catena-(tetrakis(dimethylammonium) 
bis(\m-pyridine-2,4,6-tricarboxylato)-(\m-hydrogen 
pyridine-2,4,6-tricarboxylato)-(hydrogen 
pyridine-2,4,6-tricarboxylato)-di-bismuth dimethylamine dimethylformamide 
solvate)
;
_cell_volume  11614.508
_exptl_crystal_colour 'colorless'
_exptl_crystal_density_diffrn 1.83
_exptl_crystal_description 'needle'
_exptl_crystal_preparation 'Re-crystallisation from solvent'
_diffrn_ambient_temperature 160
_refine_special_details
;
C17,C18,C19,C20,C21,C22,C23,C24,C25,C26,C27,C28,C29,C30,C31,C32,N3,N4,O13,O14,
O15,O16,O17,O18,O19,O20,O21,O22,O23,O24 and 
C17A,C18A,C19A,C20A,C21A,C22A,C23A,C24A,C25A,C26A,C27A,C28A,C29A,C30A,C31A,C32
A,N3A,N4A,O13A,O14A,O15A,O16A,O17A,O18A,O19A,O20A,O21A,O22A,O23A,O24A 
disordered over two sites with occupancies 0.540:0.460. The SQUEEZE/PLATON 
program was used to model one of the cations and the neutral dimethylamine 
molecule.
;
#These two values have been output from a single CSD field.
_refine_ls_R_factor_gt 0.0702
_refine_ls_wR_factor_gt 0.0702
_symmetry_cell_setting monoclinic
_symmetry_space_group_name_H-M 'I 2/a'
_symmetry_Int_Tables_number 15
loop_
_symmetry_equiv_pos_site_id
_symmetry_equiv_pos_as_xyz
1 x,y,z
2 1/2-x,y,-z
3 1/2+x,1/2+y,1/2+z
4 -x,1/2+y,1/2-z
5 -x,-y,-z
6 -1/2+x,-y,z
7 -1/2-x,-1/2-y,-1/2-z
8 x,-1/2-y,-1/2+z
_cell_length_a 20.8376(3)
_cell_length_b 9.5592(1)
_cell_length_c 58.5817(8)
_cell_angle_alpha 90
_cell_angle_beta 95.536(1)
_cell_angle_gamma 90
_cell_formula_units_Z 8
loop_
_atom_type_symbol
_atom_type_radius_bond
C 0.68
H 0.23
Bi 1.48
N 0.68
O 0.68
loop_
_atom_site_label
_atom_site_type_symbol
_atom_site_fract_x
_atom_site_fract_y
_atom_site_fract_z
Bi1 Bi 0.59941(2) -0.50908(3) 0.66373(2)
O1 O 0.5102(3) -0.5495(6) 0.68820(12)
O2 O 0.4391(3) -0.7025(7) 0.69989(14)
O3 O 0.5297(4) -1.2186(7) 0.70656(13)
O4 O 0.5809(3) -1.2676(6) 0.67547(14)
O5 O 0.7284(4) -0.8677(8) 0.65456(18)
O6 O 0.6831(3) -0.6557(7) 0.65422(14)
O7 O 0.6266(4) -0.4090(9) 0.62446(13)
O8 O 0.6779(5) -0.2471(10) 0.60631(15)
O9 O 0.8728(4) -0.0437(8) 0.65174(15)
H1 H 0.89901 0.02334 0.65297
O10 O 0.8617(3) 0.0001(7) 0.68864(14)
O11 O 0.7330(4) -0.4118(11) 0.72249(14)
O12 O 0.6554(3) -0.5031(6) 0.69837(11)
N1 N 0.5877(4) -0.7509(7) 0.67701(13)
N2 N 0.6976(4) -0.3626(7) 0.66352(14)
C1 C 0.5364(4) -0.7907(8) 0.68721(15)
C2 C 0.5244(5) -0.9324(8) 0.69142(15)
H2 H 0.48730 -0.95956 0.69858
C3 C 0.5672(4) -1.0312(9) 0.68498(16)
C4 C 0.6203(5) -0.9875(9) 0.67442(17)
H3 H 0.65027 -1.05394 0.66971
C5 C 0.6294(4) -0.8454(9) 0.67075(18)
C6 C 0.6850(5) -0.7866(10) 0.65889(19)
C7 C 0.4899(4) -0.6752(9) 0.69228(17)
C8 C 0.5580(4) -1.1858(9) 0.68984(17)
C9 C 0.7282(4) -0.3415(9) 0.68372(16)
C10 C 0.7774(4) -0.2449(9) 0.68704(18)
H4 H 0.79842 -0.22852 0.70191
C11 C 0.7956(4) -0.1713(9) 0.66792(19)
C12 C 0.7622(5) -0.1957(10) 0.64687(18)
H5 H 0.77385 -0.14814 0.63363
C13 C 0.7110(4) -0.2909(9) 0.64510(16)
C14 C 0.6689(5) -0.3186(12) 0.62299(19)
C15 C 0.7049(4) -0.4251(10) 0.70333(16)
C16 C 0.8476(5) -0.0603(11) 0.6709(2)
Bi2 Bi 0.53939(2) -0.38862(4) 0.59120(2)
O13 O 0.5652(6) -0.2281(8) 0.56030(13)
O14 O 0.6045(8) -0.0170(12) 0.5522(2)
O15 O 0.4904(7) 0.3747(10) 0.5981(2)
O16 O 0.5147(7) 0.3433(10) 0.6345(2)
O17 O 0.4459(9) -0.166(1) 0.6497(2)
O18 O 0.5021(5) -0.3261(8) 0.62896(12)
O19 O 0.4252(3) -0.3256(14) 0.5810(2)
O20 O 0.3411(6) -0.351(2) 0.5573(3)
O21 O 0.3681(10) -0.671(2) 0.4860(3)
O22 O 0.4505(11) -0.8280(19) 0.4899(3)
O23 O 0.6410(8) -0.666(2) 0.5436(3)
O24 O 0.6194(5) -0.5245(13) 0.5718(2)
N3 N 0.5315(4) -0.1353(7) 0.60111(13)
C17 C 0.5056(4) -0.0906(8) 0.61981(15)
C18 C 0.5006(6) 0.0508(7) 0.62459(17)
H6 H 0.48200 0.08025 0.63798
C19 C 0.5227(6) 0.1492(8) 0.60982(16)
C20 C 0.5493(6) 0.1003(8) 0.59057(18)
H7 H 0.56504 0.16458 0.58007
C21 C 0.5531(5) -0.0422(8) 0.58658(16)
N4 N 0.4956(5) -0.497(1) 0.55441(13)
C22 C 0.5318(6) -0.5840(13) 0.54327(19)
C23 C 0.5063(7) -0.6548(14) 0.52380(19)
H8 H 0.53276 -0.71630 0.51605
C24 C 0.4423(7) -0.6356(14) 0.51569(19)
C25 C 0.4058(7) -0.5447(13) 0.52759(19)
H9 H 0.36176 -0.52914 0.52248
C26 C 0.4337(6) -0.4766(10) 0.54695(16)
C27 C 0.5814(7) -0.1014(10) 0.5661(2)
C28 C 0.4828(7) -0.2039(9) 0.63479(19)
C29 C 0.5183(10) 0.3034(9) 0.61422(18)
C30 C 0.4011(7) -0.3757(17) 0.5616(2)
C31 C 0.6001(6) -0.5958(19) 0.5537(3)
C32 C 0.4211(9) -0.7184(19) 0.4946(3)
O25? O 0.5759(6) -0.2286(8) 0.56203(15)
O26? O 0.5613(10) -0.0188(13) 0.5450(2)
O27? O 0.5224(9) 0.3812(10) 0.5971(2)
O28? O 0.5363(9) 0.3423(11) 0.6336(2)
O29? O 0.4554(10) -0.1645(11) 0.6523(3)
O30? O 0.4816(5) -0.3276(8) 0.62507(14)
O31? O 0.4286(4) -0.3446(15) 0.5738(2)
O32? O 0.3578(7) -0.384(2) 0.5454(3)
O33? O 0.4324(11) -0.704(2) 0.4799(3)
O34? O 0.5256(11) -0.826(2) 0.4874(3)
O35? O 0.6728(8) -0.661(2) 0.5541(4)
O36? O 0.6334(4) -0.5144(13) 0.5784(2)
N5? N 0.5185(4) -0.1363(8) 0.59884(13)
C33? C 0.5004(5) -0.0919(8) 0.61896(16)
C34? C 0.4992(6) 0.0490(8) 0.62436(19)
H10? H 0.48611 0.07795 0.63872
C35? C 0.5170(7) 0.1478(8) 0.60885(18)
C36? C 0.5355(7) 0.0994(8) 0.58815(19)
H11? H 0.54794 0.16393 0.57706
C37? C 0.5359(5) -0.0426(9) 0.58361(17)
N6? N 0.5176(6) -0.5083(10) 0.55365(14)
C38? C 0.5623(6) -0.5902(14) 0.54564(19)
C39? C 0.5489(8) -0.6674(15) 0.5257(2)
H12? H 0.58125 -0.72519 0.52024
C40? C 0.4883(8) -0.6602(14) 0.51376(19)
C41? C 0.4429(7) -0.5744(14) 0.52245(19)
H13? H 0.40083 -0.56699 0.51469
C42? C 0.4588(6) -0.4995(11) 0.54247(17)
C43? C 0.5554(8) -0.1016(11) 0.5616(2)
C44? C 0.4817(7) -0.2056(10) 0.63471(19)
C45? C 0.5165(11) 0.3016(9) 0.6139(2)
C46? C 0.4155(7) -0.4029(19) 0.5540(3)
C47? C 0.6258(7) -0.589(2) 0.5600(3)
C48? C 0.4804(9) -0.749(2) 0.4925(3)
O37 O 0.6106(4) -0.7295(8) 0.73942(15)
N7 N 0.6876(4) -0.8826(9) 0.73099(16)
C49 C 0.6624(6) -0.7554(11) 0.7320(2)
H14 H 0.68605 -0.67921 0.72667
C50 C 0.7487(6) -0.9057(16) 0.7210(3)
H15 H 0.76791 -0.81526 0.71764
H16 H 0.74048 -0.95928 0.70671
H17 H 0.77835 -0.95790 0.73181
C51 C 0.6564(6) -1.0044(12) 0.7390(2)
H18 H 0.61098 -1.00459 0.73280
H19 H 0.65918 -1.00317 0.75579
H20 H 0.67763 -1.08858 0.73385
N8 N 0.4068(5) -0.3821(10) 0.6767(2)
H21 H 0.42099 -0.30233 0.67034
H22 H 0.44214 -0.43180 0.68227
C52 C 0.3697(7) -0.3428(16) 0.6963(3)
H23 H 0.33056 -0.29219 0.69051
H24 H 0.39633 -0.28292 0.70697
H25 H 0.35775 -0.42767 0.70428
C53 C 0.3715(8) -0.4629(19) 0.6589(3)
H26 H 0.40071 -0.49229 0.64769
H27 H 0.33673 -0.40581 0.65134
H28 H 0.35315 -0.54574 0.66573
N9 N 0.5640(4) -0.4448(8) 0.73657(14)
H29 H 0.55657 -0.39256 0.72360
H30 H 0.58401 -0.52501 0.73280
C54 C 0.6081(6) -0.3654(13) 0.7536(2)
H31 H 0.65009 -0.35346 0.74769
H32 H 0.61353 -0.41747 0.76811
H33 H 0.58938 -0.27345 0.75628
C55 C 0.5020(6) -0.4805(12) 0.7450(2)
H34 H 0.47378 -0.52363 0.73264
H35 H 0.48167 -0.39535 0.75024
H36 H 0.50920 -0.54633 0.75784
Bi1* Bi 0.59941(2) -1.50908(3) 0.66373(2)
Bi1** Bi 0.59941(2) 0.49092(3) 0.66373(2)
O4* O 0.5809(3) -0.2676(6) 0.67547(14)
Bi2* Bi 0.53939(2) 0.61138(4) 0.59120(2)
O15* O 0.4904(7) -0.6253(10) 0.5981(2)
O16* O 0.5147(7) -0.6567(10) 0.6345(2)
#END
