
#######################################################################
#
#                 Cambridge Crystallographic Data Centre
#                                CCDC
#
#######################################################################
#
# If this CIF has been generated from an entry in the Cambridge
# Structural Database, then it will include bibliographic, chemical,
# crystal, experimental, refinement or atomic coordinate data resulting
# from the CCDC's data processing and validation procedures.
#
#######################################################################

data_CSD_CIF_AHEZAR
_audit_creation_date 2020-04-30
_audit_creation_method CSD-ConQuest-V1
_database_code_CSD AHEZAR
_database_code_depnum_ccdc_archive 'CCDC 1988081'
_chemical_formula_sum 'C36 H31 Bi1 N10 O12'
_chemical_formula_moiety
;
(C16 H4 Bi1 N2 O12 3-)n,3n(C5 H7 N2 1+),n(C5 H6 N2)
;
_journal_coden_Cambridge 580
_journal_volume 184
_journal_year 2020
_journal_page_first 114564
_journal_name_full 'Polyhedron '
loop_
_publ_author_name
"L.Senior"
"Anthony Linden"
_chemical_name_systematic
;
catena-(tris(4-aminopyridinium) bis(\m-pyridine-2,4,6-tricarboxylato)-bismuth 
4-aminopyridine)
;
_cell_volume   3592.583
_exptl_crystal_colour 'colorless'
_exptl_crystal_density_diffrn 1.858
_exptl_crystal_description 'needle'
_exptl_crystal_preparation 'Re-crystallisation from solvent'
_diffrn_ambient_temperature 160
_refine_special_details
;
C14,C15,C16,C17,C18,N4,N5 and C14A,C15A,C16A,C17A,C18A,N4A,N5A disordered 
over two sites with occupancies 0.779:0.221; H4 and H4A disordered over two 
sites with occupancies 0.390:0.110.
;
#These two values have been output from a single CSD field.
_refine_ls_R_factor_gt 0.0902
_refine_ls_wR_factor_gt 0.0902
_symmetry_cell_setting monoclinic
_symmetry_space_group_name_H-M 'I 2/a'
_symmetry_Int_Tables_number 15
loop_
_symmetry_equiv_pos_site_id
_symmetry_equiv_pos_as_xyz
1 x,y,z
2 1/2-x,y,-z
3 1/2+x,1/2+y,1/2+z
4 -x,1/2+y,1/2-z
5 -x,-y,-z
6 -1/2+x,-y,z
7 -1/2-x,-1/2-y,-1/2-z
8 x,-1/2-y,-1/2+z
_cell_length_a 17.2134(3)
_cell_length_b 11.5660(3)
_cell_length_c 18.0478(4)
_cell_angle_alpha 90
_cell_angle_beta 91.009(2)
_cell_angle_gamma 90
_cell_formula_units_Z 4
loop_
_atom_type_symbol
_atom_type_radius_bond
C 0.68
H 0.23
Bi 1.48
N 0.68
O 0.68
loop_
_atom_site_label
_atom_site_type_symbol
_atom_site_fract_x
_atom_site_fract_y
_atom_site_fract_z
Bi1 Bi 0.75000 0.48667(5) 0.50000
O1 O 0.6746(5) 0.4161(7) 0.3917(5)
O2 O 0.5685(6) 0.4214(10) 0.3206(5)
O3 O 0.3753(5) 0.8000(8) 0.4979(6)
O4 O 0.3413(4) 0.6429(7) 0.4334(4)
O5 O 0.6368(5) 0.7581(8) 0.6372(5)
O6 O 0.7200(5) 0.6319(7) 0.5910(5)
N1 N 0.6229(5) 0.5833(7) 0.4792(5)
C1 C 0.5761(6) 0.5485(9) 0.4237(6)
C2 C 0.4992(6) 0.5895(8) 0.4169(6)
H1 H 0.46618 0.56434 0.37738
C3 C 0.4729(6) 0.6671(9) 0.4689(6)
C4 C 0.5236(6) 0.7046(8) 0.5264(6)
H2 H 0.50727 0.75986 0.56183
C5 C 0.5976(6) 0.6586(9) 0.5296(5)
C6 C 0.6070(7) 0.4562(10) 0.3723(7)
C7 C 0.3882(6) 0.7089(9) 0.4678(6)
C8 C 0.6554(6) 0.6885(9) 0.5916(6)
N2 N 0.7999(7) 0.3025(9) 0.1647(6)
H3 H 0.81527 0.23633 0.14590
N3 N 0.7262(6) 0.6068(8) 0.2513(6)
H4 H 0.74233 0.62980 0.29540
H5 H 0.69395 0.65025 0.22506
C9 C 0.7515(7) 0.3684(11) 0.1261(7)
H6 H 0.73544 0.34488 0.07774
C10 C 0.7242(7) 0.4692(10) 0.1540(6)
H7 H 0.68759 0.51391 0.12635
C11 C 0.7504(7) 0.5073(9) 0.2243(6)
C12 C 0.8019(7) 0.4339(10) 0.2635(6)
H8 H 0.81963 0.45435 0.31189
C13 C 0.8262(7) 0.3343(10) 0.2321(7)
H9 H 0.86229 0.28637 0.25810
N4 N 0.3377(12) 1.0589(19) 0.5164(8)
H10 H 0.29831 1.10504 0.50587
H11 H 0.34753 0.99968 0.48745
C14 C 0.3823(9) 1.0789(13) 0.5761(6)
C15 C 0.3666(9) 1.1726(14) 0.6217(8)
H12 H 0.32445 1.22279 0.60992
C16 C 0.4124(11) 1.1928(15) 0.6845(8)
H13 H 0.40168 1.25682 0.71567
N5 N 0.4741(10) 1.1193(17) 0.7017(7)
C17 C 0.4898(9) 1.0257(16) 0.6562(9)
H14 H 0.53192 0.97545 0.66793
C18 C 0.4439(10) 1.0054(13) 0.5933(8)
H15 H 0.45469 0.94142 0.56218
N6? N 0.343(3) 1.166(5) 0.583(3)
H16? H 0.31337 1.21253 0.60897
H17? H 0.33442 1.15661 0.53553
C19? C 0.403(3) 1.112(4) 0.617(2)
C20? C 0.417(3) 1.127(5) 0.692(2)
H18? H 0.38469 1.17771 0.71969
C21? C 0.478(4) 1.069(6) 0.727(2)
H19? H 0.48734 1.07956 0.77862
N7? N 0.524(3) 0.995(5) 0.687(3)
H20? H 0.56307 0.95808 0.70885
C22? C 0.510(3) 0.979(5) 0.611(3)
H21? H 0.54231 0.92890 0.58368
C23? C 0.449(3) 1.038(5) 0.576(2)
H22? H 0.43966 1.02705 0.52475
H23? H 0.50311 1.13214 0.74151
O1A O 0.8254(5) 0.4161(7) 0.6083(5)
O2A O 0.9315(6) 0.4214(10) 0.6794(5)
O3A O 1.1247(5) 0.8000(8) 0.5021(6)
O4A O 1.1587(4) 0.6429(7) 0.5666(4)
O5A O 0.8632(5) 0.7581(8) 0.3628(5)
O6A O 0.7800(5) 0.6319(7) 0.4090(5)
N1A N 0.8771(5) 0.5833(7) 0.5208(5)
C1A C 0.9239(6) 0.5485(9) 0.5763(6)
C2A C 1.0008(6) 0.5895(8) 0.5831(6)
H1A H 1.03382 0.56434 0.62262
C3A C 1.0271(6) 0.6671(9) 0.5311(6)
C4A C 0.9764(6) 0.7046(8) 0.4736(6)
H2A H 0.99273 0.75986 0.43817
C5A C 0.9024(6) 0.6586(9) 0.4704(5)
C6A C 0.8930(7) 0.4562(10) 0.6277(7)
C7A C 1.1118(6) 0.7089(9) 0.5322(6)
C8A C 0.8446(6) 0.6885(9) 0.4084(6)
Bi1D Bi 0.25000 0.51333(5) 0.50000
Bi1D* Bi 1.25000 0.51333(5) 0.50000
O4D O 0.6587(4) 0.3571(7) 0.5666(4)
O4E O 0.8413(4) 0.3571(7) 0.4334(4)
#END
