
#######################################################################
#
#                 Cambridge Crystallographic Data Centre
#                                CCDC
#
#######################################################################
#
# If this CIF has been generated from an entry in the Cambridge
# Structural Database, then it will include bibliographic, chemical,
# crystal, experimental, refinement or atomic coordinate data resulting
# from the CCDC's data processing and validation procedures.
#
#######################################################################

data_CSD_CIF_AHIPEN
_audit_creation_date 2010-03-08
_audit_creation_method CSD-ConQuest-V1
_database_code_CSD AHIPEN
_database_code_depnum_ccdc_archive 'CCDC 736390'
_chemical_formula_sum 'C70 H64 F72 K4 Ni2 O20'
_chemical_formula_moiety
;
(C44 H24 F72 K3 Ni2 O14 1-)n,n(C12 H24 K1 O6 1+),2n(C7 H8)
;
_journal_coden_Cambridge 9
_journal_volume 48
_journal_year 2009
_journal_page_first 4274
_journal_name_full 'Inorg.Chem. '
loop_
_publ_author_name
"BingNa Zheng"
"M.O.Miranda"
"A.G.DiPasquale"
"J.A.Golen"
"A.L.Rheingold"
"L.H.Doerrer"
_chemical_name_systematic
;
catena-((18-Crown-6)-potassium 
bis(\m~4~-perfluoro-t-butoxo-F,F',F'',O,O)-bis(\m~3~-perfluoro-t-butoxo-F,F',O
,O)-bis(\m~2~-perfluoro-t-butoxo-F,O,O)-bis(\m~2~-perfluoro-t-butoxo-F,O)-(18-
crown-6)-di-nickel-tri-potassium toluene solvate)
;
_cell_volume   5518.808
_exptl_crystal_colour 'pale purple'
_exptl_crystal_density_diffrn 1.725
_exptl_crystal_description 'block'
_diffrn_ambient_temperature 100
#These two values have been output from a single CSD field.
_refine_ls_R_factor_gt 0.0459
_refine_ls_wR_factor_gt 0.0459
_symmetry_cell_setting monoclinic
_symmetry_space_group_name_H-M 'P 21/c'
_symmetry_Int_Tables_number 14
loop_
_symmetry_equiv_pos_site_id
_symmetry_equiv_pos_as_xyz
1 x,y,z
2 -x,1/2+y,1/2-z
3 -x,-y,-z
4 x,-1/2-y,-1/2+z
_cell_length_a 15.3130(15)
_cell_length_b 13.3096(13)
_cell_length_c 27.783(3)
_cell_angle_alpha 90
_cell_angle_beta 102.933(1)
_cell_angle_gamma 90
_cell_formula_units_Z 2
loop_
_atom_type_symbol
_atom_type_radius_bond
C 0.68
H 0.23
F 0.86
K 1.91
Ni 0.93
O 0.68
loop_
_atom_site_label
_atom_site_type_symbol
_atom_site_fract_x
_atom_site_fract_y
_atom_site_fract_z
Ni1 Ni -0.17155(3) 0.50255(3) 0.248127(13)
K1 K 0.50000 0.50000 0.50000
K2 K 0.00000 0.50000 0.00000
K3 K -0.03528(5) 0.68599(5) 0.24181(2)
F1 F -0.13759(16) 0.38811(16) 0.07932(7)
F2 F -0.24247(14) 0.45405(16) 0.10932(8)
F3 F -0.16902(13) 0.32730(13) 0.14533(7)
F4 F -0.00539(17) 0.52814(15) 0.09489(8)
F5 F -0.13368(17) 0.60084(16) 0.08686(7)
F6 F -0.02380(15) 0.64347(14) 0.14555(7)
F7 F 0.05767(13) 0.48782(14) 0.20038(7)
F8 F -0.02704(13) 0.36875(13) 0.21669(6)
F9 F 0.02220(14) 0.36271(14) 0.15029(7)
F10 F -0.38600(19) 0.5935(2) 0.26210(14)
F11 F -0.3037(2) 0.6747(2) 0.32203(10)
F12 F -0.40658(17) 0.75193(19) 0.26997(10)
F13 F -0.22816(16) 0.84002(16) 0.29464(8)
F14 F -0.31183(13) 0.87494(14) 0.22391(7)
F15 F -0.17465(15) 0.82938(14) 0.23047(9)
F16 F -0.2725(2) 0.71719(19) 0.15742(8)
F17 F -0.32548(16) 0.57982(17) 0.17875(10)
F18 F -0.40357(17) 0.71524(19) 0.17368(10)
F19 F 0.13537(13) 0.50977(15) 0.34082(7)
F20 F 0.10204(14) 0.57658(14) 0.40488(6)
F21 F 0.06740(13) 0.65147(13) 0.33464(7)
F22 F -0.07911(13) 0.34732(13) 0.36066(6)
F23 F 0.02832(14) 0.34514(13) 0.32217(6)
F24 F 0.05593(13) 0.37959(13) 0.39965(6)
F25 F -0.05936(14) 0.52467(14) 0.42129(6)
F26 F -0.08176(14) 0.65221(13) 0.37192(7)
F27 F -0.16685(13) 0.52225(14) 0.35621(7)
F28 F -0.41094(15) 0.22543(18) 0.20245(8)
F29 F -0.33829(17) 0.3322(2) 0.16870(8)
F30 F -0.42166(15) 0.38400(18) 0.21623(8)
F31 F -0.22599(14) 0.17844(16) 0.21009(7)
F32 F -0.28147(16) 0.12696(15) 0.26999(9)
F33 F -0.15502(13) 0.20220(16) 0.28445(7)
F34 F -0.33836(16) 0.40982(16) 0.31171(8)
F35 F -0.25778(15) 0.28522(17) 0.34252(7)
F36 F -0.39261(15) 0.26108(18) 0.30163(8)
O1 O -0.12903(14) 0.53511(15) 0.18796(7)
O2 O -0.20056(14) 0.64372(15) 0.25723(7)
O3 O -0.05289(14) 0.51824(14) 0.29316(7)
O4 O -0.22364(18) 0.37765(18) 0.25315(11)
O5 O 0.09325(15) 0.33132(16) 0.04019(8)
O6 O 0.17804(16) 0.52015(16) 0.05655(8)
O7 O 0.06615(15) 0.68930(16) 0.03181(8)
O8 O 0.61555(15) 0.33682(15) 0.50198(7)
O9 O 0.49652(15) 0.39117(16) 0.41412(7)
O10 O 0.40739(15) 0.57681(16) 0.40944(7)
C1 C -0.0937(2) 0.4860(2) 0.15452(10)
C2 C -0.1615(2) 0.4127(2) 0.12206(12)
C3 C -0.0648(3) 0.5650(2) 0.11996(12)
C4 C -0.0091(2) 0.4249(2) 0.18001(12)
C5 C -0.2757(2) 0.6993(2) 0.24188(12)
C6 C -0.3438(3) 0.6798(3) 0.27460(19)
C7 C -0.2483(2) 0.8122(2) 0.24777(12)
C8 C -0.3198(3) 0.6788(3) 0.18706(16)
C9 C -0.0200(2) 0.5067(2) 0.34233(10)
C10 C 0.0718(2) 0.5611(2) 0.35610(11)
C11 C -0.0037(2) 0.3934(2) 0.35663(10)
C12 C -0.0822(2) 0.5517(2) 0.37336(11)
C13 C -0.2828(2) 0.3061(2) 0.25510(11)
C14 C -0.3647(3) 0.3109(3) 0.20986(14)
C15 C -0.2367(2) 0.2024(2) 0.25526(12)
C16 C -0.3186(3) 0.3156(3) 0.30299(13)
C17 C 0.0719(2) 0.2423(2) 0.01104(12)
H1 H 0.10090 0.18340 0.02970
H2 H 0.09430 0.24830 -0.01960
C18 C 0.1874(2) 0.3418(3) 0.05937(14)
H3 H 0.21890 0.34470 0.03190
H4 H 0.21050 0.28340 0.08040
C19 C 0.2038(2) 0.4361(3) 0.08896(13)
H5 H 0.16840 0.43560 0.11470
H6 H 0.26800 0.44130 0.10540
C20 C 0.1960(2) 0.6132(3) 0.08196(12)
H7 H 0.26130 0.62100 0.09500
H8 H 0.16610 0.61500 0.11010
C21 C 0.1614(2) 0.6969(3) 0.04649(13)
H9 H 0.17840 0.76260 0.06250
H10 H 0.18790 0.69190 0.01720
C22 C -0.0273(2) 0.2285(2) -0.00149(12)
H11 H -0.05030 0.22670 0.02910
H12 H -0.04290 0.16440 -0.01940
C23 C 0.6439(3) 0.2873(3) 0.54862(12)
H13 H 0.69550 0.24280 0.54810
H14 H 0.59450 0.24570 0.55550
C24 C 0.5896(2) 0.2681(2) 0.46204(11)
H15 H 0.53560 0.23050 0.46560
H16 H 0.63840 0.21930 0.46210
C25 C 0.5700(2) 0.3263(2) 0.41448(11)
H17 H 0.62330 0.36610 0.41160
H18 H 0.55550 0.27960 0.38610
C26 C 0.4730(2) 0.4489(2) 0.36938(11)
H19 H 0.46350 0.40380 0.34030
H20 H 0.52190 0.49630 0.36740
C27 C 0.3884(2) 0.5059(2) 0.36981(11)
H21 H 0.36730 0.54130 0.33800
H22 H 0.34090 0.45900 0.37450
C28 C 0.6701(2) 0.3661(3) 0.58772(12)
H23 H 0.71640 0.41070 0.57940
H24 H 0.69540 0.33400 0.62000
C29 C 0.2757(3) 0.1150(3) -0.02487(13)
H25 H 0.23900 0.09430 -0.05550
C30 C 0.3335(3) 0.1936(3) -0.02358(15)
H26 H 0.33770 0.22620 -0.05340
C31 C 0.3858(3) 0.2262(3) 0.02070(15)
H27 H 0.42510 0.28160 0.02140
C32 C 0.3807(3) 0.1781(3) 0.06389(14)
H28 H 0.41690 0.20030 0.09440
C33 C 0.3228(2) 0.0971(3) 0.06289(13)
H29 H 0.31960 0.06400 0.09270
C34 C 0.2699(2) 0.0646(3) 0.01854(13)
C35 C 0.2072(3) -0.0199(3) 0.01618(15)
H30 H 0.21160 -0.04700 0.04940
H31 H 0.22240 -0.07260 -0.00520
H32 H 0.14600 0.00350 0.00280
O7B O -0.06615(15) 0.31070(16) -0.03181(8)
C21B C -0.1614(2) 0.3031(3) -0.04649(13)
C20B C -0.1960(2) 0.3868(3) -0.08196(12)
O6B O -0.17804(16) 0.47985(16) -0.05655(8)
C19B C -0.2038(2) 0.5639(3) -0.08896(13)
C18B C -0.1874(2) 0.6582(3) -0.05937(14)
O5B O -0.09325(15) 0.66868(16) -0.04019(8)
C17B C -0.0719(2) 0.7577(2) -0.01104(12)
H1B H -0.10090 0.81660 -0.02970
H2B H -0.09430 0.75170 0.01960
C22B C 0.0273(2) 0.7715(2) 0.00149(12)
H11B H 0.05030 0.77330 -0.02910
H12B H 0.04290 0.83560 0.01940
H3B H -0.21890 0.65530 -0.03190
H4B H -0.21050 0.71660 -0.08040
H5B H -0.16840 0.56440 -0.11470
H6B H -0.26800 0.55870 -0.10540
H7B H -0.26130 0.37900 -0.09500
H8B H -0.16610 0.38500 -0.11010
H9B H -0.17840 0.23740 -0.06250
H10B H -0.18790 0.30810 -0.01720
O10B O 0.59261(15) 0.42319(16) 0.59056(7)
C27B C 0.6116(2) 0.4941(2) 0.63019(11)
C26B C 0.5270(2) 0.5511(2) 0.63062(11)
O9B O 0.50348(15) 0.60883(16) 0.58588(7)
C25B C 0.4300(2) 0.6737(2) 0.58552(11)
C24B C 0.4104(2) 0.7319(2) 0.53796(11)
O8B O 0.38445(15) 0.66318(15) 0.49802(7)
C23B C 0.3561(3) 0.7127(3) 0.45138(12)
H13B H 0.30450 0.75720 0.45190
H14B H 0.40550 0.75430 0.44450
C28B C 0.3299(2) 0.6339(3) 0.41228(12)
H23B H 0.28360 0.58930 0.42060
H24B H 0.30460 0.66600 0.38000
H15B H 0.46440 0.76950 0.53440
H16B H 0.36160 0.78070 0.53790
H17B H 0.37670 0.63390 0.58840
H18B H 0.44450 0.72040 0.61390
H19B H 0.53650 0.59620 0.65970
H20B H 0.47810 0.50370 0.63260
H21B H 0.63270 0.45870 0.66200
H22B H 0.65910 0.54100 0.62550
F1B F 0.13759(16) 0.61189(16) -0.07932(7)
F2B F 0.24247(14) 0.54595(16) -0.10932(8)
F3B F 0.16902(13) 0.67270(13) -0.14533(7)
F4B F 0.00539(17) 0.47186(15) -0.09489(8)
F5B F 0.13368(17) 0.39916(16) -0.08686(7)
F6B F 0.02380(15) 0.35653(14) -0.14555(7)
F7B F -0.05767(13) 0.51218(14) -0.20038(7)
F8B F 0.02704(13) 0.63125(13) -0.21669(6)
F9B F -0.02220(14) 0.63729(14) -0.15029(7)
O1B O 0.12903(14) 0.46489(15) -0.18796(7)
C1B C 0.0937(2) 0.5140(2) -0.15452(10)
C2B C 0.1615(2) 0.5873(2) -0.12206(12)
C3B C 0.0648(3) 0.4350(2) -0.11996(12)
C4B C 0.0091(2) 0.5751(2) -0.18001(12)
Ni1B Ni 0.17155(3) 0.49745(3) -0.248127(13)
K3B K 0.03528(5) 0.31401(5) -0.24181(2)
F19A F -0.13537(13) 1.00977(15) 0.15918(7)
F20A F -0.10204(14) 1.07658(14) 0.09512(6)
F21A F -0.06740(13) 1.15147(13) 0.16536(7)
F22A F 0.07911(13) 0.84732(13) 0.13934(6)
F23A F -0.02832(14) 0.84514(13) 0.17783(6)
F24A F -0.05593(13) 0.87959(13) 0.10035(6)
F25A F 0.05936(14) 1.02467(14) 0.07871(6)
F26A F 0.08176(14) 1.15221(13) 0.12808(7)
F27A F 0.16685(13) 1.02225(14) 0.14379(7)
O3A O 0.05289(14) 1.01824(14) 0.20684(7)
C9A C 0.0200(2) 1.0067(2) 0.15767(10)
C10A C -0.0718(2) 1.0611(2) 0.14390(11)
C11A C 0.0037(2) 0.8934(2) 0.14337(10)
C12A C 0.0822(2) 1.0517(2) 0.12664(11)
F28A F 0.41094(15) 0.72543(18) 0.29755(8)
F29A F 0.33829(17) 0.8322(2) 0.33130(8)
F30A F 0.42166(15) 0.88400(18) 0.28377(8)
F31A F 0.22599(14) 0.67844(16) 0.28991(7)
F32A F 0.28147(16) 0.62696(15) 0.23001(9)
F33A F 0.15502(13) 0.70220(16) 0.21555(7)
F34A F 0.33836(16) 0.90982(16) 0.18829(8)
F35A F 0.25778(15) 0.78522(17) 0.15748(7)
F36A F 0.39261(15) 0.76108(18) 0.19837(8)
O4A O 0.22364(18) 0.87765(18) 0.24685(11)
C13A C 0.2828(2) 0.8061(2) 0.24490(11)
C14A C 0.3647(3) 0.8109(3) 0.29014(14)
C15A C 0.2367(2) 0.7024(2) 0.24474(12)
C16A C 0.3186(3) 0.8156(3) 0.19701(13)
F10B F 0.38600(19) 0.4065(2) -0.26210(14)
F11B F 0.3037(2) 0.3253(2) -0.32203(10)
F12B F 0.40658(17) 0.24807(19) -0.26997(10)
F13B F 0.22816(16) 0.15998(16) -0.29464(8)
F14B F 0.31183(13) 0.12506(14) -0.22391(7)
F15B F 0.17465(15) 0.17062(14) -0.23047(9)
F16B F 0.2725(2) 0.28281(19) -0.15742(8)
F17B F 0.32548(16) 0.42018(17) -0.17875(10)
F18B F 0.40357(17) 0.28476(19) -0.17368(10)
O2B O 0.20056(14) 0.35628(15) -0.25723(7)
C5B C 0.2757(2) 0.3007(2) -0.24188(12)
C6B C 0.3438(3) 0.3202(3) -0.27460(19)
C7B C 0.2483(2) 0.1878(2) -0.24777(12)
C8B C 0.3198(3) 0.3212(3) -0.18706(16)
F8A F 0.02704(13) 0.86875(13) 0.28331(6)
K3A K 0.03528(5) 0.18599(5) 0.25819(2)
K3C K -0.03528(5) 0.81401(5) -0.25819(2)
O3B O 0.05289(14) 0.48176(14) -0.29316(7)
O4B O 0.22364(18) 0.62235(18) -0.25315(11)
F8C F -0.02704(13) 0.13125(13) -0.28331(6)
F21B F -0.06740(13) 0.34853(13) -0.33464(7)
F23C F 0.02832(14) 0.15486(13) -0.17783(6)
F33C F -0.15502(13) 0.29780(16) -0.21555(7)
K3A* K 0.03528(5) 1.18599(5) 0.25819(2)
Ni1A Ni 0.17155(3) 1.00255(3) 0.251873(13)
#END
