
#######################################################################
#
#                 Cambridge Crystallographic Data Centre
#                                CCDC
#
#######################################################################
#
# If this CIF has been generated from an entry in the Cambridge
# Structural Database, then it will include bibliographic, chemical,
# crystal, experimental, refinement or atomic coordinate data resulting
# from the CCDC's data processing and validation procedures.
#
#######################################################################

data_CSD_CIF_AHIYIB
_audit_creation_date 2015-07-27
_audit_creation_method CSD-ConQuest-V1
_database_code_CSD AHIYIB
_database_code_depnum_ccdc_archive 'CCDC 1034908'
_chemical_formula_sum 'C18 H17 Br1 Co1 N2 O4'
_chemical_formula_moiety
;
(C12 H6 Br1 Co1 O4 1-)n,n(C6 H11 N2 1+)
;
_journal_coden_Cambridge 222
_journal_volume 44
_journal_year 2015
_journal_page_first 14666
_journal_name_full 'Dalton Trans. '
loop_
_publ_author_name
"Bing An"
"Jun-Li Wang"
"Yan Bai"
"Dong-Bin Dang"
_chemical_name_systematic
;
catena-[1-ethyl-3-methyl-1H-imidazol-3-ium 
(\m-naphthalene-1,4-dicarboxylato)-bromo-cobalt]
;
_cell_volume   1739.881
_exptl_crystal_colour 'blue'
_exptl_crystal_density_diffrn 1.772
_exptl_crystal_description 'block'
_diffrn_ambient_temperature 296
_refine_special_details
;
The structure is disordered.

;
#These two values have been output from a single CSD field.
_refine_ls_R_factor_gt 0.0317
_refine_ls_wR_factor_gt 0.0317
_symmetry_cell_setting monoclinic
_symmetry_space_group_name_H-M 'P 21/n'
_symmetry_Int_Tables_number 14
loop_
_symmetry_equiv_pos_site_id
_symmetry_equiv_pos_as_xyz
1 x,y,z
2 1/2-x,1/2+y,1/2-z
3 -x,-y,-z
4 -1/2+x,-1/2-y,-1/2+z
_cell_length_a 10.3019(16)
_cell_length_b 15.482(3)
_cell_length_c 10.9190(16)
_cell_angle_alpha 90
_cell_angle_beta 92.482(3)
_cell_angle_gamma 90
_cell_formula_units_Z 4
loop_
_atom_type_symbol
_atom_type_radius_bond
C 0.68
H 0.23
Br 1.21
Co 1.26
N 0.68
O 0.68
loop_
_atom_site_label
_atom_site_type_symbol
_atom_site_fract_x
_atom_site_fract_y
_atom_site_fract_z
Co1 Co 0.89227(4) 0.01761(2) 0.40464(3)
Br1 Br 0.71519(4) 0.05257(3) 0.25412(3)
O1 O 0.5376(2) 0.40428(16) 0.8482(2)
O2 O 0.6971(2) 0.43090(16) 0.9846(2)
O3 O 0.8619(3) 0.10861(16) 0.5384(2)
O4 O 1.0196(2) 0.08507(16) 0.6779(2)
C1 C 0.6476(3) 0.39067(18) 0.8965(3)
C2 C 0.9192(3) 0.12216(19) 0.6388(3)
C3 C 0.7251(3) 0.31956(18) 0.8408(3)
C4 C 0.8361(3) 0.3379(2) 0.7818(3)
H1 H 0.86830 0.39410 0.78310
C5 C 0.9022(3) 0.2734(2) 0.7192(3)
H2 H 0.97620 0.28780 0.67780
C6 C 0.8595(3) 0.18985(19) 0.7181(3)
C7 C 0.7515(3) 0.16690(19) 0.7880(3)
C8 C 0.7110(3) 0.0799(2) 0.8000(3)
H3 H 0.75510 0.03640 0.76040
C9 C 0.6089(4) 0.0594(2) 0.8684(4)
H4 H 0.58510 0.00180 0.87710
C10 C 0.5391(4) 0.1238(2) 0.9259(4)
H5 H 0.46830 0.10900 0.97160
C11 C 0.5739(3) 0.2086(2) 0.9159(3)
H6 H 0.52610 0.25100 0.95420
C12 C 0.6821(3) 0.23252(19) 0.8475(3)
N1 N 1.4512(9) -0.2745(6) 0.4709(9)
C13 C 1.5361(11) -0.1518(6) 0.4008(10)
H7 H 1.54850 -0.09400 0.38110
N2 N 1.6095(6) -0.2216(7) 0.3631(6)
C14 C 1.4413(13) -0.1848(7) 0.4729(12)
H8 H 1.38150 -0.15290 0.51540
C15 C 1.5553(8) -0.2939(5) 0.4062(7)
H9 H 1.58560 -0.34950 0.39300
C16 C 1.7181(8) -0.2129(6) 0.2875(8)
H10 H 1.75340 -0.26910 0.27270
H11 H 1.69160 -0.18660 0.21080
H12 H 1.78300 -0.17760 0.32860
C17 C 1.3934(13) -0.3543(7) 0.5238(12)
H13 H 1.39080 -0.34480 0.61150
H14 H 1.30370 -0.35660 0.49300
C18 C 1.447(2) -0.4426(10) 0.506(2)
H15 H 1.39450 -0.48400 0.54670
H16 H 1.53440 -0.44510 0.53900
H17 H 1.44560 -0.45560 0.41970
H18? H 1.45510 -0.38370 0.57730
H19? H 1.36250 -0.39310 0.46050
C19? C 1.4856(9) -0.0515(6) 0.4600(9)
H20? H 1.41440 -0.04490 0.51310
H21? H 1.56270 -0.02710 0.49840
H22? H 1.46590 -0.02230 0.38390
C20? C 1.5866(14) -0.2607(12) 0.3791(13)
H23? H 1.63900 -0.30110 0.34220
N3? N 1.4862(13) -0.2801(7) 0.4516(11)
C21? C 1.5984(11) -0.1793(9) 0.3695(10)
H24? H 1.65830 -0.14980 0.32380
N4? N 1.5082(9) -0.1447(5) 0.4375(8)
C22? C 1.4397(13) -0.2081(10) 0.4794(11)
H25? H 1.36570 -0.20090 0.52420
C23? C 1.4737(17) -0.3723(9) 0.4679(19)
H26? H 1.53900 -0.39470 0.52610
H27? H 1.47820 -0.40310 0.39080
C24? C 1.3393(19) -0.376(2) 0.518(2)
H28? H 1.31710 -0.43540 0.53320
H29? H 1.27770 -0.35230 0.45850
H30? H 1.33780 -0.34390 0.59240
C25? C 1.2851(19) -0.3184(16) 0.594(2)
H31? H 1.23920 -0.36710 0.62500
H32? H 1.34240 -0.29530 0.65730
H33? H 1.22400 -0.27480 0.56700
C26? C 1.378(2) -0.3196(15) 0.520(3)
H34? H 1.29040 -0.31650 0.48780
H35? H 1.37730 -0.30330 0.60510
C27? C 1.378(3) -0.4142(15) 0.495(3)
H36? H 1.31270 -0.44170 0.54120
H37? H 1.46150 -0.43800 0.51720
H38? H 1.35910 -0.42370 0.40880
Co1A Co 0.60773(4) 0.51761(2) 1.09536(3)
Co1B Co 1.10773(4) -0.01761(2) 0.59536(3)
Co1C Co 0.39227(4) 0.48239(2) 0.90464(3)
O1C O 1.0376(2) 0.09572(16) 0.3482(2)
O2A O 0.8029(2) -0.06910(16) 0.5154(2)
O4B O 0.9804(2) -0.08507(16) 0.3221(2)
#END
