
#######################################################################
#
#                 Cambridge Crystallographic Data Centre
#                                CCDC
#
#######################################################################
#
# If this CIF has been generated from an entry in the Cambridge
# Structural Database, then it will include bibliographic, chemical,
# crystal, experimental, refinement or atomic coordinate data resulting
# from the CCDC's data processing and validation procedures.
#
#######################################################################

data_CSD_CIF_AHIZAU
_audit_creation_date 2015-07-27
_audit_creation_method CSD-ConQuest-V1
_database_code_CSD AHIZAU
_database_code_depnum_ccdc_archive 'CCDC 1034911'
_chemical_formula_sum 'C132 H116 Br1 Co4 N8 Na5 O32'
_chemical_formula_moiety
;
(C96 H48 Br1 Co4 Na5 O32 4-)n,4n(C9 H17 N2 1+)
;
_journal_coden_Cambridge 222
_journal_volume 44
_journal_year 2015
_journal_page_first 14666
_journal_name_full 'Dalton Trans. '
loop_
_publ_author_name
"Bing An"
"Jun-Li Wang"
"Yan Bai"
"Dong-Bin Dang"
_chemical_name_systematic
;
catena-[tetrakis(3-methyl-1-pentyl-1H-imidazol-3-ium) 
(\m-bromo)-octakis(\m-naphthalene-1,4-dicarboxylato)-tetra-cobalt-penta-sodium
]
;
_cell_volume   6065.785
_exptl_crystal_colour 'blue'
_exptl_crystal_density_diffrn 1.509
_exptl_crystal_description 'block'
_diffrn_ambient_temperature 296
_refine_special_details
;
The structure is disordered.

;
#These two values have been output from a single CSD field.
_refine_ls_R_factor_gt 0.0459
_refine_ls_wR_factor_gt 0.0459
_symmetry_cell_setting tetragonal
_symmetry_space_group_name_H-M 'P 4/n'
_symmetry_Int_Tables_number 85
loop_
_symmetry_equiv_pos_site_id
_symmetry_equiv_pos_as_xyz
1 x,y,z
2 1/2-x,1/2-y,z
3 1/2-y,x,z
4 y,1/2-x,z
5 -x,-y,-z
6 -1/2+x,-1/2+y,-z
7 -1/2+y,-x,-z
8 -y,-1/2+x,-z
_cell_length_a 24.6698(15)
_cell_length_b 24.6698(15)
_cell_length_c 9.9668(12)
_cell_angle_alpha 90
_cell_angle_beta 90
_cell_angle_gamma 90
_cell_formula_units_Z 2
loop_
_atom_type_symbol
_atom_type_radius_bond
C 0.68
H 0.23
Br 1.21
Co 1.26
N 0.68
Na 1.66
O 0.68
loop_
_atom_site_label
_atom_site_type_symbol
_atom_site_fract_x
_atom_site_fract_y
_atom_site_fract_z
Co1 Co 0.549595(18) 0.821422(19) -0.07521(5)
Na1 Na 0.64359(6) 0.72145(6) -0.07338(14)
Na2 Na 0.75000 0.75000 0.7379(3)
Br1 Br 0.75000 0.75000 0.04666(7)
O1 O 0.63129(11) 0.64676(12) 0.0635(3)
O2 O 0.70649(11) 0.59698(11) 0.0731(2)
O3 O 0.66219(10) 0.5881(1) 0.7605(2)
O4 O 0.70435(10) 0.66820(9) 0.7677(2)
C1 C 0.66782(15) 0.62440(14) 0.1263(3)
C2 C 0.67951(13) 0.63127(13) 0.7075(3)
C3 C 0.66828(14) 0.62777(14) 0.2772(3)
C4 C 0.71274(15) 0.64783(15) 0.3419(4)
H1 H 0.74250 0.65940 0.29220
C5 C 0.71411(14) 0.65125(14) 0.4821(3)
H2 H 0.74480 0.66520 0.52400
C6 C 0.67139(14) 0.63452(13) 0.5583(3)
C7 C 0.62325(14) 0.61450(14) 0.4951(3)
C8 C 0.57659(15) 0.59836(18) 0.5679(4)
H3 H 0.57600 0.60240 0.66060
C9 C 0.53288(17) 0.5771(2) 0.5047(5)
H4 H 0.50290 0.56660 0.55480
C10 C 0.53216(17) 0.57077(19) 0.3643(4)
H5 H 0.50220 0.55550 0.32220
C11 C 0.57561(15) 0.58714(16) 0.2910(4)
H6 H 0.57490 0.58300 0.19820
C12 C 0.62204(14) 0.61046(14) 0.3524(3)
O5 O 0.37233(14) 0.49552(13) -0.0333(4)
O6 O 0.3883(2) 0.52193(18) 0.1658(5)
O7 O 0.49607(12) 0.76218(11) -0.0967(3)
O8 O 0.56170(11) 0.71050(12) -0.1771(3)
C13 C 0.39352(19) 0.52710(19) 0.0464(6)
C14 C 0.51560(17) 0.71623(16) -0.1304(4)
C15 C 0.42335(17) 0.57598(16) -0.0116(4)
C16 C 0.47838(18) 0.57649(17) -0.0133(5)
H7 H 0.49730 0.54650 0.01810
C17 C 0.50714(18) 0.62135(16) -0.0616(5)
H8 H 0.54480 0.62000 -0.06520
C18 C 0.48067(16) 0.66723(16) -0.1038(4)
C19 C 0.42259(16) 0.66812(15) -0.1063(4)
C20 C 0.39231(18) 0.71217(18) -0.1561(5)
H9 H 0.41020 0.74270 -0.18860
C21 C 0.3373(2) 0.7105(2) -0.1571(7)
H10 H 0.31800 0.73970 -0.19200
C22 C 0.3093(2) 0.6658(2) -0.1067(7)
H11 H 0.27160 0.66600 -0.10560
C23 C 0.33632(18) 0.62234(19) -0.0596(5)
H12 H 0.31710 0.59270 -0.02680
C24 C 0.39403(16) 0.62144(16) -0.0596(4)
N1 N 0.2523(2) 0.49294(17) -0.3473(5)
N2 N 0.3247(3) 0.5177(2) -0.4471(8)
C25 C 0.2136(3) 0.4817(3) -0.2391(9)
H13 H 0.22980 0.49060 -0.15430
H14 H 0.20410 0.44400 -0.24030
H15 H 0.18160 0.50320 -0.25190
C26 C 0.3009(2) 0.5119(2) -0.3290(6)
H16 H 0.31640 0.52000 -0.24640
C27 C 0.2454(4) 0.4869(3) -0.4830(9)
H17 H 0.21420 0.47460 -0.52560
C28 C 0.2881(5) 0.5008(3) -0.5390(9)
H18 H 0.29410 0.49980 -0.63110
C29 C 0.3794(4) 0.5431(3) -0.4621(10)
H19 H 0.39690 0.53130 -0.54310
H20 H 0.40130 0.53190 -0.38740
C30 C 0.378(2) 0.6037(5) -0.458(3)
H21 H 0.35170 0.61730 -0.39430
H22 H 0.41340 0.61920 -0.43930
C31 C 0.3615(14) 0.6127(14) -0.595(3)
H23 H 0.32240 0.61630 -0.59860
H24 H 0.37150 0.58150 -0.64900
C32 C 0.3861(15) 0.6608(12) -0.652(3)
H25 H 0.38490 0.65810 -0.74860
H26 H 0.42390 0.66170 -0.62510
C33 C 0.3609(15) 0.7114(13) -0.612(4)
H27 H 0.38170 0.74120 -0.64590
H28 H 0.35950 0.71340 -0.51560
H29 H 0.32480 0.71300 -0.64720
C34? C 0.3778(13) 0.5961(8) -0.528(3)
H30? H 0.38130 0.62160 -0.45390
H31? H 0.41190 0.59790 -0.57580
C35? C 0.3397(13) 0.6220(13) -0.617(4)
H32? H 0.30470 0.62200 -0.57250
H33? H 0.33640 0.59930 -0.69570
C36? C 0.3504(15) 0.6772(12) -0.662(3)
H34? H 0.38900 0.68450 -0.66450
H35? H 0.33540 0.68320 -0.75100
C37? C 0.3236(14) 0.7111(14) -0.564(3)
H36? H 0.32950 0.74850 -0.58540
H37? H 0.33810 0.70350 -0.47640
H38? H 0.28540 0.70360 -0.56440
C38? C 0.3832(17) 0.6014(6) -0.423(3)
H39? H 0.36920 0.60520 -0.33220
H40? H 0.42110 0.61160 -0.42080
C39? C 0.3548(12) 0.6389(11) -0.508(3)
H41? H 0.32200 0.64790 -0.45920
H42? H 0.34320 0.61760 -0.58450
C40? C 0.3733(17) 0.6900(13) -0.565(3)
H43? H 0.40890 0.69780 -0.52800
H44? H 0.34910 0.71840 -0.53400
C41? C 0.3769(14) 0.6934(15) -0.711(3)
H45? H 0.38840 0.72910 -0.73640
H46? H 0.34190 0.68600 -0.74940
H47? H 0.40260 0.66720 -0.74300
Co1A Co 0.950405(18) 0.678578(19) -0.07521(5)
Na1A Na 0.85641(6) 0.77855(6) -0.07338(14)
O1A O 0.86871(11) 0.85324(12) 0.0635(3)
O2A O 0.79351(11) 0.90302(11) 0.0731(2)
O3A O 0.83781(10) 0.9119(1) 0.7605(2)
O4A O 0.79565(10) 0.83180(9) 0.7677(2)
C1A C 0.83218(15) 0.87560(14) 0.1263(3)
C2A C 0.82049(13) 0.86873(13) 0.7075(3)
C3A C 0.83172(14) 0.87223(14) 0.2772(3)
C4A C 0.78726(15) 0.85217(15) 0.3419(4)
H1A H 0.75750 0.84060 0.29220
C5A C 0.78589(14) 0.84875(14) 0.4821(3)
H2A H 0.75520 0.83480 0.52400
C6A C 0.82861(14) 0.86548(13) 0.5583(3)
C7A C 0.87675(14) 0.88550(14) 0.4951(3)
C8A C 0.92341(15) 0.90164(18) 0.5679(4)
H3A H 0.92400 0.89760 0.66060
C9A C 0.96712(17) 0.9229(2) 0.5047(5)
H4A H 0.99710 0.93340 0.55480
C10A C 0.96784(17) 0.92923(19) 0.3643(4)
H5A H 0.99780 0.94450 0.32220
C11A C 0.92439(15) 0.91286(16) 0.2910(4)
H6A H 0.92510 0.91700 0.19820
C12A C 0.87796(14) 0.88954(14) 0.3524(3)
O5A O 1.12767(14) 1.00448(13) -0.0333(4)
O6A O 1.1117(2) 0.97807(18) 0.1658(5)
O7A O 1.00393(12) 0.73782(11) -0.0967(3)
O8A O 0.93830(11) 0.78950(12) -0.1771(3)
C13A C 1.10648(19) 0.97290(19) 0.0464(6)
C14A C 0.98440(17) 0.78377(16) -0.1304(4)
C15A C 1.07665(17) 0.92402(16) -0.0116(4)
C16A C 1.02162(18) 0.92351(17) -0.0133(5)
H7A H 1.00270 0.95350 0.01810
C17A C 0.99286(18) 0.87865(16) -0.0616(5)
H8A H 0.95520 0.88000 -0.06520
C18A C 1.01933(16) 0.83277(16) -0.1038(4)
C19A C 1.07741(16) 0.83188(15) -0.1063(4)
C20A C 1.10769(18) 0.78783(18) -0.1561(5)
H9A H 1.08980 0.75730 -0.18860
C21A C 1.1627(2) 0.7895(2) -0.1571(7)
H10A H 1.18200 0.76030 -0.19200
C22A C 1.1907(2) 0.8342(2) -0.1067(7)
H11A H 1.22840 0.83400 -0.10560
C23A C 1.16368(18) 0.87766(19) -0.0596(5)
H12A H 1.18290 0.90730 -0.02680
C24A C 1.10597(16) 0.87856(16) -0.0596(4)
Co1B Co 0.678578(18) 0.549595(19) -0.07521(5)
Na1B Na 0.77855(6) 0.64359(6) -0.07338(14)
O1B O 0.85324(11) 0.63129(12) 0.0635(3)
O2B O 0.90302(11) 0.70649(11) 0.0731(2)
O3B O 0.9119(1) 0.66219(10) 0.7605(2)
O4B O 0.8318(1) 0.70435(9) 0.7677(2)
C1B C 0.87560(15) 0.66782(14) 0.1263(3)
C2B C 0.86873(13) 0.67951(13) 0.7075(3)
C3B C 0.87223(14) 0.66828(14) 0.2772(3)
C4B C 0.85217(15) 0.71274(15) 0.3419(4)
H1B H 0.84060 0.74250 0.29220
C5B C 0.84875(14) 0.71411(14) 0.4821(3)
H2B H 0.83480 0.74480 0.52400
C6B C 0.86548(14) 0.67139(13) 0.5583(3)
C7B C 0.88550(14) 0.62325(14) 0.4951(3)
C8B C 0.90164(15) 0.57659(18) 0.5679(4)
H3B H 0.89760 0.57600 0.66060
C9B C 0.92290(17) 0.53288(20) 0.5047(5)
H4B H 0.93340 0.50290 0.55480
C10B C 0.92923(17) 0.53216(19) 0.3643(4)
H5B H 0.94450 0.50220 0.32220
C11B C 0.91286(15) 0.57561(16) 0.2910(4)
H6B H 0.91700 0.57490 0.19820
C12B C 0.88954(14) 0.62204(14) 0.3524(3)
O5B O 1.00448(14) 0.37233(13) -0.0333(4)
O6B O 0.97807(20) 0.38830(18) 0.1658(5)
O7B O 0.73782(12) 0.49607(11) -0.0967(3)
O8B O 0.78950(11) 0.56170(12) -0.1771(3)
C13B C 0.97290(19) 0.39352(19) 0.0464(6)
C14B C 0.78377(17) 0.51560(16) -0.1304(4)
C15B C 0.92402(17) 0.42335(16) -0.0116(4)
C16B C 0.92351(18) 0.47838(17) -0.0133(5)
H7B H 0.95350 0.49730 0.01810
C17B C 0.87865(18) 0.50714(16) -0.0616(5)
H8B H 0.88000 0.54480 -0.06520
C18B C 0.83277(16) 0.48067(16) -0.1038(4)
C19B C 0.83188(16) 0.42259(15) -0.1063(4)
C20B C 0.78783(18) 0.39231(18) -0.1561(5)
H9B H 0.75730 0.41020 -0.18860
C21B C 0.7895(2) 0.3373(2) -0.1571(7)
H10B H 0.76030 0.31800 -0.19200
C22B C 0.8342(2) 0.3093(2) -0.1067(7)
H11B H 0.83400 0.27160 -0.10560
C23B C 0.87766(18) 0.33632(19) -0.0596(5)
H12B H 0.90730 0.31710 -0.02680
C24B C 0.87856(16) 0.39403(16) -0.0596(4)
Co1C Co 0.821422(18) 0.950405(19) -0.07521(5)
Na1C Na 0.72145(6) 0.85641(6) -0.07338(14)
O1C O 0.64676(11) 0.86871(12) 0.0635(3)
O2C O 0.59698(11) 0.79351(11) 0.0731(2)
O3C O 0.5881(1) 0.83781(10) 0.7605(2)
O4C O 0.6682(1) 0.79565(9) 0.7677(2)
C1C C 0.62440(15) 0.83218(14) 0.1263(3)
C2C C 0.63127(13) 0.82049(13) 0.7075(3)
C3C C 0.62777(14) 0.83172(14) 0.2772(3)
C4C C 0.64783(15) 0.78726(15) 0.3419(4)
H1C H 0.65940 0.75750 0.29220
C5C C 0.65125(14) 0.78589(14) 0.4821(3)
H2C H 0.66520 0.75520 0.52400
C6C C 0.63452(14) 0.82861(13) 0.5583(3)
C7C C 0.61450(14) 0.87675(14) 0.4951(3)
C8C C 0.59836(15) 0.92341(18) 0.5679(4)
H3C H 0.60240 0.92400 0.66060
C9C C 0.57710(17) 0.96712(20) 0.5047(5)
H4C H 0.56660 0.99710 0.55480
C10C C 0.57077(17) 0.96784(19) 0.3643(4)
H5C H 0.55550 0.99780 0.32220
C11C C 0.58714(15) 0.92439(16) 0.2910(4)
H6C H 0.58300 0.92510 0.19820
C12C C 0.61046(14) 0.87796(14) 0.3524(3)
O5C O 0.49552(14) 1.12767(13) -0.0333(4)
O6C O 0.52193(20) 1.11170(18) 0.1658(5)
O7C O 0.76218(12) 1.00393(11) -0.0967(3)
O8C O 0.71050(11) 0.93830(12) -0.1771(3)
C13C C 0.52710(19) 1.10648(19) 0.0464(6)
C14C C 0.71623(17) 0.98440(16) -0.1304(4)
C15C C 0.57598(17) 1.07665(16) -0.0116(4)
C16C C 0.57649(18) 1.02162(17) -0.0133(5)
H7C H 0.54650 1.00270 0.01810
C17C C 0.62135(18) 0.99286(16) -0.0616(5)
H8C H 0.62000 0.95520 -0.06520
C18C C 0.66723(16) 1.01933(16) -0.1038(4)
C19C C 0.66812(16) 1.07741(15) -0.1063(4)
C20C C 0.71217(18) 1.10769(18) -0.1561(5)
H9C H 0.74270 1.08980 -0.18860
C21C C 0.7105(2) 1.1627(2) -0.1571(7)
H10C H 0.73970 1.18200 -0.19200
C22C C 0.6658(2) 1.1907(2) -0.1067(7)
H11C H 0.66600 1.22840 -0.10560
C23C C 0.62234(18) 1.16368(19) -0.0596(5)
H12C H 0.59270 1.18290 -0.02680
C24C C 0.62144(16) 1.10597(16) -0.0596(4)
Co1* Co 0.549595(18) 0.821422(19) 0.92479(5)
Co1A* Co 0.950405(18) 0.678578(19) 0.92479(5)
Co1B* Co 0.678578(18) 0.549595(19) 0.92479(5)
Co1C* Co 0.821422(18) 0.950405(19) 0.92479(5)
Co1D Co 0.450405(18) 1.178578(19) 0.07521(5)
Co1E Co 1.049595(18) 0.321422(19) 0.07521(5)
Co1F Co 0.321422(18) 0.450405(19) 0.07521(5)
Co1G Co 1.178578(18) 1.049595(19) 0.07521(5)
Na1* Na 0.64359(6) 0.72145(6) 0.92662(14)
Na1A* Na 0.85641(6) 0.77855(6) 0.92662(14)
Na1B* Na 0.77855(6) 0.64359(6) 0.92662(14)
Na1C* Na 0.72145(6) 0.85641(6) 0.92662(14)
Na2* Na 0.75000 0.75000 -0.2621(3)
Br1* Br 0.75000 0.75000 1.04666(7)
O3* O 0.66219(10) 0.5881(1) -0.2395(2)
O3A* O 0.83781(10) 0.9119(1) -0.2395(2)
O3B* O 0.9119(1) 0.66219(10) -0.2395(2)
O3C* O 0.5881(1) 0.83781(10) -0.2395(2)
O4* O 0.70435(10) 0.66820(9) -0.2323(2)
O4A* O 0.79565(10) 0.83180(9) -0.2323(2)
O4B* O 0.8318(1) 0.70435(9) -0.2323(2)
O4C* O 0.6682(1) 0.79565(9) -0.2323(2)
O5D O 0.62767(14) 0.50448(13) 0.0333(4)
O5E O 0.87233(14) 0.99552(13) 0.0333(4)
O5F O 0.99552(14) 0.62767(13) 0.0333(4)
O5G O 0.50448(14) 0.87233(13) 0.0333(4)
#END
