
#######################################################################
#
#                 Cambridge Crystallographic Data Centre
#                                CCDC
#
#######################################################################
#
# If this CIF has been generated from an entry in the Cambridge
# Structural Database, then it will include bibliographic, chemical,
# crystal, experimental, refinement or atomic coordinate data resulting
# from the CCDC's data processing and validation procedures.
#
#######################################################################

data_CSD_CIF_AHOBEG
_audit_creation_date 2015-07-27
_audit_creation_method CSD-ConQuest-V1
_database_code_CSD AHOBEG
_database_code_depnum_ccdc_archive 'CCDC 1061725'
_chemical_formula_sum 'C70 H58 Co4 N12 O28'
_chemical_formula_moiety
;
(C29 H23 Co2 N4 O14 1-)2n,n(C12 H12 N4 2+)
;
_journal_coden_Cambridge 222
_journal_volume 44
_journal_year 2015
_journal_page_first 14673
_journal_name_full 'Dalton Trans. '
loop_
_publ_author_name
"Min-Le Han"
"Liang Bai"
"Ping Tang"
"Xue-Qian Wu"
"Ya-Pan Wu"
"Jun Zhao"
"Dong-Sheng Li"
"Yao-Yu Wang"
_chemical_name_systematic
;
catena-[1,1'-(1,4-phenylene)bis(1H-imidazol-3-ium) 
bis((\m-aqua)-(\m-biphenyl-2,3',4,5',6-pentacarboxylato)-(\m-1,1'-(1,4-phenyle
ne)bis(1H-imidazole))-triaqua-di-cobalt)]
;
_cell_volume   1796.656
_exptl_crystal_colour 'red'
_exptl_crystal_density_diffrn 1.618
_exptl_crystal_description 'block'
_diffrn_ambient_temperature 296
#These two values have been output from a single CSD field.
_refine_ls_R_factor_gt 0.0516
_refine_ls_wR_factor_gt 0.0516
_symmetry_cell_setting triclinic
_symmetry_space_group_name_H-M 'P -1'
_symmetry_Int_Tables_number 2
loop_
_symmetry_equiv_pos_site_id
_symmetry_equiv_pos_as_xyz
1 x,y,z
2 -x,-y,-z
_cell_length_a 10.553(4)
_cell_length_b 12.789(6)
_cell_length_c 14.443(6)
_cell_angle_alpha 112.206(6)
_cell_angle_beta 90.401(5)
_cell_angle_gamma 94.839(2)
_cell_formula_units_Z 1
loop_
_atom_type_symbol
_atom_type_radius_bond
C 0.68
H 0.23
Co 1.26
N 0.68
O 0.68
loop_
_atom_site_label
_atom_site_type_symbol
_atom_site_fract_x
_atom_site_fract_y
_atom_site_fract_z
Co1 Co 0.26373(4) 0.42354(3) 0.22962(3)
Co2 Co -0.18213(4) 0.27114(4) 0.67833(3)
O1 O 0.2989(3) 0.3987(2) 0.35820(18)
O2 O 0.3607(3) 0.5676(2) 0.47621(18)
O3 O 0.2327(5) 0.0594(3) 0.4393(3)
O4 O 0.2686(4) 0.0779(3) 0.5944(3)
O5 O 0.5441(2) 0.5944(2) 0.8129(2)
O6 O 0.4940(3) 0.4191(2) 0.8079(2)
O7 O 0.2451(3) 0.7012(2) 1.17203(18)
O8 O 0.1248(4) 0.8102(3) 1.1262(2)
O9 O -0.0334(2) 0.3896(2) 0.75333(19)
O10 O -0.0691(2) 0.5577(2) 0.74731(19)
O11 O 0.2346(3) 0.4647(2) 0.10309(19)
H1 H 0.27110 0.42210 0.05570
H2 H 0.259(4) 0.5341(7) 0.117(3)
O12 O 0.3129(2) 0.6063(2) 0.31175(18)
H3 H 0.337(3) 0.602(4) 0.3660(17)
H4 H 0.376(2) 0.612(4) 0.278(2)
O13 O -0.0788(3) 0.1375(2) 0.6780(2)
H5 H -0.07820 0.13510 0.73400
H6 H -0.120(5) 0.078(3) 0.6351(13)
O14 O -0.3359(3) 0.1466(2) 0.6061(2)
H7 H -0.39630 0.15650 0.64290
H8 H -0.304(4) 0.085(2) 0.596(4)
N1 N 0.2220(3) 0.2476(2) 0.1556(2)
N2 N 0.1793(3) 0.0842(2) 0.0281(2)
N3 N 0.1010(3) -0.2092(3) -0.3755(2)
N4 N 0.1214(3) -0.2685(3) -0.5389(2)
C1 C 0.3204(3) 0.4646(3) 0.4478(3)
C2 C 0.2944(3) 0.4125(3) 0.5241(2)
C3 C 0.2805(4) 0.2958(3) 0.4945(3)
H9 H 0.28900 0.25030 0.42760
C4 C 0.2544(4) 0.2457(3) 0.5628(3)
C5 C 0.2369(4) 0.3144(3) 0.6624(3)
H10 H 0.21770 0.28140 0.70860
C6 C 0.2481(3) 0.4318(3) 0.6929(2)
C7 C 0.2782(3) 0.4806(3) 0.6237(2)
H11 H 0.28760 0.55920 0.64410
C8 C 0.2487(5) 0.1174(4) 0.5301(3)
C9 C 0.2336(3) 0.5086(3) 0.8001(2)
C10 C 0.3417(3) 0.5531(3) 0.8655(3)
C11 C 0.3297(3) 0.6248(3) 0.9647(3)
H12 H 0.40110 0.65000 1.00820
C12 C 0.2121(3) 0.6584(3) 0.9987(2)
C13 C 0.1055(3) 0.6210(3) 0.9336(2)
H13 H 0.02740 0.64780 0.95510
C14 C 0.1157(3) 0.5432(3) 0.8357(2)
C15 C 0.4702(3) 0.5193(3) 0.8262(3)
C16 C 0.1939(4) 0.7307(3) 1.1078(3)
C17 C -0.0057(3) 0.4932(3) 0.7730(2)
C18 C 0.2040(4) 0.1978(3) 0.0577(3)
H14 H 0.20790 0.23620 0.01430
C19 C 0.2070(4) 0.1622(3) 0.1908(3)
H15 H 0.21370 0.17180 0.25780
C20 C 0.1808(4) 0.0608(3) 0.1129(3)
H16 H 0.16680 -0.01020 0.11680
C21 C 0.1575(4) 0.0075(3) -0.0738(3)
C22 C 0.1551(6) 0.0501(4) -0.1480(3)
H17 H 0.16830 0.12800 -0.13110
C23 C 0.1332(6) -0.0210(4) -0.2473(3)
H18 H 0.12880 0.00880 -0.29670
C24 C 0.1181(4) -0.1368(3) -0.2722(3)
C25 C 0.1189(4) -0.1800(3) -0.1984(3)
H19 H 0.10590 -0.25800 -0.21540
C26 C 0.1390(4) -0.1081(3) -0.0985(3)
H20 H 0.14010 -0.13770 -0.04880
C27 C 0.1453(4) -0.1830(3) -0.4528(3)
H21 H 0.18710 -0.11330 -0.44580
C28 C 0.0449(4) -0.3191(3) -0.4161(3)
H22 H 0.00590 -0.36080 -0.38180
C29 C 0.0580(4) -0.3536(3) -0.5157(3)
H23 H 0.02850 -0.42480 -0.56220
N5 N 0.5273(3) 0.1135(3) 0.2103(2)
N6 N 0.5597(4) 0.2461(3) 0.3570(3)
H24 H 0.581(5) 0.310(2) 0.403(3)
C30 C 0.5060(5) 0.1172(4) 0.0429(3)
H25 H 0.50960 0.19590 0.07130
C31 C 0.5125(4) 0.0555(3) 0.1033(3)
C32 C 0.5060(5) -0.0605(3) 0.0607(3)
H26 H 0.50950 -0.10190 0.10130
C33 C 0.5297(6) 0.0633(4) 0.2791(4)
H27 H 0.51910 -0.01420 0.26530
C34 C 0.5499(5) 0.1464(4) 0.3702(3)
H28 H 0.55600 0.13720 0.43090
C35 C 0.5455(4) 0.2254(3) 0.2604(3)
H29 H 0.54790 0.27980 0.23210
Co1A Co -0.26373(4) 0.57646(3) 0.77038(3)
Co1A* Co 0.73627(4) 0.57646(3) 0.77038(3)
Co2A Co 0.18213(4) -0.27114(4) -0.67833(3)
Co2A* Co 0.18213(4) 0.72886(4) 0.32167(3)
Co2A** Co 0.18213(4) 0.72886(4) 1.32167(3)
O5A O 0.4559(2) 0.4056(2) 0.1871(2)
O7A O -0.2451(3) 0.2988(2) 0.82797(18)
O10A O 0.0691(2) 0.4423(2) 0.25269(19)
O12A O -0.3129(2) 0.3937(2) 0.68825(18)
N4A N -0.1214(3) 0.2685(3) 0.5389(2)
N5A N 0.4727(3) -0.1135(3) -0.2103(2)
N6A N 0.4403(4) -0.2461(3) -0.3570(3)
H24A H 0.419(5) -0.310(2) -0.403(3)
C30A C 0.4940(5) -0.1172(4) -0.0429(3)
H25A H 0.49040 -0.19590 -0.07130
C31A C 0.4875(4) -0.0555(3) -0.1033(3)
C32A C 0.4940(5) 0.0605(3) -0.0607(3)
H26A H 0.49050 0.10190 -0.10130
C33A C 0.4703(6) -0.0633(4) -0.2791(4)
H27A H 0.48090 0.01420 -0.26530
C34A C 0.4501(5) -0.1464(4) -0.3702(3)
H28A H 0.44400 -0.13720 -0.43090
C35A C 0.4545(4) -0.2254(3) -0.2604(3)
H29A H 0.45210 -0.27980 -0.23210
#END
