
#######################################################################
#
#                 Cambridge Crystallographic Data Centre
#                                CCDC
#
#######################################################################
#
# If this CIF has been generated from an entry in the Cambridge
# Structural Database, then it will include bibliographic, chemical,
# crystal, experimental, refinement or atomic coordinate data resulting
# from the CCDC's data processing and validation procedures.
#
#######################################################################

data_CSD_CIF_AJOTOK
_audit_creation_date 2016-04-12
_audit_creation_method CSD-ConQuest-V1
_database_code_CSD AJOTOK
_database_code_depnum_ccdc_archive 'CCDC 1045091'
_chemical_formula_sum 'C28 H36 Br4 Cu1 N2 O8'
_chemical_formula_moiety
;
(C16 H4 Br4 Cu1 O8 2-)n,2(C6 H16 N1 1+)
;
_journal_coden_Cambridge 155
_journal_volume 447
_journal_year 2016
_journal_page_first 162
_journal_name_full 'Inorg.Chim.Acta '
loop_
_publ_author_name
"Xin Liu"
"H.L.Valentine"
"Wei-Ping Pan"
"Yan Cao"
"Bangbo Yan"
_chemical_name_systematic
;
catena-[bis(triethylammonium) 
bis(\m-2,5-dibromo-4-carboxylatobenzoato)-copper]
;
_cell_volume    854.277
_exptl_crystal_colour 'blue'
_exptl_crystal_density_diffrn 1.772
_exptl_crystal_description 'plate'
_diffrn_ambient_temperature 296
#These two values have been output from a single CSD field.
_refine_ls_R_factor_gt 0.0321
_refine_ls_wR_factor_gt 0.0321
_symmetry_cell_setting triclinic
_symmetry_space_group_name_H-M 'P -1'
_symmetry_Int_Tables_number 2
loop_
_symmetry_equiv_pos_site_id
_symmetry_equiv_pos_as_xyz
1 x,y,z
2 -x,-y,-z
_cell_length_a 9.0470(7)
_cell_length_b 9.9015(8)
_cell_length_c 10.9860(9)
_cell_angle_alpha 76.252(4)
_cell_angle_beta 68.805(3)
_cell_angle_gamma 69.874(4)
_cell_formula_units_Z 1
loop_
_atom_type_symbol
_atom_type_radius_bond
C 0.68
H 0.23
Br 1.21
Cu 1.32
N 0.68
O 0.68
loop_
_atom_site_label
_atom_site_type_symbol
_atom_site_fract_x
_atom_site_fract_y
_atom_site_fract_z
Cu1 Cu 1.00000 0.00000 0.50000
Br1 Br 0.35762(4) 0.31731(3) 0.78385(2)
Br2 Br 0.91896(3) 0.33668(2) 0.04214(2)
O1 O 0.94955(18) -0.00750(16) 0.34434(12)
O2 O 1.1276(2) 0.1186(2) 0.22832(16)
O3 O 0.85585(16) 0.19449(14) 0.51238(15)
O4 O 0.6413(2) 0.10378(16) 0.59175(19)
C1 C 0.7031(2) 0.20435(19) 0.54941(18)
C2 C 0.5959(2) 0.35791(18) 0.52950(18)
C3 C 0.4435(2) 0.41816(19) 0.61731(18)
C4 C 0.6503(2) 0.4424(2) 0.41253(18)
H1 H 0.75220 0.40470 0.35250
C5 C 1.0101(2) 0.02904(19) 0.11551(15)
C6 C 0.9717(2) 0.14031(19) 0.01826(16)
C7 C 1.0368(2) -0.1119(2) 0.09619(16)
H2 H 1.06070 -0.18820 0.16080
C8 C 1.0318(2) 0.0512(2) 0.23902(16)
N1 N 0.3447(3) 0.2113(2) 0.2961(2)
H3 H 0.28240 0.15330 0.30250
C9 C 0.2805(5) 0.3496(3) 0.2193(4)
H4 H 0.16370 0.38910 0.26370
H5 H 0.29110 0.33040 0.13350
C10 C 0.3682(6) 0.4624(4) 0.2004(5)
H6 H 0.34580 0.49200 0.28390
H7 H 0.32910 0.54500 0.14190
H8 H 0.48520 0.42160 0.16320
C11 C 0.5200(4) 0.1313(4) 0.2311(4)
H9 H 0.59060 0.19140 0.21910
H10 H 0.55330 0.04380 0.28890
C12 C 0.5458(5) 0.0913(5) 0.1021(4)
H11 H 0.46760 0.04130 0.11130
H12 H 0.65610 0.02910 0.07120
H13 H 0.53050 0.17740 0.04010
C13 C 0.3272(5) 0.2229(4) 0.4354(3)
H14 H 0.34860 0.12590 0.48320
H15 H 0.41120 0.26420 0.43310
C14 C 0.1622(5) 0.3122(5) 0.5095(5)
H16 H 0.15210 0.41310 0.47800
H17 H 0.15180 0.29490 0.60160
H18 H 0.07660 0.28610 0.49660
Br1A Br 0.64238(4) 0.68269(3) 0.21615(2)
O3A O 0.14415(16) 0.80551(14) 0.48762(15)
O4A O 0.3587(2) 0.89622(16) 0.40825(19)
C1A C 0.2969(2) 0.79565(19) 0.45059(18)
C2A C 0.4041(2) 0.64209(18) 0.47050(18)
C3A C 0.5565(2) 0.58184(19) 0.38269(18)
C4A C 0.3497(2) 0.5576(2) 0.58747(18)
H1A H 0.24780 0.59530 0.64750
Br2A Br 1.08104(3) -0.33668(2) -0.04214(2)
O1A O 1.05045(18) 0.00750(16) -0.34434(12)
O2A O 0.8724(2) -0.1186(2) -0.22832(16)
C5A C 0.9899(2) -0.02904(19) -0.11551(15)
C6A C 1.0283(2) -0.14031(19) -0.01826(16)
C7A C 0.9632(2) 0.1119(2) -0.09619(16)
H2A H 0.93930 0.18820 -0.16080
C8A C 0.9682(2) -0.0512(2) -0.23902(16)
Cu1* Cu 0.00000 1.00000 0.50000
Cu1** Cu 1.00000 0.00000 -0.50000
O1A* O 1.05045(18) 0.00750(16) 0.65566(12)
O3A* O 1.14415(16) -0.19449(14) 0.48762(15)
#END
