
#######################################################################
#
#                 Cambridge Crystallographic Data Centre
#                                CCDC
#
#######################################################################
#
# If this CIF has been generated from an entry in the Cambridge
# Structural Database, then it will include bibliographic, chemical,
# crystal, experimental, refinement or atomic coordinate data resulting
# from the CCDC's data processing and validation procedures.
#
#######################################################################

data_CSD_CIF_AJUMAW
_audit_creation_date 2021-01-14
_audit_creation_method CSD-ConQuest-V1
_database_code_CSD AJUMAW
_database_code_depnum_ccdc_archive 'CCDC 2026800'
_chemical_formula_sum 'C33 H24 N2 O25 Pb4'
_chemical_formula_moiety
;
(C30 H10 O25 Pb4 2-)n,C2 H8 N1 1+,C1 H6 N1 1+
;
_journal_coden_Cambridge 1182
_journal_year 2021
_journal_name_full 'Chin.Chem.Lett. '
loop_
_publ_author_name
"Xusheng Gao"
"Liduo Zhao"
"Meijuan Ding"
"Xiaozu Wang"
"Lu Zhai"
"Xiaoming Ren"
_chemical_name_systematic
;
catena-[methylammonium dimethylammonium 
pentakis(\m-furan-2,5-dicarboxylato)-tetra-lead(ii)]
;
_cell_volume   3903.667
_exptl_crystal_density_diffrn 2.845
_diffrn_ambient_temperature 90
#These two values have been output from a single CSD field.
_refine_ls_R_factor_gt 0.0541
_refine_ls_wR_factor_gt 0.0541
_symmetry_cell_setting orthorhombic
_symmetry_space_group_name_H-M 'P n m a'
_symmetry_Int_Tables_number 62
loop_
_symmetry_equiv_pos_site_id
_symmetry_equiv_pos_as_xyz
1 x,y,z
2 1/2-x,-y,1/2+z
3 -x,1/2+y,-z
4 1/2+x,1/2-y,1/2-z
5 -x,-y,-z
6 -1/2+x,y,-1/2-z
7 x,-1/2-y,z
8 -1/2-x,-1/2+y,-1/2+z
_cell_length_a 22.3825(8)
_cell_length_b 19.3144(6)
_cell_length_c 9.0299(4)
_cell_angle_alpha 90
_cell_angle_beta 90
_cell_angle_gamma 90
_cell_formula_units_Z 4
loop_
_atom_type_symbol
_atom_type_radius_bond
C 0.68
N 0.68
O 0.68
Pb 1.46
loop_
_atom_site_label
_atom_site_type_symbol
_atom_site_fract_x
_atom_site_fract_y
_atom_site_fract_z
Pb1 Pb 0.24009(2) 0.52684(2) 0.79535(4)
Pb2 Pb 0.59535(2) 0.51178(2) 0.01618(4)
O1 O 0.3184(3) 0.5710(3) 1.1280(8)
O2 O 0.2915(4) 0.75000 1.0634(10)
O3 O 0.2630(3) 0.6271(4) 0.9568(8)
O4 O 0.3484(3) 0.5556(4) 0.7567(8)
O5 O 0.3185(3) 0.5050(3) 0.5499(8)
O6 O 0.4270(3) 0.5465(4) 0.4159(7)
O7 O 0.4907(3) 0.5252(4) 0.1514(8)
O8 O 0.5670(3) 0.5847(4) 0.2419(8)
O9 O 0.6949(3) 0.5717(3) 0.0763(7)
O10 O 0.5709(3) 0.6283(4) -0.0750(7)
O11 O 0.6273(3) 0.5731(4) -0.2400(8)
O12 O 0.7415(3) 0.6283(4) -0.1091(7)
O13 O 0.7190(4) 0.75000 0.0086(9)
O14 O 0.5948(4) 0.75000 -0.1917(10)
C1 C 0.3123(5) 0.6924(5) 1.1382(11)
C2 C 0.3555(4) 0.5386(5) 0.6225(11)
C3 C 0.7138(5) 0.6257(5) 0.0122(11)
C4 C 0.6041(4) 0.6266(5) -0.1917(11)
C5 C 0.2963(4) 0.6243(5) 1.0706(10)
C6 C 0.6992(4) 0.6932(5) 0.0847(10)
C7 C 0.6149(4) 0.6930(5) -0.2648(11)
C8 C 0.6678(4) 0.7131(5) 0.2077(10)
C9 C 0.6466(4) 0.7127(5) -0.3885(10)
C10 C 0.4122(4) 0.5638(5) 0.5592(10)
C11 C 0.4830(4) 0.5735(5) 0.3945(10)
C12 C 0.4582(4) 0.5987(5) 0.6264(10)
C13 C 0.5159(4) 0.5598(6) 0.2511(11)
C14 C 0.5051(5) 0.6054(6) 0.5189(10)
C15 C 0.3458(5) 0.7129(6) 1.2579(11)
N1 N 0.7815(5) 0.75000 0.7479(12)
C16 C 0.8471(9) 0.75000 0.776(2)
N2 N 0.5255(6) 0.75000 0.0668(14)
C17 C 0.5136(8) 0.75000 0.2329(16)
C18 C 0.4683(8) 0.75000 -0.020(2)
O1F O 0.3184(3) 0.9290(3) 1.1280(8)
O3F O 0.2630(3) 0.8729(4) 0.9568(8)
C1F C 0.3123(5) 0.8076(5) 1.1382(11)
C5F C 0.2963(4) 0.8757(5) 1.0706(10)
C15F C 0.3458(5) 0.7871(6) 1.2579(11)
O9F O 0.6949(3) 0.9283(3) 0.0763(7)
O12F O 0.7415(3) 0.8717(4) -0.1091(7)
C3F C 0.7138(5) 0.8743(5) 0.0122(11)
C6F C 0.6992(4) 0.8068(5) 0.0847(10)
C8F C 0.6678(4) 0.7869(5) 0.2077(10)
O10F O 0.5709(3) 0.8717(4) -0.0750(7)
O11F O 0.6273(3) 0.9269(4) -0.2400(8)
C4F C 0.6041(4) 0.8734(5) -0.1917(11)
C7F C 0.6149(4) 0.8070(5) -0.2648(11)
C9F C 0.6466(4) 0.7873(5) -0.3885(10)
Pb1D Pb 0.75991(2) 0.47316(2) -0.79535(4)
Pb2D Pb 0.40465(2) 0.48822(2) -0.01618(4)
O4D O 0.6516(3) 0.4444(4) -0.7567(8)
O5D O 0.6815(3) 0.4950(3) -0.5499(8)
O6D O 0.5730(3) 0.4535(4) -0.4159(7)
O7D O 0.5093(3) 0.4748(4) -0.1514(8)
O8D O 0.4330(3) 0.4153(4) -0.2419(8)
C2D C 0.6445(4) 0.4614(5) -0.6225(11)
C10D C 0.5878(4) 0.4362(5) -0.5592(10)
C11D C 0.5170(4) 0.4265(5) -0.3945(10)
C12D C 0.5418(4) 0.4013(5) -0.6264(10)
C13D C 0.4841(4) 0.4402(6) -0.2511(11)
C14D C 0.4949(5) 0.3946(6) -0.5189(10)
Pb1A Pb 0.25991(2) 0.47316(2) 0.29535(4)
Pb1A* Pb 0.25991(2) 0.47316(2) 1.29535(4)
Pb1B Pb 0.75991(2) 1.02684(2) 0.20465(4)
Pb1C Pb 0.74009(2) 0.97316(2) -0.29535(4)
Pb1D* Pb 0.75991(2) 0.47316(2) 0.20465(4)
Pb1E Pb 0.74009(2) 0.52684(2) -0.29535(4)
Pb1F Pb 0.24009(2) 0.97316(2) 0.79535(4)
Pb1G Pb 0.25991(2) 1.02684(2) 1.29535(4)
Pb2* Pb 0.59535(2) 0.51178(2) -0.98382(4)
Pb2B Pb 0.40465(2) 1.01178(2) 0.98382(4)
Pb2D* Pb 0.40465(2) 0.48822(2) 0.98382(4)
Pb2F Pb 0.59535(2) 0.98822(2) 0.01618(4)
O1* O 0.3184(3) 0.5710(3) 0.1280(8)
O1A O 0.1816(3) 0.4290(3) 0.6280(8)
O1D O 0.6816(3) 0.4290(3) -0.1280(8)
O1E O 0.8184(3) 0.5710(3) -0.6280(8)
O3D O 0.7370(3) 0.3729(4) -0.9568(8)
O4* O 0.3484(3) 0.5556(4) -0.2433(8)
O4D* O 0.6516(3) 0.4444(4) 0.2433(8)
O5A O 0.1815(3) 0.4950(3) 1.0499(8)
O5E O 0.8185(3) 0.5050(3) -1.0499(8)
O9* O 0.6949(3) 0.5717(3) -0.9237(7)
O9D O 0.3051(3) 0.4283(3) -0.0763(7)
O9D* O 0.3051(3) 0.4283(3) 0.9237(7)
O10D O 0.4291(3) 0.3717(4) 0.0750(7)
O11A O 0.8727(3) 0.4269(4) -0.7400(8)
O11D O 0.3727(3) 0.4269(4) 0.2400(8)
O11E O 0.1273(3) 0.5731(4) 0.7400(8)
O12A O 0.7585(3) 0.3717(4) -0.6091(7)
O12E O 0.2415(3) 0.6283(4) 0.6091(7)
#END
