
#######################################################################
#
#                 Cambridge Crystallographic Data Centre
#                                CCDC
#
#######################################################################
#
# If this CIF has been generated from an entry in the Cambridge
# Structural Database, then it will include bibliographic, chemical,
# crystal, experimental, refinement or atomic coordinate data resulting
# from the CCDC's data processing and validation procedures.
#
#######################################################################

data_CSD_CIF_AKEBOH
_audit_creation_date 2003-12-16
_audit_creation_method CSD-ConQuest-V1
_database_code_CSD AKEBOH
_database_code_depnum_ccdc_archive 'CCDC 218811'
_chemical_formula_sum 'C40 H20 Co2 Cs2 N24 O2 W2'
_chemical_formula_moiety
;
(C40 H16 Co2 N24 W2 2-)n,2n(Cs1 1+),2n(H2 O1)
;
_journal_coden_Cambridge 4
_journal_volume 125
_journal_year 2003
_journal_page_first 9240
_journal_name_full 'J.Am.Chem.Soc. '
loop_
_publ_author_name
"Y.Arimoto"
"S.Ohkoshi"
"Z.J.Zhong"
"H.Seino"
"Y.Mizobe"
"K.Hashimoto"
_chemical_name_systematic
;
catena-(dicesium 
octakis(\m~2~-cyano)-tetrakis(3-cyanopyridine)-octacyano-di-cobalt(ii)-di-tung
sten(v) dihydrate)
;
_cell_volume   1299.194
_exptl_crystal_colour 'red'
_exptl_crystal_density_diffrn 2.071
_exptl_special_details
;
photoinduced magnetization
temperature induced phase transition between 130 K and 300 K with a large 
thermal hysteresis
;
_exptl_crystal_description 'plate'
_diffrn_ambient_temperature 298.1
#These two values have been output from a single CSD field.
_refine_ls_R_factor_gt 0.033
_refine_ls_wR_factor_gt 0.033
_symmetry_cell_setting triclinic
_symmetry_space_group_name_H-M 'P -1'
_symmetry_Int_Tables_number 2
loop_
_symmetry_equiv_pos_site_id
_symmetry_equiv_pos_as_xyz
1 x,y,z
2 -x,-y,-z
_cell_length_a 7.2979(7)
_cell_length_b 13.937(3)
_cell_length_c 14.381(3)
_cell_angle_alpha 116.30(1)
_cell_angle_beta 90.02(1)
_cell_angle_gamma 96.97(1)
_cell_formula_units_Z 1
loop_
_atom_type_symbol
_atom_type_radius_bond
C 0.68
H 0.23
Co 1.33
Cs 1.67
N 0.68
O 0.68
W 1.37
loop_
_atom_site_label
_atom_site_type_symbol
_atom_site_fract_x
_atom_site_fract_y
_atom_site_fract_z
W1 W 0.03384(3) 0.12869(2) 0.30700(1)
Cs1 Cs 0.28627(6) 0.52029(4) 0.61410(4)
Co1 Co -0.50000 0.00000 0.50000
Co2 Co -0.50000 0.00000 0.00000
O1 O 0.6831(9) 0.4931(6) 0.6518(6)
N1 N -0.3152(7) 0.0524(4) 0.4154(4)
N2 N -0.2917(7) 0.0397(5) 0.1178(4)
N3 N -0.7204(7) 0.0614(4) 0.4563(4)
N4 N 0.3072(7) 0.0466(5) 0.1124(4)
N5 N 0.4170(9) 0.3013(6) 0.3982(6)
N6 N -0.082(1) 0.3414(5) 0.5079(5)
N7 N 0.016(1) 0.3184(6) 0.2291(5)
N8 N -0.012(1) -0.1383(5) 0.2034(5)
N9 N -0.4287(7) 0.1515(4) 0.6369(4)
N10 N 0.121(1) 0.4010(7) 0.7515(6)
N11 N -0.4377(7) 0.1670(5) 0.0209(4)
N12 N 0.098(1) 0.3971(6) 0.0046(6)
C1 C -0.1963(8) 0.0787(5) 0.3757(4)
C2 C -0.1822(8) 0.0720(5) 0.1850(4)
C3 C -0.8137(7) 0.0882(5) 0.4097(4)
C4 C 0.2113(8) 0.0752(5) 0.1806(4)
C5 C 0.2860(8) 0.2408(5) 0.3638(5)
C6 C -0.0429(9) 0.2677(5) 0.4401(5)
C7 C 0.0195(9) 0.2505(5) 0.2535(5)
C8 C 0.0053(8) -0.0465(5) 0.2391(5)
C9 C -0.2563(9) 0.2041(6) 0.6536(5)
C10 C -0.2066(9) 0.3056(6) 0.7389(5)
C11 C -0.336(1) 0.3501(7) 0.8100(6)
C12 C -0.513(1) 0.2952(7) 0.7939(6)
C13 C -0.553(1) 0.1966(6) 0.7066(5)
C14 C -0.021(1) 0.3587(6) 0.7490(6)
C15 C -0.2682(9) 0.2077(5) 0.0083(5)
C16 C -0.2236(9) 0.3155(6) 0.0300(5)
C17 C -0.360(1) 0.3855(6) 0.0701(7)
C18 C -0.530(1) 0.3426(8) 0.0830(8)
C19 C -0.564(1) 0.2344(7) 0.0570(7)
C20 C -0.044(1) 0.3578(7) 0.0157(7)
H1 H -0.189(7) 0.166(5) 0.612(4)
H2 H -0.30(2) 0.40(1) 0.854(9)
H3 H -0.60(1) 0.327(7) 0.844(6)
H4 H -0.69(1) 0.147(7) 0.688(6)
H5 H -0.18(1) 0.167(6) -0.017(5)
H6 H -0.33(1) 0.451(8) 0.073(7)
H7 H -0.61(1) 0.388(9) 0.110(8)
H8 H -0.693(8) 0.189(5) 0.054(4)
N1A N -0.6848(7) -0.0524(4) 0.5846(4)
C1A C -0.8037(8) -0.0787(5) 0.6243(4)
N3A N -0.2796(7) -0.0614(4) 0.5437(4)
C3A C -0.1863(7) -0.0882(5) 0.5903(4)
N9A N -0.5713(7) -0.1515(4) 0.3631(4)
N10A N -1.121(1) -0.4010(7) 0.2485(6)
C9A C -0.7437(9) -0.2041(6) 0.3464(5)
C10A C -0.7934(9) -0.3056(6) 0.2611(5)
C11A C -0.664(1) -0.3501(7) 0.1900(6)
C12A C -0.487(1) -0.2952(7) 0.2061(6)
C13A C -0.447(1) -0.1966(6) 0.2934(5)
C14A C -0.979(1) -0.3587(6) 0.2510(6)
H1A H -0.811(7) -0.166(5) 0.388(4)
H2A H -0.70(2) -0.40(1) 0.146(9)
H3A H -0.40(1) -0.327(7) 0.156(6)
H4A H -0.31(1) -0.147(7) 0.312(6)
W1A W -1.03384(3) -0.12869(2) 0.69300(1)
N2A N -0.7083(7) -0.0397(5) 0.8822(4)
C2A C -0.8178(8) -0.0720(5) 0.8150(4)
N4A N -1.3072(7) -0.0466(5) 0.8876(4)
C4A C -1.2113(8) -0.0752(5) 0.8194(4)
N5A N -1.4170(9) -0.3013(6) 0.6018(6)
C5A C -1.2860(8) -0.2408(5) 0.6362(5)
N6A N -0.918(1) -0.3414(5) 0.4921(5)
C6A C -0.9571(9) -0.2677(5) 0.5599(5)
N7A N -1.016(1) -0.3184(6) 0.7709(5)
C7A C -1.0195(9) -0.2505(5) 0.7465(5)
N8A N -0.988(1) 0.1383(5) 0.7966(5)
C8A C -1.0053(8) 0.0465(5) 0.7609(5)
N11A N -0.5623(7) -0.1670(5) -0.0209(4)
N12A N -1.098(1) -0.3971(6) -0.0046(6)
C15A C -0.7318(9) -0.2077(5) -0.0083(5)
C16A C -0.7764(9) -0.3155(6) -0.0300(5)
C17A C -0.640(1) -0.3855(6) -0.0701(7)
C18A C -0.470(1) -0.3426(8) -0.0830(8)
C19A C -0.436(1) -0.2344(7) -0.0570(7)
C20A C -0.956(1) -0.3578(7) -0.0157(7)
H5A H -0.82(1) -0.167(6) 0.017(5)
H6A H -0.67(1) -0.451(8) -0.073(7)
H7A H -0.39(1) -0.388(9) -0.110(8)
H8A H -0.307(8) -0.189(5) -0.054(4)
C3* C 0.1863(7) 0.0882(5) 0.4097(4)
N2A* N -0.7083(7) -0.0397(5) -0.1178(4)
N4* N -0.6928(7) 0.0466(5) 0.1124(4)
N4A* N -0.3072(7) -0.0466(5) -0.1124(4)
Co2* Co 0.50000 0.00000 0.00000
W1* W -0.96616(3) 0.12869(2) 0.30700(1)
W1A* W -0.03384(3) -0.12869(2) 0.69300(1)
C3A* C -1.1863(7) -0.0882(5) 0.5903(4)
Co2** Co -0.50000 0.00000 1.00000
Co2*** Co -1.50000 0.00000 1.00000
#END
