
#######################################################################
#
#                 Cambridge Crystallographic Data Centre
#                                CCDC
#
#######################################################################
#
# If this CIF has been generated from an entry in the Cambridge
# Structural Database, then it will include bibliographic, chemical,
# crystal, experimental, refinement or atomic coordinate data resulting
# from the CCDC's data processing and validation procedures.
#
#######################################################################

data_CSD_CIF_AKENUC
_audit_creation_date 2021-01-14
_audit_creation_method CSD-ConQuest-V1
_database_code_CSD AKENUC
_database_code_depnum_ccdc_archive 'CCDC 1955806'
_chemical_formula_sum 'C142 H70 Cl32 Cu2 Er4 N6 O32'
_chemical_formula_moiety
;
(C49 H21 Cl14 Er2 O14 1-)2n,C44 H28 Cl4 Cu2 N6 O4 2+
;
_journal_coden_Cambridge 1133
_journal_volume 32
_journal_year 2021
_journal_page_first 45
_journal_name_full 'J.Cluster Sci. '
loop_
_publ_author_name
"Fang-Hua Zhao"
"Zhong-Lin Li"
"Ya-Hua Yu"
"Shi-Ying Fan"
"Xiao-Wen Guo"
"Zi-Hao Zhao"
_chemical_name_systematic
;
catena-[bis(\m-3,5-dichlorobenzoato)-bis(1^2^,2^2^:2^6^,3^2^-terpyridine)-di-c
opper heptakis(\m-3,5-dichlorobenzoato)-di-erbium]
;
_cell_volume   3814.246
_exptl_crystal_colour 'green'
_exptl_crystal_density_diffrn 1.873
_exptl_crystal_description 'block'
_diffrn_ambient_temperature 153
_refine_special_details
;
Cl7 and Cl7' disordered over two sites with occupancies 0.50:0.50.

;
#These two values have been output from a single CSD field.
_refine_ls_R_factor_gt 0.0358
_refine_ls_wR_factor_gt 0.0358
_symmetry_cell_setting triclinic
_symmetry_space_group_name_H-M 'P -1'
_symmetry_Int_Tables_number 2
loop_
_symmetry_equiv_pos_site_id
_symmetry_equiv_pos_as_xyz
1 x,y,z
2 -x,-y,-z
_cell_length_a 14.2277(8)
_cell_length_b 16.2457(8)
_cell_length_c 18.3844(10)
_cell_angle_alpha 98.100(2)
_cell_angle_beta 111.709(2)
_cell_angle_gamma 98.554(2)
_cell_formula_units_Z 1
loop_
_atom_type_symbol
_atom_type_radius_bond
C 0.68
H 0.23
Cl 0.99
Cu 1.32
Er 1.89
N 0.68
O 0.68
loop_
_atom_site_label
_atom_site_type_symbol
_atom_site_fract_x
_atom_site_fract_y
_atom_site_fract_z
C1 C 0.3975(4) 1.0763(3) 0.6045(3)
H1 H 0.40290 1.10590 0.56480
C2 C 0.4171(4) 1.1231(3) 0.6799(3)
H2 H 0.43760 1.18350 0.69170
C3 C 0.4065(4) 1.0808(4) 0.7370(3)
H3 H 0.41990 1.11150 0.78900
C4 C 0.3761(4) 0.9931(4) 0.7178(3)
H4 H 0.36580 0.96270 0.75580
C5 C 0.3608(3) 0.9498(3) 0.6424(3)
C6 C 0.3357(4) 0.8561(3) 0.6186(3)
C7 C 0.3233(4) 0.7983(4) 0.6646(3)
H5 H 0.32900 0.81760 0.71760
C8 C 0.3028(4) 0.7124(4) 0.6326(4)
H6 H 0.29360 0.67210 0.66350
C9 C 0.2956(4) 0.6846(3) 0.5556(4)
H7 H 0.28270 0.62550 0.53360
C10 C 0.3076(4) 0.7447(3) 0.5112(3)
C11 C 0.2970(4) 0.7280(3) 0.4275(3)
C12 C 0.2761(4) 0.6470(3) 0.3798(4)
H8 H 0.26780 0.59740 0.40060
C13 C 0.2679(4) 0.6402(4) 0.3022(4)
H9 H 0.25490 0.58580 0.26910
C14 C 0.2785(4) 0.7125(3) 0.2731(3)
H10 H 0.27250 0.70870 0.21940
C15 C 0.2980(4) 0.7912(4) 0.3225(3)
H11 H 0.30380 0.84110 0.30160
C16 C 0.5894(4) 0.9541(3) 0.5889(3)
C17 C 0.5988(3) 0.9257(3) 0.6654(3)
C18 C 0.6209(4) 0.9850(4) 0.7350(3)
H12 H 0.63780 1.04420 0.73680
C19 C 0.6180(4) 0.9564(4) 0.8019(3)
C20 C 0.5984(4) 0.8707(4) 0.8019(3)
H13 H 0.59710 0.85180 0.84810
C21 C 0.5806(4) 0.8128(4) 0.7328(3)
C22 C 0.5787(4) 0.8393(3) 0.6645(3)
H14 H 0.56360 0.79860 0.61700
Cl1 Cl 0.63595(13) 1.02943(13) 0.88670(9)
Cl2 Cl 0.56071(13) 0.70575(10) 0.7349(1)
Cu1 Cu 0.35282(4) 0.91005(4) 0.48195(3)
N1 N 0.3711(3) 0.9907(2) 0.5857(2)
N2 N 0.3274(3) 0.8282(2) 0.5437(2)
N3 N 0.3090(3) 0.7990(3) 0.3988(3)
O1 O 0.6504(2) 1.0241(2) 0.59744(19)
O2 O 0.5235(2) 0.9092(2) 0.52467(19)
C23 C 0.1837(3) 0.4775(3) 0.5676(3)
C24 C 0.2797(3) 0.4459(3) 0.5753(3)
C25 C 0.3077(4) 0.4346(3) 0.5101(3)
H15 H 0.26790 0.44910 0.46140
C26 C 0.3944(4) 0.4020(3) 0.5174(3)
C27 C 0.4552(4) 0.3822(3) 0.5880(3)
H16 H 0.51540 0.36100 0.59270
C28 C 0.4253(4) 0.3945(3) 0.6518(3)
C29 C 0.3385(3) 0.4256(3) 0.6468(3)
H17 H 0.31940 0.43290 0.69130
C30 C -0.0490(3) 0.3330(3) 0.4653(3)
C31 C -0.0663(3) 0.2370(3) 0.4505(3)
C32 C -0.0682(3) 0.1908(3) 0.3804(3)
H18 H -0.05860 0.21880 0.34080
C33 C -0.0843(4) 0.1033(3) 0.3693(3)
C34 C -0.0984(4) 0.0599(3) 0.4256(3)
H19 H -0.10930 -0.00040 0.41690
C35 C -0.0960(3) 0.1076(3) 0.4944(3)
C36 C -0.0809(3) 0.1958(3) 0.5082(3)
H20 H -0.08050 0.22730 0.55600
C37 C -0.1393(3) 0.4110(3) 0.1833(3)
C38 C -0.2219(4) 0.3367(3) 0.1256(3)
C39 C -0.2498(5) 0.2643(4) 0.1504(3)
H21 H -0.21840 0.26100 0.20510
C40 C -0.3239(6) 0.1969(4) 0.0950(3)
C41 C -0.3729(4) 0.2008(4) 0.0151(3)
H22 H -0.42620 0.15490 -0.02200
C42 C -0.3422(4) 0.2725(3) -0.0087(3)
C43 C -0.2675(4) 0.3403(3) 0.0452(3)
H23 H -0.24710 0.38950 0.02760
C44 C 0.1169(3) 0.4164(3) 0.2785(3)
C45 C 0.1366(3) 0.3287(3) 0.2635(3)
C46 C 0.1491(3) 0.2802(3) 0.3213(3)
H24 H 0.14390 0.30140 0.37020
C47 C 0.1693(4) 0.2001(3) 0.3065(3)
C48 C 0.1745(4) 0.1667(3) 0.2348(3)
H25 H 0.18660 0.11120 0.22460
C49 C 0.1614(4) 0.2170(3) 0.1788(3)
C50 C 0.1428(3) 0.2969(3) 0.1910(3)
H26 H 0.13420 0.32990 0.15130
C51 C -0.0105(3) 0.6348(3) 0.2553(2)
C52 C -0.0767(3) 0.6985(3) 0.2563(3)
C53 C -0.1081(3) 0.7138(3) 0.3191(3)
H27 H -0.09250 0.68130 0.35950
C54 C -0.1627(4) 0.7774(3) 0.3220(3)
C55 C -0.1903(4) 0.8229(3) 0.2629(3)
H28 H -0.22770 0.86620 0.26580
C56 C -0.1625(4) 0.8042(3) 0.1989(3)
C57 C -0.1046(4) 0.7436(3) 0.1950(3)
H29 H -0.08430 0.73290 0.15150
C58 C 0.0730(4) 0.6641(3) 0.0242(3)
C59 C 0.0886(3) 0.7594(3) 0.0423(3)
C60 C 0.0945(4) 0.7999(3) 0.1156(3)
H30 H 0.09490 0.76870 0.15560
C61 C 0.0997(4) 0.8865(3) 0.1297(3)
C62 C 0.1019(4) 0.9343(3) 0.0733(3)
H31 H 0.10510 0.99390 0.08360
C63 C 0.0993(4) 0.8919(3) 0.0015(3)
C64 C 0.0917(4) 0.8047(3) -0.0160(3)
H32 H 0.08860 0.77680 -0.06610
C65 C 0.1840(4) 0.4686(3) 0.0502(3)
C66 C 0.2764(4) 0.4440(3) 0.0393(3)
C67 C 0.2756(4) 0.4271(3) -0.0372(3)
H33 H 0.21740 0.43120 -0.08230
C68 C 0.3607(4) 0.4042(3) -0.0467(3)
C69 C 0.4478(4) 0.3997(3) 0.0183(3)
H34 H 0.50630 0.38480 0.01110
C70 C 0.4469(4) 0.4173(3) 0.0933(3)
C71 C 0.3626(4) 0.4389(3) 0.1056(3)
H35 H 0.36330 0.44990 0.15800
Cl3 Cl 0.42986(12) 0.38727(10) 0.43658(9)
Cl4 Cl 0.50087(11) 0.36952(10) 0.74084(8)
Cl5 Cl -0.09030(12) 0.04474(8) 0.28019(8)
Cl6 Cl -0.11536(10) 0.05600(8) 0.56632(8)
Cl7 Cl -0.3327(5) 0.0955(4) 0.1248(4)
Cl8 Cl -0.39816(14) 0.27706(11) -0.10873(9)
Cl9 Cl 0.18948(11) 0.14034(8) 0.38034(8)
Cl10 Cl 0.17077(11) 0.17744(8) 0.08886(7)
Cl11 Cl -0.19399(11) 0.80090(9) 0.40514(8)
Cl12 Cl -0.20105(12) 0.85857(9) 0.12180(8)
Cl13 Cl 0.10206(12) 0.93714(8) 0.22071(8)
Cl14 Cl 0.10392(13) 0.95020(8) -0.06982(8)
Cl15 Cl 0.36204(13) 0.38173(11) -0.14123(9)
Cl16 Cl 0.55738(11) 0.41294(11) 0.17429(10)
Er1 Er -0.000853(15) 0.495839(12) 0.382827(11)
Er2 Er 0.026284(16) 0.512097(12) 0.117233(11)
O3 O 0.1299(2) 0.49413(19) 0.50233(17)
O4 O 0.1623(2) 0.4865(2) 0.62863(18)
O5 O -0.0500(2) 0.36627(18) 0.40707(17)
O6 O -0.0340(3) 0.37185(18) 0.53374(18)
O7 O -0.1071(2) 0.41085(19) 0.25686(17)
O8 O -0.1082(3) 0.46886(19) 0.15334(18)
O9 O 0.1198(2) 0.44524(19) 0.34706(17)
O10 O 0.1029(3) 0.45716(19) 0.22406(17)
O11 O 0.0093(2) 0.59369(18) 0.30990(17)
O12 O 0.0231(2) 0.62887(18) 0.20063(17)
O13 O 0.0993(2) 0.62863(18) 0.08322(17)
O14 O 0.0332(2) 0.62656(18) -0.04837(17)
O15 O 0.1052(2) 0.46852(19) -0.01158(18)
O16 O 0.1871(2) 0.4871(2) 0.11966(18)
Cl17? Cl -0.3883(5) 0.1136(5) 0.1198(4)
C1A C 0.6025(4) 0.9237(3) 0.3955(3)
H1A H 0.59710 0.89410 0.43520
C2A C 0.5829(4) 0.8769(3) 0.3201(3)
H2A H 0.56240 0.81650 0.30830
C3A C 0.5935(4) 0.9192(4) 0.2630(3)
H3A H 0.58010 0.88850 0.21100
C4A C 0.6239(4) 1.0069(4) 0.2822(3)
H4A H 0.63420 1.03730 0.24420
C5A C 0.6392(3) 1.0502(3) 0.3576(3)
C6A C 0.6643(4) 1.1439(3) 0.3814(3)
C7A C 0.6767(4) 1.2017(4) 0.3354(3)
H5A H 0.67100 1.18240 0.28240
C8A C 0.6972(4) 1.2876(4) 0.3674(4)
H6A H 0.70640 1.32790 0.33650
C9A C 0.7044(4) 1.3154(3) 0.4444(4)
H7A H 0.71730 1.37450 0.46640
C10A C 0.6924(4) 1.2553(3) 0.4888(3)
C11A C 0.7030(4) 1.2720(3) 0.5725(3)
C12A C 0.7239(4) 1.3530(3) 0.6202(4)
H8A H 0.73220 1.40260 0.59940
C13A C 0.7321(4) 1.3598(4) 0.6978(4)
H9A H 0.74510 1.41420 0.73090
C14A C 0.7215(4) 1.2875(3) 0.7269(3)
H10A H 0.72750 1.29130 0.78060
C15A C 0.7020(4) 1.2088(4) 0.6775(3)
H11A H 0.69620 1.15890 0.69840
C16A C 0.4106(4) 1.0459(3) 0.4111(3)
C17A C 0.4012(3) 1.0743(3) 0.3346(3)
C18A C 0.3791(4) 1.0150(4) 0.2650(3)
H12A H 0.36220 0.95580 0.26320
C19A C 0.3820(4) 1.0436(4) 0.1981(3)
C20A C 0.4016(4) 1.1293(4) 0.1981(3)
H13A H 0.40290 1.14820 0.15190
C21A C 0.4194(4) 1.1872(4) 0.2672(3)
C22A C 0.4213(4) 1.1607(3) 0.3355(3)
H14A H 0.43640 1.20140 0.38300
Cl1A Cl 0.36405(13) 0.97057(13) 0.11330(9)
Cl2A Cl 0.43929(13) 1.29425(10) 0.2651(1)
Cu1A Cu 0.64718(4) 1.08995(4) 0.51805(3)
N1A N 0.6289(3) 1.0093(2) 0.4143(2)
N2A N 0.6726(3) 1.1718(2) 0.4563(2)
N3A N 0.6910(3) 1.2010(3) 0.6012(3)
O1A O 0.3496(2) 0.9759(2) 0.40256(19)
O2A O 0.4765(2) 1.0908(2) 0.47533(19)
Er1A Er 0.000853(15) 0.504161(12) 0.617173(11)
Er2A Er -0.026284(16) 0.487903(12) -0.117233(11)
O4A O -0.1623(2) 0.5135(2) 0.37137(18)
O6A O 0.0340(3) 0.62815(18) 0.46626(18)
O14A O -0.0332(2) 0.37344(18) 0.04837(17)
O15A O -0.1052(2) 0.53148(19) 0.01158(18)
#END
