
#######################################################################
#
#                 Cambridge Crystallographic Data Centre
#                                CCDC
#
#######################################################################
#
# If this CIF has been generated from an entry in the Cambridge
# Structural Database, then it will include bibliographic, chemical,
# crystal, experimental, refinement or atomic coordinate data resulting
# from the CCDC's data processing and validation procedures.
#
#######################################################################

data_CSD_CIF_ALECAY
_audit_creation_date 2021-01-19
_audit_creation_method CSD-ConQuest-V1
_database_code_CSD ALECAY
_database_code_depnum_ccdc_archive 'CCDC 1950022'
_chemical_formula_sum 'C66 H48 N2 O16 U2'
_chemical_formula_moiety
;
(C62 H32 O16 U2 2-)n,2(C2 H8 N1 1+)
;
_journal_coden_Cambridge 1443
_journal_volume 14
_journal_year 2021
_journal_page_first 376
_journal_name_full 'Nano Res. '
loop_
_publ_author_name
"Zhijie Chen"
"Penghao Li"
"Xuan Zhang"
"M.R.Mian"
"Xingjie Wang"
"Peng Li"
"Zhichang Liu"
"M.OKeeffe"
"J.Fraser Stoddart"
"O.K.Farha"
_chemical_name_systematic
;
catena-[bis(dimethylammonium) 
(\m-4-[5,11,12,17,18-pentakis(4-(carboxylato)phenyl)pentacyclo[6.6.6.0^2,7^.0^
9,14^.0^15,20^]icosa-2,4,6,9,11,13,15,17,19-nonaen-4-yl]benzoato)-tetraoxo-di-
uranium(vi) unknown solvate]
;
_chemical_name_common
;
NU-1350
;
_cell_volume  23961.537
_exptl_crystal_colour 'colorless'
_exptl_crystal_description 'block'
_diffrn_ambient_temperature 200.2
_diffrn_special_details
;
twin

;
_refine_special_details
;
Disordered cations (dimethylammonium) and solvent molecules were not modelled 
and the disordered density was taken into account using the MASK/OLEX2 
procedure.
;
#These two values have been output from a single CSD field.
_refine_ls_R_factor_gt 0.0699
_refine_ls_wR_factor_gt 0.0699
_symmetry_cell_setting tetragonal
_symmetry_space_group_name_H-M 'P 43 21 2'
_symmetry_Int_Tables_number 96
loop_
_symmetry_equiv_pos_site_id
_symmetry_equiv_pos_as_xyz
1 x,y,z
2 1/2-y,1/2+x,3/4+z
3 -x,-y,1/2+z
4 1/2+y,1/2-x,1/4+z
5 1/2+x,1/2-y,1/4-z
6 y,x,-z
7 1/2-x,1/2+y,3/4-z
8 -y,-x,1/2-z
_cell_length_a 20.471(3)
_cell_length_b 20.471(3)
_cell_length_c 57.179(13)
_cell_angle_alpha 90
_cell_angle_beta 90
_cell_angle_gamma 90
_cell_formula_units_Z 4
loop_
_atom_type_symbol
_atom_type_radius_bond
C 0.68
H 0.23
O 0.68
U 1.96
loop_
_atom_site_label
_atom_site_type_symbol
_atom_site_fract_x
_atom_site_fract_y
_atom_site_fract_z
U1 U 0.29696(4) 0.41576(3) 0.17161(2)
O1 O 0.3884(6) 0.4675(5) 0.1518(2)
O2 O 0.3419(6) 0.3877(4) 0.19023(18)
O3 O 0.2425(6) 0.4464(5) 0.1510(2)
O4 O 0.7355(6) 1.0228(4) 0.0486(2)
O5 O 0.7615(7) 0.1965(6) 0.0887(2)
O6 O 0.8210(6) 0.9752(5) 0.0646(2)
O7 O 0.3572(6) 0.3675(5) 0.1395(2)
O8 O 0.7135(8) 0.1466(6) 0.05908(19)
C1 C 0.5327(7) 0.5359(6) 0.0450(3)
H1 H 0.50280 0.56290 0.05330
C2 C 0.6220(9) 0.4561(7) 0.0210(3)
H2 H 0.65820 0.43420 0.01410
C3 C 0.6919(8) 0.7302(7) 0.0073(2)
C4 C 0.6250(6) 0.7175(6) 0.0126(3)
H3 H 0.59480 0.74820 0.01870
C5 C 0.4827(8) 0.3986(5) 0.0804(3)
H4 H 0.48510 0.36490 0.06910
C6 C 0.5929(7) 0.4333(7) 0.0418(3)
C7 C 0.7128(7) 0.7940(6) 0.0172(2)
C8 C 0.5533(8) 0.4715(6) 0.0557(3)
C9 C 0.6396(6) 0.2583(7) 0.0456(2)
H5 H 0.62980 0.21960 0.03720
C10 C 0.7893(9) 0.8551(8) 0.0411(3)
H6 H 0.82500 0.85510 0.05180
C11 C 0.5552(8) 0.5560(6) 0.0242(3)
C12 C 0.6846(7) 0.3142(7) 0.0803(3)
H7 H 0.71060 0.31290 0.09400
C13 C 0.7718(7) 0.7923(6) 0.0292(3)
H8 H 0.79870 0.75460 0.02970
C14 C 0.5395(6) 0.6196(5) 0.0101(2)
H9 H 0.51030 0.64990 0.01900
C15 C 0.6996(7) 0.9061(7) 0.0246(3)
H10 H 0.67360 0.94440 0.02340
C16 C 0.6776(9) 0.8508(7) 0.0133(3)
H11 H 0.64030 0.85160 0.00340
C17 C 0.7578(8) 0.9101(8) 0.0376(3)
C18 C 0.4401(9) 0.4315(8) 0.1172(3)
C19 C 0.6770(7) 0.2565(7) 0.0663(2)
C20 C 0.6105(5) 0.6485(5) 0.0068(2)
C21 C 0.4775(11) 0.4903(10) 0.1164(3)
H12 H 0.48000 0.51990 0.12920
C22 C 0.3945(9) 0.4150(9) 0.1389(3)
C23 C 0.5967(6) 0.5097(6) 0.0113(2)
C24 C 0.4439(8) 0.3883(6) 0.1004(3)
H13 H 0.41980 0.34880 0.10170
C25 C 0.6148(8) 0.3760(6) 0.0533(3)
C26 C 0.7267(11) 0.1968(10) 0.0719(4)
C27 C 0.5197(7) 0.4590(6) 0.0763(3)
C28 C 0.6536(9) 0.3721(7) 0.0736(3)
H14 H 0.65880 0.40990 0.08310
C29 C 0.6187(8) 0.3158(7) 0.0384(3)
H15 H 0.60510 0.31940 0.02260
C30 C 0.5094(8) 0.5002(7) 0.0959(3)
H16 H 0.52810 0.54240 0.09430
C31 C 0.7736(8) 0.9663(6) 0.0504(3)
O1E O 0.4675(6) 0.3884(5) -0.1518(2)
O4E O 1.0228(6) 0.7355(4) -0.0486(2)
O5E O 0.1965(7) 0.7615(6) -0.0887(2)
O6E O 0.9752(6) 0.8210(5) -0.0646(2)
O7E O 0.3675(6) 0.3572(5) -0.1395(2)
O8E O 0.1466(8) 0.7135(6) -0.05908(19)
C1E C 0.5359(7) 0.5327(6) -0.0450(3)
H1E H 0.56290 0.50280 -0.05330
C2E C 0.4561(9) 0.6220(7) -0.0210(3)
H2E H 0.43420 0.65820 -0.01410
C3E C 0.7302(8) 0.6919(7) -0.0073(2)
C4E C 0.7175(6) 0.6250(6) -0.0126(3)
H3E H 0.74820 0.59480 -0.01870
C5E C 0.3986(8) 0.4827(5) -0.0804(3)
H4E H 0.36490 0.48510 -0.06910
C6E C 0.4333(7) 0.5929(7) -0.0418(3)
C7E C 0.7940(7) 0.7128(6) -0.0172(2)
C8E C 0.4715(8) 0.5533(6) -0.0557(3)
C9E C 0.2583(6) 0.6396(7) -0.0456(2)
H5E H 0.21960 0.62980 -0.03720
C10E C 0.8551(9) 0.7893(8) -0.0411(3)
H6E H 0.85510 0.82500 -0.05180
C11E C 0.5560(8) 0.5552(6) -0.0242(3)
C12E C 0.3142(7) 0.6846(7) -0.0803(3)
H7E H 0.31290 0.71060 -0.09400
C13E C 0.7923(7) 0.7718(6) -0.0292(3)
H8E H 0.75460 0.79870 -0.02970
C14E C 0.6196(6) 0.5395(5) -0.0101(2)
H9E H 0.64990 0.51030 -0.01900
C15E C 0.9061(7) 0.6996(7) -0.0246(3)
H10E H 0.94440 0.67360 -0.02340
C16E C 0.8508(9) 0.6776(7) -0.0133(3)
H11E H 0.85160 0.64030 -0.00340
C17E C 0.9101(8) 0.7578(8) -0.0376(3)
C18E C 0.4315(9) 0.4401(8) -0.1172(3)
C19E C 0.2565(7) 0.6770(7) -0.0663(2)
C20E C 0.6485(5) 0.6105(5) -0.0068(2)
C21E C 0.4903(11) 0.4775(10) -0.1164(3)
H12E H 0.51990 0.48000 -0.12920
C22E C 0.4150(9) 0.3945(9) -0.1389(3)
C23E C 0.5097(6) 0.5967(6) -0.0113(2)
C24E C 0.3883(8) 0.4439(6) -0.1004(3)
H13E H 0.34880 0.41980 -0.10170
C25E C 0.3760(8) 0.6148(6) -0.0533(3)
C26E C 0.1968(11) 0.7267(10) -0.0719(4)
C27E C 0.4590(7) 0.5197(6) -0.0763(3)
C28E C 0.3721(9) 0.6536(7) -0.0736(3)
H14E H 0.40990 0.65880 -0.08310
C29E C 0.3158(8) 0.6187(7) -0.0384(3)
H15E H 0.31940 0.60510 -0.02260
C30E C 0.5002(8) 0.5094(7) -0.0959(3)
H16E H 0.54240 0.52810 -0.09430
C31E C 0.9663(8) 0.7736(6) -0.0504(3)
U1E U 0.41576(4) 0.29696(3) -0.17161(2)
O2E O 0.3877(6) 0.3419(4) -0.19023(18)
O3E O 0.4464(6) 0.2425(5) -0.1510(2)
U1A U 0.08424(4) 0.79696(3) -0.07839(2)
U1A* U 1.08424(4) 0.79696(3) -0.07839(2)
U1D U 0.79696(4) 0.08424(3) 0.07839(2)
U1D* U 0.79696(4) 1.08424(3) 0.07839(2)
O4A O 0.4772(6) 0.2355(4) -0.2014(2)
O4D O 0.2355(6) 0.4772(4) 0.2014(2)
O5A O 0.3035(7) 0.2615(6) -0.1613(2)
O5D O 0.2615(7) 0.3035(6) 0.1613(2)
O6A O 0.5248(6) 0.3210(5) -0.1854(2)
O6D O 0.3210(6) 0.5248(5) 0.1854(2)
O8A O 0.3534(8) 0.2135(6) -0.19092(19)
O8D O 0.2135(8) 0.3534(6) 0.19092(19)
#END
