
#######################################################################
#
#                 Cambridge Crystallographic Data Centre
#                                CCDC
#
#######################################################################
#
# If this CIF has been generated from an entry in the Cambridge
# Structural Database, then it will include bibliographic, chemical,
# crystal, experimental, refinement or atomic coordinate data resulting
# from the CCDC's data processing and validation procedures.
#
#######################################################################

data_CSD_CIF_ALECUP
_audit_creation_date 2004-02-17
_audit_creation_method CSD-ConQuest-V1
_database_code_CSD ALECUP
_database_code_depnum_ccdc_archive 'CCDC 222488'
_chemical_formula_sum 'C22 H56 Mn4 N8 O34 P2'
_chemical_formula_moiety
;
(C6 H21 N4 3+)2n,n(C10 H2 Mn4 O28 P2 6-),6n(H2 O1)
;
_journal_coden_Cambridge 9
_journal_volume 42
_journal_year 2003
_journal_page_first 6154
_journal_name_full 'Inorg.Chem. '
loop_
_publ_author_name
"Yau-Chen Jiang"
"Sue-Lein Wang"
"Shang-Fan Lee"
"Kwang-Hwa Lii"
_chemical_name_systematic
;
catena-(bis(tris(2-Ammonioethyl)amine) 
pentakis(\m~2~-oxalato)-bis(\m~2~-hydrogen phosphato)-tetra-manganese(ii) 
hexahydrate)
;
_cell_volume   1162.684
_exptl_crystal_colour 'colorless'
_exptl_crystal_density_diffrn 1.797
_exptl_crystal_description 'columnar'
_diffrn_ambient_temperature 295
#These two values have been output from a single CSD field.
_refine_ls_R_factor_gt 0.0392
_refine_ls_wR_factor_gt 0.0392
_symmetry_cell_setting triclinic
_symmetry_space_group_name_H-M 'P -1'
_symmetry_Int_Tables_number 2
loop_
_symmetry_equiv_pos_site_id
_symmetry_equiv_pos_as_xyz
1 x,y,z
2 -x,-y,-z
_cell_length_a 8.8385(6)
_cell_length_b 9.0586(6)
_cell_length_c 16.020(1)
_cell_angle_alpha 77.616(1)
_cell_angle_beta 83.359(1)
_cell_angle_gamma 68.251(1)
_cell_formula_units_Z 1
loop_
_atom_type_symbol
_atom_type_radius_bond
C 0.68
H 0.23
Mn 1.35
N 0.68
O 0.68
P 1.05
loop_
_atom_site_label
_atom_site_type_symbol
_atom_site_fract_x
_atom_site_fract_y
_atom_site_fract_z
Mn1 Mn 0.22712(5) 0.27882(5) 0.42861(2)
Mn2 Mn 0.28383(6) 0.25503(5) 0.07339(3)
P1 P -0.15271(8) 0.35138(8) 0.52304(4)
O1 O -0.0267(2) 0.3251(3) 0.44898(13)
O2 O -0.2857(3) 0.2837(3) 0.50384(14)
H1 H -0.36040 0.35550 0.46340
O3 O -0.0880(3) 0.2545(2) 0.60911(12)
O4 O 0.2398(3) 0.4694(2) 0.47764(14)
O5 O 0.5020(2) 0.1531(2) 0.41326(12)
O6 O 0.2252(3) 0.1249(2) 0.33651(12)
O7 O 0.2950(2) 0.0714(2) 0.53422(13)
O8 O 0.2559(3) 0.4179(2) 0.29774(13)
O9 O 0.5352(3) 0.1566(3) 0.03299(16)
O10 O 0.2891(3) 0.0543(3) 0.02022(14)
O11 O 0.2828(3) 0.0982(2) 0.20006(12)
O12 O 0.2034(3) 0.4434(3) -0.03800(14)
O13 O 0.3233(3) 0.3857(3) 0.16242(13)
O14 O 0.0187(3) 0.3622(3) 0.09635(15)
O15 O 0.4517(3) 0.4623(3) -0.17084(17)
O16 O -0.4645(3) 0.4822(3) 0.36851(17)
O17 O 0.4846(4) -0.1882(4) 0.3554(2)
N1 N -0.1221(3) 0.9295(3) 0.21353(15)
N2 N -0.0949(3) 1.0815(3) 0.35997(16)
H2 H -0.02190 0.98490 0.35850
H3 H -0.17930 1.07550 0.39450
H4 H -0.05580 1.14460 0.38300
N3 N 0.2451(3) 0.7857(3) 0.22069(18)
H5 H 0.19310 0.75960 0.26920
H6 H 0.34070 0.70220 0.22060
H7 H 0.26460 0.88830 0.21810
N4 N -0.1612(3) 0.6629(3) 0.34378(16)
H8 H -0.10550 0.71670 0.35130
H9 H -0.15210 0.58350 0.37700
H10 H -0.27190 0.73280 0.36000
C1 C 0.2614(3) 0.1729(3) 0.26066(17)
C2 C 0.2817(3) 0.3411(3) 0.23838(18)
C3 C 0.5590(3) 0.0247(3) 0.46474(16)
C4 C 0.0538(4) 0.5239(4) -0.03896(18)
C5 C 0.5704(3) 0.0300(4) 0.00383(17)
C6 C -0.2308(4) 1.0886(4) 0.2307(2)
H11 H -0.32220 1.07560 0.26720
H12 H -0.27360 1.15780 0.17710
C7 C -0.1482(4) 1.1710(4) 0.2731(2)
H13 H -0.05410 1.18050 0.23780
H14 H -0.22310 1.27940 0.27700
C8 C -0.0068(4) 0.9444(4) 0.14032(19)
H15 H 0.01780 1.04110 0.13800
H16 H -0.05810 0.95650 0.08770
C9 C 0.1506(4) 0.7995(4) 0.1463(2)
H17 H 0.12590 0.70190 0.15200
H18 H 0.21640 0.80920 0.09410
C10 C -0.2142(4) 0.8299(4) 0.20038(19)
H19 H -0.20520 0.82300 0.14030
H20 H -0.32850 0.88320 0.21500
C11 C -0.1551(5) 0.6589(4) 0.2533(2)
H21 H -0.22310 0.60160 0.24370
H22 H -0.04410 0.60100 0.23510
O4A O -0.2398(3) 0.5306(2) 0.52236(14)
Mn1A Mn -0.22712(5) 0.72118(5) 0.57139(2)
O1A O 0.0267(2) 0.6749(3) 0.55102(13)
P1A P 0.15271(8) 0.64862(8) 0.47696(4)
O2A O 0.2857(3) 0.7163(3) 0.49616(14)
H1A H 0.36040 0.64450 0.53660
O3A O 0.0880(3) 0.7455(2) 0.39089(12)
O7A O 0.7050(2) -0.0714(2) 0.46578(13)
Mn1A* Mn 0.77288(5) -0.27882(5) 0.57139(2)
O5A O 0.4980(2) -0.1531(2) 0.58674(12)
C3A C 0.4410(3) -0.0247(3) 0.53526(16)
O10A O 0.7109(3) -0.0543(3) -0.02022(14)
Mn2A Mn 0.71617(6) -0.25503(5) -0.07339(3)
O9A O 0.4648(3) -0.1566(3) -0.03299(16)
C5A C 0.4296(3) -0.0300(4) -0.00383(17)
O14A O -0.0187(3) 0.6378(3) -0.09635(15)
Mn2A* Mn -0.28383(6) 0.74497(5) -0.07339(3)
O12A O -0.2034(3) 0.5566(3) 0.03800(14)
C4A C -0.0538(4) 0.4761(4) 0.03896(18)
O11A O 0.7172(3) -0.0982(2) -0.20006(12)
O12A* O 0.7966(3) -0.4434(3) 0.03800(14)
O13A O 0.6767(3) -0.3857(3) -0.16242(13)
O14A* O 0.9813(3) -0.3622(3) -0.09635(15)
O5A* O -0.5020(2) 0.8469(2) 0.58674(12)
O6A O -0.2252(3) 0.8751(2) 0.66349(12)
O7A* O -0.2950(2) 0.9286(2) 0.46578(13)
O8A O -0.2559(3) 0.5821(2) 0.70226(13)
C3A* C -0.5590(3) 0.9753(3) 0.53526(16)
C3* C -0.4410(3) 1.0247(3) 0.46474(16)
O7* O -0.7050(2) 1.0714(2) 0.53422(13)
O5* O -0.4980(2) 1.1531(2) 0.41326(12)
Mn1* Mn -0.77288(5) 1.27882(5) 0.42861(2)
#END
