
#######################################################################
#
#                 Cambridge Crystallographic Data Centre
#                                CCDC
#
#######################################################################
#
# If this CIF has been generated from an entry in the Cambridge
# Structural Database, then it will include bibliographic, chemical,
# crystal, experimental, refinement or atomic coordinate data resulting
# from the CCDC's data processing and validation procedures.
#
#######################################################################

data_CSD_CIF_ALEDAW
_audit_creation_date 2004-02-17
_audit_creation_method CSD-ConQuest-V1
_database_code_CSD ALEDAW
_database_code_depnum_ccdc_archive 'CCDC 222489'
_chemical_formula_sum 'C22 H56 Fe4 N8 O34 P2'
_chemical_formula_moiety
;
(C6 H21 N4 3+)2n,n(C10 H2 Fe4 O28 P2 6-),6n(H2 O1)
;
_journal_coden_Cambridge 9
_journal_volume 42
_journal_year 2003
_journal_page_first 6154
_journal_name_full 'Inorg.Chem. '
loop_
_publ_author_name
"Yau-Chen Jiang"
"Sue-Lein Wang"
"Shang-Fan Lee"
"Kwang-Hwa Lii"
_chemical_name_systematic
;
catena-(bis(tris(2-Ammonioethyl)amine) 
pentakis(\m~2~-oxalato)-bis(\m~2~-hydrogen phosphato)-tetra-iron(ii) 
hexahydrate)
;
_cell_volume   1125.588
_exptl_crystal_colour 'red'
_exptl_crystal_density_diffrn 1.862
_exptl_crystal_description 'columnar'
_diffrn_ambient_temperature 294
_refine_special_details
;
One methylene group is disordered over two sites with occupancies 
;
#These two values have been output from a single CSD field.
_refine_ls_R_factor_gt 0.0409
_refine_ls_wR_factor_gt 0.0409
_symmetry_cell_setting triclinic
_symmetry_space_group_name_H-M 'P -1'
_symmetry_Int_Tables_number 2
loop_
_symmetry_equiv_pos_site_id
_symmetry_equiv_pos_as_xyz
1 x,y,z
2 -x,-y,-z
_cell_length_a 8.7776(9)
_cell_length_b 8.9257(9)
_cell_length_c 15.8844(16)
_cell_angle_alpha 78.630(2)
_cell_angle_beta 84.018(2)
_cell_angle_gamma 67.372(2)
_cell_formula_units_Z 1
loop_
_atom_type_symbol
_atom_type_radius_bond
C 0.68
H 0.23
Fe 1.34
N 0.68
O 0.68
P 1.05
loop_
_atom_site_label
_atom_site_type_symbol
_atom_site_fract_x
_atom_site_fract_y
_atom_site_fract_z
Fe1 Fe 0.22717(5) 0.27304(5) 0.42887(3)
Fe2 Fe 0.27424(6) 0.24732(6) 0.07734(3)
P1 P -0.15149(10) 0.35584(10) 0.52114(5)
O1 O -0.0250(3) 0.3129(3) 0.44728(14)
O2 O -0.2963(3) 0.3025(3) 0.50240(17)
H1 H -0.37120 0.38280 0.46390
O3 O -0.0906(3) 0.2601(3) 0.60836(15)
O4 O 0.2256(3) 0.4589(3) 0.48297(16)
O5 O 0.4968(3) 0.1562(3) 0.41457(15)
O6 O 0.2361(3) 0.1120(3) 0.33875(14)
O7 O 0.2919(3) 0.0667(3) 0.53164(15)
O8 O 0.2417(3) 0.4170(3) 0.30127(15)
O9 O 0.5274(3) 0.1536(3) 0.04233(17)
O10 O 0.2884(3) 0.0505(3) 0.01863(15)
O11 O 0.2837(3) 0.0893(3) 0.20033(15)
O12 O 0.2080(3) 0.4363(3) -0.03203(16)
O13 O 0.3008(3) 0.3880(3) 0.16406(15)
O14 O 0.0102(3) 0.3575(3) 0.09355(17)
O15 O -0.5404(4) 0.4615(4) 0.8431(2)
O16 O -0.4673(4) 0.4882(5) 0.3610(2)
O17 O 0.4840(5) 0.7965(6) 0.3665(3)
N1 N 0.1280(3) 0.0690(3) 0.78600(17)
N2 N 0.0954(3) -0.0843(4) 0.63901(18)
H2 H 0.05390 -0.13910 0.61520
H3 H 0.02030 0.00750 0.64510
H4 H 0.17640 -0.07970 0.60660
N3 N -0.2412(4) 0.2225(4) 0.7838(2)
H5 H -0.26020 0.12490 0.77930
H6 H -0.33910 0.29450 0.78570
H7 H -0.18740 0.23790 0.73070
N4 N 0.1525(4) 0.3465(4) 0.65826(18)
C1 C 0.2630(4) 0.1648(4) 0.2623(2)
C2 C 0.2695(4) 0.3383(4) 0.2407(2)
C3 C 0.5582(4) 0.0265(4) 0.46602(19)
C4 C 0.5690(4) 0.0307(4) 0.00669(19)
C5 C 0.0567(4) 0.5237(4) -0.0367(2)
C6 C 0.2374(4) -0.0945(5) 0.7683(2)
H8 H 0.28130 -0.16480 0.82200
H9 H 0.32980 -0.08380 0.73190
C7 C 0.1528(5) -0.1762(5) 0.7252(2)
H10 H 0.22890 -0.28680 0.72000
H11 H 0.05900 -0.18510 0.76080
C8 C 0.0165(4) 0.0538(4) 0.8607(2)
H12 H 0.07300 0.03790 0.91300
H13 H -0.00970 -0.04270 0.86190
C9 C -0.1414(5) 0.2028(5) 0.8586(2)
H14 H -0.20540 0.19170 0.91140
H15 H -0.11580 0.30040 0.85490
C10 C 0.2236(5) 0.1670(5) 0.8003(2)
C11 C 0.1575(7) 0.3440(7) 0.7525(3)
C12? C 0.2864(16) 0.2372(16) 0.7126(8)
O4A O -0.2256(3) 0.5411(3) 0.51703(16)
Fe1A Fe -0.22717(5) 0.72696(5) 0.57113(3)
O1A O 0.0250(3) 0.6871(3) 0.55272(14)
P1A P 0.15149(10) 0.64416(10) 0.47886(5)
O2A O 0.2963(3) 0.6975(3) 0.49760(17)
H1A H 0.37120 0.61720 0.53610
O3A O 0.0906(3) 0.7399(3) 0.39164(15)
O7A O 0.7081(3) -0.0667(3) 0.46836(15)
Fe1A* Fe 0.77283(5) -0.27304(5) 0.57113(3)
O5A O 0.5032(3) -0.1562(3) 0.58543(15)
C3A C 0.4418(4) -0.0265(4) 0.53398(19)
O10A O 0.7116(3) -0.0505(3) -0.01863(15)
Fe2A Fe 0.72576(6) -0.24732(6) -0.07734(3)
O9A O 0.4726(3) -0.1536(3) -0.04233(17)
C4A C 0.4310(4) -0.0307(4) -0.00669(19)
O14A O -0.0102(3) 0.6425(3) -0.09355(17)
Fe2A* Fe -0.27424(6) 0.75268(6) -0.07734(3)
O12A O -0.2080(3) 0.5637(3) 0.03203(16)
C5A C -0.0567(4) 0.4763(4) 0.0367(2)
O11A O 0.7163(3) -0.0893(3) -0.20033(15)
O12A* O 0.7920(3) -0.4363(3) 0.03203(16)
O13A O 0.6992(3) -0.3880(3) -0.16406(15)
O14A* O 0.9898(3) -0.3575(3) -0.09355(17)
O5A* O -0.4968(3) 0.8438(3) 0.58543(15)
O6A O -0.2361(3) 0.8880(3) 0.66125(14)
O7A* O -0.2919(3) 0.9333(3) 0.46836(15)
O8A O -0.2417(3) 0.5830(3) 0.69873(15)
C3A* C -0.5582(4) 0.9735(4) 0.53398(19)
C3* C -0.4418(4) 1.0265(4) 0.46602(19)
O7* O -0.7081(3) 1.0667(3) 0.53164(15)
O5* O -0.5032(3) 1.1562(3) 0.41457(15)
Fe1* Fe -0.77283(5) 1.27304(5) 0.42887(3)
#END
