
#######################################################################
#
#                 Cambridge Crystallographic Data Centre
#                                CCDC
#
#######################################################################
#
# If this CIF has been generated from an entry in the Cambridge
# Structural Database, then it will include bibliographic, chemical,
# crystal, experimental, refinement or atomic coordinate data resulting
# from the CCDC's data processing and validation procedures.
#
#######################################################################

data_CSD_CIF_ALIPEQ
_audit_creation_date 2004-02-17
_audit_creation_method CSD-ConQuest-V1
_database_code_CSD ALIPEQ
_database_code_depnum_ccdc_archive 'CCDC 223028'
_chemical_formula_sum 'C8 H17 Cd1 Na2 O24.5 Zr1'
_chemical_formula_moiety
;
(C8 Cd1 O16 Zr1 2-)n,2n(Na1 1+),8.5n(H2 O1)
;
_journal_coden_Cambridge 208
_journal_volume 170
_journal_year 2003
_journal_page_first 330
_journal_name_full 'J.Solid State Chem. '
loop_
_publ_author_name
"E.Jeanneau"
"N.Audebrand"
"M.Le Floch"
"B.Bureau"
"D.Louer"
_chemical_name_systematic
;
catena-(di-sodium tetrakis(\m~2~-oxalato)-cadmium-zirconium hydrate)
;
_cell_volume   1642.488
_exptl_crystal_colour 'colorless'
_exptl_crystal_density_diffrn 2.289
_exptl_crystal_description 'bipyramidal'
_diffrn_ambient_temperature 298
#These two values have been output from a single CSD field.
_refine_ls_R_factor_gt 0.0976
_refine_ls_wR_factor_gt 0.0976
_symmetry_cell_setting hexagonal
_symmetry_space_group_name_H-M 'P 64 2 2'
_symmetry_Int_Tables_number 181
loop_
_symmetry_equiv_pos_site_id
_symmetry_equiv_pos_as_xyz
1 x,y,z
2 -y,x-y,1/3+z
3 -x+y,-x,2/3+z
4 -x,-y,z
5 y,-x+y,1/3+z
6 x-y,x,2/3+z
7 y,x,1/3-z
8 x-y,-y,-z
9 -x,-x+y,2/3-z
10 -y,-x,1/3-z
11 -x+y,y,-z
12 x,x-y,2/3-z
_cell_length_a 8.793(1)
_cell_length_b 8.793(1)
_cell_length_c 24.530(1)
_cell_angle_alpha 90
_cell_angle_beta 90
_cell_angle_gamma 120
_cell_formula_units_Z 3
loop_
_atom_type_symbol
_atom_type_radius_bond
C 0.68
Cd 1.69
Na 1.48
O 0.68
Zr 1.56
loop_
_atom_site_label
_atom_site_type_symbol
_atom_site_fract_x
_atom_site_fract_y
_atom_site_fract_z
Cd1 Cd 0.50000 0.50000 0.66670
Zr1 Zr 1.00000 0.50000 0.83330
O1 O 0.5638(11) 0.306(1) 0.7236(4)
O2 O 0.9112(9) 0.6580(9) 0.7866(3)
O3 O 0.7405(10) 0.6602(9) 0.7195(3)
O4 O 0.7682(12) 0.3167(9) 0.7809(3)
C1 C 0.7033(11) 0.3827(11) 0.7505(3)
C2 C 0.7888(9) 0.5841(11) 0.7517(3)
Na1 Na 1.00000 0.00000 0.83330
Na2 Na 1.00000 1.00000 0.66670
O5 O 0.50000 0.50000 0.8339(6)
O6 O 0.2063(18) 0.0186(16) 0.7560(4)
O7 O 1.00000 0.50000 0.6674(6)
O1C O 0.4362(11) 0.694(1) 0.7236(4)
O2C O 0.0888(9) 0.3420(9) 0.7866(3)
O3C O 0.2595(10) 0.3398(9) 0.7195(3)
O4C O 0.2318(12) 0.6833(9) 0.7809(3)
C1C C 0.2967(11) 0.6173(11) 0.7505(3)
C2C C 0.2112(9) 0.4159(11) 0.7517(3)
O1F O 0.3060(11) 0.5638(10) 0.609733(400)
O2F O 0.6580(9) 0.9112(9) 0.546733(300)
O3F O 0.6602(10) 0.7405(9) 0.613833(300)
O4F O 0.3167(12) 0.7682(9) 0.552433(300)
C1F C 0.3827(11) 0.7033(11) 0.582833(300)
C2F C 0.5841(9) 0.7888(11) 0.581633(300)
O1I O 0.6940(11) 0.4362(10) 0.609733(400)
O2I O 0.3420(9) 0.0888(9) 0.546733(300)
O3I O 0.3398(10) 0.2595(9) 0.613833(300)
O4I O 0.6833(12) 0.2318(9) 0.552433(300)
C1I C 0.6173(11) 0.2967(11) 0.582833(300)
C2I C 0.4159(9) 0.2112(11) 0.581633(300)
O2C* O 1.0888(9) 0.3420(9) 0.7866(3)
O2H O 1.0888(9) 0.7468(9) 0.880067(300)
O2K O 0.9112(9) 0.2532(9) 0.880067(300)
O4C* O 1.2318(12) 0.6833(9) 0.7809(3)
O4H O 1.2318(12) 0.5485(9) 0.885767(300)
O4K O 0.7682(12) 0.4515(9) 0.885767(300)
Zr1* Zr 0.00000 0.50000 0.83330
Zr1B Zr 0.50000 1.00000 0.49997
Zr1B* Zr 0.50000 0.00000 0.49997
#END
