
#######################################################################
#
#                 Cambridge Crystallographic Data Centre
#                                CCDC
#
#######################################################################
#
# If this CIF has been generated from an entry in the Cambridge
# Structural Database, then it will include bibliographic, chemical,
# crystal, experimental, refinement or atomic coordinate data resulting
# from the CCDC's data processing and validation procedures.
#
#######################################################################

data_CSD_CIF_ALIQUH
_audit_creation_date 2004-02-17
_audit_creation_method CSD-ConQuest-V1
_database_code_CSD ALIQUH
_database_code_depnum_ccdc_archive 'CCDC 223118'
_chemical_formula_sum 'C10 H12 Mn2 N2 O12'
_chemical_formula_moiety
;
(C6 Mn2 O12 2-)n,n(C4 H12 N2 2+)
;
_journal_coden_Cambridge 208
_journal_volume 172
_journal_year 2003
_journal_page_first 212
_journal_name_full 'J.Solid State Chem. '
loop_
_publ_author_name
"Z.A.D.Lethbridge"
"A.F.Congreve"
"E.Esslemont"
"A.M.Z.Slawin"
"P.Lightfoot"
_chemical_name_systematic
;
catena-(piperazine-1,4-dium 
(\m~4~-oxalato)-bis(\m~2~-oxalato)-di-manganese(ii))
;
_cell_volume    367.721
_exptl_crystal_density_diffrn 2.087
_diffrn_ambient_temperature 273.2
#These two values have been output from a single CSD field.
_refine_ls_R_factor_gt 0.0467
_refine_ls_wR_factor_gt 0.0467
_symmetry_cell_setting triclinic
_symmetry_space_group_name_H-M 'P -1'
_symmetry_Int_Tables_number 2
loop_
_symmetry_equiv_pos_site_id
_symmetry_equiv_pos_as_xyz
1 x,y,z
2 -x,-y,-z
_cell_length_a 5.9305(5)
_cell_length_b 7.7763(7)
_cell_length_c 8.1707(7)
_cell_angle_alpha 81.489(2)
_cell_angle_beta 81.045(2)
_cell_angle_gamma 86.076(2)
_cell_formula_units_Z 1
loop_
_atom_type_symbol
_atom_type_radius_bond
C 0.68
H 0.23
Mn 1.35
N 0.68
O 0.68
loop_
_atom_site_label
_atom_site_type_symbol
_atom_site_fract_x
_atom_site_fract_y
_atom_site_fract_z
Mn1 Mn 0.44784(8) 0.36712(6) 0.85331(6)
O1 O 0.5218(5) 0.6054(3) 0.6703(3)
O2 O 0.5513(4) 0.7109(3) 0.3981(3)
O3 O 0.2754(4) 0.5382(3) 1.0335(3)
O4 O -0.0639(4) 0.5882(3) 1.1875(3)
O5 O 0.6838(4) 0.1249(3) 0.8494(3)
O6 O 0.7219(5) -0.1543(3) 0.9616(3)
C1 C 0.5214(5) 0.5908(4) 0.5221(4)
C2 C 0.0579(5) 0.5381(4) 1.0654(4)
C3 C 0.6181(5) -0.0099(4) 0.9459(4)
N1 N 0.0550(6) 0.1139(4) 0.6095(4)
C4 C 0.1514(6) -0.0689(5) 0.6197(5)
C5 C 0.0096(6) 0.1832(5) 0.4361(5)
H1 H -0.073(8) 0.123(6) 0.688(6)
H2 H 0.161(9) 0.155(6) 0.636(6)
H3 H 0.308(9) -0.046(7) 0.535(6)
H4 H 0.181(10) -0.116(8) 0.746(7)
H5 H -0.06(1) 0.308(8) 0.436(7)
H6 H 0.160(7) 0.186(5) 0.373(5)
C1A C 0.4786(5) 0.4092(4) 0.4779(4)
O1A O 0.4782(5) 0.3946(3) 0.3297(3)
O2A O 0.4487(4) 0.2891(3) 0.6019(3)
C2A C -0.0579(5) 0.4619(4) 0.9346(4)
O3A O -0.2754(4) 0.4618(3) 0.9665(3)
O4A O 0.0639(4) 0.4118(3) 0.8125(3)
C3A C 0.3819(5) 0.0099(4) 1.0541(4)
O5A O 0.3162(4) -0.1249(3) 1.1506(3)
O6A O 0.2781(5) 0.1543(3) 1.0384(3)
Mn1A Mn 0.55216(8) 0.63288(6) 0.14669(6)
O3A* O 0.7246(4) 0.4618(3) 0.9665(3)
Mn1A* Mn 0.55216(8) 0.63288(6) 1.14669(6)
Mn1A** Mn -0.44784(8) 0.63288(6) 1.14669(6)
Mn1A*** Mn 0.55216(8) -0.36712(6) 1.14669(6)
Mn1* Mn -0.55216(8) 0.36712(6) 0.85331(6)
O3* O 0.2754(4) 0.5382(3) 0.0335(3)
O3A** O 0.7246(4) 0.4618(3) -0.0335(3)
O4* O 0.9361(4) 0.5882(3) 0.1875(3)
O5A* O 0.3162(4) 0.8751(3) 0.1506(3)
O6* O 0.7219(5) 0.8457(3) -0.0384(3)
C5A C -0.0096(6) -0.1832(5) 0.5639(5)
N1A N -0.0550(6) -0.1139(4) 0.3905(4)
C4A C -0.1514(6) 0.0689(5) 0.3803(5)
H3A H -0.308(9) 0.046(7) 0.465(6)
H4A H -0.181(10) 0.116(8) 0.254(7)
H1A H 0.073(8) -0.123(6) 0.312(6)
H2A H -0.161(9) -0.155(6) 0.364(6)
H5A H 0.06(1) -0.308(8) 0.564(7)
H6A H -0.160(7) -0.186(5) 0.627(5)
#END
