
#######################################################################
#
#                 Cambridge Crystallographic Data Centre
#                                CCDC
#
#######################################################################
#
# If this CIF has been generated from an entry in the Cambridge
# Structural Database, then it will include bibliographic, chemical,
# crystal, experimental, refinement or atomic coordinate data resulting
# from the CCDC's data processing and validation procedures.
#
#######################################################################

data_CSD_CIF_ALOLOD
_audit_creation_date 2011-05-03
_audit_creation_method CSD-ConQuest-V1
_database_code_CSD ALOLOD
_database_code_depnum_ccdc_archive 'CCDC 798130'
_chemical_formula_sum 'C78 H67 In3 N3 O27'
_chemical_formula_moiety
;
(C2 H8 N1 1+)3n,n(C72 H43 In3 O27 3-)
;
_journal_coden_Cambridge 179
_journal_volume 50
_journal_year 2011
_journal_page_first 1849
_journal_name_full 'Angew.Chem.,Int.Ed. '
loop_
_publ_author_name
"Shou-Tian Zheng"
"Fan Zuo"
"Tao Wu"
"B.Irfanoglu"
"Chengtsung Chou"
"R.A.Nieto"
"Pingyun Feng"
"Xianhui Bu"
_chemical_name_systematic
;
catena-[tris(Dimethylammonium) 
tris(\m~2~-5-hydroxyisophthalato-O,O':O'',O''')-tris(\m~2~-4,4'-stilbenedicarb
oxylato-O,O':O'',O''')-tri-indium(iii) unknown solvate]
;
_chemical_name_common
;
CPM-3
;
_cell_volume  21113.544
_exptl_crystal_density_diffrn 0.855
_exptl_special_details
;
We calculate the structure contains 27% void space

;
_diffrn_ambient_temperature 296
_refine_special_details
;
The paper states the structure contains additional solvent, this has not been 
modelled from the diffraction data and no further details are given.
;
#These two values have been output from a single CSD field.
_refine_ls_R_factor_gt 0.0946
_refine_ls_wR_factor_gt 0.0946
_symmetry_cell_setting hexagonal
_symmetry_space_group_name_H-M 'P 31 c'
_symmetry_Int_Tables_number 159
loop_
_symmetry_equiv_pos_site_id
_symmetry_equiv_pos_as_xyz
1 x,y,z
2 -y,x-y,z
3 -x+y,-x,z
4 y,x,1/2+z
5 -x,-x+y,1/2+z
6 x-y,-y,1/2+z
_cell_length_a 27.2340(2)
_cell_length_b 27.2340(2)
_cell_length_c 32.8706(7)
_cell_angle_alpha 90
_cell_angle_beta 90
_cell_angle_gamma 120
_cell_formula_units_Z 6
loop_
_atom_type_symbol
_atom_type_radius_bond
C 0.68
H 0.23
In 1.42
N 0.68
O 0.64
loop_
_atom_site_label
_atom_site_type_symbol
_atom_site_fract_x
_atom_site_fract_y
_atom_site_fract_z
In1 In -0.12618(4) -0.18269(4) -0.5506(3)
In2 In -0.38584(5) -0.53977(4) -0.6277(3)
In3 In -0.48331(4) -0.27650(4) -0.6276(3)
O1 O -0.0608(6) -0.1334(6) -0.5067(6)
O2 O 0.0551(5) -0.0773(5) -0.0931(5)
O3 O -0.0870(4) -0.2441(4) -0.5517(5)
O4 O -0.1805(5) -0.2775(4) -0.5517(5)
O5 O -0.2104(5) -0.1895(5) -0.5580(5)
O6 O -0.1390(6) -0.1050(6) -0.5600(6)
O7 O 0.1348(6) -0.0571(7) -0.1169(5)
O8 O -0.1426(9) -0.1890(7) -0.4798(5)
O9 O -0.4843(7) -0.3551(6) -0.6277(6)
O10 O -0.3870(5) -0.2396(5) -0.6245(6)
O11 O -0.5684(6) -0.3690(6) -0.6318(7)
O12 O -0.4180(5) -0.1777(5) -0.6261(6)
O13 O -0.4844(5) -0.2886(6) -0.5545(5)
O14 O -0.4095(6) -0.6136(5) -0.5838(6)
O15 O -0.4307(6) -0.4919(7) -0.6326(6)
O16 O -0.3095(5) -0.4545(5) -0.6185(4)
O17 O -0.4890(4) -0.5815(5) -0.6285(6)
O18 O -0.5319(6) -0.2570(6) -0.5835(6)
O19 O -0.6020(7) -0.2057(6) -0.1755(7)
O20 O -0.4699(5) -0.7235(6) -0.1716(6)
O21 O -0.5252(5) -0.8000(6) -0.1943(6)
O22 O -0.6270(11) -0.1501(9) -0.1915(7)
O23 O -0.2962(4) -0.5278(5) -0.6160(5)
O24 O -0.3963(5) -0.5371(4) -0.5576(5)
O25 O -0.2388(8) 0.0068(8) -0.6057(7)
H1 H -0.21490 0.02690 -0.58890
O26 O -0.6791(6) -0.5869(7) -0.6641(6)
H2 H -0.70130 -0.58140 -0.65070
O27 O -0.0832(7) -0.4281(8) -0.5746(7)
H3 H -0.08790 -0.45250 -0.59120
C1 C 0.0887(8) -0.0689(7) -0.1251(5)
C2 C 0.0595(8) -0.0788(6) -0.1658(6)
C3 C 0.0941(8) -0.0692(7) -0.1995(6)
H4 H 0.13180 -0.05970 -0.19650
C4 C 0.0702(7) -0.0743(8) -0.2377(6)
H5 H 0.09210 -0.06950 -0.26070
C5 C 0.0146(8) -0.0864(11) -0.2426(5)
C6 C -0.0208(8) -0.1014(11) -0.2089(6)
H6 H -0.05950 -0.11550 -0.21210
C7 C 0.0027(10) -0.0950(11) -0.1704(7)
H7 H -0.01980 -0.10160 -0.14750
C8 C -0.0261(15) -0.1038(17) -0.2755(9)
H8 H -0.06520 -0.12290 -0.27210
C9 C 0.0027(16) -0.0871(16) -0.3154(10)
H9 H 0.04190 -0.06390 -0.31560
C10 C -0.0260(15) -0.1046(15) -0.3543(10)
C11 C 0.0097(14) -0.0791(11) -0.3876(8)
H10 H 0.04810 -0.05300 -0.38490
C12 C -0.0170(15) -0.0962(12) -0.4251(8)
H11 H 0.00580 -0.07890 -0.44760
C13 C -0.0711(14) -0.1341(10) -0.4331(7)
C14 C -0.1098(15) -0.1626(14) -0.4017(8)
H12 H -0.14720 -0.19080 -0.40570
C15 C -0.0844(15) -0.1429(14) -0.3632(12)
H13 H -0.10860 -0.15660 -0.34090
C16 C -0.0928(15) -0.1567(12) -0.4756(8)
C17 C -0.2507(11) -0.0474(11) -0.6014(9)
C18 C -0.2117(9) -0.0599(8) -0.5828(7)
H14 H -0.17550 -0.03190 -0.57510
C19 C -0.2320(12) -0.1193(11) -0.5767(9)
C20 C -0.2821(7) -0.1565(7) -0.5957(6)
H15 H -0.29010 -0.19370 -0.59890
C21 C -0.3200(8) -0.1435(8) -0.6101(7)
C22 C -0.3065(8) -0.0857(7) -0.6109(7)
H16 H -0.33280 -0.07470 -0.61730
C23 C -0.3768(8) -0.1884(8) -0.6204(7)
C24 C -0.1893(7) -0.1389(7) -0.5656(6)
C25 C -0.6214(6) -0.5460(7) -0.6525(7)
C26 C -0.6108(8) -0.4907(7) -0.6499(7)
H17 H -0.63910 -0.48140 -0.65370
C27 C -0.5552(7) -0.4501(9) -0.6412(7)
C28 C -0.5144(7) -0.4661(7) -0.6366(8)
H18 H -0.47680 -0.43750 -0.63390
C29 C -0.5260(6) -0.5219(6) -0.6358(11)
C30 C -0.5807(6) -0.5621(8) -0.6472(11)
H19 H -0.59010 -0.59950 -0.65130
C31 C -0.4808(7) -0.5345(6) -0.6316(7)
C32 C -0.5377(10) -0.3885(10) -0.6351(9)
C33 C -0.6203(15) -0.1825(15) -0.2063(14)
C34 C -0.6172(9) -0.2009(8) -0.2491(6)
C35 C -0.5946(10) -0.2362(9) -0.2543(8)
H20 H -0.58540 -0.25220 -0.23270
C36 C -0.5869(11) -0.2455(12) -0.2948(7)
H21 H -0.57200 -0.26890 -0.30070
C37 C -0.6007(13) -0.2213(12) -0.3268(9)
C38 C -0.6255(11) -0.1881(10) -0.3204(5)
H22 H -0.63970 -0.17640 -0.34180
C39 C -0.6281(7) -0.1732(7) -0.2803(6)
H23 H -0.63690 -0.14510 -0.27450
C40 C -0.609(2) -0.235(3) -0.3698(9)
H24 H -0.63930 -0.23490 -0.38350
C41 C -0.5724(13) -0.2472(13) -0.3905(7)
H25 H -0.54800 -0.25260 -0.37370
C42 C -0.565(1) -0.2534(10) -0.4335(7)
C43 C -0.5285(10) -0.2750(9) -0.4374(7)
H26 H -0.51500 -0.28470 -0.41460
C44 C -0.5129(12) -0.2815(11) -0.4764(6)
H27 H -0.48860 -0.29610 -0.47880
C45 C -0.5307(7) -0.2679(8) -0.5121(6)
C46 C -0.5685(9) -0.2478(10) -0.5074(10)
H28 H -0.58430 -0.24080 -0.53020
C47 C -0.5826(13) -0.2384(14) -0.4687(8)
H29 H -0.60470 -0.22140 -0.46620
C48 C -0.5103(8) -0.2756(7) -0.5509(5)
C49 C -0.1235(9) -0.4122(8) -0.5805(7)
C50 C -0.1778(9) -0.4525(9) -0.5977(9)
H30 H -0.18540 -0.48770 -0.60730
C51 C -0.2192(9) -0.4348(9) -0.5991(7)
C52 C -0.2082(9) -0.3837(8) -0.5795(8)
H31 H -0.23790 -0.37680 -0.57520
C53 C -0.1520(9) -0.3426(9) -0.5662(9)
C54 C -0.1125(9) -0.3610(7) -0.5669(9)
H32 H -0.07620 -0.33630 -0.55740
C55 C -0.1418(9) -0.2869(9) -0.5559(7)
C56 C -0.2783(6) -0.4750(8) -0.6120(9)
C57 C -0.4913(8) -0.7567(8) -0.2022(8)
C58 C -0.4724(7) -0.7363(9) -0.2432(8)
C59 C -0.4958(12) -0.7741(12) -0.2771(9)
H33 H -0.52250 -0.81230 -0.27360
C60 C -0.4750(14) -0.7491(15) -0.3182(8)
H34 H -0.48710 -0.77330 -0.34050
C61 C -0.4385(14) -0.691(2) -0.3249(10)
C62 C -0.4144(11) -0.6478(14) -0.2835(11)
H35 H -0.38950 -0.60900 -0.28570
C63 C -0.4325(11) -0.6714(14) -0.2502(9)
H36 H -0.42130 -0.64830 -0.22730
C64 C -0.4237(14) -0.6566(17) -0.3623(11)
H37 H -0.40850 -0.61750 -0.36300
C65 C -0.4342(15) -0.6868(14) -0.3919(19)
H38 H -0.44760 -0.72550 -0.39000
C66 C -0.4235(10) -0.6548(10) -0.4346(8)
C67 C -0.4373(10) -0.6876(10) -0.4697(7)
H39 H -0.45130 -0.72630 -0.46640
C68 C -0.4318(10) -0.6673(8) -0.5092(7)
H40 H -0.44040 -0.69090 -0.53170
C69 C -0.4127(9) -0.6098(8) -0.5131(7)
C70 C -0.3949(11) -0.5744(11) -0.4793(7)
H41 H -0.37750 -0.53530 -0.48280
C71 C -0.4031(12) -0.5971(11) -0.4404(9)
H42 H -0.39480 -0.57360 -0.41790
C72 C -0.4026(8) -0.5822(10) -0.5548(7)
N1 N 0.00000 0.00000 -0.0468(10)
C73 C 0.00000 0.00000 -0.0933(10)
C74 C 0.00000 0.00000 -0.0003(10)
N2 N -0.225(2) 0.0704(18) -0.7049(15)
C75 C -0.202(3) 0.109(3) -0.6677(19)
H43 H -0.19270 0.14690 -0.67500
H44 H -0.16800 0.10970 -0.65830
H45 H -0.22950 0.09520 -0.64640
C76 C -0.235(2) 0.0147(19) -0.6864(19)
H46 H -0.25280 -0.01520 -0.70610
H47 H -0.25830 0.00560 -0.66280
H48 H -0.19880 0.01860 -0.67890
N3 N -0.4509(18) -0.1685(16) -0.2323(14)
C77 C -0.437(3) -0.185(3) -0.2736(17)
H49 H -0.42370 -0.15310 -0.29190
H50 H -0.47040 -0.21640 -0.28460
H51 H -0.40800 -0.19460 -0.27020
C78 C -0.479(2) -0.2269(19) -0.2120(19)
H52 H -0.48850 -0.22370 -0.18450
H53 H -0.45260 -0.24090 -0.21210
H54 H -0.51220 -0.25260 -0.22670
N4 N -0.33330 -0.66670 -0.1563(11)
C79 C -0.33330 -0.66670 -0.1098(11)
C80 C -0.33330 -0.66670 -0.2028(11)
N5 N -0.663(3) -0.567(3) -0.5485(10)
C81 C -0.640(3) -0.606(3) -0.537(2)
H55 H -0.63160 -0.60310 -0.50880
H56 H -0.60550 -0.59490 -0.55250
H57 H -0.66730 -0.64430 -0.54410
C82 C -0.6776(11) -0.5808(11) -0.5935(8)
H58 H -0.68710 -0.55440 -0.60520
H59 H -0.70930 -0.61860 -0.59590
H60 H -0.64550 -0.57840 -0.60750
N6 N 0.173(4) -0.040(4) -0.353(2)
C83 C 0.197(2) -0.045(2) -0.3122(19)
H61 H 0.22350 -0.00750 -0.30260
H62 H 0.21540 -0.06660 -0.31530
H63 H 0.16630 -0.06310 -0.29310
C84 C 0.113(4) -0.092(5) -0.354(4)
H64 H 0.08590 -0.07970 -0.35260
H65 H 0.10880 -0.11550 -0.33090
H66 H 0.10820 -0.11290 -0.37850
N7 N -0.396(2) -0.514(3) -0.343(2)
C85 C -0.448(3) -0.552(4) -0.317(3)
H67 H -0.43900 -0.57520 -0.30000
H68 H -0.47950 -0.57590 -0.33420
H69 H -0.45740 -0.52910 -0.30030
C86 C -0.413(5) -0.474(4) -0.363(4)
H70 H -0.38330 -0.44780 -0.38100
H71 H -0.42000 -0.45270 -0.34280
H72 H -0.44730 -0.49530 -0.37910
In1D In 0.12618(4) -0.05651(4) -0.0506(3)
In2D In -0.61416(5) -0.15393(4) -0.1277(3)
In3D In -0.51669(4) -0.79319(4) -0.1276(3)
O2D O -0.0551(5) -0.1324(5) -0.5931(5)
O7D O -0.1348(6) -0.1919(7) -0.6169(5)
O19D O -0.3980(7) -0.6037(6) -0.6755(7)
O20D O -0.5301(5) -0.2536(6) -0.6716(6)
O21D O -0.4748(5) -0.2748(6) -0.6943(6)
O22D O -0.3730(11) -0.5231(9) -0.6915(7)
#END
