
#######################################################################
#
#                 Cambridge Crystallographic Data Centre
#                                CCDC
#
#######################################################################
#
# If this CIF has been generated from an entry in the Cambridge
# Structural Database, then it will include bibliographic, chemical,
# crystal, experimental, refinement or atomic coordinate data resulting
# from the CCDC's data processing and validation procedures.
#
#######################################################################

data_CSD_CIF_ALOPUP
_audit_creation_date 2021-02-17
_audit_creation_method CSD-ConQuest-V1
_database_code_CSD ALOPUP
_database_code_depnum_ccdc_archive 'CCDC 2023759'
_chemical_formula_sum 'C16 H14 In1 N3 O8'
_chemical_formula_moiety
;
(C14 H6 In1 N2 O8 1-)n,C2 H8 N1 1+
;
_journal_coden_Cambridge 1695
_journal_volume 9
_journal_year 2021
_journal_page_first 3440
_journal_name_full 'J.Mater.Chem.C '
loop_
_publ_author_name
"Yu Zhang"
"Xianglong Qu"
"Bing Yan"
_chemical_name_systematic
;
catena-[dimethylammonium bis(\m-pyridine-2,5-dicarboxylato)-indium]
;
_cell_volume  11281.640
_exptl_crystal_colour 'colorless'
_exptl_crystal_description 'block'
_diffrn_ambient_temperature 293
_refine_special_details
;
Disordered cations were not modelled and the disordered density was taken 
into account using the SQUEEZE/PLATON procedure.
;
#These two values have been output from a single CSD field.
_refine_ls_R_factor_gt 0.0296
_refine_ls_wR_factor_gt 0.0296
_symmetry_cell_setting rhombohedral
_symmetry_space_group_name_H-M 'R -3 c'
_symmetry_Int_Tables_number 167
loop_
_symmetry_equiv_pos_site_id
_symmetry_equiv_pos_as_xyz
1 x,y,z
2 -y,x-y,z
3 -x+y,-x,z
4 x-y,-y,1/2-z
5 -x,-x+y,1/2-z
6 y,x,1/2-z
7 2/3+x,1/3+y,1/3+z
8 2/3-y,1/3+x-y,1/3+z
9 2/3-x+y,1/3-x,1/3+z
10 2/3+x-y,1/3-y,5/6-z
11 2/3-x,1/3-x+y,5/6-z
12 2/3+y,1/3+x,5/6-z
13 1/3+x,2/3+y,2/3+z
14 1/3-y,2/3+x-y,2/3+z
15 1/3-x+y,2/3-x,2/3+z
16 1/3+x-y,2/3-y,1/6-z
17 1/3-x,2/3-x+y,1/6-z
18 1/3+y,2/3+x,1/6-z
19 -x,-y,-z
20 y,-x+y,-z
21 x-y,x,-z
22 -x+y,y,-1/2+z
23 x,x-y,-1/2+z
24 -y,-x,-1/2+z
25 -2/3-x,-1/3-y,-1/3-z
26 -2/3+y,-1/3-x+y,-1/3-z
27 -2/3+x-y,-1/3+x,-1/3-z
28 -2/3-x+y,-1/3+y,-5/6+z
29 -2/3+x,-1/3+x-y,-5/6+z
30 -2/3-y,-1/3-x,-5/6+z
31 -1/3-x,-2/3-y,-2/3-z
32 -1/3+y,-2/3-x+y,-2/3-z
33 -1/3+x-y,-2/3+x,-2/3-z
34 -1/3-x+y,-2/3+y,-1/6+z
35 -1/3+x,-2/3+x-y,-1/6+z
36 -1/3-y,-2/3-x,-1/6+z
_cell_length_a 15.7001(4)
_cell_length_b 15.7001(4)
_cell_length_c 52.849(3)
_cell_angle_alpha 90
_cell_angle_beta 90
_cell_angle_gamma 120
_cell_formula_units_Z 18
loop_
_atom_type_symbol
_atom_type_radius_bond
C 0.68
H 0.23
In 1.42
N 0.68
O 0.68
loop_
_atom_site_label
_atom_site_type_symbol
_atom_site_fract_x
_atom_site_fract_y
_atom_site_fract_z
In1 In 0.66667 0.86554(2) 0.58333
O1 O 0.54964(13) 0.71420(13) 0.58573(4)
O2 O 0.20430(14) 0.24705(12) 0.61540(3)
O3 O 0.61650(14) 0.74377(16) 0.62332(5)
N1 N 0.33665(15) 0.43288(13) 0.60572(4)
O4 O 0.26581(19) 0.25657(15) 0.65380(4)
C1 C 0.40502(17) 0.52625(17) 0.59954(5)
H1 H 0.40043 0.55143 0.58400
C2 C 0.55488(18) 0.68877(19) 0.60821(5)
C3 C 0.48107(17) 0.58496(18) 0.61558(5)
C4 C 0.34394(19) 0.39730(18) 0.62802(4)
C5 C 0.4867(2) 0.5473(2) 0.63851(5)
H2 H 0.53703 0.58594 0.64973
C6 C 0.4173(2) 0.4514(2) 0.64500(5)
H3 H 0.42064 0.42478 0.66043
C7 C 0.2651(2) 0.29139(19) 0.63305(5)
O1A O 0.28580(13) 0.83544(13) 0.58573(4)
O2A O 0.75295(14) 0.95725(12) 0.61540(3)
O3A O 0.25623(14) 0.87273(16) 0.62332(5)
N1A N 0.56712(15) 0.90377(13) 0.60572(4)
O4A O 0.74343(19) 1.00924(15) 0.65380(4)
C1A C 0.47375(17) 0.87877(17) 0.59954(5)
H1A H 0.44857 0.84900 0.58400
C2A C 0.31123(18) 0.86611(19) 0.60821(5)
C3A C 0.41504(17) 0.89611(18) 0.61558(5)
C4A C 0.60270(19) 0.94664(18) 0.62802(4)
C5A C 0.4527(2) 0.9394(2) 0.63851(5)
H2A H 0.41406 0.95109 0.64973
C6A C 0.5486(2) 0.9659(2) 0.64500(5)
H3A H 0.57522 0.99586 0.66043
C7A C 0.70861(20) 0.97371(19) 0.63305(5)
In1A In 0.13446 0.801127(20) 0.58333
In1B In 0.19887 0.333333(20) 0.58333
O1P O 0.783693(130) 0.831227(130) 0.580937(40)
O2Q O 0.580383(140) 0.870967(120) 0.551267(30)
N1Q N 0.766213(150) 1.003317(130) 0.560947(40)
#END
