
#######################################################################
#
#                 Cambridge Crystallographic Data Centre
#                                CCDC
#
#######################################################################
#
# If this CIF has been generated from an entry in the Cambridge
# Structural Database, then it will include bibliographic, chemical,
# crystal, experimental, refinement or atomic coordinate data resulting
# from the CCDC's data processing and validation procedures.
#
#######################################################################

data_CSD_CIF_ALUDAP
_audit_creation_date 2021-02-17
_audit_creation_method CSD-ConQuest-V1
_database_code_CSD ALUDAP
_database_code_depnum_ccdc_archive 'CCDC 1988086'
_chemical_formula_sum 'C13 H20 Cl1 N5 O3 Zn1'
_chemical_formula_moiety
;
(C7 H3 Cl1 N3 O2 Zn1 1-)n,C4 H9 N1 O1,C2 H8 N1 1+
;
_journal_coden_Cambridge 603
_journal_volume 40
_journal_year 2021
_journal_page_first 199
_journal_name_full 'Jiegou Huaxue(Chin.)(Chin.J.Struct.Chem.) '
loop_
_publ_author_name
"Zai-Chun Huang"
"Xiao-Fang Wang"
"Bi Foua Gohi"
"C.Alain"
"Yu-Feng Li"
"Yao Kang"
"Zhi-Qiang Jiang"
_chemical_name_systematic
;
catena-[(dimethylammonium) [\m-benzotriazolato-5-carboxylato]-chloro-zinc(ii) 
N,N-dimethylacetamide solvate]
;
_cell_volume   3669.645
_exptl_crystal_colour 'colorless'
_exptl_crystal_description 'block'
_diffrn_ambient_temperature 293
#These two values have been output from a single CSD field.
_refine_ls_R_factor_gt 0.0753
_refine_ls_wR_factor_gt 0.0753
_symmetry_cell_setting orthorhombic
_symmetry_space_group_name_H-M 'P b c a'
_symmetry_Int_Tables_number 61
loop_
_symmetry_equiv_pos_site_id
_symmetry_equiv_pos_as_xyz
1 x,y,z
2 1/2-x,-y,1/2+z
3 -x,1/2+y,1/2-z
4 1/2+x,1/2-y,-z
5 -x,-y,-z
6 -1/2+x,y,-1/2-z
7 x,-1/2-y,-1/2+z
8 -1/2-x,-1/2+y,z
_cell_length_a 16.2563(9)
_cell_length_b 9.870(2)
_cell_length_c 22.871(2)
_cell_angle_alpha 90
_cell_angle_beta 90
_cell_angle_gamma 90
_cell_formula_units_Z 8
loop_
_atom_type_symbol
_atom_type_radius_bond
C 0.68
H 0.23
Cl 0.99
N 0.68
O 0.68
Zn 1.22
loop_
_atom_site_label
_atom_site_type_symbol
_atom_site_fract_x
_atom_site_fract_y
_atom_site_fract_z
Zn1 Zn 0.15368(4) 0.60359(17) 0.38963(4)
Cl1 Cl 0.13898(19) 0.6162(5) 0.29302(13)
O1 O 0.0581(3) 0.6346(11) 0.4388(3)
O2 O 0.0446(5) 0.8467(13) 0.4088(4)
N1 N -0.1834(3) 0.5869(11) 0.5845(3)
N2 N -0.2472(3) 0.6552(13) 0.6075(3)
N3 N -0.2534(3) 0.7712(12) 0.5846(3)
C1 C 0.0226(5) 0.754(2) 0.4381(5)
C2 C -0.0523(4) 0.7636(16) 0.4763(4)
C3 C -0.0752(4) 0.6572(13) 0.5110(4)
H1 H -0.04520 0.57700 0.51150
C4 C -0.1463(4) 0.6736(16) 0.5463(4)
C5 C -0.1889(4) 0.7945(16) 0.5463(4)
C6 C -0.1643(5) 0.9047(18) 0.5137(5)
H2 H -0.19210 0.98700 0.51500
C7 C -0.0956(5) 0.8853(16) 0.4787(4)
H3 H -0.07750 0.95710 0.45580
N4 N 0.0949(5) 0.9539(19) 0.3037(4)
C8 C 0.1107(10) 1.088(3) 0.3183(7)
H4 H 0.16580 1.09590 0.33300
H5 H 0.07250 1.11690 0.34790
H6 H 0.10460 1.14400 0.28430
C9 C 0.0119(9) 0.929(3) 0.2813(7)
H7 H 0.00580 0.83450 0.27240
H8 H 0.00330 0.98160 0.24650
H9 H -0.02780 0.95460 0.31030
O3 O -0.1647(6) 1.439(2) 0.3058(5)
C10 C -0.2889(9) 1.293(3) 0.3046(8)
H10 H -0.31360 1.22250 0.32760
H11 H -0.27740 1.25910 0.26600
H12 H -0.32590 1.36830 0.30190
C11 C -0.2319(12) 1.171(4) 0.4029(9)
H13 H -0.28260 1.15520 0.38250
H14 H -0.24340 1.19070 0.44320
H15 H -0.19770 1.09220 0.40030
C12 C -0.2110(11) 1.337(4) 0.3326(8)
N5 N -0.1873(10) 1.292(3) 0.3752(8)
C13 C -0.1024(13) 1.330(4) 0.4003(9)
H16 H -0.08030 1.40520 0.37900
H17 H -0.06600 1.25360 0.39680
H18 H -0.10800 1.35380 0.44080
Zn1C Zn -0.34632(4) 0.89641(17) 0.61037(4)
Zn1D Zn -0.15368(4) 0.39641(17) 0.61037(4)
N1D N 0.1834(3) 0.4131(11) 0.4155(3)
N3C N 0.2466(3) 0.7288(12) 0.4154(3)
#END
