
#######################################################################
#
#                 Cambridge Crystallographic Data Centre
#                                CCDC
#
#######################################################################
#
# If this CIF has been generated from an entry in the Cambridge
# Structural Database, then it will include bibliographic, chemical,
# crystal, experimental, refinement or atomic coordinate data resulting
# from the CCDC's data processing and validation procedures.
#
#######################################################################

data_CSD_CIF_AMABIC
_audit_creation_date 2021-02-18
_audit_creation_method CSD-ConQuest-V1
_database_code_CSD AMABIC
_database_code_depnum_ccdc_archive 'CCDC 1843769'
_chemical_formula_sum 'C30 H24 N6 Ru1 Se9 Sn4'
_chemical_formula_moiety
;
(C30 H24 N6 Ru1 2+)n,n(Se9 Sn4 2-)
;
_journal_coden_Cambridge 1350
_journal_volume 23
_journal_year 2021
_journal_page_first 1881
_journal_name_full 'CrystEngComm '
loop_
_publ_author_name
"Tao Zhang"
"Yue-Qiao Hu"
"Qian-Wen Li"
"Wei-Peng Chen"
"Yan-Zhen Zheng"
_chemical_name_systematic
;
catena-(tris(2,2'-bipyridine)-ruthenium(ii) nonakis(\m-selenido)-tetra-tin 
unknown solvate)
;
_cell_volume  19927.654
_exptl_crystal_colour 'dark red'
_exptl_crystal_density_diffrn 2.632
_exptl_crystal_description 'block'
_diffrn_ambient_temperature 296.1
_diffrn_special_details
;
twin

;
_refine_special_details
;
The SQUEEZE/PLATON program was used to model some disorder.

;
#These two values have been output from a single CSD field.
_refine_ls_R_factor_gt 0.0293
_refine_ls_wR_factor_gt 0.0293
_symmetry_cell_setting rhombohedral
_symmetry_space_group_name_H-M 'R 3 c'
_symmetry_Int_Tables_number 161
loop_
_symmetry_equiv_pos_site_id
_symmetry_equiv_pos_as_xyz
1 x,y,z
2 -y,x-y,z
3 -x+y,-x,z
4 -y,-x,1/2+z
5 -x+y,y,1/2+z
6 x,x-y,1/2+z
7 2/3+x,1/3+y,1/3+z
8 2/3-y,1/3+x-y,1/3+z
9 2/3-x+y,1/3-x,1/3+z
10 2/3-y,1/3-x,5/6+z
11 2/3-x+y,1/3+y,5/6+z
12 2/3+x,1/3+x-y,5/6+z
13 1/3+x,2/3+y,2/3+z
14 1/3-y,2/3+x-y,2/3+z
15 1/3-x+y,2/3-x,2/3+z
16 1/3-y,2/3-x,1/6+z
17 1/3-x+y,2/3+y,1/6+z
18 1/3+x,2/3+x-y,1/6+z
_cell_length_a 27.2403(10)
_cell_length_b 27.2403(10)
_cell_length_c 31.010(2)
_cell_angle_alpha 90
_cell_angle_beta 90
_cell_angle_gamma 120
_cell_formula_units_Z 18
loop_
_atom_type_symbol
_atom_type_radius_bond
C 0.68
H 0.23
N 0.68
Ru 1.46
Se 1.22
Sn 1.39
loop_
_atom_site_label
_atom_site_type_symbol
_atom_site_fract_x
_atom_site_fract_y
_atom_site_fract_z
Sn1 Sn 0.51800(3) 0.46094(3) 0.16051(3)
Sn2 Sn 0.44968(3) 0.53110(3) 0.10683(3)
Sn3 Sn 0.51268(3) 0.33594(3) 0.21509(3)
Sn4 Sn 0.30969(3) 0.50240(3) 0.05270(3)
Se1 Se 0.34404(5) 0.48383(6) 0.12357(4)
Se2 Se 0.46444(5) 0.50763(5) 0.18827(4)
Se3 Se 0.47364(5) 0.35383(5) 0.14562(4)
Se4 Se 0.53584(5) 0.44137(5) 0.24511(4)
Se5 Se 0.49473(5) 0.47638(5) 0.07796(4)
Se6 Se 0.62558(5) 0.51476(5) 0.15083(4)
Se7 Se 0.51336(6) 0.63637(5) 0.11741(4)
Se8 Se 0.42115(5) 0.55964(5) 0.02448(4)
Se9 Se 0.61906(5) 0.37049(5) 0.21398(5)
Ru1 Ru 0.53760(4) 0.66773(4) 0.30250(4)
N1 N 0.5997(4) 0.6733(4) 0.3437(3)
N2 N 0.5886(4) 0.6547(4) 0.2611(3)
N3 N 0.5805(5) 0.7517(5) 0.2810(4)
N4 N 0.4912(5) 0.6780(5) 0.3502(4)
N5 N 0.4882(4) 0.5851(5) 0.3241(3)
N6 N 0.4841(5) 0.6664(6) 0.2549(4)
C1 C 0.6357(5) 0.6578(5) 0.2789(4)
C2 C 0.6391(5) 0.6635(5) 0.3259(4)
C3 C 0.6808(5) 0.6608(5) 0.3497(4)
H1 H 0.70630 0.65210 0.33670
C4 C 0.6432(7) 0.6821(9) 0.4122(5)
H2 H 0.64340 0.68780 0.44180
C5 C 0.6773(5) 0.6568(5) 0.2524(4)
H3 H 0.70990 0.66030 0.26490
C6 C 0.4549(6) 0.6297(6) 0.3739(5)
C7 C 0.5577(7) 0.7630(7) 0.2477(5)
C8 C 0.4716(10) 0.7156(10) 0.1953(7)
H4 H 0.48530 0.74890 0.17940
C9 C 0.5839(6) 0.6504(7) 0.2176(5)
H5 H 0.55210 0.64870 0.20490
C10 C 0.6229(7) 0.6484(8) 0.1914(5)
H6 H 0.61760 0.64530 0.16170
C11 C 0.4368(6) 0.6205(8) 0.2420(5)
H7 H 0.42420 0.58660 0.25690
C12 C 0.4255(7) 0.6330(9) 0.4083(6)
H8 H 0.40170 0.60050 0.42390
C13 C 0.4538(6) 0.5780(7) 0.3581(5)
C14 C 0.6711(7) 0.6510(7) 0.2098(5)
H9 H 0.69800 0.64880 0.19270
C15 C 0.4894(7) 0.5401(6) 0.3076(6)
H10 H 0.51240 0.54440 0.28410
C16 C 0.6032(6) 0.6842(7) 0.3860(4)
H11 H 0.57780 0.69350 0.39830
C17 C 0.5035(7) 0.7146(8) 0.2326(5)
C18 C 0.6295(8) 0.7934(6) 0.2973(6)
H12 H 0.64510 0.78540 0.32100
C19 C 0.4951(8) 0.7286(8) 0.3620(6)
H13 H 0.51780 0.76140 0.34640
C20 C 0.4310(8) 0.6848(10) 0.4200(6)
H14 H 0.41110 0.68740 0.44340
C21 C 0.4553(9) 0.4858(8) 0.3265(7)
H15 H 0.45660 0.45470 0.31550
C22 C 0.6831(7) 0.6714(8) 0.3932(6)
H16 H 0.71150 0.67150 0.40990
C23 C 0.657(1) 0.8460(8) 0.2809(8)
H17 H 0.69130 0.87380 0.29230
C24 C 0.4651(8) 0.7303(9) 0.3972(7)
H18 H 0.46900 0.76490 0.40530
C25 C 0.4052(8) 0.6218(11) 0.2064(7)
H19 H 0.37160 0.58970 0.19830
C26 C 0.4254(10) 0.6721(12) 0.1837(6)
H20 H 0.40530 0.67410 0.16010
C27 C 0.5843(11) 0.8177(10) 0.2303(8)
H21 H 0.56710 0.82500 0.20710
C28 C 0.4199(9) 0.5252(9) 0.3760(7)
H22 H 0.39600 0.52080 0.39890
C29 C 0.4215(9) 0.4787(8) 0.3597(7)
H23 H 0.39920 0.44300 0.37180
C30 C 0.6305(15) 0.8576(12) 0.2446(9)
H24 H 0.64720 0.89340 0.23220
Sn3J Sn 0.489927(30) 0.669273(30) 0.048423(30)
Sn4Q Sn 0.643023(30) 0.473957(30) 0.219367(30)
Se4K Se 0.202507(50) 0.427803(50) 0.078443(40)
Se6K Se 0.292247(50) 0.444153(50) -0.015837(40)
Se7P Se 0.456343(60) 0.303037(50) 0.284077(40)
Se8P Se 0.471823(50) 0.226307(50) 0.191147(40)
Se9K Se 0.285727(50) 0.581903(50) 0.047313(50)
#END
