
#######################################################################
#
#                 Cambridge Crystallographic Data Centre
#                                CCDC
#
#######################################################################
#
# If this CIF has been generated from an entry in the Cambridge
# Structural Database, then it will include bibliographic, chemical,
# crystal, experimental, refinement or atomic coordinate data resulting
# from the CCDC's data processing and validation procedures.
#
#######################################################################

data_CSD_CIF_AMAGOL
_audit_creation_date 2011-05-25
_audit_creation_method CSD-ConQuest-V1
_database_code_CSD AMAGOL
_database_code_depnum_ccdc_archive 'CCDC 817248'
_chemical_formula_sum 'C94 H102 Co1 Fe2 N10 O28'
_chemical_formula_moiety
;
(C12 Co1 Fe2 O24 4-)n,4n(C16 H19 N2 1+),2n(C9 H11 N1 O1),2n(H2 O1)
;
_journal_coden_Cambridge 9
_journal_volume 49
_journal_year 2010
_journal_page_first 10894
_journal_name_full 'Inorg.Chem. '
loop_
_publ_author_name
"E.Cariati"
"R.Ugo"
"G.Santoro"
"E.Tordin"
"L.Sorace"
"A.Caneschi"
"A.Sironi"
"P.Macchi"
"N.Casati"
_chemical_name_systematic
;
catena-(tetrakis(4-(2-(4-(dimethylamino)phenyl)vinyl)-1-methylpyridinium) 
tetrakis(\m~2~-oxalato)-bis(oxalato)-cobalt(ii)-di-iron(iii) 
bis(4-(dimethylamino)benzaldehyde) dihydrate)
;
_cell_volume  18209.826
_exptl_crystal_density_diffrn 1.449
_diffrn_ambient_temperature 293
#These two values have been output from a single CSD field.
_refine_ls_R_factor_gt 0.0924
_refine_ls_wR_factor_gt 0.0924
_symmetry_cell_setting orthorhombic
_symmetry_space_group_name_H-M 'F d d 2'
_symmetry_Int_Tables_number 43
loop_
_symmetry_equiv_pos_site_id
_symmetry_equiv_pos_as_xyz
1 x,y,z
2 -x,-y,z
3 1/4-x,1/4+y,1/4+z
4 1/4+x,1/4-y,1/4+z
5 x,1/2+y,1/2+z
6 -x,1/2-y,1/2+z
7 1/4-x,3/4+y,3/4+z
8 1/4+x,3/4-y,3/4+z
9 1/2+x,y,1/2+z
10 1/2-x,-y,1/2+z
11 3/4-x,1/4+y,3/4+z
12 3/4+x,1/4-y,3/4+z
13 1/2+x,1/2+y,z
14 1/2-x,1/2-y,z
15 3/4-x,3/4+y,1/4+z
16 3/4+x,3/4-y,1/4+z
_cell_length_a 39.364(3)
_cell_length_b 48.759(4)
_cell_length_c 9.4875(8)
_cell_angle_alpha 90
_cell_angle_beta 90
_cell_angle_gamma 90
_cell_formula_units_Z 8
loop_
_atom_type_symbol
_atom_type_radius_bond
C 0.68
H 0.23
Co 1.50
Fe 1.52
N 0.68
O 0.68
loop_
_atom_site_label
_atom_site_type_symbol
_atom_site_fract_x
_atom_site_fract_y
_atom_site_fract_z
N1 N 0.3817(3) 1.1477(2) 0.3307(12)
N2 N 0.3943(3) 1.2292(2) -0.7161(12)
C1 C 0.3992(3) 1.1963(2) -0.3102(13)
C2 C 0.4284(3) 1.2018(2) -0.3875(14)
H1 H 0.44940 1.19800 -0.34750
C3 C 0.4095(3) 1.1508(3) 0.2536(15)
H2 H 0.43020 1.14580 0.29290
C4 C 0.4272(3) 1.2125(2) -0.5199(14)
H3 H 0.44730 1.21620 -0.56770
C5 C 0.4093(3) 1.1608(2) 0.1219(15)
H4 H 0.42950 1.16220 0.07160
C6 C 0.3965(3) 1.2180(3) -0.5837(14)
C7 C 0.3785(3) 1.1691(2) 0.0598(14)
C8 C 0.3667(3) 1.2125(2) -0.5097(14)
H5 H 0.34560 1.21580 -0.55040
C9 C 0.3495(3) 1.1654(2) 0.1433(14)
H6 H 0.32820 1.16970 0.10730
C10 C 0.3690(3) 1.2020(2) -0.3753(14)
H7 H 0.34900 1.19860 -0.32620
C11 C 0.3523(3) 1.1554(3) 0.2762(16)
H8 H 0.33280 1.15390 0.33100
C12 C 0.3758(3) 1.1798(2) -0.0786(14)
H9 H 0.35390 1.18310 -0.11190
C13 C 0.4015(3) 1.1855(2) -0.1664(14)
H10 H 0.42330 1.18240 -0.13200
C14 C 0.4246(4) 1.2363(3) -0.7936(18)
H11 H 0.43660 1.21980 -0.81900
H12 H 0.43890 1.24760 -0.73590
H13 H 0.41840 1.24610 -0.87740
C15 C 0.3627(3) 1.2350(3) -0.7860(15)
H14 H 0.34510 1.23740 -0.71700
H15 H 0.35690 1.22000 -0.84710
H16 H 0.36500 1.25150 -0.84060
C16 C 0.3832(4) 1.1371(3) 0.4755(16)
H17 H 0.39050 1.15140 0.53790
H18 H 0.39910 1.12210 0.47960
H19 H 0.36110 1.13070 0.50340
N3 N 0.3671(3) 1.2707(2) 0.7075(11)
N4 N 0.3744(3) 1.3535(2) -0.3366(12)
C17 C 0.3653(3) 1.3210(2) 0.0686(13)
C18 C 0.3962(3) 1.3281(2) 0.0175(14)
H20 H 0.41530 1.32580 0.07360
C19 C 0.3975(4) 1.2771(3) 0.6688(16)
H21 H 0.41570 1.27420 0.72970
C20 C 0.3996(3) 1.3387(2) -0.1173(14)
H22 H 0.42100 1.34340 -0.15140
C21 C 0.4031(3) 1.2882(2) 0.5372(15)
H23 H 0.42520 1.29270 0.51120
C22 C 0.3713(3) 1.3425(2) -0.2009(13)
C23 C 0.3774(3) 1.2929(2) 0.4440(14)
C24 C 0.3403(3) 1.3355(2) -0.1486(14)
H24 H 0.32100 1.33790 -0.20390
C25 C 0.3452(4) 1.2859(3) 0.4944(17)
H25 H 0.32650 1.28910 0.43710
C26 C 0.3373(3) 1.3253(2) -0.0182(14)
H26 H 0.31580 1.32090 0.01550
C27 C 0.3401(4) 1.2744(3) 0.6268(17)
H27 H 0.31850 1.26950 0.65740
C28 C 0.3608(3) 1.3102(3) 0.2148(15)
H28 H 0.33840 1.30670 0.24100
C29 C 0.3833(3) 1.3049(3) 0.3097(14)
H29 H 0.40560 1.30930 0.28800
N5 N 0.5045(3) 1.3662(3) 0.8843(19)
C30 C 0.4792(5) 1.2545(4) 0.822(3)
H30 H 0.48100 1.24800 0.72980
C31 C 0.4834(4) 1.2833(3) 0.8426(18)
C32 C 0.4828(4) 1.2959(3) 0.9720(19)
H31 H 0.47760 1.28560 1.05150
C33 C 0.4897(4) 1.3237(3) 0.987(2)
H32 H 0.48950 1.33210 1.07530
C34 C 0.4970(4) 1.3389(3) 0.8619(18)
C35 C 0.4958(4) 1.3260(3) 0.7365(19)
H33 H 0.49960 1.33600 0.65460
C36 C 0.4895(4) 1.2997(4) 0.727(2)
H34 H 0.48900 1.29170 0.63840
C37 C 0.5014(5) 1.3850(4) 0.766(2)
H35 H 0.47910 1.38340 0.72500
H36 H 0.51820 1.38060 0.69580
H37 H 0.50480 1.40350 0.79760
C38 C 0.5087(5) 1.3807(4) 1.019(2)
H38 H 0.51970 1.36880 1.08590
H39 H 0.48690 1.38590 1.05520
H40 H 0.52240 1.39680 1.00540
C39 C 0.4073(3) 1.3601(3) -0.3940(18)
H41 H 0.42110 1.34390 -0.39650
H42 H 0.41800 1.37370 -0.33590
H43 H 0.40460 1.36720 -0.48780
C40 C 0.3448(3) 1.3584(3) -0.4217(16)
H44 H 0.33020 1.37120 -0.37460
H45 H 0.33290 1.34150 -0.43610
H46 H 0.35160 1.36580 -0.51110
C41 C 0.3604(4) 1.2585(3) 0.8505(18)
H47 H 0.36070 1.23890 0.84380
H48 H 0.33860 1.26450 0.88360
H49 H 0.37760 1.26440 0.91520
C42 C 0.2513(4) 1.1268(3) 0.6452(18)
C43 C 0.2849(4) 1.1294(4) 0.5737(16)
C44 C 0.2431(3) 1.2022(3) 0.3723(16)
C45 C 0.2742(3) 1.2196(3) 0.4141(17)
C46 C 0.2379(4) 1.2134(3) -0.1425(18)
C47 C 0.2754(3) 1.2054(3) -0.0915(19)
O1 O 0.3010(3) 1.1091(2) 0.5317(12)
O2 O 0.2379(3) 1.1027(2) 0.6579(16)
O3 O 0.2374(3) 1.1478(2) 0.6896(12)
O4 O 0.2944(2) 1.1539(2) 0.5639(12)
O5 O 0.2855(2) 1.2126(2) 0.5356(11)
O6 O 0.2332(2) 1.18429(19) 0.4592(11)
O7 O 0.2294(2) 1.20716(18) 0.2587(11)
O8 O 0.2853(2) 1.2367(2) 0.3367(10)
O9 O 0.2891(2) 1.1885(2) -0.1855(10)
O10 O 0.2284(2) 1.20462(19) -0.2611(11)
O11 O 0.2863(2) 1.21290(19) 0.0205(11)
O12 O 0.2218(2) 1.2287(2) -0.0576(11)
Fe1 Fe 0.26217(5) 1.18159(4) 0.6360(2)
Co1 Co 0.25000 1.25000 0.1375(5)
O13 O 0.5251(3) 1.1978(3) 0.8415(18)
O14 O 0.4736(4) 1.2379(3) 0.9131(19)
C42M C 0.2487(4) 1.3732(3) 0.6452(18)
C43M C 0.2151(4) 1.3706(4) 0.5737(16)
C44M C 0.2569(3) 1.2978(3) 0.3723(16)
C45M C 0.2258(3) 1.2804(3) 0.4141(17)
C46M C 0.2621(4) 1.2866(3) -0.1425(18)
C47M C 0.2246(3) 1.2946(3) -0.0915(19)
O1M O 0.1990(3) 1.3909(2) 0.5317(12)
O2M O 0.2621(3) 1.3973(2) 0.6579(16)
O3M O 0.2626(3) 1.3522(2) 0.6896(12)
O4M O 0.2056(2) 1.3461(2) 0.5639(12)
O5M O 0.2145(2) 1.2874(2) 0.5356(11)
O6M O 0.2668(2) 1.31571(19) 0.4592(11)
O7M O 0.2706(2) 1.29284(18) 0.2587(11)
O8M O 0.2147(2) 1.2633(2) 0.3367(10)
O9M O 0.2109(2) 1.3115(2) -0.1855(10)
O9* O 0.2891(2) 1.1885(2) 0.8145(10)
O9M* O 0.2109(2) 1.3115(2) 0.8145(10)
O10M O 0.2716(2) 1.29538(19) -0.2611(11)
O10* O 0.2284(2) 1.20462(19) 0.7389(11)
O10M* O 0.2716(2) 1.29538(19) 0.7389(11)
O11M O 0.2137(2) 1.28710(19) 0.0205(11)
O12M O 0.2782(2) 1.2713(2) -0.0576(11)
Fe1M Fe 0.23783(5) 1.31841(4) 0.6360(2)
Fe1* Fe 0.26217(5) 1.18159(4) -0.3640(2)
Fe1M* Fe 0.23783(5) 1.31841(4) -0.3640(2)
#END
