
#######################################################################
#
#                 Cambridge Crystallographic Data Centre
#                                CCDC
#
#######################################################################
#
# If this CIF has been generated from an entry in the Cambridge
# Structural Database, then it will include bibliographic, chemical,
# crystal, experimental, refinement or atomic coordinate data resulting
# from the CCDC's data processing and validation procedures.
#
#######################################################################

data_CSD_CIF_AMICUX
_audit_creation_date 2021-02-19
_audit_creation_method CSD-ConQuest-V1
_database_code_CSD AMICUX
_database_code_depnum_ccdc_archive 'CCDC 1979293'
_chemical_formula_sum 'C48 H88 Co2 N16 Na1 O129 P5 W30'
_chemical_formula_moiety
;
(C12 H32 Co2 N4 Na1 O119 P5 W30 6-)n,3(C12 H12 N4 2+),10(H2 O1)
;
_journal_coden_Cambridge 1350
_journal_volume 23
_journal_year 2021
_journal_page_first 2071
_journal_name_full 'CrystEngComm '
loop_
_publ_author_name
"HaoTian Zhu"
"WenSi Tang"
"YuanYuan Ma"
"YongHui Wang"
"HuaQiao Tan"
"YangGuang Li"
_chemical_name_systematic
;
catena-[tris(1,1'-(1,4-phenylene)bis(1H-imidazol-3-ium)) 
octapentacontakis(\m-oxido)-pentakis(\m-phosphato)-tetrakis(\m-hydroxido)-(\m-
1,1'-(1,4-phenylene)bis(1H-imidazole))-nona-aqua-octacosaoxo-di-cobalt(ii)-sod
ium-triaconta-tungsten(vi) decahydrate]
;
_cell_volume   3871.818
_exptl_crystal_colour 'red'
_exptl_crystal_density_diffrn 3.759
_exptl_crystal_description 'block'
_diffrn_ambient_temperature 296
_refine_special_details
;
The structure is disordered by symmetry; C31,C32,C33,C37,C38,C39,N7,N8 and 
C34,C35,C36,C40,C41,C42,N10,N9 disordered over two sites with occupancies 
0.5:0.5; 
Na1,O31,O32,O33,O34,O35,O36,O37,O38,O39,O40,O5W,O9W,P1,P2,P3,W11,W12,W13,W14,W
15 and 
O10W,O31A,O32A,O33A,O34A,O35A,O36A,O37A,O38A,O39A,O40A,O43A,O44A,O47A,O48A,P1A
,P2A,W11A,W12A,W13A,W14A,W15A disordered over two sites with occupancies 
0.5:0.25,0.5,0.5,0.5,0.5,0.5,0.5,0.5,0.5,0.5,0.5,0.5,0.5,0.5,0.5,0.5,0.5,0.5,0
.5,0.5,0.5,0.5.
;
#These two values have been output from a single CSD field.
_refine_ls_R_factor_gt 0.0447
_refine_ls_wR_factor_gt 0.0447
_symmetry_cell_setting triclinic
_symmetry_space_group_name_H-M 'P -1'
_symmetry_Int_Tables_number 2
loop_
_symmetry_equiv_pos_site_id
_symmetry_equiv_pos_as_xyz
1 x,y,z
2 -x,-y,-z
_cell_length_a 16.234(6)
_cell_length_b 16.833(6)
_cell_length_c 17.107(7)
_cell_angle_alpha 67.181(6)
_cell_angle_beta 64.121(6)
_cell_angle_gamma 82.689(7)
_cell_formula_units_Z 1
loop_
_atom_type_symbol
_atom_type_radius_bond
C 0.68
H 0.23
Co 1.26
N 0.68
Na 1.66
O 0.68
P 1.05
W 1.62
loop_
_atom_site_label
_atom_site_type_symbol
_atom_site_fract_x
_atom_site_fract_y
_atom_site_fract_z
W1 W 0.58154(5) 0.37680(4) 0.18885(5)
O1 O 0.5418(7) 0.3700(6) 0.1009(6)
O2 O 0.4583(7) 0.3922(6) 0.2688(7)
O3 O 0.6171(8) 0.4826(7) 0.1361(7)
O4 O 0.6961(7) 0.3298(6) 0.1316(7)
O5 O 0.6048(7) 0.3400(6) 0.2949(7)
O6 O 0.5270(7) 0.2411(6) 0.2417(7)
W2 W 0.49208(6) 0.26319(4) 0.12341(5)
W3 W 0.35168(5) 0.37175(4) 0.38547(5)
W4 W 0.79630(5) 0.25586(4) 0.13038(4)
W5 W 0.55467(8) 0.28796(8) 0.43283(9)
P1 P 0.5837(5) 0.1573(4) 0.2752(5)
O7 O 0.4726(9) 0.2958(7) 0.0260(7)
O8 O 0.6142(7) 0.2248(7) 0.0676(7)
O9 O 0.3745(7) 0.2895(6) 0.2036(7)
O10 O 0.4518(7) 0.1478(6) 0.1815(6)
O11 O 0.2757(6) 0.3668(6) 0.3283(6)
O12 O 0.3407(7) 0.4780(7) 0.3740(8)
O13 O 0.2512(8) 0.3229(7) 0.5084(7)
O14 O 0.3548(8) 0.2389(6) 0.3877(8)
O15 O 0.4313(8) 0.3369(6) 0.4437(7)
O16 O 0.7930(7) 0.2314(6) 0.0308(6)
O17 O 0.8760(7) 0.1614(7) 0.1471(7)
O18 O 0.8811(8) 0.3331(7) 0.0639(7)
O19 O 0.6894(8) 0.1502(7) 0.1952(6)
O20 O 0.7690(7) 0.2472(7) 0.2500(7)
O21 O 0.4925(13) 0.2161(12) 0.5608(13)
O22 O 0.6520(12) 0.2172(12) 0.4268(14)
O23 O 0.5924(15) 0.3667(12) 0.4490(15)
O24 O 0.5278(13) 0.0772(11) 0.3023(13)
O25 O 0.5979(14) 0.1616(12) 0.3541(13)
W6 W 0.70834(5) 0.14503(5) 0.06067(4)
W7 W 0.26162(5) 0.26344(4) 0.31608(5)
W8 W 0.48630(9) 0.02892(9) 0.22603(9)
W9 W 0.19356(5) 0.24821(5) 0.63645(5)
P2 P 0.3355(5) 0.1549(4) 0.4846(5)
W10 W 0.91839(4) 0.06086(5) 0.21821(5)
W11 W 0.76540(9) 0.16578(7) 0.37500(9)
W12 W 0.39813(11) 0.16538(8) 0.68048(9)
O26 O 0.7369(7) 0.1509(6) -0.0500(7)
O27 O 0.7910(7) 0.0569(6) 0.0863(7)
O28 O 0.6148(7) 0.0583(7) 0.1342(6)
O29 O 0.1905(8) 0.2958(7) 0.2619(8)
O30 O 0.1685(8) 0.2210(7) 0.4415(7)
O31 O 0.2767(8) 0.1469(6) 0.3275(7)
O32 O 0.3713(15) 0.0081(15) 0.3341(16)
O33 O 0.5220(15) -0.0740(13) 0.2920(14)
O34 O 0.4497(15) -0.0071(14) 0.1659(13)
O35 O 0.3116(6) 0.2417(6) 0.6346(7)
O36 O 0.0963(6) 0.2227(6) 0.6172(6)
O37 O 0.1450(8) 0.3232(7) 0.6833(7)
O38 O 0.1571(7) 0.1516(6) 0.7531(7)
O39 O 0.2384(7) 0.1440(7) 0.5758(8)
O40 O 0.3407(12) 0.076(1) 0.4604(11)
O41 O 0.4083(12) 0.159(1) 0.5160(13)
O42 O 0.9302(7) 0.0045(6) 0.1377(6)
O43 O 1.0300(7) 0.0959(7) 0.1718(7)
O44 O 0.9278(7) -0.0489(6) 0.3094(7)
O45 O 0.8603(6) 0.0981(6) 0.3192(7)
O46 O 0.2219(6) -0.0039(6) 0.7347(6)
O47 O 0.7347(14) 0.0791(12) 0.4909(13)
O48 O 0.8338(14) 0.2268(14) 0.3826(13)
O49 O 0.4185(14) 0.2249(13) 0.7317(13)
O50 O 0.2952(6) 0.0903(6) 0.7947(7)
Co1 Co 0.80284(15) 0.11053(13) -0.16229(14)
W13 W 0.82591(5) -0.05103(5) 0.15388(5)
W14 W 0.10726(5) 0.13653(4) 0.56707(5)
W15 W 0.25800(8) 0.02863(8) 0.41550(8)
N1 N 0.8133(9) 0.2394(8) -0.2473(8)
O51 O 0.6698(9) 0.0852(9) -0.1409(9)
O52 O 0.8551(9) 0.0612(9) -0.2687(9)
O53 O 0.9328(8) 0.1255(8) -0.1715(9)
O54 O 0.8029(11) -0.0196(8) -0.0743(9)
O55 O 0.8742(8) -0.0880(8) 0.0637(7)
O56 O 0.0007(8) 0.1422(7) 0.5689(7)
O57 O 0.1587(7) 0.0514(7) 0.5184(7)
O58 O 0.1922(13) -0.0088(14) 0.3809(15)
C1 C 0.8869(10) 0.2868(9) -0.3151(10)
C2 C 0.7460(12) 0.2987(12) -0.2376(12)
N2 N 0.8710(9) 0.3682(8) -0.3517(8)
H1 H 0.94470 0.26490 -0.33520
C3 C 0.7812(13) 0.3754(12) -0.2987(13)
H2 H 0.68510 0.28600 -0.19410
C4 C 0.938(1) 0.4365(10) -0.4261(10)
H3 H 0.75010 0.42620 -0.30500
C5 C 0.9106(12) 0.5157(11) -0.4605(13)
C6 C 1.0255(11) 0.4197(11) -0.4654(12)
H4 H 0.84900 0.52750 -0.43510
H5 H 1.04430 0.36410 -0.44320
Na1 Na 0.5260(12) 0.0345(14) 0.5222(15)
O59 O 0.3059(13) -0.0028(12) 0.5676(12)
O60 O 0.3743(12) 0.0850(12) 0.6189(12)
P3 P 0.2877(5) 0.0548(4) 0.6232(5)
N3 N 1.1294(13) 0.6261(13) 0.1437(14)
H6 H 1.14430 0.67700 0.10090
N4 N 1.0497(12) 0.5116(11) 0.2587(13)
N5 N 0.6184(16) 0.2510(14) 0.6585(15)
H7 H 0.56120 0.24940 0.69490
N6 N 0.7553(15) 0.2947(14) 0.5485(14)
C7 C 0.9789(13) 0.4553(11) 0.3326(14)
C8 C 0.9865(15) 0.3723(14) 0.3793(18)
H8 H 1.04390 0.34910 0.36200
C9 C 0.9115(17) 0.3196(13) 0.4529(17)
H9 H 0.91980 0.26280 0.48550
C10 C 0.8300(14) 0.3488(13) 0.4767(14)
C11 C 0.8196(15) 0.4329(12) 0.4343(14)
H10 H 0.76240 0.45570 0.45580
C12 C 0.8928(15) 0.4857(11) 0.3593(15)
H11 H 0.88350 0.54220 0.32670
C13 C 1.0487(15) 0.5973(14) 0.2135(16)
H12 H 0.99850 0.63090 0.22920
C14 C 1.1403(16) 0.4882(16) 0.2177(17)
H13 H 1.16120 0.43280 0.23510
C15 C 1.1882(17) 0.5542(15) 0.1540(17)
H14 H 1.25130 0.55670 0.11900
C16 C 0.6734(15) 0.3249(15) 0.5963(17)
H15 H 0.65860 0.38190 0.58840
C17 C 0.7561(17) 0.2114(19) 0.5862(17)
H16 H 0.80680 0.17840 0.57060
C18 C 0.6695(15) 0.1806(16) 0.6529(17)
H17 H 0.64930 0.12290 0.68770
O61 O 0.4188(11) 0.4001(9) -0.0546(10)
O62 O 0.9794(10) 0.2003(11) -0.0786(11)
O63 O 0.6045(19) 0.5918(18) 0.1818(19)
O64 O 0.365(3) 0.485(2) 0.070(3)
O65 O 0.472(3) 0.609(3) 0.195(3)
O66 O 1.00000 0.00000 0.50000
O67 O 0.484(3) -0.095(3) 0.998(3)
O68 O 0.968(5) -0.133(5) 0.635(5)
N7 N 1.288(2) -0.569(4) 0.780(3)
H18 H 1.34740 -0.56600 0.75460
N8 N 1.143(3) -0.532(3) 0.830(4)
N9 N 0.758(3) -0.243(3) 0.948(4)
H19 H 0.74390 -0.19300 0.95230
N10 N 0.840(2) -0.353(2) 0.915(4)
C19 C 1.077(2) -0.470(2) 0.839(3)
C20 C 0.998(2) -0.516(3) 0.908(3)
H20 H 0.99680 -0.57570 0.93640
C21 C 0.921(3) -0.472(2) 0.935(3)
H21 H 0.86540 -0.50100 0.98100
C22 C 0.9272(18) -0.385(2) 0.892(3)
C23 C 1.003(2) -0.3346(18) 0.822(3)
H22 H 1.00350 -0.27500 0.79240
C24 C 1.0776(18) -0.383(2) 0.801(3)
H23 H 1.13360 -0.35330 0.75760
C25 C 1.233(4) -0.500(3) 0.788(4)
H24 H 1.25210 -0.44320 0.76810
C26 C 1.142(3) -0.620(3) 0.852(4)
H25 H 1.09050 -0.65700 0.88210
C27 C 1.232(4) -0.642(3) 0.819(4)
H26 H 1.25220 -0.69700 0.82350
C28 C 0.846(3) -0.269(2) 0.908(4)
H27 H 0.89990 -0.23630 0.88180
C29 C 0.748(2) -0.378(3) 0.956(4)
H28 H 0.72420 -0.43000 0.96630
C30 C 0.699(2) -0.311(4) 0.979(4)
H29 H 0.63530 -0.31160 1.00980
W16? W 0.78701(10) 0.06586(8) 0.45399(9)
W17? W 0.63336(9) -0.0596(1) 0.70243(9)
W18? W 0.41979(9) 0.05897(7) 0.76483(8)
W19? W 0.43929(9) 0.25494(7) 0.55721(8)
W20? W 0.66659(8) 0.25796(8) 0.36572(9)
O69? O 0.7117(14) 0.1577(13) 0.4322(15)
O70? O 0.6989(14) 0.0192(13) 0.5794(14)
O71? O 0.5369(14) 0.0174(14) 0.7150(15)
O72? O 0.4534(17) 0.1544(13) 0.6504(14)
O73? O 0.5609(15) 0.2410(15) 0.4769(16)
O74? O 0.8608(14) 0.1090(12) 0.4724(16)
O75? O 0.6822(13) -0.0275(14) 0.7552(13)
O76? O 0.4416(14) 0.1072(12) 0.8254(14)
O77? O 0.4662(14) 0.3286(14) 0.5895(13)
O78? O 0.7210(13) 0.3324(13) 0.3720(14)
P4? P 0.4565(5) 0.1906(4) 0.3523(5)
O79? O 0.4340(13) 0.1014(11) 0.3605(13)
O80? O 0.5026(13) 0.1859(12) 0.4123(13)
P5? P 0.6885(5) 0.0593(4) 0.2859(5)
O81? O 0.6079(12) 0.0021(11) 0.3124(11)
O82? O 0.6774(12) 0.0876(10) 0.3633(12)
O83? O 0.388(4) 0.522(4) 0.101(4)
O84? O 0.5477(18) 0.0576(17) 0.5262(19)
N1A N 1.1867(9) 0.7606(8) -0.7527(8)
C1A C 1.1131(10) 0.7132(9) -0.6849(10)
C2A C 1.2540(12) 0.7013(12) -0.7624(12)
N2A N 1.1290(9) 0.6318(8) -0.6483(8)
H1A H 1.05530 0.73510 -0.66480
C3A C 1.2188(13) 0.6246(12) -0.7013(13)
H2A H 1.31490 0.71400 -0.80590
C4A C 1.062(1) 0.5635(10) -0.5739(10)
H3A H 1.24990 0.57380 -0.69500
C5A C 1.0894(12) 0.4843(11) -0.5395(13)
C6A C 0.9745(11) 0.5803(11) -0.5346(12)
H4A H 1.15100 0.47250 -0.56490
H5A H 0.95570 0.63590 -0.55680
W1A W 0.41846(5) -0.37680(4) 0.81115(5)
O1A O 0.4582(7) -0.3700(6) 0.8991(6)
O2A O 0.5417(7) -0.3922(6) 0.7312(7)
O3A O 0.3829(8) -0.4826(7) 0.8639(7)
O4A O 0.3039(7) -0.3298(6) 0.8684(7)
O5A O 0.3952(7) -0.3400(6) 0.7051(7)
O6A O 0.4730(7) -0.2411(6) 0.7583(7)
W2A W 0.50792(6) -0.26319(4) 0.87659(5)
W3A W 0.64832(5) -0.37175(4) 0.61453(5)
W4A W 0.20370(5) -0.25586(4) 0.86962(4)
W5A W 0.44533(8) -0.28796(8) 0.56717(9)
P1A P 0.4163(5) -0.1573(4) 0.7248(5)
O7A O 0.5274(9) -0.2958(7) 0.9740(7)
O8A O 0.3858(7) -0.2248(7) 0.9324(7)
O9A O 0.6255(7) -0.2895(6) 0.7964(7)
O10A O 0.5482(7) -0.1478(6) 0.8185(6)
O11A O 0.7243(6) -0.3668(6) 0.6717(6)
O12A O 0.6593(7) -0.4780(7) 0.6260(8)
O13A O 0.7488(8) -0.3229(7) 0.4916(7)
O14A O 0.6452(8) -0.2389(6) 0.6123(8)
O15A O 0.5687(8) -0.3369(6) 0.5563(7)
O16A O 0.2070(7) -0.2314(6) 0.9692(6)
O17A O 0.1240(7) -0.1614(7) 0.8529(7)
O18A O 0.1189(8) -0.3331(7) 0.9361(7)
O19A O 0.3106(8) -0.1502(7) 0.8048(6)
O20A O 0.2310(7) -0.2472(7) 0.7500(7)
O21A O 0.5075(13) -0.2161(12) 0.4392(13)
O22A O 0.3480(12) -0.2172(12) 0.5732(14)
O23A O 0.4076(15) -0.3667(12) 0.5510(15)
O24A O 0.4722(13) -0.0772(11) 0.6977(13)
O25A O 0.4021(14) -0.1616(12) 0.6459(13)
W6A W 0.29166(5) -0.14503(5) 0.93933(4)
W7A W 0.73838(5) -0.26344(4) 0.68392(5)
W8A W 0.51370(9) -0.02892(9) 0.77397(9)
W9A W 0.80644(5) -0.24821(5) 0.36355(5)
P2A P 0.6645(5) -0.1549(4) 0.5154(5)
W10A W 0.08161(4) -0.06086(5) 0.78179(5)
W11A W 0.23460(9) -0.16578(7) 0.62500(9)
W12A W 0.60187(11) -0.16538(8) 0.31952(9)
O26A O 0.2631(7) -0.1509(6) 1.0500(7)
O27A O 0.2090(7) -0.0569(6) 0.9137(7)
O28A O 0.3852(7) -0.0583(7) 0.8658(6)
O29A O 0.8095(8) -0.2958(7) 0.7381(8)
O30A O 0.8315(8) -0.2210(7) 0.5585(7)
O31A O 0.7233(8) -0.1469(6) 0.6725(7)
O32A O 0.6287(15) -0.0081(15) 0.6659(16)
O33A O 0.4780(15) 0.0740(13) 0.7080(14)
O34A O 0.5503(15) 0.0071(14) 0.8341(13)
O35A O 0.6884(6) -0.2417(6) 0.3654(7)
O36A O 0.9037(6) -0.2227(6) 0.3828(6)
O37A O 0.8550(8) -0.3232(7) 0.3167(7)
O38A O 0.8429(7) -0.1516(6) 0.2469(7)
O39A O 0.7616(7) -0.1440(7) 0.4242(8)
O40A O 0.6593(12) -0.076(1) 0.5396(11)
O41A O 0.5917(12) -0.159(1) 0.4840(13)
O42A O 0.0698(7) -0.0045(6) 0.8623(6)
O43A O -0.0300(7) -0.0959(7) 0.8282(7)
O44A O 0.0722(7) 0.0489(6) 0.6906(7)
O45A O 0.1397(6) -0.0981(6) 0.6808(7)
O46A O 0.7781(6) 0.0039(6) 0.2653(6)
O47A O 0.2653(14) -0.0791(12) 0.5091(13)
O48A O 0.1662(14) -0.2268(14) 0.6174(13)
O49A O 0.5815(14) -0.2249(13) 0.2683(13)
O50A O 0.7048(6) -0.0903(6) 0.2053(7)
Co1A Co 0.19716(15) -0.11053(13) 1.16229(14)
W13A W 0.17409(5) 0.05103(5) 0.84612(5)
W14A W 0.89274(5) -0.13653(4) 0.43293(5)
W15A W 0.74200(8) -0.02863(8) 0.58450(8)
O51A O 0.3302(9) -0.0852(9) 1.1409(9)
O52A O 0.1449(9) -0.0612(9) 1.2687(9)
O53A O 0.0672(8) -0.1255(8) 1.1715(9)
O54A O 0.1971(11) 0.0196(8) 1.0743(9)
O55A O 0.1258(8) 0.0880(8) 0.9363(7)
O56A O 0.9993(8) -0.1422(7) 0.4311(7)
O57A O 0.8413(7) -0.0514(7) 0.4816(7)
O58A O 0.8078(13) 0.0088(14) 0.6191(15)
Na1A Na 0.4740(12) -0.0345(14) 0.4778(15)
O59A O 0.6941(13) 0.0028(12) 0.4324(12)
O60A O 0.6257(12) -0.0850(12) 0.3811(12)
P3A P 0.7123(5) -0.0548(4) 0.3768(5)
Co1A* Co 1.19716(15) 0.88947(13) -0.83771(14)
N1A* N 0.1867(9) -0.2394(8) 1.2473(8)
#END
