
#######################################################################
#
#                 Cambridge Crystallographic Data Centre
#                                CCDC
#
#######################################################################
#
# If this CIF has been generated from an entry in the Cambridge
# Structural Database, then it will include bibliographic, chemical,
# crystal, experimental, refinement or atomic coordinate data resulting
# from the CCDC's data processing and validation procedures.
#
#######################################################################

data_CSD_CIF_AMIYOM
_audit_creation_date 2016-05-18
_audit_creation_method CSD-ConQuest-V1
_database_code_CSD AMIYOM
_database_code_depnum_ccdc_archive 'CCDC 1450842'
_chemical_formula_sum 'C120 H240 Co24 N24 O144'
_chemical_formula_moiety
;
(C72 H72 Co24 O144 24-)n,12(C4 H14 N2 2+)
;
_journal_coden_Cambridge 1220
_journal_volume 22
_journal_year 2016
_journal_page_first 6199
_journal_name_full 'Chem.-Eur.J. '
loop_
_publ_author_name
"Ran Shang"
"Sa Chen"
"Ke-Li Hu"
"Bing-Wu Wang"
"Zhe-Ming Wang"
"Song Gao"
_chemical_name_systematic
;
catena-[dodecakis(butane-1,4-diammonium) 
doheptacontakis(\m-formato)-tetracosa-cobalt]
;
_cell_volume  29881.772
_exptl_crystal_colour 'red'
_exptl_crystal_density_diffrn 1.913
_exptl_special_details
;
LT polymorph

;
_exptl_crystal_description 'hexagonal plate'
_diffrn_ambient_temperature 105
_refine_special_details
;
The structure is disordered.

;
#These two values have been output from a single CSD field.
_refine_ls_R_factor_gt 0.0354
_refine_ls_wR_factor_gt 0.0354
_symmetry_cell_setting rhombohedral
_symmetry_space_group_name_H-M 'R -3 c'
_symmetry_Int_Tables_number 167
loop_
_symmetry_equiv_pos_site_id
_symmetry_equiv_pos_as_xyz
1 x,y,z
2 -y,x-y,z
3 -x+y,-x,z
4 y,x,1/2-z
5 x-y,-y,1/2-z
6 -x,-x+y,1/2-z
7 2/3+x,1/3+y,1/3+z
8 2/3-y,1/3+x-y,1/3+z
9 2/3-x+y,1/3-x,1/3+z
10 2/3+y,1/3+x,5/6-z
11 2/3+x-y,1/3-y,5/6-z
12 2/3-x,1/3-x+y,5/6-z
13 1/3+x,2/3+y,2/3+z
14 1/3-y,2/3+x-y,2/3+z
15 1/3-x+y,2/3-x,2/3+z
16 1/3+y,2/3+x,1/6-z
17 1/3+x-y,2/3-y,1/6-z
18 1/3-x,2/3-x+y,1/6-z
19 -x,-y,-z
20 y,-x+y,-z
21 x-y,x,-z
22 -y,-x,-1/2+z
23 -x+y,y,-1/2+z
24 x,x-y,-1/2+z
25 -2/3-x,-1/3-y,-1/3-z
26 -2/3+y,-1/3-x+y,-1/3-z
27 -2/3+x-y,-1/3+x,-1/3-z
28 -2/3-y,-1/3-x,-5/6+z
29 -2/3-x+y,-1/3+y,-5/6+z
30 -2/3+x,-1/3+x-y,-5/6+z
31 -1/3-x,-2/3-y,-2/3-z
32 -1/3+y,-2/3-x+y,-2/3-z
33 -1/3+x-y,-2/3+x,-2/3-z
34 -1/3-y,-2/3-x,-1/6+z
35 -1/3-x+y,-2/3+y,-1/6+z
36 -1/3+x,-2/3+x-y,-1/6+z
_cell_length_a 29.5653(2)
_cell_length_b 29.5653(2)
_cell_length_c 39.4740(4)
_cell_angle_alpha 90
_cell_angle_beta 90
_cell_angle_gamma 120
_cell_formula_units_Z 6
loop_
_atom_type_symbol
_atom_type_radius_bond
C 0.68
H 0.23
Co 1.26
N 0.68
O 0.68
loop_
_atom_site_label
_atom_site_type_symbol
_atom_site_fract_x
_atom_site_fract_y
_atom_site_fract_z
Co1 Co 0.163561(13) 0.163561(13) 0.25000
O1 O 0.13319(6) 0.09626(6) 0.22053(4)
O2 O 0.12884(6) 0.19454(5) 0.21803(4)
O3 O 0.22834(6) 0.19659(5) 0.21815(4)
C1 C 0.08812(8) 0.07237(8) 0.20919(5)
C2 C 0.15193(8) 0.24064(8) 0.20705(5)
C3 C 0.25888(8) 0.17929(8) 0.21225(5)
O4 O 0.06837(6) 0.02983(6) 0.19336(4)
H1 H 0.06670 0.08750 0.21280
O5 O 0.12961(5) 0.26262(6) 0.19389(3)
H2 H 0.18890 0.26010 0.20890
O6 O 0.29686(5) 0.20034(5) 0.19276(4)
H3 H 0.25240 0.14820 0.22340
Co2 Co 0.00000 0.00000 0.164297(11)
Co3 Co 0.168227(9) 0.331227(9) 0.166609(6)
Co4 Co 0.33330 0.16670 0.16670
O7 O 0.03562(5) 0.06947(6) 0.13732(4)
O8 O 0.09882(5) 0.30279(5) 0.13850(3)
O9 O 0.19836(5) 0.29386(5) 0.13676(3)
O10 O 0.23887(5) 0.36154(5) 0.19346(3)
O11 O 0.13780(5) 0.36965(5) 0.19669(3)
O12 O 0.20390(7) 0.40263(5) 0.14144(4)
O13 O 0.37258(5) 0.23719(5) 0.14062(4)
O14 O 0.26690(5) 0.13729(5) 0.13530(3)
C4 C 0.01304(8) 0.08820(8) 0.12080(5)
C5 C 0.07635(8) 0.25719(8) 0.12617(5)
C6 C 0.24267(8) 0.31794(8) 0.12346(5)
C7 C 0.25782(8) 0.40373(8) 0.20922(5)
C8 C 0.09484(8) 0.34589(8) 0.21207(5)
C9 C 0.35031(8) 0.25706(8) 0.12436(5)
C10 C 0.24648(8) 0.09254(8) 0.12231(5)
O15 O 0.03187(5) 0.13546(5) 0.11355(4)
H4 H -0.02130 0.06470 0.11300
O16 O 0.03180(5) 0.23494(6) 0.11362(4)
H5 H 0.09480 0.23860 0.12650
O17 O 0.26799(5) 0.29645(5) 0.11334(4)
H6 H 0.25830 0.35470 0.12080
O18 O 0.30489(5) 0.43039(5) 0.21821(4)
H7 H 0.23510 0.41670 0.21480
O19 O 0.06667(5) 0.36534(5) 0.21857(4)
H8 H 0.08300 0.31110 0.21920
O20 O 0.37114(5) 0.30342(5) 0.11470(4)
H9 H 0.31450 0.23490 0.11890
O21 O 0.20168(5) 0.06863(6) 0.11025(4)
H10 H 0.26670 0.07580 0.12170
Co5 Co -0.000080(9) 0.168584(11) 0.082300(6)
Co6 Co 0.336207(12) 0.33330 0.08330
O22 O -0.03600(5) 0.10199(5) 0.05005(3)
O23 O 0.06517(5) 0.19990(5) 0.05043(4)
C11 C -0.01455(8) 0.07632(8) 0.04092(5)
C12 C 0.09782(8) 0.24744(8) 0.04591(5)
O24 O -0.03812(5) 0.03187(5) 0.02777(3)
H11 H 0.02200 0.09180 0.04420
H12 H 0.09420 0.27230 0.05910
Co7 Co 0.00000 0.00000 0.00000
N1 N 0.35200(7) 0.37444(7) 0.18972(4)
H13 H 0.34480 0.37580 0.16750
H14 H 0.38720 0.39000 0.19260
H15 H 0.33930 0.39140 0.20230
C13 C 0.32692(9) 0.31891(9) 0.20076(6)
H16 H 0.34050 0.30050 0.18680
H17 H 0.28880 0.30190 0.19700
C14 C 0.33721(8) 0.31409(8) 0.23785(5)
H18 H 0.37540 0.33180 0.24150
H19 H 0.32260 0.27670 0.24330
N2 N 0.20971(7) 0.19158(7) 0.14295(4)
H20 H 0.21130 0.20130 0.16500
H21 H 0.22650 0.22060 0.12970
H22 H 0.22530 0.17190 0.14070
N3 N 0.18476(6) 0.13977(7) 0.02276(4)
H23 H 0.17640 0.12990 0.00080
H24 H 0.17260 0.11090 0.03610
H25 H 0.22010 0.15930 0.02490
C15 C 0.15407(8) 0.16044(8) 0.13223(6)
H26 H 0.13700 0.18170 0.13530
H27 H 0.13580 0.12930 0.14690
C16 C 0.14871(8) 0.14314(8) 0.09555(5)
H28 H 0.11120 0.12050 0.09020
H29 H 0.16580 0.12190 0.09270
C17 C 0.17265(8) 0.18872(8) 0.07020(5)
H30 H 0.15930 0.21270 0.07520
H31 H 0.21100 0.20840 0.07330
C18 C 0.16052(8) 0.17126(8) 0.03355(6)
H32 H 0.12220 0.15010 0.03060
H33 H 0.17350 0.20240 0.01880
N4 N 0.12447(10) -0.02443(9) 0.18966(6)
H34 H 0.12380 -0.03320 0.16750
H35 H 0.10800 -0.00560 0.19210
H36 H 0.10790 -0.05400 0.20240
C19 C 0.1777(2) 0.0063(3) 0.20066(11)
H37 H 0.19510 0.03810 0.18650
H38 H 0.19560 -0.01390 0.19660
C20 C 0.18482(11) 0.02267(11) 0.23772(7)
H39 H 0.22260 0.04490 0.24240
H40 H 0.16810 0.04400 0.24170
N5? N 0.1811(7) 0.0450(6) 0.1894(4)
H41? H 0.19200 0.05250 0.16750
H42? H 0.20180 0.07290 0.20270
H43? H 0.14740 0.03790 0.19090
C21? C 0.1843(12) -0.0001(10) 0.2006(4)
H44? H 0.22040 0.00740 0.19630
H45? H 0.16110 -0.02980 0.18580
C22? C 0.1711(5) -0.0185(4) 0.2367(2)
H46? H 0.13250 -0.03880 0.23850
H47? H 0.18400 -0.04300 0.24100
N6? N 0.1826(7) 0.0379(6) 0.1857(4)
H48? H 0.19000 0.03480 0.16380
H49? H 0.21300 0.05700 0.19740
H50? H 0.16350 0.05420 0.18660
C23? C 0.1518(9) -0.0160(6) 0.2015(3)
H51? H 0.11960 -0.03730 0.18820
H52? H 0.17290 -0.03350 0.20080
C24? C 0.1379(5) -0.0131(5) 0.2360(2)
H53? H 0.10270 -0.01750 0.23260
H54? H 0.13100 -0.04750 0.24450
O1C O 0.09626(6) 0.13319(6) 0.27947(4)
O2C O 0.19454(6) 0.12884(5) 0.28197(4)
O3C O 0.19659(6) 0.22834(5) 0.28185(4)
C1C C 0.07237(8) 0.08812(8) 0.29081(5)
C2C C 0.24064(8) 0.15193(8) 0.29295(5)
C3C C 0.17929(8) 0.25888(8) 0.28775(5)
O4C O 0.02983(6) 0.06837(6) 0.30664(4)
H1C H 0.08750 0.06670 0.28720
O5C O 0.26262(5) 0.12961(6) 0.30611(3)
H2C H 0.26010 0.18890 0.29110
O6C O 0.20034(5) 0.29686(5) 0.30724(4)
H3C H 0.14820 0.25240 0.27660
Co2C Co 0.00000 0.00000 0.335703(11)
Co3C Co 0.331227(9) 0.168227(9) 0.333391(6)
Co4C Co 0.16670 0.33330 0.33330
O4A O -0.02983(6) 0.03854(6) 0.19336(4)
O7A O -0.06947(5) -0.03385(6) 0.13732(4)
O4B O -0.03854(6) -0.06837(6) 0.19336(4)
O7B O 0.03385(5) -0.03562(6) 0.13732(4)
O13DA O 0.294087(50) 0.096143(50) 0.192713(40)
O6DA O 0.369807(50) 0.132993(50) 0.140573(40)
O14DA O 0.399767(50) 0.196043(50) 0.198033(30)
O7C O 0.06947(5) 0.03562(6) 0.36268(4)
O4D O 0.03854(6) -0.02983(6) 0.30664(4)
O7D O -0.03385(5) -0.06947(6) 0.36268(4)
O4E O -0.06837(6) -0.03854(6) 0.30664(4)
O7E O -0.03562(5) 0.03385(6) 0.36268(4)
O8C O 0.30279(5) 0.09882(5) 0.36150(3)
O9C O 0.29386(5) 0.19836(5) 0.36324(3)
O10C O 0.36154(5) 0.23887(5) 0.30654(3)
O12C O 0.40263(7) 0.20390(5) 0.35856(4)
O11C O 0.36965(5) 0.13780(5) 0.30331(3)
O14C O 0.13729(5) 0.26690(5) 0.36470(3)
C1A C -0.07237(8) 0.01575(8) 0.20919(5)
C4A C -0.08820(8) -0.07516(8) 0.12080(5)
C1B C -0.01575(8) -0.08812(8) 0.20919(5)
C4B C 0.07516(8) -0.01304(8) 0.12080(5)
C9DA C 0.316357(80) 0.076273(80) 0.208973(50)
C4C C 0.08820(8) 0.01304(8) 0.37920(5)
C1D C 0.01575(8) -0.07237(8) 0.29081(5)
C4D C -0.07516(8) -0.08820(8) 0.37920(5)
C1E C -0.08812(8) -0.01575(8) 0.29081(5)
C4E C -0.01304(8) 0.07516(8) 0.37920(5)
C5C C 0.25719(8) 0.07635(8) 0.37383(5)
C6C C 0.31794(8) 0.24267(8) 0.37654(5)
C7C C 0.40373(8) 0.25782(8) 0.29078(5)
C10C C 0.09254(8) 0.24648(8) 0.37769(5)
O1A O -0.09626(6) 0.03693(6) 0.22053(4)
H1A H -0.08750 -0.02080 0.21280
O15A O -0.13546(5) -0.10359(5) 0.11355(4)
H4A H -0.06470 -0.08600 0.11300
O1B O -0.03693(6) -0.13319(6) 0.22053(4)
H1B H 0.02080 -0.06670 0.21280
O15B O 0.10359(5) -0.03187(5) 0.11355(4)
H4B H 0.08600 0.02130 0.11300
O20DA O 0.295527(50) 0.029913(50) 0.218633(40)
H9DA H 0.35217 0.09843 0.21443
O15C O 0.13546(5) 0.03187(5) 0.38645(4)
H4C H 0.06470 -0.02130 0.38700
O1D O 0.03693(6) -0.09626(6) 0.27947(4)
H1D H -0.02080 -0.08750 0.28720
O15D O -0.10359(5) -0.13546(5) 0.38645(4)
H4D H -0.08600 -0.06470 0.38700
O1E O -0.13319(6) -0.03693(6) 0.27947(4)
H1E H -0.06670 0.02080 0.28720
O15E O -0.03187(5) 0.10359(5) 0.38645(4)
H4E H 0.02130 0.08600 0.38700
O16C O 0.23494(5) 0.03180(6) 0.38638(4)
H5C H 0.23860 0.09480 0.37350
O17C O 0.29645(5) 0.26799(5) 0.38666(4)
H6C H 0.35470 0.25830 0.37920
O18C O 0.43039(5) 0.30489(5) 0.28179(4)
H7C H 0.41670 0.23510 0.28520
O21C O 0.06863(5) 0.20168(6) 0.38975(4)
H10C H 0.07580 0.26670 0.37830
Co1A Co -0.163561(13) 0.000000(13) 0.25000
Co5A Co -0.168584(9) -0.168664(11) 0.082300(6)
Co1B Co 0.000000(13) -0.163561(13) 0.25000
Co5B Co 0.168664(9) 0.000080(11) 0.082300(6)
Co5CA Co 0.333253(9) 0.498003(11) 0.248967(6)
Co6EA Co -0.000033(12) 0.33043 0.25003
Co6DA Co 0.330460(12) 0.00003 0.25003
Co5C Co 0.168584(9) -0.000080(11) 0.417700(6)
Co5D Co -0.168664(9) -0.168584(11) 0.417700(6)
Co5E Co 0.000080(9) 0.168664(11) 0.417700(6)
Co6C Co 0.333300(12) 0.33621 0.41670
Co5FA Co 0.498003(9) 0.333253(11) 0.251033(6)
O21A O -0.06863(5) 0.13305(6) 0.11025(4)
O18IA O -0.028443(50) 0.207833(50) 0.051543(40)
O2A O -0.19454(6) -0.06570(5) 0.21803(4)
O3A O -0.19659(6) 0.03175(5) 0.21815(4)
O2E O -0.12884(6) 0.06570(5) 0.28197(4)
O3E O -0.22834(6) -0.03175(5) 0.28185(4)
O16A O -0.23494(5) -0.20314(6) 0.11362(4)
O22A O -0.10199(5) -0.13799(5) 0.05005(3)
O23A O -0.19990(5) -0.13473(5) 0.05043(4)
O21B O -0.13305(5) -0.20168(6) 0.11025(4)
O18HA O -0.207833(50) -0.236277(50) 0.051543(40)
O2B O 0.06570(6) -0.12884(5) 0.21803(4)
O3B O -0.03175(6) -0.22834(5) 0.21815(4)
O2D O -0.06570(6) -0.19454(5) 0.28197(4)
O3D O 0.03175(6) -0.19659(5) 0.28185(4)
O16B O 0.20314(5) -0.03180(6) 0.11362(4)
O22B O 0.13799(5) 0.03600(5) 0.05005(3)
O23B O 0.13473(5) -0.06517(5) 0.05043(4)
O18GA O 0.236277(50) 0.028443(50) 0.051543(40)
O19GA O 0.301327(50) 0.266663(50) 0.051903(40)
O20P O 0.401053(50) 0.363247(50) 0.051967(40)
O19FA O 0.367997(50) 0.400003(50) 0.114763(40)
O17P O 0.304873(50) 0.370217(50) 0.053327(40)
O20EA O -0.029913(50) 0.265613(50) 0.218633(40)
O22C O 0.10199(5) -0.03600(5) 0.44995(3)
O23C O 0.19990(5) 0.06517(5) 0.44957(4)
O21D O 0.13305(5) -0.06863(6) 0.38975(4)
O18Z O 0.207833(50) -0.028443(50) 0.448457(40)
O16D O -0.20314(5) -0.23494(6) 0.38638(4)
O22D O -0.13799(5) -0.10199(5) 0.44995(3)
O23D O -0.13473(5) -0.19990(5) 0.44957(4)
O21E O -0.20168(5) -0.13305(6) 0.38975(4)
O18Y O -0.236277(50) -0.207833(50) 0.448457(40)
O16E O -0.03180(5) 0.20314(6) 0.38638(4)
O22E O 0.03600(5) 0.13799(5) 0.44995(3)
O23E O -0.06517(5) 0.13473(5) 0.44957(4)
O18X O 0.028443(50) 0.236277(50) 0.448457(40)
C10A C -0.09254(8) 0.15394(8) 0.12231(5)
C2A C -0.24064(8) -0.08871(8) 0.20705(5)
C3A C -0.17929(8) 0.07959(8) 0.21225(5)
C2E C -0.15193(8) 0.08871(8) 0.29295(5)
C3E C -0.25888(8) -0.07959(8) 0.28775(5)
C5A C -0.25719(8) -0.18084(8) 0.12617(5)
C11A C -0.07632(8) -0.09087(8) 0.04092(5)
C12A C -0.24744(8) -0.14962(8) 0.04591(5)
C10B C -0.15394(8) -0.24648(8) 0.12231(5)
C2B C 0.08871(8) -0.15193(8) 0.20705(5)
C3B C -0.07959(8) -0.25888(8) 0.21225(5)
C2D C -0.08871(8) -0.24064(8) 0.29295(5)
C3D C 0.07959(8) -0.17929(8) 0.28775(5)
C5B C 0.18084(8) -0.07635(8) 0.12617(5)
C11B C 0.09087(8) 0.01455(8) 0.04092(5)
C12B C 0.14962(8) -0.09782(8) 0.04591(5)
C8GA C 0.320777(80) 0.238493(80) 0.045403(50)
C9P C 0.426583(80) 0.409607(80) 0.042307(50)
C8FA C 0.415617(80) 0.428173(80) 0.121263(50)
C9EA C -0.076273(80) 0.240083(80) 0.208973(50)
C11C C 0.07632(8) -0.01455(8) 0.45908(5)
C12C C 0.24744(8) 0.09782(8) 0.45409(5)
C10D C 0.15394(8) -0.09254(8) 0.37769(5)
C5D C -0.18084(8) -0.25719(8) 0.37383(5)
C11D C -0.09087(8) -0.07632(8) 0.45908(5)
C12D C -0.14962(8) -0.24744(8) 0.45409(5)
C10E C -0.24648(8) -0.15394(8) 0.37769(5)
C5E C -0.07635(8) 0.18084(8) 0.37383(5)
C11E C 0.01455(8) 0.09087(8) 0.45908(5)
C12E C -0.09782(8) 0.14962(8) 0.45409(5)
O12P O 0.134603(70) 0.264037(50) 0.025227(40)
O14A O -0.13729(5) 0.12961(5) 0.13530(3)
H10A H -0.07580 0.19090 0.12170
O5A O -0.26262(5) -0.13301(6) 0.19389(3)
H2A H -0.26010 -0.07120 0.20890
O6A O -0.20034(5) 0.09652(5) 0.19276(4)
H3A H -0.14820 0.10420 0.22340
O5E O -0.12961(5) 0.13301(6) 0.30611(3)
H2E H -0.18890 0.07120 0.29110
O6E O -0.29686(5) -0.09652(5) 0.30724(4)
H3E H -0.25240 -0.10420 0.27660
O8A O -0.30279(5) -0.20397(5) 0.13850(3)
H5A H -0.23860 -0.14380 0.12650
O24A O -0.03187(5) -0.06999(5) 0.02777(3)
H11A H -0.09180 -0.06980 0.04420
O12O O -0.264037(70) -0.129433(50) 0.025227(40)
H12A H -0.27230 -0.17810 0.05910
O14B O -0.12961(5) -0.26690(5) 0.13530(3)
H10B H -0.19090 -0.26670 0.12170
O5B O 0.13301(5) -0.12961(6) 0.19389(3)
H2B H 0.07120 -0.18890 0.20890
O6B O -0.09652(5) -0.29686(5) 0.19276(4)
H3B H -0.10420 -0.25240 0.22340
O5D O -0.13301(5) -0.26262(6) 0.30611(3)
H2D H -0.07120 -0.26010 0.29110
O6D O 0.09652(5) -0.20034(5) 0.30724(4)
H3D H 0.10420 -0.14820 0.27660
O8B O 0.20397(5) -0.09882(5) 0.13850(3)
H5B H 0.14380 -0.09480 0.12650
O24B O 0.06999(5) 0.03812(5) 0.02777(3)
H11B H 0.06980 -0.02200 0.04420
O12Q O 0.129433(70) -0.134603(50) 0.025227(40)
H12B H 0.17810 -0.09420 0.05910
O11GA O 0.297017(50) 0.195533(50) 0.030023(30)
H8GA H 0.35557 0.25033 0.05253
O13P O 0.468723(50) 0.429477(50) 0.026047(40)
H9P H 0.41293 0.43177 0.04777
O11FA O 0.434817(50) 0.471133(50) 0.136643(30)
H8FA H 0.43857 0.41633 0.11413
O13EA O -0.096143(50) 0.197943(50) 0.192713(40)
H9EA H -0.09843 0.25373 0.21443
O24C O 0.03187(5) -0.03812(5) 0.47223(3)
H11C H 0.09180 0.02200 0.45580
O12G O 0.264037(70) 0.134603(50) 0.474773(40)
H12C H 0.27230 0.09420 0.44090
O14D O 0.12961(5) -0.13729(5) 0.36470(3)
H10D H 0.19090 -0.07580 0.37830
O8D O -0.20397(5) -0.30279(5) 0.36150(3)
H5D H -0.14380 -0.23860 0.37350
O24D O -0.06999(5) -0.03187(5) 0.47223(3)
H11D H -0.06980 -0.09180 0.45580
O12F O -0.129433(70) -0.264037(50) 0.474773(40)
H12D H -0.17810 -0.27230 0.44090
O14E O -0.26690(5) -0.12961(5) 0.36470(3)
H10E H -0.26670 -0.19090 0.37830
O8E O -0.09882(5) 0.20397(5) 0.36150(3)
H5E H -0.09480 0.14380 0.37350
O24E O 0.03812(5) 0.06999(5) 0.47223(3)
H11E H -0.02200 0.06980 0.45580
O12H O -0.134603(70) 0.129433(50) 0.474773(40)
H12E H -0.09420 0.17810 0.44090
Co3P Co 0.170333(9) 0.335440(9) 0.000058(6)
Co4A Co -0.16670 0.16660 0.16670
Co3A Co -0.331227(9) -0.163000(9) 0.166609(6)
Co3E Co -0.168227(9) 0.163000(9) 0.333391(6)
Co4E Co -0.33330 -0.16660 0.33330
Co3O Co -0.335440(9) -0.165106(9) 0.000058(6)
Co4B Co -0.16660 -0.33330 0.16670
Co3B Co 0.163000(9) -0.168227(9) 0.166609(6)
Co3D Co -0.163000(9) -0.331227(9) 0.333391(6)
Co4D Co 0.16660 -0.16670 0.33330
Co3Q Co 0.165106(9) -0.170333(9) 0.000058(6)
Co3GA Co 0.335440(9) 0.165106(9) -0.000058(6)
Co4P Co 0.49993 0.49997 -0.00003
Co3FA Co 0.503667(9) 0.501560(9) 0.166724(6)
Co7C Co 0.00000 0.00000 0.50000
Co3G Co 0.335440(9) 0.170333(9) 0.499942(6)
Co3F Co -0.165106(9) -0.335440(9) 0.499942(6)
Co3H Co -0.170333(9) 0.165106(9) 0.499942(6)
O24R O 0.03812(5) -0.03187(5) -0.02777(3)
O24S O 0.03187(5) 0.06999(5) -0.02777(3)
O24T O -0.06999(5) -0.03812(5) -0.02777(3)
O13A O -0.23719(5) 0.13539(5) 0.14062(4)
O6EA O -0.132993(50) 0.236813(50) 0.140573(40)
O14EA O -0.196043(50) 0.203723(50) 0.198033(30)
O9A O -0.29386(5) -0.09550(5) 0.13676(3)
O10A O -0.36154(5) -0.12267(5) 0.19346(3)
O11A O -0.36965(5) -0.23185(5) 0.19669(3)
O12A O -0.40263(7) -0.19873(5) 0.14144(4)
O9E O -0.19836(5) 0.09550(5) 0.36324(3)
O10E O -0.23887(5) 0.12267(5) 0.30654(3)
O12E O -0.20390(7) 0.19873(5) 0.35856(4)
O11E O -0.13780(5) 0.23185(5) 0.30331(3)
O13B O -0.13539(5) -0.37258(5) 0.14062(4)
O6FA O -0.236813(50) -0.369807(50) 0.140573(40)
O13FA O -0.197943(50) -0.294087(50) 0.192713(40)
O14FA O -0.203723(50) -0.399767(50) 0.198033(30)
O9B O 0.09550(5) -0.19836(5) 0.13676(3)
O10B O 0.12267(5) -0.23887(5) 0.19346(3)
O12B O 0.19873(7) -0.20390(5) 0.14144(4)
O11B O 0.23185(5) -0.13780(5) 0.19669(3)
O9D O -0.09550(5) -0.29386(5) 0.36324(3)
O10D O -0.12267(5) -0.36154(5) 0.30654(3)
O12D O -0.19873(7) -0.40263(5) 0.35856(4)
O11D O -0.23185(5) -0.36965(5) 0.30331(3)
C9A C -0.25706(8) 0.09325(8) 0.12436(5)
C6A C -0.31794(8) -0.07527(8) 0.12346(5)
C7A C -0.40373(8) -0.14591(8) 0.20922(5)
C8A C -0.34589(8) -0.25105(8) 0.21207(5)
C6E C -0.24267(8) 0.07527(8) 0.37654(5)
C7E C -0.25782(8) 0.14591(8) 0.29078(5)
C9B C -0.09325(8) -0.35031(8) 0.12436(5)
C6B C 0.07527(8) -0.24267(8) 0.12346(5)
C7B C 0.14591(8) -0.25782(8) 0.20922(5)
C6D C -0.07527(8) -0.31794(8) 0.37654(5)
C7D C -0.14591(8) -0.40373(8) 0.29078(5)
O20A O -0.30342(5) 0.06772(5) 0.11470(4)
H9A H -0.23490 0.07960 0.11890
O17A O -0.29645(5) -0.02846(5) 0.11334(4)
H6A H -0.35470 -0.09640 0.12080
O18A O -0.43039(5) -0.12550(5) 0.21821(4)
H7A H -0.41670 -0.18160 0.21480
O19A O -0.36534(5) -0.29867(5) 0.21857(4)
H8A H -0.31110 -0.22810 0.21920
O17E O -0.26799(5) 0.02846(5) 0.38666(4)
H6E H -0.25830 0.09640 0.37920
O18E O -0.30489(5) 0.12550(5) 0.28179(4)
H7E H -0.23510 0.18160 0.28520
O20B O -0.06772(5) -0.37114(5) 0.11470(4)
H9B H -0.07960 -0.31450 0.11890
O17B O 0.02846(5) -0.26799(5) 0.11334(4)
H6B H 0.09640 -0.25830 0.12080
O18B O 0.12550(5) -0.30489(5) 0.21821(4)
H7B H 0.18160 -0.23510 0.21480
O17D O -0.02846(5) -0.29645(5) 0.38666(4)
H6D H -0.09640 -0.35470 0.37920
O18D O -0.12550(5) -0.43039(5) 0.28179(4)
H7D H -0.18160 -0.41670 0.28520
Co6A Co -0.333300(12) 0.00291 0.08330
Co5BA Co -0.498003(9) -0.164749(11) 0.248967(6)
Co6FA Co -0.330426(12) -0.33046 0.25003
Co6E Co -0.336207(12) -0.00291 0.41670
Co5DA Co -0.333253(9) 0.164749(11) 0.251033(6)
Co6B Co -0.002907(12) -0.33621 0.08330
Co5AA Co 0.164749(9) -0.333253(11) 0.248967(6)
Co6D Co 0.002907(12) -0.33330 0.41670
Co5EA Co -0.164749(9) -0.498003(11) 0.251033(6)
O19IA O -0.266663(50) 0.034663(50) 0.051903(40)
O17O O -0.370217(50) -0.065343(50) 0.053327(40)
O20O O -0.363247(50) 0.037807(50) 0.051967(40)
O19DA O -0.400003(50) -0.032007(50) 0.114763(40)
O19HA O -0.034663(50) -0.301327(50) 0.051903(40)
O17Q O 0.065343(50) -0.304873(50) 0.053327(40)
O20Q O -0.037807(50) -0.401053(50) 0.051967(40)
O19EA O 0.032007(50) -0.367997(50) 0.114763(40)
C8IA C -0.238493(80) 0.082283(80) 0.045403(50)
C8HA C -0.082283(80) -0.320777(80) 0.045403(50)
O11IA O -0.195533(50) 0.101483(50) 0.030023(30)
H8IA H -0.25033 0.10523 0.05253
O11HA O -0.101483(50) -0.297017(50) 0.030023(30)
H8HA H -0.10523 -0.35557 0.05253
Co3IA Co -0.165106(9) 0.170333(9) -0.000058(6)
Co3HA Co -0.170333(9) -0.335440(9) -0.000058(6)
N1C N 0.37444(7) 0.35200(7) 0.31028(4)
H13C H 0.37580 0.34480 0.33250
H14C H 0.39000 0.38720 0.30740
H15C H 0.39140 0.33930 0.29770
C13C C 0.31891(9) 0.32692(9) 0.29924(6)
H16C H 0.30050 0.34050 0.31320
H17C H 0.30190 0.28880 0.30300
C14C C 0.31409(8) 0.33721(8) 0.26215(5)
H18C H 0.33180 0.37540 0.25850
H19C H 0.27670 0.32260 0.25670
N4D N 0.1489(1) 0.02443(9) 0.31034(6)
H34D H 0.15700 0.03320 0.33250
H35D H 0.11360 0.00560 0.30790
H36D H 0.16190 0.05400 0.29760
C19D C 0.1714(2) -0.0063(3) 0.29934(11)
H37D H 0.15700 -0.03810 0.31350
H38D H 0.20950 0.01390 0.30340
C20D C 0.16215(11) -0.02267(11) 0.26228(7)
H39D H 0.17770 -0.04490 0.25760
H40D H 0.12410 -0.04400 0.25830
#END
