
#######################################################################
#
#                 Cambridge Crystallographic Data Centre
#                                CCDC
#
#######################################################################
#
# If this CIF has been generated from an entry in the Cambridge
# Structural Database, then it will include bibliographic, chemical,
# crystal, experimental, refinement or atomic coordinate data resulting
# from the CCDC's data processing and validation procedures.
#
#######################################################################

data_CSD_CIF_AMIYIG
_audit_creation_date 2016-05-18
_audit_creation_method CSD-ConQuest-V1
_database_code_CSD AMIYIG
_database_code_depnum_ccdc_archive 'CCDC 1450841'
_chemical_formula_sum 'C10 H20 Fe2 N2 O12'
_chemical_formula_moiety
;
C4 H14 N2 2+,n(C6 H6 Fe2 O12 2-)
;
_journal_coden_Cambridge 1220
_journal_volume 22
_journal_year 2016
_journal_page_first 6199
_journal_name_full 'Chem.-Eur.J. '
loop_
_publ_author_name
"Ran Shang"
"Sa Chen"
"Ke-Li Hu"
"Bing-Wu Wang"
"Zhe-Ming Wang"
"Song Gao"
_chemical_name_systematic
;
catena-[1,4-diammoniumbutane hexakis(\m-formato)-di-iron]
;
_cell_volume    861.146
_exptl_crystal_colour 'pale green'
_exptl_crystal_density_diffrn 1.82
_exptl_crystal_description 'column'
_diffrn_ambient_temperature 290
_refine_special_details
;
C3,N1 disordered by symmetry over three configurations with occupancy 0.33.

;
#These two values have been output from a single CSD field.
_refine_ls_R_factor_gt 0.0225
_refine_ls_wR_factor_gt 0.0225
_symmetry_cell_setting hexagonal
_symmetry_space_group_name_H-M 'P -3 1 c'
_symmetry_Int_Tables_number 163
loop_
_symmetry_equiv_pos_site_id
_symmetry_equiv_pos_as_xyz
1 x,y,z
2 -y,x-y,z
3 -x+y,-x,z
4 -y,-x,1/2-z
5 -x+y,y,1/2-z
6 x,x-y,1/2-z
7 -x,-y,-z
8 y,-x+y,-z
9 x-y,x,-z
10 y,x,-1/2+z
11 x-y,-y,-1/2+z
12 -x,-x+y,-1/2+z
_cell_length_a 8.5897(2)
_cell_length_b 8.5897(2)
_cell_length_c 13.4769(3)
_cell_angle_alpha 90
_cell_angle_beta 90
_cell_angle_gamma 120
_cell_formula_units_Z 2
loop_
_atom_type_symbol
_atom_type_radius_bond
C 0.68
H 0.23
Fe 1.52
N 0.68
O 0.68
loop_
_atom_site_label
_atom_site_type_symbol
_atom_site_fract_x
_atom_site_fract_y
_atom_site_fract_z
Fe1 Fe 0.00000 0.00000 0.50000
Fe2 Fe 0.33330 0.66670 0.25000
O1 O 0.21423(18) 0.20365(17) 0.41585(10)
O2 O 0.33908(18) 0.47035(18) 0.34418(10)
C1 C 0.2099(2) 0.3261(2) 0.37092(13)
H1 H 0.09650 0.30790 0.35540
C2 C 0.66670 0.33330 0.3947(4)
C3 C 0.7285(10) 0.3195(11) 0.2837(4)
N1 N 0.5475(6) 0.1996(6) 0.4322(3)
H2 H 0.44280 0.19410 0.42090
H3 H 0.56610 0.20240 0.49730
H4 H 0.54550 0.10340 0.40620
O1A O -0.20365(18) 0.01058(17) 0.41585(10)
O2A O -0.47035(18) -0.13127(18) 0.34418(10)
C1A C -0.3261(2) -0.1162(2) 0.37092(13)
H1A H -0.30790 -0.21140 0.35540
O1B O -0.01058(18) -0.21423(17) 0.41585(10)
O2B O 0.13127(18) -0.33908(18) 0.34418(10)
C1B C 0.1162(2) -0.2099(2) 0.37092(13)
H1B H 0.21140 -0.09650 0.35540
O1D O -0.01058(18) 0.20365(17) 0.08415(10)
O2D O 0.13127(18) 0.47035(18) 0.15582(10)
C1D C 0.1162(2) 0.3261(2) 0.12908(13)
H1D H 0.21140 0.30790 0.14460
O1F O -0.21423(18) -0.20365(17) 0.58415(10)
O2F O -0.33908(18) -0.47035(18) 0.65582(10)
C1F C -0.2099(2) -0.3261(2) 0.62908(13)
H1F H -0.09650 -0.30790 0.64460
O1H O 0.01058(18) 0.21423(17) 0.58415(10)
O2H O -0.13127(18) 0.33908(18) 0.65582(10)
C1H C -0.1162(2) 0.2099(2) 0.62908(13)
H1H H -0.21140 0.09650 0.64460
Fe1C Fe 0.00000 0.00000 0.00000
Fe2* Fe -0.66670 -0.33330 0.25000
Fe2** Fe 0.33330 -0.33330 0.25000
Fe2F Fe -0.33330 -0.66670 0.75000
Fe2F* Fe -0.33330 0.33330 0.75000
O1G O 0.20365(18) -0.01058(17) 0.58415(10)
O2A* O 0.52965(18) 0.86873(18) 0.34418(10)
O2B* O 0.13127(18) 0.66092(18) 0.34418(10)
O2C O 0.52965(18) 0.66092(18) 0.15582(10)
O2E O 0.33908(18) 0.86873(18) 0.15582(10)
C3A C 0.6805(10) 0.4090(11) 0.2837(4)
N1A N 0.8004(6) 0.3479(6) 0.4322(3)
H2A H 0.80590 0.24870 0.42090
H3A H 0.79760 0.36370 0.49730
H4A H 0.89660 0.44210 0.40620
C3B C 0.591(1) 0.2715(11) 0.2837(4)
N1B N 0.6521(6) 0.4525(6) 0.4322(3)
H2B H 0.75130 0.55720 0.42090
H3B H 0.63630 0.43390 0.49730
H4B H 0.55790 0.45450 0.40620
C2C C 0.66670 0.33330 0.1053(4)
C3C C 0.6805(10) 0.2715(11) 0.2163(4)
N1C N 0.8004(6) 0.4525(6) 0.0678(3)
H2C H 0.80590 0.55720 0.07910
H3C H 0.79760 0.43390 0.00270
H4C H 0.89660 0.45450 0.09380
C3D C 0.591(1) 0.3195(11) 0.2163(4)
N1D N 0.6521(6) 0.1996(6) 0.0678(3)
H2D H 0.75130 0.19410 0.07910
H3D H 0.63630 0.20240 0.00270
H4D H 0.55790 0.10340 0.09380
C3E C 0.7285(10) 0.4090(11) 0.2163(4)
N1E N 0.5475(6) 0.3479(6) 0.0678(3)
H2E H 0.44280 0.24870 0.07910
H3E H 0.56610 0.36370 0.00270
H4E H 0.54550 0.44210 0.09380
#END
