
#######################################################################
#
#                 Cambridge Crystallographic Data Centre
#                                CCDC
#
#######################################################################
#
# If this CIF has been generated from an entry in the Cambridge
# Structural Database, then it will include bibliographic, chemical,
# crystal, experimental, refinement or atomic coordinate data resulting
# from the CCDC's data processing and validation procedures.
#
#######################################################################

data_CSD_CIF_AMIZAZ02
_audit_creation_date 2016-05-18
_audit_creation_method CSD-ConQuest-V1
_database_code_CSD AMIZAZ02
_database_code_depnum_ccdc_archive 'CCDC 1450846'
_chemical_formula_sum 'C10 H20 N2 Ni2 O12'
_chemical_formula_moiety
;
C4 H14 N2 2+,n(C6 H6 Ni2 O12 2-)
;
_journal_coden_Cambridge 1220
_journal_volume 22
_journal_year 2016
_journal_page_first 6199
_journal_name_full 'Chem.-Eur.J. '
loop_
_publ_author_name
"Ran Shang"
"Sa Chen"
"Ke-Li Hu"
"Bing-Wu Wang"
"Zhe-Ming Wang"
"Song Gao"
_chemical_name_systematic
;
catena-[butane-1,4-diammonium hexakis(\m-formato)-di-nickel]
;
_cell_volume    818.373
_exptl_crystal_colour 'green'
_exptl_crystal_density_diffrn 1.939
_exptl_special_details
;
HT polymorph
257 K

;
_exptl_crystal_description 'block'
_diffrn_ambient_temperature 290
_refine_special_details
;
C3,N1 disordered by symmetry over three configurations with occupancy 0.33.

;
#These two values have been output from a single CSD field.
_refine_ls_R_factor_gt 0.0266
_refine_ls_wR_factor_gt 0.0266
_symmetry_cell_setting hexagonal
_symmetry_space_group_name_H-M 'P -3 1 c'
_symmetry_Int_Tables_number 163
loop_
_symmetry_equiv_pos_site_id
_symmetry_equiv_pos_as_xyz
1 x,y,z
2 -y,x-y,z
3 -x+y,-x,z
4 -y,-x,1/2-z
5 -x+y,y,1/2-z
6 x,x-y,1/2-z
7 -x,-y,-z
8 y,-x+y,-z
9 x-y,x,-z
10 y,x,-1/2+z
11 x-y,-y,-1/2+z
12 -x,-x+y,-1/2+z
_cell_length_a 8.4317(3)
_cell_length_b 8.4317(3)
_cell_length_c 13.2920(4)
_cell_angle_alpha 90
_cell_angle_beta 90
_cell_angle_gamma 120
_cell_formula_units_Z 2
loop_
_atom_type_symbol
_atom_type_radius_bond
C 0.68
H 0.23
N 0.68
Ni 1.24
O 0.68
loop_
_atom_site_label
_atom_site_type_symbol
_atom_site_fract_x
_atom_site_fract_y
_atom_site_fract_z
Ni1 Ni 0.00000 0.00000 0.50000
Ni2 Ni 0.33330 0.66670 0.25000
O1 O 0.2105(2) 0.2033(2) 0.41772(12)
O2 O 0.3393(3) 0.4723(2) 0.34154(12)
C1 C 0.2053(4) 0.3269(4) 0.37020(17)
H1 H 0.09000 0.30910 0.35450
C2 C 0.66670 0.33330 0.3967(5)
C3 C 0.7288(15) 0.3153(19) 0.2827(5)
N1 N 0.5488(9) 0.1993(9) 0.4336(4)
H2 H 0.44130 0.19100 0.42060
H3 H 0.56590 0.20320 0.49980
H4 H 0.55000 0.10220 0.40820
O1A O -0.2033(2) 0.0072(2) 0.41772(12)
O2A O -0.4723(3) -0.1330(2) 0.34154(12)
C1A C -0.3269(4) -0.1216(4) 0.37020(17)
H1A H -0.30910 -0.21910 0.35450
O1B O -0.0072(2) -0.2105(2) 0.41772(12)
O2B O 0.1330(3) -0.3393(2) 0.34154(12)
C1B C 0.1216(4) -0.2053(4) 0.37020(17)
H1B H 0.21910 -0.09000 0.35450
O1D O -0.0072(2) 0.2033(2) 0.08228(12)
O2D O 0.1330(3) 0.4723(2) 0.15846(12)
C1D C 0.1216(4) 0.3269(4) 0.12980(17)
H1D H 0.21910 0.30910 0.14550
O1F O -0.2105(2) -0.2033(2) 0.58228(12)
O2F O -0.3393(3) -0.4723(2) 0.65846(12)
C1F C -0.2053(4) -0.3269(4) 0.62980(17)
H1F H -0.09000 -0.30910 0.64550
O1H O 0.0072(2) 0.2105(2) 0.58228(12)
O2H O -0.1330(3) 0.3393(2) 0.65846(12)
C1H C -0.1216(4) 0.2053(4) 0.62980(17)
H1H H -0.21910 0.09000 0.64550
Ni1C Ni 0.00000 0.00000 0.00000
Ni2* Ni -0.66670 -0.33330 0.25000
Ni2** Ni 0.33330 -0.33330 0.25000
Ni2F Ni -0.33330 -0.66670 0.75000
Ni2F* Ni -0.33330 0.33330 0.75000
O1G O 0.2033(2) -0.0072(2) 0.58228(12)
O2A* O 0.5277(3) 0.8670(2) 0.34154(12)
O2B* O 0.1330(3) 0.6607(2) 0.34154(12)
O2C O 0.5277(3) 0.6607(2) 0.15846(12)
O2E O 0.3393(3) 0.8670(2) 0.15846(12)
C3A C 0.6847(15) 0.4135(19) 0.2827(5)
N1A N 0.8007(9) 0.3495(9) 0.4336(4)
H2A H 0.80900 0.25030 0.42060
H3A H 0.79680 0.36270 0.49980
H4A H 0.89780 0.44780 0.40820
C3B C 0.5865(15) 0.2712(19) 0.2827(5)
N1B N 0.6505(9) 0.4512(9) 0.4336(4)
H2B H 0.74970 0.55870 0.42060
H3B H 0.63730 0.43410 0.49980
H4B H 0.55220 0.45000 0.40820
C2C C 0.66670 0.33330 0.1033(5)
C3C C 0.6847(15) 0.2712(19) 0.2173(5)
N1C N 0.8007(9) 0.4512(9) 0.0664(4)
H2C H 0.80900 0.55870 0.07940
H3C H 0.79680 0.43410 0.00020
H4C H 0.89780 0.45000 0.09180
C3D C 0.5865(15) 0.3153(19) 0.2173(5)
N1D N 0.6505(9) 0.1993(9) 0.0664(4)
H2D H 0.74970 0.19100 0.07940
H3D H 0.63730 0.20320 0.00020
H4D H 0.55220 0.10220 0.09180
C3E C 0.7288(15) 0.4135(19) 0.2173(5)
N1E N 0.5488(9) 0.3495(9) 0.0664(4)
H2E H 0.44130 0.25030 0.07940
H3E H 0.56590 0.36270 0.00020
H4E H 0.55000 0.44780 0.09180
#END
