
#######################################################################
#
#                 Cambridge Crystallographic Data Centre
#                                CCDC
#
#######################################################################
#
# If this CIF has been generated from an entry in the Cambridge
# Structural Database, then it will include bibliographic, chemical,
# crystal, experimental, refinement or atomic coordinate data resulting
# from the CCDC's data processing and validation procedures.
#
#######################################################################

data_CSD_CIF_AMIZON
_audit_creation_date 2016-05-18
_audit_creation_method CSD-ConQuest-V1
_database_code_CSD AMIZON
_database_code_depnum_ccdc_archive 'CCDC 1450847'
_chemical_formula_sum 'C20 H40 Cu4 N4 O24'
_chemical_formula_moiety
;
2(C4 H14 N2 2+),n(C12 H12 Cu4 O24 4-)
;
_journal_coden_Cambridge 1220
_journal_volume 22
_journal_year 2016
_journal_page_first 6199
_journal_name_full 'Chem.-Eur.J. '
loop_
_publ_author_name
"Ran Shang"
"Sa Chen"
"Ke-Li Hu"
"Bing-Wu Wang"
"Zhe-Ming Wang"
"Song Gao"
_chemical_name_systematic
;
catena-[bis(butane-1,4-diammonium) dodecakis(\m-formato)-tetra-copper]
;
_cell_volume    833.275
_exptl_crystal_colour 'blue'
_exptl_crystal_density_diffrn 1.942
_exptl_special_details
;
LT polymorph
244 K

;
_exptl_crystal_description 'block'
_diffrn_ambient_temperature 100
_diffrn_special_details
;
twin

;
_refine_special_details
;
C8,C9 and C10,C11 disordered over two sites with occupancies 0.771:0.229; N2 
and N3 disordered over two sites with occupancies 0.507:0.493.
;
#These two values have been output from a single CSD field.
_refine_ls_R_factor_gt 0.0436
_refine_ls_wR_factor_gt 0.0436
_symmetry_cell_setting triclinic
_symmetry_space_group_name_H-M 'P -1'
_symmetry_Int_Tables_number 2
loop_
_symmetry_equiv_pos_site_id
_symmetry_equiv_pos_as_xyz
1 x,y,z
2 -x,-y,-z
_cell_length_a 8.2864(5)
_cell_length_b 8.4587(6)
_cell_length_c 13.1755(9)
_cell_angle_alpha 90.389(6)
_cell_angle_beta 90.306(6)
_cell_angle_gamma 115.530(7)
_cell_formula_units_Z 1
loop_
_atom_type_symbol
_atom_type_radius_bond
C 0.68
H 0.23
Cu 1.32
N 0.68
O 0.68
loop_
_atom_site_label
_atom_site_type_symbol
_atom_site_fract_x
_atom_site_fract_y
_atom_site_fract_z
Cu1 Cu 0.00000 0.00000 0.00000
Cu2 Cu 0.68339(9) 0.33474(9) 0.24981(6)
Cu3 Cu 1.00000 1.00000 0.50000
O1 O 0.2090(5) -0.0057(5) 0.0664(3)
O2 O 0.4701(5) 0.1243(5) 0.1460(3)
O3 O 0.9091(5) 0.5456(5) 0.3610(3)
O4 O 1.0329(5) 0.8135(5) 0.4253(3)
O5 O 0.6803(6) 0.1417(5) 0.3343(3)
O6 O 0.8125(5) -0.0052(5) 0.4079(3)
O7 O 0.5073(6) 0.3610(6) 0.3411(3)
O8 O 0.2377(5) 0.2460(5) 0.4131(3)
O9 O 0.6636(5) 0.5129(5) 0.1599(3)
O10 O 0.7772(6) 0.7848(5) 0.1018(3)
O11 O 0.8833(5) 0.3395(5) 0.1681(3)
O12 O 1.0189(5) 0.2053(5) 0.0818(4)
C1 C 0.3146(11) 0.1006(11) 0.1236(7)
H1 H 0.27410 0.17710 0.15630
C2 C 0.9050(8) 0.6876(8) 0.3805(4)
H2 H 0.80200 0.70280 0.36110
C3 C 0.8150(7) 0.1311(7) 0.3682(4)
H3 H 0.92650 0.23140 0.36410
C4 C 0.3657(8) 0.2345(8) 0.3687(5)
H4 H 0.35480 0.12000 0.35450
C5 C 0.7941(8) 0.6615(8) 0.1421(5)
H5 H 0.91100 0.67780 0.16120
C6 C 0.8856(8) 0.2047(7) 0.1278(5)
H6 H 0.78120 0.09710 0.13230
N1 N 0.7476(6) 0.4164(6) 0.5641(4)
H7 H 0.75990 0.39430 0.49770
H8 H 0.72480 0.51220 0.56920
H9 H 0.85030 0.43680 0.59860
C7 C 0.5964(8) 0.2622(7) 0.6084(5)
H10 H 0.62060 0.15780 0.60150
H11 H 0.48540 0.23910 0.56980
C8 C 0.5681(10) 0.2912(10) 0.7215(6)
H12 H 0.54320 0.39530 0.72770
H13 H 0.46130 0.18880 0.74560
C9 C 0.7269(10) 0.3175(10) 0.7904(6)
H14 H 0.75600 0.21650 0.78130
H15 H 0.83200 0.42380 0.76870
C10 C 0.6955(9) 0.3357(9) 0.8998(5)
H16 H 0.59840 0.22360 0.92180
H17 H 0.80490 0.35050 0.93750
N2 N 0.6499(12) 0.4739(12) 0.9319(7)
H18 H 0.63470 0.46940 1.00030
H19 H 0.73950 0.57930 0.91510
H20 H 0.54670 0.46080 0.90050
H21? H 0.57680 0.15400 0.57040
H22? H 0.48490 0.27820 0.60580
C11? C 0.652(3) 0.250(3) 0.722(2)
H23? H 0.55610 0.14480 0.75240
H24? H 0.76150 0.23170 0.72140
C12? C 0.685(3) 0.403(4) 0.792(2)
H25? H 0.58590 0.43910 0.78730
H26? H 0.79840 0.50490 0.77510
H27? H 0.79440 0.29970 0.90010
H28? H 0.72990 0.43610 0.94760
N3? N 0.5496(12) 0.2018(12) 0.9380(7)
H29? H 0.57530 0.17630 1.00130
H30? H 0.45760 0.23320 0.94130
H31? H 0.51780 0.10590 0.89700
Cu2A Cu -0.68339(9) -0.33474(9) -0.24981(6)
O1A O -0.2090(5) 0.0057(5) -0.0664(3)
O2A O -0.4701(5) -0.1243(5) -0.1460(3)
O3A O -0.9091(5) -0.5456(5) -0.3610(3)
O4A O -1.0329(5) -0.8135(5) -0.4253(3)
O5A O -0.6803(6) -0.1417(5) -0.3343(3)
O6A O -0.8125(5) 0.0052(5) -0.4079(3)
O7A O -0.5073(6) -0.3610(6) -0.3411(3)
O8A O -0.2377(5) -0.2460(5) -0.4131(3)
O9A O -0.6636(5) -0.5129(5) -0.1599(3)
O10A O -0.7772(6) -0.7848(5) -0.1018(3)
O11A O -0.8833(5) -0.3395(5) -0.1681(3)
O12A O -1.0189(5) -0.2053(5) -0.0818(4)
C1A C -0.3146(11) -0.1006(11) -0.1236(7)
H1A H -0.27410 -0.17710 -0.15630
C2A C -0.9050(8) -0.6876(8) -0.3805(4)
H2A H -0.80200 -0.70280 -0.36110
C3A C -0.8150(7) -0.1311(7) -0.3682(4)
H3A H -0.92650 -0.23140 -0.36410
C4A C -0.3657(8) -0.2345(8) -0.3687(5)
H4A H -0.35480 -0.12000 -0.35450
C5A C -0.7941(8) -0.6615(8) -0.1421(5)
H5A H -0.91100 -0.67780 -0.16120
C6A C -0.8856(8) -0.2047(7) -0.1278(5)
H6A H -0.78120 -0.09710 -0.13230
Cu1* Cu -1.00000 -1.00000 0.00000
Cu1** Cu -1.00000 0.00000 0.00000
Cu1*** Cu 1.00000 0.00000 0.00000
Cu1**** Cu 1.00000 1.00000 0.00000
Cu3* Cu -1.00000 -1.00000 -0.50000
Cu3** Cu -1.00000 0.00000 -0.50000
Cu3*** Cu 0.00000 0.00000 -0.50000
Cu3**** Cu 0.00000 0.00000 0.50000
Cu3***** Cu 1.00000 0.00000 0.50000
O4A* O 0.9671(5) 1.1865(5) 0.5747(3)
O6* O 0.8125(5) 0.9948(5) 0.4079(3)
O6A* O 1.1875(5) 1.0052(5) 0.5921(3)
O8* O 1.2377(5) 1.2460(5) 0.4131(3)
O8A* O 0.7623(5) 0.7540(5) 0.5869(3)
O10* O -0.2228(6) -0.2152(5) 0.1018(3)
O10A* O 0.2228(6) 0.2152(5) -0.1018(3)
O12* O 0.0189(5) 0.2053(5) 0.0818(4)
O12A* O -0.0189(5) -0.2053(5) -0.0818(4)
#END
