
#######################################################################
#
#                 Cambridge Crystallographic Data Centre
#                                CCDC
#
#######################################################################
#
# If this CIF has been generated from an entry in the Cambridge
# Structural Database, then it will include bibliographic, chemical,
# crystal, experimental, refinement or atomic coordinate data resulting
# from the CCDC's data processing and validation procedures.
#
#######################################################################

data_CSD_CIF_AMIZEC
_audit_creation_date 2011-06-07
_audit_creation_method CSD-ConQuest-V1
_database_code_CSD AMIZEC
_database_code_depnum_ccdc_archive 'CCDC 788693'
_chemical_formula_sum 'C54 H52.5 K1.5 O32 Zn5'
_chemical_formula_moiety
;
(C54 H44 O28 Zn5 1-)n,n(K1 1+),4n(H2 O1),0.5n(H1 K1)
;
_journal_coden_Cambridge 1350
_journal_volume 13
_journal_year 2011
_journal_page_first 1765
_journal_name_full 'CrystEngComm '
loop_
_publ_author_name
"Qi-Bing Bo"
"Zhen-Wei Zhang"
"Jin-Ling Miao"
"Da-Qi Wang"
"Guo-Xin Sun"
_chemical_name_systematic
;
catena-(bis(\m~4~-5-methylisophthalato)-tetrakis(\m~3~-5-methylisophthalato)-t
etraaqua-penta-zinc potassium hemikis(hydridopotassium) tetrahydrate)
;
_cell_volume   6305.149
_exptl_crystal_density_diffrn 1.684
_exptl_special_details
;
The paper describes a number of bonds involving the K atoms which have not 
been represented in the 2D diagram
;
_diffrn_ambient_temperature 298
_refine_special_details
;
K2 and K3 disordered over two sites with occupancies 0.285:0.215.

;
#These two values have been output from a single CSD field.
_refine_ls_R_factor_gt 0.0557
_refine_ls_wR_factor_gt 0.0557
_symmetry_cell_setting orthorhombic
_symmetry_space_group_name_H-M 'P n a 21'
_symmetry_Int_Tables_number 33
loop_
_symmetry_equiv_pos_site_id
_symmetry_equiv_pos_as_xyz
1 x,y,z
2 -x,-y,1/2+z
3 1/2+x,1/2-y,z
4 1/2-x,1/2+y,1/2+z
_cell_length_a 14.1795(3)
_cell_length_b 23.7646(5)
_cell_length_c 18.7113(5)
_cell_angle_alpha 90
_cell_angle_beta 90
_cell_angle_gamma 90
_cell_formula_units_Z 4
loop_
_atom_type_symbol
_atom_type_radius_bond
C 0.68
H 0.23
K 1.03
O 0.68
Zn 1.32
loop_
_atom_site_label
_atom_site_type_symbol
_atom_site_fract_x
_atom_site_fract_y
_atom_site_fract_z
Zn1 Zn 0.68291(8) 0.42799(5) 0.18806(6)
Zn2 Zn 0.87827(9) 0.49963(6) 0.24298(12)
Zn3 Zn 0.92661(9) 0.42890(5) -0.19841(6)
Zn4 Zn 0.44696(8) 0.40848(5) -0.20562(6)
Zn5 Zn 0.80207(8) 0.59224(5) 0.69318(6)
K1 K 0.8756(2) 1.00043(13) 0.2449(3)
K2 K 0.9422(10) 0.6862(5) 0.4299(6)
O1 O 0.6666(6) 0.4248(3) 0.2928(6)
O2 O 0.7654(5) 0.4965(3) 0.3135(4)
O3 O 0.7619(7) 0.5824(3) 0.5554(4)
O4 O 0.7511(5) 0.5240(3) 0.6470(4)
O5 O 0.7729(5) 0.4936(3) 0.1560(4)
O6 O 0.7354(6) 0.4380(3) 0.0677(4)
O7 O 0.8061(5) 0.4962(3) -0.1856(4)
O8 O 0.8307(6) 0.5879(4) -0.2051(6)
O9 O 0.7843(5) 0.3670(3) 0.1921(5)
O10 O 0.9032(5) 0.4130(3) 0.2461(4)
O11 O 0.7639(5) 0.1662(3) 0.1928(4)
O12 O 0.8782(6) 0.1130(3) 0.2353(6)
O13 O 0.9888(5) 0.5056(3) 0.1705(4)
O14 O 1.0901(6) 0.5740(3) 0.1959(6)
O15 O 1.0180(5) 0.4939(3) -0.1677(4)
O16 O 0.9715(5) 0.4391(3) -0.0815(4)
O17 O 0.8578(5) 0.5854(3) 0.2427(4)
O18 O 0.9732(5) 0.6338(3) 0.2959(4)
O19 O 0.9848(4) 0.8361(3) 0.2905(4)
O20 O 0.8616(6) 0.8862(3) 0.2553(5)
O21 O 0.5000(5) 0.4734(3) -0.1554(4)
O22 O 0.4903(6) 0.4144(3) -0.0642(5)
O23 O 0.5663(5) 0.4905(3) 0.1813(4)
O24 O 0.5732(6) 0.5830(4) 0.1907(6)
O25 O 0.5874(6) 0.3715(3) 0.1543(5)
H1 H 0.59990 0.33750 0.14350
H2 H 0.53360 0.37240 0.17430
O26 O 0.8194(6) 0.3773(4) -0.1723(4)
H3 H 0.77370 0.38060 -0.20140
H4 H 0.79680 0.37570 -0.13030
O27 O 0.3179(5) 0.3947(3) -0.1723(4)
O28 O 0.9310(5) 0.6070(3) 0.6535(4)
O29 O 0.6466(15) 0.2524(5) 0.1178(13)
H5 H 0.67050 0.22450 0.13960
H6 H 0.59250 0.24320 0.10220
O30 O 1.034(1) 0.7411(5) 0.5489(8)
H7 H 1.00220 0.73730 0.58710
H8 H 1.04430 0.77580 0.54110
O31 O 0.5630(9) 0.6362(5) 0.5620(7)
H9 H 0.55440 0.60850 0.53400
H10 H 0.54880 0.66600 0.53920
O32 O 0.7101(11) 0.3716(6) -0.0493(8)
H11 H 0.68400 0.40090 -0.03240
H12 H 0.66670 0.34950 -0.06340
O33 O 1.1277(16) 0.7471(6) 0.3641(16)
H13 H 1.08910 0.76490 0.33770
H14 H 1.13580 0.71430 0.34690
O34 O 0.9666(13) 0.7995(6) 0.4354(8)
H15 H 0.98020 0.80680 0.39210
H16 H 0.91780 0.81830 0.44650
O35 O 1.0458(14) 0.6276(6) 0.5379(8)
H17 H 1.06790 0.59810 0.51860
H18 H 1.00430 0.61910 0.56880
O36 O 0.7552(11) 0.6541(6) 0.4453(7)
H19 H 0.71710 0.66420 0.41260
H20 H 0.76030 0.61850 0.44520
C1 C 0.7073(8) 0.4580(5) 0.3330(6)
C2 C 0.7443(8) 0.5358(5) 0.5792(6)
C3 C 0.6908(7) 0.4519(5) 0.4142(6)
C4 C 0.7192(7) 0.4946(5) 0.4581(6)
H21 H 0.74280 0.52790 0.43900
C5 C 0.7122(8) 0.4876(5) 0.5317(7)
C6 C 0.6778(7) 0.4381(5) 0.5597(7)
H22 H 0.67420 0.43370 0.60900
C7 C 0.6486(8) 0.3945(5) 0.5155(6)
C8 C 0.6536(8) 0.4032(5) 0.4398(6)
H23 H 0.63150 0.37580 0.40850
C9 C 0.6174(8) 0.3383(5) 0.5483(7)
H24 H 0.67190 0.31790 0.56440
H25 H 0.58460 0.31650 0.51300
H26 H 0.57630 0.34540 0.58810
C10 C 0.7696(8) 0.4830(5) 0.0883(6)
C11 C 0.8197(7) 0.5447(6) -0.1646(7)
C12 C 0.8025(7) 0.5266(5) 0.0352(6)
C13 C 0.7990(7) 0.5154(5) -0.0366(6)
H27 H 0.78010 0.48020 -0.05300
C14 C 0.8238(7) 0.5572(5) -0.0842(6)
C15 C 0.8532(8) 0.6088(5) -0.0611(6)
H28 H 0.87120 0.63600 -0.09410
C16 C 0.8562(8) 0.6212(5) 0.0136(6)
C17 C 0.8317(7) 0.5791(4) 0.0602(7)
H29 H 0.83460 0.58560 0.10920
C18 C 0.8840(9) 0.6796(5) 0.0421(7)
H30 H 0.82870 0.69880 0.05880
H31 H 0.91270 0.70110 0.00450
H32 H 0.92790 0.67540 0.08080
C19 C 0.8626(8) 0.3697(5) 0.2271(7)
C20 C 0.8433(7) 0.1596(4) 0.2216(6)
C21 C 0.9051(6) 0.3127(3) 0.2445(6)
C22 C 0.8563(8) 0.2642(5) 0.2264(6)
H33 H 0.79760 0.26660 0.20440
C23 C 0.8960(7) 0.2116(4) 0.2414(6)
C24 C 0.9839(7) 0.2086(4) 0.2736(6)
H34 H 1.01110 0.17350 0.28170
C25 C 1.0325(9) 0.2573(4) 0.294(1)
C26 C 0.9932(7) 0.3096(4) 0.2771(6)
H35 H 1.02610 0.34240 0.28770
C27 C 1.1286(10) 0.2521(4) 0.3295(11)
H36 H 1.16090 0.21980 0.31080
H37 H 1.12060 0.24790 0.38010
H38 H 1.16500 0.28530 0.31990
C28 C 1.0466(7) 0.5436(4) 0.1528(6)
C29 C 1.0124(7) 0.4832(4) -0.1026(6)
C30 C 1.0631(7) 0.5531(5) 0.0767(6)
C31 C 1.0359(7) 0.5126(5) 0.0242(6)
H39 H 1.01100 0.47820 0.03880
C32 C 1.0462(7) 0.5238(5) -0.0488(6)
C33 C 1.0811(7) 0.5769(5) -0.0695(7)
H40 H 1.08670 0.58510 -0.11800
C34 C 1.1075(8) 0.6174(5) -0.0199(6)
C35 C 1.0996(8) 0.6049(5) 0.0499(6)
H41 H 1.11930 0.63180 0.08290
C36 C 1.1409(8) 0.6742(4) -0.0447(6)
H42 H 1.09350 0.70190 -0.03450
H43 H 1.15240 0.67310 -0.09520
H44 H 1.19820 0.68380 -0.02020
C37 C 0.8963(7) 0.6305(4) 0.2617(5)
C38 C 0.9013(8) 0.8412(4) 0.2637(5)
C39 C 0.8501(7) 0.6854(4) 0.2436(6)
C40 C 0.8928(8) 0.7350(5) 0.2611(6)
H45 H 0.95080 0.73380 0.28430
C41 C 0.8540(7) 0.7863(4) 0.2460(6)
C42 C 0.7654(7) 0.7884(5) 0.2115(6)
H46 H 0.73880 0.82290 0.19960
C43 C 0.7189(8) 0.7393(5) 0.1955(8)
C44 C 0.7625(7) 0.6883(4) 0.2111(6)
H47 H 0.73180 0.65500 0.19940
C45 C 0.6234(9) 0.7406(5) 0.1593(8)
H48 H 0.60480 0.77900 0.15160
H49 H 0.57770 0.72230 0.18920
H50 H 0.62710 0.72150 0.11420
C46 C 0.5087(8) 0.4618(5) -0.0900(7)
C47 C 0.5694(8) 0.5396(5) 0.1536(6)
C48 C 0.5425(7) 0.5097(4) -0.0430(6)
C49 C 0.5459(7) 0.5026(5) 0.0303(6)
H51 H 0.52920 0.46790 0.04960
C50 C 0.5733(8) 0.5450(5) 0.0753(7)
C51 C 0.5988(8) 0.5977(5) 0.0433(6)
H52 H 0.61720 0.62720 0.07280
C52 C 0.5972(8) 0.6060(5) -0.0281(6)
C53 C 0.5667(7) 0.5617(5) -0.0709(7)
H53 H 0.56240 0.56720 -0.12000
C54 C 0.6240(8) 0.6617(5) -0.0587(7)
H54 H 0.68720 0.67100 -0.04450
H55 H 0.62050 0.66010 -0.10990
H56 H 0.58140 0.69010 -0.04130
K3? K 0.7994(12) 0.3212(7) 0.0519(8)
Zn2A Zn 1.12173(9) 0.50037(6) -0.25702(12)
Zn3A Zn 1.07339(9) 0.57110(5) 0.30159(6)
Zn4C Zn 1.05304(8) 0.90848(5) 0.29438(6)
Zn4A Zn 0.55304(8) 0.59152(5) 0.29438(6)
Zn5* Zn 0.80207(8) 0.59224(5) -0.30682(6)
Zn5C Zn 0.69793(8) 0.09224(5) 0.19318(6)
O8* O 0.8307(6) 0.5879(4) 0.7949(6)
O11C O 0.7361(5) 0.6662(3) 0.6928(4)
O14A O 0.9099(6) 0.4260(3) -0.3041(6)
O15A O 0.9820(5) 0.5061(3) 0.3323(4)
O18A O 1.0268(5) 0.3662(3) -0.2041(4)
O19C O 0.5152(4) 0.3361(3) -0.2095(4)
O24A O 0.4268(6) 0.4170(4) -0.3093(6)
#END
