
#######################################################################
#
#                 Cambridge Crystallographic Data Centre
#                                CCDC
#
#######################################################################
#
# If this CIF has been generated from an entry in the Cambridge
# Structural Database, then it will include bibliographic, chemical,
# crystal, experimental, refinement or atomic coordinate data resulting
# from the CCDC's data processing and validation procedures.
#
#######################################################################

data_CSD_CIF_AMIZON01
_audit_creation_date 2016-05-18
_audit_creation_method CSD-ConQuest-V1
_database_code_CSD AMIZON01
_database_code_depnum_ccdc_archive 'CCDC 1450848'
_chemical_formula_sum 'C20 H40 Cu4 N4 O24'
_chemical_formula_moiety
;
2(C4 H14 N2 2+),n(C12 H12 Cu4 O24 4-)
;
_journal_coden_Cambridge 1220
_journal_volume 22
_journal_year 2016
_journal_page_first 6199
_journal_name_full 'Chem.-Eur.J. '
loop_
_publ_author_name
"Ran Shang"
"Sa Chen"
"Ke-Li Hu"
"Bing-Wu Wang"
"Zhe-Ming Wang"
"Song Gao"
_chemical_name_systematic
;
catena-[bis(butane-1,4-diammonium) dodecakis(\m-formato)-tetra-copper]
;
_cell_volume    839.110
_exptl_crystal_colour 'blue'
_exptl_crystal_density_diffrn 1.929
_exptl_special_details
;
LT polymorph
244 K

;
_exptl_crystal_description 'block'
_diffrn_ambient_temperature 180
_diffrn_special_details
;
twin

;
_refine_special_details
;
C8,C9 and C10,C11 disordered over two sites with occupancies 0.764:0.236; N2 
and N3 disordered over two sites with occupancies 0.507:0.493.
;
#These two values have been output from a single CSD field.
_refine_ls_R_factor_gt 0.0441
_refine_ls_wR_factor_gt 0.0441
_symmetry_cell_setting triclinic
_symmetry_space_group_name_H-M 'P -1'
_symmetry_Int_Tables_number 2
loop_
_symmetry_equiv_pos_site_id
_symmetry_equiv_pos_as_xyz
1 x,y,z
2 -x,-y,-z
_cell_length_a 8.2998(6)
_cell_length_b 8.4671(7)
_cell_length_c 13.2253(10)
_cell_angle_alpha 90.360(6)
_cell_angle_beta 90.302(6)
_cell_angle_gamma 115.459(7)
_cell_formula_units_Z 1
loop_
_atom_type_symbol
_atom_type_radius_bond
C 0.68
H 0.23
Cu 1.32
N 0.68
O 0.68
loop_
_atom_site_label
_atom_site_type_symbol
_atom_site_fract_x
_atom_site_fract_y
_atom_site_fract_z
Cu1 Cu 0.00000 0.00000 0.00000
Cu2 Cu 0.6832(1) 0.33385(10) 0.24957(7)
Cu3 Cu 1.00000 1.00000 0.50000
O1 O 0.2093(5) -0.0055(5) 0.0656(3)
O2 O 0.4691(5) 0.1240(5) 0.1449(3)
O3 O 0.9095(6) 0.5466(5) 0.3607(3)
O4 O 1.0318(5) 0.8132(5) 0.4259(3)
O5 O 0.6798(6) 0.1402(6) 0.3336(3)
O6 O 0.8124(6) -0.0048(5) 0.4085(3)
O7 O 0.5068(6) 0.3597(6) 0.3412(3)
O8 O 0.2395(5) 0.2469(5) 0.4117(3)
O9 O 0.6644(5) 0.5126(5) 0.1610(3)
O10 O 0.7775(6) 0.7834(5) 0.1015(3)
O11 O 0.8817(6) 0.3369(5) 0.1681(3)
O12 O 1.0184(5) 0.2044(5) 0.0823(4)
C1 C 0.3175(11) 0.1030(11) 0.1229(6)
H1 H 0.27870 0.18140 0.15460
C2 C 0.9066(8) 0.6898(8) 0.3807(5)
H2 H 0.80480 0.70620 0.36080
C3 C 0.8156(8) 0.1312(7) 0.3680(4)
H3 H 0.92680 0.23130 0.36360
C4 C 0.3649(8) 0.2339(8) 0.3679(5)
H4 H 0.35280 0.11930 0.35340
C5 C 0.7929(8) 0.6599(8) 0.1426(5)
H5 H 0.90950 0.67630 0.16190
C6 C 0.8850(8) 0.2039(8) 0.1272(5)
H6 H 0.78050 0.09660 0.13040
N1 N 0.7476(6) 0.4164(6) 0.5640(4)
H7 H 0.76040 0.39420 0.49790
H8 H 0.72380 0.51150 0.56870
H9 H 0.85030 0.43770 0.59840
C7 C 0.5971(8) 0.2615(8) 0.6084(5)
H10 H 0.62230 0.15780 0.60200
H11 H 0.48610 0.23730 0.57000
C8 C 0.5689(11) 0.2923(11) 0.7223(6)
H12 H 0.54420 0.39650 0.72800
H13 H 0.46260 0.19050 0.74680
C9 C 0.7270(11) 0.3191(11) 0.7902(7)
H14 H 0.75640 0.21820 0.78130
H15 H 0.83160 0.42520 0.76830
C10 C 0.6964(9) 0.3378(9) 0.8987(5)
H16 H 0.59980 0.22570 0.92070
H17 H 0.80580 0.35200 0.93580
N2 N 0.6512(13) 0.4753(12) 0.9321(7)
H18 H 0.63670 0.46960 1.00030
H19 H 0.74030 0.58070 0.91560
H20 H 0.54780 0.46270 0.90150
H21? H 0.57880 0.15370 0.57070
H22? H 0.48530 0.27650 0.60520
C11? C 0.650(4) 0.249(4) 0.723(2)
H23? H 0.55390 0.14410 0.75240
H24? H 0.75920 0.22860 0.72240
C12? C 0.685(4) 0.401(4) 0.793(2)
H25? H 0.58670 0.43780 0.78870
H26? H 0.79820 0.50240 0.77590
H27? H 0.79550 0.30220 0.89970
H28? H 0.72960 0.43840 0.94590
N3? N 0.5481(12) 0.2022(12) 0.9364(7)
H29? H 0.57230 0.17670 0.99980
H30? H 0.45610 0.23340 0.93870
H31? H 0.51760 0.10640 0.89570
Cu2A Cu -0.6832(1) -0.33385(10) -0.24957(7)
O1A O -0.2093(5) 0.0055(5) -0.0656(3)
O2A O -0.4691(5) -0.1240(5) -0.1449(3)
O3A O -0.9095(6) -0.5466(5) -0.3607(3)
O4A O -1.0318(5) -0.8132(5) -0.4259(3)
O5A O -0.6798(6) -0.1402(6) -0.3336(3)
O6A O -0.8124(6) 0.0048(5) -0.4085(3)
O7A O -0.5068(6) -0.3597(6) -0.3412(3)
O8A O -0.2395(5) -0.2469(5) -0.4117(3)
O9A O -0.6644(5) -0.5126(5) -0.1610(3)
O10A O -0.7775(6) -0.7834(5) -0.1015(3)
O11A O -0.8817(6) -0.3369(5) -0.1681(3)
O12A O -1.0184(5) -0.2044(5) -0.0823(4)
C1A C -0.3175(11) -0.1030(11) -0.1229(6)
H1A H -0.27870 -0.18140 -0.15460
C2A C -0.9066(8) -0.6898(8) -0.3807(5)
H2A H -0.80480 -0.70620 -0.36080
C3A C -0.8156(8) -0.1312(7) -0.3680(4)
H3A H -0.92680 -0.23130 -0.36360
C4A C -0.3649(8) -0.2339(8) -0.3679(5)
H4A H -0.35280 -0.11930 -0.35340
C5A C -0.7929(8) -0.6599(8) -0.1426(5)
H5A H -0.90950 -0.67630 -0.16190
C6A C -0.8850(8) -0.2039(8) -0.1272(5)
H6A H -0.78050 -0.09660 -0.13040
Cu1* Cu -1.00000 -1.00000 0.00000
Cu1** Cu -1.00000 0.00000 0.00000
Cu1*** Cu 1.00000 0.00000 0.00000
Cu1**** Cu 1.00000 1.00000 0.00000
Cu3* Cu -1.00000 -1.00000 -0.50000
Cu3** Cu -1.00000 0.00000 -0.50000
Cu3*** Cu 0.00000 0.00000 -0.50000
Cu3**** Cu 0.00000 0.00000 0.50000
Cu3***** Cu 1.00000 0.00000 0.50000
O4A* O 0.9682(5) 1.1868(5) 0.5741(3)
O6* O 0.8124(6) 0.9952(5) 0.4085(3)
O6A* O 1.1876(6) 1.0048(5) 0.5915(3)
O8* O 1.2395(5) 1.2469(5) 0.4117(3)
O8A* O 0.7605(5) 0.7531(5) 0.5883(3)
O10* O -0.2225(6) -0.2166(5) 0.1015(3)
O10A* O 0.2225(6) 0.2166(5) -0.1015(3)
O12* O 0.0184(5) 0.2044(5) 0.0823(4)
O12A* O -0.0184(5) -0.2044(5) -0.0823(4)
#END
