
#######################################################################
#
#                 Cambridge Crystallographic Data Centre
#                                CCDC
#
#######################################################################
#
# If this CIF has been generated from an entry in the Cambridge
# Structural Database, then it will include bibliographic, chemical,
# crystal, experimental, refinement or atomic coordinate data resulting
# from the CCDC's data processing and validation procedures.
#
#######################################################################

data_CSD_CIF_AMIZAZ
_audit_creation_date 2016-05-18
_audit_creation_method CSD-ConQuest-V1
_database_code_CSD AMIZAZ
_database_code_depnum_ccdc_archive 'CCDC 1450844'
_chemical_formula_sum 'C10 H20 N2 Ni2 O12'
_chemical_formula_moiety
;
(C6 H6 Ni2 O12 2-)n,C4 H14 N2 2+
;
_journal_coden_Cambridge 1220
_journal_volume 22
_journal_year 2016
_journal_page_first 6199
_journal_name_full 'Chem.-Eur.J. '
loop_
_publ_author_name
"Ran Shang"
"Sa Chen"
"Ke-Li Hu"
"Bing-Wu Wang"
"Zhe-Ming Wang"
"Song Gao"
_chemical_name_systematic
;
catena-[butane-1,4-diammonium hexakis(\m-formato)-di-nickel]
;
_cell_volume    808.978
_exptl_crystal_colour 'green'
_exptl_crystal_density_diffrn 1.961
_exptl_special_details
;
LT polymorph
257 K

;
_exptl_crystal_description 'block'
_diffrn_ambient_temperature 110
_refine_special_details
;
C3,N1 disordered by symmetry over three configurations with occupancy 0.33.

;
#These two values have been output from a single CSD field.
_refine_ls_R_factor_gt 0.0237
_refine_ls_wR_factor_gt 0.0237
_symmetry_cell_setting hexagonal
_symmetry_space_group_name_H-M 'P -3 1 c'
_symmetry_Int_Tables_number 163
loop_
_symmetry_equiv_pos_site_id
_symmetry_equiv_pos_as_xyz
1 x,y,z
2 -y,x-y,z
3 -x+y,-x,z
4 -y,-x,1/2-z
5 -x+y,y,1/2-z
6 x,x-y,1/2-z
7 -x,-y,-z
8 y,-x+y,-z
9 x-y,x,-z
10 y,x,-1/2+z
11 x-y,-y,-1/2+z
12 -x,-x+y,-1/2+z
_cell_length_a 8.4309(2)
_cell_length_b 8.4309(2)
_cell_length_c 13.1419(3)
_cell_angle_alpha 90
_cell_angle_beta 90
_cell_angle_gamma 120
_cell_formula_units_Z 2
loop_
_atom_type_symbol
_atom_type_radius_bond
C 0.68
H 0.23
N 0.68
Ni 1.24
O 0.68
loop_
_atom_site_label
_atom_site_type_symbol
_atom_site_fract_x
_atom_site_fract_y
_atom_site_fract_z
Ni1 Ni 0.00000 0.00000 0.50000
Ni2 Ni 0.33330 0.66670 0.25000
O1 O 0.21157(18) 0.20166(18) 0.41704(10)
O2 O 0.34095(19) 0.47269(18) 0.34194(10)
C1 C 0.2052(3) 0.3262(3) 0.37003(14)
H1 H 0.08750 0.30850 0.35420
C2 C 0.66670 0.33330 0.3986(4)
C3 C 0.7258(9) 0.3109(9) 0.2846(4)
N1 N 0.5461(6) 0.1983(6) 0.4328(3)
H2 H 0.43780 0.19320 0.41940
H3 H 0.56100 0.19700 0.50140
H4 H 0.54590 0.09980 0.40440
O1A O -0.20166(18) 0.00991(18) 0.41704(10)
O2A O -0.47269(19) -0.13174(18) 0.34194(10)
C1A C -0.3262(3) -0.1210(3) 0.37003(14)
H1A H -0.30850 -0.22100 0.35420
O1B O -0.00991(18) -0.21157(18) 0.41704(10)
O2B O 0.13174(19) -0.34095(18) 0.34194(10)
C1B C 0.1210(3) -0.2052(3) 0.37003(14)
H1B H 0.22100 -0.08750 0.35420
O1D O -0.00991(18) 0.20166(18) 0.08296(10)
O2D O 0.13174(19) 0.47269(18) 0.15806(10)
C1D C 0.1210(3) 0.3262(3) 0.12997(14)
H1D H 0.22100 0.30850 0.14580
O1F O -0.21157(18) -0.20166(18) 0.58296(10)
O2F O -0.34095(19) -0.47269(18) 0.65806(10)
C1F C -0.2052(3) -0.3262(3) 0.62997(14)
H1F H -0.08750 -0.30850 0.64580
O1H O 0.00991(18) 0.21157(18) 0.58296(10)
O2H O -0.13174(19) 0.34095(18) 0.65806(10)
C1H C -0.1210(3) 0.2052(3) 0.62997(14)
H1H H -0.22100 0.08750 0.64580
Ni1C Ni 0.00000 0.00000 0.00000
Ni2* Ni -0.66670 -0.33330 0.25000
Ni2** Ni 0.33330 -0.33330 0.25000
Ni2F Ni -0.33330 -0.66670 0.75000
Ni2F* Ni -0.33330 0.33330 0.75000
O1G O 0.20166(18) -0.00991(18) 0.58296(10)
O2A* O 0.52731(19) 0.86826(18) 0.34194(10)
O2B* O 0.13174(19) 0.65905(18) 0.34194(10)
O2C O 0.52731(19) 0.65905(18) 0.15806(10)
O2E O 0.34095(19) 0.86826(18) 0.15806(10)
C3A C 0.6891(9) 0.4149(9) 0.2846(4)
N1A N 0.8017(6) 0.3478(6) 0.4328(3)
H2A H 0.80680 0.24460 0.41940
H3A H 0.80300 0.36400 0.50140
H4A H 0.90020 0.44610 0.40440
C3B C 0.5851(9) 0.2742(9) 0.2846(4)
N1B N 0.6522(6) 0.4539(6) 0.4328(3)
H2B H 0.75540 0.56220 0.41940
H3B H 0.63600 0.43900 0.50140
H4B H 0.55390 0.45410 0.40440
C2C C 0.66670 0.33330 0.1014(4)
C3C C 0.6891(9) 0.2742(9) 0.2154(4)
N1C N 0.8017(6) 0.4539(6) 0.0672(3)
H2C H 0.80680 0.56220 0.08060
H3C H 0.80300 0.43900 -0.00140
H4C H 0.90020 0.45410 0.09560
C3D C 0.5851(9) 0.3109(9) 0.2154(4)
N1D N 0.6522(6) 0.1983(6) 0.0672(3)
H2D H 0.75540 0.19320 0.08060
H3D H 0.63600 0.19700 -0.00140
H4D H 0.55390 0.09980 0.09560
C3E C 0.7258(9) 0.4149(9) 0.2154(4)
N1E N 0.5461(6) 0.3478(6) 0.0672(3)
H2E H 0.43780 0.24460 0.08060
H3E H 0.56100 0.36400 -0.00140
H4E H 0.54590 0.44610 0.09560
#END
