
#######################################################################
#
#                 Cambridge Crystallographic Data Centre
#                                CCDC
#
#######################################################################
#
# If this CIF has been generated from an entry in the Cambridge
# Structural Database, then it will include bibliographic, chemical,
# crystal, experimental, refinement or atomic coordinate data resulting
# from the CCDC's data processing and validation procedures.
#
#######################################################################

data_CSD_CIF_AMOBAI
_audit_creation_date 2021-02-19
_audit_creation_method CSD-ConQuest-V1
_database_code_CSD AMOBAI
_database_code_depnum_ccdc_archive 'CCDC 2047195'
_chemical_formula_sum 'C152 H158 Cl2 Co3 N20 O65 Si1 W12'
_chemical_formula_moiety
;
(C148 H140 Cl2 Co3 N20 O20 4+)n,O40 Si1 W12 4-,2(C2 H6 O1),3(H2 O1)
;
_journal_coden_Cambridge 9
_journal_volume 60
_journal_year 2021
_journal_page_first 3729
_journal_name_full 'Inorg.Chem. '
loop_
_publ_author_name
"Jin-Hua Liu"
"Qiu-Tong Shen"
"Jin Yang"
"Ming-Yue Yu"
"Jian-Fang Ma"
_chemical_name_systematic
;
catena-[bis(\m-tetra(benzimidazole)resorcin[4]arene)-tetrakis(N,N-dimethylform
amide)-dichloro-tri-cobalt(ii) 
(\m-silicato)-tetracosakis(\m-oxo)-dodecaoxo-dodeca-tungsten ethanol solvate 
trihydrate]
;
_cell_volume   8852.480
_exptl_crystal_colour 'blue'
_exptl_crystal_density_diffrn 2.171
_exptl_crystal_description 'block'
_diffrn_ambient_temperature 293
_refine_special_details
;
O19,O19',O20,O20' disordered by symmetry over two configurations with 
occupancy 0.5; Disordered solvent molecules were not modelled and the 
disordered density was taken into account using the SQUEEZE/PLATON procedure.
;
#These two values have been output from a single CSD field.
_refine_ls_R_factor_gt 0.102
_refine_ls_wR_factor_gt 0.102
_symmetry_cell_setting monoclinic
_symmetry_space_group_name_H-M 'P 21/n'
_symmetry_Int_Tables_number 14
loop_
_symmetry_equiv_pos_site_id
_symmetry_equiv_pos_as_xyz
1 x,y,z
2 1/2-x,1/2+y,1/2-z
3 -x,-y,-z
4 -1/2+x,-1/2-y,-1/2+z
_cell_length_a 19.7595(14)
_cell_length_b 19.5016(10)
_cell_length_c 23.101(2)
_cell_angle_alpha 90
_cell_angle_beta 96.033(7)
_cell_angle_gamma 90
_cell_formula_units_Z 2
loop_
_atom_type_symbol
_atom_type_radius_bond
C 0.68
H 0.23
Cl 0.99
Co 1.26
N 0.68
O 0.68
Si 1.20
W 1.62
loop_
_atom_site_label
_atom_site_type_symbol
_atom_site_fract_x
_atom_site_fract_y
_atom_site_fract_z
Co1 Co -0.21351(15) 0.01463(15) 0.32959(16)
Co2 Co 0.50000 0.00000 0.00000
Cl1 Cl -0.2311(4) -0.0199(4) 0.2386(4)
C1 C 0.0570(13) 0.4086(12) 0.3278(12)
H1 H 0.02690 0.44730 0.32280
H2 H 0.10030 0.42060 0.31540
H3 H 0.06290 0.39560 0.36810
C2 C 0.1053(11) 0.5328(10) 0.1344(12)
H4 H 0.13110 0.55950 0.10960
H5 H 0.13410 0.51910 0.16850
H6 H 0.06820 0.55980 0.14570
C3 C 0.3414(12) 0.4153(10) 0.1611(12)
H7 H 0.38520 0.40290 0.18020
H8 H 0.31180 0.42800 0.18960
H9 H 0.34640 0.45330 0.13550
C4 C 0.2895(12) 0.2896(12) 0.3475(12)
H10 H 0.33810 0.28700 0.34780
H11 H 0.27750 0.28480 0.38650
H12 H 0.27370 0.33310 0.33200
C5 C 0.0271(11) 0.3497(10) 0.2919(11)
H13 H -0.01530 0.33820 0.30810
C6 C 0.0063(13) 0.3639(11) 0.2254(13)
C7 C 0.0450(11) 0.4090(12) 0.1981(14)
H14 H 0.08100 0.43090 0.21980
C8 C 0.032(1) 0.4238(10) 0.1370(12)
C9 C 0.0783(11) 0.4716(11) 0.1029(11)
H15 H 0.04900 0.48860 0.06910
C10 C 0.1293(10) 0.4271(10) 0.0794(11)
C11 C 0.1897(11) 0.4108(11) 0.1076(11)
H16 H 0.19970 0.42900 0.14480
C12 C 0.2384(11) 0.370(1) 0.0873(10)
C13 C 0.3103(12) 0.3528(11) 0.1250(12)
H17 H 0.34240 0.34230 0.09660
C14 C 0.3050(11) 0.2876(11) 0.1608(12)
C15 C 0.2875(8) 0.2903(9) 0.2165(10)
H18 H 0.28410 0.33230 0.23510
C16 C 0.2748(8) 0.2295(9) 0.245(1)
C17 C 0.2559(10) 0.2310(11) 0.309(1)
H19 H 0.27300 0.18800 0.32700
C18 C 0.1767(9) 0.2253(9) 0.3025(9)
C19 C 0.1377(9) 0.2838(10) 0.3010(9)
H20 H 0.15950 0.32610 0.30380
C20 C 0.0699(11) 0.2823(11) 0.2957(10)
C21 C -0.0697(9) 0.2246(11) 0.2321(11)
H21 H -0.04170 0.21210 0.20160
H22 H -0.10960 0.19530 0.22850
C22 C -0.0463(12) 0.3351(12) 0.1973(12)
C23 C -0.0622(11) 0.3474(10) 0.1381(11)
C24 C -0.0244(10) 0.3936(11) 0.1071(12)
C25 C -0.0047(13) 0.3697(10) 0.0045(12)
H23 H 0.00910 0.32430 0.01820
H24 H -0.03510 0.36450 -0.03100
C26 C 0.1104(12) 0.3896(11) 0.0263(12)
C27 C 0.1542(11) 0.3449(12) 0.0036(11)
C28 C 0.2199(12) 0.3354(10) 0.0320(11)
C29 C 0.2773(13) 0.2272(12) 0.0267(11)
H25 H 0.28990 0.20090 -0.00620
H26 H 0.23440 0.20940 0.03720
C30 C 0.3124(11) 0.2229(10) 0.1308(11)
C31 C 0.3007(11) 0.1637(9) 0.1611(10)
C32 C 0.2853(9) 0.1643(9) 0.2161(10)
C33 C 0.2101(10) 0.0793(11) 0.2536(11)
H27 H 0.18180 0.09460 0.21920
H28 H 0.21020 0.02950 0.25330
C34 C 0.1448(10) 0.1628(10) 0.2967(9)
C35 C 0.0756(9) 0.1595(9) 0.2901(9)
C36 C 0.0388(8) 0.2181(9) 0.2899(9)
C37 C -0.1278(9) 0.3124(10) 0.1065(9)
H29 H -0.11740 0.29470 0.06920
H30 H -0.14030 0.27380 0.12960
C38 C -0.2093(9) 0.3951(10) 0.1374(10)
H31 H -0.19230 0.39170 0.17640
C39 C -0.2659(9) 0.4266(12) 0.0615(11)
C40 C -0.3143(13) 0.4517(19) 0.0204(16)
H32 H -0.34930 0.47930 0.03110
C41 C -0.3100(14) 0.4346(18) -0.0407(15)
H33 H -0.34030 0.45440 -0.06940
C42 C -0.2642(14) 0.3921(18) -0.0553(12)
H34 H -0.26140 0.38260 -0.09440
C43 C -0.2178(11) 0.3594(14) -0.0119(13)
H35 H -0.18630 0.32660 -0.02070
C44 C -0.2243(9) 0.3811(11) 0.0449(10)
C45 C 0.1408(11) 0.3057(11) -0.0498(10)
H36 H 0.09200 0.30260 -0.05970
H37 H 0.15800 0.25950 -0.04300
C46 C 0.1989(10) 0.3987(11) -0.1042(10)
H38 H 0.19700 0.43240 -0.07590
C47 C 0.2224(9) 0.3447(11) -0.1808(13)
C48 C 0.2415(12) 0.3247(12) -0.2353(14)
H39 H 0.26280 0.35490 -0.25870
C49 C 0.2271(16) 0.2581(15) -0.2523(13)
H40 H 0.24340 0.24260 -0.28640
C50 C 0.1894(14) 0.2120(15) -0.2217(15)
H41 H 0.18060 0.16780 -0.23570
C51 C 0.1660(15) 0.2331(12) -0.1716(15)
H42 H 0.13700 0.20520 -0.15280
C52 C 0.1870(12) 0.3001(12) -0.1471(13)
C53 C 0.3103(10) 0.0931(10) 0.1331(10)
H43 H 0.29660 0.05740 0.15870
H44 H 0.28120 0.09010 0.09660
C54 C 0.3958(9) 0.0623(9) 0.0684(10)
H45 H 0.36480 0.05790 0.03540
C55 C 0.4922(13) 0.0677(10) 0.1245(11)
C56 C 0.5606(11) 0.0654(14) 0.1531(14)
H46 H 0.59650 0.05330 0.13210
C57 C 0.5729(14) 0.0811(18) 0.2113(14)
H47 H 0.61700 0.08010 0.22990
C58 C 0.5198(15) 0.0980(15) 0.2412(16)
H48 H 0.52950 0.10840 0.28050
C59 C 0.4518(13) 0.1012(16) 0.2178(15)
H49 H 0.41710 0.11280 0.24020
C60 C 0.4394(10) 0.0858(9) 0.1593(9)
C61 C 0.0435(11) 0.0878(10) 0.2858(12)
H50 H 0.02820 0.07840 0.24530
H51 H 0.07840 0.05440 0.29830
C62 C -0.0754(9) 0.0504(10) 0.3018(9)
H52 H -0.08490 0.03140 0.26500
C63 C -0.0808(11) 0.0845(13) 0.3906(14)
C64 C -0.1046(16) 0.1040(16) 0.4452(19)
H53 H -0.14950 0.09500 0.45140
C65 C -0.0621(15) 0.136(2) 0.489(2)
H54 H -0.07670 0.14840 0.52420
C66 C 0.0078(15) 0.1487(17) 0.4744(15)
H55 H 0.03860 0.16910 0.50240
C67 C 0.0312(15) 0.1303(16) 0.4170(14)
H56 H 0.07520 0.13990 0.40840
C68 C -0.0149(13) 0.0987(13) 0.3780(11)
C69 C 0.6229(16) 0.0984(18) 0.0110(17)
H57 H 0.64340 0.06770 0.03830
C70 C 0.729(2) 0.150(2) 0.024(2)
H58 H 0.74930 0.19250 0.01350
H59 H 0.75180 0.11260 0.00730
H60 H 0.73300 0.14550 0.06540
C71 C 0.6309(19) 0.214(2) -0.024(2)
H61 H 0.66620 0.24710 -0.02660
H62 H 0.59770 0.23120 -0.00060
H63 H 0.60950 0.20390 -0.06260
C72 C 0.4211(13) 0.1117(15) -0.0627(13)
H64 H 0.44540 0.13670 -0.03310
C73 C 0.3766(17) 0.2230(17) -0.1030(18)
H65 H 0.34720 0.23740 -0.13650
H66 H 0.42050 0.24380 -0.10380
H67 H 0.35750 0.23690 -0.06830
C74 C 0.3355(17) 0.1054(18) -0.1402(17)
H68 H 0.30970 0.13290 -0.16910
H69 H 0.30520 0.08330 -0.11620
H70 H 0.36060 0.07140 -0.15900
N1 N -0.1855(8) 0.3589(8) 0.0971(9)
N2 N -0.2581(9) 0.4360(9) 0.1197(9)
N3 N 0.1715(8) 0.3352(10) -0.0994(8)
N4 N 0.2277(9) 0.4086(8) -0.1511(9)
N5 N 0.3795(7) 0.0822(8) 0.1224(9)
N6 N 0.4631(8) 0.0503(9) 0.0701(9)
N7 N -0.0162(9) 0.0775(8) 0.3216(9)
N8 N -0.1185(8) 0.0536(9) 0.3399(10)
N9 N 0.6610(15) 0.1497(16) 0.0024(16)
N10 N 0.3834(11) 0.1497(12) -0.1036(10)
O1 O -0.0323(7) 0.2140(7) 0.2873(8)
O2 O -0.0898(7) 0.2927(7) 0.2250(8)
O3 O -0.0417(7) 0.4041(7) 0.0491(8)
O4 O 0.0503(8) 0.4049(7) -0.0071(8)
O5 O 0.2698(7) 0.2947(7) 0.0113(7)
O6 O 0.3298(9) 0.2194(7) 0.0760(8)
O7 O 0.2801(6) 0.1040(6) 0.2506(7)
O8 O 0.1819(7) 0.1018(6) 0.3025(7)
O9 O 0.5715(10) 0.0824(10) -0.0065(9)
O10 O 0.4272(9) 0.0530(8) -0.0594(8)
W1 W 0.07397(4) 0.14198(4) 0.07994(4)
W2 W 0.13526(5) -0.02628(5) 0.10974(5)
W3 W -0.05758(6) 0.16697(4) -0.03380(6)
W4 W -0.16604(5) -0.05462(5) 0.02229(6)
W5 W -0.03108(7) -0.07513(6) 0.13280(6)
W6 W -0.09395(6) 0.08916(6) 0.09745(6)
Si1 Si 0.00000 0.00000 0.00000
O11 O 0.1088(10) 0.2090(8) 0.1170(9)
O12 O 0.1384(8) 0.1265(7) 0.0248(8)
O13 O -0.0066(8) 0.1323(12) 0.1192(9)
O14 O 0.0203(8) 0.1879(12) 0.0199(9)
O15 O -0.0872(9) 0.2463(8) -0.0496(10)
O16 O -0.1281(11) 0.1153(11) -0.0791(11)
O17 O 0.0018(10) -0.1566(10) 0.0932(11)
O18 O -0.1373(8) 0.1324(12) 0.140(1)
O19 O -0.2465(10) -0.0787(12) 0.0266(13)
O20 O -0.112(1) -0.0922(9) 0.081(1)
O21 O -0.0440(11) -0.1140(12) 0.1997(9)
O22 O -0.0580(11) 0.0168(10) 0.1390(11)
O23 O 0.0619(12) -0.044(1) 0.1495(10)
O24 O 0.2007(9) -0.0380(11) 0.162(1)
O25 O 0.1802(9) 0.0060(9) 0.0428(10)
O26 O 0.1143(9) 0.0672(8) 0.1228(9)
O27 O -0.1013(9) 0.1423(11) 0.0333(7)
O28 O -0.1551(10) 0.0316(9) 0.0568(10)
O29 O 0.0320(11) -0.0470(11) 0.0509(11)
O30 O -0.0618(12) -0.0069(12) 0.0494(14)
O31 O 0.0649(13) 0.0310(15) 0.0342(12)
O32 O -0.0104(11) 0.0723(13) 0.0307(13)
Co1B Co 1.21351(15) -0.01463(15) -0.32959(16)
Cl1B Cl 1.2311(4) 0.0199(4) -0.2386(4)
C1B C 0.9430(13) -0.4086(12) -0.3278(12)
H1B H 0.97310 -0.44730 -0.32280
H2B H 0.89970 -0.42060 -0.31540
H3B H 0.93710 -0.39560 -0.36810
C2B C 0.8947(11) -0.5328(10) -0.1344(12)
H4B H 0.86890 -0.55950 -0.10960
H5B H 0.86590 -0.51910 -0.16850
H6B H 0.93180 -0.55980 -0.14570
C3B C 0.6586(12) -0.4153(10) -0.1611(12)
H7B H 0.61480 -0.40290 -0.18020
H8B H 0.68820 -0.42800 -0.18960
H9B H 0.65360 -0.45330 -0.13550
C4B C 0.7105(12) -0.2896(12) -0.3475(12)
H10B H 0.66190 -0.28700 -0.34780
H11B H 0.72250 -0.28480 -0.38650
H12B H 0.72630 -0.33310 -0.33200
C5B C 0.9729(11) -0.3497(10) -0.2919(11)
H13B H 1.01530 -0.33820 -0.30810
C6B C 0.9937(13) -0.3639(11) -0.2254(13)
C7B C 0.9550(11) -0.4090(12) -0.1981(14)
H14B H 0.91900 -0.43090 -0.21980
C8B C 0.968(1) -0.4238(10) -0.1370(12)
C9B C 0.9217(11) -0.4716(11) -0.1029(11)
H15B H 0.95100 -0.48860 -0.06910
C10B C 0.8707(10) -0.4271(10) -0.0794(11)
C11B C 0.8103(11) -0.4108(11) -0.1076(11)
H16B H 0.80030 -0.42900 -0.14480
C12B C 0.7616(11) -0.370(1) -0.0873(10)
C13B C 0.6897(12) -0.3528(11) -0.1250(12)
H17B H 0.65760 -0.34230 -0.09660
C14B C 0.6950(11) -0.2876(11) -0.1608(12)
C15B C 0.7125(8) -0.2903(9) -0.2165(10)
H18B H 0.71590 -0.33230 -0.23510
C16B C 0.7252(8) -0.2295(9) -0.245(1)
C17B C 0.7441(10) -0.2310(11) -0.309(1)
H19B H 0.72700 -0.18800 -0.32700
C18B C 0.8233(9) -0.2253(9) -0.3025(9)
C19B C 0.8623(9) -0.2838(10) -0.3010(9)
H20B H 0.84050 -0.32610 -0.30380
C20B C 0.9301(11) -0.2823(11) -0.2957(10)
C21B C 1.0697(9) -0.2246(11) -0.2321(11)
H21B H 1.04170 -0.21210 -0.20160
H22B H 1.10960 -0.19530 -0.22850
C22B C 1.0463(12) -0.3351(12) -0.1973(12)
C23B C 1.0622(11) -0.3474(10) -0.1381(11)
C24B C 1.0244(10) -0.3936(11) -0.1071(12)
C25B C 1.0047(13) -0.3697(10) -0.0045(12)
H23B H 0.99090 -0.32430 -0.01820
H24B H 1.03510 -0.36450 0.03100
C26B C 0.8896(12) -0.3896(11) -0.0263(12)
C27B C 0.8458(11) -0.3449(12) -0.0036(11)
C28B C 0.7801(12) -0.3354(10) -0.0320(11)
C29B C 0.7227(13) -0.2272(12) -0.0267(11)
H25B H 0.71010 -0.20090 0.00620
H26B H 0.76560 -0.20940 -0.03720
C30B C 0.6876(11) -0.2229(10) -0.1308(11)
C31B C 0.6993(11) -0.1637(9) -0.1611(10)
C32B C 0.7147(9) -0.1643(9) -0.2161(10)
C33B C 0.7899(10) -0.0793(11) -0.2536(11)
H27B H 0.81820 -0.09460 -0.21920
H28B H 0.78980 -0.02950 -0.25330
C34B C 0.8552(10) -0.1628(10) -0.2967(9)
C35B C 0.9244(9) -0.1595(9) -0.2901(9)
C36B C 0.9612(8) -0.2181(9) -0.2899(9)
C37B C 1.1278(9) -0.3124(10) -0.1065(9)
H29B H 1.11740 -0.29470 -0.06920
H30B H 1.14030 -0.27380 -0.12960
C38B C 1.2093(9) -0.3951(10) -0.1374(10)
H31B H 1.19230 -0.39170 -0.17640
C39B C 1.2659(9) -0.4266(12) -0.0615(11)
C40B C 1.3143(13) -0.4517(19) -0.0204(16)
H32B H 1.34930 -0.47930 -0.03110
C41B C 1.3100(14) -0.4346(18) 0.0407(15)
H33B H 1.34030 -0.45440 0.06940
C42B C 1.2642(14) -0.3921(18) 0.0553(12)
H34B H 1.26140 -0.38260 0.09440
C43B C 1.2178(11) -0.3594(14) 0.0119(13)
H35B H 1.18630 -0.32660 0.02070
C44B C 1.2243(9) -0.3811(11) -0.0449(10)
C45B C 0.8592(11) -0.3057(11) 0.0498(10)
H36B H 0.90800 -0.30260 0.05970
H37B H 0.84200 -0.25950 0.04300
C46B C 0.8011(10) -0.3987(11) 0.1042(10)
H38B H 0.80300 -0.43240 0.07590
C47B C 0.7776(9) -0.3447(11) 0.1808(13)
C48B C 0.7585(12) -0.3247(12) 0.2353(14)
H39B H 0.73720 -0.35490 0.25870
C49B C 0.7729(16) -0.2581(15) 0.2523(13)
H40B H 0.75660 -0.24260 0.28640
C50B C 0.8106(14) -0.2120(15) 0.2217(15)
H41B H 0.81940 -0.16780 0.23570
C51B C 0.8340(15) -0.2331(12) 0.1716(15)
H42B H 0.86300 -0.20520 0.15280
C52B C 0.8130(12) -0.3001(12) 0.1471(13)
C53B C 0.6897(10) -0.0931(10) -0.1331(10)
H43B H 0.70340 -0.05740 -0.15870
H44B H 0.71880 -0.09010 -0.09660
C54B C 0.6042(9) -0.0623(9) -0.0684(10)
H45B H 0.63520 -0.05790 -0.03540
C55B C 0.5078(13) -0.0677(10) -0.1245(11)
C56B C 0.4394(11) -0.0654(14) -0.1531(14)
H46B H 0.40350 -0.05330 -0.13210
C57B C 0.4271(14) -0.0811(18) -0.2113(14)
H47B H 0.38300 -0.08010 -0.22990
C58B C 0.4802(15) -0.0980(15) -0.2412(16)
H48B H 0.47050 -0.10840 -0.28050
C59B C 0.5482(13) -0.1012(16) -0.2178(15)
H49B H 0.58290 -0.11280 -0.24020
C60B C 0.5606(10) -0.0858(9) -0.1593(9)
C61B C 0.9565(11) -0.0878(10) -0.2858(12)
H50B H 0.97180 -0.07840 -0.24530
H51B H 0.92160 -0.05440 -0.29830
C62B C 1.0754(9) -0.0504(10) -0.3018(9)
H52B H 1.08490 -0.03140 -0.26500
C63B C 1.0808(11) -0.0845(13) -0.3906(14)
C64B C 1.1046(16) -0.1040(16) -0.4452(19)
H53B H 1.14950 -0.09500 -0.45140
C65B C 1.0621(15) -0.136(2) -0.489(2)
H54B H 1.07670 -0.14840 -0.52420
C66B C 0.9922(15) -0.1487(17) -0.4744(15)
H55B H 0.96140 -0.16910 -0.50240
C67B C 0.9688(15) -0.1303(16) -0.4170(14)
H56B H 0.92480 -0.13990 -0.40840
C68B C 1.0149(13) -0.0987(13) -0.3780(11)
C69B C 0.3771(16) -0.0984(18) -0.0110(17)
H57B H 0.35660 -0.06770 -0.03830
C70B C 0.271(2) -0.150(2) -0.024(2)
H58B H 0.25070 -0.19250 -0.01350
H59B H 0.24820 -0.11260 -0.00730
H60B H 0.26700 -0.14550 -0.06540
C71B C 0.3691(19) -0.214(2) 0.024(2)
H61B H 0.33380 -0.24710 0.02660
H62B H 0.40230 -0.23120 0.00060
H63B H 0.39050 -0.20390 0.06260
C72B C 0.5789(13) -0.1117(15) 0.0627(13)
H64B H 0.55460 -0.13670 0.03310
C73B C 0.6234(17) -0.2230(17) 0.1030(18)
H65B H 0.65280 -0.23740 0.13650
H66B H 0.57950 -0.24380 0.10380
H67B H 0.64250 -0.23690 0.06830
C74B C 0.6645(17) -0.1054(18) 0.1402(17)
H68B H 0.69030 -0.13290 0.16910
H69B H 0.69480 -0.08330 0.11620
H70B H 0.63940 -0.07140 0.15900
N1B N 1.1855(8) -0.3589(8) -0.0971(9)
N2B N 1.2581(9) -0.4360(9) -0.1197(9)
N3B N 0.8285(8) -0.3352(10) 0.0994(8)
N4B N 0.7723(9) -0.4086(8) 0.1511(9)
N5B N 0.6205(7) -0.0822(8) -0.1224(9)
N6B N 0.5369(8) -0.0503(9) -0.0701(9)
N7B N 1.0162(9) -0.0775(8) -0.3216(9)
N8B N 1.1185(8) -0.0536(9) -0.3399(10)
N9B N 0.3390(15) -0.1497(16) -0.0024(16)
N10B N 0.6166(11) -0.1497(12) 0.1036(10)
O1B O 1.0323(7) -0.2140(7) -0.2873(8)
O2B O 1.0898(7) -0.2927(7) -0.2250(8)
O3B O 1.0417(7) -0.4041(7) -0.0491(8)
O4B O 0.9497(8) -0.4049(7) 0.0071(8)
O5B O 0.7302(7) -0.2947(7) -0.0113(7)
O6B O 0.6702(9) -0.2194(7) -0.0760(8)
O7B O 0.7199(6) -0.1040(6) -0.2506(7)
O8B O 0.8181(7) -0.1018(6) -0.3025(7)
O9B O 0.4285(10) -0.0824(10) 0.0065(9)
O10B O 0.5728(9) -0.0530(8) 0.0594(8)
Co1A Co -0.28649(15) 0.51463(15) 0.17041(16)
Co1A* Co 0.71351(15) -0.48537(15) 0.17041(16)
Co1C Co 0.28649(15) 0.48537(15) -0.17041(16)
Co1C* Co 1.28649(15) -0.51463(15) -0.17041(16)
N2A N -0.2419(9) -0.0640(9) 0.3803(9)
N2C N 1.2419(9) 0.0640(9) -0.3803(9)
N4A N 1.2723(9) -0.0914(8) -0.3489(9)
N4C N -0.2723(9) 0.0914(8) 0.3489(9)
O29B O -0.0320(11) 0.0470(11) -0.0509(11)
O30B O 0.0618(12) 0.0069(12) -0.0494(14)
O31B O -0.0649(13) -0.0310(15) -0.0342(12)
O32B O 0.0104(11) -0.0723(13) -0.0307(13)
W1B W -0.07397(4) -0.14198(4) -0.07994(4)
W2B W -0.13526(5) 0.02628(5) -0.10974(5)
W3B W 0.05758(6) -0.16697(4) 0.03380(6)
W4B W 0.16604(5) 0.05462(5) -0.02229(6)
W5B W 0.03108(7) 0.07513(6) -0.13280(6)
W6B W 0.09395(6) -0.08916(6) -0.09745(6)
O11B O -0.1088(10) -0.2090(8) -0.1170(9)
O12B O -0.1384(8) -0.1265(7) -0.0248(8)
O13B O 0.0066(8) -0.1323(12) -0.1192(9)
O14B O -0.0203(8) -0.1879(12) -0.0199(9)
O15B O 0.0872(9) -0.2463(8) 0.0496(10)
O16B O 0.1281(11) -0.1153(11) 0.0791(11)
O17B O -0.0018(10) 0.1566(10) -0.0932(11)
O18B O 0.1373(8) -0.1324(12) -0.140(1)
O19B O 0.2465(10) 0.0787(12) -0.0266(13)
O20B O 0.112(1) 0.0922(9) -0.081(1)
O21B O 0.0440(11) 0.1140(12) -0.1997(9)
O22B O 0.0580(11) -0.0168(10) -0.1390(11)
O23B O -0.0619(12) 0.044(1) -0.1495(10)
O24B O -0.2007(9) 0.0380(11) -0.162(1)
O25B O -0.1802(9) -0.0060(9) -0.0428(10)
O26B O -0.1143(9) -0.0672(8) -0.1228(9)
O27B O 0.1013(9) -0.1423(11) -0.0333(7)
O28B O 0.1551(10) -0.0316(9) -0.0568(10)
#END
