
#######################################################################
#
#                 Cambridge Crystallographic Data Centre
#                                CCDC
#
#######################################################################
#
# If this CIF has been generated from an entry in the Cambridge
# Structural Database, then it will include bibliographic, chemical,
# crystal, experimental, refinement or atomic coordinate data resulting
# from the CCDC's data processing and validation procedures.
#
#######################################################################

data_CSD_CIF_AMOBEL
_audit_creation_date 2016-05-18
_audit_creation_method CSD-ConQuest-V1
_database_code_CSD AMOBEL
_database_code_depnum_ccdc_archive 'CCDC 1450850'
_chemical_formula_sum 'C120 H240 N24 O144 Zn24'
_chemical_formula_moiety
;
(C72 H72 O144 Zn24 24-)n,12(C4 H14 N2 2+)
;
_journal_coden_Cambridge 1220
_journal_volume 22
_journal_year 2016
_journal_page_first 6199
_journal_name_full 'Chem.-Eur.J. '
loop_
_publ_author_name
"Ran Shang"
"Sa Chen"
"Ke-Li Hu"
"Bing-Wu Wang"
"Zhe-Ming Wang"
"Song Gao"
_chemical_name_systematic
;
catena-[dodecakis(butane-1,4-diammonium) 
doheptacontakis(\m-formato)-tetracosa-zinc]
;
_cell_volume  29942.137
_exptl_crystal_colour 'colorless'
_exptl_crystal_density_diffrn 1.961
_exptl_special_details
;
LT polymorph
233 K

;
_exptl_crystal_description 'hexagonal block'
_diffrn_ambient_temperature 100
_refine_special_details
;
The structure is disordered.

;
#These two values have been output from a single CSD field.
_refine_ls_R_factor_gt 0.0254
_refine_ls_wR_factor_gt 0.0254
_symmetry_cell_setting rhombohedral
_symmetry_space_group_name_H-M 'R -3 c'
_symmetry_Int_Tables_number 167
loop_
_symmetry_equiv_pos_site_id
_symmetry_equiv_pos_as_xyz
1 x,y,z
2 -y,x-y,z
3 -x+y,-x,z
4 y,x,1/2-z
5 x-y,-y,1/2-z
6 -x,-x+y,1/2-z
7 2/3+x,1/3+y,1/3+z
8 2/3-y,1/3+x-y,1/3+z
9 2/3-x+y,1/3-x,1/3+z
10 2/3+y,1/3+x,5/6-z
11 2/3+x-y,1/3-y,5/6-z
12 2/3-x,1/3-x+y,5/6-z
13 1/3+x,2/3+y,2/3+z
14 1/3-y,2/3+x-y,2/3+z
15 1/3-x+y,2/3-x,2/3+z
16 1/3+y,2/3+x,1/6-z
17 1/3+x-y,2/3-y,1/6-z
18 1/3-x,2/3-x+y,1/6-z
19 -x,-y,-z
20 y,-x+y,-z
21 x-y,x,-z
22 -y,-x,-1/2+z
23 -x+y,y,-1/2+z
24 x,x-y,-1/2+z
25 -2/3-x,-1/3-y,-1/3-z
26 -2/3+y,-1/3-x+y,-1/3-z
27 -2/3+x-y,-1/3+x,-1/3-z
28 -2/3-y,-1/3-x,-5/6+z
29 -2/3-x+y,-1/3+y,-5/6+z
30 -2/3+x,-1/3+x-y,-5/6+z
31 -1/3-x,-2/3-y,-2/3-z
32 -1/3+y,-2/3-x+y,-2/3-z
33 -1/3+x-y,-2/3+x,-2/3-z
34 -1/3-y,-2/3-x,-1/6+z
35 -1/3-x+y,-2/3+y,-1/6+z
36 -1/3+x,-2/3+x-y,-1/6+z
_cell_length_a 29.5811(2)
_cell_length_b 29.5811(2)
_cell_length_c 39.5115(3)
_cell_angle_alpha 90
_cell_angle_beta 90
_cell_angle_gamma 120
_cell_formula_units_Z 6
loop_
_atom_type_symbol
_atom_type_radius_bond
C 0.68
H 0.23
N 0.68
O 0.68
Zn 1.22
loop_
_atom_site_label
_atom_site_type_symbol
_atom_site_fract_x
_atom_site_fract_y
_atom_site_fract_z
Zn1 Zn 0.163659(7) 0.163659(7) 0.25000
O1 O 0.13334(4) 0.09633(4) 0.22030(3)
O2 O 0.12911(4) 0.19475(3) 0.21815(2)
O3 O 0.22839(4) 0.19659(4) 0.21788(2)
C1 C 0.08788(5) 0.07216(5) 0.20925(3)
C2 C 0.15227(5) 0.24077(5) 0.20698(3)
C3 C 0.25954(5) 0.17990(5) 0.21248(3)
O4 O 0.06836(4) 0.02958(4) 0.19351(2)
H1 H 0.06630 0.08700 0.21300
O5 O 0.12984(3) 0.26287(3) 0.19402(2)
H2 H 0.18930 0.26000 0.20850
O6 O 0.29693(3) 0.20075(3) 0.19230(2)
H3 H 0.25420 0.14980 0.22440
Zn2 Zn 0.00000 0.00000 0.164064(7)
Zn3 Zn 0.168936(6) 0.330879(6) 0.166458(3)
Zn4 Zn 0.33330 0.16670 0.16670
O7 O 0.03576(3) 0.06944(3) 0.13716(2)
O8 O 0.09966(3) 0.30308(3) 0.13809(2)
O9 O 0.19882(3) 0.29381(3) 0.13629(2)
O10 O 0.23926(3) 0.36121(3) 0.19357(2)
O11 O 0.13827(3) 0.36962(3) 0.19696(2)
O12 O 0.20434(4) 0.40272(3) 0.14179(2)
O13 O 0.37343(3) 0.23706(3) 0.14047(2)
O14 O 0.26738(3) 0.13766(3) 0.13461(2)
C4 C 0.01310(5) 0.08817(5) 0.12079(3)
C5 C 0.07685(5) 0.25719(5) 0.12621(3)
C6 C 0.24332(5) 0.31801(5) 0.12333(3)
C7 C 0.25799(5) 0.40349(5) 0.20924(3)
C8 C 0.09532(5) 0.34565(5) 0.21234(3)
C9 C 0.35098(5) 0.25710(5) 0.12456(3)
C10 C 0.24702(5) 0.09269(5) 0.12175(3)
O15 O 0.03229(4) 0.13567(3) 0.11346(2)
H4 H -0.02140 0.06480 0.11320
O16 O 0.03221(3) 0.23515(4) 0.11361(2)
H5 H 0.09500 0.23820 0.12690
O17 O 0.26873(4) 0.29644(3) 0.11340(2)
H6 H 0.25900 0.35470 0.12080
O18 O 0.30529(3) 0.43046(3) 0.21806(2)
H7 H 0.23520 0.41620 0.21490
O19 O 0.06651(3) 0.36457(3) 0.21840(2)
H8 H 0.08400 0.31110 0.21990
O20 O 0.37220(4) 0.30350(3) 0.11481(2)
H9 H 0.31500 0.23520 0.11950
O21 O 0.20184(3) 0.06828(4) 0.11030(2)
H10 H 0.26760 0.07630 0.12070
Zn5 Zn 0.000355(5) 0.168732(6) 0.082398(4)
Zn6 Zn 0.337307(8) 0.33330 0.08330
O22 O -0.03583(3) 0.10228(3) 0.04990(2)
O23 O 0.06526(4) 0.20014(3) 0.05021(2)
C11 C -0.01434(5) 0.07631(5) 0.04091(3)
C12 C 0.09861(5) 0.24760(5) 0.04603(3)
O24 O -0.03819(3) 0.03177(3) 0.02798(2)
H11 H 0.02220 0.09170 0.04420
H12 H 0.09600 0.27260 0.05980
Zn7 Zn 0.00000 0.00000 0.00000
N1 N 0.35261(4) 0.37516(4) 0.18970(3)
H13 H 0.34540 0.37640 0.16740
H14 H 0.38780 0.39070 0.19260
H15 H 0.34000 0.39220 0.20220
C13 C 0.32741(5) 0.31937(5) 0.20091(3)
H16 H 0.34080 0.30090 0.18690
H17 H 0.28930 0.30240 0.19720
C14 C 0.33774(5) 0.31442(5) 0.23786(3)
H18 H 0.37590 0.33210 0.24150
H19 H 0.32310 0.27700 0.24330
N2 N 0.21002(4) 0.19161(4) 0.14290(3)
H20 H 0.21140 0.20120 0.16490
H21 H 0.22690 0.22060 0.12970
H22 H 0.22570 0.17200 0.14070
N3 N 0.18492(4) 0.13967(4) 0.02270(2)
H23 H 0.17650 0.12990 0.00070
H24 H 0.17280 0.11070 0.03600
H25 H 0.22020 0.15930 0.02480
C15 C 0.15416(5) 0.16031(5) 0.13196(3)
H26 H 0.13710 0.18150 0.13490
H27 H 0.13580 0.12910 0.14660
C16 C 0.14900(5) 0.14312(5) 0.09541(3)
H28 H 0.11150 0.12050 0.09000
H29 H 0.16620 0.12200 0.09260
C17 C 0.17294(5) 0.18862(5) 0.07021(3)
H30 H 0.15970 0.21270 0.07530
H31 H 0.21130 0.20810 0.07330
C18 C 0.16059(5) 0.17116(5) 0.03362(3)
H32 H 0.12230 0.15000 0.03080
H33 H 0.17340 0.20230 0.01890
N4 N 0.12357(6) -0.02488(6) 0.18962(4)
H34 H 0.12330 -0.03340 0.16750
H35 H 0.10740 -0.00570 0.19190
H36 H 0.10640 -0.05460 0.20210
C19 C 0.17514(17) 0.0044(2) 0.20090(9)
H37 H 0.19330 0.03560 0.18620
H38 H 0.19220 -0.01680 0.19730
C20 C 0.18441(7) 0.02289(7) 0.23756(4)
H39 H 0.16830 0.04480 0.24160
H40 H 0.22240 0.04470 0.24160
N5? N 0.1815(4) 0.0448(3) 0.1885(2)
H41? H 0.19280 0.05080 0.16670
H42? H 0.20190 0.07360 0.20120
H43? H 0.14780 0.03760 0.18940
C21? C 0.1846(6) 0.0036(5) 0.2008(3)
H44? H 0.22110 0.01200 0.19730
H45? H 0.16280 -0.02620 0.18570
C22? C 0.1701(2) -0.0174(2) 0.23746(15)
H46? H 0.13150 -0.03780 0.23900
H47? H 0.18320 -0.04180 0.24140
N6? N 0.1813(4) 0.0374(3) 0.1865(2)
H48? H 0.18900 0.03510 0.16450
H49? H 0.21150 0.05580 0.19850
H50? H 0.16250 0.05410 0.18770
C23? C 0.1497(4) -0.0168(3) 0.2013(2)
H51? H 0.11650 -0.03670 0.18880
H52? H 0.16940 -0.03560 0.19940
C24? C 0.1390(3) -0.0123(2) 0.23705(14)
H53? H 0.10270 -0.01920 0.23500
H54? H 0.13480 -0.04570 0.24560
O1C O 0.09633(4) 0.13334(4) 0.27970(3)
O2C O 0.19475(4) 0.12911(3) 0.28185(2)
O3C O 0.19659(4) 0.22839(4) 0.28212(2)
C1C C 0.07216(5) 0.08788(5) 0.29075(3)
C2C C 0.24077(5) 0.15227(5) 0.29302(3)
C3C C 0.17990(5) 0.25954(5) 0.28752(3)
O4C O 0.02958(4) 0.06836(4) 0.30649(2)
H1C H 0.08700 0.06630 0.28700
O5C O 0.26287(3) 0.12984(3) 0.30598(2)
H2C H 0.26000 0.18930 0.29150
O6C O 0.20075(3) 0.29693(3) 0.30770(2)
H3C H 0.14980 0.25420 0.27560
Zn2C Zn 0.00000 0.00000 0.335936(7)
Zn3C Zn 0.330879(6) 0.168936(6) 0.333542(3)
Zn4C Zn 0.16670 0.33330 0.33330
O4A O -0.02958(4) 0.03878(4) 0.19351(2)
O7A O -0.06944(3) -0.03368(3) 0.13716(2)
O4B O -0.03878(4) -0.06836(4) 0.19351(2)
O7B O 0.03368(3) -0.03576(3) 0.13716(2)
O13DA O 0.293237(30) 0.096273(30) 0.192863(20)
O6DA O 0.369737(30) 0.132583(30) 0.141033(20)
O14DA O 0.399287(30) 0.195673(30) 0.198723(20)
O7C O 0.06944(3) 0.03576(3) 0.36284(2)
O4D O 0.03878(4) -0.02958(4) 0.30649(2)
O7D O -0.03368(3) -0.06944(3) 0.36284(2)
O4E O -0.06836(4) -0.03878(4) 0.30649(2)
O7E O -0.03576(3) 0.03368(3) 0.36284(2)
O8C O 0.30308(3) 0.09966(3) 0.36191(2)
O9C O 0.29381(3) 0.19882(3) 0.36371(2)
O10C O 0.36121(3) 0.23926(3) 0.30643(2)
O12C O 0.40272(4) 0.20434(3) 0.35821(2)
O11C O 0.36962(3) 0.13827(3) 0.30304(2)
O14C O 0.13766(3) 0.26738(3) 0.36539(2)
C1A C -0.07216(5) 0.01572(5) 0.20925(3)
C4A C -0.08817(5) -0.07507(5) 0.12079(3)
C1B C -0.01572(5) -0.08788(5) 0.20925(3)
C4B C 0.07507(5) -0.01310(5) 0.12079(3)
C9DA C 0.315687(50) 0.076233(50) 0.208773(30)
C4C C 0.08817(5) 0.01310(5) 0.37921(3)
C1D C 0.01572(5) -0.07216(5) 0.29075(3)
C4D C -0.07507(5) -0.08817(5) 0.37921(3)
C1E C -0.08788(5) -0.01572(5) 0.29075(3)
C4E C -0.01310(5) 0.07507(5) 0.37921(3)
C5C C 0.25719(5) 0.07685(5) 0.37379(3)
C6C C 0.31801(5) 0.24332(5) 0.37667(3)
C7C C 0.40349(5) 0.25799(5) 0.29076(3)
C10C C 0.09269(5) 0.24702(5) 0.37825(3)
O1A O -0.09633(4) 0.03701(4) 0.22030(3)
H1A H -0.08700 -0.02070 0.21300
O15A O -0.13567(4) -0.10338(3) 0.11346(2)
H4A H -0.06480 -0.08620 0.11320
O1B O -0.03701(4) -0.13334(4) 0.22030(3)
H1B H 0.02070 -0.06630 0.21300
O15B O 0.10338(4) -0.03229(3) 0.11346(2)
H4B H 0.08620 0.02140 0.11320
O20DA O 0.294467(40) 0.029833(30) 0.218523(20)
H9DA H 0.35167 0.09813 0.21383
O15C O 0.13567(4) 0.03229(3) 0.38654(2)
H4C H 0.06480 -0.02140 0.38680
O1D O 0.03701(4) -0.09633(4) 0.27970(3)
H1D H -0.02070 -0.08700 0.28700
O15D O -0.10338(4) -0.13567(3) 0.38654(2)
H4D H -0.08620 -0.06480 0.38680
O1E O -0.13334(4) -0.03701(4) 0.27970(3)
H1E H -0.06630 0.02070 0.28700
O15E O -0.03229(4) 0.10338(3) 0.38654(2)
H4E H 0.02140 0.08620 0.38680
O16C O 0.23515(3) 0.03221(4) 0.38639(2)
H5C H 0.23820 0.09500 0.37310
O17C O 0.29644(4) 0.26873(3) 0.38660(2)
H6C H 0.35470 0.25900 0.37920
O18C O 0.43046(3) 0.30529(3) 0.28194(2)
H7C H 0.41620 0.23520 0.28510
O21C O 0.06828(3) 0.20184(4) 0.38970(2)
H10C H 0.07630 0.26760 0.37930
Zn1A Zn -0.163659(7) 0.000000(7) 0.25000
Zn5A Zn -0.168732(5) -0.168377(6) 0.082398(4)
Zn1B Zn 0.000000(7) -0.163659(7) 0.25000
Zn5B Zn 0.168377(5) -0.000355(6) 0.082398(4)
Zn5CA Zn 0.333688(5) 0.498290(6) 0.249065(4)
Zn6EA Zn -0.000033(8) 0.32933 0.25003
Zn6DA Zn 0.329360(8) 0.00003 0.25003
Zn5C Zn 0.168732(5) 0.000355(6) 0.417602(4)
Zn5D Zn -0.168377(5) -0.168732(6) 0.417602(4)
Zn5E Zn -0.000355(5) 0.168377(6) 0.417602(4)
Zn6C Zn 0.333300(8) 0.33731 0.41670
Zn5FA Zn 0.498290(5) 0.333688(6) 0.250935(4)
O21A O -0.06828(3) 0.13356(4) 0.11030(2)
O18IA O -0.028043(30) 0.208163(30) 0.051393(20)
O2A O -0.19475(4) -0.06564(3) 0.21815(2)
O3A O -0.19659(4) 0.03180(4) 0.21788(2)
O2E O -0.12911(4) 0.06564(3) 0.28185(2)
O3E O -0.22839(4) -0.03180(4) 0.28212(2)
O16A O -0.23515(3) -0.20294(4) 0.11361(2)
O22A O -0.10228(3) -0.13811(3) 0.04990(2)
O23A O -0.20014(4) -0.13488(3) 0.05021(2)
O21B O -0.13356(3) -0.20184(4) 0.11030(2)
O18HA O -0.208163(30) -0.236207(30) 0.051393(20)
O2B O 0.06564(4) -0.12911(3) 0.21815(2)
O3B O -0.03180(4) -0.22839(4) 0.21788(2)
O2D O -0.06564(4) -0.19475(3) 0.28185(2)
O3D O 0.03180(4) -0.19659(4) 0.28212(2)
O16B O 0.20294(3) -0.03221(4) 0.11361(2)
O22B O 0.13811(3) 0.03583(3) 0.04990(2)
O23B O 0.13488(4) -0.06526(3) 0.05021(2)
O18GA O 0.236207(30) 0.028043(30) 0.051393(20)
O19GA O 0.302097(30) 0.266823(30) 0.051733(20)
O20P O 0.402033(40) 0.363167(30) 0.051857(20)
O19FA O 0.368607(30) 0.399843(30) 0.114933(20)
O17P O 0.305623(40) 0.370227(30) 0.053267(20)
O20EA O -0.029833(40) 0.264633(30) 0.218523(20)
O22C O 0.10228(3) -0.03583(3) 0.45010(2)
O23C O 0.20014(4) 0.06526(3) 0.44979(2)
O21D O 0.13356(3) -0.06828(4) 0.38970(2)
O18Z O 0.208163(30) -0.028043(30) 0.448607(20)
O16D O -0.20294(3) -0.23515(4) 0.38639(2)
O22D O -0.13811(3) -0.10228(3) 0.45010(2)
O23D O -0.13488(4) -0.20014(3) 0.44979(2)
O21E O -0.20184(3) -0.13356(4) 0.38970(2)
O18Y O -0.236207(30) -0.208163(30) 0.448607(20)
O16E O -0.03221(3) 0.20294(4) 0.38639(2)
O22E O 0.03583(3) 0.13811(3) 0.45010(2)
O23E O -0.06526(4) 0.13488(3) 0.44979(2)
O18X O 0.028043(30) 0.236207(30) 0.448607(20)
C10A C -0.09269(5) 0.15433(5) 0.12175(3)
C2A C -0.24077(5) -0.08850(5) 0.20698(3)
C3A C -0.17990(5) 0.07964(5) 0.21248(3)
C2E C -0.15227(5) 0.08850(5) 0.29302(3)
C3E C -0.25954(5) -0.07964(5) 0.28752(3)
C5A C -0.25719(5) -0.18034(5) 0.12621(3)
C11A C -0.07631(5) -0.09065(5) 0.04091(3)
C12A C -0.24760(5) -0.14899(5) 0.04603(3)
C10B C -0.15433(5) -0.24702(5) 0.12175(3)
C2B C 0.08850(5) -0.15227(5) 0.20698(3)
C3B C -0.07964(5) -0.25954(5) 0.21248(3)
C2D C -0.08850(5) -0.24077(5) 0.29302(3)
C3D C 0.07964(5) -0.17990(5) 0.28752(3)
C5B C 0.18034(5) -0.07685(5) 0.12621(3)
C11B C 0.09065(5) 0.01434(5) 0.04091(3)
C12B C 0.14899(5) -0.09861(5) 0.04603(3)
C8GA C 0.321017(50) 0.238013(50) 0.045673(30)
C9P C 0.427213(50) 0.409567(50) 0.042107(30)
C8FA C 0.416337(50) 0.428653(50) 0.120993(30)
C9EA C -0.076233(50) 0.239453(50) 0.208773(30)
C11C C 0.07631(5) -0.01434(5) 0.45909(3)
C12C C 0.24760(5) 0.09861(5) 0.45397(3)
C10D C 0.15433(5) -0.09269(5) 0.37825(3)
C5D C -0.18034(5) -0.25719(5) 0.37379(3)
C11D C -0.09065(5) -0.07631(5) 0.45909(3)
C12D C -0.14899(5) -0.24760(5) 0.45397(3)
C10E C -0.24702(5) -0.15433(5) 0.37825(3)
C5E C -0.07685(5) 0.18034(5) 0.37379(3)
C11E C 0.01434(5) 0.09065(5) 0.45909(3)
C12E C -0.09861(5) 0.14899(5) 0.45397(3)
O12P O 0.134953(40) 0.263947(30) 0.024877(20)
O14A O -0.13766(3) 0.12972(3) 0.13461(2)
H10A H -0.07630 0.19130 0.12070
O5A O -0.26287(3) -0.13303(3) 0.19402(2)
H2A H -0.26000 -0.07070 0.20850
O6A O -0.20075(3) 0.09618(3) 0.19230(2)
H3A H -0.14980 0.10440 0.22440
O5E O -0.12984(3) 0.13303(3) 0.30598(2)
H2E H -0.18930 0.07070 0.29150
O6E O -0.29693(3) -0.09618(3) 0.30770(2)
H3E H -0.25420 -0.10440 0.27560
O8A O -0.30308(3) -0.20342(3) 0.13809(2)
H5A H -0.23820 -0.14320 0.12690
O24A O -0.03177(3) -0.06996(3) 0.02798(2)
H11A H -0.09170 -0.06950 0.04420
O12O O -0.263947(40) -0.128993(30) 0.024877(20)
H12A H -0.27260 -0.17660 0.05980
O14B O -0.12972(3) -0.26738(3) 0.13461(2)
H10B H -0.19130 -0.26760 0.12070
O5B O 0.13303(3) -0.12984(3) 0.19402(2)
H2B H 0.07070 -0.18930 0.20850
O6B O -0.09618(3) -0.29693(3) 0.19230(2)
H3B H -0.10440 -0.25420 0.22440
O5D O -0.13303(3) -0.26287(3) 0.30598(2)
H2D H -0.07070 -0.26000 0.29150
O6D O 0.09618(3) -0.20075(3) 0.30770(2)
H3D H 0.10440 -0.14980 0.27560
O8B O 0.20342(3) -0.09966(3) 0.13809(2)
H5B H 0.14320 -0.09500 0.12690
O24B O 0.06996(3) 0.03819(3) 0.02798(2)
H11B H 0.06950 -0.02220 0.04420
O12Q O 0.128993(40) -0.134953(30) 0.024877(20)
H12B H 0.17660 -0.09600 0.05980
O11GA O 0.297047(30) 0.195063(30) 0.030293(20)
H8GA H 0.35557 0.24933 0.05323
O13P O 0.469703(30) 0.429607(30) 0.026197(20)
H9P H 0.41313 0.43147 0.04717
O11FA O 0.435317(30) 0.471603(30) 0.136373(20)
H8FA H 0.43957 0.41733 0.11343
O13EA O -0.096273(30) 0.196963(30) 0.192863(20)
H9EA H -0.09813 0.25353 0.21383
O24C O 0.03177(3) -0.03819(3) 0.47202(2)
H11C H 0.09170 0.02220 0.45580
O12G O 0.263947(40) 0.134953(30) 0.475123(20)
H12C H 0.27260 0.09600 0.44020
O14D O 0.12972(3) -0.13766(3) 0.36539(2)
H10D H 0.19130 -0.07630 0.37930
O8D O -0.20342(3) -0.30308(3) 0.36191(2)
H5D H -0.14320 -0.23820 0.37310
O24D O -0.06996(3) -0.03177(3) 0.47202(2)
H11D H -0.06950 -0.09170 0.45580
O12F O -0.128993(40) -0.263947(30) 0.475123(20)
H12D H -0.17660 -0.27260 0.44020
O14E O -0.26738(3) -0.12972(3) 0.36539(2)
H10E H -0.26760 -0.19130 0.37930
O8E O -0.09966(3) 0.20342(3) 0.36191(2)
H5E H -0.09500 0.14320 0.37310
O24E O 0.03819(3) 0.06996(3) 0.47202(2)
H11E H -0.02220 0.06950 0.45580
O12H O -0.134953(40) 0.128993(30) 0.475123(20)
H12E H -0.09600 0.17660 0.44020
Zn3P Zn 0.171390(6) 0.335788(6) 0.000209(3)
Zn4A Zn -0.16670 0.16660 0.16670
Zn3A Zn -0.330879(6) -0.161943(6) 0.166458(3)
Zn3E Zn -0.168936(6) 0.161943(6) 0.333542(3)
Zn4E Zn -0.33330 -0.16660 0.33330
Zn3O Zn -0.335788(6) -0.164397(6) 0.000209(3)
Zn4B Zn -0.16660 -0.33330 0.16670
Zn3B Zn 0.161943(6) -0.168936(6) 0.166458(3)
Zn3D Zn -0.161943(6) -0.330879(6) 0.333542(3)
Zn4D Zn 0.16660 -0.16670 0.33330
Zn3Q Zn 0.164397(6) -0.171390(6) 0.000209(3)
Zn3GA Zn 0.335788(6) 0.164397(6) -0.000209(3)
Zn4P Zn 0.49993 0.49997 -0.00003
Zn3FA Zn 0.504724(6) 0.502269(6) 0.166875(3)
Zn7C Zn 0.00000 0.00000 0.50000
Zn3G Zn 0.335788(6) 0.171390(6) 0.499791(3)
Zn3F Zn -0.164397(6) -0.335788(6) 0.499791(3)
Zn3H Zn -0.171390(6) 0.164397(6) 0.499791(3)
O24R O 0.03819(3) -0.03177(3) -0.02798(2)
O24S O 0.03177(3) 0.06996(3) -0.02798(2)
O24T O -0.06996(3) -0.03819(3) -0.02798(2)
O13A O -0.23706(3) 0.13637(3) 0.14047(2)
O6EA O -0.132583(30) 0.237153(30) 0.141033(20)
O14EA O -0.195673(30) 0.203613(30) 0.198723(20)
O9A O -0.29381(3) -0.09499(3) 0.13629(2)
O10A O -0.36121(3) -0.12195(3) 0.19357(2)
O11A O -0.36962(3) -0.23135(3) 0.19696(2)
O12A O -0.40272(4) -0.19838(3) 0.14179(2)
O9E O -0.19882(3) 0.09499(3) 0.36371(2)
O10E O -0.23926(3) 0.12195(3) 0.30643(2)
O12E O -0.20434(4) 0.19838(3) 0.35821(2)
O11E O -0.13827(3) 0.23135(3) 0.30304(2)
O13B O -0.13637(3) -0.37343(3) 0.14047(2)
O6FA O -0.237153(30) -0.369737(30) 0.141033(20)
O13FA O -0.196963(30) -0.293237(30) 0.192863(20)
O14FA O -0.203613(30) -0.399287(30) 0.198723(20)
O9B O 0.09499(3) -0.19882(3) 0.13629(2)
O10B O 0.12195(3) -0.23926(3) 0.19357(2)
O12B O 0.19838(4) -0.20434(3) 0.14179(2)
O11B O 0.23135(3) -0.13827(3) 0.19696(2)
O9D O -0.09499(3) -0.29381(3) 0.36371(2)
O10D O -0.12195(3) -0.36121(3) 0.30643(2)
O12D O -0.19838(4) -0.40272(3) 0.35821(2)
O11D O -0.23135(3) -0.36962(3) 0.30304(2)
C9A C -0.25710(5) 0.09388(5) 0.12456(3)
C6A C -0.31801(5) -0.07469(5) 0.12333(3)
C7A C -0.40349(5) -0.14550(5) 0.20924(3)
C8A C -0.34565(5) -0.25033(5) 0.21234(3)
C6E C -0.24332(5) 0.07469(5) 0.37667(3)
C7E C -0.25799(5) 0.14550(5) 0.29076(3)
C9B C -0.09388(5) -0.35098(5) 0.12456(3)
C6B C 0.07469(5) -0.24332(5) 0.12333(3)
C7B C 0.14550(5) -0.25799(5) 0.20924(3)
C6D C -0.07469(5) -0.31801(5) 0.37667(3)
C7D C -0.14550(5) -0.40349(5) 0.29076(3)
O20A O -0.30350(4) 0.06870(3) 0.11481(2)
H9A H -0.23520 0.07980 0.11950
O17A O -0.29644(4) -0.02771(3) 0.11340(2)
H6A H -0.35470 -0.09570 0.12080
O18A O -0.43046(3) -0.12517(3) 0.21806(2)
H7A H -0.41620 -0.18100 0.21490
O19A O -0.36457(3) -0.29806(3) 0.21840(2)
H8A H -0.31110 -0.22710 0.21990
O17E O -0.26873(4) 0.02771(3) 0.38660(2)
H6E H -0.25900 0.09570 0.37920
O18E O -0.30529(3) 0.12517(3) 0.28194(2)
H7E H -0.23520 0.18100 0.28510
O20B O -0.06870(4) -0.37220(3) 0.11481(2)
H9B H -0.07980 -0.31500 0.11950
O17B O 0.02771(4) -0.26873(3) 0.11340(2)
H6B H 0.09570 -0.25900 0.12080
O18B O 0.12517(3) -0.30529(3) 0.21806(2)
H7B H 0.18100 -0.23520 0.21490
O17D O -0.02771(4) -0.29644(3) 0.38660(2)
H6D H -0.09570 -0.35470 0.37920
O18D O -0.12517(3) -0.43046(3) 0.28194(2)
H7D H -0.18100 -0.41620 0.28510
Zn6A Zn -0.333300(8) 0.00401 0.08330
Zn5BA Zn -0.498290(5) -0.164601(6) 0.249065(4)
Zn6FA Zn -0.329326(8) -0.32936 0.25003
Zn6E Zn -0.337307(8) -0.00401 0.41670
Zn5DA Zn -0.333688(5) 0.164601(6) 0.250935(4)
Zn6B Zn -0.004007(8) -0.33731 0.08330
Zn5AA Zn 0.164601(5) -0.333688(6) 0.249065(4)
Zn6D Zn 0.004007(8) -0.33330 0.41670
Zn5EA Zn -0.164601(5) -0.498290(6) 0.250935(4)
O19IA O -0.266823(30) 0.035273(30) 0.051733(20)
O17O O -0.370227(40) -0.064603(30) 0.053267(20)
O20O O -0.363167(40) 0.038867(30) 0.051857(20)
O19DA O -0.399843(30) -0.031237(30) 0.114933(20)
O19HA O -0.035273(30) -0.302097(30) 0.051733(20)
O17Q O 0.064603(40) -0.305623(30) 0.053267(20)
O20Q O -0.038867(40) -0.402033(30) 0.051857(20)
O19EA O 0.031237(30) -0.368607(30) 0.114933(20)
C8IA C -0.238013(50) 0.083003(50) 0.045673(30)
C8HA C -0.083003(50) -0.321017(50) 0.045673(30)
O11IA O -0.195063(30) 0.101983(30) 0.030293(20)
H8IA H -0.24933 0.10623 0.05323
O11HA O -0.101983(30) -0.297047(30) 0.030293(20)
H8HA H -0.10623 -0.35557 0.05323
Zn3IA Zn -0.164397(6) 0.171390(6) -0.000209(3)
Zn3HA Zn -0.171390(6) -0.335788(6) -0.000209(3)
N1C N 0.37516(4) 0.35261(4) 0.31030(3)
H13C H 0.37640 0.34540 0.33260
H14C H 0.39070 0.38780 0.30740
H15C H 0.39220 0.34000 0.29780
C13C C 0.31937(5) 0.32741(5) 0.29909(3)
H16C H 0.30090 0.34080 0.31310
H17C H 0.30240 0.28930 0.30280
C14C C 0.31442(5) 0.33774(5) 0.26214(3)
H18C H 0.33210 0.37590 0.25850
H19C H 0.27700 0.32310 0.25670
N4D N 0.14845(6) 0.02488(6) 0.31038(4)
H34D H 0.15670 0.03340 0.33250
H35D H 0.11310 0.00570 0.30810
H36D H 0.16100 0.05460 0.29790
C19D C 0.17074(17) -0.0044(2) 0.29910(9)
H37D H 0.15770 -0.03560 0.31380
H38D H 0.20900 0.01680 0.30270
C20D C 0.16152(7) -0.02289(7) 0.26244(4)
H39D H 0.12350 -0.04480 0.25840
H40D H 0.17770 -0.04470 0.25840
#END
