
#######################################################################
#
#                 Cambridge Crystallographic Data Centre
#                                CCDC
#
#######################################################################
#
# If this CIF has been generated from an entry in the Cambridge
# Structural Database, then it will include bibliographic, chemical,
# crystal, experimental, refinement or atomic coordinate data resulting
# from the CCDC's data processing and validation procedures.
#
#######################################################################

data_CSD_CIF_AMOBEL02
_audit_creation_date 2016-05-18
_audit_creation_method CSD-ConQuest-V1
_database_code_CSD AMOBEL02
_database_code_depnum_ccdc_archive 'CCDC 1450852'
_chemical_formula_sum 'C10 H20 N2 O12 Zn2'
_chemical_formula_moiety
;
C4 H14 N2 2+,n(C6 H6 O12 Zn2 2-)
;
_journal_coden_Cambridge 1220
_journal_volume 22
_journal_year 2016
_journal_page_first 6199
_journal_name_full 'Chem.-Eur.J. '
loop_
_publ_author_name
"Ran Shang"
"Sa Chen"
"Ke-Li Hu"
"Bing-Wu Wang"
"Zhe-Ming Wang"
"Song Gao"
_chemical_name_systematic
;
catena-[butane-1,4-diammonium hexakis(\m-formato)-di-zinc]
;
_cell_volume    841.381
_exptl_crystal_colour 'colorless'
_exptl_crystal_density_diffrn 1.938
_exptl_special_details
;
HT polymorph
233 K

;
_exptl_crystal_description 'hexagonal block'
_diffrn_ambient_temperature 290
_refine_special_details
;
C3,N1 disordered by symmetry over three configurations with occupancy 0.33.

;
#These two values have been output from a single CSD field.
_refine_ls_R_factor_gt 0.0202
_refine_ls_wR_factor_gt 0.0202
_symmetry_cell_setting hexagonal
_symmetry_space_group_name_H-M 'P -3 1 c'
_symmetry_Int_Tables_number 163
loop_
_symmetry_equiv_pos_site_id
_symmetry_equiv_pos_as_xyz
1 x,y,z
2 -y,x-y,z
3 -x+y,-x,z
4 -y,-x,1/2-z
5 -x+y,y,1/2-z
6 x,x-y,1/2-z
7 -x,-y,-z
8 y,-x+y,-z
9 x-y,x,-z
10 y,x,-1/2+z
11 x-y,-y,-1/2+z
12 -x,-x+y,-1/2+z
_cell_length_a 8.5358(3)
_cell_length_b 8.5358(3)
_cell_length_c 13.3344(4)
_cell_angle_alpha 90
_cell_angle_beta 90
_cell_angle_gamma 120
_cell_formula_units_Z 2
loop_
_atom_type_symbol
_atom_type_radius_bond
C 0.68
H 0.23
N 0.68
O 0.68
Zn 1.22
loop_
_atom_site_label
_atom_site_type_symbol
_atom_site_fract_x
_atom_site_fract_y
_atom_site_fract_z
Zn1 Zn 0.00000 0.00000 0.50000
Zn2 Zn 0.33330 0.66670 0.25000
O1 O 0.21343(18) 0.20275(18) 0.41637(9)
O2 O 0.33875(19) 0.47067(18) 0.34318(10)
C1 C 0.2082(3) 0.3260(3) 0.37047(13)
H1 H 0.09400 0.30770 0.35490
C2 C 0.66670 0.33330 0.3967(3)
C3 C 0.7278(9) 0.3192(12) 0.2821(4)
N1 N 0.5486(7) 0.1995(7) 0.4332(3)
H2 H 0.44320 0.19450 0.42270
H3 H 0.56760 0.20000 0.49880
H4 H 0.54620 0.10350 0.40540
O1A O -0.20275(18) 0.01068(18) 0.41637(9)
O2A O -0.47067(19) -0.13192(18) 0.34318(10)
C1A C -0.3260(3) -0.1178(3) 0.37047(13)
H1A H -0.30770 -0.21370 0.35490
O1B O -0.01068(18) -0.21343(18) 0.41637(9)
O2B O 0.13192(19) -0.33875(18) 0.34318(10)
C1B C 0.1178(3) -0.2082(3) 0.37047(13)
H1B H 0.21370 -0.09400 0.35490
O1D O -0.01068(18) 0.20275(18) 0.08363(9)
O2D O 0.13192(19) 0.47067(18) 0.15682(10)
C1D C 0.1178(3) 0.3260(3) 0.12953(13)
H1D H 0.21370 0.30770 0.14510
O1F O -0.21343(18) -0.20275(18) 0.58363(9)
O2F O -0.33875(19) -0.47067(18) 0.65682(10)
C1F C -0.2082(3) -0.3260(3) 0.62953(13)
H1F H -0.09400 -0.30770 0.64510
O1H O 0.01068(18) 0.21343(18) 0.58363(9)
O2H O -0.13192(19) 0.33875(18) 0.65682(10)
C1H C -0.1178(3) 0.2082(3) 0.62953(13)
H1H H -0.21370 0.09400 0.64510
Zn1C Zn 0.00000 0.00000 0.00000
Zn2* Zn -0.66670 -0.33330 0.25000
Zn2** Zn 0.33330 -0.33330 0.25000
Zn2F Zn -0.33330 -0.66670 0.75000
Zn2F* Zn -0.33330 0.33330 0.75000
O1G O 0.20275(18) -0.01068(18) 0.58363(9)
O2A* O 0.52933(19) 0.86808(18) 0.34318(10)
O2B* O 0.13192(19) 0.66125(18) 0.34318(10)
O2C O 0.52933(19) 0.66125(18) 0.15682(10)
O2E O 0.33875(19) 0.86808(18) 0.15682(10)
C3A C 0.6808(9) 0.4086(12) 0.2821(4)
N1A N 0.8005(7) 0.3491(7) 0.4332(3)
H2A H 0.80550 0.24870 0.42270
H3A H 0.80000 0.36760 0.49880
H4A H 0.89650 0.44270 0.40540
C3B C 0.5914(9) 0.2722(12) 0.2821(4)
N1B N 0.6509(7) 0.4514(7) 0.4332(3)
H2B H 0.75130 0.55680 0.42270
H3B H 0.63240 0.43240 0.49880
H4B H 0.55730 0.45380 0.40540
C2C C 0.66670 0.33330 0.1033(3)
C3C C 0.6808(9) 0.2722(12) 0.2179(4)
N1C N 0.8005(7) 0.4514(7) 0.0668(3)
H2C H 0.80550 0.55680 0.07730
H3C H 0.80000 0.43240 0.00120
H4C H 0.89650 0.45380 0.09460
C3D C 0.5914(9) 0.3192(12) 0.2179(4)
N1D N 0.6509(7) 0.1995(7) 0.0668(3)
H2D H 0.75130 0.19450 0.07730
H3D H 0.63240 0.20000 0.00120
H4D H 0.55730 0.10350 0.09460
C3E C 0.7278(9) 0.4086(12) 0.2179(4)
N1E N 0.5486(7) 0.3491(7) 0.0668(3)
H2E H 0.44320 0.24870 0.07730
H3E H 0.56760 0.36760 0.00120
H4E H 0.54620 0.44270 0.09460
#END
