
#######################################################################
#
#                 Cambridge Crystallographic Data Centre
#                                CCDC
#
#######################################################################
#
# If this CIF has been generated from an entry in the Cambridge
# Structural Database, then it will include bibliographic, chemical,
# crystal, experimental, refinement or atomic coordinate data resulting
# from the CCDC's data processing and validation procedures.
#
#######################################################################

data_CSD_CIF_AMOBEL01
_audit_creation_date 2016-05-18
_audit_creation_method CSD-ConQuest-V1
_database_code_CSD AMOBEL01
_database_code_depnum_ccdc_archive 'CCDC 1450851'
_chemical_formula_sum 'C120 H240 N24 O144 Zn24'
_chemical_formula_moiety
;
(C72 H72 O144 Zn24 24-)n,12(C4 H14 N2 2+)
;
_journal_coden_Cambridge 1220
_journal_volume 22
_journal_year 2016
_journal_page_first 6199
_journal_name_full 'Chem.-Eur.J. '
loop_
_publ_author_name
"Ran Shang"
"Sa Chen"
"Ke-Li Hu"
"Bing-Wu Wang"
"Zhe-Ming Wang"
"Song Gao"
_chemical_name_systematic
;
catena-[dodecakis(butane-1,4-diammonium) 
doheptacontakis(\m-formato)-tetracosa-zinc]
;
_cell_volume  30052.106
_exptl_crystal_colour 'colorless'
_exptl_crystal_density_diffrn 1.953
_exptl_special_details
;
LT polymorph
233 K

;
_exptl_crystal_description 'hexagonal block'
_diffrn_ambient_temperature 180
_refine_special_details
;
The structure is disordered.

;
#These two values have been output from a single CSD field.
_refine_ls_R_factor_gt 0.0311
_refine_ls_wR_factor_gt 0.0311
_symmetry_cell_setting rhombohedral
_symmetry_space_group_name_H-M 'R -3 c'
_symmetry_Int_Tables_number 167
loop_
_symmetry_equiv_pos_site_id
_symmetry_equiv_pos_as_xyz
1 x,y,z
2 -y,x-y,z
3 -x+y,-x,z
4 y,x,1/2-z
5 x-y,-y,1/2-z
6 -x,-x+y,1/2-z
7 2/3+x,1/3+y,1/3+z
8 2/3-y,1/3+x-y,1/3+z
9 2/3-x+y,1/3-x,1/3+z
10 2/3+y,1/3+x,5/6-z
11 2/3+x-y,1/3-y,5/6-z
12 2/3-x,1/3-x+y,5/6-z
13 1/3+x,2/3+y,2/3+z
14 1/3-y,2/3+x-y,2/3+z
15 1/3-x+y,2/3-x,2/3+z
16 1/3+y,2/3+x,1/6-z
17 1/3+x-y,2/3-y,1/6-z
18 1/3-x,2/3-x+y,1/6-z
19 -x,-y,-z
20 y,-x+y,-z
21 x-y,x,-z
22 -y,-x,-1/2+z
23 -x+y,y,-1/2+z
24 x,x-y,-1/2+z
25 -2/3-x,-1/3-y,-1/3-z
26 -2/3+y,-1/3-x+y,-1/3-z
27 -2/3+x-y,-1/3+x,-1/3-z
28 -2/3-y,-1/3-x,-5/6+z
29 -2/3-x+y,-1/3+y,-5/6+z
30 -2/3+x,-1/3+x-y,-5/6+z
31 -1/3-x,-2/3-y,-2/3-z
32 -1/3+y,-2/3-x+y,-2/3-z
33 -1/3+x-y,-2/3+x,-2/3-z
34 -1/3-y,-2/3-x,-1/6+z
35 -1/3-x+y,-2/3+y,-1/6+z
36 -1/3+x,-2/3+x-y,-1/6+z
_cell_length_a 29.5870(2)
_cell_length_b 29.5870(2)
_cell_length_c 39.6408(3)
_cell_angle_alpha 90
_cell_angle_beta 90
_cell_angle_gamma 120
_cell_formula_units_Z 6
loop_
_atom_type_symbol
_atom_type_radius_bond
C 0.68
H 0.23
N 0.68
O 0.68
Zn 1.22
loop_
_atom_site_label
_atom_site_type_symbol
_atom_site_fract_x
_atom_site_fract_y
_atom_site_fract_z
Zn1 Zn 0.163712(9) 0.163712(9) 0.25000
Zn2 Zn 0.00000 0.00000 0.164006(8)
Zn3 Zn 0.168934(7) 0.330910(7) 0.166446(4)
Zn4 Zn 0.33330 0.16670 0.16670
Zn5 Zn 0.000345(6) 0.168729(7) 0.082424(4)
Zn6 Zn 0.337254(9) 0.33330 0.08330
Zn7 Zn 0.00000 0.00000 0.00000
O1 O 0.13333(5) 0.09654(5) 0.22019(3)
O2 O 0.06848(5) 0.02993(4) 0.19331(3)
O3 O 0.12939(4) 0.19491(4) 0.21820(3)
O4 O 0.13016(4) 0.26294(4) 0.19401(3)
O5 O 0.22849(4) 0.19648(4) 0.21793(3)
O6 O 0.29693(4) 0.20057(4) 0.19241(3)
O7 O 0.03566(4) 0.06941(4) 0.13704(3)
O8 O 0.03217(4) 0.13549(4) 0.11338(3)
O9 O 0.09953(4) 0.30285(4) 0.13818(3)
O10 O 0.03227(4) 0.23506(4) 0.11367(3)
O11 O 0.19901(4) 0.29402(4) 0.13630(3)
O12 O 0.26889(4) 0.29670(4) 0.11346(3)
O13 O 0.37328(4) 0.23710(4) 0.14046(3)
O14 O 0.37206(4) 0.30332(4) 0.11469(3)
O15 O -0.03563(4) 0.10237(4) 0.04989(3)
O16 O -0.03801(4) 0.03198(4) 0.02797(3)
O17 O 0.23930(4) 0.36148(4) 0.19354(3)
O18 O 0.30523(4) 0.43056(4) 0.21809(3)
O19 O 0.26717(4) 0.13750(4) 0.13472(3)
O20 O 0.20180(4) 0.06822(5) 0.11043(3)
O21 O 0.06521(4) 0.20032(4) 0.05027(3)
O22 O 0.13481(4) 0.26401(4) 0.02498(3)
O23 O 0.30217(4) 0.26680(4) 0.05180(3)
O24 O 0.29703(4) 0.19515(4) 0.03026(3)
C1 C 0.08790(6) 0.07219(6) 0.20911(4)
H1 H 0.06620 0.08690 0.21300
C2 C 0.15246(6) 0.24089(6) 0.20701(4)
H2 H 0.18940 0.26010 0.20860
C3 C 0.25958(6) 0.17999(6) 0.21240(4)
H3 H 0.25420 0.14980 0.22430
C4 C 0.01314(6) 0.08821(6) 0.12085(4)
H4 H -0.02140 0.06490 0.11350
C5 C 0.07677(6) 0.25712(6) 0.12624(4)
H5 H 0.09490 0.23820 0.12690
C6 C 0.24336(6) 0.31813(6) 0.12331(4)
H6 H 0.25890 0.35480 0.12070
C7 C 0.35103(6) 0.25723(6) 0.12475(4)
H7 H 0.31490 0.23550 0.12010
C8 C -0.01434(6) 0.07637(6) 0.04090(4)
H8 H 0.02220 0.09170 0.04420
C9 C 0.25809(6) 0.40367(6) 0.20916(4)
H9 H 0.23530 0.41650 0.21470
C10 C 0.24706(6) 0.09279(6) 0.12170(4)
H10 H 0.26790 0.07670 0.12040
C11 C 0.09863(6) 0.24767(6) 0.04609(4)
H11 H 0.09620 0.27260 0.05990
C12 C 0.32089(6) 0.23793(6) 0.04561(4)
H12 H 0.35540 0.24910 0.05300
N1 N 0.35257(5) 0.37511(5) 0.18975(3)
H13 H 0.34530 0.37610 0.16750
H14 H 0.38770 0.39080 0.19260
H15 H 0.33990 0.39220 0.20210
C13 C 0.32758(6) 0.31967(7) 0.20113(4)
H16 H 0.34090 0.30110 0.18720
H17 H 0.28940 0.30270 0.19750
C14 C 0.33789(6) 0.31463(6) 0.23789(4)
H18 H 0.37610 0.33230 0.24150
H19 H 0.32320 0.27720 0.24330
N2 N 0.20988(5) 0.19142(5) 0.14285(3)
H20 H 0.21110 0.20090 0.16480
H21 H 0.22690 0.22050 0.12980
H22 H 0.22550 0.17180 0.14060
N3 N 0.18491(5) 0.13980(5) 0.02261(3)
H23 H 0.17650 0.13020 0.00070
H24 H 0.17290 0.11070 0.03570
H25 H 0.22020 0.15940 0.02470
C15 C 0.15406(7) 0.16017(7) 0.13172(4)
H26 H 0.13700 0.18140 0.13460
H27 H 0.13560 0.12890 0.14630
C16 C 0.14909(6) 0.14309(6) 0.09530(4)
H28 H 0.11170 0.12040 0.08990
H29 H 0.16640 0.12200 0.09250
C17 C 0.17293(6) 0.18845(6) 0.07021(4)
H30 H 0.15970 0.21260 0.07530
H31 H 0.21130 0.20800 0.07320
C18 C 0.16058(6) 0.17103(6) 0.03377(4)
H32 H 0.12230 0.14980 0.03100
H33 H 0.17320 0.20220 0.01910
N4 N 0.12349(8) -0.02483(8) 0.18963(5)
H34 H 0.12370 -0.03330 0.16760
H35 H 0.10750 -0.00550 0.19160
H36 H 0.10590 -0.05450 0.20210
C19 C 0.1741(2) 0.0038(3) 0.20119(11)
H37 H 0.19260 0.03480 0.18650
H38 H 0.19090 -0.01760 0.19780
C20 C 0.18405(9) 0.02276(9) 0.23761(6)
H39 H 0.16810 0.04480 0.24170
H40 H 0.22210 0.04450 0.24140
N5? N 0.1516(11) 0.123(1) 0.1437(7)
H41? H 0.14420 0.12340 0.16600
H42? H 0.17240 0.10870 0.14130
H43? H 0.12150 0.10370 0.13210
N6? N 0.18491(5) 0.13980(5) 0.02261(3)
H44? H 0.19490 0.14720 0.00060
H45? H 0.16130 0.10520 0.02480
H46? H 0.21330 0.14800 0.03560
C21? C 0.1792(15) 0.1773(11) 0.1305(5)
H47? H 0.21150 0.19830 0.14370
H48? H 0.15660 0.19290 0.13350
C22? C 0.1933(10) 0.1799(13) 0.0933(4)
H49? H 0.21180 0.16030 0.08960
H50? H 0.21710 0.21670 0.08680
C23? C 0.1444(10) 0.1571(13) 0.0710(4)
H51? H 0.12190 0.17140 0.07790
H52? H 0.12420 0.11870 0.07360
C24? C 0.16058(6) 0.17103(6) 0.03377(4)
H53? H 0.12970 0.16250 0.01970
H54? H 0.18590 0.20880 0.03150
N7? N 0.1828(4) 0.0454(3) 0.1891(2)
H55? H 0.19190 0.05020 0.16690
H56? H 0.20590 0.07390 0.20110
H57? H 0.15020 0.04070 0.19160
C25? C 0.1836(6) 0.0023(5) 0.2008(3)
H58? H 0.21910 0.00830 0.19620
H59? H 0.15950 -0.02710 0.18620
C26? C 0.1706(3) -0.0172(3) 0.23726(16)
H60? H 0.13210 -0.03810 0.23910
H61? H 0.18410 -0.04140 0.24100
N8? N 0.1802(4) 0.0368(3) 0.1861(2)
H62? H 0.18610 0.03350 0.16390
H63? H 0.21130 0.05510 0.19700
H64? H 0.16200 0.05390 0.18790
C27? C 0.1497(5) -0.0160(3) 0.2015(2)
H65? H 0.11620 -0.03630 0.18920
H66? H 0.16940 -0.03480 0.19930
C28? C 0.1392(3) -0.0123(3) 0.23715(15)
H67? H 0.10250 -0.02030 0.23550
H68? H 0.13630 -0.04520 0.24550
Zn1A Zn -0.163712(9) 0.000000(9) 0.25000
Zn3A Zn -0.330910(7) -0.161976(7) 0.166446(4)
Zn4A Zn -0.16670 0.16660 0.16670
Zn5A Zn -0.168729(6) -0.168384(7) 0.082424(4)
Zn6A Zn -0.333300(9) 0.00395 0.08330
O1A O -0.09654(5) 0.03679(5) 0.22019(3)
O2A O -0.02993(5) 0.03855(4) 0.19331(3)
O3A O -0.19491(4) -0.06552(4) 0.21820(3)
O4A O -0.26294(4) -0.13278(4) 0.19401(3)
O5A O -0.19648(4) 0.03201(4) 0.21793(3)
O6A O -0.20057(4) 0.09636(4) 0.19241(3)
O7A O -0.06941(4) -0.03375(4) 0.13704(3)
O8A O -0.13549(4) -0.10332(4) 0.11338(3)
O9A O -0.30285(4) -0.20332(4) 0.13818(3)
O10A O -0.23506(4) -0.20279(4) 0.11367(3)
O11A O -0.29402(4) -0.09501(4) 0.13630(3)
O12A O -0.29670(4) -0.02781(4) 0.11346(3)
O13A O -0.23710(4) 0.13618(4) 0.14046(3)
O14A O -0.30332(4) 0.06874(4) 0.11469(3)
O15A O -0.10237(4) -0.13800(4) 0.04989(3)
O16A O -0.03198(4) -0.06999(4) 0.02797(3)
O17A O -0.36148(4) -0.12218(4) 0.19354(3)
O18A O -0.43056(4) -0.12533(4) 0.21809(3)
O19A O -0.13750(4) 0.12967(4) 0.13472(3)
O20A O -0.06822(4) 0.13358(5) 0.11043(3)
O21A O -0.20032(4) -0.13511(4) 0.05027(3)
O22A O -0.26401(4) -0.12920(4) 0.02498(3)
O23A O -0.26680(4) 0.03537(4) 0.05180(3)
O24A O -0.19515(4) 0.10188(4) 0.03026(3)
C1A C -0.07219(6) 0.01571(6) 0.20911(4)
H1A H -0.08690 -0.02070 0.21300
C2A C -0.24089(6) -0.08843(6) 0.20701(4)
H2A H -0.26010 -0.07070 0.20860
C3A C -0.17999(6) 0.07959(6) 0.21240(4)
H3A H -0.14980 0.10440 0.22430
C4A C -0.08821(6) -0.07507(6) 0.12085(4)
H4A H -0.06490 -0.08630 0.11350
C5A C -0.25712(6) -0.18035(6) 0.12624(4)
H5A H -0.23820 -0.14330 0.12690
C6A C -0.31813(6) -0.07477(6) 0.12331(4)
H6A H -0.35480 -0.09590 0.12070
C7A C -0.25723(6) 0.09380(6) 0.12475(4)
H7A H -0.23550 0.07940 0.12010
C8A C -0.07637(6) -0.09071(6) 0.04090(4)
H8A H -0.09170 -0.06950 0.04420
C9A C -0.40367(6) -0.14558(6) 0.20916(4)
H9A H -0.41650 -0.18120 0.21470
C10A C -0.09279(6) 0.15427(6) 0.12170(4)
H10A H -0.07670 0.19120 0.12040
C11A C -0.24767(6) -0.14904(6) 0.04609(4)
H11A H -0.27260 -0.17640 0.05990
C12A C -0.23793(6) 0.08296(6) 0.04561(4)
H12A H -0.24910 0.10630 0.05300
Zn1B Zn 0.000000(9) -0.163712(9) 0.25000
Zn3B Zn 0.161976(7) -0.168934(7) 0.166446(4)
Zn4B Zn -0.16660 -0.33330 0.16670
Zn5B Zn 0.168384(6) -0.000345(7) 0.082424(4)
Zn6B Zn -0.003954(9) -0.33725 0.08330
O1B O -0.03679(5) -0.13333(5) 0.22019(3)
O2B O -0.03855(5) -0.06848(4) 0.19331(3)
O3B O 0.06552(4) -0.12939(4) 0.21820(3)
O4B O 0.13278(4) -0.13016(4) 0.19401(3)
O5B O -0.03201(4) -0.22849(4) 0.21793(3)
O6B O -0.09636(4) -0.29693(4) 0.19241(3)
O7B O 0.03375(4) -0.03566(4) 0.13704(3)
O8B O 0.10332(4) -0.03217(4) 0.11338(3)
O9B O 0.20332(4) -0.09953(4) 0.13818(3)
O10B O 0.20279(4) -0.03227(4) 0.11367(3)
O11B O 0.09501(4) -0.19901(4) 0.13630(3)
O12B O 0.02781(4) -0.26889(4) 0.11346(3)
O13B O -0.13618(4) -0.37328(4) 0.14046(3)
O14B O -0.06874(4) -0.37206(4) 0.11469(3)
O15B O 0.13800(4) 0.03563(4) 0.04989(3)
O16B O 0.06999(4) 0.03801(4) 0.02797(3)
O17B O 0.12218(4) -0.23930(4) 0.19354(3)
O18B O 0.12533(4) -0.30523(4) 0.21809(3)
O19B O -0.12967(4) -0.26717(4) 0.13472(3)
O20B O -0.13358(4) -0.20180(5) 0.11043(3)
O21B O 0.13511(4) -0.06521(4) 0.05027(3)
O22B O 0.12920(4) -0.13481(4) 0.02498(3)
O23B O -0.03537(4) -0.30217(4) 0.05180(3)
O24B O -0.10188(4) -0.29703(4) 0.03026(3)
C1B C -0.01571(6) -0.08790(6) 0.20911(4)
H1B H 0.02070 -0.06620 0.21300
C2B C 0.08843(6) -0.15246(6) 0.20701(4)
H2B H 0.07070 -0.18940 0.20860
C3B C -0.07959(6) -0.25958(6) 0.21240(4)
H3B H -0.10440 -0.25420 0.22430
C4B C 0.07507(6) -0.01314(6) 0.12085(4)
H4B H 0.08630 0.02140 0.11350
C5B C 0.18035(6) -0.07677(6) 0.12624(4)
H5B H 0.14330 -0.09490 0.12690
C6B C 0.07477(6) -0.24336(6) 0.12331(4)
H6B H 0.09590 -0.25890 0.12070
C7B C -0.09380(6) -0.35103(6) 0.12475(4)
H7B H -0.07940 -0.31490 0.12010
C8B C 0.09071(6) 0.01434(6) 0.04090(4)
H8B H 0.06950 -0.02220 0.04420
C9B C 0.14558(6) -0.25809(6) 0.20916(4)
H9B H 0.18120 -0.23530 0.21470
C10B C -0.15427(6) -0.24706(6) 0.12170(4)
H10B H -0.19120 -0.26790 0.12040
C11B C 0.14904(6) -0.09863(6) 0.04609(4)
H11B H 0.17640 -0.09620 0.05990
C12B C -0.08296(6) -0.32089(6) 0.04561(4)
H12B H -0.10630 -0.35540 0.05300
Zn2C Zn 0.00000 0.00000 0.335994(8)
Zn3C Zn 0.330910(7) 0.168934(7) 0.333554(4)
Zn5C Zn 0.168729(6) 0.000345(7) 0.417576(4)
O1C O 0.09654(5) 0.13333(5) 0.27981(3)
O2C O 0.02993(5) 0.06848(4) 0.30669(3)
O3C O 0.19491(4) 0.12939(4) 0.28180(3)
O4C O 0.26294(4) 0.13016(4) 0.30599(3)
O5C O 0.19648(4) 0.22849(4) 0.28207(3)
O6C O 0.20057(4) 0.29693(4) 0.30759(3)
O7C O 0.06941(4) 0.03566(4) 0.36296(3)
O8C O 0.13549(4) 0.03217(4) 0.38662(3)
O9C O 0.30285(4) 0.09953(4) 0.36182(3)
O10C O 0.23506(4) 0.03227(4) 0.38633(3)
O11C O 0.29402(4) 0.19901(4) 0.36370(3)
O12C O 0.29670(4) 0.26889(4) 0.38654(3)
O15C O 0.10237(4) -0.03563(4) 0.45011(3)
O16C O 0.03198(4) -0.03801(4) 0.47203(3)
O17C O 0.36148(4) 0.23930(4) 0.30646(3)
O18C O 0.43056(4) 0.30523(4) 0.28191(3)
O19C O 0.13750(4) 0.26717(4) 0.36528(3)
O20C O 0.06822(4) 0.20180(5) 0.38957(3)
O21C O 0.20032(4) 0.06521(4) 0.44973(3)
O22C O 0.26401(4) 0.13481(4) 0.47502(3)
C1C C 0.07219(6) 0.08790(6) 0.29089(4)
H1C H 0.08690 0.06620 0.28700
C2C C 0.24089(6) 0.15246(6) 0.29299(4)
H2C H 0.26010 0.18940 0.29140
C3C C 0.17999(6) 0.25958(6) 0.28760(4)
H3C H 0.14980 0.25420 0.27570
C4C C 0.08821(6) 0.01314(6) 0.37915(4)
H4C H 0.06490 -0.02140 0.38650
C5C C 0.25712(6) 0.07677(6) 0.37376(4)
H5C H 0.23820 0.09490 0.37310
C6C C 0.31813(6) 0.24336(6) 0.37669(4)
H6C H 0.35480 0.25890 0.37930
C8C C 0.07637(6) -0.01434(6) 0.45910(4)
H8C H 0.09170 0.02220 0.45580
C9C C 0.40367(6) 0.25809(6) 0.29084(4)
H9C H 0.41650 0.23530 0.28530
C10C C 0.09279(6) 0.24706(6) 0.37830(4)
H10C H 0.07670 0.26790 0.37960
C11C C 0.24767(6) 0.09863(6) 0.45391(4)
H11C H 0.27260 0.09620 0.44010
Zn3D Zn -0.161976(7) -0.330910(7) 0.333554(4)
Zn5D Zn -0.168384(6) -0.168729(7) 0.417576(4)
O1D O 0.03679(5) -0.09654(5) 0.27981(3)
O2D O 0.03855(5) -0.02993(4) 0.30669(3)
O3D O -0.06552(4) -0.19491(4) 0.28180(3)
O4D O -0.13278(4) -0.26294(4) 0.30599(3)
O5D O 0.03201(4) -0.19648(4) 0.28207(3)
O6D O 0.09636(4) -0.20057(4) 0.30759(3)
O7D O -0.03375(4) -0.06941(4) 0.36296(3)
O8D O -0.10332(4) -0.13549(4) 0.38662(3)
O9D O -0.20332(4) -0.30285(4) 0.36182(3)
O10D O -0.20279(4) -0.23506(4) 0.38633(3)
O11D O -0.09501(4) -0.29402(4) 0.36370(3)
O12D O -0.02781(4) -0.29670(4) 0.38654(3)
O15D O -0.13800(4) -0.10237(4) 0.45011(3)
O16D O -0.06999(4) -0.03198(4) 0.47203(3)
O17D O -0.12218(4) -0.36148(4) 0.30646(3)
O18D O -0.12533(4) -0.43056(4) 0.28191(3)
O19D O 0.12967(4) -0.13750(4) 0.36528(3)
O20D O 0.13358(4) -0.06822(5) 0.38957(3)
O21D O -0.13511(4) -0.20032(4) 0.44973(3)
O22D O -0.12920(4) -0.26401(4) 0.47502(3)
C1D C 0.01571(6) -0.07219(6) 0.29089(4)
H1D H -0.02070 -0.08690 0.28700
C2D C -0.08843(6) -0.24089(6) 0.29299(4)
H2D H -0.07070 -0.26010 0.29140
C3D C 0.07959(6) -0.17999(6) 0.28760(4)
H3D H 0.10440 -0.14980 0.27570
C4D C -0.07507(6) -0.08821(6) 0.37915(4)
H4D H -0.08630 -0.06490 0.38650
C5D C -0.18035(6) -0.25712(6) 0.37376(4)
H5D H -0.14330 -0.23820 0.37310
C6D C -0.07477(6) -0.31813(6) 0.37669(4)
H6D H -0.09590 -0.35480 0.37930
C8D C -0.09071(6) -0.07637(6) 0.45910(4)
H8D H -0.06950 -0.09170 0.45580
C9D C -0.14558(6) -0.40367(6) 0.29084(4)
H9D H -0.18120 -0.41650 0.28530
C10D C 0.15427(6) -0.09279(6) 0.37830(4)
H10D H 0.19120 -0.07670 0.37960
C11D C -0.14904(6) -0.24767(6) 0.45391(4)
H11D H -0.17640 -0.27260 0.44010
Zn3E Zn -0.168934(7) 0.161976(7) 0.333554(4)
Zn5E Zn -0.000345(6) 0.168384(7) 0.417576(4)
O1E O -0.13333(5) -0.03679(5) 0.27981(3)
O2E O -0.06848(5) -0.03855(4) 0.30669(3)
O3E O -0.12939(4) 0.06552(4) 0.28180(3)
O4E O -0.13016(4) 0.13278(4) 0.30599(3)
O5E O -0.22849(4) -0.03201(4) 0.28207(3)
O6E O -0.29693(4) -0.09636(4) 0.30759(3)
O7E O -0.03566(4) 0.03375(4) 0.36296(3)
O8E O -0.03217(4) 0.10332(4) 0.38662(3)
O9E O -0.09953(4) 0.20332(4) 0.36182(3)
O10E O -0.03227(4) 0.20279(4) 0.38633(3)
O11E O -0.19901(4) 0.09501(4) 0.36370(3)
O12E O -0.26889(4) 0.02781(4) 0.38654(3)
O15E O 0.03563(4) 0.13800(4) 0.45011(3)
O16E O 0.03801(4) 0.06999(4) 0.47203(3)
O17E O -0.23930(4) 0.12218(4) 0.30646(3)
O18E O -0.30523(4) 0.12533(4) 0.28191(3)
O19E O -0.26717(4) -0.12967(4) 0.36528(3)
O20E O -0.20180(4) -0.13358(5) 0.38957(3)
O21E O -0.06521(4) 0.13511(4) 0.44973(3)
O22E O -0.13481(4) 0.12920(4) 0.47502(3)
C1E C -0.08790(6) -0.01571(6) 0.29089(4)
H1E H -0.06620 0.02070 0.28700
C2E C -0.15246(6) 0.08843(6) 0.29299(4)
H2E H -0.18940 0.07070 0.29140
C3E C -0.25958(6) -0.07959(6) 0.28760(4)
H3E H -0.25420 -0.10440 0.27570
C4E C -0.01314(6) 0.07507(6) 0.37915(4)
H4E H 0.02140 0.08630 0.38650
C5E C -0.07677(6) 0.18035(6) 0.37376(4)
H5E H -0.09490 0.14330 0.37310
C6E C -0.24336(6) 0.07477(6) 0.37669(4)
H6E H -0.25890 0.09590 0.37930
C8E C 0.01434(6) 0.09071(6) 0.45910(4)
H8E H -0.02220 0.06950 0.45580
C9E C -0.25809(6) 0.14558(6) 0.29084(4)
H9E H -0.23530 0.18120 0.28530
C10E C -0.24706(6) -0.15427(6) 0.37830(4)
H10E H -0.26790 -0.19120 0.37960
C11E C -0.09863(6) 0.14904(6) 0.45391(4)
H11E H -0.09620 0.17640 0.44010
O13DA O 0.293387(40) 0.096233(40) 0.192873(30)
O14DA O 0.294607(40) 0.030013(40) 0.218643(30)
C7DA C 0.315637(60) 0.076103(60) 0.208583(40)
H7DA H 0.35177 0.09783 0.21323
O23AA O 0.066533(40) 0.364497(40) 0.218467(30)
O24AA O 0.138183(40) 0.369637(40) 0.196927(30)
C12AA C 0.095403(60) 0.345777(60) 0.212277(40)
H12AA H 0.08423 0.31127 0.21967
O13P O 0.469513(40) 0.429567(40) 0.026207(30)
O14P O 0.402073(40) 0.363347(40) 0.051977(30)
C7P C 0.427133(60) 0.409437(60) 0.041917(40)
H7P H 0.41273 0.43117 0.04657
O23P O 0.368703(40) 0.399867(40) 0.114867(30)
O24P O 0.435213(40) 0.471517(40) 0.136407(30)
C12P C 0.416293(60) 0.428737(60) 0.121057(40)
H12P H 0.43963 0.41757 0.11367
O13EA O -0.096233(40) 0.197153(40) 0.192873(30)
O14EA O -0.030013(40) 0.264593(40) 0.218643(30)
C7EA C -0.076103(60) 0.239533(60) 0.208583(40)
H7EA H -0.09783 0.25393 0.21323
O23CA O -0.364497(40) -0.297963(40) 0.218467(30)
O24CA O -0.369637(40) -0.231453(40) 0.196927(30)
C12CA C -0.345777(60) -0.250373(60) 0.212277(40)
H12CA H -0.31127 -0.22703 0.21967
Zn3F Zn -0.164399(7) -0.335757(7) 0.499779(4)
Zn3G Zn 0.335757(7) 0.171357(7) 0.499779(4)
Zn3H Zn -0.171357(7) 0.164399(7) 0.499779(4)
Zn3O Zn -0.335757(7) -0.164399(7) 0.000221(4)
Zn3P Zn 0.171357(7) 0.335757(7) 0.000221(4)
Zn3Q Zn 0.164399(7) -0.171357(7) 0.000221(4)
Zn3FA Zn 0.504691(7) 0.502267(7) 0.166887(4)
Zn3GA Zn 0.335757(7) 0.164399(7) -0.000221(4)
Zn3HA Zn -0.171357(7) -0.335757(7) -0.000221(4)
Zn3IA Zn -0.164399(7) 0.171357(7) -0.000221(4)
Zn4C Zn 0.16670 0.33330 0.33330
Zn4D Zn 0.16660 -0.16670 0.33330
Zn4E Zn -0.33330 -0.16660 0.33330
Zn4P Zn 0.49993 0.49997 -0.00003
Zn5DA Zn -0.333678(6) 0.164604(7) 0.250909(4)
Zn5EA Zn -0.164604(6) -0.498283(7) 0.250909(4)
Zn5FA Zn 0.498283(6) 0.333678(7) 0.250909(4)
Zn5AA Zn 0.164604(6) -0.333678(7) 0.249091(4)
Zn5BA Zn -0.498283(6) -0.164604(7) 0.249091(4)
Zn5CA Zn 0.333678(6) 0.498283(7) 0.249091(4)
Zn6C Zn 0.333300(9) 0.33725 0.41670
Zn6D Zn 0.003954(9) -0.33330 0.41670
Zn6E Zn -0.337254(9) -0.00395 0.41670
Zn6DA Zn 0.329413(9) 0.00003 0.25003
Zn6EA Zn -0.000033(9) 0.32938 0.25003
Zn6FA Zn -0.329379(9) -0.32941 0.25003
Zn7C Zn 0.00000 0.00000 0.50000
O6DA O 0.369737(40) 0.132763(40) 0.140923(30)
O6EA O -0.132763(40) 0.236973(40) 0.140923(30)
O6FA O -0.236973(40) -0.369737(40) 0.140923(30)
O12O O -0.369967(40) -0.064443(40) 0.053207(30)
O12P O 0.305523(40) 0.369967(40) 0.053207(30)
O12Q O 0.064443(40) -0.305523(40) 0.053207(30)
O13FA O -0.197153(40) -0.293387(40) 0.192873(30)
O14O O -0.363347(40) 0.038727(40) 0.051977(30)
O14Q O -0.038727(40) -0.402073(40) 0.051977(30)
O16R O 0.03801(4) -0.03198(4) -0.02797(3)
O16S O 0.03198(4) 0.06999(4) -0.02797(3)
O16T O -0.06999(4) -0.03801(4) -0.02797(3)
O18GA O 0.236107(40) 0.028103(40) 0.051423(30)
O18HA O -0.208003(40) -0.236107(40) 0.051423(30)
O18IA O -0.028103(40) 0.208003(40) 0.051423(30)
O18X O 0.028103(40) 0.236107(40) 0.448577(30)
O18Y O -0.236107(40) -0.208003(40) 0.448577(30)
O18Z O 0.208003(40) -0.028103(40) 0.448577(30)
O19DA O 0.399497(40) 0.195833(40) 0.198613(30)
O19EA O -0.195833(40) 0.203663(40) 0.198613(30)
O19FA O -0.203663(40) -0.399497(40) 0.198613(30)
O22F O -0.198523(40) -0.402657(40) 0.358313(30)
O22G O 0.402657(40) 0.204133(40) 0.358313(30)
O22H O -0.204133(40) 0.198523(40) 0.358313(30)
O22O O -0.402657(40) -0.198523(40) 0.141687(30)
O22P O 0.204133(40) 0.402657(40) 0.141687(30)
O22Q O 0.198523(40) -0.204133(40) 0.141687(30)
O23O O -0.399867(40) -0.031163(40) 0.114867(30)
O23Q O 0.031163(40) -0.368703(40) 0.114867(30)
O24DA O 0.369637(40) 0.138183(40) 0.303073(30)
O24EA O -0.138183(40) 0.231453(40) 0.303073(30)
O24FA O -0.231453(40) -0.369637(40) 0.303073(30)
O24BA O 0.231453(40) -0.138183(40) 0.196927(30)
N1C N 0.37511(5) 0.35257(5) 0.31025(3)
H13C H 0.37610 0.34530 0.33250
H14C H 0.39080 0.38770 0.30740
H15C H 0.39220 0.33990 0.29790
C13C C 0.31967(6) 0.32758(7) 0.29887(4)
H16C H 0.30110 0.34090 0.31280
H17C H 0.30270 0.28940 0.30250
C14C C 0.31463(6) 0.33789(6) 0.26211(4)
H18C H 0.33230 0.37610 0.25850
H19C H 0.27720 0.32320 0.25670
N4D N 0.14832(8) 0.02483(8) 0.31037(5)
H34D H 0.15700 0.03330 0.33240
H35D H 0.11300 0.00550 0.30840
H36D H 0.16040 0.05450 0.29790
C19D C 0.1703(2) -0.0038(3) 0.29881(11)
H37D H 0.15780 -0.03480 0.31350
H38D H 0.20850 0.01760 0.30220
C20D C 0.16129(9) -0.02276(9) 0.26239(6)
H39D H 0.12330 -0.04480 0.25830
H40D H 0.17760 -0.04450 0.25860
#END
