
#######################################################################
#
#                 Cambridge Crystallographic Data Centre
#                                CCDC
#
#######################################################################
#
# If this CIF has been generated from an entry in the Cambridge
# Structural Database, then it will include bibliographic, chemical,
# crystal, experimental, refinement or atomic coordinate data resulting
# from the CCDC's data processing and validation procedures.
#
#######################################################################

data_CSD_CIF_AMOMUM
_audit_creation_date 2016-05-18
_audit_creation_method CSD-ConQuest-V1
_database_code_CSD AMOMUM
_database_code_depnum_ccdc_archive 'CCDC 1450839'
_chemical_formula_sum 'C10 H20 Fe2 N2 O12'
_chemical_formula_moiety
;
(C6 H6 Fe2 O12 2-)n,C4 H14 N2 2+
;
_journal_coden_Cambridge 1220
_journal_volume 22
_journal_year 2016
_journal_page_first 6199
_journal_name_full 'Chem.-Eur.J. '
loop_
_publ_author_name
"Ran Shang"
"Sa Chen"
"Ke-Li Hu"
"Bing-Wu Wang"
"Zhe-Ming Wang"
"Song Gao"
_chemical_name_systematic
;
catena-[butane-1,4-diaminium hexakis(\m-formato)-di-iron]
;
_cell_volume    849.898
_exptl_crystal_colour 'pale green'
_exptl_crystal_density_diffrn 1.844
_exptl_special_details
;
low-temperature polymorph
231 K

;
_exptl_crystal_description 'block'
_diffrn_ambient_temperature 100
_refine_special_details
;
C3,N1 disordered by symmetry over three configurations with occupancy 0.33.

;
#These two values have been output from a single CSD field.
_refine_ls_R_factor_gt 0.0271
_refine_ls_wR_factor_gt 0.0271
_symmetry_cell_setting hexagonal
_symmetry_space_group_name_H-M 'P -3 1 c'
_symmetry_Int_Tables_number 163
loop_
_symmetry_equiv_pos_site_id
_symmetry_equiv_pos_as_xyz
1 x,y,z
2 -y,x-y,z
3 -x+y,-x,z
4 -y,-x,1/2-z
5 -x+y,y,1/2-z
6 x,x-y,1/2-z
7 -x,-y,-z
8 y,-x+y,-z
9 x-y,x,-z
10 y,x,-1/2+z
11 x-y,-y,-1/2+z
12 -x,-x+y,-1/2+z
_cell_length_a 8.5905(3)
_cell_length_b 8.5905(3)
_cell_length_c 13.2984(5)
_cell_angle_alpha 90
_cell_angle_beta 90
_cell_angle_gamma 120
_cell_formula_units_Z 2
loop_
_atom_type_symbol
_atom_type_radius_bond
C 0.68
H 0.23
Fe 1.52
N 0.68
O 0.68
loop_
_atom_site_label
_atom_site_type_symbol
_atom_site_fract_x
_atom_site_fract_y
_atom_site_fract_z
Fe1 Fe 0.00000 0.00000 0.50000
Fe2 Fe 0.33330 0.66670 0.25000
O1 O 0.21507(19) 0.20128(19) 0.41471(11)
O2 O 0.3417(2) 0.4716(2) 0.34470(11)
C1 C 0.2096(3) 0.3257(3) 0.37044(14)
H1 H 0.09400 0.30810 0.35470
C2 C 0.66670 0.33330 0.3977(4)
C3 C 0.7253(9) 0.3106(10) 0.2846(4)
N1 N 0.5477(6) 0.2002(6) 0.4308(3)
H2 H 0.44190 0.19700 0.41860
H3 H 0.56290 0.19660 0.49830
H4 H 0.54600 0.10390 0.40110
O1A O -0.20128(19) 0.01379(19) 0.41471(11)
O2A O -0.4716(2) -0.1299(2) 0.34470(11)
C1A C -0.3257(3) -0.1161(3) 0.37044(14)
H1A H -0.30810 -0.21410 0.35470
O1B O -0.01379(19) -0.21507(19) 0.41471(11)
O2B O 0.1299(2) -0.3417(2) 0.34470(11)
C1B C 0.1161(3) -0.2096(3) 0.37044(14)
H1B H 0.21410 -0.09400 0.35470
O1D O -0.01379(19) 0.20128(19) 0.08529(11)
O2D O 0.1299(2) 0.4716(2) 0.15530(11)
C1D C 0.1161(3) 0.3257(3) 0.12956(14)
H1D H 0.21410 0.30810 0.14530
O1F O -0.21507(19) -0.20128(19) 0.58529(11)
O2F O -0.3417(2) -0.4716(2) 0.65530(11)
C1F C -0.2096(3) -0.3257(3) 0.62956(14)
H1F H -0.09400 -0.30810 0.64530
O1H O 0.01379(19) 0.21507(19) 0.58529(11)
O2H O -0.1299(2) 0.3417(2) 0.65530(11)
C1H C -0.1161(3) 0.2096(3) 0.62956(14)
H1H H -0.21410 0.09400 0.64530
Fe1C Fe 0.00000 0.00000 0.00000
Fe2* Fe -0.66670 -0.33330 0.25000
Fe2** Fe 0.33330 -0.33330 0.25000
Fe2F Fe -0.33330 -0.66670 0.75000
Fe2F* Fe -0.33330 0.33330 0.75000
O1G O 0.20128(19) -0.01379(19) 0.58529(11)
O2A* O 0.5284(2) 0.8701(2) 0.34470(11)
O2B* O 0.1299(2) 0.6583(2) 0.34470(11)
O2C O 0.5284(2) 0.6583(2) 0.15530(11)
O2E O 0.3417(2) 0.8701(2) 0.15530(11)
C3A C 0.6894(9) 0.4147(10) 0.2846(4)
N1A N 0.7998(6) 0.3475(6) 0.4308(3)
H2A H 0.80300 0.24490 0.41860
H3A H 0.80340 0.36630 0.49830
H4A H 0.89610 0.44210 0.40110
C3B C 0.5853(9) 0.2747(10) 0.2846(4)
N1B N 0.6525(6) 0.4523(6) 0.4308(3)
H2B H 0.75510 0.55810 0.41860
H3B H 0.63370 0.43710 0.49830
H4B H 0.55790 0.45400 0.40110
C2C C 0.66670 0.33330 0.1023(4)
C3C C 0.6894(9) 0.2747(10) 0.2154(4)
N1C N 0.7998(6) 0.4523(6) 0.0692(3)
H2C H 0.80300 0.55810 0.08140
H3C H 0.80340 0.43710 0.00170
H4C H 0.89610 0.45400 0.09890
C3D C 0.5853(9) 0.3106(10) 0.2154(4)
N1D N 0.6525(6) 0.2002(6) 0.0692(3)
H2D H 0.75510 0.19700 0.08140
H3D H 0.63370 0.19660 0.00170
H4D H 0.55790 0.10390 0.09890
C3E C 0.7253(9) 0.4147(10) 0.2154(4)
N1E N 0.5477(6) 0.3475(6) 0.0692(3)
H2E H 0.44190 0.24490 0.08140
H3E H 0.56290 0.36630 0.00170
H4E H 0.54600 0.44210 0.09890
#END
