
#######################################################################
#
#                 Cambridge Crystallographic Data Centre
#                                CCDC
#
#######################################################################
#
# If this CIF has been generated from an entry in the Cambridge
# Structural Database, then it will include bibliographic, chemical,
# crystal, experimental, refinement or atomic coordinate data resulting
# from the CCDC's data processing and validation procedures.
#
#######################################################################

data_CSD_CIF_AMOYOT
_audit_creation_date 2021-02-21
_audit_creation_method CSD-ConQuest-V1
_database_code_CSD AMOYOT
_database_code_depnum_ccdc_archive 'CCDC 1968373'
_chemical_formula_sum 'C92 H103 Ag2 Co10 N23 O58'
_chemical_formula_moiety
;
(C76 H63 Co10 N15 O50 2-)n,8(H2 O1),2(Ag1 1+),8(C2 H3 N1)
;
_journal_coden_Cambridge 1220
_journal_volume 27
_journal_year 2021
_journal_page_first 5011
_journal_name_full 'Chem.-Eur.J. '
loop_
_publ_author_name
"Wenjuan Xu"
"Yujie Zhao"
"Huarui Wang"
"Hongfei Wang"
"Fangfang Pan"
"Ruixue Xu"
"Hongwei Hou"
_chemical_name_systematic
;
catena-[di-silver 
tetrakis(\m-5,5'-(1H-1,2,4-triazole-3,5-diyl)bis(benzene-1,3-dicarboxylato))-b
is(\m-hydroxo)-bis(\m-oxo)-(\m-pyrazin-2-amine)-tetradeca-aqua-deca-cobalt(ii)
 octahydrate acetonitrile solvate ]
;
_cell_volume  17564.840
_exptl_crystal_colour 'pink'
_exptl_crystal_description 'block'
_diffrn_ambient_temperature 113
_refine_special_details
;
Ag2 and Ag3 disordered over two sites with occupancies 0.25:0.25; O3B and O3 
and N4 disordered over three sites with occupancies 0.5:0.5:0.125; Disordered 
water and acetonitrile solvent molecules were not modelled and the disordered 
density was taken into account using the SQUEEZE/PLATON procedure.
;
#These two values have been output from a single CSD field.
_refine_ls_R_factor_gt 0.1191
_refine_ls_wR_factor_gt 0.1191
_symmetry_cell_setting hexagonal
_symmetry_space_group_name_H-M 'P 6/m m m'
_symmetry_Int_Tables_number 191
loop_
_symmetry_equiv_pos_site_id
_symmetry_equiv_pos_as_xyz
1 x,y,z
2 -y,x-y,z
3 -x+y,-x,z
4 -x,-y,z
5 y,-x+y,z
6 x-y,x,z
7 y,x,-z
8 x-y,-y,-z
9 -x,-x+y,-z
10 -y,-x,-z
11 -x+y,y,-z
12 x,x-y,-z
13 -x,-y,-z
14 y,-x+y,-z
15 x-y,x,-z
16 x,y,-z
17 -y,x-y,-z
18 -x+y,-x,-z
19 -y,-x,z
20 -x+y,y,z
21 x,x-y,z
22 y,x,z
23 x-y,-y,z
24 -x,-x+y,z
_cell_length_a 34.120(2)
_cell_length_b 34.120(2)
_cell_length_c 17.4219(6)
_cell_angle_alpha 90
_cell_angle_beta 90
_cell_angle_gamma 120
_cell_formula_units_Z 3
loop_
_atom_type_symbol
_atom_type_radius_bond
C 0.68
H 0.23
Ag 1.45
Co 1.26
N 0.68
O 0.68
loop_
_atom_site_label
_atom_site_type_symbol
_atom_site_fract_x
_atom_site_fract_y
_atom_site_fract_z
Ag1 Ag 0.49298(6) 0.88790(7) 1.00000
O1 O 0.573(1) 0.9308(11) 1.00000
Ag2 Ag 0.43710(17) 0.8742(3) 0.6469(5)
Co1 Co 0.58048(12) 0.79024(6) 1.00000
Co2 Co 0.67435(11) 0.83718(5) 0.89341(14)
Co3 Co 0.60526(9) 1.00000 0.50000
Co4 Co 0.6672(2) 0.94060(19) 0.50000
O2 O 0.5756(3) 0.8310(3) 0.9192(4)
O3 O 0.6380(4) 0.8622(4) 0.8462(5)
O4 O 0.5804(2) 0.9520(2) 0.5849(3)
O5 O 0.6509(6) 0.8255(3) 1.00000
O6 O 0.6693(4) 1.00000 0.50000
O7 O 0.5089(6) 0.7544(3) 1.00000
O8 O 0.7254(8) 0.8214(11) 0.9279(14)
O9 O 0.7170(11) 0.8585(5) 0.794(2)
O10 O 0.7232(8) 0.9647(10) 0.582(2)
O11 O 0.6655(15) 0.8773(12) 0.50000
N1 N 0.4634(3) 0.8851(3) 0.8868(4)
N2 N 0.4430(2) 0.8861(4) 0.7672(6)
N3 N 0.5408(4) 1.00000 0.50000
C1 C 0.5765(4) 0.8728(4) 0.8112(5)
C2 C 0.5963(4) 0.8929(4) 0.7430(6)
H1 H 0.62376 0.89559 0.72816
C3 C 0.5742(5) 0.9094(4) 0.6957(6)
C4 C 0.5358(4) 0.9069(3) 0.7184(5)
H2 H 0.52239 0.91903 0.68716
C5 C 0.5151(4) 0.8867(4) 0.7871(5)
C6 C 0.5361(4) 0.8685(4) 0.8321(5)
H3 H 0.52222 0.85314 0.87709
C7 C 0.5971(5) 0.8519(4) 0.8629(6)
C8 C 0.5983(4) 0.9344(5) 0.6211(6)
C9 C 0.4734(4) 0.8845(4) 0.8130(6)
C10 C 0.5211(5) 1.00000 0.4340(8)
O12 O 0.6400(6) 0.9469(7) 0.6164(10)
O13 O 0.4595(9) 0.7968(8) 1.00000
Ag3? Ag 0.4253(2) 0.8507(4) 0.6430(7)
O14? O 0.6235(6) 0.9196(6) 0.5899(9)
H4? H 0.56318 1.02459 0.35207
H5? H 0.56318 1.02459 0.35207
H6? H 0.53471 1.00000 0.38775
N4? N 0.5363(10) 1.00000 0.3592(13)
O2S O 0.2554(3) 0.8310(3) 0.9192(4)
O3S O 0.2242(4) 0.8622(4) 0.8462(5)
O4S O 0.3716(2) 0.9520(2) 0.5849(3)
N1S N 0.4217(3) 0.8851(3) 0.8868(4)
C1S C 0.2963(4) 0.8728(4) 0.8112(5)
C2S C 0.2966(4) 0.8929(4) 0.7430(6)
H1S H 0.27183 0.89559 0.72816
C3S C 0.3352(5) 0.9094(4) 0.6957(6)
C4S C 0.3711(4) 0.9069(3) 0.7184(5)
H2S H 0.39664 0.91903 0.68716
C5S C 0.3716(4) 0.8867(4) 0.7871(5)
C6S C 0.3324(4) 0.8685(4) 0.8321(5)
H3S H 0.33092 0.85314 0.87709
C7S C 0.2548(5) 0.8519(4) 0.8629(6)
C8S C 0.3361(4) 0.9344(5) 0.6211(6)
C9S C 0.4111(4) 0.8845(4) 0.8130(6)
O12S O 0.3069(6) 0.9469(7) 0.6164(10)
N3C N 0.4592(4) 1.00000 0.50000
C10C C 0.4789(5) 1.00000 0.4340(8)
C10G C 0.5211(5) 1.00000 0.5660(8)
C10J C 0.4789(5) 1.00000 0.5660(8)
Co1A Co 0.20976(12) 0.79024(6) 1.00000
Co2A Co 0.16282(11) 0.83717(5) 0.89341(14)
Co4A Co 0.0594(2) 0.72660(19) 0.50000
O2A O 0.1690(3) 0.7446(3) 0.9192(4)
O3A O 0.1378(4) 0.7758(4) 0.8462(5)
O4A O 0.0480(2) 0.6284(2) 0.5849(3)
O5A O 0.1745(6) 0.8254(3) 1.00000
O7A O 0.2456(6) 0.7545(3) 1.00000
O8A O 0.1786(8) 0.9040(11) 0.9279(14)
O9A O 0.1415(11) 0.8585(5) 0.794(2)
O10A O 0.0353(8) 0.7585(10) 0.582(2)
O11A O 0.1227(15) 0.7882(12) 0.50000
N1A N 0.1149(3) 0.5783(3) 0.8868(4)
N2A N 0.1139(2) 0.5569(4) 0.7672(6)
C1A C 0.1272(4) 0.7037(4) 0.8112(5)
C2A C 0.1071(4) 0.7034(4) 0.7430(6)
H1A H 0.10441 0.72817 0.72816
C3A C 0.0906(5) 0.6648(4) 0.6957(6)
C4A C 0.0931(4) 0.6289(3) 0.7184(5)
H2A H 0.08097 0.60336 0.68716
C5A C 0.1133(4) 0.6284(4) 0.7871(5)
C6A C 0.1315(4) 0.6676(4) 0.8321(5)
H3A H 0.14686 0.66908 0.87709
C7A C 0.1481(5) 0.7452(4) 0.8629(6)
C8A C 0.0656(4) 0.6639(5) 0.6211(6)
C9A C 0.1155(4) 0.5889(4) 0.8130(6)
O12A O 0.0531(6) 0.6931(7) 0.6164(10)
O2R O 0.1690(3) 0.4244(3) 0.9192(4)
O3R O 0.1378(4) 0.3620(4) 0.8462(5)
O4R O 0.0480(2) 0.4196(2) 0.5849(3)
N1R N 0.1149(3) 0.5366(3) 0.8868(4)
C1R C 0.1272(4) 0.4235(4) 0.8112(5)
C2R C 0.1071(4) 0.4037(4) 0.7430(6)
H1R H 0.10441 0.37624 0.72816
C3R C 0.0906(5) 0.4258(4) 0.6957(6)
C4R C 0.0931(4) 0.4642(3) 0.7184(5)
H2R H 0.08097 0.47761 0.68716
C5R C 0.1133(4) 0.4849(4) 0.7871(5)
C6R C 0.1315(4) 0.4639(4) 0.8321(5)
H3R H 0.14686 0.47778 0.87709
C7R C 0.1481(5) 0.4029(4) 0.8629(6)
C8R C 0.0656(4) 0.4017(5) 0.6211(6)
C9R C 0.1155(4) 0.5266(4) 0.8130(6)
O12R O 0.0531(6) 0.3600(7) 0.6164(10)
Co2B Co 0.16283(11) 0.32565(5) 0.89341(14)
Co4B Co 0.2734(2) 0.33280(19) 0.50000
O2B O 0.2554(3) 0.4244(3) 0.9192(4)
O3B O 0.2242(4) 0.3620(4) 0.8462(5)
O4B O 0.3716(2) 0.4196(2) 0.5849(3)
O8B O 0.0960(8) 0.2746(11) 0.9279(14)
O9B O 0.1415(11) 0.2830(5) 0.794(2)
O10B O 0.2415(8) 0.2768(10) 0.582(2)
O11B O 0.2118(15) 0.3345(12) 0.50000
N1B N 0.4217(3) 0.5366(3) 0.8868(4)
N2B N 0.4431(2) 0.5570(4) 0.7672(6)
C1B C 0.2963(4) 0.4235(4) 0.8112(5)
C2B C 0.2966(4) 0.4037(4) 0.7430(6)
H1B H 0.27183 0.37624 0.72816
C3B C 0.3352(5) 0.4258(4) 0.6957(6)
C4B C 0.3711(4) 0.4642(3) 0.7184(5)
H2B H 0.39664 0.47761 0.68716
C5B C 0.3716(4) 0.4849(4) 0.7871(5)
C6B C 0.3324(4) 0.4639(4) 0.8321(5)
H3B H 0.33092 0.47778 0.87709
C7B C 0.2548(5) 0.4029(4) 0.8629(6)
C8B C 0.3361(4) 0.4017(5) 0.6211(6)
C9B C 0.4111(4) 0.5266(4) 0.8130(6)
O12B O 0.3069(6) 0.3600(7) 0.6164(10)
O2T O 0.5756(3) 0.7446(3) 0.9192(4)
O3T O 0.6380(4) 0.7758(4) 0.8462(5)
O4T O 0.5804(2) 0.6284(2) 0.5849(3)
N1T N 0.4634(3) 0.5783(3) 0.8868(4)
C1T C 0.5765(4) 0.7037(4) 0.8112(5)
C2T C 0.5963(4) 0.7034(4) 0.7430(6)
H1T H 0.62376 0.72817 0.72816
C3T C 0.5742(5) 0.6648(4) 0.6957(6)
C4T C 0.5358(4) 0.6289(3) 0.7184(5)
H2T H 0.52239 0.60336 0.68716
C5T C 0.5151(4) 0.6284(4) 0.7871(5)
C6T C 0.5361(4) 0.6676(4) 0.8321(5)
H3T H 0.52222 0.66908 0.87709
C7T C 0.5971(5) 0.7452(4) 0.8629(6)
C8T C 0.5983(4) 0.6639(5) 0.6211(6)
C9T C 0.4734(4) 0.5889(4) 0.8130(6)
O12T O 0.6400(6) 0.6931(7) 0.6164(10)
Co3C Co 0.39474(9) 1.00000 0.50000
Co4C Co 0.3328(2) 1.05940(19) 0.50000
O2C O 0.4244(3) 1.1690(3) 0.9192(4)
O3C O 0.3620(4) 1.1378(4) 0.8462(5)
O4C O 0.4196(2) 1.0480(2) 0.5849(3)
O6C O 0.3307(4) 1.00000 0.50000
O10C O 0.2768(8) 1.0353(10) 0.582(2)
O11C O 0.3345(15) 1.1227(12) 0.50000
N1C N 0.5366(3) 1.1149(3) 0.8868(4)
N2C N 0.5570(2) 1.1139(4) 0.7672(6)
C1C C 0.4235(4) 1.1272(4) 0.8112(5)
C2C C 0.4037(4) 1.1071(4) 0.7430(6)
H1C H 0.37624 1.10441 0.72816
C3C C 0.4258(5) 1.0906(4) 0.6957(6)
C4C C 0.4642(4) 1.0931(3) 0.7184(5)
H2C H 0.47761 1.08096 0.68716
C5C C 0.4849(4) 1.1133(4) 0.7871(5)
C6C C 0.4639(4) 1.1315(4) 0.8321(5)
H3C H 0.47778 1.14686 0.87709
C7C C 0.4029(5) 1.1481(4) 0.8629(6)
C8C C 0.4017(4) 1.0656(5) 0.6211(6)
C9C C 0.5266(4) 1.1155(4) 0.8130(6)
O12C O 0.3600(6) 1.0531(7) 0.6164(10)
O2V O 0.7446(3) 1.1690(3) 0.9192(4)
O3V O 0.7758(4) 1.1378(4) 0.8462(5)
O4V O 0.6284(2) 1.0480(2) 0.5849(3)
N1V N 0.5783(3) 1.1149(3) 0.8868(4)
C1V C 0.7037(4) 1.1272(4) 0.8112(5)
C2V C 0.7034(4) 1.1071(4) 0.7430(6)
H1V H 0.72817 1.10441 0.72816
C3V C 0.6648(5) 1.0906(4) 0.6957(6)
C4V C 0.6289(4) 1.0931(3) 0.7184(5)
H2V H 0.60336 1.08096 0.68716
C5V C 0.6284(4) 1.1133(4) 0.7871(5)
C6V C 0.6676(4) 1.1315(4) 0.8321(5)
H3V H 0.66908 1.14686 0.87709
C7V C 0.7452(5) 1.1481(4) 0.8629(6)
C8V C 0.6639(4) 1.0656(5) 0.6211(6)
C9V C 0.5889(4) 1.1155(4) 0.8130(6)
O12V O 0.6931(6) 1.0531(7) 0.6164(10)
Co2D Co 0.83718(11) 1.16283(5) 0.89341(14)
O8D O 0.8214(8) 1.0960(11) 0.9279(14)
O9D O 0.8585(11) 1.1415(5) 0.794(2)
O10L O 0.2768(8) 1.0353(10) 0.418(2)
O8T O 0.7254(8) 0.9040(11) 0.9279(14)
O10O O 0.7232(8) 0.9647(10) 0.418(2)
O8S O 0.0960(8) 0.8214(11) 0.9279(14)
O10P O 0.0353(8) 0.7585(10) 0.418(2)
O8R O 0.1786(8) 0.2746(11) 0.9279(14)
O8V O 0.9040(8) 1.1786(11) 0.9279(14)
O10Q O 0.2415(8) 0.2768(10) 0.418(2)
Co1B Co 0.20976(12) 0.41952(6) 1.00000
Co1C Co 0.41952(12) 1.20976(6) 1.00000
Co1D Co 0.79024(12) 1.20976(6) 1.00000
Co2C Co 0.32565(11) 1.16282(5) 0.89341(14)
Co2J Co 0.16283(11) 0.83718(5) 1.10659(14)
Co2K Co 0.67435(11) 0.83717(5) 1.10659(14)
Co3A Co 0.00000(9) 0.60526 0.50000
Co3B Co 0.39474(9) 0.39474 0.50000
Co3D Co 0.00000(9) 0.39474 0.50000
Co3E Co 0.60526(9) 0.60526 0.50000
Co4G Co 0.7266(2) 1.05940(19) 0.50000
Co4I Co 0.0594(2) 0.33280(19) 0.50000
Co4J Co 0.2734(2) 0.94060(19) 0.50000
Co4K Co 0.6672(2) 0.72660(19) 0.50000
O2J O 0.2554(3) 0.8310(3) 1.0808(4)
O2K O 0.5756(3) 0.7446(3) 1.0808(4)
O2O O 0.5756(3) 0.8310(3) 1.0808(4)
O2P O 0.1690(3) 0.7446(3) 1.0808(4)
O3D O 0.8622(4) 1.2242(4) 0.8462(5)
O4G O 0.6284(2) 1.0480(2) 0.4151(3)
O4J O 0.3716(2) 0.9520(2) 0.4151(3)
O4L O 0.4196(2) 1.0480(2) 0.4151(3)
O4O O 0.5804(2) 0.9520(2) 0.4151(3)
O5B O 0.1746(6) 0.3491(3) 1.00000
O5D O 0.8255(6) 1.1746(3) 1.00000
O6A O 0.0000(4) 0.66930 0.50000
O6B O 0.3307(4) 0.33070 0.50000
O12L O 0.3600(6) 1.0531(7) 0.3836(10)
O12O O 0.6400(6) 0.9469(7) 0.3836(10)
O12P O 0.0531(6) 0.6931(7) 0.3836(10)
O12Q O 0.3069(6) 0.3600(7) 0.3836(10)
#END
