
#######################################################################
#
#                 Cambridge Crystallographic Data Centre
#                                CCDC
#
#######################################################################
#
# If this CIF has been generated from an entry in the Cambridge
# Structural Database, then it will include bibliographic, chemical,
# crystal, experimental, refinement or atomic coordinate data resulting
# from the CCDC's data processing and validation procedures.
#
#######################################################################

data_CSD_CIF_AMURUX08
_audit_creation_date 2017-02-10
_audit_creation_method CSD-ConQuest-V1
_database_code_CSD AMURUX08
_database_code_depnum_ccdc_archive 'CCDC 958263'
_chemical_formula_sum 'C10 H20 Mg2 N2 O12'
_chemical_formula_moiety
;
C4 H14 N2 2+,n(C6 H6 Mg2 O12 2-)
;
_journal_coden_Cambridge 1220
_journal_volume 20
_journal_year 2014
_journal_page_first 1146
_journal_name_full 'Chem.-Eur.J. '
loop_
_publ_author_name
"Ran Shang"
"Guan-Cheng Xu"
"Zhe-Ming Wang"
"Song Gao"
_chemical_name_systematic
;
catena-[butane-1,4-diamonium hexakis(\m-formato)-di-magnesium(ii)]
;
_cell_volume   1707.005
_exptl_crystal_colour 'colorless'
_exptl_crystal_density_diffrn 1.591
_exptl_crystal_description 'block'
_diffrn_ambient_temperature 340
_refine_special_details
;
C81,C91 and C82,C92 disordered over two sites with occupancies 0.802:0.20.

;
#These two values have been output from a single CSD field.
_refine_ls_R_factor_gt 0.0253
_refine_ls_wR_factor_gt 0.0253
_symmetry_cell_setting monoclinic
_symmetry_space_group_name_H-M 'C c'
_symmetry_Int_Tables_number 9
loop_
_symmetry_equiv_pos_site_id
_symmetry_equiv_pos_as_xyz
1 x,y,z
2 x,-y,1/2+z
3 1/2+x,1/2+y,z
4 1/2+x,1/2-y,1/2+z
_cell_length_a 8.4270(3)
_cell_length_b 14.9120(5)
_cell_length_c 13.5840(5)
_cell_angle_alpha 90
_cell_angle_beta 90.160(3)
_cell_angle_gamma 90
_cell_formula_units_Z 4
loop_
_atom_type_symbol
_atom_type_radius_bond
C 0.68
H 0.23
Mg 1.41
N 0.68
O 0.68
loop_
_atom_site_label
_atom_site_type_symbol
_atom_site_fract_x
_atom_site_fract_y
_atom_site_fract_z
Mg1 Mg 0.11776(7) 0.33616(2) 0.31951(5)
Mg2 Mg 0.11652(8) -0.00202(3) 0.56754(5)
O1 O 0.03020(15) 0.23846(8) 0.41676(9)
O2 O 0.01813(15) 0.10567(8) 0.48818(9)
O3 O 0.20602(15) 0.23813(8) 0.22467(9)
O4 O 0.21146(17) 0.10781(8) 0.14753(10)
O5 O 0.33258(16) 0.33530(8) 0.38969(10)
O6 O 0.52376(16) 0.40738(10) 0.46907(10)
O7 O 0.21083(14) 0.43064(8) 0.21967(9)
O8 O 0.40231(16) 0.50173(8) 0.14159(9)
O9 O -0.09381(15) 0.33733(8) 0.23972(10)
O10 O -0.29427(15) 0.40169(8) 0.16110(9)
O11 O 0.02929(14) 0.43563(8) 0.41420(9)
O12 O -0.16810(16) 0.50215(7) 0.49323(9)
C1 C 0.0818(2) 0.16218(11) 0.43456(13)
H1 H 0.17700 0.14600 0.40490
C2 C 0.1419(2) 0.16853(11) 0.19213(13)
H2 H 0.03340 0.16190 0.20220
C3 C 0.3892(2) 0.38197(12) 0.45510(12)
H3 H 0.31650 0.40110 0.50200
C4 C 0.3463(2) 0.46278(12) 0.21365(12)
H4 H 0.41170 0.45690 0.26860
C5 C -0.1617(2) 0.40213(11) 0.20233(12)
H5 H -0.10880 0.45680 0.20510
C6 C -0.11093(19) 0.43937(11) 0.44549(12)
H6 H -0.17700 0.39100 0.43160
N1 N 0.52095(18) 0.24078(10) 0.15098(11)
H7 H 0.42340 0.24380 0.17560
H8 H 0.51580 0.24090 0.08550
H9 H 0.57700 0.28790 0.17130
N2 N 0.67379(17) 0.09500(9) 0.50505(10)
H10 H 0.62860 0.04910 0.47390
H11 H 0.65810 0.08950 0.56950
H12 H 0.77750 0.09530 0.49280
C7 C 0.5986(3) 0.15723(13) 0.18504(13)
H13 H 0.71260 0.16290 0.17760
H14 H 0.56340 0.10750 0.14440
C8 C 0.5597(3) 0.13751(13) 0.29274(13)
H15 H 0.44600 0.14270 0.30240
H16 H 0.59010 0.07630 0.30800
C9 C 0.6440(3) 0.20065(13) 0.36248(14)
H17 H 0.61470 0.26190 0.34690
H18 H 0.75780 0.19480 0.35380
C10 C 0.6019(3) 0.18077(14) 0.46973(13)
H19 H 0.63900 0.22970 0.51090
H20 H 0.48750 0.17730 0.47610
H21? H 0.68300 0.14140 0.13990
H22? H 0.52170 0.10880 0.18500
C11? C 0.6682(7) 0.1684(5) 0.2899(2)
H23? H 0.74510 0.12150 0.30280
H24? H 0.72160 0.22580 0.29540
C12? C 0.5341(7) 0.1632(5) 0.3644(2)
H25? H 0.48510 0.10440 0.36180
H26? H 0.45380 0.20760 0.34880
H27? H 0.68160 0.22760 0.46770
H28? H 0.51770 0.19960 0.51370
Mg2A Mg 0.11652(8) 0.00202(3) 0.06754(5)
Mg2B Mg -0.38348(8) 0.49798(3) 0.56754(5)
Mg2B* Mg 0.61652(8) 0.49798(3) 0.56754(5)
Mg2C Mg -0.38348(8) 0.50202(3) 0.06754(5)
Mg2C* Mg 0.61652(8) 0.50202(3) 0.06754(5)
O4A O 0.21146(17) -0.10781(8) 0.64753(10)
O6B O 0.02376(16) -0.09262(10) 0.46907(10)
O8C O -0.09769(16) -0.00173(8) 0.64159(9)
O10C O 0.20573(15) 0.09831(8) 0.66110(9)
O12B O 0.33190(16) 0.00215(7) 0.49323(9)
#END
