
#######################################################################
#
#                 Cambridge Crystallographic Data Centre
#                                CCDC
#
#######################################################################
#
# If this CIF has been generated from an entry in the Cambridge
# Structural Database, then it will include bibliographic, chemical,
# crystal, experimental, refinement or atomic coordinate data resulting
# from the CCDC's data processing and validation procedures.
#
#######################################################################

data_CSD_CIF_AMURUX11
_audit_creation_date 2017-02-10
_audit_creation_method CSD-ConQuest-V1
_database_code_CSD AMURUX11
_database_code_depnum_ccdc_archive 'CCDC 958267'
_chemical_formula_sum 'C10 H20 Mg2 N2 O12'
_chemical_formula_moiety
;
C4 H14 N2 2+,n(C6 H6 Mg2 O12 2-)
;
_journal_coden_Cambridge 1220
_journal_volume 20
_journal_year 2014
_journal_page_first 1146
_journal_name_full 'Chem.-Eur.J. '
loop_
_publ_author_name
"Ran Shang"
"Guan-Cheng Xu"
"Zhe-Ming Wang"
"Song Gao"
_chemical_name_systematic
;
catena-[butane-1,4-diamonium hexakis(\m-formato)-di-magnesium(ii)]
;
_cell_volume    855.024
_exptl_crystal_colour 'colorless'
_exptl_crystal_density_diffrn 1.588
_exptl_special_details
;
high-temperature polymorph

;
_exptl_crystal_description 'block'
_diffrn_ambient_temperature 450
_refine_special_details
;
C3,N1 disordered by symmetry over three configurations with occupancy 0.33.

;
#These two values have been output from a single CSD field.
_refine_ls_R_factor_gt 0.0344
_refine_ls_wR_factor_gt 0.0344
_symmetry_cell_setting hexagonal
_symmetry_space_group_name_H-M 'P -3 1 c'
_symmetry_Int_Tables_number 163
loop_
_symmetry_equiv_pos_site_id
_symmetry_equiv_pos_as_xyz
1 x,y,z
2 -y,x-y,z
3 -x+y,-x,z
4 -y,-x,1/2-z
5 -x+y,y,1/2-z
6 x,x-y,1/2-z
7 -x,-y,-z
8 y,-x+y,-z
9 x-y,x,-z
10 y,x,-1/2+z
11 x-y,-y,-1/2+z
12 -x,-x+y,-1/2+z
_cell_length_a 8.4982(3)
_cell_length_b 8.4982(3)
_cell_length_c 13.6708(5)
_cell_angle_alpha 90
_cell_angle_beta 90
_cell_angle_gamma 120
_cell_formula_units_Z 2
loop_
_atom_type_symbol
_atom_type_radius_bond
C 0.68
H 0.23
Mg 1.41
N 0.68
O 0.68
loop_
_atom_site_label
_atom_site_type_symbol
_atom_site_fract_x
_atom_site_fract_y
_atom_site_fract_z
Mg1 Mg 0.00000 0.00000 0.00000
O1 O 0.20625(15) 0.20687(15) 0.08171(9)
C1 C 0.3253(2) 0.2046(2) 0.13021(12)
O2 O 0.46871(15) 0.33222(15) 0.15949(9)
H1 H 0.30440 0.08980 0.14740
Mg2 Mg 0.66670 0.33330 0.25000
C2 C 0.33330 0.66670 0.1092(4)
C3 C 0.3227(10) 0.7303(8) 0.2161(4)
N1 N 0.1948(7) 0.5450(7) 0.0669(4)
H2 H 0.19150 0.43910 0.07290
H3 H 0.19880 0.57260 0.00380
H4 H 0.09580 0.53690 0.09400
O1A O -0.20687(15) -0.00062(15) 0.08171(9)
O1B O 0.00062(15) -0.20625(15) 0.08171(9)
O1F O -0.20625(15) -0.20687(15) -0.08171(9)
O1G O 0.20687(15) 0.00062(15) -0.08171(9)
O1H O -0.00062(15) 0.20625(15) -0.08171(9)
C1A C -0.2046(2) 0.1207(2) 0.13021(12)
C1B C -0.1207(2) -0.3253(2) 0.13021(12)
C1F C -0.3253(2) -0.2046(2) -0.13021(12)
C1G C 0.2046(2) -0.1207(2) -0.13021(12)
C1H C 0.1207(2) 0.3253(2) -0.13021(12)
O2A O -0.33222(15) 0.13649(15) 0.15949(9)
H1A H -0.08980 0.21460 0.14740
O2B O -0.13649(15) -0.46871(15) 0.15949(9)
H1B H -0.21460 -0.30440 0.14740
O2F O -0.46871(15) -0.33222(15) -0.15949(9)
H1F H -0.30440 -0.08980 -0.14740
O2G O 0.33222(15) -0.13649(15) -0.15949(9)
H1G H 0.08980 -0.21460 -0.14740
O2H O 0.13649(15) 0.46871(15) -0.15949(9)
H1H H 0.21460 0.30440 -0.14740
Mg2* Mg -0.33330 0.33330 0.25000
Mg2** Mg -0.33330 -0.66670 0.25000
Mg2F Mg -0.66670 -0.33330 -0.25000
Mg2F* Mg 0.33330 -0.33330 -0.25000
Mg2F** Mg 0.33330 0.66670 -0.25000
O2E O 0.46871(15) 0.13649(15) 0.34051(9)
O2A* O 0.66778(15) 0.13649(15) 0.15949(9)
O2B* O 0.86351(15) 0.53129(15) 0.15949(9)
O2C O 0.66778(15) 0.53129(15) 0.34051(9)
O2D O 0.86351(15) 0.33222(15) 0.34051(9)
C3A C 0.2697(10) 0.5924(8) 0.2161(4)
N1A N 0.4550(7) 0.6498(7) 0.0669(4)
H2A H 0.56090 0.75240 0.07290
H3A H 0.42740 0.62620 0.00380
H4A H 0.46310 0.55890 0.09400
C3B C 0.4076(10) 0.6773(8) 0.2161(4)
N1B N 0.3502(7) 0.8052(7) 0.0669(4)
H2B H 0.24760 0.80850 0.07290
H3B H 0.37380 0.80120 0.00380
H4B H 0.44110 0.90420 0.09400
C2C C 0.33330 0.66670 0.3908(4)
C3C C 0.2697(10) 0.6773(8) 0.2839(4)
N1C N 0.4550(7) 0.8052(7) 0.4331(4)
H2C H 0.56090 0.80850 0.42710
H3C H 0.42740 0.80120 0.49620
H4C H 0.46310 0.90420 0.40600
C3D C 0.4076(10) 0.7303(8) 0.2839(4)
N1D N 0.3502(7) 0.5450(7) 0.4331(4)
H2D H 0.24760 0.43910 0.42710
H3D H 0.37380 0.57260 0.49620
H4D H 0.44110 0.53690 0.40600
C3E C 0.3227(10) 0.5924(8) 0.2839(4)
N1E N 0.1948(7) 0.6498(7) 0.4331(4)
H2E H 0.19150 0.75240 0.42710
H3E H 0.19880 0.62620 0.49620
H4E H 0.09580 0.55890 0.40600
#END
