
#######################################################################
#
#                 Cambridge Crystallographic Data Centre
#                                CCDC
#
#######################################################################
#
# If this CIF has been generated from an entry in the Cambridge
# Structural Database, then it will include bibliographic, chemical,
# crystal, experimental, refinement or atomic coordinate data resulting
# from the CCDC's data processing and validation procedures.
#
#######################################################################

data_CSD_CIF_AMURUX01
_audit_creation_date 2016-05-19
_audit_creation_method CSD-ConQuest-V1
_database_code_CSD AMURUX01
_database_code_depnum_ccdc_archive 'CCDC 958262'
_chemical_formula_sum 'C10 H20 Mg2 N2 O12'
_chemical_formula_moiety
;
(C4 H14 N2 2+)n,n(C6 H6 Mg2 O12 2-)
;
_journal_coden_Cambridge 1220
_journal_volume 22
_journal_year 2016
_journal_page_first 6199
_journal_name_full 'Chem.-Eur.J. '
loop_
_publ_author_name
"Ran Shang"
"Sa Chen"
"Ke-Li Hu"
"Bing-Wu Wang"
"Zhe-Ming Wang"
"Song Gao"
_chemical_name_systematic
;
catena-[(1,4-Diammoniobutane) hexakis(\m~2~-formato)-di-magnesium(ii)]
;
_cell_volume   1704.169
_exptl_crystal_colour 'colorless'
_exptl_crystal_density_diffrn 1.594
_exptl_special_details
;
LT polymorph
405 K

;
_exptl_crystal_description 'block'
_diffrn_ambient_temperature 290
_refine_special_details
;
C81,C91 and C82,C92 disordered over two sites with occupancies 0.850:0.15.

;
#These two values have been output from a single CSD field.
_refine_ls_R_factor_gt 0.0237
_refine_ls_wR_factor_gt 0.0237
_symmetry_cell_setting monoclinic
_symmetry_space_group_name_H-M 'C c'
_symmetry_Int_Tables_number 9
loop_
_symmetry_equiv_pos_site_id
_symmetry_equiv_pos_as_xyz
1 x,y,z
2 x,-y,1/2+z
3 1/2+x,1/2+y,z
4 1/2+x,1/2-y,1/2+z
_cell_length_a 8.4210(4)
_cell_length_b 14.9144(6)
_cell_length_c 13.5689(5)
_cell_angle_alpha 90
_cell_angle_beta 90.148(4)
_cell_angle_gamma 90
_cell_formula_units_Z 4
loop_
_atom_type_symbol
_atom_type_radius_bond
C 0.68
H 0.23
Mg 1.41
N 0.68
O 0.68
loop_
_atom_site_label
_atom_site_type_symbol
_atom_site_fract_x
_atom_site_fract_y
_atom_site_fract_z
Mg1 Mg 0.11778(7) 0.33630(2) 0.31949(4)
Mg2 Mg 0.11662(7) -0.00192(3) 0.56751(4)
O1 O 0.03045(14) 0.23904(7) 0.41772(8)
O2 O 0.01765(13) 0.10552(8) 0.48810(8)
O3 O 0.20562(13) 0.23817(7) 0.22467(8)
O4 O 0.21175(15) 0.10734(7) 0.14793(9)
O5 O 0.33358(14) 0.33528(7) 0.38862(9)
O6 O 0.52509(14) 0.40714(9) 0.46874(9)
O7 O 0.21014(13) 0.43049(7) 0.21913(8)
O8 O 0.40197(14) 0.50216(7) 0.14123(8)
O9 O -0.09451(14) 0.33676(7) 0.24024(9)
O10 O -0.29537(13) 0.40134(7) 0.16147(8)
O11 O 0.03027(13) 0.43629(7) 0.41421(8)
O12 O -0.16747(14) 0.50306(7) 0.49330(9)
C1 C 0.08247(19) 0.16239(10) 0.43447(11)
H1 H 0.17750 0.14630 0.40450
C2 C 0.1414(2) 0.1681(1) 0.19218(12)
H2 H 0.03280 0.16130 0.20210
C3 C 0.3887(2) 0.38205(11) 0.45528(11)
H3 H 0.31570 0.40100 0.50220
C4 C 0.34612(19) 0.46284(11) 0.21366(11)
H4 H 0.41140 0.45700 0.26870
C5 C -0.16253(19) 0.40186(10) 0.20264(11)
H5 H -0.10960 0.45650 0.20530
C6 C -0.11032(17) 0.43984(10) 0.44536(10)
H6 H -0.17640 0.39150 0.43140
N1 N 0.51969(16) 0.24067(9) 0.15076(10)
H7 H 0.42180 0.24360 0.17510
H8 H 0.51520 0.24120 0.08520
H9 H 0.57570 0.28760 0.17170
N2 N 0.67396(15) 0.09561(8) 0.50517(9)
H10 H 0.62700 0.04980 0.47480
H11 H 0.65990 0.09060 0.56990
H12 H 0.77740 0.09510 0.49180
C7 C 0.5971(2) 0.15658(11) 0.18459(12)
H13 H 0.71110 0.16170 0.17620
H14 H 0.56030 0.10690 0.14440
C8 C 0.5601(2) 0.13733(11) 0.29276(12)
H15 H 0.44640 0.14170 0.30280
H16 H 0.59200 0.07640 0.30820
C9 C 0.6435(2) 0.20108(11) 0.36236(12)
H17 H 0.61310 0.26210 0.34650
H18 H 0.75740 0.19590 0.35340
C10 C 0.6028(2) 0.18174(12) 0.46997(11)
H19 H 0.64130 0.23050 0.51080
H20 H 0.48830 0.17890 0.47700
H21? H 0.68150 0.14050 0.13940
H22? H 0.51990 0.10830 0.18480
C11? C 0.6666(7) 0.1685(5) 0.2896(2)
H23? H 0.74350 0.12160 0.30290
H24? H 0.72040 0.22590 0.29440
C12? C 0.5332(7) 0.1642(5) 0.3648(2)
H25? H 0.48330 0.10560 0.36270
H26? H 0.45340 0.20900 0.34940
H27? H 0.68320 0.22820 0.46740
H28? H 0.51930 0.20100 0.51440
Mg2A Mg 0.11662(7) 0.00192(3) 0.06751(4)
Mg2B Mg -0.38338(7) 0.49808(3) 0.56751(4)
Mg2B* Mg 0.61662(7) 0.49808(3) 0.56751(4)
Mg2C Mg -0.38338(7) 0.50192(3) 0.06751(4)
Mg2C* Mg 0.61662(7) 0.50192(3) 0.06751(4)
O4A O 0.21175(15) -0.10734(7) 0.64793(9)
O6B O 0.02509(14) -0.09286(9) 0.46874(9)
O8C O -0.09803(14) -0.00216(7) 0.64123(8)
O10C O 0.20463(13) 0.09866(7) 0.66147(8)
O12B O 0.33253(14) 0.00306(7) 0.49330(9)
#END
