
#######################################################################
#
#                 Cambridge Crystallographic Data Centre
#                                CCDC
#
#######################################################################
#
# If this CIF has been generated from an entry in the Cambridge
# Structural Database, then it will include bibliographic, chemical,
# crystal, experimental, refinement or atomic coordinate data resulting
# from the CCDC's data processing and validation procedures.
#
#######################################################################

data_CSD_CIF_AMURUX06
_audit_creation_date 2017-02-10
_audit_creation_method CSD-ConQuest-V1
_database_code_CSD AMURUX06
_database_code_depnum_ccdc_archive 'CCDC 958260'
_chemical_formula_sum 'C10 H20 Mg2 N2 O12'
_chemical_formula_moiety
;
C4 H14 N2 2+,n(C6 H6 Mg2 O12 2-)
;
_journal_coden_Cambridge 1220
_journal_volume 20
_journal_year 2014
_journal_page_first 1146
_journal_name_full 'Chem.-Eur.J. '
loop_
_publ_author_name
"Ran Shang"
"Guan-Cheng Xu"
"Zhe-Ming Wang"
"Song Gao"
_chemical_name_systematic
;
catena-[butane-1,4-diamonium hexakis(\m-formato)-di-magnesium(ii)]
;
_cell_volume   1695.272
_exptl_crystal_colour 'colorless'
_exptl_crystal_density_diffrn 1.602
_exptl_special_details
;
low-temperature polymorph

;
_exptl_crystal_description 'block'
_diffrn_ambient_temperature 180
_refine_special_details
;
C81,C91 and C82,C92 disordered over two sites with occupancies 0.961:0.04.

;
#These two values have been output from a single CSD field.
_refine_ls_R_factor_gt 0.0211
_refine_ls_wR_factor_gt 0.0211
_symmetry_cell_setting monoclinic
_symmetry_space_group_name_H-M 'C c'
_symmetry_Int_Tables_number 9
loop_
_symmetry_equiv_pos_site_id
_symmetry_equiv_pos_as_xyz
1 x,y,z
2 x,-y,1/2+z
3 1/2+x,1/2+y,z
4 1/2+x,1/2-y,1/2+z
_cell_length_a 8.4100(3)
_cell_length_b 14.8909(5)
_cell_length_c 13.5370(4)
_cell_angle_alpha 90
_cell_angle_beta 90.038(3)
_cell_angle_gamma 90
_cell_formula_units_Z 4
loop_
_atom_type_symbol
_atom_type_radius_bond
C 0.68
H 0.23
Mg 1.41
N 0.68
O 0.68
loop_
_atom_site_label
_atom_site_type_symbol
_atom_site_fract_x
_atom_site_fract_y
_atom_site_fract_z
Mg1 Mg 0.11767(6) 0.33652(2) 0.31958(4)
Mg2 Mg 0.11682(6) -0.00170(3) 0.56745(4)
O1 O 0.03104(11) 0.24029(6) 0.41932(7)
O2 O 0.01732(11) 0.10532(6) 0.48802(7)
O3 O 0.20492(11) 0.23815(6) 0.22490(7)
O4 O 0.21250(12) 0.10674(6) 0.14800(7)
O5 O 0.33546(12) 0.33502(6) 0.38663(7)
O6 O 0.52697(11) 0.40700(7) 0.46809(7)
O7 O 0.20871(11) 0.43024(6) 0.21846(7)
O8 O 0.40109(11) 0.50317(5) 0.14048(7)
O9 O -0.09571(11) 0.33603(6) 0.24122(7)
O10 O -0.29745(11) 0.40076(6) 0.16224(7)
O11 O 0.03202(11) 0.43735(6) 0.41420(6)
O12 O -0.16680(12) 0.50458(5) 0.49335(7)
C1 C 0.08363(16) 0.16280(8) 0.43480(9)
H1 H 0.18090 0.14660 0.40390
C2 C 0.14066(17) 0.16735(8) 0.19281(10)
H2 H 0.02980 0.15980 0.20360
C3 C 0.38807(16) 0.38173(8) 0.45555(9)
H3 H 0.31320 0.40010 0.50400
C4 C 0.34610(16) 0.46276(9) 0.21325(9)
H4 H 0.41330 0.45600 0.26920
C5 C -0.16375(16) 0.40154(8) 0.20348(9)
H5 H -0.10960 0.45750 0.20600
C6 C -0.10954(15) 0.44081(8) 0.44538(9)
H6 H -0.17710 0.39130 0.43130
N1 N 0.51781(13) 0.24046(7) 0.15008(8)
H7 H 0.41850 0.24460 0.17630
H8 H 0.51120 0.24060 0.08300
H9 H 0.57730 0.28810 0.17040
N2 N 0.67458(12) 0.09649(7) 0.50520(8)
H10 H 0.62700 0.05010 0.47280
H11 H 0.65790 0.09060 0.57130
H12 H 0.78090 0.09580 0.49270
C7 C 0.59410(18) 0.15530(9) 0.18373(10)
H13 H 0.71040 0.15940 0.17350
H14 H 0.55370 0.10470 0.14340
C8 C 0.56031(16) 0.13674(8) 0.29243(9)
H15 H 0.44420 0.14020 0.30370
H16 H 0.59480 0.07480 0.30830
C9 C 0.64326(16) 0.20166(8) 0.36204(9)
H17 H 0.61070 0.26370 0.34540
H18 H 0.75960 0.19710 0.35210
C10 C 0.60527(18) 0.18361(9) 0.47022(9)
H19 H 0.64790 0.23320 0.51110
H20 H 0.48850 0.18220 0.47910
H21? H 0.67980 0.13840 0.13720
H22? H 0.51430 0.10640 0.18420
C11? C 0.6639(10) 0.1669(9) 0.2881(3)
H23? H 0.73610 0.11610 0.30270
H24? H 0.72720 0.22290 0.29060
C12? C 0.535(1) 0.1707(8) 0.3658(3)
H25? H 0.47270 0.11430 0.36390
H26? H 0.46200 0.22100 0.35080
H27? H 0.68890 0.23030 0.46860
H28? H 0.52090 0.20350 0.51620
Mg2A Mg 0.11682(6) 0.00170(3) 0.06745(4)
Mg2B Mg -0.38318(6) 0.49830(3) 0.56745(4)
Mg2B* Mg 0.61682(6) 0.49830(3) 0.56745(4)
Mg2C Mg -0.38318(6) 0.50170(3) 0.06745(4)
Mg2C* Mg 0.61682(6) 0.50170(3) 0.06745(4)
O4A O 0.21250(12) -0.10674(6) 0.64800(7)
O6B O 0.02697(11) -0.09300(7) 0.46809(7)
O8C O -0.09891(11) -0.00317(5) 0.64048(7)
O10C O 0.20255(11) 0.09924(6) 0.66224(7)
O12B O 0.33320(12) 0.00458(5) 0.49335(7)
#END
