
#######################################################################
#
#                 Cambridge Crystallographic Data Centre
#                                CCDC
#
#######################################################################
#
# If this CIF has been generated from an entry in the Cambridge
# Structural Database, then it will include bibliographic, chemical,
# crystal, experimental, refinement or atomic coordinate data resulting
# from the CCDC's data processing and validation procedures.
#
#######################################################################

data_CSD_CIF_AMUWAH
_audit_creation_date 2011-04-19
_audit_creation_method CSD-ConQuest-V1
_database_code_CSD AMUWAH
_database_code_depnum_ccdc_archive 'CCDC 789848'
_chemical_formula_sum 'C24 H28 In1 N1 O8'
_chemical_formula_moiety
;
(C4 H12 N1 1+)n,n(C20 H16 In1 O8 1-)
;
_journal_coden_Cambridge 182
_journal_volume 47
_journal_year 2011
_journal_page_first 2904
_journal_name_full 'Chem.Commun. '
loop_
_publ_author_name
"Suhyun Jung"
"Youngmee Kim"
"Sung-Jin Kim"
"Tae-Hwan Kwon"
"Seong Huh"
"Seongsoon Park"
_chemical_name_systematic
;
catena-(diethylammonium bis(\m~2~-2,2'-(1,4-phenylene)diacetato)-indium)
;
_cell_volume   2412.287
_exptl_crystal_colour 'colorless'
_exptl_crystal_density_diffrn 1.579
_exptl_crystal_description 'needle'
_diffrn_ambient_temperature 293
#These two values have been output from a single CSD field.
_refine_ls_R_factor_gt 0.0382
_refine_ls_wR_factor_gt 0.0382
_symmetry_cell_setting monoclinic
_symmetry_space_group_name_H-M 'C c'
_symmetry_Int_Tables_number 9
loop_
_symmetry_equiv_pos_site_id
_symmetry_equiv_pos_as_xyz
1 x,y,z
2 x,-y,1/2+z
3 1/2+x,1/2+y,z
4 1/2+x,1/2-y,1/2+z
_cell_length_a 19.192(4)
_cell_length_b 8.7720(18)
_cell_length_c 16.666(3)
_cell_angle_alpha 90
_cell_angle_beta 120.71(3)
_cell_angle_gamma 90
_cell_formula_units_Z 4
loop_
_atom_type_symbol
_atom_type_radius_bond
C 0.68
H 0.23
In 1.42
N 0.68
O 0.68
loop_
_atom_site_label
_atom_site_type_symbol
_atom_site_fract_x
_atom_site_fract_y
_atom_site_fract_z
In1 In 0.22804(16) -0.16236(5) 0.16884(19)
O1 O 0.3270(8) -0.3419(15) 0.2394(10)
O2 O 0.1323(7) -0.3483(12) 0.0944(10)
C1 C 0.4018(13) -0.167(2) 0.7247(14)
H1 H 0.40310 -0.24140 0.76850
H2 H 0.45480 -0.11900 0.75510
C2 C 0.3440(11) -0.362(2) 0.6007(13)
H3 H 0.31170 -0.39690 0.62360
C3 C 0.1401(10) -0.3496(17) 0.0211(12)
C4 C 0.3126(11) -0.3464(17) 0.2995(13)
O3 O 0.2592(7) -0.2727(16) 0.3087(8)
O4 O 0.1988(6) -0.2678(15) 0.0320(8)
C5 C 0.0487(12) -0.1777(16) -0.4003(14)
H4 H -0.00450 -0.13310 -0.43940
H5 H 0.05730 -0.25540 -0.43590
C6 C 0.0565(9) -0.2496(15) -0.3072(10)
C7 C 0.3962(9) -0.252(2) 0.6490(11)
C8 C 0.0785(8) -0.381(2) -0.1429(12)
C9 C 0.1185(10) -0.3627(18) -0.2624(13)
H6 H 0.15140 -0.39270 -0.28560
C10 C 0.3707(9) -0.440(2) 0.3971(12)
H7 H 0.35020 -0.54380 0.38760
H8 H 0.42420 -0.44600 0.40470
C11 C 0.0096(8) -0.2144(18) -0.2715(13)
H9 H -0.02870 -0.13800 -0.30140
O5 O 0.3324(8) 0.0097(15) 0.7711(9)
C12 C 0.0127(10) -0.279(2) -0.1974(12)
H10 H -0.02620 -0.25760 -0.18150
O6 O 0.3074(9) 0.0139(18) 0.6327(10)
C13 C 0.3432(8) -0.0463(12) 0.7159(11)
O7 O 0.1276(8) -0.0134(19) -0.4329(8)
C14 C 0.3327(8) -0.4275(16) 0.5235(11)
H11 H 0.29230 -0.50030 0.49310
C15 C 0.1175(11) -0.050(2) -0.3648(13)
C16 C 0.1258(10) -0.4266(19) -0.1782(11)
H12 H 0.16450 -0.50180 -0.14670
O8 O 0.1558(7) 0.0072(16) -0.2932(9)
C17 C 0.0943(11) -0.453(2) -0.0516(11)
H13 H 0.04340 -0.47410 -0.05480
H14 H 0.12380 -0.54760 -0.04050
C18 C 0.3817(10) -0.387(2) 0.4884(12)
C19 C 0.4348(11) -0.278(2) 0.5348(14)
H15 H 0.46570 -0.24310 0.51000
C20 C 0.4491(11) -0.209(2) 0.6189(15)
H16 H 0.49100 -0.13950 0.65170
N1 N 0.2578(11) 1.0175(12) 0.9378(11)
H17 H 0.26860 1.09230 0.90880
H18 H 0.28250 1.04010 0.99900
C21 C 0.2858(5) 0.8798(13) 0.9254(7)
H19 H 0.26390 0.86240 0.85930
H20 H 0.26720 0.79820 0.94900
C22 C 0.1315(9) 1.1663(14) 0.8971(10)
H21 H 0.15850 1.21140 0.95810
H22 H 0.07550 1.14920 0.87720
H23 H 0.13510 1.23370 0.85390
C23 C 0.3766(6) 0.8776(12) 0.9751(8)
H24 H 0.39510 0.95750 0.95100
H25 H 0.39450 0.78090 0.96530
H26 H 0.39830 0.89310 1.04060
C24 C 0.1743(14) 1.005(3) 0.9004(11)
H27 H 0.16410 0.93320 0.93740
H28 H 0.14970 0.96450 0.83750
In1A In 0.22804(16) 0.16236(5) 0.66884(19)
In1A* In 0.22804(16) 0.16236(5) -0.33116(19)
O5A O 0.3324(8) -0.0097(15) 0.2711(9)
O6A O 0.3074(9) -0.0139(18) 0.1327(10)
O7A O 0.1276(8) 0.0134(19) 0.0671(8)
O8A O 0.1558(7) -0.0072(16) 0.2068(9)
#END
