
#######################################################################
#
#                 Cambridge Crystallographic Data Centre
#                                CCDC
#
#######################################################################
#
# If this CIF has been generated from an entry in the Cambridge
# Structural Database, then it will include bibliographic, chemical,
# crystal, experimental, refinement or atomic coordinate data resulting
# from the CCDC's data processing and validation procedures.
#
#######################################################################

data_CSD_CIF_ANAGIH
_audit_creation_date 2016-05-19
_audit_creation_method CSD-ConQuest-V1
_database_code_CSD ANAGIH
_database_code_depnum_ccdc_archive 'CCDC 1470520'
_chemical_formula_sum 'C54 H36 N2 O17 Zn3'
_chemical_formula_moiety
;
(C32 H16 O16 Zn3 2-)n,C22 H18 N2 2+,H2 O1
;
_journal_coden_Cambridge 1350
_journal_volume 18
_journal_year 2016
_journal_page_first 7221
_journal_name_full 'CrystEngComm '
loop_
_publ_author_name
"Shuzhi Hu"
"Maolin You"
"Shuhuang Chen"
"Zhiyong Fu"
_chemical_name_systematic
;
catena-[tetrakis(\m-isophthalato)-tri-zinc 1,1'-diphenyl-4,4'-bipyridinium 
monohydrate]
;
_cell_volume   2389.895
_exptl_crystal_colour 'yellow'
_exptl_crystal_density_diffrn 1.641
_exptl_crystal_description 'block'
_diffrn_ambient_temperature 298
#These two values have been output from a single CSD field.
_refine_ls_R_factor_gt 0.0593
_refine_ls_wR_factor_gt 0.0593
_symmetry_cell_setting monoclinic
_symmetry_space_group_name_H-M 'P 21'
_symmetry_Int_Tables_number 4
loop_
_symmetry_equiv_pos_site_id
_symmetry_equiv_pos_as_xyz
1 x,y,z
2 -x,1/2+y,-z
_cell_length_a 9.4220(19)
_cell_length_b 10.196(2)
_cell_length_c 25.032(5)
_cell_angle_alpha 90
_cell_angle_beta 96.37(3)
_cell_angle_gamma 90
_cell_formula_units_Z 2
loop_
_atom_type_symbol
_atom_type_radius_bond
C 0.68
H 0.23
N 0.68
O 0.68
Zn 1.22
loop_
_atom_site_label
_atom_site_type_symbol
_atom_site_fract_x
_atom_site_fract_y
_atom_site_fract_z
Zn1 Zn 0.05840(14) 0.56917(19) 0.23778(7)
Zn2 Zn 0.07563(13) 0.76508(15) 0.13167(7)
O1 O 0.0622(9) 0.4777(11) 0.1634(4)
O2 O 0.0707(9) 0.6003(10) 0.0902(4)
O3 O 0.0301(11) 0.0009(11) 0.1458(5)
O4 O 0.1130(11) -0.0934(11) 0.0780(5)
O5 O 0.1555(7) 0.3962(10) 0.2853(4)
O6 O 0.3176(10) 0.3342(12) 0.3499(5)
O7 O 0.8698(8) 0.4798(11) 0.2378(4)
O8 O 0.8329(9) 0.3951(11) 0.3171(4)
O9 O -0.0402(7) 0.7367(9) 0.1934(4)
O10 O -0.2029(9) 0.7854(12) 0.1281(4)
O11 O -0.7510(9) 0.6566(10) 0.2422(4)
O12 O -0.7215(8) 0.7585(13) 0.1641(4)
C1 C 0.0909(12) 0.3718(14) 0.0824(6)
C2 C 0.1279(13) 0.3797(15) 0.0304(5)
H1 H 0.13620 0.46140 0.01440
C3 C 0.1520(16) 0.2688(18) 0.0025(6)
H2 H 0.17750 0.27540 -0.03220
C4 C 0.1391(15) 0.1471(17) 0.0251(6)
H3 H 0.15590 0.07150 0.00600
C5 C 0.1007(12) 0.1390(14) 0.0769(6)
C6 C 0.0800(11) 0.2525(14) 0.1055(5)
H4 H 0.05850 0.24690 0.14080
C7 C 0.0727(13) 0.4940(15) 0.1149(7)
C8 C 0.0787(16) 0.0071(17) 0.1023(7)
C9 C 0.3964(11) 0.3799(14) 0.2654(5)
C10 C 0.3560(13) 0.3749(16) 0.2102(6)
H5 H 0.26100 0.36170 0.19690
C11 C 0.4595(12) 0.3898(17) 0.1756(6)
H6 H 0.43400 0.38680 0.13870
C12 C 0.5990(13) 0.4089(15) 0.1954(7)
H7 H 0.66680 0.42110 0.17150
C13 C 0.6410(11) 0.4106(14) 0.2490(7)
C14 C 0.5364(12) 0.3968(14) 0.2837(6)
H8 H 0.56320 0.39910 0.32060
C15 C 0.2834(12) 0.3680(17) 0.3028(7)
C16 C 0.7936(13) 0.4299(14) 0.2709(7)
C17 C -0.4239(11) 0.7435(15) 0.1931(6)
H9 H -0.45160 0.74360 0.15630
C18 C -0.2802(12) 0.7550(15) 0.2135(6)
C19 C -0.2397(12) 0.7624(17) 0.2674(6)
H10 H -0.14360 0.77320 0.27970
C20 C -0.3400(12) 0.7542(16) 0.3045(6)
H11 H -0.31220 0.76110 0.34120
C21 C -0.4809(12) 0.7356(16) 0.2851(6)
H12 H -0.54860 0.72550 0.30910
C22 C -0.5243(12) 0.7318(14) 0.2297(6)
C23 C -0.1678(11) 0.7595(16) 0.1756(6)
C24 C -0.6786(12) 0.7146(13) 0.2092(7)
Zn3 Zn 0.03733(14) 0.37780(15) 0.34596(7)
O13 O 0.0376(10) 0.2347(11) 0.4009(4)
C25 C 0.0327(13) 0.1337(14) 0.3728(6)
O14 O 0.0168(11) 0.1376(10) 0.3240(5)
C26 C 0.0450(14) 0.0025(14) 0.4012(7)
C27 C 0.055(2) -0.0047(17) 0.4572(7)
H13 H 0.05390 0.07160 0.47750
C28 C 0.0510(13) -0.1133(16) 0.3723(6)
H14 H 0.04800 -0.10830 0.33510
C29 C 0.068(2) -0.125(2) 0.4823(7)
H15 H 0.07530 -0.12990 0.51960
C30 C 0.0703(16) -0.2349(18) 0.4522(7)
H16 H 0.07820 -0.31490 0.47010
C31 C 0.0613(13) -0.2365(16) 0.3963(6)
C32 C 0.0582(13) -0.3528(16) 0.3643(7)
O15 O 0.0472(10) -0.343(1) 0.3160(5)
O16 O 0.0672(11) -0.4628(11) 0.3911(5)
N1 N 0.5292(12) 0.0945(15) 0.4083(6)
N2 N 0.6065(11) 0.0790(14) 0.1333(5)
C33 C 0.6149(16) 0.0950(17) 0.0768(7)
C34 C 0.5323(18) 0.022(2) 0.0416(9)
H17 H 0.47480 -0.04390 0.05350
C35 C 0.534(2) 0.045(3) -0.0139(9)
H18 H 0.47560 -0.00360 -0.03890
C36 C 0.622(2) 0.140(3) -0.0308(9)
H19 H 0.62320 0.15620 -0.06730
C37 C 0.708(2) 0.212(2) 0.0070(9)
H20 H 0.76830 0.27600 -0.00450
C38 C 0.7063(18) 0.1904(19) 0.0621(8)
H21 H 0.76410 0.23820 0.08760
C39 C 0.7220(14) 0.0818(18) 0.1698(7)
H22 H 0.81190 0.08560 0.15780
C40 C 0.7129(12) 0.0793(17) 0.2227(6)
H23 H 0.79540 0.08030 0.24680
C41 C 0.5791(13) 0.0752(18) 0.2416(7)
C42 C 0.4606(16) 0.0599(17) 0.2048(7)
H24 H 0.37190 0.04370 0.21640
C43 C 0.4742(14) 0.069(2) 0.1502(7)
H25 H 0.39330 0.06760 0.12520
C44 C 0.5658(12) 0.0769(15) 0.3008(6)
C45 C 0.6686(13) 0.1236(16) 0.3367(7)
H26 H 0.75440 0.14990 0.32490
C46 C 0.6519(15) 0.135(2) 0.3919(7)
H27 H 0.72440 0.16910 0.41610
C47 C 0.4239(15) 0.049(2) 0.3729(8)
H28 H 0.33830 0.02500 0.38540
C48 C 0.4367(14) 0.0372(17) 0.3187(7)
H29 H 0.36240 0.00390 0.29490
C49 C 0.5089(17) 0.1066(19) 0.4633(7)
C50 C 0.388(2) 0.168(2) 0.4775(8)
H30 H 0.32380 0.20810 0.45160
C51 C 0.363(2) 0.168(3) 0.5305(11)
H31 H 0.28170 0.20820 0.54050
C52 C 0.458(2) 0.108(3) 0.5694(10)
H32 H 0.44110 0.11080 0.60530
C53 C 0.574(3) 0.046(3) 0.5550(9)
H33 H 0.63520 0.00350 0.58090
C54 C 0.6027(19) 0.046(2) 0.5004(9)
H34 H 0.68410 0.00580 0.49040
O17 O 0.1596(11) 0.025(2) 0.2470(6)
H35 H 0.10840 -0.03670 0.23360
H36 H 0.11850 0.06760 0.26960
Zn1* Zn -0.94160(14) 0.56917(19) 0.23778(7)
Zn1** Zn 0.05840(14) -0.43083(19) 0.23778(7)
Zn1*** Zn 1.05840(14) 0.56917(19) 0.23778(7)
Zn2* Zn -0.92437(13) 0.76508(15) 0.13167(7)
Zn2** Zn 0.07563(13) -0.23492(15) 0.13167(7)
O3* O 0.0301(11) 1.0009(11) 0.1458(5)
O4* O 0.1130(11) 0.9066(11) 0.0780(5)
O7* O -0.1302(8) 0.4798(11) 0.2378(4)
O8* O -0.1671(9) 0.3951(11) 0.3171(4)
O11* O 0.2490(9) 0.6566(10) 0.2422(4)
O12* O 0.2785(8) 0.7585(13) 0.1641(4)
Zn3* Zn 0.03733(14) -0.62220(15) 0.34596(7)
Zn3** Zn 1.03733(14) 0.37780(15) 0.34596(7)
O15* O 0.0472(10) 0.657(1) 0.3160(5)
O16* O 0.0672(11) 0.5372(11) 0.3911(5)
#END
