
#######################################################################
#
#                 Cambridge Crystallographic Data Centre
#                                CCDC
#
#######################################################################
#
# If this CIF has been generated from an entry in the Cambridge
# Structural Database, then it will include bibliographic, chemical,
# crystal, experimental, refinement or atomic coordinate data resulting
# from the CCDC's data processing and validation procedures.
#
#######################################################################

data_CSD_CIF_ANAGON
_audit_creation_date 2016-05-19
_audit_creation_method CSD-ConQuest-V1
_database_code_CSD ANAGON
_database_code_depnum_ccdc_archive 'CCDC 1471310'
_chemical_formula_sum 'C64 H62 F3 N12 O52 P1 W12 Zn2'
_chemical_formula_moiety
;
(C64 H60 F3 N12 O12 Zn2 1+)n,H2 O40 P1 W12 1-
;
_journal_coden_Cambridge 182
_journal_volume 52
_journal_year 2016
_journal_page_first 7394
_journal_name_full 'Chem.Commun. '
loop_
_publ_author_name
"Jian-Zhen Liao"
"Chen Wu"
"Xiao-Yuan Wu"
"Shui-Quan Deng"
"Can-Zhong Lu"
_chemical_name_systematic
;
catena-[(\m-phosphato)-docosakis(\m-oxo)-bis(\m-hydroxo)-dodeca(oxo)-dodeca-tu
ngsten 
bis(\m-2,7-bis(pyridin-4-yl)benzo[lmn][3,8]phenanthroline-1,3,6,8(2H,7H)-tetro
ne)-(\m-fluoro)-tetrakis(N,N-dimethylacetamide)-difluoro-di-zinc unknown 
solvate]
;
_cell_volume   6174.319
_exptl_crystal_colour 'yellow'
_exptl_crystal_density_diffrn 2.288
_exptl_crystal_description 'block'
_diffrn_ambient_temperature 173
_refine_special_details
;
The SQUEEZE/PLATON program has been used to model some disorder.

;
#These two values have been output from a single CSD field.
_refine_ls_R_factor_gt 0.034
_refine_ls_wR_factor_gt 0.034
_symmetry_cell_setting tetragonal
_symmetry_space_group_name_H-M 'P 4/n'
_symmetry_Int_Tables_number 85
loop_
_symmetry_equiv_pos_site_id
_symmetry_equiv_pos_as_xyz
1 x,y,z
2 1/2-y,x,z
3 1/2-x,1/2-y,z
4 y,1/2-x,z
5 -x,-y,-z
6 -1/2+y,-x,-z
7 -1/2+x,-1/2+y,-z
8 -y,-1/2+x,-z
_cell_length_a 19.5965(3)
_cell_length_b 19.5965(3)
_cell_length_c 16.0780(3)
_cell_angle_alpha 90
_cell_angle_beta 90
_cell_angle_gamma 90
_cell_formula_units_Z 2
loop_
_atom_type_symbol
_atom_type_radius_bond
C 0.68
H 0.23
F 0.64
N 0.68
O 0.68
P 1.05
W 1.62
Zn 1.22
loop_
_atom_site_label
_atom_site_type_symbol
_atom_site_fract_x
_atom_site_fract_y
_atom_site_fract_z
W1 W 0.688401(13) 0.364213(13) 0.844065(14)
W2 W 0.633612(12) 0.198393(13) 0.843794(14)
W3 W 0.577582(13) 0.309211(14) 0.993694(14)
P1 P 0.75000 0.25000 1.00000
O1 O 0.7240(2) 0.1725(2) 0.8150(2)
O2 O 0.5859(2) 0.1575(2) 0.7709(2)
O3 O 0.5639(2) 0.2430(2) 0.9085(2)
O4 O 0.6487(2) 0.2851(2) 0.7919(2)
O5 O 0.5874(2) 0.2359(2) 1.0706(2)
O6 O 0.6897(2) 0.2708(2) 0.9451(2)
O7 O 0.6317(2) 0.3604(2) 1.0710(2)
O8 O 0.6758(2) 0.4260(2) 0.7718(3)
O9 O 0.6066(2) 0.3713(2) 0.9077(2)
O10 O 0.4972(2) 0.3373(3) 1.0124(2)
Zn1 Zn 0.25000 0.25000 0.59339(9)
Zn2 Zn 0.25000 0.25000 0.84311(10)
F1 F 0.25000 0.25000 0.4487(6)
F2 F 0.25000 0.25000 0.7200(4)
F3 F 0.25000 0.25000 0.9789(6)
N1 N 0.2541(3) 0.3573(3) 0.5908(3)
N2 N 0.2540(3) 0.5710(3) 0.6020(3)
N3 N 0.4141(3) 0.3979(3) 0.8443(4)
O11 O 0.1374(3) 0.5678(2) 0.6171(3)
O12 O 0.3688(3) 0.5737(2) 0.5824(3)
O13 O 0.3366(2) 0.3149(2) 0.8381(3)
C1 C 0.2195(4) 0.3946(3) 0.5346(4)
H1 H 0.19420 0.37150 0.49280
C2 C 0.2193(4) 0.4646(3) 0.5351(4)
H2 H 0.19550 0.48980 0.49380
C3 C 0.2552(4) 0.4978(3) 0.5984(4)
C4 C 0.2906(3) 0.4604(3) 0.6562(4)
H3 H 0.31630 0.48240 0.69850
C5 C 0.2881(3) 0.3901(3) 0.6513(4)
H4 H 0.31120 0.36400 0.69230
C6 C 0.1894(3) 0.6021(3) 0.6100(4)
C7 C 0.1885(3) 0.6779(3) 0.6067(3)
C8 C 0.2506(3) 0.7140(3) 0.6067(3)
C9 C 0.3139(3) 0.6800(3) 0.6038(3)
C10 C 0.3163(3) 0.6053(3) 0.5959(4)
C11 C 0.3742(3) 0.7166(3) 0.6050(3)
H5 H 0.41670 0.69330 0.60400
C12 C 0.3728(3) 0.7885(3) 0.6076(4)
H6 H 0.41430 0.81350 0.60990
C13 C 0.3565(4) 0.3699(4) 0.8686(4)
C14 C 0.3173(5) 0.4061(4) 0.9346(5)
H7 H 0.27230 0.38490 0.94070
H8 H 0.31180 0.45410 0.91910
H9 H 0.34210 0.40310 0.98750
C15 C 0.4553(4) 0.3638(5) 0.7798(6)
H10 H 0.43330 0.32090 0.76370
H11 H 0.50100 0.35430 0.80180
H12 H 0.45910 0.39360 0.73110
C16 C 0.4431(5) 0.4614(4) 0.8771(6)
H13 H 0.41420 0.47840 0.92230
H14 H 0.44520 0.49550 0.83260
H15 H 0.48910 0.45260 0.89820
O6B O 0.8103(2) 0.2292(2) 0.9451(2)
O6E O 0.7708(2) 0.3103(2) 1.0549(2)
O6G O 0.7292(2) 0.1897(2) 1.0549(2)
W1B W 0.811599(13) 0.135787(13) 0.844065(14)
W2B W 0.866388(12) 0.301607(13) 0.843794(14)
W3B W 0.922418(13) 0.190789(14) 0.993694(14)
O1B O 0.7760(2) 0.3275(2) 0.8150(2)
O2B O 0.9141(2) 0.3425(2) 0.7709(2)
O3B O 0.9361(2) 0.2570(2) 0.9085(2)
O4B O 0.8513(2) 0.2149(2) 0.7919(2)
O5B O 0.9126(2) 0.2641(2) 1.0706(2)
O7B O 0.8683(2) 0.1396(2) 1.0710(2)
O8B O 0.8242(2) 0.0740(2) 0.7718(3)
O9B O 0.8934(2) 0.1287(2) 0.9077(2)
O10B O 1.0028(2) 0.1627(3) 1.0124(2)
W1E W 0.864213(13) 0.311599(13) 1.155935(14)
W2E W 0.698393(12) 0.366388(13) 1.156206(14)
W3E W 0.809211(13) 0.422418(14) 1.006306(14)
O1E O 0.6725(2) 0.2760(2) 1.1850(2)
O2E O 0.6575(2) 0.4141(2) 1.2291(2)
O3E O 0.7430(2) 0.4361(2) 1.0915(2)
O4E O 0.7851(2) 0.3513(2) 1.2081(2)
O5E O 0.7359(2) 0.4126(2) 0.9294(2)
O7E O 0.8604(2) 0.3683(2) 0.9290(2)
O8E O 0.9260(2) 0.3242(2) 1.2282(3)
O9E O 0.8713(2) 0.3934(2) 1.0923(2)
O10E O 0.8373(2) 0.5028(3) 0.9876(2)
W1G W 0.635787(13) 0.188401(13) 1.155935(14)
W2G W 0.801607(12) 0.133612(13) 1.156206(14)
W3G W 0.690789(13) 0.077582(14) 1.006306(14)
O1G O 0.8275(2) 0.2240(2) 1.1850(2)
O2G O 0.8425(2) 0.0859(2) 1.2291(2)
O3G O 0.7570(2) 0.0639(2) 1.0915(2)
O4G O 0.7149(2) 0.1487(2) 1.2081(2)
O5G O 0.7641(2) 0.0874(2) 0.9294(2)
O7G O 0.6396(2) 0.1317(2) 0.9290(2)
O8G O 0.5740(2) 0.1758(2) 1.2282(3)
O9G O 0.6287(2) 0.1066(2) 1.0923(2)
O10G O 0.6627(2) -0.0028(3) 0.9876(2)
N1B N 0.2459(3) 1.1427(3) 0.5908(3)
N2B N 0.2460(3) 0.9290(3) 0.6020(3)
O11B O 0.3626(3) 0.9322(2) 0.6171(3)
O12B O 0.1312(3) 0.9263(2) 0.5824(3)
C1B C 0.2805(4) 1.1054(3) 0.5346(4)
H1B H 0.30580 1.12850 0.49280
C2B C 0.2807(4) 1.0354(3) 0.5351(4)
H2B H 0.30450 1.01020 0.49380
C3B C 0.2448(4) 1.0022(3) 0.5984(4)
C4B C 0.2094(3) 1.0396(3) 0.6562(4)
H3B H 0.18370 1.01760 0.69850
C5B C 0.2119(3) 1.1099(3) 0.6513(4)
H4B H 0.18880 1.13600 0.69230
C6B C 0.3106(3) 0.8979(3) 0.6100(4)
C7B C 0.3115(3) 0.8221(3) 0.6067(3)
C8B C 0.2494(3) 0.7860(3) 0.6067(3)
C9B C 0.1861(3) 0.8200(3) 0.6038(3)
C10B C 0.1837(3) 0.8947(3) 0.5959(4)
C11B C 0.1258(3) 0.7834(3) 0.6050(3)
H5B H 0.08330 0.80670 0.60400
C12B C 0.1272(3) 0.7115(3) 0.6076(4)
H6B H 0.08570 0.68650 0.60990
N1A N 0.1427(3) 0.2541(3) 0.5908(3)
N2A N -0.0710(3) 0.2540(3) 0.6020(3)
N3A N 0.1021(3) 0.4141(3) 0.8443(4)
O11A O -0.0678(3) 0.1374(2) 0.6171(3)
O12A O -0.0737(3) 0.3688(2) 0.5824(3)
O13A O 0.1851(2) 0.3366(2) 0.8381(3)
C1A C 0.1054(4) 0.2195(3) 0.5346(4)
H1A H 0.12850 0.19420 0.49280
C2A C 0.0354(4) 0.2193(3) 0.5351(4)
H2A H 0.01020 0.19550 0.49380
C3A C 0.0022(4) 0.2552(3) 0.5984(4)
C4A C 0.0396(3) 0.2906(3) 0.6562(4)
H3A H 0.01760 0.31630 0.69850
C5A C 0.1099(3) 0.2881(3) 0.6513(4)
H4A H 0.13600 0.31120 0.69230
C6A C -0.1021(3) 0.1894(3) 0.6100(4)
C7A C -0.1779(3) 0.1885(3) 0.6067(3)
C8A C -0.2140(3) 0.2506(3) 0.6067(3)
C9A C -0.1800(3) 0.3139(3) 0.6038(3)
C10A C -0.1053(3) 0.3163(3) 0.5959(4)
C11A C -0.2166(3) 0.3742(3) 0.6050(3)
H5A H -0.19330 0.41670 0.60400
C12A C -0.2885(3) 0.3728(3) 0.6076(4)
H6A H -0.31350 0.41430 0.60990
C13A C 0.1301(4) 0.3565(4) 0.8686(4)
C14A C 0.0939(5) 0.3173(4) 0.9346(5)
H7A H 0.11510 0.27230 0.94070
H8A H 0.04590 0.31180 0.91910
H9A H 0.09690 0.34210 0.98750
C15A C 0.1362(4) 0.4553(5) 0.7798(6)
H10A H 0.17910 0.43330 0.76370
H11A H 0.14570 0.50100 0.80180
H12A H 0.10640 0.45910 0.73110
C16A C 0.0386(5) 0.4431(4) 0.8771(6)
H13A H 0.02160 0.41420 0.92230
H14A H 0.00450 0.44520 0.83260
H15A H 0.04740 0.48910 0.89820
N1C N -0.6427(3) 0.2459(3) 0.5908(3)
N2C N -0.4290(3) 0.2460(3) 0.6020(3)
O11C O -0.4322(3) 0.3626(2) 0.6171(3)
O12C O -0.4263(3) 0.1312(2) 0.5824(3)
C1C C -0.6054(4) 0.2805(3) 0.5346(4)
H1C H -0.62850 0.30580 0.49280
C2C C -0.5354(4) 0.2807(3) 0.5351(4)
H2C H -0.51020 0.30450 0.49380
C3C C -0.5022(4) 0.2448(3) 0.5984(4)
C4C C -0.5396(3) 0.2094(3) 0.6562(4)
H3C H -0.51760 0.18370 0.69850
C5C C -0.6099(3) 0.2119(3) 0.6513(4)
H4C H -0.63600 0.18880 0.69230
C6C C -0.3979(3) 0.3106(3) 0.6100(4)
C7C C -0.3221(3) 0.3115(3) 0.6067(3)
C8C C -0.2860(3) 0.2494(3) 0.6067(3)
C9C C -0.3200(3) 0.1861(3) 0.6038(3)
C10C C -0.3947(3) 0.1837(3) 0.5959(4)
C11C C -0.2834(3) 0.1258(3) 0.6050(3)
H5C H -0.30670 0.08330 0.60400
C12C C -0.2115(3) 0.1272(3) 0.6076(4)
H6C H -0.18650 0.08570 0.60990
N3B N 0.0859(3) 0.1021(3) 0.8443(4)
O13B O 0.1634(2) 0.1851(2) 0.8381(3)
C13B C 0.1435(4) 0.1301(4) 0.8686(4)
C14B C 0.1827(5) 0.0939(4) 0.9346(5)
H7B H 0.22770 0.11510 0.94070
H8B H 0.18820 0.04590 0.91910
H9B H 0.15790 0.09690 0.98750
C15B C 0.0447(4) 0.1362(5) 0.7798(6)
H10B H 0.06670 0.17910 0.76370
H11B H -0.00100 0.14570 0.80180
H12B H 0.04090 0.10640 0.73110
C16B C 0.0569(5) 0.0386(4) 0.8771(6)
H13B H 0.08580 0.02160 0.92230
H14B H 0.05480 0.00450 0.83260
H15B H 0.01090 0.04740 0.89820
N3C N 0.3979(3) 0.0859(3) 0.8443(4)
O13C O 0.3149(2) 0.1634(2) 0.8381(3)
C13C C 0.3699(4) 0.1435(4) 0.8686(4)
C14C C 0.4061(5) 0.1827(4) 0.9346(5)
H7C H 0.38490 0.22770 0.94070
H8C H 0.45410 0.18820 0.91910
H9C H 0.40310 0.15790 0.98750
C15C C 0.3638(4) 0.0447(5) 0.7798(6)
H10C H 0.32090 0.06670 0.76370
H11C H 0.35430 -0.00100 0.80180
H12C H 0.39360 0.04090 0.73110
C16C C 0.4614(5) 0.0569(4) 0.8771(6)
H13C H 0.47840 0.08580 0.92230
H14C H 0.49550 0.05480 0.83260
H15C H 0.45260 0.01090 0.89820
Zn1* Zn -0.75000 0.25000 0.59339(9)
Zn1** Zn 0.25000 1.25000 0.59339(9)
N1B* N 0.2459(3) 0.1427(3) 0.5908(3)
N1C* N 0.3573(3) 0.2459(3) 0.5908(3)
#END
