
#######################################################################
#
#                 Cambridge Crystallographic Data Centre
#                                CCDC
#
#######################################################################
#
# If this CIF has been generated from an entry in the Cambridge
# Structural Database, then it will include bibliographic, chemical,
# crystal, experimental, refinement or atomic coordinate data resulting
# from the CCDC's data processing and validation procedures.
#
#######################################################################

data_CSD_CIF_ANAMOU
_audit_creation_date 2021-02-22
_audit_creation_method CSD-ConQuest-V1
_database_code_CSD ANAMOU
_database_code_depnum_ccdc_archive 'CCDC 1548937'
_chemical_formula_sum 'C36 H28 Cu4 Mo8 N28 O26'
_chemical_formula_moiety
;
(C18 H14 Cu2 N14 2+)2n,Mo8 O26 4-
;
_journal_coden_Cambridge 2069
_journal_year 2020
_journal_page_first 1
_journal_name_full 'Inorg.Nano-Metal Chem. '
loop_
_publ_author_name
"Yuan-Yuan Liu"
"Jun-Dan An"
"Tian-Tian Wang"
"Yong Li"
"Bin Ding"
_chemical_name_systematic
;
catena-[bis(\m-2,6-bis(4H-1,2,4-triazol-4-yl)pyridine)-di-copper 
dodecakis(\m-oxido)-tetradecakis(oxido)-octa-molybdenum]
;
_cell_volume   1446.981
_exptl_crystal_colour 'yellow'
_exptl_crystal_density_diffrn 2.629
_exptl_crystal_description 'block'
_diffrn_ambient_temperature 296
#These two values have been output from a single CSD field.
_refine_ls_R_factor_gt 0.0712
_refine_ls_wR_factor_gt 0.0712
_symmetry_cell_setting triclinic
_symmetry_space_group_name_H-M 'P -1'
_symmetry_Int_Tables_number 2
loop_
_symmetry_equiv_pos_site_id
_symmetry_equiv_pos_as_xyz
1 x,y,z
2 -x,-y,-z
_cell_length_a 11.029(3)
_cell_length_b 11.917(3)
_cell_length_c 13.110(3)
_cell_angle_alpha 113.122(4)
_cell_angle_beta 105.711(4)
_cell_angle_gamma 100.019(4)
_cell_formula_units_Z 1
loop_
_atom_type_symbol
_atom_type_radius_bond
C 0.68
H 0.23
Cu 1.32
Mo 1.54
N 0.68
O 0.68
loop_
_atom_site_label
_atom_site_type_symbol
_atom_site_fract_x
_atom_site_fract_y
_atom_site_fract_z
Cu1 Cu 0.37864(16) 0.80156(19) -0.09440(16)
Cu2 Cu 0.71136(16) 0.89688(17) 0.10034(15)
N1 N 0.6599(10) 0.8116(10) -0.0732(9)
N2 N 0.5325(10) 0.7769(10) -0.1481(10)
N3 N 0.6566(10) 0.7285(10) -0.254(1)
N4 N 0.5626(10) 0.9425(12) 0.1543(11)
N5 N 0.4319(10) 0.8974(11) 0.0761(9)
N6 N 0.4391(10) 0.9965(9) 0.258(1)
N7 N -0.1269(10) 0.9677(11) 0.240(1)
N8 N -0.124(1) 1.0392(10) 0.3547(9)
N9 N 0.0774(9) 1.0357(9) 0.3646(9)
N10 N 1.2219(10) 0.7519(11) -0.2338(10)
N11 N 1.223(1) 0.7032(11) -0.3479(10)
N12 N 1.0157(10) 0.6858(9) -0.3575(9)
N13 N 0.8305(10) 0.7029(10) -0.3153(10)
N14 N 0.2647(10) 1.0219(9) 0.3225(9)
C1 C 0.7345(13) 0.7824(13) -0.1341(12)
H1 H 0.82510 0.79550 -0.10260
C2 C 0.5326(12) 0.7276(12) -0.2573(12)
H2 H 0.45820 0.69650 -0.32670
C3 C 0.7013(12) 0.6827(10) -0.3515(11)
C4 C 0.6161(12) 0.6272(12) -0.4676(12)
H3 H 0.52560 0.61450 -0.48710
C5 C 0.6695(14) 0.5898(12) -0.5566(13)
H4 H 0.61630 0.55670 -0.63680
C6 C 0.8042(13) 0.6036(12) -0.5217(12)
H5 H 0.84290 0.57450 -0.57780
C7 C 0.8791(12) 0.6627(12) -0.3995(11)
C8 C 1.0978(12) 0.7389(12) -0.2429(12)
H6 H 1.07080 0.76350 -0.17830
C9 C 1.0998(14) 0.6657(13) -0.4184(13)
H7 H 1.07150 0.62930 -0.50130
C10 C 0.5649(12) 1.0032(12) 0.2654(12)
H8 H 0.64000 1.04320 0.33550
C11 C 0.3592(13) 0.9284(13) 0.1380(13)
H9 H 0.26730 0.90810 0.10680
C12 C 0.3951(12) 1.0459(11) 0.3544(12)
C13 C 0.4827(12) 1.1134(12) 0.4730(12)
H10 H 0.57400 1.13260 0.49270
C14 C 0.4296(13) 1.1513(12) 0.5613(13)
H11 H 0.48460 1.19460 0.64180
C15 C 0.2945(12) 1.1235(11) 0.5274(11)
H12 H 0.25560 1.14680 0.58400
C16 C 0.2188(11) 1.0606(11) 0.4077(11)
C17 C -0.0002(13) 1.0763(12) 0.4241(12)
H13 H 0.03110 1.12610 0.50670
C18 C -0.0063(13) 0.9678(12) 0.2512(12)
H14 H 0.01850 0.92540 0.18760
Mo1 Mo -0.02243(10) 0.34267(9) -0.00204(9)
Mo2 Mo 0.16531(11) 0.64644(10) 0.29753(10)
Mo3 Mo 0.16719(11) 0.42191(11) -0.18278(10)
Mo4 Mo 0.33546(11) 0.56153(11) 0.11661(10)
O1 O -0.1587(10) 0.3920(9) 0.0191(8)
O2 O 0.2554(10) 0.5930(9) 0.3847(9)
O3 O -0.0416(9) 0.1940(8) -0.0078(8)
O4 O -0.0144(8) 0.3344(8) -0.1391(8)
O5 O 0.1254(9) 0.4537(8) 0.1178(8)
O6 O -0.0116(9) 0.5513(8) 0.2672(8)
O7 O 0.1778(10) 0.7963(9) 0.3946(8)
O8 O 0.2822(8) 0.6865(8) 0.2230(8)
O9 O 0.4137(10) 0.5002(10) 0.2026(9)
O10 O 0.4582(10) 0.662(1) 0.1092(11)
O11 O 0.2569(8) 0.4186(8) -0.0399(8)
O12 O 0.284(1) 0.5265(9) -0.1905(9)
O13 O 0.1518(11) 0.2749(10) -0.2873(9)
Cu1* Cu 1.37864(16) 0.80156(19) -0.09440(16)
Cu2* Cu -0.28864(16) 0.89688(17) 0.10034(15)
N7* N 0.8731(10) 0.9677(11) 0.240(1)
N10* N 0.2219(10) 0.7519(11) -0.2338(10)
Mo1A Mo 0.02243(10) 0.65733(9) 0.00204(9)
Mo2A Mo -0.16531(11) 0.35356(10) -0.29753(10)
Mo3A Mo -0.16719(11) 0.57809(11) 0.18278(10)
Mo4A Mo -0.33546(11) 0.43847(11) -0.11661(10)
O1A O 0.1587(10) 0.6080(9) -0.0191(8)
O2A O -0.2554(10) 0.4070(9) -0.3847(9)
O3A O 0.0416(9) 0.8060(8) 0.0078(8)
O4A O 0.0144(8) 0.6656(8) 0.1391(8)
O5A O -0.1254(9) 0.5463(8) -0.1178(8)
O6A O 0.0116(9) 0.4487(8) -0.2672(8)
O7A O -0.1778(10) 0.2037(9) -0.3946(8)
O8A O -0.2822(8) 0.3135(8) -0.2230(8)
O9A O -0.4137(10) 0.4998(10) -0.2026(9)
O10A O -0.4582(10) 0.338(1) -0.1092(11)
O11A O -0.2569(8) 0.5814(8) 0.0399(8)
O12A O -0.284(1) 0.4735(9) 0.1905(9)
O13A O -0.1518(11) 0.7251(10) 0.2873(9)
#END
