
#######################################################################
#
#                 Cambridge Crystallographic Data Centre
#                                CCDC
#
#######################################################################
#
# If this CIF has been generated from an entry in the Cambridge
# Structural Database, then it will include bibliographic, chemical,
# crystal, experimental, refinement or atomic coordinate data resulting
# from the CCDC's data processing and validation procedures.
#
#######################################################################

data_CSD_CIF_ANEFIK02
_audit_creation_date 2016-06-07
_audit_creation_method CSD-ConQuest-V1
_database_code_CSD ANEFIK02
_database_code_depnum_ccdc_archive 'CCDC 1473505'
_chemical_formula_sum 'C72 H144 Cu6 N6 O42'
_chemical_formula_moiety
;
(C18 Cu6 O36 6-)n,6n(C9 H22 N1 1+),6n(H2 O1)
;
_journal_coden_Cambridge 1078
_journal_year 2016
_journal_name_full 'CSD Communication(Private Communication) '
loop_
_publ_author_name
"Zhang Bin"
_chemical_name_systematic
;
catena-[hexakis(tri-n-propylammonium) nonakis(\m-oxalato)-hexa-copper 
hexahydrate]
;
_cell_volume   4876.152
_exptl_crystal_colour 'blue'
_exptl_crystal_density_diffrn 1.462
_exptl_special_details
;
Organic Solid Laboratory, BNLMS, CMS & Institute of Chemistry, Chinese 
Academy of Sciences, Beijing, 100190, P. R. China
;
_exptl_crystal_description 'plate'
_diffrn_ambient_temperature 100
_refine_special_details
;
The structure is disordered.

;
#These two values have been output from a single CSD field.
_refine_ls_R_factor_gt 0.043
_refine_ls_wR_factor_gt 0.043
_symmetry_cell_setting monoclinic
_symmetry_space_group_name_H-M 'P 21'
_symmetry_Int_Tables_number 4
loop_
_symmetry_equiv_pos_site_id
_symmetry_equiv_pos_as_xyz
1 x,y,z
2 -x,1/2+y,-z
_cell_length_a 15.8427(5)
_cell_length_b 21.7313(4)
_cell_length_c 16.0492(5)
_cell_angle_alpha 90
_cell_angle_beta 118.056(4)
_cell_angle_gamma 90
_cell_formula_units_Z 2
loop_
_atom_type_symbol
_atom_type_radius_bond
C 0.68
H 0.23
Cu 1.32
N 0.68
O 0.68
loop_
_atom_site_label
_atom_site_type_symbol
_atom_site_fract_x
_atom_site_fract_y
_atom_site_fract_z
C1 C 0.4497(3) 0.4255(2) 0.0839(3)
C2 C 0.4209(4) 0.3655(2) 0.0236(4)
C3 C 0.7879(4) 0.4342(2) 0.2169(4)
C4 C 0.7464(3) 0.3730(2) 0.2314(4)
C5 C 0.8981(4) 0.4308(2) 0.5472(4)
C6 C 0.9655(4) 0.3736(2) 0.5795(4)
C7 C 0.7709(4) 0.4304(2) 0.7520(4)
C8 C 0.7582(4) 0.3691(2) 0.6983(4)
C9 C 0.4452(4) 0.4295(2) 0.5382(4)
C10 C 0.4116(4) 0.3705(2) 0.5680(4)
C11 C 0.2348(3) 0.4263(2) 0.2037(4)
C12 C 0.2972(4) 0.3677(2) 0.2437(4)
C13 C 0.1156(4) 0.4363(2) -0.1223(4)
C14 C 0.0901(4) 0.3746(2) -0.0916(4)
C15 C 0.5587(3) 0.4346(2) -0.1286(4)
C16 C 0.6234(4) 0.3765(2) -0.1027(4)
C17 C 1.1141(4) 0.4347(2) 0.4225(4)
C18 C 1.0821(4) 0.3732(2) 0.3680(4)
O1 O 0.3912(2) 0.44451(17) 0.1097(3)
O2 O 0.3393(2) 0.34475(16) 0.0036(3)
O3 O 0.5271(2) 0.45118(16) 0.1025(3)
O4 O 0.4784(2) 0.34294(16) 0.0002(3)
O5 O 0.7419(2) 0.46241(16) 0.1416(3)
O6 O 0.6675(2) 0.35573(16) 0.1636(3)
O7 O 0.8668(2) 0.45175(16) 0.2844(3)
O8 O 0.7920(2) 0.34493(16) 0.3073(2)
O9 O 0.8670(3) 0.44699(17) 0.4628(3)
O10 O 0.9821(3) 0.35091(17) 0.5169(3)
O11 O 0.8797(3) 0.45635(17) 0.6065(3)
O12 O 0.9969(3) 0.35511(19) 0.6619(3)
O13 O 0.8471(3) 0.45895(17) 0.7783(3)
O14 O 0.8289(2) 0.35238(16) 0.6868(3)
O15 O 0.7022(3) 0.44781(18) 0.7646(3)
O16 O 0.6825(3) 0.34053(17) 0.6696(3)
O17 O 0.5284(3) 0.44758(17) 0.5960(3)
O18 O 0.4694(3) 0.34745(17) 0.6463(3)
O19 O 0.3912(3) 0.45450(18) 0.4626(3)
O20 O 0.3312(3) 0.34957(19) 0.5131(3)
O21 O 0.2062(2) 0.45275(16) 0.2551(3)
O22 O 0.3149(3) 0.35246(16) 0.3272(3)
O23 O 0.2172(3) 0.44341(17) 0.1224(3)
O24 O 0.3235(3) 0.34010(17) 0.1939(3)
O25 O 0.1964(2) 0.45844(17) -0.0725(3)
O26 O 0.1504(2) 0.34968(16) -0.0175(3)
O27 O 0.0513(3) 0.46044(17) -0.1975(3)
O28 O 0.0089(2) 0.35318(17) -0.1448(3)
O29 O 0.5467(2) 0.45790(16) -0.0626(3)
O30 O 0.6585(3) 0.35901(17) -0.0183(3)
O31 O 0.5245(3) 0.45493(17) -0.2099(3)
O32 O 0.6349(3) 0.35080(17) -0.1657(3)
O33 O 1.0613(3) 0.45901(18) 0.4506(3)
O34 O 1.0021(3) 0.35191(17) 0.3510(3)
O35 O 1.1924(3) 0.45674(16) 0.4340(3)
O36 O 1.1392(3) 0.34862(16) 0.3438(3)
Cu1 Cu 0.27283(4) 0.39363(3) 0.05731(4)
Cu2 Cu 0.60777(4) 0.40945(3) 0.05336(4)
Cu3 Cu 0.92600(4) 0.39835(3) 0.39828(4)
Cu4 Cu 0.93751(4) 0.40942(3) 0.73722(4)
Cu5 Cu 0.58723(4) 0.39563(3) 0.71200(4)
Cu6 Cu 0.26041(4) 0.40608(3) 0.38651(4)
C19 C 0.6147(5) 0.4477(3) 0.3519(4)
H1 H 0.55960 0.43630 0.29080
H2 H 0.67380 0.43960 0.34720
C20 C 0.6145(4) 0.4085(3) 0.4278(4)
H3 H 0.55530 0.41600 0.43250
H4 H 0.66970 0.41950 0.48910
C21 C 0.6204(6) 0.3400(3) 0.4070(6)
H5 H 0.56100 0.32750 0.35180
H6 H 0.62940 0.31530 0.46170
H7 H 0.67450 0.33350 0.39440
C22 C 0.6262(6) 0.5550(4) 0.2992(5)
H8 H 0.59870 0.53350 0.23760
H9 H 0.59230 0.59470 0.28970
C23 C 0.7280(6) 0.5669(4) 0.3312(6)
H10 H 0.76220 0.52740 0.33970
H11 H 0.75610 0.58830 0.39280
C24 C 0.7404(6) 0.6060(3) 0.2599(6)
H12 H 0.70790 0.58630 0.19770
H13 H 0.80860 0.61020 0.27900
H14 H 0.71260 0.64680 0.25670
C25 C 0.5272(6) 0.5407(4) 0.3787(6)
H15 H 0.53750 0.58510 0.39370
H16 H 0.52370 0.51980 0.43180
C26 C 0.4323(8) 0.5319(5) 0.2886(7)
H17 H 0.41500 0.48770 0.27970
H18 H 0.43850 0.54620 0.23320
C27 C 0.3532(5) 0.5692(3) 0.2972(6)
H19 H 0.29220 0.56380 0.23970
H20 H 0.34700 0.55450 0.35180
H21 H 0.37040 0.61290 0.30540
N1 N 0.6091(4) 0.5159(3) 0.3694(4)
C28 C 0.2768(6) 0.4481(4) -0.3144(6)
H22 H 0.33350 0.44210 -0.32420
H23 H 0.21900 0.43580 -0.37290
C29 C 0.2852(5) 0.4123(4) -0.2375(6)
H24 H 0.22950 0.42010 -0.22670
H25 H 0.34370 0.42440 -0.17970
C30 C 0.2867(9) 0.5544(7) -0.3678(8)
H26 H 0.25630 0.53450 -0.43070
H27 H 0.25360 0.59400 -0.37360
C31 C 0.2903(7) 0.3370(5) -0.2584(6)
H28 H 0.23440 0.32570 -0.31780
H29 H 0.29090 0.31290 -0.20660
H30 H 0.34870 0.32870 -0.26310
C32 C 0.3779(8) 0.5659(5) -0.3439(9)
H31 H 0.41280 0.52660 -0.33440
H32 H 0.40790 0.58890 -0.28350
C33 C 0.3861(7) 0.6019(4) -0.4168(7)
H33 H 0.34440 0.58410 -0.47900
H34 H 0.45250 0.60110 -0.40550
H35 H 0.36670 0.64450 -0.41490
C34 C 0.1585(10) 0.5076(7) -0.3231(11)
H36 H 0.12130 0.49380 -0.38940
H37 H 0.14650 0.47870 -0.28210
C35 C 0.1307(10) 0.5717(7) -0.3119(14)
H38 H 0.15500 0.60150 -0.34210
H39 H 0.15820 0.58220 -0.24410
C36 C 0.0232(5) 0.5741(3) -0.3582(6)
H40 H 0.00280 0.61560 -0.35210
H41 H -0.00310 0.56370 -0.42530
H42 H 0.00000 0.54450 -0.32760
N2 N 0.2699(5) 0.5099(4) -0.2930(5)
H43 H 0.31140 0.52070 -0.22510
C37 C 0.9590(4) 0.4529(2) 0.0240(4)
H44 H 0.90750 0.44110 -0.03920
H45 H 1.02090 0.44530 0.02460
C38 C 0.9527(4) 0.4124(3) 0.0968(4)
H46 H 0.88920 0.41740 0.09370
H47 H 1.00210 0.42490 0.16060
C39 C 0.9675(6) 0.3460(3) 0.0801(6)
H48 H 0.91580 0.33270 0.01900
H49 H 0.96720 0.32060 0.13040
H50 H 1.02900 0.34150 0.08010
C40 C 0.9693(5) 0.5584(3) -0.0295(4)
H51 H 0.94090 0.53730 -0.09150
H52 H 0.93750 0.59880 -0.03840
C41 C 1.0743(5) 0.5682(3) 0.0039(5)
H53 H 1.10640 0.52800 0.01140
H54 H 1.10340 0.58910 0.06610
C42 C 1.0879(5) 0.6071(3) -0.0670(5)
H55 H 1.06190 0.58530 -0.12750
H56 H 1.15620 0.61490 -0.04380
H57 H 1.05430 0.64640 -0.07560
C43 C 0.8647(5) 0.5435(3) 0.0447(5)
H58 H 0.87130 0.58830 0.05770
H59 H 0.86070 0.52280 0.09770
C44 C 0.7731(7) 0.5312(4) -0.0471(7)
H60 H 0.75720 0.48680 -0.05320
H61 H 0.78130 0.54400 -0.10210
C45 C 0.6916(4) 0.5696(3) -0.0427(6)
H62 H 0.63140 0.56290 -0.10060
H63 H 0.68420 0.55650 0.01190
H64 H 0.70810 0.61340 -0.03670
N3 N 0.9505(4) 0.5206(2) 0.0387(4)
H65 H 1.00560 0.52970 0.10210
C46 C 0.7096(4) 0.2174(2) 0.1451(4)
H66 H 0.71590 0.23570 0.20430
H67 H 0.71410 0.17220 0.15340
C47 C 0.7921(4) 0.2393(3) 0.1301(4)
H68 H 0.78590 0.28400 0.11620
H69 H 0.79190 0.21740 0.07590
C48 C 0.8857(4) 0.2264(3) 0.2201(4)
H70 H 0.93980 0.24140 0.21220
H71 H 0.89240 0.18200 0.23210
H72 H 0.88460 0.24750 0.27360
C49 C 0.5337(4) 0.2087(2) 0.0843(4)
H73 H 0.53610 0.16320 0.08460
H74 H 0.47100 0.22140 0.03230
C50 C 0.5408(4) 0.2305(2) 0.1772(4)
H75 H 0.55070 0.27560 0.18300
H76 H 0.59630 0.21070 0.23040
C51 C 0.4492(4) 0.2143(3) 0.1822(5)
H77 H 0.39450 0.23460 0.13020
H78 H 0.45480 0.22840 0.24260
H79 H 0.43980 0.16960 0.17690
C52 C 0.6017(4) 0.2128(2) -0.0283(4)
H80 H 0.61840 0.16860 -0.02380
H81 H 0.64860 0.23570 -0.04070
C53 C 0.5032(4) 0.2217(3) -0.1116(4)
H82 H 0.47990 0.26370 -0.11010
H83 H 0.45790 0.19190 -0.10770
C54 C 0.5078(5) 0.2121(3) -0.2030(4)
H84 H 0.44320 0.21420 -0.25640
H85 H 0.53560 0.17160 -0.20200
H86 H 0.54770 0.24420 -0.20960
N4 N 0.6115(3) 0.23332(19) 0.0652(3)
H87 H 0.60590 0.27920 0.06300
C55 C 1.0368(4) 0.2135(2) 0.8109(4)
H88 H 1.03710 0.16800 0.81490
H89 H 1.04450 0.22990 0.87170
C56 C 1.1218(4) 0.2335(3) 0.7989(4)
H90 H 1.11890 0.27840 0.78770
H91 H 1.12050 0.21250 0.74350
C57 C 1.2137(4) 0.2175(3) 0.8870(4)
H92 H 1.26870 0.22990 0.87860
H93 H 1.21620 0.17300 0.89800
H94 H 1.21560 0.23920 0.94140
C58 C 0.8603(4) 0.2119(2) 0.7502(4)
H95 H 0.85730 0.16640 0.74600
H96 H 0.79930 0.22820 0.69960
C59 C 0.8700(4) 0.2313(2) 0.8458(4)
H97 H 0.92230 0.20770 0.89660
H98 H 0.88670 0.27550 0.85640
C60 C 0.7775(4) 0.2202(3) 0.8498(5)
H99 H 0.72610 0.24460 0.80080
H100 H 0.78560 0.23230 0.91200
H101 H 0.76090 0.17640 0.83930
C61 C 0.9281(4) 0.2137(2) 0.6383(4)
H102 H 0.93820 0.16870 0.63980
H103 H 0.97820 0.23360 0.62720
C62 C 0.8308(4) 0.2287(3) 0.5555(4)
H104 H 0.81380 0.27200 0.55980
H105 H 0.78120 0.20190 0.55740
C63 C 0.8346(5) 0.2185(3) 0.4629(4)
H106 H 0.77120 0.22580 0.40950
H107 H 0.85450 0.17620 0.46050
H108 H 0.88070 0.24720 0.45950
N5 N 0.9406(3) 0.23382(19) 0.7332(3)
H109 H 0.93970 0.27980 0.73350
C64 C 0.3664(4) 0.2116(2) 0.4765(4)
H110 H 0.37430 0.22920 0.53670
H111 H 0.36770 0.16630 0.48240
C65 C 0.4501(4) 0.2316(3) 0.4623(4)
H112 H 0.44570 0.27630 0.44860
H113 H 0.44890 0.20940 0.40790
C66 C 0.5428(4) 0.2177(3) 0.5509(5)
H114 H 0.59720 0.22890 0.54070
H115 H 0.54580 0.17370 0.56530
H116 H 0.54520 0.24160 0.60380
C67 C 0.1903(4) 0.2086(2) 0.4169(4)
H117 H 0.18880 0.16310 0.41470
H118 H 0.12860 0.22360 0.36580
C68 C 0.1994(4) 0.2294(3) 0.5113(4)
H119 H 0.25290 0.20710 0.56310
H120 H 0.21390 0.27390 0.51980
C69 C 0.1071(4) 0.2168(3) 0.5156(5)
H121 H 0.05450 0.23950 0.46500
H122 H 0.11420 0.23010 0.57690
H123 H 0.09310 0.17260 0.50760
C70 C 0.2571(4) 0.2098(2) 0.3036(4)
H124 H 0.26660 0.16470 0.30560
H125 H 0.30740 0.22910 0.29220
C71 C 0.1601(4) 0.2251(3) 0.2213(4)
H126 H 0.14320 0.26830 0.22630
H127 H 0.11060 0.19810 0.22290
C72 C 0.1635(4) 0.2159(3) 0.1287(4)
H128 H 0.09980 0.22310 0.07560
H129 H 0.18370 0.17370 0.12570
H130 H 0.20910 0.24490 0.12530
N6 N 0.2697(3) 0.23078(19) 0.3980(3)
H131 H 0.26770 0.27680 0.39710
O37 O 0.3208(4) 0.5570(2) -0.0021(4)
H132 H 0.26840 0.53790 -0.03990
H133 H 0.36050 0.55560 -0.02520
O38 O 0.4076(4) 0.5504(2) -0.1163(4)
H134 H 0.45860 0.52760 -0.09360
H135 H 0.37720 0.54470 -0.08390
O39 O 0.9807(3) 0.55768(18) 0.3201(3)
H136 H 1.01550 0.56110 0.29180
H137 H 0.93360 0.53260 0.28850
O40 O 1.0825(3) 0.55311(18) 0.2196(3)
H138 H 1.12840 0.52660 0.23430
H139 H 1.05890 0.54960 0.25840
O41 O 0.6345(4) 0.5583(2) 0.6439(5)
H140 H 0.59020 0.53020 0.62170
H141 H 0.67360 0.55290 0.62060
O42 O 0.7436(4) 0.5500(2) 0.5508(4)
H142 H 0.78770 0.52220 0.56620
H143 H 0.70910 0.54220 0.57850
C73? C 0.4829(19) 0.5143(11) 0.3245(18)
H144? H 0.45000 0.51360 0.25460
H145? H 0.46350 0.47740 0.34750
C74? C 0.4590(14) 0.5705(9) 0.3594(16)
H146? H 0.48900 0.60750 0.34840
H147? H 0.47640 0.56760 0.42710
H148? H 0.32400 0.60480 0.31120
H149? H 0.33930 0.57070 0.23090
H150? H 0.32680 0.53130 0.30870
C75? C 0.1901(11) 0.5437(6) -0.2834(10)
H151? H 0.18600 0.52770 -0.22760
H152? H 0.20580 0.58810 -0.27290
C76? C 0.0952(12) 0.5360(7) -0.3694(11)
H153? H 0.09970 0.54910 -0.42620
H154? H 0.07590 0.49210 -0.37710
H155? H -0.03920 0.56930 -0.41420
H156? H 0.01890 0.56060 -0.30210
H157? H 0.04260 0.61740 -0.35110
H158? H 0.32810 0.51680 -0.23100
C77? C 0.8242(18) 0.5149(11) -0.0086(19)
H159? H 0.79200 0.51280 -0.07840
H160? H 0.80610 0.47850 0.01650
C78? C 0.8008(15) 0.5721(10) 0.0241(17)
H161? H 0.83130 0.60850 0.01250
H162? H 0.81670 0.57030 0.09160
H163? H 0.66090 0.60560 -0.03160
H164? H 0.67960 0.56970 -0.10850
H165? H 0.66520 0.53200 -0.03040
O27* O 1.0513(3) 0.46044(17) 0.8025(3)
O28* O 1.0089(2) 0.35318(17) 0.8552(3)
O31* O 0.5245(3) 0.45493(17) 0.7901(3)
O32* O 0.6349(3) 0.35080(17) 0.8343(3)
O35* O 0.1924(3) 0.45674(16) 0.4340(3)
O36* O 0.1392(3) 0.34862(16) 0.3438(3)
Cu4* Cu -0.06249(4) 0.40942(3) -0.26278(4)
Cu5* Cu 0.58723(4) 0.39563(3) -0.28800(4)
Cu6* Cu 1.26041(4) 0.40608(3) 0.38651(4)
#END
