
#######################################################################
#
#                 Cambridge Crystallographic Data Centre
#                                CCDC
#
#######################################################################
#
# If this CIF has been generated from an entry in the Cambridge
# Structural Database, then it will include bibliographic, chemical,
# crystal, experimental, refinement or atomic coordinate data resulting
# from the CCDC's data processing and validation procedures.
#
#######################################################################

data_CSD_CIF_ANEFIK04
_audit_creation_date 2016-06-08
_audit_creation_method CSD-ConQuest-V1
_database_code_CSD ANEFIK04
_database_code_depnum_ccdc_archive 'CCDC 1473766'
_chemical_formula_sum 'C72 H144 Cu6 N6 O42'
_chemical_formula_moiety
;
(C18 Cu6 O36 6-)n,6(C9 H22 N1 1+),6(H2 O1)
;
_journal_coden_Cambridge 1078
_journal_year 2016
_journal_name_full 'CSD Communication(Private Communication) '
loop_
_publ_author_name
"Zhang Bin"
_chemical_name_systematic
;
catena-(hexakis(tripropylammonium) nonakis(\m-oxalato)-hexa-copper 
hexahydrate)
;
_cell_volume   4983.239
_exptl_crystal_colour 'blue'
_exptl_crystal_density_diffrn 1.431
_exptl_crystal_description 'plate'
_diffrn_ambient_temperature 250
_refine_special_details
;
The structure is disordered.

;
#These two values have been output from a single CSD field.
_refine_ls_R_factor_gt 0.0562
_refine_ls_wR_factor_gt 0.0562
_symmetry_cell_setting monoclinic
_symmetry_space_group_name_H-M 'P 21'
_symmetry_Int_Tables_number 4
loop_
_symmetry_equiv_pos_site_id
_symmetry_equiv_pos_as_xyz
1 x,y,z
2 -x,1/2+y,-z
_cell_length_a 15.9038(6)
_cell_length_b 22.1490(6)
_cell_length_c 16.1200(7)
_cell_angle_alpha 90
_cell_angle_beta 118.647(5)
_cell_angle_gamma 90
_cell_formula_units_Z 2
loop_
_atom_type_symbol
_atom_type_radius_bond
C 0.68
H 0.23
Cu 1.32
N 0.68
O 0.68
loop_
_atom_site_label
_atom_site_type_symbol
_atom_site_fract_x
_atom_site_fract_y
_atom_site_fract_z
C1 C 0.4504(5) 0.4273(3) 0.0834(5)
C2 C 0.4211(5) 0.3679(3) 0.0249(5)
C3 C 0.7879(5) 0.4323(3) 0.2129(5)
C4 C 0.7475(5) 0.3725(3) 0.2301(5)
C5 C 0.9016(5) 0.4304(3) 0.5435(6)
C6 C 0.9661(5) 0.3732(3) 0.5740(6)
C7 C 0.7758(5) 0.4303(3) 0.7490(5)
C8 C 0.7602(5) 0.3702(3) 0.6959(5)
C9 C 0.4478(5) 0.4296(3) 0.5401(5)
C10 C 0.4151(5) 0.3712(3) 0.5691(6)
C11 C 0.2362(5) 0.4288(3) 0.2039(6)
C12 C 0.2979(5) 0.3709(3) 0.2424(5)
C13 C 0.1179(5) 0.4346(3) -0.1252(5)
C14 C 0.0908(5) 0.3750(3) -0.0939(6)
C15 C 0.5653(5) 0.4344(3) -0.1273(6)
C16 C 0.6269(5) 0.3758(3) -0.1019(6)
C17 C 1.1143(5) 0.4331(3) 0.4192(5)
C18 C 1.0853(5) 0.3733(3) 0.3647(5)
O1 O 0.3919(3) 0.4477(2) 0.1081(4)
O2 O 0.3403(3) 0.3476(2) 0.0067(4)
O3 O 0.5275(3) 0.4515(2) 0.1013(4)
O4 O 0.4773(4) 0.3451(2) 0.0016(4)
O5 O 0.7397(3) 0.4590(2) 0.1379(4)
O6 O 0.6687(3) 0.3548(2) 0.1643(4)
O7 O 0.8667(3) 0.4499(2) 0.2779(4)
O8 O 0.7949(3) 0.3464(2) 0.3070(4)
O9 O 0.8717(3) 0.4476(2) 0.4610(4)
O10 O 0.9824(4) 0.3511(2) 0.5115(4)
O11 O 0.8846(4) 0.4542(2) 0.6041(4)
O12 O 0.9953(4) 0.3523(2) 0.6548(4)
O13 O 0.8521(3) 0.4576(2) 0.7748(4)
O14 O 0.8287(3) 0.3523(2) 0.6830(4)
O15 O 0.7089(4) 0.4484(2) 0.7642(4)
O16 O 0.6843(4) 0.3430(2) 0.6693(4)
O17 O 0.5297(3) 0.4482(2) 0.5955(4)
O18 O 0.4743(4) 0.3500(2) 0.6482(4)
O19 O 0.3917(4) 0.4534(2) 0.4644(4)
O20 O 0.3363(4) 0.3496(2) 0.5145(4)
O21 O 0.2092(3) 0.4550(2) 0.2553(4)
O22 O 0.3172(4) 0.3551(2) 0.3258(4)
O23 O 0.2181(4) 0.4457(2) 0.1228(4)
O24 O 0.3244(4) 0.3450(2) 0.1927(4)
O25 O 0.1975(3) 0.4565(2) -0.0740(4)
O26 O 0.1496(3) 0.3522(2) -0.0171(4)
O27 O 0.0567(3) 0.4565(2) -0.2023(4)
O28 O 0.0108(3) 0.3535(2) -0.1490(4)
O29 O 0.5496(3) 0.4555(2) -0.0639(4)
O30 O 0.6579(3) 0.3565(2) -0.0188(4)
O31 O 0.5335(4) 0.4549(2) -0.2078(4)
O32 O 0.6417(4) 0.3528(2) -0.1641(4)
O33 O 1.0606(4) 0.4570(3) 0.4452(4)
O34 O 1.0054(3) 0.3514(2) 0.3461(4)
O35 O 1.1933(3) 0.4551(2) 0.4348(4)
O36 O 1.1437(3) 0.3504(2) 0.3422(3)
Cu1 Cu 0.27274(5) 0.39659(4) 0.05785(6)
Cu2 Cu 0.60687(5) 0.40734(4) 0.05239(6)
Cu3 Cu 0.92821(5) 0.39845(4) 0.39346(6)
Cu4 Cu 0.94060(5) 0.40707(4) 0.73187(6)
Cu5 Cu 0.59293(5) 0.39755(5) 0.71370(6)
Cu6 Cu 0.26336(5) 0.40636(4) 0.38729(6)
C19 C 0.6133(10) 0.4411(6) 0.3543(9)
H1 H 0.55820 0.42990 0.29380
H2 H 0.67150 0.43310 0.34970
C20 C 0.6139(7) 0.4064(6) 0.4231(9)
H3 H 0.55740 0.41660 0.42970
H4 H 0.67050 0.41700 0.48280
C21 C 0.6145(10) 0.3363(6) 0.409(1)
H5 H 0.55350 0.32390 0.35680
H6 H 0.62450 0.31590 0.46620
H7 H 0.66570 0.32580 0.39520
C22 C 0.6443(16) 0.5343(11) 0.3074(15)
H8 H 0.66400 0.49990 0.28250
H9 H 0.58750 0.55120 0.25350
C23 C 0.7058(18) 0.5713(13) 0.3275(17)
H10 H 0.76460 0.55230 0.37580
H11 H 0.69060 0.60350 0.35980
C24 C 0.7333(13) 0.6022(8) 0.2635(14)
H12 H 0.70220 0.58280 0.20210
H13 H 0.80230 0.60000 0.28930
H14 H 0.71370 0.64420 0.25700
C25 C 0.537(3) 0.5382(10) 0.3800(18)
H15 H 0.55650 0.58040 0.39580
H16 H 0.52980 0.52060 0.43200
C26 C 0.441(2) 0.5357(13) 0.290(2)
H17 H 0.42110 0.49350 0.27510
H18 H 0.44930 0.55200 0.23740
C27 C 0.3605(10) 0.5729(5) 0.2986(13)
H19 H 0.30080 0.57020 0.23970
H20 H 0.35150 0.55640 0.34960
H21 H 0.37970 0.61490 0.31190
N1 N 0.6081(8) 0.5069(4) 0.3706(8)
C28 C 0.2793(10) 0.4415(7) -0.3107(10)
H22 H 0.22500 0.42970 -0.37140
H23 H 0.33800 0.43480 -0.31490
C29 C 0.2808(9) 0.4078(7) -0.2464(10)
H24 H 0.22490 0.41830 -0.23900
H25 H 0.33770 0.41870 -0.18720
C30 C 0.3069(15) 0.5327(12) -0.3615(14)
H26 H 0.33040 0.49800 -0.38210
H27 H 0.24970 0.54730 -0.41760
C31 C 0.2812(10) 0.3369(6) -0.257(1)
H28 H 0.22690 0.32470 -0.31640
H29 H 0.27680 0.31780 -0.20500
H30 H 0.34010 0.32450 -0.25610
C32 C 0.3669(18) 0.5719(13) -0.3410(16)
H31 H 0.42650 0.55530 -0.29020
H32 H 0.34780 0.60470 -0.31280
C33 C 0.3925(13) 0.6007(8) -0.4089(14)
H33 H 0.36220 0.57900 -0.46840
H34 H 0.46150 0.59980 -0.38340
H35 H 0.37060 0.64230 -0.41930
C34 C 0.160(2) 0.5063(12) -0.329(2)
H36 H 0.14520 0.47540 -0.29430
H37 H 0.12400 0.49720 -0.39660
C35 C 0.132(2) 0.5726(14) -0.308(3)
H38 H 0.15200 0.57760 -0.24040
H39 H 0.16110 0.60430 -0.32760
C36 C 0.0274(10) 0.5746(5) -0.3638(12)
H40 H 0.00430 0.61330 -0.35510
H41 H 0.00880 0.56910 -0.43010
H42 H -0.00030 0.54260 -0.34350
N2 N 0.2712(7) 0.5072(4) -0.2950(7)
H43 H 0.31060 0.51980 -0.22830
C37 C 0.9537(9) 0.4440(6) 0.0231(8)
H44 H 0.90310 0.43170 -0.03950
H45 H 1.01550 0.43710 0.02510
C38 C 0.9485(7) 0.4091(6) 0.0897(9)
H46 H 0.88870 0.41860 0.09030
H47 H 1.00140 0.42030 0.15160
C39 C 0.9525(11) 0.3400(6) 0.0778(11)
H48 H 0.90670 0.32870 0.01360
H49 H 0.93690 0.31940 0.12170
H50 H 1.01650 0.32860 0.09050
C40 C 0.9807(15) 0.5381(10) -0.0264(13)
H51 H 0.99300 0.50400 -0.05800
H52 H 0.92590 0.55970 -0.07590
C41 C 1.0491(18) 0.5720(12) -0.0033(15)
H53 H 1.10570 0.54830 0.03890
H54 H 1.04220 0.60320 0.03610
C42 C 1.0750(11) 0.6038(8) -0.0663(13)
H55 H 1.05640 0.57990 -0.12290
H56 H 1.14370 0.61030 -0.03480
H57 H 1.04230 0.64240 -0.08340
C43 C 0.865(3) 0.5405(10) 0.043(2)
H58 H 0.88150 0.58330 0.05730
H59 H 0.85660 0.52270 0.09350
C44 C 0.776(2) 0.5351(13) -0.048(2)
H60 H 0.75650 0.49260 -0.06060
H61 H 0.78500 0.55070 -0.09960
C45 C 0.6942(9) 0.5735(5) -0.0394(13)
H62 H 0.63450 0.57050 -0.09820
H63 H 0.68520 0.55760 0.01190
H64 H 0.71370 0.61540 -0.02700
N3 N 0.9434(8) 0.5097(4) 0.0361(7)
H65 H 0.99770 0.51670 0.10000
C46 C 0.7038(6) 0.2148(4) 0.1429(6)
H66 H 0.71240 0.23160 0.20270
H67 H 0.70550 0.17070 0.14870
C47 C 0.7859(6) 0.2343(4) 0.1291(7)
H68 H 0.77980 0.27750 0.11400
H69 H 0.78420 0.21230 0.07560
C48 C 0.8806(6) 0.2228(4) 0.2166(8)
H70 H 0.93110 0.24440 0.21160
H71 H 0.89440 0.17990 0.22240
H72 H 0.87720 0.23680 0.27190
C49 C 0.5280(5) 0.2106(3) 0.0835(6)
H73 H 0.52890 0.16640 0.08370
H74 H 0.46620 0.22360 0.03150
C50 C 0.5355(6) 0.2324(4) 0.1761(6)
H75 H 0.59070 0.21330 0.22910
H76 H 0.54550 0.27620 0.18150
C51 C 0.4452(7) 0.2171(5) 0.1808(9)
H77 H 0.39150 0.23900 0.13190
H78 H 0.45300 0.22840 0.24220
H79 H 0.43310 0.17410 0.17140
C52 C 0.5931(6) 0.2125(4) -0.0294(6)
H80 H 0.64300 0.23140 -0.03980
H81 H 0.60370 0.16880 -0.02640
C53 C 0.4992(6) 0.2255(4) -0.1123(7)
H82 H 0.48130 0.26730 -0.10840
H83 H 0.45070 0.19900 -0.11040
C54 C 0.4992(8) 0.2165(5) -0.2049(7)
H84 H 0.43410 0.21960 -0.25650
H85 H 0.52480 0.17690 -0.20580
H86 H 0.53860 0.24730 -0.21210
N4 N 0.6062(4) 0.2331(3) 0.0651(5)
H87 H 0.60340 0.27780 0.06400
C55 C 1.0335(5) 0.2133(3) 0.8095(6)
H88 H 1.04230 0.22970 0.86960
H89 H 1.03320 0.16910 0.81400
C56 C 1.1179(6) 0.2318(4) 0.7969(7)
H90 H 1.11620 0.20980 0.74330
H91 H 1.11370 0.27510 0.78270
C57 C 1.2107(6) 0.2188(4) 0.8846(8)
H92 H 1.26330 0.23630 0.87850
H93 H 1.21970 0.17550 0.89300
H94 H 1.20890 0.23620 0.93900
C58 C 0.8575(6) 0.2127(3) 0.7492(6)
H95 H 0.85540 0.16850 0.74730
H96 H 0.79660 0.22750 0.69800
C59 C 0.8665(6) 0.2336(4) 0.8429(7)
H97 H 0.92020 0.21260 0.89480
H98 H 0.88000 0.27700 0.85050
C60 C 0.7752(7) 0.2208(5) 0.8474(9)
H99 H 0.72160 0.24010 0.79430
H100 H 0.78100 0.23670 0.90600
H101 H 0.76460 0.17760 0.84470
C61 C 0.9232(6) 0.2124(4) 0.6374(6)
H102 H 0.97500 0.22920 0.62790
H103 H 0.92990 0.16830 0.63960
C62 C 0.8304(6) 0.2284(4) 0.5542(6)
H104 H 0.81620 0.27090 0.55900
H105 H 0.77950 0.20400 0.55530
C63 C 0.8295(7) 0.2187(5) 0.4624(7)
H106 H 0.76550 0.22580 0.41090
H107 H 0.84860 0.17760 0.45930
H108 H 0.87390 0.24650 0.45730
N5 N 0.9370(4) 0.2335(3) 0.7315(4)
H109 H 0.93640 0.27820 0.73080
C64 C 0.3653(5) 0.2123(3) 0.4753(6)
H110 H 0.37390 0.22840 0.53560
H111 H 0.36530 0.16820 0.47930
C65 C 0.4487(6) 0.2317(4) 0.4623(6)
H112 H 0.44690 0.21020 0.40830
H113 H 0.44380 0.27500 0.44840
C66 C 0.5420(6) 0.2189(4) 0.5494(8)
H114 H 0.59390 0.23790 0.54350
H115 H 0.55240 0.17570 0.55650
H116 H 0.53990 0.23500 0.60430
C67 C 0.1894(6) 0.2116(3) 0.4147(6)
H117 H 0.18770 0.16740 0.41270
H118 H 0.12840 0.22630 0.36360
C68 C 0.1984(6) 0.2322(4) 0.5086(7)
H119 H 0.21140 0.27560 0.51640
H120 H 0.25220 0.21120 0.56050
C69 C 0.1064(7) 0.2187(5) 0.5124(9)
H121 H 0.05220 0.23500 0.45650
H122 H 0.10950 0.23730 0.56840
H123 H 0.09900 0.17540 0.51490
C70 C 0.2541(6) 0.2125(4) 0.3020(6)
H124 H 0.30490 0.23030 0.29200
H125 H 0.26210 0.16860 0.30370
C71 C 0.1608(6) 0.2278(4) 0.2198(7)
H126 H 0.14520 0.27000 0.22480
H127 H 0.11080 0.20240 0.22070
C72 C 0.1611(7) 0.2190(5) 0.1289(7)
H128 H 0.09690 0.22490 0.07700
H129 H 0.18240 0.17830 0.12620
H130 H 0.20430 0.24790 0.12390
N6 N 0.2685(4) 0.2327(3) 0.3970(5)
H131 H 0.26790 0.27740 0.39710
O37 O 0.3191(7) 0.5571(4) -0.0075(9)
H132 H 0.31470 0.56530 0.04300
H133 H 0.26520 0.54130 -0.05000
O38 O 0.4114(6) 0.5483(3) -0.1150(5)
H134 H 0.46790 0.54010 -0.06800
H135 H 0.36760 0.54030 -0.09850
O39 O 0.9800(7) 0.5571(4) 0.3179(8)
H136 H 0.93400 0.53500 0.27530
H137 H 0.97150 0.56070 0.36740
O40 O 1.0783(6) 0.5501(3) 0.2159(6)
H138 H 1.13150 0.55060 0.26990
H139 H 1.03120 0.53800 0.22520
O41 O 0.6443(9) 0.5578(4) 0.6517(11)
H140 H 0.62830 0.56990 0.69400
H141 H 0.60500 0.52920 0.61740
O42 O 0.7463(6) 0.5468(4) 0.5510(6)
H142 H 0.79110 0.55150 0.60980
H143 H 0.69160 0.53980 0.54980
C73? C 0.488(2) 0.5124(17) 0.326(3)
H144? H 0.45690 0.51000 0.25710
H145? H 0.46530 0.47830 0.34890
C74? C 0.460(2) 0.5674(19) 0.353(3)
H146? H 0.47920 0.56680 0.42010
H147? H 0.49180 0.60180 0.34060
H148? H 0.33990 0.61010 0.31530
H149? H 0.34250 0.57370 0.23200
H150? H 0.32990 0.53880 0.31120
C75? C 0.192(2) 0.541(1) -0.2877(16)
H151? H 0.18360 0.52420 -0.23600
H152? H 0.21000 0.58370 -0.27370
C76? C 0.109(2) 0.5362(13) -0.371(2)
H153? H 0.08940 0.49370 -0.38350
H154? H 0.11810 0.55130 -0.42310
H155? H -0.03210 0.57130 -0.42280
H156? H 0.01810 0.55910 -0.31250
H157? H 0.04670 0.61660 -0.35190
H158? H 0.32700 0.51390 -0.23180
C77? C 0.826(2) 0.5139(17) -0.012(2)
H159? H 0.79760 0.51180 -0.08060
H160? H 0.80240 0.47970 0.00960
C78? C 0.798(2) 0.5717(16) 0.016(3)
H161? H 0.81770 0.57200 0.08360
H162? H 0.82630 0.60630 0.00110
H163? H 0.67040 0.61010 -0.02500
H164? H 0.67570 0.57280 -0.10610
H165? H 0.66710 0.53870 -0.02420
O27* O 1.0567(3) 0.4565(2) 0.7977(4)
O28* O 1.0108(3) 0.3535(2) 0.8510(4)
O31* O 0.5335(4) 0.4549(2) 0.7922(4)
O32* O 0.6417(4) 0.3528(2) 0.8359(4)
O35* O 0.1933(3) 0.4551(2) 0.4348(4)
O36* O 0.1437(3) 0.3504(2) 0.3422(3)
Cu4* Cu -0.05940(5) 0.40707(4) -0.26813(6)
Cu5* Cu 0.59293(5) 0.39755(5) -0.28630(6)
Cu6* Cu 1.26336(5) 0.40636(4) 0.38729(6)
#END
