
#######################################################################
#
#                 Cambridge Crystallographic Data Centre
#                                CCDC
#
#######################################################################
#
# If this CIF has been generated from an entry in the Cambridge
# Structural Database, then it will include bibliographic, chemical,
# crystal, experimental, refinement or atomic coordinate data resulting
# from the CCDC's data processing and validation procedures.
#
#######################################################################

data_CSD_CIF_ANEFIK01
_audit_creation_date 2016-06-07
_audit_creation_method CSD-ConQuest-V1
_database_code_CSD ANEFIK01
_database_code_depnum_ccdc_archive 'CCDC 1473514'
_chemical_formula_sum 'C72 H144 Cu6 N6 O42'
_chemical_formula_moiety
;
(C18 Cu6 O36 6-)n,6n(C9 H22 N1 1+),6n(H2 O1)
;
_journal_coden_Cambridge 1078
_journal_year 2016
_journal_name_full 'CSD Communication(Private Communication) '
loop_
_publ_author_name
"Zhang Bin"
_chemical_name_systematic
;
catena-[hexakis(tri-n-propylammonium) nonakis(\m-oxalato)-hexa-copper 
hexahydrate]
;
_cell_volume   4906.365
_exptl_crystal_colour 'blue'
_exptl_crystal_density_diffrn 1.453
_exptl_special_details
;
Organic Solid Laboratory, BNLMS, CMS & Institute of Chemistry, Chinese 
Academy of Sciences, Beijing, 100190, P. R. China
;
_exptl_crystal_description 'plate'
_diffrn_ambient_temperature 150
_refine_special_details
;
The structure is disordered.

;
#These two values have been output from a single CSD field.
_refine_ls_R_factor_gt 0.0466
_refine_ls_wR_factor_gt 0.0466
_symmetry_cell_setting monoclinic
_symmetry_space_group_name_H-M 'P 21'
_symmetry_Int_Tables_number 4
loop_
_symmetry_equiv_pos_site_id
_symmetry_equiv_pos_as_xyz
1 x,y,z
2 -x,1/2+y,-z
_cell_length_a 15.8479(5)
_cell_length_b 21.8408(4)
_cell_length_c 16.0837(5)
_cell_angle_alpha 90
_cell_angle_beta 118.198(4)
_cell_angle_gamma 90
_cell_formula_units_Z 2
loop_
_atom_type_symbol
_atom_type_radius_bond
C 0.68
H 0.23
Cu 1.32
N 0.68
O 0.68
loop_
_atom_site_label
_atom_site_type_symbol
_atom_site_fract_x
_atom_site_fract_y
_atom_site_fract_z
C1 C 0.4496(4) 0.4259(2) 0.0839(4)
C2 C 0.4203(4) 0.3662(2) 0.0240(4)
C3 C 0.7874(4) 0.4338(2) 0.2161(4)
C4 C 0.7460(4) 0.3728(2) 0.2309(4)
C5 C 0.8989(4) 0.4308(2) 0.5463(4)
C6 C 0.9651(4) 0.3736(3) 0.5776(4)
C7 C 0.7721(4) 0.4299(3) 0.7509(4)
C8 C 0.7584(4) 0.3691(2) 0.6974(4)
C9 C 0.4460(4) 0.4293(3) 0.5389(4)
C10 C 0.4122(4) 0.3707(3) 0.5684(4)
C11 C 0.2351(4) 0.4270(2) 0.2040(4)
C12 C 0.2972(4) 0.3687(2) 0.2437(4)
C13 C 0.1159(4) 0.4360(2) -0.1230(4)
C14 C 0.0902(4) 0.3750(2) -0.0923(4)
C15 C 0.5604(4) 0.4347(3) -0.1281(4)
C16 C 0.6244(4) 0.3767(2) -0.1023(4)
C17 C 1.1142(4) 0.4351(3) 0.4217(4)
C18 C 1.0826(4) 0.3736(3) 0.3670(4)
O1 O 0.3909(3) 0.44535(19) 0.1093(3)
O2 O 0.3392(3) 0.34535(17) 0.0052(3)
O3 O 0.5266(3) 0.45124(18) 0.1019(3)
O4 O 0.4773(3) 0.34321(17) 0.0006(3)
O5 O 0.7410(3) 0.46155(17) 0.1407(3)
O6 O 0.6674(3) 0.35548(17) 0.1631(3)
O7 O 0.8662(3) 0.45146(17) 0.2829(3)
O8 O 0.7920(3) 0.34542(17) 0.3066(3)
O9 O 0.8679(3) 0.44739(18) 0.4623(3)
O10 O 0.9822(3) 0.35134(19) 0.5153(3)
O11 O 0.8805(3) 0.45577(19) 0.6055(3)
O12 O 0.9960(3) 0.3544(2) 0.6592(3)
O13 O 0.8483(3) 0.45836(18) 0.7774(3)
O14 O 0.8287(3) 0.35218(17) 0.6855(3)
O15 O 0.7042(3) 0.4477(2) 0.7647(3)
O16 O 0.6830(3) 0.34080(18) 0.6699(3)
O17 O 0.5290(3) 0.44759(19) 0.5962(3)
O18 O 0.4705(3) 0.34810(18) 0.6472(3)
O19 O 0.3913(3) 0.45410(19) 0.4635(3)
O20 O 0.3324(3) 0.3496(2) 0.5139(3)
O21 O 0.2069(3) 0.45345(17) 0.2553(3)
O22 O 0.3154(3) 0.35326(18) 0.3272(3)
O23 O 0.2173(3) 0.44395(19) 0.1229(3)
O24 O 0.3237(3) 0.34136(18) 0.1944(3)
O25 O 0.1960(3) 0.45820(18) -0.0727(3)
O26 O 0.1501(3) 0.35051(18) -0.0169(3)
O27 O 0.0528(3) 0.45902(18) -0.1990(3)
O28 O 0.0095(3) 0.35301(18) -0.1459(3)
O29 O 0.5473(3) 0.45729(17) -0.0628(3)
O30 O 0.6579(3) 0.35824(18) -0.0187(3)
O31 O 0.5269(3) 0.45525(19) -0.2090(3)
O32 O 0.6363(3) 0.35141(19) -0.1652(3)
O33 O 1.0609(3) 0.4591(2) 0.4491(3)
O34 O 1.0024(3) 0.35232(19) 0.3494(3)
O35 O 1.1929(3) 0.45671(18) 0.4343(3)
O36 O 1.1399(3) 0.34957(17) 0.3435(3)
Cu1 Cu 0.27260(4) 0.39441(3) 0.05783(5)
Cu2 Cu 0.60716(4) 0.40876(3) 0.05279(4)
Cu3 Cu 0.92617(4) 0.39874(3) 0.39693(4)
Cu4 Cu 0.93837(5) 0.40847(3) 0.73557(5)
Cu5 Cu 0.58867(4) 0.39611(3) 0.71258(5)
Cu6 Cu 0.26121(4) 0.40630(3) 0.38701(5)
C19 C 0.6146(6) 0.4457(4) 0.3524(5)
H1 H 0.55990 0.43410 0.29110
H2 H 0.67420 0.43780 0.34860
C20 C 0.6139(5) 0.4074(4) 0.4268(5)
H3 H 0.55480 0.41570 0.43130
H4 H 0.66920 0.41850 0.48800
C21 C 0.6189(7) 0.3384(4) 0.4084(7)
H5 H 0.55990 0.32600 0.35260
H6 H 0.62600 0.31490 0.46330
H7 H 0.67390 0.33060 0.39780
C22 C 0.6277(8) 0.5509(5) 0.2997(7)
H8 H 0.60470 0.52770 0.24000
H9 H 0.58940 0.58890 0.28550
C23 C 0.7236(9) 0.5670(5) 0.3308(8)
H10 H 0.76220 0.52920 0.34290
H11 H 0.74780 0.58960 0.39110
C24 C 0.7373(7) 0.6063(4) 0.2601(7)
H12 H 0.69760 0.59030 0.19640
H13 H 0.80480 0.60550 0.27490
H14 H 0.71820 0.64850 0.26360
C25 C 0.5296(9) 0.5398(5) 0.3784(8)
H15 H 0.54310 0.58380 0.39370
H16 H 0.52530 0.51990 0.43160
C26 C 0.4338(11) 0.5332(7) 0.2892(10)
H17 H 0.41520 0.48950 0.27880
H18 H 0.44000 0.54800 0.23420
C27 C 0.3554(7) 0.5704(4) 0.2982(8)
H19 H 0.29440 0.56570 0.24040
H20 H 0.34870 0.55530 0.35210
H21 H 0.37350 0.61380 0.30760
N1 N 0.6084(6) 0.5126(3) 0.3687(5)
C28 C 0.2774(7) 0.4462(5) -0.3129(7)
H22 H 0.22110 0.43370 -0.37240
H23 H 0.33540 0.44050 -0.32030
C29 C 0.2835(6) 0.4102(5) -0.2400(7)
H24 H 0.22710 0.41830 -0.23070
H25 H 0.34130 0.42210 -0.18130
C30 C 0.2876(9) 0.5473(9) -0.3676(9)
H26 H 0.26650 0.52170 -0.42480
H27 H 0.24550 0.58370 -0.38590
C31 C 0.2886(8) 0.3375(5) -0.2572(7)
H28 H 0.23210 0.32530 -0.31570
H29 H 0.29010 0.31460 -0.20410
H30 H 0.34660 0.32860 -0.26220
C32 C 0.3733(11) 0.5660(6) -0.3436(10)
H31 H 0.41590 0.52970 -0.32560
H32 H 0.39480 0.59190 -0.28670
C33 C 0.3871(8) 0.6011(5) -0.4154(8)
H33 H 0.34340 0.58560 -0.47850
H34 H 0.45340 0.59650 -0.40360
H35 H 0.37380 0.64450 -0.41140
C34 C 0.1578(13) 0.5095(9) -0.3255(14)
H36 H 0.12100 0.49920 -0.39340
H37 H 0.14340 0.47830 -0.28930
C35 C 0.1297(13) 0.5714(9) -0.3081(18)
H38 H 0.15660 0.60350 -0.33220
H39 H 0.15430 0.57800 -0.23960
C36 C 0.0229(6) 0.5745(3) -0.3582(7)
H40 H 0.00230 0.61480 -0.34810
H41 H -0.00060 0.56800 -0.42590
H42 H -0.00290 0.54270 -0.33370
N2 N 0.2685(5) 0.5095(4) -0.2939(6)
H43 H 0.30980 0.52180 -0.22670
C37 C 0.9580(5) 0.4507(3) 0.0234(5)
H44 H 0.90750 0.43820 -0.03990
H45 H 1.02070 0.44370 0.02560
C38 C 0.9513(4) 0.4112(3) 0.0953(5)
H46 H 0.88780 0.41660 0.09200
H47 H 1.00070 0.42370 0.15900
C39 C 0.9654(8) 0.3448(4) 0.0794(7)
H48 H 0.91380 0.33160 0.01820
H49 H 0.96440 0.31990 0.12960
H50 H 1.02720 0.33970 0.08010
C40 C 0.9675(6) 0.5560(4) -0.0308(5)
H51 H 0.94010 0.53490 -0.09260
H52 H 0.93470 0.59600 -0.04040
C41 C 1.0715(6) 0.5670(4) 0.0028(6)
H53 H 1.10480 0.52740 0.01040
H54 H 1.10000 0.58770 0.06500
C42 C 1.0846(6) 0.6064(4) -0.0673(6)
H55 H 1.05200 0.58740 -0.12990
H56 H 1.15300 0.61040 -0.04790
H57 H 1.05730 0.64710 -0.06980
C43 C 0.8650(7) 0.5431(4) 0.0442(7)
H58 H 0.87430 0.58760 0.05750
H59 H 0.86060 0.52310 0.09730
C44 C 0.7721(9) 0.5324(6) -0.0474(9)
H60 H 0.75560 0.48830 -0.05560
H61 H 0.77900 0.54660 -0.10240
C45 C 0.6913(6) 0.5707(3) -0.0385(8)
H62 H 0.63000 0.56530 -0.09580
H63 H 0.68540 0.55620 0.01620
H64 H 0.70870 0.61420 -0.03030
N3 N 0.9473(5) 0.5180(3) 0.0365(5)
H65 H 1.00300 0.52720 0.09960
C46 C 0.7078(4) 0.2166(3) 0.1447(4)
H66 H 0.71150 0.17150 0.15230
H67 H 0.71470 0.23450 0.20420
C47 C 0.7911(4) 0.2380(3) 0.1302(5)
H68 H 0.79090 0.21580 0.07650
H69 H 0.78470 0.28230 0.11560
C48 C 0.8842(4) 0.2259(3) 0.2193(5)
H70 H 0.93830 0.23760 0.20900
H71 H 0.88880 0.18230 0.23510
H72 H 0.88580 0.25010 0.27130
C49 C 0.5322(4) 0.2089(3) 0.0842(4)
H73 H 0.53500 0.16360 0.08500
H74 H 0.46950 0.22130 0.03190
C50 C 0.5389(5) 0.2310(3) 0.1768(5)
H75 H 0.54840 0.27600 0.18190
H76 H 0.59480 0.21180 0.23020
C51 C 0.4481(5) 0.2150(3) 0.1821(6)
H77 H 0.39290 0.23450 0.12960
H78 H 0.45360 0.22960 0.24200
H79 H 0.43930 0.17050 0.17800
C52 C 0.5992(4) 0.2127(3) -0.0280(4)
H80 H 0.61460 0.16850 -0.02380
H81 H 0.64710 0.23470 -0.04000
C53 C 0.5017(4) 0.2226(3) -0.1113(4)
H82 H 0.47940 0.26460 -0.10930
H83 H 0.45550 0.19340 -0.10820
C54 C 0.5059(5) 0.2133(3) -0.2029(5)
H84 H 0.44140 0.21710 -0.25640
H85 H 0.53120 0.17240 -0.20330
H86 H 0.54780 0.24430 -0.20820
N4 N 0.6099(3) 0.2333(2) 0.0654(3)
H87 H 0.60490 0.27900 0.06360
C55 C 1.0357(4) 0.2132(3) 0.8109(4)
H88 H 1.03600 0.16800 0.81540
H89 H 1.04360 0.22990 0.87130
C56 C 1.1210(4) 0.2328(3) 0.7985(5)
H90 H 1.11960 0.21130 0.74380
H91 H 1.11740 0.27740 0.78590
C57 C 1.2126(5) 0.2185(3) 0.8855(5)
H92 H 1.26700 0.22850 0.87480
H93 H 1.21430 0.17480 0.90010
H94 H 1.21640 0.24270 0.93850
C58 C 0.8594(4) 0.2118(3) 0.7499(4)
H95 H 0.85660 0.16660 0.74640
H96 H 0.79820 0.22770 0.69900
C59 C 0.8686(4) 0.2317(3) 0.8450(4)
H97 H 0.92130 0.20860 0.89630
H98 H 0.88450 0.27580 0.85490
C60 C 0.7763(5) 0.2201(3) 0.8490(5)
H99 H 0.72440 0.24390 0.79940
H100 H 0.78420 0.23260 0.91070
H101 H 0.76060 0.17640 0.83930
C61 C 0.9271(4) 0.2129(3) 0.6387(4)
H102 H 0.93630 0.16800 0.64050
H103 H 0.97810 0.23190 0.62840
C62 C 0.8305(4) 0.2283(3) 0.5550(5)
H104 H 0.78030 0.20200 0.55640
H105 H 0.81420 0.27150 0.55940
C63 C 0.8334(5) 0.2184(3) 0.4631(5)
H106 H 0.77000 0.22660 0.41000
H107 H 0.85180 0.17600 0.45980
H108 H 0.88030 0.24640 0.46000
N5 N 0.9393(3) 0.2333(2) 0.7328(3)
H109 H 0.93820 0.27910 0.73260
C64 C 0.3659(4) 0.2117(3) 0.4766(4)
H110 H 0.37390 0.22880 0.53690
H111 H 0.36660 0.16650 0.48180
C65 C 0.4499(4) 0.2315(3) 0.4630(5)
H112 H 0.44540 0.27590 0.44900
H113 H 0.44900 0.20930 0.40890
C66 C 0.5425(4) 0.2181(3) 0.5517(5)
H114 H 0.59690 0.23020 0.54230
H115 H 0.54650 0.17420 0.56550
H116 H 0.54400 0.24120 0.60460
C67 C 0.1894(4) 0.2096(3) 0.4162(4)
H117 H 0.18770 0.16430 0.41390
H118 H 0.12790 0.22470 0.36490
C68 C 0.1982(5) 0.2304(3) 0.5106(5)
H119 H 0.25180 0.20840 0.56270
H120 H 0.21240 0.27480 0.51910
C69 C 0.1059(5) 0.2176(3) 0.5143(6)
H121 H 0.05250 0.23810 0.46140
H122 H 0.11130 0.23300 0.57380
H123 H 0.09420 0.17340 0.51000
C70 C 0.2562(4) 0.2111(3) 0.3040(4)
H124 H 0.26570 0.16620 0.30590
H125 H 0.30670 0.23030 0.29310
C71 C 0.1600(4) 0.2261(3) 0.2216(5)
H126 H 0.14290 0.26900 0.22640
H127 H 0.11030 0.19910 0.22270
C72 C 0.1637(5) 0.2170(3) 0.1295(5)
H128 H 0.10010 0.22460 0.07620
H129 H 0.18340 0.17490 0.12620
H130 H 0.20980 0.24570 0.12670
N6 N 0.2693(3) 0.2314(2) 0.3981(3)
H131 H 0.26790 0.27720 0.39770
O37 O 0.3202(4) 0.5570(2) -0.0034(4)
H132 H 0.27630 0.52880 -0.02480
H133 H 0.32110 0.57600 -0.05050
O38 O 0.4077(4) 0.5495(2) -0.1166(4)
H134 H 0.45680 0.52530 -0.09870
H135 H 0.38330 0.54560 -0.07840
O39 O 0.9798(4) 0.5575(2) 0.3192(4)
H136 H 0.98580 0.57620 0.27450
H137 H 0.93590 0.52940 0.29470
O40 O 1.0797(4) 0.5520(2) 0.2171(4)
H138 H 1.12590 0.52580 0.23090
H139 H 1.05930 0.54930 0.25850
O41 O 0.6355(5) 0.5584(3) 0.6452(6)
H140 H 0.59810 0.52670 0.62270
H141 H 0.66290 0.56590 0.61050
O42 O 0.7431(4) 0.5490(2) 0.5504(4)
H142 H 0.79150 0.52390 0.57210
H143 H 0.70620 0.54020 0.57510
C73? C 0.4830(17) 0.5132(11) 0.3235(19)
H144? H 0.45070 0.51290 0.25370
H145? H 0.46230 0.47660 0.34540
C74? C 0.4576(15) 0.5698(10) 0.3582(17)
H146? H 0.47450 0.56660 0.42570
H147? H 0.48860 0.60650 0.34840
H148? H 0.32780 0.60620 0.31320
H149? H 0.34140 0.57250 0.23200
H150? H 0.32750 0.53300 0.30850
C75? C 0.1900(14) 0.5434(7) -0.2835(10)
H151? H 0.18520 0.52710 -0.22840
H152? H 0.20650 0.58740 -0.27210
C76? C 0.0962(14) 0.5365(9) -0.3697(13)
H153? H 0.07660 0.49290 -0.37880
H154? H 0.10140 0.55040 -0.42570
H155? H -0.03940 0.57040 -0.41470
H156? H 0.01800 0.56030 -0.30290
H157? H 0.04260 0.61760 -0.34970
H158? H 0.32710 0.51720 -0.23240
C77? C 0.8233(17) 0.5148(10) -0.0089(18)
H159? H 0.79070 0.51270 -0.07860
H160? H 0.80450 0.47870 0.01590
C78? C 0.7995(14) 0.5716(9) 0.0234(15)
H161? H 0.82930 0.60770 0.01050
H162? H 0.81790 0.57010 0.09140
H163? H 0.66330 0.60700 -0.02510
H164? H 0.67610 0.57090 -0.10500
H165? H 0.66490 0.53370 -0.02510
O27* O 1.0528(3) 0.45902(18) 0.8010(3)
O28* O 1.0095(3) 0.35301(18) 0.8541(3)
O31* O 0.5269(3) 0.45525(19) 0.7910(3)
O32* O 0.6363(3) 0.35141(19) 0.8348(3)
O35* O 0.1929(3) 0.45671(18) 0.4343(3)
O36* O 0.1399(3) 0.34957(17) 0.3435(3)
Cu4* Cu -0.06163(5) 0.40847(3) -0.26443(5)
Cu5* Cu 0.58867(4) 0.39611(3) -0.28742(5)
Cu6* Cu 1.26121(4) 0.40630(3) 0.38701(5)
#END
