
#######################################################################
#
#                 Cambridge Crystallographic Data Centre
#                                CCDC
#
#######################################################################
#
# If this CIF has been generated from an entry in the Cambridge
# Structural Database, then it will include bibliographic, chemical,
# crystal, experimental, refinement or atomic coordinate data resulting
# from the CCDC's data processing and validation procedures.
#
#######################################################################

data_CSD_CIF_ANEFIK03
_audit_creation_date 2016-06-08
_audit_creation_method CSD-ConQuest-V1
_database_code_CSD ANEFIK03
_database_code_depnum_ccdc_archive 'CCDC 1473751'
_chemical_formula_sum 'C72 H144 Cu6 N6 O42'
_chemical_formula_moiety
;
(C18 Cu6 O36 6-)n,6(C9 H22 N1 1+),6(H2 O1)
;
_journal_coden_Cambridge 1078
_journal_year 2016
_journal_name_full 'CSD Communication(Private Communication) '
loop_
_publ_author_name
"Zhang Bin"
_chemical_name_systematic
;
catena-(hexakis(tripropylammonium) nonakis(\m-oxalato)-hexa-copper 
hexahydrate)
;
_cell_volume   4944.657
_exptl_crystal_colour 'blue'
_exptl_crystal_density_diffrn 1.442
_exptl_crystal_description 'plate'
_diffrn_ambient_temperature 200
_refine_special_details
;
The structure is disordered.

;
#These two values have been output from a single CSD field.
_refine_ls_R_factor_gt 0.0509
_refine_ls_wR_factor_gt 0.0509
_symmetry_cell_setting monoclinic
_symmetry_space_group_name_H-M 'P 21'
_symmetry_Int_Tables_number 4
loop_
_symmetry_equiv_pos_site_id
_symmetry_equiv_pos_as_xyz
1 x,y,z
2 -x,1/2+y,-z
_cell_length_a 15.8751(5)
_cell_length_b 21.9791(5)
_cell_length_c 16.1073(6)
_cell_angle_alpha 90
_cell_angle_beta 118.381(5)
_cell_angle_gamma 90
_cell_formula_units_Z 2
loop_
_atom_type_symbol
_atom_type_radius_bond
C 0.68
H 0.23
Cu 1.32
N 0.68
O 0.68
loop_
_atom_site_label
_atom_site_type_symbol
_atom_site_fract_x
_atom_site_fract_y
_atom_site_fract_z
C1 C 0.4495(4) 0.4265(3) 0.0838(5)
C2 C 0.4202(4) 0.3670(3) 0.0247(4)
C3 C 0.7870(4) 0.4332(3) 0.2147(4)
C4 C 0.7460(4) 0.3728(3) 0.2307(4)
C5 C 0.9002(4) 0.4305(3) 0.5454(5)
C6 C 0.9653(4) 0.3733(3) 0.5757(5)
C7 C 0.7743(4) 0.4300(3) 0.7505(5)
C8 C 0.7595(4) 0.3695(3) 0.6970(5)
C9 C 0.4466(4) 0.4296(3) 0.5393(5)
C10 C 0.4135(4) 0.3711(3) 0.5693(5)
C11 C 0.2352(4) 0.4279(3) 0.2042(5)
C12 C 0.2969(4) 0.3698(3) 0.2434(5)
C13 C 0.1169(4) 0.4356(3) -0.1243(4)
C14 C 0.0908(4) 0.3751(3) -0.0930(5)
C15 C 0.5624(4) 0.4349(3) -0.1275(5)
C16 C 0.6252(4) 0.3767(3) -0.1024(5)
C17 C 1.1143(4) 0.4344(3) 0.4210(5)
C18 C 1.0835(4) 0.3738(3) 0.3659(4)
O1 O 0.3910(3) 0.4465(2) 0.1091(3)
O2 O 0.3390(3) 0.34648(19) 0.0060(3)
O3 O 0.5269(3) 0.45132(19) 0.1017(3)
O4 O 0.4765(3) 0.34402(19) 0.0009(3)
O5 O 0.7403(3) 0.46031(19) 0.1396(3)
O6 O 0.6677(3) 0.35503(18) 0.1634(3)
O7 O 0.8661(3) 0.45075(19) 0.2806(3)
O8 O 0.7927(3) 0.34579(19) 0.3064(3)
O9 O 0.8697(3) 0.4475(2) 0.4621(3)
O10 O 0.9819(3) 0.3512(2) 0.5132(3)
O11 O 0.8828(3) 0.4548(2) 0.6053(3)
O12 O 0.9957(3) 0.3529(2) 0.6570(3)
O13 O 0.8502(3) 0.45816(19) 0.7765(3)
O14 O 0.8288(3) 0.35218(18) 0.6846(3)
O15 O 0.7059(3) 0.4482(2) 0.7640(3)
O16 O 0.6838(3) 0.3415(2) 0.6697(3)
O17 O 0.5291(3) 0.4477(2) 0.5956(3)
O18 O 0.4726(3) 0.3489(2) 0.6482(3)
O19 O 0.3910(3) 0.4535(2) 0.4644(3)
O20 O 0.3347(3) 0.3494(2) 0.5153(3)
O21 O 0.2077(3) 0.45449(18) 0.2551(3)
O22 O 0.3158(3) 0.3541(2) 0.3271(3)
O23 O 0.2178(3) 0.4448(2) 0.1232(3)
O24 O 0.3239(3) 0.3430(2) 0.1942(3)
O25 O 0.1965(3) 0.4577(2) -0.0736(3)
O26 O 0.1498(3) 0.35153(19) -0.0166(3)
O27 O 0.0548(3) 0.45764(19) -0.2008(3)
O28 O 0.0103(3) 0.3534(2) -0.1473(3)
O29 O 0.5481(3) 0.45658(18) -0.0633(3)
O30 O 0.6574(3) 0.3574(2) -0.0189(3)
O31 O 0.5299(3) 0.4555(2) -0.2082(3)
O32 O 0.6389(3) 0.3523(2) -0.1646(3)
O33 O 1.0602(3) 0.4586(2) 0.4468(3)
O34 O 1.0034(3) 0.3523(2) 0.3478(3)
O35 O 1.1931(3) 0.45610(19) 0.4352(3)
O36 O 1.1414(3) 0.35018(19) 0.3429(3)
Cu1 Cu 0.27259(5) 0.39549(4) 0.05819(5)
Cu2 Cu 0.60672(5) 0.40802(3) 0.05260(5)
Cu3 Cu 0.92674(5) 0.39868(4) 0.39531(5)
Cu4 Cu 0.93961(5) 0.40768(4) 0.73399(5)
Cu5 Cu 0.59054(5) 0.39687(4) 0.71310(5)
Cu6 Cu 0.26199(5) 0.40638(4) 0.38759(5)
C19 C 0.6141(7) 0.4434(4) 0.3533(6)
H1 H 0.55900 0.43200 0.29220
H2 H 0.67340 0.43540 0.34920
C20 C 0.6139(6) 0.4068(5) 0.4257(7)
H3 H 0.55560 0.41600 0.43100
H4 H 0.67000 0.41770 0.48650
C21 C 0.6169(8) 0.3370(5) 0.4092(8)
H5 H 0.55590 0.32420 0.35610
H6 H 0.62750 0.31490 0.46620
H7 H 0.66910 0.32820 0.39490
C22 C 0.6342(13) 0.5443(8) 0.3018(10)
H8 H 0.62380 0.51580 0.25020
H9 H 0.58670 0.57740 0.27320
C23 C 0.7175(13) 0.5681(8) 0.3307(12)
H10 H 0.76510 0.53480 0.35420
H11 H 0.73050 0.59450 0.38530
C24 C 0.7351(10) 0.6050(6) 0.262(1)
H12 H 0.69410 0.59000 0.19780
H13 H 0.80240 0.60120 0.27720
H14 H 0.72020 0.64780 0.26610
C25 C 0.5340(14) 0.5382(7) 0.3797(11)
H15 H 0.55050 0.58150 0.39600
H16 H 0.52860 0.51890 0.43250
C26 C 0.4366(16) 0.5343(9) 0.2903(15)
H17 H 0.41680 0.49120 0.27740
H18 H 0.44320 0.55010 0.23610
C27 C 0.3575(8) 0.5712(4) 0.2995(10)
H19 H 0.29670 0.56750 0.24100
H20 H 0.34980 0.55520 0.35230
H21 H 0.37610 0.61420 0.31100
N1 N 0.6085(7) 0.5098(4) 0.3702(6)
C28 C 0.2787(9) 0.4433(5) -0.3111(8)
H22 H 0.22360 0.43070 -0.37160
H23 H 0.33780 0.43730 -0.31640
C29 C 0.2822(7) 0.4089(6) -0.2428(8)
H24 H 0.22570 0.41830 -0.23450
H25 H 0.33980 0.42040 -0.18350
C30 C 0.2932(12) 0.5426(10) -0.3661(11)
H26 H 0.28240 0.51310 -0.41670
H27 H 0.24460 0.57500 -0.39560
C31 C 0.2852(8) 0.3367(5) -0.2570(8)
H28 H 0.23140 0.32490 -0.31770
H29 H 0.28040 0.31540 -0.20590
H30 H 0.34550 0.32580 -0.25590
C32 C 0.3728(13) 0.5666(8) -0.3418(13)
H31 H 0.42160 0.53400 -0.31580
H32 H 0.38550 0.59480 -0.28920
C33 C 0.3906(10) 0.6010(6) -0.4119(11)
H33 H 0.34700 0.58640 -0.47560
H34 H 0.45690 0.59480 -0.39860
H35 H 0.37940 0.64450 -0.40740
C34 C 0.1581(16) 0.5090(11) -0.3280(18)
H36 H 0.12210 0.50050 -0.39650
H37 H 0.14220 0.47710 -0.29430
C35 C 0.1299(17) 0.5718(11) -0.307(2)
H38 H 0.15320 0.57680 -0.23870
H39 H 0.15770 0.60450 -0.32890
C36 C 0.0245(7) 0.5743(4) -0.3591(9)
H40 H 0.00270 0.61370 -0.34810
H41 H 0.00250 0.56910 -0.42670
H42 H -0.00190 0.54160 -0.33690
N2 N 0.2689(6) 0.5085(4) -0.2944(6)
H43 H 0.30920 0.52150 -0.22730
C37 C 0.9561(6) 0.4478(4) 0.0232(6)
H44 H 0.90600 0.43510 -0.04010
H45 H 1.01910 0.44100 0.02610
C38 C 0.9495(6) 0.4104(4) 0.0932(6)
H46 H 0.88660 0.41720 0.09050
H47 H 0.99980 0.42290 0.15660
C39 C 0.9610(9) 0.3422(5) 0.0794(9)
H48 H 0.91110 0.32940 0.01700
H49 H 0.95510 0.31880 0.12820
H50 H 1.02410 0.33490 0.08430
C40 C 0.9686(10) 0.5514(6) -0.0316(8)
H51 H 0.94620 0.52800 -0.09090
H52 H 0.93120 0.58960 -0.04740
C41 C 1.0656(10) 0.5666(6) 0.0009(9)
H53 H 1.10320 0.52870 0.01220
H54 H 1.09000 0.58830 0.06190
C42 C 1.0800(8) 0.6058(5) -0.0675(9)
H55 H 1.04700 0.58760 -0.13050
H56 H 1.14860 0.60890 -0.04750
H57 H 1.05390 0.64640 -0.06910
C43 C 0.8655(12) 0.5413(6) 0.0431(11)
H58 H 0.87810 0.58520 0.05710
H59 H 0.85980 0.52220 0.09590
C44 C 0.7709(16) 0.5334(11) -0.0486(16)
H60 H 0.75250 0.48990 -0.05890
H61 H 0.77750 0.54830 -0.10310
C45 C 0.6923(8) 0.5718(4) -0.0371(10)
H62 H 0.63050 0.56780 -0.09440
H63 H 0.68640 0.55650 0.01710
H64 H 0.71130 0.61470 -0.02690
N3 N 0.9447(6) 0.5142(3) 0.0361(6)
H65 H 1.00040 0.52300 0.09940
C46 C 0.7053(5) 0.2156(3) 0.1441(5)
H66 H 0.71300 0.23340 0.20370
H67 H 0.70790 0.17080 0.15120
C47 C 0.7883(5) 0.2357(3) 0.1299(6)
H68 H 0.78190 0.27950 0.11400
H69 H 0.78780 0.21290 0.07670
C48 C 0.8817(5) 0.2247(4) 0.2183(6)
H70 H 0.93500 0.23850 0.20830
H71 H 0.88890 0.18110 0.23290
H72 H 0.88210 0.24720 0.27090
C49 C 0.5297(5) 0.2099(3) 0.0843(5)
H73 H 0.53140 0.16480 0.08470
H74 H 0.46720 0.22270 0.03190
C50 C 0.5364(5) 0.2317(3) 0.1764(5)
H75 H 0.54570 0.27640 0.18150
H76 H 0.59240 0.21270 0.22990
C51 C 0.4462(6) 0.2155(4) 0.1815(7)
H77 H 0.39160 0.23750 0.13210
H78 H 0.45370 0.22700 0.24350
H79 H 0.43480 0.17160 0.17220
C52 C 0.5962(5) 0.2126(3) -0.0282(5)
H80 H 0.60940 0.16840 -0.02460
H81 H 0.64530 0.23330 -0.03930
C53 C 0.4998(5) 0.2241(3) -0.1119(5)
H82 H 0.47940 0.26620 -0.10900
H83 H 0.45220 0.19590 -0.10960
C54 C 0.5028(6) 0.2150(4) -0.2033(6)
H84 H 0.43830 0.21990 -0.25650
H85 H 0.52650 0.17400 -0.20470
H86 H 0.54570 0.24520 -0.20820
N4 N 0.6076(4) 0.2330(2) 0.0653(4)
H87 H 0.60390 0.27840 0.06380
C55 C 1.0343(4) 0.2132(3) 0.8109(5)
H88 H 1.03430 0.16830 0.81630
H89 H 1.04260 0.23050 0.87110
C56 C 1.1194(5) 0.2320(3) 0.7976(5)
H90 H 1.11790 0.20950 0.74370
H91 H 1.11560 0.27600 0.78340
C57 C 1.2112(5) 0.2185(4) 0.8856(6)
H92 H 1.26560 0.22980 0.87590
H93 H 1.21450 0.17490 0.89980
H94 H 1.21340 0.24190 0.93830
C58 C 0.8580(5) 0.2122(3) 0.7498(5)
H95 H 0.85510 0.16720 0.74680
H96 H 0.79690 0.22790 0.69860
C59 C 0.8676(5) 0.2327(3) 0.8446(5)
H97 H 0.92080 0.21030 0.89640
H98 H 0.88270 0.27670 0.85360
C60 C 0.7751(6) 0.2206(4) 0.8478(7)
H99 H 0.72240 0.24210 0.79570
H100 H 0.78130 0.23520 0.90800
H101 H 0.76190 0.17680 0.84190
C61 C 0.9250(5) 0.2124(3) 0.6381(5)
H102 H 0.93280 0.16770 0.63990
H103 H 0.97640 0.23050 0.62780
C62 C 0.8299(5) 0.2284(3) 0.5553(5)
H104 H 0.81470 0.27150 0.56030
H105 H 0.77920 0.20290 0.55650
C63 C 0.8315(6) 0.2187(4) 0.4628(6)
H106 H 0.76820 0.22780 0.41000
H107 H 0.84820 0.17630 0.45850
H108 H 0.87920 0.24580 0.46000
N5 N 0.9384(3) 0.2332(2) 0.7325(4)
H109 H 0.93760 0.27870 0.73200
C64 C 0.3656(5) 0.2120(3) 0.4768(5)
H110 H 0.37390 0.22900 0.53720
H111 H 0.36600 0.16710 0.48180
C65 C 0.4495(5) 0.2313(3) 0.4634(6)
H112 H 0.44820 0.20900 0.40940
H113 H 0.44490 0.27530 0.44910
C66 C 0.5418(5) 0.2183(4) 0.5510(6)
H114 H 0.59570 0.23250 0.54240
H115 H 0.54780 0.17440 0.56320
H116 H 0.54230 0.23960 0.60470
C67 C 0.1893(5) 0.2106(3) 0.4157(5)
H117 H 0.18760 0.16560 0.41360
H118 H 0.12770 0.22550 0.36420
C68 C 0.1981(5) 0.2313(3) 0.5098(5)
H119 H 0.21210 0.27550 0.51800
H120 H 0.25180 0.20960 0.56200
C69 C 0.1051(6) 0.2184(4) 0.5130(7)
H121 H 0.05150 0.23770 0.45890
H122 H 0.10980 0.23480 0.57170
H123 H 0.09450 0.17440 0.51070
C70 C 0.2552(5) 0.2120(3) 0.3034(5)
H124 H 0.26430 0.16730 0.30510
H125 H 0.30600 0.23080 0.29280
C71 C 0.1600(5) 0.2270(3) 0.2206(5)
H126 H 0.14320 0.26970 0.22550
H127 H 0.11000 0.20050 0.22150
C72 C 0.1622(6) 0.2181(4) 0.1288(6)
H128 H 0.09830 0.22550 0.07590
H129 H 0.18200 0.17640 0.12540
H130 H 0.20790 0.24680 0.12550
N6 N 0.2687(3) 0.2321(2) 0.3978(4)
H131 H 0.26770 0.27760 0.39770
O37 O 0.3186(5) 0.5574(3) -0.0051(6)
H132 H 0.26050 0.54450 -0.04000
H133 H 0.35400 0.54640 -0.03050
O38 O 0.4091(5) 0.5489(3) -0.1159(5)
H134 H 0.44840 0.51840 -0.10340
H135 H 0.38530 0.54840 -0.07700
O39 O 0.9785(5) 0.5575(3) 0.3179(5)
H136 H 1.01240 0.54340 0.29260
H137 H 0.92380 0.53850 0.29400
O40 O 1.0781(5) 0.5509(3) 0.2155(4)
H138 H 1.12070 0.52240 0.22740
H139 H 1.06700 0.55450 0.26340
O41 O 0.6402(7) 0.5580(3) 0.6470(8)
H140 H 0.63120 0.57030 0.69370
H141 H 0.59800 0.53000 0.61530
O42 O 0.7437(5) 0.5479(3) 0.5509(5)
H142 H 0.78750 0.51960 0.56940
H143 H 0.71480 0.54650 0.58540
C73? C 0.487(2) 0.5135(13) 0.325(2)
H144? H 0.45660 0.51340 0.25550
H145? H 0.46500 0.47710 0.34540
C74? C 0.458(2) 0.5679(14) 0.357(2)
H146? H 0.47540 0.56460 0.42410
H147? H 0.48950 0.60450 0.34770
H148? H 0.33310 0.60720 0.31710
H149? H 0.34180 0.57420 0.23300
H150? H 0.32790 0.53460 0.30900
C75? C 0.1917(16) 0.5417(8) -0.2845(12)
H151? H 0.18570 0.52460 -0.23070
H152? H 0.20940 0.58520 -0.27110
C76? C 0.1006(16) 0.5367(10) -0.3698(15)
H153? H 0.08070 0.49350 -0.38150
H154? H 0.10710 0.55180 -0.42440
H155? H -0.03700 0.57080 -0.41680
H156? H 0.01780 0.55890 -0.30540
H157? H 0.04420 0.61700 -0.34820
H158? H 0.32690 0.51630 -0.23240
C77? C 0.823(2) 0.5157(13) -0.012(2)
H159? H 0.79310 0.51580 -0.08160
H160? H 0.80050 0.47950 0.00820
C78? C 0.7991(16) 0.5699(12) 0.021(2)
H161? H 0.82900 0.60620 0.00910
H162? H 0.81900 0.56740 0.08910
H163? H 0.66750 0.60780 -0.02020
H164? H 0.67470 0.57350 -0.10420
H165? H 0.66480 0.53510 -0.02490
O27* O 1.0548(3) 0.45764(19) 0.7992(3)
O28* O 1.0103(3) 0.3534(2) 0.8527(3)
O31* O 0.5299(3) 0.4555(2) 0.7918(3)
O32* O 0.6389(3) 0.3523(2) 0.8354(3)
O35* O 0.1931(3) 0.45610(19) 0.4352(3)
O36* O 0.1414(3) 0.35018(19) 0.3429(3)
Cu4* Cu -0.06039(5) 0.40768(4) -0.26601(5)
Cu5* Cu 0.59054(5) 0.39687(4) -0.28690(5)
Cu6* Cu 1.26199(5) 0.40638(4) 0.38759(5)
#END
