
#######################################################################
#
#                 Cambridge Crystallographic Data Centre
#                                CCDC
#
#######################################################################
#
# If this CIF has been generated from an entry in the Cambridge
# Structural Database, then it will include bibliographic, chemical,
# crystal, experimental, refinement or atomic coordinate data resulting
# from the CCDC's data processing and validation procedures.
#
#######################################################################

data_CSD_CIF_ANEMAK
_audit_creation_date 2021-02-23
_audit_creation_method CSD-ConQuest-V1
_database_code_CSD ANEMAK
_database_code_depnum_ccdc_archive 'CCDC 1976828'
_chemical_formula_sum 'C28 H50 In1 N4 O19.5 S1'
_chemical_formula_moiety
;
(C20 H9 In1 N1 O8 S1 1-)n,C2 H8 N1 1+,2(C3 H7 N1 O1),9.5(H2 O1)
;
_journal_coden_Cambridge 1443
_journal_volume 14
_journal_year 2021
_journal_page_first 387
_journal_name_full 'Nano Res. '
loop_
_publ_author_name
"Quanjie Lin"
"Yingxiang Ye"
"Lizhen Liu"
"Zizhu Yao"
"Ziyin Li"
"Lihua Wang"
"Chulong Liu"
"Zhangjing Zhang"
"Shengchang Xiang"
_chemical_name_systematic
;
catena-[dimethylammonium 
(\m-9H-carbazole-3,6-dicarboxylato)-(\m-thiophene-2,5-dicarboxylato)-indium(ii
i) N,N-dimethylformamide solvate hydrate]
;
_chemical_name_common
;
FJU-105
;
_cell_volume  18680.101
_exptl_crystal_colour 'yellow'
_exptl_crystal_description 'bulk'
_diffrn_ambient_temperature 150
_refine_special_details
;
Disordered cation (dimethylammonium) and solvent molecules 
(N,N-dimethylformamide / water) were not modelled and the disordered density 
was taken into account using the SQUEEZE/PLATON procedure.
;
#These two values have been output from a single CSD field.
_refine_ls_R_factor_gt 0.1615
_refine_ls_wR_factor_gt 0.1615
_symmetry_cell_setting rhombohedral
_symmetry_space_group_name_H-M 'R -3 m'
_symmetry_Int_Tables_number 166
loop_
_symmetry_equiv_pos_site_id
_symmetry_equiv_pos_as_xyz
1 x,y,z
2 -y,x-y,z
3 -x+y,-x,z
4 x-y,-y,-z
5 -x,-x+y,-z
6 y,x,-z
7 2/3+x,1/3+y,1/3+z
8 2/3-y,1/3+x-y,1/3+z
9 2/3-x+y,1/3-x,1/3+z
10 2/3+x-y,1/3-y,1/3-z
11 2/3-x,1/3-x+y,1/3-z
12 2/3+y,1/3+x,1/3-z
13 1/3+x,2/3+y,2/3+z
14 1/3-y,2/3+x-y,2/3+z
15 1/3-x+y,2/3-x,2/3+z
16 1/3+x-y,2/3-y,2/3-z
17 1/3-x,2/3-x+y,2/3-z
18 1/3+y,2/3+x,2/3-z
19 -x,-y,-z
20 y,-x+y,-z
21 x-y,x,-z
22 -x+y,y,z
23 x,x-y,z
24 -y,-x,z
25 -2/3-x,-1/3-y,-1/3-z
26 -2/3+y,-1/3-x+y,-1/3-z
27 -2/3+x-y,-1/3+x,-1/3-z
28 -2/3-x+y,-1/3+y,-1/3+z
29 -2/3+x,-1/3+x-y,-1/3+z
30 -2/3-y,-1/3-x,-1/3+z
31 -1/3-x,-2/3-y,-2/3-z
32 -1/3+y,-2/3-x+y,-2/3-z
33 -1/3+x-y,-2/3+x,-2/3-z
34 -1/3-x+y,-2/3+y,-2/3+z
35 -1/3+x,-2/3+x-y,-2/3+z
36 -1/3-y,-2/3-x,-2/3+z
_cell_length_a 46.0197(6)
_cell_length_b 46.0197(6)
_cell_length_c 10.1850(2)
_cell_angle_alpha 90
_cell_angle_beta 90
_cell_angle_gamma 120
_cell_formula_units_Z 18
loop_
_atom_type_symbol
_atom_type_radius_bond
C 0.68
H 0.23
In 1.42
N 0.68
O 0.68
S 1.02
loop_
_atom_site_label
_atom_site_type_symbol
_atom_site_fract_x
_atom_site_fract_y
_atom_site_fract_z
In1 In 0.41849(2) 0.08515(2) 0.33330
O1 O 0.39876(19) 0.11997(19) 0.3315(9)
O2 O 0.4576(2) 0.1242(2) 0.1804(8)
O3 O 0.3616(2) 0.06633(19) 0.3286(9)
C1 C 0.3416(3) 0.1052(3) 0.3306(12)
C2 C 0.3498(2) 0.1390(3) 0.3316(11)
H1 H 0.37210 0.15600 0.33120
C3 C 0.3682(3) 0.0967(3) 0.3295(12)
C4 C 0.2817(3) 0.0873(3) 0.3309(13)
H2 H 0.25930 0.07060 0.33160
N1 N 0.2707(3) 0.13534(16) 0.3313(15)
H3 H 0.24910 0.12460 0.33310
C5 C 0.3252(3) 0.1465(2) 0.3331(11)
C6 C 0.3067(3) 0.0798(3) 0.3309(13)
H4 H 0.30110 0.05730 0.33100
C7 C 0.2910(3) 0.1211(3) 0.3297(12)
O4 O 0.4128(2) 0.0784(2) 0.1168(9)
C8 C 0.4491(3) 0.1147(3) -0.0475(10)
C9 C 0.4405(3) 0.1066(3) 0.0904(10)
C10 C 0.4768(3) 0.1428(3) -0.0976(13)
H5 H 0.49370 0.15920 -0.04640
S1 S 0.42261(8) 0.08927(8) -0.16670
O1V O 0.39876(19) 0.27879(19) 0.3315(9)
O3V O 0.3616(2) 0.29527(19) 0.3286(9)
C1V C 0.3416(3) 0.2364(3) 0.3306(12)
C2V C 0.3498(2) 0.2108(3) 0.3316(11)
H1V H 0.37210 0.21610 0.33120
C3V C 0.3682(3) 0.2715(3) 0.3295(12)
C4V C 0.2817(3) 0.1944(3) 0.3309(13)
H2V H 0.25930 0.18870 0.33160
C5V C 0.3252(3) 0.1787(2) 0.3331(11)
C6V C 0.3067(3) 0.2269(3) 0.3309(13)
H4V H 0.30110 0.24380 0.33100
C7V C 0.2910(3) 0.1699(3) 0.3297(12)
O2Q O 0.457533(200) 0.124267(200) -0.513733(800)
O4Q O 0.411733(200) 0.079467(200) -0.450133(900)
C8Q C 0.448033(300) 0.115767(300) -0.285833(1000)
C9Q C 0.439933(300) 0.107167(300) -0.423733(1000)
C10Q C 0.476133(300) 0.143467(300) -0.235733(1300)
H5Q H 0.49253 0.16037 -0.28693
In1* In 0.41849(2) 0.08515(2) -0.66670
In1V In 0.41849(2) 0.33334(2) 0.33330
O1Q O 0.453303(190) 0.065427(190) 0.335167(900)
O2Q* O 0.457533(200) 0.124267(200) 0.486267(800)
O3Q O 0.399663(200) 0.028267(190) 0.338067(900)
O4Q* O 0.411733(200) 0.079467(200) 0.549867(900)
#END
