
#######################################################################
#
#                 Cambridge Crystallographic Data Centre
#                                CCDC
#
#######################################################################
#
# If this CIF has been generated from an entry in the Cambridge
# Structural Database, then it will include bibliographic, chemical,
# crystal, experimental, refinement or atomic coordinate data resulting
# from the CCDC's data processing and validation procedures.
#
#######################################################################

data_CSD_CIF_ANEPUH
_audit_creation_date 2021-02-23
_audit_creation_method CSD-ConQuest-V1
_database_code_CSD ANEPUH
_database_code_depnum_ccdc_archive 'CCDC 2064646'
_chemical_formula_sum 'C20 H34 Mn4 N6 O32 P4'
_chemical_formula_moiety
;
(C8 H8 Mn4 O32 P4 4-)n,2n(C6 H13 N3 2+)
;
_journal_coden_Cambridge 1295
_journal_volume 124
_journal_year 2021
_journal_page_first 108403
_journal_name_full 'Inorg.Chem.Commun. '
loop_
_publ_author_name
"Yue Cao"
"Xiaoying Zhou"
"Lindong Luan"
"Hongmei Zeng"
"Guohong Zou"
"Zhien Lin"
_chemical_name_systematic
;
catena-(bis(1-(3-ammoniopropyl)imidazolium) tetrakis(\m-dihydrogen 
phosphato)-tetrakis(\m-oxalato)-tetra-manganese)
;
_cell_volume   1006.931
_exptl_crystal_colour 'light pink'
_exptl_crystal_density_diffrn 2.002
_exptl_crystal_description 'block'
_diffrn_ambient_temperature 293
#These two values have been output from a single CSD field.
_refine_ls_R_factor_gt 0.0538
_refine_ls_wR_factor_gt 0.0538
_symmetry_cell_setting triclinic
_symmetry_space_group_name_H-M 'P -1'
_symmetry_Int_Tables_number 2
loop_
_symmetry_equiv_pos_site_id
_symmetry_equiv_pos_as_xyz
1 x,y,z
2 -x,-y,-z
_cell_length_a 7.6108(3)
_cell_length_b 9.8476(3)
_cell_length_c 15.2437(5)
_cell_angle_alpha 100.023(3)
_cell_angle_beta 102.032(3)
_cell_angle_gamma 110.612(3)
_cell_formula_units_Z 1
loop_
_atom_type_symbol
_atom_type_radius_bond
C 0.68
H 0.23
Mn 1.61
N 0.68
O 0.68
P 1.05
loop_
_atom_site_label
_atom_site_type_symbol
_atom_site_fract_x
_atom_site_fract_y
_atom_site_fract_z
Mn1 Mn 0.50797(8) 0.25373(6) 0.07844(4)
Mn2 Mn 0.52881(9) 0.28112(6) 0.46289(4)
P1 P 0.81322(13) 0.11498(10) -0.01502(6)
P2 P 0.17954(14) 0.37504(10) 0.50155(7)
O1 O 0.6573(4) 0.1658(3) 0.0000(2)
O2 O 0.9782(4) 0.1674(3) 0.0805(2)
H1 H 1.06050 0.13380 0.07390
O3 O 0.9137(4) 0.1994(4) -0.0810(2)
H2 H 1.03330 0.23480 -0.05850
O4 O 0.7453(4) -0.0516(3) -0.0559(2)
O5 O 0.3573(4) 0.3478(3) 0.5377(2)
O6 O 0.2113(4) 0.5114(3) 0.4633(2)
O7 O 0.0944(4) 0.3979(4) 0.5862(2)
H3 H 0.00440 0.42460 0.57150
O8 O 0.0265(4) 0.2301(3) 0.4258(2)
H4 H -0.07540 0.24130 0.40720
O9 O 0.7016(4) 0.2582(3) 0.21290(19)
O10 O 0.6889(4) 0.2387(3) 0.3559(2)
O11 O 0.3931(4) 0.3332(3) 0.19314(19)
O12 O 0.3785(4) 0.3091(4) 0.3339(2)
O13 O 0.6879(4) 0.4871(3) 0.0810(2)
O14 O 0.6886(4) 0.6755(3) 0.0182(2)
O15 O 0.3332(5) 0.0358(3) 0.4207(2)
O16 O 0.3174(5) -0.1804(3) 0.4504(2)
C1 C 0.6302(6) 0.2633(4) 0.2798(3)
C2 C 0.4511(6) 0.3052(4) 0.2680(3)
C3 C 0.6090(5) 0.5461(4) 0.0290(3)
C4 C 0.3982(6) -0.0429(4) 0.4628(3)
N1 N 1.0454(6) 0.0828(5) -0.3017(3)
H5 H 0.93460 0.06000 -0.34180
N2 N 1.3526(7) 0.1976(6) -0.2234(4)
N3 N 1.8866(6) 0.5604(4) -0.2504(3)
H6 H 2.01200 0.62460 -0.23240
H7 H 1.83720 0.54250 -0.31160
H8 H 1.81940 0.60010 -0.22080
C5 C 1.2121(9) 0.1985(9) -0.2899(5)
H9 H 1.22740 0.26980 -0.32370
C6 C 1.0817(8) 0.0082(5) -0.2396(4)
H10 H 0.98890 -0.07540 -0.23070
C7 C 1.2716(8) 0.0725(5) -0.1926(3)
H11 H 1.33680 0.03970 -0.14780
C8 C 1.5615(8) 0.3191(6) -0.1860(4)
H12 H 1.55890 0.41820 -0.17680
H13 H 1.62720 0.31080 -0.12670
C9 C 1.6665(10) 0.2979(8) -0.2542(4)
H14 H 1.59350 0.29880 -0.31430
H15 H 1.67220 0.19990 -0.26080
C10 C 1.8715(8) 0.4169(6) -0.2275(4)
H16 H 1.92940 0.43870 -0.16100
H17 H 1.94860 0.37670 -0.25870
O13A O 0.3121(4) 0.5129(3) -0.0810(2)
O14A O 0.3114(4) 0.3245(3) -0.0182(2)
C3A C 0.3910(5) 0.4539(4) -0.0290(3)
O15A O 0.6668(5) -0.0358(3) 0.5793(2)
O16A O 0.6826(5) 0.1804(3) 0.5496(2)
C4A C 0.6018(6) 0.0429(4) 0.5372(3)
Mn1A Mn 0.49203(8) -0.25373(6) -0.07844(4)
Mn2A Mn 0.47119(9) -0.28112(6) -0.46289(4)
P1A P 0.18678(13) -0.11498(10) 0.01502(6)
P2A P 0.82046(14) -0.37504(10) -0.50155(7)
O1A O 0.3427(4) -0.1658(3) 0.0000(2)
O2A O 0.0218(4) -0.1674(3) -0.0805(2)
H1A H -0.06050 -0.13380 -0.07390
O3A O 0.0863(4) -0.1994(4) 0.0810(2)
H2A H -0.03330 -0.23480 0.05850
O4A O 0.2547(4) 0.0516(3) 0.0559(2)
O5A O 0.6427(4) -0.3478(3) -0.5377(2)
O6A O 0.7887(4) -0.5114(3) -0.4633(2)
O7A O 0.9056(4) -0.3979(4) -0.5862(2)
H3A H 0.99560 -0.42460 -0.57150
O8A O 0.9735(4) -0.2301(3) -0.4258(2)
H4A H 1.07540 -0.24130 -0.40720
O9A O 0.2984(4) -0.2582(3) -0.21290(19)
O10A O 0.3111(4) -0.2387(3) -0.3559(2)
O11A O 0.6069(4) -0.3332(3) -0.19314(19)
O12A O 0.6215(4) -0.3091(4) -0.3339(2)
C1A C 0.3698(6) -0.2633(4) -0.2798(3)
C2A C 0.5489(6) -0.3052(4) -0.2680(3)
Mn1A* Mn 0.49203(8) 0.74627(6) -0.07844(4)
Mn2* Mn 0.52881(9) -0.71888(6) -0.53711(4)
Mn2A* Mn 0.47119(9) -0.28112(6) 0.53711(4)
Mn2A** Mn 0.47119(9) 0.71888(6) 0.53711(4)
O6* O 0.2113(4) -0.4886(3) -0.5367(2)
O6A* O 0.7887(4) 0.4886(3) 0.5367(2)
O13A* O 0.3121(4) -0.4871(3) -0.0810(2)
O14* O 0.6886(4) -0.3245(3) 0.0182(2)
O15A* O 0.6668(5) -0.0358(3) -0.4207(2)
O16* O 0.3174(5) -0.1804(3) -0.5496(2)
#END
