
#######################################################################
#
#                 Cambridge Crystallographic Data Centre
#                                CCDC
#
#######################################################################
#
# If this CIF has been generated from an entry in the Cambridge
# Structural Database, then it will include bibliographic, chemical,
# crystal, experimental, refinement or atomic coordinate data resulting
# from the CCDC's data processing and validation procedures.
#
#######################################################################

data_CSD_CIF_ANEQEQ
_audit_creation_date 2011-05-25
_audit_creation_method CSD-ConQuest-V1
_database_code_CSD ANEQEQ
_database_code_depnum_ccdc_archive 'CCDC 761142'
_chemical_formula_sum 'C59 H52 Ag4 N12 O9'
_chemical_formula_moiety
;
(C17 H8 Ag1 O8 3-)n,3n(C14 H14 Ag1 N4 1+),n(H2 O1)
;
_journal_coden_Cambridge 1350
_journal_volume 13
_journal_year 2011
_journal_page_first 1314
_journal_name_full 'CrystEngComm '
loop_
_publ_author_name
"Xian Cheng"
"Tao Liu"
"Xianying Duan"
"Fangming Wang"
"Qingjin Meng"
"Changsheng Lu"
_chemical_name_systematic
;
catena-(tris((\m~2~-1,4-bis(Imidazol-1-ylmethyl)benzene)-silver) 
(\m~2~-methylenedi-isophthalato)-di-silver monohydrate)
;
_cell_volume   5995.220
_exptl_crystal_colour 'colorless'
_exptl_crystal_density_diffrn 1.667
_exptl_crystal_description 'pin'
_diffrn_ambient_temperature 291
#These two values have been output from a single CSD field.
_refine_ls_R_factor_gt 0.0508
_refine_ls_wR_factor_gt 0.0508
_symmetry_cell_setting monoclinic
_symmetry_space_group_name_H-M 'P 21/c'
_symmetry_Int_Tables_number 14
loop_
_symmetry_equiv_pos_site_id
_symmetry_equiv_pos_as_xyz
1 x,y,z
2 -x,1/2+y,1/2-z
3 -x,-y,-z
4 x,-1/2-y,-1/2+z
_cell_length_a 14.5138(11)
_cell_length_b 17.2793(13)
_cell_length_c 25.1262(16)
_cell_angle_alpha 90
_cell_angle_beta 107.933(4)
_cell_angle_gamma 90
_cell_formula_units_Z 4
loop_
_atom_type_symbol
_atom_type_radius_bond
C 0.68
H 0.23
Ag 1.40
N 0.68
O 0.88
loop_
_atom_site_label
_atom_site_type_symbol
_atom_site_fract_x
_atom_site_fract_y
_atom_site_fract_z
Ag1 Ag 0.24430(3) 0.55016(2) 0.773190(16)
Ag2 Ag 0.24502(3) 0.71294(2) 1.103190(16)
Ag3 Ag 0.17623(3) 0.77951(2) 0.976000(16)
Ag4 Ag 0.08451(3) 0.82650(2) 0.843630(17)
C1 C 0.4314(4) 0.5849(3) 0.7797(3)
C2 C 0.5376(4) 0.5979(3) 0.7916(2)
C3 C 0.6032(4) 0.5638(3) 0.8395(2)
H1 H 0.57790 0.53480 0.86290
C4 C 0.7006(4) 0.5708(3) 0.8533(2)
C5 C 0.7357(4) 0.6150(3) 0.8153(2)
H2 H 0.80230 0.62110 0.82370
C6 C 0.6794(4) 0.6479(3) 0.7688(2)
C7 C 0.5798(4) 0.6410(3) 0.7568(3)
H3 H 0.53950 0.66520 0.72510
C8 C 0.7674(4) 0.5340(3) 0.9050(2)
C9 C 0.7220(4) 0.6902(3) 0.7308(2)
H4 H 0.67030 0.71440 0.70150
H5 H 0.76360 0.73100 0.75170
C10 C 0.7784(4) 0.6409(3) 0.7050(2)
C11 C 0.8788(4) 0.6365(3) 0.7317(2)
H6 H 0.90680 0.66690 0.76300
C12 C 0.9384(4) 0.5861(3) 0.7115(2)
C13 C 0.8962(4) 0.5389(3) 0.6661(2)
H7 H 0.93490 0.50630 0.65260
C14 C 0.7949(4) 0.5397(3) 0.6400(2)
C15 C 0.7350(4) 0.5909(3) 0.6619(2)
H8 H 0.66790 0.58970 0.64680
C16 C 1.0466(4) 0.5814(3) 0.7411(2)
C17 C 0.7460(4) 0.4868(3) 0.5917(2)
C18 C 0.4479(4) 0.7513(3) 1.0861(2)
H9 H 0.44060 0.80420 1.09010
C19 C 0.5241(4) 0.7218(3) 1.0749(2)
H10 H 0.57660 0.74740 1.06910
C20 C 0.4206(4) 0.6351(3) 1.0827(2)
H11 H 0.39050 0.58760 1.08270
C21 C 0.5630(4) 0.5813(3) 1.0617(2)
H12 H 0.55720 0.58360 1.02220
H13 H 0.53590 0.53230 1.06830
C22 C 0.6685(4) 0.5823(3) 1.0946(2)
C23 C 0.7372(4) 0.5558(3) 1.0726(2)
H14 H 0.71850 0.53820 1.03580
C24 C 0.8327(4) 0.5543(3) 1.1030(2)
H15 H 0.87790 0.53520 1.08690
C25 C 0.8628(5) 0.5805(3) 1.1568(3)
C26 C 0.7954(4) 0.6045(3) 1.1794(3)
H16 H 0.81500 0.61930 1.21680
C27 C 0.6988(4) 0.6082(3) 1.1499(2)
H17 H 0.65440 0.62760 1.16640
C28 C 0.9688(5) 0.5759(3) 1.1868(3)
H18 H 0.97870 0.57700 1.22680
H19 H 0.99310 0.52680 1.17810
C29 C 1.0873(4) 0.7484(4) 1.1617(3)
H20 H 1.09990 0.80130 1.16310
C30 C 1.0264(5) 0.7132(3) 1.1837(2)
H21 H 0.99030 0.73730 1.20380
C31 C 1.0902(4) 0.6288(3) 1.1427(2)
H22 H 1.10430 0.58180 1.12900
C32 C 0.0306(4) 0.8927(3) 1.0118(2)
H23 H 0.06060 0.93720 1.00440
C33 C -0.0410(4) 0.8937(3) 1.0298(2)
H24 H -0.07420 0.93690 1.03630
C34 C 0.0024(4) 0.7707(3) 1.0197(2)
H25 H 0.00320 0.71690 1.01860
C35 C -0.1340(4) 0.7827(3) 1.0597(2)
H26 H -0.13810 0.81410 1.09090
H27 H -0.11470 0.73090 1.07370
C36 C -0.2328(4) 0.7789(3) 1.0165(2)
C37 C -0.2903(5) 0.8427(4) 1.0050(3)
H28 H -0.26840 0.88900 1.02350
C38 C -0.3828(5) 0.8390(3) 0.9653(3)
H29 H -0.42310 0.88210 0.95930
C39 C -0.4136(4) 0.7738(3) 0.9359(2)
C40 C -0.3530(4) 0.7090(3) 0.9474(2)
H30 H -0.37430 0.66310 0.92820
C41 C -0.2627(4) 0.7114(3) 0.9864(2)
H31 H -0.22230 0.66840 0.99250
C42 C -0.5113(4) 0.7691(3) 0.8925(2)
H32 H -0.52820 0.82000 0.87620
H33 H -0.50680 0.73460 0.86290
C43 C -0.6145(4) 0.6655(3) 0.9162(2)
H34 H -0.58600 0.62190 0.90620
C44 C -0.6903(4) 0.6672(3) 0.9372(2)
H35 H -0.72300 0.62370 0.94370
C45 C -0.6485(4) 0.7853(3) 0.9313(2)
H36 H -0.64700 0.83910 0.93290
C46 C 0.2415(4) 0.7575(4) 0.7967(2)
H37 H 0.23170 0.70830 0.80890
C47 C 0.2994(4) 0.7720(3) 0.7677(2)
H38 H 0.33570 0.73660 0.75470
C48 C 0.2308(4) 0.8777(4) 0.7840(2)
H39 H 0.21190 0.92910 0.78410
C49 C 0.3517(4) 0.8956(3) 0.7309(3)
H40 H 0.32130 0.94530 0.71890
H41 H 0.35220 0.86700 0.69780
C50 C 0.4540(4) 0.9083(3) 0.7673(2)
C51 C 0.5288(4) 0.8700(3) 0.7531(2)
H42 H 0.51460 0.83880 0.72150
C52 C 0.6234(4) 0.8792(3) 0.7865(2)
H43 H 0.67240 0.85250 0.77760
C53 C 0.6472(4) 0.9271(3) 0.8328(2)
C54 C 0.5700(5) 0.9648(3) 0.8471(3)
H44 H 0.58330 0.99610 0.87870
C55 C 0.4758(4) 0.9543(3) 0.8136(2)
H45 H 0.42600 0.97920 0.82280
C56 C 0.7471(4) 0.9428(3) 0.8673(3)
H46 H 0.76770 0.99090 0.85460
H47 H 0.74730 0.95070 0.90560
C57 C 0.8993(4) 0.7775(3) 0.8759(2)
H48 H 0.91760 0.72590 0.88260
C58 C 0.8208(4) 0.8089(3) 0.8829(3)
H49 H 0.77540 0.78400 0.89610
C59 C 0.8987(4) 0.8970(3) 0.8523(2)
H50 H 0.91480 0.94460 0.84030
N1 N 0.3833(3) 0.7009(3) 1.09121(18)
N2 N 0.5057(4) 0.6427(3) 1.0740(2)
N3 N 1.1283(4) 0.6942(3) 1.1367(2)
N4 N 1.0251(4) 0.6385(3) 1.1726(2)
N5 N 0.0612(3) 0.8166(2) 1.00388(17)
N6 N -0.0606(4) 0.8147(3) 1.03820(19)
N7 N -0.7117(3) 0.7414(2) 0.94741(17)
N8 N -0.5882(3) 0.7424(3) 0.91280(19)
N9 N 0.1966(3) 0.8220(3) 0.8074(2)
N10 N 0.2957(3) 0.8535(2) 0.75992(18)
N11 N 0.9503(3) 0.8338(3) 0.8570(2)
N12 N 0.8188(3) 0.8832(3) 0.8674(2)
O1 O 0.3997(3) 0.5521(2) 0.81330(16)
O2 O 0.3799(3) 0.6139(2) 0.73389(16)
O3 O 0.7322(3) 0.5027(2) 0.93706(17)
O4 O 0.8580(3) 0.5355(2) 0.91122(16)
O5 O 1.0785(3) 0.6156(2) 0.78650(17)
O6 O 1.0952(3) 0.5420(2) 0.71720(15)
O7 O 0.8055(3) 0.4536(2) 0.57115(17)
O8 O 0.6576(3) 0.4821(2) 0.57676(16)
O9 O 0.1483(7) 0.6116(5) -0.0006(4)
H51 H 0.12260 0.56690 -0.00650
H52 H 0.19670 0.61050 0.02890
O10 O 0.5198(9) 0.0568(7) 0.9617(5)
H53 H 0.50840 0.00950 0.96640
H54 H 0.57610 0.06110 0.95830
O11 O 0.2912(9) 0.9260(6) 0.0365(5)
H55 H 0.29120 0.88700 0.01590
H56 H 0.31900 0.96380 0.02600
Ag1* Ag 1.24430(3) 0.55016(2) 0.773190(16)
Ag2* Ag 1.24502(3) 0.71294(2) 1.103190(16)
Ag3* Ag -0.82377(3) 0.77951(2) 0.976000(16)
Ag4* Ag 1.08451(3) 0.82650(2) 0.843630(17)
N3* N 0.1283(4) 0.6942(3) 1.1367(2)
N7* N 0.2883(3) 0.7414(2) 0.94741(17)
N11* N -0.0497(3) 0.8338(3) 0.8570(2)
O6* O 0.0952(3) 0.5420(2) 0.71720(15)
#END
