
#######################################################################
#
#                 Cambridge Crystallographic Data Centre
#                                CCDC
#
#######################################################################
#
# If this CIF has been generated from an entry in the Cambridge
# Structural Database, then it will include bibliographic, chemical,
# crystal, experimental, refinement or atomic coordinate data resulting
# from the CCDC's data processing and validation procedures.
#
#######################################################################

data_CSD_CIF_ANETAR01
_audit_creation_date 2021-02-23
_audit_creation_method CSD-ConQuest-V1
_database_code_CSD ANETAR01
_database_code_depnum_ccdc_archive 'CCDC 1994355'
_chemical_formula_sum 'C24 H48 F24 Fe9 N6 O12'
_chemical_formula_moiety
;
(C6 H6 F24 Fe9 O12 6-)n,3(C6 H14 N2 2+)
;
_journal_coden_Cambridge 9
_journal_volume 60
_journal_year 2021
_journal_page_first 3565
_journal_name_full 'Inorg.Chem. '
loop_
_publ_author_name
"Qing-Rong Kong"
"Dong Li"
"Xiao-Lin Liu"
"Hai-Xia Zhao"
"Yan-Ping Ren"
"La-Sheng Long"
"Lan-Sun Zheng"
_chemical_name_systematic
;
catena-[tris(1,4-diazabicyclo[2.2.2]octane-1,4-diium) 
hexakis(\m-formato)-octadecakis(\m-fluoro)-hexafluoro-tri-iron(ii)-hexa-iron(i
ii)]
;
_cell_volume   2364.934
_exptl_crystal_colour 'brown'
_exptl_crystal_density_diffrn 2.207
_exptl_special_details
;
P2/c low-temperature polymorph

;
_exptl_crystal_description 'plate'
_diffrn_ambient_temperature 150.0
#These two values have been output from a single CSD field.
_refine_ls_R_factor_gt 0.0679
_refine_ls_wR_factor_gt 0.0679
_symmetry_cell_setting monoclinic
_symmetry_space_group_name_H-M 'P 2/c'
_symmetry_Int_Tables_number 13
loop_
_symmetry_equiv_pos_site_id
_symmetry_equiv_pos_as_xyz
1 x,y,z
2 -x,y,1/2-z
3 -x,-y,-z
4 x,-y,-1/2+z
_cell_length_a 11.1869(4)
_cell_length_b 6.6553(3)
_cell_length_c 31.7768(14)
_cell_angle_alpha 90
_cell_angle_beta 91.596(4)
_cell_angle_gamma 90
_cell_formula_units_Z 2
loop_
_atom_type_symbol
_atom_type_radius_bond
C 0.68
H 0.23
F 0.64
Fe 1.52
N 0.68
O 0.68
loop_
_atom_site_label
_atom_site_type_symbol
_atom_site_fract_x
_atom_site_fract_y
_atom_site_fract_z
Fe1 Fe 0.50000 0.2994(2) 0.25000
F1 F 0.6321(4) 0.5147(6) 0.24961(14)
O1 O 0.5156(5) 0.2958(8) 0.31651(17)
F2 F 0.6364(4) 0.0880(6) 0.25037(13)
Fe2 Fe 0.63861(9) 0.80095(16) 0.25329(3)
C1 C 0.4283(7) 0.2945(12) 0.3394(3)
O2 O 0.4350(5) 0.2775(8) 0.37914(17)
H1 H 0.342(11) 0.331(16) 0.329(4)
O3 O 0.7704(5) -0.2019(8) 0.21267(17)
F3 F 0.5032(4) -0.1973(6) 0.21027(13)
F4 F 0.7432(4) -0.2039(6) 0.30066(13)
Fe3 Fe 0.30442(10) 0.27894(16) 0.41953(3)
C2 C 0.7618(7) -0.1999(11) 0.1727(2)
F5 F 0.1637(4) 0.2854(6) 0.45639(13)
F6 F 0.3002(4) -0.0050(6) 0.41797(14)
F7 F 0.1691(4) 0.2756(6) 0.37682(13)
F8 F 0.3000(4) 0.5665(6) 0.41518(13)
F9 F 0.4109(4) 0.2842(7) 0.46652(13)
O4 O 0.8490(5) -0.2160(8) 0.15009(17)
H2 H 0.674(10) -0.188(15) 0.154(3)
Fe4 Fe 0.83415(10) 0.77729(16) 0.08350(3)
Fe5 Fe 0.02802(10) 0.27796(16) 0.41386(4)
F10 F 0.9711(4) 0.5647(6) 0.08494(14)
F11 F -0.0789(4) 0.2684(7) 0.36665(14)
F12 F 0.0351(4) -0.0079(6) 0.41806(14)
O5 O -0.1016(5) 0.2758(8) 0.45460(17)
O6 O 0.1805(5) -0.2354(8) 0.48295(17)
C3 C -0.0944(7) 0.2577(12) 0.4941(3)
H3 H -0.01854 0.26130 0.50684
N1 N -0.0161(6) 0.2612(9) 0.2885(2)
H4 H -0.02902 0.26087 0.31886
C4 C -0.0218(8) 0.0506(12) 0.2724(3)
H5 H -0.10322 0.00105 0.27303
H6 H 0.02846 -0.03596 0.28998
C5 C 0.1036(8) 0.3445(15) 0.2805(3)
H7 H 0.16493 0.25153 0.29042
H8 H 0.11439 0.47052 0.29546
C6 C -0.1139(9) 0.3786(16) 0.2668(3)
H9 H -0.10558 0.52033 0.27338
H10 H -0.19124 0.33337 0.27613
N2 N 0.6813(6) 0.7631(11) 0.3784(2)
H11 H 0.69478 0.77559 0.34816
N3 N 0.6474(6) 0.7328(10) 0.4553(2)
H12 H 0.63478 0.72245 0.48561
C7 C 0.5547(9) 0.8226(17) 0.3875(3)
H13 H 0.49921 0.72094 0.37705
H14 H 0.53488 0.94928 0.37387
C8 C 0.6945(8) 0.5439(14) 0.3917(3)
H15 H 0.64820 0.45827 0.37272
H16 H 0.77771 0.50354 0.39086
C9 C 0.5472(9) 0.8427(17) 0.4350(3)
H17 H 0.55089 0.98340 0.44295
H18 H 0.47183 0.78829 0.44425
C10 C 0.6500(9) 0.5233(13) 0.4360(3)
H19 H 0.70294 0.43663 0.45251
H20 H 0.57052 0.46499 0.43547
C11 C 0.7696(10) 0.8843(19) 0.4021(3)
H21 H 0.75161 1.02604 0.39870
H22 H 0.84900 0.85978 0.39169
C12 C 0.7653(10) 0.8270(19) 0.4480(3)
H23 H 0.82913 0.73322 0.45504
H24 H 0.77546 0.94539 0.46551
F1A F 0.3679(4) 0.5147(6) 0.25039(14)
O1A O 0.4844(5) 0.2958(8) 0.18349(17)
F2A F 0.3636(4) 0.0880(6) 0.24963(13)
Fe2A Fe 0.36139(9) 0.80095(16) 0.24671(3)
C1A C 0.5717(7) 0.2945(12) 0.1606(3)
Fe2* Fe 0.63861(9) -0.19905(16) 0.25329(3)
Fe2A* Fe 0.36139(9) -0.19905(16) 0.24671(3)
O2A O 0.5650(5) 0.2775(8) 0.12086(17)
H1A H 0.658(11) 0.331(16) 0.171(4)
F3A F 0.4968(4) -0.1973(6) 0.28973(13)
F1* F 0.6321(4) -0.4853(6) 0.24961(14)
F4A F 0.2568(4) -0.2039(6) 0.19934(13)
F1A* F 0.3679(4) -0.4853(6) 0.25039(14)
O3A O 0.2296(5) -0.2019(8) 0.28733(17)
Fe3A Fe 0.69558(10) 0.27894(16) 0.08047(3)
C2A C 0.2382(7) -0.1999(11) 0.3273(2)
F5A F 0.8363(4) 0.2854(6) 0.04361(13)
F6A F 0.6998(4) -0.0050(6) 0.08203(14)
F7A F 0.8309(4) 0.2756(6) 0.12318(13)
F8A F 0.7000(4) 0.5665(6) 0.08482(13)
F9A F 0.5891(4) 0.2842(7) 0.03348(13)
O4A O 0.1510(5) -0.2160(8) 0.34991(17)
H2A H 0.326(10) -0.188(15) 0.346(3)
Fe4A Fe 0.16585(10) -0.22271(16) 0.41650(3)
Fe4A* Fe 0.16585(10) 0.77729(16) 0.41650(3)
Fe5A Fe 0.97198(10) 0.27796(16) 0.08614(4)
Fe4* Fe 0.83415(10) -0.22271(16) 0.08350(3)
F10A F 0.0289(4) 0.5647(6) 0.41506(14)
F10A* F 0.0289(4) -0.4353(6) 0.41506(14)
F8* F 0.3000(4) -0.4335(6) 0.41518(13)
F11A F 1.0789(4) 0.2684(7) 0.13335(14)
F12A F 0.9649(4) -0.0079(6) 0.08194(14)
O5A O 1.1016(5) 0.2758(8) 0.04540(17)
F10* F 0.9711(4) -0.4353(6) 0.08494(14)
F8A* F 0.7000(4) -0.4335(6) 0.08482(13)
O6A O 0.8195(5) -0.2354(8) 0.01705(17)
C3A C 1.0944(7) 0.2577(12) 0.0059(3)
O6B O -0.1805(5) 0.2354(8) 0.51705(17)
O6C O 1.1805(5) 0.2354(8) -0.01705(17)
H3A H 1.01854 0.26130 -0.00684
Fe4C Fe -0.16585(10) 0.22271(16) 0.58350(3)
Fe4B Fe 1.16585(10) 0.22271(16) -0.08350(3)
N1A N 0.0161(6) 0.2612(9) 0.2115(2)
H4A H 0.02902 0.26087 0.18114
C4A C 0.0218(8) 0.0506(12) 0.2276(3)
H5A H 0.10322 0.00105 0.22697
H6A H -0.02846 -0.03596 0.21002
C5A C -0.1036(8) 0.3445(15) 0.2195(3)
H7A H -0.16493 0.25153 0.20958
H8A H -0.11439 0.47052 0.20454
C6A C 0.1139(9) 0.3786(16) 0.2332(3)
H9A H 0.10558 0.52033 0.22662
H10A H 0.19124 0.33337 0.22387
#END
