
#######################################################################
#
#                 Cambridge Crystallographic Data Centre
#                                CCDC
#
#######################################################################
#
# If this CIF has been generated from an entry in the Cambridge
# Structural Database, then it will include bibliographic, chemical,
# crystal, experimental, refinement or atomic coordinate data resulting
# from the CCDC's data processing and validation procedures.
#
#######################################################################

data_CSD_CIF_ANETAR
_audit_creation_date 2021-02-23
_audit_creation_method CSD-ConQuest-V1
_database_code_CSD ANETAR
_database_code_depnum_ccdc_archive 'CCDC 1994354'
_chemical_formula_sum 'C24 H48 F24 Fe9 N6 O12'
_chemical_formula_moiety
;
(C6 H6 F24 Fe9 O12 6-)n,3(C6 H14 N2 2+)
;
_journal_coden_Cambridge 9
_journal_volume 60
_journal_year 2021
_journal_page_first 3565
_journal_name_full 'Inorg.Chem. '
loop_
_publ_author_name
"Qing-Rong Kong"
"Dong Li"
"Xiao-Lin Liu"
"Hai-Xia Zhao"
"Yan-Ping Ren"
"La-Sheng Long"
"Lan-Sun Zheng"
_chemical_name_systematic
;
catena-[tris(1,4-diazabicyclo[2.2.2]octane-1,4-diium) 
hexakis(\m-formato)-octadecakis(\m-fluoro)-hexa-fluoro-tri-iron(ii)-hexa-iron(
iii)]
;
_chemical_melting_point 480
_cell_volume   2363.981
_exptl_crystal_colour 'brown'
_exptl_crystal_density_diffrn 2.208
_exptl_special_details
;
Melts with decomposition.
P2/c low-temperature polymorph

;
_exptl_crystal_description 'block'
_diffrn_ambient_temperature 99.9
#These two values have been output from a single CSD field.
_refine_ls_R_factor_gt 0.0471
_refine_ls_wR_factor_gt 0.0471
_symmetry_cell_setting monoclinic
_symmetry_space_group_name_H-M 'P 2/c'
_symmetry_Int_Tables_number 13
loop_
_symmetry_equiv_pos_site_id
_symmetry_equiv_pos_as_xyz
1 x,y,z
2 -x,y,1/2-z
3 -x,-y,-z
4 x,-y,-1/2+z
_cell_length_a 11.1732(2)
_cell_length_b 6.6588(1)
_cell_length_c 31.7850(5)
_cell_angle_alpha 90
_cell_angle_beta 91.515(1)
_cell_angle_gamma 90
_cell_formula_units_Z 2
loop_
_atom_type_symbol
_atom_type_radius_bond
C 0.68
H 0.23
F 0.64
Fe 1.52
N 0.68
O 0.68
loop_
_atom_site_label
_atom_site_type_symbol
_atom_site_fract_x
_atom_site_fract_y
_atom_site_fract_z
Fe1 Fe 1.00000 0.69471(14) 0.25000
Fe2 Fe 0.52726(6) 0.71816(10) 0.41379(2)
Fe3 Fe 0.80433(6) 0.7163(1) 0.41949(2)
Fe4 Fe 0.66534(6) 0.21943(10) 0.41636(2)
Fe5 Fe 0.86134(6) 0.19225(10) 0.24671(2)
F1 F 0.9958(2) 0.1902(4) 0.28969(8)
F2 F 0.6629(2) 0.7105(4) 0.45618(8)
F3 F 0.6688(2) 0.7207(4) 0.37687(8)
F4 F 0.5352(2) 1.0040(4) 0.41814(9)
F5 F 0.5272(2) 0.4307(4) 0.41504(8)
F6 F 0.7993(2) 0.4276(4) 0.41467(9)
F7 F 0.8673(2) 0.4780(4) 0.25026(8)
F8 F 0.7572(2) 0.1975(4) 0.19915(8)
F9 F 0.4214(2) 0.7298(4) 0.36665(9)
F10 F 0.9110(2) 0.7110(4) 0.46634(9)
F11 F 0.8001(2) 1.0005(4) 0.41761(9)
F12 F 0.8635(2) 0.9054(4) 0.24980(8)
O1 O 0.3187(3) 0.7671(5) 0.51719(11)
O2 O 0.6500(3) 0.2130(5) 0.34959(11)
O3 O 0.9354(3) 0.7173(5) 0.37884(11)
O4 O 0.3975(3) 0.7221(5) 0.45497(11)
O5 O 1.0159(3) 0.6988(5) 0.31652(11)
O6 O 0.7297(3) 0.1959(5) 0.28703(10)
C1 C 0.4062(4) 0.7402(7) 0.49457(16)
H1 H 0.48188 0.73297 0.50738
C2 C 0.9285(5) 0.6966(7) 0.33924(16)
H2 H 0.85321 0.67878 0.32664
C3 C 0.7371(4) 0.1911(7) 0.32689(15)
H3 H 0.81185 0.17010 0.33969
N1 N 0.8535(4) 0.2698(6) 0.04450(13)
H4 H 0.86639 0.28398 0.01427
N2 N 0.8208(4) 0.2350(6) 0.12171(13)
H5 H 0.80768 0.22042 0.15192
C4 C 0.9465(5) 0.1751(8) 0.11216(17)
H6 H 0.96584 0.04751 0.12540
H7 H 1.00242 0.27536 0.12288
C5 C 0.8498(5) 0.4755(7) 0.06478(17)
H8 H 0.79769 0.56391 0.04841
H9 H 0.92943 0.53371 0.06601
C6 C 0.7378(5) 0.1671(9) 0.05121(18)
H10 H 0.73162 0.04811 0.03367
H11 H 0.67182 0.25595 0.04378
C7 C 0.9553(5) 0.1575(9) 0.06449(18)
H12 H 1.03070 0.21305 0.05551
H13 H 0.95186 0.01739 0.05616
C8 C 0.7328(5) 0.1089(10) 0.09746(18)
H14 H 0.65282 0.13094 0.10767
H15 H 0.75239 -0.03214 0.10094
C9 C 0.8030(5) 0.4512(8) 0.10888(17)
H16 H 0.84635 0.53910 0.12827
H17 H 0.71876 0.48587 0.10926
N3 N 0.4833(3) 0.7352(6) 0.28849(13)
H18 H 0.47041 0.73555 0.31887
C10 C 0.4775(5) 0.9463(7) 0.27245(16)
H19 H 0.52716 1.03315 0.29012
H20 H 0.39581 0.99528 0.27281
C11 C 0.6046(5) 0.6481(8) 0.28035(17)
H21 H 0.61451 0.52162 0.29515
H22 H 0.66678 0.73958 0.29021
C12 C 0.3866(5) 0.6152(9) 0.26704(17)
H23 H 0.30879 0.65833 0.27646
H24 H 0.39628 0.47387 0.27368
Fe2A Fe 1.47274(6) 0.71816(10) 0.08621(2)
Fe3A Fe 1.19567(6) 0.7163(1) 0.08051(2)
Fe4A Fe 1.33466(6) 0.21943(10) 0.08364(2)
Fe5A Fe 1.13866(6) 0.19225(10) 0.25329(2)
F1A F 1.0042(2) 0.1902(4) 0.21031(8)
F2A F 1.3371(2) 0.7105(4) 0.04382(8)
F3A F 1.3312(2) 0.7207(4) 0.12313(8)
F4A F 1.4648(2) 1.0040(4) 0.08186(9)
F5A F 1.4728(2) 0.4307(4) 0.08496(8)
F6A F 1.2007(2) 0.4276(4) 0.08533(9)
F7A F 1.1327(2) 0.4780(4) 0.24974(8)
F8A F 1.2428(2) 0.1975(4) 0.30085(8)
F9A F 1.5786(2) 0.7298(4) 0.13335(9)
F10A F 1.0890(2) 0.7110(4) 0.03366(9)
F11A F 1.1999(2) 1.0005(4) 0.08239(9)
F12A F 1.1365(2) 0.9054(4) 0.25020(8)
O1A O 1.6813(3) 0.7671(5) -0.01719(11)
O2A O 1.3500(3) 0.2130(5) 0.15041(11)
O3A O 1.0646(3) 0.7173(5) 0.12116(11)
O4A O 1.6025(3) 0.7221(5) 0.04503(11)
O5A O 0.9841(3) 0.6988(5) 0.18348(11)
O6A O 1.2703(3) 0.1959(5) 0.21297(10)
C1A C 1.5938(4) 0.7402(7) 0.00543(16)
H1A H 1.51812 0.73297 -0.00738
C2A C 1.0715(5) 0.6966(7) 0.16076(16)
H2A H 1.14679 0.67878 0.17336
C3A C 1.2629(4) 0.1911(7) 0.17311(15)
H3A H 1.18815 0.17010 0.16031
Fe4* Fe 0.66534(6) 1.21943(10) 0.41636(2)
Fe4A* Fe 1.33466(6) 1.21943(10) 0.08364(2)
Fe4B Fe 0.33466(6) 0.78057(10) 0.58364(2)
Fe4C Fe 1.66534(6) 0.78057(10) -0.08364(2)
Fe5* Fe 0.86134(6) 1.19225(10) 0.24671(2)
Fe5A* Fe 1.13866(6) 1.19225(10) 0.25329(2)
F4* F 0.5352(2) 0.0040(4) 0.41814(9)
F4A* F 1.4648(2) 0.0040(4) 0.08186(9)
F11* F 0.8001(2) 0.0005(4) 0.41761(9)
F11A* F 1.1999(2) 0.0005(4) 0.08239(9)
F12* F 0.8635(2) -0.0946(4) 0.24980(8)
F12A* F 1.1365(2) -0.0946(4) 0.25020(8)
O1B O 0.6813(3) 0.2329(5) 0.48281(11)
O1C O 1.3187(3) 0.2329(5) 0.01719(11)
N3A N 0.5167(3) 0.7352(6) 0.21151(13)
H18A H 0.52959 0.73555 0.18113
C10A C 0.5225(5) 0.9463(7) 0.22755(16)
H19A H 0.47284 1.03315 0.20988
H20A H 0.60419 0.99528 0.22719
C11A C 0.3954(5) 0.6481(8) 0.21965(17)
H21A H 0.38549 0.52162 0.20485
H22A H 0.33322 0.73958 0.20979
C12A C 0.6134(5) 0.6152(9) 0.23296(17)
H23A H 0.69121 0.65833 0.22354
H24A H 0.60372 0.47387 0.22632
#END
