
#######################################################################
#
#                 Cambridge Crystallographic Data Centre
#                                CCDC
#
#######################################################################
#
# If this CIF has been generated from an entry in the Cambridge
# Structural Database, then it will include bibliographic, chemical,
# crystal, experimental, refinement or atomic coordinate data resulting
# from the CCDC's data processing and validation procedures.
#
#######################################################################

data_CSD_CIF_ANETAR03
_audit_creation_date 2021-02-23
_audit_creation_method CSD-ConQuest-V1
_database_code_CSD ANETAR03
_database_code_depnum_ccdc_archive 'CCDC 1994361'
_chemical_formula_sum 'C8 H16 F8 Fe3 N2 O4'
_chemical_formula_moiety
;
(C2 H2 F8 Fe3 O4 2-)n,C6 H14 N2 2+
;
_journal_coden_Cambridge 9
_journal_volume 60
_journal_year 2021
_journal_page_first 3565
_journal_name_full 'Inorg.Chem. '
loop_
_publ_author_name
"Qing-Rong Kong"
"Dong Li"
"Xiao-Lin Liu"
"Hai-Xia Zhao"
"Yan-Ping Ren"
"La-Sheng Long"
"Lan-Sun Zheng"
_chemical_name_systematic
;
catena-[(1,4-diazabicyclo[2.2.2]octane-1,4-diium) 
bis(\m-formato)-hexakis(\m-fluoro)-difluoro-iron(ii)-di-iron(iii)]
;
_cell_volume    795.094
_exptl_crystal_colour 'brown'
_exptl_crystal_density_diffrn 2.188
_exptl_special_details
;
C2/m ambient-temperature polymorph

;
_exptl_crystal_description 'block'
_diffrn_ambient_temperature 300.0
_refine_special_details
;
1,4-diazabicyclo[2.2.2]octane-1,4-diium (C0AA,C2,C3) disordered by symmetry 
over two configurations with occupancy 0.5.
;
#These two values have been output from a single CSD field.
_refine_ls_R_factor_gt 0.0582
_refine_ls_wR_factor_gt 0.0582
_symmetry_cell_setting monoclinic
_symmetry_space_group_name_H-M 'C 2/m'
_symmetry_Int_Tables_number 12
loop_
_symmetry_equiv_pos_site_id
_symmetry_equiv_pos_as_xyz
1 x,y,z
2 -x,y,-z
3 1/2+x,1/2+y,z
4 1/2-x,1/2+y,-z
5 -x,-y,-z
6 x,-y,z
7 -1/2-x,-1/2-y,-z
8 -1/2+x,-1/2-y,z
_cell_length_a 13.1593(10)
_cell_length_b 6.6833(2)
_cell_length_c 11.1218(9)
_cell_angle_alpha 90
_cell_angle_beta 125.623(11)
_cell_angle_gamma 90
_cell_formula_units_Z 2
loop_
_atom_type_symbol
_atom_type_radius_bond
C 0.68
H 0.23
F 0.64
Fe 1.52
N 0.68
O 0.68
loop_
_atom_site_label
_atom_site_type_symbol
_atom_site_fract_x
_atom_site_fract_y
_atom_site_fract_z
Fe1 Fe 0.50000 0.50000 0.50000
Fe2 Fe 0.63505(7) 1.00000 0.64442(8)
F1 F 0.4569(3) 1.00000 0.5760(3)
F2 F 0.6330(2) 0.7150(4) 0.6336(3)
F3 F 0.6942(3) 1.00000 0.8446(4)
O1 O 0.8047(4) 1.00000 0.6916(5)
O2 O 0.9461(4) 1.00000 0.6467(5)
C1 C 0.8380(6) 1.00000 0.6068(7)
H1 H 0.77554 1.00000 0.50558
N1 N 0.5550(6) 1.00000 0.9403(7)
H2 H 0.59512 1.00000 0.89682
C2 C 0.5419(13) 0.7671(18) 0.9769(15)
H3 H 0.63097 0.74370 1.06445
H4 H 0.50913 0.68439 0.89120
C3 C 0.6273(15) 0.907(2) 1.0796(16)
H5 H 0.70896 0.96675 1.13402
C4 C 0.4286(14) 1.058(3) 0.8373(14)
H6 H 0.38470 0.95465 0.76456
H7 H 0.42350 1.17910 0.78744
Fe2A Fe 0.36495(7) 1.00000 0.35558(8)
F1A F 0.5431(3) 1.00000 0.4240(3)
F2A F 0.3670(2) 0.7150(4) 0.3664(3)
F3A F 0.3058(3) 1.00000 0.1554(4)
O1A O 0.1953(4) 1.00000 0.3084(5)
O2A O 0.0539(4) 1.00000 0.3533(5)
C1A C 0.1620(6) 1.00000 0.3932(7)
H1A H 0.22446 1.00000 0.49442
F2D F 0.3670(2) 0.2850(4) 0.3664(3)
F2E F 0.6330(2) 0.2850(4) 0.6336(3)
Fe1B Fe 0.00000 1.00000 0.50000
Fe1B* Fe 1.00000 1.00000 0.50000
Fe2* Fe 0.63505(7) 0.00000 0.64442(8)
Fe2A* Fe 0.36495(7) 0.00000 0.35558(8)
F2D* F 0.3670(2) 1.2850(4) 0.3664(3)
F2E* F 0.6330(2) 1.2850(4) 0.6336(3)
O2B O 0.4461(4) 0.50000 0.6467(5)
O2C O 0.5539(4) 0.50000 0.3533(5)
N1A N 0.4450(6) 1.00000 1.0597(7)
H2A H 0.40488 1.00000 1.10318
C2A C 0.4581(13) 0.7671(18) 1.0231(15)
H3A H 0.36903 0.74370 0.93555
H4A H 0.49087 0.68439 1.10880
C3A C 0.3727(15) 0.907(2) 0.9204(16)
H5A H 0.29104 0.96675 0.86598
C4A C 0.5714(14) 1.058(3) 1.1627(14)
H6A H 0.61530 0.95465 1.23544
H7A H 0.57650 1.17910 1.21256
C2D C 0.4581(13) 1.2329(18) 1.0231(15)
H3D H 0.36903 1.25630 0.93555
H4D H 0.49087 1.31561 1.10880
C3D C 0.3727(15) 1.093(2) 0.9204(16)
H5D H 0.29104 1.03325 0.86598
C4D C 0.5714(14) 0.942(3) 1.1627(14)
H6D H 0.61530 1.04535 1.23544
H7D H 0.57650 0.82090 1.21256
C2E C 0.5419(13) 1.2329(18) 0.9769(15)
H3E H 0.63097 1.25630 1.06445
H4E H 0.50913 1.31561 0.89120
C3E C 0.6273(15) 1.093(2) 1.0796(16)
H5E H 0.70896 1.03325 1.13402
C4E C 0.4286(14) 0.942(3) 0.8373(14)
H6E H 0.38470 1.04535 0.76456
H7E H 0.42350 0.82090 0.78744
#END
