
#######################################################################
#
#                 Cambridge Crystallographic Data Centre
#                                CCDC
#
#######################################################################
#
# If this CIF has been generated from an entry in the Cambridge
# Structural Database, then it will include bibliographic, chemical,
# crystal, experimental, refinement or atomic coordinate data resulting
# from the CCDC's data processing and validation procedures.
#
#######################################################################

data_CSD_CIF_ANIDAD
_audit_creation_date 2011-06-07
_audit_creation_method CSD-ConQuest-V1
_database_code_CSD ANIDAD
_database_code_depnum_ccdc_archive 'CCDC 777825'
_chemical_formula_sum 'C40 H40 Co3 N2 O16'
_chemical_formula_moiety
;
(C32 H16 Co3 O16 2-)n,2n(C4 H12 N1 1+)
;
_journal_coden_Cambridge 580
_journal_volume 29
_journal_year 2010
_journal_page_first 3335
_journal_name_full 'Polyhedron '
loop_
_publ_author_name
"Eun Young Kim"
"Young Joo Song"
"Hyo Geun Koo"
"Ju Hoon Lee"
"Hyun Min Park"
"Cheal Kim"
"Tae-Hwan Kwon"
"Seong Huh"
"Sung-Jin Kim"
"Youngmee Kim"
_chemical_name_systematic
;
catena-[bis(Tetramethylammonium) 
(\m~4~-isophthalato-O,O,O',O'',O''')-(\m~4~-isophthalato-O,O,O',O'')-bis(\m~3~
-isophthalato-O,O',O'',O''')-tri-cobalt]
;
_cell_volume   4016.770
_exptl_crystal_colour 'red brown'
_exptl_crystal_density_diffrn 1.623
_exptl_crystal_description 'block'
_diffrn_ambient_temperature 293
#These two values have been output from a single CSD field.
_refine_ls_R_factor_gt 0.0621
_refine_ls_wR_factor_gt 0.0621
_symmetry_cell_setting monoclinic
_symmetry_space_group_name_H-M 'P 21/n'
_symmetry_Int_Tables_number 14
loop_
_symmetry_equiv_pos_site_id
_symmetry_equiv_pos_as_xyz
1 x,y,z
2 1/2-x,1/2+y,1/2-z
3 -x,-y,-z
4 -1/2+x,-1/2-y,-1/2+z
_cell_length_a 18.4972(14)
_cell_length_b 10.1886(8)
_cell_length_c 23.0512(16)
_cell_angle_alpha 90
_cell_angle_beta 112.389(1)
_cell_angle_gamma 90
_cell_formula_units_Z 4
loop_
_atom_type_symbol
_atom_type_radius_bond
C 0.68
H 0.23
Co 1.42
N 0.68
O 0.88
loop_
_atom_site_label
_atom_site_type_symbol
_atom_site_fract_x
_atom_site_fract_y
_atom_site_fract_z
Co1 Co -0.00502(3) 0.52200(6) 0.24446(3)
Co2 Co -0.02851(3) 0.33771(7) 0.12354(3)
Co3 Co 0.47064(3) 0.20970(7) 0.13218(3)
O1 O 0.10103(17) 0.4470(4) 0.24689(17)
O2 O 0.08768(18) 0.3299(4) 0.16156(18)
O3 O 0.43776(17) 0.1872(3) 0.20539(17)
O4 O 0.3228(2) 0.1843(6) 0.1260(2)
C1 C 0.1271(2) 0.3836(5) 0.2127(2)
C2 C 0.2150(2) 0.3697(5) 0.2353(2)
C3 C 0.2636(3) 0.4392(6) 0.2863(3)
H1 H 0.24230 0.49180 0.30870
C4 C 0.3442(3) 0.4317(7) 0.3046(3)
H2 H 0.37690 0.47950 0.33900
C5 C 0.3756(3) 0.3526(6) 0.2714(3)
H3 H 0.42960 0.34810 0.28350
C6 C 0.3284(2) 0.2808(5) 0.2209(2)
C7 C 0.2473(3) 0.2901(5) 0.2018(2)
H4 H 0.21470 0.24340 0.16700
C8 C 0.3632(3) 0.2093(5) 0.1809(3)
O5 O -0.10982(17) 0.5925(3) 0.24634(17)
O6 O -0.08712(18) 0.7156(4) 0.33147(18)
O7 O -0.43017(17) 0.8594(3) 0.30858(16)
O8 O -0.3094(2) 0.8826(5) 0.3813(2)
C9 C -0.1307(2) 0.6552(5) 0.2838(2)
C10 C -0.2174(2) 0.6602(5) 0.2706(2)
C11 C -0.2690(3) 0.5789(5) 0.2264(3)
H5 H -0.25060 0.52210 0.20350
C12 C -0.3481(3) 0.5808(6) 0.2156(3)
H6 H -0.38240 0.52410 0.18640
C13 C -0.3760(3) 0.6676(6) 0.2487(3)
H7 H -0.42900 0.66890 0.24140
C14 C -0.3258(2) 0.7513(5) 0.2920(2)
C15 C -0.2453(2) 0.7452(5) 0.3048(2)
H8 H -0.21060 0.79770 0.33610
C16 C -0.3540(3) 0.8379(5) 0.3324(3)
O9 O 0.0151(2) 0.4185(3) 0.32772(18)
O10 O 0.0420(2) 0.5414(4) 0.41282(18)
O11 O 0.0690(2) -0.1579(4) 0.44016(19)
O12 O 0.0294(2) -0.0646(4) 0.3476(2)
C17 C 0.0336(2) 0.4324(5) 0.3853(2)
C18 C 0.0471(3) 0.3112(5) 0.4245(3)
C19 C 0.0655(3) 0.3212(5) 0.4894(3)
H9 H 0.06680 0.40340 0.50740
C20 C 0.0818(3) 0.2111(6) 0.5266(3)
H10 H 0.09490 0.21920 0.56960
C21 C 0.0786(3) 0.0880(5) 0.5001(3)
H11 H 0.09000 0.01370 0.52550
C22 C 0.0584(3) 0.0755(5) 0.4358(3)
C23 C 0.0429(3) 0.1882(5) 0.3984(2)
H12 H 0.02960 0.18010 0.35540
C24 C 0.0519(3) -0.0565(5) 0.4050(3)
O13 O -0.0248(2) 0.6269(4) 0.16078(18)
O14 O -0.0441(2) 0.5039(3) 0.07641(18)
O15 O -0.0726(2) 1.2041(4) 0.05408(19)
O16 O -0.0293(3) 1.1061(4) 0.1454(2)
C25 C -0.0401(2) 0.6123(5) 0.1035(2)
C26 C -0.0556(3) 0.7345(5) 0.0643(3)
C27 C -0.0740(3) 0.7266(5) -0.0001(3)
H13 H -0.07460 0.64530 -0.01870
C28 C -0.0915(3) 0.8399(5) -0.0369(3)
H14 H -0.10570 0.83350 -0.08010
C29 C -0.0881(3) 0.9604(5) -0.0097(3)
H15 H -0.09980 1.03560 -0.03450
C30 C -0.0669(3) 0.9706(5) 0.0551(3)
C31 C -0.0514(3) 0.8563(5) 0.0911(2)
H16 H -0.03800 0.86270 0.13420
C32 C -0.0561(3) 1.1007(5) 0.0878(3)
N1 N 0.2232(3) 0.6619(6) 0.5809(3)
C33 C 0.1441(4) 0.6654(10) 0.5824(5)
H17 H 0.11220 0.72670 0.55160
H18 H 0.14750 0.69230 0.62330
H19 H 0.12100 0.57960 0.57330
C34 C 0.2491(6) 0.7997(11) 0.5787(6)
H20 H 0.28280 0.80270 0.55570
H21 H 0.27700 0.83080 0.62060
H22 H 0.20430 0.85430 0.55830
C35 C 0.2221(5) 0.5969(13) 0.5247(5)
H23 H 0.26880 0.61860 0.51800
H24 H 0.17720 0.62540 0.48940
H25 H 0.21960 0.50360 0.52960
C36 C 0.2795(5) 0.6045(11) 0.6384(5)
H26 H 0.26640 0.51420 0.64110
H27 H 0.27820 0.65170 0.67400
H28 H 0.33100 0.60990 0.63780
N2 N 0.7704(3) 0.3705(5) 0.9158(3)
C37 C 0.7665(4) 0.4811(10) 0.9563(4)
H29 H 0.80630 0.47030 0.99750
H30 H 0.71610 0.48210 0.95920
H31 H 0.77470 0.56230 0.93860
C38 C 0.7091(4) 0.3877(8) 0.8519(3)
H32 H 0.65970 0.40430 0.85510
H33 H 0.70550 0.30930 0.82780
H34 H 0.72250 0.46050 0.83150
C39 C 0.8494(4) 0.3654(9) 0.9126(4)
H35 H 0.86050 0.44810 0.89780
H36 H 0.85050 0.29700 0.88440
H37 H 0.88800 0.34790 0.95370
C40 C 0.7557(4) 0.2441(9) 0.9427(5)
H38 H 0.80290 0.21620 0.97600
H39 H 0.73960 0.17820 0.91040
H40 H 0.71540 0.25680 0.95870
Co1A Co 0.50502(3) 0.02200(6) 0.25554(3)
Co1A* Co -0.49498(3) 1.02200(6) 0.25554(3)
Co2A Co -0.47149(3) 0.83771(7) 0.37646(3)
Co2* Co -0.02851(3) 1.33771(7) 0.12354(3)
Co3A Co 0.02936(3) 0.70970(7) 0.36782(3)
Co3A* Co 0.02936(3) -0.29030(7) 0.36782(3)
O3A O 0.06224(17) 0.6872(3) 0.29461(17)
O6A O 0.58712(18) 0.2156(4) 0.16853(18)
O7A O -0.06983(17) 0.3594(3) 0.19142(16)
O10A O 0.4580(2) 0.0414(4) 0.08718(18)
O11A O 0.4310(2) 0.3421(4) 0.05984(19)
O12A O 0.4706(2) 0.4354(4) 0.1524(2)
O15* O -0.0726(2) 0.2041(4) 0.05408(19)
O16* O -0.0293(3) 0.1061(4) 0.1454(2)
#END
