
#######################################################################
#
#                 Cambridge Crystallographic Data Centre
#                                CCDC
#
#######################################################################
#
# If this CIF has been generated from an entry in the Cambridge
# Structural Database, then it will include bibliographic, chemical,
# crystal, experimental, refinement or atomic coordinate data resulting
# from the CCDC's data processing and validation procedures.
#
#######################################################################

data_CSD_CIF_ANIQOG
_audit_creation_date 2021-02-24
_audit_creation_method CSD-ConQuest-V1
_database_code_CSD ANIQOG
_database_code_depnum_ccdc_archive 'CCDC 2048850'
_chemical_formula_sum 'C94 H86 N1 O16 P2 Tb1'
_chemical_formula_moiety
;
(C92 H78 O16 P2 Tb1 1-)n,n(C2 H8 N1 1+)
;
_journal_coden_Cambridge 4
_journal_volume 143
_journal_year 2021
_journal_page_first 3509
_journal_name_full 'J.Am.Chem.Soc. '
loop_
_publ_author_name
"Yuhao Liu"
"Lingmei Liu"
"Xu Chen"
"Yan Liu"
"Yu Han"
"Yong Cui"
_chemical_name_systematic
;
catena-(dimethylammonium 
bis(\m-4,4'-[6-hydroxy-1,11-dimethyl-6-oxo-4,8-bis(2,4,6-trimethylphenyl)-6H-6
\l^5^-dibenzo[d,f][1,3,2]dioxaphosphepine-2,10-diyl]dibenzoato)-terbium 
unknown solvate)
;
_cell_volume  14446.735
_exptl_crystal_colour 'colorless'
_exptl_crystal_description 'block'
_diffrn_ambient_temperature 173
_refine_special_details
;
The SQUEEZE/PLATON program was used to model the cation and some unidentified 
solvent.
;
#These two values have been output from a single CSD field.
_refine_ls_R_factor_gt 0.029
_refine_ls_wR_factor_gt 0.029
_symmetry_cell_setting orthorhombic
_symmetry_space_group_name_H-M 'C 2 2 2'
_symmetry_Int_Tables_number 21
loop_
_symmetry_equiv_pos_site_id
_symmetry_equiv_pos_as_xyz
1 x,y,z
2 -x,-y,z
3 -x,y,-z
4 x,-y,-z
5 1/2+x,1/2+y,z
6 1/2-x,1/2-y,z
7 1/2-x,1/2+y,-z
8 1/2+x,1/2-y,-z
_cell_length_a 17.9051(6)
_cell_length_b 31.7036(8)
_cell_length_c 25.4498(7)
_cell_angle_alpha 90
_cell_angle_beta 90
_cell_angle_gamma 90
_cell_formula_units_Z 4
loop_
_atom_type_symbol
_atom_type_radius_bond
C 0.68
H 0.23
O 0.68
P 1.05
Tb 1.94
loop_
_atom_site_label
_atom_site_type_symbol
_atom_site_fract_x
_atom_site_fract_y
_atom_site_fract_z
Tb1 Tb -0.37986(2) 0.00000 0.00000
P1 P -0.53634(8) -0.28265(5) -0.38732(5)
O1 O -0.4922(3) -0.30166(10) -0.33776(11)
O2 O -0.6041(2) -0.25812(12) -0.35974(13)
O3 O -0.4212(2) -0.05487(11) -0.05570(14)
C1 C -0.50342(19) -0.09262(9) -0.11012(11)
C2 C -0.57383(18) -0.09422(10) -0.13303(13)
H1 H -0.61070 -0.07530 -0.12250
C3 C -0.58914(16) -0.12402(12) -0.17161(14)
H2 H -0.63630 -0.12510 -0.18690
C4 C -0.53403(19) -0.15222(10) -0.18729(13)
C5 C -0.46362(17) -0.15062(11) -0.16438(16)
H3 H -0.42670 -0.16950 -0.17490
C6 C -0.44831(16) -0.12082(11) -0.12579(14)
H4 H -0.40120 -0.11970 -0.11050
C7 C -0.61703(18) -0.16773(12) -0.37276(12)
C8 C -0.56635(14) -0.14904(14) -0.40696(15)
C9 C -0.59176(19) -0.12836(15) -0.45168(15)
H5 H -0.55780 -0.11590 -0.47460
C10 C -0.6679(2) -0.12638(16) -0.46220(13)
C11 C -0.71854(15) -0.14507(15) -0.42801(15)
H6 H -0.76950 -0.14370 -0.43510
C12 C -0.69313(16) -0.16575(13) -0.38329(13)
C13 C -0.5890(2) -0.23322(9) -0.31645(10)
C14 C -0.59154(19) -0.18958(9) -0.32140(9)
C15 C -0.57354(19) -0.16411(7) -0.27878(11)
H7 H -0.57520 -0.13490 -0.28210
C16 C -0.55304(19) -0.18229(8) -0.23122(9)
C17 C -0.55054(19) -0.22593(8) -0.22627(9)
C18 C -0.5685(2) -0.25139(6) -0.26888(11)
C19 C -0.4885(4) -0.06006(15) -0.06943(18)
C20 C -0.6552(2) -0.37551(9) -0.12883(11)
H8 H -0.62880 -0.35150 -0.11900
C21 C -0.6922(2) -0.39928(10) -0.09100(8)
H9 H -0.69040 -0.39120 -0.05590
C22 C -0.7316(2) -0.43516(10) -0.10563(10)
C23 C -0.7342(2) -0.44726(9) -0.15810(11)
H10 H -0.76060 -0.47130 -0.16790
C24 C -0.6973(2) -0.42349(11) -0.19593(9)
H11 H -0.69900 -0.43160 -0.23100
C25 C -0.6578(2) -0.38761(10) -0.1813(1)
C26 C -0.52882(18) -0.36592(9) -0.29538(12)
C27 C -0.53206(17) -0.32227(9) -0.29992(11)
C28 C -0.57655(19) -0.29902(7) -0.26580(12)
C29 C -0.61781(17) -0.31941(8) -0.22714(11)
C30 C -0.61458(18) -0.36307(8) -0.22260(11)
C31 C -0.5701(2) -0.38632(7) -0.25672(12)
H12 H -0.56790 -0.41550 -0.25370
C32 C -0.5212(3) -0.24534(17) -0.17454(19)
H13 H -0.52280 -0.27550 -0.17690
H14 H -0.47070 -0.23640 -0.16870
H15 H -0.55190 -0.23620 -0.14580
C33 C -0.48277(18) -0.39182(11) -0.33409(13)
C34 C -0.40537(18) -0.39144(13) -0.32992(16)
C35 C -0.36232(17) -0.41522(14) -0.36439(19)
H16 H -0.31050 -0.41500 -0.36160
C36 C -0.3967(2) -0.43938(13) -0.40303(17)
C37 C -0.4741(3) -0.43977(12) -0.40720(14)
H17 H -0.49700 -0.45590 -0.43310
C38 C -0.51712(17) -0.41599(12) -0.37273(15)
C39 C -0.7484(4) -0.1826(2) -0.3427(3)
H18 H -0.72150 -0.19590 -0.31450
H19 H -0.77760 -0.15970 -0.32900
H20 H -0.78080 -0.20290 -0.35900
C40 C -0.4830(4) -0.1502(2) -0.3963(3)
H21 H -0.45700 -0.13580 -0.42400
H22 H -0.47270 -0.13660 -0.36340
H23 H -0.46650 -0.17900 -0.39470
C41 C -0.6776(4) -0.29431(18) -0.1966(2)
H24 H -0.67220 -0.26480 -0.20400
H25 H -0.72640 -0.30350 -0.20720
H26 H -0.67140 -0.29900 -0.15960
C42 C -0.6931(5) -0.1031(3) -0.5123(3)
H27 H -0.65020 -0.09250 -0.53050
H28 H -0.71980 -0.12230 -0.53460
H29 H -0.72520 -0.08000 -0.50280
O4 O -0.4837(2) -0.25269(12) -0.41294(14)
O5 O -0.5436(2) -0.03959(12) -0.05242(14)
O6 O -0.5721(2) -0.31640(13) -0.41982(15)
C43 C -0.7744(3) -0.46056(16) -0.06508(19)
C44 C -0.6014(4) -0.4174(3) -0.3778(4)
H30 H -0.62350 -0.39960 -0.35160
H31 H -0.61570 -0.40780 -0.41210
H32 H -0.61840 -0.44590 -0.37290
O7 O -0.80405(19) -0.49530(14) -0.07948(12)
O8 O -0.7836(2) -0.44611(12) -0.01975(13)
C45 C -0.3650(5) -0.3667(3) -0.2883(4)
H33 H -0.40070 -0.35180 -0.26710
H34 H -0.33700 -0.38570 -0.26640
H35 H -0.33170 -0.34700 -0.30460
C46 C -0.3497(5) -0.4658(2) -0.4407(4)
H36 H -0.38190 -0.48050 -0.46470
H37 H -0.31660 -0.44770 -0.46000
H38 H -0.32090 -0.48590 -0.42110
P1A P -0.46366(8) 0.28265(5) -0.38732(5)
O1A O -0.5078(3) 0.30166(10) -0.33776(11)
O2A O -0.3959(2) 0.25812(12) -0.35974(13)
O3A O -0.5788(2) 0.05487(11) -0.05570(14)
C1A C -0.49658(19) 0.09262(9) -0.11012(11)
C2A C -0.42617(18) 0.09422(10) -0.13303(13)
H1A H -0.38930 0.07530 -0.12250
C3A C -0.41086(16) 0.12402(12) -0.17161(14)
H2A H -0.36370 0.12510 -0.18690
C4A C -0.46597(19) 0.15222(10) -0.18729(13)
C5A C -0.53638(17) 0.15062(11) -0.16438(16)
H3A H -0.57330 0.16950 -0.17490
C6A C -0.55169(16) 0.12082(11) -0.12579(14)
H4A H -0.59880 0.11970 -0.11050
C7A C -0.38297(18) 0.16773(12) -0.37276(12)
C8A C -0.43365(14) 0.14904(14) -0.40696(15)
C9A C -0.40824(19) 0.12836(15) -0.45168(15)
H5A H -0.44220 0.11590 -0.47460
C10A C -0.3321(2) 0.12638(16) -0.46220(13)
C11A C -0.28146(15) 0.14507(15) -0.42801(15)
H6A H -0.23050 0.14370 -0.43510
C12A C -0.30687(16) 0.16575(13) -0.38329(13)
C13A C -0.4110(2) 0.23322(9) -0.31645(10)
C14A C -0.40846(19) 0.18958(9) -0.32140(9)
C15A C -0.42646(19) 0.16411(7) -0.27878(11)
H7A H -0.42480 0.13490 -0.28210
C16A C -0.44696(19) 0.18229(8) -0.23122(9)
C17A C -0.44946(19) 0.22593(8) -0.22627(9)
C18A C -0.4315(2) 0.25139(6) -0.26888(11)
C19A C -0.5115(4) 0.06006(15) -0.06943(18)
C20A C -0.3448(2) 0.37551(9) -0.12883(11)
H8A H -0.37120 0.35150 -0.11900
C21A C -0.3078(2) 0.39928(10) -0.09100(8)
H9A H -0.30960 0.39120 -0.05590
C22A C -0.2684(2) 0.43516(10) -0.10563(10)
C23A C -0.2658(2) 0.44726(9) -0.15810(11)
H10A H -0.23940 0.47130 -0.16790
C24A C -0.3027(2) 0.42349(11) -0.19593(9)
H11A H -0.30100 0.43160 -0.23100
C25A C -0.3422(2) 0.38761(10) -0.1813(1)
C26A C -0.47118(18) 0.36592(9) -0.29538(12)
C27A C -0.46794(17) 0.32227(9) -0.29992(11)
C28A C -0.42345(19) 0.29902(7) -0.26580(12)
C29A C -0.38219(17) 0.31941(8) -0.22714(11)
C30A C -0.38542(18) 0.36307(8) -0.22260(11)
C31A C -0.4299(2) 0.38632(7) -0.25672(12)
H12A H -0.43210 0.41550 -0.25370
C32A C -0.4788(3) 0.24534(17) -0.17454(19)
H13A H -0.47720 0.27550 -0.17690
H14A H -0.52930 0.23640 -0.16870
H15A H -0.44810 0.23620 -0.14580
C33A C -0.51723(18) 0.39182(11) -0.33409(13)
C34A C -0.59463(18) 0.39144(13) -0.32992(16)
C35A C -0.63768(17) 0.41522(14) -0.36439(19)
H16A H -0.68950 0.41500 -0.36160
C36A C -0.6033(2) 0.43938(13) -0.40303(17)
C37A C -0.5259(3) 0.43977(12) -0.40720(14)
H17A H -0.50300 0.45590 -0.43310
C38A C -0.48288(17) 0.41599(12) -0.37273(15)
C39A C -0.2516(4) 0.1826(2) -0.3427(3)
H18A H -0.27850 0.19590 -0.31450
H19A H -0.22240 0.15970 -0.32900
H20A H -0.21920 0.20290 -0.35900
C40A C -0.5170(4) 0.1502(2) -0.3963(3)
H21A H -0.54300 0.13580 -0.42400
H22A H -0.52730 0.13660 -0.36340
H23A H -0.53350 0.17900 -0.39470
C41A C -0.3224(4) 0.29431(18) -0.1966(2)
H24A H -0.32780 0.26480 -0.20400
H25A H -0.27360 0.30350 -0.20720
H26A H -0.32860 0.29900 -0.15960
C42A C -0.3069(5) 0.1031(3) -0.5123(3)
H27A H -0.34980 0.09250 -0.53050
H28A H -0.28020 0.12230 -0.53460
H29A H -0.27480 0.08000 -0.50280
O4A O -0.5163(2) 0.25269(12) -0.41294(14)
O5A O -0.4564(2) 0.03959(12) -0.05242(14)
O6A O -0.4279(2) 0.31640(13) -0.41982(15)
C43A C -0.2256(3) 0.46056(16) -0.06508(19)
C44A C -0.3986(4) 0.4174(3) -0.3778(4)
H30A H -0.37650 0.39960 -0.35160
H31A H -0.38430 0.40780 -0.41210
H32A H -0.38160 0.44590 -0.37290
O7A O -0.19595(19) 0.49530(14) -0.07948(12)
O8A O -0.2164(2) 0.44611(12) -0.01975(13)
C45A C -0.6350(5) 0.3667(3) -0.2883(4)
H33A H -0.59930 0.35180 -0.26710
H34A H -0.66300 0.38570 -0.26640
H35A H -0.66830 0.34700 -0.30460
C46A C -0.6503(5) 0.4658(2) -0.4407(4)
H36A H -0.61810 0.48050 -0.46470
H37A H -0.68340 0.44770 -0.46000
H38A H -0.67910 0.48590 -0.42110
Tb1A Tb -0.62014(2) 0.00000 0.00000
Tb1D Tb -0.87986(2) -0.50000 0.00000
Tb1E Tb -0.12014(2) 0.50000 0.00000
O3C O -0.4212(2) 0.05487(11) 0.05570(14)
O5B O -0.4564(2) -0.03959(12) 0.05242(14)
O7D O -0.30405(19) 0.00470(14) -0.07948(12)
O7G O -0.30405(19) -0.00470(14) 0.07948(12)
O8D O -0.2836(2) 0.05389(12) -0.01975(13)
O8G O -0.2836(2) -0.05389(12) 0.01975(13)
#END
