
#######################################################################
#
#                 Cambridge Crystallographic Data Centre
#                                CCDC
#
#######################################################################
#
# If this CIF has been generated from an entry in the Cambridge
# Structural Database, then it will include bibliographic, chemical,
# crystal, experimental, refinement or atomic coordinate data resulting
# from the CCDC's data processing and validation procedures.
#
#######################################################################

data_CSD_CIF_ANIQEW
_audit_creation_date 2021-02-24
_audit_creation_method CSD-ConQuest-V1
_database_code_CSD ANIQEW
_database_code_depnum_ccdc_archive 'CCDC 2048848'
_chemical_formula_sum 'C94 H86 Eu1 N1 O16 P2'
_chemical_formula_moiety
;
(C92 H78 Eu1 O16 P2 1-)n,n(C2 H8 N1 1+)
;
_journal_coden_Cambridge 4
_journal_volume 143
_journal_year 2021
_journal_page_first 3509
_journal_name_full 'J.Am.Chem.Soc. '
loop_
_publ_author_name
"Yuhao Liu"
"Lingmei Liu"
"Xu Chen"
"Yan Liu"
"Yu Han"
"Yong Cui"
_chemical_name_systematic
;
catena-(dimethylammonium 
bis(\m-4,4'-[6-hydroxy-1,11-dimethyl-6-oxo-4,8-bis(2,4,6-trimethylphenyl)-6H-6
\l^5^-dibenzo[d,f][1,3,2]dioxaphosphepine-2,10-diyl]dibenzoato)-europium 
unknown solvate)
;
_cell_volume  14640.597
_exptl_crystal_colour 'colorless'
_exptl_crystal_description 'block'
_diffrn_ambient_temperature 173
_refine_special_details
;
The SQUEEZE/PLATON program was used to model the cation and some unidentified 
solvent.
;
#These two values have been output from a single CSD field.
_refine_ls_R_factor_gt 0.0419
_refine_ls_wR_factor_gt 0.0419
_symmetry_cell_setting orthorhombic
_symmetry_space_group_name_H-M 'C 2 2 2'
_symmetry_Int_Tables_number 21
loop_
_symmetry_equiv_pos_site_id
_symmetry_equiv_pos_as_xyz
1 x,y,z
2 -x,-y,z
3 x,-y,-z
4 -x,y,-z
5 1/2+x,1/2+y,z
6 1/2-x,1/2-y,z
7 1/2+x,1/2-y,-z
8 1/2-x,1/2+y,-z
_cell_length_a 18.124(4)
_cell_length_b 31.910(6)
_cell_length_c 25.315(5)
_cell_angle_alpha 90
_cell_angle_beta 90
_cell_angle_gamma 90
_cell_formula_units_Z 4
loop_
_atom_type_symbol
_atom_type_radius_bond
C 0.68
H 0.23
Eu 1.98
O 0.68
P 1.05
loop_
_atom_site_label
_atom_site_type_symbol
_atom_site_fract_x
_atom_site_fract_y
_atom_site_fract_z
Eu1 Eu 0.38099(3) 0.00000 0.50000
P1 P 0.53815(14) 0.28211(7) 0.11158(8)
O1 O 0.4949(4) 0.30157(14) 0.16138(17)
O2 O 0.6057(3) 0.25795(17) 0.1400(2)
C1 C 0.7492(6) 0.1845(4) 0.1557(4)
H1 H 0.74458 0.21448 0.15718
H2 H 0.79817 0.17724 0.14457
H3 H 0.74005 0.17296 0.19012
O3 O 0.5734(4) 0.3149(2) 0.0794(2)
C2 C 0.4866(5) 0.1509(3) 0.1018(4)
H4 H 0.47412 0.13258 0.13056
H5 H 0.46169 0.14176 0.07038
H6 H 0.47158 0.17896 0.11021
C3 C 0.5736(3) 0.16430(11) 0.22091(18)
H7 H 0.57485 0.13528 0.21766
C4 C 0.5919(3) 0.18944(14) 0.17801(14)
C5 C 0.5901(3) 0.23281(14) 0.18286(15)
C6 C 0.5701(3) 0.25105(10) 0.23062(18)
C7 C 0.5518(3) 0.22592(13) 0.27353(15)
C8 C 0.5536(3) 0.18254(13) 0.26867(15)
C9 C 0.6030(8) 0.4142(3) 0.1190(5)
H8 H 0.62571 0.42078 0.15223
H9 H 0.61690 0.43477 0.09320
H10 H 0.61891 0.38699 0.10754
C10 C 0.5338(3) 0.32177(14) 0.19969(17)
C11 C 0.5771(3) 0.29876(10) 0.23448(19)
C12 C 0.6186(3) 0.31920(13) 0.27279(18)
C13 C 0.6168(3) 0.36266(13) 0.27632(17)
C14 C 0.5734(3) 0.38567(10) 0.2415(2)
H11 H 0.57219 0.41475 0.24389
C15 C 0.5319(3) 0.36523(14) 0.20322(19)
C16 C 0.5196(3) 0.41428(19) 0.1254(2)
C17 C 0.4770(5) 0.43795(18) 0.0909(2)
H12 H 0.49962 0.45371 0.06453
C18 C 0.4006(4) 0.4381(2) 0.0956(3)
C19 C 0.3668(3) 0.4145(3) 0.1350(3)
H13 H 0.31570 0.41458 0.13819
C20 C 0.4094(3) 0.3908(2) 0.1695(3)
C21 C 0.4858(3) 0.39073(17) 0.1648(2)
C22 C 0.5904(3) 0.1260(2) 0.3299(3)
H14 H 0.63784 0.12777 0.31607
C23 C 0.5355(3) 0.15283(16) 0.3118(2)
C24 C 0.4646(3) 0.15012(17) 0.3324(2)
H15 H 0.42789 0.16809 0.32036
C25 C 0.4485(3) 0.12054(19) 0.3711(2)
H16 H 0.40108 0.11873 0.38485
C26 C 0.5034(4) 0.09368(15) 0.38910(18)
C27 C 0.5743(3) 0.09638(17) 0.3685(2)
H17 H 0.61103 0.07841 0.38056
O4 O 0.5423(4) 0.0398(2) 0.4465(2)
O5 O 0.4219(5) 0.0550(2) 0.4429(2)
O6 O 0.4865(4) 0.25256(17) 0.0866(2)
C28 C 0.4899(8) 0.0601(3) 0.4298(3)
C29 C 0.7009(3) 0.42154(17) 0.30209(15)
H18 H 0.70384 0.42876 0.26656
C30 C 0.6596(3) 0.38693(15) 0.31754(17)
C31 C 0.6552(3) 0.37614(15) 0.37065(19)
H19 H 0.62758 0.35298 0.38098
C32 C 0.6920(3) 0.39998(17) 0.40830(14)
H20 H 0.68901 0.39277 0.44383
C33 C 0.7332(3) 0.43460(16) 0.39285(18)
C34 C 0.7377(3) 0.44538(14) 0.3397(2)
H21 H 0.76527 0.46854 0.32941
C35 C 0.6674(3) 0.1284(2) 0.0364(2)
C36 C 0.5923(3) 0.1299(2) 0.0475(2)
H22 H 0.55870 0.11759 0.02455
C37 C 0.5675(2) 0.1499(2) 0.0930(2)
C38 C 0.6178(3) 0.16831(17) 0.12735(17)
C39 C 0.6929(3) 0.16680(18) 0.1162(2)
C40 C 0.7177(2) 0.1468(2) 0.0708(2)
H23 H 0.76787 0.14583 0.06332
C41 C 0.6785(5) 0.2935(3) 0.3054(4)
H24 H 0.72410 0.30881 0.30604
H25 H 0.68636 0.26676 0.28889
H26 H 0.66130 0.28937 0.34086
C42 C 0.6942(7) 0.1072(5) -0.0152(4)
H27 H 0.68359 0.12507 -0.04468
H28 H 0.66919 0.08089 -0.01962
H29 H 0.74641 0.10242 -0.01311
C43 C 0.5237(5) 0.2451(3) 0.3259(3)
H30 H 0.48307 0.22877 0.33890
H31 H 0.50779 0.27335 0.31980
H32 H 0.56284 0.24496 0.35145
C44 C 0.7777(5) 0.4607(3) 0.4333(3)
O7 O 0.8048(3) 0.4948(2) 0.4184(2)
O8 O 0.7838(4) 0.44673(19) 0.4790(2)
C45 C 0.3710(6) 0.3658(4) 0.2129(5)
H33 H 0.37718 0.33638 0.20632
H34 H 0.31939 0.37252 0.21324
H35 H 0.39232 0.37274 0.24654
C46 C 0.3478(9) 0.4658(4) 0.0623(7)
H36 H 0.33663 0.49096 0.08139
H37 H 0.30302 0.45063 0.05546
H38 H 0.37111 0.47279 0.02942
P1A P 0.46185(14) -0.28211(7) 0.11158(8)
O1A O 0.5051(4) -0.30157(14) 0.16138(17)
O2A O 0.3943(3) -0.25795(17) 0.1400(2)
C1A C 0.2508(6) -0.1845(4) 0.1557(4)
H1A H 0.25542 -0.21448 0.15718
H2A H 0.20183 -0.17724 0.14457
H3A H 0.25995 -0.17296 0.19012
O3A O 0.4266(4) -0.3149(2) 0.0794(2)
C2A C 0.5134(5) -0.1509(3) 0.1018(4)
H4A H 0.52588 -0.13258 0.13056
H5A H 0.53831 -0.14176 0.07038
H6A H 0.52842 -0.17896 0.11021
C3A C 0.4264(3) -0.16430(11) 0.22091(18)
H7A H 0.42515 -0.13528 0.21766
C4A C 0.4081(3) -0.18944(14) 0.17801(14)
C5A C 0.4099(3) -0.23281(14) 0.18286(15)
C6A C 0.4299(3) -0.25105(10) 0.23062(18)
C7A C 0.4482(3) -0.22592(13) 0.27353(15)
C8A C 0.4464(3) -0.18254(13) 0.26867(15)
C9A C 0.3970(8) -0.4142(3) 0.1190(5)
H8A H 0.37429 -0.42078 0.15223
H9A H 0.38310 -0.43477 0.09320
H10A H 0.38109 -0.38699 0.10754
C10A C 0.4662(3) -0.32177(14) 0.19969(17)
C11A C 0.4229(3) -0.29876(10) 0.23448(19)
C12A C 0.3814(3) -0.31920(13) 0.27279(18)
C13A C 0.3832(3) -0.36266(13) 0.27632(17)
C14A C 0.4266(3) -0.38567(10) 0.2415(2)
H11A H 0.42781 -0.41475 0.24389
C15A C 0.4681(3) -0.36523(14) 0.20322(19)
C16A C 0.4804(3) -0.41428(19) 0.1254(2)
C17A C 0.5230(5) -0.43795(18) 0.0909(2)
H12A H 0.50038 -0.45371 0.06453
C18A C 0.5994(4) -0.4381(2) 0.0956(3)
C19A C 0.6332(3) -0.4145(3) 0.1350(3)
H13A H 0.68430 -0.41458 0.13819
C20A C 0.5906(3) -0.3908(2) 0.1695(3)
C21A C 0.5142(3) -0.39073(17) 0.1648(2)
C22A C 0.4096(3) -0.1260(2) 0.3299(3)
H14A H 0.36216 -0.12777 0.31607
C23A C 0.4645(3) -0.15283(16) 0.3118(2)
C24A C 0.5354(3) -0.15012(17) 0.3324(2)
H15A H 0.57211 -0.16809 0.32036
C25A C 0.5515(3) -0.12054(19) 0.3711(2)
H16A H 0.59892 -0.11873 0.38485
C26A C 0.4966(4) -0.09368(15) 0.38910(18)
C27A C 0.4257(3) -0.09638(17) 0.3685(2)
H17A H 0.38897 -0.07841 0.38056
O4A O 0.4577(4) -0.0398(2) 0.4465(2)
O5A O 0.5781(5) -0.0550(2) 0.4429(2)
O6A O 0.5135(4) -0.25256(17) 0.0866(2)
C28A C 0.5101(8) -0.0601(3) 0.4298(3)
C29A C 0.2991(3) -0.42154(17) 0.30209(15)
H18A H 0.29616 -0.42876 0.26656
C30A C 0.3404(3) -0.38693(15) 0.31754(17)
C31A C 0.3448(3) -0.37614(15) 0.37065(19)
H19A H 0.37242 -0.35298 0.38098
C32A C 0.3080(3) -0.39998(17) 0.40830(14)
H20A H 0.31099 -0.39277 0.44383
C33A C 0.2668(3) -0.43460(16) 0.39285(18)
C34A C 0.2623(3) -0.44538(14) 0.3397(2)
H21A H 0.23473 -0.46854 0.32941
C35A C 0.3326(3) -0.1284(2) 0.0364(2)
C36A C 0.4077(3) -0.1299(2) 0.0475(2)
H22A H 0.44130 -0.11759 0.02455
C37A C 0.4325(2) -0.1499(2) 0.0930(2)
C38A C 0.3822(3) -0.16831(17) 0.12735(17)
C39A C 0.3071(3) -0.16680(18) 0.1162(2)
C40A C 0.2823(2) -0.1468(2) 0.0708(2)
H23A H 0.23213 -0.14583 0.06332
C41A C 0.3215(5) -0.2935(3) 0.3054(4)
H24A H 0.27590 -0.30881 0.30604
H25A H 0.31364 -0.26676 0.28889
H26A H 0.33870 -0.28937 0.34086
C42A C 0.3058(7) -0.1072(5) -0.0152(4)
H27A H 0.31641 -0.12507 -0.04468
H28A H 0.33081 -0.08089 -0.01962
H29A H 0.25359 -0.10242 -0.01311
C43A C 0.4763(5) -0.2451(3) 0.3259(3)
H30A H 0.51693 -0.22877 0.33890
H31A H 0.49221 -0.27335 0.31980
H32A H 0.43716 -0.24496 0.35145
C44A C 0.2223(5) -0.4607(3) 0.4333(3)
O7A O 0.1952(3) -0.4948(2) 0.4184(2)
O8A O 0.2162(4) -0.44673(19) 0.4790(2)
C45A C 0.6290(6) -0.3658(4) 0.2129(5)
H33A H 0.62282 -0.33638 0.20632
H34A H 0.68061 -0.37252 0.21324
H35A H 0.60768 -0.37274 0.24654
C46A C 0.6522(9) -0.4658(4) 0.0623(7)
H36A H 0.66336 -0.49096 0.08139
H37A H 0.69698 -0.45063 0.05546
H38A H 0.62889 -0.47279 0.02942
Eu1A Eu 0.61901(3) 0.00000 0.50000
Eu1D Eu 0.88099(3) 0.50000 0.50000
Eu1E Eu 0.11901(3) -0.50000 0.50000
O4C O 0.4577(4) 0.0398(2) 0.5535(2)
O5B O 0.4219(5) -0.0550(2) 0.5571(2)
O7D O 0.3048(3) -0.0052(2) 0.4184(2)
O7F O 0.3048(3) 0.0052(2) 0.5816(2)
O8D O 0.2838(4) -0.05327(19) 0.4790(2)
O8F O 0.2838(4) 0.05327(19) 0.5210(2)
#END
