
#######################################################################
#
#                 Cambridge Crystallographic Data Centre
#                                CCDC
#
#######################################################################
#
# If this CIF has been generated from an entry in the Cambridge
# Structural Database, then it will include bibliographic, chemical,
# crystal, experimental, refinement or atomic coordinate data resulting
# from the CCDC's data processing and validation procedures.
#
#######################################################################

data_CSD_CIF_ANIQIA
_audit_creation_date 2021-02-24
_audit_creation_method CSD-ConQuest-V1
_database_code_CSD ANIQIA
_database_code_depnum_ccdc_archive 'CCDC 2048849'
_chemical_formula_sum 'C94 H86 Dy1 N1 O16 P2'
_chemical_formula_moiety
;
(C92 H78 Dy1 O16 P2 1-)n,n(C2 H8 N1 1+)
;
_journal_coden_Cambridge 4
_journal_volume 143
_journal_year 2021
_journal_page_first 3509
_journal_name_full 'J.Am.Chem.Soc. '
loop_
_publ_author_name
"Yuhao Liu"
"Lingmei Liu"
"Xu Chen"
"Yan Liu"
"Yu Han"
"Yong Cui"
_chemical_name_systematic
;
catena-(dimethylammonium 
bis(\m-4,4'-[6-hydroxy-1,11-dimethyl-6-oxo-4,8-bis(2,4,6-trimethylphenyl)-6H-6
\l^5^-dibenzo[d,f][1,3,2]dioxaphosphepine-2,10-diyl]dibenzoato)-dysprosium 
unknown solvate)
;
_cell_volume  14446.229
_exptl_crystal_colour 'colorless'
_exptl_crystal_description 'needle'
_diffrn_ambient_temperature 173
_refine_special_details
;
The SQUEEZE/PLATON program was used to model the cation and some unidentified 
solvent.
;
#These two values have been output from a single CSD field.
_refine_ls_R_factor_gt 0.039
_refine_ls_wR_factor_gt 0.039
_symmetry_cell_setting orthorhombic
_symmetry_space_group_name_H-M 'C 2 2 2'
_symmetry_Int_Tables_number 21
loop_
_symmetry_equiv_pos_site_id
_symmetry_equiv_pos_as_xyz
1 x,y,z
2 -x,-y,z
3 x,-y,-z
4 -x,y,-z
5 1/2+x,1/2+y,z
6 1/2-x,1/2-y,z
7 1/2+x,1/2-y,-z
8 1/2-x,1/2+y,-z
_cell_length_a 17.9066(11)
_cell_length_b 31.734(3)
_cell_length_c 25.4224(17)
_cell_angle_alpha 90
_cell_angle_beta 90
_cell_angle_gamma 90
_cell_formula_units_Z 4
loop_
_atom_type_symbol
_atom_type_radius_bond
C 0.68
H 0.23
Dy 1.92
O 0.68
P 1.05
loop_
_atom_site_label
_atom_site_type_symbol
_atom_site_fract_x
_atom_site_fract_y
_atom_site_fract_z
Dy1 Dy 0.12009(3) 0.00000 0.50000
P1 P 0.46351(13) 0.21696(7) 0.11286(8)
O1 O 0.5083(4) 0.19778(15) 0.16274(18)
O2 O 0.1960(3) 0.0045(2) 0.42081(18)
O3 O 0.3961(3) 0.24161(17) 0.1407(2)
O4 O 0.2162(4) 0.05308(19) 0.4811(2)
C1 C 0.3828(3) 0.18067(13) 0.27321(17)
C2 C 0.3855(3) 0.13705(13) 0.27782(17)
C3 C 0.4301(3) 0.11362(10) 0.2440(2)
H1 H 0.43185 0.08444 0.24705
C4 C 0.4720(3) 0.13381(13) 0.20547(18)
C5 C 0.4694(3) 0.17743(14) 0.20086(16)
C6 C 0.4248(3) 0.20086(10) 0.23472(19)
C7 C 0.3426(3) 0.11214(16) 0.31932(16)
C8 C 0.3447(3) 0.12428(15) 0.37183(17)
H2 H 0.37110 0.14822 0.38174
C9 C 0.3072(3) 0.10063(17) 0.40954(13)
H3 H 0.30859 0.10875 0.44467
C10 C 0.2677(3) 0.06483(16) 0.39473(16)
C11 C 0.2657(3) 0.05269(15) 0.34222(18)
H4 H 0.23923 0.02875 0.33231
C12 C 0.3031(3) 0.07635(16) 0.30451(14)
H5 H 0.30174 0.06822 0.26937
C13 C 0.4478(3) 0.31761(12) 0.26900(14)
C14 C 0.4508(3) 0.27401(13) 0.27379(14)
C15 C 0.4329(3) 0.2486(1) 0.23107(18)
C16 C 0.4120(3) 0.26680(14) 0.18357(15)
C17 C 0.4090(3) 0.31040(15) 0.17878(14)
C18 C 0.4269(3) 0.33580(11) 0.22150(17)
H6 H 0.42489 0.36497 0.21829
C19 C 0.5175(3) 0.10846(16) 0.1666(2)
C20 C 0.5949(3) 0.10866(19) 0.1707(2)
C21 C 0.6377(3) 0.0846(2) 0.1363(3)
H7 H 0.68947 0.08476 0.13906
C22 C 0.6031(4) 0.06040(19) 0.0978(2)
C23 C 0.5257(4) 0.06020(17) 0.0937(2)
H8 H 0.50250 0.04399 0.06801
C24 C 0.4829(3) 0.08423(18) 0.1281(2)
C25 C 0.2253(5) 0.0393(3) 0.4348(3)
C26 C 0.4971(3) 0.40743(14) 0.38933(18)
C27 C 0.4267(3) 0.40586(16) 0.3665(2)
H9 H 0.39006 0.42498 0.37674
C28 C 0.4109(3) 0.37571(17) 0.3285(2)
H10 H 0.36369 0.37466 0.31320
C29 C 0.4655(3) 0.34713(15) 0.3132(2)
C30 C 0.5360(3) 0.34870(16) 0.3360(2)
H11 H 0.57262 0.32958 0.32579
C31 C 0.5518(3) 0.37885(17) 0.3741(2)
H12 H 0.59900 0.37990 0.38933
C32 C 0.3067(2) 0.33411(18) 0.1180(2)
C33 C 0.3828(3) 0.33182(17) 0.12825(17)
C34 C 0.4335(2) 0.3499(2) 0.0936(2)
C35 C 0.4081(3) 0.3703(2) 0.0486(2)
H13 H 0.44210 0.38241 0.02542
C36 C 0.3320(3) 0.3726(2) 0.0383(2)
C37 C 0.2813(2) 0.3545(2) 0.0730(2)
H14 H 0.23035 0.35604 0.06611
C38 C 0.3039(8) 0.3942(5) -0.0126(4)
H15 H 0.34198 0.41265 -0.02589
H16 H 0.25974 0.41023 -0.00496
H17 H 0.29257 0.37313 -0.03848
C39 C 0.4804(6) 0.2540(3) 0.3252(3)
H18 H 0.52883 0.26533 0.33307
H19 H 0.48400 0.22404 0.32085
H20 H 0.44671 0.26029 0.35348
C40 C 0.3989(7) 0.0838(4) 0.1221(6)
H21 H 0.37700 0.06878 0.15106
H22 H 0.38582 0.07009 0.08973
H23 H 0.38050 0.11220 0.12175
C41 C 0.3239(5) 0.2053(3) 0.3050(3)
H24 H 0.27808 0.18961 0.30589
H25 H 0.31518 0.23215 0.28857
H26 H 0.34161 0.20961 0.34019
C42 C 0.5187(5) 0.3484(3) 0.1026(4)
H27 H 0.53349 0.37198 0.12388
H28 H 0.54392 0.34971 0.06933
H29 H 0.53157 0.32268 0.12021
C43 C 0.2535(6) 0.3155(3) 0.1570(4)
H30 H 0.26429 0.28607 0.16139
H31 H 0.20324 0.31875 0.14439
H32 H 0.25873 0.32968 0.19010
C44 C 0.6339(8) 0.1344(4) 0.2122(5)
H33 H 0.61957 0.16338 0.20884
H34 H 0.68698 0.13187 0.20779
H35 H 0.62009 0.12420 0.24640
O5 O 0.5163(4) 0.24613(17) 0.0872(2)
O6 O 0.4268(3) 0.18361(18) 0.0817(2)
C45 C 0.5112(7) 0.4410(2) 0.4307(3)
C46 C 0.6516(8) 0.0347(4) 0.0577(5)
H36 H 0.68599 0.05331 0.04046
H37 H 0.61961 0.02182 0.03206
H38 H 0.67885 0.01325 0.07618
O7 O 0.4553(4) 0.46059(18) 0.4474(2)
O8 O 0.5780(4) 0.44544(18) 0.4449(2)
P1B P 0.46351(13) -0.21696(7) 0.88714(8)
O1B O 0.5083(4) -0.19778(15) 0.83726(18)
O2B O 0.1960(3) -0.0045(2) 0.57919(18)
O3B O 0.3961(3) -0.24161(17) 0.8593(2)
O4B O 0.2162(4) -0.05308(19) 0.5189(2)
C1B C 0.3828(3) -0.18067(13) 0.72679(17)
C2B C 0.3855(3) -0.13705(13) 0.72218(17)
C3B C 0.4301(3) -0.11362(10) 0.7560(2)
H1B H 0.43185 -0.08444 0.75295
C4B C 0.4720(3) -0.13381(13) 0.79453(18)
C5B C 0.4694(3) -0.17743(14) 0.79914(16)
C6B C 0.4248(3) -0.20086(10) 0.76528(19)
C7B C 0.3426(3) -0.11214(16) 0.68068(16)
C8B C 0.3447(3) -0.12428(15) 0.62817(17)
H2B H 0.37110 -0.14822 0.61826
C9B C 0.3072(3) -0.10063(17) 0.59046(13)
H3B H 0.30859 -0.10875 0.55533
C10B C 0.2677(3) -0.06483(16) 0.60527(16)
C11B C 0.2657(3) -0.05269(15) 0.65778(18)
H4B H 0.23923 -0.02875 0.66769
C12B C 0.3031(3) -0.07635(16) 0.69549(14)
H5B H 0.30174 -0.06822 0.73063
C13B C 0.4478(3) -0.31761(12) 0.73100(14)
C14B C 0.4508(3) -0.27401(13) 0.72621(14)
C15B C 0.4329(3) -0.2486(1) 0.76893(18)
C16B C 0.4120(3) -0.26680(14) 0.81643(15)
C17B C 0.4090(3) -0.31040(15) 0.82122(14)
C18B C 0.4269(3) -0.33580(11) 0.77850(17)
H6B H 0.42489 -0.36497 0.78170
C19B C 0.5175(3) -0.10846(16) 0.8334(2)
C20B C 0.5949(3) -0.10866(19) 0.8293(2)
C21B C 0.6377(3) -0.0846(2) 0.8637(3)
H7B H 0.68947 -0.08476 0.86094
C22B C 0.6031(4) -0.06040(19) 0.9022(2)
C23B C 0.5257(4) -0.06020(17) 0.9063(2)
H8B H 0.50250 -0.04399 0.93199
C24B C 0.4829(3) -0.08423(18) 0.8719(2)
C25B C 0.2253(5) -0.0393(3) 0.5652(3)
C26B C 0.4971(3) -0.40743(14) 0.61067(18)
C27B C 0.4267(3) -0.40586(16) 0.6335(2)
H9B H 0.39006 -0.42498 0.62326
C28B C 0.4109(3) -0.37571(17) 0.6715(2)
H10B H 0.36369 -0.37466 0.68680
C29B C 0.4655(3) -0.34713(15) 0.6868(2)
C30B C 0.5360(3) -0.34870(16) 0.6640(2)
H11B H 0.57262 -0.32958 0.67421
C31B C 0.5518(3) -0.37885(17) 0.6259(2)
H12B H 0.59900 -0.37990 0.61067
C32B C 0.3067(2) -0.33411(18) 0.8820(2)
C33B C 0.3828(3) -0.33182(17) 0.87175(17)
C34B C 0.4335(2) -0.3499(2) 0.9064(2)
C35B C 0.4081(3) -0.3703(2) 0.9514(2)
H13B H 0.44210 -0.38241 0.97458
C36B C 0.3320(3) -0.3726(2) 0.9617(2)
C37B C 0.2813(2) -0.3545(2) 0.9270(2)
H14B H 0.23035 -0.35604 0.93389
C38B C 0.3039(8) -0.3942(5) 1.0126(4)
H15B H 0.34198 -0.41265 1.02589
H16B H 0.25974 -0.41023 1.00496
H17B H 0.29257 -0.37313 1.03848
C39B C 0.4804(6) -0.2540(3) 0.6748(3)
H18B H 0.52883 -0.26533 0.66693
H19B H 0.48400 -0.22404 0.67915
H20B H 0.44671 -0.26029 0.64652
C40B C 0.3989(7) -0.0838(4) 0.8779(6)
H21B H 0.37700 -0.06878 0.84894
H22B H 0.38582 -0.07009 0.91027
H23B H 0.38050 -0.11220 0.87825
C41B C 0.3239(5) -0.2053(3) 0.6950(3)
H24B H 0.27808 -0.18961 0.69411
H25B H 0.31518 -0.23215 0.71143
H26B H 0.34161 -0.20961 0.65981
C42B C 0.5187(5) -0.3484(3) 0.8974(4)
H27B H 0.53349 -0.37198 0.87612
H28B H 0.54392 -0.34971 0.93067
H29B H 0.53157 -0.32268 0.87979
C43B C 0.2535(6) -0.3155(3) 0.8430(4)
H30B H 0.26429 -0.28607 0.83861
H31B H 0.20324 -0.31875 0.85561
H32B H 0.25873 -0.32968 0.80990
C44B C 0.6339(8) -0.1344(4) 0.7878(5)
H33B H 0.61957 -0.16338 0.79116
H34B H 0.68698 -0.13187 0.79221
H35B H 0.62009 -0.12420 0.75360
O5B O 0.5163(4) -0.24613(17) 0.9128(2)
O6B O 0.4268(3) -0.18361(18) 0.9183(2)
C45B C 0.5112(7) -0.4410(2) 0.5693(3)
C46B C 0.6516(8) -0.0347(4) 0.9423(5)
H36B H 0.68599 -0.05331 0.95954
H37B H 0.61961 -0.02182 0.96795
H38B H 0.67885 -0.01325 0.92382
O7B O 0.4553(4) -0.46059(18) 0.5526(2)
O8B O 0.5780(4) -0.44544(18) 0.5551(2)
Dy1D Dy 0.62009(3) -0.50000 0.50000
Dy1D* Dy 0.62009(3) 0.50000 0.50000
Dy1E Dy 0.37991(3) -0.50000 0.50000
Dy1E* Dy 0.37991(3) 0.50000 0.50000
O7E O 0.0447(4) 0.03941(18) 0.4474(2)
O7G O 0.0447(4) -0.03941(18) 0.5526(2)
O8D O 0.0780(4) -0.05456(18) 0.4449(2)
O8F O 0.0780(4) 0.05456(18) 0.5551(2)
#END
