
#######################################################################
#
#                 Cambridge Crystallographic Data Centre
#                                CCDC
#
#######################################################################
#
# If this CIF has been generated from an entry in the Cambridge
# Structural Database, then it will include bibliographic, chemical,
# crystal, experimental, refinement or atomic coordinate data resulting
# from the CCDC's data processing and validation procedures.
#
#######################################################################

data_CSD_CIF_APEBUU
_audit_creation_date 2016-06-20
_audit_creation_method CSD-ConQuest-V1
_database_code_CSD APEBUU
_database_code_depnum_ccdc_archive 'CCDC 1472383'
_chemical_formula_sum 'C42 H36 B2 Cd3 N16 O14'
_chemical_formula_moiety
;
(C42 H31 B2 Cd3 N16 O12 1-)n,H3 O1 1+,x(H2 O1)
;
_journal_coden_Cambridge 182
_journal_volume 52
_journal_year 2016
_journal_page_first 8577
_journal_name_full 'Chem.Commun. '
loop_
_publ_author_name
"Min Liu"
"Shumei Chen"
"Tian Wen"
"Jian Zhang"
_chemical_name_systematic
;
catena-[oxonium 
(\m-benzene-1,3,5-tricarboxylato)-(\m-5-carboxybenzene-1,3-dicarboxylato)-bis(
\m-tetra-1H-imidazol-1-ylborate)-tri-cadmium(ii) hydrate]
;
_chemical_name_common
;
BIF-81
;
_cell_volume   9791.676
_exptl_crystal_colour 'colorless'
_exptl_crystal_description 'Prism'
_diffrn_ambient_temperature 293.1
_refine_special_details
;
Disordered solvent water molecules and oxonium counterions were not modelled.

;
#These two values have been output from a single CSD field.
_refine_ls_R_factor_gt 0.0368
_refine_ls_wR_factor_gt 0.0368
_symmetry_cell_setting monoclinic
_symmetry_space_group_name_H-M 'C 2/c'
_symmetry_Int_Tables_number 15
loop_
_symmetry_equiv_pos_site_id
_symmetry_equiv_pos_as_xyz
1 x,y,z
2 -x,y,1/2-z
3 1/2+x,1/2+y,z
4 1/2-x,1/2+y,1/2-z
5 -x,-y,-z
6 x,-y,-1/2+z
7 -1/2-x,-1/2-y,-z
8 -1/2+x,-1/2-y,-1/2+z
_cell_length_a 28.187(10)
_cell_length_b 14.002(4)
_cell_length_c 27.657(10)
_cell_angle_alpha 90
_cell_angle_beta 116.228(6)
_cell_angle_gamma 90
_cell_formula_units_Z 8
loop_
_atom_type_symbol
_atom_type_radius_bond
C 0.68
H 0.23
B 0.83
Cd 1.44
N 0.68
O 0.68
loop_
_atom_site_label
_atom_site_type_symbol
_atom_site_fract_x
_atom_site_fract_y
_atom_site_fract_z
Cd1 Cd 0.199822(10) 0.631549(16) 0.152985(9)
Cd2 Cd 0.40450(1) 0.375017(18) 0.049775(10)
Cd3 Cd 0.124348(10) 0.463827(18) 0.220832(9)
O1 O 0.17927(10) 0.47081(16) 0.14634(10)
O2 O 0.34035(12) 0.5018(2) 0.11905(11)
O3 O 0.18460(11) 0.37369(18) 0.21237(11)
O4 O 0.31795(11) 0.10763(18) 0.27146(11)
O5 O 0.10371(13) 0.94904(19) -0.03093(11)
O6 O 0.10426(11) 0.66249(19) 0.09745(10)
O7 O 0.38598(13) 0.3684(2) 0.12425(13)
O8 O -0.05289(12) 0.6569(2) -0.18787(11)
O9 O 0.10242(16) 0.8817(2) -0.10414(14)
H1 H 0.12380 0.92260 -0.10220
O10 O -0.05728(11) 0.54126(18) -0.13678(10)
O11 O 0.06119(17) 0.5356(2) 0.05244(12)
O12 O 0.38485(13) 0.1185(2) 0.25161(13)
N1 N 0.10859(11) 1.0848(2) 0.11115(11)
N2 N 0.21434(12) 1.1150(2) 0.28707(12)
N3 N 0.31427(13) 0.3842(2) -0.00803(13)
N4 N 0.23037(12) 0.4329(2) -0.04515(11)
N5 N 0.19284(12) 0.7932(2) 0.15191(12)
N6 N 0.06881(12) 0.9670(2) 0.15102(11)
N7 N 0.13586(12) 0.4226(2) -0.06286(11)
N8 N 0.20305(14) 0.6131(2) 0.07204(12)
N9 N 0.19263(13) 0.5596(2) -0.00783(11)
N10 N 0.14890(12) 1.0609(2) 0.21200(11)
N11 N 0.08361(14) 1.1346(2) 0.02706(14)
N12 N 0.16344(12) 0.5516(2) -0.10775(12)
N13 N 0.15704(11) 0.9348(2) 0.15074(11)
N14 N -0.01266(13) 0.9081(3) 0.11247(12)
N15 N 0.13723(13) 0.5764(2) -0.19535(12)
N16 N 0.09590(14) 0.2895(2) -0.05661(14)
C1 C 0.06882(14) 0.7926(2) -0.05492(14)
C2 C 0.22414(16) 0.8626(3) 0.14536(18)
H2 H 0.25530 0.85160 0.14250
C3 C 0.01123(18) 0.8795(4) 0.16522(18)
H3 H -0.00420 0.84160 0.18190
C4 C 0.27247(13) 0.2784(2) 0.21360(12)
H4 H 0.25520 0.24930 0.23160
C5 C 0.32494(14) 0.3669(2) 0.16114(13)
C6 C 0.31987(14) 0.2409(2) 0.21799(13)
C7 C 0.09391(15) 0.8828(2) -0.06233(15)
C8 C 0.02344(14) 0.6235(2) -0.04429(14)
H5 H 0.00900 0.56570 -0.04060
C9 C 0.23478(17) 0.3570(3) -0.07506(15)
H6 H 0.20740 0.33020 -0.10530
C10 C 0.06121(15) 0.6689(3) 0.00129(13)
C11 C 0.34284(15) 0.1511(2) 0.24974(13)
C12 C 0.03089(14) 0.7469(2) -0.10041(13)
H7 H 0.02150 0.77250 -0.13450
C13 C 0.35338(15) 0.4152(3) 0.13283(14)
C14 C 0.20082(14) 0.4046(2) 0.17956(13)
C15 C -0.03637(14) 0.6185(2) -0.14298(13)
C16 C 0.06079(17) 0.9152(4) 0.18914(16)
H8 H 0.08510 0.90640 0.22490
C17 C 0.02312(14) 0.9588(3) 0.10596(14)
H9 H 0.01750 0.98650 0.07330
C18 C 0.34585(14) 0.2852(2) 0.19148(13)
H10 H 0.37740 0.25990 0.19410
C19 C 0.16373(16) 0.5210(3) -0.15366(14)
H11 H 0.18110 0.46570 -0.15580
C20 C 0.07690(16) 0.6243(3) 0.05517(15)
C21 C 0.05854(18) 0.3539(3) -0.0875(2)
H12 H 0.02220 0.34330 -0.10320
C22 C 0.08288(14) 0.7549(2) -0.00404(14)
H13 H 0.10680 0.78710 0.02640
C23 C 0.18272(14) 0.5463(2) 0.03522(13)
H14 H 0.16340 0.49490 0.03850
C24 C 0.00711(14) 0.6633(2) -0.09493(13)
C25 C 0.20241(16) 0.9496(3) 0.14378(18)
H15 H 0.21540 1.00800 0.13900
C26 C 0.27710(14) 0.4036(2) 0.15609(13)
H16 H 0.26270 0.45760 0.13510
C27 C 0.1337(2) 0.6343(3) -0.12223(18)
H17 H 0.12580 0.67310 -0.09950
C28 C 0.15366(14) 0.8398(2) 0.15504(14)
H18 H 0.12650 0.81000 0.15970
C29 C 0.09803(16) 1.0614(3) 0.05999(14)
H19 H 0.10070 0.99950 0.04920
C30 C 0.20135(14) 1.0655(3) 0.24256(14)
H20 H 0.22590 1.03680 0.23330
C31 C 0.12742(18) 1.1133(4) 0.23943(18)
H21 H 0.09170 1.12550 0.22840
C32 C 0.11834(19) 0.6486(3) -0.17536(17)
H22 H 0.09800 0.69970 -0.19530
C33 C 0.28582(16) 0.3288(3) -0.05260(15)
H23 H 0.29960 0.27970 -0.06530
C34 C 0.10082(19) 1.1818(3) 0.11014(17)
H24 H 0.10480 1.21990 0.13920
C35 C 0.27985(15) 0.4444(3) -0.00542(14)
H25 H 0.28870 0.49080 0.02130
C36 C 0.2230(2) 0.6408(3) 0.00401(19)
H26 H 0.23700 0.66880 -0.01740
C37 C 0.14156(17) 0.3333(3) -0.04300(17)
H27 H 0.17420 0.30540 -0.02190
C38 C 0.08201(18) 0.4352(3) -0.0920(2)
H28 H 0.06500 0.48950 -0.11120
C39 C 0.2288(2) 0.6725(3) 0.05242(19)
H29 H 0.24760 0.72680 0.06980
C40 C 0.16788(17) 1.1438(3) 0.28543(17)
H30 H 0.16440 1.17940 0.31200
C41 C 0.0864(2) 1.2116(3) 0.05926(18)
H31 H 0.07940 1.27460 0.04760
C42 C 0.25078(14) 0.3596(2) 0.18235(13)
B1 B 0.18059(17) 0.4921(3) -0.05560(15)
B2 B 0.12084(15) 1.0126(3) 0.15664(15)
Cd1C Cd 0.300178(10) 0.131549(16) 0.347015(9)
Cd1C* Cd 0.300178(10) 1.131549(16) 0.347015(9)
Cd2B Cd -0.09550(1) 0.875017(18) 0.049775(10)
Cd2F Cd 0.09550(1) 0.124983(18) -0.049775(10)
Cd2F* Cd 0.09550(1) 1.124983(18) -0.049775(10)
Cd3C Cd 0.375652(10) -0.036173(18) 0.279168(9)
Cd3D Cd -0.124348(10) 0.536173(18) -0.220832(9)
Cd3E Cd 0.124348(10) 0.536173(18) -0.279168(9)
O4C O 0.18205(11) 0.60763(18) 0.22854(11)
O5F O 0.39629(13) 0.55096(19) 0.03093(11)
O8D O 0.05289(12) 0.3431(2) 0.18787(11)
O10D O 0.05728(11) 0.45874(18) 0.13678(10)
O12C O 0.11515(13) 0.6185(2) 0.24839(13)
N2C N 0.28566(12) 0.6150(2) 0.21293(12)
N11F N 0.41639(14) 0.3654(2) -0.02706(14)
N14B N 0.48734(13) 0.4081(3) 0.11247(12)
N15E N 0.13723(13) 0.4236(2) 0.30465(12)
N16F N 0.40410(14) 0.2105(2) 0.05661(14)
#END
