
#######################################################################
#
#                 Cambridge Crystallographic Data Centre
#                                CCDC
#
#######################################################################
#
# If this CIF has been generated from an entry in the Cambridge
# Structural Database, then it will include bibliographic, chemical,
# crystal, experimental, refinement or atomic coordinate data resulting
# from the CCDC's data processing and validation procedures.
#
#######################################################################

data_CSD_CIF_APOBEP
_audit_creation_date 2021-03-23
_audit_creation_method CSD-ConQuest-V1
_database_code_CSD APOBEP
_database_code_depnum_ccdc_archive 'CCDC 2020555'
_chemical_formula_sum 'C12 H26 Bi1 I6 K1 N4'
_chemical_formula_moiety
;
(C6 H12 Bi1 I6 K1 N2 2-)n,n(C6 H14 N2 2+)
;
_journal_coden_Cambridge 9
_journal_volume 60
_journal_year 2021
_journal_page_first 5333
_journal_name_full 'Inorg.Chem. '
loop_
_publ_author_name
"Yunhe Cai"
"A.M.Chippindale"
"R.J.Curry"
"P.Vaqueiro"
_chemical_name_systematic
;
catena-(1,4-diazonabicyclo[2.2.2]octane 
hexakis(\m-iodo)-(1,4-diazabicyclo[2.2.2]octane)-bismuth-potassium)
;
_cell_volume   1322.718
_exptl_crystal_colour 'orange'
_exptl_crystal_description 'plate'
_diffrn_ambient_temperature 100
_refine_special_details
;
The SQUEEZE/PLATON program was used to model the disordered cation.

;
#These two values have been output from a single CSD field.
_refine_ls_R_factor_gt 0.0456
_refine_ls_wR_factor_gt 0.0456
_symmetry_cell_setting hexagonal
_symmetry_space_group_name_H-M 'P 63 m c'
_symmetry_Int_Tables_number 186
loop_
_symmetry_equiv_pos_site_id
_symmetry_equiv_pos_as_xyz
1 x,y,z
2 y,-x+y,1/2+z
3 -y,-x,z
4 x-y,x,1/2+z
5 y,x,1/2+z
6 -y,x-y,z
7 x,x-y,z
8 -x+y,-x,z
9 -x+y,y,z
10 -x,-y,1/2+z
11 x-y,-y,1/2+z
12 -x,-x+y,1/2+z
_cell_length_a 10.16174(4)
_cell_length_b 10.16174(4)
_cell_length_c 14.79110(4)
_cell_angle_alpha 90
_cell_angle_beta 90
_cell_angle_gamma 120
_cell_formula_units_Z 2
loop_
_atom_type_symbol
_atom_type_radius_bond
C 0.68
H 0.23
Bi 1.48
I 1.40
K 2.03
N 0.68
loop_
_atom_site_label
_atom_site_type_symbol
_atom_site_fract_x
_atom_site_fract_y
_atom_site_fract_z
Bi1 Bi 0.66670 0.33330 0.58487(13)
I1 I 0.52789(9) 0.47211(9) 0.45325(14)
I2 I 0.38575(16) 0.19287(8) 0.70306(14)
K1 K 0.33330 0.66670 0.3927(5)
N1 N 0.33330 0.66670 0.5953(14)
C1 C 0.2544(9) 0.5088(18) 0.6314(10)
C2 C 0.2571(14) 0.514(3) 0.7372(16)
N2 N 0.33330 0.66670 0.7663(18)
H1 H 0.15210 0.45690 0.61080
H2 H 0.15590 0.46440 0.75960
C1B C 0.4912(9) 0.7456(18) 0.6314(10)
C2B C 0.4860(14) 0.7429(30) 0.7372(16)
H1B H 0.54310 0.84790 0.61080
H2B H 0.53560 0.84410 0.75960
H1E H 0.54310 0.69520 0.61080
H2E H 0.53560 0.69150 0.75960
C1F C 0.2544(9) 0.7456(18) 0.6314(10)
C2F C 0.2571(14) 0.7431(30) 0.7372(16)
H1F H 0.15210 0.69520 0.61080
H2F H 0.15590 0.69150 0.75960
H1G H 0.30480 0.84790 0.61080
H2G H 0.30850 0.84410 0.75960
H1H H 0.30480 0.45690 0.61080
H2H H 0.30850 0.46440 0.75960
I2B I 0.80713(16) 0.61425(8) 0.70306(14)
I1E I 0.52789(9) 0.05578(9) 0.45325(14)
I2E I 0.80713(16) 0.19288(8) 0.70306(14)
I1G I 0.94422(9) 0.47211(9) 0.45325(14)
I1E* I 0.52789(9) 1.05578(9) 0.45325(14)
I1G* I -0.05578(9) 0.47211(9) 0.45325(14)
I2A I 0.19287(16) 0.80712(8) 0.20306(14)
I2C I 0.19288(16) 0.38575(8) 0.20306(14)
I2I I 0.61425(16) 0.80713(8) 0.20306(14)
K1* K 0.33330 -0.33330 0.3927(5)
K1** K 1.33330 0.66670 0.3927(5)
K1A K 0.66670 0.33340 0.8927(5)
#END
