
#######################################################################
#
#                 Cambridge Crystallographic Data Centre
#                                CCDC
#
#######################################################################
#
# If this CIF has been generated from an entry in the Cambridge
# Structural Database, then it will include bibliographic, chemical,
# crystal, experimental, refinement or atomic coordinate data resulting
# from the CCDC's data processing and validation procedures.
#
#######################################################################

data_CSD_CIF_APOGOD
_audit_creation_date 2016-06-21
_audit_creation_method CSD-ConQuest-V1
_database_code_CSD APOGOD
_database_code_depnum_ccdc_archive 'CCDC 1450891'
_chemical_formula_sum 'C24 H42 Fe6 N3 O36'
_chemical_formula_moiety
;
(C18 H18 Fe6 O36 3-)n,3n(C2 H8 N1 1+)
;
_journal_coden_Cambridge 1326
_journal_volume 18
_journal_year 2016
_journal_page_first 8462
_journal_name_full 'Phys.Chem.Chem.Phys.(PCCP) '
loop_
_publ_author_name
"A.Sieradzki"
"S.Pawlus"
"S.N.Tripathy"
"A.Gagor"
"A.Ciupa"
"M.Maczka"
"M.Paluch"
_chemical_name_systematic
;
catena-[tris(dimethylammonium) 
octadecakis(\m~2~-formato)-tri-iron(ii)-tri-iron(iii)]
;
_cell_volume   7337.124
_exptl_crystal_density_diffrn 1.743
_exptl_special_details
;
R-3c rhombohedral polymorph

;
_exptl_crystal_description 'column'
_diffrn_ambient_temperature 100
_refine_special_details
;
The structure is disordered.

;
#These two values have been output from a single CSD field.
_refine_ls_R_factor_gt 0.0246
_refine_ls_wR_factor_gt 0.0246
_symmetry_cell_setting rhombohedral
_symmetry_space_group_name_H-M 'R -3 c'
_symmetry_Int_Tables_number 167
loop_
_symmetry_equiv_pos_site_id
_symmetry_equiv_pos_as_xyz
1 x,y,z
2 -y,x-y,z
3 -x+y,-x,z
4 y,x,1/2-z
5 x-y,-y,1/2-z
6 -x,-x+y,1/2-z
7 2/3+x,1/3+y,1/3+z
8 2/3-y,1/3+x-y,1/3+z
9 2/3-x+y,1/3-x,1/3+z
10 2/3+y,1/3+x,5/6-z
11 2/3+x-y,1/3-y,5/6-z
12 2/3-x,1/3-x+y,5/6-z
13 1/3+x,2/3+y,2/3+z
14 1/3-y,2/3+x-y,2/3+z
15 1/3-x+y,2/3-x,2/3+z
16 1/3+y,2/3+x,1/6-z
17 1/3+x-y,2/3-y,1/6-z
18 1/3-x,2/3-x+y,1/6-z
19 -x,-y,-z
20 y,-x+y,-z
21 x-y,x,-z
22 -y,-x,-1/2+z
23 -x+y,y,-1/2+z
24 x,x-y,-1/2+z
25 -2/3-x,-1/3-y,-1/3-z
26 -2/3+y,-1/3-x+y,-1/3-z
27 -2/3+x-y,-1/3+x,-1/3-z
28 -2/3-y,-1/3-x,-5/6+z
29 -2/3-x+y,-1/3+y,-5/6+z
30 -2/3+x,-1/3+x-y,-5/6+z
31 -1/3-x,-2/3-y,-2/3-z
32 -1/3+y,-2/3-x+y,-2/3-z
33 -1/3+x-y,-2/3+x,-2/3-z
34 -1/3-y,-2/3-x,-1/6+z
35 -1/3-x+y,-2/3+y,-1/6+z
36 -1/3+x,-2/3+x-y,-1/6+z
_cell_length_a 14.2916(5)
_cell_length_b 14.2916(5)
_cell_length_c 41.4795(17)
_cell_angle_alpha 90
_cell_angle_beta 90
_cell_angle_gamma 120
_cell_formula_units_Z 6
loop_
_atom_type_symbol
_atom_type_radius_bond
C 0.68
H 0.23
Fe 1.52
N 0.68
O 0.68
loop_
_atom_site_label
_atom_site_type_symbol
_atom_site_fract_x
_atom_site_fract_y
_atom_site_fract_z
Fe1 Fe -0.00721(2) 0.33330 0.08330
Fe2 Fe 0.00000 0.00000 0.00000
Fe3 Fe -0.33330 0.33330 -0.00259(2)
O1 O 0.05888(9) 0.47776(9) 0.05491(3)
O2 O -0.15582(10) 0.25295(9) 0.05745(3)
O3 O 0.19873(9) 0.60886(9) 0.02896(2)
O4 O 0.06326(9) 0.26548(9) 0.05435(3)
O5 O -0.27945(9) 0.25565(9) 0.02592(2)
O6 O 0.06712(9) 0.13435(9) 0.02712(3)
C1 C 0.01846(15) 0.17875(13) 0.03964(4)
H1 H -0.05630 0.14360 0.03760
C2 C -0.18513(14) 0.29802(15) 0.03735(4)
H2 H -0.13450 0.36690 0.03040
C3 C 0.14795(14) 0.51540(14) 0.04117(4)
H3 H 0.17920 0.47190 0.03980
H4 H -0.11280 0.60130 0.07380
N1 N -0.0517(4) 0.6150(4) 0.08330
C4 C 0.0042(4) 0.6717(4) 0.05427(16)
H5? H -0.11740 0.60730 0.08350
H6? H 0.01440 0.74340 0.05460
H7? H -0.03800 0.63350 0.03580
H8? H 0.07320 0.67570 0.05320
H9? H -0.02090 0.65270 0.11870
N2? N -0.0450(5) 0.6152(5) 0.07199(17)
C5? C -0.0019(5) 0.6638(5) 0.1258(2)
H10? H 0.06290 0.65960 0.12770
H11? H 0.08620 0.68510 0.09990
C6? C 0.0178(6) 0.6826(6) 0.0990(2)
H12? H 0.07110 0.68240 0.03900
H13? H 0.08760 0.69630 0.07050
H14? H -0.04590 0.55260 0.07290
H15? H -0.05130 0.62200 0.14270
Fe1A Fe -0.33330(2) -0.34051 0.08330
O1A O -0.47776(9) -0.41888(9) 0.05491(3)
O2A O -0.25295(10) -0.40877(9) 0.05745(3)
O3A O -0.60886(9) -0.41013(9) 0.02896(2)
O4A O -0.26548(9) -0.20222(9) 0.05435(3)
O5A O -0.25565(9) -0.53510(9) 0.02592(2)
O6A O -0.13435(9) -0.06723(9) 0.02712(3)
C1A C -0.17875(15) -0.16029(13) 0.03964(4)
H1A H -0.14360 -0.19990 0.03760
C2A C -0.29802(14) -0.48315(15) 0.03735(4)
H2A H -0.36690 -0.50140 0.03040
C3A C -0.51540(14) -0.36745(14) 0.04117(4)
H3A H -0.47190 -0.29270 0.03980
Fe1B Fe -0.65949(2) 0.00721 0.08330
O1B O -0.58112(9) -0.05888(9) 0.05491(3)
O2B O -0.59123(10) 0.15582(9) 0.05745(3)
O3B O -0.58987(9) -0.19873(9) 0.02896(2)
O4B O -0.79778(9) -0.06326(9) 0.05435(3)
O5B O -0.46490(9) 0.27945(9) 0.02592(2)
O6B O -0.93277(9) -0.06712(9) 0.02712(3)
C1B C -0.83971(15) -0.01846(13) 0.03964(4)
H1B H -0.80010 0.05630 0.03760
C2B C -0.51685(14) 0.18513(15) 0.03735(4)
H2B H -0.49860 0.13450 0.03040
C3B C -0.63255(14) -0.14795(14) 0.04117(4)
H3B H -0.70730 -0.17920 0.03980
O4R O -0.06326(9) -0.26548(9) -0.05435(3)
O6R O -0.06712(9) -0.13435(9) -0.02712(3)
C1R C -0.01846(15) -0.17875(13) -0.03964(4)
H1R H 0.05630 -0.14360 -0.03760
O1S O -0.52224(9) 0.41888(9) -0.05491(3)
O3S O -0.39114(9) 0.41013(9) -0.02896(2)
C3S C -0.48460(14) 0.36745(14) -0.04117(4)
H3S H -0.52810 0.29270 -0.03980
O1T O -0.41888(9) 0.05888(9) -0.05491(3)
O3T O -0.41013(9) 0.19873(9) -0.02896(2)
O4T O -0.20222(9) 0.06326(9) -0.05435(3)
O6T O -0.06723(9) 0.06712(9) -0.02712(3)
C1T C -0.16029(15) 0.01846(13) -0.03964(4)
H1T H -0.19990 -0.05630 -0.03760
C3T C -0.36745(14) 0.14795(14) -0.04117(4)
H3T H -0.29270 0.17920 -0.03980
Fe3O Fe -0.33337 0.33337 0.169257(20)
O2P O -0.075437(100) 0.413717(90) 0.109217(30)
O5P O -0.201767(90) 0.411017(90) 0.140747(20)
C2P C -0.149817(140) 0.368647(150) 0.129317(40)
H2P H -0.16807 0.29977 0.13627
O1P O -0.085547(90) 0.188907(90) 0.111757(30)
O3P O -0.076797(90) 0.057807(90) 0.137707(20)
C3P C -0.034117(140) 0.151267(140) 0.125497(40)
H3P H 0.04063 0.19477 0.12687
O2A* O -0.25295(10) 0.59123(9) 0.05745(3)
O5A* O -0.25565(9) 0.46490(9) 0.02592(2)
C2A* C -0.29802(14) 0.51685(15) 0.03735(4)
H2A* H -0.36690 0.49860 0.03040
O4P O 0.131113(90) 0.401187(90) 0.112317(30)
O6P O 0.266103(90) 0.532317(90) 0.139547(30)
C1P C 0.173043(150) 0.487917(130) 0.127027(40)
H1P H 0.13343 0.52307 0.12907
O2O O -0.413717(100) -0.489153(90) 0.109217(30)
O5O O -0.411017(90) -0.612783(90) 0.140747(20)
C2O C -0.368647(140) -0.518463(150) 0.129317(40)
H2O H -0.29977 -0.46783 0.13627
Fe1A* Fe -0.33330(2) 0.65949 0.08330
Fe1R Fe 0.00721(2) -0.33330 -0.08330
Fe1S Fe -0.66670(2) 0.34051 -0.08330
Fe1T Fe -0.34051(2) -0.00721 -0.08330
Fe2* Fe -1.00000 0.00000 0.00000
Fe2O Fe 0.33333 0.66667 0.16667
Fe3* Fe -0.33330 -0.66670 -0.00259(2)
Fe3O* Fe -0.33337 -0.66663 0.169257(20)
Fe3R Fe -0.66670 -0.33330 0.00259(2)
Fe3R* Fe 0.33330 0.66670 0.00259(2)
Fe3AA Fe 0.00003 -0.00003 0.164077(20)
O1O O -0.188907(90) -0.274453(90) 0.111757(30)
O1Q O -0.725547(90) 0.085547(90) 0.111757(30)
O2Q O -0.510847(100) 0.075437(90) 0.109217(30)
O3R O -0.19873(9) 0.39114(9) -0.02896(2)
O3AA O -0.275527(90) 0.467937(90) 0.195627(20)
O3BA O -0.256537(90) 0.275527(90) 0.195627(20)
O3CA O -0.467937(90) 0.256537(90) 0.195627(20)
O4O O -0.401187(90) -0.270073(90) 0.112317(30)
O4Q O -0.729927(90) -0.131113(90) 0.112317(30)
O5O* O -0.411017(90) 0.387217(90) 0.140747(20)
O5Q O -0.387217(90) 0.201767(90) 0.140747(20)
O6B* O 0.06723(9) -0.06712(9) 0.02712(3)
O6S O 0.13435(9) 0.06723(9) -0.02712(3)
H4O H -0.06537 0.55387 0.09287
C4O C 0.005033(400) 0.670867(400) 0.112397(160)
#END
