
#######################################################################
#
#                 Cambridge Crystallographic Data Centre
#                                CCDC
#
#######################################################################
#
# If this CIF has been generated from an entry in the Cambridge
# Structural Database, then it will include bibliographic, chemical,
# crystal, experimental, refinement or atomic coordinate data resulting
# from the CCDC's data processing and validation procedures.
#
#######################################################################

data_CSD_CIF_APOPIG
_audit_creation_date 2016-06-21
_audit_creation_method CSD-ConQuest-V1
_database_code_CSD APOPIG
_database_code_depnum_ccdc_archive 'CCDC 1430315'
_chemical_formula_sum 'C15 H25 Eu1 N2 O16'
_chemical_formula_moiety
;
(C10 H12 Eu1 O13 1-)n,3n(H2 O1),n(C5 H7 N2 1+)
;
_journal_coden_Cambridge 222
_journal_volume 45
_journal_year 2016
_journal_page_first 11137
_journal_name_full 'Dalton Trans. '
loop_
_publ_author_name
"R.F.Bogale"
"Junwei Ye"
"Yuan Sun"
"Tongxin Sun"
"Siqi Zhang"
"A.Rauf"
"Cheng Hang"
"Peng Tian"
"Guiling Ning"
_chemical_name_systematic
;
catena-(4-aminopyridinium 
(\m-benzene-1,2,4,5-tetracarboxylato)-penta-aqua-europium(iii) trihydrate)
;
_cell_volume   2182.481
_exptl_crystal_colour 'yellow'
_exptl_crystal_density_diffrn 1.952
_exptl_crystal_description 'block'
_diffrn_ambient_temperature 296
_refine_special_details
;
The cation is disordered by symmetry.

;
#These two values have been output from a single CSD field.
_refine_ls_R_factor_gt 0.0218
_refine_ls_wR_factor_gt 0.0218
_symmetry_cell_setting monoclinic
_symmetry_space_group_name_H-M 'C 2/c'
_symmetry_Int_Tables_number 15
loop_
_symmetry_equiv_pos_site_id
_symmetry_equiv_pos_as_xyz
1 x,y,z
2 -x,y,1/2-z
3 1/2+x,1/2+y,z
4 1/2-x,1/2+y,1/2-z
5 -x,-y,-z
6 x,-y,-1/2+z
7 -1/2-x,-1/2-y,-z
8 -1/2+x,-1/2-y,-1/2+z
_cell_length_a 13.0689(8)
_cell_length_b 11.2535(6)
_cell_length_c 15.4306(9)
_cell_angle_alpha 90
_cell_angle_beta 105.908(1)
_cell_angle_gamma 90
_cell_formula_units_Z 4
loop_
_atom_type_symbol
_atom_type_radius_bond
C 0.68
H 0.23
Eu 1.98
N 0.68
O 0.68
loop_
_atom_site_label
_atom_site_type_symbol
_atom_site_fract_x
_atom_site_fract_y
_atom_site_fract_z
Eu1 Eu 0.00000 0.118634(12) 0.25000
O1 O -0.08928(13) 0.24921(14) 0.11500(11)
O2 O 0.07543(13) 0.28897(14) 0.18877(11)
O3 O -0.00624(15) 0.17647(14) -0.03764(12)
O4 O -0.1141(2) 0.26014(17) -0.15732(14)
O5 O 0.03159(17) 0.04014(14) 0.11475(11)
H1 H 0.01590 -0.03040 0.11010
H2 H 0.02760 0.07840 0.07670
O6 O 0.18974(16) 0.07880(17) 0.29984(13)
H3 H 0.19930 0.03140 0.26540
H4 H 0.23030 0.13000 0.31250
O7 O 0.00000 -0.1032(2) 0.25000
H5 H 0.02150 -0.14490 0.20970
C1 C -0.00066(17) 0.40404(18) 0.05722(14)
C2 C -0.02849(17) 0.38586(16) -0.03576(15)
C3 C 0.02755(18) 0.51726(18) 0.09181(14)
H6 H 0.04620 0.52860 0.15390
C4 C -0.00561(17) 0.30746(17) 0.12342(14)
C5 C -0.0525(2) 0.26452(19) -0.07929(15)
O8 O 0.23193(19) 0.4282(2) 0.29753(15)
H7 H 0.29450 0.39040 0.32150
H8 H 0.18440 0.38890 0.25490
C6 C 0.2653(3) 1.1946(3) 1.0817(2)
C7 C 0.23019(15) 1.18565(19) 0.92333(16)
H9 H 0.21660 1.13930 0.86910
H10 H 0.27730 1.15600 1.14020
N1 N 0.2387(4) 1.0120(5) 1.0102(4)
H11 H 0.24740 0.97910 1.06160
H12 H 0.22730 0.96970 0.96200
N2 N 0.24493(15) 1.13009(19) 1.00343(16)
O9? O 0.23889(15) 0.87573(19) 1.00410(16)
H13? H 0.26290 0.85110 0.96000
H14? H 0.20910 0.80650 1.01660
H15? H 0.22810 1.07030 1.00730
C8? C 0.24493(15) 1.13009(19) 1.00343(16)
O1D O 0.08928(13) 0.75079(14) -0.11500(11)
O2D O -0.07543(13) 0.71103(14) -0.18877(11)
O3D O 0.00624(15) 0.82353(14) 0.03764(12)
O4D O 0.1141(2) 0.73986(17) 0.15732(14)
C1D C 0.00066(17) 0.59596(18) -0.05722(14)
C2D C 0.02849(17) 0.61414(16) 0.03576(15)
C3D C -0.02755(18) 0.48274(18) -0.09181(14)
H6D H -0.04620 0.47140 -0.15390
C4D C 0.00561(17) 0.69254(17) -0.12342(14)
C5D C 0.0525(2) 0.73548(19) 0.07929(15)
H5A H -0.02150 -0.14490 0.29030
O5A O -0.03159(17) 0.04014(14) 0.38525(11)
H1A H -0.01590 -0.03040 0.38990
H2A H -0.02760 0.07840 0.42330
O6A O -0.18974(16) 0.07880(17) 0.20016(13)
H3A H -0.19930 0.03140 0.23460
H4A H -0.23030 0.13000 0.18750
Eu1D Eu 0.00000 0.881366(12) -0.25000
O1A O 0.08928(13) 0.24921(14) 0.38500(11)
O2A O -0.07543(13) 0.28897(14) 0.31123(11)
C6F C 0.2347(3) 1.3054(3) 0.9183(2)
C7F C 0.26981(15) 1.31435(19) 1.07667(16)
H9F H 0.28340 1.36070 1.13090
H10F H 0.22270 1.34400 0.85980
N1F N 0.2613(4) 1.4880(5) 0.9898(4)
H11F H 0.25260 1.52090 0.93840
H12F H 0.27270 1.53030 1.03800
N2F N 0.25507(15) 1.36991(19) 0.99657(16)
#END
