
#######################################################################
#
#                 Cambridge Crystallographic Data Centre
#                                CCDC
#
#######################################################################
#
# If this CIF has been generated from an entry in the Cambridge
# Structural Database, then it will include bibliographic, chemical,
# crystal, experimental, refinement or atomic coordinate data resulting
# from the CCDC's data processing and validation procedures.
#
#######################################################################

data_CSD_CIF_AQAQER
_audit_creation_date 2021-03-23
_audit_creation_method CSD-ConQuest-V1
_database_code_CSD AQAQER
_database_code_depnum_ccdc_archive 'CCDC 2045724'
_chemical_formula_sum 'C48 H83 Cu5 Mn2 Mo12 N24 O75 P9'
_chemical_formula_moiety
;
(C48 H48 Cu4 N24 4+)n,n(H26 Cu1 Mn2 Mo12 O68 P8 4-),H3 O4 P1,3(H2 O1)
;
_journal_coden_Cambridge 1831
_journal_volume 418
_journal_year 2021
_journal_page_first 129408
_journal_name_full 'Chem.Eng.Journal '
loop_
_publ_author_name
"Jia-Qi Niu"
"Wen-Ting An"
"Xiu-Juan Zhang"
"Yuan-Yuan Ma"
"Zhan-Gang Han"
_chemical_name_systematic
;
catena-[tetrakis(\m-1,1'-[1,4-phenylenebis(methylene)]bis(1H-1,2,4-triazole))-
tetra-copper(i) bis(\m-phosphato)-tetrakis(\m-hydrogen 
phosphato)-dodecakis(\m-oxo)-bis(\m-dihydrogen 
phosphato)-hexakis(\m-hydroxo)-hexa-aqua-dodecaoxo-copper-di-manganese(ii)-dod
eca-molybdenum(v) phosphoric acid solvate trihydrate]
;
_cell_volume   2813.851
_exptl_crystal_colour 'brown'
_exptl_crystal_description 'block'
_diffrn_ambient_temperature 296.1
#These two values have been output from a single CSD field.
_refine_ls_R_factor_gt 0.0307
_refine_ls_wR_factor_gt 0.0307
_symmetry_cell_setting triclinic
_symmetry_space_group_name_H-M 'P -1'
_symmetry_Int_Tables_number 2
loop_
_symmetry_equiv_pos_site_id
_symmetry_equiv_pos_as_xyz
1 x,y,z
2 -x,-y,-z
_cell_length_a 13.9124(11)
_cell_length_b 14.0402(11)
_cell_length_c 14.6723(12)
_cell_angle_alpha 88.2954(12)
_cell_angle_beta 81.7912(10)
_cell_angle_gamma 82.7682(12)
_cell_formula_units_Z 1
loop_
_atom_type_symbol
_atom_type_radius_bond
C 0.68
H 0.23
Cu 1.32
Mn 1.61
Mo 1.54
N 0.68
O 0.68
P 1.05
loop_
_atom_site_label
_atom_site_type_symbol
_atom_site_fract_x
_atom_site_fract_y
_atom_site_fract_z
Mo1 Mo 0.26208(3) 0.95912(3) 0.15929(3)
Mo2 Mo 0.65428(3) 1.11943(3) 0.15427(3)
Mo3 Mo 0.47681(3) 0.80524(3) 0.18994(3)
Mo4 Mo 0.64480(3) 0.87065(3) 0.18264(3)
Mo5 Mo 0.27203(3) 1.14195(3) 0.13553(3)
Mo6 Mo 0.49647(3) 1.23100(3) 0.13472(3)
Cu1 Cu 0.50000 1.00000 0.00000
Mn1 Mn 0.31770(6) 1.00805(6) 0.47796(5)
P1 P 0.44569(8) 1.03443(8) 0.26541(8)
P2 P 0.27632(10) 0.82160(9) 0.34353(8)
P3 P 0.29396(10) 1.32570(9) 0.26414(9)
P4 P 0.77874(9) 0.99369(10) 0.29973(9)
O1 O 0.5587(2) 1.1156(2) 0.0670(2)
O2 O 0.3766(2) 1.2230(2) 0.0644(2)
H1 H 0.39073 1.20083 0.02267
O3 O 0.5478(2) 0.8836(2) 0.0953(2)
O4 O 0.7117(2) 0.9810(2) 0.1085(2)
H2 H 0.70738 0.97872 0.06510
O5 O 0.3466(2) 1.0304(2) 0.0690(2)
O6 O 0.4042(2) 1.1262(2) 0.2144(2)
O7 O 0.3554(2) 0.8343(2) 0.1165(2)
H3 H 0.36862 0.83988 0.07654
O8 O 0.5729(2) 1.2135(2) 0.2352(2)
O9 O 0.2149(2) 1.0684(2) 0.2388(2)
O10 O 0.5421(2) 1.3192(2) 0.0691(2)
O11 O 0.3992(2) 1.3243(2) 0.2200(2)
O12 O 0.5569(2) 1.0159(2) 0.2321(2)
O13 O 0.7378(3) 1.1813(3) 0.0937(3)
O14 O 0.7211(3) 0.7762(3) 0.1398(2)
O15 O 0.3973(2) 0.9502(2) 0.2330(2)
O16 O 0.7268(3) 1.0864(3) 0.2651(2)
O17 O 0.2347(3) 1.2617(3) 0.2202(3)
O18 O 0.5587(3) 0.8205(2) 0.2833(2)
O19 O 0.2201(2) 0.8752(3) 0.2717(2)
O20 O 0.4254(2) 1.0445(3) 0.3684(2)
O21 O 0.1823(3) 1.1748(3) 0.0724(3)
O22 O 0.1694(3) 0.9453(3) 0.1011(2)
O23 O 0.7266(2) 0.9075(2) 0.2805(2)
O24 O 0.2141(3) 0.7389(3) 0.3822(3)
H4 H 0.18967 0.75050 0.43549
O25 O 0.5109(3) 0.6934(3) 0.1502(3)
O26 O 0.7876(3) 0.9995(3) 0.3992(2)
O27 O 0.2407(3) 1.4291(3) 0.2570(3)
H5 H 0.27098 1.46696 0.27914
O28 O 0.3726(3) 0.7679(3) 0.2972(3)
O29 O 0.2868(3) 0.8822(3) 0.4217(2)
O30 O 0.8867(3) 0.9819(3) 0.2484(3)
H6 H 0.88915 0.95279 0.20028
O31 O 0.2083(4) 1.1057(4) 0.4172(3)
O32 O 0.4221(3) 0.9137(3) 0.5518(3)
O33 O 0.3611(4) 1.1338(4) 0.5423(3)
O34 O 0.2895(3) 1.2972(4) 0.3673(3)
H7 H 0.25382 1.33852 0.39860
Cu2 Cu 0.49097(6) 0.50297(6) 0.14915(6)
Cu3 Cu 1.05354(6) 0.81828(6) -0.16379(5)
N1 N 0.3834(3) 0.5211(3) 0.0835(3)
N2 N 0.6007(4) 0.4774(4) 0.2116(4)
N3 N 1.0337(3) 0.8307(4) -0.0344(3)
N4 N 1.0238(3) 0.7419(3) -0.4177(3)
C1 C 0.3164(4) 0.5994(4) 0.0781(4)
H8 H 0.32111 0.65818 0.10372
N5 N 0.2670(3) 0.4906(3) 0.0094(3)
N6 N 0.9635(3) 0.8675(3) 0.1078(3)
N7 N 1.0358(3) 0.7921(3) 0.1097(3)
C2 C 0.9646(4) 0.8879(4) 0.0202(4)
H9 H 0.92235 0.93668 -0.00236
C3 C 0.3489(4) 0.4546(4) 0.0391(4)
H10 H 0.37838 0.39171 0.03031
C4 C 1.0770(4) 0.7721(4) 0.0242(4)
H11 H 1.12850 0.72405 0.00774
N8 N 0.7424(4) 0.4051(4) 0.2525(4)
C5 C 0.9892(4) 0.7634(4) -0.3302(4)
H12 H 0.92493 0.76176 -0.30268
C6 C -0.0448(4) 0.5813(4) -0.0405(4)
H13 H -0.07424 0.63568 -0.06801
N9 N 1.1207(4) 0.7514(4) -0.4344(3)
N10 N 0.2447(3) 0.5847(3) 0.0335(4)
C7 C 0.9718(5) 0.7075(5) -0.4882(4)
H14 H 0.99476 0.73541 -0.54739
H15 H 0.90244 0.72902 -0.47348
N11 N 1.0617(4) 0.7875(4) -0.2887(3)
C8 C 0.2078(4) 0.4426(5) -0.0470(4)
H16 H 0.22150 0.37363 -0.03901
H17 H 0.22692 0.45782 -0.11146
C9 C 0.0999(4) 0.4721(4) -0.0221(4)
C10 C 0.9869(4) 0.5998(4) -0.4953(4)
C11 C 0.9855(4) 0.6862(4) 0.2413(4)
C12 C 0.6747(5) 0.4031(5) 0.1992(5)
H18 H 0.67685 0.35506 0.15646
N12 N 0.7081(4) 0.4856(4) 0.3044(4)
C13 C 0.9155(4) 0.5465(5) -0.4542(4)
H19 H 0.85752 0.57769 -0.42341
C14 C 0.9294(6) 0.5328(5) 0.2788(5)
H20 H 0.94077 0.46627 0.27475
C15 C 0.9993(5) 0.5874(5) 0.2364(5)
H21 H 1.05683 0.55700 0.20408
C16 C 0.0556(4) 0.5534(5) -0.0624(4)
H22 H 0.09295 0.58965 -0.10436
C17 C 0.6255(5) 0.5282(5) 0.2782(4)
H23 H 0.59043 0.58469 0.30250
C18 C 1.0713(4) 0.5521(5) -0.5420(4)
H24 H 1.11978 0.58687 -0.57128
C19 C 1.0617(4) 0.7464(5) 0.1957(4)
H25 H 1.06964 0.79579 0.23791
H26 H 1.12386 0.70613 0.18266
C20 C 0.8292(5) 0.6739(6) 0.3332(5)
H27 H 0.77166 0.70387 0.36593
C21 C 1.1410(5) 0.7774(5) -0.3550(4)
H28 H 1.20335 0.78781 -0.34498
C22 C 0.8437(5) 0.5750(5) 0.3264(4)
C23 C 0.9000(5) 0.7288(5) 0.2915(5)
H29 H 0.88975 0.79522 0.29745
C24 C 0.7650(5) 0.5170(6) 0.3720(5)
H30 H 0.79513 0.46132 0.40275
H31 H 0.72174 0.55579 0.41820
P5 P 0.5039(2) 1.3410(2) 0.46012(19)
O35 O 0.5897(7) 1.2948(7) 0.3922(6)
H32 H 0.59889 1.23696 0.40309
O36 O 0.5333(8) 1.3287(9) 0.5570(6)
H33 H 0.51450 1.27959 0.58102
O37 O 0.4179(8) 1.2869(8) 0.4579(7)
O38 O 0.472(1) 1.4456(8) 0.4452(8)
H34 H 0.46625 1.45550 0.39082
O39 O 0.3425(6) 1.5493(4) 0.3259(6)
O40 O 1.0164(13) 0.9612(14) 0.3970(17)
Mo1A Mo 0.73792(3) 1.04088(3) -0.15929(3)
Mo2A Mo 0.34572(3) 0.88057(3) -0.15427(3)
Mo3A Mo 0.52319(3) 1.19476(3) -0.18994(3)
Mo4A Mo 0.35520(3) 1.12935(3) -0.18264(3)
Mo5A Mo 0.72797(3) 0.85805(3) -0.13553(3)
Mo6A Mo 0.50353(3) 0.76900(3) -0.13472(3)
Mn1A Mn 0.68230(6) 0.99195(6) -0.47796(5)
P1A P 0.55431(8) 0.96557(8) -0.26541(8)
P2A P 0.72368(10) 1.17840(9) -0.34353(8)
P3A P 0.70604(10) 0.67430(9) -0.26414(9)
P4A P 0.22126(9) 1.00631(10) -0.29973(9)
O1A O 0.4413(2) 0.8844(2) -0.0670(2)
O2A O 0.6234(2) 0.7770(2) -0.0644(2)
H1A H 0.60927 0.79917 -0.02267
O3A O 0.4522(2) 1.1164(2) -0.0953(2)
O4A O 0.2883(2) 1.0190(2) -0.1085(2)
H2A H 0.29262 1.02128 -0.06510
O5A O 0.6534(2) 0.9696(2) -0.0690(2)
O6A O 0.5958(2) 0.8738(2) -0.2144(2)
O7A O 0.6446(2) 1.1657(2) -0.1165(2)
H3A H 0.63138 1.16012 -0.07654
O8A O 0.4271(2) 0.7865(2) -0.2352(2)
O9A O 0.7851(2) 0.9316(2) -0.2388(2)
O10A O 0.4579(2) 0.6808(2) -0.0691(2)
O11A O 0.6008(2) 0.6757(2) -0.2200(2)
O12A O 0.4431(2) 0.9841(2) -0.2321(2)
O13A O 0.2622(3) 0.8187(3) -0.0937(3)
O14A O 0.2789(3) 1.2238(3) -0.1398(2)
O15A O 0.6027(2) 1.0498(2) -0.2330(2)
O16A O 0.2732(3) 0.9136(3) -0.2651(2)
O17A O 0.7653(3) 0.7383(3) -0.2202(3)
O18A O 0.4413(3) 1.1795(2) -0.2833(2)
O19A O 0.7799(2) 1.1248(3) -0.2717(2)
O20A O 0.5746(2) 0.9555(3) -0.3684(2)
O21A O 0.8177(3) 0.8252(3) -0.0724(3)
O22A O 0.8306(3) 1.0547(3) -0.1011(2)
O23A O 0.2734(2) 1.0925(2) -0.2805(2)
O24A O 0.7859(3) 1.2611(3) -0.3822(3)
H4A H 0.81033 1.24950 -0.43549
O25A O 0.4891(3) 1.3066(3) -0.1502(3)
O26A O 0.2124(3) 1.0005(3) -0.3992(2)
O27A O 0.7593(3) 0.5709(3) -0.2570(3)
H5A H 0.72902 0.53304 -0.27914
O28A O 0.6274(3) 1.2321(3) -0.2972(3)
O29A O 0.7132(3) 1.1178(3) -0.4217(2)
O30A O 0.1133(3) 1.0181(3) -0.2484(3)
H6A H 0.11085 1.04721 -0.20028
O31A O 0.7917(4) 0.8943(4) -0.4172(3)
O32A O 0.5779(3) 1.0863(3) -0.5518(3)
O33A O 0.6389(4) 0.8662(4) -0.5423(3)
O34A O 0.7105(3) 0.7028(4) -0.3673(3)
H7A H 0.74618 0.66148 -0.39860
Mn1* Mn 0.31770(6) 1.00805(6) -0.52204(5)
Mn1A* Mn 0.68230(6) 0.99195(6) 0.52204(5)
O26* O 0.7876(3) 0.9995(3) -0.6008(2)
O26A* O 0.2124(3) 1.0005(3) 0.6008(2)
N1A N -0.3834(3) 0.4789(3) -0.0835(3)
C1A C -0.3164(4) 0.4006(4) -0.0781(4)
H8A H -0.32111 0.34182 -0.10372
N5A N -0.2670(3) 0.5094(3) -0.0094(3)
C3A C -0.3489(4) 0.5454(4) -0.0391(4)
H10A H -0.37838 0.60829 -0.03031
C6A C 0.0448(4) 0.4187(4) 0.0405(4)
H13A H 0.07424 0.36432 0.06801
N10A N -0.2447(3) 0.4153(3) -0.0335(4)
C8A C -0.2078(4) 0.5574(5) 0.0470(4)
H16A H -0.22150 0.62637 0.03901
H17A H -0.22692 0.54218 0.11146
C9A C -0.0999(4) 0.5279(4) 0.0221(4)
C16A C -0.0556(4) 0.4466(5) 0.0624(4)
H22A H -0.09295 0.41035 0.10436
N4A N 0.9762(3) 0.2581(3) -0.5823(3)
C5A C 1.0108(4) 0.2366(4) -0.6698(4)
H12A H 1.07507 0.23824 -0.69732
N9A N 0.8793(4) 0.2486(4) -0.5656(3)
C7A C 1.0282(5) 0.2925(5) -0.5118(4)
H14A H 1.00524 0.26459 -0.45261
H15A H 1.09756 0.27098 -0.52652
N11A N 0.9383(4) 0.2125(4) -0.7113(3)
C10A C 1.0131(4) 0.4002(4) -0.5047(4)
C13A C 1.0845(4) 0.4535(5) -0.5458(4)
H19A H 1.14248 0.42231 -0.57659
C18A C 0.9287(4) 0.4479(5) -0.4580(4)
H24A H 0.88022 0.41313 -0.42872
C21A C 0.8590(5) 0.2226(5) -0.6450(4)
H28A H 0.79665 0.21219 -0.65502
Cu2A Cu -0.49097(6) 0.49703(6) -0.14915(6)
Cu3A Cu -1.05354(6) 0.18172(6) 0.16379(5)
N2A N -0.6007(4) 0.5226(4) -0.2116(4)
N3A N -1.0337(3) 0.1693(4) 0.0344(3)
N6A N -0.9635(3) 0.1325(3) -0.1078(3)
N7A N -1.0358(3) 0.2079(3) -0.1097(3)
C2A C -0.9646(4) 0.1121(4) -0.0202(4)
H9A H -0.92235 0.06332 0.00236
C4A C -1.0770(4) 0.2279(4) -0.0242(4)
H11A H -1.12850 0.27595 -0.00774
N8A N -0.7424(4) 0.5949(4) -0.2525(4)
C11A C -0.9855(4) 0.3138(4) -0.2413(4)
C12A C -0.6747(5) 0.5969(5) -0.1992(5)
H18A H -0.67685 0.64494 -0.15646
N12A N -0.7081(4) 0.5144(4) -0.3044(4)
C14A C -0.9294(6) 0.4672(5) -0.2788(5)
H20A H -0.94077 0.53373 -0.27475
C15A C -0.9993(5) 0.4126(5) -0.2364(5)
H21A H -1.05683 0.44300 -0.20408
C17A C -0.6255(5) 0.4718(5) -0.2782(4)
H23A H -0.59043 0.41531 -0.30250
C19A C -1.0617(4) 0.2536(5) -0.1957(4)
H25A H -1.06964 0.20421 -0.23791
H26A H -1.12386 0.29387 -0.18266
C20A C -0.8292(5) 0.3261(6) -0.3332(5)
H27A H -0.77166 0.29613 -0.36593
C22A C -0.8437(5) 0.4250(5) -0.3264(4)
C23A C -0.9000(5) 0.2712(5) -0.2915(5)
H29A H -0.88975 0.20478 -0.29745
C24A C -0.7650(5) 0.4830(6) -0.3720(5)
H30A H -0.79513 0.53868 -0.40275
H31A H -0.72174 0.44421 -0.41820
Cu3A* Cu 0.94646(6) 0.18172(6) -0.83621(5)
N11A* N -1.0617(4) 0.2125(4) 0.2887(3)
#END
