
#######################################################################
#
#                 Cambridge Crystallographic Data Centre
#                                CCDC
#
#######################################################################
#
# If this CIF has been generated from an entry in the Cambridge
# Structural Database, then it will include bibliographic, chemical,
# crystal, experimental, refinement or atomic coordinate data resulting
# from the CCDC's data processing and validation procedures.
#
#######################################################################

data_CSD_CIF_AQASIW
_audit_creation_date 2016-06-22
_audit_creation_method CSD-ConQuest-V1
_database_code_CSD AQASIW
_database_code_depnum_ccdc_archive 'CCDC 1439470'
_chemical_formula_sum 'C58 H48 N4 O20 Zn2'
_chemical_formula_moiety
;
(C10 H16 N2 O4 Zn1 2+)n,n(C48 H32 N2 O16 Zn1 2-)
;
_journal_coden_Cambridge 208
_journal_volume 241
_journal_year 2016
_journal_page_first 198
_journal_name_full 'J.Solid State Chem. '
loop_
_publ_author_name
"Dong-Cheng Hu"
"Yan Fan"
"Chang-Dai Si"
"Ya-Jun Wu"
"Xiu-Yan Dong"
"Yun-Xia Yang"
"Xiao-Qiang Yao"
"Jia-Cheng Liu"
_chemical_name_systematic
;
catena-[((\m~2~-4,4'-bipyridine)-tetra-aqua-zinc) 
((\m~2~-4,4'-bipyridine)-diaqua-bis(2-(4-carboxy-3-carboxylatophenoxy)naphthal
ene-1-carboxylato)-zinc)]
;
_cell_volume   5421.225
_exptl_crystal_colour 'colorless'
_exptl_crystal_density_diffrn 1.534
_exptl_crystal_description 'block'
_diffrn_ambient_temperature 296
#These two values have been output from a single CSD field.
_refine_ls_R_factor_gt 0.0596
_refine_ls_wR_factor_gt 0.0596
_symmetry_cell_setting monoclinic
_symmetry_space_group_name_H-M 'C 2/c'
_symmetry_Int_Tables_number 15
loop_
_symmetry_equiv_pos_site_id
_symmetry_equiv_pos_as_xyz
1 x,y,z
2 -x,y,1/2-z
3 1/2+x,1/2+y,z
4 1/2-x,1/2+y,1/2-z
5 -x,-y,-z
6 x,-y,-1/2+z
7 -1/2-x,-1/2-y,-z
8 -1/2+x,-1/2-y,-1/2+z
_cell_length_a 20.076(8)
_cell_length_b 11.329(5)
_cell_length_c 23.937(10)
_cell_angle_alpha 90
_cell_angle_beta 95.272(6)
_cell_angle_gamma 90
_cell_formula_units_Z 4
loop_
_atom_type_symbol
_atom_type_radius_bond
C 0.68
H 0.23
N 0.68
O 0.68
Zn 1.22
loop_
_atom_site_label
_atom_site_type_symbol
_atom_site_fract_x
_atom_site_fract_y
_atom_site_fract_z
C1 C 0.2208(3) 0.1605(5) 0.3290(3)
C2 C 0.2895(3) 0.1512(4) 0.3578(2)
C3 C 0.2988(3) 0.0496(5) 0.3905(3)
H1 H 0.26380 -0.00410 0.39080
C4 C 0.3585(3) 0.0256(5) 0.4224(3)
H2 H 0.36370 -0.04340 0.44340
C5 C 0.4104(3) 0.1069(4) 0.4224(2)
C6 C 0.4037(3) 0.2068(4) 0.3897(2)
H3 H 0.43970 0.25840 0.38930
C7 C 0.3438(2) 0.2326(4) 0.3571(2)
C8 C 0.3433(3) 0.3476(4) 0.3251(2)
C9 C 0.5275(3) 0.0777(4) 0.4334(2)
C10 C 0.5364(3) -0.0202(5) 0.3985(2)
H4 H 0.50300 -0.07680 0.39260
C11 C 0.5944(4) -0.0312(5) 0.3736(3)
H5 H 0.60020 -0.09530 0.35020
C12 C 0.6461(3) 0.0540(5) 0.3828(2)
C13 C 0.7057(4) 0.0480(7) 0.3557(3)
H6 H 0.71090 -0.01260 0.33020
C14 C 0.7549(4) 0.1273(8) 0.3657(4)
H7 H 0.79330 0.12090 0.34700
C15 C 0.7495(4) 0.2205(7) 0.4043(4)
H8 H 0.78440 0.27400 0.41160
C16 C 0.6913(3) 0.2311(6) 0.4312(3)
H9 H 0.68720 0.29270 0.45630
C17 C 0.6382(3) 0.1499(5) 0.4209(2)
C18 C 0.5766(3) 0.1610(4) 0.4459(2)
C19 C 0.5639(2) 0.2607(4) 0.4848(2)
C20 C 0.6549(3) 0.5413(5) 0.5144(3)
H10 H 0.65470 0.46420 0.52780
C21 C 0.7151(3) 0.5995(5) 0.5175(3)
H11 H 0.75390 0.56190 0.53250
C22 C 0.7179(3) 0.7157(4) 0.4981(2)
C23 C 0.6580(3) 0.7631(4) 0.4749(2)
H12 H 0.65710 0.83910 0.46010
C24 C 0.5994(3) 0.6979(5) 0.4736(2)
H13 H 0.55990 0.73270 0.45820
N1 N 0.5966(2) 0.5871(3) 0.49352(17)
O1 O 0.53322(18) 0.3486(3) 0.46287(15)
O2 O 0.5867(2) 0.2533(3) 0.53556(17)
O3 O 0.46777(18) 0.0872(3) 0.45865(15)
O4 O 0.3016(2) 0.3613(3) 0.28139(17)
O5 O 0.3854(2) 0.4242(3) 0.33994(16)
O6 O 0.2110(2) 0.2262(4) 0.2849(2)
H14 H 0.17280 0.21620 0.27040
O7 O 0.1743(2) 0.1038(4) 0.3471(2)
O8 O 0.46502(17) 0.5639(3) 0.41675(14)
H15 H 0.42510 0.54040 0.40840
H16 H 0.46600 0.63890 0.41650
Zn1 Zn 0.50000 0.50000 0.50000
C25 C 0.50000 0.2039(6) 0.25000
C26 C 0.5514(3) 0.2673(4) 0.2789(3)
H17 H 0.58650 0.22780 0.29890
C27 C 0.5501(3) 0.3890(4) 0.2777(3)
H18 H 0.58520 0.43050 0.29680
C28 C 0.4486(3) -0.1112(4) 0.2679(2)
H19 H 0.41320 -0.15270 0.28090
C29 C 0.4461(3) 0.0112(4) 0.2677(3)
H20 H 0.40910 0.05070 0.27920
C30 C 0.50000 0.0740(6) 0.25000
N2 N 0.50000 0.4496(5) 0.25000
N3 N 0.50000 -0.1724(5) 0.25000
O9 O 0.40194(17) 0.6308(3) 0.27963(15)
H21 H 0.40630 0.62520 0.31980
H22 H 0.37880 0.56260 0.26400
O10 O 0.54259(18) 0.6497(3) 0.33381(15)
H23 H 0.58490 0.65440 0.33420
H24 H 0.53230 0.58820 0.35140
Zn2 Zn 0.50000 0.63918(6) 0.25000
C20F C 0.8451(3) 0.9587(5) 0.4856(3)
H10F H 0.84530 1.03580 0.47220
C21F C 0.7849(3) 0.9005(5) 0.4825(3)
H11F H 0.74610 0.93810 0.46750
C22F C 0.7821(3) 0.7843(4) 0.5019(2)
C23F C 0.8420(3) 0.7369(4) 0.5251(2)
H12F H 0.84290 0.66090 0.53990
C24F C 0.9006(3) 0.8021(5) 0.5264(2)
H13F H 0.94010 0.76730 0.54180
N1F N 0.9034(2) 0.9129(3) 0.50648(17)
C1D C 0.7792(3) 0.8395(5) 0.6710(3)
C2D C 0.7105(3) 0.8488(4) 0.6422(2)
C3D C 0.7012(3) 0.9504(5) 0.6095(3)
H1D H 0.73620 1.00410 0.60920
C4D C 0.6415(3) 0.9744(5) 0.5776(3)
H2D H 0.63630 1.04340 0.55660
C5D C 0.5896(3) 0.8931(4) 0.5776(2)
C6D C 0.5963(3) 0.7932(4) 0.6103(2)
H3D H 0.56030 0.74160 0.61070
C7D C 0.6562(2) 0.7674(4) 0.6429(2)
C8D C 0.6567(3) 0.6524(4) 0.6749(2)
C9D C 0.4725(3) 0.9223(4) 0.5666(2)
C10D C 0.4636(3) 1.0202(5) 0.6015(2)
H4D H 0.49700 1.07680 0.60740
C11D C 0.4056(4) 1.0312(5) 0.6264(3)
H5D H 0.39980 1.09530 0.64980
C12D C 0.3539(3) 0.9460(5) 0.6172(2)
C13D C 0.2943(4) 0.9520(7) 0.6443(3)
H6D H 0.28910 1.01260 0.66980
C14D C 0.2451(4) 0.8727(8) 0.6343(4)
H7D H 0.20670 0.87910 0.65300
C15D C 0.2505(4) 0.7795(7) 0.5957(4)
H8D H 0.21560 0.72600 0.58840
C16D C 0.3087(3) 0.7689(6) 0.5688(3)
H9D H 0.31280 0.70730 0.54370
C17D C 0.3618(3) 0.8501(5) 0.5791(2)
C18D C 0.4234(3) 0.8390(4) 0.5541(2)
C19D C 0.4361(2) 0.7393(4) 0.5152(2)
O1D O 0.46678(18) 0.6514(3) 0.53713(15)
O2D O 0.4133(2) 0.7467(3) 0.46444(17)
O3D O 0.53223(18) 0.9128(3) 0.54135(15)
O4D O 0.6984(2) 0.6387(3) 0.71861(17)
O5D O 0.6146(2) 0.5758(3) 0.66006(16)
O6D O 0.7890(2) 0.7738(4) 0.7151(2)
H14D H 0.82720 0.78380 0.72960
O7D O 0.8257(2) 0.8962(4) 0.6529(2)
O8D O 0.53498(17) 0.4361(3) 0.58325(14)
H15D H 0.57490 0.45960 0.59160
H16D H 0.53400 0.36110 0.58350
N1D N 0.4034(2) 0.4129(3) 0.50648(17)
Zn1B Zn 1.00000 1.00000 0.50000
C26A C 0.4486(3) 0.2673(4) 0.2211(3)
H17A H 0.41350 0.22780 0.20110
C27A C 0.4499(3) 0.3890(4) 0.2223(3)
H18A H 0.41480 0.43050 0.20320
C28A C 0.5514(3) -0.1112(4) 0.2321(2)
H19A H 0.58680 -0.15270 0.21910
C29A C 0.5539(3) 0.0112(4) 0.2323(3)
H20A H 0.59090 0.05070 0.22080
O9A O 0.59806(17) 0.6308(3) 0.22037(15)
H21A H 0.59370 0.62520 0.18020
H22A H 0.62120 0.56260 0.23600
O10A O 0.45741(18) 0.6497(3) 0.16619(15)
H23A H 0.41510 0.65440 0.16580
H24A H 0.46770 0.58820 0.14860
N3* N 0.50000 0.8276(5) 0.25000
Zn2* Zn 0.50000 -0.36082(6) 0.25000
#END
