
#######################################################################
#
#                 Cambridge Crystallographic Data Centre
#                                CCDC
#
#######################################################################
#
# If this CIF has been generated from an entry in the Cambridge
# Structural Database, then it will include bibliographic, chemical,
# crystal, experimental, refinement or atomic coordinate data resulting
# from the CCDC's data processing and validation procedures.
#
#######################################################################

data_CSD_CIF_AQEFOS
_audit_creation_date 2011-11-21
_audit_creation_method CSD-ConQuest-V1
_database_code_CSD AQEFOS
_database_code_depnum_ccdc_archive 'CCDC 773935'
_chemical_formula_sum 'C48 H50 Cl2 Cu10 Mo24 N24 O80 P2'
_chemical_formula_moiety
;
(C48 H48 Cl2 Cu10 N24 8+)n,2n(H1 Mo12 O40 P1 4-)
;
_journal_coden_Cambridge 208
_journal_volume 184
_journal_year 2011
_journal_page_first 1070
_journal_name_full 'J.Solid State Chem. '
loop_
_publ_author_name
"Min Zhu"
"Jun Peng"
"Hai-Jun Pang"
"Peng-Peng Zhang"
"Yuan Chen"
"Dan-Dan Wang"
"Ming-Guan Liu"
"Yong-Hui Wang"
_chemical_name_systematic
;
catena-(bis(\m~3~-Chloro)-dodecakis(\m~2~-pyrazine)-deca-copper(i) 
bis((\m~12~-phosphato)-(\m~2~-hydroxo)-tricosakis(\m~2~-oxo)-dodecaoxo-di-moly
bdenum(v)-deca-molybdenum(vi)))
;
_cell_volume   2901.179
_exptl_crystal_colour 'black'
_exptl_crystal_density_diffrn 3.04
_exptl_crystal_description 'block'
_diffrn_ambient_temperature 293
_refine_special_details
;
The phosphate moieties are disordered by symmetry.

;
#These two values have been output from a single CSD field.
_refine_ls_R_factor_gt 0.0808
_refine_ls_wR_factor_gt 0.0808
_symmetry_cell_setting triclinic
_symmetry_space_group_name_H-M 'P -1'
_symmetry_Int_Tables_number 2
loop_
_symmetry_equiv_pos_site_id
_symmetry_equiv_pos_as_xyz
1 x,y,z
2 -x,-y,-z
_cell_length_a 11.6910(6)
_cell_length_b 13.4920(8)
_cell_length_c 20.6150(12)
_cell_angle_alpha 89.274(5)
_cell_angle_beta 76.749(5)
_cell_angle_gamma 66.93
_cell_formula_units_Z 1
loop_
_atom_type_symbol
_atom_type_radius_bond
C 0.68
H 0.23
Cl 1.09
Cu 0.93
Mo 1.41
N 0.68
O 0.68
P 1.05
loop_
_atom_site_label
_atom_site_type_symbol
_atom_site_fract_x
_atom_site_fract_y
_atom_site_fract_z
Mo1 Mo 0.00318(14) -0.26313(10) 0.47230(7)
Mo2 Mo -0.26416(12) -0.05947(11) 0.58372(7)
Mo3 Mo -0.20638(12) -0.03412(11) 0.40969(6)
Mo4 Mo -0.22635(12) 0.23151(9) 0.44623(6)
Mo5 Mo -0.04307(12) -0.04607(10) 0.67253(6)
Mo6 Mo -0.25640(12) 0.19599(10) 0.61967(6)
P1 P 0.00000 0.00000 0.50000
O1 O -0.087(2) -0.0654(17) 0.4928(10)
O2 O -0.0971(19) 0.0171(16) 0.5673(10)
O3 O -0.1439(17) -0.2027(14) 0.5432(8)
O4 O -0.3804(15) 0.2867(14) 0.6744(8)
O5 O -0.0809(15) -0.0167(14) 0.3413(9)
O6 O -0.0566(15) -0.0673(12) 0.7533(7)
O7 O -0.3839(12) -0.0917(10) 0.6229(6)
O8 O -0.281(2) -0.018(2) 0.5038(13)
O9 O -0.1644(14) -0.0873(11) 0.6495(8)
O10 O 0.1422(16) -0.2616(15) 0.3975(8)
O11 O -0.1030(16) -0.1810(15) 0.4134(8)
O12 O -0.0928(13) 0.1790(12) 0.3651(8)
O13 O -0.1627(16) 0.1006(14) 0.6751(9)
O14 O -0.3307(17) 0.0895(14) 0.610(1)
O15 O -0.0648(19) 0.0461(17) 0.4447(10)
O16 O 0.1176(14) -0.2911(13) 0.5278(7)
O17 O -0.3046(17) 0.2378(16) 0.5375(8)
O18 O -0.2814(14) 0.1232(12) 0.4265(8)
O19 O -0.3046(12) -0.0512(11) 0.3660(7)
O20 O 0.0093(15) -0.3863(12) 0.4575(8)
O21 O -0.3302(15) 0.3378(13) 0.4203(9)
O22 O 0.092(2) -0.118(2) 0.4822(12)
Cu1 Cu -0.4697(3) 0.1911(2) 0.37319(13)
Cl1 Cl -0.3820(5) 0.1402(4) 0.2690(2)
Cu2 Cu -0.4877(2) 0.3125(2) 0.21833(12)
Cu3 Cu 0.2905(2) -0.1464(2) 0.10913(12)
Cu4 Cu -0.3173(3) -0.0612(2) 0.26475(15)
Cu5 Cu -0.1283(2) 0.5212(2) 0.34411(14)
N1 N -0.5794(15) 0.2700(15) 0.4556(8)
N2 N -0.2283(14) 0.4538(12) 0.3046(8)
N3 N -0.6744(14) 0.3771(13) 0.2677(7)
N4 N -0.1352(17) -0.1090(17) 0.2155(9)
N5 N -0.3702(14) 0.1899(12) -0.0148(7)
N6 N -0.2509(15) 0.6167(14) 0.4242(8)
N7 N 0.1158(14) -0.1422(13) 0.1503(7)
N8 N -0.4503(14) 0.2604(12) 0.1215(7)
N9 N -0.6189(14) -0.1171(12) 0.1735(7)
N10 N -0.3755(14) 0.3762(12) 0.2498(7)
N11 N 0.0561(14) 0.4651(13) 0.3221(8)
N12 N -0.4613(15) -0.0823(14) 0.2437(7)
C1 C -0.2483(17) 0.3206(14) 0.2394(10)
H1 H -0.20780 0.25580 0.21250
C2 C -0.1758(17) 0.3604(14) 0.2693(8)
H2 H -0.08870 0.31920 0.26380
C3 C -0.266(3) 0.572(2) 0.4832(12)
H3 H -0.21580 0.49910 0.48300
C4 C -0.591(2) 0.2220(17) 0.5152(11)
H4 H -0.54250 0.14860 0.51590
C5 C -0.329(2) 0.7201(18) 0.4278(11)
H5 H -0.32740 0.75490 0.38860
C6 C -0.0362(16) -0.1709(14) 0.2369(10)
H6 H -0.04910 -0.20560 0.27540
C7 C -0.4295(18) 0.2981(17) 0.0088(10)
H7 H -0.44130 0.35060 -0.02150
C8 C -0.106(3) -0.065(2) 0.1589(11)
H8 H -0.17300 -0.01710 0.14260
C9 C -0.7374(17) 0.3190(16) 0.3027(9)
H9 H -0.69000 0.24790 0.30980
C10 C -0.404(2) 0.1559(15) 0.1014(9)
H10 H -0.40050 0.10550 0.13290
C11 C 0.0902(16) -0.1868(13) 0.2030(9)
H11 H 0.15760 -0.23200 0.22020
C12 C -0.4228(17) 0.4719(14) 0.2834(10)
H12 H -0.50850 0.51640 0.28730
C13 C 0.0175(19) -0.0857(19) 0.1232(10)
H13 H 0.03250 -0.06110 0.08100
C14 C -0.5482(18) -0.002(2) 0.2203(9)
H14 H -0.55630 0.06860 0.22880
C15 C -0.3526(18) 0.5080(14) 0.3123(10)
H15 H -0.39320 0.57350 0.33860
C16 C 0.1240(18) 0.5217(17) 0.2877(12)
H16 H 0.07880 0.59310 0.28020
C17 C -0.4584(18) -0.1796(18) 0.2332(10)
H17 H -0.40040 -0.23860 0.24860
C18 C -0.7497(15) 0.4789(16) 0.2649(10)
H18 H -0.71120 0.52420 0.24530
C19 C -0.4718(18) 0.3298(15) 0.0770(9)
H19 H -0.51670 0.40290 0.09110
C20 C -0.6258(19) -0.0180(16) 0.1844(10)
H20 H -0.68290 0.04020 0.16780
C21 C -0.362(2) 0.1225(18) 0.0348(9)
H21 H -0.32490 0.04850 0.02270
C22 C 0.1338(19) 0.3608(17) 0.3275(9)
H22 H 0.09650 0.31620 0.34940
C23 C -0.5412(18) -0.1951(17) 0.1993(9)
H23 H -0.54070 -0.26380 0.19510
C24 C -0.655(3) 0.377(2) 0.4574(12)
H24 H -0.65150 0.41400 0.41910
Mo7 Mo -1.06540(12) 0.26606(10) 1.04261(6)
Mo8 Mo -0.86039(13) 0.33433(11) 1.12122(7)
Mo9 Mo -0.75419(13) 0.23516(10) 0.94893(7)
Mo10 Mo -0.79836(12) 0.56863(12) 1.07856(7)
Mo11 Mo -0.69111(12) 0.46978(12) 0.90724(6)
Mo12 Mo -0.89315(13) 0.40154(11) 0.82845(6)
P2 P -1.00000 0.50000 1.00000
O23 O -0.949(2) 0.3844(18) 1.0215(11)
O24 O -0.8818(18) 0.4316(17) 0.9474(10)
O25 O -0.951(2) 0.4945(17) 1.0667(11)
O26 O -1.0995(19) 0.4518(17) 1.0102(10)
O27 O -1.0017(15) 0.4513(13) 1.1758(9)
O28 O -0.8093(17) 0.2729(14) 0.8695(9)
O29 O -0.7619(16) 0.4425(14) 0.8371(8)
O30 O -0.6800(15) 0.5005(14) 0.9952(8)
O31 O -0.5505(11) 0.4556(10) 0.8611(6)
O32 O -0.8431(13) 0.3568(11) 0.7475(6)
O33 O -1.0951(17) 0.1583(14) 1.0641(8)
O34 O -0.7978(15) 0.2578(14) 1.1778(8)
O35 O -0.7727(17) 0.4285(14) 1.1071(10)
O36 O -1.1342(15) 0.3051(14) 0.9677(8)
O37 O -1.2151(15) 0.3758(13) 1.0936(7)
O38 O -0.9555(16) 0.6228(12) 1.1451(9)
O39 O -0.6585(18) 0.3246(15) 0.9280(9)
O40 O -0.9005(13) 0.2023(14) 0.9821(7)
O41 O -0.7480(14) 0.2524(13) 1.0397(7)
O42 O -0.9806(14) 0.2780(13) 1.1091(7)
O43 O -0.6409(15) 0.1128(13) 0.9236(8)
O44 O -0.7053(12) 0.6021(11) 1.1168(7)
O45? O -0.316(2) -0.049(2) 0.4967(12)
Mo1A Mo -0.00318(14) 0.26313(10) 0.52770(7)
Mo2A Mo 0.26416(12) 0.05947(11) 0.41628(7)
Mo3A Mo 0.20638(12) 0.03412(11) 0.59031(6)
Mo4A Mo 0.22635(12) -0.23151(9) 0.55377(6)
Mo5A Mo 0.04307(12) 0.04607(10) 0.32747(6)
Mo6A Mo 0.25640(12) -0.19599(10) 0.38033(6)
O1A O 0.087(2) 0.0654(17) 0.5072(10)
O2A O 0.0971(19) -0.0171(16) 0.4327(10)
O3A O 0.1439(17) 0.2027(14) 0.4568(8)
O4A O 0.3804(15) -0.2867(14) 0.3256(8)
O5A O 0.0809(15) 0.0167(14) 0.6587(9)
O6A O 0.0566(15) 0.0673(12) 0.2467(7)
O7A O 0.3839(12) 0.0917(10) 0.3771(6)
O8A O 0.281(2) 0.018(2) 0.4962(13)
O9A O 0.1644(14) 0.0873(11) 0.3505(8)
O10A O -0.1422(16) 0.2616(15) 0.6025(8)
O11A O 0.1030(16) 0.1810(15) 0.5866(8)
O12A O 0.0928(13) -0.1790(12) 0.6349(8)
O13A O 0.1627(16) -0.1006(14) 0.3249(9)
O14A O 0.3307(17) -0.0895(14) 0.390(1)
O15A O 0.0648(19) -0.0461(17) 0.5553(10)
O16A O -0.1176(14) 0.2911(13) 0.4722(7)
O17A O 0.3046(17) -0.2378(16) 0.4625(8)
O18A O 0.2814(14) -0.1232(12) 0.5735(8)
O19A O 0.3046(12) 0.0512(11) 0.6340(7)
O20A O -0.0093(15) 0.3863(12) 0.5425(8)
O21A O 0.3302(15) -0.3378(13) 0.5797(9)
O22A O -0.092(2) 0.118(2) 0.5178(12)
Cu1A Cu -0.5303(3) 0.8089(2) 0.62681(13)
Cl1A Cl -0.6180(5) 0.8598(4) 0.7310(2)
Cu2* Cu 0.5123(2) 0.3125(2) 0.21833(12)
Cu2A Cu -0.5123(2) 0.6875(2) 0.78167(12)
Cu2A* Cu -0.5123(2) -0.3125(2) -0.21833(12)
Cu3A Cu -0.2905(2) 0.1464(2) -0.10913(12)
Cu3* Cu -0.7095(2) -0.1464(2) 0.10913(12)
Cu3A* Cu -0.2905(2) 1.1464(2) 0.89087(12)
Cu3** Cu -0.7095(2) 0.8536(2) 1.10913(12)
Cu4A Cu -0.6827(3) 1.0612(2) 0.73525(15)
Cu4* Cu -1.3173(3) -0.0612(2) 0.26475(15)
Cu5A Cu -0.8717(2) 0.4788(2) 0.65589(14)
Cu5* Cu -1.1283(2) 0.5212(2) 0.34411(14)
N1A N -0.4206(15) 0.7300(15) 0.5444(8)
N2A N -0.7717(14) 0.5462(12) 0.6954(8)
N3* N 0.3256(14) 0.3771(13) 0.2677(7)
N3A N -0.3256(14) 0.6229(13) 0.7323(7)
N4A N -0.8648(17) 1.1090(17) 0.7845(9)
N4* N -1.1352(17) -0.1090(17) 0.2155(9)
N5A N 0.3702(14) -0.1899(12) 0.0148(7)
N5A* N -0.6298(14) -0.1899(12) 0.0148(7)
N5A** N -0.6298(14) 0.8101(12) 1.0148(7)
N6A N -0.7491(15) 0.3833(14) 0.5758(8)
N7* N -0.8842(14) -0.1422(13) 0.1503(7)
N8A N -0.5497(14) 0.7396(12) 0.8785(7)
N8A* N -0.5497(14) -0.2604(12) -0.1215(7)
N9* N 0.3811(14) -0.1171(12) 0.1735(7)
N9A N -0.3811(14) 1.1171(12) 0.8265(7)
N10A N -0.6245(14) 0.6238(12) 0.7502(7)
N11* N -0.9439(14) 0.4651(13) 0.3221(8)
N11A N -1.0561(14) 0.5349(13) 0.6779(8)
N12A N -0.5387(15) 1.0823(14) 0.7563(7)
C3A C -0.734(3) 0.428(2) 0.5168(12)
H3A H -0.78420 0.50090 0.51700
C4A C -0.409(2) 0.7780(17) 0.4848(11)
H4A H -0.45750 0.85140 0.48410
C5A C -0.671(2) 0.2799(18) 0.5722(11)
H5A H -0.67260 0.24510 0.61140
C6* C -1.0362(16) -0.1709(14) 0.2369(10)
H6* H -1.04910 -0.20560 0.27540
C7A C -0.5705(18) -0.2981(17) -0.0088(10)
C7A* C -0.5705(18) 0.7019(17) 0.9912(10)
H7A H -0.55870 -0.35060 0.02150
H7A* H -0.55870 0.64940 1.02150
C8* C -1.106(3) -0.065(2) 0.1589(11)
H8* H -1.17300 -0.01710 0.14260
C9* C 0.2626(17) 0.3190(16) 0.3027(9)
H9* H 0.31000 0.24790 0.30980
C10A C -0.596(2) -0.1559(15) -0.1014(9)
C10A* C -0.596(2) 0.8441(15) 0.8986(9)
H10A H -0.59950 -0.10550 -0.13290
H10A* H -0.59950 0.89450 0.86710
C11* C -0.9098(16) -0.1868(13) 0.2030(9)
H11* H -0.84240 -0.23200 0.22020
C13* C -0.9825(19) -0.0857(19) 0.1232(10)
H13* H -0.96750 -0.06110 0.08100
C14A C -0.4518(18) 1.002(2) 0.7797(9)
H14A H -0.44370 0.93140 0.77120
C16* C -0.8760(18) 0.5217(17) 0.2877(12)
H16* H -0.92120 0.59310 0.28020
C17A C -0.5416(18) 1.1796(18) 0.7668(10)
H17A H -0.59960 1.23860 0.75140
C18* C 0.2503(15) 0.4789(16) 0.2649(10)
H18* H 0.28880 0.52420 0.24530
C19A C -0.5282(18) -0.3298(15) -0.0770(9)
C19A* C -0.5282(18) 0.6702(15) 0.9230(9)
H19A H -0.48330 -0.40290 -0.09110
H19A* H -0.48330 0.59710 0.90890
C20A C -0.3742(19) 1.0180(16) 0.8156(10)
H20A H -0.31710 0.95980 0.83220
C21A C -0.638(2) -0.1225(18) -0.0348(9)
C21A* C -0.638(2) 0.8775(18) 0.9652(9)
H21A H -0.67510 -0.04850 -0.02270
H21A* H -0.67510 0.95150 0.97730
C22* C -0.8662(19) 0.3608(17) 0.3275(9)
H22* H -0.90350 0.31620 0.34940
C23A C -0.4588(18) 1.1951(17) 0.8007(9)
H23A H -0.45930 1.26380 0.80490
C24A C -0.345(3) 0.623(2) 0.5426(12)
H24A H -0.34850 0.58600 0.58090
Mo7A Mo -0.93460(12) 0.73394(10) 0.95739(6)
Mo8A Mo -1.13961(13) 0.66567(11) 0.87878(7)
Mo9A Mo -1.24581(13) 0.76484(10) 1.05107(7)
Mo10A Mo -1.20164(12) 0.43137(12) 0.92144(7)
Mo11A Mo -1.30889(12) 0.53022(12) 1.09276(6)
Mo12A Mo -1.10685(13) 0.59846(11) 1.17155(6)
O23A O -1.051(2) 0.6156(18) 0.9785(11)
O24A O -1.1182(18) 0.5684(17) 1.0526(10)
O25A O -1.049(2) 0.5055(17) 0.9333(11)
O26A O -0.9005(19) 0.5482(17) 0.9898(10)
O27A O -0.9983(15) 0.5487(13) 0.8242(9)
O28A O -1.1907(17) 0.7271(14) 1.1305(9)
O29A O -1.2381(16) 0.5575(14) 1.1629(8)
O30A O -1.3200(15) 0.4995(14) 1.0048(8)
O31A O -1.4495(11) 0.5444(10) 1.1389(6)
O32A O -1.1569(13) 0.6432(11) 1.2525(6)
O33A O -0.9049(17) 0.8417(14) 0.9359(8)
O34A O -1.2022(15) 0.7422(14) 0.8222(8)
O35A O -1.2273(17) 0.5715(14) 0.8929(10)
O36A O -0.8658(15) 0.6949(14) 1.0323(8)
O37A O -0.7849(15) 0.6242(13) 0.9064(7)
O38A O -1.0445(16) 0.3772(12) 0.8549(9)
O39A O -1.3415(18) 0.6754(15) 1.0720(9)
O40A O -1.0995(13) 0.7977(14) 1.0179(7)
O41A O -1.2520(14) 0.7476(13) 0.9603(7)
O42A O -1.0194(14) 0.7220(13) 0.8909(7)
O43A O -1.3591(15) 0.8872(13) 1.0764(8)
O44A O -1.2947(12) 0.3979(11) 0.8832(7)
#END
