
#######################################################################
#
#                 Cambridge Crystallographic Data Centre
#                                CCDC
#
#######################################################################
#
# If this CIF has been generated from an entry in the Cambridge
# Structural Database, then it will include bibliographic, chemical,
# crystal, experimental, refinement or atomic coordinate data resulting
# from the CCDC's data processing and validation procedures.
#
#######################################################################

data_CSD_CIF_AQEGOT
_audit_creation_date 2011-11-21
_audit_creation_method CSD-ConQuest-V1
_database_code_CSD AQEGOT
_database_code_depnum_ccdc_archive 'CCDC 777263'
_chemical_formula_sum 'C48 H48 Cl2 Cu3 Mo8 N16 O30'
_chemical_formula_moiety
;
(Mo8 O26 4-)n,n(C24 H24 Cl2 Cu2 N8 O2 2+),n(C24 H20 Cu1 N8 2+),2n(H2 O1)
;
_journal_coden_Cambridge 208
_journal_volume 184
_journal_year 2011
_journal_page_first 1141
_journal_name_full 'J.Solid State Chem. '
loop_
_publ_author_name
"Hong-Ying Zang"
"Dong-Ying Du"
"Shun-Li Li"
"Ya-Qian Lan"
"Guang-Sheng Yang"
"Li-Kai Yan"
"Kui-Zhan Shao"
"Zhong-Min Su"
_chemical_name_systematic
;
catena-(bis(\m~2~-1,4-bis(Imidazol-1-yl)benzene)-diaqua-dichloro-di-copper 
bis(\m~2~-1,4-bis(imidazol-1-yl)benzene)-copper 
hexakis(\m~3~-oxo)-hexakis(\m~2~-oxo)-tetradecaoxo-octa-molybdenum dihydrate)
;
_cell_volume   1692.240
_exptl_crystal_colour 'green'
_exptl_crystal_density_diffrn 2.306
_exptl_crystal_description 'block'
_diffrn_ambient_temperature 293
_refine_special_details
;
O3WB and O3WA disordered over two sites with occupancies 0.69:0.31.

;
#These two values have been output from a single CSD field.
_refine_ls_R_factor_gt 0.0451
_refine_ls_wR_factor_gt 0.0451
_symmetry_cell_setting triclinic
_symmetry_space_group_name_H-M 'P -1'
_symmetry_Int_Tables_number 2
loop_
_symmetry_equiv_pos_site_id
_symmetry_equiv_pos_as_xyz
1 x,y,z
2 -x,-y,-z
_cell_length_a 12.756(3)
_cell_length_b 12.809(3)
_cell_length_c 13.384(3)
_cell_angle_alpha 62.061(2)
_cell_angle_beta 62.082(2)
_cell_angle_gamma 83.306(3)
_cell_formula_units_Z 1
loop_
_atom_type_symbol
_atom_type_radius_bond
C 0.68
H 0.23
Cl 0.99
Cu 1.32
Mo 1.40
N 0.68
O 0.72
loop_
_atom_site_label
_atom_site_type_symbol
_atom_site_fract_x
_atom_site_fract_y
_atom_site_fract_z
Cu1 Cu 0.50000 1.00000 0.00000
Cu2 Cu 0.09569(8) 0.63043(9) 0.88860(8)
Mo1 Mo 0.39430(5) 1.25046(5) 0.30726(5)
Mo2 Mo 0.57986(5) 1.13536(5) 0.43444(5)
Mo3 Mo 0.60306(5) 1.03439(5) 0.23668(5)
Mo4 Mo 0.27898(5) 1.18812(6) 0.60749(5)
C1 C 0.2765(6) 0.9855(6) 0.2272(6)
H1 H 0.31810 0.98080 0.27040
C2 C 0.2358(7) 0.9961(11) 0.0871(9)
H2 H 0.24410 0.99800 0.01340
C3 C 0.1330(7) 1.0034(11) 0.1784(8)
H3 H 0.05930 1.01340 0.17890
C4 C 0.0781(6) 0.9959(6) 0.3885(6)
C5 C 0.1162(6) 0.9800(7) 0.4738(6)
H4 H 0.19450 0.96610 0.45650
C6 C -0.0385(6) 1.0156(7) 0.4140(6)
H5 H -0.06460 1.02570 0.35610
C7 C 0.4862(6) 0.7754(6) 0.2250(6)
H6 H 0.45820 0.81110 0.27780
C8 C 0.5455(7) 0.7470(7) 0.0625(7)
H7 H 0.56500 0.76000 -0.01900
C9 C 0.5528(8) 0.6440(7) 0.1559(7)
H8 H 0.57940 0.57540 0.15000
C10 C 0.5068(6) 0.5795(6) 0.3819(6)
C11 C 0.5653(7) 0.4796(6) 0.3952(6)
H9 H 0.60830 0.46510 0.32540
C12 C 0.4405(7) 0.5981(6) 0.4881(6)
H10 H 0.39950 0.66420 0.48000
C13 C 0.1073(7) 0.6281(7) 1.1031(7)
H11 H 0.02870 0.64390 1.13620
C14 C 0.2745(7) 0.5920(7) 0.9853(7)
H12 H 0.33360 0.57820 0.91980
C15 C 0.2868(7) 0.5932(7) 1.0793(7)
H13 H 0.35470 0.58070 1.09050
C16 C 0.1483(7) 0.6274(7) 1.2680(7)
C17 C 0.0641(8) 0.6976(9) 1.2984(8)
H14 H 0.02940 0.73820 1.24530
C18 C 0.0283(8) 0.7102(8) 1.4073(8)
H15 H -0.02840 0.75970 1.42690
C19 C 0.0807(6) 0.6457(6) 1.4862(6)
C20 C 0.1647(7) 0.5748(8) 1.4562(8)
H16 H 0.19930 0.53300 1.50910
C21 C 0.1991(8) 0.5646(8) 1.3456(8)
H17 H 0.25600 0.51570 1.32510
C22 C 0.1026(7) 0.6365(7) 1.6648(7)
H18 H 0.17830 0.61240 1.64180
C23 C -0.0655(7) 0.6910(7) 1.6631(7)
H19 H -0.12640 0.71190 1.64020
C24 C -0.0651(7) 0.6885(7) 1.7647(7)
H20 H -0.12710 0.70660 1.82500
N1 N 0.3262(5) 0.9855(5) 0.1166(5)
N2 N 0.1592(5) 0.9932(5) 0.2710(5)
N3 N 0.5055(5) 0.8282(5) 0.1059(5)
N4 N 0.5127(5) 0.6618(5) 0.2609(5)
N5 N 0.1624(5) 0.6142(6) 1.0010(6)
N6 N 0.1803(5) 0.6164(5) 1.1548(5)
N7 N 0.0414(5) 0.6550(6) 1.7656(5)
N8 N 0.0412(5) 0.6569(5) 1.5997(5)
O1 O 0.3359(5) 1.2162(5) 0.2342(5)
O2 O 0.5266(4) 1.1596(4) 0.2857(4)
O3 O 0.4398(5) 1.3992(5) 0.2182(5)
O4 O 0.0626(5) 0.7996(5) 0.8657(5)
O5 O 0.4549(4) 1.2313(4) 0.4508(4)
O6 O -0.1017(11) 0.8129(11) 0.0847(12)
O7 O 0.2567(4) 1.2164(6) 0.4603(5)
O8 O 0.1490(4) 1.0919(5) 0.7173(5)
O9 O 0.6407(4) 0.8763(4) 0.2890(4)
O10 O 0.2489(5) 1.3181(5) 0.6125(6)
O11 O 0.5828(4) 1.0823(4) 0.5797(4)
O12 O 0.7056(4) 1.2366(4) 0.3227(5)
O13 O 0.3862(4) 1.0010(4) 0.5909(4)
O14 O 0.5388(4) 1.0436(4) 0.1465(4)
O15 O 0.7429(4) 1.1113(4) 0.1284(5)
Cl1 Cl 0.14095(18) 0.44409(19) 0.90916(18)
O16? O -0.019(3) 0.909(3) 0.031(3)
Cu1* Cu -0.50000 1.00000 1.00000
Cu1** Cu 0.50000 0.00000 1.00000
Cu2* Cu 0.09569(8) 0.63043(9) -0.11140(8)
Cu2** Cu 0.09569(8) 0.63043(9) 1.88860(8)
Mo1A Mo 0.60570(5) 0.74954(5) 0.69274(5)
Mo2A Mo 0.42014(5) 0.86464(5) 0.56556(5)
Mo3A Mo 0.39694(5) 0.96561(5) 0.76332(5)
Mo4A Mo 0.72102(5) 0.81188(6) 0.39251(5)
C1A C -0.2765(6) 1.0145(6) 0.7728(6)
H1A H -0.31810 1.01920 0.72960
C2A C -0.2358(7) 1.0039(11) 0.9129(9)
H2A H -0.24410 1.00200 0.98660
C3A C -0.1330(7) 0.9966(11) 0.8216(8)
H3A H -0.05930 0.98660 0.82110
C4A C -0.0781(6) 1.0041(6) 0.6115(6)
C5A C -0.1162(6) 1.0200(7) 0.5262(6)
H4A H -0.19450 1.03390 0.54350
C6A C 0.0385(6) 0.9844(7) 0.5860(6)
H5A H 0.06460 0.97430 0.64390
C7A C 0.5138(6) 0.2246(6) 0.7750(6)
H6A H 0.54180 0.18890 0.72220
C8A C 0.4545(7) 0.2530(7) 0.9375(7)
H7A H 0.43500 0.24000 1.01900
C9A C 0.4472(8) 0.3560(7) 0.8441(7)
H8A H 0.42060 0.42460 0.85000
C10A C 0.4932(6) 0.4205(6) 0.6181(6)
C11A C 0.4347(7) 0.5204(6) 0.6048(6)
H9A H 0.39170 0.53490 0.67460
C12A C 0.5595(7) 0.4019(6) 0.5119(6)
H10A H 0.60050 0.33580 0.52000
C13* C 0.1073(7) 0.6281(7) 0.1031(7)
H11* H 0.02870 0.64390 0.13620
C14* C 0.2745(7) 0.5920(7) -0.0147(7)
H12* H 0.33360 0.57820 -0.08020
C15* C 0.2868(7) 0.5932(7) 0.0793(7)
H13* H 0.35470 0.58070 0.09050
C16* C 0.1483(7) 0.6274(7) 0.2680(7)
C17* C 0.0641(8) 0.6976(9) 0.2984(8)
H14* H 0.02940 0.73820 0.24530
C18* C 0.0283(8) 0.7102(8) 0.4073(8)
H15* H -0.02840 0.75970 0.42690
C19* C 0.0807(6) 0.6457(6) 0.4862(6)
C20* C 0.1647(7) 0.5748(8) 0.4562(8)
H16* H 0.19930 0.53300 0.50910
C21* C 0.1991(8) 0.5646(8) 0.3456(8)
H17* H 0.25600 0.51570 0.32510
C22* C 0.1026(7) 0.6365(7) 0.6648(7)
H18* H 0.17830 0.61240 0.64180
C23* C -0.0655(7) 0.6910(7) 0.6631(7)
H19* H -0.12640 0.71190 0.64020
C24* C -0.0651(7) 0.6885(7) 0.7647(7)
H20* H -0.12710 0.70660 0.82500
N1A N -0.3262(5) 1.0145(5) 0.8834(5)
N1A* N 0.6738(5) 1.0145(5) -0.1166(5)
N2A N -0.1592(5) 1.0068(5) 0.7290(5)
N3A N 0.4945(5) 0.1718(5) 0.8941(5)
N3A* N 0.4945(5) 1.1718(5) -0.1059(5)
N4A N 0.4873(5) 0.3382(5) 0.7391(5)
N5* N 0.1624(5) 0.6142(6) 0.0010(6)
N6* N 0.1803(5) 0.6164(5) 0.1548(5)
N7* N 0.0414(5) 0.6550(6) 0.7656(5)
N7** N 0.0414(5) 0.6550(6) -0.2344(5)
N8* N 0.0412(5) 0.6569(5) 0.5997(5)
O1A O 0.6641(5) 0.7838(5) 0.7658(5)
O2A O 0.4734(4) 0.8404(4) 0.7143(4)
O3A O 0.5602(5) 0.6008(5) 0.7818(5)
O4* O 0.0626(5) 0.7996(5) -0.1343(5)
O5A O 0.5451(4) 0.7687(4) 0.5492(4)
O7A O 0.7433(4) 0.7836(6) 0.5397(5)
O8A O 0.8510(4) 0.9081(5) 0.2827(5)
O9A O 0.3593(4) 1.1237(4) 0.7110(4)
O10A O 0.7511(5) 0.6819(5) 0.3875(6)
O11A O 0.4172(4) 0.9177(4) 0.4203(4)
O12A O 0.2944(4) 0.7634(4) 0.6773(5)
O13A O 0.6138(4) 0.9990(4) 0.4091(4)
O14A O 0.4612(4) 0.9564(4) 0.8535(4)
O15A O 0.2571(4) 0.8887(4) 0.8716(5)
Cl1* Cl 0.14095(18) 0.44409(19) -0.09084(18)
#END
