
#######################################################################
#
#                 Cambridge Crystallographic Data Centre
#                                CCDC
#
#######################################################################
#
# If this CIF has been generated from an entry in the Cambridge
# Structural Database, then it will include bibliographic, chemical,
# crystal, experimental, refinement or atomic coordinate data resulting
# from the CCDC's data processing and validation procedures.
#
#######################################################################

data_CSD_CIF_AQEGAF
_audit_creation_date 2011-11-21
_audit_creation_method CSD-ConQuest-V1
_database_code_CSD AQEGAF
_database_code_depnum_ccdc_archive 'CCDC 773937'
_chemical_formula_sum 'C24 H35 Cu5 N12 O44 W12'
_chemical_formula_moiety
;
(C24 H32 Cu5 N12 O4 5+)n,n(H3 O40 W12 5-)
;
_journal_coden_Cambridge 208
_journal_volume 184
_journal_year 2011
_journal_page_first 1070
_journal_name_full 'J.Solid State Chem. '
loop_
_publ_author_name
"Min Zhu"
"Jun Peng"
"Hai-Jun Pang"
"Peng-Peng Zhang"
"Yuan Chen"
"Dan-Dan Wang"
"Ming-Guan Liu"
"Yong-Hui Wang"
_chemical_name_systematic
;
catena-(hexakis(\m~2~-Pyrazine)-tetra-aqua-penta-copper(i) 
tetrakis(\m~3~-oxo)-tris(\m~2~-hydroxo)-henicosakis(\m~2~-oxo)-dodecaoxo-dodec
a-tungsten)
;
_cell_volume   1492.629
_exptl_crystal_colour 'red'
_exptl_crystal_density_diffrn 4.126
_exptl_crystal_description 'block'
_diffrn_ambient_temperature 293
_refine_special_details
;
The central portion of the anion is disordered by symmetry.

;
#These two values have been output from a single CSD field.
_refine_ls_R_factor_gt 0.0981
_refine_ls_wR_factor_gt 0.0981
_symmetry_cell_setting triclinic
_symmetry_space_group_name_H-M 'P -1'
_symmetry_Int_Tables_number 2
loop_
_symmetry_equiv_pos_site_id
_symmetry_equiv_pos_as_xyz
1 x,y,z
2 -x,-y,-z
_cell_length_a 11.8100(4)
_cell_length_b 12.3770(5)
_cell_length_c 12.5110(5)
_cell_angle_alpha 61.757(4)
_cell_angle_beta 71.809(4)
_cell_angle_gamma 70.56
_cell_formula_units_Z 1
loop_
_atom_type_symbol
_atom_type_radius_bond
C 0.68
H 0.23
Cu 1.32
N 0.68
O 0.68
W 1.36
loop_
_atom_site_label
_atom_site_type_symbol
_atom_site_fract_x
_atom_site_fract_y
_atom_site_fract_z
W1 W 0.07143(14) 0.66520(13) 0.18121(13)
W2 W 0.26326(12) 0.62075(13) 0.36809(14)
W3 W 0.01865(14) 0.74925(13) 0.54716(14)
W4 W -0.19486(13) 0.54993(13) 0.31392(14)
W5 W 0.24721(13) 0.36688(14) 0.32632(14)
W6 W -0.17123(13) 0.80072(12) 0.35635(14)
Cu1 Cu 0.2547(5) 0.6104(6) 0.8616(6)
Cu2 Cu 0.00000 1.00000 0.00000
Cu3 Cu 0.4222(5) 0.9719(5) 0.2636(5)
N1 N 0.401(3) 0.872(3) 0.450(3)
N2 N 0.316(3) 0.717(4) 0.693(4)
N3 N 0.296(4) 1.007(3) 0.175(4)
N4 N 0.394(4) 0.543(4) 0.951(4)
N5 N 0.119(3) 1.007(4) 0.066(4)
O1 O 0.530(3) 1.105(3) 0.193(3)
O2 O 0.555(3) 0.840(3) 0.190(3)
N6 N 0.104(3) 0.548(3) 0.948(3)
O3 O 0.319(4) 0.469(3) 0.343(3)
O4 O 0.171(3) 0.511(3) 0.200(3)
O5 O -0.073(4) 0.619(4) 0.514(4)
O6 O -0.048(4) 0.589(4) 0.389(4)
O7 O -0.126(4) 0.705(4) 0.654(4)
O8 O -0.103(3) 0.471(3) 0.615(3)
O9 O -0.248(3) 0.707(3) 0.324(4)
O10 O 0.266(4) 0.260(4) 0.486(4)
O11 O -0.063(3) 0.831(3) 0.414(3)
O12 O 0.366(3) 0.301(3) 0.239(2)
O13 O 0.113(3) 0.753(3) 0.023(3)
O14 O 0.111(4) 0.617(4) 0.663(3)
O15 O 0.286(4) 0.517(4) 0.528(4)
O16 O -0.050(4) 0.601(3) 0.201(4)
O17 O -0.041(3) 0.794(3) 0.222(3)
O18 O 0.159(3) 0.739(3) 0.422(3)
O19 O 0.085(4) 0.549(4) 0.522(4)
O20 O 0.185(4) 0.697(4) 0.235(4)
O21 O -0.288(3) 0.579(3) 0.223(3)
O22 O -0.258(3) 0.947(3) 0.288(3)
O23 O 0.390(3) 0.672(3) 0.303(3)
O24 O 0.027(2) 0.867(2) 0.578(2)
C1 C 0.236(6) 0.977(6) 0.016(6)
H1 H 0.25920 0.95840 -0.05240
C2 C 0.088(4) 1.028(4) 0.169(4)
H2 H 0.00570 1.04420 0.20500
C3 C 0.327(5) 0.975(4) 0.074(4)
H3 H 0.40880 0.95150 0.04240
C4 C 0.259(4) 0.846(4) 0.639(4)
H4 H 0.19190 0.88170 0.68380
C5 C 0.410(4) 0.611(4) 1.002(4)
H5 H 0.35710 0.68660 0.99820
C6 C 0.304(4) 0.920(4) 0.516(4)
H6 H 0.26580 1.00440 0.48080
C7 C 0.486(3) 0.441(3) 0.939(3)
H7 H 0.48010 0.40610 0.89040
C8 C 0.408(4) 0.675(4) 0.619(4)
H8 H 0.44820 0.59120 0.65010
C9 C 0.106(3) 0.431(3) 1.032(3)
H9 H 0.18080 0.38010 1.05480
C10 C -0.004(3) 0.619(3) 0.913(3)
H10 H -0.00870 0.70050 0.85250
C11 C 0.449(4) 0.751(4) 0.496(4)
H11 H 0.51060 0.71540 0.44680
C12 C 0.174(5) 1.026(5) 0.222(5)
H12 H 0.14750 1.03800 0.29410
W1A W -0.07143(14) 0.33480(13) 0.81879(13)
W2A W -0.26326(12) 0.37925(13) 0.63191(14)
W3A W -0.01865(14) 0.25075(13) 0.45284(14)
W4A W 0.19486(13) 0.45007(13) 0.68608(14)
W5A W -0.24721(13) 0.63312(14) 0.67368(14)
W6A W 0.17123(13) 0.19928(12) 0.64365(14)
Cu1A Cu -0.2547(5) 1.3896(6) -0.8616(6)
Cu1A* Cu 0.7453(5) 0.3896(6) 1.1384(6)
Cu1A** Cu -0.2547(5) 0.3896(6) 1.1384(6)
Cu3A Cu -0.4222(5) 1.0281(5) -0.2636(5)
N1A N -0.401(3) 1.128(3) -0.450(3)
N2A N -0.316(3) 1.283(4) -0.693(4)
N3A N -0.296(4) 0.993(3) -0.175(4)
N4A N 0.606(4) 0.457(4) 1.049(4)
N4A* N -0.394(4) 1.457(4) -0.951(4)
N5A N -0.119(3) 0.993(4) -0.066(4)
O1A O -0.530(3) 0.895(3) -0.193(3)
O2A O -0.555(3) 1.160(3) -0.190(3)
N6A N -0.104(3) 0.452(3) 1.052(3)
N6A* N -0.104(3) 1.452(3) -0.948(3)
O3A O -0.319(4) 0.531(3) 0.657(3)
O4A O -0.171(3) 0.489(3) 0.800(3)
O5A O 0.073(4) 0.381(4) 0.486(4)
O6A O 0.048(4) 0.411(4) 0.611(4)
O7A O 0.126(4) 0.295(4) 0.346(4)
O8A O 0.103(3) 0.529(3) 0.385(3)
O9A O 0.248(3) 0.293(3) 0.676(4)
O10A O -0.266(4) 0.740(4) 0.514(4)
O11A O 0.063(3) 0.169(3) 0.586(3)
O12A O -0.366(3) 0.699(3) 0.761(2)
O13A O -0.113(3) 0.247(3) 0.977(3)
O14A O -0.111(4) 0.383(4) 0.337(3)
O15A O -0.286(4) 0.483(4) 0.472(4)
O16A O 0.050(4) 0.399(3) 0.799(4)
O17A O 0.041(3) 0.206(3) 0.778(3)
O18A O -0.159(3) 0.261(3) 0.578(3)
O19A O -0.085(4) 0.451(4) 0.478(4)
O20A O -0.185(4) 0.303(4) 0.765(4)
O21A O 0.288(3) 0.421(3) 0.777(3)
O22A O 0.258(3) 0.053(3) 0.712(3)
O23A O -0.390(3) 0.328(3) 0.697(3)
O24A O -0.027(2) 0.133(2) 0.422(2)
C1A C -0.236(6) 1.023(6) -0.016(6)
H1A H -0.25920 1.04160 0.05240
C2A C -0.088(4) 0.972(4) -0.169(4)
H2A H -0.00570 0.95580 -0.20500
C3A C -0.327(5) 1.025(4) -0.074(4)
H3A H -0.40880 1.04850 -0.04240
C4A C -0.259(4) 1.154(4) -0.639(4)
H4A H -0.19190 1.11830 -0.68380
C5A C 0.590(4) 0.389(4) 0.998(4)
H5A H 0.64290 0.31340 1.00180
C6A C -0.304(4) 1.080(4) -0.516(4)
H6A H -0.26580 0.99560 -0.48080
C7A C 0.514(3) 0.559(3) 1.061(3)
H7A H 0.51990 0.59390 1.10960
C8A C -0.408(4) 1.325(4) -0.619(4)
H8A H -0.44820 1.40880 -0.65010
C9A C -0.106(3) 0.569(3) 0.968(3)
H9A H -0.18080 0.61990 0.94520
C10A C 0.004(3) 0.381(3) 1.087(3)
H10A H 0.00870 0.29950 1.14750
C11A C -0.449(4) 1.249(4) -0.496(4)
H11A H -0.51060 1.28460 -0.44680
C12A C -0.174(5) 0.974(5) -0.222(5)
H12A H -0.14750 0.96200 -0.29410
#END
