
#######################################################################
#
#                 Cambridge Crystallographic Data Centre
#                                CCDC
#
#######################################################################
#
# If this CIF has been generated from an entry in the Cambridge
# Structural Database, then it will include bibliographic, chemical,
# crystal, experimental, refinement or atomic coordinate data resulting
# from the CCDC's data processing and validation procedures.
#
#######################################################################

data_CSD_CIF_AQEQES
_audit_creation_date 2004-04-27
_audit_creation_method CSD-ConQuest-V1
_database_code_CSD AQEQES
_database_code_depnum_ccdc_archive 'CCDC 210432'
_chemical_formula_sum 'C16 H22 Co1 N2 O10'
_chemical_formula_moiety
;
(C6 H16 N2 2+)n,n(C10 H2 Co1 O8 2-),2n(H2 O1)
;
_journal_coden_Cambridge 29
_journal_volume 629
_journal_year 2003
_journal_page_first 2186
_journal_name_full 'Z.Anorg.Allg.Chem. '
loop_
_publ_author_name
"R.Koferstein"
"C.Robl"
_chemical_name_systematic
;
catena-(1,6-diammoniocyclohexane ((\m~4~-pyromellitato)-cobalt) dihydrate)
;
_cell_volume   1908.001
_exptl_crystal_colour 'blue'
_exptl_crystal_density_diffrn 1.606
_exptl_crystal_description 'prism'
_diffrn_ambient_temperature 293
#These two values have been output from a single CSD field.
_refine_ls_R_factor_gt 0.0233
_refine_ls_wR_factor_gt 0.0233
_symmetry_cell_setting monoclinic
_symmetry_space_group_name_H-M 'C 2/c'
_symmetry_Int_Tables_number 15
loop_
_symmetry_equiv_pos_site_id
_symmetry_equiv_pos_as_xyz
1 x,y,z
2 1/2+x,1/2+y,z
3 x,-y,1/2+z
4 1/2+x,1/2-y,1/2+z
5 -x,-y,-z
6 -1/2-x,-1/2-y,-z
7 -x,y,-1/2-z
8 -1/2-x,-1/2+y,-1/2-z
_cell_length_a 10.6592(8)
_cell_length_b 15.6897(9)
_cell_length_c 11.4088(9)
_cell_angle_alpha 90
_cell_angle_beta 90.101(6)
_cell_angle_gamma 90
_cell_formula_units_Z 4
loop_
_atom_type_symbol
_atom_type_radius_bond
C 0.68
H 0.23
Co 1.33
N 0.68
O 0.68
loop_
_atom_site_label
_atom_site_type_symbol
_atom_site_fract_x
_atom_site_fract_y
_atom_site_fract_z
Co1 Co 0.00000 0.00288(2) 0.25000
O1 O 0.1118(2) 0.27184(11) 0.9307(2)
O2 O -0.09397(12) -0.06116(8) 0.37420(11)
O3 O -0.16609(14) -0.14022(8) 0.22825(11)
O4 O -0.12625(11) -0.06389(8) 0.65426(11)
O5 O 0.03645(12) -0.14048(8) 0.59206(12)
C1 C -0.1995(2) -0.18976(11) 0.42218(15)
C2 C -0.1685(2) -0.18667(10) 0.54177(15)
C3 C -0.2803(2) -0.25322(11) 0.38299(15)
C4 C -0.1496(2) -0.12669(11) 0.33454(15)
C5 C -0.0773(2) -0.12480(11) 0.59659(15)
C6 C 0.3684(2) 0.02076(12) -0.0159(2)
C7 C 0.4204(2) 0.00217(15) 0.1050(2)
C8 C 0.4684(2) 0.05930(14) -0.0939(2)
N1 N 0.2594(2) 0.08054(12) -0.0070(2)
H1 H -0.3005(16) -0.2551(11) 0.3001(17)
H2 H 0.2903(23) 0.1366(16) 0.0216(22)
H3 H 0.2233(23) 0.0902(15) -0.0802(24)
H4 H 0.1965(23) 0.0597(15) 0.0436(23)
H5 H 0.3400(19) -0.0306(13) -0.0514(19)
H6 H 0.4493(19) 0.0577(14) 0.1391(19)
H7 H 0.3556(20) -0.0206(13) 0.1551(19)
H8 H 0.4952(19) 0.1135(14) -0.0588(19)
H9 H 0.4342(19) 0.0719(13) -0.1633(20)
H10 H 0.134(3) 0.2449(20) 0.8705(30)
H11 H 0.0838(29) 0.2367(21) 0.9895(30)
C3E C -0.2197(2) -0.24678(11) 0.61701(15)
C1E C -0.3005(2) -0.31024(11) 0.57782(15)
C2E C -0.3315(2) -0.31333(10) 0.45823(15)
C5E C -0.4227(2) -0.37520(11) 0.40341(15)
O4E O -0.37375(11) -0.43611(8) 0.34574(11)
O5E O -0.53645(12) -0.35952(8) 0.40794(12)
C4E C -0.3504(2) -0.37331(11) 0.66546(15)
O2E O -0.40603(12) -0.43884(8) 0.62580(11)
O3E O -0.33391(14) -0.35978(8) 0.77175(11)
H1E H -0.1995(16) -0.2449(11) 0.6999(17)
C8D C 0.5316(2) -0.05930(14) 0.0939(2)
C6D C 0.6316(2) -0.02076(12) 0.0159(2)
C7D C 0.5796(2) -0.00217(15) -0.1050(2)
H6D H 0.5507(19) -0.0577(14) -0.1391(19)
H7D H 0.6444(20) 0.0206(13) -0.1551(19)
N1D N 0.7406(2) -0.08054(12) 0.0070(2)
H2D H 0.7097(23) -0.1366(16) -0.0216(22)
H3D H 0.7767(23) -0.0902(15) 0.0802(24)
H4D H 0.8035(23) -0.0597(15) -0.0436(23)
H5D H 0.6600(19) 0.0306(13) 0.0514(19)
H8D H 0.5048(19) -0.1135(14) 0.0588(19)
H9D H 0.5658(19) -0.0719(13) 0.1633(20)
O2F O 0.09397(12) -0.06116(8) 0.12580(11)
O4B O -0.12625(11) 0.06389(8) 0.15426(11)
O4D O 0.12625(11) 0.06389(8) 0.34574(11)
Co1B Co 0.00000 -0.00288(2) 0.75000
Co1A Co -0.50000 -0.49712(2) 0.25000
Co1C Co -0.50000 -0.50288(2) 0.75000
#END
