
#######################################################################
#
#                 Cambridge Crystallographic Data Centre
#                                CCDC
#
#######################################################################
#
# If this CIF has been generated from an entry in the Cambridge
# Structural Database, then it will include bibliographic, chemical,
# crystal, experimental, refinement or atomic coordinate data resulting
# from the CCDC's data processing and validation procedures.
#
#######################################################################

data_CSD_CIF_AQIVIH
_audit_creation_date 2016-07-20
_audit_creation_method CSD-ConQuest-V1
_database_code_CSD AQIVIH
_database_code_depnum_ccdc_archive 'CCDC 1057295'
_chemical_formula_sum 'C44 H44 Co2 N2 O18'
_chemical_formula_moiety
;
(C16 H20 Co1 N2 O4 1+)n,n(C28 H24 Co1 O14 1-)
;
_journal_coden_Cambridge 119
_journal_volume 1125
_journal_year 2016
_journal_page_first 546
_journal_name_full 'J.Mol.Struct. '
loop_
_publ_author_name
"Ling Qin"
"Peng-Yu Chen"
"Gao-Chao Zhao"
"Wei-Juan Zuo"
"Jin Li"
_chemical_name_systematic
;
catena-((\m-1,4-bis(4-pyridyl)benzene)-tetra-aqua-cobalt(ii) 
tetra-aqua-bis(4,4'-oxybis(benzoato))-cobalt(ii))
;
_cell_volume   1051.195
_exptl_crystal_colour 'purple'
_exptl_crystal_density_diffrn 1.59
_exptl_crystal_description 'block'
_diffrn_ambient_temperature 296
#These two values have been output from a single CSD field.
_refine_ls_R_factor_gt 0.0917
_refine_ls_wR_factor_gt 0.0917
_symmetry_cell_setting triclinic
_symmetry_space_group_name_H-M 'P -1'
_symmetry_Int_Tables_number 2
loop_
_symmetry_equiv_pos_site_id
_symmetry_equiv_pos_as_xyz
1 x,y,z
2 -x,-y,-z
_cell_length_a 7.542(3)
_cell_length_b 10.225(5)
_cell_length_c 14.384(5)
_cell_angle_alpha 77.564(5)
_cell_angle_beta 80.507(5)
_cell_angle_gamma 78.017(5)
_cell_formula_units_Z 1
loop_
_atom_type_symbol
_atom_type_radius_bond
C 0.68
H 0.23
Co 1.26
N 0.68
O 0.68
loop_
_atom_site_label
_atom_site_type_symbol
_atom_site_fract_x
_atom_site_fract_y
_atom_site_fract_z
Co1 Co 0.00000 0.50000 0.50000
O1 O 0.0230(6) 0.1570(5) 0.0095(3)
O2 O -0.0108(6) 0.2001(4) 0.4439(3)
O3 O 0.0313(6) 0.4117(4) 0.3754(3)
O4 O 0.5344(6) 0.3376(5) -0.3771(3)
O5 O 0.7348(7) 0.2771(6) -0.2714(3)
O6 O 0.2771(6) 0.4882(4) 0.4954(3)
H1 H 0.29740 0.52030 0.54170
H2 H 0.31800 0.53410 0.44250
O7 O 0.0097(6) 0.3055(4) 0.5902(3)
H3 H -0.00090 0.31400 0.64850
H4 H -0.07740 0.26960 0.58210
C1 C 0.0128(8) 0.2936(6) 0.3700(4)
C2 C 0.0205(8) 0.2573(6) 0.2742(4)
C3 C 0.0506(9) 0.3525(7) 0.1907(5)
H5 H 0.06640 0.43890 0.19460
C4 C 0.0571(10) 0.3189(7) 0.1018(5)
H6 H 0.07810 0.38240 0.04610
C5 C 0.0327(8) 0.1925(7) 0.0961(4)
C6 C 0.0028(10) 0.0949(7) 0.1785(5)
H7 H -0.01290 0.00860 0.17420
C7 C -0.0028(10) 0.1301(7) 0.2676(5)
H8 H -0.02250 0.06640 0.32330
C8 C 0.1613(9) 0.1887(6) -0.0643(4)
C9 C 0.3433(9) 0.1444(7) -0.0522(4)
H9 H 0.37530 0.09290 0.00620
C10 C 0.4776(10) 0.1759(7) -0.1262(5)
H10 H 0.60000 0.14650 -0.11740
C11 C 0.4304(8) 0.2519(6) -0.2142(4)
C12 C 0.2461(9) 0.2918(7) -0.2264(5)
H11 H 0.21330 0.34150 -0.28520
C13 C 0.1107(9) 0.2586(7) -0.1523(5)
H12 H -0.01180 0.28290 -0.16150
C14 C 0.5782(9) 0.2906(6) -0.2915(4)
Co2 Co 0.50000 0.00000 0.50000
O8 O 0.2509(6) -0.0326(5) 0.4720(3)
H13 H 0.20800 -0.08860 0.51860
H14 H 0.17620 0.04250 0.46530
O9 O 0.3723(6) 0.1597(4) 0.5690(3)
H15 H 0.44190 0.21820 0.55970
H16 H 0.27280 0.19670 0.54630
N1 N 0.5139(7) 0.1390(5) 0.3621(4)
C15 C 0.5225(11) 0.2684(7) 0.3529(5)
H17 H 0.52850 0.30020 0.40800
C16 C 0.5235(11) 0.3615(6) 0.2663(5)
H18 H 0.52570 0.45250 0.26480
C17 C 0.5210(9) 0.3160(7) 0.1824(4)
C18 C 0.5165(11) 0.1795(7) 0.1918(5)
H19 H 0.51560 0.14370 0.13770
C19 C 0.5133(11) 0.0959(7) 0.2811(5)
H20 H 0.51050 0.00440 0.28500
C20 C 0.5131(9) 0.4116(6) 0.0883(5)
C21 C 0.4097(9) 0.5423(7) 0.0831(5)
H21 H 0.34790 0.57090 0.13870
C22 C 0.6013(10) 0.3706(7) 0.0045(5)
H22 H 0.66900 0.28310 0.00710
O1A O -0.0230(6) 0.8430(5) 0.9905(3)
O2A O 0.0108(6) 0.7999(4) 0.5561(3)
O3A O -0.0313(6) 0.5883(4) 0.6246(3)
O4A O -0.5344(6) 0.6624(5) 1.3771(3)
O5A O -0.7348(7) 0.7229(6) 1.2714(3)
O6A O -0.2771(6) 0.5118(4) 0.5046(3)
H1A H -0.29740 0.47970 0.45830
H2A H -0.31800 0.46590 0.55750
O7A O -0.0097(6) 0.6945(4) 0.4098(3)
H3A H 0.00090 0.68600 0.35150
H4A H 0.07740 0.73040 0.41790
C1A C -0.0128(8) 0.7064(6) 0.6300(4)
C2A C -0.0205(8) 0.7427(6) 0.7258(4)
C3A C -0.0506(9) 0.6475(7) 0.8093(5)
H5A H -0.06640 0.56110 0.80540
C4A C -0.0571(10) 0.6811(7) 0.8982(5)
H6A H -0.07810 0.61760 0.95390
C5A C -0.0327(8) 0.8075(7) 0.9039(4)
C6A C -0.0028(10) 0.9051(7) 0.8215(5)
H7A H 0.01290 0.99140 0.82580
C7A C 0.0028(10) 0.8699(7) 0.7324(5)
H8A H 0.02250 0.93360 0.67670
C8A C -0.1613(9) 0.8113(6) 1.0643(4)
C9A C -0.3433(9) 0.8556(7) 1.0522(4)
H9A H -0.37530 0.90710 0.99380
C10A C -0.4776(10) 0.8241(7) 1.1262(5)
H10A H -0.60000 0.85350 1.11740
C11A C -0.4304(8) 0.7481(6) 1.2142(4)
C12A C -0.2461(9) 0.7082(7) 1.2264(5)
H11A H -0.21330 0.65850 1.28520
C13A C -0.1107(9) 0.7414(7) 1.1523(5)
H12A H 0.01180 0.71710 1.16150
C14A C -0.5782(9) 0.7094(6) 1.2915(4)
N1A N 0.4861(7) 0.8610(5) -0.3621(4)
C15A C 0.4775(11) 0.7316(7) -0.3529(5)
H17A H 0.47150 0.69980 -0.40800
C16A C 0.4765(11) 0.6385(6) -0.2663(5)
H18A H 0.47430 0.54750 -0.26480
C17A C 0.4790(9) 0.6840(7) -0.1824(4)
C18A C 0.4835(11) 0.8205(7) -0.1918(5)
H19A H 0.48440 0.85630 -0.13770
C19A C 0.4867(11) 0.9041(7) -0.2811(5)
H20A H 0.48950 0.99560 -0.28500
C20A C 0.4869(9) 0.5884(6) -0.0883(5)
C21A C 0.5903(9) 0.4577(7) -0.0831(5)
H21A H 0.65210 0.42910 -0.13870
C22A C 0.3987(10) 0.6294(7) -0.0045(5)
H22A H 0.33100 0.71690 -0.00710
O8A O 0.7491(6) 0.0326(5) 0.5280(3)
H13A H 0.79200 0.08860 0.48140
H14A H 0.82380 -0.04250 0.53470
O9A O 0.6277(6) -0.1597(4) 0.4310(3)
H15A H 0.55810 -0.21820 0.44030
H16A H 0.72720 -0.19670 0.45370
Co2* Co 0.50000 1.00000 -0.50000
N1A* N 0.4861(7) -0.1390(5) 0.6379(4)
#END
