
#######################################################################
#
#                 Cambridge Crystallographic Data Centre
#                                CCDC
#
#######################################################################
#
# If this CIF has been generated from an entry in the Cambridge
# Structural Database, then it will include bibliographic, chemical,
# crystal, experimental, refinement or atomic coordinate data resulting
# from the CCDC's data processing and validation procedures.
#
#######################################################################

data_CSD_CIF_AQIXUV
_audit_creation_date 2016-07-20
_audit_creation_method CSD-ConQuest-V1
_database_code_CSD AQIXUV
_database_code_depnum_ccdc_archive 'CCDC 1421374'
_chemical_formula_sum 'C190 H224 N14 Ni3 O54'
_chemical_formula_moiety
;
(C168 H150 N6 Ni3 O40 2-)n,2n(C2 H8 N1 1+),6n(C3 H7 N1 O1),8n(H2 O1)
;
_journal_coden_Cambridge 119
_journal_volume 1125
_journal_year 2016
_journal_page_first 656
_journal_name_full 'J.Mol.Struct. '
loop_
_publ_author_name
"Li-Li Liang"
"Lei Xu"
"Hong-Bao Xue"
"Zhao-Lin Tao"
"Fei-Jian Chen"
_chemical_name_systematic
;
catena-(bis(dimethylammonium) tetrakis(\m-hydrogen 
1,3,5-tris(4-carboxylatophenoxymethyl)-2,4,6-trimethylbenzene)-tris(\m-1,2-bis
(4-pyridyl)ethene)-tetra-aqua-tri-nickel dimethylformamide solvate 
octahydrate)
;
_cell_volume   5325.569
_exptl_crystal_colour 'green'
_exptl_special_details
;
The paper reports that there are eight cations per polymer unit as 
represented, which does not charge balance. We have included two cations
;
_exptl_crystal_description 'strip'
_diffrn_ambient_temperature 293
_refine_special_details
;
The SQUEEZE/PLATON program was used to model the disorder.ed cations and 
solvent molecules.
;
#These two values have been output from a single CSD field.
_refine_ls_R_factor_gt 0.0988
_refine_ls_wR_factor_gt 0.0988
_symmetry_cell_setting triclinic
_symmetry_space_group_name_H-M 'P -1'
_symmetry_Int_Tables_number 2
loop_
_symmetry_equiv_pos_site_id
_symmetry_equiv_pos_as_xyz
1 x,y,z
2 -x,-y,-z
_cell_length_a 13.709(4)
_cell_length_b 17.722(5)
_cell_length_c 23.810(6)
_cell_angle_alpha 70.746(4)
_cell_angle_beta 77.493(4)
_cell_angle_gamma 88.400(4)
_cell_formula_units_Z 1
loop_
_atom_type_symbol
_atom_type_radius_bond
C 0.68
H 0.23
N 0.68
Ni 1.24
O 0.68
loop_
_atom_site_label
_atom_site_type_symbol
_atom_site_fract_x
_atom_site_fract_y
_atom_site_fract_z
Ni1 Ni 0.00000 1.00000 0.00000
Ni2 Ni 0.59279(4) -0.15025(3) 0.26776(2)
O1 O -0.00893(18) 0.87673(12) 0.02538(11)
O2 O 0.6145(2) -0.03967(15) 0.20333(11)
O3 O -0.02822(19) 0.98677(13) 0.09279(11)
H1 H 0.00110 0.94600 0.11190
H2 H -0.09140 0.97990 0.10790
O4 O 0.4401(2) -0.13115(15) 0.26664(11)
O5 O 0.5930(2) 0.79948(15) 0.19992(11)
N1 N 0.1561(2) 0.99316(15) 0.00161(12)
O6 O 0.7437(2) -0.16251(16) 0.26463(12)
H3 H 0.77580 -0.15060 0.28790
H4 H 0.78420 -0.18020 0.23960
O7 O 0.6451(2) 0.30346(15) 0.00830(16)
N2 N 0.5600(3) -0.26366(19) 0.33315(16)
O8 O 0.4483(2) -0.11432(17) 0.16836(12)
O9 O -0.0229(2) 0.86205(15) -0.06261(13)
O10 O -0.0033(3) 0.49919(15) 0.08977(14)
O11 O 0.7807(2) -0.02547(18) 0.17424(13)
O12 O 0.6536(3) 0.6638(2) -0.02297(16)
N3 N 0.5739(3) -0.09747(19) 0.33555(14)
O13 O 0.1479(3) 0.15049(18) 0.21140(15)
C1 C 0.2230(3) 1.0517(2) -0.03099(19)
H5 H 0.20090 1.09800 -0.05630
C2 C -0.0070(3) 0.74563(18) 0.01930(16)
O14 O 0.7362(3) 0.7433(2) 0.2014(2)
C3 C 0.1895(3) 0.9268(2) 0.0362(2)
H6 H 0.14420 0.88390 0.05900
C4 C -0.0139(2) 0.83522(19) -0.00648(17)
C5 C 0.3598(3) 0.9819(2) 0.00585(16)
C6 C -0.0020(3) 0.6973(2) -0.01637(18)
H7 H -0.00240 0.72050 -0.05750
C7 C 0.6811(3) 0.0796(2) 0.12703(16)
C8 C 0.6631(3) 0.2301(2) 0.0467(2)
C9 C 0.6950(3) -0.0009(2) 0.17093(16)
C10 C -0.0041(3) 0.7107(2) 0.08111(19)
H8 H -0.00410 0.74230 0.10550
C11 C 0.4128(3) -0.0972(2) 0.21906(16)
O15 O -0.2952(3) 0.2259(3) 0.27632(19)
C12 C 0.0005(3) 0.5810(2) 0.06882(19)
C13 C 0.6077(5) -0.2859(3) 0.3781(3)
H9 H 0.65950 -0.25290 0.37790
C14 C 0.6547(4) 0.7368(3) 0.1258(2)
C15 C 0.7652(3) 0.1309(2) 0.09458(19)
H10 H 0.82880 0.11440 0.09940
C16 C 0.4640(3) 0.9719(2) 0.01104(16)
H11 H 0.48100 0.92080 0.03200
C17 C 0.5889(3) 0.1045(2) 0.11853(19)
H12 H 0.53280 0.07070 0.14000
C18 C 0.7534(3) 0.2062(2) 0.0553(2)
H13 H 0.80920 0.24060 0.03450
C19 C 0.3221(3) 1.0496(3) -0.03036(19)
H14 H 0.36470 1.09370 -0.05430
C20 C 0.5774(3) 0.1802(2) 0.0779(2)
H15 H 0.51450 0.19690 0.07190
C21 C -0.0011(4) 0.6276(2) 0.10519(19)
H16 H -0.00020 0.60350 0.14620
C22 C 0.0436(4) 0.3223(2) 0.1583(2)
C23 C 0.6102(3) 0.5599(2) -0.05710(18)
C24 C 0.5663(3) 0.7302(2) 0.11015(19)
H17 H 0.50820 0.74330 0.13280
C25 C 0.6621(3) 0.7623(3) 0.1784(2)
C26 C 0.7297(4) 0.3581(2) -0.0255(3)
H18 H 0.77310 0.33700 -0.05410
H19 H 0.76800 0.36640 0.00200
C27 C 0.2880(3) 0.9187(2) 0.03994(19)
H20 H 0.30760 0.87130 0.06510
C28 C -0.0154(5) 0.4590(2) 0.1539(2)
H21 H -0.07130 0.47970 0.17630
H22 H 0.04460 0.46710 0.16700
C29 C -0.0348(3) 0.3705(2) 0.16532(19)
C30 C 0.2130(4) 0.0905(2) 0.20800(19)
C31 C 0.5718(3) 0.6147(3) -0.0212(2)
H23 H 0.52110 0.64780 -0.03870
H24 H 0.54190 0.58340 0.02070
C32 C 0.0035(3) 0.6158(2) 0.0077(2)
H25 H 0.00930 0.58440 -0.01730
C33 C 0.6498(4) 0.6886(3) 0.0253(2)
C34 C -0.2578(4) 0.2244(4) 0.2157(2)
H26 H -0.29690 0.25740 0.18810
H27 H -0.26050 0.17020 0.21480
C35 C 0.6883(4) 0.4360(2) -0.0590(2)
C36 C 0.3423(3) -0.0327(2) 0.21423(17)
C37 C 0.5993(4) 0.5747(2) -0.1153(2)
C38 C 0.1095(4) 0.1884(3) 0.1569(2)
H28 H 0.08540 0.14800 0.14330
H29 H 0.16220 0.22110 0.12440
C39 C 0.2404(4) 0.0530(3) 0.2627(2)
H30 H 0.21510 0.06820 0.29670
C40 C 0.6262(4) 0.5206(3) -0.1460(2)
C41 C 0.0248(4) 0.2401(2) 0.17221(19)
C42 C -0.1507(3) 0.2573(3) 0.1976(2)
C43 C 0.3077(3) -0.0091(3) 0.26558(19)
H31 H 0.32910 -0.03430 0.30140
C44 C 0.4905(5) -0.3136(3) 0.3327(2)
H32 H 0.45980 -0.29940 0.29970
C45 C 0.6581(4) 0.4901(2) -0.0281(2)
C46 C 0.4936(4) -0.1148(3) 0.3814(2)
H33 H 0.44530 -0.15080 0.38170
C47 C 0.5816(5) -0.3588(4) 0.4267(3)
H34 H 0.61280 -0.37110 0.45930
C48 C 0.5132(5) -0.4100(3) 0.4264(2)
C49 C 0.5523(5) -0.0324(3) 0.4290(2)
C50 C 0.6722(4) 0.4495(3) -0.1171(2)
C51 C 0.2465(4) 0.0684(3) 0.1579(2)
H35 H 0.22560 0.09440 0.12200
C52 C 0.5546(5) 0.6538(3) -0.1482(3)
H36 H 0.56260 0.69280 -0.12930
H37 H 0.48480 0.64450 -0.14530
H38 H 0.58880 0.67320 -0.19030
C53 C 0.4820(5) -0.4856(3) 0.4755(3)
H39 H 0.43160 -0.51630 0.47160
C54 C 0.7405(4) 0.7240(4) 0.0894(3)
H40 H 0.80180 0.73280 0.09750
C55 C -0.2208(5) 0.3941(4) 0.1848(4)
H41 H -0.22200 0.41550 0.21710
H42 H -0.28210 0.36380 0.19270
H43 H -0.21350 0.43720 0.14680
C56 C 0.3125(4) 0.0061(3) 0.1606(2)
H44 H 0.33610 -0.00900 0.12630
C57 C -0.0721(4) 0.2076(2) 0.19505(19)
C58 C 0.5591(4) 0.7042(3) 0.0604(2)
H45 H 0.49770 0.69780 0.05150
C59 C -0.1322(4) 0.3394(3) 0.1814(2)
C60 C 0.7386(4) 0.6980(4) 0.0403(3)
H46 H 0.79810 0.68710 0.01760
C61 C 0.4768(5) -0.0842(4) 0.4273(2)
H47 H 0.41760 -0.09670 0.45700
C62 C 0.6771(5) 0.4778(4) 0.0337(2)
H48 H 0.71540 0.52300 0.03250
H49 H 0.71350 0.43020 0.04590
H50 H 0.61440 0.47210 0.06250
C63 C 0.6445(4) -0.0484(3) 0.3378(2)
H51 H 0.70290 -0.03670 0.30750
C64 C 0.4610(5) -0.3865(3) 0.3790(3)
H52 H 0.40870 -0.41850 0.37860
C65 C -0.4571(5) 0.1710(4) 0.2774(3)
H53 H -0.43730 0.16920 0.23790
C66 C 0.1517(5) 0.3557(4) 0.1388(3)
H54 H 0.15490 0.40990 0.11170
H55 H 0.19270 0.32370 0.11810
H56 H 0.17560 0.35430 0.17410
C67 C -0.0903(5) 0.1173(3) 0.2159(3)
H57 H -0.07980 0.10000 0.18100
H58 H -0.15790 0.10320 0.23890
H59 H -0.04480 0.09180 0.24110
C68 C -0.4234(6) 0.2114(4) 0.3591(3)
H60 H -0.38020 0.23500 0.37440
C69 C 0.6341(5) -0.0142(4) 0.3838(3)
H61 H 0.68380 0.02100 0.38290
C70 C 0.7036(6) 0.3868(3) -0.1474(3)
H62 H 0.77520 0.38610 -0.15710
H63 H 0.67890 0.39940 -0.18400
H64 H 0.67640 0.33510 -0.12000
C71 C -0.5493(5) 0.1436(6) 0.3113(3)
H65 H -0.59040 0.11700 0.29680
C72 C 0.5419(6) 0.0045(3) 0.4774(2)
H66 H 0.59570 0.03560 0.47700
C73 C -0.3933(5) 0.2015(4) 0.3023(3)
C74 C -0.5228(6) 0.1842(5) 0.3931(4)
H67 H -0.54410 0.18720 0.43210
C75 C -0.5849(7) 0.1546(7) 0.3687(4)
O16 O -0.7323(7) 0.0653(6) 0.3935(4)
H68 H -0.77300 0.03760 0.42340
O17 O -0.7056(6) 0.1365(6) 0.4585(4)
C76 C -0.6784(8) 0.1128(7) 0.4101(5)
O18 O 0.5239(4) 0.4964(3) -0.2034(2)
C77 C 0.6186(6) 0.5341(4) -0.2081(3)
H69 H 0.67320 0.51030 -0.22880
H70 H 0.62020 0.59090 -0.23040
C78 C 0.4004(5) 0.4843(3) -0.2541(2)
H71 H 0.36760 0.44580 -0.21810
C79 C 0.3559(4) 0.5096(4) -0.3040(3)
H72 H 0.29340 0.48800 -0.30150
C80 C 0.4049(5) 0.5672(4) -0.3577(2)
C81 C 0.4983(5) 0.5994(3) -0.3614(2)
H73 H 0.53110 0.63790 -0.39740
C82 C 0.5428(5) 0.5741(4) -0.3115(3)
H74 H 0.60530 0.59570 -0.31410
C83 C 0.4938(5) 0.5165(3) -0.2578(2)
O19 O 0.2842(7) 0.5583(6) -0.4077(4)
O20 O 0.4176(8) 0.6730(6) -0.4578(4)
H75 H 0.42260 0.70860 -0.44360
C84 C 0.3585(8) 0.6081(6) -0.4128(5)
N1A N 0.8439(2) 1.00684(15) -0.00161(12)
C1A C 0.7770(3) 0.9483(2) 0.03099(19)
H5A H 0.79910 0.90200 0.05630
C3A C 0.8105(3) 1.0732(2) -0.0362(2)
H6A H 0.85580 1.11610 -0.05900
C5A C 0.6402(3) 1.0181(2) -0.00585(16)
C16A C 0.5360(3) 1.0281(2) -0.01104(16)
H11A H 0.51900 1.07920 -0.03200
C19A C 0.6779(3) 0.9504(3) 0.03036(19)
H14A H 0.63530 0.90630 0.05430
C27A C 0.7120(3) 1.0813(2) -0.03994(19)
H20A H 0.69240 1.12870 -0.06510
N2A N 0.4400(3) -0.73634(19) 0.66685(16)
C13A C 0.3923(5) -0.7141(3) 0.6219(3)
H9A H 0.34050 -0.74710 0.62210
C44A C 0.5095(5) -0.6864(3) 0.6673(2)
H32A H 0.54020 -0.70060 0.70030
C47A C 0.4184(5) -0.6412(4) 0.5733(3)
H34A H 0.38720 -0.62890 0.54070
C48A C 0.4868(5) -0.5900(3) 0.5736(2)
C53A C 0.5180(5) -0.5144(3) 0.5245(3)
H39A H 0.56840 -0.48370 0.52840
C64A C 0.5390(5) -0.6135(3) 0.6210(3)
H52A H 0.59130 -0.58150 0.62140
N3A N 0.4261(3) 0.09747(19) 0.66445(14)
C46A C 0.5064(4) 0.1148(3) 0.6186(2)
H33A H 0.55470 0.15080 0.61830
C49A C 0.4477(5) 0.0324(3) 0.5710(2)
C61A C 0.5232(5) 0.0842(4) 0.5727(2)
H47A H 0.58240 0.09670 0.54300
C63A C 0.3555(4) 0.0484(3) 0.6622(2)
H51A H 0.29710 0.03670 0.69250
C69A C 0.3659(5) 0.0142(4) 0.6162(3)
H61A H 0.31620 -0.02100 0.61710
C72A C 0.4581(6) -0.0045(3) 0.5226(2)
H66A H 0.40430 -0.03560 0.52300
Ni2A Ni -0.59279(4) 2.15025(3) -0.26776(2)
O1A O 0.00893(18) 1.12327(12) -0.02538(11)
O2A O -0.6145(2) 2.03967(15) -0.20333(11)
O3A O 0.02822(19) 1.01323(13) -0.09279(11)
H1A H -0.00110 1.05400 -0.11190
H2A H 0.09140 1.02010 -0.10790
O4A O -0.4401(2) 2.13115(15) -0.26664(11)
O5A O -0.5930(2) 1.20052(15) -0.19992(11)
O6A O -0.7437(2) 2.16251(16) -0.26463(12)
H3A H -0.77580 2.15060 -0.28790
H4A H -0.78420 2.18020 -0.23960
O7A O -0.6451(2) 1.69654(15) -0.00830(16)
O8A O -0.4483(2) 2.11432(17) -0.16836(12)
O9A O 0.0229(2) 1.13795(15) 0.06261(13)
O10A O 0.0033(3) 1.50081(15) -0.08977(14)
O11A O -0.7807(2) 2.02547(18) -0.17424(13)
O12A O -0.6536(3) 1.3362(2) 0.02297(16)
O13A O -0.1479(3) 1.84951(18) -0.21140(15)
C2A C 0.0070(3) 1.25437(18) -0.01930(16)
O14A O -0.7362(3) 1.2567(2) -0.2014(2)
C4A C 0.0139(2) 1.16478(19) 0.00648(17)
C6A C 0.0020(3) 1.3027(2) 0.01637(18)
H7A H 0.00240 1.27950 0.05750
C7A C -0.6811(3) 1.9204(2) -0.12703(16)
C8A C -0.6631(3) 1.7699(2) -0.0467(2)
C9A C -0.6950(3) 2.0009(2) -0.17093(16)
C10A C 0.0041(3) 1.2893(2) -0.08111(19)
H8A H 0.00410 1.25770 -0.10550
C11A C -0.4128(3) 2.0972(2) -0.21906(16)
O15A O 0.2952(3) 1.7741(3) -0.27632(19)
C12A C -0.0005(3) 1.4190(2) -0.06882(19)
C14A C -0.6547(4) 1.2632(3) -0.1258(2)
C15A C -0.7652(3) 1.8691(2) -0.09458(19)
H10A H -0.82880 1.88560 -0.09940
C17A C -0.5889(3) 1.8955(2) -0.11853(19)
H12A H -0.53280 1.92930 -0.14000
C18A C -0.7534(3) 1.7938(2) -0.0553(2)
H13A H -0.80920 1.75940 -0.03450
C20A C -0.5774(3) 1.8198(2) -0.0779(2)
H15A H -0.51450 1.80310 -0.07190
C21A C 0.0011(4) 1.3724(2) -0.10519(19)
H16A H 0.00020 1.39650 -0.14620
C22A C -0.0436(4) 1.6777(2) -0.1583(2)
C23A C -0.6102(3) 1.4401(2) 0.05710(18)
C24A C -0.5663(3) 1.2698(2) -0.11015(19)
H17A H -0.50820 1.25670 -0.13280
C25A C -0.6621(3) 1.2377(3) -0.1784(2)
C26A C -0.7297(4) 1.6419(2) 0.0255(3)
H18A H -0.77310 1.66300 0.05410
H19A H -0.76800 1.63360 -0.00200
C28A C 0.0154(5) 1.5410(2) -0.1539(2)
H21A H 0.07130 1.52030 -0.17630
H22A H -0.04460 1.53290 -0.16700
C29A C 0.0348(3) 1.6295(2) -0.16532(19)
C30A C -0.2130(4) 1.9095(2) -0.20800(19)
C31A C -0.5718(3) 1.3853(3) 0.0212(2)
H23A H -0.52110 1.35220 0.03870
H24A H -0.54190 1.41660 -0.02070
C32A C -0.0035(3) 1.3842(2) -0.0077(2)
H25A H -0.00930 1.41560 0.01730
C33A C -0.6498(4) 1.3114(3) -0.0253(2)
C34A C 0.2578(4) 1.7756(4) -0.2157(2)
H26A H 0.29690 1.74260 -0.18810
H27A H 0.26050 1.82980 -0.21480
C35A C -0.6883(4) 1.5640(2) 0.0590(2)
C36A C -0.3423(3) 2.0327(2) -0.21423(17)
C37A C -0.5993(4) 1.4253(2) 0.1153(2)
C38A C -0.1095(4) 1.8116(3) -0.1569(2)
H28A H -0.08540 1.85200 -0.14330
H29A H -0.16220 1.77890 -0.12440
C39A C -0.2404(4) 1.9470(3) -0.2627(2)
H30A H -0.21510 1.93180 -0.29670
C40A C -0.6262(4) 1.4794(3) 0.1460(2)
C41A C -0.0248(4) 1.7599(2) -0.17221(19)
C42A C 0.1507(3) 1.7427(3) -0.1976(2)
C43A C -0.3077(3) 2.0091(3) -0.26558(19)
H31A H -0.32910 2.03430 -0.30140
C45A C -0.6581(4) 1.5099(2) 0.0281(2)
C50A C -0.6722(4) 1.5505(3) 0.1171(2)
C51A C -0.2465(4) 1.9316(3) -0.1579(2)
H35A H -0.22560 1.90560 -0.12200
C52A C -0.5546(5) 1.3462(3) 0.1482(3)
H36A H -0.56260 1.30720 0.12930
H37A H -0.48480 1.35550 0.14530
H38A H -0.58880 1.32680 0.19030
C54A C -0.7405(4) 1.2760(4) -0.0894(3)
H40A H -0.80180 1.26720 -0.09750
C55A C 0.2208(5) 1.6059(4) -0.1848(4)
H41A H 0.22200 1.58450 -0.21710
H42A H 0.28210 1.63620 -0.19270
H43A H 0.21350 1.56280 -0.14680
C56A C -0.3125(4) 1.9939(3) -0.1606(2)
H44A H -0.33610 2.00900 -0.12630
C57A C 0.0721(4) 1.7924(2) -0.19505(19)
C58A C -0.5591(4) 1.2958(3) -0.0604(2)
H45A H -0.49770 1.30220 -0.05150
C59A C 0.1322(4) 1.6606(3) -0.1814(2)
C60A C -0.7386(4) 1.3020(4) -0.0403(3)
H46A H -0.79810 1.31290 -0.01760
C62A C -0.6771(5) 1.5222(4) -0.0337(2)
H48A H -0.71540 1.47700 -0.03250
H49A H -0.71350 1.56980 -0.04590
H50A H -0.61440 1.52790 -0.06250
C65A C 0.4571(5) 1.8290(4) -0.2774(3)
H53A H 0.43730 1.83080 -0.23790
C66A C -0.1517(5) 1.6443(4) -0.1388(3)
H54A H -0.15490 1.59010 -0.11170
H55A H -0.19270 1.67630 -0.11810
H56A H -0.17560 1.64570 -0.17410
C67A C 0.0903(5) 1.8827(3) -0.2159(3)
H57A H 0.07980 1.90000 -0.18100
H58A H 0.15790 1.89680 -0.23890
H59A H 0.04480 1.90820 -0.24110
C68A C 0.4234(6) 1.7886(4) -0.3591(3)
H60A H 0.38020 1.76500 -0.37440
C70A C -0.7036(6) 1.6132(3) 0.1474(3)
H62A H -0.77520 1.61390 0.15710
H63A H -0.67890 1.60060 0.18400
H64A H -0.67640 1.66490 0.12000
C71A C 0.5493(5) 1.8564(6) -0.3113(3)
H65A H 0.59040 1.88300 -0.29680
C73A C 0.3933(5) 1.7985(4) -0.3023(3)
C74A C 0.5228(6) 1.8158(5) -0.3931(4)
H67A H 0.54410 1.81280 -0.43210
C75A C 0.5849(7) 1.8454(7) -0.3687(4)
O16A O 0.7323(7) 1.9347(6) -0.3935(4)
H68A H 0.77300 1.96240 -0.42340
O17A O 0.7056(6) 1.8635(6) -0.4585(4)
C76A C 0.6784(8) 1.8872(7) -0.4101(5)
O18A O -0.5239(4) 1.5036(3) 0.2034(2)
C77A C -0.6186(6) 1.4659(4) 0.2081(3)
H69A H -0.67320 1.48970 0.22880
H70A H -0.62020 1.40910 0.23040
C78A C -0.4004(5) 1.5157(3) 0.2541(2)
H71A H -0.36760 1.55420 0.21810
C79A C -0.3559(4) 1.4904(4) 0.3040(3)
H72A H -0.29340 1.51200 0.30150
C80A C -0.4049(5) 1.4328(4) 0.3577(2)
C81A C -0.4983(5) 1.4006(3) 0.3614(2)
H73A H -0.53110 1.36210 0.39740
C82A C -0.5428(5) 1.4259(4) 0.3115(3)
H74A H -0.60530 1.40430 0.31410
C83A C -0.4938(5) 1.4835(3) 0.2578(2)
O19A O -0.2842(7) 1.4417(6) 0.4077(4)
O20A O -0.4176(8) 1.3270(6) 0.4578(4)
H75A H -0.42260 1.29140 0.44360
C84A C -0.3585(8) 1.3919(6) 0.4128(5)
Ni1* Ni 1.00000 1.00000 0.00000
Ni2* Ni 0.59279(4) 0.84975(3) 0.26776(2)
Ni2A* Ni -0.59279(4) 1.15025(3) -0.26776(2)
Ni2A** Ni 0.40721(4) -0.84975(3) 0.73224(2)
Ni2A*** Ni 0.40721(4) 0.15025(3) 0.73224(2)
O5* O 0.5930(2) -0.20052(15) 0.19992(11)
O5A* O -0.5930(2) 2.20052(15) -0.19992(11)
N1A* N -0.1561(2) 1.00684(15) -0.00161(12)
N2A* N -0.5600(3) 2.26366(19) -0.33315(16)
N3A* N -0.5739(3) 2.09747(19) -0.33555(14)
#END
