
#######################################################################
#
#                 Cambridge Crystallographic Data Centre
#                                CCDC
#
#######################################################################
#
# If this CIF has been generated from an entry in the Cambridge
# Structural Database, then it will include bibliographic, chemical,
# crystal, experimental, refinement or atomic coordinate data resulting
# from the CCDC's data processing and validation procedures.
#
#######################################################################

data_CSD_CIF_AQODAN
_audit_creation_date 2016-07-20
_audit_creation_method CSD-ConQuest-V1
_database_code_CSD AQODAN
_database_code_depnum_ccdc_archive 'CCDC 957272'
_chemical_formula_sum 'C50 H34 La2 N9 O27.5'
_chemical_formula_moiety
;
(C32 H14 La2 N4 O25 2-)n,C18 H15 N5 2+,2.5(H2 O1)
;
_journal_coden_Cambridge 580
_journal_volume 117
_journal_year 2016
_journal_page_first 703
_journal_name_full 'Polyhedron '
loop_
_publ_author_name
"Dao-Jun Zhang"
"You-Zhu Yu"
"Jun-Jie Wang"
"Er-Ni Wang"
"Feng Jin"
"Meng-Yao Zhang"
"Hui-Na Huang"
"Qing-Qing Zhao"
"Yun-Feng Shi"
_chemical_name_systematic
;
catena-[4,4'-[2-(pyridin-4-yl)-1H-imidazole-4,5-diyl]di(pyridin-1-ium) 
tetrakis(\m-5-nitroisophthalato)-aqua-di-lanthanum(iii) hydrate]
;
_cell_volume   2685.397
_exptl_crystal_colour 'yellow'
_exptl_crystal_density_diffrn 1.829
_exptl_crystal_description 'BLOCK'
_diffrn_ambient_temperature 293
#These two values have been output from a single CSD field.
_refine_ls_R_factor_gt 0.0325
_refine_ls_wR_factor_gt 0.0325
_symmetry_cell_setting triclinic
_symmetry_space_group_name_H-M 'P -1'
_symmetry_Int_Tables_number 2
loop_
_symmetry_equiv_pos_site_id
_symmetry_equiv_pos_as_xyz
1 x,y,z
2 -x,-y,-z
_cell_length_a 10.714(2)
_cell_length_b 15.599(3)
_cell_length_c 17.739(4)
_cell_angle_alpha 71.82(3)
_cell_angle_beta 75.14(3)
_cell_angle_gamma 76.64(3)
_cell_formula_units_Z 2
loop_
_atom_type_symbol
_atom_type_radius_bond
C 0.68
H 0.23
La 2.07
N 0.68
O 0.68
loop_
_atom_site_label
_atom_site_type_symbol
_atom_site_fract_x
_atom_site_fract_y
_atom_site_fract_z
La1 La 0.077398(17) 0.477926(11) 0.385055(9)
La2 La 0.368772(18) 0.300030(12) 0.263261(10)
O1 O -0.0506(3) 0.51218(18) 0.27216(15)
H1 H -0.12920 0.50310 0.28290
H2 H -0.03710 0.55590 0.22970
O2 O 0.0220(3) 0.65287(15) 0.34141(13)
O3 O -0.0690(2) 0.60407(15) 0.47005(13)
O4 O -0.3200(3) 0.83566(16) 0.62018(15)
O5 O -0.3086(4) 0.98175(19) 0.55756(19)
O6 O 0.0676(4) 1.0446(2) 0.3270(3)
O7 O 0.0680(6) 0.9826(3) 0.2363(2)
O8 O 0.3129(2) 0.36951(16) 0.38851(13)
O9 O 0.5052(2) 0.38878(18) 0.31190(14)
O10 O 0.2911(4) 0.2662(3) 0.6811(2)
O11 O 0.4192(4) 0.3029(4) 0.73370(19)
O12 O 0.7818(2) 0.45550(16) 0.56453(13)
O13 O 0.8483(2) 0.44290(17) 0.43777(14)
O14 O 0.5403(3) 0.36243(18) 0.12726(14)
O15 O 0.4234(2) 0.26220(18) 0.12933(13)
O16 O 0.7134(3) 0.54682(17) -0.16888(16)
O17 O 0.7667(3) 0.4699(2) -0.26015(15)
O18 O 0.6902(4) 0.1606(3) -0.1952(2)
O19 O 0.5830(3) 0.0984(2) -0.0778(2)
O20 O 0.5767(2) 0.19956(17) 0.26934(15)
O21 O 0.7653(3) 0.1942(2) 0.17906(16)
O22 O 1.1574(2) 0.26612(19) 0.24333(15)
O23 O 1.1122(2) 0.33232(15) 0.34208(14)
O24 O 0.7786(3) 0.1798(3) 0.57475(18)
O25 O 0.5994(3) 0.17341(18) 0.54581(16)
N1 N 0.0398(4) 0.9875(2) 0.3048(2)
C1 C 0.7677(3) 0.4378(2) 0.50397(19)
N2 N 0.6346(4) 0.1616(2) -0.1263(2)
N3 N 0.7133(3) 0.1846(2) 0.52661(18)
C2 C -0.0370(3) 0.6682(2) 0.40692(18)
C3 C -0.0714(3) 0.7643(2) 0.41406(18)
C4 C -0.1582(3) 0.7866(2) 0.48101(18)
H3 H -0.20030 0.74160 0.52060
C5 C -0.1828(3) 0.8744(2) 0.48959(19)
C6 C -0.1161(4) 0.9410(2) 0.4318(2)
H4 H -0.12810 0.99960 0.43780
C7 C -0.0323(4) 0.9177(2) 0.3659(2)
C8 C -0.0085(3) 0.8320(2) 0.35424(19)
H5 H 0.04750 0.81930 0.30810
C9 C -0.2781(4) 0.8980(2) 0.5621(2)
C10 C 0.4291(3) 0.3826(2) 0.37890(19)
C11 C 0.4763(3) 0.3834(2) 0.45104(19)
C12 C 0.4025(3) 0.3518(2) 0.52827(19)
H6 H 0.32170 0.33520 0.53480
C13 C 0.4517(3) 0.3457(2) 0.59474(19)
C14 C 0.5670(3) 0.3751(2) 0.58838(19)
H7 H 0.59460 0.37390 0.63440
C15 C 0.6410(3) 0.4066(2) 0.51130(18)
C16 C 0.5971(3) 0.4086(2) 0.44379(18)
H8 H 0.64880 0.42690 0.39260
N4 N 0.3813(3) 0.3032(3) 0.67584(19)
C17 C 0.5072(3) 0.3140(2) 0.09355(19)
C18 C 0.5684(3) 0.3165(2) 0.00620(19)
C19 C 0.6172(3) 0.3934(2) -0.04829(18)
H9 H 0.61350 0.44440 -0.03080
C20 C 0.6714(3) 0.3939(2) -0.12882(19)
C21 C 0.6781(3) 0.3176(2) -0.1546(2)
H10 H 0.71530 0.31680 -0.20790
C22 C 0.6284(4) 0.2426(2) -0.0998(2)
C23 C 0.5729(3) 0.2411(2) -0.0203(2)
H11 H 0.53900 0.19000 0.01500
C24 C 0.7214(3) 0.4762(2) -0.1894(2)
C25 C 0.6984(3) 0.2018(2) 0.2457(2)
C26 C 0.7673(3) 0.2128(2) 0.3051(2)
C27 C 0.8895(3) 0.2403(2) 0.2796(2)
H12 H 0.93050 0.24940 0.22540
C28 C 0.9512(3) 0.2545(2) 0.3334(2)
C29 C 0.8933(3) 0.2373(2) 0.4153(2)
H13 H 0.93270 0.24680 0.45230
C30 C 0.7751(3) 0.2054(2) 0.43966(19)
C31 C 0.7087(3) 0.1949(2) 0.3871(2)
H14 H 0.62710 0.17640 0.40570
C32 C 1.0809(3) 0.2868(2) 0.3037(2)
O26 O 0.7835(5) 0.5726(2) 0.9610(3)
H15 H 0.76720 0.56890 0.91780
H16 H 0.75080 0.54500 1.00910
O27 O 0.7032(6) 0.4984(5) 0.2391(3)
H17 H 0.67600 0.53220 0.19670
H18 H 0.76670 0.45640 0.23000
O28 O -0.0298(13) 0.4216(9) 0.1252(8)
O29 O 0.7645(7) 0.4363(5) 0.0959(3)
N5 N 0.4746(4) -0.0145(2) 0.3186(2)
H19 H 0.41740 -0.01380 0.36250
N6 N 0.7488(3) -0.2616(2) -0.0142(2)
H20 H 0.74740 -0.31200 -0.02390
N7 N 1.0208(3) 0.3400(3) -0.1423(2)
N8 N 0.7988(3) 0.08854(19) 0.07920(17)
H21 H 0.79340 0.12270 0.11010
N9 N 0.8563(3) 0.0363(2) -0.02945(17)
C33 C 0.4361(5) -0.0120(4) 0.2534(4)
H22 H 0.34820 -0.01120 0.25570
C34 C 0.5247(5) -0.0104(4) 0.1814(3)
H23 H 0.49700 -0.00960 0.13550
C35 C 0.6534(4) -0.0100(2) 0.1780(2)
C36 C 0.6921(5) -0.0161(3) 0.2489(2)
H24 H 0.77970 -0.01890 0.24900
C37 C 0.5989(6) -0.0181(3) 0.3187(3)
H25 H 0.62360 -0.02190 0.36630
C38 C 0.7436(3) 0.0114(2) 0.09975(19)
C39 C 0.7818(4) -0.0217(2) 0.0313(2)
C40 C 0.7616(3) -0.1042(2) 0.0179(2)
C41 C 0.7208(4) -0.1781(2) 0.0799(2)
H26 H 0.69680 -0.17420 0.13310
C42 C 0.7161(4) -0.2561(3) 0.0627(3)
H27 H 0.69020 -0.30600 0.10440
C43 C 0.7833(4) -0.1911(3) -0.0759(3)
H28 H 0.80190 -0.19610 -0.12870
C44 C 0.7916(4) -0.1115(3) -0.0618(2)
H29 H 0.81690 -0.06250 -0.10480
C45 C 0.8631(3) 0.1010(2) 0.00160(19)
C46 C 0.9238(3) 0.1820(3) -0.0451(2)
C47 C 0.9812(4) 0.1896(3) -0.1261(2)
H30 H 0.98760 0.14250 -0.14920
C48 C 1.0284(4) 0.2694(3) -0.1712(2)
H31 H 1.06790 0.27410 -0.22520
C49 C 0.9683(4) 0.3309(3) -0.0649(3)
H32 H 0.96370 0.37920 -0.04350
C50 C 0.9194(4) 0.2530(3) -0.0132(2)
H33 H 0.88470 0.24910 0.04120
H34? H 0.04560 0.42880 0.09630
H35? H 0.70230 0.40590 0.10920
La1* La 1.077398(17) 0.477926(11) 0.385055(9)
La1A La -0.077398(17) 0.522074(11) 0.614945(9)
La1A* La 0.922602(17) 0.522074(11) -0.385055(9)
La1A** La 0.922602(17) 0.522074(11) 0.614945(9)
La2* La 1.368772(18) 0.300030(12) 0.263261(10)
La2A La -0.368772(18) 0.699970(12) 0.736739(10)
La2A* La 0.631228(18) 0.699970(12) -0.263261(10)
O3A O 0.0690(2) 0.39593(15) 0.52995(13)
O4A O 0.3200(3) 0.16434(16) 0.37982(15)
O12A O 0.2182(2) 0.54450(16) 0.43547(13)
O13* O -0.1517(2) 0.44290(17) 0.43777(14)
O16A O 0.2866(3) 0.45318(17) 0.16888(16)
O17A O 0.2333(3) 0.5301(2) 0.26015(15)
O22* O 0.1574(2) 0.26612(19) 0.24333(15)
O23* O 0.1122(2) 0.33232(15) 0.34208(14)
#END
