
#######################################################################
#
#                 Cambridge Crystallographic Data Centre
#                                CCDC
#
#######################################################################
#
# If this CIF has been generated from an entry in the Cambridge
# Structural Database, then it will include bibliographic, chemical,
# crystal, experimental, refinement or atomic coordinate data resulting
# from the CCDC's data processing and validation procedures.
#
#######################################################################

data_CSD_CIF_AQODER
_audit_creation_date 2016-07-20
_audit_creation_method CSD-ConQuest-V1
_database_code_CSD AQODER
_database_code_depnum_ccdc_archive 'CCDC 957273'
_chemical_formula_sum 'C50 H32 N9 Nd2 O26.5'
_chemical_formula_moiety
;
(C32 H14 N4 Nd2 O25 2-)n,C18 H15 N5 2+,1.5(H2 O1)
;
_journal_coden_Cambridge 580
_journal_volume 117
_journal_year 2016
_journal_page_first 703
_journal_name_full 'Polyhedron '
loop_
_publ_author_name
"Dao-Jun Zhang"
"You-Zhu Yu"
"Jun-Jie Wang"
"Er-Ni Wang"
"Feng Jin"
"Meng-Yao Zhang"
"Hui-Na Huang"
"Qing-Qing Zhao"
"Yun-Feng Shi"
_chemical_name_systematic
;
catena-[4,4'-(2-(pyridin-4-yl)-1H-imidazole-4,5-diyl)di(pyridin-1-ium) 
tetrakis(\m-5-nitroisophthalato)-aqua-di-neodymium(iii) hydrate]
;
_cell_volume   2655.589
_exptl_crystal_colour 'yellow'
_exptl_crystal_density_diffrn 1.84
_exptl_crystal_description 'block'
_diffrn_ambient_temperature 293
#These two values have been output from a single CSD field.
_refine_ls_R_factor_gt 0.0447
_refine_ls_wR_factor_gt 0.0447
_symmetry_cell_setting triclinic
_symmetry_space_group_name_H-M 'P -1'
_symmetry_Int_Tables_number 2
loop_
_symmetry_equiv_pos_site_id
_symmetry_equiv_pos_as_xyz
1 x,y,z
2 -x,-y,-z
_cell_length_a 10.637(2)
_cell_length_b 15.543(3)
_cell_length_c 17.656(4)
_cell_angle_alpha 72.04(3)
_cell_angle_beta 75.44(3)
_cell_angle_gamma 77.33(3)
_cell_formula_units_Z 2
loop_
_atom_type_symbol
_atom_type_radius_bond
C 0.68
H 0.23
N 0.68
Nd 2.01
O 0.68
loop_
_atom_site_label
_atom_site_type_symbol
_atom_site_fract_x
_atom_site_fract_y
_atom_site_fract_z
Nd1 Nd 0.63474(3) 0.696566(18) 0.238154(15)
Nd2 Nd 0.92309(3) 0.520404(17) 0.115273(15)
O1 O 0.6827(4) 0.8316(2) 0.1251(2)
O2 O 1.0482(4) 0.4888(3) 0.2257(2)
H1 H 1.03370 0.44650 0.26940
H2 H 1.12260 0.50670 0.20600
O3 O 0.6938(6) 0.9784(3) 0.0626(3)
O4 O 0.9306(3) 0.6017(2) -0.0254(2)
O5 O 1.0178(4) 0.6496(2) -0.1549(2)
O6 O 1.0600(7) 1.0477(3) -0.1730(4)
O7 O 1.0725(8) 0.9793(4) -0.2610(4)
O8 O 0.8446(4) 0.7284(3) 0.2576(2)
O9 O 0.8909(3) 0.6634(2) 0.1571(2)
O10 O 1.2427(4) 0.8024(3) 0.3241(2)
O11 O 1.4310(4) 0.7949(3) 0.2339(2)
O12 O 1.4045(4) 0.8285(3) -0.0437(2)
O13 O 1.2253(5) 0.8219(4) -0.0738(3)
O14 O 0.7168(4) 0.5460(2) 0.3232(2)
O15 O 0.7732(4) 0.4606(3) 0.2370(2)
O16 O 0.5387(4) 0.3705(3) 0.6266(2)
O17 O 0.4149(4) 0.2711(3) 0.6297(2)
O18 O 0.5753(5) 0.0945(3) 0.4327(3)
O19 O 0.6823(6) 0.1533(4) 0.3128(3)
O20 O 0.7846(3) 0.4562(2) 0.0647(2)
O21 O 0.8506(3) 0.4465(3) -0.0638(2)
O22 O 0.3100(3) 0.3730(2) -0.1156(2)
O23 O 0.5041(4) 0.3913(3) -0.1920(2)
O24 O 0.4113(6) 0.3090(5) 0.2318(3)
O25 O 0.2929(5) 0.2625(4) 0.1773(3)
N1 N 1.0374(6) 0.9869(3) -0.1929(4)
N2 N 1.2911(5) 0.8168(3) -0.0251(3)
N3 N 0.6264(5) 0.1570(3) 0.3816(3)
N4 N 0.3791(5) 0.3047(4) 0.1726(3)
C1 C 0.7238(6) 0.8948(4) 0.0665(3)
C2 C 0.8178(5) 0.8724(3) -0.0068(3)
C3 C 0.8416(5) 0.7839(3) -0.0155(3)
H3 H 0.79890 0.73870 0.02400
C4 C 0.9286(5) 0.7626(3) -0.0829(3)
C5 C 0.9906(5) 0.8304(3) -0.1431(3)
H4 H 1.04670 0.81770 -0.18940
C6 C 0.9658(6) 0.9171(3) -0.1318(3)
C7 C 0.8826(5) 0.9397(4) -0.0653(3)
H5 H 0.86980 0.99870 -0.05960
C8 C 0.9611(5) 0.6658(3) -0.0889(3)
C9 C 0.9221(5) 0.7084(3) 0.1970(3)
C10 C 1.0531(5) 0.7411(3) 0.1686(3)
C11 C 1.1155(5) 0.7548(4) 0.2231(3)
H6 H 1.07490 0.74490 0.27760
C12 C 1.2389(5) 0.7833(3) 0.1970(3)
C13 C 1.2955(5) 0.8030(3) 0.1158(3)
H7 H 1.37690 0.82290 0.09760
C14 C 1.2304(5) 0.7930(4) 0.0620(3)
C15 C 1.1113(5) 0.7608(3) 0.0864(3)
H8 H 1.07090 0.75250 0.04870
C16 C 1.3086(5) 0.7941(4) 0.2576(3)
C17 C 0.7233(5) 0.4724(3) 0.3061(3)
C18 C 0.6707(5) 0.3923(3) 0.3700(3)
C19 C 0.6155(5) 0.3958(4) 0.4494(3)
H9 H 0.61270 0.44850 0.46470
C20 C 0.5642(5) 0.3210(3) 0.5065(3)
C21 C 0.5671(5) 0.2428(4) 0.4836(3)
H10 H 0.53210 0.19270 0.52070
C22 C 0.6229(5) 0.2408(4) 0.4047(3)
C23 C 0.6744(5) 0.3138(4) 0.3471(3)
H11 H 0.71060 0.31050 0.29410
C24 C 0.5026(5) 0.3218(4) 0.5929(3)
C25 C 0.7699(5) 0.4396(3) 0.0026(3)
C26 C 0.6423(5) 0.4082(3) 0.0092(3)
C27 C 0.5984(5) 0.4106(3) -0.0588(3)
H12 H 0.65030 0.42930 -0.11000
C28 C 0.4762(5) 0.3850(3) -0.0513(3)
C29 C 0.4029(5) 0.3529(3) 0.0248(3)
H13 H 0.32180 0.33580 0.03060
C30 C 0.4510(5) 0.3463(3) 0.0927(3)
C31 C 0.5677(5) 0.3757(3) 0.0864(3)
H14 H 0.59610 0.37380 0.13270
C32 C 0.4275(5) 0.3859(3) -0.1253(3)
O26 O 0.7969(9) 0.5695(4) 0.4548(4)
H15 H 0.87170 0.57360 0.42590
O27 O 0.2927(8) 0.5014(6) 0.2661(4)
H16 H 0.24010 0.54900 0.26550
H17 H 0.34570 0.54080 0.25170
O28 O 0.2181(11) 0.5703(7) 0.4062(5)
H18 H 0.26540 0.51730 0.41520
N5 N 0.5265(7) 1.0127(4) 0.1843(4)
H19 H 0.58460 1.01210 0.14050
N6 N 0.2432(5) 1.2660(4) 0.5172(4)
H20 H 0.24270 1.31690 0.52710
N7 N -0.0190(5) 0.6575(4) 0.6437(3)
N8 N 0.1416(5) 0.9652(3) 0.5313(3)
N9 N 0.2012(5) 0.9117(3) 0.4230(3)
H21 H 0.20870 0.87660 0.39220
C33 C 0.5640(8) 1.0091(6) 0.2507(5)
H22 H 0.65280 1.00600 0.24950
C34 C 0.4758(7) 1.0099(5) 0.3211(4)
H23 H 0.50360 1.00960 0.36710
C35 C 0.3446(6) 1.0111(4) 0.3239(3)
C36 C 0.3069(8) 1.0171(5) 0.2528(4)
H24 H 0.21880 1.02100 0.25180
C37 C 0.4017(10) 1.0173(5) 0.1832(4)
H25 H 0.37740 1.02060 0.13520
C38 C 0.2537(5) 0.9907(4) 0.4017(3)
C39 C 0.2157(5) 1.0238(4) 0.4704(3)
C40 C 0.2342(5) 1.1071(4) 0.4841(3)
C41 C 0.2024(6) 1.1150(4) 0.5638(4)
H26 H 0.17710 1.06560 0.60670
C42 C 0.2084(6) 1.1949(5) 0.5790(4)
H27 H 0.18840 1.19970 0.63200
C43 C 0.2795(6) 1.2604(4) 0.4390(4)
H28 H 0.30680 1.31020 0.39730
C44 C 0.2756(5) 1.1810(4) 0.4224(3)
H29 H 0.30090 1.17660 0.36910
C45 C 0.1347(6) 0.8985(4) 0.5014(3)
C46 C 0.0766(5) 0.8172(4) 0.5472(3)
C47 C 0.0187(6) 0.8075(4) 0.6290(3)
H30 H 0.01100 0.85480 0.65260
C48 C -0.0267(6) 0.7276(5) 0.6739(4)
H31 H -0.06500 0.72180 0.72830
C49 C 0.0344(6) 0.6671(4) 0.5655(4)
H32 H 0.04040 0.61880 0.54360
C50 C 0.0816(6) 0.7461(4) 0.5152(3)
H33 H 0.11620 0.75100 0.46040
Nd1* Nd 1.63474(3) 0.696566(18) 0.238154(15)
Nd1A Nd 0.36526(3) 0.303434(18) -0.238154(15)
Nd1A* Nd 0.36526(3) 0.303434(18) 0.761846(15)
Nd2A Nd 0.07691(3) 0.479596(17) -0.115273(15)
Nd2A* Nd 1.07691(3) 0.479596(17) -0.115273(15)
O4A O 1.0694(3) 0.3983(2) 0.0254(2)
O5A O 0.9822(4) 0.3504(2) 0.1549(2)
O11* O 0.4310(4) 0.7949(3) 0.2339(2)
O16A O 0.4613(4) 0.6295(3) 0.3734(2)
O17A O 0.5851(4) 0.7289(3) 0.3703(2)
O21A O 1.1494(3) 0.5535(3) 0.0638(2)
O22A O 0.6900(3) 0.6270(2) 0.1156(2)
O23A O 0.4959(4) 0.6087(3) 0.1920(2)
#END
