
#######################################################################
#
#                 Cambridge Crystallographic Data Centre
#                                CCDC
#
#######################################################################
#
# If this CIF has been generated from an entry in the Cambridge
# Structural Database, then it will include bibliographic, chemical,
# crystal, experimental, refinement or atomic coordinate data resulting
# from the CCDC's data processing and validation procedures.
#
#######################################################################

data_CSD_CIF_AQUQOT
_audit_creation_date 2011-08-02
_audit_creation_method CSD-ConQuest-V1
_database_code_CSD AQUQOT
_database_code_depnum_ccdc_archive 'CCDC 775922'
_chemical_formula_sum 'C36 H38 Mo8 N12 O28'
_chemical_formula_moiety
;
(C12 H10 Mo8 N4 O26 4-)n,2n(C12 H12 N4 2+),2n(H2 O1)
;
_journal_coden_Cambridge 222
_journal_volume 40
_journal_year 2011
_journal_page_first 3176
_journal_name_full 'Dalton Trans. '
loop_
_publ_author_name
"Hong-Ying Zang"
"Ya-Qian Lan"
"Shun-Li Li"
"Guang-Sheng Yang"
"Kui-Zhan Shao"
"Xin-Long Wang"
"Li-Kai Yan"
"Zhong-Min Su"
_chemical_name_systematic
;
catena-(bis(3-(1H-1,2,4-triazol-2-ium-1-ylmethyl)pyridinium) 
bis(\m~4~-oxo)-tetrakis(\m~3~-oxo)-(\m~2~-3-(1H-1,2,4-triazol-1-ylmethyl)pyrid
ine)-hexakis(\m~2~-oxo)-tetradecaoxo-octa-molybdenum dihydrate)
;
_cell_volume   1301.811
_exptl_crystal_colour 'colorless'
_exptl_crystal_density_diffrn 2.36
_exptl_crystal_description 'sheet'
_diffrn_ambient_temperature 293
#These two values have been output from a single CSD field.
_refine_ls_R_factor_gt 0.0375
_refine_ls_wR_factor_gt 0.0375
_symmetry_cell_setting triclinic
_symmetry_space_group_name_H-M 'P -1'
_symmetry_Int_Tables_number 2
loop_
_symmetry_equiv_pos_site_id
_symmetry_equiv_pos_as_xyz
1 x,y,z
2 -x,-y,-z
_cell_length_a 10.3590(12)
_cell_length_b 11.7860(14)
_cell_length_c 12.5130(14)
_cell_angle_alpha 65.003(1)
_cell_angle_beta 70.155(1)
_cell_angle_gamma 83.231(2)
_cell_formula_units_Z 1
loop_
_atom_type_symbol
_atom_type_radius_bond
C 0.68
H 0.23
Mo 1.41
N 0.68
O 0.68
loop_
_atom_site_label
_atom_site_type_symbol
_atom_site_fract_x
_atom_site_fract_y
_atom_site_fract_z
Mo1 Mo 0.16466(5) 0.49446(5) 0.49820(4)
Mo2 Mo 0.00148(5) 0.75244(5) 0.48832(5)
Mo3 Mo 0.28121(6) 0.71537(5) 0.20559(5)
Mo4 Mo 0.16993(6) 0.45407(5) 0.23685(5)
C1 C 0.3848(6) 0.8392(6) 0.3441(6)
H1 H 0.32050 0.90120 0.33010
C2 C 0.5058(7) 0.6794(6) 0.3444(7)
H2 H 0.54100 0.60920 0.32950
C3 C 0.5499(7) 0.7264(6) 0.4073(7)
H3 H 0.61860 0.69600 0.44380
C4 C 0.4853(6) 0.9161(5) 0.4549(5)
C5 C 0.3781(6) 0.9923(6) 0.4809(6)
H4 H 0.29610 0.98670 0.46820
C6 C 0.6065(6) 0.9236(6) 0.4743(6)
H5 H 0.67800 0.87170 0.45700
C7 C -0.2153(7) 0.8109(7) 0.0054(6)
H6 H -0.26430 0.86290 -0.04620
C8 C -0.1630(8) 0.6993(7) 0.0094(7)
H7 H -0.16830 0.65990 -0.03970
C9 C -0.1121(7) 0.7361(6) 0.1476(6)
H8 H -0.07750 0.72820 0.20990
C10 C -0.2174(7) 0.9414(5) 0.1194(5)
C11 C -0.1238(7) 0.9923(6) 0.1435(6)
H9 H -0.03970 0.95520 0.14490
C12 C -0.1559(7) 1.1004(6) 0.1660(6)
H10 H -0.09360 1.13670 0.18200
C13 C -0.2794(7) 1.1508(6) 0.1640(6)
C14 C -0.3770(7) 1.0980(6) 0.1431(6)
H11 H -0.46280 1.13280 0.14540
C15 C -0.3428(6) 0.9924(6) 0.1190(5)
H12 H -0.40470 0.95620 0.10270
C16 C -0.2700(8) 1.2941(7) 0.2626(7)
H13 H -0.20730 1.25140 0.30320
C17 C -0.4141(9) 1.4353(8) 0.1875(8)
H14 H -0.46600 1.50680 0.17010
C18 C -0.4020(8) 1.3495(7) 0.1445(7)
H15 H -0.44670 1.34910 0.09160
N1 N 0.4027(5) 0.7487(5) 0.3053(5)
N2 N 0.4706(5) 0.8303(4) 0.4061(5)
N3 N -0.1006(6) 0.6551(5) 0.0993(5)
H16 H -0.06010 0.58490 0.12060
N4 N -0.1823(5) 0.8324(5) 0.0919(4)
N5 N -0.3156(6) 1.2625(5) 0.1880(5)
N6 N -0.3324(9) 1.3969(7) 0.2655(7)
H17 H -0.32450 1.43480 0.30860
O1 O 0.2706(4) 0.5229(4) 0.5627(4)
O2 O 0.1358(4) 0.6848(3) 0.3827(3)
O3 O 0.1885(6) 1.0903(4) 0.2805(4)
O4 O 0.1414(4) 0.3310(3) 0.5716(3)
O5 O 0.2792(4) 0.5139(3) 0.3372(3)
O6 O 0.2427(5) 0.8695(4) 0.1472(4)
O7 O 0.4360(4) 0.7003(4) 0.1049(4)
O8 O 0.1598(4) 0.6373(4) 0.1730(4)
O9 O -0.0329(4) 0.8953(4) 0.3880(4)
O10 O 0.1058(4) 0.7861(4) 0.5513(4)
O11 O -0.1623(4) 0.7098(3) 0.6332(4)
O12 O 0.0101(4) 0.4605(3) 0.4100(3)
O13 O 0.0456(4) 0.4392(4) 0.1807(4)
O14 O 0.3194(4) 0.4413(4) 0.1324(4)
Mo1A Mo -0.16466(5) 0.50554(5) 0.50180(4)
Mo2A Mo -0.00148(5) 0.24756(5) 0.51168(5)
Mo3A Mo 0.71879(6) 1.28463(5) 0.79441(5)
Mo3A* Mo -0.28121(6) 0.28463(5) 0.79441(5)
Mo4A Mo -0.16993(6) 0.54593(5) 0.76315(5)
C1A C 0.6152(6) 1.1608(6) 0.6559(6)
H1A H 0.67950 1.09880 0.66990
C2A C 0.4942(7) 1.3206(6) 0.6556(7)
H2A H 0.45900 1.39080 0.67050
C3A C 0.4501(7) 1.2736(6) 0.5927(7)
H3A H 0.38140 1.30400 0.55620
C4A C 0.5147(6) 1.0839(5) 0.5451(5)
C5A C 0.6219(6) 1.0077(6) 0.5191(6)
H4A H 0.70390 1.01330 0.53180
C6A C 0.3935(6) 1.0764(6) 0.5257(6)
H5A H 0.32200 1.12830 0.54300
N1A N 0.5973(5) 1.2513(5) 0.6947(5)
N1A* N -0.4027(5) 0.2513(5) 0.6947(5)
N2A N 0.5294(5) 1.1697(4) 0.5939(5)
O1A O -0.2706(4) 0.4771(4) 0.4373(4)
O2A O -0.1358(4) 0.3152(3) 0.6173(3)
O4A O -0.1414(4) 0.6690(3) 0.4284(3)
O5A O -0.2792(4) 0.4861(3) 0.6628(3)
O6A O -0.2427(5) 0.1305(4) 0.8528(4)
O7A O -0.4360(4) 0.2997(4) 0.8951(4)
O8A O -0.1598(4) 0.3627(4) 0.8270(4)
O9A O 0.0329(4) 0.1047(4) 0.6120(4)
O10A O -0.1058(4) 0.2139(4) 0.4487(4)
O11A O 0.1623(4) 0.2902(3) 0.3668(4)
O12A O -0.0101(4) 0.5395(3) 0.5900(3)
O13A O -0.0456(4) 0.5608(4) 0.8193(4)
O14A O -0.3194(4) 0.5587(4) 0.8676(4)
#END
