
#######################################################################
#
#                 Cambridge Crystallographic Data Centre
#                                CCDC
#
#######################################################################
#
# If this CIF has been generated from an entry in the Cambridge
# Structural Database, then it will include bibliographic, chemical,
# crystal, experimental, refinement or atomic coordinate data resulting
# from the CCDC's data processing and validation procedures.
#
#######################################################################

data_CSD_CIF_AQUZIX
_audit_creation_date 2016-07-22
_audit_creation_method CSD-ConQuest-V1
_database_code_CSD AQUZIX
_database_code_depnum_ccdc_archive 'CCDC 1468931'
_chemical_formula_sum 'C66 H51 Ag3 N12 O16'
_chemical_formula_moiety
;
(C24 H20 Ag2 N8 2+)0.5n,n(C54 H37 Ag2 N8 O14 1-),2n(H2 O1)
;
_journal_coden_Cambridge 1350
_journal_volume 18
_journal_year 2016
_journal_page_first 6411
_journal_name_full 'CrystEngComm '
loop_
_publ_author_name
"Yang Song"
"Ruiqing Fan"
"Xi Du"
"Kai Xing"
"Ping Wang"
"Yuwei Dong"
"Yulin Yang"
_chemical_name_systematic
;
catena-[hemikis(bis(\m-1-(4-(1H-imidazol-1-yl)phenyl)-1H-imidazole)-di-silver)
 bis(\m-1-(4-(1H-imidazol-1-yl)phenyl)-1H-imidazole)-(dihydrogen 
3-(3-carboxylatophenoxy)benzene-1,2-dicarboxylato)-(hydrogen 
3-(3-carboxylatophenoxy)benzene-1,2-dicarboxylato)-di-silver dihydrate]
;
_cell_volume   2972.801
_exptl_crystal_colour 'colorless'
_exptl_crystal_density_diffrn 1.778
_exptl_crystal_description 'block'
_diffrn_ambient_temperature 296
#These two values have been output from a single CSD field.
_refine_ls_R_factor_gt 0.0577
_refine_ls_wR_factor_gt 0.0577
_symmetry_cell_setting triclinic
_symmetry_space_group_name_H-M 'P -1'
_symmetry_Int_Tables_number 2
loop_
_symmetry_equiv_pos_site_id
_symmetry_equiv_pos_as_xyz
1 x,y,z
2 -x,-y,-z
_cell_length_a 9.766(9)
_cell_length_b 14.061(13)
_cell_length_c 23.12(2)
_cell_angle_alpha 82.775(12)
_cell_angle_beta 80.273(11)
_cell_angle_gamma 72.370(12)
_cell_formula_units_Z 2
loop_
_atom_type_symbol
_atom_type_radius_bond
C 0.68
H 0.23
Ag 1.45
N 0.68
O 0.68
loop_
_atom_site_label
_atom_site_type_symbol
_atom_site_fract_x
_atom_site_fract_y
_atom_site_fract_z
Ag1 Ag 0.25014(19) 0.24998(14) 0.25002(7)
N1 N 0.2999(14) 0.1358(11) 0.1940(5)
N2 N 0.3680(13) 0.055(1) 0.1139(5)
N3 N 0.1992(14) 0.3641(10) 0.3059(5)
N4 N 0.1320(13) 0.4456(10) 0.3865(5)
C1 C 0.2335(16) 0.0606(13) 0.1995(7)
H1 H 0.16920 0.04700 0.23180
C2 C 0.2775(17) 0.0097(13) 0.1502(6)
H2 H 0.25090 -0.04530 0.14280
C3 C 0.3816(15) 0.1299(10) 0.1406(5)
H3 H 0.43870 0.17170 0.12480
C4 C 0.4365(16) 0.0265(11) 0.0555(6)
C5 C 0.3612(16) -0.0104(12) 0.0222(6)
H4 H 0.26960 -0.01710 0.03680
C6 C 0.5713(17) 0.0374(13) 0.0344(6)
H5 H 0.61840 0.06280 0.05780
C7 C 0.1206(18) 0.3698(14) 0.3599(6)
H6 H 0.06590 0.32680 0.37640
C8 C 0.2250(15) 0.4915(12) 0.3484(6)
H7 H 0.25440 0.54560 0.35520
C9 C 0.2630(18) 0.4402(13) 0.2994(6)
H8 H 0.32380 0.45460 0.26610
C10 C 0.0649(16) 0.4728(11) 0.4448(6)
C11 C -0.0741(15) 0.4637(10) 0.4652(6)
H9 H -0.12340 0.44080 0.44130
C12 C 0.1367(16) 0.5109(12) 0.4787(6)
H10 H 0.22710 0.51930 0.46370
Ag2 Ag 0.39384(15) 0.06520(11) 0.33389(5)
Ag3 Ag -0.10595(15) 0.56513(11) 0.83391(5)
O1 O -0.0747(13) 0.0345(9) 0.0459(4)
O2 O 0.0703(14) -0.0954(11) 0.0959(5)
O3 O -0.0644(11) -0.0260(8) 0.3053(4)
O4 O 0.0810(12) 0.1319(9) 0.3282(4)
H11 H 0.00380 0.15670 0.31510
O5 O 0.1693(12) 0.0193(9) 0.3984(4)
O6 O -0.0533(12) 0.2105(9) 0.4579(4)
O7 O -0.1273(13) 0.1343(9) 0.5415(4)
H12 H -0.16670 0.08990 0.55220
O8 O -0.5772(14) 0.5339(10) 0.5450(5)
O9 O -0.4325(14) 0.4053(11) 0.5949(4)
O10 O -0.5648(11) 0.4743(8) 0.8054(4)
O11 O -0.4218(12) 0.6330(9) 0.8274(4)
O12 O -0.3319(11) 0.5191(9) 0.8986(4)
O13 O -0.5532(13) 0.7102(9) 0.9570(4)
O14 O -0.6269(12) 0.6350(8) 1.0411(4)
H13 H -0.66730 0.59110 1.05170
N5 N 0.4779(15) -0.0662(11) 0.2835(5)
N6 N 0.5640(13) -0.1611(10) 0.2078(5)
N7 N 0.8343(13) -0.2593(10) -0.0218(5)
N8 N 0.8819(14) -0.3236(10) -0.1073(5)
N9 N 0.3852(15) 0.1756(10) 0.3934(6)
N10 N 0.3333(13) 0.2399(10) 0.4803(5)
N11 N 0.0619(13) 0.3414(10) 0.7084(5)
N12 N -0.0233(16) 0.4320(12) 0.7852(6)
C13 C 0.414(2) -0.1429(16) 0.2924(8)
H14 H 0.34790 -0.15320 0.32490
C14 C 0.462(2) -0.2010(14) 0.2462(7)
H15 H 0.43380 -0.25640 0.24070
C15 C 0.5450(16) -0.0830(14) 0.2398(7)
H16 H 0.59450 -0.03700 0.22320
C16 C 0.6369(16) -0.1899(11) 0.1497(6)
C17 C 0.5590(19) -0.2169(12) 0.1130(7)
H17 H 0.46430 -0.21910 0.12580
C18 C 0.6264(18) -0.2407(12) 0.0564(7)
H18 H 0.57550 -0.25780 0.03080
C19 C 0.7688(16) -0.2392(11) 0.0378(6)
C20 C 0.8461(19) -0.2163(12) 0.0770(7)
H19 H 0.94240 -0.21750 0.06510
C21 C 0.7809(18) -0.1914(13) 0.1342(8)
H20 H 0.83230 -0.17660 0.16050
C22 C 0.8035(18) -0.3238(12) -0.0535(6)
H21 H 0.73930 -0.36150 -0.04020
C23 C 0.9399(18) -0.2211(15) -0.0555(7)
H22 H 0.98260 -0.17660 -0.04450
C24 C 0.9679(18) -0.2612(13) -0.1069(7)
H23 H 1.03560 -0.24900 -0.13810
C25 C 0.3048(18) 0.1799(15) 0.4451(7)
H24 H 0.23570 0.14540 0.45650
C26 C 0.4371(19) 0.2791(11) 0.4462(7)
H25 H 0.47990 0.32320 0.45750
C27 C 0.4646(18) 0.2409(13) 0.3929(7)
H26 H 0.52780 0.25670 0.36090
C28 C 0.2637(16) 0.2629(11) 0.5390(6)
C29 C 0.1230(17) 0.2606(12) 0.5566(6)
H27 H 0.07200 0.24340 0.53100
C30 C 0.0580(18) 0.2844(13) 0.6133(6)
H28 H -0.03760 0.28400 0.62540
C31 C 0.1349(16) 0.3089(11) 0.6524(6)
C32 C 0.279(2) 0.3082(13) 0.6331(6)
H29 H 0.33160 0.32410 0.65870
C33 C 0.3462(18) 0.2844(14) 0.5768(7)
H30 H 0.44260 0.28290 0.56460
C34 C -0.034(2) 0.2981(14) 0.7444(7)
H31 H -0.05700 0.24110 0.73820
C35 C -0.088(2) 0.3559(14) 0.7912(7)
H32 H -0.15790 0.34540 0.82220
C36 C 0.0671(16) 0.4230(14) 0.7334(6)
H33 H 0.12330 0.46530 0.71760
C37 C -0.1571(16) 0.0815(12) 0.4493(6)
C38 C -0.2808(16) 0.0530(13) 0.4721(6)
H34 H -0.32740 0.06890 0.50970
C39 C -0.3357(15) 0.0006(11) 0.4387(6)
H35 H -0.41990 -0.01710 0.45370
C40 C -0.2647(15) -0.0255(11) 0.3829(6)
H36 H -0.30000 -0.06150 0.36090
C41 C -0.1401(15) 0.0031(11) 0.3605(6)
C42 C -0.0854(15) 0.0563(12) 0.3928(5)
C43 C -0.1075(16) 0.1466(12) 0.4826(7)
C44 C 0.0644(17) 0.0727(12) 0.3711(6)
C45 C -0.1296(17) 0.0238(12) 0.2553(6)
C46 C -0.2445(17) 0.1107(12) 0.2561(7)
H37 H -0.28760 0.13890 0.29140
C47 C -0.2938(18) 0.1543(14) 0.2042(7)
H38 H -0.37260 0.21150 0.20430
C48 C -0.2255(19) 0.1127(15) 0.1513(7)
H39 H -0.25790 0.14350 0.11610
C49 C -0.1069(17) 0.0239(12) 0.1506(6)
C50 C -0.0615(15) -0.0178(12) 0.2026(6)
H40 H 0.01670 -0.07540 0.20310
C51 C -0.0298(18) -0.0183(13) 0.0932(6)
C52 C -0.6576(16) 0.5796(12) 0.9497(6)
C53 C -0.7860(16) 0.5529(12) 0.9697(6)
H41 H -0.83850 0.57200 1.00590
C54 C -0.8354(18) 0.4985(13) 0.9365(7)
H42 H -0.91750 0.47810 0.95110
C55 C -0.7627(17) 0.4749(13) 0.8818(6)
H43 H -0.79480 0.43800 0.85920
C56 C -0.6420(18) 0.5060(13) 0.8606(6)
C57 C -0.5814(16) 0.5549(11) 0.8932(6)
C58 C -0.6059(17) 0.6467(14) 0.9827(6)
C59 C -0.4332(18) 0.5726(13) 0.8709(7)
C60 C -0.6268(17) 0.5233(12) 0.7564(6)
C61 C -0.7437(18) 0.6089(14) 0.7574(6)
H44 H -0.78820 0.63540 0.79300
C62 C -0.7950(18) 0.6558(13) 0.7050(6)
H45 H -0.87370 0.71320 0.70610
C63 C -0.7294(16) 0.6172(11) 0.6512(6)
H46 H -0.76330 0.64910 0.61650
C64 C -0.6166(16) 0.5335(11) 0.6498(6)
C65 C -0.5632(17) 0.4812(12) 0.7027(6)
H47 H -0.48880 0.42140 0.70150
C66 C -0.5313(18) 0.4847(12) 0.5932(6)
O15 O -0.2431(12) 0.2631(9) 0.6293(5)
H48 H -0.29620 0.28510 0.66070
H49 H -0.28210 0.29470 0.59960
O16 O 0.2585(12) -0.2385(9) 0.1301(5)
H50 H 0.20960 -0.22310 0.16340
H51 H 0.21510 -0.20100 0.10300
N1A N 0.7001(14) -0.1358(11) -0.1940(5)
N2A N 0.6320(13) -0.055(1) -0.1139(5)
C1A C 0.7665(16) -0.0606(13) -0.1995(7)
H1A H 0.83080 -0.04700 -0.23180
C2A C 0.7225(17) -0.0097(13) -0.1502(6)
H2A H 0.74910 0.04530 -0.14280
C3A C 0.6184(15) -0.1299(10) -0.1406(5)
H3A H 0.56130 -0.17170 -0.12480
C4A C 0.5635(16) -0.0265(11) -0.0555(6)
C5A C 0.6388(16) 0.0104(12) -0.0222(6)
H4A H 0.73040 0.01710 -0.03680
C6A C 0.4287(17) -0.0374(13) -0.0344(6)
H5A H 0.38160 -0.06280 -0.05780
N3A N -0.1992(14) 0.6359(10) 0.6941(5)
N4A N -0.1320(13) 0.5544(10) 0.6135(5)
C7A C -0.1206(18) 0.6302(14) 0.6401(6)
H6A H -0.06590 0.67320 0.62360
C8A C -0.2250(15) 0.5085(12) 0.6516(6)
H7A H -0.25440 0.45440 0.64480
C9A C -0.2630(18) 0.5598(13) 0.7006(6)
H8A H -0.32380 0.54540 0.73390
C10A C -0.0649(16) 0.5272(11) 0.5552(6)
C11A C 0.0741(15) 0.5363(10) 0.5348(6)
H9A H 0.12340 0.55920 0.55870
C12A C -0.1367(16) 0.4891(12) 0.5213(6)
H10A H -0.22710 0.48070 0.53630
Ag1A Ag -0.25014(19) 0.75002(14) 0.74998(7)
Ag1A* Ag 0.74986(19) -0.24998(14) -0.25002(7)
N1A* N -0.2999(14) 0.8642(11) 0.8060(5)
Ag3* Ag 0.89405(15) -0.43487(11) -0.16609(5)
N8* N -0.1181(14) 0.6764(10) 0.8927(5)
#END
