
#######################################################################
#
#                 Cambridge Crystallographic Data Centre
#                                CCDC
#
#######################################################################
#
# If this CIF has been generated from an entry in the Cambridge
# Structural Database, then it will include bibliographic, chemical,
# crystal, experimental, refinement or atomic coordinate data resulting
# from the CCDC's data processing and validation procedures.
#
#######################################################################

data_CSD_CIF_ARADEE
_audit_creation_date 2016-07-22
_audit_creation_method CSD-ConQuest-V1
_database_code_CSD ARADEE
_database_code_depnum_ccdc_archive 'CCDC 1028911'
_chemical_formula_sum 'C32 H35 Cd3 N7 O14'
_chemical_formula_moiety
;
H4 N1 1+,n(C32 H28 Cd3 N5 O14 1-),H3 N1
;
_journal_coden_Cambridge 923
_journal_volume 46
_journal_year 2016
_journal_page_first 1701
_journal_name_full 'Synth.React.Inorg.,Met.-Org.,Nano-Met.Chem. '
loop_
_publ_author_name
"Zhuo-Wen Fan"
"Long Li"
"Kuo Cui"
"Shuang-Shuan Yang"
"Fu-Qin Han"
_chemical_name_systematic
;
catena-[Ammonium 
bis(\m-benzene-1,3,5-tricarboxylato)-(\m-1,2,3-benzenetriazolyl)-bis(N,N-dimet
hylacetamide)-tri-cadmium(iii) ammonia]
;
_cell_volume   4887.570
_exptl_crystal_colour 'colorless'
_exptl_special_details
;
The paper refers to the SQUEEZEd molecules as both NH3 (ammonia) and ammonium 
cations. For charge balance requirements it has been assumed the framework 
contains both ammonia and ammonium
;
_exptl_crystal_description 'block'
_diffrn_ambient_temperature 293
_refine_special_details
;
Disordered cation and solvent molecules were not modelled and the disordered 
density was taken into account using the SQUEEZE/PLATON procedure.
;
#These two values have been output from a single CSD field.
_refine_ls_R_factor_gt 0.04
_refine_ls_wR_factor_gt 0.04
_symmetry_cell_setting monoclinic
_symmetry_space_group_name_H-M 'C 2/c'
_symmetry_Int_Tables_number 15
loop_
_symmetry_equiv_pos_site_id
_symmetry_equiv_pos_as_xyz
1 x,y,z
2 -x,y,1/2-z
3 1/2+x,1/2+y,z
4 1/2-x,1/2+y,1/2-z
5 -x,-y,-z
6 x,-y,-1/2+z
7 -1/2-x,-1/2-y,-z
8 -1/2+x,-1/2-y,-1/2+z
_cell_length_a 21.7899(9)
_cell_length_b 16.6337(10)
_cell_length_c 13.5149(7)
_cell_angle_alpha 90
_cell_angle_beta 93.816(4)
_cell_angle_gamma 90
_cell_formula_units_Z 4
loop_
_atom_type_symbol
_atom_type_radius_bond
C 0.68
H 0.23
Cd 1.44
N 0.68
O 0.68
loop_
_atom_site_label
_atom_site_type_symbol
_atom_site_fract_x
_atom_site_fract_y
_atom_site_fract_z
Cd1 Cd 0.50000 0.13271(3) 0.25000
Cd2 Cd 0.643319(14) 0.249554(18) 0.26697(2)
C1 C 0.58457(19) 0.1111(3) 0.4147(3)
C2 C 0.6360(2) -0.0954(3) 0.6799(3)
C3 C 0.7677(2) 0.1496(3) 0.6549(4)
C4 C 0.62431(19) 0.0825(3) 0.5047(3)
C5 C 0.61005(18) 0.0106(3) 0.5520(3)
H1 H 0.57570 -0.01920 0.52980
C6 C 0.64778(18) -0.0157(3) 0.6326(3)
C7 C 0.69830(19) 0.0296(3) 0.6646(3)
H2 H 0.72370 0.01140 0.71790
C8 C 0.71218(18) 0.1015(3) 0.6195(3)
C9 C 0.67440(19) 0.1278(3) 0.5390(3)
H3 H 0.68290 0.17620 0.50820
C10 C 0.5314(2) 0.3918(3) 0.2509(3)
C11 C 0.5659(2) 0.4641(3) 0.2509(4)
H4 H 0.60860 0.46410 0.25140
C12 C 0.5329(2) 0.5333(3) 0.2500(5)
H5 H 0.55360 0.58220 0.24940
N1 N 0.50000 0.2704(3) 0.25000
N2 N 0.55048(15) 0.3143(2) 0.2511(3)
O1 O 0.58995(14) 0.1829(2) 0.3894(2)
O2 O 0.54867(15) 0.0621(2) 0.3727(3)
O3 O 0.58608(15) -0.1312(2) 0.6593(2)
O4 O 0.67820(16) -0.1246(2) 0.7359(3)
O5 O 0.80588(18) 0.1168(3) 0.7154(4)
O6 O 0.77364(18) 0.2184(2) 0.6258(3)
O7 O 0.6803(4) 0.2749(5) 0.1173(5)
N3 N 0.6924(6) 0.3736(7) 0.0128(7)
C13 C 0.6622(6) 0.3091(7) 0.0673(9)
C14 C 0.6039(7) 0.3409(10) 0.0078(8)
H6 H 0.56890 0.30980 0.02420
H7 H 0.60920 0.33620 -0.06200
H8 H 0.59750 0.39630 0.02410
C15 C 0.6865(7) 0.4250(9) -0.0767(9)
H9 H 0.64420 0.42660 -0.10180
H10 H 0.71120 0.40340 -0.12650
H11 H 0.70010 0.47850 -0.05980
C16 C 0.7561(6) 0.3688(10) 0.0577(11)
H12 H 0.75720 0.33440 0.11480
H13 H 0.77000 0.42160 0.07720
H14 H 0.78250 0.34730 0.01010
C10A C 0.4686(2) 0.3918(3) 0.2491(3)
C11A C 0.4341(2) 0.4641(3) 0.2491(4)
H4A H 0.39140 0.46410 0.24860
C12A C 0.4671(2) 0.5333(3) 0.2500(5)
H5A H 0.44640 0.58220 0.25060
N2A N 0.44952(15) 0.3143(2) 0.2489(3)
Cd2A Cd 0.356681(14) 0.249554(18) 0.23303(2)
C1A C 0.41543(19) 0.1111(3) 0.0853(3)
C2A C 0.3640(2) -0.0954(3) -0.1799(3)
C3A C 0.2323(2) 0.1496(3) -0.1549(4)
C4A C 0.37569(19) 0.0825(3) -0.0047(3)
C5A C 0.38995(18) 0.0106(3) -0.0520(3)
H1A H 0.42430 -0.01920 -0.02980
C6A C 0.35222(18) -0.0157(3) -0.1326(3)
C7A C 0.30170(19) 0.0296(3) -0.1646(3)
H2A H 0.27630 0.01140 -0.21790
C8A C 0.28782(18) 0.1015(3) -0.1195(3)
C9A C 0.32560(19) 0.1278(3) -0.0390(3)
H3A H 0.31710 0.17620 -0.00820
O1A O 0.41005(14) 0.1829(2) 0.1106(2)
O2A O 0.45133(15) 0.0621(2) 0.1273(3)
O3A O 0.41392(15) -0.1312(2) -0.1593(2)
O4A O 0.32180(16) -0.1246(2) -0.2359(3)
O5A O 0.19412(18) 0.1168(3) -0.2154(4)
O6A O 0.22636(18) 0.2184(2) -0.1258(3)
O7A O 0.3197(4) 0.2749(5) 0.3827(5)
N3A N 0.3076(6) 0.3736(7) 0.4872(7)
C13A C 0.3378(6) 0.3091(7) 0.4327(9)
C14A C 0.3961(7) 0.3409(10) 0.4922(8)
H6A H 0.43110 0.30980 0.47580
H7A H 0.39080 0.33620 0.56200
H8A H 0.40250 0.39630 0.47590
C15A C 0.3135(7) 0.4250(9) 0.5767(9)
H9A H 0.35580 0.42660 0.60180
H10A H 0.28880 0.40340 0.62650
H11A H 0.29990 0.47850 0.55980
C16A C 0.2439(6) 0.3688(10) 0.4423(11)
H12A H 0.24280 0.33440 0.38520
H13A H 0.23000 0.42160 0.42280
H14A H 0.21750 0.34730 0.48990
Cd1D Cd 0.50000 -0.13271(3) -0.25000
Cd1D* Cd 0.50000 -0.13271(3) 0.75000
Cd2D Cd 0.356681(14) -0.249554(18) -0.26697(2)
Cd2E Cd 0.643319(14) -0.249554(18) 0.76697(2)
Cd2F Cd 0.856681(14) 0.250446(18) 0.73303(2)
Cd2G Cd 0.143319(14) 0.250446(18) -0.23303(2)
O3D O 0.41392(15) 0.1312(2) 0.3407(2)
O3E O 0.58608(15) 0.1312(2) 0.1593(2)
O4D O 0.32180(16) 0.1246(2) 0.2641(3)
O4E O 0.67820(16) 0.1246(2) 0.2359(3)
O5F O 0.69412(18) 0.3832(3) 0.2846(4)
O5G O 0.30588(18) 0.3832(3) 0.2154(4)
O6F O 0.72636(18) 0.2816(2) 0.3742(3)
O6G O 0.27364(18) 0.2816(2) 0.1258(3)
#END
