
#######################################################################
#
#                 Cambridge Crystallographic Data Centre
#                                CCDC
#
#######################################################################
#
# If this CIF has been generated from an entry in the Cambridge
# Structural Database, then it will include bibliographic, chemical,
# crystal, experimental, refinement or atomic coordinate data resulting
# from the CCDC's data processing and validation procedures.
#
#######################################################################

data_CSD_CIF_ARAPER
_audit_creation_date 2021-04-21
_audit_creation_method CSD-ConQuest-V1
_database_code_CSD ARAPER
_database_code_depnum_ccdc_archive 'CCDC 2057796'
_chemical_formula_sum 'C84 H80 N10 Ni2 O52 U7'
_chemical_formula_moiety
;
(C64 H32 N2 O52 U7 4-)n,2(C10 H24 N4 Ni1 2+)
;
_journal_coden_Cambridge 1147
_journal_year 2021
_journal_name_full 'Cryst.Growth Des. '
loop_
_publ_author_name
"P.Thuery"
"J.Harrowfield"
_chemical_name_systematic
;
catena-[bis((1,4,8,11-tetraazacyclotetradecane)-nickel(ii)) 
octakis(\m-benzene-1,2-dicarboxylato)-bis(nitrato)-tetradecaoxo-hepta-uranium(
vi)]
;
_cell_volume   2478.938
_exptl_crystal_colour 'light orange'
_exptl_crystal_density_diffrn 2.576
_exptl_crystal_description 'parallelepiped'
_diffrn_ambient_temperature 100
#These two values have been output from a single CSD field.
_refine_ls_R_factor_gt 0.0293
_refine_ls_wR_factor_gt 0.0293
_symmetry_cell_setting triclinic
_symmetry_space_group_name_H-M 'P -1'
_symmetry_Int_Tables_number 2
loop_
_symmetry_equiv_pos_site_id
_symmetry_equiv_pos_as_xyz
1 x,y,z
2 -x,-y,-z
_cell_length_a 9.7965(3)
_cell_length_b 12.9433(4)
_cell_length_c 21.0165(6)
_cell_angle_alpha 91.9867(13)
_cell_angle_beta 95.7230(13)
_cell_angle_gamma 110.3668(14)
_cell_formula_units_Z 1
loop_
_atom_type_symbol
_atom_type_radius_bond
C 0.68
H 0.23
N 0.68
Ni 1.24
O 0.68
U 1.96
loop_
_atom_site_label
_atom_site_type_symbol
_atom_site_fract_x
_atom_site_fract_y
_atom_site_fract_z
U1 U 0.53712(3) 0.37919(2) 0.40666(2)
U2 U 0.80360(3) 0.51655(2) 0.19619(2)
U3 U 1.00185(2) 0.80277(2) 0.00971(2)
U4 U 0.50000 0.00000 0.50000
O1 O 0.4230(5) 0.3920(4) 0.3384(2)
O2 O 0.6519(5) 0.3693(4) 0.4748(2)
O3 O 0.6406(5) 0.4996(4) 0.1466(2)
O4 O 0.9670(7) 0.5391(4) 0.2477(2)
O5 O 0.8470(5) 0.7980(4) -0.0427(2)
O6 O 1.1580(5) 0.8110(4) 0.0623(2)
O7 O 0.5283(6) -0.1196(4) 0.4700(2)
O8 O 0.6482(6) 0.2925(4) 0.3375(2)
O9 O 0.6590(9) 0.3542(5) 0.2402(3)
O10 O 0.4060(5) 0.1877(4) 0.3947(2)
O11 O 0.4573(6) 0.0335(4) 0.3876(2)
O12 O 0.7462(5) 0.5187(4) 0.3769(2)
O13 O 0.7150(7) 0.5873(4) 0.2834(2)
O14 O 0.5437(5) 0.5633(4) 0.4353(2)
O15 O 0.6561(5) 0.6543(4) 0.5291(2)
O16 O 0.8519(5) 0.3559(4) 0.1568(2)
O17 O 0.9226(5) 0.2632(3) 0.0855(2)
O18 O 0.9295(5) 0.5523(3) 0.10411(19)
O19 O 0.9190(5) 0.6051(4) 0.0046(2)
O20 O 0.8706(5) 0.7092(4) 0.1889(2)
O21 O 0.8354(5) 0.7433(3) 0.0871(2)
O22 O 0.9922(4) 0.9529(3) 0.07345(19)
O23 O 0.8468(5) 1.0446(3) 0.0400(2)
O24 O 0.7171(6) 0.1261(5) 0.4533(3)
O25 O 0.7585(6) 0.0882(5) 0.5507(3)
O26 O 0.9259(7) 0.2187(5) 0.5101(3)
N1 N 0.8049(7) 0.1466(5) 0.5045(3)
C1 C 0.4741(9) 0.1854(6) 0.2517(3)
C2 C 0.4009(8) 0.1036(6) 0.2907(3)
C3 C 0.2900(8) 0.0082(7) 0.2627(4)
H1 H 0.24226 -0.04867 0.28879
C4 C 0.2486(10) -0.0045(9) 0.1968(4)
H2 H 0.17197 -0.06950 0.17833
C5 C 0.3173(12) 0.0757(9) 0.1589(4)
H3 H 0.28739 0.06742 0.11398
C6 C 0.4305(12) 0.1694(8) 0.1855(4)
H4 H 0.47974 0.22399 0.15842
C7 C 0.6040(11) 0.2844(6) 0.2784(4)
C8 C 0.4271(7) 0.1104(5) 0.3629(3)
C9 C 0.7946(7) 0.7108(5) 0.3759(3)
C10 C 0.7509(8) 0.7312(5) 0.4355(3)
C11 C 0.8030(9) 0.8385(6) 0.4634(3)
H5 H 0.77683 0.85292 0.50421
C12 C 0.8928(9) 0.9251(6) 0.4325(4)
H6 H 0.92304 0.99871 0.45114
C13 C 0.9380(9) 0.9044(6) 0.3750(4)
H7 H 1.00209 0.96327 0.35459
C14 C 0.8901(8) 0.7983(6) 0.3471(3)
H8 H 0.92254 0.78428 0.30772
C15 C 0.7477(7) 0.5976(5) 0.3434(3)
C16 C 0.6439(7) 0.6430(5) 0.4686(3)
C17 C 0.7351(7) 0.3324(5) 0.0497(3)
C18 C 0.7488(7) 0.4329(5) 0.0238(3)
C19 C 0.6409(7) 0.4396(6) -0.0223(3)
H9 H 0.65231 0.50760 -0.04074
C20 C 0.5171(8) 0.3478(7) -0.0414(4)
H10 H 0.44132 0.35377 -0.07134
C21 C 0.5036(8) 0.2472(6) -0.0169(3)
H11 H 0.41936 0.18381 -0.03065
C22 C 0.6128(7) 0.2388(6) 0.0277(3)
H12 H 0.60450 0.16917 0.04330
C23 C 0.8447(7) 0.3172(4) 0.0994(3)
C24 C 0.8743(7) 0.5366(5) 0.0458(3)
C25 C 0.7859(7) 0.8561(5) 0.1670(3)
C26 C 0.7964(7) 0.9490(5) 0.1331(3)
C27 C 0.7287(9) 1.0204(6) 0.1537(4)
H13 H 0.73436 1.08346 0.13075
C28 C 0.6531(10) 1.0011(7) 0.2071(4)
H14 H 0.60504 1.04940 0.21974
C29 C 0.6481(10) 0.9117(7) 0.2418(4)
H15 H 0.60249 0.90098 0.28006
C30 C 0.7095(8) 0.8379(6) 0.2205(3)
H16 H 0.69960 0.77342 0.24273
C31 C 0.8367(6) 0.7652(5) 0.1457(3)
C32 C 0.8844(7) 0.9827(5) 0.0781(3)
Ni1 Ni 0.17295(10) 0.45262(7) 0.30237(4)
N2 N 0.3120(8) 0.5519(5) 0.2537(3)
H17 H 0.40606 0.54570 0.27304
N3 N 0.1268(8) 0.3436(7) 0.2303(4)
H18 H 0.03436 0.34592 0.20658
N4 N 0.0263(9) 0.3555(6) 0.3488(4)
H19 H -0.06435 0.36229 0.32588
N5 N 0.2224(7) 0.5642(5) 0.3734(3)
H20 H 0.30552 0.55481 0.40131
C33 C 0.3038(16) 0.5105(9) 0.1884(5)
H21 H 0.40195 0.54131 0.17371
H22 H 0.23589 0.53625 0.16080
C34 C 0.2539(10) 0.3913(8) 0.1811(5)
H23 H 0.33672 0.36560 0.19229
H24 H 0.21186 0.36456 0.13626
C35 C 0.1004(12) 0.2321(8) 0.2374(5)
H25 H 0.19024 0.22219 0.25777
H26 H 0.07205 0.19022 0.19496
C36 C -0.0140(17) 0.1926(9) 0.2763(5)
H27 H -0.03155 0.11294 0.27948
H28 H -0.10296 0.19719 0.25161
C37 C -0.0088(11) 0.2378(7) 0.3400(4)
H29 H 0.06449 0.21837 0.36813
H30 H -0.10546 0.20101 0.35508
C38 C 0.0250(16) 0.4018(8) 0.4101(5)
H31 H 0.08474 0.37578 0.44204
H32 H -0.07680 0.37620 0.42120
C39 C 0.0847(11) 0.5263(9) 0.4134(5)
H33 H 0.11536 0.55651 0.45860
H34 H 0.00831 0.55422 0.39507
C40 C 0.2615(13) 0.6801(8) 0.3679(6)
H35 H 0.17531 0.69618 0.34861
H36 H 0.29337 0.71974 0.41096
C41 C 0.3770(14) 0.7173(11) 0.3288(5)
H37 H 0.46072 0.69893 0.34885
H38 H 0.40914 0.79890 0.32990
C42 C 0.3468(15) 0.6741(9) 0.2611(6)
H39 H 0.43352 0.71152 0.23894
H40 H 0.26320 0.69160 0.24018
U1A U 0.46288(3) -0.37919(2) 0.59334(2)
U2A U 0.19640(3) -0.51655(2) 0.80381(2)
U3A U -0.00185(2) -0.80277(2) 0.99029(2)
O1A O 0.5770(5) -0.3920(4) 0.6616(2)
O2A O 0.3481(5) -0.3693(4) 0.5252(2)
O3A O 0.3594(5) -0.4996(4) 0.8534(2)
O4A O 0.0330(7) -0.5391(4) 0.7523(2)
O5A O 0.1530(5) -0.7980(4) 1.0427(2)
O6A O -0.1580(5) -0.8110(4) 0.9377(2)
O7A O 0.4717(6) 0.1196(4) 0.5300(2)
O8A O 0.3518(6) -0.2925(4) 0.6625(2)
O9A O 0.3410(9) -0.3542(5) 0.7598(3)
O10A O 0.5940(5) -0.1877(4) 0.6053(2)
O11A O 0.5427(6) -0.0335(4) 0.6124(2)
O12A O 0.2538(5) -0.5187(4) 0.6231(2)
O13A O 0.2850(7) -0.5873(4) 0.7166(2)
O14A O 0.4563(5) -0.5633(4) 0.5647(2)
O15A O 0.3439(5) -0.6543(4) 0.4709(2)
O16A O 0.1481(5) -0.3559(4) 0.8432(2)
O17A O 0.0774(5) -0.2632(3) 0.9145(2)
O18A O 0.0705(5) -0.5523(3) 0.89589(19)
O19A O 0.0810(5) -0.6051(4) 0.9954(2)
O20A O 0.1294(5) -0.7092(4) 0.8111(2)
O21A O 0.1646(5) -0.7433(3) 0.9129(2)
O22A O 0.0078(4) -0.9529(3) 0.92655(19)
O23A O 0.1532(5) -1.0446(3) 0.9600(2)
O24A O 0.2829(6) -0.1261(5) 0.5467(3)
O25A O 0.2415(6) -0.0882(5) 0.4493(3)
O26A O 0.0741(7) -0.2187(5) 0.4899(3)
N1A N 0.1951(7) -0.1466(5) 0.4955(3)
C1A C 0.5259(9) -0.1854(6) 0.7483(3)
C2A C 0.5991(8) -0.1036(6) 0.7093(3)
C3A C 0.7100(8) -0.0082(7) 0.7373(4)
H1A H 0.75774 0.04867 0.71121
C4A C 0.7514(10) 0.0045(9) 0.8032(4)
H2A H 0.82803 0.06950 0.82167
C5A C 0.6827(12) -0.0757(9) 0.8411(4)
H3A H 0.71261 -0.06742 0.88601
C6A C 0.5695(12) -0.1694(8) 0.8145(4)
H4A H 0.52026 -0.22399 0.84159
C7A C 0.3960(11) -0.2844(6) 0.7216(4)
C8A C 0.5729(7) -0.1104(5) 0.6371(3)
C9A C 0.2054(7) -0.7108(5) 0.6241(3)
C10A C 0.2491(8) -0.7312(5) 0.5645(3)
C11A C 0.1970(9) -0.8385(6) 0.5366(3)
H5A H 0.22317 -0.85292 0.49579
C12A C 0.1072(9) -0.9251(6) 0.5675(4)
H6A H 0.07696 -0.99871 0.54886
C13A C 0.0620(9) -0.9044(6) 0.6250(4)
H7A H -0.00209 -0.96327 0.64541
C14A C 0.1099(8) -0.7983(6) 0.6529(3)
H8A H 0.07746 -0.78428 0.69228
C15A C 0.2523(7) -0.5976(5) 0.6566(3)
C16A C 0.3561(7) -0.6430(5) 0.5314(3)
C17A C 0.2649(7) -0.3324(5) 0.9503(3)
C18A C 0.2512(7) -0.4329(5) 0.9762(3)
C19A C 0.3591(7) -0.4396(6) 1.0223(3)
H9A H 0.34769 -0.50760 1.04074
C20A C 0.4829(8) -0.3478(7) 1.0414(4)
H10A H 0.55868 -0.35377 1.07134
C21A C 0.4964(8) -0.2472(6) 1.0169(3)
H11A H 0.58064 -0.18381 1.03065
C22A C 0.3872(7) -0.2388(6) 0.9723(3)
H12A H 0.39550 -0.16917 0.95670
C23A C 0.1553(7) -0.3172(4) 0.9006(3)
C24A C 0.1257(7) -0.5366(5) 0.9542(3)
C25A C 0.2141(7) -0.8561(5) 0.8330(3)
C26A C 0.2036(7) -0.9490(5) 0.8669(3)
C27A C 0.2713(9) -1.0204(6) 0.8463(4)
H13A H 0.26564 -1.08346 0.86925
C28A C 0.3469(10) -1.0011(7) 0.7929(4)
H14A H 0.39496 -1.04940 0.78026
C29A C 0.3519(10) -0.9117(7) 0.7582(4)
H15A H 0.39751 -0.90098 0.71994
C30A C 0.2905(8) -0.8379(6) 0.7795(3)
H16A H 0.30040 -0.77342 0.75727
C31A C 0.1633(6) -0.7652(5) 0.8543(3)
C32A C 0.1156(7) -0.9827(5) 0.9219(3)
U1* U 0.53712(3) -0.62081(2) 0.40666(2)
U1A* U 0.46288(3) 0.62081(2) 0.59334(2)
U3* U 0.00185(2) -1.19723(2) 1.00971(2)
U3** U 0.00185(2) -0.19723(2) 1.00971(2)
U3A* U 0.99815(2) 0.19723(2) -0.00971(2)
U3A** U 0.99815(2) 1.19723(2) -0.00971(2)
O15* O 0.6561(5) -0.3457(4) 0.5291(2)
O15A* O 0.3439(5) 0.3457(4) 0.4709(2)
O17* O -0.0774(5) -0.7368(3) 1.0855(2)
O17A* O 1.0774(5) 0.7368(3) -0.0855(2)
O23* O -0.1532(5) -0.9554(3) 1.0400(2)
O23A* O 1.1532(5) 0.9554(3) -0.0400(2)
#END
