
#######################################################################
#
#                 Cambridge Crystallographic Data Centre
#                                CCDC
#
#######################################################################
#
# If this CIF has been generated from an entry in the Cambridge
# Structural Database, then it will include bibliographic, chemical,
# crystal, experimental, refinement or atomic coordinate data resulting
# from the CCDC's data processing and validation procedures.
#
#######################################################################

data_CSD_CIF_ARATOF
_audit_creation_date 2021-04-21
_audit_creation_method CSD-ConQuest-V1
_database_code_CSD ARATOF
_database_code_depnum_ccdc_archive 'CCDC 2057793'
_chemical_formula_sum 'C60 H48 N6 Ni1 O25 U3'
_chemical_formula_moiety
;
(C36 H24 N6 Ni1 2+)n,n(C24 H12 O19 U3 2-),6n(H2 O1)
;
_journal_coden_Cambridge 1147
_journal_year 2021
_journal_name_full 'Cryst.Growth Des. '
loop_
_publ_author_name
"P.Thuery"
"J.Harrowfield"
_chemical_name_systematic
;
catena-(tris(1,10-phenanthroline)-nickel 
(\m-oxo)-tris(\m-phthalato)-hexaoxo-tri-uranium hexahydrate)
;
_cell_volume   3253.227
_exptl_crystal_colour 'light orange'
_exptl_crystal_density_diffrn 2.068
_exptl_crystal_description 'irregular'
_diffrn_ambient_temperature 100
#These two values have been output from a single CSD field.
_refine_ls_R_factor_gt 0.0221
_refine_ls_wR_factor_gt 0.0221
_symmetry_cell_setting triclinic
_symmetry_space_group_name_H-M 'P -1'
_symmetry_Int_Tables_number 2
loop_
_symmetry_equiv_pos_site_id
_symmetry_equiv_pos_as_xyz
1 x,y,z
2 -x,-y,-z
_cell_length_a 13.4424(5)
_cell_length_b 16.6043(5)
_cell_length_c 16.6449(6)
_cell_angle_alpha 118.7976(13)
_cell_angle_beta 90.3785(17)
_cell_angle_gamma 91.7473(16)
_cell_formula_units_Z 2
loop_
_atom_type_symbol
_atom_type_radius_bond
C 0.68
H 0.23
N 0.68
Ni 1.24
O 0.68
U 1.96
loop_
_atom_site_label
_atom_site_type_symbol
_atom_site_fract_x
_atom_site_fract_y
_atom_site_fract_z
U1 U 0.43542(2) 0.91005(2) 0.59132(2)
U2 U 0.43985(2) 0.91099(2) 0.82432(2)
U3 U 0.43993(2) 0.68250(2) 0.59792(2)
O1 O 0.3034(2) 0.91933(19) 0.59320(19)
O2 O 0.5671(2) 0.90532(19) 0.5875(2)
O3 O 0.3076(2) 0.90129(19) 0.82977(19)
O4 O 0.5715(2) 0.92264(19) 0.8264(2)
O5 O 0.3076(2) 0.66486(19) 0.5933(2)
O6 O 0.5712(2) 0.69372(19) 0.5963(2)
O7 O 0.4408(2) 1.01611(18) 0.75776(18)
O8 O 0.4035(2) 1.16459(18) 0.8334(2)
O9 O 0.4614(2) 1.06219(18) 0.61658(19)
O10 O 0.5815(2) 1.11578(19) 0.56175(19)
O11 O 0.4601(2) 0.88063(18) 0.94803(18)
O12 O 0.5826(2) 0.93751(19) 1.05328(19)
O13 O 0.4495(2) 0.74458(18) 0.76459(19)
O14 O 0.3831(2) 0.6625(2) 0.8265(2)
O15 O 0.5491(3) 0.44436(19) 0.3742(2)
O16 O 0.4461(2) 0.55727(18) 0.44724(19)
O17 O 0.4274(2) 0.74270(18) 0.48964(18)
O18 O 0.3755(2) 0.6714(2) 0.3430(2)
O19 O 0.4281(2) 0.83433(17) 0.67116(17)
C1 C 0.5687(3) 1.1319(3) 0.7866(3)
C2 C 0.6069(3) 1.1340(3) 0.7097(3)
C3 C 0.7032(3) 1.1691(3) 0.7132(3)
H1 H 0.72819 1.17172 0.66124
C4 C 0.7631(4) 1.2003(3) 0.7913(3)
H2 H 0.82919 1.22306 0.79280
C5 C 0.7248(4) 1.1977(4) 0.8677(3)
H3 H 0.76522 1.21895 0.92165
C6 C 0.6291(3) 1.1649(3) 0.8660(3)
H4 H 0.60377 1.16459 0.91902
C7 C 0.4628(3) 1.1041(2) 0.7926(3)
C8 C 0.5458(3) 1.1014(3) 0.6233(3)
C9 C 0.5967(3) 0.7861(3) 0.9335(3)
C10 C 0.5532(3) 0.7076(3) 0.8586(3)
C11 C 0.6039(4) 0.6262(3) 0.8221(3)
H5 H 0.57386 0.57200 0.77325
C12 C 0.6974(4) 0.6224(3) 0.8553(4)
H6 H 0.73180 0.56663 0.82806
C13 C 0.7404(4) 0.7004(3) 0.9284(4)
H7 H 0.80461 0.69837 0.95151
C14 C 0.6896(3) 0.7808(3) 0.9674(3)
H8 H 0.71860 0.83367 1.01856
C15 C 0.5427(3) 0.8746(3) 0.9812(3)
C16 C 0.4530(3) 0.7051(2) 0.8162(3)
C17 C 0.5823(3) 0.5808(3) 0.3694(3)
C18 C 0.5452(3) 0.6600(3) 0.3723(3)
C19 C 0.6048(4) 0.7099(3) 0.3431(4)
H9 H 0.58027 0.76351 0.34424
C20 C 0.6998(4) 0.6827(4) 0.3125(5)
H10 H 0.74045 0.71838 0.29395
C21 C 0.7359(4) 0.6036(4) 0.3086(4)
H11 H 0.80104 0.58489 0.28741
C22 C 0.6769(3) 0.5529(3) 0.3355(3)
H12 H 0.70076 0.49766 0.33114
C23 C 0.5219(3) 0.5240(3) 0.3994(3)
C24 C 0.4400(3) 0.6919(3) 0.4026(3)
Ni1 Ni -0.03302(4) 0.83856(3) 0.67455(3)
N1 N 0.0390(3) 0.7486(2) 0.5556(2)
N2 N -0.1246(3) 0.7205(2) 0.6312(2)
N3 N 0.0573(3) 0.9526(2) 0.7019(2)
N4 N -0.1131(3) 0.8936(3) 0.6047(2)
N5 N 0.0506(3) 0.8012(2) 0.7561(2)
N6 N -0.1056(3) 0.9098(2) 0.8002(2)
C25 C 0.1222(3) 0.7621(3) 0.5214(3)
H13 H 0.15701 0.81986 0.55414
C26 C 0.1619(3) 0.6956(3) 0.4390(3)
H14 H 0.22231 0.70802 0.41708
C27 C 0.1118(4) 0.6125(3) 0.3911(3)
H15 H 0.13609 0.56723 0.33417
C28 C 0.0244(3) 0.5941(3) 0.4261(3)
C29 C -0.0092(3) 0.6651(3) 0.5097(3)
C30 C -0.0954(3) 0.6493(3) 0.5508(3)
C31 C -0.1451(3) 0.5622(3) 0.5095(3)
C32 C -0.1110(4) 0.4927(3) 0.4239(3)
H16 H -0.14527 0.43441 0.39463
C33 C -0.0308(4) 0.5075(3) 0.3830(3)
H17 H -0.01089 0.46018 0.32518
C34 C -0.2260(3) 0.5493(3) 0.5550(3)
H18 H -0.26095 0.49139 0.52973
C35 C -0.2543(3) 0.6205(3) 0.6360(3)
H19 H -0.30869 0.61235 0.66793
C36 C -0.2026(3) 0.7058(3) 0.6718(3)
H20 H -0.22428 0.75522 0.72749
C37 C 0.1429(3) 0.9803(3) 0.7501(3)
H21 H 0.17125 0.94166 0.77075
C38 C 0.1926(4) 1.0634(3) 0.7715(3)
H22 H 0.25378 1.07997 0.80548
C39 C 0.1541(4) 1.1199(3) 0.7441(4)
H23 H 0.18602 1.17782 0.76084
C40 C 0.0656(4) 1.0922(3) 0.6901(3)
C41 C 0.0188(3) 1.0073(3) 0.6708(3)
C42 C -0.0706(4) 0.9736(3) 0.6160(3)
C43 C -0.1090(4) 1.0259(4) 0.5772(3)
C44 C -0.0593(5) 1.1125(4) 0.5990(4)
H24 H -0.08555 1.14775 0.57328
C45 C 0.0212(5) 1.1454(4) 0.6532(4)
H25 H 0.04945 1.20408 0.66768
C46 C -0.1937(4) 0.9890(4) 0.5211(4)
H26 H -0.22186 1.02076 0.49242
C47 C -0.2358(4) 0.9090(4) 0.5074(3)
H27 H -0.29281 0.88355 0.46804
C48 C -0.1948(4) 0.8621(4) 0.5519(3)
H28 H -0.22691 0.80678 0.54351
C49 C 0.1296(3) 0.7493(3) 0.7335(3)
H29 H 0.15799 0.73112 0.67541
C50 C 0.1732(3) 0.7200(3) 0.7916(3)
H30 H 0.22969 0.68266 0.77288
C51 C 0.1333(4) 0.7459(3) 0.8752(3)
H31 H 0.16057 0.72507 0.91441
C52 C 0.0515(3) 0.8038(3) 0.9035(3)
C53 C 0.0125(3) 0.8300(3) 0.8406(3)
C54 C -0.0700(3) 0.8897(3) 0.8647(3)
C55 C -0.1101(3) 0.9241(3) 0.9526(3)
C56 C -0.0687(4) 0.8960(4) 1.0147(3)
H32 H -0.09563 0.91915 1.07408
C57 C 0.0071(4) 0.8379(3) 0.9914(3)
H33 H 0.03110 0.81941 1.03363
C58 C -0.1896(4) 0.9833(3) 0.9739(3)
H34 H -0.21838 1.00890 1.03266
C59 C -0.2249(3) 1.0037(3) 0.9094(3)
H35 H -0.27891 1.04350 0.92281
C60 C -0.1816(3) 0.9657(3) 0.8226(3)
H36 H -0.20750 0.98053 0.77832
O20 O 0.4640(4) 0.3508(3) 0.9251(3)
H37 H 0.45844 0.29313 0.90388
H38 H 0.49464 0.37170 0.97644
O21 O 0.5814(6) 0.4171(5) 0.8440(4)
O22 O 0.2871(6) 0.4375(6) 0.9311(7)
O23 O 0.5772(6) 0.4413(5) 1.0871(5)
O24 O 0.0478(8) 0.6547(6) 0.0344(8)
H39 H 0.00817 0.65472 0.07325
H40 H 0.02579 0.63917 -0.01865
O25 O -0.0262(10) 0.5119(8) -0.1506(7)
O26 O 0.1999(7) 0.5498(6) 0.0924(7)
O27 O -0.0958(7) 0.6393(5) 0.1610(6)
U1A U 0.56458(2) 1.08995(2) 0.40868(2)
U2A U 0.56015(2) 1.08901(2) 1.17568(2)
U3A U 0.56007(2) 0.31750(2) 0.40208(2)
O10A O 0.4185(2) 0.88422(19) 0.43825(19)
O12A O 0.4174(2) 1.06249(19) 0.94672(19)
O15A O 0.4509(3) 0.55564(19) 0.6258(2)
#END
