
#######################################################################
#
#                 Cambridge Crystallographic Data Centre
#                                CCDC
#
#######################################################################
#
# If this CIF has been generated from an entry in the Cambridge
# Structural Database, then it will include bibliographic, chemical,
# crystal, experimental, refinement or atomic coordinate data resulting
# from the CCDC's data processing and validation procedures.
#
#######################################################################

data_CSD_CIF_ARAVAS
_audit_creation_date 2016-07-25
_audit_creation_method CSD-ConQuest-V1
_database_code_CSD ARAVAS
_database_code_depnum_ccdc_archive 'CCDC 1431497'
_chemical_formula_sum 'C60 H54 Cu2 N6 O21 P6'
_chemical_formula_moiety
;
C35 H28 Cu1 N3 O12 P4 1-,(C25 H20 Cu1 N3 O6 P2 1+)n,3(H2 O1)
;
_journal_coden_Cambridge 1290
_journal_year 2016
_journal_page_first 3506
_journal_name_full 'Eur.J.Inorg.Chem. '
loop_
_publ_author_name
"A.Bulut"
"Y.Zorlu"
"M.Worle"
"S.Pasa"
"Huseyin Kurt"
"J.Zubieta"
"J.Beckmann"
"G.Yucesan"
_chemical_name_systematic
;
catena-[(\m-trihydrogen 
naphthalene-2,6-diylbis(phosphonato))-(2,2':6',2''-terpyridine)-di-copper 
(trihydrogen naphthalene-2,6-diylbis(phosphonato))-(dihydogen 
naphthalene-2,6-diylbis(phosphonato))-(2,2':6',2''-terpyridine)-copper 
trihydrate]
;
_cell_volume   2945.205
_exptl_crystal_colour 'blue'
_exptl_crystal_density_diffrn 1.7
_exptl_crystal_description 'block'
_diffrn_ambient_temperature 299
_refine_special_details
;
O22 and O21 disordered over two sites with occupancies 0.69:0.31.

;
#These two values have been output from a single CSD field.
_refine_ls_R_factor_gt 0.0353
_refine_ls_wR_factor_gt 0.0353
_symmetry_cell_setting monoclinic
_symmetry_space_group_name_H-M 'P 21'
_symmetry_Int_Tables_number 4
loop_
_symmetry_equiv_pos_site_id
_symmetry_equiv_pos_as_xyz
1 x,y,z
2 -x,1/2+y,-z
_cell_length_a 12.3266(5)
_cell_length_b 17.7140(7)
_cell_length_c 14.3841(5)
_cell_angle_alpha 90
_cell_angle_beta 110.328(2)
_cell_angle_gamma 90
_cell_formula_units_Z 2
loop_
_atom_type_symbol
_atom_type_radius_bond
C 0.68
H 0.23
Cu 1.32
N 0.68
O 0.68
P 1.05
loop_
_atom_site_label
_atom_site_type_symbol
_atom_site_fract_x
_atom_site_fract_y
_atom_site_fract_z
O1 O 0.0800(4) 0.6833(2) 0.7480(3)
H1 H 0.103(4) 0.718(2) 0.717(3)
H2 H 0.058(4) 0.710(2) 0.790(3)
C1 C 0.1452(4) 0.6605(3) 0.2946(4)
H3 H 0.13850 0.71280 0.29250
C2 C 0.0465(4) 0.6173(3) 0.2529(4)
H4 H -0.02530 0.64000 0.22310
C3 C 0.0574(5) 0.5411(3) 0.2565(4)
H5 H -0.00770 0.51090 0.22910
C4 C 0.1629(4) 0.5084(3) 0.2999(4)
H6 H 0.17010 0.45610 0.30270
C5 C 0.2586(4) 0.5536(2) 0.3398(3)
C6 C 0.3784(4) 0.5267(3) 0.3880(3)
C7 C 0.4152(5) 0.4516(3) 0.3928(4)
H7 H 0.36310 0.41260 0.36600
C8 C 0.5326(5) 0.4375(3) 0.4394(4)
H8 H 0.55980 0.38820 0.44500
C9 C 0.6090(5) 0.4957(3) 0.4772(4)
H9 H 0.68760 0.48610 0.50800
C10 C 0.5672(4) 0.5688(3) 0.4685(3)
C11 C 0.6339(4) 0.6383(3) 0.5007(3)
C12 C 0.7517(5) 0.6419(4) 0.5539(4)
H10 H 0.79520 0.59780 0.56950
C13 C 0.8035(5) 0.7100(4) 0.5835(4)
H11 H 0.88230 0.71270 0.61940
C14 C 0.7381(5) 0.7751(4) 0.5596(4)
H12 H 0.77150 0.82210 0.58020
C15 C 0.6218(5) 0.7688(3) 0.5046(4)
H13 H 0.57800 0.81260 0.48610
C16 C 0.2940(4) 0.8921(2) 0.2036(3)
C17 C 0.1949(4) 0.9006(2) 0.1224(3)
H14 H 0.16210 0.85880 0.08360
C18 C 0.1421(4) 0.9728(2) 0.0969(3)
C19 C 0.0370(4) 0.9830(3) 0.0167(3)
H15 H 0.00150 0.94180 -0.02200
C20 C -0.0129(4) 1.0526(3) -0.0042(3)
H16 H -0.08230 1.05830 -0.05690
C21 C 0.0397(4) 1.1165(2) 0.0533(3)
C22 C 0.1402(4) 1.1074(2) 0.1319(3)
H17 H 0.17420 1.14900 0.17040
C23 C 0.1940(4) 1.0356(2) 0.1560(3)
C24 C 0.2970(4) 1.0254(3) 0.2387(3)
H18 H 0.33240 1.06660 0.27760
C25 C 0.3439(4) 0.9554(3) 0.2613(3)
H19 H 0.41080 0.94930 0.31630
C26 C 0.3072(3) 0.6028(2) 0.6042(3)
C27 C 0.3649(4) 0.5343(3) 0.6350(3)
H20 H 0.44460 0.53430 0.66770
C28 C 0.3056(4) 0.4673(2) 0.6179(3)
H21 H 0.34590 0.42240 0.63880
C29 C 0.1850(3) 0.4652(2) 0.5694(3)
C30 C 0.1188(4) 0.3975(2) 0.5532(3)
H22 H 0.15600 0.35180 0.57560
C31 C 0.0018(4) 0.3982(2) 0.5053(3)
C32 C -0.0553(4) 0.4675(3) 0.4724(3)
H23 H -0.13490 0.46780 0.43970
C33 C 0.0041(4) 0.5336(3) 0.4878(3)
H24 H -0.03530 0.57850 0.46570
C34 C 0.1250(4) 0.5346(2) 0.5367(3)
C35 C 0.1888(4) 0.6026(2) 0.5545(3)
H25 H 0.15070 0.64790 0.53240
Cu1 Cu 0.39869(4) 0.68609(3) 0.40605(4)
N1 N 0.2494(3) 0.6298(2) 0.3378(3)
N2 N 0.4531(3) 0.5818(2) 0.4251(3)
N3 N 0.5702(3) 0.7023(2) 0.4770(3)
O2 O -0.1502(3) 1.1980(2) -0.0315(3)
O3 O 0.0132(3) 1.25742(18) 0.1118(3)
O4 O 0.0275(3) 1.2413(2) -0.0570(2)
O5 O 0.3591(3) 0.78224(18) 0.3377(2)
O6 O 0.3197(4) 0.7447(2) 0.1608(3)
O7 O 0.4909(3) 0.8222(2) 0.2469(3)
O8 O 0.3539(2) 0.73309(16) 0.5308(2)
O9 O 0.3327(3) 0.73752(19) 0.6988(2)
O10 O 0.5071(2) 0.67814(18) 0.6835(2)
O11 O -0.1845(3) 0.3341(3) 0.5173(3)
O12 O -0.1304(3) 0.29680(19) 0.3723(2)
O13 O -0.0107(3) 0.2507(2) 0.5427(3)
P1 P -0.02275(10) 1.20896(6) 0.02026(9)
P2 P 0.36584(10) 0.80338(6) 0.23945(8)
P3 P 0.37991(9) 0.69294(6) 0.62828(7)
P4 P -0.08049(10) 0.31221(7) 0.48272(9)
H26 H 0.253(3) 0.731(3) 0.157(4)
H27 H 0.270(3) 0.758(3) 0.673(3)
H28 H -0.228(4) 0.298(2) 0.505(4)
H29 H 0.094(3) 1.257(3) -0.039(3)
H30 H 0.545(4) 0.698(3) 0.740(2)
C36 C 0.0474(4) 0.3458(3) 0.7740(3)
H31 H 0.04430 0.29370 0.77990
C37 C -0.0534(5) 0.3850(3) 0.7252(4)
H32 H -0.12370 0.35980 0.69940
C38 C -0.0481(5) 0.4606(3) 0.7159(4)
H33 H -0.11510 0.48740 0.68230
C39 C 0.0561(5) 0.4987(3) 0.7557(4)
H34 H 0.06030 0.55090 0.75010
C40 C 0.1544(4) 0.4559(3) 0.8044(3)
C41 C 0.2721(5) 0.4879(3) 0.8474(3)
C42 C 0.3061(5) 0.5616(3) 0.8389(4)
H35 H 0.25220 0.59860 0.80780
C43 C 0.4217(6) 0.5776(3) 0.8781(4)
H36 H 0.44660 0.62640 0.87220
C44 C 0.5018(5) 0.5242(3) 0.9258(4)
H37 H 0.58010 0.53600 0.95240
C45 C 0.4623(5) 0.4513(3) 0.9331(4)
C46 C 0.5337(4) 0.3849(3) 0.9780(4)
C47 C 0.6514(5) 0.3874(4) 1.0303(4)
H38 H 0.69070 0.43310 1.03970
C48 C 0.7092(5) 0.3225(5) 1.0678(4)
H39 H 0.78850 0.32300 1.10250
C49 C 0.6476(5) 0.2560(4) 1.0533(5)
H40 H 0.68500 0.21100 1.07860
C50 C 0.5292(5) 0.2564(3) 1.0007(4)
H41 H 0.48850 0.21120 0.99050
C51 C 0.3384(4) 0.1128(2) 0.7566(3)
C52 C 0.4576(4) 0.1086(2) 0.7969(3)
H42 H 0.50100 0.15280 0.81190
C53 C 0.5146(4) 0.0377(2) 0.8156(3)
C54 C 0.6358(4) 0.0322(3) 0.8600(3)
H43 H 0.68050 0.07570 0.87790
C55 C 0.6878(4) -0.0375(3) 0.8768(3)
H44 H 0.76790 -0.04060 0.90610
C56 C 0.6221(4) -0.1046(2) 0.8503(3)
C57 C 0.5048(4) -0.1004(2) 0.8087(3)
H45 H 0.46160 -0.14450 0.79190
C58 C 0.4472(4) -0.0290(2) 0.7903(3)
C59 C 0.3258(4) -0.0232(3) 0.7492(3)
H46 H 0.28100 -0.06670 0.73220
C60 C 0.2735(4) 0.0456(3) 0.7343(3)
H47 H 0.19320 0.04830 0.70880
Cu2 Cu 0.30158(5) 0.33118(3) 0.89070(4)
N4 N 0.1492(3) 0.3809(2) 0.8128(3)
N5 N 0.3506(3) 0.4358(2) 0.8941(3)
N6 N 0.4732(3) 0.3197(2) 0.9647(3)
O14 O 0.1459(3) 0.1842(2) 0.6663(3)
O15 O 0.2669(3) 0.23002(18) 0.8354(2)
O16 O 0.3255(3) 0.25759(18) 0.6889(2)
O17 O 0.6122(3) -0.25747(18) 0.8392(3)
O18 O 0.7647(2) -0.19782(17) 0.9851(2)
O19 O 0.7790(3) -0.1883(2) 0.8144(2)
P5 P 0.26842(9) 0.20380(6) 0.73666(8)
P6 P 0.69721(10) -0.19321(6) 0.87549(8)
H48 H 0.386(3) 0.283(3) 0.715(3)
H49 H 0.835(3) -0.214(3) 0.836(4)
H50 H 0.101(3) 0.213(2) 0.633(3)
O20 O 0.9859(6) 0.3705(3) 0.2516(5)
H51 H 0.971(4) 0.338(2) 0.202(3)
H52 H 0.931(3) 0.358(3) 0.276(3)
O21 O 0.245(3) 0.1003(17) 0.948(2)
O22? O 0.299(5) 0.1262(17) 0.996(4)
Cu2A Cu 0.69842(5) -0.16882(3) 1.10930(4)
O18A O 0.2353(2) 0.30218(17) 1.0149(2)
#END
