
#######################################################################
#
#                 Cambridge Crystallographic Data Centre
#                                CCDC
#
#######################################################################
#
# If this CIF has been generated from an entry in the Cambridge
# Structural Database, then it will include bibliographic, chemical,
# crystal, experimental, refinement or atomic coordinate data resulting
# from the CCDC's data processing and validation procedures.
#
#######################################################################

data_CSD_CIF_ARAXEW
_audit_creation_date 2004-05-12
_audit_creation_method CSD-ConQuest-V1
_database_code_CSD ARAXEW
_database_code_depnum_ccdc_archive 'CCDC 216264'
_chemical_formula_sum 'C17 H28 O20 Zn2'
_chemical_formula_moiety
;
(H12 O6 Zn1 2+)n,n(C17 H8 O10 Zn1 2-),4n(H2 O1)
;
_journal_coden_Cambridge 1077
_journal_volume 17
_journal_year 2003
_journal_page_first 958
_journal_name_full 'Appl.Organomet.Chem. '
loop_
_publ_author_name
"Yang-Yi Yang"
"L.Szeto"
"Wing-Tak Wong"
_chemical_name_systematic
;
catena-((Hexa-aqua-zinc(ii)) 
(\m~3~-3,3',4,4'-benzophenonetetracarboxylato)-aqua-zinc(ii) tetrahydrate)
;
_cell_volume   1294.381
_exptl_crystal_colour 'colorless'
_exptl_crystal_density_diffrn 1.753
_exptl_crystal_description 'plate'
_diffrn_ambient_temperature 298
#These two values have been output from a single CSD field.
_refine_ls_R_factor_gt 0.038
_refine_ls_wR_factor_gt 0.038
_symmetry_cell_setting triclinic
_symmetry_space_group_name_H-M 'P -1'
_symmetry_Int_Tables_number 2
loop_
_symmetry_equiv_pos_site_id
_symmetry_equiv_pos_as_xyz
1 x,y,z
2 -x,-y,-z
_cell_length_a 10.585(1)
_cell_length_b 11.518(1)
_cell_length_c 12.306(2)
_cell_angle_alpha 74.194(2)
_cell_angle_beta 66.054(2)
_cell_angle_gamma 73.692(2)
_cell_formula_units_Z 2
loop_
_atom_type_symbol
_atom_type_radius_bond
C 0.68
H 0.23
O 0.68
Zn 1.45
loop_
_atom_site_label
_atom_site_type_symbol
_atom_site_fract_x
_atom_site_fract_y
_atom_site_fract_z
Zn1 Zn 0.65128(4) 0.67450(3) 0.48323(3)
Zn2 Zn 0.98188(4) 0.26944(3) 0.33481(4)
O1 O 0.8469(2) 0.6286(2) 0.3461(2)
O2 O 0.9673(2) 0.6219(2) 0.1524(2)
O3 O 0.7303(3) 0.8156(2) 0.4834(2)
O4 O 0.9021(3) 0.9201(2) 0.3783(2)
O5 O 0.3768(2) 1.4198(2) -0.2684(2)
O6 O 0.4762(2) 1.2780(2) -0.3881(2)
O7 O 0.7334(3) 1.5550(2) -0.3324(3)
O8 O 0.6518(2) 1.4947(2) -0.4418(2)
O9 O 0.6632(3) 0.9112(2) -0.0911(2)
O10 O 0.9960(3) 0.4018(2) 0.4125(2)
O11 O 1.1946(3) 0.1937(3) 0.3161(3)
O12 O 0.9759(3) 0.1417(2) 0.2466(3)
O13 O 0.7580(3) 0.3612(2) 0.3713(2)
O14 O 1.0353(3) 0.3785(2) 0.1645(3)
O15 O 0.9122(3) 0.1577(3) 0.4994(3)
O16 O 0.4662(3) 0.7316(2) 0.6294(2)
O17 O 1.1236(3) 0.7200(4) -0.0730(3)
O18 O 0.6762(4) 1.0625(4) -0.4269(4)
O19 O 0.6015(6) 0.4043(7) 0.1252(5)
O20 O 0.3711(8) 0.3602(7) 0.0670(9)
C1 C 0.8804(3) 0.6759(3) 0.2343(3)
C2 C 0.8117(3) 0.8070(3) 0.1996(3)
C3 C 0.7866(3) 0.8396(3) 0.0916(3)
C4 C 0.7219(3) 0.9606(3) 0.0549(3)
C5 C 0.6825(4) 1.0462(3) 0.1277(3)
C6 C 0.7084(4) 1.0145(3) 0.2350(3)
C7 C 0.7729(3) 0.8961(3) 0.2717(3)
C8 C 0.8058(4) 0.8733(3) 0.3857(3)
C9 C 0.6913(3) 0.9894(3) -0.0594(3)
C10 C 0.4710(3) 1.3338(3) -0.3098(3)
C11 C 0.5882(3) 1.2826(3) -0.2585(3)
C12 C 0.5943(3) 1.1650(3) -0.1902(3)
C13 C 0.6905(3) 1.1172(3) -0.1314(3)
C14 C 0.7825(4) 1.1880(3) -0.1412(3)
C15 C 0.7804(3) 1.3046(3) -0.2129(3)
C16 C 0.6845(3) 1.3526(3) -0.2714(3)
C17 C 0.6908(3) 1.4759(3) -0.3525(3)
H1 H 1.077(2) 0.414(4) 0.394(4)
H2 H 0.945(3) 0.470(2) 0.395(4)
H3 H 1.238(4) 0.142(3) 0.269(3)
H4 H 1.227(4) 0.186(4) 0.371(3)
H5 H 0.930(4) 0.175(4) 0.200(3)
H6 H 0.936(4) 0.082(3) 0.292(3)
H7 H 0.737(4) 0.429(2) 0.328(3)
H8 H 0.728(4) 0.375(4) 0.442(2)
H9 H 1.012(4) 0.455(1) 0.163(4)
H10 H 0.994(4) 0.361(4) 0.127(4)
H11 H 0.971(4) 0.113(4) 0.531(4)
H12 H 0.837(3) 0.133(4) 0.516(4)
H13 H 0.393(3) 0.716(4) 0.630(4)
H14 H 0.464(4) 0.694(3) 0.698(2)
H15 H 1.209(2) 0.687(5) -0.085(5)
H16 H 1.063(4) 0.706(5) -0.002(2)
H17 H 0.627(6) 1.136(2) -0.419(6)
H18 H 0.672(7) 0.996(3) -0.444(6)
H19 H 0.54580 0.45900 0.17030
H20 H 0.66490 0.44590 0.06910
H21 H 0.32880 0.38150 0.14020
H22 H 0.35720 0.28550 0.08250
H23 H 0.81280 0.78120 0.04320
H24 H 0.63820 1.12580 0.10490
H25 H 0.68220 1.07350 0.28280
H26 H 0.53290 1.11720 -0.18350
H27 H 0.84520 1.15770 -0.10000
H28 H 0.84430 1.35080 -0.22160
O6A O 0.5238(2) 0.7220(2) 0.3881(2)
O8* O 0.6518(2) 0.4947(2) 0.5582(2)
Zn1A Zn 0.34872(4) 1.32550(3) -0.48323(3)
Zn1* Zn 0.65128(4) 1.67450(3) -0.51677(3)
#END
