
#######################################################################
#
#                 Cambridge Crystallographic Data Centre
#                                CCDC
#
#######################################################################
#
# If this CIF has been generated from an entry in the Cambridge
# Structural Database, then it will include bibliographic, chemical,
# crystal, experimental, refinement or atomic coordinate data resulting
# from the CCDC's data processing and validation procedures.
#
#######################################################################

data_CSD_CIF_AREBOO
_audit_creation_date 2004-05-12
_audit_creation_method CSD-ConQuest-V1
_database_code_CSD AREBOO
_database_code_depnum_ccdc_archive 'CCDC 213881'
_chemical_formula_sum 'C48 H100 Cu3 Fe2 N24 O8'
_chemical_formula_moiety
;
(C12 H28 Cu1 N4 2+)n,n(C36 H56 Cu2 Fe2 N20 2-),8n(H2 O1)
;
_journal_coden_Cambridge 1290
_journal_year 2003
_journal_page_first 4289
_journal_name_full 'Eur.J.Inorg.Chem. '
loop_
_publ_author_name
"E.Coronado"
"C.Gimenez-Saiz"
"A.Nuez"
"V.Sanchez"
"F.M.Romero"
_chemical_name_systematic
;
catena-(bis(cis-Cyclohexane-1,2-diamine)-copper(ii) 
tetrakis((\m~2~-cyano)-(cis-cyclohexane-1,2-diamine))-octacyano-di-copper(ii)-
di-iron(iii) octahydrate)
;
_cell_volume   1665.771
_exptl_crystal_colour 'brown'
_exptl_crystal_density_diffrn 1.439
_exptl_crystal_description 'prism'
_diffrn_ambient_temperature 293
_refine_special_details
;
The SQUEEZE program was used to model the electron density associated with a 
disordered solvent molecule.
;
#These two values have been output from a single CSD field.
_refine_ls_R_factor_gt 0.0465
_refine_ls_wR_factor_gt 0.0465
_symmetry_cell_setting triclinic
_symmetry_space_group_name_H-M 'P -1'
_symmetry_Int_Tables_number 2
loop_
_symmetry_equiv_pos_site_id
_symmetry_equiv_pos_as_xyz
1 x,y,z
2 -x,-y,-z
_cell_length_a 8.4720(2)
_cell_length_b 13.4430(3)
_cell_length_c 15.7510(4)
_cell_angle_alpha 106.304(5)
_cell_angle_beta 103.865(5)
_cell_angle_gamma 90.586(5)
_cell_formula_units_Z 1
loop_
_atom_type_symbol
_atom_type_radius_bond
C 0.68
H 0.23
Cu 1.65
Fe 1.34
N 0.73
O 0.68
loop_
_atom_site_label
_atom_site_type_symbol
_atom_site_fract_x
_atom_site_fract_y
_atom_site_fract_z
Fe1 Fe 0.21435(4) 0.20646(3) -0.17820(2)
Cu1 Cu 0.00000 0.50000 0.00000
Cu2 Cu 0.00000 0.00000 -0.50000
Cu3 Cu 0.00000 0.00000 -1.00000
C1 C -0.2125(4) 0.5586(2) -0.1466(2)
H1 H -0.22600 0.62720 -0.10760
C2 C -0.2664(5) 0.5598(3) -0.2458(3)
H2 H -0.37260 0.58700 -0.25640
H3 H -0.18980 0.60580 -0.25700
C3 C -0.2758(5) 0.4516(3) -0.3121(3)
H4 H -0.32080 0.45440 -0.37410
H5 H -0.16680 0.42870 -0.30810
C4 C -0.3795(5) 0.3752(3) -0.2918(2)
H6 H -0.37730 0.30660 -0.33290
H7 H -0.49130 0.39380 -0.30300
C5 C -0.3221(4) 0.3718(3) -0.1936(2)
H8 H -0.39590 0.32400 -0.18250
H9 H -0.21440 0.34650 -0.18380
C6 C -0.3166(3) 0.4779(3) -0.1279(2)
H10 H -0.42800 0.49940 -0.13370
C7 C -0.0835(4) 0.1686(2) -0.5804(2)
H11 H -0.13400 0.17950 -0.63960
C8 C -0.1146(5) 0.2601(3) -0.5049(3)
H12 H -0.23070 0.26840 -0.51630
H13 H -0.07980 0.24530 -0.44660
C9 C -0.0245(6) 0.3603(3) -0.4995(4)
H14 H -0.04160 0.41570 -0.44860
H15 H -0.06730 0.37940 -0.55520
C10 C 0.1588(6) 0.3478(3) -0.4869(3)
H16 H 0.21380 0.41220 -0.48540
H17 H 0.20300 0.33430 -0.42880
C11 C 0.1919(5) 0.2603(3) -0.5626(3)
H18 H 0.30780 0.25110 -0.54960
H19 H 0.16160 0.27830 -0.61960
C12 C 0.0956(4) 0.1569(3) -0.5737(2)
H20 H 0.10490 0.10730 -0.63090
C13 C 0.3302(3) 0.0880(2) -0.9129(2)
H21 H 0.36950 0.07620 -0.96830
C14 C 0.4510(4) 0.1683(3) -0.8360(2)
H22 H 0.56070 0.14740 -0.83400
H23 H 0.44530 0.23500 -0.84850
C15 C 0.4158(4) 0.1796(3) -0.7439(2)
H24 H 0.31170 0.20870 -0.74310
H25 H 0.49960 0.22700 -0.69620
C16 C 0.4114(4) 0.0741(3) -0.7254(2)
H26 H 0.51780 0.04720 -0.72190
H27 H 0.38570 0.08230 -0.66710
C17 C 0.2839(4) -0.0029(3) -0.8009(2)
H28 H 0.28440 -0.06970 -0.78860
H29 H 0.17650 0.02180 -0.80170
C18 C 0.3188(3) -0.0157(2) -0.8929(2)
H30 H 0.42250 -0.04720 -0.89340
C19 C 0.2182(4) 0.3416(2) -0.1998(2)
C20 C 0.3525(3) 0.1626(2) -0.26183(19)
C21 C 0.4010(4) 0.2568(2) -0.0722(2)
C22 C 0.0705(3) 0.2530(2) -0.09863(19)
C23 C 0.2023(3) 0.0698(2) -0.15943(19)
C24 C 0.0308(3) 0.1534(2) -0.28255(19)
N1 N -0.0408(3) 0.5359(2) -0.11762(18)
H31 H 0.02570 0.59180 -0.11070
H32 H -0.01840 0.48250 -0.16110
N2 N -0.2467(3) 0.4776(2) -0.03206(17)
H33 H -0.27600 0.41630 -0.02520
H34 H -0.28620 0.52830 0.00610
N3 N -0.1587(3) 0.0706(2) -0.57702(18)
H35 H -0.19360 0.02740 -0.63420
H36 H -0.24590 0.08420 -0.55370
N4 N 0.1610(3) 0.1102(2) -0.49886(19)
H37 H 0.18230 0.15990 -0.44470
H38 H 0.25490 0.08240 -0.50580
N5 N 0.1631(3) 0.12174(19) -0.93332(17)
H39 H 0.15830 0.16570 -0.96760
H40 H 0.13880 0.15600 -0.88070
N6 N 0.1874(3) -0.0841(2) -0.96717(19)
H41 H 0.15340 -0.13620 -0.94850
H42 H 0.22560 -0.11220 -1.01650
N7 N 0.2186(4) 0.4211(2) -0.2124(2)
N8 N 0.4247(3) 0.1361(2) -0.31577(18)
N9 N 0.5082(4) 0.2902(3) -0.0092(2)
N10 N -0.0122(3) 0.2811(2) -0.05058(19)
N11 N 0.1878(4) -0.0108(2) -0.1500(2)
N12 N -0.0709(4) 0.1159(3) -0.34762(19)
O1 O 0.2532(4) 0.6415(2) -0.1631(3)
H43 H 0.266(6) 0.5796(16) -0.179(3)
H44 H 0.313(5) 0.665(3) -0.1121(18)
O2 O -0.0344(3) 0.2183(2) -0.8026(2)
H45 H -0.095(4) 0.1629(19) -0.829(3)
H46 H -0.106(4) 0.261(3) -0.816(3)
O3 O 0.5956(5) 0.0980(3) -0.4594(3)
H47 H 0.522(5) 0.0787(16) -0.504(2)
H48 H 0.557(6) 0.114(5) -0.417(2)
C1A C 0.2125(4) 0.4414(2) 0.1466(2)
H1A H 0.22600 0.37280 0.10760
C2A C 0.2664(5) 0.4402(3) 0.2458(3)
H2A H 0.37260 0.41300 0.25640
H3A H 0.18980 0.39420 0.25700
C3A C 0.2758(5) 0.5484(3) 0.3121(3)
H4A H 0.32080 0.54560 0.37410
H5A H 0.16680 0.57130 0.30810
C4A C 0.3795(5) 0.6248(3) 0.2918(2)
H6A H 0.37730 0.69340 0.33290
H7A H 0.49130 0.60620 0.30300
C5A C 0.3221(4) 0.6282(3) 0.1936(2)
H8A H 0.39590 0.67600 0.18250
H9A H 0.21440 0.65350 0.18380
C6A C 0.3166(3) 0.5221(3) 0.1279(2)
H10A H 0.42800 0.50060 0.13370
N1A N 0.0408(3) 0.4641(2) 0.11762(18)
H31A H -0.02570 0.40820 0.11070
H32A H 0.01840 0.51750 0.16110
N2A N 0.2467(3) 0.5224(2) 0.03206(17)
H33A H 0.27600 0.58370 0.02520
H34A H 0.28620 0.47170 -0.00610
C22A C -0.0705(3) 0.7470(2) 0.09863(19)
N10A N 0.0122(3) 0.7189(2) 0.05058(19)
Fe1A Fe -0.21435(4) 0.79354(3) 0.17820(2)
C19A C -0.2182(4) 0.6584(2) 0.1998(2)
N7A N -0.2186(4) 0.5789(2) 0.2124(2)
C20A C -0.3525(3) 0.8374(2) 0.26183(19)
N8A N -0.4247(3) 0.8639(2) 0.31577(18)
C21A C -0.4010(4) 0.7432(2) 0.0722(2)
N9A N -0.5082(4) 0.7098(3) 0.0092(2)
C23A C -0.2023(3) 0.9302(2) 0.15943(19)
N11A N -0.1878(4) 1.0108(2) 0.1500(2)
C24A C -0.0308(3) 0.8466(2) 0.28255(19)
N12A N 0.0709(4) 0.8841(3) 0.34762(19)
C7A C 0.0835(4) -0.1686(2) -0.4196(2)
H11A H 0.13400 -0.17950 -0.36040
C8A C 0.1146(5) -0.2601(3) -0.4951(3)
H12A H 0.23070 -0.26840 -0.48370
H13A H 0.07980 -0.24530 -0.55340
C9A C 0.0245(6) -0.3603(3) -0.5005(4)
H14A H 0.04160 -0.41570 -0.55140
H15A H 0.06730 -0.37940 -0.44480
C10A C -0.1588(6) -0.3478(3) -0.5131(3)
H16A H -0.21380 -0.41220 -0.51460
H17A H -0.20300 -0.33430 -0.57120
C11A C -0.1919(5) -0.2603(3) -0.4374(3)
H18A H -0.30780 -0.25110 -0.45040
H19A H -0.16160 -0.27830 -0.38040
C12A C -0.0956(4) -0.1569(3) -0.4263(2)
H20A H -0.10490 -0.10730 -0.36910
N3A N 0.1587(3) -0.0706(2) -0.42298(18)
H35A H 0.19360 -0.02740 -0.36580
H36A H 0.24590 -0.08420 -0.44630
N4A N -0.1610(3) -0.1102(2) -0.50114(19)
H37A H -0.18230 -0.15990 -0.55530
H38A H -0.25490 -0.08240 -0.49420
C13A C -0.3302(3) -0.0880(2) -1.0871(2)
H21A H -0.36950 -0.07620 -1.03170
C14A C -0.4510(4) -0.1683(3) -1.1640(2)
H22A H -0.56070 -0.14740 -1.16600
H23A H -0.44530 -0.23500 -1.15150
C15A C -0.4158(4) -0.1796(3) -1.2561(2)
H24A H -0.31170 -0.20870 -1.25690
H25A H -0.49960 -0.22700 -1.30380
C16A C -0.4114(4) -0.0741(3) -1.2746(2)
H26A H -0.51780 -0.04720 -1.27810
H27A H -0.38570 -0.08230 -1.33290
C17A C -0.2839(4) 0.0029(3) -1.1991(2)
H28A H -0.28440 0.06970 -1.21140
H29A H -0.17650 -0.02180 -1.19830
C18A C -0.3188(3) 0.0157(2) -1.1071(2)
H30A H -0.42250 0.04720 -1.10660
N5A N -0.1631(3) -0.12174(19) -1.06668(17)
H39A H -0.15830 -0.16570 -1.03240
H40A H -0.13880 -0.15600 -1.11930
N6A N -0.1874(3) 0.0841(2) -1.03283(19)
H41A H -0.15340 0.13620 -1.05150
H42A H -0.22560 0.11220 -0.98350
N12A* N 0.0709(4) -0.1159(3) -0.65238(19)
Cu2* Cu 0.00000 1.00000 0.50000
#END
