
#######################################################################
#
#                 Cambridge Crystallographic Data Centre
#                                CCDC
#
#######################################################################
#
# If this CIF has been generated from an entry in the Cambridge
# Structural Database, then it will include bibliographic, chemical,
# crystal, experimental, refinement or atomic coordinate data resulting
# from the CCDC's data processing and validation procedures.
#
#######################################################################

data_CSD_CIF_AREDEH
_audit_creation_date 2011-08-02
_audit_creation_method CSD-ConQuest-V1
_database_code_CSD AREDEH
_database_code_depnum_ccdc_archive 'CCDC 785989'
_chemical_formula_sum 'C18 H31 Cu1 Mo12 N24 O40 P1 S6'
_chemical_formula_moiety
;
(C18 H30 Cu1 N24 S6 2+)n,n(H1 Mo12 O40 P1 2-)
;
_journal_coden_Cambridge 1147
_journal_volume 10
_journal_year 2010
_journal_page_first 4786
_journal_name_full 'Cryst.Growth Des. '
loop_
_publ_author_name
"Xiu-li Wang"
"Hai-liang Hu"
"Ai-xiang Tian"
_chemical_name_systematic
;
catena-(tris(\m~3~-1,2-bis(1-Methyl-5-mercapto-1,2,3,4-tetrazole)ethane)-coppe
r(ii) 
(\m~12~-phosphato)-(\m~2~-hydroxo)-tricosakis(\m~2~-oxo)-dodecaoxo-dodeca-moly
bdenum)
;
_cell_volume   4905.477
_exptl_crystal_colour 'green'
_exptl_crystal_density_diffrn 2.702
_exptl_special_details
;
The hydrogen of the hydroxo ligand of the anion was assigned arbitrarily

;
_exptl_crystal_description 'block'
_diffrn_ambient_temperature 293
_refine_special_details
;
The phosphate moiety of the anion is disordered by symmetry.

;
#These two values have been output from a single CSD field.
_refine_ls_R_factor_gt 0.0326
_refine_ls_wR_factor_gt 0.0326
_symmetry_cell_setting rhombohedral
_symmetry_space_group_name_H-M 'R -3'
_symmetry_Int_Tables_number 148
loop_
_symmetry_equiv_pos_site_id
_symmetry_equiv_pos_as_xyz
1 x,y,z
2 -y,x-y,z
3 -x+y,-x,z
4 2/3+x,1/3+y,1/3+z
5 2/3-y,1/3+x-y,1/3+z
6 2/3-x+y,1/3-x,1/3+z
7 1/3+x,2/3+y,2/3+z
8 1/3-y,2/3+x-y,2/3+z
9 1/3-x+y,2/3-x,2/3+z
10 -x,-y,-z
11 y,-x+y,-z
12 x-y,x,-z
13 -2/3-x,-1/3-y,-1/3-z
14 -2/3+y,-1/3-x+y,-1/3-z
15 -2/3+x-y,-1/3+x,-1/3-z
16 -1/3-x,-2/3-y,-2/3-z
17 -1/3+y,-2/3-x+y,-2/3-z
18 -1/3+x-y,-2/3+x,-2/3-z
_cell_length_a 11.6599(6)
_cell_length_b 11.6599(6)
_cell_length_c 41.664(4)
_cell_angle_alpha 90
_cell_angle_beta 90
_cell_angle_gamma 120
_cell_formula_units_Z 3
loop_
_atom_type_symbol
_atom_type_radius_bond
C 0.68
H 0.23
Cu 1.32
Mo 1.39
N 0.68
O 0.68
P 1.05
S 1.02
loop_
_atom_site_label
_atom_site_type_symbol
_atom_site_fract_x
_atom_site_fract_y
_atom_site_fract_z
P1 P 0.33330 0.66670 0.16670
Mo1 Mo 0.20717(8) 0.32040(5) 0.170770(13)
Mo2 Mo 0.19304(8) 0.46876(5) 0.096610(12)
O1? O 0.33340 0.66660 0.2035(3)
O2 O 0.2252(11) 0.5302(8) 0.15471(16)
O3 O 0.2603(10) 0.3686(8) 0.21178(14)
O4 O 0.0577(10) 0.3285(6) 0.17386(14)
O5 O 0.201(1) 0.3525(6) 0.12365(13)
O6 O 0.1541(8) 0.1597(6) 0.17070(14)
O7 O 0.1203(8) 0.3791(6) 0.06463(12)
O8 O 0.3679(8) 0.5578(6) 0.0852(2)
Cu1 Cu -0.33330 -0.66670 0.33330
C1 C 0.0247(10) -0.4623(11) 0.43224(17)
H1 H -0.04010 -0.52970 0.44600
H2 H 0.05030 -0.37670 0.44100
H3 H 0.10100 -0.47300 0.43080
C2 C 0.0287(7) -0.3968(7) 0.37428(16)
C3 C 0.2051(8) -0.2035(8) 0.33535(17)
H4 H 0.29780 -0.14390 0.33050
H5 H 0.17160 -0.27660 0.32030
N1 N -0.0322(7) -0.4740(6) 0.39999(13)
N2 N -0.1531(6) -0.5647(6) 0.39218(13)
N3 N -0.1651(8) -0.5437(6) 0.36226(14)
N4 N -0.0540(6) -0.4381(6) 0.35031(13)
S1 S 0.1908(2) -0.2665(2) 0.37557(5)
Mo1Q Mo 0.553437(80) 0.540503(50) 0.162563(13)
Mo1A Mo 0.67960(8) 0.88677(5) 0.170770(13)
Mo1O Mo 0.459497(80) 1.012933(50) 0.162563(13)
Mo1B Mo 0.11323(8) 0.79283(5) 0.170770(13)
Mo1P Mo -0.012933(80) 0.446563(50) 0.162563(13)
Mo2Q Mo 0.390947(80) 0.526373(50) 0.236723(12)
Mo2A Mo 0.53124(8) 0.72428(5) 0.096610(12)
Mo2O Mo 0.473627(80) 0.864573(50) 0.236723(12)
Mo2B Mo 0.27572(8) 0.80696(5) 0.096610(12)
Mo2P Mo 0.135427(80) 0.609053(50) 0.236723(12)
O2Q O 0.361667(1100) 0.558533(800) 0.178623(160)
O2A O 0.4698(11) 0.6950(8) 0.15471(16)
O2O O 0.441467(1100) 0.803133(800) 0.178623(160)
O2B O 0.3050(11) 0.7748(8) 0.15471(16)
O2P O 0.196867(1100) 0.638333(800) 0.178623(160)
O3P O 0.035267(1000) 0.441633(800) 0.121553(140)
O3Q O 0.558367(1000) 0.593633(800) 0.121553(140)
O3A O 0.6314(10) 0.8917(8) 0.21178(14)
O3O O 0.406367(1000) 0.964733(800) 0.121553(140)
O3B O 0.1083(10) 0.7397(8) 0.21178(14)
O4Q O 0.395867(1000) 0.391033(600) 0.159473(140)
O4A O 0.6715(10) 0.7292(6) 0.17386(14)
O4O O 0.608967(1000) 1.004833(600) 0.159473(140)
O4B O 0.2708(10) 0.9423(6) 0.17386(14)
O4P O -0.004833(1000) 0.604133(600) 0.159473(140)
O5Q O 0.515167(1000) 0.534333(600) 0.209683(130)
O5A O 0.6475(10) 0.8485(6) 0.12365(13)
O5O O 0.465667(1000) 0.980833(600) 0.209683(130)
O5B O 0.1515(10) 0.7990(6) 0.12365(13)
O5P O 0.019167(1000) 0.484833(600) 0.209683(130)
O6Q O 0.661067(800) 0.487433(600) 0.162633(140)
O6A O 0.8403(8) 0.9944(6) 0.17070(14)
O6O O 0.512567(800) 1.173633(600) 0.162633(140)
O6B O 0.0056(8) 0.8459(6) 0.17070(14)
O6P O -0.173633(800) 0.338933(600) 0.162633(140)
O7Q O 0.407867(800) 0.453633(600) 0.268703(120)
O7A O 0.6209(8) 0.7412(6) 0.06463(12)
O7O O 0.546367(800) 0.954233(600) 0.268703(120)
O7B O 0.2588(8) 0.8797(6) 0.06463(12)
O7P O 0.045767(800) 0.592133(600) 0.268703(120)
O8B O 0.1899(8) 0.6321(6) 0.0852(2)
O8Q O 0.476767(800) 0.701233(600) 0.248133(200)
O8P O 0.224467(800) 0.523233(600) 0.248133(200)
O8A O 0.4422(8) 0.8101(6) 0.0852(2)
O8O O 0.298767(800) 0.775533(600) 0.248133(200)
Cu1L Cu 0.66663 0.33337 0.33337
Cu1M Cu -1.33337 -0.66673 0.33337
Cu1N Cu -0.33327 -1.66663 0.33337
C1L C 0.308633(1000) 0.128967(1100) 0.234427(170)
C1A C -0.5377(10) -0.5130(11) 0.43224(17)
C1M C -1.128967(1000) -0.820333(1100) 0.234427(170)
C1B C -0.487(1) -1.0247(11) 0.43224(17)
C1N C -0.179667(1000) -1.308633(1100) 0.234427(170)
H1L H 0.37343 0.19637 0.22067
H1A H -0.47030 -0.51040 0.44600
H1M H -1.19637 -0.82293 0.22067
H1B H -0.48960 -0.95990 0.44600
H1N H -0.17707 -1.37343 0.22067
H2L H 0.28303 0.04337 0.22567
H2A H -0.62330 -0.57300 0.44100
H2M H -1.04337 -0.76033 0.22567
H2B H -0.42700 -1.05030 0.44100
H2N H -0.23967 -1.28303 0.22567
H3L H 0.23233 0.13967 0.23587
H3A H -0.52700 -0.42600 0.43080
H3M H -1.13967 -0.90733 0.23587
H3B H -0.57400 -1.10100 0.43080
H3N H -0.09267 -1.23233 0.23587
C2L C 0.304633(700) 0.063467(700) 0.292387(160)
C2A C -0.6032(7) -0.5745(7) 0.37428(16)
C2M C -1.063467(700) -0.758833(700) 0.292387(160)
C2B C -0.4255(7) -1.0287(7) 0.37428(16)
C2N C -0.241167(700) -1.304633(700) 0.292387(160)
C3L C 0.128233(800) -0.129833(800) 0.331317(170)
C3A C -0.7965(8) -0.5914(8) 0.33535(17)
C3M C -0.870167(800) -0.741933(800) 0.331317(170)
C3B C -0.4086(8) -1.2051(8) 0.33535(17)
C3N C -0.258067(800) -1.128233(800) 0.331317(170)
H4L H 0.03553 -0.18943 0.33617
H4A H -0.85610 -0.55830 0.33050
H4M H -0.81057 -0.77503 0.33617
H4B H -0.44170 -1.29780 0.33050
H4N H -0.22497 -1.03553 0.33617
H5L H 0.16173 -0.05673 0.34637
H5A H -0.72340 -0.55180 0.32030
H5M H -0.94327 -0.78153 0.34637
H5B H -0.44820 -1.17160 0.32030
H5N H -0.21847 -1.16173 0.34637
N1L N 0.365533(700) 0.140667(600) 0.266677(130)
N1A N -0.5260(7) -0.5582(6) 0.39999(13)
N1M N -1.140667(700) -0.775133(600) 0.266677(130)
N1B N -0.4418(7) -0.9678(6) 0.39999(13)
N1N N -0.224867(700) -1.365533(600) 0.266677(130)
N2L N 0.486433(600) 0.231367(600) 0.274487(130)
N2A N -0.4353(6) -0.5884(6) 0.39218(13)
N2M N -1.231367(600) -0.744933(600) 0.274487(130)
N2B N -0.4116(6) -0.8469(6) 0.39218(13)
N2N N -0.255067(600) -1.486433(600) 0.274487(130)
N3L N 0.498433(800) 0.210367(600) 0.304407(140)
N3A N -0.4563(8) -0.6214(6) 0.36226(14)
N3M N -1.210367(800) -0.711933(600) 0.304407(140)
N3B N -0.3786(8) -0.8349(6) 0.36226(14)
N3N N -0.288067(800) -1.498433(600) 0.304407(140)
N3L* N -0.501567(800) -0.789633(600) 0.304407(140)
N3M* N -0.210367(800) -0.711933(600) 0.304407(140)
N3N* N -0.288067(800) -0.498433(600) 0.304407(140)
N4L N 0.387333(600) 0.104767(600) 0.316357(130)
N4A N -0.5619(6) -0.6159(6) 0.35031(13)
N4M N -1.104767(600) -0.717433(600) 0.316357(130)
N4B N -0.3841(6) -0.9460(6) 0.35031(13)
N4N N -0.282567(600) -1.387333(600) 0.316357(130)
S1L S 0.142533(200) -0.066833(200) 0.291097(50)
S1A S -0.7335(2) -0.5427(2) 0.37557(5)
S1M S -0.933167(200) -0.790633(200) 0.291097(50)
S1B S -0.4573(2) -1.1908(2) 0.37557(5)
S1N S -0.209367(200) -1.142533(200) 0.291097(50)
#END
