
#######################################################################
#
#                 Cambridge Crystallographic Data Centre
#                                CCDC
#
#######################################################################
#
# If this CIF has been generated from an entry in the Cambridge
# Structural Database, then it will include bibliographic, chemical,
# crystal, experimental, refinement or atomic coordinate data resulting
# from the CCDC's data processing and validation procedures.
#
#######################################################################

data_CSD_CIF_ARESUL
_audit_creation_date 2004-05-12
_audit_creation_method CSD-ConQuest-V1
_database_code_CSD ARESUL
_database_code_depnum_ccdc_archive 'CCDC 230499'
_chemical_formula_sum 'C51 H38 N2 O15 Zn2'
_chemical_formula_moiety
;
(C44 H27 O14 Zn2 1-)n,n(C5 H6 N1 1+),n(C2 H3 N1),n(H2 O1)
;
_journal_coden_Cambridge 9
_journal_volume 43
_journal_year 2004
_journal_page_first 830
_journal_name_full 'Inorg.Chem. '
loop_
_publ_author_name
"Shao-Liang Zheng"
"Jin-Hua Yang"
"Xiao-Lan Yu"
"Xiao-Ming Chen"
"Wing-Tak Wong"
_chemical_name_systematic
;
catena-(pyridinium 
(\m~4~-2,2'-dihydroxy-[1,1']binaphthalenyl-3,3'-carboxylato)-(\m~3~-2,2'-dihyd
roxy-[1,1']binaphthalenyl-3,3'-carboxylato)-(\m~3~-hydroxo)-aqua-di-zinc 
acetonitrile solvate monohydrate)
;
_cell_volume   2596.196
_exptl_crystal_colour 'pale yellow'
_exptl_crystal_density_diffrn 1.343
_exptl_special_details
;
green/blue photoluminescent

;
_exptl_crystal_description 'block'
_diffrn_ambient_temperature 293
#These two values have been output from a single CSD field.
_refine_ls_R_factor_gt 0.0698
_refine_ls_wR_factor_gt 0.0698
_symmetry_cell_setting triclinic
_symmetry_space_group_name_H-M 'P -1'
_symmetry_Int_Tables_number 2
loop_
_symmetry_equiv_pos_site_id
_symmetry_equiv_pos_as_xyz
1 x,y,z
2 -x,-y,-z
_cell_length_a 13.796(5)
_cell_length_b 14.348(7)
_cell_length_c 15.220(8)
_cell_angle_alpha 109.84(7)
_cell_angle_beta 94.01(7)
_cell_angle_gamma 110.34(6)
_cell_formula_units_Z 2
loop_
_atom_type_symbol
_atom_type_radius_bond
C 0.68
H 0.23
N 0.68
O 0.68
Zn 1.40
loop_
_atom_site_label
_atom_site_type_symbol
_atom_site_fract_x
_atom_site_fract_y
_atom_site_fract_z
Zn1 Zn 0.20958(5) 0.60842(6) 0.65476(5)
Zn2 Zn -0.03389(5) 0.37901(6) 0.49412(5)
O1 O 0.0687(3) 0.3240(3) 0.5319(3)
O2 O 0.2288(3) 0.4640(4) 0.5868(4)
O3 O 0.3991(3) 0.4301(3) 0.6291(4)
H1 H 0.37420 0.46410 0.60760
O4 O 0.8563(3) 0.3597(3) 0.5754(3)
O5 O 0.7310(3) 0.3403(4) 0.4585(3)
O6 O 0.5319(3) 0.2677(4) 0.4712(3)
H2 H 0.58070 0.29500 0.44810
O7 O 0.1117(4) 0.7775(3) 0.6161(3)
O8 O 0.2074(4) 0.7596(4) 0.7330(3)
O9 O 0.2709(4) 0.9059(4) 0.9039(3)
H3 H 0.26020 0.84850 0.86010
O10 O 0.6273(3) 1.3246(4) 1.2851(3)
O11 O 0.6360(4) 1.3033(6) 1.1320(4)
O12 O 0.4704(4) 1.1950(5) 0.9983(3)
H4 H 0.53350 1.22820 1.02340
O13 O 0.0495(3) 0.5465(3) 0.5940(3)
H5 H 0.01030 0.56270 0.64440
O14 O 0.1684(4) 0.5605(6) 0.7750(4)
H6 H 0.11780 0.51590 0.78440
H7 H 0.23050 0.61010 0.81700
O15 O 0.01080 0.61090 0.24180
H8 H 0.00190 0.66670 0.23420
H9 H 0.06060 0.62920 0.30700
N1 N 0.8657(13) 0.6206(11) 0.6816(13)
C1 C 0.3795(4) 0.2480(5) 0.5849(4)
C2 C 0.3338(4) 0.3219(5) 0.5876(4)
C3 C 0.2211(4) 0.2853(5) 0.5511(4)
C4 C 0.1594(4) 0.1749(5) 0.5096(4)
H10 H 0.08780 0.15150 0.48410
C5 C 0.1794(6) -0.0923(6) 0.4618(5)
H11 H 0.13670 -0.16560 0.43470
C6 C 0.1378(5) -0.0174(5) 0.4638(4)
H12 H 0.06630 -0.04100 0.43800
C7 C 0.2879(6) -0.0558(6) 0.5016(6)
H13 H 0.31600 -0.10600 0.50190
C8 C 0.3539(5) 0.0533(5) 0.5403(5)
H14 H 0.42540 0.07470 0.56450
C9 C 0.3127(5) 0.1329(5) 0.5432(4)
C10 C 0.2025(4) 0.0972(5) 0.5050(4)
C11 C 0.4968(4) 0.2891(5) 0.6263(4)
C12 C 0.5691(4) 0.2961(5) 0.5678(4)
C13 C 0.6815(4) 0.3313(5) 0.6042(4)
C14 C 0.7156(5) 0.3595(5) 0.7018(4)
H15 H 0.78720 0.38090 0.72590
C15 C 0.6818(6) 0.3910(7) 0.8671(5)
H16 H 0.75330 0.41370 0.89220
C16 C 0.6123(7) 0.3905(8) 0.9274(5)
H17 H 0.63710 0.41330 0.99270
C17 C 0.5040(7) 0.3558(8) 0.8909(6)
H18 H 0.45790 0.35620 0.93260
C18 C 0.4639(6) 0.3206(6) 0.7934(5)
H19 H 0.39160 0.29640 0.77070
C19 C 0.5339(5) 0.3214(5) 0.7276(4)
C20 C 0.6463(5) 0.3569(5) 0.7650(5)
C21 C 0.1697(5) 0.3646(5) 0.5582(4)
C22 C 0.7624(5) 0.3447(5) 0.5428(4)
C23 C 0.2537(5) 1.0718(5) 0.9300(4)
C24 C 0.2384(5) 0.9705(5) 0.8681(4)
C25 C 0.1897(5) 0.9293(5) 0.7679(4)
C26 C 0.1623(5) 0.9957(5) 0.7326(4)
H20 H 0.13230 0.96950 0.66800
C27 C 0.1491(5) 1.1721(6) 0.7567(5)
H21 H 0.11950 1.14690 0.69200
C28 C 0.1639(7) 1.2756(6) 0.8161(6)
H22 H 0.14830 1.32100 0.79150
C29 C 0.2037(7) 1.3112(7) 0.9165(6)
H23 H 0.20920 1.37860 0.95780
C30 C 0.2339(6) 1.2479(6) 0.9528(5)
H24 H 0.26230 1.27500 1.01790
C31 C 0.2234(5) 1.1421(5) 0.8946(4)
C32 C 0.1784(5) 1.1029(5) 0.7922(4)
C33 C 0.3048(5) 1.1138(5) 1.0351(4)
C34 C 0.4138(5) 1.1771(6) 1.0662(4)
C35 C 0.4658(5) 1.2228(5) 1.1662(4)
C36 C 0.4055(5) 1.2017(5) 1.2330(4)
H25 H 0.43820 1.22950 1.29710
C37 C 0.2318(6) 1.1182(7) 1.2721(5)
H26 H 0.26390 1.14910 1.33670
C38 C 0.1238(6) 1.0534(9) 1.2437(6)
H27 H 0.08450 1.04000 1.28850
C39 C 0.0741(6) 1.0075(9) 1.1438(6)
H28 H 0.00250 0.96280 1.12390
C40 C 0.1312(6) 1.0289(7) 1.0780(5)
H29 H 0.09620 1.00160 1.01450
C41 C 0.2442(5) 1.0928(6) 1.1034(4)
C42 C 0.2952(5) 1.1385(6) 1.2035(4)
C43 C 0.1688(5) 0.8137(5) 0.7002(5)
C44 C 0.5845(5) 1.2900(6) 1.1974(5)
N2 N 0.5282(12) 1.0359(12) 0.8552(12)
H30 H 0.48420 1.02220 0.89100
C45 C 0.4921(9) 0.9994(10) 0.7572(13)
H31 H 0.42030 0.96020 0.73030
C46 C 0.5632(15) 1.0215(12) 0.6994(7)
H32 H 0.53910 0.99710 0.63390
C47 C 0.6705(14) 1.0802(12) 0.7397(12)
H33 H 0.71820 1.09500 0.70100
C48 C 0.7067(8) 1.1167(9) 0.8377(13)
H34 H 0.77850 1.15590 0.86460
C49 C 0.6355(14) 1.0946(10) 0.8955(7)
H35 H 0.65970 1.11900 0.96100
C50 C 0.7745(16) 0.6022(13) 0.6561(15)
C51 C 0.6645(13) 0.5795(10) 0.6277(13)
H36 H 0.65760 0.64170 0.62230
H37 H 0.62750 0.56190 0.67480
H38 H 0.63500 0.51960 0.56710
O5A O 0.2690(3) 0.6597(4) 0.5415(3)
O10A O 0.3727(3) 0.6754(4) 0.7149(3)
O4* O -0.1437(3) 0.3597(3) 0.5754(3)
O7A O -0.1117(4) 0.2225(3) 0.3839(3)
O13A O -0.0495(3) 0.4535(3) 0.4060(3)
Zn2* Zn 0.96611(5) 0.37901(6) 0.49412(5)
Zn1A Zn 0.79042(5) 0.39158(6) 0.34524(5)
Zn2A Zn 0.03389(5) 0.62099(6) 0.50588(5)
Zn1A* Zn 0.79042(5) 1.39158(6) 1.34524(5)
H5A H -0.01030 0.43730 0.35560
#END
