
#######################################################################
#
#                 Cambridge Crystallographic Data Centre
#                                CCDC
#
#######################################################################
#
# If this CIF has been generated from an entry in the Cambridge
# Structural Database, then it will include bibliographic, chemical,
# crystal, experimental, refinement or atomic coordinate data resulting
# from the CCDC's data processing and validation procedures.
#
#######################################################################

data_CSD_CIF_ASEHUE
_audit_creation_date 2021-04-23
_audit_creation_method CSD-ConQuest-V1
_database_code_CSD ASEHUE
_database_code_depnum_ccdc_archive 'CCDC 1991650'
_chemical_formula_sum 'C48 H46 N6 O14 P4 Pd1 Zn2'
_chemical_formula_moiety
;
(C44 H26 N4 O12 P4 Pd1 Zn2 2-)n,2(C2 H8 N1 1+),2(H2 O1)
;
_journal_coden_Cambridge 222
_journal_year 2021
_journal_name_full 'Dalton Trans. '
loop_
_publ_author_name
"Y.Yu.Enakieva"
"E.A.Zhigileva"
"A.N.Fitch"
"V.V.Chernyshev"
"I.A.Stenina"
"A.B.Yaroslavtsev"
"A.A.Sinelshchikova"
"K.A.Kovalenko"
"Y.G.Gorbunova"
"A.Yu.Tsivadze"
_chemical_name_systematic
;
catena-[bis(dimethylammonium) 
(\m-5,15-bis(3-(phosphonato)phenyl)-10,20-bis(3-(hydrogen 
phosphonato)phenyl)porphyrinato)-palladium(ii)-di-zinc(ii) dihydrate]
;
_cell_volume   2483.081
_exptl_crystal_colour 'dark red'
_exptl_crystal_density_diffrn 1.728
_exptl_special_details
;
powder data

;
_diffrn_ambient_temperature 293
_diffrn_radiation_probe x-ray
_diffrn_source synchrotron
#These two values have been output from a single CSD field.
_refine_ls_R_factor_gt 0.0422
_refine_ls_wR_factor_gt 0.0422
_symmetry_cell_setting monoclinic
_symmetry_space_group_name_H-M 'P 21/c'
_symmetry_Int_Tables_number 14
loop_
_symmetry_equiv_pos_site_id
_symmetry_equiv_pos_as_xyz
1 x,y,z
2 -x,1/2+y,1/2-z
3 -x,-y,-z
4 x,-1/2-y,-1/2+z
_cell_length_a 16.7352(9)
_cell_length_b 13.4138(11)
_cell_length_c 11.1222(8)
_cell_angle_alpha 90
_cell_angle_beta 95.996(9)
_cell_angle_gamma 90
_cell_formula_units_Z 2
loop_
_atom_type_symbol
_atom_type_radius_bond
C 0.68
H 0.23
N 0.68
O 0.68
P 1.05
Pd 1.39
Zn 1.22
loop_
_atom_site_label
_atom_site_type_symbol
_atom_site_fract_x
_atom_site_fract_y
_atom_site_fract_z
Pd1 Pd 0.50000 0.50000 0.50000
N1 N 0.4943(6) 0.6353(5) 0.5852(6)
N2 N 0.4049(6) 0.4514(5) 0.5933(6)
C1 C 0.4431(7) 0.6666(6) 0.6676(8)
C2 C 0.3812(8) 0.6091(7) 0.7070(8)
C3 C 0.3254(8) 0.6546(7) 0.7872(8)
C4 C 0.2449(8) 0.6673(7) 0.7403(8)
H1 H 0.22770 0.64620 0.66220
C5 C 0.1916(7) 0.7110(7) 0.8101(8)
C6 C 0.2171(7) 0.7436(7) 0.9274(8)
H2 H 0.18030 0.77020 0.97570
C7 C 0.2973(7) 0.7360(7) 0.9709(8)
H3 H 0.31480 0.75940 1.04790
C8 C 0.3524(8) 0.6930(7) 0.8991(8)
H4 H 0.40680 0.69050 0.92690
C9 C 0.3618(8) 0.5070(7) 0.6721(9)
C10 C 0.2955(8) 0.4468(7) 0.7073(8)
H5 H 0.25780 0.46690 0.75810
C11 C 0.2982(7) 0.3591(7) 0.6548(8)
H6 H 0.26310 0.30630 0.66230
C12 C 0.3650(8) 0.3597(7) 0.5839(8)
C13 C 0.3881(8) 0.2806(7) 0.5171(8)
C14 C 0.3453(8) 0.1842(7) 0.5299(8)
C15 C 0.3826(7) 0.1045(7) 0.5905(8)
H7 H 0.43740 0.10690 0.61530
C16 C 0.3378(8) 0.0194(7) 0.6149(8)
H8 H 0.36160 -0.03280 0.66050
C17 C 0.2569(8) 0.0149(7) 0.5693(8)
H9 H 0.22730 -0.04230 0.58090
C18 C 0.2208(8) 0.0941(7) 0.5077(8)
C19 C 0.2636(8) 0.1793(7) 0.4878(8)
H10 H 0.23840 0.23300 0.44680
C20 C 0.5437(7) 0.7168(6) 0.5723(8)
C21 C 0.5210(8) 0.7994(7) 0.6449(8)
H11 H 0.54490 0.86210 0.65100
C22 C 0.4587(7) 0.7680(6) 0.7019(8)
H12 H 0.43080 0.80540 0.75420
P1 P 0.0859(3) 0.7143(2) 0.7598(3)
O1 O 0.0454(5) 0.7482(4) 0.8688(5)
O2 O 0.0636(5) 0.6106(4) 0.7179(5)
O3 O 0.0768(5) 0.7911(4) 0.6592(5)
P2 P 0.1178(3) 0.0655(2) 0.4584(3)
O4 O 0.0705(5) 0.1565(4) 0.4876(5)
O5 O 0.1154(5) 0.0500(4) 0.3205(5)
H13 H 0.12050 -0.00950 0.30610
O6 O 0.0996(5) -0.0266(4) 0.5216(5)
Zn1 Zn -0.04210(12) 0.1557(1) 0.49620(13)
N3 N 0.0926(6) 0.4346(5) 0.3689(7)
H14 H 0.10580 0.37740 0.33370
H15 H 0.04820 0.45770 0.32500
C23 C 0.0692(6) 0.4084(6) 0.4848(7)
H16 H 0.08920 0.34310 0.50680
H17 H 0.01170 0.40860 0.48150
H18 H 0.09110 0.45590 0.54390
C24 C 0.1554(7) 0.5040(6) 0.3532(8)
H19 H 0.15090 0.56030 0.40540
H20 H 0.15100 0.52600 0.27060
H21 H 0.20650 0.47240 0.37310
O7 O 0.1218(5) 0.2928(4) 0.2218(5)
H22 H 0.07260 0.26410 0.20390
H23 H 0.12640 0.32000 0.14960
N1B N 0.5057(6) 0.3647(5) 0.4148(6)
N2B N 0.5951(6) 0.5486(5) 0.4067(6)
C1B C 0.5569(7) 0.3334(6) 0.3324(8)
C2B C 0.6188(8) 0.3909(7) 0.2930(8)
C3B C 0.6746(8) 0.3454(7) 0.2128(8)
C4B C 0.7551(8) 0.3327(7) 0.2597(8)
H1B H 0.77230 0.35380 0.33780
C5B C 0.8084(7) 0.2890(7) 0.1899(8)
C6B C 0.7829(7) 0.2564(7) 0.0726(8)
H2B H 0.81970 0.22980 0.02430
C7B C 0.7027(7) 0.2640(7) 0.0291(8)
H3B H 0.68520 0.24060 -0.04790
C8B C 0.6476(8) 0.3070(7) 0.1009(8)
H4B H 0.59320 0.30950 0.07310
C9B C 0.6382(8) 0.4930(7) 0.3279(9)
C10B C 0.7045(8) 0.5532(7) 0.2927(8)
H5B H 0.74220 0.53310 0.24190
C11B C 0.7018(7) 0.6409(7) 0.3452(8)
H6B H 0.73690 0.69370 0.33770
C12B C 0.6350(8) 0.6403(7) 0.4161(8)
C13B C 0.6119(8) 0.7194(7) 0.4829(8)
C14B C 0.6547(8) 0.8158(7) 0.4701(8)
C15B C 0.6174(7) 0.8955(7) 0.4095(8)
H7B H 0.56260 0.89310 0.38470
C16B C 0.6622(8) 0.9806(7) 0.3851(8)
H8B H 0.63840 1.03280 0.33950
C17B C 0.7431(8) 0.9851(7) 0.4307(8)
H9B H 0.77270 1.04230 0.41910
C18B C 0.7792(8) 0.9059(7) 0.4923(8)
C19B C 0.7364(8) 0.8207(7) 0.5122(8)
H10B H 0.76160 0.76700 0.55320
C20B C 0.4563(7) 0.2832(6) 0.4277(8)
C21B C 0.4790(8) 0.2006(7) 0.3551(8)
H11B H 0.45510 0.13790 0.34900
C22B C 0.5413(7) 0.2320(6) 0.2981(8)
H12B H 0.56920 0.19460 0.24580
P1B P 0.9141(3) 0.2857(2) 0.2402(3)
O1B O 0.9546(5) 0.2518(4) 0.1312(5)
O2B O 0.9364(5) 0.3894(4) 0.2821(5)
O3B O 0.9232(5) 0.2089(4) 0.3408(5)
P2B P 0.8822(3) 0.9345(2) 0.5416(3)
O4B O 0.9295(5) 0.8435(4) 0.5124(5)
O5B O 0.8846(5) 0.9500(4) 0.6795(5)
H13B H 0.87950 1.00950 0.69390
O6B O 0.9004(5) 1.0266(4) 0.4784(5)
Zn1B Zn 0.04210(12) -0.1557(1) 0.50380(13)
O1C O 0.0454(5) -0.2482(4) 0.3688(5)
O1A O -0.0454(5) 0.2482(4) 0.6312(5)
O3* O 0.0768(5) -0.2089(4) 0.6592(5)
O3B* O -0.0768(5) 0.2089(4) 0.3408(5)
O4B* O -0.0705(5) -0.1565(4) 0.5124(5)
O6B* O -0.0996(5) 0.0266(4) 0.4784(5)
Zn1* Zn 0.95790(12) 0.1557(1) 0.49620(13)
Zn1** Zn 0.95790(12) 1.1557(1) 0.49620(13)
Zn1C Zn 0.95790(12) 0.3443(1) -0.00380(13)
Zn1B* Zn 0.04210(12) 0.8443(1) 0.50380(13)
Zn1B** Zn 1.04210(12) 0.8443(1) 0.50380(13)
Zn1A Zn 0.04210(12) 0.6557(1) 1.00380(13)
#END
