
#######################################################################
#
#                 Cambridge Crystallographic Data Centre
#                                CCDC
#
#######################################################################
#
# If this CIF has been generated from an entry in the Cambridge
# Structural Database, then it will include bibliographic, chemical,
# crystal, experimental, refinement or atomic coordinate data resulting
# from the CCDC's data processing and validation procedures.
#
#######################################################################

data_CSD_CIF_ASEJAM
_audit_creation_date 2021-04-23
_audit_creation_method CSD-ConQuest-V1
_database_code_CSD ASEJAM
_database_code_depnum_ccdc_archive 'CCDC 2035379'
_chemical_formula_sum 'C48 H42 N6 O12 P4 Pd1 Zn2'
_chemical_formula_moiety
;
(C44 H26 N4 O12 P4 Pd1 Zn2 2-)n,2(C2 H8 N1 1+)
;
_journal_coden_Cambridge 222
_journal_year 2021
_journal_name_full 'Dalton Trans. '
loop_
_publ_author_name
"Y.Yu.Enakieva"
"E.A.Zhigileva"
"A.N.Fitch"
"V.V.Chernyshev"
"I.A.Stenina"
"A.B.Yaroslavtsev"
"A.A.Sinelshchikova"
"K.A.Kovalenko"
"Y.G.Gorbunova"
"A.Yu.Tsivadze"
_chemical_name_systematic
;
catena-[bis(dimethylammonium) 
(\m-5,15-bis(3-(phosphonato)phenyl)-10,20-bis(3-(hydrogen 
phosphonato)phenyl)porphyrinato)-palladium(ii)-di-zinc(ii)]
;
_cell_volume   2400.255
_exptl_crystal_colour 'dark red'
_exptl_crystal_density_diffrn 1.738
_exptl_special_details
;
powder data

;
_diffrn_ambient_temperature 423
_diffrn_radiation_probe x-ray
_diffrn_source synchrotron
#These two values have been output from a single CSD field.
_refine_ls_R_factor_gt 0.0369
_refine_ls_wR_factor_gt 0.0369
_symmetry_cell_setting monoclinic
_symmetry_space_group_name_H-M 'P 21/c'
_symmetry_Int_Tables_number 14
loop_
_symmetry_equiv_pos_site_id
_symmetry_equiv_pos_as_xyz
1 x,y,z
2 -x,1/2+y,1/2-z
3 -x,-y,-z
4 x,-1/2-y,-1/2+z
_cell_length_a 16.0299(13)
_cell_length_b 13.4801(11)
_cell_length_c 11.2176(11)
_cell_angle_alpha 90
_cell_angle_beta 98.018(12)
_cell_angle_gamma 90
_cell_formula_units_Z 2
loop_
_atom_type_symbol
_atom_type_radius_bond
C 0.68
H 0.23
N 0.68
O 0.68
P 1.05
Pd 1.39
Zn 1.22
loop_
_atom_site_label
_atom_site_type_symbol
_atom_site_fract_x
_atom_site_fract_y
_atom_site_fract_z
Pd1 Pd 0.50000 0.50000 0.50000
N1 N 0.4925(8) 0.6363(7) 0.5790(8)
N2 N 0.3991(9) 0.4516(7) 0.5842(8)
C1 C 0.4301(10) 0.6721(10) 0.6411(10)
C2 C 0.3655(11) 0.6167(9) 0.6784(11)
C3 C 0.3051(10) 0.6634(10) 0.7498(10)
C4 C 0.2216(11) 0.6827(10) 0.6977(10)
H1 H 0.20340 0.66340 0.61880
C5 C 0.1667(11) 0.7299(10) 0.7628(11)
C6 C 0.1952(11) 0.7623(10) 0.8804(11)
H2 H 0.15760 0.79130 0.92610
C7 C 0.2788(11) 0.7513(10) 0.9283(11)
H3 H 0.29810 0.77590 1.00460
C8 C 0.3343(11) 0.7034(9) 0.8624(11)
H4 H 0.39100 0.69810 0.89360
C9 C 0.3501(11) 0.5092(10) 0.6527(10)
C10 C 0.2855(11) 0.4482(9) 0.6924(11)
H5 H 0.24670 0.46880 0.74160
C11 C 0.2906(11) 0.358(1) 0.6472(10)
H6 H 0.25440 0.30530 0.65520
C12 C 0.3627(10) 0.3566(10) 0.5833(10)
C13 C 0.3929(11) 0.2734(9) 0.5346(11)
C14 C 0.3510(11) 0.1762(10) 0.5494(11)
C15 C 0.3940(11) 0.0968(9) 0.6071(10)
H7 H 0.44940 0.10470 0.64350
C16 C 0.3543(11) 0.0049(10) 0.6108(10)
H8 H 0.38490 -0.04950 0.64400
C17 C 0.2690(11) -0.0063(10) 0.565(1)
H9 H 0.24100 -0.06590 0.57220
C18 C 0.2270(11) 0.077(1) 0.5072(11)
C19 C 0.2661(11) 0.1658(10) 0.5017(10)
H10 H 0.23640 0.21990 0.46610
C20 C 0.5413(11) 0.7188(9) 0.5625(11)
C21 C 0.5108(11) 0.8046(9) 0.6211(11)
H11 H 0.53320 0.86830 0.62310
C22 C 0.4448(11) 0.7751(9) 0.6716(11)
H12 H 0.41370 0.81390 0.71810
P1 P 0.0591(4) 0.7551(3) 0.7043(4)
O1 O 0.0447(7) 0.8635(6) 0.7341(7)
O2 O 0.0069(7) 0.6865(6) 0.7723(7)
O3 O 0.0475(7) 0.7353(7) 0.5723(7)
P2 P 0.1185(4) 0.0465(3) 0.4651(4)
O4 O 0.0746(7) 0.1080(6) 0.5512(7)
O5 O 0.0941(8) 0.0757(6) 0.3359(7)
H13 H 0.04470 0.06090 0.31420
O6 O 0.1093(7) -0.0630(6) 0.4863(7)
Zn1 Zn -0.03190(16) 0.16410(15) 0.55020(14)
N3 N 0.117(1) 0.4485(8) 0.3768(9)
H14 H 0.10470 0.51270 0.36060
H15 H 0.08420 0.41310 0.32060
C23 C 0.0870(9) 0.4282(9) 0.4864(10)
H16 H 0.11830 0.37400 0.52610
H17 H 0.02840 0.41080 0.47090
H18 H 0.09390 0.48590 0.53700
C24 C 0.2007(9) 0.4350(9) 0.3518(11)
H19 H 0.23350 0.40280 0.41890
H20 H 0.22510 0.49840 0.33850
H21 H 0.20000 0.39470 0.28110
N1B N 0.5075(8) 0.3637(7) 0.4210(8)
N2B N 0.6009(9) 0.5484(7) 0.4158(8)
C1B C 0.5699(10) 0.3279(10) 0.3589(10)
C2B C 0.6345(11) 0.3833(9) 0.3216(11)
C3B C 0.6949(10) 0.3366(10) 0.2502(10)
C4B C 0.7784(11) 0.3173(10) 0.3023(10)
H1B H 0.79660 0.33660 0.38120
C5B C 0.8333(11) 0.2701(10) 0.2372(11)
C6B C 0.8048(11) 0.2377(10) 0.1196(11)
H2B H 0.84240 0.20870 0.07390
C7B C 0.7212(11) 0.2487(10) 0.0717(11)
H3B H 0.70190 0.22410 -0.00460
C8B C 0.6657(11) 0.2966(9) 0.1376(11)
H4B H 0.60900 0.30190 0.10640
C9B C 0.6499(11) 0.4908(10) 0.3473(10)
C10B C 0.7145(11) 0.5518(9) 0.3076(11)
H5B H 0.75330 0.53120 0.25840
C11B C 0.7094(11) 0.642(1) 0.3528(10)
H6B H 0.74560 0.69470 0.34480
C12B C 0.6373(10) 0.6434(10) 0.4167(10)
C13B C 0.6071(11) 0.7266(9) 0.4654(11)
C14B C 0.6490(11) 0.8238(10) 0.4506(11)
C15B C 0.6060(11) 0.9032(9) 0.3929(10)
H7B H 0.55060 0.89530 0.35650
C16B C 0.6457(11) 0.9951(10) 0.3892(10)
H8B H 0.61510 1.04950 0.35600
C17B C 0.7310(11) 1.0063(10) 0.435(1)
H9B H 0.75900 1.06590 0.42780
C18B C 0.7730(11) 0.923(1) 0.4928(11)
C19B C 0.7339(11) 0.8342(10) 0.4983(10)
H10B H 0.76360 0.78010 0.53390
C20B C 0.4587(11) 0.2812(9) 0.4375(11)
C21B C 0.4892(11) 0.1954(9) 0.3789(11)
H11B H 0.46680 0.13170 0.37690
C22B C 0.5552(11) 0.2249(9) 0.3284(11)
H12B H 0.58630 0.18610 0.28190
P1B P 0.9409(4) 0.2449(3) 0.2957(4)
O1B O 0.9553(7) 0.1365(6) 0.2659(7)
O2B O 0.9931(7) 0.3135(6) 0.2277(7)
O3B O 0.9525(7) 0.2647(7) 0.4277(7)
P2B P 0.8815(4) 0.9535(3) 0.5349(4)
O4B O 0.9254(7) 0.8920(6) 0.4488(7)
O5B O 0.9059(8) 0.9243(6) 0.6641(7)
H13B H 0.95530 0.93910 0.68580
O6B O 0.8907(7) 1.0630(6) 0.5137(7)
Zn1B Zn 0.03190(16) -0.16410(15) 0.44980(14)
O2C O 0.0069(7) -0.1865(6) 0.2723(7)
O2A O -0.0069(7) 0.1865(6) 0.7277(7)
O3* O 0.0475(7) -0.2647(7) 0.5723(7)
O3B* O -0.0475(7) 0.2647(7) 0.4277(7)
O4B* O -0.0746(7) -0.1080(6) 0.4488(7)
O6B* O -0.1093(7) 0.0630(6) 0.5137(7)
Zn1* Zn 0.96810(16) 0.16410(15) 0.55020(14)
Zn1** Zn 0.96810(16) 1.16410(15) 0.55020(14)
Zn1C Zn 0.96810(16) 0.33590(15) 0.05020(14)
Zn1B* Zn 0.03190(16) 0.83590(15) 0.44980(14)
Zn1B** Zn 1.03190(16) 0.83590(15) 0.44980(14)
Zn1A Zn 0.03190(16) 0.66410(15) 0.94980(14)
#END
