
#######################################################################
#
#                 Cambridge Crystallographic Data Centre
#                                CCDC
#
#######################################################################
#
# If this CIF has been generated from an entry in the Cambridge
# Structural Database, then it will include bibliographic, chemical,
# crystal, experimental, refinement or atomic coordinate data resulting
# from the CCDC's data processing and validation procedures.
#
#######################################################################

data_CSD_CIF_ASEJAL
_audit_creation_date 2016-07-27
_audit_creation_method CSD-ConQuest-V1
_database_code_CSD ASEJAL
_database_code_depnum_ccdc_archive 'CCDC 1438789'
_chemical_formula_sum 'C25 H18 N3 O8 U1'
_chemical_formula_moiety
;
(C20 H13 N2 O8 U1 1-)n,0.5n(C10 H10 N2 2+)
;
_journal_coden_Cambridge 1147
_journal_volume 16
_journal_year 2016
_journal_page_first 4886
_journal_name_full 'Cryst.Growth Des. '
loop_
_publ_author_name
"Kong-Qiu Hu"
"Liu-Zheng Zhu"
"Cong-Zhi Wang"
"Lei Mei"
"Yun-Hai Liu"
"Zeng-Qiang Gao"
"Zhi-Fang Chai"
"Wei-Qun Shi"
_chemical_name_systematic
;
catena-(hemikis(4,4'-bipyridinium) 
(\m-2,2'-biquinoline-4,4'-dicarboxylato)-(\m-hydroxo)-aqua-dioxo-uranium 
unknown solvate)
;
_cell_volume   1891.196
_exptl_crystal_colour 'yellow'
_exptl_crystal_density_diffrn 1.27
_exptl_crystal_description 'block'
_diffrn_ambient_temperature 293
_refine_special_details
;
The SQUEEZE/PLATON program has been used to model some disordered solvent and 
possibly counterions.
;
#These two values have been output from a single CSD field.
_refine_ls_R_factor_gt 0.1097
_refine_ls_wR_factor_gt 0.1097
_symmetry_cell_setting triclinic
_symmetry_space_group_name_H-M 'P -1'
_symmetry_Int_Tables_number 2
loop_
_symmetry_equiv_pos_site_id
_symmetry_equiv_pos_as_xyz
1 x,y,z
2 -x,-y,-z
_cell_length_a 9.969(2)
_cell_length_b 13.911(3)
_cell_length_c 14.547(3)
_cell_angle_alpha 79.98(3)
_cell_angle_beta 72.30(3)
_cell_angle_gamma 89.00(3)
_cell_formula_units_Z 2
loop_
_atom_type_symbol
_atom_type_radius_bond
C 0.68
H 0.23
N 0.68
O 0.68
U 1.96
loop_
_atom_site_label
_atom_site_type_symbol
_atom_site_fract_x
_atom_site_fract_y
_atom_site_fract_z
U1 U -0.52945(4) 0.85951(3) 1.02693(3)
O1 O -0.3998(7) 0.8464(5) 1.0892(5)
O2 O 0.2826(9) 0.8146(6) 0.1777(6)
O3 O -0.6595(8) 0.8683(5) 0.9647(6)
O4 O -0.5916(7) 1.0044(5) 1.0866(5)
O5 O -0.3592(8) 0.8002(7) 0.8889(7)
O6 O -0.5617(13) 0.6800(7) 1.0464(8)
O7 O 0.3598(9) 0.7090(6) 0.2821(6)
N1 N 0.0743(13) 0.7463(7) 0.6217(8)
C1 C -0.3327(10) 0.7279(10) 0.8486(9)
C2 C 0.2587(13) 0.7572(9) 0.2547(9)
C3 C -0.0335(13) 0.7390(8) 0.4974(10)
C4 C 0.1133(13) 0.7478(8) 0.3310(11)
C5 C 0.1034(13) 0.7446(8) 0.4288(8)
H1 H 0.18360 0.74600 0.44860
C6 C -0.0112(13) 0.7465(9) 0.2026(10)
H2 H 0.07310 0.75400 0.15160
C7 C -0.1990(11) 0.7342(8) 0.7759(9)
C8 C 0.0669(16) 0.7464(11) 0.7194(12)
C9 C -0.0582(16) 0.7434(11) 0.7939(12)
C10 C -0.0083(14) 0.7448(8) 0.3005(9)
N2 N -0.1532(11) 0.7335(8) 0.4742(8)
C11 C -0.0577(16) 0.7485(11) 0.8898(12)
H3 H -0.14240 0.74880 0.93960
C12 C -0.0478(13) 0.7393(8) 0.6021(10)
C13 C -0.1332(12) 0.7374(9) 0.1822(10)
H4 H -0.13190 0.73730 0.11800
C14 C -0.1374(14) 0.7341(10) 0.3754(11)
C15 C -0.2588(17) 0.7283(11) 0.2557(12)
H5 H -0.34240 0.72410 0.24050
C16 C -0.1741(14) 0.7329(8) 0.6745(9)
H6 H -0.25380 0.72700 0.65510
O8 O -0.3706(8) 0.6466(7) 0.8784(7)
C17 C -0.2637(14) 0.7253(12) 0.3522(12)
H7 H -0.34970 0.71750 0.40150
C18 C 0.0701(16) 0.7530(11) 0.9100(12)
H8 H 0.07210 0.75680 0.97270
C19 C 0.1881(16) 0.7527(11) 0.7411(12)
H9 H 0.27150 0.75820 0.68940
C20 C 0.1987(17) 0.7517(11) 0.8310(12)
H10 H 0.28600 0.75020 0.84200
C21 C -0.4929(11) 0.9120(8) 0.6163(8)
H11 H -0.49660 0.85170 0.59760
N3 N -0.4800(9) 1.0010(6) 0.7391(7)
H12 H -0.48110 1.00140 0.79840
C22 C -0.4738(12) 1.0867(10) 0.6749(9)
H13 H -0.46370 1.14550 0.69470
C23 C -0.4823(13) 1.0883(9) 0.5819(9)
H14 H -0.47850 1.14770 0.54020
C24 C -0.4841(13) 0.9166(9) 0.7078(10)
H15 H -0.48090 0.85850 0.74970
C25 C -0.4966(11) 1.0002(8) 0.5495(8)
U1* U 0.47055(4) 0.85951(3) 0.02693(3)
U1A U -0.47055(4) 1.14049(3) 0.97307(3)
O2* O -0.7174(9) 0.8146(6) 1.1777(6)
O4A O -0.4084(7) 0.9956(5) 0.9134(5)
C21A C -0.5071(11) 1.0880(8) 0.3837(8)
H11A H -0.50340 1.14830 0.40240
N3A N -0.5200(9) 0.9990(6) 0.2609(7)
H12A H -0.51890 0.99860 0.20160
C22A C -0.5262(12) 0.9133(10) 0.3251(9)
H13A H -0.53630 0.85450 0.30530
C23A C -0.5177(13) 0.9117(9) 0.4181(9)
H14A H -0.52150 0.85230 0.45980
C24A C -0.5159(13) 1.0834(9) 0.2922(10)
H15A H -0.51910 1.14150 0.25030
C25A C -0.5034(11) 0.9998(8) 0.4505(8)
#END
