
#######################################################################
#
#                 Cambridge Crystallographic Data Centre
#                                CCDC
#
#######################################################################
#
# If this CIF has been generated from an entry in the Cambridge
# Structural Database, then it will include bibliographic, chemical,
# crystal, experimental, refinement or atomic coordinate data resulting
# from the CCDC's data processing and validation procedures.
#
#######################################################################

data_CSD_CIF_ASIQUQ
_audit_creation_date 2016-08-23
_audit_creation_method CSD-ConQuest-V1
_database_code_CSD ASIQUQ
_database_code_depnum_ccdc_archive 'CCDC 1432035'
_chemical_formula_sum 'C52 H60 Ag6 N16 O80 P2 W18'
_chemical_formula_moiety
;
(O62 P2 W18 6-)n,2n(C26 H22 Ag3 N8 O5 3+),8n(H2 O1)
;
_journal_coden_Cambridge 9
_journal_volume 55
_journal_year 2016
_journal_page_first 6384
_journal_name_full 'Inorg.Chem. '
loop_
_publ_author_name
"Xiu-Li Wang"
"Rui Zhang"
"Xiang Wang"
"Hong-Yan Lin"
"Guo-Cheng Liu"
_chemical_name_systematic
;
catena-[bis(bis(\m-3-(1H-imidazol-3-ium-1-yl)-5-(1H-imidazol-1-yl)benzoato)-aq
ua-tri-silver) 
hexakis(\m-oxo)-bis(\m-phosphato)-octadecaoxo-octadeca-tungsten octahydrate]
;
_cell_volume  10912.735
_exptl_crystal_colour 'yellow'
_exptl_crystal_density_diffrn 3.763
_exptl_crystal_description 'block'
_diffrn_ambient_temperature 293
#These two values have been output from a single CSD field.
_refine_ls_R_factor_gt 0.0448
_refine_ls_wR_factor_gt 0.0448
_symmetry_cell_setting monoclinic
_symmetry_space_group_name_H-M 'C 2/c'
_symmetry_Int_Tables_number 15
loop_
_symmetry_equiv_pos_site_id
_symmetry_equiv_pos_as_xyz
1 x,y,z
2 -x,y,1/2-z
3 1/2+x,1/2+y,z
4 1/2-x,1/2+y,1/2-z
5 -x,-y,-z
6 x,-y,-1/2+z
7 -1/2-x,-1/2-y,-z
8 -1/2+x,-1/2-y,-1/2+z
_cell_length_a 39.804(5)
_cell_length_b 13.587(5)
_cell_length_c 23.074(5)
_cell_angle_alpha 90
_cell_angle_beta 119.014(5)
_cell_angle_gamma 90
_cell_formula_units_Z 4
loop_
_atom_type_symbol
_atom_type_radius_bond
C 0.68
H 0.23
Ag 1.45
N 0.68
O 0.68
P 1.05
W 1.62
loop_
_atom_site_label
_atom_site_type_symbol
_atom_site_fract_x
_atom_site_fract_y
_atom_site_fract_z
W1 W 0.09897(2) 0.79477(5) 0.50100(3)
O1 O 0.0516(3) 0.7345(8) 0.4787(5)
O2 O 0.0888(3) 0.7221(7) 0.4009(5)
O3 O 0.1223(3) 0.6675(8) 0.5219(5)
O4 O 0.0692(3) 0.9001(8) 0.4461(4)
O5 O 0.1133(3) 0.8352(9) 0.5796(5)
O6 O 0.1407(3) 0.8352(8) 0.4882(5)
W2 W -0.00253(2) 0.71680(6) 0.42015(3)
P1 P 0.04948(10) 0.7239(3) 0.33320(17)
W3 W 0.12272(2) 0.57909(6) 0.45744(3)
W4 W 0.14598(2) 0.79480(6) 0.41336(3)
W5 W 0.02340(2) 0.95084(6) 0.37318(3)
O7 O 0.0208(3) 0.6698(8) 0.3471(5)
O8 O -0.0514(3) 0.6987(10) 0.3439(5)
O9 O -0.0170(3) 0.7371(12) 0.4778(6)
O10 O 0.0051(3) 0.5813(10) 0.4295(5)
O11 O -0.0017(3) 0.8434(9) 0.3887(5)
O12 O 0.0560(3) 0.6713(8) 0.2813(5)
O13 O 0.0384(3) 0.8324(7) 0.3149(5)
O14 O 0.0739(3) 0.5362(9) 0.4393(5)
O15 O 0.1102(3) 0.5355(9) 0.3715(5)
O16 O 0.1528(4) 0.4893(10) 0.5068(7)
O17 O 0.1595(3) 0.6675(9) 0.4540(5)
O18 O 0.1903(3) 0.8430(13) 0.4360(6)
O19 O 0.1320(3) 0.7369(9) 0.3302(5)
O20 O 0.1134(3) 0.8993(9) 0.3656(5)
O21 O 0.0532(3) 1.0157(9) 0.3405(5)
O22 O 0.0153(4) 1.0449(10) 0.4138(6)
O23 O -0.0210(3) 0.9653(9) 0.2886(5)
W6 W 0.02074(2) 0.50403(6) 0.37597(4)
W7 W -0.09673(2) 0.71852(7) 0.26268(3)
W8 W 0.07330(2) 0.50509(6) 0.28124(4)
W9 W 0.07002(2) 0.95013(6) 0.28547(3)
O24 O 0.0384(3) 0.4813(9) 0.3145(6)
O25 O 0.0216(4) 0.3885(10) 0.4052(7)
O26 O -0.0302(3) 0.5055(9) 0.3052(6)
O27 O -0.1030(3) 0.5816(9) 0.2480(6)
O28 O -0.1287(3) 0.7430(13) 0.2913(6)
O29 O -0.0787(3) 0.8454(9) 0.2587(5)
O30 O 0.0899(4) 0.3901(11) 0.2819(7)
O31 O 0.0935(4) 1.0431(11) 0.2721(6)
Ag1 Ag 0.26219(3) 0.88089(12) 0.48213(5)
C1 C 0.4127(6) 0.853(3) 0.3679(10)
H1 H 0.40500 0.90550 0.38440
N1 N 0.3907(4) 0.7953(13) 0.3157(7)
C2 C 0.4144(7) 0.7302(19) 0.3097(12)
H2 H 0.40690 0.68020 0.27830
N2 N 0.0798(5) 1.1222(17) 0.5455(9)
C3 C 0.0645(5) 1.0656(16) 0.5778(10)
H3 H 0.03880 1.06290 0.56710
N3 N 0.4498(6) 0.815(2) 0.3918(9)
C4 C 0.4489(7) 0.748(3) 0.3539(13)
H4 H 0.47050 0.71600 0.35740
N4 N 0.1268(4) 1.0418(10) 0.6254(6)
N5 N 0.2672(4) 0.8200(9) 0.3052(6)
C5 C 0.2892(4) 0.8155(11) 0.2717(7)
N6 N 0.2545(4) 0.8453(11) 0.3869(6)
C6 C 0.1645(5) 1.0028(12) 0.6681(8)
N7 N 0.2671(3) 0.9110(11) 0.5758(5)
C7 C 0.2718(5) 0.8192(12) 0.2038(7)
H5 H 0.24520 0.82330 0.17890
N8 N 0.2492(3) 0.9379(10) 0.6506(6)
C8 C 0.0936(5) 1.0158(15) 0.6271(9)
H6 H 0.09180 0.97240 0.65660
C9 C 0.1172(6) 1.1007(19) 0.5752(11)
H7 H 0.13430 1.12470 0.56180
C10 C 0.3494(5) 0.8044(14) 0.2762(7)
C11 C 0.3328(5) 0.8066(12) 0.2089(8)
H8 H 0.34780 0.80130 0.18830
C12 C 0.3286(5) 0.8082(13) 0.3096(7)
H9 H 0.34070 0.80580 0.35560
C13 C 0.2938(5) 0.8168(11) 0.1721(7)
C14 C 0.2295(4) 0.7958(12) 0.2822(7)
H10 H 0.21220 0.77390 0.23980
C15 C 0.2222(4) 0.8098(12) 0.3326(8)
H11 H 0.19880 0.79740 0.33100
C16 C 0.2807(5) 0.8486(14) 0.3694(8)
H12 H 0.30590 0.86810 0.39720
C17 C 0.2764(6) 0.8327(14) 0.1000(8)
C18 C 0.2986(4) 0.9292(12) 0.6350(7)
H13 H 0.32360 0.92990 0.64190
C19 C 0.2377(4) 0.9161(11) 0.5864(7)
H14 H 0.21230 0.90600 0.55410
C20 C 0.2890(4) 0.9461(11) 0.6825(7)
H15 H 0.30540 0.96020 0.72690
C21 C 0.2119(4) 0.9480(12) 0.7710(7)
C22 C 0.2262(5) 0.9286(13) 0.8426(7)
C23 C 0.1759(5) 0.9835(11) 0.7326(7)
H16 H 0.15950 0.99410 0.75010
C24 C 0.1880(4) 0.9912(12) 0.6388(7)
H17 H 0.17940 1.00790 0.59480
C25 C 0.2368(4) 0.9338(11) 0.7443(7)
H18 H 0.26160 0.91070 0.77120
C26 C 0.2243(4) 0.9543(12) 0.6780(6)
O32 O 0.2612(3) 0.9073(10) 0.8768(5)
O33 O 0.2027(4) 0.9324(11) 0.8627(5)
O34 O 0.2415(4) 0.8486(11) 0.0673(5)
O35 O 0.2986(3) 0.8263(11) 0.0755(5)
Ag2 Ag 0.28768(5) 0.88007(17) 0.98151(7)
Ag3 Ag 0.21288(5) 0.90254(16) 0.96307(7)
O36 O 0.1513(4) 0.9286(12) 0.9621(8)
O37 O 0.3333(7) 0.899(3) 0.8538(11)
O38 O 0.1757(9) 0.253(2) 0.571(2)
O39 O 0.1290(13) 0.733(3) 0.927(2)
O40 O 0.4152(10) 0.064(3) 0.4333(15)
W1A W -0.09897(2) 0.79477(5) -0.00100(3)
O1A O -0.0516(3) 0.7345(8) 0.0213(5)
O2A O -0.0888(3) 0.7221(7) 0.0991(5)
O3A O -0.1223(3) 0.6675(8) -0.0219(5)
O4A O -0.0692(3) 0.9001(8) 0.0539(4)
O5A O -0.1133(3) 0.8352(9) -0.0796(5)
O6A O -0.1407(3) 0.8352(8) 0.0118(5)
W2A W 0.00253(2) 0.71680(6) 0.07985(3)
P1A P -0.04948(10) 0.7239(3) 0.16680(17)
W3A W -0.12272(2) 0.57909(6) 0.04256(3)
W4A W -0.14598(2) 0.79480(6) 0.08664(3)
W5A W -0.02340(2) 0.95084(6) 0.12682(3)
O7A O -0.0208(3) 0.6698(8) 0.1529(5)
O8A O 0.0514(3) 0.6987(10) 0.1561(5)
O9A O 0.0170(3) 0.7371(12) 0.0222(6)
O10A O -0.0051(3) 0.5813(10) 0.0705(5)
O11A O 0.0017(3) 0.8434(9) 0.1113(5)
O12A O -0.0560(3) 0.6713(8) 0.2187(5)
O13A O -0.0384(3) 0.8324(7) 0.1851(5)
O14A O -0.0739(3) 0.5362(9) 0.0607(5)
O15A O -0.1102(3) 0.5355(9) 0.1285(5)
O16A O -0.1528(4) 0.4893(10) -0.0068(7)
O17A O -0.1595(3) 0.6675(9) 0.0460(5)
O18A O -0.1903(3) 0.8430(13) 0.0640(6)
O19A O -0.1320(3) 0.7369(9) 0.1698(5)
O20A O -0.1134(3) 0.8993(9) 0.1344(5)
O21A O -0.0532(3) 1.0157(9) 0.1595(5)
O22A O -0.0153(4) 1.0449(10) 0.0862(6)
O23A O 0.0210(3) 0.9653(9) 0.2114(5)
W6A W -0.02074(2) 0.50403(6) 0.12403(4)
W7A W 0.09673(2) 0.71852(7) 0.23732(3)
W8A W -0.07330(2) 0.50509(6) 0.21876(4)
W9A W -0.07002(2) 0.95013(6) 0.21453(3)
O24A O -0.0384(3) 0.4813(9) 0.1855(6)
O25A O -0.0216(4) 0.3885(10) 0.0948(7)
O26A O 0.0302(3) 0.5055(9) 0.1948(6)
O27A O 0.1030(3) 0.5816(9) 0.2520(6)
O28A O 0.1287(3) 0.7430(13) 0.2087(6)
O29A O 0.0787(3) 0.8454(9) 0.2413(5)
O30A O -0.0899(4) 0.3901(11) 0.2181(7)
O31A O -0.0935(4) 1.0431(11) 0.2279(6)
O34* O 0.2415(4) 0.8486(11) 1.0673(5)
O35* O 0.2986(3) 0.8263(11) 1.0755(5)
Ag2* Ag 0.28768(5) 0.88007(17) -0.01849(7)
Ag3* Ag 0.21288(5) 0.90254(16) -0.03693(7)
#END
