
#######################################################################
#
#                 Cambridge Crystallographic Data Centre
#                                CCDC
#
#######################################################################
#
# If this CIF has been generated from an entry in the Cambridge
# Structural Database, then it will include bibliographic, chemical,
# crystal, experimental, refinement or atomic coordinate data resulting
# from the CCDC's data processing and validation procedures.
#
#######################################################################

data_CSD_CIF_ASOLUS
_audit_creation_date 2021-05-17
_audit_creation_method CSD-ConQuest-V1
_database_code_CSD ASOLUS
_database_code_depnum_ccdc_archive 'CCDC 2057006'
_chemical_formula_sum 'C24 H68 La4 N4 O52 Se2'
_chemical_formula_moiety
;
(C12 H16 La4 O40 Se2 4-)n,2(C6 H14 N2 2+),12(H2 O1)
;
_journal_coden_Cambridge 8
_journal_volume 154
_journal_year 2021
_journal_page_first 184708
_journal_name_full 'AIP J.Chem.Phys. '
loop_
_publ_author_name
"Qianxiang Ai"
"D.M.Williams"
"M.Danielson"
"L.G.Spooner"
"J.A.Engler"
"Zihui Ding"
"M.Zeller"
"A.J.Norquist"
"J.Schrier"
_chemical_name_systematic
;
catena-[bis(1,4-diazabicyclo[2.2.2]octane-1,4-diium) 
hexakis(\m-oxalato)-bis(\m-selenato)-octa-aqua-tetra-lanthanum(iii) 
dodecahydrate]
;
_cell_volume   2852.001
_exptl_crystal_colour 'colorless'
_exptl_crystal_density_diffrn 2.28
_exptl_crystal_description 'plate'
_diffrn_ambient_temperature 100
#These two values have been output from a single CSD field.
_refine_ls_R_factor_gt 0.0263
_refine_ls_wR_factor_gt 0.0263
_symmetry_cell_setting monoclinic
_symmetry_space_group_name_H-M 'P 21/n'
_symmetry_Int_Tables_number 14
loop_
_symmetry_equiv_pos_site_id
_symmetry_equiv_pos_as_xyz
1 x,y,z
2 1/2-x,1/2+y,1/2-z
3 -x,-y,-z
4 -1/2+x,-1/2-y,-1/2+z
_cell_length_a 12.2383(7)
_cell_length_b 15.5094(9)
_cell_length_c 15.0961(9)
_cell_angle_alpha 90
_cell_angle_beta 95.537(2)
_cell_angle_gamma 90
_cell_formula_units_Z 2
loop_
_atom_type_symbol
_atom_type_radius_bond
C 0.68
H 0.23
La 2.07
N 0.68
O 0.68
Se 1.22
loop_
_atom_site_label
_atom_site_type_symbol
_atom_site_fract_x
_atom_site_fract_y
_atom_site_fract_z
La1 La 0.984471(10) -0.044185(7) 0.285927(8)
La2 La 0.493951(10) 0.030581(7) 0.214583(8)
Se1 Se 0.769802(18) 0.134296(13) 0.303288(14)
O1 O 0.80026(16) -0.10337(13) 0.22997(15)
O2 O 0.98031(17) -0.00257(13) 0.12176(12)
O3 O 0.89337(14) 0.10159(10) 0.28412(12)
O4 O 1.12954(14) 0.06837(10) 0.25356(12)
O5 O 1.17558(14) -0.10082(10) 0.27663(12)
O6 O 0.99804(14) -0.18663(10) 0.19252(11)
O7 O 0.96934(15) -0.18778(10) 0.36803(11)
O8 O 1.10483(14) -0.00454(11) 0.42880(11)
O9 O 1.11256(14) 0.03138(10) 0.57275(11)
O10 O 0.50713(16) -0.01812(12) 0.38005(12)
O11 O 0.56479(15) -0.12229(11) 0.20640(12)
O12 O 0.68563(14) 0.05325(11) 0.27905(12)
O13 O 1.30324(14) 0.09204(10) 0.22544(12)
O14 O 1.34590(14) -0.07646(11) 0.24316(13)
O15 O 1.00342(14) -0.33051(10) 0.19317(11)
O16 O 0.99974(15) -0.32912(10) 0.37177(11)
O17 O 0.60712(14) 0.00943(11) 0.08430(11)
O18 O 0.61350(14) -0.00352(11) -0.06262(11)
O19 O 0.76782(15) 0.16131(11) 0.40799(11)
O20 O 0.73549(15) 0.21742(11) 0.24043(12)
C1 C 1.22482(18) 0.04422(13) 0.24354(15)
C2 C 1.25199(19) -0.05275(14) 0.25563(15)
C3 C 0.99594(18) -0.25868(13) 0.23029(15)
C4 C 0.98716(18) -0.25841(13) 0.33143(15)
C5 C 1.06247(18) 0.00776(13) 0.50084(15)
C6 C 0.56377(18) 0.00146(13) 0.00687(15)
H1 H 0.7384(18) -0.082(2) 0.227(2)
H2 H 0.779(3) -0.1524(14) 0.223(2)
H3 H 0.935(2) -0.018(2) 0.0813(18)
H4 H 1.032(2) 0.021(2) 0.102(2)
H5 H 0.552(2) -0.002(2) 0.4189(18)
H6 H 0.456(2) -0.035(2) 0.406(2)
H7 H 0.570(3) -0.1464(19) 0.1576(14)
H8 H 0.543(3) -0.1631(16) 0.2353(19)
O21 O 0.49853(17) -0.25867(12) 0.30060(15)
H9 H 0.4335(16) -0.262(2) 0.308(3)
H10 H 0.515(3) -0.3049(15) 0.278(2)
O22 O 0.22116(18) 0.24820(11) 0.15573(14)
H11 H 0.254(3) 0.2901(17) 0.178(2)
H12 H 0.250(3) 0.2031(16) 0.176(2)
O23 O 0.5680(2) -0.21167(14) 0.05213(13)
H13 H 0.553(3) -0.201(2) -0.0008(13)
H14 H 0.617(3) -0.247(2) 0.058(3)
O24 O 0.62133(18) 0.27809(14) 0.49068(13)
H15 H 0.653(3) 0.256(2) 0.451(2)
H16 H 0.659(3) 0.264(2) 0.5358(18)
O25 O 0.66845(16) 0.04728(13) 0.51574(13)
H17 H 0.684(3) 0.0862(17) 0.484(2)
H18 H 0.7284(19) 0.027(2) 0.533(2)
O26 O 0.15772(16) 0.05158(13) 0.02396(13)
H19 H 0.156(3) 0.1034(12) 0.012(2)
H20 H 0.2223(16) 0.040(2) 0.031(2)
N1 N 0.20594(18) 0.22482(14) 0.52509(14)
N2 N 0.37120(18) 0.25768(12) 0.44555(14)
C7 C 0.1829(2) 0.20244(17) 0.42826(17)
C8 C 0.2750(2) 0.24111(16) 0.37945(17)
C9 C 0.3471(2) 0.33281(16) 0.50309(18)
C10 C 0.2318(2) 0.31940(16) 0.53283(18)
C11 C 0.3021(2) 0.17363(15) 0.56538(16)
C12 C 0.3928(2) 0.17977(15) 0.50291(17)
H21 H 0.1472(15) 0.2124(13) 0.5529(13)
H22 H 0.11310 0.22770 0.40420
H23 H 0.17940 0.13980 0.41960
H24 H 0.25030 0.29510 0.34950
H25 H 0.30040 0.20030 0.33610
H26 H 0.4298(15) 0.2699(13) 0.4167(13)
H27 H 0.34960 0.38570 0.46820
H28 H 0.40220 0.33470 0.55660
H29 H 0.17750 0.35180 0.49370
H30 H 0.23130 0.33790 0.59570
H31 H 0.32670 0.19800 0.62400
H32 H 0.28260 0.11380 0.57500
H33 H 0.46460 0.18660 0.53900
H34 H 0.39400 0.12930 0.46350
O8B O 0.89517(14) 0.00454(11) 0.57120(11)
O9B O 0.88744(14) -0.03138(10) 0.42725(11)
C5B C 0.93753(18) -0.00776(13) 0.49916(15)
O17B O 0.39288(14) -0.00943(11) -0.08430(11)
O18B O 0.38650(14) 0.00352(11) 0.06262(11)
C6B C 0.43623(18) -0.00146(13) -0.00687(15)
La1B La 0.015529(10) 0.044185(7) -0.285927(8)
La2B La 0.506049(10) -0.030581(7) -0.214583(8)
Se1B Se 0.230198(18) -0.134296(13) -0.303288(14)
O1B O 0.19974(16) 0.10337(13) -0.22997(15)
O2B O 0.01969(17) 0.00257(13) -0.12176(12)
O3B O 0.10663(14) -0.10159(10) -0.28412(12)
O4B O -0.12954(14) -0.06837(10) -0.25356(12)
O5B O -0.17558(14) 0.10082(10) -0.27663(12)
O6B O 0.00196(14) 0.18663(10) -0.19252(11)
O7B O 0.03066(15) 0.18778(10) -0.36803(11)
O10B O 0.49287(16) 0.01812(12) -0.38005(12)
O11B O 0.43521(15) 0.12229(11) -0.20640(12)
O12B O 0.31437(14) -0.05325(11) -0.27905(12)
O13B O -0.30324(14) -0.09204(10) -0.22544(12)
O14B O -0.34590(14) 0.07646(11) -0.24316(13)
O15B O -0.00342(14) 0.33051(10) -0.19317(11)
O16B O 0.00026(15) 0.32912(10) -0.37177(11)
O19B O 0.23218(15) -0.16131(11) -0.40799(11)
O20B O 0.26451(15) -0.21742(11) -0.24043(12)
C1B C -0.22482(18) -0.04422(13) -0.24354(15)
C2B C -0.25199(19) 0.05275(14) -0.25563(15)
C3B C 0.00406(18) 0.25868(13) -0.23029(15)
C4B C 0.01284(18) 0.25841(13) -0.33143(15)
H1B H 0.2616(18) 0.082(2) -0.227(2)
H2B H 0.221(3) 0.1524(14) -0.223(2)
H3B H 0.065(2) 0.018(2) -0.0813(18)
H4B H -0.032(2) -0.021(2) -0.102(2)
H5B H 0.448(2) 0.002(2) -0.4189(18)
H6B H 0.544(2) 0.035(2) -0.406(2)
H7B H 0.430(3) 0.1464(19) -0.1576(14)
H8B H 0.457(3) 0.1631(16) -0.2353(19)
La1B* La 1.015529(10) 0.044185(7) 0.714073(8)
La2* La 1.493951(10) 0.030581(7) 0.214583(8)
La2B* La -0.493951(10) -0.030581(7) -0.214583(8)
La2C La -0.006049(10) 0.469419(7) -0.285417(8)
La2A La 1.006049(10) -0.469419(7) 0.285417(8)
O8B* O -0.10483(14) 0.00454(11) -0.42880(11)
O9* O 0.11256(14) 0.03138(10) -0.42725(11)
O13* O 0.30324(14) 0.09204(10) 0.22544(12)
O13B* O 0.69676(14) -0.09204(10) -0.22544(12)
O14* O 0.34590(14) -0.07646(11) 0.24316(13)
O14B* O 0.65410(14) 0.07646(11) -0.24316(13)
O15C O 0.50342(14) -0.16949(10) -0.30683(11)
O15A O 0.49658(14) 0.16949(10) 0.30683(11)
O16C O 0.49974(15) -0.17088(10) -0.12823(11)
O16A O 0.50026(15) 0.17088(10) 0.12823(11)
#END
