
#######################################################################
#
#                 Cambridge Crystallographic Data Centre
#                                CCDC
#
#######################################################################
#
# If this CIF has been generated from an entry in the Cambridge
# Structural Database, then it will include bibliographic, chemical,
# crystal, experimental, refinement or atomic coordinate data resulting
# from the CCDC's data processing and validation procedures.
#
#######################################################################

data_CSD_CIF_ASOMIH
_audit_creation_date 2021-05-17
_audit_creation_method CSD-ConQuest-V1
_database_code_CSD ASOMIH
_database_code_depnum_ccdc_archive 'CCDC 2057009'
_chemical_formula_sum 'C32 H68 Er6 N6 O66'
_chemical_formula_moiety
;
(C24 H12 Er6 O54 6-)n,2(C4 H16 N3 3+),12(H2 O1)
;
_journal_coden_Cambridge 8
_journal_volume 154
_journal_year 2021
_journal_page_first 184708
_journal_name_full 'AIP J.Chem.Phys. '
loop_
_publ_author_name
"Qianxiang Ai"
"D.M.Williams"
"M.Danielson"
"L.G.Spooner"
"J.A.Engler"
"Zihui Ding"
"M.Zeller"
"A.J.Norquist"
"J.Schrier"
_chemical_name_systematic
;
catena-[bis(N^1^-(2-azaniumylethyl)ethane-1,2-bis(aminium)) 
dodecakis(\m-oxalato)-hexa-aqua-hexa-erbium(iii) dodecahydrate]
;
_cell_volume   1657.450
_exptl_crystal_colour 'pink'
_exptl_crystal_density_diffrn 2.601
_exptl_crystal_description 'plate'
_diffrn_ambient_temperature 100
#These two values have been output from a single CSD field.
_refine_ls_R_factor_gt 0.0498
_refine_ls_wR_factor_gt 0.0498
_symmetry_cell_setting triclinic
_symmetry_space_group_name_H-M 'P -1'
_symmetry_Int_Tables_number 2
loop_
_symmetry_equiv_pos_site_id
_symmetry_equiv_pos_as_xyz
1 x,y,z
2 -x,-y,-z
_cell_length_a 10.2880(5)
_cell_length_b 12.0745(7)
_cell_length_c 14.3052(8)
_cell_angle_alpha 74.886(2)
_cell_angle_beta 79.1802(18)
_cell_angle_gamma 77.297(2)
_cell_formula_units_Z 1
loop_
_atom_type_symbol
_atom_type_radius_bond
C 0.68
H 0.23
Er 1.89
N 0.68
O 0.68
loop_
_atom_site_label
_atom_site_type_symbol
_atom_site_fract_x
_atom_site_fract_y
_atom_site_fract_z
Er1 Er 0.55599(3) 0.24772(3) -0.02620(3)
Er2 Er 0.12915(4) 0.41250(4) -0.30832(3)
Er3 Er 0.77351(4) 0.08680(4) 0.37040(3)
O1 O 0.3410(5) 0.3694(5) -0.0579(4)
O2 O 0.5096(5) 0.2583(5) -0.1840(4)
O3 O 0.3871(5) 0.1312(5) -0.0019(4)
O4 O 0.3483(5) -0.0518(5) 0.0293(4)
O5 O 0.7375(5) 0.2401(5) 0.0582(4)
O6 O 0.5262(5) 0.1370(5) 0.1403(4)
O7 O 0.4664(5) 0.3742(5) 0.0864(3)
O8 O 0.4015(5) 0.5617(4) 0.0933(3)
O9 O 0.7653(5) 0.2375(5) -0.1397(4)
O10 O 0.1787(5) 0.4106(5) -0.1532(3)
O11 O 0.3474(5) 0.2959(5) -0.2779(4)
O12 O 0.2947(5) 0.5330(5) -0.3377(4)
O13 O 0.0284(5) 0.6069(5) -0.3078(4)
O14 O 0.1495(5) 0.5246(5) -0.4765(4)
O15 O 0.0561(5) 0.5824(5) -0.6141(4)
O16 O 0.7825(5) -0.2898(5) 0.4222(3)
O17 O 0.9057(5) -0.2206(5) 0.2402(4)
O18 O -0.0776(5) 0.4225(5) -0.1920(4)
O19 O 0.8100(5) 0.1974(5) 0.2030(4)
O20 O 0.5916(5) 0.1014(5) 0.2866(4)
O21 O 0.8500(6) -0.0352(5) 0.2554(4)
O22 O 0.7292(5) -0.1051(5) 0.4377(4)
O23 O 1.1660(5) -0.0683(5) 0.4739(4)
O24 O 0.9937(5) -0.0295(5) 0.3887(4)
O25 O 0.3264(5) 0.7182(5) -0.3709(4)
O26 O 0.0628(5) 0.7921(5) -0.3497(4)
O27 O 0.5723(5) 0.0967(5) 0.4910(4)
C1 C 0.2956(7) 0.3651(7) -0.1325(5)
C2 C 0.3919(7) 0.3014(6) -0.2036(5)
C3 C 0.4230(7) 0.0245(7) 0.0073(5)
C4 C 0.7285(7) 0.1977(7) 0.1485(6)
C5 C 0.6054(7) 0.1417(7) 0.1957(5)
C6 C 0.4617(7) 0.4804(7) 0.0526(5)
C7 C 0.2550(7) 0.6392(7) -0.3481(5)
C8 C 0.1013(7) 0.6853(7) -0.3354(5)
C9 C 0.0598(6) 0.5295(7) -0.5261(5)
C10 C 0.8528(7) -0.1420(7) 0.2857(5)
C11 C 0.7823(7) -0.1832(7) 0.3926(5)
C12 C 1.0464(7) -0.0260(6) 0.4605(5)
H1 H 0.75230 0.21300 -0.19520
H2 H 0.83420 0.18200 -0.10830
H3 H 0.48150 0.13510 0.48760
H4 H 0.58100 0.05470 0.55650
H5 H -0.15360 0.40210 -0.20820
H6 H -0.10120 0.44310 -0.13030
O28 O 0.4352(10) -0.0811(8) 0.3107(7)
H7 H 0.52910 -0.10630 0.29330
H8 H 0.38810 -0.09520 0.26420
O29 O 0.8049(17) 0.0571(19) -0.2360(11)
H9 H 0.79970 0.05530 -0.16750
H10 H 0.87860 -0.00170 -0.25180
O30 O 0.8963(8) 0.4215(8) 0.0053(5)
H11 H 0.87190 0.36100 0.05910
H12 H 0.81880 0.48250 -0.00390
O31 O 0.4216(15) 0.6222(11) 0.4259(7)
H13 H 0.38190 0.64000 0.37540
H14 H 0.50860 0.64140 0.41250
O32 O 0.2235(15) 0.7496(13) 0.3524(11)
H15 H 0.15960 0.76110 0.40750
H16 H 0.19390 0.70020 0.32060
O33 O 0.9982(9) 0.1222(8) -0.0448(6)
H17 H 1.07170 0.05740 -0.04510
H18 H 1.03160 0.18470 -0.03220
N1 N 1.1057(13) 0.156(2) 0.1115(15)
N2 N 1.2522(7) 0.3285(8) 0.2366(6)
N3 N 1.4135(7) 0.3937(8) 0.4248(6)
C13 C 1.1347(13) 0.264(2) 0.1333(9)
C14 C 1.2153(10) 0.2248(12) 0.2191(8)
C15 C 1.3112(9) 0.3061(9) 0.3271(6)
C16 C 1.3570(9) 0.4152(10) 0.3326(7)
H19 H 1.18720 0.10690 0.09530
H20 H 1.05450 0.17940 0.05880
H21 H 1.05480 0.11540 0.16790
H22 H 1.05060 0.31270 0.15130
H23 H 1.18700 0.30390 0.07710
H24 H 1.16180 0.18750 0.27770
H25 H 1.29700 0.17030 0.20330
H26 H 1.17930 0.38350 0.23840
H27 H 1.31170 0.35510 0.18550
H28 H 1.24460 0.28500 0.38300
H29 H 1.38760 0.24160 0.32690
H30 H 1.28040 0.47730 0.33130
H31 H 1.42410 0.43490 0.27750
H32 H 1.35500 0.36530 0.47480
H33 H 1.42680 0.46290 0.43170
H34 H 1.49080 0.34360 0.42260
O3A O 0.6129(5) -0.1312(5) 0.0019(4)
C3A C 0.5770(7) -0.0245(7) -0.0073(5)
O4A O 0.6517(5) 0.0518(5) -0.0293(4)
O7A O 0.5336(5) 0.6258(5) -0.0864(3)
C6A C 0.5383(7) 0.5196(7) -0.0526(5)
O8A O 0.5985(5) 0.4383(4) -0.0933(3)
O14A O -0.1495(5) 0.4754(5) -0.5235(4)
C9A C -0.0598(6) 0.4705(7) -0.4739(5)
O15A O -0.0561(5) 0.4176(5) -0.3859(4)
O24A O 1.0063(5) 0.0295(5) 0.6113(4)
C12A C 0.9536(7) 0.0260(6) 0.5395(5)
O23A O 0.8340(5) 0.0683(5) 0.5261(4)
Er1A Er -0.55599(3) 0.75228(3) -0.97380(3)
Er2A Er -0.12915(4) 0.58750(4) -0.69168(3)
Er3A Er -0.77351(4) 0.91320(4) -1.37040(3)
O1A O -0.3410(5) 0.6306(5) -0.9421(4)
O2A O -0.5096(5) 0.7417(5) -0.8160(4)
O5A O -0.7375(5) 0.7599(5) -1.0582(4)
O6A O -0.5262(5) 0.8630(5) -1.1403(4)
O9A O -0.7653(5) 0.7625(5) -0.8603(4)
O10A O -0.1787(5) 0.5894(5) -0.8468(3)
O11A O -0.3474(5) 0.7041(5) -0.7221(4)
O12A O -0.2947(5) 0.4670(5) -0.6623(4)
O13A O -0.0284(5) 0.3931(5) -0.6922(4)
O16A O -0.7825(5) 1.2898(5) -1.4222(3)
O17A O -0.9057(5) 1.2206(5) -1.2402(4)
O18A O 0.0776(5) 0.5775(5) -0.8080(4)
O19A O -0.8100(5) 0.8026(5) -1.2030(4)
O20A O -0.5916(5) 0.8986(5) -1.2866(4)
O21A O -0.8500(6) 1.0352(5) -1.2554(4)
O22A O -0.7292(5) 1.1051(5) -1.4377(4)
O25A O -0.3264(5) 0.2818(5) -0.6291(4)
O26A O -0.0628(5) 0.2079(5) -0.6503(4)
O27A O -0.5723(5) 0.9033(5) -1.4910(4)
C1A C -0.2956(7) 0.6349(7) -0.8675(5)
C2A C -0.3919(7) 0.6986(6) -0.7964(5)
C4A C -0.7285(7) 0.8023(7) -1.1485(6)
C5A C -0.6054(7) 0.8583(7) -1.1957(5)
C7A C -0.2550(7) 0.3608(7) -0.6519(5)
C8A C -0.1013(7) 0.3147(7) -0.6646(5)
C10A C -0.8528(7) 1.1420(7) -1.2857(5)
C11A C -0.7823(7) 1.1832(7) -1.3926(5)
H1A H -0.75230 0.78700 -0.80480
H2A H -0.83420 0.81800 -0.89170
H3A H -0.48150 0.86490 -1.48760
H4A H -0.58100 0.94530 -1.55650
H5A H 0.15360 0.59790 -0.79180
H6A H 0.10120 0.55690 -0.86970
Er1A* Er 0.44401(3) -0.24772(3) 0.02620(3)
Er1A** Er 0.44401(3) 0.75228(3) 0.02620(3)
Er2* Er -0.87085(4) 1.41250(4) -1.30832(3)
Er2A* Er 0.87085(4) -0.41250(4) 0.30832(3)
Er3* Er -0.22649(4) 0.08680(4) -0.62960(3)
Er3A* Er 0.22649(4) 0.91320(4) -0.37040(3)
Er3A** Er 1.22649(4) -0.08680(4) 0.62960(3)
O3A* O -0.3871(5) 0.8688(5) -0.9981(4)
O4* O -0.6517(5) 0.9482(5) -0.9707(4)
O7A* O -0.4664(5) 0.6258(5) -1.0864(3)
O8* O -0.5985(5) 0.5617(4) -0.9067(3)
O16* O -0.2175(5) 0.7102(5) -0.5778(3)
O16A* O 0.2175(5) 0.2898(5) -0.4222(3)
O17* O -0.0943(5) 0.7794(5) -0.7598(4)
O17A* O 0.0943(5) 0.2206(5) -0.2402(4)
O23* O -0.8340(5) 0.9317(5) -1.5261(4)
O24A* O -0.9937(5) 1.0295(5) -1.3887(4)
O25* O -0.6736(5) 0.7182(5) -1.3709(4)
O25A* O 0.6736(5) 0.2818(5) 0.3709(4)
O26* O -0.9372(5) 0.7921(5) -1.3497(4)
O26A* O 0.9372(5) 0.2079(5) 0.3497(4)
#END
