
#######################################################################
#
#                 Cambridge Crystallographic Data Centre
#                                CCDC
#
#######################################################################
#
# If this CIF has been generated from an entry in the Cambridge
# Structural Database, then it will include bibliographic, chemical,
# crystal, experimental, refinement or atomic coordinate data resulting
# from the CCDC's data processing and validation procedures.
#
#######################################################################

data_CSD_CIF_ASOPEG
_audit_creation_date 2021-05-17
_audit_creation_method CSD-ConQuest-V1
_database_code_CSD ASOPEG
_database_code_depnum_ccdc_archive 'CCDC 2057018'
_chemical_formula_sum 'C10 H24 Er2 N2 O23'
_chemical_formula_moiety
;
(C8 H4 Er2 O18 2-)n,C2 H10 N2 2+,5(H2 O1)
;
_journal_coden_Cambridge 8
_journal_volume 154
_journal_year 2021
_journal_page_first 184708
_journal_name_full 'AIP J.Chem.Phys. '
loop_
_publ_author_name
"Qianxiang Ai"
"D.M.Williams"
"M.Danielson"
"L.G.Spooner"
"J.A.Engler"
"Zihui Ding"
"M.Zeller"
"A.J.Norquist"
"J.Schrier"
_chemical_name_systematic
;
catena-[(ethane-1,2-bis(aminium)) tetrakis(\m-oxalato)-diaqua-di-erbium(iii) 
pentahydrate]
;
_cell_volume   1143.335
_exptl_crystal_colour 'pink'
_exptl_crystal_density_diffrn 2.541
_exptl_crystal_description 'shard'
_diffrn_ambient_temperature 100
_refine_special_details
;
C10,C9,O20 and C11,C12,O19 disordered over two sites with occupancies 
0.5000:0.5000.
;
#These two values have been output from a single CSD field.
_refine_ls_R_factor_gt 0.0376
_refine_ls_wR_factor_gt 0.0376
_symmetry_cell_setting monoclinic
_symmetry_space_group_name_H-M 'P c'
_symmetry_Int_Tables_number 7
loop_
_symmetry_equiv_pos_site_id
_symmetry_equiv_pos_as_xyz
1 x,y,z
2 x,-y,1/2+z
_cell_length_a 8.633700(17)
_cell_length_b 8.60890(2)
_cell_length_c 15.61380(2)
_cell_angle_alpha 90
_cell_angle_beta 99.873(2)
_cell_angle_gamma 90
_cell_formula_units_Z 2
loop_
_atom_type_symbol
_atom_type_radius_bond
C 0.68
H 0.23
Er 1.89
N 0.68
O 0.68
loop_
_atom_site_label
_atom_site_type_symbol
_atom_site_fract_x
_atom_site_fract_y
_atom_site_fract_z
Er1 Er 0.8456(2) 0.92124(4) 0.58646(12)
Er2 Er 0.3684(2) 1.42136(4) 0.65404(12)
O1 O 0.6089(7) 0.7917(7) 0.5338(4)
O2 O 0.7935(6) 0.7138(6) 0.6815(3)
O3 O 0.6678(6) 1.0034(6) 0.6804(4)
O4 O 0.6981(6) 1.1388(6) 0.5306(4)
O5 O 0.9552(6) 1.1356(6) 0.6775(4)
O6 O 1.0552(7) 1.0454(6) 0.5337(4)
O7 O 1.0804(6) 0.8387(6) 0.6780(4)
O8 O 0.9467(6) 0.6909(6) 0.5322(3)
O9 O 0.7934(12) 0.9216(7) 0.4261(7)
O10 O 0.4234(6) 0.6267(6) 0.5624(4)
O11 O 0.6129(7) 0.5398(6) 0.7091(4)
O12 O 0.5084(6) 1.1978(6) 0.7074(4)
O13 O 0.5491(7) 1.3391(6) 0.5607(4)
O14 O 1.1635(6) 1.2956(6) 0.7089(4)
O15 O 1.2565(6) 1.2137(6) 0.5609(4)
O16 O 1.2573(6) 0.6467(6) 0.7058(4)
O17 O 1.1300(6) 0.5031(6) 0.5596(4)
O18 O 0.4139(12) 1.4213(6) 0.8136(7)
C1 C 0.5561(9) 0.6909(9) 0.5797(5)
C2 C 0.6619(9) 0.6446(9) 0.6633(5)
C3 C 0.5942(9) 1.1268(10) 0.6622(5)
C4 C 0.6178(10) 1.2102(9) 0.5779(5)
C5 C 1.0797(9) 1.1978(9) 0.6621(5)
C6 C 1.1336(9) 1.1487(9) 0.5785(5)
C7 C 1.1413(10) 0.7131(10) 0.6605(5)
C8 C 1.0658(9) 0.6274(9) 0.5770(5)
H1 H 0.84250 0.84130 0.39760
H2 H 0.73460 0.98640 0.38310
H3 H 0.52130 1.43730 0.84060
H4 H 0.35140 1.40850 0.85710
O19? O 1.500(2) 1.201(3) 0.330(2)
O20 O 1.177(6) 0.851(4) 0.417(4)
H5 H 1.10520 0.78430 0.38070
H6 H 1.17420 0.82540 0.47640
N1 N 1.1893(10) 1.1685(10) 0.3709(6)
N2 N 1.4467(10) 0.9062(9) 0.3729(6)
C9 C 1.367(4) 1.185(2) 0.3785(14)
C10 C 1.441(4) 1.076(3) 0.3249(15)
H7 H 1.16380 1.06740 0.38730
H8 H 1.41050 1.16750 0.43720
H9 H 1.38540 1.28930 0.36290
H10 H 1.55280 1.11500 0.32340
H11 H 1.39320 1.07580 0.26540
H12 H 1.50230 0.91350 0.43090
H13 H 1.34240 0.87260 0.37360
H14 H 1.49840 0.83230 0.34190
H15 H 1.18860 1.19830 0.42970
H16 H 1.10350 1.21840 0.33450
C11? C 1.2944(18) 0.9030(17) 0.4146(11)
C12? C 1.1728(16) 0.9949(17) 0.3618(9)
H17? H 1.15200 1.24260 0.40840
H18? H 1.14020 1.18870 0.31270
H19? H 1.48290 1.00970 0.37060
H20? H 1.42500 0.86420 0.31580
H21? H 1.52650 0.84500 0.40730
H22? H 1.25960 0.79780 0.41730
H23? H 1.31710 0.94400 0.47170
H24? H 1.16980 0.96920 0.30260
H25? H 1.07340 0.96630 0.37780
H26? H 1.28500 1.20110 0.35450
H27? H 1.57580 1.26130 0.36860
H28? H 1.51110 1.22460 0.27180
O21 O 1.1447(8) 0.4981(8) 0.8806(4)
H29 H 1.17700 0.54100 0.83030
H30 H 1.15290 0.57550 0.92460
O22 O 0.8554(8) 0.7836(8) 0.8603(4)
H31 H 0.82930 0.73950 0.80410
H32 H 0.83210 0.71090 0.90240
O23 O 0.6985(8) 1.4754(8) 0.4297(4)
H33 H 0.63670 1.45400 0.47340
H34 H 0.80520 1.45080 0.45140
O24 O 0.8646(7) 1.3234(7) 0.8119(4)
H35 H 0.86390 1.27290 0.75710
H36 H 0.95490 1.38900 0.82430
Er2* Er 0.3684(2) 0.42136(4) 0.65404(12)
Er2** Er 1.3684(2) 0.42136(4) 0.65404(12)
Er2*** Er 1.3684(2) 1.42136(4) 0.65404(12)
O10* O 0.4234(6) 1.6267(6) 0.5624(4)
O11* O 0.6129(7) 1.5398(6) 0.7091(4)
O14* O 0.1635(6) 1.2956(6) 0.7089(4)
O15* O 0.2565(6) 1.2137(6) 0.5609(4)
O16* O 0.2573(6) 1.6467(6) 0.7058(4)
O17* O 0.1300(6) 1.5031(6) 0.5596(4)
#END
