
#######################################################################
#
#                 Cambridge Crystallographic Data Centre
#                                CCDC
#
#######################################################################
#
# If this CIF has been generated from an entry in the Cambridge
# Structural Database, then it will include bibliographic, chemical,
# crystal, experimental, refinement or atomic coordinate data resulting
# from the CCDC's data processing and validation procedures.
#
#######################################################################

data_CSD_CIF_ASOQAD
_audit_creation_date 2021-05-17
_audit_creation_method CSD-ConQuest-V1
_database_code_CSD ASOQAD
_database_code_depnum_ccdc_archive 'CCDC 2057022'
_chemical_formula_sum 'C14 H30 Er2 N2 O26 Se2'
_chemical_formula_moiety
;
(C4 H12 Er2 O22 Se2 2-)n,C10 H10 N2 2+,4(H2 O1)
;
_journal_coden_Cambridge 8
_journal_volume 154
_journal_year 2021
_journal_page_first 184708
_journal_name_full 'AIP J.Chem.Phys. '
loop_
_publ_author_name
"Qianxiang Ai"
"D.M.Williams"
"M.Danielson"
"L.G.Spooner"
"J.A.Engler"
"Zihui Ding"
"M.Zeller"
"A.J.Norquist"
"J.Schrier"
_chemical_name_systematic
;
catena-[4,4'-bipyridinium 
bis(\m-oxalato)-bis(selenato)-hexa-aqua-di-erbium(iii) tetrahydrate]
;
_cell_volume   1548.363
_exptl_crystal_colour 'pink'
_exptl_crystal_density_diffrn 2.434
_exptl_crystal_description 'block'
_diffrn_ambient_temperature 100
_refine_special_details
;
C1,C15,C16,C4 and C10,C11,C5,C8 disordered over two sites with occupancies 
0.5000:0.5000.
;
#These two values have been output from a single CSD field.
_refine_ls_R_factor_gt 0.0163
_refine_ls_wR_factor_gt 0.0163
_symmetry_cell_setting monoclinic
_symmetry_space_group_name_H-M 'P 21/n'
_symmetry_Int_Tables_number 14
loop_
_symmetry_equiv_pos_site_id
_symmetry_equiv_pos_as_xyz
1 x,y,z
2 1/2-x,1/2+y,1/2-z
3 -x,-y,-z
4 -1/2+x,-1/2-y,-1/2+z
_cell_length_a 10.9039(6)
_cell_length_b 12.0400(8)
_cell_length_c 12.3320(7)
_cell_angle_alpha 90
_cell_angle_beta 106.985(2)
_cell_angle_gamma 90
_cell_formula_units_Z 2
loop_
_atom_type_symbol
_atom_type_radius_bond
C 0.68
H 0.23
Er 1.89
N 0.68
O 0.68
Se 1.22
loop_
_atom_site_label
_atom_site_type_symbol
_atom_site_fract_x
_atom_site_fract_y
_atom_site_fract_z
Er1 Er 0.511289(7) 0.494140(6) 0.254013(6)
Se1 Se 0.762449(18) 0.324368(17) 0.447759(15)
O1 O 0.67835(16) 0.60838(14) 0.24906(13)
O2 O 0.65415(15) 0.35556(14) 0.32845(12)
O3 O 0.89197(17) 0.39710(17) 0.45404(16)
O4 O 0.57548(14) 0.40611(12) 0.10549(11)
O5 O 0.3662(2) 0.62979(17) 0.26144(15)
O6 O 0.71534(19) 0.35044(17) 0.55767(13)
O7 O 0.56945(14) 0.41298(12) -0.07750(11)
O8 O 0.59716(14) 0.57337(13) 0.43579(12)
O9 O 0.58771(14) 0.57936(12) 0.61449(11)
O10 O 0.33762(17) 0.38121(15) 0.15977(14)
O11 O 0.79344(17) 0.19117(14) 0.44593(13)
C1 C 0.55330(18) 0.54399(15) 0.51375(15)
C2 C 0.54159(18) 0.44764(15) 0.00761(15)
H1 H 0.734(2) 0.634(2) 0.302(2)
H2 H 0.694(3) 0.636(2) 0.1948(19)
H3 H 0.343(3) 0.680(2) 0.215(2)
H4 H 0.342(3) 0.645(3) 0.315(2)
H5 H 0.320(3) 0.357(3) 0.0947(17)
H6 H 0.293(3) 0.347(2) 0.188(3)
O12 O 0.87169(16) 0.68569(14) 0.42209(14)
H7 H 0.888(3) 0.7504(16) 0.409(3)
H8 H 0.940(2) 0.654(2) 0.449(2)
O13 O 0.3077(2) 0.8033(2) 0.13040(19)
H9 H 0.241(3) 0.843(3) 0.116(3)
H10 H 0.253(3) 0.755(3) 0.101(3)
N1 N 0.5554(2) 0.9527(2) 0.2403(2)
C3 C 0.5118(2) 0.9897(2) 0.4443(2)
C4 C 0.4509(6) 1.0140(6) 0.2374(5)
C5 C 0.4291(6) 1.0339(6) 0.3404(5)
C6 C 0.5921(9) 0.8765(9) 0.3267(8)
C7 C 0.5691(9) 0.8919(8) 0.4295(7)
H11 H 0.35840 1.07910 0.34340
H12 H 0.39510 1.04200 0.16780
H13 H 0.59300 0.83650 0.48930
H14 H 0.63770 0.81160 0.31560
H15 H 0.576(2) 0.9442(19) 0.1763(16)
C8? C 0.6133(5) 0.9255(6) 0.4314(6)
C9? C 0.6318(6) 0.9078(7) 0.3262(6)
C10? C 0.4828(8) 1.0671(7) 0.3649(6)
C11? C 0.5061(8) 1.0473(8) 0.2634(7)
H16? H 0.48420 1.10370 0.20580
H17? H 0.44850 1.13750 0.37990
H18? H 0.70120 0.86210 0.31880
H19? H 0.67100 0.89290 0.49700
O4B O 0.42452(14) 0.59389(12) -0.10549(11)
C2B C 0.45841(18) 0.55236(15) -0.00761(15)
O7B O 0.43055(14) 0.58702(12) 0.07750(11)
O8B O 0.40284(14) 0.42663(13) 0.56421(12)
C1B C 0.44670(18) 0.45601(15) 0.48625(15)
O9B O 0.41229(14) 0.42064(12) 0.38551(11)
Er1B Er 0.488711(7) 0.505860(6) -0.254013(6)
Se1B Se 0.237551(18) 0.675632(17) -0.447759(15)
O1B O 0.32165(16) 0.39162(14) -0.24906(13)
O2B O 0.34585(15) 0.64444(14) -0.32845(12)
O3B O 0.10803(17) 0.60290(17) -0.45404(16)
O5B O 0.6338(2) 0.37021(17) -0.26144(15)
O6B O 0.28466(19) 0.64956(17) -0.55767(13)
O10B O 0.66238(17) 0.61879(15) -0.15977(14)
O11B O 0.20656(17) 0.80883(14) -0.44593(13)
H1B H 0.266(2) 0.366(2) -0.302(2)
H2B H 0.306(3) 0.364(2) -0.1948(19)
H3B H 0.657(3) 0.320(2) -0.215(2)
H4B H 0.658(3) 0.355(3) -0.315(2)
H5B H 0.680(3) 0.643(3) -0.0947(17)
H6B H 0.707(3) 0.653(2) -0.188(3)
Er1B* Er 0.488711(7) 0.505860(6) 0.745987(6)
O8B* O 0.40284(14) 0.42663(13) -0.43579(12)
O9* O 0.58771(14) 0.57936(12) -0.38551(11)
N1B N 0.4446(2) 1.0473(2) 0.7597(2)
C3B C 0.4882(2) 1.0103(2) 0.5557(2)
C4B C 0.5491(6) 0.9860(6) 0.7626(5)
C5B C 0.5709(6) 0.9661(6) 0.6596(5)
C6B C 0.4079(9) 1.1235(9) 0.6733(8)
C7B C 0.4309(9) 1.1081(8) 0.5705(7)
H11B H 0.64160 0.92090 0.65660
H12B H 0.60490 0.95800 0.83220
H13B H 0.40700 1.16350 0.51070
H14B H 0.36230 1.18840 0.68440
H15B H 0.424(2) 1.0558(19) 0.8237(16)
#END
