
#######################################################################
#
#                 Cambridge Crystallographic Data Centre
#                                CCDC
#
#######################################################################
#
# If this CIF has been generated from an entry in the Cambridge
# Structural Database, then it will include bibliographic, chemical,
# crystal, experimental, refinement or atomic coordinate data resulting
# from the CCDC's data processing and validation procedures.
#
#######################################################################

data_CSD_CIF_ATESAV
_audit_creation_date 2016-08-24
_audit_creation_method CSD-ConQuest-V1
_database_code_CSD ATESAV
_database_code_depnum_ccdc_archive 'CCDC 1482586'
_chemical_formula_sum 'C55 H61 N4 Nd1 O11 S4'
_chemical_formula_moiety
;
C2 H8 N1 1+,n(C47 H39 N1 Nd1 O9 S4 1-),2(C3 H7 N1 O1)
;
_journal_coden_Cambridge 702
_journal_volume 32
_journal_year 2016
_journal_page_first 1231
_journal_name_full 'Wuji Huaxue Xuebao(Chin.)(Chin.J.Inorg.Chem.) '
loop_
_publ_author_name
"Pei-Pei Cui"
"Lun-Feng Cui"
"Ai-Yun Fu"
_chemical_name_systematic
;
catena-[dimethylammonium 
bis(\m-2-((4-(((2-carboxylatophenyl)sulfanyl)methyl)benzyl)sulfanyl)benzoato)-
(N,N-dimethylformamide)-neodymium N,N-dimethylformamide solvate]
;
_cell_volume   2835.225
_exptl_crystal_colour 'purple'
_exptl_crystal_density_diffrn 1.437
_exptl_crystal_description 'block'
_diffrn_ambient_temperature 293
#These two values have been output from a single CSD field.
_refine_ls_R_factor_gt 0.0462
_refine_ls_wR_factor_gt 0.0462
_symmetry_cell_setting triclinic
_symmetry_space_group_name_H-M 'P -1'
_symmetry_Int_Tables_number 2
loop_
_symmetry_equiv_pos_site_id
_symmetry_equiv_pos_as_xyz
1 x,y,z
2 -x,-y,-z
_cell_length_a 8.2527(6)
_cell_length_b 15.4481(11)
_cell_length_c 22.8505(16)
_cell_angle_alpha 96.381(1)
_cell_angle_beta 96.700(1)
_cell_angle_gamma 98.706(1)
_cell_formula_units_Z 2
loop_
_atom_type_symbol
_atom_type_radius_bond
C 0.68
H 0.23
N 0.68
Nd 2.01
O 0.68
S 1.02
loop_
_atom_site_label
_atom_site_type_symbol
_atom_site_fract_x
_atom_site_fract_y
_atom_site_fract_z
Nd1 Nd 0.48426(3) 0.647738(16) 0.194069(12)
N1 N 0.2784(10) 0.5183(6) 0.0068(3)
O1 O 0.3269(4) 0.4924(2) 0.18353(17)
O2 O 0.1764(4) 0.5972(2) 0.1773(2)
O3 O 0.7705(4) -0.3203(2) 0.16489(16)
O4 O 0.5951(4) -0.2400(2) 0.12894(18)
O5 O 0.6611(5) 0.5854(3) 0.26579(17)
O6 O 0.4307(4) 0.6168(3) 0.29697(16)
O7 O -0.6313(4) 0.7807(2) 0.22987(17)
O8 O -0.3727(4) 0.7804(2) 0.26620(18)
O9 O 0.4493(7) 0.5779(4) 0.0911(2)
S1 S 0.21652(17) 0.32074(9) 0.13376(8)
S2 S 0.68023(16) -0.07159(8) 0.10913(7)
S3 S 0.3886(2) 0.65588(12) 0.41273(7)
S4 S -0.2681(2) 0.84703(11) 0.38474(8)
C1 C 0.1892(6) 0.5171(3) 0.1771(2)
C2 C 0.0314(6) 0.4498(3) 0.1687(2)
C3 C -0.1117(7) 0.4770(4) 0.1822(3)
H1 H -0.11020 0.53640 0.19510
C4 C -0.2593(8) 0.4181(4) 0.1771(3)
H2 H -0.35460 0.43750 0.18750
C5 C -0.2621(8) 0.3311(4) 0.1566(4)
H3 H -0.36040 0.29130 0.15320
C6 C -0.1212(7) 0.3016(4) 0.1410(3)
H4 H -0.12730 0.24270 0.12570
C7 C 0.0309(7) 0.3588(3) 0.1477(3)
C8 C 0.1486(7) 0.2035(4) 0.1060(3)
H5 H 0.08050 0.17520 0.13260
H6 H 0.08450 0.19650 0.06690
C9 C 0.3025(7) 0.1630(3) 0.1029(3)
C10 C 0.3735(8) 0.1552(4) 0.0521(3)
H7 H 0.32860 0.17680 0.01860
C11 C 0.5124(8) 0.1152(4) 0.0503(3)
H8 H 0.55790 0.10890 0.01500
C12 C 0.5840(7) 0.0848(3) 0.0993(3)
C13 C 0.5140(8) 0.0932(4) 0.1509(3)
H9 H 0.56000 0.07220 0.18450
C14 C 0.3742(8) 0.1331(4) 0.1527(3)
H10 H 0.32860 0.13980 0.18800
C15 C 0.7387(7) 0.0427(3) 0.0967(3)
H11 H 0.82700 0.07320 0.12710
H12 H 0.77640 0.04530 0.05810
C16 C 0.8663(6) -0.1140(3) 0.1024(2)
C17 C 1.0071(7) -0.0647(4) 0.0864(3)
H13 H 1.00300 -0.00760 0.07780
C18 C 1.1491(7) -0.0979(4) 0.0830(3)
H14 H 1.24060 -0.06290 0.07250
C19 C 1.1603(7) -0.1829(4) 0.0948(3)
H15 H 1.25740 -0.20580 0.09200
C20 C 1.0247(7) -0.2322(4) 0.1108(3)
H16 H 1.03120 -0.28940 0.11880
C21 C 0.8789(6) -0.2007(3) 0.1156(2)
C22 C 0.7379(6) -0.2566(3) 0.1374(2)
C23 C 0.5687(7) 0.5935(4) 0.3064(3)
C24 C 0.6304(7) 0.5737(4) 0.3674(3)
C25 C 0.7650(8) 0.5278(5) 0.3718(3)
H17 H 0.81230 0.51230 0.33790
C26 C 0.8284(9) 0.5053(5) 0.4262(4)
H18 H 0.91630 0.47400 0.42940
C27 C 0.7534(10) 0.5319(6) 0.4765(4)
H19 H 0.79270 0.51700 0.51330
C28 C 0.6273(8) 0.5779(5) 0.4729(3)
H20 H 0.58360 0.59540 0.50720
C29 C 0.5613(7) 0.5998(4) 0.4186(3)
C30 C 0.3821(9) 0.7035(5) 0.4895(3)
H21 H 0.35370 0.65750 0.51400
H22 H 0.48790 0.73870 0.50670
C31 C 0.2501(9) 0.7599(5) 0.4837(3)
C32 C 0.0949(10) 0.7312(5) 0.5000(3)
H23 H 0.07780 0.67920 0.51700
C33 C -0.0305(10) 0.7770(6) 0.4917(3)
H24 H -0.13290 0.75570 0.50250
C34 C -0.0088(9) 0.8554(5) 0.4674(3)
C35 C 0.1384(8) 0.8847(5) 0.4515(3)
H25 H 0.15410 0.93700 0.43480
C36 C 0.2678(9) 0.8376(5) 0.4598(3)
H26 H 0.36950 0.85950 0.44880
C37 C -0.1604(9) 0.9024(5) 0.4560(3)
H27 H -0.12560 0.96480 0.45440
H28 H -0.23060 0.89580 0.48700
C38 C -0.4059(7) 0.9176(4) 0.3622(3)
C39 C -0.4277(9) 0.9936(4) 0.3997(3)
H29 H -0.37300 1.00550 0.43840
C40 C -0.5295(9) 1.0497(5) 0.3791(4)
H30 H -0.53870 1.10050 0.40350
C41 C -0.6174(9) 1.0319(4) 0.3232(4)
H31 H -0.68610 1.07020 0.30990
C42 C -0.6032(8) 0.9571(4) 0.2868(3)
H32 H -0.66260 0.94570 0.24880
C43 C -0.5020(7) 0.8974(3) 0.3053(3)
C44 C -0.5019(6) 0.8146(3) 0.2648(2)
C45 C 0.3653(12) 0.5168(6) 0.0577(4)
H33 H 0.36290 0.46140 0.07030
C46 C 0.2654(14) 0.6009(8) -0.0103(5)
H34 H 0.22390 0.63580 0.02020
H35 H 0.19080 0.59390 -0.04670
H36 H 0.37240 0.63000 -0.01620
C47 C 0.1845(14) 0.4406(8) -0.0286(5)
H37 H 0.11080 0.41010 -0.00520
H38 H 0.25820 0.40250 -0.04190
H39 H 0.12130 0.45710 -0.06230
N2 N 0.2960(14) 0.3460(6) 0.3349(4)
O10 O 0.3212(16) 0.2455(8) 0.3929(6)
C48 C 0.241(2) 0.2994(11) 0.3820(7)
H40 H 0.15250 0.31080 0.40150
C49 C 0.4164(18) 0.3400(9) 0.3011(7)
H41 H 0.52040 0.36830 0.32330
H42 H 0.39440 0.36840 0.26640
H43 H 0.42080 0.27890 0.28920
C50 C 0.1765(19) 0.4128(10) 0.3320(7)
H44 H 0.23740 0.47050 0.33070
H45 H 0.12060 0.41380 0.36660
H46 H 0.09670 0.39590 0.29700
N3 N 0.8895(12) 0.1479(8) 0.3015(5)
O11 O 1.0648(17) 0.1284(9) 0.2358(6)
C51 C 0.979(2) 0.1805(11) 0.2568(7)
H47 H 0.97330 0.23540 0.24450
C52 C 0.791(2) 0.2155(11) 0.3221(9)
H48 H 0.85750 0.27310 0.32600
H49 H 0.75860 0.20450 0.35990
H50 H 0.69480 0.21270 0.29370
C53 C 0.931(2) 0.0742(11) 0.3288(9)
H51 H 0.83580 0.04510 0.34340
H52 H 1.01850 0.09430 0.36120
H53 H 0.96730 0.03370 0.30010
N4 N 0.0420(7) 0.7400(4) 0.2584(3)
H54 H -0.03920 0.71030 0.23040
H55 H 0.13810 0.74120 0.24330
C54 C 0.0492(10) 0.6929(6) 0.3095(4)
H56 H 0.14170 0.72110 0.33820
H57 H 0.06170 0.63300 0.29750
H58 H -0.05110 0.69330 0.32700
C55 C 0.0114(9) 0.8328(5) 0.2718(4)
H59 H -0.10010 0.83200 0.28030
H60 H 0.02730 0.86350 0.23810
H61 H 0.08720 0.86250 0.30570
Nd1* Nd -0.51574(3) 0.647738(16) 0.194069(12)
Nd1** Nd 0.48426(3) -0.352262(16) 0.194069(12)
O3* O 0.7705(4) 0.6797(2) 0.16489(16)
O4* O 0.5951(4) 0.7600(2) 0.12894(18)
O7* O 0.3687(4) 0.7807(2) 0.22987(17)
O8* O 0.6273(4) 0.7804(2) 0.26620(18)
#END
