
#######################################################################
#
#                 Cambridge Crystallographic Data Centre
#                                CCDC
#
#######################################################################
#
# If this CIF has been generated from an entry in the Cambridge
# Structural Database, then it will include bibliographic, chemical,
# crystal, experimental, refinement or atomic coordinate data resulting
# from the CCDC's data processing and validation procedures.
#
#######################################################################

data_CSD_CIF_ATICUD
_audit_creation_date 2016-08-24
_audit_creation_method CSD-ConQuest-V1
_database_code_CSD ATICUD
_database_code_depnum_ccdc_archive 'CCDC 778278'
_chemical_formula_sum 'C34 H35 Mn1 N6 O14'
_chemical_formula_moiety
;
C10 H9 N2 1+,n(C14 H6 Mn1 N2 O8 1-),C10 H8 N2,6(H2 O1)
;
_journal_coden_Cambridge 1654
_journal_volume 21
_journal_year 2013
_journal_page_first 59
_journal_name_full 'Iranian Journal of Crystallography and Mineralogy '
loop_
_publ_author_name
"J.Soleimannejad"
"E.Nazarnia"
_chemical_name_systematic
;
catena-[(4-(pyridin-4-yl)pyridin-1-ium) 
bis(\m-pyridine-2,3-dicarboxylato)-manganese 4,4'-bipyridine hexahydrate]
;
_cell_volume   3385.779
_exptl_crystal_colour 'yellow'
_exptl_crystal_density_diffrn 1.582
_exptl_crystal_description 'block'
_diffrn_ambient_temperature 296
#These two values have been output from a single CSD field.
_refine_ls_R_factor_gt 0.0435
_refine_ls_wR_factor_gt 0.0435
_symmetry_cell_setting monoclinic
_symmetry_space_group_name_H-M 'P 21/n'
_symmetry_Int_Tables_number 14
loop_
_symmetry_equiv_pos_site_id
_symmetry_equiv_pos_as_xyz
1 x,y,z
2 1/2-x,1/2+y,1/2-z
3 -x,-y,-z
4 -1/2+x,-1/2-y,-1/2+z
_cell_length_a 22.2099(15)
_cell_length_b 6.6599(4)
_cell_length_c 23.5921(16)
_cell_angle_alpha 90
_cell_angle_beta 104.014(3)
_cell_angle_gamma 90
_cell_formula_units_Z 4
loop_
_atom_type_symbol
_atom_type_radius_bond
C 0.68
H 0.23
Mn 1.61
N 0.68
O 0.68
loop_
_atom_site_label
_atom_site_type_symbol
_atom_site_fract_x
_atom_site_fract_y
_atom_site_fract_z
Mn1 Mn 0.245039(9) 0.00309(3) -0.002465(8)
O1 O 0.29406(5) -0.20288(15) -0.04521(4)
O2 O 0.36007(5) -0.46262(17) -0.03112(4)
O3 O 0.19849(5) 0.21276(15) 0.04159(4)
O4 O 0.13334(5) 0.47412(17) 0.02897(5)
N1 N 0.21675(5) 0.25400(17) -0.06555(5)
N2 N 0.27593(5) -0.24192(17) 0.06240(5)
C1 C 0.32200(6) -0.3485(2) -0.01614(5)
C2 C 0.30915(6) -0.38610(19) 0.04372(5)
C3 C 0.33099(6) -0.5549(2) 0.07772(6)
C4 C 0.31877(6) -0.5698(2) 0.13287(6)
H1 H 0.33280 -0.68020 0.15650
C5 C 0.28565(6) -0.4189(2) 0.15217(6)
H2 H 0.27760 -0.42570 0.18900
C6 C 0.26466(6) -0.2577(2) 0.11551(6)
H3 H 0.24200 -0.15710 0.12820
C7 C 0.17040(6) 0.3591(2) 0.01293(5)
C8 C 0.18278(6) 0.39688(19) -0.04710(5)
C9 C 0.16108(6) 0.5657(2) -0.08088(5)
C10 C 0.17535(6) 0.5847(2) -0.13509(6)
H4 H 0.16160 0.69590 -0.15850
C11 C 0.21002(6) 0.4372(2) -0.15381(6)
H5 H 0.21980 0.44760 -0.18990
C12 C 0.22991(6) 0.2737(2) -0.11770(6)
H6 H 0.25320 0.17430 -0.13020
O5 O 0.33815(5) -0.86557(16) 0.03024(5)
C13 C 0.36724(6) -0.7201(2) 0.05748(6)
O6 O 0.42553(5) -0.70586(16) 0.07144(4)
O7 O 0.15081(5) 0.87381(16) -0.03288(5)
C14 C 0.12249(6) 0.7260(2) -0.06154(6)
O8 O 0.06503(5) 0.70878(16) -0.07629(4)
O9 O 0.81976(5) 0.22059(16) 0.77135(4)
H7 H 0.83190 0.30170 0.79960
H8 H 0.81110 0.10890 0.78490
O10 O 0.14066(5) 0.47516(16) 0.14632(4)
H9 H 0.10640 0.45150 0.15500
H10 H 0.13680 0.46760 0.10960
O11 O 0.17925(5) 0.74071(16) -0.27215(5)
H11 H 0.16700 0.82160 -0.30040
H12 H 0.18770 0.62860 -0.28560
O12 O 0.35518(5) -0.44881(17) -0.14720(4)
H13 H 0.39120 -0.43370 -0.15300
H14 H 0.35900 -0.45000 -0.11050
O13 O 0.78473(5) -0.14113(17) 0.80663(5)
H15 H 0.75120 -0.18350 0.78430
H16 H 0.80390 -0.24470 0.82270
O14 O 0.21849(6) 0.38719(17) -0.30782(5)
H17 H 0.25030 0.33910 -0.28420
H18 H 0.19960 0.28290 -0.32370
N3 N 0.55638(6) 0.08615(18) 0.71707(5)
N4 N 0.45181(6) 0.1743(2) 0.97378(6)
H19 H 0.44300 0.19230 1.00650
C15 C 0.59545(7) 0.0820(2) 0.77009(6)
H20 H 0.63770 0.07200 0.77240
C16 C 0.57629(6) 0.0919(2) 0.82189(6)
H21 H 0.60510 0.08960 0.85780
C17 C 0.51282(6) 0.10539(19) 0.81884(6)
C18 C 0.49061(6) 0.1250(2) 0.87291(6)
C19 C 0.52525(7) 0.2389(2) 0.91939(6)
H22 H 0.56200 0.29990 0.91630
C20 C 0.50484(7) 0.2601(2) 0.96950(7)
H23 H 0.52800 0.33460 1.00060
C21 C 0.41674(7) 0.0649(2) 0.93055(7)
H24 H 0.37990 0.00800 0.93500
C22 C 0.43553(7) 0.0367(2) 0.87887(7)
H25 H 0.41160 -0.04000 0.84870
C23 C 0.47159(6) 0.1069(2) 0.76389(6)
H26 H 0.42900 0.11350 0.76030
C24 C 0.49550(7) 0.0985(2) 0.71458(6)
H27 H 0.46780 0.10160 0.67800
N5 N 0.05762(6) 0.10265(19) 0.71429(5)
N6 N -0.06763(10) 0.1202(3) 0.96002(8)
C25 C 0.09521(7) 0.1030(2) 0.76804(6)
H28 H 0.13780 0.10070 0.77150
C26 C 0.07416(6) 0.1067(2) 0.81890(6)
H29 H 0.10200 0.10880 0.85530
C27 C 0.01034(6) 0.10728(19) 0.81410(6)
C28 C -0.01524(6) 0.1138(2) 0.86640(6)
C29 C 0.01074(9) 0.2346(2) 0.91424(7)
H30 H 0.04560 0.31270 0.91490
C30 C -0.01746(13) 0.2342(3) 0.96132(8)
H31 H -0.00120 0.31380 0.99380
C31 C -0.09281(10) 0.0047(3) 0.91502(10)
H32 H -0.12750 -0.07260 0.91560
C32 C -0.06763(7) -0.0007(2) 0.86758(8)
H33 H -0.08550 -0.08150 0.83580
C33 C -0.02932(6) 0.1043(2) 0.75832(6)
H34 H -0.07210 0.10260 0.75350
C34 C -0.00373(7) 0.1039(2) 0.71009(6)
H35 H -0.03050 0.10460 0.67300
Mn1* Mn 0.245039(9) -0.99691(3) -0.002465(8)
Mn1** Mn 0.245039(9) 1.00309(3) -0.002465(8)
O5* O 0.33815(5) 0.13443(16) 0.03024(5)
O7* O 0.15081(5) -0.12619(16) -0.03288(5)
#END
