
#######################################################################
#
#                 Cambridge Crystallographic Data Centre
#                                CCDC
#
#######################################################################
#
# If this CIF has been generated from an entry in the Cambridge
# Structural Database, then it will include bibliographic, chemical,
# crystal, experimental, refinement or atomic coordinate data resulting
# from the CCDC's data processing and validation procedures.
#
#######################################################################

data_CSD_CIF_ATIVAD
_audit_creation_date 2021-05-19
_audit_creation_method CSD-ConQuest-V1
_database_code_CSD ATIVAD
_database_code_depnum_ccdc_archive 'CCDC 2056722'
_chemical_formula_sum 'C60 H180 N12 Na12 O90'
_chemical_formula_moiety
;
(C60 H72 N12 Na2 O36 10-)n,2(H42 Na5 O21 5+),12(H2 O1)
;
_journal_coden_Cambridge 1147
_journal_volume 21
_journal_year 2021
_journal_page_first 3889
_journal_name_full 'Cryst.Growth Des. '
loop_
_publ_author_name
"Linhai Jiang"
"Chunhua Tony Hu"
"F.De Riccardis"
"Kent Kirshenbaum"
_chemical_name_systematic
;
catena-[bis(hexakis(\m-aqua)-icosaaqua-penta-sodium) 
bis(\m-cyclo[N-(2-carboxylatoethyl)glycyl-N-(2-carboxylatoethyl)glycyl-N-(2-ca
rboxylatoethyl)glycyl-N-(2-carboxylatoethyl)glycyl-N-(2-carboxylatoethyl)glycy
l-N-(2-carboxylatoethyl)glycyl])-di-sodium dodecahydrate]
;
_cell_volume   3119.991
_exptl_crystal_colour 'colorless'
_exptl_crystal_density_diffrn 1.483
_exptl_crystal_description 'rod'
_diffrn_ambient_temperature 100
_diffrn_special_details
;
twin

;
_refine_special_details
;
O15 and O15' disordered over two sites with occupancies 0.5:0.5.

;
#These two values have been output from a single CSD field.
_refine_ls_R_factor_gt 0.0427
_refine_ls_wR_factor_gt 0.0427
_symmetry_cell_setting hexagonal
_symmetry_space_group_name_H-M 'P -3'
_symmetry_Int_Tables_number 147
loop_
_symmetry_equiv_pos_site_id
_symmetry_equiv_pos_as_xyz
1 x,y,z
2 -y,x-y,z
3 -x+y,-x,z
4 -x,-y,-z
5 y,-x+y,-z
6 x-y,x,-z
_cell_length_a 19.243(4)
_cell_length_b 19.243(4)
_cell_length_c 9.7292(19)
_cell_angle_alpha 90
_cell_angle_beta 90
_cell_angle_gamma 120
_cell_formula_units_Z 1
loop_
_atom_type_symbol
_atom_type_radius_bond
C 0.68
H 0.23
N 0.68
Na 1.66
O 0.68
loop_
_atom_site_label
_atom_site_type_symbol
_atom_site_fract_x
_atom_site_fract_y
_atom_site_fract_z
Na1 Na 0.00000 0.00000 0.74942(18)
O1 O 0.12591(11) 0.06331(12) 0.6207(2)
O2 O 0.43208(12) 0.32400(13) 0.6174(2)
O3 O 0.39712(12) 0.21466(12) 0.4925(2)
O4 O 0.06335(11) 0.12577(12) 0.8788(2)
O5 O 0.18070(11) 0.38892(11) 1.0013(2)
O6 O 0.11184(12) 0.43291(12) 0.8816(2)
N1 N 0.20476(14) 0.17654(14) 0.5010(2)
N2 N 0.02718(13) 0.20410(13) 0.9967(2)
C1 C 0.17689(16) 0.09820(16) 0.5310(3)
C2 C 0.21035(16) 0.05373(16) 0.4483(3)
H1 H 0.19674 0.05281 0.34995
H2 H 0.26953 0.08213 0.45685
C3 C 0.25971(16) 0.22048(16) 0.3873(3)
H3 H 0.23211 0.23756 0.32103
H4 H 0.27413 0.18428 0.33855
C4 C 0.33629(17) 0.29432(17) 0.4381(3)
H5 H 0.32101 0.32741 0.49444
H6 H 0.36641 0.32681 0.35740
C5 C 0.39210(16) 0.27576(17) 0.5232(3)
C6 C 0.07843(16) 0.17630(16) 0.9681(3)
C7 C 0.15505(16) 0.20920(16) 1.0540(3)
H7 H 0.18547 0.26850 1.04823
H8 H 0.14104 0.19394 1.15154
C8 C 0.03746(16) 0.25878(16) 1.1097(3)
H9 H 0.08740 0.27265 1.16026
H10 H -0.00804 0.23149 1.17450
C9 C 0.04166(17) 0.33585(17) 1.0570(3)
H11 H -0.00620 0.32114 0.99959
H12 H 0.03958 0.36674 1.13675
C10 C 0.11648(16) 0.38948(16) 0.9733(3)
Na2 Na 0.37893(7) 0.51392(7) 0.21078(12)
Na3 Na 0.33333 0.66667 0.3536(2)
Na4 Na 0.33333 0.66667 0.6785(2)
O7 O 0.43582(13) 0.65585(12) 0.2289(2)
H13 H 0.4804(11) 0.674(2) 0.269(3)
H14 H 0.443(2) 0.6829(19) 0.158(2)
O8 O 0.43055(14) 0.53188(14) 0.4373(2)
H15 H 0.428(2) 0.5042(19) 0.506(3)
H16 H 0.4774(11) 0.5714(14) 0.431(4)
O9 O 0.25693(13) 0.39846(13) 0.2545(2)
H17 H 0.234(2) 0.400(2) 0.3272(19)
H18 H 0.2266(18) 0.392(3) 0.188(2)
O10 O 0.31103(12) 0.53779(12) 0.0281(2)
H19 H 0.3403(19) 0.5675(17) -0.036(2)
H20 H 0.2732(16) 0.4961(14) -0.007(3)
O11 O 0.46677(13) 0.47527(13) 0.1285(2)
H21 H 0.450(2) 0.4254(7) 0.125(4)
H22 H 0.482(5) 0.493(3) 0.048(3)
O12 O 0.30871(13) 0.56210(12) 0.5139(2)
H23 H 0.3477(13) 0.555(2) 0.495(4)
H24 H 0.2653(11) 0.5188(13) 0.504(4)
O13 O 0.40997(13) 0.62112(13) 0.8001(2)
H25 H 0.4560(11) 0.646(2) 0.834(4)
H26 H 0.404(2) 0.5822(15) 0.752(3)
H27? H 0.507(3) 0.496(3) 0.181(6)
O14 O 0.24927(13) 0.38299(14) 0.7502(2)
H28 H 0.224(2) 0.384(3) 0.820(2)
H29 H 0.228(2) 0.387(3) 0.678(2)
O15 O 0.4045(4) 0.4837(3) 0.7014(6)
H30 H 0.438(3) 0.490(5) 0.762(5)
H31 H 0.3580(19) 0.438(3) 0.710(9)
H32? H 0.3576(16) 0.4529(15) 0.730(7)
O16? O 0.4050(3) 0.4508(3) 0.6845(6)
H33? H 0.407(4) 0.408(2) 0.675(7)
O1D O 0.06331(11) -0.06260(12) 0.3793(2)
O2D O 0.32400(12) -0.10808(13) 0.3826(2)
O3D O 0.21466(12) -0.18246(12) 0.5075(2)
N1D N 0.17654(14) -0.02822(14) 0.4990(2)
C1D C 0.09820(16) -0.07869(16) 0.4690(3)
C2D C 0.05373(16) -0.15662(16) 0.5517(3)
H1D H 0.05281 -0.14394 0.65005
H2D H 0.08213 -0.18740 0.54315
C3D C 0.22048(16) -0.03923(16) 0.6127(3)
H3D H 0.23756 0.00546 0.67897
H4D H 0.18428 -0.08985 0.66145
C4D C 0.29432(17) -0.04197(17) 0.5619(3)
H5D H 0.32741 0.00640 0.50556
H6D H 0.32681 -0.03960 0.64260
C5D C 0.27576(16) -0.11634(17) 0.4768(3)
O1E O 0.06260(11) 0.12591(12) 0.3793(2)
O2E O 0.10808(12) 0.43208(13) 0.3826(2)
O3E O 0.18246(12) 0.39712(12) 0.5075(2)
N1E N 0.02822(14) 0.20476(14) 0.4990(2)
C1E C 0.07869(16) 0.17689(16) 0.4690(3)
C2E C 0.15662(16) 0.21035(16) 0.5517(3)
H1E H 0.14394 0.19674 0.65005
H2E H 0.18740 0.26953 0.54315
C3E C 0.03923(16) 0.25971(16) 0.6127(3)
H3E H -0.00546 0.23211 0.67897
H4E H 0.08985 0.27413 0.66145
C4E C 0.04197(17) 0.33629(17) 0.5619(3)
H5E H -0.00640 0.32101 0.50556
H6E H 0.03960 0.36641 0.64260
C5E C 0.11634(16) 0.39210(17) 0.4768(3)
O1A O -0.06331(11) 0.06260(12) 0.6207(2)
O2A O -0.32400(12) 0.10808(13) 0.6174(2)
O3A O -0.21466(12) 0.18246(12) 0.4925(2)
N1A N -0.17654(14) 0.02822(14) 0.5010(2)
C1A C -0.09820(16) 0.07869(16) 0.5310(3)
C2A C -0.05373(16) 0.15662(16) 0.4483(3)
H1A H -0.05281 0.14394 0.34995
H2A H -0.08213 0.18740 0.45685
C3A C -0.22048(16) 0.03923(16) 0.3873(3)
H3A H -0.23756 -0.00546 0.32103
H4A H -0.18428 0.08985 0.33855
C4A C -0.29432(17) 0.04197(17) 0.4381(3)
H5A H -0.32741 -0.00640 0.49444
H6A H -0.32681 0.03960 0.35740
C5A C -0.27576(16) 0.11634(17) 0.5232(3)
O1B O -0.06260(11) -0.12591(12) 0.6207(2)
O2B O -0.10808(12) -0.43208(13) 0.6174(2)
O3B O -0.18246(12) -0.39712(12) 0.4925(2)
N1B N -0.02822(14) -0.20476(14) 0.5010(2)
C1B C -0.07869(16) -0.17689(16) 0.5310(3)
C2B C -0.15662(16) -0.21035(16) 0.4483(3)
H1B H -0.14394 -0.19674 0.34995
H2B H -0.18740 -0.26953 0.45685
C3B C -0.03923(16) -0.25971(16) 0.3873(3)
H3B H 0.00546 -0.23211 0.32103
H4B H -0.08985 -0.27413 0.33855
C4B C -0.04197(17) -0.33629(17) 0.4381(3)
H5B H 0.00640 -0.32101 0.49444
H6B H -0.03960 -0.36641 0.35740
C5B C -0.11634(16) -0.39210(17) 0.5232(3)
O1C O -0.12591(11) -0.06331(12) 0.3793(2)
O2C O -0.43208(12) -0.32400(13) 0.3826(2)
O3C O -0.39712(12) -0.21466(12) 0.5075(2)
N1C N -0.20476(14) -0.17654(14) 0.4990(2)
C1C C -0.17689(16) -0.09820(16) 0.4690(3)
C2C C -0.21035(16) -0.05373(16) 0.5517(3)
H1C H -0.19674 -0.05281 0.65005
H2C H -0.26953 -0.08213 0.54315
C3C C -0.25971(16) -0.22048(16) 0.6127(3)
H3C H -0.23211 -0.23756 0.67897
H4C H -0.27413 -0.18428 0.66145
C4C C -0.33629(17) -0.29432(17) 0.5619(3)
H5C H -0.32101 -0.32741 0.50556
H6C H -0.36641 -0.32681 0.64260
C5C C -0.39210(16) -0.27576(17) 0.4768(3)
O4D O 0.12577(11) 0.06242(12) 1.1212(2)
O5D O 0.38892(11) 0.20822(11) 0.9987(2)
O6D O 0.43291(12) 0.32107(12) 1.1184(2)
N2D N 0.20410(13) 0.17692(13) 1.0033(2)
C6D C 0.17630(16) 0.09787(16) 1.0319(3)
C7D C 0.20920(16) 0.05415(16) 0.9460(3)
H7D H 0.26850 0.08303 0.95177
H8D H 0.19394 0.05290 0.84846
C8D C 0.25878(16) 0.22132(16) 0.8903(3)
H9D H 0.27265 0.18524 0.83974
H10D H 0.23149 0.23952 0.82550
C9D C 0.33585(17) 0.29419(17) 0.9430(3)
H11D H 0.32114 0.32734 1.00041
H12D H 0.36674 0.32716 0.86325
C10D C 0.38948(16) 0.27300(16) 1.0267(3)
O4E O -0.06242(11) 0.06335(12) 1.1212(2)
O5E O -0.20822(11) 0.18070(11) 0.9987(2)
O6E O -0.32107(12) 0.11184(12) 1.1184(2)
N2E N -0.17692(13) 0.02718(13) 1.0033(2)
C6E C -0.09787(16) 0.07843(16) 1.0319(3)
C7E C -0.05415(16) 0.15505(16) 0.9460(3)
H7E H -0.08303 0.18547 0.95177
H8E H -0.05290 0.14104 0.84846
C8E C -0.22132(16) 0.03746(16) 0.8903(3)
H9E H -0.18524 0.08740 0.83974
H10E H -0.23952 -0.00804 0.82550
C9E C -0.29419(17) 0.04166(17) 0.9430(3)
H11E H -0.32734 -0.00620 1.00041
H12E H -0.32716 0.03958 0.86325
C10E C -0.27300(16) 0.11648(16) 1.0267(3)
O4A O -0.12577(11) -0.06242(12) 0.8788(2)
O5A O -0.38892(11) -0.20822(11) 1.0013(2)
O6A O -0.43291(12) -0.32107(12) 0.8816(2)
N2A N -0.20410(13) -0.17692(13) 0.9967(2)
C6A C -0.17630(16) -0.09787(16) 0.9681(3)
C7A C -0.20920(16) -0.05415(16) 1.0540(3)
H7A H -0.26850 -0.08303 1.04823
H8A H -0.19394 -0.05290 1.15154
C8A C -0.25878(16) -0.22132(16) 1.1097(3)
H9A H -0.27265 -0.18524 1.16026
H10A H -0.23149 -0.23952 1.17450
C9A C -0.33585(17) -0.29419(17) 1.0570(3)
H11A H -0.32114 -0.32734 0.99959
H12A H -0.36674 -0.32716 1.13675
C10A C -0.38948(16) -0.27300(16) 0.9733(3)
O4B O 0.06242(11) -0.06335(12) 0.8788(2)
O5B O 0.20822(11) -0.18070(11) 1.0013(2)
O6B O 0.32107(12) -0.11184(12) 0.8816(2)
N2B N 0.17692(13) -0.02718(13) 0.9967(2)
C6B C 0.09787(16) -0.07843(16) 0.9681(3)
C7B C 0.05415(16) -0.15505(16) 1.0540(3)
H7B H 0.08303 -0.18547 1.04823
H8B H 0.05290 -0.14104 1.15154
C8B C 0.22132(16) -0.03746(16) 1.1097(3)
H9B H 0.18524 -0.08740 1.16026
H10B H 0.23952 0.00804 1.17450
C9B C 0.29419(17) -0.04166(17) 1.0570(3)
H11B H 0.32734 0.00620 0.99959
H12B H 0.32716 -0.03958 1.13675
C10B C 0.27300(16) -0.11648(16) 0.9733(3)
O4C O -0.06335(11) -0.12577(12) 1.1212(2)
O5C O -0.18070(11) -0.38892(11) 0.9987(2)
O6C O -0.11184(12) -0.43291(12) 1.1184(2)
N2C N -0.02718(13) -0.20410(13) 1.0033(2)
C6C C -0.07843(16) -0.17630(16) 1.0319(3)
C7C C -0.15505(16) -0.20920(16) 0.9460(3)
H7C H -0.18547 -0.26850 0.95177
H8C H -0.14104 -0.19394 0.84846
C8C C -0.03746(16) -0.25878(16) 0.8903(3)
H9C H -0.08740 -0.27265 0.83974
H10C H 0.00804 -0.23149 0.82550
C9C C -0.04166(17) -0.33585(17) 0.9430(3)
H11C H 0.00620 -0.32114 1.00041
H12C H -0.03958 -0.36674 0.86325
C10C C -0.11648(16) -0.38948(16) 1.0267(3)
Na1C Na 0.00000 0.00000 0.25058(18)
Na1C* Na 0.00000 0.00000 1.25058(18)
O4C* O -0.06335(11) -0.12577(12) 0.1212(2)
O4D* O 0.12577(11) 0.06242(12) 0.1212(2)
O4E* O -0.06242(11) 0.06335(12) 0.1212(2)
Na2A Na 0.48608(7) 0.86501(7) 0.21078(12)
O7A O 0.34415(13) 0.77997(12) 0.2289(2)
H13A H 0.3260(11) 0.8064(20) 0.269(3)
H14A H 0.3171(20) 0.7601(19) 0.158(2)
O8A O 0.46812(14) 0.89867(14) 0.4373(2)
H15A H 0.4958(20) 0.9238(19) 0.506(3)
H16A H 0.4286(11) 0.9060(14) 0.431(4)
O9A O 0.60154(13) 0.85847(13) 0.2545(2)
H17A H 0.600(2) 0.834(2) 0.3272(19)
H18A H 0.6080(18) 0.8346(30) 0.188(2)
O10A O 0.46221(12) 0.77324(12) 0.0281(2)
H19A H 0.4325(19) 0.7728(17) -0.036(2)
H20A H 0.5039(16) 0.7771(14) -0.007(3)
O11A O 0.52473(13) 0.99150(13) 0.1285(2)
H21A H 0.5746(20) 1.0246(7) 0.125(4)
H22A H 0.507(5) 0.989(3) 0.048(3)
O12A O 0.43790(13) 0.74661(12) 0.5139(2)
H23A H 0.4450(13) 0.7927(20) 0.495(4)
H24A H 0.4812(11) 0.7465(13) 0.504(4)
O13A O 0.37888(13) 0.78885(13) 0.8001(2)
H25A H 0.3540(11) 0.810(2) 0.834(4)
H26A H 0.4178(20) 0.8218(15) 0.752(3)
Na2B Na 0.13499(7) 0.62107(7) 0.21078(12)
O7B O 0.22003(13) 0.56418(12) 0.2289(2)
H13B H 0.1936(11) 0.5196(20) 0.269(3)
H14B H 0.2399(20) 0.5570(19) 0.158(2)
O8B O 0.10133(14) 0.56945(14) 0.4373(2)
H15B H 0.0762(20) 0.5720(19) 0.506(3)
H16B H 0.0940(11) 0.5226(14) 0.431(4)
O9B O 0.14153(13) 0.74307(13) 0.2545(2)
H17B H 0.166(2) 0.766(2) 0.3272(19)
H18B H 0.1654(18) 0.7734(30) 0.188(2)
O10B O 0.22676(12) 0.68897(12) 0.0281(2)
H19B H 0.2272(19) 0.6597(17) -0.036(2)
H20B H 0.2229(16) 0.7268(14) -0.007(3)
O11B O 0.00850(13) 0.53323(13) 0.1285(2)
H21B H -0.0246(20) 0.5500(7) 0.125(4)
H22B H 0.011(5) 0.518(3) 0.048(3)
O12B O 0.25339(13) 0.69129(12) 0.5139(2)
H23B H 0.2073(13) 0.6523(20) 0.495(4)
H24B H 0.2535(11) 0.7347(13) 0.504(4)
O13B O 0.21115(13) 0.59003(13) 0.8001(2)
H25B H 0.1900(11) 0.544(2) 0.834(4)
H26B H 0.1782(20) 0.5960(15) 0.752(3)
#END
