
#######################################################################
#
#                 Cambridge Crystallographic Data Centre
#                                CCDC
#
#######################################################################
#
# If this CIF has been generated from an entry in the Cambridge
# Structural Database, then it will include bibliographic, chemical,
# crystal, experimental, refinement or atomic coordinate data resulting
# from the CCDC's data processing and validation procedures.
#
#######################################################################

data_CSD_CIF_ATIXUX
_audit_creation_date 2011-08-30
_audit_creation_method CSD-ConQuest-V1
_database_code_CSD ATIXUX
_database_code_depnum_ccdc_archive 'CCDC 758788'
_chemical_formula_sum 'C38 H28 Cd3 N2 O18'
_chemical_formula_moiety
;
(C2 H8 N1 1+)2n,n(C34 H12 Cd3 O18 2-)
;
_journal_coden_Cambridge 1295
_journal_volume 14
_journal_year 2011
_journal_page_first 447
_journal_name_full 'Inorg.Chem.Commun. '
loop_
_publ_author_name
"Shu-Mei Chen"
"Ting-Ting Lian"
_chemical_name_systematic
;
catena-(bis(Dimethylammonium) 
bis(\m~6~-3,3',4,4'-benzophenonetetracarboxylato)-tri-cadmium)
;
_cell_volume   4479.639
_exptl_crystal_density_diffrn 1.683
_diffrn_ambient_temperature 293
_refine_special_details
;
The cation is equally disordered over two sites by symmetry.

;
#These two values have been output from a single CSD field.
_refine_ls_R_factor_gt 0.0457
_refine_ls_wR_factor_gt 0.0457
_symmetry_cell_setting orthorhombic
_symmetry_space_group_name_H-M 'C c c a'
_symmetry_Int_Tables_number 68
loop_
_symmetry_equiv_pos_site_id
_symmetry_equiv_pos_as_xyz
1 x,y,z
2 1/2-x,-y,z
3 -x,y,1/2-z
4 1/2+x,-y,1/2-z
5 1/2+x,1/2+y,z
6 -x,1/2-y,z
7 1/2-x,1/2+y,1/2-z
8 x,1/2-y,1/2-z
9 -x,-y,-z
10 -1/2+x,y,-z
11 x,-y,-1/2+z
12 -1/2-x,y,-1/2+z
13 -1/2-x,-1/2-y,-z
14 x,-1/2+y,-z
15 -1/2+x,-1/2-y,-1/2+z
16 -x,-1/2+y,-1/2+z
_cell_length_a 8.1040(3)
_cell_length_b 27.0656(10)
_cell_length_c 20.4233(8)
_cell_angle_alpha 90
_cell_angle_beta 90
_cell_angle_gamma 90
_cell_formula_units_Z 4
loop_
_atom_type_symbol
_atom_type_radius_bond
C 0.68
H 0.23
Cd 1.49
N 0.78
O 0.68
loop_
_atom_site_label
_atom_site_type_symbol
_atom_site_fract_x
_atom_site_fract_y
_atom_site_fract_z
Cd1 Cd -0.50000 0.75000 0.25000
Cd2 Cd 0.00000 0.75000 -0.04930(3)
O1 O -0.0656(7) 0.68084(16) 0.0023(2)
O2 O -0.2367(5) 0.72297(14) 0.06577(19)
O3 O -0.5375(6) 0.6987(2) 0.1461(2)
O4 O -0.3221(6) 0.68967(17) 0.2108(2)
O5 O -0.25000 0.50000 -0.0427(4)
C1 C -0.2822(9) 0.5465(2) 0.0544(3)
C2 C -0.2202(9) 0.5913(2) 0.0335(3)
H1 H -0.15520 0.59230 -0.00400
C3 C -0.2529(8) 0.6351(2) 0.0674(3)
C4 C -0.3523(8) 0.6331(2) 0.1223(3)
C5 C -0.4144(13) 0.5879(3) 0.1434(3)
H2 H -0.48210 0.58670 0.18010
C6 C -0.3763(10) 0.5449(3) 0.1102(4)
H3 H -0.41470 0.51470 0.12570
C7 C -0.1812(8) 0.6831(2) 0.0436(3)
C8 C -0.4029(9) 0.6778(2) 0.1620(3)
C9 C -0.25000 0.50000 0.0170(5)
C10 C -0.536(8) 0.266(2) 0.192(2)
C11 C -0.594(7) 0.3791(19) 0.194(3)
H4 H -0.65670 0.39940 0.16480
H5 H -0.48430 0.39210 0.19830
H6 H -0.64620 0.37890 0.23650
N1 N -0.584(7) 0.3153(17) 0.162(2)
H7 H -0.68610 0.30990 0.14610
H8 H -0.51840 0.31780 0.12670
Cd1A Cd 0.00000 0.25000 0.25000
Cd1A* Cd -1.00000 0.25000 0.25000
Cd2A Cd -0.50000 0.25000 -0.04930(3)
Cd2I Cd -0.50000 0.75000 0.04930(3)
Cd2H Cd 0.00000 0.25000 0.04930(3)
Cd2B Cd -1.00000 0.75000 0.54930(3)
Cd2K Cd -0.50000 0.75000 0.45070(3)
Cd2J Cd -1.00000 0.25000 0.45070(3)
Cd2C Cd -0.50000 0.25000 0.54930(3)
O1A O -0.4344(7) 0.31916(16) 0.0023(2)
O1B O -0.9344(7) 0.68084(16) 0.4977(2)
O1C O -0.5656(7) 0.31916(16) 0.4977(2)
O1E O 0.0656(7) 0.81916(16) 0.0023(2)
O1D O -0.5656(7) 0.18084(16) 0.0023(2)
O2A O -0.2633(5) 0.27703(14) 0.06577(19)
O2B O -0.7633(5) 0.72297(14) 0.43423(19)
O2C O -0.7367(5) 0.27703(14) 0.43423(19)
O2I O 0.2633(5) 0.72297(14) -0.06577(19)
O2L O -0.2633(5) 0.77703(14) -0.06577(19)
O2H O -0.7633(5) 0.27703(14) -0.06577(19)
O2M O -0.2367(5) 0.22297(14) -0.06577(19)
O3A O 0.0375(6) 0.3013(2) 0.1461(2)
O3B O -0.4625(6) 0.6987(2) 0.3539(2)
O3C O -1.0375(6) 0.3013(2) 0.3539(2)
O3E O -0.4625(6) 0.8013(2) 0.1461(2)
O3G O -0.5375(6) 0.8013(2) 0.3539(2)
O3I O -0.0375(6) 0.6987(2) -0.1461(2)
O3L O 0.0375(6) 0.8013(2) -0.1461(2)
O3H O -0.4625(6) 0.3013(2) -0.1461(2)
O3M O -0.5375(6) 0.1987(2) -0.1461(2)
O4A O -0.1779(6) 0.31033(17) 0.2108(2)
O4B O -0.6779(6) 0.68967(17) 0.2892(2)
O4C O -0.8221(6) 0.31033(17) 0.2892(2)
O4E O -0.6779(6) 0.81033(17) 0.2108(2)
O4G O -0.3221(6) 0.81033(17) 0.2892(2)
O5B O -0.75000 0.50000 0.5427(4)
C1A C -0.2178(9) 0.4535(2) 0.0544(3)
C1B C -0.7178(9) 0.5465(2) 0.4456(3)
C1C C -0.7822(9) 0.4535(2) 0.4456(3)
C2A C -0.2798(9) 0.4087(2) 0.0335(3)
C2B C -0.7798(9) 0.5913(2) 0.4665(3)
C2C C -0.7202(9) 0.4087(2) 0.4665(3)
H1A H -0.34480 0.40770 -0.00400
H1B H -0.84480 0.59230 0.50400
H1C H -0.65520 0.40770 0.50400
C3A C -0.2471(8) 0.3649(2) 0.0674(3)
C3B C -0.7471(8) 0.6351(2) 0.4326(3)
C3C C -0.7529(8) 0.3649(2) 0.4326(3)
C4A C -0.1477(8) 0.3669(2) 0.1223(3)
C4B C -0.6477(8) 0.6331(2) 0.3777(3)
C4C C -0.8523(8) 0.3669(2) 0.3777(3)
C5A C -0.0856(13) 0.4121(3) 0.1434(3)
C5B C -0.5856(13) 0.5879(3) 0.3566(3)
C5C C -0.9144(13) 0.4121(3) 0.3566(3)
H2A H -0.01790 0.41330 0.18010
H2B H -0.51790 0.58670 0.31990
H2C H -0.98210 0.41330 0.31990
C6A C -0.1237(10) 0.4551(3) 0.1102(4)
C6B C -0.6237(10) 0.5449(3) 0.3898(4)
C6C C -0.8763(10) 0.4551(3) 0.3898(4)
H3A H -0.08530 0.48530 0.12570
H3B H -0.58530 0.51470 0.37430
H3C H -0.91470 0.48530 0.37430
C7A C -0.3188(8) 0.3169(2) 0.0436(3)
C7B C -0.8188(8) 0.6831(2) 0.4564(3)
C7C C -0.6812(8) 0.3169(2) 0.4564(3)
C8A C -0.0971(9) 0.3222(2) 0.1620(3)
C8B C -0.5971(9) 0.6778(2) 0.3380(3)
C8C C -0.9029(9) 0.3222(2) 0.3380(3)
C9B C -0.75000 0.50000 0.4830(5)
C10E C -0.464(8) 0.234(2) 0.192(2)
C11E C -0.406(7) 0.1209(19) 0.194(3)
H4E H -0.34330 0.10060 0.16480
H5E H -0.51570 0.10790 0.19830
H6E H -0.35380 0.12110 0.23650
N1E N -0.416(7) 0.1847(17) 0.162(2)
H7E H -0.31390 0.19010 0.14610
H8E H -0.48160 0.18220 0.12670
#END
