
#######################################################################
#
#                 Cambridge Crystallographic Data Centre
#                                CCDC
#
#######################################################################
#
# If this CIF has been generated from an entry in the Cambridge
# Structural Database, then it will include bibliographic, chemical,
# crystal, experimental, refinement or atomic coordinate data resulting
# from the CCDC's data processing and validation procedures.
#
#######################################################################

data_CSD_CIF_ATOWUC
_audit_creation_date 2011-09-07
_audit_creation_method CSD-ConQuest-V1
_database_code_CSD ATOWUC
_database_code_depnum_ccdc_archive 'CCDC 813275'
_chemical_formula_sum 'C42 H32 Bi3 N6 O29.5'
_chemical_formula_moiety
;
(C42 H18 Bi3 N6 O24 3-)n,3n(H3 O1 1+),2.5n(H2 O1)
;
_journal_coden_Cambridge 182
_journal_volume 47
_journal_year 2011
_journal_page_first 7371
_journal_name_full 'Chem.Commun. '
loop_
_publ_author_name
"A.C.Wibowo"
"M.D.Smith"
"H.-C.zur Loye"
_chemical_name_systematic
;
catena-(hexakis(\m~2~-pyridine-2,5-dicarboxylato)-tri-bismuth trioxonium 
hydrate unknown solvate)
;
_cell_volume  12459.876
_exptl_crystal_colour 'colorless'
_exptl_crystal_density_diffrn 1.375
_exptl_crystal_description 'hexagonal plate'
_diffrn_ambient_temperature 295
_refine_special_details
;
Waters and hydronium ions are disordered with partial occupancies O1S 0.73, 
O2S 0.59, O3S 0.19, O4S 0.332 and O5S 0.211. Disordered density of water, 
hydronium ions and other unknown occupants of the channels in this structure 
were taken into account with SQUEEZE/PLATON.
;
#These two values have been output from a single CSD field.
_refine_ls_R_factor_gt 0.0382
_refine_ls_wR_factor_gt 0.0382
_symmetry_cell_setting rhombohedral
_symmetry_space_group_name_H-M 'R -3 c'
_symmetry_Int_Tables_number 167
loop_
_symmetry_equiv_pos_site_id
_symmetry_equiv_pos_as_xyz
1 x,y,z
2 -y,x-y,z
3 -x+y,-x,z
4 y,x,1/2-z
5 x-y,-y,1/2-z
6 -x,-x+y,1/2-z
7 2/3+x,1/3+y,1/3+z
8 2/3-y,1/3+x-y,1/3+z
9 2/3-x+y,1/3-x,1/3+z
10 2/3+y,1/3+x,5/6-z
11 2/3+x-y,1/3-y,5/6-z
12 2/3-x,1/3-x+y,5/6-z
13 1/3+x,2/3+y,2/3+z
14 1/3-y,2/3+x-y,2/3+z
15 1/3-x+y,2/3-x,2/3+z
16 1/3+y,2/3+x,1/6-z
17 1/3+x-y,2/3-y,1/6-z
18 1/3-x,2/3-x+y,1/6-z
19 -x,-y,-z
20 y,-x+y,-z
21 x-y,x,-z
22 -y,-x,-1/2+z
23 -x+y,y,-1/2+z
24 x,x-y,-1/2+z
25 -2/3-x,-1/3-y,-1/3-z
26 -2/3+y,-1/3-x+y,-1/3-z
27 -2/3+x-y,-1/3+x,-1/3-z
28 -2/3-y,-1/3-x,-5/6+z
29 -2/3-x+y,-1/3+y,-5/6+z
30 -2/3+x,-1/3+x-y,-5/6+z
31 -1/3-x,-2/3-y,-2/3-z
32 -1/3+y,-2/3-x+y,-2/3-z
33 -1/3+x-y,-2/3+x,-2/3-z
34 -1/3-y,-2/3-x,-1/6+z
35 -1/3-x+y,-2/3+y,-1/6+z
36 -1/3+x,-2/3+x-y,-1/6+z
_cell_length_a 16.7164(3)
_cell_length_b 16.7164(3)
_cell_length_c 51.487(2)
_cell_angle_alpha 90
_cell_angle_beta 90
_cell_angle_gamma 120
_cell_formula_units_Z 6
loop_
_atom_type_symbol
_atom_type_radius_bond
C 0.68
H 0.23
Bi 1.48
N 0.68
O 0.68
loop_
_atom_site_label
_atom_site_type_symbol
_atom_site_fract_x
_atom_site_fract_y
_atom_site_fract_z
O1 O 0.66670 0.33330 0.2128(6)
O2 O 0.66670 0.33330 0.33330
O3 O 0.66670 0.33330 0.08330
O4 O 0.729(3) 0.148(3) 0.1947(9)
Bi1 Bi 0.51350(2) 0.00000 0.25000
O5 O 0.4187(4) -0.0819(3) 0.28498(9)
O6 O 0.3626(6) -0.0768(4) 0.32320(13)
O7 O 0.6543(5) 0.1579(4) 0.25118(10)
O8 O 0.6361(6) 0.0826(5) 0.28725(14)
N1 N 0.4521(4) 0.0864(3) 0.27272(10)
C1 C 0.4129(5) 0.0513(4) 0.29543(13)
C2 C 0.3870(6) 0.0992(5) 0.31200(17)
H1 H 0.35840 0.07310 0.32770
C3 C 0.4041(7) 0.1872(6) 0.30499(17)
H2 H 0.38800 0.22090 0.31610
C4 C 0.4447(6) 0.2226(5) 0.28164(15)
C5 C 0.4691(5) 0.1702(4) 0.26612(13)
H3 H 0.49870 0.19500 0.25040
C6 C 0.3962(5) -0.0437(4) 0.30191(14)
C7 C 0.6832(6) 0.1492(5) 0.27244(16)
O9? O 0.691(2) 0.205(2) 0.1811(5)
Bi1A Bi 1.00000(2) 0.51350 0.25000
Bi1B Bi 0.48650(2) 0.48650 0.25000
Bi1A* Bi 0.00000(2) 0.51350 0.25000
Bi1* Bi 0.51350(2) 1.00000 0.25000
Bi1** Bi 1.51350(2) 1.00000 0.25000
O5D O 0.5006(4) 0.0819(3) 0.21502(9)
O5A O 1.0819(4) 0.5006(3) 0.28498(9)
O5C O 0.9181(4) 0.4187(3) 0.21502(9)
O5B O 0.4994(4) 0.5813(3) 0.28498(9)
O5E O 0.5813(4) 0.4994(3) 0.21502(9)
O5D* O 0.5006(4) 1.0819(3) 0.21502(9)
O5* O 0.4187(4) 0.9181(3) 0.28498(9)
O6D O 0.4394(6) 0.0768(4) 0.17680(13)
O6A O 1.0768(6) 0.4394(4) 0.32320(13)
O6C O 0.9232(6) 0.3626(4) 0.17680(13)
O6B O 0.5606(6) 0.6374(4) 0.32320(13)
O6E O 0.6374(6) 0.5606(4) 0.17680(13)
O7A O 0.8421(5) 0.4964(4) 0.25118(10)
O7B O 0.5036(5) 0.3457(4) 0.25118(10)
O7E O 0.3457(5) 0.5036(4) 0.24882(10)
O7D O 0.4964(5) 0.8421(4) 0.24882(10)
O7* O 0.6543(5) 1.1579(4) 0.25118(10)
O7C O 1.1579(5) 0.6543(4) 0.24882(10)
O7D* O 0.4964(5) -0.1579(4) 0.24882(10)
O8A O 0.9174(6) 0.5535(5) 0.28725(14)
O8B O 0.4465(6) 0.3639(5) 0.28725(14)
O8E O 0.3639(6) 0.4465(5) 0.21275(14)
O8D O 0.5535(6) 0.9174(5) 0.21275(14)
O8C O 1.0826(6) 0.6361(5) 0.21275(14)
N1D N 0.3657(4) -0.0864(3) 0.22728(10)
N1A N 0.9136(4) 0.3657(3) 0.27272(10)
N1C N 1.0864(4) 0.4521(3) 0.22728(10)
N1B N 0.6343(4) 0.5479(3) 0.27272(10)
N1E N 0.5479(4) 0.6343(3) 0.22728(10)
N1C* N 0.0864(4) 0.4521(3) 0.22728(10)
N1D* N 0.3657(4) 0.9136(3) 0.22728(10)
N1* N 0.4521(4) 1.0864(3) 0.27272(10)
N1D** N 1.3657(4) 0.9136(3) 0.22728(10)
C1D C 0.3616(5) -0.0513(4) 0.20457(13)
C1A C 0.9487(5) 0.3616(4) 0.29543(13)
C1C C 1.0513(5) 0.4129(4) 0.20457(13)
C1B C 0.6384(5) 0.5871(4) 0.29543(13)
C1E C 0.5871(5) 0.6384(4) 0.20457(13)
C1C* C 0.0513(5) 0.4129(4) 0.20457(13)
C1D* C 1.3616(5) 0.9487(4) 0.20457(13)
C2A C 0.9008(6) 0.2878(5) 0.31200(17)
C2B C 0.7122(6) 0.6130(5) 0.31200(17)
C2C C 0.0992(6) 0.3870(5) 0.18800(17)
C2E C 0.6130(6) 0.7122(5) 0.18800(17)
C2D C 1.2878(6) 0.9008(5) 0.18800(17)
C2C* C 1.0992(6) 0.3870(5) 0.18800(17)
C2D* C 0.2878(6) -0.0992(5) 0.18800(17)
H1C H 0.07310 0.35840 0.17230
H1E H 0.64160 0.71470 0.17230
H1B H 0.71470 0.64160 0.32770
H1D H 1.28530 0.92690 0.17230
H1A H 0.92690 0.28530 0.32770
C3A C 0.8128(7) 0.2169(6) 0.30499(17)
C3B C 0.7831(7) 0.5959(6) 0.30499(17)
C3C C 0.1872(7) 0.4041(6) 0.19501(17)
C3E C 0.5959(7) 0.7831(6) 0.19501(17)
C3D C 1.2169(7) 0.8128(6) 0.19501(17)
H2C H 0.22090 0.38800 0.18390
H2E H 0.61200 0.83290 0.18390
H2B H 0.83290 0.61200 0.31610
H2D H 1.16710 0.77910 0.18390
H2A H 0.77910 0.16710 0.31610
C4A C 0.7774(6) 0.2221(5) 0.28164(15)
C4B C 0.7779(6) 0.5553(5) 0.28164(15)
C4C C 0.2226(6) 0.4447(5) 0.21836(15)
C4E C 0.5553(6) 0.7779(5) 0.21836(15)
C4D C 1.2221(6) 0.7774(5) 0.21836(15)
C5C C 0.1702(5) 0.4691(4) 0.23388(13)
C5E C 0.5309(5) 0.7011(4) 0.23388(13)
C5B C 0.7011(5) 0.5309(4) 0.26612(13)
C5D C 1.2989(5) 0.8298(4) 0.23388(13)
C5C* C 1.1702(5) 0.4691(4) 0.23388(13)
C5A C 0.8298(5) 0.2989(4) 0.26612(13)
C5D* C 0.2989(5) -0.1702(4) 0.23388(13)
H3C H 0.19500 0.49870 0.24960
H3E H 0.50130 0.69630 0.24960
H3B H 0.69630 0.50130 0.25040
H3D H 1.30370 0.80500 0.24960
H3A H 0.80500 0.30370 0.25040
C6D C 0.4399(5) 0.0437(4) 0.19809(14)
C6A C 1.0437(5) 0.4399(4) 0.30191(14)
C6C C 0.9563(5) 0.3962(4) 0.19809(14)
C6B C 0.5601(5) 0.6038(4) 0.30191(14)
C6E C 0.6038(5) 0.5601(4) 0.19809(14)
C6C* C -0.0437(5) 0.3962(4) 0.19809(14)
C6D* C 1.4399(5) 1.0437(4) 0.19809(14)
C7A C 0.8508(6) 0.5340(5) 0.27244(16)
C7B C 0.4660(6) 0.3168(5) 0.27244(16)
C7E C 0.3168(6) 0.4660(5) 0.22756(16)
C7D C 0.5340(6) 0.8508(5) 0.22756(16)
C7C C 1.1492(6) 0.6832(5) 0.22756(16)
#END
