
#######################################################################
#
#                 Cambridge Crystallographic Data Centre
#                                CCDC
#
#######################################################################
#
# If this CIF has been generated from an entry in the Cambridge
# Structural Database, then it will include bibliographic, chemical,
# crystal, experimental, refinement or atomic coordinate data resulting
# from the CCDC's data processing and validation procedures.
#
#######################################################################

data_CSD_CIF_ATOZEO
_audit_creation_date 2004-07-02
_audit_creation_method CSD-ConQuest-V1
_database_code_CSD ATOZEO
_database_code_depnum_ccdc_archive 'CCDC 227227'
_chemical_formula_sum 'C9 H12 Li3 N1 O9 S1'
_chemical_formula_moiety
;
(Li1 1+)n,n(C9 H12 Li2 N1 O9 S1 1-)
;
_journal_coden_Cambridge 24
_journal_volume 45
_journal_year 2004
_journal_page_first 1895
_journal_name_full 'Tetrahedron Lett. '
loop_
_publ_author_name
"K.Agoston"
"A.Geyer"
_chemical_name_systematic
;
catena-(Lithium 
(\m~5~-5-(carboxy(hydroxy)methyl)-6,7-dihydroxyhexahydropyrrolo(2,1-b)thiazole
-3-carboxylato)-dihydroxy-di-lithium)
;
_cell_volume   1360.625
_exptl_crystal_colour 'light yellow'
_exptl_crystal_density_diffrn 1.611
_exptl_crystal_description 'prism'
_diffrn_ambient_temperature 173
#These two values have been output from a single CSD field.
_refine_ls_R_factor_gt 0.047
_refine_ls_wR_factor_gt 0.047
_symmetry_cell_setting monoclinic
_symmetry_space_group_name_H-M 'C 2'
_symmetry_Int_Tables_number 5
loop_
_symmetry_equiv_pos_site_id
_symmetry_equiv_pos_as_xyz
1 x,y,z
2 -x,y,-z
3 1/2+x,1/2+y,z
4 1/2-x,1/2+y,-z
_cell_length_a 13.0482(15)
_cell_length_b 8.8833(7)
_cell_length_c 12.0532(15)
_cell_angle_alpha 90
_cell_angle_beta 103.121(14)
_cell_angle_gamma 90
_cell_formula_units_Z 4
loop_
_atom_type_symbol
_atom_type_radius_bond
C 0.68
H 0.23
Li 0.92
N 0.68
O 0.78
S 1.02
loop_
_atom_site_label
_atom_site_type_symbol
_atom_site_fract_x
_atom_site_fract_y
_atom_site_fract_z
S1 S -0.07575(12) -0.1467(2) -0.37629(16)
O1 O -0.1924(3) -0.3275(3) -0.1423(3)
O2 O -0.1788(3) 0.0189(4) -0.0438(3)
O3 O -0.4352(2) 0.0558(4) -0.2842(3)
O4 O -0.3952(3) 0.1940(4) -0.0835(3)
O5 O -0.2814(2) 0.3544(4) -0.1314(2)
O6 O -0.4074(2) -0.1314(4) -0.5356(2)
O7 O -0.3040(3) -0.0597(4) -0.6500(3)
O8 O -0.0326(3) -0.5867(6) -0.1151(4)
O9 O -0.4175(3) -0.3161(5) -0.2745(4)
N1 N -0.2617(3) -0.0529(4) -0.3445(3)
C1 C -0.1900(3) -0.1793(5) -0.3121(4)
C2 C -0.1635(4) -0.1838(5) -0.1808(4)
C3 C -0.2275(3) -0.0548(5) -0.1467(3)
C4 C -0.2468(3) 0.0523(4) -0.2476(3)
C5 C -0.1364(3) 0.0045(6) -0.4625(4)
C6 C -0.2521(3) 0.0096(5) -0.4543(4)
C7 C -0.3451(3) 0.1502(5) -0.2584(4)
C8 C -0.3402(3) 0.2399(5) -0.1478(4)
C9 C -0.3277(3) -0.0688(5) -0.5556(3)
Li1 Li -0.4403(5) -0.1299(10) -0.3806(6)
Li2 Li -0.1759(6) -0.5421(9) -0.1925(6)
H1 H -0.22610 -0.27480 -0.34280
H2 H -0.08660 -0.16530 -0.15050
H3 H -0.29680 -0.09560 -0.13850
H4 H -0.18350 0.11680 -0.24490
H5 H -0.10090 0.10050 -0.43530
H6 H -0.13170 -0.01130 -0.54250
H7 H -0.277(3) 0.120(5) -0.460(4)
H8 H -0.348(3) 0.219(5) -0.316(3)
H9 H -0.168(5) -0.315(8) -0.054(6)
H10 H -0.197(4) -0.056(6) 0.025(4)
H11 H -0.444(5) -0.369(7) -0.255(5)
Li3 Li -0.5120(5) -0.3585(8) -0.9107(6)
Li2* Li -0.1759(6) 0.4579(9) -0.1925(6)
Li1A Li -0.5597(5) -0.1299(10) -0.6194(6)
Li2C Li -0.3241(6) -0.0421(9) -0.8075(6)
O6A O -0.5926(2) -0.1314(4) -0.4644(2)
O5* O -0.2814(2) -0.6456(4) -0.1314(2)
O7C O -0.1960(3) -0.5597(4) -0.3500(3)
#END
