
#######################################################################
#
#                 Cambridge Crystallographic Data Centre
#                                CCDC
#
#######################################################################
#
# If this CIF has been generated from an entry in the Cambridge
# Structural Database, then it will include bibliographic, chemical,
# crystal, experimental, refinement or atomic coordinate data resulting
# from the CCDC's data processing and validation procedures.
#
#######################################################################

data_CSD_CIF_ATUQIP
_audit_creation_date 2004-07-02
_audit_creation_method CSD-ConQuest-V1
_database_code_CSD ATUQIP
_database_code_depnum_ccdc_archive 'CCDC 239046'
_chemical_formula_sum 'C32 H64 Cu4 I6 K2 O16'
_chemical_formula_moiety
;
(C16 H32 K1 O8 1+)2n,n(Cu4 I6 2-)
;
_journal_coeditor_code "IUCr WM6013"
_journal_coden_Cambridge 1370
_journal_volume 60
_journal_year 2004
_journal_page_first m548
_journal_name_full 'Acta Crystallogr.,Sect.E:Struct.Rep.Online '
loop_
_publ_author_name
"H.Paulsson"
"A.Fischer"
"L.Kloo"
_chemical_name_systematic
;
catena-(bis(bis(12-Crown-4)-potassium) 
tetrakis(\m~3~-iodo)-bis(\m~2~-iodo)-tetra-copper(i))
;
_cell_volume   2703.110
_exptl_crystal_colour 'colorless'
_exptl_crystal_density_diffrn 2.21
_exptl_crystal_description 'irregular'
_diffrn_ambient_temperature 150
#These two values have been output from a single CSD field.
_refine_ls_R_factor_gt 0.027
_refine_ls_wR_factor_gt 0.027
_symmetry_cell_setting triclinic
_symmetry_space_group_name_H-M 'P -1'
_symmetry_Int_Tables_number 2
loop_
_symmetry_equiv_pos_site_id
_symmetry_equiv_pos_as_xyz
1 x,y,z
2 -x,-y,-z
_cell_length_a 14.5859(1)
_cell_length_b 14.6371(1)
_cell_length_c 15.6526(2)
_cell_angle_alpha 67.4428(5)
_cell_angle_beta 69.0664(4)
_cell_angle_gamma 64.1181(4)
_cell_formula_units_Z 2
loop_
_atom_type_symbol
_atom_type_radius_bond
C 0.68
H 0.23
Cu 1.04
I 1.43
K 1.73
O 0.68
loop_
_atom_site_label
_atom_site_type_symbol
_atom_site_fract_x
_atom_site_fract_y
_atom_site_fract_z
Cu1 Cu 0.47688(4) 0.98223(3) 0.09234(3)
Cu2 Cu 0.56173(4) 0.79882(3) 0.18644(4)
Cu3 Cu 0.43845(4) 0.69282(3) 0.30817(4)
Cu4 Cu 0.47587(4) 0.48584(3) 0.59160(3)
I1 I 0.388113(17) 0.674660(15) 0.500264(14)
I2 I 0.409845(17) 0.529752(16) 0.302763(15)
I3 I 0.587750(17) 0.956789(16) 0.204946(15)
I4 I 0.616610(17) 0.828106(15) -0.008095(14)
I5 I 0.656526(15) 0.622931(15) 0.290508(14)
I6 I 0.347578(16) 0.866911(15) 0.199857(14)
K1 K 0.87845(6) 0.26627(6) 0.02007(5)
C1 C 1.1070(3) 0.2811(3) -0.1752(3)
C2 C 1.0491(3) 0.3885(3) -0.1573(2)
C3 C 1.0874(3) 0.3586(3) -0.0104(3)
C4 C 1.0429(3) 0.3262(3) 0.0948(3)
C5 C 1.1006(3) 0.1379(3) 0.1309(3)
C6 C 1.0670(3) 0.0546(3) 0.1296(3)
C7 C 1.1260(3) 0.0583(3) -0.0350(3)
C8 C 1.0867(3) 0.1128(3) -0.1245(3)
O1 O 1.00921(19) 0.38374(19) -0.05819(17)
O2 O 1.01417(19) 0.23531(19) 0.12376(17)
O3 O 1.03883(19) 0.07813(18) 0.04301(17)
O4 O 1.03594(19) 0.22495(19) -0.13803(17)
C9 C 0.7201(3) 0.5316(3) -0.0344(3)
C10 C 0.6853(3) 0.5097(3) 0.0733(3)
C11 C 0.7299(3) 0.3705(3) 0.2107(2)
C12 C 0.6659(3) 0.3047(3) 0.2275(3)
C13 C 0.6729(3) 0.1694(3) 0.1752(3)
C14 C 0.6238(3) 0.2309(3) 0.0904(3)
C15 C 0.6663(3) 0.3273(3) -0.0708(3)
C16 C 0.6417(3) 0.4372(3) -0.0635(3)
O5 O 0.7640(2) 0.41800(19) 0.11250(17)
O6 O 0.7307(2) 0.21937(17) 0.18654(16)
O7 O 0.7043(2) 0.24662(19) 0.00826(17)
O8 O 0.7359(2) 0.44568(19) -0.06682(17)
K2 K 0.11831(6) 0.22973(6) 0.48454(5)
C17 C 0.3518(3) 0.0376(3) 0.5669(3)
C18 C 0.2927(4) -0.0246(3) 0.5681(3)
C19 C 0.3126(3) 0.0022(3) 0.4027(3)
C20 C 0.2645(3) 0.0823(3) 0.3223(3)
C21 C 0.3355(3) 0.2173(3) 0.2773(3)
C22 C 0.3128(4) 0.3165(3) 0.3009(3)
C23 C 0.3715(3) 0.2544(3) 0.4442(3)
C24 C 0.3336(4) 0.2139(3) 0.5493(3)
O9 O 0.2431(2) 0.02166(19) 0.48992(16)
O10 O 0.2441(2) 0.18831(18) 0.31830(17)
O11 O 0.2846(2) 0.30373(18) 0.40119(17)
O12 O 0.2827(2) 0.14026(19) 0.57268(17)
C25 C -0.0812(3) 0.3261(3) 0.6667(2)
C26 C -0.1146(3) 0.2381(3) 0.6766(3)
C27 C -0.0511(3) 0.0877(3) 0.6168(3)
C28 C -0.0919(3) 0.1341(3) 0.5276(3)
C29 C -0.0491(4) 0.2343(3) 0.3665(3)
C30 C -0.1034(3) 0.3466(3) 0.3731(3)
C31 C -0.0782(3) 0.4726(3) 0.4159(3)
C32 C -0.1255(3) 0.4497(3) 0.5214(3)
O13 O -0.02552(19) 0.15975(18) 0.63709(17)
O14 O -0.01199(19) 0.16256(18) 0.44931(16)
O15 O -0.03058(19) 0.38011(19) 0.38279(17)
O16 O -0.04389(19) 0.37664(19) 0.56947(16)
H1 H 1.16390 0.24320 -0.14350
H2 H 1.13390 0.28780 -0.24210
H3 H 0.99180 0.42330 -0.18830
H4 H 1.09630 0.42720 -0.18540
H5 H 1.14780 0.30140 -0.02900
H6 H 1.10660 0.41940 -0.02760
H7 H 0.98200 0.38450 0.11070
H8 H 1.09460 0.31200 0.12700
H9 H 1.15800 0.14650 0.07780
H10 H 1.12150 0.11890 0.18890
H11 H 1.00730 0.05080 0.18140
H12 H 1.12330 -0.01190 0.13880
H13 H 1.17580 0.08580 -0.03700
H14 H 1.15840 -0.01630 -0.02780
H15 H 1.03840 0.08300 -0.12190
H16 H 1.14560 0.09980 -0.17700
H17 H 0.78490 0.54380 -0.05330
H18 H 0.66820 0.59390 -0.06220
H19 H 0.62030 0.49710 0.09530
H20 H 0.67710 0.56760 0.09340
H21 H 0.79000 0.32480 0.23720
H22 H 0.68820 0.42460 0.24310
H23 H 0.60830 0.34720 0.19700
H24 H 0.63970 0.27800 0.29420
H25 H 0.71920 0.10140 0.16600
H26 H 0.61810 0.16100 0.23100
H27 H 0.57350 0.29790 0.09920
H28 H 0.58990 0.19230 0.08240
H29 H 0.71770 0.31770 -0.12860
H30 H 0.60320 0.32300 -0.07260
H31 H 0.59260 0.44710 -0.00460
H32 H 0.61270 0.49030 -0.11560
H33 H 0.40440 0.04240 0.50870
H34 H 0.38460 0.00360 0.61980
H35 H 0.24000 -0.02690 0.62630
H36 H 0.34000 -0.09500 0.56700
H37 H 0.37760 0.00830 0.39690
H38 H 0.32500 -0.06770 0.40230
H39 H 0.19970 0.07430 0.33050
H40 H 0.31100 0.06740 0.26410
H41 H 0.39250 0.16150 0.30360
H42 H 0.35300 0.22830 0.20980
H43 H 0.25610 0.37080 0.27320
H44 H 0.37400 0.33630 0.27350
H45 H 0.42160 0.19690 0.41820
H46 H 0.40310 0.30500 0.43130
H47 H 0.28580 0.27330 0.57370
H48 H 0.39310 0.17990 0.57730
H49 H -0.02600 0.29640 0.69960
H50 H -0.13980 0.37700 0.69590
H51 H -0.16800 0.26480 0.64220
H52 H -0.14080 0.20690 0.74220
H53 H 0.01050 0.02700 0.60850
H54 H -0.10380 0.06620 0.66890
H55 H -0.15300 0.19600 0.53290
H56 H -0.10890 0.08360 0.51690
H57 H 0.00920 0.23340 0.31250
H58 H -0.09730 0.21310 0.35650
H59 H -0.16040 0.34970 0.42820
H60 H -0.12960 0.39240 0.31740
H61 H -0.02630 0.50260 0.40320
H62 H -0.13270 0.52300 0.38340
H63 H -0.17780 0.41930 0.53670
H64 H -0.15660 0.51330 0.54130
I4A I 0.383390(17) 1.171894(15) 0.008095(14)
I1A I 0.611887(17) 0.325340(15) 0.499736(14)
I2A I 0.590155(17) 0.470248(16) 0.697237(15)
I5A I 0.343474(15) 0.377069(15) 0.709492(14)
Cu4A Cu 0.52413(4) 0.51416(3) 0.40840(3)
Cu1A Cu 0.52312(4) 1.01777(3) -0.09234(3)
#END
