
#######################################################################
#
#                 Cambridge Crystallographic Data Centre
#                                CCDC
#
#######################################################################
#
# If this CIF has been generated from an entry in the Cambridge
# Structural Database, then it will include bibliographic, chemical,
# crystal, experimental, refinement or atomic coordinate data resulting
# from the CCDC's data processing and validation procedures.
#
#######################################################################

data_CSD_CIF_ATURIS
_audit_creation_date 2016-08-25
_audit_creation_method CSD-ConQuest-V1
_database_code_CSD ATURIS
_database_code_depnum_ccdc_archive 'CCDC 1420068'
_chemical_formula_sum 'C29 H21 In1 N2 O8'
_chemical_formula_moiety
;
(C27 H13 In1 N1 O8 1-)n,n(C2 H8 N1 1+)
;
_journal_coden_Cambridge 1182
_journal_volume 27
_journal_year 2016
_journal_page_first 502
_journal_name_full 'Chin.Chem.Lett. '
loop_
_publ_author_name
"Bin Wang"
"Hui Yang"
"Ya-Bo Xie"
"Yi-Bo Dou"
"Min-Jian Zhao"
"Jian-Rong Li"
_chemical_name_systematic
;
catena-(dimethylammonium 
(\m-5-(2,6-bis(4-carboxylatophenyl)pyridin-4-yl)isophthalato)-indium)
;
_chemical_name_common
;
BUT-21
;
_cell_volume   7095.862
_exptl_crystal_colour 'colorless'
_exptl_crystal_description 'block'
_diffrn_ambient_temperature 293
_refine_special_details
;
The SQUEEZE/PLATON program was used to model the disordered cation.

;
#These two values have been output from a single CSD field.
_refine_ls_R_factor_gt 0.0379
_refine_ls_wR_factor_gt 0.0379
_symmetry_cell_setting orthorhombic
_symmetry_space_group_name_H-M 'P 21 21 21'
_symmetry_Int_Tables_number 19
loop_
_symmetry_equiv_pos_site_id
_symmetry_equiv_pos_as_xyz
1 x,y,z
2 1/2-x,-y,1/2+z
3 -x,1/2+y,1/2-z
4 1/2+x,1/2-y,-z
_cell_length_a 14.488(3)
_cell_length_b 17.472(4)
_cell_length_c 28.032(6)
_cell_angle_alpha 90
_cell_angle_beta 90
_cell_angle_gamma 90
_cell_formula_units_Z 4
loop_
_atom_type_symbol
_atom_type_radius_bond
C 0.68
H 0.23
In 1.42
N 0.68
O 0.68
loop_
_atom_site_label
_atom_site_type_symbol
_atom_site_fract_x
_atom_site_fract_y
_atom_site_fract_z
In1 In 0.575248(9) 0.632977(9) 0.200364(5)
O1 O 0.03656(10) 0.37461(10) 0.64449(5)
O2 O 0.45804(10) 0.61212(8) 0.25310(5)
C1 C 0.42262(16) 0.48901(12) 0.28513(7)
C2 C 0.07650(17) 0.48008(13) 0.47847(7)
C3 C -0.02287(17) 0.57515(17) 0.32672(8)
O3 O -0.27468(10) 0.59575(10) 0.20582(6)
C4 C -0.17659(16) 0.62717(17) 0.32242(8)
H1 H -0.22670 0.64990 0.33760
O4 O 0.54387(11) 0.51520(9) 0.23029(6)
C5 C 0.01862(15) 0.43976(14) 0.56961(8)
N1 N 0.03823(13) 0.53218(13) 0.40177(7)
O5 O 0.36062(11) 0.23451(9) 0.33678(6)
O6 O -0.33699(11) 0.65531(10) 0.26668(6)
O7 O -0.09590(11) 0.43106(10) 0.63036(5)
C6 C 0.41135(15) 0.27905(13) 0.31339(8)
C7 C 0.47719(15) 0.54334(12) 0.25471(8)
C8 C -0.26834(15) 0.62243(14) 0.24767(8)
O8 O 0.47416(11) 0.25378(9) 0.28700(5)
C9 C -0.01424(16) 0.41462(13) 0.61708(8)
C10 C 0.20846(15) 0.49470(14) 0.36230(8)
C11 C -0.09770(16) 0.61041(17) 0.34838(9)
H2 H -0.09490 0.62290 0.38060
C12 C 0.34591(15) 0.51612(14) 0.30969(7)
H3 H 0.32890 0.56720 0.30650
C13 C 0.32007(15) 0.39196(13) 0.34219(8)
H4 H 0.28700 0.35980 0.36240
C14 C 0.14066(16) 0.53094(14) 0.33455(9)
H5 H 0.15210 0.54380 0.30290
C15 C 0.18933(15) 0.47707(14) 0.40936(8)
H6 H 0.23280 0.45220 0.42820
C16 C 0.13379(17) 0.43782(17) 0.50800(9)
H7 H 0.19210 0.42350 0.49740
C17 C -0.18183(17) 0.61063(16) 0.27432(9)
C18 C 0.05515(15) 0.54723(14) 0.35578(8)
C19 C 0.29481(15) 0.46865(13) 0.33859(8)
C20 C 0.10352(16) 0.49746(15) 0.42789(8)
C21 C 0.10429(17) 0.41670(18) 0.55359(9)
H8 H 0.14220 0.38720 0.57310
C22 C 0.44543(14) 0.41240(13) 0.28792(7)
H9 H 0.49570 0.39400 0.27080
C23 C -0.00603(18) 0.50481(18) 0.49562(9)
H10 H -0.04350 0.53530 0.47650
C24 C 0.39409(14) 0.36222(14) 0.31604(7)
C25 C -0.03524(19) 0.48528(16) 0.54122(9)
H11 H -0.09160 0.50320 0.55250
C26 C -0.10745(19) 0.57595(19) 0.25312(9)
H12 H -0.11020 0.56290 0.22100
C27 C -0.02781(18) 0.5601(2) 0.27914(9)
H13 H 0.02290 0.53880 0.26370
In1* In -0.424752(9) 0.632977(9) 0.200364(5)
In1A In -0.075248(9) 0.367023(9) 0.700364(5)
In1B In 0.424752(9) 0.132977(9) 0.299636(5)
O1A O 0.46344(10) 0.62539(10) 0.14449(5)
O3* O 0.72532(10) 0.59575(10) 0.20582(6)
O5B O 0.63938(11) 0.73451(9) 0.16322(6)
O6* O 0.66301(11) 0.65531(10) 0.26668(6)
O7A O 0.59590(11) 0.56894(10) 0.13036(5)
O8B O 0.52584(11) 0.75378(9) 0.21300(5)
#END
