
#######################################################################
#
#                 Cambridge Crystallographic Data Centre
#                                CCDC
#
#######################################################################
#
# If this CIF has been generated from an entry in the Cambridge
# Structural Database, then it will include bibliographic, chemical,
# crystal, experimental, refinement or atomic coordinate data resulting
# from the CCDC's data processing and validation procedures.
#
#######################################################################

data_CSD_CIF_ATUXUK
_audit_creation_date 2016-08-25
_audit_creation_method CSD-ConQuest-V1
_database_code_CSD ATUXUK
_database_code_depnum_ccdc_archive 'CCDC 1481696'
_chemical_formula_sum 'C32 H34 K2 O29 Tb2'
_chemical_formula_moiety
;
(C32 H16 O20 Tb2 2-)n,2n(K1 1+),9n(H2 O1)
;
_journal_coden_Cambridge 1147
_journal_volume 16
_journal_year 2016
_journal_page_first 5429
_journal_name_full 'Cryst.Growth Des. '
loop_
_publ_author_name
"Huijie Zhang"
"Ruiqing Fan"
"Wei Chen"
"Jizhuang Fan"
"Yuwei Dong"
"Yang Song"
"Xi Du"
"Ping Wang"
"Yulin Yang"
_chemical_name_systematic
;
catena-(di-potassium 
bis(\m-4-(3,5-dicarboxylatophenoxy)phthalato)-diaqua-di-terbium nonahydrate)
;
_cell_volume   2077.369
_exptl_crystal_colour 'colorless'
_exptl_crystal_description 'block'
_diffrn_ambient_temperature 293
#These two values have been output from a single CSD field.
_refine_ls_R_factor_gt 0.0281
_refine_ls_wR_factor_gt 0.0281
_symmetry_cell_setting triclinic
_symmetry_space_group_name_H-M 'P -1'
_symmetry_Int_Tables_number 2
loop_
_symmetry_equiv_pos_site_id
_symmetry_equiv_pos_as_xyz
1 x,y,z
2 -x,-y,-z
_cell_length_a 11.0252(9)
_cell_length_b 12.6045(10)
_cell_length_c 16.0080(13)
_cell_angle_alpha 100.237(1)
_cell_angle_beta 106.070(1)
_cell_angle_gamma 95.725(1)
_cell_formula_units_Z 2
loop_
_atom_type_symbol
_atom_type_radius_bond
C 0.68
H 0.23
K 2.03
O 0.68
Tb 1.94
loop_
_atom_site_label
_atom_site_type_symbol
_atom_site_fract_x
_atom_site_fract_y
_atom_site_fract_z
Tb1 Tb 1.05916(2) 0.24040(2) 0.62800(2)
Tb2 Tb 0.50248(2) 0.25910(2) 0.88275(2)
O1 O 0.4120(3) 0.3803(3) 0.4000(2)
O2 O 0.5965(3) 0.5766(3) 0.1704(2)
O3 O 0.3869(3) 0.5643(3) 0.1230(2)
O4 O 0.4930(3) 0.2028(3) 0.0238(2)
O5 O 0.4869(3) 0.3756(3) 0.0188(2)
O6 O 0.8781(3) 0.3207(3) 0.6707(2)
O7 O 0.8489(3) 0.2556(3) 0.5292(2)
O8 O 0.2690(3) 0.2238(3) 0.6278(2)
O9 O 0.4470(3) 0.2173(3) 0.7309(2)
O10 O 1.1378(3) 0.1155(3) 1.1109(2)
O11 O 1.1059(3) -0.0834(3) 1.3707(2)
O12 O 0.9039(3) -0.0620(3) 1.3292(2)
O13 O 1.0380(3) 0.1225(3) 1.4846(2)
O14 O 1.0788(3) 0.2994(3) 1.4919(2)
O15 O 1.1270(3) 0.2757(3) 0.7813(2)
O16 O 1.2878(3) 0.2111(3) 0.8653(2)
O17 O 0.7007(3) 0.2243(3) 0.8452(2)
O18 O 0.7219(3) 0.2775(3) 0.9872(2)
O19 O 1.1644(5) 0.4286(3) 0.6800(3)
O20 O 0.4933(4) 0.0636(3) 0.8513(3)
C1 C 0.4407(4) 0.3567(4) 0.3203(3)
C2 C 0.4532(5) 0.4431(4) 0.2802(3)
H1 H 0.45070 0.51330 0.30930
C3 C 0.4698(4) 0.4256(4) 0.1953(3)
C4 C 0.4738(4) 0.3209(4) 0.1524(3)
C5 C 0.4619(5) 0.2351(4) 0.1954(3)
H2 H 0.46460 0.16470 0.16700
C6 C 0.4463(5) 0.2518(4) 0.2787(3)
H3 H 0.43960 0.19380 0.30670
C7 C 0.4867(5) 0.5269(4) 0.1593(3)
C8 C 0.4860(4) 0.2977(4) 0.0602(3)
C9 C 0.4766(4) 0.3381(4) 0.4715(3)
C10 C 0.6048(4) 0.3328(4) 0.4918(3)
H4 H 0.65050 0.34980 0.45370
C11 C 0.6658(4) 0.3016(4) 0.5703(3)
C12 C 0.5964(4) 0.2734(4) 0.6256(3)
H5 H 0.63760 0.25470 0.67880
C13 C 0.4654(4) 0.2732(4) 0.6012(3)
C14 C 0.4049(4) 0.3067(4) 0.5239(3)
H6 H 0.31730 0.30800 0.50780
C15 C 0.8062(4) 0.2932(4) 0.5917(3)
C16 C 0.3871(4) 0.2361(4) 0.6576(3)
C17 C 1.1082(4) 0.1413(4) 1.1899(3)
C18 C 1.0754(5) 0.0541(4) 1.2247(3)
H7 H 1.06530 -0.01690 1.19240
C19 C 1.0574(4) 0.0729(4) 1.3092(3)
C20 C 1.0718(4) 0.1790(4) 1.3569(3)
C21 C 1.1032(5) 0.2659(4) 1.3188(3)
H8 H 1.11210 0.33720 1.35020
C22 C 1.1211(5) 0.2475(4) 1.2356(3)
H9 H 1.14150 0.30570 1.21090
C23 C 1.0206(5) -0.0292(4) 1.3403(3)
C24 C 1.0610(4) 0.2033(4) 1.4495(3)
C25 C 1.0812(4) 0.1618(4) 1.0401(3)
C26 C 1.1522(4) 0.1762(4) 0.9834(3)
H10 H 1.23520 0.16050 0.99580
C27 C 1.0978(4) 0.2148(4) 0.9065(3)
C28 C 0.9727(4) 0.2357(4) 0.8877(3)
H11 H 0.93530 0.25880 0.83590
C29 C 0.9037(4) 0.2219(4) 0.9466(3)
C30 C 0.9581(5) 0.1853(4) 1.0240(3)
H12 H 0.91230 0.17680 1.06390
C31 C 1.1770(4) 0.2345(4) 0.8462(3)
C32 C 0.7679(4) 0.2431(4) 0.9253(3)
K1 K 0.73197(13) 0.50936(11) 0.05690(9)
K2 K 0.78170(12) 0.02368(12) 0.44521(9)
O21 O 0.9210(6) 0.4452(5) 0.1844(4)
O22 O 0.942(3) 0.508(2) 0.000(3)
O23 O 0.7244(5) 0.0659(5) 0.2587(4)
O24 O 0.5383(5) 0.0362(6) 0.4324(5)
O25 O 0.1641(5) 0.5317(5) 0.1879(4)
O26 O 0.3296(6) 0.9585(5) 0.2928(5)
O27 O 0.7772(6) 0.2429(6) 0.1773(4)
O28 O 0.8448(12) 0.3999(11) 0.3974(10)
O29 O 0.6394(15) 0.0243(13) 0.0214(15)
Tb1* Tb 0.05916(2) 0.24040(2) 0.62800(2)
Tb1** Tb 1.05916(2) 0.24040(2) 1.62800(2)
Tb1A Tb 0.94084(2) -0.24040(2) 1.37200(2)
Tb2* Tb 0.50248(2) 0.25910(2) -0.11725(2)
Tb2** Tb 1.50248(2) 0.25910(2) 0.88275(2)
Tb2A Tb 0.49752(2) 0.74090(2) 0.11725(2)
O2A O 0.4035(3) 0.4234(3) 0.8296(2)
O3A O 0.6131(3) 0.4357(3) 0.8770(2)
O4* O 0.4930(3) 0.2028(3) 1.0238(2)
O5* O 0.4869(3) 0.3756(3) 1.0188(2)
O8* O 1.2690(3) 0.2238(3) 0.6278(2)
O11A O 0.8941(3) 0.0834(3) 0.6293(2)
O12A O 1.0961(3) 0.0620(3) 0.6708(2)
O13* O 1.0380(3) 0.1225(3) 0.4846(2)
O14* O 1.0788(3) 0.2994(3) 0.4919(2)
O16* O 0.2878(3) 0.2111(3) 0.8653(2)
#END
