
#######################################################################
#
#                 Cambridge Crystallographic Data Centre
#                                CCDC
#
#######################################################################
#
# If this CIF has been generated from an entry in the Cambridge
# Structural Database, then it will include bibliographic, chemical,
# crystal, experimental, refinement or atomic coordinate data resulting
# from the CCDC's data processing and validation procedures.
#
#######################################################################

data_CSD_CIF_ATUXOE
_audit_creation_date 2016-08-25
_audit_creation_method CSD-ConQuest-V1
_database_code_CSD ATUXOE
_database_code_depnum_ccdc_archive 'CCDC 1481695'
_chemical_formula_sum 'C32 H34 Eu2 K2 O29'
_chemical_formula_moiety
;
(C32 H16 Eu2 O20 2-)n,2n(K1 1+),9n(H2 O1)
;
_journal_coden_Cambridge 1147
_journal_volume 16
_journal_year 2016
_journal_page_first 5429
_journal_name_full 'Cryst.Growth Des. '
loop_
_publ_author_name
"Huijie Zhang"
"Ruiqing Fan"
"Wei Chen"
"Jizhuang Fan"
"Yuwei Dong"
"Yang Song"
"Xi Du"
"Ping Wang"
"Yulin Yang"
_chemical_name_systematic
;
catena-(di-potassium 
bis(\m-4-(3,5-dicarboxylatophenoxy)phthalato)-diaqua-di-europium nonahydrate)
;
_cell_volume   2100.329
_exptl_crystal_colour 'colorless'
_exptl_crystal_description 'block'
_diffrn_ambient_temperature 295
#These two values have been output from a single CSD field.
_refine_ls_R_factor_gt 0.0686
_refine_ls_wR_factor_gt 0.0686
_symmetry_cell_setting triclinic
_symmetry_space_group_name_H-M 'P -1'
_symmetry_Int_Tables_number 2
loop_
_symmetry_equiv_pos_site_id
_symmetry_equiv_pos_as_xyz
1 x,y,z
2 -x,-y,-z
_cell_length_a 11.072(3)
_cell_length_b 12.676(4)
_cell_length_c 16.022(5)
_cell_angle_alpha 100.291(10)
_cell_angle_beta 105.884(9)
_cell_angle_gamma 95.927(9)
_cell_formula_units_Z 2
loop_
_atom_type_symbol
_atom_type_radius_bond
C 0.68
H 0.23
Eu 1.98
K 2.03
O 0.68
loop_
_atom_site_label
_atom_site_type_symbol
_atom_site_fract_x
_atom_site_fract_y
_atom_site_fract_z
Eu1 Eu 1.00183(5) -0.24126(5) 1.38251(4)
Eu2 Eu 0.44208(5) 0.25877(5) 0.87204(4)
O1 O 1.0889(8) 0.1205(7) 1.1003(6)
O2 O 0.9045(8) -0.0755(7) 1.3296(6)
O3 O 1.1123(9) -0.0633(7) 1.3762(6)
O4 O 1.0069(8) 0.2977(7) 1.4746(6)
O5 O 1.0119(9) 0.1233(7) 1.4795(6)
O6 O 0.6253(8) 0.1814(8) 0.8295(6)
O7 O 0.6531(9) 0.2438(9) 0.9715(6)
O8 O 1.2307(7) 0.2768(8) 0.8733(6)
O9 O 1.0550(8) 0.2835(8) 0.7701(6)
O10 O 1.6357(8) -0.3844(7) 1.6099(6)
O11 O 1.4038(8) -0.5624(7) 1.8285(6)
O12 O 1.6039(8) -0.5824(7) 1.8701(7)
O13 O 1.5361(8) -0.3764(7) 1.9827(6)
O14 O 1.5774(8) -0.2014(7) 1.9911(5)
O15 O 1.2208(8) -0.2232(8) 1.4877(6)
O16 O 1.2022(8) -0.2754(8) 1.3462(6)
O17 O 1.7856(8) -0.2880(8) 1.3644(6)
O18 O 1.6272(7) -0.2233(7) 1.2837(5)
O19 O 0.9920(11) -0.4367(7) 1.3521(7)
O20 O 0.3338(12) 0.0698(8) 0.8198(7)
C1 C 1.0606(11) 0.1411(11) 1.1795(8)
C2 C 1.0464(12) 0.0562(11) 1.2198(8)
H1 H 1.04660 -0.01420 1.19080
C3 C 1.0318(11) 0.0757(10) 1.3043(9)
C4 C 1.0284(11) 0.1775(10) 1.3471(8)
C5 C 1.0365(12) 0.2636(10) 1.3044(9)
H2 H 1.02930 0.33270 1.33220
C6 C 1.0553(12) 0.2475(10) 1.2194(9)
H3 H 1.06380 0.30490 1.19140
C7 C 1.0166(12) -0.025(1) 1.3409(8)
C8 C 1.0133(11) 0.2017(11) 1.4384(8)
C9 C 1.0262(11) 0.1621(10) 1.0286(8)
C10 C 0.8973(11) 0.1668(9) 1.0081(8)
H4 H 0.85220 0.14980 1.04640
C11 C 0.8354(11) 0.1972(10) 0.9301(9)
C12 C 0.9047(11) 0.2274(10) 0.8744(9)
H5 H 0.86410 0.24710 0.82180
C13 C 1.0348(12) 0.2273(11) 0.8992(8)
C14 C 1.0958(12) 0.1941(10) 0.9773(8)
H6 H 1.18320 0.19410 0.99350
C15 C 0.6954(11) 0.2054(10) 0.9086(9)
C16 C 1.1127(11) 0.2639(9) 0.8429(8)
C17 C 1.6083(11) -0.3600(11) 1.6906(8)
C18 C 1.5745(11) -0.4464(10) 1.7246(8)
H7 H 1.56420 -0.51700 1.69210
C19 C 1.5558(11) -0.4276(10) 1.8079(9)
C20 C 1.5698(11) -0.3205(10) 1.8566(8)
C21 C 1.6037(12) -0.2355(10) 1.8197(9)
H8 H 1.61580 -0.16480 1.85230
C22 C 1.6205(12) -0.2516(11) 1.7357(8)
H9 H 1.63880 -0.19360 1.71050
C23 C 1.5243(13) -0.5276(10) 1.8397(10)
C24 C 1.5603(12) -0.2996(11) 1.9472(9)
C25 C 1.5799(11) -0.3391(10) 1.5409(8)
C26 C 1.4576(11) -0.3151(11) 1.5233(8)
H10 H 1.41190 -0.32270 1.56330
C27 C 1.4025(10) -0.2799(10) 1.4465(9)
C28 C 1.4723(12) -0.2637(10) 1.3888(8)
H11 H 1.43590 -0.23910 1.33780
C29 C 1.5963(10) -0.2840(9) 1.4072(7)
C30 C 1.6507(11) -0.3236(9) 1.4822(8)
H12 H 1.73300 -0.33970 1.49330
C31 C 1.2681(12) -0.2581(12) 1.4278(10)
C32 C 1.6756(10) -0.2620(9) 1.3475(8)
K1 K 1.2316(3) 0.0090(3) 1.5578(2)
K2 K 0.7177(3) 0.4780(3) 1.0551(2)
O21 O 1.444(4) -0.002(4) 1.496(4)
O22 O 0.9620(11) 0.4634(12) 1.0679(10)
O23 O 0.7746(12) 0.4356(10) 1.2431(11)
O24 O 1.4200(14) -0.0586(13) 1.6832(10)
O25 O 0.8288(12) 0.4583(11) 0.7922(11)
O26 O 1.3331(13) -0.0302(11) 1.311(1)
O27 O 0.330(3) 0.879(2) -0.121(2)
O28 O 1.2776(14) 0.7419(14) 0.6784(11)
O29 O 1.139(3) 0.519(3) 0.512(3)
Eu1* Eu 2.00183(5) -0.24126(5) 1.38251(4)
Eu1A Eu 0.99817(5) 0.24126(5) 0.61749(4)
Eu1A* Eu 0.99817(5) 0.24126(5) 1.61749(4)
Eu2* Eu 1.44208(5) -0.74123(5) 1.87204(4)
Eu2** Eu 1.44208(5) 0.25877(5) 0.87204(4)
Eu2A Eu 1.55792(5) -0.25877(5) 1.12796(4)
Eu2A* Eu 1.55792(5) -0.25877(5) 2.12796(4)
O4A O 0.9931(8) -0.2977(7) 1.5254(6)
O5A O 0.9881(9) -0.1233(7) 1.5205(6)
O8* O 0.2307(7) 0.2768(8) 0.8733(6)
O9A O 0.9450(8) -0.2835(8) 1.2299(6)
O11* O 0.4038(8) 0.4376(7) 0.8285(6)
O12* O 0.6039(8) 0.4176(7) 0.8701(7)
O13A O 0.4639(8) 0.3764(7) 1.0173(6)
O14A O 0.4226(8) 0.2014(7) 1.0089(5)
O17* O 0.7856(8) -0.2880(8) 1.3644(6)
O18A O 0.3728(7) 0.2233(7) 0.7163(5)
#END
