
#######################################################################
#
#                 Cambridge Crystallographic Data Centre
#                                CCDC
#
#######################################################################
#
# If this CIF has been generated from an entry in the Cambridge
# Structural Database, then it will include bibliographic, chemical,
# crystal, experimental, refinement or atomic coordinate data resulting
# from the CCDC's data processing and validation procedures.
#
#######################################################################

data_CSD_CIF_ATUYAR
_audit_creation_date 2016-08-25
_audit_creation_method CSD-ConQuest-V1
_database_code_CSD ATUYAR
_database_code_depnum_ccdc_archive 'CCDC 1481697'
_chemical_formula_sum 'C32 H32 Gd2 K2 O28'
_chemical_formula_moiety
;
(C32 H16 Gd2 O20 2-)n,2n(K1 1+),8n(H2 O1)
;
_journal_coden_Cambridge 1147
_journal_volume 16
_journal_year 2016
_journal_page_first 5429
_journal_name_full 'Cryst.Growth Des. '
loop_
_publ_author_name
"Huijie Zhang"
"Ruiqing Fan"
"Wei Chen"
"Jizhuang Fan"
"Yuwei Dong"
"Yang Song"
"Xi Du"
"Ping Wang"
"Yulin Yang"
_chemical_name_systematic
;
catena-(di-potassium 
bis(\m-4-(3,5-dicarboxylatophenoxy)phthalato)-diaqua-di-gadolinium 
octahydrate)
;
_cell_volume   2044.508
_exptl_crystal_colour 'colorless'
_exptl_crystal_description 'block'
_diffrn_ambient_temperature 293
#These two values have been output from a single CSD field.
_refine_ls_R_factor_gt 0.0581
_refine_ls_wR_factor_gt 0.0581
_symmetry_cell_setting triclinic
_symmetry_space_group_name_H-M 'P -1'
_symmetry_Int_Tables_number 2
loop_
_symmetry_equiv_pos_site_id
_symmetry_equiv_pos_as_xyz
1 x,y,z
2 -x,-y,-z
_cell_length_a 11.003(12)
_cell_length_b 12.486(14)
_cell_length_c 15.925(17)
_cell_angle_alpha 100.091(12)
_cell_angle_beta 106.028(13)
_cell_angle_gamma 95.762(13)
_cell_formula_units_Z 2
loop_
_atom_type_symbol
_atom_type_radius_bond
C 0.68
H 0.23
Gd 1.96
K 2.03
O 0.68
loop_
_atom_site_label
_atom_site_type_symbol
_atom_site_fract_x
_atom_site_fract_y
_atom_site_fract_z
Gd1 Gd 1.05985(4) 0.24120(4) 0.62837(2)
Gd2 Gd 1.49636(4) -0.25858(4) 1.11713(2)
O1 O 0.8615(6) -0.1138(6) 0.8884(4)
O2 O 0.8937(7) 0.0835(6) 0.6284(4)
O3 O 1.0956(6) 0.0613(5) 0.6717(4)
O4 O 0.9622(6) -0.1223(5) 0.5154(4)
O5 O 0.9196(6) -0.2997(5) 0.5082(4)
O6 O 1.2980(7) -0.2234(7) 1.1542(4)
O7 O 1.2765(6) -0.2769(6) 1.0123(4)
O8 O 0.7119(6) -0.2090(6) 1.1349(4)
O9 O 0.8703(6) -0.2787(5) 1.2174(4)
O10 O 0.4112(6) 0.3788(6) 0.3994(4)
O11 O 0.5949(7) 0.5764(6) 0.1703(4)
O12 O 0.3858(6) 0.5642(6) 0.1233(4)
O13 O 0.4881(7) 0.3754(5) 0.0195(4)
O14 O 0.4951(7) 0.2029(6) 0.0246(4)
O15 O 0.8780(6) 0.3212(6) 0.6700(4)
O16 O 0.8490(6) 0.2567(7) 0.5290(4)
O17 O 0.4470(6) 0.2142(6) 0.7298(4)
O18 O 0.2707(6) 0.2232(6) 0.6270(4)
O19 O 1.1696(9) 0.4298(6) 0.6813(5)
O20 O 1.5057(9) -0.0608(7) 1.1500(5)
C1 C 0.8921(8) -0.1380(9) 0.8103(5)
C2 C 0.9228(10) -0.0551(9) 0.7759(6)
H1 H 0.93140 0.01670 0.80760
C3 C 0.9433(10) -0.0743(9) 0.6902(6)
C4 C 0.9284(8) -0.1795(8) 0.6432(5)
C5 C 0.8952(10) -0.2663(9) 0.6802(6)
H2 H 0.88460 -0.33830 0.64840
C6 C 0.8776(10) -0.2473(9) 0.7638(6)
H3 H 0.85670 -0.30570 0.78890
C7 C 0.9782(10) 0.0294(8) 0.6593(5)
C8 C 0.9392(8) -0.2016(8) 0.5512(5)
C9 C 0.9185(9) -0.1597(8) 0.9594(5)
C10 C 1.0414(9) -0.1841(9) 0.9751(6)
H4 H 1.08810 -0.17490 0.93560
C11 C 1.0933(8) -0.2230(8) 1.0521(6)
C12 C 1.0255(9) -0.2357(8) 1.1121(5)
H5 H 1.06310 -0.25880 1.16440
C13 C 0.9005(9) -0.2136(8) 1.0930(5)
C14 C 0.8471(8) -0.1747(8) 1.0165(5)
H6 H 0.76390 -0.15890 1.00400
C15 C 1.2299(9) -0.2419(9) 1.0740(6)
C16 C 0.8214(9) -0.2345(8) 1.1530(5)
C17 C 0.4412(9) 0.3577(8) 0.3210(5)
C18 C 0.4528(9) 0.4440(8) 0.2804(5)
H7 H 0.45110 0.51520 0.30900
C19 C 0.4676(10) 0.4232(8) 0.1945(6)
C20 C 0.4754(9) 0.3214(8) 0.1534(5)
C21 C 0.4611(10) 0.2331(9) 0.1942(6)
H8 H 0.46200 0.16220 0.16450
C22 C 0.4455(11) 0.2499(9) 0.2787(6)
H9 H 0.43820 0.19140 0.30680
C23 C 0.4856(9) 0.5263(8) 0.1596(5)
C24 C 0.4889(9) 0.2988(8) 0.0615(6)
C25 C 0.4768(9) 0.3377(8) 0.4707(6)
C26 C 0.6066(9) 0.3356(8) 0.4925(6)
H10 H 0.65380 0.35720 0.45630
C27 C 0.6650(9) 0.3008(9) 0.5692(6)
C28 C 0.5962(8) 0.2723(7) 0.6244(5)
H11 H 0.63730 0.25220 0.67740
C29 C 0.4662(9) 0.2736(8) 0.6008(5)
C30 C 0.4066(8) 0.3073(7) 0.5246(5)
H12 H 0.31910 0.30970 0.50920
C31 C 0.8050(9) 0.2948(8) 0.5911(6)
C32 C 0.3860(9) 0.2341(7) 0.6559(5)
K1 K 0.7817(2) 0.0242(2) 0.44486(15)
K2 K 1.2688(3) -0.5096(2) 0.94218(16)
O21 O 0.5376(11) 0.0336(12) 0.4352(8)
O22 O 0.726(1) 0.0673(9) 0.2589(7)
O23 O 1.0767(12) -0.4439(9) 0.8152(6)
O24 O 1.076(5) -0.506(4) 1.013(3)
O25 O 0.1618(11) 0.5288(10) 0.1900(7)
O26 O 0.3300(12) 0.9597(11) 0.2921(8)
O27 O 0.7760(13) 0.2422(13) 0.1765(8)
O28 O 0.833(2) 0.3866(17) 0.3833(13)
Gd1* Gd 0.05985(4) 0.24120(4) 0.62837(2)
Gd1A Gd 0.94015(4) -0.24120(4) 0.37163(2)
Gd1A* Gd 0.94015(4) -0.24120(4) 1.37163(2)
Gd2* Gd 0.49636(4) -0.25858(4) 1.11713(2)
Gd2** Gd 0.49636(4) 0.74142(4) 0.11713(2)
Gd2A Gd 0.50364(4) 0.25858(4) -0.11713(2)
Gd2A* Gd 0.50364(4) 0.25858(4) 0.88287(2)
O4A O 1.0378(6) 0.1223(5) 0.4846(4)
O5A O 1.0804(6) 0.2997(5) 0.4918(4)
O8* O 1.7119(6) -0.2090(6) 1.1349(4)
O9A O 1.1297(6) 0.2787(5) 0.7826(4)
O11* O 1.5949(7) -0.4236(6) 1.1703(4)
O12* O 1.3858(6) -0.4358(6) 1.1233(4)
O13A O 1.5119(7) -0.3754(5) 0.9805(4)
O14A O 1.5049(7) -0.2029(6) 0.9754(4)
O17A O 1.5530(6) -0.2142(6) 1.2702(4)
O18* O 1.2707(6) 0.2232(6) 0.6270(4)
#END
