
#######################################################################
#
#                 Cambridge Crystallographic Data Centre
#                                CCDC
#
#######################################################################
#
# If this CIF has been generated from an entry in the Cambridge
# Structural Database, then it will include bibliographic, chemical,
# crystal, experimental, refinement or atomic coordinate data resulting
# from the CCDC's data processing and validation procedures.
#
#######################################################################

data_CSD_CIF_AVALEO
_audit_creation_date 2004-07-21
_audit_creation_method CSD-ConQuest-V1
_database_code_CSD AVALEO
_database_code_depnum_ccdc_archive 'CCDC 233425'
_chemical_formula_sum 'C22 H48 Gd1 N4 Na1 O14'
_chemical_formula_moiety
;
(C22 H44 Gd1 N4 O12 1-)n,n(Na1 1+),2n(H2 O1)
;
_journal_coden_Cambridge 4
_journal_volume 126
_journal_year 2004
_journal_page_first 2280
_journal_name_full 'J.Am.Chem.Soc. '
loop_
_publ_author_name
"Weisheng Liu"
"Tianquan Jiao"
"Yizhi Li"
"Quanzhong Liu"
"Minyu Tan"
"Hong Wang"
"Liufeng Wang"
_chemical_name_systematic
;
catena-(Sodium 
(\m~4~-1,4,8,11-tetra-azacyclotetradecane-1,4,8,11-tetrapropionato)-tetra-aqua
-gadolinium(iii) dihydrate)
;
_cell_volume   3085.169
_exptl_crystal_density_diffrn 1.664
_diffrn_ambient_temperature 293
#These two values have been output from a single CSD field.
_refine_ls_R_factor_gt 0.0187
_refine_ls_wR_factor_gt 0.0187
_symmetry_cell_setting monoclinic
_symmetry_space_group_name_H-M 'C 2/c'
_symmetry_Int_Tables_number 15
loop_
_symmetry_equiv_pos_site_id
_symmetry_equiv_pos_as_xyz
1 x,y,z
2 1/2+x,1/2+y,z
3 x,-y,1/2+z
4 1/2+x,1/2-y,1/2+z
5 -x,-y,-z
6 -1/2-x,-1/2-y,-z
7 -x,y,-1/2-z
8 -1/2-x,-1/2+y,-1/2-z
_cell_length_a 15.458(3)
_cell_length_b 14.220(3)
_cell_length_c 14.245(3)
_cell_angle_alpha 90
_cell_angle_beta 99.84(1)
_cell_angle_gamma 90
_cell_formula_units_Z 4
loop_
_atom_type_symbol
_atom_type_radius_bond
C 0.68
H 0.13
Gd 1.54
N 0.68
Na 0.97
O 0.68
loop_
_atom_site_label
_atom_site_type_symbol
_atom_site_fract_x
_atom_site_fract_y
_atom_site_fract_z
Na1 Na 0.50000 0.5520(3) 0.75000
Gd1 Gd 0.50000 0.23608(2) 0.75000
O1 O 0.62946(16) 0.31181(16) 0.82349(18)
O2 O 0.75079(18) 0.22824(16) 0.86431(19)
O3 O 0.99836(17) 0.6713(2) 0.90214(18)
O4 O 0.88622(18) 0.5830(2) 0.91335(18)
N1 N 0.72903(17) 0.55350(16) 0.97270(16)
N2 N 0.84681(15) 0.65152(16) 1.11335(16)
C1 C 0.7078(2) 0.3015(2) 0.8648(2)
C2 C 0.7524(2) 0.3856(2) 0.9180(2)
H1 H 0.80510 0.40120 0.89270
H2 H 0.76970 0.36960 0.98470
C3 C 0.6930(2) 0.4709(2) 0.9093(2)
H3 H 0.63710 0.45210 0.92570
H4 H 0.68220 0.49150 0.84340
C4 C 0.7323(2) 0.5278(2) 1.0764(2)
H5 H 0.67320 0.51520 1.08730
H6 H 0.76630 0.47060 1.09010
C5 C 0.7726(2) 0.6043(2) 1.1432(2)
H7 H 0.72760 0.65020 1.14960
H8 H 0.79230 0.57680 1.20550
C6 C 0.8733(2) 0.7334(2) 1.1741(2)
H9 H 0.93300 0.75020 1.16870
H10 H 0.87250 0.71680 1.24000
C7 C 0.8146(2) 0.8192(2) 1.1466(2)
H11 H 0.75370 0.80010 1.14170
H12 H 0.82660 0.86640 1.19620
C8 C 0.6718(2) 0.6406(2) 0.9436(2)
H13 H 0.68500 0.68780 0.99310
H14 H 0.61050 0.62360 0.93880
C9 C 0.9224(2) 0.5876(2) 1.1137(2)
H15 H 0.95200 0.57860 1.17880
H16 H 0.90100 0.52690 1.08900
C10 C 0.9878(2) 0.6232(2) 1.0558(2)
H17 H 1.03960 0.58370 1.06710
H18 H 1.00550 0.68620 1.07740
C11 C 0.9530(2) 0.6255(3) 0.9489(2)
O5 O 0.9252(3) 0.1573(3) 0.9416(3)
H19 H 0.91320 0.22750 0.93210
H20 H 0.86520 0.12880 0.94440
O6 O 0.3830(2) 0.1195(3) 0.7314(2)
H21 H 0.32000 0.13580 0.70590
H22 H 0.37130 0.10700 0.81230
O7 O 0.4594(2) 0.3591(2) 0.8582(2)
H23 H 0.52560 0.36080 0.88400
H24 H 0.43220 0.34470 0.80310
C8E C 0.8282(2) 0.8594(2) 1.0564(2)
N1E N 0.77097(17) 0.94650(16) 1.02730(16)
C3E C 0.8070(2) 1.0291(2) 1.0907(2)
C2E C 0.7476(2) 1.1144(2) 1.0820(2)
C1E C 0.7922(2) 1.1985(2) 1.1352(2)
O1E O 0.87054(16) 1.18819(16) 1.17651(18)
O2E O 0.74921(18) 1.27176(16) 1.13569(19)
H1E H 0.69490 1.09880 1.10730
H2E H 0.73030 1.13040 1.01530
H3E H 0.86290 1.04790 1.07430
H4E H 0.81780 1.00850 1.15660
C4E C 0.7677(2) 0.9722(2) 0.9236(2)
H5E H 0.82680 0.98480 0.91270
H6E H 0.73370 1.02940 0.90990
C5E C 0.7274(2) 0.8957(2) 0.8568(2)
N2E N 0.65319(15) 0.84848(16) 0.88665(16)
C6E C 0.6267(2) 0.7666(2) 0.8259(2)
H9E H 0.56700 0.74980 0.83130
H10E H 0.62750 0.78320 0.76000
C7E C 0.6854(2) 0.6808(2) 0.8534(2)
H11E H 0.74630 0.69990 0.85830
H12E H 0.67340 0.63360 0.80380
C9E C 0.5776(2) 0.9124(2) 0.8863(2)
H15E H 0.54800 0.92140 0.82120
H16E H 0.59900 0.97310 0.91100
C10E C 0.5122(2) 0.8768(2) 0.9442(2)
H17E H 0.46040 0.91630 0.93290
H18E H 0.49450 0.81380 0.92260
C11E C 0.5470(2) 0.8745(3) 1.0511(2)
O3E O 0.50164(17) 0.8287(2) 1.09786(18)
O4E O 0.61378(18) 0.9170(2) 1.08665(18)
H7E H 0.77240 0.84980 0.85040
H8E H 0.70770 0.92320 0.79450
H13E H 0.81500 0.81220 1.00690
H14E H 0.88950 0.87640 1.06120
O6F O 0.6170(2) 0.1195(3) 0.7686(2)
H21F H 0.68000 0.13580 0.79410
H22F H 0.62870 0.10700 0.68770
O7F O 0.5406(2) 0.3591(2) 0.6418(2)
H23F H 0.47440 0.36080 0.61600
H24F H 0.56780 0.34470 0.69690
O1F O 0.37054(16) 0.31181(16) 0.67651(18)
O3A O 0.49836(17) 0.1713(2) 0.90214(18)
O3G O 0.50164(17) 0.1713(2) 0.59786(18)
Gd1A Gd 1.00000 0.73608(2) 0.75000
Gd1C Gd 1.00000 1.26392(2) 1.25000
Gd1B Gd 0.50000 0.76392(2) 1.25000
#END
