
#######################################################################
#
#                 Cambridge Crystallographic Data Centre
#                                CCDC
#
#######################################################################
#
# If this CIF has been generated from an entry in the Cambridge
# Structural Database, then it will include bibliographic, chemical,
# crystal, experimental, refinement or atomic coordinate data resulting
# from the CCDC's data processing and validation procedures.
#
#######################################################################

data_CSD_CIF_AVATAT
_audit_creation_date 2011-08-29
_audit_creation_method CSD-ConQuest-V1
_database_code_CSD AVATAT
_database_code_depnum_ccdc_archive 'CCDC 735493'
_chemical_formula_sum 'C24 H42 Co3 Dy2 O39'
_chemical_formula_moiety
;
(C12 H12 Co1 Dy1 O15 1-)2n,n(H12 Co1 O6 2+),3n(H2 O1)
;
_journal_coden_Cambridge 1295
_journal_volume 14
_journal_year 2011
_journal_page_first 522
_journal_name_full 'Inorg.Chem.Commun. '
loop_
_publ_author_name
"Jun-Xia Li"
"Zhong-Xiang Du"
"Bao-Lin Zhu"
"Hui-Qin An"
"Jian-Xun Dong"
"Xiao-Jing Hu"
"Wei-Ping Huang"
_chemical_name_systematic
;
catena-(bis(tris(\m~3~-2,2'-Oxydiacetato)-dysprosium-cobalt) hexaaqua-cobalt 
trihydrate)
;
_cell_volume  16802.788
_exptl_crystal_colour 'pink'
_exptl_crystal_density_diffrn 2.293
_exptl_crystal_description 'block'
_diffrn_ambient_temperature 296
#These two values have been output from a single CSD field.
_refine_ls_R_factor_gt 0.0431
_refine_ls_wR_factor_gt 0.0431
_symmetry_cell_setting cubic
_symmetry_space_group_name_H-M 'F d -3 c'
_symmetry_Int_Tables_number 228
loop_
_symmetry_equiv_pos_site_id
_symmetry_equiv_pos_as_xyz
1 x,y,z
2 1/4-x,3/4-y,1/2+z
3 3/4-x,1/2+y,1/4-z
4 1/2+x,1/4-y,3/4-z
5 z,x,y
6 1/2+z,1/4-x,3/4-y
7 1/4-z,3/4-x,1/2+y
8 3/4-z,1/2+x,1/4-y
9 y,z,x
10 3/4-y,1/2+z,1/4-x
11 1/2+y,1/4-z,3/4-x
12 1/4-y,3/4-z,1/2+x
13 3/4+y,1/4+x,-z
14 1/2-y,1/2-x,1/2-z
15 1/4+y,-x,3/4+z
16 -y,3/4+x,1/4+z
17 3/4+x,1/4+z,-y
18 -x,3/4+z,1/4+y
19 1/2-x,1/2-z,1/2-y
20 1/4+x,-z,3/4+y
21 3/4+z,1/4+y,-x
22 1/4+z,-y,3/4+x
23 -z,3/4+y,1/4+x
24 1/2-z,1/2-y,1/2-x
25 x,1/2+y,1/2+z
26 1/4-x,1/4-y,z
27 3/4-x,y,3/4-z
28 1/2+x,3/4-y,1/4-z
29 z,1/2+x,1/2+y
30 1/2+z,3/4-x,1/4-y
31 1/4-z,1/4-x,y
32 3/4-z,x,3/4-y
33 y,1/2+z,1/2+x
34 3/4-y,z,3/4-x
35 1/2+y,3/4-z,1/4-x
36 1/4-y,1/4-z,x
37 3/4+y,3/4+x,1/2-z
38 1/2-y,-x,-z
39 1/4+y,1/2-x,1/4+z
40 -y,1/4+x,3/4+z
41 3/4+x,3/4+z,1/2-y
42 -x,1/4+z,3/4+y
43 1/2-x,-z,-y
44 1/4+x,1/2-z,1/4+y
45 3/4+z,3/4+y,1/2-x
46 1/4+z,1/2-y,1/4+x
47 -z,1/4+y,3/4+x
48 1/2-z,-y,-x
49 1/2+x,y,1/2+z
50 3/4-x,3/4-y,z
51 1/4-x,1/2+y,3/4-z
52 x,1/4-y,1/4-z
53 1/2+z,x,1/2+y
54 z,1/4-x,1/4-y
55 3/4-z,3/4-x,y
56 1/4-z,1/2+x,3/4-y
57 1/2+y,z,1/2+x
58 1/4-y,1/2+z,3/4-x
59 y,1/4-z,1/4-x
60 3/4-y,3/4-z,x
61 1/4+y,1/4+x,1/2-z
62 -y,1/2-x,-z
63 3/4+y,-x,1/4+z
64 1/2-y,3/4+x,3/4+z
65 1/4+x,1/4+z,1/2-y
66 1/2-x,3/4+z,3/4+y
67 -x,1/2-z,-y
68 3/4+x,-z,1/4+y
69 1/4+z,1/4+y,1/2-x
70 3/4+z,-y,1/4+x
71 1/2-z,3/4+y,3/4+x
72 -z,1/2-y,-x
73 1/2+x,1/2+y,z
74 3/4-x,1/4-y,1/2+z
75 1/4-x,y,1/4-z
76 x,3/4-y,3/4-z
77 1/2+z,1/2+x,y
78 z,3/4-x,3/4-y
79 3/4-z,1/4-x,1/2+y
80 1/4-z,x,1/4-y
81 1/2+y,1/2+z,x
82 1/4-y,z,1/4-x
83 y,3/4-z,3/4-x
84 3/4-y,1/4-z,1/2+x
85 1/4+y,3/4+x,-z
86 -y,-x,1/2-z
87 3/4+y,1/2-x,3/4+z
88 1/2-y,1/4+x,1/4+z
89 1/4+x,3/4+z,-y
90 1/2-x,1/4+z,1/4+y
91 -x,-z,1/2-y
92 3/4+x,1/2-z,3/4+y
93 1/4+z,3/4+y,-x
94 3/4+z,1/2-y,3/4+x
95 1/2-z,1/4+y,1/4+x
96 -z,-y,1/2-x
97 -x,-y,-z
98 -1/4+x,-3/4+y,-1/2-z
99 -3/4+x,-1/2-y,-1/4+z
100 -1/2-x,-1/4+y,-3/4+z
101 -z,-x,-y
102 -1/2-z,-1/4+x,-3/4+y
103 -1/4+z,-3/4+x,-1/2-y
104 -3/4+z,-1/2-x,-1/4+y
105 -y,-z,-x
106 -3/4+y,-1/2-z,-1/4+x
107 -1/2-y,-1/4+z,-3/4+x
108 -1/4+y,-3/4+z,-1/2-x
109 -3/4-y,-1/4-x,z
110 -1/2+y,-1/2+x,-1/2+z
111 -1/4-y,x,-3/4-z
112 y,-3/4-x,-1/4-z
113 -3/4-x,-1/4-z,y
114 x,-3/4-z,-1/4-y
115 -1/2+x,-1/2+z,-1/2+y
116 -1/4-x,z,-3/4-y
117 -3/4-z,-1/4-y,x
118 -1/4-z,y,-3/4-x
119 z,-3/4-y,-1/4-x
120 -1/2+z,-1/2+y,-1/2+x
121 -x,-1/2-y,-1/2-z
122 -1/4+x,-1/4+y,-z
123 -3/4+x,-y,-3/4+z
124 -1/2-x,-3/4+y,-1/4+z
125 -z,-1/2-x,-1/2-y
126 -1/2-z,-3/4+x,-1/4+y
127 -1/4+z,-1/4+x,-y
128 -3/4+z,-x,-3/4+y
129 -y,-1/2-z,-1/2-x
130 -3/4+y,-z,-3/4+x
131 -1/2-y,-3/4+z,-1/4+x
132 -1/4+y,-1/4+z,-x
133 -3/4-y,-3/4-x,-1/2+z
134 -1/2+y,x,z
135 -1/4-y,-1/2+x,-1/4-z
136 y,-1/4-x,-3/4-z
137 -3/4-x,-3/4-z,-1/2+y
138 x,-1/4-z,-3/4-y
139 -1/2+x,z,y
140 -1/4-x,-1/2+z,-1/4-y
141 -3/4-z,-3/4-y,-1/2+x
142 -1/4-z,-1/2+y,-1/4-x
143 z,-1/4-y,-3/4-x
144 -1/2+z,y,x
145 -1/2-x,-y,-1/2-z
146 -3/4+x,-3/4+y,-z
147 -1/4+x,-1/2-y,-3/4+z
148 -x,-1/4+y,-1/4+z
149 -1/2-z,-x,-1/2-y
150 -z,-1/4+x,-1/4+y
151 -3/4+z,-3/4+x,-y
152 -1/4+z,-1/2-x,-3/4+y
153 -1/2-y,-z,-1/2-x
154 -1/4+y,-1/2-z,-3/4+x
155 -y,-1/4+z,-1/4+x
156 -3/4+y,-3/4+z,-x
157 -1/4-y,-1/4-x,-1/2+z
158 y,-1/2+x,z
159 -3/4-y,x,-1/4-z
160 -1/2+y,-3/4-x,-3/4-z
161 -1/4-x,-1/4-z,-1/2+y
162 -1/2+x,-3/4-z,-3/4-y
163 x,-1/2+z,y
164 -3/4-x,z,-1/4-y
165 -1/4-z,-1/4-y,-1/2+x
166 -3/4-z,y,-1/4-x
167 -1/2+z,-3/4-y,-3/4-x
168 z,-1/2+y,x
169 -1/2-x,-1/2-y,-z
170 -3/4+x,-1/4+y,-1/2-z
171 -1/4+x,-y,-1/4+z
172 -x,-3/4+y,-3/4+z
173 -1/2-z,-1/2-x,-y
174 -z,-3/4+x,-3/4+y
175 -3/4+z,-1/4+x,-1/2-y
176 -1/4+z,-x,-1/4+y
177 -1/2-y,-1/2-z,-x
178 -1/4+y,-z,-1/4+x
179 -y,-3/4+z,-3/4+x
180 -3/4+y,-1/4+z,-1/2-x
181 -1/4-y,-3/4-x,z
182 y,x,-1/2+z
183 -3/4-y,-1/2+x,-3/4-z
184 -1/2+y,-1/4-x,-1/4-z
185 -1/4-x,-3/4-z,y
186 -1/2+x,-1/4-z,-1/4-y
187 x,z,-1/2+y
188 -3/4-x,-1/2+z,-3/4-y
189 -1/4-z,-3/4-y,x
190 -3/4-z,-1/2+y,-3/4-x
191 -1/2+z,-1/4-y,-1/4-x
192 z,y,-1/2+x
_cell_length_a 25.613(4)
_cell_length_b 25.613(4)
_cell_length_c 25.613(4)
_cell_angle_alpha 90
_cell_angle_beta 90
_cell_angle_gamma 90
_cell_formula_units_Z 16
loop_
_atom_type_symbol
_atom_type_radius_bond
C 0.68
H 0.23
Co 1.26
Dy 1.92
O 0.68
loop_
_atom_site_label
_atom_site_type_symbol
_atom_site_fract_x
_atom_site_fract_y
_atom_site_fract_z
Dy1 Dy 0.25000 0.25000 0.75000
Co1 Co 0.50000 0.25000 0.75000
O1 O 0.3368(2) 0.2807(2) 0.7417(2)
O2 O 0.4222(2) 0.27210(19) 0.7371(2)
O3 O 0.31669(18) 0.18331(18) 0.75000
C1 C 0.3755(7) 0.2532(4) 0.7406(6)
C2 C 0.3720(3) 0.1948(3) 0.7476(3)
H1 H 0.38810 0.17680 0.71840
H2 H 0.38930 0.18410 0.77950
Co2 Co 0.37500 0.37500 0.87500
O4 O 0.37500 0.2938(4) 0.87500
H3 H 0.39570 0.28310 0.89700
O5 O 0.1680(11) 0.37500 0.87500
H4 H 0.16900 0.35030 0.85220
Co1M Co 0.25000 0.00000 0.75000
Co1Z Co 0.25000 0.25000 1.00000
Co1JA Co 0.00000 0.25000 0.75000
Co1WA Co 0.25000 0.50000 0.75000
Co1KB Co 0.25000 0.25000 0.50000
O1M O 0.2193(2) 0.1632(2) 0.7583(2)
O1FA O 0.2807(2) 0.2417(2) 0.8368(2)
O1PA O 0.1632(2) 0.2583(2) 0.7193(2)
O1ZA O 0.2417(2) 0.3368(2) 0.7807(2)
O1SB O 0.2583(2) 0.2193(2) 0.6632(2)
O2M O 0.2279(2) 0.07780(19) 0.7629(2)
O2FA O 0.2721(2) 0.23710(19) 0.9222(2)
O2PA O 0.0778(2) 0.26290(19) 0.7279(2)
O2ZA O 0.2371(2) 0.42220(19) 0.7721(2)
O2SB O 0.2629(2) 0.22790(19) 0.5778(2)
O2I O 0.4779(2) 0.23710(19) 0.8278(2)
O2F O 0.5129(2) 0.32780(19) 0.7721(2)
O2PD O 0.5778(2) 0.22790(19) 0.7629(2)
O2VD O 0.4871(2) 0.17220(19) 0.7279(2)
O2YD O 0.5221(2) 0.26290(19) 0.6722(2)
O3FA O 0.18331(18) 0.25000(18) 0.81669
O3ZA O 0.25000(18) 0.31669(18) 0.68331
C1M C 0.2468(7) 0.1245(4) 0.7594(6)
C1FA C 0.2532(7) 0.2406(4) 0.8755(6)
C1PA C 0.1245(7) 0.2594(4) 0.7468(6)
C1ZA C 0.2406(7) 0.3755(4) 0.7532(6)
C1SB C 0.2594(7) 0.2468(4) 0.6245(6)
C2M C 0.3052(3) 0.1280(3) 0.7524(3)
C2FA C 0.1948(3) 0.2476(3) 0.8720(3)
C2PA C 0.1280(3) 0.2524(3) 0.8052(3)
C2ZA C 0.2476(3) 0.3720(3) 0.6948(3)
C2SB C 0.2524(3) 0.3052(3) 0.6280(3)
H1M H 0.32320 0.11190 0.78160
H1FA H 0.17680 0.21840 0.88810
H1PA H 0.11190 0.28160 0.82320
H1ZA H 0.21840 0.38810 0.67680
H1SB H 0.28160 0.32320 0.61190
H2M H 0.31590 0.11070 0.72050
H2FA H 0.18410 0.27950 0.88930
H2PA H 0.11070 0.22050 0.81590
H2ZA H 0.27950 0.38930 0.68410
H2SB H 0.22050 0.31590 0.61070
O4F O 0.37500 0.3750(4) 0.79380
O4I O 0.45620 0.3750(4) 0.87500
O4CA O 0.37500 0.3750(4) 0.95620
O4FA O 0.29380 0.3750(4) 0.87500
O4WA O 0.37500 0.4562(4) 0.87500
H3Z H 0.35430 0.28310 0.85300
H3F H 0.35300 0.35430 0.78310
H3ZA H 0.39700 0.39570 0.78310
H3I H 0.46690 0.39700 0.85430
H3EC H 0.46690 0.35300 0.89570
H3CA H 0.39700 0.35430 0.96690
H3AC H 0.35300 0.39570 0.96690
H3FA H 0.28310 0.39700 0.89570
H3FB H 0.28310 0.35300 0.85430
H3WA H 0.35430 0.46690 0.89700
H3WB H 0.39570 0.46690 0.85300
H4WB H 0.16900 0.39970 0.89780
#END
