
#######################################################################
#
#                 Cambridge Crystallographic Data Centre
#                                CCDC
#
#######################################################################
#
# If this CIF has been generated from an entry in the Cambridge
# Structural Database, then it will include bibliographic, chemical,
# crystal, experimental, refinement or atomic coordinate data resulting
# from the CCDC's data processing and validation procedures.
#
#######################################################################

data_CSD_CIF_AVEGOZ01
_audit_creation_date 2016-10-07
_audit_creation_method CSD-ConQuest-V1
_database_code_CSD AVEGOZ01
_database_code_depnum_ccdc_archive 'CCDC 1501110'
_chemical_formula_sum 'C14 H11.5 Ag1 N2 O10.25 Zn1'
_chemical_formula_moiety
;
(C14 H8 Ag1 N2 O9 Zn1 1-)n,H3 O1 1+,0.25(H2 O1)
;
_journal_coden_Cambridge 1295
_journal_volume 73
_journal_year 2016
_journal_page_first 52
_journal_name_full 'Inorg.Chem.Commun. '
loop_
_publ_author_name
"Qin Wei"
"Yu-Jia Ding"
"Xia Huang"
"Ji-Yuan Zhang"
"Wen-Jing Lu"
"Ren-Feng Dong"
"Yue-Peng Cai"
"Li-Ping Si"
_chemical_name_systematic
;
catena-(oxonium 
(\m-pyridine-2,6-dicarboxylato)-(pyridine-2,6-dicarboxylato)-(\m-aqua)-silver(
i)-zinc(ii) hydrate)
;
_cell_volume   6691.624
_exptl_crystal_colour 'colorless'
_exptl_crystal_density_diffrn 2.164
_exptl_crystal_description 'block'
_diffrn_ambient_temperature 298
_refine_special_details
;
H11A disordered by symmetry over two configurations with occupancy 0.50.

;
#These two values have been output from a single CSD field.
_refine_ls_R_factor_gt 0.0283
_refine_ls_wR_factor_gt 0.0283
_symmetry_cell_setting tetragonal
_symmetry_space_group_name_H-M 'I 41/a'
_symmetry_Int_Tables_number 88
loop_
_symmetry_equiv_pos_site_id
_symmetry_equiv_pos_as_xyz
1 x,y,z
2 1/2-x,-y,1/2+z
3 3/4-y,1/4+x,1/4+z
4 3/4+y,3/4-x,3/4+z
5 1/2+x,1/2+y,1/2+z
6 -x,1/2-y,z
7 1/4-y,3/4+x,3/4+z
8 1/4+y,1/4-x,1/4+z
9 -x,-y,-z
10 -1/2+x,y,-1/2-z
11 -3/4+y,-1/4-x,-1/4-z
12 -3/4-y,-3/4+x,-3/4-z
13 -1/2-x,-1/2-y,-1/2-z
14 x,-1/2+y,-z
15 -1/4+y,-3/4-x,-3/4-z
16 -1/4-y,-1/4+x,-1/4-z
_cell_length_a 21.4977(6)
_cell_length_b 21.4977(6)
_cell_length_c 14.4793(7)
_cell_angle_alpha 90
_cell_angle_beta 90
_cell_angle_gamma 90
_cell_formula_units_Z 16
loop_
_atom_type_symbol
_atom_type_radius_bond
C 0.68
H 0.23
Ag 1.45
N 0.68
O 0.68
Zn 1.22
loop_
_atom_site_label
_atom_site_type_symbol
_atom_site_fract_x
_atom_site_fract_y
_atom_site_fract_z
Ag1 Ag 0.729492(15) 0.520364(13) 0.107199(19)
Zn1 Zn 0.738436(17) 0.751098(16) -0.00258(2)
O1 O 0.65733(10) 0.77620(11) 0.09021(16)
O2 O 0.64122(11) 0.81892(12) 0.22909(18)
O3 O 0.84017(12) 0.74152(12) -0.03482(17)
O4 O 0.93049(12) 0.77916(14) 0.0172(2)
O5 O 0.72660(11) 0.83274(10) -0.08271(17)
O6 O 0.69108(13) 0.86177(11) -0.22190(19)
O7 O 0.73153(11) 0.6540(1) 0.03277(15)
O8 O 0.70816(11) 0.56346(9) -0.03260(16)
O9 O 0.76530(11) 0.43852(10) -0.00380(17)
H1 H 0.8041(5) 0.4423(17) -0.008(3)
H2 H 0.7545(16) 0.4050(11) 0.022(3)
N1 N 0.77857(11) 0.78926(11) 0.10474(16)
N2 N 0.69963(11) 0.71745(11) -0.11116(16)
C1 C 0.67486(14) 0.80106(13) 0.1638(2)
C2 C 0.74416(13) 0.81083(13) 0.1747(2)
C3 C 0.77112(15) 0.83869(14) 0.2506(2)
H3 H 0.74670 0.85310 0.29920
C4 C 0.83527(16) 0.84481(15) 0.2531(2)
H4 H 0.85440 0.86340 0.30370
C5 C 0.87061(15) 0.82323(15) 0.1802(2)
H5 H 0.91370 0.82750 0.18070
C6 C 0.84076(13) 0.79520(13) 0.1065(2)
C7 C 0.87196(15) 0.76931(15) 0.0220(2)
C8 C 0.70185(14) 0.82333(14) -0.1614(2)
C9 C 0.68354(13) 0.75594(13) -0.1792(2)
C10 C 0.65363(14) 0.73431(15) -0.2567(2)
H6 H 0.64270 0.76130 -0.30420
C11 C 0.64026(16) 0.67189(16) -0.2624(2)
H7 H 0.61970 0.65640 -0.31400
C12 C 0.65733(15) 0.63164(15) -0.1910(2)
H8 H 0.64830 0.58940 -0.19400
C13 C 0.68787(13) 0.65651(13) -0.1162(2)
C14 C 0.71072(13) 0.62166(13) -0.0325(2)
O10 O 0.52369(13) 0.80342(15) 0.2251(3)
H9 H 0.5584(13) 0.812(3) 0.248(3)
H10 H 0.507(2) 0.8359(16) 0.207(4)
H11 H 0.523(3) 0.801(3) 0.1679(8)
O11 O 1.00000 0.75000 0.87500
H12? H 0.970(3) 0.762(4) 0.907(5)
Ag1F Ag 0.729636(15) 0.479492(13) -0.142801(19)
O8G O 0.81346(11) 0.54184(9) 0.21740(16)
O9G O 0.68852(11) 0.4847(1) 0.24620(17)
#END
