
#######################################################################
#
#                 Cambridge Crystallographic Data Centre
#                                CCDC
#
#######################################################################
#
# If this CIF has been generated from an entry in the Cambridge
# Structural Database, then it will include bibliographic, chemical,
# crystal, experimental, refinement or atomic coordinate data resulting
# from the CCDC's data processing and validation procedures.
#
#######################################################################

data_CSD_CIF_AVILEX
_audit_creation_date 2011-09-15
_audit_creation_method CSD-ConQuest-V1
_database_code_CSD AVILEX
_database_code_depnum_ccdc_archive 'CCDC 839569'
_chemical_formula_sum 'C84 H72 Co3 F24 N2 O16'
_chemical_formula_moiety
;
(C68 H32 Co3 F24 O16 2-)n,2n(C8 H20 N1 1+)
;
_journal_coden_Cambridge 1147
_journal_volume 11
_journal_year 2011
_journal_page_first 2257
_journal_name_full 'Cryst.Growth Des. '
loop_
_publ_author_name
"Xiqu Wang"
"Lumei Liu"
"M.Conato"
"A.J.Jacobson"
_chemical_name_systematic
;
catena-(bis(N-butylbutan-1-aminium) 
bis(\m~4~-4,4'-(1,1,1,3,3,3-hexafluoropropane-2,2-diyl)dibenzoato)-bis(\m~3~-4
,4'-(1,1,1,3,3,3-hexafluoropropane-2,2-diyl)dibenzoato)-tri-cobalt)
;
_chemical_name_common
;
catena-(bis(di-n-butylammonium) 
bis(mu!4$-4,4'-(1,1,1,3,3,3-hexafluoropropane-2,2-diyl)dibenzoato)-bis(mu!3$-4
,4'-(1,1,1,3,3,3-hexafluoropropane-2,2-diyl)dibenzoato)-tri-cobalt)
;
_cell_volume   8884.774
_exptl_crystal_colour 'purple'
_exptl_crystal_density_diffrn 1.495
_exptl_crystal_description 'plate'
_diffrn_ambient_temperature 223
_refine_special_details
;
The structure isdisordered.

;
#These two values have been output from a single CSD field.
_refine_ls_R_factor_gt 0.0362
_refine_ls_wR_factor_gt 0.0362
_symmetry_cell_setting monoclinic
_symmetry_space_group_name_H-M 'C 2/c'
_symmetry_Int_Tables_number 15
loop_
_symmetry_equiv_pos_site_id
_symmetry_equiv_pos_as_xyz
1 x,y,z
2 1/2+x,1/2+y,z
3 -x,y,1/2-z
4 1/2-x,1/2+y,1/2-z
5 -x,-y,-z
6 -1/2-x,-1/2-y,-z
7 x,-y,-1/2+z
8 -1/2+x,-1/2-y,-1/2+z
_cell_length_a 19.9107(8)
_cell_length_b 18.7741(8)
_cell_length_c 25.054(1)
_cell_angle_alpha 90
_cell_angle_beta 108.434(1)
_cell_angle_gamma 90
_cell_formula_units_Z 4
loop_
_atom_type_symbol
_atom_type_radius_bond
C 0.68
H 0.23
Co 1.47
F 0.64
N 0.68
O 0.68
loop_
_atom_site_label
_atom_site_type_symbol
_atom_site_fract_x
_atom_site_fract_y
_atom_site_fract_z
C1 C 0.7336(1) 0.22007(9) 0.37350(7)
C2 C 0.75044(9) 0.26435(9) 0.32988(7)
C3 C 0.7647(1) 0.33646(10) 0.34074(8)
H1 H 0.76440 0.35570 0.37480
C4 C 0.77935(11) 0.37944(10) 0.30111(8)
H2 H 0.78760 0.42770 0.30860
C5 C 0.78196(10) 0.35221(10) 0.25042(7)
C6 C 0.76759(10) 0.27995(10) 0.23968(8)
H3 H 0.76900 0.26040 0.20590
C7 C 0.7513(1) 0.23704(10) 0.27873(7)
H4 H 0.74080 0.18920 0.27060
C8 C 0.79987(10) 0.40427(10) 0.20908(8)
C9 C 0.73210(11) 0.44683(12) 0.17965(9)
C10 C 0.82421(13) 0.36619(12) 0.16399(9)
C11 C 0.86126(10) 0.45347(10) 0.24223(7)
C12 C 0.91959(10) 0.42222(10) 0.28194(8)
H5 H 0.92090 0.37310 0.28670
C13 C 0.97518(10) 0.46281(10) 0.31417(8)
H6 H 1.01410 0.44090 0.33960
C14 C 0.97326(10) 0.53672(10) 0.30878(8)
C15 C 0.91567(10) 0.56775(10) 0.26909(8)
H7 H 0.91410 0.61700 0.26480
C16 C 0.86056(10) 0.5269(1) 0.23573(8)
H8 H 0.82290 0.54870 0.20880
C17 C 1.03308(10) 0.58096(10) 0.34430(8)
C18 C 0.71846(10) 0.41154(9) 0.49577(7)
C19 C 0.66239(10) 0.46470(9) 0.46732(7)
C20 C 0.66103(10) 0.53197(9) 0.48969(8)
H9 H 0.69480 0.54430 0.52360
C21 C 0.6098(1) 0.58100(9) 0.46197(7)
H10 H 0.60940 0.62590 0.47750
C22 C 0.55892(10) 0.56370(9) 0.41119(7)
C23 C 0.56000(11) 0.49531(10) 0.38972(8)
H11 H 0.52590 0.48230 0.35620
C24 C 0.61077(11) 0.44689(10) 0.41748(8)
H12 H 0.61040 0.40150 0.40260
C25 C 0.50968(11) 0.6222(1) 0.37717(8)
C26 C 0.55338(16) 0.66104(13) 0.34416(9)
C27 C 0.44240(14) 0.59158(14) 0.33565(10)
C28 C 0.48468(10) 0.67503(10) 0.41406(7)
C29 C 0.47873(12) 0.74778(10) 0.40279(9)
H13 H 0.49400 0.76630 0.37420
C30 C 0.45040(12) 0.7926(1) 0.43356(9)
H14 H 0.44740 0.84110 0.42570
C31 C 0.4263(1) 0.76681(10) 0.47596(8)
C32 C 0.43174(10) 0.69445(10) 0.48730(8)
H15 H 0.41550 0.67600 0.51540
C33 C 0.46117(10) 0.64938(10) 0.45694(8)
H16 H 0.46520 0.60100 0.46550
C34 C 0.3967(1) 0.81684(10) 0.50883(8)
O1 O 0.40917(9) 0.88167(7) 0.50852(7)
O2 O 0.35968(7) 0.79126(7) 0.53829(5)
O3 O 0.69038(7) 0.16901(7) 0.35690(5)
O4 O 0.76264(7) 0.23763(7) 0.42364(5)
O5 O 1.03354(7) 0.64711(7) 0.33842(6)
O6 O 1.08299(7) 0.54920(7) 0.38066(6)
O7 O 0.71267(7) 0.35031(6) 0.47478(5)
O8 O 0.76697(7) 0.43313(6) 0.53853(5)
Co1 Co 0.75000 0.25000 0.50000
Co2 Co 0.346410(13) 0.875460(12) 0.58488(1)
F1 F 0.71369(6) 0.48792(7) 0.21595(5)
F2 F 0.67712(7) 0.40308(7) 0.15633(5)
F3 F 0.73794(7) 0.48861(7) 0.13807(5)
F4 F 0.77268(8) 0.32866(7) 0.12737(5)
F5 F 0.84786(8) 0.41214(7) 0.13330(5)
F6 F 0.87682(8) 0.32084(7) 0.18722(5)
F7 F 0.58260(11) 0.61374(8) 0.31780(6)
F8 F 0.60522(8) 0.69892(7) 0.37823(6)
F9 F 0.51356(11) 0.70367(8) 0.30403(5)
F10 F 0.45240(9) 0.55599(8) 0.29249(5)
F11 F 0.41204(7) 0.54556(8) 0.36190(7)
F12 F 0.39439(9) 0.64181(9) 0.31318(7)
N1 N 0.50000 0.75861(11) 0.75000
H17 H 0.51030 0.78700 0.78050
C35 C 0.56459(11) 0.71653(11) 0.75265(10)
H18 H 0.58010 0.69130 0.78820
H19 H 0.60200 0.74930 0.75200
C36 C 0.55467(14) 0.66360(12) 0.70586(10)
H20 H 0.52030 0.62840 0.70890
H21 H 0.59920 0.63900 0.71160
C37 C 0.53023(13) 0.69345(12) 0.64589(10)
H22 H 0.52340 0.65410 0.61960
H23 H 0.48470 0.71650 0.63930
C38 C 0.58099(14) 0.74650(13) 0.63336(11)
H24 H 0.56190 0.76270 0.59520
H25 H 0.62580 0.72390 0.63850
H26 H 0.58730 0.78640 0.65850
N2 N 0.50000 1.00000 0.50000
C39 C 0.5594(2) 0.9532(2) 0.5008(4)
H27 H 0.58580 0.97260 0.47760
H28 H 0.54250 0.90610 0.48710
C40 C 0.6048(8) 0.9502(9) 0.5615(5)
H29 H 0.57900 0.92840 0.58430
H30 H 0.61910 0.99770 0.57580
C41 C 0.6691(5) 0.9056(5) 0.5631(5)
H31 H 0.68640 0.91930 0.53240
H32 H 0.65630 0.85560 0.55880
C42 C 0.7267(9) 0.9178(11) 0.6194(7)
H33 H 0.75100 0.96160 0.61800
H34 H 0.75970 0.87900 0.62690
H35 H 0.70540 0.92060 0.64880
C43? C 0.5577(2) 0.9853(3) 0.55217(17)
H36? H 0.53820 0.96250 0.57880
H37? H 0.57880 1.03000 0.56850
C44? C 0.6150(4) 0.9378(5) 0.5433(4)
H38? H 0.63090 0.95660 0.51320
H39? H 0.59680 0.89010 0.53310
C45? C 0.6760(9) 0.9362(11) 0.5982(8)
H40? H 0.65830 0.92800 0.62950
H41? H 0.70100 0.98140 0.60400
C46? C 0.7262(11) 0.8757(10) 0.5943(13)
H42? H 0.76620 0.87470 0.62790
H43? H 0.74220 0.88340 0.56240
H44? H 0.70160 0.83100 0.59010
H45? H 0.70710 0.85140 0.55900
H46? H 0.73110 0.84270 0.62450
H47? H 0.77170 0.89510 0.59680
C1E C 0.7664(1) 0.27993(9) 0.62650(7)
C2E C 0.74956(9) 0.23565(9) 0.67012(7)
C3E C 0.7353(1) 0.16354(10) 0.65926(8)
H1E H 0.73560 0.14430 0.62520
C4E C 0.72065(11) 0.12056(10) 0.69889(8)
H2E H 0.71240 0.07230 0.69140
C5E C 0.71804(10) 0.14779(10) 0.74958(7)
C6E C 0.73241(10) 0.22005(10) 0.76032(8)
H3E H 0.73100 0.23960 0.79410
C7E C 0.7487(1) 0.26296(10) 0.72127(7)
H4E H 0.75920 0.31080 0.72940
C8E C 0.70013(10) 0.09573(10) 0.79092(8)
C9E C 0.76790(11) 0.05317(12) 0.82035(9)
C10E C 0.67579(13) 0.13381(12) 0.83601(9)
C11E C 0.63874(10) 0.04653(10) 0.75777(7)
C12E C 0.58041(10) 0.07778(10) 0.71806(8)
H5E H 0.57910 0.12690 0.71330
C13E C 0.52482(10) 0.03719(10) 0.68583(8)
H6E H 0.48590 0.05910 0.66040
C14E C 0.52674(10) -0.03672(10) 0.69122(8)
C15E C 0.58433(10) -0.06775(10) 0.73091(8)
H7E H 0.58590 -0.11700 0.73520
C16E C 0.63944(10) -0.0269(1) 0.76427(8)
H8E H 0.67710 -0.04870 0.79120
C17E C 0.46692(10) -0.08096(10) 0.65570(8)
C18A C 1.21846(10) -0.08846(9) 0.49577(7)
C19A C 1.16239(10) -0.03530(9) 0.46732(7)
C20A C 1.16103(10) 0.03197(9) 0.48969(8)
H9A H 1.19480 0.04430 0.52360
C21A C 1.1098(1) 0.08100(9) 0.46197(7)
H10A H 1.10940 0.12590 0.47750
C22A C 1.05892(10) 0.06370(9) 0.41119(7)
C23A C 1.06000(11) -0.00469(10) 0.38972(8)
H11A H 1.02590 -0.01770 0.35620
C24A C 1.11077(11) -0.05311(10) 0.41748(8)
H12A H 1.11040 -0.09850 0.40260
C25A C 1.00968(11) 0.1222(1) 0.37717(8)
C26A C 1.05338(16) 0.16104(13) 0.34416(9)
C27A C 0.94240(14) 0.09158(14) 0.33565(10)
C28A C 0.98468(10) 0.17503(10) 0.41406(7)
C29A C 0.97873(12) 0.24778(10) 0.40279(9)
H13A H 0.99400 0.26630 0.37420
C30A C 0.95040(12) 0.2926(1) 0.43356(9)
H14A H 0.94740 0.34110 0.42570
C31A C 0.9263(1) 0.26681(10) 0.47596(8)
C32A C 0.93174(10) 0.19445(10) 0.48730(8)
H15A H 0.91550 0.17600 0.51540
C33A C 0.96117(10) 0.14938(10) 0.45694(8)
H16A H 0.96520 0.10100 0.46550
C34A C 0.8967(1) 0.31684(10) 0.50883(8)
O1A O 0.90917(9) 0.38167(7) 0.50852(7)
O2A O 0.85968(7) 0.29126(7) 0.53829(5)
O2D O 0.64032(7) 0.20874(7) 0.46171(5)
O3E O 0.80962(7) 0.33099(7) 0.64310(5)
O3D O 0.30962(7) 0.83099(7) 0.64310(5)
O4E O 0.73736(7) 0.26237(7) 0.57636(5)
O5E O 0.46646(7) -0.14711(7) 0.66158(6)
O6E O 0.41701(7) -0.04920(7) 0.61934(6)
O6E* O 0.41701(7) 0.95080(7) 0.61934(6)
O6D O 0.91701(7) 0.45080(7) 0.61934(6)
O7A O 1.21267(7) -0.14969(6) 0.47478(5)
O7E O 0.78733(7) 0.14969(6) 0.52522(5)
O8A O 1.26697(7) -0.06687(6) 0.53853(5)
O8A* O 0.26697(7) 0.93313(6) 0.53853(5)
Co1A Co 0.25000 0.75000 0.50000
Co1A* Co 1.25000 -0.25000 0.50000
Co2A Co 0.846410(13) 0.375460(12) 0.58488(1)
Co2D Co 0.653590(13) 0.124540(12) 0.41512(1)
Co2E Co 1.153590(13) 0.624540(12) 0.41512(1)
Co2* Co 1.346410(13) -0.124540(12) 0.58488(1)
Co2** Co 0.346410(13) -0.124540(12) 0.58488(1)
F1E F 0.78631(6) 0.01208(7) 0.78405(5)
F2E F 0.82288(7) 0.09692(7) 0.84367(5)
F3E F 0.76206(7) 0.01139(7) 0.86193(5)
F4E F 0.72732(8) 0.17134(7) 0.87263(5)
F5E F 0.65214(8) 0.08786(7) 0.86670(5)
F6E F 0.62318(8) 0.17916(7) 0.81278(5)
F7A F 1.08260(11) 0.11374(8) 0.31780(6)
F8A F 1.10522(8) 0.19892(7) 0.37823(6)
F9A F 1.01356(11) 0.20367(8) 0.30403(5)
F10A F 0.95240(9) 0.05599(8) 0.29249(5)
F11A F 0.91204(7) 0.04556(8) 0.36190(7)
F12A F 0.89439(9) 0.14181(9) 0.31318(7)
H17B H 0.48970 0.78700 0.71950
C35B C 0.43541(11) 0.71653(11) 0.74735(10)
H18B H 0.41990 0.69130 0.71180
H19B H 0.39800 0.74930 0.74800
C36B C 0.44533(14) 0.66360(12) 0.79414(10)
H20B H 0.47970 0.62840 0.79110
H21B H 0.40080 0.63900 0.78840
C37B C 0.46977(13) 0.69345(12) 0.85411(10)
H22B H 0.47660 0.65410 0.88040
H23B H 0.51530 0.71650 0.86070
C38B C 0.41901(14) 0.74650(13) 0.86664(11)
H24B H 0.43810 0.76270 0.90480
H25B H 0.37420 0.72390 0.86150
H26B H 0.41270 0.78640 0.84150
C39D C 0.4406(2) 1.0468(2) 0.4992(4)
H27D H 0.41420 1.02740 0.52240
H28D H 0.45750 1.09390 0.51290
C40D C 0.3952(8) 1.0498(9) 0.4385(5)
H29D H 0.42100 1.07160 0.41570
H30D H 0.38090 1.00230 0.42420
C41D C 0.3309(5) 1.0944(5) 0.4369(5)
H31D H 0.31360 1.08070 0.46760
H32D H 0.34370 1.14440 0.44120
C42D C 0.2733(9) 1.0822(11) 0.3806(7)
H33D H 0.24900 1.03840 0.38200
H34D H 0.24030 1.12100 0.37310
H35D H 0.29460 1.07940 0.35120
#END
