
#######################################################################
#
#                 Cambridge Crystallographic Data Centre
#                                CCDC
#
#######################################################################
#
# If this CIF has been generated from an entry in the Cambridge
# Structural Database, then it will include bibliographic, chemical,
# crystal, experimental, refinement or atomic coordinate data resulting
# from the CCDC's data processing and validation procedures.
#
#######################################################################

data_CSD_CIF_AVILAT
_audit_creation_date 2011-09-15
_audit_creation_method CSD-ConQuest-V1
_database_code_CSD AVILAT
_database_code_depnum_ccdc_archive 'CCDC 839568'
_chemical_formula_sum 'C80 H60 F24 Mn3 N2 O16'
_chemical_formula_moiety
;
(C68 H32 F24 Mn3 O16 2-)n,2n(C6 H14 N1 1+)
;
_journal_coden_Cambridge 1147
_journal_volume 11
_journal_year 2011
_journal_page_first 2257
_journal_name_full 'Cryst.Growth Des. '
loop_
_publ_author_name
"Xiqu Wang"
"Lumei Liu"
"M.Conato"
"A.J.Jacobson"
_chemical_name_systematic
;
catena-(bis(cyclohexanaminium) 
tetrakis(\m~4~-4,4'-(1,1,1,3,3,3-hexafluoropropane-2,2-diyl)dibenzoato)-tri-ma
nganese)
;
_cell_volume   8094.362
_exptl_crystal_colour 'pale brown'
_exptl_crystal_density_diffrn 1.581
_exptl_crystal_description 'prism'
_diffrn_ambient_temperature 223
#These two values have been output from a single CSD field.
_refine_ls_R_factor_gt 0.0579
_refine_ls_wR_factor_gt 0.0579
_symmetry_cell_setting monoclinic
_symmetry_space_group_name_H-M 'C 2/c'
_symmetry_Int_Tables_number 15
loop_
_symmetry_equiv_pos_site_id
_symmetry_equiv_pos_as_xyz
1 x,y,z
2 1/2+x,1/2+y,z
3 -x,y,1/2-z
4 1/2-x,1/2+y,1/2-z
5 -x,-y,-z
6 -1/2-x,-1/2-y,-z
7 x,-y,-1/2+z
8 -1/2+x,-1/2-y,-1/2+z
_cell_length_a 20.159(3)
_cell_length_b 18.840(3)
_cell_length_c 21.336(3)
_cell_angle_alpha 90
_cell_angle_beta 92.694(3)
_cell_angle_gamma 90
_cell_formula_units_Z 4
loop_
_atom_type_symbol
_atom_type_radius_bond
C 0.68
H 0.23
F 0.64
Mn 1.46
N 0.68
O 0.68
loop_
_atom_site_label
_atom_site_type_symbol
_atom_site_fract_x
_atom_site_fract_y
_atom_site_fract_z
C1 C 0.04507(16) 0.88618(17) 0.82842(16)
C2 C 0.07251(16) 0.82893(16) 0.78844(15)
C3 C 0.10269(16) 0.84599(17) 0.73380(16)
H1 H 0.10450 0.89310 0.72100
C4 C 0.13045(16) 0.79337(17) 0.69761(16)
H2 H 0.15010 0.80560 0.66050
C5 C 0.12922(16) 0.72286(17) 0.71621(15)
C6 C 0.09636(17) 0.70619(17) 0.76982(16)
H3 H 0.09350 0.65900 0.78220
C7 C 0.06780(17) 0.75794(17) 0.80526(16)
H4 H 0.04530 0.74530 0.84060
C8 C 0.16736(17) 0.66381(17) 0.68191(16)
C9 C 0.20201(19) 0.6926(2) 0.62445(17)
C10 C 0.11606(19) 0.60680(19) 0.65904(18)
C11 C 0.22320(16) 0.63261(17) 0.72682(16)
C12 C 0.24584(18) 0.67206(19) 0.77825(18)
H5 H 0.22570 0.71520 0.78680
C13 C 0.29787(18) 0.6482(2) 0.81697(18)
H6 H 0.31120 0.67460 0.85220
C14 C 0.33066(16) 0.58555(17) 0.80412(16)
C15 C 0.30879(17) 0.54666(17) 0.75241(16)
H7 H 0.33040 0.50460 0.74300
C16 C 0.25516(17) 0.56903(18) 0.71416(16)
H8 H 0.24060 0.54150 0.68000
C17 C 0.38881(16) 0.56483(18) 0.84694(16)
C18 C -0.06100(16) 1.13340(17) 0.64969(17)
C19 C -0.08426(15) 1.20908(17) 0.64090(15)
C20 C -0.07457(18) 1.25724(18) 0.68913(17)
H9 H -0.05930 1.24130 0.72850
C21 C -0.08720(18) 1.32956(18) 0.68007(17)
H10 H -0.07840 1.36140 0.71270
C22 C -0.11291(16) 1.35402(17) 0.62231(16)
C23 C -0.12612(16) 1.30449(17) 0.57451(16)
H11 H -0.14510 1.31950 0.53620
C24 C -0.11115(16) 1.23321(17) 0.58368(16)
H12 H -0.11920 1.20120 0.55100
C25 C -0.12474(17) 1.43328(17) 0.60667(17)
C26 C -0.1218(2) 1.48073(19) 0.6657(2)
C27 C -0.06776(18) 1.4568(2) 0.5658(2)
C28 C -0.24822(17) 1.41356(18) 0.60245(17)
H13 H -0.24110 1.38380 0.63690
C29 C -0.19410(16) 1.44499(16) 0.57487(16)
C30 C -0.20621(17) 1.48689(18) 0.52235(17)
H14 H -0.17070 1.50730 0.50260
C31 C -0.27057(16) 1.49895(18) 0.49868(17)
H15 H -0.27770 1.52720 0.46320
C32 C -0.32416(16) 1.46947(17) 0.52724(15)
C33 C -0.31202(17) 1.42606(17) 0.57921(17)
H16 H -0.34750 1.40520 0.59860
C34 C -0.39409(17) 1.48504(17) 0.50425(16)
O1 O 0.01799(11) 0.87161(12) 0.87802(11)
O2 O 0.05155(11) 0.95085(11) 0.81087(10)
O3 O 0.43033(11) 0.51811(11) 0.82706(10)
O4 O -0.40304(11) 1.52696(11) 0.45851(10)
O5 O -0.44073(11) 1.45438(11) 0.53204(10)
O6 O -0.04762(11) 1.09948(12) 0.60136(11)
O7 O -0.05472(12) 1.11114(12) 0.70510(11)
O8 O 0.39501(12) 0.59170(12) 0.89953(11)
Mn1 Mn 0.00703(2) 0.99376(2) 0.90305(2)
Mn2 Mn 0.00000 1.02824(4) 0.75000
F1 F 0.24564(10) 0.74307(11) 0.64086(10)
F2 F 0.23607(12) 0.64286(12) 0.59454(10)
F3 F 0.15915(12) 0.72073(11) 0.58091(10)
F4 F 0.13979(11) 0.56003(11) 0.61843(10)
F5 F 0.06301(10) 0.63683(11) 0.62990(11)
F6 F 0.09415(11) 0.56909(11) 0.7065(1)
F7 F -0.07218(10) 1.42674(11) 0.50891(11)
F8 F -0.06559(10) 1.52722(11) 0.55672(12)
F9 F -0.00844(10) 1.43837(12) 0.59127(11)
F10 F -0.14222(12) 1.54693(11) 0.65299(11)
F11 F -0.16154(11) 1.45593(11) 0.70971(10)
F12 F -0.06059(11) 1.48579(11) 0.69291(11)
N1 N 0.46660(14) 0.66596(14) 0.99313(13)
H17 H 0.46940 0.64760 1.03160
H18 H 0.50720 0.67070 0.97890
H19 H 0.44270 0.63730 0.96780
C35 C 0.43372(18) 0.73733(18) 0.99504(18)
H20 H 0.46100 0.76870 1.02230
C36 C 0.36684(19) 0.7284(2) 1.0229(2)
H21 H 0.37290 0.71160 1.06570
H22 H 0.34130 0.69310 0.99910
C37 C 0.3289(2) 0.7984(2) 1.0221(3)
H23 H 0.28530 0.79090 1.03850
H24 H 0.35250 0.83240 1.04900
C38 C 0.3213(2) 0.8277(2) 0.9563(3)
H25 H 0.29540 0.79500 0.92990
H26 H 0.29760 0.87260 0.95690
C39 C 0.3885(2) 0.8388(2) 0.9295(3)
H27 H 0.41300 0.87420 0.95420
H28 H 0.38270 0.85640 0.88690
C40 C 0.4283(2) 0.76907(19) 0.9297(2)
H29 H 0.40660 0.73550 0.90100
H30 H 0.47250 0.77820 0.91530
C1A C -0.45493(16) 1.38618(17) 0.82842(16)
C2A C -0.42749(16) 1.32893(16) 0.78844(15)
C3A C -0.39731(16) 1.34599(17) 0.73380(16)
H1A H -0.39550 1.39310 0.72100
C4A C -0.36955(16) 1.29337(17) 0.69761(16)
H2A H -0.34990 1.30560 0.66050
C5A C -0.37078(16) 1.22286(17) 0.71621(15)
C6A C -0.40364(17) 1.20619(17) 0.76982(16)
H3A H -0.40650 1.15900 0.78220
C7A C -0.43220(17) 1.25794(17) 0.80526(16)
H4A H -0.45470 1.24530 0.84060
C8A C -0.33264(17) 1.16381(17) 0.68191(16)
C9A C -0.29799(19) 1.1926(2) 0.62445(17)
C10A C -0.38394(19) 1.10680(19) 0.65904(18)
C11A C -0.27680(16) 1.13261(17) 0.72682(16)
C12A C -0.25416(18) 1.17206(19) 0.77825(18)
H5A H -0.27430 1.21520 0.78680
C13A C -0.20213(18) 1.1482(2) 0.81697(18)
H6A H -0.18880 1.17460 0.85220
C14A C -0.16934(16) 1.08555(17) 0.80412(16)
C15A C -0.19121(17) 1.04666(17) 0.75241(16)
H7A H -0.16960 1.00460 0.74300
C16A C -0.24484(17) 1.06903(18) 0.71416(16)
H8A H -0.25940 1.04150 0.68000
C17A C -0.11119(16) 1.06483(18) 0.84694(16)
C18B C 0.06100(16) 1.13340(17) 0.85031(17)
C19B C 0.08426(15) 1.20908(17) 0.85910(15)
C20B C 0.07457(18) 1.25724(18) 0.81087(17)
H9B H 0.05930 1.24130 0.77150
C21B C 0.08720(18) 1.32956(18) 0.81993(17)
H10B H 0.07840 1.36140 0.78730
C22B C 0.11291(16) 1.35402(17) 0.87769(16)
C23B C 0.12612(16) 1.30449(17) 0.92549(16)
H11B H 0.14510 1.31950 0.96380
C24B C 0.11115(16) 1.23321(17) 0.91632(16)
H12B H 0.11920 1.20120 0.94900
C25B C 0.12474(17) 1.43328(17) 0.89333(17)
C26B C 0.1218(2) 1.48073(19) 0.8343(2)
C27B C 0.06776(18) 1.4568(2) 0.9342(2)
C28B C 0.24822(17) 1.41356(18) 0.89755(17)
H13B H 0.24110 1.38380 0.86310
C29B C 0.19410(16) 1.44499(16) 0.92513(16)
C30B C 0.20621(17) 1.48689(18) 0.97765(17)
H14B H 0.17070 1.50730 0.99740
C31B C 0.27057(16) 1.49895(18) 1.00132(17)
H15B H 0.27770 1.52720 1.03680
C32B C 0.32416(16) 1.46947(17) 0.97276(15)
C33B C 0.31202(17) 1.42606(17) 0.92079(17)
H16B H 0.34750 1.40520 0.90140
C34B C 0.39409(17) 1.48504(17) 0.99575(16)
O1A O -0.48201(11) 1.37161(12) 0.87802(11)
O2A O -0.44845(11) 1.45085(11) 0.81087(10)
O2B O -0.05155(11) 0.95085(11) 0.68913(10)
O3A O -0.06967(11) 1.01811(11) 0.82706(10)
O3C O 0.06967(11) 1.01811(11) 0.67294(10)
O3* O -0.56967(11) 1.51811(11) 0.82706(10)
O4B O 0.40304(11) 1.52696(11) 1.04149(10)
O4G O 0.09696(11) 0.97304(11) 0.95851(10)
O4F O -0.40304(11) 1.47304(11) 0.95851(10)
O5B O 0.44073(11) 1.45438(11) 0.96796(10)
O5C O -0.05927(11) 0.95438(11) 0.96796(10)
O5B* O -0.55927(11) 1.45438(11) 0.96796(10)
O6B O 0.04762(11) 1.09948(12) 0.89864(11)
O6C O -0.45238(11) 1.59948(12) 0.89864(11)
O7B O 0.05472(12) 1.11114(12) 0.79490(11)
O8A O -0.10499(12) 1.09170(12) 0.89953(11)
Mn1A Mn -0.49297(2) 1.49376(2) 0.90305(2)
Mn1A* Mn 0.50703(2) 0.49376(2) 0.90305(2)
Mn1G Mn -0.49297(2) 1.50624(2) 0.40305(2)
Mn1C Mn -0.50703(2) 1.49376(2) 0.59695(2)
Mn1B Mn -0.00703(2) 0.99376(2) 0.59695(2)
Mn1E Mn 0.49297(2) 1.50624(2) 1.09695(2)
Mn1A** Mn 0.50703(2) 1.49376(2) 0.90305(2)
Mn2A Mn 0.50000 0.52824(4) 0.75000
Mn2A* Mn -0.50000 1.52824(4) 0.75000
F1A F -0.25436(10) 1.24307(11) 0.64086(10)
F2A F -0.26393(12) 1.14286(12) 0.59454(10)
F3A F -0.34085(12) 1.22073(11) 0.58091(10)
F4A F -0.36021(11) 1.06003(11) 0.61843(10)
F5A F -0.43699(10) 1.13683(11) 0.62990(11)
F6A F -0.40585(11) 1.06909(11) 0.7065(1)
F7B F 0.07218(10) 1.42674(11) 0.99109(11)
F8B F 0.06559(10) 1.52722(11) 0.94328(12)
F9B F 0.00844(10) 1.43837(12) 0.90873(11)
F10B F 0.14222(12) 1.54693(11) 0.84701(11)
F11B F 0.16154(11) 1.45593(11) 0.79029(10)
F12B F 0.06059(11) 1.48579(11) 0.80709(11)
#END
