
#######################################################################
#
#                 Cambridge Crystallographic Data Centre
#                                CCDC
#
#######################################################################
#
# If this CIF has been generated from an entry in the Cambridge
# Structural Database, then it will include bibliographic, chemical,
# crystal, experimental, refinement or atomic coordinate data resulting
# from the CCDC's data processing and validation procedures.
#
#######################################################################

data_CSD_CIF_AVOBOF
_audit_creation_date 2021-06-15
_audit_creation_method CSD-ConQuest-V1
_database_code_CSD AVOBOF
_database_code_depnum_ccdc_archive 'CCDC 2072767'
_chemical_formula_sum 'C6 H16 F4 N8 O9 Sb2'
_chemical_formula_moiety
;
(C4 F4 O8 Sb2 2-)n,2(C1 H7 N4 1+),H2 O1
;
_journal_coden_Cambridge 182
_journal_volume 57
_journal_year 2021
_journal_page_first 6668
_journal_name_full 'Chem.Commun. '
loop_
_publ_author_name
"Yangxin Chen"
"Tingting Zhu"
"Zheyao Xiong"
"Yang Zhou"
"Yanqiang Li"
"Qingran Ding"
"Youchao Liu"
"Xin Chen"
"Sangen Zhao"
"Junhua Luo"
_chemical_name_systematic
;
catena-[bis(1-(diaminomethylidene)hydrazin-1-ium) 
bis(\m-oxalato)-tetrafluoro-di-antimony monohydrate]
;
_cell_volume    890.094
_exptl_crystal_colour 'colorless'
_exptl_crystal_density_diffrn 2.477
_exptl_crystal_description 'slice'
_diffrn_ambient_temperature 200.2
#These two values have been output from a single CSD field.
_refine_ls_R_factor_gt 0.0206
_refine_ls_wR_factor_gt 0.0206
_symmetry_cell_setting triclinic
_symmetry_space_group_name_H-M 'P -1'
_symmetry_Int_Tables_number 2
loop_
_symmetry_equiv_pos_site_id
_symmetry_equiv_pos_as_xyz
1 x,y,z
2 -x,-y,-z
_cell_length_a 9.5230(7)
_cell_length_b 10.6568(8)
_cell_length_c 10.7489(8)
_cell_angle_alpha 115.937(2)
_cell_angle_beta 108.831(2)
_cell_angle_gamma 95.796(3)
_cell_formula_units_Z 2
loop_
_atom_type_symbol
_atom_type_radius_bond
C 0.68
H 0.23
F 0.64
N 0.68
O 0.68
Sb 1.39
loop_
_atom_site_label
_atom_site_type_symbol
_atom_site_fract_x
_atom_site_fract_y
_atom_site_fract_z
Sb1 Sb 0.52963(2) 0.69430(2) 0.33801(2)
F1 F 0.68689(18) 0.65191(17) 0.47720(17)
F2 F 0.70491(16) 0.79948(17) 0.33705(18)
O1 O 0.5880(2) 0.88840(19) 0.56236(19)
O2 O 0.5907(2) 0.4978(2) 0.1700(2)
O3 O 0.5790(2) 0.3552(2) -0.0606(2)
O4 O 0.5492(2) 1.10082(19) 0.69332(19)
C1 C 0.5387(3) 0.9981(3) 0.5738(3)
C2 C 0.5486(3) 0.4575(3) 0.0308(3)
Sb2 Sb 1.00422(2) 0.31487(2) 0.67720(2)
F3 F 0.91393(18) 0.39159(17) 0.53932(17)
F4 F 0.79473(17) 0.22517(18) 0.62676(19)
O5 O 0.9577(2) 0.13079(19) 0.44714(19)
O6 O 0.9812(2) -0.08897(19) 0.31317(19)
O7 O 0.9350(2) 0.5103(2) 0.8326(2)
O8 O 0.9380(2) 0.6563(2) 1.0582(2)
C3 C 0.9833(3) 0.0112(3) 0.4311(3)
C4 C 0.9634(3) 0.5476(3) 0.9688(3)
N1 N 0.8062(3) 0.3180(3) 0.2265(3)
H1 H 0.73158 0.34996 0.18798
H2 H 0.84641 0.34935 0.32450
N2 N 0.9697(2) 0.1726(3) 0.1936(2)
H3 H 1.00300 0.10848 0.13350
H4 H 1.01024 0.20357 0.29159
N3 N 0.8534(2) 0.0744(2) -0.1065(2)
H5 H 0.90786 0.03487 -0.05799
H6 H 0.77497 0.00511 -0.18938
N4 N 0.7975(2) 0.1753(3) -0.0113(2)
H7 H 0.72261 0.20695 -0.04985
C5 C 0.8583(3) 0.2225(3) 0.1365(3)
O9 O 0.6136(2) 0.3982(2) 0.4849(2)
H8 H 0.70593 0.38820 0.51671
H9 H 0.62750 0.47543 0.47638
N5 N 0.4576(3) 0.1608(3) 0.1759(3)
H10 H 0.503(4) 0.213(4) 0.278(4)
N6 N 0.2972(3) 0.3087(3) 0.2023(3)
H11 H 0.22479 0.34168 0.16219
H12 H 0.33527 0.34068 0.30049
N7 N 0.3516(3) 0.0632(3) -0.1235(3)
H13 H 0.27515 -0.01089 -0.20403
N8 N 0.2915(3) 0.1630(3) -0.0331(3)
H14 H 0.21662 0.19330 -0.07406
C6 C 0.3492(3) 0.2108(3) 0.1147(3)
H15 H 0.493(3) 0.099(3) 0.118(4)
H16 H 0.385(4) 0.103(4) -0.160(4)
O1A O 0.4120(2) 1.11160(19) 0.43764(19)
O4A O 0.4508(2) 0.89918(19) 0.30668(19)
C1A C 0.4613(3) 1.0019(3) 0.4262(3)
O2A O 0.4093(2) 0.5022(2) -0.1700(2)
O3A O 0.4210(2) 0.6448(2) 0.0606(2)
C2A C 0.4514(3) 0.5425(3) -0.0308(3)
Sb1A Sb 0.47037(2) 0.30570(2) -0.33801(2)
F1A F 0.31311(18) 0.34809(17) -0.47720(17)
F2A F 0.29509(16) 0.20052(17) -0.33705(18)
Sb1A* Sb 0.47037(2) 1.30570(2) 0.66199(2)
O1A* O 0.4120(2) 0.11160(19) -0.56236(19)
O4* O 0.5492(2) 0.10082(19) -0.30668(19)
O5A O 1.0423(2) -0.13079(19) 0.55286(19)
O6A O 1.0188(2) 0.08897(19) 0.68683(19)
C3A C 1.0167(3) -0.0112(3) 0.5689(3)
O7A O 1.0650(2) 0.4897(2) 1.1674(2)
O8A O 1.0620(2) 0.3437(2) 0.9418(2)
C4A C 1.0366(3) 0.4524(3) 1.0312(3)
Sb2A Sb 0.99578(2) -0.31487(2) 0.32280(2)
F3A F 1.08607(18) -0.39159(17) 0.46068(17)
F4A F 1.20527(17) -0.22517(18) 0.37324(19)
Sb2A* Sb 0.99578(2) 0.68513(2) 1.32280(2)
O7A* O 1.0650(2) -0.5103(2) 0.1674(2)
O8* O 0.9380(2) -0.3437(2) 0.0582(2)
#END
