
#######################################################################
#
#                 Cambridge Crystallographic Data Centre
#                                CCDC
#
#######################################################################
#
# If this CIF has been generated from an entry in the Cambridge
# Structural Database, then it will include bibliographic, chemical,
# crystal, experimental, refinement or atomic coordinate data resulting
# from the CCDC's data processing and validation procedures.
#
#######################################################################

data_CSD_CIF_AVOZOD
_audit_creation_date 2021-06-16
_audit_creation_method CSD-ConQuest-V1
_database_code_CSD AVOZOD
_database_code_depnum_ccdc_archive 'CCDC 2082631'
_chemical_formula_sum 'C61 H52 N2 O9 Zn1'
_chemical_formula_moiety
;
(C57 H36 O9 Zn1 2-)n,2n(C2 H8 N1 1+)
;
_journal_coden_Cambridge 208
_journal_volume 301
_journal_year 2021
_journal_page_first 122337
_journal_name_full 'J.Solid State Chem. '
loop_
_publ_author_name
"Feng Li"
"Ren Ma"
"Zhengqiang Xia"
"Qing Wei"
"Qi Yang"
"Sanping Chen"
"Shengli Gao"
_chemical_name_systematic
;
catena-(bis(dimethylammonium) 
(\m-4,4'-(anthracene-9,10-diyl)dibenzoato)-(4,4'-(anthracene-9,10-diyl)dibenzo
ato)-methanol-zinc)
;
_cell_volume   2591.775
_exptl_crystal_colour 'colorless'
_exptl_crystal_density_diffrn 1.31
_exptl_crystal_description 'block'
_diffrn_ambient_temperature 296
#These two values have been output from a single CSD field.
_refine_ls_R_factor_gt 0.0809
_refine_ls_wR_factor_gt 0.0809
_symmetry_cell_setting monoclinic
_symmetry_space_group_name_H-M 'P 21'
_symmetry_Int_Tables_number 4
loop_
_symmetry_equiv_pos_site_id
_symmetry_equiv_pos_as_xyz
1 x,y,z
2 -x,1/2+y,-z
_cell_length_a 9.0389(16)
_cell_length_b 32.075(6)
_cell_length_c 9.1244(17)
_cell_angle_alpha 90
_cell_angle_beta 101.553(4)
_cell_angle_gamma 90
_cell_formula_units_Z 2
loop_
_atom_type_symbol
_atom_type_radius_bond
C 0.68
H 0.23
N 0.68
O 0.68
Zn 1.22
loop_
_atom_site_label
_atom_site_type_symbol
_atom_site_fract_x
_atom_site_fract_y
_atom_site_fract_z
N1 N 0.2231(16) 0.5697(4) 0.151(2)
H1 H 0.18680 0.59540 0.12560
H2 H 0.24530 0.56900 0.25170
C1 C 0.0864(18) 0.5383(4) 0.100(3)
H3 H 0.11900 0.51540 0.04670
H4 H 0.00480 0.55260 0.03630
H5 H 0.05290 0.52800 0.18680
C2 C 0.3671(16) 0.5666(7) 0.101(3)
H6 H 0.43780 0.58610 0.15630
H7 H 0.35170 0.57280 -0.00350
H8 H 0.40630 0.53880 0.11870
O1 O 0.7918(8) 0.56152(18) 1.2862(8)
O2 O 0.7018(9) 0.5652(2) 1.4945(9)
C3 C 0.7172(12) 0.5468(3) 1.3829(13)
Zn1 Zn 0.15306(11) 0.11874(4) 0.65603(12)
C4 C 0.4276(12) 0.3864(3) 1.235(1)
C5 C 0.7652(10) 0.3132(3) 0.6816(10)
C6 C 0.9868(10) 0.3498(3) 0.623(1)
C7 C 0.9271(11) 0.3877(3) 0.6633(9)
O3 O -0.0909(9) 0.1400(2) 0.9898(9)
C8 C 0.5700(12) 0.3530(4) 0.7756(13)
H9 H 0.51990 0.32860 0.79120
C9 C 0.5123(11) 0.3901(4) 0.8043(13)
H10 H 0.41790 0.39100 0.83020
C10 C 0.7098(10) 0.3508(3) 0.7207(11)
C11 C 0.4909(12) 0.4482(3) 1.4060(11)
H11 H 0.43510 0.43690 1.47150
C12 C -0.0455(12) 0.3825(3) 1.0844(12)
H12 H -0.14930 0.38150 1.04930
C13 C 0.2200(11) 0.2549(3) 0.9268(10)
H13 H 0.27370 0.26910 0.86550
C14 C 0.7895(10) 0.3895(3) 0.7087(10)
C15 C 0.1219(11) 0.2500(3) 1.1463(12)
H14 H 0.10930 0.26110 1.23720
C16 C 0.7556(12) 0.3160(3) 1.2656(11)
H15 H 0.86010 0.31750 1.29510
C17 C 0.5122(12) 0.3505(3) 1.2217(11)
C18 C 1.0972(10) 0.2738(3) 0.5416(10)
H16 H 1.13470 0.24860 0.51440
C19 C 0.6583(11) 0.4833(3) 1.2157(12)
H17 H 0.71310 0.49500 1.14990
C20 C 0.4373(11) 0.3130(3) 1.1654(10)
C21 C 0.2652(11) 0.3858(3) 1.1863(10)
C22 C 0.6797(10) 0.2741(3) 0.6859(10)
C23 C 0.5310(11) 0.2763(3) 1.1606(11)
H18 H 0.48570 0.25140 1.12410
C24 C 0.9662(10) 0.2748(3) 0.5924(10)
H19 H 0.91570 0.25000 0.60110
C25 C 0.196(1) 0.3474(3) 1.1251(10)
C26 C 0.1551(10) 0.2175(3) 0.8814(10)
H20 H 0.16640 0.20660 0.78980
C27 C 0.0747(10) 0.1957(3) 0.9657(10)
C28 C 0.279(1) 0.3115(3) 1.1183(10)
C29 C 0.2071(10) 0.2718(3) 1.0604(10)
C30 C 1.1844(14) 0.4984(3) 0.659(2)
C31 C 0.5035(10) 0.4265(3) 1.2762(10)
C32 C 1.1762(11) 0.3111(3) 0.5300(11)
H21 H 1.26640 0.31040 0.49570
O4 O 0.2818(9) 0.1635(2) 0.6042(10)
C33 C 0.5672(11) 0.2636(3) 0.5664(12)
H22 H 0.55200 0.28000 0.48050
C34 C 0.5620(13) 0.4871(3) 1.4382(12)
H23 H 0.55220 0.50130 1.52460
C35 C 1.0158(10) 0.4271(3) 0.6592(11)
C36 C 0.179(1) 0.4211(3) 1.1973(10)
H24 H 0.22540 0.44580 1.23590
C37 C 0.9047(10) 0.3122(3) 0.6322(9)
C38 C 1.1222(10) 0.3471(3) 0.5679(10)
H25 H 1.17530 0.37140 0.55800
C39 C 0.4751(11) 0.2287(3) 0.5718(14)
H26 H 0.39700 0.22260 0.49150
C40 C 0.5925(14) 0.4285(4) 0.7960(11)
H27 H 0.55420 0.45390 0.82130
C41 C 0.5909(10) 0.4455(3) 1.1849(11)
H28 H 0.60370 0.43160 1.09890
C42 C 0.0395(11) 0.3490(3) 1.0725(11)
H29 H -0.00820 0.32530 1.02650
O5 O 0.0396(8) 0.1344(2) 0.8116(9)
C43 C 0.9901(14) 0.4533(3) 0.5397(14)
H30 H 0.91650 0.44640 0.45650
C44 C 0.0060(12) 0.1542(3) 0.9183(12)
C45 C 0.6456(11) 0.5043(3) 1.3437(11)
C46 C 0.5013(12) 0.2028(3) 0.6992(13)
C47 C 1.0695(15) 0.4894(4) 0.5386(18)
H31 H 1.04680 0.50770 0.45810
C48 C 0.6703(11) 0.3491(3) 1.2756(10)
H32 H 0.71740 0.37290 1.32100
C49 C 1.1271(11) 0.4372(3) 0.7793(14)
H33 H 1.14630 0.41930 0.86100
C50 C 0.7290(11) 0.4264(3) 0.7489(11)
H34 H 0.78240 0.45100 0.74420
C51 C 0.7033(12) 0.2480(3) 0.8045(12)
H35 H 0.78170 0.25400 0.88460
C52 C 0.3961(14) 0.1673(3) 0.7079(16)
C53 C 0.0226(13) 0.4195(3) 1.1502(12)
H36 H -0.03650 0.44250 1.16190
C54 C 1.2110(12) 0.4729(3) 0.7828(16)
H37 H 1.28390 0.47980 0.86660
C55 C 0.6834(12) 0.2778(3) 1.2083(11)
H38 H 0.74110 0.25400 1.20370
O6 O 1.2607(12) 0.5599(3) 0.540(2)
O7 O 0.4249(10) 0.1428(3) 0.8148(11)
C56 C 0.0560(11) 0.2125(3) 1.0993(11)
H39 H -0.00120 0.19850 1.15780
O8 O 1.3667(14) 0.5476(4) 0.773(2)
C57 C 0.6162(13) 0.2126(4) 0.8127(14)
H40 H 0.63740 0.19560 0.89690
C58 C 1.2818(17) 0.5382(5) 0.656(3)
O9 O -0.0323(8) 0.1230(3) 0.4829(9)
C59 C -0.0036(14) 0.1121(6) 0.3330(13)
H41 H 0.07110 0.13060 0.30810
H42 H -0.09560 0.11470 0.25990
H43 H 0.03220 0.08390 0.33410
H44 H -0.083(5) 0.1530(9) 0.477(6)
C60 C 0.550(2) 0.6440(5) 0.740(3)
H45 H 0.63500 0.66060 0.72830
H46 H 0.51090 0.65410 0.82410
H47 H 0.47290 0.64560 0.65140
N2 N 0.5979(18) 0.6001(4) 0.768(3)
H48 H 0.61970 0.59150 0.68040
H49 H 0.51340 0.58640 0.77670
C61 C 0.719(2) 0.5818(6) 0.8848(18)
H50 H 0.69020 0.58390 0.98040
H51 H 0.81150 0.59660 0.88750
H52 H 0.73240 0.55300 0.86210
O1A O 0.2082(8) 0.06152(18) 0.7138(8)
Zn1A Zn 0.84694(11) 0.61874(4) 1.34397(12)
#END
