
#######################################################################
#
#                 Cambridge Crystallographic Data Centre
#                                CCDC
#
#######################################################################
#
# If this CIF has been generated from an entry in the Cambridge
# Structural Database, then it will include bibliographic, chemical,
# crystal, experimental, refinement or atomic coordinate data resulting
# from the CCDC's data processing and validation procedures.
#
#######################################################################

data_CSD_CIF_AVUCEA
_audit_creation_date 2011-09-23
_audit_creation_method CSD-ConQuest-V1
_database_code_CSD AVUCEA
_database_code_depnum_ccdc_archive 'CCDC 821998'
_chemical_formula_sum 'C30 H50 Co2 N1 O19.5'
_chemical_formula_moiety
;
(C22 H19 Co2 O14 1-)n,n(C6 H16 N1 1+),n(C2 H6 O1),4.5n(H2 O1)
;
_journal_coden_Cambridge 241
_journal_volume 40
_journal_year 2011
_journal_page_first 656
_journal_name_full 'Chem.Lett. '
loop_
_publ_author_name
"Jinxi Chen"
"S.Kitagawa"
_chemical_name_systematic
;
catena-(triethylammmonium 
(\m~5~-benzene-1,3,5-tricarboxylato)-(\m~3~-5-carboxybenzene-1,3-dicarboxylato
)-bis(ethanol)-di-cobalt(ii) ethanol solvate hydrate)
;
_cell_volume  17797.418
_exptl_crystal_colour 'red'
_exptl_crystal_density_diffrn 1.412
_exptl_crystal_description 'needlelike'
_diffrn_ambient_temperature 293
#These two values have been output from a single CSD field.
_refine_ls_R_factor_gt 0.0838
_refine_ls_wR_factor_gt 0.0838
_symmetry_cell_setting rhombohedral
_symmetry_space_group_name_H-M 'R -3'
_symmetry_Int_Tables_number 148
loop_
_symmetry_equiv_pos_site_id
_symmetry_equiv_pos_as_xyz
1 x,y,z
2 -y,x-y,z
3 -x+y,-x,z
4 2/3+x,1/3+y,1/3+z
5 2/3-y,1/3+x-y,1/3+z
6 2/3-x+y,1/3-x,1/3+z
7 1/3+x,2/3+y,2/3+z
8 1/3-y,2/3+x-y,2/3+z
9 1/3-x+y,2/3-x,2/3+z
10 -x,-y,-z
11 y,-x+y,-z
12 x-y,x,-z
13 -2/3-x,-1/3-y,-1/3-z
14 -2/3+y,-1/3-x+y,-1/3-z
15 -2/3+x-y,-1/3+x,-1/3-z
16 -1/3-x,-2/3-y,-2/3-z
17 -1/3+y,-2/3-x+y,-2/3-z
18 -1/3+x-y,-2/3+x,-2/3-z
_cell_length_a 32.8195(15)
_cell_length_b 32.8195(15)
_cell_length_c 19.0793(11)
_cell_angle_alpha 90
_cell_angle_beta 90
_cell_angle_gamma 120
_cell_formula_units_Z 18
loop_
_atom_type_symbol
_atom_type_radius_bond
C 0.68
H 0.23
Co 1.26
N 0.68
O 0.68
loop_
_atom_site_label
_atom_site_type_symbol
_atom_site_fract_x
_atom_site_fract_y
_atom_site_fract_z
Co1 Co 0.518476(19) 0.048720(19) 0.19288(3)
Co2 Co 0.482620(17) 0.021700(18) -0.32575(2)
O1 O 0.51989(12) 0.07242(11) 0.09391(15)
O2 O 0.5441(3) 0.14782(18) 0.1113(2)
O3 O 0.51187(11) 0.01809(10) -0.15294(15)
O4 O 0.49325(12) 0.05620(11) -0.23340(14)
O5 O 0.5925(4) 0.25651(18) -0.0834(3)
O6 O 0.5705(2) 0.23037(16) -0.1909(2)
O7 O 0.58291(10) 0.05366(12) 0.19872(15)
O8 O 0.58650(9) 0.02792(11) 0.30629(14)
O9 O 0.79429(10) 0.13876(11) 0.10284(14)
O10 O 0.7273(1) 0.12047(11) 0.05309(14)
O11 O 0.54842(17) 0.11914(13) 0.23245(19)
O12 O 0.55159(12) 0.07171(14) -0.35609(18)
C1 C 0.53270(17) 0.12075(16) -0.0045(2)
C2 C 0.51966(15) 0.08399(15) -0.0514(2)
C3 C 0.52099(14) 0.09190(14) -0.1233(2)
C4 C 0.53666(17) 0.13729(16) -0.1481(2)
C5 C 0.55174(19) 0.17495(16) -0.1019(2)
C6 C 0.5490(2) 0.16630(17) -0.0303(2)
C7 C 0.5320(2) 0.11314(17) 0.0734(2)
C8 C 0.5732(2) 0.22474(18) -0.1273(3)
C9 C 0.50750(14) 0.05207(14) -0.1741(2)
C10 C 0.65729(13) 0.07728(14) 0.2481(2)
C11 C 0.67923(14) 0.09110(15) 0.1829(2)
C12 C 0.72810(14) 0.11330(14) 0.1777(2)
C13 C 0.75514(14) 0.12596(15) 0.2386(2)
C14 C 0.73350(13) 0.11440(14) 0.3041(2)
C15 C 0.68436(13) 0.08820(14) 0.30797(19)
C16 C 0.60425(14) 0.05087(14) 0.25166(19)
C17 C 0.75101(14) 0.12488(14) 0.10747(19)
C18 C 0.5920(2) 0.1057(3) -0.3164(4)
H1 H 0.58120 0.11560 -0.27590
H2 H 0.61070 0.13320 -0.34530
C19 C 0.6209(4) 0.0868(5) -0.2933(8)
H3 H 0.64420 0.09260 -0.32830
H4 H 0.63610 0.10160 -0.25010
H5 H 0.60160 0.05350 -0.28610
C20 C 0.5881(5) 0.1455(4) 0.2723(8)
H6 H 0.61560 0.15330 0.24410
H7 H 0.58790 0.12660 0.31150
C21 C 0.5917(10) 0.1883(8) 0.2986(16)
H8 H 0.60830 0.21320 0.26530
H9 H 0.60860 0.19660 0.34230
H10 H 0.56080 0.18380 0.30590
H11 H 0.5089(16) 0.0515(17) -0.028(3)
H12 H 0.5389(18) 0.1418(18) -0.191(3)
H13 H 0.558(2) 0.191(2) 0.005(4)
H14 H 0.6609(16) 0.0847(16) 0.142(3)
H15 H 0.7883(15) 0.1428(14) 0.235(2)
H16 H 0.6697(15) 0.0798(15) 0.353(2)
C22 C 0.76162(14) 0.13270(15) 0.3698(2)
O13 O 0.74264(11) 0.11965(13) 0.42803(15)
O14 O 0.80436(9) 0.16559(11) 0.36552(14)
O15 O 0.5734(2) 0.07470(19) 0.5092(3)
C23 C 0.6158(11) 0.0983(7) 0.4793(11)
H17 H 0.63820 0.09680 0.51090
H18 H 0.61500 0.08130 0.43720
C24 C 0.6286(13) 0.1319(13) 0.4662(17)
H19 H 0.61790 0.13370 0.42010
H20 H 0.66240 0.14780 0.46660
H21 H 0.61790 0.14660 0.49920
O16 O 0.1153(14) 0.1428(15) 0.7479(18)
O17 O 0.5847(5) 0.3310(5) 0.0133(7)
O18 O 0.33330 0.66670 0.0115(5)
O19 O 0.29074(6) 0.61736(6) 0.07971(9)
O20 O 0.33330 0.66670 0.16670
O21 O 0.6154(11) 0.2454(11) 0.1192(17)
N1 N 0.3917(3) 0.0819(2) 0.6860(4)
C25 C 0.3592(6) 0.0881(7) 0.6377(8)
H22 H 0.34010 0.09730 0.66480
H23 H 0.37760 0.11310 0.60470
C26 C 0.3282(5) 0.0446(9) 0.5988(10)
H24 H 0.34260 0.04480 0.55490
H25 H 0.29850 0.04290 0.59010
H26 H 0.32310 0.01790 0.62590
C27 C 0.3691(4) 0.0440(4) 0.7357(5)
H27 H 0.39310 0.04380 0.76540
H28 H 0.35380 0.01440 0.71030
C28 C 0.3326(7) 0.0466(7) 0.7825(7)
H29 H 0.34760 0.06410 0.82410
H30 H 0.30860 0.01540 0.79510
H31 H 0.31870 0.06200 0.75750
C29 C 0.4245(9) 0.1248(7) 0.7275(16)
H32 H 0.40960 0.14390 0.73070
H33 H 0.42500 0.11410 0.77470
C30 C 0.4645(7) 0.1509(7) 0.7118(16)
H34 H 0.48400 0.13960 0.73130
H35 H 0.47430 0.18170 0.72960
H36 H 0.46740 0.15220 0.66160
Co1I Co 0.481524(19) -0.048720(19) -0.19288(3)
Co1N Co 0.803089(19) 0.185143(19) 0.473787(30)
Co2I Co 0.517380(17) -0.021700(18) 0.32575(2)
Co2N Co 0.794253(17) 0.149287(18) -0.007583(20)
Co2H Co 0.872413(17) 0.184047(18) 0.340917(20)
O3I O 0.48813(11) -0.01809(10) 0.15294(15)
O8I O 0.41350(9) -0.02792(11) -0.30629(14)
O9M O 0.472093(100) 0.011137(110) -0.436173(140)
O10M O 0.453803(100) 0.059837(110) -0.386423(140)
O13M O 0.452983(110) 0.043677(130) 0.238637(150)
O14M O 0.498923(90) 0.027897(110) 0.301147(140)
O14D O 0.501077(90) -0.027897(110) -0.301147(140)
#END
