
#######################################################################
#
#                 Cambridge Crystallographic Data Centre
#                                CCDC
#
#######################################################################
#
# If this CIF has been generated from an entry in the Cambridge
# Structural Database, then it will include bibliographic, chemical,
# crystal, experimental, refinement or atomic coordinate data resulting
# from the CCDC's data processing and validation procedures.
#
#######################################################################

data_CSD_CIF_AWEBEK
_audit_creation_date 2011-10-26
_audit_creation_method CSD-ConQuest-V1
_database_code_CSD AWEBEK
_database_code_depnum_ccdc_archive 'CCDC 839614'
_chemical_formula_sum 'C58 H92 N26 O37 U4'
_chemical_formula_moiety
;
(C2 H8 N1 1+)2n,n(C54 H66 N24 O32 U4 2-),5n(H2 O1)
;
_journal_coden_Cambridge 1147
_journal_volume 11
_journal_year 2011
_journal_page_first 2606
_journal_name_full 'Cryst.Growth Des. '
loop_
_publ_author_name
"P.Thuery"
_chemical_name_systematic
;
catena-(bis(Dimethylammonium) 
bis((\m~3~-nonane-1,9-dicarboxylato)-(\m~3~-oxo)-(\m~2~-hydroxo))-(\m~2~-cucur
bit(6)uril)-octaoxo-tetra-uranium pentahydrate)
;
_cell_volume   2153.496
_exptl_crystal_colour 'light yellow'
_exptl_crystal_density_diffrn 2.08
_exptl_crystal_description 'platelet'
_diffrn_ambient_temperature 150
_refine_special_details
;
O19 is equally disordered over two sites.

;
#These two values have been output from a single CSD field.
_refine_ls_R_factor_gt 0.0422
_refine_ls_wR_factor_gt 0.0422
_symmetry_cell_setting triclinic
_symmetry_space_group_name_H-M 'P -1'
_symmetry_Int_Tables_number 2
loop_
_symmetry_equiv_pos_site_id
_symmetry_equiv_pos_as_xyz
1 x,y,z
2 -x,-y,-z
_cell_length_a 10.8119(3)
_cell_length_b 13.8031(3)
_cell_length_c 15.1715(4)
_cell_angle_alpha 72.374(1)
_cell_angle_beta 86.505(1)
_cell_angle_gamma 89.934(2)
_cell_formula_units_Z 1
loop_
_atom_type_symbol
_atom_type_radius_bond
C 0.68
H 0.23
N 0.68
O 0.68
U 1.46
loop_
_atom_site_label
_atom_site_type_symbol
_atom_site_fract_x
_atom_site_fract_y
_atom_site_fract_z
U1 U 0.37425(3) 0.06885(2) 0.544325(19)
U2 U 0.40249(3) -0.84916(2) 1.284630(19)
O1 O 0.2561(6) -0.0223(5) 0.5436(4)
O2 O 0.4793(6) 0.1652(5) 0.5514(4)
O3 O 0.2862(7) -0.9415(5) 1.2813(5)
O4 O 0.5139(6) -0.7514(5) 1.2811(4)
O5 O 0.4794(6) 0.0517(5) 0.4126(4)
O6 O 0.2895(6) 0.1787(4) 0.4082(4)
H1 H 0.20110 0.16980 0.41820
O7 O 0.2516(7) -0.7163(5) 1.2167(4)
O8 O 0.3702(7) -0.7650(5) 1.1168(4)
O9 O 0.3195(6) 0.0213(6) 0.7073(4)
O10 O 0.4573(7) -0.0691(6) 0.7933(4)
O11 O 0.2072(5) 0.1829(4) 0.5799(4)
O12 O -0.1910(5) 0.3414(5) 0.7911(4)
O13 O 0.0278(6) 0.1963(5) 0.4045(4)
O14 O -0.3833(6) 0.3623(5) 0.6255(4)
O15 O 0.0202(5) 0.4524(5) 0.2145(4)
O16 O -0.3510(5) 0.5932(5) 0.4452(4)
N1 N 0.1668(6) 0.2068(5) 0.7225(5)
N2 N 0.0238(6) 0.1331(5) 0.6653(5)
N3 N -0.1394(6) 0.1966(5) 0.7525(5)
N4 N 0.0064(6) 0.2770(5) 0.8038(5)
N5 N -0.1063(6) 0.1580(5) 0.5356(5)
N6 N -0.1682(6) 0.2602(5) 0.4033(5)
N7 N -0.3269(6) 0.3251(5) 0.4899(5)
N8 N -0.2680(7) 0.2241(5) 0.6220(5)
N9 N -0.1812(6) 0.4183(5) 0.2776(5)
N10 N -0.1290(6) 0.5761(5) 0.1919(4)
N11 N -0.2747(6) 0.6343(6) 0.2928(5)
N12 N -0.3489(6) 0.4780(6) 0.3613(4)
C1 C 0.2877(10) -0.7064(7) 1.1351(7)
C2 C 0.2344(12) -0.6258(9) 1.0576(8)
H2 H 0.14480 -0.62640 1.06690
H3 H 0.25560 -0.63840 0.99910
C3 C 0.2869(12) -0.5241(8) 1.0560(7)
H4 H 0.37660 -0.52760 1.05200
H5 H 0.26240 -0.51270 1.11460
C4 C 0.2488(12) -0.4313(7) 0.9775(7)
H6 H 0.28290 -0.43700 0.91870
H7 H 0.15920 -0.43100 0.97630
C5 C 0.2922(11) -0.3343(8) 0.9887(6)
H8 H 0.38200 -0.33410 0.98640
H9 H 0.26330 -0.33230 1.04990
C6 C 0.2517(12) -0.2380(8) 0.9183(7)
H10 H 0.16280 -0.24150 0.91350
H11 H 0.29170 -0.23320 0.85810
C7 C 0.2839(12) -0.1428(7) 0.9445(6)
H12 H 0.37010 -0.14550 0.95940
H13 H 0.23360 -0.14280 0.99960
C8 C 0.2635(9) -0.0426(8) 0.8672(6)
H14 H 0.17950 -0.04190 0.84810
H15 H 0.27390 0.01440 0.89110
C9 C 0.3545(9) -0.0309(6) 0.7839(6)
C10 C 0.1379(7) 0.1750(6) 0.6495(5)
C11 C 0.0674(8) 0.1862(6) 0.7941(5)
H16 H 0.09440 0.14290 0.85350
C12 C -0.0333(8) 0.1316(6) 0.7555(6)
H17 H -0.05110 0.06220 0.79570
C13 C -0.1164(7) 0.2782(6) 0.7828(5)
C14 C -0.0290(8) 0.0884(6) 0.6000(6)
H18 H 0.03790 0.06650 0.56520
H19 H -0.07810 0.02860 0.63440
C15 C -0.2581(8) 0.1783(7) 0.7211(5)
H20 H -0.32260 0.20500 0.75410
H21 H -0.27230 0.10550 0.73660
C16 C -0.0712(8) 0.2039(7) 0.4441(6)
C17 C -0.2367(8) 0.1677(6) 0.5572(5)
H22 H -0.27980 0.10150 0.57560
C18 C -0.2809(7) 0.2381(6) 0.4642(6)
H23 H -0.34530 0.20540 0.43960
C19 C -0.3321(8) 0.3079(7) 0.5842(6)
C20 C -0.1731(8) 0.3070(6) 0.3047(6)
H24 H -0.24450 0.27980 0.28370
H25 H -0.09960 0.28910 0.27360
C21 C -0.4107(7) 0.3955(7) 0.4310(6)
H26 H -0.46080 0.35800 0.40100
H27 H -0.46620 0.42290 0.46970
C22 C -0.0844(7) 0.4801(6) 0.2268(6)
C23 C -0.2973(8) 0.4728(6) 0.2730(5)
H28 H -0.35820 0.44730 0.23970
C24 C -0.2579(8) 0.5840(7) 0.2217(6)
H29 H -0.30850 0.61430 0.16920
C25 C -0.3273(7) 0.5698(6) 0.3743(6)
C26 C 0.0513(8) 0.3379(6) 0.8595(5)
H30 H 0.09780 0.29440 0.90860
H31 H -0.01950 0.36240 0.88840
C27 C 0.2822(8) 0.2566(7) 0.7271(6)
H32 H 0.31140 0.22810 0.78870
H33 H 0.34310 0.24200 0.68340
O17 O -0.4638(7) 0.3488(7) 0.8075(5)
H34 H -0.38540 0.34110 0.82800
H35 H -0.44350 0.34420 0.75270
O18 O 0.334(2) 0.0230(17) 0.0786(13)
O19 O 0.390(2) 0.2011(16) -0.0514(13)
N13 N 0.1942(9) 0.3813(7) 0.3692(8)
H36 H 0.20450 0.32040 0.39550
H37 H 0.14330 0.39150 0.32440
C28 C 0.2983(10) 0.4420(8) 0.3272(8)
H38 H 0.27210 0.50360 0.28370
H39 H 0.35100 0.40570 0.29530
H40 H 0.34320 0.45810 0.37380
C29 C 0.1083(10) 0.4237(8) 0.4258(8)
H41 H 0.09000 0.49250 0.39180
H42 H 0.14560 0.42270 0.48190
H43 H 0.03310 0.38370 0.44080
O20? O 0.4841(18) 0.1309(16) -0.1100(13)
U1A U 0.62575(3) -0.06885(2) 0.455675(19)
U1A* U -0.37425(3) 0.93115(2) 0.455675(19)
U1A** U 0.62575(3) -1.06885(2) 1.455675(19)
U1* U 0.37425(3) -0.93115(2) 1.544325(19)
U2A U 0.59751(3) -0.15084(2) 0.715370(19)
U2* U 0.40249(3) 0.15084(2) 0.284630(19)
O1A O 0.7439(6) 0.0223(5) 0.4564(4)
O2A O 0.5207(6) -0.1652(5) 0.4486(4)
O3A O 0.7138(7) -0.0585(5) 0.7187(5)
O4A O 0.4861(6) -0.2486(5) 0.7189(4)
O5A O 0.5206(6) -0.0517(5) 0.5874(4)
O5* O 0.4794(6) -0.9483(5) 1.4126(4)
O6* O 0.2895(6) -0.8213(4) 1.4082(4)
O6A O 0.7105(6) -0.1787(4) 0.5918(4)
H1* H 0.20110 -0.83020 1.41820
H1A H 0.79890 -0.16980 0.58180
O7A O 0.7484(7) -0.2837(5) 0.7833(4)
O8A O 0.6298(7) -0.2350(5) 0.8832(4)
O9A O 0.6805(6) -1.0213(6) 1.2927(4)
O9A* O 0.6805(6) -0.0213(6) 0.2927(4)
O10A O 0.5427(7) -0.9309(6) 1.2067(4)
O11A O -0.2072(5) 0.8171(4) 0.4201(4)
O11A* O 0.7928(5) -0.1829(4) 0.4201(4)
O12A O 0.1910(5) 0.6586(5) 0.2089(4)
O13A O -0.0278(6) 0.8037(5) 0.5955(4)
O14A O 0.3833(6) 0.6377(5) 0.3745(4)
O15A O -0.0202(5) 0.5476(5) 0.7855(4)
O16A O 0.3510(5) 0.4068(5) 0.5548(4)
N1A N -0.1668(6) 0.7932(5) 0.2775(5)
N2A N -0.0238(6) 0.8669(5) 0.3347(5)
N3A N 0.1394(6) 0.8034(5) 0.2475(5)
N4A N -0.0064(6) 0.7230(5) 0.1962(5)
N5A N 0.1063(6) 0.8420(5) 0.4644(5)
N6A N 0.1682(6) 0.7398(5) 0.5967(5)
N7A N 0.3269(6) 0.6749(5) 0.5101(5)
N8A N 0.2680(7) 0.7759(5) 0.3780(5)
N9A N 0.1812(6) 0.5817(5) 0.7224(5)
N10A N 0.1290(6) 0.4239(5) 0.8081(4)
N11A N 0.2747(6) 0.3657(6) 0.7072(5)
N12A N 0.3489(6) 0.5220(6) 0.6387(4)
C1A C 0.7123(10) -0.2936(7) 0.8649(7)
C2A C 0.7656(12) -0.3742(9) 0.9424(8)
H2A H 0.85520 -0.37360 0.93310
H3A H 0.74440 -0.36160 1.00090
C3A C 0.7131(12) -0.4759(8) 0.9440(7)
H4A H 0.62340 -0.47240 0.94800
H5A H 0.73760 -0.48730 0.88540
C4A C 0.7512(12) -0.5687(7) 1.0225(7)
H6A H 0.71710 -0.56300 1.08130
H7A H 0.84080 -0.56900 1.02370
C5A C 0.7078(11) -0.6657(8) 1.0113(6)
H8A H 0.61800 -0.66590 1.01360
H9A H 0.73670 -0.66770 0.95010
C6A C 0.7483(12) -0.7620(8) 1.0817(7)
H10A H 0.83720 -0.75850 1.08650
H11A H 0.70830 -0.76680 1.14190
C7A C 0.7161(12) -0.8572(7) 1.0555(6)
H12A H 0.62990 -0.85450 1.04060
H13A H 0.76640 -0.85720 1.00040
C8A C 0.7365(9) -0.9574(8) 1.1328(6)
H14A H 0.82050 -0.95810 1.15190
H15A H 0.72610 -1.01440 1.10890
C9A C 0.6455(9) -0.9691(6) 1.2161(6)
C10A C -0.1379(7) 0.8250(6) 0.3505(5)
C11A C -0.0674(8) 0.8138(6) 0.2059(5)
H16A H -0.09440 0.85710 0.14650
C12A C 0.0333(8) 0.8684(6) 0.2445(6)
H17A H 0.05110 0.93780 0.20430
C13A C 0.1164(7) 0.7218(6) 0.2172(5)
C14A C 0.0290(8) 0.9116(6) 0.4000(6)
H18A H -0.03790 0.93350 0.43480
H19A H 0.07810 0.97140 0.36560
C15A C 0.2581(8) 0.8217(7) 0.2789(5)
H20A H 0.32260 0.79500 0.24590
H21A H 0.27230 0.89450 0.26340
C16A C 0.0712(8) 0.7961(7) 0.5559(6)
C17A C 0.2367(8) 0.8323(6) 0.4428(5)
H22A H 0.27980 0.89850 0.42440
C18A C 0.2809(7) 0.7619(6) 0.5358(6)
H23A H 0.34530 0.79460 0.56040
C19A C 0.3321(8) 0.6921(7) 0.4158(6)
C20A C 0.1731(8) 0.6930(6) 0.6953(6)
H24A H 0.24450 0.72020 0.71630
H25A H 0.09960 0.71090 0.72640
C21A C 0.4107(7) 0.6045(7) 0.5690(6)
H26A H 0.46080 0.64200 0.59900
H27A H 0.46620 0.57710 0.53030
C22A C 0.0844(7) 0.5199(6) 0.7732(6)
C23A C 0.2973(8) 0.5272(6) 0.7270(5)
H28A H 0.35820 0.55270 0.76030
C24A C 0.2579(8) 0.4160(7) 0.7783(6)
H29A H 0.30850 0.38570 0.83080
C25A C 0.3273(7) 0.4302(6) 0.6257(6)
C26A C -0.0513(8) 0.6621(6) 0.1405(5)
H30A H -0.09780 0.70560 0.09140
H31A H 0.01950 0.63760 0.11160
C27A C -0.2822(8) 0.7434(7) 0.2729(6)
H32A H -0.31140 0.77190 0.21130
H33A H -0.34310 0.75800 0.31660
#END
