
#######################################################################
#
#                 Cambridge Crystallographic Data Centre
#                                CCDC
#
#######################################################################
#
# If this CIF has been generated from an entry in the Cambridge
# Structural Database, then it will include bibliographic, chemical,
# crystal, experimental, refinement or atomic coordinate data resulting
# from the CCDC's data processing and validation procedures.
#
#######################################################################

data_CSD_CIF_AWEBIO
_audit_creation_date 2011-10-26
_audit_creation_method CSD-ConQuest-V1
_database_code_CSD AWEBIO
_database_code_depnum_ccdc_archive 'CCDC 839615'
_chemical_formula_sum 'C58 H98 N26 O40 U4'
_chemical_formula_moiety
;
(C2 H8 N1 1+)2n,n(C54 H66 N24 O32 U4 2-),8n(H2 O1)
;
_journal_coden_Cambridge 1147
_journal_volume 11
_journal_year 2011
_journal_page_first 2606
_journal_name_full 'Cryst.Growth Des. '
loop_
_publ_author_name
"P.Thuery"
_chemical_name_systematic
;
catena-(bis(Dimethylammonium) 
bis((\m~3~-nonane-1,9-dicarboxylato)-(\m~3~-oxo)-(\m~2~-hydroxo))-(\m~2~-cucur
bit(6)uril)-octaoxo-tetra-uranium octahydrate)
;
_cell_volume   4161.244
_exptl_crystal_colour 'light yellow'
_exptl_crystal_density_diffrn 2.196
_exptl_crystal_description 'platelet'
_diffrn_ambient_temperature 150
#These two values have been output from a single CSD field.
_refine_ls_R_factor_gt 0.0708
_refine_ls_wR_factor_gt 0.0708
_symmetry_cell_setting monoclinic
_symmetry_space_group_name_H-M 'P 21/n'
_symmetry_Int_Tables_number 14
loop_
_symmetry_equiv_pos_site_id
_symmetry_equiv_pos_as_xyz
1 x,y,z
2 1/2-x,1/2+y,1/2-z
3 -x,-y,-z
4 -1/2+x,-1/2-y,-1/2+z
_cell_length_a 13.8427(4)
_cell_length_b 10.8346(6)
_cell_length_c 27.9882(15)
_cell_angle_alpha 90
_cell_angle_beta 97.554(3)
_cell_angle_gamma 90
_cell_formula_units_Z 2
loop_
_atom_type_symbol
_atom_type_radius_bond
C 0.68
H 0.23
N 0.68
O 0.75
U 1.41
loop_
_atom_site_label
_atom_site_type_symbol
_atom_site_fract_x
_atom_site_fract_y
_atom_site_fract_z
U1 U 0.40939(3) 0.12083(4) 0.475954(14)
U2 U 0.44671(3) 0.11329(4) 0.611289(15)
O1 O 0.4995(6) 0.2374(8) 0.4744(3)
O2 O 0.3110(6) 0.0145(8) 0.4739(3)
O3 O 0.5396(6) 0.2304(8) 0.6147(3)
O4 O 0.3520(6) 0.0025(8) 0.6120(3)
O5 O 0.4926(6) 0.0287(8) 0.5464(3)
O6 O 0.3625(6) 0.2155(8) 0.5459(3)
H1 H 0.39410 0.28520 0.54750
O7 O 0.8413(7) 0.2339(9) 0.1436(3)
O8 O 0.9337(7) 0.340(1) 0.1984(3)
O9 O 0.3739(7) 0.1521(9) 0.3899(3)
O10 O 0.4369(7) 0.0191(9) 0.3441(3)
O11 O 0.2773(6) 0.2844(8) 0.4568(3)
O12 O 0.0203(6) 0.6707(8) 0.3436(3)
O13 O 0.3483(7) 0.4721(8) 0.5437(3)
O14 O 0.0837(6) 0.8708(9) 0.4324(3)
O15 O 0.1835(7) 0.4972(8) 0.6433(3)
O16 O -0.0594(6) 0.8562(9) 0.5269(3)
N1 N 0.1789(7) 0.3149(9) 0.3851(4)
N2 N 0.2853(7) 0.4598(9) 0.4106(4)
N3 N 0.1813(7) 0.6147(10) 0.3660(4)
N4 N 0.0735(8) 0.4693(10) 0.3411(4)
N5 N 0.3292(7) 0.6013(10) 0.4767(4)
N6 N 0.2889(8) 0.6680(11) 0.5455(4)
N7 N 0.1837(7) 0.8257(10) 0.5021(4)
N8 N 0.2232(7) 0.7545(10) 0.4328(4)
N9 N 0.1893(8) 0.6935(10) 0.6117(4)
N10 N 0.0753(7) 0.6527(10) 0.6575(4)
N11 N -0.0284(7) 0.7917(10) 0.6060(3)
N12 N 0.0944(7) 0.8591(9) 0.5701(4)
C1 C 0.8622(9) 0.2647(12) 0.1865(4)
C2 C 0.8067(11) 0.2149(15) 0.2241(5)
H2 H 0.77150 0.14130 0.21230
H3 H 0.85110 0.19290 0.25260
C3 C 0.7342(10) 0.3144(15) 0.2370(5)
H4 H 0.70120 0.34990 0.20750
H5 H 0.77040 0.37990 0.25500
C4 C 0.6577(11) 0.2644(17) 0.2668(5)
H6 H 0.61990 0.20110 0.24840
H7 H 0.69070 0.22620 0.29580
C5 C 0.5883(10) 0.3638(15) 0.2812(5)
H8 H 0.55940 0.40650 0.25240
H9 H 0.62570 0.42370 0.30170
C6 C 0.5069(10) 0.3138(14) 0.3076(5)
H10 H 0.47080 0.38290 0.31830
H11 H 0.53600 0.26970 0.33600
C7 C 0.4362(11) 0.2284(14) 0.2779(5)
H12 H 0.40930 0.27000 0.24840
H13 H 0.47070 0.15570 0.26910
C8 C 0.3529(9) 0.1889(12) 0.3056(4)
H14 H 0.30760 0.13740 0.28500
H15 H 0.31790 0.26160 0.31410
C9 C 0.3884(9) 0.1215(11) 0.3491(4)
C10 C 0.2482(8) 0.3497(10) 0.4213(4)
C11 C 0.1655(9) 0.4049(12) 0.3462(4)
H16 H 0.17870 0.36900 0.31560
C12 C 0.2413(8) 0.5066(12) 0.3642(4)
H17 H 0.28970 0.51760 0.34200
C13 C 0.0843(9) 0.5921(11) 0.3502(4)
C14 C 0.3667(8) 0.5161(11) 0.4425(4)
H18 H 0.40510 0.45180 0.46010
H19 H 0.40860 0.56060 0.42330
C15 C 0.2177(8) 0.7361(11) 0.3816(4)
H20 H 0.28210 0.74720 0.37210
H21 H 0.17540 0.79850 0.36520
C16 C 0.3248(9) 0.5701(11) 0.5238(5)
C17 C 0.310(1) 0.7309(11) 0.4668(4)
H22 H 0.36720 0.77370 0.45770
C18 C 0.2818(9) 0.7794(11) 0.5151(4)
H23 H 0.32630 0.84440 0.52890
C19 C 0.1562(8) 0.8230(11) 0.4534(4)
C20 C 0.2873(9) 0.6810(12) 0.5970(4)
H24 H 0.32540 0.75300 0.60820
H25 H 0.31880 0.60950 0.61310
C21 C 0.1446(9) 0.9149(11) 0.5325(4)
H26 H 0.09930 0.96790 0.51260
H27 H 0.19730 0.96630 0.54760
C22 C 0.1525(8) 0.6038(12) 0.6375(4)
C23 C 0.1417(9) 0.8119(11) 0.6143(4)
H28 H 0.18530 0.87310 0.63160
C24 C 0.0545(9) 0.7794(12) 0.6425(4)
H29 H 0.05080 0.83470 0.66990
C25 C -0.0039(9) 0.8377(11) 0.5635(4)
C26 C -0.0154(9) 0.4199(11) 0.3139(4)
H30 H 0.00240 0.36860 0.28810
H31 H -0.05400 0.48800 0.29940
C27 C 0.1299(9) 0.1989(12) 0.3837(4)
H32 H 0.13010 0.16260 0.35210
H33 H 0.16550 0.14400 0.40710
O17 O 0.6145(9) 0.3580(12) 0.7076(4)
H34 H 0.62570 0.30070 0.68100
H35 H 0.63440 0.30840 0.73250
O18 O -0.1768(9) 0.6242(12) 0.7688(4)
H36 H -0.13660 0.57900 0.78900
H37 H -0.22330 0.62930 0.78220
O19 O 0.0052(8) 0.9332(9) 0.3407(3)
H38 H 0.03790 0.90440 0.36350
H39 H 0.03250 0.97850 0.32280
O20 O 0.6561(8) 0.5065(10) 0.7880(4)
N13 N 0.1815(8) 0.3166(10) 0.5655(4)
H40 H 0.22370 0.28610 0.54670
H41 H 0.21580 0.36120 0.58900
C28 C 0.1122(11) 0.3987(15) 0.5364(6)
H42 H 0.07880 0.35340 0.50970
H43 H 0.14700 0.46640 0.52450
H44 H 0.06570 0.42990 0.55590
C29 C 0.1353(10) 0.2152(13) 0.5871(5)
H45 H 0.08780 0.24680 0.60600
H46 H 0.18350 0.16890 0.60730
H47 H 0.10370 0.16260 0.56220
U1B U 0.59061(3) -0.12083(4) 0.524046(14)
U1B* U -0.40939(3) 0.87917(4) 0.524046(14)
U2B U 0.55329(3) -0.11329(4) 0.388711(15)
U2C U 0.94671(3) 0.38671(4) 0.111289(15)
U2A U 0.05329(3) -0.38671(4) 0.888711(15)
O1B O 0.5005(6) -0.2374(8) 0.5256(3)
O2B O 0.6890(6) -0.0145(8) 0.5261(3)
O3B O 0.4604(6) -0.2304(8) 0.3853(3)
O4B O 0.6480(6) -0.0025(8) 0.3880(3)
O5B O 0.5074(6) -0.0287(8) 0.4536(3)
O6B O 0.6375(6) -0.2155(8) 0.4541(3)
H1B H 0.60590 -0.28520 0.45250
O7B O 0.1587(7) -0.2339(9) 0.8564(3)
O7C O 0.3413(7) 0.2661(9) 0.6436(3)
O7A O 0.6587(7) -0.2661(9) 0.3564(3)
O8B O 0.0663(7) -0.340(1) 0.8016(3)
O8C O 0.4337(7) 0.160(1) 0.6984(3)
O8A O 0.5663(7) -0.160(1) 0.3016(3)
O9B O 0.6261(7) -0.1521(9) 0.6101(3)
O10B O 0.5631(7) -0.0191(9) 0.6559(3)
O11B O -0.2773(6) 0.7156(8) 0.5432(3)
O11B* O 0.7227(6) -0.2844(8) 0.5432(3)
O12B O -0.0203(6) 0.3293(8) 0.6564(3)
O13B O -0.3483(7) 0.5279(8) 0.4563(3)
O14B O -0.0837(6) 0.1292(9) 0.5676(3)
O15B O -0.1835(7) 0.5028(8) 0.3567(3)
O16B O 0.0594(6) 0.1438(9) 0.4731(3)
N1B N -0.1789(7) 0.6851(9) 0.6149(4)
N2B N -0.2853(7) 0.5402(9) 0.5894(4)
N3B N -0.1813(7) 0.3853(10) 0.6340(4)
N4B N -0.0735(8) 0.5307(10) 0.6589(4)
N5B N -0.3292(7) 0.3987(10) 0.5233(4)
N6B N -0.2889(8) 0.3320(11) 0.4545(4)
N7B N -0.1837(7) 0.1743(10) 0.4979(4)
N8B N -0.2232(7) 0.2455(10) 0.5672(4)
N9B N -0.1893(8) 0.3065(10) 0.3883(4)
N10B N -0.0753(7) 0.3473(10) 0.3425(4)
N11B N 0.0284(7) 0.2083(10) 0.3940(3)
N12B N -0.0944(7) 0.1409(9) 0.4299(4)
C1B C 0.1378(9) -0.2647(12) 0.8135(4)
C2B C 0.1933(11) -0.2149(15) 0.7759(5)
H2B H 0.22850 -0.14130 0.78770
H3B H 0.14890 -0.19290 0.74740
C3B C 0.2658(10) -0.3144(15) 0.7630(5)
H4B H 0.29880 -0.34990 0.79250
H5B H 0.22960 -0.37990 0.74500
C4B C 0.3423(11) -0.2644(17) 0.7332(5)
H6B H 0.38010 -0.20110 0.75160
H7B H 0.30930 -0.22620 0.70420
C5B C 0.4117(10) -0.3638(15) 0.7188(5)
H8B H 0.44060 -0.40650 0.74760
H9B H 0.37430 -0.42370 0.69830
C6B C 0.4931(10) -0.3138(14) 0.6924(5)
H10B H 0.52920 -0.38290 0.68170
H11B H 0.46400 -0.26970 0.66400
C7B C 0.5638(11) -0.2284(14) 0.7221(5)
H12B H 0.59070 -0.27000 0.75160
H13B H 0.52930 -0.15570 0.73090
C8B C 0.6471(9) -0.1889(12) 0.6944(4)
H14B H 0.69240 -0.13740 0.71500
H15B H 0.68210 -0.26160 0.68590
C9B C 0.6116(9) -0.1215(11) 0.6509(4)
C10B C -0.2482(8) 0.6503(10) 0.5787(4)
C11B C -0.1655(9) 0.5951(12) 0.6538(4)
H16B H -0.17870 0.63100 0.68440
C12B C -0.2413(8) 0.4934(12) 0.6358(4)
H17B H -0.28970 0.48240 0.65800
C13B C -0.0843(9) 0.4079(11) 0.6498(4)
C14B C -0.3667(8) 0.4839(11) 0.5575(4)
H18B H -0.40510 0.54820 0.53990
H19B H -0.40860 0.43940 0.57670
C15B C -0.2177(8) 0.2639(11) 0.6184(4)
H20B H -0.28210 0.25280 0.62790
H21B H -0.17540 0.20150 0.63480
C16B C -0.3248(9) 0.4299(11) 0.4762(5)
C17B C -0.310(1) 0.2691(11) 0.5332(4)
H22B H -0.36720 0.22630 0.54230
C18B C -0.2818(9) 0.2206(11) 0.4849(4)
H23B H -0.32630 0.15560 0.47110
C19B C -0.1562(8) 0.1770(11) 0.5466(4)
C20B C -0.2873(9) 0.3190(12) 0.4030(4)
H24B H -0.32540 0.24700 0.39180
H25B H -0.31880 0.39050 0.38690
C21B C -0.1446(9) 0.0851(11) 0.4675(4)
H26B H -0.09930 0.03210 0.48740
H27B H -0.19730 0.03370 0.45240
C22B C -0.1525(8) 0.3962(12) 0.3625(4)
C23B C -0.1417(9) 0.1881(11) 0.3857(4)
H28B H -0.18530 0.12690 0.36840
C24B C -0.0545(9) 0.2206(12) 0.3575(4)
H29B H -0.05080 0.16530 0.33010
C25B C 0.0039(9) 0.1623(11) 0.4365(4)
C26B C 0.0154(9) 0.5801(11) 0.6861(4)
H30B H -0.00240 0.63140 0.71190
H31B H 0.05400 0.51200 0.70060
C27B C -0.1299(9) 0.8011(12) 0.6163(4)
H32B H -0.13010 0.83740 0.64790
H33B H -0.16550 0.85600 0.59290
#END
