
#######################################################################
#
#                 Cambridge Crystallographic Data Centre
#                                CCDC
#
#######################################################################
#
# If this CIF has been generated from an entry in the Cambridge
# Structural Database, then it will include bibliographic, chemical,
# crystal, experimental, refinement or atomic coordinate data resulting
# from the CCDC's data processing and validation procedures.
#
#######################################################################

data_CSD_CIF_AWEBAG
_audit_creation_date 2011-10-26
_audit_creation_method CSD-ConQuest-V1
_database_code_CSD AWEBAG
_database_code_depnum_ccdc_archive 'CCDC 839613'
_chemical_formula_sum 'C56 H94 N26 O40 U4'
_chemical_formula_moiety
;
(C2 H8 N1 1+)2n,n(C52 H62 N24 O32 U4 2-),8n(H2 O1)
;
_journal_coden_Cambridge 1147
_journal_volume 11
_journal_year 2011
_journal_page_first 2606
_journal_name_full 'Cryst.Growth Des. '
loop_
_publ_author_name
"P.Thuery"
_chemical_name_systematic
;
catena-(bis(Dimethylammonium) 
bis((\m~3~-octane-1,8-dicarboxylato)-(\m~3~-oxo)-(\m~2~-hydroxo))-(\m~2~-cucur
bit(6)uril)-octaoxo-tetra-uranium octahydrate)
;
_cell_volume   2046.743
_exptl_crystal_colour 'light yellow'
_exptl_crystal_density_diffrn 2.21
_exptl_crystal_description 'parallelepiped'
_diffrn_ambient_temperature 150
_refine_special_details
;
O20 is disordered over two sites with occupancies of 0.557:0.443.

;
#These two values have been output from a single CSD field.
_refine_ls_R_factor_gt 0.0263
_refine_ls_wR_factor_gt 0.0263
_symmetry_cell_setting triclinic
_symmetry_space_group_name_H-M 'P -1'
_symmetry_Int_Tables_number 2
loop_
_symmetry_equiv_pos_site_id
_symmetry_equiv_pos_as_xyz
1 x,y,z
2 -x,-y,-z
_cell_length_a 10.9737(6)
_cell_length_b 13.7663(11)
_cell_length_c 14.7029(11)
_cell_angle_alpha 110.812(3)
_cell_angle_beta 98.887(5)
_cell_angle_gamma 90.371(4)
_cell_formula_units_Z 1
loop_
_atom_type_symbol
_atom_type_radius_bond
C 0.68
H 0.23
N 0.68
O 0.68
U 1.46
loop_
_atom_site_label
_atom_site_type_symbol
_atom_site_fract_x
_atom_site_fract_y
_atom_site_fract_z
U1 U 0.371134(14) 0.396152(13) 0.453510(12)
U2 U -0.434120(15) 0.491120(13) 0.269390(12)
O1 O 0.2554(3) 0.4838(3) 0.4444(3)
O2 O 0.4740(3) 0.2979(3) 0.4560(3)
O3 O -0.3192(3) 0.3979(3) 0.2625(3)
O4 O -0.5456(3) 0.5848(3) 0.2683(3)
O5 O 0.4869(3) 0.5186(3) 0.5940(2)
O6 O 0.3031(3) 0.3903(3) 0.5991(2)
H1 H 0.22590 0.40120 0.59020
O7 O -0.3088(3) 0.5793(3) 0.1911(3)
O8 O -0.4264(3) 0.4438(3) 0.0888(3)
O9 O 0.3087(3) 0.3097(3) 0.2782(2)
O10 O 0.4115(4) 0.3574(3) 0.1819(3)
O11 O 0.1958(3) 0.2596(2) 0.4161(2)
O12 O -0.2366(3) -0.0556(3) 0.1859(3)
O13 O 0.0446(3) 0.3738(3) 0.5966(3)
O14 O -0.3958(3) 0.0490(3) 0.3670(3)
O15 O 0.0636(3) 0.2604(3) 0.7981(3)
O16 O -0.3476(3) -0.0481(3) 0.5582(2)
N1 N 0.1332(3) 0.1272(3) 0.2667(3)
N2 N 0.0030(4) 0.2478(3) 0.3231(3)
N3 N -0.1713(4) 0.1176(3) 0.2368(3)
N4 N -0.0386(3) -0.0025(3) 0.1817(3)
N5 N -0.1096(3) 0.3192(3) 0.4583(3)
N6 N -0.1519(4) 0.3165(3) 0.6003(3)
N7 N -0.3222(4) 0.1864(3) 0.5109(3)
N8 N -0.2859(4) 0.1928(3) 0.3688(3)
N9 N -0.1444(4) 0.2487(3) 0.7332(3)
N10 N -0.0795(3) 0.1533(3) 0.8237(3)
N11 N -0.2397(4) 0.0208(3) 0.7174(3)
N12 N -0.3269(4) 0.1293(3) 0.6479(3)
C1 C -0.3429(5) 0.5139(4) 0.1043(4)
C2 C -0.2795(5) 0.5154(5) 0.0208(4)
H2 H -0.34080 0.50690 -0.03710
H3 H -0.23340 0.58190 0.03940
C3 C -0.1909(5) 0.4266(4) -0.0036(4)
H4 H -0.15650 0.42450 -0.06120
H5 H -0.23750 0.36080 -0.02010
C4 C -0.0849(5) 0.4389(4) 0.0815(4)
H6 H -0.11930 0.44040 0.13890
H7 H -0.03880 0.50500 0.09840
C5 C 0.0028(4) 0.3528(4) 0.0579(4)
H8 H -0.04130 0.28750 0.04770
H9 H 0.03100 0.34650 -0.00320
C6 C 0.1140(5) 0.3714(4) 0.1387(4)
H10 H 0.15670 0.43740 0.14930
H11 H 0.08520 0.37720 0.19940
C7 C 0.2067(5) 0.2862(4) 0.1171(4)
H12 H 0.23180 0.27570 0.05410
H13 H 0.16780 0.22110 0.11340
C8 C 0.3173(4) 0.3170(4) 0.1967(3)
C9 C 0.1181(4) 0.2151(4) 0.3419(4)
C10 C 0.0245(4) 0.0938(4) 0.1903(3)
H14 H 0.04300 0.09170 0.12650
C11 C -0.0672(4) 0.1782(4) 0.2301(3)
H15 H -0.09110 0.21480 0.18450
C12 C -0.1580(4) 0.0129(4) 0.2000(3)
C13 C -0.0413(4) 0.3409(4) 0.3908(4)
H16 H 0.02880 0.38920 0.42830
H17 H -0.09380 0.37430 0.35290
C14 C -0.2858(4) 0.1600(4) 0.2637(4)
H18 H -0.35330 0.10790 0.22880
H19 H -0.29990 0.21920 0.24320
C15 C -0.0615(4) 0.3405(4) 0.5560(4)
C16 C -0.2433(4) 0.2963(4) 0.4375(3)
H20 H -0.28740 0.35010 0.41920
C17 C -0.2719(4) 0.2930(3) 0.5363(3)
H21 H -0.33110 0.34400 0.56330
C18 C -0.3405(4) 0.1340(4) 0.4107(4)
C19 C -0.1402(5) 0.3403(4) 0.7056(3)
H22 H -0.20630 0.38340 0.72980
H23 H -0.06250 0.38050 0.73790
C20 C -0.3975(4) 0.1607(4) 0.5725(4)
H24 H -0.45800 0.10470 0.53120
H25 H -0.44200 0.22080 0.60400
C21 C -0.0423(5) 0.2233(4) 0.7850(3)
C22 C -0.2594(4) 0.1989(4) 0.7395(4)
H26 H -0.31210 0.24970 0.77720
C23 C -0.2113(4) 0.1227(4) 0.7932(3)
H27 H -0.25240 0.13060 0.84980
C24 C -0.3095(4) 0.0258(4) 0.6324(3)
C25 C -0.0050(4) -0.1051(4) 0.1227(4)
H28 H 0.03200 -0.09910 0.06890
H29 H -0.07980 -0.15050 0.09380
C26 C 0.2471(4) 0.0737(4) 0.2619(4)
H30 H 0.31330 0.12030 0.30900
H31 H 0.26800 0.05710 0.19660
O17 O -0.5190(5) -0.0589(5) 0.1748(4)
H32 H -0.44750 -0.07240 0.14320
H33 H -0.49250 -0.03960 0.22990
O18 O -0.5904(8) 0.0790(7) 0.0608(6)
H34 H -0.56310 0.04250 0.09470
H35 H -0.53490 0.10650 0.04540
O19 O -0.7994(5) -0.0569(6) -0.0064(4)
H36 H -0.75770 -0.00260 0.02180
H37 H -0.75260 -0.11090 -0.02800
O20 O -0.4088(16) 0.2137(9) 0.0224(10)
N13 N 0.2182(5) 0.2198(4) 0.6451(4)
H38 H 0.23860 0.24560 0.59830
H39 H 0.19140 0.26690 0.69500
C27 C 0.3274(6) 0.1863(5) 0.6849(5)
H40 H 0.30960 0.15590 0.73130
H41 H 0.38650 0.24470 0.71780
H42 H 0.36080 0.13540 0.63270
C28 C 0.1269(6) 0.1347(5) 0.5803(5)
H43 H 0.15790 0.09720 0.52080
H44 H 0.05070 0.16340 0.56430
H45 H 0.11280 0.08820 0.61370
O21? O -0.3046(19) 0.2235(11) 0.0593(11)
U1A U 0.628866(14) 0.603848(13) 0.546490(12)
U1A* U -0.371134(14) -0.396152(13) 0.546490(12)
U1* U -0.628866(14) 0.396152(13) 0.453510(12)
U1A** U -0.371134(14) 0.603848(13) 0.546490(12)
U2* U 0.565880(15) 0.491120(13) 0.269390(12)
U2A U 0.434120(15) 0.508880(13) 0.730610(12)
U2** U -1.434120(15) 0.491120(13) 0.269390(12)
O1A O 0.7446(3) 0.5162(3) 0.5556(3)
O2A O 0.5260(3) 0.7021(3) 0.5440(3)
O3* O 0.6808(3) 0.3979(3) 0.2625(3)
O4* O 0.4544(3) 0.5848(3) 0.2683(3)
O5A O 0.5131(3) 0.4814(3) 0.4060(2)
O5A* O -0.4869(3) 0.4814(3) 0.4060(2)
O6A O -0.3031(3) 0.6097(3) 0.4009(2)
O6A* O 0.6969(3) 0.6097(3) 0.4009(2)
H1A H -0.22590 0.59880 0.40980
H1A* H 0.77410 0.59880 0.40980
O7* O -1.3088(3) 0.5793(3) 0.1911(3)
O7** O 0.6912(3) 0.5793(3) 0.1911(3)
O8* O -1.4264(3) 0.4438(3) 0.0888(3)
O8** O 0.5736(3) 0.4438(3) 0.0888(3)
O9* O -0.6913(3) 0.3097(3) 0.2782(2)
O9A O 0.6913(3) 0.6903(3) 0.7218(2)
O10* O -0.5885(4) 0.3574(3) 0.1819(3)
O11A O -0.1958(3) -0.2596(2) 0.5839(2)
O11A* O 0.8042(3) 0.7404(2) 0.5839(2)
O12A O 0.2366(3) 0.0556(3) 0.8141(3)
O13A O -0.0446(3) -0.3738(3) 0.4034(3)
O14A O 0.3958(3) -0.0490(3) 0.6330(3)
O15A O -0.0636(3) -0.2604(3) 0.2019(3)
O16A O 0.3476(3) 0.0481(3) 0.4418(2)
N1A N -0.1332(3) -0.1272(3) 0.7333(3)
N2A N -0.0030(4) -0.2478(3) 0.6769(3)
N3A N 0.1713(4) -0.1176(3) 0.7632(3)
N4A N 0.0386(3) 0.0025(3) 0.8183(3)
N5A N 0.1096(3) -0.3192(3) 0.5417(3)
N6A N 0.1519(4) -0.3165(3) 0.3997(3)
N7A N 0.3222(4) -0.1864(3) 0.4891(3)
N8A N 0.2859(4) -0.1928(3) 0.6312(3)
N9A N 0.1444(4) -0.2487(3) 0.2668(3)
N10A N 0.0795(3) -0.1533(3) 0.1763(3)
N11A N 0.2397(4) -0.0208(3) 0.2826(3)
N12A N 0.3269(4) -0.1293(3) 0.3521(3)
C1* C -1.3429(5) 0.5139(4) 0.1043(4)
C2* C -1.2795(5) 0.5154(5) 0.0208(4)
H2* H -1.34080 0.50690 -0.03710
H3* H -1.23340 0.58190 0.03940
C3* C -1.1909(5) 0.4266(4) -0.0036(4)
H4* H -1.15650 0.42450 -0.06120
H5* H -1.23750 0.36080 -0.02010
C4* C -1.0849(5) 0.4389(4) 0.0815(4)
H6* H -1.11930 0.44040 0.13890
H7* H -1.03880 0.50500 0.09840
C5* C -0.9972(4) 0.3528(4) 0.0579(4)
H8* H -1.04130 0.28750 0.04770
H9* H -0.96900 0.34650 -0.00320
C6* C -0.8860(5) 0.3714(4) 0.1387(4)
H10* H -0.84330 0.43740 0.14930
H11* H -0.91480 0.37720 0.19940
C7* C -0.7933(5) 0.2862(4) 0.1171(4)
H12* H -0.76820 0.27570 0.05410
H13* H -0.83220 0.22110 0.11340
C8* C -0.6827(4) 0.3170(4) 0.1967(3)
C9A C -0.1181(4) -0.2151(4) 0.6581(4)
C10A C -0.0245(4) -0.0938(4) 0.8097(3)
H14A H -0.04300 -0.09170 0.87350
C11A C 0.0672(4) -0.1782(4) 0.7699(3)
H15A H 0.09110 -0.21480 0.81550
C12A C 0.1580(4) -0.0129(4) 0.8000(3)
C13A C 0.0413(4) -0.3409(4) 0.6092(4)
H16A H -0.02880 -0.38920 0.57170
H17A H 0.09380 -0.37430 0.64710
C14A C 0.2858(4) -0.1600(4) 0.7363(4)
H18A H 0.35330 -0.10790 0.77120
H19A H 0.29990 -0.21920 0.75680
C15A C 0.0615(4) -0.3405(4) 0.4440(4)
C16A C 0.2433(4) -0.2963(4) 0.5625(3)
H20A H 0.28740 -0.35010 0.58080
C17A C 0.2719(4) -0.2930(3) 0.4637(3)
H21A H 0.33110 -0.34400 0.43670
C18A C 0.3405(4) -0.1340(4) 0.5893(4)
C19A C 0.1402(5) -0.3403(4) 0.2944(3)
H22A H 0.20630 -0.38340 0.27020
H23A H 0.06250 -0.38050 0.26210
C20A C 0.3975(4) -0.1607(4) 0.4275(4)
H24A H 0.45800 -0.10470 0.46880
H25A H 0.44200 -0.22080 0.39600
C21A C 0.0423(5) -0.2233(4) 0.2150(3)
C22A C 0.2594(4) -0.1989(4) 0.2605(4)
H26A H 0.31210 -0.24970 0.22280
C23A C 0.2113(4) -0.1227(4) 0.2068(3)
H27A H 0.25240 -0.13060 0.15020
C24A C 0.3095(4) -0.0258(4) 0.3676(3)
C25A C 0.0050(4) 0.1051(4) 0.8773(4)
H28A H -0.03200 0.09910 0.93110
H29A H 0.07980 0.15050 0.90620
C26A C -0.2471(4) -0.0737(4) 0.7381(4)
H30A H -0.31330 -0.12030 0.69100
H31A H -0.26800 -0.05710 0.80340
#END
