
#######################################################################
#
#                 Cambridge Crystallographic Data Centre
#                                CCDC
#
#######################################################################
#
# If this CIF has been generated from an entry in the Cambridge
# Structural Database, then it will include bibliographic, chemical,
# crystal, experimental, refinement or atomic coordinate data resulting
# from the CCDC's data processing and validation procedures.
#
#######################################################################

data_CSD_CIF_AWEBOU
_audit_creation_date 2011-10-27
_audit_creation_method CSD-ConQuest-V1
_database_code_CSD AWEBOU
_database_code_depnum_ccdc_archive 'CCDC 839616'
_chemical_formula_sum 'C70 H104 N34 O46 U4'
_chemical_formula_moiety
;
(C2 H8 N1 1+)2n,n(C18 H24 O22 U4 2-),n(C48 H48 N32 O16),8n(H2 O1)
;
_journal_coden_Cambridge 1147
_journal_volume 11
_journal_year 2011
_journal_page_first 2606
_journal_name_full 'Cryst.Growth Des. '
loop_
_publ_author_name
"P.Thuery"
_chemical_name_systematic
;
catena-(bis(Dimethylammonium) 
bis((\m~4~-hexane-1,6-dicarboxylato)-(\m~3~-oxo))-(\m~2~-hexane-1,6-dicarboxyl
ato)-octaoxo-tetra-uranium cucurbit(8)uril octahydrate)
;
_cell_volume   5311.690
_exptl_crystal_colour 'light yellow'
_exptl_crystal_density_diffrn 1.944
_exptl_crystal_description 'platelet'
_diffrn_ambient_temperature 150
_refine_special_details
;
Two water solvent molecules are disordered over two sites with occupancies of 
0.60:0.40 and 0.513:0.487.
;
#These two values have been output from a single CSD field.
_refine_ls_R_factor_gt 0.0464
_refine_ls_wR_factor_gt 0.0464
_symmetry_cell_setting monoclinic
_symmetry_space_group_name_H-M 'P 21/c'
_symmetry_Int_Tables_number 14
loop_
_symmetry_equiv_pos_site_id
_symmetry_equiv_pos_as_xyz
1 x,y,z
2 -x,1/2+y,1/2-z
3 -x,-y,-z
4 x,-1/2-y,-1/2+z
_cell_length_a 19.8332(19)
_cell_length_b 17.3585(13)
_cell_length_c 16.4723(13)
_cell_angle_alpha 90
_cell_angle_beta 110.505(5)
_cell_angle_gamma 90
_cell_formula_units_Z 2
loop_
_atom_type_symbol
_atom_type_radius_bond
C 0.68
H 0.23
N 0.68
O 0.74
U 1.45
loop_
_atom_site_label
_atom_site_type_symbol
_atom_site_fract_x
_atom_site_fract_y
_atom_site_fract_z
U1 U 0.056692(18) 0.982610(18) 0.433691(19)
U2 U 0.007476(18) 0.800255(17) 0.53903(2)
O1 O -0.0208(3) 0.9743(4) 0.3370(3)
O2 O 0.1377(3) 0.9894(3) 0.5238(4)
O3 O -0.0719(3) 0.7772(3) 0.4506(4)
O4 O 0.0855(3) 0.8167(3) 0.6309(4)
O5 O 0.0654(3) 0.8333(3) 0.4374(3)
O6 O 0.1171(3) 0.8970(3) 0.3604(4)
O7 O -0.1057(4) 0.5591(4) 0.1578(4)
O8 O -0.0665(4) 0.6636(4) 0.1143(4)
O9 O 0.0666(3) 0.6762(3) 0.5275(4)
O10 O -0.0044(3) 0.6696(3) 0.6011(4)
O11 O -0.0032(3) 0.9256(3) 0.5145(3)
C1 C 0.0937(5) 0.8337(5) 0.3773(5)
C2 C 0.0965(5) 0.7625(5) 0.3287(6)
H1 H 0.14210 0.73710 0.35830
H2 H 0.09610 0.77730 0.27180
C3 C 0.0371(5) 0.7047(5) 0.3169(6)
H3 H 0.04120 0.68440 0.37330
H4 H 0.04390 0.66210 0.28240
C4 C -0.0389(5) 0.7370(5) 0.2733(5)
H5 H -0.05100 0.76990 0.31390
H6 H -0.04030 0.76830 0.22390
C5 C -0.0940(5) 0.6733(5) 0.2433(5)
H7 H -0.08790 0.63840 0.29130
H8 H -0.14170 0.69560 0.22710
C6 C -0.0890(5) 0.6279(6) 0.1678(6)
C7 C 0.0432(4) 0.6427(3) 0.5768(5)
C8 C 0.0616(4) 0.5589(3) 0.6014(5)
H9 H 0.10650 0.54560 0.59390
H10 H 0.06740 0.55110 0.66180
C9 C 0.0016(6) 0.5073(3) 0.5446(7)
H11 H 0.00550 0.45800 0.57350
H12 H -0.04390 0.53000 0.54160
O12 O 0.5981(4) 0.8319(4) 0.4880(4)
O13 O 0.6742(4) 0.5792(4) 0.2655(4)
O14 O 0.4077(4) 0.8149(4) 0.3636(4)
O15 O 0.4745(3) 0.5513(4) 0.1533(4)
O16 O 0.2518(3) 0.6680(3) 0.3981(4)
O17 O 0.2993(3) 0.4213(3) 0.1551(4)
O18 O 0.2124(3) 0.5156(3) 0.5357(4)
O19 O 0.2714(3) 0.2709(3) 0.3026(4)
N1 N 0.6888(4) 0.7693(4) 0.4566(5)
N2 N 0.5885(4) 0.7979(4) 0.3477(5)
N3 N 0.6170(4) 0.6958(4) 0.2627(4)
N4 N 0.7219(4) 0.6749(4) 0.3663(5)
N5 N 0.4615(4) 0.7883(4) 0.2639(5)
N6 N 0.3582(4) 0.7301(4) 0.2495(4)
N7 N 0.3819(4) 0.6292(4) 0.1612(5)
N8 N 0.4903(4) 0.6814(4) 0.1851(5)
N9 N 0.2612(4) 0.6519(4) 0.2632(4)
N10 N 0.1944(4) 0.5697(4) 0.3051(4)
N11 N 0.2189(4) 0.4685(4) 0.2153(4)
N12 N 0.2847(4) 0.5521(4) 0.1726(4)
N13 N 0.1744(4) 0.4674(4) 0.3952(4)
N14 N 0.1948(4) 0.3857(4) 0.5041(4)
N15 N 0.2280(4) 0.2916(4) 0.4146(5)
N16 N 0.1908(4) 0.3677(4) 0.2993(4)
C10 C 0.6215(5) 0.8020(5) 0.4357(6)
C11 C 0.7065(5) 0.7545(5) 0.3794(5)
H13 H 0.74530 0.78850 0.37700
C12 C 0.6355(5) 0.7710(5) 0.3034(5)
H14 H 0.64190 0.80970 0.26330
C13 C 0.6708(5) 0.6432(5) 0.2944(6)
C14 C 0.5214(5) 0.8398(5) 0.3006(6)
H15 H 0.51050 0.87500 0.34010
H16 H 0.52820 0.87010 0.25470
C15 C 0.5603(5) 0.6885(6) 0.1778(6)
H17 H 0.56100 0.73340 0.14300
H18 H 0.56960 0.64350 0.14850
C16 C 0.4081(5) 0.7805(5) 0.2978(6)
C17 C 0.4449(5) 0.7485(5) 0.1828(6)
H19 H 0.44230 0.78370 0.13520
C18 C 0.3700(5) 0.7104(5) 0.1703(6)
H20 H 0.33190 0.73090 0.11920
C19 C 0.4501(5) 0.6143(6) 0.1644(5)
C20 C 0.2857(5) 0.7290(5) 0.2528(6)
H21 H 0.28460 0.76090 0.30070
H22 H 0.25270 0.75130 0.19970
C21 C 0.3241(5) 0.5777(5) 0.1176(6)
H23 H 0.34350 0.53300 0.09780
H24 H 0.29100 0.60330 0.06690
C22 C 0.2380(4) 0.6329(5) 0.3293(5)
C23 C 0.2325(5) 0.6014(4) 0.1896(5)
H25 H 0.20410 0.63000 0.13760
C24 C 0.1843(5) 0.5430(5) 0.2176(5)
H26 H 0.13380 0.54440 0.17920
C25 C 0.2708(5) 0.4743(5) 0.1786(5)
C26 C 0.1507(5) 0.5414(5) 0.3515(5)
H27 H 0.10170 0.53590 0.31140
H28 H 0.15030 0.57940 0.39460
C27 C 0.1811(5) 0.3980(5) 0.2138(5)
H29 H 0.19750 0.35980 0.18190
H30 H 0.13020 0.40640 0.18300
C28 C 0.1966(5) 0.4630(5) 0.4852(6)
C29 C 0.1505(5) 0.3951(5) 0.3526(5)
H31 H 0.09850 0.39540 0.32010
C30 C 0.1707(5) 0.3361(5) 0.4286(5)
H32 H 0.12970 0.30380 0.42730
C31 C 0.2331(5) 0.3070(5) 0.3344(6)
C32 C 0.7933(5) 0.6406(5) 0.4078(5)
H33 H 0.82980 0.67840 0.40930
H34 H 0.79870 0.59730 0.37330
C33 C 0.7445(5) 0.7810(5) 0.5396(6)
H35 H 0.78410 0.80880 0.53140
H36 H 0.72570 0.81260 0.57540
O20 O 0.2146(4) 0.7012(4) 0.5486(4)
H37 H 0.16290 0.69190 0.52840
H38 H 0.23360 0.70350 0.50610
O21 O 0.6931(5) 0.4027(4) 0.3128(5)
H39 H 0.72370 0.43900 0.35050
H40 H 0.65130 0.41120 0.32910
O22 O 0.3340(19) 0.7994(17) 0.4758(16)
O23 O 0.5747(10) 0.9268(11) 0.0061(12)
N17 N 0.6533(5) 0.4673(5) 0.1403(5)
H41 H 0.65390 0.49510 0.18190
H42 H 0.64580 0.41580 0.15590
C34 C 0.7232(8) 0.4638(10) 0.1320(9)
H43 H 0.72320 0.42430 0.09120
H44 H 0.75890 0.45220 0.18740
H45 H 0.73400 0.51260 0.11190
C35 C 0.5974(7) 0.4838(6) 0.0612(7)
H46 H 0.60490 0.53400 0.04140
H47 H 0.55200 0.48260 0.06970
H48 H 0.59750 0.44600 0.01870
O24? O 0.363(3) 0.772(3) 0.4930(19)
O25? O 0.5333(8) 0.8829(9) 0.1048(9)
U1A U -0.056692(18) 1.482610(18) 0.066309(19)
U1A* U -0.056692(18) 0.482610(18) 0.066309(19)
U1B U -0.056692(18) 1.017390(18) 0.566309(19)
U2A U -0.007476(18) 1.300255(17) -0.03903(2)
U2C U 0.007476(18) 0.699745(17) 0.03903(2)
U2B U -0.007476(18) 0.199745(17) 0.46097(2)
U2B* U -0.007476(18) 1.199745(17) 0.46097(2)
O1A O 0.0208(3) 1.4743(4) 0.1630(3)
O2A O -0.1377(3) 1.4894(3) -0.0238(4)
O3A O 0.0719(3) 1.2772(3) 0.0494(4)
O4A O -0.0855(3) 1.3167(3) -0.1309(4)
O5A O -0.0654(3) 1.3333(3) 0.0626(3)
O6A O -0.1171(3) 1.3970(3) 0.1396(4)
O7A O 0.1057(4) 1.0591(4) 0.3422(4)
O7* O -0.1057(4) 1.5591(4) 0.1578(4)
O8A O 0.0665(4) 1.1636(4) 0.3857(4)
O8C O -0.0665(4) 0.8364(4) 0.6143(4)
O8B O 0.0665(4) 1.3364(4) -0.1143(4)
O9B O -0.0666(3) 0.3238(3) 0.4725(4)
O9A O -0.0666(3) 1.1762(3) -0.0275(4)
O10B O 0.0044(3) 0.3304(3) 0.3989(4)
O10A O 0.0044(3) 1.1696(3) -0.1011(4)
O11B O 0.0032(3) 1.0744(3) 0.4855(3)
O11A O 0.0032(3) 1.4256(3) -0.0145(3)
O11C O -0.0032(3) 1.5744(3) 0.0145(3)
C1A C -0.0937(5) 1.3337(5) 0.1227(5)
C2A C -0.0965(5) 1.2625(5) 0.1713(6)
H1A H -0.14210 1.23710 0.14170
H2A H -0.09610 1.27730 0.22820
C3A C -0.0371(5) 1.2047(5) 0.1831(6)
H3A H -0.04120 1.18440 0.12670
H4A H -0.04390 1.16210 0.21760
C4A C 0.0389(5) 1.2370(5) 0.2267(5)
H5A H 0.05100 1.26990 0.18610
H6A H 0.04030 1.26830 0.27610
C5A C 0.0940(5) 1.1733(5) 0.2567(5)
H7A H 0.08790 1.13840 0.20870
H8A H 0.14170 1.19560 0.27290
C6A C 0.0890(5) 1.1279(6) 0.3322(6)
C7B C -0.0432(4) 0.3573(3) 0.4232(5)
C8B C -0.0616(4) 0.4411(3) 0.3986(5)
H9B H -0.10650 0.45440 0.40610
H10B H -0.06740 0.44890 0.33820
C9B C -0.0016(6) 0.4927(3) 0.4554(7)
H11B H -0.00550 0.54200 0.42650
H12B H 0.04390 0.47000 0.45840
O12B O 0.4019(4) 0.1681(4) 0.5120(4)
O13B O 0.3258(4) 0.4208(4) 0.7345(4)
O14B O 0.5923(4) 0.1851(4) 0.6364(4)
O15B O 0.5255(3) 0.4487(4) 0.8467(4)
O16B O 0.7482(3) 0.3320(3) 0.6019(4)
O17B O 0.7007(3) 0.5787(3) 0.8449(4)
O18B O 0.7876(3) 0.4844(3) 0.4643(4)
O19B O 0.7286(3) 0.7291(3) 0.6974(4)
N1B N 0.3112(4) 0.2307(4) 0.5434(5)
N2B N 0.4115(4) 0.2021(4) 0.6523(5)
N3B N 0.3830(4) 0.3042(4) 0.7373(4)
N4B N 0.2781(4) 0.3251(4) 0.6337(5)
N5B N 0.5385(4) 0.2117(4) 0.7361(5)
N6B N 0.6418(4) 0.2699(4) 0.7505(4)
N7B N 0.6181(4) 0.3708(4) 0.8388(5)
N8B N 0.5097(4) 0.3186(4) 0.8149(5)
N9B N 0.7388(4) 0.3481(4) 0.7368(4)
N10B N 0.8056(4) 0.4303(4) 0.6949(4)
N11B N 0.7811(4) 0.5315(4) 0.7847(4)
N12B N 0.7153(4) 0.4479(4) 0.8274(4)
N13B N 0.8256(4) 0.5326(4) 0.6048(4)
N14B N 0.8052(4) 0.6143(4) 0.4959(4)
N15B N 0.7720(4) 0.7084(4) 0.5854(5)
N16B N 0.8092(4) 0.6323(4) 0.7007(4)
C10B C 0.3785(5) 0.1980(5) 0.5643(6)
C11B C 0.2935(5) 0.2455(5) 0.6206(5)
H13B H 0.25470 0.21150 0.62300
C12B C 0.3645(5) 0.2290(5) 0.6966(5)
H14B H 0.35810 0.19030 0.73670
C13B C 0.3292(5) 0.3568(5) 0.7056(6)
C14B C 0.4786(5) 0.1602(5) 0.6994(6)
H15B H 0.48950 0.12500 0.65990
H16B H 0.47180 0.12990 0.74530
C15B C 0.4397(5) 0.3115(6) 0.8222(6)
H17B H 0.43900 0.26660 0.85700
H18B H 0.43040 0.35650 0.85150
C16B C 0.5919(5) 0.2195(5) 0.7022(6)
C17B C 0.5551(5) 0.2515(5) 0.8172(6)
H19B H 0.55770 0.21630 0.86480
C18B C 0.6300(5) 0.2896(5) 0.8297(6)
H20B H 0.66810 0.26910 0.88080
C19B C 0.5499(5) 0.3857(6) 0.8356(5)
C20B C 0.7143(5) 0.2710(5) 0.7472(6)
H21B H 0.71540 0.23910 0.69930
H22B H 0.74730 0.24870 0.80030
C21B C 0.6759(5) 0.4223(5) 0.8824(6)
H23B H 0.65650 0.46700 0.90220
H24B H 0.70900 0.39670 0.93310
C22B C 0.7620(4) 0.3671(5) 0.6707(5)
C23B C 0.7675(5) 0.3986(4) 0.8104(5)
H25B H 0.79590 0.37000 0.86240
C24B C 0.8157(5) 0.4570(5) 0.7824(5)
H26B H 0.86620 0.45560 0.82080
C25B C 0.7292(5) 0.5257(5) 0.8214(5)
C26B C 0.8493(5) 0.4586(5) 0.6485(5)
H27B H 0.89830 0.46410 0.68860
H28B H 0.84970 0.42060 0.60540
C27B C 0.8189(5) 0.6020(5) 0.7862(5)
H29B H 0.80250 0.64020 0.81810
H30B H 0.86980 0.59360 0.81700
C28B C 0.8034(5) 0.5370(5) 0.5148(6)
C29B C 0.8495(5) 0.6049(5) 0.6474(5)
H31B H 0.90150 0.60460 0.67990
C30B C 0.8293(5) 0.6639(5) 0.5714(5)
H32B H 0.87030 0.69620 0.57270
C31B C 0.7669(5) 0.6930(5) 0.6656(6)
C32B C 0.2067(5) 0.3594(5) 0.5922(5)
H33B H 0.17020 0.32160 0.59070
H34B H 0.20130 0.40270 0.62670
C33B C 0.2555(5) 0.2190(5) 0.4604(6)
H35B H 0.21590 0.19120 0.46860
H36B H 0.27430 0.18740 0.42460
#END
