
#######################################################################
#
#                 Cambridge Crystallographic Data Centre
#                                CCDC
#
#######################################################################
#
# If this CIF has been generated from an entry in the Cambridge
# Structural Database, then it will include bibliographic, chemical,
# crystal, experimental, refinement or atomic coordinate data resulting
# from the CCDC's data processing and validation procedures.
#
#######################################################################

data_CSD_CIF_AWIQIG
_audit_creation_date 2004-08-19
_audit_creation_method CSD-ConQuest-V1
_database_code_CSD AWIQIG
_database_code_depnum_ccdc_archive 'CCDC 199013'
_chemical_formula_sum 'C28 H30 Fe2 K1 N12 O7 Tb1'
_chemical_formula_moiety
;
(C28 H24 Fe2 N12 O4 Tb1 1-)n,n(K1 1+),3n(H2 O1)
;
_journal_coden_Cambridge 369
_journal_volume 29
_journal_year 2004
_journal_page_first 144
_journal_name_full 'Transition Met.Chem. '
loop_
_publ_author_name
"Qi-Hua Zhao"
"Qing-Hua Wang"
"Rui-Bin Fang"
_chemical_name_systematic
;
catena-(Potassium 
tetrakis(\m~2~-cyano)-bis(\m~2~-2,2'-bipyridine)-tetra-aqua-tetracyano-di-iron
(ii)-terbium(iii) trihydrate)
;
_cell_volume   4073.114
_exptl_crystal_colour 'red'
_exptl_crystal_density_diffrn 1.56
_diffrn_ambient_temperature 293
#These two values have been output from a single CSD field.
_refine_ls_R_factor_gt 0.0656
_refine_ls_wR_factor_gt 0.0656
_symmetry_cell_setting monoclinic
_symmetry_space_group_name_H-M 'C 2/c'
_symmetry_Int_Tables_number 15
loop_
_symmetry_equiv_pos_site_id
_symmetry_equiv_pos_as_xyz
1 x,y,z
2 1/2+x,1/2+y,z
3 x,-y,1/2+z
4 1/2+x,1/2-y,1/2+z
5 -x,-y,-z
6 -1/2-x,-1/2-y,-z
7 -x,y,-1/2-z
8 -1/2-x,-1/2+y,-1/2-z
_cell_length_a 30.435(19)
_cell_length_b 10.209(6)
_cell_length_c 13.753(8)
_cell_angle_alpha 90
_cell_angle_beta 107.603(13)
_cell_angle_gamma 90
_cell_formula_units_Z 4
loop_
_atom_type_symbol
_atom_type_radius_bond
C 0.68
H 0.23
Fe 1.34
K 1.33
N 0.68
O 0.68
Tb 1.76
loop_
_atom_site_label
_atom_site_type_symbol
_atom_site_fract_x
_atom_site_fract_y
_atom_site_fract_z
Tb1 Tb 0.50000 0.08794(9) 0.75000
Fe1 Fe 0.37110(6) 0.11943(16) 0.93048(13)
N1 N 0.3159(3) 0.1000(8) 0.9755(7)
N2 N 0.3235(3) 0.1820(8) 0.8076(6)
N3 N 0.3886(5) 0.4002(13) 1.011(1)
N4 N 0.3652(4) -0.1565(14) 0.8443(11)
N5 N 0.4521(6) 0.1278(18) 0.8505(16)
N6 N 0.4406(4) -0.0122(15) 0.6203(12)
O1 O 0.4618(4) 0.2757(13) 0.6646(12)
O2 O 0.5313(6) -0.1164(13) 0.6819(12)
C1 C 0.3340(6) 0.2361(12) 0.725(1)
H1 H 0.36440 0.24010 0.72440
C2 C 0.2991(8) 0.2841(15) 0.6437(12)
H2 H 0.30550 0.32050 0.58740
C3 C 0.2525(8) 0.2762(15) 0.6483(11)
H3 H 0.22820 0.30550 0.59370
C4 C 0.2443(5) 0.2268(12) 0.7311(10)
H4 H 0.21420 0.22450 0.73430
C5 C 0.2796(4) 0.1792(10) 0.8121(8)
C6 C 0.2744(4) 0.1288(10) 0.9074(9)
C7 C 0.2343(4) 0.1086(11) 0.9262(11)
H5 H 0.20660 0.11770 0.87430
C8 C 0.2342(5) 0.0753(13) 1.0199(14)
H6 H 0.20660 0.07080 1.03580
C9 C 0.2754(8) 0.0475(12) 1.0928(11)
H7 H 0.27590 0.01980 1.15750
C10 C 0.3152(6) 0.0611(12) 1.0691(10)
H8 H 0.34300 0.04310 1.11870
C11 C 0.3824(4) 0.2934(14) 0.9821(9)
C12 C 0.3647(4) -0.0535(14) 0.8758(10)
C13 C 0.4191(7) 0.133(2) 0.8790(19)
C14 C 0.4120(6) -0.0513(16) 0.5459(12)
K1 K 0.3823(4) 0.6754(10) 0.0291(9)
O3 O 0.3819(7) 0.625(2) 0.7282(14)
O4 O 0.4455(8) 0.466(2) 0.8420(17)
O5 O 0.4995(8) 0.681(3) 0.561(2)
N5F N 0.5479(6) 0.1278(18) 0.6495(16)
C13F C 0.5809(7) 0.133(2) 0.6210(19)
N6F N 0.5594(4) -0.0122(15) 0.8797(12)
C14F C 0.5880(6) -0.0513(16) 0.9541(12)
O1F O 0.5382(4) 0.2757(13) 0.8354(12)
O2F O 0.4687(6) -0.1164(13) 0.8181(12)
Fe1F Fe 0.62890(6) 0.11943(16) 0.56952(13)
N1F N 0.6841(3) 0.1000(8) 0.5245(7)
N2F N 0.6765(3) 0.1820(8) 0.6924(6)
C1F C 0.6660(6) 0.2361(12) 0.775(1)
H1F H 0.63560 0.24010 0.77560
C2F C 0.7009(8) 0.2841(15) 0.8563(12)
H2F H 0.69450 0.32050 0.91260
C3F C 0.7475(8) 0.2762(15) 0.8517(11)
H3F H 0.77180 0.30550 0.90630
C4F C 0.7557(5) 0.2268(12) 0.7689(10)
H4F H 0.78580 0.22450 0.76570
C5F C 0.7204(4) 0.1792(10) 0.6879(8)
C6F C 0.7256(4) 0.1288(10) 0.5926(9)
C7F C 0.7657(4) 0.1086(11) 0.5738(11)
H5F H 0.79340 0.11770 0.62570
C8F C 0.7658(5) 0.0753(13) 0.4801(14)
H6F H 0.79340 0.07080 0.46420
C9F C 0.7246(8) 0.0475(12) 0.4072(11)
H7F H 0.72410 0.01980 0.34250
C10F C 0.6848(6) 0.0611(12) 0.4309(10)
H8F H 0.65700 0.04310 0.38130
N3F N 0.6114(5) 0.4002(13) 0.489(1)
C11F C 0.6176(4) 0.2934(14) 0.5179(9)
N4F N 0.6348(4) -0.1565(14) 0.6557(11)
C12F C 0.6353(4) -0.0535(14) 0.6242(10)
C14B C 0.4120(6) 0.0513(16) 1.0459(12)
Fe1B Fe 0.37110(6) -0.11943(16) 0.43048(13)
Fe1D Fe 0.62890(6) -0.11943(16) 1.06952(13)
C14D C 0.5880(6) 0.0513(16) 0.4541(12)
#END
