
#######################################################################
#
#                 Cambridge Crystallographic Data Centre
#                                CCDC
#
#######################################################################
#
# If this CIF has been generated from an entry in the Cambridge
# Structural Database, then it will include bibliographic, chemical,
# crystal, experimental, refinement or atomic coordinate data resulting
# from the CCDC's data processing and validation procedures.
#
#######################################################################

data_CSD_CIF_AWOREM02
_audit_creation_date 2021-06-20
_audit_creation_method CSD-ConQuest-V1
_database_code_CSD AWOREM02
_database_code_depnum_ccdc_archive 'CCDC 2068844'
_chemical_formula_sum 'C16 H24 N10 Ni1'
_chemical_formula_moiety
;
C10 H24 N1 1+,(C6 N9 Ni1 1-)n
;
_journal_coden_Cambridge 1741
_journal_year 2021
_journal_name_full 'Materials Horizons '
loop_
_publ_author_name
"S.Burger"
"S.Grover"
"K.Butler"
"H.Bostrom"
"R.Grau-Crespo"
"G.Kieslich"
_chemical_name_systematic
;
catena-(N-methyl-tri-n-propylammonium tris(\m-dicyanamide)-nickel)
;
_cell_volume   2959.472
_exptl_crystal_colour 'green'
_exptl_crystal_density_diffrn 1.398
_exptl_special_details
;
appropriate crystal prepared in perfluoroether oil
R3c polymorph

;
_exptl_crystal_description 'block'
_exptl_crystal_preparation 'high entropy crystallisation from water precursor solution at 95 degree C'
_diffrn_ambient_temperature 100
_diffrn_special_details
;
twin

;
#These two values have been output from a single CSD field.
_refine_ls_R_factor_gt 0.0161
_refine_ls_wR_factor_gt 0.0161
_symmetry_cell_setting rhombohedral
_symmetry_space_group_name_H-M 'R 3 c'
_symmetry_Int_Tables_number 161
loop_
_symmetry_equiv_pos_site_id
_symmetry_equiv_pos_as_xyz
1 x,y,z
2 -y,x-y,z
3 -x+y,-x,z
4 -y,-x,1/2+z
5 -x+y,y,1/2+z
6 x,x-y,1/2+z
7 2/3+x,1/3+y,1/3+z
8 2/3-y,1/3+x-y,1/3+z
9 2/3-x+y,1/3-x,1/3+z
10 2/3-y,1/3-x,5/6+z
11 2/3-x+y,1/3+y,5/6+z
12 2/3+x,1/3+x-y,5/6+z
13 1/3+x,2/3+y,2/3+z
14 1/3-y,2/3+x-y,2/3+z
15 1/3-x+y,2/3-x,2/3+z
16 1/3-y,2/3-x,1/6+z
17 1/3-x+y,2/3+y,1/6+z
18 1/3+x,2/3+x-y,1/6+z
_cell_length_a 12.5883(8)
_cell_length_b 12.5883(8)
_cell_length_c 21.565(2)
_cell_angle_alpha 90
_cell_angle_beta 90
_cell_angle_gamma 120
_cell_formula_units_Z 6
loop_
_atom_type_symbol
_atom_type_radius_bond
C 0.68
H 0.23
N 0.68
Ni 1.24
loop_
_atom_site_label
_atom_site_type_symbol
_atom_site_fract_x
_atom_site_fract_y
_atom_site_fract_z
Ni1 Ni 0.33333 0.66667 0.64236(2)
N1 N 0.13381(13) 0.14240(13) 0.52872(7)
N2 N 0.32016(13) 0.52634(12) 0.58732(7)
N3 N 0.31141(13) 0.35169(13) 0.53177(7)
C1 C 0.21371(14) 0.24231(14) 0.53160(7)
C2 C 0.30977(13) 0.44086(14) 0.56242(7)
N4 N 0.66667 0.33333 0.54854(10)
C3 C 0.66667 0.33333 0.61837(14)
C4 C 0.70749(15) 0.55407(14) 0.53728(8)
H1 H 0.77899 0.58635 0.50905
H2 H 0.73800 0.56560 0.58047
C5 C 0.62212(14) 0.41801(14) 0.52464(8)
H3 H 0.54148 0.39314 0.54373
H4 H 0.60944 0.40611 0.47930
C6 C 0.63893(16) 0.62429(15) 0.52736(9)
H5 H 0.60219 0.60642 0.48588
H6 H 0.69641 0.71252 0.53119
H7 H 0.57422 0.59895 0.55863
H8 H 0.728(2) 0.408(3) 0.6336(13)
N1A N 0.85760(13) 0.99141(13) 0.52872(7)
N2A N 0.47366(13) 0.79382(12) 0.58732(7)
N3A N 0.64831(13) 0.95972(13) 0.53177(7)
C1A C 0.75769(14) 0.97140(14) 0.53160(7)
C2A C 0.55914(13) 0.86891(14) 0.56242(7)
N1B N 0.00859(13) 0.86619(13) 0.52872(7)
N2B N 0.20618(13) 0.67984(12) 0.58732(7)
N3B N 0.04028(13) 0.68859(13) 0.53177(7)
C1B C 0.02860(14) 0.78629(14) 0.53160(7)
C2B C 0.13109(13) 0.69023(14) 0.56242(7)
Ni1I Ni -0.00000 0.00000 0.475693(20)
Ni1I* Ni -0.00000 1.00000 0.475693(20)
Ni1I** Ni 1.00000 1.00000 0.475693(20)
N1O N 0.190933(130) 0.532857(130) 0.695387(70)
N1P N 0.341923(130) 0.809067(130) 0.695387(70)
N1Q N 0.467143(130) 0.658077(130) 0.695387(70)
C4A C 0.44593(15) 0.15342(14) 0.53728(8)
H1A H 0.41365 0.19263 0.50905
H2A H 0.43440 0.17240 0.58047
C5A C 0.58199(14) 0.20411(14) 0.52464(8)
H3A H 0.60686 0.14834 0.54373
H4A H 0.59389 0.20333 0.47930
C6A C 0.37571(16) 0.01464(15) 0.52736(9)
H5A H 0.39358 -0.00423 0.48588
H6A H 0.28748 -0.01612 0.53119
H7A H 0.40105 -0.02473 0.55863
H8A H 0.592(2) 0.320(3) 0.6336(13)
C4B C 0.84658(15) 0.29251(14) 0.53728(8)
H1B H 0.80737 0.22101 0.50905
H2B H 0.82760 0.26200 0.58047
C5B C 0.79589(14) 0.37788(14) 0.52464(8)
H3B H 0.85166 0.45852 0.54373
H4B H 0.79667 0.39056 0.47930
C6B C 0.98536(16) 0.36107(15) 0.52736(9)
H5B H 1.00423 0.39781 0.48588
H6B H 1.01612 0.30359 0.53119
H7B H 1.02473 0.42578 0.55863
H8B H 0.680(2) 0.272(3) 0.6336(13)
#END
