
#######################################################################
#
#                 Cambridge Crystallographic Data Centre
#                                CCDC
#
#######################################################################
#
# If this CIF has been generated from an entry in the Cambridge
# Structural Database, then it will include bibliographic, chemical,
# crystal, experimental, refinement or atomic coordinate data resulting
# from the CCDC's data processing and validation procedures.
#
#######################################################################

data_CSD_CIF_AWOROW01
_audit_creation_date 2021-06-20
_audit_creation_method CSD-ConQuest-V1
_database_code_CSD AWOROW01
_database_code_depnum_ccdc_archive 'CCDC 2068846'
_chemical_formula_sum 'C16 H24 Co1 N10'
_chemical_formula_moiety
;
C10 H24 N1 1+,(C6 Co1 N9 1-)n
;
_journal_coden_Cambridge 1741
_journal_year 2021
_journal_name_full 'Materials Horizons '
loop_
_publ_author_name
"S.Burger"
"S.Grover"
"K.Butler"
"H.Bostrom"
"R.Grau-Crespo"
"G.Kieslich"
_chemical_name_systematic
;
catena-(N-methyl-tri-n-propylammonium tris(\m-dicyanamide)-cobalt)
;
_cell_volume   3004.725
_exptl_crystal_colour 'pink'
_exptl_crystal_density_diffrn 1.377
_exptl_special_details
;
crystal prepared in perfluoro ether oil
R3c polymorph

;
_exptl_crystal_description 'rhombohedral'
_exptl_crystal_preparation 'mild solution approach'
_diffrn_ambient_temperature 100
_diffrn_special_details
;
twin

;
#These two values have been output from a single CSD field.
_refine_ls_R_factor_gt 0.0166
_refine_ls_wR_factor_gt 0.0166
_symmetry_cell_setting rhombohedral
_symmetry_space_group_name_H-M 'R 3 c'
_symmetry_Int_Tables_number 161
loop_
_symmetry_equiv_pos_site_id
_symmetry_equiv_pos_as_xyz
1 x,y,z
2 -y,x-y,z
3 -x+y,-x,z
4 -y,-x,1/2+z
5 -x+y,y,1/2+z
6 x,x-y,1/2+z
7 2/3+x,1/3+y,1/3+z
8 2/3-y,1/3+x-y,1/3+z
9 2/3-x+y,1/3-x,1/3+z
10 2/3-y,1/3-x,5/6+z
11 2/3-x+y,1/3+y,5/6+z
12 2/3+x,1/3+x-y,5/6+z
13 1/3+x,2/3+y,2/3+z
14 1/3-y,2/3+x-y,2/3+z
15 1/3-x+y,2/3-x,2/3+z
16 1/3-y,2/3-x,1/6+z
17 1/3-x+y,2/3+y,1/6+z
18 1/3+x,2/3+x-y,1/6+z
_cell_length_a 12.6783(16)
_cell_length_b 12.6783(16)
_cell_length_c 21.585(5)
_cell_angle_alpha 90
_cell_angle_beta 90
_cell_angle_gamma 120
_cell_formula_units_Z 6
loop_
_atom_type_symbol
_atom_type_radius_bond
C 0.68
H 0.23
Co 1.26
N 0.68
loop_
_atom_site_label
_atom_site_type_symbol
_atom_site_fract_x
_atom_site_fract_y
_atom_site_fract_z
Co1 Co 0.33333 0.66667 0.64219(3)
N1 N 0.13669(15) 0.14341(15) 0.52925(8)
N2 N 0.31372(15) 0.35103(15) 0.53187(9)
N3 N 0.32189(15) 0.52520(14) 0.58616(8)
C1 C 0.21641(17) 0.24250(17) 0.53193(9)
C2 C 0.31187(16) 0.44013(16) 0.56184(9)
N4 N 0.66667 0.33333 0.54899(14)
C3 C 0.62243(16) 0.41766(16) 0.52503(9)
H1 H 0.60988 0.40587 0.47973
H2 H 0.54236 0.39305 0.54408
C4 C 0.70742(17) 0.55277(16) 0.53771(10)
H3 H 0.77849 0.58468 0.50957
H4 H 0.73756 0.56409 0.58088
C5 C 0.66667 0.33333 0.61859(17)
C6 C 0.63976(19) 0.62292(18) 0.52772(11)
H5 H 0.60379 0.60570 0.48617
H6 H 0.69696 0.71045 0.53182
H7 H 0.57514 0.59760 0.55878
H8 H 0.731(3) 0.414(3) 0.6337(14)
N1A N 0.85659(15) 0.99328(15) 0.52925(8)
N2A N 0.64897(15) 0.96269(15) 0.53187(9)
N3A N 0.47480(15) 0.79669(14) 0.58616(8)
C1A C 0.75750(17) 0.97391(17) 0.53193(9)
C2A C 0.55987(16) 0.87174(16) 0.56184(9)
N1B N 0.00672(15) 0.86331(15) 0.52925(8)
N2B N 0.03731(15) 0.68628(15) 0.53187(9)
N3B N 0.20331(15) 0.67811(14) 0.58616(8)
C1B C 0.02609(17) 0.78359(17) 0.53193(9)
C2B C 0.12826(16) 0.68813(16) 0.56184(9)
Co1I Co -0.00000 0.00000 0.475523(30)
Co1I* Co -0.00000 1.00000 0.475523(30)
Co1I** Co 1.00000 1.00000 0.475523(30)
N1O N 0.189923(150) 0.529977(150) 0.695917(80)
N1P N 0.340053(150) 0.810077(150) 0.695917(80)
N1Q N 0.470023(150) 0.659947(150) 0.695917(80)
C3A C 0.58234(16) 0.20477(16) 0.52503(9)
H1A H 0.59413 0.20401 0.47973
H2A H 0.60695 0.14931 0.54408
C4A C 0.44723(17) 0.15465(16) 0.53771(10)
H3A H 0.41532 0.19381 0.50957
H4A H 0.43591 0.17347 0.58088
C6A C 0.37708(19) 0.01684(18) 0.52772(11)
H5A H 0.39430 -0.00190 0.48617
H6A H 0.28955 -0.01349 0.53182
H7A H 0.40240 -0.02246 0.55878
H8A H 0.586(3) 0.317(3) 0.6337(14)
C3B C 0.79523(16) 0.37757(16) 0.52503(9)
H1B H 0.79599 0.39012 0.47973
H2B H 0.85069 0.45764 0.54408
C4B C 0.84535(17) 0.29258(16) 0.53771(10)
H3B H 0.80619 0.22151 0.50957
H4B H 0.82653 0.26244 0.58088
C6B C 0.98316(19) 0.36024(18) 0.52772(11)
H5B H 1.00190 0.39621 0.48617
H6B H 1.01349 0.30304 0.53182
H7B H 1.02246 0.42486 0.55878
H8B H 0.683(3) 0.269(3) 0.6337(14)
#END
