
#######################################################################
#
#                 Cambridge Crystallographic Data Centre
#                                CCDC
#
#######################################################################
#
# If this CIF has been generated from an entry in the Cambridge
# Structural Database, then it will include bibliographic, chemical,
# crystal, experimental, refinement or atomic coordinate data resulting
# from the CCDC's data processing and validation procedures.
#
#######################################################################

data_CSD_CIF_AWOREM03
_audit_creation_date 2021-06-20
_audit_creation_method CSD-ConQuest-V1
_database_code_CSD AWOREM03
_database_code_depnum_ccdc_archive 'CCDC 2068845'
_chemical_formula_sum 'C16 H24 N10 Ni1'
_chemical_formula_moiety
;
(C10 H24 N1 1+)n,n(C6 N9 Ni1 1-)
;
_journal_coden_Cambridge 1741
_journal_year 2021
_journal_name_full 'Materials Horizons '
loop_
_publ_author_name
"S.Burger"
"S.Grover"
"K.Butler"
"H.Bostrom"
"R.Grau-Crespo"
"G.Kieslich"
_chemical_name_systematic
;
catena-(N-methyl-tri-n-propylammonium tris(\m-dicyanamide)-nickel)
;
_cell_volume   3103.524
_exptl_crystal_colour 'green'
_exptl_crystal_density_diffrn 1.333
_exptl_special_details
;
appropriate crystal prepared in perfluoroether oil
R-3c polymorph

;
_exptl_crystal_description 'block'
_exptl_crystal_preparation 'high entropy crystallisation from water precursor solution at 95 degree C'
_diffrn_ambient_temperature 350
_refine_special_details
;
The structure is disordered by symmetry.

;
#These two values have been output from a single CSD field.
_refine_ls_R_factor_gt 0.0234
_refine_ls_wR_factor_gt 0.0234
_symmetry_cell_setting rhombohedral
_symmetry_space_group_name_H-M 'R -3 c'
_symmetry_Int_Tables_number 167
loop_
_symmetry_equiv_pos_site_id
_symmetry_equiv_pos_as_xyz
1 x,y,z
2 -y,x-y,z
3 -x+y,-x,z
4 y,x,1/2-z
5 x-y,-y,1/2-z
6 -x,-x+y,1/2-z
7 2/3+x,1/3+y,1/3+z
8 2/3-y,1/3+x-y,1/3+z
9 2/3-x+y,1/3-x,1/3+z
10 2/3+y,1/3+x,5/6-z
11 2/3+x-y,1/3-y,5/6-z
12 2/3-x,1/3-x+y,5/6-z
13 1/3+x,2/3+y,2/3+z
14 1/3-y,2/3+x-y,2/3+z
15 1/3-x+y,2/3-x,2/3+z
16 1/3+y,2/3+x,1/6-z
17 1/3+x-y,2/3-y,1/6-z
18 1/3-x,2/3-x+y,1/6-z
19 -x,-y,-z
20 y,-x+y,-z
21 x-y,x,-z
22 -y,-x,-1/2+z
23 -x+y,y,-1/2+z
24 x,x-y,-1/2+z
25 -2/3-x,-1/3-y,-1/3-z
26 -2/3+y,-1/3-x+y,-1/3-z
27 -2/3+x-y,-1/3+x,-1/3-z
28 -2/3-y,-1/3-x,-5/6+z
29 -2/3-x+y,-1/3+y,-5/6+z
30 -2/3+x,-1/3+x-y,-5/6+z
31 -1/3-x,-2/3-y,-2/3-z
32 -1/3+y,-2/3-x+y,-2/3-z
33 -1/3+x-y,-2/3+x,-2/3-z
34 -1/3-y,-2/3-x,-1/6+z
35 -1/3-x+y,-2/3+y,-1/6+z
36 -1/3+x,-2/3+x-y,-1/6+z
_cell_length_a 12.5350(3)
_cell_length_b 12.5350(3)
_cell_length_c 22.8074(12)
_cell_angle_alpha 90
_cell_angle_beta 90
_cell_angle_gamma 120
_cell_formula_units_Z 6
loop_
_atom_type_symbol
_atom_type_radius_bond
C 0.68
H 0.23
N 0.68
Ni 1.24
loop_
_atom_site_label
_atom_site_type_symbol
_atom_site_fract_x
_atom_site_fract_y
_atom_site_fract_z
Ni1 Ni 0.66667 0.33333 0.33333
N1 N 0.52306(10) 0.31868(10) 0.38468(6)
C1 C 0.90139(12) 0.36089(11) 0.26661(7)
N2 N 0.9904(14) 0.355(1) 0.2393(5)
N3 N 0.66667 0.33333 0.58333
C2 C 0.4847(6) 0.3744(7) 0.5984(5)
H1 H 0.54532 0.44427 0.57596
H2 H 0.48719 0.40546 0.63760
C3 C 0.5383(7) 0.2945(8) 0.6047(5)
H3 H 0.48285 0.21742 0.58530
H4 H 0.53607 0.27605 0.64617
C4 C 0.3649(16) 0.3493(18) 0.5745(11)
H5 H 0.37678 0.38467 0.53600
H6 H 0.32992 0.38514 0.59968
H7 H 0.31020 0.26197 0.57214
C5 C 0.66667 0.33333 0.6522(6)
H8 H 0.772(5) 0.388(3) 0.654(2)
N4? N 0.364(3) 0.312(3) 0.447(2)
C6? C 0.5725(16) 0.365(2) 0.6049(10)
H9? H 0.52266 0.30663 0.63494
H10? H 0.61503 0.44625 0.62286
C7? C 0.4910(14) 0.3652(18) 0.5587(10)
H11? H 0.54489 0.43686 0.53534
H12? H 0.47511 0.29485 0.53475
C8? C 0.389(2) 0.364(3) 0.5579(14)
H13? H 0.32226 0.28041 0.55666
H14? H 0.38552 0.40738 0.52390
H15? H 0.31164 0.26319 0.57406
N1A N 0.68132(10) 0.20438(10) 0.38468(6)
N1B N 0.79562(10) 0.47694(10) 0.38468(6)
N1X N 0.810273(100) 0.347987(100) 0.281987(60)
N1Y N 0.652013(100) 0.462287(100) 0.281987(60)
N1Z N 0.537713(100) 0.189727(100) 0.281987(60)
C1A C 0.63911(12) 0.54050(11) 0.26661(7)
C1B C 0.45950(12) 0.09861(11) 0.26661(7)
N2A N 0.6450(14) 0.6354(10) 0.2393(5)
N2B N 0.3646(14) 0.0096(10) 0.2393(5)
C1E C 1.09861(12) 0.45950(11) 0.23339(7)
C1D C 0.54050(12) 0.63911(11) 0.23339(7)
C1C C 0.36089(12) -0.09861(11) 0.23339(7)
N1IA N 1.189727(100) 0.537713(100) 0.218013(60)
N1HA N 0.462287(100) 0.652013(100) 0.218013(60)
N1GA N 0.347987(100) -0.189727(100) 0.218013(60)
Ni1C Ni 1.33333 0.66667 0.16667
Ni1C* Ni 0.33333 0.66667 0.16667
Ni1C** Ni 0.33333 -0.33333 0.16667
C2A C 0.6256(6) 0.1103(7) 0.5984(5)
H1A H 0.55573 0.10104 0.57596
H2A H 0.59454 0.08172 0.63760
C3A C 0.7055(7) 0.2438(8) 0.6047(5)
H3A H 0.78258 0.26543 0.58530
H4A H 0.72395 0.26002 0.64617
C4A C 0.6507(16) 0.0156(18) 0.5745(11)
H5A H 0.61533 -0.00789 0.53600
H6A H 0.61486 -0.05522 0.59968
H7A H 0.73803 0.04823 0.57214
H8A H 0.612(5) 0.384(3) 0.654(2)
C2B C 0.8897(6) 0.5153(7) 0.5984(5)
H1B H 0.89896 0.45468 0.57596
H2B H 0.91828 0.51281 0.63760
C3B C 0.7562(7) 0.4617(8) 0.6047(5)
H3B H 0.73457 0.51715 0.58530
H4B H 0.73998 0.46393 0.64617
C4B C 0.9844(16) 0.6351(18) 0.5745(11)
H5B H 1.00789 0.62322 0.53600
H6B H 1.05522 0.67008 0.59968
H7B H 0.95177 0.68980 0.57214
H8B H 0.616(5) 0.228(3) 0.654(2)
C2O C 0.707733(600) 0.151367(700) 0.568267(500)
H1O H 0.77761 0.21198 0.59070
H2O H 0.73880 0.15385 0.52906
C3O C 0.627833(700) 0.204967(800) 0.561967(500)
H3O H 0.55075 0.14952 0.58137
H4O H 0.60938 0.20273 0.52049
C4O C 0.682633(1600) 0.031567(1800) 0.592167(1100)
H5O H 0.71801 0.04345 0.63066
H6O H 0.71847 -0.00341 0.56699
H7O H 0.59531 -0.02313 0.59453
C5O C 0.66667 0.33333 0.514467(600)
H8O H 0.721333(5000) 0.438667(3000) 0.512667(2000)
C2P C 0.443633(600) 0.292267(700) 0.568267(500)
H1P H 0.43438 0.22239 0.59070
H2P H 0.41506 0.26120 0.52906
C3P C 0.577133(700) 0.372167(800) 0.561967(500)
H3P H 0.59876 0.44925 0.58137
H4P H 0.59335 0.39062 0.52049
C4P C 0.348933(1600) 0.317367(1800) 0.592167(1100)
H5P H 0.32545 0.28199 0.63066
H6P H 0.27812 0.28153 0.56699
H7P H 0.38156 0.40469 0.59453
H8P H 0.717333(5000) 0.278667(3000) 0.512667(2000)
C2Q C 0.848633(600) 0.556367(700) 0.568267(500)
H1Q H 0.78802 0.56562 0.59070
H2Q H 0.84615 0.58494 0.52906
C3Q C 0.795033(700) 0.422867(800) 0.561967(500)
H3Q H 0.85048 0.40124 0.58137
H4Q H 0.79727 0.40665 0.52049
C4Q C 0.968433(1600) 0.651067(1800) 0.592167(1100)
H5Q H 0.95655 0.67455 0.63066
H6Q H 1.00341 0.72188 0.56699
H7Q H 1.02313 0.61844 0.59453
H8Q H 0.561333(5000) 0.282667(3000) 0.512667(2000)
#END
