
#######################################################################
#
#                 Cambridge Crystallographic Data Centre
#                                CCDC
#
#######################################################################
#
# If this CIF has been generated from an entry in the Cambridge
# Structural Database, then it will include bibliographic, chemical,
# crystal, experimental, refinement or atomic coordinate data resulting
# from the CCDC's data processing and validation procedures.
#
#######################################################################

data_CSD_CIF_AXEBEL
_audit_creation_date 2011-10-27
_audit_creation_method CSD-ConQuest-V1
_database_code_CSD AXEBEL
_database_code_depnum_ccdc_archive 'CCDC 607662'
_chemical_formula_sum 'C188 H266 Cr12 Ga12 Na8 O107'
_chemical_formula_moiety
;
(C140 H170 Cr12 Ga12 Na6 O95 2-)n,2n(C24 H48 Na1 O6 1+)
;
_journal_coden_Cambridge 1290
_journal_year 2011
_journal_page_first 3480
_journal_name_full 'Eur.J.Inorg.Chem. '
loop_
_publ_author_name
"T.Adamczyk"
"Guang-Ming Li"
"G.Linti"
"H.Pritzkow"
"A.Seifert"
"T.Zessin"
_chemical_name_systematic
;
catena-(pentakis(\m~3~-hydroxo)-tris(\m~3~-oxo)-hexadecakis(\m~2~-carbonyl)-pe
ntakis(\m~2~-hydroxo)-bis(\m~2~-oxo)-icosakis(tetrahydrofuran)-tetratetraconta
carbonyl-dodeca-gallium-dodeca-chromium-hexa-sodium 
bis(hexakis(tetrahydrofuran)-sodium))
;
_cell_volume  26412.206
_exptl_crystal_colour 'colorless'
_exptl_crystal_density_diffrn 1.479
_exptl_special_details
;
Large structure in which program limits have been exceeded. A full set of 
coordinates are available from the deposited CIF
;
_exptl_crystal_description 'needle'
_diffrn_ambient_temperature 200
_refine_special_details
;
C10,C6,C7,C8,C9,Cr2,O10,O6,O7,O8,O9 and C29,C30,C31, 
C32,C33,Cr7,O29,O30,O31,O32,O33 disordered over two sites with occupancies 
0.50:0.50.
;
#These two values have been output from a single CSD field.
_refine_ls_R_factor_gt 0.0685
_refine_ls_wR_factor_gt 0.0685
_symmetry_cell_setting monoclinic
_symmetry_space_group_name_H-M 'C 2/c'
_symmetry_Int_Tables_number 15
loop_
_symmetry_equiv_pos_site_id
_symmetry_equiv_pos_as_xyz
1 x,y,z
2 -x,y,1/2-z
3 1/2+x,1/2+y,z
4 1/2-x,1/2+y,1/2-z
5 -x,-y,-z
6 x,-y,-1/2+z
7 -1/2-x,-1/2-y,-z
8 -1/2+x,-1/2-y,-1/2+z
_cell_length_a 61.085(12)
_cell_length_b 16.012(3)
_cell_length_c 29.312(6)
_cell_angle_alpha 90
_cell_angle_beta 112.89(3)
_cell_angle_gamma 90
_cell_formula_units_Z 4
loop_
_atom_type_symbol
_atom_type_radius_bond
C 0.68
H 0.23
Cr 1.39
Ga 1.20
Na 1.66
O 0.78
loop_
_atom_site_label
_atom_site_type_symbol
_atom_site_fract_x
_atom_site_fract_y
_atom_site_fract_z
Ga1 Ga 0.474285(14) -0.12664(5) 0.26459(3)
Ga2 Ga 0.476151(15) -0.23920(5) 0.16629(4)
Ga3 Ga 0.478055(15) -0.33168(5) 0.26225(4)
Ga4 Ga 0.225410(15) 0.16169(5) 0.02151(4)
Ga5 Ga 0.280083(16) 0.22709(7) 0.07755(4)
Ga6 Ga 0.26389(2) 0.13745(6) -0.03108(5)
O1 O 0.50000 -0.0802(4) 0.25000
H1 H 0.50000 -0.02080 0.25000
O2 O 0.46514(11) -0.1984(5) 0.2124(3)
H2 H 0.45010 -0.22210 0.20740
O3 O 0.49305(11) -0.1990(5) 0.3119(4)
H3 H 0.48470 -0.22240 0.33030
O4 O 0.48672(11) -0.3409(4) 0.2035(3)
O5 O 0.25384(17) 0.1292(7) 0.0220(5)
O6 O 0.2746(2) 0.3595(9) 0.0491(5)
O7 O 0.25079(14) 0.2687(6) 0.0674(4)
O8 O 0.28520(15) 0.2503(6) 0.0230(5)
Cr1 Cr 0.44620(2) -0.03103(7) 0.27931(6)
Cr2 Cr 0.45123(5) -0.20657(18) 0.08516(12)
Cr3 Cr 0.45007(2) -0.41304(8) 0.28331(6)
Cr4 Cr 0.20036(3) 0.0868(1) 0.05487(7)
Cr5 Cr 0.30909(3) 0.19141(10) 0.15929(7)
Cr6 Cr 0.21698(4) 0.46739(10) 0.06249(8)
Na1 Na 0.38596(6) -0.2379(2) 0.15231(17)
Na2 Na 0.39114(6) 0.19894(19) 0.31955(15)
Na3 Na 0.23866(9) 0.2690(3) 0.2114(2)
Na4 Na 0.42559(5) -0.25556(19) 0.51795(14)
O9 O 0.48920(13) 0.0194(4) 0.3692(3)
O10 O 0.46130(13) 0.0975(4) 0.2209(3)
O11 O 0.41291(10) -0.1078(3) 0.1824(2)
O12 O 0.43530(14) -0.1697(4) 0.3372(3)
O13 O 0.41099(11) 0.0800(4) 0.2974(3)
C1 C 0.47271(17) 0.0005(5) 0.3366(4)
C2 C 0.45482(16) 0.0471(5) 0.2437(4)
C3 C 0.42498(14) -0.0788(4) 0.2189(4)
C4 C 0.43984(16) -0.1183(6) 0.3157(4)
C5 C 0.42481(16) 0.0370(5) 0.2903(4)
O14 O 0.4488(3) -0.0338(8) 0.1258(6)
C6 C 0.4478(3) -0.0981(11) 0.1078(8)
O15 O 0.4191(2) -0.2816(9) 0.1301(6)
C7 C 0.4295(4) -0.2463(13) 0.1074(9)
O16 O 0.4957(3) -0.1569(9) 0.0684(8)
C8 C 0.4785(3) -0.1730(12) 0.0759(7)
O17 O 0.4625(3) -0.3855(11) 0.0632(10)
C9 C 0.4584(4) -0.3205(18) 0.0673(11)
O18 O 0.4142(3) -0.1670(14) -0.0140(8)
C10 C 0.4288(4) -0.1864(16) 0.0238(9)
O19 O 0.41465(10) -0.2742(4) 0.2349(3)
O20 O 0.41411(13) -0.4982(5) 0.3142(4)
O21 O 0.43864(15) -0.4930(4) 0.1831(4)
O22 O 0.48720(17) -0.5482(5) 0.3258(5)
O23 O 0.47405(14) -0.3178(5) 0.3787(3)
C11 C 0.42855(15) -0.3270(5) 0.2543(4)
C12 C 0.42811(17) -0.4665(6) 0.3019(4)
C13 C 0.44164(19) -0.4631(6) 0.2219(6)
C14 C 0.47276(19) -0.4974(6) 0.3106(5)
C15 C 0.46455(17) -0.3538(6) 0.3414(5)
O24 O 0.16259(14) 0.1761(7) -0.0283(5)
O25 O 0.16721(14) -0.0030(6) 0.0906(4)
O26 O 0.24495(15) 0.0096(5) 0.1288(4)
O27 O 0.19950(19) -0.0482(6) -0.0154(4)
O28 O 0.21062(15) 0.2277(5) 0.1297(3)
O29 O 0.34786(12) 0.1644(4) 0.2580(3)
O30 O 0.26678(13) 0.1949(4) 0.1875(3)
O31 O 0.31283(15) 0.3764(5) 0.1710(4)
O32 O 0.34177(13) 0.1815(6) 0.1044(4)
O33 O 0.29753(15) 0.0060(5) 0.1375(5)
O34 O 0.17686(15) 0.3491(6) 0.0474(5)
O35 O 0.2613(2) 0.5633(6) 0.0750(5)
O36 O 0.1954(2) 0.5985(6) 0.1048(6)
O37 O 0.1907(2) 0.5142(8) -0.0439(5)
O38 O 0.24506(17) 0.3852(5) 0.1591(3)
C16 C 0.17623(19) 0.1417(9) 0.0063(6)
C17 C 0.18006(18) 0.0321(7) 0.0781(5)
C18 C 0.22793(16) 0.0393(6) 0.1016(4)
C19 C 0.1989(2) 0.0051(8) 0.0110(5)
C20 C 0.20668(19) 0.1745(7) 0.1000(5)
C21 C 0.33238(17) 0.1731(6) 0.2197(4)
C22 C 0.28366(18) 0.1906(6) 0.1782(4)
C23 C 0.31232(19) 0.2962(9) 0.1671(5)
C24 C 0.32971(18) 0.1847(9) 0.1265(4)
C25 C 0.30179(17) 0.0764(7) 0.1465(5)
C26 C 0.1917(2) 0.3967(8) 0.0518(8)
C27 C 0.2422(3) 0.5305(9) 0.0665(7)
C28 C 0.2033(3) 0.5449(8) 0.0831(9)
C29 C 0.2007(3) 0.4994(8) -0.0042(6)
C30 C 0.2341(2) 0.4193(8) 0.1218(6)
O39 O 0.36597(12) -0.3579(4) 0.1596(5)
C31 C 0.34161(19) -0.3648(8) 0.1360(11)
H4 H 0.33670 -0.34940 0.10070
H5 H 0.33390 -0.32570 0.15120
C32 C 0.3343(2) -0.4456(8) 0.1394(8)
H6 H 0.32180 -0.44540 0.15300
H7 H 0.32780 -0.47210 0.10630
C33 C 0.35387(19) -0.4885(8) 0.1703(9)
H8 H 0.35570 -0.54170 0.15490
H9 H 0.35250 -0.50090 0.20220
C34 C 0.37311(19) -0.4357(7) 0.1775(8)
H10 H 0.38310 -0.43220 0.21330
H11 H 0.38290 -0.45960 0.16070
O40 O 0.36113(13) -0.1543(4) 0.1756(3)
C35 C 0.3617(3) -0.1522(7) 0.2235(4)
H12 H 0.37520 -0.18610 0.24570
H13 H 0.34680 -0.17640 0.22380
C36 C 0.3642(4) -0.0679(8) 0.2412(5)
H14 H 0.35140 -0.05380 0.25260
H15 H 0.37970 -0.06010 0.26900
C37 C 0.3626(2) -0.0180(6) 0.2011(4)
H16 H 0.37830 0.00680 0.20630
H17 H 0.35100 0.02770 0.19630
C38 C 0.3549(2) -0.0729(6) 0.1592(4)
H18 H 0.33750 -0.06860 0.14120
H19 H 0.36260 -0.05690 0.13620
O41 O 0.36361(11) -0.2203(5) 0.0670(3)
C39 C 0.3408(2) -0.1897(8) 0.0436(6)
H20 H 0.34110 -0.13480 0.02840
H21 H 0.33320 -0.18280 0.06770
C40 C 0.32796(18) -0.2494(10) 0.0062(6)
H22 H 0.32110 -0.29370 0.02020
H23 H 0.31490 -0.22180 -0.02130
C41 C 0.3448(2) -0.2830(11) -0.0103(5)
H24 H 0.34490 -0.25270 -0.03970
H25 H 0.34180 -0.34310 -0.01850
C42 C 0.3663(2) -0.2709(13) 0.0312(5)
H26 H 0.37260 -0.32590 0.04600
H27 H 0.37820 -0.24540 0.02010
O42 O 0.27130(13) 0.3005(7) 0.2855(3)
C43 C 0.2940(2) 0.2663(13) 0.3030(5)
H28 H 0.29330 0.20460 0.30090
H29 H 0.30310 0.28740 0.28390
C44 C 0.3045(2) 0.2931(13) 0.3533(5)
H30 H 0.31330 0.34600 0.35570
H31 H 0.31580 0.25040 0.37370
C45 C 0.2861(3) 0.3048(13) 0.3699(5)
H32 H 0.28050 0.25130 0.37850
H33 H 0.29060 0.34360 0.39830
C46 C 0.2691(3) 0.3403(13) 0.3262(5)
H34 H 0.27200 0.40100 0.32530
H35 H 0.25290 0.33220 0.32540
O43 O 0.22549(19) 0.1602(6) 0.2418(4)
C47 C 0.2135(3) 0.090(1) 0.2170(5)
H36 H 0.20140 0.10500 0.18410
H37 H 0.22470 0.04920 0.21240
C48 C 0.2027(3) 0.0568(14) 0.2485(5)
H38 H 0.19850 -0.00280 0.24120
H39 H 0.18830 0.08860 0.24530
C49 C 0.2204(3) 0.0668(10) 0.2944(5)
H40 H 0.21370 0.07400 0.31980
H41 H 0.23110 0.01770 0.30320
C50 C 0.2329(5) 0.1396(16) 0.2908(5)
H42 H 0.25020 0.12880 0.30490
H43 H 0.22960 0.18600 0.30950
O44 O 0.21356(15) 0.3656(5) 0.2289(5)
C51 C 0.1906(2) 0.3752(8) 0.1973(8)
H44 H 0.18780 0.34640 0.16570
H45 H 0.17990 0.35070 0.21190
C52 C 0.1861(4) 0.4612(9) 0.1891(7)
H46 H 0.16930 0.47390 0.18310
H47 H 0.18930 0.47990 0.16010
C53 C 0.2012(3) 0.4992(7) 0.2313(7)
H48 H 0.20830 0.54990 0.22330
H49 H 0.19270 0.51520 0.25270
C54 C 0.2188(3) 0.4389(9) 0.2549(6)
H50 H 0.21970 0.42920 0.28890
H51 H 0.23440 0.45970 0.25710
O45 O 0.37299(14) 0.3183(4) 0.3385(3)
C55 C 0.3628(3) 0.3802(6) 0.3036(4)
H52 H 0.34630 0.36420 0.28220
H53 H 0.37190 0.38690 0.28240
C56 C 0.3626(2) 0.4585(6) 0.3286(4)
H54 H 0.36690 0.50610 0.31220
H55 H 0.34680 0.46930 0.32960
C57 C 0.3801(2) 0.4451(5) 0.3768(4)
H56 H 0.37650 0.47760 0.40190
H57 H 0.39610 0.46020 0.37860
C58 C 0.3782(2) 0.3559(6) 0.3837(4)
H58 H 0.39340 0.33400 0.40820
H59 H 0.36550 0.34450 0.39580
O46 O 0.39891(12) 0.2606(5) 0.2569(3)
C59 C 0.42234(19) 0.2738(14) 0.2610(5)
H60 H 0.43140 0.22090 0.27050
H61 H 0.43020 0.31550 0.28720
C60 C 0.4225(2) 0.3024(11) 0.2156(6)
H62 H 0.43430 0.34770 0.22100
H63 H 0.42620 0.25640 0.19720
C61 C 0.3993(2) 0.3319(11) 0.1903(7)
H64 H 0.39430 0.32510 0.15410
H65 H 0.39800 0.39150 0.19780
C62 C 0.3853(2) 0.2807(13) 0.2087(5)
H66 H 0.37090 0.31120 0.20670
H67 H 0.38030 0.22920 0.18850
O47 O 0.42953(11) 0.2345(4) 0.3771(3)
C63 C 0.44753(19) 0.1791(6) 0.4022(6)
H68 H 0.44920 0.13820 0.37850
H69 H 0.44330 0.14800 0.42680
C64 C 0.46900(16) 0.2197(6) 0.4262(6)
H70 H 0.48050 0.20370 0.41140
H71 H 0.47580 0.20460 0.46170
C65 C 0.46439(17) 0.3057(6) 0.4206(8)
H72 H 0.47320 0.33170 0.40210
H73 H 0.46920 0.33310 0.45330
C66 C 0.43942(18) 0.3134(6) 0.3936(7)
H74 H 0.43200 0.33820 0.41500
H75 H 0.43630 0.35080 0.36480
O48 O 0.38220(12) 0.1065(4) 0.3689(3)
C67 C 0.3900(2) 0.0258(6) 0.3816(5)
H76 H 0.40740 0.02590 0.40050
H77 H 0.38660 -0.00760 0.35120
C68 C 0.3787(3) -0.0114(7) 0.4107(6)
H78 H 0.36630 -0.05130 0.39060
H79 H 0.39040 -0.04180 0.43920
C69 C 0.3688(3) 0.0529(8) 0.4269(5)
H80 H 0.37940 0.07170 0.46030
H81 H 0.35330 0.03630 0.42760
C70 C 0.3657(3) 0.1182(9) 0.3899(6)
H82 H 0.34950 0.11560 0.36390
H83 H 0.36800 0.17380 0.40580
O49 O 0.40379(10) -0.1694(4) 0.5524(3)
C71 C 0.41291(17) -0.1341(8) 0.5989(4)
H84 H 0.42760 -0.10280 0.60350
H85 H 0.41700 -0.17840 0.62440
C72 C 0.3958(2) -0.0793(8) 0.6042(4)
H86 H 0.38800 -0.10530 0.62470
H87 H 0.40330 -0.02620 0.61980
C73 C 0.3791(2) -0.0654(6) 0.5554(4)
H88 H 0.38340 -0.01550 0.54070
H89 H 0.36290 -0.05800 0.55480
C74 C 0.38067(17) -0.1405(7) 0.5294(4)
H90 H 0.36930 -0.18290 0.53140
H91 H 0.37700 -0.12800 0.49410
O50 O 0.45767(10) -0.2589(4) 0.6007(2)
C75 C 0.47587(17) -0.2026(6) 0.6241(4)
H92 H 0.46920 -0.15020 0.63130
H93 H 0.48430 -0.18910 0.60220
C76 C 0.49257(16) -0.2390(6) 0.6703(4)
H94 H 0.50560 -0.26910 0.66510
H95 H 0.49940 -0.19590 0.69610
C77 C 0.47776(18) -0.2947(6) 0.6827(3)
H96 H 0.46930 -0.26560 0.70090
H97 H 0.48700 -0.34170 0.70310
C78 C 0.46109(19) -0.3238(6) 0.6343(4)
H98 H 0.46760 -0.37330 0.62370
H99 H 0.44580 -0.33970 0.63610
O51 O 0.44409(12) -0.1376(4) 0.4972(3)
C79 C 0.4558(3) -0.1381(6) 0.4652(5)
H100 H 0.44490 -0.15730 0.43200
H101 H 0.46940 -0.17740 0.47750
C80 C 0.4641(2) -0.0576(7) 0.4614(5)
H102 H 0.45430 -0.03220 0.42910
H103 H 0.48080 -0.05990 0.46440
C81 C 0.4624(2) -0.0108(7) 0.5007(5)
H104 H 0.45540 0.04490 0.48880
H105 H 0.47820 -0.00310 0.52750
C82 C 0.4473(2) -0.0576(6) 0.5181(4)
H106 H 0.45460 -0.06180 0.55470
H107 H 0.43170 -0.02930 0.50870
O52 O 0.39279(11) -0.2539(5) 0.4357(3)
C83 C 0.3950(2) -0.2349(9) 0.3916(4)
H108 H 0.41080 -0.25320 0.39330
H109 H 0.39380 -0.17380 0.38620
C84 C 0.3768(3) -0.2760(14) 0.3516(4)
H110 H 0.36950 -0.23730 0.32340
H111 H 0.38340 -0.32460 0.34020
C85 C 0.3602(2) -0.3017(10) 0.3701(4)
H112 H 0.35580 -0.36080 0.36120
H113 H 0.34570 -0.26690 0.35640
C86 C 0.37122(19) -0.2925(10) 0.4224(4)
H114 H 0.36080 -0.25900 0.43420
H115 H 0.37340 -0.34810 0.43830
O53 O 0.40912(12) -0.3820(4) 0.5375(3)
C87 C 0.39255(19) -0.3909(7) 0.5581(6)
H116 H 0.38000 -0.34790 0.54480
H117 H 0.40020 -0.38410 0.59450
C88 C 0.38242(19) -0.4724(7) 0.5462(7)
H118 H 0.37870 -0.49520 0.57370
H119 H 0.36760 -0.47070 0.51590
C89 C 0.3996(2) -0.5206(6) 0.5385(6)
H120 H 0.39240 -0.55290 0.50740
H121 H 0.40690 -0.56010 0.56630
C90 C 0.4167(2) -0.4639(6) 0.5356(7)
H122 H 0.43210 -0.47360 0.56350
H123 H 0.41900 -0.47270 0.50430
O54 O 0.44684(10) -0.3411(4) 0.4835(3)
C91 C 0.44011(17) -0.3961(6) 0.4437(4)
H124 H 0.43950 -0.36710 0.41340
H125 H 0.42420 -0.42000 0.43740
C92 C 0.4582(2) -0.4620(6) 0.4577(6)
H126 H 0.45320 -0.51060 0.47210
H127 H 0.46140 -0.48100 0.42860
C93 C 0.4787(2) -0.4229(8) 0.4936(7)
H128 H 0.48560 -0.45860 0.52330
H129 H 0.49100 -0.41430 0.47970
C94 C 0.47170(16) -0.3460(8) 0.5062(6)
H130 H 0.47900 -0.29980 0.49460
H131 H 0.47690 -0.34160 0.54260
C95? C 0.4723(3) -0.2309(13) 0.0603(8)
C96? C 0.4356(3) -0.1659(14) 0.0758(11)
C97? C 0.4663(5) -0.3882(17) 0.0896(9)
C98? C 0.4287(4) -0.2974(17) 0.1115(10)
C99? C 0.4277(4) -0.3183(18) 0.0174(10)
Cr7? Cr 0.44846(5) -0.2791(2) 0.07857(12)
O55? O 0.4874(3) -0.1990(12) 0.0510(8)
O56? O 0.4277(3) -0.1075(11) 0.0714(8)
O57? O 0.4733(3) -0.4491(9) 0.0983(8)
O58? O 0.4140(2) -0.3142(9) 0.1250(6)
O59? O 0.4143(3) -0.3372(13) -0.0220(7)
Ga1A Ga 0.525715(14) -0.12664(5) 0.23541(3)
Ga2A Ga 0.523849(15) -0.23920(5) 0.33371(4)
Ga3A Ga 0.521945(15) -0.33168(5) 0.23775(4)
Ga4F Ga 0.274590(15) 0.33831(5) -0.02151(4)
Ga4A Ga 0.774590(15) 0.16169(5) 0.47849(4)
Ga5A Ga 0.719917(16) 0.22709(7) 0.42245(4)
Ga5F Ga 0.219917(16) 0.27291(7) -0.07755(4)
Ga6F Ga 0.23611(2) 0.36255(6) 0.03108(5)
Ga6G Ga 0.76389(2) 0.36255(6) 0.46892(5)
O2A O 0.53486(11) -0.1984(5) 0.2876(3)
H2A H 0.54990 -0.22210 0.29260
O3A O 0.50695(11) -0.1990(5) 0.1881(4)
H3A H 0.51530 -0.22240 0.16970
O4A O 0.51328(11) -0.3409(4) 0.2965(3)
O5F O 0.24616(17) 0.3708(7) -0.0220(5)
O5A O 0.74616(17) 0.1292(7) 0.4780(5)
O6F O 0.2254(2) 0.1405(9) -0.0491(5)
O6A O 0.7254(2) 0.3595(9) 0.4509(5)
O7F O 0.24921(14) 0.2313(6) -0.0674(4)
O7A O 0.74921(14) 0.2687(6) 0.4326(4)
O8F O 0.21480(15) 0.2497(6) -0.0230(5)
O8A O 0.71480(15) 0.2503(6) 0.4770(5)
Cr1A Cr 0.55380(2) -0.03103(7) 0.22069(6)
Cr2A Cr 0.54877(5) -0.20657(18) 0.41484(12)
Cr3A Cr 0.54993(2) -0.41304(8) 0.21669(6)
Cr4A Cr 0.79964(3) 0.0868(1) 0.44513(7)
Cr4F Cr 0.29964(3) 0.4132(1) -0.05487(7)
Cr5A Cr 0.69091(3) 0.19141(10) 0.34071(7)
Cr6A Cr 0.78302(4) 0.46739(10) 0.43751(8)
Cr6F Cr 0.28302(4) 0.03261(10) -0.06249(8)
Na1A Na 0.61404(6) -0.2379(2) 0.34769(17)
Na2A Na 0.60886(6) 0.19894(19) 0.18045(15)
Na3A Na 0.76134(9) 0.2690(3) 0.2886(2)
O9A O 0.51080(13) 0.0194(4) 0.1308(3)
O10A O 0.53870(13) 0.0975(4) 0.2791(3)
O11A O 0.58709(10) -0.1078(3) 0.3176(2)
O12A O 0.56470(14) -0.1697(4) 0.1628(3)
O13A O 0.58901(11) 0.0800(4) 0.2026(3)
C1A C 0.52729(17) 0.0005(5) 0.1634(4)
C2A C 0.54518(16) 0.0471(5) 0.2563(4)
C3A C 0.57502(14) -0.0788(4) 0.2811(4)
C4A C 0.56016(16) -0.1183(6) 0.1843(4)
C5A C 0.57519(16) 0.0370(5) 0.2097(4)
O14A O 0.5512(3) -0.0338(8) 0.3742(6)
C6A C 0.5522(3) -0.0981(11) 0.3922(8)
O15A O 0.5809(2) -0.2816(9) 0.3699(6)
C7A C 0.5705(4) -0.2463(13) 0.3926(9)
O16A O 0.5043(3) -0.1569(9) 0.4316(8)
C8A C 0.5215(3) -0.1730(12) 0.4241(7)
O17A O 0.5375(3) -0.3855(11) 0.4368(10)
C9A C 0.5416(4) -0.3205(18) 0.4327(11)
O18A O 0.5858(3) -0.1670(14) 0.5140(8)
C10A C 0.5712(4) -0.1864(16) 0.4762(9)
O19A O 0.58535(10) -0.2742(4) 0.2651(3)
O20A O 0.58589(13) -0.4982(5) 0.1858(4)
O21A O 0.56136(15) -0.4930(4) 0.3169(4)
O22A O 0.51280(17) -0.5482(5) 0.1742(5)
O23A O 0.52595(14) -0.3178(5) 0.1213(3)
C11A C 0.57145(15) -0.3270(5) 0.2457(4)
C12A C 0.57189(17) -0.4665(6) 0.1981(4)
C13A C 0.55836(19) -0.4631(6) 0.2781(6)
C14A C 0.52724(19) -0.4974(6) 0.1894(5)
C15A C 0.53545(17) -0.3538(6) 0.1586(5)
O24A O 0.83741(14) 0.1761(7) 0.5283(5)
O25A O 0.83279(14) -0.0030(6) 0.4094(4)
O26A O 0.75505(15) 0.0096(5) 0.3712(4)
O27A O 0.80050(19) -0.0482(6) 0.5154(4)
O28A O 0.78938(15) 0.2277(5) 0.3703(3)
O29A O 0.65214(12) 0.1644(4) 0.2420(3)
O30A O 0.73322(13) 0.1949(4) 0.3125(3)
O31A O 0.68717(15) 0.3764(5) 0.3290(4)
O32A O 0.65823(13) 0.1815(6) 0.3956(4)
O33A O 0.70247(15) 0.0060(5) 0.3625(5)
O34A O 0.82314(15) 0.3491(6) 0.4526(5)
O35A O 0.7387(2) 0.5633(6) 0.4250(5)
O36A O 0.8046(2) 0.5985(6) 0.3952(6)
O37A O 0.8093(2) 0.5142(8) 0.5439(5)
O38A O 0.75494(17) 0.3852(5) 0.3409(3)
C16A C 0.82377(19) 0.1417(9) 0.4937(6)
C17A C 0.81994(18) 0.0321(7) 0.4219(5)
C18A C 0.77207(16) 0.0393(6) 0.3984(4)
C19A C 0.8011(2) 0.0051(8) 0.4890(5)
C20A C 0.79332(19) 0.1745(7) 0.4000(5)
C21A C 0.66762(17) 0.1731(6) 0.2803(4)
C22A C 0.71634(18) 0.1906(6) 0.3218(4)
C23A C 0.68768(19) 0.2962(9) 0.3329(5)
C24A C 0.67029(18) 0.1847(9) 0.3735(4)
C25A C 0.69821(17) 0.0764(7) 0.3535(5)
C26A C 0.8083(2) 0.3967(8) 0.4482(8)
C27A C 0.7578(3) 0.5305(9) 0.4335(7)
C28A C 0.7967(3) 0.5449(8) 0.4169(9)
C29A C 0.7993(3) 0.4994(8) 0.5042(6)
C30A C 0.7659(2) 0.4193(8) 0.3782(6)
O39A O 0.63403(12) -0.3579(4) 0.3404(5)
C31A C 0.65839(19) -0.3648(8) 0.3640(11)
H4A H 0.66330 -0.34940 0.39930
H5A H 0.66610 -0.32570 0.34880
C32A C 0.6657(2) -0.4456(8) 0.3606(8)
H6A H 0.67820 -0.44540 0.34700
H7A H 0.67220 -0.47210 0.39370
C33A C 0.64613(19) -0.4885(8) 0.3297(9)
H8A H 0.64430 -0.54170 0.34510
H9A H 0.64750 -0.50090 0.29780
C34A C 0.62689(19) -0.4357(7) 0.3225(8)
H10A H 0.61690 -0.43220 0.28670
H11A H 0.61710 -0.45960 0.33930
O40A O 0.63887(13) -0.1543(4) 0.3244(3)
C35A C 0.6383(3) -0.1522(7) 0.2765(4)
H12A H 0.62480 -0.18610 0.25430
H13A H 0.65320 -0.17640 0.27620
C36A C 0.6358(4) -0.0679(8) 0.2588(5)
H14A H 0.64860 -0.05380 0.24740
H15A H 0.62030 -0.06010 0.23100
C37A C 0.6374(2) -0.0180(6) 0.2989(4)
H16A H 0.62170 0.00680 0.29370
H17A H 0.64900 0.02770 0.30370
C38A C 0.6451(2) -0.0729(6) 0.3408(4)
H18A H 0.66250 -0.06860 0.35880
H19A H 0.63740 -0.05690 0.36380
O41A O 0.63639(11) -0.2203(5) 0.4330(3)
C39A C 0.6592(2) -0.1897(8) 0.4564(6)
H20A H 0.65890 -0.13480 0.47160
H21A H 0.66680 -0.18280 0.43230
C40A C 0.67204(18) -0.2494(10) 0.4938(6)
H22A H 0.67890 -0.29370 0.47980
H23A H 0.68510 -0.22180 0.52130
C41A C 0.6552(2) -0.2830(11) 0.5103(5)
H24A H 0.65510 -0.25270 0.53970
H25A H 0.65820 -0.34310 0.51850
C42A C 0.6337(2) -0.2709(13) 0.4688(5)
H26A H 0.62740 -0.32590 0.45400
H27A H 0.62180 -0.24540 0.47990
O42A O 0.72870(13) 0.3005(7) 0.2145(3)
C43A C 0.7060(2) 0.2663(13) 0.1970(5)
H28A H 0.70670 0.20460 0.19910
H29A H 0.69690 0.28740 0.21610
C44A C 0.6955(2) 0.2931(13) 0.1467(5)
H30A H 0.68670 0.34600 0.14430
H31A H 0.68420 0.25040 0.12630
C45A C 0.7139(3) 0.3048(13) 0.1301(5)
H32A H 0.71950 0.25130 0.12150
H33A H 0.70940 0.34360 0.10170
C46A C 0.7309(3) 0.3403(13) 0.1738(5)
H34A H 0.72800 0.40100 0.17470
H35A H 0.74710 0.33220 0.17460
O43A O 0.77451(19) 0.1602(6) 0.2582(4)
C47A C 0.7865(3) 0.090(1) 0.2830(5)
H36A H 0.79860 0.10500 0.31590
H37A H 0.77530 0.04920 0.28760
C48A C 0.7973(3) 0.0568(14) 0.2515(5)
H38A H 0.80150 -0.00280 0.25880
H39A H 0.81170 0.08860 0.25470
C49A C 0.7796(3) 0.0668(10) 0.2056(5)
H40A H 0.78630 0.07400 0.18020
H41A H 0.76890 0.01770 0.19680
C50A C 0.7671(5) 0.1396(16) 0.2092(5)
H42A H 0.74980 0.12880 0.19510
H43A H 0.77040 0.18600 0.19050
O44A O 0.78644(15) 0.3656(5) 0.2711(5)
C51A C 0.8094(2) 0.3752(8) 0.3027(8)
H44A H 0.81220 0.34640 0.33430
H45A H 0.82010 0.35070 0.28810
C52A C 0.8139(4) 0.4612(9) 0.3109(7)
H46A H 0.83070 0.47390 0.31690
H47A H 0.81070 0.47990 0.33990
C53A C 0.7988(3) 0.4992(7) 0.2687(7)
H48A H 0.79170 0.54990 0.27670
H49A H 0.80730 0.51520 0.24730
C54A C 0.7812(3) 0.4389(9) 0.2451(6)
H50A H 0.78030 0.42920 0.21110
H51A H 0.76560 0.45970 0.24290
O45A O 0.62701(14) 0.3183(4) 0.1615(3)
C55A C 0.6372(3) 0.3802(6) 0.1964(4)
H52A H 0.65370 0.36420 0.21780
H53A H 0.62810 0.38690 0.21760
C56A C 0.6374(2) 0.4585(6) 0.1714(4)
H54A H 0.63310 0.50610 0.18780
H55A H 0.65320 0.46930 0.17040
C57A C 0.6199(2) 0.4451(5) 0.1232(4)
H56A H 0.62350 0.47760 0.09810
H57A H 0.60390 0.46020 0.12140
C58A C 0.6218(2) 0.3559(6) 0.1163(4)
H58A H 0.60660 0.33400 0.09180
H59A H 0.63450 0.34450 0.10420
O46A O 0.60109(12) 0.2606(5) 0.2431(3)
C59A C 0.57766(19) 0.2738(14) 0.2390(5)
H60A H 0.56860 0.22090 0.22950
H61A H 0.56980 0.31550 0.21280
C60A C 0.5775(2) 0.3024(11) 0.2844(6)
H62A H 0.56570 0.34770 0.27900
H63A H 0.57380 0.25640 0.30280
C61A C 0.6007(2) 0.3319(11) 0.3097(7)
H64A H 0.60570 0.32510 0.34590
H65A H 0.60200 0.39150 0.30220
C62A C 0.6147(2) 0.2807(13) 0.2913(5)
H66A H 0.62910 0.31120 0.29330
H67A H 0.61970 0.22920 0.31150
O47A O 0.57047(11) 0.2345(4) 0.1229(3)
C63A C 0.55247(19) 0.1791(6) 0.0978(6)
H68A H 0.55080 0.13820 0.12150
H69A H 0.55670 0.14800 0.07320
C64A C 0.53100(16) 0.2197(6) 0.0738(6)
H70A H 0.51950 0.20370 0.08860
H71A H 0.52420 0.20460 0.03830
C65A C 0.53561(17) 0.3057(6) 0.0794(8)
H72A H 0.52680 0.33170 0.09790
H73A H 0.53080 0.33310 0.04670
C66A C 0.56058(18) 0.3134(6) 0.1064(7)
H74A H 0.56800 0.33820 0.08500
H75A H 0.56370 0.35080 0.13520
O48A O 0.61780(12) 0.1065(4) 0.1311(3)
C67A C 0.6100(2) 0.0258(6) 0.1184(5)
H76A H 0.59260 0.02590 0.09950
H77A H 0.61340 -0.00760 0.14880
C68A C 0.6213(3) -0.0114(7) 0.0893(6)
H78A H 0.63370 -0.05130 0.10940
H79A H 0.60960 -0.04180 0.06080
C69A C 0.6312(3) 0.0529(8) 0.0731(5)
H80A H 0.62060 0.07170 0.03970
H81A H 0.64670 0.03630 0.07240
C70A C 0.6343(3) 0.1182(9) 0.1101(6)
H82A H 0.65050 0.11560 0.13610
H83A H 0.63200 0.17380 0.09420
#END
