
#######################################################################
#
#                 Cambridge Crystallographic Data Centre
#                                CCDC
#
#######################################################################
#
# If this CIF has been generated from an entry in the Cambridge
# Structural Database, then it will include bibliographic, chemical,
# crystal, experimental, refinement or atomic coordinate data resulting
# from the CCDC's data processing and validation procedures.
#
#######################################################################

data_CSD_CIF_AXIPUV
_audit_creation_date 2021-07-13
_audit_creation_method CSD-ConQuest-V1
_database_code_CSD AXIPUV
_database_code_depnum_ccdc_archive 'CCDC 2034483'
_chemical_formula_sum 'C42 H80 I8 N20 O8 Pb3 Re6 S8'
_chemical_formula_moiety
;
C18 H24 N12 Re6 S8 2+,n(C6 H14 I8 N2 O2 Pb3 2-),6(C3 H7 N1 O1)
;
_journal_coden_Cambridge 1500
_journal_volume 11
_journal_year 2021
_journal_page_first 24580
_journal_name_full 'RSC Advances '
loop_
_publ_author_name
"Giang Thi Ly"
"Jun Choi"
"Youngmee Kim"
"Yuna Kim"
"Sujin Kim"
"So-Hyeon Yang"
"Sung-Jin Kim"
_chemical_name_systematic
;
catena-[octakis(\m-sulfido)-hexakis(pyrazole)-hexa-rhenium 
hexakis(\m-iodo)-bis(iodo)-bis(N,N-dimethylformamide)-tri-lead 
N,N-dimethylformamide solvate]
;
_cell_volume   2243.183
_exptl_crystal_colour 'orange'
_exptl_crystal_density_diffrn 2.964
_exptl_crystal_description 'rod'
_diffrn_ambient_temperature 170
#These two values have been output from a single CSD field.
_refine_ls_R_factor_gt 0.0472
_refine_ls_wR_factor_gt 0.0472
_symmetry_cell_setting triclinic
_symmetry_space_group_name_H-M 'P -1'
_symmetry_Int_Tables_number 2
loop_
_symmetry_equiv_pos_site_id
_symmetry_equiv_pos_as_xyz
1 x,y,z
2 -x,-y,-z
_cell_length_a 10.5488(5)
_cell_length_b 11.2290(5)
_cell_length_c 19.1582(10)
_cell_angle_alpha 90.416(3)
_cell_angle_beta 93.892(3)
_cell_angle_gamma 97.737(2)
_cell_formula_units_Z 1
loop_
_atom_type_symbol
_atom_type_radius_bond
C 0.68
H 0.23
I 1.40
N 0.68
O 0.68
Pb 1.46
Re 1.51
S 1.02
loop_
_atom_site_label
_atom_site_type_symbol
_atom_site_fract_x
_atom_site_fract_y
_atom_site_fract_z
Re1 Re -0.06014(3) 0.62611(3) 0.45444(2)
Re2 Re 0.16458(3) 0.56485(3) 0.48597(2)
Re3 Re 0.00925(3) 0.58314(3) 0.58316(2)
S1 S 0.0885(2) 0.5999(2) 0.36741(13)
S2 S 0.1053(2) 0.75574(19) 0.52203(13)
S3 S -0.2000(2) 0.6338(2) 0.54860(13)
S4 S -0.2179(2) 0.4791(2) 0.39353(12)
N1 N -0.1279(7) 0.7727(7) 0.3972(5)
N2 N -0.1628(8) 0.8702(7) 0.4280(5)
H1 H -0.15730 0.88490 0.47330
C1 C -0.1506(11) 0.7837(10) 0.3284(6)
H2 H -0.13530 0.72760 0.29370
C2 C -0.2080(12) 0.9424(10) 0.3782(7)
H3 H -0.23940 1.01650 0.38610
C3 C -0.2002(12) 0.8902(11) 0.3159(7)
H4 H -0.22430 0.92040 0.27150
N3 N 0.3578(8) 0.6402(7) 0.4680(4)
N4 N 0.4254(8) 0.7313(8) 0.5071(5)
H5 H 0.39820 0.76320 0.54450
C4 C 0.4293(10) 0.6181(10) 0.4181(6)
H6 H 0.40510 0.55820 0.38270
C5 C 0.5390(11) 0.7661(11) 0.4812(7)
H7 H 0.60270 0.82870 0.49920
C6 C 0.5458(10) 0.6933(11) 0.4231(7)
H8 H 0.61450 0.69450 0.39340
N5 N 0.0210(7) 0.6787(7) 0.6812(5)
N6 N -0.0709(9) 0.6615(8) 0.7282(5)
H9 H -0.14340 0.61270 0.72190
C7 C 0.1122(11) 0.7609(10) 0.7095(6)
H10 H 0.18770 0.79140 0.68750
C8 C 0.0832(12) 0.7969(11) 0.7755(7)
H11 H 0.13280 0.85420 0.80650
C9 C -0.0340(12) 0.7305(11) 0.7859(6)
H12 H -0.08050 0.73290 0.82650
Pb1 Pb 1.09386(4) 0.17646(4) -0.03416(3)
Pb2 Pb 1.00000 0.50000 0.00000
I1 I 1.03238(10) 0.37342(8) -0.14990(5)
I2 I 1.26310(8) 0.40598(8) 0.05375(5)
I3 I 1.28998(10) 0.07994(10) -0.11032(6)
I4 I 1.13490(12) 0.01197(9) 0.09389(6)
O1 O 0.8909(9) 0.2915(8) 0.0344(5)
C10 C 0.7825(14) 0.2387(13) 0.0231(7)
H13 H 0.77300 0.17380 -0.00980
N7 N 0.6790(11) 0.2603(10) 0.0503(6)
C11 C 0.6834(16) 0.3568(15) 0.1034(9)
H14 H 0.69040 0.32280 0.15030
H15 H 0.60480 0.39450 0.09770
H16 H 0.75790 0.41730 0.09760
C12 C 0.5526(16) 0.1930(15) 0.0304(10)
H17 H 0.55960 0.13770 -0.00850
H18 H 0.49270 0.24920 0.01600
H19 H 0.52100 0.14710 0.07050
O2 O 0.3996(8) 0.8337(9) 0.6341(5)
C13 C 0.4859(13) 0.7947(12) 0.6706(8)
H20 H 0.52530 0.73190 0.65150
N8 N 0.5265(10) 0.8341(9) 0.7337(7)
C14 C 0.4668(15) 0.9261(15) 0.7671(9)
H21 H 0.42910 0.97510 0.73120
H22 H 0.53140 0.97730 0.79700
H23 H 0.39940 0.88820 0.79570
C15 C 0.626(2) 0.7820(19) 0.7778(12)
H24 H 0.68950 0.75630 0.74800
H25 H 0.58550 0.71260 0.80270
H26 H 0.66830 0.84270 0.81180
O3 O 0.7965(10) -0.0602(9) 0.5564(6)
C16 C 0.8458(14) -0.0288(12) 0.6167(8)
H27 H 0.92070 -0.06060 0.63380
N9 N 0.797(1) 0.0464(9) 0.6566(6)
C17 C 0.6840(16) 0.1028(15) 0.6334(10)
H28 H 0.67870 0.10830 0.58230
H29 H 0.69130 0.18350 0.65430
H30 H 0.60650 0.05400 0.64820
C18 C 0.8527(18) 0.0854(17) 0.7236(10)
H31 H 0.93230 0.05060 0.73320
H32 H 0.79280 0.05940 0.75910
H33 H 0.87160 0.17330 0.72480
O4 O 0.3070(8) 0.4759(8) 0.2740(5)
C19 C 0.3061(14) 0.5596(13) 0.2343(8)
H34 H 0.22430 0.58030 0.21940
N10 N 0.4059(13) 0.6248(12) 0.2095(8)
C20 C 0.527(2) 0.592(2) 0.2241(12)
H35 H 0.52230 0.52880 0.25900
H36 H 0.58540 0.66240 0.24260
H37 H 0.55860 0.56300 0.18120
C21 C 0.390(2) 0.713(2) 0.1564(13)
H38 H 0.41300 0.68250 0.11150
H39 H 0.44580 0.78770 0.16930
H40 H 0.30050 0.72780 0.15230
Re1A Re 0.06014(3) 0.37389(3) 0.54556(2)
Re2A Re -0.16458(3) 0.43515(3) 0.51403(2)
Re3A Re -0.00925(3) 0.41686(3) 0.41684(2)
S1A S -0.0885(2) 0.4001(2) 0.63259(13)
S2A S -0.1053(2) 0.24426(19) 0.47797(13)
S3A S 0.2000(2) 0.3662(2) 0.45140(13)
S4A S 0.2179(2) 0.5209(2) 0.60647(12)
N1A N 0.1279(7) 0.2273(7) 0.6028(5)
N2A N 0.1628(8) 0.1298(7) 0.5720(5)
H1A H 0.15730 0.11510 0.52670
C1A C 0.1506(11) 0.2163(10) 0.6716(6)
H2A H 0.13530 0.27240 0.70630
C2A C 0.2080(12) 0.0576(10) 0.6218(7)
H3A H 0.23940 -0.01650 0.61390
C3A C 0.2002(12) 0.1098(11) 0.6841(7)
H4A H 0.22430 0.07960 0.72850
N3A N -0.3578(8) 0.3598(7) 0.5320(4)
N4A N -0.4254(8) 0.2687(8) 0.4929(5)
H5A H -0.39820 0.23680 0.45550
C4A C -0.4293(10) 0.3819(10) 0.5819(6)
H6A H -0.40510 0.44180 0.61730
C5A C -0.5390(11) 0.2339(11) 0.5188(7)
H7A H -0.60270 0.17130 0.50080
C6A C -0.5458(10) 0.3067(11) 0.5769(7)
H8A H -0.61450 0.30550 0.60660
N5A N -0.0210(7) 0.3213(7) 0.3188(5)
N6A N 0.0709(9) 0.3385(8) 0.2718(5)
H9A H 0.14340 0.38730 0.27810
C7A C -0.1122(11) 0.2391(10) 0.2905(6)
H10A H -0.18770 0.20860 0.31250
C8A C -0.0832(12) 0.2031(11) 0.2245(7)
H11A H -0.13280 0.14580 0.19350
C9A C 0.0340(12) 0.2695(11) 0.2141(6)
H12A H 0.08050 0.26710 0.17350
Pb1A Pb 0.90614(4) -0.17646(4) 0.03416(3)
I1A I 0.96762(10) -0.37342(8) 0.14990(5)
I2A I 0.73690(8) -0.40598(8) -0.05375(5)
I3A I 0.71002(10) -0.07994(10) 0.11032(6)
I4A I 0.86510(12) -0.01197(9) -0.09389(6)
O1A O 1.1091(9) 0.7085(8) -0.0344(5)
C10A C 1.2175(14) 0.7613(13) -0.0231(7)
H13A H 1.22700 0.82620 0.00980
N7A N 1.3210(11) 0.7397(10) -0.0503(6)
C11A C 1.3166(16) 0.6432(15) -0.1034(9)
H14A H 1.30960 0.67720 -0.15030
H15A H 1.39520 0.60550 -0.09770
H16A H 1.24210 0.58270 -0.09760
C12A C 1.4474(16) 0.8070(15) -0.0304(10)
H17A H 1.44040 0.86230 0.00850
H18A H 1.50730 0.75080 -0.01600
H19A H 1.47900 0.85290 -0.07050
Pb2* Pb 1.00000 -0.50000 0.00000
I1A* I 0.96762(10) 0.62658(8) 0.14990(5)
I2A* I 0.73690(8) 0.59402(8) -0.05375(5)
#END
