
#######################################################################
#
#                 Cambridge Crystallographic Data Centre
#                                CCDC
#
#######################################################################
#
# If this CIF has been generated from an entry in the Cambridge
# Structural Database, then it will include bibliographic, chemical,
# crystal, experimental, refinement or atomic coordinate data resulting
# from the CCDC's data processing and validation procedures.
#
#######################################################################

data_CSD_CIF_AXOLAD
_audit_creation_date 2021-07-14
_audit_creation_method CSD-ConQuest-V1
_database_code_CSD AXOLAD
_database_code_depnum_ccdc_archive 'CCDC 2054439'
_chemical_formula_sum 'C40 H52 Co2 Ge1 N8 O58 W12'
_chemical_formula_moiety
;
(C40 H44 Co2 N8 O14 4+)n,Ge1 O40 W12 4-,4(H2 O1)
;
_journal_coden_Cambridge 1096
_journal_volume 33
_journal_year 2021
_journal_page_first 2178
_journal_name_full 'Chem.Mater. '
loop_
_publ_author_name
"Bin Chen"
"You-Ren Huang"
"Kai-Yue Song"
"Xiang-Ling Lin"
"Hao-Hong Li"
"Zhi-Rong Chen"
_chemical_name_systematic
;
catena-[tetrakis(\m-1,1'-dioxo-4,4'-bipyridine)-hexaoxo-di-cobalt 
octacosaki(\m-oxo)-dodecaoxo-germanium-dodeca-tungsten tetrahydrate]
;
_cell_volume   1846.843
_exptl_crystal_colour 'light brown'
_exptl_crystal_density_diffrn 3.564
_exptl_crystal_description 'block'
_diffrn_ambient_temperature 175
_diffrn_special_details
;
twin

;
#These two values have been output from a single CSD field.
_refine_ls_R_factor_gt 0.0298
_refine_ls_wR_factor_gt 0.0298
_symmetry_cell_setting triclinic
_symmetry_space_group_name_H-M 'P 1'
_symmetry_Int_Tables_number 1
loop_
_symmetry_equiv_pos_site_id
_symmetry_equiv_pos_as_xyz
1 x,y,z
_cell_length_a 11.8864(7)
_cell_length_b 11.9974(7)
_cell_length_c 13.1689(8)
_cell_angle_alpha 91.860(1)
_cell_angle_beta 96.886(1)
_cell_angle_gamma 97.367(1)
_cell_formula_units_Z 1
loop_
_atom_type_symbol
_atom_type_radius_bond
C 0.68
H 0.23
Co 1.26
Ge 1.17
N 0.68
O 0.68
W 1.62
loop_
_atom_site_label
_atom_site_type_symbol
_atom_site_fract_x
_atom_site_fract_y
_atom_site_fract_z
Co1 Co 0.8049(3) 0.6415(3) 0.3285(3)
Co2 Co 1.3027(3) 1.6435(3) 0.3248(3)
O1 O 0.8010(14) 0.7828(12) 0.2327(13)
O2 O 0.7692(15) 0.7398(13) 0.4453(14)
O3 O 1.2722(15) 1.7358(16) 0.4533(14)
H1 H 1.21201 1.70228 0.47730
H2 H 1.32786 1.73401 0.50259
O4 O 0.9787(14) 0.6924(15) 0.3695(16)
H3 H 1.01820 0.65252 0.33323
H4 H 0.99910 0.67551 0.43302
O5 O 0.6335(12) 0.5889(12) 0.2840(12)
H5 H 0.59372 0.64704 0.28329
H6 H 0.60371 0.54533 0.33023
O6 O 0.8131(13) 0.4987(11) 0.4218(12)
O7 O 0.4747(14) -0.2844(12) 0.3389(13)
O8 O 1.0971(14) 0.6265(14) -0.4577(12)
O9 O 1.1299(14) 1.5682(14) 0.3048(15)
O10 O 0.5186(14) 0.6504(14) 1.1143(14)
O11 O 1.353(2) 1.5193(18) 0.4204(16)
H7 H 1.30124 1.46091 0.41660
H8 H 1.36282 1.54233 0.48453
O12 O 1.2483(19) 1.7718(15) 0.2424(17)
H9 H 1.21183 1.82519 0.26246
H10 H 1.25645 1.78513 0.17892
O13 O 1.3382(15) 1.5558(15) 0.1933(14)
H11 H 1.37043 1.60299 0.15133
H12 H 1.27336 1.52567 0.15628
O14 O 0.8409(16) 0.5401(14) 0.2076(14)
N1 N 1.0920(15) 1.4644(15) 0.3033(15)
N2 N 0.8464(16) 0.8912(15) 0.2521(16)
N3 N 0.7406(16) 0.7220(15) 0.5394(16)
N4 N 0.5486(16) 0.6623(16) 1.0216(15)
N5 N 0.7619(15) 0.3938(16) 0.4056(15)
N6 N 0.8747(17) 0.5629(18) 0.1194(15)
N7 N 1.0601(18) 0.6190(15) -0.3660(17)
N8 N 0.5147(16) -0.1682(17) 0.3457(17)
C1 C 0.944(2) 1.047(2) 0.356(2)
H13 H 0.97631 1.07789 0.42244
C2 C 0.831(2) 0.489(2) 0.039(2)
H14 H 0.77544 0.42794 0.04967
C3 C 0.599(2) -0.015(2) 0.449(2)
H15 H 0.62331 0.01798 0.51573
C4 C 1.0974(19) 0.6457(17) -0.1868(16)
H16 H 1.14855 0.67232 -0.12744
C5 C 0.895(2) 0.935(2) 0.344(2)
H17 H 0.89736 0.88841 0.40165
C6 C 0.667(2) 0.1659(19) 0.3776(17)
C7 C 0.6150(19) 0.052(2) 0.3642(19)
C8 C 0.954(2) 0.6533(19) 0.109(2)
H18 H 0.98272 0.70743 0.16272
C9 C 1.0625(17) 1.4084(18) 0.2058(17)
H19 H 1.07542 1.44677 0.14544
C10 C 0.9484(17) 0.5892(18) -0.0688(17)
C11 C 0.6224(18) 0.6211(17) 0.6471(17)
H20 H 0.56861 0.55753 0.65591
C12 C 0.548(2) -0.126(2) 0.438(2)
H21 H 0.53810 -0.16912 0.49639
C13 C 0.531(3) -0.117(2) 0.261(2)
H22 H 0.51139 -0.15593 0.19592
C14 C 0.658(2) 0.711(2) 1.018(2)
H23 H 0.70792 0.73717 1.07817
C15 C 0.744(2) 0.7868(19) 0.7137(19)
H24 H 0.77457 0.84079 0.76748
C16 C 1.0148(18) 1.2975(17) 0.1999(17)
H25 H 0.99342 1.26018 0.13436
C17 C 0.4728(18) 0.6324(18) 0.9357(18)
H26 H 0.39475 0.60721 0.94106
C18 C 0.696(3) 0.223(2) 0.476(2)
H27 H 0.68394 0.18362 0.53572
C19 C 0.953(2) 0.575(2) -0.357(2)
H28 H 0.90253 0.55120 -0.41787
C20 C 1.026(2) 1.2903(19) 0.3807(18)
H29 H 1.01060 1.25241 0.44081
C21 C 0.6929(19) 0.722(2) 0.917(2)
H30 H 0.76803 0.75730 0.91069
C22 C 0.866(2) 0.499(2) -0.057(2)
H31 H 0.83428 0.44737 -0.11272
C23 C 0.575(2) -0.010(2) 0.270(2)
H32 H 0.57985 0.02933 0.20827
C24 C 0.659(2) 0.6362(18) 0.5554(18)
H33 H 0.62599 0.58543 0.49965
C25 C 0.7819(17) 0.7989(19) 0.6184(17)
H34 H 0.83684 0.86087 0.60801
C26 C 0.891(2) 1.071(2) 0.179(2)
H35 H 0.88859 1.11837 0.12289
C27 C 0.735(2) 0.346(2) 0.3129(19)
H36 H 0.74854 0.38905 0.25543
C28 C 0.9864(17) 0.5961(17) -0.1774(17)
C29 C 0.686(2) 0.234(2) 0.2967(19)
H37 H 0.66559 0.20406 0.22853
C30 C 0.9966(17) 1.2373(17) 0.2876(19)
C31 C 1.1314(19) 0.6556(19) -0.2802(18)
H38 H 1.20705 0.68897 -0.28608
C32 C 0.5113(19) 0.639(2) 0.841(2)
H39 H 0.46022 0.61236 0.78133
C33 C 0.6639(19) 0.7000(18) 0.7331(19)
C34 C 0.9455(18) 1.1139(19) 0.2760(19)
C35 C 0.622(2) 0.684(2) 0.830(2)
C36 C 0.990(2) 0.660(2) 0.009(2)
H40 H 1.04844 0.71910 -0.00211
C37 C 0.7413(19) 0.3309(19) 0.4847(18)
H41 H 0.75985 0.36531 0.55161
C38 C 0.839(2) 0.955(2) 0.166(2)
H42 H 0.80104 0.92408 0.10158
C39 C 1.081(2) 1.405(2) 0.388(2)
H43 H 1.10905 1.44000 0.45345
C40 C 0.9133(18) 0.5621(19) -0.2682(17)
H44 H 0.83632 0.53040 -0.26541
W1 W 0.29256(8) 0.39335(8) 0.69403(8)
W2 W 0.24186(7) 0.13776(8) 1.08599(7)
W3 W 0.21324(8) 0.38536(8) 0.93499(7)
W4 W 0.12587(8) -0.02265(8) 0.63396(7)
W5 W 0.56668(8) 0.29453(8) 0.77544(9)
W6 W 0.04261(8) 0.23813(9) 0.73498(8)
W7 W 0.49642(8) 0.30944(8) 1.01934(7)
W8 W 0.36579(7) 0.13909(8) 0.57125(7)
W9 W 0.39280(8) -0.09304(8) 0.71203(7)
W10 W 0.05105(8) -0.00593(8) 0.89585(9)
W11 W 0.57569(8) 0.06618(9) 0.92558(8)
W12 W 0.30806(8) -0.09923(8) 0.97033(8)
Ge1 Ge 0.3063(2) 0.1451(2) 0.8289(2)
O15 O 0.0234(13) 0.1313(11) 0.8397(11)
O16 O 0.2901(14) -0.0065(13) 1.0944(14)
O17 O 0.4329(16) -0.2083(17) 0.6663(19)
O18 O 0.6791(15) 0.3718(14) 0.7328(16)
O19 O 0.3077(17) 0.5049(15) 0.6195(17)
O20 O 0.4433(12) 0.3845(12) 0.7493(12)
O21 O 0.4604(12) -0.0131(12) 0.9858(10)
O22 O 0.1911(14) 0.2706(15) 1.0222(17)
O23 O 0.1813(18) 0.5029(14) 1.0021(17)
O24 O 0.3755(14) 0.3886(14) 0.9775(16)
O25 O -0.0759(17) -0.0782(17) 0.9084(17)
O26 O 0.3918(14) 0.2111(14) 1.0842(13)
O27 O 0.3212(18) -0.2189(15) 1.0339(13)
O28 O 0.5672(15) 0.3883(16) 1.1210(17)
O29 O 0.5874(14) 0.3701(12) 0.9192(13)
O30 O 0.5941(14) 0.1884(13) 1.0312(13)
O31 O 0.2450(11) 0.0705(12) 0.9225(12)
O32 O 0.2634(13) 0.4702(14) 0.8164(14)
O33 O 0.4990(13) 0.2016(12) 0.6683(12)
O34 O 0.5139(13) -0.0121(15) 0.7963(14)
O35 O 0.1257(13) 0.3557(14) 0.6662(11)
O36 O -0.0897(14) 0.2616(17) 0.6910(16)
O37 O 0.3058(13) 0.2694(12) 0.6071(12)
O38 O 0.2194(14) 0.0565(14) 0.5351(13)
O39 O 0.0673(13) 0.3510(13) 0.8526(12)
O40 O 0.4067(15) 0.1631(15) 0.4566(14)
O41 O 0.4252(14) -0.0017(15) 0.6029(17)
O42 O 0.3020(13) 0.0677(12) 0.7192(12)
O43 O 0.0754(13) 0.1279(13) 0.6502(12)
O44 O 0.6972(16) 0.0098(18) 0.9664(15)
O45 O 0.3235(13) -0.1312(13) 0.8342(12)
O46 O 0.2196(16) 0.1623(16) 1.2135(13)
O47 O 0.6490(14) 0.1836(13) 0.8419(12)
O48 O 0.0850(13) -0.0505(12) 0.7671(11)
O49 O 0.2363(14) -0.1216(15) 0.6466(17)
O50 O 0.0214(16) -0.0951(16) 0.5495(16)
O51 O 0.4478(11) 0.1934(12) 0.8774(11)
O52 O 0.2332(12) 0.2621(11) 0.8075(11)
O53 O 0.0883(13) 0.0652(12) 1.0351(13)
O54 O 0.1475(16) -0.1208(14) 0.9479(14)
O55 O 0.206(2) 0.9564(14) 0.3362(16)
O56 O 0.7418(18) 0.0560(19) 0.6807(19)
O57 O 0.876(3) 0.242(3) 0.977(2)
H45 H 0.86369 0.30786 0.95622
H46 H 0.91873 0.21766 0.93386
O58 O 0.460(2) 0.361(2) 0.344(2)
Co2* Co 0.3027(3) -0.3565(3) 0.3248(3)
O7* O 1.4747(14) 1.7156(12) 0.3389(13)
#END
