
#######################################################################
#
#                 Cambridge Crystallographic Data Centre
#                                CCDC
#
#######################################################################
#
# If this CIF has been generated from an entry in the Cambridge
# Structural Database, then it will include bibliographic, chemical,
# crystal, experimental, refinement or atomic coordinate data resulting
# from the CCDC's data processing and validation procedures.
#
#######################################################################

data_CSD_CIF_AXOLEH
_audit_creation_date 2021-07-14
_audit_creation_method CSD-ConQuest-V1
_database_code_CSD AXOLEH
_database_code_depnum_ccdc_archive 'CCDC 2054441'
_chemical_formula_sum 'C40 H46 Co2 Ge1 N8 O55 W12'
_chemical_formula_moiety
;
(C40 H44 Co2 N8 O14 4+)n,Ge1 O40 W12 4-,H2 O1
;
_journal_coden_Cambridge 1096
_journal_volume 33
_journal_year 2021
_journal_page_first 2178
_journal_name_full 'Chem.Mater. '
loop_
_publ_author_name
"Bin Chen"
"You-Ren Huang"
"Kai-Yue Song"
"Xiang-Ling Lin"
"Hao-Hong Li"
"Zhi-Rong Chen"
_chemical_name_systematic
;
catena-[tetrakis(\m-1,1'-dioxo-4,4'-bipyridine)-hexaoxo-di-cobalt 
octacosaki(\m-oxo)-dodecaoxo-germanium-dodeca-tungsten monohydrate]
;
_cell_volume   1838.600
_exptl_crystal_density_diffrn 3.534
_exptl_crystal_description 'block'
_diffrn_ambient_temperature 298
_diffrn_special_details
;
twin

;
#These two values have been output from a single CSD field.
_refine_ls_R_factor_gt 0.0391
_refine_ls_wR_factor_gt 0.0391
_symmetry_cell_setting triclinic
_symmetry_space_group_name_H-M 'P 1'
_symmetry_Int_Tables_number 1
loop_
_symmetry_equiv_pos_site_id
_symmetry_equiv_pos_as_xyz
1 x,y,z
_cell_length_a 11.8584(4)
_cell_length_b 12.0820(6)
_cell_length_c 13.0866(5)
_cell_angle_alpha 92.367(4)
_cell_angle_beta 96.922(3)
_cell_angle_gamma 98.281(4)
_cell_formula_units_Z 1
loop_
_atom_type_symbol
_atom_type_radius_bond
C 0.68
H 0.23
Co 1.26
Ge 1.17
N 0.68
O 0.68
W 1.62
loop_
_atom_site_label
_atom_site_type_symbol
_atom_site_fract_x
_atom_site_fract_y
_atom_site_fract_z
Co1 Co -0.2879(3) 0.0461(3) 0.4024(3)
Co2 Co 0.2106(3) 1.0475(3) 0.3988(3)
O1 O -0.0839(14) 1.0612(14) 1.1837(12)
O2 O -0.3218(16) 0.1374(17) 0.5312(14)
H1 H -0.38419 0.10563 0.55371
H2 H -0.26862 0.13530 0.58309
O3 O -0.1158(13) 0.1241(13) 0.4180(13)
O4 O 0.2143(14) 0.9059(12) 0.4949(11)
O5 O -0.2369(19) -0.0769(17) 0.4902(16)
H3 H -0.24590 -0.06297 0.55377
H4 H -0.16363 -0.07565 0.49225
O6 O -0.338(2) 0.1727(18) 0.3097(14)
H5 H -0.38721 0.21559 0.32025
H6 H -0.32537 0.18291 0.24807
O7 O 0.2055(15) 1.1881(12) 0.3045(13)
O8 O 0.3821(13) 1.1027(15) 0.4394(12)
H7 H 0.40022 1.12553 0.50803
H8 H 0.42781 1.04753 0.43494
O9 O 0.5410(15) 1.9752(13) 0.3875(14)
O10 O 0.0354(14) 0.9948(14) 0.3534(13)
H9 H 0.01399 1.02110 0.29463
H10 H -0.00509 1.02421 0.39518
O11 O 0.4974(16) 1.0388(15) -0.3865(12)
O12 O -0.2583(17) -0.0442(17) 0.2722(14)
H11 H -0.30015 -0.11704 0.26031
H12 H -0.18449 -0.06300 0.27811
O13 O 0.1733(14) 1.1513(14) 0.5190(12)
O14 O 0.2448(16) 0.9481(14) 0.2815(12)
N1 N -0.0477(16) 1.0700(15) 1.0902(14)
N2 N 0.1654(17) 0.7994(16) 0.4771(14)
N3 N -0.0778(16) 0.2288(17) 0.4254(15)
N4 N 0.1399(16) 1.1278(15) 0.6085(13)
N5 N 0.4684(18) 1.0266(16) -0.2943(13)
N6 N 0.499(2) 1.864(2) 0.3776(17)
N7 N 0.2785(16) 0.9647(18) 0.1901(14)
N8 N 0.2522(16) 1.2930(15) 0.3196(14)
C1 C 0.5457(19) 1.0587(18) -0.2075(16)
H13 H 0.62146 1.08761 -0.21360
C2 C 0.023(2) 1.090(2) 0.8988(17)
C3 C 0.126(2) 0.621(2) 0.5482(18)
H14 H 0.13390 0.57707 0.60458
C4 C 0.401(2) 1.6428(17) 0.3579(16)
C5 C 0.000(2) 0.392(2) 0.5295(17)
H15 H 0.02106 0.42590 0.59534
C6 C 0.5092(19) 1.0476(19) -0.1092(17)
H16 H 0.56002 1.06999 -0.04975
C7 C 0.468(2) 1.8121(18) 0.2853(17)
H17 H 0.47733 1.85207 0.22697
C8 C 0.118(3) 0.755(2) 0.3877(19)
H18 H 0.11784 0.79871 0.33113
C9 C 0.321(2) 0.971(2) -0.1915(19)
H19 H 0.24570 0.94206 -0.18584
C10 C 0.481(2) 1.807(2) 0.4633(18)
H20 H 0.49765 1.84489 0.52787
C11 C 0.401(2) 1.0662(19) 0.0830(18)
H21 H 0.45853 1.12529 0.07522
C12 C 0.276(2) 0.902(2) 0.0163(17)
H22 H 0.24654 0.84911 -0.03715
C13 C 0.438(2) 1.696(3) 0.456(2)
H23 H 0.43378 1.65612 0.51539
C14 C -0.123(2) 1.0375(18) 1.0065(16)
H24 H -0.19947 1.01203 1.01247
C15 C 0.349(2) 1.516(2) 0.3462(19)
C16 C 0.0621(19) 1.0424(19) 0.6197(17)
H25 H 0.03197 0.99141 0.56460
C17 C -0.086(2) 1.0423(19) 0.9123(17)
H26 H -0.13648 1.01204 0.85473
C18 C 0.181(2) 1.200(2) 0.686(2)
H27 H 0.23620 1.25921 0.67419
C19 C 0.317(3) 1.464(2) 0.2474(19)
H28 H 0.32869 1.50274 0.18888
C20 C 0.056(2) 1.112(2) 1.0863(19)
H29 H 0.10523 1.13303 1.14705
C21 C 0.3561(18) 0.9886(18) -0.0026(16)
C22 C 0.175(2) 0.737(2) 0.561(2)
H30 H 0.21271 0.76833 0.62464
C23 C 0.068(2) 0.645(2) 0.373(2)
H31 H 0.03233 0.61718 0.30815
C24 C 0.3949(19) 1.002(2) -0.1032(16)
C25 C 0.065(2) 1.101(2) 0.7972(18)
C26 C 0.151(2) 1.195(3) 0.780(2)
H32 H 0.18237 1.24856 0.83288
C27 C -0.009(2) 0.3944(19) 0.3488(18)
H33 H 0.00572 0.42822 0.28832
C28 C 0.097(2) 1.128(2) 0.9919(18)
H34 H 0.17151 1.16290 0.98950
C29 C -0.047(2) 0.287(2) 0.5219(18)
H35 H -0.06114 0.25082 0.58139
C30 C 0.336(2) 1.4550(18) 0.4263(16)
H36 H 0.35867 1.48740 0.49261
C31 C 0.068(2) 0.571(2) 0.4565(16)
C32 C 0.0251(19) 1.0294(19) 0.7169(17)
H37 H -0.02937 0.96818 0.72549
C33 C 0.235(2) 0.889(2) 0.1120(16)
H38 H 0.17837 0.83001 0.12101
C34 C -0.061(2) 0.288(2) 0.3424(19)
H39 H -0.08595 0.25302 0.27731
C35 C 0.024(2) 0.458(2) 0.4440(18)
C36 C 0.420(2) 1.698(2) 0.2728(19)
H40 H 0.40157 1.66139 0.20761
C37 C 0.361(2) 1.054(2) 0.1758(18)
H41 H 0.38940 1.10704 0.23009
C38 C 0.353(2) 0.981(3) -0.287(2)
H42 H 0.30119 0.95905 -0.34585
C39 C 0.286(2) 1.340(2) 0.4124(18)
H43 H 0.27748 1.29796 0.46968
C40 C 0.268(2) 1.357(2) 0.2397(18)
H44 H 0.24400 1.32432 0.17372
W1 W 0.77200(8) 0.54902(8) 0.63966(6)
W2 W 0.80454(8) 0.30515(8) 0.79351(7)
W3 W 0.96143(8) 0.70010(8) 0.82781(8)
W4 W 0.70132(9) 0.78101(8) 0.75423(7)
W5 W 0.51684(8) 0.37375(8) 0.70930(7)
W6 W 0.89063(8) 0.71464(8) 1.09360(7)
W7 W 0.97867(8) 0.45904(9) 0.98883(7)
W8 W 0.73181(8) 0.30039(8) 1.03607(7)
W9 W 0.65347(8) 0.55168(8) 1.15839(6)
W10 W 0.45066(8) 0.38729(8) 0.95417(8)
W11 W 0.62400(8) 0.77819(8) 1.01693(7)
W12 W 0.43405(8) 0.61039(9) 0.80626(7)
Ge1 Ge 0.7096(2) 0.5432(2) 0.89785(18)
O15 O 0.5764(16) 0.8951(15) 1.0568(15)
O16 O 0.9916(14) 0.5661(14) 0.8851(12)
O17 O 0.4453(16) 0.2889(16) 0.6062(13)
O18 O 0.6252(13) 0.4722(14) 0.6443(11)
O19 O 0.9451(15) 0.5705(15) 1.0731(11)
O20 O 0.9301(13) 0.7471(12) 0.9618(10)
O21 O 0.9977(16) 0.7906(18) 1.1759(12)
O22 O 0.8248(13) 0.4209(14) 0.7048(12)
O23 O 0.5178(13) 0.4804(13) 1.0651(12)
O24 O 0.5004(15) 0.6938(14) 0.9322(11)
O25 O 0.6871(13) 0.8157(13) 0.8901(10)
O26 O 0.7163(13) 0.4244(12) 1.1252(11)
O27 O 0.7855(12) 0.4328(13) 0.9204(9)
O28 O 0.6421(13) 0.3013(13) 0.7529(12)
O29 O 0.3188(16) 0.6715(18) 0.7660(13)
O30 O 0.5946(12) 0.6919(13) 1.1331(11)
O31 O 0.7169(11) 0.6224(10) 1.0087(9)
O32 O 0.7210(14) 0.6879(14) 0.6291(13)
O33 O 1.1142(14) 0.4422(16) 1.0327(14)
O34 O 0.3700(13) 0.4991(13) 0.8947(12)
O35 O 0.4218(14) 0.4921(14) 0.6982(11)
O36 O 0.7202(19) 0.1883(17) 1.1106(13)
O37 O 0.4315(15) 0.3163(14) 0.8133(12)
O38 O 0.5521(12) 0.6909(14) 0.7455(10)
O39 O 0.5670(12) 0.4902(12) 0.8526(10)
O40 O 0.8287(16) 0.1910(15) 0.7213(14)
O41 O 0.7551(13) 0.2209(12) 0.9137(11)
O42 O 0.7830(14) 0.8170(14) 1.0848(13)
O43 O 0.9513(14) 0.3449(14) 0.8710(11)
O44 O 0.8985(12) 0.3445(13) 1.0627(10)
O45 O 0.8626(14) 0.8098(13) 0.7773(12)
O46 O 0.8031(13) 0.6369(14) 1.1970(12)
O47 O 0.7964(16) 0.5305(18) 0.5157(12)
O48 O 0.683(2) 0.9000(15) 0.6926(14)
O49 O 0.5750(15) 0.3060(13) 0.9805(13)
O50 O 1.0919(15) 0.7742(16) 0.8170(14)
O51 O 0.9241(15) 0.6252(15) 0.6905(13)
O52 O 0.3418(16) 0.3030(17) 0.9996(15)
O53 O 0.6161(18) 0.5342(19) 1.2769(13)
O54 O 0.7691(12) 0.6184(12) 0.8043(10)
O55 O 0.5874(19) 0.3444(18) 0.3978(17)
Co1* Co 0.7121(3) 2.0461(3) 0.4024(3)
O9* O -0.4590(15) -0.0248(13) 0.3875(14)
#END
