
#######################################################################
#
#                 Cambridge Crystallographic Data Centre
#                                CCDC
#
#######################################################################
#
# If this CIF has been generated from an entry in the Cambridge
# Structural Database, then it will include bibliographic, chemical,
# crystal, experimental, refinement or atomic coordinate data resulting
# from the CCDC's data processing and validation procedures.
#
#######################################################################

data_CSD_CIF_AXUKUB
_audit_creation_date 2016-10-24
_audit_creation_method CSD-ConQuest-V1
_database_code_CSD AXUKUB
_database_code_depnum_ccdc_archive 'CCDC 1482474'
_chemical_formula_sum 'C14 H22 Cd1 N2 O6 S1'
_chemical_formula_moiety
;
(C8 H3 Cd1 O4 S1 1-)n,C2 H8 N1 1+,x(C4 H9 N1 O1),x(H2 O1)
;
_journal_coden_Cambridge 1147
_journal_volume 16
_journal_year 2016
_journal_page_first 6363
_journal_name_full 'Cryst.Growth Des. '
loop_
_publ_author_name
"Bao-Xia Dong"
"Meng Tang"
"Wen-Long Liu"
"Yi-Chen Wu"
"Yong-Mei Pan"
"Fan-Yan Bu"
"Yun-Lei Teng"
_chemical_name_systematic
;
catena-[dimethylammonium (\m-5-thiolatoisophthalato)-cadmium 
N,N-dimethylacetamide solvate hydrate]
;
_cell_volume   9538.934
_exptl_crystal_colour 'colorless'
_exptl_special_details
;
dye adsorption property

;
_exptl_crystal_description 'block'
_diffrn_ambient_temperature 293
_refine_special_details
;
Disordered dimethylammonium ions, water and N,N-dimethylacetamide solvent 
molecules were not modelled and the disordered density was taken into account 
using the SQUEEZE/PLATON procedure.
;
#These two values have been output from a single CSD field.
_refine_ls_R_factor_gt 0.0281
_refine_ls_wR_factor_gt 0.0281
_symmetry_cell_setting rhombohedral
_symmetry_space_group_name_H-M 'R -3 m'
_symmetry_Int_Tables_number 166
loop_
_symmetry_equiv_pos_site_id
_symmetry_equiv_pos_as_xyz
1 x,y,z
2 -y,x-y,z
3 -x+y,-x,z
4 y,x,-z
5 -x,-x+y,-z
6 x-y,-y,-z
7 2/3+x,1/3+y,1/3+z
8 2/3-y,1/3+x-y,1/3+z
9 2/3-x+y,1/3-x,1/3+z
10 2/3+y,1/3+x,1/3-z
11 2/3-x,1/3-x+y,1/3-z
12 2/3+x-y,1/3-y,1/3-z
13 1/3+x,2/3+y,2/3+z
14 1/3-y,2/3+x-y,2/3+z
15 1/3-x+y,2/3-x,2/3+z
16 1/3+y,2/3+x,2/3-z
17 1/3-x,2/3-x+y,2/3-z
18 1/3+x-y,2/3-y,2/3-z
19 -x,-y,-z
20 y,-x+y,-z
21 x-y,x,-z
22 -y,-x,z
23 x,x-y,z
24 -x+y,y,z
25 -2/3-x,-1/3-y,-1/3-z
26 -2/3+y,-1/3-x+y,-1/3-z
27 -2/3+x-y,-1/3+x,-1/3-z
28 -2/3-y,-1/3-x,-1/3+z
29 -2/3+x,-1/3+x-y,-1/3+z
30 -2/3-x+y,-1/3+y,-1/3+z
31 -1/3-x,-2/3-y,-2/3-z
32 -1/3+y,-2/3-x+y,-2/3-z
33 -1/3+x-y,-2/3+x,-2/3-z
34 -1/3-y,-2/3-x,-2/3+z
35 -1/3+x,-2/3+x-y,-2/3+z
36 -1/3-x+y,-2/3+y,-2/3+z
_cell_length_a 23.0075(18)
_cell_length_b 23.0075(18)
_cell_length_c 20.808(2)
_cell_angle_alpha 90
_cell_angle_beta 90
_cell_angle_gamma 120
_cell_formula_units_Z 18
loop_
_atom_type_symbol
_atom_type_radius_bond
C 0.68
H 0.23
Cd 1.44
O 0.68
S 1.02
loop_
_atom_site_label
_atom_site_type_symbol
_atom_site_fract_x
_atom_site_fract_y
_atom_site_fract_z
Cd1 Cd 0.08815(2) 0.33330 0.33330
S1 S 0.14221(2) 0.28442(4) 0.25657(4)
C1 C 0.16429(8) 0.32858(16) 0.18191(13)
C2 C 0.11992(12) 0.34370(12) 0.15119(10)
H1 H 0.07870 0.33130 0.17000
C3 C 0.13658(12) 0.37709(13) 0.09273(10)
C4 C 0.19743(9) 0.39485(19) 0.06397(16)
H2 H 0.20930 0.41860 0.02550
C5 C 0.08764(13) 0.39264(14) 0.06074(10)
O1 O 0.02687(9) 0.35874(9) 0.07376(7)
O2 O 0.10909(9) 0.44039(11) 0.02053(9)
C2W C 0.22378(12) 0.34370(12) 0.15119(10)
H1W H 0.25260 0.33130 0.17000
C3W C 0.24051(12) 0.37709(13) 0.09273(10)
C5W C 0.30500(13) 0.39264(14) 0.06074(10)
O1W O 0.33187(9) 0.35874(9) 0.07376(7)
O2W O 0.33130(9) 0.44039(11) 0.02053(9)
Cd1I Cd -0.000033(20) 0.42148 0.00003
Cd1W Cd 0.24515(2) 0.33330 0.33330
Cd1FA Cd 0.421517(20) 0.42148 0.00003
S1Q S 0.191123(20) 0.382247(40) 0.410097(40)
O1H O -0.001463(90) 0.306463(90) 0.407093(70)
O1I O 0.025407(90) 0.360203(90) 0.259573(70)
O2H O -0.002033(90) 0.224243(110) 0.353863(90)
O2I O 0.107057(90) 0.442423(110) 0.312803(90)
#END
