
#######################################################################
#
#                 Cambridge Crystallographic Data Centre
#                                CCDC
#
#######################################################################
#
# If this CIF has been generated from an entry in the Cambridge
# Structural Database, then it will include bibliographic, chemical,
# crystal, experimental, refinement or atomic coordinate data resulting
# from the CCDC's data processing and validation procedures.
#
#######################################################################

data_CSD_CIF_AXULEM
_audit_creation_date 2016-10-24
_audit_creation_method CSD-ConQuest-V1
_database_code_CSD AXULEM
_database_code_depnum_ccdc_archive 'CCDC 1482476'
_chemical_formula_sum 'C44 H55 Cd4 N5 O18 S4'
_chemical_formula_moiety
;
(C32 H12 Cd4 O16 S4 4-)n,4(C2 H8 N1 1+),x(C4 H9 N1 O1),x(H2 O1)
;
_journal_coden_Cambridge 1147
_journal_volume 16
_journal_year 2016
_journal_page_first 6363
_journal_name_full 'Cryst.Growth Des. '
loop_
_publ_author_name
"Bao-Xia Dong"
"Meng Tang"
"Wen-Long Liu"
"Yi-Chen Wu"
"Yong-Mei Pan"
"Fan-Yan Bu"
"Yun-Lei Teng"
_chemical_name_systematic
;
catena-[tetrakis(dimethylammonium) 
tetrakis(\m-5-thiolatoisophthalato)-tetra-cadmium N,N-dimethylacetamide 
solvate hydrate]
;
_cell_volume   8745.468
_exptl_crystal_colour 'colorless'
_exptl_special_details
;
dye adsorption property

;
_exptl_crystal_description 'Rod'
_diffrn_ambient_temperature 150
_refine_special_details
;
Disordered dimethylammonium, water and N,N-dimethylacetamide solvent 
molecules were not modelled and the disordered density was taken into account 
using the SQUEEZE/PLATON procedure.
;
#These two values have been output from a single CSD field.
_refine_ls_R_factor_gt 0.0354
_refine_ls_wR_factor_gt 0.0354
_symmetry_cell_setting monoclinic
_symmetry_space_group_name_H-M 'P 21/c'
_symmetry_Int_Tables_number 14
loop_
_symmetry_equiv_pos_site_id
_symmetry_equiv_pos_as_xyz
1 x,y,z
2 -x,1/2+y,1/2-z
3 -x,-y,-z
4 x,-1/2-y,-1/2+z
_cell_length_a 14.0370(14)
_cell_length_b 33.781(4)
_cell_length_c 18.982(2)
_cell_angle_alpha 90
_cell_angle_beta 103.684(3)
_cell_angle_gamma 90
_cell_formula_units_Z 4
loop_
_atom_type_symbol
_atom_type_radius_bond
C 0.68
H 0.23
Cd 1.44
O 0.68
S 1.02
loop_
_atom_site_label
_atom_site_type_symbol
_atom_site_fract_x
_atom_site_fract_y
_atom_site_fract_z
Cd1 Cd -0.22617(2) 0.37892(2) 0.50830(2)
Cd2 Cd 0.23990(2) 0.51701(2) 0.47518(2)
Cd3 Cd 0.20552(2) 0.28269(2) 0.80177(2)
Cd4 Cd 0.35179(2) 0.22288(2) 0.72383(2)
C1 C 0.4518(2) 0.11568(8) 0.82778(15)
C2 C 0.3864(2) 0.08882(8) 0.84511(15)
H1 H 0.31790 0.09370 0.83050
C3 C 0.42063(19) 0.05464(8) 0.88391(15)
C4 C 0.52021(19) 0.04682(8) 0.90429(15)
H2 H 0.54300 0.02320 0.93010
C5 C 0.5879(2) 0.07366(8) 0.88690(15)
C6 C 0.5524(2) 0.10778(8) 0.84821(15)
H3 H 0.59720 0.12590 0.83550
C7 C 0.4158(2) 0.15298(9) 0.79004(17)
C8 C 0.1186(2) 0.25219(8) 0.61316(15)
C9 C 0.14925(19) 0.23917(8) 0.55271(14)
H4 H 0.19600 0.21840 0.55740
C10 C 0.11155(19) 0.25644(8) 0.48542(14)
C11 C 0.04297(19) 0.28660(8) 0.47786(15)
H5 H 0.01970 0.29910 0.43220
C12 C 0.00863(19) 0.29835(8) 0.53727(14)
C13 C 0.0466(2) 0.28128(8) 0.60446(15)
H6 H 0.02320 0.28960 0.64510
C14 C -0.0720(2) 0.32862(9) 0.52891(16)
C15 C 0.6259(2) 0.17422(9) 0.98822(16)
C16 C 0.3488(2) 0.02795(8) 0.90621(16)
C17 C -0.04374(19) 0.42128(8) 0.62412(15)
C18 C 0.0102(2) 0.44281(8) 0.58485(16)
H7 H -0.02120 0.46280 0.55230
C19 C 0.11013(19) 0.43542(8) 0.59256(16)
C20 C 0.1553(2) 0.40534(8) 0.63783(16)
H8 H 0.22290 0.39980 0.64240
C21 C 0.1017(2) 0.38334(9) 0.67630(16)
C22 C 0.0052(2) 0.39157(8) 0.67016(15)
H9 H -0.03010 0.37670 0.69800
C23 C 0.1484(2) 0.34951(9) 0.72375(16)
C24 C 0.50886(19) 0.22301(8) 0.91617(15)
H10 H 0.53150 0.21540 0.87480
C25 C 0.54745(19) 0.20493(8) 0.98266(14)
C26 C 0.51466(19) 0.21545(8) 1.04297(15)
H11 H 0.53860 0.20210 1.08770
C27 C 0.4465(2) 0.24569(8) 1.03788(14)
C28 C 0.4080(2) 0.26415(8) 0.97119(14)
H12 H 0.36170 0.28500 0.96810
C29 C 0.4370(2) 0.25226(9) 0.91004(14)
C30 C 0.41339(19) 0.25858(9) 1.10353(15)
C31 C 0.14524(19) 0.24221(9) 0.42099(15)
C32 C 0.1671(2) 0.46026(9) 0.55218(17)
O1 O 0.32966(17) 0.16468(7) 0.79092(13)
O2 O 0.47080(16) 0.17329(6) 0.76096(11)
O3 O 0.09857(15) 0.33190(6) 0.76105(11)
O4 O 0.23492(16) 0.33968(7) 0.72461(13)
O5 O 0.25885(14) 0.03661(6) 0.89069(12)
O6 O 0.38126(13) -0.00198(5) 0.94415(11)
O7 O -0.12564(14) 0.32798(6) 0.57334(11)
O8 O -0.08614(14) 0.35252(6) 0.47612(11)
O9 O 0.63837(13) 0.14962(6) 1.03960(11)
O10 O 0.67761(13) 0.17388(6) 0.94269(10)
O11 O 0.11898(14) 0.48504(6) 0.50709(12)
O12 O 0.25775(14) 0.45699(6) 0.56344(12)
O13 O 0.37207(14) 0.29119(6) 1.10433(10)
O14 O 0.42916(15) 0.23537(6) 1.15783(10)
O15 O 0.17562(14) 0.20721(6) 0.41914(10)
O16 O 0.14385(16) 0.26586(6) 0.36948(11)
S1 S 0.71648(5) 0.06565(2) 0.91416(4)
S2 S -0.17132(5) 0.42822(2) 0.61682(4)
S3 S 0.16358(5) 0.22935(2) 0.69877(4)
S4 S 0.39227(5) 0.27666(2) 0.82601(4)
Cd1C Cd 0.77383(2) 0.12108(2) 1.00830(2)
Cd2A Cd 0.76010(2) 0.01701(2) 1.02482(2)
Cd2B Cd -0.23990(2) 0.48299(2) 0.52482(2)
Cd2C Cd 0.23990(2) -0.01701(2) 0.97518(2)
Cd3C Cd 0.20552(2) 0.21731(2) 0.30177(2)
Cd4C Cd 0.35179(2) 0.27712(2) 1.22383(2)
O5C O 0.25885(14) 0.46339(6) 0.39069(12)
O6C O 0.38126(13) 0.50198(5) 0.44415(11)
O9C O -0.36163(13) 0.35038(6) 0.53960(11)
O10C O -0.32239(13) 0.32612(6) 0.44269(10)
O13C O 0.37207(14) 0.20881(6) 0.60433(10)
O14C O 0.42916(15) 0.26463(6) 0.65783(10)
O15C O 0.17562(14) 0.29279(6) 0.91914(10)
O16C O 0.14385(16) 0.23414(6) 0.86948(11)
S1A S 0.28352(5) 0.56565(2) 0.58584(4)
S1C S -0.28352(5) 0.43435(2) 0.41416(4)
S2B S 0.17132(5) 0.57178(2) 0.38318(4)
#END
