
#######################################################################
#
#                 Cambridge Crystallographic Data Centre
#                                CCDC
#
#######################################################################
#
# If this CIF has been generated from an entry in the Cambridge
# Structural Database, then it will include bibliographic, chemical,
# crystal, experimental, refinement or atomic coordinate data resulting
# from the CCDC's data processing and validation procedures.
#
#######################################################################

data_CSD_CIF_AYAHUG
_audit_creation_date 2021-07-15
_audit_creation_method CSD-ConQuest-V1
_database_code_CSD AYAHUG
_database_code_depnum_ccdc_archive 'CCDC 2058569'
_chemical_formula_sum 'C42 H32 Ag2 N4 O12'
_chemical_formula_moiety
;
(C32 H20 Ag1 N2 O10 1-)n,(C10 H8 Ag1 N2 1+)n,2(H2 O1)
;
_journal_coden_Cambridge 580
_journal_volume 207
_journal_year 2021
_journal_page_first 115362
_journal_name_full 'Polyhedron '
loop_
_publ_author_name
"Chuncheng Shi"
"Zhi-Hui Nie"
"Ling Zhao"
"Lu Lu"
"Fan Cheng"
"Xuelin Chen"
"Guijian Tan"
"Qiang-Qiang Liu"
"Jun Wang"
"R.Chauhan"
"A.Kumar"
_chemical_name_systematic
;
catena-[(\m-4,4'-bipyridine)-silver 
(\m-4,4'-bipyridine)-(\m-3,3'-[1,3-phenylenebis(oxy)]bis(5-carboxybenzoate))-s
ilver dihydrate]
;
_cell_volume   1976.829
_exptl_crystal_colour 'colorless'
_exptl_crystal_density_diffrn 1.681
_exptl_crystal_description 'block'
_diffrn_ambient_temperature 296.1
#These two values have been output from a single CSD field.
_refine_ls_R_factor_gt 0.0546
_refine_ls_wR_factor_gt 0.0546
_symmetry_cell_setting triclinic
_symmetry_space_group_name_H-M 'P -1'
_symmetry_Int_Tables_number 2
loop_
_symmetry_equiv_pos_site_id
_symmetry_equiv_pos_as_xyz
1 x,y,z
2 -x,-y,-z
_cell_length_a 11.400(1)
_cell_length_b 11.4423(10)
_cell_length_c 15.4752(13)
_cell_angle_alpha 94.341(2)
_cell_angle_beta 99.891(2)
_cell_angle_gamma 93.662(2)
_cell_formula_units_Z 2
loop_
_atom_type_symbol
_atom_type_radius_bond
C 0.68
H 0.23
Ag 1.45
N 0.68
O 0.68
loop_
_atom_site_label
_atom_site_type_symbol
_atom_site_fract_x
_atom_site_fract_y
_atom_site_fract_z
Ag1 Ag 0.04767(4) 0.61927(6) 1.07488(4)
O1 O -0.2286(4) 0.5307(5) 0.4981(3)
H1 H -0.30061 0.51613 0.48112
O2 O 0.0348(4) 0.8920(4) 0.6155(3)
O3 O -0.2407(4) 0.4296(4) 0.6142(3)
O4 O 0.2690(4) 1.1424(4) 0.4805(3)
O5 O 0.5869(5) 1.4181(5) 0.4237(4)
H2 H 0.52706 1.43078 0.44465
O6 O -0.0356(5) 0.6091(5) 0.9102(3)
O7 O 0.6077(5) 1.3769(5) 0.2853(4)
O8 O 0.0987(7) 0.7594(6) 0.9176(4)
O9 O 0.2800(7) 1.1000(7) 0.0946(4)
O10 O 0.1749(7) 0.9837(8) 0.1630(4)
N1 N 0.8611(5) 0.6250(5) 1.0899(3)
N2 N 0.2409(5) 0.6272(6) 1.0959(4)
C1 C 0.4868(5) 0.6260(6) 1.0953(4)
C2 C 0.8073(6) 0.5542(7) 1.1357(4)
H3 H 0.85300 0.50268 1.16802
C3 C 0.2464(6) 1.0265(6) 0.4992(4)
C4 C 0.6872(6) 0.5511(6) 1.1391(4)
H4 H 0.65430 0.49811 1.17271
C5 C 0.2019(6) 0.8077(6) 0.5579(4)
H5 H 0.18782 0.73478 0.57855
C6 C 0.4045(6) 1.2458(6) 0.4119(5)
H6 H 0.43714 1.28463 0.46650
C7 C 0.3008(6) 0.5344(7) 1.1170(4)
H7 H 0.25893 0.46845 1.13153
C8 C 0.4215(5) 0.5309(6) 1.1185(4)
H8 H 0.45939 0.46444 1.13517
C9 C 0.1505(6) 1.0071(6) 0.5418(4)
H9 H 0.10039 1.06630 0.55015
C10 C -0.0671(6) 0.7010(6) 0.5978(5)
H10 H -0.08501 0.70572 0.53730
C11 C 0.3988(6) 1.2200(6) 0.2573(5)
H11 H 0.42724 1.24042 0.20721
C12 C 0.6159(5) 0.6263(6) 1.0929(4)
C13 C 0.3181(6) 0.9374(7) 0.4847(4)
H12 H 0.38245 0.95049 0.45598
C14 C 0.3030(6) 1.1333(6) 0.2491(4)
C15 C 0.4242(6) 0.7237(7) 1.0748(5)
H13 H 0.46351 0.79105 1.06011
C16 C -0.0115(6) 0.6871(6) 0.7773(4)
C17 C 0.0333(6) 0.7830(6) 0.7398(5)
H14 H 0.08192 0.84314 0.77463
C18 C 0.6724(5) 0.7030(6) 1.0466(4)
H15 H 0.62890 0.75721 1.01544
C19 C 0.7921(6) 0.7008(6) 1.0458(5)
H16 H 0.82761 0.75376 1.01342
C20 C 0.1309(6) 0.8984(6) 0.5715(4)
C21 C 0.4504(6) 1.2746(6) 0.3376(5)
C22 C 0.5558(6) 1.3638(7) 0.3462(5)
C23 C -0.1134(5) 0.6050(6) 0.6358(4)
C24 C -0.0842(5) 0.6002(6) 0.7254(4)
H17 H -0.11451 0.53666 0.75113
C25 C 0.3120(6) 1.1612(6) 0.4055(5)
C26 C 0.3040(6) 0.7200(7) 1.0765(5)
H18 H 0.26432 0.78667 1.06325
C27 C 0.2614(6) 1.1051(6) 0.3260(5)
H19 H 0.19895 1.04752 0.32238
C28 C 0.2937(7) 0.8287(7) 0.5131(5)
H20 H 0.34081 0.76792 0.50146
C29 C -0.2016(6) 0.5126(6) 0.5812(5)
C30 C 0.0044(6) 0.7872(6) 0.6504(5)
C31 C 0.2489(8) 1.0716(9) 0.1639(6)
C32 C 0.0168(7) 0.6843(7) 0.8753(6)
Ag2 Ag -0.22320(4) 0.22549(6) 0.69485(4)
N3 N 0.5860(5) 0.2213(5) 0.6945(3)
N4 N -0.0330(4) 0.2227(5) 0.7014(4)
C33 C 0.1421(5) 0.2998(6) 0.6538(4)
H21 H 0.17641 0.35310 0.62118
C34 C 0.3420(5) 0.2216(6) 0.6985(4)
C35 C 0.5261(5) 0.3138(6) 0.6734(4)
H22 H 0.56673 0.37924 0.65701
C36 C 0.2127(5) 0.2233(6) 0.7016(4)
C37 C 0.4041(6) 0.1239(7) 0.7181(5)
H23 H 0.36450 0.05623 0.73214
C38 C 0.1549(5) 0.1476(6) 0.7490(4)
H24 H 0.19799 0.09454 0.78163
C39 C 0.0357(5) 0.1499(6) 0.7485(4)
H25 H -0.00003 0.09899 0.78208
C40 C 0.4069(5) 0.3164(6) 0.6749(4)
H26 H 0.36864 0.38322 0.65965
C41 C 0.5255(6) 0.1274(7) 0.7166(5)
H27 H 0.56638 0.06202 0.73153
C42 C 0.0222(5) 0.2964(7) 0.6551(4)
H28 H -0.02324 0.34771 0.62220
O11 O 0.3372(8) 0.7754(10) 0.8484(6)
H29 H 0.35472 0.72961 0.80752
H30 H 0.26660 0.75098 0.85279
O12 O 0.4256(17) 0.9822(11) 0.9232(10)
H31 H 0.39888 0.91394 0.89994
H32 H 0.36553 1.01201 0.93939
O13 O 0.1826(14) 0.9842(10) 0.9412(8)
H33 H 0.21371 1.02163 0.99017
H34 H 0.16395 0.91545 0.95438
O14 O 0.0522(13) 0.9043(12) 1.0299(8)
H35 H 0.08097 0.92412 1.08379
H36 H 0.05245 0.82984 1.02482
Ag1* Ag 1.04767(4) 0.61927(6) 1.07488(4)
Ag1A Ag -0.04767(4) 0.38073(6) 0.92512(4)
O6A O 0.0356(5) 0.3909(5) 1.0898(3)
N1* N -0.1389(5) 0.6250(5) 1.0899(3)
Ag2* Ag 0.77680(4) 0.22549(6) 0.69485(4)
N3* N -0.4140(5) 0.2213(5) 0.6945(3)
#END
