
#######################################################################
#
#                 Cambridge Crystallographic Data Centre
#                                CCDC
#
#######################################################################
#
# If this CIF has been generated from an entry in the Cambridge
# Structural Database, then it will include bibliographic, chemical,
# crystal, experimental, refinement or atomic coordinate data resulting
# from the CCDC's data processing and validation procedures.
#
#######################################################################

data_CSD_CIF_AYEKUN
_audit_creation_date 2021-07-15
_audit_creation_method CSD-ConQuest-V1
_database_code_CSD AYEKUN
_database_code_depnum_ccdc_archive 'CCDC 2079797'
_chemical_formula_sum 'C29 H47 N7 O8 U1'
_chemical_formula_moiety
;
(C27 H39 N6 O8 U1 1-)n,C2 H8 N1 1+
;
_journal_coden_Cambridge 9
_journal_volume 60
_journal_year 2021
_journal_page_first 11485
_journal_name_full 'Inorg.Chem. '
loop_
_publ_author_name
"Xiang-He Kong"
"Kong-Qiu Hu"
"Lei Mei"
"Ailin Li"
"Kang Liu"
"Li-Wen Zeng"
"Qun-Yan Wu"
"Zhi-Fang Chai"
"Chang-Ming Nie"
"Wei-Qun Shi"
_chemical_name_systematic
;
catena-[dimethylammonium 
(\m-4,4',4''-[1,3,5-triazine-2,4,6-triyltris(azanediylmethylene)]tri(cyclohexa
ne-1-carboxylato))-dioxo-uranium unknown solvate]
;
_cell_volume   3258.918
_exptl_crystal_colour 'metallic yellow'
_exptl_crystal_description 'block'
_exptl_crystal_preparation 'N,N-dimethylformamide'
_diffrn_ambient_temperature 296.3
_refine_special_details
;
The MASK/OLEX2 program has been used to model some disorder.

;
#These two values have been output from a single CSD field.
_refine_ls_R_factor_gt 0.0367
_refine_ls_wR_factor_gt 0.0367
_symmetry_cell_setting monoclinic
_symmetry_space_group_name_H-M 'P 21/n'
_symmetry_Int_Tables_number 14
loop_
_symmetry_equiv_pos_site_id
_symmetry_equiv_pos_as_xyz
1 x,y,z
2 1/2-x,1/2+y,1/2-z
3 -x,-y,-z
4 -1/2+x,-1/2-y,-1/2+z
_cell_length_a 9.8208(2)
_cell_length_b 16.9768(4)
_cell_length_c 19.7750(3)
_cell_angle_alpha 90
_cell_angle_beta 98.717(1)
_cell_angle_gamma 90
_cell_formula_units_Z 4
loop_
_atom_type_symbol
_atom_type_radius_bond
C 0.68
H 0.23
N 0.68
O 0.68
U 1.96
loop_
_atom_site_label
_atom_site_type_symbol
_atom_site_fract_x
_atom_site_fract_y
_atom_site_fract_z
U1 U 0.77229(2) 0.59436(2) 1.00431(2)
O1 O -0.1082(5) 0.4793(3) 0.0433(2)
O2 O 0.0896(5) 0.4235(3) 0.0824(2)
O3 O 0.7169(5) 0.7085(3) 0.9413(2)
O4 O 0.9011(5) 0.6499(3) 1.0552(2)
N1 N 0.4096(6) 0.6708(4) 0.5603(3)
H1 H 0.36722 0.71420 0.54870
N2 N 0.4000(5) 0.5349(3) 0.5602(2)
N3 N 0.2180(6) 0.4715(4) 0.4840(2)
N4 N 0.3793(6) 0.4027(4) 0.5553(2)
H2 H 0.34059 0.36109 0.53651
O5 O 0.5389(6) 0.7828(4) 0.9072(3)
N5 N 0.2248(6) 0.6106(3) 0.4938(2)
N6 N 0.0528(6) 0.5514(4) 0.4215(3)
H3 H 0.02108 0.59832 0.41372
O6 O 0.4010(6) 0.3355(4) 0.9398(2)
O7 O 0.6447(6) 0.5395(4) 0.9532(2)
O8 O 0.3245(5) 0.4469(4) 0.8955(2)
C1 C 0.3486(7) 0.6040(4) 0.5393(3)
C2 C 0.0234(6) 0.4696(4) 0.3153(3)
H4 H 0.11560 0.44616 0.32372
C3 C 0.4517(6) 0.4026(4) 0.6814(3)
H5 H 0.38393 0.44534 0.67840
C4 C 0.3311(7) 0.4724(4) 0.5329(3)
C5 C -0.0430(7) 0.4694(4) 0.1643(3)
H6 H -0.13412 0.49357 0.16244
C6 C 0.5426(7) 0.7056(4) 0.6746(3)
H7 H 0.50759 0.75974 0.67086
C7 C 0.1675(7) 0.5418(5) 0.4670(3)
C8 C 0.5725(7) 0.4262(5) 0.7347(3)
H8 H 0.64159 0.38494 0.73880
H9 H 0.61393 0.47390 0.71998
C9 C 0.4522(7) 0.6592(5) 0.7144(3)
H10 H 0.48045 0.60445 0.71575
H11 H 0.35783 0.66196 0.69139
C10 C 0.4946(7) 0.3934(5) 0.6103(3)
H12 H 0.56443 0.43241 0.60490
H13 H 0.53508 0.34172 0.60689
C11 C -0.0194(7) 0.4565(4) 0.0915(3)
C12 C 0.3941(8) 0.3843(5) 0.8925(3)
C13 C 0.5454(8) 0.6750(5) 0.6023(3)
H14 H 0.60397 0.70904 0.57987
H15 H 0.58609 0.62279 0.60522
C14 C 0.6892(7) 0.7084(5) 0.7118(3)
H16 H 0.74332 0.74281 0.68715
H17 H 0.72891 0.65604 0.71233
C15 C 0.6047(7) 0.6917(4) 0.8258(3)
H18 H 0.63921 0.63760 0.83129
C16 C 0.6970(7) 0.7380(5) 0.7855(3)
H19 H 0.79147 0.73414 0.80826
H20 H 0.67060 0.79304 0.78473
C17 C -0.044(1) 0.3948(5) 0.2045(3)
H21 H 0.04464 0.36886 0.20670
H22 H -0.11379 0.35966 0.18126
C18 C 0.4553(7) 0.3671(5) 0.8279(3)
H23 H 0.52234 0.32417 0.83710
C19 C 0.6161(7) 0.7297(4) 0.8962(3)
C20 C -0.0210(7) 0.4860(5) 0.3845(3)
H24 H -0.11883 0.49748 0.37757
H25 H -0.00634 0.43887 0.41238
C21 C 0.5278(8) 0.4402(5) 0.8037(3)
H26 H 0.46543 0.48477 0.80058
H27 H 0.60777 0.45279 0.83704
C22 C 0.4587(7) 0.6898(5) 0.7879(3)
H28 H 0.42017 0.74248 0.78666
H29 H 0.40297 0.65619 0.81239
C23 C 0.3836(8) 0.3295(5) 0.7036(3)
H30 H 0.44742 0.28562 0.70559
H31 H 0.30373 0.31688 0.67023
C24 C 0.0316(10) 0.5430(4) 0.2739(3)
H32 H 0.10426 0.57647 0.29693
H33 H -0.05457 0.57159 0.27125
C25 C 0.0599(10) 0.5257(5) 0.2015(3)
H34 H 0.05737 0.57464 0.17600
H35 H 0.15161 0.50361 0.20386
C26 C 0.3388(8) 0.3406(5) 0.7740(3)
H36 H 0.26550 0.37941 0.77024
H37 H 0.30223 0.29125 0.78821
C27 C -0.073(1) 0.4100(6) 0.2767(3)
H38 H -0.16697 0.42864 0.27442
H39 H -0.06534 0.36076 0.30188
U1* U -0.22771(2) 0.59436(2) 0.00431(2)
U1B U 0.22771(2) 0.40564(2) -0.00431(2)
U1B* U 0.22771(2) 0.40564(2) 0.99569(2)
O1* O 0.8918(5) 0.4793(3) 1.0433(2)
O2B O 0.9104(5) 0.5765(3) 0.9176(2)
O6B O 0.5990(6) 0.6645(4) 1.0602(2)
O8B O 0.6755(5) 0.5531(4) 1.1045(2)
#END
