
#######################################################################
#
#                 Cambridge Crystallographic Data Centre
#                                CCDC
#
#######################################################################
#
# If this CIF has been generated from an entry in the Cambridge
# Structural Database, then it will include bibliographic, chemical,
# crystal, experimental, refinement or atomic coordinate data resulting
# from the CCDC's data processing and validation procedures.
#
#######################################################################

data_CSD_CIF_AYOXLH
_audit_creation_date 1971-12-31
_audit_creation_method CSD-ConQuest-V1
_database_code_CSD AYOXLH
_database_code_depnum_ccdc_archive 'CCDC 1104118'
_chemical_formula_sum 'C4 H6 N1 O9 Y1'
_chemical_formula_moiety
;
(C4 H2 O9 Y1 1-)n,n(H4 N1 1+)
;
_journal_coeditor_code "IUCr A05805"
_journal_coden_Cambridge 1
_journal_volume 23
_journal_year 1967
_journal_page_first 944
_journal_name_full 'Acta Crystallogr. '
loop_
_publ_author_name
"T.R.R.McDonald"
"J.M.Spink"
_chemical_name_systematic
;
catena-[Ammonium bis(\m~2~-oxalato)-aqua-yttrium(iii)]
;
_cell_volume    441.097
_exptl_crystal_density_diffrn 2.27
_exptl_special_details
;
Isostructural to the cesium analogue

;
_diffrn_ambient_temperature ?
_diffrn_special_details
;
The study was carried out at room temperature,in the range 283-303K
twin

;
#These two values have been output from a single CSD field.
_refine_ls_R_factor_gt 0.105
_refine_ls_wR_factor_gt 0.105
_symmetry_cell_setting monoclinic
_symmetry_space_group_name_H-M 'P 2/n'
_symmetry_Int_Tables_number 13
loop_
_symmetry_equiv_pos_site_id
_symmetry_equiv_pos_as_xyz
1 x,y,z
2 1/2-x,y,1/2-z
3 -x,-y,-z
4 -1/2+x,-y,-1/2+z
_cell_length_a 9.18(1)
_cell_length_b 6.09(1)
_cell_length_c 7.89(1)
_cell_angle_alpha 90
_cell_angle_beta 90.2(1)
_cell_angle_gamma 90
_cell_formula_units_Z 2
loop_
_atom_type_symbol
_atom_type_radius_bond
C 0.68
N 0.68
O 0.68
Y 1.58
loop_
_atom_site_label
_atom_site_type_symbol
_atom_site_fract_x
_atom_site_fract_y
_atom_site_fract_z
C1 C 0.54440 -0.09670 0.46530
C2 C 0.48600 -0.10710 0.95270
O1 O 0.67440 -0.11040 0.50870
O2 O 0.47730 -0.22830 0.36770
O3 O 0.56440 -0.15510 0.82960
O4 O 0.38400 -0.22860 1.01040
O5 O 0.75000 0.48920 0.75000
Y1 Y 0.75000 0.10450 0.75000
N1 N 1.25000 0.48530 -0.25000
C1B C 0.45560 0.09670 0.53470
O1B O 0.32560 0.11040 0.49130
O2B O 0.52270 0.22830 0.63230
C2B C 0.51400 0.10710 1.04730
O3B O 0.43560 0.15510 1.17040
O4B O 0.61600 0.22860 0.98960
Y1B Y 0.25000 -0.10450 0.25000
Y1B* Y 0.25000 -0.10450 1.25000
O1A O 0.82560 -0.11040 0.99130
O2C O 0.97730 0.22830 0.86770
O3A O 0.93560 -0.15510 0.67040
O4C O 0.88400 0.22860 0.51040
#END
