
#######################################################################
#
#                 Cambridge Crystallographic Data Centre
#                                CCDC
#
#######################################################################
#
# If this CIF has been generated from an entry in the Cambridge
# Structural Database, then it will include bibliographic, chemical,
# crystal, experimental, refinement or atomic coordinate data resulting
# from the CCDC's data processing and validation procedures.
#
#######################################################################

data_CSD_CIF_AYUFIL
_audit_creation_date 2016-10-27
_audit_creation_method CSD-ConQuest-V1
_database_code_CSD AYUFIL
_database_code_depnum_ccdc_archive 'CCDC 990410'
_chemical_formula_sum 'C12 H19.5 Ag4 N4 O14.75'
_chemical_formula_moiety
;
(C12 H6 Ag4 N2 O12 2-)n,2(H4 N1 1+),2.75(H2 O1)
;
_journal_coden_Cambridge 222
_journal_volume 45
_journal_year 2016
_journal_page_first 18142
_journal_name_full 'Dalton Trans. '
loop_
_publ_author_name
"Xi-Yan Dong"
"Xue Li"
"Bo Li"
"Yan-Yan Zhu"
"Shuang-Quan Zang"
"Ming-Sheng Tang"
_chemical_name_systematic
;
catena-[bis(ammonium) (\m-benzenehexacarboxylato)-diammine-tetra-silver 
hydrate]
;
_cell_volume   2140.440
_exptl_crystal_colour 'colorless'
_exptl_crystal_density_diffrn 2.753
_exptl_crystal_description 'block'
_diffrn_ambient_temperature 293.1
#These two values have been output from a single CSD field.
_refine_ls_R_factor_gt 0.0395
_refine_ls_wR_factor_gt 0.0395
_symmetry_cell_setting monoclinic
_symmetry_space_group_name_H-M 'P 21/c'
_symmetry_Int_Tables_number 14
loop_
_symmetry_equiv_pos_site_id
_symmetry_equiv_pos_as_xyz
1 x,y,z
2 -x,1/2+y,1/2-z
3 -x,-y,-z
4 x,-1/2-y,-1/2+z
_cell_length_a 9.6914(9)
_cell_length_b 17.9225(16)
_cell_length_c 13.0999(12)
_cell_angle_alpha 90
_cell_angle_beta 109.831(10)
_cell_angle_gamma 90
_cell_formula_units_Z 4
loop_
_atom_type_symbol
_atom_type_radius_bond
C 0.68
H 0.23
Ag 1.45
N 0.68
O 0.68
loop_
_atom_site_label
_atom_site_type_symbol
_atom_site_fract_x
_atom_site_fract_y
_atom_site_fract_z
Ag1 Ag -0.24216(3) 0.43041(2) 0.49217(3)
Ag2 Ag 0.73641(4) 0.06083(2) 0.72763(3)
Ag3 Ag 0.76916(5) 0.06896(2) 0.50492(3)
Ag4 Ag -0.23571(4) 0.06459(2) 0.26512(3)
O1 O -0.1164(3) 0.32111(16) 0.3406(2)
O2 O -0.0313(3) 0.37030(16) 0.5071(2)
O3 O 0.1871(3) 0.44392(15) 0.4018(2)
O4 O 0.3188(3) 0.44370(15) 0.5785(2)
O5 O 0.5434(3) 0.37139(17) 0.4729(2)
O6 O 0.6322(3) 0.32005(16) 0.6384(2)
O7 O 0.6241(3) 0.16979(15) 0.5216(2)
O8 O 0.5450(3) 0.12911(15) 0.6535(2)
O9 O 0.3337(3) 0.05605(16) 0.4374(2)
O10 O 0.1845(4) 0.05247(16) 0.5333(2)
O11 O -0.0349(3) 0.12876(16) 0.3258(2)
O12 O -0.1111(3) 0.17386(15) 0.4562(2)
C1 C 0.1233(4) 0.2878(2) 0.4578(3)
C2 C 0.2568(4) 0.3271(2) 0.4894(3)
C3 C 0.3916(4) 0.2883(2) 0.5214(3)
C4 C 0.3911(4) 0.2101(2) 0.5245(3)
C5 C 0.2569(4) 0.1704(2) 0.4883(3)
C6 C 0.1239(4) 0.2100(2) 0.4531(3)
C7 C -0.0196(4) 0.3302(2) 0.4320(3)
C8 C 0.2549(4) 0.4110(2) 0.4897(3)
C9 C 0.5341(4) 0.3303(2) 0.5478(3)
C10 C 0.5323(4) 0.1658(2) 0.5694(3)
C11 C 0.2587(4) 0.0871(2) 0.4859(3)
C12 C -0.0193(4) 0.1671(2) 0.4090(3)
N1 N 0.9006(4) -0.0211(2) 0.8009(3)
H1 H 0.86840 -0.05180 0.84130
H2 H 0.98210 0.00140 0.84260
H3 H 0.91970 -0.04710 0.74940
N2 N -0.4028(4) -0.0185(2) 0.2198(3)
H4 H -0.37500 -0.05570 0.18620
H5 H -0.48550 0.00140 0.17540
H6 H -0.41760 -0.03590 0.27890
N3 N 0.9159(4) 0.24976(19) 0.1565(3)
H7 H 0.91500 0.27690 0.21410
H8 H 0.86070 0.20840 0.14850
H9 H 0.88350 0.27750 0.09580
H10 H 1.00880 0.23660 0.16510
N4 N 0.6061(4) 0.24804(19) 0.8277(3)
H11 H 0.51760 0.22600 0.80100
H12 H 0.59270 0.27100 0.76390
H13 H 0.69220 0.22690 0.83210
H14 H 0.63380 0.27480 0.88940
O13 O 1.0360(4) 0.0963(3) 0.6738(3)
H15 H 1.08170 0.08410 0.63120
H16 H 1.09700 0.10230 0.73740
O14 O 0.4065(7) 0.1314(3) 0.2786(4)
H17 H 0.37380 0.11680 0.21300
H18 H 0.39640 0.10340 0.32800
O15 O 0.2541(7) 0.2624(4) 0.2395(4)
H19 H 0.28170 0.28600 0.19360
H20 H 0.25790 0.26870 0.30480
Ag1* Ag 0.75784(3) 0.43041(2) 0.49217(3)
Ag1B Ag 0.24216(3) 0.56959(2) 0.50783(3)
Ag2C Ag -0.26359(4) 0.43917(2) 0.22763(3)
Ag3* Ag -0.23084(5) 0.06896(2) 0.50492(3)
Ag3B Ag 0.23084(5) -0.06896(2) 0.49508(3)
Ag4* Ag 0.76429(4) 0.06459(2) 0.26512(3)
Ag4C Ag 0.76429(4) 0.43541(2) 0.76512(3)
O1C O 0.8836(3) 0.17889(16) 0.8406(2)
O3B O -0.1871(3) 0.55608(15) 0.5982(2)
O4B O -0.3188(3) 0.55630(15) 0.4215(2)
O5* O -0.4566(3) 0.37139(17) 0.4729(2)
O6C O -0.3678(3) 0.17995(16) 0.1384(2)
O9B O 0.6663(3) -0.05605(16) 0.5626(2)
O10B O 0.8155(4) -0.05247(16) 0.4667(2)
O12* O 0.8889(3) 0.17386(15) 0.4562(2)
#END
