
#######################################################################
#
#                 Cambridge Crystallographic Data Centre
#                                CCDC
#
#######################################################################
#
# If this CIF has been generated from an entry in the Cambridge
# Structural Database, then it will include bibliographic, chemical,
# crystal, experimental, refinement or atomic coordinate data resulting
# from the CCDC's data processing and validation procedures.
#
#######################################################################

data_CSD_CIF_AYULEN
_audit_creation_date 2016-10-27
_audit_creation_method CSD-ConQuest-V1
_database_code_CSD AYULEN
_database_code_depnum_ccdc_archive 'CCDC 1497045'
_chemical_formula_sum 'C29 H27 N9 O17 S1 Zn1'
_chemical_formula_moiety
;
(C22 H15 N6 O12 S1 Zn1 1-)n,C7 H6 N3 O2 1+,3(H2 O1)
;
_journal_coden_Cambridge 208
_journal_volume 245
_journal_year 2017
_journal_page_first 190
_journal_name_full 'J.Solid State Chem. '
loop_
_publ_author_name
"Yong-Hong Zhou"
"Xu-Wan Zhou"
"Su-Rong Zhou"
"Yu-Peng Tian"
"Jie-Ying Wu"
_chemical_name_systematic
;
catena-[5-nitro-1H-3,1-benzimidazol-3-ium 
(\m-3,5-dicarboxylatobenzenesulfonate)-bis(5-nitro-1H-benzimidazole)-aqua-zinc
(ii) trihydrate]
;
_cell_volume   1680.544
_exptl_crystal_colour 'yellow'
_exptl_crystal_description 'block'
_diffrn_ambient_temperature 298
#These two values have been output from a single CSD field.
_refine_ls_R_factor_gt 0.035
_refine_ls_wR_factor_gt 0.035
_symmetry_cell_setting monoclinic
_symmetry_space_group_name_H-M 'P 21'
_symmetry_Int_Tables_number 4
loop_
_symmetry_equiv_pos_site_id
_symmetry_equiv_pos_as_xyz
1 x,y,z
2 -x,1/2+y,-z
_cell_length_a 9.4195(8)
_cell_length_b 17.8130(15)
_cell_length_c 10.0634(9)
_cell_angle_alpha 90
_cell_angle_beta 95.576(2)
_cell_angle_gamma 90
_cell_formula_units_Z 2
loop_
_atom_type_symbol
_atom_type_radius_bond
C 0.68
H 0.23
N 0.68
O 0.68
S 1.02
Zn 1.22
loop_
_atom_site_label
_atom_site_type_symbol
_atom_site_fract_x
_atom_site_fract_y
_atom_site_fract_z
Zn1 Zn 0.20434(4) 0.94042(3) 0.85577(3)
S1 S 0.78644(9) 0.95872(6) 0.42876(10)
N1 N 0.1986(3) 0.8195(2) 0.8635(3)
N2 N 0.1172(4) 0.7016(2) 0.8601(4)
H1 H 0.05770 0.66490 0.85940
N3 N 0.6968(4) 0.7343(3) 0.8528(4)
N4 N 0.1937(4) 1.0612(2) 0.8424(4)
N5 N 0.1101(4) 1.1782(2) 0.8313(4)
H2 H 0.04980 1.21450 0.82940
N6 N 0.6877(5) 1.1456(3) 0.8002(5)
O1 O 0.3378(2) 0.9378(2) 0.7099(2)
O2 O 0.1468(3) 0.91813(16) 0.5683(3)
O3 O 0.1839(3) 0.9419(2) 0.0802(2)
O4 O 0.3964(3) 0.9452(2) 0.0071(2)
O5 O 0.8240(3) 0.9306(3) 0.5604(3)
O6 O 0.8435(4) 0.9111(2) 0.3315(4)
O7 O 0.8193(4) 1.0350(2) 0.4039(4)
O8 O 0.7396(4) 0.7988(3) 0.8536(5)
O9 O 0.7759(4) 0.6800(2) 0.8531(4)
O10 O 0.7314(4) 1.0826(3) 0.8009(6)
O11 O 0.7655(4) 1.2006(3) 0.7935(5)
O12 O -0.0180(2) 0.9383(2) 0.8114(2)
H3 H -0.06350 0.93570 0.73440
H4 H -0.07940 0.96640 0.84300
C1 C 0.2759(3) 0.9287(2) 0.5942(3)
C2 C 0.3189(4) 0.9429(3) 0.1005(3)
C3 C 0.3688(3) 0.9345(2) 0.4790(3)
C4 C 0.3053(3) 0.9337(2) 0.3494(3)
H5 H 0.20700 0.92800 0.33300
C5 C 0.3886(3) 0.9413(3) 0.2430(3)
C6 C 0.5356(4) 0.9483(3) 0.2668(3)
H6 H 0.59160 0.95260 0.19600
C7 C 0.5984(3) 0.9489(3) 0.3982(3)
C8 C 0.5156(3) 0.9433(3) 0.5040(3)
H7 H 0.55790 0.94530 0.59140
C9 C 0.0855(5) 0.7758(3) 0.8640(5)
H8 H -0.00670 0.79410 0.86680
C10 C 0.2601(5) 0.6961(3) 0.8575(4)
C11 C 0.3120(5) 0.7697(3) 0.8599(4)
C12 C 0.4569(5) 0.7845(3) 0.8574(4)
H9 H 0.49310 0.83310 0.85900
C13 C 0.5436(5) 0.7218(3) 0.8524(4)
C14 C 0.4937(5) 0.6486(3) 0.8498(5)
H10 H 0.55770 0.60900 0.84670
C15 C 0.3508(5) 0.6338(3) 0.8519(5)
H11 H 0.31570 0.58500 0.84970
C16 C 0.0818(5) 1.1047(3) 0.8441(4)
H12 H -0.00910 1.08640 0.85330
C17 C 0.2555(5) 1.1839(3) 0.8220(4)
C18 C 0.3062(5) 1.1106(3) 0.8292(4)
C19 C 0.4502(5) 1.0964(3) 0.8208(4)
H13 H 0.48690 1.04790 0.82280
C20 C 0.5347(5) 1.1583(3) 0.8093(5)
C21 C 0.4828(5) 1.2321(3) 0.8032(5)
H14 H 0.54560 1.27170 0.79480
C22 C 0.3421(5) 1.2465(3) 0.8094(5)
H15 H 0.30570 1.29500 0.80540
N7 N 1.0015(4) 0.7866(2) 0.5275(4)
H16 H 1.00040 0.83490 0.53090
N8 N 1.0807(4) 0.6727(2) 0.5183(4)
H17 H 1.13870 0.63560 0.51490
N9 N 0.4971(4) 0.7054(2) 0.5202(4)
O13 O 0.4551(3) 0.76946(19) 0.5292(4)
O14 O 0.4192(3) 0.6511(2) 0.5111(4)
C23 C 1.1157(5) 0.7445(3) 0.5223(5)
H18 H 1.20810 0.76280 0.52160
C24 C 0.9332(4) 0.6676(2) 0.5206(4)
C25 C 0.8832(4) 0.7399(2) 0.5266(4)
C26 C 0.7392(4) 0.7556(2) 0.5283(4)
H19 H 0.70420 0.80430 0.53230
C27 C 0.6520(4) 0.6933(2) 0.5235(4)
C28 C 0.7016(5) 0.6198(3) 0.5170(4)
H20 H 0.63720 0.58010 0.51340
C29 C 0.8432(5) 0.6055(3) 0.5158(4)
H21 H 0.87810 0.55680 0.51200
O15 O 0.0003(5) 0.8251(2) 0.1746(5)
H22 H 0.05700 0.85640 0.14410
H23 H -0.05180 0.84860 0.22510
O16 O 0.0153(5) 0.5528(2) 0.8416(4)
H24 H -0.04080 0.51700 0.85640
H25 H 0.05580 0.54260 0.77190
O17 O -0.2242(5) 0.9460(4) 0.9930(4)
H26 H -0.20930 0.89960 0.96700
H27 H -0.14890 0.96320 1.03590
Zn1* Zn 0.20434(4) 0.94042(3) -0.14423(3)
O3* O 0.1839(3) 0.9419(2) 1.0802(2)
O4* O 0.3964(3) 0.9452(2) 1.0071(2)
#END
