
#######################################################################
#
#                 Cambridge Crystallographic Data Centre
#                                CCDC
#
#######################################################################
#
# If this CIF has been generated from an entry in the Cambridge
# Structural Database, then it will include bibliographic, chemical,
# crystal, experimental, refinement or atomic coordinate data resulting
# from the CCDC's data processing and validation procedures.
#
#######################################################################

data_CSD_CIF_AZAFEO
_audit_creation_date 2016-10-27
_audit_creation_method CSD-ConQuest-V1
_database_code_CSD AZAFEO
_database_code_depnum_ccdc_archive 'CCDC 1496611'
_chemical_formula_sum 'C44 H32 Br8 Ca3 N4 O22'
_chemical_formula_moiety
;
(C32 H16 Br8 Ca3 O20 2-)n,n(C12 H12 N4 2+),2n(H2 O1)
;
_journal_coden_Cambridge 1350
_journal_volume 18
_journal_year 2016
_journal_page_first 8664
_journal_name_full 'CrystEngComm '
loop_
_publ_author_name
"Yuexin Sun"
"Yayong Sun"
"Hao Zheng"
"Hongli Wang"
"Yi Han"
"Yu Yang"
"Lei Wang"
_chemical_name_systematic
;
catena-[1,1'-(1,4-phenylene)di(1H-imidazol-3-ium) 
tetrakis(\m-2,5-dibromoterephthalato)-tetraaqua-tri-calcium dihydrate]
;
_cell_volume   1380.205
_exptl_crystal_colour 'brown'
_exptl_crystal_density_diffrn 2.079
_exptl_crystal_description 'block'
_diffrn_ambient_temperature 293
#These two values have been output from a single CSD field.
_refine_ls_R_factor_gt 0.0342
_refine_ls_wR_factor_gt 0.0342
_symmetry_cell_setting triclinic
_symmetry_space_group_name_H-M 'P -1'
_symmetry_Int_Tables_number 2
loop_
_symmetry_equiv_pos_site_id
_symmetry_equiv_pos_as_xyz
1 x,y,z
2 -x,-y,-z
_cell_length_a 10.0545(6)
_cell_length_b 11.5943(6)
_cell_length_c 12.4010(7)
_cell_angle_alpha 74.417(5)
_cell_angle_beta 84.716(5)
_cell_angle_gamma 83.300(5)
_cell_formula_units_Z 1
loop_
_atom_type_symbol
_atom_type_radius_bond
C 0.68
H 0.23
Br 1.21
Ca 1.76
N 0.68
O 0.68
loop_
_atom_site_label
_atom_site_type_symbol
_atom_site_fract_x
_atom_site_fract_y
_atom_site_fract_z
Br1 Br 1.40344(4) 0.17985(4) 1.16166(4)
Br2 Br 0.85291(5) 0.55836(4) 0.76398(4)
Br3 Br 0.60407(5) -0.28477(4) 0.53763(4)
Br4 Br 0.70450(4) 0.44954(4) 0.44194(5)
Ca1 Ca 1.04091(7) 0.08577(7) 0.81929(6)
Ca2 Ca 1.00000 0.00000 0.50000
O1 O 0.8456(3) -0.0107(3) 0.3773(2)
O2 O 0.7375(3) -0.1163(3) 0.2978(2)
O3 O 1.1347(3) 0.0415(3) 0.9942(3)
O4 O 0.9099(2) 0.2441(2) 0.9094(2)
O5 O 0.9334(3) 0.1958(3) 0.6603(3)
O6 O 1.1791(3) -0.0031(3) 1.1697(2)
O7 O 1.1304(3) -0.1220(3) 0.8600(3)
H1 H 1.10280 -0.15550 0.81420
O8 O 0.9222(3) 0.2047(3) 0.4814(3)
O9 O 1.1106(3) 0.2876(3) 0.8289(3)
O10 O 0.8569(4) -0.0898(4) 0.6502(3)
H2 H 0.78400 -0.10010 0.62580
H3 H 0.84010 -0.04400 0.69400
C1 C 0.5450(4) -0.1183(3) 0.5109(3)
C2 C 1.5911(4) 0.0565(4) 1.0391(3)
H4 H 1.65170 0.09470 1.06640
C3 C 1.3623(4) 0.0154(3) 1.0326(3)
C4 C 0.5716(4) 0.0886(4) 0.4286(3)
H5 H 0.61890 0.14910 0.38150
C5 C 0.7424(4) -0.0561(3) 0.3674(3)
C6 C 1.4572(4) 0.0717(3) 1.0700(3)
C7 C 1.0856(4) 0.4066(3) 0.5584(3)
H6 H 1.14350 0.34480 0.59850
C8 C 1.2142(4) 0.0214(3) 1.0678(3)
C9 C 0.6177(4) -0.0320(3) 0.4386(3)
C10 C 0.9346(4) 0.6129(4) 0.9561(3)
H7 H 0.89120 0.68850 0.92540
C11 C 1.0028(3) 0.4095(3) 0.9435(3)
C12 C 0.9634(4) 0.3812(3) 0.5296(3)
C13 C 0.9357(4) 0.2505(3) 0.5601(4)
C14 C 1.0082(4) 0.3060(3) 0.8884(3)
C15 C 0.9372(4) 0.5219(4) 0.9022(3)
C16 C 0.8790(4) 0.4766(3) 0.4724(3)
H8 H 1.118(5) -0.160(5) 0.917(5)
N1 N 0.5110(3) 0.3517(3) 0.8524(3)
N2 N 0.4473(4) 0.2365(3) 0.7615(3)
C17 C 0.5066(4) 0.4291(4) 0.9269(4)
C18 C 0.6100(4) 0.4165(4) 0.9964(4)
H9 H 0.68380 0.36090 0.99340
C19 C 0.5837(4) 0.2337(4) 0.7431(4)
H10 H 0.63780 0.19060 0.69960
C20 C 0.3973(4) 0.5129(4) 0.9298(4)
H11 H 0.32880 0.52150 0.88180
C21 C 0.6246(4) 0.3055(4) 0.8000(4)
H12 H 0.71250 0.32110 0.80360
C22 C 0.4053(4) 0.3077(4) 0.8263(4)
H13 H 0.31650 0.32460 0.85020
H14 H 0.394(4) 0.198(5) 0.737(5)
O11 O 1.1569(5) -0.2877(4) 0.7369(3)
H15 H 1.19440 -0.35550 0.73070
H16 H 1.10790 -0.25650 0.68230
Br1A Br 1.59656(4) -0.17985(4) 0.83834(4)
O3A O 1.8653(3) -0.0415(3) 1.0058(3)
O6A O 1.8209(3) 0.0031(3) 0.8303(2)
C2A C 1.4089(4) -0.0565(4) 0.9609(3)
H4A H 1.34830 -0.09470 0.93360
C3A C 1.6377(4) -0.0154(3) 0.9674(3)
C6A C 1.5428(4) -0.0717(3) 0.9300(3)
C8A C 1.7858(4) -0.0214(3) 0.9322(3)
Br2A Br 1.14709(5) 0.44164(4) 1.23602(4)
O4A O 1.0901(2) 0.7559(2) 1.0906(2)
O9A O 0.8894(3) 0.7124(3) 1.1711(3)
C10A C 1.0654(4) 0.3871(4) 1.0439(3)
H7A H 1.10880 0.31150 1.07460
C11A C 0.9972(3) 0.5905(3) 1.0565(3)
C14A C 0.9918(4) 0.6940(3) 1.1116(3)
C15A C 1.0628(4) 0.4781(4) 1.0978(3)
Br3A Br 0.39593(5) 0.28477(4) 0.46237(4)
O1A O 0.1544(3) 0.0107(3) 0.6227(2)
O2A O 0.2625(3) 0.1163(3) 0.7022(2)
C1A C 0.4550(4) 0.1183(3) 0.4891(3)
C4A C 0.4284(4) -0.0886(4) 0.5714(3)
H5A H 0.38110 -0.14910 0.61850
C5A C 0.2576(4) 0.0561(3) 0.6326(3)
C9A C 0.3823(4) 0.0320(3) 0.5614(3)
Br4A Br 1.29550(4) 0.55046(4) 0.55806(5)
O5A O 1.0666(3) 0.8042(3) 0.3397(3)
O8A O 1.0778(3) 0.7953(3) 0.5186(3)
C7A C 0.9144(4) 0.5934(3) 0.4416(3)
H6A H 0.85650 0.65520 0.40150
C12A C 1.0366(4) 0.6188(3) 0.4704(3)
C13A C 1.0643(4) 0.7495(3) 0.4399(4)
C16A C 1.1210(4) 0.5234(3) 0.5276(3)
Ca1A Ca 0.95909(7) -0.08577(7) 0.18071(6)
O7A O 0.8696(3) 0.1220(3) 0.1400(3)
H1A H 0.89720 0.15550 0.18580
H8A H 0.882(5) 0.160(5) 0.083(5)
O10A O 1.1431(4) 0.0898(4) 0.3498(3)
H2A H 1.21600 0.10010 0.37420
H3A H 1.15990 0.04400 0.30600
Ca1* Ca 0.04091(7) 0.08577(7) 0.81929(6)
Ca1** Ca 2.04091(7) 0.08577(7) 0.81929(6)
Ca1A* Ca 0.95909(7) -0.08577(7) 1.18071(6)
Ca1A** Ca 0.95909(7) 0.91423(7) 0.18071(6)
Ca1A*** Ca 0.95909(7) 0.91423(7) 1.18071(6)
Ca1A**** Ca 1.95909(7) -0.08577(7) 1.18071(6)
Ca2* Ca 0.00000 0.00000 0.50000
Ca2** Ca 1.00000 1.00000 0.50000
O1A* O 1.1544(3) 0.0107(3) 0.6227(2)
O2A* O 1.2625(3) 0.1163(3) 0.7022(2)
O3A* O 0.8653(3) -0.0415(3) 0.0058(3)
O4A* O 1.0901(2) -0.2441(2) 0.0906(2)
O5A* O 1.0666(3) -0.1958(3) 0.3397(3)
O6* O 1.1791(3) -0.0031(3) 0.1697(2)
O6A* O 0.8209(3) 0.0031(3) 0.8303(2)
O8A* O 1.0778(3) -0.2047(3) 0.5186(3)
O9A* O 0.8894(3) -0.2876(3) 0.1711(3)
N1A N 0.4890(3) 0.6483(3) 1.1476(3)
N2A N 0.5527(4) 0.7635(3) 1.2385(3)
C17A C 0.4934(4) 0.5709(4) 1.0731(4)
C18A C 0.3900(4) 0.5835(4) 1.0036(4)
H9A H 0.31620 0.63910 1.00660
C19A C 0.4163(4) 0.7663(4) 1.2569(4)
H10A H 0.36220 0.80940 1.30040
C20A C 0.6027(4) 0.4871(4) 1.0702(4)
H11A H 0.67120 0.47850 1.11820
C21A C 0.3754(4) 0.6945(4) 1.2000(4)
H12A H 0.28750 0.67890 1.19640
C22A C 0.5947(4) 0.6923(4) 1.1737(4)
H13A H 0.68350 0.67540 1.14980
H14A H 0.606(4) 0.802(5) 1.263(5)
#END
