
#######################################################################
#
#                 Cambridge Crystallographic Data Centre
#                                CCDC
#
#######################################################################
#
# If this CIF has been generated from an entry in the Cambridge
# Structural Database, then it will include bibliographic, chemical,
# crystal, experimental, refinement or atomic coordinate data resulting
# from the CCDC's data processing and validation procedures.
#
#######################################################################

data_CSD_CIF_AZAWAZ
_audit_creation_date 2004-10-19
_audit_creation_method CSD-ConQuest-V1
_database_code_CSD AZAWAZ
_database_code_depnum_ccdc_archive 'CCDC 1104136'
_chemical_formula_sum 'C10 H20 Na2 O38 U4'
_chemical_formula_moiety
;
(Na1 1+)2n,n(C10 H4 O30 U4 2-),8n(H2 O1)
;
_journal_coden_Cambridge 233
_journal_volume 48
_journal_year 2003
_journal_page_first 1801
_journal_name_full 'Zh.Neorg.Khim.(Russ.)(Russ.J.Inorg.Chem.) '
loop_
_publ_author_name
"E.E.Baeva"
"Yu.N.Mikhailov"
"Yu.E.Gorbunova"
"L.B.Serezhkina"
"V.N.Serezhkin"
_chemical_name_systematic
;
catena-(Disodium pentakis(\m~2~-oxalato)-diaqua-tetra-uranium octahydrate)
;
_cell_volume    874.330
_exptl_crystal_density_diffrn 3.323
_diffrn_ambient_temperature 295
#These two values have been output from a single CSD field.
_refine_ls_R_factor_gt 0.0471
_refine_ls_wR_factor_gt 0.0471
_symmetry_cell_setting triclinic
_symmetry_space_group_name_H-M 'P -1'
_symmetry_Int_Tables_number 2
loop_
_symmetry_equiv_pos_site_id
_symmetry_equiv_pos_as_xyz
1 x,y,z
2 -x,-y,-z
_cell_length_a 5.585(1)
_cell_length_b 11.359(4)
_cell_length_c 14.624(5)
_cell_angle_alpha 98.03(3)
_cell_angle_beta 99.00(2)
_cell_angle_gamma 103.86(3)
_cell_formula_units_Z 1
loop_
_atom_type_symbol
_atom_type_radius_bond
C 0.68
Na 0.97
O 0.73
U 1.47
loop_
_atom_site_label
_atom_site_type_symbol
_atom_site_fract_x
_atom_site_fract_y
_atom_site_fract_z
U1 U 0.2610(2) 0.20118(7) 0.42509(5)
U2 U -0.5404(1) 0.24486(6) 0.07682(4)
O1 O 0.067(2) 0.339(1) 0.346(1)
O2 O -0.291(3) 0.119(1) 0.159(1)
O3 O -0.767(3) 0.035(1) 0.0949(9)
O4 O -0.364(3) 0.207(1) -0.0052(9)
O5 O -0.287(2) 0.458(1) 0.0806(9)
O6 O -0.010(3) 0.103(1) 0.280(1)
O7 O -0.200(3) 0.357(1) 0.2228(9)
O8 O -1.093(3) -0.129(1) 0.0478(9)
O9 O -0.725(2) 0.288(1) 0.1545(9)
O10 O 0.511(3) 0.146(3) 0.5568(9)
O11 O -0.263(3) 0.635(1) 0.029(1)
O12 O 0.689(3) 0.006(1) 0.6093(9)
O13 O 0.005(3) 0.158(2) 0.478(1)
O14 O 0.517(3) 0.246(1) 0.375(1)
C1 C -0.954(4) -0.025(2) 0.042(1)
C2 C -0.087(4) 0.299(2) 0.271(1)
C3 C -0.139(4) 0.162(2) 0.233(1)
C4 C -0.377(3) 0.527(1) 0.031(1)
C5 C 0.558(4) 0.043(2) 0.546(1)
O15 O 0.433(4) 0.388(2) 0.533(1)
Na1 Na -1.118(2) 0.2522(8) -0.1343(6)
O16 O -1.492(3) 0.114(1) -0.221(1)
O17 O -0.087(4) -0.207(2) 0.262(1)
O18 O 0.232(4) 0.572(2) 0.164(2)
O19 O -0.329(5) 0.571(2) 0.300(1)
C1A C -1.046(4) 0.025(2) -0.042(1)
O3A O -1.233(3) -0.035(1) -0.0949(9)
O8A O -0.907(3) 0.129(1) -0.0478(9)
C4A C -0.623(3) 0.473(1) -0.031(1)
O5A O -0.713(2) 0.542(1) -0.0806(9)
O11A O -0.737(3) 0.365(1) -0.029(1)
C5A C 0.442(4) -0.043(2) 0.454(1)
O10A O 0.489(3) -0.146(3) 0.4432(9)
O12A O 0.311(3) -0.006(1) 0.3907(9)
U1A U 0.7390(2) -0.20118(7) 0.57491(5)
O1A O 0.933(2) -0.339(1) 0.654(1)
O2A O 1.291(3) -0.119(1) 0.841(1)
O6A O 1.010(3) -0.103(1) 0.720(1)
O7A O 1.200(3) -0.357(1) 0.7772(9)
C2A C 1.087(4) -0.299(2) 0.729(1)
C3A C 1.139(4) -0.162(2) 0.767(1)
O13A O 0.995(3) -0.158(2) 0.522(1)
O14A O 0.483(3) -0.246(1) 0.625(1)
O15A O 0.567(4) -0.388(2) 0.467(1)
U2A U 1.5404(1) -0.24486(6) 0.92318(4)
O4A O 1.364(3) -0.207(1) 1.0052(9)
O9A O 1.725(2) -0.288(1) 0.8455(9)
U2A* U -1.4596(1) -0.24486(6) -0.07682(4)
U2A** U -0.4596(1) 0.75514(6) -0.07682(4)
O3A* O 1.767(3) -0.035(1) 0.9051(9)
O5A* O 1.287(2) -0.458(1) 0.9194(9)
O8* O 1.907(3) -0.129(1) 1.0478(9)
O11* O 1.737(3) -0.365(1) 1.029(1)
#END
