
#######################################################################
#
#                 Cambridge Crystallographic Data Centre
#                                CCDC
#
#######################################################################
#
# If this CIF has been generated from an entry in the Cambridge
# Structural Database, then it will include bibliographic, chemical,
# crystal, experimental, refinement or atomic coordinate data resulting
# from the CCDC's data processing and validation procedures.
#
#######################################################################

data_CSD_CIF_AZEKIC
_audit_creation_date 2021-08-16
_audit_creation_method CSD-ConQuest-V1
_database_code_CSD AZEKIC
_database_code_depnum_ccdc_archive 'CCDC 2089110'
_chemical_formula_sum 'C130 H99 N2 O50 Y9'
_chemical_formula_moiety
;
(C126 H83 O50 Y9 2-)n,2(C2 H8 N1 1+)
;
_journal_coden_Cambridge 9
_journal_year 2021
_journal_name_full 'Inorg.Chem. '
loop_
_publ_author_name
"Ling Chen"
"Hui-Jun Hu"
"Yu-Ling Wang"
"Xue-Feng Zhang"
"Lan-Ping Xu"
"Qing-Yan Liu"
_chemical_name_systematic
;
catena-[bis(dimethylammonium) 
undecakis(\m-hydroxo)-hexakis([1^1^,2^1^:2^3^,3^1^-terphenyl]-1^4^,2^5^,3^4^-t
ricarboxylato)-triaqua-nona-yttrium(iii) unknown solvate]
;
_chemical_name_common
;
JXNU-10(Y)
;
_cell_volume  10372.531
_exptl_crystal_colour 'colorless'
_exptl_crystal_description 'hexagonal'
_diffrn_ambient_temperature 293
_refine_special_details
;
Disordered dimethylammonium cations and solvent molecules were not modelled 
and the disordered density was taken into account using the SQUEEZE/PLATON 
procedure.
;
#These two values have been output from a single CSD field.
_refine_ls_R_factor_gt 0.0908
_refine_ls_wR_factor_gt 0.0908
_symmetry_cell_setting hexagonal
_symmetry_space_group_name_H-M 'P 63/m m c'
_symmetry_Int_Tables_number 194
loop_
_symmetry_equiv_pos_site_id
_symmetry_equiv_pos_as_xyz
1 x,y,z
2 -y,x-y,z
3 -x+y,-x,z
4 -x,-y,1/2+z
5 y,-x+y,1/2+z
6 x-y,x,1/2+z
7 y,x,-z
8 x-y,-y,-z
9 -x,-x+y,-z
10 -y,-x,1/2-z
11 -x+y,y,1/2-z
12 x,x-y,1/2-z
13 -x,-y,-z
14 y,-x+y,-z
15 x-y,x,-z
16 x,y,-1/2-z
17 -y,x-y,-1/2-z
18 -x+y,-x,-1/2-z
19 -y,-x,z
20 -x+y,y,z
21 x,x-y,z
22 y,x,-1/2+z
23 x-y,-y,-1/2+z
24 -x,-x+y,-1/2+z
_cell_length_a 22.6701(7)
_cell_length_b 22.6701(7)
_cell_length_c 23.3049(14)
_cell_angle_alpha 90
_cell_angle_beta 90
_cell_angle_gamma 120
_cell_formula_units_Z 2
loop_
_atom_type_symbol
_atom_type_radius_bond
C 0.68
H 0.23
O 0.68
Y 1.90
loop_
_atom_site_label
_atom_site_type_symbol
_atom_site_fract_x
_atom_site_fract_y
_atom_site_fract_z
Y1 Y 0.60905(2) 0.39095(2) 0.34476(4)
Y2 Y 0.77081(4) 0.54161(7) 0.25000
O1 O 0.7260(3) 0.4520(5) 0.3103(5)
O2 O 0.8410(17) 0.682(3) 0.25000
O3 O 0.66667 0.33333 0.3574(8)
O4 O 0.6090(4) 0.3910(4) 0.25000
O5 O 0.7280(13) 0.5881(12) 0.3086(10)
O6 O 0.6211(9) 0.4964(9) 0.3340(7)
O7 O 0.4508(7) 0.7744(6) 0.5766(5)
C1 C 0.6677(17) 0.5626(15) 0.3331(11)
C2 C 0.6500(8) 0.6097(8) 0.3642(6)
C3 C 0.5891(8) 0.5823(6) 0.3945(7)
H1 H 0.56154 0.53527 0.39765
C4 C 0.5694(6) 0.6251(9) 0.4202(6)
H2 H 0.52867 0.60674 0.44045
C5 C 0.6106(8) 0.6953(8) 0.4155(6)
C6 C 0.6715(8) 0.7227(6) 0.3852(7)
H3 H 0.69905 0.76972 0.38212
C7 C 0.6912(6) 0.6799(9) 0.3596(6)
H4 H 0.73192 0.69825 0.33932
C8 C 0.6124(13) 0.8062(7) 0.4168(11)
H5 H 0.64228 0.82114 0.38581
C9 C 0.589(1) 0.7403(10) 0.4410(8)
C10 C 0.5406(9) 0.7159(9) 0.4874(8)
H6 H 0.52362 0.67209 0.50179
C11 C 0.5192(15) 0.7596(8) 0.5106(9)
C12 C 0.4707(14) 0.7354(7) 0.5584(11)
O5T O 0.7280(13) 1.1399(12) 0.3086(10)
O6T O 0.6211(9) 1.1247(9) 0.3340(7)
O7T O 0.4508(7) 0.6764(6) 0.5766(5)
C1T C 0.6677(17) 1.1051(15) 0.3331(11)
C2T C 0.6500(8) 1.0403(8) 0.3642(6)
C3T C 0.5891(8) 1.0068(6) 0.3945(7)
H1T H 0.56154 1.02627 0.39765
C4T C 0.5694(6) 0.9443(9) 0.4202(6)
H2T H 0.52867 0.92193 0.44045
C5T C 0.6106(8) 0.9153(8) 0.4155(6)
C6T C 0.6715(8) 0.9488(6) 0.3852(7)
H3T H 0.69905 0.92933 0.38212
C7T C 0.6912(6) 1.0113(9) 0.3596(6)
H4T H 0.73192 1.03367 0.33932
C9T C 0.589(1) 0.8487(10) 0.4410(8)
C10T C 0.5406(9) 0.8247(9) 0.4874(8)
H6T H 0.52362 0.85153 0.50179
Y1A Y 0.60905(2) 0.21810(2) 0.34476(4)
Y2A Y 0.45839(4) 0.22920(7) 0.25000
O1A O 0.5480(3) 0.2740(5) 0.3103(5)
O2A O 0.3180(17) 0.159(3) 0.25000
O4A O 0.6090(4) 0.2180(4) 0.25000
O5A O 0.4119(13) 0.1399(12) 0.3086(10)
O6A O 0.5036(9) 0.1247(9) 0.3340(7)
O7A O 0.2256(7) -0.3236(6) 0.5766(5)
C1A C 0.4374(17) 0.1051(15) 0.3331(11)
C2A C 0.3903(8) 0.0403(8) 0.3642(6)
C3A C 0.4177(8) 0.0068(6) 0.3945(7)
H1A H 0.46473 0.02627 0.39765
C4A C 0.3749(6) -0.0557(9) 0.4202(6)
H2A H 0.39326 -0.07807 0.44045
C5A C 0.3047(8) -0.0847(8) 0.4155(6)
C6A C 0.2773(8) -0.0512(6) 0.3852(7)
H3A H 0.23028 -0.07067 0.38212
C7A C 0.3201(6) 0.0113(9) 0.3596(6)
H4A H 0.30175 0.03367 0.33932
C8A C 0.1938(13) -0.1938(7) 0.4168(11)
H5A H 0.17886 -0.17886 0.38581
C9A C 0.2597(10) -0.1513(10) 0.4410(8)
C10A C 0.2841(9) -0.1753(9) 0.4874(8)
H6A H 0.32791 -0.14847 0.50179
C11A C 0.2404(15) -0.2404(8) 0.5106(9)
C12A C 0.2646(14) -0.2647(7) 0.5584(11)
O5S O -0.1399(13) -0.4119(12) 0.3086(10)
O6S O -0.1247(9) -0.5036(9) 0.3340(7)
O7S O 0.3236(7) -0.2256(6) 0.5766(5)
C1S C -0.1051(17) -0.4374(15) 0.3331(11)
C2S C -0.0403(8) -0.3903(8) 0.3642(6)
C3S C -0.0068(8) -0.4177(6) 0.3945(7)
H1S H -0.02627 -0.46473 0.39765
C4S C 0.0557(6) -0.3749(9) 0.4202(6)
H2S H 0.07807 -0.39326 0.44045
C5S C 0.0847(8) -0.3047(8) 0.4155(6)
C6S C 0.0512(8) -0.2773(6) 0.3852(7)
H3S H 0.07067 -0.23028 0.38212
C7S C -0.0113(6) -0.3201(9) 0.3596(6)
H4S H -0.03367 -0.30175 0.33932
C9S C 0.1513(10) -0.2597(10) 0.4410(8)
C10S C 0.1753(9) -0.2841(9) 0.4874(8)
H6S H 0.14847 -0.32791 0.50179
Y1B Y -0.21810(2) 0.39095(2) 0.34476(4)
Y2B Y -0.22920(4) 0.22919(7) 0.25000
O1B O -0.2740(3) 0.2740(5) 0.3103(5)
O2B O -0.1590(17) 0.159(3) 0.25000
O4B O -0.2180(4) 0.3910(4) 0.25000
O5B O -0.1399(13) 0.2720(12) 0.3086(10)
O6B O -0.1247(9) 0.3789(9) 0.3340(7)
O7B O 0.3236(7) 0.5492(6) 0.5766(5)
C1B C -0.1051(17) 0.3323(15) 0.3331(11)
C2B C -0.0403(8) 0.3500(8) 0.3642(6)
C3B C -0.0068(8) 0.4109(6) 0.3945(7)
H1B H -0.02627 0.43846 0.39765
C4B C 0.0557(6) 0.4306(9) 0.4202(6)
H2B H 0.07807 0.47133 0.44045
C5B C 0.0847(8) 0.3894(8) 0.4155(6)
C6B C 0.0512(8) 0.3285(6) 0.3852(7)
H3B H 0.07067 0.30095 0.38212
C7B C -0.0113(6) 0.3088(9) 0.3596(6)
H4B H -0.03367 0.26808 0.33932
C8B C 0.1938(13) 0.3876(7) 0.4168(11)
H5B H 0.17886 0.35772 0.38581
C9B C 0.1513(10) 0.411(1) 0.4410(8)
C10B C 0.1753(9) 0.4594(9) 0.4874(8)
H6B H 0.14847 0.47638 0.50179
C11B C 0.2404(15) 0.4808(8) 0.5106(9)
C12B C 0.2647(14) 0.5293(7) 0.5584(11)
O5R O 0.4119(13) 0.2720(12) 0.3086(10)
O6R O 0.5036(9) 0.3789(9) 0.3340(7)
O7R O 0.2256(7) 0.5492(6) 0.5766(5)
C1R C 0.4374(17) 0.3323(15) 0.3331(11)
C2R C 0.3903(8) 0.3500(8) 0.3642(6)
C3R C 0.4177(8) 0.4109(6) 0.3945(7)
H1R H 0.46473 0.43846 0.39765
C4R C 0.3749(6) 0.4306(9) 0.4202(6)
H2R H 0.39326 0.47133 0.44045
C5R C 0.3047(8) 0.3894(8) 0.4155(6)
C6R C 0.2773(8) 0.3285(6) 0.3852(7)
H3R H 0.23028 0.30095 0.38212
C7R C 0.3201(6) 0.3088(9) 0.3596(6)
H4R H 0.30175 0.26808 0.33932
C9R C 0.2597(10) 0.411(1) 0.4410(8)
C10R C 0.2841(9) 0.4594(9) 0.4874(8)
H6R H 0.32791 0.47638 0.50179
Y1I Y 0.60905(2) 0.39095(2) 0.15524(4)
O1I O 0.5480(3) 0.2740(5) 0.1897(5)
O3I O 0.66667 0.33333 0.1426(8)
O5I O 0.4119(13) 0.2720(12) 0.1914(10)
O6I O 0.5036(9) 0.3789(9) 0.1660(7)
O7I O 0.2256(7) 0.5492(6) -0.0766(5)
C1I C 0.4374(17) 0.3323(15) 0.1669(11)
C2I C 0.3903(8) 0.3500(8) 0.1358(6)
C3I C 0.4177(8) 0.4109(6) 0.1055(7)
H1I H 0.46473 0.43846 0.10235
C4I C 0.3749(6) 0.4306(9) 0.0798(6)
H2I H 0.39326 0.47133 0.05955
C5I C 0.3047(8) 0.3894(8) 0.0845(6)
C6I C 0.2773(8) 0.3285(6) 0.1148(7)
H3I H 0.23028 0.30095 0.11788
C7I C 0.3201(6) 0.3088(9) 0.1404(6)
H4I H 0.30175 0.26808 0.16068
C8I C 0.1938(13) 0.3876(7) 0.0832(11)
H5I H 0.17886 0.35772 0.11419
C9I C 0.2597(10) 0.411(1) 0.0590(8)
C10I C 0.2841(9) 0.4594(9) 0.0126(8)
H6I H 0.32791 0.47638 -0.00179
C11I C 0.2404(15) 0.4808(8) -0.0106(9)
C12I C 0.2646(14) 0.5293(7) -0.0584(11)
O5Q O -0.1399(13) 0.2720(12) 0.1914(10)
O6Q O -0.1247(9) 0.3789(9) 0.1660(7)
O7Q O 0.3236(7) 0.5492(6) -0.0766(5)
C1Q C -0.1051(17) 0.3323(15) 0.1669(11)
C2Q C -0.0403(8) 0.3500(8) 0.1358(6)
C3Q C -0.0068(8) 0.4109(6) 0.1055(7)
H1Q H -0.02627 0.43846 0.10235
C4Q C 0.0557(6) 0.4306(9) 0.0798(6)
H2Q H 0.07807 0.47133 0.05955
C5Q C 0.0847(8) 0.3894(8) 0.0845(6)
C6Q C 0.0512(8) 0.3285(6) 0.1148(7)
H3Q H 0.07067 0.30095 0.11788
C7Q C -0.0113(6) 0.3088(9) 0.1404(6)
H4Q H -0.03367 0.26808 0.16068
C9Q C 0.1513(10) 0.411(1) 0.0590(8)
C10Q C 0.1753(9) 0.4594(9) 0.0126(8)
H6Q H 0.14847 0.47638 -0.00179
O1J O 0.7260(3) 0.4520(5) 0.1897(5)
O5O O 0.7280(13) 0.5881(12) 0.1914(10)
O6O O 0.6211(9) 0.4964(9) 0.1660(7)
O7O O 0.4508(7) 0.7744(6) -0.0766(5)
C1O C 0.6677(17) 0.5626(15) 0.1669(11)
C2O C 0.6500(8) 0.6097(8) 0.1358(6)
C3O C 0.5891(8) 0.5823(6) 0.1055(7)
H1O H 0.56154 0.53527 0.10235
C4O C 0.5694(6) 0.6251(9) 0.0798(6)
H2O H 0.52867 0.60674 0.05955
C5O C 0.6106(8) 0.6953(8) 0.0845(6)
C6O C 0.6715(8) 0.7227(6) 0.1148(7)
H3O H 0.69905 0.76972 0.11788
C7O C 0.6912(6) 0.6799(9) 0.1404(6)
H4O H 0.73192 0.69825 0.16068
C8K C 0.6124(13) 0.8062(7) 0.0832(11)
H5K H 0.64228 0.82114 0.11419
C9O C 0.589(1) 0.7403(10) 0.0590(8)
C10O C 0.5406(9) 0.7159(9) 0.0126(8)
H6O H 0.52362 0.67209 -0.00179
C11K C 0.5192(15) 0.7596(8) -0.0106(9)
C12K C 0.4707(14) 0.7353(7) -0.0584(11)
O5K O 0.7280(13) 1.1399(12) 0.1914(10)
O6K O 0.6211(9) 1.1247(9) 0.1660(7)
O7K O 0.4508(7) 0.6764(6) -0.0766(5)
C1K C 0.6677(17) 1.1051(15) 0.1669(11)
C2K C 0.6500(8) 1.0403(8) 0.1358(6)
C3K C 0.5891(8) 1.0068(6) 0.1055(7)
H1K H 0.56154 1.02627 0.10235
C4K C 0.5694(6) 0.9443(9) 0.0798(6)
H2K H 0.52867 0.92193 0.05955
C5K C 0.6106(8) 0.9153(8) 0.0845(6)
C6K C 0.6715(8) 0.9488(6) 0.1148(7)
H3K H 0.69905 0.92933 0.11788
C7K C 0.6912(6) 1.0113(9) 0.1404(6)
H4K H 0.73192 1.03367 0.16068
C9K C 0.589(1) 0.8487(10) 0.0590(8)
C10K C 0.5406(9) 0.8247(9) 0.0126(8)
H6K H 0.52362 0.85153 -0.00179
Y1K Y 0.60905(2) 0.21810(2) 0.15524(4)
O5P O 0.4119(13) 0.1399(12) 0.1914(10)
O6P O 0.5036(9) 0.1247(9) 0.1660(7)
O7P O 0.2256(7) -0.3236(6) -0.0766(5)
C1P C 0.4374(17) 0.1051(15) 0.1669(11)
C2P C 0.3903(8) 0.0403(8) 0.1358(6)
C3P C 0.4177(8) 0.0068(6) 0.1055(7)
H1P H 0.46473 0.02627 0.10235
C4P C 0.3749(6) -0.0557(9) 0.0798(6)
H2P H 0.39326 -0.07807 0.05955
C5P C 0.3047(8) -0.0847(8) 0.0845(6)
C6P C 0.2773(8) -0.0512(6) 0.1148(7)
H3P H 0.23028 -0.07067 0.11788
C7P C 0.3201(6) 0.0113(9) 0.1404(6)
H4P H 0.30175 0.03367 0.16068
C8J C 0.1938(13) -0.1938(7) 0.0832(11)
H5J H 0.17886 -0.17886 0.11419
C9P C 0.2597(10) -0.1513(10) 0.0590(8)
C10P C 0.2841(9) -0.1753(9) 0.0126(8)
H6P H 0.32791 -0.14847 -0.00179
C11J C 0.2404(15) -0.2404(8) -0.0106(9)
C12J C 0.2647(14) -0.2646(7) -0.0584(11)
O5J O -0.1399(13) -0.4119(12) 0.1914(10)
O6J O -0.1247(9) -0.5036(9) 0.1660(7)
O7J O 0.3236(7) -0.2256(6) -0.0766(5)
C1J C -0.1051(17) -0.4374(15) 0.1669(11)
C2J C -0.0403(8) -0.3903(8) 0.1358(6)
C3J C -0.0068(8) -0.4177(6) 0.1055(7)
H1J H -0.02627 -0.46473 0.10235
C4J C 0.0557(6) -0.3749(9) 0.0798(6)
H2J H 0.07807 -0.39326 0.05955
C5J C 0.0847(8) -0.3047(8) 0.0845(6)
C6J C 0.0512(8) -0.2773(6) 0.1148(7)
H3J H 0.07067 -0.23028 0.11788
C7J C -0.0113(6) -0.3201(9) 0.1404(6)
H4J H -0.03367 -0.30175 0.16068
C9J C 0.1513(10) -0.2597(10) 0.0590(8)
C10J C 0.1753(9) -0.2841(9) 0.0126(8)
H6J H 0.14847 -0.32791 -0.00179
Y1J Y -0.21810(2) 0.39095(2) 0.15524(4)
O1K O -0.2740(3) 0.2740(5) 0.1897(5)
Y1A* Y -0.39095(2) 0.21810(2) 0.34476(4)
Y1A** Y 0.60905(2) 1.21810(2) 0.34476(4)
Y1B* Y -0.21810(2) -0.60905(2) 0.34476(4)
Y1B** Y 0.78190(2) 0.39095(2) 0.34476(4)
Y1C Y 0.39095(2) 0.60905(2) -0.15524(4)
Y1D Y 0.39095(2) -0.21810(2) -0.15524(4)
Y1D* Y 0.39095(2) 0.78190(2) -0.15524(4)
Y1E Y 0.21810(2) -0.39095(2) -0.15524(4)
Y1E* Y 0.21810(2) 0.60905(2) -0.15524(4)
Y1F Y 0.39095(2) 0.60905(2) 0.65524(4)
Y1G Y 0.21810(2) -0.39095(2) 0.65524(4)
Y1G* Y 0.21810(2) 0.60905(2) 0.65524(4)
Y1H Y 0.39095(2) -0.21810(2) 0.65524(4)
Y1H* Y 0.39095(2) 0.78190(2) 0.65524(4)
Y1J* Y -0.21810(2) -0.60905(2) 0.15524(4)
Y1J** Y 0.78190(2) 0.39095(2) 0.15524(4)
Y1K* Y -0.39095(2) 0.21810(2) 0.15524(4)
Y1K** Y 0.60905(2) 1.21810(2) 0.15524(4)
Y2* Y -0.22919(4) -0.45839(7) 0.25000
Y2B* Y 0.77080(4) 1.22919(7) 0.25000
O1* O -0.2740(3) 0.4520(5) 0.3103(5)
O1B* O 0.7260(3) 0.2740(5) 0.3103(5)
O1J* O -0.2740(3) 0.4520(5) 0.1897(5)
O1K* O 0.7260(3) 0.2740(5) 0.1897(5)
O3* O -0.33333 0.33333 0.3574(8)
O3I* O -0.33333 0.33333 0.1426(8)
O5J* O 0.8601(13) 0.5881(12) 0.1914(10)
O5K* O -0.2720(13) 0.1399(12) 0.1914(10)
O5S* O 0.8601(13) 0.5881(12) 0.3086(10)
O5T* O -0.2720(13) 0.1399(12) 0.3086(10)
O6J* O -0.1247(9) 0.4964(9) 0.1660(7)
O6K* O 0.6211(9) 0.1247(9) 0.1660(7)
O6S* O -0.1247(9) 0.4964(9) 0.3340(7)
O6T* O 0.6211(9) 0.1247(9) 0.3340(7)
O7C O 0.5492(7) 0.2256(6) 0.0766(5)
O7D O -0.2256(7) 0.3236(6) 0.0766(5)
O7E O 0.6764(7) 0.4508(6) 0.0766(5)
O7F O -0.2256(7) 0.4508(6) 0.4234(5)
O7G O 0.6764(7) 0.2256(6) 0.4234(5)
O7H O 0.5492(7) 0.3236(6) 0.4234(5)
O7L O 0.5492(7) 0.2256(6) 0.4234(5)
O7M O -0.2256(7) 0.3236(6) 0.4234(5)
O7N O 0.6764(7) 0.4508(6) 0.4234(5)
O7U O -0.2256(7) 0.4508(6) 0.0766(5)
O7V O 0.6764(7) 0.2256(6) 0.0766(5)
O7W O 0.5492(7) 0.3236(6) 0.0766(5)
#END
