
#######################################################################
#
#                 Cambridge Crystallographic Data Centre
#                                CCDC
#
#######################################################################
#
# If this CIF has been generated from an entry in the Cambridge
# Structural Database, then it will include bibliographic, chemical,
# crystal, experimental, refinement or atomic coordinate data resulting
# from the CCDC's data processing and validation procedures.
#
#######################################################################

data_CSD_CIF_AZEKOI
_audit_creation_date 2021-08-16
_audit_creation_method CSD-ConQuest-V1
_database_code_CSD AZEKOI
_database_code_depnum_ccdc_archive 'CCDC 2089111'
_chemical_formula_sum 'C130 H99 N2 O50 Tb9'
_chemical_formula_moiety
;
(C126 H83 O50 Tb9 2-)n,2(C2 H8 N1 1+)
;
_journal_coden_Cambridge 9
_journal_year 2021
_journal_name_full 'Inorg.Chem. '
loop_
_publ_author_name
"Ling Chen"
"Hui-Jun Hu"
"Yu-Ling Wang"
"Xue-Feng Zhang"
"Lan-Ping Xu"
"Qing-Yan Liu"
_chemical_name_systematic
;
catena-[bis(dimethylammonium) 
undecakis(\m-hydroxo)-hexakis([1^1^,2^1^:2^3^,3^1^-terphenyl]-1^4^,2^5^,3^4^-t
ricarboxylato)-triaqua-nona-terbium(iii) unknown solvate]
;
_chemical_name_common
;
JXNU-10(Tb)
;
_cell_volume  10411.252
_exptl_crystal_colour 'colorless'
_exptl_crystal_description 'hexagonal'
_diffrn_ambient_temperature 293
_refine_special_details
;
Disordered dimethylammonium cations and solvent molecules were not modelled 
and the disordered density was taken into account using the SQUEEZE/PLATON 
procedure.
;
#These two values have been output from a single CSD field.
_refine_ls_R_factor_gt 0.0301
_refine_ls_wR_factor_gt 0.0301
_symmetry_cell_setting hexagonal
_symmetry_space_group_name_H-M 'P 63/m m c'
_symmetry_Int_Tables_number 194
loop_
_symmetry_equiv_pos_site_id
_symmetry_equiv_pos_as_xyz
1 x,y,z
2 -y,x-y,z
3 -x+y,-x,z
4 -x,-y,1/2+z
5 y,-x+y,1/2+z
6 x-y,x,1/2+z
7 y,x,-z
8 x-y,-y,-z
9 -x,-x+y,-z
10 -y,-x,1/2-z
11 -x+y,y,1/2-z
12 x,x-y,1/2-z
13 -x,-y,-z
14 y,-x+y,-z
15 x-y,x,-z
16 x,y,-1/2-z
17 -y,x-y,-1/2-z
18 -x+y,-x,-1/2-z
19 -y,-x,z
20 -x+y,y,z
21 x,x-y,z
22 y,x,-1/2+z
23 x-y,-y,-1/2+z
24 -x,-x+y,-1/2+z
_cell_length_a 22.7294(4)
_cell_length_b 22.7294(4)
_cell_length_c 23.2700(6)
_cell_angle_alpha 90
_cell_angle_beta 90
_cell_angle_gamma 120
_cell_formula_units_Z 2
loop_
_atom_type_symbol
_atom_type_radius_bond
C 0.68
H 0.23
O 0.68
Tb 1.94
loop_
_atom_site_label
_atom_site_type_symbol
_atom_site_fract_x
_atom_site_fract_y
_atom_site_fract_z
Tb1 Tb 0.60915(2) 0.39085(2) 0.34455(2)
Tb2 Tb 0.77143(2) 0.54286(2) 0.25000
O1 O 0.72657(7) 0.45314(14) 0.31003(13)
O2 O 0.8368(2) 0.6737(5) 0.25000
O3 O 0.66667 0.33333 0.3551(2)
O4 O 0.60535(13) 0.39465(13) 0.25000
O5 O 0.7231(3) 0.5836(2) 0.3132(2)
O6 O 0.6231(2) 0.49807(18) 0.33575(18)
O7 O 0.45048(16) 0.77460(15) 0.57691(11)
C1 C 0.6660(3) 0.5594(2) 0.33598(19)
C2 C 0.6476(3) 0.6068(2) 0.3643(2)
C3 C 0.5918(3) 0.5827(3) 0.3966(3)
H1 H 0.56560 0.53612 0.40248
C4 C 0.5720(4) 0.6249(3) 0.4216(3)
H2 H 0.53241 0.60603 0.44329
C5 C 0.6092(3) 0.6941(2) 0.4152(2)
C6 C 0.6661(4) 0.7182(3) 0.3828(3)
H3 H 0.69276 0.76481 0.37708
C7 C 0.6858(4) 0.6752(3) 0.3581(3)
H4 H 0.72579 0.69350 0.33687
C8 C 0.6075(4) 0.8038(2) 0.4179(3)
H5 H 0.63685 0.81843 0.38661
C9 C 0.5864(3) 0.7395(2) 0.4405(2)
C10 C 0.5420(3) 0.7180(2) 0.4870(2)
H6 H 0.52749 0.67546 0.50302
C11 C 0.5193(3) 0.75963(17) 0.5097(3)
C12 C 0.4692(3) 0.73460(15) 0.5588(2)
O5T O 0.7231(3) 1.1395(2) 0.3132(2)
O6T O 0.6231(2) 1.12503(18) 0.33575(18)
O7T O 0.45048(16) 0.67588(15) 0.57691(11)
C1T C 0.6660(3) 1.1066(2) 0.33598(19)
C2T C 0.6476(3) 1.0408(2) 0.3643(2)
C3T C 0.5918(3) 1.0091(3) 0.3966(3)
H1T H 0.56560 1.02948 0.40248
C4T C 0.5720(4) 0.9471(3) 0.4216(3)
H2T H 0.53241 0.92638 0.44329
C5T C 0.6092(3) 0.9151(2) 0.4152(2)
C6T C 0.6661(4) 0.9479(3) 0.3828(3)
H3T H 0.69276 0.92794 0.37708
C7T C 0.6858(4) 1.0106(3) 0.3581(3)
H4T H 0.72579 1.03230 0.33687
C9T C 0.5864(3) 0.8469(2) 0.4405(2)
C10T C 0.5420(3) 0.8240(2) 0.4870(2)
H6T H 0.52749 0.85203 0.50302
Tb1A Tb 0.60915(2) 0.21830(2) 0.34455(2)
Tb2A Tb 0.45714(2) 0.22857(2) 0.25000
O1A O 0.54686(7) 0.27343(14) 0.31003(13)
O2A O 0.3263(2) 0.1631(5) 0.25000
O4A O 0.60535(13) 0.21070(13) 0.25000
O5A O 0.4164(3) 0.1395(2) 0.3132(2)
O6A O 0.50193(20) 0.12503(18) 0.33575(18)
O7A O 0.22540(16) -0.32412(15) 0.57691(11)
C1A C 0.4406(3) 0.1066(2) 0.33598(19)
C2A C 0.3932(3) 0.0408(2) 0.3643(2)
C3A C 0.4173(3) 0.0091(3) 0.3966(3)
H1A H 0.46388 0.02948 0.40248
C4A C 0.3751(4) -0.0529(3) 0.4216(3)
H2A H 0.39397 -0.07362 0.44329
C5A C 0.3059(3) -0.0849(2) 0.4152(2)
C6A C 0.2818(4) -0.0521(3) 0.3828(3)
H3A H 0.23519 -0.07206 0.37708
C7A C 0.3248(4) 0.0106(3) 0.3581(3)
H4A H 0.30650 0.03230 0.33687
C8A C 0.1962(4) -0.1963(2) 0.4179(3)
H5A H 0.18157 -0.18157 0.38661
C9A C 0.2605(3) -0.1531(2) 0.4405(2)
C10A C 0.2820(3) -0.1760(2) 0.4870(2)
H6A H 0.32454 -0.14797 0.50302
C11A C 0.24037(30) -0.24033(17) 0.5097(3)
C12A C 0.2654(3) -0.26540(15) 0.5588(2)
O5S O -0.1395(3) -0.4164(2) 0.3132(2)
O6S O -0.12503(20) -0.50193(18) 0.33575(18)
O7S O 0.32412(16) -0.22540(15) 0.57691(11)
C1S C -0.1066(3) -0.4406(2) 0.33598(19)
C2S C -0.0408(3) -0.3932(2) 0.3643(2)
C3S C -0.0091(3) -0.4173(3) 0.3966(3)
H1S H -0.02948 -0.46388 0.40248
C4S C 0.0529(4) -0.3751(3) 0.4216(3)
H2S H 0.07362 -0.39397 0.44329
C5S C 0.0849(3) -0.3059(2) 0.4152(2)
C6S C 0.0521(4) -0.2818(3) 0.3828(3)
H3S H 0.07206 -0.23519 0.37708
C7S C -0.0106(4) -0.3248(3) 0.3581(3)
H4S H -0.03230 -0.30650 0.33687
C9S C 0.1531(3) -0.2605(2) 0.4405(2)
C10S C 0.1760(3) -0.2820(2) 0.4870(2)
H6S H 0.14797 -0.32454 0.50302
Tb1B Tb -0.21830(2) 0.39085(2) 0.34455(2)
Tb2B Tb -0.22857(2) 0.22857(2) 0.25000
O1B O -0.27343(7) 0.27343(14) 0.31003(13)
O2B O -0.1631(2) 0.1632(5) 0.25000
O4B O -0.21070(13) 0.39465(13) 0.25000
O5B O -0.1395(3) 0.2769(2) 0.3132(2)
O6B O -0.12503(20) 0.37690(18) 0.33575(18)
O7B O 0.32412(16) 0.54952(15) 0.57691(11)
C1B C -0.1066(3) 0.3340(2) 0.33598(19)
C2B C -0.0408(3) 0.3524(2) 0.3643(2)
C3B C -0.0091(3) 0.4082(3) 0.3966(3)
H1B H -0.02948 0.43440 0.40248
C4B C 0.0529(4) 0.4280(3) 0.4216(3)
H2B H 0.07362 0.46759 0.44329
C5B C 0.0849(3) 0.3908(2) 0.4152(2)
C6B C 0.0521(4) 0.3339(3) 0.3828(3)
H3B H 0.07206 0.30724 0.37708
C7B C -0.0106(4) 0.3142(3) 0.3581(3)
H4B H -0.03230 0.27421 0.33687
C8B C 0.1963(4) 0.3925(2) 0.4179(3)
H5B H 0.18157 0.36315 0.38661
C9B C 0.1531(3) 0.4136(2) 0.4405(2)
C10B C 0.1760(3) 0.4580(2) 0.4870(2)
H6B H 0.14797 0.47251 0.50302
C11B C 0.24033(30) 0.48070(17) 0.5097(3)
C12B C 0.2654(3) 0.53080(15) 0.5588(2)
O5R O 0.4164(3) 0.2769(2) 0.3132(2)
O6R O 0.50193(20) 0.37690(18) 0.33575(18)
O7R O 0.22540(16) 0.54952(15) 0.57691(11)
C1R C 0.4406(3) 0.3340(2) 0.33598(19)
C2R C 0.3932(3) 0.3524(2) 0.3643(2)
C3R C 0.4173(3) 0.4082(3) 0.3966(3)
H1R H 0.46388 0.43440 0.40248
C4R C 0.3751(4) 0.4280(3) 0.4216(3)
H2R H 0.39397 0.46759 0.44329
C5R C 0.3059(3) 0.3908(2) 0.4152(2)
C6R C 0.2818(4) 0.3339(3) 0.3828(3)
H3R H 0.23519 0.30724 0.37708
C7R C 0.3248(4) 0.3142(3) 0.3581(3)
H4R H 0.30650 0.27421 0.33687
C9R C 0.2605(3) 0.4136(2) 0.4405(2)
C10R C 0.2820(3) 0.4580(2) 0.4870(2)
H6R H 0.32454 0.47251 0.50302
Tb1I Tb 0.60915(2) 0.39085(2) 0.15545(2)
O1I O 0.54686(7) 0.27343(14) 0.18997(13)
O3I O 0.66667 0.33333 0.1449(2)
O5I O 0.4164(3) 0.2769(2) 0.1868(2)
O6I O 0.50193(20) 0.37690(18) 0.16425(18)
O7I O 0.22540(16) 0.54952(15) -0.07691(11)
C1I C 0.4406(3) 0.3340(2) 0.16402(19)
C2I C 0.3932(3) 0.3524(2) 0.1357(2)
C3I C 0.4173(3) 0.4082(3) 0.1034(3)
H1I H 0.46388 0.43440 0.09752
C4I C 0.3751(4) 0.4280(3) 0.0784(3)
H2I H 0.39397 0.46759 0.05671
C5I C 0.3059(3) 0.3908(2) 0.0848(2)
C6I C 0.2818(4) 0.3339(3) 0.1172(3)
H3I H 0.23519 0.30724 0.12292
C7I C 0.3248(4) 0.3142(3) 0.1419(3)
H4I H 0.30650 0.27421 0.16313
C8I C 0.1962(4) 0.3925(2) 0.0821(3)
H5I H 0.18157 0.36315 0.11339
C9I C 0.2605(3) 0.4136(2) 0.0595(2)
C10I C 0.2820(3) 0.4580(2) 0.0130(2)
H6I H 0.32454 0.47251 -0.00302
C11I C 0.24037(30) 0.48070(17) -0.0097(3)
C12I C 0.2654(3) 0.53080(15) -0.0588(2)
O5Q O -0.1395(3) 0.2769(2) 0.1868(2)
O6Q O -0.12503(20) 0.37690(18) 0.16425(18)
O7Q O 0.32412(16) 0.54952(15) -0.07691(11)
C1Q C -0.1066(3) 0.3340(2) 0.16402(19)
C2Q C -0.0408(3) 0.3524(2) 0.1357(2)
C3Q C -0.0091(3) 0.4082(3) 0.1034(3)
H1Q H -0.02948 0.43440 0.09752
C4Q C 0.0529(4) 0.4280(3) 0.0784(3)
H2Q H 0.07362 0.46759 0.05671
C5Q C 0.0849(3) 0.3908(2) 0.0848(2)
C6Q C 0.0521(4) 0.3339(3) 0.1172(3)
H3Q H 0.07206 0.30724 0.12292
C7Q C -0.0106(4) 0.3142(3) 0.1419(3)
H4Q H -0.03230 0.27421 0.16313
C9Q C 0.1531(3) 0.4136(2) 0.0595(2)
C10Q C 0.1760(3) 0.4580(2) 0.0130(2)
H6Q H 0.14797 0.47251 -0.00302
O1J O 0.72657(7) 0.45314(14) 0.18997(13)
O5O O 0.7231(3) 0.5836(2) 0.1868(2)
O6O O 0.6231(2) 0.49807(18) 0.16425(18)
O7O O 0.45048(16) 0.77460(15) -0.07691(11)
C1O C 0.6660(3) 0.5594(2) 0.16402(19)
C2O C 0.6476(3) 0.6068(2) 0.1357(2)
C3O C 0.5918(3) 0.5827(3) 0.1034(3)
H1O H 0.56560 0.53612 0.09752
C4O C 0.5720(4) 0.6249(3) 0.0784(3)
H2O H 0.53241 0.60603 0.05671
C5O C 0.6092(3) 0.6941(2) 0.0848(2)
C6O C 0.6661(4) 0.7182(3) 0.1172(3)
H3O H 0.69276 0.76481 0.12292
C7O C 0.6858(4) 0.6752(3) 0.1419(3)
H4O H 0.72579 0.69350 0.16313
C8K C 0.6075(4) 0.8037(2) 0.0821(3)
H5K H 0.63685 0.81843 0.11339
C9O C 0.5864(3) 0.7395(2) 0.0595(2)
C10O C 0.5420(3) 0.7180(2) 0.0130(2)
H6O H 0.52749 0.67546 -0.00302
C11K C 0.5193(3) 0.75967(17) -0.0097(3)
C12K C 0.4692(3) 0.73460(15) -0.0588(2)
O5K O 0.7231(3) 1.1395(2) 0.1868(2)
O6K O 0.6231(2) 1.12503(18) 0.16425(18)
O7K O 0.45048(16) 0.67588(15) -0.07691(11)
C1K C 0.6660(3) 1.1066(2) 0.16402(19)
C2K C 0.6476(3) 1.0408(2) 0.1357(2)
C3K C 0.5918(3) 1.0091(3) 0.1034(3)
H1K H 0.56560 1.02948 0.09752
C4K C 0.5720(4) 0.9471(3) 0.0784(3)
H2K H 0.53241 0.92638 0.05671
C5K C 0.6092(3) 0.9151(2) 0.0848(2)
C6K C 0.6661(4) 0.9479(3) 0.1172(3)
H3K H 0.69276 0.92794 0.12292
C7K C 0.6858(4) 1.0106(3) 0.1419(3)
H4K H 0.72579 1.03230 0.16313
C9K C 0.5864(3) 0.8469(2) 0.0595(2)
C10K C 0.5420(3) 0.8240(2) 0.0130(2)
H6K H 0.52749 0.85203 -0.00302
Tb1K Tb 0.60915(2) 0.21830(2) 0.15545(2)
O5P O 0.4164(3) 0.1395(2) 0.1868(2)
O6P O 0.50193(20) 0.12503(18) 0.16425(18)
O7P O 0.22540(16) -0.32412(15) -0.07691(11)
C1P C 0.4406(3) 0.1066(2) 0.16402(19)
C2P C 0.3932(3) 0.0408(2) 0.1357(2)
C3P C 0.4173(3) 0.0091(3) 0.1034(3)
H1P H 0.46388 0.02948 0.09752
C4P C 0.3751(4) -0.0529(3) 0.0784(3)
H2P H 0.39397 -0.07362 0.05671
C5P C 0.3059(3) -0.0849(2) 0.0848(2)
C6P C 0.2818(4) -0.0521(3) 0.1172(3)
H3P H 0.23519 -0.07206 0.12292
C7P C 0.3248(4) 0.0106(3) 0.1419(3)
H4P H 0.30650 0.03230 0.16313
C8J C 0.1963(4) -0.1962(2) 0.0821(3)
H5J H 0.18157 -0.18157 0.11339
C9P C 0.2605(3) -0.1531(2) 0.0595(2)
C10P C 0.2820(3) -0.1760(2) 0.0130(2)
H6P H 0.32454 -0.14797 -0.00302
C11J C 0.24033(30) -0.24037(17) -0.0097(3)
C12J C 0.2654(3) -0.26540(15) -0.0588(2)
O5J O -0.1395(3) -0.4164(2) 0.1868(2)
O6J O -0.12503(20) -0.50193(18) 0.16425(18)
O7J O 0.32412(16) -0.22540(15) -0.07691(11)
C1J C -0.1066(3) -0.4406(2) 0.16402(19)
C2J C -0.0408(3) -0.3932(2) 0.1357(2)
C3J C -0.0091(3) -0.4173(3) 0.1034(3)
H1J H -0.02948 -0.46388 0.09752
C4J C 0.0529(4) -0.3751(3) 0.0784(3)
H2J H 0.07362 -0.39397 0.05671
C5J C 0.0849(3) -0.3059(2) 0.0848(2)
C6J C 0.0521(4) -0.2818(3) 0.1172(3)
H3J H 0.07206 -0.23519 0.12292
C7J C -0.0106(4) -0.3248(3) 0.1419(3)
H4J H -0.03230 -0.30650 0.16313
C9J C 0.1531(3) -0.2605(2) 0.0595(2)
C10J C 0.1760(3) -0.2820(2) 0.0130(2)
H6J H 0.14797 -0.32454 -0.00302
Tb1J Tb -0.21830(2) 0.39085(2) 0.15545(2)
O1K O -0.27343(7) 0.27343(14) 0.18997(13)
Tb1A* Tb -0.39085(2) 0.21830(2) 0.34455(2)
Tb1A** Tb 0.60915(2) 1.21830(2) 0.34455(2)
Tb1B* Tb -0.21830(2) -0.60915(2) 0.34455(2)
Tb1B** Tb 0.78170(2) 0.39085(2) 0.34455(2)
Tb1C Tb 0.39085(2) 0.60915(2) -0.15545(2)
Tb1D Tb 0.39085(2) -0.21830(2) -0.15545(2)
Tb1D* Tb 0.39085(2) 0.78170(2) -0.15545(2)
Tb1E Tb 0.21830(2) -0.39085(2) -0.15545(2)
Tb1E* Tb 0.21830(2) 0.60915(2) -0.15545(2)
Tb1F Tb 0.39085(2) 0.60915(2) 0.65545(2)
Tb1G Tb 0.21830(2) -0.39085(2) 0.65545(2)
Tb1G* Tb 0.21830(2) 0.60915(2) 0.65545(2)
Tb1H Tb 0.39085(2) -0.21830(2) 0.65545(2)
Tb1H* Tb 0.39085(2) 0.78170(2) 0.65545(2)
Tb1J* Tb -0.21830(2) -0.60915(2) 0.15545(2)
Tb1J** Tb 0.78170(2) 0.39085(2) 0.15545(2)
Tb1K* Tb -0.39085(2) 0.21830(2) 0.15545(2)
Tb1K** Tb 0.60915(2) 1.21830(2) 0.15545(2)
Tb2* Tb -0.22857(2) -0.45714(2) 0.25000
Tb2B* Tb 0.77143(2) 1.22857(2) 0.25000
O1* O -0.27343(7) 0.45314(14) 0.31003(13)
O1B* O 0.72657(7) 0.27343(14) 0.31003(13)
O1J* O -0.27343(7) 0.45314(14) 0.18997(13)
O1K* O 0.72657(7) 0.27343(14) 0.18997(13)
O3* O -0.33333 0.33333 0.3551(2)
O3I* O -0.33333 0.33333 0.1449(2)
O5J* O 0.8605(3) 0.5836(2) 0.1868(2)
O5K* O -0.2769(3) 0.1395(2) 0.1868(2)
O5S* O 0.8605(3) 0.5836(2) 0.3132(2)
O5T* O -0.2769(3) 0.1395(2) 0.3132(2)
O6J* O -0.12503(20) 0.49807(18) 0.16425(18)
O6K* O 0.6231(2) 0.12503(18) 0.16425(18)
O6S* O -0.12503(20) 0.49807(18) 0.33575(18)
O6T* O 0.6231(2) 0.12503(18) 0.33575(18)
O7C O 0.54952(16) 0.22540(15) 0.07691(11)
O7D O -0.22540(16) 0.32412(15) 0.07691(11)
O7E O 0.67588(16) 0.45048(15) 0.07691(11)
O7F O -0.22540(16) 0.45048(15) 0.42309(11)
O7G O 0.67588(16) 0.22540(15) 0.42309(11)
O7H O 0.54952(16) 0.32412(15) 0.42309(11)
O7L O 0.54952(16) 0.22540(15) 0.42309(11)
O7M O -0.22540(16) 0.32412(15) 0.42309(11)
O7N O 0.67588(16) 0.45048(15) 0.42309(11)
O7U O -0.22540(16) 0.45048(15) 0.07691(11)
O7V O 0.67588(16) 0.22540(15) 0.07691(11)
O7W O 0.54952(16) 0.32412(15) 0.07691(11)
#END
