
#######################################################################
#
#                 Cambridge Crystallographic Data Centre
#                                CCDC
#
#######################################################################
#
# If this CIF has been generated from an entry in the Cambridge
# Structural Database, then it will include bibliographic, chemical,
# crystal, experimental, refinement or atomic coordinate data resulting
# from the CCDC's data processing and validation procedures.
#
#######################################################################

data_CSD_CIF_AZEMOI
_audit_creation_date 2011-10-27
_audit_creation_method CSD-ConQuest-V1
_database_code_CSD AZEMOI
_database_code_depnum_ccdc_archive 'CCDC 748131'
_chemical_formula_sum 'C14 H28 K1 N2 O14 Y1'
_chemical_formula_moiety
;
(K1 1+)n,n(C14 H20 N2 O10 Y1 1-),4n(H2 O1)
;
_journal_coden_Cambridge 367
_journal_volume 36
_journal_year 2010
_journal_page_first 389
_journal_name_full 'Koord.Khim.(Russ.)(Coord.Chem.) '
loop_
_publ_author_name
"L.Q.Zhang"
"T.T.Fan"
"J.Wang"
"B.Liu"
"D.Li"
"G.X.Han"
"R.Xu"
"X.D.Zhang"
_chemical_name_systematic
;
catena-(Potassium 
(\m~2~-1,10-diaza-4,7-dioxadecane-1,1,10,10-tetra-acetato)-yttrium(iii) 
tetrahydrate)
;
_cell_volume   4369.056
_exptl_crystal_colour 'colorless'
_exptl_crystal_density_diffrn 1.753
_exptl_special_details
;
The K atom is reported to be seven coordinate; it has been represented as an 
ion as a result of severe disorder in its vicinity
;
_exptl_crystal_description 'block'
_diffrn_ambient_temperature 93
_refine_special_details
;
A section of the decaneacetato ligand is disordered over two sites with 
occupancies of 0.787:0.213. A number of water molecules are disordered by 
symmetry.
;
#These two values have been output from a single CSD field.
_refine_ls_R_factor_gt 0.0385
_refine_ls_wR_factor_gt 0.0385
_symmetry_cell_setting monoclinic
_symmetry_space_group_name_H-M 'C 2/c'
_symmetry_Int_Tables_number 15
loop_
_symmetry_equiv_pos_site_id
_symmetry_equiv_pos_as_xyz
1 x,y,z
2 -x,y,1/2-z
3 1/2+x,1/2+y,z
4 1/2-x,1/2+y,1/2-z
5 -x,-y,-z
6 x,-y,-1/2+z
7 -1/2-x,-1/2-y,-z
8 -1/2+x,-1/2-y,-1/2+z
_cell_length_a 37.588(5)
_cell_length_b 13.7101(19)
_cell_length_c 8.6070(12)
_cell_angle_alpha 90
_cell_angle_beta 99.929(2)
_cell_angle_gamma 90
_cell_formula_units_Z 8
loop_
_atom_type_symbol
_atom_type_radius_bond
C 0.68
H 0.23
K 1.03
N 0.68
O 0.68
Y 1.90
loop_
_atom_site_label
_atom_site_type_symbol
_atom_site_fract_x
_atom_site_fract_y
_atom_site_fract_z
Y1 Y 0.624312(8) 0.31658(2) 0.24662(3)
K1 K 0.55075(2) 0.52382(6) -0.07868(9)
O1 O 0.65215(6) 0.17319(15) 0.3599(2)
O2 O 0.68377(7) 0.08464(16) 0.5531(3)
O3 O 0.62402(6) 0.47047(15) 0.3496(2)
O4 O 0.63094(6) 0.41752(15) 0.0367(2)
O5 O 0.68804(6) 0.32059(16) 0.2063(3)
O6 O 0.63549(6) 0.21035(16) 0.0273(3)
O7 O 0.59174(6) 0.29168(16) 0.4484(2)
O8 O 0.56589(8) 0.1900(2) 0.5955(3)
N1 N 0.67003(7) 0.34379(19) 0.5123(3)
O9 O 0.51899(8) 0.0406(2) 0.6318(4)
O10 O 0.75859(6) -0.09046(18) 0.6340(3)
H1 H 0.74780 -0.08740 0.54250
H2 H 0.74420 -0.07830 0.69450
O11 O 0.71874(6) 0.01551(19) 0.8374(3)
C1 C 0.67352(9) 0.2523(2) 0.6041(4)
H3 H 0.65460 0.25030 0.67120
H4 H 0.69730 0.25100 0.67430
C2 C 0.66993(8) 0.1631(2) 0.4981(4)
C3 C 0.65670(8) 0.4244(2) 0.6004(4)
H5 H 0.67740 0.45660 0.66780
H6 H 0.64060 0.39790 0.66970
C4 C 0.63616(8) 0.4991(2) 0.4880(4)
C5 C 0.70506(8) 0.3735(2) 0.4683(4)
H7 H 0.72410 0.36990 0.56310
H8 H 0.70330 0.44230 0.43260
C6 C 0.71605(8) 0.3118(2) 0.3408(4)
H9 H 0.73930 0.33490 0.31520
H10 H 0.71890 0.24290 0.37520
C7 C 0.69494(9) 0.2726(3) 0.0649(4)
H11 H 0.72080 0.25490 0.07730
H12 H 0.68930 0.31760 -0.02590
C8 C 0.67238(9) 0.1829(2) 0.0339(4)
H13 H 0.67570 0.15300 -0.06730
H14 H 0.67960 0.13470 0.11910
C9 C 0.57284(10) 0.1359(2) 0.3393(4)
H15 H 0.59140 0.08480 0.36780
H16 H 0.54890 0.10440 0.33030
C10 C 0.57674(9) 0.2112(3) 0.4702(4)
C11 C 0.60828(12) 0.1397(3) -0.0356(5)
H17 H 0.61920 0.08680 -0.08990
H18 H 0.58920 0.17120 -0.11290
C12 C 0.59239(12) 0.0987(3) 0.0981(5)
H19 H 0.57340 0.05090 0.05680
H20 H 0.61140 0.06410 0.17160
N2 N 0.57655(7) 0.17741(19) 0.1850(3)
C13 C 0.54184(12) 0.2150(4) 0.0990(6)
H21 H 0.52190 0.18600 0.14530
H22 H 0.53890 0.19350 -0.01230
C14 C 0.5388(1) 0.3254(4) 0.1034(14)
O12 O 0.56754(5) 0.37528(17) 0.1426(3)
O13 O 0.50956(12) 0.3674(5) 0.0613(7)
O14 O 0.558(2) 0.383(5) -0.280(8)
O15? O 0.54078(16) 0.3652(3) -0.2807(4)
O16? O 0.5032(18) 0.416(4) -0.284(7)
O17? O 0.5675(9) 0.353(3) -0.238(4)
H23 H 0.7060(8) 0.040(3) 0.760(3)
H24 H 0.7057(8) -0.015(3) 0.888(4)
H25 H 0.5312(10) 0.089(2) 0.622(5)
H26 H 0.5067(14) 0.050(3) 0.700(5)
C15? C 0.5775(4) 0.1344(12) 0.028(1)
C16? C 0.5407(4) 0.2247(18) 0.148(3)
C17? C 0.5367(3) 0.3343(17) 0.126(7)
C18? C 0.6168(3) 0.1179(6) 0.031(2)
H27? H 0.5060(15) 0.028(5) 0.548(3)
H28? H 0.56740 0.18000 -0.05750
H29? H 0.56390 0.07230 0.01390
H30? H 0.52740 0.20670 0.23360
H31? H 0.52780 0.19390 0.05050
H32? H 0.62720 0.08170 0.12800
H33? H 0.62030 0.07790 -0.06090
O18? O 0.5041(4) 0.353(2) 0.101(3)
O4E O 0.63094(6) 0.58248(15) 0.5367(2)
C4E C 0.63616(8) 0.5009(2) -0.0120(4)
#END
