
#######################################################################
#
#                 Cambridge Crystallographic Data Centre
#                                CCDC
#
#######################################################################
#
# If this CIF has been generated from an entry in the Cambridge
# Structural Database, then it will include bibliographic, chemical,
# crystal, experimental, refinement or atomic coordinate data resulting
# from the CCDC's data processing and validation procedures.
#
#######################################################################

data_CSD_CIF_AZESON
_audit_creation_date 2004-11-10
_audit_creation_method CSD-ConQuest-V1
_database_code_CSD AZESON
_database_code_depnum_ccdc_archive 'CCDC 205667'
_chemical_formula_sum 'C3 H5 Mn1 Na1 O8'
_chemical_formula_moiety
;
(C3 H5 Mn1 O8 1-)n,n(Na1 1+)
;
_journal_coden_Cambridge 369
_journal_volume 29
_journal_year 2004
_journal_page_first 358
_journal_name_full 'Transition Met.Chem. '
loop_
_publ_author_name
"Jing-Min Shi"
"Si-Cheng Zhu"
"Wei-Dong Liu"
_chemical_name_systematic
;
catena-(Sodium (\m~2~-hydroxy(oxy)malonato)-diaqua-manganese(ii))
;
_cell_volume    854.442
_exptl_crystal_colour 'colorless'
_exptl_crystal_density_diffrn 1.92
_exptl_crystal_description 'prism'
_diffrn_ambient_temperature 293
#These two values have been output from a single CSD field.
_refine_ls_R_factor_gt 0.0456
_refine_ls_wR_factor_gt 0.0456
_symmetry_cell_setting monoclinic
_symmetry_space_group_name_H-M 'P 21/n'
_symmetry_Int_Tables_number 14
loop_
_symmetry_equiv_pos_site_id
_symmetry_equiv_pos_as_xyz
1 x,y,z
2 1/2+x,1/2-y,1/2+z
3 -x,-y,-z
4 -1/2-x,-1/2+y,-1/2-z
_cell_length_a 6.100(3)
_cell_length_b 7.257(4)
_cell_length_c 19.393(9)
_cell_angle_alpha 90
_cell_angle_beta 95.562(7)
_cell_angle_gamma 90
_cell_formula_units_Z 4
loop_
_atom_type_symbol
_atom_type_radius_bond
C 0.68
H 0.23
Mn 1.35
Na 0.97
O 0.68
loop_
_atom_site_label
_atom_site_type_symbol
_atom_site_fract_x
_atom_site_fract_y
_atom_site_fract_z
Mn1 Mn 0.75171(9) 0.78173(8) 0.87079(3)
Na1 Na 0.3214(5) 0.7367(4) 1.03003(14)
O1 O 0.5615(4) 0.9620(4) 0.79881(15)
O2 O 0.2388(4) 1.0694(4) 0.75461(14)
O3 O -0.0628(4) 1.0166(4) 0.91219(14)
O4 O 0.2485(5) 1.1783(4) 0.92117(16)
O5 O 0.4102(4) 0.8042(4) 0.90180(14)
O6 O 0.0805(4) 0.7740(4) 0.83236(15)
O7 O 0.8185(5) 0.6288(4) 0.96323(14)
O8 O 0.6861(5) 0.5454(5) 0.80626(17)
C1 C 0.3589(6) 0.9833(5) 0.79917(19)
C2 C 0.2447(6) 0.8969(5) 0.85897(19)
C3 C 0.1347(6) 1.0453(5) 0.90075(19)
H1 H 0.152(15) 0.707(11) 0.804(4)
H2 H 0.788(7) 0.511(2) 0.9636(19)
H3 H 0.819(7) 0.669(4) 1.0060(9)
H4 H 0.775(7) 0.529(9) 0.774(2)
H5 H 0.548(3) 0.540(8) 0.788(2)
O3* O 0.9372(4) 1.0166(4) 0.91219(14)
O6* O 1.0805(4) 0.7740(4) 0.83236(15)
Mn1* Mn -0.24829(9) 0.78173(8) 0.87079(3)
H1* H 1.152(15) 0.707(11) 0.804(4)
#END
