
#######################################################################
#
#                 Cambridge Crystallographic Data Centre
#                                CCDC
#
#######################################################################
#
# If this CIF has been generated from an entry in the Cambridge
# Structural Database, then it will include bibliographic, chemical,
# crystal, experimental, refinement or atomic coordinate data resulting
# from the CCDC's data processing and validation procedures.
#
#######################################################################

data_CSD_CIF_AZIMIH
_audit_creation_date 2016-11-21
_audit_creation_method CSD-ConQuest-V1
_database_code_CSD AZIMIH
_database_code_depnum_ccdc_archive 'CCDC 1489442'
_chemical_formula_sum 'C64 H48 N4 O38 Zn6'
_chemical_formula_moiety
;
2(C12 H14 N2 2+),n(C40 H16 O36 Zn6 4-),2(H2 O1)
;
_journal_coden_Cambridge 1147
_journal_volume 16
_journal_year 2016
_journal_page_first 6705
_journal_name_full 'Cryst.Growth Des. '
loop_
_publ_author_name
"Shuzhi Hu"
"Lihua Lv"
"Shuhuang Chen"
"Maolin You"
"Zhiyong Fu"
_chemical_name_systematic
;
catena-[bis(1,1'-dimethyl-4,4'-bipyridinium) 
tetrakis(\m-benzene-1,2,4,5-tetracarboxylato)-tetra-aqua-hexa-zinc dihydrate]
;
_cell_volume   6369.363
_exptl_crystal_colour 'brown'
_exptl_crystal_density_diffrn 1.954
_exptl_crystal_description 'block'
_diffrn_ambient_temperature 298
_diffrn_special_details
;
twin

;
#These two values have been output from a single CSD field.
_refine_ls_R_factor_gt 0.0864
_refine_ls_wR_factor_gt 0.0864
_symmetry_cell_setting monoclinic
_symmetry_space_group_name_H-M 'C 2/c'
_symmetry_Int_Tables_number 15
loop_
_symmetry_equiv_pos_site_id
_symmetry_equiv_pos_as_xyz
1 x,y,z
2 -x,y,1/2-z
3 1/2+x,1/2+y,z
4 1/2-x,1/2+y,1/2-z
5 -x,-y,-z
6 x,-y,-1/2+z
7 -1/2-x,-1/2-y,-z
8 -1/2+x,-1/2-y,-1/2+z
_cell_length_a 19.587(4)
_cell_length_b 19.160(4)
_cell_length_c 17.000(3)
_cell_angle_alpha 90
_cell_angle_beta 93.29(3)
_cell_angle_gamma 90
_cell_formula_units_Z 4
loop_
_atom_type_symbol
_atom_type_radius_bond
C 0.68
H 0.23
N 0.68
O 0.68
Zn 1.22
loop_
_atom_site_label
_atom_site_type_symbol
_atom_site_fract_x
_atom_site_fract_y
_atom_site_fract_z
Zn1 Zn 0.00000 0.99559(7) 0.25000
Zn2 Zn 0.26044(5) 0.74075(5) 0.25403(5)
Zn3 Zn 0.09372(5) 0.65092(5) 0.16488(6)
Zn4 Zn 0.00000 0.46607(7) 0.25000
O1 O 0.0646(3) 0.9597(3) 0.1779(4)
O2 O 0.0579(4) 0.8457(3) 0.1957(4)
O3 O 0.2073(3) 0.8082(3) 0.1874(3)
O4 O 0.1635(3) 0.7176(3) 0.1215(4)
O5 O 0.1771(3) 0.7892(3) -0.1745(4)
O6 O 0.2073(3) 0.9007(4) -0.1778(4)
O7 O 0.0515(3) 0.9337(3) -0.1832(3)
O8 O 0.0824(5) 1.0268(4) -0.1151(5)
O9 O 0.2113(3) 0.6732(3) 0.3159(4)
O10 O 0.1006(3) 0.6585(4) 0.2800(4)
O11 O 0.0664(3) 0.5162(3) 0.3222(4)
O12 O -0.0256(3) 0.5726(3) 0.3547(4)
O13 O 0.1353(4) 0.5569(4) 0.6846(4)
O14 O 0.0294(4) 0.5962(4) 0.6674(4)
O15 O 0.2676(4) 0.6787(5) 0.6107(4)
O16 O 0.1769(3) 0.7116(4) 0.6704(4)
O17 O 0.0223(3) 0.7238(4) 0.1389(4)
H1 H -0.01430 0.71480 0.16300
H2 H 0.03410 0.76560 0.14940
O18 O 0.1616(4) 0.5757(4) 0.1443(5)
H3 H 0.17390 0.54550 0.17890
H4 H 0.12360 0.56700 0.11960
C1 C 0.1030(4) 0.8861(4) 0.0793(5)
C2 C 0.1459(4) 0.8298(5) 0.0671(5)
C3 C 0.1681(4) 0.8180(4) -0.0082(5)
H5 H 0.19680 0.78040 -0.01670
C4 C 0.1484(4) 0.8611(5) -0.0702(5)
C5 C 0.1054(5) 0.9176(5) -0.0580(5)
C6 C 0.0834(5) 0.9295(5) 0.0168(5)
H6 H 0.05490 0.96730 0.02530
C7 C 0.0735(4) 0.8963(5) 0.1579(5)
C8 C 0.1731(4) 0.7825(5) 0.1310(5)
C9 C 0.1801(4) 0.8497(5) -0.1475(5)
C10 C 0.0785(5) 0.9637(5) -0.1242(5)
C11 C 0.1358(4) 0.6389(4) 0.4111(5)
C12 C 0.0800(4) 0.5974(4) 0.4251(5)
C13 C 0.0642(4) 0.5849(4) 0.5022(5)
H7 H 0.02580 0.55840 0.51180
C14 C 0.1040(4) 0.6111(4) 0.5651(5)
C15 C 0.1607(4) 0.6509(5) 0.5507(5)
C16 C 0.1749(4) 0.6657(4) 0.4733(5)
H8 H 0.21180 0.69440 0.46350
C17 C 0.1513(4) 0.6581(4) 0.3291(4)
C18 C 0.0373(4) 0.5614(4) 0.3619(5)
C19 C 0.0888(4) 0.5874(4) 0.6466(4)
C20 C 0.2062(5) 0.6815(5) 0.6163(5)
O19 O 0.4038(4) 0.3024(4) 0.1514(5)
H9 H 0.43250 0.31020 0.18980
H10 H 0.38040 0.33780 0.13620
N1 N 0.8023(5) 0.5624(6) 0.5930(7)
N2 N 0.5493(5) 0.3080(5) 0.5899(6)
C21 C 0.8538(8) 0.6184(8) 0.5955(11)
H11 H 0.84440 0.65100 0.63640
H12 H 0.85220 0.64220 0.54570
H13 H 0.89850 0.59870 0.60590
C22 C 0.7751(7) 0.5405(7) 0.6609(8)
H14 H 0.79030 0.56090 0.70840
C23 C 0.7280(6) 0.4913(7) 0.6615(7)
H15 H 0.71070 0.47770 0.70890
C24 C 0.7040(6) 0.4597(6) 0.5918(6)
C25 C 0.7330(6) 0.4830(6) 0.5234(7)
H16 H 0.71970 0.46280 0.47520
C26 C 0.7795(6) 0.5339(7) 0.5262(8)
H17 H 0.79640 0.54970 0.47940
C27 C 0.6504(6) 0.4061(6) 0.5916(6)
C28 C 0.6196(6) 0.3872(7) 0.6585(6)
H18 H 0.63290 0.40850 0.70610
C29 C 0.5709(6) 0.3390(7) 0.6565(7)
H19 H 0.55140 0.32660 0.70310
C30 C 0.4958(8) 0.2550(7) 0.5880(11)
H20 H 0.51050 0.21640 0.62070
H21 H 0.48690 0.23920 0.53480
H22 H 0.45490 0.27460 0.60720
C31 C 0.5777(7) 0.3259(7) 0.5234(7)
H23 H 0.56290 0.30430 0.47640
C32 C 0.6278(7) 0.3751(7) 0.5226(7)
H24 H 0.64650 0.38750 0.47550
Zn2A Zn -0.26044(5) 0.74075(5) 0.24597(5)
Zn3A Zn -0.09372(5) 0.65092(5) 0.33512(6)
O1A O -0.0646(3) 0.9597(3) 0.3221(4)
O2A O -0.0579(4) 0.8457(3) 0.3043(4)
O3A O -0.2073(3) 0.8082(3) 0.3126(3)
O4A O -0.1635(3) 0.7176(3) 0.3785(4)
O5A O -0.1771(3) 0.7892(3) 0.6745(4)
O6A O -0.2073(3) 0.9007(4) 0.6778(4)
O7A O -0.0515(3) 0.9337(3) 0.6832(3)
O8A O -0.0824(5) 1.0268(4) 0.6151(5)
O9A O -0.2113(3) 0.6732(3) 0.1841(4)
O10A O -0.1006(3) 0.6585(4) 0.2200(4)
O11A O -0.0664(3) 0.5162(3) 0.1778(4)
O12A O 0.0256(3) 0.5726(3) 0.1453(4)
O13A O -0.1353(4) 0.5569(4) -0.1846(4)
O14A O -0.0294(4) 0.5962(4) -0.1674(4)
O15A O -0.2676(4) 0.6787(5) -0.1107(4)
O16A O -0.1769(3) 0.7116(4) -0.1704(4)
O17A O -0.0223(3) 0.7238(4) 0.3611(4)
H1A H 0.01430 0.71480 0.33700
H2A H -0.03410 0.76560 0.35060
O18A O -0.1616(4) 0.5757(4) 0.3557(5)
H3A H -0.17390 0.54550 0.32110
H4A H -0.12360 0.56700 0.38040
C1A C -0.1030(4) 0.8861(4) 0.4207(5)
C2A C -0.1459(4) 0.8298(5) 0.4329(5)
C3A C -0.1681(4) 0.8180(4) 0.5082(5)
H5A H -0.19680 0.78040 0.51670
C4A C -0.1484(4) 0.8611(5) 0.5702(5)
C5A C -0.1054(5) 0.9176(5) 0.5580(5)
C6A C -0.0834(5) 0.9295(5) 0.4832(5)
H6A H -0.05490 0.96730 0.47470
C7A C -0.0735(4) 0.8963(5) 0.3421(5)
C8A C -0.1731(4) 0.7825(5) 0.3690(5)
C9A C -0.1801(4) 0.8497(5) 0.6475(5)
C10A C -0.0785(5) 0.9637(5) 0.6242(5)
C11A C -0.1358(4) 0.6389(4) 0.0889(5)
C12A C -0.0800(4) 0.5974(4) 0.0749(5)
C13A C -0.0642(4) 0.5849(4) -0.0022(5)
H7A H -0.02580 0.55840 -0.01180
C14A C -0.1040(4) 0.6111(4) -0.0651(5)
C15A C -0.1607(4) 0.6509(5) -0.0507(5)
C16A C -0.1749(4) 0.6657(4) 0.0267(5)
H8A H -0.21180 0.69440 0.03650
C17A C -0.1513(4) 0.6581(4) 0.1709(4)
C18A C -0.0373(4) 0.5614(4) 0.1381(5)
C19A C -0.0888(4) 0.5874(4) -0.1466(4)
C20A C -0.2062(5) 0.6815(5) -0.1163(5)
Zn1D Zn 0.00000 1.00441(7) -0.25000
Zn1D* Zn 0.00000 1.00441(7) 0.75000
Zn2F Zn 0.23956(5) 0.75925(5) -0.25403(5)
Zn2F* Zn 0.23956(5) 0.75925(5) 0.74597(5)
Zn2G Zn -0.23956(5) 0.75925(5) -0.24597(5)
Zn2G* Zn -0.23956(5) 0.75925(5) 0.75403(5)
Zn4D Zn 0.00000 0.53393(7) -0.25000
Zn4D* Zn 0.00000 0.53393(7) 0.75000
O5F O 0.3229(3) 0.7108(3) 0.1745(4)
O5G O -0.3229(3) 0.7108(3) 0.3255(4)
O7D O -0.0515(3) 1.0663(3) 0.1832(3)
O7E O 0.0515(3) 1.0663(3) 0.3168(3)
O14D O -0.0294(4) 0.4038(4) 0.3326(4)
O14E O 0.0294(4) 0.4038(4) 0.1674(4)
O16F O 0.3231(3) 0.7884(4) 0.3296(4)
O16G O -0.3231(3) 0.7884(4) 0.1704(4)
#END
