
#######################################################################
#
#                 Cambridge Crystallographic Data Centre
#                                CCDC
#
#######################################################################
#
# If this CIF has been generated from an entry in the Cambridge
# Structural Database, then it will include bibliographic, chemical,
# crystal, experimental, refinement or atomic coordinate data resulting
# from the CCDC's data processing and validation procedures.
#
#######################################################################

data_CSD_CIF_AZOFOM
_audit_creation_date 2016-11-22
_audit_creation_method CSD-ConQuest-V1
_database_code_CSD AZOFOM
_database_code_depnum_ccdc_archive 'CCDC 1015597'
_chemical_formula_sum 'C28 H28 Bi2 I7 Sb1'
_chemical_formula_moiety
;
C28 H28 Sb1 1+,n(Bi2 I7 1-)
;
_journal_coden_Cambridge 1078
_journal_year 2016
_journal_name_full 'CSD Communication(Private Communication) '
loop_
_publ_author_name
"V.Sharutin"
_chemical_name_systematic
;
catena-[tetrakis(4-methylphenyl)-antimony(v) 
pentakis(\m-iodo)-diiodo-di-bismuth(iii)]
;
_cell_volume   2083.433
_exptl_crystal_colour 'red'
_exptl_crystal_density_diffrn 2.857
_exptl_crystal_description 'block'
_diffrn_ambient_temperature 296.1
#These two values have been output from a single CSD field.
_refine_ls_R_factor_gt 0.0612
_refine_ls_wR_factor_gt 0.0612
_symmetry_cell_setting triclinic
_symmetry_space_group_name_H-M 'P -1'
_symmetry_Int_Tables_number 2
loop_
_symmetry_equiv_pos_site_id
_symmetry_equiv_pos_as_xyz
1 x,y,z
2 -x,-y,-z
_cell_length_a 12.0474(5)
_cell_length_b 12.4421(5)
_cell_length_c 15.1234(6)
_cell_angle_alpha 100.205(2)
_cell_angle_beta 97.313(2)
_cell_angle_gamma 107.846(2)
_cell_formula_units_Z 2
loop_
_atom_type_symbol
_atom_type_radius_bond
C 0.68
H 0.23
Bi 1.48
I 1.40
Sb 1.39
loop_
_atom_site_label
_atom_site_type_symbol
_atom_site_fract_x
_atom_site_fract_y
_atom_site_fract_z
Bi1 Bi 0.58060(8) 0.46802(7) 0.37617(5)
Bi2 Bi 0.43476(8) 0.42913(7) 0.11338(5)
I1 I 0.50079(15) 0.24835(11) 0.20910(9)
I2 I 0.39148(16) 0.31806(12) 0.48253(9)
I3 I 0.70261(15) 0.60753(13) 0.25602(11)
I4 I 0.40753(18) 0.63043(13) 0.03426(10)
I5 I 0.32998(15) 0.49713(14) 0.27120(11)
I6 I 0.77823(18) 0.41495(17) 0.46234(13)
I7 I 0.2204(2) 0.26309(18) 0.00596(19)
Sb1 Sb 0.20160(13) -0.12033(12) 0.20378(9)
C1 C 0.428(2) -0.1631(18) 0.2802(16)
H1 H 0.39320 -0.23500 0.23940
C2 C 0.217(2) -0.0920(16) 0.0735(14)
C3 C 0.425(2) 0.0266(17) 0.3446(15)
H2 H 0.38930 0.08320 0.34580
C4 C 0.028(2) -0.4458(18) 0.2748(17)
H3 H 0.02690 -0.47430 0.32760
C5 C 0.149(2) 0.1090(19) 0.2519(19)
H4 H 0.19570 0.13420 0.21010
C6 C 0.1245(18) -0.0081(16) 0.2648(13)
C7 C 0.1013(19) -0.2917(16) 0.1978(15)
C8 C 0.531(3) 0.0520(19) 0.3985(17)
H5 H 0.56520 0.12400 0.43930
C9 C -0.042(2) -0.471(2) 0.1179(17)
H6 H -0.09060 -0.51880 0.06330
C10 C 0.249(2) -0.0513(19) -0.1021(16)
C11 C -0.043(2) -0.5121(19) 0.1949(17)
C12 C 0.027(3) -0.360(2) 0.1177(18)
H7 H 0.02340 -0.33150 0.06480
C13 C 0.593(2) -0.027(2) 0.3948(17)
C14 C 0.3675(18) -0.0817(16) 0.2876(12)
C15 C 0.103(2) -0.3349(19) 0.2776(14)
H8 H 0.15380 -0.28950 0.33200
C16 C 0.3258(19) -0.0854(19) 0.0434(14)
H9 H 0.38800 -0.09500 0.08060
C17 C 0.125(2) -0.0829(19) 0.0177(15)
H10 H 0.05280 -0.08950 0.03590
C18 C 0.143(3) -0.063(2) -0.0691(16)
H11 H 0.07910 -0.05750 -0.10760
C19 C 0.336(2) -0.065(2) -0.0393(17)
H12 H 0.40870 -0.05920 -0.05680
C20 C 0.536(2) -0.134(2) 0.334(2)
H13 H 0.57520 -0.18870 0.32960
C21 C -0.124(2) -0.637(2) 0.189(2)
H14 H -0.09790 -0.69060 0.15120
H15 H -0.20430 -0.64540 0.16280
H16 H -0.12150 -0.65120 0.24930
C22 C 0.708(2) -0.001(3) 0.450(2)
H17 H 0.76710 0.04990 0.42460
H18 H 0.72520 -0.07100 0.45020
H19 H 0.70980 0.03720 0.51130
C23 C 0.054(2) -0.037(2) 0.3302(17)
H20 H 0.03130 -0.11140 0.34040
C24 C 0.019(3) 0.045(2) 0.3777(18)
H21 H -0.02530 0.02530 0.42220
C25 C 0.104(2) 0.181(2) 0.302(3)
H22 H 0.11620 0.25470 0.28970
C26 C 0.044(3) 0.154(3) 0.365(2)
C27 C 0.002(3) 0.245(3) 0.428(3)
H23 H -0.08340 0.21880 0.41780
H24 H 0.03130 0.31900 0.41390
H25 H 0.03250 0.25070 0.49150
C28 C 0.261(4) -0.029(3) -0.1904(18)
H26 H 0.24510 -0.10100 -0.23380
H27 H 0.34110 0.02050 -0.18760
H28 H 0.20650 0.00830 -0.20910
Bi1A Bi 0.41940(8) 0.53198(7) 0.62383(5)
Bi2A Bi 0.56524(8) 0.57087(7) -0.11338(5)
I2A I 0.60852(16) 0.68194(12) 0.51747(9)
I4A I 0.59247(18) 0.36957(13) -0.03426(10)
#END
