
#######################################################################
#
#                 Cambridge Crystallographic Data Centre
#                                CCDC
#
#######################################################################
#
# If this CIF has been generated from an entry in the Cambridge
# Structural Database, then it will include bibliographic, chemical,
# crystal, experimental, refinement or atomic coordinate data resulting
# from the CCDC's data processing and validation procedures.
#
#######################################################################

data_CSD_CIF_AZOXUL
_audit_creation_date 2021-08-18
_audit_creation_method CSD-ConQuest-V1
_database_code_CSD AZOXUL
_database_code_depnum_ccdc_archive 'CCDC 2087418'
_chemical_formula_sum 'C102 H141 Eu4 N15 O51'
_chemical_formula_moiety
;
4(C2 H8 N1 1+),n(C70 H35 Eu4 N3 O34 4-),8(C3 H7 N1 O1),9(H2 O1)
;
_journal_coden_Cambridge 1747
_journal_year 2021
_journal_name_full 'Inorg.Chem.Front. '
loop_
_publ_author_name
"Hongtai Chen"
"Zhengguo Zhang"
"Tuoping Hu"
"Xiutang Zhang"
_chemical_name_systematic
;
catena-[tetrakis(dimethylammonium) 
tris(\m-2^2^-amino[1^1^,2^1^:2^3^,3^1^-terphenyl]-1^3^,1^5^,2^5^,3^3^,3^5^-pen
tacarboxylato)-(\m-formato)-bis(formato)-bis(aqua)-tetra-europium(iii) 
N,N-dimethylformamide solvate nonahydrate]
;
_chemical_name_common
;
NUC-41
;
_cell_volume  10097.002
_exptl_crystal_colour 'colorless'
_exptl_crystal_description 'needle'
_diffrn_ambient_temperature 296.1
_refine_special_details
;
Disordered solvent molecules were not modelled and the disordered density was 
taken into account using the MASK/OLEX2 procedure.
;
#These two values have been output from a single CSD field.
_refine_ls_R_factor_gt 0.0584
_refine_ls_wR_factor_gt 0.0584
_symmetry_cell_setting orthorhombic
_symmetry_space_group_name_H-M 'P n m a'
_symmetry_Int_Tables_number 62
loop_
_symmetry_equiv_pos_site_id
_symmetry_equiv_pos_as_xyz
1 x,y,z
2 1/2-x,-y,1/2+z
3 -x,1/2+y,-z
4 1/2+x,1/2-y,1/2-z
5 -x,-y,-z
6 -1/2+x,y,-1/2-z
7 x,-1/2-y,z
8 -1/2-x,-1/2+y,-1/2+z
_cell_length_a 32.6303(18)
_cell_length_b 18.587(3)
_cell_length_c 16.648(5)
_cell_angle_alpha 90
_cell_angle_beta 90
_cell_angle_gamma 90
_cell_formula_units_Z 4
loop_
_atom_type_symbol
_atom_type_radius_bond
C 0.68
H 0.23
Eu 1.98
N 0.68
O 0.68
loop_
_atom_site_label
_atom_site_type_symbol
_atom_site_fract_x
_atom_site_fract_y
_atom_site_fract_z
Eu1 Eu 0.67589(2) 0.38379(3) 0.40422(3)
Eu2 Eu 1.02535(2) 0.57196(3) 0.62245(3)
O1 O 0.4852(2) -0.0860(4) 0.7514(4)
O2 O 0.5356(2) -0.0050(5) 0.7572(5)
O3 O 0.3727(2) -0.0456(4) 0.5355(4)
O4 O 0.3816(3) 0.0430(6) 0.4510(6)
O5 O 0.6212(2) 0.3091(4) 0.4204(4)
O6 O 0.5674(2) 0.0320(4) -0.0743(5)
O7 O 0.59872(19) -0.0632(4) -0.1264(4)
O8 O 0.74889(19) -0.0942(4) -0.1029(4)
O9 O 0.7839(2) -0.0275(4) -0.0183(4)
O10 O 0.7003(2) 0.3097(4) 0.3047(4)
O11 O 0.9587(2) 0.4048(4) 0.5104(4)
O12 O 0.9776(2) 0.4877(4) 0.5995(5)
O13 O 0.86864(19) 0.5917(4) 0.7856(4)
O14 O 0.8149(2) 0.5222(4) 0.8085(4)
O15 O 0.7016(2) 0.3098(4) 0.5040(4)
O16 O 1.0407(3) 0.6896(4) 0.6466(5)
O17 O 0.9643(3) 0.6327(6) 0.5670(6)
N1 N 0.4495(4) 0.25000 0.5961(9)
N2 N 0.8778(4) 0.25000 0.6674(9)
N3 N 0.6759(4) 0.25000 -0.0730(8)
C1 C 0.4854(3) 0.0089(6) 0.6520(6)
C2 C 0.4482(3) -0.0122(6) 0.6141(6)
H1 H 0.43490 -0.05378 0.63099
C3 C 0.4319(3) 0.0280(6) 0.5531(7)
C4 C 0.4514(3) 0.0917(6) 0.5270(7)
H2 H 0.44015 0.11846 0.48524
C5 C 0.4877(3) 0.1146(6) 0.5640(7)
C6 C 0.5048(3) 0.0710(6) 0.6261(6)
H3 H 0.52948 0.08455 0.64965
C7 C 0.5030(3) -0.0307(6) 0.7225(7)
C8 C 0.3921(4) 0.0056(8) 0.5100(8)
C9 C 0.5081(3) 0.1837(5) 0.5408(6)
C10 C 0.4886(4) 0.25000 0.5585(9)
C11 C 0.5463(3) 0.1854(5) 0.5051(6)
H4 H 0.55951 0.14222 0.49376
C12 C 0.5657(4) 0.25000 0.4857(9)
C13 C 0.6064(4) 0.25000 0.4409(8)
C14 C 0.6406(3) 0.0244(5) -0.0623(6)
C15 C 0.6766(3) -0.0167(5) -0.0740(6)
H5 H 0.67525 -0.05951 -0.10289
C16 C 0.7143(3) 0.0063(6) -0.0427(6)
C17 C 0.7168(3) 0.0711(6) -0.0015(6)
H6 H 0.74188 0.08539 0.01967
C18 C 0.6829(3) 0.1151(5) 0.0091(6)
C19 C 0.6444(3) 0.0912(6) -0.0214(6)
H7 H 0.62130 0.11986 -0.01443
C20 C 0.6005(3) -0.0036(6) -0.0912(6)
C21 C 0.7508(3) -0.0422(6) -0.0559(6)
C22 C 0.6860(3) 0.1845(5) 0.0519(6)
C23 C 0.6823(4) 0.25000 0.0120(8)
C24 C 0.6930(3) 0.1855(6) 0.1354(6)
C25 C 0.6956(4) 0.25000 0.1786(8)
C26 C 0.6989(4) 0.25000 0.2686(9)
C27 C 0.9095(3) 0.4442(6) 0.6064(6)
C28 C 0.8975(3) 0.4924(5) 0.6645(5)
H8 H 0.91574 0.52813 0.68028
C29 C 0.8582(3) 0.4898(6) 0.7013(6)
C30 C 0.8324(3) 0.4325(5) 0.6782(6)
H9 H 0.80686 0.42807 0.70235
C31 C 0.8440(3) 0.3827(6) 0.6209(6)
C32 C 0.8817(3) 0.3906(6) 0.5853(6)
H10 H 0.88907 0.35847 0.54495
C33 C 0.9517(3) 0.4465(7) 0.5696(6)
C34 C 0.8471(3) 0.5377(6) 0.7691(6)
C35 C 0.8198(3) 0.3172(5) 0.6065(5)
C36 C 0.8389(4) 0.25000 0.6272(9)
C37 C 0.7804(3) 0.3148(6) 0.5730(6)
H11 H 0.76766 0.35809 0.56040
C38 C 0.7588(4) 0.25000 0.5571(8)
C39 C 0.7175(4) 0.25000 0.5209(9)
C40 C 1.0431(6) 0.75000 0.6093(12)
O18 O 0.9594(5) 0.75000 0.4843(10)
H12? H 0.43228 0.21045 0.64966
H13? H 0.42955 0.29572 0.63882
H14? H 0.87910 0.27584 0.71574
H15? H 0.88911 0.20501 0.68417
H16? H 0.67756 0.20669 -0.09101
H17? H 0.65175 0.26670 -0.08269
H18? H 0.67130 0.15736 0.15999
H19? H 0.71834 0.15956 0.14478
O1F O 0.4852(2) 0.5860(4) 0.7514(4)
O2F O 0.5356(2) 0.5050(5) 0.7572(5)
O3F O 0.3727(2) 0.5456(4) 0.5355(4)
O4F O 0.3816(3) 0.4570(6) 0.4510(6)
O5F O 0.6212(2) 0.1909(4) 0.4204(4)
C1F C 0.4854(3) 0.4911(6) 0.6520(6)
C2F C 0.4482(3) 0.5122(6) 0.6141(6)
H1F H 0.43490 0.55378 0.63099
C3F C 0.4319(3) 0.4720(6) 0.5531(7)
C4F C 0.4514(3) 0.4083(6) 0.5270(7)
H2F H 0.44015 0.38154 0.48524
C5F C 0.4877(3) 0.3854(6) 0.5640(7)
C6F C 0.5048(3) 0.4290(6) 0.6261(6)
H3F H 0.52948 0.41545 0.64965
C7F C 0.5030(3) 0.5307(6) 0.7225(7)
C8F C 0.3921(4) 0.4944(8) 0.5100(8)
C9F C 0.5081(3) 0.3163(5) 0.5408(6)
C11F C 0.5463(3) 0.3146(5) 0.5051(6)
H4F H 0.55951 0.35778 0.49376
O6F O 0.5674(2) 0.4680(4) -0.0743(5)
O7F O 0.59872(19) 0.5632(4) -0.1264(4)
O8F O 0.74889(19) 0.5942(4) -0.1029(4)
O9F O 0.7839(2) 0.5275(4) -0.0183(4)
O10F O 0.7003(2) 0.1903(4) 0.3047(4)
C14F C 0.6406(3) 0.4756(5) -0.0623(6)
C15F C 0.6766(3) 0.5167(5) -0.0740(6)
H5F H 0.67525 0.55951 -0.10289
C16F C 0.7143(3) 0.4937(6) -0.0427(6)
C17F C 0.7168(3) 0.4289(6) -0.0015(6)
H6F H 0.74188 0.41461 0.01967
C18F C 0.6829(3) 0.3849(5) 0.0091(6)
C19F C 0.6444(3) 0.4088(6) -0.0214(6)
H7F H 0.62130 0.38014 -0.01443
C20F C 0.6005(3) 0.5036(6) -0.0912(6)
C21F C 0.7508(3) 0.5422(6) -0.0559(6)
C22F C 0.6860(3) 0.3155(5) 0.0519(6)
C24F C 0.6930(3) 0.3145(6) 0.1354(6)
O11F O 0.9587(2) 0.0952(4) 0.5104(4)
O12F O 0.9776(2) 0.0123(4) 0.5995(5)
O13F O 0.86864(19) -0.0917(4) 0.7856(4)
O14F O 0.8149(2) -0.0222(4) 0.8085(4)
O15F O 0.7016(2) 0.1902(4) 0.5040(4)
C27F C 0.9095(3) 0.0558(6) 0.6064(6)
C28F C 0.8975(3) 0.0076(5) 0.6645(5)
H8F H 0.91574 -0.02813 0.68028
C29F C 0.8582(3) 0.0102(6) 0.7013(6)
C30F C 0.8324(3) 0.0675(5) 0.6782(6)
H9F H 0.80686 0.07193 0.70235
C31F C 0.8440(3) 0.1173(6) 0.6209(6)
C32F C 0.8817(3) 0.1094(6) 0.5853(6)
H10F H 0.88907 0.14153 0.54495
C33F C 0.9517(3) 0.0535(7) 0.5696(6)
C34F C 0.8471(3) -0.0377(6) 0.7691(6)
C35F C 0.8198(3) 0.1828(5) 0.6065(5)
C37F C 0.7804(3) 0.1852(6) 0.5730(6)
H11F H 0.76766 0.14191 0.56040
O16F O 1.0407(3) 0.8104(4) 0.6466(5)
Eu1D Eu 0.32411(2) 0.61621(3) 0.59578(3)
Eu2C Eu 0.52535(2) -0.07196(3) 0.87755(3)
O17C O 0.4643(3) -0.1327(6) 0.9330(6)
Eu1A Eu 0.82411(2) 0.61621(3) -0.09578(3)
Eu1A* Eu 0.82411(2) 0.61621(3) 0.90422(3)
Eu1B Eu 0.32411(2) -0.11621(3) 0.59578(3)
Eu1F Eu 0.67589(2) 0.11621(3) 0.40422(3)
Eu1G Eu 0.82411(2) -0.11621(3) -0.09578(3)
Eu1G* Eu 0.82411(2) -0.11621(3) 0.90422(3)
Eu2B Eu 0.97465(2) 0.07196(3) 0.37755(3)
Eu2C* Eu 0.52535(2) -0.07196(3) -0.12245(3)
Eu2D Eu 0.97465(2) 0.42804(3) 0.37755(3)
Eu2E Eu 0.52535(2) 0.57196(3) -0.12245(3)
Eu2E* Eu 0.52535(2) 0.57196(3) 0.87755(3)
Eu2F Eu 1.02535(2) -0.07196(3) 0.62245(3)
Eu2F* Eu 1.02535(2) 0.92804(3) 0.62245(3)
O1C O 0.9852(2) 0.5860(4) 0.7486(4)
O2C O 1.0356(2) 0.5050(5) 0.7428(5)
O3B O 0.6273(2) 0.4544(4) 0.4645(4)
O5D O 0.3788(2) 0.6909(4) 0.5796(4)
O6* O 0.5674(2) 0.0320(4) 0.9257(5)
O6C O 1.0674(2) 0.4680(4) 0.5743(5)
O7* O 0.59872(19) -0.0632(4) 0.8736(4)
O7C O 1.09872(19) 0.5632(4) 0.6264(4)
O8C O 0.24889(19) 0.5942(4) 0.6029(4)
O8G O 0.75111(19) 0.4058(4) 0.3971(4)
O9C O 0.2839(2) 0.5275(4) 0.5183(4)
O9G O 0.7161(2) 0.4725(4) 0.4817(4)
O10D O 0.2997(2) 0.6903(4) 0.6953(4)
O11D O 1.0413(2) 0.5952(4) 0.4896(4)
O11G O 0.5413(2) -0.0952(4) 1.0104(4)
O12C O 0.4776(2) 0.0123(4) 0.9005(5)
O13A O 0.63136(19) 0.4083(4) 0.2856(4)
O13E O 0.36864(19) 0.5917(4) 0.7144(4)
O14A O 0.6851(2) 0.4778(4) 0.3085(4)
O14E O 0.3149(2) 0.5222(4) 0.6915(4)
O15D O 0.2984(2) 0.6902(4) 0.4960(4)
O16C O 0.5407(3) -0.1896(4) 0.8534(5)
#END
