
#######################################################################
#
#                 Cambridge Crystallographic Data Centre
#                                CCDC
#
#######################################################################
#
# If this CIF has been generated from an entry in the Cambridge
# Structural Database, then it will include bibliographic, chemical,
# crystal, experimental, refinement or atomic coordinate data resulting
# from the CCDC's data processing and validation procedures.
#
#######################################################################

data_CSD_CIF_BACXUZ
_audit_creation_date 2002-04-24
_audit_creation_method CSD-ConQuest-V1
_database_code_CSD BACXUZ
_database_code_depnum_ccdc_archive 'CCDC 166052'
_chemical_formula_sum 'C26 H52 N2 O28 U3'
_chemical_formula_moiety
;
(C20 H28 O24 U3 2-)n,n(C6 H16 N2 2+),4n(H2 O1)
;
_journal_coden_Cambridge 580
_journal_volume 21
_journal_year 2002
_journal_page_first 69
_journal_name_full 'Polyhedron '
loop_
_publ_author_name
"Yingjie Zhang"
"F.R.Livens"
"D.Collison"
"M.Helliwell"
"F.Heatley"
"A.K.Powell"
"S.Wocadlo"
"H.Eccles"
_chemical_name_systematic
;
catena-(Dimethylpiperazinium 
diaqua-tetrakis(\m~2~-2,2-dimethylmalonato)-tris(dioxo-uranium(vi)) 
tetrahydrate)
;
_cell_volume   1117.651
_exptl_crystal_colour 'yellow'
_exptl_crystal_density_diffrn 2.298
_exptl_special_details
;
Number of un-coordinated water molecules is unclear: 2 in cif, 3 in 
synthesis, 4 in crystal data
;
_exptl_crystal_description 'prismatic'
_diffrn_ambient_temperature 290.2
_refine_special_details
;
Carbon atoms C14-C18 with 0.5 occupancies appear to represent an unknown 
disordered solvent, possibly ethanol or water.
;
#These two values have been output from a single CSD field.
_refine_ls_R_factor_gt 0.0263
_refine_ls_wR_factor_gt 0.0263
_symmetry_cell_setting triclinic
_symmetry_space_group_name_H-M 'P -1'
_symmetry_Int_Tables_number 2
loop_
_symmetry_equiv_pos_site_id
_symmetry_equiv_pos_as_xyz
1 x,y,z
2 -x,-y,-z
_cell_length_a 11.393(1)
_cell_length_b 11.466(2)
_cell_length_c 8.7817(9)
_cell_angle_alpha 97.64(1)
_cell_angle_beta 94.081(9)
_cell_angle_gamma 79.79(1)
_cell_formula_units_Z 1
loop_
_atom_type_symbol
_atom_type_radius_bond
C 0.68
H 0.23
N 0.68
O 0.68
U 1.45
loop_
_atom_site_label
_atom_site_type_symbol
_atom_site_fract_x
_atom_site_fract_y
_atom_site_fract_z
U1 U 1.00000 0.00000 1.00000
U2 U 0.58269(3) -0.34550(3) 0.49993(3)
O1 O 0.7441(5) -0.2456(4) 0.6372(6)
O2 O 0.6451(5) -0.1612(5) 0.4507(6)
O3 O 0.9886(5) -0.1002(5) 0.7335(6)
O4 O 0.8211(5) -0.0003(5) 0.8192(6)
O5 O 0.6707(6) -0.4208(5) 0.7482(6)
O6 O 0.5618(5) -0.5328(5) 0.6112(6)
O7 O 0.5104(5) -0.7128(5) 0.7290(6)
O8 O 0.6102(5) -0.7664(5) 0.9377(6)
O9 O 0.6978(5) -0.4332(5) 0.3950(6)
O10 O 0.4676(5) -0.2601(5) 0.6075(6)
O11 O 1.0327(5) 0.1259(5) 0.9295(6)
O12 O 0.8117(4) 0.1201(5) 1.0967(5)
C1 C 0.7312(7) -0.1662(7) 0.5492(8)
C2 C 0.8209(7) -0.0835(7) 0.5492(8)
C3 C 0.9144(9) -0.148(1) 0.4341(10)
C4 C 0.7612(9) 0.0368(8) 0.501(1)
C5 C 0.8806(7) -0.0606(7) 0.7112(9)
C6 C 0.6323(7) -0.5150(7) 0.7283(8)
C7 C 0.6743(7) -0.6104(7) 0.8305(9)
C8 C 0.698(1) -0.5532(9) 0.994(1)
C9 C 0.7921(9) -0.6777(9) 0.763(1)
C10 C 0.5910(7) -0.7029(6) 0.8325(9)
H1 H 0.97360 -0.10020 0.42820
H2 H 0.95160 -0.22260 0.46630
H3 H 0.87630 -0.16240 0.33470
H4 H 0.70210 0.07340 0.57160
H5 H 0.81980 0.08710 0.50260
H6 H 0.72570 0.02560 0.40090
H7 H 0.62120 -0.50570 1.03190
H8 H 0.72200 -0.61200 1.06010
H9 H 0.75180 -0.50100 0.99720
H10 H 0.84510 -0.62300 0.76870
H11 H 0.82210 -0.73880 0.82610
H12 H 0.77580 -0.70970 0.66260
H13 H 0.80900 0.17650 1.19460
H14 H 0.74830 0.14210 1.03450
C11? C 0.047(3) 0.412(3) -0.048(4)
C12? C 0.042(3) 0.385(3) 0.111(5)
C13? C 0.040(3) 0.398(3) 0.258(4)
C14? C 0.023(3) 0.426(3) 0.343(4)
C15? C 0.008(5) 0.431(4) 0.420(5)
N1 N 0.5709(6) -0.1128(6) 0.0293(7)
C16 C 0.5617(8) -0.0710(7) -0.1221(9)
C17 C 0.5552(8) -0.0091(7) 0.1513(8)
C18 C 0.6858(8) -0.1960(8) 0.055(1)
H15 H 0.50820 -0.15920 0.04120
H16 H 0.57320 -0.13980 -0.20140
H17 H 0.62850 -0.02930 -0.13060
H18 H 0.62590 0.04950 0.17320
H19 H 0.55380 -0.02260 0.25560
H20 H 0.69250 -0.26310 -0.02440
H21 H 0.75150 -0.15670 0.05320
H22 H 0.68610 -0.22560 0.15160
O13 O 1.1859(6) -0.3012(6) 0.6641(7)
C17A C 0.4448(8) 0.0091(7) -0.1513(8)
N1A N 0.4291(6) 0.1128(6) -0.0293(7)
C16A C 0.4383(8) 0.0710(7) 0.1221(9)
H16A H 0.42680 0.13980 0.20140
H17A H 0.37150 0.02930 0.13060
C18A C 0.3142(8) 0.1960(8) -0.055(1)
H20A H 0.30750 0.26310 0.02440
H21A H 0.24850 0.15670 -0.05320
H22A H 0.31390 0.22560 -0.15160
H15A H 0.49180 0.15920 -0.04120
H18A H 0.37410 -0.04950 -0.17320
H19A H 0.44620 0.02260 -0.25560
O1A O 1.2559(5) 0.2456(4) 1.3628(6)
O2A O 1.3549(5) 0.1612(5) 1.5493(6)
O3A O 1.0114(5) 0.1002(5) 1.2665(6)
O4A O 1.1789(5) 0.0003(5) 1.1808(6)
C1A C 1.2688(7) 0.1662(7) 1.4508(8)
C2A C 1.1791(7) 0.0835(7) 1.4508(8)
C3A C 1.0856(9) 0.148(1) 1.5659(10)
C4A C 1.2388(9) -0.0368(8) 1.499(1)
C5A C 1.1194(7) 0.0606(7) 1.2888(9)
H1A H 1.02640 0.10020 1.57180
H2A H 1.04840 0.22260 1.53370
H3A H 1.12370 0.16240 1.66530
H4A H 1.29790 -0.07340 1.42840
H5A H 1.18020 -0.08710 1.49740
H6A H 1.27430 -0.02560 1.59910
O11A O 0.9673(5) -0.1259(5) 1.0705(6)
O12A O 1.1883(4) -0.1201(5) 0.9033(5)
H13A H 1.19100 -0.17650 0.80540
H14A H 1.25170 -0.14210 0.96550
U2A U 1.41731(3) 0.34550(3) 1.50007(3)
O5A O 0.3293(6) -0.5792(5) 0.2518(6)
O6A O 0.4382(5) -0.4672(5) 0.3888(6)
O7A O 0.4896(5) -0.2872(5) 0.2710(6)
O8A O 0.3898(5) -0.2336(5) 0.0623(6)
C6A C 0.3677(7) -0.4850(7) 0.2717(8)
C7A C 0.3257(7) -0.3896(7) 0.1695(9)
C8A C 0.302(1) -0.4468(9) 0.006(1)
C9A C 0.2079(9) -0.3223(9) 0.237(1)
C10A C 0.4090(7) -0.2971(6) 0.1675(9)
H7A H 0.37880 -0.49430 -0.03190
H8A H 0.27800 -0.38800 -0.06010
H9A H 0.24820 -0.49900 0.00280
H10A H 0.15490 -0.37700 0.23130
H11A H 0.17790 -0.26120 0.17390
H12A H 0.22420 -0.29030 0.33740
O9A O 1.3022(5) 0.4332(5) 1.6050(6)
O10A O 1.5324(5) 0.2601(5) 1.3925(6)
U2A* U 0.41731(3) -0.65450(3) 0.50007(3)
O5A* O 1.3293(6) 0.4208(5) 1.2518(6)
O6* O 1.5618(5) 0.4672(5) 1.6112(6)
O6A* O 1.4382(5) 0.5328(5) 1.3888(6)
O7* O 1.5104(5) 0.2872(5) 1.7290(6)
#END
