
#######################################################################
#
#                 Cambridge Crystallographic Data Centre
#                                CCDC
#
#######################################################################
#
# If this CIF has been generated from an entry in the Cambridge
# Structural Database, then it will include bibliographic, chemical,
# crystal, experimental, refinement or atomic coordinate data resulting
# from the CCDC's data processing and validation procedures.
#
#######################################################################

data_CSD_CIF_BACYEK
_audit_creation_date 2002-04-24
_audit_creation_method CSD-ConQuest-V1
_database_code_CSD BACYEK
_database_code_depnum_ccdc_archive 'CCDC 166054'
_chemical_formula_sum 'C25 H44 N2 O16 U2'
_chemical_formula_moiety
;
(C15 H18 O16 U2 2-)n,n(C10 H26 N2 2+)
;
_journal_coden_Cambridge 580
_journal_volume 21
_journal_year 2002
_journal_page_first 69
_journal_name_full 'Polyhedron '
loop_
_publ_author_name
"Yingjie Zhang"
"F.R.Livens"
"D.Collison"
"M.Helliwell"
"F.Heatley"
"A.K.Powell"
"S.Wocadlo"
"H.Eccles"
_chemical_name_systematic
;
catena-(N,N,N',N'-Tetraethyl-ethylenediammonium 
tris(\m~2~-(2,2-dimethylmalonato))-bis(dioxo-uranium(vi)))
;
_cell_volume   3527.404
_exptl_crystal_colour 'yellow'
_exptl_crystal_density_diffrn 2.08
_diffrn_ambient_temperature 293
#These two values have been output from a single CSD field.
_refine_ls_R_factor_gt 0.0279
_refine_ls_wR_factor_gt 0.0279
_symmetry_cell_setting monoclinic
_symmetry_space_group_name_H-M 'P 21/c'
_symmetry_Int_Tables_number 14
loop_
_symmetry_equiv_pos_site_id
_symmetry_equiv_pos_as_xyz
1 x,y,z
2 x,1/2-y,1/2+z
3 -x,-y,-z
4 -x,-1/2+y,-1/2-z
_cell_length_a 8.590(2)
_cell_length_b 18.090(4)
_cell_length_c 22.701(5)
_cell_angle_alpha 90
_cell_angle_beta 90.57(3)
_cell_angle_gamma 90
_cell_formula_units_Z 4
loop_
_atom_type_symbol
_atom_type_radius_bond
C 0.68
H 0.23
N 0.68
O 0.68
U 1.49
loop_
_atom_site_label
_atom_site_type_symbol
_atom_site_fract_x
_atom_site_fract_y
_atom_site_fract_z
U1 U 0.08504(2) 0.785847(9) 0.431703(7)
U2 U 0.11311(2) 0.80377(1) 0.755140(7)
O1 O -0.0566(4) 0.8478(2) 0.40579(14)
O2 O 0.2303(5) 0.7245(2) 0.4555(2)
O3 O 0.1880(4) 0.8802(2) 0.49767(14)
O4 O -0.0031(5) 0.8158(2) 0.53361(15)
O5 O 0.1812(5) 0.8278(2) 0.65199(14)
O6 O -0.0049(5) 0.8944(2) 0.68765(14)
O7 O -0.0058(5) 0.6980(2) 0.3554(2)
O8 O -0.1214(5) 0.6250(2) 0.2944(2)
O9 O 0.2017(5) 0.7828(2) 0.33103(15)
O10 O 0.2927(5) 0.8682(2) 0.38692(15)
O11 O -0.1035(5) 0.6999(2) 0.46579(15)
O12 O -0.2072(5) 0.5904(2) 0.4791(2)
O13 O 0.3188(6) 0.7697(3) 0.2263(2)
O14 O 0.4863(6) 0.8494(3) 0.1968(2)
O15 O -0.0206(5) 0.7361(2) 0.7317(2)
O16 O 0.2427(5) 0.8718(2) 0.7798(2)
C1 C 0.3903(6) 0.8285(3) 0.2322(2)
C2 C 0.3557(7) 0.8804(3) 0.2848(2)
C3 C 0.2844(6) 0.8414(3) 0.3369(2)
C4 C 0.5017(9) 0.9215(4) 0.3045(3)
H1 H 0.5466(9) 0.9463(4) 0.2713(3)
H2 H 0.5756(9) 0.8870(4) 0.3206(3)
H3 H 0.4752(9) 0.9573(4) 0.3340(3)
C5 C 0.2278(10) 0.9348(3) 0.2621(3)
H4 H 0.266(1) 0.9616(3) 0.2288(3)
H5 H 0.2018(10) 0.9689(3) 0.2929(3)
H6 H 0.1366(10) 0.9074(3) 0.2508(3)
C6 C -0.1823(6) 0.6455(3) 0.4484(2)
C7 C -0.2550(6) 0.6487(3) 0.3854(2)
C8 C -0.1216(6) 0.6563(3) 0.3430(2)
C9 C -0.3559(8) 0.7180(4) 0.3800(3)
H7 H -0.4417(8) 0.7145(4) 0.4066(3)
H8 H -0.3949(8) 0.7222(4) 0.3403(3)
H9 H -0.2946(8) 0.7608(4) 0.3896(3)
C10 C -0.3525(7) 0.5806(4) 0.3709(2)
H10 H -0.4364(7) 0.5767(4) 0.3983(2)
H11 H -0.2884(7) 0.5372(4) 0.3736(2)
H12 H -0.3940(7) 0.5849(4) 0.3316(2)
C11 C 0.0906(6) 0.8693(2) 0.5380(2)
C12 C 0.0801(6) 0.9228(3) 0.5890(2)
C13 C 0.0835(6) 0.8787(3) 0.6459(2)
C14 C -0.0691(7) 0.9671(3) 0.5826(2)
H13 H -0.0769(7) 1.0013(3) 0.6147(2)
H14 H -0.0679(7) 0.9939(3) 0.5460(2)
H15 H -0.1568(7) 0.9343(3) 0.5828(2)
C15 C 0.2180(7) 0.9761(3) 0.5909(2)
H16 H 0.2071(7) 1.0091(3) 0.6238(2)
H17 H 0.3130(7) 0.9486(3) 0.5952(2)
H18 H 0.2205(7) 1.0042(3) 0.5551(2)
C16 C -0.2201(9) 0.6458(4) 0.6252(3)
H19 H -0.1613(9) 0.6756(4) 0.6531(3)
H20 H -0.2942(9) 0.6165(4) 0.6472(3)
C17 C -0.3069(8) 0.6957(4) 0.5837(3)
H21 H -0.2325(8) 0.7221(4) 0.5596(3)
H22 H -0.3710(8) 0.6658(4) 0.5576(3)
C18 C -0.3163(8) 0.8043(3) 0.6497(3)
H23 H -0.2550(8) 0.7771(3) 0.6786(3)
H24 H -0.2444(8) 0.8294(3) 0.6239(3)
C19 C -0.4091(8) 0.8601(4) 0.6807(3)
H25 H -0.3410(8) 0.8924(4) 0.7025(3)
H26 H -0.4788(8) 0.8360(4) 0.7074(3)
H27 H -0.4682(8) 0.8884(4) 0.6526(3)
C20 C 0.0515(12) 0.6324(11) 0.6027(5)
H28 H 0.0383(12) 0.6854(11) 0.5989(5)
H29 H 0.0846(12) 0.6230(11) 0.6430(5)
C21 C 0.1601(12) 0.6146(6) 0.5706(5)
H30 H 0.2516(12) 0.6419(6) 0.5818(5)
H31 H 0.1334(12) 0.6255(6) 0.5304(5)
H32 H 0.1800(12) 0.5627(6) 0.5747(5)
C22 C -0.5186(7) 0.7835(4) 0.5700(3)
H33 H -0.5967(7) 0.8120(4) 0.5907(3)
H34 H -0.5717(7) 0.7437(4) 0.5494(3)
C23 C -0.4421(8) 0.8326(4) 0.5255(3)
H35 H -0.5194(8) 0.8516(4) 0.4987(3)
H36 H -0.3665(8) 0.8047(4) 0.5040(3)
H37 H -0.3915(8) 0.8730(4) 0.5454(3)
C24 C -0.0990(16) 0.5213(5) 0.6153(4)
H38 H -0.0922(16) 0.5207(5) 0.6580(4)
H39 H -0.0047(16) 0.4994(5) 0.5999(4)
C25 C -0.2361(11) 0.4780(7) 0.5954(5)
H40 H -0.2265(11) 0.4280(7) 0.6090(5)
H41 H -0.2417(11) 0.4785(7) 0.5531(5)
H42 H -0.3290(11) 0.4996(7) 0.6110(5)
N1 N -0.4084(5) 0.7507(2) 0.6143(2)
H43 H -0.4674(5) 0.7247(2) 0.6401(2)
N2 N -0.1141(7) 0.5965(3) 0.5947(2)
H44 H -0.1395(7) 0.5959(3) 0.5556(2)
O7A O -0.0058(5) 0.8020(2) 0.8554(2)
O8A O -0.1214(5) 0.8750(2) 0.7944(2)
O9A O 0.2017(5) 0.7172(2) 0.83103(15)
O13A O 0.3188(6) 0.7303(3) 0.7263(2)
U2A U 0.11311(2) 0.69623(1) 0.255140(7)
#END
