
#######################################################################
#
#                 Cambridge Crystallographic Data Centre
#                                CCDC
#
#######################################################################
#
# If this CIF has been generated from an entry in the Cambridge
# Structural Database, then it will include bibliographic, chemical,
# crystal, experimental, refinement or atomic coordinate data resulting
# from the CCDC's data processing and validation procedures.
#
#######################################################################

data_CSD_CIF_BADLOH
_audit_creation_date 1982-02-03
_audit_creation_method CSD-ConQuest-V1
_database_code_CSD BADLOH
_database_code_depnum_ccdc_archive 'CCDC 1104848'
_chemical_formula_sum 'C56 H64 Ag6 N2 S8'
_chemical_formula_moiety
;
(C48 H40 Ag6 S8 2-)n,2n(C4 H12 N1 1+)
;
_journal_coden_Cambridge 9
_journal_volume 20
_journal_year 1981
_journal_page_first 1487
_journal_name_full 'Inorg.Chem. '
loop_
_publ_author_name
"I.G.Dance"
_chemical_name_systematic
;
catena-(bis(Tetramethylammonium) octakis(benzenethiolato)-hexa-silver(i))
;
_cell_volume   3052.409
_exptl_crystal_colour 'pale yellow'
_exptl_crystal_density_diffrn 1.82
_diffrn_ambient_temperature ?
_diffrn_special_details
;
The study was carried out at room temperature,in the range 283-303K

;
#These two values have been output from a single CSD field.
_refine_ls_R_factor_gt 0.04
_refine_ls_wR_factor_gt 0.04
_symmetry_cell_setting triclinic
_symmetry_space_group_name_H-M 'P -1'
_symmetry_Int_Tables_number 2
loop_
_symmetry_equiv_pos_site_id
_symmetry_equiv_pos_as_xyz
1 x,y,z
2 -x,-y,-z
_cell_length_a 12.252(1)
_cell_length_b 13.371(2)
_cell_length_c 18.831(3)
_cell_angle_alpha 92.15(1)
_cell_angle_beta 96.18(1)
_cell_angle_gamma 84.64(1)
_cell_formula_units_Z 2
loop_
_atom_type_symbol
_atom_type_radius_bond
C 0.68
H 0.23
Ag 1.59
N 0.68
S 1.02
loop_
_atom_site_label
_atom_site_type_symbol
_atom_site_fract_x
_atom_site_fract_y
_atom_site_fract_z
Ag1 Ag 0.10223 0.50929 0.94739
Ag2 Ag -0.02662 0.63338 0.83536
Ag3 Ag 0.18895 0.68213 0.77940
Ag4 Ag 0.03348 0.53399 0.68794
Ag5 Ag 0.06505 0.81116 0.66564
Ag6 Ag 0.05385 0.61929 0.54387
S1 S 0.24480 0.59690 0.89430
S2 S -0.10880 0.61570 0.95610
S3 S 0.18010 0.87540 0.77120
S4 S 0.22050 0.58920 0.66040
S5 S 0.02990 0.44820 0.80320
S6 S -0.08160 0.74930 0.73890
S7 S 0.03920 0.80610 0.53620
S8 S -0.08960 0.50240 0.57100
C1 C 0.32290 0.67370 0.95400
C2 C 0.40610 0.63130 1.00150
C3 C 0.47200 0.68670 1.04600
C4 C 0.45490 0.79050 1.04560
C5 C 0.37300 0.83450 0.99940
C6 C 0.30600 0.77570 0.95360
C7 C -0.10550 0.73220 1.00210
C8 C -0.19480 0.77080 1.03720
C9 C -0.19250 0.86260 1.07340
C10 C -0.10400 0.91560 1.07350
C11 C -0.01380 0.88130 1.03930
C12 C -0.01730 0.78720 1.00500
C13 C 0.30600 0.90500 0.74350
C14 C 0.37910 0.95170 0.79330
C15 C 0.47600 0.98120 0.77310
C16 C 0.50530 0.96470 0.70710
C17 C 0.43420 0.91640 0.65720
C18 C 0.33570 0.88650 0.67520
C19 C 0.29670 0.46950 0.67130
C20 C 0.32880 0.43040 0.73780
C21 C 0.39090 0.33900 0.74530
C22 C 0.42270 0.28560 0.68530
C23 C 0.39080 0.32480 0.62030
C24 C 0.32630 0.41450 0.61260
C25 C -0.09990 0.39710 0.80260
C26 C -0.17300 0.39270 0.74210
C27 C -0.27030 0.34730 0.74090
C28 C -0.29510 0.30930 0.80370
C29 C -0.22390 0.31280 0.86460
C30 C -0.12820 0.35850 0.86350
C31 C -0.13900 0.86450 0.77470
C32 C -0.16170 0.87270 0.84470
C33 C -0.20980 0.96100 0.87180
C34 C -0.23810 1.04100 0.83110
C35 C -0.21800 1.03530 0.76170
C36 C -0.16900 0.94550 0.73220
C37 C 0.16160 0.83920 0.50320
C38 C 0.24900 0.76670 0.49390
C39 C 0.33930 0.79470 0.46570
C40 C 0.34930 0.89000 0.44660
C41 C 0.26370 0.96120 0.45600
C42 C 0.17000 0.93640 0.48440
C43 C -0.22340 0.56290 0.57630
C44 C -0.24310 0.66560 0.57790
C45 C -0.34900 0.71170 0.58150
C46 C -0.43520 0.65720 0.58350
C47 C -0.41730 0.55370 0.58240
C48 C -0.31150 0.50600 0.57960
H1 H 0.41730 0.56040 1.00260
H2 H 0.52900 0.65450 1.07840
H3 H 0.50280 0.82810 1.07680
H4 H 0.36180 0.90640 0.99960
H5 H 0.24810 0.80830 0.92260
H6 H -0.25800 0.73330 1.03660
H7 H -0.25560 0.88820 1.09730
H8 H -0.10600 0.97710 1.09800
H9 H 0.04850 0.92020 1.04090
H10 H 0.04530 0.76110 0.98270
H11 H 0.36130 0.96410 0.84130
H12 H 0.52270 1.01520 0.80790
H13 H 0.57200 0.98520 0.69390
H14 H 0.45370 0.90350 0.60990
H15 H 0.28830 0.85370 0.64060
H16 H 0.30750 0.46640 0.77910
H17 H 0.41220 0.31310 0.79140
H18 H 0.46690 0.22420 0.69020
H19 H 0.41280 0.28940 0.57890
H20 H 0.30150 0.43830 0.56620
H21 H -0.15700 0.42190 0.69970
H22 H -0.31820 0.34220 0.69820
H23 H -0.36290 0.27990 0.80450
H24 H -0.23980 0.28360 0.90740
H25 H -0.08050 0.36370 0.90650
H26 H -0.14380 0.81660 0.87490
H27 H -0.22280 0.96450 0.92080
H28 H -0.27240 1.10080 0.85010
H29 H -0.23690 1.09150 0.73210
H30 H -0.15700 0.94240 0.68290
H31 H 0.24540 0.69960 0.50720
H32 H 0.39820 0.74470 0.45900
H33 H 0.41340 0.90690 0.42780
H34 H 0.26840 1.02860 0.44240
H35 H 0.11250 0.98680 0.49110
H36 H -0.18330 0.70590 0.57670
H37 H -0.36040 0.78280 0.58280
H38 H -0.50740 0.68720 0.58540
H39 H -0.47730 0.51330 0.58310
H40 H -0.29920 0.43430 0.58050
N1 N -0.41640 0.65010 0.81500
C49 C -0.40500 0.73100 0.86980
C50 C -0.52000 0.66990 0.77110
C51 C -0.32410 0.64400 0.77180
C52 C -0.41700 0.55790 0.85310
H41 H -0.33700 0.72290 0.90120
H42 H -0.46450 0.73860 0.90030
H43 H -0.40450 0.79730 0.84890
H44 H -0.53180 0.61800 0.73390
H45 H -0.58340 0.67410 0.79790
H46 H -0.52360 0.73130 0.74470
H47 H -0.32970 0.59170 0.73480
H48 H -0.25420 0.63180 0.79910
H49 H -0.32290 0.70570 0.74560
H50 H -0.42390 0.49990 0.82030
H51 H -0.34860 0.54190 0.88310
H52 H -0.47650 0.55890 0.88240
N2 N 0.09530 0.17290 0.67960
C53 C 0.08160 0.27150 0.64850
C54 C 0.13810 0.09690 0.63190
C55 C 0.15910 0.17370 0.74810
C56 C -0.01030 0.14810 0.69120
H53 H 0.05370 0.32320 0.67820
H54 H 0.04140 0.27210 0.60190
H55 H 0.15610 0.29140 0.63860
H56 H 0.15090 0.03180 0.64970
H57 H 0.09980 0.09690 0.58480
H58 H 0.21560 0.11300 0.62130
H59 H 0.16850 0.10890 0.77040
H60 H 0.13060 0.22240 0.78160
H61 H 0.23530 0.19020 0.74420
H62 H -0.01050 0.08240 0.71290
H63 H -0.04780 0.19490 0.72400
H64 H -0.06170 0.14540 0.64790
Ag1A Ag -0.10223 0.49071 1.05261
S2A S 0.10880 0.38430 1.04390
S8A S 0.08960 0.49760 0.42900
Ag6A Ag -0.05385 0.38071 0.45613
#END
