
#######################################################################
#
#                 Cambridge Crystallographic Data Centre
#                                CCDC
#
#######################################################################
#
# If this CIF has been generated from an entry in the Cambridge
# Structural Database, then it will include bibliographic, chemical,
# crystal, experimental, refinement or atomic coordinate data resulting
# from the CCDC's data processing and validation procedures.
#
#######################################################################

data_CSD_CIF_BADVAG
_audit_creation_date 2015-12-08
_audit_creation_method CSD-ConQuest-V1
_database_code_CSD BADVAG
_database_code_depnum_ccdc_archive 'CCDC 1407351'
_chemical_formula_sum 'C8 H10 Ag10 Mo12 N32 O40 Si1'
_chemical_formula_moiety
;
(C8 H8 Ag10 N32 2+)n,n(H2 Mo12 O40 Si1 2-)
;
_journal_coden_Cambridge 29
_journal_volume 641
_journal_year 2015
_journal_page_first 2587
_journal_name_full 'Z.Anorg.Allg.Chem. '
loop_
_publ_author_name
"Ai-Xiang Tian"
"Xue Hou"
"Jun Ying"
"Yang Yang"
"Ya-Li Ning"
"Tian-Jiao Li"
_chemical_name_systematic
;
catena-[octakis(\m-Tetrazolyl)-deca-silver(i) 
(\m~12~-silicato)-bis(\m~2~-hydroxo)-docosakis(\m~2~-oxo)-dodeca-oxo-dodeca-mo
lybdenum]
;
_cell_volume   1537.804
_exptl_crystal_colour 'red'
_exptl_crystal_density_diffrn 3.726
_exptl_crystal_description 'block'
_diffrn_ambient_temperature 293
_refine_special_details
;
O1,O1',O2,O2' disordered by symmetry over two configurations with occupancy 
0.50.
;
#These two values have been output from a single CSD field.
_refine_ls_R_factor_gt 0.0542
_refine_ls_wR_factor_gt 0.0542
_symmetry_cell_setting triclinic
_symmetry_space_group_name_H-M 'P -1'
_symmetry_Int_Tables_number 2
loop_
_symmetry_equiv_pos_site_id
_symmetry_equiv_pos_as_xyz
1 x,y,z
2 -x,-y,-z
_cell_length_a 10.9755(8)
_cell_length_b 12.3045(9)
_cell_length_c 13.1443(10)
_cell_angle_alpha 79.080(1)
_cell_angle_beta 65.855(1)
_cell_angle_gamma 72.171(1)
_cell_formula_units_Z 1
loop_
_atom_type_symbol
_atom_type_radius_bond
C 0.68
H 0.23
Ag 1.45
Mo 1.54
N 0.68
O 0.68
Si 1.20
loop_
_atom_site_label
_atom_site_type_symbol
_atom_site_fract_x
_atom_site_fract_y
_atom_site_fract_z
Mo1 Mo 0.27878(8) 0.01105(7) 1.28549(6)
Mo2 Mo 0.65933(8) -0.26868(6) 0.87796(6)
Mo3 Mo 0.75977(9) -0.20414(7) 1.07811(7)
Mo4 Mo 0.42614(9) -0.25465(7) 1.16279(7)
Mo5 Mo 0.39506(9) -0.06363(7) 0.80285(7)
Mo6 Mo 0.16764(9) -0.04610(8) 1.08704(8)
Si1 Si 0.50000 0.00000 1.00000
O1 O 0.8806(7) -0.3054(6) 1.1123(6)
O2 O 0.7284(9) -0.3906(8) 0.8151(8)
O3 O 0.1753(9) 0.0133(7) 1.4177(7)
O4 O 0.5518(9) -0.0098(7) 0.7065(7)
O5 O 0.3928(11) -0.0544(9) 1.0979(9)
O6 O 0.7726(11) -0.2733(9) 0.9475(8)
O7 O 0.5495(11) -0.0598(9) 0.8968(9)
O8 O 0.2705(11) -0.1940(9) 1.1230(9)
O9 O 0.3519(12) -0.1538(10) 1.2734(9)
O10 O 0.1602(11) 0.0006(9) 1.2183(9)
O11 O 0.7015(12) -0.1009(10) 1.1795(10)
O12 O 0.5054(9) -0.2032(8) 0.8245(7)
O13 O 0.6057(10) -0.2638(9) 1.1565(8)
O14 O 0.1378(13) 0.1091(10) 1.0328(10)
O15 O 0.0128(7) -0.0675(6) 1.1260(6)
O16 O 0.3983(8) -0.3761(7) 1.2358(7)
O17 O 0.5235(10) -0.3080(8) 1.0111(8)
O18 O 0.256(1) 0.1647(8) 1.2387(8)
O19 O 0.2515(14) -0.0880(12) 0.9400(11)
O20 O 0.4393(11) 0.1274(9) 0.9839(9)
O21 O 0.3413(8) -0.0880(6) 0.7108(6)
O22 O 0.6265(11) -0.0178(9) 1.0367(9)
Ag1 Ag 0.87599(7) 0.00804(5) 0.35889(6)
Ag2 Ag 1.31278(7) -0.53783(6) 0.70615(6)
Ag3 Ag 1.21114(7) -0.48022(5) 0.44763(6)
Ag4 Ag 0.99086(7) -0.50904(5) 0.29924(6)
N1 N 0.9331(9) -0.2476(7) 0.3124(7)
C1 C 1.3260(9) -0.3552(8) 0.9469(8)
H1 H 1.36970 -0.31750 0.97120
N2 N 1.2858(8) -0.4465(7) 0.8428(6)
N3 N 1.3647(7) -0.6556(6) 0.5855(6)
N4 N 0.7574(10) 0.2583(8) 0.4272(8)
N5 N 0.8523(8) 0.1870(6) 0.3488(6)
N6 N 1.3636(10) -0.7411(8) 0.4563(8)
N7 N 0.7860(8) 0.3585(7) 0.4150(7)
C2 C 1.4192(9) -0.7673(7) 0.5969(7)
H2 H 1.45220 -0.80240 0.65310
C3 C 1.0249(9) -0.2381(8) 0.4217(7)
H3 H 1.05120 -0.20980 0.46820
N8 N 1.2020(11) -0.3750(9) 1.0037(9)
N9 N 1.0097(8) -0.3523(6) 0.3247(6)
N10 N 1.3764(10) -0.4006(8) 0.8471(8)
N11 N 0.9383(8) -0.1733(7) 0.3718(6)
N12 N 1.0684(8) -0.3459(7) 0.3975(6)
N13 N 1.4212(8) -0.8237(7) 0.5186(6)
C4 C 0.9084(8) 0.3499(6) 0.3221(6)
H4 H 0.95660 0.40610 0.29150
N14 N 1.3286(8) -0.6386(7) 0.4944(6)
N15 N 1.1737(9) -0.4309(7) 0.9431(7)
N16 N 0.9443(9) 0.2483(8) 0.2850(7)
Ag5 Ag 1.00000 -0.50000 1.00000
Ag6 Ag 1.50000 -1.00000 0.50000
O5A O 0.6072(11) 0.0544(9) 0.9021(9)
O7A O 0.4505(11) 0.0598(9) 1.1032(9)
O20A O 0.5607(11) -0.1274(9) 1.0161(9)
O22A O 0.3735(11) 0.0178(9) 0.9633(9)
Mo1A Mo 0.72122(8) -0.01105(7) 0.71451(6)
Mo2A Mo 0.34067(8) 0.26868(6) 1.12204(6)
Mo3A Mo 0.24023(9) 0.20414(7) 0.92189(7)
Mo4A Mo 0.57386(9) 0.25465(7) 0.83721(7)
Mo5A Mo 0.60494(9) 0.06363(7) 1.19715(7)
Mo6A Mo 0.83236(9) 0.04610(8) 0.91296(8)
O1A O 0.1194(7) 0.3054(6) 0.8877(6)
O2A O 0.2716(9) 0.3906(8) 1.1849(8)
O3A O 0.8247(9) -0.0133(7) 0.5823(7)
O4A O 0.4482(9) 0.0098(7) 1.2935(7)
O6A O 0.2274(11) 0.2733(9) 1.0525(8)
O8A O 0.7295(11) 0.1940(9) 0.8770(9)
O9A O 0.6481(12) 0.1538(10) 0.7266(9)
O10A O 0.8398(11) -0.0006(9) 0.7817(9)
O11A O 0.2985(12) 0.1009(10) 0.8205(10)
O12A O 0.4946(9) 0.2032(8) 1.1755(7)
O13A O 0.3943(10) 0.2638(9) 0.8435(8)
O14A O 0.8622(13) -0.1091(10) 0.9672(10)
O15A O 0.9872(7) 0.0675(6) 0.8740(6)
O16A O 0.6017(8) 0.3761(7) 0.7642(7)
O17A O 0.4765(10) 0.3080(8) 0.9889(8)
O18A O 0.744(1) -0.1647(8) 0.7613(8)
O19A O 0.7485(14) 0.0880(12) 1.0600(11)
O21A O 0.6587(8) 0.0880(6) 1.2892(6)
Ag1A Ag 1.12401(7) -1.00804(5) 1.64111(6)
Ag2A Ag 0.68722(7) -0.46217(6) 1.29385(6)
Ag3A Ag 0.78886(7) -0.51978(5) 1.55237(6)
Ag4A Ag 1.00914(7) -0.49096(5) 1.70076(6)
N1A N 1.0669(9) -0.7524(7) 1.6876(7)
C1A C 0.6740(9) -0.6448(8) 1.0531(8)
H1A H 0.63030 -0.68250 1.02880
N2A N 0.7142(8) -0.5535(7) 1.1572(6)
N3A N 0.6353(7) -0.3444(6) 1.4145(6)
N4A N 1.2426(10) -1.2583(8) 1.5728(8)
N5A N 1.1477(8) -1.1870(6) 1.6512(6)
N6A N 0.6364(10) -0.2589(8) 1.5437(8)
N7A N 1.2140(8) -1.3585(7) 1.5850(7)
C2A C 0.5808(9) -0.2327(7) 1.4031(7)
H2A H 0.54780 -0.19760 1.34690
C3A C 0.9751(9) -0.7619(8) 1.5783(7)
H3A H 0.94880 -0.79020 1.53180
N8A N 0.7980(11) -0.6250(9) 0.9963(9)
N9A N 0.9903(8) -0.6477(6) 1.6753(6)
N10A N 0.6236(10) -0.5994(8) 1.1529(8)
N11A N 1.0617(8) -0.8267(7) 1.6282(6)
N12A N 0.9316(8) -0.6541(7) 1.6025(6)
N13A N 0.5788(8) -0.1763(7) 1.4814(6)
C4A C 1.0916(8) -1.3499(6) 1.6779(6)
H4A H 1.04340 -1.40610 1.70850
N14A N 0.6714(8) -0.3614(7) 1.5056(6)
N15A N 0.8263(9) -0.5691(7) 1.0569(7)
N16A N 1.0557(9) -1.2483(8) 1.7150(7)
Ag2* Ag 1.31278(7) -1.53783(6) 1.70615(6)
Ag2A* Ag 0.68722(7) 0.53783(6) 0.29385(6)
Ag3* Ag 1.21114(7) -1.48022(5) 1.44763(6)
Ag3A* Ag 0.78886(7) 0.48022(5) 0.55237(6)
N7* N 0.7860(8) -0.6415(7) 1.4150(7)
N7A* N 1.2140(8) -0.3585(7) 0.5850(7)
N13A* N 1.5788(8) -1.1763(7) 0.4814(6)
Ag6* Ag 0.50000 0.00000 1.50000
#END
