
#######################################################################
#
#                 Cambridge Crystallographic Data Centre
#                                CCDC
#
#######################################################################
#
# If this CIF has been generated from an entry in the Cambridge
# Structural Database, then it will include bibliographic, chemical,
# crystal, experimental, refinement or atomic coordinate data resulting
# from the CCDC's data processing and validation procedures.
#
#######################################################################

data_CSD_CIF_BADZAK
_audit_creation_date 2015-12-09
_audit_creation_method CSD-ConQuest-V1
_database_code_CSD BADZAK
_database_code_depnum_ccdc_archive 'CCDC 1061502'
_chemical_formula_sum 'C36 H32 N2 O16 Zn3'
_chemical_formula_moiety
;
(C2 H8 N1 1+)2n,n(C32 H16 O16 Zn3 2-)
;
_journal_coden_Cambridge 29
_journal_volume 641
_journal_year 2015
_journal_page_first 2599
_journal_name_full 'Z.Anorg.Allg.Chem. '
loop_
_publ_author_name
"Zhiqiang Jiang"
"Yun An"
"Xuejun Zhu"
"Congxue Tian"
"Jing Bai"
"Yufeng Li"
_chemical_name_systematic
;
catena-[bis(Dimethylammonium) 
bis(\m~4~-terephthalato-O,O',O'',O''')-(\m~4~-terephthalato-O,O,O',O')-(\m~2~-
terephthalato-O,O')-tri-zinc]
;
_cell_volume   5891.531
_exptl_crystal_colour 'colorless'
_exptl_crystal_description 'prism'
_diffrn_ambient_temperature 293
_refine_special_details
;
The protonated dimethylamine cations have not been modelled from the 
diffraction data.
;
#These two values have been output from a single CSD field.
_refine_ls_R_factor_gt 0.0464
_refine_ls_wR_factor_gt 0.0464
_symmetry_cell_setting monoclinic
_symmetry_space_group_name_H-M 'C 2/c'
_symmetry_Int_Tables_number 15
loop_
_symmetry_equiv_pos_site_id
_symmetry_equiv_pos_as_xyz
1 x,y,z
2 -x,y,1/2-z
3 1/2+x,1/2+y,z
4 1/2-x,1/2+y,1/2-z
5 -x,-y,-z
6 x,-y,-1/2+z
7 -1/2-x,-1/2-y,-z
8 -1/2+x,-1/2-y,-1/2+z
_cell_length_a 33.2338(17)
_cell_length_b 9.7575(5)
_cell_length_c 18.2013(7)
_cell_angle_alpha 90
_cell_angle_beta 93.461(4)
_cell_angle_gamma 90
_cell_formula_units_Z 4
loop_
_atom_type_symbol
_atom_type_radius_bond
C 0.68
H 0.23
O 0.68
Zn 1.22
loop_
_atom_site_label
_atom_site_type_symbol
_atom_site_fract_x
_atom_site_fract_y
_atom_site_fract_z
Zn1 Zn 0.152849(14) 0.30074(5) 0.48450(3)
Zn2 Zn 0.25000 0.25000 0.50000
O1 O 0.22652(9) 0.1887(3) 0.39891(15)
O2 O 0.15948(9) 0.1805(3) 0.39938(16)
O3 O 0.15393(9) -0.1890(3) 0.07496(16)
O4 O 0.20226(8) 0.4125(3) 0.50518(17)
O5 O 0.21626(8) -0.1169(3) 0.05596(16)
C1 C 0.18595(13) -0.1229(5) 0.0931(2)
O6 O 0.09639(10) 0.3485(4) 0.4632(2)
C2 C 0.22619(12) 0.6366(5) 0.4813(2)
C3 C 0.24973(14) 0.6392(5) 0.5471(3)
H1 H 0.24940 0.56530 0.57930
C4 C 0.19035(13) 0.0841(5) 0.2995(2)
C5 C 0.19972(14) 0.5168(5) 0.4624(3)
C6 C 0.19291(13) 0.1577(5) 0.3723(2)
C7 C 0.15524(14) 0.0322(5) 0.2698(3)
H2 H 0.13190 0.04130 0.29500
C8 C 0.18737(13) -0.0486(5) 0.1639(2)
C9 C 0.22645(15) 0.7486(5) 0.4354(3)
H3 H 0.21030 0.74850 0.39190
O7 O 0.17600(12) 0.5198(4) 0.4080(2)
C10 C 0.22307(13) 0.0053(5) 0.1935(2)
H4 H 0.24630 -0.00220 0.16780
C11 C 0.15367(14) -0.0339(6) 0.2028(3)
H5 H 0.12920 -0.06920 0.18370
C12 C 0.22448(14) 0.0701(5) 0.2608(3)
H6 H 0.24890 0.10500 0.28050
O8 O 0.10790(12) 0.4825(6) 0.5596(3)
C13 C 0.04081(16) 0.4669(7) 0.5044(3)
C14 C 0.08487(17) 0.4291(7) 0.5103(4)
C15 C 0.01479(18) 0.4111(8) 0.4529(4)
H7 H 0.02470 0.34890 0.41970
C16 C -0.02508(19) 0.4417(8) 0.4473(4)
H8 H -0.04180 0.40090 0.41090
O4F O 0.29774(8) 1.0875(3) 0.49482(17)
C2F C 0.27381(12) 0.8634(5) 0.5187(2)
C3F C 0.25027(14) 0.8608(5) 0.4529(3)
H1F H 0.25060 0.93470 0.42070
C5F C 0.30028(14) 0.9832(5) 0.5376(3)
C9F C 0.27355(15) 0.7514(5) 0.5646(3)
H3F H 0.28970 0.75150 0.60810
O7F O 0.32400(12) 0.9802(4) 0.5920(2)
O6D O -0.09639(10) 0.6515(4) 0.5368(2)
O8D O -0.10790(12) 0.5175(6) 0.4404(3)
C13D C -0.04081(16) 0.5331(7) 0.4956(3)
C14D C -0.08487(17) 0.5709(7) 0.4897(4)
C15D C -0.01479(18) 0.5889(8) 0.5471(4)
H7D H -0.02470 0.65110 0.58030
C16D C 0.02508(19) 0.5583(8) 0.5527(4)
H8D H 0.04180 0.59910 0.58910
Zn1D Zn -0.152849(14) 0.69926(5) 0.51550(3)
O1D O -0.22652(9) 0.8113(3) 0.60109(15)
O2D O -0.15948(9) 0.8195(3) 0.60062(16)
O3D O -0.15393(9) 1.1890(3) 0.92504(16)
O5D O -0.21626(8) 1.1169(3) 0.94404(16)
C1D C -0.18595(13) 1.1229(5) 0.9069(2)
C4D C -0.19035(13) 0.9159(5) 0.7005(2)
C6D C -0.19291(13) 0.8423(5) 0.6277(2)
C7D C -0.15524(14) 0.9678(5) 0.7302(3)
H2D H -0.13190 0.95870 0.70500
C8D C -0.18737(13) 1.0486(5) 0.8361(2)
C10D C -0.22307(13) 0.9947(5) 0.8065(2)
H4D H -0.24630 1.00220 0.83220
C11D C -0.15367(14) 1.0339(6) 0.7972(3)
H5D H -0.12920 1.06920 0.81630
C12D C -0.22448(14) 0.9299(5) 0.7392(3)
H6D H -0.24890 0.89500 0.71950
Zn1A Zn -0.152849(14) 1.30074(5) 1.01550(3)
Zn1E Zn 0.152849(14) -0.30074(5) -0.01550(3)
Zn1F Zn 0.347151(14) 1.19926(5) 0.51550(3)
Zn2* Zn 0.25000 1.25000 0.50000
Zn2A Zn -0.25000 1.25000 1.00000
Zn2B Zn -0.25000 0.75000 0.50000
Zn2C Zn 0.25000 -0.25000 0.00000
O1F O 0.27348(9) 0.3113(3) 0.60109(15)
O3A O -0.15393(9) 0.8110(3) 0.42504(16)
O3E O 0.15393(9) 0.1890(3) 0.57496(16)
O4D O -0.20226(8) 0.5875(3) 0.49482(17)
O4F* O 0.29774(8) 0.0875(3) 0.49482(17)
O5C O 0.28374(8) 0.3831(3) 0.44404(16)
O5E O 0.21626(8) 0.1169(3) 0.55596(16)
#END
