
#######################################################################
#
#                 Cambridge Crystallographic Data Centre
#                                CCDC
#
#######################################################################
#
# If this CIF has been generated from an entry in the Cambridge
# Structural Database, then it will include bibliographic, chemical,
# crystal, experimental, refinement or atomic coordinate data resulting
# from the CCDC's data processing and validation procedures.
#
#######################################################################

data_CSD_CIF_BAFBES
_audit_creation_date 2015-12-09
_audit_creation_method CSD-ConQuest-V1
_database_code_CSD BAFBES
_database_code_depnum_ccdc_archive 'CCDC 1400963'
_chemical_formula_sum 'C16 H19 Ag10 Mo12 N24 O40 P1'
_chemical_formula_moiety
;
(C16 H18 Ag10 N24 2+)n,n(H1 Mo12 O40 P1 2-)
;
_journal_coden_Cambridge 29
_journal_volume 641
_journal_year 2015
_journal_page_first 2587
_journal_name_full 'Z.Anorg.Allg.Chem. '
loop_
_publ_author_name
"Ai-Xiang Tian"
"Xue Hou"
"Jun Ying"
"Yang Yang"
"Ya-Li Ning"
"Tian-Jiao Li"
_chemical_name_systematic
;
catena-[bis(\m~4~-1,2,4-Triazolyl)-tetrakis(\m~3~-1,2,4-triazolyl)-bis(\m~2~-1
,2,4-4H-triazole)-deca-silver 
(\m~12~-phosphato)-(\m~2~-hydroxo)-henicosakis(\m~2~-oxo)-dodeca-oxo-di-molybd
enum(v)-deca-molybdenum(vi)]
;
_cell_volume   1555.649
_exptl_crystal_colour 'red'
_exptl_crystal_density_diffrn 3.678
_exptl_crystal_description 'block'
_diffrn_ambient_temperature 293
_refine_special_details
;
O1,O1',O2,O2' disordered by symmetry over two configurations with occupancy 
0.50.
;
#These two values have been output from a single CSD field.
_refine_ls_R_factor_gt 0.0361
_refine_ls_wR_factor_gt 0.0361
_symmetry_cell_setting triclinic
_symmetry_space_group_name_H-M 'P -1'
_symmetry_Int_Tables_number 2
loop_
_symmetry_equiv_pos_site_id
_symmetry_equiv_pos_as_xyz
1 x,y,z
2 -x,-y,-z
_cell_length_a 11.0514(8)
_cell_length_b 12.3081(9)
_cell_length_c 13.1573(9)
_cell_angle_alpha 79.180(1)
_cell_angle_beta 66.219(1)
_cell_angle_gamma 72.276(1)
_cell_formula_units_Z 1
loop_
_atom_type_symbol
_atom_type_radius_bond
C 0.68
H 0.23
Ag 1.45
Mo 1.54
N 0.68
O 0.68
P 1.05
loop_
_atom_site_label
_atom_site_type_symbol
_atom_site_fract_x
_atom_site_fract_y
_atom_site_fract_z
Ag1 Ag -0.37989(5) -0.00674(4) -0.35746(4)
Ag2 Ag -1.00000 1.00000 -0.50000
Ag3 Ag -0.71268(6) 0.48088(4) -0.44626(5)
Ag4 Ag -0.49173(6) 0.51061(4) -0.30047(5)
N1 N -0.5118(6) 0.3535(4) -0.3238(5)
N2 N -0.5705(6) 0.3469(4) -0.3960(5)
C1 C -0.5280(8) 0.2398(6) -0.4198(6)
H1 H -0.55380 0.21170 -0.46680
N3 N -0.4433(6) 0.1749(4) -0.3694(5)
C2 C -0.4354(7) 0.2496(5) -0.3122(5)
H2 H -0.38200 0.23050 -0.26890
C3 C -0.8652(8) 0.7401(5) -0.4552(6)
H3 H -0.85390 0.75280 -0.39240
N4 N -0.9213(6) 0.8233(4) -0.5174(5)
N5 N -0.3551(6) -0.1862(4) -0.3481(5)
N6 N -0.8281(7) 0.6389(5) -0.4932(5)
C4 C -0.4466(7) -0.2470(5) -0.2866(6)
H4 H -0.52560 -0.22010 -0.22640
C5 C -0.2605(7) -0.2583(6) -0.4238(7)
H5 H -0.18310 -0.23970 -0.47870
C6 C -0.9183(6) 0.7663(5) -0.5960(5)
H6 H -0.95050 0.80100 -0.65250
N7 N -0.2871(6) -0.3575(5) -0.4134(6)
N8 N -0.4100(6) -0.3495(4) -0.3225(5)
N9 N -0.8651(6) 0.6562(4) -0.5844(4)
Ag5 Ag -0.18824(6) -0.53832(4) -0.29421(5)
Ag6 Ag -0.50000 -0.50000 0.00000
N10 N -0.2177(6) -0.4475(5) -0.1566(5)
N11 N -0.3269(6) -0.4307(6) -0.0578(6)
N12 N -0.1782(7) -0.3525(6) -0.0544(6)
C7 C -0.3002(9) -0.3735(8) 0.0008(7)
H7 H -0.35840 -0.35040 0.07150
C8 C -0.1290(8) -0.3998(7) -0.1520(7)
H8 H -0.04440 -0.39890 -0.20810
Mo1 Mo 0.15559(5) 0.73313(4) -0.12392(4)
Mo2 Mo -0.10731(6) 0.93949(5) -0.19693(5)
Mo3 Mo 0.25780(6) 0.79404(5) 0.07676(5)
Mo4 Mo 0.21764(6) 0.99117(5) -0.28485(4)
Mo5 Mo -0.07268(6) 0.74450(5) 0.16036(5)
Mo6 Mo -0.33009(6) 0.95467(5) 0.08610(6)
P1 P 0.00000 1.00000 0.00000
O1 O 0.0029(6) 0.7978(5) -0.1751(6)
O2 O 0.1055(6) 0.7355(7) 0.1564(4)
O3 O 0.2683(6) 0.7279(8) -0.0518(4)
O4 O 0.0502(5) 0.9900(5) -0.2922(5)
O5 O 0.0584(7) 0.8720(6) 0.0151(6)
O6 O -0.1455(7) 0.8472(5) 0.2711(7)
O7 O 0.3203(6) 0.9885(5) -0.4169(4)
O8 O -0.1600(6) 0.9141(5) -0.2897(5)
O9 O 0.2410(6) 0.8357(5) -0.2375(6)
O10 O 0.3772(5) 0.6928(5) 0.1125(4)
O11 O 0.0218(6) 0.6942(7) 0.0108(4)
O12 O -0.2279(7) 0.8062(5) 0.1221(7)
O13 O 0.0488(7) 0.9405(6) -0.1031(6)
O14 O -0.1255(7) 1.0192(6) -0.0371(6)
O15 O -0.3601(10) 1.1098(5) 0.0309(5)
O16 O -0.2493(9) 0.9121(5) -0.0622(6)
O17 O -0.1064(7) 0.9463(6) 0.0979(6)
O18 O -0.4828(5) 0.9334(5) 0.1239(4)
O19 O -0.1007(7) 0.6237(5) 0.2344(5)
O20 O 0.2245(6) 0.6116(5) -0.1860(6)
O21 O 0.2001(9) 0.8987(5) 0.1792(5)
O22 O -0.3355(7) 1.0008(5) 0.2163(7)
Ag1A Ag -1.62011(5) 2.00674(4) -0.64254(4)
Ag3A Ag -1.28732(6) 1.51912(4) -0.55374(5)
Ag4A Ag -1.50827(6) 1.48939(4) -0.69953(5)
N1A N -1.4882(6) 1.6465(4) -0.6762(5)
N2A N -1.4295(6) 1.6531(4) -0.6040(5)
C1A C -1.4720(8) 1.7602(6) -0.5802(6)
H1A H -1.44620 1.78830 -0.53320
N3A N -1.5567(6) 1.8251(4) -0.6306(5)
C2A C -1.5646(7) 1.7504(5) -0.6878(5)
H2A H -1.61800 1.76950 -0.73110
C3A C -1.1348(8) 1.2599(5) -0.5448(6)
H3A H -1.14610 1.24720 -0.60760
N4A N -1.0787(6) 1.1767(4) -0.4826(5)
N5A N -1.6449(6) 2.1862(4) -0.6519(5)
N6A N -1.1719(7) 1.3611(5) -0.5068(5)
C4A C -1.5534(7) 2.2470(5) -0.7134(6)
H4A H -1.47440 2.22010 -0.77360
C5A C -1.7395(7) 2.2583(6) -0.5762(7)
H5A H -1.81690 2.23970 -0.52130
C6A C -1.0817(6) 1.2337(5) -0.4040(5)
H6A H -1.04950 1.19900 -0.34750
N7A N -1.7129(6) 2.3575(5) -0.5866(6)
N8A N -1.5900(6) 2.3495(4) -0.6775(5)
N9A N -1.1349(6) 1.3438(4) -0.4156(4)
Ag5A Ag -1.81176(6) 2.53832(4) -0.70579(5)
N10A N -1.7823(6) 2.4475(5) -0.8434(5)
N11A N -1.6731(6) 2.4307(6) -0.9422(6)
N12A N -1.8218(7) 2.3525(6) -0.9456(6)
C7A C -1.6998(9) 2.3735(8) -1.0008(7)
H7A H -1.64160 2.35040 -1.07150
C8A C -1.8710(8) 2.3998(7) -0.8480(7)
H8A H -1.95560 2.39890 -0.79190
Ag3* Ag -1.71268(6) 2.48088(4) -0.44626(5)
Ag3A* Ag -0.28732(6) -0.48088(4) -0.55374(5)
Ag4* Ag -0.49173(6) -0.48939(4) -0.30047(5)
Ag4A* Ag -1.50827(6) 2.48939(4) -0.69953(5)
N7* N -1.2871(6) 1.6425(5) -0.4134(6)
N7A* N -0.7129(6) 0.3575(5) -0.5866(6)
N8* N -0.4100(6) 0.6505(4) -0.3225(5)
N8A* N -1.5900(6) 1.3495(4) -0.6775(5)
N9* N -1.8651(6) 2.6562(4) -0.5844(4)
N9A* N -0.1349(6) -0.6562(4) -0.4156(4)
Ag5* Ag -1.18824(6) 1.46168(4) -0.29421(5)
Ag5A* Ag -0.81176(6) 0.53832(4) -0.70579(5)
Ag6* Ag -1.50000 2.50000 -1.00000
N11A* N -0.6731(6) -0.5693(6) 0.0578(6)
O5A O -0.0584(7) 1.1280(6) -0.0151(6)
O13A O -0.0488(7) 1.0595(6) 0.1031(6)
O14A O 0.1255(7) 0.9808(6) 0.0371(6)
O17A O 0.1064(7) 1.0537(6) -0.0979(6)
Mo1A Mo -0.15559(5) 1.26687(4) 0.12392(4)
Mo2A Mo 0.10731(6) 1.06051(5) 0.19693(5)
Mo3A Mo -0.25780(6) 1.20596(5) -0.07676(5)
Mo4A Mo -0.21764(6) 1.00883(5) 0.28485(4)
Mo5A Mo 0.07268(6) 1.25550(5) -0.16036(5)
Mo6A Mo 0.33009(6) 1.04533(5) -0.08610(6)
O1A O -0.0029(6) 1.2022(5) 0.1751(6)
O2A O -0.1055(6) 1.2645(7) -0.1564(4)
O3A O -0.2683(6) 1.2721(8) 0.0518(4)
O4A O -0.0502(5) 1.0100(5) 0.2922(5)
O6A O 0.1455(7) 1.1528(5) -0.2711(7)
O7A O -0.3203(6) 1.0115(5) 0.4169(4)
O8A O 0.1600(6) 1.0859(5) 0.2897(5)
O9A O -0.2410(6) 1.1643(5) 0.2375(6)
O10A O -0.3772(5) 1.3072(5) -0.1125(4)
O11A O -0.0218(6) 1.3058(7) -0.0108(4)
O12A O 0.2279(7) 1.1938(5) -0.1221(7)
O15A O 0.3601(10) 0.8902(5) -0.0309(5)
O16A O 0.2493(9) 1.0879(5) 0.0622(6)
O18A O 0.4828(5) 1.0666(5) -0.1239(4)
O19A O 0.1007(7) 1.3763(5) -0.2344(5)
O20A O -0.2245(6) 1.3884(5) 0.1860(6)
O21A O -0.2001(9) 1.1013(5) -0.1792(5)
O22A O 0.3355(7) 0.9992(5) -0.2163(7)
#END
