
#######################################################################
#
#                 Cambridge Crystallographic Data Centre
#                                CCDC
#
#######################################################################
#
# If this CIF has been generated from an entry in the Cambridge
# Structural Database, then it will include bibliographic, chemical,
# crystal, experimental, refinement or atomic coordinate data resulting
# from the CCDC's data processing and validation procedures.
#
#######################################################################

data_CSD_CIF_BAGCAR
_audit_creation_date 2020-10-08
_audit_creation_method CSD-ConQuest-V1
_database_code_CSD BAGCAR
_database_code_depnum_ccdc_archive 'CCDC 1899102'
_chemical_formula_sum 'C62 H50 Co4 N4 O26'
_chemical_formula_moiety
;
2(C23 H15 Co2 O13 1-)n,C16 H20 N4 2+
;
_journal_coden_Cambridge 1350
_journal_year 2020
_journal_name_full 'CrystEngComm '
loop_
_publ_author_name
"Lingling Gao"
"Yongjun Bian"
"Yuan Tian"
"Yongqiang Chen"
"Tuoping Hu"
_chemical_name_systematic
;
catena-[1,1'-[1,4-phenylenebis(methylene)]bis(2-methyl-1H-imidazol-3-ium) 
bis((\m-2^5^-carboxy[1^1^,2^1^:2^3^,3^1^-terphenyl]-1^2^,1^5^,3^2^,3^5^-tetrac
arboxylato)-(\m-hydroxido)-diaqua-di-cobalt(ii))]
;
_cell_volume   2838.105
_exptl_crystal_colour 'colorless'
_exptl_crystal_density_diffrn 1.759
_exptl_crystal_description 'block'
_diffrn_ambient_temperature 150.2
#These two values have been output from a single CSD field.
_refine_ls_R_factor_gt 0.0709
_refine_ls_wR_factor_gt 0.0709
_symmetry_cell_setting monoclinic
_symmetry_space_group_name_H-M 'P 21/n'
_symmetry_Int_Tables_number 14
loop_
_symmetry_equiv_pos_site_id
_symmetry_equiv_pos_as_xyz
1 x,y,z
2 1/2-x,1/2+y,1/2-z
3 -x,-y,-z
4 -1/2+x,-1/2-y,-1/2+z
_cell_length_a 10.2987(6)
_cell_length_b 16.1185(9)
_cell_length_c 17.2403(10)
_cell_angle_alpha 90
_cell_angle_beta 97.391(2)
_cell_angle_gamma 90
_cell_formula_units_Z 2
loop_
_atom_type_symbol
_atom_type_radius_bond
C 0.68
H 0.23
Co 1.26
N 0.68
O 0.68
loop_
_atom_site_label
_atom_site_type_symbol
_atom_site_fract_x
_atom_site_fract_y
_atom_site_fract_z
Co1 Co 0.39201(8) 0.43585(5) -0.02640(5)
Co2 Co 0.68932(8) 0.35713(5) -0.05197(5)
O1 O 0.5800(4) 0.4616(2) -0.0485(2)
H1 H 0.57435 0.48031 -0.09506
O2 O 0.6338(4) 0.2911(3) 0.0515(2)
O3 O 0.4447(4) 0.3526(3) 0.0669(2)
O4 O 0.2728(4) 0.1056(3) 0.3484(2)
O5 O 0.4817(4) 0.0796(3) 0.3955(2)
O6 O -0.1685(4) 0.2464(3) -0.0512(2)
O7 O -0.1354(4) 0.2212(3) 0.0772(2)
H2 H -0.21288 0.23818 0.07477
O8 O 0.3651(4) 0.3367(3) -0.1025(2)
O9 O 0.5612(4) 0.2848(3) -0.1202(3)
O10 O 0.8523(4) 0.4029(3) 0.0196(2)
H3 H 0.82991 0.44422 0.05005
H4 H 0.90788 0.42757 -0.00911
O11 O 0.2070(4) 0.0117(2) -0.3854(2)
O12 O 0.0643(4) -0.0024(3) -0.3017(3)
O13 O 0.1994(4) 0.4104(3) 0.0003(3)
H5 H 0.21891 0.36618 0.02481
H6 H 0.14582 0.40105 -0.04353
C1 C 0.5285(5) 0.2964(4) 0.0813(3)
C2 C 0.4971(6) 0.2332(4) 0.1409(3)
C3 C 0.3694(5) 0.2018(3) 0.1405(3)
C4 C 0.3403(5) 0.1599(4) 0.2065(3)
H7 H 0.25293 0.14176 0.20826
C5 C 0.4345(6) 0.1436(4) 0.2704(3)
C6 C 0.3939(6) 0.1059(4) 0.3441(3)
C7 C 0.5633(6) 0.1667(4) 0.2658(3)
H8 H 0.63063 0.15080 0.30599
C8 C 0.5939(6) 0.2127(4) 0.2028(3)
H9 H 0.68149 0.23069 0.20147
C9 C 0.2698(5) 0.2065(4) 0.0702(3)
C10 C 0.1371(5) 0.2174(4) 0.0743(3)
H10 H 0.10754 0.22721 0.12345
C11 C 0.0467(6) 0.2141(4) 0.0065(3)
C12 C -0.0948(6) 0.2286(4) 0.0074(3)
C13 C 0.0883(6) 0.1987(4) -0.0658(3)
H11 H 0.02606 0.19636 -0.11145
C14 C 0.2211(5) 0.1868(3) -0.0716(3)
C15 C 0.2686(6) 0.1696(4) -0.1482(3)
C16 C 0.3724(5) 0.2127(4) -0.1732(3)
C17 C 0.4377(6) 0.2847(4) -0.1275(3)
C18 C 0.4146(6) 0.1916(4) -0.2430(3)
H12 H 0.48782 0.21984 -0.25879
C19 C 0.3531(6) 0.1299(4) -0.2913(3)
H13 H 0.38390 0.11637 -0.33936
C20 C 0.2066(6) 0.1090(4) -0.1958(3)
H14 H 0.13481 0.08018 -0.17883
C21 C 0.3096(6) 0.1905(4) -0.0028(3)
H15 H 0.40005 0.18181 -0.00584
C22 C 0.1672(6) 0.0275(4) -0.3212(3)
C23 C 0.2456(6) 0.0884(4) -0.2680(3)
N1 N 0.2554(5) 0.4567(4) 0.3691(3)
N2 N 0.4158(6) 0.4921(4) 0.3082(3)
H16 H 0.46710 0.49781 0.27151
C24 C 0.3065(7) 0.4496(4) 0.3011(4)
C25 C 0.4379(7) 0.5262(5) 0.3815(4)
H17 H 0.51073 0.55941 0.40147
C26 C 0.3387(7) 0.5043(5) 0.4196(4)
H18 H 0.32764 0.51871 0.47177
C27 C 0.2494(9) 0.4028(6) 0.2307(5)
H19 H 0.24393 0.34381 0.24370
H20 H 0.30521 0.40961 0.18913
H21 H 0.16158 0.42404 0.21266
C28 C 0.1337(7) 0.4151(5) 0.3848(5)
H22 H 0.15471 0.35796 0.40330
H23 H 0.07319 0.41126 0.33542
C29 C 0.0656(6) 0.4602(4) 0.4453(4)
C30 C 0.0942(7) 0.4419(4) 0.5236(5)
H24 H 0.15889 0.40136 0.54014
C31 C -0.0297(7) 0.5182(5) 0.4215(4)
H25 H -0.05095 0.53077 0.36747
Co1A Co 0.10799(8) -0.06415(5) -0.47360(5)
Co1B Co 0.60799(8) 0.56415(5) 0.02640(5)
Co2* Co -0.31068(8) 0.35713(5) -0.05197(5)
Co2C Co 0.18932(8) 0.14287(5) 0.44803(5)
O1B O 0.4200(4) 0.5384(2) 0.0485(2)
O4C O 0.7728(4) 0.3944(3) -0.1516(2)
O6* O 0.8315(4) 0.2464(3) -0.0512(2)
O11A O 0.2930(4) 0.5117(2) -0.1146(2)
N1B N -0.2554(5) 0.5433(4) 0.6309(3)
N2B N -0.4158(6) 0.5079(4) 0.6918(3)
H16B H -0.46710 0.50219 0.72849
C24B C -0.3065(7) 0.5504(4) 0.6989(4)
C25B C -0.4379(7) 0.4738(5) 0.6185(4)
H17B H -0.51073 0.44059 0.59853
C26B C -0.3387(7) 0.4957(5) 0.5804(4)
H18B H -0.32764 0.48129 0.52823
C27B C -0.2494(9) 0.5972(6) 0.7693(5)
H19B H -0.24393 0.65619 0.75630
H20B H -0.30521 0.59039 0.81087
H21B H -0.16158 0.57596 0.78734
C28B C -0.1337(7) 0.5849(5) 0.6152(5)
H22B H -0.15471 0.64204 0.59670
H23B H -0.07319 0.58874 0.66458
C29B C -0.0656(6) 0.5398(4) 0.5547(4)
C30B C -0.0942(7) 0.5581(4) 0.4764(5)
H24B H -0.15889 0.59864 0.45986
C31B C 0.0297(7) 0.4818(5) 0.5785(4)
H25B H 0.05095 0.46923 0.63253
#END
