
#######################################################################
#
#                 Cambridge Crystallographic Data Centre
#                                CCDC
#
#######################################################################
#
# If this CIF has been generated from an entry in the Cambridge
# Structural Database, then it will include bibliographic, chemical,
# crystal, experimental, refinement or atomic coordinate data resulting
# from the CCDC's data processing and validation procedures.
#
#######################################################################

data_CSD_CIF_BAHPUX
_audit_creation_date 2012-02-16
_audit_creation_method CSD-ConQuest-V1
_database_code_CSD BAHPUX
_database_code_depnum_ccdc_archive 'CCDC 832461'
_chemical_formula_sum 'C12 H18 N12 O21 Si0.5 W6 Zn1'
_chemical_formula_moiety
;
(C12 H16 N12 Zn1 2+)n,n(H2 O1),0.5n(O40 Si1 W12 4-)
;
_journal_coden_Cambridge 211
_journal_volume 65
_journal_year 2012
_journal_page_first 218
_journal_name_full 'J.Coord.Chem. '
loop_
_publ_author_name
"Jun Ying"
"Min-Hou"
"Xiao-Jing Liu"
"Ai-Xiang Tian"
"Xiu-Li Wang"
_chemical_name_systematic
;
catena-(bis(\m~2~-1,1'-ethane-1,2-diylbis(1H-1,2,4-triazole))-zinc 
hemikis((\m~12~-silicato)-tetracosakis(\m~2~-oxo)-dodecaoxo-dodeca-tungsten) 
;
_cell_volume   3161.698
_exptl_crystal_colour 'colorless'
_exptl_crystal_density_diffrn 3.88
_exptl_crystal_description 'block'
_diffrn_ambient_temperature 293
_refine_special_details
;
O1,O1,O1,O1 disordered by symmetry over two sites with occupancy 0.50.

;
#These two values have been output from a single CSD field.
_refine_ls_R_factor_gt 0.0341
_refine_ls_wR_factor_gt 0.0341
_symmetry_cell_setting tetragonal
_symmetry_space_group_name_H-M 'P 4/m n c'
_symmetry_Int_Tables_number 128
loop_
_symmetry_equiv_pos_site_id
_symmetry_equiv_pos_as_xyz
1 x,y,z
2 -x,-y,z
3 -y,x,z
4 y,-x,z
5 1/2-x,1/2+y,1/2-z
6 1/2+x,1/2-y,1/2-z
7 1/2+y,1/2+x,1/2-z
8 1/2-y,1/2-x,1/2-z
9 -x,-y,-z
10 x,y,-z
11 y,-x,-z
12 -y,x,-z
13 -1/2+x,-1/2-y,-1/2+z
14 -1/2-x,-1/2+y,-1/2+z
15 -1/2-y,-1/2-x,-1/2+z
16 -1/2+y,-1/2+x,-1/2+z
_cell_length_a 14.4569(10)
_cell_length_b 14.4569(10)
_cell_length_c 15.1276(14)
_cell_angle_alpha 90
_cell_angle_beta 90
_cell_angle_gamma 90
_cell_formula_units_Z 4
loop_
_atom_type_symbol
_atom_type_radius_bond
C 0.68
H 0.23
N 0.68
O 0.68
Si 1.20
W 1.33
Zn 1.22
loop_
_atom_site_label
_atom_site_type_symbol
_atom_site_fract_x
_atom_site_fract_y
_atom_site_fract_z
Si1 Si 0.00000 1.00000 0.00000
W1 W 0.13305(3) 1.11012(3) -0.16516(3)
W2 W 0.24307(4) 0.97623(4) 0.00000
O1 O 0.0925(8) 0.9906(7) -0.0617(7)
O2 O 0.1273(8) 0.9876(5) -0.2081(7)
O3 O 0.2263(9) 1.0703(6) -0.0855(7)
O4 O 0.1965(7) 1.1611(7) -0.2442(6)
O5 O 0.3575(8) 0.9679(9) 0.00000
O6 O 0.2097(6) 0.8878(9) -0.0858(7)
Zn1 Zn 0.00000 0.50000 0.75000
C1 C -0.072(1) 0.3479(10) 0.6369(9)
H1 H -0.13150 0.37250 0.63880
C2 C 0.069(1) 0.3254(10) 0.6556(9)
H2 H 0.12970 0.33220 0.67490
N1 N -0.0005(6) 0.3841(6) 0.6780(5)
N2 N 0.0417(12) 0.2592(9) 0.6048(8)
N3 N -0.0498(11) 0.2734(8) 0.5929(7)
C3 C -0.1027(16) 0.2164(16) 0.5421(13)
H3 H -0.16630 0.22690 0.56000
H4 H -0.08760 0.15380 0.56000
O7 O 0.00000 1.00000 0.389(4)
W1A W -0.13305(3) 0.88988(3) -0.16516(3)
W1B W -0.11012(3) 1.13305(3) -0.16516(3)
W1C W 0.11012(3) 0.86695(3) -0.16516(3)
W1H W -0.13305(3) 0.88988(3) 0.16516(3)
W1I W 0.13305(3) 1.11012(3) 0.16516(3)
W1J W 0.11012(3) 0.86695(3) 0.16516(3)
W1K W -0.11012(3) 1.13305(3) 0.16516(3)
W2A W -0.24307(4) 1.02377(4) 0.00000
W2B W 0.02377(4) 1.24307(4) 0.00000
W2C W -0.02377(4) 0.75693(4) 0.00000
O1A O -0.0925(8) 1.0094(7) -0.0617(7)
O1B O 0.0094(8) 1.0925(7) -0.0617(7)
O1C O -0.0094(8) 0.9075(7) -0.0617(7)
O1H O -0.0925(8) 1.0094(7) 0.0617(7)
O1I O 0.0925(8) 0.9906(7) 0.0617(7)
O1J O -0.0094(8) 0.9075(7) 0.0617(7)
O1K O 0.0094(8) 1.0925(7) 0.0617(7)
O2B O 0.0124(8) 1.1273(5) -0.2081(7)
O2A O -0.1273(8) 1.0124(5) -0.2081(7)
O2C O -0.0124(8) 0.8727(5) -0.2081(7)
O2H O -0.1273(8) 1.0124(5) 0.2081(7)
O2J O -0.0124(8) 0.8727(5) 0.2081(7)
O2I O 0.1273(8) 0.9876(5) 0.2081(7)
O2K O 0.0124(8) 1.1273(5) 0.2081(7)
O3I O 0.2263(9) 1.0703(6) 0.0855(7)
O3A O -0.2263(9) 0.9297(6) -0.0855(7)
O3H O -0.2263(9) 0.9297(6) 0.0855(7)
O3B O -0.0703(9) 1.2263(6) -0.0855(7)
O3K O -0.0703(9) 1.2263(6) 0.0855(7)
O3C O 0.0703(9) 0.7737(6) -0.0855(7)
O3J O 0.0703(9) 0.7737(6) 0.0855(7)
O4A O -0.1965(7) 0.8389(7) -0.2442(6)
O4B O -0.1611(7) 1.1965(7) -0.2442(6)
O4C O 0.1611(7) 0.8035(7) -0.2442(6)
O4H O -0.1965(7) 0.8389(7) 0.2442(6)
O4I O 0.1965(7) 1.1611(7) 0.2442(6)
O4J O 0.1611(7) 0.8035(7) 0.2442(6)
O4K O -0.1611(7) 1.1965(7) 0.2442(6)
O5A O -0.3575(8) 1.0321(9) 0.00000
O5B O 0.0321(8) 1.3575(9) 0.00000
O5C O -0.0321(8) 0.6425(9) 0.00000
O6I O 0.2097(6) 0.8878(9) 0.0858(7)
O6B O 0.1122(6) 1.2097(9) -0.0858(7)
O6A O -0.2097(6) 1.1122(9) -0.0858(7)
O6H O -0.2097(6) 1.1122(9) 0.0858(7)
O6K O 0.1122(6) 1.2097(9) 0.0858(7)
O6C O -0.1122(6) 0.7903(9) -0.0858(7)
O6J O -0.1122(6) 0.7903(9) 0.0858(7)
Zn1H Zn 0.00000 0.50000 0.25000
C1I C -0.072(1) 0.3479(10) 0.3631(9)
C1A C 0.072(1) 0.6521(10) 0.6369(9)
C1H C 0.072(1) 0.6521(10) 0.3631(9)
H1I H -0.13150 0.37250 0.36120
H1A H 0.13150 0.62750 0.63880
H1H H 0.13150 0.62750 0.36120
C2I C 0.069(1) 0.3254(10) 0.3444(9)
C2A C -0.069(1) 0.6746(10) 0.6556(9)
C2H C -0.069(1) 0.6746(10) 0.3444(9)
H2I H 0.12970 0.33220 0.32510
H2A H -0.12970 0.66780 0.67490
H2H H -0.12970 0.66780 0.32510
N1I N -0.0005(6) 0.3841(6) 0.3220(5)
N1A N 0.0005(6) 0.6159(6) 0.6780(5)
N1H N 0.0005(6) 0.6159(6) 0.3220(5)
N1F N -0.1159(6) 0.4995(6) 0.8220(5)
N1G N 0.1159(6) 0.5005(6) 0.8220(5)
N2I N 0.0417(12) 0.2592(9) 0.3952(8)
N2A N -0.0417(12) 0.7408(9) 0.6048(8)
N2H N -0.0417(12) 0.7408(9) 0.3952(8)
N3I N -0.0498(11) 0.2734(8) 0.4071(7)
N3A N 0.0498(11) 0.7266(8) 0.5929(7)
N3H N 0.0498(11) 0.7266(8) 0.4071(7)
C3I C -0.1027(16) 0.2164(16) 0.4579(13)
C3A C 0.1027(16) 0.7836(16) 0.5421(13)
C3H C 0.1027(16) 0.7836(16) 0.4579(13)
H3I H -0.16630 0.22690 0.44000
H3A H 0.16630 0.77310 0.56000
H3H H 0.16630 0.77310 0.44000
H4I H -0.08760 0.15380 0.44000
H4A H 0.08760 0.84620 0.56000
H4H H 0.08760 0.84620 0.44000
#END
