
#######################################################################
#
#                 Cambridge Crystallographic Data Centre
#                                CCDC
#
#######################################################################
#
# If this CIF has been generated from an entry in the Cambridge
# Structural Database, then it will include bibliographic, chemical,
# crystal, experimental, refinement or atomic coordinate data resulting
# from the CCDC's data processing and validation procedures.
#
#######################################################################

data_CSD_CIF_BAHRAE
_audit_creation_date 2003-03-06
_audit_creation_method CSD-ConQuest-V1
_database_code_CSD BAHRAE
_database_code_depnum_ccdc_archive 'CCDC 1105300'
_chemical_formula_sum 'C6 H14 N2 O15 Sn2'
_chemical_formula_moiety
;
(C6 O12 Sn2 2-)n,2n(H4 N1 1+),3n(H2 O1)
;
_journal_coden_Cambridge 971
_journal_volume 3
_journal_year 2001
_journal_page_first 483
_journal_name_full 'Solid State Sciences '
loop_
_publ_author_name
"N.Audebrand"
"M.-L.Vaillant"
"J.-P.Auffredic"
"D.Louer"
_chemical_name_systematic
;
catena-(Diammonium tris(\m~2~-oxalato)-di-tin trihydrate)
;
_cell_volume   1932.808
_exptl_special_details
;
moisture-sensitive

;
_exptl_crystal_description 'prismatic'
_diffrn_ambient_temperature ?
_diffrn_special_details
;
The study was carried out at room temperature,in the range 283-303K

;
#These two values have been output from a single CSD field.
_refine_ls_R_factor_gt 0.0332
_refine_ls_wR_factor_gt 0.0332
_symmetry_cell_setting orthorhombic
_symmetry_space_group_name_H-M 'P n m a'
_symmetry_Int_Tables_number 62
loop_
_symmetry_equiv_pos_site_id
_symmetry_equiv_pos_as_xyz
1 x,y,z
2 1/2-x,-y,1/2+z
3 1/2+x,1/2-y,1/2-z
4 -x,1/2+y,-z
5 -x,-y,-z
6 -1/2+x,y,-1/2-z
7 -1/2-x,-1/2+y,-1/2+z
8 x,-1/2-y,z
_cell_length_a 15.1821(5)
_cell_length_b 11.7506(2)
_cell_length_c 10.8342(3)
_cell_angle_alpha 90
_cell_angle_beta 90
_cell_angle_gamma 90
_cell_formula_units_Z 4
loop_
_atom_type_symbol
_atom_type_radius_bond
C 0.68
N 0.68
O 0.68
Sn 1.46
loop_
_atom_site_label
_atom_site_type_symbol
_atom_site_fract_x
_atom_site_fract_y
_atom_site_fract_z
Sn1 Sn 0.09055(2) 0.25000 0.45990(3)
Sn2 Sn 0.41143(2) 0.25000 0.78152(3)
C1 C 0.2791(3) 0.25000 0.5518(4)
C2 C 0.2262(3) 0.25000 0.6734(4)
C3 C 0.1234(2) -0.0235(3) 0.4341(3)
C4 C 0.1230(3) 0.0228(3) 0.2994(3)
O1 O 0.2350(2) 0.25000 0.4527(3)
O2 O 0.3607(2) 0.25000 0.5597(3)
O3 O 0.2687(2) 0.25000 0.7733(3)
O4 O 0.1449(2) 0.25000 0.6671(3)
O5 O 0.1259(2) -0.12831(19) 0.4488(2)
O6 O 0.1212(2) 0.0498(2) 0.5183(2)
O7 O 0.1229(2) -0.0506(2) 0.2156(2)
O8 O 0.12235(19) 0.12820(19) 0.2835(2)
N1 N 0.2755(4) 0.25000 0.1575(5)
N2 N 0.4743(3) 0.25000 0.3498(5)
O9 O 0.6417(4) 0.25000 0.5341(4)
O10 O 0.3834(3) 0.0619(3) 0.2451(3)
O11 O 0.0884(4) 0.0278(4) 0.9832(3)
C3G C 0.1234(2) 0.5235(3) 0.4341(3)
C4G C 0.1230(3) 0.4772(3) 0.2994(3)
O5G O 0.1259(2) 0.62831(19) 0.4488(2)
O6G O 0.1212(2) 0.4502(2) 0.5183(2)
O7G O 0.1229(2) 0.5506(2) 0.2156(2)
O8G O 0.12235(19) 0.37180(19) 0.2835(2)
O5A O 0.3741(2) 0.12831(19) 0.9488(2)
O5F O 0.3741(2) 0.37169(19) 0.9488(2)
O7A O 0.3771(2) 0.0506(2) 0.7156(2)
O7F O 0.3771(2) 0.4494(2) 0.7156(2)
Sn2A Sn 0.08857(2) -0.25000 0.28152(3)
Sn2A* Sn 0.08857(2) 0.75000 0.28152(3)
#END
