
#######################################################################
#
#                 Cambridge Crystallographic Data Centre
#                                CCDC
#
#######################################################################
#
# If this CIF has been generated from an entry in the Cambridge
# Structural Database, then it will include bibliographic, chemical,
# crystal, experimental, refinement or atomic coordinate data resulting
# from the CCDC's data processing and validation procedures.
#
#######################################################################

data_CSD_CIF_BALJOQ
_audit_creation_date 2017-01-20
_audit_creation_method CSD-ConQuest-V1
_database_code_CSD BALJOQ
_database_code_depnum_ccdc_archive 'CCDC 1422132'
_chemical_formula_sum 'C66 H56 N7 O36 Tb3'
_chemical_formula_moiety
;
3(C2 H8 N1 1+),n(C60 H24 N4 O32 Tb3 3-),4(H2 O1)
;
_journal_coden_Cambridge 1078
_journal_year 2016
_journal_name_full 'CSD Communication(Private Communication) '
loop_
_publ_author_name
"Liang Li"
"Xinhui Zhou"
_chemical_name_systematic
;
catena-[tris(dimethylammonium) 
tetrakis(\m-9-oxo-9H-fluorene-2,7-dicarboxylato)-tetrakis(nitrato)-tri-terbium
(iii) tetrahydrate]
;
_cell_volume   5039.877
_exptl_crystal_colour 'colorless'
_exptl_crystal_density_diffrn 1.318
_exptl_crystal_description 'block'
_diffrn_ambient_temperature 173
#These two values have been output from a single CSD field.
_refine_ls_R_factor_gt 0.0567
_refine_ls_wR_factor_gt 0.0567
_symmetry_cell_setting monoclinic
_symmetry_space_group_name_H-M 'P 21/n'
_symmetry_Int_Tables_number 14
loop_
_symmetry_equiv_pos_site_id
_symmetry_equiv_pos_as_xyz
1 x,y,z
2 1/2-x,1/2+y,1/2-z
3 -x,-y,-z
4 -1/2+x,-1/2-y,-1/2+z
_cell_length_a 14.793(2)
_cell_length_b 13.645(2)
_cell_length_c 24.9689(19)
_cell_angle_alpha 90
_cell_angle_beta 90.374(3)
_cell_angle_gamma 90
_cell_formula_units_Z 2
loop_
_atom_type_symbol
_atom_type_radius_bond
C 0.68
H 0.23
N 0.68
O 0.68
Tb 1.94
loop_
_atom_site_label
_atom_site_type_symbol
_atom_site_fract_x
_atom_site_fract_y
_atom_site_fract_z
C1 C 0.8579(5) 0.4278(5) 0.8700(3)
C2 C 0.8012(5) 0.5106(5) 0.8637(2)
H1 H 0.80090 0.55990 0.88940
C3 C 0.7460(5) 0.5170(5) 0.8185(3)
H2 H 0.71060 0.57230 0.81250
C4 C 0.7446(4) 0.4379(5) 0.7818(3)
C5 C 0.7992(5) 0.3590(4) 0.7884(3)
C6 C 0.8589(5) 0.3536(5) 0.8340(3)
H3 H 0.89740 0.30040 0.83860
C7 C 0.6122(4) 0.3585(5) 0.6375(2)
C8 C 0.5891(5) 0.4522(5) 0.6568(2)
H4 H 0.54680 0.49090 0.63910
C9 C 0.6319(5) 0.4850(5) 0.7036(3)
H5 H 0.61480 0.54450 0.71870
C10 C 0.7001(5) 0.4292(5) 0.7280(3)
C11 C 0.7209(4) 0.3394(5) 0.7085(3)
C12 C 0.6790(4) 0.3045(5) 0.6613(2)
H6 H 0.69670 0.24500 0.64650
C13 C 0.7832(4) 0.2899(5) 0.7461(3)
C14 C 0.9245(5) 0.4216(5) 0.9164(3)
C15 C 0.5632(5) 0.3219(5) 0.5886(2)
C16 C 1.1212(5) 0.1788(5) 0.8612(3)
C17 C 1.1595(5) 0.2662(6) 0.8472(3)
H7 H 1.15320 0.32130 0.86880
C18 C 1.2081(5) 0.2705(5) 0.7997(3)
H8 H 1.23740 0.32850 0.79080
C19 C 1.2143(4) 0.1913(5) 0.7653(3)
C20 C 1.1721(5) 0.1046(5) 0.7806(3)
C21 C 1.1254(5) 0.0967(5) 0.8295(2)
H9 H 1.09850 0.03820 0.83990
C22 C 1.3295(5) 0.1084(5) 0.6186(3)
C23 C 1.3397(4) 0.2089(5) 0.6337(3)
H10 H 1.37010 0.25210 0.61130
C24 C 1.3037(5) 0.2425(5) 0.6824(3)
H11 H 1.31240 0.30730 0.69270
C25 C 1.2547(5) 0.1787(5) 0.7154(3)
C26 C 1.2439(5) 0.0822(5) 0.7000(3)
C27 C 1.2813(5) 0.0471(5) 0.6519(2)
H12 H 1.27340 -0.01830 0.64240
C28 C 1.0754(5) 0.1655(5) 0.9140(3)
C29 C 1.3852(4) 0.0781(5) 0.5716(3)
C30 C 1.1932(5) 0.0339(5) 0.7385(3)
N1 N 1.3354(5) 0.3575(5) 0.9944(3)
N2 N 0.7914(4) 0.0005(5) 1.0401(2)
O1 O 0.9643(3) 0.3392(3) 0.92394(17)
O2 O 0.9423(3) 0.4930(3) 0.94774(17)
O3 O 0.5034(3) 0.3737(3) 0.56420(17)
O4 O 0.5809(3) 0.2411(3) 0.57036(17)
O5 O 0.8263(3) 0.2101(3) 0.73983(17)
O6 O 1.0954(3) 0.2200(4) 0.95236(18)
O7 O 1.0168(4) 0.1009(4) 0.9231(2)
O8 O 1.4177(3) 0.1368(3) 0.54230(19)
O9 O 1.3920(3) -0.0106(3) 0.55953(17)
O10 O 1.1630(3) -0.0513(4) 0.73878(18)
O11 O 1.2531(3) 0.3712(3) 1.00449(18)
O12 O 1.3929(4) 0.4113(4) 1.0133(2)
O13 O 1.3579(4) 0.2848(4) 0.9679(2)
O14 O 0.8433(3) 0.0643(4) 1.05799(18)
O15 O 0.7093(3) 0.0081(3) 1.0484(2)
O16 O 0.8189(3) -0.0637(4) 1.00994(17)
Tb1 Tb 1.06459(2) 0.36797(2) 0.998872(13)
Tb2 Tb 1.00000 0.00000 1.00000
C31 C 0.9843(6) 0.8148(6) 0.3758(3)
H13 H 1.03350 0.76900 0.37660
H14 H 0.99410 0.86210 0.34800
H15 H 0.92880 0.78040 0.36900
C32 C 0.9067(5) 0.8415(6) 0.4683(3)
H16 H 0.86020 0.80340 0.45120
H17 H 0.88120 0.90100 0.48190
H18 H 0.93280 0.80450 0.49720
N3 N 0.9788(5) 0.8657(5) 0.4282(3)
H19 H 0.97410 0.93020 0.42120
H20 H 1.03230 0.85690 0.44480
C33 C 0.5814(11) 0.1681(13) 0.7900(7)
H21 H 0.55100 0.16620 0.82380
H22 H 0.55440 0.21740 0.76760
H23 H 0.64410 0.18330 0.79560
C34 C 0.5744(11) -0.0061(10) 0.8058(6)
H24 H 0.63040 -0.04160 0.80450
H25 H 0.52490 -0.05060 0.80040
H26 H 0.56870 0.02500 0.84010
N4 N 0.5732(8) 0.0697(8) 0.7630(5)
H27 H 0.52120 0.06630 0.74410
H28 H 0.61960 0.06040 0.74040
O17 O 0.7545(9) 0.0560(11) 0.9383(5)
H29 H 0.77040 0.11240 0.92740
H30 H 0.71210 0.03430 0.91860
O18 O 0.5005(11) 0.9345(13) 0.9010(7)
H31 H 0.44800 0.94030 0.91450
H32 H 0.53730 0.97110 0.91790
O19 O 0.9654(11) 0.1593(12) 0.3871(6)
H33 H 0.96850 0.19100 0.35780
H34 H 1.01800 0.14060 0.39620
O20 O 0.0872(11) 0.5303(13) 0.6910(7)
H35 H 0.09140 0.51650 0.72410
H36 H 0.08220 0.59190 0.68720
O21 O 0.1229(12) 0.2720(12) 0.4410(7)
H37 H 0.14720 0.31380 0.46180
H38 H 0.08240 0.29990 0.42230
O22 O 1.0083(11) 0.0684(13) 0.2837(7)
H39 H 1.00720 0.05940 0.25000
H40 H 0.95720 0.05340 0.29690
O23 O 0.4630(17) 0.8540(17) 0.7298(9)
H41 H 0.48260 0.82190 0.75650
H42 H 0.50650 0.88490 0.71530
C1B C 1.1421(5) -0.4278(5) 1.1300(3)
C2B C 1.1988(5) -0.5106(5) 1.1363(2)
H1B H 1.19910 -0.55990 1.11060
C3B C 1.2540(5) -0.5170(5) 1.1815(3)
H2B H 1.28940 -0.57230 1.18750
C4B C 1.2554(4) -0.4379(5) 1.2182(3)
C5B C 1.2008(5) -0.3590(4) 1.2116(3)
C6B C 1.1411(5) -0.3536(5) 1.1660(3)
H3B H 1.10260 -0.30040 1.16140
C7B C 1.3878(4) -0.3585(5) 1.3625(2)
C8B C 1.4109(5) -0.4522(5) 1.3432(2)
H4B H 1.45320 -0.49090 1.36090
C9B C 1.3681(5) -0.4850(5) 1.2964(3)
H5B H 1.38520 -0.54450 1.28130
C10B C 1.2999(5) -0.4292(5) 1.2720(3)
C11B C 1.2791(4) -0.3394(5) 1.2915(3)
C12B C 1.3210(4) -0.3045(5) 1.3387(2)
H6B H 1.30330 -0.24500 1.35350
C13B C 1.2168(4) -0.2899(5) 1.2539(3)
C14B C 1.0755(5) -0.4216(5) 1.0836(3)
C15B C 1.4368(5) -0.3219(5) 1.4114(2)
C16B C 0.8788(5) -0.1788(5) 1.1388(3)
C17B C 0.8405(5) -0.2662(6) 1.1528(3)
H7B H 0.84680 -0.32130 1.13120
C18B C 0.7919(5) -0.2705(5) 1.2003(3)
H8B H 0.76260 -0.32850 1.20920
C19B C 0.7857(4) -0.1913(5) 1.2347(3)
C20B C 0.8279(5) -0.1046(5) 1.2194(3)
C21B C 0.8746(5) -0.0967(5) 1.1705(2)
H9B H 0.90150 -0.03820 1.16010
C22B C 0.6705(5) -0.1084(5) 1.3814(3)
C23B C 0.6603(4) -0.2089(5) 1.3663(3)
H10B H 0.62990 -0.25210 1.38870
C24B C 0.6963(5) -0.2425(5) 1.3176(3)
H11B H 0.68760 -0.30730 1.30730
C25B C 0.7453(5) -0.1787(5) 1.2846(3)
C26B C 0.7561(5) -0.0822(5) 1.3000(3)
C27B C 0.7187(5) -0.0471(5) 1.3481(2)
H12B H 0.72660 0.01830 1.35760
C28B C 0.9246(5) -0.1655(5) 1.0860(3)
C29B C 0.6148(4) -0.0781(5) 1.4284(3)
C30B C 0.8068(5) -0.0339(5) 1.2615(3)
N1B N 0.6646(5) -0.3575(5) 1.0056(3)
N2B N 1.2086(4) -0.0005(5) 0.9599(2)
O1B O 1.0357(3) -0.3392(3) 1.07606(17)
O2B O 1.0577(3) -0.4930(3) 1.05226(17)
O3B O 1.4966(3) -0.3737(3) 1.43580(17)
O4B O 1.4191(3) -0.2411(3) 1.42964(17)
O5B O 1.1737(3) -0.2101(3) 1.26017(17)
O6B O 0.9046(3) -0.2200(4) 1.04764(18)
O7B O 0.9832(4) -0.1009(4) 1.0769(2)
O8B O 0.5823(3) -0.1368(3) 1.45770(19)
O9B O 0.6080(3) 0.0106(3) 1.44047(17)
O10B O 0.8370(3) 0.0513(4) 1.26122(18)
O11B O 0.7469(3) -0.3712(3) 0.99551(18)
O12B O 0.6071(4) -0.4113(4) 0.9867(2)
O13B O 0.6421(4) -0.2848(4) 1.0321(2)
O14B O 1.1567(3) -0.0643(4) 0.94201(18)
O15B O 1.2907(3) -0.0081(3) 0.9516(2)
O16B O 1.1811(3) 0.0637(4) 0.99006(17)
Tb1B Tb 0.93541(2) -0.36797(2) 1.001128(13)
O2* O 0.9423(3) -0.5070(3) 0.94774(17)
O2B* O 1.0577(3) 0.5070(3) 1.05226(17)
O3A O 0.9966(3) -0.1263(3) 0.93580(17)
O3C O 1.0034(3) 0.1263(3) 1.06420(17)
O4A O 0.9191(3) -0.2589(3) 0.92964(17)
O4C O 1.0809(3) 0.2589(3) 1.07036(17)
O8A O 1.0823(3) -0.3632(3) 0.95770(19)
O8C O 0.9177(3) 0.3632(3) 1.04230(19)
O9A O 1.1080(3) 0.4894(3) 0.94047(17)
O9C O 0.8920(3) -0.4894(3) 1.05953(17)
Tb1* Tb 1.06459(2) -0.63203(2) 0.998872(13)
Tb1A Tb 0.43541(2) -0.13203(2) 1.501128(13)
Tb1A* Tb 1.43541(2) -0.13203(2) 0.501128(13)
Tb1A** Tb 1.43541(2) -0.13203(2) 1.501128(13)
Tb1B* Tb 0.93541(2) 0.63203(2) 1.001128(13)
Tb1C Tb 0.56459(2) 0.13203(2) 0.498872(13)
Tb1C* Tb 0.56459(2) 0.13203(2) 1.498872(13)
Tb1C** Tb 1.56459(2) 0.13203(2) 0.498872(13)
Tb2A Tb 0.50000 0.50000 0.50000
Tb2A* Tb 1.50000 -0.50000 1.50000
#END
