
#######################################################################
#
#                 Cambridge Crystallographic Data Centre
#                                CCDC
#
#######################################################################
#
# If this CIF has been generated from an entry in the Cambridge
# Structural Database, then it will include bibliographic, chemical,
# crystal, experimental, refinement or atomic coordinate data resulting
# from the CCDC's data processing and validation procedures.
#
#######################################################################

data_CSD_CIF_BANGIH
_audit_creation_date 2003-03-06
_audit_creation_method CSD-ConQuest-V1
_database_code_CSD BANGIH
_database_code_depnum_ccdc_archive 'CCDC 202481'
_chemical_formula_sum 'C30 H56 Co2 N4 O28'
_chemical_formula_moiety
;
(C5 H14 N2 2+)2n,n(C20 H16 Co2 O22 4-),6n(H2 O1)
;
_journal_coden_Cambridge 1147
_journal_volume 2
_journal_year 2002
_journal_page_first 415
_journal_name_full 'Cryst.Growth Des. '
loop_
_publ_author_name
"Deping Cheng"
"M.A.Khan"
"R.P.Houser"
_chemical_name_systematic
;
catena-(bis(Homopiperazonium) 
(\m~4~-1,2,4,5-benzenetetracarboxylato)-(\m~2~-1,2,4,5-benzenetetracarboxylato
)-hexa-aqua-di-cobalt(ii) hexahydrate)
;
_cell_volume   1024.050
_exptl_crystal_colour 'pink'
_exptl_crystal_density_diffrn 1.684
_exptl_crystal_description 'plate'
_diffrn_ambient_temperature 173
#These two values have been output from a single CSD field.
_refine_ls_R_factor_gt 0.0473
_refine_ls_wR_factor_gt 0.0473
_symmetry_cell_setting triclinic
_symmetry_space_group_name_H-M 'P -1'
_symmetry_Int_Tables_number 2
loop_
_symmetry_equiv_pos_site_id
_symmetry_equiv_pos_as_xyz
1 x,y,z
2 -x,-y,-z
_cell_length_a 9.7755(17)
_cell_length_b 11.208(3)
_cell_length_c 11.224(2)
_cell_angle_alpha 60.304(12)
_cell_angle_beta 73.687(12)
_cell_angle_gamma 84.311(14)
_cell_formula_units_Z 1
loop_
_atom_type_symbol
_atom_type_radius_bond
C 0.68
H 0.23
Co 1.33
N 0.68
O 0.68
loop_
_atom_site_label
_atom_site_type_symbol
_atom_site_fract_x
_atom_site_fract_y
_atom_site_fract_z
Co1 Co 0.50000 0.50000 0.00000
Co2 Co 0.50000 0.50000 -0.50000
O1 O 0.3755(2) 0.57991(18) -0.14968(19)
O2 O 0.3123(2) 0.47278(19) 0.15955(19)
O3 O 0.47311(19) 0.30919(17) 0.02397(18)
O4 O 0.6297(2) 0.18498(19) 0.14516(19)
O5 O 0.67249(19) 0.34092(18) -0.24925(18)
O6 O 0.46441(19) 0.33547(18) -0.29414(18)
O7 O 0.2711(2) 0.4999(2) -0.43945(19)
O8 O 0.5064(2) 0.64319(18) -0.43088(18)
O9 O 0.7209(2) 0.74450(19) -0.5666(2)
O10 O 0.7852(2) 0.7839(2) -0.3527(2)
O11 O 0.8503(2) 1.0026(2) -0.4495(2)
O12 O 1.0580(3) -0.2518(2) 0.4924(3)
N1 N 0.9667(2) -0.1318(2) 0.7807(2)
N2 N 0.8431(2) -0.2592(3) 1.1304(2)
C1 C 0.5464(3) 0.2055(3) 0.0702(2)
C2 C 0.5287(3) 0.0987(3) 0.0327(2)
C3 C 0.5060(3) -0.0389(3) 0.1351(2)
H1 H 0.51080 -0.06600 0.22850
C4 C 0.5233(3) 0.1373(3) -0.1057(2)
C5 C 0.5568(3) 0.2837(2) -0.2242(2)
C6 C 0.5984(3) 0.7435(3) -0.4934(3)
C7 C 0.5481(3) 0.8716(3) -0.4865(3)
C8 C 0.4186(3) 0.9188(3) -0.5152(3)
H2 H 0.36070 0.86210 -0.52420
C9 C 0.6311(3) 0.9542(3) -0.4684(3)
C10 C 0.7652(3) 0.9094(3) -0.4205(3)
C11 C 0.8319(3) -0.1161(3) 0.8735(3)
H3 H 0.76230 -0.19120 0.90500
H4 H 0.79100 -0.02790 0.81750
C12 C 0.8541(3) -0.1191(3) 1.0025(3)
H5 H 0.94970 -0.07660 0.97600
H6 H 0.78260 -0.06150 1.02930
C13 C 0.8971(3) -0.3740(3) 1.1020(3)
H7 H 0.82360 -0.40340 1.07530
H8 H 0.91260 -0.45310 1.19040
C14 C 1.0357(3) -0.3352(3) 0.9840(3)
H9 H 1.09130 -0.41870 1.00360
H10 H 1.09240 -0.26870 0.98690
C15 C 1.0176(3) -0.2727(3) 0.8339(3)
H11 H 1.11030 -0.27130 0.76830
H12 H 0.94880 -0.33170 0.83380
O13 O 0.0572(2) -0.2311(3) 0.2337(2)
O14 O 0.8257(2) -0.0068(2) 0.2164(2)
H13 H 0.423(5) 0.582(4) -0.224(2)
H14 H 0.359(4) 0.6596(15) -0.166(3)
H15 H 0.304(4) 0.5209(17) 0.197(2)
H16 H 0.298(4) 0.3933(18) 0.226(3)
H17 H 0.261(4) 0.4299(17) -0.443(3)
H18 H 0.224(2) 0.561(3) -0.484(3)
H19 H 1.087(4) -0.180(2) 0.481(4)
H20 H 0.978(2) -0.262(4) 0.545(3)
H21 H 0.1354(18) -0.264(3) 0.218(4)
H22 H 0.042(5) -0.239(3) 0.3136(18)
H23 H 0.800(4) -0.083(2) 0.285(3)
H24 H 0.7539(19) 0.038(3) 0.204(3)
H25 H 0.954(3) -0.102(3) 0.6937(19)
H26 H 1.032(2) -0.074(2) 0.771(3)
H27 H 0.891(3) -0.250(4) 1.184(3)
H28 H 0.752(2) -0.278(4) 1.185(3)
C4A C 0.4767(3) -0.1373(3) 0.1057(2)
C2A C 0.4713(3) -0.0987(3) -0.0327(2)
C1A C 0.4536(3) -0.2055(3) -0.0702(2)
O3A O 0.52689(19) -0.30919(17) -0.02397(18)
O4A O 0.3703(2) -0.18498(19) -0.14516(19)
C3A C 0.4940(3) 0.0389(3) -0.1351(2)
H1A H 0.48920 0.06600 -0.22850
C5A C 0.4432(3) -0.2837(2) 0.2242(2)
O5A O 0.32751(19) -0.34092(18) 0.24925(18)
O6A O 0.53559(19) -0.33547(18) 0.29414(18)
C9A C 0.3689(3) 1.0458(3) -0.5316(3)
C7A C 0.4519(3) 1.1284(3) -0.5135(3)
C6A C 0.4016(3) 1.2565(3) -0.5066(3)
O8A O 0.4936(2) 1.35681(18) -0.56912(18)
O9A O 0.2791(2) 1.25550(19) -0.4334(2)
C8A C 0.5814(3) 1.0812(3) -0.4848(3)
H2A H 0.63930 1.13790 -0.47580
C10A C 0.2348(3) 1.0906(3) -0.5795(3)
O10A O 0.2148(2) 1.2161(2) -0.6473(2)
O11A O 0.1497(2) 0.9974(2) -0.5505(2)
O1A O 0.6245(2) 0.42009(18) 0.14968(19)
H13A H 0.577(5) 0.418(4) 0.224(2)
H14A H 0.641(4) 0.3404(15) 0.166(3)
O2A O 0.6877(2) 0.52722(19) -0.15955(19)
H15A H 0.696(4) 0.4791(17) -0.197(2)
H16A H 0.702(4) 0.6067(18) -0.226(3)
O7A O 0.7289(2) 0.5001(2) -0.56055(19)
H17A H 0.739(4) 0.5701(17) -0.557(3)
H18A H 0.776(2) 0.439(3) -0.516(3)
O3A* O 0.52689(19) 0.69081(17) -0.02397(18)
O6A* O 0.53559(19) 0.66453(18) -0.70586(18)
O8A* O 0.4936(2) 0.35681(18) -0.56912(18)
Co1* Co 0.50000 -0.50000 0.00000
Co2* Co 0.50000 -0.50000 0.50000
Co2** Co 0.50000 1.50000 -0.50000
#END
