
#######################################################################
#
#                 Cambridge Crystallographic Data Centre
#                                CCDC
#
#######################################################################
#
# If this CIF has been generated from an entry in the Cambridge
# Structural Database, then it will include bibliographic, chemical,
# crystal, experimental, refinement or atomic coordinate data resulting
# from the CCDC's data processing and validation procedures.
#
#######################################################################

data_CSD_CIF_BAPKAG
_audit_creation_date 2012-02-24
_audit_creation_method CSD-ConQuest-V1
_database_code_CSD BAPKAG
_database_code_depnum_ccdc_archive 'CCDC 830915'
_chemical_formula_sum 'C24 H27 Cs3 O3'
_chemical_formula_moiety
;
(C24 H27 Cs2 O3 1-)n,n(Cs1 1+)
;
_journal_coden_Cambridge 9
_journal_volume 50
_journal_year 2011
_journal_page_first 10363
_journal_name_full 'Inorg.Chem. '
loop_
_publ_author_name
"T.J.Boyle"
"L.A.M.Steele"
"A.M.Saad"
"M.A.Rodriguez"
"T.M.Alam"
"S.K.McIntyre"
_chemical_name_systematic
;
catena-(tris(\m~2~-2,6-dimethylphenolato)-di-cesium cesium)
;
_cell_volume   2602.644
_exptl_crystal_colour 'colorless'
_exptl_crystal_density_diffrn 1.945
_exptl_special_details
;
The structure forms an extended array through interactions between the cesium 
atom and the phenyl rings of neighbouring fragments
;
_exptl_crystal_description 'irregular'
_diffrn_ambient_temperature 173
#These two values have been output from a single CSD field.
_refine_ls_R_factor_gt 0.0165
_refine_ls_wR_factor_gt 0.0165
_symmetry_cell_setting monoclinic
_symmetry_space_group_name_H-M 'C 2'
_symmetry_Int_Tables_number 5
loop_
_symmetry_equiv_pos_site_id
_symmetry_equiv_pos_as_xyz
1 x,y,z
2 -x,y,-z
3 1/2+x,1/2+y,z
4 1/2-x,1/2+y,-z
_cell_length_a 19.596(3)
_cell_length_b 10.7838(15)
_cell_length_c 12.9491(18)
_cell_angle_alpha 90
_cell_angle_beta 107.988(2)
_cell_angle_gamma 90
_cell_formula_units_Z 4
loop_
_atom_type_symbol
_atom_type_radius_bond
C 0.68
H 0.23
Cs 1.97
O 0.99
loop_
_atom_site_label
_atom_site_type_symbol
_atom_site_fract_x
_atom_site_fract_y
_atom_site_fract_z
Cs1 Cs 0.884101(11) 0.044859(19) 0.969700(17)
Cs2 Cs 0.843960(11) 0.455900(19) 1.131530(16)
Cs3 Cs 0.835223(11) 0.279243(19) 0.58420(2)
O1 O 0.98171(14) 0.1446(3) 0.8547(2)
O2 O 0.78642(13) 0.2384(2) 0.9999(2)
O3 O 0.75484(15) -0.0146(3) 0.7372(2)
C1 C 0.98723(17) 0.2409(3) 0.7988(3)
C2 C 0.95878(18) 0.3580(3) 0.8151(3)
C3 C 0.96399(18) 0.4603(4) 0.7532(3)
C4 C 0.99395(19) 0.4513(4) 0.6688(3)
C5 C 1.0216(2) 0.3371(4) 0.6520(3)
C6 C 1.02026(18) 0.2325(4) 0.7138(3)
C7 C 1.0504(3) 0.1101(5) 0.6944(4)
H1 H 1.06390 0.11450 0.62770
H2 H 1.01410 0.04530 0.68700
H3 H 1.09280 0.09060 0.75580
C8 C 0.9202(2) 0.3676(5) 0.9002(4)
H4 H 0.87220 0.37490 0.84390
C9 C 0.71764(18) 0.2445(3) 0.9706(3)
C10 C 0.67726(19) 0.2859(3) 0.8640(3)
C11 C 0.6027(2) 0.2890(4) 0.8318(3)
C12 C 0.5654(2) 0.2520(4) 0.9018(4)
C13 C 0.6025(2) 0.2136(4) 1.0055(3)
C14 C 0.67716(19) 0.2113(3) 1.0424(3)
C15 C 0.7179(2) 0.1692(4) 1.1548(3)
H5 H 0.74160 0.24060 1.19800
H6 H 0.75420 0.10820 1.15110
H7 H 0.68470 0.13130 1.18870
H8 H 0.77520 0.04480 0.37060
H9 H 0.93870 0.53030 0.76260
H10 H 0.67660 0.11020 0.40640
H11 H 0.51000 0.25740 0.87890
H12 H 0.86770 -0.05110 0.49450
H13 H 1.03540 0.32330 0.59400
H14 H 0.99380 0.52490 0.63340
H15 H 0.58120 0.30280 0.75810
H16 H 0.57980 0.18370 1.05380
H17 H 0.94550 0.30950 0.96440
H18 H 0.90990 0.45380 0.90870
H19 H 0.92660 -0.10090 0.68560
H20 H 0.86970 -0.20100 0.70120
H21 H 0.91110 -0.05710 0.75350
C16 C 0.7181(2) 0.3220(4) 0.7885(3)
H22 H 0.74120 0.24840 0.76980
H23 H 0.75470 0.38330 0.82380
H24 H 0.68510 0.35780 0.72230
C17 C 0.75974(19) -0.0026(3) 0.6414(3)
C18 C 0.70551(18) 0.0579(3) 0.5558(3)
C19 C 0.7134(2) 0.0750(3) 0.4539(3)
C20 C 0.7736(2) 0.0331(4) 0.4294(3)
C21 C 0.8263(2) -0.0295(4) 0.5096(3)
C22 C 0.82095(18) -0.0469(4) 0.6131(3)
C23 C 0.8801(2) -0.1113(4) 0.6994(3)
C24 C 0.6380(2) 0.1002(4) 0.5784(3)
H25 H 0.61250 0.15970 0.52270
H26 H 0.65070 0.13970 0.65000
H27 H 0.60710 0.02840 0.57720
Cs1A Cs 1.115899(11) 0.044859(19) 1.030300(17)
Cs2C Cs 0.656040(11) -0.044100(19) 0.868470(16)
O1A O 1.01829(14) 0.1446(3) 1.1453(2)
O3C O 0.74516(15) 0.4854(3) 1.2628(2)
#END
