
#######################################################################
#
#                 Cambridge Crystallographic Data Centre
#                                CCDC
#
#######################################################################
#
# If this CIF has been generated from an entry in the Cambridge
# Structural Database, then it will include bibliographic, chemical,
# crystal, experimental, refinement or atomic coordinate data resulting
# from the CCDC's data processing and validation procedures.
#
#######################################################################

data_CSD_CIF_BAQRES
_audit_creation_date 2012-08-21
_audit_creation_method CSD-ConQuest-V1
_database_code_CSD BAQRES
_database_code_depnum_ccdc_archive 'CCDC 840549'
_chemical_formula_sum 'C62 H47 Ag3 N6 O19'
_chemical_formula_moiety
;
(C52 H33 Ag2 N4 O16 1-)n,n(C10 H8 Ag1 N2 1+),3n(H2 O1)
;
_journal_coden_Cambridge 702
_journal_volume 28
_journal_year 2012
_journal_page_first 829
_journal_name_full 'Wuji Huaxue Xuebao(Chin.)(Chin.J.Inorg.Chem.) '
loop_
_publ_author_name
"Ji-Jiang Wang"
"Xiang-Yang Hou"
"Pei-Xiang Cao"
"Lou-Jun Gao"
"Mei-Li Zhang"
"Yi-Xia Ren"
_chemical_name_systematic
;
catena-((\m~2~-4,4'-bipyridine)-silver 
(\m~2~-4,4'-dicarboxybiphenyl-2,2'-dicarboxylato)-bis(\m~2~-4,4'-bipyridine)-(
2,4,4'-tricarboxybiphenyl-2-carboxylato)-di-silver trihydrate)
;
_cell_volume   2830.765
_exptl_crystal_density_diffrn 1.764
_diffrn_ambient_temperature 296
#These two values have been output from a single CSD field.
_refine_ls_R_factor_gt 0.045
_refine_ls_wR_factor_gt 0.045
_symmetry_cell_setting triclinic
_symmetry_space_group_name_H-M 'P -1'
_symmetry_Int_Tables_number 2
loop_
_symmetry_equiv_pos_site_id
_symmetry_equiv_pos_as_xyz
1 x,y,z
2 -x,-y,-z
_cell_length_a 11.2251(6)
_cell_length_b 15.5401(8)
_cell_length_c 17.7459(9)
_cell_angle_alpha 103.682(1)
_cell_angle_beta 91.641(1)
_cell_angle_gamma 108.688(1)
_cell_formula_units_Z 2
loop_
_atom_type_symbol
_atom_type_radius_bond
C 0.68
H 0.23
Ag 1.35
N 0.68
O 0.90
loop_
_atom_site_label
_atom_site_type_symbol
_atom_site_fract_x
_atom_site_fract_y
_atom_site_fract_z
Ag1 Ag 1.07099(3) 0.42786(3) 0.99391(2)
Ag2 Ag 0.07289(3) -0.07705(3) 0.99203(2)
Ag3 Ag 0.67430(4) 0.27314(3) 0.51582(3)
C1 C 1.6194(4) 0.7110(4) 1.2517(3)
C2 C 1.4883(4) 0.6612(3) 1.2669(2)
C3 C 1.4567(4) 0.5739(3) 1.2821(2)
H1 H 1.51900 0.54650 1.28290
C4 C 1.3345(4) 0.5250(3) 1.2964(2)
C5 C 1.3084(4) 0.4292(3) 1.3120(3)
C6 C 1.2416(4) 0.5676(3) 1.2937(2)
C7 C 1.2752(4) 0.6560(3) 1.2782(2)
H2 H 1.21380 0.68400 1.27660
C8 C 1.3963(4) 0.7027(3) 1.2653(3)
H3 H 1.41620 0.76170 1.25570
C9 C 1.1069(4) 0.5273(3) 1.3086(2)
C10 C 1.0775(4) 0.5134(3) 1.3810(2)
H4 H 1.14200 0.52040 1.41840
C11 C 0.9542(4) 0.4895(3) 1.3987(3)
H5 H 0.93640 0.48020 1.44760
C12 C 0.8570(4) 0.4792(3) 1.3441(2)
C13 C 0.7253(4) 0.4552(3) 1.3674(3)
C14 C 0.8848(4) 0.4934(3) 1.2727(3)
H6 H 0.81970 0.48790 1.23630
C15 C 1.0088(4) 0.5161(3) 1.2530(2)
C16 C 1.0326(4) 0.5232(4) 1.1711(3)
C17 C 0.8524(4) 0.2910(4) 1.0599(3)
H7 H 0.91010 0.31520 1.10460
C18 C 0.7325(4) 0.2333(3) 1.0640(3)
H8 H 0.71060 0.22000 1.11110
C19 C 0.6446(4) 0.1952(3) 0.9993(3)
C20 C 0.6847(4) 0.2177(3) 0.9317(3)
H9 H 0.62920 0.19310 0.88590
C21 C 0.8064(4) 0.2765(4) 0.9310(3)
H10 H 0.83070 0.29040 0.88440
C22 C 0.5138(4) 0.1345(3) 1.0016(3)
C23 C 0.4518(4) 0.1418(3) 1.0685(3)
H11 H 0.49320 0.18620 1.11450
C24 C 0.3306(4) 0.0840(3) 1.0667(3)
H12 H 0.29180 0.09060 1.11230
C25 C 0.3219(4) 0.0111(3) 0.9393(3)
H13 H 0.27740 -0.03360 0.89410
C26 C 0.4453(4) 0.0666(3) 0.9361(3)
H14 H 0.48180 0.05810 0.88970
C27 C 1.8353(5) 0.8136(4) 1.0507(3)
H15 H 1.87680 0.85720 1.09710
C28 C 1.7147(4) 0.7535(4) 1.0517(3)
H16 H 1.67620 0.75780 1.09760
C29 C 1.6515(4) 0.6865(3) 0.9840(3)
C30 C 1.7159(4) 0.6839(4) 0.9193(3)
H17 H 1.67820 0.63900 0.87280
C31 C 1.8360(5) 0.7472(4) 0.9226(3)
H18 H 1.87690 0.74380 0.87770
C32 C 1.5208(4) 0.6233(3) 0.9836(3)
C33 C 1.4723(4) 0.6102(4) 1.0524(3)
H19 H 1.52340 0.64030 1.09960
C34 C 1.3507(4) 0.5540(4) 1.0522(3)
H20 H 1.32110 0.54770 1.09970
C35 C 1.3184(4) 0.5186(4) 0.9197(3)
H21 H 1.26620 0.48610 0.87320
C36 C 1.4390(4) 0.5756(4) 0.9167(3)
H22 H 1.46580 0.58220 0.86860
C37 C -0.0034(4) -0.0640(3) 0.8112(3)
C38 C 0.0065(4) -0.0615(3) 0.7265(2)
C39 C 0.1247(4) -0.0478(3) 0.6991(3)
H23 H 0.19330 -0.04520 0.73130
C40 C 0.1399(4) -0.0381(3) 0.6244(3)
C41 C 0.2633(4) -0.0221(3) 0.5907(3)
C42 C 0.0367(4) -0.0425(3) 0.5777(3)
H24 H 0.04640 -0.03590 0.52720
C43 C -0.0799(4) -0.0564(3) 0.6040(3)
H25 H -0.14790 -0.05890 0.57130
C44 C -0.0975(4) -0.0666(3) 0.6789(2)
C45 C -0.2293(4) -0.0903(3) 0.7020(2)
C46 C -0.2845(4) -0.0207(3) 0.7282(2)
C47 C -0.2084(4) 0.0817(3) 0.7471(3)
C48 C -0.4122(4) -0.0463(3) 0.7388(2)
H26 H -0.44840 -0.00010 0.75570
C49 C -0.4857(4) -0.1400(3) 0.7245(3)
C50 C -0.6214(4) -0.1631(3) 0.7407(3)
C51 C -0.4316(4) -0.2087(3) 0.6996(3)
H27 H -0.48080 -0.27180 0.69010
C52 C -0.3046(4) -0.1841(3) 0.6888(3)
H28 H -0.26910 -0.23100 0.67250
C53 C 0.9278(4) 0.2843(3) 0.4568(3)
H29 H 0.89050 0.29450 0.41380
C54 C 1.0537(4) 0.2928(3) 0.4597(3)
H30 H 1.10020 0.30900 0.41960
C55 C 1.1103(4) 0.2771(3) 0.5228(3)
C56 C 1.0362(4) 0.2520(3) 0.5800(3)
H31 H 1.07030 0.23860 0.62240
C57 C 0.9119(4) 0.2470(4) 0.5738(3)
H32 H 0.86400 0.23240 0.61380
C58 C 1.2444(4) 0.2815(3) 0.5263(2)
C59 C 1.3347(4) 0.3464(3) 0.4983(3)
H33 H 1.31340 0.39110 0.47940
C60 C 1.4570(4) 0.3446(4) 0.4983(3)
H34 H 1.51750 0.38980 0.48050
C61 C 1.4045(4) 0.2181(3) 0.5503(3)
H35 H 1.42780 0.17320 0.56780
C62 C 1.2826(4) 0.2170(3) 0.5541(3)
H36 H 1.22550 0.17330 0.57510
N1 N 0.8897(3) 0.3137(3) 0.9941(2)
N2 N 0.2644(3) 0.0185(3) 1.0034(2)
N3 N 1.8958(3) 0.8130(3) 0.9872(2)
N4 N 1.2729(3) 0.5079(3) 0.9872(2)
N5 N 0.8564(3) 0.2620(3) 0.5131(3)
N6 N 1.4913(3) 0.2802(3) 0.5229(2)
O1 O 1.6515(3) 0.7882(3) 1.2405(2)
O2 O 1.6946(3) 0.6620(3) 1.2501(2)
H37 H 1.76260 0.68990 1.23680
O3 O 1.4045(3) 0.4123(2) 1.3344(2)
O4 O 1.1993(3) 0.3745(2) 1.3029(2)
O5 O 0.7027(3) 0.4408(3) 1.4301(2)
O6 O 0.6399(3) 0.4516(3) 1.3131(2)
H38 H 0.57100 0.44250 1.33010
O7 O 1.0995(3) 0.4808(3) 1.13729(18)
O8 O 0.9791(3) 0.5704(3) 1.14314(19)
O9 O 0.0436(3) -0.1134(2) 0.83777(18)
O10 O -0.0597(3) -0.0117(2) 0.85071(17)
O11 O 0.3577(3) -0.0180(3) 0.6372(2)
H39 H 0.42450 0.01050 0.62300
O12 O 0.2744(3) -0.0115(3) 0.5255(2)
O13 O -0.1025(3) 0.1083(2) 0.79328(19)
H40 H -0.09380 0.06260 0.80510
O14 O -0.2432(3) 0.1378(2) 0.7234(2)
O15 O -0.6588(3) -0.1079(2) 0.78360(19)
O16 O -0.6930(3) -0.2495(2) 0.7066(2)
H41 H -0.76550 -0.25770 0.71770
O17 O 0.9265(3) 0.2767(3) 0.2542(2)
H42 H 0.939(5) 0.228(2) 0.228(3)
H43 H 0.995(3) 0.323(2) 0.267(3)
O18 O 0.4231(3) 0.9345(3) 0.4100(2)
H44 H 0.372(4) 0.908(4) 0.3691(18)
H45 H 0.386(5) 0.954(4) 0.448(2)
O19 O 0.0778(3) 0.2797(3) 0.7811(3)
H46 H 0.063(6) 0.328(2) 0.807(3)
H47 H 0.021(4) 0.231(2) 0.785(4)
Ag1A Ag 0.92901(3) 0.57214(3) 1.00609(2)
Ag2* Ag 2.07289(3) 0.92295(3) 0.99203(2)
Ag3* Ag 1.67430(4) 0.27314(3) 0.51582(3)
N3* N -0.1042(3) -0.1870(3) 0.9872(2)
N6* N 0.4913(3) 0.2802(3) 0.5229(2)
O8A O 1.0209(3) 0.4296(3) 0.85686(19)
#END
