
#######################################################################
#
#                 Cambridge Crystallographic Data Centre
#                                CCDC
#
#######################################################################
#
# If this CIF has been generated from an entry in the Cambridge
# Structural Database, then it will include bibliographic, chemical,
# crystal, experimental, refinement or atomic coordinate data resulting
# from the CCDC's data processing and validation procedures.
#
#######################################################################

data_CSD_CIF_BARKUD
_audit_creation_date 2017-06-05
_audit_creation_method CSD-ConQuest-V1
_database_code_CSD BARKUD
_database_code_depnum_ccdc_archive 'CCDC 1554169'
_chemical_formula_sum 'C11 H17 Cu1 N3 O7'
_chemical_formula_moiety
;
(C9 H3 Cu1 N2 O4 1-)n,C2 H8 N1 1+,3(H2 O1)
;
_journal_coden_Cambridge 1078
_journal_year 2017
_journal_name_full 'CSD Communication(Private Communication) '
loop_
_publ_author_name
"Diming Chen"
_chemical_name_systematic
;
catena-[dimethylammonium (\m-benzimidazolyl-5,6-dicarboxylato)-copper(ii) 
trihydrate]
;
_cell_volume   2626.865
_exptl_crystal_density_diffrn 1.001
_diffrn_ambient_temperature 288
_diffrn_special_details
;
twin

;
_refine_special_details
;
The SQUEEZE/PLATON program has been used to model some disordered cation and 
solvent molecules.
;
#These two values have been output from a single CSD field.
_refine_ls_R_factor_gt 0.041
_refine_ls_wR_factor_gt 0.041
_symmetry_cell_setting hexagonal
_symmetry_space_group_name_H-M 'P 31 2 1'
_symmetry_Int_Tables_number 152
loop_
_symmetry_equiv_pos_site_id
_symmetry_equiv_pos_as_xyz
1 x,y,z
2 -y,x-y,1/3+z
3 -x+y,-x,2/3+z
4 y,x,-z
5 x-y,-y,2/3-z
6 -x,-x+y,1/3-z
_cell_length_a 17.7551(15)
_cell_length_b 17.7551(15)
_cell_length_c 9.6219(5)
_cell_angle_alpha 90
_cell_angle_beta 90
_cell_angle_gamma 120
_cell_formula_units_Z 6
loop_
_atom_type_symbol
_atom_type_radius_bond
C 0.68
H 0.23
Cu 1.32
N 0.68
O 0.68
loop_
_atom_site_label
_atom_site_type_symbol
_atom_site_fract_x
_atom_site_fract_y
_atom_site_fract_z
Cu1 Cu -0.14987(5) 0.41190(5) 0.49716(5)
O1 O 0.1135(2) 0.5446(3) 0.6396(3)
O2 O -0.0362(3) 0.4246(3) 0.4451(3)
O3 O 0.2073(3) 0.4974(3) 0.6561(3)
O4 O -0.0069(3) 0.5587(3) 0.4092(3)
N1 N 0.2069(3) 0.5529(3) 0.0053(4)
N2 N 0.3173(3) 0.5577(3) 0.1301(4)
C1 C 0.2417(4) 0.5312(4) 0.3667(4)
H1 H 0.28582 0.53156 0.41933
C2 C 0.1846(4) 0.5423(4) 0.1460(5)
C3 C 0.1104(4) 0.5333(4) 0.2082(4)
H2 H 0.06764 0.53506 0.15475
C4 C 0.1000(4) 0.5217(4) 0.3508(5)
C5 C 0.1658(4) 0.5189(4) 0.4289(5)
C6 C 0.2860(4) 0.5621(4) 0.0067(5)
H3 H 0.31777 0.57107 -0.07456
C7 C 0.1609(4) 0.5177(4) 0.5858(5)
C8 C 0.2500(4) 0.5430(4) 0.2218(4)
C9 C 0.0135(4) 0.5008(4) 0.4103(5)
Cu1D Cu 0.43823(5) 0.58810(5) 0.169507(50)
Cu1E Cu 0.14987(5) 0.56177(5) -0.163827(50)
Cu1E* Cu 0.14987(5) 0.56177(5) 0.836173(50)
O1E O -0.1135(2) 0.4311(3) 0.693733(300)
O3E O -0.2073(3) 0.2901(3) 0.677233(300)
N1E N -0.2069(3) 0.3460(3) 0.328033(400)
N2D N -0.2404(3) 0.4423(3) 0.536567(400)
#END
