
#######################################################################
#
#                 Cambridge Crystallographic Data Centre
#                                CCDC
#
#######################################################################
#
# If this CIF has been generated from an entry in the Cambridge
# Structural Database, then it will include bibliographic, chemical,
# crystal, experimental, refinement or atomic coordinate data resulting
# from the CCDC's data processing and validation procedures.
#
#######################################################################

data_CSD_CIF_BARLEO
_audit_creation_date 2017-06-05
_audit_creation_method CSD-ConQuest-V1
_database_code_CSD BARLEO
_database_code_depnum_ccdc_archive 'CCDC 1450121'
_chemical_formula_sum 'C61 H120 F8 N4 O24 P4 Zr3'
_chemical_formula_moiety
;
(C25 H16 F8 O12 P4 Zr3 4-)n,4(C9 H20 N1 1+),12(H2 O1)
;
_journal_coden_Cambridge 1490
_journal_volume 8
_journal_year 2017
_journal_page_first 15369
_journal_name_full 'Nat.Commun. '
loop_
_publ_author_name
"Tao Zheng"
"Zaixing Yang"
"Daxiang Gui"
"Zhiyong Liu"
"Xiangxiang Wang"
"Xing Dai"
"Shengtang Liu"
"Linjuan Zhang"
"Yang Gao"
"Lanhua Chen"
"Daopeng Sheng"
"Yanlong Wang"
"Juan Diwu"
"Jianqiang Wang"
"Ruhong Zhou"
"Zhifang Chai"
"T.E.Albrecht-Schmitt"
"Shuao Wang"
_chemical_name_systematic
;
catena-[tetrakis(1-butyl-1-methylpyrrolidin-1-ium) 
(\m-[methanetetrayltetrakis(4,1-phenylene)]tetrakis(phosphonato))-octafluoro-t
ri-zirconium(iv) dodecahydrate]
;
_chemical_name_common
;
SZ-2
;
_cell_volume  17325.790
_exptl_crystal_colour 'colorless'
_exptl_crystal_density_diffrn 0.811
_exptl_crystal_description 'block'
_exptl_crystal_preparation 'Ionothermal Synthesis'
_diffrn_ambient_temperature 123
_diffrn_special_details
;
twin

;
_refine_special_details
;
Disordered cation and solvent molecules were not modelled and the disordered 
density was taken into account using the SQUEEZE/PLATON procedure.
;
#These two values have been output from a single CSD field.
_refine_ls_R_factor_gt 0.0674
_refine_ls_wR_factor_gt 0.0674
_symmetry_cell_setting tetragonal
_symmetry_space_group_name_H-M 'I 4/m'
_symmetry_Int_Tables_number 87
loop_
_symmetry_equiv_pos_site_id
_symmetry_equiv_pos_as_xyz
1 x,y,z
2 -y,x,z
3 y,-x,z
4 -x,-y,z
5 1/2+x,1/2+y,1/2+z
6 1/2-y,1/2+x,1/2+z
7 1/2+y,1/2-x,1/2+z
8 1/2-x,1/2-y,1/2+z
9 -x,-y,-z
10 y,-x,-z
11 -y,x,-z
12 x,y,-z
13 -1/2-x,-1/2-y,-1/2-z
14 -1/2+y,-1/2-x,-1/2-z
15 -1/2-y,-1/2+x,-1/2-z
16 -1/2+x,-1/2+y,-1/2-z
_cell_length_a 33.081(5)
_cell_length_b 33.081(5)
_cell_length_c 15.832(3)
_cell_angle_alpha 90
_cell_angle_beta 90
_cell_angle_gamma 90
_cell_formula_units_Z 8
loop_
_atom_type_symbol
_atom_type_radius_bond
C 0.68
H 0.23
F 0.64
O 0.68
P 1.05
Zr 1.75
loop_
_atom_site_label
_atom_site_type_symbol
_atom_site_fract_x
_atom_site_fract_y
_atom_site_fract_z
Zr1 Zr -0.06868(2) 0.19567(2) 0.16923(3)
Zr2 Zr -0.10001(2) 0.31824(2) 0.00000
P1 P 0.19911(5) 0.42027(5) 0.28917(10)
P2 P -0.02293(5) 0.24324(5) 0.00000
P3 P 0.22065(6) 0.13383(5) 0.00000
O1 O 0.24421(15) 0.42320(16) 0.2905(3)
O2 O 0.18115(12) 0.40291(12) 0.3690(3)
O3 O 0.1806(2) 0.46137(13) 0.2717(3)
O4 O -0.05097(13) 0.27948(14) 0.00000
O5 O -0.02806(9) 0.21847(10) 0.0797(2)
O6 O 0.26689(16) 0.13609(14) 0.00000
O7 O 0.20386(14) 0.11355(11) -0.0779(3)
F1 F -0.11043(18) 0.1799(2) 0.2523(4)
F2 F -0.05923(14) 0.14011(11) 0.1321(3)
F3 F -0.02447(13) 0.19023(13) 0.2515(2)
F4 F -0.14900(17) 0.35176(16) 0.00000
F5 F -0.06425(18) 0.36681(15) 0.00000
C1 C 0.16258(12) 0.33314(12) 0.0761(3)
C2 C 0.13627(16) 0.36163(16) 0.1067(4)
H1 H 0.11040 0.36310 0.08400
C3 C 0.14702(18) 0.38845(18) 0.1703(4)
H2 H 0.12840 0.40730 0.18990
C4 C 0.18555(16) 0.38693(15) 0.2045(3)
C5 C 0.21331(16) 0.35987(17) 0.1725(4)
H3 H 0.23980 0.36000 0.19210
C6 C 0.20137(14) 0.33212(17) 0.1099(3)
H4 H 0.21970 0.31280 0.09090
C7 C 0.02817(17) 0.26205(19) 0.00000
C8 C 0.04745(14) 0.26980(18) -0.0751(3)
H5 H 0.03440 0.26450 -0.12590
C9 C 0.08628(15) 0.28550(18) -0.0752(3)
H6 H 0.09910 0.29050 -0.12650
C10 C 0.10662(17) 0.29402(17) 0.00000
C11 C 0.2015(2) 0.18479(18) 0.00000
C12 C 0.19425(17) 0.20478(14) -0.0752(3)
H7 H 0.19910 0.19170 -0.12620
C13 C 0.17980(18) 0.24420(15) -0.0751(3)
H8 H 0.17500 0.25720 -0.12620
C14 C 0.17246(17) 0.26461(17) 0.00000
C15 C 0.15167(18) 0.30589(17) 0.00000
P1K P 0.19911(5) 0.42027(5) -0.28917(10)
O1K O 0.24421(15) 0.42320(16) -0.2905(3)
O2K O 0.18115(12) 0.40291(12) -0.3690(3)
O3K O 0.1806(2) 0.46137(13) -0.2717(3)
O5K O -0.02806(9) 0.21847(10) -0.0797(2)
O7K O 0.20386(14) 0.11355(11) 0.0779(3)
C1K C 0.16258(12) 0.33314(12) -0.0761(3)
C2K C 0.13627(16) 0.36163(16) -0.1067(4)
H1K H 0.11040 0.36310 -0.08400
C3K C 0.14702(18) 0.38845(18) -0.1703(4)
H2K H 0.12840 0.40730 -0.18990
C4K C 0.18555(16) 0.38693(15) -0.2045(3)
C5K C 0.21331(16) 0.35987(17) -0.1725(4)
H3K H 0.23980 0.36000 -0.19210
C6K C 0.20137(14) 0.33212(17) -0.1099(3)
H4K H 0.21970 0.31280 -0.09090
C8K C 0.04745(14) 0.26980(18) 0.0751(3)
H5K H 0.03440 0.26450 0.12590
C9K C 0.08628(15) 0.28550(18) 0.0752(3)
H6K H 0.09910 0.29050 0.12650
C12K C 0.19425(17) 0.20478(14) 0.0752(3)
H7K H 0.19910 0.19170 0.12620
C13K C 0.17980(18) 0.24420(15) 0.0751(3)
H8K H 0.17500 0.25720 0.12620
Zr1N Zr 0.30433(2) 0.43132(2) 0.33077(3)
F1N F 0.32010(18) 0.38957(20) 0.2477(4)
F2N F 0.35989(14) 0.44077(11) 0.3679(3)
F3N F 0.30977(13) 0.47553(13) 0.2485(2)
Zr1B Zr 0.19567(2) 0.06868(2) 0.16923(3)
Zr1E Zr 0.30433(2) 0.43132(2) -0.33077(3)
Zr1I Zr 0.19567(2) 0.06868(2) -0.16923(3)
Zr1K Zr -0.06868(2) 0.19567(2) -0.16923(3)
Zr2B Zr 0.31824(2) 0.10001(2) 0.00000
Zr2E Zr 0.18176(2) 0.39999(2) -0.50000
Zr2E* Zr 0.18176(2) 0.39999(2) 0.50000
O1M O -0.07680(15) 0.25579(16) 0.2095(3)
O2F O -0.09709(12) 0.31885(12) -0.1310(3)
O2M O -0.09709(12) 0.31885(12) 0.1310(3)
O5N O 0.28153(9) 0.47194(10) 0.4203(2)
O6A O -0.13609(16) 0.26689(14) 0.00000
O7G O 0.29614(14) 0.38645(11) 0.4221(3)
O7J O -0.11355(14) 0.20386(11) 0.0779(3)
#END
