
#######################################################################
#
#                 Cambridge Crystallographic Data Centre
#                                CCDC
#
#######################################################################
#
# If this CIF has been generated from an entry in the Cambridge
# Structural Database, then it will include bibliographic, chemical,
# crystal, experimental, refinement or atomic coordinate data resulting
# from the CCDC's data processing and validation procedures.
#
#######################################################################

data_CSD_CIF_BARMEP
_audit_creation_date 2017-06-05
_audit_creation_method CSD-ConQuest-V1
_database_code_CSD BARMEP
_database_code_depnum_ccdc_archive 'CCDC 1531836'
_chemical_formula_sum 'C96 H124 F18 N4 O37 P8 Zr7'
_chemical_formula_moiety
;
(C68 H58 F18 O24 P8 Zr7 4-)n,4(C7 H10 N1 1+),13(H2 O1)
;
_journal_coden_Cambridge 1490
_journal_volume 8
_journal_year 2017
_journal_page_first 15369
_journal_name_full 'Nat.Commun. '
loop_
_publ_author_name
"Tao Zheng"
"Zaixing Yang"
"Daxiang Gui"
"Zhiyong Liu"
"Xiangxiang Wang"
"Xing Dai"
"Shengtang Liu"
"Linjuan Zhang"
"Yang Gao"
"Lanhua Chen"
"Daopeng Sheng"
"Yanlong Wang"
"Juan Diwu"
"Jianqiang Wang"
"Ruhong Zhou"
"Zhifang Chai"
"T.E.Albrecht-Schmitt"
"Shuao Wang"
_chemical_name_systematic
;
catena-[tetrakis(N-ethylpyridinium) bis(\m-hydrogen 
[tricyclo[3.3.1.1^3,7^]decane-1,3,5,7-tetrayltetrakis(4,1-phenylene)]tetrakis(
phosphonato))-octadecafluoro-hepta-zirconium(iv) tridecahydrate]
;
_chemical_name_common
;
SZ-3
;
_cell_volume   6730.212
_exptl_crystal_colour 'colorless'
_exptl_crystal_density_diffrn 1.222
_exptl_crystal_description 'block'
_exptl_crystal_preparation 'ionothermal method'
_diffrn_ambient_temperature 296
_refine_special_details
;
Disordered cation and solvent molecules were not modelled and the disordered 
density was taken into account using the SQUEEZE/PLATON procedure.
;
#These two values have been output from a single CSD field.
_refine_ls_R_factor_gt 0.1085
_refine_ls_wR_factor_gt 0.1085
_symmetry_cell_setting monoclinic
_symmetry_space_group_name_H-M 'P 21/n'
_symmetry_Int_Tables_number 14
loop_
_symmetry_equiv_pos_site_id
_symmetry_equiv_pos_as_xyz
1 x,y,z
2 1/2-x,1/2+y,1/2-z
3 -x,-y,-z
4 -1/2+x,-1/2-y,-1/2+z
_cell_length_a 16.9609(13)
_cell_length_b 26.425(2)
_cell_length_c 16.9629(13)
_cell_angle_alpha 90
_cell_angle_beta 117.718(2)
_cell_angle_gamma 90
_cell_formula_units_Z 2
loop_
_atom_type_symbol
_atom_type_radius_bond
C 0.68
H 0.23
F 0.64
O 0.68
P 1.05
Zr 1.75
loop_
_atom_site_label
_atom_site_type_symbol
_atom_site_fract_x
_atom_site_fract_y
_atom_site_fract_z
Zr1 Zr 1.13100(15) 0.37522(8) 0.86915(15)
Zr2 Zr 0.49839(8) 0.05755(5) 0.80714(7)
Zr3 Zr 0.30712(8) 0.55752(5) 0.99831(8)
Zr4 Zr 0.00000 0.50000 0.00000
P1 P 0.94267(19) 0.45497(12) 0.7854(2)
P2 P 0.4178(2) 0.09377(10) 0.58240(19)
P3 P 0.2009(2) 0.48873(12) 0.7991(2)
P4 P 0.2150(2) 0.45488(12) 0.05749(18)
F1 F 1.0956(12) 0.3403(7) 0.7579(11)
F2 F 1.2420(11) 0.3404(7) 0.9035(13)
F3 F 1.0865(11) 0.3229(7) 0.913(1)
F4 F 0.6106(7) 0.0931(6) 0.8546(8)
F5 F 0.4419(7) 0.1178(4) 0.8300(7)
F6 F 0.5349(8) 0.0304(5) 0.9265(6)
F7 F 0.4265(6) 0.5306(5) 1.0347(8)
F8 F 0.3553(8) 0.5929(6) 1.1111(7)
F9 F 0.3305(7) 0.6181(4) 0.9420(7)
O1 O 1.0002(8) 0.4084(5) 0.8043(10)
O2 O 0.9619(5) 0.4757(3) 0.8740(5)
O3 O 0.9535(6) 0.4920(4) 0.7266(6)
O4 O 0.4617(7) 0.0813(3) 0.6797(6)
O5 O 0.3204(6) 0.0812(3) 0.5393(7)
O6 O 0.4656(5) 0.0684(2) 0.5347(5)
O7 O 0.2655(6) 0.5195(4) 0.8767(6)
O8 O 0.1716(6) 0.4417(4) 0.8290(6)
O9 O 0.1232(6) 0.5197(4) 0.7344(6)
O10 O 0.1265(5) 0.4757(3) 0.0385(5)
O11 O 0.2728(6) 0.4921(4) 0.0462(6)
O12 O 0.1985(9) 0.4089(5) 0.0008(7)
C1 C 0.8276(7) 0.4353(4) 0.7304(7)
C2 C 0.7849(8) 0.4213(6) 0.7778(9)
H1 H 0.81602 0.41932 0.83956
C3 C 0.6945(8) 0.4100(6) 0.7334(8)
H2 H 0.66598 0.40083 0.76673
C4 C 0.6460(6) 0.4118(4) 0.6430(6)
C5 C 0.6907(8) 0.4301(5) 0.5978(8)
H3 H 0.65932 0.43486 0.53648
C6 C 0.7779(9) 0.4412(6) 0.6405(9)
H4 H 0.80538 0.45334 0.60784
C7 C 0.4266(6) 0.1602(3) 0.5737(6)
C8 C 0.3892(9) 0.1934(5) 0.6111(9)
H5 H 0.35994 0.17972 0.64084
C9 C 0.3931(8) 0.2422(4) 0.6066(8)
H6 H 0.36614 0.26182 0.63282
C10 C 0.4351(5) 0.2661(3) 0.5650(6)
C11 C 0.5392(6) 0.3397(3) 0.6045(5)
H7 H 0.57046 0.32256 0.57674
H8 H 0.56699 0.33018 0.66689
C12 C 0.4730(8) 0.2358(4) 0.5290(8)
H9 H 0.50355 0.25013 0.50106
C13 C 0.4678(9) 0.1823(5) 0.5326(9)
H10 H 0.49357 0.16231 0.50565
C14 C 0.2608(7) 0.4683(4) 0.7399(7)
C15 C 0.2169(10) 0.4595(7) 0.6511(10)
C16 C 0.2637(9) 0.4441(6) 0.6065(10)
C17 C 0.3932(10) 0.4433(6) 0.7365(9)
C18 C 0.348(1) 0.4592(7) 0.7837(10)
C19 C 0.3509(6) 0.4326(4) 0.6492(6)
C20 C 0.2700(7) 0.4352(4) 0.1723(7)
C21 C 0.2235(9) 0.4217(6) 0.2147(8)
H11 H 0.16174 0.41962 0.18337
C22 C 0.2671(8) 0.4109(6) 0.3056(8)
H12 H 0.23309 0.40243 0.33375
C23 C 0.3559(6) 0.4123(4) 0.3541(6)
C24 C 0.4022(8) 0.4292(5) 0.3080(8)
H13 H 0.46391 0.43192 0.33811
C25 C 0.3588(9) 0.4413(6) 0.2225(9)
H14 H 0.39110 0.45468 0.19562
C26 C 0.4013(6) 0.4086(3) 0.5996(6)
C27 C 0.4042(6) 0.3987(3) 0.4534(6)
C28 C 0.5468(6) 0.3982(4) 0.5965(6)
C29 C 0.4406(6) 0.3231(3) 0.5591(6)
C30 C 0.3567(6) 0.4244(4) 0.5014(6)
H15 H 0.35963 0.46083 0.49695
H16 H 0.29446 0.41449 0.47322
C31 C 0.5023(6) 0.4133(4) 0.4983(6)
H17 H 0.50776 0.44958 0.49333
H18 H 0.53197 0.39659 0.46856
C32 C 0.3937(6) 0.3522(3) 0.6067(6)
H19 H 0.33130 0.34272 0.57964
H20 H 0.42091 0.34253 0.66898
C33 C 0.4988(6) 0.4242(4) 0.6437(6)
H21 H 0.52700 0.41454 0.70605
H22 H 0.50335 0.46065 0.64044
C34 C 0.3959(6) 0.3400(3) 0.4613(6)
H23 H 0.33345 0.33067 0.43331
H24 H 0.42361 0.32281 0.43004
Zr1B Zr -1.13100(15) 0.62478(8) -0.86915(15)
Zr2B Zr -0.49839(8) 0.94245(5) -0.80714(7)
Zr3B Zr -0.30712(8) 0.44248(5) -0.99831(8)
P1B P -0.94267(19) 0.54503(12) -0.7854(2)
P2B P -0.4178(2) 0.90623(10) -0.58240(19)
P3B P -0.2009(2) 0.51127(12) -0.7991(2)
P4B P -0.2150(2) 0.54512(12) -0.05749(18)
F1B F -1.0956(12) 0.6597(7) -0.7579(11)
F2B F -1.2420(11) 0.6596(7) -0.9035(13)
F3B F -1.0865(11) 0.6771(7) -0.913(1)
F4B F -0.6106(7) 0.9069(6) -0.8546(8)
F5B F -0.4419(7) 0.8822(4) -0.8300(7)
F6B F -0.5349(8) 0.9696(5) -0.9265(6)
F7B F -0.4265(6) 0.4694(5) -1.0347(8)
F8B F -0.3553(8) 0.4071(6) -1.1111(7)
F9B F -0.3305(7) 0.3819(4) -0.9420(7)
O1B O -1.0002(8) 0.5916(5) -0.8043(10)
O2B O -0.9619(5) 0.5243(3) -0.8740(5)
O3B O -0.9535(6) 0.5080(4) -0.7266(6)
O4B O -0.4617(7) 0.9187(3) -0.6797(6)
O5B O -0.3204(6) 0.9188(3) -0.5393(7)
O6B O -0.4656(5) 0.9316(2) -0.5347(5)
O7B O -0.2655(6) 0.4805(4) -0.8767(6)
O8B O -0.1716(6) 0.5583(4) -0.8290(6)
O9B O -0.1232(6) 0.4803(4) -0.7344(6)
O10B O -0.1265(5) 0.5243(3) -0.0385(5)
O11B O -0.2728(6) 0.5079(4) -0.0462(6)
O12B O -0.1985(9) 0.5911(5) -0.0008(7)
C1B C -0.8276(7) 0.5647(4) -0.7304(7)
C2B C -0.7849(8) 0.5787(6) -0.7778(9)
H1B H -0.81602 0.58068 -0.83956
C3B C -0.6945(8) 0.5900(6) -0.7334(8)
H2B H -0.66598 0.59917 -0.76673
C4B C -0.6460(6) 0.5882(4) -0.6430(6)
C5B C -0.6907(8) 0.5699(5) -0.5978(8)
H3B H -0.65932 0.56514 -0.53648
C6B C -0.7779(9) 0.5588(6) -0.6405(9)
H4B H -0.80538 0.54666 -0.60784
C7B C -0.4266(6) 0.8398(3) -0.5737(6)
C8B C -0.3892(9) 0.8066(5) -0.6111(9)
H5B H -0.35994 0.82027 -0.64084
C9B C -0.3931(8) 0.7578(4) -0.6066(8)
H6B H -0.36614 0.73818 -0.63282
C10B C -0.4351(5) 0.7339(3) -0.5650(6)
C11B C -0.5392(6) 0.6603(3) -0.6045(5)
H7B H -0.57046 0.67744 -0.57674
H8B H -0.56699 0.66982 -0.66689
C12B C -0.4730(8) 0.7642(4) -0.5290(8)
H9B H -0.50355 0.74987 -0.50106
C13B C -0.4678(9) 0.8177(5) -0.5326(9)
H10B H -0.49357 0.83769 -0.50565
C14B C -0.2608(7) 0.5317(4) -0.7399(7)
C15B C -0.2169(10) 0.5405(7) -0.6511(10)
C16B C -0.2637(9) 0.5559(6) -0.6065(10)
C17B C -0.3932(10) 0.5567(6) -0.7365(9)
C18B C -0.348(1) 0.5408(7) -0.7837(10)
C19B C -0.3509(6) 0.5674(4) -0.6492(6)
C20B C -0.2700(7) 0.5648(4) -0.1723(7)
C21B C -0.2235(9) 0.5783(6) -0.2147(8)
H11B H -0.16174 0.58038 -0.18337
C22B C -0.2671(8) 0.5891(6) -0.3056(8)
H12B H -0.23309 0.59757 -0.33375
C23B C -0.3559(6) 0.5877(4) -0.3541(6)
C24B C -0.4022(8) 0.5708(5) -0.3080(8)
H13B H -0.46391 0.56808 -0.33811
C25B C -0.3588(9) 0.5587(6) -0.2225(9)
H14B H -0.39110 0.54532 -0.19562
C26B C -0.4013(6) 0.5914(3) -0.5996(6)
C27B C -0.4042(6) 0.6013(3) -0.4534(6)
C28B C -0.5468(6) 0.6018(4) -0.5965(6)
C29B C -0.4406(6) 0.6769(3) -0.5591(6)
C30B C -0.3567(6) 0.5756(4) -0.5014(6)
H15B H -0.35963 0.53917 -0.49695
H16B H -0.29446 0.58551 -0.47322
C31B C -0.5023(6) 0.5867(4) -0.4983(6)
H17B H -0.50776 0.55042 -0.49333
H18B H -0.53197 0.60341 -0.46856
C32B C -0.3937(6) 0.6478(3) -0.6067(6)
H19B H -0.33130 0.65728 -0.57964
H20B H -0.42091 0.65747 -0.66898
C33B C -0.4988(6) 0.5758(4) -0.6437(6)
H21B H -0.52700 0.58546 -0.70605
H22B H -0.50335 0.53935 -0.64044
C34B C -0.3959(6) 0.6600(3) -0.4613(6)
H23B H -0.33345 0.66933 -0.43331
H24B H -0.42361 0.67719 -0.43004
Zr1* Zr 0.13100(15) 0.37522(8) -0.13085(15)
Zr1** Zr 0.13100(15) 0.37522(8) 0.86915(15)
Zr1B* Zr -0.13100(15) 0.62478(8) -0.86915(15)
Zr1B** Zr -0.13100(15) 0.62478(8) 0.13085(15)
Zr2A Zr 0.00161(8) 0.55755(5) 0.69286(7)
Zr2A* Zr 1.00161(8) 0.55755(5) 0.69286(7)
Zr2C Zr -1.00161(8) 0.44245(5) -0.69286(7)
Zr2C* Zr -0.00161(8) 0.44245(5) -0.69286(7)
Zr3* Zr 0.30712(8) 0.55752(5) -0.00169(8)
Zr3A Zr 0.19288(8) 0.05752(5) 0.50169(8)
Zr3B* Zr -0.30712(8) 0.44248(5) 0.00169(8)
Zr3C Zr -0.19288(8) 0.94248(5) -0.50169(8)
Zr4* Zr -1.00000 0.50000 -1.00000
Zr4** Zr 1.00000 0.50000 1.00000
Zr4A Zr -0.50000 1.00000 -0.50000
Zr4A* Zr 0.50000 0.00000 0.50000
O2* O -0.0381(5) 0.4757(3) -0.1260(5)
O2B* O 0.0381(5) 0.5243(3) 0.1260(5)
O3A O 0.5465(6) -0.0080(4) 0.7734(6)
O3C O -0.5465(6) 1.0080(4) -0.7734(6)
O5A O 0.1796(6) 0.5812(3) 0.9607(7)
O5C O -0.1796(6) 0.4188(3) -0.9607(7)
O6A O 0.0344(5) 0.5684(2) -0.0347(5)
O6C O -0.0344(5) 0.4316(2) 0.0347(5)
O8* O 1.1716(6) 0.4417(4) 0.8290(6)
O8B* O -1.1716(6) 0.5583(4) -0.8290(6)
O9A O 0.3768(6) 0.0197(4) 0.7656(6)
O9C O -0.3768(6) 0.9803(4) -0.7656(6)
O11* O 0.2728(6) 0.4921(4) 1.0462(6)
O11B* O -0.2728(6) 0.5079(4) -1.0462(6)
O12* O 1.1985(9) 0.4089(5) 1.0008(7)
O12B* O -1.1985(9) 0.5911(5) -1.0008(7)
#END
