
#######################################################################
#
#                 Cambridge Crystallographic Data Centre
#                                CCDC
#
#######################################################################
#
# If this CIF has been generated from an entry in the Cambridge
# Structural Database, then it will include bibliographic, chemical,
# crystal, experimental, refinement or atomic coordinate data resulting
# from the CCDC's data processing and validation procedures.
#
#######################################################################

data_CSD_CIF_BASMAM
_audit_creation_date 2017-06-05
_audit_creation_method CSD-ConQuest-V1
_database_code_CSD BASMAM
_database_code_depnum_ccdc_archive 'CCDC 1487483'
_chemical_formula_sum 'C57 H48 N1 Na2 O30 Tb3'
_chemical_formula_moiety
;
H3 O1 1+,2(Na1 1+),3n(C18 H12 O9 Tb1 1-),x(C3 H7 N1 O1),x(H2 O1)
;
_journal_coden_Cambridge 9
_journal_volume 56
_journal_year 2017
_journal_page_first 7145
_journal_name_full 'Inorg.Chem. '
loop_
_publ_author_name
"Jing-xin Ma"
"Jiarui Guo"
"Hailong Wang"
"Bin Li"
"Tianlin Yang"
"Banglin Chen"
_chemical_name_systematic
;
catena-[oxonium di-sodium 
(\m-biphenyl-4,4'-dicarboxylato)-(\m-2,2'-oxydiacetato)-terbium(iii) 
N,N-dimethylformamide solvate hydrate]
;
_chemical_name_common
;
UTSA-222
;
_cell_volume   6270.450
_exptl_crystal_colour 'colorless'
_exptl_special_details
;
, Luminescent,Gas Adsorption

;
_exptl_crystal_description 'block'
_diffrn_ambient_temperature 293
_diffrn_special_details
;
twin

;
_refine_special_details
;
Disordered cation and solvent molecules were not modelled and the disordered 
density was taken into account using the SQUEEZE/PLATON procedure. The paper 
reports the structure contains 2 sodium cations per tri-terbium unit, the 
additional oxonium has been assumed to achieve a charge-balanced structure.
;
#These two values have been output from a single CSD field.
_refine_ls_R_factor_gt 0.0404
_refine_ls_wR_factor_gt 0.0404
_symmetry_cell_setting rhombohedral
_symmetry_space_group_name_H-M 'R 3 2'
_symmetry_Int_Tables_number 155
loop_
_symmetry_equiv_pos_site_id
_symmetry_equiv_pos_as_xyz
1 x,y,z
2 -y,x-y,z
3 -x+y,-x,z
4 y,x,-z
5 -x,-x+y,-z
6 x-y,-y,-z
7 2/3+x,1/3+y,1/3+z
8 2/3-y,1/3+x-y,1/3+z
9 2/3-x+y,1/3-x,1/3+z
10 2/3+y,1/3+x,1/3-z
11 2/3-x,1/3-x+y,1/3-z
12 2/3+x-y,1/3-y,1/3-z
13 1/3+x,2/3+y,2/3+z
14 1/3-y,2/3+x-y,2/3+z
15 1/3-x+y,2/3-x,2/3+z
16 1/3+y,2/3+x,2/3-z
17 1/3-x,2/3-x+y,2/3-z
18 1/3+x-y,2/3-y,2/3-z
_cell_length_a 12.6214(15)
_cell_length_b 12.6214(15)
_cell_length_c 45.452(9)
_cell_angle_alpha 90
_cell_angle_beta 90
_cell_angle_gamma 120
_cell_formula_units_Z 3
loop_
_atom_type_symbol
_atom_type_radius_bond
C 0.68
H 0.23
O 0.68
Tb 1.94
loop_
_atom_site_label
_atom_site_type_symbol
_atom_site_fract_x
_atom_site_fract_y
_atom_site_fract_z
Tb1 Tb 0.48850(5) 0.48850(5) 0.00000
O1 O 0.2929(10) 0.2929(10) 0.00000
O2 O 0.3068(8) 0.5000(8) -0.00604(19)
O3 O 0.4539(11) 0.4347(8) 0.05299(18)
O4 O 0.4824(7) 0.6175(8) 0.04082(16)
O5 O 0.1113(9) 0.4215(9) -0.01866(17)
C1 C 0.1806(15) 0.2845(15) -0.0049(5)
H1 H 0.12810 0.24850 0.01210
H2 H 0.14110 0.23260 -0.02180
C2 C 0.2002(13) 0.4113(12) -0.0105(2)
C3 C 0.4944(12) 0.5776(12) 0.0914(2)
C4 C 0.481(2) 0.4945(15) 0.1133(3)
H3 H 0.45570 0.41410 0.10810
C5 C 0.504(2) 0.5294(17) 0.1429(3)
H4 H 0.50010 0.47410 0.15700
C6 C 0.5331(14) 0.6479(14) 0.1513(3)
C7 C 0.5419(18) 0.7264(16) 0.1296(3)
H5 H 0.55860 0.80430 0.13500
C8 C 0.5271(17) 0.6965(14) 0.0995(3)
H6 H 0.53880 0.75470 0.08540
C9 C 0.4727(13) 0.5406(15) 0.0601(2)
O6 O 0.33330 0.66670 0.02326(14)
O2C O 0.5000(8) 0.3068(8) 0.00604(19)
O5C O 0.4215(9) 0.1113(9) 0.01866(17)
C1C C 0.2845(15) 0.1806(15) 0.0049(5)
H1C H 0.24850 0.12810 -0.01210
H2C H 0.23260 0.14110 0.02180
C2C C 0.4113(13) 0.2002(12) 0.0105(2)
O3K O 0.685867(1100) 0.898633(800) 0.280343(180)
O4K O 0.531567(700) 0.715833(800) 0.292513(160)
C3K C 0.583467(1200) 0.755733(1200) 0.241933(200)
C4K C 0.653167(2000) 0.838833(1500) 0.220033(300)
H3K H 0.70827 0.91923 0.22523
C5K C 0.641267(2000) 0.803933(1700) 0.190433(300)
H4K H 0.69267 0.85923 0.17633
C6K C 0.551867(1400) 0.685433(1400) 0.182033(300)
C7K C 0.482167(1800) 0.606933(1600) 0.203733(300)
H5K H 0.42097 0.52903 0.19833
C8K C 0.497267(1700) 0.636833(1400) 0.233833(300)
H6K H 0.45077 0.57863 0.24793
C9K C 0.598767(1300) 0.792733(1500) 0.273233(200)
Tb1A Tb 0.51150(5) 0.00000(5) 0.00000
Tb1B Tb 0.00000(5) 0.51150(5) 0.00000
Tb1H Tb 0.666667(50) 0.844833(50) 0.33333
O3C O 0.4347(11) 0.4539(8) -0.05299(18)
O4C O 0.6175(7) 0.4824(8) -0.04082(16)
O5A O 0.5785(9) 0.6898(9) -0.01866(17)
O5E O 0.6898(9) 0.5785(9) 0.01866(17)
#END
