
#######################################################################
#
#                 Cambridge Crystallographic Data Centre
#                                CCDC
#
#######################################################################
#
# If this CIF has been generated from an entry in the Cambridge
# Structural Database, then it will include bibliographic, chemical,
# crystal, experimental, refinement or atomic coordinate data resulting
# from the CCDC's data processing and validation procedures.
#
#######################################################################

data_CSD_CIF_BASPUH
_audit_creation_date 2003-09-24
_audit_creation_method CSD-ConQuest-V1
_database_code_CSD BASPUH
_database_code_depnum_ccdc_archive 'CCDC 114255'
_chemical_formula_sum 'C36 H78 Ag6 Ca1 N6 O6 S16 W4'
_chemical_formula_moiety
;
(C36 H78 Ca1 N6 O6 2+)n,n(Ag6 S16 W4 2-)
;
_journal_coden_Cambridge 208
_journal_volume 151
_journal_year 2000
_journal_page_first 286
_journal_name_full 'J.Solid State Chem. '
loop_
_publ_author_name
"Chen Ling"
"Yu Heng"
"Wu Liming"
"Du Wenxin"
"Gao Xiancheng"
"Lin Ping"
"Zhang Wenjian"
"Cui Chuanpeng"
"Wu Xintao"
_chemical_name_systematic
;
catena-(hexakis(Diethylacetamide)-calcium 
octakis(\m~3~-sulfido)-octakis(\m~2~-sulfido)-hexa-silver-tetra-tungsten)
;
_cell_volume   3838.653
_exptl_crystal_colour 'red'
_exptl_crystal_density_diffrn 2.273
_exptl_crystal_description 'rectangular'
_diffrn_ambient_temperature 293
#These two values have been output from a single CSD field.
_refine_ls_R_factor_gt 0.0607
_refine_ls_wR_factor_gt 0.0607
_symmetry_cell_setting monoclinic
_symmetry_space_group_name_H-M 'P 21/n'
_symmetry_Int_Tables_number 14
loop_
_symmetry_equiv_pos_site_id
_symmetry_equiv_pos_as_xyz
1 x,y,z
2 1/2+x,1/2-y,1/2+z
3 -x,-y,-z
4 -1/2-x,-1/2+y,-1/2-z
_cell_length_a 13.769(3)
_cell_length_b 11.613(2)
_cell_length_c 24.153(5)
_cell_angle_alpha 90
_cell_angle_beta 96.31(3)
_cell_angle_gamma 90
_cell_formula_units_Z 2
loop_
_atom_type_symbol
_atom_type_radius_bond
C 0.68
Ag 1.59
Ca 1.24
N 0.70
O 0.68
S 1.02
W 1.37
loop_
_atom_site_label
_atom_site_type_symbol
_atom_site_fract_x
_atom_site_fract_y
_atom_site_fract_z
W1 W 0.08639(4) 0.06521(5) 0.18750(3)
W2 W 0.03057(4) -0.43616(5) 0.17144(3)
Ag1 Ag 0.04542(11) -0.18323(10) 0.18853(7)
Ag2 Ag 0.27486(9) 0.06841(12) 0.26156(7)
Ag3 Ag 0.07635(11) 0.31651(9) 0.17061(6)
S1 S 0.0716(3) 0.1488(4) 0.1060(2)
S2 S -0.0560(3) -0.0088(3) 0.1995(2)
S3 S 0.1222(3) 0.1904(3) 0.2569(2)
S4 S 0.2024(3) -0.0670(3) 0.1832(2)
S5 S -0.0261(3) -0.3148(3) 0.1081(2)
S6 S 0.3329(3) -0.0097(3) 0.3573(2)
S7 S 0.0576(3) -0.3538(3) 0.2558(2)
S8 S -0.0823(3) -0.5659(3) 0.1780(2)
Ca1 Ca -0.50000 0.00000 0.00000
O1 O -0.5150(9) 0.1356(11) 0.0675(5)
O2 O -0.3571(8) 0.0813(11) -0.0169(6)
O3 O -0.582(1) 0.1199(12) -0.0659(6)
N1 N -0.5092(11) 0.2984(13) 0.1147(6)
N2 N -0.2101(10) 0.1618(13) 0.0033(7)
N3 N -0.6503(19) 0.2153(22) -0.1325(12)
C1 C -0.5608(14) 0.2099(14) 0.0896(7)
C2 C -0.2953(13) 0.1545(16) -0.0265(8)
C3 C -0.5829(39) 0.1294(40) -0.1301(31)
C4 C -0.6694(13) 0.1977(17) 0.0957(9)
C5 C -0.3239(18) 0.2331(19) -0.0759(10)
C6 C -0.5796(54) 0.0652(40) -0.1663(13)
C7 C -0.5558(15) 0.3958(16) 0.1457(9)
C8 C -0.5792(16) 0.4987(16) 0.1089(11)
C9 C -0.4017(17) 0.3171(23) 0.1007(15)
C10 C -0.3492(24) 0.2718(34) 0.1490(19)
C11 C -0.1313(16) 0.2420(19) -0.0112(11)
C12 C -0.1361(21) 0.355(2) 0.0196(10)
C13 C -0.1867(13) 0.0834(17) 0.0525(8)
C14 C -0.1393(16) -0.0233(21) 0.0354(11)
C15 C -0.7332(30) 0.2612(35) -0.1896(21)
C16 C -0.6664(31) 0.3357(30) -0.1974(18)
C17 C -0.7124(47) 0.2651(43) -0.0840(29)
C18 C -0.6717(44) 0.3439(32) -0.0584(23)
O1B O -0.4850(9) -0.1356(11) -0.0675(5)
N1B N -0.4908(11) -0.2984(13) -0.1147(6)
C1B C -0.4392(14) -0.2099(14) -0.0896(7)
C4B C -0.3306(13) -0.1977(17) -0.0957(9)
C7B C -0.4442(15) -0.3958(16) -0.1457(9)
C8B C -0.4208(16) -0.4987(16) -0.1089(11)
C9B C -0.5983(17) -0.3171(23) -0.1007(15)
C10B C -0.6508(24) -0.2718(34) -0.1490(19)
O2B O -0.6429(8) -0.0813(11) 0.0169(6)
N2B N -0.7899(10) -0.1618(13) -0.0033(7)
C2B C -0.7047(13) -0.1545(16) 0.0265(8)
C5B C -0.6761(18) -0.2331(19) 0.0759(10)
C11B C -0.8687(16) -0.2420(19) 0.0112(11)
C12B C -0.8639(21) -0.355(2) -0.0196(10)
C13B C -0.8133(13) -0.0834(17) -0.0525(8)
C14B C -0.8607(16) 0.0233(21) -0.0354(11)
O3B O -0.418(1) -0.1199(12) 0.0659(6)
N3B N -0.3497(19) -0.2153(22) 0.1325(12)
C3B C -0.4171(39) -0.1294(40) 0.1301(31)
C6B C -0.4204(54) -0.0652(40) 0.1663(13)
C15B C -0.2668(30) -0.2612(35) 0.1896(21)
C16B C -0.3336(31) -0.3357(30) 0.1974(18)
C17B C -0.2876(47) -0.2651(43) 0.0840(29)
C18B C -0.3283(44) -0.3439(32) 0.0584(23)
S7C S 0.4424(3) 0.1462(3) 0.2442(2)
S6C S 0.1671(3) 0.4903(3) 0.1427(2)
W2C W 0.46943(4) 0.06384(5) 0.32856(3)
Ag1C Ag 0.45458(11) 0.31677(10) 0.31147(7)
Ag2C Ag 0.22514(9) 0.56841(12) 0.23844(7)
Ag3C Ag 0.42365(11) -0.18349(9) 0.32939(6)
S8* S -0.0823(3) 0.4341(3) 0.1780(2)
S5C S 0.5261(3) 0.1852(3) 0.3919(2)
S2C S 0.5560(3) 0.4912(3) 0.3005(2)
S4C S 0.2976(3) 0.4330(3) 0.3168(2)
S3C S 0.3778(3) 0.6904(3) 0.2431(2)
S1C S 0.4284(3) -0.3512(4) 0.3940(2)
W1C W 0.41361(4) -0.43479(5) 0.31250(3)
Ag2C* Ag 0.22514(9) -0.43159(12) 0.23844(7)
Ag3* Ag 0.07635(11) -0.68349(9) 0.17061(6)
S6C* S 0.1671(3) -0.5097(3) 0.1427(2)
W2* W 0.03057(4) 0.56384(5) 0.17144(3)
S8C S 0.5823(3) -0.0659(3) 0.3220(2)
W1C* W 0.41361(4) 0.56521(5) 0.31250(3)
S7* S 0.0576(3) 0.6462(3) 0.2558(2)
S3C* S 0.3778(3) -0.3096(3) 0.2431(2)
Ag3C* Ag 0.42365(11) 0.81651(9) 0.32939(6)
Ag1C* Ag 0.45458(11) -0.68323(10) 0.31147(7)
S2C* S 0.5560(3) -0.5088(3) 0.3005(2)
S4C* S 0.2976(3) -0.5670(3) 0.3168(2)
#END
