
#######################################################################
#
#                 Cambridge Crystallographic Data Centre
#                                CCDC
#
#######################################################################
#
# If this CIF has been generated from an entry in the Cambridge
# Structural Database, then it will include bibliographic, chemical,
# crystal, experimental, refinement or atomic coordinate data resulting
# from the CCDC's data processing and validation procedures.
#
#######################################################################

data_CSD_CIF_BASQAO
_audit_creation_date 2003-09-24
_audit_creation_method CSD-ConQuest-V1
_database_code_CSD BASQAO
_database_code_depnum_ccdc_archive 'CCDC 210905'
_chemical_formula_sum 'C20 H34 Ag2 N4 O4 S10 W2 Zn1'
_chemical_formula_moiety
;
(C20 H34 N4 O4 S2 Zn1 2+)n,n(Ag2 S8 W2 2-)
;
_journal_coden_Cambridge 208
_journal_volume 151
_journal_year 2000
_journal_page_first 286
_journal_name_full 'J.Solid State Chem. '
loop_
_publ_author_name
"Chen Ling"
"Yu Heng"
"Wu Liming"
"Du Wenxin"
"Gao Xiancheng"
"Lin Ping"
"Zhang Wenjian"
"Cui Chuanpeng"
"Wu Xintao"
_chemical_name_systematic
;
catena-((\m~2~-4,4'-Bipyridyl)-bis(dimethylformamide)-bis(dimethylsulfoxide)-z
inc 
bis(\m~3~-sulfido)-tetrakis(\m~2~-sulfido)-disulfoxo-di-silver-di-tungsten)
;
_cell_volume   4203.962
_exptl_crystal_colour 'red'
_exptl_crystal_density_diffrn 2.158
_diffrn_ambient_temperature 293
#These two values have been output from a single CSD field.
_refine_ls_R_factor_gt 0.0546
_refine_ls_wR_factor_gt 0.0546
_symmetry_cell_setting monoclinic
_symmetry_space_group_name_H-M 'C 2/c'
_symmetry_Int_Tables_number 15
loop_
_symmetry_equiv_pos_site_id
_symmetry_equiv_pos_as_xyz
1 x,y,z
2 1/2+x,1/2+y,z
3 x,-y,1/2+z
4 1/2+x,1/2-y,1/2+z
5 -x,-y,-z
6 -1/2-x,-1/2-y,-z
7 -x,y,-1/2-z
8 -1/2-x,-1/2+y,-1/2-z
_cell_length_a 8.996(2)
_cell_length_b 21.728(4)
_cell_length_c 21.560(4)
_cell_angle_alpha 90
_cell_angle_beta 94.00(3)
_cell_angle_gamma 90
_cell_formula_units_Z 4
loop_
_atom_type_symbol
_atom_type_radius_bond
C 0.68
Ag 1.59
N 0.68
O 0.68
S 1.02
W 1.37
Zn 1.45
loop_
_atom_site_label
_atom_site_type_symbol
_atom_site_fract_x
_atom_site_fract_y
_atom_site_fract_z
W1 W 0.23210(5) 0.51081(2) 0.15999(2)
Ag1 Ag 0.50000 0.51307(7) 0.25000
Zn1 Zn 0.25000 0.25000 0.00000
Ag2 Ag 0.00000 0.49990(9) 0.25000
S1 S 0.4438(3) 0.46420(14) 0.14455(14)
S2 S 0.2407(3) 0.56718(15) 0.24686(15)
S3 S 0.1151(4) 0.1116(2) 0.02796(15)
S4 S 0.1815(8) 0.5739(3) 0.0844(2)
S5 S 0.0633(5) 0.4387(3) 0.1583(3)
O1 O 0.2365(8) 0.1542(3) 0.0074(3)
N1 N 0.3537(8) 0.2537(3) 0.0929(3)
O2 O 0.0395(7) 0.2631(3) 0.0360(3)
C1 C 0.4699(10) 0.2544(4) 0.2164(4)
C2 C 0.4854(10) 0.2028(4) 0.1797(4)
C3 C 0.3427(11) 0.3043(4) 0.1284(4)
C4 C 0.4023(12) 0.3060(5) 0.1900(4)
C5 C -0.0261(11) 0.3120(6) 0.0457(5)
C6 C 0.4258(10) 0.2036(4) 0.1189(4)
N2 N -0.1597(11) 0.3145(6) 0.0672(5)
C7 C 0.0906(19) 0.1284(7) 0.1065(7)
C8 C -0.2328(17) 0.3739(11) 0.0776(8)
C9 C -0.2368(19) 0.2586(12) 0.0832(9)
C10 C 0.2115(30) 0.0391(7) 0.0376(10)
C1F C 0.5301(10) 0.2544(4) 0.2836(4)
C2F C 0.5146(10) 0.2028(4) 0.3203(4)
C6F C 0.5742(10) 0.2036(4) 0.3811(4)
N1F N 0.6463(8) 0.2537(3) 0.4071(3)
C3F C 0.6573(11) 0.3043(4) 0.3716(4)
C4F C 0.5977(12) 0.3060(5) 0.3100(4)
S1F S 0.5562(3) 0.46420(14) 0.35545(14)
S2F S 0.7593(3) 0.56718(15) 0.25314(15)
W1F W 0.76790(5) 0.51081(2) 0.34001(2)
S5F S -0.0633(5) 0.4387(3) 0.3417(3)
S4F S 0.8185(8) 0.5739(3) 0.4156(2)
S3E S 0.3849(4) 0.3884(2) -0.02796(15)
O1E O 0.2635(8) 0.3458(3) -0.0074(3)
C7E C 0.4094(19) 0.3716(7) -0.1065(7)
C10E C 0.2885(30) 0.4609(7) -0.0376(10)
O2E O 0.4605(7) 0.2369(3) -0.0360(3)
C5E C 0.5261(11) 0.1880(6) -0.0457(5)
N2E N 0.6597(11) 0.1855(6) -0.0672(5)
C8E C 0.7328(17) 0.1261(11) -0.0776(8)
C9E C 0.7368(19) 0.2414(12) -0.0832(9)
N1E N 0.1463(8) 0.2463(3) -0.0929(3)
W1F* W -0.23210(5) 0.51081(2) 0.34001(2)
S2F* S -0.2407(3) 0.56718(15) 0.25314(15)
Zn1C Zn 0.75000 0.25000 0.50000
Ag2* Ag 1.00000 0.49990(9) 0.25000
S5F* S 0.9367(5) 0.4387(3) 0.3417(3)
#END
