
#######################################################################
#
#                 Cambridge Crystallographic Data Centre
#                                CCDC
#
#######################################################################
#
# If this CIF has been generated from an entry in the Cambridge
# Structural Database, then it will include bibliographic, chemical,
# crystal, experimental, refinement or atomic coordinate data resulting
# from the CCDC's data processing and validation procedures.
#
#######################################################################

data_CSD_CIF_BAVMUI
_audit_creation_date 2012-11-29
_audit_creation_method CSD-ConQuest-V1
_database_code_CSD BAVMUI
_database_code_depnum_ccdc_archive 'CCDC 847909'
_chemical_formula_sum 'C72 H48 N12 Ni2 S29 Sb18'
_chemical_formula_moiety
;
(C36 H24 N6 Ni1 2+)2n,n(S29 Sb18 4-)
;
_journal_coden_Cambridge 9
_journal_volume 51
_journal_year 2012
_journal_page_first 3926
_journal_name_full 'Inorg.Chem. '
loop_
_publ_author_name
"Ke-Zhao Du"
"Mei-Ling Feng"
"Long-Hua Li"
"Bing Hu"
"Zu-Ju Ma"
"Peng Wang"
"Jian-Rong Li"
"Yu-Long Wang"
"Guo-Dong Zou"
"Xiao-Ying Huang"
_chemical_name_systematic
;
catena-(bis(tris(1,10-Phenanthroline)-nickel(ii)) 
heptacosakis(\m~2~-sulfido)-disulfido-octadeca-antimony)
;
_cell_volume   5471.757
_exptl_crystal_colour 'red'
_exptl_crystal_density_diffrn 2.622
_exptl_crystal_description 'block'
_diffrn_ambient_temperature 293
#These two values have been output from a single CSD field.
_refine_ls_R_factor_gt 0.0304
_refine_ls_wR_factor_gt 0.0304
_symmetry_cell_setting monoclinic
_symmetry_space_group_name_H-M 'P 21'
_symmetry_Int_Tables_number 4
loop_
_symmetry_equiv_pos_site_id
_symmetry_equiv_pos_as_xyz
1 x,y,z
2 -x,1/2+y,-z
_cell_length_a 11.17374(16)
_cell_length_b 41.2997(5)
_cell_length_c 12.37007(19)
_cell_angle_alpha 90
_cell_angle_beta 106.5568(15)
_cell_angle_gamma 90
_cell_formula_units_Z 2
loop_
_atom_type_symbol
_atom_type_radius_bond
C 0.68
H 0.23
N 0.68
Ni 1.24
S 1.02
Sb 1.46
loop_
_atom_site_label
_atom_site_type_symbol
_atom_site_fract_x
_atom_site_fract_y
_atom_site_fract_z
Sb1 Sb 0.29914(5) 0.402660(14) -1.10286(4)
Sb2 Sb 0.23060(5) 0.348300(14) -0.90243(4)
Sb3 Sb -0.08715(6) 0.013250(16) -0.40174(5)
Sb4 Sb -0.30867(6) 0.080430(18) -0.49747(7)
Sb5 Sb 0.01445(7) 0.101100(18) -0.45184(6)
Sb6 Sb 0.43740(5) 0.239170(15) -0.41044(5)
Sb7 Sb 0.53249(6) 0.162500(18) -0.50882(6)
Sb8 Sb 0.22408(7) 0.162780(19) -0.46037(6)
Sb9 Sb 0.39673(5) 0.393680(13) -0.55333(4)
Sb10 Sb 0.07477(5) 0.429150(14) -0.73402(4)
Sb11 Sb -0.04676(5) 0.331670(13) -0.74665(5)
Sb12 Sb -0.20660(5) 0.402030(15) -0.62886(5)
Sb13 Sb 0.13295(5) 0.357520(14) -0.45180(4)
Sb14 Sb 0.45485(5) 0.322170(13) -0.27119(4)
Sb15 Sb 0.73604(5) 0.349480(14) -0.37654(5)
Sb16 Sb 0.57606(5) 0.419700(13) -0.25885(4)
Sb17 Sb 0.47351(5) 0.433130(14) -0.80956(5)
Sb18 Sb 1.05574(5) 0.318100(14) -0.19600(5)
S1 S 0.71554(19) 0.37317(6) -0.20130(18)
S2 S 0.37453(18) 0.39511(5) -0.30432(18)
S3 S 0.5133(2) 0.41647(7) -0.98753(19)
S4 S 0.32215(19) 0.34465(6) -1.07455(17)
S5 S 0.49308(19) 0.38104(5) -0.71109(17)
S6 S 0.20754(19) 0.40630(6) -0.93029(17)
S7 S 1.0165(2) 0.33471(7) -0.01786(19)
S8 S 0.58620(19) 0.42401(6) -0.45427(18)
S9 S 0.28843(18) 0.44498(5) -0.62820(18)
S10 S 0.15503(18) 0.35619(5) -0.70106(17)
S11 S 0.00462(18) 0.42670(6) -0.56075(17)
S12 S -0.18634(19) 0.37816(6) -0.80437(18)
S13 S -0.30460(19) 0.45078(6) -0.72647(19)
S14 S 0.0230(2) 0.48700(6) -0.7831(2)
S15 S -0.2587(2) 0.03916(7) -0.3515(3)
S16 S 0.0757(2) 0.05412(6) -0.3291(2)
S17 S -0.1624(3) 0.12163(7) -0.3935(3)
S18 S -0.1794(3) 0.06084(7) -0.6047(2)
S19 S -0.05688(18) 0.32722(6) -0.55089(17)
S20 S 0.03668(19) 0.37026(5) -0.29391(17)
S21 S 0.24139(18) 0.30628(5) -0.37723(18)
S22 S 0.52524(18) 0.32470(6) -0.44466(17)
S23 S 0.8341(2) 0.30088(6) -0.27948(19)
S24 S 0.5081(2) 0.26456(6) -0.22288(19)
S25 S 0.2835(2) 0.20975(7) -0.3418(2)
S26 S 0.6081(2) 0.20028(6) -0.3510(2)
S27 S 0.4115(3) 0.12916(7) -0.4141(3)
S28 S 0.3672(2) 0.19391(7) -0.6161(2)
S29 S 0.1543(4) 0.13722(10) -0.3087(3)
Ni1 Ni -0.1236(1) 0.21268(3) 0.10978(9)
N1 N 0.8012(6) 0.56644(19) -0.0258(6)
N2 N 0.5725(6) 0.58420(19) -0.1468(6)
N3 N 0.5758(6) 0.5325(2) 0.0196(6)
N4 N 0.4854(6) 0.51290(17) -0.1948(6)
N5 N 0.7501(6) 0.49501(18) -0.0896(6)
N6 N 0.7098(6) 0.53735(19) -0.2632(6)
C1 C 0.9129(8) 0.5575(3) 0.0352(7)
H1 H 0.93250 0.53560 0.03760
C2 C 1.0043(9) 0.5789(3) 0.0968(8)
H2 H 1.08140 0.57130 0.14030
C3 C 0.9765(9) 0.6109(3) 0.0909(8)
H3 H 1.03540 0.62580 0.13030
C4 C 0.8594(9) 0.6216(2) 0.0256(7)
C5 C 0.7746(8) 0.5984(3) -0.0308(7)
C6 C 0.8231(10) 0.6552(3) 0.0140(9)
H4 H 0.87900 0.67080 0.05310
C7 C 0.7121(10) 0.6646(3) -0.0507(9)
H5 H 0.69250 0.68650 -0.05800
C8 C 0.6213(9) 0.6409(2) -0.1103(8)
C9 C 0.6535(8) 0.6083(2) -0.0979(7)
C10 C 0.5003(10) 0.6487(2) -0.1774(8)
H6 H 0.47640 0.67030 -0.18910
C11 C 0.4186(9) 0.6251(3) -0.2249(8)
H7 H 0.33820 0.63000 -0.26860
C12 C 0.4587(9) 0.5925(3) -0.2063(7)
H8 H 0.40220 0.57610 -0.23760
C13 C 0.6237(9) 0.5413(3) 0.1261(7)
H9 H 0.70100 0.55150 0.14670
C14 C 0.5636(12) 0.5359(3) 0.2083(9)
H10 H 0.60000 0.54260 0.28210
C15 C 0.4503(11) 0.5205(3) 0.1798(9)
H11 H 0.41000 0.51630 0.23450
C16 C 0.3954(9) 0.5113(2) 0.0669(9)
C17 C 0.4652(8) 0.5173(2) -0.0085(8)
C18 C 0.2765(10) 0.4953(3) 0.0284(12)
H12 H 0.23040 0.49110 0.07860
C19 C 0.2322(9) 0.4866(3) -0.0802(11)
H13 H 0.15370 0.47710 -0.10410
C20 C 0.2983(9) 0.4912(2) -0.1586(10)
C21 C 0.4159(8) 0.5069(2) -0.1240(7)
C22 C 0.2637(9) 0.4794(2) -0.2708(10)
H14 H 0.18870 0.46820 -0.29750
C23 C 0.3348(9) 0.4837(2) -0.3388(9)
H15 H 0.31050 0.47520 -0.41150
C24 C 0.4449(9) 0.5007(2) -0.3020(8)
H16 H 0.49300 0.50410 -0.35120
C25 C 0.7656(8) 0.4729(2) -0.0071(8)
H17 H 0.72990 0.47680 0.05100
C26 C 0.8334(9) 0.4439(2) -0.0043(9)
H18 H 0.84110 0.42910 0.05400
C27 C 0.8850(8) 0.4381(2) -0.0848(10)
H19 H 0.93200 0.41940 -0.08250
C28 C 0.8705(8) 0.4598(2) -0.1744(8)
C29 C 0.8024(7) 0.4877(2) -0.1737(7)
C30 C 0.9145(9) 0.4540(3) -0.2726(11)
H20 H 0.95900 0.43510 -0.27510
C31 C 0.894(1) 0.4746(3) -0.3594(10)
H21 H 0.92770 0.47040 -0.41850
C32 C 0.8216(10) 0.5029(3) -0.3621(9)
C33 C 0.7786(7) 0.5099(2) -0.2667(7)
C34 C 0.7936(13) 0.5252(3) -0.4478(10)
H22 H 0.82200 0.52180 -0.51070
C35 C 0.7255(12) 0.5519(3) -0.4426(9)
H23 H 0.70730 0.56670 -0.50170
Ni2 Ni 0.65026(9) 0.53807(3) -0.11620(9)
N7 N -0.0508(6) 0.21845(18) -0.0259(6)
N8 N 0.0419(6) 0.23755(19) 0.1897(6)
N9 N -0.2228(6) 0.25620(19) 0.0811(6)
N10 N -0.1848(7) 0.21440(18) 0.2538(6)
N11 N -0.2725(7) 0.1842(2) 0.0215(6)
N12 N -0.0483(6) 0.16605(18) 0.1497(6)
C36 C 0.6829(10) 0.5573(2) -0.3491(8)
H24 H 0.63410 0.57540 -0.34750
C37 C -0.0975(9) 0.2106(3) -0.1329(8)
H25 H -0.17470 0.20040 -0.15350
C38 C -0.0418(11) 0.2164(3) -0.2164(8)
H26 H -0.08120 0.21060 -0.29080
C39 C 0.0712(10) 0.2306(3) -0.1880(9)
H27 H 0.11240 0.23400 -0.24270
C40 C 0.1283(9) 0.2404(2) -0.0746(9)
C41 C 0.0643(8) 0.2337(2) 0.0031(7)
C42 C 0.250(1) 0.2544(3) -0.0369(10)
H28 H 0.29800 0.25640 -0.08690
C43 C 0.2958(10) 0.2646(3) 0.0697(11)
H29 H 0.37310 0.27480 0.09130
C44 C 0.2268(9) 0.2599(2) 0.1528(9)
C45 C 0.1121(8) 0.2439(2) 0.1189(7)
C46 C 0.2668(9) 0.2715(3) 0.2637(10)
H30 H 0.34230 0.28240 0.28970
C47 C 0.1943(10) 0.2665(3) 0.3314(10)
H31 H 0.21780 0.27480 0.40440
C48 C 0.0804(9) 0.2484(2) 0.2923(8)
H32 H 0.03310 0.24430 0.34160
C49 C -0.2350(8) 0.2767(2) -0.0026(8)
H33 H -0.19990 0.27170 -0.06030
C50 C -0.3007(10) 0.3064(2) -0.0068(9)
H34 H -0.30580 0.32090 -0.06550
C51 C -0.3565(9) 0.3136(3) 0.0759(11)
H35 H -0.40380 0.33230 0.07120
C52 C -0.3410(8) 0.2919(2) 0.1697(10)
C53 C -0.2729(7) 0.2639(2) 0.1658(8)
C54 C -0.3838(9) 0.2991(3) 0.2616(11)
H36 H -0.43220 0.31740 0.26050
C55 C -0.3552(12) 0.2792(3) 0.3541(11)
H37 H -0.38140 0.28470 0.41670
C56 C -0.2860(11) 0.2502(3) 0.3555(9)
C57 C -0.2469(8) 0.2416(3) 0.2604(8)
C58 C -0.2488(13) 0.2304(3) 0.4495(10)
H38 H -0.26470 0.23640 0.51660
C59 C -0.1884(13) 0.2021(3) 0.4428(10)
H39 H -0.16800 0.18770 0.50330
C60 C -0.1573(11) 0.1949(3) 0.3422(8)
H40 H -0.11570 0.17560 0.33810
C61 C -0.3833(8) 0.1939(3) -0.0458(8)
H41 H -0.39990 0.21600 -0.05460
C62 C -0.4766(10) 0.1714(3) -0.1044(9)
H42 H -0.55350 0.17860 -0.14950
C63 C -0.4501(10) 0.1385(3) -0.0928(9)
H43 H -0.50840 0.12370 -0.13330
C64 C -0.3361(10) 0.1273(3) -0.0206(9)
C65 C -0.2507(8) 0.1514(2) 0.0333(7)
C66 C -0.3041(12) 0.0942(3) 0.0036(10)
H44 H -0.35880 0.07790 -0.03210
C67 C -0.1941(12) 0.0865(3) 0.0785(10)
H45 H -0.17750 0.06470 0.09540
C68 C -0.1059(10) 0.1085(2) 0.1309(8)
C69 C -0.1302(9) 0.1419(2) 0.1060(7)
C70 C 0.0113(10) 0.1021(3) 0.2037(9)
H46 H 0.03240 0.08080 0.22470
C71 C 0.0961(10) 0.1256(3) 0.2455(8)
H47 H 0.17480 0.12050 0.29250
C72 C 0.0625(9) 0.1578(3) 0.2162(8)
H48 H 0.12060 0.17410 0.24480
Sb1* Sb 0.29914(5) 0.402660(14) -0.10286(4)
Sb2* Sb 1.23060(5) 0.348300(14) 0.09757(4)
Sb3A Sb 0.08715(6) 0.513250(16) -0.59826(5)
Sb17* Sb -0.52649(5) 0.433130(14) -0.80956(5)
Sb18* Sb 0.05574(5) 0.318100(14) -0.19600(5)
S2* S 0.37453(18) 0.39511(5) -1.30432(18)
S7* S 0.0165(2) 0.33471(7) -1.01786(19)
S13* S 0.69540(19) 0.45078(6) -0.72647(19)
S14A S -0.0230(2) -0.01300(6) -0.2169(2)
S20* S 1.03668(19) 0.37026(5) -0.29391(17)
#END
