
#######################################################################
#
#                 Cambridge Crystallographic Data Centre
#                                CCDC
#
#######################################################################
#
# If this CIF has been generated from an entry in the Cambridge
# Structural Database, then it will include bibliographic, chemical,
# crystal, experimental, refinement or atomic coordinate data resulting
# from the CCDC's data processing and validation procedures.
#
#######################################################################

data_CSD_CIF_BAXLEU
_audit_creation_date 2017-06-07
_audit_creation_method CSD-ConQuest-V1
_database_code_CSD BAXLEU
_database_code_depnum_ccdc_archive 'CCDC 1541719'
_chemical_formula_sum 'C56 H56 Cu3 Mo8 N16 O26'
_chemical_formula_moiety
;
(C28 H28 Cu1 Mo8 N8 O26 2-)n,2n(C14 H14 Cu1 N4 1+)
;
_journal_coden_Cambridge 1295
_journal_volume 82
_journal_year 2017
_journal_page_first 57
_journal_name_full 'Inorg.Chem.Commun. '
loop_
_publ_author_name
"Shaobin Li"
"Li Zhang"
"Jianxin Wang"
"Xiaozhou Zhang"
"Yujie Hu"
"Yan Yu"
"Xiuying Yang"
"Jingyu Zhang"
_chemical_name_systematic
;
catena-(bis((\m-1,1'-(2,5-dimethyl-1,4-phenylene)bis(1H-imidazole))-copper) 
bis(\m-1,1'-(2,5-dimethyl-1,4-phenylene)bis(1H-imidazole))-tetradecakis(\m-oxo
)-bis(\m-1,1'-(2,5-dimethyl-1,4-phenylene)bis(1H-imidazole))-copper-octa-molyb
denum)
;
_cell_volume   1802.263
_exptl_crystal_colour 'green'
_exptl_crystal_density_diffrn 2.144
_exptl_crystal_description 'block'
_diffrn_ambient_temperature 293
#These two values have been output from a single CSD field.
_refine_ls_R_factor_gt 0.0589
_refine_ls_wR_factor_gt 0.0589
_symmetry_cell_setting triclinic
_symmetry_space_group_name_H-M 'P -1'
_symmetry_Int_Tables_number 2
loop_
_symmetry_equiv_pos_site_id
_symmetry_equiv_pos_as_xyz
1 x,y,z
2 -x,-y,-z
_cell_length_a 13.134(5)
_cell_length_b 13.230(5)
_cell_length_c 13.424(5)
_cell_angle_alpha 118.343(5)
_cell_angle_beta 111.601(5)
_cell_angle_gamma 95.438(5)
_cell_formula_units_Z 1
loop_
_atom_type_symbol
_atom_type_radius_bond
C 0.68
H 0.23
Cu 1.32
Mo 1.54
N 0.68
O 0.68
loop_
_atom_site_label
_atom_site_type_symbol
_atom_site_fract_x
_atom_site_fract_y
_atom_site_fract_z
Mo1 Mo -0.12260(5) 0.53989(6) 0.01605(6)
Mo2 Mo 0.18995(5) 0.51491(5) 0.28386(5)
Mo3 Mo -0.06402(5) 0.32470(7) 0.05390(7)
Mo4 Mo -0.13327(6) 0.26878(6) -0.24239(6)
Cu1 Cu 0.50000 0.50000 0.50000
O1 O 0.3162(4) 0.4946(4) 0.3597(4)
O2 O 0.1358(5) 0.5568(5) 0.3880(5)
O3 O 0.0365(4) 0.5175(4) 0.1222(4)
O4 O -0.2268(4) 0.5397(5) -0.1106(5)
O5 O 0.0096(4) 0.3088(4) -0.0880(4)
O6 O -0.1728(5) 0.5760(6) 0.1225(6)
O7 O -0.2115(6) 0.1350(5) -0.2855(6)
O8 O -0.1670(4) 0.3638(5) -0.0659(5)
N1 N 0.4474(5) 0.5309(5) 0.6338(5)
O9 O 0.0902(4) 0.3495(4) 0.1625(4)
O10 O -0.2472(4) 0.3321(4) -0.3100(4)
O11 O -0.0755(6) 0.2334(6) -0.3431(5)
O12 O -0.1204(5) 0.3660(8) 0.1563(7)
N2 N 0.4376(5) 0.5282(6) 0.7936(5)
C1 C 0.5057(6) 0.5339(6) 0.7402(6)
H1 H 0.58330 0.53930 0.77370
N3 N 0.5735(5) 0.8485(5) 0.5827(5)
C2 C 0.5452(6) 0.4058(7) 0.9955(7)
N4 N 0.5637(5) 0.6784(5) 0.5769(5)
C3 C 0.5134(6) 0.4243(7) 0.8954(6)
H2 H 0.52180 0.37350 0.82390
C4 C 0.6656(7) 0.7676(6) 0.6814(7)
H3 H 0.72080 0.75730 0.74010
C5 C 0.4502(7) 0.9721(6) 0.5658(7)
C6 C 0.4166(7) 1.0464(7) 0.5212(7)
H4 H 0.36050 1.07990 0.53610
C7 C 0.3277(6) 0.5193(8) 0.7138(7)
H5 H 0.26220 0.51290 0.72510
C8 C 0.3939(9) 0.9432(9) 0.6324(10)
H6 H 0.33550 0.86430 0.57270
H7 H 0.35890 1.00320 0.66500
H8 H 0.45140 0.94360 0.70220
C9 C 0.4698(6) 0.5168(7) 0.9012(7)
C10 C 0.3351(6) 0.5217(7) 0.6176(6)
H9 H 0.27460 0.51790 0.55060
C11 C 0.6730(6) 0.8723(7) 0.6858(7)
H10 H 0.73330 0.94590 0.74640
C12 C 0.5359(6) 0.9288(6) 0.5436(6)
C13 C 0.5119(7) 0.7316(6) 0.5203(7)
H11 H 0.44110 0.69210 0.44590
C14 C 0.5881(9) 0.2987(9) 0.9781(10)
H12 H 0.66940 0.32820 1.03680
H13 H 0.57590 0.24970 0.89160
H14 H 0.54610 0.25040 0.99480
O13 O -0.1128(6) 0.1686(5) -0.0402(6)
Cu2 Cu 1.00000 1.00000 1.00000
C15 C 0.8377(7) 0.8566(8) 1.0280(8)
H15 H 0.88000 0.80560 1.03530
C16 C 0.7887(6) 1.0019(8) 1.0121(8)
H16 H 0.78880 1.06880 1.00560
C17 C 0.4956(6) 0.8905(7) 0.9066(8)
H17 H 0.49500 0.81690 0.84470
C18 C 0.6004(6) 0.9754(7) 1.0117(7)
C19 C 0.3911(6) 0.9129(7) 0.8914(7)
N5 N 0.8709(5) 0.9522(7) 1.0159(6)
N6 N 0.7049(5) 0.9439(6) 1.0189(6)
C20 C 0.2775(7) 0.8209(8) 0.7753(8)
H18 H 0.24070 0.77280 0.79580
H19 H 0.29180 0.76890 0.70580
H20 H 0.22790 0.86250 0.75030
C21 C 0.7342(8) 0.8505(8) 1.0273(8)
H21 H 0.69130 0.79400 1.03160
Cu3 Cu 1.00000 0.50000 0.50000
C22 C 0.7792(7) 0.7964(7) 0.3327(9)
H22 H 0.78950 0.72480 0.27510
H23 H 0.72230 0.81790 0.28420
H24 H 0.75340 0.78090 0.38390
C23 C 1.0867(7) 1.0061(7) 0.6010(8)
H25 H 1.14490 1.00840 0.66850
C24 C 0.8946(7) 0.9014(6) 0.4205(8)
C25 C 0.9498(8) 0.8283(8) 0.6474(8)
H26 H 0.93660 0.89330 0.70520
N7 N 0.9721(6) 0.8198(6) 0.5521(7)
N8 N 0.9740(6) 0.6492(7) 0.5450(9)
C26 C 0.9833(7) 0.9124(7) 0.5233(7)
C27 C 0.9878(8) 0.7107(8) 0.4956(10)
H27 H 1.00640 0.68250 0.42870
C28 C 0.9508(8) 0.7231(9) 0.6402(10)
H28 H 0.93740 0.70380 0.69350
N1A N 0.5526(5) 0.4691(5) 1.3662(5)
N2A N 0.5624(5) 0.4718(6) 1.2064(5)
C1A C 0.4943(6) 0.4661(6) 1.2598(6)
H1A H 0.41670 0.46070 1.22630
C2A C 0.4548(6) 0.5942(7) 1.0045(7)
C3A C 0.4866(6) 0.5757(7) 1.1046(6)
H2A H 0.47820 0.62650 1.17610
C7A C 0.6723(6) 0.4807(8) 1.2862(7)
H5A H 0.73780 0.48710 1.27490
C9A C 0.5302(6) 0.4832(7) 1.0988(7)
C10A C 0.6649(6) 0.4783(7) 1.3824(6)
H9A H 0.72540 0.48210 1.44940
C14A C 0.4119(9) 0.7013(9) 1.0219(10)
H12A H 0.33060 0.67180 0.96320
H13A H 0.42410 0.75030 1.10840
H14A H 0.45390 0.74960 1.00520
N3A N 0.4265(5) 1.1515(5) 0.4173(5)
N4A N 0.4363(5) 1.3216(5) 0.4231(5)
C4A C 0.3344(7) 1.2324(6) 0.3186(7)
H3A H 0.27920 1.24270 0.25990
C5A C 0.5498(7) 1.0279(6) 0.4342(7)
C6A C 0.5834(7) 0.9536(7) 0.4788(7)
H4A H 0.63950 0.92010 0.46390
C8A C 0.6061(9) 1.0568(9) 0.3676(10)
H6A H 0.66450 1.13570 0.42730
H7A H 0.64110 0.99680 0.33500
H8A H 0.54860 1.05640 0.29780
C11A C 0.3270(6) 1.1277(7) 0.3142(7)
H10A H 0.26670 1.05410 0.25360
C12A C 0.4641(6) 1.0712(6) 0.4564(6)
C13A C 0.4881(7) 1.2684(6) 0.4797(7)
H11A H 0.55890 1.30790 0.55410
Mo1A Mo 0.12260(5) 0.46011(6) -0.01605(6)
Mo2A Mo -0.18995(5) 0.48509(5) -0.28386(5)
Mo3A Mo 0.06402(5) 0.67530(7) -0.05390(7)
Mo4A Mo 0.13327(6) 0.73122(6) 0.24239(6)
O1A O -0.3162(4) 0.5054(4) -0.3597(4)
O2A O -0.1358(5) 0.4432(5) -0.3880(5)
O3A O -0.0365(4) 0.4825(4) -0.1222(4)
O4A O 0.2268(4) 0.4603(5) 0.1106(5)
O5A O -0.0096(4) 0.6912(4) 0.0880(4)
O6A O 0.1728(5) 0.4240(6) -0.1225(6)
O7A O 0.2115(6) 0.8650(5) 0.2855(6)
O8A O 0.1670(4) 0.6362(5) 0.0659(5)
O9A O -0.0902(4) 0.6505(4) -0.1625(4)
O10A O 0.2472(4) 0.6679(4) 0.3100(4)
O11A O 0.0755(6) 0.7666(6) 0.3431(5)
O12A O 0.1204(5) 0.6340(8) -0.1563(7)
O13A O 0.1128(6) 0.8314(5) 0.0402(6)
Cu1* Cu -0.50000 0.50000 -0.50000
Cu1** Cu 0.50000 0.50000 1.50000
Cu1*** Cu 0.50000 1.50000 0.50000
O1A* O 0.6838(4) 0.5054(4) 0.6403(4)
N1A* N 0.5526(5) 0.4691(5) 0.3662(5)
N4A* N 0.4363(5) 0.3216(5) 0.4231(5)
C15A C 0.1623(7) 1.1434(8) 0.9720(8)
H15A H 0.12000 1.19440 0.96470
C16A C 0.2113(6) 0.9981(8) 0.9879(8)
H16A H 0.21120 0.93120 0.99440
C17A C 0.5044(6) 1.1095(7) 1.0934(8)
H17A H 0.50500 1.18310 1.15530
C18A C 0.3996(6) 1.0246(7) 0.9883(7)
C19A C 0.6089(6) 1.0871(7) 1.1086(7)
N5A N 0.1291(5) 1.0478(7) 0.9841(6)
N6A N 0.2951(5) 1.0561(6) 0.9811(6)
C20A C 0.7225(7) 1.1791(8) 1.2247(8)
H18A H 0.75930 1.22720 1.20420
H19A H 0.70820 1.23110 1.29420
H20A H 0.77210 1.13750 1.24970
C21A C 0.2658(8) 1.1495(8) 0.9727(8)
H21A H 0.30870 1.20600 0.96840
Cu2* Cu 0.00000 1.00000 1.00000
N5A* N 1.1291(5) 1.0478(7) 0.9841(6)
C22A C 1.2208(7) 1.2036(7) 0.6673(9)
H22A H 1.21050 1.27520 0.72490
H23A H 1.27770 1.18210 0.71580
H24A H 1.24660 1.21910 0.61610
C23A C 0.9133(7) 0.9939(7) 0.3990(8)
H25A H 0.85510 0.99160 0.33150
C24A C 1.1054(7) 1.0986(6) 0.5795(8)
C25A C 1.0502(8) 1.1717(8) 0.3526(8)
H26A H 1.06340 1.10670 0.29480
N7A N 1.0279(6) 1.1802(6) 0.4479(7)
N8A N 1.0260(6) 1.3508(7) 0.4550(9)
C26A C 1.0167(7) 1.0876(7) 0.4767(7)
C27A C 1.0122(8) 1.2893(8) 0.5044(10)
H27A H 0.99360 1.31750 0.57130
C28A C 1.0492(8) 1.2769(9) 0.3598(10)
H28A H 1.06260 1.29620 0.30650
Cu3* Cu 1.00000 1.50000 0.50000
N8A* N 1.0260(6) 0.3508(7) 0.4550(9)
#END
