
#######################################################################
#
#                 Cambridge Crystallographic Data Centre
#                                CCDC
#
#######################################################################
#
# If this CIF has been generated from an entry in the Cambridge
# Structural Database, then it will include bibliographic, chemical,
# crystal, experimental, refinement or atomic coordinate data resulting
# from the CCDC's data processing and validation procedures.
#
#######################################################################

data_CSD_CIF_BECSOU
_audit_creation_date 2017-06-12
_audit_creation_method CSD-ConQuest-V1
_database_code_CSD BECSOU
_database_code_depnum_ccdc_archive 'CCDC 1544027'
_chemical_formula_sum 'C44 H33 N3 O13 Zn1'
_chemical_formula_moiety
;
C24 H20 N2 2+,(C18 H10 O13 Zn1 2-)n,C2 H3 N1
;
_journal_coden_Cambridge 1147
_journal_volume 17
_journal_year 2017
_journal_page_first 3948
_journal_name_full 'Cryst.Growth Des. '
loop_
_publ_author_name
"Wu-Xiang Li"
"Hong-Xi Li"
"Hai-Yan Li"
"Min-Min Chen"
"Yi-Xiang Shi"
"Jian-Ping Lang"
_chemical_name_systematic
;
catena-[4,4'-[naphthalene-1,4-diyldi(ethene-2,1-diyl)]dipyridinium 
(\m-5-carboxyisophthalato)-aqua-(5-carboxyisophthalato)-zinc(ii) acetonitrile 
solvate]
;
_cell_volume   1953.348
_exptl_crystal_colour 'light red'
_exptl_crystal_density_diffrn 1.483
_exptl_crystal_description 'plate'
_diffrn_ambient_temperature 293
_refine_special_details
;
C44 and C44A disordered over two sites with occupancies 0.5:0.5.

;
#These two values have been output from a single CSD field.
_refine_ls_R_factor_gt 0.0575
_refine_ls_wR_factor_gt 0.0575
_symmetry_cell_setting triclinic
_symmetry_space_group_name_H-M 'P -1'
_symmetry_Int_Tables_number 2
loop_
_symmetry_equiv_pos_site_id
_symmetry_equiv_pos_as_xyz
1 x,y,z
2 -x,-y,-z
_cell_length_a 9.1427(5)
_cell_length_b 10.2057(8)
_cell_length_c 22.0438(11)
_cell_angle_alpha 102.229(6)
_cell_angle_beta 93.001(5)
_cell_angle_gamma 102.352(6)
_cell_formula_units_Z 2
loop_
_atom_type_symbol
_atom_type_radius_bond
C 0.68
H 0.23
N 0.68
O 0.68
Zn 1.22
loop_
_atom_site_label
_atom_site_type_symbol
_atom_site_fract_x
_atom_site_fract_y
_atom_site_fract_z
Zn1 Zn 0.18460(5) 0.31493(5) 0.43209(2)
O1 O 0.0240(3) 0.2524(3) 0.36332(13)
O2 O 0.2052(3) 0.2340(4) 0.30111(14)
O3 O 0.0786(3) 0.0605(5) 0.07548(15)
O4 O -0.1605(4) -0.0123(6) 0.03633(16)
O5 O -0.5558(3) -0.0544(4) 0.17437(14)
O6 O -0.5031(3) 0.0022(4) 0.27725(15)
O7 O 0.3318(3) 0.4913(3) 0.43406(14)
O8 O 0.1245(3) 0.5659(3) 0.44879(15)
O9 O 0.1152(3) 1.0317(3) 0.42226(16)
O10 O 0.3262(3) 1.1906(3) 0.43035(13)
O11 O 0.8010(3) 0.8061(3) 0.40244(14)
O12 O 0.8097(3) 1.0311(3) 0.41950(15)
H1 H 0.89880 1.03540 0.41460
O13 O 0.0906(3) 0.3133(4) 0.51090(14)
C1 C 0.0714(4) 0.2165(5) 0.3105(2)
C2 C -0.0451(4) 0.1475(5) 0.25609(19)
C3 C -0.0012(4) 0.1263(5) 0.19649(19)
H2 H 0.09960 0.15390 0.19050
C4 C -0.1074(4) 0.0639(5) 0.1455(2)
C5 C -0.2594(4) 0.0223(5) 0.1550(2)
H3 H -0.33080 -0.01890 0.12090
C6 C -0.3034(4) 0.0421(5) 0.21424(19)
C7 C -0.1962(4) 0.1039(4) 0.26495(19)
H4 H -0.22540 0.11630 0.30520
C8 C -0.0602(5) 0.0354(6) 0.0820(2)
C9 C -0.4644(5) -0.0053(5) 0.2256(2)
C10 C 0.2600(4) 0.5870(4) 0.44003(18)
C11 C 0.3448(4) 0.7261(4) 0.43381(17)
C12 C 0.2686(4) 0.8305(4) 0.43271(18)
H5 H 0.16590 0.81320 0.43670
C13 C 0.3421(4) 0.9591(4) 0.42576(18)
C14 C 0.4971(4) 0.9846(4) 0.41990(17)
H6 H 0.54810 1.07090 0.41570
C15 C 0.5749(4) 0.8815(5) 0.42030(18)
C16 C 0.4987(4) 0.7526(4) 0.42707(17)
H7 H 0.55080 0.68360 0.42710
C17 C 0.2535(4) 1.0673(5) 0.42579(18)
C18 C 0.7387(5) 0.9013(5) 0.41279(19)
H8 H -0.111(8) -0.004(11) 0.005(3)
N1 N -0.4972(4) 0.3298(4) 0.33474(18)
H9 H -0.58690 0.29730 0.34290
N2 N 1.1737(4) 0.8524(4) 0.19645(18)
H10 H 1.26540 0.88230 0.18980
C19 C -0.3857(5) 0.3675(5) 0.3805(2)
H11 H -0.40440 0.35870 0.42070
C20 C -0.2415(5) 0.4199(5) 0.3674(2)
H12 H -0.16280 0.44750 0.39910
C21 C -0.2127(4) 0.4320(5) 0.3072(2)
C22 C -0.3357(5) 0.3908(5) 0.2614(2)
H13 H -0.32180 0.39800 0.22060
C23 C -0.4749(5) 0.3406(6) 0.2765(2)
H14 H -0.55620 0.31330 0.24590
C24 C -0.0597(5) 0.4828(5) 0.2939(2)
H15 H 0.01120 0.52780 0.32780
C25 C -0.0121(4) 0.4703(5) 0.2369(2)
H16 H -0.08450 0.42870 0.20320
C26 C 0.1419(4) 0.5154(5) 0.2225(2)
C27 C 0.1799(4) 0.4939(5) 0.1594(2)
C28 C 0.0715(5) 0.4244(6) 0.1079(2)
H17 H -0.02640 0.38760 0.11530
C29 C 0.1067(6) 0.4103(8) 0.0483(3)
H18 H 0.03310 0.36490 0.01550
C30 C 0.2532(6) 0.4638(9) 0.0360(3)
H19 H 0.27580 0.45560 -0.00510
C31 C 0.3628(5) 0.5277(7) 0.0834(2)
H20 H 0.46000 0.56060 0.07420
C32 C 0.3322(5) 0.5454(5) 0.1468(2)
C33 C 0.4458(4) 0.6126(5) 0.1977(2)
C34 C 0.4030(5) 0.6312(6) 0.2572(2)
H21 H 0.47470 0.67810 0.29050
C35 C 0.2541(5) 0.5816(6) 0.2692(2)
H22 H 0.23120 0.59440 0.31030
C36 C 0.6027(5) 0.6620(6) 0.1865(2)
H23 H 0.62220 0.65610 0.14510
C37 C 0.7187(5) 0.7141(5) 0.2293(2)
H24 H 0.69960 0.72230 0.27080
C38 C 0.8756(4) 0.7603(5) 0.2169(2)
C39 C 0.9852(5) 0.8272(5) 0.2657(2)
H25 H 0.96000 0.84160 0.30650
C40 C 1.1331(5) 0.8731(5) 0.2538(2)
H26 H 1.20530 0.91950 0.28710
C41 C 1.0706(5) 0.7850(6) 0.1493(2)
H27 H 1.10030 0.77010 0.10920
C42 C 0.9217(5) 0.7359(6) 0.1568(2)
H28 H 0.85320 0.68760 0.12260
N3 N 0.6836(6) 0.3557(8) 0.0960(3)
C43 C 0.5804(10) 0.2791(11) 0.0832(4)
C44 C 0.4173(18) 0.195(2) 0.0950(9)
C45? C 0.442(3) 0.159(3) 0.0616(11)
Zn1* Zn 0.18460(5) 1.31493(5) 0.43209(2)
O10* O 0.3262(3) 0.1906(3) 0.43035(13)
#END
