
#######################################################################
#
#                 Cambridge Crystallographic Data Centre
#                                CCDC
#
#######################################################################
#
# If this CIF has been generated from an entry in the Cambridge
# Structural Database, then it will include bibliographic, chemical,
# crystal, experimental, refinement or atomic coordinate data resulting
# from the CCDC's data processing and validation procedures.
#
#######################################################################

data_CSD_CIF_BECTUA
_audit_creation_date 2012-11-16
_audit_creation_method CSD-ConQuest-V1
_database_code_CSD BECTUA
_database_code_depnum_ccdc_archive 'CCDC 826371'
_chemical_formula_sum 'C20 H38 Co3 N4 O23 S3'
_chemical_formula_moiety
;
(C10 H12 Co1 N2 O10 S2 2-)n,n(C10 H14 Co1 N2 O7 S1),n(H12 Co1 O6 2+)
;
_journal_coeditor_code "IUCr WQ3017"
_journal_coden_Cambridge 591
_journal_volume 68
_journal_year 2012
_journal_page_first m265
_journal_name_full 'Acta Crystallogr.,Sect.C:Cryst.Struct.Commun. '
loop_
_publ_author_name
"Kai-Long Zhong"
"Ming-Yi Qian"
_chemical_name_systematic
;
catena-[hexaaqua-cobalt(ii) 
(\m~2~-4,4'-bipyridine)-diaqua-bis(sulfato)-cobalt(ii) 
(\m~2~-4,4'-bipyridine)-triaqua-(sulfato)-cobalt(ii)]
;
_cell_volume    857.383
_exptl_crystal_colour 'pink'
_exptl_crystal_density_diffrn 1.889
_exptl_crystal_description 'block'
_diffrn_ambient_temperature 223.2
#These two values have been output from a single CSD field.
_refine_ls_R_factor_gt 0.0261
_refine_ls_wR_factor_gt 0.0261
_symmetry_cell_setting triclinic
_symmetry_space_group_name_H-M 'P 1'
_symmetry_Int_Tables_number 1
loop_
_symmetry_equiv_pos_site_id
_symmetry_equiv_pos_as_xyz
1 x,y,z
_cell_length_a 7.2860(15)
_cell_length_b 11.246(2)
_cell_length_c 11.462(2)
_cell_angle_alpha 72.21(3)
_cell_angle_beta 73.57(3)
_cell_angle_gamma 83.50(3)
_cell_formula_units_Z 1
loop_
_atom_type_symbol
_atom_type_radius_bond
C 0.68
H 0.23
Co 1.26
N 0.68
O 0.68
S 1.02
loop_
_atom_site_label
_atom_site_type_symbol
_atom_site_fract_x
_atom_site_fract_y
_atom_site_fract_z
Co1 Co 0.00000(9) 0.50000(6) 0.24567(5)
Co2 Co 0.50218(10) 0.00192(7) 0.71794(6)
Co3 Co 0.50690(11) -0.00978(7) 0.21887(7)
S1 S 0.44606(17) 0.40461(11) 0.20092(11)
S2 S 0.91175(17) -0.00961(11) 0.49236(11)
S3 S 0.09428(17) -0.00163(11) 0.95204(10)
O1 O 0.4814(5) 0.5366(3) 0.1842(4)
O2 O 0.5603(6) 0.3684(4) 0.0896(3)
O3 O 0.4979(5) 0.3232(4) 0.3148(3)
O4 O 0.2432(5) 0.3919(4) 0.2152(4)
O5 O 0.9806(6) -0.0842(4) 0.6012(4)
O6 O 0.9383(6) -0.0833(4) 0.4029(4)
O7 O 1.0165(6) 0.1052(4) 0.4298(4)
O8 O 0.7035(5) 0.0226(3) 0.5345(3)
O9 O 0.0684(5) 0.0797(4) 1.0351(4)
O10 O 0.0129(5) 0.0626(4) 0.8446(3)
O11 O -0.0041(6) -0.1192(4) 1.0245(4)
O12 O 0.3017(5) -0.0303(3) 0.9057(3)
N1 N 0.4733(7) -0.1847(4) 0.7266(4)
N2 N 0.5282(6) -0.8141(4) 0.7158(4)
N3 N 0.0172(6) 0.4964(4) 0.4323(3)
N4 N -0.0110(6) 0.5045(4) 1.0566(3)
C1 C 0.4927(9) -0.2789(5) 0.8260(5)
H1 H 0.49820 -0.26080 0.89890
C2 C 0.5052(9) -0.4024(5) 0.8266(5)
H2 H 0.52110 -0.46500 0.89820
C3 C 0.4942(8) -0.4330(5) 0.7214(5)
C4 C 0.4620(9) -0.3350(5) 0.6200(5)
H3 H 0.44510 -0.35100 0.54870
C5 C 0.4553(9) -0.2141(5) 0.6261(5)
H4 H 0.43730 -0.14950 0.55650
C6 C 0.5253(9) -0.7837(5) 0.8203(5)
H5 H 0.53070 -0.84770 0.89330
C7 C 0.5148(10) -0.6624(5) 0.8251(5)
H6 H 0.50940 -0.64610 0.90080
C8 C 0.5121(8) -0.5645(5) 0.7174(5)
C9 C 0.5234(9) -0.5960(5) 0.6075(5)
H7 H 0.52780 -0.53380 0.53160
C10 C 0.5280(8) -0.7203(5) 0.6116(4)
H8 H 0.53100 -0.73950 0.53770
C11 C 0.0450(8) 0.3922(5) 0.5203(5)
H9 H 0.06880 0.31780 0.49820
C12 C 0.0405(9) 0.3886(5) 0.6426(5)
H10 H 0.06000 0.31280 0.70030
C13 C 0.0069(7) 0.4977(5) 0.6802(4)
C14 C -0.0193(8) 0.6061(5) 0.5870(5)
H11 H -0.03970 0.68240 0.60530
C15 C -0.0150(8) 0.6011(5) 0.4670(4)
H12 H -0.03590 0.67510 0.40740
C16 C -0.0361(8) 0.6078(5) 0.9662(5)
H13 H -0.05930 0.68290 0.98690
C17 C -0.0300(9) 0.6102(5) 0.8453(5)
H14 H -0.04590 0.68560 0.78600
C18 C 0.0000(8) 0.4996(5) 0.8109(4)
C19 C 0.0241(9) 0.3922(5) 0.9038(4)
H15 H 0.04470 0.31580 0.88570
C20 C 0.0178(8) 0.3972(5) 1.0234(5)
H16 H 0.03420 0.32310 1.08430
O13 O 0.2806(5) 0.0689(4) 0.6283(3)
H17 H 0.18750 0.06560 0.68890
H18 H 0.25610 0.04500 0.57410
O14 O 0.7302(5) -0.0594(3) 0.8092(3)
H19 H 0.81670 -0.08360 0.75750
H20 H 0.76910 -0.00720 0.83190
O15 O -0.1445(5) 0.3340(3) 0.3216(3)
H21 H -0.09320 0.26880 0.35520
H22 H -0.25270 0.32080 0.32120
O16 O 0.1576(5) 0.6711(3) 0.1778(3)
H23 H 0.14100 0.72950 0.11770
H24 H 0.26920 0.64520 0.16340
O17 O -0.2586(5) 0.6059(4) 0.2704(4)
H25 H -0.27580 0.67360 0.28550
H26 H -0.34030 0.59490 0.23840
O18 O 0.7459(5) -0.1278(3) 0.2532(3)
H27 H 0.79030 -0.11470 0.30630
H28 H 0.82780 -0.12000 0.18570
O19 O 0.2731(6) 0.1037(4) 0.1880(4)
H29 H 0.20680 0.13530 0.24220
H30 H 0.21790 0.10780 0.13360
O20 O 0.4817(6) 0.0654(4) 0.3679(3)
H31 H 0.43290 0.13600 0.35400
H32 H 0.54080 0.05370 0.42180
O21 O 0.6757(6) 0.1339(4) 0.0936(4)
H33 H 0.63660 0.19950 0.11060
H34 H 0.79280 0.12800 0.07890
O22 O 0.5297(6) -0.1009(4) 0.0751(3)
H35 H 0.45760 -0.08310 0.02840
H36 H 0.64200 -0.09540 0.03380
O23 O 0.3219(6) -0.1573(4) 0.3334(4)
H37 H 0.21310 -0.12640 0.34430
H38 H 0.33420 -0.20840 0.29350
Co1* Co 0.00000(9) 0.50000(6) 1.24567(5)
Co2* Co 0.50218(10) -0.99808(7) 0.71794(6)
N2* N 0.5282(6) 0.1859(4) 0.7158(4)
N4* N -0.0110(6) 0.5045(4) 0.0566(3)
#END
