
#######################################################################
#
#                 Cambridge Crystallographic Data Centre
#                                CCDC
#
#######################################################################
#
# If this CIF has been generated from an entry in the Cambridge
# Structural Database, then it will include bibliographic, chemical,
# crystal, experimental, refinement or atomic coordinate data resulting
# from the CCDC's data processing and validation procedures.
#
#######################################################################

data_CSD_CIF_BEDSEL
_audit_creation_date 2017-10-17
_audit_creation_method CSD-ConQuest-V1
_database_code_CSD BEDSEL
_database_code_depnum_ccdc_archive 'CCDC 1508886'
_chemical_formula_sum 'C63 H62 Eu2 N10 O18'
_chemical_formula_moiety
;
(C55 H38 Eu2 N7 O15 1-)n,2(C3 H7 N1 O1),C2 H8 N1 1+,H2 O1
;
_journal_coden_Cambridge 1078
_journal_year 2017
_journal_name_full 'CSD Communication(Private Communication) '
loop_
_publ_author_name
"Gao-Peng Li"
"Hong-Yun Yang"
"Yong-Zhi Li"
"Lei Hou"
"Bin Liu"
"Yao-Yu Wang"
_chemical_name_systematic
;
catena-[dimethylammonium 
(\m-formato)-tris(\m-4'-(1H-pyrazol-3-yl)biphenyl-3,5-dicarboxylato)-(N,N-dime
thylformamide)-di-europium N,N-dimethylformamide solvate monohydrate]
;
_cell_volume   3396.195
_exptl_crystal_colour 'colorless'
_exptl_crystal_density_diffrn 1.517
_exptl_crystal_description 'prism'
_diffrn_ambient_temperature 296
_refine_special_details
;
C28,N3 disordered by symmetry over two configurations with occupancy 0.50; 
C30,C31,C32,N5 and C30',C31',C32',N5' disordered over two sites with 
occupancies 0.50:0.50; O1W and O1W' disordered over two sites with 
occupancies 0.50:0.50.
;
#These two values have been output from a single CSD field.
_refine_ls_R_factor_gt 0.0562
_refine_ls_wR_factor_gt 0.0562
_symmetry_cell_setting monoclinic
_symmetry_space_group_name_H-M 'P 21/m'
_symmetry_Int_Tables_number 11
loop_
_symmetry_equiv_pos_site_id
_symmetry_equiv_pos_as_xyz
1 x,y,z
2 -x,1/2+y,-z
3 -x,-y,-z
4 x,-1/2-y,z
_cell_length_a 10.2637(17)
_cell_length_b 18.313(3)
_cell_length_c 18.174(3)
_cell_angle_alpha 90
_cell_angle_beta 96.168(3)
_cell_angle_gamma 90
_cell_formula_units_Z 2
loop_
_atom_type_symbol
_atom_type_radius_bond
C 0.68
H 0.23
Eu 1.98
N 0.68
O 0.68
loop_
_atom_site_label
_atom_site_type_symbol
_atom_site_fract_x
_atom_site_fract_y
_atom_site_fract_z
Eu1 Eu 0.84980(3) 0.434386(19) 0.949037(17)
O1 O 1.0081(5) 0.4274(3) 0.8600(3)
O2 O 1.1285(5) 0.4900(3) 0.9467(2)
O3 O 1.6173(5) 0.4636(4) 0.9360(3)
O4 O 1.6909(5) 0.4328(3) 0.8320(2)
O5 O 0.9809(5) 0.6224(3) 0.9753(3)
O6 O 0.8478(5) 0.5556(3) 0.8966(3)
O7 O 0.8333(5) 0.3102(3) 0.9043(3)
O8 O 0.7401(7) 0.3656(4) 1.0399(4)
C1 C 1.1133(7) 0.4566(4) 0.8851(4)
C2 C 1.2285(7) 0.4543(4) 0.8408(3)
C3 C 1.3554(7) 0.4572(4) 0.8746(4)
H1 H 1.37210 0.46230 0.92570
C4 C 1.4575(7) 0.4523(4) 0.8306(4)
C5 C 1.4344(7) 0.4497(4) 0.7544(4)
H2 H 1.50470 0.44720 0.72620
C6 C 1.3072(7) 0.4508(4) 0.7196(4)
C7 C 1.2058(7) 0.4506(4) 0.7633(4)
H3 H 1.12010 0.44790 0.74100
C8 C 1.5957(7) 0.4503(4) 0.8680(4)
C9 C 1.2806(7) 0.4555(5) 0.6377(4)
C10 C 1.3582(8) 0.4936(6) 0.5947(4)
H4 H 1.43350 0.51600 0.61730
C11 C 1.3295(9) 0.5001(6) 0.5203(4)
H5 H 1.38570 0.52670 0.49370
C12 C 1.2204(8) 0.4687(5) 0.4834(4)
C13 C 1.1402(10) 0.4311(7) 0.5249(4)
H6 H 1.06420 0.40980 0.50190
C14 C 1.1699(10) 0.4238(7) 0.6009(4)
H7 H 1.11410 0.39710 0.62770
C15 C 1.1880(8) 0.4737(6) 0.4018(4)
C16 C 1.0810(9) 0.4459(7) 0.3574(4)
H8 H 1.00980 0.42070 0.37250
C17 C 1.1031(9) 0.4636(6) 0.2873(4)
H9 H 1.04780 0.45280 0.24480
C18 C 0.8943(7) 0.6151(4) 0.9211(4)
C19 C 0.8529(7) 0.6842(4) 0.8821(4)
C20 C 0.890(1) 0.75000 0.9154(5)
H10 H 0.94090 0.75000 0.96090
C21 C 0.7789(8) 0.6836(4) 0.8127(4)
C22 C 0.7471(11) 0.75000 0.7768(6)
C23 C 0.6779(13) 0.75000 0.6983(6)
C24 C 0.6483(12) 0.6866(6) 0.6596(5)
H11 H 0.66240 0.64220 0.68410
C25 C 0.5992(14) 0.6858(7) 0.5869(6)
H12 H 0.58060 0.64140 0.56330
C26 C 0.5766(16) 0.75000 0.5478(7)
C27 C 0.529(3) 0.75000 0.4688(10)
C28 C 0.8256(11) 0.25000 0.9350(6)
H13 H 0.81300 0.25000 0.98490
C29 C 0.725(3) 0.362(2) 1.1052(17)
H14 H 0.80000 0.36440 1.13890
C30 C 0.618(4) 0.356(2) 1.2151(12)
H15 H 0.70880 0.35670 1.23500
H16 H 0.57680 0.31310 1.23240
H17 H 0.57510 0.39870 1.23090
C31 C 0.490(2) 0.3531(15) 1.0812(13)
H18 H 0.51270 0.35470 1.03140
H19 H 0.43630 0.39460 1.09000
H20 H 0.44200 0.30900 1.08840
N1 N 1.2720(7) 0.5069(5) 0.3603(4)
N2 N 1.2146(8) 0.4982(5) 0.2894(4)
H21 H 1.24800 0.51370 0.25090
N3 N 0.5049(17) 0.6922(10) 0.4231(7)
N4 N 0.4677(18) 0.7111(9) 0.3535(7)
N5 N 0.609(2) 0.355(3) 1.1330(11)
O9 O 0.178(2) 0.25000 0.7553(11)
C32 C 0.298(3) 0.25000 0.783(2)
H22 H 0.36300 0.25000 0.75110
C33 C 0.471(2) 0.25000 0.8766(16)
H23 H 0.51660 0.25000 0.83330
H24 H 0.49390 0.29280 0.90550
C34 C 0.235(3) 0.25000 0.9028(15)
H25 H 0.15060 0.25000 0.87380
H26 H 0.24260 0.20720 0.93340
N6 N 0.333(2) 0.25000 0.8541(13)
C35 C 0.8693(18) 0.3179(9) 0.7248(9)
H27 H 0.90170 0.35940 0.75340
H28 H 0.77520 0.31800 0.72000
H29 H 0.89900 0.32030 0.67650
N7 N 0.9186(17) 0.25000 0.7623(8)
H30 H 1.00670 0.25000 0.76560
H31 H 0.89550 0.25000 0.80870
O10 O 0.930(7) 0.25000 0.444(8)
C36? C 0.673(4) 0.371(2) 1.0806(14)
H32? H 0.60020 0.39730 1.06060
C37? C 0.538(3) 0.362(2) 1.1860(19)
H33? H 0.46690 0.37100 1.14850
H34? H 0.54870 0.40210 1.21990
H35? H 0.52190 0.31770 1.21190
C38? C 0.783(3) 0.3373(19) 1.1953(18)
H36? H 0.85150 0.33220 1.16360
H37? H 0.77470 0.29270 1.22220
H38? H 0.80400 0.37650 1.22950
N8? N 0.659(3) 0.353(3) 1.1502(13)
O11? O 0.816(6) 0.25000 0.470(7)
C39? C 0.5049(17) 0.6922(10) 0.4231(7)
H39? H 0.52340 0.63370 0.43890
H40? H 0.44480 0.68210 0.31420
O5C O 0.9809(5) 0.8776(3) 0.9753(3)
O6C O 0.8478(5) 0.9444(3) 0.8966(3)
C18C C 0.8943(7) 0.8849(4) 0.9211(4)
C19C C 0.8529(7) 0.8158(4) 0.8821(4)
C21C C 0.7789(8) 0.8164(4) 0.8127(4)
C24C C 0.6483(12) 0.8134(6) 0.6596(5)
H11C H 0.66240 0.85780 0.68410
C25C C 0.5992(14) 0.8142(7) 0.5869(6)
H12C H 0.58060 0.85860 0.56330
N3C N 0.5049(17) 0.8078(10) 0.4231(7)
N4C N 0.4677(18) 0.7889(9) 0.3535(7)
O7C O 0.8333(5) 0.1898(3) 0.9043(3)
Eu1B Eu 1.15020(3) 0.565614(19) 1.050963(17)
O1B O 0.9919(5) 0.5726(3) 1.1400(3)
O2B O 0.8715(5) 0.5100(3) 1.0533(2)
O3B O 0.3827(5) 0.5364(4) 1.0640(3)
O4B O 0.3091(5) 0.5672(3) 1.1680(2)
O8B O 1.2599(7) 0.6344(4) 0.9601(4)
C1B C 0.8867(7) 0.5434(4) 1.1149(4)
C2B C 0.7715(7) 0.5457(4) 1.1592(3)
C3B C 0.6446(7) 0.5428(4) 1.1254(4)
H1B H 0.62790 0.53770 1.07430
C4B C 0.5425(7) 0.5477(4) 1.1694(4)
C5B C 0.5656(7) 0.5503(4) 1.2456(4)
H2B H 0.49530 0.55280 1.27380
C6B C 0.6928(7) 0.5492(4) 1.2804(4)
C7B C 0.7942(7) 0.5494(4) 1.2367(4)
H3B H 0.87990 0.55210 1.25900
C8B C 0.4043(7) 0.5497(4) 1.1320(4)
C9B C 0.7194(7) 0.5445(5) 1.3623(4)
C10B C 0.6418(8) 0.5064(6) 1.4053(4)
H4B H 0.56650 0.48400 1.38270
C11B C 0.6705(9) 0.4999(6) 1.4797(4)
H5B H 0.61430 0.47330 1.50630
C12B C 0.7796(8) 0.5313(5) 1.5166(4)
C13B C 0.8598(10) 0.5689(7) 1.4751(4)
H6B H 0.93580 0.59020 1.49810
C14B C 0.8301(10) 0.5762(7) 1.3991(4)
H7B H 0.88590 0.60290 1.37230
C15B C 0.8120(8) 0.5263(6) 1.5982(4)
C16B C 0.9190(9) 0.5541(7) 1.6426(4)
H8B H 0.99020 0.57930 1.62750
C17B C 0.8969(9) 0.5364(6) 1.7127(4)
H9B H 0.95220 0.54720 1.75520
C29B C 1.275(3) 0.638(2) 0.8948(17)
H14B H 1.20000 0.63560 0.86110
C30B C 1.382(4) 0.644(2) 0.7849(12)
H15B H 1.29120 0.64330 0.76500
H16B H 1.42320 0.68690 0.76760
H17B H 1.42490 0.60130 0.76910
C31B C 1.510(2) 0.6469(15) 0.9188(13)
H18B H 1.48730 0.64530 0.96860
H19B H 1.56370 0.60540 0.91000
H20B H 1.55800 0.69100 0.91160
N1B N 0.7280(7) 0.4931(5) 1.6397(4)
N2B N 0.7854(8) 0.5018(5) 1.7106(4)
H21B H 0.75200 0.48630 1.74910
N5B N 1.391(2) 0.645(3) 0.8670(11)
Eu1* Eu 1.84980(3) 0.434386(19) 0.949037(17)
Eu1A Eu 1.15020(3) 0.934386(19) 1.050963(17)
Eu1B* Eu 0.15020(3) 0.565614(19) 1.050963(17)
Eu1C Eu 0.84980(3) 0.065614(19) 0.949037(17)
Eu1C* Eu 0.84980(3) 1.065614(19) 0.949037(17)
O3* O 0.6173(5) 0.4636(4) 0.9360(3)
O3B* O 1.3827(5) 0.5364(4) 1.0640(3)
O4* O 0.6909(5) 0.4328(3) 0.8320(2)
O4B* O 1.3091(5) 0.5672(3) 1.1680(2)
O5B O 1.0191(5) 0.3776(3) 1.0247(3)
O6B O 1.1522(5) 0.4444(3) 1.1034(3)
O7B O 1.1667(5) 0.6898(3) 1.0957(3)
H24C H 0.49390 0.20720 0.90550
H26C H 0.24260 0.29280 0.93340
C35C C 0.8693(18) 0.1821(9) 0.7248(9)
H27C H 0.90170 0.14060 0.75340
H28C H 0.77520 0.18200 0.72000
H29C H 0.89900 0.17970 0.67650
#END
