
#######################################################################
#
#                 Cambridge Crystallographic Data Centre
#                                CCDC
#
#######################################################################
#
# If this CIF has been generated from an entry in the Cambridge
# Structural Database, then it will include bibliographic, chemical,
# crystal, experimental, refinement or atomic coordinate data resulting
# from the CCDC's data processing and validation procedures.
#
#######################################################################

data_CSD_CIF_BEHFAY01
_audit_creation_date 2017-10-25
_audit_creation_method CSD-ConQuest-V1
_database_code_CSD BEHFAY01
_database_code_depnum_ccdc_archive 'CCDC 1442432'
_chemical_formula_sum 'C60 H58 Co2 N20 O15'
_chemical_formula_moiety
;
(C50 H36 Co1 N18 O8 2-)n,n(C10 H16 Co1 N2 O4 2+),3(H2 O1)
;
_journal_coden_Cambridge 2031
_journal_volume 2
_journal_year 2016
_journal_page_first 1
_journal_name_full 'Magnetochem. '
loop_
_publ_author_name
"S.Benmansour"
"S.Triki"
"C.J.Gomez-Garcia"
_chemical_name_systematic
;
catena-[(\m-4,4'-bipyridine)-tetraaqua-manganese(ii) 
(\m-4,4'-bipyridine)-tetrakis(1,1,3,3-tetracyano-2-(3-hydroxypropoxy)propenido
)-cobalt(ii) trihydrate]
;
_cell_volume   3334.492
_exptl_crystal_colour 'yellow'
_exptl_crystal_density_diffrn 1.411
_exptl_special_details
;
Magnetic properties

;
_exptl_crystal_description 'Plate'
_diffrn_ambient_temperature 170
#These two values have been output from a single CSD field.
_refine_ls_R_factor_gt 0.0496
_refine_ls_wR_factor_gt 0.0496
_symmetry_cell_setting monoclinic
_symmetry_space_group_name_H-M 'P 2/n'
_symmetry_Int_Tables_number 13
loop_
_symmetry_equiv_pos_site_id
_symmetry_equiv_pos_as_xyz
1 x,y,z
2 1/2-x,y,1/2-z
3 -x,-y,-z
4 -1/2+x,-y,-1/2+z
_cell_length_a 16.2245(8)
_cell_length_b 11.3941(4)
_cell_length_c 18.0389(8)
_cell_angle_alpha 90
_cell_angle_beta 90.693(5)
_cell_angle_gamma 90
_cell_formula_units_Z 2
loop_
_atom_type_symbol
_atom_type_radius_bond
C 0.68
H 0.23
Co 1.26
N 0.68
O 0.68
loop_
_atom_site_label
_atom_site_type_symbol
_atom_site_fract_x
_atom_site_fract_y
_atom_site_fract_z
Co1 Co 0.75000 0.45605(9) 0.25000
C1 C 0.6672(3) 0.4517(4) 0.4125(4)
C2 C 0.6317(4) 0.5800(5) 0.5112(3)
C3 C 0.5403(3) 0.4624(6) 0.6255(3)
C4 C 0.5407(5) 0.2568(7) 0.6214(4)
C5 C 0.5692(3) 0.4593(5) 0.1693(3)
C6 C 0.4572(4) 0.3354(6) 0.1346(3)
C7 C 0.3655(3) 0.4220(5) 0.0092(3)
C8 C 0.3531(3) 0.6346(5) 0.0121(3)
C9 C 0.5977(3) 0.3614(5) 0.5162(3)
C10 C 0.6309(3) 0.4629(5) 0.4822(3)
C11 C 0.5576(4) 0.3590(5) 0.5844(3)
C12 C 0.5566(4) 0.1667(5) 0.4744(3)
H1 H 0.49880 0.19460 0.47630
H2 H 0.56690 0.11440 0.51740
C13 C 0.5712(4) 0.1033(5) 0.4044(4)
H3 H 0.53730 0.03100 0.40420
H4 H 0.62970 0.07910 0.40340
C14 C 0.5515(4) 0.1733(6) 0.3330(4)
H5 H 0.58590 0.24500 0.33200
H6 H 0.56560 0.12500 0.28930
C15 C 0.4532(3) 0.5427(5) 0.0927(3)
C16 C 0.4913(3) 0.4508(5) 0.1332(3)
C17 C 0.3898(3) 0.5311(5) 0.0411(3)
C18 C 0.5216(3) 0.7040(5) 0.1630(3)
H7 H 0.58130 0.68800 0.15900
H8 H 0.50170 0.66950 0.20980
C19 C 0.5056(3) 0.8351(5) 0.1616(3)
H9 H 0.44610 0.84890 0.16950
H10 H 0.53620 0.87200 0.20340
C20 C 0.5304(4) 0.8942(5) 0.0905(4)
H11 H 0.49970 0.85740 0.04870
H12 H 0.51390 0.97770 0.09260
C21 C 0.7260(4) 0.7076(5) 0.3062(3)
H13 H 0.70770 0.66670 0.34880
C22 C 0.7251(4) 0.8295(5) 0.3088(3)
H14 H 0.70690 0.86830 0.35230
C23 C 0.75000 0.8929(6) 0.25000
C24 C 0.7753(3) 1.2076(4) 0.3085(3)
H15 H 0.79380 1.24940 0.35110
C25 C 0.7760(3) 1.0868(5) 0.3108(3)
H16 H 0.79450 1.04760 0.35440
C26 C 0.75000 1.0225(7) 0.25000
N1 N 0.6972(3) 0.4511(4) 0.3548(3)
N2 N 0.6351(3) 0.6770(4) 0.5261(3)
N3 N 0.5255(3) 0.5442(5) 0.6606(3)
N4 N 0.5273(6) 0.1725(6) 0.6557(4)
N5 N 0.6329(3) 0.4590(4) 0.1985(2)
N6 N 0.4322(3) 0.2436(5) 0.1391(3)
N7 N 0.3448(3) 0.3383(4) -0.0200(3)
N8 N 0.3233(3) 0.7185(5) -0.0096(3)
N9 N 0.75000 0.6447(5) 0.25000
N10 N 0.75000 1.2681(5) 0.25000
O1 O 0.6125(2) 0.2646(3) 0.4763(2)
O2 O 0.4673(3) 0.2056(4) 0.3281(2)
O3 O 0.4771(2) 0.6546(3) 0.10005(19)
O4 O 0.6161(3) 0.8879(4) 0.0758(2)
Co2 Co 0.75000 0.95830(9) 0.75000
C27 C 0.7523(4) 1.2081(5) 0.6881(3)
H17 H 0.75330 1.16650 0.64250
C28 C 0.7532(4) 1.3303(5) 0.6855(3)
H18 H 0.75610 1.36940 0.63910
C29 C 0.75000 1.3943(7) 0.75000
C30 C 0.7391(3) 1.7085(5) 0.6880(3)
H19 H 0.73160 1.74980 0.64260
C31 C 0.7379(3) 1.5875(5) 0.6858(3)
H20 H 0.72880 1.54790 0.64010
C32 C 0.75000 1.5244(6) 0.75000
N11 N 0.75000 1.1470(5) 0.75000
N12 N 0.75000 1.7711(5) 0.75000
O5 O 0.8300(2) 0.9565(3) 0.65864(19)
H21 H 0.825(4) 0.969(5) 0.6122(9)
O6 O 0.6458(2) 0.9614(3) 0.68100(19)
O7 O 0.6585(6) 0.9262(8) 0.5199(6)
O8 O 0.8006(3) 0.0333(4) 0.5178(2)
H22 H 0.819(5) 0.102(3) 0.527(4)
C21A C 0.7740(4) 0.7076(5) 0.1938(3)
H13A H 0.79230 0.66670 0.15120
C22A C 0.7749(4) 0.8295(5) 0.1912(3)
H14A H 0.79310 0.86830 0.14770
C24A C 0.7247(3) 1.2076(4) 0.1915(3)
H15A H 0.70620 1.24940 0.14890
C25A C 0.7240(3) 1.0868(5) 0.1892(3)
H16A H 0.70550 1.04760 0.14560
C1A C 0.8328(3) 0.4517(4) 0.0875(4)
C2A C 0.8683(4) 0.5800(5) -0.0112(3)
C3A C 0.9597(3) 0.4624(6) -0.1255(3)
C4A C 0.9593(5) 0.2568(7) -0.1214(4)
C5A C 0.9308(3) 0.4593(5) 0.3307(3)
C6A C 1.0428(4) 0.3354(6) 0.3654(3)
C7A C 1.1345(3) 0.4220(5) 0.4908(3)
C8A C 1.1469(3) 0.6346(5) 0.4879(3)
C9A C 0.9023(3) 0.3614(5) -0.0162(3)
C10A C 0.8691(3) 0.4629(5) 0.0178(3)
C11A C 0.9424(4) 0.3590(5) -0.0844(3)
C12A C 0.9434(4) 0.1667(5) 0.0256(3)
H1A H 1.00120 0.19460 0.02370
H2A H 0.93310 0.11440 -0.01740
C13A C 0.9288(4) 0.1033(5) 0.0956(4)
H3A H 0.96270 0.03100 0.09580
H4A H 0.87030 0.07910 0.09660
C14A C 0.9485(4) 0.1733(6) 0.1670(4)
H5A H 0.91410 0.24500 0.16800
H6A H 0.93440 0.12500 0.21070
C15A C 1.0468(3) 0.5427(5) 0.4073(3)
C16A C 1.0087(3) 0.4508(5) 0.3668(3)
C17A C 1.1102(3) 0.5311(5) 0.4589(3)
C18A C 0.9784(3) 0.7040(5) 0.3370(3)
H7A H 0.91870 0.68800 0.34100
H8A H 0.99830 0.66950 0.29020
C19A C 0.9944(3) 0.8351(5) 0.3384(3)
H9A H 1.05390 0.84890 0.33050
H10A H 0.96380 0.87200 0.29660
C20A C 0.9696(4) 0.8942(5) 0.4095(4)
H11A H 1.00030 0.85740 0.45130
H12A H 0.98610 0.97770 0.40740
N1A N 0.8028(3) 0.4511(4) 0.1452(3)
N2A N 0.8649(3) 0.6770(4) -0.0261(3)
N3A N 0.9745(3) 0.5442(5) -0.1606(3)
N4A N 0.9727(6) 0.1725(6) -0.1557(4)
N5A N 0.8671(3) 0.4590(4) 0.3015(2)
N6A N 1.0678(3) 0.2436(5) 0.3609(3)
N7A N 1.1552(3) 0.3383(4) 0.5200(3)
N8A N 1.1767(3) 0.7185(5) 0.5096(3)
O1A O 0.8875(2) 0.2646(3) 0.0237(2)
O2A O 1.0327(3) 0.2056(4) 0.1719(2)
O3A O 1.0229(2) 0.6546(3) 0.39995(19)
O4A O 0.8839(3) 0.8879(4) 0.4242(2)
Co1* Co 0.75000 1.45605(9) 0.25000
N10* N 0.75000 0.2681(5) 0.25000
C27A C 0.7477(4) 1.2081(5) 0.8119(3)
H17A H 0.74670 1.16650 0.85750
C28A C 0.7468(4) 1.3303(5) 0.8145(3)
H18A H 0.74390 1.36940 0.86090
C30A C 0.7609(3) 1.7085(5) 0.8120(3)
H19A H 0.76840 1.74980 0.85740
C31A C 0.7621(3) 1.5875(5) 0.8142(3)
H20A H 0.77120 1.54790 0.85990
O5A O 0.6700(2) 0.9565(3) 0.84136(19)
H21A H 0.675(4) 0.969(5) 0.8878(9)
O6A O 0.8542(2) 0.9614(3) 0.81900(19)
Co2* Co 0.75000 1.95830(9) 0.75000
N12* N 0.75000 0.7711(5) 0.75000
#END
