
#######################################################################
#
#                 Cambridge Crystallographic Data Centre
#                                CCDC
#
#######################################################################
#
# If this CIF has been generated from an entry in the Cambridge
# Structural Database, then it will include bibliographic, chemical,
# crystal, experimental, refinement or atomic coordinate data resulting
# from the CCDC's data processing and validation procedures.
#
#######################################################################

data_CSD_CIF_BEHMAD01
_audit_creation_date 2004-07-02
_audit_creation_method CSD-ConQuest-V1
_database_code_CSD BEHMAD01
_database_code_depnum_ccdc_archive 'CCDC 233707'
_database_code_depnum_ccdc_journal 1267/1137
_chemical_formula_sum 'C24 H60 Ge9 K3 N8 O6'
_chemical_formula_moiety
;
(C18 H36 K1 N2 O6 1+)n,n(C6 H24 Ge9 K2 N6 1-)
;
_journal_coden_Cambridge 1267
_journal_volume 218
_journal_year 2003
_journal_page_first 461
_journal_name_full 'Z.Kristallogr.-New Cryst.Struct. '
loop_
_publ_author_name
"R.Hauptmann"
"T.F.Fassler"
_chemical_name_systematic
;
catena-((4,7,13,16,21,24-Hexaoxa-1,10-diazabicyclo(8.8.8)-hexacosane)-potassiu
m (\m~2~-ethylene-1,2-diamine)-bis(ethylenediamine)-di-potassium 
bis(nonagermanide))
;
_chemical_name_common
;
catena-[(2,2,2-Cryptand)-potassium 
(mu!2$-ethylene-1,2-diamine)-bis(ethylenediamine)-di-potassium 
bis(nonagermanide)]
;
_cell_volume   2426.834
_exptl_crystal_colour 'dark red'
_exptl_crystal_density_diffrn 1.817
_exptl_crystal_description 'column'
_diffrn_ambient_temperature ?
_diffrn_special_details
;
The study was carried out at room temperature,in the range 283-303K

;
#These two values have been output from a single CSD field.
_refine_ls_R_factor_gt 0.0639
_refine_ls_wR_factor_gt 0.0639
_symmetry_cell_setting triclinic
_symmetry_space_group_name_H-M 'P -1'
_symmetry_Int_Tables_number 2
loop_
_symmetry_equiv_pos_site_id
_symmetry_equiv_pos_as_xyz
1 x,y,z
2 -x,-y,-z
_cell_length_a 9.4080(19)
_cell_length_b 13.606(3)
_cell_length_c 19.507(4)
_cell_angle_alpha 84.74(3)
_cell_angle_beta 81.35(3)
_cell_angle_gamma 80.18(3)
_cell_formula_units_Z 2
loop_
_atom_type_symbol
_atom_type_radius_bond
C 0.68
H 0.23
Ge 1.47
K 2.04
N 0.68
O 0.68
loop_
_atom_site_label
_atom_site_type_symbol
_atom_site_fract_x
_atom_site_fract_y
_atom_site_fract_z
Ge1 Ge 0.78786(7) 0.40615(5) 0.08890(3)
Ge2 Ge 0.38091(6) 0.45673(5) 0.17495(3)
Ge3 Ge 0.53917(6) 0.48421(4) 0.05940(3)
Ge4 Ge 0.63308(7) 0.36607(4) 0.20963(3)
Ge5 Ge 0.51204(6) 0.53792(4) 0.25557(3)
Ge6 Ge 0.79905(6) 0.50343(5) 0.19306(3)
Ge7 Ge 0.43036(6) 0.64045(4) 0.12954(3)
Ge8 Ge 0.72121(6) 0.60498(4) 0.06794(3)
Ge9 Ge 0.63867(7) 0.67906(5) 0.18785(3)
K1 K 1.10440(15) 0.55587(13) 0.08275(8)
K2 K 1.5177(3) 0.75855(13) -0.06099(11)
N1 N 1.0019(8) 0.7550(6) 0.1224(4)
H1 H 0.92130 0.75220 0.15340
H2 H 1.06940 0.77100 0.14570
N2 N 1.2196(12) 0.8117(10) 0.0076(6)
H3 H 1.17460 0.78140 -0.02020
H4 H 1.22560 0.76850 0.04530
N3 N 1.3965(16) 0.8939(6) -0.1655(5)
H5 H 1.31230 0.92330 -0.14230
H6 H 1.37000 0.85250 -0.19310
N4 N 1.3732(7) 1.0908(5) -0.3124(3)
H7 H 1.44820 1.11730 -0.30880
H8 H 1.31870 1.11440 -0.34360
C1 C 0.9657(12) 0.8412(7) 0.0725(7)
H9 H 0.90780 0.89630 0.09730
H10 H 0.90870 0.82270 0.03970
C2 C 1.1068(19) 0.8743(9) 0.0330(8)
H11 H 1.07810 0.91980 -0.00560
H12 H 1.14170 0.91370 0.06400
C3 C 1.4411(13) 0.9775(7) -0.2169(7)
H13 H 1.53680 0.95540 -0.24190
H14 H 1.44720 1.03470 -0.19180
C4 C 1.3388(15) 1.0074(7) -0.2660(5)
H15 H 1.24200 1.02480 -0.24080
H16 H 1.33760 0.95120 -0.29310
N5 N 1.8214(13) 0.7420(9) -0.1230(6)
H17 H 1.83820 0.68100 -0.13990
H18 H 1.86810 0.73430 -0.08540
N6 N 1.809(5) 0.917(3) -0.150(2)
H19 H 1.75130 0.87980 -0.16010
H20 H 1.77480 0.97720 -0.13830
C5 C 1.911(2) 0.7947(14) -0.1712(9)
H21 H 2.00120 0.74990 -0.18430
H22 H 1.86400 0.81180 -0.21260
C6 C 1.948(3) 0.8829(17) -0.1508(12)
H23 H 2.01080 0.91640 -0.18580
H24 H 1.98140 0.87630 -0.10580
K3 K 1.02166(12) 0.24462(8) 0.52159(6)
O1 O 0.7094(4) 0.2436(3) 0.5375(2)
O2 O 0.8616(4) 0.3170(3) 0.4148(2)
O3 O 1.2393(5) 0.3709(3) 0.5038(2)
O4 O 1.0430(4) 0.3608(3) 0.6293(2)
O5 O 1.1047(5) 0.0607(3) 0.5972(2)
O6 O 1.2219(5) 0.0849(3) 0.4546(2)
N7 N 0.8597(5) 0.2005(4) 0.6608(3)
N8 N 1.1856(6) 0.2850(4) 0.3808(2)
C7 C 0.7144(7) 0.1789(6) 0.6556(3)
H25 H 0.65790 0.18010 0.70150
H26 H 0.72440 0.11180 0.64060
C8 C 0.6309(7) 0.2506(5) 0.6062(3)
H27 H 0.53450 0.23370 0.60720
H28 H 0.62030 0.31840 0.62020
C9 C 0.6376(6) 0.3159(4) 0.4911(3)
H29 H 0.63900 0.38270 0.50440
H30 H 0.53680 0.30690 0.49380
C10 C 0.7133(6) 0.3043(4) 0.4174(3)
H31 H 0.70870 0.23860 0.40320
H32 H 0.66540 0.35400 0.38590
C11 C 0.9360(7) 0.3060(5) 0.3454(3)
H33 H 0.87630 0.34360 0.31240
H34 H 0.95280 0.23620 0.33530
C12 C 1.0798(7) 0.3440(5) 0.3384(3)
H35 H 1.12270 0.34420 0.29000
H36 H 1.06140 0.41250 0.35150
C13 C 1.3043(7) 0.3433(5) 0.3835(3)
H37 H 1.32790 0.37670 0.33810
H38 H 1.39060 0.29780 0.39410
C14 C 1.2646(7) 0.4199(4) 0.4367(3)
H39 H 1.34310 0.45840 0.43490
H40 H 1.17770 0.46550 0.42700
C15 C 1.2253(7) 0.4389(4) 0.5570(3)
H41 H 1.15170 0.49610 0.54850
H42 H 1.31700 0.46260 0.55650
C16 C 1.1834(7) 0.3876(5) 0.6259(3)
H43 H 1.25400 0.32800 0.63300
H44 H 1.18320 0.43160 0.66230
C17 C 0.9879(7) 0.3295(5) 0.6987(3)
H45 H 0.97220 0.38540 0.72790
H46 H 1.05860 0.27730 0.71710
C18 C 0.8465(7) 0.2909(5) 0.6998(3)
H47 H 0.80710 0.27570 0.74770
H48 H 0.77750 0.34340 0.68040
C19 C 0.9397(7) 0.1141(5) 0.6973(3)
H49 H 0.87520 0.09040 0.73660
H50 H 1.01980 0.13510 0.71520
C20 C 0.9988(8) 0.0297(5) 0.6510(3)
H51 H 1.04270 -0.02780 0.67810
H52 H 0.92020 0.01040 0.63100
C21 C 1.1765(9) -0.0194(4) 0.5574(4)
H53 H 1.10650 -0.04540 0.53510
H54 H 1.22100 -0.07280 0.58760
C22 C 1.2913(8) 0.0156(5) 0.5033(4)
H55 H 1.35610 0.04740 0.52500
H56 H 1.34840 -0.04090 0.47980
C23 C 1.3258(7) 0.1149(5) 0.3997(4)
H57 H 1.37600 0.05710 0.37540
H58 H 1.39740 0.14430 0.41840
C24 C 1.2498(7) 0.1910(5) 0.3492(3)
H59 H 1.31960 0.20470 0.30900
H60 H 1.17370 0.16260 0.33320
K1A K 0.89560(15) 0.44413(13) -0.08275(8)
K1* K 0.10440(15) 0.55587(13) 0.08275(8)
K2A K 0.4823(3) 0.24145(13) 0.06099(11)
Ge3A Ge 0.46083(6) 0.51579(4) -0.05940(3)
K2* K 0.5177(3) 0.75855(13) -0.06099(11)
Ge1A Ge 1.21214(7) 0.59385(5) -0.08890(3)
Ge2* Ge 1.38091(6) 0.45673(5) 0.17495(3)
Ge7* Ge 1.43036(6) 0.64045(4) 0.12954(3)
Ge8A Ge 1.27879(6) 0.39502(4) -0.06794(3)
Ge2A Ge 1.61909(6) 0.54327(5) -0.17495(3)
Ge3A* Ge 1.46083(6) 0.51579(4) -0.05940(3)
Ge8* Ge 1.72121(6) 0.60498(4) 0.06794(3)
#END
