
#######################################################################
#
#                 Cambridge Crystallographic Data Centre
#                                CCDC
#
#######################################################################
#
# If this CIF has been generated from an entry in the Cambridge
# Structural Database, then it will include bibliographic, chemical,
# crystal, experimental, refinement or atomic coordinate data resulting
# from the CCDC's data processing and validation procedures.
#
#######################################################################

data_CSD_CIF_BEJHOQ
_audit_creation_date 2017-10-18
_audit_creation_method CSD-ConQuest-V1
_database_code_CSD BEJHOQ
_database_code_depnum_ccdc_archive 'CCDC 959338'
_chemical_formula_sum 'C26 H20 Cl8 Fe2 O8 S16'
_chemical_formula_moiety
;
2(C10 H8 S8 1+),(C4 Cl4 Fe2 O8 2-)n,2(C1 H2 Cl2)
;
_journal_coden_Cambridge 1078
_journal_year 2017
_journal_name_full 'CSD Communication(Private Communication) '
loop_
_publ_author_name
"Bin Zhang"
_chemical_name_systematic
;
catena-[bis(2-(5,6-dihydro-2H-[1,3]dithiolo[4,5-b][1,4]dithiin-2-ylidene)-5,6-
dihydro-2H-[1,3]dithiolo[4,5-b][1,4]dithiin-1-ium) 
bis(\m-oxalato)-tetrachloro-di-iron(iii) dichloromethane solvate]
;
_cell_volume   1152.532
_exptl_crystal_colour 'black'
_exptl_crystal_density_diffrn 1.972
_exptl_crystal_description 'needle'
_diffrn_ambient_temperature 193
_diffrn_radiation_probe x-ray
_diffrn_source synchrotron
#These two values have been output from a single CSD field.
_refine_ls_R_factor_gt 0.0465
_refine_ls_wR_factor_gt 0.0465
_symmetry_cell_setting triclinic
_symmetry_space_group_name_H-M 'P -1'
_symmetry_Int_Tables_number 2
loop_
_symmetry_equiv_pos_site_id
_symmetry_equiv_pos_as_xyz
1 x,y,z
2 -x,-y,-z
_cell_length_a 8.975(2)
_cell_length_b 10.874(2)
_cell_length_c 13.035(2)
_cell_angle_alpha 67.965(10)
_cell_angle_beta 78.851(10)
_cell_angle_gamma 81.254(11)
_cell_formula_units_Z 1
loop_
_atom_type_symbol
_atom_type_radius_bond
C 0.68
H 0.23
Cl 0.99
Fe 1.52
O 0.68
S 1.02
loop_
_atom_site_label
_atom_site_type_symbol
_atom_site_fract_x
_atom_site_fract_y
_atom_site_fract_z
Fe1 Fe 0.74496(6) 0.14616(5) 0.41737(4)
Cl1 Cl 0.80537(12) 0.32758(9) 0.44012(7)
Cl2 Cl 0.68435(12) 0.24340(9) 0.24261(7)
O1 O 0.6746(3) -0.0350(2) 0.4269(2)
O2 O 0.4668(3) -0.1499(2) 0.4923(2)
O3 O 0.9618(3) 0.0817(3) 0.36354(19)
O4 O 1.1785(3) -0.0242(3) 0.4271(2)
C1 C 0.5423(5) -0.0531(3) 0.4768(3)
C2 C 1.0425(4) 0.0167(3) 0.4392(3)
Cl3 Cl 0.39049(15) 0.13776(11) 0.80244(10)
Cl4 Cl 0.59065(15) -0.09520(12) 0.90909(9)
C3 C 0.5115(6) -0.0002(4) 0.7866(3)
H1 H 0.587(7) 0.031(6) 0.730(5)
H2 H 0.437(6) -0.041(5) 0.757(4)
S1 S 0.16261(12) 0.44222(9) -0.16767(7)
S2 S 0.00854(12) 0.23955(9) 0.02369(7)
S3 S 0.29745(11) 0.52951(9) 0.01865(7)
S4 S 0.12586(12) 0.32376(9) 0.19285(7)
S5 S 0.06749(12) 0.36116(9) -0.33791(7)
S6 S -0.11341(13) 0.11549(9) -0.10082(7)
S7 S 0.42813(12) 0.61044(9) 0.17201(7)
S8 S 0.24308(12) 0.33988(10) 0.38075(7)
C4 C 0.1242(4) 0.3687(3) -0.0240(3)
C5 C 0.1784(4) 0.4055(4) 0.0525(3)
C6 C 0.0634(5) 0.3366(4) -0.1971(3)
C7 C -0.0072(5) 0.2397(3) -0.1067(3)
C8 C 0.3150(5) 0.5040(4) 0.1558(3)
C9 C 0.2384(5) 0.4027(3) 0.2378(3)
C10 C 0.0278(5) 0.1967(4) -0.3229(3)
H3 H 0.02320 0.19550 -0.39790
H4 H 0.11290 0.13200 -0.29250
C11 C -0.1202(5) 0.1523(4) -0.2470(3)
H5 H -0.14560 0.07190 -0.25610
H6 H -0.20290 0.22340 -0.27100
C12 C 0.4685(5) 0.5163(4) 0.3137(3)
H7 H 0.54050 0.43800 0.31280
H8 H 0.51960 0.57280 0.33830
C13 C 0.3289(5) 0.4689(4) 0.3981(3)
H9 H 0.25200 0.54590 0.39260
H10 H 0.35740 0.43530 0.47420
O1A O 0.3254(3) 0.0350(2) 0.5731(2)
C1A C 0.4577(5) 0.0531(3) 0.5232(3)
O2A O 0.5332(3) 0.1499(2) 0.5077(2)
O3A O 1.0382(3) -0.0817(3) 0.63646(19)
C2A C 0.9575(4) -0.0167(3) 0.5608(3)
O4A O 0.8215(3) 0.0242(3) 0.5729(2)
Fe1A Fe 0.25504(6) -0.14616(5) 0.58263(4)
Cl1A Cl 0.19463(12) -0.32758(9) 0.55988(7)
Cl2A Cl 0.31565(12) -0.24340(9) 0.75739(7)
Fe1A* Fe 1.25504(6) -0.14616(5) 0.58263(4)
O3A* O 0.0382(3) -0.0817(3) 0.63646(19)
O4* O 0.1785(3) -0.0242(3) 0.4271(2)
#END
