
#######################################################################
#
#                 Cambridge Crystallographic Data Centre
#                                CCDC
#
#######################################################################
#
# If this CIF has been generated from an entry in the Cambridge
# Structural Database, then it will include bibliographic, chemical,
# crystal, experimental, refinement or atomic coordinate data resulting
# from the CCDC's data processing and validation procedures.
#
#######################################################################

data_CSD_CIF_BEKMOW
_audit_creation_date 2017-10-18
_audit_creation_method CSD-ConQuest-V1
_database_code_CSD BEKMOW
_database_code_depnum_ccdc_archive 'CCDC 1570457'
_chemical_formula_sum 'C53 H88 N10 O33 U4'
_chemical_formula_moiety
;
(C48 H60 O32 U4 4-)n,3(C1 H6 N3 1+),H2 O1,C2 H8 N1 1+
;
_journal_coden_Cambridge 9
_journal_volume 56
_journal_year 2017
_journal_page_first 13464
_journal_name_full 'Inorg.Chem. '
loop_
_publ_author_name
"P.Thuery"
"J.Harrowfield"
_chemical_name_systematic
;
catena-[dimethylammonium tris(guanidinium) 
hexakis(\m-cyclohexane-1,4-dicarboxylato)-octaoxo-tetra-uranium monohydrate]
;
_cell_volume  10807.715
_exptl_crystal_colour 'light yellow'
_exptl_crystal_density_diffrn 2.162
_exptl_crystal_description 'irregular'
_diffrn_ambient_temperature 150
_refine_special_details
;
C18,C19,N4,O13 disordered by symmetry over three configurations with 
occupancy 0.3333.
;
#These two values have been output from a single CSD field.
_refine_ls_R_factor_gt 0.0194
_refine_ls_wR_factor_gt 0.0194
_symmetry_cell_setting rhombohedral
_symmetry_space_group_name_H-M 'R 3 c'
_symmetry_Int_Tables_number 161
loop_
_symmetry_equiv_pos_site_id
_symmetry_equiv_pos_as_xyz
1 x,y,z
2 -y,x-y,z
3 -x+y,-x,z
4 -y,-x,1/2+z
5 -x+y,y,1/2+z
6 x,x-y,1/2+z
7 2/3+x,1/3+y,1/3+z
8 2/3-y,1/3+x-y,1/3+z
9 2/3-x+y,1/3-x,1/3+z
10 2/3-y,1/3-x,5/6+z
11 2/3-x+y,1/3+y,5/6+z
12 2/3+x,1/3+x-y,5/6+z
13 1/3+x,2/3+y,2/3+z
14 1/3-y,2/3+x-y,2/3+z
15 1/3-x+y,2/3-x,2/3+z
16 1/3-y,2/3-x,1/6+z
17 1/3-x+y,2/3+y,1/6+z
18 1/3+x,2/3+x-y,1/6+z
_cell_length_a 25.5726(2)
_cell_length_b 25.5726(2)
_cell_length_c 19.0833(2)
_cell_angle_alpha 90
_cell_angle_beta 90
_cell_angle_gamma 120
_cell_formula_units_Z 6
loop_
_atom_type_symbol
_atom_type_radius_bond
C 0.68
H 0.23
N 0.68
O 0.68
U 1.96
loop_
_atom_site_label
_atom_site_type_symbol
_atom_site_fract_x
_atom_site_fract_y
_atom_site_fract_z
U1 U 0.57827(2) 0.69625(2) 0.65651(2)
U2 U 0.33330 0.66670 0.34337(2)
O1 O 0.64749(18) 0.74793(19) 0.6153(2)
O2 O 0.5081(2) 0.64544(19) 0.6949(2)
O3 O 0.33330 0.66670 0.2500(4)
O4 O 0.33330 0.66670 0.4363(4)
O5 O 0.5595(2) 0.61720(19) 0.5705(2)
O6 O 0.52851(19) 0.67925(17) 0.5388(2)
O7 O 0.31806(19) 0.56359(19) 0.3509(3)
O8 O 0.41044(19) 0.6377(2) 0.3392(2)
O9 O 0.5439(2) 0.77021(19) 0.6342(2)
O10 O 0.5857(2) 0.7752(2) 0.7356(2)
O11 O 0.73384(18) 1.03206(19) 0.5985(2)
O12 O 0.67938(19) 0.9613(2) 0.5236(2)
C1 C 0.4903(2) 0.5859(2) 0.4737(3)
H1 H 0.49610 0.55000 0.47650
C2 C 0.4243(3) 0.5647(3) 0.4903(3)
H2 H 0.41500 0.54870 0.53870
H3 H 0.41730 0.59940 0.48740
C3 C 0.3828(3) 0.5161(2) 0.4395(3)
H4 H 0.34040 0.50380 0.45050
H5 H 0.38760 0.48030 0.44510
C4 C 0.3967(2) 0.5383(2) 0.3626(3)
H6 H 0.37320 0.50260 0.33140
C5 C 0.4642(2) 0.5648(2) 0.3458(3)
H7 H 0.47320 0.53150 0.34350
H8 H 0.47260 0.58410 0.29900
C6 C 0.5063(3) 0.6112(2) 0.3993(3)
H9 H 0.50300 0.64810 0.39580
H10 H 0.54860 0.62250 0.38870
C7 C 0.5294(3) 0.6305(2) 0.5295(3)
C8 C 0.3748(3) 0.5824(3) 0.3498(3)
C9 C 0.5504(3) 0.8453(3) 0.7177(3)
H11 H 0.51870 0.82840 0.75500
C10 C 0.6077(3) 0.8968(3) 0.7513(3)
H12 H 0.59750 0.92480 0.77550
H13 H 0.62340 0.87990 0.78680
C11 C 0.6566(3) 0.9317(3) 0.6966(3)
H14 H 0.67000 0.90470 0.67640
H15 H 0.69180 0.96570 0.71980
C12 C 0.6344(2) 0.9566(2) 0.6371(3)
H16 H 0.62700 0.98860 0.65660
C13 C 0.5757(2) 0.9067(3) 0.6049(3)
H17 H 0.58440 0.87880 0.57810
H18 H 0.55970 0.92500 0.57170
C14 C 0.5276(2) 0.8708(3) 0.6603(3)
H19 H 0.51430 0.89730 0.68210
H20 H 0.49210 0.83700 0.63720
C15 C 0.5605(3) 0.7945(3) 0.6937(3)
C16 C 0.6848(3) 0.9850(3) 0.5828(3)
N1 N 0.5398(3) 0.7596(2) 0.4280(3)
H21 H 0.53800 0.73220 0.45730
H22 H 0.51100 0.75150 0.39280
N2 N 0.6051(2) 0.8520(2) 0.3818(3)
H23 H 0.64590 0.88500 0.38350
H24 H 0.58180 0.83640 0.34080
N3 N 0.6284(3) 0.8249(3) 0.4864(3)
H25 H 0.60940 0.79960 0.52190
H26 H 0.66240 0.86090 0.49950
C17 C 0.5910(3) 0.8122(3) 0.4319(3)
O13 O 0.2717(11) 0.5626(14) 0.0439(10)
N4 N 0.3259(13) 0.6599(16) 0.1032(9)
C18 C 0.2823(15) 0.6827(13) 0.0962(19)
H27? H 0.34260 0.67070 0.14950
H28? H 0.35830 0.67910 0.07000
H29? H 0.30010 0.72530 0.10380
H30? H 0.26480 0.67270 0.05020
H31? H 0.25150 0.66120 0.13060
H32? H 0.32180 0.57860 0.08920
H33? H 0.26310 0.57420 0.12080
H34? H 0.27640 0.58560 0.04040
C19? C 0.2943(15) 0.5937(15) 0.0862(18)
U1A U 0.30375(2) 0.88202(2) 0.65651(2)
O1A O 0.25207(18) 0.89956(19) 0.6153(2)
O2A O 0.35456(20) 0.86266(19) 0.6949(2)
O5A O 0.3828(2) 0.94230(19) 0.5705(2)
O6A O 0.32075(19) 0.84926(17) 0.5388(2)
O7A O 0.43641(19) 0.75447(19) 0.3509(3)
O8A O 0.36230(19) 0.77274(20) 0.3392(2)
O9A O 0.22979(20) 0.77369(19) 0.6342(2)
O10A O 0.2248(2) 0.8105(2) 0.7356(2)
O11A O -0.03206(18) 0.70178(19) 0.5985(2)
O12A O 0.03870(19) 0.71808(20) 0.5236(2)
C1A C 0.4141(2) 0.9044(2) 0.4737(3)
H1A H 0.45000 0.94610 0.47650
C2A C 0.4353(3) 0.8596(3) 0.4903(3)
H2A H 0.45130 0.86630 0.53870
H3A H 0.40060 0.81790 0.48740
C3A C 0.4839(3) 0.8667(2) 0.4395(3)
H4A H 0.49620 0.83660 0.45050
H5A H 0.51970 0.90730 0.44510
C4A C 0.4617(2) 0.8584(2) 0.3626(3)
H6A H 0.49740 0.87060 0.33140
C5A C 0.4352(2) 0.8994(2) 0.3458(3)
H7A H 0.46850 0.94170 0.34350
H8A H 0.41590 0.88850 0.29900
C6A C 0.3888(3) 0.8951(2) 0.3993(3)
H9A H 0.35190 0.85490 0.39580
H10A H 0.37750 0.92610 0.38870
C7A C 0.3695(3) 0.8989(2) 0.5295(3)
C8A C 0.4176(3) 0.7924(3) 0.3498(3)
C9A C 0.1547(3) 0.7051(3) 0.7177(3)
H11A H 0.17160 0.69030 0.75500
C10A C 0.1032(3) 0.7109(3) 0.7513(3)
H12A H 0.07520 0.67270 0.77550
H13A H 0.12010 0.74350 0.78680
C11A C 0.0683(3) 0.7249(3) 0.6966(3)
H14A H 0.09530 0.76530 0.67640
H15A H 0.03430 0.72610 0.71980
C12A C 0.0434(2) 0.6778(2) 0.6371(3)
H16A H 0.01140 0.63840 0.65660
C13A C 0.0933(2) 0.6690(3) 0.6049(3)
H17A H 0.12120 0.70560 0.57810
H18A H 0.07500 0.63470 0.57170
C14A C 0.1292(2) 0.6568(3) 0.6603(3)
H19A H 0.10270 0.61700 0.68210
H20A H 0.16300 0.65510 0.63720
C15A C 0.2055(3) 0.7660(3) 0.6937(3)
C16A C 0.0150(3) 0.6998(3) 0.5828(3)
U1B U 0.11798(2) 0.42173(2) 0.65651(2)
O1B O 0.10044(18) 0.35251(19) 0.6153(2)
O2B O 0.13734(20) 0.49190(19) 0.6949(2)
O5B O 0.0577(2) 0.44050(19) 0.5705(2)
O6B O 0.15074(19) 0.47149(17) 0.5388(2)
O7B O 0.24553(19) 0.68194(19) 0.3509(3)
O8B O 0.22726(19) 0.58956(20) 0.3392(2)
O9B O 0.22631(20) 0.45610(19) 0.6342(2)
O10B O 0.1895(2) 0.4143(2) 0.7356(2)
O11B O 0.29822(18) 0.26616(19) 0.5985(2)
O12B O 0.28192(19) 0.32062(20) 0.5236(2)
C1B C 0.0956(2) 0.5097(2) 0.4737(3)
H1B H 0.05390 0.50390 0.47650
C2B C 0.1404(3) 0.5757(3) 0.4903(3)
H2B H 0.13370 0.58500 0.53870
H3B H 0.18210 0.58270 0.48740
C3B C 0.1333(3) 0.6172(2) 0.4395(3)
H4B H 0.16340 0.65960 0.45050
H5B H 0.09270 0.61240 0.44510
C4B C 0.1416(2) 0.6033(2) 0.3626(3)
H6B H 0.12940 0.62680 0.33140
C5B C 0.1006(2) 0.5358(2) 0.3458(3)
H7B H 0.05830 0.52680 0.34350
H8B H 0.11150 0.52740 0.29900
C6B C 0.1049(3) 0.4937(2) 0.3993(3)
H9B H 0.14510 0.49700 0.39580
H10B H 0.07390 0.45140 0.38870
C7B C 0.1011(3) 0.4706(2) 0.5295(3)
C8B C 0.2076(3) 0.6252(3) 0.3498(3)
C9B C 0.2949(3) 0.4496(3) 0.7177(3)
H11B H 0.30970 0.48130 0.75500
C10B C 0.2891(3) 0.3923(3) 0.7513(3)
H12B H 0.32730 0.40250 0.77550
H13B H 0.25650 0.37660 0.78680
C11B C 0.2751(3) 0.3434(3) 0.6966(3)
H14B H 0.23470 0.33000 0.67640
H15B H 0.27390 0.30820 0.71980
C12B C 0.3222(2) 0.3656(2) 0.6371(3)
H16B H 0.36160 0.37300 0.65660
C13B C 0.3310(2) 0.4243(3) 0.6049(3)
H17B H 0.29440 0.41560 0.57810
H18B H 0.36530 0.44030 0.57170
C14B C 0.3432(2) 0.4724(3) 0.6603(3)
H19B H 0.38300 0.48570 0.68210
H20B H 0.34490 0.50790 0.63720
C15B C 0.2340(3) 0.4395(3) 0.6937(3)
C16B C 0.3002(3) 0.3152(3) 0.5828(3)
U1I U -0.029583(20) 0.755063(20) 0.489843(20)
U1J U 0.784647(20) 1.029583(20) 0.489843(20)
U1K U 0.244937(20) 0.215353(20) 0.489843(20)
O11O O 0.301273(180) 0.932827(190) 0.765167(200)
O11P O 0.631553(180) 0.698727(190) 0.765167(200)
O11Q O 0.067173(180) 0.368447(190) 0.765167(200)
O12O O 0.372033(190) 0.987287(200) 0.690267(200)
O12P O 0.615253(190) 0.627967(200) 0.690267(200)
O12Q O 0.012713(190) 0.384747(200) 0.690267(200)
N4A N 0.3401(13) 0.6660(16) 0.1032(9)
C18A C 0.3173(15) 0.5996(13) 0.0962(19)
N4B N 0.3340(13) 0.6741(16) 0.1032(9)
C18B C 0.4004(15) 0.7177(13) 0.0962(19)
#END
