
#######################################################################
#
#                 Cambridge Crystallographic Data Centre
#                                CCDC
#
#######################################################################
#
# If this CIF has been generated from an entry in the Cambridge
# Structural Database, then it will include bibliographic, chemical,
# crystal, experimental, refinement or atomic coordinate data resulting
# from the CCDC's data processing and validation procedures.
#
#######################################################################

data_CSD_CIF_BEKNAJ
_audit_creation_date 2017-10-18
_audit_creation_method CSD-ConQuest-V1
_database_code_CSD BEKNAJ
_database_code_depnum_ccdc_archive 'CCDC 1570459'
_chemical_formula_sum 'C112 H200 N8 O72 U8'
_chemical_formula_moiety
;
(C96 H120 O64 U8 8-)n,8(C2 H8 N1 1+),8(H2 O1)
;
_journal_coden_Cambridge 9
_journal_volume 56
_journal_year 2017
_journal_page_first 13464
_journal_name_full 'Inorg.Chem. '
loop_
_publ_author_name
"P.Thuery"
"J.Harrowfield"
_chemical_name_systematic
;
catena-[octakis(dimethylammonium) 
dodecakis(\m-cyclohexane-1,4-dicarboxylato)-hexadecaoxo-octa-uranium 
octahydrate]
;
_cell_volume  15862.262
_exptl_crystal_colour 'light yellow'
_exptl_crystal_density_diffrn 1.974
_exptl_crystal_description 'platelet'
_diffrn_ambient_temperature 150
_diffrn_special_details
;
twin

;
_refine_special_details
;
O36A and O36B disordered over two sites with occupancies 0.5:0.5.

;
#These two values have been output from a single CSD field.
_refine_ls_R_factor_gt 0.0732
_refine_ls_wR_factor_gt 0.0732
_symmetry_cell_setting monoclinic
_symmetry_space_group_name_H-M 'C 2/c'
_symmetry_Int_Tables_number 15
loop_
_symmetry_equiv_pos_site_id
_symmetry_equiv_pos_as_xyz
1 x,y,z
2 -x,y,1/2-z
3 1/2+x,1/2+y,z
4 1/2-x,1/2+y,1/2-z
5 -x,-y,-z
6 x,-y,-1/2+z
7 -1/2-x,-1/2-y,-z
8 -1/2+x,-1/2-y,-1/2+z
_cell_length_a 33.764(2)
_cell_length_b 16.2336(5)
_cell_length_c 29.3892(15)
_cell_angle_alpha 90
_cell_angle_beta 100.032(3)
_cell_angle_gamma 90
_cell_formula_units_Z 4
loop_
_atom_type_symbol
_atom_type_radius_bond
C 0.68
H 0.23
N 0.68
O 0.68
U 1.96
loop_
_atom_site_label
_atom_site_type_symbol
_atom_site_fract_x
_atom_site_fract_y
_atom_site_fract_z
U1 U 0.50414(2) 0.76283(4) 0.37193(2)
O1 O 0.5396(4) 0.8266(8) 0.4066(4)
O2 O 0.4695(3) 0.6967(7) 0.3372(4)
O3 O 0.5583(4) 0.6951(8) 0.3428(4)
O4 O 0.5340(4) 0.8020(7) 0.3043(4)
O5 O 0.4688(3) 0.8837(6) 0.3314(4)
O6 O 0.4482(3) 0.8387(7) 0.3934(4)
O7 O 0.4841(4) 0.7041(8) 0.4423(4)
O8 O 0.5335(4) 0.6420(8) 0.4165(5)
C1 C 0.5577(5) 0.7430(11) 0.3079(6)
C2 C 0.4444(5) 0.8864(10) 0.3602(6)
C3 C 0.5084(5) 0.6455(10) 0.4452(6)
C4 C 0.5854(5) 0.7279(10) 0.2741(5)
C5 C 0.4091(5) 0.9481(9) 0.3505(6)
C6 C 0.5109(6) 0.5802(11) 0.4833(6)
H1 H 0.56840 0.70730 0.24510
C7 C 0.6057(5) 0.8064(9) 0.2615(5)
C8 C 0.6171(5) 0.6605(10) 0.2902(6)
H2 H 0.39690 0.94390 0.31700
C9 C 0.4246(6) 1.035(1) 0.3594(9)
C10 C 0.3771(5) 0.9264(11) 0.3781(7)
H3 H 0.52920 0.60120 0.51140
C11 C 0.4695(6) 0.5668(12) 0.4956(7)
C12 C 0.5283(6) 0.5010(11) 0.4684(7)
H4 H 0.62210 0.83030 0.28970
H5 H 0.58500 0.84720 0.24870
C13 C 0.6327(5) 0.7885(10) 0.2261(6)
C14 C 0.6404(5) 0.6414(10) 0.2518(5)
H6 H 0.63580 0.67960 0.31790
H7 H 0.60360 0.60990 0.29850
H8 H 0.44360 1.04810 0.33830
H9 H 0.43930 1.03930 0.39160
C15 C 0.3896(6) 1.0972(13) 0.3519(9)
C16 C 0.3423(6) 0.989(1) 0.3671(8)
H10 H 0.38850 0.92790 0.41150
H11 H 0.36700 0.87010 0.37010
H12 H 0.45020 0.55110 0.46760
H13 H 0.45990 0.61840 0.50800
H14 H 0.51150 0.48190 0.43930
H15 H 0.55560 0.51190 0.46210
H16 H 0.61530 0.77640 0.19610
H17 H 0.64820 0.83890 0.22210
C17 C 0.6618(5) 0.7182(9) 0.2379(6)
H18 H 0.62180 0.62010 0.22460
H19 H 0.66060 0.59800 0.26230
H20 H 0.40000 1.15220 0.36260
H21 H 0.37880 1.10110 0.31840
C18 C 0.3572(5) 1.0757(9) 0.3758(7)
H22 H 0.32930 0.98330 0.33440
H23 H 0.32180 0.97710 0.38670
H24 H 0.67270 0.70420 0.20930
C19 C 0.6970(5) 0.7385(11) 0.2751(5)
H25 H 0.36900 1.07810 0.40950
C20 C 0.3228(5) 1.1375(10) 0.3690(7)
O9 O 0.6968(3) 0.7988(7) 0.3016(4)
O10 O 0.7266(3) 0.6883(6) 0.2808(4)
O11 O 0.2976(3) 1.1354(7) 0.3306(4)
O12 O 0.3204(3) 1.1922(7) 0.3981(4)
U2 U 0.75713(2) 0.75187(4) 0.35421(2)
O13 O 0.7290(4) 0.6827(7) 0.3813(4)
O14 O 0.7852(3) 0.8236(7) 0.3272(4)
O15 O 0.7804(4) 0.8195(7) 0.4284(4)
O16 O 0.7247(4) 0.8696(7) 0.3866(4)
C21 C 0.7518(5) 0.8707(11) 0.4217(6)
C22 C 0.7510(6) 0.9361(10) 0.4597(6)
H26 H 0.77960 0.94800 0.47360
C23 C 0.7321(6) 1.0167(11) 0.4428(6)
C24 C 0.7312(6) 0.9014(10) 0.4975(6)
H27 H 0.70350 1.00770 0.42910
H28 H 0.74590 1.03910 0.41840
C25 C 0.7350(6) 1.0783(10) 0.4822(6)
C26 C 0.7348(7) 0.9613(11) 0.5380(5)
H29 H 0.74420 0.84850 0.50830
H30 H 0.70250 0.89050 0.48540
H31 H 0.76360 1.09180 0.49340
H32 H 0.72100 1.12970 0.47050
C27 C 0.7167(5) 1.0463(10) 0.5221(5)
H33 H 0.76350 0.96810 0.55190
H34 H 0.72060 0.93840 0.56190
H35 H 0.68700 1.03980 0.51170
C28 C 0.7237(6) 1.1089(10) 0.5601(6)
O17 O 0.7515(4) 1.0982(7) 0.5937(4)
O18 O 0.7018(3) 1.1733(7) 0.5582(4)
U3 U 0.74274(2) 1.23084(4) 0.63038(2)
O19 O 0.7102(3) 1.1839(7) 0.6642(5)
O20 O 0.7755(4) 1.2772(6) 0.5976(4)
O21 O 0.6862(3) 1.3236(7) 0.5973(4)
O22 O 0.7246(3) 1.3658(6) 0.6607(4)
O23 O 0.7903(3) 1.2686(7) 0.7011(4)
O24 O 0.7963(3) 1.1468(7) 0.6719(4)
C29 C 0.6922(5) 1.3713(9) 0.6316(6)
C30 C 0.8072(5) 1.1989(9) 0.7048(6)
C31 C 0.6611(5) 1.4346(10) 0.6382(6)
C32 C 0.8380(5) 1.1755(9) 0.7448(6)
H36 H 0.66460 1.44520 0.67220
C33 C 0.6179(6) 1.4014(10) 0.6235(6)
C34 C 0.6676(5) 1.5152(10) 0.6162(7)
H37 H 0.82350 1.15790 0.77010
C35 C 0.8653(5) 1.2480(11) 0.7635(6)
C36 C 0.8645(5) 1.1015(10) 0.7346(6)
H38 H 0.61290 1.38920 0.59000
H39 H 0.61470 1.34960 0.64030
C37 C 0.5870(5) 1.4654(9) 0.6342(6)
C38 C 0.6362(6) 1.5813(10) 0.6238(7)
H40 H 0.66640 1.50680 0.58260
H41 H 0.69490 1.53570 0.62910
H42 H 0.84840 1.29620 0.76770
H43 H 0.88080 1.23300 0.79420
C39 C 0.8947(5) 1.2716(10) 0.7316(6)
C40 C 0.8932(5) 1.1261(9) 0.7024(6)
H44 H 0.88020 1.08080 0.76400
H45 H 0.84700 1.05630 0.72030
H46 H 0.55950 1.44520 0.62270
H47 H 0.59010 1.47320 0.66800
C41 C 0.5933(5) 1.5467(11) 0.6115(7)
H48 H 0.64140 1.59920 0.65650
H49 H 0.63900 1.62990 0.60430
H50 H 0.91210 1.31720 0.74560
H51 H 0.87950 1.29100 0.70170
C42 C 0.9210(4) 1.1975(9) 0.7234(6)
H52 H 0.87760 1.14350 0.67230
H53 H 0.90980 1.07800 0.69700
H54 H 0.58790 1.53710 0.57730
C43 C 0.5635(6) 1.613(1) 0.6216(7)
H55 H 0.93630 1.17910 0.75390
C44 C 0.9506(5) 1.216(1) 0.6917(6)
O25 O 0.5611(4) 1.6780(7) 0.5965(4)
O26 O 0.5413(4) 1.6041(7) 0.6507(4)
O27 O 0.9792(3) 1.1629(7) 0.6908(4)
O28 O 0.9483(3) 1.2767(7) 0.6667(4)
U4 U 0.50403(2) 1.73431(4) 0.62817(2)
O29 O 0.4697(4) 1.6757(8) 0.5886(4)
O30 O 0.5367(3) 1.7928(7) 0.6691(4)
O31 O 0.4732(4) 1.8605(8) 0.5921(5)
O32 O 0.5241(4) 1.8116(8) 0.5649(4)
C45 C 0.4969(6) 1.8639(12) 0.5635(6)
C46 C 0.4904(7) 1.9256(10) 0.5237(8)
H56 H 0.46710 1.90780 0.49990
C47 C 0.4823(10) 2.0098(12) 0.5416(8)
C48 C 0.5288(8) 1.9313(15) 0.5016(9)
H57 H 0.50640 2.03050 0.56250
H58 H 0.45980 2.00720 0.55910
H59 H 0.55150 1.95440 0.52390
H60 H 0.53660 1.87620 0.49180
O33 O 0.6869(4) 0.5229(8) 0.3557(5)
H61 H 0.69570 0.57170 0.36220
H62 H 0.66910 0.51090 0.37430
O34 O 0.5429(4) 0.5078(7) 0.3524(5)
O35 O 0.6219(6) 0.5162(15) 0.4015(7)
O36 O 0.5769(11) 0.737(2) 0.5113(11)
N1 N 0.2699(4) 1.0601(8) 0.2423(5)
H63 H 0.28160 1.08940 0.26740
H64 H 0.25300 1.09450 0.22370
C49 C 0.2462(6) 0.9927(12) 0.2578(7)
H65 H 0.23350 0.96040 0.23100
H66 H 0.22540 1.01580 0.27350
H67 H 0.26400 0.95700 0.27920
C50 C 0.3020(6) 1.0312(11) 0.2170(7)
H68 H 0.31840 0.98920 0.23550
H69 H 0.31900 1.07780 0.21170
H70 H 0.28960 1.00750 0.18730
N2 N 0.6328(8) 1.2384(17) 0.4950(9)
H71 H 0.65520 1.23030 0.51670
H72 H 0.62960 1.19210 0.47730
C51 C 0.6450(11) 1.308(2) 0.4695(12)
H73 H 0.62220 1.32600 0.44640
H74 H 0.66720 1.29080 0.45400
H75 H 0.65400 1.35290 0.49100
C52 C 0.5991(9) 1.243(2) 0.5206(11)
H76 H 0.59930 1.29710 0.53570
H77 H 0.60190 1.19970 0.54410
H78 H 0.57370 1.23600 0.49920
N3 N 0.6244(11) 0.689(2) 0.4490(11)
H79 H 0.61120 0.65320 0.42760
H80 H 0.60500 0.71470 0.46150
C53 C 0.6418(13) 0.748(2) 0.4229(14)
H81 H 0.66920 0.76080 0.43840
H82 H 0.62560 0.79880 0.42040
H83 H 0.64250 0.72660 0.39190
C54 C 0.6469(13) 0.640(3) 0.4844(13)
H84 H 0.67310 0.62730 0.47630
H85 H 0.63230 0.58900 0.48780
H86 H 0.65070 0.67090 0.51350
N4 N 0.50000 0.9484(15) 0.25000
H87 H 0.48920 0.91520 0.26960
C55 C 0.5332(8) 0.9961(15) 0.2775(10)
H88 H 0.54210 1.03910 0.25820
H89 H 0.55570 0.95920 0.28880
H90 H 0.52370 1.02170 0.30390
N5 N 1.00000 1.0259(10) 0.75000
H91 H 0.98940 1.05890 0.72590
C56 C 0.9669(5) 0.9762(11) 0.7631(6)
H92 H 0.95380 0.94450 0.73640
H93 H 0.94730 1.01290 0.77360
H94 H 0.97790 0.93840 0.78820
O37? O 0.6081(10) 0.782(2) 0.5276(11)
C12D C 0.4717(6) 0.4990(11) 0.5316(7)
C11D C 0.5305(6) 0.4332(12) 0.5044(7)
H14D H 0.48850 0.51810 0.56070
H15D H 0.44440 0.48810 0.53790
C6D C 0.4891(6) 0.4198(11) 0.5167(6)
H12D H 0.54980 0.44890 0.53240
H13D H 0.54010 0.38160 0.49200
C3D C 0.4916(5) 0.3545(10) 0.5548(6)
H3D H 0.47080 0.39880 0.48860
O7D O 0.5159(4) 0.2959(8) 0.5577(4)
O8D O 0.4665(4) 0.3580(8) 0.5835(5)
U2B U 0.25713(2) 1.25187(4) 0.35421(2)
U1D U 0.49586(2) 0.23717(4) 0.62807(2)
O11B O 0.7976(3) 0.6354(7) 0.3306(4)
O12B O 0.8204(3) 0.6922(7) 0.3981(4)
O1D O 0.4604(4) 0.1734(8) 0.5934(4)
O2D O 0.5305(3) 0.3033(7) 0.6628(4)
O3D O 0.4417(4) 0.3049(8) 0.6572(4)
O4D O 0.4660(4) 0.1980(7) 0.6957(4)
O5D O 0.5312(3) 0.1163(6) 0.6686(4)
O6D O 0.5518(3) 0.1613(7) 0.6066(4)
C1D C 0.4423(5) 0.2570(11) 0.6921(6)
C2D C 0.5556(5) 0.1136(10) 0.6398(6)
C4D C 0.4146(5) 0.2721(10) 0.7259(5)
C5D C 0.5909(5) 0.0519(9) 0.6495(6)
H1D H 0.43160 0.29270 0.75490
C7D C 0.3943(5) 0.1936(9) 0.7385(5)
C8D C 0.3829(5) 0.3395(10) 0.7098(6)
H2D H 0.60310 0.05610 0.68300
C9D C 0.5754(6) -0.035(1) 0.6406(9)
C10D C 0.6229(5) 0.0736(11) 0.6219(7)
H4D H 0.37790 0.16970 0.71030
H5D H 0.41500 0.15280 0.75130
C13D C 0.3673(5) 0.2115(10) 0.7739(6)
C14D C 0.3596(5) 0.3586(10) 0.7482(5)
H6D H 0.36420 0.32040 0.68210
H7D H 0.39640 0.39010 0.70150
H8D H 0.55640 -0.04810 0.66170
H9D H 0.56070 -0.03930 0.60840
C15D C 0.6104(6) -0.0972(13) 0.6481(9)
C16D C 0.6577(6) 0.011(1) 0.6329(8)
H10D H 0.61150 0.07210 0.58850
H11D H 0.63300 0.12990 0.62990
H16D H 0.38470 0.22360 0.80390
H17D H 0.35180 0.16110 0.77790
C17D C 0.3382(5) 0.2818(9) 0.7621(6)
H18D H 0.37820 0.37990 0.77540
H19D H 0.33940 0.40200 0.73770
H20D H 0.60000 -0.15220 0.63740
H21D H 0.62120 -0.10110 0.68160
C18D C 0.6428(5) -0.0757(9) 0.6242(7)
H22D H 0.67070 0.01670 0.66560
H23D H 0.67820 0.02290 0.61330
H24D H 0.32730 0.29580 0.79070
C19D C 0.3030(5) 0.2615(11) 0.7249(5)
H25D H 0.63100 -0.07810 0.59050
C20D C 0.6772(5) -0.1375(10) 0.6310(7)
O9D O 0.3032(3) 0.2012(7) 0.6984(4)
O10D O 0.2734(3) 0.3117(6) 0.7192(4)
O11D O 0.7024(3) -0.1354(7) 0.6694(4)
O12D O 0.6796(3) -0.1922(7) 0.6019(4)
U2D U 0.24287(2) 0.24813(4) 0.64579(2)
U2F U 0.74287(2) -0.25187(4) 0.64579(2)
O13D O 0.2710(4) 0.3173(7) 0.6187(4)
O14D O 0.2148(3) 0.1764(7) 0.6728(4)
O15D O 0.2196(4) 0.1805(7) 0.5716(4)
O16D O 0.2753(4) 0.1304(7) 0.6134(4)
O11F O 0.2024(3) 0.3646(7) 0.6694(4)
O12F O 0.1796(3) 0.3078(7) 0.6019(4)
C21D C 0.2482(5) 0.1293(11) 0.5783(6)
C22D C 0.2490(6) 0.0639(10) 0.5403(6)
H26D H 0.22040 0.05200 0.52640
C23D C 0.2679(6) -0.0167(11) 0.5572(6)
C24D C 0.2688(6) 0.0986(10) 0.5025(6)
H27D H 0.29650 -0.00770 0.57090
H28D H 0.25410 -0.03910 0.58160
C25D C 0.2650(6) -0.0783(10) 0.5178(6)
C26D C 0.2652(7) 0.0387(11) 0.4620(5)
H29D H 0.25580 0.15150 0.49170
H30D H 0.29750 0.10950 0.51460
H31D H 0.23640 -0.09180 0.50660
H32D H 0.27900 -0.12970 0.52950
C27D C 0.2833(5) -0.0463(10) 0.4779(5)
H33D H 0.23650 0.03190 0.44810
H34D H 0.27940 0.06160 0.43810
H35D H 0.31300 -0.03980 0.48830
C28D C 0.2763(6) -0.1089(10) 0.4399(6)
O17D O 0.2485(4) -0.0982(7) 0.4063(4)
O18D O 0.2982(3) -0.1733(7) 0.4418(4)
U4B U 1.00403(2) 1.23431(4) 0.62817(2)
U3D U 0.25726(2) -0.23084(4) 0.36962(2)
O27B O 0.4792(3) 1.6629(7) 0.6908(4)
O28B O 0.4483(3) 1.7767(7) 0.6667(4)
O19D O 0.2898(3) -0.1839(7) 0.3358(5)
O20D O 0.2245(4) -0.2772(6) 0.4024(4)
O21D O 0.3138(3) -0.3236(7) 0.4027(4)
O22D O 0.2754(3) -0.3658(6) 0.3393(4)
O23D O 0.2097(3) -0.2686(7) 0.2989(4)
O24D O 0.2037(3) -0.1468(7) 0.3281(4)
C29D C 0.3078(5) -0.3713(9) 0.3684(6)
C30D C 0.1928(5) -0.1989(9) 0.2952(6)
C31D C 0.3389(5) -0.4346(10) 0.3618(6)
C32D C 0.1620(5) -0.1755(9) 0.2552(6)
H36D H 0.33540 -0.44520 0.32780
C33D C 0.3821(6) -0.4014(10) 0.3765(6)
C34D C 0.3324(5) -0.5152(10) 0.3838(7)
H37D H 0.17650 -0.15790 0.22990
C35D C 0.1347(5) -0.2480(11) 0.2365(6)
C36D C 0.1355(5) -0.1015(10) 0.2654(6)
C48D C 0.4712(8) 2.0687(15) 0.4984(9)
C47D C 0.5177(10) 1.9902(12) 0.4584(8)
H38D H 0.38710 -0.38920 0.41000
H39D H 0.38530 -0.34960 0.35970
C37D C 0.4130(5) -0.4654(9) 0.3658(6)
C38D C 0.3638(6) -0.5813(10) 0.3762(7)
H40D H 0.33360 -0.50680 0.41740
H41D H 0.30510 -0.53570 0.37090
H42D H 0.15160 -0.29620 0.23230
H43D H 0.11920 -0.23300 0.20580
C39D C 0.1053(5) -0.2716(10) 0.2684(6)
C40D C 0.1068(5) -0.1261(9) 0.2976(6)
H44D H 0.11980 -0.08080 0.23600
H45D H 0.15300 -0.05630 0.27970
H59D H 0.44850 2.04560 0.47610
H60D H 0.46340 2.12380 0.50820
C46D C 0.5096(7) 2.0744(10) 0.4763(8)
H57D H 0.49360 1.96950 0.43750
H58D H 0.54020 1.99280 0.44090
H46D H 0.44050 -0.44520 0.37730
H47D H 0.40990 -0.47320 0.33200
C41D C 0.4067(5) -0.5467(11) 0.3885(7)
H48D H 0.35860 -0.59920 0.34350
H49D H 0.36100 -0.62990 0.39570
H50D H 0.08790 -0.31720 0.25440
H51D H 0.12050 -0.29100 0.29830
C42D C 0.0790(4) -0.1975(9) 0.2766(6)
H52D H 0.12240 -0.14350 0.32770
H53D H 0.09020 -0.07800 0.30300
C45D C 0.5031(6) 2.1361(12) 0.4365(6)
H56D H 0.53290 2.09220 0.50010
H54D H 0.41210 -0.53710 0.42270
C43D C 0.4365(6) -0.613(1) 0.3784(7)
H55D H 0.06370 -0.17910 0.24610
C44D C 0.0494(5) -0.216(1) 0.3083(6)
O31D O 0.5268(4) 2.1395(8) 0.4079(5)
O32D O 0.4759(4) 2.1884(8) 0.4351(4)
O25D O 0.4389(4) -0.6780(7) 0.4035(4)
O26D O 0.4587(4) -0.6041(7) 0.3493(4)
O27D O 0.0208(3) -0.1629(7) 0.3092(4)
O28D O 0.0517(3) -0.2767(7) 0.3333(4)
U4D U 0.49597(2) 2.26569(4) 0.37183(2)
U4D* U 0.49597(2) -0.73431(4) 0.37183(2)
U4F U -0.00403(2) -0.23431(4) 0.37183(2)
O29D O 0.5303(4) -0.6757(8) 0.4114(4)
O30D O 0.4633(3) -0.7928(7) 0.3309(4)
O27F O 0.5208(3) -0.6629(7) 0.3092(4)
O28F O 0.5517(3) -0.7767(7) 0.3333(4)
O31D* O 0.5268(4) -0.8605(8) 0.4079(5)
O32D* O 0.4759(4) -0.8116(8) 0.4351(4)
H87A H 0.51080 0.91520 0.23040
C55A C 0.4668(8) 0.9961(15) 0.2225(10)
H88A H 0.45790 1.03910 0.24180
H89A H 0.44430 0.95920 0.21120
H90A H 0.47630 1.02170 0.19610
H91A H 1.01060 1.05890 0.77410
C56A C 1.0331(5) 0.9762(11) 0.7369(6)
H92A H 1.04620 0.94450 0.76360
H93A H 1.05270 1.01290 0.72640
H94A H 1.02210 0.93840 0.71180
#END
