
#######################################################################
#
#                 Cambridge Crystallographic Data Centre
#                                CCDC
#
#######################################################################
#
# If this CIF has been generated from an entry in the Cambridge
# Structural Database, then it will include bibliographic, chemical,
# crystal, experimental, refinement or atomic coordinate data resulting
# from the CCDC's data processing and validation procedures.
#
#######################################################################

data_CSD_CIF_BEKNOX
_audit_creation_date 2017-10-18
_audit_creation_method CSD-ConQuest-V1
_database_code_CSD BEKNOX
_database_code_depnum_ccdc_archive 'CCDC 1570462'
_chemical_formula_sum 'C54 H57 Cd1 N6 O17.5 U2'
_chemical_formula_moiety
;
(C24 H30 O16 U2 2-)n,C30 H24 Cd1 N6 2+,1.5(H2 O1)
;
_journal_coden_Cambridge 9
_journal_volume 56
_journal_year 2017
_journal_page_first 13464
_journal_name_full 'Inorg.Chem. '
loop_
_publ_author_name
"P.Thuery"
"J.Harrowfield"
_chemical_name_systematic
;
catena-[tris(2,2'-bipyridine)-cadmium 
tris(\m-cyclohexane-1,4-dicarboxylato)-tetraoxo-di-uranium sesquihydrate]
;
_cell_volume   5902.754
_exptl_crystal_colour 'light yellow'
_exptl_crystal_density_diffrn 1.866
_exptl_special_details
;
Absolute configuration

;
_exptl_crystal_description 'parallelepiped'
_diffrn_ambient_temperature 150
#These two values have been output from a single CSD field.
_refine_ls_R_factor_gt 0.0231
_refine_ls_wR_factor_gt 0.0231
_symmetry_cell_setting cubic
_symmetry_space_group_name_H-M 'P 21 3'
_symmetry_Int_Tables_number 198
loop_
_symmetry_equiv_pos_site_id
_symmetry_equiv_pos_as_xyz
1 x,y,z
2 1/2-x,-y,1/2+z
3 -x,1/2+y,1/2-z
4 1/2+x,1/2-y,-z
5 z,x,y
6 1/2+z,1/2-x,-y
7 1/2-z,-x,1/2+y
8 -z,1/2+x,1/2-y
9 y,z,x
10 -y,1/2+z,1/2-x
11 1/2+y,1/2-z,-x
12 1/2-y,-z,1/2+x
_cell_length_a 18.0725(2)
_cell_length_b 18.0725(2)
_cell_length_c 18.0725(2)
_cell_angle_alpha 90
_cell_angle_beta 90
_cell_angle_gamma 90
_cell_formula_units_Z 4
loop_
_atom_type_symbol
_atom_type_radius_bond
C 0.68
H 0.23
Cd 1.44
N 0.68
O 0.68
U 1.96
loop_
_atom_site_label
_atom_site_type_symbol
_atom_site_fract_x
_atom_site_fract_y
_atom_site_fract_z
U1 U 0.67886(2) 0.32114(2) 0.82114(2)
U2 U 0.21587(2) 0.28413(2) 0.71587(2)
O1 O 0.6223(3) 0.3777(3) 0.8777(3)
O2 O 0.7350(3) 0.2650(3) 0.7650(3)
O3 O 0.2724(3) 0.2276(3) 0.7724(3)
O4 O 0.1592(3) 0.3408(3) 0.6592(3)
O5 O 0.5735(3) 0.3134(3) 0.7371(3)
O6 O 0.6522(3) 0.4028(4) 0.7156(3)
O7 O 0.3040(4) 0.3875(4) 0.7172(4)
O8 O 0.3155(4) 0.3078(5) 0.6270(3)
C1 C 0.5303(5) 0.4093(7) 0.6559(6)
H1 H 0.55400 0.44750 0.62360
C2 C 0.4913(6) 0.3499(8) 0.6066(5)
H2 H 0.52720 0.32670 0.57240
H3 H 0.46900 0.31070 0.63790
C3 C 0.4301(7) 0.3916(10) 0.5624(7)
H4 H 0.45360 0.42980 0.53100
H5 H 0.40450 0.35610 0.52950
C4 C 0.3734(7) 0.4284(8) 0.6131(8)
H6 H 0.33780 0.45600 0.58100
C5 C 0.4118(7) 0.4851(7) 0.6639(9)
H7 H 0.43250 0.52620 0.63420
H8 H 0.37570 0.50590 0.69960
C6 C 0.4726(5) 0.4454(6) 0.7044(8)
H9 H 0.45000 0.40680 0.73600
H10 H 0.49760 0.48110 0.73750
C7 C 0.5898(5) 0.3719(5) 0.7048(5)
C8 C 0.3298(6) 0.3720(8) 0.6567(6)
Cd1 Cd 0.48512(3) 0.51488(3) 1.01488(3)
N1 N 0.5277(3) 0.5620(3) 0.9019(3)
N2 N 0.3946(3) 0.5936(3) 0.9640(3)
C9 C 0.5955(4) 0.5485(4) 0.8752(4)
H11 H 0.62640 0.51490 0.90130
C10 C 0.6226(4) 0.5810(4) 0.8119(5)
H12 H 0.67080 0.56960 0.79430
C11 C 0.5789(4) 0.6295(5) 0.7752(5)
H13 H 0.59640 0.65320 0.73170
C12 C 0.5084(4) 0.6445(5) 0.8016(4)
H14 H 0.47660 0.67750 0.77590
C13 C 0.4853(4) 0.6102(4) 0.8662(4)
C14 C 0.4107(4) 0.6263(4) 0.8988(4)
C15 C 0.3600(5) 0.6724(6) 0.8649(5)
H15 H 0.37090 0.69350 0.81800
C16 C 0.2930(5) 0.6880(5) 0.8996(5)
H16 H 0.25850 0.72100 0.87750
C17 C 0.2773(5) 0.6545(5) 0.9667(5)
H17 H 0.23220 0.66420 0.99210
C18 C 0.3297(4) 0.6063(5) 0.9957(4)
H18 H 0.31850 0.58120 1.04040
O9 O 0.3084(10) 0.4848(8) 0.8453(11)
O5E O 0.2371(3) -0.0735(3) 0.6866(3)
O6E O 0.2156(3) -0.1522(4) 0.5972(3)
O7E O 0.2172(4) 0.1960(4) 0.6125(4)
O8E O 0.1270(4) 0.1845(5) 0.6922(3)
C1E C 0.1559(5) -0.0303(7) 0.5907(6)
H1E H 0.12360 -0.05400 0.55250
C2E C 0.1066(6) 0.0087(8) 0.6501(5)
H2E H 0.07240 -0.02720 0.67330
H3E H 0.13790 0.03100 0.68930
C3E C 0.0624(7) 0.0699(10) 0.6084(7)
H4E H 0.03100 0.04640 0.57020
H5E H 0.02950 0.09550 0.64390
C4E C 0.1131(7) 0.1266(8) 0.5716(8)
H6E H 0.08100 0.16220 0.54400
C5E C 0.1639(7) 0.0882(7) 0.5149(9)
H7E H 0.13420 0.06750 0.47380
H8E H 0.19960 0.12430 0.49410
C6E C 0.2044(5) 0.0274(6) 0.5546(8)
H9E H 0.23600 0.05000 0.59320
H10E H 0.23750 0.00240 0.51890
C7E C 0.2048(5) -0.0898(5) 0.6281(5)
C8E C 0.1567(6) 0.1702(8) 0.6280(6)
O5K O 0.1866(3) 0.2629(3) 1.0735(3)
O6K O 0.0972(3) 0.2844(4) 1.1522(3)
O7K O 0.1125(4) 0.2828(4) 0.8040(4)
O8K O 0.1922(4) 0.3730(5) 0.8155(3)
C1K C 0.0907(5) 0.3441(7) 1.0303(6)
H1K H 0.05250 0.37640 1.05400
C2K C 0.1501(6) 0.3934(8) 0.9913(5)
H2K H 0.17330 0.42760 1.02720
H3K H 0.18930 0.36210 0.96900
C3K C 0.1084(7) 0.4376(10) 0.9301(7)
H4K H 0.07020 0.46900 0.95360
H5K H 0.14390 0.47050 0.90450
C4K C 0.0716(7) 0.3869(8) 0.8734(8)
H6K H 0.04400 0.41900 0.83780
C5K C 0.0149(7) 0.3361(7) 0.9118(9)
H7K H -0.02620 0.36580 0.93250
H8K H -0.00590 0.30040 0.87570
C6K C 0.0546(5) 0.2956(6) 0.9726(8)
H9K H 0.09320 0.26400 0.95000
H10K H 0.01890 0.26250 0.99760
C7K C 0.1281(5) 0.2952(5) 1.0898(5)
C8K C 0.1280(6) 0.3433(8) 0.8298(6)
U1B U 0.32114(2) -0.17886(2) 0.67886(2)
U1C U 0.17886(2) 0.17886(2) 1.17886(2)
O5F O 0.7629(3) 0.4265(3) 0.8134(3)
O5I O 0.6866(3) 0.2371(3) 0.9265(3)
O6F O 0.7844(3) 0.3478(4) 0.9028(3)
O6I O 0.5972(3) 0.2156(4) 0.8478(3)
N1F N 0.5981(3) 0.4723(3) 1.0620(3)
N2F N 0.5360(3) 0.6054(3) 1.0936(3)
C9F C 0.6248(4) 0.4045(4) 1.0485(4)
H11F H 0.59870 0.37360 1.01490
C10F C 0.6881(4) 0.3774(4) 1.0810(5)
H12F H 0.70570 0.32920 1.06960
C11F C 0.7248(4) 0.4211(5) 1.1295(5)
H13F H 0.76830 0.40360 1.15320
C12F C 0.6984(4) 0.4916(5) 1.1445(4)
H14F H 0.72410 0.52340 1.17750
C13F C 0.6338(4) 0.5147(4) 1.1102(4)
C14F C 0.6012(4) 0.5893(4) 1.1263(4)
C15F C 0.6351(5) 0.6400(6) 1.1724(5)
H15F H 0.68200 0.62910 1.19350
C16F C 0.6004(5) 0.7070(5) 1.1880(5)
H16F H 0.62250 0.74150 1.22100
C17F C 0.5333(5) 0.7227(5) 1.1545(5)
H17F H 0.50790 0.76780 1.16420
C18F C 0.5043(4) 0.6703(5) 1.1063(4)
H18F H 0.45960 0.68150 1.08120
N1I N 0.4380(3) 0.4019(3) 0.9723(3)
N2I N 0.4064(3) 0.4640(3) 1.1054(3)
C9I C 0.4515(4) 0.3752(4) 0.9045(4)
H11I H 0.48510 0.40130 0.87360
C10I C 0.4190(4) 0.3119(4) 0.8774(5)
H12I H 0.43040 0.29430 0.82920
C11I C 0.3705(4) 0.2752(5) 0.9211(5)
H13I H 0.34680 0.23170 0.90360
C12I C 0.3555(4) 0.3016(5) 0.9916(4)
H14I H 0.32250 0.27590 1.02340
C13I C 0.3898(4) 0.3662(4) 1.0147(4)
C14I C 0.3737(4) 0.3988(4) 1.0893(4)
C15I C 0.3276(5) 0.3649(6) 1.1400(5)
H15I H 0.30650 0.31800 1.12910
C16I C 0.3120(5) 0.3996(5) 1.2070(5)
H16I H 0.27900 0.37750 1.24150
C17I C 0.3455(5) 0.4667(5) 1.2227(5)
H17I H 0.33580 0.49210 1.26780
C18I C 0.3937(4) 0.4957(5) 1.1703(4)
H18I H 0.41880 0.54040 1.18150
#END
