
#######################################################################
#
#                 Cambridge Crystallographic Data Centre
#                                CCDC
#
#######################################################################
#
# If this CIF has been generated from an entry in the Cambridge
# Structural Database, then it will include bibliographic, chemical,
# crystal, experimental, refinement or atomic coordinate data resulting
# from the CCDC's data processing and validation procedures.
#
#######################################################################

data_CSD_CIF_BEKNIR
_audit_creation_date 2017-10-18
_audit_creation_method CSD-ConQuest-V1
_database_code_CSD BEKNIR
_database_code_depnum_ccdc_archive 'CCDC 1570461'
_chemical_formula_sum 'C54 H57 Co1 N6 O17.5 U2'
_chemical_formula_moiety
;
(C24 H30 O16 U2 2-)n,C30 H24 Co1 N6 2+,1.5(H2 O1)
;
_journal_coden_Cambridge 9
_journal_volume 56
_journal_year 2017
_journal_page_first 13464
_journal_name_full 'Inorg.Chem. '
loop_
_publ_author_name
"P.Thuery"
"J.Harrowfield"
_chemical_name_systematic
;
catena-[tris(2,2'-bipyridine)-cobalt 
tris(\m-cyclohexane-1,4-dicarboxylato)-tetraoxo-di-uranium sesquihydrate]
;
_cell_volume   5791.561
_exptl_crystal_colour 'dark yellow orange'
_exptl_crystal_density_diffrn 1.841
_exptl_special_details
;
Absolute configuration

;
_exptl_crystal_description 'irregular'
_diffrn_ambient_temperature 150
#These two values have been output from a single CSD field.
_refine_ls_R_factor_gt 0.025
_refine_ls_wR_factor_gt 0.025
_symmetry_cell_setting cubic
_symmetry_space_group_name_H-M 'P 21 3'
_symmetry_Int_Tables_number 198
loop_
_symmetry_equiv_pos_site_id
_symmetry_equiv_pos_as_xyz
1 x,y,z
2 1/2-x,-y,1/2+z
3 -x,1/2+y,1/2-z
4 1/2+x,1/2-y,-z
5 z,x,y
6 1/2+z,1/2-x,-y
7 1/2-z,-x,1/2+y
8 -z,1/2+x,1/2-y
9 y,z,x
10 -y,1/2+z,1/2-x
11 1/2+y,1/2-z,-x
12 1/2-y,-z,1/2+x
_cell_length_a 17.9583(2)
_cell_length_b 17.9583(2)
_cell_length_c 17.9583(2)
_cell_angle_alpha 90
_cell_angle_beta 90
_cell_angle_gamma 90
_cell_formula_units_Z 4
loop_
_atom_type_symbol
_atom_type_radius_bond
C 0.68
H 0.23
Co 1.26
N 0.68
O 0.68
U 1.96
loop_
_atom_site_label
_atom_site_type_symbol
_atom_site_fract_x
_atom_site_fract_y
_atom_site_fract_z
U1 U 1.02773(2) 0.47227(2) 0.52773(2)
U2 U 0.55887(2) 0.55887(2) 0.55887(2)
O1 O 0.9711(3) 0.5289(3) 0.4711(3)
O2 O 1.0840(3) 0.4160(3) 0.5840(3)
O3 O 0.6156(3) 0.6156(3) 0.6156(3)
O4 O 0.5022(3) 0.5022(3) 0.5022(3)
O5 O 0.9320(3) 0.3726(3) 0.5297(4)
O6 O 0.9225(3) 0.4595(3) 0.6142(3)
O7 O 0.6545(3) 0.4611(3) 0.5530(3)
O8 O 0.5747(3) 0.4538(3) 0.6451(3)
C1 C 0.8275(4) 0.3655(5) 0.6126(5)
H1 H 0.84220 0.31810 0.63780
C2 C 0.7758(4) 0.3445(4) 0.5476(5)
H2 H 0.76450 0.38960 0.51810
H3 H 0.80170 0.30870 0.51460
C3 C 0.7030(5) 0.3098(5) 0.5751(7)
H4 H 0.71350 0.25930 0.59440
H5 H 0.66850 0.30460 0.53240
C4 C 0.6647(5) 0.3555(5) 0.6363(6)
H6 H 0.62420 0.32390 0.65790
C5 C 0.7191(5) 0.3750(6) 0.7001(5)
H7 H 0.69380 0.40790 0.73650
H8 H 0.73390 0.32880 0.72640
C6 C 0.7875(5) 0.4135(6) 0.6706(5)
H9 H 0.82190 0.42420 0.71230
H10 H 0.77300 0.46150 0.64770
C7 C 0.8977(5) 0.4010(5) 0.5837(5)
C8 C 0.6290(4) 0.4271(4) 0.6085(5)
Co1 Co 0.76124(5) 0.76124(5) 0.76124(5)
N1 N 0.6577(3) 0.8015(3) 0.7183(3)
N2 N 0.7168(3) 0.8226(3) 0.8528(3)
C9 C 0.6331(4) 0.7907(4) 0.6489(4)
H11 H 0.66260 0.76280 0.61500
C10 C 0.5655(5) 0.8194(5) 0.6254(4)
H12 H 0.54920 0.81160 0.57570
C11 C 0.5225(4) 0.8588(5) 0.6737(5)
H13 H 0.47580 0.87830 0.65840
C12 C 0.5479(4) 0.8701(4) 0.7460(4)
H14 H 0.51870 0.89700 0.78090
C13 C 0.6167(4) 0.8414(4) 0.7661(4)
C14 C 0.6498(4) 0.8543(4) 0.8409(4)
C15 C 0.6160(4) 0.8980(5) 0.8952(4)
H15 H 0.56820 0.91900 0.88670
C16 C 0.6524(5) 0.9103(5) 0.9606(5)
H16 H 0.62980 0.94010 0.99810
C17 C 0.7222(4) 0.8797(5) 0.9728(4)
H17 H 0.74910 0.88880 1.01740
C18 C 0.7509(4) 0.8352(4) 0.9170(4)
H18 H 0.79790 0.81240 0.92510
O9 O 0.9576(9) 0.2543(6) 0.4186(7)
H19 H 0.93140 0.27650 0.45760
H20 H 0.99490 0.28810 0.41990
O5D O 0.5297(3) 0.9320(3) 0.3726(4)
O6D O 0.6142(3) 0.9225(3) 0.4595(3)
O7D O 0.5530(3) 0.6545(3) 0.4611(3)
O8D O 0.6451(3) 0.5747(3) 0.4538(3)
C1D C 0.6126(4) 0.8275(5) 0.3655(5)
H1D H 0.63780 0.84220 0.31810
C2D C 0.5476(4) 0.7758(4) 0.3445(5)
H2D H 0.51810 0.76450 0.38960
H3D H 0.51460 0.80170 0.30870
C3D C 0.5751(5) 0.7030(5) 0.3098(7)
H4D H 0.59440 0.71350 0.25930
H5D H 0.53240 0.66850 0.30460
C4D C 0.6363(5) 0.6647(5) 0.3555(6)
H6D H 0.65790 0.62420 0.32390
C5D C 0.7001(5) 0.7191(6) 0.3750(5)
H7D H 0.73650 0.69380 0.40790
H8D H 0.72640 0.73390 0.32880
C6D C 0.6706(5) 0.7875(6) 0.4135(5)
H9D H 0.71230 0.82190 0.42420
H10D H 0.64770 0.77300 0.46150
C7D C 0.5837(5) 0.8977(5) 0.4010(5)
C8D C 0.6085(4) 0.6290(4) 0.4271(5)
O5H O 0.3726(3) 0.5297(3) 0.9320(4)
O6H O 0.4595(3) 0.6142(3) 0.9225(3)
O7H O 0.4611(3) 0.5530(3) 0.6545(3)
O8H O 0.4538(3) 0.6451(3) 0.5747(3)
C1H C 0.3655(4) 0.6126(5) 0.8275(5)
H1H H 0.31810 0.63780 0.84220
C2H C 0.3445(4) 0.5476(4) 0.7758(5)
H2H H 0.38960 0.51810 0.76450
H3H H 0.30870 0.51460 0.80170
C3H C 0.3098(5) 0.5751(5) 0.7030(7)
H4H H 0.25930 0.59440 0.71350
H5H H 0.30460 0.53240 0.66850
C4H C 0.3555(5) 0.6363(5) 0.6647(6)
H6H H 0.32390 0.65790 0.62420
C5H C 0.3750(5) 0.7001(6) 0.7191(5)
H7H H 0.40790 0.73650 0.69380
H8H H 0.32880 0.72640 0.73390
C6H C 0.4135(5) 0.6706(6) 0.7875(5)
H9H H 0.42420 0.71230 0.82190
H10H H 0.46150 0.64770 0.77300
C7H C 0.4010(5) 0.5837(5) 0.8977(5)
C8H C 0.4271(4) 0.6085(4) 0.6290(5)
U1A U 0.47227(2) 0.52773(2) 1.02773(2)
U1C U 0.52773(2) 1.02773(2) 0.47227(2)
O5E O 1.0297(3) 0.5680(3) 0.6274(4)
O5K O 1.1274(3) 0.4703(3) 0.4320(4)
O6E O 1.1142(3) 0.5775(3) 0.5405(3)
O6K O 1.0405(3) 0.3858(3) 0.4225(3)
N1D N 0.7183(3) 0.6577(3) 0.8015(3)
N2D N 0.8528(3) 0.7168(3) 0.8226(3)
C9D C 0.6489(4) 0.6331(4) 0.7907(4)
H11D H 0.61500 0.66260 0.76280
C10D C 0.6254(5) 0.5655(5) 0.8194(4)
H12D H 0.57570 0.54920 0.81160
C11D C 0.6737(4) 0.5225(5) 0.8588(5)
H13D H 0.65840 0.47580 0.87830
C12D C 0.7460(4) 0.5479(4) 0.8701(4)
H14D H 0.78090 0.51870 0.89700
C13D C 0.7661(4) 0.6167(4) 0.8414(4)
C14D C 0.8409(4) 0.6498(4) 0.8543(4)
C15D C 0.8952(4) 0.6160(5) 0.8980(4)
H15D H 0.88670 0.56820 0.91900
C16D C 0.9606(5) 0.6524(5) 0.9103(5)
H16D H 0.99810 0.62980 0.94010
C17D C 0.9728(4) 0.7222(5) 0.8797(4)
H17D H 1.01740 0.74910 0.88880
C18D C 0.9170(4) 0.7509(4) 0.8352(4)
H18D H 0.92510 0.79790 0.81240
N1H N 0.8015(3) 0.7183(3) 0.6577(3)
N2H N 0.8226(3) 0.8528(3) 0.7168(3)
C9H C 0.7907(4) 0.6489(4) 0.6331(4)
H11H H 0.76280 0.61500 0.66260
C10H C 0.8194(5) 0.6254(5) 0.5655(4)
H12H H 0.81160 0.57570 0.54920
C11H C 0.8588(4) 0.6737(5) 0.5225(5)
H13H H 0.87830 0.65840 0.47580
C12H C 0.8701(4) 0.7460(4) 0.5479(4)
H14H H 0.89700 0.78090 0.51870
C13H C 0.8414(4) 0.7661(4) 0.6167(4)
C14H C 0.8543(4) 0.8409(4) 0.6498(4)
C15H C 0.8980(4) 0.8952(5) 0.6160(4)
H15H H 0.91900 0.88670 0.56820
C16H C 0.9103(5) 0.9606(5) 0.6524(5)
H16H H 0.94010 0.99810 0.62980
C17H C 0.8797(4) 0.9728(5) 0.7222(4)
H17H H 0.88880 1.01740 0.74910
C18H C 0.8352(4) 0.9170(4) 0.7509(4)
H18H H 0.81240 0.92510 0.79790
#END
