
#######################################################################
#
#                 Cambridge Crystallographic Data Centre
#                                CCDC
#
#######################################################################
#
# If this CIF has been generated from an entry in the Cambridge
# Structural Database, then it will include bibliographic, chemical,
# crystal, experimental, refinement or atomic coordinate data resulting
# from the CCDC's data processing and validation procedures.
#
#######################################################################

data_CSD_CIF_BEKPAL
_audit_creation_date 2017-10-18
_audit_creation_method CSD-ConQuest-V1
_database_code_CSD BEKPAL
_database_code_depnum_ccdc_archive 'CCDC 1570464'
_chemical_formula_sum 'C64 H66 Cu2 N8 O18 U2'
_chemical_formula_moiety
;
(C24 H30 O16 U2 2-)n,2(C20 H16 Cu1 N4 1+),2(H2 O1)
;
_journal_coden_Cambridge 9
_journal_volume 56
_journal_year 2017
_journal_page_first 13464
_journal_name_full 'Inorg.Chem. '
loop_
_publ_author_name
"P.Thuery"
"J.Harrowfield"
_chemical_name_systematic
;
catena-[bis(bis(2,2'-bipyridine)-copper(i)) 
tris(\m-cyclohexane-1,4-dicarboxylato)-tetraoxo-di-uranium dihydrate]
;
_cell_volume   3257.588
_exptl_crystal_colour 'dark orange'
_exptl_crystal_density_diffrn 1.874
_exptl_crystal_description 'parallelepiped'
_diffrn_ambient_temperature 150
_diffrn_special_details
;
twin

;
#These two values have been output from a single CSD field.
_refine_ls_R_factor_gt 0.0295
_refine_ls_wR_factor_gt 0.0295
_symmetry_cell_setting monoclinic
_symmetry_space_group_name_H-M 'P c'
_symmetry_Int_Tables_number 7
loop_
_symmetry_equiv_pos_site_id
_symmetry_equiv_pos_as_xyz
1 x,y,z
2 x,-y,1/2+z
_cell_length_a 8.2701(3)
_cell_length_b 14.8223(6)
_cell_length_c 26.6956(9)
_cell_angle_alpha 90
_cell_angle_beta 95.453(2)
_cell_angle_gamma 90
_cell_formula_units_Z 2
loop_
_atom_type_symbol
_atom_type_radius_bond
C 0.68
H 0.23
Cu 1.32
N 0.68
O 0.68
U 1.96
loop_
_atom_site_label
_atom_site_type_symbol
_atom_site_fract_x
_atom_site_fract_y
_atom_site_fract_z
U1 U 0.40811(4) 0.27250(2) 0.94036(2)
U2 U 0.14249(3) 0.20029(2) 1.25634(2)
O1 O 0.4795(8) 0.1777(5) 0.9087(3)
O2 O 0.3335(9) 0.3661(5) 0.9712(3)
O3 O 0.0433(9) 0.1913(5) 1.1945(3)
O4 O 0.2447(10) 0.2089(5) 1.3178(3)
O5 O 0.6283(11) 0.2528(7) 1.0055(3)
O6 O 0.3989(8) 0.1903(5) 1.0214(2)
O7 O 0.3689(8) 0.2750(5) 1.2181(3)
O8 O 0.3902(8) 0.1287(5) 1.2314(3)
O9 O 0.1469(8) 0.1902(5) 0.9421(3)
O10 O 0.1721(9) 0.2791(5) 0.8774(3)
O11 O 0.1252(9) -0.0339(4) 0.7683(3)
O12 O -0.0765(9) -0.1145(5) 0.7905(3)
O13 O 0.4540(9) 0.3685(5) 0.8663(3)
O14 O 0.6544(8) 0.3595(5) 0.9254(3)
O15 O 0.9210(9) 0.7088(6) 0.7821(3)
O16 O 1.1211(10) 0.6308(5) 0.7565(3)
C1 C 0.6146(12) 0.2046(7) 1.0899(4)
H1 H 0.73540 0.20120 1.08990
C2 C 0.5608(11) 0.1213(7) 1.1166(3)
H2 H 0.58590 0.06660 1.09750
H3 H 0.44210 0.12340 1.11890
C3 C 0.6511(12) 0.1182(7) 1.1697(4)
H4 H 0.61510 0.06460 1.18780
H5 H 0.76920 0.11220 1.16700
C4 C 0.6198(11) 0.2027(6) 1.1996(4)
H6 H 0.69680 0.20070 1.23090
C5 C 0.6581(12) 0.2883(7) 1.1718(4)
H7 H 0.77710 0.29300 1.17080
H8 H 0.62190 0.34110 1.19050
C6 C 0.5761(12) 0.2907(7) 1.1180(4)
H9 H 0.61500 0.34390 1.10020
H10 H 0.45710 0.29640 1.11880
C7 C 0.5443(13) 0.2142(7) 1.0355(4)
C8 C 0.4480(12) 0.2027(7) 1.2167(4)
C9 C -0.0839(13) 0.2015(7) 0.8788(4)
H11 H -0.15840 0.24690 0.89210
C10 C -0.1378(11) 0.1077(7) 0.8954(4)
H12 H -0.11380 0.10210 0.93240
H13 H -0.25670 0.10180 0.88750
C11 C -0.0546(11) 0.0323(7) 0.8702(3)
H14 H -0.09900 -0.02630 0.88010
H15 H 0.06310 0.03320 0.88130
C12 C -0.0801(11) 0.0425(7) 0.8119(4)
H16 H -0.19970 0.04150 0.80180
C13 C -0.0152(12) 0.1326(6) 0.7962(4)
H17 H -0.03330 0.13880 0.75920
H18 H 0.10320 0.13550 0.80600
C14 C -0.0998(14) 0.2103(8) 0.8212(4)
H19 H -0.21620 0.21110 0.80850
H20 H -0.05130 0.26830 0.81180
C15 C 0.0892(12) 0.2245(6) 0.9006(4)
C16 C -0.0056(11) -0.0395(7) 0.7887(3)
C17 C 0.6913(13) 0.4603(10) 0.8582(4)
H21 H 0.64440 0.51920 0.86810
C18 C 0.8657(13) 0.4683(9) 0.8759(5)
H22 H 0.92220 0.41210 0.86760
H23 H 0.87770 0.47540 0.91290
C19 C 0.9445(14) 0.5479(8) 0.8520(4)
H24 H 1.06330 0.54560 0.86110
H25 H 0.90340 0.60450 0.86590
C20 C 0.9116(15) 0.5495(8) 0.7950(4)
H26 H 0.96550 0.49590 0.78110
C21 C 0.7290(17) 0.5434(11) 0.7793(5)
H27 H 0.67370 0.59780 0.79080
H28 H 0.70930 0.54010 0.74220
C22 C 0.663(2) 0.4600(13) 0.8027(5)
H29 H 0.54430 0.45600 0.79280
H30 H 0.71430 0.40590 0.78940
C23 C 0.5948(12) 0.3905(7) 0.8845(4)
C24 C 0.9876(14) 0.6334(7) 0.7758(4)
Cu1 Cu 0.38260(17) 0.17962(10) 0.59916(5)
N1 N 0.4182(11) 0.1713(6) 0.6754(3)
N2 N 0.3882(11) 0.3133(6) 0.6146(3)
N3 N 0.4653(11) 0.1127(6) 0.5418(3)
N4 N 0.1851(11) 0.0971(6) 0.5811(3)
C25 C 0.4194(14) 0.0965(8) 0.7034(4)
H31 H 0.41630 0.03970 0.68680
C26 C 0.4249(13) 0.0979(8) 0.7556(4)
H32 H 0.42920 0.04370 0.77470
C27 C 0.4238(13) 0.1812(8) 0.7787(4)
H33 H 0.42820 0.18520 0.81430
C28 C 0.4163(14) 0.2586(8) 0.7500(4)
H34 H 0.41200 0.31610 0.76560
C29 C 0.4150(12) 0.2517(7) 0.6983(4)
C30 C 0.4073(12) 0.3302(7) 0.6641(4)
C31 C 0.4158(12) 0.4207(8) 0.6823(5)
H35 H 0.42930 0.43250 0.71740
C32 C 0.4040(15) 0.4916(9) 0.6478(5)
H36 H 0.40520 0.55250 0.65890
C33 C 0.3907(14) 0.4715(8) 0.5976(5)
H37 H 0.38640 0.51850 0.57340
C34 C 0.3837(14) 0.3843(8) 0.5826(5)
H38 H 0.37520 0.37220 0.54750
C35 C 0.6012(17) 0.1284(8) 0.5188(5)
H39 H 0.67650 0.17190 0.53310
C36 C 0.6354(18) 0.0848(9) 0.4760(6)
H40 H 0.73510 0.09640 0.46230
C37 C 0.5280(18) 0.0247(9) 0.4529(5)
H41 H 0.54840 -0.00390 0.42230
C38 C 0.3860(16) 0.0067(7) 0.4761(4)
H42 H 0.30890 -0.03570 0.46170
C39 C 0.3594(12) 0.0513(7) 0.5201(4)
C40 C 0.2101(12) 0.0357(7) 0.5460(4)
C41 C 0.1059(14) -0.0357(8) 0.5345(5)
H43 H 0.12800 -0.07870 0.50960
C42 C -0.0306(17) -0.0431(10) 0.5599(6)
H44 H -0.10530 -0.09110 0.55280
C43 C -0.0564(17) 0.0195(10) 0.5951(6)
H45 H -0.15110 0.01610 0.61250
C44 C 0.0531(15) 0.0881(9) 0.6058(5)
H46 H 0.03450 0.13020 0.63150
Cu2 Cu 0.81158(17) 0.41730(9) 0.52870(5)
N5 N 0.8384(11) 0.3936(6) 0.6039(3)
N6 N 0.9244(11) 0.5332(6) 0.5508(3)
N7 N 0.9121(11) 0.3123(6) 0.4900(3)
N8 N 0.6352(10) 0.4006(5) 0.4731(3)
C45 C 0.8021(13) 0.3177(7) 0.6288(4)
H47 H 0.73070 0.27540 0.61160
C46 C 0.8611(16) 0.2982(8) 0.6770(5)
H48 H 0.83330 0.24340 0.69250
C47 C 0.9628(14) 0.3604(8) 0.7025(4)
H49 H 1.00670 0.34890 0.73610
C48 C 0.9994(13) 0.4386(8) 0.6789(4)
H50 H 1.06900 0.48180 0.69610
C49 C 0.9347(11) 0.4549(7) 0.6296(3)
C50 C 0.9696(11) 0.5368(7) 0.6008(4)
C51 C 1.0458(12) 0.6136(7) 0.6234(4)
H51 H 1.07760 0.61500 0.65850
C52 C 1.0732(13) 0.6867(7) 0.5934(4)
H52 H 1.12380 0.73940 0.60770
C53 C 1.0267(14) 0.6826(8) 0.5428(4)
H53 H 1.04500 0.73250 0.52170
C54 C 0.9543(15) 0.6064(8) 0.5230(4)
H54 H 0.92320 0.60460 0.48780
C55 C 1.0627(15) 0.2780(8) 0.4980(5)
H55 H 1.12520 0.29150 0.52880
C56 C 1.1303(15) 0.2246(8) 0.4637(5)
H56 H 1.23850 0.20320 0.47030
C57 C 1.0397(15) 0.2024(7) 0.4198(5)
H57 H 1.08380 0.16510 0.39550
C58 C 0.8818(13) 0.2356(7) 0.4112(4)
H58 H 0.81610 0.22090 0.38120
C59 C 0.8221(13) 0.2906(6) 0.4472(4)
C60 C 0.6577(12) 0.3328(7) 0.4405(4)
C61 C 0.5382(14) 0.3065(7) 0.4033(4)
H59 H 0.55620 0.25810 0.38120
C62 C 0.3924(13) 0.3528(8) 0.3992(4)
H60 H 0.30630 0.33400 0.37530
C63 C 0.3717(13) 0.4269(7) 0.4300(4)
H61 H 0.27640 0.46300 0.42570
C64 C 0.4947(13) 0.4460(7) 0.4669(4)
H62 H 0.47890 0.49420 0.48940
O17 O 0.6156(9) 0.1156(6) 1.3334(3)
H63 H 0.51270 0.12270 1.31190
H64 H 0.68160 0.11200 1.30630
O18 O 0.2495(17) 0.4508(11) 0.7864(5)
U2A U 0.14249(3) -0.20029(2) 0.75634(2)
U2A* U 1.14249(3) 0.79971(2) 0.75634(2)
O11A O 0.1252(9) 0.0339(4) 1.2683(3)
O12A O -0.0765(9) 0.1145(5) 1.2905(3)
O15A O -0.0790(9) 0.2912(6) 1.2821(3)
O16A O 0.1211(10) 0.3692(5) 1.2565(3)
#END
