
#######################################################################
#
#                 Cambridge Crystallographic Data Centre
#                                CCDC
#
#######################################################################
#
# If this CIF has been generated from an entry in the Cambridge
# Structural Database, then it will include bibliographic, chemical,
# crystal, experimental, refinement or atomic coordinate data resulting
# from the CCDC's data processing and validation procedures.
#
#######################################################################

data_CSD_CIF_BEKPEP
_audit_creation_date 2017-10-18
_audit_creation_method CSD-ConQuest-V1
_database_code_CSD BEKPEP
_database_code_depnum_ccdc_archive 'CCDC 1570465'
_chemical_formula_sum 'C54 H56 N6 O17 U2 Zn1'
_chemical_formula_moiety
;
(C24 H30 O16 U2 2-)n,C30 H24 N6 Zn1 2+,x(H2 O1)
;
_journal_coden_Cambridge 9
_journal_volume 56
_journal_year 2017
_journal_page_first 13464
_journal_name_full 'Inorg.Chem. '
loop_
_publ_author_name
"P.Thuery"
"J.Harrowfield"
_chemical_name_systematic
;
catena-[tris(2,2'-bipyridine)-zinc 
tris(\m-cyclohexane-1,4-dicarboxylato)-tetraoxo-di-uranium hydrate]
;
_cell_volume   5887.204
_exptl_crystal_colour 'light yellow'
_exptl_crystal_density_diffrn 1.869
_exptl_crystal_description 'platelet'
_diffrn_ambient_temperature 150
_refine_special_details
;
The reported formula includes four water solvent molecules; further 
disordered water solvent molecules were not modelled and the disordered 
density was taken into account using the SQUEEZE/PLATON procedure.
;
#These two values have been output from a single CSD field.
_refine_ls_R_factor_gt 0.0409
_refine_ls_wR_factor_gt 0.0409
_symmetry_cell_setting monoclinic
_symmetry_space_group_name_H-M 'P 21/n'
_symmetry_Int_Tables_number 14
loop_
_symmetry_equiv_pos_site_id
_symmetry_equiv_pos_as_xyz
1 x,y,z
2 1/2-x,1/2+y,1/2-z
3 -x,-y,-z
4 -1/2+x,-1/2-y,-1/2+z
_cell_length_a 14.8140(8)
_cell_length_b 13.9212(5)
_cell_length_c 28.5654(16)
_cell_angle_alpha 90
_cell_angle_beta 92.058(3)
_cell_angle_gamma 90
_cell_formula_units_Z 4
loop_
_atom_type_symbol
_atom_type_radius_bond
C 0.68
H 0.23
N 0.68
O 0.68
U 1.96
Zn 1.22
loop_
_atom_site_label
_atom_site_type_symbol
_atom_site_fract_x
_atom_site_fract_y
_atom_site_fract_z
U1 U 0.40379(2) 0.16050(2) 0.31642(2)
U2 U 0.86621(2) 0.23109(2) 0.50543(2)
O1 O 0.4270(3) 0.0602(3) 0.35289(14)
O2 O 0.3813(3) 0.2621(3) 0.28038(15)
O3 O 0.7476(3) 0.2201(3) 0.50174(18)
O4 O 0.9846(3) 0.2420(3) 0.50918(16)
O5 O 0.5288(3) 0.2600(3) 0.35549(15)
O6 O 0.5602(3) 0.1712(4) 0.29497(17)
O7 O 0.8732(3) 0.1945(3) 0.42110(14)
O8 O 0.8619(4) 0.3452(3) 0.44068(15)
O9 O 0.4424(3) 0.0631(4) 0.24851(15)
O10 O 0.3008(3) 0.0639(3) 0.26630(14)
O11 O 0.3503(3) 0.1019(3) 0.02993(15)
O12 O 0.3631(4) 0.2086(3) 0.08652(15)
O13 O 0.2456(3) 0.1711(3) 0.33959(14)
O14 O 0.3470(3) 0.2399(3) 0.38575(14)
O15 O 0.1266(4) -0.0964(3) 0.43771(15)
O16 O 0.1169(3) -0.0593(3) 0.51123(15)
C1 C 0.6772(4) 0.2742(5) 0.3225(2)
H1 H 0.68270 0.30030 0.29010
C2 C 0.7467(4) 0.1940(5) 0.3286(2)
H2 H 0.74030 0.16400 0.35970
H3 H 0.73430 0.14410 0.30460
C3 C 0.8430(5) 0.2295(5) 0.3246(2)
H4 H 0.85210 0.25130 0.29210
H5 H 0.88540 0.17600 0.33140
C4 C 0.8635(4) 0.3124(5) 0.3585(2)
H6 H 0.92430 0.33860 0.35140
C5 C 0.7939(4) 0.3934(4) 0.3509(2)
H7 H 0.80670 0.44560 0.37380
H8 H 0.79920 0.42040 0.31900
C6 C 0.6985(5) 0.3562(5) 0.3567(2)
H9 H 0.65490 0.40920 0.35100
H10 H 0.69210 0.33330 0.38920
C7 C 0.5834(5) 0.2343(5) 0.3257(2)
C8 C 0.8658(4) 0.2831(5) 0.4093(2)
C9 C 0.3422(4) -0.0410(4) 0.2042(2)
H11 H 0.33230 -0.10320 0.22070
C10 C 0.2537(4) -0.0174(4) 0.1762(2)
H12 H 0.23340 -0.07470 0.15810
H13 H 0.20590 -0.00050 0.19810
C11 C 0.2679(4) 0.0655(4) 0.14293(19)
H14 H 0.28420 0.12380 0.16110
H15 H 0.21100 0.07860 0.12480
C12 C 0.3430(4) 0.0425(4) 0.1091(2)
H16 H 0.32620 -0.01780 0.09180
C13 C 0.4322(4) 0.0249(5) 0.1365(2)
H17 H 0.47990 0.00830 0.11450
H18 H 0.45080 0.08420 0.15340
C14 C 0.4213(5) -0.0566(4) 0.1714(2)
H19 H 0.47800 -0.06320 0.19060
H20 H 0.41160 -0.11740 0.15400
C15 C 0.3629(5) 0.0328(5) 0.2410(2)
C16 C 0.3527(4) 0.1224(5) 0.0734(2)
C17 C 0.1937(4) 0.2447(4) 0.4103(2)
H21 H 0.18790 0.31620 0.40850
C18 C 0.2214(5) 0.2202(4) 0.4612(2)
H22 H 0.18040 0.25310 0.48250
H23 H 0.28350 0.24370 0.46810
C19 C 0.2178(5) 0.1116(5) 0.4698(2)
H24 H 0.26220 0.07880 0.45020
H25 H 0.23390 0.09790 0.50310
C20 C 0.1231(4) 0.0734(4) 0.4578(2)
H26 H 0.07990 0.10700 0.47830
C21 C 0.0957(4) 0.0955(4) 0.4071(2)
H27 H 0.03320 0.07260 0.40050
H28 H 0.13610 0.06090 0.38610
C22 C 0.1006(5) 0.2029(4) 0.3975(2)
H29 H 0.05450 0.23640 0.41570
H30 H 0.08650 0.21470 0.36380
C23 C 0.2658(5) 0.2164(4) 0.3771(2)
C24 C 0.1202(5) -0.0330(5) 0.4692(2)
Zn1 Zn 0.53609(5) 0.70811(5) 0.37663(2)
N1 N 0.5165(4) 0.6343(4) 0.31066(17)
N2 N 0.4058(4) 0.7579(4) 0.35093(18)
N3 N 0.4815(3) 0.5935(3) 0.41843(17)
N4 N 0.5222(3) 0.7714(4) 0.44442(17)
N5 N 0.6755(3) 0.6685(4) 0.39146(17)
N6 N 0.6090(4) 0.8229(4) 0.34490(18)
C25 C 0.5724(5) 0.5687(5) 0.2938(2)
H31 H 0.62800 0.55660 0.31040
C26 C 0.5532(5) 0.5179(6) 0.2534(2)
H32 H 0.59380 0.47060 0.24270
C27 C 0.4739(5) 0.5372(6) 0.2290(2)
H33 H 0.45870 0.50290 0.20110
C28 C 0.4164(5) 0.6063(5) 0.2452(2)
H34 H 0.36160 0.62110 0.22840
C29 C 0.4401(4) 0.6540(4) 0.2864(2)
C30 C 0.3801(4) 0.7274(5) 0.3079(2)
C31 C 0.3017(4) 0.7617(5) 0.2852(2)
H35 H 0.28510 0.74060 0.25440
C32 C 0.2488(5) 0.8266(5) 0.3081(2)
H36 H 0.19510 0.85040 0.29300
C33 C 0.2732(5) 0.8572(5) 0.3524(2)
H37 H 0.23710 0.90150 0.36880
C34 C 0.3521(5) 0.8210(5) 0.3724(2)
H38 H 0.36980 0.84180 0.40300
C35 C 0.4601(4) 0.5046(4) 0.4037(2)
H39 H 0.48510 0.48270 0.37540
C36 C 0.4043(4) 0.4428(5) 0.4268(2)
H40 H 0.39380 0.37900 0.41600
C37 C 0.3642(5) 0.4773(5) 0.4663(2)
H41 H 0.32210 0.43880 0.48220
C38 C 0.3856(5) 0.5682(5) 0.4827(2)
H42 H 0.35860 0.59220 0.51000
C39 C 0.4465(4) 0.6239(4) 0.4593(2)
C40 C 0.4783(4) 0.7190(4) 0.4757(2)
C41 C 0.4696(5) 0.7501(5) 0.5218(2)
H43 H 0.43890 0.71170 0.54370
C42 C 0.5064(5) 0.8376(5) 0.5353(2)
H44 H 0.50120 0.86000 0.56650
C43 C 0.5508(5) 0.8921(5) 0.5027(2)
H45 H 0.57620 0.95280 0.51090
C44 C 0.5572(4) 0.8560(5) 0.4584(2)
H46 H 0.58820 0.89310 0.43620
C45 C 0.7045(4) 0.5979(5) 0.4196(2)
H47 H 0.66210 0.55090 0.42880
C46 C 0.7934(5) 0.5892(5) 0.4364(2)
H48 H 0.81210 0.53640 0.45550
C47 C 0.8533(5) 0.6595(5) 0.4244(2)
H49 H 0.91390 0.65780 0.43640
C48 C 0.8250(5) 0.7330(5) 0.3946(2)
H50 H 0.86620 0.78100 0.38540
C49 C 0.7364(4) 0.7356(5) 0.3786(2)
C50 C 0.6998(4) 0.8122(4) 0.3465(2)
C51 C 0.7535(5) 0.8679(5) 0.3185(2)
H51 H 0.81720 0.85940 0.31930
C52 C 0.7133(5) 0.9356(5) 0.2895(2)
H52 H 0.74940 0.97460 0.27030
C53 C 0.6213(5) 0.9470(5) 0.2881(2)
H53 H 0.59260 0.99320 0.26810
C54 C 0.5726(5) 0.8897(5) 0.3163(2)
H54 H 0.50890 0.89770 0.31580
O17 O 0.1359(5) 0.0106(4) 0.6015(2)
H55 H 0.12640 -0.00490 0.56910
H56 H 0.09660 0.05820 0.59990
O18 O 0.0072(5) -0.1232(6) 0.3582(2)
H57 H 0.04530 -0.12280 0.38650
H58 H 0.02120 -0.17830 0.34850
O19 O 0.6800(7) 0.1170(6) 0.2115(3)
H59 H 0.65000 0.13130 0.23980
H60 H 0.64180 0.13250 0.18590
O20 O 0.5614(9) 0.2516(9) 0.2041(4)
U2B U 0.13379(2) -0.23109(2) 0.49457(2)
U2C U 0.36621(2) 0.26891(2) 0.00543(2)
O11C O 0.8503(3) 0.3981(3) 0.52993(15)
O12C O 0.8631(4) 0.2914(3) 0.58652(15)
O15B O 0.8734(4) 0.0964(3) 0.56229(15)
O16B O 0.8831(3) 0.0593(3) 0.48877(15)
#END
