
#######################################################################
#
#                 Cambridge Crystallographic Data Centre
#                                CCDC
#
#######################################################################
#
# If this CIF has been generated from an entry in the Cambridge
# Structural Database, then it will include bibliographic, chemical,
# crystal, experimental, refinement or atomic coordinate data resulting
# from the CCDC's data processing and validation procedures.
#
#######################################################################

data_CSD_CIF_BEKROZ
_audit_creation_date 2004-06-01
_audit_creation_method CSD-ConQuest-V1
_database_code_CSD BEKROZ
_database_code_depnum_ccdc_archive 'CCDC 229232'
_chemical_formula_sum 'C16 H28 F4 N2 O15 P2 U3'
_chemical_formula_moiety
;
(C4 H12 N2 2+)n,n(C12 H12 F4 O13 P2 U3 2-),2n(H2 O1)
;
_journal_coden_Cambridge 1096
_journal_volume 15
_journal_year 2003
_journal_page_first 1449
_journal_name_full 'Chem.Mater. '
loop_
_publ_author_name
"M.B.Doran"
"A.J.Norquist"
"D.O'Hare"
_chemical_name_systematic
;
catena-(Pyrazin-1,4-diium 
tetrakis(\m~2~-fluoro)-bis(\m~2~-phenylphosphonato)-aqua-tris(dioxo-uranium) 
dihydrate)
;
_cell_volume   2891.111
_exptl_crystal_colour 'yellow'
_exptl_crystal_density_diffrn 3.07
_exptl_crystal_description 'plate'
_diffrn_ambient_temperature 150
#These two values have been output from a single CSD field.
_refine_ls_R_factor_gt 0.0252
_refine_ls_wR_factor_gt 0.0252
_symmetry_cell_setting orthorhombic
_symmetry_space_group_name_H-M 'P b c m'
_symmetry_Int_Tables_number 57
loop_
_symmetry_equiv_pos_site_id
_symmetry_equiv_pos_as_xyz
1 x,y,z
2 -x,1/2+y,z
3 x,1/2-y,1/2+z
4 x,y,1/2-z
5 -x,-y,-z
6 x,-1/2-y,-z
7 -x,-1/2+y,-1/2-z
8 -x,-y,-1/2+z
_cell_length_a 6.7796(1)
_cell_length_b 17.2821(4)
_cell_length_c 24.6754(6)
_cell_angle_alpha 90
_cell_angle_beta 90
_cell_angle_gamma 90
_cell_formula_units_Z 4
loop_
_atom_type_symbol
_atom_type_radius_bond
C 0.68
H 0.23
F 0.64
N 0.68
O 0.68
P 1.05
U 1.47
loop_
_atom_site_label
_atom_site_type_symbol
_atom_site_fract_x
_atom_site_fract_y
_atom_site_fract_z
U1 U 0.08796(4) 0.716751(17) 0.33042(1)
U2 U -0.08929(7) 0.75000 0.50000
P1 P -0.4089(3) 0.68682(12) 0.38783(7)
F1 F -0.094(1) 0.7353(4) 0.25000
F2 F 0.2789(11) 0.7382(4) 0.25000
F3 F 0.0443(7) 0.7001(3) 0.42115(17)
O1 O 0.0609(9) 0.8181(3) 0.3392(2)
O2 O 0.1131(9) 0.6161(4) 0.3171(2)
O3 O -0.2473(9) 0.6935(4) 0.3442(2)
O4 O -0.083(1) 0.6549(4) 0.5257(2)
O5 O 0.2766(14) 0.75000 0.50000
O6 O -0.6014(9) 0.7205(3) 0.3649(2)
O7 O -0.3558(8) 0.7267(3) 0.4409(2)
O8 O 0.6335(15) 0.5985(7) 0.25000
O9 O 0.142(3) 0.9751(13) 0.25000
N1 N -0.2983(16) 0.9950(6) 0.25000
N2 N -0.4117(16) 0.8347(6) 0.25000
C1 C -0.4428(13) 0.5861(5) 0.4032(3)
C2 C -0.6211(14) 0.5599(5) 0.4264(4)
C3 C -0.2912(15) 0.5329(6) 0.3969(4)
C4 C -0.431(2) 0.8823(6) 0.2002(4)
C5 C -0.492(2) 0.4327(6) 0.4342(4)
C6 C -0.284(2) 0.9464(6) 0.1996(4)
C7 C -0.6443(16) 0.4846(6) 0.4419(4)
C8 C -0.3165(19) 0.4559(7) 0.4126(4)
H1 H 0.35740 0.76560 0.52490
H2 H -0.20380 1.04330 0.25000
H3 H -0.41940 1.01510 0.25000
H4 H -0.73230 0.59740 0.43170
H5 H -0.16280 0.54950 0.38090
H6 H -0.51080 0.37730 0.44450
H7 H -0.77110 0.46710 0.45860
H8 H -0.20770 0.41840 0.40830
H9 H -0.50050 0.80700 0.25000
H10 H -0.30700 0.81250 0.25000
H11 H -0.56760 0.90480 0.19870
H12 H -0.41040 0.84870 0.16760
H13 H -0.30820 0.98000 0.16730
H14 H -0.14860 0.92370 0.19740
H1E H 0.35740 0.73440 0.47510
C4C C -0.431(2) 0.8823(6) 0.2998(4)
C6C C -0.284(2) 0.9464(6) 0.3004(4)
H13C H -0.30820 0.98000 0.33270
H14C H -0.14860 0.92370 0.30260
H11C H -0.56760 0.90480 0.30130
H12C H -0.41040 0.84870 0.33240
F3E F 0.0443(7) 0.7999(3) 0.57885(17)
O4E O -0.083(1) 0.8451(4) 0.4743(2)
P1E P -0.4089(3) 0.81318(12) 0.61217(7)
O3E O -0.2473(9) 0.8065(4) 0.6558(2)
O6E O -0.6014(9) 0.7795(3) 0.6351(2)
O7E O -0.3558(8) 0.7733(3) 0.5591(2)
C1E C -0.4428(13) 0.9139(5) 0.5968(3)
C2E C -0.6211(14) 0.9401(5) 0.5736(4)
C3E C -0.2912(15) 0.9671(6) 0.6031(4)
C5E C -0.492(2) 1.0673(6) 0.5658(4)
C7E C -0.6443(16) 1.0154(6) 0.5581(4)
C8E C -0.3165(19) 1.0441(7) 0.5874(4)
H4E H -0.73230 0.90260 0.56830
H5E H -0.16280 0.95050 0.61910
H6E H -0.51080 1.12270 0.55550
H7E H -0.77110 1.03290 0.54140
H8E H -0.20770 1.08160 0.59170
U1E U 0.08796(4) 0.783249(17) 0.66958(1)
O1E O 0.0609(9) 0.6819(3) 0.6608(2)
O2E O 0.1131(9) 0.8839(4) 0.6829(2)
O6* O 0.3986(9) 0.7205(3) 0.3649(2)
U1C U 0.08796(4) 0.716751(17) 0.16958(1)
U1* U -0.91204(4) 0.716751(17) 0.33042(1)
U1E* U -0.91204(4) 0.783249(17) 0.66958(1)
F1B F -0.094(1) 0.7647(4) 0.75000
F2B F 0.2789(11) 0.7618(4) 0.75000
O6E* O 0.3986(9) 0.7795(3) 0.6351(2)
#END
