
#######################################################################
#
#                 Cambridge Crystallographic Data Centre
#                                CCDC
#
#######################################################################
#
# If this CIF has been generated from an entry in the Cambridge
# Structural Database, then it will include bibliographic, chemical,
# crystal, experimental, refinement or atomic coordinate data resulting
# from the CCDC's data processing and validation procedures.
#
#######################################################################

data_CSD_CIF_BELVAR
_audit_creation_date 2013-02-22
_audit_creation_method CSD-ConQuest-V1
_database_code_CSD BELVAR
_database_code_depnum_ccdc_archive 'CCDC 871878'
_chemical_formula_sum 'C45 H36 Cl1 Mn3 N1 O17 P2'
_chemical_formula_moiety
;
(C43 H28 Cl1 Mn3 O17 P2 1-)n,n(C2 H8 N1 1+)
;
_journal_coden_Cambridge 29
_journal_volume 638
_journal_year 2012
_journal_page_first 1839
_journal_name_full 'Z.Anorg.Allg.Chem. '
loop_
_publ_author_name
"P.Schmiedel"
"H.Krautscheid"
_chemical_name_systematic
;
catena-(dimethylammonium 
(\m~6~-4,4',4''-phosphoryltribenzoato)-(\m~5~-hydrogen 
4,4',4''-phosphoryltribenzoato)-(\m~3~-formato)-(\m~2~-chloro)-aqua-tri-mangan
ese unknown solvate)
;
_cell_volume  12227.550
_exptl_crystal_colour 'colorless'
_exptl_crystal_density_diffrn 1.222
_exptl_crystal_description 'prism'
_diffrn_ambient_temperature 180
_refine_special_details
;
The SQUEEZE/PLATON program has been used to model some disorder.

;
#These two values have been output from a single CSD field.
_refine_ls_R_factor_gt 0.051
_refine_ls_wR_factor_gt 0.051
_symmetry_cell_setting monoclinic
_symmetry_space_group_name_H-M 'C 2/c'
_symmetry_Int_Tables_number 15
loop_
_symmetry_equiv_pos_site_id
_symmetry_equiv_pos_as_xyz
1 x,y,z
2 -x,y,1/2-z
3 1/2+x,1/2+y,z
4 1/2-x,1/2+y,1/2-z
5 -x,-y,-z
6 x,-y,-1/2+z
7 -1/2-x,-1/2-y,-z
8 -1/2+x,-1/2-y,-1/2+z
_cell_length_a 24.562(2)
_cell_length_b 15.9487(11)
_cell_length_c 32.901(3)
_cell_angle_alpha 90
_cell_angle_beta 108.427(7)
_cell_angle_gamma 90
_cell_formula_units_Z 8
loop_
_atom_type_symbol
_atom_type_radius_bond
C 0.68
H 0.23
Cl 0.99
Mn 1.56
N 0.68
O 0.68
P 1.05
loop_
_atom_site_label
_atom_site_type_symbol
_atom_site_fract_x
_atom_site_fract_y
_atom_site_fract_z
C1 C 0.23541(19) 1.5352(3) 0.10083(15)
C2 C 0.2551(2) 1.6157(4) 0.09723(18)
H1 H 0.29060 1.62280 0.09180
C3 C 0.2239(2) 1.6856(4) 0.10137(17)
H2 H 0.23820 1.74020 0.09930
C4 C 0.17090(19) 1.6755(3) 0.10869(16)
C5 C 0.1401(2) 1.7533(3) 0.11576(16)
C6 C 0.1504(2) 1.5951(3) 0.11144(18)
H3 H 0.11440 1.58810 0.11610
C7 C 0.1818(2) 1.5247(3) 0.10746(18)
H4 H 0.16730 1.47000 0.10920
C8 C 0.24189(18) 1.3548(3) 0.08358(14)
C9 C 0.2264(2) 1.3320(3) 0.04047(15)
H5 H 0.23520 1.36800 0.02040
C10 C 0.19814(19) 1.2568(3) 0.02683(15)
H6 H 0.18700 1.24240 -0.00270
C11 C 0.18594(17) 1.2021(3) 0.05580(14)
C12 C 0.16308(18) 1.1139(3) 0.04170(15)
C13 C 0.1994(2) 1.2263(3) 0.09882(16)
H7 H 0.18960 1.19060 0.11850
C14 C 0.2268(2) 1.3015(3) 0.11283(16)
H8 H 0.23540 1.31750 0.14200
C15 C 0.32188(19) 1.4307(3) 0.15844(15)
C16 C 0.3724(2) 1.3840(4) 0.16938(16)
H9 H 0.38660 1.36470 0.14730
C17 C 0.4029(2) 1.3649(4) 0.21215(17)
H10 H 0.43700 1.33230 0.21890
C18 C 0.3830(2) 1.3938(4) 0.24447(15)
C19 C 0.4147(2) 1.3733(4) 0.29051(17)
C20 C 0.3322(2) 1.4399(5) 0.23393(17)
H11 H 0.31770 1.45830 0.25600
C21 C 0.3024(2) 1.4592(4) 0.19158(17)
H12 H 0.26850 1.49220 0.18510
C22 C 0.16264(19) 0.6654(3) -0.08773(15)
C23 C 0.1863(2) 0.6688(4) -0.04291(17)
H13 H 0.21160 0.62570 -0.02820
C24 C 0.1732(2) 0.7339(4) -0.01992(17)
H14 H 0.18920 0.73470 0.01040
C25 C 0.13671(19) 0.7988(3) -0.04075(15)
C26 C 0.1255(2) 0.8734(3) -0.01546(16)
C27 C 0.1132(2) 0.7960(3) -0.08487(16)
H15 H 0.08850 0.84000 -0.09940
C28 C 0.1252(2) 0.7291(3) -0.10850(16)
H16 H 0.10780 0.72730 -0.13870
C29 C 0.1521(2) 0.4855(3) -0.10519(16)
C30 C 0.1853(2) 0.4124(3) -0.09783(18)
H17 H 0.22430 0.41540 -0.09680
C31 C 0.16240(19) 0.3359(3) -0.09200(17)
H18 H 0.18590 0.28720 -0.08640
C32 C 0.10462(19) 0.3301(3) -0.09432(15)
C33 C 0.0798(2) 0.2456(3) -0.08979(16)
C34 C 0.0716(2) 0.4025(3) -0.10093(19)
H19 H 0.03260 0.39900 -0.10200
C35 C 0.0945(2) 0.4805(3) -0.10599(17)
H20 H 0.07160 0.52960 -0.10990
C36 C 0.1597(2) 0.5983(3) -0.17203(16)
C37 C 0.1988(3) 0.6197(5) -0.1938(2)
H21 H 0.23780 0.63010 -0.17790
C38 C 0.1815(3) 0.6255(5) -0.2369(2)
H22 H 0.20870 0.64040 -0.25070
C39 C 0.1253(3) 0.6104(4) -0.26153(19)
C40 C 0.1082(3) 0.6138(5) -0.3102(2)
C41 C 0.0854(3) 0.5923(5) -0.24127(19)
H23 H 0.04650 0.58280 -0.25770
C42 C 0.1021(2) 0.5880(5) -0.19703(18)
H24 H 0.07400 0.57790 -0.18330
C43 C -0.0238(2) 1.0736(3) -0.03997(16)
H25 H -0.03570 1.05470 -0.01670
Mn1 Mn 0.10294(3) 1.05830(5) -0.05534(2)
Mn2 Mn 0.03786(3) 1.84904(5) 0.12555(2)
Mn3 Mn 0.15815(3) 1.93618(5) 0.08309(2)
O1 O 0.16561(14) 1.8224(2) 0.11937(11)
O2 O 0.08967(15) 1.7430(2) 0.11870(14)
O3 O 0.16332(14) 1.0905(2) 0.00535(10)
O4 O 0.14792(14) 1.0693(2) 0.06818(10)
O5 O 0.45717(17) 1.3246(3) 0.30063(12)
O6 O 0.39751(15) 1.4076(3) 0.31977(11)
O7 O 0.32362(13) 1.4703(2) 0.07728(10)
O8 O 0.14630(15) 0.8688(2) 0.02477(11)
O9 O 0.09344(13) 0.9313(2) -0.03655(11)
O10 O 0.11334(13) 0.1863(2) -0.07412(11)
O11 O 0.02540(14) 0.2412(2) -0.10374(14)
O12 O 0.1403(2) 0.6339(4) -0.32924(16)
O13 O 0.0533(3) 0.5922(5) -0.32972(15)
H26 H 0.04620 0.59520 -0.35640
O14 O 0.24989(12) 0.5699(2) -0.09873(11)
O15 O 0.02796(13) 1.0914(2) -0.03172(11)
O16 O -0.06280(12) 1.0783(2) -0.07678(10)
O17 O 0.16809(18) 1.9971(3) 0.14697(12)
P1 P 0.28433(5) 1.44904(8) 0.10246(4)
P2 P 0.18601(5) 0.58053(8) -0.11474(4)
Cl1 Cl 0.02790(6) 1.02185(10) -0.12825(4)
H27 H 0.149(3) 1.961(4) 0.1605(19)
H28 H 0.198(2) 2.038(4) 0.1678(18)
C44 C 0.0402(3) 0.1625(5) 0.0783(3)
H29 H 0.03080 0.12910 0.05200
H30 H 0.06800 0.20600 0.07750
H31 H 0.00520 0.18870 0.08060
C45 C 0.0802(4) 0.1507(6) 0.1570(3)
H32 H 0.09610 0.10870 0.17930
H33 H 0.04610 0.17620 0.16120
H34 H 0.10900 0.19420 0.15860
N1 N 0.0641(3) 0.1096(4) 0.1142(2)
H35 H 0.09640 0.08460 0.11110
H36 H 0.03810 0.06770 0.11360
Mn1F Mn 0.39706(3) 1.44170(5) 0.05534(2)
Mn1* Mn 0.10294(3) 0.05830(5) -0.05534(2)
Mn2C Mn 0.46214(3) 1.34904(5) 0.37445(2)
Mn2D Mn -0.03786(3) 0.15096(5) -0.12555(2)
Mn2D* Mn -0.03786(3) 1.15096(5) -0.12555(2)
Mn3* Mn 0.15815(3) 0.93618(5) 0.08309(2)
Mn3F Mn 0.34185(3) 0.56382(5) -0.08309(2)
Mn3D Mn -0.15815(3) 1.06382(5) -0.08309(2)
O4* O 0.14792(14) 2.0693(2) 0.06818(10)
O5C O 0.04283(17) 1.8246(3) 0.19937(12)
O6C O 0.10249(15) 1.9076(3) 0.18023(11)
O7F O 0.17638(13) 1.0297(2) -0.07728(10)
O8* O 0.14630(15) 1.8688(2) 0.02477(11)
O10* O 0.11334(13) 1.1863(2) -0.07412(11)
O11D O -0.02540(14) 1.7588(2) 0.10374(14)
O14F O 0.25011(12) 1.9301(2) 0.09873(11)
O16D O 0.06280(12) 1.9217(2) 0.07678(10)
Cl1D Cl -0.02790(6) 1.97815(10) 0.12825(4)
#END
