
#######################################################################
#
#                 Cambridge Crystallographic Data Centre
#                                CCDC
#
#######################################################################
#
# If this CIF has been generated from an entry in the Cambridge
# Structural Database, then it will include bibliographic, chemical,
# crystal, experimental, refinement or atomic coordinate data resulting
# from the CCDC's data processing and validation procedures.
#
#######################################################################

data_CSD_CIF_BEMRES
_audit_creation_date 2013-02-22
_audit_creation_method CSD-ConQuest-V1
_database_code_CSD BEMRES
_database_code_depnum_ccdc_archive 'CCDC 866723'
_chemical_formula_sum 'C88 H72 Ag8 N16 O18'
_chemical_formula_moiety
;
(C74 H54 Ag7 N12 O16 1-)n,n(C14 H14 Ag1 N4 1+),2n(H2 O1)
;
_journal_coden_Cambridge 29
_journal_volume 638
_journal_year 2012
_journal_page_first 1531
_journal_name_full 'Z.Anorg.Allg.Chem. '
loop_
_publ_author_name
"Ji-Jiang Wang"
"Pei-Xiang Cao"
"Mei-Li Zhang"
"Lou-Jun Gao"
"Xiang-Yang Hou"
_chemical_name_systematic
;
catena-((\m~2~-1,1'-(1,4-phenylenebis(methylene))bis(1H-imidazole))-silver 
bis(\m~4~-biphenyl-2,2',4,4'-tetracarboxylato)-tris(\m~2~-1,1'-(1,4-phenyleneb
is(methylene))bis(1H-imidazole))-hepta-silver dihydrate)
;
_cell_volume   2106.273
_exptl_crystal_density_diffrn 1.975
_diffrn_ambient_temperature 296
#These two values have been output from a single CSD field.
_refine_ls_R_factor_gt 0.089
_refine_ls_wR_factor_gt 0.089
_symmetry_cell_setting triclinic
_symmetry_space_group_name_H-M 'P -1'
_symmetry_Int_Tables_number 2
loop_
_symmetry_equiv_pos_site_id
_symmetry_equiv_pos_as_xyz
1 x,y,z
2 -x,-y,-z
_cell_length_a 10.992(2)
_cell_length_b 15.116(3)
_cell_length_c 15.464(3)
_cell_angle_alpha 107.380(3)
_cell_angle_beta 106.133(4)
_cell_angle_gamma 109.114(4)
_cell_formula_units_Z 1
loop_
_atom_type_symbol
_atom_type_radius_bond
C 0.68
H 0.23
Ag 1.29
N 0.68
O 0.85
loop_
_atom_site_label
_atom_site_type_symbol
_atom_site_fract_x
_atom_site_fract_y
_atom_site_fract_z
Ag1 Ag 2.0756(1) 1.6272(1) 1.3489(1)
Ag2 Ag 1.2100(1) 1.00710 0.90920
Ag3 Ag 1.00000 1.00000 1.00000
Ag4 Ag 1.50000 1.00000 1.00000
Ag5 Ag 0.0470(1) 0.02710 0.41750
C1 C 1.7341(7) 1.3560(5) 1.3081(5)
C2 C 1.6113(6) 1.2823(5) 1.2254(5)
H1 H 1.58980 1.29250 1.16770
C3 C 1.5177(7) 1.1932(4) 1.2246(5)
C4 C 1.5540(7) 1.1761(5) 1.3122(4)
C5 C 1.6778(7) 1.2522(5) 1.3946(5)
H2 H 1.70230 1.24240 1.45250
C6 C 1.7657(7) 1.3410(5) 1.3945(5)
H3 H 1.84580 1.39090 1.45210
C7 C 1.8345(7) 1.4515(5) 1.3059(5)
C8 C 1.3764(7) 1.1261(5) 1.1372(5)
C9 C 1.4705(6) 1.0797(5) 1.3194(4)
C10 C 1.4508(6) 0.9814(5) 1.2594(4)
C11 C 1.3810(7) 0.8964(5) 1.2751(5)
H4 H 1.36670 0.83120 1.23450
C12 C 1.3318(7) 0.9059(5) 1.3498(5)
C13 C 1.3563(7) 1.0049(5) 1.4101(5)
H5 H 1.32500 1.01330 1.46070
C14 C 1.4260(7) 1.0911(5) 1.3968(5)
H6 H 1.44320 1.15640 1.43940
C15 C 1.5060(7) 0.9668(5) 1.1799(5)
C16 C 1.2511(7) 0.8129(5) 1.3627(5)
C17 C 0.9184(8) 0.8382(6) 0.7217(5)
H7 H 0.86380 0.86960 0.73980
C18 C 0.9760(8) 0.7244(6) 0.6426(6)
H8 H 0.97160 0.66500 0.59820
C19 C 1.0925(8) 0.8059(6) 0.7200(6)
H9 H 1.18400 0.81220 0.73680
C20 C 0.7162(8) 0.6759(6) 0.5771(5)
H10 H 0.70770 0.64170 0.51020
H11 H 0.66110 0.71460 0.57460
C21 C 0.6584(7) 0.5958(5) 0.6127(5)
C22 C 0.5813(8) 0.6076(6) 0.6690(6)
H12 H 0.55960 0.66340 0.68060
C23 C 0.5358(8) 0.5388(5) 0.7082(6)
H13 H 0.48320 0.54820 0.74490
C24 C 0.5679(7) 0.4562(5) 0.6933(5)
C25 C 0.6397(8) 0.4413(6) 0.6344(6)
H14 H 0.65790 0.38390 0.62090
C26 C 0.6857(8) 0.5106(6) 0.5944(6)
H15 H 0.73490 0.49940 0.55540
C27 C 0.5178(8) 0.3803(6) 0.7350(6)
H16 H 0.57560 0.34380 0.73900
H17 H 0.52870 0.41760 0.80190
C28 C 0.2526(8) 0.3246(6) 0.6644(6)
H18 H 0.25270 0.38490 0.70340
C29 C 0.1394(9) 0.2391(6) 0.5887(6)
H19 H 0.04660 0.23040 0.56710
C30 C 0.3212(9) 0.2091(5) 0.6008(5)
H20 H 0.37850 0.17750 0.58970
C31 C 1.0948(8) 0.8278(5) 0.9932(5)
H21 H 1.18370 0.87570 1.04390
C32 C 0.9186(8) 0.6823(6) 0.8754(5)
H22 H 0.86320 0.61280 0.83100
C33 C 0.8786(8) 0.7588(6) 0.8857(5)
H23 H 0.79040 0.75130 0.84810
C34 C 1.1437(9) 0.6729(6) 0.9597(7)
H24 H 1.23470 0.72150 1.01510
H25 H 1.16030 0.64670 0.90090
C35 C 1.0713(8) 0.5833(6) 0.9822(6)
C36 C 1.0485(11) 0.6008(6) 1.0671(7)
H26 H 1.08090 0.66830 1.11350
C37 C 1.0241(10) 0.4835(7) 0.9158(6)
H27 H 1.04010 0.47100 0.85830
C38 C -0.0196(9) -0.1339(6) 0.2034(6)
H28 H 0.07440 -0.11400 0.21290
C39 C -0.1326(11) -0.2028(7) 0.1183(6)
H29 H -0.13070 -0.23770 0.05830
C40 C -0.2034(9) -0.1473(5) 0.2288(5)
H30 H -0.26310 -0.13790 0.25920
C41 C -0.3957(9) -0.2768(6) 0.0618(7)
H31 H -0.40720 -0.26410 0.00280
H32 H -0.45590 -0.25570 0.08970
C42 C -0.4451(8) -0.3925(6) 0.0311(5)
C43 C -0.3620(8) -0.4359(6) 0.0684(6)
H33 H -0.26860 -0.39330 0.11480
C44 C -0.5830(8) -0.4578(6) -0.0371(6)
H34 H -0.64040 -0.43000 -0.06260
N1 N 1.0571(6) 0.8785(4) 0.7706(4)
N2 N 0.8651(6) 0.7475(4) 0.6434(4)
N3 N 0.3681(7) 0.3047(4) 0.6723(4)
N4 N 0.1821(7) 0.1663(5) 0.5483(5)
N5 N 0.9896(6) 0.8497(4) 0.9607(4)
N6 N 1.0562(7) 0.7267(5) 0.9428(5)
N7 N -0.0648(7) -0.0976(4) 0.2740(4)
N8 N -0.2489(7) -0.2130(5) 0.1342(5)
O1 O 1.9526(6) 1.5066(4) 1.3786(4)
O2 O 1.7950(5) 1.4688(4) 1.2315(4)
O3 O 1.3749(5) 1.1210(4) 1.0521(3)
O4 O 1.2713(5) 1.0820(4) 1.1503(3)
O5 O 1.4218(6) 0.9305(6) 1.0932(4)
O6 O 1.6335(6) 0.9944(5) 1.2063(4)
O7 O 1.2447(7) 0.7285(4) 1.3134(4)
O8 O 1.1935(6) 0.8237(4) 1.4210(4)
O9 O 0.7976(7) 0.0364(5) 0.4078(4)
H35 H 0.779(10) 0.071(7) 0.453(4)
H36 H 0.753(9) 0.035(8) 0.353(3)
Ag1A Ag 0.9244(1) 0.3728(1) 0.6511(1)
Ag1* Ag 1.0756(1) 0.6272(1) 1.3489(1)
Ag1A* Ag 1.9244(1) 1.3728(1) 0.6511(1)
Ag2A Ag 1.7900(1) 0.99290 1.09080
Ag3* Ag 1.00000 0.00000 1.00000
Ag5A Ag 2.9530(1) 1.97290 1.58250
Ag5A* Ag -1.0470(1) -1.02710 -0.41750
C1A C 1.2659(7) 0.6440(5) 0.6919(5)
C2A C 1.3887(6) 0.7177(5) 0.7746(5)
H1A H 1.41020 0.70750 0.83230
C3A C 1.4823(7) 0.8068(4) 0.7754(5)
C4A C 1.4460(7) 0.8239(5) 0.6878(4)
C5A C 1.3222(7) 0.7478(5) 0.6054(5)
H2A H 1.29770 0.75760 0.54750
C6A C 1.2343(7) 0.6590(5) 0.6055(5)
H3A H 1.15420 0.60910 0.54790
C7A C 1.1655(7) 0.5485(5) 0.6941(5)
C8A C 1.6236(7) 0.8739(5) 0.8628(5)
C9A C 1.5295(6) 0.9203(5) 0.6806(4)
C10A C 1.5492(6) 1.0186(5) 0.7406(4)
C11A C 1.6190(7) 1.1036(5) 0.7249(5)
H4A H 1.63330 1.16880 0.76550
C12A C 1.6682(7) 1.0941(5) 0.6502(5)
C13A C 1.6437(7) 0.9951(5) 0.5899(5)
H5A H 1.67500 0.98670 0.53930
C14A C 1.5740(7) 0.9089(5) 0.6032(5)
H6A H 1.55680 0.84360 0.56060
C15A C 1.4940(7) 1.0332(5) 0.8201(5)
C16A C 1.7489(7) 1.1871(5) 0.6373(5)
C17A C 2.0816(8) 1.1618(6) 1.2783(5)
H7A H 2.13620 1.13040 1.26020
C18A C 2.0240(8) 1.2756(6) 1.3574(6)
H8A H 2.02840 1.33500 1.40180
C19A C 1.9075(8) 1.1941(6) 1.2800(6)
H9A H 1.81600 1.18780 1.26320
C20A C 2.2838(8) 1.3241(6) 1.4229(5)
H10A H 2.29230 1.35830 1.48980
H11A H 2.33890 1.28540 1.42540
C21A C 2.3416(7) 1.4042(5) 1.3873(5)
C22A C 2.4187(8) 1.3924(6) 1.3310(6)
H12A H 2.44040 1.33660 1.31940
C23A C 2.4642(8) 1.4612(5) 1.2918(6)
H13A H 2.51680 1.45180 1.25510
C24A C 2.4321(7) 1.5438(5) 1.3067(5)
C25A C 2.3603(8) 1.5587(6) 1.3656(6)
H14A H 2.34210 1.61610 1.37910
C26A C 2.3143(8) 1.4894(6) 1.4056(6)
H15A H 2.26510 1.50060 1.44460
C27A C 2.4822(8) 1.6197(6) 1.2650(6)
H16A H 2.42440 1.65620 1.26100
H17A H 2.47130 1.58240 1.19810
C28A C 2.7474(8) 1.6754(6) 1.3356(6)
H18A H 2.74730 1.61510 1.29660
C29A C 2.8606(9) 1.7609(6) 1.4113(6)
H19A H 2.95340 1.76960 1.43290
C30A C 2.6788(9) 1.7909(5) 1.3992(5)
H20A H 2.62150 1.82250 1.41030
C31A C 0.9052(8) 0.1722(5) 1.0068(5)
H21A H 0.81630 0.12430 0.95610
C32A C 1.0814(8) 0.3177(6) 1.1246(5)
H22A H 1.13680 0.38720 1.16900
C33A C 1.1214(8) 0.2412(6) 1.1143(5)
H23A H 1.20960 0.24870 1.15190
C34A C 0.8563(9) 0.3271(6) 1.0403(7)
H24A H 0.76530 0.27850 0.98490
H25A H 0.83970 0.35330 1.09910
C35A C 0.9287(8) 0.4167(6) 1.0178(6)
C36A C 0.9515(11) 0.3992(6) 0.9329(7)
H26A H 0.91910 0.33170 0.88650
C37A C 0.9759(10) 0.5165(7) 1.0842(6)
H27A H 0.95990 0.52900 1.14170
C38A C -0.9804(9) -0.8661(6) -0.2034(6)
H28A H -1.07440 -0.88600 -0.21290
C39A C -0.8674(11) -0.7972(7) -0.1183(6)
H29A H -0.86930 -0.76230 -0.05830
C40A C -0.7966(9) -0.8527(5) -0.2288(5)
H30A H -0.73690 -0.86210 -0.25920
C41A C -0.6043(9) -0.7232(6) -0.0618(7)
H31A H -0.59280 -0.73590 -0.00280
H32A H -0.54410 -0.74430 -0.08970
C42A C -0.5549(8) -0.6075(6) -0.0311(5)
C43A C -0.6380(8) -0.5641(6) -0.0684(6)
H33A H -0.73140 -0.60670 -0.11480
C44A C -0.4170(8) -0.5422(6) 0.0371(6)
H34A H -0.35960 -0.57000 0.06260
N1A N 1.9429(6) 1.1215(4) 1.2294(4)
N2A N 2.1349(6) 1.2525(4) 1.3566(4)
N3A N 2.6319(7) 1.6953(4) 1.3277(4)
N4A N 2.8179(7) 1.8337(5) 1.4517(5)
N5A N 1.0104(6) 0.1503(4) 1.0393(4)
N5A* N 1.0104(6) 1.1503(4) 1.0393(4)
N6A N 0.9438(7) 0.2733(5) 1.0572(5)
N7A N -0.9352(7) -0.9024(4) -0.2740(4)
N7A* N 3.0648(7) 2.0976(4) 1.7260(4)
N8A N -0.7511(7) -0.7870(5) -0.1342(5)
O1A O 1.0474(6) 0.4934(4) 0.6214(4)
O2A O 1.2050(5) 0.5312(4) 0.7685(4)
O3A O 1.6251(5) 0.8790(4) 0.9479(3)
O4A O 1.7287(5) 0.9180(4) 0.8497(3)
O5A O 1.5782(6) 1.0695(6) 0.9068(4)
O6A O 1.3665(6) 1.0056(5) 0.7937(4)
O7A O 1.7553(7) 1.2715(4) 0.6866(4)
O7* O 2.2447(7) 1.7285(4) 1.3134(4)
O7A* O 0.7553(7) 0.2715(4) 0.6866(4)
O8A O 1.8065(6) 1.1763(4) 0.5790(4)
O8* O 2.1935(6) 1.8237(4) 1.4210(4)
O8A* O 0.8065(6) 0.1763(4) 0.5790(4)
#END
