
#######################################################################
#
#                 Cambridge Crystallographic Data Centre
#                                CCDC
#
#######################################################################
#
# If this CIF has been generated from an entry in the Cambridge
# Structural Database, then it will include bibliographic, chemical,
# crystal, experimental, refinement or atomic coordinate data resulting
# from the CCDC's data processing and validation procedures.
#
#######################################################################

data_CSD_CIF_BEPYEC
_audit_creation_date 2013-05-17
_audit_creation_method CSD-ConQuest-V1
_database_code_CSD BEPYEC
_database_code_depnum_ccdc_archive 'CCDC 918384'
_chemical_formula_sum 'C76 H90 Cd2 N8 O20'
_chemical_formula_moiety
;
(C2 H8 N1 1+)2n,n(C56 H38 Cd2 N2 O16 2-),4n(C4 H9 N1 O1)
;
_journal_coden_Cambridge 440
_journal_volume 37
_journal_year 2013
_journal_page_first 1494
_journal_name_full 'New J.Chem. '
loop_
_publ_author_name
"R.Patra"
"H.M.Titi"
"I.Goldberg"
_chemical_name_systematic
;
catena-[bis(Dimethylammonium) 
bis(\m~3~-3,5-bis(4-carboxylatobenzyloxy)benzoato)-(\m~2~-4,4'-bipyridine)-di-
cadmium(ii) dimethylacetamide solvate]
;
_cell_volume   3636.883
_exptl_crystal_colour 'colorless'
_exptl_crystal_density_diffrn 1.516
_exptl_crystal_description 'prism'
_diffrn_ambient_temperature 110
_refine_special_details
;
Disordered dimethylacetamide solvent molecules were not modelled and the 
disordered density was taken into account using the SQUEEZE/PLATON procedure. 
The unit cell was found to contain a void of 1098 A$3! holding 349 electrons.
;
#These two values have been output from a single CSD field.
_refine_ls_R_factor_gt 0.0683
_refine_ls_wR_factor_gt 0.0683
_symmetry_cell_setting triclinic
_symmetry_space_group_name_H-M 'P -1'
_symmetry_Int_Tables_number 2
loop_
_symmetry_equiv_pos_site_id
_symmetry_equiv_pos_as_xyz
1 x,y,z
2 -x,-y,-z
_cell_length_a 15.3997(9)
_cell_length_b 15.4635(9)
_cell_length_c 17.2247(10)
_cell_angle_alpha 93.145(3)
_cell_angle_beta 114.157(2)
_cell_angle_gamma 100.775(3)
_cell_formula_units_Z 2
loop_
_atom_type_symbol
_atom_type_radius_bond
C 0.68
H 0.23
Cd 1.44
N 0.68
O 0.68
loop_
_atom_site_label
_atom_site_type_symbol
_atom_site_fract_x
_atom_site_fract_y
_atom_site_fract_z
Cd1 Cd 0.77738(3) 0.06273(3) 0.59840(3)
Cd2 Cd 0.21511(3) 0.25371(3) -0.02429(3)
O1 O 0.2159(3) 0.0930(3) -0.0687(3)
O2 O 0.3282(3) 0.2080(3) -0.0643(3)
C1 C 0.2945(4) 0.1260(4) -0.0738(4)
C2 C 0.3514(4) 0.0639(4) -0.0923(4)
C3 C 0.4364(4) 0.1023(4) -0.1007(4)
H1 H 0.45670 0.16490 -0.09670
C4 C 0.4900(4) 0.0452(4) -0.1153(4)
C5 C 0.4602(4) -0.0457(4) -0.1226(4)
H2 H 0.49630 -0.08330 -0.13520
C6 C 0.3774(4) -0.0824(4) -0.1115(4)
C7 C 0.3222(4) -0.0277(4) -0.0963(4)
H3 H 0.26530 -0.05240 -0.08880
O3 O 0.5763(3) 0.0739(3) -0.1230(3)
C8 C 0.6240(4) 0.1671(4) -0.0947(4)
H4 H 0.62100 0.18780 -0.04070
H5 H 0.59150 0.20310 -0.13900
C9 C 0.7290(4) 0.1766(4) -0.0804(4)
C10 C 0.7491(4) 0.1462(4) -0.1464(4)
H6 H 0.69730 0.11760 -0.19980
C11 C 0.8463(4) 0.1577(4) -0.1344(4)
H7 H 0.86000 0.13710 -0.18020
C12 C 0.9227(4) 0.1988(4) -0.0567(4)
C13 C 0.9012(5) 0.2289(5) 0.0097(5)
H8 H 0.95270 0.25780 0.06320
C14 C 0.8051(5) 0.2169(5) -0.0023(4)
H9 H 0.79110 0.23660 0.04360
C15 C 1.0261(4) 0.2162(4) -0.0458(4)
O4 O 1.0438(3) 0.1953(3) -0.1094(3)
O5 O 1.0938(3) 0.2501(4) 0.0260(3)
O6 O 0.3443(3) -0.1711(3) -0.1131(3)
C16 C 0.4019(4) -0.2307(4) -0.1238(4)
H10 H 0.47170 -0.20720 -0.08390
H11 H 0.39610 -0.23530 -0.18340
C17 C 0.3667(5) -0.3186(4) -0.1059(4)
C18 C 0.4283(5) -0.3567(5) -0.0388(5)
H12 H 0.49390 -0.32500 -0.00480
C19 C 0.3955(5) -0.4392(5) -0.0214(5)
H13 H 0.43850 -0.46340 0.02460
C20 C 0.2981(5) -0.4886(4) -0.0713(4)
C21 C 0.2366(5) -0.4507(5) -0.1378(5)
H14 H 0.17110 -0.48230 -0.17230
C22 C 0.2704(5) -0.3675(5) -0.1538(5)
H15 H 0.22680 -0.34260 -0.19880
C23 C 0.2661(5) -0.5764(5) -0.0534(5)
O7 O 0.3146(4) -0.6003(3) 0.0183(3)
O8 O 0.1901(3) -0.6306(3) -0.1104(3)
O9 O 0.6678(3) 0.1012(3) 0.6475(3)
O10 O 0.7738(3) 0.2146(3) 0.6409(3)
C24 C 0.6956(4) 0.1827(4) 0.6493(4)
C25 C 0.6375(4) 0.2448(4) 0.6601(4)
C26 C 0.6640(4) 0.3339(4) 0.6564(4)
H16 H 0.72160 0.35700 0.64940
C27 C 0.6051(5) 0.3903(4) 0.6633(5)
C28 C 0.5226(5) 0.3572(4) 0.6746(5)
H17 H 0.48320 0.39580 0.67940
C29 C 0.4972(4) 0.2684(4) 0.6790(4)
C30 C 0.5524(4) 0.2115(4) 0.6709(4)
H18 H 0.53320 0.14980 0.67250
O11 O 0.4116(3) 0.2430(3) 0.6873(3)
C31 C 0.3652(4) 0.1497(4) 0.6656(4)
H19 H 0.40050 0.11680 0.71170
H20 H 0.36500 0.12500 0.61130
C32 C 0.2625(4) 0.1414(4) 0.6557(4)
C33 C 0.2449(4) 0.1718(4) 0.7252(4)
H21 H 0.29770 0.19870 0.77870
C34 C 0.1487(4) 0.1617(4) 0.7140(4)
H22 H 0.13610 0.17960 0.76130
C35 C 0.0715(4) 0.1263(4) 0.6359(4)
C36 C 0.0888(4) 0.1013(4) 0.5659(4)
H23 H 0.03560 0.08010 0.51110
C37 C 0.1851(5) 0.1075(5) 0.5765(4)
H24 H 0.19720 0.08850 0.52920
C38 C -0.0323(4) 0.1115(4) 0.6264(4)
O12 O -0.0483(3) 0.1173(3) 0.6921(3)
O13 O -0.1015(3) 0.0907(3) 0.5510(3)
O14 O 0.6354(4) 0.4778(3) 0.6551(4)
C39 C 0.5730(6) 0.5359(5) 0.6563(7)
H25 H 0.56950 0.54060 0.71240
H26 H 0.50610 0.51230 0.61040
C40 C 0.6161(6) 0.6259(5) 0.6416(6)
C41 C 0.7105(6) 0.6736(5) 0.7027(6)
H27 H 0.74790 0.64740 0.75010
C42 C 0.7469(5) 0.7582(5) 0.6923(5)
H28 H 0.80930 0.79120 0.73320
C43 C 0.6921(5) 0.7953(4) 0.6217(5)
C44 C 0.6020(5) 0.7474(5) 0.5609(5)
H29 H 0.56690 0.77250 0.51170
C45 C 0.5625(6) 0.6633(5) 0.5711(5)
H30 H 0.49950 0.63150 0.53040
C46 C 0.7297(5) 0.8901(4) 0.6129(5)
O15 O 0.6832(3) 0.9177(3) 0.5450(3)
O16 O 0.8039(3) 0.9391(3) 0.6749(3)
N1 N 0.3108(4) 0.2231(4) 0.1098(3)
C47 C 0.2951(4) 0.1404(5) 0.1306(4)
H31 H 0.23670 0.09840 0.09370
C48 C 0.3599(4) 0.1142(4) 0.2027(4)
H32 H 0.34630 0.05540 0.21500
C49 C 0.4452(4) 0.1747(4) 0.2572(4)
C50 C 0.4614(4) 0.2620(4) 0.2376(4)
H33 H 0.51840 0.30580 0.27400
C51 C 0.3920(4) 0.2817(4) 0.1642(4)
H34 H 0.40240 0.34070 0.15140
C52 C 0.5213(4) 0.1477(4) 0.3310(4)
C53 C 0.4993(4) 0.0731(4) 0.3664(4)
H35 H 0.43370 0.03960 0.34500
C54 C 0.5727(4) 0.0473(4) 0.4328(4)
H36 H 0.55610 -0.00500 0.45510
N2 N 0.6656(4) 0.0921(4) 0.4671(3)
C55 C 0.6877(5) 0.1650(5) 0.4354(4)
H37 H 0.75360 0.19810 0.45970
C56 C 0.6189(4) 0.1948(5) 0.3686(4)
H38 H 0.63800 0.24750 0.34810
N3 N 0.9710(4) -0.0115(4) 0.1816(4)
H39 H 1.00440 -0.04870 0.21600
H40 H 0.90980 -0.04460 0.14480
C57 C 0.9609(5) 0.0602(5) 0.2362(5)
H41 H 1.02590 0.09370 0.27760
H42 H 0.92410 0.03370 0.26740
H43 H 0.92590 0.10040 0.19990
C58 C 1.0232(5) 0.0244(5) 0.1308(5)
H44 H 0.99130 0.06830 0.09810
H45 H 1.02170 -0.02420 0.09100
H46 H 1.09120 0.05280 0.16960
N4 N 0.0210(6) 0.6912(4) 0.2452(4)
H47 H 0.07020 0.74200 0.26810
H48 H -0.03310 0.70750 0.20620
C59 C 0.0501(6) 0.6331(6) 0.1980(6)
H49 H 0.07170 0.58550 0.23110
H50 H 0.10400 0.66680 0.18770
H51 H -0.00540 0.60710 0.14280
C60 C -0.0021(7) 0.6624(6) 0.3136(7)
H52 H -0.06010 0.61300 0.29020
H53 H -0.01520 0.71190 0.34190
H54 H 0.05320 0.64260 0.35560
Cd1* Cd -0.22262(3) 0.06273(3) 0.59840(3)
Cd1** Cd 0.77738(3) 1.06273(3) 0.59840(3)
Cd2* Cd 0.21511(3) -0.74629(3) -0.02429(3)
Cd2** Cd 1.21511(3) 0.25371(3) -0.02429(3)
O4* O 0.0438(3) 0.1953(3) -0.1094(3)
O5* O 0.0938(3) 0.2501(4) 0.0260(3)
O7* O 0.3146(4) 0.3997(3) 0.0183(3)
O8* O 0.1901(3) 0.3694(3) -0.1104(3)
O12* O 0.9517(3) 0.1173(3) 0.6921(3)
O13* O 0.8985(3) 0.0907(3) 0.5510(3)
O15* O 0.6832(3) -0.0823(3) 0.5450(3)
O16* O 0.8039(3) -0.0609(3) 0.6749(3)
#END
