
#######################################################################
#
#                 Cambridge Crystallographic Data Centre
#                                CCDC
#
#######################################################################
#
# If this CIF has been generated from an entry in the Cambridge
# Structural Database, then it will include bibliographic, chemical,
# crystal, experimental, refinement or atomic coordinate data resulting
# from the CCDC's data processing and validation procedures.
#
#######################################################################

data_CSD_CIF_BERQAS01
_audit_creation_date 2020-11-12
_audit_creation_method CSD-ConQuest-V1
_database_code_CSD BERQAS01
_database_code_depnum_ccdc_archive 'CCDC 2013021'
_chemical_formula_sum 'C20 H22 Cd1 N4 O12'
_chemical_formula_moiety
;
(C16 H6 Cd1 N2 O12 2-)n,2(C2 H8 N1 1+)
;
_journal_coden_Cambridge 169
_journal_volume 225
_journal_year 2021
_journal_page_first 133
_journal_name_full 'Faraday Discuss. '
loop_
_publ_author_name
"D.Watkins"
"T.M.Roseveare"
"M.R.Warren"
"S.P.Thompson"
"A.J.Fletcher"
"L.Brammer"
_chemical_name_systematic
;
catena-[bis(dimethylammonium) 
bis(\m-2-nitrobenzene-1,4-dicarboxylato)-cadmium(ii) unknown solvate]
;
_chemical_name_common
;
SHF-81-DMF
;
_cell_volume   2482.564
_exptl_crystal_colour 'orange'
_exptl_crystal_density_diffrn 1.25
_exptl_crystal_description 'needle'
_exptl_crystal_preparation 'N,N-dimethylformamide'
_diffrn_ambient_temperature 195
_diffrn_special_details
;
twin

;
_refine_special_details
;
Disordered solvent molecules were not modelled and the disordered density was 
taken into account using the SQUEEZE/PLATON procedure.
;
#These two values have been output from a single CSD field.
_refine_ls_R_factor_gt 0.0345
_refine_ls_wR_factor_gt 0.0345
_symmetry_cell_setting hexagonal
_symmetry_space_group_name_H-M 'P 32 2 1'
_symmetry_Int_Tables_number 154
loop_
_symmetry_equiv_pos_site_id
_symmetry_equiv_pos_as_xyz
1 x,y,z
2 -y,x-y,2/3+z
3 -x+y,-x,1/3+z
4 x-y,-y,1/3-z
5 -x,-x+y,2/3-z
6 y,x,-z
_cell_length_a 15.0465(5)
_cell_length_b 15.0465(5)
_cell_length_c 12.6619(4)
_cell_angle_alpha 90
_cell_angle_beta 90
_cell_angle_gamma 120
_cell_formula_units_Z 3
loop_
_atom_type_symbol
_atom_type_radius_bond
C 0.68
H 0.23
Cd 1.44
N 0.68
O 0.68
loop_
_atom_site_label
_atom_site_type_symbol
_atom_site_fract_x
_atom_site_fract_y
_atom_site_fract_z
Cd1 Cd 1.00000 0.49979(10) -0.16667
O1 O 0.9286(8) 0.5722(9) -0.0543(8)
O2 O 0.8628(10) 0.4079(11) -0.0359(11)
O3 O 0.6477(11) 0.5740(9) 0.3904(11)
O4 O 0.5595(9) 0.4093(10) 0.3786(8)
O5 O 0.8768(18) 0.709(2) 0.343(2)
O6 O 0.786(3) 0.735(2) 0.227(2)
N1 N 0.8216(12) 0.6845(13) 0.2654(14)
C1 C 0.8624(12) 0.4853(12) -0.0160(13)
C2 C 0.8062(8) 0.4932(8) 0.0826(7)
C3 C 0.8319(10) 0.5861(5) 0.1305(9)
H1 H 0.88726 0.64819 0.10384
C4 C 0.7766(11) 0.5882(5) 0.2175(9)
C5 C 0.6956(8) 0.4974(7) 0.2565(7)
C6 C 0.6699(7) 0.4045(5) 0.2087(9)
H2 H 0.61450 0.34241 0.23535
C7 C 0.7252(9) 0.4024(5) 0.1217(9)
H3 H 0.70760 0.33883 0.08898
C8 C 0.6271(12) 0.4998(11) 0.3423(12)
N2 N 0.811(3) 0.6127(15) -0.313(3)
H4 H 0.82853 0.56273 -0.31048
H5 H 0.74635 0.58472 -0.28703
C9 C 0.877(3) 0.691(2) -0.241(2)
H6 H 0.87018 0.66213 -0.17034
H7 H 0.94874 0.72112 -0.26462
H8 H 0.85875 0.74519 -0.23894
C10 C 0.808(2) 0.635(2) -0.418(2)
H9 H 0.75845 0.57197 -0.45476
H10 H 0.78573 0.68591 -0.42347
H11 H 0.87572 0.66183 -0.44916
O1D O 1.0714(8) 0.6436(9) -0.279033(800)
O2D O 1.1372(10) 0.5451(11) -0.297433(1100)
O3D O 1.3523(11) 0.9263(9) -0.723733(1100)
O4D O 1.4405(9) 0.8498(10) -0.711933(800)
O5D O 1.1232(18) 0.8322(20) -0.676333(2000)
O6D O 1.214(3) 0.949(2) -0.560333(2000)
N1D N 1.1784(12) 0.8629(13) -0.598733(1400)
C1D C 1.1376(12) 0.6229(12) -0.317333(1300)
C2D C 1.1938(8) 0.6870(8) -0.415933(700)
C3D C 1.1681(10) 0.7542(5) -0.463833(900)
H1D H 1.11274 0.76093 -0.43718
C4D C 1.2234(11) 0.8116(5) -0.550833(900)
C5D C 1.3044(8) 0.8018(7) -0.589833(700)
C6D C 1.3301(7) 0.7346(5) -0.542033(900)
H2D H 1.38550 0.72791 -0.56869
C7D C 1.2748(9) 0.6772(5) -0.455033(900)
H3D H 1.29240 0.63124 -0.42231
C8D C 1.3729(12) 0.8727(11) -0.675633(1200)
Cd1A Cd 0.50021 0.50021(10) 0.50000
Cd1B Cd 1.49979 1.0000(1) -0.83333
O3B O 0.9263(11) 0.3523(9) -0.276267(1100)
O3C O 1.0737(11) 0.4260(9) -0.057067(1100)
O4B O 0.8498(9) 0.4405(10) -0.288067(800)
O4C O 1.1502(9) 0.5907(10) -0.045267(800)
#END
