
#######################################################################
#
#                 Cambridge Crystallographic Data Centre
#                                CCDC
#
#######################################################################
#
# If this CIF has been generated from an entry in the Cambridge
# Structural Database, then it will include bibliographic, chemical,
# crystal, experimental, refinement or atomic coordinate data resulting
# from the CCDC's data processing and validation procedures.
#
#######################################################################

data_CSD_CIF_BESJAL
_audit_creation_date 2004-09-14
_audit_creation_method CSD-ConQuest-V1
_database_code_CSD BESJAL
_database_code_depnum_ccdc_archive 'CCDC 210911'
_chemical_formula_sum 'C29 H42 Cu4 N1 O33.5 S9'
_chemical_formula_moiety
;
(C24 H16 Cu4 O24 S9 2-)n,n(C5 H6 N1 1+),n(H3 O1 1+),8.5n(H2 O1)
;
_journal_coden_Cambridge 1295
_journal_volume 7
_journal_year 2004
_journal_page_first 467
_journal_name_full 'Inorg.Chem.Commun. '
loop_
_publ_author_name
"Qian-Ling Guo"
"Wen-Xiang Zhu"
"Song Gao"
"Shu-Lan Ma"
"Shu-Jing Dong"
"Miao-Qiong Xu"
_chemical_name_systematic
;
catena-((\m~8~-5,11,17,23-tetrakis(sulfonato)-2,8,14,20-tetrathiacalix[4]arene
-25,26,27,28-tetraolato)-(\m~4~-sulfato)-tetrakis(aqua-copper(ii))) oxonium 
pyridinium hydrate
;
_cell_volume  11608.244
_exptl_crystal_density_diffrn 1.697
_diffrn_ambient_temperature 293
_refine_special_details
;
The structure is disordered.

;
#These two values have been output from a single CSD field.
_refine_ls_R_factor_gt 0.0759
_refine_ls_wR_factor_gt 0.0759
_symmetry_cell_setting monoclinic
_symmetry_space_group_name_H-M 'C 2/c'
_symmetry_Int_Tables_number 15
loop_
_symmetry_equiv_pos_site_id
_symmetry_equiv_pos_as_xyz
1 x,y,z
2 1/2+x,1/2+y,z
3 -x,y,1/2-z
4 1/2-x,1/2+y,1/2-z
5 -x,-y,-z
6 -1/2-x,-1/2-y,-z
7 x,-y,-1/2+z
8 -1/2+x,-1/2-y,-1/2+z
_cell_length_a 33.955(9)
_cell_length_b 18.640(6)
_cell_length_c 23.194(7)
_cell_angle_alpha 90
_cell_angle_beta 127.744(5)
_cell_angle_gamma 90
_cell_formula_units_Z 8
loop_
_atom_type_symbol
_atom_type_radius_bond
C 0.68
H 0.23
Cu 1.47
N 0.68
O 0.68
S 1.02
loop_
_atom_site_label
_atom_site_type_symbol
_atom_site_fract_x
_atom_site_fract_y
_atom_site_fract_z
Cu1 Cu 0.13986(5) 0.81182(8) 0.20526(7)
Cu2 Cu 0.15946(5) 0.61455(8) 0.22660(8)
Cu3 Cu 0.15709(5) 0.61505(8) 0.08467(7)
Cu4 Cu 0.14615(5) 0.81060(8) 0.05080(7)
S1 S 0.20769(11) 0.86272(16) 0.31682(16)
S2 S 0.24409(12) 0.56900(16) 0.34735(16)
S3 S 0.23005(11) 0.57673(16) 0.09789(16)
S4 S 0.22045(11) 0.87129(16) 0.09025(15)
S5 S 0.35393(14) 0.7461(2) 0.58234(17)
S6 S 0.40678(13) 0.5036(2) 0.3587(2)
S7 S 0.37331(12) 0.73199(19) 0.11568(17)
S8 S 0.37564(12) 0.96750(17) 0.36229(16)
S9 S 0.07408(11) 0.71949(16) 0.05897(16)
O1 O 0.1902(3) 0.7090(4) 0.2677(4)
O2 O 0.1982(3) 0.6023(4) 0.1890(4)
O3 O 0.1850(3) 0.7237(4) 0.0799(4)
O4 O 0.1747(3) 0.8356(4) 0.1666(4)
O5 O 0.3549(4) 0.6813(5) 0.6188(5)
O6 O 0.3432(4) 0.8089(5) 0.6079(5)
O7 O 0.3971(4) 0.7545(7) 0.5856(6)
O8 O 0.4309(4) 0.5503(7) 0.3446(7)
O9 O 0.4265(4) 0.4988(8) 0.4338(7)
O10 O 0.4042(5) 0.4323(6) 0.335(1)
O11 O 0.3801(3) 0.8064(5) 0.1046(5)
O12 O 0.4107(3) 0.7093(6) 0.1910(5)
O13 O 0.3684(3) 0.6835(5) 0.0632(5)
O14 O 0.3764(3) 1.0210(4) 0.3158(4)
O15 O 0.3783(3) 0.9986(4) 0.4209(4)
O16 O 0.4124(3) 0.9131(5) 0.3851(5)
O17 O 0.0809(3) 0.7721(4) 0.1109(4)
O18 O 0.1102(3) 0.6602(4) 0.1013(4)
O19 O 0.0853(3) 0.7534(4) 0.0123(4)
O20 O 0.0230(3) 0.6963(4) 0.0126(4)
C1 C 0.2261(4) 0.7157(6) 0.3375(6)
C2 C 0.2395(4) 0.7832(6) 0.3706(6)
C3 C 0.2756(4) 0.7941(7) 0.4450(6)
H1 H 0.28140 0.83960 0.46520
C4 C 0.3031(4) 0.7352(7) 0.4885(6)
C5 C 0.2932(4) 0.6676(6) 0.4566(6)
H2 H 0.31210 0.62830 0.48520
C6 C 0.2555(4) 0.6582(6) 0.3824(6)
C7 C 0.2444(4) 0.5794(6) 0.2271(6)
C8 C 0.2734(4) 0.5667(6) 0.3032(6)
C9 C 0.3220(5) 0.5440(6) 0.3429(6)
H3 H 0.33990 0.53520 0.39260
C10 C 0.3452(4) 0.5336(7) 0.3098(7)
C11 C 0.3166(5) 0.5447(6) 0.2344(7)
H4 H 0.33060 0.53680 0.21080
C12 C 0.2672(4) 0.5674(6) 0.1944(6)
C13 C 0.2268(4) 0.7247(6) 0.0873(6)
C14 C 0.2518(4) 0.6613(6) 0.0934(6)
C15 C 0.2951(5) 0.6645(6) 0.0987(6)
H5 H 0.31070 0.62210 0.10160
C16 C 0.3150(4) 0.7290(7) 0.0995(6)
C17 C 0.2929(4) 0.7933(7) 0.0982(6)
H6 H 0.30740 0.83710 0.10150
C18 C 0.2492(4) 0.7916(6) 0.0918(6)
C19 C 0.2194(4) 0.8649(6) 0.2098(6)
C20 C 0.2480(4) 0.8819(6) 0.1862(6)
C21 C 0.2947(5) 0.9123(6) 0.2311(7)
H7 H 0.31220 0.92340 0.21340
C22 C 0.3151(4) 0.9260(6) 0.3033(5)
C23 C 0.2895(4) 0.9113(6) 0.3292(6)
H8 H 0.30350 0.92120 0.37760
C24 C 0.2417(4) 0.8811(6) 0.2825(6)
O21 O 0.1007(3) 0.7961(5) 0.2410(5)
O22 O 0.1183(3) 0.6256(5) 0.2591(5)
O23 O 0.1109(3) 0.6069(4) -0.0215(4)
O24 O 0.1059(3) 0.8984(4) 0.0156(5)
N1 N 0.4018(13) 0.7285(10) 0.329(2)
H9 H 0.41560 0.72050 0.30860
C25 C 0.3482(10) 0.7280(9) 0.2878(10)
H10 H 0.32720 0.72130 0.23750
C26 C 0.3318(6) 0.7364(9) 0.3206(13)
H11 H 0.29750 0.74050 0.29390
C27 C 0.3594(11) 0.7405(10) 0.3926(18)
H12 H 0.34550 0.74060 0.41690
C28 C 0.4125(10) 0.7446(10) 0.4309(9)
H13 H 0.43440 0.75000 0.48130
C29 C 0.4274(7) 0.7410(11) 0.3963(13)
H14 H 0.46140 0.74810 0.42120
O25 O 0.4879(6) 0.6225(9) 0.5297(9)
O26 O 0.3121(7) 0.5220(9) 0.5732(10)
O27 O 0.2913(10) 0.9563(14) 0.5410(15)
O28 O 0.0076(9) 0.7576(12) -0.1381(13)
O29 O 0.014(1) 0.5728(14) -0.0845(14)
O30 O 0.1186(11) 1.0008(15) -0.0511(16)
O31 O 0.4077(16) 0.886(2) 0.246(2)
O32 O 0.3737(16) 0.983(2) 0.568(2)
O33 O 0.0102(18) 0.411(3) -0.061(3)
O34 O 0.0653(14) 1.114(2) -0.086(2)
O35 O 0.3904(15) 0.888(2) 0.524(2)
O36 O 0.0015(18) 0.771(2) 0.140(3)
O37 O 0.0150(13) 0.8869(19) -0.120(2)
O38 O 0.086(2) 0.513(3) 0.286(3)
O39? O 0.3735(19) 0.954(3) 0.183(3)
O10C O 0.0958(5) 0.9323(6) 0.165(1)
O14C O 0.1236(3) 0.5210(4) 0.1842(4)
O15C O 0.1217(3) 0.4986(4) 0.0791(4)
O13E O 0.1316(3) 0.8165(5) -0.0632(5)
Cu1C Cu 0.36014(5) 0.31182(8) 0.29474(7)
Cu4E Cu 0.35385(5) 0.68940(8) -0.05080(7)
Cu2C Cu 0.34054(5) 1.11455(8) 0.27340(8)
Cu3C Cu 0.34291(5) 1.11505(8) 0.41533(7)
#END
