
#######################################################################
#
#                 Cambridge Crystallographic Data Centre
#                                CCDC
#
#######################################################################
#
# If this CIF has been generated from an entry in the Cambridge
# Structural Database, then it will include bibliographic, chemical,
# crystal, experimental, refinement or atomic coordinate data resulting
# from the CCDC's data processing and validation procedures.
#
#######################################################################

data_CSD_CIF_BETHIT
_audit_creation_date 2013-05-17
_audit_creation_method CSD-ConQuest-V1
_database_code_CSD BETHIT
_database_code_depnum_ccdc_archive 'CCDC 916199'
_chemical_formula_sum 'C100.5 H243.5 Cd13.5 Cl3 N105.5 O86'
_chemical_formula_moiety
;
(Cd1 2+)1.5n,n(C72 H48 Cd12 Cl3 N96 O12 3-),9.5n(C3 H7 N1 O1),64.5n(H2 O1)
;
_journal_coden_Cambridge 1350
_journal_volume 15
_journal_year 2013
_journal_page_first 3377
_journal_name_full 'CrystEngComm '
loop_
_publ_author_name
"Ju-Hsiou Liao"
"Wan-Ting Chen"
"Cherng-Shiaw Tsai"
"Chih-Chieh Wang"
_chemical_name_systematic
;
catena-[sesquikis(Cadmium) 
octakis(\m~6~-5,5',5''-benzene-1,3,5-triyltris(tetrazolato))-tris(\m~4~-chloro
)-dodeca-aqua-dodeca-cadmium(ii) N,N-dimethylformamide solvate hydrate]
;
_cell_volume   7258.563
_exptl_crystal_colour 'colorless'
_exptl_crystal_density_diffrn 0.888
_exptl_special_details
;
The solvent stoichiometry has been estimated based on X-ray crystallography, 
elemental and thermogravimetric analysis
;
_exptl_crystal_description 'chunky'
_diffrn_ambient_temperature 293
_refine_special_details
;
Disordered charge-balancing cations and solvent molecules located inside 
cavities were not modelled and the disordered density was taken into account 
using the SQUEEZE/PLATON procedure.
;
#These two values have been output from a single CSD field.
_refine_ls_R_factor_gt 0.0268
_refine_ls_wR_factor_gt 0.0268
_symmetry_cell_setting cubic
_symmetry_space_group_name_H-M 'P m -3 m'
_symmetry_Int_Tables_number 221
loop_
_symmetry_equiv_pos_site_id
_symmetry_equiv_pos_as_xyz
1 x,y,z
2 -x,-y,z
3 -x,y,-z
4 x,-y,-z
5 z,x,y
6 z,-x,-y
7 -z,-x,y
8 -z,x,-y
9 y,z,x
10 -y,z,-x
11 y,-z,-x
12 -y,-z,x
13 y,x,-z
14 -y,-x,-z
15 y,-x,z
16 -y,x,z
17 x,z,-y
18 -x,z,y
19 -x,-z,-y
20 x,-z,y
21 z,y,-x
22 z,-y,x
23 -z,y,x
24 -z,-y,-x
25 -x,-y,-z
26 x,y,-z
27 x,-y,z
28 -x,y,z
29 -z,-x,-y
30 -z,x,y
31 z,x,-y
32 z,-x,y
33 -y,-z,-x
34 y,-z,x
35 -y,z,x
36 y,z,-x
37 -y,-x,z
38 y,x,z
39 -y,x,-z
40 y,-x,-z
41 -x,-z,y
42 x,-z,-y
43 x,z,y
44 -x,z,-y
45 -z,-y,x
46 -z,y,-x
47 z,-y,-x
48 z,y,x
_cell_length_a 19.3620(3)
_cell_length_b 19.3620(3)
_cell_length_c 19.3620(3)
_cell_angle_alpha 90
_cell_angle_beta 90
_cell_angle_gamma 90
_cell_formula_units_Z 1
loop_
_atom_type_symbol
_atom_type_radius_bond
C 0.68
H 0.23
Cd 1.44
Cl 0.99
N 0.68
O 0.68
loop_
_atom_site_label
_atom_site_type_symbol
_atom_site_fract_x
_atom_site_fract_y
_atom_site_fract_z
Cd1 Cd 0.355425(11) 0.50000 0.00000
Cl1 Cl 0.50000 0.50000 0.00000
N1 N 0.36585(7) 0.41388(7) 0.08266(7)
N2 N 0.32375(8) 0.40471(8) 0.13615(7)
O1 O 0.23894(17) 0.50000 0.00000
C1 C 0.34895(9) 0.34895(9) 0.16773(13)
C2 C 0.31849(10) 0.31849(10) 0.23034(12)
C3 C 0.25984(10) 0.34782(12) 0.25984(10)
H1 H 0.24030 0.38710 0.24030
N1D N 0.08266(7) 0.36585(7) 0.41388(7)
N2D N 0.13615(8) 0.32375(8) 0.40471(7)
C1D C 0.16773(9) 0.34895(9) 0.34895(13)
C2D C 0.23034(10) 0.31849(10) 0.31849(12)
C3D C 0.25984(10) 0.25984(12) 0.34782(10)
H1D H 0.24030 0.24030 0.38710
N1H N 0.41388(7) 0.08266(7) 0.36585(7)
N2H N 0.40471(8) 0.13615(8) 0.32375(7)
C1H C 0.34895(9) 0.16773(9) 0.34895(13)
C2H C 0.31849(10) 0.23034(10) 0.31849(12)
C3H C 0.34782(10) 0.25984(12) 0.25984(10)
H1H H 0.38710 0.24030 0.24030
N1KA N 0.41388(7) 0.36585(7) 0.08266(7)
N2KA N 0.40471(8) 0.32375(8) 0.13615(7)
N1PA N 0.36585(7) 0.08266(7) 0.41388(7)
N2PA N 0.32375(8) 0.13615(8) 0.40471(7)
N1UA N 0.08266(7) 0.41388(7) 0.36585(7)
N2UA N 0.13615(8) 0.40471(8) 0.32375(7)
Cd1A Cd 0.644575(11) 0.50000 0.00000
N1A N 0.63415(7) 0.58612(7) 0.08266(7)
N2A N 0.67625(8) 0.59529(8) 0.13615(7)
O1A O 0.76106(17) 0.50000 0.00000
C1A C 0.65105(9) 0.65105(9) 0.16773(13)
C2A C 0.68151(10) 0.68151(10) 0.23034(12)
C3A C 0.74016(10) 0.65218(12) 0.25984(10)
H1A H 0.75970 0.61290 0.24030
N1F N 0.91734(7) 0.63415(7) 0.41388(7)
N2F N 0.86385(8) 0.67625(8) 0.40471(7)
C1F C 0.83227(9) 0.65105(9) 0.34895(13)
C2F C 0.76966(10) 0.68151(10) 0.31849(12)
C3F C 0.74016(10) 0.74016(12) 0.34782(10)
H1F H 0.75970 0.75970 0.38710
N1K N 0.58612(7) 0.91734(7) 0.36585(7)
N2K N 0.59529(8) 0.86385(8) 0.32375(7)
C1K C 0.65105(9) 0.83227(9) 0.34895(13)
C2K C 0.68151(10) 0.76966(10) 0.31849(12)
C3K C 0.65218(10) 0.74016(12) 0.25984(10)
H1K H 0.61290 0.75970 0.24030
N1JA N 0.58612(7) 0.63415(7) 0.08266(7)
N2JA N 0.59529(8) 0.67625(8) 0.13615(7)
N1NA N 0.63415(7) 0.91734(7) 0.41388(7)
N2NA N 0.67625(8) 0.86385(8) 0.40471(7)
N1RA N 0.91734(7) 0.58612(7) 0.36585(7)
N2RA N 0.86385(8) 0.59529(8) 0.32375(7)
Cd1D Cd 0.000000(11) 0.35542 0.50000
Cl1D Cl 0.00000 0.50000 0.50000
O1D O 0.00000(17) 0.23894 0.50000
Cd1E Cd 0.000000(11) 0.64458 0.50000
N1E N 0.08266(7) 0.63415(7) 0.58612(7)
N2E N 0.13615(8) 0.67625(8) 0.59529(7)
O1E O 0.00000(17) 0.76106 0.50000
C1E C 0.16773(9) 0.65105(9) 0.65105(13)
C2E C 0.23034(10) 0.68151(10) 0.68151(12)
C3E C 0.25984(10) 0.74016(12) 0.65218(10)
H1E H 0.24030 0.75970 0.61290
N1J N 0.41388(7) 0.91734(7) 0.63415(7)
N2J N 0.40471(8) 0.86385(8) 0.67625(7)
C1J C 0.34895(9) 0.83227(9) 0.65105(13)
C2J C 0.31849(10) 0.76966(10) 0.68151(12)
C3J C 0.34782(10) 0.74016(12) 0.74016(10)
H1J H 0.38710 0.75970 0.75970
N1C N 0.36585(7) 0.58612(7) 0.91734(7)
N2C N 0.32375(8) 0.59529(8) 0.86385(7)
C1C C 0.34895(9) 0.65105(9) 0.83227(13)
C2C C 0.31849(10) 0.68151(10) 0.76966(12)
C3C C 0.25984(10) 0.65218(12) 0.74016(10)
H1C H 0.24030 0.61290 0.75970
N1TA N 0.08266(7) 0.58612(7) 0.63415(7)
N2TA N 0.13615(8) 0.59529(8) 0.67625(7)
N1MA N 0.41388(7) 0.63415(7) 0.91734(7)
N2MA N 0.40471(8) 0.67625(8) 0.86385(7)
N1OA N 0.36585(7) 0.91734(7) 0.58612(7)
N2OA N 0.32375(8) 0.86385(8) 0.59529(7)
Cd1E* Cd 1.000000(11) 0.64458 0.50000
Cl1D* Cl 1.00000 0.50000 0.50000
O1E* O 1.00000(17) 0.76106 0.50000
Cd1H Cd 0.500000(11) 0.00000 0.35542
O1H O 0.50000(17) 0.00000 0.23894
Cd1I Cd 0.500000(11) 0.00000 0.64458
N1I N 0.58612(7) 0.08266(7) 0.63415(7)
N2I N 0.59529(8) 0.13615(8) 0.67625(7)
O1I O 0.50000(17) 0.00000 0.76106
C1I C 0.65105(9) 0.16773(9) 0.65105(13)
C2I C 0.68151(10) 0.23034(10) 0.68151(12)
C3I C 0.65218(10) 0.25984(12) 0.74016(10)
H1I H 0.61290 0.24030 0.75970
N1B N 0.63415(7) 0.41388(7) 0.91734(7)
N2B N 0.67625(8) 0.40471(8) 0.86385(7)
C1B C 0.65105(9) 0.34895(9) 0.83227(13)
C2B C 0.68151(10) 0.31849(10) 0.76966(12)
C3B C 0.74016(10) 0.34782(12) 0.74016(10)
H1B H 0.75970 0.38710 0.75970
N1G N 0.91734(7) 0.36585(7) 0.58612(7)
N2G N 0.86385(8) 0.32375(8) 0.59529(7)
C1G C 0.83227(9) 0.34895(9) 0.65105(13)
C2G C 0.76966(10) 0.31849(10) 0.68151(12)
C3G C 0.74016(10) 0.25984(12) 0.65218(10)
H1G H 0.75970 0.24030 0.61290
N1QA N 0.63415(7) 0.08266(7) 0.58612(7)
N2QA N 0.67625(8) 0.13615(8) 0.59529(7)
N1SA N 0.91734(7) 0.41388(7) 0.63415(7)
N2SA N 0.86385(8) 0.40471(8) 0.67625(7)
N1LA N 0.58612(7) 0.36585(7) 0.91734(7)
N2LA N 0.59529(8) 0.32375(8) 0.86385(7)
Cd1H* Cd 0.500000(11) 1.00000 0.35542
O1H* O 0.50000(17) 1.00000 0.23894
Cd1L Cd 0.500000(11) 0.35542 0.00000
N1L N 0.41388(7) 0.36585(7) -0.08266(7)
N2L N 0.40471(8) 0.32375(8) -0.13615(7)
O1L O 0.50000(17) 0.23894 0.00000
C1L C 0.34895(9) 0.34895(9) -0.16773(13)
C2L C 0.31849(10) 0.31849(10) -0.23034(12)
C3L C 0.34782(10) 0.25984(12) -0.25984(10)
H1L H 0.38710 0.24030 -0.24030
N1P N 0.36585(7) 0.08266(7) -0.41388(7)
N2P N 0.32375(8) 0.13615(8) -0.40471(7)
C1P C 0.34895(9) 0.16773(9) -0.34895(13)
C2P C 0.31849(10) 0.23034(10) -0.31849(12)
C3P C 0.25984(10) 0.25984(12) -0.34782(10)
H1P H 0.24030 0.24030 -0.38710
N1T N 0.08266(7) 0.41388(7) -0.36585(7)
N2T N 0.13615(8) 0.40471(8) -0.32375(7)
C1T C 0.16773(9) 0.34895(9) -0.34895(13)
C2T C 0.23034(10) 0.31849(10) -0.31849(12)
C3T C 0.25984(10) 0.34782(12) -0.25984(10)
H1T H 0.24030 0.38710 -0.24030
N1Y N 0.36585(7) 0.41388(7) -0.08266(7)
N2Y N 0.32375(8) 0.40471(8) -0.13615(7)
N1DA N 0.08266(7) 0.36585(7) -0.41388(7)
N2DA N 0.13615(8) 0.32375(8) -0.40471(7)
N1IA N 0.41388(7) 0.08266(7) -0.36585(7)
N2IA N 0.40471(8) 0.13615(8) -0.32375(7)
Cd1M Cd 0.500000(11) 0.64458 0.00000
O1M O 0.50000(17) 0.76106 0.00000
N1N N 0.41388(7) 0.63415(7) 0.08266(7)
N2N N 0.40471(8) 0.67625(8) 0.13615(7)
C1N C 0.34895(9) 0.65105(9) 0.16773(13)
C2N C 0.31849(10) 0.68151(10) 0.23034(12)
C3N C 0.34782(10) 0.74016(12) 0.25984(10)
H1N H 0.38710 0.75970 0.24030
N1S N 0.36585(7) 0.91734(7) 0.41388(7)
N2S N 0.32375(8) 0.86385(8) 0.40471(7)
C1S C 0.34895(9) 0.83227(9) 0.34895(13)
C2S C 0.31849(10) 0.76966(10) 0.31849(12)
C3S C 0.25984(10) 0.74016(12) 0.34782(10)
H1S H 0.24030 0.75970 0.38710
N1U N 0.08266(7) 0.58612(7) 0.36585(7)
N2U N 0.13615(8) 0.59529(8) 0.32375(7)
C1U C 0.16773(9) 0.65105(9) 0.34895(13)
C2U C 0.23034(10) 0.68151(10) 0.31849(12)
C3U C 0.25984(10) 0.65218(12) 0.25984(10)
H1U H 0.24030 0.61290 0.24030
N1Z N 0.36585(7) 0.58612(7) 0.08266(7)
N2Z N 0.32375(8) 0.59529(8) 0.13615(7)
N1EA N 0.08266(7) 0.63415(7) 0.41388(7)
N2EA N 0.13615(8) 0.67625(8) 0.40471(7)
N1GA N 0.41388(7) 0.91734(7) 0.36585(7)
N2GA N 0.40471(8) 0.86385(8) 0.32375(7)
N1O N 0.58612(7) 0.36585(7) 0.08266(7)
N2O N 0.59529(8) 0.32375(8) 0.13615(7)
C1O C 0.65105(9) 0.34895(9) 0.16773(13)
C2O C 0.68151(10) 0.31849(10) 0.23034(12)
C3O C 0.65218(10) 0.25984(12) 0.25984(10)
H1O H 0.61290 0.24030 0.24030
N1Q N 0.63415(7) 0.08266(7) 0.41388(7)
N2Q N 0.67625(8) 0.13615(8) 0.40471(7)
C1Q C 0.65105(9) 0.16773(9) 0.34895(13)
C2Q C 0.68151(10) 0.23034(10) 0.31849(12)
C3Q C 0.74016(10) 0.25984(12) 0.34782(10)
H1Q H 0.75970 0.24030 0.38710
N1V N 0.91734(7) 0.41388(7) 0.36585(7)
N2V N 0.86385(8) 0.40471(8) 0.32375(7)
C1V C 0.83227(9) 0.34895(9) 0.34895(13)
C2V C 0.76966(10) 0.31849(10) 0.31849(12)
C3V C 0.74016(10) 0.34782(12) 0.25984(10)
H1V H 0.75970 0.38710 0.24030
N1AA N 0.63415(7) 0.41388(7) 0.08266(7)
N2AA N 0.67625(8) 0.40471(8) 0.13615(7)
N1CA N 0.91734(7) 0.36585(7) 0.41388(7)
N2CA N 0.86385(8) 0.32375(8) 0.40471(7)
N1HA N 0.58612(7) 0.08266(7) 0.36585(7)
N2HA N 0.59529(8) 0.13615(8) 0.32375(7)
Cd1P Cd 0.355425(11) 0.00000 -0.50000
O1P O 0.23894(17) 0.00000 -0.50000
Cd1P* Cd 0.355425(11) 0.00000 0.50000
N1P* N 0.36585(7) 0.08266(7) 0.58612(7)
N2P* N 0.32375(8) 0.13615(8) 0.59529(7)
O1P* O 0.23894(17) 0.00000 0.50000
C1P* C 0.34895(9) 0.16773(9) 0.65105(13)
C2P* C 0.31849(10) 0.23034(10) 0.68151(12)
C3P* C 0.25984(10) 0.25984(12) 0.65218(10)
H1P* H 0.24030 0.24030 0.61290
N1T* N 0.08266(7) 0.41388(7) 0.63415(7)
N2T* N 0.13615(8) 0.40471(8) 0.67625(7)
C1T* C 0.16773(9) 0.34895(9) 0.65105(13)
C2T* C 0.23034(10) 0.31849(10) 0.68151(12)
C3T* C 0.25984(10) 0.34782(12) 0.74016(10)
H1T* H 0.24030 0.38710 0.75970
N1L* N 0.41388(7) 0.36585(7) 0.91734(7)
N2L* N 0.40471(8) 0.32375(8) 0.86385(7)
C1L* C 0.34895(9) 0.34895(9) 0.83227(13)
C2L* C 0.31849(10) 0.31849(10) 0.76966(12)
C3L* C 0.34782(10) 0.25984(12) 0.74016(10)
H1L* H 0.38710 0.24030 0.75970
N1IA* N 0.41388(7) 0.08266(7) 0.63415(7)
N2IA* N 0.40471(8) 0.13615(8) 0.67625(7)
N1Y* N 0.36585(7) 0.41388(7) 0.91734(7)
N2Y* N 0.32375(8) 0.40471(8) 0.86385(7)
N1DA* N 0.08266(7) 0.36585(7) 0.58612(7)
N2DA* N 0.13615(8) 0.32375(8) 0.59529(7)
Cd1* Cd 0.355425(11) 0.50000 1.00000
Cd1A* Cd 0.644575(11) 0.50000 1.00000
Cd1D* Cd 0.000000(11) 0.35542 -0.50000
Cd1D** Cd 1.000000(11) 0.35542 0.50000
Cd1I* Cd 0.500000(11) 0.00000 -0.35542
Cd1I** Cd 0.500000(11) 1.00000 0.64458
Cd1L* Cd 0.500000(11) 0.35542 1.00000
Cd1M* Cd 0.500000(11) 0.64458 1.00000
Cd1P** Cd 0.355425(11) 1.00000 0.50000
Cd1Q Cd 0.644575(11) 0.00000 0.50000
Cd1Q* Cd 0.644575(11) 1.00000 0.50000
Cd1T Cd 0.000000(11) 0.50000 -0.35542
Cd1T* Cd 0.000000(11) 0.50000 0.64458
Cd1T** Cd 1.000000(11) 0.50000 0.64458
Cd1U Cd 0.000000(11) 0.50000 0.35542
Cd1U* Cd 1.000000(11) 0.50000 0.35542
Cl1H Cl 0.50000 0.00000 -0.50000
Cl1H* Cl 0.50000 0.00000 0.50000
Cl1H** Cl 0.50000 1.00000 0.50000
N1B* N 0.63415(7) 0.41388(7) -0.08266(7)
N1C* N 0.36585(7) 0.58612(7) -0.08266(7)
N1E* N 1.08266(7) 0.63415(7) 0.58612(7)
N1F* N -0.08266(7) 0.63415(7) 0.41388(7)
N1G* N -0.08266(7) 0.36585(7) 0.58612(7)
N1H* N 0.41388(7) 1.08266(7) 0.36585(7)
N1J* N 0.41388(7) -0.08266(7) 0.63415(7)
N1K* N 0.58612(7) -0.08266(7) 0.36585(7)
N1M N 0.58612(7) 0.63415(7) -0.08266(7)
N1S* N 0.36585(7) -0.08266(7) -0.58612(7)
N1S** N 0.36585(7) -0.08266(7) 0.41388(7)
N1X N 0.63415(7) 0.58612(7) -0.08266(7)
N1BA N -0.08266(7) 0.63415(7) 0.58612(7)
N1BA* N 0.91734(7) 0.63415(7) 0.58612(7)
N1CA* N -0.08266(7) 0.36585(7) 0.41388(7)
N1EA* N 1.08266(7) 0.63415(7) 0.41388(7)
N1FA N 0.58612(7) -0.08266(7) 0.63415(7)
N1GA* N 0.41388(7) -0.08266(7) 0.36585(7)
N1HA* N 0.58612(7) 1.08266(7) 0.36585(7)
N1LA* N 0.58612(7) 0.36585(7) -0.08266(7)
N1MA* N 0.41388(7) 0.63415(7) -0.08266(7)
N1OA* N 0.36585(7) -0.08266(7) -0.41388(7)
N1OA** N 0.36585(7) -0.08266(7) 0.58612(7)
N1PA* N 0.36585(7) 0.08266(7) -0.58612(7)
#END
