
#######################################################################
#
#                 Cambridge Crystallographic Data Centre
#                                CCDC
#
#######################################################################
#
# If this CIF has been generated from an entry in the Cambridge
# Structural Database, then it will include bibliographic, chemical,
# crystal, experimental, refinement or atomic coordinate data resulting
# from the CCDC's data processing and validation procedures.
#
#######################################################################

data_CSD_CIF_BEVSUT
_audit_creation_date 2018-02-27
_audit_creation_method CSD-ConQuest-V1
_database_code_CSD BEVSUT
_database_code_depnum_ccdc_archive 'CCDC 1586962'
_chemical_formula_sum 'C20 H18 Br2 Cd1 N2 O4'
_chemical_formula_moiety
;
C12 H14 N2 2+,(C8 H4 Br2 Cd1 O4 2-)n
;
_journal_coden_Cambridge 574
_journal_volume 154
_journal_year 2018
_journal_page_first 92
_journal_name_full 'Dyes Pigm. '
loop_
_publ_author_name
"Jinjian Liu"
_chemical_name_systematic
;
catena-[1,1'-dimethyl-4,4'-bipyridin-1-ium (\m-terephthalato)-dibromo-cadmium]
;
_cell_volume   2198.147
_exptl_crystal_colour 'yellow'
_exptl_crystal_density_diffrn 1.881
_exptl_crystal_description 'block'
_diffrn_ambient_temperature 273.1
#These two values have been output from a single CSD field.
_refine_ls_R_factor_gt 0.0425
_refine_ls_wR_factor_gt 0.0425
_symmetry_cell_setting orthorhombic
_symmetry_space_group_name_H-M 'P c c n'
_symmetry_Int_Tables_number 56
loop_
_symmetry_equiv_pos_site_id
_symmetry_equiv_pos_as_xyz
1 x,y,z
2 1/2-x,1/2-y,z
3 -x,1/2+y,1/2-z
4 1/2+x,-y,1/2-z
5 -x,-y,-z
6 -1/2+x,-1/2+y,-z
7 x,-1/2-y,-1/2+z
8 -1/2-x,y,-1/2+z
_cell_length_a 8.3071(11)
_cell_length_b 14.655(2)
_cell_length_c 18.056(3)
_cell_angle_alpha 90
_cell_angle_beta 90
_cell_angle_gamma 90
_cell_formula_units_Z 4
loop_
_atom_type_symbol
_atom_type_radius_bond
C 0.68
H 0.23
Br 1.21
Cd 1.44
N 0.68
O 0.68
loop_
_atom_site_label
_atom_site_type_symbol
_atom_site_fract_x
_atom_site_fract_y
_atom_site_fract_z
Cd1 Cd 0.25000 0.75000 0.20562(3)
Br1 Br 0.01278(8) 0.77754(5) 0.29845(4)
C1 C 0.0535(6) 0.5643(3) 0.0513(3)
O1 O 0.2057(5) 0.6078(2) 0.1568(2)
C2 C 0.1113(6) 0.6338(3) 0.1064(3)
C3 C 0.0885(7) 0.4723(3) 0.0611(3)
H1 H 0.14760 0.45340 0.10210
O2 O 0.0654(6) 0.7135(3) 0.1005(2)
C4 C -0.0352(7) 0.5914(3) -0.0097(3)
H2 H -0.05930 0.65280 -0.01630
N1 N 0.7125(6) 0.5393(4) 0.1653(4)
C5 C 0.5427(7) 0.5082(4) 0.0347(4)
C6 C 0.6994(10) 0.4554(5) 0.1374(5)
H3 H 0.74870 0.40720 0.16210
C7 C 0.6169(10) 0.4382(5) 0.0746(5)
H4 H 0.60920 0.37850 0.05750
C8 C 0.5559(10) 0.5938(5) 0.0658(4)
H5 H 0.50660 0.64310 0.04250
C9 C 0.6382(10) 0.6078(5) 0.1288(4)
H6 H 0.64420 0.66660 0.14790
C10 C 0.8078(11) 0.5561(6) 0.2307(5)
H7 H 0.82460 0.49970 0.25670
H8 H 0.75240 0.59830 0.26230
H9 H 0.91000 0.58140 0.21650
C1D C -0.0535(6) 0.4357(3) -0.0513(3)
O1D O -0.2057(5) 0.3922(2) -0.1568(2)
C2D C -0.1113(6) 0.3662(3) -0.1064(3)
C3D C -0.0885(7) 0.5277(3) -0.0611(3)
H1D H -0.14760 0.54660 -0.10210
O2D O -0.0654(6) 0.2865(3) -0.1005(2)
C4D C 0.0352(7) 0.4086(3) 0.0097(3)
H2D H 0.05930 0.34720 0.01630
Br1A Br 0.48722(8) 0.72246(5) 0.29845(4)
Cd1D Cd -0.25000 0.25000 -0.20562(3)
O1A O 0.2943(5) 0.8922(2) 0.1568(2)
O2A O 0.4346(6) 0.7865(3) 0.1005(2)
N1D N 0.2875(6) 0.4607(4) -0.1653(4)
C5D C 0.4573(7) 0.4918(4) -0.0347(4)
C6D C 0.3006(10) 0.5446(5) -0.1374(5)
H3D H 0.25130 0.59280 -0.16210
C7D C 0.3831(10) 0.5618(5) -0.0746(5)
H4D H 0.39080 0.62150 -0.05750
C8D C 0.4441(10) 0.4062(5) -0.0658(4)
H5D H 0.49340 0.35690 -0.04250
C9D C 0.3618(10) 0.3922(5) -0.1288(4)
H6D H 0.35580 0.33340 -0.14790
C10D C 0.1922(11) 0.4439(6) -0.2307(5)
H7D H 0.17540 0.50030 -0.25670
H8D H 0.24760 0.40170 -0.26230
H9D H 0.09000 0.41860 -0.21650
#END
