
#######################################################################
#
#                 Cambridge Crystallographic Data Centre
#                                CCDC
#
#######################################################################
#
# If this CIF has been generated from an entry in the Cambridge
# Structural Database, then it will include bibliographic, chemical,
# crystal, experimental, refinement or atomic coordinate data resulting
# from the CCDC's data processing and validation procedures.
#
#######################################################################

data_CSD_CIF_BEVZUA
_audit_creation_date 2018-02-27
_audit_creation_method CSD-ConQuest-V1
_database_code_CSD BEVZUA
_database_code_depnum_ccdc_archive 'CCDC 1575473'
_chemical_formula_sum 'C51 H50 N2 O22 U2'
_chemical_formula_moiety
;
(C36 H18 O16 U2 2-)n,C13 H16 N2 2+,C2 H6 O1,5(H2 O1)
;
_journal_coden_Cambridge 222
_journal_volume 47
_journal_year 2018
_journal_page_first 4236
_journal_name_full 'Dalton Trans. '
loop_
_publ_author_name
"Wei Xu"
"Ya-Nan Ren"
"Miao Xie"
"Lin-Xia Zhou"
"Yue-Qing Zheng"
_chemical_name_systematic
;
catena-[4,4'-(propane-1,3-diyl)di(pyridin-1-ium) 
tris(\m-naphthalene-1,4-dicarboxylato)-tetraoxo-di-uranium ethanol solvate 
pentahydrate]
;
_cell_volume   5263.015
_exptl_crystal_colour 'yellow'
_exptl_crystal_description 'block'
_diffrn_ambient_temperature 293
_refine_special_details
;
Disordered water solvent molecules were not modelled and the disordered 
density was taken into account using the SQUEEZE/PLATON procedure.
;
#These two values have been output from a single CSD field.
_refine_ls_R_factor_gt 0.0668
_refine_ls_wR_factor_gt 0.0668
_symmetry_cell_setting monoclinic
_symmetry_space_group_name_H-M 'P 21/c'
_symmetry_Int_Tables_number 14
loop_
_symmetry_equiv_pos_site_id
_symmetry_equiv_pos_as_xyz
1 x,y,z
2 -x,1/2+y,1/2-z
3 -x,-y,-z
4 x,-1/2-y,-1/2+z
_cell_length_a 16.7566(9)
_cell_length_b 22.7781(9)
_cell_length_c 13.8044(9)
_cell_angle_alpha 90
_cell_angle_beta 92.711(5)
_cell_angle_gamma 90
_cell_formula_units_Z 4
loop_
_atom_type_symbol
_atom_type_radius_bond
C 0.68
H 0.23
N 0.68
O 0.68
U 1.96
loop_
_atom_site_label
_atom_site_type_symbol
_atom_site_fract_x
_atom_site_fract_y
_atom_site_fract_z
U1 U 1.00228(2) 0.60785(2) 0.44970(3)
U2 U 0.60880(2) 1.00715(2) 0.27317(3)
O1 O 0.9574(4) 0.7094(3) 0.4364(6)
O2 O 0.8873(5) 0.6473(3) 0.3515(7)
O3 O 0.7226(5) 0.9483(3) 0.3316(6)
O4 O 0.6200(4) 0.9003(3) 0.2726(6)
C1 C 0.8362(7) 0.7475(5) 0.3611(8)
C2 C 0.8651(6) 0.8027(5) 0.3734(9)
H1 H 0.91872 0.80839 0.39149
C3 C 0.8153(7) 0.8507(5) 0.3590(9)
H2 H 0.83554 0.88834 0.36904
C4 C 0.7365(6) 0.8436(4) 0.3302(8)
C5 C 0.6204(6) 0.7743(4) 0.2930(7)
H3 H 0.58511 0.80548 0.28364
C6 C 0.5929(6) 0.7190(5) 0.2820(8)
H4 H 0.53918 0.71277 0.26515
C7 C 0.6433(7) 0.6714(5) 0.2954(8)
H5 H 0.62362 0.63342 0.28838
C8 C 0.7220(7) 0.6808(5) 0.3190(8)
H6 H 0.75496 0.64813 0.32752
C9 C 0.7567(6) 0.7364(5) 0.3313(8)
C10 C 0.8969(7) 0.6985(5) 0.3831(8)
C11 C 0.6907(7) 0.8986(5) 0.3097(8)
O5 O 0.9405(4) 0.5255(3) 0.3830(5)
O6 O 0.9017(4) 0.4579(3) 0.4874(6)
O7 O 0.5158(4) 0.4610(3) 0.2939(6)
O8 O 0.5166(4) 0.5571(3) 0.2826(7)
C12 C 0.8016(6) 0.5007(4) 0.3829(7)
C13 C 0.7477(8) 0.4952(5) 0.4480(9)
H7 H 0.76368 0.48847 0.51248
C14 C 0.6653(7) 0.4995(5) 0.4211(10)
H8 H 0.62795 0.49634 0.46857
C15 C 0.6402(6) 0.5081(4) 0.3292(9)
C16 C 0.6720(9) 0.5232(7) 0.1566(10)
H9 H 0.61784 0.52590 0.13923
C17 C 0.7262(11) 0.5277(10) 0.0868(12)
H10 H 0.70917 0.53305 0.02228
C18 C 0.8077(10) 0.5241(11) 0.1127(12)
H11 H 0.84436 0.52830 0.06458
C19 C 0.8361(8) 0.5146(8) 0.2078(10)
H12 H 0.89057 0.51134 0.22276
C20 C 0.6965(7) 0.5143(5) 0.2560(9)
C21 C 0.7790(7) 0.5100(5) 0.2829(8)
C22 C 0.8868(6) 0.4937(4) 0.4178(8)
C23 C 0.5544(6) 0.5090(5) 0.3008(8)
O9 O 1.0903(4) 0.6672(3) 0.5396(6)
O10 O 1.0503(8) 0.6762(6) 0.6895(10)
O11 O 1.3825(4) 0.8854(3) 0.7130(6)
O12 O 1.0616(5) 0.6162(4) 0.3471(7)
C24 C 1.1529(7) 0.7388(5) 0.6400(8)
C25 C 1.1285(7) 0.7948(6) 0.6261(10)
H13 H 1.07577 0.80268 0.60629
C26 C 1.1822(7) 0.8404(6) 0.6415(9)
H14 H 1.16497 0.87877 0.63042
C27 C 1.2597(6) 0.8309(5) 0.6725(8)
C28 C 1.3655(7) 0.7589(5) 0.7176(8)
H15 H 1.40158 0.78943 0.72922
C29 C 1.3906(7) 0.7016(6) 0.7306(9)
H16 H 1.44338 0.69384 0.75034
C30 C 1.3364(8) 0.6548(5) 0.7139(9)
H17 H 1.35319 0.61614 0.72186
C31 C 1.2592(8) 0.6671(5) 0.6862(8)
H18 H 1.22292 0.63646 0.67711
C32 C 1.2870(6) 0.7718(5) 0.6872(7)
C33 C 1.2328(6) 0.7265(5) 0.6707(8)
C34 C 1.0931(8) 0.6895(6) 0.6228(9)
C35 C 1.3080(7) 0.8850(5) 0.6842(8)
O13 O 0.9438(5) 0.5999(3) 0.5460(6)
O14 O 1.2763(5) 0.9340(4) 0.6714(7)
O15 O 0.5722(5) 1.0059(4) 0.3875(7)
O16 O 0.6464(5) 1.0097(4) 0.1574(7)
C36 C 0.7030(6) 0.7862(5) 0.3188(8)
N1 N 0.8098(7) 0.7591(6) 0.6016(9)
H19 H 0.85185 0.78015 0.61304
C37 C 0.8160(11) 0.6990(8) 0.6014(10)
H20 H 0.86513 0.68111 0.61483
C38 C 0.7496(9) 0.6658(7) 0.5815(10)
H21 H 0.75397 0.62509 0.58063
C39 C 0.6752(8) 0.6918(6) 0.5624(9)
C40 C 0.6717(8) 0.7527(6) 0.5659(9)
H22 H 0.62293 0.77172 0.55581
C41 C 0.7400(8) 0.7850(7) 0.5843(10)
H23 H 0.73706 0.82576 0.58451
C42 C 0.6023(8) 0.6548(6) 0.543(1)
H24 H 0.59492 0.63001 0.59900
H25 H 0.61146 0.62929 0.48838
C43 C 0.5261(7) 0.6890(6) 0.5214(9)
H26 H 0.53405 0.71605 0.46852
H27 H 0.51351 0.71179 0.57801
C44 C 0.4550(8) 0.6478(6) 0.4936(10)
H28 H 0.46953 0.62384 0.43915
H29 H 0.44697 0.62164 0.54771
C45 C 0.3788(8) 0.6769(6) 0.4678(8)
C46 C 0.3119(9) 0.6457(6) 0.4334(9)
H30 H 0.31714 0.60525 0.42660
C47 C 0.2414(8) 0.6692(6) 0.4096(9)
H31 H 0.19857 0.64577 0.38843
C48 C 0.2934(7) 0.7610(5) 0.4473(9)
H32 H 0.28655 0.80149 0.45089
C49 C 0.3660(7) 0.7361(5) 0.4738(9)
H33 H 0.40761 0.76016 0.49644
N2 N 0.2334(7) 0.7268(5) 0.4166(7)
H34 H 0.18791 0.74254 0.40090
C50 C 0.4459(10) 0.8912(6) 0.4374(10)
H35 H 0.45956 0.91729 0.38604
H36 H 0.42486 0.85535 0.41017
H37 H 0.40649 0.90946 0.47567
C51 C 0.5178(9) 0.8784(7) 0.4990(12)
H38 H 0.55761 0.86123 0.45889
H39 H 0.53929 0.91521 0.52424
O17 O 0.5062(6) 0.8403(4) 0.5781(7)
H40 H 0.47232 0.85416 0.61245
U1B U 0.99772(2) 0.39215(2) 0.55030(3)
U2A U 0.39120(2) 0.50715(2) 0.22683(3)
U2B U 1.39120(2) 0.99285(2) 0.72683(3)
O6B O 1.0983(4) 0.5421(3) 0.5126(6)
O7A O 0.4842(4) 0.9610(3) 0.2061(6)
O8A O 0.4834(4) 1.0571(3) 0.2174(7)
O11B O 0.6175(4) 1.1146(3) 0.2870(6)
O14B O 0.7237(5) 1.0660(4) 0.3286(7)
#END
