
#######################################################################
#
#                 Cambridge Crystallographic Data Centre
#                                CCDC
#
#######################################################################
#
# If this CIF has been generated from an entry in the Cambridge
# Structural Database, then it will include bibliographic, chemical,
# crystal, experimental, refinement or atomic coordinate data resulting
# from the CCDC's data processing and validation procedures.
#
#######################################################################

data_CSD_CIF_BEVZOU
_audit_creation_date 2018-02-27
_audit_creation_method CSD-ConQuest-V1
_database_code_CSD BEVZOU
_database_code_depnum_ccdc_archive 'CCDC 1575472'
_chemical_formula_sum 'C36 H26 O19 U2'
_chemical_formula_moiety
;
(C36 H18 O16 U2 2-)n,2(H3 O1 1+),H2 O1
;
_journal_coden_Cambridge 222
_journal_volume 47
_journal_year 2018
_journal_page_first 4236
_journal_name_full 'Dalton Trans. '
loop_
_publ_author_name
"Wei Xu"
"Ya-Nan Ren"
"Miao Xie"
"Lin-Xia Zhou"
"Yue-Qing Zheng"
_chemical_name_systematic
;
catena-[dioxonium tris(\m-naphthalene-1,4-dicarboxylato)-tetraoxo-di-uranium 
monohydrate]
;
_cell_volume  11201.016
_exptl_crystal_colour 'yellow'
_exptl_crystal_description 'block'
_diffrn_ambient_temperature 293
_refine_special_details
;
Disordered oxonium cations and water solvent molecules were not modelled and 
the disordered density was taken into account using the SQUEEZE/PLATON 
procedure.
;
#These two values have been output from a single CSD field.
_refine_ls_R_factor_gt 0.0555
_refine_ls_wR_factor_gt 0.0555
_symmetry_cell_setting orthorhombic
_symmetry_space_group_name_H-M 'I 2 2 2'
_symmetry_Int_Tables_number 23
loop_
_symmetry_equiv_pos_site_id
_symmetry_equiv_pos_as_xyz
1 x,y,z
2 -x,-y,z
3 x,-y,-z
4 -x,y,-z
5 1/2+x,1/2+y,1/2+z
6 1/2-x,1/2-y,1/2+z
7 1/2+x,1/2-y,1/2-z
8 1/2-x,1/2+y,1/2-z
_cell_length_a 19.196(4)
_cell_length_b 27.013(5)
_cell_length_c 21.601(4)
_cell_angle_alpha 90
_cell_angle_beta 90
_cell_angle_gamma 90
_cell_formula_units_Z 8
loop_
_atom_type_symbol
_atom_type_radius_bond
C 0.68
H 0.23
O 0.68
U 1.96
loop_
_atom_site_label
_atom_site_type_symbol
_atom_site_fract_x
_atom_site_fract_y
_atom_site_fract_z
U1 U -0.24853(5) -0.16929(2) 0.10266(3)
U2 U -0.25209(5) -0.52435(2) -0.18244(3)
O1 O -0.3068(8) -0.4575(6) -0.1240(8)
O2 O -0.2638(8) -0.4968(6) -0.2526(6)
O3 O -0.1800(7) -0.1050(6) 0.1525(8)
O4 O -0.3237(7) -0.1179(6) 0.1686(7)
O5 O -0.3030(9) -0.2332(7) 0.0411(10)
O6 O -0.1899(8) -0.2318(8) 0.0351(12)
O7 O 0.1167(8) -0.0287(7) 0.3194(8)
O8 O -0.2529(13) -0.1290(6) 0.0384(5)
O9 O -0.3767(8) -0.1723(8) 0.1132(12)
O10 O -0.1232(7) -0.1621(8) 0.1062(10)
O11 O -0.6246(6) -0.0243(6) 0.2968(7)
C1 C 0.1444(9) -0.1232(9) 0.0951(10)
H1 H 0.18898 -0.12927 0.08002
C2 C -0.6464(19) -0.1613(13) 0.0994(15)
H2 H -0.68859 -0.17665 0.09041
C3 C -0.2161(10) -0.2955(9) -0.0791(12)
C4 C -0.6379(14) -0.1257(11) 0.1509(14)
H3 H -0.67759 -0.11144 0.16791
C5 C 0.1368(10) -0.1011(8) 0.1504(12)
H4 H 0.17582 -0.08698 0.16874
C6 C 0.0205(10) -0.1327(7) 0.0818(9)
H5 H -0.01741 -0.14059 0.05687
C7 C -0.2498(14) -0.4291(8) -0.1247(14)
C8 C -0.5128(16) -0.1324(11) 0.1513(16)
C9 C 0.0102(8) -0.1151(8) 0.1456(10)
O12 O -0.6803(8) -0.0920(6) 0.2700(8)
C10 C -0.5040(12) -0.0716(8) 0.2515(9)
H6 H -0.50184 -0.04736 0.28200
C11 C -0.0069(12) -0.0688(9) 0.2649(14)
H7 H -0.01400 -0.05802 0.30536
C12 C -0.5746(10) -0.1128(8) 0.1746(10)
C13 C 0.0703(10) -0.0983(8) 0.1831(11)
C14 C -0.3807(13) -0.1376(12) 0.1454(14)
C15 C -0.4422(11) -0.0926(8) 0.230(1)
H8 H -0.40041 -0.08977 0.25154
C16 C -0.5679(11) -0.0858(8) 0.2291(12)
C17 C -0.1232(10) -0.1268(9) 0.1482(14)
C18 C -0.4472(12) -0.1186(11) 0.1729(12)
C19 C 0.0619(12) -0.0760(8) 0.2395(11)
C20 C -0.0638(10) -0.0794(8) 0.2234(10)
H9 H -0.10723 -0.06574 0.23203
C21 C -0.0575(10) -0.1074(10) 0.1739(15)
C22 C -0.2491(18) -0.3842(7) -0.087(1)
C23 C -0.2432(13) -0.2984(8) -0.0158(10)
C24 C -0.2465(17) -0.2527(7) 0.0215(10)
C25 C 0.0869(11) -0.1371(9) 0.0598(10)
H10 H 0.09393 -0.14981 0.02029
C26 C -0.5190(15) -0.1601(10) 0.0932(13)
H11 H -0.47896 -0.17159 0.07376
C27 C -0.2011(12) -0.3367(11) -0.1783(12)
H12 H -0.20767 -0.36349 -0.20479
C28 C -0.1940(13) -0.2508(10) -0.1108(13)
H13 H -0.19682 -0.22088 -0.08961
C29 C -0.1740(14) -0.2924(11) -0.2015(13)
H14 H -0.15815 -0.29242 -0.24219
C30 C -0.1691(17) -0.2504(12) -0.1701(15)
H15 H -0.14972 -0.22204 -0.18759
C31 C -0.5862(19) -0.1698(14) 0.066(2)
H16 H -0.58906 -0.18169 0.02525
C32 C -0.2712(12) -0.3394(9) 0.0066(13)
H17 H -0.29021 -0.33927 0.04616
C33 C -0.2724(12) -0.3837(9) -0.0292(14)
H18 H -0.28988 -0.41264 -0.01176
C34 C -0.2188(10) -0.3412(9) -0.1139(10)
C35 C 0.1198(13) -0.0615(11) 0.2826(14)
O13 O -0.2379(8) -0.2095(6) 0.1643(6)
O14 O -0.2431(11) -0.5522(7) -0.1112(6)
O15 O -0.1955(7) -0.4460(5) -0.1502(7)
O16 O 0.1714(8) -0.0900(6) 0.2822(8)
C36 C -0.6248(10) -0.0672(8) 0.2684(11)
U2D U -0.75209(5) -0.02435(2) 0.31756(3)
U2D* U 0.24791(5) -0.02435(2) 0.31756(3)
O7D O -0.3833(8) -0.5287(7) -0.1806(8)
O11D O -0.1246(6) -0.5243(6) -0.2032(7)
O12D O -0.1803(8) -0.5920(6) -0.2300(8)
O16D O -0.3286(8) -0.5900(6) -0.2178(8)
#END
