
#######################################################################
#
#                 Cambridge Crystallographic Data Centre
#                                CCDC
#
#######################################################################
#
# If this CIF has been generated from an entry in the Cambridge
# Structural Database, then it will include bibliographic, chemical,
# crystal, experimental, refinement or atomic coordinate data resulting
# from the CCDC's data processing and validation procedures.
#
#######################################################################

data_CSD_CIF_BEWBOX
_audit_creation_date 2018-02-27
_audit_creation_method CSD-ConQuest-V1
_database_code_CSD BEWBOX
_database_code_depnum_ccdc_archive 'CCDC 1575477'
_chemical_formula_sum 'C49 H44 N2 O21 U2'
_chemical_formula_moiety
;
(C36 H18 O16 U2 2-)n,C13 H16 N2 2+,5(H2 O1)
;
_journal_coden_Cambridge 222
_journal_volume 47
_journal_year 2018
_journal_page_first 4236
_journal_name_full 'Dalton Trans. '
loop_
_publ_author_name
"Wei Xu"
"Ya-Nan Ren"
"Miao Xie"
"Lin-Xia Zhou"
"Yue-Qing Zheng"
_chemical_name_systematic
;
catena-[4,4'-(propane-1,3-diyl)di(pyridin-1-ium) 
tris(\m-naphthalene-1,4-dicarboxylato)-tetraoxo-di-uranium pentahydrate]
;
_cell_volume   5221.937
_exptl_crystal_colour 'yellow'
_exptl_crystal_description 'block'
_diffrn_ambient_temperature 293
_refine_special_details
;
Disordered water solvent molecules were not modelled and the disordered 
density was taken into account using the SQUEEZE/PLATON procedure.
;
#These two values have been output from a single CSD field.
_refine_ls_R_factor_gt 0.0398
_refine_ls_wR_factor_gt 0.0398
_symmetry_cell_setting monoclinic
_symmetry_space_group_name_H-M 'P 21/c'
_symmetry_Int_Tables_number 14
loop_
_symmetry_equiv_pos_site_id
_symmetry_equiv_pos_as_xyz
1 x,y,z
2 -x,1/2+y,1/2-z
3 -x,-y,-z
4 x,-1/2-y,-1/2+z
_cell_length_a 17.017(3)
_cell_length_b 22.500(5)
_cell_length_c 13.661(3)
_cell_angle_alpha 90
_cell_angle_beta 93.29(3)
_cell_angle_gamma 90
_cell_formula_units_Z 4
loop_
_atom_type_symbol
_atom_type_radius_bond
C 0.68
H 0.23
N 0.68
O 0.68
U 1.96
loop_
_atom_site_label
_atom_site_type_symbol
_atom_site_fract_x
_atom_site_fract_y
_atom_site_fract_z
U1 U -0.49738(2) 0.10948(2) -0.04896(2)
O1 O -0.4027(3) 0.04153(19) 0.0136(4)
O2 O -0.4419(2) -0.02583(18) 0.1194(4)
C1 C -0.3054(4) 0.0004(2) 0.1217(6)
C2 C -0.2488(4) 0.0022(3) 0.0534(6)
H1 H -0.26419 0.00624 -0.01267
C3 C -0.1669(4) -0.0021(3) 0.0823(6)
H2 H -0.12942 -0.00116 0.03532
C4 C -0.1444(4) -0.0075(2) 0.1777(6)
C5 C -0.1787(6) -0.0150(4) 0.3535(8)
H3 H -0.12557 -0.01805 0.37305
C6 C -0.2323(7) -0.0156(6) 0.4220(9)
H4 H -0.21633 -0.01860 0.48806
C7 C -0.3127(7) -0.0118(6) 0.3929(8)
H5 H -0.34980 -0.01253 0.44025
C8 C -0.3369(5) -0.0070(4) 0.2982(7)
H6 H -0.39049 -0.00373 0.28157
C9 C -0.2835(4) -0.0067(3) 0.2230(6)
C10 C -0.2009(4) -0.0099(3) 0.2518(6)
C11 C -0.3886(4) 0.0056(2) 0.0827(5)
C12 C -0.0586(4) -0.0083(3) 0.2088(6)
O3 O -0.0227(3) 0.0392(2) 0.2235(5)
O4 O -0.0220(3) -0.0566(2) 0.2180(5)
O5 O -0.4383(3) 0.1178(2) -0.1496(4)
O6 O -0.5575(3) 0.1001(2) 0.0479(4)
O7 O -0.5438(3) 0.21297(19) -0.0634(4)
O8 O -0.6094(3) 0.1486(2) -0.1531(4)
C13 C -0.7669(4) 0.3446(3) -0.1711(5)
C14 C -0.6884(4) 0.3530(3) -0.1436(6)
H7 H -0.66975 0.39151 -0.13328
C15 C -0.6364(4) 0.3058(3) -0.1310(6)
H8 H -0.58337 0.31304 -0.11521
C16 C -0.6633(4) 0.2476(3) -0.1418(5)
C17 C -0.7736(4) 0.1780(3) -0.1860(6)
H9 H -0.73988 0.14564 -0.17835
C18 C -0.8507(4) 0.1685(3) -0.2109(6)
H10 H -0.86901 0.12994 -0.22146
C19 C -0.9036(4) 0.2168(3) -0.2210(6)
H11 H -0.95661 0.20979 -0.23727
C20 C -0.8776(4) 0.2733(3) -0.2071(5)
H12 H -0.91321 0.30461 -0.21343
C21 C -0.7972(4) 0.2856(3) -0.1830(5)
C22 C -0.7431(4) 0.2361(2) -0.1714(5)
C23 C -0.8160(4) 0.3998(3) -0.1865(6)
C24 C -0.6031(4) 0.2000(3) -0.1191(6)
O9 O -0.8880(3) 0.39931(19) -0.2136(5)
O10 O -0.7816(3) 0.44924(18) -0.1732(4)
O11 O -0.8851(3) 0.61800(19) -0.2215(5)
O12 O -0.7796(3) 0.56730(19) -0.1802(5)
C25 C -0.7629(4) 0.6720(3) -0.1828(6)
C26 C -0.6852(4) 0.6632(3) -0.1538(7)
H13 H -0.66718 0.62458 -0.14281
C27 C -0.6328(4) 0.7102(3) -0.1405(6)
H14 H -0.58020 0.70279 -0.12219
C28 C -0.6587(4) 0.7682(3) -0.1545(5)
C29 C -0.7646(5) 0.8381(3) -0.2034(6)
H15 H -0.72902 0.86938 -0.19613
C30 C -0.8414(5) 0.8499(3) -0.2305(7)
H16 H -0.85802 0.88888 -0.24065
C31 C -0.8955(4) 0.8025(3) -0.2431(6)
H17 H -0.94774 0.81036 -0.26235
C32 C -0.8715(4) 0.7449(3) -0.2273(6)
H18 H -0.90803 0.71432 -0.23523
C33 C -0.7918(4) 0.7310(3) -0.1988(5)
C34 C -0.7380(4) 0.7793(3) -0.1860(5)
C35 C -0.8124(4) 0.6174(3) -0.1951(6)
C36 C -0.6019(5) 0.8182(3) -0.1342(7)
O13 O -0.5887(3) 0.83066(19) -0.0457(4)
O14 O -0.5708(5) 0.8427(4) -0.2018(6)
O15 O -0.9262(3) 0.5107(2) -0.1045(4)
O16 O -0.8684(3) 0.5069(2) -0.3448(4)
U2 U -0.89694(2) 0.50893(2) -0.22483(2)
N1 N -0.3095(5) 0.7418(5) -0.0982(7)
H19 H -0.35213 0.72186 -0.10965
N2 N 0.2656(4) 0.7630(5) 0.0705(6)
H20 H 0.31059 0.74653 0.08319
C37 C -0.3120(6) 0.8024(7) -0.1008(8)
H21 H -0.35981 0.82123 -0.11619
C38 C -0.2463(6) 0.8363(6) -0.0813(8)
H22 H -0.24884 0.87760 -0.08146
C39 C -0.1727(5) 0.8056(5) -0.0605(7)
C40 C -0.1728(5) 0.7446(5) -0.0591(7)
H23 H -0.12592 0.72426 -0.04508
C41 C -0.2414(6) 0.7129(5) -0.0780(8)
H24 H -0.24054 0.67154 -0.07685
C42 C -0.0997(5) 0.8420(4) -0.0415(7)
H25 H -0.10718 0.86767 0.01422
H26 H -0.09314 0.86733 -0.09793
C43 C -0.0251(5) 0.8071(4) -0.0216(7)
H27 H -0.01479 0.78392 -0.07934
H28 H -0.03256 0.77957 0.03171
C44 C 0.0471(5) 0.8466(4) 0.0054(8)
H29 H 0.05400 0.87391 -0.04837
H30 H 0.03573 0.87016 0.06229
C45 C 0.1221(5) 0.8154(4) 0.0268(6)
C46 C 0.1885(6) 0.8497(5) 0.0529(8)
H31 H 0.18391 0.89086 0.05401
C47 C 0.2593(7) 0.8247(6) 0.0765(8)
H32 H 0.30255 0.84790 0.09622
C48 C 0.2029(6) 0.7288(5) 0.0455(7)
H33 H 0.20791 0.68771 0.04349
C49 C 0.1316(5) 0.7551(4) 0.0229(7)
H34 H 0.08859 0.73129 0.00435
U1B U -0.50262(2) -0.10948(2) 0.04896(2)
U1B* U -0.50262(2) 0.89052(2) 0.04896(2)
O2B O -0.5581(2) 0.02583(18) -0.1194(4)
O3C O -1.0227(3) 0.4608(2) -0.2765(5)
O4C O -1.0220(3) 0.5566(2) -0.2820(5)
O13B O -0.4113(3) 0.16934(19) 0.0457(4)
U2C U 0.10306(2) -0.00893(2) 0.27517(2)
#END
