
#######################################################################
#
#                 Cambridge Crystallographic Data Centre
#                                CCDC
#
#######################################################################
#
# If this CIF has been generated from an entry in the Cambridge
# Structural Database, then it will include bibliographic, chemical,
# crystal, experimental, refinement or atomic coordinate data resulting
# from the CCDC's data processing and validation procedures.
#
#######################################################################

data_CSD_CIF_BEWBAJ
_audit_creation_date 2018-02-27
_audit_creation_method CSD-ConQuest-V1
_database_code_CSD BEWBAJ
_database_code_depnum_ccdc_archive 'CCDC 1575474'
_chemical_formula_sum 'C50 H36 N2 O17 U2'
_chemical_formula_moiety
;
(C36 H18 O16 U2 2-)n,C12 H12 N2 2+,C2 H6 O1
;
_journal_coden_Cambridge 222
_journal_volume 47
_journal_year 2018
_journal_page_first 4236
_journal_name_full 'Dalton Trans. '
loop_
_publ_author_name
"Wei Xu"
"Ya-Nan Ren"
"Miao Xie"
"Lin-Xia Zhou"
"Yue-Qing Zheng"
_chemical_name_systematic
;
catena-[4,4'-[ethene-1,2-diyl]di(pyridin-1-ium) 
tris(\m-naphthalene-1,4-dicarboxylato)-tetraoxo-di-uranium ethanol solvate]
;
_cell_volume   2472.459
_exptl_crystal_colour 'yellow'
_exptl_crystal_description 'prism'
_diffrn_ambient_temperature 293
_refine_special_details
;
C43,C44,C45,C46,C47,C48,C49,C50,C51,C52,C53,C54,N2,N3 disordered by symmetry 
over two configurations with occupancy 0.5; Disordered ethanol solvent 
molecules were not modelled and the disordered density was taken into account 
using the SQUEEZE/PLATON procedure.
;
#These two values have been output from a single CSD field.
_refine_ls_R_factor_gt 0.043
_refine_ls_wR_factor_gt 0.043
_symmetry_cell_setting triclinic
_symmetry_space_group_name_H-M 'P -1'
_symmetry_Int_Tables_number 2
loop_
_symmetry_equiv_pos_site_id
_symmetry_equiv_pos_as_xyz
1 x,y,z
2 -x,-y,-z
_cell_length_a 10.014(2)
_cell_length_b 15.315(3)
_cell_length_c 16.677(3)
_cell_angle_alpha 97.86(3)
_cell_angle_beta 97.56(3)
_cell_angle_gamma 98.90(3)
_cell_formula_units_Z 2
loop_
_atom_type_symbol
_atom_type_radius_bond
C 0.68
H 0.23
N 0.68
O 0.68
U 1.96
loop_
_atom_site_label
_atom_site_type_symbol
_atom_site_fract_x
_atom_site_fract_y
_atom_site_fract_z
U1 U 0.49311(2) 0.85595(2) 0.10629(2)
U2 U 0.25118(2) 0.43033(2) -0.51040(2)
O1 O 0.3009(5) 0.7393(3) 0.1257(3)
O2 O 0.3829(5) 0.8470(4) 0.2286(3)
O3 O -0.1507(5) 0.5537(3) 0.3834(3)
O4 O -0.0474(5) 0.6627(3) 0.4805(3)
O5 O 0.5874(6) 0.8418(4) -0.0265(3)
O6 O 0.4396(5) 0.7293(4) -0.0074(3)
O7 O 0.5887(4) 0.5413(3) -0.4022(2)
O8 O 0.3757(4) 0.5654(3) -0.4260(2)
O9 O 0.5738(5) 0.9870(3) 0.2160(3)
O10 O 0.6757(5) 0.9812(4) 0.1076(3)
O11 O 1.2522(7) 1.1938(5) 0.4002(5)
O12 O 1.1747(5) 1.3186(3) 0.3786(3)
O13 O 0.6166(6) 0.8011(4) 0.1503(3)
O14 O 0.3689(5) 0.9102(4) 0.0632(3)
O15 O 0.1507(4) 0.4976(3) -0.5582(3)
O16 O 0.3559(5) 0.3677(3) -0.4603(3)
C1 C 0.2986(7) 0.7757(5) 0.1982(4)
C2 C 0.2003(6) 0.7382(5) 0.2477(4)
C3 C 0.2466(7) 0.7359(5) 0.3289(4)
H1 H 0.33752 0.75950 0.35052
C4 C 0.1586(7) 0.6984(6) 0.3802(4)
H2 H 0.19200 0.69766 0.43476
C5 C 0.0245(6) 0.6633(5) 0.3493(4)
C6 C -0.0625(7) 0.6237(5) 0.4070(4)
C7 C -0.1709(6) 0.6334(5) 0.2337(4)
H3 H -0.23049 0.60838 0.26600
C8 C -0.2174(7) 0.6408(6) 0.1555(4)
H4 H -0.30900 0.61937 0.13403
C9 C -0.1307(8) 0.6800(6) 0.1063(4)
H5 H -0.16583 0.68603 0.05323
C10 C 0.0048(7) 0.7095(5) 0.1350(4)
H6 H 0.06169 0.73369 0.10075
C11 C 0.0595(7) 0.7039(4) 0.2154(4)
C12 C -0.0294(6) 0.6644(4) 0.2664(3)
C13 C 0.5166(7) 0.7653(5) -0.0508(4)
C14 C 0.5246(6) 0.7157(5) -0.1353(4)
C15 C 0.4989(7) 0.7587(5) -0.2019(4)
H7 H 0.48967 0.81865 -0.19410
C16 C 0.4870(6) 0.7111(5) -0.2816(4)
H8 H 0.46829 0.73946 -0.32662
C17 C 0.5028(5) 0.6235(4) -0.2933(3)
C18 C 0.4887(6) 0.5738(4) -0.3811(3)
C19 C 0.5448(6) 0.4855(5) -0.2370(4)
H9 H 0.53533 0.45380 -0.28970
C20 C 0.5704(8) 0.4432(6) -0.1728(5)
H10 H 0.57772 0.38291 -0.18129
C21 C 0.5861(7) 0.4903(6) -0.0923(5)
H11 H 0.60662 0.46173 -0.04764
C22 C 0.5711(7) 0.5779(6) -0.0801(4)
H12 H 0.58103 0.60785 -0.02667
C23 C 0.5410(6) 0.6254(5) -0.1459(3)
C24 C 0.5317(5) 0.5771(4) -0.2269(3)
C25 C 0.6725(6) 1.0159(5) 0.1807(4)
C26 C 0.7928(6) 1.0821(4) 0.2278(4)
C27 C 0.8226(7) 1.0809(5) 0.3097(4)
H13 H 0.76053 1.04779 0.33564
C28 C 0.9471(8) 1.1296(5) 0.3555(4)
H14 H 0.96791 1.12621 0.41093
C29 C 1.0364(6) 1.1811(4) 0.3195(4)
C30 C 1.1642(7) 1.2343(5) 0.3692(4)
C31 C 1.0971(7) 1.2394(5) 0.1958(4)
H15 H 1.18043 1.26987 0.22526
C32 C 1.0639(7) 1.2460(5) 0.1139(4)
H16 H 1.12536 1.27996 0.08813
C33 C 0.9401(8) 1.2023(5) 0.0709(4)
H17 H 0.91733 1.20872 0.01640
C34 C 0.8510(8) 1.1504(5) 0.1053(4)
H18 H 0.76811 1.12149 0.07416
C35 C 0.8805(6) 1.1385(4) 0.1885(4)
C36 C 1.0068(6) 1.1876(4) 0.2343(3)
C37 C 1.0656(7) 0.4841(5) 0.1593(4)
H19 H 1.14538 0.51741 0.14867
C38 C 0.9552(7) 0.4548(5) 0.0978(4)
C39 C 0.8402(7) 0.4033(5) 0.1158(5)
H20 H 0.76490 0.38202 0.07502
C40 C 0.8365(8) 0.3835(6) 0.1925(5)
H21 H 0.75875 0.34882 0.20414
C41 C 0.9537(7) 0.4718(5) 0.0135(5)
H22 H 0.88075 0.44011 -0.02514
N1 N 0.9443(7) 0.4137(4) 0.2512(3)
H23 H 0.94046 0.40034 0.29936
C42 C 1.0572(8) 0.4637(5) 0.2377(4)
H24 H 1.12999 0.48483 0.28007
N2? N 0.866(2) 1.0194(16) -0.2094(13)
H25? H 0.83003 1.01966 -0.25914
C43? C 0.9946(17) 1.0633(13) -0.1718(13)
H26? H 1.04411 1.09570 -0.20479
C44? C 1.0604(19) 1.0669(15) -0.0946(13)
H27? H 1.14496 1.10397 -0.07747
C45? C 1.002(2) 1.0150(15) -0.0400(12)
C46? C 0.8697(19) 0.9783(16) -0.0770(14)
H28? H 0.81602 0.95112 -0.04278
C47? C 0.8049(19) 0.9747(14) -0.1528(13)
H29? H 0.71692 0.94168 -0.16817
C48? C 1.083(2) 1.0180(17) 0.0399(12)
H30? H 1.17236 1.04933 0.05250
C49? C 1.027(2) 0.9751(16) 0.0941(13)
H31? H 0.93839 0.94243 0.08001
C50? C 1.104(2) 0.9787(19) 0.1779(15)
C51? C 1.2357(18) 1.0270(14) 0.2075(14)
H32? H 1.28582 1.06128 0.17604
C52? C 1.286(2) 1.0198(14) 0.2878(13)
H33? H 1.37833 1.04250 0.30488
N3? N 1.2181(17) 0.9842(12) 0.3450(11)
H34? H 1.24785 0.99122 0.39662
C53? C 1.0949(19) 0.9355(14) 0.3061(14)
H35? H 1.04562 0.89676 0.33435
C54? C 1.041(2) 0.9410(15) 0.2283(14)
H36? H 0.95005 0.91468 0.21045
U2* U 1.25118(2) 1.43033(2) 0.48960(2)
U2A U -0.25118(2) 0.56967(2) 0.51040(2)
U2A* U 0.74882(2) 0.56967(2) -0.48960(2)
O3A O 0.1507(5) 0.4463(3) -0.3834(3)
O4A O 0.0474(5) 0.3373(3) -0.4805(3)
O7A O 0.4113(4) 0.4587(3) -0.5978(2)
O12* O 0.1747(5) 0.3186(3) -0.6214(3)
C37A C 0.9344(7) 0.5159(5) -0.1593(4)
H19A H 0.85462 0.48259 -0.14867
C38A C 1.0448(7) 0.5452(5) -0.0978(4)
C39A C 1.1598(7) 0.5967(5) -0.1158(5)
H20A H 1.23510 0.61798 -0.07502
C40A C 1.1635(8) 0.6165(6) -0.1925(5)
H21A H 1.24125 0.65118 -0.20414
C41A C 1.0463(7) 0.5282(5) -0.0135(5)
H22A H 1.11925 0.55989 0.02514
N1A N 1.0557(7) 0.5863(4) -0.2512(3)
H23A H 1.05954 0.59966 -0.29936
C42A C 0.9428(8) 0.5363(5) -0.2377(4)
H24A H 0.87001 0.51517 -0.28007
#END
