
#######################################################################
#
#                 Cambridge Crystallographic Data Centre
#                                CCDC
#
#######################################################################
#
# If this CIF has been generated from an entry in the Cambridge
# Structural Database, then it will include bibliographic, chemical,
# crystal, experimental, refinement or atomic coordinate data resulting
# from the CCDC's data processing and validation procedures.
#
#######################################################################

data_CSD_CIF_BEWBEN
_audit_creation_date 2018-02-27
_audit_creation_method CSD-ConQuest-V1
_database_code_CSD BEWBEN
_database_code_depnum_ccdc_archive 'CCDC 1575475'
_chemical_formula_sum 'C61 H46 N2 O22 U2'
_chemical_formula_moiety
;
2(C24 H13 O10 U1 1-)n,C13 H16 N2 2+,2(H2 O1)
;
_journal_coden_Cambridge 222
_journal_volume 47
_journal_year 2018
_journal_page_first 4236
_journal_name_full 'Dalton Trans. '
loop_
_publ_author_name
"Wei Xu"
"Ya-Nan Ren"
"Miao Xie"
"Lin-Xia Zhou"
"Yue-Qing Zheng"
_chemical_name_systematic
;
catena-[4,4'-(propane-1,3-diyl)di(pyridin-1-ium) 
bis((\m-naphthalene-1,4-dicarboxylato)-(4-carboxynaphthalene-1-carboxylato)-di
oxo-uranium) dihydrate]
;
_cell_volume   6005.839
_exptl_crystal_colour 'yellow'
_exptl_crystal_density_diffrn 1.808
_exptl_crystal_description 'prism'
_diffrn_ambient_temperature 293
#These two values have been output from a single CSD field.
_refine_ls_R_factor_gt 0.0488
_refine_ls_wR_factor_gt 0.0488
_symmetry_cell_setting orthorhombic
_symmetry_space_group_name_H-M 'P n a 21'
_symmetry_Int_Tables_number 33
loop_
_symmetry_equiv_pos_site_id
_symmetry_equiv_pos_as_xyz
1 x,y,z
2 -x,-y,1/2+z
3 1/2-x,1/2+y,1/2+z
4 1/2+x,1/2-y,z
_cell_length_a 19.736(4)
_cell_length_b 13.954(3)
_cell_length_c 21.808(4)
_cell_angle_alpha 90
_cell_angle_beta 90
_cell_angle_gamma 90
_cell_formula_units_Z 4
loop_
_atom_type_symbol
_atom_type_radius_bond
C 0.68
H 0.23
N 0.68
O 0.68
U 1.96
loop_
_atom_site_label
_atom_site_type_symbol
_atom_site_fract_x
_atom_site_fract_y
_atom_site_fract_z
U1 U -0.40940(3) -0.03817(4) -0.24139(3)
O1 O -0.4734(5) -0.1901(8) -0.2409(12)
O2 O -0.5344(6) -0.0615(9) -0.2486(11)
O3 O -0.8381(6) -0.3167(8) -0.2505(10)
O4 O -0.7852(6) -0.4525(9) -0.2342(12)
O5 O -0.4724(7) 0.1123(9) -0.2374(14)
O6 O -0.3632(8) 0.1283(10) -0.2431(14)
O7 O -0.3907(16) 0.6246(13) -0.2567(12)
H1 H -0.37340 0.68813 -0.25520
O8 O -0.478(2) 0.6137(15) -0.3206(13)
O9 O -0.4107(8) -0.0400(11) -0.1536(11)
O10 O -0.4083(7) -0.0352(10) -0.3159(8)
C1 C -0.5945(8) -0.2088(11) -0.2393(14)
C2 C -0.6468(9) -0.1859(15) -0.2787(10)
H2 H -0.64037 -0.13758 -0.30743
C3 C -0.7091(10) -0.2332(15) -0.2765(10)
H3 H -0.74419 -0.21458 -0.30241
C4 C -0.7184(8) -0.3088(12) -0.2351(12)
C5 C -0.6782(11) -0.3965(14) -0.1395(10)
H4 H -0.71949 -0.42796 -0.13587
C6 C -0.6294(13) -0.4115(17) -0.0984(12)
H5 H -0.63824 -0.45256 -0.06576
C7 C -0.5657(12) -0.3683(19) -0.1020(12)
H6 H -0.53258 -0.38118 -0.07280
C8 C -0.5534(10) -0.3074(16) -0.1488(11)
H7 H -0.51063 -0.27985 -0.15183
C9 C -0.6666(9) -0.3308(13) -0.1901(9)
C10 C -0.6033(10) -0.2833(15) -0.1942(9)
C11 C -0.5301(8) -0.1508(12) -0.2415(13)
C12 C -0.7830(9) -0.3627(12) -0.2372(14)
C13 C -0.4346(15) 0.2740(17) -0.2530(14)
C14 C -0.3775(17) 0.3240(18) -0.2649(12)
H8 H -0.33624 0.29221 -0.26779
C15 C -0.380(2) 0.428(2) -0.2732(14)
H9 H -0.34110 0.46271 -0.28003
C16 C -0.439(2) 0.470(2) -0.2708(12)
C17 C -0.561(2) 0.473(2) -0.2540(12)
H10 H -0.56157 0.53946 -0.25770
C18 C -0.622(3) 0.421(3) -0.242(3)
H11 H -0.66394 0.45211 -0.24009
C19 C -0.617(2) 0.327(3) -0.235(2)
H12 H -0.65635 0.29324 -0.22662
C20 C -0.5587(16) 0.275(2) -0.2395(19)
H13 H -0.56065 0.20858 -0.23506
C21 C -0.500(2) 0.4227(19) -0.2597(11)
C22 C -0.4971(13) 0.3179(14) -0.2503(12)
C23 C -0.4239(11) 0.1661(12) -0.2444(17)
C24 C -0.442(2) 0.578(2) -0.2858(16)
U2 U -0.74574(3) -0.04286(4) -0.44177(3)
O11 O -0.8105(6) -0.1957(8) -0.4362(11)
O12 O -0.8684(6) -0.0660(9) -0.4536(10)
O13 O -1.1213(6) -0.4520(9) -0.4354(12)
O14 O -1.1728(6) -0.3145(9) -0.4415(11)
O15 O -0.8068(6) 0.1130(8) -0.4418(12)
O16 O -0.6972(7) 0.1176(10) -0.4435(16)
O17 O -0.7717(11) 0.6195(12) -0.4205(9)
H14 H -0.78513 0.68434 -0.42594
O18 O -0.7740(18) 0.6116(15) -0.5220(14)
O19 O -0.7416(8) -0.0455(11) -0.5179(9)
O20 O -0.7489(7) -0.0373(11) -0.3546(11)
C25 C -0.9291(8) -0.2153(13) -0.4548(10)
C26 C -0.9396(10) -0.2866(15) -0.4106(11)
H15 H -0.90613 -0.30064 -0.38194
C27 C -1.0014(10) -0.3364(14) -0.4102(10)
H16 H -1.00814 -0.38504 -0.38165
C28 C -1.0518(9) -0.3152(12) -0.4506(11)
C29 C -1.0899(11) -0.2259(16) -0.5463(11)
H17 H -1.13141 -0.25743 -0.54580
C30 C -1.0769(13) -0.163(2) -0.5908(10)
H18 H -1.10986 -0.15254 -0.62043
C31 C -1.0166(14) -0.114(2) -0.5948(12)
H19 H -1.00805 -0.07278 -0.62718
C32 C -0.9700(14) -0.1291(18) -0.5499(12)
H20 H -0.92986 -0.09433 -0.55144
C33 C -1.0418(9) -0.2458(15) -0.4992(9)
C34 C -0.9792(9) -0.1944(14) -0.5009(9)
C35 C -0.8660(8) -0.1575(13) -0.4467(13)
C36 C -1.1182(8) -0.3634(12) -0.4412(13)
C37 C -0.7557(10) 0.2665(13) -0.4548(14)
C38 C -0.7862(11) 0.3235(15) -0.4124(13)
H21 H -0.80696 0.29356 -0.37926
C39 C -0.7887(12) 0.4225(16) -0.4148(11)
H22 H -0.80949 0.45832 -0.38408
C40 C -0.7580(13) 0.4667(16) -0.4665(16)
C41 C -0.688(2) 0.4539(19) -0.5603(15)
H23 H -0.68759 0.52031 -0.56423
C42 C -0.652(2) 0.399(3) -0.6036(16)
H24 H -0.62805 0.42848 -0.63482
C43 C -0.6534(19) 0.299(3) -0.5996(15)
H25 H -0.63141 0.26122 -0.62858
C44 C -0.6875(13) 0.2585(18) -0.5524(12)
H26 H -0.68878 0.19198 -0.55023
C45 C -0.7219(12) 0.4128(17) -0.5125(11)
C46 C -0.7209(11) 0.3106(15) -0.5066(10)
C47 C -0.7533(10) 0.1601(12) -0.4460(18)
C48 C -0.7686(14) 0.5709(17) -0.4733(13)
N1 N -0.867(3) 0.538(5) -0.636(3)
H27 H -0.83987 0.56684 -0.66038
N2 N -1.0498(16) 0.0528(19) -0.4120(12)
H28 H -1.05959 -0.00727 -0.41111
C49 C -0.896(2) 0.402(3) -0.5837(19)
H29 H -0.88603 0.33910 -0.57265
C50 C -0.855(3) 0.450(6) -0.622(3)
H30 H -0.81773 0.41889 -0.63845
C51 C -0.921(4) 0.586(3) -0.612(3)
H31 H -0.92514 0.65149 -0.61865
C52 C -0.969(3) 0.539(3) -0.5782(19)
H32 H -1.01034 0.56739 -0.56792
C53 C -0.9528(19) 0.449(3) -0.5609(15)
C54 C -1.0023(18) 0.389(3) -0.5152(14)
H33 H -1.04738 0.41613 -0.51533
H34 H -1.00553 0.32247 -0.52879
C55 C -0.971(2) 0.393(3) -0.4491(17)
H35 H -0.92692 0.36319 -0.44950
H36 H -0.96555 0.45952 -0.43735
C56 C -1.011(2) 0.348(3) -0.4062(19)
H37 H -1.05571 0.37744 -0.40719
H38 H -0.99211 0.36026 -0.36607
C57 C -1.0210(16) 0.240(2) -0.4123(13)
C58 C -1.0829(16) 0.208(2) -0.4006(14)
H39 H -1.11746 0.25127 -0.39106
C59 C -1.0957(16) 0.111(3) -0.4026(15)
H40 H -1.13971 0.08930 -0.39685
C60 C -0.9879(19) 0.077(3) -0.4231(14)
H41 H -0.95423 0.03177 -0.42937
C61 C -0.9733(16) 0.177(3) -0.4253(12)
H42 H -0.93013 0.19843 -0.43602
O21 O -1.1159(16) -0.1172(18) -0.3851(13)
H43 H -1.15849 -0.12742 -0.38403
H44 H -1.09996 -0.14503 -0.35364
O22 O -0.643(3) 0.079(3) -0.283(3)
H45 H -0.67269 0.04710 -0.30263
H46 H -0.61247 0.03992 -0.27408
U1C U -0.90940(3) -0.46183(4) -0.24139(3)
O3C O -0.3381(6) -0.1833(8) -0.2505(10)
O4C O -0.2852(6) -0.0475(9) -0.2342(12)
U2C U -1.24574(3) -0.45714(4) -0.44177(3)
O13C O -0.6213(6) -0.0480(9) -0.4354(12)
O14C O -0.6728(6) -0.1855(9) -0.4415(11)
#END
