
#######################################################################
#
#                 Cambridge Crystallographic Data Centre
#                                CCDC
#
#######################################################################
#
# If this CIF has been generated from an entry in the Cambridge
# Structural Database, then it will include bibliographic, chemical,
# crystal, experimental, refinement or atomic coordinate data resulting
# from the CCDC's data processing and validation procedures.
#
#######################################################################

data_CSD_CIF_BEWPOL
_audit_creation_date 2018-02-28
_audit_creation_method CSD-ConQuest-V1
_database_code_CSD BEWPOL
_database_code_depnum_ccdc_archive 'CCDC 1575773'
_chemical_formula_sum 'C26 H24 Ag4 F4 N12 O42 P1 W12'
_chemical_formula_moiety
;
(C26 H24 Ag4 F4 N12 O2 4+)n,O40 P1 W12 4-
;
_journal_coden_Cambridge 211
_journal_volume 71
_journal_year 2018
_journal_page_first 78
_journal_name_full 'J.Coord.Chem. '
loop_
_publ_author_name
"Fei Xie"
"Feng Ma"
"Shiyuan Cui"
"Guangchang Shu"
"Shuaihu Zhang"
"Tong Wang"
"Jingquan Sha"
_chemical_name_systematic
;
catena-[bis(\m-1-(2,4-difluorophenyl)-1,1-bis(((1H-1,2,4-triazol-1-yl)methyl)m
ethanol))-tetra-silver 
(\m-phosphato)-tetracosakis(\m-oxido)-dodecakis(oxido)-dodeca-tungsten]
;
_cell_volume   1468.247
_exptl_crystal_colour 'yellow'
_exptl_crystal_density_diffrn 4.507
_exptl_crystal_description 'block'
_diffrn_ambient_temperature 296
_refine_special_details
;
The keggin is disordered.

;
#These two values have been output from a single CSD field.
_refine_ls_R_factor_gt 0.0479
_refine_ls_wR_factor_gt 0.0479
_symmetry_cell_setting triclinic
_symmetry_space_group_name_H-M 'P -1'
_symmetry_Int_Tables_number 2
loop_
_symmetry_equiv_pos_site_id
_symmetry_equiv_pos_as_xyz
1 x,y,z
2 -x,-y,-z
_cell_length_a 11.261(3)
_cell_length_b 12.247(4)
_cell_length_c 12.589(4)
_cell_angle_alpha 62.010(4)
_cell_angle_beta 80.053(4)
_cell_angle_gamma 73.481(4)
_cell_formula_units_Z 1
loop_
_atom_type_symbol
_atom_type_radius_bond
C 0.68
H 0.23
Ag 1.45
F 0.64
N 0.68
O 0.68
P 1.05
W 1.62
loop_
_atom_site_label
_atom_site_type_symbol
_atom_site_fract_x
_atom_site_fract_y
_atom_site_fract_z
C1 C 0.8203(15) 0.4891(15) 0.2429(15)
H1 H 0.78160 0.53120 0.29330
H2 H 0.81300 0.55250 0.15950
C2 C 0.9614(14) 0.4291(15) 0.2712(14)
C3 C 1.0115(15) 0.5309(15) 0.2792(15)
H3 H 0.99420 0.61040 0.20650
H4 H 0.97110 0.54610 0.34720
C4 C 1.0716(15) 0.1968(15) 0.3922(15)
H5 H 1.11920 0.20100 0.32280
C5 C 0.9204(14) 0.2927(15) 0.4964(15)
C6 C 0.9346(16) 0.1804(18) 0.6055(16)
H6 H 0.88710 0.17500 0.67530
C7 C 1.0247(16) 0.0789(17) 0.6009(18)
C8 C 1.0918(16) 0.0841(16) 0.4993(17)
H7 H 1.15120 0.01300 0.50070
C9 C 0.9804(13) 0.3028(14) 0.3886(14)
C10 C 1.2083(16) 0.4032(17) 0.3922(15)
H8 H 1.17170 0.37280 0.46950
C11 C 1.3347(16) 0.4384(16) 0.2432(15)
H9 H 1.40860 0.43620 0.19700
C12 C 0.6773(16) 0.3423(19) 0.3539(17)
H10 H 0.64860 0.36850 0.41400
C13 C 0.7057(17) 0.2468(17) 0.2474(16)
H11 H 0.69940 0.19100 0.21920
N1 N 0.7562(13) 0.3915(12) 0.2649(11)
N2 N 0.7766(13) 0.3300(13) 0.1930(13)
N3 N 0.6443(14) 0.2512(14) 0.3468(13)
N4 N 1.2289(13) 0.5051(12) 0.1968(12)
N5 N 1.3290(13) 0.3707(14) 0.3667(14)
N6 N 1.1474(12) 0.4838(12) 0.2941(11)
O1 O 1.0284(11) 0.4139(12) 0.1713(11)
H12 H 1.02380 0.34670 0.17470
F1 F 1.0425(12) -0.0307(12) 0.7046(11)
F2 F 0.8375(11) 0.3982(11) 0.4992(10)
Ag1 Ag 1.46922(14) 0.18531(14) 0.45977(14)
Ag2 Ag 1.17654(15) 0.59563(15) 0.00567(12)
O2 O 1.6931(11) 0.2180(15) 0.7981(12)
O3 O 1.3779(16) 0.2610(16) 0.7120(15)
O4 O 1.1187(11) -0.1967(14) 1.0674(12)
O5 O 1.3708(12) -0.2482(12) 1.0050(12)
O6 O 1.5766(15) -0.4457(12) 1.0155(14)
O7 O 1.5478(15) -0.1949(15) 0.8370(14)
O8 O 1.7104(15) -0.2864(16) 0.9997(15)
O9 O 1.5730(17) -0.0929(19) 0.9454(17)
O10 O 1.4891(10) 0.0667(11) 0.8633(10)
O11 O 1.6120(13) -0.0482(14) 0.5996(11)
O12 O 1.7371(12) -0.0911(13) 0.7955(12)
O13 O 1.8058(15) -0.2079(16) 1.1174(15)
O14 O 1.5322(11) -0.3455(16) 1.1729(12)
O15 O 1.4083(16) 0.0386(16) 0.7129(15)
O16 O 1.6021(15) 0.1328(16) 0.6765(15)
O17 O 1.9482(10) -0.2473(10) 0.9304(11)
O18 O 1.8349(16) -0.0043(17) 0.9126(16)
O19 O 1.1752(11) 0.2101(11) 0.6671(11)
O20 O 1.2297(11) -0.0174(11) 0.8815(11)
P1 P 1.50000 0.00000 1.00000
W1 W 1.24159(6) -0.13493(6) 1.04512(6)
W2 W 1.80554(6) -0.16203(6) 0.94848(6)
W3 W 1.27904(7) 0.14138(6) 0.77338(6)
W4 W 1.57906(6) -0.03583(7) 0.72971(6)
W5 W 1.54832(6) -0.30262(6) 1.00937(6)
W6 W 1.54477(6) 0.26637(6) 0.72267(6)
O21 O 1.5658(14) 0.3902(13) 0.5938(12)
O22? O 1.4625(18) -0.1247(19) 1.0578(17)
O23? O 1.3569(18) 0.0276(17) 0.9795(16)
C1A C 1.1797(15) 0.5109(15) -0.2429(15)
H1A H 1.21840 0.46880 -0.29330
H2A H 1.18700 0.44750 -0.15950
C2A C 1.0386(14) 0.5709(15) -0.2712(14)
C3A C 0.9885(15) 0.4691(15) -0.2792(15)
H3A H 1.00580 0.38960 -0.20650
H4A H 1.02890 0.45390 -0.34720
C4A C 0.9284(15) 0.8032(15) -0.3922(15)
H5A H 0.88080 0.79900 -0.32280
C5A C 1.0796(14) 0.7073(15) -0.4964(15)
C6A C 1.0654(16) 0.8196(18) -0.6055(16)
H6A H 1.11290 0.82500 -0.67530
C7A C 0.9753(16) 0.9211(17) -0.6009(18)
C8A C 0.9082(16) 0.9159(16) -0.4993(17)
H7A H 0.84880 0.98700 -0.50070
C9A C 1.0196(13) 0.6972(14) -0.3886(14)
C10A C 0.7917(16) 0.5968(17) -0.3922(15)
H8A H 0.82830 0.62720 -0.46950
C11A C 0.6653(16) 0.5616(16) -0.2432(15)
H9A H 0.59140 0.56380 -0.19700
C12A C 1.3227(16) 0.6577(19) -0.3539(17)
H10A H 1.35140 0.63150 -0.41400
C13A C 1.2943(17) 0.7532(17) -0.2474(16)
H11A H 1.30060 0.80900 -0.21920
N1A N 1.2438(13) 0.6085(12) -0.2649(11)
N2A N 1.2234(13) 0.6700(13) -0.1930(13)
N3A N 1.3557(14) 0.7488(14) -0.3468(13)
N4A N 0.7711(13) 0.4949(12) -0.1968(12)
N5A N 0.6710(13) 0.6293(14) -0.3667(14)
N6A N 0.8526(12) 0.5162(12) -0.2941(11)
O1A O 0.9716(11) 0.5861(12) -0.1713(11)
H12A H 0.97620 0.65330 -0.17470
F1A F 0.9575(12) 1.0307(12) -0.7046(11)
F2A F 1.1625(11) 0.6018(11) -0.4992(10)
Ag2A Ag 0.82346(15) 0.40437(15) -0.00567(12)
Ag1A Ag 0.53078(14) 0.81469(14) -0.45977(14)
N3* N 1.6443(14) 0.2512(14) 0.3468(13)
N3A* N 0.3557(14) 0.7488(14) -0.3468(13)
Ag1* Ag 0.46922(14) 0.18531(14) 0.45977(14)
Ag1A* Ag 1.53078(14) 0.81469(14) -0.45977(14)
O2A O 1.3069(11) -0.2180(15) 1.2019(12)
O3A O 1.6221(16) -0.2610(16) 1.2880(15)
O4A O 1.8813(11) 0.1967(14) 0.9326(12)
O5A O 1.6292(12) 0.2482(12) 0.9950(12)
O6A O 1.4234(15) 0.4457(12) 0.9845(14)
O7A O 1.4522(15) 0.1949(15) 1.1630(14)
O8A O 1.2896(15) 0.2864(16) 1.0003(15)
O9A O 1.4270(17) 0.0929(19) 1.0546(17)
O10A O 1.5109(10) -0.0667(11) 1.1367(10)
O11A O 1.3880(13) 0.0482(14) 1.4004(11)
O12A O 1.2629(12) 0.0911(13) 1.2045(12)
O13A O 1.1942(15) 0.2079(16) 0.8826(15)
O14A O 1.4678(11) 0.3455(16) 0.8271(12)
O15A O 1.5917(16) -0.0386(16) 1.2871(15)
O16A O 1.3979(15) -0.1328(16) 1.3235(15)
O17A O 1.0518(10) 0.2473(10) 1.0696(11)
O18A O 1.1651(16) 0.0043(17) 1.0874(16)
O19A O 1.8248(11) -0.2101(11) 1.3329(11)
O20A O 1.7703(11) 0.0174(11) 1.1185(11)
W1A W 1.75841(6) 0.13493(6) 0.95488(6)
W2A W 1.19446(6) 0.16203(6) 1.05152(6)
W3A W 1.72096(7) -0.14138(6) 1.22662(6)
W4A W 1.42094(6) 0.03583(7) 1.27029(6)
W5A W 1.45168(6) 0.30262(6) 0.99063(6)
W6A W 1.45523(6) -0.26637(6) 1.27733(6)
O21A O 1.4342(14) -0.3902(13) 1.4062(12)
#END
