
#######################################################################
#
#                 Cambridge Crystallographic Data Centre
#                                CCDC
#
#######################################################################
#
# If this CIF has been generated from an entry in the Cambridge
# Structural Database, then it will include bibliographic, chemical,
# crystal, experimental, refinement or atomic coordinate data resulting
# from the CCDC's data processing and validation procedures.
#
#######################################################################

data_CSD_CIF_BEWPUR
_audit_creation_date 2018-02-28
_audit_creation_method CSD-ConQuest-V1
_database_code_CSD BEWPUR
_database_code_depnum_ccdc_archive 'CCDC 1581087'
_chemical_formula_sum 'C26 H24 Ag4 F4 N12 O42 Si1 W12'
_chemical_formula_moiety
;
(C26 H24 Ag4 F4 N12 O2 4+)n,O40 Si1 W12 4-
;
_journal_coden_Cambridge 211
_journal_volume 71
_journal_year 2018
_journal_page_first 78
_journal_name_full 'J.Coord.Chem. '
loop_
_publ_author_name
"Fei Xie"
"Feng Ma"
"Shiyuan Cui"
"Guangchang Shu"
"Shuaihu Zhang"
"Tong Wang"
"Jingquan Sha"
_chemical_name_systematic
;
catena-[bis(\m-1-(2,4-difluorophenyl)-1,1-bis(((1H-1,2,4-triazol-1-yl)methyl)m
ethanol))-tetra-silver 
(\m-orthosilicato)-tetracosakis(\m-oxido)-dodecakis(oxido)-dodeca-tungsten]
;
_cell_volume   1452.828
_exptl_crystal_colour 'yellow'
_exptl_crystal_density_diffrn 4.552
_exptl_crystal_description 'block'
_diffrn_ambient_temperature 296
_refine_special_details
;
The keggin is disordered.

;
#These two values have been output from a single CSD field.
_refine_ls_R_factor_gt 0.0543
_refine_ls_wR_factor_gt 0.0543
_symmetry_cell_setting triclinic
_symmetry_space_group_name_H-M 'P -1'
_symmetry_Int_Tables_number 2
loop_
_symmetry_equiv_pos_site_id
_symmetry_equiv_pos_as_xyz
1 x,y,z
2 -x,-y,-z
_cell_length_a 11.2347(5)
_cell_length_b 12.2042(6)
_cell_length_c 12.5322(5)
_cell_angle_alpha 62.011(1)
_cell_angle_beta 79.983(1)
_cell_angle_gamma 73.452(1)
_cell_formula_units_Z 1
loop_
_atom_type_symbol
_atom_type_radius_bond
C 0.68
H 0.23
Ag 1.45
F 0.64
N 0.68
O 0.68
Si 1.20
W 1.62
loop_
_atom_site_label
_atom_site_type_symbol
_atom_site_fract_x
_atom_site_fract_y
_atom_site_fract_z
W1 W 0.24163(6) -0.63499(6) 0.04505(6)
O1 O 0.1614(17) -0.4957(17) 0.0900(17)
O2 O 0.1196(11) -0.6990(14) 0.0673(14)
O3 O 0.3073(11) -0.7217(15) 0.2040(13)
O4 O 0.3711(10) -0.7497(13) 0.0047(10)
O5 O 0.2308(16) -0.5159(17) -0.1184(16)
W2 W 0.19445(6) -0.33797(6) 0.05157(6)
W3 W 0.45531(6) -0.76645(6) 0.27730(6)
W4 W 0.54847(6) -0.80276(6) 0.00937(6)
W5 W 0.27909(7) -0.35871(6) -0.22656(6)
O6 O 0.0534(10) -0.2532(10) 0.0708(11)
O7 O 0.2625(11) -0.4095(13) 0.2039(11)
O8 O 0.1916(16) -0.2926(16) -0.1179(16)
O9 O 0.2881(15) -0.2134(15) -0.0013(15)
O10 O 0.6238(14) -0.7628(15) 0.2888(15)
O11 O 0.5329(13) -0.8457(14) 0.1741(13)
O12 O 0.4000(12) -0.6328(15) 0.3253(18)
O13 O 0.4353(13) -0.8916(13) 0.4043(13)
O14 O 0.5772(13) -0.9472(14) 0.0139(13)
O15 O 0.4621(16) -0.6213(17) 0.055(2)
O16 O 0.5714(15) -0.5913(17) -0.0546(15)
O17 O 0.5486(15) -0.6952(15) -0.1640(15)
O18 O 0.4089(16) -0.4621(16) -0.2842(16)
O19 O 0.1755(10) -0.2890(11) -0.3317(10)
W6 W 0.42095(6) -0.46393(7) 0.27017(6)
Si1 Si 0.50000 -0.50000 0.00000
O20 O 0.3871(14) -0.4496(14) 0.3991(12)
C1 C 0.3362(15) -0.0632(16) 0.2454(15)
H1 H 0.41110 -0.06500 0.20020
C2 C -0.0380(14) -0.0723(15) 0.2724(16)
C3 C 0.0140(14) 0.0295(14) 0.2806(14)
H2 H -0.00470 0.10970 0.20820
H3 H -0.02540 0.04380 0.34970
C4 C -0.0168(14) -0.1973(14) 0.3891(14)
C5 C -0.0798(14) -0.2081(16) 0.4977(15)
C6 C -0.3227(15) -0.1561(18) 0.3542(15)
H4 H -0.35080 -0.12880 0.41410
C7 C 0.0924(16) -0.4153(16) 0.4986(19)
H5 H 0.15240 -0.48660 0.50050
C8 C -0.2952(14) -0.2531(14) 0.2465(14)
H6 H -0.30300 -0.30810 0.21740
C9 C 0.0710(13) -0.3043(15) 0.3931(16)
H7 H 0.11670 -0.30120 0.32280
C10 C -0.0652(15) -0.3178(18) 0.6040(15)
H8 H -0.11320 -0.32270 0.67380
C11 C 0.0226(16) -0.4183(17) 0.6018(16)
C12 C -0.1797(15) -0.0127(15) 0.2426(17)
H9 H -0.21960 0.02960 0.29300
H10 H -0.18610 0.05100 0.15880
C13 C 0.2077(15) -0.0970(16) 0.3940(14)
H11 H 0.17070 -0.12660 0.47160
N1 N 0.3294(13) -0.1309(13) 0.3676(13)
N2 N 0.1471(12) -0.0145(11) 0.2929(11)
N3 N -0.2433(12) -0.1085(12) 0.2628(11)
N4 N 0.2291(13) 0.0051(12) 0.1955(12)
N5 N -0.2223(13) -0.1697(13) 0.1925(12)
N6 N -0.3558(13) -0.2486(14) 0.3473(13)
O21 O 0.0274(11) -0.0855(11) 0.1704(10)
H12 H 0.00450 -0.13800 0.16040
F1 F -0.1617(10) -0.1019(10) 0.5009(10)
F2 F 0.0420(12) -0.5308(12) 0.7045(11)
Ag1 Ag 0.17632(14) 0.09553(15) 0.00564(12)
Ag2 Ag 0.46956(13) -0.31472(14) 0.45967(13)
O22? O 0.6446(19) -0.5274(18) 0.0190(17)
O23? O 0.5106(17) -0.5685(17) 0.1430(17)
O9A O 0.7119(15) -0.7866(15) 0.0013(15)
O10A O 0.3762(14) -0.2372(15) -0.2888(15)
W4A W 0.45153(6) -0.19724(6) -0.00937(6)
W5A W 0.72091(7) -0.64129(6) 0.22656(6)
W2A W 0.80555(6) -0.66203(6) -0.05157(6)
W6A W 0.57905(6) -0.53607(7) -0.27017(6)
W3A W 0.54469(6) -0.23355(6) -0.27730(6)
O18A O 0.5911(16) -0.5379(16) 0.2842(16)
O17A O 0.4514(15) -0.3048(15) 0.1640(15)
O16A O 0.4286(15) -0.4087(17) 0.0546(15)
O15A O 0.5379(16) -0.3787(17) -0.055(2)
O11A O 0.4671(13) -0.1543(14) -0.1741(13)
O4A O 0.6289(10) -0.2503(13) -0.0047(10)
O14A O 0.4228(13) -0.0528(14) -0.0139(13)
O8A O 0.8084(16) -0.7074(16) 0.1179(16)
O19A O 0.8245(10) -0.7110(11) 0.3317(10)
O5A O 0.7692(16) -0.4841(17) 0.1184(16)
O1A O 0.8386(17) -0.5043(17) -0.0900(17)
O6A O 0.9466(10) -0.7468(10) -0.0708(11)
O7A O 0.7375(11) -0.5905(13) -0.2039(11)
O12A O 0.6000(12) -0.3672(15) -0.3253(18)
O20A O 0.6129(14) -0.5504(14) -0.3991(12)
O3A O 0.6927(11) -0.2783(15) -0.2040(13)
O13A O 0.5647(13) -0.1084(13) -0.4043(13)
W1A W 0.75837(6) -0.36501(6) -0.04505(6)
O2A O 0.8804(11) -0.3010(14) -0.0673(14)
N5A N 0.2223(13) 0.1697(13) -0.1925(12)
N6* N 0.6442(13) -0.2486(14) 0.3473(13)
Ag1A Ag -0.17632(14) -0.09553(15) -0.00564(12)
Ag2* Ag -0.53044(13) -0.31472(14) 0.45967(13)
C3A C -0.0140(14) -0.0295(14) -0.2806(14)
H3A H 0.02540 -0.04380 -0.34970
N2A N -0.1471(12) 0.0145(11) -0.2929(11)
C4A C 0.0168(14) 0.1973(14) -0.3891(14)
C9A C -0.0710(13) 0.3043(15) -0.3931(16)
C5A C 0.0798(14) 0.2081(16) -0.4977(15)
C1A C -0.3362(15) 0.0632(16) -0.2454(15)
N1A N -0.3294(13) 0.1309(13) -0.3676(13)
H1A H -0.41110 0.06500 -0.20020
N4A N -0.2291(13) -0.0051(12) -0.1955(12)
C2A C 0.0380(14) 0.0723(15) -0.2724(16)
C12A C 0.1797(15) 0.0127(15) -0.2426(17)
O21A O -0.0274(11) 0.0855(11) -0.1704(10)
H2A H 0.00470 -0.10970 -0.20820
C8A C 0.2952(14) 0.2531(14) -0.2465(14)
H6A H 0.30300 0.30810 -0.21740
H7A H -0.11670 0.30120 -0.32280
C6A C 0.3227(15) 0.1561(18) -0.3542(15)
H4A H 0.35080 0.12880 -0.41410
C13A C -0.2077(15) 0.0970(16) -0.3940(14)
H11A H -0.17070 0.12660 -0.47160
H9A H 0.21960 -0.02960 -0.29300
Ag2A Ag -0.46956(13) 0.31472(14) -0.45967(13)
N6A N 0.3558(13) 0.2486(14) -0.3473(13)
Ag2A* Ag 0.53044(13) 0.31472(14) -0.45967(13)
H12A H -0.00450 0.13800 -0.16040
N6A* N -0.6442(13) 0.2486(14) -0.3473(13)
C7A C -0.0924(16) 0.4153(16) -0.4986(19)
H5A H -0.15240 0.48660 -0.50050
F1A F 0.1617(10) 0.1019(10) -0.5009(10)
C10A C 0.0652(15) 0.3178(18) -0.6040(15)
C11A C -0.0226(16) 0.4183(17) -0.6018(16)
H10A H 0.18610 -0.05100 -0.15880
F2A F -0.0420(12) 0.5308(12) -0.7045(11)
N3A N 0.2433(12) 0.1085(12) -0.2628(11)
H8A H 0.11320 0.32270 -0.67380
#END
