
#######################################################################
#
#                 Cambridge Crystallographic Data Centre
#                                CCDC
#
#######################################################################
#
# If this CIF has been generated from an entry in the Cambridge
# Structural Database, then it will include bibliographic, chemical,
# crystal, experimental, refinement or atomic coordinate data resulting
# from the CCDC's data processing and validation procedures.
#
#######################################################################

data_CSD_CIF_BEWVEG
_audit_creation_date 2013-05-19
_audit_creation_method CSD-ConQuest-V1
_database_code_CSD BEWVEG
_database_code_depnum_ccdc_archive 'CCDC 915422'
_chemical_formula_sum 'C103 H106 Cl3 Cr4 Mn8 N8 O66'
_chemical_formula_moiety
;
(C24 Cr4 Mn4 O48 4-)n,4n(C19 H24 Mn1 N2 O4 1+),1.5n(C1 H4 O1),0.5n(H2 
O1),1.5n(C1 H2 Cl2)
;
_journal_coden_Cambridge 222
_journal_volume 42
_journal_year 2013
_journal_page_first 5100
_journal_name_full 'Dalton Trans. '
loop_
_publ_author_name
"M.Clemente-Leon"
"E.Coronado"
"M.Lopez-Jorda"
_chemical_name_systematic
;
catena-[tetrakis(((S)-2,2'-(propane-1,2-diylbis[nitrilomethylylidene])diphenol
ato)-dimethanol-manganese) 
dodecakis(\m~2~-oxalato)-tetra-chromium-tetra-manganese dichloromethane 
methanol solvate hemihydrate]
;
_cell_volume   3416.877
_exptl_crystal_colour 'red'
_exptl_crystal_density_diffrn 1.58
_exptl_crystal_description 'prism'
_diffrn_ambient_temperature 120
_refine_special_details
;
The structure is disordered.

;
#These two values have been output from a single CSD field.
_refine_ls_R_factor_gt 0.0777
_refine_ls_wR_factor_gt 0.0777
loop_
_citation_database_id_CSD
_citation_special_details
BEWVOQ "is a stereoisomer of this entry"
_symmetry_cell_setting triclinic
_symmetry_space_group_name_H-M 'P 1'
_symmetry_Int_Tables_number 1
loop_
_symmetry_equiv_pos_site_id
_symmetry_equiv_pos_as_xyz
1 x,y,z
_cell_length_a 15.2780(8)
_cell_length_b 15.5600(7)
_cell_length_c 18.174(1)
_cell_angle_alpha 64.665(5)
_cell_angle_beta 78.123(5)
_cell_angle_gamma 61.048(5)
_cell_formula_units_Z 1
loop_
_atom_type_symbol
_atom_type_radius_bond
C 0.68
H 0.23
Cl 0.99
Cr 1.39
Mn 1.61
N 0.68
O 0.68
loop_
_atom_site_label
_atom_site_type_symbol
_atom_site_fract_x
_atom_site_fract_y
_atom_site_fract_z
C1 C 0.0373(5) 0.3199(5) 0.4281(4)
C2 C -0.0543(5) 0.3316(6) 0.4851(5)
C3 C 0.1099(5) 0.3091(5) 0.6693(4)
C4 C 0.1007(5) 0.2075(5) 0.7324(4)
C5 C 0.2810(5) 0.3340(5) 0.8366(4)
C6 C 0.1907(6) 0.4443(6) 0.8281(5)
C7 C 0.4271(5) 0.3426(5) 0.9981(5)
C8 C 0.5203(5) 0.3224(5) 0.9414(4)
C9 C -0.4005(6) 1.0216(6) 0.2560(5)
C10 C -0.4070(5) 0.9886(6) 0.1899(5)
C11 C -0.2204(6) 0.6610(6) 0.3177(5)
C12 C -0.3067(5) 0.6311(5) 0.3281(5)
C13 C 0.0360(5) 0.2732(6) 0.9924(4)
C14 C -0.0604(5) 0.3504(5) 0.9350(5)
C15 C 0.3634(5) -0.3547(5) 0.7578(5)
C16 C 0.3708(5) -0.3990(5) 0.6949(4)
C17 C 0.5413(5) -0.2196(5) 0.4940(5)
C18 C 0.4483(5) -0.1505(5) 0.4374(5)
C19 C 0.2810(5) 0.0178(6) 0.5968(4)
C20 C 0.1932(5) -0.0015(6) 0.5909(4)
C21 C -0.2184(6) 0.1985(6) 0.1006(4)
C22 C -0.3044(6) 0.3063(5) 0.1053(4)
C23 C -0.1177(5) 0.3259(5) 0.2349(4)
C24 C -0.1252(5) 0.4328(5) 0.1672(4)
O1 O -0.1367(4) 0.3861(4) 0.4515(3)
O2 O -0.0349(4) 0.2858(4) 0.5599(3)
O3 O 0.0259(3) 0.3662(4) 0.3530(3)
O4 O 0.1218(4) 0.2622(4) 0.4623(3)
O5 O 0.0923(4) 0.1525(4) 0.7019(3)
O6 O 0.0997(4) 0.1910(4) 0.8059(3)
O7 O 0.1170(4) 0.3188(4) 0.5951(3)
O8 O 0.1101(4) 0.3698(4) 0.6943(3)
O9 O 0.1053(4) 0.4566(5) 0.8216(4)
O10 O 0.2122(4) 0.5115(4) 0.8304(4)
O11 O 0.2647(4) 0.2655(4) 0.8341(3)
O12 O 0.3648(4) 0.3247(4) 0.8453(3)
O13 O 0.5034(4) 0.3777(4) 0.8668(3)
O14 O 0.6030(4) 0.2561(4) 0.9723(3)
O15 O 0.3463(4) 0.4061(4) 0.9626(3)
O16 O 0.4401(4) 0.2936(4) 1.0731(3)
O17 O -0.4063(5) 1.1116(4) 0.2345(3)
O18 O -0.3904(4) 0.9543(4) 0.3281(3)
O19 O -0.4098(5) 1.0463(4) 0.1183(3)
O20 O -0.4102(4) 0.8984(4) 0.2179(3)
O21 O -0.2442(4) 0.7489(4) 0.3211(4)
O22 O -0.1341(4) 0.5969(4) 0.3065(4)
O23 O -0.3921(4) 0.6985(4) 0.3353(4)
O24 O -0.2862(4) 0.5448(4) 0.3251(4)
O25 O 0.1164(4) 0.2392(4) 0.9596(3)
O26 O 0.0169(4) 0.2566(4) 1.0657(3)
O27 O -0.0475(4) 0.3759(4) 0.8611(3)
O28 O -0.1419(4) 0.3813(4) 0.9708(3)
O29 O 0.3736(4) -0.4888(4) 0.7213(3)
O30 O 0.3752(4) -0.3453(4) 0.6204(3)
O31 O 0.3542(4) -0.4110(4) 0.8301(3)
O32 O 0.3706(4) -0.2690(4) 0.7312(4)
O33 O 0.5293(4) -0.2492(4) 0.5675(3)
O34 O 0.6220(4) -0.2378(4) 0.4566(3)
O35 O 0.3655(4) -0.1328(4) 0.4693(4)
O36 O 0.4644(4) -0.1174(4) 0.3617(3)
O37 O 0.3662(4) -0.0531(4) 0.6022(3)
O38 O 0.2553(4) 0.1102(4) 0.5947(3)
O39 O 0.2122(4) -0.0892(4) 0.5948(3)
O40 O 0.1085(4) 0.0756(4) 0.5818(3)
O41 O -0.3914(4) 0.3199(4) 0.1120(3)
O42 O -0.2727(4) 0.3697(4) 0.1038(3)
O43 O -0.2438(4) 0.1329(4) 0.1031(4)
O44 O -0.1322(4) 0.1897(4) 0.0956(3)
O45 O -0.1080(4) 0.2572(4) 0.2087(3)
O46 O -0.1188(4) 0.3138(4) 0.3067(3)
O47 O -0.1305(4) 0.4433(4) 0.0947(3)
O48 O -0.1264(4) 0.4991(4) 0.1881(3)
Cr1 Cr 0.10878(9) 0.20180(9) 0.58341(7)
Cr2 Cr 0.35800(8) 0.45646(8) 0.84223(7)
Cr3 Cr -0.39133(9) 0.82575(9) 0.33630(8)
Cr4 Cr -0.12731(9) 0.31633(9) 0.09054(7)
Mn1 Mn 0.10839(8) 0.31148(9) 0.82705(7)
Mn2 Mn -0.40366(10) 1.19035(9) 0.10426(7)
Mn3 Mn -0.12867(8) 0.44831(8) 0.31924(7)
Mn4 Mn 0.37347(9) -0.19626(9) 0.60208(8)
C25 C 0.3580(7) 0.8563(7) 0.9540(6)
C26 C 0.3647(10) 0.8197(9) 0.8951(8)
H1 H 0.36740 0.75170 0.91160
C27 C 0.3674(11) 0.8754(9) 0.8169(8)
H2 H 0.37470 0.84540 0.77890
C28 C 0.3599(8) 0.9767(9) 0.7885(7)
H3 H 0.36000 1.01730 0.73190
C29 C 0.3525(6) 1.0156(6) 0.8447(6)
H4 H 0.34600 1.08550 0.82640
C30 C 0.3540(6) 0.9577(6) 0.9275(5)
C31 C 0.3541(5) 1.0004(5) 0.9829(5)
H5 H 0.35220 1.06890 0.95850
C32 C 0.3733(7) 1.0028(6) 1.1106(5)
H6 H 0.44650 0.96600 1.12240
C33 C 0.3414(6) 1.1219(6) 1.0699(5)
H7 H 0.37850 1.13710 1.01900
H8 H 0.35560 1.14530 1.10640
H9 H 0.26950 1.16000 1.05820
C34 C 0.3200(8) 0.9721(7) 1.1898(6)
H10 H 0.34100 0.98400 1.23130
H11 H 0.24680 1.01540 1.18220
C35 C 0.3534(2) 0.7998(2) 1.2932(2)
H12 H 0.34600 0.83090 1.33050
C36 C 0.3711(2) 0.6886(2) 1.3267(2)
C37 C 0.3827(2) 0.6362(2) 1.4107(2)
H13 H 0.38440 0.67060 1.44240
C38 C 0.3918(2) 0.5334(2) 1.4483(2)
H14 H 0.39980 0.49750 1.50570
C39 C 0.3894(2) 0.4830(2) 1.4019(2)
H15 H 0.39560 0.41280 1.42760
C40 C 0.3778(2) 0.5355(2) 1.3179(2)
H16 H 0.37610 0.50110 1.28620
C41 C 0.3686(2) 0.6383(2) 1.2803(2)
N1 N 0.3565(5) 0.9596(4) 1.0607(4)
N2 N 0.3472(6) 0.8584(6) 1.2163(4)
O49 O 0.3635(7) 0.7927(5) 1.0328(5)
O50 O 0.3567(4) 0.6864(4) 1.1986(4)
Mn5 Mn 0.35410(9) 0.81883(8) 1.12560(8)
C42 C 0.1080(8) 0.9782(9) 1.0953(11)
H17 H 0.04660 0.97110 1.11730
H18 H 0.11040 0.99720 1.03640
H19 H 0.10870 1.03410 1.10660
O51 O 0.5220(7) 0.7377(8) 1.1033(6)
C43 C 0.5938(16) 0.6821(17) 1.1641(13)
H20 H 0.66050 0.65390 1.14080
H21 H 0.58230 0.62320 1.20650
H22 H 0.58910 0.73010 1.18780
O52 O 0.1876(4) 0.8858(5) 1.1304(5)
C44 C 0.1110(2) 0.8033(2) 0.9721(2)
C45 C 0.1063(2) 0.8960(2) 0.9102(2)
H23 H 0.09950 0.95010 0.92560
C46 C 0.1106(2) 0.9179(2) 0.8268(2)
H24 H 0.10720 0.98410 0.78800
C47 C 0.1200(2) 0.8417(2) 0.8022(2)
H25 H 0.12550 0.85460 0.74580
C48 C 0.1216(2) 0.7498(2) 0.8564(2)
H26 H 0.12570 0.69890 0.83830
C49 C 0.1173(2) 0.7288(2) 0.9390(2)
C50 C 0.1167(6) 0.6293(6) 0.9925(6)
H27 H 0.11610 0.58660 0.96790
C51 C 0.1058(6) 0.4948(6) 1.1234(6)
H28 H 0.03450 0.51780 1.14160
C52 C 0.1272(7) 0.4210(7) 1.0788(7)
H29 H 0.08230 0.46040 1.03180
H30 H 0.11590 0.35960 1.11620
H31 H 0.19680 0.39650 1.06020
C53 C 0.1680(8) 0.4446(7) 1.1969(6)
H32 H 0.15260 0.38770 1.23970
H33 H 0.23990 0.41280 1.18320
C54 C 0.1433(2) 0.5068(2) 1.3009(2)
H34 H 0.15570 0.43640 1.33720
C55 C 0.1238(2) 0.5812(2) 1.3389(2)
C56 C 0.1114(2) 0.5498(2) 1.4228(2)
H35 H 0.11300 0.48220 1.45460
C57 C 0.0968(2) 0.6172(2) 1.4601(2)
H36 H 0.08840 0.59580 1.51740
C58 C 0.0946(2) 0.7162(2) 1.4135(2)
H37 H 0.08460 0.76230 1.43900
C59 C 0.1069(2) 0.7476(2) 1.3296(2)
H38 H 0.10540 0.81520 1.29780
C60 C 0.1215(2) 0.6801(2) 1.2923(2)
N3 N 0.1170(5) 0.5930(5) 1.0705(5)
N4 N 0.1456(5) 0.5254(6) 1.2252(5)
O53 O 0.1010(5) 0.7879(4) 1.0471(4)
O54 O 0.1284(4) 0.7183(4) 1.2110(4)
Mn6 Mn 0.12436(9) 0.66368(9) 1.13652(8)
C61 C -0.1115(9) 0.8245(10) 1.1474(7)
H39 H -0.17880 0.83120 1.16470
H40 H -0.11120 0.86390 1.08850
H41 H -0.09150 0.85360 1.17580
C62 C 0.3626(8) 0.5561(9) 1.0789(9)
H42 H 0.42690 0.54280 1.09490
H43 H 0.34960 0.60350 1.02140
H44 H 0.36480 0.48860 1.08710
O55 O -0.0446(4) 0.7180(5) 1.1662(4)
O56 O 0.2903(4) 0.6014(5) 1.1240(5)
C63 C 0.8523(2) 0.9365(2) 0.4743(2)
C64 C 0.8696(2) 1.0244(2) 0.4181(2)
H45 H 0.88030 1.06710 0.43670
C65 C 0.8705(2) 1.0464(2) 0.3353(2)
H46 H 0.87830 1.10730 0.29740
C66 C 0.8604(2) 0.9828(2) 0.3061(2)
H47 H 0.86260 0.99890 0.24930
C67 C 0.8476(2) 0.8990(2) 0.3591(2)
H48 H 0.84110 0.85480 0.33930
C68 C 0.8435(2) 0.8740(2) 0.4413(2)
C69 C 0.8287(6) 0.7822(6) 0.4948(6)
H49 H 0.81560 0.74800 0.46880
C70 C 0.8151(7) 0.6443(6) 0.6205(6)
H50 H 0.74320 0.66720 0.63710
C71 C 0.8414(8) 0.5722(7) 0.5746(8)
H51 H 0.79920 0.61170 0.52600
H52 H 0.83010 0.51020 0.61000
H53 H 0.91190 0.54860 0.55830
C72 C 0.8767(8) 0.5877(7) 0.6938(6)
H54 H 0.94780 0.55000 0.68040
H55 H 0.85570 0.53440 0.73520
C73 C 0.8618(3) 0.6412(3) 0.8031(2)
H56 H 0.86070 0.57550 0.83760
C74 C 0.8604(3) 0.7050(3) 0.8410(2)
C75 C 0.8662(3) 0.6630(3) 0.9293(2)
H57 H 0.87070 0.59370 0.95860
C76 C 0.8657(3) 0.7150(3) 0.9720(2)
H58 H 0.86570 0.68590 1.02980
C77 C 0.8651(3) 0.8159(3) 0.9271(2)
H59 H 0.86740 0.85300 0.95620
C78 C 0.8613(3) 0.8631(3) 0.8415(2)
H60 H 0.86040 0.93100 0.81360
C79 C 0.8587(3) 0.8074(3) 0.7974(2)
N5 N 0.8306(5) 0.7403(4) 0.5729(4)
N6 N 0.8646(6) 0.6651(5) 0.7262(5)
O57 O 0.8465(5) 0.9213(5) 0.5509(4)
O58 O 0.8570(4) 0.8521(4) 0.7177(3)
Mn7 Mn 0.84783(9) 0.80344(8) 0.64113(8)
O59 O 1.0157(6) 0.7433(6) 0.6079(5)
C80 C 1.0961(13) 0.6700(14) 0.6602(11)
H61 H 1.15850 0.65960 0.62920
H62 H 1.09240 0.60220 0.68730
H63 H 1.09440 0.69620 0.70100
C81 C 0.6039(6) 0.9168(8) 0.6069(8)
H64 H 0.53910 0.95280 0.62980
H65 H 0.60870 0.85280 0.60480
H66 H 0.61030 0.96480 0.55180
O60 O 0.6818(4) 0.8878(4) 0.6566(4)
C82 C 0.6376(5) 0.2022(6) 0.4676(5)
C83 C 0.6227(7) 0.1729(7) 0.4101(5)
H67 H 0.61730 0.10860 0.42820
C84 C 0.6156(8) 0.2341(8) 0.3287(6)
H68 H 0.60620 0.21050 0.29190
C85 C 0.6216(7) 0.3303(8) 0.2978(6)
H69 H 0.61530 0.37290 0.24110
C86 C 0.6370(6) 0.3608(7) 0.3532(5)
H70 H 0.64260 0.42510 0.33390
C87 C 0.6447(6) 0.2993(7) 0.4374(5)
C88 C 0.6537(5) 0.3409(5) 0.4893(4)
H71 H 0.66040 0.40500 0.46390
C89 C 0.6678(6) 0.3493(6) 0.6175(5)
H72 H 0.73850 0.30770 0.63750
C90 C 0.6456(7) 0.4660(6) 0.5714(5)
H73 H 0.69060 0.47270 0.52450
H74 H 0.65580 0.49230 0.60760
H75 H 0.57600 0.50790 0.55230
C91 C 0.6007(6) 0.3357(6) 0.6882(5)
H76 H 0.61780 0.34890 0.73070
H77 H 0.53040 0.38710 0.67130
C92 C 0.6078(2) 0.1757(3) 0.7974(2)
H78 H 0.60240 0.20980 0.83190
C93 C 0.6096(2) 0.0733(3) 0.8357(2)
C94 C 0.6037(2) 0.0293(3) 0.9229(2)
H79 H 0.59870 0.06940 0.95230
C95 C 0.6052(2) -0.0679(3) 0.9651(2)
H80 H 0.60580 -0.09730 1.02290
C96 C 0.6058(2) -0.1232(3) 0.9209(2)
H81 H 0.60150 -0.18850 0.94930
C97 C 0.6124(2) -0.0846(3) 0.8364(2)
H82 H 0.61690 -0.12570 0.80810
C98 C 0.6126(2) 0.0146(3) 0.7928(2)
N7 N 0.6537(4) 0.3006(5) 0.5679(4)
N8 N 0.6129(5) 0.2259(5) 0.7203(4)
O61 O 0.6455(4) 0.1391(4) 0.5450(3)
O62 O 0.6197(4) 0.0482(4) 0.7113(3)
Mn8 Mn 0.63261(8) 0.17252(8) 0.63482(7)
C99 C 0.3883(10) 0.2837(11) 0.6605(8)
H83 H 0.32440 0.32600 0.63130
H84 H 0.39410 0.32270 0.68810
H85 H 0.39110 0.21580 0.70090
C100 C 0.8804(7) 0.0860(8) 0.6164(8)
H86 H 0.94320 0.02730 0.64380
H87 H 0.87490 0.15320 0.61260
H88 H 0.87980 0.08880 0.56160
O63 O 0.4663(4) 0.2646(4) 0.6057(3)
O64 O 0.7981(4) 0.0694(4) 0.6618(3)
C101 C 0.2416(12) 0.1286(13) 0.336(1)
H89 H 0.27130 0.05120 0.36910
H90 H 0.21350 0.16640 0.37370
Cl1 Cl 0.1458(3) 0.1620(3) 0.2763(3)
Cl2 Cl 0.3403(3) 0.1632(3) 0.2735(3)
C102 C 0.6698(19) 0.467(2) 0.8541(10)
H91 H 0.73530 0.45940 0.86290
H92 H 0.67720 0.39500 0.86660
Cl3 Cl 0.5779(8) 0.5243(7) 0.9200(5)
Cl4 Cl 0.6337(3) 0.5452(4) 0.7563(2)
C103 C 0.881(3) 0.160(3) 0.832(3)
H93 H 0.91810 0.12150 0.79570
H94 H 0.93280 0.14750 0.86590
Cl5 Cl 0.8322(4) 0.3070(5) 0.7620(3)
Cl6 Cl 0.8294(6) 0.1035(9) 0.8865(11)
O65 O 0.0903(9) 0.8852(10) 0.5203(8)
C104 C 0.1133(19) 0.932(2) 0.4388(16)
O66 O 0.3890(7) 0.2034(8) 0.5240(6)
C105 C 0.3794(16) 0.2169(17) 0.4440(13)
O67 O 0.5909(12) 0.5978(12) 1.0329(9)
C106? C 0.609(2) 0.610(2) 0.9474(13)
O68? O 0.5228(9) 0.7403(10) 1.1586(7)
C107? C 0.5896(17) 0.6490(18) 1.1388(14)
H95? H 0.65770 0.62330 1.15570
H96? H 0.58830 0.66890 1.08000
H97? H 0.56840 0.59260 1.16740
O69? O 1.0158(13) 0.6946(14) 0.6626(10)
C108? C 1.086(2) 0.750(2) 0.6409(17)
H98? H 1.15590 0.69600 0.65290
H99? H 1.06710 0.79340 0.67330
H100? H 1.07970 0.79610 0.58280
O70? O 0.1401(17) 0.9527(18) 0.3625(14)
O14* O -0.3970(4) 1.2561(4) -0.0277(3)
O16* O -0.5599(4) 1.2936(4) 0.0731(3)
O26* O 0.0169(4) 0.2566(4) 0.0657(3)
O28* O -0.1419(4) 0.3813(4) -0.0292(3)
O29* O 0.3736(4) 0.5112(4) 0.7213(3)
O31* O 0.3542(4) 0.5890(4) 0.8301(3)
O34* O -0.3780(4) 0.7622(4) 0.4566(3)
O36* O -0.5356(4) 0.8826(4) 0.3617(3)
O41* O -0.3914(4) 1.3199(4) 0.1120(3)
O43* O -0.2438(4) 1.1329(4) 0.1031(4)
Cr2* Cr 0.35800(8) -0.54354(8) 0.84223(7)
Cr3* Cr 0.60867(9) -0.17425(9) 0.33630(8)
Cr4* Cr -0.12731(9) 0.31633(9) 1.09054(7)
Mn2* Mn -0.40366(10) 0.19035(9) 0.10426(7)
Mn2** Mn 0.59634(10) 0.19035(9) 1.10426(7)
#END
