
#######################################################################
#
#                 Cambridge Crystallographic Data Centre
#                                CCDC
#
#######################################################################
#
# If this CIF has been generated from an entry in the Cambridge
# Structural Database, then it will include bibliographic, chemical,
# crystal, experimental, refinement or atomic coordinate data resulting
# from the CCDC's data processing and validation procedures.
#
#######################################################################

data_CSD_CIF_BEWVIK
_audit_creation_date 2013-05-18
_audit_creation_method CSD-ConQuest-V1
_database_code_CSD BEWVIK
_database_code_depnum_ccdc_archive 'CCDC 915421'
_chemical_formula_sum 'C58 H57.5 Cr2 Mn4 N8.5 O31'
_chemical_formula_moiety
;
(C19 H24 Mn1 N2 O4 1+)n,n(C21 H22 Mn1 N4 O2 1+),n(C12 Cr2 Mn2 O24 2-),n(C1 H4 
O1),2.5n(C2 H3 N1)
;
_journal_coden_Cambridge 222
_journal_volume 42
_journal_year 2013
_journal_page_first 5100
_journal_name_full 'Dalton Trans. '
loop_
_publ_author_name
"M.Clemente-Leon"
"E.Coronado"
"M.Lopez-Jorda"
_chemical_name_systematic
;
catena-[(S)-(2,2'-(propane-1,2-diylbis((nitrilo)methylylidene))diphenolato)-bi
s(acetonitrile)-manganese 
(S)-(2,2'-(propane-1,2-diylbis((nitrilo)methylylidene))diphenolato)-dimethanol
-manganese hexakis(\m~2~-oxalato)-di-chromium-di-manganese acetonitrile 
methanol solvate]
;
_cell_volume   3571.595
_exptl_crystal_colour 'red'
_exptl_crystal_density_diffrn 1.572
_exptl_crystal_description 'prism'
_diffrn_ambient_temperature 120
#These two values have been output from a single CSD field.
_refine_ls_R_factor_gt 0.0591
_refine_ls_wR_factor_gt 0.0591
loop_
_citation_database_id_CSD
_citation_special_details
BEWVUW "is a stereoisomer of this entry"
_symmetry_cell_setting monoclinic
_symmetry_space_group_name_H-M 'P 21'
_symmetry_Int_Tables_number 4
loop_
_symmetry_equiv_pos_site_id
_symmetry_equiv_pos_as_xyz
1 x,y,z
2 -x,1/2+y,-z
_cell_length_a 9.2926(3)
_cell_length_b 32.5571(12)
_cell_length_c 11.8060(4)
_cell_angle_alpha 90
_cell_angle_beta 90.596(3)
_cell_angle_gamma 90
_cell_formula_units_Z 2
loop_
_atom_type_symbol
_atom_type_radius_bond
C 0.68
H 0.23
Cr 1.39
Mn 1.61
N 0.68
O 0.68
loop_
_atom_site_label
_atom_site_type_symbol
_atom_site_fract_x
_atom_site_fract_y
_atom_site_fract_z
Cr1 Cr 0.49172(7) 0.25379(2) 0.04721(6)
Cr2 Cr 0.99151(7) 0.00491(2) -0.01118(6)
Mn1 Mn 0.99164(7) 0.338518(19) 0.04002(6)
Mn2 Mn 0.49230(7) 0.08874(2) 0.00374(6)
C1 C 0.7596(5) 0.28280(12) -0.0074(4)
C2 C 0.7167(4) 0.30486(13) 0.1032(3)
C3 C 0.2726(5) 0.30670(13) -0.0076(4)
C4 C 0.2256(4) 0.28348(12) 0.1008(4)
C5 C 0.9540(4) -0.07517(13) -0.0777(3)
C6 C 1.0504(4) -0.07636(14) 0.0288(4)
C7 C 0.7282(5) 0.03454(13) 0.0516(4)
C8 C 0.7698(4) 0.05740(13) -0.0590(4)
C9 C 0.2528(4) 0.03767(13) -0.0643(4)
C10 C 0.2131(5) 0.05535(13) 0.0523(4)
C11 C 0.4459(4) 0.17555(13) -0.0281(4)
C12 C 0.5356(4) 0.17212(13) 0.0830(4)
O1 O 0.7990(3) 0.33127(9) 0.1411(2)
O2 O 0.5963(3) 0.29404(9) 0.1441(2)
O3 O 0.8756(3) 0.29170(9) -0.0518(3)
O4 O 0.6689(3) 0.25638(9) -0.0440(2)
O5 O 0.3985(3) 0.29777(9) -0.0421(3)
O6 O 0.1891(3) 0.33147(9) -0.0502(3)
O7 O 0.3139(3) 0.25705(9) 0.1384(2)
O8 O 0.1078(3) 0.29235(9) 0.1417(3)
O9 O 0.9252(3) -0.10783(9) -0.1249(3)
O10 O 0.9126(3) -0.03986(9) -0.1086(3)
O11 O 1.0936(3) -0.11069(9) 0.0641(3)
O12 O 1.0778(3) -0.04182(9) 0.0730(3)
O13 O 0.8912(3) 0.04777(9) -0.0997(3)
O14 O 0.6839(3) 0.08297(10) -0.0968(2)
O15 O 0.8182(3) 0.00737(9) 0.0842(2)
O16 O 0.6160(3) 0.04367(10) 0.0992(3)
O17 O 0.3646(3) 0.0490(1) -0.1090(3)
O18 O 0.1643(3) 0.01197(9) -0.1070(3)
O19 O 0.3003(3) 0.07793(9) 0.1007(3)
O20 O 0.0901(3) 0.04411(9) 0.0897(2)
O21 O 0.4171(3) 0.14371(10) -0.0806(3)
O22 O 0.4113(3) 0.21149(9) -0.0555(2)
O23 O 0.5711(3) 0.13732(10) 0.1163(3)
O24 O 0.5671(3) 0.20561(9) 0.1309(2)
Mn3 Mn 0.24301(7) 0.91190(2) 0.42931(6)
C13 C 0.4865(5) 0.87421(15) 0.5394(4)
C14 C 0.5426(5) 0.84148(17) 0.6021(4)
H1 H 0.48410 0.81800 0.61450
C15 C 0.6814(6) 0.8421(2) 0.6470(5)
H2 H 0.71700 0.81900 0.68770
C16 C 0.7677(6) 0.8762(2) 0.6328(4)
H3 H 0.86150 0.87710 0.66560
C17 C 0.7168(5) 0.90894(19) 0.5709(4)
H4 H 0.77700 0.93220 0.56030
C18 C 0.5777(5) 0.90885(16) 0.5229(4)
C19 C 0.5374(5) 0.94314(15) 0.4537(4)
H5 H 0.60840 0.96350 0.44010
C20 C 0.3812(6) 0.98451(15) 0.3343(5)
H6 H 0.44480 1.00770 0.35920
C21 C 0.4095(6) 0.9758(2) 0.2162(6)
H7 H 0.51070 0.96800 0.20770
H8 H 0.38930 1.00030 0.17060
H9 H 0.34770 0.95320 0.19060
C22 C 0.2240(5) 0.99672(15) 0.3548(6)
H10 H 0.21520 1.01120 0.42800
H11 H 0.18880 1.01510 0.29360
C23 C 0.0120(5) 0.95650(14) 0.3137(4)
H12 H -0.02490 0.98070 0.27910
C24 C -0.0790(5) 0.92112(13) 0.3149(4)
C25 C -0.2086(5) 0.92276(14) 0.2524(4)
H13 H -0.23340 0.94710 0.21250
C26 C -0.2997(5) 0.88951(16) 0.2484(4)
H14 H -0.38820 0.89120 0.20760
C27 C -0.2622(5) 0.85343(15) 0.3040(4)
H15 H -0.32400 0.83020 0.29890
C28 C -0.1363(5) 0.85081(15) 0.3665(4)
H16 H -0.11230 0.82590 0.40390
C29 C -0.0431(5) 0.88469(14) 0.3755(4)
N1 N 0.4104(4) 0.94851(11) 0.4081(3)
N2 N 0.1400(4) 0.95810(11) 0.3559(3)
O25 O 0.3568(3) 0.87085(9) 0.4972(3)
O26 O 0.0719(3) 0.88164(10) 0.4418(3)
C30 C 0.1817(7) 0.9205(2) 0.6983(5)
H17 H 0.17760 0.93850 0.76480
H18 H 0.25140 0.89850 0.71240
H19 H 0.08640 0.90860 0.68390
O27 O 0.2248(4) 0.94375(11) 0.6025(3)
C31 C 0.3189(6) 0.83901(17) 0.2501(5)
H20 H 0.32950 0.83090 0.17060
H21 H 0.24440 0.82210 0.28520
H22 H 0.41050 0.83500 0.29040
O28 O 0.2782(3) 0.88142(10) 0.2560(3)
Mn4 Mn 0.05660(7) 0.66840(2) 0.42196(6)
C32 C -0.1958(5) 0.63685(14) 0.5340(4)
C33 C -0.2570(6) 0.62054(17) 0.6351(4)
H23 H -0.20480 0.62180 0.70460
C34 C -0.3921(6) 0.60300(19) 0.6313(5)
H24 H -0.43170 0.59240 0.69910
C35 C -0.4718(6) 0.60035(19) 0.5319(5)
H25 H -0.56330 0.58730 0.53120
C36 C -0.4167(6) 0.61688(17) 0.4338(4)
H26 H -0.47220 0.61610 0.36580
C37 C -0.2775(5) 0.63516(15) 0.4333(4)
C38 C -0.2299(5) 0.65199(14) 0.3281(4)
H27 H -0.29550 0.65140 0.26590
C39 C -0.0709(5) 0.68590(17) 0.1995(4)
H28 H -0.13120 0.67190 0.14040
C40 C -0.1027(6) 0.73098(17) 0.1976(4)
H29 H -0.20550 0.73540 0.21100
H30 H -0.07720 0.74230 0.12360
H31 H -0.04630 0.74470 0.25710
C41 C 0.0881(5) 0.67564(19) 0.1794(4)
H32 H 0.09930 0.64630 0.15950
H33 H 0.12660 0.69250 0.11700
C42 C 0.2891(5) 0.70277(15) 0.2859(4)
H34 H 0.32570 0.71130 0.21480
C43 C 0.3749(5) 0.71044(15) 0.3853(4)
C44 C 0.5034(6) 0.73257(17) 0.3725(5)
H35 H 0.52790 0.74270 0.29970
C45 C 0.5947(6) 0.74001(19) 0.4627(5)
H36 H 0.68130 0.75510 0.45290
C46 C 0.5571(6) 0.72492(18) 0.5684(5)
H37 H 0.61890 0.73010 0.63140
C47 C 0.4323(5) 0.70252(17) 0.5847(4)
H38 H 0.40980 0.69270 0.65820
C48 C 0.3393(5) 0.69434(15) 0.4938(4)
N3 N 0.1650(4) 0.68498(12) 0.2874(3)
N4 N -0.1036(4) 0.66811(13) 0.3110(3)
O29 O -0.0650(4) 0.65313(10) 0.5414(3)
O30 O 0.2233(3) 0.67153(11) 0.5122(3)
N5 N 0.0267(5) 0.73965(13) 0.4731(4)
C49 C 0.0681(5) 0.76587(16) 0.5306(4)
C50 C 0.1222(8) 0.79883(17) 0.6021(5)
H39 H 0.20970 0.78970 0.64160
H40 H 0.04900 0.80620 0.65770
H41 H 0.14420 0.82280 0.55520
N6 N 0.0892(5) 0.59878(14) 0.3808(4)
C51 C 0.0665(6) 0.56386(18) 0.3690(4)
C52 C 0.0383(8) 0.51974(17) 0.3530(5)
H42 H 0.08690 0.51010 0.28470
H43 H -0.06560 0.51520 0.34480
H44 H 0.07460 0.50450 0.41890
C53 C 0.5481(9) 0.0133(2) 0.6743(7)
H45 H 0.56390 0.03940 0.71400
H46 H 0.56910 0.01680 0.59370
H47 H 0.61160 -0.00770 0.70660
O31 O 0.4066(5) 0.00140(17) 0.6864(4)
N7 N 0.2330(5) 0.52561(13) 0.6027(4)
C54 C 0.1996(5) 0.55422(15) 0.6511(4)
C55 C 0.1574(6) 0.59192(15) 0.7098(4)
H48 H 0.24270 0.60480 0.74390
H49 H 0.08830 0.58520 0.76920
H50 H 0.11280 0.61090 0.65550
N8 N -0.0445(12) 0.6539(2) 0.9295(5)
C56 C 0.0582(7) 0.70206(17) 0.7772(5)
H51 H 0.05400 0.68850 0.70310
H52 H 0.15830 0.70910 0.79570
H53 H 0.00000 0.72710 0.77500
C57 C 0.0037(9) 0.6750(2) 0.8613(5)
N9 N 0.525(2) 0.9702(4) 0.9386(17)
C58 C 0.5451(13) 0.8975(3) 0.890(1)
H54 H 0.50910 0.89480 0.81200
H55 H 0.50030 0.87650 0.93750
H56 H 0.64970 0.89390 0.89130
C59 C 0.5124(12) 0.9348(3) 0.9297(10)
Cr2* Cr -0.00849(7) 0.00491(2) -0.01118(6)
Mn1* Mn -0.00836(7) 0.338518(19) 0.04002(6)
Mn1A Mn 1.00836(7) -0.161482(19) -0.04002(6)
O6* O 1.1891(3) 0.33147(9) -0.0502(3)
O8* O 1.1078(3) 0.29235(9) 0.1417(3)
O9A O 1.0748(3) 0.39217(9) 0.1249(3)
O11A O 0.9064(3) 0.38931(9) -0.0641(3)
O18* O 1.1643(3) 0.01197(9) -0.1070(3)
O20* O 1.0901(3) 0.04411(9) 0.0897(2)
#END
