
#######################################################################
#
#                 Cambridge Crystallographic Data Centre
#                                CCDC
#
#######################################################################
#
# If this CIF has been generated from an entry in the Cambridge
# Structural Database, then it will include bibliographic, chemical,
# crystal, experimental, refinement or atomic coordinate data resulting
# from the CCDC's data processing and validation procedures.
#
#######################################################################

data_CSD_CIF_BEWVUW
_audit_creation_date 2013-05-18
_audit_creation_method CSD-ConQuest-V1
_database_code_CSD BEWVUW
_database_code_depnum_ccdc_archive 'CCDC 915419'
_chemical_formula_sum 'C58 H57.5 Cr2 Mn4 N8.5 O31'
_chemical_formula_moiety
;
(C21 H22 Mn1 N4 O2 1+)n,n(C19 H24 Mn1 N2 O4 1+),n(C12 Cr2 Mn2 O24 2-),2.5n(C2 
H3 N1),n(C1 H4 O1)
;
_journal_coden_Cambridge 222
_journal_volume 42
_journal_year 2013
_journal_page_first 5100
_journal_name_full 'Dalton Trans. '
loop_
_publ_author_name
"M.Clemente-Leon"
"E.Coronado"
"M.Lopez-Jorda"
_chemical_name_systematic
;
catena-[(R)-(2,2'-(propane-1,2-diylbis((nitrilo)methylylidene))diphenolato)-bi
s(acetonitrile)-manganese 
(R)-(2,2'-(propane-1,2-diylbis((nitrilo)methylylidene))diphenolato)-dimethanol
-manganese hexakis(\m~2~-oxalato)-di-chromium-di-manganese acetonitrile 
methanol solvate]
;
_cell_volume   3582.442
_exptl_crystal_colour 'red'
_exptl_crystal_density_diffrn 1.567
_exptl_crystal_description 'prism'
_diffrn_ambient_temperature 120
#These two values have been output from a single CSD field.
_refine_ls_R_factor_gt 0.0455
_refine_ls_wR_factor_gt 0.0455
loop_
_citation_database_id_CSD
_citation_special_details
BEWVIK "is a stereoisomer of this entry"
_symmetry_cell_setting monoclinic
_symmetry_space_group_name_H-M 'P 21'
_symmetry_Int_Tables_number 4
loop_
_symmetry_equiv_pos_site_id
_symmetry_equiv_pos_as_xyz
1 x,y,z
2 -x,1/2+y,-z
_cell_length_a 9.2943(3)
_cell_length_b 32.5932(10)
_cell_length_c 11.8266(5)
_cell_angle_alpha 90
_cell_angle_beta 90.608(3)
_cell_angle_gamma 90
_cell_formula_units_Z 2
loop_
_atom_type_symbol
_atom_type_radius_bond
C 0.68
H 0.23
Cr 1.39
Mn 1.61
N 0.68
O 0.68
loop_
_atom_site_label
_atom_site_type_symbol
_atom_site_fract_x
_atom_site_fract_y
_atom_site_fract_z
C1 C 0.2841(5) 0.90819(13) 0.8978(4)
C2 C 0.2408(5) 0.93051(13) 1.0067(4)
C3 C 0.4653(4) 1.04143(15) 0.9159(4)
C4 C 0.5553(4) 1.03756(12) 1.0284(4)
C5 C 0.2302(5) 1.15602(13) 1.0574(4)
C6 C 0.2704(5) 1.17842(14) 0.9472(4)
C7 C 0.0494(4) 0.78864(14) 1.0292(4)
C8 C -0.0442(5) 0.78787(14) 0.9239(4)
C9 C 0.7468(5) 1.17521(13) 1.0642(4)
C10 C 0.7859(5) 1.15772(13) 0.9480(4)
C11 C 0.7759(5) 0.92941(13) 0.8991(4)
C12 C 0.7267(5) 0.90653(12) 1.0083(4)
O1 O 0.2017(3) 0.88163(9) 0.8584(3)
O2 O 0.4043(3) 0.91909(8) 0.8559(3)
O3 O 0.1250(3) 0.92176(9) 1.0524(3)
O4 O 0.3321(3) 0.95659(9) 1.0439(3)
O5 O 0.4324(3) 1.00761(9) 0.8686(3)
O6 O 0.4290(3) 1.07591(9) 0.8834(3)
O7 O 0.5887(3) 1.00167(8) 1.0546(3)
O8 O 0.5838(3) 1.06926(9) 1.0800(3)
O9 O 0.3152(3) 1.12993(9) 1.0973(3)
O10 O 0.1079(3) 1.16536(9) 1.0988(3)
O11 O 0.3839(3) 1.16924(9) 0.9002(3)
O12 O 0.1803(3) 1.20566(8) 0.9160(3)
O13 O 0.0782(3) 0.75480(9) 1.0733(3)
O14 O 0.0948(3) 0.82364(9) 1.0652(3)
O15 O -0.0854(3) 0.75248(8) 0.8918(3)
O16 O -0.0736(3) 0.82092(9) 0.8750(3)
O17 O 0.6994(3) 1.13488(9) 0.8989(3)
O18 O 0.9094(3) 1.16889(9) 0.9105(3)
O19 O 0.6351(3) 1.16399(10) 1.1083(3)
O20 O 0.8360(3) 1.20081(9) 1.1065(3)
O21 O 0.6015(3) 0.91516(8) 1.0421(3)
O22 O 0.8116(3) 0.88156(9) 1.0509(3)
O23 O 0.6856(3) 0.95605(9) 0.8616(3)
O24 O 0.8933(3) 0.92067(9) 0.8581(3)
Mn1 Mn 0.00870(7) 0.874503(19) 0.95973(6)
Mn2 Mn 0.50716(7) 1.12411(2) 0.99594(7)
Cr1 Cr 0.50900(8) 0.95929(2) 0.95268(7)
Cr2 Cr -0.00830(8) 0.70811(2) 0.98897(7)
C13 C 1.1944(5) 0.57664(14) 0.4654(4)
C14 C 1.2542(5) 0.59255(14) 0.3668(4)
H1 H 1.20160 0.59120 0.29760
C15 C 1.3885(6) 0.61006(15) 0.3692(5)
H2 H 1.42690 0.62080 0.30120
C16 C 1.4716(5) 0.61260(15) 0.4701(5)
H3 H 1.56380 0.62510 0.47030
C17 C 1.4158(5) 0.59655(14) 0.5672(5)
H4 H 1.47060 0.59760 0.63540
C18 C 1.2761(5) 0.57817(13) 0.5674(4)
C19 C 1.2290(5) 0.56136(12) 0.6718(4)
H5 H 1.29420 0.56250 0.73410
C20 C 1.0731(5) 0.52703(14) 0.8006(4)
H6 H 1.13370 0.54100 0.85950
C21 C 1.1030(5) 0.48187(14) 0.8020(4)
H7 H 1.20520 0.47710 0.78720
H8 H 1.04460 0.46830 0.74350
H9 H 1.07880 0.47060 0.87630
C22 C 0.9125(5) 0.53725(17) 0.8198(4)
H10 H 0.87360 0.52020 0.88170
H11 H 0.90130 0.56650 0.84040
C23 C 0.7114(5) 0.51061(13) 0.7132(4)
H12 H 0.67460 0.50210 0.78400
C24 C 0.6259(5) 0.50296(14) 0.6143(4)
C25 C 0.4974(5) 0.48029(15) 0.6279(4)
H13 H 0.47410 0.46970 0.70020
C26 C 0.4044(5) 0.47337(15) 0.5364(5)
H14 H 0.31720 0.45870 0.54650
C27 C 0.4414(5) 0.48844(15) 0.4294(5)
H15 H 0.38030 0.48330 0.36610
C28 C 0.5665(5) 0.51067(14) 0.4160(4)
H16 H 0.58930 0.52100 0.34320
C29 C 0.6604(5) 0.51836(14) 0.5064(4)
N1 N 1.1035(4) 0.54453(12) 0.6890(3)
N2 N 0.8351(4) 0.52837(10) 0.7122(3)
O25 O 1.0629(3) 0.56004(9) 0.4592(3)
O26 O 0.7759(3) 0.54183(10) 0.4876(3)
Mn3 Mn 0.94256(7) 0.54473(2) 0.57818(6)
C30 C 0.9348(6) 0.64853(17) 0.6308(5)
C31 C 0.9603(6) 0.69296(15) 0.6445(5)
H17 H 0.88190 0.70830 0.60780
H18 H 1.05190 0.70030 0.60950
H19 H 0.96400 0.69980 0.72510
C32 C 0.9308(5) 0.44725(14) 0.4715(4)
C33 C 0.8795(7) 0.41438(13) 0.3968(5)
H20 H 0.77980 0.41990 0.37370
H21 H 0.88410 0.38810 0.43710
H22 H 0.94020 0.41310 0.32970
N3 N 0.9099(4) 0.61364(13) 0.6183(4)
N4 N 0.9732(4) 0.47327(12) 0.5272(4)
C34 C 0.4888(5) 0.83886(13) 0.5396(4)
C35 C 0.5442(5) 0.87156(16) 0.6028(4)
H23 H 0.48560 0.89490 0.61600
C36 C 0.6833(5) 0.87058(17) 0.6468(4)
H24 H 0.72020 0.89360 0.68680
C37 C 0.7677(5) 0.83652(17) 0.6327(4)
H25 H 0.86080 0.83540 0.66660
C38 C 0.7183(5) 0.80450(17) 0.5705(4)
H26 H 0.77950 0.78160 0.55860
C39 C 0.5799(5) 0.80423(15) 0.5233(4)
C40 C 0.5354(5) 0.77007(13) 0.4533(4)
H27 H 0.60590 0.74970 0.43890
C41 C 0.3819(5) 0.72866(14) 0.3369(5)
H28 H 0.44610 0.70560 0.36140
C42 C 0.4078(6) 0.73734(18) 0.2178(6)
H29 H 0.50880 0.74510 0.20800
H30 H 0.34550 0.75990 0.19280
H31 H 0.38670 0.71280 0.17270
C43 C 0.2248(5) 0.71601(14) 0.3564(5)
H32 H 0.19020 0.69780 0.29490
H33 H 0.21530 0.70150 0.42940
C44 C 0.0144(5) 0.75681(12) 0.3158(4)
H34 H -0.02290 0.73240 0.28280
C45 C -0.0761(4) 0.79184(13) 0.3149(4)
C46 C -0.2083(5) 0.79054(13) 0.2525(4)
H35 H -0.23360 0.76630 0.21240
C47 C -0.2989(5) 0.82333(14) 0.2492(4)
H36 H -0.38780 0.82160 0.20920
C48 C -0.2609(5) 0.85931(13) 0.3044(4)
H37 H -0.32270 0.88250 0.29900
C49 C -0.1362(5) 0.86214(13) 0.3664(4)
H38 H -0.11240 0.88730 0.40280
C50 C -0.0420(5) 0.82815(13) 0.3772(4)
N5 N 0.4115(4) 0.76448(10) 0.4089(3)
N6 N 0.1417(4) 0.75526(10) 0.3570(3)
O27 O 0.3565(3) 0.84219(8) 0.4966(3)
O28 O 0.0720(3) 0.83152(8) 0.4428(3)
Mn4 Mn 0.24390(7) 0.80119(2) 0.42981(6)
C51 C 0.1830(6) 0.7923(2) 0.6976(5)
H39 H 0.25980 0.81140 0.71970
H40 H 0.16350 0.77360 0.76040
H41 H 0.09560 0.80780 0.67890
C52 C 0.3151(6) 0.87393(15) 0.2514(4)
H42 H 0.22780 0.89030 0.23940
H43 H 0.38150 0.87860 0.18890
H44 H 0.36140 0.88200 0.32280
O29 O 0.2262(3) 0.76952(9) 0.6024(3)
O30 O 0.2780(3) 0.83163(8) 0.2558(3)
C53 C 0.8017(5) 0.65863(14) 0.3502(4)
C54 C 0.8426(5) 0.62155(13) 0.2916(4)
H45 H 0.87870 0.60140 0.34650
H46 H 0.91820 0.62790 0.23720
H47 H 0.75870 0.61030 0.25160
N7 N 0.7685(4) 0.68768(12) 0.3965(4)
C55 C 0.5487(8) 0.70055(19) 0.6739(6)
H48 H 0.61050 0.72190 0.70670
H49 H 0.57000 0.69750 0.59330
H50 H 0.56670 0.67450 0.71280
O31 O 0.4057(5) 0.71154(14) 0.6864(4)
C56 C 0.9930(7) 0.5369(2) 0.1401(6)
C57 C 0.9417(6) 0.51068(15) 0.2223(5)
H51 H 0.83950 0.50510 0.20790
H52 H 0.95350 0.52340 0.29680
H53 H 0.99570 0.48490 0.22030
N8 N 1.0419(7) 0.5591(2) 0.0696(6)
C58 C 0.5423(10) 0.8155(2) 0.8912(8)
H54 H 0.46580 0.83400 0.91630
H55 H 0.54700 0.81600 0.80850
H56 H 0.63460 0.82460 0.92320
C59 C 0.5157(10) 0.7791(3) 0.9246(9)
N9 N 0.5183(14) 0.7468(3) 0.9420(12)
O10A O -0.1079(3) 0.66536(9) 0.9012(3)
O12A O -0.1803(3) 0.70566(8) 1.0840(3)
O18A O 0.0906(3) 0.66889(9) 1.0895(3)
O20A O 0.1640(3) 0.70081(9) 0.8935(3)
O22* O -0.1884(3) 0.88156(9) 1.0509(3)
O24* O -0.1067(3) 0.92067(9) 0.8581(3)
Mn1* Mn 1.00870(7) 0.874503(19) 0.95973(6)
Cr2A Cr 0.00830(8) 1.20811(2) 1.01103(7)
Cr2A* Cr 1.00830(8) 1.20811(2) 1.01103(7)
#END
