
#######################################################################
#
#                 Cambridge Crystallographic Data Centre
#                                CCDC
#
#######################################################################
#
# If this CIF has been generated from an entry in the Cambridge
# Structural Database, then it will include bibliographic, chemical,
# crystal, experimental, refinement or atomic coordinate data resulting
# from the CCDC's data processing and validation procedures.
#
#######################################################################

data_CSD_CIF_BEWVOQ
_audit_creation_date 2013-05-19
_audit_creation_method CSD-ConQuest-V1
_database_code_CSD BEWVOQ
_database_code_depnum_ccdc_archive 'CCDC 915420'
_chemical_formula_sum 'C103 H106 Cl3 Cr4 Mn8 N8 O66'
_chemical_formula_moiety
;
(C24 Cr4 Mn4 O48 4-)n,4n(C19 H24 Mn1 N2 O4 1+),1.5n(C1 H4 O1),1.5n(C1 H2 
Cl2),0.5n(H2 O1)
;
_journal_coden_Cambridge 222
_journal_volume 42
_journal_year 2013
_journal_page_first 5100
_journal_name_full 'Dalton Trans. '
loop_
_publ_author_name
"M.Clemente-Leon"
"E.Coronado"
"M.Lopez-Jorda"
_chemical_name_systematic
;
catena-[tetrakis(((R)-2,2'-(propane-1,2-diylbis[nitrilomethylylidene])diphenol
ato)-dimethanol-manganese) 
dodecakis(\m~2~-oxalato)-tetra-chromium-tetra-manganese dichloromethane 
methanol solvate hemihydrate]
;
_cell_volume   3434.100
_exptl_crystal_colour 'red'
_exptl_crystal_description 'prism'
_diffrn_ambient_temperature 120
_refine_special_details
;
The structure is disordered.

;
#These two values have been output from a single CSD field.
_refine_ls_R_factor_gt 0.0539
_refine_ls_wR_factor_gt 0.0539
loop_
_citation_database_id_CSD
_citation_special_details
BEWVEG "is a stereoisomer of this entry"
_symmetry_cell_setting triclinic
_symmetry_space_group_name_H-M 'P 1'
_symmetry_Int_Tables_number 1
loop_
_symmetry_equiv_pos_site_id
_symmetry_equiv_pos_as_xyz
1 x,y,z
_cell_length_a 15.2933(9)
_cell_length_b 15.5985(8)
_cell_length_c 18.1942(6)
_cell_angle_alpha 64.685(4)
_cell_angle_beta 77.986(4)
_cell_angle_gamma 61.077(6)
_cell_formula_units_Z 1
loop_
_atom_type_symbol
_atom_type_radius_bond
C 0.68
H 0.23
Cl 0.99
Cr 1.39
Mn 1.61
N 0.68
O 0.68
loop_
_atom_site_label
_atom_site_type_symbol
_atom_site_fract_x
_atom_site_fract_y
_atom_site_fract_z
C1 C 0.1804(7) -0.2344(6) 0.9488(5)
C2 C 0.2730(7) -0.3096(6) 1.0046(5)
C3 C 0.4497(7) -0.1625(6) 0.8393(4)
C4 C 0.5334(7) -0.2738(7) 0.8443(5)
C5 C 0.6925(7) -0.2884(6) 1.0101(5)
C6 C 0.7900(7) -0.3090(7) 0.9536(5)
C7 C 0.9463(7) -0.3033(7) 1.1197(5)
C8 C 1.0332(6) -0.4036(6) 1.1098(5)
C9 C 0.6387(6) -0.0144(7) 0.7119(5)
C10 C 0.6273(6) 0.0236(7) 0.7797(5)
C11 C 0.4475(7) 0.3826(7) 0.6208(5)
C12 C 0.5339(7) 0.4036(7) 0.6291(5)
C13 C 0.2013(7) 0.7128(7) 0.5094(6)
C14 C 0.2957(7) 0.6977(7) 0.4540(6)
C15 C 0.3540(7) 0.7026(7) 0.6897(5)
C16 C 0.3464(7) 0.6050(7) 0.7548(6)
C17 C 0.7009(6) 0.2421(6) 0.4618(5)
C18 C 0.7931(6) 0.1725(6) 0.5181(5)
C19 C 0.8534(6) 0.3672(7) 0.2144(5)
C20 C 0.8635(6) 0.4030(7) 0.2760(5)
C21 C 0.9495(6) 0.0147(6) 0.3553(5)
C22 C 1.0344(7) 0.0405(7) 0.3494(5)
C23 C 1.1274(6) -0.2801(6) 0.2524(5)
C24 C 1.1179(7) -0.1726(6) 0.1898(6)
O1 O 0.0982(4) -0.2060(4) 0.9847(4)
O2 O 0.2564(4) -0.3299(4) 1.0798(3)
O3 O 0.1921(5) -0.2081(4) 0.8738(3)
O4 O 0.3559(4) -0.3450(5) 0.9723(4)
O5 O 0.3634(5) -0.1409(5) 0.8314(4)
O6 O 0.5090(5) -0.3376(5) 0.8418(4)
O7 O 0.4816(5) -0.1017(4) 0.8414(3)
O8 O 0.6210(5) -0.2890(5) 0.8500(4)
O9 O 0.6126(5) -0.2236(5) 0.9741(3)
O10 O 0.7717(4) -0.2524(4) 0.8801(3)
O11 O 0.7051(4) -0.3367(4) 1.0850(3)
O12 O 0.8706(4) -0.3757(5) 0.9867(4)
O13 O 0.8593(5) -0.2971(5) 1.1273(5)
O14 O 1.0189(4) -0.4752(4) 1.1124(3)
O15 O 0.9674(4) -0.2351(4) 1.1176(4)
O16 O 1.1183(5) -0.4042(4) 1.1013(3)
O17 O 0.6476(5) -0.1084(5) 0.7370(3)
O18 O 0.6241(5) -0.0384(5) 0.8513(3)
O19 O 0.6362(4) 0.0449(4) 0.6399(3)
O20 O 0.6294(5) 0.1092(5) 0.7593(3)
O21 O 0.4680(5) 0.2943(5) 0.6225(4)
O22 O 0.6197(5) 0.3276(5) 0.6426(4)
O23 O 0.3636(5) 0.4575(5) 0.6124(4)
O24 O 0.5091(4) 0.4941(4) 0.6264(4)
O25 O 0.2191(4) 0.6685(5) 0.5854(4)
O26 O 0.3782(5) 0.6403(5) 0.4914(4)
O27 O 0.1197(5) 0.7622(5) 0.4775(4)
O28 O 0.2848(5) 0.7417(5) 0.3794(4)
O29 O 0.3644(4) 0.7061(4) 0.6177(3)
O30 O 0.3428(5) 0.5427(5) 0.7287(4)
O31 O 0.3461(6) 0.7724(5) 0.7095(3)
O32 O 0.3414(5) 0.5931(5) 0.8272(4)
O33 O 0.6184(5) 0.2625(5) 0.4950(4)
O34 O 0.7809(4) 0.1445(4) 0.5928(3)
O35 O 0.7202(4) 0.2702(4) 0.3870(3)
O36 O 0.8768(4) 0.1507(4) 0.4825(3)
O37 O 0.8457(5) 0.2797(4) 0.2442(3)
O38 O 0.8723(4) 0.3379(4) 0.3503(3)
O39 O 0.8534(4) 0.4220(4) 0.1412(3)
O40 O 0.8638(5) 0.4892(5) 0.2516(4)
O41 O 0.8643(4) 0.0823(4) 0.3647(4)
O42 O 1.0092(4) 0.1297(4) 0.3511(3)
O43 O 0.9677(4) -0.0691(5) 0.3515(4)
O44 O 1.1201(5) -0.0250(5) 0.3437(4)
O45 O 1.1291(5) -0.2997(5) 0.3252(4)
O46 O 1.1224(5) -0.1113(5) 0.2149(4)
O47 O 1.1285(5) -0.3421(4) 0.2238(4)
O48 O 1.1067(4) -0.1554(4) 0.1163(4)
Cr1 Cr 0.11159(10) -0.27585(11) 1.10410(8)
Cr2 Cr 0.62704(11) -0.16870(11) 0.85502(8)
Cr3 Cr 0.36262(11) 0.58633(11) 0.61037(9)
Cr4 Cr 0.86340(11) 0.21017(10) 0.36259(8)
Mn1 Mn 0.34800(11) -0.27729(11) 0.84059(8)
Mn2 Mn 0.86162(10) -0.43584(10) 1.11939(8)
Mn3 Mn 0.6262(1) 0.1919(1) 0.62764(8)
Mn4 Mn 1.12832(11) -0.16857(11) 0.34396(9)
C25 C 0.3928(7) 0.0959(7) 0.4758(5)
C26 C 0.3760(8) 0.0092(8) 0.5341(6)
H1 H 0.36860 -0.03600 0.51630
C27 C 0.3704(8) -0.0101(8) 0.6131(6)
H2 H 0.36030 -0.06990 0.64980
C28 C 0.3784(8) 0.0520(8) 0.6445(6)
H3 H 0.37410 0.03580 0.70130
C29 C 0.3930(8) 0.1400(8) 0.5893(5)
H4 H 0.39860 0.18470 0.60880
C30 C 0.3994(7) 0.1625(7) 0.5053(5)
C31 C 0.4112(6) 0.2536(6) 0.4539(5)
H5 H 0.42150 0.28940 0.47990
C32 C 0.4235(8) 0.3925(7) 0.3274(5)
H6 H 0.49390 0.37080 0.30680
C33 C 0.3560(7) 0.4493(7) 0.2569(5)
H7 H 0.28590 0.48240 0.27430
H8 H 0.37200 0.50610 0.21500
C34 C 0.3609(7) 0.4019(7) 0.1464(5)
H9 H 0.35280 0.47140 0.11230
C35 C 0.3639(7) 0.3389(9) 0.1077(6)
C36 C 0.3585(7) 0.3812(9) 0.0214(6)
H10 H 0.35440 0.45010 -0.00850
C37 C 0.3591(8) 0.3231(10) -0.0214(7)
H11 H 0.35800 0.35120 -0.07910
C38 C 0.3614(8) 0.2248(10) 0.0232(7)
H12 H 0.35770 0.18680 -0.00430
C39 C 0.3687(7) 0.1807(8) 0.1062(6)
H13 H 0.37490 0.11090 0.13480
C40 C 0.3671(7) 0.2368(9) 0.1494(5)
C41 C 0.4038(8) 0.4620(7) 0.3744(6)
H14 H 0.44890 0.42060 0.42120
H15 H 0.33440 0.48620 0.39350
H16 H 0.41550 0.52350 0.33860
N1 N 0.4098(5) 0.2940(5) 0.3763(5)
N2 N 0.3680(6) 0.3746(6) 0.2227(5)
O49 O 0.3982(5) 0.1125(5) 0.3987(4)
O50 O 0.3746(4) 0.1862(4) 0.2324(3)
Mn5 Mn 0.38764(10) 0.23427(10) 0.30859(8)
O51 O 0.5541(4) 0.1565(5) 0.2816(4)
C42 C 0.6352(8) 0.1243(9) 0.3311(8)
O52 O 0.2207(4) 0.2953(5) 0.3393(4)
C43 C 0.1430(12) 0.3679(14) 0.2824(10)
C44 C 0.6074(7) 0.8394(8) 0.4682(6)
C45 C 0.6243(8) 0.8689(8) 0.5253(6)
H17 H 0.63540 0.92960 0.50800
C46 C 0.6246(9) 0.8065(12) 0.6079(8)
H18 H 0.63150 0.83020 0.64560
C47 C 0.6159(9) 0.7174(10) 0.6378(7)
H19 H 0.62070 0.67700 0.69470
C48 C 0.5997(8) 0.6841(10) 0.5845(7)
H20 H 0.59150 0.62130 0.60480
C49 C 0.5955(7) 0.7445(8) 0.4992(6)
C50 C 0.5828(7) 0.7064(7) 0.4473(6)
H21 H 0.57240 0.64470 0.47340
C51 C 0.5672(7) 0.6942(8) 0.3220(6)
H22 H 0.49540 0.73330 0.30560
C52 C 0.6261(10) 0.7082(10) 0.2520(7)
H23 H 0.60520 0.69480 0.21160
H24 H 0.69700 0.65750 0.26570
C53 C 0.6141(10) 0.8723(10) 0.1396(7)
H25 H 0.61380 0.84080 0.10510
C54 C 0.6149(8) 0.9733(9) 0.1020(6)
C55 C 0.6199(8) 1.0189(10) 0.0145(7)
H26 H 0.62370 0.97920 -0.01470
C56 C 0.6195(9) 1.1138(9) -0.0286(7)
H27 H 0.61840 1.14280 -0.08630
C57 C 0.6209(9) 1.1693(9) 0.0167(8)
H28 H 0.62490 1.23440 -0.01230
C58 C 0.6166(7) 1.1318(8) 0.1011(6)
H29 H 0.61550 1.17160 0.12900
C59 C 0.6138(7) 1.0314(9) 0.1454(6)
C60 C 0.5937(10) 0.5768(9) 0.3695(8)
H30 H 0.55110 0.56880 0.41790
H31 H 0.66390 0.53770 0.38610
H32 H 0.58310 0.54870 0.33500
N3 N 0.5832(5) 0.7426(6) 0.3707(4)
N4 N 0.6138(7) 0.8212(7) 0.2165(5)
O53 O 0.6017(6) 0.8981(5) 0.3920(4)
O54 O 0.6106(5) 0.9967(5) 0.2262(4)
Mn6 Mn 0.60138(10) 0.87181(11) 0.30235(9)
O55 O 0.7690(7) 0.7780(7) 0.3205(10)
C61 C 0.8469(14) 0.797(2) 0.2884(10)
O56 O 0.4368(5) 0.9717(5) 0.2873(4)
C62 C 0.3550(8) 0.9514(10) 0.3362(8)
C63 C 0.1136(6) 0.2377(5) 0.9901(3)
C64 C 0.1216(6) 0.1396(4) 1.0459(4)
H33 H 0.12670 0.08880 1.02750
C65 C 0.1221(6) 0.1157(4) 1.1288(4)
H34 H 0.12760 0.04860 1.16690
C66 C 0.1146(5) 0.1900(5) 1.1558(3)
H35 H 0.11500 0.17370 1.21240
C67 C 0.1066(5) 0.2882(4) 1.0999(4)
H36 H 0.10150 0.33890 1.11840
C68 C 0.1061(5) 0.3120(4) 1.0171(3)
C69 C 0.1061(6) 0.4124(6) 0.9619(5)
H37 H 0.10300 0.45740 0.98580
C70 C 0.1251(8) 0.5412(7) 0.8335(6)
H38 H 0.19800 0.51730 0.82060
C71 C 0.0705(9) 0.5893(8) 0.7555(6)
H39 H -0.00250 0.62280 0.76440
H40 H 0.08950 0.64400 0.71400
C72 C 0.1064(9) 0.5197(11) 0.6495(7)
H41 H 0.10100 0.58680 0.61150
C73 C 0.1221(6) 0.4439(7) 0.6183(5)
C74 C 0.1353(7) 0.4748(7) 0.5345(5)
H42 H 0.13540 0.54140 0.50280
C75 C 0.1481(7) 0.4082(9) 0.4972(4)
H43 H 0.15710 0.42930 0.43990
C76 C 0.1479(6) 0.3107(8) 0.5435(6)
H44 H 0.15670 0.26510 0.51800
C77 C 0.1348(6) 0.2798(6) 0.6273(6)
H45 H 0.13460 0.21310 0.65890
C78 C 0.1219(6) 0.3464(7) 0.6646(4)
C79 C 0.0942(7) 0.6173(7) 0.8745(6)
H46 H 0.13210 0.58120 0.92500
H47 H 0.02260 0.64270 0.88700
H48 H 0.10760 0.67750 0.83820
N5 N 0.1098(5) 0.4459(6) 0.8840(5)
N6 N 0.0986(7) 0.5037(8) 0.7287(5)
O57 O 0.1208(7) 0.2506(5) 0.9118(5)
O58 O 0.1097(5) 0.3108(5) 0.7473(4)
Mn7 Mn 0.10816(10) 0.37091(11) 0.81916(9)
O59 O -0.0581(5) 0.4390(6) 0.8178(5)
C80 C -0.1408(11) 0.5011(12) 0.8511(10)
O60 O 0.2797(10) 0.3252(9) 0.7850(7)
C81 C 0.3461(15) 0.2139(11) 0.8047(13)
C82 C 0.8677(8) 0.2009(9) 0.9747(8)
C83 C 0.8629(9) 0.2323(10) 1.0336(8)
H49 H 0.85590 0.30170 1.01830
C84 C 0.8674(10) 0.1710(13) 1.1147(10)
H50 H 0.86430 0.19990 1.15230
C85 C 0.8758(10) 0.0740(14) 1.1438(7)
H51 H 0.88000 0.03370 1.20060
C86 C 0.8783(8) 0.0337(9) 1.0899(7)
H52 H 0.88330 -0.03560 1.10930
C87 C 0.8735(7) 0.0945(9) 1.0040(7)
C88 C 0.8722(7) 0.0465(8) 0.9521(6)
H53 H 0.87250 -0.02100 0.97710
C89 C 0.8600(8) 0.0467(8) 0.8211(6)
H54 H 0.78900 0.08800 0.80240
C90 C 0.9237(7) 0.0686(7) 0.7476(6)
H55 H 0.99530 0.02390 0.76220
H56 H 0.90960 0.05300 0.70530
C91 C 0.8967(8) 0.2347(8) 0.6432(7)
H57 H 0.90720 0.20220 0.60620
C92 C 0.8771(6) 0.3486(5) 0.6073(5)
C93 C 0.8647(6) 0.4011(6) 0.5235(5)
H58 H 0.86690 0.36530 0.49150
C94 C 0.8491(6) 0.5059(6) 0.4865(4)
H59 H 0.84060 0.54180 0.42920
C95 C 0.8459(6) 0.5583(5) 0.5333(5)
H60 H 0.83520 0.62990 0.50800
C96 C 0.8583(6) 0.5058(6) 0.6170(5)
H61 H 0.85610 0.54160 0.64900
C97 C 0.8739(6) 0.4010(7) 0.6540(4)
C98 C 0.8813(9) -0.0725(8) 0.8664(7)
H62 H 0.83510 -0.07940 0.91230
H63 H 0.95020 -0.11520 0.88640
H64 H 0.87190 -0.09720 0.82870
N7 N 0.8707(5) 0.0897(6) 0.8735(5)
N8 N 0.9005(6) 0.1776(7) 0.7183(5)
O61 O 0.8566(6) 0.2604(6) 0.8993(5)
O62 O 0.8832(5) 0.3565(5) 0.7346(4)
Mn8 Mn 0.87892(11) 0.22674(11) 0.80817(9)
O63 O 1.0458(5) 0.1528(6) 0.8183(5)
C99 C 1.1171(9) 0.0557(8) 0.8682(10)
O64 O 0.7088(5) 0.3127(5) 0.7783(4)
C100 C 0.6436(9) 0.4032(10) 0.7967(8)
Cl1 Cl 0.8990(3) 0.8650(3) 0.6683(3)
Cl2 Cl 1.0956(4) 0.8623(3) 0.6733(3)
C101 C 0.9949(14) 0.8892(14) 0.6109(10)
H65 H 0.96750 0.96420 0.57260
H66 H 1.02490 0.84440 0.57830
Cl3 Cl 0.3852(3) -0.2716(4) 1.1911(2)
Cl4 Cl 0.3386(8) -0.1254(7) 1.0271(5)
C102 C 0.4188(19) -0.2539(16) 1.0916(9)
H67 H 0.41480 -0.30730 1.07840
H68 H 0.48860 -0.26390 1.08320
Cl5 Cl 0.5888(4) 0.4900(5) 0.1816(3)
Cl6 Cl 0.5847(6) 0.4234(12) 0.0523(10)
C103 C 0.649(2) 0.396(2) 0.1308(16)
H69 H 0.71520 0.39400 0.11050
H70 H 0.66100 0.32470 0.17160
O65 O 0.8460(12) 0.8266(12) 0.4265(8)
C104 C 0.8733(17) 0.7829(18) 0.5130(11)
O66 O 0.1131(16) 0.0615(15) 0.5811(11)
O67? O 0.2775(12) 0.2655(12) 0.8403(9)
C105? C 0.353(2) 0.263(3) 0.778(2)
O68? O 0.8915(15) 0.7406(15) 0.5842(11)
O69? O 0.1460(9) 0.1547(8) 0.4186(6)
C106? C 0.1303(19) 0.0911(17) 0.4993(11)
O15* O -0.0326(4) -0.2351(4) 1.1176(4)
O16* O 0.1183(5) -0.4042(4) 1.1013(3)
O27* O 1.1197(5) -0.2378(5) 0.4775(4)
O28* O 1.2848(5) -0.2583(5) 0.3794(4)
O31* O 0.3461(6) -0.2276(5) 0.7095(3)
O32* O 0.3414(5) -0.4069(5) 0.8272(4)
O39* O 0.8534(4) -0.5780(4) 1.1412(3)
O40* O 0.8638(5) -0.5108(5) 1.2516(4)
O47* O 0.1285(5) -0.3421(4) 1.2238(4)
O48* O 0.1067(4) -0.1554(4) 1.1163(4)
Cr1* Cr 1.11159(10) -0.27585(11) 0.10410(8)
Cr1** Cr 1.11159(10) -0.27585(11) 1.10410(8)
Mn1* Mn 0.34800(11) 0.72271(11) 0.84059(8)
Mn2* Mn 0.86162(10) 0.56416(10) 0.11939(8)
Mn4* Mn 0.12832(11) 0.83143(11) 0.34396(9)
#END
