
#######################################################################
#
#                 Cambridge Crystallographic Data Centre
#                                CCDC
#
#######################################################################
#
# If this CIF has been generated from an entry in the Cambridge
# Structural Database, then it will include bibliographic, chemical,
# crystal, experimental, refinement or atomic coordinate data resulting
# from the CCDC's data processing and validation procedures.
#
#######################################################################

data_CSD_CIF_BEWVOR
_audit_creation_date 2018-02-28
_audit_creation_method CSD-ConQuest-V1
_database_code_CSD BEWVOR
_database_code_depnum_ccdc_archive 'CCDC 1576346'
_chemical_formula_sum 'C60 H100 Ag2 N24 O126 P4 W36'
_chemical_formula_moiety
;
2(O62 P2 W18 6-),n(C10 H14 Ag1 N4 1+),C10 H16 Ag1 N4 1+,4(C10 H16 N4 2+),2(H3 
O1 1+)
;
_journal_coden_Cambridge 222
_journal_volume 47
_journal_year 2018
_journal_page_first 4273
_journal_name_full 'Dalton Trans. '
loop_
_publ_author_name
"Xiao-ying Fan"
"Heng Guo"
"Jing-hua Lv"
"Kai Yu"
"Zhan-hua Su"
"Lu Wang"
"Chun-mei Wang"
"Bai-bin Zhou"
_chemical_name_systematic
;
catena-[tetrakis(1,1'-(butane-1,4-diyl)di(1H-imidazolium)) bis(oxonium) 
(\m-1,1'-(butane-1,4-diyl)di(1H-imidazole))-silver 
bis(1-ethyl-1H-imidazole)-silver 
bis(bis(\m-phosphato)-hexatriacontakis(\m-oxido)-octadecaoxo-octadeca-tungsten
) unknown solvate]
;
_cell_volume   4221.777
_exptl_crystal_colour 'yellow'
_exptl_crystal_density_diffrn 3.98
_exptl_special_details
;
H atoms have been added according to the paper to balance the charges

;
_exptl_crystal_description 'block'
_diffrn_ambient_temperature 296.1
_refine_special_details
;
The SQUEEZE/PLATON program has been used to model some disorder.

;
#These two values have been output from a single CSD field.
_refine_ls_R_factor_gt 0.0616
_refine_ls_wR_factor_gt 0.0616
_symmetry_cell_setting triclinic
_symmetry_space_group_name_H-M 'P -1'
_symmetry_Int_Tables_number 2
loop_
_symmetry_equiv_pos_site_id
_symmetry_equiv_pos_as_xyz
1 x,y,z
2 -x,-y,-z
_cell_length_a 13.6198(16)
_cell_length_b 14.9084(17)
_cell_length_c 22.869(3)
_cell_angle_alpha 71.857(1)
_cell_angle_beta 86.252(1)
_cell_angle_gamma 73.156(1)
_cell_formula_units_Z 1
loop_
_atom_type_symbol
_atom_type_radius_bond
C 0.68
H 0.23
Ag 1.45
N 0.68
O 0.68
P 1.05
W 1.62
loop_
_atom_site_label
_atom_site_type_symbol
_atom_site_fract_x
_atom_site_fract_y
_atom_site_fract_z
C1 C 0.2856(16) 0.2486(14) 0.4343(7)
H1 H 0.31760 0.26480 0.39680
N1 N 0.1756(18) 0.558(2) 0.5988(10)
N2 N 0.1995(16) 0.2153(15) 0.4437(9)
N3 N 0.2529(13) 0.2214(12) 0.5298(7)
C2 C 0.3162(14) 0.2541(13) 0.4875(9)
H2 H 0.37080 0.27630 0.49350
C3 C 0.1808(16) 0.1961(15) 0.5047(9)
H3 H 0.12900 0.17070 0.52530
C4 C 0.264(2) 0.2114(19) 0.5956(9)
H4 H 0.33210 0.21340 0.60410
H5 H 0.25530 0.14870 0.62090
C5 C 0.212(4) 0.396(2) 0.5975(15)
H6 H 0.26920 0.38350 0.62460
H7 H 0.23570 0.41200 0.55570
C6 C 0.260(2) 0.577(2) 0.5740(12)
H8 H 0.31510 0.53720 0.55930
C7 C 0.136(3) 0.479(2) 0.6036(16)
H9 H 0.10430 0.46110 0.64330
H10 H 0.08280 0.49890 0.57200
C8 C 0.245(3) 0.667(2) 0.5754(13)
H11 H 0.29360 0.70070 0.55920
N4 N 0.161(2) 0.711(2) 0.6002(14)
C9 C 0.116(3) 0.640(2) 0.6103(15)
H12 H 0.04910 0.64660 0.62410
C10 C 0.181(2) 0.298(3) 0.6115(13)
H13 H 0.16640 0.27580 0.65490
H14 H 0.11830 0.31130 0.58840
O1 O 0.0539(10) 0.8130(9) 0.4657(6)
O2 O 0.1914(8) 0.6871(7) 0.2169(5)
O3 O 0.1622(8) 0.8924(8) 0.2284(4)
W1 W 0.52423(5) 0.84156(5) 0.26040(3)
W2 W -0.01430(5) 0.92563(5) 0.25925(3)
W3 W 0.14732(5) 0.73660(5) 0.11100(3)
W4 W 0.56047(5) 0.58698(5) 0.25017(3)
W5 W 0.02316(5) 0.67431(5) 0.24306(3)
W6 W 0.16846(5) 0.56278(5) 0.39107(3)
W7 W 0.42440(5) 0.52010(5) 0.39463(3)
W8 W 0.39250(5) 0.77187(5) 0.40624(3)
W9 W 0.10888(5) 0.98795(5) 0.12714(3)
W10 W 0.38954(5) 0.94085(5) 0.12627(3)
W11 W 0.13522(5) 0.81418(5) 0.40524(3)
W12 W 0.31560(5) 0.47941(5) 0.14929(3)
W13 W 0.35996(5) 1.03591(5) 0.32197(3)
W14 W 0.10183(5) 1.07863(5) 0.31883(3)
W15 W 0.19214(5) 0.41837(5) 0.28210(3)
W16 W 0.42990(5) 0.68683(5) 0.11408(3)
W17 W 0.45232(5) 0.37531(5) 0.28552(3)
W18 W 0.22789(5) 1.13859(5) 0.18630(3)
P1 P 0.2557(3) 0.8871(3) 0.26428(16)
P2 P 0.2937(3) 0.6209(3) 0.24953(16)
O4 O 0.5489(8) 0.7211(7) 0.2424(5)
O5 O 0.4344(9) 0.4188(8) 0.3554(5)
O6 O -0.0039(8) 0.8095(8) 0.2382(5)
O7 O 0.0887(10) 0.5390(8) 0.2481(5)
O8 O 0.1088(8) 0.8625(7) 0.1199(4)
O9 O 0.3950(9) 0.6428(8) 0.4099(5)
O10 O 0.2069(9) 0.5941(8) 0.1242(5)
O11 O 0.3545(8) 0.8622(8) 0.2293(4)
O12 O 0.4300(9) 0.8119(8) 0.1212(5)
O13 O 0.1374(8) 1.0881(7) 0.1519(5)
O14 O 0.3660(8) 0.9139(8) 0.3827(5)
O15 O 0.1673(9) 0.6806(8) 0.4086(5)
O16 O 0.3363(9) 1.0556(8) 0.1536(5)
O17 O 0.2847(9) 0.7411(8) 0.0986(5)
O18 O 0.4597(8) 0.9598(8) 0.2802(4)
O19 O 0.1244(8) 0.9538(7) 0.3808(5)
O20 O 0.1190(9) 1.1698(8) 0.2412(5)
O21 O 0.1905(9) 0.4615(8) 0.3518(5)
O22 O 0.0310(8) 0.7072(8) 0.1554(5)
O23 O 0.2918(8) 0.6090(8) 0.3186(4)
O24 O 0.5114(9) 0.9109(8) 0.1742(5)
O25 O -0.0997(9) 0.6643(8) 0.2515(5)
O26 O 0.5306(9) 0.4678(7) 0.2536(5)
O27 O 0.2422(8) 0.9921(8) 0.2703(5)
O28 O 0.3074(8) 0.5154(7) 0.2431(4)
O29 O 0.2611(8) 0.8169(7) 0.3299(5)
O30 O 0.3859(8) 0.6543(8) 0.2188(5)
O31 O 0.2627(8) 0.7877(8) 0.4470(5)
O32 O 0.5547(9) 0.6236(8) 0.1611(5)
O33 O 0.226(1) 0.4110(9) 0.2003(5)
O34 O -0.0131(9) 0.9949(8) 0.1733(5)
O35 O 0.4844(8) 0.7767(7) 0.3402(5)
O36 O 0.1059(8) 0.7654(9) 0.0370(5)
O37 O 0.2123(10) 1.2510(8) 0.1316(5)
O38 O 0.0570(9) 1.0608(9) 0.0557(5)
O39 O 0.3227(9) 1.1379(8) 0.2440(5)
O40 O 0.0195(8) 1.0313(8) 0.2781(5)
O41 O 0.2498(8) 0.9504(8) 0.1098(5)
O42 O 0.4248(9) 1.0000(9) 0.0560(5)
O43 O 0.4318(9) 1.0845(9) 0.3554(5)
O44 O 0.4752(9) 0.7442(9) 0.4666(5)
O45 O 0.5121(8) 0.4502(8) 0.4526(5)
O46 O 0.4756(10) 0.7013(10) 0.0407(5)
O47 O 0.5118(9) 0.5680(8) 0.3300(5)
O48 O 0.3011(9) 0.4981(8) 0.4322(5)
O49 O 0.4065(9) 0.5622(8) 0.1265(5)
O50 O 0.3301(10) 0.4323(9) 0.0895(6)
O51 O 0.0424(8) 0.8463(8) 0.3388(5)
O52 O 0.4265(8) 0.3806(8) 0.2030(5)
O53 O 0.0703(8) 0.6392(8) 0.3254(5)
O54 O 0.2250(9) 1.0897(8) 0.3485(5)
O55 O 0.3300(9) 0.3333(8) 0.3082(5)
O56 O 0.5445(9) 0.2659(8) 0.3094(6)
O57 O 0.6486(9) 0.8353(9) 0.2726(5)
O58 O 0.0949(10) 0.5189(10) 0.4482(5)
O59 O 0.6883(9) 0.5429(8) 0.2625(6)
O60 O 0.0116(9) 1.1541(8) 0.3519(6)
O61 O 0.1212(10) 0.3362(9) 0.3058(5)
O62 O -0.1444(10) 0.9595(9) 0.2712(6)
Ag1 Ag 0.00000 0.00000 0.50000
N5 N -0.3109(11) 0.0711(11) 0.4433(6)
N6 N -0.1405(12) 0.0316(12) 0.4572(7)
C11 C -0.2316(13) 0.0537(12) 0.4817(9)
H15 H -0.24020 0.05710 0.52170
C12 C -0.2694(15) 0.0593(16) 0.3905(8)
H16 H -0.30420 0.06450 0.35540
C13 C -0.1665(15) 0.0385(17) 0.3984(9)
H17 H -0.11930 0.02990 0.36790
C14 C -0.4442(12) -0.0084(12) 0.4901(8)
H18 H -0.39910 -0.04410 0.52610
H19 H -0.43140 -0.04850 0.46260
C15 C -0.4200(14) 0.0875(12) 0.4579(8)
H20 H -0.46130 0.12090 0.42020
H21 H -0.43770 0.12970 0.48420
Ag2 Ag 0.50000 0.50000 0.00000
N7 N 0.6266(15) 0.4025(14) 0.0592(8)
N8 N 0.7224(15) 0.2998(16) 0.1365(9)
C16 C 0.6379(15) 0.3755(18) 0.1179(10)
H22 H 0.59360 0.40430 0.14390
C17 C 0.712(2) 0.348(2) 0.0376(12)
H23 H 0.72780 0.35550 -0.00350
C18 C 0.760(2) 0.248(2) 0.2007(13)
H24 H 0.79000 0.17860 0.20590
H25 H 0.70270 0.25490 0.22820
C19 C 0.769(3) 0.283(2) 0.0865(14)
H26 H 0.82930 0.23460 0.08550
C20 C 0.840(2) 0.291(3) 0.2171(13)
H27 H 0.86370 0.25650 0.25900
H28 H 0.89690 0.28320 0.19020
H29 H 0.80980 0.35940 0.21250
N9 N 0.5804(12) 0.1130(11) 0.1138(7)
C21 C 0.6133(15) 0.0706(15) 0.0660(9)
H30 H 0.56280 0.10180 0.03240
H31 H 0.61680 0.00130 0.08110
C22 C 0.7202(18) 0.0811(18) 0.0409(11)
H32 H 0.73230 0.05780 0.00520
H33 H 0.71500 0.15080 0.02650
N10 N 0.7983(15) -0.1377(15) 0.0889(8)
C23 C 0.8640(15) -0.0725(17) 0.0822(10)
H34 H 0.90210 -0.07130 0.04470
H35 H 0.91340 -0.10070 0.11630
C24 C 0.758(2) -0.1852(17) 0.1421(11)
H36 H 0.77190 -0.18680 0.18170
N11 N 0.4984(17) 0.2126(14) 0.1589(10)
C25 C 0.509(2) 0.2004(15) 0.1038(11)
C26 C 0.606(2) 0.0768(18) 0.176(1)
H37 H 0.65370 0.01740 0.19550
C27 C 0.761(2) -0.161(2) 0.0413(12)
H38 H 0.77610 -0.14040 -0.00010
C28 C 0.696(2) -0.2285(19) 0.1268(14)
H39 H 0.65510 -0.26210 0.15380
C29 C 0.551(2) 0.141(2) 0.2030(12)
C30 C 0.808(2) 0.034(2) 0.0798(13)
H40 H 0.78830 0.03410 0.12130
H41 H 0.85640 0.07230 0.06700
N12 N 0.701(2) -0.216(2) 0.0646(12)
O63 O 0.9710(16) 0.7218(13) 0.9573(9)
H42 H 0.93870 0.77490 0.93070
H43 H 1.00710 0.73670 0.97980
N5A N -0.6891(11) -0.0711(11) 0.5567(6)
N6A N -0.8595(12) -0.0316(12) 0.5428(7)
C11A C -0.7684(13) -0.0537(12) 0.5183(9)
H15A H -0.75980 -0.05710 0.47830
C12A C -0.7306(15) -0.0593(16) 0.6095(8)
H16A H -0.69580 -0.06450 0.64460
C13A C -0.8335(15) -0.0385(17) 0.6016(9)
H17A H -0.88070 -0.02990 0.63210
C14A C -0.5558(12) 0.0084(12) 0.5099(8)
H18A H -0.60090 0.04410 0.47390
H19A H -0.56860 0.04850 0.53740
C15A C -0.5800(14) -0.0875(12) 0.5421(8)
H20A H -0.53870 -0.12090 0.57980
H21A H -0.56230 -0.12970 0.51580
Ag1* Ag -1.00000 0.00000 0.50000
N6A* N 0.1405(12) -0.0316(12) 0.5428(7)
N7A N 0.3734(15) 0.5975(14) -0.0592(8)
N8A N 0.2776(15) 0.7002(16) -0.1365(9)
C16A C 0.3621(15) 0.6245(18) -0.1179(10)
H22A H 0.40640 0.59570 -0.14390
C17A C 0.288(2) 0.652(2) -0.0376(12)
H23A H 0.27220 0.64450 0.00350
C18A C 0.240(2) 0.752(2) -0.2007(13)
H24A H 0.21000 0.82140 -0.20590
H25A H 0.29730 0.74510 -0.22820
C19A C 0.231(3) 0.717(2) -0.0865(14)
H26A H 0.17070 0.76540 -0.08550
C20A C 0.160(2) 0.709(3) -0.2171(13)
H27A H 0.13630 0.74350 -0.25900
H28A H 0.10310 0.71680 -0.19020
H29A H 0.19020 0.64060 -0.21250
#END
