
#######################################################################
#
#                 Cambridge Crystallographic Data Centre
#                                CCDC
#
#######################################################################
#
# If this CIF has been generated from an entry in the Cambridge
# Structural Database, then it will include bibliographic, chemical,
# crystal, experimental, refinement or atomic coordinate data resulting
# from the CCDC's data processing and validation procedures.
#
#######################################################################

data_CSD_CIF_BEWWEH
_audit_creation_date 2013-05-18
_audit_creation_method CSD-ConQuest-V1
_database_code_CSD BEWWEH
_database_code_depnum_ccdc_archive 'CCDC 915417'
_chemical_formula_sum 'C52.64 H57.28 Cr2 Mn4 N5 O34.5'
_chemical_formula_moiety
;
(C20 H23 Mn1 N3 O3 1+)n,n(C19 H24 Mn1 N2 O4 1+),n(C12 Cr2 Mn2 O24 
2-),1.64n(C1 H4 O1),1.86n(H2 O1)
;
_journal_coden_Cambridge 222
_journal_volume 42
_journal_year 2013
_journal_page_first 5100
_journal_name_full 'Dalton Trans. '
loop_
_publ_author_name
"M.Clemente-Leon"
"E.Coronado"
"M.Lopez-Jorda"
_chemical_name_systematic
;
catena-[(Acetonitrile)-(methanol)-(2,2'-(propane-1,3-diylbis((nitrilo)methylyl
idene))diphenolato)-manganese 
(2,2'-(propane-1,3-diylbis(nitrilomethylylidene))diphenolato)-dimethanol-manga
nese hexakis(\m~2~-oxalato)-di-chromium-di-manganese methanol solvate 
hydrate]
;
_cell_volume   6902.772
_exptl_crystal_colour 'red'
_exptl_crystal_density_diffrn 1.567
_exptl_crystal_description 'prism'
_diffrn_ambient_temperature 120
_refine_special_details
;
C3MA,C6M,C7M,O6M,O7M and C3MB,O4W,O5W,O6W disordered over two sites with 
occupancies 0.642:0.358.
;
#These two values have been output from a single CSD field.
_refine_ls_R_factor_gt 0.0445
_refine_ls_wR_factor_gt 0.0445
_symmetry_cell_setting orthorhombic
_symmetry_space_group_name_H-M 'P 21 21 21'
_symmetry_Int_Tables_number 19
loop_
_symmetry_equiv_pos_site_id
_symmetry_equiv_pos_as_xyz
1 x,y,z
2 1/2-x,-y,1/2+z
3 1/2+x,1/2-y,-z
4 -x,1/2+y,1/2-z
_cell_length_a 14.5286(4)
_cell_length_b 20.8778(7)
_cell_length_c 22.7570(6)
_cell_angle_alpha 90
_cell_angle_beta 90
_cell_angle_gamma 90
_cell_formula_units_Z 4
loop_
_atom_type_symbol
_atom_type_radius_bond
C 0.68
H 0.23
Cr 1.39
Mn 1.61
N 0.68
O 0.68
loop_
_atom_site_label
_atom_site_type_symbol
_atom_site_fract_x
_atom_site_fract_y
_atom_site_fract_z
C1 C 0.0717(3) 0.5693(2) 0.1299(2)
C2 C 0.1596(3) 0.5887(2) 0.1477(2)
H1 H 0.16520 0.62210 0.17590
C3 C 0.2377(3) 0.5608(3) 0.1257(2)
H2 H 0.29610 0.57340 0.14040
C4 C 0.2325(3) 0.5142(3) 0.0819(3)
H3 H 0.28720 0.49550 0.06690
C5 C 0.1486(3) 0.4954(2) 0.0607(2)
H4 H 0.14450 0.46410 0.03050
C6 C 0.0680(3) 0.5235(2) 0.0845(2)
C7 C -0.0187(3) 0.5090(2) 0.0555(2)
H5 H -0.01540 0.48570 0.01970
C8 C -0.1768(3) 0.5160(2) 0.03127(19)
H6 H -0.15390 0.49220 -0.00340
H7 H -0.19820 0.55850 0.01770
C9 C -0.2568(3) 0.4801(3) 0.0578(2)
H8 H -0.23420 0.43890 0.07360
H9 H -0.30170 0.47040 0.02630
C10 C -0.3057(3) 0.5159(3) 0.1063(2)
H10 H -0.36280 0.49270 0.11660
H11 H -0.32330 0.55890 0.09180
C11 C -0.2850(3) 0.5071(2) 0.2088(2)
H12 H -0.34380 0.48760 0.20590
C12 C -0.2484(3) 0.5149(2) 0.2673(2)
C13 C -0.2927(3) 0.4861(2) 0.3146(2)
H13 H -0.34360 0.45870 0.30710
C14 C -0.2653(4) 0.4961(2) 0.3723(2)
H14 H -0.29540 0.47540 0.40410
C15 C -0.1924(3) 0.5373(2) 0.3816(2)
H15 H -0.17330 0.54570 0.42070
C16 C -0.1470(3) 0.5664(2) 0.3364(2)
H16 H -0.09640 0.59360 0.34510
C17 C -0.1728(3) 0.5573(2) 0.27711(18)
N1 N -0.0996(2) 0.52493(18) 0.07377(15)
N2 N -0.2475(2) 0.52341(17) 0.16098(16)
O1 O -0.00163(18) 0.59543(13) 0.15253(13)
O2 O -0.12921(19) 0.58719(13) 0.23460(12)
Mn1 Mn -0.12000(4) 0.56076(3) 0.15476(3)
N3 N -0.0610(3) 0.4613(2) 0.19255(18)
C18 C -0.0585(4) 0.4368(3) 0.2361(3)
C19 C -0.0618(4) 0.4040(3) 0.2956(2)
H17 H -0.12560 0.40200 0.30930
H18 H -0.02470 0.42830 0.32380
H19 H -0.03710 0.36050 0.29200
O3 O -0.18325(19) 0.64985(13) 0.12535(13)
C20 C -0.1449(3) 0.6944(2) 0.0836(2)
H20 H -0.09630 0.71950 0.10260
H21 H -0.19340 0.72320 0.06960
H22 H -0.11900 0.67070 0.05030
C21 C -0.1904(3) 0.8702(3) 0.1886(2)
C22 C -0.2037(4) 0.8929(3) 0.1315(2)
H23 H -0.20370 0.86420 0.09910
C23 C -0.2171(5) 0.9587(3) 0.1228(3)
H24 H -0.22970 0.97390 0.08430
C24 C -0.2125(5) 1.0018(3) 0.1681(3)
H25 H -0.22100 1.04620 0.16080
C25 C -0.1958(5) 0.9808(3) 0.2235(3)
H26 H -0.19130 1.01060 0.25490
C26 C -0.1852(4) 0.9156(3) 0.2345(2)
C27 C -0.1612(4) 0.8949(3) 0.2933(2)
H27 H -0.14480 0.92750 0.32050
C28 C -0.1214(4) 0.8268(3) 0.3714(2)
H28 H -0.10670 0.86860 0.38970
H29 H -0.06310 0.80250 0.36760
C29 C -0.1854(4) 0.7905(3) 0.4112(2)
H30 H -0.24550 0.81280 0.41210
H31 H -0.15990 0.79120 0.45160
C30 C -0.2009(4) 0.7218(3) 0.3932(2)
H32 H -0.14060 0.70020 0.38900
H33 H -0.23550 0.69950 0.42460
C31 C -0.3222(4) 0.6787(2) 0.3373(2)
H34 H -0.33930 0.66120 0.37430
C32 C -0.3781(3) 0.6602(3) 0.2867(2)
C33 C -0.4597(3) 0.6266(3) 0.2960(2)
H35 H -0.47860 0.61770 0.33510
C34 C -0.5127(4) 0.6061(3) 0.2508(3)
H36 H -0.56880 0.58420 0.25820
C35 C -0.4841(4) 0.6175(3) 0.1930(3)
H37 H -0.52100 0.60310 0.16120
C36 C -0.4025(3) 0.6497(3) 0.1819(2)
H38 H -0.38310 0.65650 0.14250
C37 C -0.3481(3) 0.6724(2) 0.2289(2)
N4 N -0.1597(3) 0.8381(2) 0.31223(17)
N5 N -0.2528(3) 0.71598(19) 0.33677(16)
O4 O -0.1777(2) 0.80856(19) 0.19665(13)
O5 O -0.2693(2) 0.70207(15) 0.21711(12)
Mn2 Mn -0.21333(5) 0.76495(4) 0.26475(3)
O6 O -0.08594(19) 0.70691(14) 0.26603(13)
C38 C 0.0032(3) 0.7262(2) 0.2466(3)
H39 H -0.00190 0.74710 0.20820
H40 H 0.04310 0.68860 0.24340
H41 H 0.02960 0.75640 0.27500
O7 O -0.3491(2) 0.81639(16) 0.26576(15)
C39 C -0.4184(6) 0.8178(4) 0.2145(4)
H42 H -0.46910 0.78820 0.22280
H43 H -0.38740 0.80490 0.17820
H44 H -0.44270 0.86130 0.21000
O8 O -0.3988(4) 0.9065(3) 0.3379(3)
C40 C -0.4346(6) 0.9586(5) 0.3097(4)
H45 H -0.47900 0.98000 0.33550
H46 H -0.46560 0.94470 0.27370
H47 H -0.38490 0.98840 0.29980
C41? C -0.384(1) 0.8529(7) 0.3110(6)
H48? H -0.43850 0.87620 0.29720
H49? H -0.33720 0.88360 0.32410
H50? H -0.40120 0.82500 0.34380
O9? O -0.4440(12) 0.8482(8) 0.1763(8)
C42 C 0.3923(3) 0.8266(2) 0.45847(19)
C43 C 0.4743(3) 0.7940(2) 0.42732(19)
C44 C 0.6372(3) 0.7956(2) 0.58850(19)
C45 C 0.7116(3) 0.8376(2) 0.55920(18)
C46 C 0.5188(3) 0.9956(2) 0.54612(19)
C47 C 0.5251(3) 0.9971(2) 0.47811(19)
C48 C 0.5541(3) 1.2188(2) 0.42924(18)
C49 C 0.6422(3) 1.1883(2) 0.45803(19)
C50 C 0.3082(3) 1.1562(2) 0.55868(18)
C51 C 0.3758(3) 1.1946(2) 0.59687(19)
C52 C 0.3086(3) 0.7220(2) 0.2421(2)
C53 C 0.3144(3) 0.7962(2) 0.2468(2)
O10 O 0.41253(18) 0.86229(14) 0.50230(12)
O11 O 0.5530(2) 0.80942(15) 0.44755(13)
O12 O 0.3143(2) 0.81636(16) 0.44048(13)
O13 O 0.45841(18) 0.75680(15) 0.38658(13)
O14 O 0.5553(2) 0.80572(14) 0.57218(13)
O15 O 0.68139(19) 0.87600(15) 0.52115(12)
O16 O 0.66248(19) 0.75424(15) 0.62517(13)
O17 O 0.7932(2) 0.83097(15) 0.57392(12)
O18 O 0.53077(19) 0.94133(16) 0.56918(12)
O19 O 0.5445(2) 0.94393(15) 0.45464(12)
O20 O 0.5046(2) 1.04616(16) 0.57208(12)
O21 O 0.5087(2) 1.04788(15) 0.45276(13)
O22 O 0.4794(2) 1.20176(15) 0.44713(13)
O23 O 0.63207(19) 1.15225(15) 0.49945(13)
O24 O 0.57157(18) 1.25941(14) 0.38855(12)
O25 O 0.71796(19) 1.20499(14) 0.43452(12)
O26 O 0.33965(18) 1.12261(15) 0.51977(13)
O27 O 0.4593(2) 1.19012(15) 0.58782(13)
O28 O 0.2236(2) 1.16331(14) 0.57215(12)
O29 O 0.33852(19) 1.22880(14) 0.63803(12)
O30 O 0.3099(2) 0.69056(14) 0.28787(13)
O31 O 0.3183(2) 0.82117(15) 0.29532(13)
O32 O 0.3048(2) 0.69991(14) 0.19041(13)
O33 O 0.3137(2) 0.82530(14) 0.19742(13)
Cr1 Cr 0.29614(5) 0.76762(4) 0.12993(3)
Cr2 Cr 0.54697(5) 0.87224(4) 0.51162(3)
Mn3 Mn 0.48872(5) 1.12838(4) 0.51468(3)
Mn4 Mn 0.31256(5) 0.75019(4) 0.36530(3)
O34 O 0.4324(5) 0.5806(4) 0.4318(3)
O35 O 0.6069(4) 0.6164(3) 0.4628(3)
C54 C 0.5826(6) 0.6551(4) 0.5067(4)
H51 H 0.59830 0.63500 0.54430
H52 H 0.51610 0.66290 0.50510
H53 H 0.61550 0.69590 0.50310
O36 O 0.0523(7) 0.6270(5) 0.9618(4)
C55 C 0.0249(10) 0.5719(7) 0.9206(7)
H54 H 0.06160 0.53390 0.93000
H55 H 0.03600 0.58450 0.87980
H56 H -0.04060 0.56210 0.92590
O37? O -0.0129(8) 0.6016(6) 0.9528(5)
O38? O 0.1132(5) 0.6594(3) 0.9846(3)
O16B O 0.16248(19) 0.74576(15) 0.37483(13)
O17B O 0.2932(2) 0.66903(15) 0.42608(12)
O24C O 0.42843(18) 0.75941(14) 0.11145(12)
O25C O 0.28204(19) 0.70499(14) 0.06548(12)
O28A O 0.2764(2) 0.83669(14) 0.07215(12)
O29A O 0.16148(19) 0.77120(14) 0.13803(12)
Cr1A Cr 0.20386(5) 1.23238(4) 0.62993(3)
Cr1C Cr 0.70386(5) 1.26762(4) 0.37007(3)
Mn4B Mn 0.81256(5) 0.74981(4) 0.63470(3)
#END
