
#######################################################################
#
#                 Cambridge Crystallographic Data Centre
#                                CCDC
#
#######################################################################
#
# If this CIF has been generated from an entry in the Cambridge
# Structural Database, then it will include bibliographic, chemical,
# crystal, experimental, refinement or atomic coordinate data resulting
# from the CCDC's data processing and validation procedures.
#
#######################################################################

data_CSD_CIF_BEXQIF
_audit_creation_date 2004-11-11
_audit_creation_method CSD-ConQuest-V1
_database_code_CSD BEXQIF
_database_code_depnum_ccdc_archive 'CCDC 244141'
_chemical_formula_sum 'C50 H36 Fe2 N18 P2'
_chemical_formula_moiety
;
(C19 H18 P1 1+)2n,n(C12 Fe2 N18 2-)
;
_journal_coden_Cambridge 1147
_journal_volume 4
_journal_year 2004
_journal_page_first 503
_journal_name_full 'Cryst.Growth Des. '
loop_
_publ_author_name
"P.M.van der Werff"
"S.R.Batten"
"P.Jensen"
"B.Moubaraki"
"K.S.Murray"
"J.D.Cashion"
_chemical_name_systematic
;
catena-(bis(Methyltriphenylphosphonium) 
hexakis(\m~2~-dicyanamide)-di-iron(ii))
;
_cell_volume   4932.833
_exptl_crystal_colour 'colorless'
_exptl_crystal_density_diffrn 1.431
_exptl_special_details
;
isomorphous with the ethyltriphenylphosphonium salt and the cobalt, nickel 
and manganese analogues of both salts
;
_exptl_crystal_description 'block'
_diffrn_ambient_temperature 123
#These two values have been output from a single CSD field.
_refine_ls_R_factor_gt 0.0537
_refine_ls_wR_factor_gt 0.0537
_symmetry_cell_setting orthorhombic
_symmetry_space_group_name_H-M 'P 21 21 21'
_symmetry_Int_Tables_number 19
loop_
_symmetry_equiv_pos_site_id
_symmetry_equiv_pos_as_xyz
1 x,y,z
2 1/2-x,-y,1/2+z
3 -x,1/2+y,1/2-z
4 1/2+x,1/2-y,-z
_cell_length_a 13.9104(4)
_cell_length_b 17.0365(2)
_cell_length_c 20.8150(5)
_cell_angle_alpha 90
_cell_angle_beta 90
_cell_angle_gamma 90
_cell_formula_units_Z 4
loop_
_atom_type_symbol
_atom_type_radius_bond
C 0.68
H 0.23
Fe 1.34
N 0.68
P 1.05
loop_
_atom_site_label
_atom_site_type_symbol
_atom_site_fract_x
_atom_site_fract_y
_atom_site_fract_z
Fe1 Fe -0.12352(2) 0.199745(17) 0.075632(16)
Fe2 Fe 0.03537(2) 0.199408(18) 0.416915(17)
N1 N -0.17311(15) 0.20676(12) 0.17315(10)
C1 C -0.19272(18) 0.21020(13) 0.22631(13)
N2 N -0.10558(17) 0.21424(12) 0.37401(11)
C2 C -0.15729(19) 0.21308(13) 0.33118(13)
N3 N -0.22353(17) 0.21207(14) 0.28611(11)
N4 N 0.01973(15) 0.18791(11) 0.11774(10)
C3 C 0.07102(17) 0.18347(12) 0.16069(13)
N5 N 0.09199(16) 0.19166(12) 0.32048(11)
C4 C 0.10862(18) 0.18641(13) 0.26648(13)
N6 N 0.13617(16) 0.17915(11) 0.20635(10)
N7 N -0.06698(15) 0.20053(12) -0.02246(10)
C5 C -0.00662(19) 0.23392(14) -0.04822(12)
N8 N 0.22537(15) 0.28599(10) -0.05257(10)
C6 C 0.1449(2) 0.27872(13) -0.06426(11)
N9 N 0.05494(16) 0.27385(13) -0.08183(12)
N10 N -0.09907(16) 0.32390(11) 0.07184(11)
C7 C -0.05685(19) 0.38031(13) 0.06110(12)
N11 N -0.01641(17) 0.57625(11) 0.07670(11)
C8 C -0.01478(18) 0.51070(13) 0.06415(12)
N12 N -0.00122(17) 0.43880(11) 0.04500(11)
N13 N 0.17723(18) 0.18470(12) 0.45800(11)
C9 C 0.2603(2) 0.18577(13) 0.45857(12)
N14 N 0.46581(16) 0.28496(11) 0.48826(10)
C10 C 0.40882(19) 0.23831(15) 0.47478(12)
N15 N 0.35395(17) 0.17986(11) 0.45737(11)
N16 N -0.06097(17) -0.17730(11) 0.08589(11)
C11 C -0.10489(19) -0.12076(13) 0.08995(13)
N17 N -0.13552(16) 0.07615(10) 0.07064(10)
C12 C -0.14274(18) 0.01017(13) 0.08163(13)
N18 N -0.16422(17) -0.06195(11) 0.09684(12)
P1 P 0.26244(5) 0.59984(3) 0.65895(3)
C13 C 0.36700(18) 0.56453(12) 0.69972(11)
C14 C 0.36380(19) 0.49361(13) 0.73352(12)
H1 H 0.30740 0.46220 0.73250
C15 C 0.44247(18) 0.46955(14) 0.76821(13)
H2 H 0.44030 0.42130 0.79110
C16 C 0.52432(19) 0.51475(14) 0.77011(12)
H3 H 0.57810 0.49780 0.79450
C17 C 0.52866(19) 0.58538(14) 0.73630(13)
H4 H 0.58550 0.61620 0.73710
C18 C 0.44975(18) 0.61007(13) 0.70172(13)
H5 H 0.45200 0.65850 0.67910
C19 C 0.19261(19) 0.51863(13) 0.62926(11)
C20 C 0.0930(2) 0.51956(15) 0.63216(13)
H6 H 0.06060 0.56150 0.65310
C21 C 0.0407(2) 0.45905(16) 0.60441(14)
H7 H -0.02760 0.45950 0.60610
C22 C 0.0881(2) 0.39819(15) 0.57433(14)
H8 H 0.05210 0.35690 0.55530
C23 C 0.1874(2) 0.39640(15) 0.57143(14)
H9 H 0.21910 0.35390 0.55090
C24 C 0.2406(2) 0.45700(13) 0.59867(12)
H10 H 0.30880 0.45650 0.59650
C25 C 0.19382(18) 0.65865(13) 0.71369(12)
C26 C 0.1349(2) 0.71872(14) 0.69048(13)
H11 H 0.12920 0.72740 0.64560
C27 C 0.0848(2) 0.76563(16) 0.73360(15)
H12 H 0.04420 0.80630 0.71800
C28 C 0.0936(2) 0.75355(15) 0.79879(15)
H13 H 0.05990 0.78640 0.82800
C29 C 0.1512(2) 0.69377(15) 0.82168(13)
H14 H 0.15630 0.68500 0.86660
C30 C 0.2015(2) 0.64656(14) 0.77930(13)
H15 H 0.24150 0.60580 0.79530
C31 C 0.29512(19) 0.65758(13) 0.59070(11)
H16 H 0.33330 0.70280 0.60470
H17 H 0.23690 0.67610 0.56900
H18 H 0.33310 0.62560 0.56090
P2 P 0.35877(5) -0.06159(3) 0.15887(3)
C32 C 0.47502(18) -0.01648(12) 0.15713(12)
C33 C 0.50958(19) 0.02514(14) 0.20980(13)
H19 H 0.47230 0.02830 0.24800
C34 C 0.59798(19) 0.06197(14) 0.20674(13)
H20 H 0.62160 0.09030 0.24270
C35 C 0.65170(19) 0.05737(14) 0.15125(13)
H21 H 0.71220 0.08310 0.14910
C36 C 0.6186(2) 0.01566(15) 0.09857(13)
H22 H 0.65630 0.01280 0.06060
C37 C 0.5302(2) -0.02195(14) 0.10134(12)
H23 H 0.50740 -0.05120 0.06560
C38 C 0.27954(18) -0.01076(13) 0.10512(11)
C39 C 0.1921(2) -0.04626(15) 0.08870(13)
H24 H 0.17760 -0.09750 0.10390
C40 C 0.1272(2) -0.00690(17) 0.05057(14)
H25 H 0.06800 -0.03110 0.03940
C41 C 0.1480(2) 0.06801(17) 0.02844(13)
H26 H 0.10250 0.09560 0.00300
C42 C 0.2349(2) 0.10238(16) 0.04343(13)
H27 H 0.24960 0.15310 0.02730
C43 C 0.3010(2) 0.06333(14) 0.08192(13)
H28 H 0.36070 0.08740 0.09230
C44 C 0.31392(18) -0.05334(13) 0.23893(12)
C45 C 0.3237(2) -0.11356(14) 0.28402(13)
H29 H 0.34980 -0.16270 0.27130
C46 C 0.2961(2) -0.10223(15) 0.34607(14)
H30 H 0.30190 -0.14390 0.37610
C47 C 0.2594(2) -0.03035(14) 0.36595(13)
H31 H 0.24160 -0.02260 0.40950
C48 C 0.2491(2) 0.02973(15) 0.32207(12)
H32 H 0.22360 0.07880 0.33550
C49 C 0.27580(18) 0.01902(14) 0.25857(12)
H33 H 0.26830 0.06050 0.22850
C50 C 0.3692(2) -0.16201(13) 0.13351(13)
H34 H 0.41300 -0.19000 0.16240
H35 H 0.39460 -0.16380 0.08960
H36 H 0.30580 -0.18700 0.13460
N8C N -0.27463(15) 0.21401(10) 0.05257(10)
N11B N 0.01641(17) 0.07625(11) 0.42330(11)
N14C N -0.03419(16) 0.21504(11) 0.51174(10)
N16B N 0.06097(17) 0.32270(11) 0.41411(11)
Fe1C Fe 0.37648(2) 0.300255(17) -0.075632(16)
Fe2B Fe -0.03537(2) 0.699408(18) 0.083085(17)
Fe2C Fe 0.53537(2) 0.300592(18) 0.583085(17)
Fe2B* Fe -0.03537(2) -0.300592(18) 0.083085(17)
#END
