
#######################################################################
#
#                 Cambridge Crystallographic Data Centre
#                                CCDC
#
#######################################################################
#
# If this CIF has been generated from an entry in the Cambridge
# Structural Database, then it will include bibliographic, chemical,
# crystal, experimental, refinement or atomic coordinate data resulting
# from the CCDC's data processing and validation procedures.
#
#######################################################################

data_CSD_CIF_BEXQOL
_audit_creation_date 2004-11-11
_audit_creation_method CSD-ConQuest-V1
_database_code_CSD BEXQOL
_database_code_depnum_ccdc_archive 'CCDC 244142'
_chemical_formula_sum 'C50 H36 Co2 N18 P2'
_chemical_formula_moiety
;
(C19 H18 P1 1+)2n,n(C12 Co2 N18 2-)
;
_journal_coden_Cambridge 1147
_journal_volume 4
_journal_year 2004
_journal_page_first 503
_journal_name_full 'Cryst.Growth Des. '
loop_
_publ_author_name
"P.M.van der Werff"
"S.R.Batten"
"P.Jensen"
"B.Moubaraki"
"K.S.Murray"
"J.D.Cashion"
_chemical_name_systematic
;
catena-(bis(Methyltriphenylphosphonium) 
hexakis(\m~2~-dicyanamide)-di-cobalt(ii))
;
_cell_volume   4883.741
_exptl_crystal_colour 'purple'
_exptl_crystal_density_diffrn 1.454
_exptl_special_details
;
isomorphous with the ethyltriphenylphosphonium salt and the iron, nickel and 
manganese analogues of both salts
;
_exptl_crystal_description 'plate'
_diffrn_ambient_temperature 123
#These two values have been output from a single CSD field.
_refine_ls_R_factor_gt 0.0387
_refine_ls_wR_factor_gt 0.0387
_symmetry_cell_setting orthorhombic
_symmetry_space_group_name_H-M 'P 21 21 21'
_symmetry_Int_Tables_number 19
loop_
_symmetry_equiv_pos_site_id
_symmetry_equiv_pos_as_xyz
1 x,y,z
2 1/2-x,-y,1/2+z
3 -x,1/2+y,1/2-z
4 1/2+x,1/2-y,-z
_cell_length_a 13.8718(2)
_cell_length_b 16.9489(2)
_cell_length_c 20.7720(3)
_cell_angle_alpha 90
_cell_angle_beta 90
_cell_angle_gamma 90
_cell_formula_units_Z 4
loop_
_atom_type_symbol
_atom_type_radius_bond
C 0.68
H 0.23
Co 1.33
N 0.68
P 1.05
loop_
_atom_site_label
_atom_site_type_symbol
_atom_site_fract_x
_atom_site_fract_y
_atom_site_fract_z
Co1 Co -0.121661(16) 0.201710(13) 0.076078(10)
Co2 Co 0.036339(16) 0.201050(13) 0.415224(11)
N1 N -0.17174(11) 0.20764(10) 0.17182(7)
C1 C -0.19133(12) 0.21121(11) 0.22518(9)
N2 N -0.10228(12) 0.21431(10) 0.37269(8)
C2 C -0.15499(13) 0.21351(11) 0.33012(9)
N3 N -0.22156(12) 0.21329(12) 0.28531(8)
N4 N 0.01984(11) 0.18998(9) 0.11723(7)
C3 C 0.07155(12) 0.18454(9) 0.16063(9)
N5 N 0.09376(12) 0.19317(10) 0.32035(8)
C4 C 0.10968(13) 0.18749(10) 0.26620(9)
N6 N 0.13659(12) 0.17875(10) 0.20582(8)
N7 N -0.06562(11) 0.20206(10) -0.02045(7)
C5 C -0.00456(13) 0.23561(11) -0.04606(8)
N8 N 0.22928(11) 0.28526(8) -0.05252(7)
C6 C 0.14809(14) 0.27887(10) -0.06298(8)
N9 N 0.05720(12) 0.27585(11) -0.07969(9)
N10 N -0.09886(11) 0.32476(8) 0.07251(8)
C7 C -0.05762(14) 0.38198(10) 0.06200(9)
N11 N -0.01878(12) 0.57890(9) 0.07904(9)
C8 C -0.01671(13) 0.51338(10) 0.06583(9)
N12 N -0.00265(13) 0.44145(9) 0.04590(8)
N13 N 0.17633(12) 0.1880(1) 0.45557(8)
C9 C 0.25949(14) 0.18812(11) 0.45760(9)
N14 N 0.46675(11) 0.28484(9) 0.49111(7)
C10 C 0.40878(13) 0.23878(11) 0.47637(8)
N15 N 0.35342(12) 0.18113(9) 0.45740(8)
N16 N -0.06062(12) -0.17693(9) 0.08702(8)
C11 C -0.10402(14) -0.11938(10) 0.09046(9)
N17 N -0.13338(11) 0.07887(8) 0.07195(8)
C12 C -0.14069(13) 0.01267(10) 0.08199(9)
N18 N -0.16293(12) -0.06014(9) 0.09654(9)
P1 P 0.26248(3) 0.59846(3) 0.65851(2)
C13 C 0.36720(13) 0.56337(10) 0.69976(8)
C14 C 0.36460(13) 0.49232(10) 0.73346(9)
H1 H 0.30830 0.46040 0.73220
C15 C 0.44383(14) 0.46831(11) 0.76870(9)
H2 H 0.44200 0.41990 0.79180
C16 C 0.52534(14) 0.51445(12) 0.77036(9)
H3 H 0.57950 0.49780 0.79480
C17 C 0.52911(14) 0.58520(12) 0.73656(10)
H4 H 0.58590 0.61640 0.73770
C18 C 0.45039(13) 0.61002(11) 0.70143(9)
H5 H 0.45260 0.65850 0.67850
C19 C 0.19348(13) 0.51631(11) 0.62916(8)
C20 C 0.09308(14) 0.51705(13) 0.63179(10)
H6 H 0.06020 0.55920 0.65250
C21 C 0.04161(15) 0.45565(13) 0.60391(10)
H7 H -0.02680 0.45580 0.60550
C22 C 0.08912(16) 0.39470(13) 0.57398(11)
H8 H 0.05340 0.35300 0.55500
C23 C 0.18914(16) 0.39382(12) 0.57135(10)
H9 H 0.22150 0.35140 0.55080
C24 C 0.24179(15) 0.45465(11) 0.59863(9)
H10 H 0.31020 0.45440 0.59660
C25 C 0.19329(13) 0.6579(1) 0.71307(9)
C26 C 0.13345(16) 0.71725(12) 0.68954(10)
H11 H 0.12710 0.72500 0.64440
C27 C 0.08325(17) 0.76491(13) 0.73197(11)
H12 H 0.04170 0.80490 0.71600
C28 C 0.09335(16) 0.75447(13) 0.79743(11)
H13 H 0.06000 0.78820 0.82640
C29 C 0.15217(16) 0.69483(13) 0.82125(10)
H14 H 0.15810 0.68720 0.86640
C30 C 0.20190(15) 0.64666(11) 0.77922(9)
H15 H 0.24200 0.60580 0.79540
C31 C 0.29525(14) 0.65626(11) 0.58993(9)
H16 H 0.33360 0.70170 0.60390
H17 H 0.23680 0.67480 0.56820
H18 H 0.33330 0.62390 0.56020
P2 P 0.35949(3) -0.06247(3) 0.15828(2)
C32 C 0.47595(13) -0.01684(10) 0.15626(9)
C33 C 0.51042(14) 0.02489(11) 0.20938(9)
H19 H 0.47310 0.02770 0.24770
C34 C 0.59913(14) 0.06220(11) 0.20622(10)
H20 H 0.62270 0.09100 0.24210
C35 C 0.65315(14) 0.05715(11) 0.15027(10)
H21 H 0.71400 0.08270 0.14800
C36 C 0.61953(15) 0.01530(12) 0.09775(10)
H22 H 0.65730 0.01250 0.05970
C37 C 0.53113(14) -0.02252(11) 0.10034(9)
H23 H 0.50840 -0.05190 0.06450
C38 C 0.27945(13) -0.01174(11) 0.10470(8)
C39 C 0.19161(14) -0.04742(12) 0.08829(10)
H24 H 0.17680 -0.09890 0.10340
C40 C 0.12693(16) -0.00723(14) 0.05013(10)
H25 H 0.06750 -0.03130 0.03880
C41 C 0.14789(16) 0.06777(14) 0.02827(10)
H26 H 0.10230 0.09540 0.00260
C42 C 0.23447(16) 0.10273(13) 0.04343(10)
H27 H 0.24870 0.15410 0.02780
C43 C 0.30120(14) 0.06301(11) 0.08153(9)
H28 H 0.36130 0.08690 0.09160
C44 C 0.31441(13) -0.05367(11) 0.23892(9)
C45 C 0.32511(15) -0.11442(11) 0.28358(10)
H29 H 0.35130 -0.16380 0.27080
C46 C 0.29724(16) -0.10220(13) 0.34648(10)
H30 H 0.30310 -0.14380 0.37690
C47 C 0.26083(15) -0.03008(12) 0.36585(9)
H31 H 0.24320 -0.02210 0.40950
C48 C 0.25006(15) 0.03043(13) 0.32188(9)
H32 H 0.22460 0.07980 0.33530
C49 C 0.27649(13) 0.01897(12) 0.25812(9)
H33 H 0.26880 0.06030 0.22770
C50 C 0.37015(16) -0.16328(11) 0.13336(10)
H34 H 0.41410 -0.19120 0.16250
H35 H 0.39570 -0.16540 0.08940
H36 H 0.30660 -0.18840 0.13460
N8C N -0.27072(11) 0.21474(8) 0.05252(7)
N11B N 0.01878(12) 0.07890(9) 0.42096(9)
N14C N -0.03325(11) 0.21516(9) 0.50889(7)
N16B N 0.06062(12) 0.32307(9) 0.41298(8)
Co1C Co 0.378339(16) 0.298290(13) -0.076078(10)
Co2B Co -0.036339(16) 0.701050(13) 0.084776(11)
Co2C Co 0.536339(16) 0.298950(13) 0.584776(11)
Co2B* Co -0.036339(16) -0.298950(13) 0.084776(11)
#END
