
#######################################################################
#
#                 Cambridge Crystallographic Data Centre
#                                CCDC
#
#######################################################################
#
# If this CIF has been generated from an entry in the Cambridge
# Structural Database, then it will include bibliographic, chemical,
# crystal, experimental, refinement or atomic coordinate data resulting
# from the CCDC's data processing and validation procedures.
#
#######################################################################

data_CSD_CIF_BEXQUR
_audit_creation_date 2004-11-11
_audit_creation_method CSD-ConQuest-V1
_database_code_CSD BEXQUR
_database_code_depnum_ccdc_archive 'CCDC 244143'
_chemical_formula_sum 'C50 H36 N18 Ni2 P2'
_chemical_formula_moiety
;
(C19 H18 P1 1+)2n,n(C12 N18 Ni2 2-)
;
_journal_coden_Cambridge 1147
_journal_volume 4
_journal_year 2004
_journal_page_first 503
_journal_name_full 'Cryst.Growth Des. '
loop_
_publ_author_name
"P.M.van der Werff"
"S.R.Batten"
"P.Jensen"
"B.Moubaraki"
"K.S.Murray"
"J.D.Cashion"
_chemical_name_systematic
;
catena-(bis(Methyltriphenylphosphonium) 
hexakis(\m~2~-dicyanamide)-di-nickel(ii))
;
_cell_volume   4834.725
_exptl_crystal_colour 'green'
_exptl_crystal_density_diffrn 1.468
_exptl_special_details
;
isomorphous with the ethyltriphenylphosphonium salt and the iron, cobalt and 
manganese analogues of both salts
;
_exptl_crystal_description 'plate'
_diffrn_ambient_temperature 123
#These two values have been output from a single CSD field.
_refine_ls_R_factor_gt 0.0639
_refine_ls_wR_factor_gt 0.0639
_symmetry_cell_setting orthorhombic
_symmetry_space_group_name_H-M 'P 21 21 21'
_symmetry_Int_Tables_number 19
loop_
_symmetry_equiv_pos_site_id
_symmetry_equiv_pos_as_xyz
1 x,y,z
2 1/2-x,-y,1/2+z
3 -x,1/2+y,1/2-z
4 1/2+x,1/2-y,-z
_cell_length_a 13.8039(3)
_cell_length_b 16.8679(2)
_cell_length_c 20.7639(6)
_cell_angle_alpha 90
_cell_angle_beta 90
_cell_angle_gamma 90
_cell_formula_units_Z 4
loop_
_atom_type_symbol
_atom_type_radius_bond
C 0.68
H 0.23
N 0.68
Ni 1.50
P 1.05
loop_
_atom_site_label
_atom_site_type_symbol
_atom_site_fract_x
_atom_site_fract_y
_atom_site_fract_z
Ni1 Ni -0.12000(3) 0.20366(2) 0.077074(19)
Ni2 Ni 0.03669(3) 0.20287(2) 0.41362(2)
N1 N -0.17025(18) 0.20902(15) 0.17056(13)
C1 C -0.1899(2) 0.21249(17) 0.22406(17)
N2 N -0.09870(19) 0.21513(14) 0.37065(14)
C2 C -0.1528(2) 0.21475(17) 0.32899(16)
N3 N -0.2202(2) 0.21490(16) 0.28413(14)
N4 N 0.01937(19) 0.19252(14) 0.11780(13)
C3 C 0.0705(2) 0.18631(15) 0.16083(18)
N5 N 0.09432(18) 0.19501(14) 0.32062(14)
C4 C 0.1102(2) 0.18910(16) 0.26666(18)
N6 N 0.1369(2) 0.18000(13) 0.20623(14)
N7 N -0.06405(19) 0.20419(15) -0.01724(12)
C5 C -0.0025(2) 0.23723(17) -0.04300(15)
N8 N 0.23384(19) 0.28460(13) -0.05209(12)
C6 C 0.1519(2) 0.27914(15) -0.06147(15)
N9 N 0.06011(19) 0.27730(14) -0.07727(15)
N10 N -0.09897(18) 0.32539(13) 0.07437(14)
C7 C -0.0593(2) 0.38342(17) 0.06327(15)
N11 N -0.02045(18) 0.58229(13) 0.08092(14)
C8 C -0.0193(2) 0.51636(17) 0.06723(15)
N12 N -0.0062(2) 0.44429(14) 0.04606(14)
N13 N 0.1738(2) 0.19125(14) 0.45429(13)
C9 C 0.2570(3) 0.19064(16) 0.45697(16)
N14 N 0.46693(19) 0.28415(14) 0.49491(12)
C10 C 0.4088(2) 0.23985(18) 0.47890(16)
N15 N 0.3521(2) 0.18295(13) 0.45775(14)
N16 N -0.05880(19) -0.17625(13) 0.08913(14)
C11 C -0.1018(2) -0.11809(17) 0.09151(16)
N17 N -0.13084(18) 0.08224(13) 0.07311(13)
C12 C -0.1377(2) 0.01541(16) 0.08300(16)
N18 N -0.16099(19) -0.05812(13) 0.09644(15)
P1 P 0.26265(6) 0.59654(4) 0.65777(4)
C13 C 0.3677(2) 0.56166(15) 0.69953(14)
C14 C 0.3655(2) 0.49062(16) 0.73331(15)
H1 H 0.30900 0.45840 0.73200
C15 C 0.4441(2) 0.46672(18) 0.76855(16)
H2 H 0.44220 0.41800 0.79140
C16 C 0.5259(2) 0.51355(17) 0.77080(16)
H3 H 0.58000 0.49720 0.79580
C17 C 0.5297(2) 0.58438(17) 0.73677(16)
H4 H 0.58670 0.61590 0.73770
C18 C 0.4508(2) 0.60847(17) 0.70184(16)
H5 H 0.45270 0.65730 0.67910
C19 C 0.1940(2) 0.51377(17) 0.62834(15)
C20 C 0.0932(2) 0.51339(18) 0.63096(16)
H6 H 0.05960 0.55530 0.65180
C21 C 0.0422(3) 0.45150(19) 0.60308(17)
H7 H -0.02660 0.45110 0.60470
C22 C 0.0908(3) 0.39081(19) 0.57317(18)
H8 H 0.05550 0.34860 0.55410
C23 C 0.1906(3) 0.39064(18) 0.57060(17)
H9 H 0.22360 0.34810 0.55020
C24 C 0.2429(2) 0.45251(16) 0.59775(16)
H10 H 0.31160 0.45290 0.59540
C25 C 0.1923(2) 0.65626(16) 0.71231(16)
C26 C 0.1315(3) 0.71477(18) 0.68779(18)
H11 H 0.12450 0.72130 0.64260
C27 C 0.0812(3) 0.76358(19) 0.7301(2)
H12 H 0.03870 0.80320 0.71390
C28 C 0.0929(3) 0.75447(19) 0.7950(2)
H13 H 0.05930 0.78880 0.82360
C29 C 0.1528(2) 0.69608(19) 0.82005(17)
H14 H 0.15980 0.69000 0.86530
C30 C 0.2021(2) 0.64702(17) 0.77809(17)
H15 H 0.24300 0.60660 0.79460
C31 C 0.2953(2) 0.65417(16) 0.58939(16)
H16 H 0.33390 0.69990 0.60320
H17 H 0.23660 0.67270 0.56760
H18 H 0.33350 0.62160 0.55960
P2 P 0.36001(6) -0.06300(4) 0.15785(4)
C32 C 0.4769(2) -0.01728(15) 0.15593(16)
C33 C 0.5116(2) 0.02478(16) 0.20862(17)
H19 H 0.47400 0.02780 0.24690
C34 C 0.6009(2) 0.06241(17) 0.20565(17)
H20 H 0.62490 0.09100 0.24170
C35 C 0.6548(2) 0.05765(17) 0.14941(17)
H21 H 0.71530 0.08420 0.14670
C36 C 0.6213(2) 0.01485(17) 0.09741(17)
H22 H 0.65940 0.01130 0.05950
C37 C 0.5325(2) -0.02294(16) 0.10015(16)
H23 H 0.50970 -0.05250 0.06430
C38 C 0.2800(2) -0.01184(16) 0.10422(15)
C39 C 0.1913(2) -0.04753(18) 0.08757(18)
H24 H 0.17660 -0.09950 0.10230
C40 C 0.1260(3) -0.0068(2) 0.04988(17)
H25 H 0.06610 -0.03090 0.03870
C41 C 0.1469(3) 0.0684(2) 0.02831(17)
H26 H 0.10100 0.09650 0.00300
C42 C 0.2346(3) 0.10312(19) 0.04356(17)
H27 H 0.24940 0.15470 0.02810
C43 C 0.3011(2) 0.06290(16) 0.08135(17)
H28 H 0.36140 0.08690 0.09150
C44 C 0.3156(2) -0.05414(17) 0.23789(16)
C45 C 0.3270(2) -0.11403(18) 0.28410(17)
H29 H 0.35390 -0.16360 0.27180
C46 C 0.3002(3) -0.10212(19) 0.34602(17)
H30 H 0.30660 -0.14400 0.37630
C47 C 0.2633(2) -0.02926(18) 0.36586(17)
H31 H 0.24690 -0.02080 0.40980
C48 C 0.2507(2) 0.03033(18) 0.32139(17)
H32 H 0.22380 0.07960 0.33450
C49 C 0.2768(2) 0.01894(17) 0.25765(16)
H33 H 0.26860 0.06050 0.22730
C50 C 0.3705(3) -0.16392(16) 0.13269(17)
H34 H 0.41450 -0.19220 0.16180
H35 H 0.39620 -0.16590 0.08870
H36 H 0.30650 -0.18910 0.13380
N8C N -0.26616(19) 0.21540(13) 0.05209(12)
N11B N 0.02045(18) 0.08229(13) 0.41908(14)
N14C N -0.03307(19) 0.21585(14) 0.50509(12)
N16B N 0.05880(19) 0.32375(13) 0.41087(14)
Ni1C Ni 0.38000(3) 0.29634(2) -0.077074(19)
Ni2B Ni -0.03669(3) 0.70287(2) 0.08638(2)
Ni2C Ni 0.53669(3) 0.29713(2) 0.58638(2)
Ni2B* Ni -0.03669(3) -0.29713(2) 0.08638(2)
#END
