
#######################################################################
#
#                 Cambridge Crystallographic Data Centre
#                                CCDC
#
#######################################################################
#
# If this CIF has been generated from an entry in the Cambridge
# Structural Database, then it will include bibliographic, chemical,
# crystal, experimental, refinement or atomic coordinate data resulting
# from the CCDC's data processing and validation procedures.
#
#######################################################################

data_CSD_CIF_BEXREC
_audit_creation_date 2004-11-11
_audit_creation_method CSD-ConQuest-V1
_database_code_CSD BEXREC
_database_code_depnum_ccdc_archive 'CCDC 244145'
_chemical_formula_sum 'C52 H40 Co2 N18 P2'
_chemical_formula_moiety
;
(C20 H20 P1 1+)2n,n(C12 Co2 N18 2-)
;
_journal_coden_Cambridge 1147
_journal_volume 4
_journal_year 2004
_journal_page_first 503
_journal_name_full 'Cryst.Growth Des. '
loop_
_publ_author_name
"P.M.van der Werff"
"S.R.Batten"
"P.Jensen"
"B.Moubaraki"
"K.S.Murray"
"J.D.Cashion"
_chemical_name_systematic
;
catena-(bis(Ethyltriphenylphosphonium) 
hexakis(\m~2~-dicyanamide)-di-cobalt(ii))
;
_cell_volume   5132.460
_exptl_crystal_colour 'pink/purple'
_exptl_crystal_density_diffrn 1.419
_exptl_special_details
;
isomorphous with the methyltriphenylphosphonium salt and the iron, nickel and 
manganese analogues of both salts
;
_exptl_crystal_description 'needle'
_diffrn_ambient_temperature 123
#These two values have been output from a single CSD field.
_refine_ls_R_factor_gt 0.06
_refine_ls_wR_factor_gt 0.06
_symmetry_cell_setting orthorhombic
_symmetry_space_group_name_H-M 'P 21 21 21'
_symmetry_Int_Tables_number 19
loop_
_symmetry_equiv_pos_site_id
_symmetry_equiv_pos_as_xyz
1 x,y,z
2 1/2-x,-y,1/2+z
3 1/2+x,1/2-y,-z
4 -x,1/2+y,1/2-z
_cell_length_a 14.2228(2)
_cell_length_b 16.7050(1)
_cell_length_c 21.6020(3)
_cell_angle_alpha 90
_cell_angle_beta 90
_cell_angle_gamma 90
_cell_formula_units_Z 4
loop_
_atom_type_symbol
_atom_type_radius_bond
C 0.68
H 0.23
Co 1.33
N 0.68
P 1.05
loop_
_atom_site_label
_atom_site_type_symbol
_atom_site_fract_x
_atom_site_fract_y
_atom_site_fract_z
Co1 Co -0.12924(2) 0.26820(2) 0.925217(15)
Co2 Co 0.03565(2) 0.26935(2) 0.598475(15)
N1 N -0.17347(15) 0.24429(13) 0.83416(11)
C1 C -0.18872(18) 0.24251(16) 0.78211(13)
N2 N -0.09495(17) 0.25904(14) 0.64324(11)
C2 C -0.14821(19) 0.25117(15) 0.68230(13)
N3 N -0.21429(18) 0.24062(19) 0.72374(11)
N4 N 0.00883(16) 0.28340(13) 0.88437(11)
C3 C 0.05906(19) 0.29146(14) 0.84271(13)
N5 N 0.09219(16) 0.28553(13) 0.68925(11)
C4 C 0.10233(18) 0.29083(15) 0.74187(14)
N6 N 0.12444(17) 0.30035(14) 0.80063(11)
N7 N -0.07557(18) 0.28746(14) 1.01630(11)
C5 C -0.0080(2) 0.27891(16) 1.04450(12)
N8 N 0.22527(16) 0.24495(12) 1.05076(10)
C6 C 0.1477(2) 0.25642(16) 1.06257(12)
N9 N 0.06192(17) 0.2698(2) 1.08267(11)
N10 N -0.15057(16) 0.39110(13) 0.91565(11)
C7 C -0.15833(19) 0.45925(17) 0.90907(13)
N11 N -0.06813(17) 0.64602(13) 0.89535(12)
C8 C -0.1164(2) 0.59080(16) 0.89800(14)
N12 N -0.17976(18) 0.53411(14) 0.89998(15)
N13 N 0.17091(17) 0.28285(14) 0.55724(11)
C9 C 0.2506(2) 0.29144(16) 0.55193(14)
N14 N 0.46090(16) 0.25128(13) 0.48445(10)
C10 C 0.39991(19) 0.27500(18) 0.51427(13)
N15 N 0.34108(19) 0.30786(18) 0.55262(15)
N16 N -0.01966(17) -0.10573(13) 0.91673(11)
C11 C -0.04615(19) -0.04933(15) 0.94268(13)
N17 N -0.10629(16) 0.14592(13) 0.94157(11)
C12 C -0.09053(19) 0.08088(17) 0.95613(13)
N18 N -0.07383(17) 0.00918(13) 0.97836(11)
P1 P 0.12786(5) 0.46670(4) 0.31264(3)
C13 C 0.02129(19) 0.52465(15) 0.31480(13)
C14 C -0.01619(19) 0.55443(15) 0.26014(13)
H1 H 0.01630 0.54680 0.22220
C15 C -0.1012(2) 0.59531(16) 0.26091(14)
H2 H -0.12660 0.61630 0.22360
C16 C -0.1487(2) 0.60531(17) 0.31593(15)
H3 H -0.20710 0.63280 0.31650
C17 C -0.1114(2) 0.57533(17) 0.37035(14)
H4 H -0.14480 0.58230 0.40810
C18 C -0.0261(2) 0.53523(16) 0.37068(13)
H5 H -0.00040 0.51540 0.40830
C19 C 0.17566(19) 0.47860(15) 0.23668(12)
C20 C 0.2238(2) 0.54912(16) 0.22306(13)
H6 H 0.23790 0.58610 0.25520
C21 C 0.2510(2) 0.56539(17) 0.16312(13)
H7 H 0.28410 0.61340 0.15410
C22 C 0.2302(2) 0.51200(17) 0.11611(14)
H8 H 0.24760 0.52390 0.07470
C23 C 0.1843(2) 0.44179(17) 0.12946(14)
H9 H 0.17140 0.40470 0.09720
C24 C 0.1567(2) 0.42448(17) 0.18913(14)
H10 H 0.12490 0.37580 0.19790
C25 C 0.21113(19) 0.50188(16) 0.36838(12)
C26 C 0.2045(2) 0.57781(17) 0.39450(14)
H11 H 0.15250 0.61130 0.38490
C27 C 0.2738(2) 0.60437(19) 0.43457(14)
H12 H 0.26900 0.65580 0.45300
C28 C 0.3498(2) 0.5563(2) 0.44770(15)
H13 H 0.39780 0.57530 0.47450
C29 C 0.3570(2) 0.4803(2) 0.42231(15)
H14 H 0.40940 0.44730 0.43190
C30 C 0.2877(2) 0.45304(19) 0.38304(15)
H15 H 0.29190 0.40080 0.36590
C31 C 0.1003(2) 0.36357(16) 0.32688(14)
H16 H 0.05140 0.34650 0.29700
H17 H 0.15720 0.33100 0.31890
C32 C 0.0653(2) 0.34559(18) 0.39271(15)
H18 H 0.11150 0.36510 0.42290
H19 H 0.05720 0.28770 0.39770
H20 H 0.00500 0.37250 0.39950
P2 P 0.22949(5) 0.08071(4) 0.84630(3)
C33 C 0.2958(2) -0.00283(16) 0.87569(13)
C34 C 0.3911(2) 0.00496(17) 0.88777(14)
H21 H 0.42400 0.05160 0.87500
C35 C 0.4382(2) -0.05580(19) 0.91860(15)
H22 H 0.50360 -0.05110 0.92670
C36 C 0.3898(2) -0.12314(19) 0.93751(15)
H23 H 0.42210 -0.16400 0.95950
C37 C 0.2952(2) -0.13204(17) 0.92490(15)
H24 H 0.26300 -0.17920 0.93730
C38 C 0.2477(2) -0.07189(16) 0.89418(13)
H25 H 0.18250 -0.07740 0.88560
C39 C 0.29678(19) 0.14195(15) 0.79406(13)
C40 C 0.2828(2) 0.13657(18) 0.73097(14)
H26 H 0.24090 0.09770 0.71470
C41 C 0.3303(2) 0.1881(2) 0.69137(16)
H27 H 0.32020 0.18480 0.64800
C42 C 0.3922(2) 0.24439(18) 0.71478(15)
H28 H 0.42390 0.28000 0.68760
C43 C 0.4077(2) 0.24869(17) 0.77746(16)
H29 H 0.45110 0.28670 0.79350
C44 C 0.3603(2) 0.19761(17) 0.81761(15)
H30 H 0.37120 0.20070 0.86090
C45 C 0.12648(19) 0.04423(14) 0.80730(12)
C46 C 0.1345(2) -0.02129(16) 0.76731(13)
H31 H 0.19320 -0.04760 0.76250
C47 C 0.0570(2) -0.04741(17) 0.73503(14)
H32 H 0.06240 -0.09200 0.70800
C48 C -0.0281(2) -0.00964(17) 0.74157(13)
H33 H -0.08100 -0.02780 0.71870
C49 C -0.0373(2) 0.05497(16) 0.78139(14)
H34 H -0.09650 0.08040 0.78640
C50 C 0.0404(2) 0.08233(15) 0.81389(13)
H35 H 0.03470 0.12720 0.84070
C51 C 0.19691(19) 0.13969(15) 0.91263(12)
H36 H 0.25410 0.16400 0.93090
H37 H 0.15490 0.18370 0.89930
C52 C 0.1470(2) 0.08947(17) 0.96182(14)
H38 H 0.10110 0.05410 0.94180
H39 H 0.11450 0.12490 0.99090
H40 H 0.19330 0.05720 0.98420
N8B N -0.27473(16) 0.25505(12) 0.94924(10)
N11C N 0.06813(17) 0.14602(13) 0.60465(12)
N14B N -0.03910(16) 0.24872(13) 0.51555(10)
N16C N 0.01966(17) 0.39427(13) 0.58327(11)
Co1B Co 0.37076(2) 0.23180(2) 1.074783(15)
Co2C Co -0.03565(2) 0.76935(2) 0.901525(15)
Co2B Co 0.53565(2) 0.23065(2) 0.401525(15)
Co2C* Co -0.03565(2) -0.23065(2) 0.901525(15)
#END
