
#######################################################################
#
#                 Cambridge Crystallographic Data Centre
#                                CCDC
#
#######################################################################
#
# If this CIF has been generated from an entry in the Cambridge
# Structural Database, then it will include bibliographic, chemical,
# crystal, experimental, refinement or atomic coordinate data resulting
# from the CCDC's data processing and validation procedures.
#
#######################################################################

data_CSD_CIF_BEXRIG
_audit_creation_date 2004-11-11
_audit_creation_method CSD-ConQuest-V1
_database_code_CSD BEXRIG
_database_code_depnum_ccdc_archive 'CCDC 244146'
_chemical_formula_sum 'C52 H40 N18 Ni2 P2'
_chemical_formula_moiety
;
(C20 H20 P1 1+)2n,n(C12 N18 Ni2 2-)
;
_journal_coden_Cambridge 1147
_journal_volume 4
_journal_year 2004
_journal_page_first 503
_journal_name_full 'Cryst.Growth Des. '
loop_
_publ_author_name
"P.M.van der Werff"
"S.R.Batten"
"P.Jensen"
"B.Moubaraki"
"K.S.Murray"
"J.D.Cashion"
_chemical_name_systematic
;
catena-(bis(Ethyltriphenylphosphonium) 
hexakis(\m~2~-dicyanamide)-di-nickel(ii))
;
_cell_volume   5075.274
_exptl_crystal_colour 'green'
_exptl_crystal_density_diffrn 1.435
_exptl_special_details
;
isomorphous with the methyltriphenylphosphonium salt and the iron, manganese 
and cobalt analogues of both salts
;
_exptl_crystal_description 'prism'
_diffrn_ambient_temperature 123
#These two values have been output from a single CSD field.
_refine_ls_R_factor_gt 0.0446
_refine_ls_wR_factor_gt 0.0446
_symmetry_cell_setting orthorhombic
_symmetry_space_group_name_H-M 'P 21 21 21'
_symmetry_Int_Tables_number 19
loop_
_symmetry_equiv_pos_site_id
_symmetry_equiv_pos_as_xyz
1 x,y,z
2 1/2-x,-y,1/2+z
3 1/2+x,1/2-y,-z
4 -x,1/2+y,1/2-z
_cell_length_a 14.1192(1)
_cell_length_b 16.6545(1)
_cell_length_c 21.5833(2)
_cell_angle_alpha 90
_cell_angle_beta 90
_cell_angle_gamma 90
_cell_formula_units_Z 4
loop_
_atom_type_symbol
_atom_type_radius_bond
C 0.68
H 0.23
N 0.68
Ni 1.50
P 1.05
loop_
_atom_site_label
_atom_site_type_symbol
_atom_site_fract_x
_atom_site_fract_y
_atom_site_fract_z
Ni1 Ni -0.12588(2) 0.268984(19) 0.923332(15)
Ni2 Ni 0.03689(2) 0.270026(19) 0.598682(15)
N1 N -0.17172(16) 0.24661(12) 0.83444(11)
C1 C -0.18708(19) 0.24443(15) 0.78232(14)
N2 N -0.09124(17) 0.26021(14) 0.64386(11)
C2 C -0.1452(2) 0.25198(15) 0.68262(13)
N3 N -0.21241(18) 0.24196(18) 0.72372(11)
N4 N 0.00951(16) 0.28265(13) 0.88231(11)
C3 C 0.06061(19) 0.29096(14) 0.84102(14)
N5 N 0.09470(16) 0.28591(13) 0.68718(12)
C4 C 0.10436(19) 0.29129(14) 0.73988(14)
N6 N 0.12621(18) 0.30044(14) 0.79905(11)
N7 N -0.07035(17) 0.28747(13) 1.01218(11)
C5 C -0.0039(2) 0.27688(16) 1.04147(12)
N8 N 0.23122(16) 0.24300(12) 1.0511(1)
C6 C 0.1526(2) 0.25339(14) 1.06152(12)
N9 N 0.06498(17) 0.26501(18) 1.08064(12)
N10 N -0.14614(16) 0.39063(13) 0.91399(11)
C7 C -0.15452(19) 0.45899(16) 0.90747(13)
N11 N -0.06731(17) 0.64787(13) 0.89451(12)
C8 C -0.1140(2) 0.59187(15) 0.89712(14)
N12 N -0.17723(18) 0.53420(13) 0.89886(15)
N13 N 0.16972(17) 0.28185(13) 0.5569(1)
C9 C 0.2500(2) 0.29044(15) 0.55047(13)
N14 N 0.46217(17) 0.24945(12) 0.4826(1)
C10 C 0.4005(2) 0.27342(18) 0.51205(13)
N15 N 0.3407(2) 0.30698(18) 0.55055(15)
N16 N -0.02160(16) -0.10679(12) 0.91585(11)
C11 C -0.0476(2) -0.04901(15) 0.94128(13)
N17 N -0.10464(16) 0.14770(13) 0.93890(11)
C12 C -0.09026(19) 0.08249(16) 0.95352(13)
N18 N -0.07468(17) 0.01057(12) 0.97607(11)
P1 P 0.12866(5) 0.46554(4) 0.31308(3)
C13 C 0.02092(19) 0.52338(14) 0.31523(13)
C14 C -0.0166(2) 0.55307(15) 0.26021(13)
H1 H 0.01630 0.54540 0.22230
C15 C -0.1024(2) 0.59390(16) 0.26095(14)
H2 H -0.12780 0.61520 0.22360
C16 C -0.1506(2) 0.60342(16) 0.31609(15)
H3 H -0.20960 0.63080 0.31660
C17 C -0.1135(2) 0.57343(17) 0.37048(14)
H4 H -0.14770 0.57990 0.40800
C18 C -0.0272(2) 0.53397(16) 0.37119(13)
H5 H -0.00130 0.51450 0.40890
C19 C 0.17596(19) 0.47699(15) 0.23672(13)
C20 C 0.2223(2) 0.54865(15) 0.22238(13)
H6 H 0.23580 0.58630 0.25420
C21 C 0.2484(2) 0.56501(16) 0.16217(14)
H7 H 0.28090 0.61340 0.15280
C22 C 0.2274(2) 0.51124(16) 0.11549(14)
H8 H 0.24370 0.52330 0.07380
C23 C 0.1826(2) 0.44005(17) 0.12962(14)
H9 H 0.16950 0.40270 0.09750
C24 C 0.1568(2) 0.42226(17) 0.18945(14)
H10 H 0.12590 0.37290 0.19860
C25 C 0.21252(19) 0.50182(16) 0.36873(13)
C26 C 0.2051(2) 0.57812(16) 0.39488(14)
H11 H 0.15240 0.61140 0.38540
C27 C 0.2748(2) 0.60520(18) 0.43473(14)
H12 H 0.26970 0.65700 0.45280
C28 C 0.3516(3) 0.5573(2) 0.44822(15)
H13 H 0.39970 0.57680 0.47510
C29 C 0.3593(2) 0.4811(2) 0.42302(15)
H14 H 0.41200 0.44820 0.43310
C30 C 0.2903(2) 0.45334(18) 0.38331(14)
H15 H 0.29550 0.40120 0.36580
C31 C 0.1017(2) 0.36189(16) 0.32800(14)
H16 H 0.05290 0.34400 0.29810
H17 H 0.15940 0.32960 0.32040
C32 C 0.0662(2) 0.34447(18) 0.39374(16)
H18 H 0.11350 0.36250 0.42390
H19 H 0.05580 0.28660 0.39860
H20 H 0.00650 0.37310 0.40080
P2 P 0.23062(5) 0.08082(4) 0.84678(3)
C33 C 0.2971(2) -0.00336(15) 0.87640(12)
C34 C 0.3922(2) 0.00426(17) 0.88889(14)
H21 H 0.42540 0.05110 0.87640
C35 C 0.4395(2) -0.05704(18) 0.91999(15)
H22 H 0.50550 -0.05270 0.92820
C36 C 0.3900(2) -0.12422(18) 0.93885(15)
H23 H 0.42180 -0.16530 0.96130
C37 C 0.2954(2) -0.13236(16) 0.92556(15)
H24 H 0.26270 -0.17960 0.93780
C38 C 0.2474(2) -0.07232(15) 0.89459(14)
H25 H 0.18180 -0.07770 0.88570
C39 C 0.29888(19) 0.14269(15) 0.79514(13)
C40 C 0.2837(2) 0.13859(18) 0.73170(14)
H26 H 0.24070 0.10030 0.71510
C41 C 0.3322(2) 0.19130(19) 0.69250(16)
H27 H 0.32150 0.18930 0.64910
C42 C 0.3952(2) 0.24595(17) 0.71655(16)
H28 H 0.42740 0.28200 0.68970
C43 C 0.4118(2) 0.24864(16) 0.77908(16)
H29 H 0.45630 0.28600 0.79520
C44 C 0.3642(2) 0.19746(16) 0.81901(15)
H30 H 0.37600 0.19960 0.86230
C45 C 0.1270(2) 0.04461(14) 0.80754(12)
C46 C 0.1348(2) -0.02110(15) 0.76757(13)
H31 H 0.19400 -0.04730 0.76250
C47 C 0.0565(2) -0.04792(17) 0.73540(14)
H32 H 0.06170 -0.09300 0.70860
C48 C -0.0286(2) -0.00968(16) 0.74206(14)
H33 H -0.08200 -0.02790 0.71920
C49 C -0.0380(2) 0.05577(16) 0.78201(14)
H34 H -0.09770 0.08140 0.78690
C50 C 0.0400(2) 0.08286(15) 0.81424(13)
H35 H 0.03430 0.12780 0.84110
C51 C 0.1978(2) 0.13988(15) 0.91347(12)
H36 H 0.25530 0.16440 0.93170
H37 H 0.15500 0.18380 0.90030
C52 C 0.1481(2) 0.08853(17) 0.96260(14)
H38 H 0.10400 0.05150 0.94230
H39 H 0.11310 0.12350 0.99110
H40 H 0.19540 0.05780 0.98580
N8B N -0.26878(16) 0.25700(12) 0.9489(1)
N11C N 0.06731(17) 0.14787(13) 0.60549(12)
N14B N -0.03783(17) 0.25055(12) 0.5174(1)
N16C N 0.02160(16) 0.39321(12) 0.58415(11)
Ni1B Ni 0.37412(2) 0.231016(19) 1.076668(15)
Ni2C Ni -0.03689(2) 0.770026(19) 0.901318(15)
Ni2B Ni 0.53689(2) 0.229974(19) 0.401318(15)
Ni2C* Ni -0.03689(2) -0.229974(19) 0.901318(15)
#END
