
#######################################################################
#
#                 Cambridge Crystallographic Data Centre
#                                CCDC
#
#######################################################################
#
# If this CIF has been generated from an entry in the Cambridge
# Structural Database, then it will include bibliographic, chemical,
# crystal, experimental, refinement or atomic coordinate data resulting
# from the CCDC's data processing and validation procedures.
#
#######################################################################

data_CSD_CIF_BEXRAY
_audit_creation_date 2004-11-11
_audit_creation_method CSD-ConQuest-V1
_database_code_CSD BEXRAY
_database_code_depnum_ccdc_archive 'CCDC 244144'
_chemical_formula_sum 'C52 H40 Mn2 N18 P2'
_chemical_formula_moiety
;
(C20 H20 P1 1+)2n,n(C12 Mn2 N18 2-)
;
_journal_coden_Cambridge 1147
_journal_volume 4
_journal_year 2004
_journal_page_first 503
_journal_name_full 'Cryst.Growth Des. '
loop_
_publ_author_name
"P.M.van der Werff"
"S.R.Batten"
"P.Jensen"
"B.Moubaraki"
"K.S.Murray"
"J.D.Cashion"
_chemical_name_systematic
;
catena-(bis(Ethyltriphenylphosphonium) 
hexakis(\m~2~-dicyanamide)-di-manganese(ii))
;
_cell_volume   5257.871
_exptl_crystal_colour 'colorless'
_exptl_crystal_density_diffrn 1.376
_exptl_special_details
;
isomorphous with the methyltriphenylphosphonium salt and the iron, nickel and 
cobalt analogues of both salts
;
_exptl_crystal_description 'block'
_diffrn_ambient_temperature 123
#These two values have been output from a single CSD field.
_refine_ls_R_factor_gt 0.031
_refine_ls_wR_factor_gt 0.031
_symmetry_cell_setting orthorhombic
_symmetry_space_group_name_H-M 'P 21 21 21'
_symmetry_Int_Tables_number 19
loop_
_symmetry_equiv_pos_site_id
_symmetry_equiv_pos_as_xyz
1 x,y,z
2 1/2-x,-y,1/2+z
3 1/2+x,1/2-y,-z
4 -x,1/2+y,1/2-z
_cell_length_a 14.3759(1)
_cell_length_b 16.9055(1)
_cell_length_c 21.6345(2)
_cell_angle_alpha 90
_cell_angle_beta 90
_cell_angle_gamma 90
_cell_formula_units_Z 4
loop_
_atom_type_symbol
_atom_type_radius_bond
C 0.68
H 0.23
Mn 1.35
N 0.68
P 1.05
loop_
_atom_site_label
_atom_site_type_symbol
_atom_site_fract_x
_atom_site_fract_y
_atom_site_fract_z
Mn1 Mn -0.134364(18) 0.266983(15) 0.929762(12)
Mn2 Mn 0.029260(18) 0.268131(15) 0.597130(12)
N1 N -0.17540(11) 0.24525(10) 0.83291(8)
C1 C -0.19262(13) 0.24739(12) 0.78137(9)
N2 N -0.11043(12) 0.25275(10) 0.63893(8)
C2 C -0.15899(13) 0.25229(11) 0.68033(9)
N3 N -0.22175(13) 0.25231(16) 0.72431(8)
N4 N 0.00937(11) 0.28571(9) 0.89030(8)
C3 C 0.05678(12) 0.29346(10) 0.84729(9)
N5 N 0.08225(12) 0.28250(9) 0.69329(8)
C4 C 0.09436(13) 0.2905(1) 0.74561(9)
N6 N 0.11792(11) 0.30235(10) 0.80356(8)
N7 N -0.08818(12) 0.28122(11) 1.02794(8)
C5 C -0.01737(14) 0.28141(10) 1.05249(8)
N8 N 0.21323(10) 0.24893(8) 1.05106(7)
C6 C 0.13827(13) 0.26413(12) 1.06499(9)
N9 N 0.05678(13) 0.28472(15) 1.08638(9)
N10 N -0.15728(12) 0.39457(9) 0.92332(9)
C7 C -0.16389(13) 0.46166(11) 0.91466(9)
N11 N -0.06653(13) 0.64142(10) 0.89921(9)
C8 C -0.11717(14) 0.58903(11) 0.90223(10)
N12 N -0.18275(12) 0.53544(9) 0.90398(11)
N13 N 0.16888(12) 0.28722(10) 0.55574(8)
C9 C 0.24724(14) 0.29819(11) 0.5507(1)
N14 N 0.45769(11) 0.25093(10) 0.49248(8)
C10 C 0.39621(13) 0.27885(11) 0.51765(9)
N15 N 0.33529(14) 0.31750(13) 0.55019(12)
N16 N -0.00770(12) -0.10227(9) 0.91553(8)
C11 C -0.03758(13) -0.04903(10) 0.94299(8)
N17 N -0.10781(11) 0.14049(9) 0.94461(8)
C12 C -0.08913(13) 0.07662(11) 0.95801(9)
N18 N -0.06952(12) 0.00589(9) 0.97957(7)
P1 P 0.13029(3) 0.46826(3) 0.31424(2)
C13 C 0.02456(13) 0.52482(10) 0.31703(8)
C14 C -0.01408(13) 0.55426(10) 0.26293(8)
H1 H 0.01720 0.54700 0.22470
C15 C -0.09803(14) 0.59411(11) 0.26456(10)
H2 H -0.12380 0.61490 0.22750
C16 C -0.14456(14) 0.60380(12) 0.31988(10)
H3 H -0.20250 0.63090 0.32080
C17 C -0.10688(14) 0.57414(12) 0.37379(10)
H4 H -0.13920 0.58090 0.41170
C18 C -0.02210(14) 0.53451(12) 0.37315(9)
H5 H 0.00370 0.51430 0.41040
C19 C 0.17879(12) 0.48135(10) 0.23866(8)
C20 C 0.22715(13) 0.55139(11) 0.22659(9)
H6 H 0.23970 0.58760 0.25910
C21 C 0.25657(14) 0.56772(12) 0.16732(9)
H7 H 0.28920 0.61540 0.15910
C22 C 0.23890(14) 0.51529(11) 0.11987(9)
H8 H 0.25850 0.52720 0.07900
C23 C 0.19275(16) 0.44559(12) 0.13195(9)
H9 H 0.18190 0.40910 0.09930
C24 C 0.16202(15) 0.42807(11) 0.19102(9)
H10 H 0.12980 0.38010 0.19890
C25 C 0.21211(13) 0.50298(11) 0.37027(8)
C26 C 0.20547(14) 0.57807(11) 0.39624(9)
H11 H 0.15400 0.61110 0.38650
C27 C 0.27378(15) 0.60475(13) 0.43628(10)
H12 H 0.26880 0.65580 0.45430
C28 C 0.34900(16) 0.55720(15) 0.45008(10)
H13 H 0.39630 0.57620 0.47690
C29 C 0.35605(15) 0.48191(14) 0.42502(11)
H14 H 0.40750 0.44910 0.43510
C30 C 0.28779(15) 0.45481(13) 0.38529(10)
H15 H 0.29240 0.40320 0.36810
C31 C 0.10411(15) 0.36551(11) 0.32707(10)
H16 H 0.05470 0.34920 0.29790
H17 H 0.16020 0.33380 0.31760
C32 C 0.07226(18) 0.34631(13) 0.39306(11)
H18 H 0.11810 0.36660 0.42260
H19 H 0.06650 0.28890 0.39790
H20 H 0.01180 0.37120 0.40080
P2 P 0.23016(3) 0.08243(3) 0.84173(2)
C33 C 0.29821(13) 0.0014(1) 0.87110(8)
C34 C 0.39276(14) 0.01123(12) 0.88135(9)
H21 H 0.42330 0.05790 0.86780
C35 C 0.44264(16) -0.04790(13) 0.91174(10)
H22 H 0.50760 -0.04210 0.91830
C36 C 0.39745(17) -0.11463(13) 0.93213(11)
H23 H 0.43140 -0.15420 0.95370
C37 C 0.30366(17) -0.12501(12) 0.92175(10)
H24 H 0.27380 -0.17200 0.93530
C38 C 0.25296(15) -0.06717(11) 0.89163(9)
H25 H 0.18810 -0.07380 0.88490
C39 C 0.29516(12) 0.14217(10) 0.78790(9)
C40 C 0.28452(15) 0.13149(13) 0.72486(10)
H26 H 0.24530 0.09060 0.70980
C41 C 0.33097(16) 0.18038(14) 0.68368(11)
H27 H 0.32370 0.17300 0.64040
C42 C 0.38821(15) 0.24018(13) 0.70579(11)
H28 H 0.41920 0.27430 0.67770
C43 C 0.39993(16) 0.24994(13) 0.76822(11)
H29 H 0.44030 0.29020 0.78310
C44 C 0.35353(15) 0.20168(12) 0.80986(11)
H30 H 0.36150 0.20910 0.85310
C45 C 0.12812(12) 0.0448(1) 0.80398(8)
C46 C 0.13596(14) -0.0206(1) 0.76497(9)
H31 H 0.19390 -0.04710 0.76090
C47 C 0.05936(14) -0.04655(12) 0.73242(9)
H32 H 0.06480 -0.09050 0.70530
C48 C -0.02497(14) -0.00899(11) 0.73912(10)
H33 H -0.07750 -0.02730 0.71670
C49 C -0.03383(14) 0.05554(11) 0.77843(10)
H34 H -0.09250 0.08070 0.78320
C50 C 0.04252(13) 0.08307(11) 0.81060(9)
H35 H 0.03690 0.12770 0.83700
C51 C 0.19896(13) 0.14184(10) 0.90754(9)
H36 H 0.25600 0.16520 0.92560
H37 H 0.15840 0.18580 0.89380
C52 C 0.14838(15) 0.09386(12) 0.95716(10)
H38 H 0.10070 0.06070 0.93770
H39 H 0.11880 0.12990 0.98670
H40 H 0.19310 0.06020 0.97890
N8B N -0.28677(10) 0.25107(8) 0.94894(7)
N11C N 0.06653(13) 0.14142(10) 0.60079(9)
N14B N -0.04231(11) 0.24907(10) 0.50752(8)
N16C N 0.00770(12) 0.39773(9) 0.58447(8)
Mn1B Mn 0.365636(18) 0.233017(15) 1.070238(12)
Mn2C Mn -0.029260(18) 0.768131(15) 0.902870(12)
Mn2B Mn 0.529260(18) 0.231869(15) 0.402870(12)
Mn2C* Mn -0.029260(18) -0.231869(15) 0.902870(12)
#END
