
#######################################################################
#
#                 Cambridge Crystallographic Data Centre
#                                CCDC
#
#######################################################################
#
# If this CIF has been generated from an entry in the Cambridge
# Structural Database, then it will include bibliographic, chemical,
# crystal, experimental, refinement or atomic coordinate data resulting
# from the CCDC's data processing and validation procedures.
#
#######################################################################

data_CSD_CIF_BEYKOH
_audit_creation_date 2013-05-19
_audit_creation_method CSD-ConQuest-V1
_database_code_CSD BEYKOH
_database_code_depnum_ccdc_archive 'CCDC 914741'
_chemical_formula_sum 'C28 H38 N2 O18 S2 U2'
_chemical_formula_moiety
;
(C6 H16 N1 1+)2n,n(C16 H6 O18 S2 U2 2-)
;
_journal_coden_Cambridge 1350
_journal_volume 15
_journal_year 2013
_journal_page_first 2401
_journal_name_full 'CrystEngComm '
loop_
_publ_author_name
"P.Thuery"
_chemical_name_systematic
;
catena-(bis(Triethylammonium) 
bis(\m~4~-5-sulfonatoisophthalato)-tetraoxo-di-uranium)
;
_cell_volume   1929.449
_exptl_crystal_colour 'light yellow'
_exptl_crystal_density_diffrn 2.118
_exptl_crystal_description 'platelet'
_diffrn_ambient_temperature 150
#These two values have been output from a single CSD field.
_refine_ls_R_factor_gt 0.049
_refine_ls_wR_factor_gt 0.049
_symmetry_cell_setting triclinic
_symmetry_space_group_name_H-M 'P -1'
_symmetry_Int_Tables_number 2
loop_
_symmetry_equiv_pos_site_id
_symmetry_equiv_pos_as_xyz
1 x,y,z
2 -x,-y,-z
_cell_length_a 9.2111(8)
_cell_length_b 13.1733(6)
_cell_length_c 16.0964(13)
_cell_angle_alpha 84.739(4)
_cell_angle_beta 83.029(4)
_cell_angle_gamma 87.457(5)
_cell_formula_units_Z 2
loop_
_atom_type_symbol
_atom_type_radius_bond
C 0.68
H 0.23
N 0.68
O 0.68
S 1.02
U 1.96
loop_
_atom_site_label
_atom_site_type_symbol
_atom_site_fract_x
_atom_site_fract_y
_atom_site_fract_z
U1 U 0.21976(4) 0.55980(2) 0.256124(17)
U2 U 0.21970(4) 0.95180(2) 0.227954(16)
S1 S 0.4406(3) 0.51877(15) -0.13451(12)
S2 S -0.2411(3) 0.99686(15) 0.55961(12)
O1 O 0.0821(7) 0.5023(4) 0.2113(3)
O2 O 0.3580(7) 0.6171(5) 0.3013(4)
O3 O 0.0810(7) 1.0336(4) 0.1893(3)
O4 O 0.3564(7) 0.8681(5) 0.2633(3)
O5 O 0.2184(8) 0.6879(4) 0.1447(4)
O6 O 0.2132(7) 0.8545(4) 0.1121(3)
O7 O 0.5988(7) 0.9764(4) -0.1160(3)
O8 O 0.6378(7) 0.8935(4) -0.2298(3)
O9 O 0.6022(7) 0.5039(4) -0.1543(3)
O10 O 0.3818(7) 0.4470(4) -0.0678(3)
O11 O 0.3672(8) 0.5245(5) -0.2090(4)
O12 O 0.0435(8) 0.6722(4) 0.3167(4)
O13 O 0.0367(7) 0.8394(4) 0.2886(3)
O14 O -0.1329(7) 0.5203(4) 0.6041(3)
O15 O -0.2904(7) 0.6106(4) 0.6840(3)
O16 O -0.1645(7) 0.9963(4) 0.6352(3)
O17 O -0.1808(8) 1.0708(4) 0.4942(4)
O18 O -0.3977(7) 1.0012(5) 0.5809(4)
C1 C 0.2468(9) 0.7632(5) 0.0969(4)
C2 C 0.5771(10) 0.9005(6) -0.1548(5)
C3 C 0.3337(10) 0.7473(6) 0.0123(5)
C4 C 0.4058(10) 0.8315(6) -0.0326(4)
H1 H 0.39780 0.89550 -0.01190
C5 C 0.4906(9) 0.8153(6) -0.1101(5)
C6 C 0.4976(10) 0.7208(6) -0.1413(5)
H2 H 0.55010 0.71140 -0.19330
C7 C 0.4254(9) 0.6394(6) -0.0944(4)
C8 C 0.3451(10) 0.6535(6) -0.0180(5)
H3 H 0.29850 0.59870 0.01310
C9 C 0.0080(9) 0.7598(6) 0.3353(4)
C10 C -0.2026(10) 0.6026(6) 0.6167(5)
C11 C -0.0762(9) 0.7705(6) 0.4206(4)
C12 C -0.1035(9) 0.6858(6) 0.4760(5)
H4 H -0.07110 0.62180 0.46000
C13 C -0.1787(9) 0.6942(6) 0.5555(4)
C14 C -0.2219(9) 0.7899(6) 0.5793(4)
H5 H -0.27180 0.79700 0.63230
C15 C -0.1911(9) 0.8756(6) 0.5243(5)
C16 C -0.1209(9) 0.8656(6) 0.4468(4)
H6 H -0.10200 0.92360 0.41020
N1 N 0.2048(10) 0.2804(6) -0.0797(5)
H7 H 0.26430 0.32310 -0.07530
C17 C 0.2614(15) 0.1729(9) -0.0548(9)
H8 H 0.34920 0.15750 -0.09180
H9 H 0.28720 0.16950 0.00200
C18 C 0.1843(12) 0.2957(7) -0.1694(5)
H10 H 0.09870 0.25900 -0.17730
H11 H 0.16190 0.36760 -0.18240
C19 C 0.0849(12) 0.3193(10) -0.0218(6)
H12 H -0.00120 0.28050 -0.02460
H13 H 0.06250 0.38960 -0.04080
C20 C 0.1487(19) 0.0934(10) -0.0596(12)
H14 H 0.06010 0.10990 -0.02490
H15 H 0.18610 0.02740 -0.04010
H16 H 0.12870 0.09260 -0.11670
C21 C 0.3037(13) 0.2653(11) -0.2315(8)
H17 H 0.39170 0.29740 -0.22290
H18 H 0.27920 0.28600 -0.28690
H19 H 0.31880 0.19260 -0.22530
C22 C 0.1139(17) 0.3149(14) 0.0681(7)
H20 H 0.09210 0.24840 0.09520
H21 H 0.05310 0.36540 0.09620
H22 H 0.21490 0.32800 0.07040
N2 N -0.3056(14) 1.2713(11) 0.4240(8)
H23 H -0.24770 1.22260 0.45490
C23 C -0.4627(19) 1.2500(17) 0.4604(10)
H24 H -0.49070 1.18630 0.44220
H25 H -0.52720 1.30400 0.43940
C24 C -0.258(2) 1.3699(14) 0.4452(12)
H26 H -0.15680 1.37740 0.42090
H27 H -0.25910 1.36660 0.50570
C25 C -0.2664(19) 1.2479(16) 0.3370(11)
H28 H -0.33410 1.28650 0.30360
H29 H -0.28450 1.17630 0.33460
C26 C -0.481(2) 1.2434(18) 0.5573(10)
H30 H -0.38650 1.23650 0.57690
H31 H -0.53750 1.18530 0.57920
H32 H -0.53070 1.30430 0.57610
C27 C -0.344(2) 1.4668(16) 0.4178(13)
H33 H -0.28910 1.50290 0.37060
H34 H -0.36070 1.50960 0.46340
H35 H -0.43630 1.44870 0.40220
C28 C -0.1106(19) 1.2673(17) 0.2932(13)
H36 H -0.08610 1.33620 0.29860
H37 H -0.10650 1.25650 0.23470
H38 H -0.04220 1.22110 0.31890
U1A U -0.21976(4) 0.44020(2) 0.743876(17)
U1A* U 0.78024(4) 0.44020(2) -0.256124(17)
U2A U -0.21970(4) 1.04820(2) 0.772046(16)
U2A* U 0.78030(4) 1.04820(2) -0.227954(16)
O7A O 0.4012(7) 1.0236(4) 0.1160(3)
O8A O 0.3622(7) 1.1065(4) 0.2298(3)
O9A O 0.3978(7) 0.4961(4) 0.1543(3)
O14A O 0.1329(7) 0.4797(4) 0.3959(3)
O15A O 0.2904(7) 0.3894(4) 0.3160(3)
O16A O 0.1645(7) 1.0037(4) 0.3648(3)
#END
