
#######################################################################
#
#                 Cambridge Crystallographic Data Centre
#                                CCDC
#
#######################################################################
#
# If this CIF has been generated from an entry in the Cambridge
# Structural Database, then it will include bibliographic, chemical,
# crystal, experimental, refinement or atomic coordinate data resulting
# from the CCDC's data processing and validation procedures.
#
#######################################################################

data_CSD_CIF_BEYKEX
_audit_creation_date 2013-05-19
_audit_creation_method CSD-ConQuest-V1
_database_code_CSD BEYKEX
_database_code_depnum_ccdc_archive 'CCDC 914743'
_chemical_formula_sum 'C22 H32 N2 O24 S2 U2'
_chemical_formula_moiety
;
(C6 H14 N2 2+)n,n(C16 H10 O20 S2 U2 2-),4n(H2 O1)
;
_journal_coden_Cambridge 1350
_journal_volume 15
_journal_year 2013
_journal_page_first 2401
_journal_name_full 'CrystEngComm '
loop_
_publ_author_name
"P.Thuery"
_chemical_name_systematic
;
catena-[(1,4-Diazoniabicyclo[2.2.2]octane) 
bis(\m~4~-5-sulfonatobenzene-1,3-dicarboxylato)-diaqua-tetra-oxo-di-uranium(vi
) tetrahydrate]
;
_cell_volume   3334.196
_exptl_crystal_colour 'light yellow'
_exptl_crystal_density_diffrn 2.488
_exptl_crystal_description 'parallelepiped'
_diffrn_ambient_temperature 150
#These two values have been output from a single CSD field.
_refine_ls_R_factor_gt 0.0448
_refine_ls_wR_factor_gt 0.0448
_symmetry_cell_setting monoclinic
_symmetry_space_group_name_H-M 'P 21/c'
_symmetry_Int_Tables_number 14
loop_
_symmetry_equiv_pos_site_id
_symmetry_equiv_pos_as_xyz
1 x,y,z
2 -x,1/2+y,1/2-z
3 -x,-y,-z
4 x,-1/2-y,-1/2+z
_cell_length_a 11.4801(5)
_cell_length_b 21.0566(14)
_cell_length_c 14.7227(10)
_cell_angle_alpha 90
_cell_angle_beta 110.471(4)
_cell_angle_gamma 90
_cell_formula_units_Z 4
loop_
_atom_type_symbol
_atom_type_radius_bond
C 0.68
H 0.23
N 0.68
O 0.68
S 1.02
U 1.96
loop_
_atom_site_label
_atom_site_type_symbol
_atom_site_fract_x
_atom_site_fract_y
_atom_site_fract_z
U1 U 0.10649(2) 0.471199(12) 0.87469(2)
U2 U 0.39099(2) 0.245483(12) 0.95595(2)
S1 S 0.15639(17) 0.17825(9) 1.05570(14)
S2 S -0.38692(17) 0.32739(10) 0.67792(14)
O1 O -0.0569(4) 0.4714(2) 0.8182(4)
O2 O 0.2679(4) 0.4660(2) 0.9371(4)
O3 O 0.3798(5) 0.1676(3) 0.9112(4)
O4 O 0.4001(5) 0.3229(2) 1.0030(4)
O5 O 0.0742(5) 0.4233(2) 1.0082(4)
O6 O -0.1137(5) 0.4425(2) 1.0182(4)
O7 O -0.4061(5) 0.2576(2) 0.9604(4)
O8 O -0.3430(6) 0.1650(3) 0.9189(6)
O9 O 0.2559(4) 0.2168(3) 1.0437(4)
O10 O 0.1227(5) 0.1248(3) 0.9912(4)
O11 O 0.1856(5) 0.1609(2) 1.1569(4)
O12 O 0.1040(5) 0.3602(2) 0.8396(4)
O13 O 0.1877(4) 0.2642(3) 0.8498(4)
O14 O -0.0731(5) 0.0734(3) 0.7119(4)
O15 O -0.2781(5) 0.0870(3) 0.6580(4)
O16 O -0.4863(5) 0.2872(3) 0.6152(4)
O17 O -0.4092(5) 0.3419(3) 0.7668(4)
O18 O -0.3655(5) 0.3831(3) 0.6295(5)
O19 O 0.1404(6) 0.4573(3) 0.7223(4)
H1 H 0.12960 0.42240 0.67810
H2 H 0.12800 0.49070 0.67400
O20 O 0.3931(5) 0.2859(4) 0.8010(4)
H3 H 0.31160 0.29230 0.76000
H4 H 0.44420 0.30900 0.79170
C1 C -0.0304(7) 0.4054(3) 1.0121(5)
C2 C -0.3237(6) 0.2193(4) 0.9473(5)
C3 C -0.0542(6) 0.3361(3) 1.0076(5)
C4 C -0.1735(7) 0.3117(3) 0.9846(5)
H5 H -0.24060 0.33920 0.97290
C5 C -0.1935(6) 0.2461(3) 0.9787(5)
C6 C -0.0936(7) 0.2049(3) 0.9977(6)
H6 H -0.10670 0.16120 0.99240
C7 C 0.0275(7) 0.2296(4) 1.0251(5)
C8 C 0.0465(7) 0.2949(4) 1.0286(5)
H7 H 0.12670 0.31100 1.04500
C9 C 0.0964(6) 0.3017(3) 0.8250(5)
C10 C -0.1702(8) 0.1081(4) 0.6964(6)
C11 C -0.0299(6) 0.2719(3) 0.7777(5)
C12 C -0.0386(7) 0.2061(3) 0.7601(5)
H8 H 0.03310 0.18150 0.77610
C13 C -0.1529(6) 0.1784(3) 0.7193(5)
C14 C -0.2603(6) 0.2156(3) 0.6941(5)
H9 H -0.33780 0.19650 0.66670
C15 C -0.2525(6) 0.2806(4) 0.7093(5)
C16 C -0.1350(7) 0.3094(4) 0.7514(5)
H10 H -0.12850 0.35300 0.76140
O21 O 0.1674(6) 0.0650(3) 0.8373(6)
H11 H 0.17960 0.09160 0.88200
H12 H 0.08490 0.05250 0.81020
O22 O -0.4214(9) 0.0815(5) 0.4634(7)
H13 H -0.46930 0.10800 0.48680
H14 H -0.39140 0.05430 0.50860
O23 O -0.2159(8) 0.4557(4) 0.5448(6)
H15 H -0.26100 0.42850 0.56660
H16 H -0.16970 0.47460 0.60320
O24 O 0.0964(6) 0.5444(3) 0.5855(5)
N1 N -0.4997(11) 0.0731(6) 0.8182(9)
H17 H -0.47940 0.10260 0.85680
N2 N -0.5672(8) 0.0009(4) 0.6685(7)
H18 H -0.58270 -0.03060 0.63030
C17 C -0.6009(17) 0.0350(8) 0.8104(15)
H19 H -0.66450 0.06140 0.82070
H20 H -0.57540 0.00400 0.86230
C18 C -0.6597(10) -0.0006(6) 0.7141(10)
H21 H -0.67920 -0.04400 0.72550
H22 H -0.73540 0.02040 0.67370
C19 C -0.3998(13) 0.0307(6) 0.8177(9)
H23 H -0.37270 0.00530 0.87640
H24 H -0.32940 0.05520 0.81520
C20 C -0.4467(14) -0.0112(9) 0.7315(11)
H25 H -0.39080 -0.00770 0.69530
H26 H -0.44310 -0.05480 0.75380
C21 C -0.5400(15) 0.1132(6) 0.7236(9)
H27 H -0.61410 0.13750 0.71810
H28 H -0.47450 0.14280 0.72530
C22 C -0.5659(16) 0.0698(7) 0.6387(10)
H29 H -0.50280 0.07560 0.60970
H30 H -0.64580 0.08050 0.59050
U1A U -0.10649(2) -0.028801(12) 0.62531(2)
U1B U -0.10649(2) 0.528801(12) 1.12531(2)
U2* U -0.60901(2) 0.245483(12) 0.95595(2)
U2C U -0.60901(2) 0.254517(12) 0.45595(2)
O6B O 0.1137(5) 0.5575(2) 0.9818(4)
O7* O 0.5939(5) 0.2576(2) 0.9604(4)
O14A O 0.0731(5) 0.5734(3) 0.7881(4)
O16C O 0.5137(5) 0.2128(3) 1.1152(4)
#END
