
#######################################################################
#
#                 Cambridge Crystallographic Data Centre
#                                CCDC
#
#######################################################################
#
# If this CIF has been generated from an entry in the Cambridge
# Structural Database, then it will include bibliographic, chemical,
# crystal, experimental, refinement or atomic coordinate data resulting
# from the CCDC's data processing and validation procedures.
#
#######################################################################

data_CSD_CIF_BEYKOH01
_audit_creation_date 2013-05-27
_audit_creation_method CSD-ConQuest-V1
_database_code_CSD BEYKOH01
_database_code_depnum_ccdc_archive 'CCDC 916428'
_chemical_formula_sum 'C28 H38 N2 O18 S2 U2'
_chemical_formula_moiety
;
(C16 H6 O18 S2 U2 2-)n,2n(C6 H16 N1 1+)
;
_journal_coden_Cambridge 9
_journal_volume 52
_journal_year 2013
_journal_page_first 2736
_journal_name_full 'Inorg.Chem. '
loop_
_publ_author_name
"Weiting Yang"
"Tao Tian"
"Hong-Yue Wu"
"Qing-Jiang Pan"
"Song Dang"
"Zhong-Ming Sun"
_chemical_name_systematic
;
catena-(bis(Triethylammonium) 
bis(\m~4~-5-sulfonatoisophthalato)-tetraoxo-di-uranium)
;
_cell_volume   1916.048
_exptl_crystal_density_diffrn 2.133
_diffrn_ambient_temperature 273
#These two values have been output from a single CSD field.
_refine_ls_R_factor_gt 0.0496
_refine_ls_wR_factor_gt 0.0496
_symmetry_cell_setting triclinic
_symmetry_space_group_name_H-M 'P -1'
_symmetry_Int_Tables_number 2
loop_
_symmetry_equiv_pos_site_id
_symmetry_equiv_pos_as_xyz
1 x,y,z
2 -x,-y,-z
_cell_length_a 9.2047(7)
_cell_length_b 13.1351(9)
_cell_length_c 16.0557(11)
_cell_angle_alpha 84.290(1)
_cell_angle_beta 83.180(1)
_cell_angle_gamma 86.828(1)
_cell_formula_units_Z 2
loop_
_atom_type_symbol
_atom_type_radius_bond
C 0.68
H 0.23
N 0.68
O 0.68
S 1.02
U 1.96
loop_
_atom_site_label
_atom_site_type_symbol
_atom_site_fract_x
_atom_site_fract_y
_atom_site_fract_z
U1 U 0.27964(4) 0.04834(3) 0.27254(2)
U2 U 0.28162(4) 0.44062(3) 0.24366(2)
S1 S 0.0585(3) 0.47959(18) 0.63594(16)
S2 S 0.7416(3) 0.00056(19) -0.05929(16)
O1 O 0.4159(9) -0.0349(5) 0.3119(4)
O2 O 0.1431(8) 0.1335(5) 0.2358(4)
O3 O 0.4188(8) 0.4958(5) 0.2887(4)
O4 O 0.1467(9) 0.3852(5) 0.1974(5)
O5 O 0.1164(8) 0.5525(5) 0.5691(4)
O6 O 0.1321(9) 0.4722(6) 0.7097(5)
O7 O -0.0996(8) 0.4956(5) 0.6547(4)
O8 O -0.1370(8) 0.1045(5) 0.7298(4)
O9 O -0.0954(9) 0.0214(5) 0.6164(4)
O10 O 0.2821(9) 0.3120(5) 0.3550(4)
O11 O 0.2857(8) 0.1448(5) 0.3875(4)
O12 O 0.4588(9) 0.3265(5) 0.1841(4)
O13 O 0.4667(8) 0.1578(5) 0.2129(4)
O14 O 0.6821(9) -0.0746(5) 0.0058(4)
O15 O 0.8960(9) -0.0043(6) -0.0785(5)
O16 O 0.6651(8) 0.0015(5) -0.1361(4)
O17 O 0.6272(9) 0.4782(5) -0.1053(4)
O18 O 0.7876(9) 0.3874(5) -0.1823(4)
C1 C 0.0757(11) 0.3588(7) 0.5955(6)
C2 C 0.1537(10) 0.3462(7) 0.5179(5)
H1 H 0.19740 0.40150 0.48570
C3 C 0.1661(11) 0.2496(7) 0.4885(6)
C4 C 0.0943(11) 0.1677(7) 0.5333(6)
H2 H 0.10000 0.10420 0.51200
C5 C 0.0127(11) 0.1821(8) 0.6113(6)
C6 C 0.0036(11) 0.2782(7) 0.6411(6)
H3 H -0.05150 0.28840 0.69220
C7 C 0.2525(11) 0.2351(7) 0.4040(6)
C8 C -0.0757(13) 0.0978(8) 0.6547(7)
C9 C 0.6895(11) 0.1218(7) -0.0234(6)
C10 C 0.6190(11) 0.1308(7) 0.0559(6)
H4 H 0.60050 0.07290 0.09310
C11 C 0.5752(11) 0.2279(7) 0.0800(6)
C12 C 0.5998(10) 0.3135(7) 0.0242(6)
H5 H 0.56690 0.37800 0.03950
C13 C 0.6743(12) 0.3024(7) -0.0551(6)
C14 C 0.7183(11) 0.2076(8) -0.0798(6)
H6 H 0.76650 0.20080 -0.13340
C15 C 0.4929(11) 0.2365(7) 0.1672(6)
C16 C 0.6992(12) 0.3938(8) -0.1167(7)
N1 N 0.2022(14) 0.2606(10) 0.9205(9)
H7 H 0.25250 0.20850 0.94780
C17 C 0.0463(19) 0.2474(14) 0.9560(11)
H8 H 0.01600 0.18340 0.93960
H9 H -0.01280 0.30210 0.92970
C18 C 0.0098(17) 0.2468(14) 1.0548(9)
H10 H -0.09350 0.24000 1.06990
H11 H 0.03830 0.30980 1.07240
H12 H 0.06230 0.19030 1.08200
C19 C 0.255(2) 0.3578(12) 0.9510(11)
H13 H 0.23880 0.35340 1.01210
H14 H 0.35960 0.36220 0.93440
C20 C 0.175(3) 0.4550(14) 0.9147(12)
H15 H 0.21220 0.51400 0.93460
H16 H 0.07230 0.45180 0.93250
H17 H 0.19190 0.45980 0.85430
C21 C 0.217(3) 0.236(2) 0.8337(12)
H18 H 0.15720 0.28320 0.80040
H19 H 0.18560 0.16670 0.83090
C22 C 0.3871(19) 0.2442(17) 0.7995(15)
H20 H 0.40130 0.23520 0.74040
H21 H 0.44340 0.19210 0.82940
H22 H 0.41860 0.31040 0.80820
N2 N 0.7128(11) 0.2791(8) 0.4210(7)
H23 H 0.78920 0.31840 0.42570
C23 C 0.5848(15) 0.3191(13) 0.4780(9)
H24 H 0.55900 0.38880 0.45700
H25 H 0.50130 0.27790 0.47580
C24 C 0.613(2) 0.3181(16) 0.5666(11)
H26 H 0.52750 0.34370 0.59940
H27 H 0.69360 0.36080 0.56970
H28 H 0.63750 0.24930 0.58830
C25 C 0.6839(15) 0.2956(10) 0.3303(8)
H29 H 0.59880 0.25810 0.32360
H30 H 0.66020 0.36770 0.31680
C26 C 0.8078(17) 0.2633(12) 0.2691(10)
H31 H 0.78040 0.27560 0.21300
H32 H 0.83120 0.19160 0.28120
H33 H 0.89170 0.30180 0.27370
C27 C 0.7625(18) 0.1709(11) 0.4451(12)
H34 H 0.78730 0.16570 0.50250
H35 H 0.85080 0.15430 0.40880
C28 C 0.649(2) 0.0923(12) 0.4390(14)
H36 H 0.68820 0.02480 0.45450
H37 H 0.62410 0.09630 0.38230
H38 H 0.56230 0.10640 0.47650
U1A U -0.27964(4) -0.04834(3) 0.72746(2)
U1A* U 0.72036(4) -0.04834(3) -0.27254(2)
U2A U -0.28162(4) 0.55938(3) 0.75634(2)
U2A* U 0.71838(4) 0.55938(3) -0.24366(2)
O7A O 0.0996(8) 0.5044(5) 0.3453(4)
O8A O 0.1370(8) -0.1045(5) 0.2702(4)
O9A O 0.0954(9) -0.0214(5) 0.3836(4)
O16A O 0.3349(8) -0.0015(5) 0.1361(4)
O17A O 0.3728(9) 0.5218(5) 0.1053(4)
O18A O 0.2124(9) 0.6126(5) 0.1823(4)
#END
