
#######################################################################
#
#                 Cambridge Crystallographic Data Centre
#                                CCDC
#
#######################################################################
#
# If this CIF has been generated from an entry in the Cambridge
# Structural Database, then it will include bibliographic, chemical,
# crystal, experimental, refinement or atomic coordinate data resulting
# from the CCDC's data processing and validation procedures.
#
#######################################################################

data_CSD_CIF_BEYLAU
_audit_creation_date 2013-05-19
_audit_creation_method CSD-ConQuest-V1
_database_code_CSD BEYLAU
_database_code_depnum_ccdc_archive 'CCDC 914739'
_chemical_formula_sum 'C18 H12 N2 O9 S1 U1'
_chemical_formula_moiety
;
(C10 H9 N2 1+)n,n(C8 H3 O9 S1 U1 1-)
;
_journal_coden_Cambridge 1350
_journal_volume 15
_journal_year 2013
_journal_page_first 2401
_journal_name_full 'CrystEngComm '
loop_
_publ_author_name
"P.Thuery"
_chemical_name_systematic
;
catena-[2,2'-Bipyridin-1-ium 
(\m~3~-3-sulfonatobenzene-1,2-dicarboxylato)-dioxo-uranium(vi)]
;
_cell_volume    933.161
_exptl_crystal_colour 'light yellow'
_exptl_crystal_density_diffrn 2.386
_exptl_crystal_description 'platelet'
_diffrn_ambient_temperature 150
#These two values have been output from a single CSD field.
_refine_ls_R_factor_gt 0.0298
_refine_ls_wR_factor_gt 0.0298
_symmetry_cell_setting triclinic
_symmetry_space_group_name_H-M 'P -1'
_symmetry_Int_Tables_number 2
loop_
_symmetry_equiv_pos_site_id
_symmetry_equiv_pos_as_xyz
1 x,y,z
2 -x,-y,-z
_cell_length_a 9.0811(6)
_cell_length_b 9.5438(5)
_cell_length_c 12.3439(9)
_cell_angle_alpha 78.643(4)
_cell_angle_beta 71.021(3)
_cell_angle_gamma 67.775(4)
_cell_formula_units_Z 2
loop_
_atom_type_symbol
_atom_type_radius_bond
C 0.68
H 0.23
N 0.68
O 0.68
S 1.02
U 1.96
loop_
_atom_site_label
_atom_site_type_symbol
_atom_site_fract_x
_atom_site_fract_y
_atom_site_fract_z
U1 U 0.740681(15) 0.579587(15) 0.547965(11)
S1 S 0.66198(11) 0.89029(12) 0.71853(8)
O1 O 0.7356(3) 0.4227(4) 0.6519(2)
O2 O 0.7429(3) 0.7348(4) 0.4431(2)
O3 O 0.9986(3) 0.5659(3) 0.5790(2)
O4 O 0.9876(3) 0.5423(3) 0.7663(2)
O5 O 1.3174(3) 0.5359(3) 0.5769(2)
O6 O 1.4488(3) 0.6752(4) 0.6024(3)
O7 O 0.6796(3) 0.7365(3) 0.6948(2)
O8 O 0.6135(3) 0.9022(4) 0.8410(2)
O9 O 0.5627(3) 1.0093(4) 0.6550(3)
C1 C 0.9973(4) 0.6161(4) 0.6726(3)
C2 C 1.3202(4) 0.6587(4) 0.5983(3)
C3 C 1.0082(4) 0.7719(4) 0.6541(3)
C4 C 1.1628(4) 0.7924(5) 0.6219(3)
C5 C 1.1726(5) 0.9370(5) 0.6071(3)
H1 H 1.27520 0.94910 0.58820
C6 C 1.0286(5) 1.0641(5) 0.6204(3)
H2 H 1.03460 1.16130 0.60910
C7 C 0.8762(4) 1.0441(5) 0.6507(3)
H3 H 0.78020 1.12870 0.65900
C8 C 0.8645(4) 0.8997(4) 0.6690(3)
N1 N 0.8260(4) 0.6538(4) 0.9846(3)
H4 H 0.89630 0.63480 0.92370
N2 N 1.0854(5) 0.7439(5) 0.9244(3)
C9 C 0.6995(6) 0.6034(6) 0.9984(4)
H5 H 0.69330 0.56150 0.93880
C10 C 0.5818(6) 0.6154(6) 1.1012(5)
H6 H 0.49510 0.57970 1.11330
C11 C 0.5919(6) 0.6814(6) 1.1880(4)
H7 H 0.51110 0.69110 1.25820
C12 C 0.7240(5) 0.7334(6) 1.1698(4)
H8 H 0.73120 0.77840 1.22730
C13 C 0.8431(5) 0.7167(5) 1.0652(3)
C14 C 0.9912(5) 0.7628(5) 1.0340(3)
C15 C 1.0296(6) 0.8189(6) 1.1115(4)
H9 H 0.96290 0.82790 1.18680
C16 C 1.1685(6) 0.8618(7) 1.0766(4)
H10 H 1.19560 0.90210 1.12720
C17 C 1.2659(5) 0.8434(6) 0.9646(4)
H11 H 1.36060 0.87040 0.93840
C18 C 1.2207(6) 0.7844(6) 0.8924(4)
H12 H 1.28750 0.77190 0.81730
U1* U 1.740681(15) 0.579587(15) 0.547965(11)
U1A U 1.259319(15) 0.420413(15) 0.452035(11)
O3A O 1.0014(3) 0.4341(3) 0.4210(2)
O5A O 0.6826(3) 0.4641(3) 0.4231(2)
O6* O 0.4488(3) 0.6752(4) 0.6024(3)
#END
