
#######################################################################
#
#                 Cambridge Crystallographic Data Centre
#                                CCDC
#
#######################################################################
#
# If this CIF has been generated from an entry in the Cambridge
# Structural Database, then it will include bibliographic, chemical,
# crystal, experimental, refinement or atomic coordinate data resulting
# from the CCDC's data processing and validation procedures.
#
#######################################################################

data_CSD_CIF_BIDMAE
_audit_creation_date 2013-07-07
_audit_creation_method CSD-ConQuest-V1
_database_code_CSD BIDMAE
_database_code_depnum_ccdc_archive 'CCDC 923788'
_chemical_formula_sum 'C36 H92 In12 N12 Ni1 O3 S20'
_chemical_formula_moiety
;
(C6 H16 N2 2+)n,n(C18 H42 N6 Ni1 2+),n(C12 H28 In12 N4 S20 4-),3n(H2 O1)
;
_journal_coden_Cambridge 1350
_journal_volume 15
_journal_year 2013
_journal_page_first 6040
_journal_name_full 'CrystEngComm '
loop_
_publ_author_name
"Yu-Hong Wang"
"Jian-Bing Jiang"
"Peng Wang"
"Xiao-Lu Sun"
"Qin-Yu Zhu"
"Jie Dai"
_chemical_name_systematic
;
catena-[1,2-Diammoniocyclohexane tris(1,2-diaminocyclohexane)-nickel(ii) 
heptakis(\m~3~-sulfido)-tridecakis(\m~2~-sulfido)-bis(1,2-diaminocyclohexane)-
dodeca-indium trihydrate]
;
_cell_volume   8920.481
_exptl_crystal_colour 'purple'
_exptl_crystal_density_diffrn 2.223
_exptl_crystal_description 'block'
_diffrn_ambient_temperature 223
_refine_special_details
;
Disordered cation and solvent molecules were not modelled and the disordered 
density was taken into account using the SQUEEZE/PLATON procedure. The unit 
cell was found to contain a total void space of 2317 A$3! holding 130 
electrons.
;
#These two values have been output from a single CSD field.
_refine_ls_R_factor_gt 0.0563
_refine_ls_wR_factor_gt 0.0563
_symmetry_cell_setting monoclinic
_symmetry_space_group_name_H-M 'P 21/c'
_symmetry_Int_Tables_number 14
loop_
_symmetry_equiv_pos_site_id
_symmetry_equiv_pos_as_xyz
1 x,y,z
2 -x,1/2+y,1/2-z
3 -x,-y,-z
4 x,-1/2-y,-1/2+z
_cell_length_a 18.9686(10)
_cell_length_b 18.8743(9)
_cell_length_c 26.1162(14)
_cell_angle_alpha 90
_cell_angle_beta 107.436(1)
_cell_angle_gamma 90
_cell_formula_units_Z 4
loop_
_atom_type_symbol
_atom_type_radius_bond
C 0.68
H 0.23
In 1.42
N 0.68
Ni 1.24
S 1.02
loop_
_atom_site_label
_atom_site_type_symbol
_atom_site_fract_x
_atom_site_fract_y
_atom_site_fract_z
In1 In 0.13038(4) -0.05253(4) 0.34145(3)
In2 In 0.07046(4) 0.11399(4) 0.25594(3)
In3 In 0.22495(4) -0.01926(3) 0.22841(3)
In4 In 0.27553(4) 0.09909(3) 0.36329(3)
In5 In 0.01696(4) 0.28639(4) 0.16746(3)
In6 In 0.15900(4) 0.15813(4) 0.13630(3)
In7 In 0.20829(4) 0.27966(4) 0.27149(3)
In8 In 0.30604(4) 0.03200(4) 0.12060(3)
In9 In 0.36684(4) 0.15173(3) 0.24588(3)
In10 In 0.40537(4) 0.25776(3) 0.37352(3)
In11 In 0.43715(3) 0.07288(3) 0.00282(3)
In12 In 0.48810(3) -0.05932(3) 0.10925(3)
S1 S 0.08896(14) -0.14659(14) 0.38985(11)
S2 S 0.02486(15) 0.02363(16) 0.30294(14)
S3 S 0.18376(16) -0.11074(14) 0.27763(11)
S4 S 0.23036(16) 0.00833(15) 0.41011(11)
S5 S -0.03165(14) 0.19156(16) 0.21289(12)
S6 S 0.11772(13) 0.06008(13) 0.18578(11)
S7 S 0.17097(14) 0.18174(13) 0.3223(1)
S8 S 0.27405(15) -0.07384(13) 0.16280(11)
S9 S 0.32585(13) 0.04972(12) 0.29214(10)
S10 S 0.38133(14) 0.15750(13) 0.4243(1)
S11 S 0.06454(16) 0.24310(15) 0.09627(11)
S12 S 0.10193(16) 0.35617(15) 0.23912(13)
S13 S 0.19605(14) 0.09429(15) 0.06899(10)
S14 S 0.25910(13) 0.22975(13) 0.2009(1)
S15 S 0.30658(14) 0.34348(13) 0.33563(10)
S16 S 0.36684(12) -0.01373(12) 0.05426(9)
S17 S 0.41044(14) 0.10237(14) 0.17575(10)
S18 S 0.46404(14) 0.21791(14) 0.30767(11)
S19 S 0.43971(12) -0.02555(12) -0.06438(9)
S20 S 0.49183(12) 0.16334(11) -0.05745(9)
N1 N 0.3219(4) 0.1196(4) -0.0356(3)
H1 H 0.28660 0.09860 -0.06000
N2 N 0.4314(4) 0.1672(4) 0.0565(3)
H2 H 0.46890 0.18390 0.08170
N3 N 0.4527(4) -0.1179(4) 0.1755(3)
H3 H 0.42490 -0.15550 0.17000
N4 N 0.5584(5) -0.0128(5) 0.1873(3)
H4 H 0.58250 0.02690 0.19000
C1 C 0.3160(6) 0.1895(7) -0.0133(5)
H5 H 0.34350 0.22080 -0.03100
C2 C 0.2390(6) 0.2197(6) -0.0301(5)
H6 H 0.20540 0.18610 -0.02060
H7 H 0.22240 0.22570 -0.06920
C3 C 0.2348(9) 0.2912(9) -0.0033(7)
H8 H 0.25470 0.32780 -0.02170
H9 H 0.18270 0.30250 -0.00850
C4 C 0.2732(9) 0.2948(9) 0.0526(7)
H10 H 0.24500 0.26800 0.07190
H11 H 0.27430 0.34430 0.06400
C5 C 0.3506(6) 0.2674(6) 0.0690(5)
H12 H 0.36810 0.26210 0.10810
H13 H 0.38280 0.30150 0.05860
C6 C 0.3553(7) 0.1962(7) 0.0428(6)
H14 H 0.32930 0.16330 0.06050
C7 C 0.4835(6) -0.0833(6) 0.2288(4)
H15 H 0.45300 -0.04090 0.22910
C8 C 0.4787(6) -0.1306(6) 0.2746(4)
H16 H 0.42680 -0.14070 0.27120
H17 H 0.50370 -0.17570 0.27320
C9 C 0.5146(9) -0.0944(8) 0.3274(5)
H18 H 0.48660 -0.05160 0.33010
H19 H 0.51370 -0.12610 0.35690
C10 C 0.5931(9) -0.0745(8) 0.3327(5)
H20 H 0.62170 -0.11710 0.33070
H21 H 0.61570 -0.05180 0.36750
C11 C 0.5944(9) -0.0241(7) 0.2879(4)
H22 H 0.64550 -0.01160 0.29070
H23 H 0.56790 0.01950 0.29100
C12 C 0.5582(6) -0.0587(6) 0.2341(4)
H24 H 0.58790 -0.10120 0.23230
Ni1 Ni 0.25971(7) -0.19126(7) -0.06876(6)
N5 N 0.3102(5) -0.1866(5) 0.0160(3)
H25 H 0.32990 -0.14940 0.03450
N6 N 0.2681(5) -0.3017(5) -0.0530(3)
H26 H 0.24660 -0.33520 -0.07500
N7 N 0.3600(4) -0.1906(5) -0.0897(3)
H27 H 0.40420 -0.19560 -0.06760
N8 N 0.2140(5) -0.2081(5) -0.1519(3)
H28 H 0.16710 -0.20760 -0.16930
N9 N 0.2511(4) -0.0796(5) -0.0753(4)
H29 H 0.28750 -0.05040 -0.07260
N10 N 0.1518(5) -0.1777(5) -0.0591(4)
H30 H 0.11990 -0.21160 -0.06110
C13 C 0.3054(9) -0.2577(7) 0.0373(5)
H31 H 0.25280 -0.26290 0.03540
C14 C 0.3478(7) -0.2665(7) 0.0976(5)
H32 H 0.39920 -0.25170 0.10380
H33 H 0.32580 -0.23530 0.11860
C15 C 0.3467(11) -0.3409(8) 0.1167(6)
H34 H 0.38320 -0.34530 0.15210
H35 H 0.29800 -0.35040 0.12090
C16 C 0.3616(13) -0.3930(9) 0.0828(6)
H36 H 0.35460 -0.43990 0.09660
H37 H 0.41340 -0.38910 0.08360
C17 C 0.3114(11) -0.3870(8) 0.0232(6)
H38 H 0.32720 -0.42160 0.00090
H39 H 0.25990 -0.39730 0.02110
C18 C 0.3172(10) -0.3110(6) 0.0022(5)
H40 H 0.36850 -0.30520 0.00090
C19 C 0.3417(6) -0.1804(7) -0.1468(5)
H41 H 0.32920 -0.12960 -0.15330
C20 C 0.4021(5) -0.1946(6) -0.1713(4)
H42 H 0.42030 -0.24290 -0.16200
H43 H 0.44310 -0.16210 -0.15530
C21 C 0.3795(7) -0.1864(7) -0.2319(5)
H44 H 0.37140 -0.13610 -0.24100
H45 H 0.41990 -0.20300 -0.24500
C22 C 0.3128(8) -0.2257(8) -0.2589(5)
H46 H 0.32340 -0.27660 -0.25510
H47 H 0.29780 -0.21430 -0.29730
C23 C 0.2489(6) -0.2085(7) -0.2360(5)
H48 H 0.23390 -0.15890 -0.24370
H49 H 0.20630 -0.23860 -0.25320
C24 C 0.2729(6) -0.2207(7) -0.1755(5)
H50 H 0.28560 -0.27160 -0.17000
C25 C 0.1731(7) -0.0600(6) -0.0851(6)
H51 H 0.14620 -0.07220 -0.12280
C26 C 0.1618(7) 0.0168(8) -0.0775(7)
H52 H 0.18060 0.04440 -0.10240
H53 H 0.18960 0.03060 -0.04080
C27 C 0.0789(10) 0.0335(12) -0.0875(10)
H54 H 0.07310 0.08380 -0.08050
H55 H 0.05200 0.02420 -0.12530
C28 C 0.0465(10) -0.0103(11) -0.0524(10)
H56 H 0.06770 0.00490 -0.01510
H57 H -0.00690 -0.00210 -0.06260
C29 C 0.0601(7) -0.0860(8) -0.0562(7)
H58 H 0.03020 -0.10320 -0.09140
H59 H 0.04390 -0.11110 -0.02890
C30 C 0.1402(7) -0.1036(7) -0.0488(6)
H60 H 0.16850 -0.09310 -0.01110
In5A In -0.01696(4) -0.21361(4) 0.33254(3)
In10C In 0.40537(4) 0.24224(3) -0.12648(3)
In11B In 0.56285(3) -0.07288(3) -0.00282(3)
In12B In 0.51190(3) 0.05932(3) -0.10925(3)
S1A S -0.08896(14) 0.35341(14) 0.11015(11)
S19B S 0.56029(12) 0.02555(12) 0.06438(9)
S20B S 0.50817(12) -0.16334(11) 0.05745(9)
S20C S 0.49183(12) 0.33666(11) 0.44255(9)
#END
