
#######################################################################
#
#                 Cambridge Crystallographic Data Centre
#                                CCDC
#
#######################################################################
#
# If this CIF has been generated from an entry in the Cambridge
# Structural Database, then it will include bibliographic, chemical,
# crystal, experimental, refinement or atomic coordinate data resulting
# from the CCDC's data processing and validation procedures.
#
#######################################################################

data_CSD_CIF_BIDMIM
_audit_creation_date 2013-07-07
_audit_creation_method CSD-ConQuest-V1
_database_code_CSD BIDMIM
_database_code_depnum_ccdc_archive 'CCDC 923790'
_chemical_formula_sum 'C90 H224 Co8 In16 N30 O5 S37'
_chemical_formula_moiety
;
(C6 H16 N2 2+)2n,4n(C18 H42 Co1 N6 2+),n(Co4 In16 S37 12-),n(C6 H14 N2),5n(H2 
O1)
;
_journal_coden_Cambridge 1350
_journal_volume 15
_journal_year 2013
_journal_page_first 6040
_journal_name_full 'CrystEngComm '
loop_
_publ_author_name
"Yu-Hong Wang"
"Jian-Bing Jiang"
"Peng Wang"
"Xiao-Lu Sun"
"Qin-Yu Zhu"
"Jie Dai"
_chemical_name_systematic
;
catena-[bis(1,2-Diammoniocyclohexane) 
tetrakis(tris(1,2-diaminocyclohexane)-cobalt(ii)) 
(\m~4~-sulfido)-dodecakis(\m~3~-sulfido)-octadecakis(\m~2~-sulfido)-bis(\m~2~-
trisulfido)-tetra-cobalt-hexadeca-indium 1,2-diaminocyclohexane solvate 
pentahydrate]
;
_cell_volume  36700.641
_exptl_crystal_density_diffrn 1.908
_diffrn_ambient_temperature 296
_refine_special_details
;
S1',S12' and S1,S12 disordered over two sites with occupancies 0.30:0.40; 
Disordered cation and solvent molecules were not modelled and the disordered 
density was taken into account using the SQUEEZE/PLATON procedure. The unit 
cell was found to contain a void of 8776 A$3! holding 802 electrons.
;
#These two values have been output from a single CSD field.
_refine_ls_R_factor_gt 0.117
_refine_ls_wR_factor_gt 0.117
_symmetry_cell_setting orthorhombic
_symmetry_space_group_name_H-M 'F d d d'
_symmetry_Int_Tables_number 70
loop_
_symmetry_equiv_pos_site_id
_symmetry_equiv_pos_as_xyz
1 x,y,z
2 3/4-x,3/4-y,z
3 3/4-x,y,3/4-z
4 x,3/4-y,3/4-z
5 x,1/2+y,1/2+z
6 3/4-x,1/4-y,1/2+z
7 3/4-x,1/2+y,1/4-z
8 x,1/4-y,1/4-z
9 1/2+x,y,1/2+z
10 1/4-x,3/4-y,1/2+z
11 1/4-x,y,1/4-z
12 1/2+x,3/4-y,1/4-z
13 1/2+x,1/2+y,z
14 1/4-x,1/4-y,z
15 1/4-x,1/2+y,3/4-z
16 1/2+x,1/4-y,3/4-z
17 -x,-y,-z
18 -3/4+x,-3/4+y,-z
19 -3/4+x,-y,-3/4+z
20 -x,-3/4+y,-3/4+z
21 -x,-1/2-y,-1/2-z
22 -3/4+x,-1/4+y,-1/2-z
23 -3/4+x,-1/2-y,-1/4+z
24 -x,-1/4+y,-1/4+z
25 -1/2-x,-y,-1/2-z
26 -1/4+x,-3/4+y,-1/2-z
27 -1/4+x,-y,-1/4+z
28 -1/2-x,-3/4+y,-1/4+z
29 -1/2-x,-1/2-y,-z
30 -1/4+x,-1/4+y,-z
31 -1/4+x,-1/2-y,-3/4+z
32 -1/2-x,-1/4+y,-3/4+z
_cell_length_a 24.8713(15)
_cell_length_b 28.3131(16)
_cell_length_c 52.118(3)
_cell_angle_alpha 90
_cell_angle_beta 90
_cell_angle_gamma 90
_cell_formula_units_Z 8
loop_
_atom_type_symbol
_atom_type_radius_bond
C 0.68
H 0.23
Co 1.26
In 1.42
N 0.68
S 1.02
loop_
_atom_site_label
_atom_site_type_symbol
_atom_site_fract_x
_atom_site_fract_y
_atom_site_fract_z
Co1 Co 0.07090(12) 0.07674(11) 0.09933(5)
In1 In -0.03936(8) 0.26663(7) 0.04634(4)
In2 In 0.07099(7) 0.17218(7) 0.04566(3)
In3 In 0.07133(8) 0.27233(7) 0.09952(4)
In4 In -0.04238(7) 0.17352(7) 0.09996(3)
S1 S 0.0127(3) 0.2176(3) 0.01767(13)
S2 S -0.1011(3) 0.2209(3) 0.07266(14)
S3 S 0.0152(3) 0.3208(3) 0.07184(15)
S4 S 0.12500 0.12500 0.01714(17)
S5 S 0.0138(2) 0.1213(2) 0.07307(11)
S6 S 0.1297(3) 0.2222(2) 0.07235(11)
S7 S -0.1025(4) 0.12500 0.12500
S8 S 0.0143(2) 0.2232(2) 0.12787(12)
S9 S 0.12500 0.3255(4) 0.12500
S10 S 0.12500 0.12500 0.12500
S11 S -0.0963(4) 0.3111(3) 0.01377(19)
S12 S -0.12500 0.37500 0.0562(4)
Co2 Co 0.1032(2) 0.3474(2) -0.01678(11)
N1 N 0.1207(19) 0.3369(17) 0.0261(8)
N2 N 0.1285(19) 0.4180(13) -0.0067(9)
N3 N 0.0881(13) 0.3635(13) -0.0570(6)
N4 N 0.0205(14) 0.3648(15) -0.0134(6)
N5 N 0.0889(18) 0.2735(14) -0.0279(8)
N6 N 0.1870(14) 0.3283(15) -0.0240(8)
C1 C 0.129(3) 0.386(2) 0.036(1)
H1 H 0.09030 0.39290 0.03860
C2 C 0.144(3) 0.385(2) 0.0639(10)
H2 H 0.17110 0.36160 0.06650
H3 H 0.11230 0.37590 0.07380
C3 C 0.164(3) 0.432(2) 0.0741(8)
H4 H 0.13350 0.45110 0.07910
H5 H 0.18560 0.42590 0.08920
C4 C 0.1964(19) 0.457(2) 0.0544(11)
H6 H 0.22550 0.43750 0.04790
H7 H 0.21100 0.48630 0.06110
C5 C 0.154(2) 0.4655(16) 0.0344(8)
H8 H 0.12270 0.47970 0.04230
H9 H 0.16770 0.48740 0.02160
C6 C 0.138(2) 0.420(2) 0.0214(10)
H10 H 0.17550 0.41060 0.01930
C7 C 0.0321(18) 0.3737(19) -0.0611(9)
H11 H 0.01710 0.34180 -0.06280
C8 C 0.0144(18) 0.3953(18) -0.0848(9)
H12 H 0.02860 0.37680 -0.09890
H13 H 0.03050 0.42640 -0.08590
C9 C -0.043(2) 0.4003(18) -0.0886(9)
H14 H -0.05850 0.36970 -0.09300
H15 H -0.04970 0.42130 -0.10300
C10 C -0.072(2) 0.4191(19) -0.0657(9)
H16 H -0.06470 0.45280 -0.06440
H17 H -0.11000 0.41490 -0.06790
C11 C -0.0548(18) 0.3962(18) -0.0418(9)
H18 H -0.07150 0.36530 -0.04090
H19 H -0.06810 0.41470 -0.02740
C12 C 0.0049(18) 0.3903(19) -0.0389(9)
H20 H 0.01840 0.42260 -0.03670
C13 C 0.183(2) 0.284(2) -0.0371(11)
H21 H 0.17460 0.29300 -0.05490
C14 C 0.237(2) 0.259(2) -0.0389(12)
H22 H 0.24860 0.24970 -0.02190
H23 H 0.26360 0.27970 -0.04630
C15 C 0.229(3) 0.212(2) -0.0571(13)
H24 H 0.22500 0.22240 -0.07470
H25 H 0.26160 0.19330 -0.05610
C16 C 0.182(3) 0.179(2) -0.0509(12)
H26 H 0.19140 0.15940 -0.03650
H27 H 0.17550 0.15870 -0.06550
C17 C 0.127(3) 0.206(2) -0.0443(11)
H28 H 0.10870 0.21460 -0.06010
H29 H 0.10320 0.18460 -0.03500
C18 C 0.136(2) 0.249(2) -0.0286(11)
H30 H 0.14360 0.23900 -0.01110
S13? S -0.0912(6) 0.3212(5) 0.0247(3)
S14? S -0.1345(7) 0.3680(7) 0.0387(3)
S11A S -0.1537(4) 0.4389(3) 0.01377(19)
Co1A Co -0.32090(12) 0.67326(11) 0.09933(5)
In1A In -0.21064(8) 0.48337(7) 0.04634(4)
In2A In -0.32099(7) 0.57782(7) 0.04566(3)
In3A In -0.32133(8) 0.47767(7) 0.09952(4)
In4A In -0.20762(7) 0.57648(7) 0.09996(3)
S1A S -0.2627(3) 0.5324(3) 0.01767(13)
S2A S -0.1489(3) 0.5291(3) 0.07266(14)
S3A S -0.2652(3) 0.4292(3) 0.07184(15)
S5A S -0.2638(2) 0.6287(2) 0.07307(11)
S6A S -0.3797(3) 0.5278(2) 0.07235(11)
S8A S -0.2643(2) 0.5268(2) 0.12787(12)
Co1G Co 0.07090(12) 0.17326(11) 0.15067(5)
In1G In -0.03936(8) -0.01663(7) 0.20366(4)
In2G In 0.07099(7) 0.07782(7) 0.20434(3)
In3G In 0.07133(8) -0.02233(7) 0.15048(4)
In4G In -0.04238(7) 0.07648(7) 0.15004(3)
S1G S 0.0127(3) 0.0324(3) 0.23233(13)
S2G S -0.1011(3) 0.0291(3) 0.17734(14)
S3G S 0.0152(3) -0.0708(3) 0.17816(15)
S4G S 0.12500 0.12500 0.23286(17)
S5G S 0.0138(2) 0.1287(2) 0.17693(11)
S6G S 0.1297(3) 0.0278(2) 0.17765(11)
S8G S 0.0143(2) 0.0268(2) 0.12213(12)
S9G S 0.12500 -0.0755(4) 0.12500
S11G S -0.0963(4) -0.0611(3) 0.23623(19)
S12F S -0.12500 -0.12500 0.1938(4)
S11F S -0.1537(4) -0.1889(3) 0.23623(19)
Co1J Co 0.17910(12) 0.07674(11) 0.15067(5)
In1J In 0.28936(8) 0.26663(7) 0.20366(4)
In2J In 0.17901(7) 0.17218(7) 0.20434(3)
In3J In 0.17867(8) 0.27233(7) 0.15048(4)
In4J In 0.29238(7) 0.17352(7) 0.15004(3)
S1J S 0.2373(3) 0.2176(3) 0.23233(13)
S2J S 0.3511(3) 0.2209(3) 0.17734(14)
S3J S 0.2348(3) 0.3208(3) 0.17816(15)
S5J S 0.2362(2) 0.1213(2) 0.17693(11)
S6J S 0.1203(3) 0.2222(2) 0.17765(11)
S7J S 0.3525(4) 0.12500 0.12500
S8J S 0.2357(2) 0.2232(2) 0.12213(12)
Co1F Co -0.32090(12) 0.57674(11) 0.15067(5)
Co1L Co -0.42910(12) 0.57674(11) 0.09933(5)
Co1M Co 0.17910(12) 0.17326(11) 0.09933(5)
In1F In -0.21064(8) -0.23337(7) 0.20366(4)
In2M In 0.17901(7) 0.07782(7) 0.04566(3)
In3M In 0.17867(8) -0.02233(7) 0.09952(4)
In4M In 0.29238(7) 0.07648(7) 0.09996(3)
S4A S -0.37500 0.62500 0.01714(17)
S6L S -0.3703(3) 0.7222(2) 0.07235(11)
S6M S 0.1203(3) 0.0278(2) 0.07235(11)
S7A S -0.1475(4) 0.62500 0.12500
S8F S -0.2643(2) 0.7232(2) 0.12213(12)
S8M S 0.2357(2) 0.0268(2) 0.12787(12)
S9A S -0.37500 0.4245(4) 0.12500
S10A S -0.37500 0.62500 0.12500
S11J S 0.3463(4) 0.3111(3) 0.23623(19)
#END
