
#######################################################################
#
#                 Cambridge Crystallographic Data Centre
#                                CCDC
#
#######################################################################
#
# If this CIF has been generated from an entry in the Cambridge
# Structural Database, then it will include bibliographic, chemical,
# crystal, experimental, refinement or atomic coordinate data resulting
# from the CCDC's data processing and validation procedures.
#
#######################################################################

data_CSD_CIF_BIDMEI
_audit_creation_date 2013-07-07
_audit_creation_method CSD-ConQuest-V1
_database_code_CSD BIDMEI
_database_code_depnum_ccdc_archive 'CCDC 923789'
_chemical_formula_sum 'C36 H96 In4 N12 Ni2 O6 S8'
_chemical_formula_moiety
;
(C18 H42 N6 Ni1 2+)2n,n(In4 S8 4-),6n(H2 O1)
;
_journal_coden_Cambridge 1350
_journal_volume 15
_journal_year 2013
_journal_page_first 6040
_journal_name_full 'CrystEngComm '
loop_
_publ_author_name
"Yu-Hong Wang"
"Jian-Bing Jiang"
"Peng Wang"
"Xiao-Lu Sun"
"Qin-Yu Zhu"
"Jie Dai"
_chemical_name_systematic
;
catena-[bis(tris(1,2-Diaminocyclohexane)-nickel(ii)) 
octakis(\m~2~-sulfido)-tetra-indium hexahydrate]
;
_cell_volume   6079.567
_exptl_crystal_colour 'pink'
_exptl_crystal_density_diffrn 1.777
_diffrn_ambient_temperature 223
#These two values have been output from a single CSD field.
_refine_ls_R_factor_gt 0.053
_refine_ls_wR_factor_gt 0.053
_symmetry_cell_setting monoclinic
_symmetry_space_group_name_H-M 'C 2/c'
_symmetry_Int_Tables_number 15
loop_
_symmetry_equiv_pos_site_id
_symmetry_equiv_pos_as_xyz
1 x,y,z
2 -x,y,1/2-z
3 1/2+x,1/2+y,z
4 1/2-x,1/2+y,1/2-z
5 -x,-y,-z
6 x,-y,-1/2+z
7 -1/2-x,-1/2-y,-z
8 -1/2+x,-1/2-y,-1/2+z
_cell_length_a 32.042(4)
_cell_length_b 9.8206(8)
_cell_length_c 24.305(2)
_cell_angle_alpha 90
_cell_angle_beta 127.353(2)
_cell_angle_gamma 90
_cell_formula_units_Z 4
loop_
_atom_type_symbol
_atom_type_radius_bond
C 0.68
In 1.42
N 0.68
Ni 1.24
O 0.68
S 1.02
loop_
_atom_site_label
_atom_site_type_symbol
_atom_site_fract_x
_atom_site_fract_y
_atom_site_fract_z
Ni1 Ni 0.59710(3) 0.80816(8) 0.45951(4)
N1 N 0.5504(2) 0.6281(5) 0.4245(3)
N2 N 0.5338(2) 0.8828(5) 0.4584(3)
N3 N 0.63852(19) 0.9952(5) 0.4979(2)
N4 N 0.6425(2) 0.7627(6) 0.5678(3)
N5 N 0.6552(2) 0.7206(5) 0.4532(3)
N6 N 0.56369(19) 0.8646(5) 0.3551(3)
C1 C 0.5068(3) 0.6497(8) 0.4283(6)
C2 C 0.4643(3) 0.5395(7) 0.3927(4)
C3 C 0.4210(4) 0.5671(10) 0.3996(7)
C4 C 0.4046(4) 0.7039(12) 0.3939(7)
C5 C 0.4476(3) 0.8102(8) 0.4300(4)
C6 C 0.4902(4) 0.7860(9) 0.4213(6)
C7 C 0.6637(3) 1.0040(8) 0.5723(4)
C8 C 0.7051(3) 1.1149(8) 0.6087(4)
C9 C 0.7321(4) 1.1205(12) 0.6862(4)
C10 C 0.7529(4) 0.9891(12) 0.7181(4)
C11 C 0.7103(3) 0.8698(9) 0.6835(3)
C12 C 0.6847(3) 0.8697(8) 0.6044(4)
C13 C 0.6397(2) 0.7379(6) 0.3818(3)
C14 C 0.6868(2) 0.7340(7) 0.3812(3)
C15 C 0.6699(3) 0.7620(8) 0.3075(4)
C16 C 0.6389(3) 0.8953(8) 0.2785(3)
C17 C 0.5907(3) 0.8912(7) 0.2773(3)
C18 C 0.6086(2) 0.8695(6) 0.3518(3)
In1 In 0.689909(14) 0.29289(4) 0.43140(2)
In2 In 0.565525(14) 0.35954(4) 0.30676(2)
S1 S 0.73425(5) 0.07009(15) 0.47678(7)
S2 S 0.64172(6) 0.34408(19) 0.30753(8)
S3 S 0.61432(6) 0.33983(17) 0.43415(7)
S4 S 0.50000 0.1729(2) 0.25000
S5 S 0.50000 0.5467(2) 0.25000
O1 O 0.3000(2) 0.4996(6) 0.4135(3)
O2 O 0.4150(3) 0.1988(7) 0.3643(3)
O3 O 0.5129(2) 0.1637(6) 0.3917(3)
In1A In 0.310091(14) 0.29289(4) 0.06860(2)
In2A In 0.434475(14) 0.35954(4) 0.19324(2)
S1A S 0.26575(5) 0.07009(15) 0.02322(7)
S2A S 0.35828(6) 0.34408(19) 0.19247(8)
S3A S 0.38568(6) 0.33983(17) 0.06585(7)
In1F In 0.810091(14) 0.20711(4) 0.56860(2)
In1G In 0.189909(14) 0.20711(4) -0.06860(2)
S1F S 0.76575(5) 0.42991(15) 0.52322(7)
S1G S 0.23425(5) 0.42991(15) -0.02322(7)
#END
