
#######################################################################
#
#                 Cambridge Crystallographic Data Centre
#                                CCDC
#
#######################################################################
#
# If this CIF has been generated from an entry in the Cambridge
# Structural Database, then it will include bibliographic, chemical,
# crystal, experimental, refinement or atomic coordinate data resulting
# from the CCDC's data processing and validation procedures.
#
#######################################################################

data_CSD_CIF_BIDPAH
_audit_creation_date 2013-07-07
_audit_creation_method CSD-ConQuest-V1
_database_code_CSD BIDPAH
_database_code_depnum_ccdc_archive 'CCDC 918529'
_chemical_formula_sum 'C56 H95 In1 N6 O16'
_chemical_formula_moiety
;
(C24 H15 In1 N1 O8 1-)n,n(C4 H12 N1 1+),4n(C2 H6 O1),4n(C5 H11 N1 O1)
;
_journal_coden_Cambridge 182
_journal_volume 49
_journal_year 2013
_journal_page_first 11155
_journal_name_full 'Chem.Commun. '
loop_
_publ_author_name
"Libo Sun"
"Hongzhu Xing"
"Zhiqiang Liang"
"Jihong Yu"
"Ruren Xu"
_chemical_name_systematic
;
catena-[diethylammonium 
(\m~4~-5-[bis(4-carboxylatobenzyl)amino]benzene-1,3-dicarboxylato)-indium 
N,N-diethylformamide ethanol solvate]
;
_cell_volume  28787.397
_exptl_crystal_colour 'brown'
_exptl_crystal_density_diffrn 1.27
_exptl_crystal_description 'block'
_diffrn_ambient_temperature 296
_refine_special_details
;
Disordered solvent and cation molecules were not modelled and the disordered 
density was taken into account using the SQUEEZE/PLATON procedure.
;
#These two values have been output from a single CSD field.
_refine_ls_R_factor_gt 0.0448
_refine_ls_wR_factor_gt 0.0448
_symmetry_cell_setting rhombohedral
_symmetry_space_group_name_H-M 'R -3 c'
_symmetry_Int_Tables_number 167
loop_
_symmetry_equiv_pos_site_id
_symmetry_equiv_pos_as_xyz
1 x,y,z
2 -y,x-y,z
3 -x+y,-x,z
4 y,x,1/2-z
5 x-y,-y,1/2-z
6 -x,-x+y,1/2-z
7 2/3+x,1/3+y,1/3+z
8 2/3-y,1/3+x-y,1/3+z
9 2/3-x+y,1/3-x,1/3+z
10 2/3+y,1/3+x,5/6-z
11 2/3+x-y,1/3-y,5/6-z
12 2/3-x,1/3-x+y,5/6-z
13 1/3+x,2/3+y,2/3+z
14 1/3-y,2/3+x-y,2/3+z
15 1/3-x+y,2/3-x,2/3+z
16 1/3+y,2/3+x,1/6-z
17 1/3+x-y,2/3-y,1/6-z
18 1/3-x,2/3-x+y,1/6-z
19 -x,-y,-z
20 y,-x+y,-z
21 x-y,x,-z
22 -y,-x,-1/2+z
23 -x+y,y,-1/2+z
24 x,x-y,-1/2+z
25 -2/3-x,-1/3-y,-1/3-z
26 -2/3+y,-1/3-x+y,-1/3-z
27 -2/3+x-y,-1/3+x,-1/3-z
28 -2/3-y,-1/3-x,-5/6+z
29 -2/3-x+y,-1/3+y,-5/6+z
30 -2/3+x,-1/3+x-y,-5/6+z
31 -1/3-x,-2/3-y,-2/3-z
32 -1/3+y,-2/3-x+y,-2/3-z
33 -1/3+x-y,-2/3+x,-2/3-z
34 -1/3-y,-2/3-x,-1/6+z
35 -1/3-x+y,-2/3+y,-1/6+z
36 -1/3+x,-2/3+x-y,-1/6+z
_cell_length_a 38.2369(10)
_cell_length_b 38.2369(10)
_cell_length_c 22.7356(12)
_cell_angle_alpha 90
_cell_angle_beta 90
_cell_angle_gamma 120
_cell_formula_units_Z 18
loop_
_atom_type_symbol
_atom_type_radius_bond
C 0.68
H 0.23
In 1.42
N 0.68
O 0.68
loop_
_atom_site_label
_atom_site_type_symbol
_atom_site_fract_x
_atom_site_fract_y
_atom_site_fract_z
In1 In 0.411383(7) 0.078050(7) 0.08330
N1 N 0.66670 0.11489(10) 0.08330
O1 O 0.46590(6) 0.07451(6) 0.11442(11)
O2 O 0.46951(6) 0.10389(6) 0.03052(10)
O3 O 0.62293(6) -0.05040(7) -0.00306(9)
O4 O 0.60590(7) -0.01060(7) -0.04566(10)
C1 C 0.48486(10) 0.09212(9) 0.07065(19)
C2 C 0.52770(9) 0.10145(9) 0.06055(17)
C3 C 0.54957(10) 0.12221(10) 0.01211(17)
H1 H 0.53790 0.13080 -0.01620
C4 C 0.58938(10) 0.13056(10) 0.00518(17)
H2 H 0.60430 0.14560 -0.02710
C5 C 0.60677(8) 0.11705(8) 0.04489(17)
C6 C 0.58417(9) 0.09582(9) 0.09221(16)
H3 H 0.59530 0.08620 0.11970
C7 C 0.54528(9) 0.08821(8) 0.10053(15)
H4 H 0.53090 0.07400 0.13360
C8 C 0.64917(8) 0.12698(9) 0.03513(15)
H5 H 0.65030 0.11390 -0.00080
H6 H 0.66570 0.15590 0.02930
C9 C 0.66670 0.07817(12) 0.08330
C10 C 0.64557(7) 0.04864(9) 0.04156(13)
H7 H 0.63080 0.05310 0.01300
C11 C 0.64596(8) 0.01348(9) 0.04137(14)
C12 C 0.66670 0.00575(11) 0.08330
H8 H 0.66670 -0.01860 0.08330
C13 C 0.62341(9) -0.01672(11) -0.00542(17)
O1Q O 0.867433(60) 0.275277(60) 0.052247(110)
O2Q O 0.863823(60) 0.301047(60) 0.136147(100)
O3Q O 0.710403(60) -0.006663(70) 0.169727(90)
O4Q O 0.727433(70) 0.050167(70) 0.212327(100)
C1Q C 0.848473(100) 0.273927(90) 0.096017(190)
C2Q C 0.805633(90) 0.240417(90) 0.106117(170)
C3Q C 0.783763(100) 0.239307(100) 0.154557(170)
H1Q H 0.79543 0.25957 0.18287
C4Q C 0.743953(100) 0.207847(100) 0.161487(170)
H2Q H 0.72903 0.20797 0.19377
C5Q C 0.726563(80) 0.176947(80) 0.121777(170)
C6Q C 0.749163(90) 0.178317(90) 0.074457(160)
H3Q H 0.73803 0.15757 0.04697
C7Q C 0.788053(90) 0.209597(80) 0.066137(150)
H4Q H 0.80243 0.20977 0.03307
C8Q C 0.684163(80) 0.144477(90) 0.131537(150)
H5Q H 0.68303 0.13027 0.16747
H6Q H 0.66763 0.15687 0.13737
C10Q C 0.687763(70) 0.069737(90) 0.125107(130)
H7Q H 0.70253 0.08897 0.15367
C11Q C 0.687373(80) 0.034187(90) 0.125297(140)
C13Q C 0.709923(90) 0.026537(110) 0.172087(170)
In1A In 0.921950(7) 0.333333(7) 0.08330
In1R In 0.588617(7) -0.078050(7) -0.08330
In1EA In 0.744717(7) 0.000000(7) 0.25003
O1O O 0.407843(60) 0.132567(60) 0.052247(110)
O2O O 0.437223(60) 0.136177(60) 0.136147(100)
O3R O 0.37707(6) 0.05040(7) 0.00306(9)
O3AA O 0.383733(60) 0.043737(70) 0.163607(90)
O4R O 0.39410(7) 0.01060(7) 0.04566(10)
O4AA O 0.343933(70) 0.060767(70) 0.121007(100)
#END
