
#######################################################################
#
#                 Cambridge Crystallographic Data Centre
#                                CCDC
#
#######################################################################
#
# If this CIF has been generated from an entry in the Cambridge
# Structural Database, then it will include bibliographic, chemical,
# crystal, experimental, refinement or atomic coordinate data resulting
# from the CCDC's data processing and validation procedures.
#
#######################################################################

data_CSD_CIF_BIFNUC
_audit_creation_date 2018-07-11
_audit_creation_method CSD-ConQuest-V1
_database_code_CSD BIFNUC
_database_code_depnum_ccdc_archive 'CCDC 1835641'
_chemical_formula_sum 'C18 H62 Ca2 N12 O52 Th2'
_chemical_formula_moiety
;
6(H5 N2 1+),n(C18 H4 Ca2 O38 Th2 6-),14(H2 O1)
;
_journal_coden_Cambridge 1147
_journal_volume 18
_journal_year 2018
_journal_page_first 4593
_journal_name_full 'Cryst.Growth Des. '
loop_
_publ_author_name
"F.Blanchard"
"M.Rivenet"
"N.Vigier"
"I.Hablot"
"S.Grandjean"
"F.Abraham"
_chemical_name_systematic
;
catena-[hexakis(hydrazinium) 
nonakis(\m-oxalato)-diaqua-di-thorium(iv)-di-calcium(ii) tetradecahydrate]
;
_cell_volume   2713.103
_exptl_crystal_colour 'white'
_exptl_crystal_density_diffrn 2.232
_exptl_crystal_description 'block'
_diffrn_ambient_temperature 293
#These two values have been output from a single CSD field.
_refine_ls_R_factor_gt 0.0214
_refine_ls_wR_factor_gt 0.0214
_symmetry_cell_setting monoclinic
_symmetry_space_group_name_H-M 'P 21/n'
_symmetry_Int_Tables_number 14
loop_
_symmetry_equiv_pos_site_id
_symmetry_equiv_pos_as_xyz
1 x,y,z
2 1/2-x,1/2+y,1/2-z
3 -x,-y,-z
4 -1/2+x,-1/2-y,-1/2+z
_cell_length_a 11.4361(13)
_cell_length_b 14.4861(18)
_cell_length_c 16.4391(18)
_cell_angle_alpha 90
_cell_angle_beta 94.978(5)
_cell_angle_gamma 90
_cell_formula_units_Z 2
loop_
_atom_type_symbol
_atom_type_radius_bond
C 0.68
H 0.23
Ca 1.76
N 0.68
O 0.68
Th 2.06
loop_
_atom_site_label
_atom_site_type_symbol
_atom_site_fract_x
_atom_site_fract_y
_atom_site_fract_z
Th1 Th 0.46324(2) 0.19876(2) 0.40250(2)
Ca1 Ca 0.94615(4) 0.09717(3) 0.25317(3)
O1 O 0.26133(15) 0.25102(13) 0.36282(11)
O2 O 0.33743(14) 0.09938(13) 0.30476(11)
O3 O 0.56282(14) 0.10355(13) 0.30049(11)
O4 O 0.66675(15) 0.24305(12) 0.38099(10)
O5 O 0.37488(16) 0.06472(13) 0.47285(12)
O6 O 0.39455(16) -0.07209(13) 0.53513(12)
O7 O 0.57446(15) 0.24080(13) 0.53553(10)
O8 O 0.34488(15) 0.25079(13) 0.51577(10)
O9 O 0.48630(16) 0.36712(12) 0.42182(10)
O10 O 0.46567(16) 0.29177(12) 0.27568(10)
O11 O 0.07499(15) 0.21400(13) 0.32571(11)
O12 O 0.15490(16) 0.04523(13) 0.27639(12)
O13 O 0.73402(15) 0.05899(12) 0.25733(11)
O14 O 0.82710(15) 0.22153(13) 0.31557(11)
O15 O 0.57752(17) 0.31779(13) 0.65274(11)
O16 O 0.33818(16) 0.31974(13) 0.63671(11)
O17 O 0.54666(17) 0.49962(12) 0.37040(11)
O18 O 0.54694(18) 0.41572(14) 0.22306(11)
C1 C 0.1808(2) 0.19792(18) 0.33165(14)
C2 C 0.2258(2) 0.10498(18) 0.30095(14)
C3 C 0.6707(2) 0.11266(17) 0.29350(14)
C4 C 0.7278(2) 0.19977(17) 0.33318(13)
C5 C 0.4336(2) -0.00279(18) 0.50265(14)
C6 C 0.5254(2) 0.28119(17) 0.59232(14)
C7 C 0.3909(2) 0.28469(17) 0.58174(14)
C8 C 0.5146(2) 0.41781(17) 0.36453(14)
C9 C 0.5094(2) 0.37256(17) 0.27949(14)
O19 O 0.9481(2) 0.05975(16) 0.39849(12)
H1 H 1.00560 0.07290 0.43120
H2 H 0.92030 0.01130 0.41660
O20 O 0.13182(18) 0.49794(16) 0.59848(11)
H3 H 0.16190 0.48060 0.64510
H4 H 0.06470 0.52140 0.60330
O21 O 0.8614(3) 0.37732(18) 0.2076(2)
H5 H 0.84520 0.33690 0.24240
H6 H 0.82600 0.42740 0.21670
O22 O 0.0952(2) 0.41756(17) 0.2090(2)
H7 H 0.02290 0.40390 0.20000
H8 H 0.10280 0.47600 0.21000
O23 O 0.0970(2) 0.64355(18) 0.36141(13)
H9 H 0.10040 0.61810 0.31510
H10 H 0.03140 0.67080 0.36270
O24 O 0.11206(18) 0.24684(18) 0.62534(13)
H11 H 0.09860 0.20600 0.66040
H12 H 0.18310 0.26420 0.63290
O25 O 0.14090(18) 0.09263(17) 0.51693(14)
H13 H 0.13940 0.14170 0.54530
H14 H 0.21140 0.08020 0.50830
O26 O 0.92131(19) 0.26420(16) 0.47779(12)
H15 H 0.89700 0.25230 0.42860
H16 H 0.90940 0.21780 0.50760
N1 N 0.8276(3) 0.1268(2) 0.58638(17)
H17 H 0.76880 0.11280 0.55500
H18 H 0.86770 0.08940 0.60960
N2 N 0.7720(2) 0.1744(2) 0.6491(2)
H19 H 0.73190 0.22240 0.62750
H20 H 0.82630 0.19410 0.68720
H21 H 0.72310 0.13610 0.67160
N3 N 0.7426(2) 0.39868(17) 0.50620(14)
H22 H 0.79760 0.37490 0.54180
H23 H 0.77540 0.41790 0.46200
H24 H 0.68900 0.35570 0.49200
N4 N 0.6876(2) 0.47508(18) 0.54292(16)
H25 H 0.63880 0.50140 0.50720
H26 H 0.65020 0.45580 0.58300
N5 N 0.8748(2) 0.64165(16) 0.52745(14)
H27 H 0.86110 0.60320 0.48550
H28 H 0.93140 0.68100 0.51700
H29 H 0.80960 0.67290 0.53500
N6 N 0.9109(2) 0.58951(18) 0.60024(15)
H30 H 0.91480 0.63450 0.63600
H31 H 0.85210 0.55350 0.60700
O5B O 0.62512(16) -0.06472(13) 0.52715(12)
C5B C 0.5664(2) 0.00279(18) 0.49735(14)
O6B O 0.60545(16) 0.07209(13) 0.46487(12)
Th1B Th 0.53676(2) -0.19876(2) 0.59750(2)
Ca1B Ca 0.05385(4) -0.09717(3) 0.74683(3)
O1B O 0.73867(15) -0.25102(13) 0.63718(11)
O2B O 0.66257(14) -0.09938(13) 0.69524(11)
O3B O 0.43718(14) -0.10355(13) 0.69951(11)
O4B O 0.33325(15) -0.24305(12) 0.61901(10)
O7B O 0.42554(15) -0.24080(13) 0.46447(10)
O8B O 0.65512(15) -0.25079(13) 0.48423(10)
O9B O 0.51370(16) -0.36712(12) 0.57818(10)
O10B O 0.53433(16) -0.29177(12) 0.72432(10)
O11B O 0.92501(15) -0.21400(13) 0.67429(11)
O12B O 0.84510(16) -0.04523(13) 0.72361(12)
O13B O 0.26598(15) -0.05899(12) 0.74267(11)
O14B O 0.17290(15) -0.22153(13) 0.68443(11)
O15B O 0.42248(17) -0.31779(13) 0.34726(11)
O16B O 0.66182(16) -0.31974(13) 0.36329(11)
O17B O 0.45334(17) -0.49962(12) 0.62960(11)
O18B O 0.45306(18) -0.41572(14) 0.77694(11)
C1B C 0.8192(2) -0.19792(18) 0.66835(14)
C2B C 0.7742(2) -0.10498(18) 0.69905(14)
C3B C 0.3293(2) -0.11266(17) 0.70650(14)
C4B C 0.2722(2) -0.19977(17) 0.66682(13)
C6B C 0.4746(2) -0.28119(17) 0.40768(14)
C7B C 0.6091(2) -0.28469(17) 0.41826(14)
C8B C 0.4854(2) -0.41781(17) 0.63547(14)
C9B C 0.4906(2) -0.37256(17) 0.72051(14)
O19B O 0.0519(2) -0.05975(16) 0.60151(12)
H1B H -0.00560 -0.07290 0.56880
H2B H 0.07970 -0.01130 0.58340
Ca1* Ca -0.05385(4) 0.09717(3) 0.25317(3)
Ca1A Ca 0.55385(4) -0.40283(3) 0.24683(3)
Ca1A* Ca 0.55385(4) 0.59717(3) 0.24683(3)
Ca1B* Ca 1.05385(4) -0.09717(3) 0.74683(3)
Ca1C Ca 0.44615(4) -0.59717(3) 0.75317(3)
Ca1C* Ca 0.44615(4) 0.40283(3) 0.75317(3)
O11* O 1.07499(15) 0.21400(13) 0.32571(11)
O11B* O -0.07499(15) -0.21400(13) 0.67429(11)
O12* O 1.15490(16) 0.04523(13) 0.27639(12)
O12B* O -0.15490(16) -0.04523(13) 0.72361(12)
O15A O -0.07752(17) -0.18221(13) 0.84726(11)
O15C O 1.07752(17) 0.18221(13) 0.15274(11)
O16A O 0.16182(16) -0.18026(13) 0.86329(11)
O16C O 0.83818(16) 0.18026(13) 0.13671(11)
O17A O 0.95334(17) -0.00038(12) 0.12960(11)
O17C O 0.04666(17) 0.00038(12) 0.87040(11)
O18A O 0.95306(18) -0.08428(14) 0.27694(11)
O18C O 0.04694(18) 0.08428(14) 0.72306(11)
#END
