
#######################################################################
#
#                 Cambridge Crystallographic Data Centre
#                                CCDC
#
#######################################################################
#
# If this CIF has been generated from an entry in the Cambridge
# Structural Database, then it will include bibliographic, chemical,
# crystal, experimental, refinement or atomic coordinate data resulting
# from the CCDC's data processing and validation procedures.
#
#######################################################################

data_CSD_CIF_BIFNIQ
_audit_creation_date 2018-07-11
_audit_creation_method CSD-ConQuest-V1
_database_code_CSD BIFNIQ
_database_code_depnum_ccdc_archive 'CCDC 1835639'
_chemical_formula_sum 'C16 H48 N8 O40 Th2'
_chemical_formula_moiety
;
(H4 N1 1+)8n,n(C16 O32 Th2 8-),8n(H2 O1)
;
_journal_coden_Cambridge 1147
_journal_volume 18
_journal_year 2018
_journal_page_first 4593
_journal_name_full 'Cryst.Growth Des. '
loop_
_publ_author_name
"F.Blanchard"
"M.Rivenet"
"N.Vigier"
"I.Hablot"
"S.Grandjean"
"F.Abraham"
_chemical_name_systematic
;
catena-[tetrakis(ammonium) bis(\m-oxalato)-hexakis(oxalato)-di-thorium(iv) 
octahydrate]
;
_cell_volume   1095.107
_exptl_crystal_colour 'white'
_exptl_crystal_description 'block'
_diffrn_ambient_temperature 293
#These two values have been output from a single CSD field.
_refine_ls_R_factor_gt 0.0262
_refine_ls_wR_factor_gt 0.0262
_symmetry_cell_setting triclinic
_symmetry_space_group_name_H-M 'P -1'
_symmetry_Int_Tables_number 2
loop_
_symmetry_equiv_pos_site_id
_symmetry_equiv_pos_as_xyz
1 x,y,z
2 -x,-y,-z
_cell_length_a 9.1790(14)
_cell_length_b 11.1190(17)
_cell_length_c 12.563(2)
_cell_angle_alpha 67.051(3)
_cell_angle_beta 86.360(4)
_cell_angle_gamma 68.654(3)
_cell_formula_units_Z 1
loop_
_atom_type_symbol
_atom_type_radius_bond
C 0.68
H 0.23
N 0.68
O 0.68
Th 2.06
loop_
_atom_site_label
_atom_site_type_symbol
_atom_site_fract_x
_atom_site_fract_y
_atom_site_fract_z
Th1 Th 0.49736(2) 0.74737(2) 0.24863(2)
O1 O 0.2207(3) 0.7998(3) 0.1839(3)
O2 O 0.2928(4) 0.9635(3) 0.2531(3)
O3 O 0.5458(4) 0.8003(4) 0.4153(3)
O4 O 0.7741(4) 0.7094(4) 0.2991(3)
O5 O 0.6960(4) 0.6285(3) 0.1451(3)
O6 O 0.4500(3) 0.5634(3) 0.2075(3)
O7 O 0.3523(3) 0.4932(3) 0.5933(3)
O8 O 0.3476(3) 0.6531(3) 0.4153(3)
O9 O 0.5683(4) 0.9610(3) 0.1397(3)
O10 O 0.5682(4) 1.1347(3) -0.0287(3)
O11 O -0.0316(4) 0.9346(4) 0.1531(4)
O12 O 0.0398(4) 1.0901(4) 0.2531(4)
O13 O 0.7153(5) 0.7578(5) 0.5567(3)
O14 O 0.9533(4) 0.6751(5) 0.4300(4)
O15 O 0.7890(5) 0.4660(5) 0.0725(6)
O16 O 0.5403(5) 0.3849(4) 0.1509(4)
C1 C 0.1054(5) 0.9041(4) 0.1858(4)
C2 C 0.1459(5) 0.9961(5) 0.2357(4)
C3 C 0.6819(6) 0.7609(5) 0.4623(4)
C4 C 0.8165(5) 0.7101(5) 0.3920(4)
C5 C 0.6909(6) 0.5294(5) 0.1217(5)
C6 C 0.5493(5) 0.4853(5) 0.1635(5)
C7 C 0.4134(5) 0.5433(4) 0.5022(4)
C8 C 0.5393(5) 1.0273(4) 0.0323(4)
N1 N 0.9176(5) 0.7615(6) 0.0567(4)
N2 N 0.7404(5) 0.0272(5) 0.2943(5)
N3 N 0.8614(5) 0.4518(4) 0.7129(4)
N4 N 0.0579(7) 0.7510(8) 0.5896(6)
O17 O 0.5950(7) 0.8263(6) 0.7422(6)
H1 H 0.49550 0.85270 0.73620
H2 H 0.62060 0.89710 0.72660
O18 O 0.7934(5) 0.2317(5) 0.0384(4)
H3 H 0.74830 0.29200 0.07670
H4 H 0.75660 0.16780 0.03290
O19 O 0.2522(8) 0.9117(9) 0.5151(7)
H5 H 0.21470 0.84740 0.53280
H6 H 0.32330 0.89980 0.46940
O20 O 0.8875(8) 0.6035(8) 0.8557(7)
H7 H 0.83330 0.63150 0.90470
H8 H 0.93790 0.65670 0.82180
O8A O 0.6524(3) 0.3469(3) 0.5847(3)
C7A C 0.5866(5) 0.4567(4) 0.4978(4)
O7A O 0.6477(3) 0.5068(3) 0.4067(3)
O9A O 0.4317(4) 1.0390(3) -0.1397(3)
C8A C 0.4607(5) 0.9727(4) -0.0323(4)
O10A O 0.4318(4) 0.8653(3) 0.0287(3)
Th1A Th 0.50264(2) 0.25263(2) 0.75137(2)
O1A O 0.7793(3) 0.2002(3) 0.8161(3)
O2A O 0.7072(4) 0.0365(3) 0.7469(3)
O3A O 0.4542(4) 0.1997(4) 0.5847(3)
O4A O 0.2259(4) 0.2906(4) 0.7009(3)
O5A O 0.3040(4) 0.3715(3) 0.8549(3)
O6A O 0.5500(3) 0.4366(3) 0.7925(3)
O11A O 1.0316(4) 0.0654(4) 0.8469(4)
O12A O 0.9602(4) -0.0901(4) 0.7469(4)
O13A O 0.2847(5) 0.2422(5) 0.4433(3)
O14A O 0.0467(4) 0.3249(5) 0.5700(4)
O15A O 0.2110(5) 0.5340(5) 0.9275(6)
O16A O 0.4597(5) 0.6151(4) 0.8491(4)
C1A C 0.8946(5) 0.0959(4) 0.8142(4)
C2A C 0.8541(5) 0.0039(5) 0.7643(4)
C3A C 0.3181(6) 0.2391(5) 0.5377(4)
C4A C 0.1835(5) 0.2899(5) 0.6080(4)
C5A C 0.3091(6) 0.4706(5) 0.8783(5)
C6A C 0.4507(5) 0.5147(5) 0.8365(5)
Th1A* Th 0.50264(2) 1.25263(2) -0.24863(2)
O9A* O 0.4317(4) 0.0390(3) 0.8603(3)
O10* O 0.5682(4) 0.1347(3) 0.9713(3)
#END
