
#######################################################################
#
#                 Cambridge Crystallographic Data Centre
#                                CCDC
#
#######################################################################
#
# If this CIF has been generated from an entry in the Cambridge
# Structural Database, then it will include bibliographic, chemical,
# crystal, experimental, refinement or atomic coordinate data resulting
# from the CCDC's data processing and validation procedures.
#
#######################################################################

data_CSD_CIF_BIFNOW
_audit_creation_date 2018-07-11
_audit_creation_method CSD-ConQuest-V1
_database_code_CSD BIFNOW
_database_code_depnum_ccdc_archive 'CCDC 1835640'
_chemical_formula_sum 'C10 H11 N2 O21.5 Th2'
_chemical_formula_moiety
;
(H4 N1 1+)2n,n(C10 O20 Th2 2-),1.5n(H2 O1)
;
_journal_coden_Cambridge 1147
_journal_volume 18
_journal_year 2018
_journal_page_first 4593
_journal_name_full 'Cryst.Growth Des. '
loop_
_publ_author_name
"F.Blanchard"
"M.Rivenet"
"N.Vigier"
"I.Hablot"
"S.Grandjean"
"F.Abraham"
_chemical_name_systematic
;
catena-[bis(ammonium) pentakis(oxalato)-di-thorium(iv) sesquihydrate]
;
_cell_volume   4235.195
_exptl_crystal_colour 'white'
_exptl_crystal_density_diffrn 2.249
_exptl_crystal_description 'needle'
_diffrn_ambient_temperature 100
_refine_special_details
;
OW1 disordered by symmetry over two configurations with occupancy 0.25; OW2 
disordered by symmetry over two configurations with occupancy 0.25.
;
#These two values have been output from a single CSD field.
_refine_ls_R_factor_gt 0.0785
_refine_ls_wR_factor_gt 0.0785
_symmetry_cell_setting hexagonal
_symmetry_space_group_name_H-M 'P 63/m m c'
_symmetry_Int_Tables_number 194
loop_
_symmetry_equiv_pos_site_id
_symmetry_equiv_pos_as_xyz
1 x,y,z
2 x-y,x,1/2+z
3 -y,x-y,z
4 -x,-y,1/2+z
5 -x+y,-x,z
6 y,-x+y,1/2+z
7 x-y,-y,-z
8 -x,-x+y,-z
9 y,x,-z
10 -y,-x,1/2-z
11 -x+y,y,1/2-z
12 x,x-y,1/2-z
13 -x,-y,-z
14 -x+y,-x,-1/2-z
15 y,-x+y,-z
16 x,y,-1/2-z
17 x-y,x,-z
18 -y,x-y,-1/2-z
19 -x+y,y,z
20 x,x-y,z
21 -y,-x,z
22 y,x,-1/2+z
23 x-y,-y,-1/2+z
24 -x,-x+y,-1/2+z
_cell_length_a 19.4484(13)
_cell_length_b 19.4484(13)
_cell_length_c 12.9293(7)
_cell_angle_alpha 90
_cell_angle_beta 90
_cell_angle_gamma 120
_cell_formula_units_Z 6
loop_
_atom_type_symbol
_atom_type_radius_bond
C 0.68
N 0.68
O 0.68
Th 2.06
loop_
_atom_site_label
_atom_site_type_symbol
_atom_site_fract_x
_atom_site_fract_y
_atom_site_fract_z
Th1 Th 0.33304(5) 0.33304(5) 0.50000
O1 O 0.3374(7) 0.4066(7) 0.6628(9)
O2 O 0.3118(7) 0.2583(7) 0.6628(9)
O3 O 0.1892(6) 0.2627(6) 0.5470(9)
O4 O 0.2644(6) 0.4148(6) 0.4892(8)
O5 O 0.4134(7) 0.4708(7) 0.4275(10)
C1 C 0.3260(16) 0.3718(15) 0.75000
C2 C 0.3159(14) 0.2897(14) 0.75000
C3 C 0.1474(7) 0.2948(14) 0.5357(19)
C4 C 0.1924(7) 0.3848(14) 0.499(2)
C5 C 0.4844(7) 0.5156(7) 0.461(2)
N1 N 0.349(2) 0.557(2) 0.663(3)
O6 O 0.364(3) 0.595(3) 0.491(4)
O7 O 0.156(5) 0.078(3) 0.703(7)
O1O O 0.3374(7) 0.4066(7) 0.8372(9)
O2O O 0.3118(7) 0.2583(7) 0.8372(9)
O3R O 0.0735(6) 0.2627(6) 0.5470(9)
O4R O 0.1504(6) 0.4148(6) 0.4892(8)
O5H O 0.4708(7) 0.4134(7) 0.5725(10)
C5H C 0.5156(7) 0.4844(7) 0.539(2)
O5L O 0.5866(7) 0.5292(7) 0.5725(10)
O5T O 0.5292(7) 0.5866(7) 0.4275(10)
O3H O 0.2627(6) 0.1892(6) 0.4530(9)
O4H O 0.4148(6) 0.2644(6) 0.5108(8)
C3H C 0.2948(7) 0.1474(14) 0.4643(19)
C4H C 0.3848(7) 0.1924(14) 0.501(2)
O3N O 0.2627(6) 0.0735(6) 0.4530(9)
O4N O 0.4148(6) 0.1504(6) 0.5108(8)
Th1L Th 0.66696(5) 0.66696(5) 0.50000
O1H O 0.4066(7) 0.3374(7) 0.3372(9)
O2H O 0.2583(7) 0.3118(7) 0.3372(9)
C1H C 0.3718(16) 0.3260(15) 0.25000
C2H C 0.2897(14) 0.3159(14) 0.25000
O1U O 0.4066(7) 0.3374(7) 0.1628(9)
O2U O 0.2583(7) 0.3118(7) 0.1628(9)
Th1N Th 0.33304(5) 0.00000(5) 0.50000
Th1O Th 0.33304(5) 0.33304(5) 0.00000
Th1O* Th 0.33304(5) 0.33304(5) 1.00000
Th1P Th 0.00000(5) 0.33304(5) 0.50000
O1L O 0.6626(7) 0.5934(7) 0.3372(9)
O1T O 0.5934(7) 0.6626(7) 0.6628(9)
O2L O 0.6882(7) 0.7417(7) 0.3372(9)
O2T O 0.7417(7) 0.6882(7) 0.6628(9)
O3L O 0.8108(6) 0.7373(6) 0.4530(9)
O3T O 0.7373(6) 0.8108(6) 0.5470(9)
O4L O 0.7356(6) 0.5852(6) 0.5108(8)
O4T O 0.5852(6) 0.7356(6) 0.4892(8)
#END
