
#######################################################################
#
#                 Cambridge Crystallographic Data Centre
#                                CCDC
#
#######################################################################
#
# If this CIF has been generated from an entry in the Cambridge
# Structural Database, then it will include bibliographic, chemical,
# crystal, experimental, refinement or atomic coordinate data resulting
# from the CCDC's data processing and validation procedures.
#
#######################################################################

data_CSD_CIF_BIFPOY
_audit_creation_date 2018-07-11
_audit_creation_method CSD-ConQuest-V1
_database_code_CSD BIFPOY
_database_code_depnum_ccdc_archive 'CCDC 1835644'
_chemical_formula_sum 'C18 H36 Ca2 N6 O42 Th2'
_chemical_formula_moiety
;
6(H4 N1 1+),n(C18 Ca2 O36 Th2 6-),6(H2 O1)
;
_journal_coden_Cambridge 1147
_journal_volume 18
_journal_year 2018
_journal_page_first 4593
_journal_name_full 'Cryst.Growth Des. '
loop_
_publ_author_name
"F.Blanchard"
"M.Rivenet"
"N.Vigier"
"I.Hablot"
"S.Grandjean"
"F.Abraham"
_chemical_name_systematic
;
catena-[hexakis(ammonium) nonakis(\m-oxalato)-di-thorium(iv)-di-calcium(ii) 
hexahydrate]
;
_cell_volume   2412.045
_exptl_crystal_colour 'white'
_exptl_crystal_description 'block'
_diffrn_ambient_temperature 293
#These two values have been output from a single CSD field.
_refine_ls_R_factor_gt 0.0294
_refine_ls_wR_factor_gt 0.0294
_symmetry_cell_setting orthorhombic
_symmetry_space_group_name_H-M 'P n n m'
_symmetry_Int_Tables_number 58
loop_
_symmetry_equiv_pos_site_id
_symmetry_equiv_pos_as_xyz
1 x,y,z
2 -x,-y,z
3 1/2-x,1/2+y,1/2-z
4 1/2+x,1/2-y,1/2-z
5 -x,-y,-z
6 x,y,-z
7 -1/2+x,-1/2-y,-1/2+z
8 -1/2-x,-1/2+y,-1/2+z
_cell_length_a 8.9032(9)
_cell_length_b 14.9223(13)
_cell_length_c 18.1553(19)
_cell_angle_alpha 90
_cell_angle_beta 90
_cell_angle_gamma 90
_cell_formula_units_Z 2
loop_
_atom_type_symbol
_atom_type_radius_bond
C 0.68
Ca 1.76
N 0.68
O 0.68
Th 2.06
loop_
_atom_site_label
_atom_site_type_symbol
_atom_site_fract_x
_atom_site_fract_y
_atom_site_fract_z
Th1 Th 0.82586(3) 0.19080(2) 0.50000
Ca1 Ca 1.00000 0.50000 0.72918(7)
O1 O 1.0680(6) 0.1094(3) 0.50000
O2 O 1.1925(6) -0.0205(4) 0.50000
O3 O 0.8547(5) 0.1195(3) 0.3748(2)
O4 O 0.5927(5) 0.1641(4) 0.4284(3)
O5 O 1.0246(5) 0.2659(3) 0.5768(3)
O6 O 0.7478(6) 0.3231(4) 0.5757(4)
O7 O 0.7446(5) 0.0392(3) 0.2859(2)
O8 O 0.4766(5) 0.1098(3) 0.3289(2)
O9 O 1.0871(5) 0.3717(4) 0.6584(3)
O10 O 0.8044(6) 0.4310(4) 0.6553(4)
C1 C 1.0756(8) 0.0251(5) 0.50000
C2 C 0.7425(6) 0.0902(4) 0.3400(3)
C3 C 0.5891(6) 0.1238(4) 0.3675(3)
C4 C 0.8347(7) 0.3651(4) 0.6167(4)
C5 C 0.9980(7) 0.3323(4) 0.6172(3)
N1 N 0.3198(12) 0.2306(8) 0.50000
N2 N 0.2964(9) 0.2512(5) 0.2686(4)
O11 O 0.4288(11) 0.6189(6) 0.2400(6)
O12 O 0.4178(18) 0.3884(11) 0.6124(9)
O1A O 0.9320(6) -0.1094(3) 0.50000
O2A O 0.8075(6) 0.0205(4) 0.50000
C1A C 0.9244(8) -0.0251(5) 0.50000
Th1A Th 1.17414(3) -0.19080(2) 0.50000
O3A O 1.1453(5) -0.1195(3) 0.3748(2)
O4A O 1.4073(5) -0.1641(4) 0.4284(3)
O5A O 0.9754(5) -0.2659(3) 0.5768(3)
O6A O 1.2522(6) -0.3231(4) 0.5757(4)
O7A O 1.2554(5) -0.0392(3) 0.2859(2)
O8A O 1.5234(5) -0.1098(3) 0.3289(2)
O9A O 0.9129(5) -0.3717(4) 0.6584(3)
O10A O 1.1956(6) -0.4310(4) 0.6553(4)
C2A C 1.2575(6) -0.0902(4) 0.3400(3)
C3A C 1.4109(6) -0.1238(4) 0.3675(3)
C4A C 1.1653(7) -0.3651(4) 0.6167(4)
C5A C 1.0020(7) -0.3323(4) 0.6172(3)
O3D O 1.1453(5) -0.1195(3) 0.6252(2)
O4D O 1.4073(5) -0.1641(4) 0.5716(3)
O5D O 0.9754(5) -0.2659(3) 0.4232(3)
O6D O 1.2522(6) -0.3231(4) 0.4243(4)
O7D O 1.2554(5) -0.0392(3) 0.7141(2)
O8D O 1.5234(5) -0.1098(3) 0.6711(2)
O9D O 0.9129(5) -0.3717(4) 0.3416(3)
O10D O 1.1956(6) -0.4310(4) 0.3447(4)
C2D C 1.2575(6) -0.0902(4) 0.6600(3)
C3D C 1.4109(6) -0.1238(4) 0.6325(3)
C4D C 1.1653(7) -0.3651(4) 0.3833(4)
C5D C 1.0020(7) -0.3323(4) 0.3828(3)
Ca1D Ca 1.00000 0.50000 0.27082(7)
O3E O 0.8547(5) 0.1195(3) 0.6252(2)
O4E O 0.5927(5) 0.1641(4) 0.5716(3)
O5E O 1.0246(5) 0.2659(3) 0.4232(3)
O6E O 0.7478(6) 0.3231(4) 0.4243(4)
O7E O 0.7446(5) 0.0392(3) 0.7141(2)
O8E O 0.4766(5) 0.1098(3) 0.6711(2)
O9E O 1.0871(5) 0.3717(4) 0.3416(3)
O10E O 0.8044(6) 0.4310(4) 0.3447(4)
C2E C 0.7425(6) 0.0902(4) 0.6600(3)
C3E C 0.5891(6) 0.1238(4) 0.6325(3)
C4E C 0.8347(7) 0.3651(4) 0.3833(4)
C5E C 0.9980(7) 0.3323(4) 0.3828(3)
Ca1* Ca 1.00000 -0.50000 0.72918(7)
Ca1B Ca 0.50000 0.00000 0.77082(7)
Ca1B* Ca 1.50000 0.00000 0.77082(7)
Ca1D* Ca 1.00000 -0.50000 0.27082(7)
Ca1F Ca 0.50000 0.00000 0.22918(7)
Ca1F* Ca 1.50000 0.00000 0.22918(7)
O7B O 0.7554(5) 0.5392(3) 0.2141(2)
O7C O 1.2446(5) 0.4608(3) 0.2141(2)
O7F O 1.2446(5) 0.4608(3) 0.7859(2)
O7G O 0.7554(5) 0.5392(3) 0.7859(2)
O8B O 1.0234(5) 0.6098(3) 0.1711(2)
O8C O 0.9766(5) 0.3902(3) 0.1711(2)
O8F O 0.9766(5) 0.3902(3) 0.8289(2)
O8G O 1.0234(5) 0.6098(3) 0.8289(2)
O9A* O 0.9129(5) 0.6283(4) 0.6584(3)
O9D* O 0.9129(5) 0.6283(4) 0.3416(3)
O10A* O 1.1956(6) 0.5690(4) 0.6553(4)
O10D* O 1.1956(6) 0.5690(4) 0.3447(4)
#END
