
#######################################################################
#
#                 Cambridge Crystallographic Data Centre
#                                CCDC
#
#######################################################################
#
# If this CIF has been generated from an entry in the Cambridge
# Structural Database, then it will include bibliographic, chemical,
# crystal, experimental, refinement or atomic coordinate data resulting
# from the CCDC's data processing and validation procedures.
#
#######################################################################

data_CSD_CIF_BIFSER
_audit_creation_date 2018-07-11
_audit_creation_method CSD-ConQuest-V1
_database_code_CSD BIFSER
_database_code_depnum_ccdc_archive 'CCDC 1818443'
_chemical_formula_sum 'C43 H41 N4 O11.5 U1'
_chemical_formula_moiety
;
(C39 H24 N1 O8 U1 1-)n,2(C2 H8 N1 1+),N1 O3 1-,0.5(H2 O1)
;
_journal_coden_Cambridge 1147
_journal_volume 18
_journal_year 2018
_journal_page_first 4347
_journal_name_full 'Cryst.Growth Des. '
loop_
_publ_author_name
"Shuai Wang"
"Lei Mei"
"Ji-pan Yu"
"Kong-qiu Hu"
"Zhi-rong Liu"
"Zhi-fang Chai"
"Wei-qun Shi"
_chemical_name_systematic
;
catena-[bis(dimethylammonium) 
(\m-4',4'',4'''-nitrilotris([1,1'-biphenyl]-4-carboxylato))-dioxo-uranium-poly
catenate nitrate hemihydrate]
;
_cell_volume   8502.660
_exptl_crystal_colour 'yellow'
_exptl_special_details
;
The authors have confirmed that the formula of the structure is 
[NH2(CH3)2]4[UO2(L1)]2(NO3)2H2O and not  [NH2(CH3)2]2[UO2(L1)]2(NO3)2H2O as 
stated in the paper
;
_exptl_crystal_description 'prism'
_diffrn_ambient_temperature 294
_refine_special_details
;
Some of cations were not modelled.

;
#These two values have been output from a single CSD field.
_refine_ls_R_factor_gt 0.0594
_refine_ls_wR_factor_gt 0.0594
_symmetry_cell_setting monoclinic
_symmetry_space_group_name_H-M 'C 2/c'
_symmetry_Int_Tables_number 15
loop_
_symmetry_equiv_pos_site_id
_symmetry_equiv_pos_as_xyz
1 x,y,z
2 -x,y,1/2-z
3 1/2+x,1/2+y,z
4 1/2-x,1/2+y,1/2-z
5 -x,-y,-z
6 x,-y,-1/2+z
7 -1/2-x,-1/2-y,-z
8 -1/2+x,-1/2-y,-1/2+z
_cell_length_a 42.132(6)
_cell_length_b 11.9656(17)
_cell_length_c 18.373(2)
_cell_angle_alpha 90
_cell_angle_beta 113.369(3)
_cell_angle_gamma 90
_cell_formula_units_Z 8
loop_
_atom_type_symbol
_atom_type_radius_bond
C 0.68
H 0.23
N 0.68
O 0.68
U 1.96
loop_
_atom_site_label
_atom_site_type_symbol
_atom_site_fract_x
_atom_site_fract_y
_atom_site_fract_z
U1 U 0.93202(2) 0.72959(9) -0.11772(6)
O1 O 0.9273(4) 0.6428(14) -0.0024(9)
C1 C 0.7792(5) 0.3002(17) 0.1904(12)
N1 N 0.7618(4) 0.2327(14) 0.2264(9)
O2 O 0.8794(3) 0.6851(13) -0.0981(8)
C2 C 0.8089(5) 0.3580(17) 0.2374(12)
H1 H 0.81690 0.35510 0.29230
O3 O 0.9287(4) 0.6003(14) -0.1662(9)
C3 C 0.8266(5) 0.4203(18) 0.2016(12)
H2 H 0.84690 0.45590 0.23410
C4 C 0.8157(5) 0.4324(17) 0.1204(12)
O4 O 0.9345(3) 0.8506(15) -0.0732(8)
C5 C 0.7848(5) 0.3794(17) 0.0753(12)
H3 H 0.77510 0.38990 0.02060
O5 O 0.4906(3) 0.2595(15) -0.1179(10)
C6 C 0.8712(5) 0.477(2) 0.1118(13)
H4 H 0.88180 0.42930 0.15480
O6 O 0.9292(3) -0.1580(13) 0.7643(8)
C7 C 0.8360(5) 0.4944(17) 0.0854(12)
O7 O 0.8808(3) -0.2015(12) 0.7731(7)
C8 C 0.7679(5) 0.3110(17) 0.1099(12)
H5 H 0.74840 0.27150 0.07750
O8 O 0.4874(3) 0.1631(16) -0.019(1)
C9 C 0.8909(6) 0.526(2) 0.0768(13)
H6 H 0.91450 0.51250 0.09570
C10 C 0.8400(5) 0.6173(18) -0.0125(12)
H7 H 0.82950 0.66710 -0.05410
C11 C 0.8750(5) 0.5975(19) 0.0126(12)
C12 C 0.8201(5) 0.5652(18) 0.0223(12)
H8 H 0.79640 0.57790 0.00330
C13 C 0.8952(6) 0.645(2) -0.0295(14)
C14 C 0.7039(5) 0.3125(19) 0.1541(13)
H9 H 0.71380 0.38300 0.15910
C15 C 0.7093(5) 0.1192(18) 0.1796(11)
H10 H 0.72300 0.05700 0.20150
C16 C 0.7243(5) 0.2240(19) 0.1865(11)
C17 C 0.6741(5) 0.1077(18) 0.1404(11)
H11 H 0.66420 0.03750 0.13700
C18 C 0.6532(5) 0.1989(19) 0.1057(12)
C19 C 0.6700(5) 0.302(2) 0.1152(13)
H12 H 0.65690 0.36500 0.09330
C20 C 0.6153(5) 0.1910(18) 0.0618(12)
C21 C 0.5953(5) 0.126(2) 0.0864(13)
H13 H 0.60570 0.07900 0.12970
C22 C 0.5589(5) 0.1276(19) 0.0479(13)
H14 H 0.54540 0.08310 0.06580
C23 C 0.5440(6) 0.196(2) -0.0161(15)
C24 C 0.5635(6) 0.255(2) -0.0449(15)
H15 H 0.55300 0.29680 -0.09110
C25 C 0.5999(5) 0.256(2) -0.0053(14)
H16 H 0.61330 0.29900 -0.02420
C26 C 0.5049(6) 0.203(3) -0.0557(17)
C27 C 0.7800(5) 0.1775(16) 0.2996(12)
C28 C 0.8130(5) 0.1399(16) 0.3168(11)
H17 H 0.82280 0.14770 0.27970
C29 C 0.8316(5) 0.0909(16) 0.3887(11)
H18 H 0.85400 0.06670 0.39990
C30 C 0.8179(5) 0.0766(16) 0.4446(11)
C31 C 0.7846(5) 0.1114(17) 0.4247(11)
H19 H 0.77440 0.10030 0.46070
C32 C 0.7657(5) 0.1618(17) 0.3538(12)
H20 H 0.74320 0.18540 0.34260
C33 C 0.8384(5) 0.0191(17) 0.5220(11)
C34 C 0.8236(5) -0.0561(17) 0.5561(11)
H21 H 0.79990 -0.06830 0.53180
C35 C 0.8421(5) -0.1133(18) 0.6240(11)
H22 H 0.83140 -0.16480 0.64470
C36 C 0.8769(5) -0.0931(18) 0.6608(11)
C37 C 0.8926(5) -0.0198(17) 0.6300(11)
H23 H 0.91610 -0.00500 0.65580
C38 C 0.8729(5) 0.0331(17) 0.5592(11)
H24 H 0.88390 0.08030 0.53640
C39 C 0.8967(6) -0.1558(18) 0.7355(12)
N2 N 1.00000 0.612(8) 0.25000
C40 C 1.0033(13) 0.569(7) 0.323(3)
N3 N 0.8885(18) 0.197(5) 0.742(3)
O9 O 0.9056(15) 0.112(4) 0.812(2)
O10 O 0.8487(18) 0.205(6) 0.706(4)
O11 O 0.9218(19) 0.238(5) 0.734(3)
O12 O 1.00000 -0.040(5) 0.75000
U1* U 0.93202(2) -0.27041(9) 0.88228(6)
U1B U 0.43202(2) 0.22959(9) -0.11772(6)
O5B O 0.9906(3) 0.7595(15) -0.1179(10)
O6* O 0.9292(3) 0.8420(13) -0.2357(8)
O7* O 0.8808(3) 0.7985(12) -0.2269(7)
O8B O 0.9874(3) 0.6631(16) -0.019(1)
C40A C 0.9967(13) 0.569(7) 0.177(3)
#END
