
#######################################################################
#
#                 Cambridge Crystallographic Data Centre
#                                CCDC
#
#######################################################################
#
# If this CIF has been generated from an entry in the Cambridge
# Structural Database, then it will include bibliographic, chemical,
# crystal, experimental, refinement or atomic coordinate data resulting
# from the CCDC's data processing and validation procedures.
#
#######################################################################

data_CSD_CIF_BIMVUR
_audit_creation_date 2018-12-04
_audit_creation_method CSD-ConQuest-V1
_database_code_CSD BIMVUR
_database_code_depnum_ccdc_archive 'CCDC 1853615'
_chemical_formula_sum 'C96 H80 Ag8 N16 O34 V12'
_chemical_formula_moiety
;
(C48 H40 Ag4 N8 O34 V12 4-)n,4n(C12 H10 Ag1 N2 1+)
;
_journal_coden_Cambridge 208
_journal_volume 269
_journal_year 2019
_journal_page_first 278
_journal_name_full 'J.Solid State Chem. '
loop_
_publ_author_name
"Xing Xin"
"Xuerui Tian"
"Heng Zhang"
"Yuanzhe Gao"
"Yuanyuan Ma"
"Zhangang Han"
_chemical_name_systematic
;
catena-[tetrakis((\m-4,4'-(ethene-1,2-diyl)dipyridine)-silver(i)) 
tetrakis(\m-4,4'-(ethene-1,2-diyl)dipyridine)-octadecakis(\m-oxo)-hexadeca-oxo
-tetra-silver(i)-dodeca-vanadium(v)]
;
_cell_volume   2832.667
_exptl_crystal_colour 'yellow'
_exptl_crystal_density_diffrn 2.038
_exptl_crystal_description 'plate'
_diffrn_ambient_temperature 296
#These two values have been output from a single CSD field.
_refine_ls_R_factor_gt 0.0826
_refine_ls_wR_factor_gt 0.0826
_symmetry_cell_setting triclinic
_symmetry_space_group_name_H-M 'P -1'
_symmetry_Int_Tables_number 2
loop_
_symmetry_equiv_pos_site_id
_symmetry_equiv_pos_as_xyz
1 x,y,z
2 -x,-y,-z
_cell_length_a 13.607(5)
_cell_length_b 14.501(5)
_cell_length_c 14.681(5)
_cell_angle_alpha 96.101(6)
_cell_angle_beta 99.893(5)
_cell_angle_gamma 92.244(6)
_cell_formula_units_Z 1
loop_
_atom_type_symbol
_atom_type_radius_bond
C 0.68
H 0.23
Ag 1.45
N 0.68
O 0.68
V 1.53
loop_
_atom_site_label
_atom_site_type_symbol
_atom_site_fract_x
_atom_site_fract_y
_atom_site_fract_z
Ag1 Ag 0.49785(5) 0.38117(6) 0.40594(5)
Ag2 Ag -0.49903(5) 0.12016(6) 0.09636(5)
C1 C 0.3022(9) 0.2936(9) 0.2764(8)
H1 H 0.34480 0.27870 0.23460
C2 C 0.2015(10) 0.2695(9) 0.2481(9)
H2 H 0.17800 0.23780 0.18950
C3 C 0.1355(9) 0.2933(9) 0.3087(12)
C4 C 0.1756(8) 0.3370(9) 0.3945(11)
H3 H 0.13400 0.35310 0.43700
C5 C 0.2761(8) 0.3575(8) 0.4192(9)
H4 H 0.30100 0.38650 0.47870
C6 C 0.0248(9) 0.2712(10) 0.2878(14)
H5 H -0.00870 0.28990 0.33610
C7 C -0.0281(9) 0.2329(10) 0.2179(12)
H6 H 0.00580 0.21370 0.16990
C8 C -0.3052(8) 0.2105(8) 0.2264(8)
H7 H -0.34920 0.22720 0.26640
C9 C -0.2052(9) 0.2355(8) 0.2560(9)
H8 H -0.18260 0.26780 0.31450
C10 C -0.1381(8) 0.2114(8) 0.1960(9)
C11 C -0.1756(8) 0.1646(8) 0.1102(9)
H9 H -0.13320 0.14880 0.06830
C12 C -0.2753(8) 0.1414(8) 0.0866(8)
H10 H -0.29900 0.10850 0.02850
C13 C -0.7128(7) 0.1266(8) -0.0140(7)
H11 H -0.67910 0.15770 -0.05270
C14 C -0.8137(7) 0.1054(8) -0.0425(7)
H12 H -0.84650 0.12480 -0.09760
C15 C -0.8670(7) 0.0550(6) 0.0107(7)
C16 C -0.8125(7) 0.0327(7) 0.0950(7)
H13 H -0.84400 0.00020 0.13420
C17 C -0.7127(7) 0.0590(7) 0.1192(7)
H14 H -0.67860 0.04430 0.17580
C18 C -0.9735(7) 0.0267(7) -0.0211(7)
H15 H -1.00550 0.04830 -0.07520
C19 C 0.9729(7) 0.4712(7) 0.5198(7)
H16 H 1.00530 0.44600 0.57180
C20 C 0.7112(7) 0.4449(7) 0.3827(7)
H17 H 0.67650 0.46250 0.32760
C21 C 0.8113(7) 0.4702(7) 0.4059(7)
H18 H 0.84200 0.50410 0.36720
C22 C 0.8679(7) 0.4447(7) 0.4887(7)
C23 C 0.8147(7) 0.3916(8) 0.5399(7)
H19 H 0.84810 0.36980 0.59340
C24 C 0.7141(7) 0.3710(7) 0.5124(7)
H20 H 0.68150 0.33740 0.55000
N1 N 0.3418(6) 0.3371(6) 0.3599(6)
N2 N -0.3428(6) 0.1638(6) 0.1437(6)
N3 N -0.6607(6) 0.1053(6) 0.0654(6)
N4 N 0.6594(6) 0.3963(6) 0.4342(6)
V1 V 0.51006(11) 0.4032(1) 0.6919(1)
V2 V 0.34029(10) 0.2713(1) 0.77976(10)
V3 V 0.09227(11) 0.30565(11) 0.71538(12)
V4 V 0.66192(10) 0.22622(10) 0.71481(10)
V5 V 0.90717(11) 0.19367(11) 0.79515(11)
O1 O 0.4968(5) 0.4113(6) 0.5818(5)
O2 O 0.5267(6) 0.5083(5) 0.7468(5)
O3 O 0.3960(6) 0.3453(5) 0.7166(6)
O4 O 0.6177(5) 0.3398(5) 0.7296(5)
O5 O 0.3560(6) 0.3154(6) 0.8864(5)
O6 O 0.2145(5) 0.2537(5) 0.7369(6)
O7 O 0.1061(6) 0.4178(5) 0.7386(5)
O8 O 0.0453(8) 0.2830(6) 0.6078(6)
O9 O 0.6180(6) 0.1829(6) 0.6103(5)
O10 O 0.7906(5) 0.2304(6) 0.7282(6)
O11 O 0.8956(7) 0.1978(6) 0.9046(5)
O12 O 0.9230(6) 0.0856(5) 0.7625(5)
O13 O 1.0118(6) 0.2658(7) 0.7899(9)
V6 V 0.50361(10) 0.09863(10) 0.81194(9)
O14 O 0.5127(6) 0.0880(6) 0.9214(5)
O15 O 0.4892(5) -0.0050(5) 0.7540(5)
O16 O 0.3973(5) 0.1645(5) 0.7736(5)
O17 O 0.6189(5) 0.1588(5) 0.7927(5)
Ag3 Ag 0.56899(5) 0.08465(6) 0.43090(6)
C25 C 0.3467(7) 0.0451(7) 0.3823(6)
H21 H 0.36700 0.00530 0.33600
C26 C 0.2449(6) 0.0483(7) 0.3840(6)
H22 H 0.19870 0.01110 0.33970
C27 C 0.2128(6) 0.1074(6) 0.4523(6)
C28 C 0.2846(7) 0.1610(8) 0.5162(7)
H23 H 0.26570 0.20190 0.56240
C29 C 0.3854(7) 0.1536(8) 0.5113(8)
H24 H 0.43260 0.18930 0.55590
C30 C 0.1076(7) 0.1154(7) 0.4586(7)
H25 H 0.09200 0.15720 0.50580
C31 C 0.0321(7) 0.0666(7) 0.4011(7)
H26 H 0.04770 0.02620 0.35280
C32 C -0.2467(7) 0.0223(7) 0.3505(7)
H27 H -0.29410 -0.01350 0.30630
C33 C -0.1462(7) 0.0171(7) 0.3458(7)
H28 H -0.12690 -0.02370 0.29980
C34 C -0.0740(7) 0.0721(7) 0.4088(6)
C35 C -0.1073(7) 0.1293(7) 0.4779(7)
H29 H -0.06170 0.16720 0.52200
C36 C -0.2068(7) 0.1298(7) 0.4809(7)
H30 H -0.22730 0.16750 0.52860
N5 N 0.4178(6) 0.0972(6) 0.4448(6)
N6 N -0.2764(6) 0.0785(6) 0.4182(5)
Ag4 Ag 1.40573(5) 0.41240(6) 0.06630(6)
C37 C 0.6291(7) 0.4548(7) 0.1152(7)
H31 H 0.60900 0.49680 0.15990
C38 C 0.7298(7) 0.4509(7) 0.1127(7)
H32 H 0.77590 0.48980 0.15520
C39 C 0.7623(7) 0.3894(6) 0.0472(6)
C40 C 0.6918(7) 0.3336(7) -0.0147(7)
H33 H 0.71130 0.29150 -0.05950
C41 C 0.5905(7) 0.3403(8) -0.0101(7)
H34 H 0.54380 0.30260 -0.05330
C42 C 0.8680(7) 0.3826(7) 0.0403(7)
H35 H 0.88390 0.34060 -0.00660
C43 C 0.9433(6) 0.4332(7) 0.0972(6)
H36 H 0.92760 0.47410 0.14520
C44 C 1.1818(7) 0.3685(7) 0.0169(7)
H37 H 1.20210 0.32980 -0.03020
C45 C 1.0823(7) 0.3688(7) 0.0206(7)
H38 H 1.03670 0.32940 -0.02210
C46 C 1.0492(6) 0.4279(6) 0.0884(6)
C47 C 1.1209(7) 0.4835(7) 0.1504(7)
H39 H 1.10200 0.52420 0.19680
C48 C 1.2203(7) 0.4787(7) 0.1436(7)
H40 H 1.26730 0.51660 0.18630
N7 N 0.5571(6) 0.3991(6) 0.0543(6)
N8 N 1.2522(5) 0.4218(6) 0.0784(6)
C13A C -1.2872(7) -0.1266(8) 0.0140(7)
H11A H -1.32090 -0.15770 0.05270
C14A C -1.1863(7) -0.1054(8) 0.0425(7)
H12A H -1.15350 -0.12480 0.09760
C15A C -1.1330(7) -0.0550(6) -0.0107(7)
C16A C -1.1875(7) -0.0327(7) -0.0950(7)
H13A H -1.15600 -0.00020 -0.13420
C17A C -1.2873(7) -0.0590(7) -0.1192(7)
H14A H -1.32140 -0.04430 -0.17580
C18A C -1.0265(7) -0.0267(7) 0.0211(7)
H15A H -0.99450 -0.04830 0.07520
N3A N -1.3393(6) -0.1053(6) -0.0654(6)
C19A C 1.0271(7) 0.5288(7) 0.4802(7)
H16A H 0.99470 0.55400 0.42820
C20A C 1.2888(7) 0.5551(7) 0.6173(7)
H17A H 1.32350 0.53750 0.67240
C21A C 1.1887(7) 0.5298(7) 0.5941(7)
H18A H 1.15800 0.49590 0.63280
C22A C 1.1321(7) 0.5553(7) 0.5113(7)
C23A C 1.1853(7) 0.6084(8) 0.4601(7)
H19A H 1.15190 0.63020 0.40660
C24A C 1.2859(7) 0.6290(7) 0.4876(7)
H20A H 1.31850 0.66260 0.45000
N4A N 1.3406(6) 0.6037(6) 0.5658(6)
Ag1A Ag -2.49785(5) -0.38117(6) -0.40594(5)
Ag2A Ag -1.50097(5) -0.12016(6) -0.09636(5)
C1A C -2.3022(9) -0.2936(9) -0.2764(8)
H1A H -2.34480 -0.27870 -0.23460
C2A C -2.2015(10) -0.2695(9) -0.2481(9)
H2A H -2.17800 -0.23780 -0.18950
C3A C -2.1355(9) -0.2933(9) -0.3087(12)
C4A C -2.1756(8) -0.3370(9) -0.3945(11)
H3A H -2.13400 -0.35310 -0.43700
C5A C -2.2761(8) -0.3575(8) -0.4192(9)
H4A H -2.30100 -0.38650 -0.47870
C6A C -2.0248(9) -0.2712(10) -0.2878(14)
H5A H -1.99130 -0.28990 -0.33610
C7A C -1.9719(9) -0.2329(10) -0.2179(12)
H6A H -2.00580 -0.21370 -0.16990
C8A C -1.6948(8) -0.2105(8) -0.2264(8)
H7A H -1.65080 -0.22720 -0.26640
C9A C -1.7948(9) -0.2355(8) -0.2560(9)
H8A H -1.81740 -0.26780 -0.31450
C10A C -1.8619(8) -0.2114(8) -0.1960(9)
C11A C -1.8244(8) -0.1646(8) -0.1102(9)
H9A H -1.86680 -0.14880 -0.06830
C12A C -1.7247(8) -0.1414(8) -0.0866(8)
H10A H -1.70100 -0.10850 -0.02850
N1A N -2.3418(6) -0.3371(6) -0.3599(6)
N2A N -1.6572(6) -0.1638(6) -0.1437(6)
V1A V -2.51006(11) -0.4032(1) -0.6919(1)
V2A V -2.34029(10) -0.2713(1) -0.77976(10)
V3A V -2.09227(11) -0.30565(11) -0.71538(12)
V4A V -2.66192(10) -0.22622(10) -0.71481(10)
V5A V -2.90717(11) -0.19367(11) -0.79515(11)
O1A O -2.4968(5) -0.4113(6) -0.5818(5)
O2A O -2.5267(6) -0.5083(5) -0.7468(5)
O3A O -2.3960(6) -0.3453(5) -0.7166(6)
O4A O -2.6177(5) -0.3398(5) -0.7296(5)
O5A O -2.3560(6) -0.3154(6) -0.8864(5)
O6A O -2.2145(5) -0.2537(5) -0.7369(6)
O7A O -2.1061(6) -0.4178(5) -0.7386(5)
O8A O -2.0453(8) -0.2830(6) -0.6078(6)
O9A O -2.6180(6) -0.1829(6) -0.6103(5)
O10A O -2.7906(5) -0.2304(6) -0.7282(6)
O11A O -2.8956(7) -0.1978(6) -0.9046(5)
O12A O -2.9230(6) -0.0856(5) -0.7625(5)
O13A O -3.0118(6) -0.2658(7) -0.7899(9)
V6A V -2.50361(10) -0.09863(10) -0.81194(9)
O14A O -2.5127(6) -0.0880(6) -0.9214(5)
O15A O -2.4892(5) 0.0050(5) -0.7540(5)
O16A O -2.3973(5) -0.1645(5) -0.7736(5)
O17A O -2.6189(5) -0.1588(5) -0.7927(5)
Ag1A* Ag 1.50215(5) 0.61883(6) 0.59406(5)
Ag2* Ag 0.50097(5) 0.12016(6) 1.09636(5)
Ag2A* Ag -2.50097(5) -0.12016(6) -1.09636(5)
N4A* N -2.6594(6) -0.3963(6) -0.4342(6)
V3* V 1.09227(11) 0.30565(11) 0.71538(12)
V3A* V -3.09227(11) -0.30565(11) -0.71538(12)
O13* O 0.0118(6) 0.2658(7) 0.7899(9)
O13A* O -2.0118(6) -0.2658(7) -0.7899(9)
O14* O -0.4873(6) 0.0880(6) -0.0786(5)
O14A* O -1.5127(6) -0.0880(6) 0.0786(5)
Ag3* Ag -0.43101(5) 0.08465(6) 0.43090(6)
N6* N 0.7236(6) 0.0785(6) 0.4182(5)
Ag4* Ag 0.40573(5) 0.41240(6) 0.06630(6)
N7* N 1.5571(6) 0.3991(6) 0.0543(6)
#END
