
#######################################################################
#
#                 Cambridge Crystallographic Data Centre
#                                CCDC
#
#######################################################################
#
# If this CIF has been generated from an entry in the Cambridge
# Structural Database, then it will include bibliographic, chemical,
# crystal, experimental, refinement or atomic coordinate data resulting
# from the CCDC's data processing and validation procedures.
#
#######################################################################

data_CSD_CIF_BIMWAY
_audit_creation_date 2018-12-04
_audit_creation_method CSD-ConQuest-V1
_database_code_CSD BIMWAY
_database_code_depnum_ccdc_archive 'CCDC 1853616'
_chemical_formula_sum 'C120 H106 Ag10 N20 O43 V14'
_chemical_formula_moiety
;
(C12 H10 Ag1 N2 1+)2n,n(C96 H80 Ag8 N16 O40 V14 2-),3(H2 O1)
;
_journal_coden_Cambridge 208
_journal_volume 269
_journal_year 2019
_journal_page_first 278
_journal_name_full 'J.Solid State Chem. '
loop_
_publ_author_name
"Xing Xin"
"Xuerui Tian"
"Heng Zhang"
"Yuanzhe Gao"
"Yuanyuan Ma"
"Zhangang Han"
_chemical_name_systematic
;
catena-[bis((\m-4,4'-(ethene-1,2-diyl)dipyridine)-silver(i)) 
octakis(\m-4,4'-(ethene-1,2-diyl)dipyridine)-triacontakis(\m-oxo)-deca-oxo-oct
a-silver(i)-tetradeca-vanadium(v) trihydrate]
;
_cell_volume   6925.725
_exptl_crystal_colour 'yellow'
_exptl_crystal_density_diffrn 2.063
_exptl_crystal_description 'Block'
_diffrn_ambient_temperature 296
_diffrn_special_details
;
twin

;
#These two values have been output from a single CSD field.
_refine_ls_R_factor_gt 0.089
_refine_ls_wR_factor_gt 0.089
_symmetry_cell_setting monoclinic
_symmetry_space_group_name_H-M 'P 21'
_symmetry_Int_Tables_number 4
loop_
_symmetry_equiv_pos_site_id
_symmetry_equiv_pos_as_xyz
1 x,y,z
2 -x,1/2+y,-z
_cell_length_a 11.0326(16)
_cell_length_b 49.760(8)
_cell_length_c 13.7689(15)
_cell_angle_alpha 90
_cell_angle_beta 113.618(9)
_cell_angle_gamma 90
_cell_formula_units_Z 2
loop_
_atom_type_symbol
_atom_type_radius_bond
C 0.68
H 0.23
Ag 1.45
N 0.68
O 0.68
V 1.53
loop_
_atom_site_label
_atom_site_type_symbol
_atom_site_fract_x
_atom_site_fract_y
_atom_site_fract_z
Ag1 Ag 0.3259(3) 0.89365(7) 0.80060(18)
C1 C 0.290(3) 0.8671(7) 0.589(2)
H1 H 0.27400 0.85210 0.62170
C2 C 0.286(3) 0.8649(7) 0.483(2)
H2 H 0.26680 0.84850 0.44810
C3 C 0.312(3) 0.8868(6) 0.435(2)
C4 C 0.330(3) 0.9118(6) 0.488(2)
H3 H 0.33660 0.92750 0.45350
C5 C 0.338(3) 0.9126(7) 0.589(2)
H4 H 0.35930 0.92890 0.62540
C6 C 0.310(3) 0.8830(6) 0.326(2)
H5 H 0.28690 0.86630 0.29370
C7 C 0.340(3) 0.9028(6) 0.274(2)
H6 H 0.36260 0.91950 0.30670
C8 C 0.315(3) 0.8741(7) 0.010(2)
H7 H 0.30500 0.85760 -0.02330
C9 C 0.316(3) 0.8750(7) 0.115(2)
H8 H 0.30330 0.85940 0.14690
C10 C 0.337(3) 0.8992(6) 0.167(2)
C11 C 0.357(3) 0.9223(7) 0.115(2)
H9 H 0.37360 0.93900 0.14720
C12 C 0.349(3) 0.9186(7) 0.012(2)
H10 H 0.36100 0.93370 -0.02320
N1 N 0.318(2) 0.8912(5) 0.6396(17)
N2 N 0.327(2) 0.8958(6) -0.0400(17)
Ag2 Ag 0.4491(2) 1.04762(5) 0.54863(16)
C13 C 0.743(3) 1.0503(6) 0.716(2)
H11 H 0.75400 1.05230 0.65270
C14 C 0.854(3) 1.0505(6) 0.802(2)
H12 H 0.93710 1.05080 0.80030
C15 C 0.832(3) 1.0501(6) 0.898(2)
C16 C 0.698(3) 1.0477(7) 0.890(2)
H13 H 0.68070 1.04800 0.95020
C17 C 0.601(3) 1.0452(7) 0.795(2)
H14 H 0.51600 1.04150 0.79040
C18 C 0.950(3) 1.0502(6) 0.996(2)
H15 H 1.03210 1.05100 0.99320
C19 C 0.943(3) 1.0492(6) 1.095(2)
H16 H 0.86020 1.04860 1.09700
C20 C 1.064(3) 1.0490(6) 1.2002(19)
C21 C 1.300(3) 1.0523(6) 1.303(2)
H17 H 1.38600 1.05360 1.30710
C22 C 1.197(3) 1.0517(6) 1.207(2)
H18 H 1.21260 1.05320 1.14570
C23 C 1.039(3) 1.0478(7) 1.294(2)
H19 H 0.95420 1.04660 1.29310
C24 C 1.155(3) 1.0486(7) 1.388(2)
H20 H 1.14390 1.04740 1.45110
N3 N 0.619(2) 1.0479(5) 0.7039(17)
N4 N 1.276(2) 1.0507(5) 1.3944(17)
Ag3 Ag 0.6348(2) 0.99013(5) 0.63134(16)
C25 C 1.485(3) 0.9904(7) 1.389(2)
H21 H 1.56930 0.99470 1.39400
C26 C 1.386(3) 0.9868(7) 1.290(2)
H22 H 1.40820 0.98590 1.23140
C27 C 1.256(3) 0.9847(6) 1.275(2)
C28 C 1.240(3) 0.9832(6) 1.372(2)
H23 H 1.15400 0.98090 1.36640
C29 C 1.342(3) 0.9848(6) 1.477(2)
H24 H 1.32510 0.98400 1.53830
C30 C 0.936(3) 0.9873(6) 0.788(2)
H25 H 0.95040 0.98920 0.72590
C31 C 1.047(3) 0.9876(6) 0.884(2)
H26 H 1.13100 0.98960 0.88480
C32 C 1.032(3) 0.9851(6) 0.976(2)
C33 C 0.897(3) 0.9814(6) 0.973(2)
H27 H 0.88090 0.97970 1.03380
C34 C 0.796(3) 0.9808(6) 0.873(2)
H28 H 0.71150 0.97770 0.86920
C35 C 1.140(3) 0.9848(6) 1.081(2)
H29 H 1.22430 0.98600 1.08070
C36 C 1.137(3) 0.9832(6) 1.176(2)
H30 H 1.05550 0.98100 1.17950
N5 N 1.465(2) 0.9878(5) 1.4776(16)
N6 N 0.809(2) 0.9844(5) 0.7769(17)
Ag4 Ag 0.0189(2) 0.79834(5) 0.97385(16)
C37 C -0.144(3) 0.8062(6) 0.739(2)
H31 H -0.05720 0.80850 0.74510
C38 C -0.248(3) 0.8054(6) 0.639(2)
H32 H -0.22920 0.80720 0.57890
C39 C -0.375(3) 0.8020(6) 0.626(2)
C40 C -0.392(3) 0.7991(6) 0.722(2)
H33 H -0.47670 0.79700 0.71920
C41 C -0.286(3) 0.7992(6) 0.820(2)
H34 H -0.29870 0.79620 0.88220
C42 C -0.491(3) 0.8003(6) 0.526(2)
H35 H -0.57200 0.79730 0.52890
C43 C -0.489(3) 0.8026(6) 0.429(2)
H36 H -0.40550 0.80470 0.42760
C44 C -0.602(3) 0.8024(6) 0.323(2)
C45 C -0.678(3) 0.8013(7) 0.144(2)
H37 H -0.66170 0.80200 0.08260
C46 C -0.580(3) 0.8033(7) 0.234(2)
H38 H -0.49450 0.80530 0.23690
C47 C -0.832(3) 0.7964(7) 0.220(2)
H39 H -0.91700 0.79470 0.21670
C48 C -0.724(3) 0.7971(7) 0.321(2)
H40 H -0.73640 0.79420 0.38350
N7 N -0.169(2) 0.8035(5) 0.8229(17)
N8 N -0.815(2) 0.7980(5) 0.1315(17)
Ag5 Ag 0.9756(2) 0.89613(6) 1.30759(16)
C49 C 0.998(3) 0.9142(7) 1.099(2)
H41 H 1.00030 0.93110 1.12910
C50 C 1.010(3) 0.9127(6) 1.005(2)
H42 H 1.03240 0.92810 0.97760
C51 C 0.991(3) 0.8891(7) 0.950(2)
C52 C 0.974(3) 0.8671(7) 0.999(2)
H43 H 0.96800 0.85050 0.96700
C53 C 0.966(3) 0.8683(7) 1.097(2)
H44 H 0.94860 0.85270 1.12570
C54 C 0.990(3) 0.8863(7) 0.849(2)
H45 H 0.98130 0.86890 0.82360
C55 C 1.001(3) 0.9068(7) 0.780(2)
H46 H 1.00090 0.92430 0.80330
C56 C 1.012(3) 0.9241(6) 0.523(2)
H47 H 1.02350 0.93890 0.48620
C57 C 1.021(3) 0.9275(7) 0.623(2)
H48 H 1.03240 0.94440 0.65400
C58 C 1.012(3) 0.9040(6) 0.680(2)
C59 C 1.000(3) 0.8801(7) 0.633(2)
H49 H 1.00080 0.86440 0.67020
C60 C 0.985(3) 0.8790(7) 0.529(2)
H50 H 0.97260 0.86240 0.49550
N9 N 0.983(2) 0.8921(6) 1.1525(17)
N10 N 0.988(2) 0.9000(5) 0.4762(18)
Ag6 Ag 0.6726(2) 0.89356(6) 1.29171(16)
C61 C 0.656(3) 0.9111(7) 1.072(2)
H51 H 0.66580 0.92830 1.10060
C62 C 0.653(3) 0.9089(7) 0.975(2)
H52 H 0.66010 0.92470 0.94170
C63 C 0.639(3) 0.8854(7) 0.919(2)
C64 C 0.632(3) 0.8619(7) 0.978(2)
H53 H 0.62450 0.84470 0.95010
C65 C 0.635(3) 0.8659(7) 1.077(2)
H54 H 0.63030 0.85030 1.11280
C66 C 0.631(3) 0.8830(7) 0.810(2)
H55 H 0.60350 0.86660 0.77510
C67 C 0.682(3) 0.9195(7) 0.499(2)
H56 H 0.69530 0.93510 0.46710
C68 C 0.683(3) 0.9213(7) 0.600(2)
H57 H 0.69900 0.93790 0.63410
C69 C 0.659(3) 0.8987(6) 0.651(2)
C70 C 0.645(3) 0.8747(6) 0.597(2)
H58 H 0.63500 0.85870 0.62800
C71 C 0.645(3) 0.8749(7) 0.497(2)
H59 H 0.63160 0.85850 0.46130
C72 C 0.659(3) 0.9020(6) 0.758(2)
H60 H 0.68140 0.91870 0.79070
N11 N 0.646(2) 0.8900(5) 1.1335(17)
N12 N 0.662(2) 0.8970(6) 0.4463(18)
Ag7 Ag 0.2197(2) 0.73913(5) 1.06864(17)
C73 C 0.067(3) 0.7391(6) 0.825(2)
H61 H 0.15400 0.73850 0.83170
C74 C -0.037(3) 0.7388(7) 0.719(2)
H62 H -0.01970 0.74000 0.65820
C75 C -0.162(3) 0.7366(7) 0.716(2)
C76 C -0.180(3) 0.7358(6) 0.805(2)
H63 H -0.26600 0.73440 0.80110
C77 C -0.078(3) 0.7371(6) 0.904(2)
H64 H -0.09720 0.73580 0.96390
C78 C -0.269(3) 0.7349(6) 0.610(2)
H65 H -0.35320 0.73340 0.61040
C79 C -0.268(3) 0.7350(6) 0.519(2)
H66 H -0.18500 0.73590 0.51570
C80 C -0.388(3) 0.7338(6) 0.411(2)
C81 C -0.510(3) 0.7328(6) 0.407(2)
H67 H -0.52220 0.73180 0.47040
C82 C -0.373(3) 0.7355(6) 0.322(2)
H68 H -0.28790 0.73750 0.32510
C83 C -0.479(3) 0.7344(7) 0.224(2)
H69 H -0.46240 0.73400 0.16230
C84 C -0.623(3) 0.7330(7) 0.310(2)
H70 H -0.70830 0.73260 0.30920
N13 N 0.046(2) 0.7401(5) 0.9156(17)
N14 N -0.604(2) 0.7339(6) 0.2166(17)
V1 V 0.7608(5) 0.78002(10) 1.1216(3)
V2 V 0.8327(5) 0.82291(11) 1.3310(3)
V3 V 0.4672(5) 0.76374(11) 0.9269(4)
V4 V 0.2426(5) 0.81172(10) 0.8020(3)
V5 V 0.0683(5) 0.79523(11) 0.5440(3)
V6 V 0.1025(6) 0.73089(12) 0.4757(4)
O1 O 0.308(2) 0.8406(5) 0.7994(16)
O2 O 0.818(2) 0.7480(5) 1.1444(18)
O3 O 0.777(2) 0.7959(5) 1.2388(16)
O4 O 0.933(2) 0.8428(5) 1.3043(16)
O5 O 0.706(2) 0.8408(4) 1.3231(16)
O6 O 0.184(2) 0.8125(5) 0.8920(15)
O7 O 0.107(2) 0.8030(5) 0.6767(15)
O8 O 0.374(2) 0.7877(5) 0.8320(17)
O9 O 0.380(2) 0.7472(5) 0.9788(16)
O10 O 0.182(2) 0.8059(5) 0.5106(16)
O11 O 0.916(2) 0.8108(5) 1.4687(16)
O12 O 0.600(2) 0.7821(5) 1.0275(17)
O13 O 0.118(3) 0.7073(5) 0.5556(18)
O14 O 0.254(3) 0.7396(6) 0.479(2)
O15 O 0.050(2) 0.7606(5) 0.5241(15)
O16 O 0.534(3) 0.7418(6) 0.8753(18)
O17 O 0.850(2) 0.7972(5) 1.0729(15)
V7 V -0.0540(5) 0.72257(11) 0.2041(4)
O18 O 0.064(2) 0.7278(5) 0.1635(15)
O19 O -0.119(2) 0.6927(4) 0.1627(15)
O20 O -0.001(2) 0.7230(5) 0.3449(15)
V8 V -0.1072(5) 1.01213(11) 0.4800(3)
V9 V 0.1907(5) 1.02716(11) 0.6849(3)
V10 V -0.3060(5) 1.06707(11) 0.3932(3)
V11 V 0.5667(5) 0.99407(11) 1.0540(4)
V12 V 0.4072(5) 0.97596(10) 0.7981(3)
V13 V -0.1899(5) 0.96753(10) 0.2704(3)
V14 V -0.4420(8) 1.06028(13) 0.1249(4)
O21 O 0.351(2) 0.9469(5) 0.8051(16)
O22 O 0.280(2) 1.0003(5) 0.7723(18)
O23 O 0.476(2) 0.9758(5) 0.7131(14)
O24 O 0.133(2) 1.0458(5) 0.7525(18)
O25 O -0.070(2) 0.9491(5) 0.2670(16)
O26 O -0.286(3) 0.9496(6) 0.304(2)
O27 O -0.116(2) 0.9933(5) 0.3711(16)
O28 O 0.055(2) 1.0133(5) 0.5681(16)
O29 O -0.158(2) 1.0453(5) 0.4435(17)
O30 O -0.195(2) 0.9993(5) 0.5394(16)
O31 O -0.386(2) 1.0635(5) 0.4690(17)
O32 O -0.258(2) 1.0972(5) 0.4054(18)
O33 O 0.727(2) 0.9829(4) 1.1402(15)
O34 O 0.558(2) 1.0290(5) 1.0690(16)
O35 O 0.541(2) 0.9848(5) 0.9279(15)
O36 O 0.453(2) 0.9801(5) 1.0818(17)
O37 O -0.549(3) 1.0809(5) 0.0618(18)
O38 O 0.284(2) 1.0455(5) 0.6468(15)
O39 O -0.424(2) 1.0583(5) 0.2631(16)
O40 O -0.291(3) 1.0724(5) 0.136(2)
Ag8 Ag -0.0860(2) 0.63892(6) 0.15642(16)
C85 C -0.070(3) 0.6551(7) 0.377(2)
H71 H -0.07210 0.67170 0.34510
C86 C -0.062(3) 0.6555(7) 0.484(2)
H72 H -0.05810 0.67110 0.52270
C87 C -0.062(3) 0.6310(6) 0.522(2)
C88 C -0.050(3) 0.6077(7) 0.472(2)
H73 H -0.03420 0.59110 0.50570
C89 C -0.064(3) 0.6105(7) 0.363(2)
H74 H -0.06550 0.59530 0.32370
C90 C -0.053(3) 0.6274(7) 0.637(2)
H75 H -0.04860 0.61010 0.66320
C91 C -0.052(3) 0.6467(7) 0.695(2)
H76 H -0.04550 0.66370 0.66910
C92 C -0.068(3) 0.6658(6) 0.958(2)
H77 H -0.06720 0.68170 0.99460
C93 C -0.066(3) 0.6668(7) 0.855(2)
H78 H -0.06900 0.68340 0.82390
C94 C -0.062(3) 0.6459(6) 0.805(2)
C95 C -0.059(3) 0.6201(7) 0.854(2)
H79 H -0.05520 0.60440 0.81890
C96 C -0.064(3) 0.6190(6) 0.954(2)
H80 H -0.06130 0.60240 0.98620
N15 N -0.075(2) 0.6339(5) 0.3198(17)
N16 N -0.071(2) 0.6416(5) 1.0037(17)
Ag9 Ag -0.2560(3) 1.15250(6) 0.42201(16)
C97 C -0.282(3) 1.1806(7) 0.208(2)
H81 H -0.28190 1.19630 0.24450
C98 C -0.286(3) 1.1823(7) 0.110(2)
H82 H -0.29060 1.19920 0.07980
C99 C -0.283(3) 1.1594(6) 0.050(2)
C100 C -0.274(3) 1.1348(7) 0.101(2)
H83 H -0.26440 1.11900 0.06830
C101 C -0.281(3) 1.1336(7) 0.204(2)
H84 H -0.28820 1.11700 0.23270
C102 C -0.276(3) 1.1612(7) -0.050(2)
H85 H -0.27950 1.17860 -0.07650
C103 C -0.266(3) 1.1419(7) -0.113(2)
H86 H -0.26900 1.12440 -0.09010
C104 C -0.234(3) 1.1702(7) -0.355(2)
H87 H -0.21520 1.18660 -0.37840
C105 C -0.240(3) 1.1689(6) -0.255(2)
H88 H -0.23720 1.18460 -0.21760
C106 C -0.251(3) 1.1446(6) -0.213(2)
C107 C -0.275(3) 1.1218(6) -0.282(2)
H89 H -0.29480 1.10500 -0.26230
C108 C -0.267(3) 1.1259(6) -0.375(2)
H90 H -0.27120 1.11060 -0.41510
N17 N -0.277(3) 1.1554(6) 0.2581(19)
N18 N -0.255(2) 1.1486(5) -0.4179(17)
Ag10 Ag -0.4018(3) 0.63732(7) 0.96327(17)
C109 C -0.399(3) 0.6650(7) 1.768(2)
H91 H -0.38490 0.68020 1.80990
C110 C -0.409(3) 0.6675(7) 1.656(2)
H92 H -0.41710 0.68430 1.62440
C111 C -0.408(3) 0.6458(7) 1.603(2)
C112 C -0.422(3) 0.6202(7) 1.644(2)
H93 H -0.44450 0.60490 1.60160
C113 C -0.400(3) 0.6193(7) 1.757(2)
H94 H -0.38130 0.60310 1.79430
C114 C -0.407(3) 0.6487(7) 1.487(2)
H95 H -0.41280 0.66570 1.45820
C115 C -0.400(3) 0.6290(7) 1.435(2)
H96 H -0.39500 0.61180 1.46340
C116 C -0.396(3) 0.6575(7) 1.180(2)
H97 H -0.39060 0.67400 1.15070
C117 C -0.396(3) 0.6570(7) 1.272(2)
H98 H -0.39510 0.67320 1.30560
C118 C -0.398(3) 0.6323(6) 1.325(2)
C119 C -0.399(3) 0.6092(7) 1.269(2)
H99 H -0.39840 0.59240 1.29860
C120 C -0.401(3) 0.6114(7) 1.168(2)
H100 H -0.40110 0.59570 1.13150
N19 N -0.404(2) 0.6349(5) 1.1221(17)
N20 N -0.408(3) 0.6419(5) 1.8044(17)
O41 O 0.180(2) 0.0810(6) 0.913(2)
O42 O 0.455(3) 0.7262(6) 0.6644(19)
O43 O 0.631(3) 0.6940(6) 0.9931(19)
Ag1* Ag 0.3259(3) 0.89365(7) -0.19940(18)
N2* N 0.327(2) 0.8958(6) 0.9600(17)
Ag2* Ag -0.5509(2) 1.04762(5) 0.54863(16)
Ag2** Ag 1.4491(2) 1.04762(5) 1.54863(16)
N4* N 0.276(2) 1.0507(5) 0.3944(17)
Ag3* Ag -0.3652(2) 0.99013(5) 0.63134(16)
Ag3** Ag 1.6348(2) 0.99013(5) 1.63134(16)
N5* N 0.465(2) 0.9878(5) 0.4776(16)
Ag4* Ag -0.9811(2) 0.79834(5) -0.02615(16)
Ag4** Ag 1.0189(2) 0.79834(5) 0.97385(16)
N8* N 0.185(2) 0.7980(5) 1.1315(17)
Ag5* Ag -0.0244(2) 0.89613(6) 0.30759(16)
Ag5** Ag 0.9756(2) 0.89613(6) 0.30759(16)
N10* N 0.988(2) 0.9000(5) 1.4762(18)
Ag6* Ag 0.6726(2) 0.89356(6) 0.29171(16)
N12* N 0.662(2) 0.8970(6) 1.4463(18)
Ag7* Ag -0.7803(2) 0.73913(5) 0.06864(17)
Ag7** Ag 0.2197(2) 0.73913(5) 0.06864(17)
N14* N 0.396(2) 0.7339(6) 1.2166(17)
V5* V 1.0683(5) 0.79523(11) 1.5440(3)
O2* O -0.182(2) 0.7480(5) 0.1444(18)
O11* O -0.084(2) 0.8108(5) 0.4687(16)
O17* O -0.150(2) 0.7972(5) 1.0729(15)
V7* V 0.9460(5) 0.72257(11) 1.2041(4)
O18* O 0.064(2) 0.7278(5) 1.1635(15)
V13* V 0.8101(5) 0.96753(10) 1.2704(3)
V14* V 0.5580(8) 1.06028(13) 1.1249(4)
O25* O 0.930(2) 0.9491(5) 1.2670(16)
O30* O 0.805(2) 0.9993(5) 0.5394(16)
O31* O 0.614(2) 1.0635(5) 0.4690(17)
O33* O -0.273(2) 0.9829(4) 0.1402(15)
O34* O -0.442(2) 1.0290(5) 0.0690(16)
Ag8* Ag -0.0860(2) 0.63892(6) 1.15642(16)
N16* N -0.071(2) 0.6416(5) 0.0037(17)
Ag9* Ag -0.2560(3) 1.15250(6) -0.57799(16)
N18* N -0.255(2) 1.1486(5) 0.5821(17)
Ag10* Ag -0.4018(3) 0.63732(7) 1.96327(17)
N20* N -0.408(3) 0.6419(5) 0.8044(17)
#END
