
#######################################################################
#
#                 Cambridge Crystallographic Data Centre
#                                CCDC
#
#######################################################################
#
# If this CIF has been generated from an entry in the Cambridge
# Structural Database, then it will include bibliographic, chemical,
# crystal, experimental, refinement or atomic coordinate data resulting
# from the CCDC's data processing and validation procedures.
#
#######################################################################

data_CSD_CIF_BINPEV
_audit_creation_date 2013-11-27
_audit_creation_method CSD-ConQuest-V1
_database_code_CSD BINPEV
_database_code_depnum_ccdc_archive 'CCDC 945267'
_chemical_formula_sum 'C26 H40 Cu1 Mo5 N4 O31 P2'
_chemical_formula_moiety
;
(C10 H10 N2 2+)n,n(C16 H22 Cu1 Mo5 N2 O27 P2 2-),4n(H2 O1)
;
_journal_coden_Cambridge 9
_journal_volume 52
_journal_year 2013
_journal_page_first 11422
_journal_name_full 'Inorg.Chem. '
loop_
_publ_author_name
"Xiao-Min Li"
"Ya-Guang Chen"
"Chunnian Su"
"Shi Zhou"
"Qun Tang"
"Tian Shi"
_chemical_name_systematic
;
catena-[ 4,4'-Bipyridinium 
bis(\m~5~-(2-carboxyethyl)phosphonato)-(\m~2~-4,4'-bipyridine)-heptakis(\m~2~-
oxo)-diaqua-octa-oxo-copper-penta-molybdenum tetrahydrate]
;
_cell_volume   2134.037
_exptl_crystal_colour 'green'
_exptl_crystal_density_diffrn 2.345
_exptl_crystal_description 'block'
_diffrn_ambient_temperature 293
#These two values have been output from a single CSD field.
_refine_ls_R_factor_gt 0.045
_refine_ls_wR_factor_gt 0.045
_symmetry_cell_setting triclinic
_symmetry_space_group_name_H-M 'P -1'
_symmetry_Int_Tables_number 2
loop_
_symmetry_equiv_pos_site_id
_symmetry_equiv_pos_as_xyz
1 x,y,z
2 -x,-y,-z
_cell_length_a 9.722(5)
_cell_length_b 11.116(5)
_cell_length_c 20.960(5)
_cell_angle_alpha 88.945(5)
_cell_angle_beta 86.593(5)
_cell_angle_gamma 70.698(5)
_cell_formula_units_Z 2
loop_
_atom_type_symbol
_atom_type_radius_bond
C 0.68
H 0.23
Cu 1.32
Mo 1.54
N 0.68
O 0.68
P 1.05
loop_
_atom_site_label
_atom_site_type_symbol
_atom_site_fract_x
_atom_site_fract_y
_atom_site_fract_z
Mo1 Mo 0.18842(5) 0.63421(5) -0.12308(2)
Mo2 Mo 0.32743(5) 0.87761(5) -0.12184(2)
Mo3 Mo 0.25717(6) 0.76021(6) -0.37614(3)
Mo4 Mo 0.12665(5) 0.57817(5) -0.27457(3)
Mo5 Mo 0.44468(6) 0.90339(5) -0.28960(3)
Cu1 Cu -0.24863(9) 0.73033(8) -0.07379(4)
P1 P 0.09830(16) 0.88504(15) -0.23422(8)
P2 P 0.45335(15) 0.61439(15) -0.24144(8)
O1 O 0.5480(4) 0.6923(4) -0.2624(2)
O2 O 0.1258(4) 0.9578(4) -0.1796(2)
O3 O 0.2073(4) 0.5194(4) -0.1940(2)
N1 N -0.2514(6) 0.9117(5) -0.0674(3)
C1 C -0.1967(6) 1.0264(7) -0.2263(3)
H1 H -0.22060 0.95510 -0.20730
H2 H -0.17120 1.07140 -0.19220
O4 O 0.7118(6) 0.4107(5) -0.3489(3)
O5 O -0.4438(5) 1.1585(5) -0.2241(3)
O6 O 0.4243(5) 0.8161(4) -0.3678(2)
O7 O 0.1038(5) 0.7019(5) -0.3408(2)
O8 O 0.4840(4) 0.8008(4) -0.0834(2)
O9 O 0.1935(5) 0.4396(5) -0.3179(2)
O10 O -0.0531(5) 0.5934(5) -0.2580(2)
O11 O 0.0844(4) 0.7577(4) -0.2119(2)
O12 O 0.4156(4) 0.9141(4) -0.1987(2)
O13 O 0.3699(4) 0.6712(4) -0.1777(2)
O14 O 0.2059(4) 0.7850(4) -0.0860(2)
C2 C -0.1194(7) 1.0572(6) -0.0611(3)
H3 H -0.02940 1.06920 -0.05930
C3 C -0.3730(7) 1.1342(6) -0.0671(4)
H4 H -0.46070 1.20110 -0.06910
O15 O 0.2883(5) 0.5167(5) -0.0744(2)
O16 O 0.2243(4) 0.8646(4) -0.2861(2)
O17 O 0.0110(4) 0.6568(4) -0.0959(2)
C4 C -0.3683(7) 1.3978(7) -0.0635(4)
H5 H -0.45790 1.38440 -0.06090
C5 C 0.7283(7) 0.4137(7) -0.2357(4)
H6 H 0.75700 0.48420 -0.22170
H7 H 0.77330 0.34110 -0.20870
C6 C -0.3308(7) 1.1148(6) -0.2554(4)
C7 C -0.3736(8) 1.0124(7) -0.0685(4)
H8 H -0.46250 0.99840 -0.07030
C8 C 0.7855(7) 0.3812(7) -0.3033(4)
O18 O 0.1489(6) 0.8815(5) -0.4187(3)
O19 O -0.2570(5) 0.7416(5) -0.1688(2)
H9 H -0.17390 0.71980 -0.19370
H10 H -0.34400 0.76870 -0.18660
O20 O -0.2455(6) 0.7226(6) 0.0228(3)
H11 H -0.15960 0.69640 0.04160
H12 H -0.32980 0.74530 0.04690
C9 C -0.3652(8) 1.5205(7) -0.0671(4)
H13 H -0.45340 1.58730 -0.06620
N2 N -0.2431(6) 1.5478(5) -0.0717(3)
C10 C -0.2438(6) 1.1608(6) -0.0628(3)
O21 O 0.3486(4) 0.6093(4) -0.2927(2)
O22 O 0.2646(5) 1.0196(4) -0.0819(2)
O23 O 0.6188(5) 0.8975(5) -0.3052(2)
O24 O 0.3406(5) 0.6446(5) -0.4324(2)
O25 O 0.3489(6) 1.0553(5) -0.3088(3)
O26 O -0.3115(5) 1.1437(5) -0.3157(3)
H14 H -0.38540 1.19900 -0.32700
O27 O 0.9260(6) 0.3137(6) -0.3105(3)
H15 H 0.94890 0.29970 -0.34860
C11 C -0.2422(7) 1.2945(6) -0.0637(3)
C12 C -0.0646(7) 0.9747(7) -0.2718(3)
H16 H -0.04720 1.04540 -0.29470
H17 H -0.08560 0.92070 -0.30290
C13 C 0.5634(7) 0.4497(6) -0.2263(3)
H18 H 0.52000 0.38950 -0.21330
C14 C -0.1259(7) 0.9368(6) -0.0620(4)
H19 H -0.03980 0.86860 -0.05870
C15 C -0.1120(7) 1.3233(7) -0.0684(4)
H20 H -0.02250 1.25800 -0.06880
C16 C -0.1171(8) 1.4470(7) -0.0725(5)
H21 H -0.02930 1.46350 -0.07600
O28 O -0.2891(6) 0.7304(6) 0.1578(3)
H22 H -0.38060 0.78600 0.15730
H23 H -0.25780 0.68680 0.19370
O29 O 0.5280(6) -0.3215(6) 0.3722(3)
H24 H 0.48180 -0.37970 0.37510
H25 H 0.59530 -0.32300 0.40010
N3 N 0.6662(6) 0.6646(6) -0.4210(3)
C17 C 0.9303(7) 0.5339(7) -0.4834(3)
C18 C 0.8006(7) 0.5472(9) -0.5115(4)
H26 H 0.80150 0.51150 -0.55140
C19 C 0.9199(8) 0.5849(10) -0.4233(4)
H27 H 1.00510 0.57470 -0.40270
C20 C 0.6679(8) 0.6152(8) -0.4789(4)
H28 H 0.58040 0.62610 -0.49780
C21 C 0.7884(9) 0.6502(9) -0.3928(4)
H29 H 0.78530 0.68420 -0.35230
C22 C 0.4206(10) -0.9738(8) 0.5032(4)
C23 C 0.3472(12) -0.8972(9) 0.5533(4)
H30 H 0.40040 -0.87660 0.58420
C24 C 0.3282(12) -0.9917(11) 0.4577(6)
H31 H 0.37120 -1.03870 0.42120
N4 N 0.1186(11) -0.8719(9) 0.5152(5)
C25 C 0.1976(14) -0.8501(11) 0.5592(6)
H32 H 0.15170 -0.80190 0.59500
C26 C 0.1841(13) -0.9457(12) 0.4636(7)
H33 H 0.12820 -0.96350 0.43300
O30 O 1.0569(7) 0.2213(6) -0.2089(3)
H34 H 1.02980 0.15230 -0.20100
H35 H 1.15140 0.21520 -0.20780
O31 O -0.1624(8) -0.7521(7) 0.5448(3)
H36 H -0.16720 -0.73250 0.58650
H37 H -0.14610 -0.83320 0.53280
Cu1* Cu -0.24863(9) 1.73033(8) -0.07379(4)
Cu1** Cu 0.75137(9) 0.73033(8) -0.07379(4)
O8* O -0.5160(4) 0.8008(4) -0.0834(2)
N2* N -0.2431(6) 0.5478(5) -0.0717(3)
N3A N 1.3338(6) 0.3354(6) -0.5790(3)
C17A C 1.0697(7) 0.4661(7) -0.5166(3)
C18A C 1.1994(7) 0.4528(9) -0.4885(4)
H26A H 1.19850 0.48850 -0.44860
C19A C 1.0801(8) 0.4151(10) -0.5767(4)
H27A H 0.99490 0.42530 -0.59730
C20A C 1.3321(8) 0.3848(8) -0.5211(4)
H28A H 1.41960 0.37390 -0.50220
C21A C 1.2116(9) 0.3498(9) -0.6072(4)
H29A H 1.21470 0.31580 -0.64770
C22A C 0.5794(10) -1.0262(8) 0.4968(4)
C23A C 0.6528(12) -1.1028(9) 0.4467(4)
H30A H 0.59960 -1.12340 0.41580
C24A C 0.6718(12) -1.0083(11) 0.5423(6)
H31A H 0.62880 -0.96130 0.57880
N4A N 0.8814(11) -1.1281(9) 0.4848(5)
C25A C 0.8024(14) -1.1499(11) 0.4408(6)
H32A H 0.84830 -1.19810 0.40500
C26A C 0.8159(13) -1.0543(12) 0.5364(7)
H33A H 0.87180 -1.03650 0.56700
#END
