
#######################################################################
#
#                 Cambridge Crystallographic Data Centre
#                                CCDC
#
#######################################################################
#
# If this CIF has been generated from an entry in the Cambridge
# Structural Database, then it will include bibliographic, chemical,
# crystal, experimental, refinement or atomic coordinate data resulting
# from the CCDC's data processing and validation procedures.
#
#######################################################################

data_CSD_CIF_BINSEZ
_audit_creation_date 2018-12-05
_audit_creation_method CSD-ConQuest-V1
_database_code_CSD BINSEZ
_database_code_depnum_ccdc_archive 'CCDC 1872392'
_chemical_formula_sum 'C8 H20 N18 Na2 O4'
_chemical_formula_moiety
;
(C8 H10 N16 Na2 O3 2-)n,2n(H4 N1 1+),n(H2 O1)
;
_journal_coden_Cambridge 1147
_journal_volume 18
_journal_year 2018
_journal_page_first 7708
_journal_name_full 'Cryst.Growth Des. '
loop_
_publ_author_name
"Y.Friedman"
"C.Mottillo"
"B.K.Tripuramallu"
_chemical_name_systematic
;
catena-(bis(ammonium) 
bis(\m-aqua)-(\m-5-[2-(1H-tetrazolato-5-yl)ethenyl]tetrazol-1-ide)-aqua-(5-[2-
(1H-tetrazolato-5-yl)ethenyl]tetrazol-1-ide)-di-sodium monohydrate)
;
_cell_volume    980.900
_exptl_crystal_colour 'colorless'
_exptl_crystal_density_diffrn 1.62
_exptl_crystal_description 'needles'
_diffrn_ambient_temperature 110
#These two values have been output from a single CSD field.
_refine_ls_R_factor_gt 0.0345
_refine_ls_wR_factor_gt 0.0345
_symmetry_cell_setting triclinic
_symmetry_space_group_name_H-M 'P -1'
_symmetry_Int_Tables_number 2
loop_
_symmetry_equiv_pos_site_id
_symmetry_equiv_pos_as_xyz
1 x,y,z
2 -x,-y,-z
_cell_length_a 8.6541(4)
_cell_length_b 9.0381(4)
_cell_length_c 13.1014(6)
_cell_angle_alpha 106.697(3)
_cell_angle_beta 91.854(2)
_cell_angle_gamma 90.352(2)
_cell_formula_units_Z 2
loop_
_atom_type_symbol
_atom_type_radius_bond
C 0.68
H 0.23
N 0.68
Na 1.66
O 0.68
loop_
_atom_site_label
_atom_site_type_symbol
_atom_site_fract_x
_atom_site_fract_y
_atom_site_fract_z
Na1 Na 0.46599(6) 0.47169(6) 0.68755(4)
Na2 Na 0.77968(6) 0.50700(6) 0.50979(4)
O1 O 0.74847(11) 0.48937(12) 0.68625(7)
H1 H 0.803(2) 0.560(2) 0.7335(15)
H2 H 0.800(2) 0.412(2) 0.6844(15)
O2 O 0.81902(11) 0.51392(12) 0.32815(8)
H3 H 0.860(3) 0.434(3) 0.2940(17)
H4 H 0.877(3) 0.586(2) 0.3164(17)
O3 O 0.47368(14) 0.24687(12) 0.74100(8)
H5 H 0.500(2) 0.162(2) 0.7059(15)
H6 H 0.502(2) 0.253(2) 0.8055(17)
N1 N 0.06574(12) 0.33653(12) 1.12771(8)
N2 N 0.44529(12) 0.74098(12) 1.04375(8)
N3 N -0.03427(13) 0.21726(12) 1.09253(8)
N4 N 0.04862(12) 0.26661(12) 0.95067(8)
N5 N 0.54522(12) 0.82777(12) 1.00839(8)
N6 N 0.55714(12) -0.30218(12) 0.50798(8)
N7 N 0.55085(12) 0.77635(12) 0.90420(8)
N8 N 0.45819(12) -0.31577(12) 0.58278(8)
N9 N 0.45477(12) 0.65378(12) 0.86750(8)
N10 N 1.03828(13) 0.14474(12) 0.34095(8)
N11 N 0.92602(13) 0.26605(12) 0.48650(9)
N12 N 0.94437(12) 0.04064(12) 0.36431(8)
N13 N -0.04438(13) 0.17616(12) 0.98783(8)
N14 N 1.02842(13) 0.27878(12) 0.41374(9)
N15 N 0.54468(12) -0.07814(12) 0.63306(8)
N16 N 0.45165(12) -0.18212(12) 0.65688(8)
C1 C 0.39150(14) 0.63426(14) 0.95499(9)
C2 C 0.11474(14) 0.36505(14) 1.03893(9)
C3 C 0.60758(14) -0.15499(14) 0.54106(9)
C4 C 0.22457(14) 0.48757(14) 1.04004(10)
H7 H 0.2555(19) 0.5512(18) 1.1094(13)
C5 C 0.28156(14) 0.51157(14) 0.95268(10)
H8 H 0.2493(19) 0.4506(19) 0.8836(13)
C6 C 0.87724(14) 0.11885(14) 0.45422(9)
C7 C 0.76664(14) 0.05535(15) 0.51243(10)
H9 H 0.730(2) 0.1235(19) 0.5751(14)
C8 C 0.71713(14) -0.09103(14) 0.48237(10)
H10 H 0.7518(18) -0.1600(18) 0.4211(13)
O4 O 1.01559(12) 0.72138(11) 0.26568(8)
H11 H 0.998(2) 0.717(2) 0.1969(17)
H12 H 0.995(2) 0.814(2) 0.2986(15)
N17 N 0.74277(13) 1.03434(13) 1.16772(9)
H13 H 0.807(2) 1.096(2) 1.1456(14)
H14 H 0.678(2) 0.973(2) 1.1115(15)
H15 H 0.680(2) 1.093(2) 1.2175(15)
H16 H 0.791(2) 0.972(2) 1.1980(14)
N18 N -0.24328(14) -0.02826(14) 0.83055(9)
H17 H -0.184(2) 0.032(2) 0.8869(15)
H18 H -0.308(2) -0.103(2) 0.8517(14)
H19 H -0.180(2) -0.074(2) 0.7773(14)
H20 H -0.302(2) 0.036(2) 0.8083(15)
Na1A Na 0.53401(6) 0.52831(6) 0.31245(4)
Na2A Na 1.22032(6) 0.49300(6) 0.49021(4)
O2A O 0.18098(11) 0.48608(12) 0.67185(8)
N14A N 0.97158(13) 0.72122(12) 0.58626(9)
#END
