
#######################################################################
#
#                 Cambridge Crystallographic Data Centre
#                                CCDC
#
#######################################################################
#
# If this CIF has been generated from an entry in the Cambridge
# Structural Database, then it will include bibliographic, chemical,
# crystal, experimental, refinement or atomic coordinate data resulting
# from the CCDC's data processing and validation procedures.
#
#######################################################################

data_CSD_CIF_BINTEZ
_audit_creation_date 2013-11-27
_audit_creation_method CSD-ConQuest-V1
_database_code_CSD BINTEZ
_database_code_depnum_ccdc_archive 'CCDC 778998'
_chemical_formula_sum 'C22 H24 Cu1 N6 O10'
_chemical_formula_moiety
;
(C14 H6 Cu1 N2 O8 2-)n,2n(C4 H7 N2 1+),2n(H2 O1)
;
_journal_coden_Cambridge 155
_journal_volume 409
_journal_year 2014
_journal_page_first 407
_journal_name_full 'Inorg.Chim.Acta '
loop_
_publ_author_name
"O.Z.Yesilel"
"F.Semerci"
"O.Buyukgungor"
_chemical_name_systematic
;
catena-[bis(5-methyl-1H-imidazol-3-ium) 
bis(\m~2~-pyridine-2,3-dicarboxylato)-copper(ii) dihydrate]
;
_cell_volume    619.453
_exptl_crystal_colour 'blue'
_exptl_crystal_density_diffrn 1.598
_exptl_crystal_description 'prism'
_diffrn_ambient_temperature 293
#These two values have been output from a single CSD field.
_refine_ls_R_factor_gt 0.0311
_refine_ls_wR_factor_gt 0.0311
_symmetry_cell_setting triclinic
_symmetry_space_group_name_H-M 'P -1'
_symmetry_Int_Tables_number 2
loop_
_symmetry_equiv_pos_site_id
_symmetry_equiv_pos_as_xyz
1 x,y,z
2 -x,-y,-z
_cell_length_a 6.8656(8)
_cell_length_b 8.1719(11)
_cell_length_c 11.3542(15)
_cell_angle_alpha 95.230(11)
_cell_angle_beta 91.734(10)
_cell_angle_gamma 102.113(10)
_cell_formula_units_Z 1
loop_
_atom_type_symbol
_atom_type_radius_bond
C 0.68
H 0.23
Cu 1.32
N 0.68
O 0.68
loop_
_atom_site_label
_atom_site_type_symbol
_atom_site_fract_x
_atom_site_fract_y
_atom_site_fract_z
C1 C 0.3353(3) 0.7990(3) 0.45806(18)
H1 H 0.44810 0.86320 0.50020
C2 C 0.1928(3) 0.8794(3) 0.41635(19)
H2 H 0.20760 0.99540 0.43030
C3 C 0.0277(3) 0.7812(3) 0.35317(17)
H3 H -0.07050 0.83170 0.32370
C4 C 0.0066(2) 0.6084(3) 0.33319(15)
C5 C 0.1545(2) 0.5377(2) 0.38009(14)
C6 C 0.1497(2) 0.3505(2) 0.37217(15)
C7 C -0.1736(3) 0.5064(3) 0.25872(15)
O1 O 0.29524(18) 0.31080(17) 0.42774(12)
O2 O 0.0124(2) 0.2511(2) 0.31586(13)
O3 O -0.1523(2) 0.4850(2) 0.14994(11)
O4 O -0.33086(18) 0.4607(2) 0.30949(11)
N1 N 0.3170(2) 0.6333(2) 0.44009(13)
Cu1 Cu 0.50000 0.50000 0.50000
C8 C 0.3212(3) 0.0993(3) 0.1477(2)
H4 H 0.22850 0.16560 0.13730
C9 C 0.5902(3) 0.0179(4) 0.1989(2)
H5 H 0.71760 0.02050 0.23030
C10 C 0.4642(3) -0.1179(3) 0.14250(18)
C11 C 0.4767(4) -0.2961(4) 0.1145(3)
H6 H 0.61170 -0.30740 0.12860
H7 H 0.43590 -0.33110 0.03290
H8 H 0.39070 -0.36530 0.16400
N2 N 0.4985(3) 0.1495(3) 0.20173(16)
H9 H 0.54830 0.24970 0.23370
N3 N 0.2979(3) -0.0614(3) 0.11101(15)
H10 H 0.19350 -0.12200 0.07280
O5 O 0.0233(2) 0.2768(2) 0.00705(14)
H11 H -0.021(4) 0.326(4) 0.0617(19)
H12 H 0.071(4) 0.343(3) -0.040(2)
C1A C -0.3353(3) 0.2010(3) 0.54194(18)
H1A H -0.44810 0.13680 0.49980
C2A C -0.1928(3) 0.1206(3) 0.58365(19)
H2A H -0.20760 0.00460 0.56970
C3A C -0.0277(3) 0.2188(3) 0.64683(17)
H3A H 0.07050 0.16830 0.67630
C4A C -0.0066(2) 0.3916(3) 0.66681(15)
C5A C -0.1545(2) 0.4623(2) 0.61991(14)
C6A C -0.1497(2) 0.6495(2) 0.62783(15)
C7A C 0.1736(3) 0.4936(3) 0.74128(15)
O1A O -0.29524(18) 0.68920(17) 0.57226(12)
O2A O -0.0124(2) 0.7489(2) 0.68414(13)
O3A O 0.1523(2) 0.5150(2) 0.85006(11)
O4A O 0.33086(18) 0.5393(2) 0.69051(11)
N1A N -0.3170(2) 0.3667(2) 0.55991(13)
O1A* O 0.70476(18) 0.68920(17) 0.57226(12)
O4* O 0.66914(18) 0.4607(2) 0.30949(11)
N1A* N 0.6830(2) 0.3667(2) 0.55991(13)
Cu1* Cu -0.50000 0.50000 0.50000
#END
