
#######################################################################
#
#                 Cambridge Crystallographic Data Centre
#                                CCDC
#
#######################################################################
#
# If this CIF has been generated from an entry in the Cambridge
# Structural Database, then it will include bibliographic, chemical,
# crystal, experimental, refinement or atomic coordinate data resulting
# from the CCDC's data processing and validation procedures.
#
#######################################################################

data_CSD_CIF_BIPMOF
_audit_creation_date 2018-12-05
_audit_creation_method CSD-ConQuest-V1
_database_code_CSD BIPMOF
_database_code_depnum_ccdc_archive 'CCDC 1873237'
_chemical_formula_sum 'C26 H60 K2 N6 O29 Pt3'
_chemical_formula_moiety
;
(C12 H24 K1 N6 O19 Pt3 1-)n,n(C14 H32 K1 O8 1+),2n(H2 O1)
;
_journal_coden_Cambridge 222
_journal_volume 48
_journal_year 2019
_journal_page_first 176
_journal_name_full 'Dalton Trans. '
loop_
_publ_author_name
"N.Hoshino"
"Sena Fujita"
"T.Akutagawa"
_chemical_name_systematic
;
catena-((18-crown-6)-bis(methanol)-potassium 
tetrakis(\m-nitrito)-(\m-oxo)-(18-crown-6)-bis(nitrito)-tri-platinum 
dihydrate)
;
_cell_volume   2561.225
_exptl_crystal_colour 'yellow'
_exptl_crystal_density_diffrn 2.054
_exptl_crystal_description 'rod'
_diffrn_ambient_temperature 100
_refine_special_details
;
The SQUEEZE/PLATON program was used to take into account the disordered 
solvent.
;
#These two values have been output from a single CSD field.
_refine_ls_R_factor_gt 0.0859
_refine_ls_wR_factor_gt 0.0859
_symmetry_cell_setting triclinic
_symmetry_space_group_name_H-M 'P -1'
_symmetry_Int_Tables_number 2
loop_
_symmetry_equiv_pos_site_id
_symmetry_equiv_pos_as_xyz
1 x,y,z
2 -x,-y,-z
_cell_length_a 8.2798(2)
_cell_length_b 17.4801(5)
_cell_length_c 18.1002(5)
_cell_angle_alpha 95.484(7)
_cell_angle_beta 100.669(7)
_cell_angle_gamma 90.825(6)
_cell_formula_units_Z 2
loop_
_atom_type_symbol
_atom_type_radius_bond
C 0.68
H 0.23
K 2.03
N 0.68
O 0.68
Pt 1.36
loop_
_atom_site_label
_atom_site_type_symbol
_atom_site_fract_x
_atom_site_fract_y
_atom_site_fract_z
Pt1 Pt 0.62152(9) 0.14913(4) 0.18752(4)
Pt2 Pt 0.71442(9) 0.27360(4) 0.07719(4)
Pt3 Pt 0.63485(10) 0.33080(4) 0.24261(4)
K1 K 0.2587(5) 0.26334(19) 0.07268(19)
O1 O 0.5713(13) 0.2536(6) 0.1544(7)
O2 O 0.6737(15) 0.1129(6) 0.0860(6)
O3 O 0.7226(17) 0.1363(8) -0.0220(7)
O4 O 0.7204(16) 0.3861(6) 0.1097(7)
O5 O 0.697(2) 0.4767(7) 0.1977(8)
O6 O 0.5652(16) 0.2536(8) 0.3069(7)
O7 O 0.5058(19) 0.1383(9) 0.3243(7)
O8 O 0.5583(18) -0.0053(8) 0.2121(9)
O9 O 0.8128(18) 0.0259(8) 0.2402(10)
O10 O 0.8103(18) 0.3592(8) -0.0312(9)
O11 O 0.9612(16) 0.2618(8) -0.0099(7)
O12 O 0.581(3) 0.4137(13) 0.3731(10)
O13 O 0.826(2) 0.4357(9) 0.3528(9)
O14 O 0.1665(18) 0.1108(9) 0.0774(8)
O15 O 0.3192(15) 0.1564(6) -0.0423(7)
O16 O 0.3133(14) 0.3119(6) -0.0653(6)
O17 O 0.2887(17) 0.4211(6) 0.0592(7)
O18 O 0.1531(18) 0.3700(8) 0.1795(7)
O19 O 0.1833(17) 0.2143(9) 0.2077(8)
N1 N 0.7033(18) 0.1684(11) 0.0438(8)
N2 N 0.697(2) 0.4085(9) 0.1791(9)
N3 N 0.562(2) 0.1817(9) 0.2827(10)
N4 N 0.672(2) 0.0453(9) 0.2169(8)
N5 N 0.8468(19) 0.3006(9) 0.0016(8)
N6 N 0.689(3) 0.4055(10) 0.3345(11)
C1 C 0.233(3) 0.0580(12) 0.0295(13)
H1 H 0.17641 0.00717 0.02577
H2 H 0.35135 0.05230 0.04971
C2 C 0.211(3) 0.0881(11) -0.0506(12)
H3 H 0.24126 0.04835 -0.08781
H4 H 0.09492 0.10139 -0.06792
C3 C 0.314(3) 0.1813(11) -0.1148(10)
H5 H 0.19886 0.18472 -0.14078
H6 H 0.36967 0.14405 -0.14573
C4 C 0.401(2) 0.2594(9) -0.1056(9)
H7 H 0.51517 0.25649 -0.07771
H8 H 0.40524 0.27656 -0.15583
C5 C 0.382(2) 0.3874(10) -0.0580(9)
H9 H 0.38638 0.40416 -0.10841
H10 H 0.49545 0.38957 -0.02807
C6 C 0.272(2) 0.4388(9) -0.0181(10)
H11 H 0.30343 0.49350 -0.01921
H12 H 0.15603 0.43032 -0.04416
C7 C 0.186(3) 0.4647(10) 0.0970(11)
H13 H 0.07055 0.45407 0.07158
H14 H 0.21225 0.52001 0.09594
C8 C 0.208(3) 0.4461(13) 0.1764(12)
H15 H 0.32543 0.45257 0.20036
H16 H 0.14484 0.48214 0.20482
C9 C 0.181(3) 0.3478(15) 0.2528(12)
H17 H 0.13477 0.38586 0.28650
H18 H 0.30099 0.34630 0.27188
C10 C 0.107(3) 0.2741(16) 0.2535(13)
H19 H -0.01190 0.27529 0.23286
H20 H 0.12090 0.26085 0.30621
C11 C 0.095(2) 0.1398(15) 0.1951(13)
H21 H -0.02006 0.14597 0.16936
H22 H 0.09177 0.11994 0.24431
C12 C 0.178(2) 0.0829(12) 0.1472(12)
H23 H 0.29473 0.07836 0.17102
H24 H 0.12268 0.03152 0.14166
K2 K 0.1096(7) 0.8036(3) 0.3827(2)
O20 O 0.028(3) 0.6523(12) 0.3136(13)
O21 O 0.0871(16) 0.7695(8) 0.2284(7)
O22 O 0.2499(19) 0.9048(9) 0.3044(8)
O23 O 0.207(3) 0.9561(11) 0.4494(8)
O24 O 0.142(2) 0.8452(13) 0.5393(9)
O25 O -0.009(4) 0.7051(18) 0.4722(12)
O26 O 0.403(3) 0.7332(13) 0.4298(11)
O27 O -0.182(3) 0.8832(13) 0.3298(12)
C13 C -0.055(3) 0.6496(15) 0.2397(16)
H25 H -0.15770 0.67824 0.23623
H26 H -0.08122 0.59584 0.21759
C14 C 0.071(3) 0.6890(14) 0.1995(16)
H27 H 0.17875 0.66451 0.21008
H28 H 0.03095 0.68370 0.14416
C15 C 0.204(3) 0.8073(14) 0.2012(12)
H29 H 0.18319 0.79817 0.14537
H30 H 0.31348 0.78749 0.22079
C16 C 0.202(3) 0.8904(13) 0.2243(11)
H31 H 0.27891 0.91831 0.19961
H32 H 0.09040 0.90937 0.20813
C17 C 0.245(3) 0.9806(13) 0.3313(14)
H33 H 0.30903 1.01204 0.30360
H34 H 0.12943 0.99683 0.32084
C18 C 0.305(5) 0.9950(18) 0.4064(17)
H35 H 0.30571 1.05108 0.42109
H36 H 0.41916 0.97782 0.41763
C19 C 0.257(5) 0.965(2) 0.5295(11)
H37 H 0.26275 1.02007 0.54898
H38 H 0.36724 0.94343 0.54427
C20 C 0.128(5) 0.921(2) 0.561(2)
H39 H 0.14777 0.93082 0.61645
H40 H 0.01695 0.93830 0.54014
C21 C 0.049(4) 0.8053(19) 0.5806(18)
H41 H -0.06652 0.82079 0.57125
H42 H 0.09475 0.81458 0.63536
C22 C 0.063(4) 0.7198(18) 0.5516(11)
H43 H 0.18053 0.70635 0.55923
H44 H 0.00676 0.68679 0.58109
C23 C 0.048(5) 0.633(2) 0.443(2)
H45 H 0.03198 0.59194 0.47569
H46 H 0.16681 0.63725 0.44147
C24 C -0.052(7) 0.612(3) 0.362(2)
H47 H -0.05283 0.55560 0.34802
H48 H -0.16714 0.62788 0.35920
C25 C 0.518(4) 0.7678(17) 0.4952(16)
H49 H 0.57726 0.81127 0.48101
H50 H 0.59603 0.72955 0.51421
H51 H 0.45692 0.78604 0.53474
C26 C -0.327(4) 0.840(3) 0.3309(19)
H52 H -0.42318 0.87004 0.31231
H53 H -0.32976 0.79198 0.29834
H54 H -0.32962 0.82906 0.38269
K1* K 1.2587(5) 0.26334(19) 0.07268(19)
O11* O -0.0388(16) 0.2618(8) -0.0099(7)
#END
