
#######################################################################
#
#                 Cambridge Crystallographic Data Centre
#                                CCDC
#
#######################################################################
#
# If this CIF has been generated from an entry in the Cambridge
# Structural Database, then it will include bibliographic, chemical,
# crystal, experimental, refinement or atomic coordinate data resulting
# from the CCDC's data processing and validation procedures.
#
#######################################################################

data_CSD_CIF_BIQFAL01
_audit_creation_date 2018-12-05
_audit_creation_method CSD-ConQuest-V1
_database_code_CSD BIQFAL01
_database_code_depnum_ccdc_archive 'CCDC 1555613'
_chemical_formula_sum 'C12 H16 Cr1 N4 Na1 O12'
_chemical_formula_moiety
;
(C6 H6 Cr1 Na1 O12 2-)n,2(C3 H5 N2 1+)
;
_journal_coden_Cambridge 222
_journal_volume 48
_journal_year 2019
_journal_page_first 242
_journal_name_full 'Dalton Trans. '
loop_
_publ_author_name
"M.Ptak"
"B.Zarychta"
"D.Stefanska"
"A.Ciupa"
"W.Paraguassu"
_chemical_name_systematic
;
catena-[bis(1H-imidazol-3-ium) hexakis(\m-formato)-chromium(iii)-sodium(i)]
;
_cell_volume    961.366
_exptl_crystal_colour 'violet'
_exptl_crystal_density_diffrn 1.67
_exptl_crystal_description 'irregular'
_diffrn_ambient_temperature 100
#These two values have been output from a single CSD field.
_refine_ls_R_factor_gt 0.0197
_refine_ls_wR_factor_gt 0.0197
_symmetry_cell_setting monoclinic
_symmetry_space_group_name_H-M 'P 2/n'
_symmetry_Int_Tables_number 13
loop_
_symmetry_equiv_pos_site_id
_symmetry_equiv_pos_as_xyz
1 x,y,z
2 1/2-x,y,1/2-z
3 -x,-y,-z
4 -1/2+x,-y,-1/2+z
_cell_length_a 9.3105(2)
_cell_length_b 8.4501(2)
_cell_length_c 12.2281(2)
_cell_angle_alpha 90
_cell_angle_beta 92.147(2)
_cell_angle_gamma 90
_cell_formula_units_Z 2
loop_
_atom_type_symbol
_atom_type_radius_bond
C 0.68
H 0.23
Cr 1.39
N 0.68
Na 1.66
O 0.68
loop_
_atom_site_label
_atom_site_type_symbol
_atom_site_fract_x
_atom_site_fract_y
_atom_site_fract_z
Cr1 Cr 0.25000 0.73107(3) 0.75000
Na1 Na -0.25000 0.22779(7) 0.75000
O1 O 0.11294(8) 0.57562(9) 0.69004(6)
O2 O -0.07229(9) 0.41169(10) 0.69857(7)
O3 O 0.34748(9) 0.73525(9) 0.60965(6)
O4 O 0.35489(9) 0.75945(10) 0.43024(7)
O5 O 0.37976(8) 0.90367(9) 0.80229(6)
O6 O 0.57872(9) 1.04467(10) 0.82050(7)
C1 C 0.02781(12) 0.48525(13) 0.74073(9)
H1 H 0.04350 0.47480 0.81590
C2 C 0.28788(13) 0.75162(13) 0.5152(1)
H2 H 0.18820 0.75810 0.50980
C3 C 0.51269(12) 0.92744(13) 0.78658(9)
H3 H 0.56230 0.85210 0.74740
N1 N 0.64194(12) 0.75076(12) 0.47304(9)
H4 H 0.5456(19) 0.7540(16) 0.4682(13)
N2 N 0.86153(11) 0.79579(12) 0.43399(8)
H5 H 0.9393(15) 0.8425(17) 0.4011(11)
C4 C 0.72673(13) 0.65291(14) 0.53822(10)
H6 H 0.69510 0.58120 0.58980
C5 C 0.86398(13) 0.68061(15) 0.51318(10)
H7 H 0.94520 0.63110 0.54380
C6 C 0.72621(13) 0.83537(14) 0.41107(10)
H8 H 0.69550 0.91040 0.35970
O1A O -0.61294(8) 0.57562(9) 0.80996(6)
O2A O -0.42771(9) 0.41169(10) 0.80143(7)
C1A C -0.52781(12) 0.48525(13) 0.75927(9)
H1A H -0.54350 0.47480 0.68410
O3A O 0.15252(9) 0.73525(9) 0.89035(6)
O4A O 0.14511(9) 0.75945(10) 1.06976(7)
C2A C 0.21212(13) 0.75162(13) 0.9848(1)
H2A H 0.31180 0.75810 0.99020
O5A O 0.12024(8) 0.90367(9) 0.69771(6)
O6A O -0.07872(9) 1.04467(10) 0.67950(7)
C3A C -0.01269(12) 0.92744(13) 0.71342(9)
H3A H -0.06230 0.85210 0.75260
Cr1* Cr -0.75000 0.73107(3) 0.75000
Na1* Na -0.25000 1.22779(7) 0.75000
Na1** Na 0.75000 1.22779(7) 0.75000
Na1B Na 0.25000 0.77221(7) 0.25000
Na1B* Na 0.25000 0.77221(7) 1.25000
O1A* O 0.38706(8) 0.57562(9) 0.80996(6)
O4B O -0.35489(9) 0.24055(10) 0.56976(7)
O4C O -0.14511(9) 0.24055(10) 0.93024(7)
O6* O -0.42128(9) 0.04467(10) 0.82050(7)
O6A* O -0.07872(9) 0.04467(10) 0.67950(7)
#END
