
#######################################################################
#
#                 Cambridge Crystallographic Data Centre
#                                CCDC
#
#######################################################################
#
# If this CIF has been generated from an entry in the Cambridge
# Structural Database, then it will include bibliographic, chemical,
# crystal, experimental, refinement or atomic coordinate data resulting
# from the CCDC's data processing and validation procedures.
#
#######################################################################

data_CSD_CIF_BIQHUH01
_audit_creation_date 2018-12-05
_audit_creation_method CSD-ConQuest-V1
_database_code_CSD BIQHUH01
_database_code_depnum_ccdc_archive 'CCDC 1584365'
_chemical_formula_sum 'C12 H16 Al1 N4 Na1 O12'
_chemical_formula_moiety
;
(C6 H6 Al1 Na1 O12 2-)n,2(C3 H5 N2 1+)
;
_journal_coden_Cambridge 222
_journal_volume 48
_journal_year 2019
_journal_page_first 242
_journal_name_full 'Dalton Trans. '
loop_
_publ_author_name
"M.Ptak"
"B.Zarychta"
"D.Stefanska"
"A.Ciupa"
"W.Paraguassu"
_chemical_name_systematic
;
catena-[bis(imidazol-3-ium) hexakis(formato)-sodium-aluminium(iii)]
;
_cell_volume   1908.177
_exptl_crystal_colour 'colorless'
_exptl_crystal_density_diffrn 1.595
_exptl_crystal_description 'irregular'
_diffrn_ambient_temperature 100
#These two values have been output from a single CSD field.
_refine_ls_R_factor_gt 0.025
_refine_ls_wR_factor_gt 0.025
_symmetry_cell_setting monoclinic
_symmetry_space_group_name_H-M 'P 21/n'
_symmetry_Int_Tables_number 14
loop_
_symmetry_equiv_pos_site_id
_symmetry_equiv_pos_as_xyz
1 x,y,z
2 1/2-x,1/2+y,1/2-z
3 -x,-y,-z
4 -1/2+x,-1/2-y,-1/2+z
_cell_length_a 12.1711(2)
_cell_length_b 12.3854(2)
_cell_length_c 12.6588(2)
_cell_angle_alpha 90
_cell_angle_beta 90.455(2)
_cell_angle_gamma 90
_cell_formula_units_Z 4
loop_
_atom_type_symbol
_atom_type_radius_bond
C 0.68
H 0.23
Al 1.21
N 0.68
Na 1.66
O 0.68
loop_
_atom_site_label
_atom_site_type_symbol
_atom_site_fract_x
_atom_site_fract_y
_atom_site_fract_z
Na1 Na 0.24648(3) 0.76066(3) 0.98910(3)
Al1 Al 0.24742(3) 0.75722(3) 0.49408(2)
O1 O 0.29520(7) 0.74284(6) 0.63484(6)
O2 O 0.29040(8) 0.75161(7) 0.80923(6)
O3 O 0.29369(6) 0.61163(6) 0.46901(6)
O4 O 0.32698(7) 0.43980(6) 0.50562(6)
O5 O 0.19901(7) 0.75778(6) 0.35104(6)
O6 O 0.21013(7) 0.76082(7) 0.17663(6)
O7 O 0.19430(6) 0.89849(6) 0.51829(6)
O8 O 0.19372(7) 1.07766(6) 0.52367(6)
O9 O 0.38668(6) 0.80948(6) 0.45879(6)
O10 O 0.56763(7) 0.80847(7) 0.48281(7)
O11 O 0.10796(6) 0.70266(6) 0.53341(6)
O12 O -0.07166(7) 0.67967(7) 0.52720(7)
C1 C 0.25601(10) 0.77699(10) 0.72201(9)
H1 H 0.19700 0.82460 0.71870
C2 C 0.28553(10) 0.52780(9) 0.52722(9)
H2 H 0.24600 0.53350 0.58950
C3 C 0.24118(10) 0.78893(9) 0.26523(9)
H3 H 0.30010 0.83660 0.26940
C4 C 0.23136(10) 0.99080(9) 0.49267(9)
H4 H 0.29110 0.99300 0.44740
C5 C 0.48050(9) 0.76316(10) 0.46695(9)
H5 H 0.48200 0.68840 0.46020
C6 C 0.01378(10) 0.72102(9) 0.49423(9)
H6 H 0.00860 0.76840 0.43740
N1 N 0.44237(9) 0.46794(8) 0.32022(8)
N2 N 0.55043(9) 0.45763(9) 0.18774(8)
H7 H 0.4100(11) 0.4567(11) 0.3783(10)
H8 H 0.5987(11) 0.4391(11) 0.1419(11)
C7 C 0.41669(11) 0.55146(10) 0.2540(1)
H9 H 0.36250 0.60320 0.26450
C8 C 0.48404(11) 0.54499(11) 0.17104(10)
H10 H 0.48530 0.59120 0.11310
C9 C 0.52364(10) 0.41189(10) 0.27837(10)
H11 H 0.55630 0.35080 0.30760
N3 N -0.02012(9) 0.54095(9) 0.68761(8)
N4 N -0.06023(9) 0.40874(8) 0.78894(8)
H12 H -0.0254(11) 0.5868(11) 0.6355(10)
H13 H -0.0977(11) 0.3528(11) 0.812(1)
C10 C 0.04974(11) 0.54649(10) 0.77335(10)
H14 H 0.10440 0.59770 0.78490
C11 C 0.02389(11) 0.46341(10) 0.83757(10)
H15 H 0.05670 0.44660 0.90210
C12 C -0.08551(11) 0.45678(10) 0.69891(10)
H16 H -0.14000 0.43510 0.65160
Na1* Na 0.24648(3) 0.76066(3) -0.01090(3)
Na1A Na 0.25352(3) 0.26066(3) 0.51090(3)
Na1A* Na 0.25352(3) 1.26066(3) 0.51090(3)
Na1C Na -0.25352(3) 0.73934(3) 0.48910(3)
Na1C* Na 0.74648(3) 0.73934(3) 0.48910(3)
O4A O 0.17302(7) 0.93980(6) 0.99438(6)
O6* O 0.21013(7) 0.76082(7) 1.17663(6)
O8A O 0.30628(7) 0.57766(6) 0.97633(6)
O10C O 0.06763(7) 0.69153(7) 0.98281(7)
O12C O 0.42834(7) 0.82033(7) 1.02720(7)
#END
