
#######################################################################
#
#                 Cambridge Crystallographic Data Centre
#                                CCDC
#
#######################################################################
#
# If this CIF has been generated from an entry in the Cambridge
# Structural Database, then it will include bibliographic, chemical,
# crystal, experimental, refinement or atomic coordinate data resulting
# from the CCDC's data processing and validation procedures.
#
#######################################################################

data_CSD_CIF_BIQNUN
_audit_creation_date 2018-12-05
_audit_creation_method CSD-ConQuest-V1
_database_code_CSD BIQNUN
_database_code_depnum_ccdc_archive 'CCDC 1868248'
_chemical_formula_sum 'C48 H28 Br24 Ho4 O38'
_chemical_formula_moiety
;
(C48 Br24 Ho3 O24 3-)n,H16 Ho1 O8 3+,6(H2 O1)
;
_journal_coden_Cambridge 1147
_journal_volume 19
_journal_year 2019
_journal_page_first 305
_journal_name_full 'Cryst.Growth Des. '
loop_
_publ_author_name
"J.A.Smith"
"M.A.Singh-Wilmot"
"K.P.Carter"
"C.L.Cahill"
"J.A.Ridenour"
_chemical_name_systematic
;
catena-[hexakis(\m-2,3,5,6-tetrabromobenzene-1,4-dicarboxylato)-tri-holmium(ii
i) hexakis(aqua)-holmium(iii) hexahydrate]
;
_cell_volume   6279.663
_exptl_crystal_colour 'colorless'
_exptl_crystal_density_diffrn 2.984
_exptl_crystal_description 'Block'
_diffrn_ambient_temperature 293
_refine_special_details
;
OW2B and OW2A disordered over two sites with occupancies 0.685:0.315.

;
#These two values have been output from a single CSD field.
_refine_ls_R_factor_gt 0.0311
_refine_ls_wR_factor_gt 0.0311
_symmetry_cell_setting rhombohedral
_symmetry_space_group_name_H-M 'R -3'
_symmetry_Int_Tables_number 148
loop_
_symmetry_equiv_pos_site_id
_symmetry_equiv_pos_as_xyz
1 x,y,z
2 -y,x-y,z
3 -x+y,-x,z
4 2/3+x,1/3+y,1/3+z
5 2/3-y,1/3+x-y,1/3+z
6 2/3-x+y,1/3-x,1/3+z
7 1/3+x,2/3+y,2/3+z
8 1/3-y,2/3+x-y,2/3+z
9 1/3-x+y,2/3-x,2/3+z
10 -x,-y,-z
11 y,-x+y,-z
12 x-y,x,-z
13 -2/3-x,-1/3-y,-1/3-z
14 -2/3+y,-1/3-x+y,-1/3-z
15 -2/3+x-y,-1/3+x,-1/3-z
16 -1/3-x,-2/3-y,-2/3-z
17 -1/3+y,-2/3-x+y,-2/3-z
18 -1/3+x-y,-2/3+x,-2/3-z
_cell_length_a 17.819(3)
_cell_length_b 17.819(3)
_cell_length_c 22.837(3)
_cell_angle_alpha 90
_cell_angle_beta 90
_cell_angle_gamma 120
_cell_formula_units_Z 3
loop_
_atom_type_symbol
_atom_type_radius_bond
C 0.68
Br 1.21
Ho 1.92
O 0.68
loop_
_atom_site_label
_atom_site_type_symbol
_atom_site_fract_x
_atom_site_fract_y
_atom_site_fract_z
C1 C 0.8556(4) 0.8771(3) 0.3989(3)
C2 C 0.7592(3) 0.8241(3) 0.4076(2)
C3 C 0.7126(3) 0.8662(3) 0.4180(3)
C4 C 0.6259(3) 0.8202(4) 0.4329(3)
C5 C 0.5833(3) 0.7297(4) 0.4371(2)
C6 C 0.6279(3) 0.6869(3) 0.4226(2)
C7 C 0.7161(3) 0.7338(3) 0.4092(2)
C8 C 0.4913(4) 0.6797(4) 0.4603(3)
O1 O 0.8995(2) 0.8957(2) 0.44490(18)
O2 O 0.8853(3) 0.8997(3) 0.34897(18)
O3 O 0.4313(2) 0.6586(2) 0.42326(19)
O4 O 0.4807(3) 0.6618(4) 0.5126(2)
Br1 Br 0.77211(4) 0.98803(4) 0.41367(4)
Br2 Br 0.56235(4) 0.87567(5) 0.44904(4)
Br3 Br 0.56554(4) 0.56471(4) 0.42142(3)
Br4 Br 0.77984(4) 0.67814(4) 0.39382(4)
Ho1 Ho 1.00000 1.00000 0.50000
Ho2 Ho 1.00000 1.00000 0.29596(2)
O5 O 0.6780(6) 1.1176(6) 0.3899(4)
Ho3 Ho 0.66670 1.33330 0.33330
O6 O 0.66670 1.33330 0.4334(9)
O7 O 0.6377(18) 1.4380(13) 0.3462(12)
O8? O 0.6584(10) 1.4241(11) 0.4114(8)
C1A C 1.1229(4) 0.9785(3) 0.3989(3)
C2A C 1.1759(3) 0.9351(3) 0.4076(2)
C3A C 1.1338(3) 0.8464(3) 0.4180(3)
C4A C 1.1798(3) 0.8057(4) 0.4329(3)
C5A C 1.2703(3) 0.8536(4) 0.4371(2)
C6A C 1.3131(3) 0.9410(3) 0.4226(2)
C7A C 1.2662(3) 0.9823(3) 0.4092(2)
C8A C 1.3203(4) 0.8116(4) 0.4603(3)
O1A O 1.1043(2) 1.0038(2) 0.44490(18)
O2A O 1.1003(3) 0.9856(3) 0.34897(18)
O3A O 1.3414(2) 0.7727(2) 0.42326(19)
O4A O 1.3382(3) 0.8189(4) 0.5126(2)
Br1A Br 1.01197(4) 0.78408(4) 0.41367(4)
Br2A Br 1.12433(4) 0.68668(5) 0.44904(4)
Br3A Br 1.43529(4) 1.00083(4) 0.42142(3)
Br4A Br 1.32186(4) 1.10170(4) 0.39382(4)
C1B C 1.0215(4) 1.1444(3) 0.3989(3)
C2B C 1.0649(3) 1.2408(3) 0.4076(2)
C3B C 1.1536(3) 1.2874(3) 0.4180(3)
C4B C 1.1943(3) 1.3741(4) 0.4329(3)
C5B C 1.1464(3) 1.4167(4) 0.4371(2)
C6B C 1.0590(3) 1.3721(3) 0.4226(2)
C7B C 1.0177(3) 1.2839(3) 0.4092(2)
C8B C 1.1884(4) 1.5087(4) 0.4603(3)
O1B O 0.9962(2) 1.1005(2) 0.44490(18)
O2B O 1.0144(3) 1.1147(3) 0.34897(18)
O3B O 1.2273(2) 1.5687(2) 0.42326(19)
O4B O 1.1811(3) 1.5193(4) 0.5126(2)
Br1B Br 1.21592(4) 1.22789(4) 0.41367(4)
Br2B Br 1.31332(4) 1.43765(5) 0.44904(4)
Br3B Br 0.99917(4) 1.43446(4) 0.42142(3)
Br4B Br 0.89830(4) 1.22016(4) 0.39382(4)
C1I C 1.1444(4) 1.1229(3) 0.6011(3)
C2I C 1.2408(3) 1.1759(3) 0.5924(2)
C3I C 1.2874(3) 1.1338(3) 0.5820(3)
C4I C 1.3741(3) 1.1798(4) 0.5671(3)
C5I C 1.4167(3) 1.2703(4) 0.5629(2)
C6I C 1.3721(3) 1.3131(3) 0.5774(2)
C7I C 1.2839(3) 1.2662(3) 0.5908(2)
C8I C 1.5087(4) 1.3203(4) 0.5397(3)
O1I O 1.1005(2) 1.1043(2) 0.55510(18)
O2I O 1.1147(3) 1.1003(3) 0.65103(18)
O3I O 1.5687(2) 1.3414(2) 0.57674(19)
O4I O 1.5193(3) 1.3382(4) 0.4874(2)
Br1I Br 1.22789(4) 1.01197(4) 0.58633(4)
Br2I Br 1.43765(4) 1.12433(5) 0.55096(4)
Br3I Br 1.43446(4) 1.43529(4) 0.57858(3)
Br4I Br 1.22016(4) 1.32186(4) 0.60618(4)
Ho2I Ho 1.00000 1.00000 0.70404(2)
C1J C 0.8771(4) 1.0215(3) 0.6011(3)
C2J C 0.8241(3) 1.0649(3) 0.5924(2)
C3J C 0.8662(3) 1.1536(3) 0.5820(3)
C4J C 0.8202(3) 1.1943(4) 0.5671(3)
C5J C 0.7297(3) 1.1464(4) 0.5629(2)
C6J C 0.6869(3) 1.0590(3) 0.5774(2)
C7J C 0.7338(3) 1.0177(3) 0.5908(2)
C8J C 0.6797(4) 1.1884(4) 0.5397(3)
O1J O 0.8957(2) 0.9962(2) 0.55510(18)
O2J O 0.8997(3) 1.0144(3) 0.65103(18)
O3J O 0.6586(2) 1.2273(2) 0.57674(19)
O4J O 0.6618(3) 1.1811(4) 0.4874(2)
Br1J Br 0.98803(4) 1.21592(4) 0.58633(4)
Br2J Br 0.87567(4) 1.31332(5) 0.55096(4)
Br3J Br 0.56471(4) 0.99917(4) 0.57858(3)
Br4J Br 0.67814(4) 0.89830(4) 0.60618(4)
C1K C 0.9785(4) 0.8556(3) 0.6011(3)
C2K C 0.9351(3) 0.7592(3) 0.5924(2)
C3K C 0.8464(3) 0.7126(3) 0.5820(3)
C4K C 0.8057(3) 0.6259(4) 0.5671(3)
C5K C 0.8536(3) 0.5833(4) 0.5629(2)
C6K C 0.9410(3) 0.6279(3) 0.5774(2)
C7K C 0.9823(3) 0.7161(3) 0.5908(2)
C8K C 0.8116(4) 0.4913(4) 0.5397(3)
O1K O 1.0038(2) 0.8995(2) 0.55510(18)
O2K O 0.9856(3) 0.8853(3) 0.65103(18)
O3K O 0.7727(2) 0.4313(2) 0.57674(19)
O4K O 0.8189(3) 0.4807(4) 0.4874(2)
Br1K Br 0.78408(4) 0.77211(4) 0.58633(4)
Br2K Br 0.68668(4) 0.56235(5) 0.55096(4)
Br3K Br 1.00083(4) 0.56554(4) 0.57858(3)
Br4K Br 1.10170(4) 0.77984(4) 0.60618(4)
O3C O 1.097967(200) 0.991933(200) 0.756593(190)
O3D O 1.008067(200) 1.106033(200) 0.756593(190)
O3E O 0.893967(200) 0.902033(200) 0.756593(190)
O3L O 0.902033(200) 1.008067(200) 0.243407(190)
O3M O 0.991933(200) 0.893967(200) 0.243407(190)
O3N O 1.106033(200) 1.097967(200) 0.243407(190)
Ho2C Ho 0.66667 0.33333 0.629293(20)
Ho2C* Ho 0.66667 1.33333 0.629293(20)
Ho2C** Ho 1.66667 1.33333 0.629293(20)
Ho2L Ho 0.33333 0.66667 0.370707(20)
Ho2L* Ho 1.33333 0.66667 0.370707(20)
Ho2L** Ho 1.33333 1.66667 0.370707(20)
O7A O 0.5620(18) 1.1997(13) 0.3462(12)
O7B O 0.8003(18) 1.3623(13) 0.3462(12)
O6L O 0.66663 1.33337 0.233267(900)
O7L O 0.695633(1800) 1.228667(1300) 0.320467(1200)
O7M O 0.771333(1800) 1.466967(1300) 0.320467(1200)
O7N O 0.533033(1800) 1.304367(1300) 0.320467(1200)
#END
