
#######################################################################
#
#                 Cambridge Crystallographic Data Centre
#                                CCDC
#
#######################################################################
#
# If this CIF has been generated from an entry in the Cambridge
# Structural Database, then it will include bibliographic, chemical,
# crystal, experimental, refinement or atomic coordinate data resulting
# from the CCDC's data processing and validation procedures.
#
#######################################################################

data_CSD_CIF_BIQPOJ
_audit_creation_date 2018-12-05
_audit_creation_method CSD-ConQuest-V1
_database_code_CSD BIQPOJ
_database_code_depnum_ccdc_archive 'CCDC 1868252'
_chemical_formula_sum 'C48 H28 Br24 Lu4 O38'
_chemical_formula_moiety
;
(C48 Br24 Lu3 O24 3-)n,H16 Lu1 O8 3+,6(H2 O1)
;
_journal_coden_Cambridge 1147
_journal_volume 19
_journal_year 2019
_journal_page_first 305
_journal_name_full 'Cryst.Growth Des. '
loop_
_publ_author_name
"J.A.Smith"
"M.A.Singh-Wilmot"
"K.P.Carter"
"C.L.Cahill"
"J.A.Ridenour"
_chemical_name_systematic
;
catena-[hexakis(\m-2,3,5,6-tetrabromobenzene-1,4-dicarboxylato)-tri-lutetium(i
ii) hexakis(aqua)-lutetium(iii) hexahydrate]
;
_cell_volume   6239.377
_exptl_crystal_colour 'colorless'
_exptl_crystal_density_diffrn 3.036
_exptl_crystal_description 'Block'
_diffrn_ambient_temperature 293
_refine_special_details
;
OW2B and OW2A disordered over two sites with occupancies 0.54:0.46.

;
#These two values have been output from a single CSD field.
_refine_ls_R_factor_gt 0.0256
_refine_ls_wR_factor_gt 0.0256
_symmetry_cell_setting rhombohedral
_symmetry_space_group_name_H-M 'R -3'
_symmetry_Int_Tables_number 148
loop_
_symmetry_equiv_pos_site_id
_symmetry_equiv_pos_as_xyz
1 x,y,z
2 -y,x-y,z
3 -x+y,-x,z
4 2/3+x,1/3+y,1/3+z
5 2/3-y,1/3+x-y,1/3+z
6 2/3-x+y,1/3-x,1/3+z
7 1/3+x,2/3+y,2/3+z
8 1/3-y,2/3+x-y,2/3+z
9 1/3-x+y,2/3-x,2/3+z
10 -x,-y,-z
11 y,-x+y,-z
12 x-y,x,-z
13 -2/3-x,-1/3-y,-1/3-z
14 -2/3+y,-1/3-x+y,-1/3-z
15 -2/3+x-y,-1/3+x,-1/3-z
16 -1/3-x,-2/3-y,-2/3-z
17 -1/3+y,-2/3-x+y,-2/3-z
18 -1/3+x-y,-2/3+x,-2/3-z
_cell_length_a 17.7730(11)
_cell_length_b 17.7730(11)
_cell_length_c 22.8081(14)
_cell_angle_alpha 90
_cell_angle_beta 90
_cell_angle_gamma 120
_cell_formula_units_Z 3
loop_
_atom_type_symbol
_atom_type_radius_bond
C 0.68
Br 1.21
Lu 1.87
O 0.68
loop_
_atom_site_label
_atom_site_type_symbol
_atom_site_fract_x
_atom_site_fract_y
_atom_site_fract_z
Lu1 Lu 0.66670 0.33330 1.03535(2)
O1 O 0.5678(2) 0.2211(2) 0.98302(15)
O2 O 0.6742(2) 0.2358(2) 1.08612(15)
C1 C 0.5453(3) 0.1910(3) 0.9328(2)
O3 O 0.5632(2) 0.2338(2) 0.88645(14)
C2 C 0.4915(3) 0.0933(3) 0.92549(18)
Lu2 Lu 0.66670 0.33330 0.83330
C3 C 0.4006(3) 0.0499(3) 0.92364(19)
C4 C 0.5331(3) 0.0457(3) 0.9160(2)
C5 C 0.3541(3) -0.0387(3) 0.9107(2)
Br1 Br 0.34429(3) 0.11413(3) 0.93686(3)
C6 C 0.4872(3) -0.0411(3) 0.9021(2)
Br2 Br 0.65572(3) 0.10648(5) 0.92071(3)
C7 C 0.3966(3) -0.0844(3) 0.89752(19)
Br3 Br 0.23111(3) -0.10134(3) 0.91151(3)
Br4 Br 0.54350(4) -0.10495(4) 0.88722(3)
C8 C 0.3466(3) -0.1769(3) 0.8760(2)
O4 O 0.3291(3) -0.1889(2) 0.82322(17)
O5 O 0.2268(4) 0.2200(4) 0.9412(3)
O6 O 0.00000 0.00000 0.9026(6)
O7 O 0.1091(13) 0.1048(9) 1.0508(11)
Lu3 Lu 0.00000 0.00000 1.00000
O8? O 0.1485(10) 0.0816(14) 1.0084(9)
O1A O 0.7789(2) 0.3467(2) 0.98302(15)
O1B O 0.6533(2) 0.4322(2) 0.98302(15)
O2A O 0.7642(2) 0.4384(2) 1.08612(15)
O2B O 0.5616(2) 0.3258(2) 1.08612(15)
C1A C 0.8090(3) 0.3543(3) 0.9328(2)
C1B C 0.6457(3) 0.4547(3) 0.9328(2)
O3A O 0.7662(2) 0.3294(2) 0.88645(14)
C2A C 0.9067(3) 0.3982(3) 0.92549(18)
O3B O 0.6706(2) 0.4368(2) 0.88645(14)
C2B C 0.6018(3) 0.5085(3) 0.92549(18)
C3A C 0.9501(3) 0.3507(3) 0.92364(19)
C4A C 0.9543(3) 0.4874(3) 0.9160(2)
C3B C 0.6493(3) 0.5994(3) 0.92364(19)
C4B C 0.5126(3) 0.4669(3) 0.9160(2)
O3L O 0.770133(200) 0.432867(200) 0.780217(140)
O3M O 0.567133(200) 0.337267(200) 0.780217(140)
O3N O 0.662733(200) 0.229867(200) 0.780217(140)
C5A C 1.0387(3) 0.3928(3) 0.9107(2)
Br1A Br 0.88587(3) 0.23016(3) 0.93686(3)
C6A C 1.0411(3) 0.5283(3) 0.9021(2)
Br2A Br 0.89352(3) 0.54924(5) 0.92071(3)
C5B C 0.6072(3) 0.6459(3) 0.9107(2)
Br1B Br 0.76984(3) 0.65571(3) 0.93686(3)
C6B C 0.4717(3) 0.5128(3) 0.9021(2)
Br2B Br 0.45076(3) 0.34428(5) 0.92071(3)
C1L C 0.788033(300) 0.475667(300) 0.733867(200)
C1M C 0.524333(300) 0.312367(300) 0.733867(200)
C1N C 0.687633(300) 0.211967(300) 0.733867(200)
C7A C 1.0844(3) 0.4810(3) 0.89752(19)
Br3A Br 1.10134(3) 0.33245(3) 0.91151(3)
Br4A Br 1.10495(4) 0.64845(4) 0.88722(3)
C7B C 0.5190(3) 0.6034(3) 0.89752(19)
Br3B Br 0.66755(3) 0.76889(3) 0.91151(3)
Br4B Br 0.35155(4) 0.45650(4) 0.88722(3)
O1L O 0.765533(200) 0.445567(200) 0.683647(150)
C2L C 0.841833(300) 0.573367(300) 0.741177(180)
O1M O 0.554433(200) 0.319967(200) 0.683647(150)
C2M C 0.426633(300) 0.268467(300) 0.741177(180)
O1N O 0.680033(200) 0.234467(200) 0.683647(150)
C2N C 0.731533(300) 0.158167(300) 0.741177(180)
C8A C 1.1769(3) 0.5235(3) 0.8760(2)
C8B C 0.4765(3) 0.6534(3) 0.8760(2)
Lu1L Lu 0.66663 0.33337 0.631317(20)
C3L C 0.932733(300) 0.616767(300) 0.743027(190)
C4L C 0.800233(300) 0.620967(300) 0.750667(200)
C4M C 0.379033(300) 0.179267(300) 0.750667(200)
C3M C 0.383233(300) 0.315967(300) 0.743027(190)
C4N C 0.820733(300) 0.199767(300) 0.750667(200)
C3N C 0.684033(300) 0.067267(300) 0.743027(190)
O2I O 0.3258(2) -0.2358(2) 0.91388(15)
O2J O 1.2358(2) 0.5616(2) 0.91388(15)
O4A O 1.1889(3) 0.5180(2) 0.82322(17)
O2K O 0.4384(2) 0.6742(2) 0.91388(15)
O4B O 0.4820(3) 0.6709(2) 0.82322(17)
O2L O 0.659133(200) 0.430867(200) 0.580547(150)
O2M O 0.569133(200) 0.228267(200) 0.580547(150)
O2N O 0.771733(200) 0.340867(200) 0.580547(150)
C5L C 0.979233(300) 0.705367(300) 0.755967(200)
Br1L Br 0.989043(30) 0.552537(30) 0.729807(30)
C6L C 0.846133(300) 0.707767(300) 0.764567(200)
Br2L Br 0.677613(30) 0.560187(50) 0.745957(30)
C6M C 0.292233(300) 0.138367(300) 0.764567(200)
Br2M Br 0.439813(30) 0.117427(50) 0.745957(30)
C5M C 0.294633(300) 0.273867(300) 0.755967(200)
Br1M Br 0.447463(30) 0.436507(30) 0.729807(30)
C6N C 0.861633(300) 0.153867(300) 0.764567(200)
Br2N Br 0.882573(30) 0.322387(50) 0.745957(30)
C5N C 0.726133(300) 0.020767(300) 0.755967(200)
Br1N Br 0.563493(30) 0.010957(30) 0.729807(30)
Lu1I Lu 0.33330 -0.33330 0.96465(2)
Lu1I* Lu 1.33330 0.66670 0.96465(2)
Lu1I** Lu 0.33330 0.66670 0.96465(2)
C7L C 0.936733(300) 0.751067(300) 0.769147(190)
Br3L Br 1.102223(30) 0.768007(30) 0.755157(30)
Br4L Br 0.789833(40) 0.771617(40) 0.779447(30)
C7M C 0.248933(300) 0.185667(300) 0.769147(190)
Br4M Br 0.228383(40) 0.018217(40) 0.779447(30)
Br3M Br 0.231993(30) 0.334217(30) 0.755157(30)
C7N C 0.814333(300) 0.063267(300) 0.769147(190)
Br4N Br 0.981783(40) 0.210167(40) 0.779447(30)
Br3N Br 0.665783(30) -0.102223(30) 0.755157(30)
C8L C 0.986733(300) 0.843567(300) 0.790667(200)
C8M C 0.156433(300) 0.143167(300) 0.790667(200)
C8N C 0.856833(300) 0.013267(300) 0.790667(200)
O2F O 1.007533(200) 0.902467(200) 0.752787(150)
O4L O 1.004233(300) 0.855567(200) 0.843447(170)
O2G O 0.097533(200) 0.105067(200) 0.752787(150)
O4M O 0.144433(300) 0.148667(200) 0.843447(170)
O2H O 0.894933(200) -0.007533(200) 0.752787(150)
O4N O 0.851333(300) -0.004233(200) 0.843447(170)
Lu1F Lu 1.00003 0.99997 0.702017(20)
Lu1F* Lu 0.00003 -0.00003 0.702017(20)
Lu1F** Lu 1.00003 -0.00003 0.702017(20)
O7A O -0.1048(13) 0.0043(9) 1.0508(11)
O7B O -0.0043(13) -0.1091(9) 1.0508(11)
O6I O 0.00000 0.00000 1.0974(6)
O7I O -0.1091(13) -0.1048(9) 0.9492(11)
O7J O 0.1048(13) -0.0043(9) 0.9492(11)
O7K O 0.0043(13) 0.1091(9) 0.9492(11)
#END
