
#######################################################################
#
#                 Cambridge Crystallographic Data Centre
#                                CCDC
#
#######################################################################
#
# If this CIF has been generated from an entry in the Cambridge
# Structural Database, then it will include bibliographic, chemical,
# crystal, experimental, refinement or atomic coordinate data resulting
# from the CCDC's data processing and validation procedures.
#
#######################################################################

data_CSD_CIF_BIQPID
_audit_creation_date 2018-12-05
_audit_creation_method CSD-ConQuest-V1
_database_code_CSD BIQPID
_database_code_depnum_ccdc_archive 'CCDC 1868251'
_chemical_formula_sum 'C48 H28 Br24 O38 Yb4'
_chemical_formula_moiety
;
(C48 Br24 O24 Yb3 3-)n,H16 O8 Yb1 3+,6(H2 O1)
;
_journal_coden_Cambridge 1147
_journal_volume 19
_journal_year 2019
_journal_page_first 305
_journal_name_full 'Cryst.Growth Des. '
loop_
_publ_author_name
"J.A.Smith"
"M.A.Singh-Wilmot"
"K.P.Carter"
"C.L.Cahill"
"J.A.Ridenour"
_chemical_name_systematic
;
catena-[hexakis(\m-2,3,5,6-tetrabromobenzene-1,4-dicarboxylato)-tri-ytterbium(
iii) hexakis(aqua)-ytterbium(iii) hexahydrate]
;
_cell_volume   6249.620
_exptl_crystal_colour 'colorless'
_exptl_crystal_density_diffrn 3.025
_exptl_crystal_description 'Block'
_diffrn_ambient_temperature 293
_refine_special_details
;
OW3A and OW3B disordered over two sites with occupancies 0.518:0.482.

;
#These two values have been output from a single CSD field.
_refine_ls_R_factor_gt 0.0239
_refine_ls_wR_factor_gt 0.0239
_symmetry_cell_setting rhombohedral
_symmetry_space_group_name_H-M 'R -3'
_symmetry_Int_Tables_number 148
loop_
_symmetry_equiv_pos_site_id
_symmetry_equiv_pos_as_xyz
1 x,y,z
2 -y,x-y,z
3 -x+y,-x,z
4 2/3+x,1/3+y,1/3+z
5 2/3-y,1/3+x-y,1/3+z
6 2/3-x+y,1/3-x,1/3+z
7 1/3+x,2/3+y,2/3+z
8 1/3-y,2/3+x-y,2/3+z
9 1/3-x+y,2/3-x,2/3+z
10 -x,-y,-z
11 y,-x+y,-z
12 x-y,x,-z
13 -2/3-x,-1/3-y,-1/3-z
14 -2/3+y,-1/3-x+y,-1/3-z
15 -2/3+x-y,-1/3+x,-1/3-z
16 -1/3-x,-2/3-y,-2/3-z
17 -1/3+y,-2/3-x+y,-2/3-z
18 -1/3+x-y,-2/3+x,-2/3-z
_cell_length_a 17.7831(11)
_cell_length_b 17.7831(11)
_cell_length_c 22.8196(15)
_cell_angle_alpha 90
_cell_angle_beta 90
_cell_angle_gamma 120
_cell_formula_units_Z 3
loop_
_atom_type_symbol
_atom_type_radius_bond
C 0.68
Br 1.21
O 0.68
Yb 1.87
loop_
_atom_site_label
_atom_site_type_symbol
_atom_site_fract_x
_atom_site_fract_y
_atom_site_fract_z
Yb1 Yb 0.66667 0.33333 0.33333
O1 O 0.6704(2) 0.4366(2) 0.38696(15)
C1 C 0.6456(3) 0.4555(3) 0.4334(2)
O2 O 0.6532(2) 0.4326(2) 0.48332(15)
C2 C 0.6016(3) 0.5087(3) 0.42532(19)
Yb2 Yb 0.66667 0.33333 0.53575(2)
C3 C 0.6487(3) 0.5987(3) 0.42352(19)
C4 C 0.5123(3) 0.4667(3) 0.4157(2)
O3 O 0.5619(2) 0.3261(2) 0.58733(15)
Br1 Br 0.76951(3) 0.65563(3) 0.43728(3)
C5 C 0.6073(3) 0.6463(3) 0.41066(19)
Br2 Br 0.45071(4) 0.34441(3) 0.42049(3)
C6 C 0.4721(3) 0.5134(3) 0.4012(2)
Br3 Br 0.66750(4) 0.76879(3) 0.41151(3)
C7 C 0.5195(3) 0.6034(3) 0.39738(18)
Br4 Br 0.35183(4) 0.45669(4) 0.38677(3)
C8 C 0.4765(3) 0.6535(3) 0.3752(2)
O4 O 0.4822(3) 0.6710(3) 0.32311(17)
Yb3 Yb 0.33333 0.66667 0.16667
O5 O 0.33333 0.66667 0.0699(5)
O6 O 0.3396(10) 0.7760(9) 0.1132(9)
O7 O 0.5522(5) 0.6579(5) 0.2251(3)
O8? O 0.3985(15) 0.8151(11) 0.1601(9)
O1A O 0.5634(2) 0.2338(2) 0.38696(15)
O1B O 0.7662(2) 0.3296(2) 0.38696(15)
O1L O 0.662933(200) 0.230067(200) 0.279707(150)
O1M O 0.769933(200) 0.432867(200) 0.279707(150)
O1N O 0.567133(200) 0.337067(200) 0.279707(150)
C1A C 0.5445(3) 0.1901(3) 0.4334(2)
C1B C 0.8099(3) 0.3544(3) 0.4334(2)
C1L C 0.687733(300) 0.211167(300) 0.233267(200)
C1M C 0.788833(300) 0.476567(300) 0.233267(200)
C1N C 0.523433(300) 0.312267(300) 0.233267(200)
O2A O 0.5674(2) 0.2206(2) 0.48332(15)
C2A C 0.4913(3) 0.0929(3) 0.42532(19)
O2B O 0.7794(2) 0.3468(2) 0.48332(15)
C2B C 0.9071(3) 0.3984(3) 0.42532(19)
O2L O 0.680133(200) 0.234067(200) 0.183347(150)
C2L C 0.731733(300) 0.157967(300) 0.241347(190)
O2M O 0.765933(200) 0.446067(200) 0.183347(150)
C2M C 0.842033(300) 0.573767(300) 0.241347(190)
O2N O 0.553933(200) 0.319867(200) 0.183347(150)
C2N C 0.426233(300) 0.268267(300) 0.241347(190)
C3A C 0.4013(3) 0.0500(3) 0.42352(19)
C4A C 0.5333(3) 0.0456(3) 0.4157(2)
C3B C 0.9500(3) 0.3513(3) 0.42352(19)
C4B C 0.9544(3) 0.4877(3) 0.4157(2)
Yb2L Yb 0.66667 0.33333 0.130917(20)
C4L C 0.821033(300) 0.199967(300) 0.250967(200)
C3L C 0.684633(300) 0.067967(300) 0.243147(190)
C4M C 0.800033(300) 0.621067(300) 0.250967(200)
C3M C 0.932033(300) 0.616667(300) 0.243147(190)
C3N C 0.383333(300) 0.315367(300) 0.243147(190)
C4N C 0.378933(300) 0.178967(300) 0.250967(200)
O3A O 0.6739(2) 0.2358(2) 0.58733(15)
O3B O 0.7642(2) 0.4381(2) 0.58733(15)
Br1A Br 0.34437(3) 0.11388(3) 0.43728(3)
C5A C 0.3537(3) -0.0390(3) 0.41066(19)
Br2A Br 0.65559(4) 0.10630(3) 0.42049(3)
C6A C 0.4866(3) -0.0413(3) 0.4012(2)
C5B C 1.0390(3) 0.3927(3) 0.41066(19)
Br1B Br 0.88612(3) 0.23049(3) 0.43728(3)
C6B C 1.0413(3) 0.5279(3) 0.4012(2)
Br2B Br 0.89370(4) 0.54929(3) 0.42049(3)
O3L O 0.771433(200) 0.340567(200) 0.079337(150)
O3M O 0.659433(200) 0.430867(200) 0.079337(150)
O3N O 0.569133(200) 0.228567(200) 0.079337(150)
Br2L Br 0.882623(40) 0.322257(30) 0.246177(30)
C6L C 0.861233(300) 0.153267(300) 0.265467(200)
Br1L Br 0.563823(30) 0.011037(30) 0.229387(30)
C5L C 0.726033(300) 0.020367(300) 0.256007(190)
Br2M Br 0.677743(40) 0.560367(30) 0.246177(30)
C6M C 0.846733(300) 0.707967(300) 0.265467(200)
Br1M Br 0.988963(30) 0.552787(30) 0.229387(30)
C5M C 0.979633(300) 0.705667(300) 0.256007(190)
C5N C 0.294333(300) 0.273967(300) 0.256007(190)
Br1N Br 0.447213(30) 0.436177(30) 0.229387(30)
C6N C 0.292033(300) 0.138767(300) 0.265467(200)
Br2N Br 0.439633(40) 0.117377(30) 0.246177(30)
Br3A Br 0.23121(4) -0.10129(3) 0.41151(3)
C7A C 0.3966(3) -0.0839(3) 0.39738(18)
Br4A Br 0.54331(4) -0.10486(4) 0.38677(3)
C7B C 1.0839(3) 0.4805(3) 0.39738(18)
Br3B Br 1.10129(4) 0.33250(3) 0.41151(3)
Br4B Br 1.10486(4) 0.64817(4) 0.38677(3)
Br4L Br 0.981503(40) 0.209977(40) 0.279897(30)
C7L C 0.813833(300) 0.063267(300) 0.269287(180)
Br3L Br 0.665833(40) -0.102123(30) 0.255157(30)
Br4M Br 0.790023(40) 0.771527(40) 0.279897(30)
C7M C 0.936733(300) 0.750567(300) 0.269287(180)
Br3M Br 1.102123(40) 0.767957(30) 0.255157(30)
Br3N Br 0.232043(40) 0.334167(30) 0.255157(30)
C7N C 0.249433(300) 0.186167(300) 0.269287(180)
Br4N Br 0.228473(40) 0.018497(40) 0.279897(30)
C8A C 0.3465(3) -0.1770(3) 0.3752(2)
C8B C 1.1770(3) 0.5235(3) 0.3752(2)
C8L C 0.856833(300) 0.013167(300) 0.291467(200)
C8M C 0.986833(300) 0.843667(300) 0.291467(200)
C8N C 0.156333(300) 0.143167(300) 0.291467(200)
O3I O 0.4381(2) 0.6739(2) 0.41267(15)
O3J O 0.3261(2) -0.2358(2) 0.41267(15)
O4A O 0.3290(3) -0.1888(3) 0.32311(17)
O3K O 1.2358(2) 0.5619(2) 0.41267(15)
O4B O 1.1888(3) 0.5178(3) 0.32311(17)
O3F O 0.895233(200) -0.007233(200) 0.253997(150)
O4L O 0.851133(300) -0.004333(300) 0.343557(170)
O3G O 1.007233(200) 0.902467(200) 0.253997(150)
O4M O 1.004333(300) 0.855467(300) 0.343557(170)
O3H O 0.097533(200) 0.104767(200) 0.253997(150)
O4N O 0.144533(300) 0.148867(300) 0.343557(170)
Yb2I Yb 0.33333 0.66667 0.46425(2)
Yb2I* Yb 0.33333 -0.33333 0.46425(2)
Yb2I** Yb 1.33333 0.66667 0.46425(2)
Yb2F Yb 1.00000 -0.00000 0.202417(20)
Yb2F* Yb 1.00000 1.00000 0.202417(20)
Yb2F** Yb 0.00000 -0.00000 0.202417(20)
O6A O 0.224(1) 0.5636(9) 0.1132(9)
O6B O 0.4364(10) 0.6604(9) 0.1132(9)
O5O O 0.33333 0.66667 0.263433(500)
O6O O 0.327067(1000) 0.557333(900) 0.220133(900)
O6P O 0.442667(1000) 0.769733(900) 0.220133(900)
O6Q O 0.230267(1000) 0.672933(900) 0.220133(900)
#END
