
#######################################################################
#
#                 Cambridge Crystallographic Data Centre
#                                CCDC
#
#######################################################################
#
# If this CIF has been generated from an entry in the Cambridge
# Structural Database, then it will include bibliographic, chemical,
# crystal, experimental, refinement or atomic coordinate data resulting
# from the CCDC's data processing and validation procedures.
#
#######################################################################

data_CSD_CIF_BIQPAV
_audit_creation_date 2018-12-05
_audit_creation_method CSD-ConQuest-V1
_database_code_CSD BIQPAV
_database_code_depnum_ccdc_archive 'CCDC 1868249'
_chemical_formula_sum 'C48 H28 Br24 Er4 O38'
_chemical_formula_moiety
;
(C48 Br24 Er3 O24 3-)n,H16 Er1 O8 3+,6(H2 O1)
;
_journal_coden_Cambridge 1147
_journal_volume 19
_journal_year 2019
_journal_page_first 305
_journal_name_full 'Cryst.Growth Des. '
loop_
_publ_author_name
"J.A.Smith"
"M.A.Singh-Wilmot"
"K.P.Carter"
"C.L.Cahill"
"J.A.Ridenour"
_chemical_name_systematic
;
catena-[hexakis(\m-2,3,5,6-tetrabromobenzene-1,4-dicarboxylato)-tri-erbium(iii
) hexakis(aqua)-erbium(iii) hexahydrate]
;
_cell_volume   6280.303
_exptl_crystal_colour 'colorless'
_exptl_crystal_density_diffrn 2.992
_exptl_crystal_description 'Block'
_diffrn_ambient_temperature 293
_refine_special_details
;
OW2B and OW2A disordered over two sites with occupancies 0.65:0.35.

;
#These two values have been output from a single CSD field.
_refine_ls_R_factor_gt 0.0409
_refine_ls_wR_factor_gt 0.0409
_symmetry_cell_setting rhombohedral
_symmetry_space_group_name_H-M 'R -3'
_symmetry_Int_Tables_number 148
loop_
_symmetry_equiv_pos_site_id
_symmetry_equiv_pos_as_xyz
1 x,y,z
2 -y,x-y,z
3 -x+y,-x,z
4 2/3+x,1/3+y,1/3+z
5 2/3-y,1/3+x-y,1/3+z
6 2/3-x+y,1/3-x,1/3+z
7 1/3+x,2/3+y,2/3+z
8 1/3-y,2/3+x-y,2/3+z
9 1/3-x+y,2/3-x,2/3+z
10 -x,-y,-z
11 y,-x+y,-z
12 x-y,x,-z
13 -2/3-x,-1/3-y,-1/3-z
14 -2/3+y,-1/3-x+y,-1/3-z
15 -2/3+x-y,-1/3+x,-1/3-z
16 -1/3-x,-2/3-y,-2/3-z
17 -1/3+y,-2/3-x+y,-2/3-z
18 -1/3+x-y,-2/3+x,-2/3-z
_cell_length_a 17.8125(19)
_cell_length_b 17.8125(19)
_cell_length_c 22.856(2)
_cell_angle_alpha 90
_cell_angle_beta 90
_cell_angle_gamma 120
_cell_formula_units_Z 3
loop_
_atom_type_symbol
_atom_type_radius_bond
C 0.68
Br 1.21
Er 1.89
O 0.68
loop_
_atom_site_label
_atom_site_type_symbol
_atom_site_fract_x
_atom_site_fract_y
_atom_site_fract_z
Er1 Er 0.33330 0.66670 0.66670
O1 O 0.4383(4) 0.6708(4) 0.6124(3)
C1 C 0.4555(5) 0.6458(5) 0.5667(4)
C2 C 0.5097(5) 0.6024(5) 0.5743(3)
O2 O 0.4332(4) 0.6530(5) 0.5161(3)
C3 C 0.4674(5) 0.5136(5) 0.5849(4)
C4 C 0.5996(5) 0.6493(5) 0.5766(4)
Er2 Er 0.33330 0.66670 0.46332(3)
C5 C 0.5135(6) 0.4719(5) 0.5996(4)
Br1 Br 0.34513(6) 0.45102(7) 0.58003(6)
C6 C 0.6459(5) 0.6067(5) 0.5897(4)
Br2 Br 0.65547(6) 0.76892(6) 0.56174(6)
O3 O 0.3254(4) 0.5608(4) 0.4114(3)
C7 C 0.6040(5) 0.5198(5) 0.6033(4)
Br3 Br 0.45740(7) 0.35276(6) 0.61472(6)
Br4 Br 0.76881(6) 0.66763(6) 0.58840(5)
C8 C 0.6536(6) 0.4773(6) 0.6250(5)
O4 O 0.6713(7) 0.4840(7) 0.6783(3)
O5 O 1.0102(12) 0.7832(10) 0.5571(6)
Er3 Er 1.00000 1.00000 0.50000
O6 O 1.00000 1.00000 0.5990(19)
O7 O 0.904(2) 0.862(2) 0.5142(15)
O8? O 0.9116(18) 0.9009(19) 0.5764(14)
O1A O 0.3292(4) 0.7675(4) 0.6124(3)
O1B O 0.2325(4) 0.5617(4) 0.6124(3)
O1O O 0.228367(400) 0.662533(400) 0.720933(300)
O1P O 0.337467(400) 0.565833(400) 0.720933(300)
O1Q O 0.434167(400) 0.771633(400) 0.720933(300)
C1A C 0.3542(5) 0.8097(5) 0.5667(4)
C1B C 0.1903(5) 0.5445(5) 0.5667(4)
C1O C 0.211167(500) 0.687533(500) 0.766633(400)
C1P C 0.312467(500) 0.523633(500) 0.766633(400)
C1Q C 0.476367(500) 0.788833(500) 0.766633(400)
C2A C 0.3976(5) 0.9073(5) 0.5743(3)
O2A O 0.3470(4) 0.7802(5) 0.5161(3)
C2B C 0.0927(5) 0.4903(5) 0.5743(3)
O2B O 0.2198(4) 0.5668(5) 0.5161(3)
C2O C 0.156967(500) 0.730933(500) 0.759033(300)
O2O O 0.233467(400) 0.680333(500) 0.817233(300)
O2P O 0.319667(400) 0.553133(500) 0.817233(300)
C2P C 0.269067(500) 0.426033(500) 0.759033(300)
O2Q O 0.446867(400) 0.766533(500) 0.817233(300)
C2Q C 0.573967(500) 0.843033(500) 0.759033(300)
C3A C 0.4864(5) 0.9538(5) 0.5849(4)
C4A C 0.3507(5) 0.9503(5) 0.5766(4)
C3B C 0.0462(5) 0.5326(5) 0.5849(4)
C4B C 0.0497(5) 0.4004(5) 0.5766(4)
C3O C 0.199267(500) 0.819733(500) 0.748433(400)
C4O C 0.067067(500) 0.684033(500) 0.756733(400)
Er2O Er 0.33337 0.66663 0.870013(30)
C4P C 0.315967(500) 0.383033(500) 0.756733(400)
C3P C 0.180267(500) 0.379533(500) 0.748433(400)
C3Q C 0.620467(500) 0.800733(500) 0.748433(400)
C4Q C 0.616967(500) 0.932933(500) 0.756733(400)
O3B O 0.2354(4) 0.6746(4) 0.4114(3)
O3A O 0.4392(4) 0.7646(4) 0.4114(3)
C5A C 0.5281(6) 1.0416(5) 0.5996(4)
Br1A Br 0.54898(6) 0.89411(7) 0.58003(6)
C6A C 0.3933(5) 1.0392(5) 0.5897(4)
Br2A Br 0.23108(6) 0.88655(6) 0.56174(6)
C5B C -0.0416(6) 0.4865(5) 0.5996(4)
Br1B Br 0.10589(6) 0.65487(7) 0.58003(6)
C6B C -0.0392(5) 0.3541(5) 0.5897(4)
Br2B Br 0.11345(6) 0.34453(6) 0.56174(6)
Br1O Br 0.321537(60) 0.882313(70) 0.753303(60)
C5O C 0.153167(600) 0.861433(500) 0.733733(400)
Br2O Br 0.011197(60) 0.564413(60) 0.771593(60)
C6O C 0.020767(500) 0.726633(500) 0.743633(400)
O3O O 0.341267(400) 0.772533(400) 0.921933(300)
O3Q O 0.431267(400) 0.658733(400) 0.921933(300)
O3P O 0.227467(400) 0.568733(400) 0.921933(300)
Br2P Br 0.435587(60) 0.446783(60) 0.771593(60)
C6P C 0.273367(500) 0.294133(500) 0.743633(400)
C5P C 0.138567(600) 0.291733(500) 0.733733(400)
Br1P Br 0.117687(60) 0.439223(70) 0.753303(60)
Br1Q Br 0.560777(60) 0.678463(70) 0.753303(60)
C5Q C 0.708267(600) 0.846833(500) 0.733733(400)
Br2Q Br 0.553217(60) 0.988803(60) 0.771593(60)
C6Q C 0.705867(500) 0.979233(500) 0.743633(400)
C7A C 0.4802(5) 1.0842(5) 0.6033(4)
Br3A Br 0.64724(7) 1.10464(6) 0.61472(6)
Br4A Br 0.33237(6) 1.10118(6) 0.58840(5)
C7B C -0.0842(5) 0.3960(5) 0.6033(4)
Br3B Br -0.10464(7) 0.54260(6) 0.61472(6)
Br4B Br -0.10118(6) 0.23119(6) 0.58840(5)
C7O C 0.062667(500) 0.813533(500) 0.730033(400)
Br3O Br 0.209267(70) 0.980573(60) 0.718613(60)
Br4O Br -0.102143(60) 0.665703(60) 0.744933(50)
Br4P Br 0.334297(60) 0.232153(60) 0.744933(50)
C7P C 0.186467(500) 0.249133(500) 0.730033(400)
Br3P Br 0.019427(70) 0.228693(60) 0.718613(60)
C7Q C 0.750867(500) 0.937333(500) 0.730033(400)
Br3Q Br 0.771307(70) 0.790733(60) 0.718613(60)
Br4Q Br 0.767847(60) 1.102143(60) 0.744933(50)
C8A C 0.5227(6) 1.1763(6) 0.6250(5)
C8B C -0.1763(6) 0.3464(6) 0.6250(5)
C8O C 0.013067(600) 0.856033(600) 0.708333(500)
C8P C 0.143967(600) 0.157033(600) 0.708333(500)
C8Q C 0.842967(600) 0.986933(600) 0.708333(500)
O3I O 0.6746(4) 0.4392(4) 0.5886(3)
O3J O 0.5608(4) 1.2354(4) 0.5886(3)
O4A O 0.5160(7) 1.1873(7) 0.6783(3)
O3K O -0.2354(4) 0.3254(4) 0.5886(3)
O4B O -0.1873(7) 0.3287(7) 0.6783(3)
O3C O -0.007933(400) 0.894133(400) 0.744733(300)
O4O O -0.004633(700) 0.849333(700) 0.655033(300)
O4P O 0.150667(700) 0.146033(700) 0.655033(300)
O3D O 0.105867(400) 0.097933(400) 0.744733(300)
O3E O 0.902067(400) 1.007933(400) 0.744733(300)
O4Q O 0.853967(700) 1.004633(700) 0.655033(300)
Er2I Er 0.66670 0.33330 0.53668(3)
Er2I* Er 0.66670 1.33330 0.53668(3)
Er2I** Er -0.33330 0.33330 0.53668(3)
Er2C Er -0.00003 1.00003 0.796653(30)
Er2C* Er -0.00003 0.00003 0.796653(30)
Er2C** Er 0.99997 1.00003 0.796653(30)
O7A O 1.138(2) 1.042(2) 0.5142(15)
O7B O 0.958(2) 1.096(2) 0.5142(15)
O6I O 1.00000 1.00000 0.4010(19)
O7I O 1.096(2) 1.138(2) 0.4858(15)
O7J O 0.862(2) 0.958(2) 0.4858(15)
O7K O 1.042(2) 0.904(2) 0.4858(15)
#END
