
#######################################################################
#
#                 Cambridge Crystallographic Data Centre
#                                CCDC
#
#######################################################################
#
# If this CIF has been generated from an entry in the Cambridge
# Structural Database, then it will include bibliographic, chemical,
# crystal, experimental, refinement or atomic coordinate data resulting
# from the CCDC's data processing and validation procedures.
#
#######################################################################

data_CSD_CIF_BIQRIE
_audit_creation_date 2013-11-27
_audit_creation_method CSD-ConQuest-V1
_database_code_CSD BIQRIE
_database_code_depnum_ccdc_archive 'CCDC 940753'
_chemical_formula_sum 'C5 H12 Ga2 N1 O13 P3'
_chemical_formula_moiety
;
(C2 H4 Ga2 O13 P3 1-)n,0.5n(C6 H16 N2 2+)
;
_journal_coden_Cambridge 208
_journal_volume 208
_journal_year 2013
_journal_page_first 86
_journal_name_full 'J.Solid State Chem. '
loop_
_publ_author_name
"Caixia Li"
"Liangliang Huang"
"Mingdong Zhou"
"Jing Xia"
"Hongwei Ma"
"Shuliang Zang"
"Li Wang"
_chemical_name_systematic
;
catena-[hemikis(1,4-dimethylpiperazinediium) 
bis(\m~3~-phosphito)-(\m~2~-hydrogen phosphito)-(\m~2~-oxalato)-di-gallium]
;
_cell_volume   2964.923
_exptl_crystal_colour 'colorless'
_exptl_crystal_density_diffrn 2.354
_exptl_crystal_description 'block'
_diffrn_ambient_temperature 296
#These two values have been output from a single CSD field.
_refine_ls_R_factor_gt 0.0208
_refine_ls_wR_factor_gt 0.0208
_symmetry_cell_setting monoclinic
_symmetry_space_group_name_H-M 'C 2/c'
_symmetry_Int_Tables_number 15
loop_
_symmetry_equiv_pos_site_id
_symmetry_equiv_pos_as_xyz
1 x,y,z
2 -x,y,1/2-z
3 1/2+x,1/2+y,z
4 1/2-x,1/2+y,1/2-z
5 -x,-y,-z
6 x,-y,-1/2+z
7 -1/2-x,-1/2-y,-z
8 -1/2+x,-1/2-y,-1/2+z
_cell_length_a 23.4617(17)
_cell_length_b 8.1170(6)
_cell_length_c 16.8976(12)
_cell_angle_alpha 90
_cell_angle_beta 112.873(1)
_cell_angle_gamma 90
_cell_formula_units_Z 8
loop_
_atom_type_symbol
_atom_type_radius_bond
C 0.68
H 0.23
Ga 1.22
N 0.68
O 0.68
P 1.05
loop_
_atom_site_label
_atom_site_type_symbol
_atom_site_fract_x
_atom_site_fract_y
_atom_site_fract_z
C1 C 0.15688(11) 1.4146(3) 0.59499(15)
C2 C 0.12966(10) 1.3338(3) 0.65494(15)
Ga1 Ga 0.161191(11) 0.65777(3) 0.711483(16)
Ga2 Ga 0.103426(11) 1.11589(3) 0.515236(15)
H1 H 0.0362(19) 0.943(5) 0.638(3)
H2 H 0.264(2) 0.852(5) 0.646(3)
H3 H 0.207(2) 1.160(5) 0.429(3)
H4 H 0.1653(18) 0.993(5) 0.289(2)
O1 O 0.13498(8) 1.2757(2) 0.30273(11)
O2 O 0.10490(8) 1.0977(2) 0.40196(10)
O3 O 0.25834(8) 1.1053(2) 0.70480(12)
O4 O 0.18264(7) 1.0090(2) 0.5616(1)
O5 O -0.02749(7) 0.7616(2) 0.53099(11)
O6 O 0.07846(8) 0.6854(2) 0.62644(12)
O7 O 0.10801(8) 1.1928(2) 0.63627(10)
O8 O 0.18869(8) 0.8735(2) 0.69915(11)
O9 O 0.06183(8) 0.9147(2) 0.51774(11)
O10 O 0.15153(8) 1.3340(2) 0.52977(10)
O11 O 0.18142(8) 1.5527(2) 0.61679(11)
O12 O 0.13175(8) 1.4183(2) 0.7186(1)
O13 O 0.16113(14) 0.9727(3) 0.32202(17)
P1 P 0.03783(3) 0.82632(8) 0.57785(4)
P2 P 0.22415(3) 0.95907(7) 0.65173(4)
P3 P 0.15274(3) 1.13455(8) 0.36571(4)
C3 C 0.02096(16) 0.5075(4) 0.7965(3)
C4 C 0.10677(18) 0.3569(5) 0.9090(2)
H5 H 0.13470 0.44820 0.91860
H6 H 0.12980 0.25570 0.92020
H7 H 0.08510 0.36550 0.94680
C5 C 0.02098(17) 0.2097(4) 0.7966(2)
H8 H 0.084(2) 0.364(5) 0.789(3)
H9 H 0.001(2) 0.495(6) 0.838(3)
H10 H -0.002(2) 0.219(6) 0.837(3)
H11 H 0.046(2) 0.599(6) 0.802(3)
H12 H 0.046(2) 0.120(6) 0.804(3)
N1 N 0.06122(12) 0.3588(3) 0.81789(17)
Ga1* Ga 0.161191(11) 1.65777(3) 0.711483(16)
Ga1C Ga 0.338809(11) 1.15777(3) 0.788517(16)
Ga1E Ga 0.161191(11) 1.34223(3) 0.211483(16)
Ga2D Ga -0.103426(11) 0.88411(3) 0.484764(15)
O1E O 0.13498(8) 0.7243(2) 0.80273(11)
O3C O 0.24166(8) 0.6053(2) 0.79520(12)
O5D O 0.02749(7) 1.2384(2) 0.46901(11)
O11* O 0.18142(8) 0.5527(2) 0.61679(11)
O12* O 0.13175(8) 0.4183(2) 0.7186(1)
C3A C -0.02096(16) 0.5075(4) 0.7035(3)
C4A C -0.10677(18) 0.3569(5) 0.5910(2)
H5A H -0.13470 0.44820 0.58140
H6A H -0.12980 0.25570 0.57980
H7A H -0.08510 0.36550 0.55320
C5A C -0.02098(17) 0.2097(4) 0.7034(2)
H8A H -0.084(2) 0.364(5) 0.711(3)
H9A H -0.001(2) 0.495(6) 0.662(3)
H10A H 0.002(2) 0.219(6) 0.663(3)
H11A H -0.046(2) 0.599(6) 0.698(3)
H12A H -0.046(2) 0.120(6) 0.696(3)
N1A N -0.06122(12) 0.3588(3) 0.68211(17)
#END
