
#######################################################################
#
#                 Cambridge Crystallographic Data Centre
#                                CCDC
#
#######################################################################
#
# If this CIF has been generated from an entry in the Cambridge
# Structural Database, then it will include bibliographic, chemical,
# crystal, experimental, refinement or atomic coordinate data resulting
# from the CCDC's data processing and validation procedures.
#
#######################################################################

data_CSD_CIF_BIQREA
_audit_creation_date 2013-11-27
_audit_creation_method CSD-ConQuest-V1
_database_code_CSD BIQREA
_database_code_depnum_ccdc_archive 'CCDC 940752'
_chemical_formula_sum 'C16 H44 Ga4 N4 O32 P8'
_chemical_formula_moiety
;
(C4 H12 Ga4 O32 P8 4-)n,2n(C6 H16 N2 2+)
;
_journal_coden_Cambridge 208
_journal_volume 208
_journal_year 2013
_journal_page_first 86
_journal_name_full 'J.Solid State Chem. '
loop_
_publ_author_name
"Caixia Li"
"Liangliang Huang"
"Mingdong Zhou"
"Jing Xia"
"Hongwei Ma"
"Shuliang Zang"
"Li Wang"
_chemical_name_systematic
;
catena-[bis(1,4-dimethylpiperazinediium) 
tetrakis(\m~2~-phosphito)-tetrakis(\m~2~-hydrogen 
phosphito)-bis(\m~2~-oxalato)-tetra-gallium]
;
_cell_volume   2056.957
_exptl_crystal_colour 'colorless'
_exptl_crystal_density_diffrn 2.149
_exptl_crystal_description 'block'
_diffrn_ambient_temperature 273
#These two values have been output from a single CSD field.
_refine_ls_R_factor_gt 0.033
_refine_ls_wR_factor_gt 0.033
_symmetry_cell_setting monoclinic
_symmetry_space_group_name_H-M 'P 21/c'
_symmetry_Int_Tables_number 14
loop_
_symmetry_equiv_pos_site_id
_symmetry_equiv_pos_as_xyz
1 x,y,z
2 -x,1/2+y,1/2-z
3 -x,-y,-z
4 x,-1/2-y,-1/2+z
_cell_length_a 10.183(3)
_cell_length_b 12.525(4)
_cell_length_c 16.295(5)
_cell_angle_alpha 90
_cell_angle_beta 98.218(4)
_cell_angle_gamma 90
_cell_formula_units_Z 2
loop_
_atom_type_symbol
_atom_type_radius_bond
C 0.68
H 0.23
Ga 1.22
N 0.68
O 0.68
P 1.05
loop_
_atom_site_label
_atom_site_type_symbol
_atom_site_fract_x
_atom_site_fract_y
_atom_site_fract_z
C1 C 0.9431(4) 0.1488(3) 0.7403(2)
C2 C 0.9468(4) 0.3437(3) 0.7453(3)
C3 C 0.7939(4) 0.1507(3) 0.7282(2)
C4 C 1.1472(4) 0.2429(4) 0.8006(3)
C5 C 0.5920(4) 0.2522(4) 0.6718(3)
C6 C 0.7973(4) 0.3454(3) 0.7338(2)
H1 H 0.759(5) 0.145(4) 0.783(3)
H2 H 0.756(5) 0.092(4) 0.695(3)
H3 H 0.975(5) 0.078(5) 0.774(3)
H4 H 0.974(5) 0.144(4) 0.683(3)
H5 H 0.980(5) 0.405(5) 0.780(3)
H6 H 0.988(5) 0.346(4) 0.692(3)
H7 H 0.765(5) 0.400(4) 0.707(3)
H8 H 0.972(5) 0.239(4) 0.846(3)
H9 H 0.757(6) 0.250(4) 0.638(4)
H10 H 0.571(6) 0.246(4) 0.724(4)
H11 H 0.561(5) 0.190(5) 0.648(3)
H12 H 0.564(5) 0.321(5) 0.645(3)
H13 H 0.759(5) 0.349(4) 0.791(3)
N1 N 0.9992(3) 0.2439(2) 0.78841(19)
N2 N 0.7409(3) 0.2499(2) 0.68604(18)
H14 H 1.179(6) 0.250(4) 0.745(4)
H15 H 1.185(5) 0.180(4) 0.823(3)
H16 H 1.178(6) 0.297(4) 0.816(4)
C7 C 0.9927(3) 0.4886(2) -0.04670(19)
C8 C 1.0159(3) -0.0017(2) 0.04773(19)
Ga1 Ga 0.74034(3) -0.01226(3) 0.00983(2)
Ga2 Ga 0.73333(3) 0.48948(3) -0.00732(2)
H17 H 0.699(5) 0.780(4) -0.133(3)
H18 H 0.568(4) 0.666(4) 0.103(3)
H19 H 0.702(5) 0.247(4) -0.094(3)
H20 H 0.504(4) -0.159(4) 0.078(3)
O1 O 1.1355(2) 0.00661(17) 0.07801(14)
O2 O 0.8771(2) 0.48049(17) -0.08407(14)
O3 O 0.6231(2) 0.49305(17) 0.07749(15)
O4 O 0.6550(2) -0.01767(17) 0.10623(14)
O5 O 0.9190(2) -0.01303(17) 0.08681(14)
O6 O 1.0983(2) 0.47924(18) -0.07739(14)
O7 O 0.9200(2) 0.23286(17) -0.05818(14)
O8 O 0.7509(2) 0.14374(18) 0.02032(14)
O9 O 0.4109(2) 0.01487(19) 0.07197(15)
O10 O 0.7471(2) 0.83113(19) 0.00789(14)
O11 O 0.7683(2) 0.33812(18) 0.02223(13)
O12 O 0.3925(2) 0.54837(19) 0.09990(14)
O13 O 0.9092(2) 0.73380(19) -0.06884(16)
O14 O 0.7080(2) 0.64035(19) -0.02804(16)
O15 O 0.5817(2) 0.5670(2) 0.21404(15)
H21 H 0.51690 0.55530 0.23730
O16 O 0.5018(3) -0.0761(2) 0.20452(16)
P1 P 0.78390(8) 0.23974(6) -0.03026(5)
P2 P 0.76216(8) 0.74426(6) -0.05327(5)
P3 P 0.51746(8) -0.05882(7) 0.11472(5)
P4 P 0.53923(8) 0.56872(7) 0.12043(5)
H22 H 0.985(5) 0.750(3) -0.011(3)
C7B C 1.0073(3) 0.5114(2) 0.04670(19)
O2B O 1.1229(2) 0.51951(17) 0.08407(14)
O6B O 0.9017(2) 0.52076(18) 0.07739(14)
C8B C 0.9841(3) 0.0017(2) -0.04773(19)
O5B O 1.0810(2) 0.01303(17) -0.08681(14)
O1B O 0.8645(2) -0.00661(17) -0.07801(14)
Ga1B Ga 0.25966(3) 0.01226(3) -0.00983(2)
Ga2B Ga 0.26667(3) -0.48948(3) 0.00732(2)
H17B H 0.301(5) -0.780(4) 0.133(3)
H18B H 0.432(4) -0.666(4) -0.103(3)
H19B H 0.298(5) -0.247(4) 0.094(3)
H20B H 0.496(4) 0.159(4) -0.078(3)
O3B O 0.3769(2) -0.49305(17) -0.07749(15)
O4B O 0.3450(2) 0.01767(17) -0.10623(14)
O7B O 0.0800(2) -0.23286(17) 0.05818(14)
O8B O 0.2491(2) -0.14374(18) -0.02032(14)
O9B O 0.5891(2) -0.01487(19) -0.07197(15)
O10B O 0.2529(2) -0.83113(19) -0.00789(14)
O11B O 0.2317(2) -0.33812(18) -0.02223(13)
O12B O 0.6075(2) -0.54837(19) -0.09990(14)
O13B O 0.0908(2) -0.73380(19) 0.06884(16)
O14B O 0.2920(2) -0.64035(19) 0.02804(16)
O15B O 0.4183(2) -0.5670(2) -0.21404(15)
H21B H 0.48310 -0.55530 -0.23730
O16B O 0.4982(3) 0.0761(2) -0.20452(16)
P1B P 0.21610(8) -0.23974(6) 0.03026(5)
P2B P 0.23784(8) -0.74426(6) 0.05327(5)
P3B P 0.48254(8) 0.05882(7) -0.11472(5)
P4B P 0.46077(8) -0.56872(7) -0.12043(5)
H22B H 0.015(5) -0.750(3) 0.011(3)
Ga1* Ga 0.74034(3) 0.98774(3) 0.00983(2)
Ga1B* Ga 0.25966(3) -0.98774(3) -0.00983(2)
Ga1B** Ga 1.25966(3) 0.01226(3) -0.00983(2)
Ga2* Ga 0.73333(3) -0.51052(3) -0.00732(2)
Ga2B* Ga 0.26667(3) 0.51052(3) 0.00732(2)
Ga2B** Ga 1.26667(3) 0.51052(3) 0.00732(2)
O1* O 0.1355(2) 0.00661(17) 0.07801(14)
O2B* O 0.1229(2) -0.48049(17) 0.08407(14)
O5B* O 0.0810(2) 0.01303(17) -0.08681(14)
O6* O 0.0983(2) -0.52076(18) -0.07739(14)
O10* O 0.7471(2) -0.16887(19) 0.00789(14)
O10B* O 0.2529(2) 0.16887(19) -0.00789(14)
O12* O 0.3925(2) -0.45163(19) 0.09990(14)
O12B* O 0.6075(2) 0.45163(19) -0.09990(14)
#END
