
#######################################################################
#
#                 Cambridge Crystallographic Data Centre
#                                CCDC
#
#######################################################################
#
# If this CIF has been generated from an entry in the Cambridge
# Structural Database, then it will include bibliographic, chemical,
# crystal, experimental, refinement or atomic coordinate data resulting
# from the CCDC's data processing and validation procedures.
#
#######################################################################

data_CSD_CIF_BIQSEB
_audit_creation_date 2013-11-27
_audit_creation_method CSD-ConQuest-V1
_database_code_CSD BIQSEB
_database_code_depnum_ccdc_archive 'CCDC 895537'
_chemical_formula_sum 'C90 H92 Cu2 Mo36 N18 O126 Si3'
_chemical_formula_moiety
;
(C70 H62 Cu2 Mo36 N14 O120 Si3 2-)n,2(C10 H9 N2 1+),6(H2 O1)
;
_journal_coden_Cambridge 208
_journal_volume 209
_journal_year 2014
_journal_page_first 97
_journal_name_full 'J.Solid State Chem. '
loop_
_publ_author_name
"Xiao-Yang Yu"
"Xiao-Bing Cui"
"Jing Lu"
"Yu-Hui Luo"
"Hong Zhang"
"Wei-Ping Gao"
_chemical_name_systematic
;
catena-(bis(4,4'-bipyridinium) 
tris(\m-silicato)-(\m-4,4'-bipyridine)-hexaheptacontakis(\m-oxo)-hexakis(4,4'-
bipyridinium)-dotriacontaoxo-di-copper-hexatriaconta-molybdenum hexahydrate)
;
_cell_volume   4252.349
_exptl_crystal_colour 'grey'
_exptl_crystal_density_diffrn 2.775
_exptl_crystal_description 'block'
_diffrn_ambient_temperature 293
_refine_special_details
;
The structure is disordered.

;
#These two values have been output from a single CSD field.
_refine_ls_R_factor_gt 0.0634
_refine_ls_wR_factor_gt 0.0634
_symmetry_cell_setting triclinic
_symmetry_space_group_name_H-M 'P -1'
_symmetry_Int_Tables_number 2
loop_
_symmetry_equiv_pos_site_id
_symmetry_equiv_pos_as_xyz
1 x,y,z
2 -x,-y,-z
_cell_length_a 12.1635(3)
_cell_length_b 17.9524(5)
_cell_length_c 21.0995(6)
_cell_angle_alpha 68.485(2)
_cell_angle_beta 87.044(2)
_cell_angle_gamma 82.788(2)
_cell_formula_units_Z 1
loop_
_atom_type_symbol
_atom_type_radius_bond
C 0.68
H 0.23
Cu 1.32
Mo 1.54
N 0.68
O 0.68
Si 1.20
loop_
_atom_site_label
_atom_site_type_symbol
_atom_site_fract_x
_atom_site_fract_y
_atom_site_fract_z
Cu1 Cu 0.72067(11) 0.81334(8) 0.86447(7)
Si1 Si 1.1216(2) 0.67377(17) 1.14849(14)
Si2 Si 0.50000 1.00000 0.50000
Mo1 Mo 0.95931(8) 0.86217(5) 1.08171(5)
Mo2 Mo 0.89127(8) 0.70749(6) 1.04417(5)
Mo3 Mo 1.17870(8) 0.82474(6) 1.20722(5)
Mo4 Mo 1.17568(9) 0.69955(6) 0.97543(5)
Mo5 Mo 0.99730(9) 0.50506(6) 1.25617(5)
Mo6 Mo 1.07494(9) 0.51290(6) 1.09871(5)
Mo7 Mo 1.25439(8) 0.83480(6) 1.03321(5)
Mo8 Mo 0.84494(8) 0.71070(6) 1.20179(5)
Mo9 Mo 1.08293(9) 0.65698(6) 1.31935(5)
Mo10 Mo 1.34516(9) 0.64903(6) 1.25817(6)
Mo11 Mo 1.26682(9) 0.47927(6) 1.21744(5)
Mo12 Mo 1.39013(8) 0.64818(6) 1.08335(5)
Mo13 Mo 0.77885(9) 0.97305(8) 0.55100(6)
Mo14 Mo 0.59222(11) 1.13655(7) 0.56407(6)
Mo15 Mo 0.68843(10) 0.84735(7) 0.47520(6)
Mo16 Mo 0.56394(12) 0.93811(8) 0.67366(6)
Mo17 Mo 0.48953(11) 0.79657(7) 0.60761(7)
Mo18 Mo 0.28903(10) 0.94832(8) 0.62367(7)
C1 C 0.5668(11) 1.0092(7) 0.9145(7)
H1 H 0.55530 1.06480 0.89190
C2 C 0.5014(10) 0.7674(7) 0.8551(7)
H2 H 0.47930 0.82260 0.84040
C3 C 0.5314(9) 0.9745(7) 0.9808(6)
C4 C 0.458(1) 0.6373(7) 0.8706(6)
C5 C 0.5582(10) 0.6075(7) 0.9048(6)
H3 H 0.57780 0.55220 0.92480
C6 C 0.6183(10) 0.9613(7) 0.8827(7)
H4 H 0.64010 0.98530 0.83760
C7 C 0.6282(10) 0.6597(7) 0.9090(6)
H5 H 0.69650 0.63920 0.93010
C8 C 0.5541(10) 0.8931(7) 1.0130(7)
H6 H 0.53510 0.86910 1.05870
C9 C 0.6046(10) 0.8468(7) 0.9784(6)
H7 H 0.61470 0.79110 1.00010
C10 C 0.4297(10) 0.7185(8) 0.8463(7)
H8 H 0.36270 0.74070 0.82400
C11 C 0.3852(10) 0.5794(7) 0.8629(7)
C12 C 0.9966(10) 0.7432(7) 0.6418(6)
C13 C 0.7605(9) 0.7477(6) 0.7609(6)
H9 H 0.68350 0.75210 0.75960
C14 C 0.8712(9) 0.9208(7) 0.7661(6)
H10 H 0.83180 0.91320 0.73280
C15 C 0.9335(9) 0.7340(6) 0.7060(6)
C16 C 0.9632(10) 0.9628(6) 0.7469(6)
H11 H 0.98360 0.98350 0.70130
C17 C 0.9831(10) 0.7241(7) 0.7671(6)
H12 H 1.05960 0.71280 0.77130
C18 C 0.9209(10) 0.7306(7) 0.8202(6)
H13 H 0.95610 0.72350 0.86040
C19 C 1.1239(9) 1.0179(7) 0.7794(6)
C20 C 1.0241(9) 0.9739(6) 0.7948(6)
C21 C 0.8949(10) 0.9041(7) 0.8768(6)
H14 H 0.87110 0.88450 0.92190
C22 C 1.0961(12) 0.7777(10) 0.6292(7)
H15 H 1.12990 0.78960 0.66230
C23 C 1.3067(12) 1.0305(10) 0.8067(9)
H16 H 1.36890 1.01130 0.83430
C24 C 1.2143(11) 0.9883(9) 0.8215(7)
H17 H 1.21370 0.94080 0.85930
C25 C 1.2210(13) 1.1271(9) 0.7115(8)
H18 H 1.22480 1.17430 0.67380
C26 C 1.1274(10) 1.0880(8) 0.7235(7)
H19 H 1.06720 1.10870 0.69420
C27 C 1.1401(15) 0.7928(10) 0.5667(8)
H20 H 1.20650 0.81560 0.55720
C28 C 1.0061(11) 0.7417(10) 0.5292(7)
H21 H 0.97780 0.72930 0.49460
C29 C 0.8192(10) 0.7421(7) 0.7064(6)
H22 H 0.78190 0.74360 0.66850
C30 C 0.3246(10) 0.5342(8) 0.9185(7)
H23 H 0.32940 0.53920 0.96060
C31 C 0.2595(12) 0.4835(9) 0.9106(8)
H24 H 0.21680 0.45480 0.94710
C32 C 0.9850(11) 0.9438(7) 0.8625(6)
H25 H 1.02140 0.95140 0.89700
C33 C 0.9536(11) 0.7223(8) 0.5914(6)
H26 H 0.89060 0.69560 0.59980
C34 C 0.3769(16) 0.5690(12) 0.8030(9)
H27 H 0.41590 0.59820 0.76470
C35 C 0.3086(18) 0.5134(14) 0.7999(9)
H28 H 0.30210 0.50510 0.75940
N1 N 0.2548(10) 0.4738(7) 0.8533(7)
H29 H 0.21390 0.43930 0.85060
N2 N 0.6004(7) 0.7399(6) 0.8835(5)
N3 N 0.8375(7) 0.8911(5) 0.8309(5)
N4 N 1.3051(10) 1.0972(8) 0.7536(6)
H30 H 1.36220 1.12310 0.74570
N5 N 0.8088(7) 0.7472(5) 0.8167(5)
N6 N 1.0961(10) 0.7777(7) 0.5189(5)
H31 H 1.12680 0.79170 0.47920
N7 N 0.6401(8) 0.8801(5) 0.9131(5)
O1 O 0.8040(7) 0.7166(5) 0.9806(4)
O2 O 0.6034(8) 0.9037(5) 0.7549(4)
O3 O 1.2541(7) 0.8371(5) 1.1202(4)
O4 O 0.8824(6) 0.8236(5) 1.0279(4)
O5 O 1.0917(6) 0.8625(5) 1.0361(4)
O6 O 1.0479(6) 0.8568(5) 1.1592(4)
O7 O 0.7926(6) 0.6997(5) 1.1173(4)
O8 O 0.9443(7) 0.7042(5) 1.2674(4)
O9 O 1.2177(7) 0.8012(5) 0.9575(4)
O10 O 1.1978(7) 0.4496(5) 1.1476(4)
O11 O 1.1466(7) 0.4426(5) 1.2752(4)
O12 O 1.3306(6) 0.6529(5) 1.0009(4)
O13 O 0.9848(7) 0.4704(5) 1.1853(4)
O14 O 1.3085(7) 0.5443(5) 1.2604(4)
O15 O 0.9453(6) 0.6010(4) 1.0756(4)
O16 O 1.3209(6) 0.7570(5) 1.2473(4)
O17 O 1.1158(6) 0.5775(4) 1.1721(4)
O18 O 1.2958(7) 0.9238(5) 0.9842(4)
O19 O 1.3959(6) 0.6645(5) 1.1716(4)
O20 O 1.0280(6) 0.7269(4) 0.9890(4)
O21 O 1.0377(8) 0.4506(5) 1.0629(4)
O22 O 1.1113(7) 0.7706(5) 1.2923(4)
O23 O 1.1481(7) 0.5856(5) 1.0299(4)
O24 O 1.5268(7) 0.6264(5) 1.0701(5)
O25 O 0.8907(7) 0.5930(5) 1.2247(4)
O26 O 1.0347(8) 0.6467(5) 1.3978(4)
O27 O 0.9070(7) 0.9600(5) 1.0533(5)
O28 O 1.3869(6) 0.7678(5) 1.0424(4)
O29 O 1.3452(7) 0.5498(5) 1.1359(4)
O30 O 0.9275(7) 0.4393(5) 1.3178(4)
O31 O 1.0544(7) 0.5619(5) 1.3111(4)
O32 O 1.1771(7) 0.6955(6) 0.8974(4)
O33 O 1.2076(7) 0.9076(5) 1.2198(4)
O34 O 0.7226(7) 0.7070(5) 1.2440(5)
O35 O 1.2336(7) 0.6271(5) 1.3352(4)
O36 O 0.8445(6) 0.8204(5) 1.1539(4)
O37 O 1.3613(7) 0.3976(5) 1.2435(5)
O38 O 0.4766(9) 0.7019(6) 0.6547(5)
O39 O 0.632(1) 1.1956(7) 0.6010(7)
O40 O 1.2056(6) 0.7032(4) 1.0828(4)
O41 O 0.9973(6) 0.7209(4) 1.1267(4)
O42 O 0.5840(13) 1.0108(8) 0.5521(7)
O43 O 1.1642(6) 0.6946(4) 1.2111(4)
O44 O 1.4606(7) 0.6182(6) 1.3063(5)
O45 O 0.7770(13) 0.8799(7) 0.5320(5)
O46 O 0.4312(9) 1.1616(9) 0.5707(6)
O47 O 0.7792(10) 0.7746(7) 0.4648(6)
O48 O 0.346(1) 0.8457(10) 0.6276(10)
O49 O 0.7240(12) 0.9360(7) 0.4015(5)
O50 O 0.5875(9) 1.1993(9) 0.4747(5)
O51 O 0.4665(13) 0.9390(9) 0.5793(7)
O52 O 0.4096(10) 0.9448(9) 0.6816(10)
O53 O 0.7921(12) 1.0338(7) 0.4561(5)
O54 O 0.1908(9) 0.9250(7) 0.6823(5)
O55 O 0.4808(13) 1.0911(8) 0.5009(7)
O56 O 0.6271(12) 0.9752(8) 0.4844(7)
O57 O 0.7278(11) 1.0773(6) 0.5570(6)
O58 O 0.9083(9) 0.9628(8) 0.5774(8)
O59 O 0.7068(11) 0.9268(6) 0.6351(6)
O60 O 0.6210(9) 0.7839(9) 0.5614(5)
O61 O 0.5552(10) 0.8326(9) 0.6655(10)
O62 O 0.5659(11) 1.0449(6) 0.6495(6)
C36 C 0.5239(12) 0.4034(8) 0.4775(7)
C37 C 0.4008(12) 0.4039(8) 0.4857(7)
C38 C 0.5955(13) 0.3774(11) 0.5304(8)
H32 H 0.56770 0.35820 0.57460
C39 C 0.7038(16) 0.3786(13) 0.5211(10)
H33 H 0.74840 0.36140 0.55940
C40 C 0.2371(16) 0.3924(12) 0.5532(11)
H34 H 0.20370 0.37930 0.59600
C41 C 0.3502(14) 0.3855(11) 0.5484(8)
H35 H 0.39280 0.36840 0.58760
C42 C 0.3345(14) 0.426(1) 0.4298(8)
H36 H 0.36580 0.43670 0.38660
C43 C 0.2188(14) 0.4324(10) 0.4382(10)
H37 H 0.17370 0.44760 0.40020
C44 C 0.5712(15) 0.4284(14) 0.4143(8)
H38 H 0.52720 0.44630 0.37560
C45 C 0.6858(19) 0.4270(17) 0.408(1)
H39 H 0.71730 0.44400 0.36470
N8 N 0.7516(11) 0.4022(9) 0.4616(8)
H40 H 0.82230 0.40180 0.45730
N9 N 0.1737(11) 0.4174(8) 0.4980(8)
O63 O 0.9612(9) 0.4588(7) 0.4501(5)
O64 O 0.1149(9) 0.8482(7) 0.3820(5)
O65 O 0.479(4) 0.186(3) 0.733(2)
O66? O 0.5142(16) 0.1399(15) 0.7437(10)
O42A O 0.4160(13) 0.9892(8) 0.4479(7)
O51A O 0.5335(13) 1.0610(9) 0.4207(7)
O55A O 0.5192(13) 0.9089(8) 0.4991(7)
O56A O 0.3729(12) 1.0248(8) 0.5156(7)
C1A C 0.4332(11) 0.9908(7) 1.0855(7)
H1A H 0.44470 0.93520 1.10810
C3A C 0.4686(9) 1.0255(7) 1.0192(6)
C6A C 0.3817(10) 1.0387(7) 1.1173(7)
H4A H 0.35990 1.01470 1.16240
C8A C 0.4459(10) 1.1069(7) 0.9870(7)
H6A H 0.46490 1.13090 0.94130
C9A C 0.3954(10) 1.1532(7) 1.0216(6)
H7A H 0.38530 1.20890 0.99990
N7A N 0.3599(8) 1.1199(5) 1.0869(5)
Cu1A Cu 0.27933(11) 1.18666(8) 0.13553(7)
Si1A Si -0.1216(2) 1.32623(17) -0.14849(14)
Mo1A Mo 0.04069(8) 1.13783(5) -0.08171(5)
Mo2A Mo 0.10873(8) 1.29251(6) -0.04417(5)
Mo3A Mo -0.17870(8) 1.17526(6) -0.20722(5)
Mo4A Mo -0.17568(9) 1.30045(6) 0.02457(5)
Mo5A Mo 0.00270(9) 1.49494(6) -0.25617(5)
Mo6A Mo -0.07494(9) 1.48710(6) -0.09871(5)
Mo7A Mo -0.25439(8) 1.16520(6) -0.03321(5)
Mo8A Mo 0.15506(8) 1.28930(6) -0.20179(5)
Mo9A Mo -0.08293(9) 1.34302(6) -0.31935(5)
Mo10A Mo -0.34516(9) 1.35097(6) -0.25817(6)
Mo11A Mo -0.26682(9) 1.52073(6) -0.21744(5)
Mo12A Mo -0.39013(8) 1.35182(6) -0.08335(5)
Mo13A Mo 0.22115(9) 1.02695(8) 0.44900(6)
Mo14A Mo 0.40778(11) 0.86345(7) 0.43593(6)
Mo15A Mo 0.31157(10) 1.15265(7) 0.52480(6)
Mo16A Mo 0.43606(12) 1.06189(8) 0.32634(6)
Mo17A Mo 0.51047(11) 1.20343(7) 0.39239(7)
Mo18A Mo 0.71097(10) 1.05168(8) 0.37633(7)
C2A C 0.4986(10) 1.2326(7) 0.1449(7)
H2A H 0.52070 1.17740 0.15960
C4A C 0.542(1) 1.3627(7) 0.1294(6)
C5A C 0.4418(10) 1.3925(7) 0.0952(6)
H3A H 0.42220 1.44780 0.07520
C7A C 0.3718(10) 1.3403(7) 0.0910(6)
H5A H 0.30350 1.36080 0.06990
C10A C 0.5703(10) 1.2815(8) 0.1537(7)
H8A H 0.63730 1.25930 0.17600
C11A C 0.6148(10) 1.4206(7) 0.1371(7)
C12A C 0.0034(10) 1.2568(7) 0.3582(6)
C13A C 0.2395(9) 1.2523(6) 0.2391(6)
H9A H 0.31650 1.24790 0.24040
C14A C 0.1288(9) 1.0792(7) 0.2339(6)
H10A H 0.16820 1.08680 0.26720
C15A C 0.0665(9) 1.2660(6) 0.2940(6)
C16A C 0.0368(10) 1.0372(6) 0.2531(6)
H11A H 0.01640 1.01650 0.29870
C17A C 0.0169(10) 1.2759(7) 0.2329(6)
H12A H -0.05960 1.28720 0.22870
C18A C 0.0791(10) 1.2694(7) 0.1798(6)
H13A H 0.04390 1.27650 0.13960
C19A C -0.1239(9) 0.9821(7) 0.2206(6)
C20A C -0.0241(9) 1.0261(6) 0.2052(6)
C21A C 0.1051(10) 1.0959(7) 0.1232(6)
H14A H 0.12890 1.11550 0.07810
C22A C -0.0961(12) 1.2223(10) 0.3708(7)
H15A H -0.12990 1.21040 0.33770
C23A C -0.3067(12) 0.9695(10) 0.1933(9)
H16A H -0.36890 0.98870 0.16570
C24A C -0.2143(11) 1.0117(9) 0.1785(7)
H17A H -0.21370 1.05920 0.14070
C25A C -0.2210(13) 0.8729(9) 0.2885(8)
H18A H -0.22480 0.82570 0.32620
C26A C -0.1274(10) 0.9120(8) 0.2765(7)
H19A H -0.06720 0.89130 0.30580
C27A C -0.1401(15) 1.2072(10) 0.4333(8)
H20A H -0.20650 1.18440 0.44280
C28A C -0.0061(11) 1.2583(10) 0.4708(7)
H21A H 0.02220 1.27070 0.50540
C29A C 0.1808(10) 1.2579(7) 0.2936(6)
H22A H 0.21810 1.25640 0.33150
C30A C 0.6754(10) 1.4658(8) 0.0815(7)
H23A H 0.67060 1.46080 0.03940
C31A C 0.7405(12) 1.5165(9) 0.0894(8)
H24A H 0.78320 1.54520 0.05290
C32A C 0.0150(11) 1.0562(7) 0.1375(6)
H25A H -0.02140 1.04860 0.10300
C33A C 0.0464(11) 1.2777(8) 0.4086(6)
H26A H 0.10940 1.30440 0.40020
C34A C 0.6231(16) 1.4310(12) 0.1970(9)
H27A H 0.58410 1.40180 0.23530
C35A C 0.6914(18) 1.4866(14) 0.2001(9)
H28A H 0.69790 1.49490 0.24060
N1A N 0.7452(10) 1.5262(7) 0.1467(7)
H29A H 0.78610 1.56070 0.14940
N2A N 0.3996(7) 1.2601(6) 0.1165(5)
N3A N 0.1625(7) 1.1089(5) 0.1691(5)
N4A N -0.3051(10) 0.9028(8) 0.2464(6)
H30A H -0.36220 0.87690 0.25430
N5A N 0.1912(7) 1.2528(5) 0.1833(5)
N6A N -0.0961(10) 1.2223(7) 0.4811(5)
H31A H -0.12680 1.20830 0.52080
O1A O 0.1960(7) 1.2834(5) 0.0194(4)
O2A O 0.3966(8) 1.0963(5) 0.2451(4)
O3A O -0.2541(7) 1.1629(5) -0.1202(4)
O4A O 0.1176(6) 1.1764(5) -0.0279(4)
O5A O -0.0917(6) 1.1375(5) -0.0361(4)
O6A O -0.0479(6) 1.1432(5) -0.1592(4)
O7A O 0.2074(6) 1.3003(5) -0.1173(4)
O8A O 0.0557(7) 1.2958(5) -0.2674(4)
O9A O -0.2177(7) 1.1988(5) 0.0425(4)
O10A O -0.1978(7) 1.5504(5) -0.1476(4)
O11A O -0.1466(7) 1.5574(5) -0.2752(4)
O12A O -0.3306(6) 1.3471(5) -0.0009(4)
O13A O 0.0152(7) 1.5296(5) -0.1853(4)
O14A O -0.3085(7) 1.4557(5) -0.2604(4)
O15A O 0.0547(6) 1.3990(4) -0.0756(4)
O16A O -0.3209(6) 1.2430(5) -0.2473(4)
O17A O -0.1158(6) 1.4225(4) -0.1721(4)
O18A O -0.2958(7) 1.0762(5) 0.0158(4)
O19A O -0.3959(6) 1.3355(5) -0.1716(4)
O20A O -0.0280(6) 1.2731(4) 0.0110(4)
O21A O -0.0377(8) 1.5494(5) -0.0629(4)
O22A O -0.1113(7) 1.2294(5) -0.2923(4)
O23A O -0.1481(7) 1.4144(5) -0.0299(4)
O24A O -0.5268(7) 1.3736(5) -0.0701(5)
O25A O 0.1093(7) 1.4070(5) -0.2247(4)
O26A O -0.0347(8) 1.3533(5) -0.3978(4)
O27A O 0.0930(7) 1.0400(5) -0.0533(5)
O28A O -0.3869(6) 1.2322(5) -0.0424(4)
O29A O -0.3452(7) 1.4502(5) -0.1359(4)
O30A O 0.0725(7) 1.5607(5) -0.3178(4)
O31A O -0.0544(7) 1.4381(5) -0.3111(4)
O32A O -0.1771(7) 1.3045(6) 0.1026(4)
O33A O -0.2076(7) 1.0924(5) -0.2198(4)
O34A O 0.2774(7) 1.2930(5) -0.2440(5)
O35A O -0.2336(7) 1.3729(5) -0.3352(4)
O36A O 0.1555(6) 1.1796(5) -0.1539(4)
O37A O -0.3613(7) 1.6024(5) -0.2435(5)
O38A O 0.5234(9) 1.2981(6) 0.3453(5)
O39A O 0.368(1) 0.8044(7) 0.3990(7)
O40A O -0.2056(6) 1.2968(4) -0.0828(4)
O41A O 0.0027(6) 1.2791(4) -0.1267(4)
O43A O -0.1642(6) 1.3054(4) -0.2111(4)
O44A O -0.4606(7) 1.3818(6) -0.3063(5)
O45A O 0.2230(13) 1.1201(7) 0.4680(5)
O46A O 0.5688(9) 0.8384(9) 0.4293(6)
O47A O 0.2208(10) 1.2254(7) 0.5352(6)
O48A O 0.654(1) 1.1543(10) 0.3724(10)
O49A O 0.2760(12) 1.0640(7) 0.5985(5)
O50A O 0.4125(9) 0.8007(9) 0.5253(5)
O52A O 0.5904(10) 1.0552(9) 0.3184(10)
O53A O 0.2079(12) 0.9662(7) 0.5439(5)
O54A O 0.8092(9) 1.0750(7) 0.3177(5)
O57A O 0.2722(11) 0.9227(6) 0.4430(6)
O58A O 0.0917(9) 1.0372(8) 0.4226(8)
O59A O 0.2932(11) 1.0732(6) 0.3649(6)
O60A O 0.3790(9) 1.2161(9) 0.4386(5)
O61A O 0.4448(10) 1.1674(9) 0.3345(10)
O62A O 0.4341(11) 0.9551(6) 0.3505(6)
Cu1A* Cu 0.27933(11) 1.18666(8) 1.13553(7)
N7A* N 0.3599(8) 1.1199(5) 0.0869(5)
#END
