
#######################################################################
#
#                 Cambridge Crystallographic Data Centre
#                                CCDC
#
#######################################################################
#
# If this CIF has been generated from an entry in the Cambridge
# Structural Database, then it will include bibliographic, chemical,
# crystal, experimental, refinement or atomic coordinate data resulting
# from the CCDC's data processing and validation procedures.
#
#######################################################################

data_CSD_CIF_BIRBOW
_audit_creation_date 2018-12-06
_audit_creation_method CSD-ConQuest-V1
_database_code_CSD BIRBOW
_database_code_depnum_ccdc_archive 'CCDC 1873261'
_chemical_formula_sum 'C68 H70 N4 O28 Tb2'
_chemical_formula_moiety
;
(C61 H33 N1 O20 Tb2 2-)n,2n(C2 H8 N1 1+),n(C3 H7 N1 O1),7n(H2 O1)
;
_journal_coden_Cambridge 1350
_journal_volume 21
_journal_year 2019
_journal_page_first 321
_journal_name_full 'CrystEngComm '
loop_
_publ_author_name
"Yan Yang"
"Lian Chen"
"Feilong Jiang"
"Mingyan Wu"
"Jiandong Pang"
"Xiuyan Wan"
"Maochun Hong"
_chemical_name_systematic
;
catena-(bis(dimethylammonium) 
bis(\m-5,5'-(9-oxo-9H-fluorene-2,7-diyl)bis(benzene-1,3-dicarboxylato))-aqua-d
imethylformamide-di-terbium(iii) dimethylformamide solvate heptahydrate)
;
_cell_volume   3185.714
_exptl_crystal_colour 'colorless'
_exptl_crystal_description 'block'
_diffrn_ambient_temperature 173
_refine_special_details
;
The SQUEEZE/PLATON program was used to model the cations and solvent 
molecules.
;
#These two values have been output from a single CSD field.
_refine_ls_R_factor_gt 0.0382
_refine_ls_wR_factor_gt 0.0382
_symmetry_cell_setting triclinic
_symmetry_space_group_name_H-M 'P -1'
_symmetry_Int_Tables_number 2
loop_
_symmetry_equiv_pos_site_id
_symmetry_equiv_pos_as_xyz
1 x,y,z
2 -x,-y,-z
_cell_length_a 10.5886(3)
_cell_length_b 15.1959(6)
_cell_length_c 21.2747(8)
_cell_angle_alpha 71.860(3)
_cell_angle_beta 79.293(3)
_cell_angle_gamma 82.292(3)
_cell_formula_units_Z 2
loop_
_atom_type_symbol
_atom_type_radius_bond
C 0.68
H 0.23
N 0.68
O 0.68
Tb 1.94
loop_
_atom_site_label
_atom_site_type_symbol
_atom_site_fract_x
_atom_site_fract_y
_atom_site_fract_z
Tb1 Tb 0.57332(2) 0.19934(2) 0.92952(2)
Tb2 Tb 1.15390(2) 0.17917(2) 0.14393(2)
O1 O 0.7843(3) 0.2103(2) 0.96264(13)
O2 O 0.7835(3) 0.2093(2) 0.85938(13)
O3 O 0.4037(3) 0.0934(2) 0.94490(12)
O4 O 0.5128(2) 0.1419(2) 0.84394(13)
O5 O 0.6738(3) 0.0453(2) 0.94936(13)
O6 O 1.2008(3) 0.2310(2) 0.23558(13)
O7 O 1.2080(3) 0.3329(2) 0.13628(14)
O8 O 0.9525(3) 0.1821(2) 0.21903(14)
O9 O 0.9385(3) 0.2429(3) 0.11228(14)
O10 O 1.1868(3) 0.0458(2) 0.23691(14)
O11 O 1.1918(3) 0.2482(2) 1.02995(13)
O12 O 1.3696(2) 0.2794(2) 0.95427(12)
O13 O 1.0697(4) 0.2652(4) 0.55866(18)
O14 O 1.4511(3) 0.6700(2) 0.17428(13)
O15 O 1.3887(3) 0.6350(2) 0.09228(13)
O16 O -0.0541(3) -0.0115(3) 0.95841(15)
O17 O -0.0774(3) -0.0556(2) 0.87455(14)
O18 O 0.6049(3) 0.1774(3) 0.52263(15)
O19 O 0.3662(3) 0.1389(2) 0.11966(13)
O20 O 0.5446(3) 0.1585(2) 0.04521(13)
N1 N 1.2247(5) -0.1092(3) 0.2896(2)
C1 C 0.4876(4) 0.1370(3) 0.34055(19)
C2 C 0.5381(4) 0.1581(3) 0.39050(19)
H1 H 0.61510 0.18900 0.37950
C3 C 0.4750(4) 0.1334(3) 0.45534(19)
C4 C 0.5098(4) 0.1455(3) 0.51781(19)
C5 C 0.4045(4) 0.1057(3) 0.57258(19)
C6 C 0.3865(4) 0.0998(3) 0.63968(19)
H2 H 0.44600 0.12460 0.65670
C7 C 0.2803(4) 0.0569(3) 0.68286(19)
C8 C 0.1954(4) 0.0216(3) 0.65517(19)
H3 H 0.12300 -0.00760 0.68370
C9 C 0.2132(4) 0.0278(4) 0.5873(2)
H4 H 0.15460 0.00260 0.57000
C10 C 0.3175(4) 0.0711(3) 0.54582(18)
C11 C 0.3607(4) 0.0892(3) 0.4732(2)
C12 C 0.3095(4) 0.0679(4) 0.4251(2)
H5 H 0.23220 0.03740 0.43650
C13 C 0.3732(4) 0.0919(4) 0.3598(2)
H6 H 0.33790 0.07720 0.32680
C14 C 0.5538(4) 0.1579(3) 0.27031(19)
C15 C 0.4917(4) 0.1504(3) 0.21970(18)
H7 H 0.40490 0.13450 0.23050
C16 C 0.5540(4) 0.1654(3) 0.15386(19)
C17 C 0.6817(4) 0.1872(3) 0.13728(18)
H8 H 0.72510 0.19710 0.09260
C18 C 0.7452(4) 0.1944(3) 0.18702(19)
C19 C 0.6822(4) 0.1806(3) 0.25237(18)
H9 H 0.72700 0.18650 0.28540
C20 C 0.8859(4) 0.2090(3) 0.17166(19)
C21 C 0.4833(4) 0.1539(3) 0.10172(18)
C22 C 0.2563(4) 0.0492(3) 0.75555(18)
C23 C 0.3478(4) 0.0716(3) 0.78652(18)
H10 H 0.42770 0.09150 0.76070
C24 C 0.3247(4) 0.0655(3) 0.85442(18)
C25 C 0.2091(4) 0.0345(3) 0.89350(17)
H11 H 0.19350 0.02910 0.93990
C26 C 0.1165(4) 0.0115(3) 0.86360(17)
C27 C 0.1407(4) 0.0200(3) 0.79541(18)
H12 H 0.07620 0.00540 0.77550
C28 C -0.0110(4) -0.0212(3) 0.90113(18)
C29 C 0.4204(3) 0.1006(3) 0.88299(18)
C30 C 1.2202(4) 0.3062(3) 0.6161(2)
C31 C 1.4664(5) 0.4141(4) 0.4054(2)
H13 H 1.53620 0.44100 0.37320
C32 C 1.3637(5) 0.3906(3) 0.38363(19)
C33 C 1.4708(5) 0.3997(4) 0.4733(2)
H14 H 1.54290 0.41570 0.48690
C34 C 1.2639(5) 0.3473(3) 0.4319(2)
H15 H 1.19470 0.32690 0.41870
C35 C 1.3687(4) 0.3619(3) 0.51978(19)
C36 C 1.2673(4) 0.3348(3) 0.4985(2)
C37 C 1.3398(4) 0.3431(3) 0.59363(19)
C38 C 1.1698(5) 0.2954(4) 0.5579(2)
C39 C 1.2290(4) 0.2994(3) 0.72983(18)
C40 C 1.3515(4) 0.3325(4) 0.7073(2)
H16 H 1.39800 0.34070 0.73890
C41 C 1.4080(5) 0.3538(4) 0.6404(2)
H17 H 1.49180 0.37530 0.62680
C42 C 1.1653(4) 0.2840(3) 0.68200(19)
H18 H 1.08420 0.25820 0.69560
C43 C 1.1678(4) 0.2793(3) 0.80118(19)
C44 C 1.2349(4) 0.2816(3) 0.85152(18)
H19 H 1.32160 0.29780 0.83990
C45 C 1.1770(3) 0.2608(3) 0.91806(18)
C46 C 1.0495(4) 0.2377(3) 0.93656(18)
H20 H 1.01050 0.22230 0.98220
C47 C 0.9804(4) 0.2377(3) 0.88659(19)
C48 C 1.0398(4) 0.2567(3) 0.82066(18)
H21 H 0.99210 0.25430 0.78760
C49 C 0.8415(4) 0.2168(3) 0.90428(19)
C50 C 1.2516(4) 0.2619(3) 0.97177(18)
C51 C 1.3540(4) 0.4127(3) 0.3111(2)
C52 C 1.3017(4) 0.3514(3) 0.2880(2)
H22 H 1.27690 0.29340 0.31810
C53 C 1.2856(4) 0.3746(3) 0.22108(19)
C54 C 1.3209(4) 0.4599(3) 0.17666(19)
H23 H 1.30870 0.47580 0.13120
C55 C 1.3743(4) 0.5220(3) 0.19909(19)
C56 C 1.3909(4) 0.4974(3) 0.26621(19)
H24 H 1.42790 0.53900 0.28160
C57 C 1.4080(4) 0.6144(3) 0.15267(18)
C58 C 1.2276(4) 0.3084(3) 0.19694(19)
C59 C 1.2323(6) -0.0371(4) 0.2346(3)
C60 C 1.1673(7) -0.1006(6) 0.3572(3)
H25 H 1.13190 -0.03640 0.35310
H26 H 1.23410 -0.11720 0.38610
H27 H 1.09820 -0.14250 0.37670
C61 C 1.2745(7) -0.2040(5) 0.2878(3)
H28 H 1.30590 -0.20360 0.24140
H29 H 1.20520 -0.24590 0.30680
H30 H 1.34540 -0.22560 0.31410
Tb1* Tb 0.57332(2) 0.19934(2) -0.07048(2)
Tb1** Tb 1.57332(2) 0.19934(2) 0.92952(2)
Tb1A Tb 1.42668(2) 0.80066(2) 0.07048(2)
Tb2* Tb 0.15390(2) 0.17917(2) 0.14393(2)
Tb2** Tb 1.15390(2) 0.17917(2) 1.14393(2)
Tb2A Tb -0.15390(2) -0.17917(2) 0.85607(2)
O11* O 1.1918(3) 0.2482(2) 0.02995(13)
O12* O 0.3696(2) 0.2794(2) 0.95427(12)
O14A O 0.5489(3) 0.3300(2) 0.82572(13)
O15A O 0.6113(3) 0.3650(2) 0.90772(13)
O17A O 1.0774(3) 0.0556(2) 0.12545(14)
O19* O 1.3662(3) 0.1389(2) 0.11966(13)
O20* O 0.5446(3) 0.1585(2) 1.04521(13)
#END
