
#######################################################################
#
#                 Cambridge Crystallographic Data Centre
#                                CCDC
#
#######################################################################
#
# If this CIF has been generated from an entry in the Cambridge
# Structural Database, then it will include bibliographic, chemical,
# crystal, experimental, refinement or atomic coordinate data resulting
# from the CCDC's data processing and validation procedures.
#
#######################################################################

data_CSD_CIF_BIRBUC
_audit_creation_date 2018-12-06
_audit_creation_method CSD-ConQuest-V1
_database_code_CSD BIRBUC
_database_code_depnum_ccdc_archive 'CCDC 1516443'
_chemical_formula_sum 'C68 H70 Dy2 N4 O28'
_chemical_formula_moiety
;
(C61 H33 Dy2 N1 O20 2-)n,2n(C2 H8 N1 1+),n(C3 H7 N1 O1),7n(H2 O1)
;
_journal_coden_Cambridge 1350
_journal_volume 21
_journal_year 2019
_journal_page_first 321
_journal_name_full 'CrystEngComm '
loop_
_publ_author_name
"Yan Yang"
"Lian Chen"
"Feilong Jiang"
"Mingyan Wu"
"Jiandong Pang"
"Xiuyan Wan"
"Maochun Hong"
_chemical_name_systematic
;
catena-(bis(dimethylammonium) 
bis(\m-5,5'-(9-oxo-9H-fluorene-2,7-diyl)bis(benzene-1,3-dicarboxylato))-aqua-d
imethylformamide-di-dysprosium(iii) dimethylformamide solvate heptahydrate)
;
_cell_volume   3183.380
_exptl_crystal_colour 'light yellow'
_exptl_crystal_description 'block'
_diffrn_ambient_temperature 100
_refine_special_details
;
The SQUEEZE/PLATON program was used to model the cations and solvent 
molecules.
;
#These two values have been output from a single CSD field.
_refine_ls_R_factor_gt 0.0493
_refine_ls_wR_factor_gt 0.0493
_symmetry_cell_setting triclinic
_symmetry_space_group_name_H-M 'P -1'
_symmetry_Int_Tables_number 2
loop_
_symmetry_equiv_pos_site_id
_symmetry_equiv_pos_as_xyz
1 x,y,z
2 -x,-y,-z
_cell_length_a 10.5924(2)
_cell_length_b 15.1775(5)
_cell_length_c 21.2599(6)
_cell_angle_alpha 71.994(3)
_cell_angle_beta 79.331(2)
_cell_angle_gamma 82.276(2)
_cell_formula_units_Z 2
loop_
_atom_type_symbol
_atom_type_radius_bond
C 0.68
H 0.23
Dy 1.92
N 0.68
O 0.68
loop_
_atom_site_label
_atom_site_type_symbol
_atom_site_fract_x
_atom_site_fract_y
_atom_site_fract_z
Dy1 Dy 0.57288(2) 0.69960(2) 0.92952(2)
Dy2 Dy 1.15367(2) 0.67929(2) 0.14396(2)
O1 O 1.2010(3) 0.7312(2) 0.23536(17)
O2 O 0.5135(3) 0.6424(2) 0.84378(16)
O3 O 0.5433(3) 0.6592(3) 0.04521(16)
O4 O 0.4034(3) 0.5939(2) 0.94478(15)
O5 O 1.1928(3) 0.7484(3) 1.02985(16)
O6 O 0.7833(3) 0.7109(3) 0.96251(17)
O7 O 0.7843(3) 0.7098(3) 0.85916(17)
O8 O 1.4522(3) 1.1696(3) 0.17456(16)
O9 O 0.9521(3) 0.6827(3) 0.21950(17)
O10 O 0.9382(4) 0.7434(3) 0.11187(18)
O11 O -0.0773(4) 0.4441(3) 0.87464(18)
O12 O 0.3652(3) 0.6379(3) 0.11983(16)
O13 O 1.1867(4) 0.5453(3) 0.23712(19)
O14 O 1.3696(3) 0.7793(2) 0.95435(15)
O15 O 1.3897(4) 1.1348(3) 0.09242(17)
O16 O -0.0539(4) 0.4878(4) 0.9583(2)
O17 O 1.2084(4) 0.8325(3) 0.13596(18)
O18 O 0.6737(3) 0.5455(3) 0.94922(17)
O19 O 1.0706(5) 0.7648(5) 0.5586(2)
O20 O 0.6050(4) 0.6779(4) 0.5229(2)
C1 C 1.1641(5) 0.7838(4) 0.6822(3)
H1 H 1.08306 0.75796 0.69571
C2 C 0.5543(5) 0.6651(4) 0.1543(2)
C3 C 0.4188(5) 0.6001(4) 0.8836(2)
C4 C 0.5536(5) 0.6579(4) 0.2707(2)
C5 C 0.4921(4) 0.6509(4) 0.2198(2)
H2 H 0.40487 0.63604 0.23030
C6 C 0.6814(5) 0.6877(4) 0.1372(2)
H3 H 0.72442 0.69811 0.09251
C7 C 1.2510(5) 0.7618(3) 0.9718(2)
C8 C 0.8856(5) 0.7099(4) 0.1714(3)
C9 C 0.1397(5) 0.5206(4) 0.7954(2)
H4 H 0.07456 0.50702 0.77532
C10 C 0.4878(5) 0.6367(4) 0.3411(2)
C11 C 0.9801(5) 0.7384(4) 0.8868(2)
C12 C 0.8408(5) 0.7170(4) 0.9042(2)
C13 C 0.3875(5) 0.5988(4) 0.6402(2)
H5 H 0.44794 0.62226 0.65754
C14 C 1.3683(6) 0.8621(4) 0.5197(2)
C15 C 0.3170(5) 0.5712(4) 0.5454(2)
C16 C 1.3633(6) 0.8902(4) 0.3839(2)
C17 C 1.1692(5) 0.7792(4) 0.8013(2)
C18 C 0.2567(5) 0.5496(4) 0.7556(2)
C19 C 1.2288(5) 0.8083(4) 0.1966(2)
C20 C 1.2682(6) 0.8342(4) 0.4986(3)
C21 C 1.2282(5) 0.7994(4) 0.7298(2)
C22 C 1.1768(5) 0.7612(3) 0.9182(2)
C23 C 0.3465(5) 0.5718(3) 0.7871(2)
H6 H 0.42614 0.59229 0.76127
C24 C 0.4046(5) 0.6056(4) 0.5727(2)
C25 C 1.0483(5) 0.7386(4) 0.9365(2)
H7 H 1.00877 0.72371 0.98196
C26 C 0.3247(4) 0.5652(3) 0.8545(2)
C27 C 1.2193(5) 0.8060(4) 0.6166(3)
C28 C 0.7442(5) 0.6947(4) 0.1871(2)
C29 C 0.4831(5) 0.6541(4) 0.1017(2)
C30 C 1.3409(5) 0.8434(4) 0.5936(2)
C31 C 0.6817(5) 0.6812(4) 0.2520(2)
H8 H 0.72662 0.68790 0.28483
C32 C 0.4744(5) 0.6333(4) 0.4559(3)
C33 C 1.3747(6) 1.0213(4) 0.1994(2)
C34 C -0.0106(5) 0.4785(4) 0.9015(2)
C35 C 0.1175(5) 0.5113(3) 0.8635(2)
C36 C 0.2093(4) 0.5341(4) 0.8939(2)
H9 H 0.19368 0.52864 0.94032
C37 C 0.3101(6) 0.5683(5) 0.4248(3)
H10 H 0.23284 0.53777 0.43590
C38 C 1.3913(5) 0.9966(4) 0.2662(2)
H11 H 1.42874 1.03817 0.28148
C39 C 1.3028(5) 0.8511(4) 0.2881(3)
H12 H 1.27965 0.79262 0.31796
C40 C 0.5383(5) 0.6579(4) 0.3909(2)
H13 H 0.61527 0.68865 0.37995
C41 C 1.4723(6) 0.8995(5) 0.4731(3)
H14 H 1.54473 0.91482 0.48692
C42 C 1.4675(6) 0.9137(5) 0.4060(3)
H15 H 1.53740 0.94028 0.37378
C43 C 1.3529(5) 0.8316(4) 0.7073(3)
H16 H 1.40057 0.83828 0.73896
C44 C 0.5092(5) 0.6452(4) 0.5173(2)
C45 C 1.2646(6) 0.8471(4) 0.4317(2)
H17 H 1.19546 0.82673 0.41850
C46 C 0.2798(5) 0.5568(4) 0.6831(2)
C47 C 1.2341(5) 0.7813(3) 0.8516(2)
H18 H 1.32091 0.79712 0.84011
C48 C 1.3542(5) 0.9121(4) 0.3114(2)
C49 C 1.4086(5) 1.1147(4) 0.1522(2)
C50 C 0.3604(5) 0.5891(4) 0.4740(2)
C51 C 1.3212(6) 0.9593(4) 0.1770(2)
H19 H 1.30966 0.97489 0.13151
C52 C 1.2847(5) 0.8743(4) 0.2216(2)
C53 C 1.0386(5) 0.7568(4) 0.8211(2)
H20 H 0.99058 0.75459 0.78809
C54 C 0.3736(5) 0.5924(4) 0.3597(3)
H21 H 0.33823 0.57829 0.32630
C55 C 1.1700(6) 0.7957(5) 0.5577(3)
C56 C 0.1945(5) 0.5218(4) 0.6554(2)
H22 H 0.12193 0.49286 0.68378
C57 C 0.2126(5) 0.5279(5) 0.5875(3)
H23 H 0.15391 0.50271 0.57031
C58 C 1.4074(6) 0.8536(5) 0.6404(3)
H24 H 1.49081 0.87566 0.62689
N1 N 1.2252(6) 0.3904(4) 0.2893(3)
C59 C 1.2309(7) 0.4625(5) 0.2351(4)
H25 H 1.26867 0.45321 0.19321
C60 C 1.1669(8) 0.4009(6) 0.3568(4)
C61 C 1.2751(9) 0.2964(6) 0.2876(4)
Dy1* Dy 0.57288(2) 0.69960(2) -0.07048(2)
Dy1** Dy 1.57288(2) 0.69960(2) 0.92952(2)
Dy1A Dy 1.42712(2) 1.30040(2) 0.07048(2)
Dy2* Dy 0.15367(2) 0.67929(2) 0.14396(2)
Dy2** Dy 1.15367(2) 0.67929(2) 1.14396(2)
Dy2A Dy -0.15367(2) 0.32071(2) 0.85604(2)
O3* O 0.5433(3) 0.6592(3) 1.04521(16)
O5* O 1.1928(3) 0.7484(3) 0.02985(16)
O8A O 0.5478(3) 0.8304(3) 0.82544(16)
O11A O 1.0773(4) 0.5559(3) 0.12536(18)
O12* O 1.3652(3) 0.6379(3) 0.11983(16)
O14* O 0.3696(3) 0.7793(2) 0.95435(15)
O15A O 0.6103(4) 0.8652(3) 0.90758(17)
#END
