
#######################################################################
#
#                 Cambridge Crystallographic Data Centre
#                                CCDC
#
#######################################################################
#
# If this CIF has been generated from an entry in the Cambridge
# Structural Database, then it will include bibliographic, chemical,
# crystal, experimental, refinement or atomic coordinate data resulting
# from the CCDC's data processing and validation procedures.
#
#######################################################################

data_CSD_CIF_BIRBIQ
_audit_creation_date 2018-12-06
_audit_creation_method CSD-ConQuest-V1
_database_code_CSD BIRBIQ
_database_code_depnum_ccdc_archive 'CCDC 1516440'
_chemical_formula_sum 'C68 H70 Eu2 N4 O28'
_chemical_formula_moiety
;
(C61 H33 Eu2 N1 O20 2-)n,2n(C2 H8 N1 1+),n(C3 H7 N1 O1),7n(H2 O1)
;
_journal_coden_Cambridge 1350
_journal_volume 21
_journal_year 2019
_journal_page_first 321
_journal_name_full 'CrystEngComm '
loop_
_publ_author_name
"Yan Yang"
"Lian Chen"
"Feilong Jiang"
"Mingyan Wu"
"Jiandong Pang"
"Xiuyan Wan"
"Maochun Hong"
_chemical_name_systematic
;
catena-(bis(dimethylammonium) 
bis(\m-5,5'-(9-oxo-9H-fluorene-2,7-diyl)bis(benzene-1,3-dicarboxylato))-aqua-d
imethylformamide-di-europium(iii) dimethylformamide solvate heptahydrate)
;
_cell_volume   3260.135
_exptl_crystal_colour 'light yellow'
_exptl_crystal_description 'block'
_diffrn_ambient_temperature 100
_refine_special_details
;
The SQUEEZE/PLATON program was used to model the cations and solvent 
molecules.
;
#These two values have been output from a single CSD field.
_refine_ls_R_factor_gt 0.0433
_refine_ls_wR_factor_gt 0.0433
_symmetry_cell_setting triclinic
_symmetry_space_group_name_H-M 'P -1'
_symmetry_Int_Tables_number 2
loop_
_symmetry_equiv_pos_site_id
_symmetry_equiv_pos_as_xyz
1 x,y,z
2 -x,-y,-z
_cell_length_a 10.5930(4)
_cell_length_b 15.5318(8)
_cell_length_c 21.2702(9)
_cell_angle_alpha 71.268(4)
_cell_angle_beta 79.790(3)
_cell_angle_gamma 85.077(4)
_cell_formula_units_Z 2
loop_
_atom_type_symbol
_atom_type_radius_bond
C 0.68
H 0.23
Eu 1.98
N 0.68
O 0.68
loop_
_atom_site_label
_atom_site_type_symbol
_atom_site_fract_x
_atom_site_fract_y
_atom_site_fract_z
Eu1 Eu -0.41254(2) 0.69353(2) 0.92803(2)
Eu2 Eu 0.17223(2) 0.67261(2) 0.14162(2)
O1 O -0.4394(3) 0.6540(2) 0.04406(14)
O2 O -0.0295(3) 0.6738(3) 0.21850(15)
O3 O 0.2227(3) 0.7293(2) 0.22837(14)
O4 O -0.2006(3) 0.7044(2) 0.95831(14)
O5 O 0.4308(3) 1.1765(2) 0.17392(14)
O6 O -0.4783(3) 0.6397(2) 0.84254(13)
O7 O 0.3886(3) 0.7676(2) 0.95227(13)
O8 O -0.2027(3) 0.7038(2) 0.85511(14)
O9 O -0.5873(3) 0.5889(2) 0.94392(13)
O10 O -0.0387(3) 0.7381(3) 0.11074(15)
O11 O 0.3703(3) 1.1447(2) 0.08962(14)
O12 O -0.3216(3) 0.5438(2) 0.94822(14)
O13 O -1.0820(3) 0.4487(2) 0.87285(15)
O14 O 0.1986(3) 0.5439(2) 0.23673(15)
O15 O 0.2392(5) 0.8254(3) 0.12711(17)
O16 O -1.0538(3) 0.4886(3) 0.95758(15)
O17 O -0.3877(4) 0.6820(4) 0.52060(18)
C1 C -0.5732(4) 0.5973(3) 0.8819(2)
C2 C 0.2524(5) 0.8044(3) 0.1885(2)
C3 C 0.3821(5) 0.8606(4) 0.5138(2)
C4 C -0.7875(4) 0.5337(3) 0.89247(18)
H1 H -0.80297 0.52768 0.93904
C5 C -0.1427(4) 0.7107(3) 0.8997(2)
C6 C 0.3722(4) 1.0247(3) 0.1942(2)
C7 C -0.4300(4) 0.6623(3) 0.1522(2)
C8 C -0.6474(4) 0.5707(3) 0.7854(2)
H2 H -0.56634 0.59024 0.75947
C9 C -0.8586(4) 0.5209(3) 0.79423(19)
H3 H -0.92419 0.50686 0.77423
C10 C -0.4301(4) 0.6564(3) 0.26858(19)
C11 C 0.1860(4) 0.7724(3) 0.79642(19)
C12 C -0.3009(4) 0.6836(3) 0.13573(19)
H4 H -0.25710 0.69318 0.09113
C13 C -0.0031(4) 0.7296(3) 0.8819(2)
C14 C 0.3686(5) 0.8297(4) 0.7012(2)
H5 H 0.41613 0.83866 0.73238
C15 C -0.4984(4) 0.6352(3) 0.33935(19)
C16 C 0.2462(4) 0.7944(3) 0.7247(2)
C17 C -0.4928(4) 0.6493(3) 0.2179(2)
H6 H -0.58112 0.63506 0.22854
C18 C -0.2362(4) 0.6909(3) 0.1859(2)
C19 C -0.0946(4) 0.7033(3) 0.1707(2)
C20 C -0.5896(4) 0.6078(3) 0.5711(2)
C21 C -0.7412(4) 0.5497(3) 0.7544(2)
C22 C 0.2712(4) 0.7495(3) 0.96891(19)
C23 C -0.6079(5) 0.6017(3) 0.6383(2)
H7 H -0.54811 0.62716 0.65525
C24 C -0.6754(5) 0.5710(4) 0.5441(2)
C25 C -0.3005(4) 0.6767(3) 0.2516(2)
H8 H -0.25512 0.68106 0.28513
C26 C -0.6795(5) 0.5655(4) 0.4239(2)
H9 H -0.75770 0.53434 0.43525
C27 C 0.3012(5) 0.8733(3) 0.2136(2)
C28 C 0.2339(5) 0.8028(4) 0.6106(2)
C29 C -0.6704(4) 0.5637(3) 0.85384(19)
C30 C 0.3546(5) 0.8417(3) 0.5882(2)
C31 C 0.0672(4) 0.7276(3) 0.93224(19)
H10 H 0.02778 0.71066 0.97803
C32 C 0.1799(5) 0.7792(4) 0.6773(2)
H11 H 0.09797 0.75261 0.69152
C33 C -0.7157(4) 0.5574(3) 0.6814(2)
C34 C 0.0559(4) 0.7495(3) 0.8162(2)
H12 H 0.00747 0.74772 0.78309
C35 C 0.2754(5) 0.8442(4) 0.4259(2)
H13 H 0.20591 0.82236 0.41321
C36 C -0.5009(4) 0.6499(3) 0.1004(2)
C37 C -0.8826(4) 0.5123(3) 0.86256(19)
C38 C 0.3744(5) 0.8893(3) 0.3776(2)
C39 C -1.0118(4) 0.4802(3) 0.89995(19)
C40 C 0.2798(5) 0.8318(4) 0.4931(2)
C41 C 0.3935(4) 1.1214(3) 0.1497(2)
C42 C 0.3274(5) 0.9610(3) 0.1701(2)
H14 H 0.31499 0.97725 0.12456
C43 C -0.4493(4) 0.6590(3) 0.3886(2)
H15 H -0.37199 0.69124 0.37727
C44 C -0.6293(5) 0.5881(4) 0.4722(2)
C45 C 0.1954(4) 0.7507(3) 0.91437(19)
C46 C 0.4849(6) 0.9013(4) 0.4662(2)
H16 H 0.55798 0.91789 0.47931
C47 C 0.3651(5) 0.9122(3) 0.3047(2)
C48 C -0.7819(5) 0.5266(4) 0.5859(2)
H17 H -0.84067 0.50048 0.56878
C49 C 0.3920(5) 0.9993(3) 0.2609(2)
H18 H 0.42444 1.04226 0.27680
C50 C 0.4779(5) 0.9171(4) 0.3981(2)
H19 H 0.54563 0.94776 0.36490
C51 C 0.3205(5) 0.8488(3) 0.2802(2)
H20 H 0.30326 0.78873 0.30911
C52 C -0.4821(5) 0.6480(4) 0.5161(2)
C53 C -0.5149(5) 0.6348(3) 0.4537(2)
C54 C 0.2536(4) 0.7737(3) 0.84714(19)
H21 H 0.34084 0.79056 0.83550
C55 C 0.4231(5) 0.8520(4) 0.6341(2)
H22 H 0.50760 0.87428 0.61999
C56 C -0.6131(5) 0.5895(4) 0.3582(2)
H23 H -0.64756 0.57395 0.32516
C57 C -0.8009(5) 0.5211(3) 0.6537(2)
H24 H -0.87447 0.49159 0.68233
C58 C 0.2367(6) 0.4614(5) 0.2369(3)
H25 H 0.27490 0.45177 0.19573
C59 C 0.2660(8) 0.2984(6) 0.2924(4)
C60 C 0.1827(5) 0.7915(4) 0.5529(2)
N1 N 0.2241(6) 0.3913(4) 0.2923(2)
C61 C 0.1663(8) 0.4028(6) 0.3581(3)
O18 O -0.6188(3) 0.6336(3) 0.11895(14)
O19 O 0.2089(3) 0.7330(3) 1.02703(14)
O20 O 0.0795(6) 0.7637(6) 0.5548(2)
Eu1* Eu -0.41254(2) 0.69353(2) -0.07197(2)
Eu1** Eu 0.58746(2) 0.69353(2) 0.92803(2)
Eu1A Eu 0.41254(2) 1.30647(2) 0.07197(2)
Eu2* Eu -0.82777(2) 0.67261(2) 0.14162(2)
Eu2** Eu 0.17223(2) 0.67261(2) 1.14162(2)
Eu2A Eu -1.17223(2) 0.32739(2) 0.85838(2)
O1* O -0.4394(3) 0.6540(2) 1.04406(14)
O5A O -0.4308(3) 0.8235(2) 0.82608(14)
O7* O -0.6114(3) 0.7676(2) 0.95227(13)
O11A O -0.3703(3) 0.8553(2) 0.91038(14)
O13A O 0.0820(3) 0.5513(2) 0.12715(15)
O18* O 0.3812(3) 0.6336(3) 0.11895(14)
O19* O 0.2089(3) 0.7330(3) 0.02703(14)
#END
