
#######################################################################
#
#                 Cambridge Crystallographic Data Centre
#                                CCDC
#
#######################################################################
#
# If this CIF has been generated from an entry in the Cambridge
# Structural Database, then it will include bibliographic, chemical,
# crystal, experimental, refinement or atomic coordinate data resulting
# from the CCDC's data processing and validation procedures.
#
#######################################################################

data_CSD_CIF_BIRCAJ
_audit_creation_date 2018-12-06
_audit_creation_method CSD-ConQuest-V1
_database_code_CSD BIRCAJ
_database_code_depnum_ccdc_archive 'CCDC 1873262'
_chemical_formula_sum 'C68 H70 Gd2 N4 O28'
_chemical_formula_moiety
;
(C61 H33 Gd2 N1 O20 2-)n,2n(C2 H8 N1 1+),n(C3 H7 N1 O1),7n(H2 O1)
;
_journal_coden_Cambridge 1350
_journal_volume 21
_journal_year 2019
_journal_page_first 321
_journal_name_full 'CrystEngComm '
loop_
_publ_author_name
"Yan Yang"
"Lian Chen"
"Feilong Jiang"
"Mingyan Wu"
"Jiandong Pang"
"Xiuyan Wan"
"Maochun Hong"
_chemical_name_systematic
;
catena-(bis(dimethylammonium) 
bis(\m-5,5'-(9-oxo-9H-fluorene-2,7-diyl)bis(benzene-1,3-dicarboxylato))-aqua-d
imethylformamide-di-gadolinium(iii) dimethylformamide solvate heptahydrate)
;
_cell_volume   3205.436
_exptl_crystal_colour 'light yellow'
_exptl_crystal_description 'block'
_diffrn_ambient_temperature 173
_refine_special_details
;
The SQUEEZE/PLATON program was used to model the cations and solvent 
molecules.
;
#These two values have been output from a single CSD field.
_refine_ls_R_factor_gt 0.0817
_refine_ls_wR_factor_gt 0.0817
_symmetry_cell_setting triclinic
_symmetry_space_group_name_H-M 'P -1'
_symmetry_Int_Tables_number 2
loop_
_symmetry_equiv_pos_site_id
_symmetry_equiv_pos_as_xyz
1 x,y,z
2 -x,-y,-z
_cell_length_a 10.6040(3)
_cell_length_b 15.2602(6)
_cell_length_c 21.2690(8)
_cell_angle_alpha 71.882(4)
_cell_angle_beta 79.392(3)
_cell_angle_gamma 82.535(3)
_cell_formula_units_Z 2
loop_
_atom_type_symbol
_atom_type_radius_bond
C 0.68
H 0.23
Gd 1.96
N 0.68
O 0.68
loop_
_atom_site_label
_atom_site_type_symbol
_atom_site_fract_x
_atom_site_fract_y
_atom_site_fract_z
Gd1 Gd 0.57436(5) 0.19890(4) 0.92923(2)
Gd2 Gd 1.15351(5) 0.17985(4) 0.14406(2)
O1 O 1.1869(8) 0.0461(6) 0.2380(4)
O2 O 0.5122(6) 0.1411(5) 0.8429(3)
O3 O 1.2034(7) 0.2307(5) 0.2363(4)
O4 O 1.4492(7) 0.6701(6) 0.1754(3)
O5 O 0.9516(7) 0.1848(6) 0.2193(4)
O6 O 0.7866(7) 0.2071(6) 0.8589(4)
O7 O 1.3705(6) 0.2797(5) 0.9539(3)
O8 O 0.6757(6) 0.0434(5) 0.9490(3)
O9 O 1.1934(7) 0.2514(5) 1.0278(3)
O10 O 0.5455(7) 0.1574(6) 0.0471(3)
O11 O 0.7864(7) 0.2096(5) 0.9619(3)
O12 O 0.3665(7) 0.1386(6) 0.1202(4)
O13 O 1.2063(9) 0.3333(6) 0.1371(4)
O14 O -0.0768(7) -0.0552(6) 0.8740(4)
O15 O 1.3875(7) 0.6359(6) 0.0933(3)
O16 O 0.4030(6) 0.0923(5) 0.9447(3)
O17 O 0.6037(9) 0.1786(8) 0.5221(4)
O18 O 0.9373(8) 0.2427(7) 0.1131(4)
O19 O -0.0533(7) -0.0121(8) 0.9579(4)
C1 C 0.6818(9) 0.1872(7) 0.1378(5)
H1 H 0.72510 0.19770 0.09310
C2 C 1.3919(11) 0.4963(7) 0.2664(5)
H2 H 1.42960 0.53790 0.28140
C3 C 0.1166(9) 0.0108(7) 0.8631(5)
C4 C 1.2548(9) 0.2617(7) 0.9708(5)
C5 C 0.9833(9) 0.2352(7) 0.8867(5)
C6 C 1.3740(11) 0.5206(7) 0.2001(5)
C7 C 0.7433(10) 0.1935(7) 0.1875(5)
C8 C 0.5548(9) 0.1651(7) 0.1546(5)
C9 C 0.4920(9) 0.1500(8) 0.2199(5)
H3 H 0.40530 0.13400 0.23060
O20 O 1.0729(10) 0.2632(9) 0.5587(5)
C10 C 0.681(1) 0.1796(7) 0.2529(5)
H4 H 0.72640 0.18520 0.28580
C11 C 1.2379(9) 0.2809(7) 0.8517(5)
H5 H 1.32490 0.29630 0.84050
C12 C 0.4211(9) 0.1002(8) 0.8826(5)
C13 C 1.3207(11) 0.4590(7) 0.1776(5)
H6 H 1.30850 0.47490 0.13210
C14 C 1.1775(9) 0.2604(7) 0.9174(5)
C15 C -0.0097(10) -0.0219(7) 0.9021(5)
C16 C 1.3557(11) 0.4121(7) 0.3118(5)
C17 C 0.885(1) 0.2100(7) 0.1720(5)
C18 C 0.3467(9) 0.0697(7) 0.7870(5)
H7 H 0.42690 0.08900 0.76130
C19 C 0.2078(9) 0.0344(7) 0.8932(5)
H8 H 0.19120 0.03000 0.93950
C20 C 0.3252(9) 0.0650(6) 0.8540(5)
C21 C 0.8445(10) 0.2164(8) 0.9033(5)
C22 C 0.5548(9) 0.1580(8) 0.2709(5)
C23 C 1.0528(10) 0.2373(7) 0.9357(5)
H9 H 1.01400 0.22290 0.98140
C24 C 1.1688(10) 0.2787(7) 0.8011(5)
C25 C 0.4842(10) 0.1543(6) 0.1016(5)
C26 C 1.230(1) 0.2999(8) 0.7294(5)
C27 C 1.0405(10) 0.2575(8) 0.8201(5)
H10 H 0.99130 0.25850 0.78680
C28 C 0.4884(10) 0.1361(7) 0.3408(5)
C29 C 1.3535(11) 0.3312(9) 0.7072(5)
H11 H 1.40100 0.33690 0.73930
C30 C 0.4745(10) 0.1319(8) 0.4562(5)
C31 C 0.2793(9) 0.0559(8) 0.6833(5)
C32 C 1.2276(11) 0.3093(7) 0.1970(5)
C33 C 0.3874(10) 0.0979(7) 0.6400(5)
H12 H 0.44760 0.12190 0.65710
C34 C 0.317(1) 0.0709(9) 0.5454(5)
C35 C 0.1403(10) 0.0188(7) 0.7952(5)
H13 H 0.07580 0.00430 0.77520
C36 C 0.5378(10) 0.1576(8) 0.3905(5)
H14 H 0.61390 0.18930 0.37950
C37 C 1.3714(10) 0.3608(7) 0.5198(5)
C38 C 0.2572(10) 0.0477(7) 0.7551(5)
C39 C 0.4051(10) 0.1041(7) 0.5733(5)
C40 C 1.3033(11) 0.3518(7) 0.2881(5)
H15 H 1.27920 0.29370 0.31780
C41 C 1.1672(10) 0.2838(7) 0.6818(5)
H16 H 1.08670 0.25730 0.69520
C42 C 1.3419(10) 0.3437(8) 0.5935(5)
C43 C 0.3612(10) 0.0885(8) 0.4735(5)
C44 C 0.3738(10) 0.0911(9) 0.3598(5)
H17 H 0.33840 0.07670 0.32660
C45 C 1.2858(10) 0.3753(7) 0.2215(5)
C46 C 0.3104(11) 0.0668(10) 0.4255(5)
H18 H 0.23360 0.03580 0.43710
C47 C 1.2227(11) 0.3064(8) 0.6164(5)
C48 C 1.4068(11) 0.6125(8) 0.1537(5)
C49 C 1.3658(12) 0.3896(8) 0.3843(5)
C50 C 1.4103(11) 0.3544(9) 0.6399(5)
H19 H 1.49350 0.37680 0.62640
C51 C 1.1724(11) 0.2939(9) 0.5583(5)
C52 C 1.4718(12) 0.4002(10) 0.4728(6)
H20 H 1.54290 0.41780 0.48620
C53 C 1.4680(12) 0.4139(8) 0.4056(6)
H21 H 1.53770 0.44070 0.37330
C54 C 1.2684(11) 0.3351(7) 0.4979(5)
C55 C 0.2121(10) 0.0283(9) 0.5875(5)
H22 H 0.15180 0.00480 0.57020
C56 C 1.2656(12) 0.3472(8) 0.4321(5)
H23 H 1.19640 0.32700 0.41880
C57 C 0.5105(11) 0.1451(8) 0.5181(5)
C58 C 0.1961(10) 0.0205(9) 0.6552(5)
H24 H 0.12520 -0.01050 0.68370
N1 N 1.2259(13) -0.1083(11) 0.2890(7)
C59 C 1.1666(18) -0.1039(14) 0.3594(9)
C60 C 1.2770(19) -0.2019(13) 0.2862(10)
C61 C 1.2313(16) -0.0375(16) 0.2361(8)
H25 H 1.26890 -0.04630 0.19420
Gd1* Gd 0.57436(5) 0.19890(4) -0.07077(2)
Gd1** Gd 1.57436(5) 0.19890(4) 0.92923(2)
Gd1A Gd 1.42564(5) 0.80110(4) 0.07077(2)
Gd2* Gd 0.15351(5) 0.17985(4) 0.14406(2)
Gd2** Gd 1.15351(5) 0.17985(4) 1.14406(2)
Gd2A Gd -0.15351(5) -0.17985(4) 0.85594(2)
O4A O 0.5508(7) 0.3299(6) 0.8246(3)
O7* O 0.3705(6) 0.2797(5) 0.9539(3)
O9* O 1.1934(7) 0.2514(5) 0.0278(3)
O10* O 0.5455(7) 0.1574(6) 1.0471(3)
O12* O 1.3665(7) 0.1386(6) 0.1202(4)
O14A O 1.0768(7) 0.0552(6) 0.1260(4)
O15A O 0.6125(7) 0.3641(6) 0.9067(3)
#END
