
#######################################################################
#
#                 Cambridge Crystallographic Data Centre
#                                CCDC
#
#######################################################################
#
# If this CIF has been generated from an entry in the Cambridge
# Structural Database, then it will include bibliographic, chemical,
# crystal, experimental, refinement or atomic coordinate data resulting
# from the CCDC's data processing and validation procedures.
#
#######################################################################

data_CSD_CIF_BIXHAT
_audit_creation_date 2014-05-06
_audit_creation_method CSD-ConQuest-V1
_database_code_CSD BIXHAT
_database_code_depnum_ccdc_archive 'CCDC 940807'
_chemical_formula_sum 'C19 H13 F6 Li1 N10'
_chemical_formula_moiety
;
(C12 F6 Li1 N8 1-)n,n(C7 H13 N2 1+)
;
_journal_coden_Cambridge 1326
_journal_volume 16
_journal_year 2014
_journal_page_first 11417
_journal_name_full 'Phys.Chem.Chem.Phys.(PCCP) '
loop_
_publ_author_name
"L.Niedzicki"
"E.Karpierz"
"M.Zawadzki"
"M.Dranka"
"M.Kasprzyk"
"A.Zalewska"
"M.Marcinek"
"J.Zachara"
"U.Domanska"
"W.Wieczorek"
_chemical_name_systematic
;
catena-[3-methyl-1-propyl-1H-imidazol-3-ium 
(\m~2~-4,5-dicyano-2-(trifluoromethyl)-1H-imidazol-1-yl)-(\m~2~-4,5-dicyano-2-
(trifluoromethyl)-1H-imidazol-1-ido)-lithium]
;
_cell_volume   1113.425
_exptl_crystal_colour 'colorless'
_exptl_crystal_density_diffrn 1.498
_exptl_special_details
;
Moisture-sensitive

;
_exptl_crystal_description 'rhombohedral'
_diffrn_ambient_temperature 100
#These two values have been output from a single CSD field.
_refine_ls_R_factor_gt 0.0275
_refine_ls_wR_factor_gt 0.0275
_symmetry_cell_setting triclinic
_symmetry_space_group_name_H-M 'P -1'
_symmetry_Int_Tables_number 2
loop_
_symmetry_equiv_pos_site_id
_symmetry_equiv_pos_as_xyz
1 x,y,z
2 -x,-y,-z
_cell_length_a 8.28368(13)
_cell_length_b 11.45842(18)
_cell_length_c 12.57923(20)
_cell_angle_alpha 74.9663(14)
_cell_angle_beta 77.5238(13)
_cell_angle_gamma 78.6965(13)
_cell_formula_units_Z 2
loop_
_atom_type_symbol
_atom_type_radius_bond
C 0.68
H 0.23
F 0.64
Li 1.28
N 0.68
loop_
_atom_site_label
_atom_site_type_symbol
_atom_site_fract_x
_atom_site_fract_y
_atom_site_fract_z
F1 F 0.40736(9) 0.89843(6) 0.18475(6)
F2 F 0.66713(9) 0.89327(6) 0.10942(6)
F3 F 0.48989(10) 0.87050(6) 0.01697(6)
F4 F 0.65509(8) -0.06232(6) 0.63472(6)
F5 F 0.48903(9) -0.19193(6) 0.65276(6)
F6 F 0.49314(9) -0.11681(6) 0.79112(6)
N1 N 0.52839(11) 0.65946(8) 0.27473(8)
N2 N 0.62374(12) 0.63134(9) 0.09668(8)
N3 N 0.75780(15) 0.32354(10) 0.10121(9)
N4 N 0.58242(12) 0.36817(9) 0.45872(8)
N5 N 0.39573(12) 0.13081(9) 0.61261(8)
N6 N 0.21646(12) -0.00759(9) 0.64164(8)
N7 N -0.17611(12) 0.16254(9) 0.59196(8)
N8 N 0.17522(13) 0.42562(10) 0.52498(10)
C1 C 0.55822(14) 0.70795(10) 0.16430(9)
C2 C 0.63774(14) 0.52122(10) 0.17043(10)
C3 C 0.58038(13) 0.53773(10) 0.27888(9)
C4 C 0.70365(15) 0.41064(11) 0.13326(10)
C5 C 0.57879(13) 0.44547(10) 0.37993(9)
C6 C 0.52988(15) 0.84265(11) 0.11841(9)
C7 C 0.36886(14) 0.01358(10) 0.64221(9)
C8 C 0.13564(14) 0.10741(11) 0.60774(9)
C9 C 0.24409(14) 0.19159(10) 0.58999(9)
C10 C -0.03691(15) 0.13471(10) 0.59769(9)
C11 C 0.20836(14) 0.32135(11) 0.55378(10)
C12 C 0.50124(15) -0.08936(10) 0.68008(10)
Li1 Li 0.5766(2) 0.23544(17) 0.60327(16)
N9 N 0.11943(12) 0.41002(10) 0.23050(8)
N10 N 0.08625(12) 0.23771(9) 0.20479(8)
C13 C 0.16604(15) 0.33353(11) 0.16199(10)
H1 H 0.24360 0.34570 0.09380
C14 C -0.01543(15) 0.25266(11) 0.30415(10)
H2 H -0.08660 0.19770 0.35210
C15 C 0.00537(15) 0.36046(12) 0.32044(10)
H3 H -0.04830 0.39550 0.38210
C16 C 0.10044(17) 0.13407(12) 0.15358(11)
H4 H 0.15350 0.06000 0.19980
H5 H 0.16850 0.15050 0.07870
H6 H -0.01120 0.12240 0.14790
C17 C 0.16924(16) 0.53147(12) 0.20979(11)
H7 H 0.27260 0.53620 0.15300
H8 H 0.19410 0.54290 0.27960
C18 C 0.03351(16) 0.63319(12) 0.16934(11)
H9 H -0.06940 0.62980 0.22660
H10 H 0.00730 0.62150 0.10000
C19 C 0.08938(18) 0.75752(12) 0.14676(11)
H11 H 0.12410 0.76630 0.21360
H12 H -0.00360 0.82200 0.12790
H13 H 0.18360 0.76430 0.08420
N1A N 0.47161(11) 0.34054(8) 0.72527(8)
N7* N 0.82389(12) 0.16254(9) 0.59196(8)
Li1* Li -0.4234(2) 0.23544(17) 0.60327(16)
Li1A Li 0.4234(2) 0.76456(17) 0.39673(16)
#END
