
#######################################################################
#
#                 Cambridge Crystallographic Data Centre
#                                CCDC
#
#######################################################################
#
# If this CIF has been generated from an entry in the Cambridge
# Structural Database, then it will include bibliographic, chemical,
# crystal, experimental, refinement or atomic coordinate data resulting
# from the CCDC's data processing and validation procedures.
#
#######################################################################

data_CSD_CIF_BIXXUD
_audit_creation_date 2014-05-07
_audit_creation_method CSD-ConQuest-V1
_database_code_CSD BIXXUD
_database_code_depnum_ccdc_archive 'CCDC 828025'
_chemical_formula_sum 'C30 H35 K4 La3 N12 O74 Si1 W12'
_chemical_formula_moiety
;
(C30 H21 La3 N12 O67 Si1 W12 4-)n,4n(K1 1+),7n(H2 O1)
;
_journal_coden_Cambridge 1350
_journal_volume 16
_journal_year 2014
_journal_page_first 5150
_journal_name_full 'CrystEngComm '
loop_
_publ_author_name
"Guang-Gang Gao"
"Chao-Yu Song"
"Xi-Ming Zong"
"Dong-Feng Chai"
"Hong Liu"
"Yu-Long Zou"
"Jian-Xun Liu"
"Yun-Feng Qiu"
_chemical_name_systematic
;
catena-[tetra-potassium 
(\m~12~-silicato)-tris(\m~2~-1H-imidazole-4,5-dicarboxylato)-triacontakis(\m~2
~-oxo)-tris(5-carboxy-1H-imidazole-4-carboxylato)-triaqua-hexaoxo-tri-lanthanu
m-dodeca-tungsten heptahydrate]
;
_cell_volume  11865.285
_exptl_crystal_colour 'yellow'
_exptl_crystal_density_diffrn 3.824
_exptl_crystal_description 'block'
_diffrn_ambient_temperature 296
#These two values have been output from a single CSD field.
_refine_ls_R_factor_gt 0.0327
_refine_ls_wR_factor_gt 0.0327
_symmetry_cell_setting rhombohedral
_symmetry_space_group_name_H-M 'R -3'
_symmetry_Int_Tables_number 148
loop_
_symmetry_equiv_pos_site_id
_symmetry_equiv_pos_as_xyz
1 x,y,z
2 -y,x-y,z
3 -x+y,-x,z
4 2/3+x,1/3+y,1/3+z
5 2/3-y,1/3+x-y,1/3+z
6 2/3-x+y,1/3-x,1/3+z
7 1/3+x,2/3+y,2/3+z
8 1/3-y,2/3+x-y,2/3+z
9 1/3-x+y,2/3-x,2/3+z
10 -x,-y,-z
11 y,-x+y,-z
12 x-y,x,-z
13 -2/3-x,-1/3-y,-1/3-z
14 -2/3+y,-1/3-x+y,-1/3-z
15 -2/3+x-y,-1/3+x,-1/3-z
16 -1/3-x,-2/3-y,-2/3-z
17 -1/3+y,-2/3-x+y,-2/3-z
18 -1/3+x-y,-2/3+x,-2/3-z
_cell_length_a 22.0842(2)
_cell_length_b 22.0842(2)
_cell_length_c 28.0921(6)
_cell_angle_alpha 90
_cell_angle_beta 90
_cell_angle_gamma 120
_cell_formula_units_Z 6
loop_
_atom_type_symbol
_atom_type_radius_bond
C 0.68
H 0.23
K 2.03
La 2.07
N 0.68
O 0.68
Si 1.20
W 1.62
loop_
_atom_site_label
_atom_site_type_symbol
_atom_site_fract_x
_atom_site_fract_y
_atom_site_fract_z
Si1 Si 0.66670 0.33330 0.1503(2)
W1 W 0.71508(2) 0.43470(2) 0.255271(18)
W2 W 0.51147(2) 0.33955(2) 0.148829(18)
W3 W 0.60949(2) 0.38708(2) 0.049199(18)
W4 W 0.66337(2) 0.49074(2) 0.146506(18)
La1 La 0.64247(3) 0.66089(3) 0.19302(3)
O1 O 0.6274(4) 0.3737(4) 0.1306(3)
O2 O 0.66670 0.33330 0.2083(5)
O3 O 0.7477(4) 0.3750(4) 0.2817(3)
O4 O 0.7456(4) 0.4990(5) 0.2955(3)
O5 O 0.6738(4) 0.4677(4) 0.2096(3)
O6 O 0.4294(4) 0.3278(4) 0.1551(3)
O7 O 0.5637(4) 0.4379(4) 0.1575(3)
O8 O 0.6750(4) 0.5735(4) 0.1521(3)
O9 O 0.6420(4) 0.4761(4) 0.0802(3)
O10 O 0.5225(4) 0.3563(4) 0.0809(3)
O11 O 0.4921(4) 0.2458(4) 0.1350(3)
O12 O 0.5916(4) 0.4065(4) -0.0050(3)
O13 O 0.5881(4) 0.2936(4) 0.0428(3)
O14 O 0.5313(4) 0.3236(4) 0.2105(3)
O15 O 0.5324(4) 0.5674(4) 0.1561(3)
O16 O 0.4329(4) 0.4677(4) 0.1539(3)
O17 O 0.3570(4) 0.3642(4) 0.2255(3)
O18 O 0.3969(4) 0.3280(4) 0.2847(3)
O19 O 0.6776(4) 0.7143(5) 0.2750(3)
O20 O 0.7503(4) 0.7596(4) 0.3355(3)
O21 O 0.8672(5) 0.7808(5) 0.3594(3)
H1 H 0.82820 0.77320 0.35180
O22 O 0.9405(5) 0.7466(5) 0.3356(4)
O23 O 0.5373(4) 0.6565(5) 0.2382(4)
N1 N 0.5730(5) 0.5394(4) 0.2390(3)
N2 N 0.5232(5) 0.4476(5) 0.2854(4)
H2 H 0.51790 0.41980 0.30850
N3 N 0.7491(5) 0.6533(5) 0.2403(4)
N4 N 0.8494(5) 0.6639(5) 0.2634(4)
H3 H 0.88530 0.65850 0.26430
C1 C 0.5813(6) 0.5102(6) 0.2772(5)
H4 H 0.62130 0.52970 0.29600
C2 C 0.5064(6) 0.4932(6) 0.2212(4)
C3 C 0.4739(5) 0.4356(6) 0.2509(4)
C4 C 0.4885(6) 0.5097(6) 0.1751(5)
C5 C 0.4038(6) 0.3707(6) 0.2530(5)
C6 C 0.7968(6) 0.6347(6) 0.2325(5)
H5 H 0.79380 0.60470 0.20830
C7 C 0.8358(6) 0.7038(6) 0.2930(5)
C8 C 0.7741(6) 0.6966(6) 0.2787(5)
C9 C 0.7309(6) 0.7263(6) 0.2975(5)
C10 C 0.8865(7) 0.7466(6) 0.3309(5)
K1 K 0.24482(19) 0.29378(18) 0.28609(16)
K2 K 0.4443(9) 0.5908(8) 0.1007(6)
O24 O 0.1761(16) 0.3650(16) 0.2937(11)
O25 O 0.425(3) 0.714(3) 0.081(2)
O1A O 0.6263(4) 0.2537(4) 0.1306(3)
O1B O 0.7463(4) 0.3726(4) 0.1306(3)
W1A W 0.56530(2) 0.28038(2) 0.255271(18)
W2A W 0.66045(2) 0.17192(2) 0.148829(18)
W3A W 0.61292(2) 0.22241(2) 0.049199(18)
W4A W 0.50926(2) 0.17263(2) 0.146506(18)
La1A La 0.33911(3) -0.01842(3) 0.19302(3)
O3A O 0.6250(4) 0.3727(4) 0.2817(3)
O4A O 0.5010(4) 0.2466(5) 0.2955(3)
O5A O 0.5323(4) 0.2061(4) 0.2096(3)
O6A O 0.6722(4) 0.1016(4) 0.1551(3)
O7A O 0.5621(4) 0.1258(4) 0.1575(3)
O8A O 0.4265(4) 0.1015(4) 0.1521(3)
O9A O 0.5239(4) 0.1659(4) 0.0802(3)
O10A O 0.6437(4) 0.1662(4) 0.0809(3)
O11A O 0.7542(4) 0.2463(4) 0.1350(3)
O12A O 0.5935(4) 0.1851(4) -0.0050(3)
O13A O 0.7064(4) 0.2945(4) 0.0428(3)
O14A O 0.6764(4) 0.2077(4) 0.2105(3)
O15A O 0.4326(4) -0.0350(4) 0.1561(3)
O16A O 0.5323(4) -0.0348(4) 0.1539(3)
O17A O 0.6358(4) -0.0072(4) 0.2255(3)
O18A O 0.6720(4) 0.0689(4) 0.2847(3)
O19A O 0.2857(4) -0.0367(5) 0.2750(3)
O20A O 0.2404(4) -0.0093(4) 0.3355(3)
O21A O 0.2192(5) 0.0864(5) 0.3594(3)
H1A H 0.22680 0.05500 0.35180
O22A O 0.2534(5) 0.1939(5) 0.3356(4)
O23A O 0.3435(4) -0.1192(5) 0.2382(4)
N1A N 0.4606(5) 0.0336(4) 0.2390(3)
N2A N 0.5524(5) 0.0756(5) 0.2854(4)
H2A H 0.58020 0.09810 0.30850
N3A N 0.3467(5) 0.0958(5) 0.2403(4)
N4A N 0.3361(5) 0.1855(5) 0.2634(4)
H3A H 0.34150 0.22680 0.26430
C1A C 0.4898(6) 0.0711(6) 0.2772(5)
H4A H 0.47030 0.09160 0.29600
C2A C 0.5068(6) 0.0132(6) 0.2212(4)
C3A C 0.5644(5) 0.0383(6) 0.2509(4)
C4A C 0.4903(6) -0.0212(6) 0.1751(5)
C5A C 0.6293(6) 0.0331(6) 0.2530(5)
C6A C 0.3653(6) 0.1621(6) 0.2325(5)
H5A H 0.39530 0.18910 0.20830
C7A C 0.2962(6) 0.1320(6) 0.2930(5)
C8A C 0.3034(6) 0.0775(6) 0.2787(5)
C9A C 0.2737(6) 0.0046(6) 0.2975(5)
C10A C 0.2534(7) 0.1399(6) 0.3309(5)
W1B W 0.71962(2) 0.28492(2) 0.255271(18)
W2B W 0.82808(2) 0.48853(2) 0.148829(18)
W3B W 0.77759(2) 0.39051(2) 0.049199(18)
W4B W 0.82737(2) 0.33663(2) 0.146506(18)
La1B La 1.01842(3) 0.35753(3) 0.19302(3)
O3B O 0.6273(4) 0.2523(4) 0.2817(3)
O4B O 0.7534(4) 0.2544(5) 0.2955(3)
O5B O 0.7939(4) 0.3262(4) 0.2096(3)
O6B O 0.8984(4) 0.5706(4) 0.1551(3)
O7B O 0.8742(4) 0.4363(4) 0.1575(3)
O8B O 0.8985(4) 0.3250(4) 0.1521(3)
O9B O 0.8341(4) 0.3580(4) 0.0802(3)
O10B O 0.8338(4) 0.4775(4) 0.0809(3)
O11B O 0.7537(4) 0.5079(4) 0.1350(3)
O12B O 0.8149(4) 0.4084(4) -0.0050(3)
O13B O 0.7055(4) 0.4119(4) 0.0428(3)
O14B O 0.7923(4) 0.4687(4) 0.2105(3)
O15B O 1.0350(4) 0.4676(4) 0.1561(3)
O16B O 1.0348(4) 0.5671(4) 0.1539(3)
O17B O 1.0072(4) 0.6430(4) 0.2255(3)
O18B O 0.9311(4) 0.6031(4) 0.2847(3)
O19B O 1.0367(4) 0.3224(5) 0.2750(3)
O20B O 1.0093(4) 0.2497(4) 0.3355(3)
O21B O 0.9136(5) 0.1328(5) 0.3594(3)
H1B H 0.94500 0.17180 0.35180
O22B O 0.8061(5) 0.0595(5) 0.3356(4)
O23B O 1.1192(4) 0.4627(5) 0.2382(4)
N1B N 0.9664(5) 0.4270(4) 0.2390(3)
N2B N 0.9244(5) 0.4768(5) 0.2854(4)
H2B H 0.90190 0.48210 0.30850
N3B N 0.9042(5) 0.2509(5) 0.2403(4)
N4B N 0.8145(5) 0.1506(5) 0.2634(4)
H3B H 0.77320 0.11470 0.26430
C1B C 0.9289(6) 0.4187(6) 0.2772(5)
H4B H 0.90840 0.37870 0.29600
C2B C 0.9868(6) 0.4936(6) 0.2212(4)
C3B C 0.9617(5) 0.5261(6) 0.2509(4)
C4B C 1.0212(6) 0.5115(6) 0.1751(5)
C5B C 0.9669(6) 0.5962(6) 0.2530(5)
C6B C 0.8379(6) 0.2032(6) 0.2325(5)
H5B H 0.81090 0.20620 0.20830
C7B C 0.8680(6) 0.1642(6) 0.2930(5)
C8B C 0.9225(6) 0.2259(6) 0.2787(5)
C9B C 0.9954(6) 0.2691(6) 0.2975(5)
C10B C 0.8601(7) 0.1135(6) 0.3309(5)
La1O La 1.024197(30) 0.672443(30) 0.140313(30)
La1P La 0.327557(30) 0.351753(30) 0.140313(30)
La1Q La 0.648247(30) -0.024197(30) 0.140313(30)
O6O O 0.237267(400) 0.005533(400) 0.178233(300)
O6P O 0.994467(400) 0.231733(400) 0.178233(300)
O6Q O 0.768267(400) 0.762733(400) 0.178233(300)
O16O O 0.233767(400) -0.134367(400) 0.179433(300)
O16P O 1.134367(400) 0.368133(400) 0.179433(300)
O16Q O 0.631867(400) 0.766233(400) 0.179433(300)
O17O O 0.309667(400) -0.030867(400) 0.107833(300)
O17P O 1.030867(400) 0.340533(400) 0.107833(300)
O17Q O 0.659467(400) 0.690333(400) 0.107833(300)
#END
