
#######################################################################
#
#                 Cambridge Crystallographic Data Centre
#                                CCDC
#
#######################################################################
#
# If this CIF has been generated from an entry in the Cambridge
# Structural Database, then it will include bibliographic, chemical,
# crystal, experimental, refinement or atomic coordinate data resulting
# from the CCDC's data processing and validation procedures.
#
#######################################################################

data_CSD_CIF_BIXYAK
_audit_creation_date 2014-05-07
_audit_creation_method CSD-ConQuest-V1
_database_code_CSD BIXYAK
_database_code_depnum_ccdc_archive 'CCDC 828026'
_chemical_formula_sum 'C30 H33 Ce3 K4 N12 O73 Si1 W12'
_chemical_formula_moiety
;
(C30 H21 Ce3 N12 O67 Si1 W12 4-)n,4(K1 1+),6(H2 O1)
;
_journal_coden_Cambridge 1350
_journal_volume 16
_journal_year 2014
_journal_page_first 5150
_journal_name_full 'CrystEngComm '
loop_
_publ_author_name
"Guang-Gang Gao"
"Chao-Yu Song"
"Xi-Ming Zong"
"Dong-Feng Chai"
"Hong Liu"
"Yu-Long Zou"
"Jian-Xun Liu"
"Yun-Feng Qiu"
_chemical_name_systematic
;
catena-[tetra-potassium 
(\m~12~-silicato)-tris(\m~2~-1H-imidazole-4,5-dicarboxylato)-tricontakis(\m~2~
-oxido)-tris(5-carboxy-1H-imidazole-4-carboxylato)-triaqua-hexaoxo-tri-cerium-
dodeca-tungsten hexahydrate]
;
_cell_volume  11984.616
_exptl_crystal_colour 'yellow'
_exptl_crystal_density_diffrn 3.774
_exptl_crystal_description 'block'
_diffrn_ambient_temperature 296
#These two values have been output from a single CSD field.
_refine_ls_R_factor_gt 0.0227
_refine_ls_wR_factor_gt 0.0227
_symmetry_cell_setting rhombohedral
_symmetry_space_group_name_H-M 'R -3'
_symmetry_Int_Tables_number 148
loop_
_symmetry_equiv_pos_site_id
_symmetry_equiv_pos_as_xyz
1 x,y,z
2 -y,x-y,z
3 -x+y,-x,z
4 2/3+x,1/3+y,1/3+z
5 2/3-y,1/3+x-y,1/3+z
6 2/3-x+y,1/3-x,1/3+z
7 1/3+x,2/3+y,2/3+z
8 1/3-y,2/3+x-y,2/3+z
9 1/3-x+y,2/3-x,2/3+z
10 -x,-y,-z
11 y,-x+y,-z
12 x-y,x,-z
13 -2/3-x,-1/3-y,-1/3-z
14 -2/3+y,-1/3-x+y,-1/3-z
15 -2/3+x-y,-1/3+x,-1/3-z
16 -1/3-x,-2/3-y,-2/3-z
17 -1/3+y,-2/3-x+y,-2/3-z
18 -1/3+x-y,-2/3+x,-2/3-z
_cell_length_a 22.1520(4)
_cell_length_b 22.1520(4)
_cell_length_c 28.2012(12)
_cell_angle_alpha 90
_cell_angle_beta 90
_cell_angle_gamma 120
_cell_formula_units_Z 6
loop_
_atom_type_symbol
_atom_type_radius_bond
C 0.68
H 0.23
Ce 2.04
K 2.03
N 0.68
O 0.68
Si 1.20
W 1.62
loop_
_atom_site_label
_atom_site_type_symbol
_atom_site_fract_x
_atom_site_fract_y
_atom_site_fract_z
Si1 Si 0.66670 0.33330 0.15046(11)
W1 W 0.714373(13) 0.434301(12) 0.255217(8)
W2 W 0.511856(12) 0.339814(12) 0.149015(8)
W3 W 0.608834(13) 0.386433(13) 0.049846(9)
W4 W 0.663034(13) 0.490219(12) 0.146193(9)
Ce1 Ce 0.642807(18) 0.660812(18) 0.192614(13)
O1 O 0.6266(2) 0.3738(2) 0.13090(15)
O2 O 0.66670 0.33330 0.2082(3)
O3 O 0.7473(2) 0.3753(2) 0.28111(15)
O4 O 0.7454(3) 0.4999(2) 0.29561(16)
O5 O 0.6743(2) 0.4672(2) 0.20932(15)
O6 O 0.4291(2) 0.3268(2) 0.15606(17)
O7 O 0.5635(2) 0.4376(2) 0.15739(16)
O8 O 0.6751(2) 0.5730(2) 0.15174(16)
O9 O 0.6424(2) 0.4770(2) 0.07999(16)
O10 O 0.5220(2) 0.3563(2) 0.08148(16)
O11 O 0.4927(2) 0.2468(2) 0.13524(15)
O12 O 0.5908(3) 0.4056(3) -0.00476(16)
O13 O 0.5890(2) 0.2935(2) 0.04352(16)
O14 O 0.5322(2) 0.3234(2) 0.21056(15)
O15 O 0.5328(2) 0.5675(2) 0.15600(18)
O16 O 0.4332(3) 0.4666(2) 0.15366(18)
O17 O 0.3574(2) 0.3648(3) 0.22557(17)
O18 O 0.3976(3) 0.3283(3) 0.28429(19)
O19 O 0.6782(3) 0.7141(3) 0.27454(18)
O20 O 0.7502(3) 0.7597(3) 0.33546(17)
O21 O 0.8673(3) 0.7807(3) 0.35862(19)
H1 H 0.82840 0.77320 0.35110
O22 O 0.9401(3) 0.7465(3) 0.3361(2)
O23 O 0.5382(3) 0.6567(3) 0.23858(19)
N1 N 0.5731(3) 0.5390(3) 0.23862(19)
N2 N 0.5234(3) 0.4478(3) 0.28487(19)
H2 H 0.51800 0.41970 0.30770
N3 N 0.7498(3) 0.6531(3) 0.2392(2)
N4 N 0.8494(3) 0.6633(3) 0.2626(2)
H3 H 0.88530 0.65790 0.26320
C1 C 0.5806(3) 0.5093(3) 0.2774(2)
H4 H 0.62010 0.52870 0.29660
C2 C 0.5071(3) 0.4933(3) 0.2213(2)
C3 C 0.4751(3) 0.4361(3) 0.2510(2)
C4 C 0.4882(3) 0.5089(3) 0.1744(2)
C5 C 0.4047(3) 0.3713(3) 0.2534(2)
C6 C 0.7969(4) 0.6343(4) 0.2318(3)
H5 H 0.79380 0.60410 0.20780
C7 C 0.8356(4) 0.7035(4) 0.2932(2)
C8 C 0.7739(3) 0.6966(3) 0.2779(2)
C9 C 0.7318(4) 0.7266(4) 0.2970(2)
C10 C 0.8852(4) 0.7458(4) 0.3312(3)
K1 K 0.24565(11) 0.29378(11) 0.28600(8)
K2 K 0.4450(5) 0.5893(5) 0.0988(3)
O24 O 0.1757(9) 0.3623(9) 0.2922(6)
O25 O 0.4256(16) 0.7155(16) 0.0771(11)
O26 O 0.4034(16) 0.5936(16) 0.2011(11)
O1A O 0.6262(2) 0.2528(2) 0.13090(15)
O1B O 0.7472(2) 0.3734(2) 0.13090(15)
W1A W 0.565699(13) 0.280072(12) 0.255217(8)
W2A W 0.660186(12) 0.172042(12) 0.149015(8)
W3A W 0.613567(13) 0.222401(13) 0.049846(9)
W4A W 0.509781(13) 0.172815(12) 0.146193(9)
Ce1A Ce 0.339188(18) -0.018005(18) 0.192614(13)
O3A O 0.6247(2) 0.3720(2) 0.28111(15)
O4A O 0.5001(3) 0.2455(2) 0.29561(16)
O5A O 0.5328(2) 0.2071(2) 0.20932(15)
O6A O 0.6732(2) 0.1023(2) 0.15606(17)
O7A O 0.5624(2) 0.1259(2) 0.15739(16)
O8A O 0.4270(2) 0.1021(2) 0.15174(16)
O9A O 0.5230(2) 0.1654(2) 0.07999(16)
O10A O 0.6437(2) 0.1657(2) 0.08148(16)
O11A O 0.7532(2) 0.2459(2) 0.13524(15)
O12A O 0.5944(3) 0.1852(3) -0.00476(16)
O13A O 0.7065(2) 0.2955(2) 0.04352(16)
O14A O 0.6766(2) 0.2088(2) 0.21056(15)
O15A O 0.4325(2) -0.0347(2) 0.15600(18)
O16A O 0.5334(3) -0.0334(2) 0.15366(18)
O17A O 0.6352(2) -0.0074(3) 0.22557(17)
O18A O 0.6717(3) 0.0693(3) 0.28429(19)
O19A O 0.2859(3) -0.0359(3) 0.27454(18)
O20A O 0.2403(3) -0.0095(3) 0.33546(17)
O21A O 0.2193(3) 0.0866(3) 0.35862(19)
H1A H 0.22680 0.05520 0.35110
O22A O 0.2535(3) 0.1936(3) 0.3361(2)
O23A O 0.3433(3) -0.1185(3) 0.23858(19)
N1A N 0.4610(3) 0.0341(3) 0.23862(19)
N2A N 0.5522(3) 0.0756(3) 0.28487(19)
H2A H 0.58030 0.09830 0.30770
N3A N 0.3469(3) 0.0967(3) 0.2392(2)
N4A N 0.3367(3) 0.1861(3) 0.2626(2)
H3A H 0.34210 0.22740 0.26320
C1A C 0.4907(3) 0.0713(3) 0.2774(2)
H4A H 0.47130 0.09140 0.29660
C2A C 0.5067(3) 0.0138(3) 0.2213(2)
C3A C 0.5639(3) 0.0390(3) 0.2510(2)
C4A C 0.4911(3) -0.0207(3) 0.1744(2)
C5A C 0.6287(3) 0.0334(3) 0.2534(2)
C6A C 0.3657(4) 0.1626(4) 0.2318(3)
H5A H 0.39590 0.18970 0.20780
C7A C 0.2965(4) 0.1321(4) 0.2932(2)
C8A C 0.3034(3) 0.0773(3) 0.2779(2)
C9A C 0.2734(4) 0.0052(4) 0.2970(2)
C10A C 0.2542(4) 0.1394(4) 0.3312(3)
W1B W 0.719928(13) 0.285627(12) 0.255217(8)
W2B W 0.827958(12) 0.488144(12) 0.149015(8)
W3B W 0.777599(13) 0.391166(13) 0.049846(9)
W4B W 0.827185(13) 0.336966(12) 0.146193(9)
Ce1B Ce 1.018005(18) 0.357193(18) 0.192614(13)
O3B O 0.6280(2) 0.2527(2) 0.28111(15)
O4B O 0.7545(3) 0.2546(2) 0.29561(16)
O5B O 0.7929(2) 0.3257(2) 0.20932(15)
O6B O 0.8977(2) 0.5709(2) 0.15606(17)
O7B O 0.8741(2) 0.4365(2) 0.15739(16)
O8B O 0.8979(2) 0.3249(2) 0.15174(16)
O9B O 0.8346(2) 0.3576(2) 0.07999(16)
O10B O 0.8343(2) 0.4780(2) 0.08148(16)
O11B O 0.7541(2) 0.5073(2) 0.13524(15)
O12B O 0.8148(3) 0.4092(3) -0.00476(16)
O13B O 0.7045(2) 0.4110(2) 0.04352(16)
O14B O 0.7912(2) 0.4678(2) 0.21056(15)
O15B O 1.0347(2) 0.4672(2) 0.15600(18)
O16B O 1.0334(3) 0.5668(2) 0.15366(18)
O17B O 1.0074(2) 0.6426(3) 0.22557(17)
O18B O 0.9307(3) 0.6024(3) 0.28429(19)
O19B O 1.0359(3) 0.3218(3) 0.27454(18)
O20B O 1.0095(3) 0.2498(3) 0.33546(17)
O21B O 0.9134(3) 0.1327(3) 0.35862(19)
H1B H 0.94480 0.17160 0.35110
O22B O 0.8064(3) 0.0599(3) 0.3361(2)
O23B O 1.1185(3) 0.4618(3) 0.23858(19)
N1B N 0.9659(3) 0.4269(3) 0.23862(19)
N2B N 0.9244(3) 0.4766(3) 0.28487(19)
H2B H 0.90170 0.48200 0.30770
N3B N 0.9033(3) 0.2502(3) 0.2392(2)
N4B N 0.8139(3) 0.1506(3) 0.2626(2)
H3B H 0.77260 0.11470 0.26320
C1B C 0.9287(3) 0.4194(3) 0.2774(2)
H4B H 0.90860 0.37990 0.29660
C2B C 0.9862(3) 0.4929(3) 0.2213(2)
C3B C 0.9610(3) 0.5249(3) 0.2510(2)
C4B C 1.0207(3) 0.5118(3) 0.1744(2)
C5B C 0.9666(3) 0.5953(3) 0.2534(2)
C6B C 0.8374(4) 0.2031(4) 0.2318(3)
H5B H 0.81030 0.20620 0.20780
C7B C 0.8679(4) 0.1644(4) 0.2932(2)
C8B C 0.9227(3) 0.2261(3) 0.2779(2)
C9B C 0.9948(4) 0.2682(4) 0.2970(2)
C10B C 0.8606(4) 0.1148(4) 0.3312(3)
Ce1O Ce 1.023860(18) 0.672521(18) 0.140719(13)
Ce1P Ce 0.327479(18) 0.351338(18) 0.140719(13)
Ce1Q Ce 0.648662(18) -0.023860(18) 0.140719(13)
O6O O 0.237567(200) 0.006533(200) 0.177273(170)
O6P O 0.993467(200) 0.231033(200) 0.177273(170)
O6Q O 0.768967(200) 0.762433(200) 0.177273(170)
O16O O 0.233467(300) -0.133267(200) 0.179673(180)
O16P O 1.133267(300) 0.366733(200) 0.179673(180)
O16Q O 0.633267(300) 0.766533(200) 0.179673(180)
O17O O 0.309267(200) -0.031467(300) 0.107763(170)
O17P O 1.031467(200) 0.340733(300) 0.107763(170)
O17Q O 0.659267(200) 0.690733(300) 0.107763(170)
#END
