
#######################################################################
#
#                 Cambridge Crystallographic Data Centre
#                                CCDC
#
#######################################################################
#
# If this CIF has been generated from an entry in the Cambridge
# Structural Database, then it will include bibliographic, chemical,
# crystal, experimental, refinement or atomic coordinate data resulting
# from the CCDC's data processing and validation procedures.
#
#######################################################################

data_CSD_CIF_BOBDII
_audit_creation_date 2019-04-18
_audit_creation_method CSD-ConQuest-V1
_database_code_CSD BOBDII
_database_code_depnum_ccdc_archive 'CCDC 1868287'
_chemical_formula_sum 'C36 H37 N6 Na1 Ni1 O29 U3'
_chemical_formula_moiety
;
(C36 H19 N6 Ni1 O20 U3 1-)n,Na1 1+,9(H2 O1)
;
_journal_coden_Cambridge 9
_journal_volume 58
_journal_year 2019
_journal_page_first 7243
_journal_name_full 'Inorg.Chem. '
loop_
_publ_author_name
"G.E.Gomez"
"J.August Ridenour"
"N.M.Byrne"
"A.P.Shevchenko"
"C.L.Cahill"
_chemical_name_systematic
;
catena-[sodium 
tris(\m-[2,2'-bipyridine]-3,3'-dicarboxylato)-(\m-hydroxo)-(\m-oxido)-hexakis(
oxido)-nickel(ii)-tri-uranium(vi) nonahydrate]
;
_cell_volume  57692.170
_exptl_crystal_colour 'orange yellow'
_exptl_crystal_density_diffrn 1.664
_exptl_special_details
;
We calculate void space in the structure

;
_exptl_crystal_description 'Rod'
_exptl_crystal_preparation 'Hydrothermal'
_diffrn_ambient_temperature 100
#These two values have been output from a single CSD field.
_refine_ls_R_factor_gt 0.0511
_refine_ls_wR_factor_gt 0.0511
_symmetry_cell_setting tetragonal
_symmetry_space_group_name_H-M 'I 41/a c d'
_symmetry_Int_Tables_number 142
loop_
_symmetry_equiv_pos_site_id
_symmetry_equiv_pos_as_xyz
1 x,y,z
2 1/2-x,-y,1/2+z
3 1/4-y,3/4+x,1/4+z
4 1/4+y,1/4-x,3/4+z
5 1/2-x,y,-z
6 x,-y,1/2-z
7 1/4+y,3/4+x,3/4-z
8 1/4-y,1/4-x,1/4-z
9 1/2+x,1/2+y,1/2+z
10 -x,1/2-y,z
11 3/4-y,1/4+x,3/4+z
12 3/4+y,3/4-x,1/4+z
13 -x,1/2+y,1/2-z
14 1/2+x,1/2-y,-z
15 3/4+y,1/4+x,1/4-z
16 3/4-y,3/4-x,3/4-z
17 -x,-y,-z
18 -1/2+x,y,-1/2-z
19 -1/4+y,-3/4-x,-1/4-z
20 -1/4-y,-1/4+x,-3/4-z
21 -1/2+x,-y,z
22 -x,y,-1/2+z
23 -1/4-y,-3/4-x,-3/4+z
24 -1/4+y,-1/4+x,-1/4+z
25 -1/2-x,-1/2-y,-1/2-z
26 x,-1/2+y,-z
27 -3/4+y,-1/4-x,-3/4-z
28 -3/4-y,-3/4+x,-1/4-z
29 x,-1/2-y,-1/2+z
30 -1/2-x,-1/2+y,z
31 -3/4-y,-1/4-x,-1/4+z
32 -3/4+y,-3/4+x,-3/4+z
_cell_length_a 38.156(2)
_cell_length_b 38.156(2)
_cell_length_c 39.627(2)
_cell_angle_alpha 90
_cell_angle_beta 90
_cell_angle_gamma 90
_cell_formula_units_Z 32
loop_
_atom_type_symbol
_atom_type_radius_bond
C 0.68
H 0.23
N 0.68
Na 1.66
Ni 1.24
O 0.68
U 1.96
loop_
_atom_site_label
_atom_site_type_symbol
_atom_site_fract_x
_atom_site_fract_y
_atom_site_fract_z
C1 C 0.6302(3) 0.7601(3) 0.5157(2)
C2 C 0.6574(3) 0.7725(3) 0.4900(2)
C3 C 0.6784(3) 0.8001(3) 0.4995(3)
H1 H 0.67458 0.81137 0.51996
C4 C 0.7056(3) 0.8112(3) 0.4783(3)
H2 H 0.72031 0.82952 0.48450
C5 C 0.7097(3) 0.7941(3) 0.4477(3)
H3 H 0.72752 0.80121 0.43324
C6 C 0.6627(3) 0.7560(3) 0.4588(2)
C7 C 0.6428(3) 0.7262(3) 0.4441(2)
C8 C 0.6502(3) 0.6774(3) 0.4095(3)
H4 H 0.66372 0.66552 0.39374
C9 C 0.6189(3) 0.6622(3) 0.4201(3)
H5 H 0.61260 0.63961 0.41364
C10 C 0.5979(3) 0.6824(3) 0.4405(3)
H6 H 0.57609 0.67384 0.44681
C11 C 0.6084(2) 0.7152(3) 0.4519(2)
C12 C 0.5818(3) 0.7386(3) 0.4674(2)
C13 C 0.5101(4) 0.9197(3) 0.6394(3)
C14 C 0.4873(3) 0.9487(3) 0.6511(2)
C15 C 0.4659(3) 0.9430(3) 0.6794(3)
H7 H 0.46425 0.92064 0.68873
C16 C 0.4475(4) 0.9700(3) 0.6933(3)
H8 H 0.43240 0.96597 0.71134
C17 C 0.4515(3) 1.0037(3) 0.6803(3)
H9 H 0.44005 1.02234 0.69054
C18 C 0.4881(3) 0.9833(3) 0.6373(2)
C19 C 0.5087(3) 0.9946(3) 0.6068(2)
C20 C 0.5470(4) 1.0381(3) 0.5891(3)
H10 H 0.55989 1.05825 0.59359
C21 C 0.5501(4) 1.0223(3) 0.5576(3)
H11 H 0.56551 1.03126 0.54156
C22 C 0.5305(4) 0.9937(3) 0.5504(3)
H12 H 0.53170 0.98352 0.52916
C23 C 0.5083(3) 0.9795(3) 0.5750(3)
C24 C 0.4844(4) 0.9500(3) 0.5660(3)
C25 C 0.5083(3) 0.8822(3) 0.4800(2)
C26 C 0.5268(3) 0.9061(3) 0.4558(2)
C27 C 0.5502(4) 0.9300(3) 0.4694(3)
H13 H 0.55588 0.92899 0.49222
C28 C 0.5652(3) 0.9556(3) 0.4489(3)
H14 H 0.58116 0.97169 0.45749
C29 C 0.5555(3) 0.9561(3) 0.4153(3)
H15 H 0.56447 0.97370 0.40154
C30 C 0.5204(3) 0.9066(3) 0.4207(2)
C31 C 0.4984(3) 0.8810(3) 0.4012(2)
C32 C 0.4572(3) 0.8798(3) 0.3570(2)
H16 H 0.44489 0.89179 0.34038
C33 C 0.4499(3) 0.8451(3) 0.3627(3)
H17 H 0.43197 0.83393 0.35095
C34 C 0.4694(3) 0.8274(3) 0.3860(2)
H18 H 0.46643 0.80337 0.38852
C35 C 0.4942(3) 0.8451(3) 0.4062(2)
C36 C 0.5145(3) 0.8221(3) 0.4305(2)
N1 N 0.6889(2) 0.7677(3) 0.4384(2)
N2 N 0.6618(2) 0.7082(2) 0.4209(2)
N3 N 0.4715(3) 1.0096(2) 0.6534(2)
N4 N 0.5259(3) 1.0249(2) 0.6133(2)
N5 N 0.5337(3) 0.9323(2) 0.4018(2)
N6 N 0.4818(2) 0.8969(2) 0.3751(2)
Ni1 Ni 0.50698(4) 0.94197(3) 0.35740(3)
U1 U 0.53988(2) 0.88452(2) 0.56497(2)
U2 U 0.60429(2) 0.81471(2) 0.58650(2)
U3 U 0.56850(2) 0.82028(2) 0.49461(2)
O1 O 0.5051(2) 0.8553(2) 0.5768(2)
O2 O 0.5726(3) 0.9159(2) 0.55331(18)
O3 O 0.56857(18) 0.78528(19) 0.59346(18)
O4 O 0.6415(2) 0.8415(3) 0.5782(2)
O5 O 0.53201(19) 0.79427(18) 0.50828(17)
O6 O 0.6040(2) 0.8464(2) 0.47919(18)
O7 O 0.5733(2) 0.8413(2) 0.54534(17)
O8 O 0.6122(2) 0.8215(2) 0.64240(19)
O9 O 0.61214(19) 0.78625(19) 0.52859(16)
O10 O 0.62645(19) 0.73000(19) 0.52282(17)
O11 O 0.58728(18) 0.77155(18) 0.46390(16)
O12 O 0.55568(19) 0.72541(19) 0.4813(2)
O13 O 0.5141(3) 0.8940(2) 0.6586(2)
O14 O 0.5256(3) 0.9223(2) 0.61103(18)
O15 O 0.4538(3) 0.9509(2) 0.5773(2)
O16 O 0.4957(3) 0.9263(2) 0.54645(18)
O17 O 0.5283(2) 0.87103(19) 0.50477(17)
O18 O 0.4777(2) 0.8750(2) 0.47661(18)
O19 O 0.5417(2) 0.83612(18) 0.44358(16)
O20 O 0.5051(2) 0.7922(2) 0.4345(2)
Na1 Na 0.50000 0.75000 0.47520(15)
O21 O 0.6193(5) 0.8877(4) 0.4173(4)
O22 O 0.6424(5) 0.6578(4) 0.5175(4)
O23 O 0.3956(4) 0.8544(4) 0.62500
O24 O 0.5948(5) 0.6988(4) 0.5892(5)
O25 O 0.5481(5) 0.6800(5) 0.5337(4)
O26 O 0.3831(5) 0.9217(6) 0.3778(7)
O27 O 0.3816(6) 0.9020(6) 0.6651(5)
O28 O 0.5010(6) 0.7828(8) 0.5677(4)
O29 O 0.4321(6) 0.8831(6) 0.5921(10)
O30 O 0.7018(8) 0.6434(5) 0.4786(6)
O31 O 0.4738(10) 0.7979(13) 0.6146(12)
N1AA N 0.4823(2) 0.9389(3) 0.3116(2)
N2AA N 0.5418(2) 0.9118(2) 0.3291(2)
N3P N 0.5285(3) 0.9904(2) 0.3466(2)
N4P N 0.4741(3) 0.9751(2) 0.3867(2)
Ni1P Ni 0.49302(4) 1.05803(3) 0.64260(3)
Ni1R Ni 0.69197(4) 0.74302(3) 0.39260(3)
U1N U 0.63452(2) 0.78988(2) 0.68503(2)
U2N U 0.56471(2) 0.85429(2) 0.66350(2)
O8N O 0.5715(2) 0.8622(2) 0.60760(19)
O13N O 0.6440(3) 0.7641(2) 0.5914(2)
#END
