
#######################################################################
#
#                 Cambridge Crystallographic Data Centre
#                                CCDC
#
#######################################################################
#
# If this CIF has been generated from an entry in the Cambridge
# Structural Database, then it will include bibliographic, chemical,
# crystal, experimental, refinement or atomic coordinate data resulting
# from the CCDC's data processing and validation procedures.
#
#######################################################################

data_CSD_CIF_BODGOQ01
_audit_creation_date 1984-04-14
_audit_creation_method CSD-ConQuest-V1
_database_code_CSD BODGOQ01
_database_code_depnum_ccdc_archive 'CCDC 1112962'
_chemical_formula_sum 'C3 H3 Cd1 Na1 O6'
_chemical_formula_moiety
;
(C3 H3 Cd1 O6 1-)n,n(Na1 1+)
;
_journal_coden_Cambridge 367
_journal_volume 9
_journal_year 1983
_journal_page_first 418
_journal_name_full 'Koord.Khim.(Russ.)(Coord.Chem.) '
loop_
_publ_author_name
"A.S.Antsyshkina"
"M.A.Porai-Koshits"
"V.N.Ostrikova"
_chemical_name_systematic
;
catena-[Sodium(i) tris(\m-formato)-cadmium(ii)]
;
_cell_volume    657.016
_diffrn_ambient_temperature ?
_diffrn_special_details
;
The study was carried out at room temperature,in the range 283-303K

;
#These two values have been output from a single CSD field.
_refine_ls_R_factor_gt 0.033
_refine_ls_wR_factor_gt 0.033
_symmetry_cell_setting orthorhombic
_symmetry_space_group_name_H-M 'P c c a'
_symmetry_Int_Tables_number 54
loop_
_symmetry_equiv_pos_site_id
_symmetry_equiv_pos_as_xyz
1 x,y,z
2 1/2-x,-y,z
3 1/2+x,-y,1/2-z
4 -x,y,1/2-z
5 -x,-y,-z
6 -1/2+x,y,-z
7 -1/2-x,y,-1/2+z
8 x,-y,-1/2+z
_cell_length_a 6.396(2)
_cell_length_b 7.275(3)
_cell_length_c 14.120(4)
_cell_angle_alpha 90
_cell_angle_beta 90
_cell_angle_gamma 90
_cell_formula_units_Z 4
loop_
_atom_type_symbol
_atom_type_radius_bond
C 0.68
H 0.23
Cd 1.65
Na 0.97
O 0.68
loop_
_atom_site_label
_atom_site_type_symbol
_atom_site_fract_x
_atom_site_fract_y
_atom_site_fract_z
Cd1 Cd -0.25000 0.00000 0.42884
O1 O -0.39360 0.18120 0.31190
O2 O -0.05920 -0.15770 0.54220
O3 O -0.03880 -0.38580 0.64570
C1 C -0.50000 0.09910 0.25000
C2 C -0.13550 -0.29600 0.58640
H1 H -0.50000 -0.04240 0.25000
H2 H -0.28690 -0.33430 0.57140
Na1 Na -0.25000 0.50000 0.27970
O1A O -0.10640 -0.18120 0.31190
O2A O -0.44080 0.15770 0.54220
O2E O -0.55920 -0.15770 0.45780
O2D O 0.05920 0.15770 0.45780
O1C O -0.60640 0.18120 0.18810
Cd1D Cd 0.25000 0.00000 0.57116
C2D C 0.13550 0.29600 0.41360
Cd1B Cd -0.75000 0.00000 0.07116
O3D O 0.03880 0.38580 0.35430
H2D H 0.28690 0.33430 0.42860
#END
