
#######################################################################
#
#                 Cambridge Crystallographic Data Centre
#                                CCDC
#
#######################################################################
#
# If this CIF has been generated from an entry in the Cambridge
# Structural Database, then it will include bibliographic, chemical,
# crystal, experimental, refinement or atomic coordinate data resulting
# from the CCDC's data processing and validation procedures.
#
#######################################################################

data_CSD_CIF_BODLIQ
_audit_creation_date 2008-11-25
_audit_creation_method CSD-ConQuest-V1
_database_code_CSD BODLIQ
_database_code_depnum_ccdc_archive 'CCDC 677292'
_chemical_formula_sum 'C16 H14 Eu1 N3 O9'
_chemical_formula_moiety
;
(C2 H8 N1 1+)n,n(C14 H6 Eu1 N2 O9 1-)
;
_journal_coden_Cambridge 1350
_journal_volume 10
_journal_year 2008
_journal_page_first 1018
_journal_name_full 'CrystEngComm '
loop_
_publ_author_name
"N.R.Kelly"
"S.Goetz"
"S.R.Batten"
"P.A.Kruger"
_chemical_name_systematic
;
catena-[Dimethylammonium 
(\m~4~-2,2'-bipyridine-4,4',6,6'-tetracarboxylato-N,N',O,O',O'',O''',O'''')-aq
ua-europium(iii)]
;
_cell_volume   1747.474
_exptl_crystal_colour 'colorless'
_exptl_crystal_density_diffrn 2.069
_exptl_crystal_description 'block'
_diffrn_ambient_temperature 153
#These two values have been output from a single CSD field.
_refine_ls_R_factor_gt 0.0164
_refine_ls_wR_factor_gt 0.0164
_symmetry_cell_setting monoclinic
_symmetry_space_group_name_H-M 'P 21/c'
_symmetry_Int_Tables_number 14
loop_
_symmetry_equiv_pos_site_id
_symmetry_equiv_pos_as_xyz
1 x,y,z
2 -x,1/2+y,1/2-z
3 -x,-y,-z
4 x,-1/2-y,-1/2+z
_cell_length_a 8.2797(4)
_cell_length_b 16.7532(9)
_cell_length_c 12.7089(6)
_cell_angle_alpha 90
_cell_angle_beta 97.578(1)
_cell_angle_gamma 90
_cell_formula_units_Z 4
loop_
_atom_type_symbol
_atom_type_radius_bond
C 0.68
H 0.23
Eu 1.99
N 0.68
O 0.68
loop_
_atom_site_label
_atom_site_type_symbol
_atom_site_fract_x
_atom_site_fract_y
_atom_site_fract_z
Eu1 Eu 0.413742(13) 0.728233(6) 0.410989(8)
N1 N 0.4365(2) 0.61344(11) 0.27894(15)
C1 C 0.5052(3) 0.63325(14) 0.19297(18)
C2 C 0.5719(3) 0.57731(14) 0.13180(18)
H1 H 0.62240 0.59340 0.07230
C3 C 0.5640(3) 0.49719(14) 0.15828(18)
C4 C 0.4840(3) 0.47539(13) 0.24390(17)
H2 H 0.47130 0.42080 0.26120
C5 C 0.4234(3) 0.53547(14) 0.30329(18)
C6 C 0.3420(3) 0.52134(14) 0.40040(18)
C7 C 0.3097(3) 0.44593(14) 0.43826(18)
H3 H 0.34110 0.39920 0.40380
C8 C 0.2299(3) 0.44049(14) 0.52833(18)
C9 C 0.1794(3) 0.51001(14) 0.57301(18)
H4 H 0.11730 0.50780 0.63070
C10 C 0.2205(3) 0.58249(14) 0.53263(18)
N2 N 0.3042(2) 0.58875(12) 0.44972(15)
C11 C 0.1704(3) 0.66108(14) 0.57848(18)
C12 C 0.2020(3) 0.36085(15) 0.58006(18)
O1 O 0.2195(2) 0.72378(9) 0.53564(13)
O2 O 0.0852(2) 0.6584(1) 0.65112(14)
O3 O 0.3129(2) 0.30942(10) 0.57846(13)
C13 C 0.6493(3) 0.43663(14) 0.09630(18)
O4 O 0.5978(2) 0.36600(11) 0.09413(12)
O5 O 0.7628(2) 0.46231(11) 0.05073(16)
C14 C 0.5122(3) 0.72205(14) 0.17005(19)
O6 O 0.5532(2) 0.74221(11) 0.08233(12)
O7 O 0.4768(2) 0.76886(9) 0.24036(13)
O8 O 0.1484(2) 0.74124(12) 0.31295(15)
H5 H 0.068(3) 0.7171(18) 0.326(3)
H6 H 0.120(4) 0.7683(16) 0.2600(19)
N3 N 0.9912(3) 0.35465(17) 0.0129(3)
H7 H 0.908(4) 0.389(2) 0.024(2)
H8 H 0.952(4) 0.308(2) 0.027(3)
C15 C 1.0306(5) 0.3629(2) -0.0965(3)
H9 H 0.93300 0.35210 -0.14700
H10 H 1.11640 0.32480 -0.10800
H11 H 1.06860 0.41740 -0.10730
C16 C 1.1295(4) 0.3708(2) 0.0958(3)
H12 H 1.09380 0.36510 0.16600
H13 H 1.16920 0.42520 0.08760
H14 H 1.21740 0.33270 0.08910
O9 O 0.0759(2) 0.35387(11) 0.62158(16)
Eu1B Eu 0.586258(13) 0.271767(6) 0.589011(8)
Eu1A Eu 0.586258(13) 0.228233(6) 0.089011(8)
Eu1C Eu 0.413742(13) 0.771767(6) -0.089011(8)
O3B O 0.6871(2) 0.69058(10) 0.42154(13)
O4A O 0.4022(2) 0.86600(11) 0.40587(12)
O6C O 0.5532(2) 0.75779(11) 0.58233(12)
#END
