
#######################################################################
#
#                 Cambridge Crystallographic Data Centre
#                                CCDC
#
#######################################################################
#
# If this CIF has been generated from an entry in the Cambridge
# Structural Database, then it will include bibliographic, chemical,
# crystal, experimental, refinement or atomic coordinate data resulting
# from the CCDC's data processing and validation procedures.
#
#######################################################################

data_CSD_CIF_BOFBII
_audit_creation_date 2008-11-25
_audit_creation_method CSD-ConQuest-V1
_database_code_CSD BOFBII
_database_code_depnum_ccdc_archive 'CCDC 643828'
_chemical_formula_sum 'C13 H18 Bi2 N1 Na1 O22'
_chemical_formula_moiety
;
(C8 H4 Bi2 O18 2-)n,n(Na1 1+),n(C5 H6 N1 1+),4n(H2 O1)
;
_journal_coden_Cambridge 603
_journal_volume 27
_journal_year 2008
_journal_page_first 865
_journal_name_full 'Jiegou Huaxue(Chin.)(Chin.J.Struct.Chem.) '
loop_
_publ_author_name
"Xin-Xiang Chen"
"Yan-Ning Cao"
"Han-Hui Zhang"
"Yi-Ping Chen"
"Xue-Huan Chen"
"Xiao-Chuan Chai"
_chemical_name_systematic
;
catena-(Pyridinium sodium 
tetrakis(\m~2~-oxalato-O,O',O'',O''')-diaqua-di-bismuth(iii) tetrahydrate)
;
_cell_volume   1265.385
_exptl_crystal_colour 'colorless'
_exptl_crystal_density_diffrn 2.575
_exptl_special_details
;
fluorescent

;
_exptl_crystal_description 'Block'
_diffrn_ambient_temperature 298
_refine_special_details
;
The pyridinium cation is disordered by symmetry.

;
#These two values have been output from a single CSD field.
_refine_ls_R_factor_gt 0.0179
_refine_ls_wR_factor_gt 0.0179
_symmetry_cell_setting monoclinic
_symmetry_space_group_name_H-M 'C 2/m'
_symmetry_Int_Tables_number 12
loop_
_symmetry_equiv_pos_site_id
_symmetry_equiv_pos_as_xyz
1 x,y,z
2 1/2+x,1/2+y,z
3 -x,y,-z
4 1/2-x,1/2+y,-z
5 -x,-y,-z
6 -1/2-x,-1/2-y,-z
7 x,-y,z
8 -1/2+x,-1/2-y,z
_cell_length_a 12.020(5)
_cell_length_b 11.190(8)
_cell_length_c 11.067(10)
_cell_angle_alpha 90
_cell_angle_beta 121.78(2)
_cell_angle_gamma 90
_cell_formula_units_Z 2
loop_
_atom_type_symbol
_atom_type_radius_bond
C 0.68
H 0.23
Bi 1.67
N 0.68
Na 0.97
O 0.68
loop_
_atom_site_label
_atom_site_type_symbol
_atom_site_fract_x
_atom_site_fract_y
_atom_site_fract_z
Bi1 Bi 0.143179(14) 0.00000 0.339872(16)
Na1 Na 0.50000 0.00000 0.50000
O1 O 0.0340(3) 0.1196(2) 0.1142(3)
O2 O 0.3386(2) 0.1292(2) 0.4939(3)
O3 O -0.0641(3) 0.00000 0.3155(4)
O4 O 0.4097(2) 0.2934(2) 0.6252(3)
O5 O -0.1683(3) 0.00000 0.4312(4)
C1 C 0.00000 0.0686(4) 0.00000
C2 C 0.3219(3) 0.2277(3) 0.5340(3)
C3 C -0.0657(4) 0.00000 0.4278(5)
C4 C 0.029(2) 0.3918(8) 0.0632(17)
H1 H 0.04900 0.31870 0.11430
C5? C 0.4344(15) 0.00000 0.8654(14)
H2? H 0.38220 0.00000 0.76450
N1 N 0.0656(15) 0.50000 0.1346(14)
H3 H 0.11390 0.50000 0.22810
O6 O 0.3186(5) 0.2265(4) 0.1532(6)
H4 H 0.271(6) 0.278(5) 0.161(10)
H5 H 0.397(3) 0.250(7) 0.194(9)
O7 O 0.3211(4) 0.00000 0.2573(5)
H6 H 0.327(6) 0.063(3) 0.220(6)
Bi1D Bi -0.143179(14) 0.00000 -0.339872(16)
Bi1E Bi 0.356821(14) 0.50000 0.660128(16)
Bi1D* Bi -0.143179(14) 0.00000 0.660128(16)
Bi1E* Bi 0.356821(14) -0.50000 0.660128(16)
O1B O -0.0340(3) 0.1196(2) -0.1142(3)
O1F O 0.0340(3) -0.1196(2) 0.1142(3)
O1D O -0.0340(3) -0.1196(2) -0.1142(3)
O2E O 0.1614(2) 0.3708(2) 0.5061(3)
O2F O 0.3386(2) -0.1292(2) 0.4939(3)
O2C O 0.1614(2) -0.3708(2) 0.5061(3)
O2D O -0.3386(2) -0.1292(2) -0.4939(3)
O2B O -0.3386(2) 0.1292(2) -0.4939(3)
O3D O 0.0641(3) 0.00000 0.6845(4)
O3D* O 0.0641(3) 0.00000 -0.3155(4)
O4E O 0.0903(2) 0.2066(2) 0.3748(3)
O4F O 0.4097(2) -0.2934(2) 0.6252(3)
O4C O 0.0903(2) -0.2066(2) 0.3748(3)
O4A O -0.0903(2) -0.2066(2) -0.3748(3)
O4G O -0.0903(2) 0.2066(2) -0.3748(3)
O5D O 0.1683(3) 0.00000 0.5688(4)
O5* O -0.1683(3) 0.00000 -0.5688(4)
C1F C 0.00000 -0.0686(4) 0.00000
C2E C 0.1781(3) 0.2723(3) 0.4660(3)
C2F C 0.3219(3) -0.2277(3) 0.5340(3)
C2C C 0.1781(3) -0.2723(3) 0.4660(3)
C3D C 0.0657(4) 0.00000 0.5722(5)
C4B C -0.029(2) 0.3918(8) -0.0632(17)
C4D C -0.029(2) 0.6082(8) -0.0632(17)
C4F C 0.029(2) 0.6082(8) 0.0632(17)
H1B H -0.04900 0.31870 -0.11430
H1F H 0.04900 0.68130 0.11430
H1D H -0.04900 0.68130 -0.11430
N1D N -0.0656(15) 0.50000 -0.1346(14)
H3D H -0.11390 0.50000 -0.22810
O7D O -0.3211(4) 0.00000 -0.2573(5)
H6F H 0.327(6) -0.063(3) 0.220(6)
H6B H -0.327(6) 0.063(3) -0.220(6)
H6D H -0.327(6) -0.063(3) -0.220(6)
#END
