
#######################################################################
#
#                 Cambridge Crystallographic Data Centre
#                                CCDC
#
#######################################################################
#
# If this CIF has been generated from an entry in the Cambridge
# Structural Database, then it will include bibliographic, chemical,
# crystal, experimental, refinement or atomic coordinate data resulting
# from the CCDC's data processing and validation procedures.
#
#######################################################################

data_CSD_CIF_BOGJUD
_audit_creation_date 2008-11-25
_audit_creation_method CSD-ConQuest-V1
_database_code_CSD BOGJUD
_database_code_depnum_ccdc_archive 'CCDC 602813'
_chemical_formula_sum 'C54 H102.7 Cl1 K4 N6 O27.33 S6 Sc1'
_chemical_formula_moiety
;
(C12 H26 K1 O7 1+)2n,n(C30 H48 K2 N6 O12 S6 Sc1 1-),n(Cl1 1-),1.33n(H2 O1)
;
_journal_coden_Cambridge 367
_journal_volume 33
_journal_year 2007
_journal_page_first 163
_journal_name_full 'Koord.Khim.(Russ.)(Coord.Chem.) '
loop_
_publ_author_name
"S.P.Petrosyants"
"A.B.Ilyukhin"
_chemical_name_systematic
;
catena-(Aqua-(18-crown-6)-potassium 
bis(\m~2~-18-crown-6)-bis(\m~2~-thiocyanato-N,S)-tetrakis(isothiocyanato)-di-p
otassium-scandium(iii) chloride hydrate)
;
_cell_volume   4423.164
_exptl_crystal_colour 'red'
_exptl_crystal_density_diffrn 1.278
_exptl_crystal_description 'prism'
_exptl_crystal_preparation 'methanol'
_diffrn_ambient_temperature 295
_refine_special_details
;
One of potassium atoms is disordered over two sites with occupancies 
0.67:0.33.
;
#These two values have been output from a single CSD field.
_refine_ls_R_factor_gt 0.0645
_refine_ls_wR_factor_gt 0.0645
_symmetry_cell_setting monoclinic
_symmetry_space_group_name_H-M 'P 21/c'
_symmetry_Int_Tables_number 14
loop_
_symmetry_equiv_pos_site_id
_symmetry_equiv_pos_as_xyz
1 x,y,z
2 -x,1/2+y,1/2-z
3 -x,-y,-z
4 x,-1/2-y,-1/2+z
_cell_length_a 14.3696(13)
_cell_length_b 15.2119(16)
_cell_length_c 20.309(2)
_cell_angle_alpha 90
_cell_angle_beta 94.89(2)
_cell_angle_gamma 90
_cell_formula_units_Z 2
loop_
_atom_type_symbol
_atom_type_radius_bond
C 0.68
H 0.23
Cl 0.99
K 1.78
N 0.68
O 0.70
S 1.32
Sc 1.44
loop_
_atom_site_label
_atom_site_type_symbol
_atom_site_fract_x
_atom_site_fract_y
_atom_site_fract_z
Sc1 Sc 0.50000 0.50000 0.50000
K1 K 0.46005(8) 0.07555(8) 0.58060(6)
K2 K 0.0037(3) 0.3321(2) 0.6725(2)
K3? K -0.0022(7) 0.3855(7) 0.6763(5)
S1 S 0.22150(16) 0.39602(15) 0.36308(10)
S2 S 0.70348(15) 0.33361(12) 0.36340(8)
S3 S 0.48731(12) 0.26613(11) 0.66755(8)
O1 O 0.6481(3) 0.0978(3) 0.5855(2)
O2 O 0.5698(3) 0.0179(3) 0.6928(2)
O3 O 0.3733(4) 0.0117(5) 0.6863(3)
O4 O 0.2796(4) 0.1115(4) 0.5896(3)
O5 O 0.3560(3) 0.1607(3) 0.4742(2)
O6 O 0.5455(3) 0.1074(3) 0.4588(2)
O7 O -0.0308(4) 0.3758(4) 0.5390(2)
O8 O -0.1744(3) 0.3151(3) 0.6137(2)
O9 O -0.1488(4) 0.3432(3) 0.7512(2)
O10 O 0.0328(5) 0.3302(4) 0.8099(3)
O11 O 0.1831(3) 0.3760(4) 0.7376(3)
O12 O 0.1524(3) 0.3693(3) 0.5970(3)
N1 N 0.3751(4) 0.4531(3) 0.4428(3)
N2 N 0.5861(4) 0.4208(3) 0.4401(2)
N3 N 0.4929(4) 0.3930(4) 0.5695(3)
C1 C 0.3136(4) 0.4295(4) 0.4090(3)
C2 C 0.6343(4) 0.3849(4) 0.4080(3)
C3 C 0.4905(3) 0.3397(4) 0.6095(3)
C4 C 0.6994(5) 0.0545(5) 0.6360(4)
H1 H 0.76210 0.07870 0.64120
H2 H 0.70410 -0.00720 0.62480
C5 C 0.6549(5) 0.0633(5) 0.7000(3)
H3 H 0.69520 0.03830 0.73600
H4 H 0.64440 0.12470 0.70970
C6 C 0.5204(6) 0.0260(5) 0.7492(3)
H5 H 0.50970 0.08760 0.75820
H6 H 0.55690 0.00110 0.78710
C7 C 0.4287(6) -0.0210(6) 0.7387(4)
H7 H 0.44000 -0.08290 0.73130
H8 H 0.39590 -0.01590 0.77840
C8 C 0.2898(7) 0.0354(9) 0.6920(5)
H9 H 0.29200 0.08080 0.72560
H10 H 0.25780 -0.01450 0.70940
C9 C 0.2312(5) 0.0680(6) 0.6359(4)
H11 H 0.19790 0.01880 0.61450
H12 H 0.18520 0.10770 0.65160
C10 C 0.2277(5) 0.1523(5) 0.5379(4)
H13 H 0.17730 0.18580 0.55460
H14 H 0.20060 0.10850 0.50730
C11 C 0.2891(5) 0.2113(5) 0.5038(3)
H15 H 0.25250 0.24500 0.47030
H16 H 0.32010 0.25210 0.53520
C12 C 0.4185(5) 0.2115(4) 0.4416(3)
H17 H 0.45180 0.25100 0.47280
H18 H 0.38450 0.24670 0.40770
C13 C 0.4852(6) 0.1545(4) 0.4113(3)
H19 H 0.45100 0.11270 0.38250
H20 H 0.52300 0.19020 0.38430
C14 C 0.6312(5) 0.1523(5) 0.4760(4)
H21 H 0.61890 0.20910 0.49520
H22 H 0.66410 0.16180 0.43690
C15 C 0.6898(5) 0.0964(6) 0.5254(4)
H23 H 0.69290 0.03660 0.50930
H24 H 0.75280 0.11960 0.53160
C16 C -0.1081(6) 0.3292(6) 0.5120(4)
H25 H -0.09490 0.26670 0.51420
H26 H -0.12110 0.34510 0.46590
C17 C -0.1910(5) 0.3488(5) 0.5484(4)
H27 H -0.20130 0.41180 0.54980
H28 H -0.24620 0.32160 0.52630
C18 C -0.2498(5) 0.3336(6) 0.6526(4)
H29 H -0.30670 0.30640 0.63310
H30 H -0.25980 0.39650 0.65480
C19 C -0.2256(5) 0.2980(5) 0.7195(4)
H31 H -0.27900 0.30360 0.74540
H32 H -0.21060 0.23610 0.71640
C20 C -0.1282(7) 0.3158(6) 0.8165(4)
H33 H -0.11910 0.25260 0.81770
H34 H -0.18010 0.32980 0.84230
C21 C -0.0443(8) 0.3594(8) 0.8447(4)
H35 H -0.05130 0.42270 0.84050
H36 H -0.03330 0.34510 0.89120
C22 C 0.1171(8) 0.3618(8) 0.8398(5)
H37 H 0.12770 0.33870 0.88430
H38 H 0.11550 0.42540 0.84220
C23 C 0.1925(8) 0.3332(6) 0.7996(5)
H39 H 0.25270 0.34730 0.82250
H40 H 0.18940 0.27000 0.79330
C24 C 0.2531(6) 0.3555(6) 0.6974(7)
H41 H 0.25410 0.29260 0.68980
H42 H 0.31320 0.37250 0.71910
C25 C 0.2370(6) 0.4022(6) 0.6333(6)
H43 H 0.23090 0.46480 0.64110
H44 H 0.29000 0.39320 0.60750
C26 C 0.1273(8) 0.4112(7) 0.5366(6)
H45 H 0.17970 0.41010 0.50940
H46 H 0.11180 0.47220 0.54450
C27 C 0.0465(7) 0.3668(8) 0.5016(4)
H47 H 0.03280 0.39290 0.45830
H48 H 0.06050 0.30500 0.49580
Cl1 Cl -0.0463(4) 0.0652(4) 0.5301(3)
Cl2? Cl 0.0127(12) -0.0244(15) 0.4879(11)
O13 O -0.0169(11) 0.1551(9) 0.6553(8)
O14? O 0.000(2) 0.127(2) 0.7057(18)
O15? O -0.007(2) 0.533(2) 0.6965(17)
O16 O 0.015(2) 0.571(2) 0.7362(17)
K1B K 0.53995(8) 0.92445(8) 0.41940(6)
K1B* K 0.53995(8) -0.07555(8) 0.41940(6)
S1B S 0.77850(16) 0.60398(15) 0.63692(10)
S2B S 0.29652(15) 0.66639(12) 0.63660(8)
S3B S 0.51269(12) 0.73387(11) 0.33245(8)
S3B* S 0.51269(12) -0.26613(11) 0.33245(8)
O1B O 0.3519(3) -0.0978(3) 0.4145(2)
O2B O 0.4302(3) -0.0179(3) 0.3072(2)
O3B O 0.6267(4) -0.0117(5) 0.3137(3)
O4B O 0.7204(4) -0.1115(4) 0.4104(3)
O5B O 0.6440(3) -0.1607(3) 0.5258(2)
O6B O 0.4545(3) -0.1074(3) 0.5412(2)
N1B N 0.6249(4) 0.5469(3) 0.5572(3)
N2B N 0.4139(4) 0.5792(3) 0.5599(2)
N3B N 0.5071(4) 0.6070(4) 0.4305(3)
C1B C 0.6864(4) 0.5705(4) 0.5910(3)
C2B C 0.3657(4) 0.6151(4) 0.5920(3)
C3B C 0.5095(3) 0.6603(4) 0.3905(3)
C4B C 0.3006(5) -0.0545(5) 0.3640(4)
H1B H 0.23790 -0.07870 0.35880
H2B H 0.29590 0.00720 0.37520
C5B C 0.3451(5) -0.0633(5) 0.3000(3)
H3B H 0.30480 -0.03830 0.26400
H4B H 0.35560 -0.12470 0.29030
C6B C 0.4796(6) -0.0260(5) 0.2508(3)
H5B H 0.49030 -0.08760 0.24180
H6B H 0.44310 -0.00110 0.21290
C7B C 0.5713(6) 0.0210(6) 0.2613(4)
H7B H 0.56000 0.08290 0.26870
H8B H 0.60410 0.01590 0.22160
C8B C 0.7102(7) -0.0354(9) 0.3080(5)
H9B H 0.70800 -0.08080 0.27440
H10B H 0.74220 0.01450 0.29060
C9B C 0.7688(5) -0.0680(6) 0.3641(4)
H11B H 0.80210 -0.01880 0.38550
H12B H 0.81480 -0.10770 0.34840
C10B C 0.7723(5) -0.1523(5) 0.4621(4)
H13B H 0.82270 -0.18580 0.44540
H14B H 0.79940 -0.10850 0.49270
C11B C 0.7109(5) -0.2113(5) 0.4962(3)
H15B H 0.74750 -0.24500 0.52970
H16B H 0.67990 -0.25210 0.46480
C12B C 0.5815(5) -0.2115(4) 0.5584(3)
H17B H 0.54820 -0.25100 0.52720
H18B H 0.61550 -0.24670 0.59230
C13B C 0.5148(6) -0.1545(4) 0.5887(3)
H19B H 0.54900 -0.11270 0.61750
H20B H 0.47700 -0.19020 0.61570
C14B C 0.3688(5) -0.1523(5) 0.5240(4)
H21B H 0.38110 -0.20910 0.50480
H22B H 0.33590 -0.16180 0.56310
C15B C 0.3102(5) -0.0964(6) 0.4746(4)
H23B H 0.30710 -0.03660 0.49070
H24B H 0.24720 -0.11960 0.46840
#END
