
#######################################################################
#
#                 Cambridge Crystallographic Data Centre
#                                CCDC
#
#######################################################################
#
# If this CIF has been generated from an entry in the Cambridge
# Structural Database, then it will include bibliographic, chemical,
# crystal, experimental, refinement or atomic coordinate data resulting
# from the CCDC's data processing and validation procedures.
#
#######################################################################

data_CSD_CIF_BOHMIV
_audit_creation_date 2009-04-15
_audit_creation_method CSD-ConQuest-V1
_database_code_CSD BOHMIV
_database_code_depnum_ccdc_archive 'CCDC 707060'
_chemical_formula_sum 'C94 H102 Fe2 N10 Ni1 O28'
_chemical_formula_moiety
;
(C12 Fe2 Ni1 O24 4-)n,4n(C16 H19 N2 1+),2n(C9 H11 N1 O1),2n(H2 O1)
;
_journal_coden_Cambridge 155
_journal_volume 361
_journal_year 2008
_journal_page_first 4004
_journal_name_full 'Inorg.Chim.Acta '
loop_
_publ_author_name
"E.Cariati"
"R.Macchi"
"E.Tordin"
"R.Ugo"
"L.Bogani"
"A.Caneschi"
"P.Macchi"
"N.Casati"
"A.Sironi"
_chemical_name_systematic
;
catena-(tetrakis(trans-4-(4-Dimethylaminostyryl)-1-methylpyridinium) 
tetrakis(\m~2~-oxalato-O,O',O'',O''')-bis(oxalato-O,O')-di-iron(iii)-nickel(ii
) 4-(dimethylamino)benzaldehyde solvate dihydrate)
;
_cell_volume  18192.997
_exptl_crystal_density_diffrn 1.45
_exptl_special_details
;
magnetic properties
isostructural with the 2M(iii)/M(ii) analogues of Rh(iii), Fe(iii) and 
Cr(iii) with Zn(ii) and Mn(ii) and the 2M(iii)/M(ii) analogues with Rh(iii), 
Cr(iii) and Ni(ii)
;
_diffrn_ambient_temperature 293
#These two values have been output from a single CSD field.
_refine_ls_R_factor_gt 0.0841
_refine_ls_wR_factor_gt 0.0841
_symmetry_cell_setting orthorhombic
_symmetry_space_group_name_H-M 'F d d 2'
_symmetry_Int_Tables_number 43
loop_
_symmetry_equiv_pos_site_id
_symmetry_equiv_pos_as_xyz
1 x,y,z
2 -x,-y,z
3 1/4-x,1/4+y,1/4+z
4 1/4+x,1/4-y,1/4+z
5 x,1/2+y,1/2+z
6 -x,1/2-y,1/2+z
7 1/4-x,3/4+y,3/4+z
8 1/4+x,3/4-y,3/4+z
9 1/2+x,y,1/2+z
10 1/2-x,-y,1/2+z
11 3/4-x,1/4+y,3/4+z
12 3/4+x,1/4-y,3/4+z
13 1/2+x,1/2+y,z
14 1/2-x,1/2-y,z
15 3/4-x,3/4+y,1/4+z
16 3/4+x,3/4-y,1/4+z
_cell_length_a 39.306(9)
_cell_length_b 48.696(11)
_cell_length_c 9.505(2)
_cell_angle_alpha 90
_cell_angle_beta 90
_cell_angle_gamma 90
_cell_formula_units_Z 8
loop_
_atom_type_symbol
_atom_type_radius_bond
C 0.68
H 0.23
Fe 1.34
N 0.68
Ni 1.50
O 0.68
loop_
_atom_site_label
_atom_site_type_symbol
_atom_site_fract_x
_atom_site_fract_y
_atom_site_fract_z
C1 C 0.8504(2) 0.05326(17) 0.3078(9)
C2 C 0.8211(2) 0.04832(18) 0.386(1)
H1 H 0.80010 0.05270 0.34690
C3 C 0.8396(2) 0.09906(18) -0.2524(10)
H2 H 0.81890 0.10430 -0.29120
C4 C 0.8221(2) 0.03723(19) 0.5190(9)
H3 H 0.80190 0.03360 0.56650
C5 C 0.8396(2) 0.08933(18) -0.1249(9)
H4 H 0.81920 0.08770 -0.07610
C6 C 0.8531(2) 0.03130(19) 0.5834(8)
C7 C 0.8705(2) 0.08115(17) -0.0599(9)
C8 C 0.8826(2) 0.03727(17) 0.5081(10)
H5 H 0.90370 0.03400 0.54930
C9 C 0.8996(2) 0.08450(18) -0.1443(10)
H6 H 0.92080 0.07970 -0.10800
C10 C 0.8812(2) 0.04785(18) 0.3744(9)
H7 H 0.90140 0.05150 0.32700
C11 C 0.8977(2) 0.0946(2) -0.2768(10)
H8 H 0.91740 0.09630 -0.33040
C12 C 0.8740(2) 0.06977(18) 0.0789(9)
H9 H 0.89580 0.06590 0.11060
C13 C 0.8481(2) 0.06441(17) 0.1655(9)
H10 H 0.82630 0.06810 0.13180
C14 C 0.8849(2) -0.07129(17) 0.9277(9)
C15 C 0.8538(2) -0.07878(19) 0.9832(10)
H11 H 0.83440 -0.07700 0.92800
C16 C 0.8536(3) -0.0271(2) 0.3319(9)
H12 H 0.83550 -0.02470 0.27010
C17 C 0.8507(2) -0.08876(18) 1.1168(9)
H13 H 0.82930 -0.09280 1.15200
C18 C 0.8474(2) -0.03790(19) 0.4605(10)
H14 H 0.82510 -0.04200 0.48630
C19 C 0.8792(2) -0.09297(18) 1.2009(9)
C20 C 0.8734(2) -0.04291(18) 0.5538(10)
C21 C 0.9107(2) -0.08566(18) 1.1468(8)
H15 H 0.93020 -0.08800 1.20100
C22 C 0.9056(2) -0.0349(2) 0.507(1)
H16 H 0.92430 -0.03720 0.56600
C23 C 0.9133(2) -0.07517(17) 1.0163(10)
H17 H 0.93470 -0.07020 0.98310
C24 C 0.9104(2) -0.0238(2) 0.3775(11)
H18 H 0.93210 -0.01870 0.34930
C25 C 0.8903(2) -0.06026(18) 0.7859(10)
H19 H 0.91270 -0.05660 0.76060
C26 C 0.8667(2) -0.05488(19) 0.6893(9)
H20 H 0.84420 -0.05920 0.71100
C27 C 0.9983(2) 0.1243(2) 0.3545(9)
C28 C 0.9642(2) 0.1205(2) 0.4249(8)
C29 C 1.00660(19) 0.04820(17) 0.6310(8)
C30 C 0.9754(2) 0.03103(18) 0.5844(9)
C31 C 1.0116(2) 0.03638(18) 1.1393(9)
C32 C 0.9749(2) 0.04495(18) 1.0955(9)
C33 C 0.7709(3) -0.0032(3) 0.1721(14)
H21 H 0.76770 0.00390 0.26190
C34 C 0.7675(2) -0.0332(2) 0.1568(10)
C35 C 0.7678(2) -0.0456(2) 0.0274(11)
H22 H 0.77250 -0.03510 -0.05200
C36 C 0.7614(2) -0.0729(2) 0.012(1)
H23 H 0.76210 -0.08070 -0.07700
C37 C 0.7536(2) -0.0896(2) 0.1324(10)
C38 C 0.7545(2) -0.0771(2) 0.2617(10)
H24 H 0.75080 -0.08750 0.34220
C39 C 0.7608(2) -0.0494(2) 0.2749(10)
H25 H 0.76060 -0.04140 0.36370
C40 C 0.7473(3) -0.1350(2) 0.2384(13)
H26 H 0.76940 -0.13360 0.28060
H27 H 0.74340 -0.15360 0.20860
H28 H 0.73030 -0.12980 0.30600
C41 C 0.7429(4) -0.1298(3) -0.0179(14)
H29 H 0.73190 -0.11790 -0.08460
H30 H 0.72980 -0.14630 -0.00730
H31 H 0.76530 -0.13430 -0.05100
C42 C 0.8245(2) 0.0131(2) 0.7894(10)
H32 H 0.81220 0.02940 0.81540
H33 H 0.83050 0.00310 0.87260
H34 H 0.81040 0.00190 0.73040
C43 C 0.8861(2) 0.0146(2) 0.7857(9)
H35 H 0.90380 0.01220 0.71720
H36 H 0.88370 -0.00190 0.83990
H37 H 0.89180 0.02950 0.84700
C44 C 0.8656(3) 0.1130(2) -0.475(1)
H38 H 0.85840 0.09870 -0.53800
H39 H 0.88760 0.11960 -0.50360
H40 H 0.84950 0.12780 -0.47750
C45 C 0.8433(2) -0.1102(2) 1.3932(11)
H41 H 0.82960 -0.09390 1.39530
H42 H 0.84600 -0.11710 1.48710
H43 H 0.83230 -0.12390 1.33630
C46 C 0.9054(2) -0.1088(2) 1.4214(9)
H44 H 0.92030 -0.12160 1.37530
H45 H 0.89840 -0.11620 1.51030
H46 H 0.91730 -0.09180 1.43640
C47 C 0.8902(3) -0.0085(2) 0.1506(11)
H47 H 0.88990 0.01120 0.15590
H48 H 0.87250 -0.01460 0.08810
H49 H 0.91180 -0.01460 0.11590
N1 N 0.8677(2) 0.10201(15) -0.3315(7)
N2 N 0.85443(18) 0.02055(17) 0.7152(8)
N3 N 0.8844(2) -0.02001(16) 0.2908(7)
N4 N 0.87602(19) -0.10395(18) 1.3347(7)
N5 N 0.7453(2) -0.11622(16) 0.1139(9)
O1 O 0.94751(17) 0.14072(14) 0.4670(7)
O2 O 1.01178(19) 0.14744(14) 0.3454(8)
O3 O 1.01221(14) 0.10200(13) 0.3111(6)
O4 O 0.95430(14) 0.09584(13) 0.4359(6)
O5 O 0.96412(15) 0.03714(12) 0.4634(6)
O6 O 1.01615(13) 0.06584(11) 0.5407(6)
O7 O 1.02017(15) 0.04339(12) 0.7423(6)
O8 O 0.96451(14) 0.01344(13) 0.6622(6)
O9 O 0.96093(14) 0.06088(12) 1.1850(6)
O10 O 1.02126(13) 0.04485(12) 1.2595(6)
O11 O 0.96337(15) 0.03732(12) 0.9840(6)
O12 O 1.02829(13) 0.02172(12) 1.0590(6)
Fe1 Fe 0.98746(3) 0.06819(2) 0.36388(13)
Ni1 Ni 1.00000 0.00000 0.8627(2)
O13 O 0.72300(19) 0.05235(15) 0.1581(8)
O14 O 0.7771(2) 0.01275(18) 0.0819(10)
C27A C 1.0017(2) -0.1243(2) 0.3545(9)
C28A C 1.0358(2) -0.1205(2) 0.4249(8)
C29A C 0.99340(19) -0.04820(17) 0.6310(8)
C30A C 1.0246(2) -0.03103(18) 0.5844(9)
C31A C 0.9884(2) -0.03638(18) 1.1393(9)
C32A C 1.0251(2) -0.04495(18) 1.0955(9)
O1A O 1.05249(17) -0.14072(14) 0.4670(7)
O2A O 0.98822(19) -0.14744(14) 0.3454(8)
O3A O 0.98779(14) -0.10200(13) 0.3111(6)
O4A O 1.04570(14) -0.09584(13) 0.4359(6)
O5A O 1.03588(15) -0.03714(12) 0.4634(6)
O6A O 0.98385(13) -0.06584(11) 0.5407(6)
O7A O 0.97983(15) -0.04339(12) 0.7423(6)
O8A O 1.03549(14) -0.01344(13) 0.6622(6)
O9A O 1.03907(14) -0.06088(12) 1.1850(6)
O9* O 0.96093(14) 0.06088(12) 0.1850(6)
O9A* O 1.03907(14) -0.06088(12) 0.1850(6)
O10A O 0.97874(13) -0.04485(12) 1.2595(6)
O10* O 1.02126(13) 0.04485(12) 0.2595(6)
O10A* O 0.97874(13) -0.04485(12) 0.2595(6)
O11A O 1.03663(15) -0.03732(12) 0.9840(6)
O12A O 0.97171(13) -0.02172(12) 1.0590(6)
Fe1A Fe 1.01254(3) -0.06819(2) 0.36388(13)
Fe1* Fe 0.98746(3) 0.06819(2) 1.36388(13)
Fe1A* Fe 1.01254(3) -0.06819(2) 1.36388(13)
#END
