
#######################################################################
#
#                 Cambridge Crystallographic Data Centre
#                                CCDC
#
#######################################################################
#
# If this CIF has been generated from an entry in the Cambridge
# Structural Database, then it will include bibliographic, chemical,
# crystal, experimental, refinement or atomic coordinate data resulting
# from the CCDC's data processing and validation procedures.
#
#######################################################################

data_CSD_CIF_BOHYCU
_audit_creation_date 1971-12-31
_audit_creation_method CSD-ConQuest-V1
_database_code_CSD BOHYCU
_chemical_formula_sum 'C14 H16 Cl5 Cu4 N4 O2'
_chemical_formula_moiety
;
(C14 H16 Cu1 N4 O2 2+)n,n(Cl5 Cu3 2-)
;
_journal_coden_Cambridge 9
_journal_volume 10
_journal_year 1971
_journal_page_first 138
_journal_name_full 'Inorg.Chem. '
loop_
_publ_author_name
"R.J.Baker"
"S.C.Nyburg"
"J.T.Szymanski"
_chemical_name_systematic
;
catena-(bis(N-Benzoylhydrazine)-copper(ii) pentachloro-tri-copper(i))
;
_cell_volume   4307.522
_exptl_crystal_density_diffrn 2.18
_diffrn_ambient_temperature ?
_diffrn_special_details
;
The study was carried out at room temperature,in the range 283-303K

;
#These two values have been output from a single CSD field.
_refine_ls_R_factor_gt 0.051
_refine_ls_wR_factor_gt 0.051
_symmetry_cell_setting orthorhombic
_symmetry_space_group_name_H-M 'P b c a'
_symmetry_Int_Tables_number 61
loop_
_symmetry_equiv_pos_site_id
_symmetry_equiv_pos_as_xyz
1 x,y,z
2 1/2-x,1/2+y,z
3 x,1/2-y,1/2+z
4 1/2-x,-y,1/2+z
5 -x,-y,-z
6 -1/2+x,-1/2-y,-z
7 -x,-1/2+y,-1/2-z
8 -1/2+x,y,-1/2-z
_cell_length_a 9.299(2)
_cell_length_b 16.165(3)
_cell_length_c 28.656(6)
_cell_angle_alpha 90
_cell_angle_beta 90
_cell_angle_gamma 90
_cell_formula_units_Z 8
loop_
_atom_type_symbol
_atom_type_radius_bond
C 0.68
H 0.20
Cl 1.12
Cu 1.18
N 0.68
O 0.68
loop_
_atom_site_label
_atom_site_type_symbol
_atom_site_fract_x
_atom_site_fract_y
_atom_site_fract_z
Cl1 Cl -0.00860 0.06450 0.09300
Cl2 Cl 0.31410 0.05320 -0.01610
Cl3 Cl -0.03030 -0.13380 0.03030
Cl4 Cl 0.37430 -0.16870 -0.02300
Cl5 Cl 0.36100 -0.08300 0.10380
Cu1 Cu 0.07020 0.22750 0.10650
Cu2 Cu 0.40470 -0.05440 0.02750
Cu3 Cu 0.15140 -0.03490 0.07750
Cu4 Cu 0.13450 -0.04500 -0.02290
C1 C 0.33500 0.17380 0.13210
C2 C -0.39720 0.37520 0.15780
C3 C -0.48570 0.41360 0.19250
C4 C -0.45920 0.40130 0.23940
C5 C -0.34580 0.35160 0.25280
C6 C -0.25620 0.31690 0.22110
C7 C 0.45230 0.14110 0.16070
C8 C 0.56590 0.09590 0.14090
C9 C 0.67630 0.06620 0.17100
C10 C 0.66920 0.08260 0.21990
C11 C 0.55480 0.12600 0.23730
C12 C 0.44620 0.15620 0.20980
C13 C -0.17910 0.28980 0.13890
C14 C -0.28150 0.32730 0.17320
H1 H 0.57000 0.08400 0.10400
H2 H -0.16300 0.28300 0.23300
H3 H 0.25600 0.26800 0.04500
H4 H 0.19800 0.17200 0.03400
H5 H 0.44000 0.16100 0.07200
H6 H -0.05300 0.31000 0.04200
H7 H -0.12800 0.21500 0.04500
H8 H -0.29000 0.32400 0.08300
H9 H 0.76300 0.03200 0.15600
H10 H 0.75000 0.06200 0.24400
H11 H 0.55300 0.13600 0.27500
H12 H 0.36100 0.19000 0.22600
H13 H -0.41600 0.38300 0.12100
H14 H -0.57400 0.45200 0.18400
H15 H -0.52500 0.43000 0.26500
H16 H -0.32700 0.33800 0.28900
N1 N 0.22910 0.21240 0.05980
N2 N 0.34860 0.17950 0.08570
N3 N -0.08920 0.26470 0.06410
N4 N -0.20020 0.29680 0.09370
O1 O 0.21840 0.19600 0.15110
O2 O -0.06760 0.25650 0.15420
Cu4D Cu -0.13450 0.04500 0.02290
Cu2D Cu 0.59530 0.05440 -0.02750
Cl2D Cl 0.68590 -0.05320 0.01610
Cl1D Cl 0.00860 -0.06450 -0.09300
#END
