
#######################################################################
#
#                 Cambridge Crystallographic Data Centre
#                                CCDC
#
#######################################################################
#
# If this CIF has been generated from an entry in the Cambridge
# Structural Database, then it will include bibliographic, chemical,
# crystal, experimental, refinement or atomic coordinate data resulting
# from the CCDC's data processing and validation procedures.
#
#######################################################################

data_CSD_CIF_BOJTAW
_audit_creation_date 2009-04-15
_audit_creation_method CSD-ConQuest-V1
_database_code_CSD BOJTAW
_database_code_depnum_ccdc_archive 'CCDC 693236'
_chemical_formula_sum 'C46 H82 Ge9 Hg1 K2 N6 O12'
_chemical_formula_moiety
;
(C18 H36 K1 N2 O6 1+)2n,n(Ge9 Hg1 2-),2n(C5 H5 N1)
;
_journal_coden_Cambridge 222
_journal_year 2008
_journal_page_first 5882
_journal_name_full 'Dalton Trans. '
loop_
_publ_author_name
"M.S.Denning"
"J.M.Goicoechea"
_chemical_name_systematic
;
catena-(bis((4,7,13,16,21,24-hexaoxa-1,10-diazabicyclo[8.8.8]hexacosane)-potas
sium) (\m~2~-nido-nonagermate)-mercury pyridine solvate)
;
_chemical_name_common
;
catena-(bis((2,2,2,-cryptand)-potassium) (mu!2$-nido-nonagermate)-mercury 
pyridine solvate)
;
_cell_volume   6669.862
_exptl_crystal_colour 'dark green-black'
_exptl_crystal_density_diffrn 1.836
_exptl_crystal_description 'rod'
_diffrn_ambient_temperature 150
#These two values have been output from a single CSD field.
_refine_ls_R_factor_gt 0.0336
_refine_ls_wR_factor_gt 0.0336
_symmetry_cell_setting monoclinic
_symmetry_space_group_name_H-M 'P 21/c'
_symmetry_Int_Tables_number 14
loop_
_symmetry_equiv_pos_site_id
_symmetry_equiv_pos_as_xyz
1 x,y,z
2 -x,1/2+y,1/2-z
3 -x,-y,-z
4 x,-1/2-y,-1/2+z
_cell_length_a 14.3003(1)
_cell_length_b 16.1456(1)
_cell_length_c 28.9538(2)
_cell_angle_alpha 90
_cell_angle_beta 93.8634(3)
_cell_angle_gamma 90
_cell_formula_units_Z 4
loop_
_atom_type_symbol
_atom_type_radius_bond
C 0.68
H 0.23
Ge 1.47
Hg 1.45
K 2.10
N 0.68
O 0.68
loop_
_atom_site_label
_atom_site_type_symbol
_atom_site_fract_x
_atom_site_fract_y
_atom_site_fract_z
Hg1 Hg 0.483150(11) 0.799112(10) 0.247416(6)
Ge1 Ge 0.45350(4) 1.02877(3) 0.366490(17)
Ge2 Ge 0.55550(3) 0.94392(3) 0.313810(17)
Ge3 Ge 0.57414(3) 1.11441(3) 0.323180(17)
Ge4 Ge 0.38131(3) 1.13272(3) 0.307570(16)
Ge5 Ge 0.36189(3) 0.96204(3) 0.296350(17)
Ge6 Ge 0.62627(3) 1.03297(3) 0.250650(18)
Ge7 Ge 0.49755(3) 1.14349(3) 0.240640(16)
Ge8 Ge 0.34281(3) 1.06445(3) 0.227530(16)
Ge9 Ge 0.47515(3) 0.95490(3) 0.227350(16)
K1 K 1.02694(7) 0.82632(6) 0.29961(4)
N1 N 0.8930(3) 0.8620(3) 0.21594(15)
N2 N 1.1583(3) 0.7901(3) 0.38527(15)
O1 O 0.8415(2) 0.7730(2) 0.29942(12)
O2 O 0.9560(2) 0.7506(2) 0.38178(14)
O3 O 1.0010(2) 0.99401(19) 0.26966(11)
O4 O 1.1253(2) 0.95041(19) 0.34524(12)
O5 O 1.0629(3) 0.7661(2) 0.21165(13)
O6 O 1.1773(2) 0.7182(2) 0.29259(14)
C1 C 0.8040(4) 0.8187(4) 0.2222(2)
H1 H 0.80990 0.76060 0.21200
H2 H 0.75380 0.84510 0.20210
C2 C 0.7759(3) 0.8194(4) 0.2710(2)
H3 H 0.77370 0.87710 0.28230
H4 H 0.71260 0.79500 0.27220
C3 C 0.8052(4) 0.7510(4) 0.3415(2)
H5 H 0.74670 0.71880 0.33550
H6 H 0.79030 0.80150 0.35900
C4 C 0.8754(4) 0.7005(4) 0.3690(2)
H7 H 0.84780 0.67940 0.39720
H8 H 0.89420 0.65240 0.35050
C5 C 1.0241(4) 0.7076(4) 0.4107(2)
H9 H 1.04860 0.65970 0.39400
H10 H 0.99560 0.68690 0.43870
C6 C 1.1029(4) 0.7673(4) 0.4243(2)
H11 H 1.07600 0.81820 0.43710
H12 H 1.14480 0.74180 0.44890
C7 C 0.8792(3) 0.9527(3) 0.2141(2)
H13 H 0.83550 0.96870 0.23760
H14 H 0.84960 0.96770 0.18330
C8 C 0.9680(3) 1.0010(3) 0.22230(18)
H15 H 1.01600 0.97940 0.20230
H16 H 0.95650 1.05990 0.21440
C9 C 1.0908(3) 1.0315(3) 0.27833(18)
H17 H 1.08980 1.08850 0.26570
H18 H 1.13860 0.99940 0.26280
C10 C 1.1153(4) 1.0337(3) 0.32922(19)
H19 H 1.17470 1.06440 0.33580
H20 H 1.06530 1.06210 0.34520
C11 C 1.1634(4) 0.9441(3) 0.39162(19)
H21 H 1.11250 0.94550 0.41310
H22 H 1.20610 0.99120 0.39900
C12 C 1.2162(4) 0.8640(3) 0.39694(19)
H23 H 1.26940 0.86530 0.37680
H24 H 1.24240 0.85910 0.42930
C13 C 0.9325(4) 0.8335(3) 0.17312(19)
H25 H 0.97530 0.87660 0.16240
H26 H 0.88110 0.82620 0.14880
C14 C 0.9853(4) 0.7534(3) 0.1793(2)
H27 H 0.94380 0.71000 0.19080
H28 H 1.00740 0.73490 0.14930
C15 C 1.1277(5) 0.6989(3) 0.2131(2)
H29 H 1.15040 0.68960 0.18190
H30 H 1.09680 0.64760 0.22290
C16 C 1.2076(4) 0.7197(4) 0.2464(2)
H31 H 1.25880 0.67910 0.24350
H32 H 1.23190 0.77540 0.23940
C17 C 1.2543(4) 0.7273(3) 0.3257(2)
H33 H 1.28460 0.78170 0.32170
H34 H 1.30130 0.68350 0.32120
C18 C 1.2198(4) 0.7209(3) 0.3731(2)
H35 H 1.18500 0.66820 0.37550
H36 H 1.27450 0.71890 0.39600
K2 K 0.64425(7) 0.82176(6) 0.00605(3)
N3 N 0.5308(3) 0.6710(3) -0.02425(15)
N4 N 0.7590(4) 0.9756(3) 0.03882(17)
O7 O 0.5121(3) 0.7591(3) 0.05963(15)
O8 O 0.6098(3) 0.8993(2) 0.08927(11)
O9 O 0.5355(3) 0.8264(2) -0.07780(11)
O10 O 0.6559(3) 0.9612(2) -0.05155(14)
O11 O 0.7357(3) 0.6688(2) 0.00079(16)
O12 O 0.8359(3) 0.8076(3) 0.03550(17)
C19 C 0.4705(5) 0.6451(4) 0.0125(2)
H37 H 0.41700 0.61300 -0.00160
H38 H 0.50680 0.60810 0.03430
C20 C 0.4345(5) 0.7144(5) 0.0384(3)
H39 H 0.39640 0.75130 0.01730
H40 H 0.39420 0.69360 0.06240
C21 C 0.4966(5) 0.7982(4) 0.1008(2)
H41 H 0.47580 0.75680 0.12320
H42 H 0.44600 0.83950 0.09540
C22 C 0.5798(5) 0.8387(4) 0.12007(18)
H43 H 0.56680 0.86520 0.14980
H44 H 0.63020 0.79730 0.12630
C23 C 0.6804(6) 0.9504(4) 0.1109(2)
H45 H 0.73440 0.91600 0.12240
H46 H 0.65560 0.97930 0.13760
C24 C 0.7115(6) 1.0125(4) 0.0767(2)
H47 H 0.65610 1.04350 0.06370
H48 H 0.75430 1.05260 0.09300
C25 C 0.4727(4) 0.6928(4) -0.0666(2)
H49 H 0.41510 0.72080 -0.05750
H50 H 0.45340 0.64110 -0.08300
C26 C 0.5203(5) 0.7476(4) -0.09908(18)
H51 H 0.58090 0.72290 -0.10640
H52 H 0.48080 0.75380 -0.12830
C27 C 0.5680(4) 0.8852(4) -0.10916(17)
H53 H 0.52140 0.89110 -0.13580
H54 H 0.62740 0.86540 -0.12100
C28 C 0.5834(4) 0.9658(3) -0.0869(2)
H55 H 0.59990 1.00710 -0.11020
H56 H 0.52490 0.98430 -0.07350
C29 C 0.6732(5) 1.0388(3) -0.0292(2)
H57 H 0.62090 1.05260 -0.00990
H58 H 0.67790 1.08300 -0.05260
C30 C 0.7626(6) 1.0333(4) 0.0003(3)
H59 H 0.81340 1.01600 -0.01920
H60 H 0.77860 1.08900 0.01280
C31 C 0.5967(5) 0.6048(4) -0.0338(2)
H61 H 0.62330 0.61550 -0.06390
H62 H 0.56260 0.55140 -0.03620
C32 C 0.6761(5) 0.5978(4) 0.0036(3)
H63 H 0.65040 0.59540 0.03450
H64 H 0.71240 0.54660 -0.00090
C33 C 0.8167(5) 0.6635(4) 0.0311(3)
H65 H 0.84940 0.61050 0.02610
H66 H 0.79920 0.66510 0.06350
C34 C 0.8785(5) 0.7325(5) 0.0225(4)
H67 H 0.93920 0.72510 0.04060
H68 H 0.89070 0.73440 -0.01080
C35 C 0.8894(5) 0.8801(5) 0.0250(3)
H69 H 0.88030 0.89350 -0.00830
H70 H 0.95690 0.87030 0.03280
C36 C 0.8550(5) 0.9497(4) 0.0534(2)
H71 H 0.85710 0.93230 0.08630
H72 H 0.89760 0.99760 0.05120
N5 N 0.1073(4) 0.8683(4) 0.08035(19)
C37 C 0.1611(5) 0.8029(5) 0.0878(3)
H73 H 0.14950 0.75490 0.06920
C38 C 0.2349(5) 0.8016(6) 0.1221(3)
H74 H 0.27350 0.75410 0.12730
C39 C 0.2488(5) 0.8731(7) 0.1482(2)
H75 H 0.29780 0.87570 0.17200
C40 C 0.1922(5) 0.9389(6) 0.1395(3)
H76 H 0.20100 0.98850 0.15690
C41 C 0.1249(5) 0.9331(5) 0.1066(3)
H77 H 0.08550 0.98000 0.10140
N6 N 0.1061(7) 0.4805(9) 0.1004(4)
C42 C 0.0616(6) 0.5035(10) 0.0593(4)
H78 H 0.00190 0.48120 0.04980
C43 C 0.1026(5) 0.5574(6) 0.0327(3)
H79 H 0.06960 0.57740 0.00540
C44 C 0.1874(5) 0.5833(4) 0.0435(2)
H80 H 0.21680 0.61920 0.02290
C45 C 0.2355(5) 0.5595(5) 0.0843(3)
H81 H 0.29790 0.57790 0.09140
C46 C 0.1931(5) 0.5102(5) 0.1140(3)
H82 H 0.22260 0.49640 0.14340
Hg1A Hg 0.516850(11) 1.299112(10) 0.252584(6)
Ge7A Ge 0.50245(3) 0.64349(3) 0.259360(16)
#END
