
#######################################################################
#
#                 Cambridge Crystallographic Data Centre
#                                CCDC
#
#######################################################################
#
# If this CIF has been generated from an entry in the Cambridge
# Structural Database, then it will include bibliographic, chemical,
# crystal, experimental, refinement or atomic coordinate data resulting
# from the CCDC's data processing and validation procedures.
#
#######################################################################

data_CSD_CIF_BOMCUB
_audit_creation_date 1983-07-20
_audit_creation_method CSD-ConQuest-V1
_database_code_CSD BOMCUB
_database_code_depnum_ccdc_archive 'CCDC 1113599'
_chemical_formula_sum 'C4 H8 In1 N1 O10'
_chemical_formula_moiety
;
(C4 In1 O8 1-)n,n(H4 N1 1+),2n(H2 O1)
;
_journal_coeditor_code "IUCr A22272"
_journal_coden_Cambridge 591
_journal_volume 39
_journal_year 1983
_journal_page_first 176
_journal_name_full 'Acta Crystallogr.,Sect.C:Cryst.Struct.Commun. '
loop_
_publ_author_name
"N.Bulc"
"L.Golic"
"J.Siftar"
_chemical_name_systematic
;
catena-[Ammonium bis(\m-oxalato)-indium(iii) dihydrate]
;
_cell_volume    800.116
_exptl_crystal_density_diffrn 2.148
_exptl_special_details
;
Isomorphous with the sodium analogue

;
_diffrn_ambient_temperature ?
_diffrn_special_details
;
The study was carried out at room temperature,in the range 283-303K

;
#These two values have been output from a single CSD field.
_refine_ls_R_factor_gt 0.024
_refine_ls_wR_factor_gt 0.024
_symmetry_cell_setting hexagonal
_symmetry_space_group_name_H-M 'P 62 2 2'
_symmetry_Int_Tables_number 180
loop_
_symmetry_equiv_pos_site_id
_symmetry_equiv_pos_as_xyz
1 x,y,z
2 -y,x-y,2/3+z
3 -x+y,-x,1/3+z
4 y,x,2/3-z
5 x-y,-y,-z
6 -x,-x+y,1/3-z
7 -x,-y,z
8 y,-x+y,2/3+z
9 x-y,x,1/3+z
10 -y,-x,2/3-z
11 -x+y,y,-z
12 x,x-y,1/3-z
_cell_length_a 9.025(1)
_cell_length_b 9.025(1)
_cell_length_c 11.343(1)
_cell_angle_alpha 90
_cell_angle_beta 90
_cell_angle_gamma 120
_cell_formula_units_Z 3
loop_
_atom_type_symbol
_atom_type_radius_bond
C 0.68
H 0.23
In 1.63
N 0.68
O 0.68
loop_
_atom_site_label
_atom_site_type_symbol
_atom_site_fract_x
_atom_site_fract_y
_atom_site_fract_z
In1 In 0.50000 0.50000 0.33330
O1 O 0.26810 0.34680 0.43860
O2 O 0.44690 0.68830 0.44460
C1 C 0.21090 0.42190 0.50000
C2 C 0.30980 0.61950 0.50000
N1 N 0.00000 0.00000 0.00000
H1 H 0.10420 0.07630 -0.05260
O3 O 0.24800 0.00000 0.50000
H2 H 0.35990 0.09440 0.48320
O1C O 0.34680 0.26810 0.22807
O1F O 0.73190 0.65320 0.43860
O1I O 0.65320 0.73190 0.22807
O2C O 0.68830 0.44690 0.22207
O2F O 0.55310 0.31170 0.44460
O2I O 0.31170 0.55310 0.22207
O1J O 0.07870 0.34680 0.56140
O2J O 0.24140 0.68830 0.55540
C1C C 0.42190 0.21090 0.16667
C2C C 0.61950 0.30980 0.16667
In1B In 0.00000 0.50000 0.66663
O1G O 0.34680 0.07870 0.10527
O2G O 0.68830 0.24140 0.11127
In1A In 0.50000 0.00000 -0.00003
H1D H 0.02790 -0.07630 0.05260
H1F H -0.10420 -0.07630 -0.05260
H1J H -0.02790 0.07630 0.05260
H2D H 0.26550 -0.09440 0.51680
#END
