
#######################################################################
#
#                 Cambridge Crystallographic Data Centre
#                                CCDC
#
#######################################################################
#
# If this CIF has been generated from an entry in the Cambridge
# Structural Database, then it will include bibliographic, chemical,
# crystal, experimental, refinement or atomic coordinate data resulting
# from the CCDC's data processing and validation procedures.
#
#######################################################################

data_CSD_CIF_BONCEP
_audit_creation_date 2019-08-22
_audit_creation_method CSD-ConQuest-V1
_database_code_CSD BONCEP
_database_code_depnum_ccdc_archive 'CCDC 1916762'
_chemical_formula_sum 'C82 H70 Cd4 N12 O30'
_chemical_formula_moiety
;
(C70 H38 Cd4 N8 O20 2-)n,C12 H12 N4 2+,10(H2 O1)
;
_journal_coden_Cambridge 1295
_journal_volume 108
_journal_year 2019
_journal_page_first 107491
_journal_name_full 'Inorg.Chem.Commun. '
loop_
_publ_author_name
"Yanqing Di"
"Xiaowei Cui"
"Yongliang Liu"
"Chunsheng Zhou"
"Youying Di"
_chemical_name_systematic
;
catena-[1,1'-(1,4-phenylene)di(1H-imidazol-3-ium) 
bis(\m-[1^1^,2^1^:2^3^,3^1^-terphenyl]-1^2^,1^5^,2^5^,3^2^,3^5^-pentacarboxyla
to)-bis(\m-1,1'-(1,4-phenylene)di(1H-imidazole))-tetra-cadmium(ii) 
decahydrate]
;
_cell_volume   2119.068
_exptl_crystal_density_diffrn 1.687
_diffrn_ambient_temperature 296
#These two values have been output from a single CSD field.
_refine_ls_R_factor_gt 0.1029
_refine_ls_wR_factor_gt 0.1029
_symmetry_cell_setting triclinic
_symmetry_space_group_name_H-M 'P -1'
_symmetry_Int_Tables_number 2
loop_
_symmetry_equiv_pos_site_id
_symmetry_equiv_pos_as_xyz
1 x,y,z
2 -x,-y,-z
_cell_length_a 10.807(5)
_cell_length_b 13.173(6)
_cell_length_c 16.344(7)
_cell_angle_alpha 77.063(7)
_cell_angle_beta 82.965(7)
_cell_angle_gamma 69.313(6)
_cell_formula_units_Z 1
loop_
_atom_type_symbol
_atom_type_radius_bond
C 0.68
H 0.23
Cd 1.44
N 0.68
O 0.68
loop_
_atom_site_label
_atom_site_type_symbol
_atom_site_fract_x
_atom_site_fract_y
_atom_site_fract_z
C1 C 0.843(12) 0.242(10) 0.148(8)
C2 C 0.751(11) 0.290(9) 0.078(7)
C3 C 0.777(13) 0.372(11) 0.016(8)
H1 H 0.85060 0.39230 0.01920
C4 C 0.695(13) 0.425(11) -0.050(8)
H2 H 0.71390 0.47930 -0.09200
C5 C 0.583(12) 0.397(10) -0.055(7)
C6 C 0.489(14) 0.455(11) -0.125(8)
C7 C 0.556(12) 0.314(10) 0.007(8)
H3 H 0.48210 0.29540 0.00390
C8 C 0.64(1) 0.259(9) 0.075(8)
C9 C 0.598(11) 0.176(9) 0.141(8)
C10 C 0.466(11) 0.198(10) 0.165(8)
H4 H 0.40430 0.26610 0.14400
C11 C 0.424(10) 0.119(10) 0.219(8)
C12 C 0.515(12) 0.02(1) 0.255(8)
H5 H 0.48560 -0.03030 0.29410
C13 C 0.656(11) -0.006(9) 0.233(8)
C14 C 0.278(13) 0.134(13) 0.236(10)
C15 C 0.691(11) 0.074(9) 0.176(7)
H6 H 0.77950 0.06060 0.15940
C16 C 0.745(12) -0.117(9) 0.266(7)
C17 C 0.699(12) -0.208(10) 0.275(8)
H7 H 0.61130 -0.19510 0.26580
C18 C 0.787(12) -0.317(9) 0.297(8)
C19 C 0.735(14) -0.409(10) 0.299(8)
C20 C 0.915(13) -0.336(10) 0.311(9)
H8 H 0.97260 -0.40840 0.32450
C21 C 0.960(13) -0.249(9) 0.305(9)
H9 H 1.04810 -0.26330 0.31410
C22 C 0.876(11) -0.142(9) 0.286(8)
C23 C 1.023(14) 0.274(12) 0.390(9)
H10 H 1.07550 0.30320 0.34970
C24 C 0.910(17) 0.176(13) 0.455(10)
H11 H 0.87120 0.12080 0.46970
C25 C 0.893(16) 0.254(14) 0.50(1)
H12 H 0.83960 0.26460 0.54820
C26 C 0.985(14) 0.408(11) 0.481(9)
C27 C 0.931(13) -0.051(9) 0.287(9)
C28 C 1.106(14) 0.425(11) 0.465(9)
H13 H 1.17690 0.37540 0.44120
C29 C 0.879(14) 0.483(11) 0.515(9)
H14 H 0.79740 0.47300 0.52370
C30 C 0.547(18) 0.370(13) 0.44(1)
H15 H 0.53750 0.43770 0.45220
C31 C 0.507(17) 0.288(13) 0.492(10)
H16 H 0.46700 0.28980 0.54590
C32 C 0.596(13) 0.239(10) 0.373(8)
H17 H 0.62670 0.19760 0.33070
C33 C 0.521(15) 0.101(10) 0.475(8)
C34 C 0.619(15) 0.005(12) 0.457(10)
H18 H 0.69870 0.00810 0.42970
C35 C 0.405(15) 0.095(12) 0.518(10)
H19 H 0.34110 0.15910 0.53100
Cd1 Cd 0.6706(9) 0.4319(7) 0.2509(6)
Cd2 Cd 1.0276(8) 0.1172(7) 0.2702(6)
N1 N 0.991(11) 0.188(9) 0.385(8)
N2 N 0.972(12) 0.315(9) 0.459(8)
N3 N 0.600(11) 0.337(9) 0.367(7)
N4 N 0.541(13) 0.205(9) 0.448(7)
O1 O 0.819(9) 0.277(7) 0.214(6)
O2 O 0.950(9) 0.165(9) 0.137(6)
O3 O 0.516(11) 0.529(9) -0.179(6)
O4 O 0.389(10) 0.431(8) -0.126(6)
O5 O 1.045(9) -0.060(8) 0.253(8)
O6 O 0.868(10) 0.027(8) 0.322(6)
O7 O 0.818(9) -0.496(7) 0.277(7)
O8 O 0.62(1) -0.399(9) 0.316(8)
O9 O 0.197(9) 0.224(9) 0.214(8)
O10 O 0.249(9) 0.051(9) 0.269(8)
C36 C 0.92(2) 0.70(2) 0.090(14)
H20 H 0.96800 0.63080 0.11290
C37 C 0.79(2) 0.740(19) 0.072(12)
H21 H 0.72990 0.69820 0.07930
C38 C 0.86(2) 0.885(17) 0.036(14)
H22 H 0.86130 0.95560 0.01450
C39 C 0.622(18) 0.927(16) 0.019(12)
C40 C 0.61(2) 1.012(18) -0.050(12)
H23 H 0.68460 1.01780 -0.08370
C41 C 0.516(19) 0.910(19) 0.069(13)
H24 H 0.52780 0.84930 0.11270
N5 N 0.960(18) 0.797(17) 0.068(12)
H25 H 1.03750 0.79670 0.07370
N6 N 0.753(16) 0.852(14) 0.039(11)
O11 O 0.154(18) 0.86(2) 0.106(13)
H26 H 0.17(9) 0.91(8) 0.12(14)
H27 H 0.2(3) 0.81(13) 0.15(9)
O12 O 0.666(18) 0.367(19) 0.657(14)
H28 H 0.66(7) 0.32(10) 0.70(8)
H29 H 0.69(18) 0.42(11) 0.67(11)
O13 O 0.07(2) 0.451(19) 0.188(17)
H30 H 0.08(7) 0.4(2) 0.15(18)
H31 H 0.1(7) 0.5(4) 0.2(3)
O14 O 0.36(2) 0.83(2) 0.226(18)
H32 H 0.3(6) 0.9(2) 0.2(6)
H33 H 0.4(10) 0.8(8) 0.3(10)
O15 O 0.27(3) 0.46(3) 0.287(16)
H34 H 0.31(13) 0.45(13) 0.24(6)
H35 H 0.3(5) 0.39(18) 0.3(2)
C23A C 0.977(14) 0.726(12) 0.610(9)
H10A H 0.92450 0.69680 0.65030
C24A C 1.090(17) 0.824(13) 0.545(10)
H11A H 1.12880 0.87920 0.53030
C25A C 1.107(16) 0.746(14) 0.50(1)
H12A H 1.16040 0.73540 0.45180
C26A C 1.015(14) 0.592(11) 0.519(9)
C28A C 0.894(14) 0.575(11) 0.535(9)
H13A H 0.82310 0.62460 0.55880
C29A C 1.121(14) 0.517(11) 0.485(9)
H14A H 1.20260 0.52700 0.47630
N1A N 1.009(11) 0.812(9) 0.615(8)
N2A N 1.028(12) 0.685(9) 0.541(8)
C30A C 0.453(18) -0.370(13) 0.56(1)
H15A H 0.46250 -0.43770 0.54780
C31A C 0.493(17) -0.288(13) 0.508(10)
H16A H 0.53300 -0.28980 0.45410
C32A C 0.404(13) -0.239(10) 0.627(8)
H17A H 0.37330 -0.19760 0.66930
C33A C 0.479(15) -0.101(10) 0.525(8)
C34A C 0.381(15) -0.005(12) 0.543(10)
H18A H 0.30130 -0.00810 0.57030
C35A C 0.595(15) -0.095(12) 0.482(10)
H19A H 0.65890 -0.15910 0.46900
N3A N 0.400(11) -0.337(9) 0.633(7)
N4A N 0.459(13) -0.205(9) 0.552(7)
C1A C 0.157(12) -0.242(10) 0.852(8)
C2A C 0.249(11) -0.290(9) 0.922(7)
C3A C 0.223(13) -0.372(11) 0.984(8)
H1A H 0.14940 -0.39230 0.98080
C4A C 0.305(13) -0.425(11) 1.050(8)
H2A H 0.28610 -0.47930 1.09200
C5A C 0.417(12) -0.397(10) 1.055(7)
C6A C 0.511(14) -0.455(11) 1.125(8)
C7A C 0.444(12) -0.314(10) 0.993(8)
H3A H 0.51790 -0.29540 0.99610
C8A C 0.36(1) -0.259(9) 0.925(8)
C9A C 0.402(11) -0.176(9) 0.859(8)
C10A C 0.534(11) -0.198(10) 0.835(8)
H4A H 0.59570 -0.26610 0.85600
C11A C 0.576(10) -0.119(10) 0.781(8)
C12A C 0.485(12) -0.02(1) 0.745(8)
H5A H 0.51440 0.03030 0.70590
C13A C 0.344(11) 0.006(9) 0.767(8)
C14A C 0.722(13) -0.134(13) 0.764(10)
C15A C 0.309(11) -0.074(9) 0.824(7)
H6A H 0.22050 -0.06060 0.84060
C16A C 0.255(12) 0.117(9) 0.734(7)
C17A C 0.301(12) 0.208(10) 0.725(8)
H7A H 0.38870 0.19510 0.73420
C18A C 0.213(12) 0.317(9) 0.703(8)
C19A C 0.265(14) 0.409(10) 0.701(8)
C20A C 0.085(13) 0.336(10) 0.689(9)
H8A H 0.02740 0.40840 0.67550
C21A C 0.040(13) 0.249(9) 0.695(9)
H9A H -0.04810 0.26330 0.68590
C22A C 0.124(11) 0.142(9) 0.714(8)
C27A C 0.069(13) 0.051(9) 0.713(9)
Cd1A Cd 0.3294(9) -0.4319(7) 0.7491(6)
Cd2A Cd -0.0276(8) -0.1172(7) 0.7298(6)
O1A O 0.181(9) -0.277(7) 0.786(6)
O2A O 0.050(9) -0.165(9) 0.863(6)
O3A O 0.484(11) -0.529(9) 1.179(6)
O4A O 0.611(10) -0.431(8) 1.126(6)
O5A O -0.045(9) 0.060(8) 0.747(8)
O6A O 0.132(10) -0.027(8) 0.678(6)
O7A O 0.182(9) 0.496(7) 0.723(7)
O8A O 0.38(1) 0.399(9) 0.684(8)
O9A O 0.803(9) -0.224(9) 0.786(8)
O10A O 0.751(9) -0.051(9) 0.731(8)
Cd1* Cd 0.6706(9) -0.5681(7) 0.2509(6)
Cd1** Cd 0.6706(9) -0.5681(7) 1.2509(6)
Cd1A* Cd 0.3294(9) 0.5681(7) -0.2509(6)
Cd1A** Cd 0.3294(9) 0.5681(7) 0.7491(6)
Cd2* Cd 0.0276(8) 0.1172(7) 0.2702(6)
Cd2A* Cd 0.9724(8) -0.1172(7) 0.7298(6)
Cd2A** Cd 0.9724(8) 0.8828(7) 0.7298(6)
N1A* N 0.009(11) -0.188(9) 0.615(8)
O3* O 0.516(11) -0.471(9) 0.821(6)
O3A* O 0.484(11) 0.471(9) 0.179(6)
O4* O 0.389(10) -0.569(8) 0.874(6)
O4A* O 0.611(10) 0.569(8) 0.126(6)
O7* O 0.818(9) 0.504(7) 0.277(7)
O7A* O 0.182(9) -0.504(7) 0.723(7)
O8* O 0.62(1) 0.601(9) 0.316(8)
O8A* O 0.38(1) -0.601(9) 0.684(8)
O9* O 1.197(9) 0.224(9) 0.214(8)
O9A* O -0.197(9) -0.224(9) 0.786(8)
O10* O 1.249(9) 0.051(9) 0.269(8)
O10A* O -0.249(9) -0.051(9) 0.731(8)
C36A C 0.08(2) 1.30(2) -0.090(14)
H20A H 0.03200 1.36920 -0.11290
C37A C 0.21(2) 1.260(19) -0.072(12)
H21A H 0.27010 1.30180 -0.07930
C38A C 0.14(2) 1.115(17) -0.036(14)
H22A H 0.13870 1.04440 -0.01450
C39A C 0.378(18) 1.073(16) -0.019(12)
C40A C 0.39(2) 0.988(18) 0.050(12)
H23A H 0.31540 0.98220 0.08370
C41A C 0.484(19) 1.090(19) -0.069(13)
H24A H 0.47220 1.15070 -0.11270
N5A N 0.040(18) 1.203(17) -0.068(12)
H25A H -0.03750 1.20330 -0.07370
N6A N 0.247(16) 1.148(14) -0.039(11)
#END
