
#######################################################################
#
#                 Cambridge Crystallographic Data Centre
#                                CCDC
#
#######################################################################
#
# If this CIF has been generated from an entry in the Cambridge
# Structural Database, then it will include bibliographic, chemical,
# crystal, experimental, refinement or atomic coordinate data resulting
# from the CCDC's data processing and validation procedures.
#
#######################################################################

data_CSD_CIF_BONMOH
_audit_creation_date 2009-08-25
_audit_creation_method CSD-ConQuest-V1
_database_code_CSD BONMOH
_database_code_depnum_ccdc_archive 'CCDC 693391'
_chemical_formula_sum 'C20 H18 Cd1 N2 O10'
_chemical_formula_moiety
;
(C12 H14 N2 2+)n,n(C8 H4 Cd1 O10 2-)
;
_journal_coden_Cambridge 1350
_journal_volume 11
_journal_year 2009
_journal_page_first 271
_journal_name_full 'CrystEngComm '
loop_
_publ_author_name
"Bo Zheng"
"Junfeng Bai"
_chemical_name_systematic
;
catena-(bis(\m~2~-squarato-O,O')-diaqua-cadmium(ii) 
(1,2-bis(4-pyridinio)ethane) clathrate)
;
_cell_volume    516.469
_exptl_crystal_colour 'colorless'
_exptl_crystal_density_diffrn 1.797
_exptl_special_details
;
Authors describe this as a polyrotaxane like network

;
_exptl_crystal_description 'block'
_diffrn_ambient_temperature 291
#These two values have been output from a single CSD field.
_refine_ls_R_factor_gt 0.0269
_refine_ls_wR_factor_gt 0.0269
_symmetry_cell_setting triclinic
_symmetry_space_group_name_H-M 'P -1'
_symmetry_Int_Tables_number 2
loop_
_symmetry_equiv_pos_site_id
_symmetry_equiv_pos_as_xyz
1 x,y,z
2 -x,-y,-z
_cell_length_a 8.0087(16)
_cell_length_b 8.1857(16)
_cell_length_c 8.3767(17)
_cell_angle_alpha 85.300(2)
_cell_angle_beta 71.493(2)
_cell_angle_gamma 83.153(2)
_cell_formula_units_Z 1
loop_
_atom_type_symbol
_atom_type_radius_bond
C 0.68
H 0.23
Cd 1.44
N 0.68
O 0.68
loop_
_atom_site_label
_atom_site_type_symbol
_atom_site_fract_x
_atom_site_fract_y
_atom_site_fract_z
C1 C 0.5429(4) 0.1065(4) 0.5239(4)
C2 C 0.6259(4) -0.0601(4) 0.4817(4)
C3 C 0.4476(4) 0.5243(4) 0.9024(4)
C4 C 0.6272(4) 0.4812(4) 0.9134(4)
Cd1 Cd 0.50000 0.50000 0.50000
O1 O 0.5969(3) 0.2351(2) 0.5538(3)
O2 O 0.7785(3) -0.1312(3) 0.4577(3)
O3 O 0.3800(3) 0.5545(3) 0.7845(2)
O4 O 0.7777(3) 0.4595(3) 0.8119(3)
O5 O 0.7778(3) 0.5409(3) 0.4881(3)
H1 H 0.77900 0.63870 0.51440
H2 H 0.81140 0.47310 0.55690
C5 C 1.0093(5) 0.8264(5) 0.7377(5)
H3 H 1.08050 0.82070 0.62590
C6 C 0.8601(4) 0.9331(5) 0.7789(4)
H4 H 0.83240 1.00450 0.69670
C7 C 0.7501(4) 0.9349(4) 0.9430(4)
C8 C 0.5792(4) 1.0466(4) 0.9925(5)
H5 H 0.58520 1.13650 0.90850
H6 H 0.56410 1.09340 1.09950
C9 C 0.7987(5) 0.8290(5) 1.0613(4)
H7 H 0.72560 0.82590 1.17250
C10 C 0.9534(5) 0.7291(5) 1.0156(5)
H8 H 0.98790 0.66070 1.09610
N1 N 1.0541(3) 0.7301(4) 0.8565(4)
H9 H 1.15130 0.66650 0.82880
C1A C 0.4571(4) -0.1065(4) 0.4761(4)
C2A C 0.3741(4) 0.0601(4) 0.5183(4)
C3A C 0.5524(4) 0.4757(4) 1.0976(4)
C4A C 0.3728(4) 0.5188(4) 1.0866(4)
Cd1* Cd 0.50000 -0.50000 0.50000
Cd1** Cd 0.50000 0.50000 1.50000
O1A O 0.4031(3) -0.2351(2) 0.4462(3)
O1A* O 0.4031(3) 0.7649(2) 0.4462(3)
O2A O 0.2215(3) 0.1312(3) 0.5423(3)
O3A O 0.6200(3) 0.4455(3) 1.2155(2)
O3A* O 0.6200(3) 0.4455(3) 0.2155(2)
O4A O 0.2223(3) 0.5405(3) 1.1881(3)
O5A O 0.2222(3) 0.4591(3) 0.5119(3)
H1A H 0.22100 0.36130 0.48560
H2A H 0.18860 0.52690 0.44310
C5A C -0.0093(5) 1.1736(5) 1.2623(5)
H3A H -0.08050 1.17930 1.37410
C6A C 0.1399(4) 1.0669(5) 1.2211(4)
H4A H 0.16760 0.99550 1.30330
C7A C 0.2499(4) 1.0651(4) 1.0570(4)
C8A C 0.4208(4) 0.9534(4) 1.0075(5)
H5A H 0.41480 0.86350 1.09150
H6A H 0.43590 0.90660 0.90050
C9A C 0.2013(5) 1.1710(5) 0.9387(4)
H7A H 0.27440 1.17410 0.82750
C10A C 0.0466(5) 1.2709(5) 0.9844(5)
H8A H 0.01210 1.33930 0.90390
N1A N -0.0541(3) 1.2699(4) 1.1435(4)
H9A H -0.15130 1.33350 1.17120
#END
