
#######################################################################
#
#                 Cambridge Crystallographic Data Centre
#                                CCDC
#
#######################################################################
#
# If this CIF has been generated from an entry in the Cambridge
# Structural Database, then it will include bibliographic, chemical,
# crystal, experimental, refinement or atomic coordinate data resulting
# from the CCDC's data processing and validation procedures.
#
#######################################################################

data_CSD_CIF_BONVEH
_audit_creation_date 2014-10-03
_audit_creation_method CSD-ConQuest-V1
_database_code_CSD BONVEH
_database_code_depnum_ccdc_archive 'CCDC 940265'
_chemical_formula_sum 'C22 H25 In1 N2 O9'
_chemical_formula_moiety
;
(C16 H8 In1 O8 1-)n,n(C4 H9 N1 O1),n(C2 H8 N1 1+)
;
_journal_coden_Cambridge 923
_journal_volume 45
_journal_year 2015
_journal_page_first 231
_journal_name_full 'Synth.React.Inorg.,Met.-Org.,Nano-Met.Chem. '
loop_
_publ_author_name
"Xin-Hua Lou"
"Hong-Mei Li"
"Zhi-Jie Zhang"
"Hao Zhang"
"Chen Xu"
_chemical_name_systematic
;
catena-(Dimethylammonium bis(\m~2~-isophthalato)-indium dimethylacetamide 
solvate)
;
_cell_volume   2413.561
_exptl_crystal_colour 'colorless'
_exptl_crystal_density_diffrn 1.583
_exptl_crystal_description 'prism'
_diffrn_ambient_temperature 293
#These two values have been output from a single CSD field.
_refine_ls_R_factor_gt 0.0357
_refine_ls_wR_factor_gt 0.0357
_symmetry_cell_setting monoclinic
_symmetry_space_group_name_H-M 'P 21/n'
_symmetry_Int_Tables_number 14
loop_
_symmetry_equiv_pos_site_id
_symmetry_equiv_pos_as_xyz
1 x,y,z
2 1/2-x,1/2+y,1/2-z
3 -x,-y,-z
4 -1/2+x,-1/2-y,-1/2+z
_cell_length_a 12.249(5)
_cell_length_b 13.351(5)
_cell_length_c 14.806(5)
_cell_angle_alpha 90
_cell_angle_beta 94.588(8)
_cell_angle_gamma 90
_cell_formula_units_Z 4
loop_
_atom_type_symbol
_atom_type_radius_bond
C 0.68
H 0.23
In 1.42
N 0.68
O 0.68
loop_
_atom_site_label
_atom_site_type_symbol
_atom_site_fract_x
_atom_site_fract_y
_atom_site_fract_z
In1 In 0.246859(14) 0.342406(16) -0.004077(11)
C1 C 0.1014(2) 0.5337(2) -0.19356(19)
C2 C 0.1626(2) 0.5868(2) -0.25305(19)
H1 H 0.23850 0.58130 -0.24870
C3 C 0.1098(3) 0.6482(2) -0.3189(2)
C4 C -0.0036(3) 0.6566(2) -0.3251(2)
H2 H -0.03890 0.69670 -0.36980
C5 C -0.0647(3) 0.6052(3) -0.2645(2)
H3 H -0.14050 0.61180 -0.26810
C6 C -0.0123(3) 0.5443(2) -0.1989(2)
H4 H -0.05300 0.51020 -0.15820
C7 C 0.1563(2) 0.4652(2) -0.12432(18)
C8 C 0.1750(3) 0.7084(2) -0.3803(2)
C9 C 0.3950(2) 0.5315(2) 0.18919(19)
C10 C 0.3317(2) 0.5871(2) 0.2449(2)
H5 H 0.25570 0.58320 0.23740
C11 C 0.3816(3) 0.6484(2) 0.3118(2)
C12 C 0.4946(3) 0.6543(2) 0.3230(3)
H6 H 0.52810 0.69460 0.36840
C13 C 0.5583(3) 0.6001(3) 0.2664(3)
H7 H 0.63420 0.60500 0.27340
C14 C 0.5083(3) 0.5389(3) 0.1996(2)
H8 H 0.55080 0.50270 0.16180
C15 C 0.3417(3) 0.4631(2) 0.11905(19)
C16 C 0.3132(3) 0.7095(2) 0.3714(2)
O1 O 0.09926(18) 0.41063(17) -0.07799(15)
O2 O 0.25911(18) 0.46141(19) -0.11289(15)
O3 O 0.1232(2) 0.75404(18) -0.44632(15)
O4 O 0.2751(2) 0.7176(2) -0.36676(18)
O5 O 0.23905(18) 0.46132(18) 0.10464(15)
O6 O 0.39940(18) 0.40688(17) 0.07433(15)
O7 O 0.3638(2) 0.7511(2) 0.43935(16)
O8 O 0.2134(3) 0.7184(2) 0.3535(2)
C17 C 0.0007(4) 0.6072(3) -0.5932(3)
H9 H 0.02320 0.59570 -0.53040
H10 H 0.05940 0.58960 -0.62940
H11 H -0.06230 0.56680 -0.61070
C18 C -0.0616(5) 0.7392(4) -0.6997(3)
H12 H -0.07920 0.80930 -0.70290
H13 H -0.12510 0.70070 -0.71990
H14 H -0.00350 0.72540 -0.73770
N1 N -0.0267(3) 0.7126(3) -0.6068(2)
H15 H -0.02260 0.75550 -0.56330
O9 O -0.2236(5) 0.6870(5) -0.5433(5)
N2 N -0.3430(6) 0.6404(7) -0.4596(4)
C19 C -0.2879(10) 0.7144(6) -0.4880(6)
C20 C -0.2988(7) 0.5327(5) -0.4848(5)
H16 H -0.24060 0.54000 -0.52400
H17 H -0.35720 0.49450 -0.51500
H18 H -0.27180 0.49860 -0.43040
C21 C -0.4376(7) 0.6439(7) -0.3988(5)
H19 H -0.45680 0.71240 -0.38830
H20 H -0.41590 0.61210 -0.34210
H21 H -0.49970 0.60950 -0.42790
C22 C -0.3429(6) 0.8076(5) -0.4646(5)
H22 H -0.30270 0.86400 -0.48480
H23 H -0.34610 0.81120 -0.40010
H24 H -0.41590 0.80860 -0.49350
In1A In 0.253141(14) 0.842406(16) -0.495923(11)
In1A* In 0.253141(14) 0.842406(16) 0.504077(11)
O3A O 0.3768(2) 0.25404(18) -0.05368(15)
O4A O 0.2249(2) 0.2176(2) -0.13324(18)
O7A O 0.1362(2) 0.2511(2) 0.06065(16)
O8A O 0.2866(3) 0.2184(2) 0.1465(2)
#END
