
#######################################################################
#
#                 Cambridge Crystallographic Data Centre
#                                CCDC
#
#######################################################################
#
# If this CIF has been generated from an entry in the Cambridge
# Structural Database, then it will include bibliographic, chemical,
# crystal, experimental, refinement or atomic coordinate data resulting
# from the CCDC's data processing and validation procedures.
#
#######################################################################

data_CSD_CIF_BOPHEV
_audit_creation_date 2014-10-03
_audit_creation_method CSD-ConQuest-V1
_database_code_CSD BOPHEV
_database_code_depnum_ccdc_archive 'CCDC 1004368'
_chemical_formula_sum 'C52 H56 Cd2 N4 O18'
_chemical_formula_moiety
;
(C44 H20 Cd2 O16 4-)n,4n(C2 H8 N1 1+),2n(H2 O1)
;
_journal_coden_Cambridge 1500
_journal_volume 4
_journal_year 2014
_journal_page_first 49090
_journal_name_full 'RSC Advances '
loop_
_publ_author_name
"Hai-Yun Ren"
"Cai-Yun Han"
"Mei Qu"
"Xian-Ming Zhang"
_chemical_name_systematic
;
catena-(tetrakis(Dimethylammonium) 
bis(\m~4~-3,3''-dicarboxylato-1,1':4',1''-terphenyl-2',5'-dicarboxylato)-di-ca
dmium dihydrate)
;
_cell_volume   2528.431
_exptl_crystal_colour 'yellow'
_exptl_crystal_density_diffrn 1.642
_exptl_crystal_description 'block'
_diffrn_ambient_temperature 293
#These two values have been output from a single CSD field.
_refine_ls_R_factor_gt 0.0413
_refine_ls_wR_factor_gt 0.0413
_symmetry_cell_setting monoclinic
_symmetry_space_group_name_H-M 'P 21/c'
_symmetry_Int_Tables_number 14
loop_
_symmetry_equiv_pos_site_id
_symmetry_equiv_pos_as_xyz
1 x,y,z
2 -x,1/2+y,1/2-z
3 -x,-y,-z
4 x,-1/2-y,-1/2+z
_cell_length_a 13.5667(10)
_cell_length_b 9.5666(8)
_cell_length_c 23.1432(18)
_cell_angle_alpha 90
_cell_angle_beta 122.672(6)
_cell_angle_gamma 90
_cell_formula_units_Z 2
loop_
_atom_type_symbol
_atom_type_radius_bond
C 0.68
H 0.23
Cd 1.44
N 0.68
O 0.68
loop_
_atom_site_label
_atom_site_type_symbol
_atom_site_fract_x
_atom_site_fract_y
_atom_site_fract_z
Cd1 Cd 0.22679(4) 0.75074(3) 0.744117(19)
O1 O 0.1509(4) 0.9324(5) 0.6606(2)
O2 O 0.3213(4) 0.8414(4) 0.6923(2)
O3 O 0.5283(5) 1.2196(5) 0.6407(2)
O4 O 0.6808(4) 1.0738(4) 0.6829(2)
O5 O 0.0268(4) 0.6606(4) 0.6886(2)
O6 O 0.1367(4) 0.5895(5) 0.6514(2)
C1 C 0.2367(6) 0.9186(5) 0.6545(3)
C2 C 0.2335(5) 0.9966(5) 0.5964(3)
C3 C 0.1359(6) 1.0753(6) 0.5505(3)
H1 H 0.07360 1.08340 0.55650
C4 C 0.3263(5) 0.9848(5) 0.5869(3)
H2 H 0.39180 0.93240 0.61760
C5 C 0.3222(5) 1.0504(5) 0.5318(3)
C6 C 0.2232(5) 1.1284(6) 0.4865(3)
H3 H 0.21870 1.17250 0.44930
C7 C 0.1311(6) 1.1412(6) 0.4962(3)
H4 H 0.06590 1.19450 0.46590
C8 C 0.4162(5) 1.0279(6) 0.5176(3)
C9 C 0.3848(5) 0.9744(6) 0.4540(3)
H5 H 0.30590 0.95730 0.42200
C10 C 0.5343(6) 1.0556(6) 0.5650(3)
C11 C 0.5821(6) 1.1212(6) 0.6342(3)
C12 C -0.0608(5) 0.5103(5) 0.5918(3)
C13 C -0.1699(5) 0.5214(5) 0.5810(3)
H6 H -0.18100 0.58370 0.60780
C14 C -0.2660(5) 0.4429(5) 0.5311(3)
C15 C -0.2461(6) 0.3500(6) 0.4923(3)
H7 H -0.30720 0.29520 0.45910
C16 C -0.1363(6) 0.3384(7) 0.5025(4)
H8 H -0.12470 0.27640 0.47580
C17 C -0.0438(5) 0.4171(6) 0.5518(3)
H9 H 0.02980 0.40810 0.55820
C18 C -0.3853(5) 0.4685(5) 0.5170(3)
C19 C 0.0404(5) 0.5934(5) 0.6480(3)
C20 C -0.4061(5) 0.4876(6) 0.5692(3)
C21 C -0.4793(5) 0.4777(6) 0.4488(3)
H10 H -0.46600 0.46050 0.41400
O7 O -0.2461(4) 0.3654(4) 0.6641(2)
O8 O -0.3145(5) 0.5565(5) 0.6856(2)
C22 C -0.3137(5) 0.4678(6) 0.6460(3)
N1 N 0.5663(5) 0.6066(5) 0.2988(3)
H11 H 0.51000 0.64270 0.30370
H12 H 0.56050 0.64800 0.26210
C23 C 0.6807(7) 0.6425(8) 0.3596(5)
H13 H 0.68880 0.59930 0.39930
H14 H 0.68670 0.74210 0.36550
H15 H 0.74160 0.60960 0.35370
C24 C 0.5453(7) 0.4560(6) 0.2850(4)
H16 H 0.55540 0.40980 0.32470
H17 H 0.59980 0.41860 0.27480
H18 H 0.46680 0.44130 0.24660
N2 N 0.9400(6) 0.6226(6) 0.7728(3)
H19 H 0.88060 0.56790 0.76580
H20 H 0.94890 0.61020 0.73730
C25 C 1.0451(8) 0.5818(14) 0.8350(5)
H21 H 1.06830 0.49060 0.82930
H22 H 1.03150 0.57950 0.87160
H23 H 1.10600 0.64780 0.84580
C26 C 0.9122(12) 0.7677(9) 0.7752(7)
H24 H 0.84570 0.79470 0.73140
H25 H 0.97810 0.82510 0.78610
H26 H 0.89440 0.77940 0.80990
O9 O 0.4020(6) 0.1920(6) 0.3060(3)
H27 H 0.36600 0.12290 0.30640
H28 H 0.386(7) 0.273(6) 0.316(4)
O1B O 0.8491(4) 1.0676(5) 0.3394(2)
O2B O 0.6787(4) 1.1586(4) 0.3077(2)
O3B O 0.4717(5) 0.7804(5) 0.3593(2)
O4B O 0.3192(4) 0.9262(4) 0.3171(2)
C1B C 0.7633(6) 1.0814(5) 0.3455(3)
C2B C 0.7665(5) 1.0034(5) 0.4036(3)
C3B C 0.8641(6) 0.9247(6) 0.4495(3)
H1B H 0.92640 0.91660 0.44350
C4B C 0.6737(5) 1.0152(5) 0.4131(3)
H2B H 0.60820 1.06760 0.38240
C5B C 0.6778(5) 0.9496(5) 0.4682(3)
C6B C 0.7768(5) 0.8716(6) 0.5135(3)
H3B H 0.78130 0.82750 0.55070
C7B C 0.8689(6) 0.8588(6) 0.5038(3)
H4B H 0.93410 0.80550 0.53410
C8B C 0.5838(5) 0.9721(6) 0.4824(3)
C9B C 0.6152(5) 1.0256(6) 0.5460(3)
H5B H 0.69410 1.04270 0.57800
C10B C 0.4657(6) 0.9444(6) 0.4350(3)
C11B C 0.4179(6) 0.8788(6) 0.3658(3)
O5B O -1.0268(4) 0.3394(4) 0.3114(2)
O6B O -1.1367(4) 0.4105(5) 0.3486(2)
C12B C -0.9392(5) 0.4897(5) 0.4082(3)
C13B C -0.8301(5) 0.4786(5) 0.4190(3)
H6B H -0.81900 0.41630 0.39220
C14B C -0.7340(5) 0.5571(5) 0.4689(3)
C15B C -0.7539(6) 0.6500(6) 0.5077(3)
H7B H -0.69280 0.70480 0.54090
C16B C -0.8637(6) 0.6616(7) 0.4975(4)
H8B H -0.87530 0.72360 0.52420
C17B C -0.9562(5) 0.5829(6) 0.4482(3)
H9B H -1.02980 0.59190 0.44180
C18B C -0.6147(5) 0.5315(5) 0.4830(3)
C19B C -1.0404(5) 0.4066(5) 0.3520(3)
C20B C -0.5939(5) 0.5124(6) 0.4308(3)
C21B C -0.5207(5) 0.5223(6) 0.5512(3)
H10B H -0.53400 0.53950 0.58600
O7B O -0.7539(4) 0.6346(4) 0.3359(2)
O8B O -0.6855(5) 0.4435(5) 0.3144(2)
C22B C -0.6863(5) 0.5322(6) 0.3540(3)
Cd1B Cd -1.22679(4) 0.24926(3) 0.255883(19)
Cd1A Cd -0.22679(4) 0.25074(3) 0.755883(19)
Cd1A* Cd 0.77321(4) 1.25074(3) 0.755883(19)
Cd1B* Cd 0.77321(4) 1.24926(3) 0.255883(19)
Cd1C Cd -0.77321(4) 0.74926(3) 0.244117(19)
Cd1C* Cd 0.22679(4) 0.74926(3) 0.244117(19)
O1B* O -1.1509(4) 0.0676(5) 0.3394(2)
O2B* O -1.3213(4) 0.1586(4) 0.3077(2)
O4A O 0.3192(4) 0.5738(4) 0.8171(2)
O4C O -1.3192(4) 0.4262(4) 0.1829(2)
O7A O 0.2461(4) 0.8654(4) 0.8359(2)
O7C O -1.2461(4) 0.1346(4) 0.1641(2)
#END
