
#######################################################################
#
#                 Cambridge Crystallographic Data Centre
#                                CCDC
#
#######################################################################
#
# If this CIF has been generated from an entry in the Cambridge
# Structural Database, then it will include bibliographic, chemical,
# crystal, experimental, refinement or atomic coordinate data resulting
# from the CCDC's data processing and validation procedures.
#
#######################################################################

data_CSD_CIF_BOPHIZ
_audit_creation_date 2014-10-03
_audit_creation_method CSD-ConQuest-V1
_database_code_CSD BOPHIZ
_database_code_depnum_ccdc_archive 'CCDC 1004369'
_chemical_formula_sum 'C109 H103 Cd6 N8 O39'
_chemical_formula_moiety
;
(C94 H58 Cd6 N2 O36 3-)n,3(C2 H8 N1 1+),3(C3 H7 N1 O1)
;
_journal_coden_Cambridge 1500
_journal_volume 4
_journal_year 2014
_journal_page_first 49090
_journal_name_full 'RSC Advances '
loop_
_publ_author_name
"Hai-Yun Ren"
"Cai-Yun Han"
"Mei Qu"
"Xian-Ming Zhang"
_chemical_name_systematic
;
catena-[tris(dimethylammonium) 
tetrakis(\m-1,1':4',1''-terphenyl-2',3,3'',5'-tetracarboxylato)-bis(N,N-dimeth
ylformamide)-diaqua-hexa-cadmium N,N-dimethylformamide solvate]
;
_cell_volume   3067.678
_exptl_crystal_colour 'yellow'
_exptl_crystal_description 'sheet'
_diffrn_ambient_temperature 293
_refine_special_details
;
The structure is disordered. The authors sum of formula is C47.50 H32.50 
Cd2.50 N1.50 O17.50.The SQUEEZE/PLATON program has been used to model some 
disorder.
;
#These two values have been output from a single CSD field.
_refine_ls_R_factor_gt 0.0498
_refine_ls_wR_factor_gt 0.0498
_symmetry_cell_setting triclinic
_symmetry_space_group_name_H-M 'P -1'
_symmetry_Int_Tables_number 2
loop_
_symmetry_equiv_pos_site_id
_symmetry_equiv_pos_as_xyz
1 x,y,z
2 -x,-y,-z
_cell_length_a 11.2195(4)
_cell_length_b 15.8170(7)
_cell_length_c 18.0989(6)
_cell_angle_alpha 102.099(3)
_cell_angle_beta 96.385(3)
_cell_angle_gamma 98.947(3)
_cell_formula_units_Z 1
loop_
_atom_type_symbol
_atom_type_radius_bond
C 0.68
H 0.23
Cd 1.44
N 0.68
O 0.68
loop_
_atom_site_label
_atom_site_type_symbol
_atom_site_fract_x
_atom_site_fract_y
_atom_site_fract_z
Cd1 Cd 0.73090(6) 0.25003(4) 0.63584(4)
Cd2 Cd 0.64148(6) 0.67881(4) 0.88470(4)
O1 O 1.5299(7) 0.2104(6) 0.5908(5)
O2 O 1.5441(7) 0.3506(6) 0.6376(5)
O3 O 0.9334(7) 0.1889(5) 0.6387(5)
O4 O 0.7735(7) 0.1349(5) 0.5502(5)
O5 O 0.6770(8) 0.1549(5) 0.7296(4)
O6 O 0.7603(6) 0.2937(4) 0.7647(4)
O7 O 0.4080(7) 0.2153(4) 1.0178(4)
O8 O 0.4365(8) 0.1925(5) 1.1326(4)
O9 O 0.8183(9) 0.3348(6) 0.5679(5)
O10 O 0.8114(9) 0.4498(7) 0.6510(5)
O11 O 0.7290(6) 0.6368(5) 0.7736(4)
O12 O 0.8446(7) 0.7364(5) 0.8691(4)
O13 O 0.4677(8) 0.5307(7) 0.7473(5)
O14 O 0.4638(7) 0.5926(6) 0.8671(5)
O15 O 0.1964(8) 0.3364(6) 0.9551(5)
O16 O 0.2700(7) 0.4221(5) 1.0681(5)
C1 C 1.3493(9) 0.2682(7) 0.5752(5)
C2 C 1.2709(8) 0.1873(6) 0.5638(6)
H1 H 1.30240 0.13910 0.57390
C3 C 1.1462(8) 0.1769(6) 0.5375(5)
C4 C 1.1020(9) 0.2486(7) 0.5224(6)
H2 H 1.01910 0.24340 0.50600
C5 C 1.1794(9) 0.3290(7) 0.5313(6)
H3 H 1.14810 0.37620 0.51890
C6 C 1.3021(9) 0.3396(7) 0.5583(6)
H4 H 1.35280 0.39390 0.56520
C7 C 1.0681(8) 0.0873(7) 0.5218(6)
C8 C 0.9482(9) 0.0696(7) 0.5364(6)
C9 C 0.8851(8) -0.0162(6) 0.5152(6)
H5 H 0.80600 -0.02710 0.52640
C10 C 1.4839(9) 0.2772(8) 0.6036(6)
C11 C 0.8834(10) 0.1370(7) 0.5801(7)
C12 C 0.7175(9) 0.2223(6) 0.7805(5)
C13 C 0.7126(9) 0.2217(6) 0.8632(5)
C14 C 0.7805(10) 0.2908(6) 0.9212(5)
H6 H 0.83190 0.33660 0.90940
C15 C 0.7698(10) 0.2898(7) 0.9958(6)
H7 H 0.81290 0.33640 1.03450
C16 C 0.6965(9) 0.2213(6) 1.0148(5)
H8 H 0.69090 0.22220 1.06580
C17 C 0.6311(8) 0.1512(6) 0.9580(5)
C18 C 0.6413(9) 0.1522(6) 0.8828(5)
H9 H 0.59920 0.10510 0.84420
C19 C 0.5594(8) 0.0747(6) 0.9786(5)
C20 C 0.4771(9) 0.0832(6) 1.0301(5)
C21 C 0.4191(9) 0.0090(6) 1.0516(5)
H10 H 0.36490 0.01580 1.08690
C22 C 0.4389(10) 0.1704(6) 1.0628(6)
C23 C 0.8459(10) 0.4135(7) 0.5938(6)
C24 C 0.9250(8) 0.4640(6) 0.5479(5)
C25 C 1.0070(8) 0.5440(6) 0.5781(5)
C26 C 1.0793(8) 0.5765(6) 0.5283(5)
H11 H 1.13430 0.62910 0.54780
C27 C 1.0240(8) 0.5954(7) 0.6581(5)
C28 C 1.1396(9) 0.6225(7) 0.7011(6)
H12 H 1.20670 0.60660 0.67950
C29 C 1.1573(10) 0.6723(8) 0.7752(6)
H13 H 1.23570 0.69040 0.80250
C30 C 1.0595(10) 0.6951(8) 0.8087(6)
H14 H 1.07160 0.72830 0.85870
C31 C 0.9426(9) 0.6688(7) 0.7680(5)
C32 C 0.9236(9) 0.6210(7) 0.6915(5)
H15 H 0.84580 0.60650 0.66330
C33 C 0.8319(9) 0.6834(7) 0.8059(5)
C34 C 0.4201(10) 0.5419(8) 0.8055(7)
C35 C 0.2932(9) 0.4907(7) 0.8031(6)
C36 C 0.2308(10) 0.4360(8) 0.7357(7)
H16 H 0.26970 0.42600 0.69280
C37 C 0.1118(11) 0.3963(9) 0.7315(7)
H17 H 0.07000 0.36070 0.68550
C38 C 0.0537(10) 0.4086(8) 0.7950(6)
H18 H -0.02790 0.38350 0.79140
C39 C 0.1179(9) 0.4590(7) 0.8646(6)
C40 C 0.2363(8) 0.4999(6) 0.8677(5)
H19 H 0.27900 0.53430 0.91400
C41 C -0.0411(8) 0.5225(6) 0.9336(5)
H20 H -0.06930 0.53730 0.88860
C42 C 0.0567(8) 0.4767(6) 0.9341(5)
C43 C 0.0968(8) 0.4539(6) 1.0036(6)
C44 C 0.1957(9) 0.3998(7) 1.0078(7)
O17 O 0.6860(9) 0.4496(6) 0.7941(8)
H21 H 0.73880 0.49520 0.84560
H22 H 0.74290 0.39930 0.79170
O18 O 0.5936(16) 0.5459(13) 0.5862(10)
N1 N 0.515(3) 0.6777(19) 0.5994(18)
C45 C 0.508(3) 0.587(2) 0.590(2)
C46 C 0.430(3) 0.604(2) 0.547(2)
H23 H 0.34700 0.59320 0.55760
H24 H 0.43880 0.59310 0.49360
C47 C 0.620(4) 0.746(3) 0.636(3)
H25 H 0.60860 0.77130 0.68760
H26 H 0.62870 0.79120 0.60820
H27 H 0.69280 0.72090 0.63800
Cd3 Cd 0.63529(10) 0.49321(8) 0.69717(6)
N2 N 0.5954(16) 0.6980(12) 0.1038(9)
H28 H 0.57270 0.74080 0.08270
H29 H 0.66860 0.69020 0.09060
C48 C 0.612(2) 0.7313(16) 0.1915(12)
H30 H 0.58230 0.78540 0.20400
H31 H 0.69720 0.74100 0.21190
H32 H 0.56740 0.68810 0.21320
C49 C 0.5075(18) 0.6163(15) 0.0693(12)
H33 H 0.50950 0.60080 0.01530
H34 H 0.42700 0.62490 0.07820
H35 H 0.52870 0.56990 0.09200
O1A O 0.4701(7) -0.2104(6) 0.4092(5)
O2A O 0.4559(7) -0.3506(6) 0.3624(5)
O3A O 1.0666(7) -0.1889(5) 0.3613(5)
O4A O 1.2265(7) -0.1349(5) 0.4498(5)
C1A C 0.6507(9) -0.2682(7) 0.4248(5)
C2A C 0.7291(8) -0.1873(6) 0.4362(6)
H1A H 0.69760 -0.13910 0.42610
C3A C 0.8538(8) -0.1769(6) 0.4625(5)
C4A C 0.8980(9) -0.2486(7) 0.4776(6)
H2A H 0.98090 -0.24340 0.49400
C5A C 0.8206(9) -0.3290(7) 0.4687(6)
H3A H 0.85190 -0.37620 0.48110
C6A C 0.6979(9) -0.3396(7) 0.4417(6)
H4A H 0.64720 -0.39390 0.43480
C7A C 0.9319(8) -0.0873(7) 0.4782(6)
C8A C 1.0518(9) -0.0696(7) 0.4636(6)
C9A C 1.1149(8) 0.0162(6) 0.4848(6)
H5A H 1.19400 0.02710 0.47360
C10A C 0.5161(9) -0.2772(8) 0.3964(6)
C11A C 1.1166(10) -0.1370(7) 0.4199(7)
O5A O 0.3230(8) -0.1549(5) 1.2704(4)
O6A O 0.2397(6) -0.2937(4) 1.2353(4)
O7A O 0.5920(7) -0.2153(4) 0.9822(4)
O8A O 0.5635(8) -0.1925(5) 0.8674(4)
C12A C 0.2825(9) -0.2223(6) 1.2195(5)
C13A C 0.2874(9) -0.2217(6) 1.1368(5)
C14A C 0.2195(10) -0.2908(6) 1.0788(5)
H6A H 0.16810 -0.33660 1.09060
C15A C 0.2302(10) -0.2898(7) 1.0042(6)
H7A H 0.18710 -0.33640 0.96550
C16A C 0.3035(9) -0.2213(6) 0.9852(5)
H8A H 0.30910 -0.22220 0.93420
C17A C 0.3689(8) -0.1512(6) 1.0420(5)
C18A C 0.3587(9) -0.1522(6) 1.1172(5)
H9A H 0.40080 -0.10510 1.15580
C19A C 0.4406(8) -0.0747(6) 1.0214(5)
C20A C 0.5229(9) -0.0832(6) 0.9699(5)
C21A C 0.5809(9) -0.0090(6) 0.9484(5)
H10A H 0.63510 -0.01580 0.91310
C22A C 0.5611(10) -0.1704(6) 0.9372(6)
O9A O 1.1817(9) 0.6652(6) 0.4321(5)
O10A O 1.1886(9) 0.5502(7) 0.3490(5)
O11A O 1.2710(6) 0.3632(5) 0.2264(4)
O12A O 1.1554(7) 0.2636(5) 0.1309(4)
C23A C 1.1541(10) 0.5865(7) 0.4062(6)
C24A C 1.0750(8) 0.5360(6) 0.4521(5)
C25A C 0.9930(8) 0.4560(6) 0.4219(5)
C26A C 0.9207(8) 0.4235(6) 0.4717(5)
H11A H 0.86570 0.37090 0.45220
C27A C 0.9760(8) 0.4046(7) 0.3419(5)
C28A C 0.8604(9) 0.3775(7) 0.2989(6)
H12A H 0.79330 0.39340 0.32050
C29A C 0.8427(10) 0.3277(8) 0.2248(6)
H13A H 0.76430 0.30960 0.19750
C30A C 0.9405(10) 0.3049(8) 0.1913(6)
H14A H 0.92840 0.27170 0.14130
C31A C 1.0574(9) 0.3312(7) 0.2320(5)
C32A C 1.0764(9) 0.3790(7) 0.3085(5)
H15A H 1.15420 0.39350 0.33670
C33A C 1.1681(9) 0.3166(7) 0.1941(5)
O13A O -0.4677(8) 0.4693(7) 1.2527(5)
O14A O -0.4638(7) 0.4074(6) 1.1329(5)
O15A O -0.1964(8) 0.6636(6) 1.0449(5)
O16A O -0.2700(7) 0.5779(5) 0.9319(5)
C34A C -0.4201(10) 0.4581(8) 1.1945(7)
C35A C -0.2932(9) 0.5093(7) 1.1969(6)
C36A C -0.2308(10) 0.5640(8) 1.2643(7)
H16A H -0.26970 0.57400 1.30720
C37A C -0.1118(11) 0.6037(9) 1.2685(7)
H17A H -0.07000 0.63930 1.31450
C38A C -0.0537(10) 0.5914(8) 1.2050(6)
H18A H 0.02790 0.61650 1.20860
C39A C -0.1179(9) 0.5410(7) 1.1354(6)
C40A C -0.2363(8) 0.5001(6) 1.1323(5)
H19A H -0.27900 0.46570 1.08600
C41A C 0.0411(8) 0.4775(6) 1.0664(5)
H20A H 0.06930 0.46270 1.11140
C42A C -0.0567(8) 0.5233(6) 1.0659(5)
C43A C -0.0968(8) 0.5461(6) 0.9964(6)
C44A C -0.1957(9) 0.6002(7) 0.9922(7)
Cd2A Cd -0.64148(6) 0.32119(4) 1.11530(4)
O17A O -0.6860(9) 0.5504(6) 1.2059(8)
H21A H -0.73880 0.50480 1.15440
H22A H -0.74290 0.60070 1.20830
O18A O -0.5936(16) 0.4541(13) 1.4138(10)
N1A N -0.515(3) 0.3223(19) 1.4006(18)
C45A C -0.508(3) 0.413(2) 1.410(2)
C46A C -0.430(3) 0.396(2) 1.453(2)
H23A H -0.34700 0.40680 1.44240
H24A H -0.43880 0.40690 1.50640
C47A C -0.620(4) 0.254(3) 1.364(3)
H25A H -0.60860 0.22870 1.31240
H26A H -0.62870 0.20880 1.39180
H27A H -0.69280 0.27910 1.36200
Cd3A Cd -0.63529(10) 0.50679(8) 1.30283(6)
Cd1* Cd 1.73090(6) 0.25003(4) 0.63584(4)
Cd1A Cd 0.26910(6) -0.25003(4) 0.36416(4)
Cd1A* Cd 0.26910(6) -0.25003(4) 1.36416(4)
Cd1A** Cd 1.26910(6) -0.25003(4) 0.36416(4)
Cd1A*** Cd 1.26910(6) 0.74997(4) 0.36416(4)
Cd2* Cd -0.35852(6) 0.67881(4) 0.88470(4)
Cd2** Cd 0.64148(6) -0.32119(4) 0.88470(4)
Cd2A* Cd 0.35852(6) 0.32119(4) 1.11530(4)
Cd2A** Cd 1.35852(6) 0.32119(4) 0.11530(4)
O1* O 0.5299(7) 0.2104(6) 0.5908(5)
O2* O 0.5441(7) 0.3506(6) 0.6376(5)
O2A* O -0.5441(7) 0.6494(6) 1.3624(5)
O3* O 1.9334(7) 0.1889(5) 0.6387(5)
O4* O 1.7735(7) 0.1349(5) 0.5502(5)
O5* O 1.6770(8) 0.1549(5) 0.7296(4)
O6* O 1.7603(6) 0.2937(4) 0.7647(4)
O7* O -0.5920(7) 0.2153(4) 1.0178(4)
O7A* O 0.5920(7) 0.7847(4) 0.9822(4)
O8* O -0.5635(8) 0.1925(5) 1.1326(4)
O8A* O 0.5635(8) 0.8075(5) 0.8674(4)
O9* O 1.8183(9) 0.3348(6) 0.5679(5)
O10A* O -0.8114(9) 0.5502(7) 1.3490(5)
O11A* O -0.7290(6) 0.3632(5) 1.2264(4)
O12A* O -0.8446(7) 0.2636(5) 1.1309(4)
O16* O -0.7300(7) 0.4221(5) 1.0681(5)
O16A* O 0.7300(7) 0.5779(5) 0.9319(5)
Cd3* Cd 1.63529(10) 0.49321(8) 0.69717(6)
Cd3A* Cd 0.36471(10) -0.49321(8) 0.30283(6)
Cd3A** Cd 1.36471(10) 0.50679(8) 0.30283(6)
#END
