
#######################################################################
#
#                 Cambridge Crystallographic Data Centre
#                                CCDC
#
#######################################################################
#
# If this CIF has been generated from an entry in the Cambridge
# Structural Database, then it will include bibliographic, chemical,
# crystal, experimental, refinement or atomic coordinate data resulting
# from the CCDC's data processing and validation procedures.
#
#######################################################################

data_CSD_CIF_BOPPUU
_audit_creation_date 2019-08-22
_audit_creation_method CSD-ConQuest-V1
_database_code_CSD BOPPUU
_database_code_depnum_ccdc_archive 'CCDC 1893002'
_chemical_formula_sum 'C19 H36 Fe4 N3 O26'
_chemical_formula_moiety
;
(C12 H12 Fe4 O24 3-)n,n(C1 O2),3n(C2 H8 N1 1+)
;
_journal_coden_Cambridge 9
_journal_volume 58
_journal_year 2019
_journal_page_first 11773
_journal_name_full 'Inorg.Chem. '
loop_
_publ_author_name
"S.Sobczak"
"A.Katrusiak"
_chemical_name_systematic
;
catena-(tris(dimethylammonium) dodecakis(\m-formato)-tri-iron(ii)-iron(iii) 
carbon dioxide)
;
_cell_volume   1739.083
_exptl_crystal_colour 'green'
_exptl_special_details
;
obtained by high-pressure reaction in methanol or ethanol
The amount of carbon dioxide is not made clear
;
_exptl_crystal_description 'cube'
_diffrn_ambient_temperature 99.8
_refine_special_details
;
The cation and carbon dioxide molecules are disordered by symmetry.

;
#These two values have been output from a single CSD field.
_refine_ls_R_factor_gt 0.054
_refine_ls_wR_factor_gt 0.054
_symmetry_cell_setting cubic
_symmetry_space_group_name_H-M 'I m -3'
_symmetry_Int_Tables_number 204
loop_
_symmetry_equiv_pos_site_id
_symmetry_equiv_pos_as_xyz
1 x,y,z
2 z,x,y
3 y,z,x
4 -y,-z,x
5 z,-x,-y
6 -y,z,-x
7 -z,-x,y
8 -z,x,-y
9 y,-z,-x
10 -x,-y,z
11 x,-y,-z
12 -x,y,-z
13 1/2+x,1/2+y,1/2+z
14 1/2+z,1/2+x,1/2+y
15 1/2+y,1/2+z,1/2+x
16 1/2-y,1/2-z,1/2+x
17 1/2+z,1/2-x,1/2-y
18 1/2-y,1/2+z,1/2-x
19 1/2-z,1/2-x,1/2+y
20 1/2-z,1/2+x,1/2-y
21 1/2+y,1/2-z,1/2-x
22 1/2-x,1/2-y,1/2+z
23 1/2+x,1/2-y,1/2-z
24 1/2-x,1/2+y,1/2-z
25 -x,-y,-z
26 -z,-x,-y
27 -y,-z,-x
28 y,z,-x
29 -z,x,y
30 y,-z,x
31 z,x,-y
32 z,-x,y
33 -y,z,x
34 x,y,-z
35 -x,y,z
36 x,-y,z
37 -1/2-x,-1/2-y,-1/2-z
38 -1/2-z,-1/2-x,-1/2-y
39 -1/2-y,-1/2-z,-1/2-x
40 -1/2+y,-1/2+z,-1/2-x
41 -1/2-z,-1/2+x,-1/2+y
42 -1/2+y,-1/2-z,-1/2+x
43 -1/2+z,-1/2+x,-1/2-y
44 -1/2+z,-1/2-x,-1/2+y
45 -1/2-y,-1/2+z,-1/2+x
46 -1/2+x,-1/2+y,-1/2-z
47 -1/2-x,-1/2+y,-1/2+z
48 -1/2+x,-1/2-y,-1/2+z
_cell_length_a 12.0256(2)
_cell_length_b 12.0256(2)
_cell_length_c 12.0256(2)
_cell_angle_alpha 90
_cell_angle_beta 90
_cell_angle_gamma 90
_cell_formula_units_Z 2
loop_
_atom_type_symbol
_atom_type_radius_bond
C 0.68
H 0.23
Fe 1.52
N 0.68
O 0.68
loop_
_atom_site_label
_atom_site_type_symbol
_atom_site_fract_x
_atom_site_fract_y
_atom_site_fract_z
Fe1 Fe 0.25000 0.25000 0.25000
O1 O 0.0918(3) 0.2971(3) 0.1923(3)
C1 C 0.00000 0.2616(8) 0.2212(8)
H1 H 0.00000 0.223(7) 0.253(7)
N1 N 0.00000 0.434(5) 0.00000
C2 C 0.101(2) 0.50000 0.00000
N2 N 0.00000 0.50000 0.067(3)
C3 C 0.060(4) 0.055(2) 0.00000
O2 O 0.00000 0.131(4) 0.00000
O1A O 0.1923(3) 0.0918(3) 0.2971(3)
O1B O 0.2971(3) 0.1923(3) 0.0918(3)
O1JA O 0.4082(3) 0.2029(3) 0.3077(3)
O1KA O 0.3077(3) 0.4082(3) 0.2029(3)
O1LA O 0.2029(3) 0.3077(3) 0.4082(3)
C1A C 0.22120 0.0000(8) 0.2616(8)
C1B C 0.26160 0.2212(8) 0.0000(8)
C1V C 0.50000 0.2384(8) 0.2788(8)
C1S C 0.27880 0.5000(8) 0.2384(8)
C1O C 0.23840 0.2788(8) 0.5000(8)
O1HA O -0.0918(3) 0.2971(3) 0.1923(3)
H1A H 0.25300 0.000(7) 0.223(7)
O1EA O 0.1923(3) -0.0918(3) 0.2971(3)
H1B H 0.22300 0.253(7) 0.000(7)
O1AA O 0.2971(3) 0.1923(3) -0.0918(3)
O1V O 0.5918(3) 0.2029(3) 0.3077(3)
H1V H 0.50000 0.277(7) 0.247(7)
O1S O 0.3077(3) 0.5918(3) 0.2029(3)
H1S H 0.24700 0.500(7) 0.277(7)
O1O O 0.2029(3) 0.3077(3) 0.5918(3)
H1O H 0.27700 0.247(7) 0.500(7)
Fe1P Fe -0.25000 0.25000 0.25000
Fe1Q Fe 0.25000 -0.25000 0.25000
Fe1O Fe 0.25000 0.25000 -0.25000
Fe1P* Fe 0.75000 0.25000 0.25000
Fe1Q* Fe 0.25000 0.75000 0.25000
Fe1O* Fe 0.25000 0.25000 0.75000
O1P O 0.6923(3) 0.4082(3) 0.2029(3)
O1T O 0.7971(3) 0.3077(3) 0.4082(3)
O1HA* O 0.9082(3) 0.2971(3) 0.1923(3)
O1BA O 0.8077(3) 0.0918(3) 0.2971(3)
O1FA O 0.7029(3) 0.1923(3) 0.0918(3)
O1Q O 0.2029(3) 0.6923(3) 0.4082(3)
O1W O 0.4082(3) 0.7971(3) 0.3077(3)
O1EA* O 0.1923(3) 0.9082(3) 0.2971(3)
O1CA O 0.2971(3) 0.8077(3) 0.0918(3)
O1IA O 0.0918(3) 0.7029(3) 0.1923(3)
O1U O 0.4082(3) 0.2029(3) 0.6923(3)
O1R O 0.3077(3) 0.4082(3) 0.7971(3)
O1AA* O 0.2971(3) 0.1923(3) 0.9082(3)
O1GA O 0.0918(3) 0.2971(3) 0.8077(3)
O1DA O 0.1923(3) 0.0918(3) 0.7029(3)
C1P C 0.72120 0.5000(8) 0.2384(8)
C1T C 0.76160 0.2788(8) 0.5000(8)
C1Q C 0.23840 0.7212(8) 0.5000(8)
C1W C 0.50000 0.7616(8) 0.2788(8)
C1U C 0.50000 0.2384(8) 0.7212(8)
C1R C 0.27880 0.5000(8) 0.7616(8)
H1P H 0.75300 0.500(7) 0.277(7)
O1PA O 0.6923(3) 0.5918(3) 0.2029(3)
H1T H 0.72300 0.247(7) 0.500(7)
O1OA O 0.7971(3) 0.3077(3) 0.5918(3)
H1Q H 0.27700 0.753(7) 0.500(7)
O1RA O 0.2029(3) 0.6923(3) 0.5918(3)
H1W H 0.50000 0.723(7) 0.247(7)
O1SA O 0.5918(3) 0.7971(3) 0.3077(3)
H1U H 0.50000 0.277(7) 0.753(7)
O1UA O 0.5918(3) 0.2029(3) 0.6923(3)
H1R H 0.24700 0.500(7) 0.723(7)
O1NA O 0.3077(3) 0.5918(3) 0.7971(3)
Fe1C Fe 0.75000 0.75000 0.25000
Fe1E Fe 0.75000 0.25000 0.75000
Fe1D Fe 0.25000 0.75000 0.75000
N1I N 0.00000 0.566(5) 0.00000
C2I C -0.101(2) 0.50000 0.00000
N2J N 0.00000 0.50000 -0.067(3)
C3A C 0.000(4) 0.060(2) 0.05500
O2A O 0.00000 0.000(4) 0.13100
C3B C 0.055(4) 0.000(2) 0.06000
O2B O 0.13100 0.000(4) 0.00000
C3C C -0.055(4) 0.000(2) 0.06000
O2C O -0.13100 0.000(4) 0.00000
C3D C 0.000(4) -0.060(2) -0.05500
O2D O 0.00000 0.000(4) -0.13100
C3E C -0.055(4) 0.000(2) -0.06000
C3F C 0.000(4) -0.060(2) 0.05500
C3G C 0.000(4) 0.060(2) -0.05500
C3H C 0.055(4) 0.000(2) -0.06000
C3I C -0.060(4) -0.055(2) 0.00000
O2I O 0.00000 -0.131(4) 0.00000
C3J C 0.060(4) -0.055(2) 0.00000
C3K C -0.060(4) 0.055(2) 0.00000
#END
