
#######################################################################
#
#                 Cambridge Crystallographic Data Centre
#                                CCDC
#
#######################################################################
#
# If this CIF has been generated from an entry in the Cambridge
# Structural Database, then it will include bibliographic, chemical,
# crystal, experimental, refinement or atomic coordinate data resulting
# from the CCDC's data processing and validation procedures.
#
#######################################################################

data_CSD_CIF_BOPTOQ01
_audit_creation_date 2010-09-06
_audit_creation_method CSD-ConQuest-V1
_database_code_CSD BOPTOQ01
_database_code_depnum_ccdc_archive 'CCDC 606121'
_chemical_formula_sum 'C20 H22 Cu2 N4 O42 Si1 W12'
_chemical_formula_moiety
;
(H2 O40 Si1 W12 2-)n,n(C20 H16 Cu2 N4 2+),2n(H2 O1)
;
_journal_coden_Cambridge 211
_journal_volume 63
_journal_year 2010
_journal_page_first 196
_journal_name_full 'J.Coord.Chem. '
loop_
_publ_author_name
"Feng Yao"
"Fan-Xia Meng"
"Ya-Guang Chen"
"Chun-Jing Zhang"
_chemical_name_systematic
;
catena-(bis(\m~2~-4,4'-Bipyridine-N,N')-di-copper(i) 
(\m~12~-silicato)-bis(\m~2~-hydroxo)-docosakis(\m~2~-oxo)-dodecaoxo-dodeca-tun
gsten dihydrate)
;
_cell_volume   1398.112
_exptl_crystal_colour 'dark red'
_exptl_crystal_description 'block'
_diffrn_ambient_temperature 293
_refine_special_details
;
The silicate moiety of the anion is disordered by symmetry.

;
#These two values have been output from a single CSD field.
_refine_ls_R_factor_gt 0.0472
_refine_ls_wR_factor_gt 0.0472
_symmetry_cell_setting triclinic
_symmetry_space_group_name_H-M 'P -1'
_symmetry_Int_Tables_number 2
loop_
_symmetry_equiv_pos_site_id
_symmetry_equiv_pos_as_xyz
1 x,y,z
2 -x,-y,-z
_cell_length_a 10.8597(5)
_cell_length_b 11.8517(6)
_cell_length_c 13.3478(10)
_cell_angle_alpha 104.250(1)
_cell_angle_beta 103.253(1)
_cell_angle_gamma 114.883(1)
_cell_formula_units_Z 1
loop_
_atom_type_symbol
_atom_type_radius_bond
C 0.68
H 0.23
Cu 1.27
N 0.68
O 0.68
Si 1.20
W 1.38
loop_
_atom_site_label
_atom_site_type_symbol
_atom_site_fract_x
_atom_site_fract_y
_atom_site_fract_z
Cu1 Cu 1.0014(2) -0.4110(3) -0.1418(3)
Si1 Si 0.50000 -1.00000 -0.50000
W1 W 0.51930(7) -1.08111(7) -0.26203(5)
W2 W 0.87519(6) -0.89466(6) -0.43914(4)
W3 W 0.76459(7) -0.75633(6) -0.23658(5)
W4 W 0.25280(7) -1.32817(6) -0.52600(5)
W5 W 0.62856(6) -1.22240(6) -0.46698(4)
W6 W 0.39033(6) -0.85856(6) -0.29662(5)
O1 O 0.7879(16) -0.9970(11) -0.5949(9)
O2 O 0.869(3) -0.7515(18) -0.4754(12)
O3 O 0.6100(13) -1.2426(12) -0.6162(9)
O4 O 0.8080(15) -1.0596(12) -0.4185(9)
O5 O 0.6865(18) -1.3285(13) -0.4487(11)
O6 O 0.3410(13) -1.2325(17) -0.3676(10)
O7 O 0.1367(14) -1.4845(11) -0.5400(13)
O8 O 0.3374(15) -0.7936(13) -0.200(1)
O9 O 0.5305(14) -1.1171(14) -0.1465(9)
O10 O 0.8916(11) -0.6392(11) -0.1099(8)
O11 O 0.4222(12) -1.3388(19) -0.5217(11)
O12 O 0.5279(17) -0.9435(15) -0.3657(13)
O13 O 0.6968(14) -0.9115(15) -0.2020(19)
O14 O 0.6217(13) -1.1513(17) -0.3254(10)
O15 O 0.6717(19) -0.8738(17) -0.4369(14)
O16 O 0.879(3) -0.8150(19) -0.2965(13)
O17 O 0.789(3) -0.6453(19) -0.3197(13)
O18 O 0.4853(19) -1.1167(17) -0.4549(13)
O19 O 0.5985(13) -0.7453(14) -0.2268(17)
O20 O 1.0539(12) -0.8393(15) -0.4091(12)
O21 O 0.4144(14) -0.9865(14) -0.246(2)
O22 O 0.3883(18) -0.9554(16) -0.4825(13)
C1 C 0.3039(19) -0.4897(19) -0.2404(15)
H1 H 0.30190 -0.54420 -0.30480
C2 C 0.6070(15) -0.4217(15) -0.2387(13)
H2 H 0.53980 -0.43900 -0.30600
C3 C 0.4314(13) -0.4117(14) -0.1449(12)
C4 C 0.7373(17) -0.4105(15) -0.2330(15)
H3 H 0.76160 -0.41290 -0.29560
C5 C 0.8033(18) -0.382(2) -0.0479(15)
H4 H 0.87260 -0.36620 0.01750
C6 C 0.5727(13) -0.4071(15) -0.1427(12)
C7 C 0.6692(17) -0.3891(17) -0.0432(15)
H5 H 0.64860 -0.38230 0.02120
C8 C 0.1821(19) -0.484(2) -0.237(2)
H6 H 0.09780 -0.53570 -0.30220
C9 C 0.4245(16) -0.3314(18) -0.0542(12)
H7 H 0.50890 -0.27310 0.00970
C10 C 0.296(2) -0.336(2) -0.0569(15)
H8 H 0.29420 -0.28500 0.00720
N1 N 0.8354(13) -0.3955(14) -0.1382(14)
N2 N 0.1752(13) -0.4107(14) -0.1477(14)
O23 O 1.092(3) -0.214(3) -0.304(2)
O24 O 1.065(3) -0.072(3) -0.129(2)
Cu1* Cu 2.0014(2) -0.4110(3) -0.1418(3)
Cu1** Cu 0.0014(2) -0.4110(3) -0.1418(3)
W1A W 0.48070(7) -0.91889(7) -0.73797(5)
W2A W 0.12481(6) -1.10534(6) -0.56086(4)
W3A W 0.23541(7) -1.24367(6) -0.76342(5)
W4A W 0.74720(7) -0.67183(6) -0.47400(5)
W5A W 0.37144(6) -0.77760(6) -0.53302(4)
W6A W 0.60967(6) -1.14144(6) -0.70338(5)
O1A O 0.2121(16) -1.0030(11) -0.4051(9)
O2A O 0.131(3) -1.2485(18) -0.5246(12)
O3A O 0.3900(13) -0.7574(12) -0.3838(9)
O4A O 0.1920(15) -0.9404(12) -0.5815(9)
O5A O 0.3135(18) -0.6715(13) -0.5513(11)
O6A O 0.6590(13) -0.7675(17) -0.6324(10)
O7A O 0.8633(14) -0.5155(11) -0.4600(13)
O8A O 0.6626(15) -1.2064(13) -0.800(1)
O9A O 0.4695(14) -0.8829(14) -0.8535(9)
O10A O 0.1084(11) -1.3608(11) -0.8901(8)
O11A O 0.5778(12) -0.6612(19) -0.4783(11)
O12A O 0.4721(17) -1.0565(15) -0.6343(13)
O13A O 0.3032(14) -1.0885(15) -0.7980(19)
O14A O 0.3783(13) -0.8487(17) -0.6746(10)
O15A O 0.3283(19) -1.1262(17) -0.5631(14)
O16A O 0.121(3) -1.1850(19) -0.7035(13)
O17A O 0.211(3) -1.3547(19) -0.6803(13)
O18A O 0.5147(19) -0.8833(17) -0.5451(13)
O19A O 0.4015(13) -1.2547(14) -0.7732(17)
O20A O -0.0539(12) -1.1607(15) -0.5909(12)
O21A O 0.5856(14) -1.0135(14) -0.754(2)
O22A O 0.6117(18) -1.0446(16) -0.5175(13)
C1* C 1.3039(19) -0.4897(19) -0.2404(15)
H1* H 1.30190 -0.54420 -0.30480
C2* C 1.6070(15) -0.4217(15) -0.2387(13)
H2* H 1.53980 -0.43900 -0.30600
C3* C 1.4314(13) -0.4117(14) -0.1449(12)
C4* C 1.7373(17) -0.4105(15) -0.2330(15)
H3* H 1.76160 -0.41290 -0.29560
C5* C 1.8033(18) -0.382(2) -0.0479(15)
H4* H 1.87260 -0.36620 0.01750
C6* C 1.5727(13) -0.4071(15) -0.1427(12)
C7* C 1.6692(17) -0.3891(17) -0.0432(15)
H5* H 1.64860 -0.38230 0.02120
C8* C 1.1821(19) -0.484(2) -0.237(2)
H6* H 1.09780 -0.53570 -0.30220
C9* C 1.4245(16) -0.3314(18) -0.0542(12)
H7* H 1.50890 -0.27310 0.00970
C10* C 1.296(2) -0.336(2) -0.0569(15)
H8* H 1.29420 -0.28500 0.00720
N1* N 1.8354(13) -0.3955(14) -0.1382(14)
N2* N 1.1752(13) -0.4107(14) -0.1477(14)
N2** N 2.1752(13) -0.4107(14) -0.1477(14)
#END
