
#######################################################################
#
#                 Cambridge Crystallographic Data Centre
#                                CCDC
#
#######################################################################
#
# If this CIF has been generated from an entry in the Cambridge
# Structural Database, then it will include bibliographic, chemical,
# crystal, experimental, refinement or atomic coordinate data resulting
# from the CCDC's data processing and validation procedures.
#
#######################################################################

data_CSD_CIF_BOQWOV
_audit_creation_date 2014-10-07
_audit_creation_method CSD-ConQuest-V1
_database_code_CSD BOQWOV
_database_code_depnum_ccdc_archive 'CCDC 1027880'
_chemical_formula_sum 'C12 H16 K2 O19 Zn2'
_chemical_formula_moiety
;
(C6 O12 Zn2 2-)n,n(C6 H10 O4),2n(K1 1+),3n(H2 O1)
;
_journal_coden_Cambridge 4
_journal_volume 136
_journal_year 2014
_journal_page_first 13166
_journal_name_full 'J.Am.Chem.Soc. '
loop_
_publ_author_name
"M.Sadakiyo"
"T.Yamada"
"H.Kitagawa"
_chemical_name_systematic
;
catena-[dipotassium adipic acid tris(\m-oxalato)-di-zinc trihydrate]
;
_cell_volume    571.139
_exptl_crystal_colour 'colorless'
_exptl_crystal_density_diffrn 1.957
_exptl_crystal_description 'block'
_diffrn_ambient_temperature 113
#These two values have been output from a single CSD field.
_refine_ls_R_factor_gt 0.0251
_refine_ls_wR_factor_gt 0.0251
_symmetry_cell_setting triclinic
_symmetry_space_group_name_H-M 'P -1'
_symmetry_Int_Tables_number 2
loop_
_symmetry_equiv_pos_site_id
_symmetry_equiv_pos_as_xyz
1 x,y,z
2 -x,-y,-z
_cell_length_a 7.9038(6)
_cell_length_b 9.2715(7)
_cell_length_c 9.2904(7)
_cell_angle_alpha 61.644(1)
_cell_angle_beta 72.462(1)
_cell_angle_gamma 82.794(1)
_cell_formula_units_Z 1
loop_
_atom_type_symbol
_atom_type_radius_bond
C 0.68
K 2.03
O 0.68
Zn 1.22
loop_
_atom_site_label
_atom_site_type_symbol
_atom_site_fract_x
_atom_site_fract_y
_atom_site_fract_z
Zn1 Zn 0.48829(3) 0.16750(3) 0.17370(3)
O1 O 0.65668(19) 0.35940(18) -0.03149(18)
O2 O 0.34450(19) 0.14024(18) 0.03428(19)
O3 O 0.66061(19) 0.63274(18) -0.17773(18)
O4 O 0.66702(19) -0.00745(18) 0.59037(18)
O5 O 0.36089(19) 0.00945(19) -0.11847(19)
O6 O 0.65392(19) 0.14048(18) 0.32268(18)
C1 C 0.5919(2) 0.4966(2) -0.0599(2)
C2 C 0.4146(2) 0.0436(2) -0.0241(2)
C3 C 0.5932(2) 0.0388(2) 0.4744(2)
K1 K 0.98031(6) 0.23888(6) 0.05498(5)
O7 O 0.9014(2) 0.4579(2) 0.2088(2)
O8 O 1.0376(2) 0.3506(2) 0.4149(2)
C4 C 0.5782(3) 0.4989(3) 0.4280(3)
C5 C 0.8960(3) 0.4103(3) 0.3561(3)
C6 C 0.7342(3) 0.4075(3) 0.4940(3)
O9 O 1.0111(4) 0.0175(5) 0.3565(4)
O10 O 1.0496(3) 0.1533(4) -0.2070(3)
O1A O 0.34332(19) 0.64060(18) 0.03149(18)
O3A O 0.33939(19) 0.36726(18) 0.17773(18)
C1A C 0.4081(2) 0.5034(2) 0.0599(2)
O2A O 0.65550(19) -0.14024(18) -0.03428(19)
O5A O 0.63911(19) -0.00945(19) 0.11847(19)
C2A C 0.5854(2) -0.0436(2) 0.0241(2)
O4A O 0.33298(19) 0.00745(18) 0.40963(18)
O6A O 0.34608(19) -0.14048(18) 0.67732(18)
C3A C 0.4068(2) -0.0388(2) 0.5256(2)
Zn1A Zn 0.51171(3) -0.16750(3) -0.17370(3)
Zn1A* Zn 0.51171(3) -0.16750(3) 0.82630(3)
Zn1A** Zn 0.51171(3) 0.83250(3) -0.17370(3)
O1A* O 0.34332(19) -0.35940(18) 0.03149(18)
O3* O 0.66061(19) -0.36726(18) -0.17773(18)
O4* O 0.66702(19) -0.00745(18) -0.40963(18)
O6A* O 0.34608(19) -0.14048(18) -0.32268(18)
O7A O 0.0986(2) 0.5421(2) 0.7912(2)
O8A O -0.0376(2) 0.6494(2) 0.5851(2)
C4A C 0.4218(3) 0.5011(3) 0.5720(3)
C5A C 0.1040(3) 0.5897(3) 0.6439(3)
C6A C 0.2658(3) 0.5925(3) 0.5060(3)
#END
