
#######################################################################
#
#                 Cambridge Crystallographic Data Centre
#                                CCDC
#
#######################################################################
#
# If this CIF has been generated from an entry in the Cambridge
# Structural Database, then it will include bibliographic, chemical,
# crystal, experimental, refinement or atomic coordinate data resulting
# from the CCDC's data processing and validation procedures.
#
#######################################################################

data_CSD_CIF_BOQXUB
_audit_creation_date 2009-08-25
_audit_creation_method CSD-ConQuest-V1
_database_code_CSD BOQXUB
_database_code_depnum_ccdc_archive 'CCDC 629134'
_chemical_formula_sum 'C5 H16 N3 Ni1 O8 P1'
_chemical_formula_moiety
;
(C5 H8 N1 Ni1 O8 P1 2-)n,2n(H4 N1 1+)
;
_journal_coden_Cambridge 1295
_journal_volume 12
_journal_year 2009
_journal_page_first 119
_journal_name_full 'Inorg.Chem.Commun. '
loop_
_publ_author_name
"Kui-Rong Ma"
"Jia-Ning Xu"
"De-Kuan Ning"
"Jing Shi"
"Dao-Jun Zhang"
"Yong Fan"
"Tian-Yong Song"
_chemical_name_systematic
;
catena-(Diammonium 
(\m~2~-2,2'-(N-(phosphonomethyl)imino)diacetato)-aqua-nickel(ii))
;
_cell_volume   2300.400
_exptl_crystal_colour 'green'
_exptl_crystal_density_diffrn 1.94
_exptl_special_details
;
fluorescent; magnetic properties

;
_exptl_crystal_description 'block'
_diffrn_ambient_temperature 293
#These two values have been output from a single CSD field.
_refine_ls_R_factor_gt 0.0398
_refine_ls_wR_factor_gt 0.0398
_symmetry_cell_setting orthorhombic
_symmetry_space_group_name_H-M 'P b c a'
_symmetry_Int_Tables_number 61
loop_
_symmetry_equiv_pos_site_id
_symmetry_equiv_pos_as_xyz
1 x,y,z
2 1/2-x,-y,1/2+z
3 -x,1/2+y,1/2-z
4 1/2+x,1/2-y,-z
5 -x,-y,-z
6 -1/2+x,y,-1/2-z
7 x,-1/2-y,-1/2+z
8 -1/2-x,-1/2+y,z
_cell_length_a 9.8944(12)
_cell_length_b 9.4265(11)
_cell_length_c 24.664(3)
_cell_angle_alpha 90
_cell_angle_beta 90
_cell_angle_gamma 90
_cell_formula_units_Z 8
loop_
_atom_type_symbol
_atom_type_radius_bond
C 0.68
H 0.23
N 0.68
Ni 1.24
O 0.68
P 1.05
loop_
_atom_site_label
_atom_site_type_symbol
_atom_site_fract_x
_atom_site_fract_y
_atom_site_fract_z
Ni1 Ni 0.58078(4) 0.45646(4) 0.348820(16)
P1 P 0.44035(9) 0.24733(9) 0.42489(4)
N1 N 0.5297(3) 0.2572(3) 0.32065(10)
N2 N 0.7199(4) 0.4892(4) 0.48652(15)
N3 N 0.5382(4) 0.1601(4) 0.56483(15)
O1 O 0.3023(3) 0.2452(2) 0.45156(10)
O2 O 0.5354(3) 0.1380(2) 0.44913(10)
O3 O 0.4994(3) 0.3977(2) 0.42413(9)
O4 O 0.6487(2) 0.4714(2) 0.26792(10)
O5 O 0.6318(3) 0.3565(3) 0.18906(10)
O6 O 0.3908(3) 0.5500(3) 0.33095(13)
O7 O 0.8610(2) 0.1523(2) 0.37418(10)
O8 O 0.7567(2) 0.3592(2) 0.37221(10)
C1 C 0.6511(3) 0.1645(3) 0.32608(14)
H1 H 0.62410 0.07520 0.34240
H2 H 0.68640 0.14410 0.29020
C2 C 0.4145(3) 0.2054(3) 0.35377(12)
H3 H 0.40560 0.10350 0.34940
H4 H 0.33150 0.24930 0.34120
C3 C 0.4946(4) 0.2784(3) 0.26313(12)
H5 H 0.40570 0.32110 0.26020
H6 H 0.49310 0.18790 0.24450
C4 C 0.6000(3) 0.3755(3) 0.23738(14)
C5 C 0.7626(3) 0.2300(3) 0.36020(13)
H7 H 0.744(5) 0.414(5) 0.5074(19)
H8 H 0.639(5) 0.465(5) 0.469(2)
H9 H 0.788(4) 0.530(5) 0.4666(18)
H10 H 0.680(5) 0.549(5) 0.505(2)
H11 H 0.629(6) 0.193(6) 0.572(2)
H12 H 0.488(4) 0.219(4) 0.5882(15)
H13 H 0.524(5) 0.061(5) 0.5700(17)
H14 H 0.516(5) 0.182(5) 0.532(2)
H15 H 0.387(5) 0.639(5) 0.3316(19)
H16 H 0.308(5) 0.509(5) 0.3194(18)
Ni1G Ni 0.91922(4) -0.04354(4) 0.348820(16)
O7G O 0.6390(2) 0.6523(2) 0.37418(10)
#END
