
#######################################################################
#
#                 Cambridge Crystallographic Data Centre
#                                CCDC
#
#######################################################################
#
# If this CIF has been generated from an entry in the Cambridge
# Structural Database, then it will include bibliographic, chemical,
# crystal, experimental, refinement or atomic coordinate data resulting
# from the CCDC's data processing and validation procedures.
#
#######################################################################

data_CSD_CIF_BORFIA
_audit_creation_date 2019-08-23
_audit_creation_method CSD-ConQuest-V1
_database_code_CSD BORFIA
_database_code_depnum_ccdc_archive 'CCDC 1921048'
_chemical_formula_sum 'C56 H50 N6 O22 Zn2'
_chemical_formula_moiety
;
(C44 H26 N4 O16 Zn2 2-)n,C12 H12 N2 2+,6(H2 O1)
;
_journal_coden_Cambridge 182
_journal_volume 55
_journal_year 2019
_journal_page_first 10948
_journal_name_full 'Chem.Commun. '
loop_
_publ_author_name
"Zhichao Shao"
"Qiong Wu"
"Xiao Han"
"Yujie Zhao"
"Qiong Xie"
"Hongfei Wang"
"Hongwei Hou"
_chemical_name_systematic
;
catena-[4,4'-[ethene-1,2-diyl]di(pyridin-1-ium) 
bis(\m-5-[(3,5-dicarboxylatopyridin-1-ium-1-yl)methyl]benzene-1,3-dicarboxylat
o)-(\m-4,4'-(ethene-1,2-diyl)dipyridine)-di-zinc hexahydrate]
;
_cell_volume   1358.455
_exptl_crystal_colour 'colorless'
_exptl_crystal_density_diffrn 1.576
_exptl_crystal_description 'block'
_diffrn_ambient_temperature 293.1
#These two values have been output from a single CSD field.
_refine_ls_R_factor_gt 0.0337
_refine_ls_wR_factor_gt 0.0337
_symmetry_cell_setting triclinic
_symmetry_space_group_name_H-M 'P -1'
_symmetry_Int_Tables_number 2
loop_
_symmetry_equiv_pos_site_id
_symmetry_equiv_pos_as_xyz
1 x,y,z
2 -x,-y,-z
_cell_length_a 8.198(7)
_cell_length_b 12.125(9)
_cell_length_c 14.677(11)
_cell_angle_alpha 72.35(3)
_cell_angle_beta 78.63(4)
_cell_angle_gamma 82.21(4)
_cell_formula_units_Z 1
loop_
_atom_type_symbol
_atom_type_radius_bond
C 0.68
H 0.23
N 0.68
O 0.68
Zn 1.22
loop_
_atom_site_label
_atom_site_type_symbol
_atom_site_fract_x
_atom_site_fract_y
_atom_site_fract_z
Zn1 Zn 0.90213(3) 0.09650(2) 0.22698(2)
O1 O 0.72181(18) 0.17485(12) 0.29626(10)
O2 O 0.57996(19) 0.20526(13) 0.1747(1)
O3 O -0.0578(3) 0.81778(14) 0.34877(11)
O4 O -0.1149(2) 0.94571(12) 0.21005(11)
O5 O 0.0623(2) 0.64536(13) -0.08578(10)
O6 O 0.01083(19) 0.83288(12) -0.08989(10)
O7 O 0.2778(2) 0.45419(14) 0.56550(11)
O8 O 0.4709(2) 0.30378(14) 0.58482(11)
N1 N 0.0185(2) 0.55365(13) 0.21513(11)
N2 N 1.0780(2) 0.07635(14) 0.31123(12)
C1 C 0.5963(2) 0.21603(16) 0.25337(14)
C2 C 0.4613(2) 0.28305(15) 0.30583(14)
C3 C 0.3171(2) 0.32828(15) 0.26655(13)
H1 H 0.30546 0.31765 0.20809
C4 C 0.1906(2) 0.38911(15) 0.31384(13)
C5 C 0.0283(2) 0.42842(16) 0.27547(14)
H2 H 0.01438 0.37968 0.23639
H3 H -0.06309 0.41780 0.32971
C6 C -0.0109(2) 0.63803(16) 0.26110(14)
H4 H -0.01543 0.61802 0.32788
C7 C -0.0341(2) 0.75347(16) 0.20921(14)
C8 C -0.0717(3) 0.84548(17) 0.26285(14)
C9 C -0.0223(2) 0.78254(16) 0.10904(14)
H5 H -0.03707 0.85985 0.07324
C10 C 0.0118(2) 0.69538(16) 0.06248(13)
C11 C 0.0306(2) 0.58050(16) 0.11755(13)
H6 H 0.05160 0.52160 0.08734
C12 C 0.0296(2) 0.72444(16) -0.04711(14)
C13 C 0.2095(2) 0.40570(16) 0.40045(14)
H7 H 0.12568 0.44768 0.43173
C14 C 0.3526(2) 0.36024(16) 0.44110(14)
C15 C 0.3642(3) 0.37707(17) 0.53695(14)
C16 C 0.4787(2) 0.29774(16) 0.39403(14)
H8 H 0.57387 0.26603 0.42127
C17 C 1.0455(3) 0.11771(18) 0.38889(14)
H9 H 0.94439 0.16067 0.39973
C18 C 1.1552(3) 0.09930(19) 0.45297(16)
H10 H 1.12786 0.12927 0.50584
C19 C 1.3051(3) 0.03633(19) 0.43816(16)
C20 C 1.3391(3) -0.0088(2) 0.35840(19)
H11 H 1.43857 -0.05321 0.34694
C21 C 1.2227(3) 0.01339(19) 0.29683(18)
H12 H 1.24605 -0.01641 0.24384
C22 C 1.4226(3) 0.02269(19) 0.50643(17)
H13 H 1.38460 0.04762 0.56149
N3 N 0.4737(2) 0.33854(16) 0.75208(14)
C23 C 0.3970(3) 0.43928(18) 0.76396(15)
H14 H 0.33897 0.48684 0.71604
C24 C 0.3999(2) 0.47570(17) 0.84383(14)
H15 H 0.34175 0.54502 0.85030
C25 C 0.4915(3) 0.40728(17) 0.91524(14)
C26 C 0.5153(3) 0.44526(18) 0.99742(15)
H16 H 0.55429 0.38952 1.04936
C27 C 0.5544(3) 0.2695(2) 0.82227(17)
H17 H 0.60470 0.19816 0.81580
C28 C 0.5657(3) 0.30043(19) 0.90413(16)
H18 H 0.62253 0.25023 0.95150
H19 H 0.472(9) 0.323(6) 0.697(3)
O9 O 0.5396(3) 0.01129(19) 0.11759(16)
H20 H 0.62479 0.01479 0.07345
H21 H 0.56327 0.06936 0.13205
O10 O 0.2520(2) -0.00840(18) 0.05565(15)
H22 H 0.17349 0.04526 0.05443
H23 H 0.33483 -0.00126 0.07977
O11 O 0.8565(3) 0.2981(2) 0.50385(15)
H24 H 0.90091 0.27376 0.55477
H25 H 0.77247 0.34697 0.50746
N2A N 1.9220(2) -0.07635(14) 0.68877(12)
C17A C 1.9545(3) -0.11771(18) 0.61111(14)
H9A H 2.05561 -0.16067 0.60027
C18A C 1.8448(3) -0.09930(19) 0.54703(16)
H10A H 1.87214 -0.12927 0.49416
C19A C 1.6949(3) -0.03633(19) 0.56184(16)
C20A C 1.6609(3) 0.0088(2) 0.64160(19)
H11A H 1.56143 0.05321 0.65306
C21A C 1.7773(3) -0.01339(19) 0.70317(18)
H12A H 1.75395 0.01641 0.75616
C22A C 1.5774(3) -0.02269(19) 0.49357(17)
H13A H 1.61540 -0.04762 0.43851
Zn1A Zn 0.09787(3) 0.90350(2) -0.22698(2)
O1A O 0.27819(18) 0.82515(12) -0.29626(10)
O2A O 0.42004(19) 0.79474(13) -0.1747(1)
O3A O 1.0578(3) 0.18222(14) -0.34877(11)
O4A O 1.1149(2) 0.05429(12) -0.21005(11)
O5A O 0.9377(2) 0.35464(13) 0.08578(10)
O6A O 0.98917(19) 0.16712(12) 0.08989(10)
O7A O 0.7222(2) 0.54581(14) -0.56550(11)
O8A O 0.5291(2) 0.69622(14) -0.58482(11)
N1A N 0.9815(2) 0.44635(13) -0.21513(11)
C1A C 0.4037(2) 0.78397(16) -0.25337(14)
C2A C 0.5387(2) 0.71695(15) -0.30583(14)
C3A C 0.6829(2) 0.67172(15) -0.26655(13)
H1A H 0.69454 0.68235 -0.20809
C4A C 0.8094(2) 0.61089(15) -0.31384(13)
C5A C 0.9717(2) 0.57158(16) -0.27547(14)
H2A H 0.98562 0.62032 -0.23639
H3A H 1.06309 0.58220 -0.32971
C6A C 1.0109(2) 0.36197(16) -0.26110(14)
H4A H 1.01543 0.38198 -0.32788
C7A C 1.0341(2) 0.24653(16) -0.20921(14)
C8A C 1.0717(3) 0.15452(17) -0.26285(14)
C9A C 1.0223(2) 0.21746(16) -0.10904(14)
H5A H 1.03707 0.14015 -0.07324
C10A C 0.9882(2) 0.30462(16) -0.06248(13)
C11A C 0.9694(2) 0.41950(16) -0.11755(13)
H6A H 0.94840 0.47840 -0.08734
C12A C 0.9704(2) 0.27556(16) 0.04711(14)
C13A C 0.7905(2) 0.59430(16) -0.40045(14)
H7A H 0.87431 0.55232 -0.43173
C14A C 0.6474(2) 0.63976(16) -0.44110(14)
C15A C 0.6358(3) 0.62293(17) -0.53695(14)
C16A C 0.5213(2) 0.70226(16) -0.39403(14)
H8A H 0.42613 0.73397 -0.42127
Zn1* Zn -0.09787(3) 1.09650(2) 0.22698(2)
Zn1A* Zn 1.09787(3) -0.09650(2) -0.22698(2)
Zn1A** Zn 2.09787(3) -0.09650(2) 0.77302(2)
O4* O 0.8851(2) -0.05429(12) 0.21005(11)
O4A* O 0.1149(2) 1.05429(12) -0.21005(11)
N2A* N -0.0780(2) 0.92365(14) -0.31123(12)
N3A N 0.5263(2) 0.66146(16) 1.24792(14)
C23A C 0.6030(3) 0.56072(18) 1.23604(15)
H14A H 0.66102 0.51316 1.28396
C24A C 0.6001(2) 0.52430(17) 1.15617(14)
H15A H 0.65825 0.45498 1.14970
C25A C 0.5085(3) 0.59272(17) 1.08476(14)
C26A C 0.4847(3) 0.55474(18) 1.00258(15)
H16A H 0.44571 0.61048 0.95064
C27A C 0.4456(3) 0.7305(2) 1.17773(17)
H17A H 0.39530 0.80184 1.18420
C28A C 0.4343(3) 0.69957(19) 1.09587(16)
H18A H 0.37747 0.74977 1.04849
H19A H 0.528(9) 0.677(6) 1.303(3)
#END
