
#######################################################################
#
#                 Cambridge Crystallographic Data Centre
#                                CCDC
#
#######################################################################
#
# If this CIF has been generated from an entry in the Cambridge
# Structural Database, then it will include bibliographic, chemical,
# crystal, experimental, refinement or atomic coordinate data resulting
# from the CCDC's data processing and validation procedures.
#
#######################################################################

data_CSD_CIF_BOSJOJ
_audit_creation_date 2009-08-25
_audit_creation_method CSD-ConQuest-V1
_database_code_CSD BOSJOJ
_database_code_depnum_ccdc_archive 'CCDC 726744'
_chemical_formula_sum 'C11 H44 In6 N11 Te9'
_chemical_formula_moiety
;
(C6 H24 In1 N6 3+)n,n(C4 H16 In5 N4 Te9 3-),0.5n(C2 H8 N2)
;
_journal_coden_Cambridge 1096
_journal_volume 21
_journal_year 2009
_journal_page_first 12
_journal_name_full 'Chem.Mater. '
loop_
_publ_author_name
"Qichun Zhang"
"In Chung"
"J.I.Jang"
"J.B.Ketterson"
"M.G.Kanatzidis"
_chemical_name_systematic
;
catena-(tris(1,2-Ethanediamine-N,N')-indium 
nonakis(\m~2~-tellurido)-bis(ethane-1,2-diamine-N)-penta-indium 
ethane-1,2-diamine solvate)
;
_cell_volume   6064.946
_exptl_crystal_colour 'orange'
_exptl_crystal_density_diffrn 3.512
_exptl_crystal_description 'hexagonal'
_diffrn_ambient_temperature 100
_refine_special_details
;
The authors state the ethylene-1,2-diamine solvent molecule is disordered and 
it was not possible to be locate the solvent from the refinement data.
;
#These two values have been output from a single CSD field.
_refine_ls_R_factor_gt 0.0772
_refine_ls_wR_factor_gt 0.0772
_symmetry_cell_setting hexagonal
_symmetry_space_group_name_H-M 'P 61'
_symmetry_Int_Tables_number 169
loop_
_symmetry_equiv_pos_site_id
_symmetry_equiv_pos_as_xyz
1 x,y,z
2 -y,x-y,1/3+z
3 -x+y,-x,2/3+z
4 -x,-y,1/2+z
5 y,-x+y,5/6+z
6 x-y,x,1/6+z
_cell_length_a 11.6147(2)
_cell_length_b 11.6147(2)
_cell_length_c 51.9135(15)
_cell_angle_alpha 90
_cell_angle_beta 90
_cell_angle_gamma 120
_cell_formula_units_Z 6
loop_
_atom_type_symbol
_atom_type_radius_bond
C 0.68
H 0.23
In 1.42
N 0.68
Te 1.47
loop_
_atom_site_label
_atom_site_type_symbol
_atom_site_fract_x
_atom_site_fract_y
_atom_site_fract_z
In1 In 0.14705(14) 0.14292(14) 0.00394(3)
In2 In -0.53260(14) -0.18230(14) 0.07447(2)
In3 In -0.71103(14) -0.42643(13) 0.01394(3)
In4 In -0.28589(13) -0.13089(14) 0.01510(3)
In5 In -0.58518(13) -0.01294(13) 0.00889(3)
In6 In 0.80295(14) 0.48619(15) 0.08034(3)
Te1 Te -0.05221(13) -0.11348(14) -0.00201(3)
Te2 Te 0.38953(13) 0.19271(14) -0.01315(2)
Te3 Te 0.08118(14) 0.33476(13) -0.00509(3)
Te4 Te -0.27771(13) -0.13075(14) 0.06894(3)
Te5 Te -0.73609(13) -0.43822(13) 0.06782(2)
Te6 Te -0.57952(13) 0.02113(13) 0.06248(2)
Te7 Te -0.46604(12) -0.38982(14) -0.00075(2)
Te8 Te -0.79081(13) -0.25769(13) -0.00590(3)
Te9 Te -0.33751(13) 0.04836(15) -0.00942(3)
N1 N 0.6628(12) 0.5189(13) 0.0555(3)
H1 H 0.67380 0.59970 0.05910
H2 H 0.68440 0.51870 0.03890
N2 N -0.5429(17) -0.1712(18) 0.1187(3)
H3 H -0.52830 -0.23360 0.12580
H4 H -0.47730 -0.09130 0.12410
C1 C -0.6732(19) -0.1909(19) 0.1285(4)
H5 H -0.74120 -0.21360 0.11670
N3 N 0.8982(19) 0.691(2) 0.1033(4)
H6 H 0.85010 0.73110 0.10070
H7 H 0.89970 0.67630 0.12030
N4 N 0.9775(16) 0.6189(16) 0.0576(3)
H8 H 1.04380 0.60230 0.06100
H9 H 0.95790 0.60370 0.04070
N5 N 0.1998(18) 0.1927(19) 0.0481(3)
H10 H 0.26680 0.17820 0.05220
H11 H 0.22820 0.27940 0.05080
N6 N 0.7594(17) 0.3087(18) 0.0575(4)
H12 H 0.68020 0.23910 0.06200
H13 H 0.75800 0.32450 0.04050
N7 N -0.647(2) -0.237(2) 0.1697(5)
H14 H -0.60910 -0.27120 0.16090
H15 H -0.64970 -0.24270 0.18630
C2 C 1.028(2) 0.770(2) 0.0939(4)
H16 H 1.08550 0.73940 0.10070
H17 H 1.06260 0.86190 0.09930
N8 N 0.9163(19) 0.3998(19) 0.1023(4)
H18 H 1.00360 0.44630 0.09860
H19 H 0.90610 0.40350 0.11940
C3 C 0.527(2) 0.449(2) 0.0908(4)
H20 H 0.48670 0.49150 0.09880
C4 C 1.022(2) 0.7604(19) 0.0636(4)
H21 H 0.95950 0.78500 0.05680
H22 H 1.10890 0.81860 0.05620
C5 C 0.880(2) 0.279(2) 0.0641(4)
H23 H 0.86680 0.19730 0.05620
H24 H 0.96670 0.35220 0.05930
C6 C 0.517(3) 0.415(3) 0.0593(6)
H25 H 0.49720 0.32500 0.05570
H26 H 0.45640 0.43510 0.05010
N9 N 0.615(3) 0.401(3) 0.1051(5)
H27 H 0.57390 0.31160 0.10560
H28 H 0.63430 0.43300 0.12120
C7 C 0.861(3) 0.266(3) 0.0942(5)
H29 H 0.76770 0.21370 0.09870
H30 H 0.90830 0.22480 0.10170
C8 C -0.703(2) -0.175(2) 0.1578(4)
H31 H -0.66120 -0.08270 0.16280
H32 H -0.79740 -0.21870 0.16120
C9 C 0.084(3) 0.111(3) 0.0656(6)
H33 H 0.05990 0.01900 0.06340
H34 H 0.00980 0.11970 0.05940
C10 C 0.097(3) 0.140(3) 0.0945(5)
H35 H 0.10730 0.22660 0.09820
H36 H 0.02190 0.07230 0.10400
N10 N 0.214(3) 0.137(3) 0.1002(6)
H37 H 0.25560 0.12190 0.08810
H38 H 0.24450 0.15110 0.11570
In3* In 0.28897(14) 0.57357(13) 0.01394(3)
In5* In 0.41482(13) -0.01294(13) 0.00889(3)
Te2* Te -0.61047(13) 0.19271(14) -0.01315(2)
Te3* Te -0.91882(14) -0.66524(13) -0.00509(3)
#END
