
#######################################################################
#
#                 Cambridge Crystallographic Data Centre
#                                CCDC
#
#######################################################################
#
# If this CIF has been generated from an entry in the Cambridge
# Structural Database, then it will include bibliographic, chemical,
# crystal, experimental, refinement or atomic coordinate data resulting
# from the CCDC's data processing and validation procedures.
#
#######################################################################

data_CSD_CIF_BOSRUX
_audit_creation_date 2009-08-25
_audit_creation_method CSD-ConQuest-V1
_database_code_CSD BOSRUX
_database_code_depnum_ccdc_archive 'CCDC 699039'
_chemical_formula_sum 'C18 H20 Fe2 N6 O14'
_chemical_formula_moiety
;
(C6 Fe2 O12 2-)n,2n(C6 H10 N3 O1 1+)
;
_journal_coden_Cambridge 9
_journal_volume 48
_journal_year 2009
_journal_page_first 2140
_journal_name_full 'Inorg.Chem. '
loop_
_publ_author_name
"Zhimin Duan"
"Yan Zhang"
"Bin Zhang"
"F.L.Pratt"
_chemical_name_systematic
;
catena-(bis(5-Oxo-1,4-diaza-7-azoniabicyclo(4.3.0)non-6-ene) 
tris(\m~2~-oxalato-O,O',O'',O''')-di-iron(ii))
;
_cell_volume   2418.476
_exptl_crystal_colour 'reddish orange'
_exptl_crystal_density_diffrn 1.802
_exptl_special_details
;
magnetic properties

;
_exptl_crystal_description 'block'
_diffrn_ambient_temperature 293
#These two values have been output from a single CSD field.
_refine_ls_R_factor_gt 0.0299
_refine_ls_wR_factor_gt 0.0299
_symmetry_cell_setting monoclinic
_symmetry_space_group_name_H-M 'C 2/c'
_symmetry_Int_Tables_number 15
loop_
_symmetry_equiv_pos_site_id
_symmetry_equiv_pos_as_xyz
1 x,y,z
2 -x,y,1/2-z
3 1/2+x,1/2+y,z
4 1/2-x,1/2+y,1/2-z
5 -x,-y,-z
6 x,-y,-1/2+z
7 -1/2-x,-1/2-y,-z
8 -1/2+x,-1/2-y,-1/2+z
_cell_length_a 17.2224(4)
_cell_length_b 9.3151(2)
_cell_length_c 15.1518(4)
_cell_angle_alpha 90
_cell_angle_beta 95.767(1)
_cell_angle_gamma 90
_cell_formula_units_Z 4
loop_
_atom_type_symbol
_atom_type_radius_bond
C 0.68
H 0.23
Fe 1.52
N 0.68
O 0.68
loop_
_atom_site_label
_atom_site_type_symbol
_atom_site_fract_x
_atom_site_fract_y
_atom_site_fract_z
Fe1 Fe 0.089776(15) 0.24971(3) 0.001550(19)
O1 O 0.17795(7) 0.32564(16) -0.07461(9)
O2 O 0.06190(8) 0.06069(16) -0.07554(9)
O3 O -0.01043(8) -0.13814(16) -0.07768(9)
O4 O 0.30730(7) 0.32302(17) -0.07730(9)
O5 O -0.00180(8) 0.36185(16) -0.07733(9)
O6 O -0.07339(7) 0.56127(16) -0.07776(9)
O7 O 0.25204(8) 0.51666(18) 0.13156(10)
N1 N 0.35182(10) 0.4213(2) 0.22373(13)
N2 N 0.24615(9) 0.34357(19) 0.33849(11)
N3 N 0.14718(10) 0.4119(2) 0.24697(13)
C1 C 0.01463(10) -0.0233(2) -0.04404(13)
C2 C -0.02152(10) 0.4769(2) -0.04475(13)
C3 C 0.24583(12) 0.2933(2) -0.04378(13)
C4 C 0.27756(11) 0.4511(2) 0.19840(14)
C5 C 0.37536(13) 0.3158(3) 0.29285(15)
C6 C 0.32836(13) 0.3332(3) 0.37110(15)
C7 C 0.17848(14) 0.3230(3) 0.38986(17)
C8 C 0.11006(16) 0.3463(4) 0.3197(2)
C9 C 0.22253(12) 0.4000(2) 0.26180(13)
H1 H 0.3823(13) 0.433(3) 0.1868(16)
H2 H 0.4312(13) 0.334(2) 0.3093(13)
H3 H 0.3660(13) 0.216(3) 0.2696(15)
H4 H 0.3383(13) 0.247(3) 0.4073(16)
H5 H 0.3430(11) 0.418(2) 0.4033(13)
H6 H 0.1806(14) 0.234(3) 0.4128(16)
H7 H 0.1832(12) 0.391(3) 0.4417(15)
H8 H 0.080(2) 0.264(3) 0.296(2)
H9 H 0.0755(18) 0.407(4) 0.337(2)
H10 H 0.1245(13) 0.428(2) 0.1968(15)
Fe1F Fe 0.410224(15) 0.25029(3) -0.001550(19)
Fe1D Fe -0.089776(15) -0.24971(3) -0.001550(19)
Fe1D* Fe -0.089776(15) 0.75029(3) -0.001550(19)
O1F O 0.32205(7) 0.17436(16) 0.07461(9)
O2D O -0.06190(8) -0.06069(16) 0.07554(9)
O2F O 0.43810(8) 0.43931(16) 0.07554(9)
O3D O 0.01043(8) 0.13814(16) 0.07768(9)
O3B O 0.48957(8) 0.36186(16) -0.07768(9)
O4F O 0.19270(7) 0.17698(17) 0.07730(9)
O5D O 0.00180(8) 0.63815(16) 0.07733(9)
O5F O 0.50180(8) 0.13815(16) 0.07733(9)
O6D O 0.07339(7) 0.43873(16) 0.07776(9)
O6B O 0.42661(7) 0.06127(16) -0.07776(9)
C1D C -0.01463(10) 0.0233(2) 0.04404(13)
C2D C 0.02152(10) 0.5231(2) 0.04475(13)
C3F C 0.25417(12) 0.2067(2) 0.04378(13)
#END
