
#######################################################################
#
#                 Cambridge Crystallographic Data Centre
#                                CCDC
#
#######################################################################
#
# If this CIF has been generated from an entry in the Cambridge
# Structural Database, then it will include bibliographic, chemical,
# crystal, experimental, refinement or atomic coordinate data resulting
# from the CCDC's data processing and validation procedures.
#
#######################################################################

data_CSD_CIF_BOTBAN
_audit_creation_date 1983-09-01
_audit_creation_method CSD-ConQuest-V1
_database_code_CSD BOTBAN
_database_code_depnum_ccdc_archive 'CCDC 1114236'
_chemical_formula_sum 'C8 H8 K4 O20 U1'
_chemical_formula_moiety
;
(C8 O16 U1 4-)n,4n(K1 1+),4n(H2 O1)
;
_journal_coden_Cambridge 186
_journal_year 1983
_journal_page_first 571
_journal_name_full 'J.Chem.Soc.,Dalton Trans. '
loop_
_publ_author_name
"M.C.Favas"
"D.L.Kepert"
"J.M.Patrick"
"A.H.White"
_chemical_name_systematic
;
catena-(Tetra-potassium (\m~2~-oxalato)-tris(oxalato)-uranium(iv) 
tetrahydrate)
;
_cell_volume   8507.299
_exptl_crystal_density_diffrn 2.56
_exptl_special_details
;
orthorhombic polymorph

;
_diffrn_ambient_temperature ?
_diffrn_special_details
;
The study was carried out at room temperature,in the range 283-303K

;
_refine_special_details
;
One of the cations is disordered over 2 sites. Site with occupancy factor 
0.55 has been retained.
;
#These two values have been output from a single CSD field.
_refine_ls_R_factor_gt 0.043
_refine_ls_wR_factor_gt 0.043
_symmetry_cell_setting orthorhombic
_symmetry_space_group_name_H-M 'F d d 2'
_symmetry_Int_Tables_number 43
loop_
_symmetry_equiv_pos_site_id
_symmetry_equiv_pos_as_xyz
1 x,y,z
2 x,1/2+y,1/2+z
3 1/2+x,y,1/2+z
4 1/2+x,1/2+y,z
5 1/4-x,1/4+y,1/4+z
6 1/4-x,3/4+y,3/4+z
7 3/4-x,1/4+y,3/4+z
8 3/4-x,3/4+y,1/4+z
9 1/4+x,1/4-y,1/4+z
10 1/4+x,3/4-y,3/4+z
11 3/4+x,1/4-y,3/4+z
12 3/4+x,3/4-y,1/4+z
13 1/2-x,-y,1/2+z
14 1/2-x,1/2-y,z
15 -x,-y,z
16 -x,1/2-y,1/2+z
_cell_length_a 30.09(2)
_cell_length_b 22.18(1)
_cell_length_c 12.747(6)
_cell_angle_alpha 90
_cell_angle_beta 90
_cell_angle_gamma 90
_cell_formula_units_Z 16
loop_
_atom_type_symbol
_atom_type_radius_bond
C 0.68
K 1.33
O 0.68
U 1.58
loop_
_atom_site_label
_atom_site_type_symbol
_atom_site_fract_x
_atom_site_fract_y
_atom_site_fract_z
K1 K 0.13680 0.23400 0.10020
K2 K 0.11780 0.00900 0.14860
K3 K 0.50000 0.00000 0.17350
K4 K 0.75000 0.25000 0.07760
K5 K 0.09180 0.11360 0.58270
U1 U 0.25631 0.02637 0.25000
O1 O 0.20740 -0.00150 0.40350
O2 O 0.20630 -0.00850 0.57950
C1 C 0.22440 -0.00240 0.49530
C2 C 0.27590 0.00280 0.50380
O3 O 0.29860 0.01380 0.42490
O4 O 0.28960 -0.00040 0.59680
O5 O 0.18310 0.07330 0.25400
O6 O 0.13960 0.15170 0.29380
C3 C 0.17190 0.12060 0.29890
C4 C 0.21210 0.14310 0.37360
O7 O 0.24730 0.11250 0.37070
O8 O 0.20630 0.18880 0.42660
O9 O 0.32470 0.07960 0.25590
O10 O 0.36050 0.16500 0.22270
C5 C 0.32890 0.13280 0.21000
C6 C 0.28990 0.14940 0.13730
O11 O 0.25640 0.11500 0.14440
O12 O 0.29410 0.19140 0.07900
O13 O 0.23510 -0.07640 0.25680
O14 O 0.25240 -0.17500 0.24950
C7 C 0.26350 -0.12170 0.24890
C8 C 0.31370 -0.10160 0.24720
O15 O 0.31790 -0.04640 0.25600
O16 O 0.34200 -0.14090 0.24140
O17 O 0.06060 0.09030 0.25080
O18 O 0.19390 0.15090 -0.00360
O19 O 0.10690 -0.00260 0.60440
O20 O 0.12860 0.22560 0.60470
O2L O 0.29370 0.00850 0.07950
O4L O 0.21040 0.00040 0.09680
U1L U 0.24369 -0.02637 0.75000
#END
