
#######################################################################
#
#                 Cambridge Crystallographic Data Centre
#                                CCDC
#
#######################################################################
#
# If this CIF has been generated from an entry in the Cambridge
# Structural Database, then it will include bibliographic, chemical,
# crystal, experimental, refinement or atomic coordinate data resulting
# from the CCDC's data processing and validation procedures.
#
#######################################################################

data_CSD_CIF_BOVBAR
_audit_creation_date 2014-10-09
_audit_creation_method CSD-ConQuest-V1
_database_code_CSD BOVBAR
_database_code_depnum_ccdc_archive 'CCDC 1003328'
_chemical_formula_sum 'C12 H11 Gd1 N2 O8'
_chemical_formula_moiety
;
(C12 H6 Gd1 N2 O6 1-)n,n(H2 O1),n(H3 O1 1+)
;
_journal_coden_Cambridge 1220
_journal_volume 20
_journal_year 2014
_journal_page_first 15975
_journal_name_full 'Chem.-Eur.J. '
loop_
_publ_author_name
"Bo Na"
"Xue-Jing Zhang"
"Wei Shi"
"Yi-Quan Zhang"
"Bing-Wu Wang"
"Chen Gao"
"Song Gao"
"Peng Cheng"
_chemical_name_systematic
;
catena-[oxonium bis(\m-5-oxynicotinato)-gadolinium(iii) monohydrate]
;
_cell_volume    333.746
_exptl_crystal_colour 'yellow'
_exptl_crystal_density_diffrn 2.326
_exptl_crystal_description 'block'
_diffrn_ambient_temperature 120
#These two values have been output from a single CSD field.
_refine_ls_R_factor_gt 0.0233
_refine_ls_wR_factor_gt 0.0233
_symmetry_cell_setting triclinic
_symmetry_space_group_name_H-M 'P -1'
_symmetry_Int_Tables_number 2
loop_
_symmetry_equiv_pos_site_id
_symmetry_equiv_pos_as_xyz
1 x,y,z
2 -x,-y,-z
_cell_length_a 4.8793(6)
_cell_length_b 7.855(2)
_cell_length_c 8.921(4)
_cell_angle_alpha 99.03(3)
_cell_angle_beta 95.81(2)
_cell_angle_gamma 95.524(16)
_cell_formula_units_Z 1
loop_
_atom_type_symbol
_atom_type_radius_bond
C 0.68
H 0.23
Gd 1.96
N 0.68
O 0.68
loop_
_atom_site_label
_atom_site_type_symbol
_atom_site_fract_x
_atom_site_fract_y
_atom_site_fract_z
Gd1 Gd -0.50000 1.00000 0.00000
O1 O -0.2542(8) 0.7799(5) 0.0619(4)
O2 O 0.1846(8) 0.8892(5) 0.1383(5)
O3 O -0.2883(8) 0.1788(5) 0.2054(4)
C1 C 0.2516(6) 0.6301(3) 0.3139(4)
H1 H 0.37530 0.73080 0.33770
C2 C 0.0214(6) 0.6206(3) 0.2063(3)
C3 C -0.1634(5) 0.4700(4) 0.1707(3)
H2 H -0.31740 0.46360 0.09870
C4 C -0.1181(6) 0.3289(3) 0.2428(4)
C5 C 0.1121(6) 0.3384(3) 0.3504(3)
H3 H 0.14240 0.24410 0.39860
N1 N 0.2969(5) 0.4890(4) 0.3860(3)
C6 C -0.0186(10) 0.7746(7) 0.1303(6)
O4 O 0.2653(10) 1.0282(6) 0.5705(5)
H4 H 0.18110 1.02660 0.64920
H5 H 0.35(4) 0.942(13) 0.522(16)
O1A O -0.7458(8) 0.2201(5) -0.0619(4)
O2A O -1.1846(8) 0.1108(5) -0.1383(5)
O3A O -0.7117(8) 0.8212(5) -0.2054(4)
C1A C -1.2516(6) 0.3699(3) -0.3139(4)
H1A H -1.37530 0.26920 -0.33770
C2A C -1.0214(6) 0.3794(3) -0.2063(3)
C3A C -0.8366(5) 0.5300(4) -0.1707(3)
H2A H -0.68260 0.53640 -0.09870
C4A C -0.8819(6) 0.6711(3) -0.2428(4)
C5A C -1.1121(6) 0.6616(3) -0.3504(3)
H3A H -1.14240 0.75590 -0.39860
N1A N -1.2969(5) 0.5110(4) -0.3860(3)
C6A C -0.9814(10) 0.2254(7) -0.1303(6)
Gd1* Gd -1.50000 0.00000 0.00000
Gd1** Gd -0.50000 0.00000 0.00000
Gd1*** Gd 0.50000 1.00000 0.00000
O1A* O -0.7458(8) 1.2201(5) -0.0619(4)
O2* O -0.8154(8) 0.8892(5) 0.1383(5)
O2A* O -0.1846(8) 1.1108(5) -0.1383(5)
O3* O -0.2883(8) 1.1788(5) 0.2054(4)
#END
