
#######################################################################
#
#                 Cambridge Crystallographic Data Centre
#                                CCDC
#
#######################################################################
#
# If this CIF has been generated from an entry in the Cambridge
# Structural Database, then it will include bibliographic, chemical,
# crystal, experimental, refinement or atomic coordinate data resulting
# from the CCDC's data processing and validation procedures.
#
#######################################################################

data_CSD_CIF_BOVBEV
_audit_creation_date 2014-10-09
_audit_creation_method CSD-ConQuest-V1
_database_code_CSD BOVBEV
_database_code_depnum_ccdc_archive 'CCDC 1003329'
_chemical_formula_sum 'C12 H11 N2 O8 Tb1'
_chemical_formula_moiety
;
(C12 H6 N2 O6 Tb1 1-)n,n(H2 O1),n(H3 O1 1+)
;
_journal_coden_Cambridge 1220
_journal_volume 20
_journal_year 2014
_journal_page_first 15975
_journal_name_full 'Chem.-Eur.J. '
loop_
_publ_author_name
"Bo Na"
"Xue-Jing Zhang"
"Wei Shi"
"Yi-Quan Zhang"
"Bing-Wu Wang"
"Chen Gao"
"Song Gao"
"Peng Cheng"
_chemical_name_systematic
;
catena-[oxonium bis(\m-5-oxynicotinato)-terbium(iii) monohydrate]
;
_cell_volume    331.681
_exptl_crystal_colour 'yellow'
_exptl_crystal_density_diffrn 2.349
_exptl_crystal_description 'block'
_diffrn_ambient_temperature 120
#These two values have been output from a single CSD field.
_refine_ls_R_factor_gt 0.0206
_refine_ls_wR_factor_gt 0.0206
_symmetry_cell_setting triclinic
_symmetry_space_group_name_H-M 'P -1'
_symmetry_Int_Tables_number 2
loop_
_symmetry_equiv_pos_site_id
_symmetry_equiv_pos_as_xyz
1 x,y,z
2 -x,-y,-z
_cell_length_a 4.8868(9)
_cell_length_b 7.818(2)
_cell_length_c 8.911(2)
_cell_angle_alpha 99.47(2)
_cell_angle_beta 95.923(18)
_cell_angle_gamma 95.666(19)
_cell_formula_units_Z 1
loop_
_atom_type_symbol
_atom_type_radius_bond
C 0.68
H 0.23
N 0.68
O 0.68
Tb 1.94
loop_
_atom_site_label
_atom_site_type_symbol
_atom_site_fract_x
_atom_site_fract_y
_atom_site_fract_z
Tb1 Tb 0.50000 0.00000 0.00000
O1 O 0.7112(7) 0.1788(4) 0.2054(4)
O2 O 0.7453(6) 0.7813(5) 0.0618(4)
O3 O 1.1855(6) 0.8905(5) 0.1380(4)
N1 N 1.2920(8) 0.4893(5) 0.3841(4)
C1 C 0.9829(9) 0.7759(6) 0.1303(5)
C2 C 1.2552(9) 0.6264(6) 0.3137(5)
H1 H 1.38420 0.72550 0.33680
C3 C 0.8802(9) 0.3256(6) 0.2397(5)
C4 C 1.0244(9) 0.6205(6) 0.2062(5)
C5 C 0.8354(9) 0.4724(6) 0.1725(5)
H2 H 0.67670 0.46970 0.10450
C6 C 1.1147(9) 0.3429(6) 0.3479(5)
H3 H 1.14840 0.24920 0.39640
O4 O 1.26690 1.02670 0.56990
H4 H 1.30740 0.93320 0.59920
H5 H 1.25970 1.01410 0.47300
O1A O 0.2888(7) -0.1788(4) -0.2054(4)
O2A O 0.2547(6) -0.7813(5) -0.0618(4)
O3A O -0.1855(6) -0.8905(5) -0.1380(4)
N1A N -0.2920(8) -0.4893(5) -0.3841(4)
C1A C 0.0171(9) -0.7759(6) -0.1303(5)
C2A C -0.2552(9) -0.6264(6) -0.3137(5)
H1A H -0.38420 -0.72550 -0.33680
C3A C 0.1198(9) -0.3256(6) -0.2397(5)
C4A C -0.0244(9) -0.6205(6) -0.2062(5)
C5A C 0.1646(9) -0.4724(6) -0.1725(5)
H2A H 0.32330 -0.46970 -0.10450
C6A C -0.1147(9) -0.3429(6) -0.3479(5)
H3A H -0.14840 -0.24920 -0.39640
Tb1* Tb -0.50000 -1.00000 0.00000
Tb1** Tb 0.50000 -1.00000 0.00000
Tb1*** Tb 0.50000 1.00000 0.00000
Tb1**** Tb 1.50000 1.00000 0.00000
O2* O 0.7453(6) -0.2187(5) 0.0618(4)
O2A* O 0.2547(6) 0.2187(5) -0.0618(4)
O3* O 0.1855(6) -0.1095(5) 0.1380(4)
O3A* O 0.8145(6) 0.1095(5) -0.1380(4)
#END
