
#######################################################################
#
#                 Cambridge Crystallographic Data Centre
#                                CCDC
#
#######################################################################
#
# If this CIF has been generated from an entry in the Cambridge
# Structural Database, then it will include bibliographic, chemical,
# crystal, experimental, refinement or atomic coordinate data resulting
# from the CCDC's data processing and validation procedures.
#
#######################################################################

data_CSD_CIF_BOVBOF
_audit_creation_date 2014-10-09
_audit_creation_method CSD-ConQuest-V1
_database_code_CSD BOVBOF
_database_code_depnum_ccdc_archive 'CCDC 1003331'
_chemical_formula_sum 'C12 H11 Ho1 N2 O8'
_chemical_formula_moiety
;
(C12 H6 Ho1 N2 O6 1-)n,n(H2 O1),n(H3 O1 1+)
;
_journal_coden_Cambridge 1220
_journal_volume 20
_journal_year 2014
_journal_page_first 15975
_journal_name_full 'Chem.-Eur.J. '
loop_
_publ_author_name
"Bo Na"
"Xue-Jing Zhang"
"Wei Shi"
"Yi-Quan Zhang"
"Bing-Wu Wang"
"Chen Gao"
"Song Gao"
"Peng Cheng"
_chemical_name_systematic
;
catena-[oxonium bis(\m-5-oxynicotinato)-holmium(iii) monohydrate]
;
_cell_volume    332.534
_exptl_crystal_colour 'yellow'
_exptl_crystal_density_diffrn 2.373
_exptl_crystal_description 'block'
_diffrn_ambient_temperature 120
#These two values have been output from a single CSD field.
_refine_ls_R_factor_gt 0.033
_refine_ls_wR_factor_gt 0.033
_symmetry_cell_setting triclinic
_symmetry_space_group_name_H-M 'P -1'
_symmetry_Int_Tables_number 2
loop_
_symmetry_equiv_pos_site_id
_symmetry_equiv_pos_as_xyz
1 x,y,z
2 -x,-y,-z
_cell_length_a 4.8826(4)
_cell_length_b 7.8048(6)
_cell_length_c 8.9466(9)
_cell_angle_alpha 99.131(7)
_cell_angle_beta 96.030(7)
_cell_angle_gamma 95.519(6)
_cell_formula_units_Z 1
loop_
_atom_type_symbol
_atom_type_radius_bond
C 0.68
H 0.23
Ho 1.92
N 0.68
O 0.68
loop_
_atom_site_label
_atom_site_type_symbol
_atom_site_fract_x
_atom_site_fract_y
_atom_site_fract_z
Ho1 Ho 0.50000 0.50000 0.00000
O1 O 0.1857(8) 0.3900(5) 0.1370(6)
O2 O -0.2889(8) -0.3209(5) 0.2042(5)
O3 O -0.2533(8) 0.2813(5) 0.0610(5)
C1 C -0.1216(11) -0.1744(7) 0.2395(7)
N1 N 0.2923(9) -0.0110(6) 0.3837(6)
C2 C -0.0166(11) 0.2758(7) 0.1292(7)
C3 C 0.2555(11) 0.1253(7) 0.3142(8)
H1 H 0.38450 0.22430 0.33720
C4 C 0.1135(11) -0.1566(8) 0.3485(7)
H2 H 0.14600 -0.25000 0.39820
C5 C -0.1650(11) -0.0290(7) 0.1728(7)
H3 H -0.32290 -0.03150 0.10430
C6 C 0.0242(11) 0.1203(7) 0.2072(7)
O4 O 0.7328(11) 0.4748(7) 0.4300(7)
H4 H 0.850(17) 0.563(9) 0.440(13)
H5 H 0.642(14) 0.484(16) 0.345(4)
O1A O -0.1857(8) -0.3900(5) -0.1370(6)
O2A O 0.2889(8) 0.3209(5) -0.2042(5)
O3A O 0.2533(8) -0.2813(5) -0.0610(5)
C1A C 0.1216(11) 0.1744(7) -0.2395(7)
N1A N -0.2923(9) 0.0110(6) -0.3837(6)
C2A C 0.0166(11) -0.2758(7) -0.1292(7)
C3A C -0.2555(11) -0.1253(7) -0.3142(8)
H1A H -0.38450 -0.22430 -0.33720
C4A C -0.1135(11) 0.1566(8) -0.3485(7)
H2A H -0.14600 0.25000 -0.39820
C5A C 0.1650(11) 0.0290(7) -0.1728(7)
H3A H 0.32290 0.03150 -0.10430
C6A C -0.0242(11) -0.1203(7) -0.2072(7)
Ho1* Ho -0.50000 -0.50000 0.00000
Ho1** Ho -0.50000 0.50000 0.00000
Ho1*** Ho 0.50000 -0.50000 0.00000
O1A* O 0.8143(8) 0.6100(5) -0.1370(6)
O2* O 0.7111(8) 0.6791(5) 0.2042(5)
O3* O 0.7467(8) 0.2813(5) 0.0610(5)
O3A* O 0.2533(8) 0.7187(5) -0.0610(5)
#END
