
#######################################################################
#
#                 Cambridge Crystallographic Data Centre
#                                CCDC
#
#######################################################################
#
# If this CIF has been generated from an entry in the Cambridge
# Structural Database, then it will include bibliographic, chemical,
# crystal, experimental, refinement or atomic coordinate data resulting
# from the CCDC's data processing and validation procedures.
#
#######################################################################

data_CSD_CIF_BOVBIZ
_audit_creation_date 2014-10-09
_audit_creation_method CSD-ConQuest-V1
_database_code_CSD BOVBIZ
_database_code_depnum_ccdc_archive 'CCDC 1003330'
_chemical_formula_sum 'C12 H11 Dy1 N2 O8'
_chemical_formula_moiety
;
(C12 H6 Dy1 N2 O6 1-)n,n(H2 O1),n(H3 O1 1+)
;
_journal_coden_Cambridge 1220
_journal_volume 20
_journal_year 2014
_journal_page_first 15975
_journal_name_full 'Chem.-Eur.J. '
loop_
_publ_author_name
"Bo Na"
"Xue-Jing Zhang"
"Wei Shi"
"Yi-Quan Zhang"
"Bing-Wu Wang"
"Chen Gao"
"Song Gao"
"Peng Cheng"
_chemical_name_systematic
;
catena-[oxonium bis(\m-5-oxynicotinato)-dysprosium(iii) monohydrate]
;
_cell_volume    328.201
_exptl_crystal_colour 'yellow'
_exptl_crystal_density_diffrn 2.392
_exptl_crystal_description 'block'
_diffrn_ambient_temperature 120
#These two values have been output from a single CSD field.
_refine_ls_R_factor_gt 0.0235
_refine_ls_wR_factor_gt 0.0235
_symmetry_cell_setting triclinic
_symmetry_space_group_name_H-M 'P -1'
_symmetry_Int_Tables_number 2
loop_
_symmetry_equiv_pos_site_id
_symmetry_equiv_pos_as_xyz
1 x,y,z
2 -x,-y,-z
_cell_length_a 4.8645(4)
_cell_length_b 7.8170(5)
_cell_length_c 8.8516(6)
_cell_angle_alpha 99.767(5)
_cell_angle_beta 95.304(6)
_cell_angle_gamma 95.424(6)
_cell_formula_units_Z 1
loop_
_atom_type_symbol
_atom_type_radius_bond
C 0.68
H 0.23
Dy 1.92
N 0.68
O 0.68
loop_
_atom_site_label
_atom_site_type_symbol
_atom_site_fract_x
_atom_site_fract_y
_atom_site_fract_z
Dy1 Dy 0.50000 0.50000 0.00000
O1 O 0.1815(7) 0.3909(4) 0.1413(4)
O2 O -0.2885(7) -0.3215(4) 0.2077(4)
O3 O -0.2561(7) 0.2778(4) 0.0609(4)
C1 C -0.1193(9) -0.1745(6) 0.2418(5)
N1 N 0.2925(8) -0.0101(5) 0.3855(4)
C2 C -0.0206(10) 0.2735(6) 0.1316(5)
C3 C 0.2534(10) 0.1254(6) 0.3151(5)
H1 H 0.38240 0.22440 0.33750
C4 C 0.1147(10) -0.1574(6) 0.3504(5)
H2 H 0.14810 -0.25060 0.39970
C5 C -0.1667(9) -0.0286(6) 0.1746(5)
H3 H -0.32580 -0.03180 0.10680
C6 C 0.0218(9) 0.1203(6) 0.2084(5)
O4 O 0.7352(8) 0.4717(5) 0.4302(4)
H4 H 0.552(5) 0.469(3) 0.392(4)
H5 H 0.773(8) 0.505(13) 0.339(4)
O1A O -0.1815(7) -0.3909(4) -0.1413(4)
O2A O 0.2885(7) 0.3215(4) -0.2077(4)
O3A O 0.2561(7) -0.2778(4) -0.0609(4)
C1A C 0.1193(9) 0.1745(6) -0.2418(5)
N1A N -0.2925(8) 0.0101(5) -0.3855(4)
C2A C 0.0206(10) -0.2735(6) -0.1316(5)
C3A C -0.2534(10) -0.1254(6) -0.3151(5)
H1A H -0.38240 -0.22440 -0.33750
C4A C -0.1147(10) 0.1574(6) -0.3504(5)
H2A H -0.14810 0.25060 -0.39970
C5A C 0.1667(9) 0.0286(6) -0.1746(5)
H3A H 0.32580 0.03180 -0.10680
C6A C -0.0218(9) -0.1203(6) -0.2084(5)
Dy1* Dy -0.50000 -0.50000 0.00000
Dy1** Dy -0.50000 0.50000 0.00000
Dy1*** Dy 0.50000 -0.50000 0.00000
O1A* O 0.8185(7) 0.6091(4) -0.1413(4)
O2* O 0.7115(7) 0.6785(4) 0.2077(4)
O3* O 0.7439(7) 0.2778(4) 0.0609(4)
O3A* O 0.2561(7) 0.7222(4) -0.0609(4)
#END
