
#######################################################################
#
#                 Cambridge Crystallographic Data Centre
#                                CCDC
#
#######################################################################
#
# If this CIF has been generated from an entry in the Cambridge
# Structural Database, then it will include bibliographic, chemical,
# crystal, experimental, refinement or atomic coordinate data resulting
# from the CCDC's data processing and validation procedures.
#
#######################################################################

data_CSD_CIF_BOWNAF
_audit_creation_date 2019-12-20
_audit_creation_method CSD-ConQuest-V1
_database_code_CSD BOWNAF
_database_code_depnum_ccdc_archive 'CCDC 1952082'
_chemical_formula_sum 'C72 H62 Ag4 Mo8 N26 O26'
_chemical_formula_moiety
;
2(C34 H28 Ag2 N12 2+)n,Mo8 O26 4-,2(C2 H3 N1)
;
_journal_coden_Cambridge 1500
_journal_volume 9
_journal_year 2019
_journal_page_first 42272
_journal_name_full 'RSC Advances '
loop_
_publ_author_name
"Chang-Sheng Wang"
"Qi Huang"
"Xia Wang"
"Yu-Tong Zhang"
"Dong-Sheng Ma"
"Ying-Hui Yu"
"Jin-Sheng Gao"
_chemical_name_systematic
;
catena-[bis(bis(\m-4,4'-[methylenedi(4,1-phenylene)]bis(4H-1,2,4-triazole))-di
-silver) dodecakis(\m-oxido)-tetradecaoxo-octa-molybdenum acetonitrile 
solvate]
;
_cell_volume   8566.431
_exptl_crystal_colour 'colorless'
_exptl_crystal_density_diffrn 2.254
_exptl_crystal_description 'block'
_diffrn_ambient_temperature 302
#These two values have been output from a single CSD field.
_refine_ls_R_factor_gt 0.0855
_refine_ls_wR_factor_gt 0.0855
_symmetry_cell_setting monoclinic
_symmetry_space_group_name_H-M 'C 2/c'
_symmetry_Int_Tables_number 15
loop_
_symmetry_equiv_pos_site_id
_symmetry_equiv_pos_as_xyz
1 x,y,z
2 -x,y,1/2-z
3 1/2+x,1/2+y,z
4 1/2-x,1/2+y,1/2-z
5 -x,-y,-z
6 x,-y,-1/2+z
7 -1/2-x,-1/2-y,-z
8 -1/2+x,-1/2-y,-1/2+z
_cell_length_a 24.1943(9)
_cell_length_b 23.8328(9)
_cell_length_c 15.2210(6)
_cell_angle_alpha 90
_cell_angle_beta 102.567(2)
_cell_angle_gamma 90
_cell_formula_units_Z 4
loop_
_atom_type_symbol
_atom_type_radius_bond
C 0.68
H 0.23
Ag 1.45
Mo 1.54
N 0.68
O 0.68
loop_
_atom_site_label
_atom_site_type_symbol
_atom_site_fract_x
_atom_site_fract_y
_atom_site_fract_z
Mo1 Mo 0.70320(4) 0.78332(3) 0.90748(6)
Mo2 Mo 0.83533(4) 0.78609(4) 0.90945(6)
Mo3 Mo 0.70555(4) 0.64883(4) 0.90930(6)
Mo4 Mo 0.84214(4) 0.64938(4) 0.91763(7)
O1 O 0.7692(3) 0.7220(3) 0.9330(5)
O2 O 0.7706(3) 0.8313(3) 0.9355(5)
O3 O 0.6556(3) 0.8324(3) 0.9348(5)
O4 O 0.7751(3) 0.6094(3) 0.9346(6)
O5 O 0.6625(3) 0.7169(3) 0.9324(5)
O6 O 0.8804(3) 0.7210(3) 0.9342(6)
O7 O 0.6904(3) 0.7834(3) 0.7940(5)
O8 O 0.8164(4) 0.7851(3) 0.7950(5)
O9 O 0.8862(4) 0.8374(4) 0.9319(6)
O10 O 0.6923(4) 0.6529(4) 0.7958(6)
O11 O 0.6604(3) 0.5977(4) 0.9303(6)
O12 O 0.8266(4) 0.6480(4) 0.8033(6)
O13 O 0.8955(4) 0.6026(4) 0.9494(8)
Ag1 Ag 0.42401(5) 0.51132(5) 0.78626(9)
Ag2 Ag 0.57539(5) 0.53057(5) 0.96913(10)
N1 N 0.0233(4) 0.1443(5) 0.3819(8)
N2 N 0.2353(5) 0.9974(4) 0.6622(7)
N3 N 0.4816(4) 0.6797(5) 0.8574(7)
N4 N 0.2772(5) 0.4275(4) 0.6172(8)
N5 N 0.4648(5) 0.5907(5) 0.8367(9)
N6 N 0.1512(5) 0.9962(5) 0.5744(9)
N7 N 0.5193(4) 0.5957(5) 0.8889(8)
N8 N -0.0179(5) 0.0616(5) 0.3663(8)
N9 N 0.3536(5) 0.4660(5) 0.6985(8)
N10 N 0.0375(4) 0.0553(5) 0.4119(9)
C1 C 0.0346(5) 0.2030(5) 0.3722(9)
C2 C 0.3186(6) 0.9365(5) 0.6741(9)
H1 H 0.30230 0.92090 0.61850
C3 C 0.5217(5) 0.7747(6) 0.8718(9)
H2 H 0.55820 0.76010 0.88110
C4 C 0.1967(6) 0.9658(5) 0.6096(9)
H3 H 0.20090 0.92780 0.59880
C5 C 0.5122(6) 0.8319(5) 0.8711(9)
H4 H 0.54350 0.85560 0.88040
N11 N 0.3505(6) 0.4113(5) 0.728(1)
C6 C 0.4420(5) 0.6413(6) 0.818(1)
H5 H 0.40590 0.64900 0.78450
C7 C 0.0140(6) 0.2994(6) 0.3988(10)
H6 H -0.00690 0.32620 0.42180
C8 C 0.0754(6) 0.2190(6) 0.3281(9)
H7 H 0.09610 0.19190 0.30530
C9 C -0.0254(5) 0.1139(6) 0.3490(9)
H8 H -0.05930 0.12940 0.31820
C10 C 0.2910(6) 0.9795(5) 0.7107(9)
C11 C 0.0566(6) 0.3156(6) 0.3549(10)
C12 C 0.5277(5) 0.6507(6) 0.8986(10)
H9 H 0.56110 0.66710 0.92990
C13 C 0.2260(6) 0.4171(6) 0.5526(10)
C14 C 0.0034(5) 0.2413(5) 0.4076(10)
H10 H -0.02450 0.22950 0.43690
C15 C 0.4747(5) 0.7397(6) 0.8579(9)
C16 C 0.3095(6) 0.4745(6) 0.634(1)
H11 H 0.30110 0.50830 0.60350
C17 C 0.4590(6) 0.8562(6) 0.8575(10)
C18 C 0.0866(6) 0.2755(7) 0.3170(11)
H12 H 0.11350 0.28640 0.28490
N12 N 0.1619(7) 1.0505(5) 0.6087(11)
C19 C 0.1485(7) 0.4452(6) 0.4357(10)
H13 H 0.12930 0.47390 0.40030
C20 C 0.3961(6) 0.9413(5) 0.8043(10)
C21 C 0.4211(6) 0.7619(6) 0.8470(12)
H14 H 0.39000 0.73810 0.84000
C22 C 0.3699(6) 0.9856(6) 0.8359(11)
H15 H 0.38770 1.00290 0.88940
C23 C 0.1274(6) 0.3907(6) 0.4268(10)
C24 C 0.1984(7) 0.4564(6) 0.4978(11)
H16 H 0.21310 0.49260 0.50140
C25 C 0.3054(7) 0.3896(6) 0.6782(11)
H17 H 0.29370 0.35280 0.68320
C26 C 0.0743(6) 0.3777(6) 0.3552(12)
H18 H 0.08100 0.38730 0.29650
H19 H 0.04340 0.40090 0.36560
C27 C 0.0604(6) 0.1045(6) 0.4258(12)
H20 H 0.09640 0.11190 0.46020
C28 C 0.3708(7) 0.9178(6) 0.7225(10)
H21 H 0.38910 0.88890 0.69930
C29 C 0.2122(7) 1.0512(6) 0.6582(13)
H22 H 0.23040 1.08270 0.68690
C30 C 0.3180(7) 1.0051(6) 0.7905(10)
H23 H 0.30110 1.03520 0.81320
C31 C 0.4131(6) 0.8199(6) 0.8462(13)
H24 H 0.37670 0.83440 0.83810
C32 C 0.2033(7) 0.3631(6) 0.5486(12)
H25 H 0.22150 0.33520 0.58690
C33 C 0.4530(7) 0.9188(6) 0.8579(12)
H26 H 0.48320 0.93510 0.83340
H27 H 0.45810 0.93130 0.91980
C34 C 0.1530(8) 0.3516(7) 0.4862(14)
H28 H 0.13670 0.31620 0.48570
C35 C 0.7478(9) 0.7157(9) 0.6396(13)
H29 H 0.76820 0.74710 0.62300
H30 H 0.77350 0.68510 0.65860
H31 H 0.73030 0.72630 0.68810
C36 C 0.7061(9) 0.6990(9) 0.5659(14)
N13 N 0.6701(9) 0.6849(11) 0.5054(17)
Mo1F Mo 0.79680(4) 0.71668(3) 1.09252(6)
Mo2F Mo 0.66467(4) 0.71391(4) 1.09055(6)
Mo3F Mo 0.79445(4) 0.85117(4) 1.09070(6)
Mo4F Mo 0.65786(4) 0.85062(4) 1.08237(7)
O1F O 0.7308(3) 0.7780(3) 1.0670(5)
O2F O 0.7294(3) 0.6687(3) 1.0645(5)
O3F O 0.8444(3) 0.6676(3) 1.0652(5)
O4F O 0.7249(3) 0.8906(3) 1.0654(6)
O5F O 0.8375(3) 0.7831(3) 1.0676(5)
O6F O 0.6196(3) 0.7790(3) 1.0658(6)
O7F O 0.8096(3) 0.7166(3) 1.2060(5)
O8F O 0.6836(4) 0.7149(3) 1.2050(5)
O9F O 0.6138(4) 0.6626(4) 1.0681(6)
O10F O 0.8077(4) 0.8471(4) 1.2042(6)
O11F O 0.8396(3) 0.9023(4) 1.0697(6)
O12F O 0.6734(4) 0.8520(4) 1.1967(6)
O13F O 0.6045(4) 0.8974(4) 1.0506(8)
Ag1G Ag -0.07599(5) -0.01132(5) 0.28626(9)
Ag2G Ag 0.07539(5) -0.03057(5) 0.46913(10)
Ag2G* Ag 0.07539(5) 0.96943(5) 0.46913(10)
N6G N 0.6512(5) 0.5038(5) 1.0744(9)
N8G N 0.4821(5) 0.4384(5) 0.8663(8)
N10G N 0.5375(4) 0.4447(5) 0.9119(9)
#END
