
#######################################################################
#
#                 Cambridge Crystallographic Data Centre
#                                CCDC
#
#######################################################################
#
# If this CIF has been generated from an entry in the Cambridge
# Structural Database, then it will include bibliographic, chemical,
# crystal, experimental, refinement or atomic coordinate data resulting
# from the CCDC's data processing and validation procedures.
#
#######################################################################

data_CSD_CIF_BOXFAW
_audit_creation_date 2009-12-08
_audit_creation_method CSD-ConQuest-V1
_database_code_CSD BOXFAW
_database_code_depnum_ccdc_archive 'CCDC 733311'
_chemical_formula_sum 'C348 H381 Cd13.5 O72'
_chemical_formula_moiety
;
(Cd1 2+)1.5n,3n(H3 O1 1+),n(C348 H360 Cd12 O63 6-),6n(H2 O1)
;
_journal_coden_Cambridge 4
_journal_volume 131
_journal_year 2009
_journal_page_first 3814
_journal_name_full 'J.Am.Chem.Soc. '
loop_
_publ_author_name
"S.Das"
"Hyunuk Kim"
"K.Kim"
_chemical_name_systematic
;
catena-(Sesqui-cadmium(ii) tris(oxonium) 
octakis(\m~6~-5,5,10,10,15,15-hexaethyl-10,15-dihydro-5H-diindeno[1,2-a:1',2'-
c]fluorene-2,7,12-tricarboxylato)-tris(\m~4~-oxo)-dodecakis(methanol)-dodeca-c
admium(ii) hexahydrate)
;
_chemical_name_common
;
catena-(Sesqui-cadmium(ii) tris(oxonium) 
octakis(mu!6$-5,5,10,10,15,15-hexaethyltruxene-2,7,12-tricarboxylato)-tris(mu!
4$-oxo)-dodecakis(methanol)-dodeca-cadmium(ii) hexahydrate)
;
_cell_volume 114274.763
_exptl_crystal_colour 'colorless'
_exptl_special_details
;
Large structure in which program limits have been exceeded. A partial diagram 
showing the coordination of the ligands and the coordination of the Cd atoms 
has been input; The Cd atoms appear to be coordinated to methanol molecules 
and not water molecules as stated in the paper; The charge balancing Cd 
cations and oxonium cations could not be located; The total number of 
uncoordinated water molecules is unclear
;
_exptl_crystal_description 'block'
_diffrn_ambient_temperature 90
_diffrn_radiation_probe x-ray
_diffrn_source synchrotron
#These two values have been output from a single CSD field.
_refine_ls_R_factor_gt 0.0369
_refine_ls_wR_factor_gt 0.0369
_symmetry_cell_setting cubic
_symmetry_space_group_name_H-M 'F m -3 c'
_symmetry_Int_Tables_number 226
loop_
_symmetry_equiv_pos_site_id
_symmetry_equiv_pos_as_xyz
1 x,y,z
2 z,x,y
3 y,z,x
4 1/2+y,1/2+x,1/2-z
5 1/2+y,1/2-x,1/2+z
6 1/2-y,1/2+x,1/2+z
7 1/2+x,1/2+z,1/2-y
8 1/2-x,1/2+z,1/2+y
9 1/2+x,1/2-z,1/2+y
10 1/2+z,1/2+y,1/2-x
11 1/2+z,1/2-y,1/2+x
12 1/2-z,1/2+y,1/2+x
13 x,1/2+y,1/2+z
14 z,1/2+x,1/2+y
15 y,1/2+z,1/2+x
16 1/2+y,x,-z
17 1/2+y,-x,z
18 1/2-y,x,z
19 1/2+x,z,-y
20 1/2-x,z,y
21 1/2+x,-z,y
22 1/2+z,y,-x
23 1/2+z,-y,x
24 1/2-z,y,x
25 1/2+x,y,1/2+z
26 1/2+z,x,1/2+y
27 1/2+y,z,1/2+x
28 y,1/2+x,-z
29 y,1/2-x,z
30 -y,1/2+x,z
31 x,1/2+z,-y
32 -x,1/2+z,y
33 x,1/2-z,y
34 z,1/2+y,-x
35 z,1/2-y,x
36 -z,1/2+y,x
37 1/2+x,1/2+y,z
38 1/2+z,1/2+x,y
39 1/2+y,1/2+z,x
40 y,x,1/2-z
41 y,-x,1/2+z
42 -y,x,1/2+z
43 x,z,1/2-y
44 -x,z,1/2+y
45 x,-z,1/2+y
46 z,y,1/2-x
47 z,-y,1/2+x
48 -z,y,1/2+x
49 -x,-y,z
50 -x,y,-z
51 x,-y,-z
52 z,-x,-y
53 -z,-x,y
54 -z,x,-y
55 -y,z,-x
56 y,-z,-x
57 -y,-z,x
58 1/2-y,1/2-x,1/2-z
59 1/2-x,1/2-z,1/2-y
60 1/2-z,1/2-y,1/2-x
61 -x,1/2-y,1/2+z
62 -x,1/2+y,1/2-z
63 x,1/2-y,1/2-z
64 z,1/2-x,1/2-y
65 -z,1/2-x,1/2+y
66 -z,1/2+x,1/2-y
67 -y,1/2+z,1/2-x
68 y,1/2-z,1/2-x
69 -y,1/2-z,1/2+x
70 1/2-y,-x,-z
71 1/2-x,-z,-y
72 1/2-z,-y,-x
73 1/2-x,-y,1/2+z
74 1/2-x,y,1/2-z
75 1/2+x,-y,1/2-z
76 1/2+z,-x,1/2-y
77 1/2-z,-x,1/2+y
78 1/2-z,x,1/2-y
79 1/2-y,z,1/2-x
80 1/2+y,-z,1/2-x
81 1/2-y,-z,1/2+x
82 -y,1/2-x,-z
83 -x,1/2-z,-y
84 -z,1/2-y,-x
85 1/2-x,1/2-y,z
86 1/2-x,1/2+y,-z
87 1/2+x,1/2-y,-z
88 1/2+z,1/2-x,-y
89 1/2-z,1/2-x,y
90 1/2-z,1/2+x,-y
91 1/2-y,1/2+z,-x
92 1/2+y,1/2-z,-x
93 1/2-y,1/2-z,x
94 -y,-x,1/2-z
95 -x,-z,1/2-y
96 -z,-y,1/2-x
97 -x,-y,-z
98 -z,-x,-y
99 -y,-z,-x
100 -1/2-y,-1/2-x,-1/2+z
101 -1/2-y,-1/2+x,-1/2-z
102 -1/2+y,-1/2-x,-1/2-z
103 -1/2-x,-1/2-z,-1/2+y
104 -1/2+x,-1/2-z,-1/2-y
105 -1/2-x,-1/2+z,-1/2-y
106 -1/2-z,-1/2-y,-1/2+x
107 -1/2-z,-1/2+y,-1/2-x
108 -1/2+z,-1/2-y,-1/2-x
109 -x,-1/2-y,-1/2-z
110 -z,-1/2-x,-1/2-y
111 -y,-1/2-z,-1/2-x
112 -1/2-y,-x,z
113 -1/2-y,x,-z
114 -1/2+y,-x,-z
115 -1/2-x,-z,y
116 -1/2+x,-z,-y
117 -1/2-x,z,-y
118 -1/2-z,-y,x
119 -1/2-z,y,-x
120 -1/2+z,-y,-x
121 -1/2-x,-y,-1/2-z
122 -1/2-z,-x,-1/2-y
123 -1/2-y,-z,-1/2-x
124 -y,-1/2-x,z
125 -y,-1/2+x,-z
126 y,-1/2-x,-z
127 -x,-1/2-z,y
128 x,-1/2-z,-y
129 -x,-1/2+z,-y
130 -z,-1/2-y,x
131 -z,-1/2+y,-x
132 z,-1/2-y,-x
133 -1/2-x,-1/2-y,-z
134 -1/2-z,-1/2-x,-y
135 -1/2-y,-1/2-z,-x
136 -y,-x,-1/2+z
137 -y,x,-1/2-z
138 y,-x,-1/2-z
139 -x,-z,-1/2+y
140 x,-z,-1/2-y
141 -x,z,-1/2-y
142 -z,-y,-1/2+x
143 -z,y,-1/2-x
144 z,-y,-1/2-x
145 x,y,-z
146 x,-y,z
147 -x,y,z
148 -z,x,y
149 z,x,-y
150 z,-x,y
151 y,-z,x
152 -y,z,x
153 y,z,-x
154 -1/2+y,-1/2+x,-1/2+z
155 -1/2+x,-1/2+z,-1/2+y
156 -1/2+z,-1/2+y,-1/2+x
157 x,-1/2+y,-1/2-z
158 x,-1/2-y,-1/2+z
159 -x,-1/2+y,-1/2+z
160 -z,-1/2+x,-1/2+y
161 z,-1/2+x,-1/2-y
162 z,-1/2-x,-1/2+y
163 y,-1/2-z,-1/2+x
164 -y,-1/2+z,-1/2+x
165 y,-1/2+z,-1/2-x
166 -1/2+y,x,z
167 -1/2+x,z,y
168 -1/2+z,y,x
169 -1/2+x,y,-1/2-z
170 -1/2+x,-y,-1/2+z
171 -1/2-x,y,-1/2+z
172 -1/2-z,x,-1/2+y
173 -1/2+z,x,-1/2-y
174 -1/2+z,-x,-1/2+y
175 -1/2+y,-z,-1/2+x
176 -1/2-y,z,-1/2+x
177 -1/2+y,z,-1/2-x
178 y,-1/2+x,z
179 x,-1/2+z,y
180 z,-1/2+y,x
181 -1/2+x,-1/2+y,-z
182 -1/2+x,-1/2-y,z
183 -1/2-x,-1/2+y,z
184 -1/2-z,-1/2+x,y
185 -1/2+z,-1/2+x,-y
186 -1/2+z,-1/2-x,y
187 -1/2+y,-1/2-z,x
188 -1/2-y,-1/2+z,x
189 -1/2+y,-1/2+z,-x
190 y,x,-1/2+z
191 x,z,-1/2+y
192 z,y,-1/2+x
_cell_length_a 48.527(6)
_cell_length_b 48.527(6)
_cell_length_c 48.527(6)
_cell_angle_alpha 90
_cell_angle_beta 90
_cell_angle_gamma 90
_cell_formula_units_Z 8
loop_
_atom_type_symbol
_atom_type_radius_bond
C 0.68
H 0.23
Cd 1.63
O 0.68
loop_
_atom_site_label
_atom_site_type_symbol
_atom_site_fract_x
_atom_site_fract_y
_atom_site_fract_z
O1 O 0.00000 0.12920(9) 0.21135(11)
O2 O 1.0894(9) 0.25000 0.25000
O3 O 1.0445(4) 0.25000 0.25000
Cd1 Cd 1.00000 0.201728(5) 0.224881(5)
O4 O 0.96640(4) 0.17055(4) 0.23896(4)
O5 O 1.02941(4) 0.23368(4) 0.20649(4)
O6 O 1.00000 0.25000 0.25000
C1 C 0.95976(5) 0.18319(6) 0.26041(6)
C2 C 0.93770(5) 0.17179(6) 0.27876(6)
C3 C 0.92865(6) 0.18644(6) 0.30155(5)
H1 H 0.93700 0.20350 0.30630
C4 C 0.90736(5) 0.17592(6) 0.31738(6)
C5 C 0.89433(6) 0.15111(6) 0.31064(6)
C6 C 0.90427(6) 0.13605(6) 0.28821(6)
H2 H 0.89630 0.11880 0.28360
C7 C 0.92583(6) 0.14642(6) 0.27266(6)
H3 H 0.93270 0.13600 0.25750
C8 C 0.87178(6) 0.14650(6) 0.33089(6)
C9 C 0.85070(6) 0.12701(6) 0.33207(6)
C10 C 0.89584(6) 0.18853(6) 0.34335(6)
C11 C 0.88415(7) 0.21741(7) 0.33652(7)
H4 H 0.87750 0.22600 0.35380
H5 H 0.89930 0.22900 0.32940
C12 C 0.86097(9) 0.21773(8) 0.31582(8)
H6 H 0.86700 0.20850 0.29890
H7 H 0.85590 0.23680 0.31170
H8 H 0.84500 0.20800 0.32350
C13 C 0.92001(7) 0.18918(7) 0.36482(8)
H9 H 0.93490 0.20110 0.35740
H10 H 0.91320 0.19790 0.38200
C14 C 0.93229(9) 0.16142(9) 0.37211(9)
H11 H 0.91800 0.14960 0.38000
H12 H 0.94710 0.16390 0.38560
H13 H 0.93970 0.15280 0.35550
O7 O 1.00000 0.17758(7) 0.18326(6)
C15 C 1.00000 0.1832(3) 0.15475(18)
H14 H 1.00000 0.1530(7) 0.1835(7)
Cd1FA Cd 1.00000 0.275119(5) 0.201728(5)
Cd1PA Cd 1.00000 0.224881(5) 0.298272(5)
Cd1DD Cd 1.00000 0.298272(5) 0.275119(5)
Cd1PF Cd 0.72488 0.000000(5) 0.298272(5)
Cd1FE Cd 0.79827 0.000000(5) 0.275119(5)
Cd1FD Cd 0.79827 0.275119(5) 0.500000(5)
Cd1UA Cd 0.77512 0.201728(5) 0.500000(5)
Cd1KA Cd 0.72488 0.500000(5) 0.201728(5)
Cd1CA Cd 0.79827 0.500000(5) 0.224881(5)
Cd1UE Cd 0.79827 0.224881(5) 0.000000(5)
Cd1YD Cd 0.77512 0.298272(5) 0.000000(5)
Cd1W Cd 1.27512 0.201728(5) 0.000000(5)
Cd1B Cd 1.20173 0.224881(5) 0.000000(5)
Cd1MA Cd 1.20173 0.000000(5) 0.275119(5)
Cd1A Cd 1.22488 0.000000(5) 0.201728(5)
Cd1J Cd 0.72488 0.298272(5) 0.500000(5)
Cd1ED Cd 0.77512 0.500000(5) 0.298272(5)
O4PE O 1.03360(4) 0.17055(4) 0.23896(4)
O4WB O 0.73896(4) 0.03360(4) 0.32945(4)
O4PB O 0.82945(4) 0.26104(4) 0.46640(4)
O4FA O 0.96640(4) 0.26104(4) 0.17055(4)
O4VD O 1.03360(4) 0.26104(4) 0.17055(4)
O4DD O 1.03360(4) 0.32945(4) 0.26104(4)
O4JB O 0.96640(4) 0.32945(4) 0.26104(4)
O4PA O 0.96640(4) 0.23896(4) 0.32945(4)
O4JE O 1.03360(4) 0.23896(4) 0.32945(4)
O4KA O 0.73896(4) 0.46640(4) 0.17055(4)
O4BB O 0.82945(4) 0.23896(4) 0.03360(4)
O4ND O 1.26104(4) 0.17055(4) 0.03360(4)
O4GE O 1.17055(4) 0.03360(4) 0.26104(4)
O4J O 0.73896(4) 0.32945(4) 0.46640(4)
O4CA O 0.82945(4) 0.46640(4) 0.23896(4)
O5PA O 1.02941(4) 0.20649(4) 0.26632(4)
O5PE O 0.97059(4) 0.23368(4) 0.20649(4)
O5JE O 0.97059(4) 0.20649(4) 0.26632(4)
O5FE O 0.76632(4) 0.02941(4) 0.29351(4)
O5LE O 0.79351(4) 0.23368(4) 0.47059(4)
O5FA O 1.02941(4) 0.29351(4) 0.23368(4)
O5VD O 0.97059(4) 0.29351(4) 0.23368(4)
O5DD O 0.97059(4) 0.26632(4) 0.29351(4)
O5JB O 1.02941(4) 0.26632(4) 0.29351(4)
O5SD O 0.76632(4) 0.47059(4) 0.20649(4)
O5YD O 0.79351(4) 0.26632(4) 0.02941(4)
O5B O 1.23368(4) 0.20649(4) 0.02941(4)
O5A O 1.20649(4) 0.02941(4) 0.23368(4)
O5FD O 0.76632(4) 0.29351(4) 0.47059(4)
O5ED O 0.79351(4) 0.47059(4) 0.26632(4)
C1VD C 1.04024(5) 0.23959(6) 0.18319(6)
C1WB C 0.76041(5) 0.04024(6) 0.31681(6)
C1PB C 0.81681(5) 0.23959(6) 0.45976(6)
C1JB C 0.95976(5) 0.31681(6) 0.23959(6)
C1KA C 0.76041(5) 0.45976(6) 0.18319(6)
C1BB C 0.81681(5) 0.26041(6) 0.04024(6)
C1ND C 1.23959(5) 0.18319(6) 0.04024(6)
C1GE C 1.18319(5) 0.04024(6) 0.23959(6)
C1PA C 0.95976(5) 0.26041(6) 0.31681(6)
C1J C 0.76041(5) 0.31681(6) 0.45976(6)
C1CA C 0.81681(5) 0.45976(6) 0.26041(6)
C2WB C 0.77876(5) 0.06230(6) 0.32821(6)
C2PB C 0.82821(5) 0.22124(6) 0.43770(6)
C2JB C 0.93770(5) 0.32821(6) 0.22124(6)
C2KA C 0.77876(5) 0.43770(6) 0.17179(6)
C2BB C 0.82821(5) 0.27876(6) 0.06230(6)
C2VD C 1.06230(5) 0.22124(6) 0.17179(6)
C2ND C 1.22124(5) 0.17179(6) 0.06230(6)
C2GE C 1.17179(5) 0.06230(6) 0.22124(6)
C2PA C 0.93770(5) 0.27876(6) 0.32821(6)
C2J C 0.77876(5) 0.32821(6) 0.43770(6)
C2CA C 0.82821(5) 0.43770(6) 0.27876(6)
C3WB C 0.80155(6) 0.07135(6) 0.31356(5)
C3PB C 0.81356(6) 0.19845(6) 0.42865(5)
C3JB C 0.92865(6) 0.31356(6) 0.19845(5)
C3KA C 0.80155(6) 0.42865(6) 0.18644(5)
C3BB C 0.81356(6) 0.30155(6) 0.07135(5)
C3VD C 1.07135(6) 0.19845(6) 0.18644(5)
C3ND C 1.19845(6) 0.18644(6) 0.07135(5)
C3GE C 1.18644(6) 0.07135(6) 0.19845(5)
C3PA C 0.92865(6) 0.30155(6) 0.31356(5)
C3J C 0.80155(6) 0.31356(6) 0.42865(5)
C3CA C 0.81356(6) 0.42865(6) 0.30155(5)
H1WB H 0.80630 0.06300 0.29650
H1PB H 0.79650 0.19370 0.43700
H1JB H 0.93700 0.29650 0.19370
H1KA H 0.80630 0.43700 0.20350
H1BB H 0.79650 0.30630 0.06300
H1VD H 1.06300 0.19370 0.20350
H1ND H 1.19370 0.20350 0.06300
H1GE H 1.20350 0.06300 0.19370
H1PA H 0.93700 0.30630 0.29650
H1J H 0.80630 0.29650 0.43700
H1CA H 0.79650 0.43700 0.30630
C4WB C 0.81738(5) 0.09264(6) 0.32408(6)
C4PB C 0.82408(5) 0.18262(6) 0.40736(6)
C4JB C 0.90736(5) 0.32408(6) 0.18262(6)
C4KA C 0.81738(5) 0.40736(6) 0.17592(6)
C4BB C 0.82408(5) 0.31738(6) 0.09264(6)
C4VD C 1.09264(5) 0.18262(6) 0.17592(6)
C4ND C 1.18262(5) 0.17592(6) 0.09264(6)
C4GE C 1.17592(5) 0.09264(6) 0.18262(6)
C4PA C 0.90736(5) 0.31738(6) 0.32408(6)
C4J C 0.81738(5) 0.32408(6) 0.40736(6)
C4CA C 0.82408(5) 0.40736(6) 0.31738(6)
C5WB C 0.81064(6) 0.10567(6) 0.34889(6)
C5PB C 0.84889(6) 0.18936(6) 0.39433(6)
C5JB C 0.89433(6) 0.34889(6) 0.18936(6)
C5BB C 0.84889(6) 0.31064(6) 0.10567(6)
C5KA C 0.81064(6) 0.39433(6) 0.15111(6)
C5VD C 1.10567(6) 0.18936(6) 0.15111(6)
C5GE C 1.15111(6) 0.10567(6) 0.18936(6)
C5ND C 1.18936(6) 0.15111(6) 0.10567(6)
C5PA C 0.89433(6) 0.31064(6) 0.34889(6)
C5CA C 0.84889(6) 0.39433(6) 0.31064(6)
C5J C 0.81064(6) 0.34889(6) 0.39433(6)
C6WB C 0.78821(6) 0.09573(6) 0.36395(6)
C6PB C 0.86395(6) 0.21179(6) 0.40427(6)
C6JB C 0.90427(6) 0.36395(6) 0.21179(6)
C6BB C 0.86395(6) 0.28821(6) 0.09573(6)
C6KA C 0.78821(6) 0.40427(6) 0.13605(6)
C6VD C 1.09573(6) 0.21179(6) 0.13605(6)
C6GE C 1.13605(6) 0.09573(6) 0.21179(6)
C6ND C 1.21179(6) 0.13605(6) 0.09573(6)
C6PA C 0.90427(6) 0.28821(6) 0.36395(6)
C6CA C 0.86395(6) 0.40427(6) 0.28821(6)
C6J C 0.78821(6) 0.36395(6) 0.40427(6)
H2WB H 0.78360 0.10370 0.38120
H2PB H 0.88120 0.21640 0.39630
H2JB H 0.89630 0.38120 0.21640
H2BB H 0.88120 0.28360 0.10370
H2KA H 0.78360 0.39630 0.11880
H2VD H 1.10370 0.21640 0.11880
H2GE H 1.11880 0.10370 0.21640
H2ND H 1.21640 0.11880 0.10370
H2PA H 0.89630 0.28360 0.38120
H2CA H 0.88120 0.39630 0.28360
H2J H 0.78360 0.38120 0.39630
C7WB C 0.77266(6) 0.07417(6) 0.35358(6)
C7PB C 0.85358(6) 0.22734(6) 0.42583(6)
C7JB C 0.92583(6) 0.35358(6) 0.22734(6)
C7BB C 0.85358(6) 0.27266(6) 0.07417(6)
C7KA C 0.77266(6) 0.42583(6) 0.14642(6)
C7VD C 1.07417(6) 0.22734(6) 0.14642(6)
C7GE C 1.14642(6) 0.07417(6) 0.22734(6)
C7ND C 1.22734(6) 0.14642(6) 0.07417(6)
C7PA C 0.92583(6) 0.27266(6) 0.35358(6)
C7CA C 0.85358(6) 0.42583(6) 0.27266(6)
C7J C 0.77266(6) 0.35358(6) 0.42583(6)
H3WB H 0.75750 0.06730 0.36400
H3PB H 0.86400 0.24250 0.43270
H3JB H 0.93270 0.36400 0.24250
H3BB H 0.86400 0.25750 0.06730
H3KA H 0.75750 0.43270 0.13600
H3VD H 1.06730 0.24250 0.13600
H3GE H 1.13600 0.06730 0.24250
H3ND H 1.24250 0.13600 0.06730
H3PA H 0.93270 0.25750 0.36400
H3CA H 0.86400 0.43270 0.25750
H3J H 0.75750 0.36400 0.43270
C8WB C 0.83089(6) 0.12822(6) 0.35350(6)
C8PB C 0.85350(6) 0.16911(6) 0.37178(6)
C8JB C 0.87178(6) 0.35350(6) 0.16911(6)
C8BB C 0.85350(6) 0.33089(6) 0.12822(6)
C8KA C 0.83089(6) 0.37178(6) 0.14650(6)
C8VD C 1.12822(6) 0.16911(6) 0.14650(6)
C8GE C 1.14650(6) 0.12822(6) 0.16911(6)
C8ND C 1.16911(6) 0.14650(6) 0.12822(6)
C8PA C 0.87178(6) 0.33089(6) 0.35350(6)
C8CA C 0.85350(6) 0.37178(6) 0.33089(6)
C8J C 0.83089(6) 0.35350(6) 0.37178(6)
C9PB C 0.87299(6) 0.16793(6) 0.35070(6)
C9WB C 0.83207(6) 0.14930(6) 0.37299(6)
C9BB C 0.87299(6) 0.33207(6) 0.14930(6)
C9JB C 0.85070(6) 0.37299(6) 0.16793(6)
C9KA C 0.83207(6) 0.35070(6) 0.12701(6)
C9GE C 1.12701(6) 0.14930(6) 0.16793(6)
C9VD C 1.14930(6) 0.16793(6) 0.12701(6)
C9ND C 1.16793(6) 0.12701(6) 0.14930(6)
C9CA C 0.87299(6) 0.35070(6) 0.33207(6)
C9PA C 0.85070(6) 0.33207(6) 0.37299(6)
C9J C 0.83207(6) 0.37299(6) 0.35070(6)
C10WB C 0.84335(6) 0.10416(6) 0.31147(6)
C10PB C 0.81147(6) 0.15665(6) 0.39584(6)
C10JB C 0.89584(6) 0.31147(6) 0.15665(6)
C10KA C 0.84335(6) 0.39584(6) 0.18853(6)
C10BB C 0.81147(6) 0.34335(6) 0.10416(6)
C10VD C 1.10416(6) 0.15665(6) 0.18853(6)
C10ND C 1.15665(6) 0.18853(6) 0.10416(6)
C10GE C 1.18853(6) 0.10416(6) 0.15665(6)
C10PA C 0.89584(6) 0.34335(6) 0.31147(6)
C10J C 0.84335(6) 0.31147(6) 0.39584(6)
C10CA C 0.81147(6) 0.39584(6) 0.34335(6)
C11WB C 0.83652(7) 0.11585(7) 0.28259(7)
C11PB C 0.78259(7) 0.16348(7) 0.38415(7)
C11JB C 0.88415(7) 0.28259(7) 0.16348(7)
C11KA C 0.83652(7) 0.38415(7) 0.21741(7)
C11BB C 0.78259(7) 0.33652(7) 0.11585(7)
C11VD C 1.11585(7) 0.16348(7) 0.21741(7)
C11ND C 1.16348(7) 0.21741(7) 0.11585(7)
C11GE C 1.21741(7) 0.11585(7) 0.16348(7)
C11PA C 0.88415(7) 0.33652(7) 0.28259(7)
C11J C 0.83652(7) 0.28259(7) 0.38415(7)
C11CA C 0.78259(7) 0.38415(7) 0.33652(7)
H4WB H 0.85380 0.12250 0.27400
H4PB H 0.77400 0.14620 0.37750
H4JB H 0.87750 0.27400 0.14620
H4KA H 0.85380 0.37750 0.22600
H4BB H 0.77400 0.35380 0.12250
H4VD H 1.12250 0.14620 0.22600
H4ND H 1.14620 0.22600 0.12250
H4GE H 1.22600 0.12250 0.14620
H4PA H 0.87750 0.35380 0.27400
H4J H 0.85380 0.27400 0.37750
H4CA H 0.77400 0.37750 0.35380
H5WB H 0.82940 0.10070 0.27100
H5PB H 0.77100 0.17060 0.39930
H5JB H 0.89930 0.27100 0.17060
H5KA H 0.82940 0.39930 0.22900
H5BB H 0.77100 0.32940 0.10070
H5VD H 1.10070 0.17060 0.22900
H5ND H 1.17060 0.22900 0.10070
H5GE H 1.22900 0.10070 0.17060
H5PA H 0.89930 0.32940 0.27100
H5J H 0.82940 0.27100 0.39930
H5CA H 0.77100 0.39930 0.32940
C12WB C 0.81582(9) 0.13903(8) 0.28227(8)
C12PB C 0.78227(9) 0.18418(8) 0.36097(8)
C12JB C 0.86097(9) 0.28227(8) 0.18418(8)
C12KA C 0.81582(9) 0.36097(8) 0.21773(8)
C12BB C 0.78227(9) 0.31582(8) 0.13903(8)
C12VD C 1.13903(9) 0.18418(8) 0.21773(8)
C12ND C 1.18418(9) 0.21773(8) 0.13903(8)
C12GE C 1.21773(9) 0.13903(8) 0.18418(8)
C12PA C 0.86097(9) 0.31582(8) 0.28227(8)
C12J C 0.81582(9) 0.28227(8) 0.36097(8)
C12CA C 0.78227(9) 0.36097(8) 0.31582(8)
H6WB H 0.79890 0.13300 0.29150
H6PB H 0.79150 0.20110 0.36700
H6JB H 0.86700 0.29150 0.20110
H6KA H 0.79890 0.36700 0.20850
H6BB H 0.79150 0.29890 0.13300
H6VD H 1.13300 0.20110 0.20850
H6ND H 1.20110 0.20850 0.13300
H6GE H 1.20850 0.13300 0.20110
H6PA H 0.86700 0.29890 0.29150
H6J H 0.79890 0.29150 0.36700
H6CA H 0.79150 0.36700 0.29890
H7WB H 0.81170 0.14410 0.26320
H7PB H 0.76320 0.18830 0.35590
H7JB H 0.85590 0.26320 0.18830
H7KA H 0.81170 0.35590 0.23680
H7BB H 0.76320 0.31170 0.14410
H7VD H 1.14410 0.18830 0.23680
H7ND H 1.18830 0.23680 0.14410
H7GE H 1.23680 0.14410 0.18830
H7PA H 0.85590 0.31170 0.26320
H7J H 0.81170 0.26320 0.35590
H7CA H 0.76320 0.35590 0.31170
H8WB H 0.82350 0.15500 0.29200
H8PB H 0.79200 0.17650 0.34500
H8JB H 0.84500 0.29200 0.17650
H8KA H 0.82350 0.34500 0.20800
H8BB H 0.79200 0.32350 0.15500
H8VD H 1.15500 0.17650 0.20800
H8ND H 1.17650 0.20800 0.15500
H8GE H 1.20800 0.15500 0.17650
H8PA H 0.84500 0.32350 0.29200
H8J H 0.82350 0.29200 0.34500
H8CA H 0.79200 0.34500 0.32350
C13WB C 0.86482(7) 0.07999(7) 0.31082(8)
C13PB C 0.81082(7) 0.13518(7) 0.42001(8)
C13JB C 0.92001(7) 0.31082(7) 0.13518(8)
C13KA C 0.86482(7) 0.42001(7) 0.18918(8)
C13BB C 0.81082(7) 0.36482(7) 0.07999(8)
C13VD C 1.07999(7) 0.13518(7) 0.18918(8)
C13ND C 1.13518(7) 0.18918(7) 0.07999(8)
C13GE C 1.18918(7) 0.07999(7) 0.13518(8)
C13PA C 0.92001(7) 0.36482(7) 0.31082(8)
C13J C 0.86482(7) 0.31082(7) 0.42001(8)
C13CA C 0.81082(7) 0.42001(7) 0.36482(8)
H9WB H 0.85740 0.06510 0.29890
H9PB H 0.79890 0.14260 0.43490
H9JB H 0.93490 0.29890 0.14260
H9KA H 0.85740 0.43490 0.20110
H9BB H 0.79890 0.35740 0.06510
H9VD H 1.06510 0.14260 0.20110
H9ND H 1.14260 0.20110 0.06510
H9GE H 1.20110 0.06510 0.14260
H9PA H 0.93490 0.35740 0.29890
H9J H 0.85740 0.29890 0.43490
H9CA H 0.79890 0.43490 0.35740
H10WB H 0.88200 0.08680 0.30210
H10PB H 0.80210 0.11800 0.41320
H10JB H 0.91320 0.30210 0.11800
H10KA H 0.88200 0.41320 0.19790
H10BB H 0.80210 0.38200 0.08680
H10VD H 1.08680 0.11800 0.19790
H10ND H 1.11800 0.19790 0.08680
H10GE H 1.19790 0.08680 0.11800
H10PA H 0.91320 0.38200 0.30210
H10J H 0.88200 0.30210 0.41320
H10CA H 0.80210 0.41320 0.38200
C14WB C 0.87211(9) 0.06771(9) 0.33858(9)
C14PB C 0.83858(9) 0.12789(9) 0.43229(9)
C14JB C 0.93229(9) 0.33858(9) 0.12789(9)
C14KA C 0.87211(9) 0.43229(9) 0.16142(9)
C14BB C 0.83858(9) 0.37211(9) 0.06771(9)
C14VD C 1.06771(9) 0.12789(9) 0.16142(9)
C14ND C 1.12789(9) 0.16142(9) 0.06771(9)
C14GE C 1.16142(9) 0.06771(9) 0.12789(9)
C14PA C 0.93229(9) 0.37211(9) 0.33858(9)
C14J C 0.87211(9) 0.33858(9) 0.43229(9)
C14CA C 0.83858(9) 0.43229(9) 0.37211(9)
H11WB H 0.88000 0.08200 0.35040
H11PB H 0.85040 0.12000 0.41800
H11JB H 0.91800 0.35040 0.12000
H11KA H 0.88000 0.41800 0.14960
H11BB H 0.85040 0.38000 0.08200
H11VD H 1.08200 0.12000 0.14960
H11ND H 1.12000 0.14960 0.08200
H11GE H 1.14960 0.08200 0.12000
H11PA H 0.91800 0.38000 0.35040
H11J H 0.88000 0.35040 0.41800
H11CA H 0.85040 0.41800 0.38000
H12WB H 0.88560 0.05290 0.33610
H12PB H 0.83610 0.11440 0.44710
H12JB H 0.94710 0.33610 0.11440
H12KA H 0.88560 0.44710 0.16390
H12BB H 0.83610 0.38560 0.05290
H12VD H 1.05290 0.11440 0.16390
H12ND H 1.11440 0.16390 0.05290
H12GE H 1.16390 0.05290 0.11440
H12PA H 0.94710 0.38560 0.33610
H12J H 0.88560 0.33610 0.44710
H12CA H 0.83610 0.44710 0.38560
H13WB H 0.85550 0.06030 0.34720
H13PB H 0.84720 0.14450 0.43970
H13JB H 0.93970 0.34720 0.14450
H13KA H 0.85550 0.43970 0.15280
H13BB H 0.84720 0.35550 0.06030
H13VD H 1.06030 0.14450 0.15280
H13ND H 1.14450 0.15280 0.06030
H13GE H 1.15280 0.06030 0.14450
H13PA H 0.93970 0.35550 0.34720
H13J H 0.85550 0.34720 0.43970
H13CA H 0.84720 0.43970 0.35550
O7FA O 1.00000 0.31674(7) 0.17758(6)
O7DD O 1.00000 0.32242(7) 0.31674(6)
O7PA O 1.00000 0.18326(7) 0.32242(6)
C15DD C 1.00000 0.3168(3) 0.34525(18)
C15FA C 1.00000 0.34525(30) 0.18320(18)
C15PA C 1.00000 0.15475(30) 0.31680(18)
H14DD H 1.00000 0.3470(7) 0.3165(7)
H14FA H 1.00000 0.3165(7) 0.1530(7)
H14PA H 1.00000 0.1835(7) 0.3470(7)
#END
