
#######################################################################
#
#                 Cambridge Crystallographic Data Centre
#                                CCDC
#
#######################################################################
#
# If this CIF has been generated from an entry in the Cambridge
# Structural Database, then it will include bibliographic, chemical,
# crystal, experimental, refinement or atomic coordinate data resulting
# from the CCDC's data processing and validation procedures.
#
#######################################################################

data_CSD_CIF_BOXFIE
_audit_creation_date 2009-12-08
_audit_creation_method CSD-ConQuest-V1
_database_code_CSD BOXFIE
_database_code_depnum_ccdc_archive 'CCDC 733321'
_chemical_formula_sum 'C336 H333 O60 Pb13.5'
_chemical_formula_moiety
;
(Pb1 2+)1.5n,3n(H3 O1 1+),n(C336 H312 O51 Pb12 6-),6n(H2 O1)
;
_journal_coden_Cambridge 4
_journal_volume 131
_journal_year 2009
_journal_page_first 3814
_journal_name_full 'J.Am.Chem.Soc. '
loop_
_publ_author_name
"S.Das"
"Hyunuk Kim"
"K.Kim"
_chemical_name_systematic
;
catena-(Sesqui-lead(ii) tris(oxonium) 
octakis(\m~6~-5,5,10,10,15,15-hexaethyl-10,15-dihydro-5H-diindeno[1,2-a:1',2'-
c]fluorene-2,7,12-tricarboxylato)-tris(\m~4~-oxo)-dodeca-lead(ii) 
hexahydrate)
;
_chemical_name_common
;
catena-(Sesqui-lead(ii) tris(oxonium) 
octakis(mu!6$-5,5,10,10,15,15-hexaethyltruxene-2,7,12-tricarboxylato)-tris(mu!
4$-oxo)-dodeca-lead(ii) hexahydrate)
;
_cell_volume 116164.269
_exptl_crystal_colour 'colorless'
_exptl_special_details
;
crystal soaked in Pb(NO3)2 solution for 12 hours
Large structure in which program limits have been exceeded. A partial diagram 
showing the coordination of the ligands and the coordination of the Pb atoms 
has been input; The Pb atoms do not appear to be coordinated to water 
molecules as stated in the paper; The charge balancing Pb cations and oxonium 
cations and the water molecules could not be located and the exact identity 
and number of these is unclear
;
_exptl_crystal_description 'block'
_diffrn_ambient_temperature 298
_diffrn_radiation_probe x-ray
_diffrn_source synchrotron
#These two values have been output from a single CSD field.
_refine_ls_R_factor_gt 0.0669
_refine_ls_wR_factor_gt 0.0669
_symmetry_cell_setting cubic
_symmetry_space_group_name_H-M 'F m -3 c'
_symmetry_Int_Tables_number 226
loop_
_symmetry_equiv_pos_site_id
_symmetry_equiv_pos_as_xyz
1 x,y,z
2 z,x,y
3 y,z,x
4 1/2+y,1/2+x,1/2-z
5 1/2+y,1/2-x,1/2+z
6 1/2-y,1/2+x,1/2+z
7 1/2+x,1/2+z,1/2-y
8 1/2-x,1/2+z,1/2+y
9 1/2+x,1/2-z,1/2+y
10 1/2+z,1/2+y,1/2-x
11 1/2+z,1/2-y,1/2+x
12 1/2-z,1/2+y,1/2+x
13 x,1/2+y,1/2+z
14 z,1/2+x,1/2+y
15 y,1/2+z,1/2+x
16 1/2+y,x,-z
17 1/2+y,-x,z
18 1/2-y,x,z
19 1/2+x,z,-y
20 1/2-x,z,y
21 1/2+x,-z,y
22 1/2+z,y,-x
23 1/2+z,-y,x
24 1/2-z,y,x
25 1/2+x,y,1/2+z
26 1/2+z,x,1/2+y
27 1/2+y,z,1/2+x
28 y,1/2+x,-z
29 y,1/2-x,z
30 -y,1/2+x,z
31 x,1/2+z,-y
32 -x,1/2+z,y
33 x,1/2-z,y
34 z,1/2+y,-x
35 z,1/2-y,x
36 -z,1/2+y,x
37 1/2+x,1/2+y,z
38 1/2+z,1/2+x,y
39 1/2+y,1/2+z,x
40 y,x,1/2-z
41 y,-x,1/2+z
42 -y,x,1/2+z
43 x,z,1/2-y
44 -x,z,1/2+y
45 x,-z,1/2+y
46 z,y,1/2-x
47 z,-y,1/2+x
48 -z,y,1/2+x
49 -x,-y,z
50 -x,y,-z
51 x,-y,-z
52 z,-x,-y
53 -z,-x,y
54 -z,x,-y
55 -y,z,-x
56 y,-z,-x
57 -y,-z,x
58 1/2-y,1/2-x,1/2-z
59 1/2-x,1/2-z,1/2-y
60 1/2-z,1/2-y,1/2-x
61 -x,1/2-y,1/2+z
62 -x,1/2+y,1/2-z
63 x,1/2-y,1/2-z
64 z,1/2-x,1/2-y
65 -z,1/2-x,1/2+y
66 -z,1/2+x,1/2-y
67 -y,1/2+z,1/2-x
68 y,1/2-z,1/2-x
69 -y,1/2-z,1/2+x
70 1/2-y,-x,-z
71 1/2-x,-z,-y
72 1/2-z,-y,-x
73 1/2-x,-y,1/2+z
74 1/2-x,y,1/2-z
75 1/2+x,-y,1/2-z
76 1/2+z,-x,1/2-y
77 1/2-z,-x,1/2+y
78 1/2-z,x,1/2-y
79 1/2-y,z,1/2-x
80 1/2+y,-z,1/2-x
81 1/2-y,-z,1/2+x
82 -y,1/2-x,-z
83 -x,1/2-z,-y
84 -z,1/2-y,-x
85 1/2-x,1/2-y,z
86 1/2-x,1/2+y,-z
87 1/2+x,1/2-y,-z
88 1/2+z,1/2-x,-y
89 1/2-z,1/2-x,y
90 1/2-z,1/2+x,-y
91 1/2-y,1/2+z,-x
92 1/2+y,1/2-z,-x
93 1/2-y,1/2-z,x
94 -y,-x,1/2-z
95 -x,-z,1/2-y
96 -z,-y,1/2-x
97 -x,-y,-z
98 -z,-x,-y
99 -y,-z,-x
100 -1/2-y,-1/2-x,-1/2+z
101 -1/2-y,-1/2+x,-1/2-z
102 -1/2+y,-1/2-x,-1/2-z
103 -1/2-x,-1/2-z,-1/2+y
104 -1/2+x,-1/2-z,-1/2-y
105 -1/2-x,-1/2+z,-1/2-y
106 -1/2-z,-1/2-y,-1/2+x
107 -1/2-z,-1/2+y,-1/2-x
108 -1/2+z,-1/2-y,-1/2-x
109 -x,-1/2-y,-1/2-z
110 -z,-1/2-x,-1/2-y
111 -y,-1/2-z,-1/2-x
112 -1/2-y,-x,z
113 -1/2-y,x,-z
114 -1/2+y,-x,-z
115 -1/2-x,-z,y
116 -1/2+x,-z,-y
117 -1/2-x,z,-y
118 -1/2-z,-y,x
119 -1/2-z,y,-x
120 -1/2+z,-y,-x
121 -1/2-x,-y,-1/2-z
122 -1/2-z,-x,-1/2-y
123 -1/2-y,-z,-1/2-x
124 -y,-1/2-x,z
125 -y,-1/2+x,-z
126 y,-1/2-x,-z
127 -x,-1/2-z,y
128 x,-1/2-z,-y
129 -x,-1/2+z,-y
130 -z,-1/2-y,x
131 -z,-1/2+y,-x
132 z,-1/2-y,-x
133 -1/2-x,-1/2-y,-z
134 -1/2-z,-1/2-x,-y
135 -1/2-y,-1/2-z,-x
136 -y,-x,-1/2+z
137 -y,x,-1/2-z
138 y,-x,-1/2-z
139 -x,-z,-1/2+y
140 x,-z,-1/2-y
141 -x,z,-1/2-y
142 -z,-y,-1/2+x
143 -z,y,-1/2-x
144 z,-y,-1/2-x
145 x,y,-z
146 x,-y,z
147 -x,y,z
148 -z,x,y
149 z,x,-y
150 z,-x,y
151 y,-z,x
152 -y,z,x
153 y,z,-x
154 -1/2+y,-1/2+x,-1/2+z
155 -1/2+x,-1/2+z,-1/2+y
156 -1/2+z,-1/2+y,-1/2+x
157 x,-1/2+y,-1/2-z
158 x,-1/2-y,-1/2+z
159 -x,-1/2+y,-1/2+z
160 -z,-1/2+x,-1/2+y
161 z,-1/2+x,-1/2-y
162 z,-1/2-x,-1/2+y
163 y,-1/2-z,-1/2+x
164 -y,-1/2+z,-1/2+x
165 y,-1/2+z,-1/2-x
166 -1/2+y,x,z
167 -1/2+x,z,y
168 -1/2+z,y,x
169 -1/2+x,y,-1/2-z
170 -1/2+x,-y,-1/2+z
171 -1/2-x,y,-1/2+z
172 -1/2-z,x,-1/2+y
173 -1/2+z,x,-1/2-y
174 -1/2+z,-x,-1/2+y
175 -1/2+y,-z,-1/2+x
176 -1/2-y,z,-1/2+x
177 -1/2+y,z,-1/2-x
178 y,-1/2+x,z
179 x,-1/2+z,y
180 z,-1/2+y,x
181 -1/2+x,-1/2+y,-z
182 -1/2+x,-1/2-y,z
183 -1/2-x,-1/2+y,z
184 -1/2-z,-1/2+x,y
185 -1/2+z,-1/2+x,-y
186 -1/2+z,-1/2-x,y
187 -1/2+y,-1/2-z,x
188 -1/2-y,-1/2+z,x
189 -1/2+y,-1/2+z,-x
190 y,x,-1/2+z
191 x,z,-1/2+y
192 z,y,-1/2+x
_cell_length_a 48.793(6)
_cell_length_b 48.793(6)
_cell_length_c 48.793(6)
_cell_angle_alpha 90
_cell_angle_beta 90
_cell_angle_gamma 90
_cell_formula_units_Z 8
loop_
_atom_type_symbol
_atom_type_radius_bond
C 0.61
H 0.23
O 0.88
Pb 1.78
loop_
_atom_site_label
_atom_site_type_symbol
_atom_site_fract_x
_atom_site_fract_y
_atom_site_fract_z
Pb1 Pb 0.222444(14) 1.00000 0.193721(17)
O1 O 0.26176(15) 0.96952(13) 0.19861(16)
O2 O 0.23869(16) 0.96610(14) 0.16067(17)
O3 O 0.25000 1.00000 0.25000
C1 C 0.2577(2) 0.95860(18) 0.1758(3)
C2 C 0.27590(18) 0.93564(17) 0.1661(2)
C3 C 0.2977(2) 0.92772(18) 0.1825(2)
H1 H 0.30130 0.93670 0.19890
C4 C 0.31435(17) 0.90565(18) 0.1738(2)
C5 C 0.30869(17) 0.89183(17) 0.14954(19)
C6 C 0.28670(19) 0.90074(19) 0.1338(2)
H2 H 0.28250 0.89170 0.11750
C7 C 0.27112(18) 0.92257(19) 0.1417(2)
H3 H 0.25710 0.92870 0.13040
C8 C 0.3400(2) 0.8953(2) 0.1872(2)
C9 C 0.34777(18) 0.87201(17) 0.16844(18)
C10 C 0.32905(17) 0.86934(17) 0.14657(17)
C11 C 0.3618(3) 0.9194(3) 0.1867(3)
H4 H 0.35480 0.93470 0.19730
H5 H 0.37850 0.91310 0.19550
C12 C 0.3691(3) 0.9299(3) 0.1576(4)
H6 H 0.37340 0.91460 0.14600
H7 H 0.38470 0.94190 0.15870
H8 H 0.35380 0.93970 0.15010
C13 C 0.3325(3) 0.8849(3) 0.2167(3)
H9 H 0.34920 0.87860 0.22560
H10 H 0.32560 0.90020 0.22730
C14 C 0.3115(3) 0.8618(3) 0.2180(3)
H11 H 0.29460 0.86790 0.21010
H12 H 0.30850 0.85670 0.23680
H13 H 0.31820 0.84630 0.20800
Pb1W Pb 0.306279(14) 1.00000 0.222444(17)
Pb1SA Pb 0.193721(14) 1.00000 0.277556(17)
Pb1PD Pb 0.277556(14) 1.00000 0.306279(17)
Pb1RD Pb 0.500000(14) 0.80628 0.277556(17)
Pb1P Pb 0.500000(14) 0.77756 0.193721(17)
Pb1AG Pb 0.306279(14) 0.72244 0.000000(17)
Pb1JD Pb 0.277556(14) 0.80628 0.000000(17)
Pb1C Pb 0.500000(14) 0.72244 0.306279(17)
Pb1RA Pb 0.222444(14) 0.80628 0.500000(17)
Pb1QD Pb 0.306279(14) 0.77756 0.500000(17)
Pb1EF Pb 0.193721(14) 1.27756 0.500000(17)
Pb1PA Pb 0.222444(14) 1.19372 0.500000(17)
Pb1B Pb 0.000000(14) 1.19372 0.222444(17)
Pb1MA Pb 0.000000(14) 1.22244 0.306279(17)
Pb1BA Pb 0.000000(14) 1.27756 0.193721(17)
Pb1S Pb 0.277556(14) 1.19372 0.000000(17)
Pb1A Pb 0.193721(14) 1.22244 0.000000(17)
O1SA O 0.19861(15) 0.96952(13) 0.23824(16)
O1OE O 0.26176(15) 1.03048(13) 0.19861(16)
O1ME O 0.19861(15) 1.03048(13) 0.23824(16)
O1W O 0.30139(15) 0.96952(13) 0.26176(16)
O1MD O 0.30139(15) 1.03048(13) 0.26176(16)
O1PD O 0.23824(15) 1.03048(13) 0.30139(16)
O1UB O 0.23824(15) 0.96952(13) 0.30139(16)
O1AC O 0.46952(15) 0.80139(13) 0.23824(16)
O1KC O 0.30139(15) 0.76176(13) 0.03048(16)
O1C O 0.46952(15) 0.76176(13) 0.30139(16)
O1RA O 0.26176(15) 0.80139(13) 0.46952(16)
O1EF O 0.19861(15) 1.23824(13) 0.46952(16)
O1UE O 0.03048(15) 1.19861(13) 0.26176(16)
O1SD O 0.03048(15) 1.23824(13) 0.19861(16)
O1LD O 0.23824(15) 1.19861(13) 0.03048(16)
O2OE O 0.23869(16) 1.03390(14) 0.16067(17)
O2W O 0.33933(16) 0.96610(14) 0.23869(17)
O2MD O 0.33933(16) 1.03390(14) 0.23869(17)
O2SA O 0.16067(16) 0.96610(14) 0.26131(17)
O2ME O 0.16067(16) 1.03390(14) 0.26131(17)
O2PD O 0.26131(16) 1.03390(14) 0.33933(17)
O2UB O 0.26131(16) 0.96610(14) 0.33933(17)
O2AC O 0.46610(16) 0.83933(14) 0.26131(17)
O2KC O 0.33933(16) 0.73869(14) 0.03390(17)
O2C O 0.46610(16) 0.73869(14) 0.33933(17)
O2RA O 0.23869(16) 0.83933(14) 0.46610(17)
O2EF O 0.16067(16) 1.26131(14) 0.46610(17)
O2UE O 0.03390(16) 1.16067(14) 0.23869(17)
O2SD O 0.03390(16) 1.26131(14) 0.16067(17)
O2LD O 0.26131(16) 1.16067(14) 0.03390(17)
C1W C 0.3242(2) 0.95860(18) 0.2577(3)
C1PD C 0.2423(2) 1.04140(18) 0.3242(3)
C1ME C 0.1758(2) 1.04140(18) 0.2423(3)
C1AC C 0.4586(2) 0.82420(18) 0.2423(3)
C1KC C 0.3242(2) 0.75770(18) 0.0414(3)
C1C C 0.4586(2) 0.75770(18) 0.3242(3)
C1RA C 0.2577(2) 0.82420(18) 0.4586(3)
C1EF C 0.1758(2) 1.24230(18) 0.4586(3)
C1UE C 0.0414(2) 1.17580(18) 0.2577(3)
C1SD C 0.0414(2) 1.24230(18) 0.1758(3)
C1LD C 0.2423(2) 1.17580(18) 0.0414(3)
C2W C 0.33390(18) 0.93564(17) 0.2759(2)
C2PD C 0.22410(18) 1.06436(17) 0.3339(2)
C2ME C 0.16610(18) 1.06436(17) 0.2241(2)
C2AC C 0.43564(18) 0.83390(17) 0.2241(2)
C2KC C 0.33390(18) 0.77590(17) 0.06436(20)
C2C C 0.43564(18) 0.77590(17) 0.3339(2)
C2RA C 0.27590(18) 0.83390(17) 0.43564(20)
C2EF C 0.16610(18) 1.22410(17) 0.43564(20)
C2UE C 0.06436(18) 1.16610(17) 0.2759(2)
C2SD C 0.06436(18) 1.22410(17) 0.1661(2)
C2LD C 0.22410(18) 1.16610(17) 0.06436(20)
C3W C 0.3175(2) 0.92772(18) 0.2977(2)
C3PD C 0.2023(2) 1.07228(18) 0.3175(2)
C3ME C 0.1825(2) 1.07228(18) 0.2023(2)
C3AC C 0.42772(20) 0.81750(18) 0.2023(2)
C3KC C 0.3175(2) 0.79770(18) 0.07228(20)
C3C C 0.42772(20) 0.79770(18) 0.3175(2)
C3RA C 0.2977(2) 0.81750(18) 0.42772(20)
C3EF C 0.1825(2) 1.20230(18) 0.42772(20)
C3UE C 0.07228(20) 1.18250(18) 0.2977(2)
C3SD C 0.07228(20) 1.20230(18) 0.1825(2)
C3LD C 0.2023(2) 1.18250(18) 0.07228(20)
H1W H 0.30110 0.93670 0.30130
H1PD H 0.19870 1.06330 0.30110
H1ME H 0.19890 1.06330 0.19870
H1AC H 0.43670 0.80110 0.19870
H1KC H 0.30110 0.80130 0.06330
H1C H 0.43670 0.80130 0.30110
H1RA H 0.30130 0.80110 0.43670
H1EF H 0.19890 1.19870 0.43670
H1UE H 0.06330 1.19890 0.30130
H1SD H 0.06330 1.19870 0.19890
H1LD H 0.19870 1.19890 0.06330
C4AC C 0.40565(17) 0.82620(18) 0.18565(20)
C4KC C 0.32620(17) 0.81435(18) 0.09435(20)
C4W C 0.32620(17) 0.90565(18) 0.31435(20)
C4PD C 0.18565(17) 1.09435(18) 0.3262(2)
C4ME C 0.17380(17) 1.09435(18) 0.18565(20)
C4C C 0.40565(17) 0.81435(18) 0.3262(2)
C4RA C 0.31435(17) 0.82620(18) 0.40565(20)
C4EF C 0.17380(17) 1.18565(18) 0.40565(20)
C4UE C 0.09435(17) 1.17380(18) 0.31435(20)
C4SD C 0.09435(17) 1.18565(18) 0.1738(2)
C4LD C 0.18565(17) 1.17380(18) 0.09435(20)
C5AC C 0.39183(17) 0.85046(17) 0.19131(19)
C5KC C 0.35046(17) 0.80869(17) 0.10817(19)
C5W C 0.35046(17) 0.89183(17) 0.30869(19)
C5PD C 0.19131(17) 1.10817(17) 0.35046(19)
C5ME C 0.14954(17) 1.10817(17) 0.19131(19)
C5RA C 0.30869(17) 0.85046(17) 0.39183(19)
C5UE C 0.10817(17) 1.14954(17) 0.30869(19)
C5LD C 0.19131(17) 1.14954(17) 0.10817(19)
C5C C 0.39183(17) 0.80869(17) 0.35046(19)
C5EF C 0.14954(17) 1.19131(17) 0.39183(19)
C5SD C 0.10817(17) 1.19131(17) 0.14954(19)
C6AC C 0.40074(19) 0.86620(19) 0.2133(2)
C6KC C 0.36620(19) 0.78670(19) 0.09926(20)
C6W C 0.36620(19) 0.90074(19) 0.2867(2)
C6PD C 0.21330(19) 1.09926(19) 0.3662(2)
C6ME C 0.13380(19) 1.09926(19) 0.2133(2)
C6RA C 0.28670(19) 0.86620(19) 0.40074(20)
C6UE C 0.09926(19) 1.13380(19) 0.2867(2)
C6LD C 0.21330(19) 1.13380(19) 0.09926(20)
C6C C 0.40074(19) 0.78670(19) 0.3662(2)
C6EF C 0.13380(19) 1.21330(19) 0.40074(20)
C6SD C 0.09926(19) 1.21330(19) 0.1338(2)
H2AC H 0.39170 0.88250 0.21750
H2KC H 0.38250 0.78250 0.10830
H2W H 0.38250 0.89170 0.28250
H2PD H 0.21750 1.10830 0.38250
H2ME H 0.11750 1.10830 0.21750
H2RA H 0.28250 0.88250 0.39170
H2UE H 0.10830 1.11750 0.28250
H2LD H 0.21750 1.11750 0.10830
H2C H 0.39170 0.78250 0.38250
H2EF H 0.11750 1.21750 0.39170
H2SD H 0.10830 1.21750 0.11750
C7W C 0.35830(18) 0.92257(19) 0.27112(20)
C7PD C 0.22888(18) 1.07743(19) 0.3583(2)
C7ME C 0.14170(18) 1.07743(19) 0.22888(20)
C7AC C 0.42257(18) 0.85830(19) 0.22888(20)
C7KC C 0.35830(18) 0.77112(19) 0.07743(20)
C7RA C 0.27112(18) 0.85830(19) 0.42257(20)
C7UE C 0.07743(18) 1.14170(19) 0.27112(20)
C7LD C 0.22888(18) 1.14170(19) 0.07743(20)
C7C C 0.42257(18) 0.77112(19) 0.3583(2)
C7EF C 0.14170(18) 1.22888(19) 0.42257(20)
C7SD C 0.07743(18) 1.22888(19) 0.1417(2)
H3W H 0.36960 0.92870 0.25710
H3PD H 0.24290 1.07130 0.36960
H3ME H 0.13040 1.07130 0.24290
H3AC H 0.42870 0.86960 0.24290
H3KC H 0.36960 0.75710 0.07130
H3RA H 0.25710 0.86960 0.42870
H3UE H 0.07130 1.13040 0.25710
H3LD H 0.24290 1.13040 0.07130
H3C H 0.42870 0.75710 0.36960
H3EF H 0.13040 1.24290 0.42870
H3SD H 0.07130 1.24290 0.13040
C8KC C 0.3128(2) 0.8400(2) 0.1047(2)
C8AC C 0.3953(2) 0.8128(2) 0.1600(2)
C8W C 0.3128(2) 0.8953(2) 0.3400(2)
C8PD C 0.1600(2) 1.1047(2) 0.3128(2)
C8ME C 0.1872(2) 1.1047(2) 0.1600(2)
C8C C 0.3953(2) 0.8400(2) 0.3128(2)
C8EF C 0.1872(2) 1.1600(2) 0.3953(2)
C8SD C 0.1047(2) 1.1600(2) 0.1872(2)
C8RA C 0.3400(2) 0.8128(2) 0.3953(2)
C8UE C 0.1047(2) 1.1872(2) 0.3400(2)
C8LD C 0.1600(2) 1.1872(2) 0.1047(2)
C9KC C 0.33156(18) 0.84777(17) 0.12799(18)
C9AC C 0.37201(18) 0.83156(17) 0.15223(18)
C9W C 0.33156(18) 0.87201(17) 0.34777(18)
C9PD C 0.15223(18) 1.12799(17) 0.33156(18)
C9ME C 0.16844(18) 1.12799(17) 0.15223(18)
C9C C 0.37201(18) 0.84777(17) 0.33156(18)
C9EF C 0.16844(18) 1.15223(17) 0.37201(18)
C9SD C 0.12799(18) 1.15223(17) 0.16844(18)
C9RA C 0.34777(18) 0.83156(17) 0.37201(18)
C9UE C 0.12799(18) 1.16844(17) 0.34777(18)
C9LD C 0.15223(18) 1.16844(17) 0.12799(18)
C10AC C 0.36934(17) 0.85343(17) 0.17095(17)
C10KC C 0.35343(17) 0.82905(17) 0.13066(17)
C10W C 0.35343(17) 0.86934(17) 0.32905(17)
C10PD C 0.17095(17) 1.13066(17) 0.35343(17)
C10ME C 0.14657(17) 1.13066(17) 0.17095(17)
C10RA C 0.32905(17) 0.85343(17) 0.36934(17)
C10UE C 0.13066(17) 1.14657(17) 0.32905(17)
C10LD C 0.17095(17) 1.14657(17) 0.13066(17)
C10C C 0.36934(17) 0.82905(17) 0.35343(17)
C10EF C 0.14657(17) 1.17095(17) 0.36934(17)
C10SD C 0.13066(17) 1.17095(17) 0.14657(17)
C11KC C 0.3133(3) 0.8618(3) 0.0806(3)
C11AC C 0.4194(3) 0.8133(3) 0.1382(3)
C11W C 0.3133(3) 0.9194(3) 0.3618(3)
C11PD C 0.1382(3) 1.0806(3) 0.3133(3)
C11ME C 0.1867(3) 1.0806(3) 0.1382(3)
C11C C 0.4194(3) 0.8618(3) 0.3133(3)
C11EF C 0.1867(3) 1.1382(3) 0.4194(3)
C11SD C 0.0806(3) 1.1382(3) 0.1867(3)
C11RA C 0.3618(3) 0.8133(3) 0.4194(3)
C11UE C 0.0806(3) 1.1867(3) 0.3618(3)
C11LD C 0.1382(3) 1.1867(3) 0.0806(3)
H4KC H 0.30270 0.85480 0.06530
H4AC H 0.43470 0.80270 0.14520
H4W H 0.30270 0.93470 0.35480
H4PD H 0.14520 1.06530 0.30270
H4ME H 0.19730 1.06530 0.14520
H4C H 0.43470 0.85480 0.30270
H4EF H 0.19730 1.14520 0.43470
H4SD H 0.06530 1.14520 0.19730
H4RA H 0.35480 0.80270 0.43470
H4UE H 0.06530 1.19730 0.35480
H4LD H 0.14520 1.19730 0.06530
H5KC H 0.30450 0.87850 0.08690
H5AC H 0.41310 0.80450 0.12150
H5W H 0.30450 0.91310 0.37850
H5PD H 0.12150 1.08690 0.30450
H5ME H 0.19550 1.08690 0.12150
H5C H 0.41310 0.87850 0.30450
H5EF H 0.19550 1.12150 0.41310
H5SD H 0.08690 1.12150 0.19550
H5RA H 0.37850 0.80450 0.41310
H5UE H 0.08690 1.19550 0.37850
H5LD H 0.12150 1.19550 0.08690
C12KC C 0.3424(3) 0.8691(3) 0.0701(4)
C12AC C 0.4299(3) 0.8424(3) 0.1309(4)
C12W C 0.3424(3) 0.9299(3) 0.3691(4)
C12PD C 0.1309(3) 1.0701(3) 0.3424(4)
C12ME C 0.1576(3) 1.0701(3) 0.1309(4)
C12C C 0.4299(3) 0.8691(3) 0.3424(4)
C12EF C 0.1576(3) 1.1309(3) 0.4299(4)
C12SD C 0.0701(3) 1.1309(3) 0.1576(4)
C12RA C 0.3691(3) 0.8424(3) 0.4299(4)
C12UE C 0.0701(3) 1.1576(3) 0.3691(4)
C12LD C 0.1309(3) 1.1576(3) 0.0701(4)
H6KC H 0.35400 0.87340 0.08540
H6AC H 0.41460 0.85400 0.12660
H6W H 0.35400 0.91460 0.37340
H6PD H 0.12660 1.08540 0.35400
H6ME H 0.14600 1.08540 0.12660
H6C H 0.41460 0.87340 0.35400
H6EF H 0.14600 1.12660 0.41460
H6SD H 0.08540 1.12660 0.14600
H6RA H 0.37340 0.85400 0.41460
H6UE H 0.08540 1.14600 0.37340
H6LD H 0.12660 1.14600 0.08540
H7KC H 0.34130 0.88470 0.05810
H7AC H 0.44190 0.84130 0.11530
H7W H 0.34130 0.94190 0.38470
H7PD H 0.11530 1.05810 0.34130
H7ME H 0.15870 1.05810 0.11530
H7C H 0.44190 0.88470 0.34130
H7EF H 0.15870 1.11530 0.44190
H7SD H 0.05810 1.11530 0.15870
H7RA H 0.38470 0.84130 0.44190
H7UE H 0.05810 1.15870 0.38470
H7LD H 0.11530 1.15870 0.05810
H8KC H 0.34990 0.85380 0.06030
H8AC H 0.43970 0.84990 0.14620
H8W H 0.34990 0.93970 0.35380
H8PD H 0.14620 1.06030 0.34990
H8ME H 0.15010 1.06030 0.14620
H8C H 0.43970 0.85380 0.34990
H8EF H 0.15010 1.14620 0.43970
H8SD H 0.06030 1.14620 0.15010
H8RA H 0.35380 0.84990 0.43970
H8UE H 0.06030 1.15010 0.35380
H8LD H 0.14620 1.15010 0.06030
C13KC C 0.2833(3) 0.8325(3) 0.1151(3)
C13AC C 0.3849(3) 0.7833(3) 0.1675(3)
C13W C 0.2833(3) 0.8849(3) 0.3325(3)
C13PD C 0.1675(3) 1.1151(3) 0.2833(3)
C13ME C 0.2167(3) 1.1151(3) 0.1675(3)
C13C C 0.3849(3) 0.8325(3) 0.2833(3)
C13EF C 0.2167(3) 1.1675(3) 0.3849(3)
C13SD C 0.1151(3) 1.1675(3) 0.2167(3)
C13RA C 0.3325(3) 0.7833(3) 0.3849(3)
C13UE C 0.1151(3) 1.2167(3) 0.3325(3)
C13LD C 0.1675(3) 1.2167(3) 0.1151(3)
H9KC H 0.27440 0.84920 0.12140
H9AC H 0.37860 0.77440 0.15080
H9W H 0.27440 0.87860 0.34920
H9PD H 0.15080 1.12140 0.27440
H9ME H 0.22560 1.12140 0.15080
H9C H 0.37860 0.84920 0.27440
H9EF H 0.22560 1.15080 0.37860
H9SD H 0.12140 1.15080 0.22560
H9RA H 0.34920 0.77440 0.37860
H9UE H 0.12140 1.22560 0.34920
H9LD H 0.15080 1.22560 0.12140
H10KC H 0.27270 0.82560 0.09980
H10AC H 0.40020 0.77270 0.17440
H10W H 0.27270 0.90020 0.32560
H10PD H 0.17440 1.09980 0.27270
H10ME H 0.22730 1.09980 0.17440
H10C H 0.40020 0.82560 0.27270
H10EF H 0.22730 1.17440 0.40020
H10SD H 0.09980 1.17440 0.22730
H10RA H 0.32560 0.77270 0.40020
H10UE H 0.09980 1.22730 0.32560
H10LD H 0.17440 1.22730 0.09980
C14KC C 0.2820(3) 0.8115(3) 0.1382(3)
C14AC C 0.3618(3) 0.7820(3) 0.1885(3)
C14W C 0.2820(3) 0.8618(3) 0.3115(3)
C14PD C 0.1885(3) 1.1382(3) 0.2820(3)
C14ME C 0.2180(3) 1.1382(3) 0.1885(3)
C14C C 0.3618(3) 0.8115(3) 0.2820(3)
C14EF C 0.2180(3) 1.1885(3) 0.3618(3)
C14SD C 0.1382(3) 1.1885(3) 0.2180(3)
C14RA C 0.3115(3) 0.7820(3) 0.3618(3)
C14UE C 0.1382(3) 1.2180(3) 0.3115(3)
C14LD C 0.1885(3) 1.2180(3) 0.1382(3)
H11KC H 0.28990 0.79460 0.13210
H11AC H 0.36790 0.78990 0.20540
H11W H 0.28990 0.86790 0.29460
H11PD H 0.20540 1.13210 0.28990
H11ME H 0.21010 1.13210 0.20540
H11C H 0.36790 0.79460 0.28990
H11EF H 0.21010 1.20540 0.36790
H11SD H 0.13210 1.20540 0.21010
H11RA H 0.29460 0.78990 0.36790
H11UE H 0.13210 1.21010 0.29460
H11LD H 0.20540 1.21010 0.13210
H12KC H 0.26320 0.80850 0.14330
H12AC H 0.35670 0.76320 0.19150
H12W H 0.26320 0.85670 0.30850
H12PD H 0.19150 1.14330 0.26320
H12ME H 0.23680 1.14330 0.19150
H12C H 0.35670 0.80850 0.26320
H12EF H 0.23680 1.19150 0.35670
H12SD H 0.14330 1.19150 0.23680
H12RA H 0.30850 0.76320 0.35670
H12UE H 0.14330 1.23680 0.30850
H12LD H 0.19150 1.23680 0.14330
H13KC H 0.29200 0.81820 0.15370
H13AC H 0.34630 0.79200 0.18180
H13W H 0.29200 0.84630 0.31820
H13PD H 0.18180 1.15370 0.29200
H13ME H 0.20800 1.15370 0.18180
H13C H 0.34630 0.81820 0.29200
H13EF H 0.20800 1.18180 0.34630
H13SD H 0.15370 1.18180 0.20800
H13RA H 0.31820 0.79200 0.34630
H13UE H 0.15370 1.20800 0.31820
H13LD H 0.18180 1.20800 0.15370
#END
