
#######################################################################
#
#                 Cambridge Crystallographic Data Centre
#                                CCDC
#
#######################################################################
#
# If this CIF has been generated from an entry in the Cambridge
# Structural Database, then it will include bibliographic, chemical,
# crystal, experimental, refinement or atomic coordinate data resulting
# from the CCDC's data processing and validation procedures.
#
#######################################################################

data_CSD_CIF_BOXFEA
_audit_creation_date 2009-12-08
_audit_creation_method CSD-ConQuest-V1
_database_code_CSD BOXFEA
_database_code_depnum_ccdc_archive 'CCDC 733313'
_chemical_formula_sum 'C336 H360 O73 Pb13'
_chemical_formula_moiety
;
(Pb1 2+)n,4n(H3 O1 1+),n(C336 H336 O63 Pb12 6-),6n(H2 O1)
;
_journal_coden_Cambridge 4
_journal_volume 131
_journal_year 2009
_journal_page_first 3814
_journal_name_full 'J.Am.Chem.Soc. '
loop_
_publ_author_name
"S.Das"
"Hyunuk Kim"
"K.Kim"
_chemical_name_systematic
;
catena-(Lead(ii) tetrakis(oxonium) 
octakis(\m~6~-5,5,10,10,15,15-hexaethyl-10,15-dihydro-5H-diindeno[1,2-a:1',2'-
c]fluorene-2,7,12-tricarboxylato)-tris(\m~4~-oxo)-dodecaaqua-dodeca-lead(ii) 
hexahydrate)
;
_chemical_name_common
;
catena-(Lead(ii) tetrakis(oxonium) 
octakis(mu!6$-5,5,10,10,15,15-hexaethyltruxene-2,7,12-tricarboxylato)-tris(mu!
4$-oxo)-dodecaaqua-dodeca-lead(ii) hexahydrate)
;
_cell_volume 116571.854
_exptl_crystal_colour 'colorless'
_exptl_special_details
;
Large structure in which program limits have been exceeded. A partial diagram 
showing the coordination of the ligands and the coordination of the Pb atoms 
has been input; The charge balancing Pb cations and oxonium cations could not 
be located; The total number of uncoordinated water molecules is unclear
;
_exptl_crystal_description 'block'
_diffrn_ambient_temperature 90
_diffrn_radiation_probe x-ray
_diffrn_source synchrotron
_refine_special_details
;
An uncoordinated water molecule is disordered by symmetry.

;
#These two values have been output from a single CSD field.
_refine_ls_R_factor_gt 0.0612
_refine_ls_wR_factor_gt 0.0612
_symmetry_cell_setting cubic
_symmetry_space_group_name_H-M 'F m -3 c'
_symmetry_Int_Tables_number 226
loop_
_symmetry_equiv_pos_site_id
_symmetry_equiv_pos_as_xyz
1 x,y,z
2 z,x,y
3 y,z,x
4 1/2+y,1/2+x,1/2-z
5 1/2+y,1/2-x,1/2+z
6 1/2-y,1/2+x,1/2+z
7 1/2+x,1/2+z,1/2-y
8 1/2-x,1/2+z,1/2+y
9 1/2+x,1/2-z,1/2+y
10 1/2+z,1/2+y,1/2-x
11 1/2+z,1/2-y,1/2+x
12 1/2-z,1/2+y,1/2+x
13 x,1/2+y,1/2+z
14 z,1/2+x,1/2+y
15 y,1/2+z,1/2+x
16 1/2+y,x,-z
17 1/2+y,-x,z
18 1/2-y,x,z
19 1/2+x,z,-y
20 1/2-x,z,y
21 1/2+x,-z,y
22 1/2+z,y,-x
23 1/2+z,-y,x
24 1/2-z,y,x
25 1/2+x,y,1/2+z
26 1/2+z,x,1/2+y
27 1/2+y,z,1/2+x
28 y,1/2+x,-z
29 y,1/2-x,z
30 -y,1/2+x,z
31 x,1/2+z,-y
32 -x,1/2+z,y
33 x,1/2-z,y
34 z,1/2+y,-x
35 z,1/2-y,x
36 -z,1/2+y,x
37 1/2+x,1/2+y,z
38 1/2+z,1/2+x,y
39 1/2+y,1/2+z,x
40 y,x,1/2-z
41 y,-x,1/2+z
42 -y,x,1/2+z
43 x,z,1/2-y
44 -x,z,1/2+y
45 x,-z,1/2+y
46 z,y,1/2-x
47 z,-y,1/2+x
48 -z,y,1/2+x
49 -x,-y,z
50 -x,y,-z
51 x,-y,-z
52 z,-x,-y
53 -z,-x,y
54 -z,x,-y
55 -y,z,-x
56 y,-z,-x
57 -y,-z,x
58 1/2-y,1/2-x,1/2-z
59 1/2-x,1/2-z,1/2-y
60 1/2-z,1/2-y,1/2-x
61 -x,1/2-y,1/2+z
62 -x,1/2+y,1/2-z
63 x,1/2-y,1/2-z
64 z,1/2-x,1/2-y
65 -z,1/2-x,1/2+y
66 -z,1/2+x,1/2-y
67 -y,1/2+z,1/2-x
68 y,1/2-z,1/2-x
69 -y,1/2-z,1/2+x
70 1/2-y,-x,-z
71 1/2-x,-z,-y
72 1/2-z,-y,-x
73 1/2-x,-y,1/2+z
74 1/2-x,y,1/2-z
75 1/2+x,-y,1/2-z
76 1/2+z,-x,1/2-y
77 1/2-z,-x,1/2+y
78 1/2-z,x,1/2-y
79 1/2-y,z,1/2-x
80 1/2+y,-z,1/2-x
81 1/2-y,-z,1/2+x
82 -y,1/2-x,-z
83 -x,1/2-z,-y
84 -z,1/2-y,-x
85 1/2-x,1/2-y,z
86 1/2-x,1/2+y,-z
87 1/2+x,1/2-y,-z
88 1/2+z,1/2-x,-y
89 1/2-z,1/2-x,y
90 1/2-z,1/2+x,-y
91 1/2-y,1/2+z,-x
92 1/2+y,1/2-z,-x
93 1/2-y,1/2-z,x
94 -y,-x,1/2-z
95 -x,-z,1/2-y
96 -z,-y,1/2-x
97 -x,-y,-z
98 -z,-x,-y
99 -y,-z,-x
100 -1/2-y,-1/2-x,-1/2+z
101 -1/2-y,-1/2+x,-1/2-z
102 -1/2+y,-1/2-x,-1/2-z
103 -1/2-x,-1/2-z,-1/2+y
104 -1/2+x,-1/2-z,-1/2-y
105 -1/2-x,-1/2+z,-1/2-y
106 -1/2-z,-1/2-y,-1/2+x
107 -1/2-z,-1/2+y,-1/2-x
108 -1/2+z,-1/2-y,-1/2-x
109 -x,-1/2-y,-1/2-z
110 -z,-1/2-x,-1/2-y
111 -y,-1/2-z,-1/2-x
112 -1/2-y,-x,z
113 -1/2-y,x,-z
114 -1/2+y,-x,-z
115 -1/2-x,-z,y
116 -1/2+x,-z,-y
117 -1/2-x,z,-y
118 -1/2-z,-y,x
119 -1/2-z,y,-x
120 -1/2+z,-y,-x
121 -1/2-x,-y,-1/2-z
122 -1/2-z,-x,-1/2-y
123 -1/2-y,-z,-1/2-x
124 -y,-1/2-x,z
125 -y,-1/2+x,-z
126 y,-1/2-x,-z
127 -x,-1/2-z,y
128 x,-1/2-z,-y
129 -x,-1/2+z,-y
130 -z,-1/2-y,x
131 -z,-1/2+y,-x
132 z,-1/2-y,-x
133 -1/2-x,-1/2-y,-z
134 -1/2-z,-1/2-x,-y
135 -1/2-y,-1/2-z,-x
136 -y,-x,-1/2+z
137 -y,x,-1/2-z
138 y,-x,-1/2-z
139 -x,-z,-1/2+y
140 x,-z,-1/2-y
141 -x,z,-1/2-y
142 -z,-y,-1/2+x
143 -z,y,-1/2-x
144 z,-y,-1/2-x
145 x,y,-z
146 x,-y,z
147 -x,y,z
148 -z,x,y
149 z,x,-y
150 z,-x,y
151 y,-z,x
152 -y,z,x
153 y,z,-x
154 -1/2+y,-1/2+x,-1/2+z
155 -1/2+x,-1/2+z,-1/2+y
156 -1/2+z,-1/2+y,-1/2+x
157 x,-1/2+y,-1/2-z
158 x,-1/2-y,-1/2+z
159 -x,-1/2+y,-1/2+z
160 -z,-1/2+x,-1/2+y
161 z,-1/2+x,-1/2-y
162 z,-1/2-x,-1/2+y
163 y,-1/2-z,-1/2+x
164 -y,-1/2+z,-1/2+x
165 y,-1/2+z,-1/2-x
166 -1/2+y,x,z
167 -1/2+x,z,y
168 -1/2+z,y,x
169 -1/2+x,y,-1/2-z
170 -1/2+x,-y,-1/2+z
171 -1/2-x,y,-1/2+z
172 -1/2-z,x,-1/2+y
173 -1/2+z,x,-1/2-y
174 -1/2+z,-x,-1/2+y
175 -1/2+y,-z,-1/2+x
176 -1/2-y,z,-1/2+x
177 -1/2+y,z,-1/2-x
178 y,-1/2+x,z
179 x,-1/2+z,y
180 z,-1/2+y,x
181 -1/2+x,-1/2+y,-z
182 -1/2+x,-1/2-y,z
183 -1/2-x,-1/2+y,z
184 -1/2-z,-1/2+x,y
185 -1/2+z,-1/2+x,-y
186 -1/2+z,-1/2-x,y
187 -1/2+y,-1/2-z,x
188 -1/2-y,-1/2+z,x
189 -1/2+y,-1/2+z,-x
190 y,x,-1/2+z
191 x,z,-1/2+y
192 z,y,-1/2+x
_cell_length_a 48.850(6)
_cell_length_b 48.850(6)
_cell_length_c 48.850(6)
_cell_angle_alpha 90
_cell_angle_beta 90
_cell_angle_gamma 90
_cell_formula_units_Z 8
loop_
_atom_type_symbol
_atom_type_radius_bond
C 0.63
H 0.23
O 0.88
Pb 1.81
loop_
_atom_site_label
_atom_site_type_symbol
_atom_site_fract_x
_atom_site_fract_y
_atom_site_fract_z
O1 O 0.3244(4) -0.0588(4) 0.0980(4)
O2 O 0.25000 -0.0740(4) 0.0740(4)
O3 O 0.2333(3) -0.0254(3) 0.1052(3)
O4 O 0.4312(4) -0.0553(4) 0.2069(4)
O5 O 0.4003(7) 0.00000 0.1908(7)
O6 O 0.2773(7) 0.00000 0.1146(7)
O7 O 0.4182(8) 0.00000 0.1366(8)
O8 O 0.1066(9) 0.00000 0.1281(9)
Pb1 Pb 0.220953(7) 0.00000 0.194421(9)
O9 O 0.26146(10) -0.0317(1) 0.19912(11)
O10 O 0.23934(9) -0.03289(8) 0.16079(10)
O11 O 0.25000 0.00000 0.25000
O12 O 0.18213(19) 0.00000 0.1579(3)
C1 C 0.25829(11) -0.0412(1) 0.17535(13)
C2 C 0.27646(10) -0.06377(10) 0.16607(12)
C3 C 0.29882(11) -0.07185(10) 0.18166(13)
H1 H 0.30290 -0.06280 0.19840
C4 C 0.31524(11) -0.09318(10) 0.17260(12)
C5 C 0.30922(10) -0.10744(10) 0.14864(11)
C6 C 0.28691(11) -0.09892(11) 0.13287(12)
H2 H 0.28260 -0.10810 0.11630
C7 C 0.27112(11) -0.07712(11) 0.14151(12)
H3 H 0.25630 -0.07110 0.13040
C8 C 0.34071(12) -0.10358(12) 0.18660(12)
C9 C 0.34900(11) -0.12693(10) 0.16740(11)
C10 C 0.32994(11) -0.12969(11) 0.14563(11)
C11 C 0.33322(14) -0.11386(13) 0.21558(13)
H4 H 0.35020 -0.11990 0.22480
H5 H 0.32570 -0.09830 0.22620
C12 C 0.31257(19) -0.13729(19) 0.21636(16)
H6 H 0.29700 -0.13290 0.20450
H7 H 0.30610 -0.13990 0.23520
H8 H 0.32130 -0.15410 0.20990
C13 C 0.36188(13) -0.08002(12) 0.18718(15)
H9 H 0.35460 -0.06500 0.19870
H10 H 0.37890 -0.08680 0.19590
C14 C 0.36886(19) -0.0686(2) 0.1595(2)
H11 H 0.37770 -0.08290 0.14850
H12 H 0.38130 -0.05310 0.16160
H13 H 0.35210 -0.06260 0.15040
O13? O 0.1271(4) 0.0141(4) 0.1736(4)
Pb1W Pb 0.305579(7) 0.00000 0.220953(9)
Pb1SA Pb 0.194421(7) 0.00000 0.279047(9)
Pb1PD Pb 0.279047(7) 0.00000 0.305579(9)
Pb1RD Pb 0.500000(7) -0.19442 0.279047(9)
Pb1P Pb 0.500000(7) -0.22095 0.194421(9)
Pb1AG Pb 0.305579(7) -0.27905 0.000000(9)
Pb1JD Pb 0.279047(7) -0.19442 0.000000(9)
Pb1C Pb 0.500000(7) -0.27905 0.305579(9)
Pb1RA Pb 0.220953(7) -0.19442 0.500000(9)
Pb1QD Pb 0.305579(7) -0.22095 0.500000(9)
Pb1BA Pb 0.000000(7) 0.27905 0.194421(9)
Pb1B Pb 0.000000(7) 0.19442 0.220953(9)
Pb1S Pb 0.279047(7) 0.19442 0.000000(9)
Pb1A Pb 0.194421(7) 0.22095 0.000000(9)
Pb1M Pb 0.194421(7) -0.27905 0.500000(9)
Pb1TE Pb 0.000000(7) -0.19442 0.220953(9)
Pb1GE Pb 0.000000(7) -0.22095 0.305579(9)
O9SA O 0.19912(10) -0.0317(1) 0.23854(11)
O9OE O 0.26146(10) 0.0317(1) 0.19912(11)
O9ME O 0.19912(10) 0.0317(1) 0.23854(11)
O9PD O 0.23854(10) 0.0317(1) 0.30088(11)
O9UB O 0.23854(10) -0.0317(1) 0.30088(11)
O9W O 0.30088(10) -0.0317(1) 0.26146(11)
O9MD O 0.30088(10) 0.0317(1) 0.26146(11)
O9AC O 0.4683(1) -0.19912(10) 0.23854(11)
O9KC O 0.30088(10) -0.23854(10) 0.03170(11)
O9C O 0.4683(1) -0.23854(10) 0.30088(11)
O9RA O 0.26146(10) -0.19912(10) 0.46830(11)
O9SD O 0.0317(1) 0.23854(10) 0.19912(11)
O9LD O 0.23854(10) 0.19912(10) 0.03170(11)
O9M O 0.19912(10) -0.23854(10) 0.46830(11)
O9DB O 0.0317(1) -0.19912(10) 0.26146(11)
O10OE O 0.23934(9) 0.03289(8) 0.16079(10)
O10SA O 0.16079(9) -0.03289(8) 0.26066(10)
O10ME O 0.16079(9) 0.03289(8) 0.26066(10)
O10PD O 0.26066(9) 0.03289(8) 0.33921(10)
O10UB O 0.26066(9) -0.03289(8) 0.33921(10)
O10W O 0.33921(9) -0.03289(8) 0.23934(10)
O10MD O 0.33921(9) 0.03289(8) 0.23934(10)
O10AC O 0.46711(9) -0.16079(8) 0.26066(10)
O10KC O 0.33921(9) -0.26066(8) 0.03289(10)
O10C O 0.46711(9) -0.26066(8) 0.33921(10)
O10RA O 0.23934(9) -0.16079(8) 0.46711(10)
O10SD O 0.03289(9) 0.26066(8) 0.16079(10)
O10LD O 0.26066(9) 0.16079(8) 0.03289(10)
O10M O 0.16079(9) -0.26066(8) 0.46711(10)
O10DB O 0.03289(9) -0.16079(8) 0.23934(10)
O12SA O 0.15790(19) 0.00000 0.31787(30)
O12PD O 0.31787(19) 0.00000 0.3421(3)
O12W O 0.34210(19) 0.00000 0.18213(30)
C1AC C 0.45880(11) -0.17535(10) 0.24171(13)
C1KC C 0.32465(11) -0.24171(10) 0.04120(13)
C1W C 0.32465(11) -0.0412(1) 0.25829(13)
C1C C 0.45880(11) -0.24171(10) 0.32465(13)
C1RA C 0.25829(11) -0.17535(10) 0.45880(13)
C1ME C 0.17535(11) 0.0412(1) 0.24171(13)
C1SD C 0.04120(11) 0.24171(10) 0.17535(13)
C1LD C 0.24171(11) 0.17535(10) 0.04120(13)
C1UB C 0.24171(11) -0.0412(1) 0.32465(13)
C1M C 0.17535(11) -0.24171(10) 0.45880(13)
C1DB C 0.04120(11) -0.17535(10) 0.25829(13)
C2AC C 0.43623(10) -0.16607(10) 0.22354(12)
C2KC C 0.33393(10) -0.22354(10) 0.06377(12)
C2W C 0.33393(10) -0.06377(10) 0.27646(12)
C2C C 0.43623(10) -0.22354(10) 0.33393(12)
C2RA C 0.27646(10) -0.16607(10) 0.43623(12)
C2ME C 0.16607(10) 0.06377(10) 0.22354(12)
C2SD C 0.06377(10) 0.22354(10) 0.16607(12)
C2LD C 0.22354(10) 0.16607(10) 0.06377(12)
C2UB C 0.22354(10) -0.06377(10) 0.33393(12)
C2M C 0.16607(10) -0.22354(10) 0.43623(12)
C2DB C 0.06377(10) -0.16607(10) 0.27646(12)
C3AC C 0.42815(11) -0.18166(10) 0.20118(13)
C3KC C 0.31834(11) -0.20118(10) 0.07185(13)
C3W C 0.31834(11) -0.07185(10) 0.29882(13)
C3C C 0.42815(11) -0.20118(10) 0.31834(13)
C3RA C 0.29882(11) -0.18166(10) 0.42815(13)
C3ME C 0.18166(11) 0.07185(10) 0.20118(13)
C3SD C 0.07185(11) 0.20118(10) 0.18166(13)
C3LD C 0.20118(11) 0.18166(10) 0.07185(13)
C3UB C 0.20118(11) -0.07185(10) 0.31834(13)
C3M C 0.18166(11) -0.20118(10) 0.42815(13)
C3DB C 0.07185(11) -0.18166(10) 0.29882(13)
H1AC H 0.43720 -0.19840 0.19710
H1KC H 0.30160 -0.19710 0.06280
H1W H 0.30160 -0.06280 0.30290
H1C H 0.43720 -0.19710 0.30160
H1RA H 0.30290 -0.19840 0.43720
H1ME H 0.19840 0.06280 0.19710
H1SD H 0.06280 0.19710 0.19840
H1LD H 0.19710 0.19840 0.06280
H1UB H 0.19710 -0.06280 0.30160
H1M H 0.19840 -0.19710 0.43720
H1DB H 0.06280 -0.19840 0.30290
C4AC C 0.40682(11) -0.1726(1) 0.18476(12)
C4KC C 0.32740(11) -0.18476(10) 0.09318(12)
C4W C 0.32740(11) -0.09318(10) 0.31524(12)
C4C C 0.40682(11) -0.18476(10) 0.32740(12)
C4RA C 0.31524(11) -0.1726(1) 0.40682(12)
C4ME C 0.17260(11) 0.09318(10) 0.18476(12)
C4SD C 0.09318(11) 0.18476(10) 0.17260(12)
C4LD C 0.18476(11) 0.1726(1) 0.09318(12)
C4UB C 0.18476(11) -0.09318(10) 0.32740(12)
C4M C 0.17260(11) -0.18476(10) 0.40682(12)
C4DB C 0.09318(11) -0.1726(1) 0.31524(12)
C5AC C 0.39256(10) -0.14864(10) 0.19078(11)
C5KC C 0.35136(10) -0.19078(10) 0.10744(11)
C5W C 0.35136(10) -0.10744(10) 0.30922(11)
C5RA C 0.30922(10) -0.14864(10) 0.39256(11)
C5C C 0.39256(10) -0.19078(10) 0.35136(11)
C5ME C 0.14864(10) 0.10744(10) 0.19078(11)
C5LD C 0.19078(10) 0.14864(10) 0.10744(11)
C5SD C 0.10744(10) 0.19078(10) 0.14864(11)
C5UB C 0.19078(10) -0.10744(10) 0.35136(11)
C5DB C 0.10744(10) -0.14864(10) 0.30922(11)
C5M C 0.14864(10) -0.19078(10) 0.39256(11)
C6AC C 0.40108(11) -0.13287(11) 0.21309(12)
C6KC C 0.36713(11) -0.21309(11) 0.09892(12)
C6W C 0.36713(11) -0.09892(11) 0.28691(12)
C6RA C 0.28691(11) -0.13287(11) 0.40108(12)
C6C C 0.40108(11) -0.21309(11) 0.36713(12)
C6ME C 0.13287(11) 0.09892(11) 0.21309(12)
C6LD C 0.21309(11) 0.13287(11) 0.09892(12)
C6SD C 0.09892(11) 0.21309(11) 0.13287(12)
C6UB C 0.21309(11) -0.09892(11) 0.36713(12)
C6DB C 0.09892(11) -0.13287(11) 0.28691(12)
C6M C 0.13287(11) -0.21309(11) 0.40108(12)
H2AC H 0.39190 -0.11630 0.21740
H2KC H 0.38370 -0.21740 0.10810
H2W H 0.38370 -0.10810 0.28260
H2RA H 0.28260 -0.11630 0.39190
H2C H 0.39190 -0.21740 0.38370
H2ME H 0.11630 0.10810 0.21740
H2LD H 0.21740 0.11630 0.10810
H2SD H 0.10810 0.21740 0.11630
H2UB H 0.21740 -0.10810 0.38370
H2DB H 0.10810 -0.11630 0.28260
H2M H 0.11630 -0.21740 0.39190
C7AC C 0.42288(11) -0.14151(11) 0.22888(12)
C7KC C 0.35849(11) -0.22888(11) 0.07712(12)
C7W C 0.35849(11) -0.07712(11) 0.27112(12)
C7RA C 0.27112(11) -0.14151(11) 0.42288(12)
C7C C 0.42288(11) -0.22888(11) 0.35849(12)
C7ME C 0.14151(11) 0.07712(11) 0.22888(12)
C7LD C 0.22888(11) 0.14151(11) 0.07712(12)
C7SD C 0.07712(11) 0.22888(11) 0.14151(12)
C7UB C 0.22888(11) -0.07712(11) 0.35849(12)
C7DB C 0.07712(11) -0.14151(11) 0.27112(12)
C7M C 0.14151(11) -0.22888(11) 0.42288(12)
H3AC H 0.42890 -0.13040 0.24370
H3KC H 0.36960 -0.24370 0.07110
H3W H 0.36960 -0.07110 0.25630
H3RA H 0.25630 -0.13040 0.42890
H3C H 0.42890 -0.24370 0.36960
H3ME H 0.13040 0.07110 0.24370
H3LD H 0.24370 0.13040 0.07110
H3SD H 0.07110 0.24370 0.13040
H3UB H 0.24370 -0.07110 0.36960
H3DB H 0.07110 -0.13040 0.25630
H3M H 0.13040 -0.24370 0.42890
C8KC C 0.31340(12) -0.15929(12) 0.10358(12)
C8AC C 0.39642(12) -0.18660(12) 0.15929(12)
C8W C 0.31340(12) -0.10358(12) 0.34071(12)
C8C C 0.39642(12) -0.15929(12) 0.31340(12)
C8RA C 0.34071(12) -0.18660(12) 0.39642(12)
C8ME C 0.18660(12) 0.10358(12) 0.15929(12)
C8SD C 0.10358(12) 0.15929(12) 0.18660(12)
C8LD C 0.15929(12) 0.18660(12) 0.10358(12)
C8UB C 0.15929(12) -0.10358(12) 0.31340(12)
C8M C 0.18660(12) -0.15929(12) 0.39642(12)
C8DB C 0.10358(12) -0.18660(12) 0.34071(12)
C9KC C 0.33260(11) -0.1510(1) 0.12693(11)
C9AC C 0.37307(11) -0.1674(1) 0.15100(11)
C9W C 0.33260(11) -0.12693(10) 0.34900(11)
C9C C 0.37307(11) -0.1510(1) 0.33260(11)
C9RA C 0.34900(11) -0.1674(1) 0.37307(11)
C9ME C 0.16740(11) 0.12693(10) 0.15100(11)
C9SD C 0.12693(11) 0.1510(1) 0.16740(11)
C9LD C 0.15100(11) 0.1674(1) 0.12693(11)
C9UB C 0.15100(11) -0.12693(10) 0.33260(11)
C9M C 0.16740(11) -0.1510(1) 0.37307(11)
C9DB C 0.12693(11) -0.1674(1) 0.34900(11)
C10AC C 0.37031(11) -0.14563(11) 0.17006(11)
C10KC C 0.35437(11) -0.17006(11) 0.12969(11)
C10W C 0.35437(11) -0.12969(11) 0.32994(11)
C10RA C 0.32994(11) -0.14563(11) 0.37031(11)
C10C C 0.37031(11) -0.17006(11) 0.35437(11)
C10ME C 0.14563(11) 0.12969(11) 0.17006(11)
C10LD C 0.17006(11) 0.14563(11) 0.12969(11)
C10SD C 0.12969(11) 0.17006(11) 0.14563(11)
C10UB C 0.17006(11) -0.12969(11) 0.35437(11)
C10DB C 0.12969(11) -0.14563(11) 0.32994(11)
C10M C 0.14563(11) -0.17006(11) 0.37031(11)
C11KC C 0.28442(14) -0.16678(13) 0.11386(13)
C11AC C 0.38614(14) -0.21558(13) 0.16678(13)
C11W C 0.28442(14) -0.11386(13) 0.33322(13)
C11C C 0.38614(14) -0.16678(13) 0.28442(13)
C11RA C 0.33322(14) -0.21558(13) 0.38614(13)
C11ME C 0.21558(14) 0.11386(13) 0.16678(13)
C11SD C 0.11386(14) 0.16678(13) 0.21558(13)
C11LD C 0.16678(14) 0.21558(13) 0.11386(13)
C11UB C 0.16678(14) -0.11386(13) 0.28442(13)
C11M C 0.21558(14) -0.16678(13) 0.38614(13)
C11DB C 0.11386(14) -0.21558(13) 0.33322(13)
H4KC H 0.27520 -0.14980 0.11990
H4AC H 0.38010 -0.22480 0.14980
H4W H 0.27520 -0.11990 0.35020
H4C H 0.38010 -0.14980 0.27520
H4RA H 0.35020 -0.22480 0.38010
H4ME H 0.22480 0.11990 0.14980
H4SD H 0.11990 0.14980 0.22480
H4LD H 0.14980 0.22480 0.11990
H4UB H 0.14980 -0.11990 0.27520
H4M H 0.22480 -0.14980 0.38010
H4DB H 0.11990 -0.22480 0.35020
H5KC H 0.27380 -0.17430 0.09830
H5AC H 0.40170 -0.22620 0.17430
H5W H 0.27380 -0.09830 0.32570
H5C H 0.40170 -0.17430 0.27380
H5RA H 0.32570 -0.22620 0.40170
H5ME H 0.22620 0.09830 0.17430
H5SD H 0.09830 0.17430 0.22620
H5LD H 0.17430 0.22620 0.09830
H5UB H 0.17430 -0.09830 0.27380
H5M H 0.22620 -0.17430 0.40170
H5DB H 0.09830 -0.22620 0.32570
C12KC C 0.28364(19) -0.18743(19) 0.13729(16)
C12AC C 0.36271(19) -0.21636(19) 0.18743(16)
C12W C 0.28364(19) -0.13729(19) 0.31257(16)
C12C C 0.36271(19) -0.18743(19) 0.28364(16)
C12RA C 0.31257(19) -0.21636(19) 0.36271(16)
C12ME C 0.21636(19) 0.13729(19) 0.18743(16)
C12SD C 0.13729(19) 0.18743(19) 0.21636(16)
C12LD C 0.18743(19) 0.21636(19) 0.13729(16)
C12UB C 0.18743(19) -0.13729(19) 0.28364(16)
C12M C 0.21636(19) -0.18743(19) 0.36271(16)
C12DB C 0.13729(19) -0.21636(19) 0.31257(16)
H6KC H 0.29550 -0.20300 0.13290
H6AC H 0.36710 -0.20450 0.20300
H6W H 0.29550 -0.13290 0.29700
H6C H 0.36710 -0.20300 0.29550
H6RA H 0.29700 -0.20450 0.36710
H6ME H 0.20450 0.13290 0.20300
H6SD H 0.13290 0.20300 0.20450
H6LD H 0.20300 0.20450 0.13290
H6UB H 0.20300 -0.13290 0.29550
H6M H 0.20450 -0.20300 0.36710
H6DB H 0.13290 -0.20450 0.29700
H7KC H 0.26480 -0.19390 0.13990
H7AC H 0.36010 -0.23520 0.19390
H7W H 0.26480 -0.13990 0.30610
H7C H 0.36010 -0.19390 0.26480
H7RA H 0.30610 -0.23520 0.36010
H7ME H 0.23520 0.13990 0.19390
H7SD H 0.13990 0.19390 0.23520
H7LD H 0.19390 0.23520 0.13990
H7UB H 0.19390 -0.13990 0.26480
H7M H 0.23520 -0.19390 0.36010
H7DB H 0.13990 -0.23520 0.30610
H8KC H 0.29010 -0.17870 0.15410
H8AC H 0.34590 -0.20990 0.17870
H8W H 0.29010 -0.15410 0.32130
H8C H 0.34590 -0.17870 0.29010
H8RA H 0.32130 -0.20990 0.34590
H8ME H 0.20990 0.15410 0.17870
H8SD H 0.15410 0.17870 0.20990
H8LD H 0.17870 0.20990 0.15410
H8UB H 0.17870 -0.15410 0.29010
H8M H 0.20990 -0.17870 0.34590
H8DB H 0.15410 -0.20990 0.32130
C13KC C 0.31282(13) -0.13812(12) 0.08002(15)
C13AC C 0.41998(13) -0.18718(12) 0.13812(15)
C13W C 0.31282(13) -0.08002(12) 0.36188(15)
C13C C 0.41998(13) -0.13812(12) 0.31282(15)
C13RA C 0.36188(13) -0.18718(12) 0.41998(15)
C13ME C 0.18718(13) 0.08002(12) 0.13812(15)
C13SD C 0.08002(13) 0.13812(12) 0.18718(15)
C13LD C 0.13812(13) 0.18718(12) 0.08002(15)
C13UB C 0.13812(13) -0.08002(12) 0.31282(15)
C13M C 0.18718(13) -0.13812(12) 0.41998(15)
C13DB C 0.08002(13) -0.18718(12) 0.36188(15)
H9KC H 0.30130 -0.14540 0.06500
H9AC H 0.43500 -0.19870 0.14540
H9W H 0.30130 -0.06500 0.35460
H9C H 0.43500 -0.14540 0.30130
H9RA H 0.35460 -0.19870 0.43500
H9ME H 0.19870 0.06500 0.14540
H9SD H 0.06500 0.14540 0.19870
H9LD H 0.14540 0.19870 0.06500
H9UB H 0.14540 -0.06500 0.30130
H9M H 0.19870 -0.14540 0.43500
H9DB H 0.06500 -0.19870 0.35460
H10KC H 0.30410 -0.12110 0.08680
H10AC H 0.41320 -0.19590 0.12110
H10W H 0.30410 -0.08680 0.37890
H10C H 0.41320 -0.12110 0.30410
H10RA H 0.37890 -0.19590 0.41320
H10ME H 0.19590 0.08680 0.12110
H10SD H 0.08680 0.12110 0.19590
H10LD H 0.12110 0.19590 0.08680
H10UB H 0.12110 -0.08680 0.30410
H10M H 0.19590 -0.12110 0.41320
H10DB H 0.08680 -0.19590 0.37890
C14KC C 0.34050(19) -0.13114(20) 0.0686(2)
C14AC C 0.43140(19) -0.1595(2) 0.13114(20)
C14W C 0.34050(19) -0.0686(2) 0.36886(20)
C14C C 0.43140(19) -0.13114(20) 0.3405(2)
C14RA C 0.36886(19) -0.1595(2) 0.4314(2)
C14ME C 0.15950(19) 0.0686(2) 0.13114(20)
C14SD C 0.06860(19) 0.13114(20) 0.1595(2)
C14LD C 0.13114(19) 0.1595(2) 0.0686(2)
C14UB C 0.13114(19) -0.0686(2) 0.3405(2)
C14M C 0.15950(19) -0.13114(20) 0.4314(2)
C14DB C 0.06860(19) -0.1595(2) 0.36886(20)
H11KC H 0.35150 -0.12230 0.08290
H11AC H 0.41710 -0.14850 0.12230
H11W H 0.35150 -0.08290 0.37770
H11C H 0.41710 -0.12230 0.35150
H11RA H 0.37770 -0.14850 0.41710
H11ME H 0.14850 0.08290 0.12230
H11SD H 0.08290 0.12230 0.14850
H11LD H 0.12230 0.14850 0.08290
H11UB H 0.12230 -0.08290 0.35150
H11M H 0.14850 -0.12230 0.41710
H11DB H 0.08290 -0.14850 0.37770
H12KC H 0.33840 -0.11870 0.05310
H12AC H 0.44690 -0.16160 0.11870
H12W H 0.33840 -0.05310 0.38130
H12C H 0.44690 -0.11870 0.33840
H12RA H 0.38130 -0.16160 0.44690
H12ME H 0.16160 0.05310 0.11870
H12SD H 0.05310 0.11870 0.16160
H12LD H 0.11870 0.16160 0.05310
H12UB H 0.11870 -0.05310 0.33840
H12M H 0.16160 -0.11870 0.44690
H12DB H 0.05310 -0.16160 0.38130
H13KC H 0.34960 -0.14790 0.06260
H13AC H 0.43740 -0.15040 0.14790
H13W H 0.34960 -0.06260 0.35210
H13C H 0.43740 -0.14790 0.34960
H13RA H 0.35210 -0.15040 0.43740
H13ME H 0.15040 0.06260 0.14790
H13SD H 0.06260 0.14790 0.15040
H13LD H 0.14790 0.15040 0.06260
H13UB H 0.14790 -0.06260 0.34960
H13M H 0.15040 -0.14790 0.43740
H13DB H 0.06260 -0.15040 0.35210
#END
