
#######################################################################
#
#                 Cambridge Crystallographic Data Centre
#                                CCDC
#
#######################################################################
#
# If this CIF has been generated from an entry in the Cambridge
# Structural Database, then it will include bibliographic, chemical,
# crystal, experimental, refinement or atomic coordinate data resulting
# from the CCDC's data processing and validation procedures.
#
#######################################################################

data_CSD_CIF_BOXYEU
_audit_creation_date 2015-03-06
_audit_creation_method CSD-ConQuest-V1
_database_code_CSD BOXYEU
_database_code_depnum_ccdc_archive 'CCDC 1046115'
_chemical_formula_sum 'C7 H12 Mn2 N1 O12 P1'
_chemical_formula_moiety
;
(C4 H2 Mn2 O12 P1 1-)n,C3 H10 N1 1+
;
_journal_coden_Cambridge 222
_journal_volume 44
_journal_year 2015
_journal_page_first 5974
_journal_name_full 'Dalton Trans. '
loop_
_publ_author_name
"Lindong Luan"
"Jing Li"
"Changzhen Yin"
"Zhien Lin"
"Hui Huang"
_chemical_name_systematic
;
catena-(propane-1-ammonium bis(\m-oxalato)-(\m-dihydrogen 
phosphato)-di-manganese)
;
_cell_volume   1500.100
_exptl_crystal_colour 'yellow'
_exptl_crystal_density_diffrn 1.962
_exptl_crystal_description 'block'
_diffrn_ambient_temperature 293
_refine_special_details
;
C6,C7 and C6',C7' disordered over two sites with occupancies 0.56:0.44.

;
#These two values have been output from a single CSD field.
_refine_ls_R_factor_gt 0.0572
_refine_ls_wR_factor_gt 0.0572
_symmetry_cell_setting orthorhombic
_symmetry_space_group_name_H-M 'P n a 21'
_symmetry_Int_Tables_number 33
loop_
_symmetry_equiv_pos_site_id
_symmetry_equiv_pos_as_xyz
1 x,y,z
2 -x,-y,1/2+z
3 1/2-x,1/2+y,1/2+z
4 1/2+x,1/2-y,z
_cell_length_a 11.6599(3)
_cell_length_b 10.9336(3)
_cell_length_c 11.7669(3)
_cell_angle_alpha 90
_cell_angle_beta 90
_cell_angle_gamma 90
_cell_formula_units_Z 4
loop_
_atom_type_symbol
_atom_type_radius_bond
C 0.68
H 0.23
Mn 1.61
N 0.68
O 0.68
P 1.05
loop_
_atom_site_label
_atom_site_type_symbol
_atom_site_fract_x
_atom_site_fract_y
_atom_site_fract_z
Mn1 Mn 0.28234(8) 0.27214(8) 0.31355(8)
Mn2 Mn 0.31784(9) 0.74035(8) 0.0983(1)
P1 P 0.21359(13) -0.02102(15) 0.24598(15)
O1 O 0.2288(4) 0.1132(4) 0.2385(5)
O2 O 0.2800(4) -0.0932(4) 0.1629(5)
O3 O 0.2456(6) -0.0705(5) 0.3674(5)
H1 H 0.22270 -0.02240 0.41580
O4 O 0.0819(5) -0.0450(5) 0.2307(7)
H2 H 0.07170 -0.11590 0.21050
O5 O 0.2811(4) 0.3595(4) 0.1452(4)
O6 O 0.3108(5) 0.5398(4) 0.0606(4)
O7 O 0.3024(5) 0.4692(4) 0.3483(4)
O8 O 0.3112(4) 0.6505(4) 0.2619(4)
O9 O 0.3752(4) 0.7748(4) -0.0803(4)
O10 O 0.5304(4) 0.7643(4) -0.1914(5)
O11 O 0.5063(4) 0.7418(4) 0.1031(5)
O12 O 0.6611(5) 0.7601(4) -0.0076(4)
C1 C 0.2999(5) 0.4728(6) 0.1464(5)
C2 C 0.3055(5) 0.5366(6) 0.2642(6)
C3 C 0.4802(6) 0.7648(5) -0.0984(6)
C4 C 0.5561(6) 0.7546(5) 0.0082(6)
N1 N 0.3394(6) 0.6938(7) 0.4982(5)
H3 H 0.32380 0.69710 0.42420
H4 H 0.30860 0.75830 0.53280
H5 H 0.31010 0.62550 0.52740
C5 C 0.462(1) 0.6947(11) 0.5146(11)
H6 H 0.49230 0.61430 0.49690
H7 H 0.47850 0.71150 0.59390
C6 C 0.5226(18) 0.7908(18) 0.4400(17)
C7 C 0.5155(19) 0.907(2) 0.5120(19)
C8? C 0.507(2) 0.828(3) 0.517(2)
C9? C 0.531(3) 0.868(3) 0.391(3)
Mn1A Mn 0.71766(8) 0.72786(8) -0.18645(8)
Mn1B Mn 0.21766(8) 0.77214(8) -0.18645(8)
Mn2* Mn 0.31784(9) -0.25965(8) 0.0983(1)
Mn2C Mn 0.81784(9) 0.75965(8) 0.0983(1)
O2* O 0.2800(4) 0.9068(4) 0.1629(5)
O9B O 0.1248(4) 0.2748(4) 0.4197(4)
O10A O 0.4696(4) 0.2357(4) 0.3086(5)
O12A O 0.3389(5) 0.2399(4) 0.4924(4)
O12C O 0.1611(5) 0.7399(4) -0.0076(4)
#END
