
#######################################################################
#
#                 Cambridge Crystallographic Data Centre
#                                CCDC
#
#######################################################################
#
# If this CIF has been generated from an entry in the Cambridge
# Structural Database, then it will include bibliographic, chemical,
# crystal, experimental, refinement or atomic coordinate data resulting
# from the CCDC's data processing and validation procedures.
#
#######################################################################

data_CSD_CIF_BOXYAQ
_audit_creation_date 2015-03-06
_audit_creation_method CSD-ConQuest-V1
_database_code_CSD BOXYAQ
_database_code_depnum_ccdc_archive 'CCDC 1046114'
_chemical_formula_sum 'C14 H26 Mn4 N4 O24 P2'
_chemical_formula_moiety
;
(C8 H2 Mn4 O24 P2 4-)n,2(C3 H12 N2 2+)
;
_journal_coden_Cambridge 222
_journal_volume 44
_journal_year 2015
_journal_page_first 5974
_journal_name_full 'Dalton Trans. '
loop_
_publ_author_name
"Lindong Luan"
"Jing Li"
"Changzhen Yin"
"Zhien Lin"
"Hui Huang"
_chemical_name_systematic
;
catena-(bis(propane-1,2-diammonium) tetrakis(\m-oxalato)-bis(\m-hydrogen 
phosphato)-tetra-manganese)
;
_cell_volume   2954.899
_exptl_crystal_colour 'yellow'
_exptl_crystal_density_diffrn 2.059
_exptl_crystal_description 'rod'
_diffrn_ambient_temperature 293
#These two values have been output from a single CSD field.
_refine_ls_R_factor_gt 0.0437
_refine_ls_wR_factor_gt 0.0437
_symmetry_cell_setting monoclinic
_symmetry_space_group_name_H-M 'P 21/c'
_symmetry_Int_Tables_number 14
loop_
_symmetry_equiv_pos_site_id
_symmetry_equiv_pos_as_xyz
1 x,y,z
2 -x,1/2+y,1/2-z
3 -x,-y,-z
4 x,-1/2-y,-1/2+z
_cell_length_a 15.8041(3)
_cell_length_b 16.2451(3)
_cell_length_c 11.5352(2)
_cell_angle_alpha 90
_cell_angle_beta 93.837(2)
_cell_angle_gamma 90
_cell_formula_units_Z 4
loop_
_atom_type_symbol
_atom_type_radius_bond
C 0.68
H 0.23
Mn 1.61
N 0.68
O 0.68
P 1.05
loop_
_atom_site_label
_atom_site_type_symbol
_atom_site_fract_x
_atom_site_fract_y
_atom_site_fract_z
Mn1 Mn 0.80625(3) 0.41538(3) 0.21749(4)
Mn2 Mn 0.64177(3) 0.53986(3) 0.30518(5)
Mn3 Mn 0.30920(3) 0.41403(3) 0.19972(4)
Mn4 Mn 0.14426(3) 0.54177(3) 0.28377(4)
P1 P 0.24987(5) 0.21556(5) 0.17048(7)
P2 P 0.24551(5) 0.72191(5) 0.23775(7)
O1 O 0.26251(17) 0.29994(15) 0.2235(2)
O2 O 0.31451(16) 0.15535(16) 0.2227(2)
O3 O 0.24398(16) 0.21493(19) 0.0398(2)
O4 O 0.15841(15) 0.18866(16) 0.2096(2)
H1 H 0.15720 0.13860 0.21810
O5 O 0.17731(17) 0.66323(16) 0.2728(2)
O6 O 0.24206(15) 0.80061(15) 0.3062(2)
O7 O 0.24373(15) 0.73353(18) 0.1083(2)
O8 O 0.33633(16) 0.68390(17) 0.2804(2)
H2 H 0.33920 0.63610 0.25800
O9 O 0.74834(15) 0.45888(15) 0.3694(2)
O10 O 0.84333(16) 0.44284(17) 0.5197(2)
O11 O 0.65097(15) 0.54878(17) 0.4999(2)
O12 O 0.74640(15) 0.53316(16) 0.6502(2)
O13 O 0.56566(15) 0.42592(16) 0.3129(2)
O14 O 0.43754(14) 0.37705(15) 0.2569(2)
O15 O 0.51487(16) 0.57802(17) 0.2555(3)
O16 O 0.38401(15) 0.53219(15) 0.2145(2)
O17 O 0.32866(16) 0.42335(16) 0.0117(2)
O18 O 0.29633(14) 0.50360(15) -0.14246(19)
O19 O 0.20540(14) 0.49599(15) 0.12584(19)
O20 O 0.16457(15) 0.56611(16) -0.0344(2)
O21 O 0.06995(15) 0.42700(15) 0.2846(2)
O22 O -0.06091(14) 0.37838(15) 0.2499(2)
O23 O 0.01244(15) 0.58032(16) 0.2659(3)
O24 O -0.12023(15) 0.53364(15) 0.2488(3)
C1 C 0.7766(2) 0.4696(2) 0.4725(3)
C2 C 0.7181(2) 0.5231(2) 0.5464(3)
C3 C 0.4905(2) 0.4333(2) 0.2735(3)
C4 C 0.4607(2) 0.5229(2) 0.2446(3)
C5 C 0.2862(2) 0.4775(2) -0.0415(3)
C6 C 0.21145(19) 0.5179(2) 0.0219(3)
C7 C -0.0085(2) 0.4348(2) 0.2638(3)
C8 C -0.0413(2) 0.5247(2) 0.2590(3)
N1 N -0.10292(18) 0.2483(2) 0.5461(3)
H3 H -0.13840 0.24320 0.48320
H4 H -0.12620 0.28050 0.59760
H5 H -0.09250 0.19890 0.57710
N2 N 0.10074(18) 0.27427(19) 0.3989(3)
H6 H 0.12270 0.24710 0.34110
H7 H 0.13920 0.27800 0.45860
H8 H 0.08560 0.32460 0.37500
C9 C -0.0218(2) 0.2858(2) 0.5128(3)
H9 H 0.01380 0.29790 0.58250
H10 H -0.03390 0.33730 0.47250
C10 C 0.0250(2) 0.2294(2) 0.4359(3)
H11 H -0.01200 0.21550 0.36710
C11 C 0.0550(3) 0.1506(3) 0.4965(4)
H12 H 0.09260 0.12180 0.44870
H13 H 0.00690 0.11640 0.50930
H14 H 0.08420 0.16390 0.56970
N3 N -0.61611(18) 0.2420(2) 0.4354(3)
H15 H -0.61730 0.25740 0.36130
H16 H -0.66150 0.26190 0.46760
H17 H -0.61640 0.18730 0.43960
N4 N -0.38706(18) 0.2923(2) 0.4738(3)
H18 H -0.39800 0.33820 0.43340
H19 H -0.33990 0.26930 0.45070
H20 H -0.38010 0.30440 0.54910
C12 C -0.5388(2) 0.2740(3) 0.4978(3)
H21 H -0.54100 0.26330 0.58030
H22 H -0.53590 0.33310 0.48700
C13 C -0.4592(2) 0.2338(2) 0.4539(3)
H23 H -0.46860 0.22380 0.37030
C14 C -0.4356(3) 0.1533(3) 0.5135(4)
H24 H -0.38820 0.12930 0.47800
H25 H -0.48300 0.11630 0.50600
H26 H -0.42060 0.16330 0.59430
Mn1* Mn -0.19375(3) 0.41538(3) 0.21749(4)
Mn1A Mn 0.19375(3) 0.91538(3) 0.28251(4)
Mn1B Mn 0.19375(3) 0.58462(3) -0.21749(4)
Mn2A Mn 0.35823(3) 0.03986(3) 0.19482(5)
Mn2B Mn 0.35823(3) 0.46014(3) -0.30518(5)
Mn3B Mn 0.69080(3) 0.58597(3) 0.80028(4)
Mn4B Mn 0.85574(3) 0.45823(3) 0.71623(4)
O2A O 0.68549(16) 0.65535(16) 0.2773(2)
O6A O 0.75794(15) 0.30061(15) 0.1938(2)
O10B O 0.15667(16) 0.55716(17) 0.4803(2)
O12B O 0.25360(15) 0.46684(16) 0.3498(2)
O18B O 0.70367(14) 0.49640(15) 0.14246(19)
O20B O 0.83543(15) 0.43389(16) 0.0344(2)
O22* O 0.93909(14) 0.37838(15) 0.2499(2)
O24* O 0.87977(15) 0.53364(15) 0.2488(3)
#END
