
#######################################################################
#
#                 Cambridge Crystallographic Data Centre
#                                CCDC
#
#######################################################################
#
# If this CIF has been generated from an entry in the Cambridge
# Structural Database, then it will include bibliographic, chemical,
# crystal, experimental, refinement or atomic coordinate data resulting
# from the CCDC's data processing and validation procedures.
#
#######################################################################

data_CSD_CIF_BOXYIY
_audit_creation_date 2015-03-06
_audit_creation_method CSD-ConQuest-V1
_database_code_CSD BOXYIY
_database_code_depnum_ccdc_archive 'CCDC 1046116'
_chemical_formula_sum 'C27 H48 Mn6 N6 O40 P4'
_chemical_formula_moiety
;
(C12 H6 Mn6 O40 P4 6-)n,3(C5 H14 N2 2+)
;
_journal_coden_Cambridge 222
_journal_volume 44
_journal_year 2015
_journal_page_first 5974
_journal_name_full 'Dalton Trans. '
loop_
_publ_author_name
"Lindong Luan"
"Jing Li"
"Changzhen Yin"
"Zhien Lin"
"Hui Huang"
_chemical_name_systematic
;
catena-(tris(1-methylpiperazinediium) hexakis(\m-oxalato)-bis(\m-hydrogen 
phosphato)-bis(\m-dihydrogen phosphato)-hexa-manganese)
;
_cell_volume   1304.406
_exptl_crystal_colour 'yellow'
_exptl_crystal_density_diffrn 1.973
_exptl_crystal_description 'prism'
_diffrn_ambient_temperature 293
_refine_special_details
;
C14 disordered by symmetry over two configurations with occupancy 0.50.

;
#These two values have been output from a single CSD field.
_refine_ls_R_factor_gt 0.0442
_refine_ls_wR_factor_gt 0.0442
_symmetry_cell_setting triclinic
_symmetry_space_group_name_H-M 'P -1'
_symmetry_Int_Tables_number 2
loop_
_symmetry_equiv_pos_site_id
_symmetry_equiv_pos_as_xyz
1 x,y,z
2 -x,-y,-z
_cell_length_a 8.0352(2)
_cell_length_b 10.1895(2)
_cell_length_c 16.0266(5)
_cell_angle_alpha 93.349(2)
_cell_angle_beta 94.504(3)
_cell_angle_gamma 92.452(2)
_cell_formula_units_Z 1
loop_
_atom_type_symbol
_atom_type_radius_bond
C 0.68
H 0.23
Mn 1.61
N 0.68
O 0.68
P 1.05
loop_
_atom_site_label
_atom_site_type_symbol
_atom_site_fract_x
_atom_site_fract_y
_atom_site_fract_z
Mn1 Mn 0.38842(6) 0.55471(5) 0.13608(3)
Mn2 Mn 0.25600(6) 0.06321(5) 0.28629(3)
Mn3 Mn 0.55567(6) 0.24448(4) 0.42358(3)
P1 P 0.74158(13) 0.41041(10) 0.06410(5)
P2 P 0.86969(9) 0.16069(8) 0.30598(5)
O1 O 0.6086(4) 0.4877(4) 0.09627(19)
O2 O 0.7331(5) 0.3806(3) -0.02828(17)
O3 O 0.9061(4) 0.4937(4) 0.0965(2)
H1 H 0.98640 0.46110 0.07600
O4 O 0.7582(8) 0.2767(3) 0.1036(2)
H2 H 0.81070 0.28770 0.14960
O5 O 0.7648(3) 0.1711(3) 0.37964(18)
O6 O 1.0448(3) 0.1291(3) 0.33444(15)
O7 O 0.8624(4) 0.2812(2) 0.25503(17)
O8 O 0.7989(3) 0.0390(2) 0.24428(18)
H3 H 0.69710 0.03140 0.24510
O9 O 0.5131(3) 0.7487(2) 0.18150(17)
O10 O 0.4594(3) 0.9513(2) 0.23096(18)
O11 O 0.2039(3) 0.6643(2) 0.20875(16)
O12 O 0.1501(3) 0.8660(2) 0.25732(17)
O13 O 0.2326(4) 0.3666(3) 0.11926(16)
O14 O 0.2134(3) 0.1672(2) 0.16862(15)
O15 O 0.4265(3) 0.4526(2) 0.25792(15)
O16 O 0.4051(3) 0.2520(2) 0.30612(15)
O17 O 0.3664(3) 0.3596(2) 0.49034(16)
O18 O 0.3248(3) 0.5612(2) 0.54315(16)
O19 O 0.6035(3) 0.1454(2) 0.54306(15)
O20 O 0.5991(3) -0.0565(2) 0.59060(14)
C1 C 0.4218(4) 0.8316(3) 0.2112(2)
C2 C 0.2425(4) 0.7829(3) 0.22707(19)
C3 C 0.2639(4) 0.2857(3) 0.1729(2)
C4 C 0.3767(4) 0.3363(3) 0.2525(2)
C5 C 0.4108(4) 0.4771(3) 0.50997(19)
C6 C 0.5592(4) 0.0275(3) 0.53855(18)
N1 N 0.1148(3) 0.2649(3) 0.58673(17)
H4 H 0.18530 0.31060 0.55610
N2 N 0.0439(4) 0.4704(3) 0.70947(18)
H5 H -0.02610 0.42880 0.74150
H6 H 0.05920 0.55450 0.72990
C7 C -0.0489(4) 0.3286(4) 0.5828(2)
H7 H -0.12790 0.27700 0.61180
H8 H -0.09230 0.33040 0.52470
C8 C -0.0328(4) 0.4670(4) 0.6222(2)
H9 H 0.03550 0.52140 0.58920
H10 H -0.14250 0.50310 0.62190
C9 C 0.1899(4) 0.2683(3) 0.6754(2)
H11 H 0.29910 0.23100 0.67640
H12 H 0.11980 0.21490 0.70800
C10 C 0.2073(4) 0.4064(4) 0.7142(2)
H13 H 0.24990 0.40490 0.77250
H14 H 0.28700 0.45740 0.68540
C11 C 0.0929(5) 0.1283(4) 0.5499(2)
H15 H 0.19670 0.08550 0.55720
H16 H 0.05900 0.12930 0.49110
H17 H 0.00880 0.08150 0.57730
N3 N 0.1223(11) 0.1077(6) -0.0038(4)
H18 H 0.11680 0.14360 0.04920
C12 C -0.0472(14) 0.1047(7) -0.0451(4)
H19 H -0.08150 0.19450 -0.04860
H20 H -0.04480 0.06690 -0.10190
C13 C -0.1706(14) 0.0315(9) -0.0040(7)
H21 H -0.27810 0.03250 -0.03600
H22 H -0.18130 0.07270 0.05130
C14 C 0.281(2) 0.1894(14) -0.0450(8)
H23 H 0.25350 0.27940 -0.05080
H24 H 0.29780 0.14890 -0.09910
H25 H 0.38100 0.18630 -0.00860
O17A O 0.6336(3) 0.6404(2) 0.50966(16)
O18A O 0.6752(3) 0.4388(2) 0.45685(16)
C5A C 0.5892(4) 0.5229(3) 0.49003(19)
O19A O 0.3965(3) -0.1454(2) 0.45694(15)
O20A O 0.4009(3) 0.0565(2) 0.40940(14)
C6A C 0.4408(4) -0.0275(3) 0.46145(18)
Mn1A Mn 0.61158(6) -0.55471(5) 0.86392(3)
Mn2A Mn 0.74400(6) -0.06321(5) 0.71371(3)
Mn3A Mn 0.44433(6) -0.24448(4) 0.57642(3)
P1A P 0.25842(13) -0.41041(10) 0.93590(5)
P2A P 0.13031(9) -0.16069(8) 0.69402(5)
O1A O 0.3914(4) -0.4877(4) 0.90373(19)
O2A O 0.2669(5) -0.3806(3) 1.02828(17)
O3A O 0.0939(4) -0.4937(4) 0.9035(2)
H1A H 0.01360 -0.46110 0.92400
O4A O 0.2418(8) -0.2767(3) 0.8964(2)
H2A H 0.18930 -0.28770 0.85040
O5A O 0.2352(3) -0.1711(3) 0.62036(18)
O6A O -0.0448(3) -0.1291(3) 0.66556(15)
O7A O 0.1376(4) -0.2812(2) 0.74497(17)
O8A O 0.2011(3) -0.0390(2) 0.75572(18)
H3A H 0.30290 -0.03140 0.75490
O9A O 0.4869(3) -0.7487(2) 0.81850(17)
O10A O 0.5406(3) -0.9513(2) 0.76904(18)
O11A O 0.7961(3) -0.6643(2) 0.79125(16)
O12A O 0.8499(3) -0.8660(2) 0.74268(17)
O13A O 0.7674(4) -0.3666(3) 0.88074(16)
O14A O 0.7866(3) -0.1672(2) 0.83138(15)
O15A O 0.5735(3) -0.4526(2) 0.74208(15)
O16A O 0.5949(3) -0.2520(2) 0.69388(15)
C1A C 0.5782(4) -0.8316(3) 0.7888(2)
C2A C 0.7575(4) -0.7829(3) 0.77293(19)
C3A C 0.7361(4) -0.2857(3) 0.8271(2)
C4A C 0.6233(4) -0.3363(3) 0.7475(2)
Mn1* Mn 0.38842(6) -0.44529(5) 1.13608(3)
Mn1A* Mn 0.61158(6) 0.44529(5) -0.13608(3)
Mn2* Mn 0.25600(6) 1.06321(5) 0.28629(3)
Mn2** Mn 1.25600(6) 0.06321(5) 0.28629(3)
Mn2A* Mn -0.25600(6) -0.06321(5) 0.71371(3)
Mn2A** Mn 0.74400(6) -1.06321(5) 0.71371(3)
Mn3A* Mn 0.44433(6) 0.75552(4) 0.57642(3)
O2* O 0.7331(5) -0.6194(3) 0.97172(17)
O2A* O 0.2669(5) 0.6194(3) 0.02828(17)
O6* O 0.0448(3) 0.1291(3) 0.33444(15)
O6A* O 0.9552(3) -0.1291(3) 0.66556(15)
O10* O 0.4594(3) -0.0487(2) 0.23096(18)
O10A* O 0.5406(3) 0.0487(2) 0.76904(18)
O12* O 0.1501(3) -0.1340(2) 0.25732(17)
O12A* O 0.8499(3) 0.1340(2) 0.74268(17)
O17A* O 0.6336(3) -0.3596(2) 0.50966(16)
O18* O 0.3248(3) -0.4388(2) 0.54315(16)
N3A N -0.1223(11) -0.1077(6) 0.0038(4)
H18A H -0.11680 -0.14360 -0.04920
C12A C 0.0472(14) -0.1047(7) 0.0451(4)
H19A H 0.08150 -0.19450 0.04860
H20A H 0.04480 -0.06690 0.10190
C13A C 0.1706(14) -0.0315(9) 0.0040(7)
H21A H 0.27810 -0.03250 0.03600
H22A H 0.18130 -0.07270 -0.05130
C14A C -0.281(2) -0.1894(14) 0.0450(8)
H23A H -0.25350 -0.27940 0.05080
H24A H -0.29780 -0.14890 0.09910
H25A H -0.38100 -0.18630 0.00860
#END
