
#######################################################################
#
#                 Cambridge Crystallographic Data Centre
#                                CCDC
#
#######################################################################
#
# If this CIF has been generated from an entry in the Cambridge
# Structural Database, then it will include bibliographic, chemical,
# crystal, experimental, refinement or atomic coordinate data resulting
# from the CCDC's data processing and validation procedures.
#
#######################################################################

data_CSD_CIF_BOYTIU
_audit_creation_date 2015-03-07
_audit_creation_method CSD-ConQuest-V1
_database_code_CSD BOYTIU
_database_code_depnum_ccdc_archive 'CCDC 1034960'
_chemical_formula_sum 'C37 H27 Al1 N1 Na1 O14 S24'
_chemical_formula_moiety
;
(C6 Al1 Na1 O12 2-)n,2n(C10 H8 S8 1+),n(C1 H3 N1 O2),n(C10 H8 S8)
;
_journal_coden_Cambridge 1290
_journal_year 2015
_journal_page_first 1865
_journal_name_full 'Eur.J.Inorg.Chem. '
loop_
_publ_author_name
"L.Martin"
"H.Akutsu"
"P.N.Horton"
"M.B.Hursthouse"
"R.W.Harrington"
"W.Clegg"
_chemical_name_systematic
;
catena-(tris(2-(5,6-Dihydro[1,3]dithiolo[4,5-b][1,4]dithiin-2-ylidene)-5,6-dih
ydro[1,3]dithiolo[4,5-b][1,4]dithiin-1-ium) 
tris(\m~2~-oxalato)-aluminium-sodium nitromethane solvate)
;
_cell_volume   2739.730
_exptl_crystal_colour 'dark brown'
_exptl_crystal_density_diffrn 1.853
_exptl_crystal_description 'Cut Sheet'
_diffrn_ambient_temperature 120
_diffrn_special_details
;
twin

;
_refine_special_details
;
C129,C130 and C29,C30 disordered over two sites with occupancies 0.552:0.448; 
C19,C20 and C119,C120 disordered over two sites with occupancies 0.70:0.30.
;
#These two values have been output from a single CSD field.
_refine_ls_R_factor_gt 0.0561
_refine_ls_wR_factor_gt 0.0561
_symmetry_cell_setting monoclinic
_symmetry_space_group_name_H-M 'P 21'
_symmetry_Int_Tables_number 4
loop_
_symmetry_equiv_pos_site_id
_symmetry_equiv_pos_as_xyz
1 x,y,z
2 -x,1/2+y,-z
_cell_length_a 10.3476(3)
_cell_length_b 14.6224(5)
_cell_length_c 18.1484(5)
_cell_angle_alpha 90
_cell_angle_beta 93.865(2)
_cell_angle_gamma 90
_cell_formula_units_Z 2
loop_
_atom_type_symbol
_atom_type_radius_bond
C 0.68
H 0.23
Al 1.21
N 0.68
Na 1.66
O 0.68
S 1.02
loop_
_atom_site_label
_atom_site_type_symbol
_atom_site_fract_x
_atom_site_fract_y
_atom_site_fract_z
Al1 Al 0.2062(3) 0.5774(2) -0.00773(17)
Na1 Na 0.2910(4) 0.2068(3) 0.0094(2)
C1 C 0.2900(9) 0.4111(7) 0.0372(5)
C2 C 0.1931(8) 0.3960(7) -0.0322(5)
O1 O 0.2992(6) 0.4938(5) 0.0567(4)
O2 O 0.1408(6) 0.4698(5) -0.0559(3)
O3 O 0.1773(6) 0.3189(5) -0.0588(4)
O4 O 0.3447(7) 0.3443(5) 0.0678(4)
C3 C 0.4433(9) 0.6164(7) -0.0484(5)
C4 C 0.4202(10) 0.6765(7) 0.0220(5)
O5 O 0.3417(5) 0.5780(4) -0.0738(3)
O6 O 0.3022(6) 0.6734(5) 0.0398(3)
O7 O 0.5095(6) 0.7200(5) 0.0529(4)
O8 O 0.5526(6) 0.6135(5) -0.0708(4)
C5 C -0.0387(9) 0.6082(8) 0.0263(5)
C6 C -0.0228(9) 0.6543(7) -0.0509(5)
O9 O 0.0688(5) 0.5819(4) 0.0570(3)
O10 O 0.0952(6) 0.6510(4) -0.0690(3)
O11 O -0.1149(6) 0.6893(5) -0.0863(3)
O12 O -0.1461(6) 0.6033(5) 0.0510(3)
C7 C 1.025(1) 0.8503(8) 0.7974(5)
H1 H 1.05800 0.81150 0.83930
H2 H 1.09430 0.89430 0.78710
C8 C 0.9106(11) 0.9025(8) 0.8204(6)
H3 H 0.93340 0.93150 0.86880
H4 H 0.83890 0.85910 0.82700
C9 C 0.8488(9) 0.9316(7) 0.6716(5)
C10 C 0.9051(10) 0.8508(7) 0.6572(5)
C11 C 0.7795(9) 0.8957(7) 0.5348(5)
C12 C 0.7210(9) 0.8950(7) 0.4654(5)
C13 C 0.6598(9) 0.8602(7) 0.3284(5)
C14 C 0.6017(9) 0.9379(7) 0.3428(5)
C15 C 0.4838(9) 0.9387(7) 0.2015(6)
H5 H 0.41320 0.89550 0.21140
H6 H 0.45300 0.97730 0.15910
C16 C 0.6006(10) 0.8840(8) 0.1801(6)
H7 H 0.67210 0.92720 0.17230
H8 H 0.57780 0.85340 0.13230
S1 S 0.9939(3) 0.7786(2) 0.71751(16)
S2 S 0.8534(3) 0.9907(2) 0.75533(17)
S3 S 0.7567(3) 0.9833(2) 0.59869(16)
S4 S 0.8832(3) 0.8072(2) 0.56739(16)
S5 S 0.7469(3) 0.8055(2) 0.40347(16)
S6 S 0.6175(3) 0.9813(2) 0.43292(16)
S7 S 0.5143(3) 1.0111(2) 0.28142(16)
S8 S 0.6584(3) 0.7993(2) 0.24530(17)
C17 C 0.9875(10) 0.5030(11) 0.7965(6)
H9 H 0.97830 0.50850 0.85030
H10 H 1.01310 0.43900 0.78700
C18 C 1.0936(10) 0.5617(11) 0.7780(5)
H11 H 1.17090 0.54510 0.81040
H12 H 1.07070 0.62550 0.79000
C19 C 0.9895(8) 0.5463(8) 0.6345(5)
C20 C 0.8707(8) 0.5311(8) 0.6593(5)
C21 C 0.8359(8) 0.5365(10) 0.5164(5)
C22 C 0.7846(8) 0.5371(8) 0.4449(4)
C23 C 0.6286(8) 0.5373(8) 0.3277(4)
C24 C 0.7482(8) 0.5512(8) 0.3035(5)
C25 C 0.6487(11) 0.5206(11) 0.1632(7)
H13 H 0.65610 0.52940 0.10950
H14 H 0.64470 0.45400 0.17260
C26 C 0.5223(12) 0.5652(12) 0.1852(6)
H15 H 0.45100 0.54810 0.14870
H16 H 0.53190 0.63250 0.18400
S9 S 0.8297(3) 0.5214(3) 0.75010(15)
S10 S 1.1378(2) 0.5590(2) 0.68440(14)
S11 S 0.9997(2) 0.5504(2) 0.53887(14)
S12 S 0.7423(2) 0.5205(2) 0.59133(14)
S13 S 0.6191(2) 0.5239(2) 0.42233(14)
S14 S 0.8769(2) 0.5525(2) 0.37048(13)
S15 S 0.7914(2) 0.5668(2) 0.21259(13)
S16 S 0.4799(2) 0.5310(2) 0.27624(13)
C27? C 0.6325(18) 0.578(2) 0.1643(13)
H17? H 0.59880 0.63980 0.17410
H18? H 0.64310 0.57380 0.11050
C28? C 0.530(2) 0.508(2) 0.184(1)
H19? H 0.56680 0.44530 0.18210
H20? H 0.45450 0.51130 0.14770
C29 C 0.8483(9) 0.2702(9) 0.8343(6)
H21 H 0.84880 0.33650 0.82330
H22 H 0.84230 0.26310 0.88820
C30 C 0.9733(9) 0.2303(8) 0.8139(5)
H23 H 0.96930 0.16300 0.81940
H24 H 1.04350 0.25300 0.84890
C31 C 0.8638(9) 0.2484(8) 0.6713(5)
C32 C 0.7441(9) 0.2345(8) 0.6968(5)
C33 C 0.7079(9) 0.2496(9) 0.5548(5)
C34 C 0.6542(9) 0.2503(7) 0.4822(4)
C35 C 0.5023(8) 0.2417(8) 0.3636(5)
C36 C 0.6222(9) 0.2556(9) 0.3407(5)
S17 S 0.7067(2) 0.2202(2) 0.78767(13)
S18 S 1.0148(2) 0.2569(2) 0.71951(14)
S19 S 0.8713(2) 0.2634(2) 0.57572(15)
S20 S 0.6149(2) 0.2330(2) 0.62972(14)
S21 S 0.4906(2) 0.2341(2) 0.45946(14)
S22 S 0.7480(2) 0.2671(2) 0.40871(15)
S23 S 0.6646(2) 0.2700(3) 0.24982(15)
S24 S 0.3547(2) 0.2271(2) 0.31309(14)
C37 C 0.5069(13) 0.2898(12) 0.2043(9)
H25 H 0.47620 0.35040 0.22020
H26 H 0.51700 0.29340 0.15050
C38 C 0.4007(15) 0.2198(12) 0.2169(8)
H27 H 0.43250 0.15740 0.20690
H28 H 0.32410 0.23200 0.18260
C39? C 0.5248(14) 0.2388(13) 0.1986(9)
H29? H 0.53160 0.25820 0.14670
H30? H 0.51700 0.17130 0.19900
C40? C 0.4029(16) 0.2804(12) 0.2275(8)
H31? H 0.33090 0.27440 0.18900
H32? H 0.41780 0.34650 0.23640
N1 N 0.7648(10) 0.3691(8) 0.0304(6)
C41 C 0.6717(16) 0.4111(11) -0.0238(7)
H33 H 0.63980 0.36490 -0.05970
H34 H 0.71420 0.46050 -0.04950
H35 H 0.59880 0.43610 0.00150
O13 O 0.8764(9) 0.3702(7) 0.0157(6)
O14 O 0.7240(8) 0.3365(6) 0.0859(4)
Na1A Na -0.2910(4) 0.7068(3) -0.0094(2)
Na1A* Na 0.7090(4) 0.7068(3) -0.0094(2)
O7A O 0.4905(6) 0.2200(5) -0.0529(4)
O8A O 0.4474(6) 0.1135(5) 0.0708(4)
O11A O 0.1149(6) 0.1893(5) 0.0863(3)
O12A O 0.1461(6) 0.1033(5) -0.0510(3)
#END
