
#######################################################################
#
#                 Cambridge Crystallographic Data Centre
#                                CCDC
#
#######################################################################
#
# If this CIF has been generated from an entry in the Cambridge
# Structural Database, then it will include bibliographic, chemical,
# crystal, experimental, refinement or atomic coordinate data resulting
# from the CCDC's data processing and validation procedures.
#
#######################################################################

data_CSD_CIF_BUBWEC
_audit_creation_date 2015-03-09
_audit_creation_method CSD-ConQuest-V1
_database_code_CSD BUBWEC
_database_code_depnum_ccdc_archive 'CCDC 888444'
_chemical_formula_sum 'C18 H20 Cd1 N4 O13'
_chemical_formula_moiety
;
(C10 H10 N2 2+)n,n(C8 H4 Cd1 N2 O10 2-),3n(H2 O1)
;
_journal_coden_Cambridge 702
_journal_volume 30
_journal_year 2014
_journal_page_first 2174
_journal_name_full 'Wuji Huaxue Xuebao(Chin.)(Chin.J.Inorg.Chem.) '
loop_
_publ_author_name
"Xue-Ying Shi"
"Ai-Hong Yang"
"Jing Qu"
"Wei-Tao Chen"
"Hong-Ling Gao"
"Jian-Zhong Cui"
_chemical_name_systematic
;
catena-[(4,4'-Bipyridinium) (\m~3~-pyrazine-2,3,5,6-tetracarboxylato)-cadmium 
trihydrate]
;
_cell_volume   2219.826
_exptl_crystal_colour 'colorless'
_exptl_crystal_density_diffrn 1.833
_exptl_crystal_description 'Prism'
_diffrn_ambient_temperature 113
#These two values have been output from a single CSD field.
_refine_ls_R_factor_gt 0.0326
_refine_ls_wR_factor_gt 0.0326
_symmetry_cell_setting monoclinic
_symmetry_space_group_name_H-M 'P 21/c'
_symmetry_Int_Tables_number 14
loop_
_symmetry_equiv_pos_site_id
_symmetry_equiv_pos_as_xyz
1 x,y,z
2 -x,1/2+y,1/2-z
3 -x,-y,-z
4 x,-1/2-y,-1/2+z
_cell_length_a 16.885(10)
_cell_length_b 9.639(5)
_cell_length_c 14.910(9)
_cell_angle_alpha 90
_cell_angle_beta 113.828(10)
_cell_angle_gamma 90
_cell_formula_units_Z 4
loop_
_atom_type_symbol
_atom_type_radius_bond
C 0.68
H 0.23
Cd 1.44
N 0.68
O 0.68
loop_
_atom_site_label
_atom_site_type_symbol
_atom_site_fract_x
_atom_site_fract_y
_atom_site_fract_z
Cd1 Cd 0.403017(12) 0.625056(19) -0.002656(14)
O1 O 0.48581(11) 0.39659(17) 0.05743(13)
O2 O 0.54700(12) 0.28612(18) 0.20331(14)
O3 O 0.51471(11) 0.28766(18) 0.39175(13)
O4 O 0.43846(11) 0.11621(17) 0.29254(14)
O5 O 0.19661(12) 0.58242(19) 0.28090(15)
O6 O 0.12919(11) 0.42545(19) 0.16253(15)
O7 O 0.18180(12) 0.71287(18) 0.08121(15)
O8 O 0.26952(11) 0.71151(18) 0.00163(14)
O9 O 0.32459(13) 0.4911(2) -0.13630(14)
H1 H 0.2786(13) 0.533(3) -0.173(2)
H2 H 0.3589(17) 0.467(4) -0.162(2)
O10 O 0.36561(13) 0.8195(2) -0.10531(14)
H3 H 0.3890(14) 0.795(3) -0.1440(16)
H4 H 0.3119(7) 0.837(3) -0.1321(19)
N1 N 0.36495(13) 0.5079(2) 0.11187(15)
N2 N 0.32810(13) 0.3794(2) 0.25635(15)
C1 C 0.49077(16) 0.3594(2) 0.14126(19)
C2 C 0.41712(15) 0.4070(2) 0.16700(19)
C3 C 0.39946(16) 0.3477(2) 0.24238(19)
C4 C 0.27539(16) 0.4771(3) 0.19857(19)
C5 C 0.29616(16) 0.5479(3) 0.12841(19)
C6 C 0.24463(16) 0.6678(3) 0.06500(19)
C7 C 0.45644(16) 0.2404(3) 0.31295(19)
C8 C 0.19336(16) 0.5001(3) 0.2154(2)
N3 N 0.37596(14) 0.0068(2) 1.06815(17)
H5 H 0.4204(14) -0.054(3) 1.091(2)
N4 N 0.01510(15) 0.4386(2) 0.88029(18)
H6 H -0.0332(14) 0.491(3) 0.861(3)
C9 C 0.37155(18) 0.0977(3) 0.9980(2)
H7 H 0.41660 0.10160 0.97530
C10 C 0.30098(17) 0.1857(3) 0.9590(2)
H8 H 0.29760 0.25150 0.91010
C11 C 0.23472(17) 0.1766(3) 0.9925(2)
C12 C 0.24318(17) 0.0823(3) 1.0662(2)
H9 H 0.19970 0.07630 1.09120
C13 C 0.31485(17) -0.0025(3) 1.1030(2)
H10 H 0.32070 -0.06760 1.15320
C14 C 0.15672(17) 0.2671(3) 0.9502(2)
C15 C 0.16286(17) 0.4007(3) 0.9174(2)
H11 H 0.21660 0.43360 0.91940
C16 C 0.09049(17) 0.4850(3) 0.8821(2)
H12 H 0.09420 0.57560 0.85920
C17 C 0.00661(19) 0.3099(3) 0.9094(2)
H13 H -0.04800 0.27980 0.90630
C18 C 0.07629(18) 0.2209(3) 0.9436(2)
H14 H 0.06970 0.12910 0.96260
O11 O 0.09426(13) 0.6381(3) 0.38969(19)
H15 H 0.113(2) 0.630(4) 0.3456(17)
H16 H 0.1279(19) 0.673(4) 0.4441(14)
O12 O 0.17910(14) 0.5989(2) 0.73183(16)
H17 H 0.184(2) 0.659(3) 0.693(2)
H18 H 0.147(2) 0.529(3) 0.705(3)
O13 O 0.07977(14) 0.3679(2) 0.65506(18)
H19 H 0.0253(7) 0.371(3) 0.641(2)
H20 H 0.1020(17) 0.2868(18) 0.672(3)
Cd1A Cd 0.596983(12) 0.125056(19) 0.502656(14)
Cd1B Cd 0.596983(12) 0.374944(19) 0.002656(14)
O1B O 0.51419(11) 0.60341(17) -0.05743(13)
O3A O 0.48529(11) 0.78766(18) 0.10825(13)
#END
