
#######################################################################
#
#                 Cambridge Crystallographic Data Centre
#                                CCDC
#
#######################################################################
#
# If this CIF has been generated from an entry in the Cambridge
# Structural Database, then it will include bibliographic, chemical,
# crystal, experimental, refinement or atomic coordinate data resulting
# from the CCDC's data processing and validation procedures.
#
#######################################################################

data_CSD_CIF_BUCREX
_audit_creation_date 2009-12-08
_audit_creation_method CSD-ConQuest-V1
_database_code_CSD BUCREX
_database_code_depnum_ccdc_archive 'CCDC 728870'
_chemical_formula_sum 'C18 H25 N2 O24 P3 U3'
_chemical_formula_moiety
;
(C12 H12 N2 2+)n,n(C6 H9 O22 P3 U3 2-),2n(H2 O1)
;
_journal_coden_Cambridge 9
_journal_volume 48
_journal_year 2009
_journal_page_first 6845
_journal_name_full 'Inorg.Chem. '
loop_
_publ_author_name
"K.E.Knope"
"C.L.Cahill"
_chemical_name_systematic
;
catena-(1,2-bis(4-Pyridinio)ethylene 
(\m~4~-phosphonacetato-O,O,O',O'',O''',O'''')-(\m~4~-phosphonacetato-O,O',O'',
O''',O'''')-(\m~3~-phosphonoacetic 
acid-O,O',O'')-aqua-hexaoxo-tri-uranium(vi) dihydrate)
;
_cell_volume   1648.873
_exptl_crystal_colour 'yellow'
_exptl_crystal_density_diffrn 2.941
_exptl_special_details
;
fluorescent

;
_exptl_crystal_description 'plate'
_diffrn_ambient_temperature 295
#These two values have been output from a single CSD field.
_refine_ls_R_factor_gt 0.0339
_refine_ls_wR_factor_gt 0.0339
_symmetry_cell_setting triclinic
_symmetry_space_group_name_H-M 'P -1'
_symmetry_Int_Tables_number 2
loop_
_symmetry_equiv_pos_site_id
_symmetry_equiv_pos_as_xyz
1 x,y,z
2 -x,-y,-z
_cell_length_a 10.5063(4)
_cell_length_b 10.8858(4)
_cell_length_c 15.6464(6)
_cell_angle_alpha 105.564(1)
_cell_angle_beta 95.246(1)
_cell_angle_gamma 104.024(1)
_cell_formula_units_Z 2
loop_
_atom_type_symbol
_atom_type_radius_bond
C 0.68
H 0.23
N 0.68
O 0.68
P 1.05
U 1.47
loop_
_atom_site_label
_atom_site_type_symbol
_atom_site_fract_x
_atom_site_fract_y
_atom_site_fract_z
U1 U 0.45838(2) 0.752950(19) 0.025810(13)
U2 U 0.099500(19) 0.682730(19) -0.343770(13)
U3 U 0.16952(2) 1.151370(19) -0.309500(13)
P1 P 0.71609(14) 0.59765(14) 0.08870(9)
P2 P 0.26015(14) 0.97426(14) -0.16317(9)
P3 P -0.02180(14) 0.66669(13) -0.56330(9)
O1 O -0.0200(4) 0.7205(4) -0.2768(3)
O2 O 0.2218(4) 0.6447(4) -0.4097(3)
O3 O 0.3813(4) 0.7042(4) 0.1126(3)
O4 O 0.3435(4) 1.1845(4) -0.3119(3)
O5 O 0.1487(5) 1.0291(4) -0.4711(3)
O6 O 0.5294(4) 0.7958(4) -0.0636(3)
O7 O 0.3305(4) 0.9215(4) 0.0452(3)
O8 O 0.1788(4) 1.0523(4) -0.1998(3)
O9 O -0.0045(4) 1.1155(4) -0.3074(3)
O10 O -0.1345(4) 0.7006(4) -0.6126(3)
O11 O 0.2416(4) 0.7395(4) -0.0634(3)
O12 O 0.2588(4) 0.8459(4) -0.2339(3)
O13 O 0.1383(4) 0.8998(4) -0.3847(3)
O14 O 0.4028(4) 1.0545(4) -0.1239(3)
O15 O 0.0069(4) 0.5421(4) -0.6207(3)
O16 O 0.1914(6) 0.5881(5) -0.2337(3)
O17 O 0.7885(4) 0.6591(4) 0.1854(3)
O18 O 0.6372(4) 0.6818(4) 0.0581(3)
O19 O 0.8542(6) 0.7507(6) -0.0598(4)
O20 O 1.0081(6) 0.8012(6) 0.0579(4)
H1 H 1.04150 0.76100 0.08700
O21 O -0.0487(4) 0.6571(4) -0.4708(2)
O22 O 0.6310(4) 0.4569(4) 0.0728(3)
C1 C 0.1391(6) 0.9157(5) -0.4628(4)
C2 C 0.2500(5) 0.8595(6) -0.0284(4)
C3 C 0.1775(6) 0.9317(6) -0.0742(4)
H2 H 0.17250 1.01210 -0.03070
H3 H 0.08740 0.87650 -0.09940
C4 C 0.1327(5) 0.8000(5) -0.5416(4)
H4 H 0.14050 0.82960 -0.59460
H5 H 0.20750 0.76540 -0.53100
C5 C 0.8441(7) 0.5856(7) 0.0172(5)
H6 H 0.91440 0.55940 0.04600
H7 H 0.80540 0.51810 -0.04000
C6 C 0.9022(8) 0.7182(8) 0.0009(5)
N1 N 0.3013(6) 1.0698(6) 0.2074(4)
H8 H 0.28100 1.02860 0.15070
N2 N 0.6283(7) 1.5889(7) 0.7942(4)
H9 H 0.65170 1.63560 0.84980
C7 C 0.3633(6) 1.2069(7) 0.3860(4)
C8 C 0.2322(7) 1.1569(7) 0.3438(4)
H10 H 0.16410 1.16970 0.37620
C9 C 0.3945(7) 1.2866(7) 0.4822(4)
H11 H 0.32410 1.29200 0.51360
C10 C 0.5163(7) 1.3503(7) 0.5259(4)
H12 H 0.58570 1.34050 0.49430
C11 C 0.5526(7) 1.4351(7) 0.6197(4)
C12 C 0.4604(7) 1.4776(7) 0.6708(5)
H13 H 0.37100 1.45210 0.64520
C13 C 0.2030(7) 1.0889(7) 0.2546(5)
H14 H 0.11480 1.05540 0.22610
C14 C 0.4629(7) 1.1821(8) 0.3343(5)
H15 H 0.55210 1.21310 0.36080
C15 C 0.4265(7) 1.1121(8) 0.2451(5)
H16 H 0.49140 1.09430 0.21090
C16 C 0.4999(8) 1.5553(8) 0.7572(5)
H17 H 0.43860 1.58510 0.79060
C17 C 0.6864(8) 1.4775(8) 0.6608(5)
H18 H 0.75110 1.45400 0.62820
C18 C 0.7214(8) 1.5537(8) 0.7492(5)
H19 H 0.80960 1.58050 0.77740
O23 O 1.1195(7) 1.7002(9) 0.1766(5)
O24 O 0.6257(12) 1.1599(12) 0.6882(10)
H20 H 0.176(9) 0.522(9) -0.235(6)
H21 H 0.186(7) 0.634(8) -0.172(6)
U1A U 0.54162(2) 1.247050(19) -0.025810(13)
U1A* U 0.54162(2) 0.247050(19) -0.025810(13)
U2A U -0.099500(19) 0.317270(19) -0.656230(13)
U3A U -0.16952(2) 0.848630(19) -0.690500(13)
U3A* U 0.83048(2) 0.848630(19) 0.309500(13)
O10A O 0.1345(4) 1.2994(4) -0.3874(3)
O14A O 0.5972(4) 0.9455(4) 0.1239(3)
O15A O -0.0069(4) 0.4579(4) -0.3793(3)
O17A O 0.2115(4) 1.3409(4) -0.1854(3)
O22A O 0.3690(4) 0.5431(4) -0.0728(3)
#END
