
#######################################################################
#
#                 Cambridge Crystallographic Data Centre
#                                CCDC
#
#######################################################################
#
# If this CIF has been generated from an entry in the Cambridge
# Structural Database, then it will include bibliographic, chemical,
# crystal, experimental, refinement or atomic coordinate data resulting
# from the CCDC's data processing and validation procedures.
#
#######################################################################

data_CSD_CIF_BUCRAT
_audit_creation_date 2009-12-08
_audit_creation_method CSD-ConQuest-V1
_database_code_CSD BUCRAT
_database_code_depnum_ccdc_archive 'CCDC 728869'
_chemical_formula_sum 'C16 H25 N2 O25 P3 U3'
_chemical_formula_moiety
;
(C10 H10 N2 2+)n,n(C6 H9 O22 P3 U3 2-),3n(H2 O1)
;
_journal_coden_Cambridge 9
_journal_volume 48
_journal_year 2009
_journal_page_first 6845
_journal_name_full 'Inorg.Chem. '
loop_
_publ_author_name
"K.E.Knope"
"C.L.Cahill"
_chemical_name_systematic
;
catena-(4,4'-Bipyridinium 
(\m~4~-phosphonacetato-O,O,O',O'',O''',O'''')-(\m~4~-phosphonacetato-O,O',O'',
O''',O'''')-(\m~3~-phosphonoacetic 
acid-O,O',O'')-aqua-hexaoxo-tri-uranium(vi) trihydrate)
;
_cell_volume   3125.924
_exptl_crystal_colour 'yellow'
_exptl_crystal_density_diffrn 3.086
_exptl_special_details
;
fluorescent

;
_exptl_crystal_description 'plate'
_diffrn_ambient_temperature 295
#These two values have been output from a single CSD field.
_refine_ls_R_factor_gt 0.0277
_refine_ls_wR_factor_gt 0.0277
_symmetry_cell_setting monoclinic
_symmetry_space_group_name_H-M 'P 21/c'
_symmetry_Int_Tables_number 14
loop_
_symmetry_equiv_pos_site_id
_symmetry_equiv_pos_as_xyz
1 x,y,z
2 -x,1/2+y,1/2-z
3 -x,-y,-z
4 x,-1/2-y,-1/2+z
_cell_length_a 8.9801(4)
_cell_length_b 25.5577(11)
_cell_length_c 13.8436(6)
_cell_angle_alpha 90
_cell_angle_beta 100.313(1)
_cell_angle_gamma 90
_cell_formula_units_Z 4
loop_
_atom_type_symbol
_atom_type_radius_bond
C 0.68
H 0.23
N 0.68
O 0.69
P 1.05
U 1.49
loop_
_atom_site_label
_atom_site_type_symbol
_atom_site_fract_x
_atom_site_fract_y
_atom_site_fract_z
U1 U 0.04512(2) 0.083922(7) 0.357051(14)
O1 O 0.2329(5) 0.10741(16) 0.3726(3)
O2 O -0.1380(5) 0.05690(16) 0.3440(3)
O3 O 0.0335(5) 0.10396(16) 0.5164(3)
O4 O -0.0611(5) 0.16578(14) 0.3228(3)
O5 O 0.0201(4) 0.08085(14) 0.1893(3)
O6 O 0.1258(5) -0.00857(14) 0.3092(3)
O7 O 0.1783(5) 0.01074(15) 0.4640(3)
P1 P -0.05347(17) 0.11773(5) 0.59742(10)
P2 P -0.03883(18) 0.22257(5) 0.35411(10)
P3 P 0.10319(16) 0.06558(5) 0.10631(10)
U2 U 0.01740(2) -0.064570(7) 0.159550(14)
O8 O 0.0355(5) 0.10182(16) 0.6967(3)
O9 O -0.1001(5) 0.17504(15) 0.5924(3)
C1 C -0.2247(6) 0.0782(2) 0.5804(4)
O10 O 0.0676(5) 0.22867(15) 0.4524(3)
O11 O 0.0177(5) 0.25671(15) 0.2772(3)
C2 C -0.2206(7) 0.2486(3) 0.3698(5)
O12 O 0.1462(5) 0.00807(14) 0.1108(3)
O13 O 0.0148(5) 0.08154(15) 0.0072(3)
C3 C 0.2782(6) 0.1032(2) 0.1265(4)
U3 U 0.06628(2) 0.246310(7) 0.617560(14)
C4 C -0.1761(6) 0.0224(2) 0.6030(4)
H1 H -0.27870 0.08120 0.51340
H2 H -0.29080 0.08990 0.62440
H3 H -0.25960 0.22790 0.41850
H4 H -0.20720 0.28420 0.39430
C5 C -0.3334(8) 0.2484(3) 0.2761(5)
H5 H 0.34050 0.09280 0.18820
H6 H 0.33420 0.09620 0.07420
C6 C 0.2430(6) 0.1606(2) 0.1291(4)
O14 O 0.1268(6) 0.14686(17) 0.8720(3)
O15 O -0.1900(5) 0.09994(15) 0.8215(3)
O16 O 0.1547(5) 0.02934(15) 0.8579(3)
O17 O -0.0894(5) 0.21084(15) 0.0858(3)
O18 O 0.2241(5) 0.29591(16) 0.1503(3)
O19 O 0.2227(5) 0.18216(15) 0.2077(3)
O20 O 0.2208(5) 0.18667(15) 0.0503(3)
O21 O -0.3911(6) 0.20968(19) 0.2374(4)
O22 O -0.3586(8) 0.2956(2) 0.2396(5)
H7 H 0.103(9) 0.169(2) 0.833(5)
H8 H 0.147(9) 0.157(3) 0.927(3)
H9 H -0.398(12) 0.295(4) 0.174(8)
N1 N 0.6463(7) -0.0347(2) 0.3556(4)
H10 H 0.692(11) -0.027(4) 0.409(7)
N2 N 0.3278(7) -0.1346(2) -0.1018(5)
H11 H 0.287(8) -0.147(3) -0.157(6)
C7 C 0.5712(8) -0.0024(3) 0.2888(5)
H12 H 0.56540 0.03300 0.30310
C8 C 0.5028(7) -0.0208(2) 0.1994(5)
H13 H 0.44770 0.00170 0.15350
C9 C 0.5898(8) -0.1061(3) 0.2503(5)
H14 H 0.59600 -0.14180 0.23900
C10 C 0.6543(8) -0.0856(3) 0.3399(5)
H15 H 0.70340 -0.10750 0.38920
C11 C 0.5160(6) -0.0738(2) 0.1773(4)
C12 C 0.4511(6) -0.0949(2) 0.0784(4)
C13 C 0.3669(7) -0.0634(3) 0.0061(5)
H16 H 0.35260 -0.02820 0.01880
C14 C 0.3054(7) -0.0840(3) -0.0835(5)
H17 H 0.24840 -0.06310 -0.13120
C15 C 0.4096(9) -0.1658(3) -0.0352(6)
H18 H 0.42310 -0.20070 -0.05030
C16 C 0.4733(8) -0.1470(2) 0.0546(5)
H19 H 0.53160 -0.16880 0.10010
O23 O 0.3671(7) 0.2645(2) 0.8938(5)
O24 O 0.5498(7) 0.1209(2) 0.3582(5)
O25 O -0.4518(10) 0.3073(3) 0.0548(5)
U2B U -0.01740(2) 0.064570(7) 0.840450(14)
U3C U 0.06628(2) 0.253690(7) 0.117560(14)
U2B* U -0.01740(2) 0.064570(7) -0.159550(14)
O6B O -0.1258(5) 0.00857(14) 0.6908(3)
O12B O -0.1462(5) -0.00807(14) 0.8892(3)
O13* O 0.0148(5) 0.08154(15) 1.0072(3)
O7B O -0.1783(5) -0.01074(15) 0.5360(3)
O10C O 0.0676(5) 0.27133(15) -0.0476(3)
O9C O -0.1001(5) 0.32496(15) 0.0924(3)
U1B U -0.04512(2) -0.083922(7) 0.642949(14)
#END
