
#######################################################################
#
#                 Cambridge Crystallographic Data Centre
#                                CCDC
#
#######################################################################
#
# If this CIF has been generated from an entry in the Cambridge
# Structural Database, then it will include bibliographic, chemical,
# crystal, experimental, refinement or atomic coordinate data resulting
# from the CCDC's data processing and validation procedures.
#
#######################################################################

data_CSD_CIF_BUCSIE
_audit_creation_date 2019-12-28
_audit_creation_method CSD-ConQuest-V1
_database_code_CSD BUCSIE
_database_code_depnum_ccdc_archive 'CCDC 1938025'
_chemical_formula_sum 'C55 H56 N4 O16 Zn2'
_chemical_formula_moiety
;
(C42 H24 N2 O14 Zn2 2-)n,C13 H28 N2 2+,2(H2 O1)
;
_journal_coden_Cambridge 119
_journal_volume 1205
_journal_year 2020
_journal_page_first 127620
_journal_name_full 'J.Mol.Struct. '
loop_
_publ_author_name
"Yan-Ning Wang"
"Shao-Dan Wang"
"He Qi"
"Wen-Jing Wang"
"Xuan-Xuan Hao"
_chemical_name_systematic
;
catena-[4,4'-(propane-1,3-diyl)bis(piperidin-1-ium) 
bis(\m-3-(4-carboxylatophenoxy)benzene-1,2-dicarboxylato)-(\m-4,4'-[ethene-1,2
-diyl]dipyridine)-di-zinc(ii) dihydrate]
;
_cell_volume   2677.078
_exptl_crystal_colour 'colorless'
_exptl_crystal_density_diffrn 1.439
_exptl_crystal_description 'block'
_diffrn_ambient_temperature 297.0
#These two values have been output from a single CSD field.
_refine_ls_R_factor_gt 0.0345
_refine_ls_wR_factor_gt 0.0345
_symmetry_cell_setting triclinic
_symmetry_space_group_name_H-M 'P -1'
_symmetry_Int_Tables_number 2
loop_
_symmetry_equiv_pos_site_id
_symmetry_equiv_pos_as_xyz
1 x,y,z
2 -x,-y,-z
_cell_length_a 13.0318(4)
_cell_length_b 14.7999(5)
_cell_length_c 15.1495(5)
_cell_angle_alpha 85.839(1)
_cell_angle_beta 67.979(1)
_cell_angle_gamma 81.290(1)
_cell_formula_units_Z 2
loop_
_atom_type_symbol
_atom_type_radius_bond
C 0.68
H 0.23
N 0.68
O 0.68
Zn 1.22
loop_
_atom_site_label
_atom_site_type_symbol
_atom_site_fract_x
_atom_site_fract_y
_atom_site_fract_z
Zn1 Zn 0.16038(2) 0.36907(2) 0.28984(2)
Zn2 Zn 0.59190(2) 0.17833(2) 0.20357(2)
O1 O 0.23506(11) 0.29466(9) 0.17217(10)
O2 O 0.21862(11) 0.34973(10) -0.02011(11)
O3 O 0.51724(12) 0.25153(11) 0.31720(11)
O4 O 0.53520(12) 0.19584(11) 0.51393(13)
O5 O 0.36642(13) 0.38599(10) 0.10545(11)
O6 O 0.49021(12) 0.20135(12) 0.13467(12)
O7 O 0.27478(12) 0.33980(11) 0.34647(11)
N1 N -0.34052(15) 1.04974(12) 0.22956(14)
C1 C 0.32246(16) 0.31820(13) 0.10565(15)
O8 O -0.26000(12) 0.21839(12) 0.13765(12)
N2 N 0.11609(13) 0.50426(11) 0.26108(12)
O9 O 0.39722(14) 0.15162(11) 0.38572(13)
O10 O 1.00816(13) 0.33773(13) 0.33702(13)
C2 C 0.43483(17) 0.22343(15) 0.38488(16)
C3 C 0.36385(15) 0.25891(13) 0.01837(14)
C4 C 0.13058(18) 0.53730(15) 0.17336(16)
H1 H 0.17930 0.50290 0.12150
C5 C 0.64356(17) 0.21661(16) 0.47532(16)
C6 C 0.11069(16) 0.32905(15) 0.02279(15)
C7 C 0.45502(16) 0.18942(15) -0.00589(16)
C8 C 0.39075(16) 0.28265(14) 0.47150(15)
C9 C 0.30580(16) 0.27713(15) -0.04295(16)
C10 C 0.44771(17) 0.26808(17) 0.53356(17)
O11 O 1.05491(13) 0.19776(13) 0.38463(14)
C11 C -0.36806(19) 1.00823(16) 0.31501(17)
H2 H -0.43180 1.03300 0.36430
C12 C 0.29856(16) 0.35087(14) 0.49334(15)
C13 C 0.08120(17) 0.24236(15) 0.03267(16)
H3 H 0.13560 0.19190 0.01190
O12 O 0.61459(15) 0.11381(15) 0.02068(16)
O13 O 0.13850(14) 0.41604(14) 0.46073(13)
C14 C 0.07636(19) 0.62024(15) 0.15654(16)
H4 H 0.08860 0.64050 0.09430
C15 C 0.52658(18) 0.16541(15) 0.05315(18)
C16 C -0.11264(16) 0.30580(15) 0.10599(16)
C17 C 0.23117(17) 0.37078(15) 0.43063(16)
C18 C -0.23490(17) 0.29616(16) 0.14505(17)
O14 O -0.30183(14) 0.36396(13) 0.18032(17)
C19 C 0.00320(16) 0.67382(14) 0.23249(15)
C20 C 0.83607(18) 0.15831(17) 0.43605(17)
H5 H 0.89150 0.10970 0.43330
C21 C 0.04889(17) 0.55727(15) 0.33458(16)
H6 H 0.03960 0.53610 0.39610
C22 C -0.14402(18) 0.80795(15) 0.27994(17)
H7 H -0.16320 0.78740 0.34280
C23 C -0.00672(17) 0.64137(14) 0.32309(15)
H8 H -0.05080 0.67630 0.37600
C24 C -0.03084(17) 0.23136(15) 0.07410(16)
H9 H -0.05140 0.17300 0.08060
C25 C 0.03057(18) 0.40373(16) 0.05609(18)
H10 H 0.05140 0.46190 0.05050
C26 C 0.78186(19) 0.31577(17) 0.40862(19)
H11 H 0.80090 0.37350 0.38650
C27 C 0.67081(19) 0.30251(17) 0.44322(19)
H12 H 0.61540 0.35080 0.44480
C28 C 0.86548(17) 0.24473(16) 0.40627(16)
C29 C -0.20980(18) 0.89166(14) 0.26152(16)
C30 C 0.98484(18) 0.26037(17) 0.37424(17)
C31 C 0.72575(18) 0.14332(16) 0.46978(17)
H13 H 0.70680 0.08490 0.48850
C32 C -0.3058(2) 0.93006(16) 0.33323(17)
H14 H -0.32840 0.90310 0.39370
C33 C -0.08019(18) 0.39188(16) 0.09757(18)
H15 H -0.13400 0.44230 0.12030
C34 C -0.2484(2) 1.01222(16) 0.15995(18)
H16 H -0.22860 1.03960 0.09970
C35 C 0.33457(19) 0.23022(19) -0.12576(17)
H17 H 0.29510 0.24500 -0.16600
C36 C 0.48186(19) 0.14078(18) -0.08864(19)
H18 H 0.54110 0.09350 -0.10410
C37 C 0.4166(2) 0.3180(2) 0.61445(18)
H19 H 0.45570 0.30600 0.65520
C38 C -0.05995(18) 0.75931(14) 0.21483(16)
H20 H -0.03900 0.78120 0.15230
C39 C 0.26806(19) 0.40246(17) 0.57490(17)
H21 H 0.20740 0.44840 0.58900
C40 C 0.4235(2) 0.1605(2) -0.14809(19)
H22 H 0.44360 0.12720 -0.20320
C41 C -0.1818(2) 0.93529(16) 0.17305(18)
H23 H -0.11800 0.91250 0.12270
C42 C 0.3264(2) 0.3864(2) 0.6347(2)
H24 H 0.30540 0.42140 0.68870
C43 C 0.1444(4) 0.0700(2) 0.1907(3)
H25 H 0.19040 0.05100 0.12630
H26 H 0.08100 0.11250 0.18830
N3 N 0.49474(16) -0.55751(13) 0.20478(16)
C44 C 0.39356(18) -0.36575(14) 0.22591(16)
H27 H 0.45470 -0.33550 0.22740
C45 C 0.20027(19) -0.07891(15) 0.26044(17)
H28 H 0.24850 -0.10130 0.19690
C46 C 0.43427(19) -0.41562(15) 0.13198(17)
H29 H 0.37220 -0.44030 0.12640
H30 H 0.45960 -0.37210 0.07990
C47 C 0.46093(19) -0.51169(15) 0.29692(17)
H31 H 0.52420 -0.48700 0.30030
H32 H 0.43790 -0.55600 0.34860
C48 C 0.2680(2) -0.02955(17) 0.2987(2)
H33 H 0.22290 -0.01130 0.36350
H34 H 0.33240 -0.07120 0.30010
C49 C 0.1556(2) -0.16014(16) 0.32302(19)
H35 H 0.10290 -0.18230 0.30130
H36 H 0.11490 -0.13930 0.38770
C50 C 0.29553(19) -0.29246(15) 0.23252(17)
H37 H 0.32020 -0.24930 0.18000
H38 H 0.23760 -0.32120 0.22440
C51 C 0.36541(19) -0.43505(15) 0.30839(17)
H39 H 0.34780 -0.40400 0.36750
H40 H 0.29970 -0.46090 0.31230
C52 C 0.2449(2) -0.24001(16) 0.32423(18)
H41 H 0.30390 -0.21650 0.33640
H42 H 0.21180 -0.28160 0.37620
N4 N 0.2101(3) 0.11543(17) 0.2312(2)
C53 C 0.52840(19) -0.49266(17) 0.12264(18)
H43 H 0.54710 -0.52480 0.06390
H44 H 0.59410 -0.46770 0.12020
C54 C 0.1043(3) -0.0113(2) 0.2510(2)
H45 H 0.06310 -0.04180 0.22300
H46 H 0.05360 0.00880 0.31380
C55 C 0.3069(3) 0.0538(2) 0.2397(2)
H47 H 0.34490 0.08580 0.26940
H48 H 0.35940 0.03550 0.17690
H49 H 0.55530 -0.59920 0.19580
H50 H 0.23500 0.15730 0.20020
H51 H 0.441(2) -0.5842(18) 0.2011(18)
H52 H 0.161(3) 0.135(2) 0.294(3)
O15 O 0.8467(2) 0.1430(3) -0.0551(2)
H53 H 0.78490 0.13570 -0.05850
H54 H 0.82870 0.16670 -0.00100
O16 O 0.8256(2) 0.8711(2) 0.49339(17)
H55 H 0.76160 0.86440 0.53470
H56 H 0.87130 0.84080 0.51600
Zn1* Zn 1.16038(2) 0.36907(2) 0.28984(2)
Zn2* Zn -0.40810(2) 0.17833(2) 0.20357(2)
Zn2** Zn -0.40810(2) 1.17833(2) 0.20357(2)
N1* N 0.65948(15) 0.04974(12) 0.22956(14)
O8* O 0.74000(12) 0.21839(12) 0.13765(12)
O10* O 0.00816(13) 0.33773(13) 0.33702(13)
#END
