
#######################################################################
#
#                 Cambridge Crystallographic Data Centre
#                                CCDC
#
#######################################################################
#
# If this CIF has been generated from an entry in the Cambridge
# Structural Database, then it will include bibliographic, chemical,
# crystal, experimental, refinement or atomic coordinate data resulting
# from the CCDC's data processing and validation procedures.
#
#######################################################################

data_CSD_CIF_BUDHAL
_audit_creation_date 2015-03-10
_audit_creation_method CSD-ConQuest-V1
_database_code_CSD BUDHAL
_database_code_depnum_ccdc_archive 'CCDC 1043731'
_chemical_formula_sum 'C60.6 H75.2 Cl1.2 Cu7 Fe1 I6 N5 P6'
_chemical_formula_moiety
;
(C44 H50 Cu7 I6 N2 P6 1-)n,n(C16 H24 Fe1 N3 1+),0.6n(C1 H2 Cl2)
;
_journal_coden_Cambridge 222
_journal_volume 44
_journal_year 2015
_journal_page_first 6502
_journal_name_full 'Dalton Trans. '
loop_
_publ_author_name
"C.Heindl"
"A.Kuntz"
"E.V.Peresypkina"
"A.V.Virovets"
"M.Zabel"
"D.Ludeker"
"G.Brunklaus"
"M.Scheer"
_chemical_name_systematic
;
catena-(tris(Acetonitrile)-(\h^5^-pentamethyl-cyclopentadienyl)-iron 
(\m~7~-3,5-dimesityl-1,2,4-triphospholanyl)-(\m~6~-3,5-dimesityl-1,2,4-triphos
pholanyl)-hexakis(\m~2~-iodo)-bis(acetonitrile)-hepta-copper dichloromethane 
solvate)
;
_cell_volume   8042.296
_exptl_crystal_colour 'red'
_exptl_crystal_density_diffrn 1.953
_exptl_crystal_description 'rod'
_diffrn_ambient_temperature 123.0
#These two values have been output from a single CSD field.
_refine_ls_R_factor_gt 0.0468
_refine_ls_wR_factor_gt 0.0468
_symmetry_cell_setting monoclinic
_symmetry_space_group_name_H-M 'P 21/n'
_symmetry_Int_Tables_number 14
loop_
_symmetry_equiv_pos_site_id
_symmetry_equiv_pos_as_xyz
1 x,y,z
2 1/2-x,1/2+y,1/2-z
3 -x,-y,-z
4 -1/2+x,-1/2-y,-1/2+z
_cell_length_a 12.5667(6)
_cell_length_b 29.4452(14)
_cell_length_c 21.7343(11)
_cell_angle_alpha 90
_cell_angle_beta 90.144(5)
_cell_angle_gamma 90
_cell_formula_units_Z 4
loop_
_atom_type_symbol
_atom_type_radius_bond
C 0.68
H 0.23
Cl 0.99
Cu 1.32
Fe 1.52
I 1.40
N 0.68
P 1.05
loop_
_atom_site_label
_atom_site_type_symbol
_atom_site_fract_x
_atom_site_fract_y
_atom_site_fract_z
I1 I 0.65190(4) 0.14206(2) 1.16762(2)
I2 I 0.85339(4) 0.27137(2) 1.17063(2)
I3 I 0.80257(4) 0.35648(2) 1.00017(2)
I4 I 0.70838(4) 0.27526(2) 0.83508(2)
I5 I 0.82632(4) 0.12866(2) 0.84151(2)
I6 I 0.72304(4) 0.05120(2) 1.00860(2)
Cu1 Cu 0.72982(10) 0.12991(4) 1.06135(5)
Cu2 Cu 0.76047(8) 0.20567(3) 1.11182(5)
Cu3 Cu 0.78895(10) 0.28220(4) 1.06109(6)
Cu4 Cu 0.7763(1) 0.27873(4) 0.94683(6)
Cu5 Cu 0.76675(11) 0.20290(4) 0.89545(5)
Cu6 Cu 0.74830(11) 0.12702(4) 0.94905(6)
Cu7 Cu 0.26478(8) 0.20494(3) 1.06727(5)
P1 P 0.62311(13) 0.18164(5) 0.97393(7)
P2 P 0.64538(13) 0.23852(5) 1.03180(8)
P3 P 0.41694(13) 0.21897(5) 1.01623(8)
P4 P -0.09762(13) 0.22477(5) 0.97425(8)
P5 P -0.11867(13) 0.17053(5) 1.03656(7)
P6 P 0.11016(13) 0.18989(5) 1.01844(8)
N1 N 0.2323(5) 0.2540(2) 1.1278(3)
N2 N 0.3056(5) 0.1542(2) 1.1252(3)
C1 C 0.4860(5) 0.1790(2) 0.9728(3)
C2 C 0.5160(5) 0.2529(2) 1.0478(3)
C3 C 0.4228(5) 0.1486(2) 0.9323(3)
C4 C 0.3979(6) 0.1636(3) 0.8726(4)
C5 C 0.3296(8) 0.1387(4) 0.8353(4)
C6 C 0.2828(7) 0.0982(3) 0.8563(5)
C7 C 0.3121(7) 0.0828(3) 0.9140(5)
C8 C 0.3818(6) 0.1061(2) 0.9531(4)
C9 C 0.4376(7) 0.2090(3) 0.8500(4)
C10 C 0.205(1) 0.0724(5) 0.8169(7)
C11 C 0.4131(9) 0.0863(3) 1.0140(5)
C12 C 0.4893(5) 0.2959(2) 1.0810(3)
C13 C 0.4708(6) 0.3356(2) 1.0458(4)
C14 C 0.4491(7) 0.3761(2) 1.0761(4)
C15 C 0.4452(7) 0.3782(3) 1.1405(4)
C16 C 0.4624(6) 0.3386(2) 1.1738(4)
C17 C 0.4837(6) 0.2979(2) 1.1452(4)
C18 C 0.4759(6) 0.3351(2) 0.9773(4)
C19 C 0.4228(10) 0.4231(3) 1.1723(5)
C20 C 0.4989(7) 0.2551(2) 1.1840(3)
C21 C 0.0142(5) 0.1570(2) 1.0517(3)
C22 C 0.0394(5) 0.2282(2) 0.9726(3)
C23 C 0.0445(5) 0.1173(2) 1.0903(3)
C24 C 0.0591(6) 0.1216(2) 1.1552(4)
C25 C 0.0970(7) 0.0844(3) 1.1873(4)
C26 C 0.1142(7) 0.0423(3) 1.1598(6)
C27 C 0.0972(7) 0.0381(2) 1.0968(5)
C28 C 0.0656(6) 0.0755(2) 1.0609(4)
C29 C 0.0434(7) 0.1657(3) 1.1868(4)
C30 C 0.1476(10) 0.0011(3) 1.1972(7)
C31 C 0.0526(7) 0.0699(3) 0.9928(4)
C32 C 0.1018(5) 0.2595(2) 0.9331(3)
C33 C 0.1310(6) 0.2457(3) 0.8732(4)
C34 C 0.1996(7) 0.2735(3) 0.8389(4)
C35 C 0.2390(7) 0.3127(3) 0.8609(4)
C36 C 0.2067(6) 0.3275(3) 0.9202(4)
C37 C 0.1387(6) 0.3013(2) 0.9562(4)
C38 C 0.0911(7) 0.2019(3) 0.8465(4)
C39 C 0.3163(8) 0.3416(4) 0.8255(5)
C40 C 0.1079(6) 0.3196(3) 1.0194(4)
C41 C 0.2050(7) 0.2818(3) 1.1618(4)
C42 C 0.1679(8) 0.3179(3) 1.2011(4)
C43 C 0.3347(6) 0.1224(3) 1.1506(4)
C44 C 0.3730(8) 0.0804(3) 1.1783(5)
H1 H 0.31460 0.14890 0.79580
H2 H 0.28390 0.05540 0.92760
H3 H 0.51380 0.20830 0.84690
H4 H 0.41690 0.23230 0.87840
H5 H 0.40740 0.21530 0.81030
H6 H 0.13410 0.08260 0.82550
H7 H 0.21060 0.04050 0.82570
H8 H 0.22090 0.07760 0.77430
H9 H 0.35850 0.09240 1.04360
H10 H 0.47880 0.09980 1.02740
H11 H 0.42220 0.05410 1.00980
H12 H 0.43680 0.40240 1.05330
H13 H 0.45930 0.33960 1.21650
H14 H 0.45070 0.36360 0.96150
H15 H 0.43220 0.31100 0.96170
H16 H 0.54820 0.33050 0.96450
H17 H 0.38310 0.41770 1.20930
H18 H 0.38230 0.44240 1.14530
H19 H 0.48890 0.43780 1.18250
H20 H 0.57360 0.24920 1.18890
H21 H 0.46570 0.22980 1.16370
H22 H 0.46700 0.25950 1.22360
H23 H 0.11160 0.08760 1.22910
H24 H 0.10690 0.01000 1.07810
H25 H 0.05480 0.16190 1.23020
H26 H -0.02780 0.17620 1.17970
H27 H 0.09310 0.18750 1.17110
H28 H 0.17350 -0.02210 1.17020
H29 H 0.08750 -0.01020 1.21970
H30 H 0.20290 0.00970 1.22550
H31 H 0.06590 0.03880 0.98180
H32 H 0.10230 0.08920 0.97190
H33 H -0.01860 0.07800 0.98110
H34 H 0.21870 0.26430 0.79950
H35 H 0.23140 0.35510 0.93530
H36 H 0.12110 0.19760 0.80630
H37 H 0.01500 0.20280 0.84340
H38 H 0.11190 0.17720 0.87260
H39 H 0.38700 0.33650 0.84080
H40 H 0.29800 0.37300 0.83060
H41 H 0.31300 0.33370 0.78270
H42 H 0.16860 0.33390 1.03810
H43 H 0.08390 0.29510 1.04490
H44 H 0.05180 0.34150 1.01490
H45 H 0.18730 0.34670 1.18360
H46 H 0.19980 0.31490 1.24110
H47 H 0.09190 0.31620 1.20470
H48 H 0.34140 0.05500 1.15750
H49 H 0.35400 0.07970 1.22100
H50 H 0.44900 0.07890 1.17440
Fe1 Fe 0.91949(10) 0.50950(4) 1.17550(5)
N3 N 0.7965(6) 0.5270(2) 1.2237(3)
N4 N 0.9705(6) 0.5708(2) 1.1843(3)
N5 N 0.9866(6) 0.4886(2) 1.2515(4)
C45 C 0.7288(7) 0.5380(3) 1.2547(5)
C46 C 0.6438(10) 0.5509(4) 1.2933(8)
C47 C 0.9960(6) 0.6092(2) 1.1837(3)
C48 C 1.0304(7) 0.6561(3) 1.1822(5)
C49 C 1.0186(7) 0.4727(3) 1.2948(4)
C50 C 1.0597(8) 0.4510(4) 1.3510(6)
C51 C 0.9216(8) 0.4442(3) 1.1371(4)
C52 C 1.0109(8) 0.4706(3) 1.1177(4)
C53 C 0.9703(11) 0.5101(3) 1.0849(4)
C54 C 0.8569(10) 0.5091(3) 1.0875(4)
C55 C 0.8278(8) 0.4677(3) 1.1190(4)
C56 C 0.924(1) 0.4005(3) 1.1708(6)
C57 C 1.1246(9) 0.4559(5) 1.1260(7)
C58 C 1.0372(14) 0.5459(4) 1.0558(5)
C59 C 0.7806(15) 0.5417(4) 1.0580(6)
C60 C 0.7175(9) 0.4510(4) 1.1287(5)
H51 H 0.63480 0.58320 1.29160
H52 H 0.65940 0.54190 1.33480
H53 H 0.57960 0.53630 1.27980
H54 H 1.10510 0.65760 1.19140
H55 H 0.99150 0.67320 1.21230
H56 H 1.01740 0.66850 1.14200
H57 H 1.03600 0.46780 1.38630
H58 H 1.13600 0.45080 1.35010
H59 H 1.03380 0.42040 1.35340
H60 H 0.85980 0.39720 1.19420
H61 H 0.98420 0.40000 1.19810
H62 H 0.92970 0.37590 1.14190
H63 H 1.13260 0.44120 1.16520
H64 H 1.17040 0.48190 1.12430
H65 H 1.14350 0.43500 1.09390
H66 H 1.04660 0.53900 1.01300
H67 H 1.10540 0.54680 1.07580
H68 H 1.00280 0.57480 1.05990
H69 H 0.81510 0.57040 1.05200
H70 H 0.71990 0.54560 1.08420
H71 H 0.75800 0.52980 1.01900
H72 H 0.69130 0.43780 1.09120
H73 H 0.67260 0.47580 1.14050
H74 H 0.71760 0.42840 1.16060
Cl1 Cl 1.4814(5) 0.55663(19) 1.1360(4)
Cl2 Cl 1.2606(4) 0.57386(19) 1.1605(2)
C61 C 1.3780(13) 0.5954(5) 1.1314(8)
H75 H 1.39730 0.62260 1.15410
H76 H 1.36730 0.60390 1.08870
Cu1* Cu -0.27018(10) 0.12991(4) 1.06135(5)
Cu2* Cu -0.23953(8) 0.20567(3) 1.11182(5)
Cu4* Cu -0.2237(1) 0.27873(4) 0.94683(6)
Cu5* Cu -0.23325(11) 0.20290(4) 0.89545(5)
Cu6* Cu -0.25170(11) 0.12702(4) 0.94905(6)
P4* P 0.90238(13) 0.22477(5) 0.97425(8)
P5* P 0.88133(13) 0.17053(5) 1.03656(7)
#END
