
#######################################################################
#
#                 Cambridge Crystallographic Data Centre
#                                CCDC
#
#######################################################################
#
# If this CIF has been generated from an entry in the Cambridge
# Structural Database, then it will include bibliographic, chemical,
# crystal, experimental, refinement or atomic coordinate data resulting
# from the CCDC's data processing and validation procedures.
#
#######################################################################

data_CSD_CIF_BUFNUM
_audit_creation_date 2009-12-08
_audit_creation_method CSD-ConQuest-V1
_database_code_CSD BUFNUM
_database_code_depnum_ccdc_archive 'CCDC 733316'
_chemical_formula_sum 'C336 H333 Cd13.5 O60'
_chemical_formula_moiety
;
(Cd1 2+)1.5n,3n(H3 O1 1+),n(C336 H312 Cd12 O51 6-),6n(H2 O1)
;
_journal_coden_Cambridge 4
_journal_volume 131
_journal_year 2009
_journal_page_first 3814
_journal_name_full 'J.Am.Chem.Soc. '
loop_
_publ_author_name
"S.Das"
"Hyunuk Kim"
"K.Kim"
_chemical_name_systematic
;
catena-(Sesqui-cadmium(ii) tris(oxonium) 
octakis(\m~6~-5,5,10,10,15,15-hexaethyl-10,15-dihydro-5H-diindeno[1,2-a:1',2'-
c]fluorene-2,7,12-tricarboxylato)-tris(\m~4~-oxo)-dodeca-cadmium(ii) 
hexahydrate)
;
_chemical_name_common
;
catena-(Sesqui-cadmium(ii) tris(oxonium) 
octakis(mu!6$-5,5,10,10,15,15-hexaethyltruxene-2,7,12-tricarboxylato)-tris(mu!
4$-oxo)-dodeca-cadmium(ii) hexahydrate)
;
_cell_volume 115401.721
_exptl_special_details
;
crystal soaked in Pb(NO3)2 solution for 10 mins
Large structure in which program limits have been exceeded. A partial diagram 
showing the coordination of the ligands and the coordination of the Cd atoms 
has been input; The Cd atoms do not appear to be coordinated to water 
molecules as stated in the paper; The charge balancing Cd cations and oxonium 
cations could not be located and the exact identity and number of these 
cations is unclear; The total number of uncoordinated water molecules is 
unclear
;
_diffrn_ambient_temperature 90
_diffrn_radiation_probe x-ray
_diffrn_source synchrotron
_refine_special_details
;
A number of uncoordinated water molecules are disordered. The Cd atom is 
partially occupied by a Pb atom with Cd:Pb occupancies 0.76:0.24, 
respectively. The sum formula is (Cd1 2+)1.5n,3n(H3 O1 1+),n(C336 H312 Cd9.12 
O51 Pb2.88 6-),6n(H2 O1).
;
#These two values have been output from a single CSD field.
_refine_ls_R_factor_gt 0.08
_refine_ls_wR_factor_gt 0.08
_symmetry_cell_setting cubic
_symmetry_space_group_name_H-M 'F m -3 c'
_symmetry_Int_Tables_number 226
loop_
_symmetry_equiv_pos_site_id
_symmetry_equiv_pos_as_xyz
1 x,y,z
2 z,x,y
3 y,z,x
4 1/2+y,1/2+x,1/2-z
5 1/2+y,1/2-x,1/2+z
6 1/2-y,1/2+x,1/2+z
7 1/2+x,1/2+z,1/2-y
8 1/2-x,1/2+z,1/2+y
9 1/2+x,1/2-z,1/2+y
10 1/2+z,1/2+y,1/2-x
11 1/2+z,1/2-y,1/2+x
12 1/2-z,1/2+y,1/2+x
13 x,1/2+y,1/2+z
14 z,1/2+x,1/2+y
15 y,1/2+z,1/2+x
16 1/2+y,x,-z
17 1/2+y,-x,z
18 1/2-y,x,z
19 1/2+x,z,-y
20 1/2-x,z,y
21 1/2+x,-z,y
22 1/2+z,y,-x
23 1/2+z,-y,x
24 1/2-z,y,x
25 1/2+x,y,1/2+z
26 1/2+z,x,1/2+y
27 1/2+y,z,1/2+x
28 y,1/2+x,-z
29 y,1/2-x,z
30 -y,1/2+x,z
31 x,1/2+z,-y
32 -x,1/2+z,y
33 x,1/2-z,y
34 z,1/2+y,-x
35 z,1/2-y,x
36 -z,1/2+y,x
37 1/2+x,1/2+y,z
38 1/2+z,1/2+x,y
39 1/2+y,1/2+z,x
40 y,x,1/2-z
41 y,-x,1/2+z
42 -y,x,1/2+z
43 x,z,1/2-y
44 -x,z,1/2+y
45 x,-z,1/2+y
46 z,y,1/2-x
47 z,-y,1/2+x
48 -z,y,1/2+x
49 -x,-y,z
50 -x,y,-z
51 x,-y,-z
52 z,-x,-y
53 -z,-x,y
54 -z,x,-y
55 -y,z,-x
56 y,-z,-x
57 -y,-z,x
58 1/2-y,1/2-x,1/2-z
59 1/2-x,1/2-z,1/2-y
60 1/2-z,1/2-y,1/2-x
61 -x,1/2-y,1/2+z
62 -x,1/2+y,1/2-z
63 x,1/2-y,1/2-z
64 z,1/2-x,1/2-y
65 -z,1/2-x,1/2+y
66 -z,1/2+x,1/2-y
67 -y,1/2+z,1/2-x
68 y,1/2-z,1/2-x
69 -y,1/2-z,1/2+x
70 1/2-y,-x,-z
71 1/2-x,-z,-y
72 1/2-z,-y,-x
73 1/2-x,-y,1/2+z
74 1/2-x,y,1/2-z
75 1/2+x,-y,1/2-z
76 1/2+z,-x,1/2-y
77 1/2-z,-x,1/2+y
78 1/2-z,x,1/2-y
79 1/2-y,z,1/2-x
80 1/2+y,-z,1/2-x
81 1/2-y,-z,1/2+x
82 -y,1/2-x,-z
83 -x,1/2-z,-y
84 -z,1/2-y,-x
85 1/2-x,1/2-y,z
86 1/2-x,1/2+y,-z
87 1/2+x,1/2-y,-z
88 1/2+z,1/2-x,-y
89 1/2-z,1/2-x,y
90 1/2-z,1/2+x,-y
91 1/2-y,1/2+z,-x
92 1/2+y,1/2-z,-x
93 1/2-y,1/2-z,x
94 -y,-x,1/2-z
95 -x,-z,1/2-y
96 -z,-y,1/2-x
97 -x,-y,-z
98 -z,-x,-y
99 -y,-z,-x
100 -1/2-y,-1/2-x,-1/2+z
101 -1/2-y,-1/2+x,-1/2-z
102 -1/2+y,-1/2-x,-1/2-z
103 -1/2-x,-1/2-z,-1/2+y
104 -1/2+x,-1/2-z,-1/2-y
105 -1/2-x,-1/2+z,-1/2-y
106 -1/2-z,-1/2-y,-1/2+x
107 -1/2-z,-1/2+y,-1/2-x
108 -1/2+z,-1/2-y,-1/2-x
109 -x,-1/2-y,-1/2-z
110 -z,-1/2-x,-1/2-y
111 -y,-1/2-z,-1/2-x
112 -1/2-y,-x,z
113 -1/2-y,x,-z
114 -1/2+y,-x,-z
115 -1/2-x,-z,y
116 -1/2+x,-z,-y
117 -1/2-x,z,-y
118 -1/2-z,-y,x
119 -1/2-z,y,-x
120 -1/2+z,-y,-x
121 -1/2-x,-y,-1/2-z
122 -1/2-z,-x,-1/2-y
123 -1/2-y,-z,-1/2-x
124 -y,-1/2-x,z
125 -y,-1/2+x,-z
126 y,-1/2-x,-z
127 -x,-1/2-z,y
128 x,-1/2-z,-y
129 -x,-1/2+z,-y
130 -z,-1/2-y,x
131 -z,-1/2+y,-x
132 z,-1/2-y,-x
133 -1/2-x,-1/2-y,-z
134 -1/2-z,-1/2-x,-y
135 -1/2-y,-1/2-z,-x
136 -y,-x,-1/2+z
137 -y,x,-1/2-z
138 y,-x,-1/2-z
139 -x,-z,-1/2+y
140 x,-z,-1/2-y
141 -x,z,-1/2-y
142 -z,-y,-1/2+x
143 -z,y,-1/2-x
144 z,-y,-1/2-x
145 x,y,-z
146 x,-y,z
147 -x,y,z
148 -z,x,y
149 z,x,-y
150 z,-x,y
151 y,-z,x
152 -y,z,x
153 y,z,-x
154 -1/2+y,-1/2+x,-1/2+z
155 -1/2+x,-1/2+z,-1/2+y
156 -1/2+z,-1/2+y,-1/2+x
157 x,-1/2+y,-1/2-z
158 x,-1/2-y,-1/2+z
159 -x,-1/2+y,-1/2+z
160 -z,-1/2+x,-1/2+y
161 z,-1/2+x,-1/2-y
162 z,-1/2-x,-1/2+y
163 y,-1/2-z,-1/2+x
164 -y,-1/2+z,-1/2+x
165 y,-1/2+z,-1/2-x
166 -1/2+y,x,z
167 -1/2+x,z,y
168 -1/2+z,y,x
169 -1/2+x,y,-1/2-z
170 -1/2+x,-y,-1/2+z
171 -1/2-x,y,-1/2+z
172 -1/2-z,x,-1/2+y
173 -1/2+z,x,-1/2-y
174 -1/2+z,-x,-1/2+y
175 -1/2+y,-z,-1/2+x
176 -1/2-y,z,-1/2+x
177 -1/2+y,z,-1/2-x
178 y,-1/2+x,z
179 x,-1/2+z,y
180 z,-1/2+y,x
181 -1/2+x,-1/2+y,-z
182 -1/2+x,-1/2-y,z
183 -1/2-x,-1/2+y,z
184 -1/2-z,-1/2+x,y
185 -1/2+z,-1/2+x,-y
186 -1/2+z,-1/2-x,y
187 -1/2+y,-1/2-z,x
188 -1/2-y,-1/2+z,x
189 -1/2+y,-1/2+z,-x
190 y,x,-1/2+z
191 x,z,-1/2+y
192 z,y,-1/2+x
_cell_length_a 48.686(6)
_cell_length_b 48.686(6)
_cell_length_c 48.686(6)
_cell_angle_alpha 90
_cell_angle_beta 90
_cell_angle_gamma 90
_cell_formula_units_Z 8
loop_
_atom_type_symbol
_atom_type_radius_bond
C 0.68
H 0.23
Cd 1.74
O 0.78
Pb 1.46
loop_
_atom_site_label
_atom_site_type_symbol
_atom_site_fract_x
_atom_site_fract_y
_atom_site_fract_z
O1 O 0.4528(4) 0.25000 0.25000
O2 O 0.50000 0.1108(12) 0.284(1)
O3 O 0.50000 0.1489(13) 0.1723(14)
Cd1 Cd 0.50000 0.19908(4) 0.22418(3)
O4 O 0.46901(11) 0.19920(15) 0.26115(12)
O5 O 0.46523(11) 0.16180(14) 0.23722(13)
O6 O 0.50000 0.25000 0.25000
C1 C 0.45780(13) 0.17549(18) 0.25742(17)
C2 C 0.43584(13) 0.16641(17) 0.27575(13)
C3 C 0.42761(13) 0.18235(17) 0.29792(14)
H1 H 0.43650 0.19930 0.30170
C4 C 0.40638(12) 0.17328(14) 0.31439(13)
C5 C 0.39210(13) 0.14942(14) 0.30855(12)
C6 C 0.40102(14) 0.13364(15) 0.28682(13)
H2 H 0.39200 0.11680 0.28290
C7 C 0.42240(13) 0.14160(15) 0.27093(14)
H3 H 0.42830 0.13010 0.25630
C8 C 0.39573(15) 0.18726(14) 0.34009(15)
C9 C 0.37216(13) 0.16830(14) 0.34801(12)
C10 C 0.36976(13) 0.14642(13) 0.32925(13)
C11 C 0.41969(17) 0.1864(2) 0.36144(18)
H4 H 0.43520 0.19740 0.35420
H5 H 0.41340 0.19530 0.37860
C12 C 0.4303(2) 0.1573(2) 0.3685(2)
H6 H 0.41480 0.14550 0.37350
H7 H 0.44320 0.15840 0.38390
H8 H 0.43970 0.14960 0.35240
C13 C 0.38579(19) 0.21624(17) 0.33337(18)
H9 H 0.40150 0.22700 0.32620
H10 H 0.37960 0.22510 0.35060
C14 C 0.3622(2) 0.21732(19) 0.3122(3)
H11 H 0.36660 0.20530 0.29670
H12 H 0.35990 0.23620 0.30570
H13 H 0.34510 0.21110 0.32090
Pb1? Pb 0.30800(19) 0.2193(2) 0.00000
Pb2? Pb 0.50000 0.18488(13) 0.21432(16)
O7? O 0.50000 0.1987(7) 0.1349(8)
O8? O 0.50000 0.1187(8) 0.1959(6)
Cd1PA Cd 0.50000 0.22418(4) 0.30092(3)
Cd1FA Cd 0.50000 0.27582(4) 0.19908(3)
Cd1DD Cd 0.50000 0.30092(4) 0.27582(3)
Cd1DE Cd 0.30092 0.27582(4) 0.50000(3)
Cd1W Cd 0.27582 0.19908(4) 0.50000(3)
Cd1DF Cd 0.22418 0.00000(4) 0.30092(3)
Cd1VC Cd 0.30092 0.00000(4) 0.27582(3)
Cd1UA Cd 0.77582 0.19908(4) 0.00000(3)
Cd1Z Cd 0.69908 0.22418(4) 0.00000(3)
Cd1C Cd 0.69908 0.00000(4) 0.27582(3)
Cd1KA Cd 0.72418 0.00000(4) 0.19908(3)
Cd1HA Cd 0.22418 0.30092(4) 0.50000(3)
Cd1Q Cd 0.30092 0.50000(4) 0.22418(3)
Cd1QD Cd 0.27582 0.50000(4) 0.30092(3)
Cd1QE Cd 0.77582 0.50000(4) 0.19908(3)
Cd1P Cd 0.69908 0.50000(4) 0.22418(3)
Cd1J Cd 0.72418 0.30092(4) 0.00000(3)
O4FA O 0.46901(11) 0.23885(15) 0.19920(12)
O4PE O 0.53099(11) 0.19920(15) 0.26115(12)
O4VD O 0.53099(11) 0.23885(15) 0.19920(12)
O4NC O 0.30080(11) 0.23885(15) 0.46901(12)
O4KB O 0.26115(11) 0.03099(15) 0.30080(12)
O4PA O 0.46901(11) 0.26115(15) 0.30080(12)
O4DD O 0.53099(11) 0.30080(15) 0.23885(12)
O4JE O 0.53099(11) 0.26115(15) 0.30080(12)
O4JB O 0.46901(11) 0.30080(15) 0.23885(12)
O4LE O 0.73885(11) 0.19920(15) 0.03099(12)
O4WC O 0.69920(11) 0.03099(15) 0.23885(12)
O4HA O 0.26115(11) 0.30080(15) 0.46901(12)
O4Q O 0.30080(11) 0.46901(15) 0.26115(12)
O4QE O 0.73885(11) 0.46901(15) 0.19920(12)
O4TF O 0.69920(11) 0.26115(15) 0.03099(12)
O5PE O 0.53477(11) 0.16180(14) 0.23722(13)
O5NC O 0.33820(11) 0.26278(14) 0.46523(13)
O5KB O 0.23722(11) 0.03477(14) 0.33820(13)
O5DD O 0.53477(11) 0.33820(14) 0.26278(13)
O5JB O 0.46523(11) 0.33820(14) 0.26278(13)
O5PA O 0.46523(11) 0.23722(14) 0.33820(13)
O5JE O 0.53477(11) 0.23722(14) 0.33820(13)
O5FA O 0.46523(11) 0.26278(14) 0.16180(13)
O5VD O 0.53477(11) 0.26278(14) 0.16180(13)
O5LE O 0.76278(11) 0.16180(14) 0.03477(13)
O5WC O 0.66180(11) 0.03477(14) 0.26278(13)
O5HA O 0.23722(11) 0.33820(14) 0.46523(13)
O5Q O 0.33820(11) 0.46523(14) 0.23722(13)
O5QE O 0.76278(11) 0.46523(14) 0.16180(13)
O5TF O 0.66180(11) 0.23722(14) 0.03477(13)
C1NC C 0.32451(13) 0.24258(18) 0.45780(17)
C1KB C 0.25742(13) 0.04220(18) 0.32451(17)
C1VD C 0.54220(13) 0.24258(18) 0.17549(17)
C1PA C 0.45780(13) 0.25742(18) 0.32451(17)
C1DD C 0.54220(13) 0.32451(18) 0.24258(17)
C1LE C 0.74258(13) 0.17549(18) 0.04220(17)
C1WC C 0.67549(13) 0.04220(18) 0.24258(17)
C1HA C 0.25742(13) 0.32451(18) 0.45780(17)
C1Q C 0.32451(13) 0.45780(18) 0.25742(17)
C1QE C 0.74258(13) 0.45780(18) 0.17549(17)
C1TF C 0.67549(13) 0.25742(18) 0.04220(17)
C2NC C 0.33359(13) 0.22425(17) 0.43584(13)
C2KB C 0.27575(13) 0.06416(17) 0.33359(13)
C2VD C 0.56416(13) 0.22425(17) 0.16641(13)
C2PA C 0.43584(13) 0.27575(17) 0.33359(13)
C2DD C 0.56416(13) 0.33359(17) 0.22425(13)
C2LE C 0.72425(13) 0.16641(17) 0.06416(13)
C2WC C 0.66641(13) 0.06416(17) 0.22425(13)
C2HA C 0.27575(13) 0.33359(17) 0.43584(13)
C2Q C 0.33359(13) 0.43584(17) 0.27575(13)
C2QE C 0.72425(13) 0.43584(17) 0.16641(13)
C2TF C 0.66641(13) 0.27575(17) 0.06416(13)
C3NC C 0.31765(13) 0.20208(17) 0.42761(14)
C3KB C 0.29792(13) 0.07239(17) 0.31765(14)
C3VD C 0.57239(13) 0.20208(17) 0.18235(14)
C3PA C 0.42761(13) 0.29792(17) 0.31765(14)
C3DD C 0.57239(13) 0.31765(17) 0.20208(14)
C3LE C 0.70208(13) 0.18235(17) 0.07239(14)
C3WC C 0.68235(13) 0.07239(17) 0.20208(14)
C3HA C 0.29792(13) 0.31765(17) 0.42761(14)
C3Q C 0.31765(13) 0.42761(17) 0.29792(14)
C3QE C 0.70208(13) 0.42761(17) 0.18235(14)
C3TF C 0.68235(13) 0.29792(17) 0.07239(14)
H1NC H 0.30070 0.19830 0.43650
H1KB H 0.30170 0.06350 0.30070
H1VD H 0.56350 0.19830 0.19930
H1PA H 0.43650 0.30170 0.30070
H1DD H 0.56350 0.30070 0.19830
H1LE H 0.69830 0.19930 0.06350
H1WC H 0.69930 0.06350 0.19830
H1HA H 0.30170 0.30070 0.43650
H1Q H 0.30070 0.43650 0.30170
H1QE H 0.69830 0.43650 0.19930
H1TF H 0.69930 0.30170 0.06350
C4NC C 0.32672(12) 0.18561(14) 0.40638(13)
C4KB C 0.31439(12) 0.09362(14) 0.32672(13)
C4VD C 0.59362(12) 0.18561(14) 0.17328(13)
C4PA C 0.40638(12) 0.31439(14) 0.32672(13)
C4DD C 0.59362(12) 0.32672(14) 0.18561(13)
C4LE C 0.68561(12) 0.17328(14) 0.09362(13)
C4WC C 0.67328(12) 0.09362(14) 0.18561(13)
C4HA C 0.31439(12) 0.32672(14) 0.40638(13)
C4Q C 0.32672(12) 0.40638(14) 0.31439(13)
C4QE C 0.68561(12) 0.40638(14) 0.17328(13)
C4TF C 0.67328(12) 0.31439(14) 0.09362(13)
C5NC C 0.35058(13) 0.19145(14) 0.39210(12)
C5KB C 0.30855(13) 0.10790(14) 0.35058(12)
C5VD C 0.60790(13) 0.19145(14) 0.14942(12)
C5PA C 0.39210(13) 0.30855(14) 0.35058(12)
C5DD C 0.60790(13) 0.35058(14) 0.19145(12)
C5WC C 0.64942(13) 0.10790(14) 0.19145(12)
C5Q C 0.35058(13) 0.39210(14) 0.30855(12)
C5TF C 0.64942(13) 0.30855(14) 0.10790(12)
C5LE C 0.69145(13) 0.14942(14) 0.10790(12)
C5HA C 0.30855(13) 0.35058(14) 0.39210(12)
C5QE C 0.69145(13) 0.39210(14) 0.14942(12)
C6NC C 0.36636(14) 0.21318(15) 0.40102(13)
C6KB C 0.28682(14) 0.09898(15) 0.36636(13)
C6VD C 0.59898(14) 0.21318(15) 0.13364(13)
C6PA C 0.40102(14) 0.28682(15) 0.36636(13)
C6DD C 0.59898(14) 0.36636(15) 0.21318(13)
C6WC C 0.63364(14) 0.09898(15) 0.21318(13)
C6Q C 0.36636(14) 0.40102(15) 0.28682(13)
C6TF C 0.63364(14) 0.28682(15) 0.09898(13)
C6LE C 0.71318(14) 0.13364(15) 0.09898(13)
C6HA C 0.28682(14) 0.36636(15) 0.40102(13)
C6QE C 0.71318(14) 0.40102(15) 0.13364(13)
H2NC H 0.38320 0.21710 0.39200
H2KB H 0.28290 0.10800 0.38320
H2VD H 0.60800 0.21710 0.11680
H2PA H 0.39200 0.28290 0.38320
H2DD H 0.60800 0.38320 0.21710
H2WC H 0.61680 0.10800 0.21710
H2Q H 0.38320 0.39200 0.28290
H2TF H 0.61680 0.28290 0.10800
H2LE H 0.71710 0.11680 0.10800
H2HA H 0.28290 0.38320 0.39200
H2QE H 0.71710 0.39200 0.11680
C7NC C 0.35840(13) 0.22907(15) 0.42240(14)
C7KB C 0.27093(13) 0.07760(15) 0.35840(14)
C7VD C 0.57760(13) 0.22907(15) 0.14160(14)
C7PA C 0.42240(13) 0.27093(15) 0.35840(14)
C7DD C 0.57760(13) 0.35840(15) 0.22907(14)
C7WC C 0.64160(13) 0.07760(15) 0.22907(14)
C7Q C 0.35840(13) 0.42240(15) 0.27093(14)
C7TF C 0.64160(13) 0.27093(15) 0.07760(14)
C7LE C 0.72907(13) 0.14160(15) 0.07760(14)
C7HA C 0.27093(13) 0.35840(15) 0.42240(14)
C7QE C 0.72907(13) 0.42240(15) 0.14160(14)
H3NC H 0.36990 0.24370 0.42830
H3KB H 0.25630 0.07170 0.36990
H3VD H 0.57170 0.24370 0.13010
H3PA H 0.42830 0.25630 0.36990
H3DD H 0.57170 0.36990 0.24370
H3WC H 0.63010 0.07170 0.24370
H3Q H 0.36990 0.42830 0.25630
H3TF H 0.63010 0.25630 0.07170
H3LE H 0.74370 0.13010 0.07170
H3HA H 0.25630 0.36990 0.42830
H3QE H 0.74370 0.42830 0.13010
C8KB C 0.34009(15) 0.10427(14) 0.31274(15)
C8NC C 0.31274(15) 0.15991(14) 0.39573(15)
C8VD C 0.60427(15) 0.15991(14) 0.18726(15)
C8PA C 0.39573(15) 0.34009(14) 0.31274(15)
C8DD C 0.60427(15) 0.31274(14) 0.15991(15)
C8LE C 0.65991(15) 0.18726(14) 0.10427(15)
C8HA C 0.34009(15) 0.31274(14) 0.39573(15)
C8QE C 0.65991(15) 0.39573(14) 0.18726(15)
C8WC C 0.68726(15) 0.10427(14) 0.15991(15)
C8Q C 0.31274(15) 0.39573(14) 0.34009(15)
C8TF C 0.68726(15) 0.34009(14) 0.10427(15)
C9KB C 0.34801(13) 0.12784(14) 0.33170(12)
C9NC C 0.33170(13) 0.15199(14) 0.37216(12)
C9VD C 0.62784(13) 0.15199(14) 0.16830(12)
C9PA C 0.37216(13) 0.34801(14) 0.33170(12)
C9DD C 0.62784(13) 0.33170(14) 0.15199(12)
C9LE C 0.65199(13) 0.16830(14) 0.12784(12)
C9HA C 0.34801(13) 0.33170(14) 0.37216(12)
C9QE C 0.65199(13) 0.37216(14) 0.16830(12)
C9WC C 0.66830(13) 0.12784(14) 0.15199(12)
C9Q C 0.33170(13) 0.37216(14) 0.34801(12)
C9TF C 0.66830(13) 0.34801(14) 0.12784(12)
C10NC C 0.35358(13) 0.17075(13) 0.36976(13)
C10KB C 0.32925(13) 0.13024(13) 0.35358(13)
C10VD C 0.63024(13) 0.17075(13) 0.14642(13)
C10PA C 0.36976(13) 0.32925(13) 0.35358(13)
C10DD C 0.63024(13) 0.35358(13) 0.17075(13)
C10WC C 0.64642(13) 0.13024(13) 0.17075(13)
C10Q C 0.35358(13) 0.36976(13) 0.32925(13)
C10TF C 0.64642(13) 0.32925(13) 0.13024(13)
C10LE C 0.67075(13) 0.14642(13) 0.13024(13)
C10HA C 0.32925(13) 0.35358(13) 0.36976(13)
C10QE C 0.67075(13) 0.36976(13) 0.14642(13)
C11KB C 0.36144(17) 0.08031(20) 0.31360(18)
C11NC C 0.31360(17) 0.13856(20) 0.41969(18)
C11VD C 0.58031(17) 0.13856(20) 0.18640(18)
C11PA C 0.41969(17) 0.36144(20) 0.31360(18)
C11DD C 0.58031(17) 0.3136(2) 0.13856(18)
C11LE C 0.63856(17) 0.1864(2) 0.08031(18)
C11HA C 0.36144(17) 0.3136(2) 0.41969(18)
C11QE C 0.63856(17) 0.41969(20) 0.18640(18)
C11WC C 0.68640(17) 0.08031(20) 0.13856(18)
C11Q C 0.31360(17) 0.41969(20) 0.36144(18)
C11TF C 0.68640(17) 0.36144(20) 0.08031(18)
H4KB H 0.35420 0.06480 0.30260
H4NC H 0.30260 0.14580 0.43520
H4VD H 0.56480 0.14580 0.19740
H4PA H 0.43520 0.35420 0.30260
H4DD H 0.56480 0.30260 0.14580
H4LE H 0.64580 0.19740 0.06480
H4HA H 0.35420 0.30260 0.43520
H4QE H 0.64580 0.43520 0.19740
H4WC H 0.69740 0.06480 0.14580
H4Q H 0.30260 0.43520 0.35420
H4TF H 0.69740 0.35420 0.06480
H5KB H 0.37860 0.08660 0.30470
H5NC H 0.30470 0.12140 0.41340
H5VD H 0.58660 0.12140 0.19530
H5PA H 0.41340 0.37860 0.30470
H5DD H 0.58660 0.30470 0.12140
H5LE H 0.62140 0.19530 0.08660
H5HA H 0.37860 0.30470 0.41340
H5QE H 0.62140 0.41340 0.19530
H5WC H 0.69530 0.08660 0.12140
H5Q H 0.30470 0.41340 0.37860
H5TF H 0.69530 0.37860 0.08660
C12KB C 0.3685(2) 0.0697(2) 0.3427(2)
C12NC C 0.3427(2) 0.1315(2) 0.4303(2)
C12VD C 0.5697(2) 0.1315(2) 0.1573(2)
C12PA C 0.4303(2) 0.3685(2) 0.3427(2)
C12DD C 0.5697(2) 0.3427(2) 0.1315(2)
C12LE C 0.6315(2) 0.1573(2) 0.0697(2)
C12HA C 0.3685(2) 0.3427(2) 0.4303(2)
C12QE C 0.6315(2) 0.4303(2) 0.1573(2)
C12WC C 0.6573(2) 0.0697(2) 0.1315(2)
C12Q C 0.3427(2) 0.4303(2) 0.3685(2)
C12TF C 0.6573(2) 0.3685(2) 0.0697(2)
H6KB H 0.37350 0.08520 0.35450
H6NC H 0.35450 0.12650 0.41480
H6VD H 0.58520 0.12650 0.14550
H6PA H 0.41480 0.37350 0.35450
H6DD H 0.58520 0.35450 0.12650
H6LE H 0.62650 0.14550 0.08520
H6HA H 0.37350 0.35450 0.41480
H6QE H 0.62650 0.41480 0.14550
H6WC H 0.64550 0.08520 0.12650
H6Q H 0.35450 0.41480 0.37350
H6TF H 0.64550 0.37350 0.08520
H7KB H 0.38390 0.05680 0.34160
H7NC H 0.34160 0.11610 0.44320
H7VD H 0.55680 0.11610 0.15840
H7PA H 0.44320 0.38390 0.34160
H7DD H 0.55680 0.34160 0.11610
H7LE H 0.61610 0.15840 0.05680
H7HA H 0.38390 0.34160 0.44320
H7QE H 0.61610 0.44320 0.15840
H7WC H 0.65840 0.05680 0.11610
H7Q H 0.34160 0.44320 0.38390
H7TF H 0.65840 0.38390 0.05680
H8KB H 0.35240 0.06030 0.35040
H8NC H 0.35040 0.14760 0.43970
H8VD H 0.56030 0.14760 0.14960
H8PA H 0.43970 0.35240 0.35040
H8DD H 0.56030 0.35040 0.14760
H8LE H 0.64760 0.14960 0.06030
H8HA H 0.35240 0.35040 0.43970
H8QE H 0.64760 0.43970 0.14960
H8WC H 0.64960 0.06030 0.14760
H8Q H 0.35040 0.43970 0.35240
H8TF H 0.64960 0.35240 0.06030
C13KB C 0.33337(19) 0.11421(17) 0.28376(18)
C13NC C 0.28376(19) 0.16663(17) 0.38579(18)
C13VD C 0.61421(19) 0.16663(17) 0.21624(18)
C13PA C 0.38579(19) 0.33337(17) 0.28376(18)
C13DD C 0.61421(19) 0.28376(17) 0.16663(18)
C13LE C 0.66663(19) 0.21624(17) 0.11421(18)
C13HA C 0.33337(19) 0.28376(17) 0.38579(18)
C13QE C 0.66663(19) 0.38579(17) 0.21624(18)
C13WC C 0.71624(19) 0.11421(17) 0.16663(18)
C13Q C 0.28376(19) 0.38579(17) 0.33337(18)
C13TF C 0.71624(19) 0.33337(17) 0.11421(18)
H9KB H 0.32620 0.09850 0.27300
H9NC H 0.27300 0.17380 0.40150
H9VD H 0.59850 0.17380 0.22700
H9PA H 0.40150 0.32620 0.27300
H9DD H 0.59850 0.27300 0.17380
H9LE H 0.67380 0.22700 0.09850
H9HA H 0.32620 0.27300 0.40150
H9QE H 0.67380 0.40150 0.22700
H9WC H 0.72700 0.09850 0.17380
H9Q H 0.27300 0.40150 0.32620
H9TF H 0.72700 0.32620 0.09850
H10KB H 0.35060 0.12040 0.27490
H10NC H 0.27490 0.14940 0.37960
H10VD H 0.62040 0.14940 0.22510
H10PA H 0.37960 0.35060 0.27490
H10DD H 0.62040 0.27490 0.14940
H10LE H 0.64940 0.22510 0.12040
H10HA H 0.35060 0.27490 0.37960
H10QE H 0.64940 0.37960 0.22510
H10WC H 0.72510 0.12040 0.14940
H10Q H 0.27490 0.37960 0.35060
H10TF H 0.72510 0.35060 0.12040
C14KB C 0.3122(2) 0.13780(19) 0.28268(30)
C14NC C 0.28268(20) 0.18780(19) 0.3622(3)
C14VD C 0.6378(2) 0.18780(19) 0.21732(30)
C14PA C 0.3622(2) 0.31220(19) 0.28268(30)
C14DD C 0.6378(2) 0.28268(19) 0.1878(3)
C14LE C 0.6878(2) 0.21732(19) 0.1378(3)
C14HA C 0.3122(2) 0.28268(19) 0.3622(3)
C14QE C 0.6878(2) 0.36220(19) 0.21732(30)
C14WC C 0.71732(20) 0.13780(19) 0.1878(3)
C14Q C 0.28268(20) 0.36220(19) 0.3122(3)
C14TF C 0.71732(20) 0.31220(19) 0.1378(3)
H11KB H 0.29670 0.13340 0.29470
H11NC H 0.29470 0.20330 0.36660
H11VD H 0.63340 0.20330 0.20530
H11PA H 0.36660 0.29670 0.29470
H11DD H 0.63340 0.29470 0.20330
H11LE H 0.70330 0.20530 0.13340
H11HA H 0.29670 0.29470 0.36660
H11QE H 0.70330 0.36660 0.20530
H11WC H 0.70530 0.13340 0.20330
H11Q H 0.29470 0.36660 0.29670
H11TF H 0.70530 0.29670 0.13340
H12KB H 0.30570 0.14010 0.26380
H12NC H 0.26380 0.19430 0.35990
H12VD H 0.64010 0.19430 0.23620
H12PA H 0.35990 0.30570 0.26380
H12DD H 0.64010 0.26380 0.19430
H12LE H 0.69430 0.23620 0.14010
H12HA H 0.30570 0.26380 0.35990
H12QE H 0.69430 0.35990 0.23620
H12WC H 0.73620 0.14010 0.19430
H12Q H 0.26380 0.35990 0.30570
H12TF H 0.73620 0.30570 0.14010
H13KB H 0.32090 0.15490 0.28890
H13NC H 0.28890 0.17910 0.34510
H13VD H 0.65490 0.17910 0.21110
H13PA H 0.34510 0.32090 0.28890
H13DD H 0.65490 0.28890 0.17910
H13LE H 0.67910 0.21110 0.15490
H13HA H 0.32090 0.28890 0.34510
H13QE H 0.67910 0.34510 0.21110
H13WC H 0.71110 0.15490 0.17910
H13Q H 0.28890 0.34510 0.32090
H13TF H 0.71110 0.32090 0.15490
#END
