
#######################################################################
#
#                 Cambridge Crystallographic Data Centre
#                                CCDC
#
#######################################################################
#
# If this CIF has been generated from an entry in the Cambridge
# Structural Database, then it will include bibliographic, chemical,
# crystal, experimental, refinement or atomic coordinate data resulting
# from the CCDC's data processing and validation procedures.
#
#######################################################################

data_CSD_CIF_BUFNUM01
_audit_creation_date 2009-12-08
_audit_creation_method CSD-ConQuest-V1
_database_code_CSD BUFNUM01
_database_code_depnum_ccdc_archive 'CCDC 733317'
_chemical_formula_sum 'C336 H333 Cd13.5 O60'
_chemical_formula_moiety
;
(Cd1 2+)1.5n,3n(H3 O1 1+),n(C336 H312 Cd12 O51 6-),6n(H2 O1)
;
_journal_coden_Cambridge 4
_journal_volume 131
_journal_year 2009
_journal_page_first 3814
_journal_name_full 'J.Am.Chem.Soc. '
loop_
_publ_author_name
"S.Das"
"Hyunuk Kim"
"K.Kim"
_chemical_name_systematic
;
catena-(Sesqui-cadmium(ii) tris(oxonium) 
octakis(\m~6~-5,5,10,10,15,15-hexaethyl-10,15-dihydro-5H-diindeno[1,2-a:1',2'-
c]fluorene-2,7,12-tricarboxylato)-tris(\m~4~-oxo)-dodeca-cadmium(ii) 
hexahydrate)
;
_chemical_name_common
;
catena-(Sesqui-cadmium(ii) tris(oxonium) 
octakis(mu!6$-5,5,10,10,15,15-hexaethyltruxene-2,7,12-tricarboxylato)-tris(mu!
4$-oxo)-dodeca-cadmium(ii) hexahydrate)
;
_cell_volume 115309.303
_exptl_crystal_colour 'colorless'
_exptl_special_details
;
crystal soaked in Pb(NO3)2 solution for 20 mins
Large structure in which program limits have been exceeded. A partial diagram 
showing the coordination of the ligands and the coordination of the Cd atoms 
has been input; The Cd atoms do not appear to be coordinated to water 
molecules as stated in the paper; The charge balancing Cd cations and oxonium 
cations could not be located and the exact identity and number of these 
cations is unclear; The total number of uncoordinated water molecules is 
unclear
;
_exptl_crystal_description 'block'
_diffrn_ambient_temperature 90
_diffrn_radiation_probe x-ray
_diffrn_source synchrotron
_refine_special_details
;
A number of uncoordinated water molecules are disordered. The Cd atom is 
partially occupied by a Pb atom with Cd:Pb occupancies 0.66:0.34, 
respectively. The sum formula is (Cd1 2+)1.5n,3n(H3 O1 1+),n(C336 H312 Cd7.92 
O51 Pb4.08 6-),6n(H2 O1).
;
#These two values have been output from a single CSD field.
_refine_ls_R_factor_gt 0.0793
_refine_ls_wR_factor_gt 0.0793
_symmetry_cell_setting cubic
_symmetry_space_group_name_H-M 'F m -3 c'
_symmetry_Int_Tables_number 226
loop_
_symmetry_equiv_pos_site_id
_symmetry_equiv_pos_as_xyz
1 x,y,z
2 z,x,y
3 y,z,x
4 1/2+y,1/2+x,1/2-z
5 1/2+y,1/2-x,1/2+z
6 1/2-y,1/2+x,1/2+z
7 1/2+x,1/2+z,1/2-y
8 1/2-x,1/2+z,1/2+y
9 1/2+x,1/2-z,1/2+y
10 1/2+z,1/2+y,1/2-x
11 1/2+z,1/2-y,1/2+x
12 1/2-z,1/2+y,1/2+x
13 x,1/2+y,1/2+z
14 z,1/2+x,1/2+y
15 y,1/2+z,1/2+x
16 1/2+y,x,-z
17 1/2+y,-x,z
18 1/2-y,x,z
19 1/2+x,z,-y
20 1/2-x,z,y
21 1/2+x,-z,y
22 1/2+z,y,-x
23 1/2+z,-y,x
24 1/2-z,y,x
25 1/2+x,y,1/2+z
26 1/2+z,x,1/2+y
27 1/2+y,z,1/2+x
28 y,1/2+x,-z
29 y,1/2-x,z
30 -y,1/2+x,z
31 x,1/2+z,-y
32 -x,1/2+z,y
33 x,1/2-z,y
34 z,1/2+y,-x
35 z,1/2-y,x
36 -z,1/2+y,x
37 1/2+x,1/2+y,z
38 1/2+z,1/2+x,y
39 1/2+y,1/2+z,x
40 y,x,1/2-z
41 y,-x,1/2+z
42 -y,x,1/2+z
43 x,z,1/2-y
44 -x,z,1/2+y
45 x,-z,1/2+y
46 z,y,1/2-x
47 z,-y,1/2+x
48 -z,y,1/2+x
49 -x,-y,z
50 -x,y,-z
51 x,-y,-z
52 z,-x,-y
53 -z,-x,y
54 -z,x,-y
55 -y,z,-x
56 y,-z,-x
57 -y,-z,x
58 1/2-y,1/2-x,1/2-z
59 1/2-x,1/2-z,1/2-y
60 1/2-z,1/2-y,1/2-x
61 -x,1/2-y,1/2+z
62 -x,1/2+y,1/2-z
63 x,1/2-y,1/2-z
64 z,1/2-x,1/2-y
65 -z,1/2-x,1/2+y
66 -z,1/2+x,1/2-y
67 -y,1/2+z,1/2-x
68 y,1/2-z,1/2-x
69 -y,1/2-z,1/2+x
70 1/2-y,-x,-z
71 1/2-x,-z,-y
72 1/2-z,-y,-x
73 1/2-x,-y,1/2+z
74 1/2-x,y,1/2-z
75 1/2+x,-y,1/2-z
76 1/2+z,-x,1/2-y
77 1/2-z,-x,1/2+y
78 1/2-z,x,1/2-y
79 1/2-y,z,1/2-x
80 1/2+y,-z,1/2-x
81 1/2-y,-z,1/2+x
82 -y,1/2-x,-z
83 -x,1/2-z,-y
84 -z,1/2-y,-x
85 1/2-x,1/2-y,z
86 1/2-x,1/2+y,-z
87 1/2+x,1/2-y,-z
88 1/2+z,1/2-x,-y
89 1/2-z,1/2-x,y
90 1/2-z,1/2+x,-y
91 1/2-y,1/2+z,-x
92 1/2+y,1/2-z,-x
93 1/2-y,1/2-z,x
94 -y,-x,1/2-z
95 -x,-z,1/2-y
96 -z,-y,1/2-x
97 -x,-y,-z
98 -z,-x,-y
99 -y,-z,-x
100 -1/2-y,-1/2-x,-1/2+z
101 -1/2-y,-1/2+x,-1/2-z
102 -1/2+y,-1/2-x,-1/2-z
103 -1/2-x,-1/2-z,-1/2+y
104 -1/2+x,-1/2-z,-1/2-y
105 -1/2-x,-1/2+z,-1/2-y
106 -1/2-z,-1/2-y,-1/2+x
107 -1/2-z,-1/2+y,-1/2-x
108 -1/2+z,-1/2-y,-1/2-x
109 -x,-1/2-y,-1/2-z
110 -z,-1/2-x,-1/2-y
111 -y,-1/2-z,-1/2-x
112 -1/2-y,-x,z
113 -1/2-y,x,-z
114 -1/2+y,-x,-z
115 -1/2-x,-z,y
116 -1/2+x,-z,-y
117 -1/2-x,z,-y
118 -1/2-z,-y,x
119 -1/2-z,y,-x
120 -1/2+z,-y,-x
121 -1/2-x,-y,-1/2-z
122 -1/2-z,-x,-1/2-y
123 -1/2-y,-z,-1/2-x
124 -y,-1/2-x,z
125 -y,-1/2+x,-z
126 y,-1/2-x,-z
127 -x,-1/2-z,y
128 x,-1/2-z,-y
129 -x,-1/2+z,-y
130 -z,-1/2-y,x
131 -z,-1/2+y,-x
132 z,-1/2-y,-x
133 -1/2-x,-1/2-y,-z
134 -1/2-z,-1/2-x,-y
135 -1/2-y,-1/2-z,-x
136 -y,-x,-1/2+z
137 -y,x,-1/2-z
138 y,-x,-1/2-z
139 -x,-z,-1/2+y
140 x,-z,-1/2-y
141 -x,z,-1/2-y
142 -z,-y,-1/2+x
143 -z,y,-1/2-x
144 z,-y,-1/2-x
145 x,y,-z
146 x,-y,z
147 -x,y,z
148 -z,x,y
149 z,x,-y
150 z,-x,y
151 y,-z,x
152 -y,z,x
153 y,z,-x
154 -1/2+y,-1/2+x,-1/2+z
155 -1/2+x,-1/2+z,-1/2+y
156 -1/2+z,-1/2+y,-1/2+x
157 x,-1/2+y,-1/2-z
158 x,-1/2-y,-1/2+z
159 -x,-1/2+y,-1/2+z
160 -z,-1/2+x,-1/2+y
161 z,-1/2+x,-1/2-y
162 z,-1/2-x,-1/2+y
163 y,-1/2-z,-1/2+x
164 -y,-1/2+z,-1/2+x
165 y,-1/2+z,-1/2-x
166 -1/2+y,x,z
167 -1/2+x,z,y
168 -1/2+z,y,x
169 -1/2+x,y,-1/2-z
170 -1/2+x,-y,-1/2+z
171 -1/2-x,y,-1/2+z
172 -1/2-z,x,-1/2+y
173 -1/2+z,x,-1/2-y
174 -1/2+z,-x,-1/2+y
175 -1/2+y,-z,-1/2+x
176 -1/2-y,z,-1/2+x
177 -1/2+y,z,-1/2-x
178 y,-1/2+x,z
179 x,-1/2+z,y
180 z,-1/2+y,x
181 -1/2+x,-1/2+y,-z
182 -1/2+x,-1/2-y,z
183 -1/2-x,-1/2+y,z
184 -1/2-z,-1/2+x,y
185 -1/2+z,-1/2+x,-y
186 -1/2+z,-1/2-x,y
187 -1/2+y,-1/2-z,x
188 -1/2-y,-1/2+z,x
189 -1/2+y,-1/2+z,-x
190 y,x,-1/2+z
191 x,z,-1/2+y
192 z,y,-1/2+x
_cell_length_a 48.673(6)
_cell_length_b 48.673(6)
_cell_length_c 48.673(6)
_cell_angle_alpha 90
_cell_angle_beta 90
_cell_angle_gamma 90
_cell_formula_units_Z 8
loop_
_atom_type_symbol
_atom_type_radius_bond
C 0.68
H 0.23
Cd 1.74
O 0.78
Pb 1.46
loop_
_atom_site_label
_atom_site_type_symbol
_atom_site_fract_x
_atom_site_fract_y
_atom_site_fract_z
O1 O 0.0478(4) 0.25000 0.25000
O2 O 0.00000 0.1991(8) 0.1338(8)
O3 O 0.00000 0.3092(7) 0.1282(8)
Cd1 Cd 0.00000 0.19897(15) 0.22481(4)
O4 O 0.03463(11) 0.16144(13) 0.23731(14)
O5 O 0.03084(11) 0.19896(12) 0.26094(15)
O6 O 0.00000 0.25000 0.25000
C1 C 0.04199(13) 0.17506(16) 0.25733(17)
C2 C 0.06409(13) 0.16602(12) 0.27554(18)
C3 C 0.07217(14) 0.18249(15) 0.29777(17)
H1 H 0.06320 0.19950 0.30140
C4 C 0.09375(13) 0.17332(13) 0.31448(15)
C5 C 0.10795(13) 0.14925(12) 0.30866(14)
C6 C 0.09898(14) 0.13331(13) 0.28683(15)
H2 H 0.10780 0.11630 0.28300
C7 C 0.07752(13) 0.14185(14) 0.27067(16)
H3 H 0.07180 0.13070 0.25570
C8 C 0.10416(15) 0.18724(14) 0.33989(15)
C9 C 0.12787(13) 0.16844(13) 0.34789(14)
C10 C 0.13024(12) 0.14664(13) 0.32927(12)
C11 C 0.11397(19) 0.21593(18) 0.33290(18)
H4 H 0.11950 0.22520 0.35010
H5 H 0.09840 0.22630 0.32510
C12 C 0.1386(2) 0.2174(3) 0.3122(2)
H6 H 0.15400 0.20660 0.31940
H7 H 0.14430 0.23660 0.31000
H8 H 0.13280 0.21000 0.29440
C13 C 0.08020(17) 0.18670(18) 0.3618(2)
H9 H 0.08660 0.19590 0.37870
H10 H 0.06450 0.19730 0.35460
C14 C 0.0700(2) 0.1569(2) 0.3694(2)
H11 H 0.06290 0.14790 0.35290
H12 H 0.05550 0.15810 0.38330
H13 H 0.08540 0.14630 0.37670
Pb1? Pb 0.00000 0.18551(7) 0.2174(2)
Pb2? Pb 0.00000 0.1961(5) 0.2152(5)
O7? O 0.00000 0.2920(11) 0.1086(12)
Cd1FA Cd 0.00000 0.27519(15) 0.19897(4)
Cd1PA Cd 0.00000 0.22481(15) 0.30103(4)
Cd1DD Cd 0.00000 0.30103(15) 0.27519(4)
Cd1FF Cd 0.19897 0.27519(15) 0.50000(4)
Cd1SA Cd 0.22481 0.19897(15) 0.50000(4)
Cd1QD Cd 0.27519 0.00000(15) 0.30103(4)
Cd1MA Cd 0.19897 0.00000(15) 0.27519(4)
Cd1AD Cd 0.27519 0.30103(15) 0.50000(4)
Cd1BA Cd 0.19897 0.50000(15) 0.22481(4)
Cd1DF Cd 0.22481 0.50000(15) 0.30103(4)
Cd1AG Cd 0.27519 0.50000(15) 0.19897(4)
Cd1B Cd 0.19897 0.22481(15) 0.00000(4)
Cd1HA Cd 0.22481 0.30103(15) 0.00000(4)
Cd1U Cd -0.27519 0.19897(15) 0.00000(4)
Cd1UE Cd -0.19897 0.22481(15) 0.00000(4)
Cd1FE Cd -0.19897 0.00000(15) 0.27519(4)
Cd1QE Cd -0.22481 0.00000(15) 0.19897(4)
O4PE O -0.03463(11) 0.16144(13) 0.23731(14)
O4DD O -0.03463(11) 0.33856(13) 0.26269(14)
O4JB O 0.03463(11) 0.33856(13) 0.26269(14)
O4PA O 0.03463(11) 0.23731(13) 0.33856(14)
O4JE O -0.03463(11) 0.23731(13) 0.33856(14)
O4FA O 0.03463(11) 0.26269(13) 0.16144(14)
O4VD O -0.03463(11) 0.26269(13) 0.16144(14)
O4OB O 0.16144(11) 0.26269(13) 0.46537(14)
O4YB O 0.26269(11) 0.03463(13) 0.33856(14)
O4GB O 0.26269(11) 0.33856(13) 0.46537(14)
O4BA O 0.16144(11) 0.46537(13) 0.23731(14)
O4JC O 0.26269(11) 0.46537(13) 0.16144(14)
O4B O 0.16144(11) 0.23731(13) 0.03463(14)
O4KF O -0.26269(11) 0.16144(13) 0.03463(14)
O4FE O -0.16144(11) 0.03463(13) 0.26269(14)
O5FA O 0.03084(11) 0.23906(12) 0.19896(15)
O5VD O -0.03084(11) 0.23906(12) 0.19896(15)
O5PE O -0.03084(11) 0.19896(12) 0.26094(15)
O5JB O 0.03084(11) 0.30104(12) 0.23906(15)
O5JE O -0.03084(11) 0.26094(12) 0.30104(15)
O5DD O -0.03084(11) 0.30104(12) 0.23906(15)
O5PA O 0.03084(11) 0.26094(12) 0.30104(15)
O5OB O 0.19896(11) 0.23906(12) 0.46916(15)
O5YB O 0.23906(11) 0.03084(12) 0.30104(15)
O5GB O 0.23906(11) 0.30104(12) 0.46916(15)
O5BA O 0.19896(11) 0.46916(12) 0.26094(15)
O5JC O 0.23906(11) 0.46916(12) 0.19896(15)
O5B O 0.19896(11) 0.26094(12) 0.03084(15)
O5KF O -0.23906(11) 0.19896(12) 0.03084(15)
O5FE O -0.19896(11) 0.03084(12) 0.23906(15)
C1PA C 0.04199(13) 0.25733(16) 0.32494(17)
C1JB C 0.04199(13) 0.32494(16) 0.24267(17)
C1VD C -0.04199(13) 0.24267(16) 0.17506(17)
C1OB C 0.17506(13) 0.24267(16) 0.45801(17)
C1YB C 0.24267(13) 0.04199(16) 0.32494(17)
C1GB C 0.24267(13) 0.32494(16) 0.45801(17)
C1BA C 0.17506(13) 0.45801(16) 0.25733(17)
C1JC C 0.24267(13) 0.45801(16) 0.17506(17)
C1B C 0.17506(13) 0.25733(16) 0.04199(17)
C1KF C -0.24267(13) 0.17506(16) 0.04199(17)
C1FE C -0.17506(13) 0.04199(16) 0.24267(17)
C2PA C 0.06409(13) 0.27554(12) 0.33398(18)
C2JB C 0.06409(13) 0.33398(12) 0.22446(18)
C2VD C -0.06409(13) 0.22446(12) 0.16602(18)
C2OB C 0.16602(13) 0.22446(12) 0.43591(18)
C2YB C 0.22446(13) 0.06409(12) 0.33398(18)
C2GB C 0.22446(13) 0.33398(12) 0.43591(18)
C2BA C 0.16602(13) 0.43591(12) 0.27554(18)
C2JC C 0.22446(13) 0.43591(12) 0.16602(18)
C2B C 0.16602(13) 0.27554(12) 0.06409(18)
C2KF C -0.22446(13) 0.16602(12) 0.06409(18)
C2FE C -0.16602(13) 0.06409(12) 0.22446(18)
C3PA C 0.07217(14) 0.29777(15) 0.31751(17)
C3JB C 0.07217(14) 0.31751(15) 0.20223(17)
C3VD C -0.07217(14) 0.20223(15) 0.18249(17)
C3OB C 0.18249(14) 0.20223(15) 0.42783(17)
C3YB C 0.20223(14) 0.07217(15) 0.31751(17)
C3GB C 0.20223(14) 0.31751(15) 0.42783(17)
C3BA C 0.18249(14) 0.42783(15) 0.29777(17)
C3JC C 0.20223(14) 0.42783(15) 0.18249(17)
C3B C 0.18249(14) 0.29777(15) 0.07217(17)
C3KF C -0.20223(14) 0.18249(15) 0.07217(17)
C3FE C -0.18249(14) 0.07217(15) 0.20223(17)
H1PA H 0.06320 0.30140 0.30050
H1JB H 0.06320 0.30050 0.19860
H1VD H -0.06320 0.19860 0.19950
H1OB H 0.19950 0.19860 0.43680
H1YB H 0.19860 0.06320 0.30050
H1GB H 0.19860 0.30050 0.43680
H1BA H 0.19950 0.43680 0.30140
H1JC H 0.19860 0.43680 0.19950
H1B H 0.19950 0.30140 0.06320
H1KF H -0.19860 0.19950 0.06320
H1FE H -0.19950 0.06320 0.19860
C4OB C 0.17332(13) 0.18552(13) 0.40625(15)
C4YB C 0.18552(13) 0.09375(13) 0.32668(15)
C4PA C 0.09375(13) 0.31448(13) 0.32668(15)
C4JB C 0.09375(13) 0.32668(13) 0.18552(15)
C4VD C -0.09375(13) 0.18552(13) 0.17332(15)
C4GB C 0.18552(13) 0.32668(13) 0.40625(15)
C4BA C 0.17332(13) 0.40625(13) 0.31448(15)
C4JC C 0.18552(13) 0.40625(13) 0.17332(15)
C4B C 0.17332(13) 0.31448(13) 0.09375(15)
C4KF C -0.18552(13) 0.17332(13) 0.09375(15)
C4FE C -0.17332(13) 0.09375(13) 0.18552(15)
C5OB C 0.14925(13) 0.19134(12) 0.39205(14)
C5YB C 0.19134(13) 0.10795(12) 0.35075(14)
C5PA C 0.10795(13) 0.30866(12) 0.35075(14)
C5JB C 0.10795(13) 0.35075(12) 0.19134(14)
C5VD C -0.10795(13) 0.19134(12) 0.14925(14)
C5BA C 0.14925(13) 0.39205(12) 0.30866(14)
C5B C 0.14925(13) 0.30866(12) 0.10795(14)
C5FE C -0.14925(13) 0.10795(12) 0.19134(14)
C5GB C 0.19134(13) 0.35075(12) 0.39205(14)
C5JC C 0.19134(13) 0.39205(12) 0.14925(14)
C5KF C -0.19134(13) 0.14925(12) 0.10795(14)
C6OB C 0.13331(14) 0.21317(13) 0.40102(15)
C6YB C 0.21317(14) 0.09898(13) 0.36669(15)
C6PA C 0.09898(14) 0.28683(13) 0.36669(15)
C6JB C 0.09898(14) 0.36669(13) 0.21317(15)
C6VD C -0.09898(14) 0.21317(13) 0.13331(15)
C6BA C 0.13331(14) 0.40102(13) 0.28683(15)
C6B C 0.13331(14) 0.28683(13) 0.09898(15)
C6FE C -0.13331(14) 0.09898(13) 0.21317(15)
C6GB C 0.21317(14) 0.36669(13) 0.40102(15)
C6JC C 0.21317(14) 0.40102(13) 0.13331(15)
C6KF C -0.21317(14) 0.13331(13) 0.09898(15)
H2OB H 0.11630 0.21700 0.39220
H2YB H 0.21700 0.10780 0.38370
H2PA H 0.10780 0.28300 0.38370
H2JB H 0.10780 0.38370 0.21700
H2VD H -0.10780 0.21700 0.11630
H2BA H 0.11630 0.39220 0.28300
H2B H 0.11630 0.28300 0.10780
H2FE H -0.11630 0.10780 0.21700
H2GB H 0.21700 0.38370 0.39220
H2JC H 0.21700 0.39220 0.11630
H2KF H -0.21700 0.11630 0.10780
C7PA C 0.07752(13) 0.27067(14) 0.35815(16)
C7JB C 0.07752(13) 0.35815(14) 0.22933(16)
C7VD C -0.07752(13) 0.22933(14) 0.14185(16)
C7OB C 0.14185(13) 0.22933(14) 0.42248(16)
C7YB C 0.22933(13) 0.07752(14) 0.35815(16)
C7BA C 0.14185(13) 0.42248(14) 0.27067(16)
C7B C 0.14185(13) 0.27067(14) 0.07752(16)
C7FE C -0.14185(13) 0.07752(14) 0.22933(16)
C7GB C 0.22933(13) 0.35815(14) 0.42248(16)
C7JC C 0.22933(13) 0.42248(14) 0.14185(16)
C7KF C -0.22933(13) 0.14185(14) 0.07752(16)
H3PA H 0.07180 0.25570 0.36930
H3JB H 0.07180 0.36930 0.24430
H3VD H -0.07180 0.24430 0.13070
H3OB H 0.13070 0.24430 0.42820
H3YB H 0.24430 0.07180 0.36930
H3BA H 0.13070 0.42820 0.25570
H3B H 0.13070 0.25570 0.07180
H3FE H -0.13070 0.07180 0.24430
H3GB H 0.24430 0.36930 0.42820
H3JC H 0.24430 0.42820 0.13070
H3KF H -0.24430 0.13070 0.07180
C8YB C 0.16011(15) 0.10416(14) 0.31276(15)
C8OB C 0.18724(15) 0.16011(14) 0.39584(15)
C8PA C 0.10416(15) 0.33989(14) 0.31276(15)
C8JB C 0.10416(15) 0.31276(14) 0.16011(15)
C8VD C -0.10416(15) 0.16011(14) 0.18724(15)
C8GB C 0.16011(15) 0.31276(14) 0.39584(15)
C8JC C 0.16011(15) 0.39584(14) 0.18724(15)
C8KF C -0.16011(15) 0.18724(14) 0.10416(15)
C8BA C 0.18724(15) 0.39584(14) 0.33989(15)
C8B C 0.18724(15) 0.33989(14) 0.10416(15)
C8FE C -0.18724(15) 0.10416(14) 0.16011(15)
C9YB C 0.15211(13) 0.12787(13) 0.33156(14)
C9OB C 0.16844(13) 0.15211(13) 0.37213(14)
C9PA C 0.12787(13) 0.34789(13) 0.33156(14)
C9JB C 0.12787(13) 0.33156(13) 0.15211(14)
C9VD C -0.12787(13) 0.15211(13) 0.16844(14)
C9GB C 0.15211(13) 0.33156(13) 0.37213(14)
C9JC C 0.15211(13) 0.37213(13) 0.16844(14)
C9KF C -0.15211(13) 0.16844(13) 0.12787(14)
C9BA C 0.16844(13) 0.37213(13) 0.34789(14)
C9B C 0.16844(13) 0.34789(13) 0.12787(14)
C9FE C -0.16844(13) 0.12787(13) 0.15211(14)
C10OB C 0.14664(12) 0.17073(13) 0.36976(12)
C10YB C 0.17073(12) 0.13024(13) 0.35336(12)
C10PA C 0.13024(12) 0.32927(13) 0.35336(12)
C10JB C 0.13024(12) 0.35336(13) 0.17073(12)
C10VD C -0.13024(12) 0.17073(13) 0.14664(12)
C10BA C 0.14664(12) 0.36976(13) 0.32927(12)
C10B C 0.14664(12) 0.32927(13) 0.13024(12)
C10FE C -0.14664(12) 0.13024(13) 0.17073(12)
C10GB C 0.17073(12) 0.35336(13) 0.36976(12)
C10JC C 0.17073(12) 0.36976(13) 0.14664(12)
C10KF C -0.17073(12) 0.14664(13) 0.13024(12)
C11YB C 0.16710(19) 0.11397(18) 0.28407(18)
C11OB C 0.21593(19) 0.16710(18) 0.38603(18)
C11PA C 0.11397(19) 0.33290(18) 0.28407(18)
C11JB C 0.11397(19) 0.28407(18) 0.16710(18)
C11VD C -0.11397(19) 0.16710(18) 0.21593(18)
C11GB C 0.16710(19) 0.28407(18) 0.38603(18)
C11JC C 0.16710(19) 0.38603(18) 0.21593(18)
C11KF C -0.16710(19) 0.21593(18) 0.11397(18)
C11BA C 0.21593(19) 0.38603(18) 0.33290(18)
C11B C 0.21593(19) 0.33290(18) 0.11397(18)
C11FE C -0.21593(19) 0.11397(18) 0.16710(18)
H4YB H 0.14990 0.11950 0.27480
H4OB H 0.22520 0.14990 0.38050
H4PA H 0.11950 0.35010 0.27480
H4JB H 0.11950 0.27480 0.14990
H4VD H -0.11950 0.14990 0.22520
H4GB H 0.14990 0.27480 0.38050
H4JC H 0.14990 0.38050 0.22520
H4KF H -0.14990 0.22520 0.11950
H4BA H 0.22520 0.38050 0.35010
H4B H 0.22520 0.35010 0.11950
H4FE H -0.22520 0.11950 0.14990
H5YB H 0.17490 0.09840 0.27370
H5OB H 0.22630 0.17490 0.40160
H5PA H 0.09840 0.32510 0.27370
H5JB H 0.09840 0.27370 0.17490
H5VD H -0.09840 0.17490 0.22630
H5GB H 0.17490 0.27370 0.40160
H5JC H 0.17490 0.40160 0.22630
H5KF H -0.17490 0.22630 0.09840
H5BA H 0.22630 0.40160 0.32510
H5B H 0.22630 0.32510 0.09840
H5FE H -0.22630 0.09840 0.17490
C12YB C 0.1878(2) 0.1386(3) 0.2826(2)
C12OB C 0.2174(2) 0.1878(3) 0.3614(2)
C12PA C 0.1386(2) 0.3122(3) 0.2826(2)
C12JB C 0.1386(2) 0.2826(3) 0.1878(2)
C12VD C -0.1386(2) 0.1878(3) 0.2174(2)
C12GB C 0.1878(2) 0.2826(3) 0.3614(2)
C12JC C 0.1878(2) 0.3614(3) 0.2174(2)
C12KF C -0.1878(2) 0.2174(3) 0.1386(2)
C12BA C 0.2174(2) 0.3614(3) 0.3122(2)
C12B C 0.2174(2) 0.3122(3) 0.1386(2)
C12FE C -0.2174(2) 0.1386(3) 0.1878(2)
H6YB H 0.18060 0.15400 0.29340
H6OB H 0.20660 0.18060 0.34600
H6PA H 0.15400 0.31940 0.29340
H6JB H 0.15400 0.29340 0.18060
H6VD H -0.15400 0.18060 0.20660
H6GB H 0.18060 0.29340 0.34600
H6JC H 0.18060 0.34600 0.20660
H6KF H -0.18060 0.20660 0.15400
H6BA H 0.20660 0.34600 0.31940
H6B H 0.20660 0.31940 0.15400
H6FE H -0.20660 0.15400 0.18060
H7YB H 0.19000 0.14430 0.26340
H7OB H 0.23660 0.19000 0.35570
H7PA H 0.14430 0.31000 0.26340
H7JB H 0.14430 0.26340 0.19000
H7VD H -0.14430 0.19000 0.23660
H7GB H 0.19000 0.26340 0.35570
H7JC H 0.19000 0.35570 0.23660
H7KF H -0.19000 0.23660 0.14430
H7BA H 0.23660 0.35570 0.31000
H7B H 0.23660 0.31000 0.14430
H7FE H -0.23660 0.14430 0.19000
H8YB H 0.20560 0.13280 0.29000
H8OB H 0.21000 0.20560 0.36720
H8PA H 0.13280 0.29440 0.29000
H8JB H 0.13280 0.29000 0.20560
H8VD H -0.13280 0.20560 0.21000
H8GB H 0.20560 0.29000 0.36720
H8JC H 0.20560 0.36720 0.21000
H8KF H -0.20560 0.21000 0.13280
H8BA H 0.21000 0.36720 0.29440
H8B H 0.21000 0.29440 0.13280
H8FE H -0.21000 0.13280 0.20560
C13YB C 0.13820(17) 0.08020(18) 0.3133(2)
C13OB C 0.18670(17) 0.13820(18) 0.4198(2)
C13PA C 0.08020(17) 0.36180(18) 0.3133(2)
C13JB C 0.08020(17) 0.31330(18) 0.1382(2)
C13VD C -0.08020(17) 0.13820(18) 0.1867(2)
C13GB C 0.13820(17) 0.31330(18) 0.4198(2)
C13JC C 0.13820(17) 0.41980(18) 0.1867(2)
C13KF C -0.13820(17) 0.18670(18) 0.0802(2)
C13BA C 0.18670(17) 0.41980(18) 0.3618(2)
C13B C 0.18670(17) 0.36180(18) 0.0802(2)
C13FE C -0.18670(17) 0.08020(18) 0.1382(2)
H9YB H 0.12130 0.08660 0.30410
H9OB H 0.19590 0.12130 0.41340
H9PA H 0.08660 0.37870 0.30410
H9JB H 0.08660 0.30410 0.12130
H9VD H -0.08660 0.12130 0.19590
H9GB H 0.12130 0.30410 0.41340
H9JC H 0.12130 0.41340 0.19590
H9KF H -0.12130 0.19590 0.08660
H9BA H 0.19590 0.41340 0.37870
H9B H 0.19590 0.37870 0.08660
H9FE H -0.19590 0.08660 0.12130
H10YB H 0.14540 0.06450 0.30270
H10OB H 0.19730 0.14540 0.43550
H10PA H 0.06450 0.35460 0.30270
H10JB H 0.06450 0.30270 0.14540
H10VD H -0.06450 0.14540 0.19730
H10GB H 0.14540 0.30270 0.43550
H10JC H 0.14540 0.43550 0.19730
H10KF H -0.14540 0.19730 0.06450
H10BA H 0.19730 0.43550 0.35460
H10B H 0.19730 0.35460 0.06450
H10FE H -0.19730 0.06450 0.14540
C14YB C 0.1306(2) 0.0700(2) 0.3431(2)
C14OB C 0.1569(2) 0.1306(2) 0.4300(2)
C14PA C 0.0700(2) 0.3694(2) 0.3431(2)
C14JB C 0.0700(2) 0.3431(2) 0.1306(2)
C14VD C -0.0700(2) 0.1306(2) 0.1569(2)
C14GB C 0.1306(2) 0.3431(2) 0.4300(2)
C14JC C 0.1306(2) 0.4300(2) 0.1569(2)
C14KF C -0.1306(2) 0.1569(2) 0.0700(2)
C14BA C 0.1569(2) 0.4300(2) 0.3694(2)
C14B C 0.1569(2) 0.3694(2) 0.0700(2)
C14FE C -0.1569(2) 0.0700(2) 0.1306(2)
H11YB H 0.14710 0.06290 0.35210
H11OB H 0.14790 0.14710 0.43710
H11PA H 0.06290 0.35290 0.35210
H11JB H 0.06290 0.35210 0.14710
H11VD H -0.06290 0.14710 0.14790
H11GB H 0.14710 0.35210 0.43710
H11JC H 0.14710 0.43710 0.14790
H11KF H -0.14710 0.14790 0.06290
H11BA H 0.14790 0.43710 0.35290
H11B H 0.14790 0.35290 0.06290
H11FE H -0.14790 0.06290 0.14710
H12YB H 0.11670 0.05550 0.34190
H12OB H 0.15810 0.11670 0.44450
H12PA H 0.05550 0.38330 0.34190
H12JB H 0.05550 0.34190 0.11670
H12VD H -0.05550 0.11670 0.15810
H12GB H 0.11670 0.34190 0.44450
H12JC H 0.11670 0.44450 0.15810
H12KF H -0.11670 0.15810 0.05550
H12BA H 0.15810 0.44450 0.38330
H12B H 0.15810 0.38330 0.05550
H12FE H -0.15810 0.05550 0.11670
H13YB H 0.12330 0.08540 0.35370
H13OB H 0.14630 0.12330 0.41460
H13PA H 0.08540 0.37670 0.35370
H13JB H 0.08540 0.35370 0.12330
H13VD H -0.08540 0.12330 0.14630
H13GB H 0.12330 0.35370 0.41460
H13JC H 0.12330 0.41460 0.14630
H13KF H -0.12330 0.14630 0.08540
H13BA H 0.14630 0.41460 0.37670
H13B H 0.14630 0.37670 0.08540
H13FE H -0.14630 0.08540 0.12330
#END
