
#######################################################################
#
#                 Cambridge Crystallographic Data Centre
#                                CCDC
#
#######################################################################
#
# If this CIF has been generated from an entry in the Cambridge
# Structural Database, then it will include bibliographic, chemical,
# crystal, experimental, refinement or atomic coordinate data resulting
# from the CCDC's data processing and validation procedures.
#
#######################################################################

data_CSD_CIF_BUFNUM02
_audit_creation_date 2009-12-08
_audit_creation_method CSD-ConQuest-V1
_database_code_CSD BUFNUM02
_database_code_depnum_ccdc_archive 'CCDC 733318'
_chemical_formula_sum 'C336 H333 Cd13.5 O60'
_chemical_formula_moiety
;
(Cd1 2+)1.5n,3n(H3 O1 1+),n(C336 H312 Cd12 O51 6-),6n(H2 O1)
;
_journal_coden_Cambridge 4
_journal_volume 131
_journal_year 2009
_journal_page_first 3814
_journal_name_full 'J.Am.Chem.Soc. '
loop_
_publ_author_name
"S.Das"
"Hyunuk Kim"
"K.Kim"
_chemical_name_systematic
;
catena-(Sesqui-cadmium(ii) tris(oxonium) 
octakis(\m~6~-5,5,10,10,15,15-hexaethyl-10,15-dihydro-5H-diindeno[1,2-a:1',2'-
c]fluorene-2,7,12-tricarboxylato)-tris(\m~4~-oxo)-dodeca-cadmium(ii) 
hexahydrate)
;
_chemical_name_common
;
catena-(Sesqui-cadmium(ii) tris(oxonium) 
octakis(mu!6$-5,5,10,10,15,15-hexaethyltruxene-2,7,12-tricarboxylato)-tris(mu!
4$-oxo)-dodeca-cadmium(ii) hexahydrate)
;
_cell_volume 116407.275
_exptl_crystal_colour 'colorless'
_exptl_special_details
;
crystal soaked in Pb(NO3)2 solution for 30 mins
Large structure in which program limits have been exceeded. A partial diagram 
showing the coordination of the ligands and the coordination of the Cd atoms 
has been input; The Cd atoms do not appear to be coordinated to water 
molecules as stated in the paper; The charge balancing Cd cations and oxonium 
cations could not be located and the exact identity and number of these 
cations is unclear; The total number of uncoordinated water molecules is 
unclear
;
_exptl_crystal_description 'block'
_diffrn_ambient_temperature 90
_diffrn_radiation_probe x-ray
_diffrn_source synchrotron
_refine_special_details
;
A number of uncoordinated water molecules are disordered. The Cd atom is 
partially occupied by a Pb atom with Cd:Pb occupancies 0.58:0.42, 
respectively. The sum formula is (Cd1 2+)1.5n,3n(H3 O1 1+),n(C336 H312 Cd6.96 
O51 Pb5.04 6-),6n(H2 O1).
;
#These two values have been output from a single CSD field.
_refine_ls_R_factor_gt 0.0782
_refine_ls_wR_factor_gt 0.0782
_symmetry_cell_setting cubic
_symmetry_space_group_name_H-M 'F m -3 c'
_symmetry_Int_Tables_number 226
loop_
_symmetry_equiv_pos_site_id
_symmetry_equiv_pos_as_xyz
1 x,y,z
2 z,x,y
3 y,z,x
4 1/2+y,1/2+x,1/2-z
5 1/2+y,1/2-x,1/2+z
6 1/2-y,1/2+x,1/2+z
7 1/2+x,1/2+z,1/2-y
8 1/2-x,1/2+z,1/2+y
9 1/2+x,1/2-z,1/2+y
10 1/2+z,1/2+y,1/2-x
11 1/2+z,1/2-y,1/2+x
12 1/2-z,1/2+y,1/2+x
13 x,1/2+y,1/2+z
14 z,1/2+x,1/2+y
15 y,1/2+z,1/2+x
16 1/2+y,x,-z
17 1/2+y,-x,z
18 1/2-y,x,z
19 1/2+x,z,-y
20 1/2-x,z,y
21 1/2+x,-z,y
22 1/2+z,y,-x
23 1/2+z,-y,x
24 1/2-z,y,x
25 1/2+x,y,1/2+z
26 1/2+z,x,1/2+y
27 1/2+y,z,1/2+x
28 y,1/2+x,-z
29 y,1/2-x,z
30 -y,1/2+x,z
31 x,1/2+z,-y
32 -x,1/2+z,y
33 x,1/2-z,y
34 z,1/2+y,-x
35 z,1/2-y,x
36 -z,1/2+y,x
37 1/2+x,1/2+y,z
38 1/2+z,1/2+x,y
39 1/2+y,1/2+z,x
40 y,x,1/2-z
41 y,-x,1/2+z
42 -y,x,1/2+z
43 x,z,1/2-y
44 -x,z,1/2+y
45 x,-z,1/2+y
46 z,y,1/2-x
47 z,-y,1/2+x
48 -z,y,1/2+x
49 -x,-y,z
50 -x,y,-z
51 x,-y,-z
52 z,-x,-y
53 -z,-x,y
54 -z,x,-y
55 -y,z,-x
56 y,-z,-x
57 -y,-z,x
58 1/2-y,1/2-x,1/2-z
59 1/2-x,1/2-z,1/2-y
60 1/2-z,1/2-y,1/2-x
61 -x,1/2-y,1/2+z
62 -x,1/2+y,1/2-z
63 x,1/2-y,1/2-z
64 z,1/2-x,1/2-y
65 -z,1/2-x,1/2+y
66 -z,1/2+x,1/2-y
67 -y,1/2+z,1/2-x
68 y,1/2-z,1/2-x
69 -y,1/2-z,1/2+x
70 1/2-y,-x,-z
71 1/2-x,-z,-y
72 1/2-z,-y,-x
73 1/2-x,-y,1/2+z
74 1/2-x,y,1/2-z
75 1/2+x,-y,1/2-z
76 1/2+z,-x,1/2-y
77 1/2-z,-x,1/2+y
78 1/2-z,x,1/2-y
79 1/2-y,z,1/2-x
80 1/2+y,-z,1/2-x
81 1/2-y,-z,1/2+x
82 -y,1/2-x,-z
83 -x,1/2-z,-y
84 -z,1/2-y,-x
85 1/2-x,1/2-y,z
86 1/2-x,1/2+y,-z
87 1/2+x,1/2-y,-z
88 1/2+z,1/2-x,-y
89 1/2-z,1/2-x,y
90 1/2-z,1/2+x,-y
91 1/2-y,1/2+z,-x
92 1/2+y,1/2-z,-x
93 1/2-y,1/2-z,x
94 -y,-x,1/2-z
95 -x,-z,1/2-y
96 -z,-y,1/2-x
97 -x,-y,-z
98 -z,-x,-y
99 -y,-z,-x
100 -1/2-y,-1/2-x,-1/2+z
101 -1/2-y,-1/2+x,-1/2-z
102 -1/2+y,-1/2-x,-1/2-z
103 -1/2-x,-1/2-z,-1/2+y
104 -1/2+x,-1/2-z,-1/2-y
105 -1/2-x,-1/2+z,-1/2-y
106 -1/2-z,-1/2-y,-1/2+x
107 -1/2-z,-1/2+y,-1/2-x
108 -1/2+z,-1/2-y,-1/2-x
109 -x,-1/2-y,-1/2-z
110 -z,-1/2-x,-1/2-y
111 -y,-1/2-z,-1/2-x
112 -1/2-y,-x,z
113 -1/2-y,x,-z
114 -1/2+y,-x,-z
115 -1/2-x,-z,y
116 -1/2+x,-z,-y
117 -1/2-x,z,-y
118 -1/2-z,-y,x
119 -1/2-z,y,-x
120 -1/2+z,-y,-x
121 -1/2-x,-y,-1/2-z
122 -1/2-z,-x,-1/2-y
123 -1/2-y,-z,-1/2-x
124 -y,-1/2-x,z
125 -y,-1/2+x,-z
126 y,-1/2-x,-z
127 -x,-1/2-z,y
128 x,-1/2-z,-y
129 -x,-1/2+z,-y
130 -z,-1/2-y,x
131 -z,-1/2+y,-x
132 z,-1/2-y,-x
133 -1/2-x,-1/2-y,-z
134 -1/2-z,-1/2-x,-y
135 -1/2-y,-1/2-z,-x
136 -y,-x,-1/2+z
137 -y,x,-1/2-z
138 y,-x,-1/2-z
139 -x,-z,-1/2+y
140 x,-z,-1/2-y
141 -x,z,-1/2-y
142 -z,-y,-1/2+x
143 -z,y,-1/2-x
144 z,-y,-1/2-x
145 x,y,-z
146 x,-y,z
147 -x,y,z
148 -z,x,y
149 z,x,-y
150 z,-x,y
151 y,-z,x
152 -y,z,x
153 y,z,-x
154 -1/2+y,-1/2+x,-1/2+z
155 -1/2+x,-1/2+z,-1/2+y
156 -1/2+z,-1/2+y,-1/2+x
157 x,-1/2+y,-1/2-z
158 x,-1/2-y,-1/2+z
159 -x,-1/2+y,-1/2+z
160 -z,-1/2+x,-1/2+y
161 z,-1/2+x,-1/2-y
162 z,-1/2-x,-1/2+y
163 y,-1/2-z,-1/2+x
164 -y,-1/2+z,-1/2+x
165 y,-1/2+z,-1/2-x
166 -1/2+y,x,z
167 -1/2+x,z,y
168 -1/2+z,y,x
169 -1/2+x,y,-1/2-z
170 -1/2+x,-y,-1/2+z
171 -1/2-x,y,-1/2+z
172 -1/2-z,x,-1/2+y
173 -1/2+z,x,-1/2-y
174 -1/2+z,-x,-1/2+y
175 -1/2+y,-z,-1/2+x
176 -1/2-y,z,-1/2+x
177 -1/2+y,z,-1/2-x
178 y,-1/2+x,z
179 x,-1/2+z,y
180 z,-1/2+y,x
181 -1/2+x,-1/2+y,-z
182 -1/2+x,-1/2-y,z
183 -1/2-x,-1/2+y,z
184 -1/2-z,-1/2+x,y
185 -1/2+z,-1/2+x,-y
186 -1/2+z,-1/2-x,y
187 -1/2+y,-1/2-z,x
188 -1/2-y,-1/2+z,x
189 -1/2+y,-1/2+z,-x
190 y,x,-1/2+z
191 x,z,-1/2+y
192 z,y,-1/2+x
_cell_length_a 48.827(6)
_cell_length_b 48.827(6)
_cell_length_c 48.827(6)
_cell_angle_alpha 90
_cell_angle_beta 90
_cell_angle_gamma 90
_cell_formula_units_Z 8
loop_
_atom_type_symbol
_atom_type_radius_bond
C 0.68
H 0.23
Cd 1.74
O 0.68
Pb 1.46
loop_
_atom_site_label
_atom_site_type_symbol
_atom_site_fract_x
_atom_site_fract_y
_atom_site_fract_z
O1 O 0.2153(9) 0.50000 0.1066(10)
O2 O 0.2974(6) 0.50000 0.1271(6)
O3 O 0.25000 0.4517(5) 0.25000
Cd1 Cd 0.22247(13) 0.50000 0.19975(13)
O4 O 0.26209(15) 0.53099(13) 0.19852(19)
O5 O 0.23733(15) 0.53467(13) 0.16177(15)
O6 O 0.25000 0.50000 0.25000
C1 C 0.2574(2) 0.54197(16) 0.1753(2)
C2 C 0.27610(16) 0.56441(16) 0.1662(2)
C3 C 0.29766(17) 0.57237(16) 0.18201(19)
H1 H 0.30130 0.56330 0.19890
C4 C 0.31445(17) 0.59396(17) 0.17329(19)
C5 C 0.30848(15) 0.60887(15) 0.14912(17)
C6 C 0.28632(16) 0.59994(17) 0.13344(18)
H2 H 0.28200 0.60910 0.11680
C7 C 0.27054(17) 0.57792(17) 0.14183(19)
H3 H 0.25570 0.57200 0.13070
C8 C 0.34035(17) 0.60434(19) 0.18733(19)
C9 C 0.34802(15) 0.62806(16) 0.16794(17)
C10 C 0.32917(15) 0.63016(15) 0.14663(15)
C11 C 0.3331(2) 0.6144(2) 0.2166(2)
H4 H 0.35020 0.62040 0.22570
H5 H 0.32570 0.59870 0.22710
C12 C 0.3116(3) 0.6386(3) 0.2177(2)
H6 H 0.30460 0.64050 0.23640
H7 H 0.29640 0.63460 0.20520
H8 H 0.32050 0.65570 0.21210
C13 C 0.3617(2) 0.5805(2) 0.1860(3)
H9 H 0.35460 0.56480 0.19670
H10 H 0.37890 0.58670 0.19490
C14 C 0.3688(3) 0.5702(3) 0.1563(3)
H11 H 0.35440 0.55780 0.14990
H12 H 0.38640 0.56040 0.15660
H13 H 0.37010 0.58590 0.14390
Pb1? Pb 0.21664(19) 0.50000 0.1871(2)
Pb2? Pb 0.30668(13) 0.50000 0.22701(16)
O7? O 0.1924(7) 0.50000 0.1290(8)
O8? O 0.1445(8) 0.50000 0.1728(9)
Cd1W Cd 0.30025(13) 0.50000 0.22247(13)
Cd1SA Cd 0.19975(13) 0.50000 0.27753(13)
Cd1PD Cd 0.27753(13) 0.50000 0.30025(13)
Cd1HF Cd 0.50000(13) 0.69975 0.27753(13)
Cd1CA Cd 0.50000(13) 0.72247 0.19975(13)
Cd1QD Cd 0.30025(13) 0.77753 0.00000(13)
Cd1G Cd 0.27753(13) 0.69975 0.00000(13)
Cd1GE Cd 0.50000(13) 0.77753 0.30025(13)
Cd1DA Cd 0.22247(13) 0.69975 0.50000(13)
Cd1AG Cd 0.30025(13) 0.72247 0.50000(13)
Cd1A Cd 0.19975(13) 0.22247 0.50000(13)
Cd1FA Cd 0.22247(13) 0.30025 0.50000(13)
Cd1DG Cd 0.00000(13) 0.30025 0.22247(13)
Cd1WC Cd 0.00000(13) 0.27753 0.30025(13)
Cd1Q Cd 0.00000(13) 0.22247 0.19975(13)
Cd1XC Cd 0.27753(13) 0.30025 0.00000(13)
Cd1EF Cd 0.19975(13) 0.27753 0.00000(13)
O4SA O 0.19852(15) 0.53099(13) 0.23791(19)
O4OE O 0.26209(15) 0.46901(13) 0.19852(19)
O4ME O 0.19852(15) 0.46901(13) 0.23791(19)
O4W O 0.30148(15) 0.53099(13) 0.26209(19)
O4MD O 0.30148(15) 0.46901(13) 0.26209(19)
O4PD O 0.23791(15) 0.46901(13) 0.30148(19)
O4UB O 0.23791(15) 0.53099(13) 0.30148(19)
O4NB O 0.46901(15) 0.69852(13) 0.23791(19)
O4XB O 0.30148(15) 0.73791(13) 0.03099(19)
O4OC O 0.46901(15) 0.73791(13) 0.30148(19)
O4DA O 0.26209(15) 0.69852(13) 0.46901(19)
O4RE O 0.19852(15) 0.26209(13) 0.46901(19)
O4DG O 0.03099(15) 0.30148(13) 0.26209(19)
O4IF O 0.03099(15) 0.26209(13) 0.19852(19)
O4XC O 0.23791(15) 0.30148(13) 0.03099(19)
O5OE O 0.23733(15) 0.46533(13) 0.16177(15)
O5W O 0.33823(15) 0.53467(13) 0.23733(15)
O5MD O 0.33823(15) 0.46533(13) 0.23733(15)
O5PD O 0.26267(15) 0.46533(13) 0.33823(15)
O5UB O 0.26267(15) 0.53467(13) 0.33823(15)
O5SA O 0.16177(15) 0.53467(13) 0.26267(15)
O5ME O 0.16177(15) 0.46533(13) 0.26267(15)
O5NB O 0.46533(15) 0.66177(13) 0.26267(15)
O5XB O 0.33823(15) 0.76267(13) 0.03467(15)
O5OC O 0.46533(15) 0.76267(13) 0.33823(15)
O5DA O 0.23733(15) 0.66177(13) 0.46533(15)
O5RE O 0.16177(15) 0.23733(13) 0.46533(15)
O5DG O 0.03467(15) 0.33823(13) 0.23733(15)
O5IF O 0.03467(15) 0.23733(13) 0.16177(15)
O5XC O 0.26267(15) 0.33823(13) 0.03467(15)
C1W C 0.3247(2) 0.54197(16) 0.2574(2)
C1PD C 0.2426(2) 0.45803(16) 0.3247(2)
C1ME C 0.1753(2) 0.45803(16) 0.2426(2)
C1NB C 0.45803(20) 0.67530(16) 0.2426(2)
C1XB C 0.3247(2) 0.74260(16) 0.04197(20)
C1OC C 0.45803(20) 0.74260(16) 0.3247(2)
C1DA C 0.2574(2) 0.67530(16) 0.45803(20)
C1RE C 0.1753(2) 0.25740(16) 0.45803(20)
C1DG C 0.04197(20) 0.32470(16) 0.2574(2)
C1IF C 0.04197(20) 0.25740(16) 0.1753(2)
C1XC C 0.2426(2) 0.32470(16) 0.04197(20)
C2W C 0.33380(16) 0.56441(16) 0.2761(2)
C2PD C 0.22390(16) 0.43559(16) 0.3338(2)
C2ME C 0.16620(16) 0.43559(16) 0.2239(2)
C2NB C 0.43559(16) 0.66620(16) 0.2239(2)
C2XB C 0.33380(16) 0.72390(16) 0.06441(20)
C2OC C 0.43559(16) 0.72390(16) 0.3338(2)
C2DA C 0.27610(16) 0.66620(16) 0.43559(20)
C2RE C 0.16620(16) 0.27610(16) 0.43559(20)
C2DG C 0.06441(16) 0.33380(16) 0.2761(2)
C2IF C 0.06441(16) 0.27610(16) 0.1662(2)
C2XC C 0.22390(16) 0.33380(16) 0.06441(20)
C3W C 0.31799(17) 0.57237(16) 0.29766(19)
C3PD C 0.20234(17) 0.42763(16) 0.31799(19)
C3ME C 0.18201(17) 0.42763(16) 0.20234(19)
C3NB C 0.42763(17) 0.68201(16) 0.20234(19)
C3XB C 0.31799(17) 0.70234(16) 0.07237(19)
C3OC C 0.42763(17) 0.70234(16) 0.31799(19)
C3DA C 0.29766(17) 0.68201(16) 0.42763(19)
C3RE C 0.18201(17) 0.29766(16) 0.42763(19)
C3DG C 0.07237(17) 0.31799(16) 0.29766(19)
C3IF C 0.07237(17) 0.29766(16) 0.18201(19)
C3XC C 0.20234(17) 0.31799(16) 0.07237(19)
H1W H 0.30110 0.56330 0.30130
H1PD H 0.19870 0.43670 0.30110
H1ME H 0.19890 0.43670 0.19870
H1NB H 0.43670 0.69890 0.19870
H1XB H 0.30110 0.69870 0.06330
H1OC H 0.43670 0.69870 0.30110
H1DA H 0.30130 0.69890 0.43670
H1RE H 0.19890 0.30130 0.43670
H1DG H 0.06330 0.30110 0.30130
H1IF H 0.06330 0.30130 0.19890
H1XC H 0.19870 0.30110 0.06330
C4NB C 0.40604(17) 0.67329(17) 0.18555(19)
C4XB C 0.32671(17) 0.68555(17) 0.09396(19)
C4W C 0.32671(17) 0.59396(17) 0.31445(19)
C4PD C 0.18555(17) 0.40604(17) 0.32671(19)
C4ME C 0.17329(17) 0.40604(17) 0.18555(19)
C4OC C 0.40604(17) 0.68555(17) 0.32671(19)
C4DA C 0.31445(17) 0.67329(17) 0.40604(19)
C4RE C 0.17329(17) 0.31445(17) 0.40604(19)
C4DG C 0.09396(17) 0.32671(17) 0.31445(19)
C4IF C 0.09396(17) 0.31445(17) 0.17329(19)
C4XC C 0.18555(17) 0.32671(17) 0.09396(19)
C5NB C 0.39113(15) 0.64912(15) 0.19152(17)
C5XB C 0.35088(15) 0.69152(15) 0.10887(17)
C5W C 0.35088(15) 0.60887(15) 0.30848(17)
C5PD C 0.19152(15) 0.39113(15) 0.35088(17)
C5ME C 0.14912(15) 0.39113(15) 0.19152(17)
C5DA C 0.30848(15) 0.64912(15) 0.39113(17)
C5DG C 0.10887(15) 0.35088(15) 0.30848(17)
C5XC C 0.19152(15) 0.35088(15) 0.10887(17)
C5OC C 0.39113(15) 0.69152(15) 0.35088(17)
C5RE C 0.14912(15) 0.30848(15) 0.39113(17)
C5IF C 0.10887(15) 0.30848(15) 0.14912(17)
C6NB C 0.40006(16) 0.63344(17) 0.21368(18)
C6XB C 0.36656(16) 0.71368(17) 0.09994(18)
C6W C 0.36656(16) 0.59994(17) 0.28632(18)
C6PD C 0.21368(16) 0.40006(17) 0.36656(18)
C6ME C 0.13344(16) 0.40006(17) 0.21368(18)
C6DA C 0.28632(16) 0.63344(17) 0.40006(18)
C6DG C 0.09994(16) 0.36656(17) 0.28632(18)
C6XC C 0.21368(16) 0.36656(17) 0.09994(18)
C6OC C 0.40006(16) 0.71368(17) 0.36656(18)
C6RE C 0.13344(16) 0.28632(17) 0.40006(18)
C6IF C 0.09994(16) 0.28632(17) 0.13344(18)
H2NB H 0.39090 0.61680 0.21800
H2XB H 0.38320 0.71800 0.10910
H2W H 0.38320 0.60910 0.28200
H2PD H 0.21800 0.39090 0.38320
H2ME H 0.11680 0.39090 0.21800
H2DA H 0.28200 0.61680 0.39090
H2DG H 0.10910 0.38320 0.28200
H2XC H 0.21800 0.38320 0.10910
H2OC H 0.39090 0.71800 0.38320
H2RE H 0.11680 0.28200 0.39090
H2IF H 0.10910 0.28200 0.11680
C7W C 0.35817(17) 0.57792(17) 0.27054(19)
C7PD C 0.22946(17) 0.42208(17) 0.35817(19)
C7ME C 0.14183(17) 0.42208(17) 0.22946(19)
C7NB C 0.42208(17) 0.64183(17) 0.22946(19)
C7XB C 0.35817(17) 0.72946(17) 0.07792(19)
C7DA C 0.27054(17) 0.64183(17) 0.42208(19)
C7DG C 0.07792(17) 0.35817(17) 0.27054(19)
C7XC C 0.22946(17) 0.35817(17) 0.07792(19)
C7OC C 0.42208(17) 0.72946(17) 0.35817(19)
C7RE C 0.14183(17) 0.27054(17) 0.42208(19)
C7IF C 0.07792(17) 0.27054(17) 0.14183(19)
H3W H 0.36930 0.57200 0.25570
H3PD H 0.24430 0.42800 0.36930
H3ME H 0.13070 0.42800 0.24430
H3NB H 0.42800 0.63070 0.24430
H3XB H 0.36930 0.74430 0.07200
H3DA H 0.25570 0.63070 0.42800
H3DG H 0.07200 0.36930 0.25570
H3XC H 0.24430 0.36930 0.07200
H3OC H 0.42800 0.74430 0.36930
H3RE H 0.13070 0.25570 0.42800
H3IF H 0.07200 0.25570 0.13070
C8XB C 0.31267(17) 0.65965(19) 0.10434(19)
C8NB C 0.39566(17) 0.68733(19) 0.15965(19)
C8W C 0.31267(17) 0.60434(19) 0.34035(19)
C8PD C 0.15965(17) 0.39566(19) 0.31267(19)
C8ME C 0.18733(17) 0.39566(19) 0.15965(19)
C8OC C 0.39566(17) 0.65965(19) 0.31267(19)
C8RE C 0.18733(17) 0.34035(19) 0.39566(19)
C8IF C 0.10434(17) 0.34035(19) 0.18733(19)
C8DA C 0.34035(17) 0.68733(19) 0.39566(19)
C8DG C 0.10434(17) 0.31267(19) 0.34035(19)
C8XC C 0.15965(17) 0.31267(19) 0.10434(19)
C9XB C 0.33206(15) 0.65198(16) 0.12806(17)
C9NB C 0.37194(15) 0.66794(16) 0.15198(17)
C9W C 0.33206(15) 0.62806(16) 0.34802(17)
C9PD C 0.15198(15) 0.37194(16) 0.33206(17)
C9ME C 0.16794(15) 0.37194(16) 0.15198(17)
C9OC C 0.37194(15) 0.65198(16) 0.33206(17)
C9RE C 0.16794(15) 0.34802(16) 0.37194(17)
C9IF C 0.12806(15) 0.34802(16) 0.16794(17)
C9DA C 0.34802(15) 0.66794(16) 0.37194(17)
C9DG C 0.12806(15) 0.33206(16) 0.34802(17)
C9XC C 0.15198(15) 0.33206(16) 0.12806(17)
C10NB C 0.36984(15) 0.64663(15) 0.17083(15)
C10XB C 0.35337(15) 0.67083(15) 0.13016(15)
C10W C 0.35337(15) 0.63016(15) 0.32917(15)
C10PD C 0.17083(15) 0.36984(15) 0.35337(15)
C10ME C 0.14663(15) 0.36984(15) 0.17083(15)
C10DA C 0.32917(15) 0.64663(15) 0.36984(15)
C10DG C 0.13016(15) 0.35337(15) 0.32917(15)
C10XC C 0.17083(15) 0.35337(15) 0.13016(15)
C10OC C 0.36984(15) 0.67083(15) 0.35337(15)
C10RE C 0.14663(15) 0.32917(15) 0.36984(15)
C10IF C 0.13016(15) 0.32917(15) 0.14663(15)
C11XB C 0.2834(2) 0.6669(2) 0.1144(2)
C11NB C 0.3856(2) 0.7166(2) 0.1669(2)
C11W C 0.2834(2) 0.6144(2) 0.3331(2)
C11PD C 0.1669(2) 0.3856(2) 0.2834(2)
C11ME C 0.2166(2) 0.3856(2) 0.1669(2)
C11OC C 0.3856(2) 0.6669(2) 0.2834(2)
C11RE C 0.2166(2) 0.3331(2) 0.3856(2)
C11IF C 0.1144(2) 0.3331(2) 0.2166(2)
C11DA C 0.3331(2) 0.7166(2) 0.3856(2)
C11DG C 0.1144(2) 0.2834(2) 0.3331(2)
C11XC C 0.1669(2) 0.2834(2) 0.1144(2)
H4XB H 0.27430 0.64980 0.12040
H4NB H 0.37960 0.72570 0.14980
H4W H 0.27430 0.62040 0.35020
H4PD H 0.14980 0.37960 0.27430
H4ME H 0.22570 0.37960 0.14980
H4OC H 0.37960 0.64980 0.27430
H4RE H 0.22570 0.35020 0.37960
H4IF H 0.12040 0.35020 0.22570
H4DA H 0.35020 0.72570 0.37960
H4DG H 0.12040 0.27430 0.35020
H4XC H 0.14980 0.27430 0.12040
H5XB H 0.27290 0.67430 0.09870
H5NB H 0.40130 0.72710 0.17430
H5W H 0.27290 0.59870 0.32570
H5PD H 0.17430 0.40130 0.27290
H5ME H 0.22710 0.40130 0.17430
H5OC H 0.40130 0.67430 0.27290
H5RE H 0.22710 0.32570 0.40130
H5IF H 0.09870 0.32570 0.22710
H5DA H 0.32570 0.72710 0.40130
H5DG H 0.09870 0.27290 0.32570
H5XC H 0.17430 0.27290 0.09870
C12XB C 0.2823(3) 0.6884(3) 0.1386(2)
C12NB C 0.3614(3) 0.7177(3) 0.1884(2)
C12W C 0.2823(3) 0.6386(3) 0.3116(2)
C12PD C 0.1884(3) 0.3614(3) 0.2823(2)
C12ME C 0.2177(3) 0.3614(3) 0.1884(2)
C12OC C 0.3614(3) 0.6884(3) 0.2823(2)
C12RE C 0.2177(3) 0.3116(3) 0.3614(2)
C12IF C 0.1386(3) 0.3116(3) 0.2177(2)
C12DA C 0.3116(3) 0.7177(3) 0.3614(2)
C12DG C 0.1386(3) 0.2823(3) 0.3116(2)
C12XC C 0.1884(3) 0.2823(3) 0.1386(2)
H6XB H 0.26360 0.69540 0.14050
H6NB H 0.35950 0.73640 0.19540
H6W H 0.26360 0.64050 0.30460
H6PD H 0.19540 0.35950 0.26360
H6ME H 0.23640 0.35950 0.19540
H6OC H 0.35950 0.69540 0.26360
H6RE H 0.23640 0.30460 0.35950
H6IF H 0.14050 0.30460 0.23640
H6DA H 0.30460 0.73640 0.35950
H6DG H 0.14050 0.26360 0.30460
H6XC H 0.19540 0.26360 0.14050
H7XB H 0.29480 0.70360 0.13460
H7NB H 0.36540 0.70520 0.20360
H7W H 0.29480 0.63460 0.29640
H7PD H 0.20360 0.36540 0.29480
H7ME H 0.20520 0.36540 0.20360
H7OC H 0.36540 0.70360 0.29480
H7RE H 0.20520 0.29640 0.36540
H7IF H 0.13460 0.29640 0.20520
H7DA H 0.29640 0.70520 0.36540
H7DG H 0.13460 0.29480 0.29640
H7XC H 0.20360 0.29480 0.13460
H8XB H 0.28790 0.67950 0.15570
H8NB H 0.34430 0.71210 0.17950
H8W H 0.28790 0.65570 0.32050
H8PD H 0.17950 0.34430 0.28790
H8ME H 0.21210 0.34430 0.17950
H8OC H 0.34430 0.67950 0.28790
H8RE H 0.21210 0.32050 0.34430
H8IF H 0.15570 0.32050 0.21210
H8DA H 0.32050 0.71210 0.34430
H8DG H 0.15570 0.28790 0.32050
H8XC H 0.17950 0.28790 0.15570
C13XB C 0.3140(2) 0.6383(2) 0.0805(3)
C13NB C 0.4195(2) 0.6860(2) 0.1383(3)
C13W C 0.3140(2) 0.5805(2) 0.3617(3)
C13PD C 0.1383(2) 0.4195(2) 0.3140(3)
C13ME C 0.1860(2) 0.4195(2) 0.1383(3)
C13OC C 0.4195(2) 0.6383(2) 0.3140(3)
C13RE C 0.1860(2) 0.3617(2) 0.4195(3)
C13IF C 0.0805(2) 0.3617(2) 0.1860(3)
C13DA C 0.3617(2) 0.6860(2) 0.4195(3)
C13DG C 0.0805(2) 0.3140(2) 0.3617(3)
C13XC C 0.1383(2) 0.3140(2) 0.0805(3)
H9XB H 0.30330 0.64540 0.06480
H9NB H 0.43520 0.69670 0.14540
H9W H 0.30330 0.56480 0.35460
H9PD H 0.14540 0.43520 0.30330
H9ME H 0.19670 0.43520 0.14540
H9OC H 0.43520 0.64540 0.30330
H9RE H 0.19670 0.35460 0.43520
H9IF H 0.06480 0.35460 0.19670
H9DA H 0.35460 0.69670 0.43520
H9DG H 0.06480 0.30330 0.35460
H9XC H 0.14540 0.30330 0.06480
H10XB H 0.30510 0.62110 0.08670
H10NB H 0.41330 0.69490 0.12110
H10W H 0.30510 0.58670 0.37890
H10PD H 0.12110 0.41330 0.30510
H10ME H 0.19490 0.41330 0.12110
H10OC H 0.41330 0.62110 0.30510
H10RE H 0.19490 0.37890 0.41330
H10IF H 0.08670 0.37890 0.19490
H10DA H 0.37890 0.69490 0.41330
H10DG H 0.08670 0.30510 0.37890
H10XC H 0.12110 0.30510 0.08670
C14XB C 0.3437(3) 0.6312(3) 0.0702(3)
C14NB C 0.4298(3) 0.6563(3) 0.1312(3)
C14W C 0.3437(3) 0.5702(3) 0.3688(3)
C14PD C 0.1312(3) 0.4298(3) 0.3437(3)
C14ME C 0.1563(3) 0.4298(3) 0.1312(3)
C14OC C 0.4298(3) 0.6312(3) 0.3437(3)
C14RE C 0.1563(3) 0.3688(3) 0.4298(3)
C14IF C 0.0702(3) 0.3688(3) 0.1563(3)
C14DA C 0.3688(3) 0.6563(3) 0.4298(3)
C14DG C 0.0702(3) 0.3437(3) 0.3688(3)
C14XC C 0.1312(3) 0.3437(3) 0.0702(3)
H11XB H 0.35010 0.64560 0.05780
H11NB H 0.44220 0.64990 0.14560
H11W H 0.35010 0.55780 0.35440
H11PD H 0.14560 0.44220 0.35010
H11ME H 0.14990 0.44220 0.14560
H11OC H 0.44220 0.64560 0.35010
H11RE H 0.14990 0.35440 0.44220
H11IF H 0.05780 0.35440 0.14990
H11DA H 0.35440 0.64990 0.44220
H11DG H 0.05780 0.35010 0.35440
H11XC H 0.14560 0.35010 0.05780
H12XB H 0.34340 0.61360 0.06040
H12NB H 0.43960 0.65660 0.11360
H12W H 0.34340 0.56040 0.38640
H12PD H 0.11360 0.43960 0.34340
H12ME H 0.15660 0.43960 0.11360
H12OC H 0.43960 0.61360 0.34340
H12RE H 0.15660 0.38640 0.43960
H12IF H 0.06040 0.38640 0.15660
H12DA H 0.38640 0.65660 0.43960
H12DG H 0.06040 0.34340 0.38640
H12XC H 0.11360 0.34340 0.06040
H13XB H 0.35610 0.62990 0.08590
H13NB H 0.41410 0.64390 0.12990
H13W H 0.35610 0.58590 0.37010
H13PD H 0.12990 0.41410 0.35610
H13ME H 0.14390 0.41410 0.12990
H13OC H 0.41410 0.62990 0.35610
H13RE H 0.14390 0.37010 0.41410
H13IF H 0.08590 0.37010 0.14390
H13DA H 0.37010 0.64390 0.41410
H13DG H 0.08590 0.35610 0.37010
H13XC H 0.12990 0.35610 0.08590
#END
