
#######################################################################
#
#                 Cambridge Crystallographic Data Centre
#                                CCDC
#
#######################################################################
#
# If this CIF has been generated from an entry in the Cambridge
# Structural Database, then it will include bibliographic, chemical,
# crystal, experimental, refinement or atomic coordinate data resulting
# from the CCDC's data processing and validation procedures.
#
#######################################################################

data_CSD_CIF_BUFNEW
_audit_creation_date 2009-12-08
_audit_creation_method CSD-ConQuest-V1
_database_code_CSD BUFNEW
_database_code_depnum_ccdc_archive 'CCDC 733312'
_chemical_formula_sum 'C348 H374 Cd14 O69'
_chemical_formula_moiety
;
(Cd1 2+)2n,2n(H3 O1 1+),n(C348 H360 Cd12 O63 6-),4n(H2 O1)
;
_journal_coden_Cambridge 4
_journal_volume 131
_journal_year 2009
_journal_page_first 3814
_journal_name_full 'J.Am.Chem.Soc. '
loop_
_publ_author_name
"S.Das"
"Hyunuk Kim"
"K.Kim"
_chemical_name_systematic
;
catena-(Di-cadmium(ii) bis(oxonium) 
octakis(\m~6~-5,5,10,10,15,15-hexaethyl-10,15-dihydro-5H-diindeno[1,2-a:1',2'-
c]fluorene-2,7,12-tricarboxylato)-tris(\m~4~-oxo)-dodecakis(methanol)-dodeca-c
admium(ii) tetrahydrate)
;
_chemical_name_common
;
catena-(Di-cadmium(ii) bis(oxonium) 
octakis(mu!6$-5,5,10,10,15,15-hexaethyltruxene-2,7,12-tricarboxylato)-tris(mu!
4$-oxo)-dodecakis(methanol)-dodeca-cadmium(ii) tetrahydrate)
;
_cell_volume 112853.644
_exptl_crystal_colour 'colorless'
_exptl_special_details
;
Large structure in which program limits have been exceeded. A partial diagram 
showing the coordination of the ligands and the coordination of the Cd atoms 
has been input; The Cd atoms appear to be coordinated to methanol molecules 
and not water molecules as stated in the paper; The charge balancing Cd 
cations and oxonium cations could not be located; The total number of 
uncoordinated water molecules is unclear
;
_exptl_crystal_description 'block'
_diffrn_ambient_temperature 90
_diffrn_radiation_probe x-ray
_diffrn_source synchrotron
_refine_special_details
;
A number of water molecules are disordered by symmetry.

;
#These two values have been output from a single CSD field.
_refine_ls_R_factor_gt 0.0674
_refine_ls_wR_factor_gt 0.0674
_symmetry_cell_setting cubic
_symmetry_space_group_name_H-M 'F m -3 c'
_symmetry_Int_Tables_number 226
loop_
_symmetry_equiv_pos_site_id
_symmetry_equiv_pos_as_xyz
1 x,y,z
2 z,x,y
3 y,z,x
4 1/2+y,1/2+x,1/2-z
5 1/2+y,1/2-x,1/2+z
6 1/2-y,1/2+x,1/2+z
7 1/2+x,1/2+z,1/2-y
8 1/2-x,1/2+z,1/2+y
9 1/2+x,1/2-z,1/2+y
10 1/2+z,1/2+y,1/2-x
11 1/2+z,1/2-y,1/2+x
12 1/2-z,1/2+y,1/2+x
13 x,1/2+y,1/2+z
14 z,1/2+x,1/2+y
15 y,1/2+z,1/2+x
16 1/2+y,x,-z
17 1/2+y,-x,z
18 1/2-y,x,z
19 1/2+x,z,-y
20 1/2-x,z,y
21 1/2+x,-z,y
22 1/2+z,y,-x
23 1/2+z,-y,x
24 1/2-z,y,x
25 1/2+x,y,1/2+z
26 1/2+z,x,1/2+y
27 1/2+y,z,1/2+x
28 y,1/2+x,-z
29 y,1/2-x,z
30 -y,1/2+x,z
31 x,1/2+z,-y
32 -x,1/2+z,y
33 x,1/2-z,y
34 z,1/2+y,-x
35 z,1/2-y,x
36 -z,1/2+y,x
37 1/2+x,1/2+y,z
38 1/2+z,1/2+x,y
39 1/2+y,1/2+z,x
40 y,x,1/2-z
41 y,-x,1/2+z
42 -y,x,1/2+z
43 x,z,1/2-y
44 -x,z,1/2+y
45 x,-z,1/2+y
46 z,y,1/2-x
47 z,-y,1/2+x
48 -z,y,1/2+x
49 -x,-y,z
50 -x,y,-z
51 x,-y,-z
52 z,-x,-y
53 -z,-x,y
54 -z,x,-y
55 -y,z,-x
56 y,-z,-x
57 -y,-z,x
58 1/2-y,1/2-x,1/2-z
59 1/2-x,1/2-z,1/2-y
60 1/2-z,1/2-y,1/2-x
61 -x,1/2-y,1/2+z
62 -x,1/2+y,1/2-z
63 x,1/2-y,1/2-z
64 z,1/2-x,1/2-y
65 -z,1/2-x,1/2+y
66 -z,1/2+x,1/2-y
67 -y,1/2+z,1/2-x
68 y,1/2-z,1/2-x
69 -y,1/2-z,1/2+x
70 1/2-y,-x,-z
71 1/2-x,-z,-y
72 1/2-z,-y,-x
73 1/2-x,-y,1/2+z
74 1/2-x,y,1/2-z
75 1/2+x,-y,1/2-z
76 1/2+z,-x,1/2-y
77 1/2-z,-x,1/2+y
78 1/2-z,x,1/2-y
79 1/2-y,z,1/2-x
80 1/2+y,-z,1/2-x
81 1/2-y,-z,1/2+x
82 -y,1/2-x,-z
83 -x,1/2-z,-y
84 -z,1/2-y,-x
85 1/2-x,1/2-y,z
86 1/2-x,1/2+y,-z
87 1/2+x,1/2-y,-z
88 1/2+z,1/2-x,-y
89 1/2-z,1/2-x,y
90 1/2-z,1/2+x,-y
91 1/2-y,1/2+z,-x
92 1/2+y,1/2-z,-x
93 1/2-y,1/2-z,x
94 -y,-x,1/2-z
95 -x,-z,1/2-y
96 -z,-y,1/2-x
97 -x,-y,-z
98 -z,-x,-y
99 -y,-z,-x
100 -1/2-y,-1/2-x,-1/2+z
101 -1/2-y,-1/2+x,-1/2-z
102 -1/2+y,-1/2-x,-1/2-z
103 -1/2-x,-1/2-z,-1/2+y
104 -1/2+x,-1/2-z,-1/2-y
105 -1/2-x,-1/2+z,-1/2-y
106 -1/2-z,-1/2-y,-1/2+x
107 -1/2-z,-1/2+y,-1/2-x
108 -1/2+z,-1/2-y,-1/2-x
109 -x,-1/2-y,-1/2-z
110 -z,-1/2-x,-1/2-y
111 -y,-1/2-z,-1/2-x
112 -1/2-y,-x,z
113 -1/2-y,x,-z
114 -1/2+y,-x,-z
115 -1/2-x,-z,y
116 -1/2+x,-z,-y
117 -1/2-x,z,-y
118 -1/2-z,-y,x
119 -1/2-z,y,-x
120 -1/2+z,-y,-x
121 -1/2-x,-y,-1/2-z
122 -1/2-z,-x,-1/2-y
123 -1/2-y,-z,-1/2-x
124 -y,-1/2-x,z
125 -y,-1/2+x,-z
126 y,-1/2-x,-z
127 -x,-1/2-z,y
128 x,-1/2-z,-y
129 -x,-1/2+z,-y
130 -z,-1/2-y,x
131 -z,-1/2+y,-x
132 z,-1/2-y,-x
133 -1/2-x,-1/2-y,-z
134 -1/2-z,-1/2-x,-y
135 -1/2-y,-1/2-z,-x
136 -y,-x,-1/2+z
137 -y,x,-1/2-z
138 y,-x,-1/2-z
139 -x,-z,-1/2+y
140 x,-z,-1/2-y
141 -x,z,-1/2-y
142 -z,-y,-1/2+x
143 -z,y,-1/2-x
144 z,-y,-1/2-x
145 x,y,-z
146 x,-y,z
147 -x,y,z
148 -z,x,y
149 z,x,-y
150 z,-x,y
151 y,-z,x
152 -y,z,x
153 y,z,-x
154 -1/2+y,-1/2+x,-1/2+z
155 -1/2+x,-1/2+z,-1/2+y
156 -1/2+z,-1/2+y,-1/2+x
157 x,-1/2+y,-1/2-z
158 x,-1/2-y,-1/2+z
159 -x,-1/2+y,-1/2+z
160 -z,-1/2+x,-1/2+y
161 z,-1/2+x,-1/2-y
162 z,-1/2-x,-1/2+y
163 y,-1/2-z,-1/2+x
164 -y,-1/2+z,-1/2+x
165 y,-1/2+z,-1/2-x
166 -1/2+y,x,z
167 -1/2+x,z,y
168 -1/2+z,y,x
169 -1/2+x,y,-1/2-z
170 -1/2+x,-y,-1/2+z
171 -1/2-x,y,-1/2+z
172 -1/2-z,x,-1/2+y
173 -1/2+z,x,-1/2-y
174 -1/2+z,-x,-1/2+y
175 -1/2+y,-z,-1/2+x
176 -1/2-y,z,-1/2+x
177 -1/2+y,z,-1/2-x
178 y,-1/2+x,z
179 x,-1/2+z,y
180 z,-1/2+y,x
181 -1/2+x,-1/2+y,-z
182 -1/2+x,-1/2-y,z
183 -1/2-x,-1/2+y,z
184 -1/2-z,-1/2+x,y
185 -1/2+z,-1/2+x,-y
186 -1/2+z,-1/2-x,y
187 -1/2+y,-1/2-z,x
188 -1/2-y,-1/2+z,x
189 -1/2+y,-1/2+z,-x
190 y,x,-1/2+z
191 x,z,-1/2+y
192 z,y,-1/2+x
_cell_length_a 48.325(6)
_cell_length_b 48.325(6)
_cell_length_c 48.325(6)
_cell_angle_alpha 90
_cell_angle_beta 90
_cell_angle_gamma 90
_cell_formula_units_Z 8
loop_
_atom_type_symbol
_atom_type_radius_bond
C 0.68
H 0.23
Cd 1.62
O 0.68
loop_
_atom_site_label
_atom_site_type_symbol
_atom_site_fract_x
_atom_site_fract_y
_atom_site_fract_z
O1 O 0.0875(4) 0.25000 0.25000
O2 O 0.0411(4) 0.25000 0.25000
O3 O 0.00000 0.2007(6) 0.1291(5)
Cd1 Cd 0.00000 0.201490(12) 0.223449(12)
O4 O 0.02968(8) 0.23486(8) 0.20635(9)
O5 O -0.03308(8) 0.16972(8) 0.23855(8)
O6 O 0.00000 0.25000 0.25000
O7 O 0.00000 0.18103(19) 0.18148(17)
C1 C 0.04010(11) 0.24054(13) 0.18248(13)
C2 C 0.06201(12) 0.22167(12) 0.17121(13)
C3 C 0.07090(12) 0.19871(12) 0.18598(14)
H1 H 0.06230 0.19380 0.20290
C4 C 0.09245(12) 0.18315(13) 0.17562(13)
C5 C 0.10580(12) 0.18974(13) 0.15103(13)
C6 C 0.09622(13) 0.21265(13) 0.13590(14)
H2 H 0.10460 0.21740 0.11880
C7 C 0.07462(12) 0.22808(12) 0.14611(13)
H3 H 0.06810 0.24350 0.13580
C8 C 0.10417(13) 0.15723(14) 0.18853(14)
C9 C 0.12846(13) 0.16942(13) 0.14639(13)
C10 C 0.12719(13) 0.14966(13) 0.16822(13)
C11 C 0.08039(17) 0.13512(17) 0.1891(2)
H4 H 0.08720 0.11860 0.19900
H5 H 0.06470 0.14270 0.19990
C12 C 0.0693(2) 0.1258(2) 0.1604(2)
H6 H 0.05970 0.14130 0.15160
H7 H 0.05640 0.11040 0.16290
H8 H 0.08480 0.11990 0.14880
C13 C 0.11587(18) 0.16486(16) 0.21744(15)
H9 H 0.10050 0.17200 0.22900
H10 H 0.12290 0.14780 0.22630
C14 C 0.13907(18) 0.1864(2) 0.21710(18)
H11 H 0.15510 0.17880 0.20730
H12 H 0.14430 0.19100 0.23610
H13 H 0.13260 0.20310 0.20760
C15 C 0.00000 0.1582(7) 0.1759(7)
O8? O -0.0172(4) 0.1138(4) 0.2379(6)
O9? O 0.0678(11) 0.2613(15) 0.0700(12)
Cd1FA Cd 0.00000 0.276551(12) 0.201490(12)
Cd1PA Cd 0.00000 0.223449(12) 0.298510(12)
Cd1DD Cd 0.00000 0.298510(12) 0.276551(12)
Cd1B Cd 0.20149 0.223449(12) 0.000000(12)
Cd1W Cd 0.27655 0.201490(12) 0.000000(12)
Cd1A Cd 0.22345 0.000000(12) 0.201490(12)
Cd1MA Cd 0.20149 0.000000(12) 0.276551(12)
Cd1CA Cd -0.20149 0.500000(12) 0.223449(12)
Cd1KA Cd -0.27655 0.500000(12) 0.201490(12)
Cd1YD Cd -0.22345 0.298510(12) 0.000000(12)
Cd1UE Cd -0.20149 0.223449(12) 0.000000(12)
Cd1FE Cd -0.20149 0.000000(12) 0.276551(12)
Cd1PF Cd -0.27655 0.000000(12) 0.298510(12)
Cd1UA Cd -0.22345 0.201490(12) 0.500000(12)
Cd1FD Cd -0.20149 0.276551(12) 0.500000(12)
Cd1J Cd -0.27655 0.298510(12) 0.500000(12)
Cd1ED Cd -0.22345 0.500000(12) 0.298510(12)
O4PA O 0.02968(8) 0.20635(8) 0.26514(9)
O4PE O -0.02968(8) 0.23486(8) 0.20635(9)
O4JE O -0.02968(8) 0.20635(8) 0.26514(9)
O4B O 0.23486(8) 0.20635(8) 0.02968(9)
O4A O 0.20635(8) 0.02968(8) 0.23486(9)
O4FA O 0.02968(8) 0.29365(8) 0.23486(9)
O4VD O -0.02968(8) 0.29365(8) 0.23486(9)
O4DD O -0.02968(8) 0.26514(8) 0.29365(9)
O4JB O 0.02968(8) 0.26514(8) 0.29365(9)
O4SD O -0.23486(8) 0.47032(8) 0.20635(9)
O4YD O -0.20635(8) 0.26514(8) 0.02968(9)
O4FE O -0.23486(8) 0.02968(8) 0.29365(9)
O4LE O -0.20635(8) 0.23486(8) 0.47032(9)
O4FD O -0.23486(8) 0.29365(8) 0.47032(9)
O4ED O -0.20635(8) 0.47032(8) 0.26514(9)
O5PE O 0.03308(8) 0.16972(8) 0.23855(8)
O5VD O 0.03308(8) 0.26145(8) 0.16972(8)
O5ND O 0.26145(8) 0.16972(8) 0.03308(8)
O5GE O 0.16972(8) 0.03308(8) 0.26145(8)
O5FA O -0.03308(8) 0.26145(8) 0.16972(8)
O5PA O -0.03308(8) 0.23855(8) 0.33028(8)
O5JE O 0.03308(8) 0.23855(8) 0.33028(8)
O5DD O 0.03308(8) 0.33028(8) 0.26145(8)
O5JB O -0.03308(8) 0.33028(8) 0.26145(8)
O5KA O -0.26145(8) 0.46692(8) 0.16972(8)
O5BB O -0.16972(8) 0.23855(8) 0.03308(8)
O5WB O -0.26145(8) 0.03308(8) 0.33028(8)
O5PB O -0.16972(8) 0.26145(8) 0.46692(8)
O5J O -0.26145(8) 0.33028(8) 0.46692(8)
O5CA O -0.16972(8) 0.46692(8) 0.23855(8)
O7FA O 0.00000 0.31852(19) 0.18103(17)
O7PA O 0.00000 0.18148(19) 0.31897(17)
O7DD O 0.00000 0.31897(19) 0.31852(17)
C1JE C -0.04010(11) 0.18248(13) 0.25946(13)
C1B C 0.24054(11) 0.18248(13) 0.04010(13)
C1A C 0.18248(11) 0.04010(13) 0.24054(13)
C1VD C -0.04010(11) 0.31752(13) 0.24054(13)
C1SD C -0.24054(11) 0.45990(13) 0.18248(13)
C1YD C -0.18248(11) 0.25946(13) 0.04010(13)
C1FE C -0.24054(11) 0.04010(13) 0.31752(13)
C1LE C -0.18248(11) 0.24054(13) 0.45990(13)
C1DD C -0.04010(11) 0.25946(13) 0.31752(13)
C1FD C -0.24054(11) 0.31752(13) 0.45990(13)
C1ED C -0.18248(11) 0.45990(13) 0.25946(13)
C2B C 0.22167(12) 0.17121(12) 0.06201(13)
C2A C 0.17121(12) 0.06201(12) 0.22167(13)
C2VD C -0.06201(12) 0.32879(12) 0.22167(13)
C2SD C -0.22167(12) 0.43799(12) 0.17121(13)
C2YD C -0.17121(12) 0.27833(12) 0.06201(13)
C2JE C -0.06201(12) 0.17121(12) 0.27833(13)
C2FE C -0.22167(12) 0.06201(12) 0.32879(13)
C2LE C -0.17121(12) 0.22167(12) 0.43799(13)
C2DD C -0.06201(12) 0.27833(12) 0.32879(13)
C2FD C -0.22167(12) 0.32879(12) 0.43799(13)
C2ED C -0.17121(12) 0.43799(12) 0.27833(13)
C3B C 0.19871(12) 0.18598(12) 0.07090(14)
C3A C 0.18598(12) 0.07090(12) 0.19871(14)
C3VD C -0.07090(12) 0.31402(12) 0.19871(14)
C3SD C -0.19871(12) 0.42910(12) 0.18598(14)
C3YD C -0.18598(12) 0.30129(12) 0.07090(14)
C3JE C -0.07090(12) 0.18598(12) 0.30129(14)
C3FE C -0.19871(12) 0.07090(12) 0.31402(14)
C3LE C -0.18598(12) 0.19871(12) 0.42910(14)
C3DD C -0.07090(12) 0.30129(12) 0.31402(14)
C3FD C -0.19871(12) 0.31402(12) 0.42910(14)
C3ED C -0.18598(12) 0.42910(12) 0.30129(14)
H1B H 0.19380 0.20290 0.06230
H1A H 0.20290 0.06230 0.19380
H1VD H -0.06230 0.29710 0.19380
H1SD H -0.19380 0.43770 0.20290
H1YD H -0.20290 0.30620 0.06230
H1JE H -0.06230 0.20290 0.30620
H1FE H -0.19380 0.06230 0.29710
H1LE H -0.20290 0.19380 0.43770
H1DD H -0.06230 0.30620 0.29710
H1FD H -0.19380 0.29710 0.43770
H1ED H -0.20290 0.43770 0.30620
C4B C 0.18315(12) 0.17562(13) 0.09245(13)
C4A C 0.17562(12) 0.09245(13) 0.18315(13)
C4VD C -0.09245(12) 0.32438(13) 0.18315(13)
C4SD C -0.18315(12) 0.40755(13) 0.17562(13)
C4YD C -0.17562(12) 0.31685(13) 0.09245(13)
C4JE C -0.09245(12) 0.17562(13) 0.31685(13)
C4FE C -0.18315(12) 0.09245(13) 0.32438(13)
C4LE C -0.17562(12) 0.18315(13) 0.40755(13)
C4DD C -0.09245(12) 0.31685(13) 0.32438(13)
C4FD C -0.18315(12) 0.32438(13) 0.40755(13)
C4ED C -0.17562(12) 0.40755(13) 0.31685(13)
C5A C 0.15103(12) 0.10580(13) 0.18974(13)
C5B C 0.18974(12) 0.15103(13) 0.10580(13)
C5VD C -0.10580(12) 0.34897(13) 0.18974(13)
C5YD C -0.15103(12) 0.31026(13) 0.10580(13)
C5SD C -0.18974(12) 0.39420(13) 0.15103(13)
C5JE C -0.10580(12) 0.15103(13) 0.31026(13)
C5LE C -0.15103(12) 0.18974(13) 0.39420(13)
C5FE C -0.18974(12) 0.10580(13) 0.34897(13)
C5DD C -0.10580(12) 0.31026(13) 0.34897(13)
C5ED C -0.15103(12) 0.39420(13) 0.31026(13)
C5FD C -0.18974(12) 0.34897(13) 0.39420(13)
C6A C 0.13590(13) 0.09622(13) 0.21265(14)
C6B C 0.21265(13) 0.13590(13) 0.09622(14)
C6VD C -0.09622(13) 0.36410(13) 0.21265(14)
C6YD C -0.13590(13) 0.28735(13) 0.09622(14)
C6SD C -0.21265(13) 0.40378(13) 0.13590(14)
C6JE C -0.09622(13) 0.13590(13) 0.28735(14)
C6LE C -0.13590(13) 0.21265(13) 0.40378(14)
C6FE C -0.21265(13) 0.09622(13) 0.36410(14)
C6DD C -0.09622(13) 0.28735(13) 0.36410(14)
C6ED C -0.13590(13) 0.40378(13) 0.28735(14)
C6FD C -0.21265(13) 0.36410(13) 0.40378(14)
H2A H 0.11880 0.10460 0.21740
H2B H 0.21740 0.11880 0.10460
H2VD H -0.10460 0.38120 0.21740
H2YD H -0.11880 0.28260 0.10460
H2SD H -0.21740 0.39540 0.11880
H2JE H -0.10460 0.11880 0.28260
H2LE H -0.11880 0.21740 0.39540
H2FE H -0.21740 0.10460 0.38120
H2DD H -0.10460 0.28260 0.38120
H2ED H -0.11880 0.39540 0.28260
H2FD H -0.21740 0.38120 0.39540
C7A C 0.14611(12) 0.07462(12) 0.22808(13)
C7B C 0.22808(12) 0.14611(12) 0.07462(13)
C7VD C -0.07462(12) 0.35389(12) 0.22808(13)
C7YD C -0.14611(12) 0.27192(12) 0.07462(13)
C7SD C -0.22808(12) 0.42538(12) 0.14611(13)
C7JE C -0.07462(12) 0.14611(12) 0.27192(13)
C7LE C -0.14611(12) 0.22808(12) 0.42538(13)
C7FE C -0.22808(12) 0.07462(12) 0.35389(13)
C7DD C -0.07462(12) 0.27192(12) 0.35389(13)
C7ED C -0.14611(12) 0.42538(12) 0.27192(13)
C7FD C -0.22808(12) 0.35389(12) 0.42538(13)
H3A H 0.13580 0.06810 0.24350
H3B H 0.24350 0.13580 0.06810
H3VD H -0.06810 0.36420 0.24350
H3YD H -0.13580 0.25650 0.06810
H3SD H -0.24350 0.43190 0.13580
H3JE H -0.06810 0.13580 0.25650
H3LE H -0.13580 0.24350 0.43190
H3FE H -0.24350 0.06810 0.36420
H3DD H -0.06810 0.25650 0.36420
H3ED H -0.13580 0.43190 0.25650
H3FD H -0.24350 0.36420 0.43190
C8B C 0.15723(13) 0.18853(14) 0.10417(14)
C8A C 0.18853(13) 0.10417(14) 0.15723(14)
C8VD C -0.10417(13) 0.31147(14) 0.15723(14)
C8SD C -0.15723(13) 0.39583(14) 0.18853(14)
C8YD C -0.18853(13) 0.34277(14) 0.10417(14)
C8JE C -0.10417(13) 0.18853(14) 0.34277(14)
C8FE C -0.15723(13) 0.10417(14) 0.31147(14)
C8LE C -0.18853(13) 0.15723(14) 0.39583(14)
C8DD C -0.10417(13) 0.34277(14) 0.31147(14)
C8FD C -0.15723(13) 0.31147(14) 0.39583(14)
C8ED C -0.18853(13) 0.39583(14) 0.34277(14)
C9A C 0.14639(13) 0.12846(13) 0.16942(13)
C9B C 0.16942(13) 0.14639(13) 0.12846(13)
C9VD C -0.12846(13) 0.35361(13) 0.16942(13)
C9YD C -0.14639(13) 0.33058(13) 0.12846(13)
C9SD C -0.16942(13) 0.37154(13) 0.14639(13)
C9JE C -0.12846(13) 0.14639(13) 0.33058(13)
C9LE C -0.14639(13) 0.16942(13) 0.37154(13)
C9FE C -0.16942(13) 0.12846(13) 0.35361(13)
C9DD C -0.12846(13) 0.33058(13) 0.35361(13)
C9ED C -0.14639(13) 0.37154(13) 0.33058(13)
C9FD C -0.16942(13) 0.35361(13) 0.37154(13)
C10B C 0.14966(13) 0.16822(13) 0.12719(13)
C10A C 0.16822(13) 0.12719(13) 0.14966(13)
C10VD C -0.12719(13) 0.33178(13) 0.14966(13)
C10SD C -0.14966(13) 0.37281(13) 0.16822(13)
C10YD C -0.16822(13) 0.35034(13) 0.12719(13)
C10JE C -0.12719(13) 0.16822(13) 0.35034(13)
C10FE C -0.14966(13) 0.12719(13) 0.33178(13)
C10LE C -0.16822(13) 0.14966(13) 0.37281(13)
C10DD C -0.12719(13) 0.35034(13) 0.33178(13)
C10FD C -0.14966(13) 0.33178(13) 0.37281(13)
C10ED C -0.16822(13) 0.37281(13) 0.35034(13)
C11B C 0.13512(17) 0.18910(17) 0.08039(20)
C11A C 0.18910(17) 0.08039(17) 0.13512(20)
C11VD C -0.08039(17) 0.31090(17) 0.13512(20)
C11SD C -0.13512(17) 0.41961(17) 0.1891(2)
C11YD C -0.18910(17) 0.36488(17) 0.08039(20)
C11JE C -0.08039(17) 0.18910(17) 0.36488(20)
C11FE C -0.13512(17) 0.08039(17) 0.3109(2)
C11LE C -0.18910(17) 0.13512(17) 0.41961(20)
C11DD C -0.08039(17) 0.36488(17) 0.3109(2)
C11FD C -0.13512(17) 0.31090(17) 0.41961(20)
C11ED C -0.18910(17) 0.41961(17) 0.36488(20)
H4B H 0.11860 0.19900 0.08720
H4A H 0.19900 0.08720 0.11860
H4VD H -0.08720 0.30100 0.11860
H4SD H -0.11860 0.41280 0.19900
H4YD H -0.19900 0.38140 0.08720
H4JE H -0.08720 0.19900 0.38140
H4FE H -0.11860 0.08720 0.30100
H4LE H -0.19900 0.11860 0.41280
H4DD H -0.08720 0.38140 0.30100
H4FD H -0.11860 0.30100 0.41280
H4ED H -0.19900 0.41280 0.38140
H5B H 0.14270 0.19990 0.06470
H5A H 0.19990 0.06470 0.14270
H5VD H -0.06470 0.30010 0.14270
H5SD H -0.14270 0.43530 0.19990
H5YD H -0.19990 0.35730 0.06470
H5JE H -0.06470 0.19990 0.35730
H5FE H -0.14270 0.06470 0.30010
H5LE H -0.19990 0.14270 0.43530
H5DD H -0.06470 0.35730 0.30010
H5FD H -0.14270 0.30010 0.43530
H5ED H -0.19990 0.43530 0.35730
C12B C 0.1258(2) 0.1604(2) 0.0693(2)
C12A C 0.1604(2) 0.0693(2) 0.1258(2)
C12VD C -0.0693(2) 0.3396(2) 0.1258(2)
C12SD C -0.1258(2) 0.4307(2) 0.1604(2)
C12YD C -0.1604(2) 0.3742(2) 0.0693(2)
C12JE C -0.0693(2) 0.1604(2) 0.3742(2)
C12FE C -0.1258(2) 0.0693(2) 0.3396(2)
C12LE C -0.1604(2) 0.1258(2) 0.4307(2)
C12DD C -0.0693(2) 0.3742(2) 0.3396(2)
C12FD C -0.1258(2) 0.3396(2) 0.4307(2)
C12ED C -0.1604(2) 0.4307(2) 0.3742(2)
H6B H 0.14130 0.15160 0.05970
H6A H 0.15160 0.05970 0.14130
H6VD H -0.05970 0.34840 0.14130
H6SD H -0.14130 0.44030 0.15160
H6YD H -0.15160 0.35870 0.05970
H6JE H -0.05970 0.15160 0.35870
H6FE H -0.14130 0.05970 0.34840
H6LE H -0.15160 0.14130 0.44030
H6DD H -0.05970 0.35870 0.34840
H6FD H -0.14130 0.34840 0.44030
H6ED H -0.15160 0.44030 0.35870
H7B H 0.11040 0.16290 0.05640
H7A H 0.16290 0.05640 0.11040
H7VD H -0.05640 0.33710 0.11040
H7SD H -0.11040 0.44360 0.16290
H7YD H -0.16290 0.38960 0.05640
H7JE H -0.05640 0.16290 0.38960
H7FE H -0.11040 0.05640 0.33710
H7LE H -0.16290 0.11040 0.44360
H7DD H -0.05640 0.38960 0.33710
H7FD H -0.11040 0.33710 0.44360
H7ED H -0.16290 0.44360 0.38960
H8B H 0.11990 0.14880 0.08480
H8A H 0.14880 0.08480 0.11990
H8VD H -0.08480 0.35120 0.11990
H8SD H -0.11990 0.41520 0.14880
H8YD H -0.14880 0.38010 0.08480
H8JE H -0.08480 0.14880 0.38010
H8FE H -0.11990 0.08480 0.35120
H8LE H -0.14880 0.11990 0.41520
H8DD H -0.08480 0.38010 0.35120
H8FD H -0.11990 0.35120 0.41520
H8ED H -0.14880 0.41520 0.38010
C13B C 0.16486(18) 0.21744(16) 0.11587(15)
C13A C 0.21744(18) 0.11587(16) 0.16486(15)
C13VD C -0.11587(18) 0.28256(16) 0.16486(15)
C13SD C -0.16486(18) 0.38413(16) 0.21744(15)
C13YD C -0.21744(18) 0.33514(16) 0.11587(15)
C13JE C -0.11587(18) 0.21744(16) 0.33514(15)
C13FE C -0.16486(18) 0.11587(16) 0.28256(15)
C13LE C -0.21744(18) 0.16486(16) 0.38413(15)
C13DD C -0.11587(18) 0.33514(16) 0.28256(15)
C13FD C -0.16486(18) 0.28256(16) 0.38413(15)
C13ED C -0.21744(18) 0.38413(16) 0.33514(15)
H9B H 0.17200 0.22900 0.10050
H9A H 0.22900 0.10050 0.17200
H9VD H -0.10050 0.27100 0.17200
H9SD H -0.17200 0.39950 0.22900
H9YD H -0.22900 0.32800 0.10050
H9JE H -0.10050 0.22900 0.32800
H9FE H -0.17200 0.10050 0.27100
H9LE H -0.22900 0.17200 0.39950
H9DD H -0.10050 0.32800 0.27100
H9FD H -0.17200 0.27100 0.39950
H9ED H -0.22900 0.39950 0.32800
H10B H 0.14780 0.22630 0.12290
H10A H 0.22630 0.12290 0.14780
H10VD H -0.12290 0.27370 0.14780
H10SD H -0.14780 0.37710 0.22630
H10YD H -0.22630 0.35220 0.12290
H10JE H -0.12290 0.22630 0.35220
H10FE H -0.14780 0.12290 0.27370
H10LE H -0.22630 0.14780 0.37710
H10DD H -0.12290 0.35220 0.27370
H10FD H -0.14780 0.27370 0.37710
H10ED H -0.22630 0.37710 0.35220
C14B C 0.18640(18) 0.2171(2) 0.13907(18)
C14A C 0.21710(18) 0.13907(20) 0.18640(18)
C14VD C -0.13907(18) 0.2829(2) 0.18640(18)
C14SD C -0.18640(18) 0.36093(20) 0.21710(18)
C14YD C -0.21710(18) 0.3136(2) 0.13907(18)
C14JE C -0.13907(18) 0.2171(2) 0.31360(18)
C14FE C -0.18640(18) 0.13907(20) 0.28290(18)
C14LE C -0.21710(18) 0.1864(2) 0.36093(18)
C14DD C -0.13907(18) 0.3136(2) 0.28290(18)
C14FD C -0.18640(18) 0.2829(2) 0.36093(18)
C14ED C -0.21710(18) 0.36093(20) 0.31360(18)
H11B H 0.17880 0.20730 0.15510
H11A H 0.20730 0.15510 0.17880
H11VD H -0.15510 0.29270 0.17880
H11SD H -0.17880 0.34490 0.20730
H11YD H -0.20730 0.32120 0.15510
H11JE H -0.15510 0.20730 0.32120
H11FE H -0.17880 0.15510 0.29270
H11LE H -0.20730 0.17880 0.34490
H11DD H -0.15510 0.32120 0.29270
H11FD H -0.17880 0.29270 0.34490
H11ED H -0.20730 0.34490 0.32120
H12B H 0.19100 0.23610 0.14430
H12A H 0.23610 0.14430 0.19100
H12VD H -0.14430 0.26390 0.19100
H12SD H -0.19100 0.35570 0.23610
H12YD H -0.23610 0.30900 0.14430
H12JE H -0.14430 0.23610 0.30900
H12FE H -0.19100 0.14430 0.26390
H12LE H -0.23610 0.19100 0.35570
H12DD H -0.14430 0.30900 0.26390
H12FD H -0.19100 0.26390 0.35570
H12ED H -0.23610 0.35570 0.30900
H13B H 0.20310 0.20760 0.13260
H13A H 0.20760 0.13260 0.20310
H13VD H -0.13260 0.29240 0.20310
H13SD H -0.20310 0.36740 0.20760
H13YD H -0.20760 0.29690 0.13260
H13JE H -0.13260 0.20760 0.29690
H13FE H -0.20310 0.13260 0.29240
H13LE H -0.20760 0.20310 0.36740
H13DD H -0.13260 0.29690 0.29240
H13FD H -0.20310 0.29240 0.36740
H13ED H -0.20760 0.36740 0.29690
C15FA C 0.00000 0.3241(7) 0.1582(7)
C15DD C 0.00000 0.3418(7) 0.3241(7)
C15PA C 0.00000 0.1759(7) 0.3418(7)
#END
