
#######################################################################
#
#                 Cambridge Crystallographic Data Centre
#                                CCDC
#
#######################################################################
#
# If this CIF has been generated from an entry in the Cambridge
# Structural Database, then it will include bibliographic, chemical,
# crystal, experimental, refinement or atomic coordinate data resulting
# from the CCDC's data processing and validation procedures.
#
#######################################################################

data_CSD_CIF_BUFNOG
_audit_creation_date 2009-12-08
_audit_creation_method CSD-ConQuest-V1
_database_code_CSD BUFNOG
_database_code_depnum_ccdc_archive 'CCDC 733315'
_chemical_formula_sum 'C336 H357 Cd13.5 O72'
_chemical_formula_moiety
;
(Cd1 2+)1.5n,3n(H3 O1 1+),n(C336 H336 Cd12 O63 6-),6n(H2 O1)
;
_journal_coden_Cambridge 4
_journal_volume 131
_journal_year 2009
_journal_page_first 3814
_journal_name_full 'J.Am.Chem.Soc. '
loop_
_publ_author_name
"S.Das"
"Hyunuk Kim"
"K.Kim"
_chemical_name_systematic
;
catena-(Sesqui-cadmium(ii) tris(oxonium) 
octakis(\m~6~-5,5,10,10,15,15-hexaethyl-10,15-dihydro-5H-diindeno[1,2-a:1',2'-
c]fluorene-2,7,12-tricarboxylato)-tris(\m~4~-oxo)-dodecaaqua-dodeca-cadmium(ii
) hexahydrate)
;
_chemical_name_common
;
catena-(Sesqui-cadmium(ii) tris(oxonium) 
octakis(mu!6$-5,5,10,10,15,15-hexaethyltruxene-2,7,12-tricarboxylato)-tris(mu!
4$-oxo)-dodecaaqua-dodeca-cadmium(ii) hexahydrate)
;
_cell_volume 113633.089
_exptl_crystal_colour 'colorless'
_exptl_special_details
;
Large structure in which program limits have been exceeded. A partial diagram 
showing the coordination of the ligands and the coordination of the Cd atoms 
has been input; The charge balancing Cd cations and oxonium cations could not 
be located; The total number of uncoordinated water molecules is unclear
;
_exptl_crystal_description 'block'
_diffrn_ambient_temperature 90
_diffrn_radiation_probe x-ray
_diffrn_source synchrotron
#These two values have been output from a single CSD field.
_refine_ls_R_factor_gt 0.0434
_refine_ls_wR_factor_gt 0.0434
_symmetry_cell_setting cubic
_symmetry_space_group_name_H-M 'F m -3 c'
_symmetry_Int_Tables_number 226
loop_
_symmetry_equiv_pos_site_id
_symmetry_equiv_pos_as_xyz
1 x,y,z
2 z,x,y
3 y,z,x
4 1/2+y,1/2+x,1/2-z
5 1/2+y,1/2-x,1/2+z
6 1/2-y,1/2+x,1/2+z
7 1/2+x,1/2+z,1/2-y
8 1/2-x,1/2+z,1/2+y
9 1/2+x,1/2-z,1/2+y
10 1/2+z,1/2+y,1/2-x
11 1/2+z,1/2-y,1/2+x
12 1/2-z,1/2+y,1/2+x
13 x,1/2+y,1/2+z
14 z,1/2+x,1/2+y
15 y,1/2+z,1/2+x
16 1/2+y,x,-z
17 1/2+y,-x,z
18 1/2-y,x,z
19 1/2+x,z,-y
20 1/2-x,z,y
21 1/2+x,-z,y
22 1/2+z,y,-x
23 1/2+z,-y,x
24 1/2-z,y,x
25 1/2+x,y,1/2+z
26 1/2+z,x,1/2+y
27 1/2+y,z,1/2+x
28 y,1/2+x,-z
29 y,1/2-x,z
30 -y,1/2+x,z
31 x,1/2+z,-y
32 -x,1/2+z,y
33 x,1/2-z,y
34 z,1/2+y,-x
35 z,1/2-y,x
36 -z,1/2+y,x
37 1/2+x,1/2+y,z
38 1/2+z,1/2+x,y
39 1/2+y,1/2+z,x
40 y,x,1/2-z
41 y,-x,1/2+z
42 -y,x,1/2+z
43 x,z,1/2-y
44 -x,z,1/2+y
45 x,-z,1/2+y
46 z,y,1/2-x
47 z,-y,1/2+x
48 -z,y,1/2+x
49 -x,-y,z
50 -x,y,-z
51 x,-y,-z
52 z,-x,-y
53 -z,-x,y
54 -z,x,-y
55 -y,z,-x
56 y,-z,-x
57 -y,-z,x
58 1/2-y,1/2-x,1/2-z
59 1/2-x,1/2-z,1/2-y
60 1/2-z,1/2-y,1/2-x
61 -x,1/2-y,1/2+z
62 -x,1/2+y,1/2-z
63 x,1/2-y,1/2-z
64 z,1/2-x,1/2-y
65 -z,1/2-x,1/2+y
66 -z,1/2+x,1/2-y
67 -y,1/2+z,1/2-x
68 y,1/2-z,1/2-x
69 -y,1/2-z,1/2+x
70 1/2-y,-x,-z
71 1/2-x,-z,-y
72 1/2-z,-y,-x
73 1/2-x,-y,1/2+z
74 1/2-x,y,1/2-z
75 1/2+x,-y,1/2-z
76 1/2+z,-x,1/2-y
77 1/2-z,-x,1/2+y
78 1/2-z,x,1/2-y
79 1/2-y,z,1/2-x
80 1/2+y,-z,1/2-x
81 1/2-y,-z,1/2+x
82 -y,1/2-x,-z
83 -x,1/2-z,-y
84 -z,1/2-y,-x
85 1/2-x,1/2-y,z
86 1/2-x,1/2+y,-z
87 1/2+x,1/2-y,-z
88 1/2+z,1/2-x,-y
89 1/2-z,1/2-x,y
90 1/2-z,1/2+x,-y
91 1/2-y,1/2+z,-x
92 1/2+y,1/2-z,-x
93 1/2-y,1/2-z,x
94 -y,-x,1/2-z
95 -x,-z,1/2-y
96 -z,-y,1/2-x
97 -x,-y,-z
98 -z,-x,-y
99 -y,-z,-x
100 -1/2-y,-1/2-x,-1/2+z
101 -1/2-y,-1/2+x,-1/2-z
102 -1/2+y,-1/2-x,-1/2-z
103 -1/2-x,-1/2-z,-1/2+y
104 -1/2+x,-1/2-z,-1/2-y
105 -1/2-x,-1/2+z,-1/2-y
106 -1/2-z,-1/2-y,-1/2+x
107 -1/2-z,-1/2+y,-1/2-x
108 -1/2+z,-1/2-y,-1/2-x
109 -x,-1/2-y,-1/2-z
110 -z,-1/2-x,-1/2-y
111 -y,-1/2-z,-1/2-x
112 -1/2-y,-x,z
113 -1/2-y,x,-z
114 -1/2+y,-x,-z
115 -1/2-x,-z,y
116 -1/2+x,-z,-y
117 -1/2-x,z,-y
118 -1/2-z,-y,x
119 -1/2-z,y,-x
120 -1/2+z,-y,-x
121 -1/2-x,-y,-1/2-z
122 -1/2-z,-x,-1/2-y
123 -1/2-y,-z,-1/2-x
124 -y,-1/2-x,z
125 -y,-1/2+x,-z
126 y,-1/2-x,-z
127 -x,-1/2-z,y
128 x,-1/2-z,-y
129 -x,-1/2+z,-y
130 -z,-1/2-y,x
131 -z,-1/2+y,-x
132 z,-1/2-y,-x
133 -1/2-x,-1/2-y,-z
134 -1/2-z,-1/2-x,-y
135 -1/2-y,-1/2-z,-x
136 -y,-x,-1/2+z
137 -y,x,-1/2-z
138 y,-x,-1/2-z
139 -x,-z,-1/2+y
140 x,-z,-1/2-y
141 -x,z,-1/2-y
142 -z,-y,-1/2+x
143 -z,y,-1/2-x
144 z,-y,-1/2-x
145 x,y,-z
146 x,-y,z
147 -x,y,z
148 -z,x,y
149 z,x,-y
150 z,-x,y
151 y,-z,x
152 -y,z,x
153 y,z,-x
154 -1/2+y,-1/2+x,-1/2+z
155 -1/2+x,-1/2+z,-1/2+y
156 -1/2+z,-1/2+y,-1/2+x
157 x,-1/2+y,-1/2-z
158 x,-1/2-y,-1/2+z
159 -x,-1/2+y,-1/2+z
160 -z,-1/2+x,-1/2+y
161 z,-1/2+x,-1/2-y
162 z,-1/2-x,-1/2+y
163 y,-1/2-z,-1/2+x
164 -y,-1/2+z,-1/2+x
165 y,-1/2+z,-1/2-x
166 -1/2+y,x,z
167 -1/2+x,z,y
168 -1/2+z,y,x
169 -1/2+x,y,-1/2-z
170 -1/2+x,-y,-1/2+z
171 -1/2-x,y,-1/2+z
172 -1/2-z,x,-1/2+y
173 -1/2+z,x,-1/2-y
174 -1/2+z,-x,-1/2+y
175 -1/2+y,-z,-1/2+x
176 -1/2-y,z,-1/2+x
177 -1/2+y,z,-1/2-x
178 y,-1/2+x,z
179 x,-1/2+z,y
180 z,-1/2+y,x
181 -1/2+x,-1/2+y,-z
182 -1/2+x,-1/2-y,z
183 -1/2-x,-1/2+y,z
184 -1/2-z,-1/2+x,y
185 -1/2+z,-1/2+x,-y
186 -1/2+z,-1/2-x,y
187 -1/2+y,-1/2-z,x
188 -1/2-y,-1/2+z,x
189 -1/2+y,-1/2+z,-x
190 y,x,-1/2+z
191 x,z,-1/2+y
192 z,y,-1/2+x
_cell_length_a 48.436(6)
_cell_length_b 48.436(6)
_cell_length_c 48.436(6)
_cell_angle_alpha 90
_cell_angle_beta 90
_cell_angle_gamma 90
_cell_formula_units_Z 8
loop_
_atom_type_symbol
_atom_type_radius_bond
C 0.68
H 0.23
Cd 1.64
O 0.68
loop_
_atom_site_label
_atom_site_type_symbol
_atom_site_fract_x
_atom_site_fract_y
_atom_site_fract_z
O1 O 0.00000 0.12784(15) 0.21113(17)
O2 O 0.00000 0.2158(4) 0.1207(4)
O3 O 0.0690(3) 0.0690(3) 0.25000
Cd1 Cd 0.00000 0.201514(5) 0.224535(5)
O4 O 0.03357(4) 0.17038(4) 0.23888(4)
O5 O 0.02929(4) 0.20644(4) 0.26602(4)
O6 O 0.00000 0.25000 0.25000
C1 C 0.04023(5) 0.18327(6) 0.26034(6)
C2 C 0.06226(6) 0.17168(6) 0.27868(6)
C3 C 0.07116(6) 0.18635(7) 0.30158(6)
H1 H 0.06280 0.20340 0.30630
C4 C 0.09248(6) 0.17576(7) 0.31747(6)
C5 C 0.10567(6) 0.15110(7) 0.31067(6)
C6 C 0.09603(7) 0.13615(7) 0.28807(7)
H2 H 0.10430 0.11900 0.28340
C7 C 0.07433(7) 0.14642(7) 0.27249(6)
H3 H 0.06760 0.13600 0.25730
C8 C 0.10406(7) 0.18844(7) 0.34348(7)
C9 C 0.12696(6) 0.16792(7) 0.35063(7)
C10 C 0.12825(6) 0.14649(7) 0.33086(7)
C11 C 0.11573(11) 0.21728(9) 0.33635(10)
H4 H 0.10050 0.22880 0.32900
H5 H 0.12230 0.22610 0.35360
C12 C 0.13907(12) 0.21735(11) 0.31566(14)
H6 H 0.15550 0.20910 0.32400
H7 H 0.14310 0.23640 0.31010
H8 H 0.13370 0.20660 0.29940
C13 C 0.07939(9) 0.18835(11) 0.36542(9)
H9 H 0.08640 0.19610 0.38300
H10 H 0.06480 0.20100 0.35870
C14 C 0.06636(13) 0.16078(13) 0.37146(13)
H11 H 0.05870 0.15300 0.35440
H12 H 0.05150 0.16320 0.38500
H13 H 0.08030 0.14820 0.37890
O7 O 0.00000 0.17827(8) 0.18258(7)
Cd1PA Cd 0.00000 0.224535(5) 0.298486(5)
Cd1FA Cd 0.00000 0.275465(5) 0.201514(5)
Cd1DD Cd 0.00000 0.298486(5) 0.275465(5)
Cd1AD Cd 0.27547 0.298486(5) 0.500000(5)
Cd1FF Cd 0.20151 0.275465(5) 0.500000(5)
Cd1BA Cd 0.20151 0.500000(5) 0.224535(5)
Cd1DF Cd 0.22453 0.500000(5) 0.298486(5)
Cd1U Cd -0.27547 0.201514(5) 0.000000(5)
Cd1UE Cd -0.20151 0.224535(5) 0.000000(5)
Cd1FE Cd -0.20151 0.000000(5) 0.275465(5)
Cd1QE Cd -0.22453 0.000000(5) 0.201514(5)
Cd1KA Cd -0.27547 0.500000(5) 0.201514(5)
Cd1CA Cd -0.20151 0.500000(5) 0.224535(5)
Cd1YD Cd -0.22453 0.298486(5) 0.000000(5)
Cd1SA Cd 0.22453 0.201514(5) 0.500000(5)
Cd1QD Cd 0.27547 0.000000(5) 0.298486(5)
Cd1MA Cd 0.20151 0.000000(5) 0.275465(5)
O4PE O -0.03357(4) 0.17038(4) 0.23888(4)
O4DD O -0.03357(4) 0.32962(4) 0.26112(4)
O4JB O 0.03357(4) 0.32962(4) 0.26112(4)
O4FA O 0.03357(4) 0.26112(4) 0.17038(4)
O4VD O -0.03357(4) 0.26112(4) 0.17038(4)
O4PA O 0.03357(4) 0.23888(4) 0.32962(4)
O4JE O -0.03357(4) 0.23888(4) 0.32962(4)
O4GB O 0.26112(4) 0.32962(4) 0.46643(4)
O4BA O 0.17038(4) 0.46643(4) 0.23888(4)
O4KF O -0.26112(4) 0.17038(4) 0.03357(4)
O4FE O -0.17038(4) 0.03357(4) 0.26112(4)
O4CG O -0.26112(4) 0.46643(4) 0.17038(4)
O4UE O -0.17038(4) 0.23888(4) 0.03357(4)
O4OB O 0.17038(4) 0.26112(4) 0.46643(4)
O4YB O 0.26112(4) 0.03357(4) 0.32962(4)
O5FA O 0.02929(4) 0.23398(4) 0.20644(4)
O5PE O -0.02929(4) 0.20644(4) 0.26602(4)
O5VD O -0.02929(4) 0.23398(4) 0.20644(4)
O5PA O 0.02929(4) 0.26602(4) 0.29356(4)
O5DD O -0.02929(4) 0.29356(4) 0.23398(4)
O5JE O -0.02929(4) 0.26602(4) 0.29356(4)
O5JB O 0.02929(4) 0.29356(4) 0.23398(4)
O5GB O 0.23398(4) 0.29356(4) 0.47071(4)
O5BA O 0.20644(4) 0.47071(4) 0.26602(4)
O5KF O -0.23398(4) 0.20644(4) 0.02929(4)
O5FE O -0.20644(4) 0.02929(4) 0.23398(4)
O5CG O -0.23398(4) 0.47071(4) 0.20644(4)
O5UE O -0.20644(4) 0.26602(4) 0.02929(4)
O5OB O 0.20644(4) 0.23398(4) 0.47071(4)
O5YB O 0.23398(4) 0.02929(4) 0.29356(4)
C1PA C 0.04023(5) 0.26034(6) 0.31673(6)
C1GB C 0.23966(5) 0.31673(6) 0.45977(6)
C1BA C 0.18327(5) 0.45977(6) 0.26034(6)
C1VD C -0.04023(5) 0.23966(6) 0.18327(6)
C1KF C -0.23966(5) 0.18327(6) 0.04023(6)
C1FE C -0.18327(5) 0.04023(6) 0.23966(6)
C1DD C -0.04023(5) 0.31673(6) 0.23966(6)
C1CG C -0.23966(5) 0.45977(6) 0.18327(6)
C1UE C -0.18327(5) 0.26034(6) 0.04023(6)
C1OB C 0.18327(5) 0.23966(6) 0.45977(6)
C1YB C 0.23966(5) 0.04023(6) 0.31673(6)
C2PA C 0.06226(6) 0.27868(6) 0.32832(6)
C2GB C 0.22132(6) 0.32832(6) 0.43774(6)
C2BA C 0.17168(6) 0.43774(6) 0.27868(6)
C2VD C -0.06226(6) 0.22132(6) 0.17168(6)
C2KF C -0.22132(6) 0.17168(6) 0.06226(6)
C2FE C -0.17168(6) 0.06226(6) 0.22132(6)
C2DD C -0.06226(6) 0.32832(6) 0.22132(6)
C2CG C -0.22132(6) 0.43774(6) 0.17168(6)
C2UE C -0.17168(6) 0.27868(6) 0.06226(6)
C2OB C 0.17168(6) 0.22132(6) 0.43774(6)
C2YB C 0.22132(6) 0.06226(6) 0.32832(6)
C3PA C 0.07116(6) 0.30158(7) 0.31365(6)
C3GB C 0.19842(6) 0.31365(7) 0.42884(6)
C3BA C 0.18635(6) 0.42884(7) 0.30158(6)
C3VD C -0.07116(6) 0.19842(7) 0.18635(6)
C3KF C -0.19842(6) 0.18635(7) 0.07116(6)
C3FE C -0.18635(6) 0.07116(7) 0.19842(6)
C3DD C -0.07116(6) 0.31365(7) 0.19842(6)
C3CG C -0.19842(6) 0.42884(7) 0.18635(6)
C3UE C -0.18635(6) 0.30158(7) 0.07116(6)
C3OB C 0.18635(6) 0.19842(7) 0.42884(6)
C3YB C 0.19842(6) 0.07116(7) 0.31365(6)
H1PA H 0.06280 0.30630 0.29660
H1GB H 0.19370 0.29660 0.43720
H1BA H 0.20340 0.43720 0.30630
H1VD H -0.06280 0.19370 0.20340
H1KF H -0.19370 0.20340 0.06280
H1FE H -0.20340 0.06280 0.19370
H1DD H -0.06280 0.29660 0.19370
H1CG H -0.19370 0.43720 0.20340
H1UE H -0.20340 0.30630 0.06280
H1OB H 0.20340 0.19370 0.43720
H1YB H 0.19370 0.06280 0.29660
C4PA C 0.09248(6) 0.31747(7) 0.32424(6)
C4GB C 0.18253(6) 0.32424(7) 0.40752(6)
C4BA C 0.17576(6) 0.40752(7) 0.31747(6)
C4VD C -0.09248(6) 0.18253(7) 0.17576(6)
C4KF C -0.18253(6) 0.17576(7) 0.09248(6)
C4FE C -0.17576(6) 0.09248(7) 0.18253(6)
C4DD C -0.09248(6) 0.32424(7) 0.18253(6)
C4CG C -0.18253(6) 0.40752(7) 0.17576(6)
C4UE C -0.17576(6) 0.31747(7) 0.09248(6)
C4OB C 0.17576(6) 0.18253(7) 0.40752(6)
C4YB C 0.18253(6) 0.09248(7) 0.32424(6)
C5PA C 0.10567(6) 0.31067(7) 0.34890(6)
C5BA C 0.15110(6) 0.39433(7) 0.31067(6)
C5GB C 0.18933(6) 0.34890(7) 0.39433(6)
C5VD C -0.10567(6) 0.18933(7) 0.15110(6)
C5FE C -0.15110(6) 0.10567(7) 0.18933(6)
C5KF C -0.18933(6) 0.15110(7) 0.10567(6)
C5DD C -0.10567(6) 0.34890(7) 0.18933(6)
C5UE C -0.15110(6) 0.31067(7) 0.10567(6)
C5CG C -0.18933(6) 0.39433(7) 0.15110(6)
C5OB C 0.15110(6) 0.18933(7) 0.39433(6)
C5YB C 0.18933(6) 0.10567(7) 0.34890(6)
C6PA C 0.09603(7) 0.28807(7) 0.36385(7)
C6BA C 0.13615(7) 0.40397(7) 0.28807(7)
C6GB C 0.21193(7) 0.36385(7) 0.40397(7)
C6VD C -0.09603(7) 0.21193(7) 0.13615(7)
C6FE C -0.13615(7) 0.09603(7) 0.21193(7)
C6KF C -0.21193(7) 0.13615(7) 0.09603(7)
C6DD C -0.09603(7) 0.36385(7) 0.21193(7)
C6UE C -0.13615(7) 0.28807(7) 0.09603(7)
C6CG C -0.21193(7) 0.40397(7) 0.13615(7)
C6OB C 0.13615(7) 0.21193(7) 0.40397(7)
C6YB C 0.21193(7) 0.09603(7) 0.36385(7)
H2PA H 0.10430 0.28340 0.38100
H2BA H 0.11900 0.39570 0.28340
H2GB H 0.21660 0.38100 0.39570
H2VD H -0.10430 0.21660 0.11900
H2FE H -0.11900 0.10430 0.21660
H2KF H -0.21660 0.11900 0.10430
H2DD H -0.10430 0.38100 0.21660
H2UE H -0.11900 0.28340 0.10430
H2CG H -0.21660 0.39570 0.11900
H2OB H 0.11900 0.21660 0.39570
H2YB H 0.21660 0.10430 0.38100
C7PA C 0.07433(7) 0.27249(7) 0.35358(6)
C7BA C 0.14642(7) 0.42567(7) 0.27249(6)
C7GB C 0.22751(7) 0.35358(7) 0.42567(6)
C7VD C -0.07433(7) 0.22751(7) 0.14642(6)
C7FE C -0.14642(7) 0.07433(7) 0.22751(6)
C7KF C -0.22751(7) 0.14642(7) 0.07433(6)
C7DD C -0.07433(7) 0.35358(7) 0.22751(6)
C7UE C -0.14642(7) 0.27249(7) 0.07433(6)
C7CG C -0.22751(7) 0.42567(7) 0.14642(6)
C7OB C 0.14642(7) 0.22751(7) 0.42567(6)
C7YB C 0.22751(7) 0.07433(7) 0.35358(6)
H3PA H 0.06760 0.25730 0.36400
H3BA H 0.13600 0.43240 0.25730
H3GB H 0.24270 0.36400 0.43240
H3VD H -0.06760 0.24270 0.13600
H3FE H -0.13600 0.06760 0.24270
H3KF H -0.24270 0.13600 0.06760
H3DD H -0.06760 0.36400 0.24270
H3UE H -0.13600 0.25730 0.06760
H3CG H -0.24270 0.43240 0.13600
H3OB H 0.13600 0.24270 0.43240
H3YB H 0.24270 0.06760 0.36400
C8PA C 0.10406(7) 0.34348(7) 0.31156(7)
C8GB C 0.15652(7) 0.31156(7) 0.39594(7)
C8BA C 0.18844(7) 0.39594(7) 0.34348(7)
C8VD C -0.10406(7) 0.15652(7) 0.18844(7)
C8KF C -0.15652(7) 0.18844(7) 0.10406(7)
C8FE C -0.18844(7) 0.10406(7) 0.15652(7)
C8DD C -0.10406(7) 0.31156(7) 0.15652(7)
C8CG C -0.15652(7) 0.39594(7) 0.18844(7)
C8UE C -0.18844(7) 0.34348(7) 0.10406(7)
C8YB C 0.15652(7) 0.10406(7) 0.31156(7)
C8OB C 0.18844(7) 0.15652(7) 0.39594(7)
C9YB C 0.14937(6) 0.12696(7) 0.33208(7)
C9PA C 0.12696(6) 0.35063(7) 0.33208(7)
C9GB C 0.14937(6) 0.33208(7) 0.37304(7)
C9BA C 0.16792(6) 0.37304(7) 0.35063(7)
C9VD C -0.12696(6) 0.14937(7) 0.16792(7)
C9KF C -0.14937(6) 0.16792(7) 0.12696(7)
C9FE C -0.16792(6) 0.12696(7) 0.14937(7)
C9DD C -0.12696(6) 0.33208(7) 0.14937(7)
C9CG C -0.14937(6) 0.37304(7) 0.16792(7)
C9UE C -0.16792(6) 0.35063(7) 0.12696(7)
C9OB C 0.16792(6) 0.14937(7) 0.37304(7)
C10OB C 0.14649(6) 0.16914(7) 0.37175(7)
C10PA C 0.12825(6) 0.33086(7) 0.35351(7)
C10BA C 0.14649(6) 0.37175(7) 0.33086(7)
C10GB C 0.16914(6) 0.35351(7) 0.37175(7)
C10VD C -0.12825(6) 0.16914(7) 0.14649(7)
C10FE C -0.14649(6) 0.12825(7) 0.16914(7)
C10KF C -0.16914(6) 0.14649(7) 0.12825(7)
C10DD C -0.12825(6) 0.35351(7) 0.16914(7)
C10UE C -0.14649(6) 0.33086(7) 0.12825(7)
C10CG C -0.16914(6) 0.37175(7) 0.14649(7)
C10YB C 0.16914(6) 0.12825(7) 0.35351(7)
C11PA C 0.11573(11) 0.33635(9) 0.28272(10)
C11GB C 0.16365(11) 0.28272(9) 0.38427(10)
C11BA C 0.21728(11) 0.38427(9) 0.33635(10)
C11VD C -0.11573(11) 0.16365(9) 0.21728(10)
C11KF C -0.16365(11) 0.21728(9) 0.11573(10)
C11FE C -0.21728(11) 0.11573(9) 0.16365(10)
C11DD C -0.11573(11) 0.28272(9) 0.16365(10)
C11CG C -0.16365(11) 0.38427(9) 0.21728(10)
C11UE C -0.21728(11) 0.33635(9) 0.11573(10)
C11YB C 0.16365(11) 0.11573(9) 0.28272(10)
C11OB C 0.21728(11) 0.16365(9) 0.38427(10)
H4PA H 0.10050 0.32900 0.27120
H4GB H 0.17100 0.27120 0.39950
H4BA H 0.22880 0.39950 0.32900
H4VD H -0.10050 0.17100 0.22880
H4KF H -0.17100 0.22880 0.10050
H4FE H -0.22880 0.10050 0.17100
H4DD H -0.10050 0.27120 0.17100
H4CG H -0.17100 0.39950 0.22880
H4UE H -0.22880 0.32900 0.10050
H4YB H 0.17100 0.10050 0.27120
H4OB H 0.22880 0.17100 0.39950
H5PA H 0.12230 0.35360 0.27390
H5GB H 0.14640 0.27390 0.37770
H5BA H 0.22610 0.37770 0.35360
H5VD H -0.12230 0.14640 0.22610
H5KF H -0.14640 0.22610 0.12230
H5FE H -0.22610 0.12230 0.14640
H5DD H -0.12230 0.27390 0.14640
H5CG H -0.14640 0.37770 0.22610
H5UE H -0.22610 0.35360 0.12230
H5YB H 0.14640 0.12230 0.27390
H5OB H 0.22610 0.14640 0.37770
C12PA C 0.13907(12) 0.31566(11) 0.28265(14)
C12GB C 0.18434(12) 0.28265(11) 0.36093(14)
C12BA C 0.21735(12) 0.36093(11) 0.31566(14)
C12VD C -0.13907(12) 0.18434(11) 0.21735(14)
C12KF C -0.18434(12) 0.21735(11) 0.13907(14)
C12FE C -0.21735(12) 0.13907(11) 0.18434(14)
C12DD C -0.13907(12) 0.28265(11) 0.18434(14)
C12CG C -0.18434(12) 0.36093(11) 0.21735(14)
C12UE C -0.21735(12) 0.31566(11) 0.13907(14)
C12YB C 0.18434(12) 0.13907(11) 0.28265(14)
C12OB C 0.21735(12) 0.18434(11) 0.36093(14)
H6PA H 0.15550 0.32400 0.29090
H6GB H 0.17600 0.29090 0.34450
H6BA H 0.20910 0.34450 0.32400
H6VD H -0.15550 0.17600 0.20910
H6KF H -0.17600 0.20910 0.15550
H6FE H -0.20910 0.15550 0.17600
H6DD H -0.15550 0.29090 0.17600
H6CG H -0.17600 0.34450 0.20910
H6UE H -0.20910 0.32400 0.15550
H6YB H 0.17600 0.15550 0.29090
H6OB H 0.20910 0.17600 0.34450
H7PA H 0.14310 0.31010 0.26360
H7GB H 0.18990 0.26360 0.35690
H7BA H 0.23640 0.35690 0.31010
H7VD H -0.14310 0.18990 0.23640
H7KF H -0.18990 0.23640 0.14310
H7FE H -0.23640 0.14310 0.18990
H7DD H -0.14310 0.26360 0.18990
H7CG H -0.18990 0.35690 0.23640
H7UE H -0.23640 0.31010 0.14310
H7YB H 0.18990 0.14310 0.26360
H7OB H 0.23640 0.18990 0.35690
H8PA H 0.13370 0.29940 0.29340
H8GB H 0.20060 0.29340 0.36630
H8BA H 0.20660 0.36630 0.29940
H8VD H -0.13370 0.20060 0.20660
H8KF H -0.20060 0.20660 0.13370
H8FE H -0.20660 0.13370 0.20060
H8DD H -0.13370 0.29340 0.20060
H8CG H -0.20060 0.36630 0.20660
H8UE H -0.20660 0.29940 0.13370
H8YB H 0.20060 0.13370 0.29340
H8OB H 0.20660 0.20060 0.36630
C13PA C 0.07939(9) 0.36542(11) 0.31165(9)
C13GB C 0.13458(9) 0.31165(11) 0.42061(9)
C13BA C 0.18835(9) 0.42061(11) 0.36542(9)
C13VD C -0.07939(9) 0.13458(11) 0.18835(9)
C13KF C -0.13458(9) 0.18835(11) 0.07939(9)
C13FE C -0.18835(9) 0.07939(11) 0.13458(9)
C13DD C -0.07939(9) 0.31165(11) 0.13458(9)
C13CG C -0.13458(9) 0.42061(11) 0.18835(9)
C13UE C -0.18835(9) 0.36542(11) 0.07939(9)
C13YB C 0.13458(9) 0.07939(11) 0.31165(9)
C13OB C 0.18835(9) 0.13458(11) 0.42061(9)
H9PA H 0.08640 0.38300 0.30390
H9GB H 0.11700 0.30390 0.41360
H9BA H 0.19610 0.41360 0.38300
H9VD H -0.08640 0.11700 0.19610
H9KF H -0.11700 0.19610 0.08640
H9FE H -0.19610 0.08640 0.11700
H9DD H -0.08640 0.30390 0.11700
H9CG H -0.11700 0.41360 0.19610
H9UE H -0.19610 0.38300 0.08640
H9YB H 0.11700 0.08640 0.30390
H9OB H 0.19610 0.11700 0.41360
H10PA H 0.06480 0.35870 0.29900
H10GB H 0.14130 0.29900 0.43520
H10BA H 0.20100 0.43520 0.35870
H10VD H -0.06480 0.14130 0.20100
H10KF H -0.14130 0.20100 0.06480
H10FE H -0.20100 0.06480 0.14130
H10DD H -0.06480 0.29900 0.14130
H10CG H -0.14130 0.43520 0.20100
H10UE H -0.20100 0.35870 0.06480
H10YB H 0.14130 0.06480 0.29900
H10OB H 0.20100 0.14130 0.43520
C14PA C 0.06636(13) 0.37146(13) 0.33922(13)
C14GB C 0.12854(13) 0.33922(13) 0.43364(13)
C14BA C 0.16078(13) 0.43364(13) 0.37146(13)
C14VD C -0.06636(13) 0.12854(13) 0.16078(13)
C14KF C -0.12854(13) 0.16078(13) 0.06636(13)
C14FE C -0.16078(13) 0.06636(13) 0.12854(13)
C14DD C -0.06636(13) 0.33922(13) 0.12854(13)
C14CG C -0.12854(13) 0.43364(13) 0.16078(13)
C14UE C -0.16078(13) 0.37146(13) 0.06636(13)
C14YB C 0.12854(13) 0.06636(13) 0.33922(13)
C14OB C 0.16078(13) 0.12854(13) 0.43364(13)
H11PA H 0.05870 0.35440 0.34700
H11GB H 0.14560 0.34700 0.44130
H11BA H 0.15300 0.44130 0.35440
H11VD H -0.05870 0.14560 0.15300
H11KF H -0.14560 0.15300 0.05870
H11FE H -0.15300 0.05870 0.14560
H11DD H -0.05870 0.34700 0.14560
H11CG H -0.14560 0.44130 0.15300
H11UE H -0.15300 0.35440 0.05870
H11YB H 0.14560 0.05870 0.34700
H11OB H 0.15300 0.14560 0.44130
H12PA H 0.05150 0.38500 0.33680
H12GB H 0.11500 0.33680 0.44850
H12BA H 0.16320 0.44850 0.38500
H12VD H -0.05150 0.11500 0.16320
H12KF H -0.11500 0.16320 0.05150
H12FE H -0.16320 0.05150 0.11500
H12DD H -0.05150 0.33680 0.11500
H12CG H -0.11500 0.44850 0.16320
H12UE H -0.16320 0.38500 0.05150
H12YB H 0.11500 0.05150 0.33680
H12OB H 0.16320 0.11500 0.44850
H13PA H 0.08030 0.37890 0.35180
H13GB H 0.12110 0.35180 0.41970
H13BA H 0.14820 0.41970 0.37890
H13VD H -0.08030 0.12110 0.14820
H13KF H -0.12110 0.14820 0.08030
H13FE H -0.14820 0.08030 0.12110
H13DD H -0.08030 0.35180 0.12110
H13CG H -0.12110 0.41970 0.14820
H13UE H -0.14820 0.37890 0.08030
H13YB H 0.12110 0.08030 0.35180
H13OB H 0.14820 0.12110 0.41970
O7DD O 0.00000 0.32173(8) 0.31742(7)
O7FA O 0.00000 0.31742(8) 0.17827(7)
O7PA O 0.00000 0.18258(8) 0.32173(7)
#END
