
#######################################################################
#
#                 Cambridge Crystallographic Data Centre
#                                CCDC
#
#######################################################################
#
# If this CIF has been generated from an entry in the Cambridge
# Structural Database, then it will include bibliographic, chemical,
# crystal, experimental, refinement or atomic coordinate data resulting
# from the CCDC's data processing and validation procedures.
#
#######################################################################

data_CSD_CIF_BUFPAU01
_audit_creation_date 2009-12-08
_audit_creation_method CSD-ConQuest-V1
_database_code_CSD BUFPAU01
_database_code_depnum_ccdc_archive 'CCDC 733320'
_chemical_formula_sum 'C336 H357 O72 Pb13.5'
_chemical_formula_moiety
;
(Pb1 2+)1.5n,3n(H3 O1 1+),n(C336 H336 O63 Pb12 6-),6n(H2 O1)
;
_journal_coden_Cambridge 4
_journal_volume 131
_journal_year 2009
_journal_page_first 3814
_journal_name_full 'J.Am.Chem.Soc. '
loop_
_publ_author_name
"S.Das"
"Hyunuk Kim"
"K.Kim"
_chemical_name_systematic
;
catena-(Sesqui-lead(ii) tris(oxonium) 
octakis(\m~6~-5,5,10,10,15,15-hexaethyl-10,15-dihydro-5H-diindeno[1,2-a:1',2'-
c]fluorene-2,7,12-tricarboxylato)-tris(\m~4~-oxo)-dodecaaqua-dodeca-lead(ii) 
hexahydrate)
;
_chemical_name_common
;
catena-(Sesqui-lead(ii) tris(oxonium) 
octakis(mu!6$-5,5,10,10,15,15-hexaethyltruxene-2,7,12-tricarboxylato)-tris(mu!
4$-oxo)-dodecaaqua-dodeca-lead(ii) hexahydrate)
;
_cell_volume 116421.580
_exptl_crystal_colour 'colorless'
_exptl_special_details
;
crystal soaked in Pb(NO3)2 solution for 2 hours
Large structure in which program limits have been exceeded. A partial diagram 
showing the coordination of the ligands and the coordination of the Pb atoms 
has been input; The charge balancing Pb cations and oxonium cations could not 
be located and the exact identity and number of these cations is unclear; The 
total number of uncoordinated water molecules is unclear
;
_exptl_crystal_description 'block'
_diffrn_ambient_temperature 90
_diffrn_radiation_probe x-ray
_diffrn_source synchrotron
_refine_special_details
;
The coordinated water molecule is disordered. The Pb atom is partially 
occupied by a Cd atom with Pb:Cd occupancies 0.84:0.16, respectively. The sum 
formula is (Pb1 2+)1.5n,3n(H3 O1 1+),n(C336 H336 Cd1.92 O63 Pb10.08 6-),6n(H2 
O1).
;
#These two values have been output from a single CSD field.
_refine_ls_R_factor_gt 0.0765
_refine_ls_wR_factor_gt 0.0765
_symmetry_cell_setting cubic
_symmetry_space_group_name_H-M 'F m -3 c'
_symmetry_Int_Tables_number 226
loop_
_symmetry_equiv_pos_site_id
_symmetry_equiv_pos_as_xyz
1 x,y,z
2 z,x,y
3 y,z,x
4 1/2+y,1/2+x,1/2-z
5 1/2+y,1/2-x,1/2+z
6 1/2-y,1/2+x,1/2+z
7 1/2+x,1/2+z,1/2-y
8 1/2-x,1/2+z,1/2+y
9 1/2+x,1/2-z,1/2+y
10 1/2+z,1/2+y,1/2-x
11 1/2+z,1/2-y,1/2+x
12 1/2-z,1/2+y,1/2+x
13 x,1/2+y,1/2+z
14 z,1/2+x,1/2+y
15 y,1/2+z,1/2+x
16 1/2+y,x,-z
17 1/2+y,-x,z
18 1/2-y,x,z
19 1/2+x,z,-y
20 1/2-x,z,y
21 1/2+x,-z,y
22 1/2+z,y,-x
23 1/2+z,-y,x
24 1/2-z,y,x
25 1/2+x,y,1/2+z
26 1/2+z,x,1/2+y
27 1/2+y,z,1/2+x
28 y,1/2+x,-z
29 y,1/2-x,z
30 -y,1/2+x,z
31 x,1/2+z,-y
32 -x,1/2+z,y
33 x,1/2-z,y
34 z,1/2+y,-x
35 z,1/2-y,x
36 -z,1/2+y,x
37 1/2+x,1/2+y,z
38 1/2+z,1/2+x,y
39 1/2+y,1/2+z,x
40 y,x,1/2-z
41 y,-x,1/2+z
42 -y,x,1/2+z
43 x,z,1/2-y
44 -x,z,1/2+y
45 x,-z,1/2+y
46 z,y,1/2-x
47 z,-y,1/2+x
48 -z,y,1/2+x
49 -x,-y,z
50 -x,y,-z
51 x,-y,-z
52 z,-x,-y
53 -z,-x,y
54 -z,x,-y
55 -y,z,-x
56 y,-z,-x
57 -y,-z,x
58 1/2-y,1/2-x,1/2-z
59 1/2-x,1/2-z,1/2-y
60 1/2-z,1/2-y,1/2-x
61 -x,1/2-y,1/2+z
62 -x,1/2+y,1/2-z
63 x,1/2-y,1/2-z
64 z,1/2-x,1/2-y
65 -z,1/2-x,1/2+y
66 -z,1/2+x,1/2-y
67 -y,1/2+z,1/2-x
68 y,1/2-z,1/2-x
69 -y,1/2-z,1/2+x
70 1/2-y,-x,-z
71 1/2-x,-z,-y
72 1/2-z,-y,-x
73 1/2-x,-y,1/2+z
74 1/2-x,y,1/2-z
75 1/2+x,-y,1/2-z
76 1/2+z,-x,1/2-y
77 1/2-z,-x,1/2+y
78 1/2-z,x,1/2-y
79 1/2-y,z,1/2-x
80 1/2+y,-z,1/2-x
81 1/2-y,-z,1/2+x
82 -y,1/2-x,-z
83 -x,1/2-z,-y
84 -z,1/2-y,-x
85 1/2-x,1/2-y,z
86 1/2-x,1/2+y,-z
87 1/2+x,1/2-y,-z
88 1/2+z,1/2-x,-y
89 1/2-z,1/2-x,y
90 1/2-z,1/2+x,-y
91 1/2-y,1/2+z,-x
92 1/2+y,1/2-z,-x
93 1/2-y,1/2-z,x
94 -y,-x,1/2-z
95 -x,-z,1/2-y
96 -z,-y,1/2-x
97 -x,-y,-z
98 -z,-x,-y
99 -y,-z,-x
100 -1/2-y,-1/2-x,-1/2+z
101 -1/2-y,-1/2+x,-1/2-z
102 -1/2+y,-1/2-x,-1/2-z
103 -1/2-x,-1/2-z,-1/2+y
104 -1/2+x,-1/2-z,-1/2-y
105 -1/2-x,-1/2+z,-1/2-y
106 -1/2-z,-1/2-y,-1/2+x
107 -1/2-z,-1/2+y,-1/2-x
108 -1/2+z,-1/2-y,-1/2-x
109 -x,-1/2-y,-1/2-z
110 -z,-1/2-x,-1/2-y
111 -y,-1/2-z,-1/2-x
112 -1/2-y,-x,z
113 -1/2-y,x,-z
114 -1/2+y,-x,-z
115 -1/2-x,-z,y
116 -1/2+x,-z,-y
117 -1/2-x,z,-y
118 -1/2-z,-y,x
119 -1/2-z,y,-x
120 -1/2+z,-y,-x
121 -1/2-x,-y,-1/2-z
122 -1/2-z,-x,-1/2-y
123 -1/2-y,-z,-1/2-x
124 -y,-1/2-x,z
125 -y,-1/2+x,-z
126 y,-1/2-x,-z
127 -x,-1/2-z,y
128 x,-1/2-z,-y
129 -x,-1/2+z,-y
130 -z,-1/2-y,x
131 -z,-1/2+y,-x
132 z,-1/2-y,-x
133 -1/2-x,-1/2-y,-z
134 -1/2-z,-1/2-x,-y
135 -1/2-y,-1/2-z,-x
136 -y,-x,-1/2+z
137 -y,x,-1/2-z
138 y,-x,-1/2-z
139 -x,-z,-1/2+y
140 x,-z,-1/2-y
141 -x,z,-1/2-y
142 -z,-y,-1/2+x
143 -z,y,-1/2-x
144 z,-y,-1/2-x
145 x,y,-z
146 x,-y,z
147 -x,y,z
148 -z,x,y
149 z,x,-y
150 z,-x,y
151 y,-z,x
152 -y,z,x
153 y,z,-x
154 -1/2+y,-1/2+x,-1/2+z
155 -1/2+x,-1/2+z,-1/2+y
156 -1/2+z,-1/2+y,-1/2+x
157 x,-1/2+y,-1/2-z
158 x,-1/2-y,-1/2+z
159 -x,-1/2+y,-1/2+z
160 -z,-1/2+x,-1/2+y
161 z,-1/2+x,-1/2-y
162 z,-1/2-x,-1/2+y
163 y,-1/2-z,-1/2+x
164 -y,-1/2+z,-1/2+x
165 y,-1/2+z,-1/2-x
166 -1/2+y,x,z
167 -1/2+x,z,y
168 -1/2+z,y,x
169 -1/2+x,y,-1/2-z
170 -1/2+x,-y,-1/2+z
171 -1/2-x,y,-1/2+z
172 -1/2-z,x,-1/2+y
173 -1/2+z,x,-1/2-y
174 -1/2+z,-x,-1/2+y
175 -1/2+y,-z,-1/2+x
176 -1/2-y,z,-1/2+x
177 -1/2+y,z,-1/2-x
178 y,-1/2+x,z
179 x,-1/2+z,y
180 z,-1/2+y,x
181 -1/2+x,-1/2+y,-z
182 -1/2+x,-1/2-y,z
183 -1/2-x,-1/2+y,z
184 -1/2-z,-1/2+x,y
185 -1/2+z,-1/2+x,-y
186 -1/2+z,-1/2-x,y
187 -1/2+y,-1/2-z,x
188 -1/2-y,-1/2+z,x
189 -1/2+y,-1/2+z,-x
190 y,x,-1/2+z
191 x,z,-1/2+y
192 z,y,-1/2+x
_cell_length_a 48.829(6)
_cell_length_b 48.829(6)
_cell_length_c 48.829(6)
_cell_angle_alpha 90
_cell_angle_beta 90
_cell_angle_gamma 90
_cell_formula_units_Z 8
loop_
_atom_type_symbol
_atom_type_radius_bond
C 0.63
H 0.23
Cd 1.44
O 0.78
Pb 1.84
loop_
_atom_site_label
_atom_site_type_symbol
_atom_site_fract_x
_atom_site_fract_y
_atom_site_fract_z
O1 O 0.1243(10) 1.00000 0.1779(10)
O2 O 0.1426(15) 1.00000 0.2281(14)
Pb1 Pb 0.22135(3) 1.00000 0.19522(3)
O3 O 0.23892(12) 0.96647(11) 0.16158(14)
O4 O 0.26151(13) 0.96856(12) 0.19868(18)
O5 O 0.25000 1.00000 0.25000
C1 C 0.25800(16) 0.95823(13) 0.17589(19)
C2 C 0.27562(12) 0.93536(13) 0.16627(18)
C3 C 0.29777(15) 0.92704(14) 0.18272(18)
H1 H 0.30170 0.93620 0.19940
C4 C 0.31386(13) 0.90509(13) 0.17407(15)
C5 C 0.30814(12) 0.89127(13) 0.15023(15)
C6 C 0.28552(14) 0.89934(14) 0.13471(16)
H2 H 0.28070 0.88950 0.11860
C7 C 0.27047(14) 0.92132(14) 0.14272(17)
H3 H 0.25570 0.92710 0.13140
C8 C 0.33921(16) 0.89464(16) 0.18796(18)
C9 C 0.34688(13) 0.87108(13) 0.16912(14)
C10 C 0.32844(13) 0.86852(13) 0.14778(13)
C11 C 0.3618(2) 0.9190(2) 0.1869(2)
H4 H 0.35470 0.93490 0.19720
H5 H 0.37860 0.91260 0.19620
C12 C 0.3696(3) 0.9286(3) 0.1572(3)
H6 H 0.37730 0.91310 0.14700
H7 H 0.38310 0.94330 0.15830
H8 H 0.35310 0.93530 0.14790
C13 C 0.3305(2) 0.8840(3) 0.21745(18)
H9 H 0.34690 0.87700 0.22700
H10 H 0.32340 0.89970 0.22820
C14 C 0.3100(3) 0.8629(3) 0.2170(2)
H11 H 0.29210 0.87110 0.21320
H12 H 0.30960 0.85370 0.23480
H13 H 0.31450 0.84960 0.20270
O6 O 0.1828(5) 1.00000 0.1661(5)
Pb2? Pb 0.21523(11) 1.00000 0.18263(10)
Cd1? Cd 0.22661(18) 1.00000 0.20462(19)
O7? O 0.1834(6) 1.00000 0.1484(7)
Pb1W Pb 0.30478(3) 1.00000 0.22135(3)
Pb1SA Pb 0.19522(3) 1.00000 0.27865(3)
Pb1PD Pb 0.27865(3) 1.00000 0.30478(3)
Pb1RD Pb 0.50000(3) 0.80478 0.27865(3)
Pb1P Pb 0.50000(3) 0.77865 0.19522(3)
Pb1AG Pb 0.30478(3) 0.72135 0.00000(3)
Pb1JD Pb 0.27865(3) 0.80478 0.00000(3)
Pb1WC Pb 0.50000(3) 1.27865 0.30478(3)
Pb1TF Pb 0.50000(3) 1.19522 0.27865(3)
Pb1PA Pb 0.22135(3) 1.19522 0.50000(3)
Pb1OF Pb 0.30478(3) 1.22135 0.50000(3)
Pb1EF Pb 0.19522(3) 1.27865 0.50000(3)
Pb1B Pb 0.00000(3) 1.19522 0.22135(3)
Pb1MA Pb 0.00000(3) 1.22135 0.30478(3)
Pb1CA Pb 0.00000(3) 0.72135 0.19522(3)
Pb1TE Pb 0.00000(3) 0.80478 0.22135(3)
Pb1SE Pb 0.19522(3) 0.77865 0.00000(3)
O3OE O 0.23892(12) 1.03353(11) 0.16158(14)
O3W O 0.33842(12) 0.96647(11) 0.23892(14)
O3MD O 0.33842(12) 1.03353(11) 0.23892(14)
O3SA O 0.16158(12) 0.96647(11) 0.26108(14)
O3ME O 0.16158(12) 1.03353(11) 0.26108(14)
O3PD O 0.26108(12) 1.03353(11) 0.33842(14)
O3UB O 0.26108(12) 0.96647(11) 0.33842(14)
O3AC O 0.46647(12) 0.83842(11) 0.26108(14)
O3KC O 0.33842(12) 0.73892(11) 0.03353(14)
O3WC O 0.46647(12) 1.26108(11) 0.33842(14)
O3HG O 0.23892(12) 1.16158(11) 0.46647(14)
O3EF O 0.16158(12) 1.26108(11) 0.46647(14)
O3UE O 0.03353(12) 1.16158(11) 0.23892(14)
O3CA O 0.03353(12) 0.73892(11) 0.16158(14)
O3RB O 0.26108(12) 0.83842(11) 0.03353(14)
O4SA O 0.19868(13) 0.96856(12) 0.23849(18)
O4OE O 0.26151(13) 1.03144(12) 0.19868(18)
O4ME O 0.19868(13) 1.03144(12) 0.23849(18)
O4W O 0.30132(13) 0.96856(12) 0.26151(18)
O4MD O 0.30132(13) 1.03144(12) 0.26151(18)
O4PD O 0.23849(13) 1.03144(12) 0.30132(18)
O4UB O 0.23849(13) 0.96856(12) 0.30132(18)
O4AC O 0.46856(13) 0.80132(12) 0.23849(18)
O4KC O 0.30132(13) 0.76151(12) 0.03144(18)
O4WC O 0.46856(13) 1.23849(12) 0.30132(18)
O4HG O 0.26151(13) 1.19868(12) 0.46856(18)
O4EF O 0.19868(13) 1.23849(12) 0.46856(18)
O4UE O 0.03144(13) 1.19868(12) 0.26151(18)
O4CA O 0.03144(13) 0.76151(12) 0.19868(18)
O4RB O 0.23849(13) 0.80132(12) 0.03144(18)
C1MD C 0.32411(16) 1.04177(13) 0.25800(19)
C1PD C 0.24200(16) 1.04177(13) 0.32411(19)
C1SA C 0.17589(16) 0.95823(13) 0.24200(19)
C1AC C 0.45823(16) 0.82411(13) 0.24200(19)
C1KC C 0.32411(16) 0.75800(13) 0.04177(19)
C1WC C 0.45823(16) 1.24200(13) 0.32411(19)
C1HG C 0.25800(16) 1.17589(13) 0.45823(19)
C1EF C 0.17589(16) 1.24200(13) 0.45823(19)
C1UE C 0.04177(16) 1.17589(13) 0.25800(19)
C1CA C 0.04177(16) 0.75800(13) 0.17589(19)
C1RB C 0.24200(16) 0.82411(13) 0.04177(19)
C2MD C 0.33373(12) 1.06464(13) 0.27562(18)
C2PD C 0.22438(12) 1.06464(13) 0.33373(18)
C2SA C 0.16627(12) 0.93536(13) 0.22438(18)
C2AC C 0.43536(12) 0.83373(13) 0.22438(18)
C2KC C 0.33373(12) 0.77562(13) 0.06464(18)
C2WC C 0.43536(12) 1.22438(13) 0.33373(18)
C2HG C 0.27562(12) 1.16627(13) 0.43536(18)
C2EF C 0.16627(12) 1.22438(13) 0.43536(18)
C2UE C 0.06464(12) 1.16627(13) 0.27562(18)
C2CA C 0.06464(12) 0.77562(13) 0.16627(18)
C2RB C 0.22438(12) 0.83373(13) 0.06464(18)
C3MD C 0.31728(15) 1.07296(14) 0.29777(18)
C3PD C 0.20223(15) 1.07296(14) 0.31728(18)
C3SA C 0.18272(15) 0.92704(14) 0.20223(18)
C3AC C 0.42704(15) 0.81728(14) 0.20223(18)
C3KC C 0.31728(15) 0.79777(14) 0.07296(18)
C3WC C 0.42704(15) 1.20223(14) 0.31728(18)
C3HG C 0.29777(15) 1.18272(14) 0.42704(18)
C3EF C 0.18272(15) 1.20223(14) 0.42704(18)
C3UE C 0.07296(15) 1.18272(14) 0.29777(18)
C3CA C 0.07296(15) 0.79777(14) 0.18272(18)
C3RB C 0.20223(15) 0.81728(14) 0.07296(18)
H1MD H 0.30060 1.06380 0.30170
H1PD H 0.19830 1.06380 0.30060
H1SA H 0.19940 0.93620 0.19830
H1AC H 0.43620 0.80060 0.19830
H1KC H 0.30060 0.80170 0.06380
H1WC H 0.43620 1.19830 0.30060
H1HG H 0.30170 1.19940 0.43620
H1EF H 0.19940 1.19830 0.43620
H1UE H 0.06380 1.19940 0.30170
H1CA H 0.06380 0.80170 0.19940
H1RB H 0.19830 0.80060 0.06380
C4AC C 0.40509(13) 0.82593(13) 0.18614(15)
C4KC C 0.32593(13) 0.81386(13) 0.09491(15)
C4MD C 0.32593(13) 1.09491(13) 0.31386(15)
C4PD C 0.18614(13) 1.09491(13) 0.32593(15)
C4SA C 0.17407(13) 0.90509(13) 0.18614(15)
C4WC C 0.40509(13) 1.18614(13) 0.32593(15)
C4HG C 0.31386(13) 1.17407(13) 0.40509(15)
C4EF C 0.17407(13) 1.18614(13) 0.40509(15)
C4UE C 0.09491(13) 1.17407(13) 0.31386(15)
C4CA C 0.09491(13) 0.81386(13) 0.17407(15)
C4RB C 0.18614(13) 0.82593(13) 0.09491(15)
C5AC C 0.39127(12) 0.84977(13) 0.19186(15)
C5KC C 0.34977(12) 0.80814(13) 0.10873(15)
C5MD C 0.34977(12) 1.10873(13) 0.30814(15)
C5PD C 0.19186(12) 1.10873(13) 0.34977(15)
C5SA C 0.15023(12) 0.89127(13) 0.19186(15)
C5HG C 0.30814(12) 1.15023(13) 0.39127(15)
C5UE C 0.10873(12) 1.15023(13) 0.30814(15)
C5RB C 0.19186(12) 0.84977(13) 0.10873(15)
C5WC C 0.39127(12) 1.19186(13) 0.34977(15)
C5EF C 0.15023(12) 1.19186(13) 0.39127(15)
C5CA C 0.10873(12) 0.80814(13) 0.15023(15)
C6AC C 0.39934(14) 0.86529(14) 0.21448(16)
C6KC C 0.36529(14) 0.78552(14) 0.10066(16)
C6MD C 0.36529(14) 1.10066(14) 0.28552(16)
C6PD C 0.21448(14) 1.10066(14) 0.36529(16)
C6SA C 0.13471(14) 0.89934(14) 0.21448(16)
C6HG C 0.28552(14) 1.13471(14) 0.39934(16)
C6UE C 0.10066(14) 1.13471(14) 0.28552(16)
C6RB C 0.21448(14) 0.86529(14) 0.10066(16)
C6WC C 0.39934(14) 1.21448(14) 0.36529(16)
C6EF C 0.13471(14) 1.21448(14) 0.39934(16)
C6CA C 0.10066(14) 0.78552(14) 0.13471(16)
H2AC H 0.38950 0.88140 0.21930
H2KC H 0.38140 0.78070 0.11050
H2MD H 0.38140 1.11050 0.28070
H2PD H 0.21930 1.11050 0.38140
H2SA H 0.11860 0.88950 0.21930
H2HG H 0.28070 1.11860 0.38950
H2UE H 0.11050 1.11860 0.28070
H2RB H 0.21930 0.88140 0.11050
H2WC H 0.38950 1.21930 0.38140
H2EF H 0.11860 1.21930 0.38950
H2CA H 0.11050 0.78070 0.11860
C7MD C 0.35728(14) 1.07868(14) 0.27047(17)
C7PD C 0.22953(14) 1.07868(14) 0.35728(17)
C7SA C 0.14272(14) 0.92132(14) 0.22953(17)
C7AC C 0.42132(14) 0.85728(14) 0.22953(17)
C7KC C 0.35728(14) 0.77047(14) 0.07868(17)
C7HG C 0.27047(14) 1.14272(14) 0.42132(17)
C7UE C 0.07868(14) 1.14272(14) 0.27047(17)
C7RB C 0.22953(14) 0.85728(14) 0.07868(17)
C7WC C 0.42132(14) 1.22953(14) 0.35728(17)
C7EF C 0.14272(14) 1.22953(14) 0.42132(17)
C7CA C 0.07868(14) 0.77047(14) 0.14272(17)
H3MD H 0.36860 1.07290 0.25570
H3PD H 0.24430 1.07290 0.36860
H3SA H 0.13140 0.92710 0.24430
H3AC H 0.42710 0.86860 0.24430
H3KC H 0.36860 0.75570 0.07290
H3HG H 0.25570 1.13140 0.42710
H3UE H 0.07290 1.13140 0.25570
H3RB H 0.24430 0.86860 0.07290
H3WC H 0.42710 1.24430 0.36860
H3EF H 0.13140 1.24430 0.42710
H3CA H 0.07290 0.75570 0.13140
C8KC C 0.31204(16) 0.83921(16) 0.10536(18)
C8AC C 0.39464(16) 0.81204(16) 0.16079(18)
C8MD C 0.31204(16) 1.10536(16) 0.33921(18)
C8PD C 0.16079(16) 1.10536(16) 0.31204(18)
C8SA C 0.18796(16) 0.89464(16) 0.16079(18)
C8WC C 0.39464(16) 1.16079(16) 0.31204(18)
C8EF C 0.18796(16) 1.16079(16) 0.39464(18)
C8CA C 0.10536(16) 0.83921(16) 0.18796(18)
C8HG C 0.33921(16) 1.18796(16) 0.39464(18)
C8UE C 0.10536(16) 1.18796(16) 0.33921(18)
C8RB C 0.16079(16) 0.81204(16) 0.10536(18)
C9KC C 0.33088(13) 0.84688(13) 0.12892(14)
C9AC C 0.37108(13) 0.83088(13) 0.15312(14)
C9MD C 0.33088(13) 1.12892(13) 0.34688(14)
C9PD C 0.15312(13) 1.12892(13) 0.33088(14)
C9SA C 0.16912(13) 0.87108(13) 0.15312(14)
C9WC C 0.37108(13) 1.15312(13) 0.33088(14)
C9EF C 0.16912(13) 1.15312(13) 0.37108(14)
C9CA C 0.12892(13) 0.84688(13) 0.16912(14)
C9HG C 0.34688(13) 1.16912(13) 0.37108(14)
C9UE C 0.12892(13) 1.16912(13) 0.34688(14)
C9RB C 0.15312(13) 0.83088(13) 0.12892(14)
C10AC C 0.36852(13) 0.85222(13) 0.17156(13)
C10KC C 0.35222(13) 0.82844(13) 0.13148(13)
C10MD C 0.35222(13) 1.13148(13) 0.32844(13)
C10PD C 0.17156(13) 1.13148(13) 0.35222(13)
C10SA C 0.14778(13) 0.86852(13) 0.17156(13)
C10HG C 0.32844(13) 1.14778(13) 0.36852(13)
C10UE C 0.13148(13) 1.14778(13) 0.32844(13)
C10RB C 0.17156(13) 0.85222(13) 0.13148(13)
C10WC C 0.36852(13) 1.17156(13) 0.35222(13)
C10EF C 0.14778(13) 1.17156(13) 0.36852(13)
C10CA C 0.13148(13) 0.82844(13) 0.14778(13)
C11KC C 0.3131(2) 0.8618(2) 0.0810(2)
C11AC C 0.4190(2) 0.8131(2) 0.1382(2)
C11MD C 0.3131(2) 1.0810(2) 0.3618(2)
C11PD C 0.1382(2) 1.0810(2) 0.3131(2)
C11SA C 0.1869(2) 0.9190(2) 0.1382(2)
C11WC C 0.4190(2) 1.1382(2) 0.3131(2)
C11EF C 0.1869(2) 1.1382(2) 0.4190(2)
C11CA C 0.0810(2) 0.8618(2) 0.1869(2)
C11HG C 0.3618(2) 1.1869(2) 0.4190(2)
C11UE C 0.0810(2) 1.1869(2) 0.3618(2)
C11RB C 0.1382(2) 0.8131(2) 0.0810(2)
H4KC H 0.30280 0.85470 0.06510
H4AC H 0.43490 0.80280 0.14530
H4MD H 0.30280 1.06510 0.35470
H4PD H 0.14530 1.06510 0.30280
H4SA H 0.19720 0.93490 0.14530
H4WC H 0.43490 1.14530 0.30280
H4EF H 0.19720 1.14530 0.43490
H4CA H 0.06510 0.85470 0.19720
H4HG H 0.35470 1.19720 0.43490
H4UE H 0.06510 1.19720 0.35470
H4RB H 0.14530 0.80280 0.06510
H5KC H 0.30380 0.87860 0.08740
H5AC H 0.41260 0.80380 0.12140
H5MD H 0.30380 1.08740 0.37860
H5PD H 0.12140 1.08740 0.30380
H5SA H 0.19620 0.91260 0.12140
H5WC H 0.41260 1.12140 0.30380
H5EF H 0.19620 1.12140 0.41260
H5CA H 0.08740 0.87860 0.19620
H5HG H 0.37860 1.19620 0.41260
H5UE H 0.08740 1.19620 0.37860
H5RB H 0.12140 0.80380 0.08740
C12KC C 0.3428(3) 0.8696(3) 0.0714(3)
C12AC C 0.4286(3) 0.8428(3) 0.1304(3)
C12MD C 0.3428(3) 1.0714(3) 0.3696(3)
C12PD C 0.1304(3) 1.0714(3) 0.3428(3)
C12SA C 0.1572(3) 0.9286(3) 0.1304(3)
C12WC C 0.4286(3) 1.1304(3) 0.3428(3)
C12EF C 0.1572(3) 1.1304(3) 0.4286(3)
C12CA C 0.0714(3) 0.8696(3) 0.1572(3)
C12HG C 0.3696(3) 1.1572(3) 0.4286(3)
C12UE C 0.0714(3) 1.1572(3) 0.3696(3)
C12RB C 0.1304(3) 0.8428(3) 0.0714(3)
H6KC H 0.35300 0.87730 0.08690
H6AC H 0.41310 0.85300 0.12270
H6MD H 0.35300 1.08690 0.37730
H6PD H 0.12270 1.08690 0.35300
H6SA H 0.14700 0.91310 0.12270
H6WC H 0.41310 1.12270 0.35300
H6EF H 0.14700 1.12270 0.41310
H6CA H 0.08690 0.87730 0.14700
H6HG H 0.37730 1.14700 0.41310
H6UE H 0.08690 1.14700 0.37730
H6RB H 0.12270 0.85300 0.08690
H7KC H 0.34170 0.88310 0.05670
H7AC H 0.44330 0.84170 0.11690
H7MD H 0.34170 1.05670 0.38310
H7PD H 0.11690 1.05670 0.34170
H7SA H 0.15830 0.94330 0.11690
H7WC H 0.44330 1.11690 0.34170
H7EF H 0.15830 1.11690 0.44330
H7CA H 0.05670 0.88310 0.15830
H7HG H 0.38310 1.15830 0.44330
H7UE H 0.05670 1.15830 0.38310
H7RB H 0.11690 0.84170 0.05670
H8KC H 0.35210 0.85310 0.06470
H8AC H 0.43530 0.85210 0.14690
H8MD H 0.35210 1.06470 0.35310
H8PD H 0.14690 1.06470 0.35210
H8SA H 0.14790 0.93530 0.14690
H8WC H 0.43530 1.14690 0.35210
H8EF H 0.14790 1.14690 0.43530
H8CA H 0.06470 0.85310 0.14790
H8HG H 0.35310 1.14790 0.43530
H8UE H 0.06470 1.14790 0.35310
H8RB H 0.14690 0.85210 0.06470
C13KC C 0.28255(20) 0.8305(3) 0.11600(18)
C13AC C 0.3840(2) 0.78255(30) 0.16950(18)
C13MD C 0.28255(20) 1.1160(3) 0.33050(18)
C13PD C 0.1695(2) 1.1160(3) 0.28255(18)
C13SA C 0.21745(20) 0.8840(3) 0.16950(18)
C13WC C 0.3840(2) 1.1695(3) 0.28255(18)
C13EF C 0.21745(20) 1.1695(3) 0.38400(18)
C13CA C 0.1160(2) 0.8305(3) 0.21745(18)
C13HG C 0.3305(2) 1.21745(30) 0.38400(18)
C13UE C 0.1160(2) 1.21745(30) 0.33050(18)
C13RB C 0.1695(2) 0.78255(30) 0.11600(18)
H9KC H 0.27300 0.84690 0.12300
H9AC H 0.37700 0.77300 0.15310
H9MD H 0.27300 1.12300 0.34690
H9PD H 0.15310 1.12300 0.27300
H9SA H 0.22700 0.87700 0.15310
H9WC H 0.37700 1.15310 0.27300
H9EF H 0.22700 1.15310 0.37700
H9CA H 0.12300 0.84690 0.22700
H9HG H 0.34690 1.22700 0.37700
H9UE H 0.12300 1.22700 0.34690
H9RB H 0.15310 0.77300 0.12300
H10KC H 0.27180 0.82340 0.10030
H10AC H 0.39970 0.77180 0.17660
H10MD H 0.27180 1.10030 0.32340
H10PD H 0.17660 1.10030 0.27180
H10SA H 0.22820 0.89970 0.17660
H10WC H 0.39970 1.17660 0.27180
H10EF H 0.22820 1.17660 0.39970
H10CA H 0.10030 0.82340 0.22820
H10HG H 0.32340 1.22820 0.39970
H10UE H 0.10030 1.22820 0.32340
H10RB H 0.17660 0.77180 0.10030
C14KC C 0.2830(3) 0.8100(3) 0.1371(2)
C14AC C 0.3629(3) 0.7830(3) 0.1900(2)
C14MD C 0.2830(3) 1.1371(3) 0.3100(2)
C14PD C 0.1900(3) 1.1371(3) 0.2830(2)
C14SA C 0.2170(3) 0.8629(3) 0.1900(2)
C14WC C 0.3629(3) 1.1900(3) 0.2830(2)
C14EF C 0.2170(3) 1.1900(3) 0.3629(2)
C14CA C 0.1371(3) 0.8100(3) 0.2170(2)
C14HG C 0.3100(3) 1.2170(3) 0.3629(2)
C14UE C 0.1371(3) 1.2170(3) 0.3100(2)
C14RB C 0.1900(3) 0.7830(3) 0.1371(2)
H11KC H 0.28680 0.79210 0.12890
H11AC H 0.37110 0.78680 0.20790
H11MD H 0.28680 1.12890 0.29210
H11PD H 0.20790 1.12890 0.28680
H11SA H 0.21320 0.87110 0.20790
H11WC H 0.37110 1.20790 0.28680
H11EF H 0.21320 1.20790 0.37110
H11CA H 0.12890 0.79210 0.21320
H11HG H 0.29210 1.21320 0.37110
H11UE H 0.12890 1.21320 0.29210
H11RB H 0.20790 0.78680 0.12890
H12KC H 0.26520 0.80960 0.14630
H12AC H 0.35370 0.76520 0.19040
H12MD H 0.26520 1.14630 0.30960
H12PD H 0.19040 1.14630 0.26520
H12SA H 0.23480 0.85370 0.19040
H12WC H 0.35370 1.19040 0.26520
H12EF H 0.23480 1.19040 0.35370
H12CA H 0.14630 0.80960 0.23480
H12HG H 0.30960 1.23480 0.35370
H12UE H 0.14630 1.23480 0.30960
H12RB H 0.19040 0.76520 0.14630
H13KC H 0.29730 0.81450 0.15040
H13AC H 0.34960 0.79730 0.18550
H13MD H 0.29730 1.15040 0.31450
H13PD H 0.18550 1.15040 0.29730
H13SA H 0.20270 0.84960 0.18550
H13WC H 0.34960 1.18550 0.29730
H13EF H 0.20270 1.18550 0.34960
H13CA H 0.15040 0.81450 0.20270
H13HG H 0.31450 1.20270 0.34960
H13UE H 0.15040 1.20270 0.31450
H13RB H 0.18550 0.79730 0.15040
O6W O 0.3339(5) 1.00000 0.1828(5)
O6SA O 0.1661(5) 1.00000 0.3172(5)
O6PD O 0.3172(5) 1.00000 0.3339(5)
#END
