
#######################################################################
#
#                 Cambridge Crystallographic Data Centre
#                                CCDC
#
#######################################################################
#
# If this CIF has been generated from an entry in the Cambridge
# Structural Database, then it will include bibliographic, chemical,
# crystal, experimental, refinement or atomic coordinate data resulting
# from the CCDC's data processing and validation procedures.
#
#######################################################################

data_CSD_CIF_BUFRAW
_audit_creation_date 2009-12-08
_audit_creation_method CSD-ConQuest-V1
_database_code_CSD BUFRAW
_database_code_depnum_ccdc_archive 'CCDC 728871'
_chemical_formula_sum 'C18 H27 N2 O24 P3 U3'
_chemical_formula_moiety
;
(C12 H14 N2 2+)n,n(C6 H9 O22 P3 U3 2-),2n(H2 O1)
;
_journal_coden_Cambridge 9
_journal_volume 48
_journal_year 2009
_journal_page_first 6845
_journal_name_full 'Inorg.Chem. '
loop_
_publ_author_name
"K.E.Knope"
"C.L.Cahill"
_chemical_name_systematic
;
catena-(1,2-bis(4-Pyridinio)ethane 
(\m~4~-phosphonacetato-O,O,O',O'',O''',O'''')-(\m~4~-phosphonacetato-O,O',O'',
O''',O'''')-(\m~3~-phosphonoacetic 
acid-O,O',O'')-aqua-hexaoxo-tri-uranium(vi) dihydrate)
;
_cell_volume   1647.727
_exptl_crystal_colour 'yellow'
_exptl_crystal_density_diffrn 2.948
_exptl_special_details
;
fluorescent

;
_exptl_crystal_description 'plate'
_diffrn_ambient_temperature 295
#These two values have been output from a single CSD field.
_refine_ls_R_factor_gt 0.0299
_refine_ls_wR_factor_gt 0.0299
_symmetry_cell_setting triclinic
_symmetry_space_group_name_H-M 'P -1'
_symmetry_Int_Tables_number 2
loop_
_symmetry_equiv_pos_site_id
_symmetry_equiv_pos_as_xyz
1 x,y,z
2 -x,-y,-z
_cell_length_a 10.4115(5)
_cell_length_b 10.9064(5)
_cell_length_c 15.7534(8)
_cell_angle_alpha 105.895(1)
_cell_angle_beta 95.653(1)
_cell_angle_gamma 103.470(1)
_cell_formula_units_Z 2
loop_
_atom_type_symbol
_atom_type_radius_bond
C 0.68
H 0.23
N 0.68
O 0.68
P 1.05
U 1.47
loop_
_atom_site_label
_atom_site_type_symbol
_atom_site_fract_x
_atom_site_fract_y
_atom_site_fract_z
U1 U 0.54141(3) 0.24582(2) 0.974437(18)
U2 U 0.90489(3) 0.31791(2) 1.343330(18)
U3 U 0.83467(3) -0.15161(2) 1.307412(18)
O1 O 1.0288(5) 0.2808(5) 1.2792(3)
O2 O 0.7773(5) 0.3521(4) 1.4061(3)
O3 O 0.6187(5) 0.2920(4) 0.8879(3)
O4 O 0.6613(5) -0.1791(5) 1.3087(4)
O5 O 0.8538(5) -0.0280(5) 1.4681(3)
O6 O 0.4692(5) 0.2051(5) 1.0646(3)
O7 O 0.6691(5) 0.0759(5) 0.9555(3)
O8 O 0.8283(5) -0.0530(4) 1.1982(3)
O9 O 1.0075(5) -0.1204(5) 1.3063(3)
O10 O 1.1329(5) 0.2980(4) 1.6134(3)
O11 O 0.6332(5) 0.4559(4) 1.0726(3)
O12 O 0.7475(5) 0.1540(4) 1.2324(3)
O13 O 0.7910(5) 0.6571(4) 1.1848(3)
P1 P 0.71735(19) 0.59589(17) 1.08856(13)
P2 P 0.74453(19) 0.02448(17) 1.16183(12)
P3 P 1.02225(19) 0.33306(17) 1.56283(12)
O14 O 0.7615(5) 0.2585(4) 1.0630(3)
O15 O 0.8679(5) 0.0991(4) 1.3819(3)
O16 O 0.6350(5) 0.6788(5) 1.0590(4)
O17 O 0.6014(5) -0.0537(4) 1.1232(3)
O18 O 0.9908(5) 0.4570(4) 1.6197(3)
O19 O 1.0531(5) 0.3443(4) 1.4718(3)
O20 O 0.8128(7) 0.4124(6) 1.2323(4)
C1 C 0.8263(7) 0.0665(7) 1.0731(5)
H1 H 0.91700 0.12160 1.09820
H2 H 0.83170 -0.01390 1.02970
C2 C 0.7531(7) 0.1373(7) 1.0278(5)
C3 C 0.8637(7) 0.0852(7) 1.4596(5)
C4 C 0.9026(9) 0.7156(9) 0.9994(6)
C5 C 0.8446(7) 0.5855(8) 1.0185(5)
H3 H 0.91670 0.56100 1.04780
H4 H 0.80610 0.51630 0.96220
C6 C 0.8682(7) 0.2023(6) 1.5382(5)
H5 H 0.85780 0.17290 1.59060
H6 H 0.79330 0.23730 1.52600
O21 O 0.8519(7) 0.7465(7) 0.9398(4)
N1 N 0.6894(8) -0.0727(8) 0.7902(5)
N2 N 0.3713(9) -0.5862(8) 0.2056(6)
C7 C 0.5390(9) -0.4742(8) 0.3280(6)
H7 H 0.62870 -0.45090 0.35450
C8 C 0.7884(10) -0.0890(9) 0.7456(6)
H8 H 0.87660 -0.05890 0.77580
C9 C 0.7613(9) -0.1498(9) 0.6557(6)
H9 H 0.83130 -0.16030 0.62450
C10 C 0.4990(9) -0.5534(9) 0.2421(6)
H10 H 0.56070 -0.58440 0.20930
C11 C 0.6336(9) -0.195(1) 0.6114(6)
C12 C 0.4478(10) -0.4279(9) 0.3760(6)
C13 C 0.2816(11) -0.5442(10) 0.2471(8)
H11 H 0.19400 -0.56600 0.21710
C14 C 0.3140(11) -0.469(1) 0.3337(9)
H12 H 0.24800 -0.44470 0.36500
C15 C 0.5656(11) -0.1135(13) 0.7504(7)
H13 H 0.49780 -0.09990 0.78300
C16 C 0.5343(10) -0.1774(14) 0.6588(7)
H14 H 0.44530 -0.20800 0.63010
O22 O 1.0087(6) 0.7995(6) 1.0570(5)
H15 H 1.03360 0.76440 1.09310
O23 O 1.1248(7) 0.7044(8) 1.1740(5)
O24 O 0.6176(19) 0.1553(18) 0.6878(13)
C17 C 0.6087(12) -0.2684(15) 0.5123(7)
H16 H 0.63890 -0.20410 0.48150
H17 H 0.66540 -0.32840 0.50300
C18 C 0.4848(12) -0.3379(12) 0.4727(7)
H18 H 0.43180 -0.27480 0.47750
H19 H 0.45210 -0.39280 0.50930
H20 H 0.784(8) 0.362(8) 1.183(6)
H21 H 0.817(8) 0.491(9) 1.242(6)
H22 H 0.696(10) -0.039(10) 0.8496(18)
H23 H 0.337(9) -0.657(6) 0.158(4)
U1A U 0.45859(3) 0.75418(2) 1.025563(18)
U1A* U 0.45859(3) -0.24582(2) 1.025563(18)
U2A U 1.09511(3) 0.68209(2) 1.656670(18)
U3A U 1.16533(3) 0.15161(2) 1.692588(18)
U3* U 0.83467(3) 0.84839(2) 1.307412(18)
O10A O 0.8671(5) -0.2980(4) 1.3866(3)
O13* O 0.7910(5) -0.3429(4) 1.1848(3)
O16A O 0.3650(5) 0.3212(5) 0.9410(4)
O17A O 0.3986(5) 0.0537(4) 0.8768(3)
O18A O 1.0092(5) 0.5430(4) 1.3803(3)
#END
