
#######################################################################
#
#                 Cambridge Crystallographic Data Centre
#                                CCDC
#
#######################################################################
#
# If this CIF has been generated from an entry in the Cambridge
# Structural Database, then it will include bibliographic, chemical,
# crystal, experimental, refinement or atomic coordinate data resulting
# from the CCDC's data processing and validation procedures.
#
#######################################################################

data_CSD_CIF_BUGGER
_audit_creation_date 2015-03-10
_audit_creation_method CSD-ConQuest-V1
_database_code_CSD BUGGER
_database_code_depnum_ccdc_archive 'CCDC 1037627'
_chemical_formula_sum 'C43 H54 N3 O15 Zn1'
_chemical_formula_moiety
;
(C36 H28 O12 Zn1 2-)n,C3 H7 N1 O1,C2 H8 N1 1+,2(H2 O1),0.5(C4 H14 N2 2+)
;
_journal_coden_Cambridge 1220
_journal_volume 21
_journal_year 2015
_journal_page_first 6052
_journal_name_full 'Chem.-Eur.J. '
loop_
_publ_author_name
"Eunji Lee"
"Huiyeong Ju"
"Youngjin Kang"
"Shim Sung Lee"
"K.-M.Park"
_chemical_name_systematic
;
catena-(dimethylammonium hemikis(butane-1,4-diammonium) 
(\m-(calixarene-25,26,27,28-tetrayl)-tetrakis(oxy)tetraacetato)-zinc 
N,N-dimethylformamide solvate dihydrate)
;
_cell_volume   2168.511
_exptl_crystal_colour 'colorless'
_exptl_crystal_density_diffrn 1.406
_exptl_crystal_description 'plate'
_diffrn_ambient_temperature 173
_refine_special_details
;
C38,C39 disordered by symmetry over two configurations with occupancy 0.50; 
O1W,O2W and O1W',O2W' disordered over two sites with occupancies 0.50:0.50.
;
#These two values have been output from a single CSD field.
_refine_ls_R_factor_gt 0.0558
_refine_ls_wR_factor_gt 0.0558
_symmetry_cell_setting triclinic
_symmetry_space_group_name_H-M 'P -1'
_symmetry_Int_Tables_number 2
loop_
_symmetry_equiv_pos_site_id
_symmetry_equiv_pos_as_xyz
1 x,y,z
2 -x,-y,-z
_cell_length_a 13.1978(4)
_cell_length_b 13.9035(4)
_cell_length_c 14.6670(5)
_cell_angle_alpha 114.607(2)
_cell_angle_beta 112.061(2)
_cell_angle_gamma 95.173(2)
_cell_formula_units_Z 2
loop_
_atom_type_symbol
_atom_type_radius_bond
C 0.68
H 0.23
N 0.68
O 0.68
Zn 1.22
loop_
_atom_site_label
_atom_site_type_symbol
_atom_site_fract_x
_atom_site_fract_y
_atom_site_fract_z
Zn1 Zn 0.77407(3) -0.12064(3) 0.72675(3)
O1 O 0.88140(18) 0.25606(17) 0.76284(18)
O2 O 0.87531(19) 0.03516(18) 0.8233(2)
O3 O 0.7469(2) 0.0598(2) 0.6944(2)
O4 O 0.82636(19) 0.54323(17) 0.70590(18)
O5 O 0.84851(19) 0.83497(17) 0.84234(18)
O6 O 0.8839(3) 0.7255(2) 0.9172(2)
O7 O 0.62116(17) 0.22207(18) 0.38278(18)
O8 O 0.38997(18) 0.17757(19) 0.32007(19)
O9 O 0.3486(2) 0.0536(3) 0.1469(3)
O10 O 1.00905(18) 0.25804(17) 0.51112(18)
O11 O 1.22380(19) 0.19941(19) 0.41928(19)
O12 O 1.0365(2) 0.1455(2) 0.3169(2)
C1 C 0.9684(3) 0.3414(3) 0.7875(3)
C2 C 1.0538(3) 0.3150(3) 0.7554(3)
C3 C 1.1406(3) 0.4023(3) 0.7828(3)
H1 H 1.20160 0.38700 0.76500
C4 C 1.1394(3) 0.5106(3) 0.8354(3)
H2 H 1.19940 0.56900 0.85360
C5 C 1.0513(3) 0.5340(3) 0.8614(3)
H3 H 1.04970 0.60850 0.89510
C6 C 0.9646(3) 0.4499(3) 0.8391(3)
C7 C 0.7345(3) 0.4742(2) 0.6935(3)
C8 C 0.7542(3) 0.4451(3) 0.7783(3)
C9 C 0.6601(3) 0.3867(3) 0.7749(3)
H4 H 0.67100 0.36820 0.83260
C10 C 0.5515(3) 0.3553(4) 0.6892(4)
H5 H 0.48730 0.32220 0.69200
C11 C 0.5366(3) 0.3726(3) 0.5984(3)
H6 H 0.46270 0.34500 0.53620
C12 C 0.6284(3) 0.4299(3) 0.5973(3)
C13 C 0.7022(2) 0.3068(2) 0.3980(2)
C14 C 0.6957(3) 0.4144(2) 0.4494(2)
C15 C 0.7695(3) 0.4977(3) 0.4561(3)
H7 H 0.76440 0.57110 0.48780
C16 C 0.8502(3) 0.4764(3) 0.4178(3)
H8 H 0.89900 0.53410 0.42180
C17 C 0.8592(3) 0.3698(3) 0.3733(3)
H9 H 0.91660 0.35560 0.34960
C18 C 0.7857(3) 0.2831(3) 0.3628(3)
C19 C 0.9318(3) 0.1689(2) 0.4918(3)
C20 C 0.8289(3) 0.1198(3) 0.3918(3)
C21 C 0.7563(3) 0.0225(3) 0.3648(3)
H10 H 0.68870 -0.01500 0.29500
C22 C 0.7808(3) -0.0210(3) 0.4379(4)
H11 H 0.73200 -0.08890 0.41710
C23 C 0.8772(3) 0.0358(3) 0.5410(3)
H12 H 0.89190 0.00800 0.59250
C24 C 0.9536(3) 0.1330(3) 0.5715(3)
C25 C 0.8718(3) 0.4785(3) 0.8732(3)
H13 H 0.86690 0.44290 0.91810
H14 H 0.89520 0.55950 0.92290
C26 C 0.6084(3) 0.4396(3) 0.4929(3)
H15 H 0.53220 0.38880 0.43180
H16 H 0.60610 0.51580 0.50950
C27 C 0.8000(3) 0.1676(3) 0.3132(3)
H17 H 0.72810 0.11710 0.24460
H18 H 0.86110 0.17040 0.29010
C28 C 1.0518(3) 0.1965(3) 0.6900(3)
H19 H 1.04670 0.15750 0.73200
H20 H 1.12470 0.19650 0.68540
C29 C 0.9109(3) 0.2134(3) 0.8396(3)
H21 H 0.89820 0.25880 0.90490
H22 H 0.99270 0.21660 0.86770
C30 C 0.8376(3) 0.0944(3) 0.7798(3)
C31 C 0.8160(3) 0.6481(3) 0.7170(3)
H23 H 0.73520 0.63870 0.66960
H24 H 0.86240 0.67200 0.68650
C32 C 0.8522(3) 0.7402(2) 0.8361(3)
C33 C 0.5414(3) 0.1480(3) 0.2681(3)
H25 H 0.55970 0.07670 0.24480
H26 H 0.55170 0.17860 0.22110
C34 C 0.4174(3) 0.1256(3) 0.2438(3)
C35 C 1.1169(3) 0.2427(3) 0.5193(3)
H27 H 1.13610 0.19480 0.55390
H28 H 1.17600 0.31540 0.57050
C36 C 1.1220(3) 0.1913(3) 0.4073(3)
N1 N 0.8956(3) 0.9914(3) 1.0615(3)
H29 H 0.87740 0.94540 0.99200
H30 H 0.97330 0.99960 1.10490
C37 C 0.8790(3) 1.0983(3) 1.0712(3)
H31 H 0.79720 1.08930 1.03230
H32 H 0.91880 1.12310 1.03680
H33 H 0.90990 1.15350 1.15090
C38 C 0.8272(4) 0.9382(3) 1.0959(4)
H34 H 0.85360 0.98270 1.17720
H35 H 0.83580 0.86420 1.07820
H36 H 0.74660 0.93210 1.05530
O13 O 0.4217(8) -0.0349(9) -0.0137(8)
O14 O 0.4540(9) -0.1319(9) 0.235(1)
N2 N 0.5475(10) 0.6356(9) 0.9178(10)
O15 O 0.605(3) 0.611(5) 1.072(3)
C39 C 0.6346(13) 0.6236(13) 0.9974(14)
H37 H 0.70760 0.62400 0.99990
C40 C 0.441(2) 0.627(3) 0.893(3)
H38 H 0.39490 0.58600 0.81120
H39 H 0.43110 0.70040 0.92350
H40 H 0.41730 0.58620 0.92630
C41 C 0.5918(15) 0.6531(15) 0.8358(16)
H41 H 0.67550 0.67940 0.87380
H42 H 0.56110 0.70780 0.81740
H43 H 0.56570 0.58270 0.76630
H44? H 0.50720 0.15210 0.46460
H45? H 0.50870 0.11150 0.54860
O16? O 0.4454(16) -0.1252(16) 0.0410(17)
O17? O 0.5317(14) -0.2294(14) 0.1772(14)
N3? N 0.6660(3) 0.1662(2) 0.5692(3)
H46? H 0.69810 0.14030 0.61140
H47? H 0.67720 0.24330 0.62900
H48? H 0.69680 0.16460 0.53050
C42? C 0.5408(3) 0.1101(3) 0.4993(3)
H49? H 0.50740 0.15600 0.46650
H50? H 0.53030 0.03880 0.43580
C43? C 0.4702(6) 0.0864(7) 0.5507(7)
H51? H 0.38870 0.06240 0.49560
H52? H 0.48350 0.15640 0.61720
C44? C 0.4907(6) 0.0012(7) 0.5870(7)
H53? H 0.57310 0.02310 0.63880
H54? H 0.44840 0.00310 0.63080
Zn1* Zn 0.77407(3) 0.87936(3) 0.72675(3)
Zn1A Zn 0.22593(3) 0.12064(3) 0.27325(3)
Zn1A* Zn 1.22593(3) 0.12064(3) 0.27325(3)
O5* O 0.84851(19) -0.16503(17) 0.84234(18)
O8A O 0.61003(18) -0.17757(19) 0.67993(19)
O11A O 0.77620(19) -0.19941(19) 0.58072(19)
#END
