
#######################################################################
#
#                 Cambridge Crystallographic Data Centre
#                                CCDC
#
#######################################################################
#
# If this CIF has been generated from an entry in the Cambridge
# Structural Database, then it will include bibliographic, chemical,
# crystal, experimental, refinement or atomic coordinate data resulting
# from the CCDC's data processing and validation procedures.
#
#######################################################################

data_CSD_CIF_BUGGAN
_audit_creation_date 2015-03-10
_audit_creation_method CSD-ConQuest-V1
_database_code_CSD BUGGAN
_database_code_depnum_ccdc_archive 'CCDC 1037626'
_chemical_formula_sum 'C42.5 H53 N3 O15 Zn1'
_chemical_formula_moiety
;
(C36 H28 O12 Zn1 2-)n,C3 H7 N1 O1,C2 H8 N1 1+,2(H2 O1),0.5(C3 H12 N2 2+)
;
_journal_coden_Cambridge 1220
_journal_volume 21
_journal_year 2015
_journal_page_first 6052
_journal_name_full 'Chem.-Eur.J. '
loop_
_publ_author_name
"Eunji Lee"
"Huiyeong Ju"
"Youngjin Kang"
"Shim Sung Lee"
"K.-M.Park"
_chemical_name_systematic
;
catena-(dimethylammonium hemikis(propane-1,3-diammonium) 
(\m-(calixarene-25,26,27,28-tetrayl)-tetrakis(oxy)tetraacetato)-zinc 
N,N-dimethylformamide solvate dihydrate)
;
_cell_volume   2143.266
_exptl_crystal_colour 'colorless'
_exptl_crystal_density_diffrn 1.412
_exptl_crystal_description 'plate'
_diffrn_ambient_temperature 173
_refine_special_details
;
C38 disordered by symmetry over two configurations with occupancy 0.50; 
O1W,O2W and O1W',O2W' disordered over two sites with occupancies 0.50:0.50.
;
#These two values have been output from a single CSD field.
_refine_ls_R_factor_gt 0.0548
_refine_ls_wR_factor_gt 0.0548
_symmetry_cell_setting triclinic
_symmetry_space_group_name_H-M 'P -1'
_symmetry_Int_Tables_number 2
loop_
_symmetry_equiv_pos_site_id
_symmetry_equiv_pos_as_xyz
1 x,y,z
2 -x,-y,-z
_cell_length_a 13.1608(4)
_cell_length_b 13.8629(4)
_cell_length_c 14.6127(4)
_cell_angle_alpha 114.310(1)
_cell_angle_beta 112.023(1)
_cell_angle_gamma 96.049(1)
_cell_formula_units_Z 2
loop_
_atom_type_symbol
_atom_type_radius_bond
C 0.68
H 0.23
N 0.68
O 0.68
Zn 1.22
loop_
_atom_site_label
_atom_site_type_symbol
_atom_site_fract_x
_atom_site_fract_y
_atom_site_fract_z
Zn1 Zn 0.77209(2) -0.12383(2) 0.72324(2)
O1 O 0.87573(16) 0.25322(15) 0.75870(16)
O2 O 0.87281(17) 0.03337(15) 0.81986(16)
O3 O 0.7365(2) 0.0570(2) 0.6939(2)
O4 O 0.81945(16) 0.53922(15) 0.70307(15)
O5 O 0.84540(17) 0.83216(15) 0.83930(16)
O6 O 0.8814(2) 0.72329(18) 0.91548(17)
O7 O 0.62216(15) 0.21488(15) 0.38080(15)
O8 O 0.39228(16) 0.17285(17) 0.31916(16)
O9 O 0.34527(19) 0.0547(3) 0.1420(2)
O10 O 1.01099(16) 0.25894(15) 0.51339(16)
O11 O 1.22868(16) 0.20228(17) 0.42468(16)
O12 O 1.04003(18) 0.1483(2) 0.32005(17)
C1 C 0.9639(2) 0.3414(2) 0.7864(2)
C2 C 1.0519(2) 0.3175(2) 0.7572(2)
C3 C 1.1388(3) 0.4072(3) 0.7866(3)
H1 H 1.20120 0.39400 0.77060
C4 C 1.1365(3) 0.5150(3) 0.8386(3)
H2 H 1.19680 0.57490 0.85770
C5 C 1.0468(3) 0.5360(2) 0.8630(2)
H3 H 1.04470 0.61030 0.89670
C6 C 0.9595(2) 0.4494(2) 0.8387(2)
C7 C 0.7273(2) 0.4662(2) 0.6881(2)
C8 C 0.7460(2) 0.4356(2) 0.7718(2)
C9 C 0.6521(3) 0.3707(3) 0.7642(3)
H4 H 0.66260 0.35080 0.82130
C10 C 0.5422(3) 0.3342(3) 0.6733(3)
H5 H 0.47730 0.29500 0.67180
C11 C 0.5289(3) 0.3556(2) 0.5859(2)
H6 H 0.45520 0.32650 0.52210
C12 C 0.6212(2) 0.4191(2) 0.5890(2)
C13 C 0.7018(2) 0.3021(2) 0.3959(2)
C14 C 0.6928(2) 0.4089(2) 0.4450(2)
C15 C 0.7665(2) 0.4940(2) 0.4520(2)
H7 H 0.76020 0.56690 0.48270
C16 C 0.8488(3) 0.4749(3) 0.4152(2)
H8 H 0.89780 0.53400 0.41990
C17 C 0.8591(2) 0.3693(2) 0.3717(2)
H9 H 0.91700 0.35700 0.34830
C18 C 0.7867(2) 0.2805(2) 0.3613(2)
C19 C 0.9328(2) 0.1687(2) 0.4930(2)
C20 C 0.8295(2) 0.1174(2) 0.3913(2)
C21 C 0.7557(3) 0.0194(2) 0.3640(3)
H10 H 0.68750 -0.01890 0.29360
C22 C 0.7796(3) -0.0235(3) 0.4376(3)
H11 H 0.73030 -0.09230 0.41630
C23 C 0.8760(3) 0.0350(3) 0.5425(3)
H12 H 0.88970 0.00750 0.59450
C24 C 0.9534(3) 0.1331(2) 0.5737(2)
C25 C 0.8641(3) 0.4745(2) 0.8702(2)
H13 H 0.85950 0.43930 0.91600
H14 H 0.88540 0.55590 0.91870
C26 C 0.6030(2) 0.4311(2) 0.4861(2)
H15 H 0.60090 0.50770 0.50380
H16 H 0.52660 0.37950 0.42340
C27 C 0.8014(2) 0.1657(2) 0.3126(2)
H17 H 0.72940 0.11410 0.24290
H18 H 0.86360 0.16990 0.29060
C28 C 1.0513(3) 0.1988(2) 0.6932(2)
H19 H 1.12520 0.20050 0.68990
H20 H 1.04610 0.15990 0.73570
C29 C 0.9036(3) 0.2131(2) 0.8384(2)
H21 H 0.88800 0.25850 0.90150
H22 H 0.98640 0.21880 0.87010
C30 C 0.8310(2) 0.0931(2) 0.7784(2)
C31 C 0.8073(3) 0.6437(2) 0.7137(2)
H23 H 0.72500 0.63290 0.66850
H24 H 0.85050 0.66770 0.68010
C32 C 0.8482(2) 0.7370(2) 0.8335(2)
C33 C 0.5412(2) 0.1401(3) 0.2650(2)
H25 H 0.55620 0.06740 0.24230
H26 H 0.55410 0.16940 0.21760
C34 C 0.4167(2) 0.1216(2) 0.2404(2)
C35 C 1.1201(2) 0.2449(2) 0.5235(2)
H27 H 1.13830 0.19650 0.55770
H28 H 1.18000 0.31830 0.57590
C36 C 1.1263(2) 0.1947(2) 0.4118(2)
N1 N 0.8953(2) 0.9890(2) 1.0600(2)
H29 H 0.87770 0.94490 0.98770
H30 H 0.97370 0.99910 1.10270
C37 C 0.8828(3) 1.0976(3) 1.0729(3)
H31 H 0.80080 1.09120 1.03830
H32 H 0.91990 1.12110 1.03530
H33 H 0.91930 1.15290 1.15350
C38 C 0.8279(3) 0.9364(3) 1.0963(3)
H34 H 0.85790 0.98050 1.17840
H35 H 0.83360 0.86120 1.07640
H36 H 0.74710 0.93230 1.05830
O13 O 0.4180(8) -0.0444(11) -0.0188(6)
O14 O 0.4428(11) -0.1456(10) 0.2060(11)
N2 N 0.5459(7) 0.6369(9) 0.9228(9)
O15 O 0.624(3) 0.656(4) 1.0858(16)
C39 C 0.6386(11) 0.6245(11) 0.9976(12)
H37 H 0.69920 0.59880 0.98620
C40 C 0.469(3) 0.705(3) 0.942(3)
H38 H 0.39760 0.67560 0.87210
H39 H 0.50780 0.78220 0.96660
H40 H 0.45230 0.70310 1.00140
C41 C 0.5707(12) 0.6430(11) 0.8356(11)
H41 H 0.65430 0.66980 0.86480
H42 H 0.53540 0.69440 0.81470
H43 H 0.53920 0.56890 0.76880
H44? H 0.53940 0.00230 0.42470
H45? H 0.49140 0.10190 0.43370
O16? O 0.4238(12) -0.1174(14) 0.0220(12)
O17? O 0.5159(16) -0.2137(16) 0.1693(16)
N3? N 0.6546(2) 0.1481(2) 0.5540(2)
H46? H 0.69040 0.13380 0.61470
H47? H 0.64550 0.21240 0.57570
H48? H 0.68050 0.14220 0.50260
C42? C 0.5365(4) 0.0711(4) 0.4766(5)
H49? H 0.51440 0.06710 0.40360
H50? H 0.48450 0.10200 0.50430
C43? C 0.5184(6) -0.0493(6) 0.4584(7)
H51? H 0.46950 -0.10250 0.37680
H52? H 0.59390 -0.06300 0.48110
Zn1* Zn 0.77209(2) 0.87617(2) 0.72324(2)
Zn1A Zn 0.22791(2) 0.12383(2) 0.27676(2)
Zn1A* Zn 1.22791(2) 0.12383(2) 0.27676(2)
O5* O 0.84540(17) -0.16784(15) 0.83930(16)
O8A O 0.60772(16) -0.17285(17) 0.68084(16)
O11A O 0.77132(16) -0.20228(17) 0.57532(16)
#END
