
#######################################################################
#
#                 Cambridge Crystallographic Data Centre
#                                CCDC
#
#######################################################################
#
# If this CIF has been generated from an entry in the Cambridge
# Structural Database, then it will include bibliographic, chemical,
# crystal, experimental, refinement or atomic coordinate data resulting
# from the CCDC's data processing and validation procedures.
#
#######################################################################

data_CSD_CIF_BUNFOG
_audit_creation_date 2010-09-06
_audit_creation_method CSD-ConQuest-V1
_database_code_CSD BUNFOG
_database_code_depnum_ccdc_archive 'CCDC 721823'
_chemical_formula_sum 'C84 H92 Ag4 Cl4 N28 O20'
_chemical_formula_moiety
;
(C42 H46 Ag2 N14 O2 2+)n,n(C36 H32 Ag2 Cl4 N12 O16 2-),2n(C3 H7 N1 O1)
;
_journal_coden_Cambridge 580
_journal_volume 29
_journal_year 2010
_journal_page_first 2
_journal_name_full 'Polyhedron '
loop_
_publ_author_name
"A.S.R.Chesman"
"D.R.Turner"
"T.M.Ross"
"S.M.Neville"
"Jinzhen Lu"
"K.S.Murray"
"S.R.Batten"
_chemical_name_systematic
;
catena-(bis(\m~2~-1,2-bis(3-(4-pyridyl)-1H-pyrazol-1-yl)ethane)-bis(N,N-dimeth
ylformamide)-di-silver 
bis(\m~2~-1,2-bis(3-(4-pyridyl)-1H-pyrazol-1-yl)ethane)-tetrakis(perchlorato)-
di-silver N,N-dimethylformamide solvate)
;
_cell_volume   2284.917
_exptl_crystal_colour 'colorless'
_exptl_crystal_density_diffrn 1.735
_exptl_crystal_description 'block'
_diffrn_ambient_temperature 123
#These two values have been output from a single CSD field.
_refine_ls_R_factor_gt 0.0347
_refine_ls_wR_factor_gt 0.0347
_symmetry_cell_setting triclinic
_symmetry_space_group_name_H-M 'P -1'
_symmetry_Int_Tables_number 2
loop_
_symmetry_equiv_pos_site_id
_symmetry_equiv_pos_as_xyz
1 x,y,z
2 -x,-y,-z
_cell_length_a 11.0791(3)
_cell_length_b 11.5355(3)
_cell_length_c 18.5119(5)
_cell_angle_alpha 92.282(1)
_cell_angle_beta 103.336(1)
_cell_angle_gamma 95.906(1)
_cell_formula_units_Z 1
loop_
_atom_type_symbol
_atom_type_radius_bond
C 0.68
H 0.23
Ag 1.87
Cl 0.99
N 0.63
O 0.82
loop_
_atom_site_label
_atom_site_type_symbol
_atom_site_fract_x
_atom_site_fract_y
_atom_site_fract_z
Ag1 Ag 0.50000 0.50000 0.50000
Cl1 Cl 0.74282(6) 0.30768(5) 0.44814(4)
O1 O 0.68689(19) 0.41320(18) 0.43135(15)
N1 N 0.35783(18) 0.38000(17) 0.42870(11)
C1 C 0.3844(2) 0.3212(2) 0.37154(14)
H1 H 0.46550 0.33670 0.36280
Ag2 Ag -1.00000 -0.50000 0.00000
Cl2 Cl -0.74436(6) -0.67761(6) -0.09696(4)
O2 O 0.6489(3) 0.21137(19) 0.42197(16)
N2 N -0.02392(18) 0.09943(16) 0.30288(11)
C2 C 0.2993(2) 0.2389(2) 0.32459(13)
H2 H 0.32200 0.19980 0.28440
Ag3 Ag 0.272305(17) 0.473760(16) 0.225441(11)
O3 O 0.7869(2) 0.3027(3) 0.52660(13)
N3 N -0.08245(18) 0.01703(17) 0.24912(11)
C3 C 0.1800(2) 0.21379(19) 0.33678(12)
O4 O 0.8439(3) 0.3033(3) 0.41325(15)
N4 N -0.42333(18) -0.00457(17) 0.23890(11)
C4 C 0.1517(2) 0.2766(2) 0.39571(13)
H3 H 0.07100 0.26350 0.40550
O5 O -0.8115(2) -0.5820(2) -0.08388(15)
N5 N -0.48316(18) -0.08787(17) 0.18594(11)
C5 C 0.2412(2) 0.3575(2) 0.43940(13)
H4 H 0.22020 0.39960 0.47900
O6 O -0.6312(3) -0.6682(3) -0.0416(2)
N6 N -0.85618(19) -0.38500(18) 0.07202(12)
C6 C 0.0895(2) 0.12526(19) 0.28933(12)
O7 O -0.8147(3) -0.7862(2) -0.09258(15)
N7 N 0.13039(19) 0.35572(18) 0.15390(12)
C7 C 0.1026(2) 0.0583(2) 0.22694(13)
H5 H 0.17360 0.05990 0.20620
O8 O -0.7135(3) -0.6742(2) -0.16690(16)
N8 N -0.26639(18) 0.08629(17) 0.04640(11)
C8 C -0.0097(2) -0.0098(2) 0.20271(13)
H6 H -0.03220 -0.06540 0.16120
O9 O 0.0948(2) 0.5510(2) 0.28814(13)
N9 N -0.33409(18) 0.00289(17) -0.00387(11)
C9 C -0.2075(2) -0.0364(2) 0.24857(14)
H7 H -0.20690 -0.07100 0.29670
H8 H -0.23320 -0.10010 0.20880
O10 O 0.4245(2) 0.2406(2) 0.18072(13)
N10 N 0.41143(19) 0.59576(17) 0.29561(12)
C10 C -0.3014(2) 0.0525(2) 0.23562(15)
H9 H -0.27480 0.11790 0.27420
H10 H -0.30590 0.08440 0.18630
N11 N 0.77608(18) 0.89298(17) 0.42807(11)
C11 C -0.4877(2) 0.0121(2) 0.29162(14)
H11 H -0.46260 0.06560 0.33410
N12 N 0.82589(19) 0.97827(17) 0.48170(11)
C12 C -0.5958(2) -0.0627(2) 0.27208(13)
H12 H -0.66110 -0.07160 0.29750
N13 N -0.0261(2) 0.6314(2) 0.35450(12)
C13 C -0.5889(2) -0.1238(2) 0.20572(13)
N14 N 0.6057(2) 0.3571(2) 0.18951(14)
C14 C -0.6784(2) -0.2157(2) 0.16055(13)
C15 C -0.6496(2) -0.2817(2) 0.10311(13)
H13 H -0.56900 -0.26980 0.09330
C16 C -0.7398(2) -0.3643(2) 0.06093(14)
H14 H -0.71910 -0.40890 0.02220
C17 C -0.8824(2) -0.3243(2) 0.12855(14)
H15 H -0.96290 -0.33970 0.13810
C18 C -0.7973(2) -0.2403(2) 0.17349(14)
H16 H -0.81960 -0.19940 0.21310
C19 C 0.1454(2) 0.2989(2) 0.09264(14)
H17 H 0.22330 0.31270 0.07930
C20 C 0.0520(2) 0.2207(2) 0.04778(13)
H18 H 0.06560 0.18370 0.00410
C21 C -0.0617(2) 0.19685(19) 0.06711(13)
C22 C -0.0777(2) 0.2584(2) 0.13023(14)
H19 H -0.15470 0.24670 0.14480
C23 C 0.0185(2) 0.3358(2) 0.17091(14)
H20 H 0.00560 0.37750 0.21330
C24 C -0.1596(2) 0.10995(19) 0.02473(12)
C25 C -0.1596(2) 0.0398(2) -0.03945(13)
H21 H -0.09500 0.03920 -0.06540
C26 C -0.2730(2) -0.0272(2) -0.05615(13)
H22 H -0.30310 -0.08390 -0.09660
C27 C -0.4560(2) -0.0469(2) 0.00339(14)
H23 H -0.44820 -0.08090 0.05230
H24 H -0.49030 -0.11020 -0.03590
C28 C 0.5226(2) 0.6330(2) 0.28183(14)
H25 H 0.54330 0.60080 0.23880
C29 C 0.6079(2) 0.7162(2) 0.32753(14)
H26 H 0.68530 0.73990 0.31570
C30 C 0.5802(2) 0.7655(2) 0.39115(13)
C31 C 0.4648(2) 0.7260(2) 0.40476(14)
H27 H 0.44170 0.75640 0.44740
C32 C 0.3840(2) 0.6430(2) 0.35667(14)
H28 H 0.30570 0.61820 0.36700
C33 C 0.6644(2) 0.8566(2) 0.44052(13)
C34 C 0.6440(2) 0.9186(2) 0.50275(14)
H29 H 0.57280 0.90910 0.52330
C35 C 0.7493(2) 0.9956(2) 0.52705(15)
H30 H 0.76560 1.05120 0.56840
C36 C 0.9494(2) 1.0386(2) 0.48492(14)
H31 H 0.96260 1.11130 0.51740
H32 H 0.95500 1.06020 0.43450
C37 C 0.0309(3) 0.5453(2) 0.33417(18)
H33 H 0.02190 0.47350 0.35680
C38 C -0.0874(3) 0.6219(3) 0.41553(16)
H34 H -0.04040 0.67460 0.45770
H35 H -0.17240 0.64340 0.39960
H36 H -0.09090 0.54140 0.43050
C39 C -0.0098(3) 0.7441(3) 0.3235(2)
H37 H -0.03590 0.73450 0.26910
H38 H -0.06070 0.79760 0.34200
H39 H 0.07830 0.77630 0.33850
C40 C 0.5239(3) 0.2885(3) 0.21563(17)
H40 H 0.54610 0.27590 0.26720
C41 C 0.5779(4) 0.3750(5) 0.1110(2)
H41 H 0.52660 0.30590 0.08340
H42 H 0.65600 0.38790 0.09460
H43 H 0.53230 0.44340 0.10160
C42 C 0.7239(3) 0.4085(3) 0.23698(18)
H44 H 0.72220 0.40000 0.28920
H45 H 0.73750 0.49150 0.22830
H46 H 0.79170 0.36860 0.22550
Cl1A Cl 0.25718(6) 0.69232(5) 0.55186(4)
O1A O 0.31311(19) 0.58680(18) 0.56865(15)
N1A N 0.64217(18) 0.62000(17) 0.57130(11)
C1A C 0.6156(2) 0.6788(2) 0.62846(14)
H1A H 0.53450 0.66330 0.63720
Ag2* Ag 2.00000 1.50000 1.00000
Cl2A Cl -1.25564(6) -0.32239(6) 0.09696(4)
O2A O 0.3511(3) 0.78863(19) 0.57803(16)
N2A N 1.02392(18) 0.90057(16) 0.69712(11)
C2A C 0.7007(2) 0.7611(2) 0.67541(13)
H2A H 0.67800 0.80020 0.71560
Ag3A Ag -1.272305(17) -0.473760(16) -0.225441(11)
Ag3A* Ag 1.727695(17) 1.526240(16) 0.774559(11)
O3A O 0.2131(2) 0.6973(3) 0.47340(13)
N3A N 1.08245(18) 0.98297(17) 0.75088(11)
C3A C 0.8200(2) 0.78621(19) 0.66322(12)
O4A O 0.1561(3) 0.6967(3) 0.58675(15)
N4A N 1.42333(18) 1.00457(17) 0.76110(11)
C4A C 0.8483(2) 0.7234(2) 0.60429(13)
H3A H 0.92900 0.73650 0.59450
O5A O -1.1885(2) -0.4180(2) 0.08388(15)
N5A N 1.48316(18) 1.08787(17) 0.81406(11)
C5A C 0.7588(2) 0.6425(2) 0.56060(13)
H4A H 0.77980 0.60040 0.52100
O6A O -1.3688(3) -0.3318(3) 0.0416(2)
N6A N 1.85618(19) 1.38500(18) 0.92798(12)
N6A* N -1.14382(19) -0.61500(18) -0.07202(12)
C6A C 0.9105(2) 0.87474(19) 0.71067(12)
O7A O -1.1853(3) -0.2138(2) 0.09258(15)
N7A N -1.13039(19) -0.35572(18) -0.15390(12)
C7A C 0.8974(2) 0.9417(2) 0.77306(13)
H5A H 0.82640 0.94010 0.79380
O8A O -1.2865(3) -0.3258(2) 0.16690(16)
N8A N -0.73361(18) -0.08629(17) -0.04640(11)
C8A C 1.0097(2) 1.0098(2) 0.79729(13)
H6A H 1.03220 1.06540 0.83880
O9A O -1.0948(2) -0.5510(2) -0.28814(13)
N9A N -0.66591(18) -0.00289(17) 0.00387(11)
C9A C 1.2075(2) 1.0364(2) 0.75143(14)
H7A H 1.20690 1.07100 0.70330
H8A H 1.23320 1.10010 0.79120
N10A N 1.58857(19) 1.40424(17) 0.70439(12)
N10A* N -1.41143(19) -0.59576(17) -0.29561(12)
C10A C 1.3014(2) 0.9475(2) 0.76438(15)
H9A H 1.27480 0.88210 0.72580
H10A H 1.30590 0.91560 0.81370
N11A N 1.22392(18) 1.10702(17) 0.57193(11)
C11A C 1.4877(2) 0.9879(2) 0.70838(14)
H11A H 1.46260 0.93440 0.66590
N12A N 1.17411(19) 1.02173(17) 0.51830(11)
C12A C 1.5958(2) 1.0627(2) 0.72792(13)
H12A H 1.66110 1.07160 0.70250
N13A N -0.9739(2) -0.6314(2) -0.35450(12)
C13A C 1.5889(2) 1.1238(2) 0.79428(13)
C14A C 1.6784(2) 1.2157(2) 0.83945(13)
C15A C 1.6496(2) 1.2817(2) 0.89689(13)
H13A H 1.56900 1.26980 0.90670
C16A C 1.7398(2) 1.3643(2) 0.93907(14)
H14A H 1.71910 1.40890 0.97780
C17A C 1.8824(2) 1.3243(2) 0.87145(14)
H15A H 1.96290 1.33970 0.86190
C18A C 1.7973(2) 1.2403(2) 0.82651(14)
H16A H 1.81960 1.19940 0.78690
C19A C -1.1454(2) -0.2989(2) -0.09264(14)
H17A H -1.22330 -0.31270 -0.07930
C20A C -1.0520(2) -0.2207(2) -0.04778(13)
H18A H -1.06560 -0.18370 -0.00410
C21A C -0.9383(2) -0.19685(19) -0.06711(13)
C22A C -0.9223(2) -0.2584(2) -0.13023(14)
H19A H -0.84530 -0.24670 -0.14480
C23A C -1.0185(2) -0.3358(2) -0.17091(14)
H20A H -1.00560 -0.37750 -0.21330
C24A C -0.8404(2) -0.10995(19) -0.02473(12)
C25A C -0.8404(2) -0.0398(2) 0.03945(13)
H21A H -0.90500 -0.03920 0.06540
C26A C -0.7270(2) 0.0272(2) 0.05615(13)
H22A H -0.69690 0.08390 0.09660
C27A C -0.5440(2) 0.0469(2) -0.00339(14)
H23A H -0.55180 0.08090 -0.05230
H24A H -0.50970 0.11020 0.03590
C28A C 1.4774(2) 1.3670(2) 0.71817(14)
H25A H 1.45670 1.39920 0.76120
C29A C 1.3921(2) 1.2838(2) 0.67247(14)
H26A H 1.31470 1.26010 0.68430
C30A C 1.4198(2) 1.2345(2) 0.60885(13)
C31A C 1.5352(2) 1.2740(2) 0.59524(14)
H27A H 1.55830 1.24360 0.55260
C32A C 1.6160(2) 1.3570(2) 0.64333(14)
H28A H 1.69430 1.38180 0.63300
C33A C 1.3356(2) 1.1434(2) 0.55948(13)
C34A C 1.3560(2) 1.0814(2) 0.49725(14)
H29A H 1.42720 1.09090 0.47670
C35A C 1.2507(2) 1.0044(2) 0.47295(15)
H30A H 1.23440 0.94880 0.43160
C36A C 1.0506(2) 0.9614(2) 0.51508(14)
H31A H 1.03740 0.88870 0.48260
H32A H 1.04500 0.93980 0.56550
C37A C -1.0309(3) -0.5453(2) -0.33417(18)
H33A H -1.02190 -0.47350 -0.35680
C38A C -0.9126(3) -0.6219(3) -0.41553(16)
H34A H -0.95960 -0.67460 -0.45770
H35A H -0.82760 -0.64340 -0.39960
H36A H -0.90910 -0.54140 -0.43050
C39A C -0.9902(3) -0.7441(3) -0.3235(2)
H37A H -0.96410 -0.73450 -0.26910
H38A H -0.93930 -0.79760 -0.34200
H39A H -1.07830 -0.77630 -0.33850
#END
