
#######################################################################
#
#                 Cambridge Crystallographic Data Centre
#                                CCDC
#
#######################################################################
#
# If this CIF has been generated from an entry in the Cambridge
# Structural Database, then it will include bibliographic, chemical,
# crystal, experimental, refinement or atomic coordinate data resulting
# from the CCDC's data processing and validation procedures.
#
#######################################################################

data_CSD_CIF_BUNMOP
_audit_creation_date 2020-05-28
_audit_creation_method CSD-ConQuest-V1
_database_code_CSD BUNMOP
_database_code_depnum_ccdc_archive 'CCDC 1448266'
_chemical_formula_sum 'C36 H63 N9 Ni1 O46 U3'
_chemical_formula_moiety
;
(C12 H12 N3 O11 U1 1-)3n,n(H12 Ni1 O6 2+),n(H3 O1 1+),6n(H2 O1)
;
_journal_coden_Cambridge 9
_journal_volume 59
_journal_year 2020
_journal_page_first 7980
_journal_name_full 'Inorg.Chem. '
loop_
_publ_author_name
"Ling-ling Liang"
"Rong-lan Zhang"
"Jian-she Zhao"
_chemical_name_systematic
;
catena-(hexa-aqua-nickel(ii) oxonium 
tris((\m-tris(2-carboxylatoethyl)isocyanurate)-dioxo-uranium) hexahydrate)
;
_cell_volume   9745.801
_exptl_crystal_density_diffrn 2.178
_exptl_crystal_description 'block'
_diffrn_ambient_temperature 296.1
#These two values have been output from a single CSD field.
_refine_ls_R_factor_gt 0.0186
_refine_ls_wR_factor_gt 0.0186
_symmetry_cell_setting rhombohedral
_symmetry_space_group_name_H-M 'R 3 c'
_symmetry_Int_Tables_number 161
loop_
_symmetry_equiv_pos_site_id
_symmetry_equiv_pos_as_xyz
1 x,y,z
2 -y,x-y,z
3 -x+y,-x,z
4 -x+y,y,1/2+z
5 x,x-y,1/2+z
6 -y,-x,1/2+z
7 2/3+x,1/3+y,1/3+z
8 2/3-y,1/3+x-y,1/3+z
9 2/3-x+y,1/3-x,1/3+z
10 2/3-x+y,1/3+y,5/6+z
11 2/3+x,1/3+x-y,5/6+z
12 2/3-y,1/3-x,5/6+z
13 1/3+x,2/3+y,2/3+z
14 1/3-y,2/3+x-y,2/3+z
15 1/3-x+y,2/3-x,2/3+z
16 1/3-x+y,2/3+y,1/6+z
17 1/3+x,2/3+x-y,1/6+z
18 1/3-y,2/3-x,1/6+z
_cell_length_a 15.8019(4)
_cell_length_b 15.8019(4)
_cell_length_c 45.068(2)
_cell_angle_alpha 90
_cell_angle_beta 90
_cell_angle_gamma 120
_cell_formula_units_Z 6
loop_
_atom_type_symbol
_atom_type_radius_bond
C 0.68
H 0.23
N 0.68
Ni 1.24
O 0.68
U 1.96
loop_
_atom_site_label
_atom_site_type_symbol
_atom_site_fract_x
_atom_site_fract_y
_atom_site_fract_z
U1 U 0.435736(19) 0.431339(19) 0.556260(11)
O1 O 0.1759(6) -0.3364(4) 0.55562(16)
O2 O 0.5177(4) 0.3336(4) 0.55040(17)
O3 O 0.7339(6) -0.0914(4) 0.42385(14)
O4 O 0.0957(6) -0.2967(4) 0.52423(15)
O5 O 0.3879(4) 0.2891(4) 0.52348(15)
O6 O 0.5752(6) -0.1792(4) 0.42078(14)
C1 C 0.4598(6) 0.2800(6) 0.5307(2)
C2 C 0.6501(8) -0.1019(6) 0.4300(2)
O7 O 0.5125(4) 0.5103(4) 0.52813(14)
O8 O 0.3589(4) 0.3513(4) 0.58428(14)
C3 C 0.1757(8) -0.2809(6) 0.5347(2)
O9 O 0.4078(4) -0.1712(4) 0.46221(14)
C4 C 0.6371(8) -0.0278(6) 0.4474(2)
H1 H 0.62060 -0.04930 0.46780
H2 H 0.69750 0.03440 0.44740
C5 C 0.4752(7) 0.2032(7) 0.5160(2)
H3 H 0.54460 0.22530 0.51580
H4 H 0.44310 0.14380 0.52770
O10 O 0.2785(4) 0.0075(4) 0.49850(15)
N1 N 0.3395(4) -0.0840(5) 0.48007(15)
N2 N 0.4889(5) -0.0060(5) 0.45452(16)
N3 N 0.4263(5) 0.0863(5) 0.47567(16)
O11 O 0.5760(4) 0.1606(4) 0.45306(15)
C6 C 0.2682(10) -0.1974(7) 0.5234(2)
H5 H 0.31970 -0.21380 0.52410
H6 H 0.28750 -0.14060 0.53590
C7 C 0.4370(6) 0.1800(6) 0.4847(2)
H7 H 0.37430 0.17710 0.48350
H8 H 0.48200 0.23120 0.47140
C8 C 0.5022(6) 0.0852(6) 0.4607(2)
C9 C 0.4117(6) -0.0923(6) 0.46590(19)
C10 C 0.3431(6) 0.0042(6) 0.48540(18)
C11 C 0.5540(8) -0.0157(6) 0.4332(2)
H9 H 0.51500 -0.07180 0.42070
H10 H 0.58330 0.04170 0.42060
C12 C 0.2546(8) -0.1735(6) 0.4914(2)
H11 H 0.24270 -0.22790 0.47870
H12 H 0.19730 -0.16600 0.49050
Ni1 Ni 0.00000 0.00000 0.46470(4)
O12 O 0.1247(4) 0.0773(4) 0.43991(14)
H13 H 0.13370 0.13460 0.43560
H14 H 0.11990 0.04660 0.42360
O13 O 0.0491(4) 0.1220(4) 0.49034(14)
H15 H 0.07160 0.17370 0.47930
H16 H 0.09540 0.12820 0.50200
O14 O 0.1763(4) 0.1498(5) 0.53543(17)
H17 H 0.16260 0.18720 0.54530
H18 H 0.22760 0.18400 0.52520
O15 O 0.66670 0.33330 0.5875(2)
H19 H 0.65430 0.34050 0.56810
O16 O 0.1318(3) -0.02598(18) 0.56649(18)
H20 H 0.16280 0.02290 0.55510
H21 H 0.07810 -0.02450 0.56500
H22? H 0.70450 0.31330 0.59050
H23? H 0.63790 0.34810 0.60000
U1B U -0.004397(19) -0.435736(19) 0.556260(11)
U1I U 0.662270(19) -0.235328(19) 0.389593(11)
O1A O 0.3364(6) 0.5123(4) 0.55562(16)
O3O O 0.508033(600) 0.575267(400) 0.590517(140)
O4A O 0.2967(6) 0.3924(4) 0.52423(15)
O6O O 0.578933(600) 0.487467(400) 0.587447(140)
O12A O -0.0773(4) 0.0474(4) 0.43991(14)
H13A H -0.13460 -0.00090 0.43560
H14A H -0.04660 0.07330 0.42360
O13A O -0.1220(4) -0.0729(4) 0.49034(14)
H15A H -0.17370 -0.10210 0.47930
H16A H -0.12820 -0.03280 0.50200
O12B O -0.0474(4) -0.1247(4) 0.43991(14)
H13B H 0.00090 -0.13370 0.43560
H14B H -0.07330 -0.11990 0.42360
O13B O 0.0729(4) -0.0491(4) 0.49034(14)
H15B H 0.10210 -0.07160 0.47930
H16B H 0.03280 -0.09540 0.50200
H19A H 0.65950 0.31380 0.56810
H19B H 0.68620 0.34570 0.56810
#END
