
#######################################################################
#
#                 Cambridge Crystallographic Data Centre
#                                CCDC
#
#######################################################################
#
# If this CIF has been generated from an entry in the Cambridge
# Structural Database, then it will include bibliographic, chemical,
# crystal, experimental, refinement or atomic coordinate data resulting
# from the CCDC's data processing and validation procedures.
#
#######################################################################

data_CSD_CIF_BUNNUW
_audit_creation_date 2020-05-28
_audit_creation_method CSD-ConQuest-V1
_database_code_CSD BUNNUW
_database_code_depnum_ccdc_archive 'CCDC 1442147'
_chemical_formula_sum 'C42 H58 N10 O35 U3'
_chemical_formula_moiety
;
(C12 H12 N3 O11 U1 1-)3n,n(C6 H16 N1 1+),2n(H3 O1 1+)
;
_journal_coden_Cambridge 9
_journal_volume 59
_journal_year 2020
_journal_page_first 7980
_journal_name_full 'Inorg.Chem. '
loop_
_publ_author_name
"Ling-ling Liang"
"Rong-lan Zhang"
"Jian-she Zhao"
_chemical_name_systematic
;
catena-(triethylammonium bis(oxonium) 
tris((\m-tris(2-carboxylatoethyl)isocyanurate)-dioxo-uranium))
;
_cell_volume   9879.449
_exptl_crystal_colour 'yellow'
_exptl_crystal_density_diffrn 1.994
_exptl_crystal_description 'block'
_diffrn_ambient_temperature 296.1
#These two values have been output from a single CSD field.
_refine_ls_R_factor_gt 0.0277
_refine_ls_wR_factor_gt 0.0277
_symmetry_cell_setting rhombohedral
_symmetry_space_group_name_H-M 'R 3 c'
_symmetry_Int_Tables_number 161
loop_
_symmetry_equiv_pos_site_id
_symmetry_equiv_pos_as_xyz
1 x,y,z
2 -y,x-y,z
3 -x+y,-x,z
4 -x+y,y,1/2+z
5 x,x-y,1/2+z
6 -y,-x,1/2+z
7 2/3+x,1/3+y,1/3+z
8 2/3-y,1/3+x-y,1/3+z
9 2/3-x+y,1/3-x,1/3+z
10 2/3-x+y,1/3+y,5/6+z
11 2/3+x,1/3+x-y,5/6+z
12 2/3-y,1/3-x,5/6+z
13 1/3+x,2/3+y,2/3+z
14 1/3-y,2/3+x-y,2/3+z
15 1/3-x+y,2/3-x,2/3+z
16 1/3-x+y,2/3+y,1/6+z
17 1/3+x,2/3+x-y,1/6+z
18 1/3-y,2/3-x,1/6+z
_cell_length_a 15.8993(9)
_cell_length_b 15.8993(9)
_cell_length_c 45.128(7)
_cell_angle_alpha 90
_cell_angle_beta 90
_cell_angle_gamma 120
_cell_formula_units_Z 6
loop_
_atom_type_symbol
_atom_type_radius_bond
C 0.68
H 0.23
N 0.68
O 0.68
U 1.96
loop_
_atom_site_label
_atom_site_type_symbol
_atom_site_fract_x
_atom_site_fract_y
_atom_site_fract_z
U1 U 1.23649(2) 0.89693(2) -0.09970(2)
N1 N 1.0105(4) 0.4970(4) -0.03366(14)
N2 N 1.0862(3) 0.4271(4) -0.00769(12)
N3 N 0.9187(4) 0.3446(4) -0.01177(13)
O1 O 0.8451(3) 0.4174(4) -0.03581(15)
O2 O 1.1733(3) 0.5795(3) -0.02623(13)
O3 O 0.9942(4) 0.2790(3) 0.01321(16)
O4 O 1.1811(3) 0.7516(3) -0.06926(13)
O5 O 1.0932(4) 0.8216(3) -0.06561(14)
O6 O 1.3396(3) 0.5141(4) 0.06634(13)
O7 O 1.2971(3) 0.3941(4) 0.03602(14)
O8 O 0.6663(3) 0.1834(3) 0.06092(13)
O9 O 0.7050(4) 0.1000(4) 0.03206(14)
O10 O 1.1572(3) 0.8213(3) -0.12777(13)
O11 O 1.3151(4) 0.9737(4) -0.07183(13)
C1 C 0.9186(5) 0.4198(5) -0.02739(18)
C2 C 1.0959(4) 0.5074(5) -0.02243(15)
C3 C 0.9986(5) 0.3455(5) -0.00166(16)
C4 C 1.0185(5) 0.5693(5) -0.0557(2)
H1 H 0.96000 0.54070 -0.06760
H2 H 1.07270 0.58430 -0.06870
C5 C 1.0332(5) 0.6656(5) -0.04205(19)
H3 H 0.97180 0.66480 -0.04190
H4 H 1.05530 0.67130 -0.02170
C6 C 1.1063(5) 0.7512(5) -0.0596(2)
C7 C 0.8198(6) 0.2590(5) -0.00431(19)
H5 H 0.77220 0.25450 -0.01860
H6 H 0.82220 0.19930 -0.00520
C8 C 0.7918(7) 0.2722(6) 0.0256(2)
H7 H 0.76650 0.31640 0.02450
H8 H 0.84940 0.30230 0.03800
C9 C 0.7177(5) 0.1806(5) 0.04002(17)
C10 C 1.1771(5) 0.4322(5) 0.00368(18)
H9 H 1.16870 0.36740 0.00360
H10 H 1.23020 0.47220 -0.00960
C11 C 1.2034(5) 0.4724(5) 0.03398(19)
H11 H 1.14720 0.43960 0.04680
H12 H 1.22350 0.54090 0.03360
C12 C 1.2850(5) 0.4596(5) 0.04601(18)
N4 N 0.66670 0.33330 -0.0904(18)
H13 H 0.66670 0.33330 -0.11220
C13 C 0.711(4) 0.4373(13) -0.0890(12)
H14 H 0.77230 0.45620 -0.07940
H15 H 0.67210 0.44580 -0.07390
C14 C 0.739(3) 0.530(4) -0.1117(12)
H16 H 0.76160 0.58480 -0.09850
H17 H 0.79140 0.53930 -0.12440
H18 H 0.68660 0.52550 -0.12350
O12 O 1.33330 0.66670 -0.0683(2)
H19 H 1.40290 0.69840 -0.06890
O13 O 0.66670 0.33330 -0.1833(2)
H20 H 0.68640 0.31640 -0.20140
H21? H 1.31370 0.69550 -0.05310
H22? H 1.30940 0.67380 -0.08710
H23? H 0.61120 0.33930 -0.18690
H24? H 0.71860 0.39400 -0.17610
U1P U 0.569823(20) 0.006227(20) 0.066967(20)
U1Q U 1.436403(20) 0.430177(20) 0.066967(20)
O6K O 1.152567(300) 0.993733(400) -0.100327(130)
O7K O 1.272567(300) 1.036233(400) -0.130647(140)
O8J O 1.332967(300) 0.816233(300) -0.105747(130)
O9J O 1.371667(400) 0.938333(400) -0.134607(140)
C13A C 0.5627(40) 0.2737(13) -0.0890(12)
H14A H 0.54380 0.31610 -0.07940
H15A H 0.55420 0.22630 -0.07390
C14A C 0.470(3) 0.209(4) -0.1117(12)
H16A H 0.41520 0.17680 -0.09850
H17A H 0.46070 0.25210 -0.12440
H18A H 0.47450 0.16110 -0.12350
C13B C 0.7263(40) 0.2890(13) -0.0890(12)
H14B H 0.68390 0.22770 -0.07940
H15B H 0.77370 0.32790 -0.07390
C14B C 0.791(3) 0.261(4) -0.1117(12)
H16B H 0.82320 0.23840 -0.09850
H17B H 0.74790 0.20860 -0.12440
H18B H 0.83890 0.31340 -0.12350
H19A H 1.30160 0.70450 -0.06890
H19B H 1.29550 0.59710 -0.06890
H20A H 0.68360 0.37000 -0.20140
H20B H 0.63000 0.31360 -0.20140
#END
