
#######################################################################
#
#                 Cambridge Crystallographic Data Centre
#                                CCDC
#
#######################################################################
#
# If this CIF has been generated from an entry in the Cambridge
# Structural Database, then it will include bibliographic, chemical,
# crystal, experimental, refinement or atomic coordinate data resulting
# from the CCDC's data processing and validation procedures.
#
#######################################################################

data_CSD_CIF_BUNPAE
_audit_creation_date 2020-05-28
_audit_creation_method CSD-ConQuest-V1
_database_code_CSD BUNPAE
_database_code_depnum_ccdc_archive 'CCDC 1438979'
_chemical_formula_sum 'C22 H23 N5 O12 U1'
_chemical_formula_moiety
;
(C12 H12 N3 O11 U1 1-)n,C10 H9 N2 1+,H2 O1
;
_journal_coden_Cambridge 9
_journal_volume 59
_journal_year 2020
_journal_page_first 7980
_journal_name_full 'Inorg.Chem. '
loop_
_publ_author_name
"Ling-ling Liang"
"Rong-lan Zhang"
"Jian-she Zhao"
_chemical_name_systematic
;
catena-(2-(2-pyridyl)pyridinium 
(\m-tris(2-carboxylatoethyl)isocyanurate)-dioxo-uranium monohydrate)
;
_cell_volume   2525.190
_exptl_crystal_colour 'yellow'
_exptl_crystal_density_diffrn 2.071
_exptl_crystal_description 'prism'
_diffrn_ambient_temperature 293
_diffrn_special_details
;
twin

;
#These two values have been output from a single CSD field.
_refine_ls_R_factor_gt 0.055
_refine_ls_wR_factor_gt 0.055
_symmetry_cell_setting monoclinic
_symmetry_space_group_name_H-M 'P 21/n'
_symmetry_Int_Tables_number 14
loop_
_symmetry_equiv_pos_site_id
_symmetry_equiv_pos_as_xyz
1 x,y,z
2 1/2-x,1/2+y,1/2-z
3 -x,-y,-z
4 -1/2+x,-1/2-y,-1/2+z
_cell_length_a 8.9863(7)
_cell_length_b 20.6215(16)
_cell_length_c 13.6414(10)
_cell_angle_alpha 90
_cell_angle_beta 92.654(1)
_cell_angle_gamma 90
_cell_formula_units_Z 4
loop_
_atom_type_symbol
_atom_type_radius_bond
C 0.68
H 0.23
N 0.68
O 0.68
U 1.96
loop_
_atom_site_label
_atom_site_type_symbol
_atom_site_fract_x
_atom_site_fract_y
_atom_site_fract_z
U1 U 0.39042(3) 0.66185(2) 0.40949(2)
O1 O 0.5242(8) 0.5761(3) 0.3288(5)
O2 O 0.5464(6) 0.5755(3) 0.4872(5)
O3 O 0.7642(6) 0.7580(3) 0.0093(4)
O4 O 0.8866(8) 0.8320(3) 0.0913(4)
O5 O 0.8639(9) 0.8320(3) 0.7272(5)
O6 O 0.7662(6) 0.7534(3) 0.8067(4)
O7 O 0.8903(8) 0.5946(4) 0.2475(5)
O8 O 0.9067(6) 0.7859(3) 0.4113(4)
O9 O 0.9030(8) 0.5961(3) 0.5783(5)
O10 O 0.2291(6) 0.6130(3) 0.4081(4)
O11 O 0.5519(6) 0.7107(3) 0.4097(4)
N1 N 0.8777(7) 0.5949(3) 0.4117(5)
N2 N 0.9081(7) 0.6919(4) 0.3268(4)
N3 N 0.9078(6) 0.6920(3) 0.4963(4)
C1 C 0.5917(6) 0.5544(3) 0.4079(7)
C2 C 0.6985(6) 0.5008(3) 0.3923(11)
H1 H 0.67810 0.46460 0.43510
H2 H 0.68940 0.48590 0.32480
C3 C 0.8488(5) 0.5259(4) 0.4146(10)
H3 H 0.87940 0.51090 0.47980
H4 H 0.91450 0.50540 0.36930
C4 C 0.8925(8) 0.6247(5) 0.3231(6)
C5 C 0.9072(7) 0.7283(4) 0.4120(5)
C6 C 0.8976(8) 0.6257(4) 0.5008(6)
C7 C 0.9267(6) 0.7283(4) 0.2324(4)
H5 H 0.98570 0.76700 0.24560
H6 H 0.97970 0.70140 0.18730
C8 C 0.7795(6) 0.7471(4) 0.1860(4)
H7 H 0.72810 0.77690 0.22790
H8 H 0.71740 0.70910 0.17450
C9 C 0.8124(8) 0.7790(3) 0.0912(3)
C10 C 0.9226(6) 0.7278(4) 0.5931(4)
H9 H 0.97820 0.70150 0.64090
H10 H 0.97710 0.76790 0.58450
C11 C 0.7720(6) 0.7428(4) 0.6300(4)
H11 H 0.71600 0.77040 0.58410
H12 H 0.71610 0.70330 0.63950
C12 C 0.8015(8) 0.7769(4) 0.7253(4)
O12 O 0.5712(9) 0.5904(4) 0.1161(5)
H13 H 0.56090 0.58420 0.17620
H14 H 0.62800 0.56160 0.09540
N4 N 0.6618(8) 0.5416(4) -0.0573(6)
C13 C 0.9412(11) 0.4131(5) -0.0372(9)
H15 H 0.97870 0.41210 -0.09570
C14 C 0.5900(11) 0.5838(5) -0.1194(8)
H16 H 0.52720 0.61500 -0.09450
C15 C 0.6089(13) 0.5811(5) -0.2194(9)
H17 H 0.55940 0.60990 -0.26200
C16 C 0.7045(11) 0.5337(5) -0.2547(8)
H18 H 0.72180 0.53110 -0.32130
C17 C 0.7706(10) 0.4925(5) -0.1912(7)
H19 H 0.82950 0.45950 -0.21530
C18 C 0.7549(11) 0.4967(4) -0.0917(7)
C19 C 0.8204(10) 0.4529(4) -0.0175(7)
N5 N 0.7694(9) 0.4562(4) 0.0728(6)
H20 H 0.69910 0.48290 0.08490
C20 C 0.8255(14) 0.4190(6) 0.1429(8)
H21 H 0.78290 0.41950 0.20380
C21 C 0.9488(13) 0.3780(5) 0.1289(9)
H22 H 0.99200 0.35410 0.18060
C22 C 1.0004(11) 0.3747(5) 0.0405(9)
H23 H 1.07800 0.34630 0.02900
U1C U 0.89042(3) 0.83815(2) -0.09051(2)
U1C* U 0.89042(3) 0.83815(2) 0.90949(2)
O3C O 0.2642(6) 0.7420(3) 0.5093(4)
O4C O 0.3866(8) 0.6680(3) 0.5913(4)
O5C O 0.3639(9) 0.6680(3) 0.2272(5)
O6C O 0.2662(6) 0.7466(3) 0.3067(4)
#END
