
#######################################################################
#
#                 Cambridge Crystallographic Data Centre
#                                CCDC
#
#######################################################################
#
# If this CIF has been generated from an entry in the Cambridge
# Structural Database, then it will include bibliographic, chemical,
# crystal, experimental, refinement or atomic coordinate data resulting
# from the CCDC's data processing and validation procedures.
#
#######################################################################

data_CSD_CIF_BUPFID
_audit_creation_date 2015-07-31
_audit_creation_method CSD-ConQuest-V1
_database_code_CSD BUPFID
_database_code_depnum_ccdc_archive 'CCDC 1057199'
_chemical_formula_sum 'C22 H26 Co1 K1 N3 O2'
_chemical_formula_moiety
;
(C22 H26 Co1 N3 O2 1-)n,K1 1+
;
_journal_coden_Cambridge 1475
_journal_volume 6
_journal_year 2015
_journal_page_first 6672
_journal_name_full 'Chemical Science '
loop_
_publ_author_name
"O.Villanueva"
"N.M.Weldy"
"S.B.Blakey"
"C.E.MacBeth"
_chemical_name_systematic
;
catena-[potassium 
(\m~2~-bis(2-((2,2-dimethylpropanoyl)amino)phenyl)amino)-cobalt]
;
_cell_volume   8790.980
_exptl_crystal_colour 'dark red'
_exptl_crystal_density_diffrn 1.398
_exptl_crystal_description 'rod'
_diffrn_ambient_temperature 293
#These two values have been output from a single CSD field.
_refine_ls_R_factor_gt 0.0288
_refine_ls_wR_factor_gt 0.0288
_symmetry_cell_setting orthorhombic
_symmetry_space_group_name_H-M 'F d d d'
_symmetry_Int_Tables_number 70
loop_
_symmetry_equiv_pos_site_id
_symmetry_equiv_pos_as_xyz
1 x,y,z
2 3/4-x,3/4-y,z
3 3/4-x,y,3/4-z
4 x,3/4-y,3/4-z
5 x,1/2+y,1/2+z
6 3/4-x,1/4-y,1/2+z
7 3/4-x,1/2+y,1/4-z
8 x,1/4-y,1/4-z
9 1/2+x,y,1/2+z
10 1/4-x,3/4-y,1/2+z
11 1/4-x,y,1/4-z
12 1/2+x,3/4-y,1/4-z
13 1/2+x,1/2+y,z
14 1/4-x,1/4-y,z
15 1/4-x,1/2+y,3/4-z
16 1/2+x,1/4-y,3/4-z
17 -x,-y,-z
18 -3/4+x,-3/4+y,-z
19 -3/4+x,-y,-3/4+z
20 -x,-3/4+y,-3/4+z
21 -x,-1/2-y,-1/2-z
22 -3/4+x,-1/4+y,-1/2-z
23 -3/4+x,-1/2-y,-1/4+z
24 -x,-1/4+y,-1/4+z
25 -1/2-x,-y,-1/2-z
26 -1/4+x,-3/4+y,-1/2-z
27 -1/4+x,-y,-1/4+z
28 -1/2-x,-3/4+y,-1/4+z
29 -1/2-x,-1/2-y,-z
30 -1/4+x,-1/4+y,-z
31 -1/4+x,-1/2-y,-3/4+z
32 -1/2-x,-1/4+y,-3/4+z
_cell_length_a 10.8136(3)
_cell_length_b 27.5330(7)
_cell_length_c 29.5266(8)
_cell_angle_alpha 90
_cell_angle_beta 90
_cell_angle_gamma 90
_cell_formula_units_Z 16
loop_
_atom_type_symbol
_atom_type_radius_bond
C 0.68
H 0.23
Co 1.26
K 2.03
N 0.68
O 0.68
loop_
_atom_site_label
_atom_site_type_symbol
_atom_site_fract_x
_atom_site_fract_y
_atom_site_fract_z
C1 C 0.23210(16) 0.61234(6) 0.04362(6)
C2 C 0.25932(18) 0.63286(7) 0.00149(6)
H1 H 0.20740 0.65690 -0.00990
C3 C 0.36068(19) 0.61875(8) -0.02398(7)
H2 H 0.37710 0.63350 -0.05170
C4 C 0.43768(17) 0.58231(7) -0.00761(7)
H3 H 0.50420 0.57150 -0.02490
C5 C 0.31520(16) 0.57780(6) 0.06140(6)
C6 C 0.41472(17) 0.56229(7) 0.03438(6)
H4 H 0.46640 0.53790 0.04510
C7 C 0.38686(16) 0.54637(7) 0.13131(6)
C8 C 0.36922(17) 0.50565(7) 0.16643(7)
C9 C 0.23705(17) 0.50138(7) 0.18420(7)
H5 H 0.21530 0.53050 0.20020
H6 H 0.23140 0.47410 0.20440
H7 H 0.18140 0.49680 0.15920
C10 C 0.4032(2) 0.45875(8) 0.14078(8)
H8 H 0.39410 0.43140 0.16060
H9 H 0.48730 0.46070 0.13050
H10 H 0.34930 0.45500 0.11520
C11 C 0.45887(19) 0.51298(8) 0.20587(7)
H11 H 0.43770 0.54220 0.22180
H12 H 0.54170 0.51560 0.19440
H13 H 0.45360 0.48580 0.22610
Co1 Co 0.12500 0.576720(13) 0.12500
N1 N 0.12500 0.62500 0.06940(7)
N2 N 0.28907(13) 0.55626(5) 0.10380(5)
O1 O 0.48987(13) 0.56510(5) 0.12750(5)
K1 K 0.62500 0.62500 0.07082(2)
C1M C 0.01790(16) 0.63766(6) 0.04362(6)
C2M C -0.00932(18) 0.61714(7) 0.00149(6)
H1M H 0.04260 0.59310 -0.00990
C3M C -0.11068(19) 0.63125(8) -0.02398(7)
H2M H -0.12710 0.61650 -0.05170
C4M C -0.18768(17) 0.66769(7) -0.00761(7)
H3M H -0.25420 0.67850 -0.02490
C5M C -0.06520(16) 0.67220(6) 0.06140(6)
C6M C -0.16472(17) 0.68771(7) 0.03438(6)
H4M H -0.21640 0.71210 0.04510
C7M C -0.13686(16) 0.70363(7) 0.13131(6)
C8M C -0.11922(17) 0.74435(7) 0.16643(7)
C9M C 0.01295(17) 0.74862(7) 0.18420(7)
H5M H 0.03470 0.71950 0.20020
H6M H 0.01860 0.77590 0.20440
H7M H 0.06860 0.75320 0.15920
C10M C -0.1532(2) 0.79125(8) 0.14078(8)
H8M H -0.14410 0.81860 0.16060
H9M H -0.23730 0.78930 0.13050
H10M H -0.09930 0.79500 0.11520
C11M C -0.20887(19) 0.73702(8) 0.20587(7)
H11M H -0.18770 0.70780 0.22180
H12M H -0.29170 0.73440 0.19440
H13M H -0.20360 0.76420 0.22610
N2M N -0.03907(13) 0.69374(5) 0.10380(5)
O1M O -0.23987(13) 0.68490(5) 0.12750(5)
Co1G Co 0.12500 0.673280(13) 0.12500
N1G N 0.12500 0.62500 0.18060(7)
N2J N -0.03907(13) 0.55626(5) 0.14620(5)
#END
