
#######################################################################
#
#                 Cambridge Crystallographic Data Centre
#                                CCDC
#
#######################################################################
#
# If this CIF has been generated from an entry in the Cambridge
# Structural Database, then it will include bibliographic, chemical,
# crystal, experimental, refinement or atomic coordinate data resulting
# from the CCDC's data processing and validation procedures.
#
#######################################################################

data_CSD_CIF_BURNAG
_audit_creation_date 2020-05-30
_audit_creation_method CSD-ConQuest-V1
_database_code_CSD BURNAG
_database_code_depnum_ccdc_archive 'CCDC 1951692'
_chemical_formula_sum 'C15 H19 Cd1 I3 N2 O8'
_chemical_formula_moiety
;
(C9 H2 Cd1 I3 O7 1-)n,n(C4 H9 N1 O1),n(C2 H8 N1 1+)
;
_journal_coden_Cambridge 9
_journal_volume 59
_journal_year 2020
_journal_page_first 8081
_journal_name_full 'Inorg.Chem. '
loop_
_publ_author_name
"Chun-Hong Liu"
"Qing-Lin Guan"
"Xiao-Dong Yang"
"Feng-Ying Bai"
"Li-Xian Sun"
"Yong-Heng Xing"
_chemical_name_systematic
;
catena-(dimethylammonium 
(\m-2,4,6-tris(iodo)benzene-1,3,5-tricarboxylato)-aqua-cadmium(ii) 
dimethylacetamide solvate)
;
_cell_volume   2360.192
_exptl_crystal_colour 'deep red'
_exptl_crystal_density_diffrn 2.388
_exptl_crystal_description 'block'
_diffrn_ambient_temperature 296
#These two values have been output from a single CSD field.
_refine_ls_R_factor_gt 0.026
_refine_ls_wR_factor_gt 0.026
_symmetry_cell_setting monoclinic
_symmetry_space_group_name_H-M 'P 21/c'
_symmetry_Int_Tables_number 14
loop_
_symmetry_equiv_pos_site_id
_symmetry_equiv_pos_as_xyz
1 x,y,z
2 -x,1/2+y,1/2-z
3 -x,-y,-z
4 x,-1/2-y,-1/2+z
_cell_length_a 9.9134(8)
_cell_length_b 15.6147(13)
_cell_length_c 15.7186(13)
_cell_angle_alpha 90
_cell_angle_beta 104.067(1)
_cell_angle_gamma 90
_cell_formula_units_Z 4
loop_
_atom_type_symbol
_atom_type_radius_bond
C 0.68
H 0.23
Cd 1.44
I 1.40
N 0.68
O 0.68
loop_
_atom_site_label
_atom_site_type_symbol
_atom_site_fract_x
_atom_site_fract_y
_atom_site_fract_z
Cd1 Cd 1.21494(3) -0.066612(19) 0.152471(19)
I1 I 0.69872(3) -0.11060(2) 0.12202(2)
I2 I 1.07308(3) 0.17707(2) 0.30282(2)
I3 I 0.48741(3) 0.15128(2) 0.34323(3)
C1 C 0.9874(4) 0.0006(3) 0.1945(3)
C2 C 0.8652(4) 0.0367(3) 0.2251(2)
C3 C 0.7340(4) -0.0026(3) 0.2053(3)
C4 C 0.6245(4) 0.0295(3) 0.2379(3)
C5 C 0.6480(4) 0.1026(3) 0.2901(3)
C6 C 0.7749(4) 0.1452(3) 0.3092(2)
C7 C 0.8828(4) 0.1107(3) 0.2762(3)
C8 C 0.7941(4) 0.2297(3) 0.3587(3)
C9 C 0.4807(5) -0.0113(3) 0.2151(3)
O1 O 1.1680(4) -0.1063(2) 0.0124(2)
H1 H 1.116(5) -0.079(3) -0.030(3)
H2 H 1.160(7) -0.1606(9) 0.014(4)
O2 O 1.0674(3) -0.0490(2) 0.2453(2)
O3 O 1.0075(3) 0.0226(2) 0.1220(2)
O4 O 0.4559(4) -0.0702(2) 0.2621(3)
O5 O 0.3946(3) 0.0188(2) 0.1512(2)
O6 O 0.7599(3) 0.29434(18) 0.30977(19)
O7 O 0.8396(4) 0.2285(2) 0.43915(19)
C10 C 0.6315(9) 0.2067(5) 0.0928(4)
H3 H 0.61880 0.20710 0.03030
H4 H 0.56520 0.16850 0.10810
H5 H 0.72400 0.18780 0.12020
C11 C 0.7020(8) 0.3587(6) 0.1011(4)
H6 H 0.68180 0.41320 0.12350
H7 H 0.68710 0.36210 0.03850
H8 H 0.79710 0.34370 0.12670
N1 N 0.6106(4) 0.2935(3) 0.1232(3)
H9 H 0.52180 0.30910 0.10000
H10 H 0.62330 0.29230 0.18190
C12 C 0.1795(8) 0.2188(6) 0.0716(5)
H11 H 0.11910 0.19240 0.02140
H12 H 0.12650 0.23530 0.11260
H13 H 0.25060 0.17900 0.09900
C13 C 0.2468(7) 0.2982(6) 0.0426(4)
C14 C 0.2614(10) 0.4478(5) 0.0237(6)
H14 H 0.33910 0.43050 0.00130
H15 H 0.29270 0.48630 0.07210
H16 H 0.19400 0.47620 -0.02180
C15 C 0.0739(8) 0.3834(7) 0.0904(6)
H17 H 0.08220 0.34900 0.14210
H18 H -0.00890 0.36750 0.04750
H19 H 0.06890 0.44270 0.10520
N2 N 0.1956(6) 0.3693(5) 0.0544(4)
O8 O 0.3488(4) 0.2910(3) 0.0089(3)
Cd1* Cd 0.21494(3) -0.066612(19) 0.152471(19)
Cd1A Cd 0.78506(3) 0.433388(19) 0.347529(19)
O4* O 1.4559(4) -0.0702(2) 0.2621(3)
O5* O 1.3946(3) 0.0188(2) 0.1512(2)
O6A O 1.2401(3) -0.20566(18) 0.19023(19)
#END
