
#######################################################################
#
#                 Cambridge Crystallographic Data Centre
#                                CCDC
#
#######################################################################
#
# If this CIF has been generated from an entry in the Cambridge
# Structural Database, then it will include bibliographic, chemical,
# crystal, experimental, refinement or atomic coordinate data resulting
# from the CCDC's data processing and validation procedures.
#
#######################################################################

data_CSD_CIF_BUSFIF
_audit_creation_date 2010-09-06
_audit_creation_method CSD-ConQuest-V1
_database_code_CSD BUSFIF
_database_code_depnum_ccdc_archive 'CCDC 670119'
_chemical_formula_sum 'C8 H26 N2 Ni2 O17 P2'
_chemical_formula_moiety
;
(C4 H12 N2 2+)n,n(C4 H8 Ni2 O14 P2 2-),3n(H2 O1)
;
_journal_coden_Cambridge 29
_journal_volume 636
_journal_year 2010
_journal_page_first 247
_journal_name_full 'Z.Anorg.Allg.Chem. '
loop_
_publ_author_name
"Lei Liu"
"Jing Li"
"Zhen-Gang Sun"
"Da-Peng Dong"
"Na Zhang"
"Xin Lu"
"Wei-Nan Wang"
"Fei Tong"
_chemical_name_systematic
;
catena-((Piperazinediium) 
bis(\m~3~-2-hydroxyphosphonoacetato)-diaqua-di-nickel trihydrate)
;
_cell_volume   1995.272
_exptl_crystal_colour 'green'
_exptl_crystal_density_diffrn 1.999
_exptl_special_details
;
isostructural with the Co and Zn analogues

;
_exptl_crystal_description 'block'
_diffrn_ambient_temperature 295
#These two values have been output from a single CSD field.
_refine_ls_R_factor_gt 0.0324
_refine_ls_wR_factor_gt 0.0324
_symmetry_cell_setting monoclinic
_symmetry_space_group_name_H-M 'C 2/c'
_symmetry_Int_Tables_number 15
loop_
_symmetry_equiv_pos_site_id
_symmetry_equiv_pos_as_xyz
1 x,y,z
2 -x,y,1/2-z
3 1/2+x,1/2+y,z
4 1/2-x,1/2+y,1/2-z
5 -x,-y,-z
6 x,-y,-1/2+z
7 -1/2-x,-1/2-y,-z
8 -1/2+x,-1/2-y,-1/2+z
_cell_length_a 21.796(5)
_cell_length_b 9.106(2)
_cell_length_c 11.603(3)
_cell_angle_alpha 90
_cell_angle_beta 119.955(3)
_cell_angle_gamma 90
_cell_formula_units_Z 4
loop_
_atom_type_symbol
_atom_type_radius_bond
C 0.68
H 0.23
N 0.68
Ni 1.24
O 0.68
P 1.05
loop_
_atom_site_label
_atom_site_type_symbol
_atom_site_fract_x
_atom_site_fract_y
_atom_site_fract_z
Ni1 Ni 0.302935(19) 0.54007(4) 0.92515(4)
P1 P 0.33701(4) 0.74579(8) 1.16956(7)
O1 O 0.34247(11) 0.7114(2) 1.0475(2)
O2 O 0.30269(11) 0.8945(2) 1.1616(2)
O3 O 0.40792(11) 0.7294(2) 1.2974(2)
O4 O 0.27279(12) 0.6315(2) 1.2950(2)
H1 H 0.24820 0.70370 1.28550
O5 O 0.30858(11) 0.3674(2) 1.2664(2)
O6 O 0.30111(12) 0.4113(2) 1.0718(2)
O7 O 0.40554(14) 0.4606(3) 0.9968(3)
H2 H 0.42260 0.49740 0.95150
H3 H 0.40420 0.36760 0.98940
O8 O 0.00000 0.9412(4) 0.75000
H4 H 0.00080 0.88650 0.69140
O9 O 0.13722(13) 0.3698(3) 0.8933(3)
H5 H 0.17580 0.32470 0.91640
H6 H 0.11530 0.32770 0.92740
N1 N -0.05981(15) 0.4257(3) 0.4908(3)
H7 H -0.07200 0.36720 0.42000
H8 H -0.09030 0.40880 0.52030
C1 C 0.27693(15) 0.6095(3) 1.1772(3)
H9 H 0.22960 0.62600 1.10060
C2 C 0.29747(15) 0.4524(3) 1.1715(3)
C3 C -0.06552(19) 0.5814(4) 0.4491(4)
H10 H -0.11320 0.60130 0.37740
H11 H -0.05590 0.64520 0.52320
C4 C 0.01285(19) 0.3881(5) 0.5971(4)
H12 H 0.02500 0.44590 0.67590
H13 H 0.01490 0.28520 0.62010
Ni1F Ni 0.197065(19) 0.95993(4) 1.07485(4)
Ni1E Ni 0.302935(19) 0.45993(4) 1.42515(4)
Ni1C Ni 0.197065(19) 1.04007(4) 0.57485(4)
P1F P 0.16299(4) 0.75421(8) 0.83044(7)
O1F O 0.15753(11) 0.7886(2) 0.9525(2)
O2F O 0.19731(11) 0.6055(2) 0.8384(2)
O3F O 0.09208(11) 0.7706(2) 0.7026(2)
O4F O 0.22721(12) 0.8685(2) 0.7050(2)
O4E O 0.27279(12) 0.3685(2) 0.7950(2)
O4C O 0.22721(12) 1.1315(2) 1.2050(2)
H1F H 0.25180 0.79630 0.71450
H1E H 0.24820 0.29630 0.78550
H1C H 0.25180 1.20370 1.21450
O5F O 0.19142(11) 1.1326(2) 0.7336(2)
O5E O 0.30858(11) 0.6326(2) 0.7664(2)
O5C O 0.19142(11) 0.8674(2) 1.2336(2)
O6F O 0.19889(12) 1.0887(2) 0.9282(2)
O7F O 0.09446(14) 1.0394(3) 1.0032(3)
H2F H 0.07740 1.00260 1.04850
H3F H 0.09580 1.13240 1.01060
H4A H -0.00080 0.88650 0.80860
N1D N 0.05981(15) 0.5743(3) 0.5092(3)
H7D H 0.07200 0.63280 0.58000
H8D H 0.09030 0.59120 0.47970
C1F C 0.22307(15) 0.8905(3) 0.8228(3)
H9F H 0.27040 0.87400 0.89940
C2F C 0.20253(15) 1.0476(3) 0.8285(3)
C3D C 0.06552(19) 0.4186(4) 0.5509(4)
H10D H 0.11320 0.39870 0.62260
H11D H 0.05590 0.35480 0.47680
C4D C -0.01285(19) 0.6119(5) 0.4029(4)
H12D H -0.02500 0.55410 0.32410
H13D H -0.01490 0.71480 0.37990
#END
