
#######################################################################
#
#                 Cambridge Crystallographic Data Centre
#                                CCDC
#
#######################################################################
#
# If this CIF has been generated from an entry in the Cambridge
# Structural Database, then it will include bibliographic, chemical,
# crystal, experimental, refinement or atomic coordinate data resulting
# from the CCDC's data processing and validation procedures.
#
#######################################################################

data_CSD_CIF_BUVFAC
_audit_creation_date 2020-06-02
_audit_creation_method CSD-ConQuest-V1
_database_code_CSD BUVFAC
_database_code_depnum_ccdc_archive 'CCDC 1991083'
_chemical_formula_sum 'C48 H54 Ca1 N4 O22 Zn2'
_chemical_formula_moiety
;
(C38 H24 Ca1 O20 Zn2 2-)n,2(C2 H8 N1 1+),2(C3 H7 N1 O1)
;
_journal_coden_Cambridge 1078
_journal_year 2020
_journal_name_full 'CSD Communication(Private Communication) '
loop_
_publ_author_name
"Wenjuan Ji"
_chemical_name_systematic
;
catena-[bis(dimethylammonium) 
bis(\m-5,5'-[propane-1,3-diylbis(oxy)]di(benzene-1,3-dicarboxylato))-calcium-d
i-zinc N,N-dimethylformamide solvate]
;
_cell_volume   5444.135
_exptl_crystal_colour 'colourless'
_exptl_crystal_description 'block'
_diffrn_ambient_temperature 273.1
_refine_special_details
;
Disordered cations and N,N-dimethylformamide solvent molecules were not 
modelled and the disordered density was taken into account using the 
SQUEEZE/PLATON procedure.
;
#These two values have been output from a single CSD field.
_refine_ls_R_factor_gt 0.0342
_refine_ls_wR_factor_gt 0.0342
_symmetry_cell_setting monoclinic
_symmetry_space_group_name_H-M 'C 2/c'
_symmetry_Int_Tables_number 15
loop_
_symmetry_equiv_pos_site_id
_symmetry_equiv_pos_as_xyz
1 x,y,z
2 -x,y,1/2-z
3 1/2+x,1/2+y,z
4 1/2-x,1/2+y,1/2-z
5 -x,-y,-z
6 x,-y,-1/2+z
7 -1/2-x,-1/2-y,-z
8 -1/2+x,-1/2-y,-1/2+z
_cell_length_a 27.761(3)
_cell_length_b 15.927(2)
_cell_length_c 13.7189(17)
_cell_angle_alpha 90
_cell_angle_beta 116.167(2)
_cell_angle_gamma 90
_cell_formula_units_Z 4
loop_
_atom_type_symbol
_atom_type_radius_bond
C 0.68
H 0.23
Ca 1.76
O 0.68
Zn 1.22
loop_
_atom_site_label
_atom_site_type_symbol
_atom_site_fract_x
_atom_site_fract_y
_atom_site_fract_z
Zn1 Zn 0.133391(7) 0.325887(12) 0.245950(16)
Ca1 Ca 0.25000 0.25000 0.50000
C1 C 0.00584(8) 0.17338(12) 0.54145(16)
H1 H -0.01600 0.15680 0.57350
C2 C 0.19375(8) 0.17303(11) 1.24196(16)
O1 O 0.09479(6) 0.30844(10) 0.33305(13)
O2 O 0.15914(6) 0.2290(1) 0.45632(13)
O3 O 0.06502(6) 0.05223(10) 0.61224(13)
O4 O 0.11484(6) 0.0279(1) 0.89376(11)
C3 C 0.20207(7) -0.01737(12) 1.02852(15)
H2 H 0.20490 -0.05720 0.98170
C4 C 0.15509(7) 0.09723(12) 1.06268(15)
H3 H 0.12590 0.13350 1.03870
C5 C 0.24233(7) -0.01014(11) 1.13371(15)
C6 C 0.28666(7) -0.07325(12) 1.16859(16)
C7 C 0.02602(7) 0.27077(12) 0.42945(15)
H4 H 0.01640 0.31680 0.38290
C8 C 0.23981(7) 0.05052(12) 1.20381(15)
H5 H 0.26690 0.05480 1.27430
C9 C 0.19600(7) 0.10509(11) 1.16708(15)
C10 C 0.07265(7) 0.22561(12) 0.45004(15)
C11 C 0.11256(8) 0.25595(12) 0.41089(16)
C12 C 0.06344(8) -0.05102(12) 0.73284(15)
H6 H 0.06610 -0.09270 0.68400
H7 H 0.04200 -0.07490 0.76570
C13 C 0.11872(8) -0.03315(12) 0.82073(15)
H8 H 0.13470 -0.08440 0.85990
H9 H 0.14140 -0.01190 0.78900
C14 C 0.05011(7) 0.12587(12) 0.55522(15)
O5 O -0.06615(8) 0.29564(14) 0.54455(15)
C15 C -0.05104(7) 0.30178(13) 0.47261(15)
C16 C 0.08429(8) 0.15320(13) 0.51214(16)
H10 H 0.11510 0.12270 0.52510
C17 C 0.03482(7) 0.02532(13) 0.66749(15)
H11 H -0.00150 0.01110 0.61590
H12 H 0.03330 0.06930 0.71500
C18 C -0.00576(7) 0.24643(12) 0.47903(14)
C19 C 0.15768(7) 0.03483(12) 0.99328(14)
O6 O 0.15404(6) 0.2227(1) 1.19898(12)
O7 O 0.28358(6) -0.13304(9) 1.10795(13)
O8 O -0.07061(5) 0.35470(9) 0.39467(11)
O9 O 0.22886(6) 0.17578(9) 1.33679(13)
O10 O 0.32692(6) -0.06608(11) 1.25884(13)
Zn1A Zn -0.133391(7) 0.325887(12) 0.254050(16)
C1A C -0.00584(8) 0.17338(12) -0.04145(16)
H1A H 0.01600 0.15680 -0.07350
C2A C -0.19375(8) 0.17303(11) -0.74196(16)
O1A O -0.09479(6) 0.30844(10) 0.16695(13)
O2A O -0.15914(6) 0.2290(1) 0.04368(13)
O3A O -0.06502(6) 0.05223(10) -0.11224(13)
O4A O -0.11484(6) 0.0279(1) -0.39376(11)
C3A C -0.20207(7) -0.01737(12) -0.52852(15)
H2A H -0.20490 -0.05720 -0.48170
C4A C -0.15509(7) 0.09723(12) -0.56268(15)
H3A H -0.12590 0.13350 -0.53870
C5A C -0.24233(7) -0.01014(11) -0.63371(15)
C6A C -0.28666(7) -0.07325(12) -0.66859(16)
C7A C -0.02602(7) 0.27077(12) 0.07055(15)
H4A H -0.01640 0.31680 0.11710
C8A C -0.23981(7) 0.05052(12) -0.70381(15)
H5A H -0.26690 0.05480 -0.77430
C9A C -0.19600(7) 0.10509(11) -0.66708(15)
C10A C -0.07265(7) 0.22561(12) 0.04996(15)
C11A C -0.11256(8) 0.25595(12) 0.08911(16)
C12A C -0.06344(8) -0.05102(12) -0.23284(15)
H6A H -0.06610 -0.09270 -0.18400
H7A H -0.04200 -0.07490 -0.26570
C13A C -0.11872(8) -0.03315(12) -0.32073(15)
H8A H -0.13470 -0.08440 -0.35990
H9A H -0.14140 -0.01190 -0.28900
C14A C -0.05011(7) 0.12587(12) -0.05522(15)
O5A O 0.06615(8) 0.29564(14) -0.04455(15)
C15A C 0.05104(7) 0.30178(13) 0.02739(15)
C16A C -0.08429(8) 0.15320(13) -0.01214(16)
H10A H -0.11510 0.12270 -0.02510
C17A C -0.03482(7) 0.02532(13) -0.16749(15)
H11A H 0.00150 0.01110 -0.11590
H12A H -0.03330 0.06930 -0.21500
C18A C 0.00576(7) 0.24643(12) 0.02097(14)
C19A C -0.15768(7) 0.03483(12) -0.49328(14)
O6A O -0.15404(6) 0.2227(1) -0.69898(12)
O7A O -0.28358(6) -0.13304(9) -0.60795(13)
O8A O 0.07061(5) 0.35470(9) 0.10533(11)
O9A O -0.22886(6) 0.17578(9) -0.83679(13)
O10A O -0.32692(6) -0.06608(11) -0.75884(13)
Zn1* Zn 0.133391(7) 0.325887(12) 1.245950(16)
Zn1A* Zn -0.133391(7) 0.325887(12) -0.745950(16)
Zn1B Zn -0.366609(7) -0.174113(12) -0.754050(16)
Zn1C Zn 0.366609(7) -0.174113(12) 1.254050(16)
Ca1* Ca 0.25000 0.25000 1.50000
Ca1A Ca -0.25000 0.25000 -1.00000
Ca1A* Ca -0.25000 0.25000 0.00000
Ca1B Ca -0.25000 -0.25000 -0.50000
Ca1C Ca 0.25000 -0.25000 1.00000
O2F O 0.34086(6) 0.2710(1) 0.54368(13)
O6* O 0.15404(6) 0.2227(1) 0.19898(12)
O6A* O -0.15404(6) 0.2227(1) 0.30102(12)
O7B O -0.21642(6) 0.36696(9) 0.10795(13)
O7C O 0.21642(6) 0.36696(9) 0.39205(13)
O7E O 0.28358(6) 0.13304(9) 0.60795(13)
O9* O 0.22886(6) 0.17578(9) 0.33679(13)
O9F O 0.27114(6) 0.32422(9) 0.66321(13)
O10B O -0.17308(6) 0.43392(11) 0.25884(13)
O10C O 0.17308(6) 0.43392(11) 0.24116(13)
#END
