
#######################################################################
#
#                 Cambridge Crystallographic Data Centre
#                                CCDC
#
#######################################################################
#
# If this CIF has been generated from an entry in the Cambridge
# Structural Database, then it will include bibliographic, chemical,
# crystal, experimental, refinement or atomic coordinate data resulting
# from the CCDC's data processing and validation procedures.
#
#######################################################################

data_CSD_CIF_CADPOO
_audit_creation_date 2012-01-16
_audit_creation_method CSD-ConQuest-V1
_database_code_CSD CADPOO
_database_code_depnum_ccdc_archive 'CCDC 829422'
_chemical_formula_sum 'C12 H10 Cd1 N2 O7'
_chemical_formula_moiety
;
(C9 H5 Cd1 O7 1-)n,n(C3 H5 N2 1+)
;
_journal_coden_Cambridge 119
_journal_volume 1004
_journal_year 2011
_journal_page_first 252
_journal_name_full 'J.Mol.Struct. '
loop_
_publ_author_name
"Ying Fu"
"Guobao Li"
"Fuhui Liao"
"Ming Xiong"
"Jianhua Lin"
_chemical_name_systematic
;
catena-(Imidazolium (\m~4~-benzene-1,3,5-tricarboxylato)-aqua-cadmium)
;
_cell_volume   1222.772
_exptl_crystal_colour 'colorless'
_exptl_crystal_density_diffrn 2.209
_exptl_crystal_description 'block'
_diffrn_ambient_temperature 298
#These two values have been output from a single CSD field.
_refine_ls_R_factor_gt 0.034
_refine_ls_wR_factor_gt 0.034
_symmetry_cell_setting monoclinic
_symmetry_space_group_name_H-M 'P 21/c'
_symmetry_Int_Tables_number 14
loop_
_symmetry_equiv_pos_site_id
_symmetry_equiv_pos_as_xyz
1 x,y,z
2 -x,1/2+y,1/2-z
3 -x,-y,-z
4 x,-1/2-y,-1/2+z
_cell_length_a 6.5160(13)
_cell_length_b 9.6687(19)
_cell_length_c 19.524(4)
_cell_angle_alpha 90
_cell_angle_beta 96.23(3)
_cell_angle_gamma 90
_cell_formula_units_Z 4
loop_
_atom_type_symbol
_atom_type_radius_bond
C 0.68
H 0.23
Cd 1.50
N 0.68
O 0.68
loop_
_atom_site_label
_atom_site_type_symbol
_atom_site_fract_x
_atom_site_fract_y
_atom_site_fract_z
Cd1 Cd 0.41943(3) 0.933530(17) 0.402800(8)
O1 O 0.3325(3) 0.8078(2) 0.28808(9)
O2 O 0.4052(3) 1.0299(2) 0.29763(9)
O3 O 0.4059(4) 0.6124(2) 0.04687(11)
O4 O 0.0944(3) 1.0297(2) 0.41266(11)
H1 H 0.03570 0.96260 0.42730
H2 H 0.11090 1.09170 0.44140
O5 O 0.2432(3) 1.33661(18) 0.09287(9)
O6 O 0.3279(3) 0.7520(2) -0.04109(9)
O7 O 0.1556(3) 1.2380(2) -0.00898(9)
C1 C 0.3563(4) 0.9237(2) 0.26165(12)
C2 C 0.3284(4) 0.9414(2) 0.18471(11)
C3 C 0.2934(4) 1.0728(2) 0.15671(12)
H3 H 0.29170 1.14910 0.18570
C4 C 0.3431(4) 0.8275(2) 0.14169(11)
H4 H 0.36740 0.73980 0.16040
C5 C 0.2608(4) 1.0908(2) 0.08537(11)
C6 C 0.3534(4) 0.7282(2) 0.02270(12)
C7 C 0.2751(4) 0.9771(2) 0.04303(11)
H5 H 0.25350 0.98820 -0.00450
C8 C 0.3213(4) 0.8458(2) 0.07044(11)
C9 C 0.2166(4) 1.2314(2) 0.05391(11)
C10 C 0.1989(4) 0.5396(3) 0.28591(12)
H6 H 0.21730 0.62320 0.26390
C11 C 0.1675(4) 0.3893(3) 0.36508(11)
H7 H 0.16100 0.35010 0.40830
C12 C 0.1663(5) 0.4142(3) 0.25364(14)
H8 H 0.15980 0.39720 0.20660
N1 N 0.1453(4) 0.3199(3) 0.30391(15)
H9 H 0.12240 0.23290 0.29830
N2 N 0.2001(4) 0.5233(3) 0.35261(14)
H10 H 0.21860 0.58760 0.38310
Cd1A Cd 0.58057(3) 0.433530(17) 0.097200(8)
Cd1A* Cd 0.58057(3) 1.433530(17) 0.097200(8)
Cd1C Cd 0.41943(3) 0.566470(17) -0.097200(8)
O3A O 0.5941(4) 1.1124(2) 0.45313(11)
O5A O 0.7568(3) 0.83661(18) 0.40713(9)
O6C O 0.3279(3) 0.7480(2) 0.45891(9)
#END
