
#######################################################################
#
#                 Cambridge Crystallographic Data Centre
#                                CCDC
#
#######################################################################
#
# If this CIF has been generated from an entry in the Cambridge
# Structural Database, then it will include bibliographic, chemical,
# crystal, experimental, refinement or atomic coordinate data resulting
# from the CCDC's data processing and validation procedures.
#
#######################################################################

data_CSD_CIF_CAENCU10
_audit_creation_date 1985-02-07
_audit_creation_method CSD-ConQuest-V1
_database_code_CSD CAENCU10
_database_code_depnum_ccdc_archive 'CCDC 1118986'
_chemical_formula_sum 'C10 H20 Ca1 Cu1 N2 O12'
_chemical_formula_moiety
;
(C10 H12 Cu1 N2 O8 2-)n,n(Ca1 2+),4n(H2 O1)
;
_journal_coden_Cambridge 367
_journal_volume 10
_journal_year 1984
_journal_page_first 129
_journal_name_full 'Koord.Khim.(Russ.)(Coord.Chem.) '
loop_
_publ_author_name
"Ya.M.Nesterova"
"M.A.Porai-Koshits"
_chemical_name_systematic
;
catena-[Calcium (\m-ethylenediaminetetra-acetato)-copper tetrahydrate]
;
_cell_volume   1644.164
_exptl_crystal_density_diffrn 1.87
_exptl_special_details
;
H3 deleted for suspected coordinate errors. The y coordinate of C7 should be 
0.3399 not 0.3380
;
_diffrn_ambient_temperature ?
_diffrn_special_details
;
The study was carried out at room temperature,in the range 283-303K

;
#These two values have been output from a single CSD field.
_refine_ls_R_factor_gt 0.042
_refine_ls_wR_factor_gt 0.042
_symmetry_cell_setting monoclinic
_symmetry_space_group_name_H-M 'P 1 1 21/b'
_symmetry_Int_Tables_number 14
loop_
_symmetry_equiv_pos_site_id
_symmetry_equiv_pos_as_xyz
1 x,y,z
2 -x,1/2-y,1/2+z
3 -x,-y,-z
4 x,-1/2+y,-1/2-z
_cell_length_a 8.596(5)
_cell_length_b 17.486(8)
_cell_length_c 11.024(8)
_cell_angle_alpha 90
_cell_angle_beta 90
_cell_angle_gamma 97.14(2)
_cell_formula_units_Z 4
loop_
_atom_type_symbol
_atom_type_radius_bond
C 0.68
H 0.23
Ca 0.99
Cu 1.52
N 0.68
O 0.68
loop_
_atom_site_label
_atom_site_type_symbol
_atom_site_fract_x
_atom_site_fract_y
_atom_site_fract_z
Cu1 Cu 0.25110 0.28230 -0.52830
O1 O 0.60220 0.22390 -0.16400
O2 O 0.66760 0.12250 -0.23280
O3 O 0.33660 0.39080 -0.48400
O4 O 0.52020 0.46500 -0.38380
O5 O 0.03480 0.37890 -0.57410
O6 O -0.13390 0.43330 -0.45270
O7 O 0.15610 0.17800 -0.57470
O8 O -0.06490 0.09870 -0.57180
N1 N 0.41040 0.26250 -0.36140
N2 N 0.07150 0.26950 -0.40120
C1 C 0.30220 0.26980 -0.26110
C2 C 0.13570 0.23320 -0.29430
C3 C 0.48050 0.19070 -0.35730
C4 C 0.59130 0.17830 -0.25380
C5 C 0.53000 0.33080 -0.37450
C6 C 0.45830 0.40020 -0.41800
C7 C 0.00800 0.33990 -0.36720
C8 C -0.03250 0.38700 -0.47370
C9 C -0.05300 0.21430 -0.45580
C10 C 0.01190 0.15760 -0.54030
H1 H 0.29000 0.32900 -0.23600
H2 H 0.34200 0.24400 -0.17800
H3 H 0.13700 0.20700 -0.24700
H4 H 0.52700 0.18900 -0.43100
H5 H 0.39500 0.15900 -0.36100
H6 H 0.56700 0.33800 -0.26900
H7 H 0.61000 0.31600 -0.44000
H8 H -0.09000 0.32000 -0.31600
H9 H 0.09700 0.37900 -0.32200
H10 H -0.10700 0.18700 -0.38000
H11 H -0.11600 0.24700 -0.48800
Ca1 Ca 0.22420 0.47280 -0.66710
O9 O 0.30360 0.54940 -0.84800
H12 H 0.25700 0.57900 -0.87600
O10 O -0.00660 0.47170 -0.79200
H13 H 0.02900 0.50400 -0.84600
O11 O 0.29000 0.56390 -0.32520
H14 H 0.23400 0.54900 -0.38500
H15 H 0.34300 0.52300 -0.34200
O12 O -0.38770 0.05750 -0.56870
H16 H -0.32700 0.01400 -0.55300
O1A O 0.39780 0.27610 -0.66400
Cu1A Cu 0.74890 0.21770 -0.02830
#END
