
#######################################################################
#
#                 Cambridge Crystallographic Data Centre
#                                CCDC
#
#######################################################################
#
# If this CIF has been generated from an entry in the Cambridge
# Structural Database, then it will include bibliographic, chemical,
# crystal, experimental, refinement or atomic coordinate data resulting
# from the CCDC's data processing and validation procedures.
#
#######################################################################

data_CSD_CIF_CAFVAH
_audit_creation_date 2002-03-27
_audit_creation_method CSD-ConQuest-V1
_database_code_CSD CAFVAH
_database_code_depnum_ccdc_archive 'CCDC 179781'
_chemical_formula_sum 'C27 H21 Co3 K1 O23'
_chemical_formula_moiety
;
(C27 H11 Co3 O18 1-)n,n(K1 1+),5n(H2 O1)
;
_journal_coden_Cambridge 1096
_journal_volume 13
_journal_year 2001
_journal_page_first 4387
_journal_name_full 'Chem.Mater. '
loop_
_publ_author_name
"C.Livage"
"N.Guillou"
"J.Marrot"
"G.Ferey"
_chemical_name_systematic
;
catena-[Potassium (\m~6~-1,3,5-benzenetricarboxylate)-bis(\m~5~-hydrogen 
1,3,5-benzenetricarboxylate)-tri-cobalt pentahydrate]
;
_cell_volume   1592.502
_exptl_crystal_colour 'pink'
_exptl_crystal_density_diffrn 1.938
_exptl_crystal_description 'parallelepiped'
_diffrn_ambient_temperature 296
_refine_special_details
;
One water molecule and the potassium ion are disordered.

;
#These two values have been output from a single CSD field.
_refine_ls_R_factor_gt 0.0306
_refine_ls_wR_factor_gt 0.0306
_symmetry_cell_setting monoclinic
_symmetry_space_group_name_H-M 'P 2/c'
_symmetry_Int_Tables_number 13
loop_
_symmetry_equiv_pos_site_id
_symmetry_equiv_pos_as_xyz
1 x,y,z
2 x,-y,1/2+z
3 -x,-y,-z
4 -x,y,-1/2-z
_cell_length_a 9.6096(1)
_cell_length_b 12.5610(1)
_cell_length_c 13.9736(2)
_cell_angle_alpha 90
_cell_angle_beta 109.239(1)
_cell_angle_gamma 90
_cell_formula_units_Z 2
loop_
_atom_type_symbol
_atom_type_radius_bond
C 0.68
H 0.23
Co 1.14
K 1.20
O 0.72
loop_
_atom_site_label
_atom_site_type_symbol
_atom_site_fract_x
_atom_site_fract_y
_atom_site_fract_z
Co1 Co 0.06016(3) 1.778030(19) 0.153420(17)
Co2 Co 0.00000 1.00000 0.00000
O1 O 0.05327(17) 1.62228(10) 0.18931(11)
O2 O 0.00566(16) 1.27673(11) -0.00544(9)
O3 O 0.0151(2) 1.12876(11) 0.08632(11)
O4 O 0.6297(2) 1.27474(14) 0.1225(2)
H1 H 0.62220 1.33850 0.13250
O5 O 0.4009(2) 1.27042(14) 0.12692(18)
O6 O 0.16175(13) 0.91891(11) 0.12553(10)
O7 O 0.29348(16) 0.77332(11) 0.15121(12)
O8 O 0.86174(15) 0.81546(12) 0.17941(10)
O9 O 0.85547(16) 0.93898(15) 0.06564(12)
C1 C 0.00000 1.45712(19) 0.25000
C2 C 0.0095(2) 1.40183(14) 0.16556(13)
H2 H 0.01680 1.43890 0.10980
C3 C 0.0080(2) 1.29108(14) 0.16521(13)
C4 C 0.00000 1.2368(2) 0.25000
H3 H 0.00000 1.16270 0.25000
C5 C 0.00000 1.5765(2) 0.25000
C6 C 0.0111(2) 1.22776(14) 0.07453(13)
C7 C 0.5251(2) 1.10672(16) 0.12838(14)
C8 C 0.40338(19) 1.04598(16) 0.12884(13)
H4 H 0.31660 1.07940 0.12780
C9 C 0.41234(18) 0.93537(15) 0.13089(13)
C10 C 0.54373(19) 0.88459(15) 0.13419(13)
H5 H 0.55040 0.81070 0.13740
C11 C 0.66415(18) 0.94534(15) 0.13266(13)
C12 C 0.6538(2) 1.05654(17) 0.12869(14)
H6 H 0.73370 1.09700 0.12630
C13 C 0.5115(2) 1.22492(16) 0.12569(18)
C14 C 0.28355(19) 0.87159(15) 0.13465(13)
C15 C 0.80323(19) 0.89658(16) 0.12638(13)
K1 K 0.3234(2) 0.5588(2) 0.1608(2)
O10? O 0.3778(7) 0.5681(6) 0.1573(7)
O11 O 0.2414(2) 0.42401(16) -0.00362(16)
O12 O 0.3817(3) 0.49040(17) 0.3638(2)
O1C O -0.05327(17) 1.62228(10) 0.31069(11)
C3C C -0.0080(2) 1.29108(14) 0.33479(13)
C2C C -0.0095(2) 1.40183(14) 0.33444(13)
H2C H -0.01680 1.43890 0.39020
C6C C -0.0111(2) 1.22776(14) 0.42547(13)
O2C O -0.00566(16) 1.27673(11) 0.50544(9)
O3C O -0.0151(2) 1.12876(11) 0.41368(11)
O4B O -0.6297(2) 0.72526(14) -0.1225(2)
H1B H -0.62220 0.66150 -0.13250
O5B O -0.4009(2) 0.72958(14) -0.12692(18)
O6B O -0.16175(13) 1.08109(11) -0.12553(10)
O7B O -0.29348(16) 1.22668(11) -0.15121(12)
O8B O -0.86174(15) 1.18454(12) -0.17941(10)
O9B O -0.85547(16) 1.06102(15) -0.06564(12)
C7B C -0.5251(2) 0.89328(16) -0.12838(14)
C8B C -0.40338(19) 0.95402(16) -0.12884(13)
H4B H -0.31660 0.92060 -0.12780
C9B C -0.41234(18) 1.06463(15) -0.13089(13)
C10B C -0.54373(19) 1.11541(15) -0.13419(13)
H5B H -0.55040 1.18930 -0.13740
C11B C -0.66415(18) 1.05466(15) -0.13266(13)
C12B C -0.6538(2) 0.94346(17) -0.12869(14)
H6B H -0.73370 0.90300 -0.12630
C13B C -0.5115(2) 0.77508(16) -0.12569(18)
C14B C -0.28355(19) 1.12841(15) -0.13465(13)
C15B C -0.80323(19) 1.10342(16) -0.12638(13)
Co1C Co -0.06016(3) 1.778030(19) 0.346580(17)
O2B O -0.00566(16) 1.72327(11) 0.00544(9)
O6* O 0.16175(13) 1.91891(11) 0.12553(10)
O7* O 0.29348(16) 1.77332(11) 0.15121(12)
O8* O -0.13826(15) 1.81546(12) 0.17941(10)
O8C O 0.13826(15) 1.81546(12) 0.32059(10)
O3B O -0.0151(2) 0.87124(11) -0.08632(11)
O9* O -0.14453(16) 0.93898(15) 0.06564(12)
O9B* O 0.14453(16) 1.06102(15) -0.06564(12)
Co1B Co -0.06016(3) 1.221970(19) -0.153420(17)
Co1* Co 0.06016(3) 0.778030(19) 0.153420(17)
Co1** Co 1.06016(3) 0.778030(19) 0.153420(17)
Co1C* Co 0.93984(3) 0.778030(19) 0.346580(17)
Co2* Co 1.00000 1.00000 0.00000
Co1A Co 0.06016(3) 1.221970(19) 0.653420(17)
Co2A Co 0.00000 1.00000 0.50000
Co1A* Co -0.93984(3) 1.221970(19) -0.346580(17)
Co1B* Co -1.06016(3) 1.221970(19) -0.153420(17)
Co2** Co -1.00000 1.00000 0.00000
O2A O 0.00566(16) 1.72327(11) 0.49456(9)
O6C O -0.16175(13) 1.91891(11) 0.37447(10)
O7C O -0.29348(16) 1.77332(11) 0.34879(12)
#END
