
#######################################################################
#
#                 Cambridge Crystallographic Data Centre
#                                CCDC
#
#######################################################################
#
# If this CIF has been generated from an entry in the Cambridge
# Structural Database, then it will include bibliographic, chemical,
# crystal, experimental, refinement or atomic coordinate data resulting
# from the CCDC's data processing and validation procedures.
#
#######################################################################

data_CSD_CIF_CAFWAI
_audit_creation_date 2002-03-27
_audit_creation_method CSD-ConQuest-V1
_database_code_CSD CAFWAI
_database_code_depnum_ccdc_archive 'CCDC 166059'
_chemical_formula_sum 'C55 H106 N4 O28 U3'
_chemical_formula_moiety
;
(C10 H26 N2 2+)2n,n(C35 H50 O26 U3 4-),2n(H2 O1)
;
_journal_coden_Cambridge 580
_journal_volume 21
_journal_year 2002
_journal_page_first 81
_journal_name_full 'Polyhedron '
loop_
_publ_author_name
"Yingjie Zhang"
"D.Collison"
"F.R.Livens"
"M.Helliwell"
"F.Heatley"
"A.K.Powell"
"S.Wocadlo"
"H.Eccles"
_chemical_name_systematic
;
catena-[bis(N,N,N',N'-Tetraethylethylenediammonium) 
tetrakis(\m~2~-diethylmalonato)-(diethylmalonato)-hexa-oxo-tri-uranium(vi) 
dihydrate]
;
_cell_volume   7409.624
_exptl_crystal_colour 'yellow'
_exptl_crystal_density_diffrn 1.78
_exptl_crystal_description 'needle'
_diffrn_ambient_temperature 293
#These two values have been output from a single CSD field.
_refine_ls_R_factor_gt 0.0302
_refine_ls_wR_factor_gt 0.0302
_symmetry_cell_setting monoclinic
_symmetry_space_group_name_H-M 'P 21/n'
_symmetry_Int_Tables_number 14
loop_
_symmetry_equiv_pos_site_id
_symmetry_equiv_pos_as_xyz
1 x,y,z
2 1/2+x,1/2-y,1/2+z
3 -x,-y,-z
4 -1/2-x,-1/2+y,-1/2-z
_cell_length_a 22.325(5)
_cell_length_b 12.309(3)
_cell_length_c 27.316(6)
_cell_angle_alpha 90
_cell_angle_beta 99.21(3)
_cell_angle_gamma 90
_cell_formula_units_Z 4
loop_
_atom_type_symbol
_atom_type_radius_bond
C 0.68
H 0.23
N 0.68
O 0.68
U 1.48
loop_
_atom_site_label
_atom_site_type_symbol
_atom_site_fract_x
_atom_site_fract_y
_atom_site_fract_z
U1 U 0.042376(11) 0.01973(2) 0.233498(9)
U2 U 0.217831(12) -0.19965(2) 0.012811(10)
U3 U -0.160050(11) -0.22950(2) 0.406210(9)
O1 O 0.1122(2) -0.0234(4) 0.2660(2)
O2 O -0.0291(3) 0.0614(5) 0.2022(2)
O3 O 0.0404(3) 0.1510(4) 0.2944(2)
O4 O 0.0855(2) 0.1789(4) 0.2085(2)
O5 O 0.0230(3) 0.2976(4) 0.3342(2)
O6 O 0.1560(3) 0.3027(5) 0.2177(2)
O7 O -0.0079(2) -0.0670(4) 0.2978(2)
O8 O 0.0044(3) -0.1666(4) 0.2346(2)
O9 O -0.0747(3) -0.3105(4) 0.3716(2)
O10 O -0.1050(2) -0.1542(4) 0.3411(2)
O11 O 0.0690(3) -0.0457(4) 0.1608(2)
O12 O 0.0378(3) -0.0550(4) 0.0798(2)
O13 O 0.1323(3) -0.2775(4) 0.0480(2)
O14 O 0.1702(2) -0.1280(4) 0.0819(2)
O15 O 0.2709(3) -0.2705(5) 0.0562(2)
O16 O 0.1642(3) -0.1345(5) -0.0302(2)
O17 O 0.2594(3) -0.0341(4) 0.0355(2)
O18 O 0.2995(2) -0.1462(4) -0.0342(2)
O19 O 0.2780(3) 0.1401(5) 0.0393(3)
O20 O 0.3752(3) -0.0858(4) -0.0626(2)
O21 O 0.2541(2) -0.3224(4) -0.0537(2)
O22 O 0.3022(2) -0.4437(4) -0.1164(2)
O23 O 0.1789(2) -0.3828(4) -0.0210(2)
O24 O 0.2657(2) -0.6067(4) -0.1320(2)
O25 O -0.1091(2) -0.1707(5) 0.4531(2)
O26 O -0.2105(3) -0.2898(5) 0.3575(2)
O27 O 0.0934(10) -0.5126(9) 0.0278(8)
O28 O -0.0785(4) 0.4292(6) 0.3594(3)
C1 C 0.0459(3) 0.2515(6) 0.3017(2)
C2 C 0.0800(4) 0.3230(7) 0.2687(3)
C3 C 0.1112(3) 0.2620(6) 0.2299(3)
C4 C 0.1152(7) 0.4018(9) 0.2990(5)
H1 H 0.0907(7) 0.4404(9) 0.3197(5)
H2 H 0.1333(7) 0.4537(9) 0.2790(5)
C5 C 0.1654(5) 0.3298(11) 0.3314(4)
H3 H 0.1924(5) 0.3758(11) 0.3531(4)
H4 H 0.1879(5) 0.2906(11) 0.3100(4)
H5 H 0.1462(5) 0.2792(11) 0.3508(4)
C6 C 0.0244(5) 0.3961(9) 0.2335(5)
H6 H -0.0062(5) 0.3462(9) 0.2174(5)
H7 H 0.0052(5) 0.4423(9) 0.2552(5)
C7 C 0.0443(6) 0.4623(11) 0.1965(5)
H8 H 0.0103(6) 0.5003(11) 0.1783(5)
H9 H 0.0625(6) 0.4173(11) 0.1741(5)
H10 H 0.0737(6) 0.5138(11) 0.2120(5)
C8 C -0.0126(3) -0.1579(6) 0.2760(3)
C9 C -0.0350(4) -0.2574(5) 0.2990(3)
C10 C -0.0723(3) -0.2373(5) 0.3409(2)
C11 C -0.0751(5) -0.3283(7) 0.2596(3)
H11 H -0.0882(5) -0.3921(7) 0.2758(3)
H12 H -0.0506(5) -0.3529(7) 0.2355(3)
C12 C -0.1314(5) -0.2698(10) 0.2321(4)
H13 H -0.1536(5) -0.3182(10) 0.2083(4)
H14 H -0.1568(5) -0.2474(10) 0.2555(4)
H15 H -0.1190(5) -0.2071(10) 0.2154(4)
C13 C 0.0230(4) -0.3234(7) 0.3206(4)
H16 H 0.0442(4) -0.3435(7) 0.2936(4)
H17 H 0.0106(4) -0.3900(7) 0.3351(4)
C14 C 0.0661(5) -0.2640(9) 0.3589(4)
H18 H 0.1007(5) -0.3091(9) 0.3700(4)
H19 H 0.0792(5) -0.1984(9) 0.3448(4)
H20 H 0.0462(5) -0.2463(9) 0.3865(4)
C15 C 0.0627(3) -0.0950(6) 0.1183(3)
C16 C 0.0890(3) -0.2098(5) 0.1167(2)
C17 C 0.1332(4) -0.2055(6) 0.0813(3)
C18 C 0.0371(4) -0.2902(6) 0.1000(3)
H21 H 0.0204(4) -0.2755(6) 0.0656(3)
H22 H 0.0535(4) -0.3633(6) 0.1017(3)
C19 C -0.0155(4) -0.2850(7) 0.1317(4)
H23 H -0.0464(4) -0.3366(7) 0.1191(4)
H24 H -0.0326(4) -0.2133(7) 0.1298(4)
H25 H 0.0002(4) -0.3021(7) 0.1656(4)
C20 C 0.1266(4) -0.2423(7) 0.1695(3)
H26 H 0.1539(4) -0.1833(7) 0.1812(3)
H27 H 0.0986(4) -0.2510(7) 0.1929(3)
C21 C 0.1628(6) -0.3449(11) 0.1687(4)
H28 H 0.1848(6) -0.3587(11) 0.2013(4)
H29 H 0.1909(6) -0.3370(11) 0.1458(4)
H30 H 0.1360(6) -0.4045(11) 0.1586(4)
C22 C 0.2864(4) 0.0498(6) 0.0246(3)
C23 C 0.3322(4) 0.0415(6) -0.0138(3)
C24 C 0.3351(4) -0.0683(6) -0.0375(3)
C25 C 0.3159(4) 0.1236(7) -0.0527(4)
H31 H 0.3486(4) 0.1284(7) -0.0721(4)
H32 H 0.3130(4) 0.1936(7) -0.0369(4)
C26 C 0.2571(5) 0.1033(10) -0.0877(4)
H33 H 0.2509(5) 0.160(1) -0.1121(4)
H34 H 0.2240(5) 0.1025(10) -0.0693(4)
H35 H 0.2594(5) 0.0345(10) -0.1039(4)
C27 C 0.3953(4) 0.0681(7) 0.0162(4)
H36 H 0.4250(4) 0.0665(7) -0.0061(4)
H37 H 0.3944(4) 0.1415(7) 0.0291(4)
C28 C 0.4164(7) -0.010(1) 0.0601(5)
H38 H 0.4558(7) 0.0119(10) 0.0767(5)
H39 H 0.4186(7) -0.0827(10) 0.0478(5)
H40 H 0.3880(7) -0.0075(10) 0.0830(5)
C29 C 0.2175(3) -0.3982(6) -0.0489(3)
C30 C 0.2199(3) -0.5085(5) -0.0745(3)
C31 C 0.2655(3) -0.5194(5) -0.1085(3)
C32 C 0.1575(4) -0.5359(7) -0.1021(3)
H41 H 0.1584(4) -0.6083(7) -0.1159(3)
H42 H 0.1290(4) -0.5368(7) -0.0787(3)
C33 C 0.1365(5) -0.4626(9) -0.1405(5)
H43 H 0.0968(5) -0.4843(9) -0.1564(5)
H44 H 0.1638(5) -0.4626(9) -0.1643(5)
H45 H 0.1345(5) -0.3909(9) -0.1270(5)
C34 C 0.2369(4) -0.5945(6) -0.0301(3)
H46 H 0.2048(4) -0.5942(6) -0.0100(3)
H47 H 0.2383(4) -0.6665(6) -0.0443(3)
C35 C 0.2960(4) -0.5732(8) 0.0028(3)
H48 H 0.3030(4) -0.6284(8) 0.0279(3)
H49 H 0.2946(4) -0.5034(8) 0.0182(3)
H50 H 0.3282(4) -0.5742(8) -0.0166(3)
C36 C -0.0865(3) 0.1523(7) 0.3760(3)
H51 H -0.1070(3) 0.1060(7) 0.3968(3)
H52 H -0.1043(3) 0.2243(7) 0.3761(3)
C37 C -0.0971(3) 0.1099(7) 0.3254(3)
H53 H -0.0702(3) 0.1467(7) 0.3061(3)
H54 H -0.0871(3) 0.0332(7) 0.3261(3)
C38 C -0.1759(5) 0.2391(8) 0.2860(4)
H55 H -0.2195(5) 0.2457(8) 0.2764(4)
H56 H -0.1636(5) 0.2864(8) 0.3142(4)
C39 C -0.1455(7) 0.2747(11) 0.2439(4)
H57 H -0.1570(7) 0.3482(11) 0.2351(4)
H58 H -0.1577(7) 0.2281(11) 0.2159(4)
H59 H -0.1023(7) 0.2707(11) 0.2536(4)
C40 C -0.1729(4) 0.0400(8) 0.2598(3)
H60 H -0.1491(4) 0.0579(8) 0.2341(3)
H61 H -0.1592(4) -0.0303(8) 0.2733(3)
C41 C -0.2369(6) 0.0313(11) 0.2371(4)
H62 H -0.2413(6) -0.0243(11) 0.2121(4)
H63 H -0.2504(6) 0.0995(11) 0.2222(4)
H64 H -0.2609(6) 0.0130(11) 0.2621(4)
C42 C -0.0102(4) 0.2250(7) 0.4449(3)
H65 H -0.0300(4) 0.2948(7) 0.4383(3)
H66 H 0.0330(4) 0.2384(7) 0.4542(3)
C43 C -0.0331(4) 0.1734(8) 0.4875(2)
H67 H -0.0252(4) 0.2202(8) 0.5159(2)
H68 H -0.0130(4) 0.1051(8) 0.4950(2)
H69 H -0.0760(4) 0.1615(8) 0.4791(2)
C44 C 0.0092(4) 0.0494(7) 0.4019(3)
H70 H 0.0003(4) 0.0129(7) 0.3701(3)
H71 H -0.0076(4) 0.0061(7) 0.4261(3)
C45 C 0.0785(5) 0.058(1) 0.4174(4)
H72 H 0.0959(5) -0.0135(10) 0.4200(4)
H73 H 0.0874(5) 0.094(1) 0.4489(4)
H74 H 0.0953(5) 0.099(1) 0.3930(4)
C46 C 0.1651(3) 0.1452(6) 0.1069(3)
H75 H 0.1543(3) 0.0766(6) 0.1206(3)
H76 H 0.1847(3) 0.1297(6) 0.0785(3)
C47 C 0.1088(3) 0.2108(6) 0.0907(3)
H77 H 0.0924(3) 0.2346(6) 0.1197(3)
H78 H 0.1192(3) 0.2749(6) 0.0732(3)
C48 C 0.0870(5) 0.1117(8) 0.0100(3)
H79 H 0.1165(5) 0.0542(8) 0.0188(3)
H80 H 0.0535(5) 0.0812(8) -0.0129(3)
C49 C 0.1152(5) 0.1972(10) -0.0157(4)
H81 H 0.1289(5) 0.1672(10) -0.0444(4)
H82 H 0.1491(5) 0.227(1) 0.0062(4)
H83 H 0.0860(5) 0.2534(10) -0.0258(4)
C50 C 0.0043(4) 0.2084(8) 0.0450(4)
H84 H 0.0123(4) 0.2769(8) 0.0298(4)
H85 H -0.0222(4) 0.1663(8) 0.0204(4)
C51 C -0.0266(5) 0.2297(12) 0.0851(5)
H86 H -0.0633(5) 0.2687(12) 0.0734(5)
H87 H -0.0012(5) 0.2727(12) 0.1094(5)
H88 H -0.0362(5) 0.1624(12) 0.0997(5)
C52 C 0.2361(4) 0.3010(7) 0.1225(4)
H89 H 0.2650(4) 0.2728(7) 0.1027(4)
H90 H 0.2041(4) 0.3366(7) 0.1000(4)
C53 C 0.2669(5) 0.3831(10) 0.1557(4)
H91 H 0.2823(5) 0.439(1) 0.1366(4)
H92 H 0.2999(5) 0.3502(10) 0.1775(4)
H93 H 0.2387(5) 0.4141(10) 0.1749(4)
C54 C 0.2558(4) 0.1302(8) 0.1688(3)
H94 H 0.2901(4) 0.1712(8) 0.1857(3)
H95 H 0.2697(4) 0.0869(8) 0.1432(3)
C55 C 0.2315(5) 0.0519(9) 0.2074(4)
H96 H 0.2636(5) 0.0044(9) 0.2219(4)
H97 H 0.1984(5) 0.0095(9) 0.1906(4)
H98 H 0.2180(5) 0.0944(9) 0.2329(4)
N1 N -0.0201(3) 0.1591(5) 0.3981(2)
H99 H -0.0021(3) 0.1969(5) 0.3758(2)
N2 N -0.1606(3) 0.1245(5) 0.3007(2)
H100 H -0.1844(3) 0.1065(5) 0.3236(2)
N3 N 0.2087(3) 0.2063(5) 0.1456(2)
H101 H 0.1879(3) 0.2316(5) 0.1693(2)
N4 N 0.0625(3) 0.1488(5) 0.0583(2)
H102 H 0.0547(3) 0.0878(5) 0.0751(2)
O18A O -0.2005(2) -0.3538(4) 0.4658(2)
O20A O -0.1248(3) -0.4142(4) 0.4374(2)
O21A O -0.2459(2) -0.1776(4) 0.4463(2)
O22A O -0.1978(2) -0.0563(4) 0.3836(2)
U3A U 0.339950(11) -0.27050(2) -0.093790(9)
#END
