
#######################################################################
#
#                 Cambridge Crystallographic Data Centre
#                                CCDC
#
#######################################################################
#
# If this CIF has been generated from an entry in the Cambridge
# Structural Database, then it will include bibliographic, chemical,
# crystal, experimental, refinement or atomic coordinate data resulting
# from the CCDC's data processing and validation procedures.
#
#######################################################################

data_CSD_CIF_CAGRUA
_audit_creation_date 2017-01-04
_audit_creation_method CSD-ConQuest-V1
_database_code_CSD CAGRUA
_database_code_depnum_ccdc_archive 'CCDC 1056879'
_chemical_formula_sum 'C68 H64 Co2 N8 O20'
_chemical_formula_moiety
;
(C68 H44 Co2 N4 O18 4-)n,4n(H4 N1 1+),2n(H2 O1)
;
_journal_coden_Cambridge 1500
_journal_volume 7
_journal_year 2017
_journal_page_first 975
_journal_name_full 'RSC Advances '
loop_
_publ_author_name
"Ling Li"
"Lei Lv"
"Ru-Dan Huang"
_chemical_name_systematic
;
catena-[tetrakis(ammonium) 
bis(\m-4,4'-ethene-1,2-diyldipyridine)-bis(\m-(1^1^,2^1^:2^4^,3^1^-terphenyl)-
1^3^,1^5^,3^3^,3^5^-tetracarboxylato)-diaqua-di-cobalt dihydrate]
;
_cell_volume   1599.973
_exptl_crystal_density_diffrn 1.485
_diffrn_ambient_temperature 298
_refine_special_details
;
N3 and N3' disordered over two sites with occupancies 0.64:0.36; N4 and N4' 
disordered over two sites with occupancies 0.56:0.44; O10 and O10' disordered 
over two sites with occupancies 0.70:0.30.
;
#These two values have been output from a single CSD field.
_refine_ls_R_factor_gt 0.1471
_refine_ls_wR_factor_gt 0.1471
_symmetry_cell_setting triclinic
_symmetry_space_group_name_H-M 'P -1'
_symmetry_Int_Tables_number 2
loop_
_symmetry_equiv_pos_site_id
_symmetry_equiv_pos_as_xyz
1 x,y,z
2 -x,-y,-z
_cell_length_a 10.7230(9)
_cell_length_b 11.8829(11)
_cell_length_c 13.6481(12)
_cell_angle_alpha 88.316(2)
_cell_angle_beta 70.259(1)
_cell_angle_gamma 78.075(2)
_cell_formula_units_Z 1
loop_
_atom_type_symbol
_atom_type_radius_bond
C 0.68
H 0.23
Co 1.26
N 0.68
O 0.68
loop_
_atom_site_label
_atom_site_type_symbol
_atom_site_fract_x
_atom_site_fract_y
_atom_site_fract_z
Co1 Co -0.07801(17) 0.81544(15) 0.58571(13)
N1 N -0.0461(11) 0.7074(12) 0.7075(9)
N2 N -0.2251(11) 0.7264(9) 0.5716(8)
O1 O 0.0853(9) 0.7064(8) 0.4731(7)
O2 O 0.1400(9) 0.8447(8) 0.5387(7)
O3 O 0.6329(13) 0.8850(13) 0.3827(11)
O4 O 0.7744(13) 0.7724(12) 0.2504(10)
O5 O 0.1923(13) 0.0776(12) -0.0010(12)
O6 O 0.3048(13) -0.0382(12) -0.1435(12)
O7 O 0.7904(9) -0.0594(9) -0.3141(7)
O8 O 0.8937(10) 0.0716(9) -0.2768(7)
O9 O -0.1083(10) 0.9195(8) 0.4584(7)
H1 H -0.13200 0.99180 0.47120
H2 H -0.04060 0.90680 0.40220
C1 C 0.4917(14) 0.5023(12) 0.1768(10)
C2 C 0.3857(14) 0.4857(12) 0.1425(10)
H3 H 0.30340 0.53840 0.16460
C3 C 0.4011(13) 0.3947(11) 0.0781(10)
H4 H 0.32840 0.38760 0.05790
C4 C 0.5208(13) 0.3118(12) 0.0411(10)
C5 C 0.6290(14) 0.3284(12) 0.0726(10)
H5 H 0.71150 0.27610 0.04900
C6 C 0.6147(13) 0.4203(12) 0.1372(10)
H6 H 0.68840 0.42880 0.15550
C7 C 0.1737(14) 0.7641(12) 0.4738(10)
C8 C 0.6596(18) 0.8021(15) 0.3153(13)
C9 C 0.3151(13) 0.7278(11) 0.3956(9)
C10 C 0.4166(14) 0.7828(12) 0.3938(10)
H7 H 0.39820 0.84430 0.44070
C11 C 0.5472(14) 0.7470(11) 0.3222(10)
C12 C 0.5692(14) 0.6550(12) 0.2512(10)
H8 H 0.65540 0.63140 0.20240
C13 C 0.4704(13) 0.5988(12) 0.2504(10)
C14 C 0.3411(13) 0.6375(11) 0.3258(10)
H9 H 0.27140 0.60100 0.32840
C15 C 0.2961(19) 0.0381(16) -0.0743(15)
C16 C 0.7916(15) 0.0292(13) -0.2621(11)
C17 C 0.4234(14) 0.0812(12) -0.0864(11)
C18 C 0.4200(15) 0.1660(12) -0.0200(11)
H10 H 0.33920 0.19310 0.03410
C19 C 0.5323(14) 0.2151(12) -0.0287(10)
C20 C 0.6531(13) 0.1686(12) -0.1088(10)
H11 H 0.72990 0.19810 -0.11760
C21 C 0.6606(14) 0.0780(12) -0.1763(10)
C22 C 0.5456(14) 0.0360(12) -0.1663(11)
H12 H 0.54950 -0.02190 -0.21230
C23 C -0.0367(16) 0.7512(17) 0.7919(14)
H13 H -0.04320 0.83030 0.79670
C24 C -0.0166(16) 0.6826(18) 0.8786(13)
H14 H -0.00930 0.71670 0.93640
C25 C -0.0090(15) 0.5661(17) 0.8711(14)
C26 C -0.0195(16) 0.5217(16) 0.7837(14)
H15 H -0.01580 0.44330 0.77670
C27 C -0.0359(15) 0.5948(16) 0.7049(12)
H16 H -0.04010 0.56130 0.64560
C28 C 0.0039(18) 0.489(2) 0.9565(11)
H17 H 0.02080 0.41100 0.93930
C29 C -0.3546(15) 0.7491(13) 0.6319(11)
H18 H -0.38380 0.80630 0.68450
C30 C -0.4475(14) 0.6908(12) 0.6191(10)
H19 H -0.53690 0.71000 0.66370
C31 C -0.4136(15) 0.6071(12) 0.5445(11)
C32 C -0.2751(15) 0.5817(13) 0.4802(11)
H20 H -0.24370 0.52420 0.42770
C33 C -0.1878(15) 0.6431(13) 0.4966(11)
H21 H -0.09770 0.62600 0.45330
C34 C -0.5142(15) 0.5449(11) 0.5338(10)
H22 H -0.60380 0.56930 0.57690
N3 N 0.030(3) 0.992(3) 0.881(2)
H23 H -0.04520 0.96980 0.92150
H24 H 0.00930 1.06830 0.87260
H25 H 0.06280 0.95380 0.81860
H26 H 0.09460 0.97650 0.91100
N4? N 0.154(8) 0.916(4) 0.746(5)
H27? H 0.19130 0.94110 0.78880
H28? H 0.07830 0.96790 0.74900
H29? H 0.13570 0.84650 0.76280
H30? H 0.21320 0.90710 0.67980
N5 N 0.252(5) 0.926(2) 0.683(3)
H31 H 0.21730 0.90440 0.63610
H32 H 0.28690 0.98810 0.65930
H33 H 0.31610 0.86820 0.69040
H34 H 0.18610 0.94290 0.74520
N6? N 0.054(4) 0.900(4) 0.965(3)
H35? H -0.03650 0.91890 0.98230
H36? H 0.08370 0.96080 0.97930
H37? H 0.09330 0.87790 0.89700
H38? H 0.07820 0.83890 1.00040
O10 O 0.977(5) 0.197(9) 0.855(9)
H39 H 1.05570 0.20800 0.82110
H40 H 0.95110 0.16040 0.81600
O11? O 0.942(10) 0.28(2) 0.77(2)
H41? H 1.02600 0.26710 0.75810
H42? H 0.92550 0.21620 0.74930
N1A N 0.0461(11) 0.2926(12) 1.2925(9)
C23A C 0.0367(16) 0.2488(17) 1.2081(14)
H13A H 0.04320 0.16970 1.20330
C24A C 0.0166(16) 0.3174(18) 1.1214(13)
H14A H 0.00930 0.28330 1.06360
C25A C 0.0090(15) 0.4339(17) 1.1289(14)
C26A C 0.0195(16) 0.4783(16) 1.2163(14)
H15A H 0.01580 0.55670 1.22330
C27A C 0.0359(15) 0.4052(16) 1.2951(12)
H16A H 0.04010 0.43870 1.35440
C28A C -0.0039(18) 0.511(2) 1.0435(11)
H17A H -0.02080 0.58900 1.06070
N2A N -0.7749(11) 0.2736(9) 0.4284(8)
C29A C -0.6454(15) 0.2509(13) 0.3681(11)
H18A H -0.61620 0.19370 0.31550
C30A C -0.5525(14) 0.3092(12) 0.3809(10)
H19A H -0.46310 0.29000 0.33630
C31A C -0.5864(15) 0.3929(12) 0.4555(11)
C32A C -0.7249(15) 0.4183(13) 0.5198(11)
H20A H -0.75630 0.47580 0.57230
C33A C -0.8122(15) 0.3569(13) 0.5034(11)
H21A H -0.90230 0.37400 0.54670
C34A C -0.4858(15) 0.4551(11) 0.4662(10)
H22A H -0.39620 0.43070 0.42310
Co1A Co -0.92199(17) 0.18456(15) 0.41429(13)
O1A O -1.0853(9) 0.2936(8) 0.5269(7)
O2A O -1.1400(9) 0.1553(8) 0.4613(7)
O3A O -1.6329(13) 0.1150(13) 0.6173(11)
O4A O -1.7744(13) 0.2276(12) 0.7496(10)
O5A O -1.1923(13) 0.9224(12) 1.0010(12)
O6A O -1.3048(13) 1.0382(12) 1.1435(12)
O7A O -1.7904(9) 1.0594(9) 1.3141(7)
O8A O -1.8937(10) 0.9284(9) 1.2768(7)
O9A O -0.8917(10) 0.0805(8) 0.5416(7)
H1A H -0.86800 0.00820 0.52880
H2A H -0.95940 0.09320 0.59780
C1A C -1.4917(14) 0.4977(12) 0.8232(10)
C2A C -1.3857(14) 0.5143(12) 0.8575(10)
H3A H -1.30340 0.46160 0.83540
C3A C -1.4011(13) 0.6053(11) 0.9219(10)
H4A H -1.32840 0.61240 0.94210
C4A C -1.5208(13) 0.6882(12) 0.9589(10)
C5A C -1.6290(14) 0.6716(12) 0.9274(10)
H5A H -1.71150 0.72390 0.95100
C6A C -1.6147(13) 0.5797(12) 0.8628(10)
H6A H -1.68840 0.57120 0.84450
C7A C -1.1737(14) 0.2359(12) 0.5262(10)
C8A C -1.6596(18) 0.1979(15) 0.6847(13)
C9A C -1.3151(13) 0.2722(11) 0.6044(9)
C10A C -1.4166(14) 0.2172(12) 0.6062(10)
H7A H -1.39820 0.15570 0.55930
C11A C -1.5472(14) 0.2530(11) 0.6778(10)
C12A C -1.5692(14) 0.3450(12) 0.7488(10)
H8A H -1.65540 0.36860 0.79760
C13A C -1.4704(13) 0.4012(12) 0.7496(10)
C14A C -1.3411(13) 0.3625(11) 0.6742(10)
H9A H -1.27140 0.39900 0.67160
C15A C -1.2961(19) 0.9619(16) 1.0743(15)
C16A C -1.7916(15) 0.9708(13) 1.2621(11)
C17A C -1.4234(14) 0.9188(12) 1.0864(11)
C18A C -1.4200(15) 0.8340(12) 1.0200(11)
H10A H -1.33920 0.80690 0.96590
C19A C -1.5323(14) 0.7849(12) 1.0287(10)
C20A C -1.6531(13) 0.8314(12) 1.1088(10)
H11A H -1.72990 0.80190 1.11760
C21A C -1.6606(14) 0.9220(12) 1.1763(10)
C22A C -1.5456(14) 0.9640(12) 1.1663(11)
H12A H -1.54950 1.02190 1.21230
Co1* Co 0.92199(17) -0.18456(15) -0.41429(13)
Co1A* Co -1.92199(17) 1.18456(15) 1.41429(13)
Co1A** Co 0.07801(17) 0.18456(15) 1.41429(13)
N1A* N -0.9539(11) 0.2926(12) 0.2925(9)
O7* O -0.2096(9) 0.9406(9) 0.6859(7)
O7A* O -0.7904(9) 0.0594(9) 0.3141(7)
#END
