
#######################################################################
#
#                 Cambridge Crystallographic Data Centre
#                                CCDC
#
#######################################################################
#
# If this CIF has been generated from an entry in the Cambridge
# Structural Database, then it will include bibliographic, chemical,
# crystal, experimental, refinement or atomic coordinate data resulting
# from the CCDC's data processing and validation procedures.
#
#######################################################################

data_CSD_CIF_CAHMAZ
_audit_creation_date 1984-04-14
_audit_creation_method CSD-ConQuest-V1
_database_code_CSD CAHMAZ
_database_code_depnum_ccdc_archive 'CCDC 1119372'
_chemical_formula_sum 'C9 H18 Bi2 Cl3 N9 O12'
_chemical_formula_moiety
;
(C6 Bi2 Cl3 O12 3-)n,3n(C1 H6 N3 1+)
;
_journal_coden_Cambridge 367
_journal_volume 9
_journal_year 1983
_journal_page_first 711
_journal_name_full 'Koord.Khim.(Russ.)(Coord.Chem.) '
loop_
_publ_author_name
"A.A.Udovenko"
"L.M.Volkova"
"S.S.Sergienko"
"R.L.Davidovich"
"V.Ya.Shevchenko"
_chemical_name_systematic
;
catena(tris(Guanidinium) trichloro-tris(oxalato-O,O')-di-bismuth(iii))
;
_cell_volume   1146.220
_exptl_crystal_colour 'colorless'
_exptl_crystal_density_diffrn 2.81
_diffrn_ambient_temperature ?
_diffrn_special_details
;
The study was carried out at room temperature,in the range 283-303K

;
#These two values have been output from a single CSD field.
_refine_ls_R_factor_gt 0.052
_refine_ls_wR_factor_gt 0.052
_symmetry_cell_setting hexagonal
_symmetry_space_group_name_H-M 'P 63/m'
_symmetry_Int_Tables_number 176
loop_
_symmetry_equiv_pos_site_id
_symmetry_equiv_pos_as_xyz
1 x,y,z
2 -y,x-y,z
3 -x+y,-x,z
4 -x,-y,1/2+z
5 y,-x+y,1/2+z
6 x-y,x,1/2+z
7 -x,-y,-z
8 y,-x+y,-z
9 x-y,x,-z
10 x,y,-1/2-z
11 -y,x-y,-1/2-z
12 -x+y,-x,-1/2-z
_cell_length_a 9.482(2)
_cell_length_b 9.482(2)
_cell_length_c 14.721(3)
_cell_angle_alpha 90
_cell_angle_beta 90
_cell_angle_gamma 120
_cell_formula_units_Z 2
loop_
_atom_type_symbol
_atom_type_radius_bond
C 0.68
Bi 1.60
Cl 0.99
N 0.68
O 0.68
loop_
_atom_site_label
_atom_site_type_symbol
_atom_site_fract_x
_atom_site_fract_y
_atom_site_fract_z
Bi1 Bi 0.66700 0.33300 0.39409
Cl1 Cl 0.42800 0.13400 0.25000
O1 O 0.42000 0.37600 0.40300
O2 O 0.69500 0.52000 0.51000
C1 C 0.42200 0.45500 0.46900
N1 N 0.16200 0.10500 0.61400
C2 C 0.00000 0.00000 0.61600
N2 N 0.73000 0.50100 0.75000
C3 C 0.66700 0.33300 0.75000
Cl1A Cl 0.86600 0.29400 0.25000
Cl1B Cl 0.70600 0.57200 0.25000
O1A O 0.62400 0.04400 0.40300
O1B O 0.95600 0.58000 0.40300
O2A O 0.48000 0.17500 0.51000
O2B O 0.82500 0.30500 0.51000
Bi1I Bi 0.66700 0.33300 0.10591
C1F C 0.57800 0.54500 0.53100
O2F O 0.30500 0.48000 0.49000
C1A C 0.54500 -0.03300 0.46900
C1B C 1.03300 0.57800 0.46900
C1G C 0.45500 0.03300 0.53100
C1H C 0.96700 0.42200 0.53100
O1F O 0.58000 0.62400 0.59700
Bi1F Bi 0.33300 0.66700 0.60591
O2G O 0.52000 -0.17500 0.49000
O2H O 1.17500 0.69500 0.49000
O1G O 0.37600 -0.04400 0.59700
O1H O 1.04400 0.42000 0.59700
Bi1F* Bi 0.33300 -0.33300 0.60591
Bi1F** Bi 1.33300 0.66700 0.60591
O1I O 0.42000 0.37600 0.09700
O1J O 0.62400 0.04400 0.09700
O1K O 0.95600 0.58000 0.09700
O2I O 0.69500 0.52000 -0.01000
O2J O 0.48000 0.17500 -0.01000
O2K O 0.82500 0.30500 -0.01000
N1B N -0.05700 -0.16200 0.61400
N1A N -0.10500 0.05700 0.61400
N2B N 0.77100 0.27000 0.75000
N2A N 0.49900 0.22900 0.75000
#END
