
#######################################################################
#
#                 Cambridge Crystallographic Data Centre
#                                CCDC
#
#######################################################################
#
# If this CIF has been generated from an entry in the Cambridge
# Structural Database, then it will include bibliographic, chemical,
# crystal, experimental, refinement or atomic coordinate data resulting
# from the CCDC's data processing and validation procedures.
#
#######################################################################

data_CSD_CIF_CAHMON
_audit_creation_date 1984-04-14
_audit_creation_method CSD-ConQuest-V1
_database_code_CSD CAHMON
_database_code_depnum_ccdc_archive 'CCDC 1119376'
_chemical_formula_sum 'C3 H7 Cd1 N1 O6'
_chemical_formula_moiety
;
(C3 H3 Cd1 O6 1-)n,n(H4 N1 1+)
;
_journal_coden_Cambridge 367
_journal_volume 9
_journal_year 1983
_journal_page_first 855
_journal_name_full 'Koord.Khim.(Russ.)(Coord.Chem.) '
loop_
_publ_author_name
"A.S.Antsyshkina"
"M.A.Porai-Koshits"
"V.N.Ostrikova"
"G.G.Sadikov"
_chemical_name_systematic
;
catena-[Ammonium tris(\m~2~-formato)-cadmium(ii)]
;
_cell_volume    724.819
_diffrn_ambient_temperature ?
_diffrn_special_details
;
The study was carried out at room temperature,in the range 283-303K

;
#These two values have been output from a single CSD field.
_refine_ls_R_factor_gt 0.042
_refine_ls_wR_factor_gt 0.042
_symmetry_cell_setting orthorhombic
_symmetry_space_group_name_H-M 'P n a 21'
_symmetry_Int_Tables_number 33
loop_
_symmetry_equiv_pos_site_id
_symmetry_equiv_pos_as_xyz
1 x,y,z
2 1/2-x,1/2+y,1/2+z
3 1/2+x,1/2-y,z
4 -x,-y,1/2+z
_cell_length_a 7.0063(6)
_cell_length_b 9.5232(9)
_cell_length_c 10.8632(11)
_cell_angle_alpha 90
_cell_angle_beta 90
_cell_angle_gamma 90
_cell_formula_units_Z 4
loop_
_atom_type_symbol
_atom_type_radius_bond
C 0.68
Cd 1.69
N 0.68
O 0.68
loop_
_atom_site_label
_atom_site_type_symbol
_atom_site_fract_x
_atom_site_fract_y
_atom_site_fract_z
Cd1 Cd 0.10246 -0.00431 0.00000
O1 O -0.07260 -0.21140 -0.00340
O2 O -0.14640 -0.40170 0.10730
O3 O 0.26350 -0.04470 -0.17740
O4 O 0.01540 -0.03990 -0.30500
O5 O -0.16720 0.09550 -0.07680
O6 O -0.23180 0.29550 0.02210
C1 C -0.05350 -0.29220 0.08810
C2 C 0.18850 -0.03230 -0.28150
C3 C -0.25930 0.20630 -0.06130
N1 N -0.15270 0.36970 0.29100
O2B O 0.35360 -0.09830 0.10730
O4C O -0.01540 0.03990 0.19500
O6B O 0.26820 0.20450 0.02210
Cd1B Cd -0.39754 -0.49569 0.00000
Cd1C Cd -0.10246 0.00431 -0.50000
Cd1B* Cd -0.39754 0.50431 0.00000
#END
