
#######################################################################
#
#                 Cambridge Crystallographic Data Centre
#                                CCDC
#
#######################################################################
#
# If this CIF has been generated from an entry in the Cambridge
# Structural Database, then it will include bibliographic, chemical,
# crystal, experimental, refinement or atomic coordinate data resulting
# from the CCDC's data processing and validation procedures.
#
#######################################################################

data_CSD_CIF_CAHMON02
_audit_creation_date 2015-03-19
_audit_creation_method CSD-ConQuest-V1
_database_code_CSD CAHMON02
_database_code_depnum_ccdc_archive 'CCDC 1055052'
_chemical_formula_sum 'C3 H7 Cd1 N1 O6'
_chemical_formula_moiety
;
(C3 H3 Cd1 O6 1-)n,n(H4 N1 1+)
;
_journal_coden_Cambridge 9
_journal_volume 54
_journal_year 2015
_journal_page_first 2109
_journal_name_full 'Inorg.Chem. '
loop_
_publ_author_name
"L.C.Gomez-Aguirre"
"B.Pato-Doldan"
"A.Stroppa"
"S.Yanez-Vilar"
"L.Bayarjargal"
"B.Winkler"
"S.Castro-Garcia"
"J.Mira"
"M.Sanchez-Andujar"
"M.A.Senaris-Rodriguez"
_chemical_name_systematic
;
catena-(Ammonium tris(\m~2~-formato)-cadmium)
;
_cell_volume    718.580
_exptl_crystal_colour 'colorless'
_exptl_crystal_density_diffrn 2.454
_exptl_crystal_description 'prism'
_diffrn_ambient_temperature 293
#These two values have been output from a single CSD field.
_refine_ls_R_factor_gt 0.0166
_refine_ls_wR_factor_gt 0.0166
_symmetry_cell_setting orthorhombic
_symmetry_space_group_name_H-M 'P n a 21'
_symmetry_Int_Tables_number 33
loop_
_symmetry_equiv_pos_site_id
_symmetry_equiv_pos_as_xyz
1 x,y,z
2 -x,-y,1/2+z
3 1/2-x,1/2+y,1/2+z
4 1/2+x,1/2-y,z
_cell_length_a 6.9888(2)
_cell_length_b 9.4902(2)
_cell_length_c 10.8342(3)
_cell_angle_alpha 90
_cell_angle_beta 90
_cell_angle_gamma 90
_cell_formula_units_Z 4
loop_
_atom_type_symbol
_atom_type_radius_bond
C 0.68
H 0.23
Cd 1.44
N 0.68
O 0.68
loop_
_atom_site_label
_atom_site_type_symbol
_atom_site_fract_x
_atom_site_fract_y
_atom_site_fract_z
O1 O 0.07117(18) 1.71123(11) 0.02766(17)
O2 O -0.2666(2) 1.29580(12) 0.05141(15)
O3 O -0.2642(2) 1.5428(2) -0.14766(14)
O4 O 0.1460(2) 1.90175(14) 0.13739(14)
O5 O -0.0153(2) 1.5360(2) -0.27338(15)
C1 C -0.1880(3) 1.5309(2) -0.25186(17)
O6 O -0.3325(2) 1.09576(14) -0.04698(15)
C2 C -0.2410(3) 1.2059(2) -0.03033(19)
C3 C 0.0536(3) 1.79266(18) 0.11727(19)
H1 H -0.037(4) 1.764(3) 0.177(2)
H2 H -0.151(4) 1.226(3) -0.089(3)
H3 H -0.277(5) 1.514(3) -0.323(3)
Cd1 Cd -0.102457(14) 1.504116(9) 0.03150(6)
N1 N 0.1519(3) 2.12982(19) 0.32183(18)
H4 H 0.218(4) 2.054(4) 0.335(3)
H5 H 0.192(4) 2.188(3) 0.376(3)
H6 H 0.052(5) 2.103(4) 0.336(4)
H7 H 0.150(5) 2.174(4) 0.245(4)
O4C O -0.3540(2) 1.59825(14) 0.13739(14)
O5A O 0.0153(2) 1.4640(2) 0.22662(15)
O6C O 0.1675(2) 1.40424(14) -0.04698(15)
Cd1A Cd 0.102457(14) 1.495884(9) -0.46850(6)
Cd1C Cd -0.602457(14) 0.995884(9) 0.03150(6)
Cd1C* Cd 0.397543(14) 1.995884(9) 0.03150(6)
#END
