
#######################################################################
#
#                 Cambridge Crystallographic Data Centre
#                                CCDC
#
#######################################################################
#
# If this CIF has been generated from an entry in the Cambridge
# Structural Database, then it will include bibliographic, chemical,
# crystal, experimental, refinement or atomic coordinate data resulting
# from the CCDC's data processing and validation procedures.
#
#######################################################################

data_CSD_CIF_CAHNOQ
_audit_creation_date 2012-01-16
_audit_creation_method CSD-ConQuest-V1
_database_code_CSD CAHNOQ
_database_code_depnum_ccdc_archive 'CCDC 830393'
_chemical_formula_sum 'C14 H10 Co2 K2 O14'
_chemical_formula_moiety
;
(C12 H2 Co2 O12 2-)n,2n(K1 1+),2n(C1 H4 O1)
;
_journal_coden_Cambridge 155
_journal_volume 379
_journal_year 2011
_journal_page_first 44
_journal_name_full 'Inorg.Chim.Acta '
loop_
_publ_author_name
"Jing Jin"
"Dan Li"
"Lei Li"
"Xiao Han"
"Shengmei Cong"
"Yuxian Chi"
"Shuyun Niu"
_chemical_name_systematic
;
catena-(dipotassium 
(\m~8~-benzene-1,2,4,5-tetracarboxylato)-(\m~2~-oxalato)-di-cobalt(ii) 
methanol solvate)
;
_cell_volume    807.957
_exptl_crystal_colour 'pink'
_exptl_crystal_density_diffrn 2.459
_exptl_crystal_description 'block'
_diffrn_ambient_temperature 293
#These two values have been output from a single CSD field.
_refine_ls_R_factor_gt 0.074
_refine_ls_wR_factor_gt 0.074
_symmetry_cell_setting monoclinic
_symmetry_space_group_name_H-M 'P 21/n'
_symmetry_Int_Tables_number 14
loop_
_symmetry_equiv_pos_site_id
_symmetry_equiv_pos_as_xyz
1 x,y,z
2 1/2-x,1/2+y,1/2-z
3 -x,-y,-z
4 -1/2+x,-1/2-y,-1/2+z
_cell_length_a 7.162(10)
_cell_length_b 14.312(19)
_cell_length_c 8.066(11)
_cell_angle_alpha 90
_cell_angle_beta 102.251(18)
_cell_angle_gamma 90
_cell_formula_units_Z 2
loop_
_atom_type_symbol
_atom_type_radius_bond
C 0.68
H 0.23
Co 1.26
K 0.68
O 0.68
loop_
_atom_site_label
_atom_site_type_symbol
_atom_site_fract_x
_atom_site_fract_y
_atom_site_fract_z
Co1 Co 1.00970(12) 0.29607(6) 0.50121(10)
K1 K 0.6328(3) 0.11409(12) 0.5297(2)
O1 O 0.6993(6) 0.2784(3) 0.4166(6)
C1 C 0.5662(8) 0.3277(4) 0.3324(8)
C2 C 0.4452(8) 0.3243(4) 0.6642(8)
C3 C 0.5356(9) 0.5015(4) 0.3370(8)
H1 H 0.56010 0.50250 0.22830
C4 C 0.5192(8) 0.4156(4) 0.4157(7)
C5 C 0.4840(8) 0.4144(4) 0.5816(7)
O2 O 0.5371(7) 0.3085(3) 0.8119(6)
O3 O 0.3217(6) 0.2715(3) 0.5773(6)
O4 O 1.0134(7) 0.4214(3) 0.6682(6)
C6 C 1.0006(9) 0.4998(4) 0.5939(8)
O5 O 0.9963(7) 0.5786(3) 0.6646(6)
O6 O 0.4720(7) 0.3097(3) 0.1853(6)
O7 O 0.3665(15) 0.1096(6) 0.4711(10)
H2 H 0.31140 0.15710 0.39840
C7 C 0.2549(9) 0.0574(5) 0.5096(9)
H3 H 0.12780 0.07600 0.45540
H4 H 0.26750 0.05840 0.63040
H5 H 0.27890 -0.00470 0.47400
Co1B Co -0.00970(12) 0.70393(6) 0.49879(10)
Co1C Co 0.50970(12) 0.20393(6) 1.00121(10)
Co1* Co 0.00970(12) 0.29607(6) 0.50121(10)
Co1B* Co 0.99030(12) 0.70393(6) 0.49879(10)
Co1C* Co 0.50970(12) 0.20393(6) 0.00121(10)
Co1A Co 0.49030(12) 0.79607(6) -0.00121(10)
Co1A* Co 0.49030(12) 0.79607(6) 0.99879(10)
O1B O 0.3007(6) 0.7216(3) 0.5834(6)
C1B C 0.4338(8) 0.6723(4) 0.6676(8)
C2B C 0.5548(8) 0.6757(4) 0.3358(8)
C3B C 0.4644(9) 0.4985(4) 0.6630(8)
H1B H 0.43990 0.49750 0.77170
C4B C 0.4808(8) 0.5844(4) 0.5843(7)
C5B C 0.5160(8) 0.5856(4) 0.4184(7)
O2B O 0.4629(7) 0.6915(3) 0.1881(6)
O2C O 1.0371(7) 0.1915(3) 0.3119(6)
O2A O -0.0371(7) 0.8085(3) 0.6881(6)
O3B O 0.6783(6) 0.7285(3) 0.4227(6)
O3* O 1.3217(6) 0.2715(3) 0.5773(6)
O3B* O -0.3217(6) 0.7285(3) 0.4227(6)
O4B O 0.9866(7) 0.5786(3) 0.3318(6)
O4B* O -0.0134(7) 0.5786(3) 0.3318(6)
C6B C 0.9994(9) 0.5002(4) 0.4061(8)
O5B O 1.0037(7) 0.4214(3) 0.3354(6)
O5* O -0.0037(7) 0.5786(3) 0.6646(6)
O6B O 0.5280(7) 0.6903(3) 0.8147(6)
O6C O 0.9720(7) 0.1903(3) 0.6853(6)
O6A O 0.0280(7) 0.8097(3) 0.3147(6)
#END
