
#######################################################################
#
#                 Cambridge Crystallographic Data Centre
#                                CCDC
#
#######################################################################
#
# If this CIF has been generated from an entry in the Cambridge
# Structural Database, then it will include bibliographic, chemical,
# crystal, experimental, refinement or atomic coordinate data resulting
# from the CCDC's data processing and validation procedures.
#
#######################################################################

data_CSD_CIF_CAJHUS10
_audit_creation_date 2019-12-20
_audit_creation_method CSD-ConQuest-V1
_database_code_CSD CAJHUS10
_database_code_depnum_ccdc_archive 'CCDC 1861346'
_chemical_formula_sum 'C6 H14 Fe2 N2 O12'
_chemical_formula_moiety
;
(C6 H6 Fe2 O12 2-)n,2(H4 N1 1+)
;
_journal_coden_Cambridge 1326
_journal_volume 20
_journal_year 2018
_journal_page_first 24465
_journal_name_full 'Phys.Chem.Chem.Phys.(PCCP) '
loop_
_publ_author_name
"I.E.Collings"
"R.S.Manna"
"A.A.Tsirlin"
"M.Bykov"
"E.Bykova"
"M.Hanfland"
"P.Gegenwart"
"S.v.Smaalen"
"L.Dubrovinsky"
"N.Dubrovinskaia"
_chemical_name_systematic
;
catena-[bis(ammonium) hexakis(\m~2~-formato)-di-iron]
;
_cell_volume    635.523
_exptl_crystal_colour 'colorless'
_exptl_crystal_density_diffrn 2.184
_exptl_crystal_description 'block'
_diffrn_ambient_temperature 293
_diffrn_ambient_pressure 2370000.0
_diffrn_radiation_probe x-ray
_diffrn_source synchrotron
#These two values have been output from a single CSD field.
_refine_ls_R_factor_gt 0.1447
_refine_ls_wR_factor_gt 0.1447
_symmetry_cell_setting monoclinic
_symmetry_space_group_name_H-M 'P 21'
_symmetry_Int_Tables_number 4
loop_
_symmetry_equiv_pos_site_id
_symmetry_equiv_pos_as_xyz
1 x,y,z
2 -x,1/2+y,-z
_cell_length_a 6.5890(12)
_cell_length_b 7.004(2)
_cell_length_c 13.771(6)
_cell_angle_alpha 90
_cell_angle_beta 90.00(2)
_cell_angle_gamma 90
_cell_formula_units_Z 2
loop_
_atom_type_symbol
_atom_type_radius_bond
C 0.68
H 0.23
Fe 1.52
N 0.68
O 0.68
loop_
_atom_site_label
_atom_site_type_symbol
_atom_site_fract_x
_atom_site_fract_y
_atom_site_fract_z
Fe1 Fe 0.6351(5) 0.7132(7) 0.8502(2)
Fe2 Fe 1.1368(5) 1.2183(7) 0.6486(3)
O1 O 1.054(3) 1.092(3) 0.7754(13)
O2 O 0.491(3) 0.429(3) 1.0675(13)
O3 O 0.368(3) 0.586(3) 0.8560(13)
O4 O 0.729(4) 0.588(3) 0.9851(14)
O5 O 0.775(3) 0.486(3) 0.7796(13)
O6 O 0.418(4) 1.072(3) 0.6377(14)
O7 O 0.911(3) 0.864(3) 0.8563(14)
O8 O 0.280(3) 0.455(3) 0.7238(13)
O9 O 0.847(3) 0.337(3) 0.6355(13)
O10 O 0.995(4) 1.494(3) 0.4338(14)
O11 O 0.576(4) 0.868(4) 0.7224(15)
O12 O 1.220(4) 1.340(3) 0.5134(16)
C1 C 1.129(6) 1.371(5) 0.443(2)
C2 C 0.538(5) 1.025(5) 0.705(2)
C3 C 1.018(5) 0.928(5) 0.798(2)
C4 C 0.759(5) 0.460(4) 0.6915(19)
C5 C 0.618(5) 0.573(5) 1.045(2)
C6 C 0.238(5) 0.481(4) 0.8082(19)
H1 H 1.16024 1.29407 0.38740
H2 H 0.59961 1.12418 0.74299
H3 H 1.09028 0.83500 0.75991
H4 H 0.66654 0.54433 0.65912
H5 H 0.61268 0.68054 1.08870
H6 H 0.11856 0.42859 0.83776
N1 N 0.638(3) 0.217(5) 0.4667(16)
N2 N 1.144(3) 0.713(5) 1.0257(16)
Fe1A Fe 0.3649(5) 0.2132(7) 1.1498(2)
Fe2* Fe 0.1368(5) 0.2183(7) 0.6486(3)
Fe2** Fe 0.1368(5) 1.2183(7) 0.6486(3)
Fe2*** Fe 1.1368(5) 0.2183(7) 0.6486(3)
Fe2A Fe 0.8632(5) 1.7183(7) 0.3514(3)
O2A O 0.509(3) 0.929(3) 0.9325(13)
O6* O 1.418(4) 1.072(3) 0.6377(14)
O8* O 1.280(3) 1.455(3) 0.7238(13)
O9* O 0.847(3) 1.337(3) 0.6355(13)
O10A O 1.005(4) 0.994(3) 0.5662(14)
#END
