
#######################################################################
#
#                 Cambridge Crystallographic Data Centre
#                                CCDC
#
#######################################################################
#
# If this CIF has been generated from an entry in the Cambridge
# Structural Database, then it will include bibliographic, chemical,
# crystal, experimental, refinement or atomic coordinate data resulting
# from the CCDC's data processing and validation procedures.
#
#######################################################################

data_CSD_CIF_CAJHUS
_audit_creation_date 2012-01-16
_audit_creation_method CSD-ConQuest-V1
_database_code_CSD CAJHUS
_database_code_depnum_ccdc_archive 'CCDC 840003'
_chemical_formula_sum 'C3 H7 Fe1 N1 O6'
_chemical_formula_moiety
;
(C3 H3 Fe1 O6 1-)n,n(H4 N1 1+)
;
_journal_coden_Cambridge 4
_journal_volume 133
_journal_year 2011
_journal_page_first 14948
_journal_name_full 'J.Am.Chem.Soc. '
loop_
_publ_author_name
"Guan-Cheng Xu"
"Wen Zhang"
"Xiao-Ming Ma"
"Yi-Hong Chen"
"Li Zhang"
"Hong-Ling Cai"
"Zhe-Ming Wang"
"Ren-Gen Xiong"
"Song Gao"
_chemical_name_systematic
;
catena-[Ammonium tris(\m~2~-formato)-iron]
;
_cell_volume    386.366
_exptl_crystal_colour 'pale yellow green'
_exptl_crystal_density_diffrn 1.796
_exptl_special_details
;
hexagonal polymorph

;
_exptl_crystal_description 'hexagonal bipyramid'
_diffrn_ambient_temperature 290
_refine_special_details
;
The NH proton is disordered by symmetry.

;
#These two values have been output from a single CSD field.
_refine_ls_R_factor_gt 0.0232
_refine_ls_wR_factor_gt 0.0232
_symmetry_cell_setting hexagonal
_symmetry_space_group_name_H-M 'P 63 2 2'
_symmetry_Int_Tables_number 182
loop_
_symmetry_equiv_pos_site_id
_symmetry_equiv_pos_as_xyz
1 x,y,z
2 -y,x-y,z
3 -x+y,-x,z
4 -x,-y,1/2+z
5 y,-x+y,1/2+z
6 x-y,x,1/2+z
7 y,x,-z
8 x-y,-y,-z
9 -x,-x+y,-z
10 -y,-x,1/2-z
11 -x+y,y,1/2-z
12 x,x-y,1/2-z
_cell_length_a 7.3236(2)
_cell_length_b 7.3236(2)
_cell_length_c 8.3180(4)
_cell_angle_alpha 90
_cell_angle_beta 90
_cell_angle_gamma 120
_cell_formula_units_Z 2
loop_
_atom_type_symbol
_atom_type_radius_bond
C 0.68
H 0.23
Fe 1.52
N 0.68
O 0.68
loop_
_atom_site_label
_atom_site_type_symbol
_atom_site_fract_x
_atom_site_fract_y
_atom_site_fract_z
Fe1 Fe 0.33330 0.66670 0.25000
O1 O 0.10827(16) 0.69447(17) 0.10444(12)
C1 C 0.00000 0.5645(3) 0.00000
H1 H 0.00000 0.411(4) 0.00000
N1 N 0.00000 1.00000 0.25000
H2? H 0.025(6) 0.918(5) 0.179(2)
Fe1D Fe -0.33330 0.33340 -0.25000
Fe1E Fe 0.66660 0.33330 -0.25000
Fe1C Fe 0.66670 1.33330 -0.25000
O1H O -0.10827(16) 0.58620(17) -0.10444(12)
O1A O 0.30553(16) 0.41380(17) 0.10444(12)
O1G O 0.41380(16) 0.30553(17) -0.10444(12)
O1B O 0.58620(16) 0.89173(17) 0.10444(12)
O1F O 0.69447(16) 1.10827(17) -0.10444(12)
O1I O 0.30553(16) 0.89173(17) 0.39556(12)
O1J O 0.58620(16) 0.69447(17) 0.39556(12)
O1K O 0.10827(16) 0.41380(17) 0.39556(12)
C1A C 0.43550 0.4355(3) 0.00000
C1B C 0.56450 1.0000(3) 0.00000
H1A H 0.58900 0.589(4) 0.00000
H1B H 0.41100 1.000(4) 0.00000
#END
