
#######################################################################
#
#                 Cambridge Crystallographic Data Centre
#                                CCDC
#
#######################################################################
#
# If this CIF has been generated from an entry in the Cambridge
# Structural Database, then it will include bibliographic, chemical,
# crystal, experimental, refinement or atomic coordinate data resulting
# from the CCDC's data processing and validation procedures.
#
#######################################################################

data_CSD_CIF_CAJHUS11
_audit_creation_date 2019-12-20
_audit_creation_method CSD-ConQuest-V1
_database_code_CSD CAJHUS11
_database_code_depnum_ccdc_archive 'CCDC 1861347'
_chemical_formula_sum 'C6 H14 Fe2 N2 O12'
_chemical_formula_moiety
;
(C6 H6 Fe2 O12 2-)n,2(H4 N1 1+)
;
_journal_coden_Cambridge 1326
_journal_volume 20
_journal_year 2018
_journal_page_first 24465
_journal_name_full 'Phys.Chem.Chem.Phys.(PCCP) '
loop_
_publ_author_name
"I.E.Collings"
"R.S.Manna"
"A.A.Tsirlin"
"M.Bykov"
"E.Bykova"
"M.Hanfland"
"P.Gegenwart"
"S.v.Smaalen"
"L.Dubrovinsky"
"N.Dubrovinskaia"
_chemical_name_systematic
;
catena-[bis(ammonium) hexakis(\m~2~-formato)-di-iron]
;
_cell_volume    628.724
_exptl_crystal_colour 'colorless'
_exptl_crystal_density_diffrn 2.207
_exptl_crystal_description 'block'
_diffrn_ambient_temperature 293
_diffrn_ambient_pressure 2550000.0
_diffrn_radiation_probe x-ray
_diffrn_source synchrotron
#These two values have been output from a single CSD field.
_refine_ls_R_factor_gt 0.1408
_refine_ls_wR_factor_gt 0.1408
_symmetry_cell_setting monoclinic
_symmetry_space_group_name_H-M 'P 21'
_symmetry_Int_Tables_number 4
loop_
_symmetry_equiv_pos_site_id
_symmetry_equiv_pos_as_xyz
1 x,y,z
2 -x,1/2+y,-z
_cell_length_a 6.599(5)
_cell_length_b 6.957(5)
_cell_length_c 13.695(11)
_cell_angle_alpha 90
_cell_angle_beta 90.19(7)
_cell_angle_gamma 90
_cell_formula_units_Z 2
loop_
_atom_type_symbol
_atom_type_radius_bond
C 0.68
H 0.23
Fe 1.52
N 0.68
O 0.68
loop_
_atom_site_label
_atom_site_type_symbol
_atom_site_fract_x
_atom_site_fract_y
_atom_site_fract_z
Fe1 Fe 0.6347(6) 0.7162(7) 0.8496(3)
Fe2 Fe 1.1361(6) 1.2149(7) 0.6481(3)
O1 O 1.051(4) 1.082(4) 0.7764(15)
O2 O 0.515(4) 0.927(3) 0.9376(16)
O3 O 0.355(3) 0.591(3) 0.8548(14)
O4 O 0.271(4) 1.088(3) 1.0110(16)
O5 O 0.755(3) 0.489(3) 0.7844(17)
O6 O 0.431(4) 1.080(4) 0.6380(19)
O7 O 0.896(3) 0.880(3) 0.8613(16)
O8 O 0.284(3) 0.444(3) 0.7213(15)
O9 O 0.855(4) 0.337(3) 0.6349(16)
O10 O 1.001(4) 1.492(3) 0.4366(16)
O11 O 0.569(4) 0.850(4) 0.7234(18)
O12 O 1.225(4) 1.342(3) 0.5197(17)
C1 C 1.128(6) 1.373(6) 0.456(3)
C2 C 0.518(6) 1.013(7) 0.704(3)
C3 C 1.019(5) 0.929(5) 0.798(2)
C4 C 0.763(5) 0.462(5) 0.688(2)
C5 C 0.410(6) 1.068(6) 0.947(3)
C6 C 0.234(5) 0.485(4) 0.805(2)
H1 H 1.15090 1.28563 0.40282
H2 H 0.55778 1.10579 0.75247
H3 H 1.09264 0.82908 0.76492
H4 H 0.68575 0.55328 0.65086
H5 H 0.43231 1.17308 0.90306
H6 H 0.10890 0.43963 0.83254
N1 N 0.624(3) 0.214(5) 0.4711(18)
N2 N 1.116(4) 0.738(5) 1.033(2)
Fe1A Fe 0.3653(6) 1.2162(7) 1.1504(3)
Fe2* Fe 0.1361(6) 0.2149(7) 0.6481(3)
Fe2** Fe 0.1361(6) 1.2149(7) 0.6481(3)
Fe2*** Fe 1.1361(6) 0.2149(7) 0.6481(3)
Fe2A Fe 0.8639(6) 1.7149(7) 0.3519(3)
O4A O 0.729(4) 0.588(3) 0.9890(16)
O6* O 1.431(4) 1.080(4) 0.6380(19)
O8* O 1.284(3) 1.444(3) 0.7213(15)
O9* O 0.855(4) 1.337(3) 0.6349(16)
O10A O 0.999(4) 0.992(3) 0.5634(16)
#END
