
#######################################################################
#
#                 Cambridge Crystallographic Data Centre
#                                CCDC
#
#######################################################################
#
# If this CIF has been generated from an entry in the Cambridge
# Structural Database, then it will include bibliographic, chemical,
# crystal, experimental, refinement or atomic coordinate data resulting
# from the CCDC's data processing and validation procedures.
#
#######################################################################

data_CSD_CIF_CAJHUS02
_audit_creation_date 2016-11-10
_audit_creation_method CSD-ConQuest-V1
_database_code_CSD CAJHUS02
_database_code_depnum_ccdc_archive 'CCDC 1501454'
_chemical_formula_sum 'C3 H7 Fe1 N1 O6'
_chemical_formula_moiety
;
(C3 H3 Fe1 O6 1-)n,H4 N1 1+
;
_journal_coden_Cambridge 1350
_journal_volume 18
_journal_year 2016
_journal_page_first 8849
_journal_name_full 'CrystEngComm '
loop_
_publ_author_name
"I.E.Collings"
"M.Bykov"
"E.Bykova"
"M.G.Tucker"
"S.Petitgirard"
"M.Hanfland"
"K.Glazyrin"
"S.van Smaalen"
"A.L.Goodwin"
"L.Dubrovinsky"
"N.Dubrovinskaia"
_chemical_name_systematic
;
catena-[ammonium tris(\m-formato)-iron]
;
_cell_volume    365.637
_exptl_crystal_colour 'colorless'
_exptl_crystal_density_diffrn 1.898
_exptl_special_details
;
monoclinic polymorph

;
_exptl_crystal_description 'irregular block'
_diffrn_ambient_temperature 293
_diffrn_radiation_probe x-ray
_diffrn_source synchrotron
#These two values have been output from a single CSD field.
_refine_ls_R_factor_gt 0.1431
_refine_ls_wR_factor_gt 0.1431
_symmetry_cell_setting monoclinic
_symmetry_space_group_name_H-M 'P 21'
_symmetry_Int_Tables_number 4
loop_
_symmetry_equiv_pos_site_id
_symmetry_equiv_pos_as_xyz
1 x,y,z
2 -x,1/2+y,-z
_cell_length_a 6.668(6)
_cell_length_b 8.298(4)
_cell_length_c 7.393(6)
_cell_angle_alpha 90
_cell_angle_beta 116.64(11)
_cell_angle_gamma 90
_cell_formula_units_Z 2
loop_
_atom_type_symbol
_atom_type_radius_bond
C 0.68
H 0.23
Fe 1.52
N 0.68
O 0.68
loop_
_atom_site_label
_atom_site_type_symbol
_atom_site_fract_x
_atom_site_fract_y
_atom_site_fract_z
Fe1 Fe 0.3394(4) 0.25000 0.6782(3)
O1 O -0.103(2) 0.6058(16) 0.2968(17)
O2 O 0.686(2) 0.6062(15) 0.5576(16)
O3 O 0.5953(19) 0.1142(16) 0.8949(16)
O4 O 0.117(2) 0.3942(15) 0.4410(15)
O5 O 0.6263(19) 0.3874(16) 0.7078(17)
O6 O 0.703(2) -0.0962(16) 1.1064(16)
C1 C 0.070(3) 0.535(2) 0.449(3)
C2 C 0.583(3) 0.473(2) 0.562(3)
C3 C 0.541(3) 0.008(2) 0.977(3)
H1 H 0.15870 0.59645 0.56830
H2 H 0.46036 0.43967 0.43636
H3 H 0.38758 -0.00346 0.95238
N1 N 1.037(2) 0.247(3) 1.0518(17)
Fe1A Fe -0.3394(4) 0.75000 0.3218(3)
Fe1A* Fe 0.6606(4) -0.25000 1.3218(3)
Fe1A** Fe 0.6606(4) 0.75000 0.3218(3)
O1A O 0.103(2) 0.1058(16) 0.7032(17)
O2A O 0.314(2) 0.1062(15) 0.4424(16)
O6A O 0.297(2) 0.4038(16) 0.8936(16)
#END
