
#######################################################################
#
#                 Cambridge Crystallographic Data Centre
#                                CCDC
#
#######################################################################
#
# If this CIF has been generated from an entry in the Cambridge
# Structural Database, then it will include bibliographic, chemical,
# crystal, experimental, refinement or atomic coordinate data resulting
# from the CCDC's data processing and validation procedures.
#
#######################################################################

data_CSD_CIF_CAJHUS04
_audit_creation_date 2016-11-11
_audit_creation_method CSD-ConQuest-V1
_database_code_CSD CAJHUS04
_database_code_depnum_ccdc_archive 'CCDC 1499764'
_chemical_formula_sum 'C3 H7 Fe1 N1 O6'
_chemical_formula_moiety
;
(C3 H3 Fe1 O6 1-)n,H4 N1 1+
;
_journal_coden_Cambridge 1353
_journal_volume 17
_journal_year 2016
_journal_page_first 3369
_journal_name_full 'ChemPhysChem '
loop_
_publ_author_name
"I.E.Collings"
"E.Bykova"
"M.Bykov"
"S.Petitgirard"
"M.Hanfland"
"D.Paliwoda"
"L.Dubrovinsky"
"N.Dubrovinskaia"
_chemical_name_systematic
;
catena-[ammonium tris(\m-formato)-iron]
;
_cell_volume    386.859
_exptl_crystal_colour 'colorless'
_exptl_crystal_density_diffrn 1.794
_exptl_special_details
;
Air-sensitive,Moisture-sensitive

;
_exptl_crystal_description 'hexagonal bipyramid'
_exptl_crystal_preparation 'slow-diffusion reaction'
_diffrn_ambient_temperature 293
_diffrn_radiation_probe x-ray
_diffrn_source synchrotron
_refine_special_details
;
H1 disordered by symmetry over three configurations with occupancy 0.6667.

;
#These two values have been output from a single CSD field.
_refine_ls_R_factor_gt 0.0244
_refine_ls_wR_factor_gt 0.0244
_symmetry_cell_setting hexagonal
_symmetry_space_group_name_H-M 'P 63 2 2'
_symmetry_Int_Tables_number 182
loop_
_symmetry_equiv_pos_site_id
_symmetry_equiv_pos_as_xyz
1 x,y,z
2 -y,x-y,z
3 -x+y,-x,z
4 -x,-y,1/2+z
5 y,-x+y,1/2+z
6 x-y,x,1/2+z
7 y,x,-z
8 x-y,-y,-z
9 -x,-x+y,-z
10 -y,-x,1/2-z
11 -x+y,y,1/2-z
12 x,x-y,1/2-z
_cell_length_a 7.3292(2)
_cell_length_b 7.3292(2)
_cell_length_c 8.3159(3)
_cell_angle_alpha 90
_cell_angle_beta 90
_cell_angle_gamma 120
_cell_formula_units_Z 2
loop_
_atom_type_symbol
_atom_type_radius_bond
C 0.68
H 0.23
Fe 1.52
N 0.68
O 0.68
loop_
_atom_site_label
_atom_site_type_symbol
_atom_site_fract_x
_atom_site_fract_y
_atom_site_fract_z
Fe1 Fe 0.33330 0.66670 0.75000
O1 O 0.3059(3) 0.8921(3) 0.8956(3)
C1 C 0.4352(6) 1.00000 1.00000
H1 H 0.56210 1.00000 1.00000
N1 N 0.00000 1.00000 0.75000
H2? H -0.107(5) 0.974(13) 0.691(4)
O1G O 0.4138(3) 1.1079(3) 1.1044(3)
O1A O 0.1079(3) 0.4138(3) 0.8956(3)
C1A C 0.0000(6) 0.43520 1.00000
H1A H 0.00000 0.56210 1.00000
O1F O -0.1079(3) 0.3059(3) 1.1044(3)
O1B O 0.5862(3) 0.6941(3) 0.8956(3)
C1B C 0.5648(6) 0.56480 1.00000
H1B H 0.43790 0.43790 1.00000
O1H O 0.6941(3) 0.5862(3) 1.1044(3)
Fe1C Fe -0.33330 0.33330 1.25000
Fe1C* Fe 0.66670 0.33330 1.25000
Fe1C** Fe 0.66670 1.33330 1.25000
O1I O 0.1079(3) 0.6941(3) 0.6044(3)
O1J O 0.5862(3) 0.8921(3) 0.6044(3)
O1K O 0.3059(3) 0.4138(3) 0.6044(3)
#END
