
#######################################################################
#
#                 Cambridge Crystallographic Data Centre
#                                CCDC
#
#######################################################################
#
# If this CIF has been generated from an entry in the Cambridge
# Structural Database, then it will include bibliographic, chemical,
# crystal, experimental, refinement or atomic coordinate data resulting
# from the CCDC's data processing and validation procedures.
#
#######################################################################

data_CSD_CIF_CAJVUG
_audit_creation_date 2012-02-03
_audit_creation_method CSD-ConQuest-V1
_database_code_CSD CAJVUG
_database_code_depnum_ccdc_archive 'CCDC 799388'
_chemical_formula_sum 'C74 H81 In2 N5 O26'
_chemical_formula_moiety
;
(C30 H16 In1 O8 1-)2n,4n(C3 H7 N1 O1),n(C2 H8 N1 1+),5n(H2 O1),n(H3 O1 1+)
;
_journal_coden_Cambridge 9
_journal_volume 50
_journal_year 2011
_journal_page_first 9374
_journal_name_full 'Inorg.Chem. '
loop_
_publ_author_name
"Sihai Yang"
"G.S.B.Martin"
"J.J.Titman"
"A.J.Blake"
"D.R.Allan"
"N.R.Champness"
"M.Schroder"
_chemical_name_systematic
;
catena-(bis((\m~4~-5,5'-(9,10-dihydrophenanthrene-2,7-diyl)dibenzene-1,3-dicar
boxylato)-indium) oxonium dimethylammonium N,N-dimethylformamide solvate 
pentahydrate)
;
_cell_volume   3400.111
_exptl_crystal_colour 'colorless'
_exptl_crystal_density_diffrn 1.647
_exptl_crystal_description 'tablet'
_diffrn_ambient_temperature 150
_diffrn_radiation_probe x-ray
_diffrn_source synchrotron
_diffrn_special_details
;
twin

;
#These two values have been output from a single CSD field.
_refine_ls_R_factor_gt 0.0396
_refine_ls_wR_factor_gt 0.0396
_symmetry_cell_setting tetragonal
_symmetry_space_group_name_H-M 'P 41'
_symmetry_Int_Tables_number 76
loop_
_symmetry_equiv_pos_site_id
_symmetry_equiv_pos_as_xyz
1 x,y,z
2 -y,x,1/4+z
3 -x,-y,1/2+z
4 y,-x,3/4+z
_cell_length_a 9.8480(2)
_cell_length_b 9.8480(2)
_cell_length_c 35.0588(14)
_cell_angle_alpha 90
_cell_angle_beta 90
_cell_angle_gamma 90
_cell_formula_units_Z 2
loop_
_atom_type_symbol
_atom_type_radius_bond
C 0.68
H 0.23
In 1.42
N 0.68
O 0.68
loop_
_atom_site_label
_atom_site_type_symbol
_atom_site_fract_x
_atom_site_fract_y
_atom_site_fract_z
In1 In 0.15131(5) -0.76937(5) -0.06417(2)
O1 O 0.1480(7) -0.5375(6) -0.07194(15)
O2 O -0.0068(7) -0.2203(7) 0.38898(18)
O3 O 0.7155(6) -0.2362(7) 0.38388(15)
O4 O 0.1630(7) 0.0844(6) -0.01782(18)
O5 O 0.1496(6) -0.6311(5) -0.01440(16)
O6 O 0.0941(6) -0.2310(6) 0.44370(19)
O7 O 0.6177(6) -0.2489(10) 0.4391(3)
O8 O 0.1691(8) -0.0111(6) -0.07327(17)
C1 C 0.1785(9) -0.3942(9) -0.0171(3)
C2 C 0.1714(8) -0.2763(8) -0.0385(3)
H1 H 0.15190 -0.27750 -0.06500
C3 C 0.1950(8) -0.1538(9) -0.0185(2)
C4 C 0.2295(11) -0.1552(9) 0.0196(2)
H2 H 0.24890 -0.07120 0.03180
C5 C 0.2368(10) -0.2689(9) 0.0402(2)
C6 C 0.2087(10) -0.3925(9) 0.0219(2)
H3 H 0.21030 -0.47500 0.03590
C7 C 0.4724(9) -0.2468(10) 0.3848(2)
C8 C 0.4691(9) -0.2532(12) 0.3460(2)
H4 H 0.55210 -0.25330 0.33220
C9 C 0.3453(8) -0.2597(11) 0.3259(2)
C10 C 0.2265(8) -0.2498(11) 0.3482(2)
H5 H 0.14080 -0.24870 0.33580
C11 C 0.2311(9) -0.2418(9) 0.3872(2)
C12 C 0.3533(8) -0.2411(10) 0.4053(3)
H6 H 0.35650 -0.23670 0.43240
C13 C 0.3394(9) -0.2657(13) 0.2839(3)
C14 C 0.2354(10) -0.3279(15) 0.2667(3)
H7 H 0.16860 -0.37110 0.28200
C15 C 0.2212(11) -0.3317(15) 0.2276(3)
C16 C 0.3196(9) -0.2689(12) 0.2045(3)
C17 C 0.4350(12) -0.2125(14) 0.2214(3)
H8 H 0.50830 -0.17870 0.20650
C18 C 0.4370(11) -0.2082(14) 0.2609(3)
H9 H 0.51060 -0.16270 0.27280
C19 C 0.2623(10) -0.2694(9) 0.0820(2)
C20 C 0.3548(13) -0.1813(10) 0.0992(3)
H10 H 0.40340 -0.11860 0.08380
C21 C 0.3782(11) -0.1827(10) 0.1389(3)
H11 H 0.44430 -0.12370 0.14970
C22 C 0.3025(8) -0.2730(12) 0.1632(3)
C23 C 0.2111(13) -0.3613(12) 0.1461(3)
C24 C 0.1907(9) -0.3606(11) 0.1060(3)
H12 H 0.12780 -0.42250 0.09500
C25 C 0.6098(9) -0.2362(9) 0.4040(3)
C26 C 0.1562(10) -0.5227(9) -0.0358(2)
C27 C 0.1780(11) -0.0238(9) -0.0382(3)
C28 C 0.0987(10) -0.2351(9) 0.4085(3)
C29 C 0.1322(10) -0.4571(13) 0.1707(3)
H13 H 0.18820 -0.53820 0.17630
H14 H 0.04990 -0.48730 0.15690
C30 C 0.0913(12) -0.3893(17) 0.2079(3)
H15 H 0.04650 -0.45610 0.22480
H16 H 0.02640 -0.31480 0.20270
C31 C 0.8503(11) -0.4547(12) 0.3296(3)
H17 H 0.87190 -0.44920 0.35590
N1 N 0.7434(12) -0.5244(10) 0.3199(3)
O9 O 0.9253(9) -0.3953(11) 0.3070(2)
C32 C 0.6574(16) -0.5796(16) 0.3493(4)
H18 H 0.69650 -0.55940 0.37430
H19 H 0.65030 -0.67820 0.34600
H20 H 0.56690 -0.53880 0.34740
C33 C 0.6968(16) -0.5372(15) 0.2811(3)
H21 H 0.76270 -0.49480 0.26390
H22 H 0.60870 -0.49210 0.27840
H23 H 0.68740 -0.63360 0.27460
N2 N -0.0302(18) 0.1581(16) 0.0817(6)
H24 H -0.09510 0.16070 0.10060
H25 H -0.07470 0.15110 0.05880
C34 C 0.0451(19) 0.0460(18) 0.0867(6)
H26 H -0.01420 -0.03390 0.08690
H27 H 0.09400 0.05210 0.11100
H28 H 0.11040 0.03800 0.06570
C35 C 0.040(2) 0.279(2) 0.0822(7)
H29 H -0.02340 0.35390 0.07780
H30 H 0.10890 0.27800 0.06210
H31 H 0.08380 0.29020 0.10710
O10 O 0.8117(17) -0.1921(16) 0.2708(5)
In1* In 0.15131(5) 0.23063(5) -0.06417(2)
In1B In -0.15131(5) -0.23063(5) 0.43583(2)
In1B* In 0.84869(5) -0.23063(5) 0.43583(2)
O2B O 0.0068(7) -0.7797(7) -0.11102(18)
O3B O 0.2845(6) -0.7638(7) -0.11612(15)
O4* O 0.1630(7) -0.9156(6) -0.01782(18)
O6B O -0.0941(6) -0.7690(6) -0.05630(19)
O7B O 0.3823(6) -0.7511(10) -0.0609(3)
O8* O 0.1691(8) -1.0111(6) -0.07327(17)
#END
