
#######################################################################
#
#                 Cambridge Crystallographic Data Centre
#                                CCDC
#
#######################################################################
#
# If this CIF has been generated from an entry in the Cambridge
# Structural Database, then it will include bibliographic, chemical,
# crystal, experimental, refinement or atomic coordinate data resulting
# from the CCDC's data processing and validation procedures.
#
#######################################################################

data_CSD_CIF_CAJWAN
_audit_creation_date 2012-02-03
_audit_creation_method CSD-ConQuest-V1
_database_code_CSD CAJWAN
_database_code_depnum_ccdc_archive 'CCDC 799389'
_chemical_formula_sum 'C60 H62.4 In2 Li1.2 O30.8'
_chemical_formula_moiety
;
(C60 H32 In2 Li1 O16 1-)n,0.2n(Li1 1+),0.8n(H3 O1 1+),14n(H2 O1)
;
_journal_coden_Cambridge 9
_journal_volume 50
_journal_year 2011
_journal_page_first 9374
_journal_name_full 'Inorg.Chem. '
loop_
_publ_author_name
"Sihai Yang"
"G.S.B.Martin"
"J.J.Titman"
"A.J.Blake"
"D.R.Allan"
"N.R.Champness"
"M.Schroder"
_chemical_name_systematic
;
catena-(bis(\m~7~-5,5'-(9,10-dihydrophenanthrene-2,7-diyl)dibenzene-1,3-dicarb
oxylato)-di-indium-lithium lithium oxonium tetradecahydrate)
;
_cell_volume   3339.912
_exptl_crystal_colour 'colorless'
_exptl_crystal_density_diffrn 1.506
_exptl_crystal_description 'block'
_diffrn_ambient_temperature 100
_diffrn_radiation_probe x-ray
_diffrn_source synchrotron
_refine_special_details
;
The SQUEEZE/PLATON program may have been used to model disordered electron 
density.
;
#These two values have been output from a single CSD field.
_refine_ls_R_factor_gt 0.112
_refine_ls_wR_factor_gt 0.112
_symmetry_cell_setting monoclinic
_symmetry_space_group_name_H-M 'P 21/n'
_symmetry_Int_Tables_number 14
loop_
_symmetry_equiv_pos_site_id
_symmetry_equiv_pos_as_xyz
1 x,y,z
2 1/2-x,1/2+y,1/2-z
3 -x,-y,-z
4 -1/2+x,-1/2-y,-1/2+z
_cell_length_a 9.892(10)
_cell_length_b 9.617(9)
_cell_length_c 35.11(3)
_cell_angle_alpha 90
_cell_angle_beta 90.544(17)
_cell_angle_gamma 90
_cell_formula_units_Z 2
loop_
_atom_type_symbol
_atom_type_radius_bond
C 0.68
H 0.23
In 1.36
Li 1.39
O 0.68
loop_
_atom_site_label
_atom_site_type_symbol
_atom_site_fract_x
_atom_site_fract_y
_atom_site_fract_z
In1 In 1.15879(19) 0.47836(9) -0.07759(4)
Li1 Li 1.00000 0.50000 0.00000
O1 O 0.8823(16) 0.4940(15) -0.0623(4)
O2 O 0.9948(17) 0.4830(13) -0.1143(5)
O3 O 0.2877(14) 0.4815(13) -0.1279(4)
O4 O 0.3787(15) 0.4805(12) -0.0735(4)
O5 O 0.6388(15) 0.1565(12) -0.5268(4)
O6 O 0.6684(17) 0.2588(10) -0.5807(4)
O7 O 0.6391(17) 0.8843(11) -0.5265(3)
O8 O 0.6741(16) 0.7827(9) -0.5799(4)
C1 C 0.892(2) 0.4880(18) -0.0979(8)
C2 C 0.390(3) 0.4797(18) -0.1080(7)
C3 C 0.657(2) 0.2650(16) -0.5462(5)
C4 C 0.661(2) 0.7792(17) -0.5447(5)
C5 C 0.7622(19) 0.4913(19) -0.1218(6)
C6 C 0.6334(16) 0.4852(16) -0.1044(5)
H1 H 0.62740 0.48130 -0.07740
C7 C 0.522(2) 0.4848(17) -0.1253(5)
C8 C 0.5285(18) 0.4915(18) -0.1640(6)
H2 H 0.44680 0.49390 -0.17840
C9 C 0.656(2) 0.4952(17) -0.1836(6)
C10 C 0.776(2) 0.4961(17) -0.1601(6)
H3 H 0.86280 0.49990 -0.17120
C11 C 0.668(3) 0.5063(19) -0.2219(5)
C12 C 0.761(3) 0.569(3) -0.2432(6)
H4 H 0.83680 0.60530 -0.22990
C13 C 0.578(2) 0.440(2) -0.2858(6)
C14 C 0.671(3) 0.5156(16) -0.3033(4)
C15 C 0.759(3) 0.587(2) -0.2817(6)
H5 H 0.82080 0.65040 -0.29310
C16 C 0.572(2) 0.438(2) -0.2469(6)
H6 H 0.50030 0.38830 -0.23550
C17 C 0.675(3) 0.5226(15) -0.3448(5)
C18 C 0.612(3) 0.422(2) -0.3649(6)
C19 C 0.618(3) 0.4187(19) -0.4042(5)
H7 H 0.58140 0.34190 -0.41780
C20 C 0.6755(19) 0.5220(13) -0.4229(5)
C21 C 0.734(3) 0.6256(18) -0.4034(5)
H8 H 0.77660 0.69970 -0.41660
C22 C 0.732(3) 0.6245(19) -0.3657(5)
H9 H 0.77240 0.70030 -0.35250
C23 C 0.678(2) 0.5232(15) -0.4663(5)
C24 C 0.663(3) 0.3983(15) -0.4866(4)
H10 H 0.65000 0.31300 -0.47350
C25 C 0.666(2) 0.4010(16) -0.5249(4)
C26 C 0.670(3) 0.5226(15) -0.5435(6)
H11 H 0.67240 0.52330 -0.57050
C27 C 0.669(2) 0.6455(14) -0.5241(4)
C28 C 0.670(3) 0.6441(16) -0.4869(4)
H12 H 0.66530 0.73000 -0.47360
C29 C 0.473(3) 0.367(2) -0.3081(6)
H13 H 0.39910 0.43230 -0.31480
H14 H 0.43410 0.29050 -0.29280
C30 C 0.535(3) 0.308(2) -0.3441(6)
H15 H 0.46280 0.27080 -0.36090
H16 H 0.59730 0.23140 -0.33750
In1B In 0.84121(19) 0.52164(9) 0.07759(4)
In1* In 0.15879(19) 0.47836(9) -0.07759(4)
In1C In 0.65879(19) 0.02164(9) -0.57759(4)
In1C* In 0.65879(19) 1.02164(9) -0.57759(4)
In1B* In 1.84121(19) 0.52164(9) 0.07759(4)
In1A In 1.34121(19) 0.97836(9) 0.57759(4)
In1A* In 1.34121(19) -0.02164(9) 0.57759(4)
Li1A Li 0.50000 0.00000 -0.50000
Li1A* Li 0.50000 1.00000 -0.50000
Li1A** Li 1.50000 1.00000 0.50000
Li1A*** Li 1.50000 0.00000 0.50000
O1B O 1.1177(16) 0.5060(15) 0.0623(4)
O2B O 1.0052(17) 0.5170(13) 0.1143(5)
O3B O 1.7123(14) 0.5185(13) 0.1279(4)
O3* O 1.2877(14) 0.4815(13) -0.1279(4)
O3B* O 0.7123(14) 0.5185(13) 0.1279(4)
O4B O 1.6213(15) 0.5195(12) 0.0735(4)
O4* O 1.3787(15) 0.4805(12) -0.0735(4)
O4B* O 0.6213(15) 0.5195(12) 0.0735(4)
O5B O 1.3612(15) 0.8435(12) 0.5268(4)
O5C O 1.1388(15) 0.3435(12) -0.0268(4)
O5A O 0.8612(15) 0.6565(12) 0.0268(4)
O6B O 1.3316(17) 0.7412(10) 0.5807(4)
O6C O 1.1684(17) 0.2412(10) -0.0807(4)
O6A O 0.8316(17) 0.7588(10) 0.0807(4)
O7B O 1.3609(17) 0.1157(11) 0.5265(3)
O7C O 1.1391(17) 0.6157(11) -0.0265(3)
O7A O 0.8609(17) 0.3843(11) 0.0265(3)
O8B O 1.3259(16) 0.2173(9) 0.5799(4)
O8C O 1.1741(16) 0.7173(9) -0.0799(4)
O8A O 0.8259(16) 0.2827(9) 0.0799(4)
C1B C 1.108(2) 0.5120(18) 0.0979(8)
C2B C 1.610(3) 0.5203(18) 0.1080(7)
C3B C 1.343(2) 0.7350(16) 0.5462(5)
C4B C 1.339(2) 0.2208(17) 0.5447(5)
C5B C 1.2378(19) 0.5087(19) 0.1218(6)
C6B C 1.3666(16) 0.5148(16) 0.1044(5)
H1B H 1.37260 0.51870 0.07740
C7B C 1.478(2) 0.5152(17) 0.1253(5)
C8B C 1.4715(18) 0.5085(18) 0.1640(6)
H2B H 1.55320 0.50610 0.17840
C9B C 1.344(2) 0.5048(17) 0.1836(6)
C10B C 1.224(2) 0.5039(17) 0.1601(6)
H3B H 1.13720 0.50010 0.17120
C11B C 1.332(3) 0.4937(19) 0.2219(5)
C12B C 1.239(3) 0.431(3) 0.2432(6)
H4B H 1.16320 0.39470 0.22990
C13B C 1.422(2) 0.560(2) 0.2858(6)
C14B C 1.329(3) 0.4844(16) 0.3033(4)
C15B C 1.241(3) 0.413(2) 0.2817(6)
H5B H 1.17920 0.34960 0.29310
C16B C 1.428(2) 0.562(2) 0.2469(6)
H6B H 1.49970 0.61170 0.23550
C17B C 1.325(3) 0.4774(15) 0.3448(5)
C18B C 1.388(3) 0.578(2) 0.3649(6)
C19B C 1.382(3) 0.5813(19) 0.4042(5)
H7B H 1.41860 0.65810 0.41780
C20B C 1.3245(19) 0.4780(13) 0.4229(5)
C21B C 1.266(3) 0.3744(18) 0.4034(5)
H8B H 1.22340 0.30030 0.41660
C22B C 1.268(3) 0.3755(19) 0.3657(5)
H9B H 1.22760 0.29970 0.35250
C23B C 1.322(2) 0.4768(15) 0.4663(5)
C24B C 1.337(3) 0.6017(15) 0.4866(4)
H10B H 1.35000 0.68700 0.47350
C25B C 1.334(2) 0.5990(16) 0.5249(4)
C26B C 1.330(3) 0.4774(15) 0.5435(6)
H11B H 1.32760 0.47670 0.57050
C27B C 1.331(2) 0.3545(14) 0.5241(4)
C28B C 1.330(3) 0.3559(16) 0.4869(4)
H12B H 1.33470 0.27000 0.47360
C29B C 1.527(3) 0.633(2) 0.3081(6)
H13B H 1.60090 0.56770 0.31480
H14B H 1.56590 0.70950 0.29280
C30B C 1.465(3) 0.692(2) 0.3441(6)
H15B H 1.53720 0.72920 0.36090
H16B H 1.40270 0.76860 0.33750
#END
