
#######################################################################
#
#                 Cambridge Crystallographic Data Centre
#                                CCDC
#
#######################################################################
#
# If this CIF has been generated from an entry in the Cambridge
# Structural Database, then it will include bibliographic, chemical,
# crystal, experimental, refinement or atomic coordinate data resulting
# from the CCDC's data processing and validation procedures.
#
#######################################################################

data_CSD_CIF_CALCUO
_audit_creation_date 2002-10-01
_audit_creation_method CSD-ConQuest-V1
_database_code_CSD CALCUO
_database_code_depnum_ccdc_archive 'CCDC 190968'
_chemical_formula_sum 'C12 H31 Ga2 N4 O12 P3'
_chemical_formula_moiety
;
(C6 H15 Ga2 N2 O12 P3 2-)n,n(C6 H16 N2 2+)
;
_journal_coden_Cambridge 9
_journal_volume 40
_journal_year 2001
_journal_page_first 2918
_journal_name_full 'Inorg.Chem. '
loop_
_publ_author_name
"Chia-Her Lin"
"Sue-Lein Wang"
_chemical_name_systematic
;
catena-((1S,2S)-Cyclohexane-1,2-diammonium 
bis(\m~3~-phosphato)-(\m~2~-hydrogenphosphato)-((1S,2S)-1,2-diaminocyclohexane
)-di-gallium)
;
_cell_volume   1178.883
_exptl_crystal_colour 'colorless'
_exptl_crystal_density_diffrn 1.847
_exptl_crystal_description 'lamellar'
_diffrn_ambient_temperature 293
#These two values have been output from a single CSD field.
_refine_ls_R_factor_gt 0.0603
_refine_ls_wR_factor_gt 0.0603
_symmetry_cell_setting monoclinic
_symmetry_space_group_name_H-M 'P 21'
_symmetry_Int_Tables_number 4
loop_
_symmetry_equiv_pos_site_id
_symmetry_equiv_pos_as_xyz
1 x,y,z
2 -x,1/2+y,-z
_cell_length_a 9.7802(8)
_cell_length_b 9.1039(8)
_cell_length_c 13.9235(12)
_cell_angle_alpha 90
_cell_angle_beta 108.024(2)
_cell_angle_gamma 90
_cell_formula_units_Z 2
loop_
_atom_type_symbol
_atom_type_radius_bond
C 0.68
H 0.23
Ga 1.22
N 0.68
O 0.68
P 1.05
loop_
_atom_site_label
_atom_site_type_symbol
_atom_site_fract_x
_atom_site_fract_y
_atom_site_fract_z
Ga1 Ga 0.39260(7) 0.97851(8) 0.07371(6)
Ga2 Ga 0.83457(7) 1.02894(8) 0.03174(6)
P1 P 0.73228(18) 0.9694(2) 0.21315(14)
P2 P 0.52502(18) 1.1293(2) -0.08369(15)
P3 P 0.07991(19) 0.8314(2) 0.01390(16)
O1 O 0.5930(5) 1.0256(7) 0.1415(4)
O2 O 0.8419(6) 0.9541(8) 0.1534(5)
O3 O 0.7905(7) 1.0892(7) 0.2969(5)
O4 O 0.7220(6) 0.8248(7) 0.2633(4)
O5 O 0.4040(5) 1.0611(6) -0.0526(4)
O6 O 0.4709(5) 1.1382(6) -0.2010(4)
O7 O 0.6557(5) 1.0266(7) -0.0596(4)
O8 O 0.5656(6) 1.2805(6) -0.0381(5)
O9 O 0.1851(5) 0.9508(6) 0.0052(4)
O10 O -0.0749(6) 0.8970(6) -0.0263(5)
O11 O 0.1108(6) 0.7675(7) 0.1167(5)
O12 O 0.0789(5) 0.7080(6) -0.0640(5)
N1 N 0.3477(7) 1.1875(8) 0.1206(6)
N2 N 0.3691(8) 0.9179(8) 0.2126(6)
N3 N -0.0923(7) 0.6356(8) 0.1825(5)
N4 N -0.2007(9) 0.3489(9) 0.2236(6)
C1 C 0.376(2) 1.1798(15) 0.2311(11)
C2 C 0.3188(18) 1.0419(16) 0.2587(10)
C3 C 0.365(2) 1.023(2) 0.3768(10)
C4 C 0.356(3) 1.153(3) 0.4320(14)
C5 C 0.410(3) 1.292(3) 0.3988(13)
C6 C 0.366(2) 1.316(2) 0.2862(12)
C7 C 0.0006(11) 0.5307(14) 0.2573(7)
C8 C -0.0914(13) 0.4312(14) 0.2994(8)
C9 C -0.118(3) 0.471(3) 0.3839(12)
C10 C 0.003(2) 0.542(3) 0.4683(11)
C11 C 0.079(2) 0.657(3) 0.4225(17)
C12 C 0.109(2) 0.611(3) 0.3390(12)
H1 H 0.74620 1.18510 0.25080
O8A O 0.4344(6) 0.7805(6) 0.0381(5)
O10* O 0.9251(6) 0.8970(6) -0.0263(5)
O12A O 0.9211(5) 1.2080(6) 0.0640(5)
Ga1A Ga 0.60740(7) 1.47851(8) -0.07371(6)
Ga2* Ga -0.16543(7) 1.02894(8) 0.03174(6)
Ga2A Ga 0.16543(7) 0.52894(8) -0.03174(6)
#END
