
#######################################################################
#
#                 Cambridge Crystallographic Data Centre
#                                CCDC
#
#######################################################################
#
# If this CIF has been generated from an entry in the Cambridge
# Structural Database, then it will include bibliographic, chemical,
# crystal, experimental, refinement or atomic coordinate data resulting
# from the CCDC's data processing and validation procedures.
#
#######################################################################

data_CSD_CIF_CALDAW
_audit_creation_date 2011-12-12
_audit_creation_method CSD-ConQuest-V1
_database_code_CSD CALDAW
_database_code_depnum_ccdc_archive 'CCDC 855954'
_chemical_formula_sum 'C24 H68 Co7 Cs2 O54'
_chemical_formula_moiety
;
(C24 H32 Co6 O36 4-)n,n(H12 Co1 O6 2+),2n(Cs1 1+),12n(H2 O1)
;
_journal_coeditor_code "IUCr GZ3201"
_journal_coden_Cambridge 591
_journal_volume 67
_journal_year 2011
_journal_page_first m359
_journal_name_full 'Acta Crystallogr.,Sect.C:Cryst.Struct.Commun. '
loop_
_publ_author_name
"L.R.Falvello"
"E.Forcen-Vazquez"
"I.Mayoral"
"M.Tomas"
"F.Palacio"
_chemical_name_systematic
;
catena-(di-cesium(i) hexa-aqua-cobalt(ii) 
(tetrakis(\m~4~-citrato)-octa-aqua-hexa-cobalt(ii)) dodecahydrate)
;
_cell_volume   3097.109
_exptl_crystal_colour 'pink'
_exptl_crystal_density_diffrn 2.036
_exptl_crystal_description 'block'
_diffrn_ambient_temperature 100
#These two values have been output from a single CSD field.
_refine_ls_R_factor_gt 0.0372
_refine_ls_wR_factor_gt 0.0372
_symmetry_cell_setting tetragonal
_symmetry_space_group_name_H-M 'P -4 21 c'
_symmetry_Int_Tables_number 114
loop_
_symmetry_equiv_pos_site_id
_symmetry_equiv_pos_as_xyz
1 x,y,z
2 -x,-y,z
3 y,-x,-z
4 -y,x,-z
5 1/2-x,1/2+y,1/2-z
6 1/2+x,1/2-y,1/2-z
7 1/2-y,1/2-x,1/2+z
8 1/2+y,1/2+x,1/2+z
_cell_length_a 12.5738(1)
_cell_length_b 12.5738(1)
_cell_length_c 19.5895(3)
_cell_angle_alpha 90
_cell_angle_beta 90
_cell_angle_gamma 90
_cell_formula_units_Z 2
loop_
_atom_type_symbol
_atom_type_radius_bond
C 0.68
H 0.23
Co 1.26
Cs 1.94
O 0.68
loop_
_atom_site_label
_atom_site_type_symbol
_atom_site_fract_x
_atom_site_fract_y
_atom_site_fract_z
Co1 Co 0.43328(4) 0.39047(4) 0.55493(3)
O1 O 0.5910(2) 0.4417(2) 0.55095(14)
C1 C 0.6707(3) 0.3870(3) 0.5883(2)
C2 C 0.7240(3) 0.3037(3) 0.5415(2)
O2 O 0.6967(2) 0.2990(2) 0.47954(14)
O3 O 0.7891(3) 0.2410(3) 0.56827(15)
C3 C 0.7557(3) 0.4652(3) 0.6125(2)
H1 H 0.78400 0.50450 0.57260
H2 H 0.81520 0.42520 0.63330
C4 C 0.7115(4) 0.5447(4) 0.6647(2)
O4 O 0.6366(2) 0.6046(2) 0.64869(16)
O5 O 0.7518(3) 0.5467(4) 0.7231(2)
C5 C 0.6226(3) 0.3269(3) 0.6496(2)
H3 H 0.68050 0.30540 0.68100
H4 H 0.57440 0.37520 0.67490
C6 C 0.5616(3) 0.2295(3) 0.6279(2)
O6 O 0.4933(2) 0.2400(2) 0.57999(14)
O7 O 0.5827(2) 0.1428(2) 0.65632(17)
Co2 Co 0.50000 0.00000 0.65049(4)
O8 O 0.3958(3) 0.0553(3) 0.57394(18)
H5 H 0.41910 0.12120 0.55560
H6 H 0.39030 0.01170 0.53390
O9 O 0.4055(3) 0.0674(3) 0.72630(19)
Co3 Co 0.00000 0.00000 0.50000
O10 O 0.1570(2) 0.0513(2) 0.50292(17)
H7 H 0.19120 0.10000 0.48410
H8 H 0.20270 0.00330 0.49770
O11 O 0.00000 0.00000 0.3925(2)
H9 H 0.05610 0.03710 0.36530
Cs1 Cs 0.22000(5) 0.17011(5) 0.65067(3)
O12 O 0.0710(3) 0.3296(3) 0.53776(17)
H10 H 0.05200 0.33690 0.58220
H11 H 0.14320 0.32940 0.52690
O13 O 0.0222(3) 0.3013(3) 0.67913(17)
H12 H -0.02330 0.25140 0.67860
O14 O 0.8722(4) 0.1384(3) 0.6775(2)
H13 H 0.81970 0.17570 0.64930
H14 H 0.83530 0.12840 0.71720
Co1A Co 0.56672(4) -0.39047(4) 0.55493(3)
Co1A* Co 0.56672(4) 0.60953(4) 0.55493(3)
Co1* Co 0.43328(4) -0.60953(4) 0.55493(3)
Co1C Co 0.60953(4) 0.43328(4) 0.44507(3)
Co1B Co 0.39047(4) -0.43328(4) 0.44507(3)
Co1B* Co 0.39047(4) 0.56672(4) 0.44507(3)
O1A O 0.4090(2) -0.4417(2) 0.55095(14)
O1A* O 0.4090(2) 0.5583(2) 0.55095(14)
O1B O 0.4417(2) 0.4090(2) 0.44905(14)
O1* O 0.5910(2) -0.5583(2) 0.55095(14)
O1C O 0.5583(2) -0.4090(2) 0.44905(14)
O1C* O 0.5583(2) 0.5910(2) 0.44905(14)
O1B* O 0.4417(2) -0.5910(2) 0.44905(14)
C1A C 0.3293(3) -0.3870(3) 0.5883(2)
C1A* C 0.3293(3) 0.6130(3) 0.5883(2)
C1B C 0.3870(3) 0.3293(3) 0.4117(2)
C2A C 0.2760(3) -0.3037(3) 0.5415(2)
C2A* C 0.2760(3) 0.6963(3) 0.5415(2)
C2B C 0.3037(3) 0.2760(3) 0.4585(2)
O2A O 0.3033(2) -0.2990(2) 0.47954(14)
O2A* O 0.3033(2) 0.7010(2) 0.47954(14)
O2B O 0.2990(2) 0.3033(2) 0.52046(14)
O2C O 0.7010(2) -0.3033(2) 0.52046(14)
O2C* O 0.7010(2) 0.6967(2) 0.52046(14)
O2B* O 0.2990(2) -0.6967(2) 0.52046(14)
O3A O 0.2109(3) -0.2410(3) 0.56827(15)
O3A* O 0.2109(3) 0.7590(3) 0.56827(15)
O3B O 0.2410(3) 0.2109(3) 0.43173(15)
C3A C 0.2443(3) -0.4652(3) 0.6125(2)
C3A* C 0.2443(3) 0.5348(3) 0.6125(2)
C3B C 0.4652(3) 0.2443(3) 0.3875(2)
H1A H 0.21600 -0.50450 0.57260
H1A* H 0.21600 0.49550 0.57260
H1B H 0.50450 0.21600 0.42740
H2A H 0.18480 -0.42520 0.63330
H2A* H 0.18480 0.57480 0.63330
H2B H 0.42520 0.18480 0.36670
C4A C 0.2885(4) -0.5447(4) 0.6647(2)
C4A* C 0.2885(4) 0.4553(4) 0.6647(2)
C4B C 0.5447(4) 0.2885(4) 0.3353(2)
O4A O 0.3634(2) -0.6046(2) 0.64869(16)
O4A* O 0.3634(2) 0.3954(2) 0.64869(16)
O4B O 0.6046(2) 0.3634(2) 0.35131(16)
O4* O 0.6366(2) -0.3954(2) 0.64869(16)
O5A O 0.2482(3) -0.5467(4) 0.7231(2)
O5A* O 0.2482(3) 0.4533(4) 0.7231(2)
O5B O 0.5467(3) 0.2482(4) 0.2769(2)
C5A C 0.3774(3) -0.3269(3) 0.6496(2)
C5A* C 0.3774(3) 0.6731(3) 0.6496(2)
C5B C 0.3269(3) 0.3774(3) 0.3504(2)
H3A H 0.31950 -0.30540 0.68100
H3A* H 0.31950 0.69460 0.68100
H3B H 0.30540 0.31950 0.31900
H4A H 0.42560 -0.37520 0.67490
H4A* H 0.42560 0.62480 0.67490
H4B H 0.37520 0.42560 0.32510
C6A C 0.4384(3) -0.2295(3) 0.6279(2)
C6A* C 0.4384(3) 0.7705(3) 0.6279(2)
C6B C 0.2295(3) 0.4384(3) 0.3721(2)
O6A O 0.5067(2) -0.2400(2) 0.57999(14)
O6A* O 0.5067(2) 0.7600(2) 0.57999(14)
O6B O 0.2400(2) 0.5067(2) 0.42001(14)
O6* O 0.4933(2) -0.7600(2) 0.57999(14)
O7A O 0.4173(2) -0.1428(2) 0.65632(17)
O7A* O 0.4173(2) 0.8572(2) 0.65632(17)
O7B O 0.1428(2) 0.4173(2) 0.34368(17)
O7* O 0.5827(2) 1.1428(2) 0.65632(17)
Co2* Co 0.50000 1.00000 0.65049(4)
Co2B Co 0.00000 0.50000 0.34951(4)
O8A O 0.6042(3) -0.0553(3) 0.57394(18)
O8A* O 0.6042(3) 0.9447(3) 0.57394(18)
O8* O 0.3958(3) 1.0553(3) 0.57394(18)
H5A H 0.58090 -0.12120 0.55560
H5A* H 0.58090 0.87880 0.55560
H5* H 0.41910 1.12120 0.55560
H6A H 0.60970 -0.01170 0.53390
H6A* H 0.60970 0.98830 0.53390
H6* H 0.39030 1.01170 0.53390
O9A O 0.5945(3) -0.0674(3) 0.72630(19)
O9A* O 0.5945(3) 0.9326(3) 0.72630(19)
O9* O 0.4055(3) 1.0674(3) 0.72630(19)
O10A O -0.1570(2) -0.0513(2) 0.50292(17)
O10B O 0.0513(2) -0.1570(2) 0.49708(17)
O10C O -0.0513(2) 0.1570(2) 0.49708(17)
H7A H -0.19120 -0.10000 0.48410
H7B H 0.10000 -0.19120 0.51590
H7C H -0.10000 0.19120 0.51590
H8A H -0.20270 -0.00330 0.49770
H8B H 0.00330 -0.20270 0.50230
H8C H -0.00330 0.20270 0.50230
O11B O 0.00000 0.00000 0.6075(2)
H9A H -0.05610 -0.03710 0.36530
H9B H 0.03710 -0.05610 0.63470
H9C H -0.03710 0.05610 0.63470
#END
