
#######################################################################
#
#                 Cambridge Crystallographic Data Centre
#                                CCDC
#
#######################################################################
#
# If this CIF has been generated from an entry in the Cambridge
# Structural Database, then it will include bibliographic, chemical,
# crystal, experimental, refinement or atomic coordinate data resulting
# from the CCDC's data processing and validation procedures.
#
#######################################################################

data_CSD_CIF_CALDIE01
_audit_creation_date 2012-11-07
_audit_creation_method CSD-ConQuest-V1
_database_code_CSD CALDIE01
_database_code_depnum_ccdc_archive 'CCDC 866845'
_chemical_formula_sum 'C59 H68 Co2 N6 O25'
_chemical_formula_moiety
;
(C13 H16 N2 2+)n,n(C46 H42 Co2 N4 O20 2-),5n(H2 O1)
;
_journal_coden_Cambridge 1295
_journal_volume 20
_journal_year 2012
_journal_page_first 290
_journal_name_full 'Inorg.Chem.Commun. '
loop_
_publ_author_name
"Geng-Geng Luo"
"Sheng-Hui Wu"
"Qing-Hua Zhao"
"Dong-Xu Li"
"Zi-Jing Xiao"
"Jing-Cao Dai"
_chemical_name_systematic
;
catena-[4,4'-Propane-1,3-diyldipyridinium 
bis(\m~2~-5-carboxybenzene-1,2,4-tricarboxylato)-bis(\m~2~-4,4'-propane-1,3-di
yldipyridine)-tetra-aqua-di-cobalt(ii) pentahydrate]
;
_cell_volume   3089.667
_exptl_crystal_density_diffrn 1.478
_diffrn_ambient_temperature 293
#These two values have been output from a single CSD field.
_refine_ls_R_factor_gt 0.0472
_refine_ls_wR_factor_gt 0.0472
_symmetry_cell_setting monoclinic
_symmetry_space_group_name_H-M 'P 2/n'
_symmetry_Int_Tables_number 13
loop_
_symmetry_equiv_pos_site_id
_symmetry_equiv_pos_as_xyz
1 x,y,z
2 1/2-x,y,1/2-z
3 -x,-y,-z
4 -1/2+x,-y,-1/2+z
_cell_length_a 18.198(4)
_cell_length_b 9.3723(19)
_cell_length_c 18.236(4)
_cell_angle_alpha 90
_cell_angle_beta 96.60(3)
_cell_angle_gamma 90
_cell_formula_units_Z 2
loop_
_atom_type_symbol
_atom_type_radius_bond
C 0.68
H 0.23
Co 1.26
N 0.68
O 0.68
loop_
_atom_site_label
_atom_site_type_symbol
_atom_site_fract_x
_atom_site_fract_y
_atom_site_fract_z
Co1 Co -0.50000 0.00000 0.50000
Co2 Co -0.50000 0.00000 1.00000
C1 C -0.42320(13) 0.1627(2) 0.63972(12)
C2 C -0.44342(12) 0.2657(2) 0.69896(12)
C3 C -0.46936(14) 0.2024(3) 0.76002(12)
H1 H -0.46350 0.10460 0.76690
C4 C -0.50387(13) 0.2810(2) 0.81128(12)
C5 C -0.53528(13) 0.1923(2) 0.86973(12)
C6 C -0.51111(13) 0.4282(2) 0.80211(12)
C7 C -0.54895(15) 0.5219(3) 0.85297(13)
C8 C -0.48154(15) 0.4928(2) 0.74310(12)
H2 H -0.48410 0.59150 0.73840
C9 C -0.44826(13) 0.4142(2) 0.69101(12)
C10 C -0.41894(15) 0.4924(3) 0.62780(14)
C11 C -0.44283(16) 0.1240(3) 0.36401(14)
H3 H -0.48820 0.09010 0.34230
C12 C -0.39912(16) 0.1991(3) 0.32097(14)
H4 H -0.41460 0.21370 0.27110
C13 C -0.33189(16) 0.2529(3) 0.35221(15)
C14 C -0.31015(17) 0.2208(3) 0.42539(15)
H5 H -0.26410 0.24990 0.44780
C15 C -0.35741(16) 0.1451(3) 0.46487(15)
H6 H -0.34250 0.12660 0.51440
C16 C -0.28478(19) 0.3412(3) 0.30595(17)
H7 H -0.24600 0.38810 0.33810
H8 H -0.31520 0.41440 0.28000
C17 C -0.25000 0.2489(4) 0.25000
H9 H -0.21260 0.18880 0.27540
C18 C -0.58511(18) 0.2341(3) 1.06912(17)
H10 H -0.54960 0.29040 1.05030
C19 C -0.6309(2) 0.2977(4) 1.11278(18)
H11 H -0.62520 0.39380 1.12480
C20 C -0.6862(3) 0.2187(5) 1.13935(19)
C21 C -0.6924(2) 0.0756(5) 1.1190(2)
H12 H -0.72990 0.01930 1.13430
C22 C -0.6422(2) 0.0184(3) 1.0756(2)
H13 H -0.64630 -0.07760 1.06280
C23 C -0.7392(4) 0.2891(8) 1.1863(3)
H14 H -0.72170 0.38530 1.19730
H15 H -0.78690 0.29710 1.15670
C24 C -0.75000 0.2265(12) 1.25000
H16 H -0.79190 0.16490 1.23900
C25 C 0.60967(16) 0.6361(4) 0.43262(16)
H17 H 0.56010 0.61630 0.43600
C26 C 0.62889(16) 0.7236(4) 0.37730(15)
H18 H 0.59230 0.76090 0.34280
C27 C 0.70225(14) 0.7565(3) 0.37284(12)
C28 C 0.75405(16) 0.6983(3) 0.42534(16)
H19 H 0.80390 0.71900 0.42450
C29 C 0.73228(17) 0.6097(3) 0.47907(16)
H20 H 0.76750 0.57030 0.51430
C30 C 0.72382(15) 0.8492(3) 0.31133(13)
H21 H 0.76320 0.91350 0.33050
H22 H 0.68170 0.90620 0.29130
C31 C 0.75000 0.7564(4) 0.25000
H23 H 0.79000 0.69640 0.27030
N1 N -0.42325(12) 0.0971(2) 0.43588(11)
N2 N -0.58780(14) 0.0952(2) 1.05129(13)
N3 N 0.66097(12) 0.5801(2) 0.48077(11)
H24 H 0.64820 0.52320 0.51410
O1 O -0.47067(10) 0.15413(18) 0.58399(9)
O2 O -0.41238(10) -0.12932(18) 0.55219(9)
H25 H -0.39860 -0.06710 0.58480
H26 H -0.42070 -0.20700 0.57380
O3 O -0.36645(10) 0.0863(2) 0.6533(1)
O4 O -0.58577(11) -0.1039(2) 0.92837(10)
H27 H -0.57810 -0.17460 0.90110
H28 H -0.58890 -0.02890 0.90200
O5 O -0.49404(10) 0.17350(18) 0.92982(9)
O6 O 0.27760(14) -0.3399(3) 0.10986(15)
H29 H 0.27770 -0.29900 0.15150
H30 H 0.23430 -0.37200 0.09720
O7 O -0.59649(11) 0.1364(2) 0.85199(11)
O8 O 0.25000 -0.2156(4) 0.25000
H31 H 0.21900 -0.16270 0.22430
O9 O -0.56878(13) 0.4558(2) 0.91127(10)
H32 H -0.58120 0.51320 0.94380
O10 O -0.10921(13) -0.6160(2) 0.51864(11)
H33 H -0.07650 -0.67810 0.53250
H34 H -0.14470 -0.62550 0.54480
O11 O -0.55964(14) 0.64729(19) 0.84204(10)
O12 O -0.44108(15) 0.6148(2) 0.61460(14)
O13 O -0.37402(11) 0.4261(2) 0.59221(10)
Co1A Co 0.00000 0.00000 0.00000
Co2A Co -1.00000 0.00000 1.50000
Co2* Co -0.50000 0.00000 0.00000
C1B C -0.57680(13) -0.1627(2) 0.36028(12)
C2B C -0.55658(12) -0.2657(2) 0.30104(12)
C3B C -0.53064(14) -0.2024(3) 0.23998(12)
H1B H -0.53650 -0.10460 0.23310
C4B C -0.49613(13) -0.2810(2) 0.18872(12)
C5B C -0.46472(13) -0.1923(2) 0.13027(12)
C6B C -0.48889(13) -0.4282(2) 0.19789(12)
C7B C -0.45105(15) -0.5219(3) 0.14703(13)
C8B C -0.51846(15) -0.4928(2) 0.25690(12)
H2B H -0.51590 -0.59150 0.26160
C9B C -0.55174(13) -0.4142(2) 0.30899(12)
C10B C -0.58106(15) -0.4924(3) 0.37220(14)
C11A C -0.05717(16) 0.1240(3) 0.13599(14)
H3A H -0.01180 0.09010 0.15770
C12A C -0.10088(16) 0.1991(3) 0.17903(14)
H4A H -0.08540 0.21370 0.22890
C13A C -0.16811(16) 0.2529(3) 0.14779(15)
C14A C -0.18985(17) 0.2208(3) 0.07461(15)
H5A H -0.23590 0.24990 0.05220
C15A C -0.14259(16) 0.1451(3) 0.03513(15)
H6A H -0.15750 0.12660 -0.01440
C16A C -0.21522(19) 0.3412(3) 0.19405(17)
H7A H -0.25400 0.38810 0.16190
H8A H -0.18480 0.41440 0.22000
H9A H -0.28740 0.18880 0.22460
C18A C -0.91489(18) 0.2341(3) 1.43088(17)
H10A H -0.95040 0.29040 1.44970
C19A C -0.8691(2) 0.2977(4) 1.38722(18)
H11A H -0.87480 0.39380 1.37520
C20A C -0.8138(3) 0.2187(5) 1.36065(19)
C21A C -0.8076(2) 0.0756(5) 1.3810(2)
H12A H -0.77010 0.01930 1.36570
C22A C -0.8578(2) 0.0184(3) 1.4244(2)
H13A H -0.85370 -0.07760 1.43720
C23A C -0.7608(4) 0.2891(8) 1.3137(3)
H14A H -0.77830 0.38530 1.30270
H15A H -0.71310 0.29710 1.34330
H16A H -0.70810 0.16490 1.26100
C25A C 0.89033(16) 0.6361(4) 0.06738(16)
H17A H 0.93990 0.61630 0.06400
C26A C 0.87111(16) 0.7236(4) 0.12270(15)
H18A H 0.90770 0.76090 0.15720
C27A C 0.79775(14) 0.7565(3) 0.12716(12)
C28A C 0.74595(16) 0.6983(3) 0.07466(16)
H19A H 0.69610 0.71900 0.07550
C29A C 0.76772(17) 0.6097(3) 0.02093(16)
H20A H 0.73250 0.57030 -0.01430
C30A C 0.77618(15) 0.8492(3) 0.18867(13)
H21A H 0.73680 0.91350 0.16950
H22A H 0.81830 0.90620 0.20870
H23A H 0.71000 0.69640 0.22970
N1A N -0.07675(12) 0.0971(2) 0.06412(11)
N1B N -0.57675(12) -0.0971(2) 0.56412(11)
N2A N -0.91220(14) 0.0952(2) 1.44871(13)
N2B N -0.41220(14) -0.0952(2) 0.94871(13)
N3A N 0.83903(12) 0.5801(2) 0.01923(11)
H24A H 0.85180 0.52320 -0.01410
O1B O -0.52933(10) -0.15413(18) 0.41601(9)
O2B O -0.58762(10) 0.12932(18) 0.44781(9)
H25B H -0.60140 0.06710 0.41520
H26B H -0.57930 0.20700 0.42620
O3B O -0.63355(10) -0.0863(2) 0.3467(1)
O4B O -0.41423(11) 0.1039(2) 1.07163(10)
H27B H -0.42190 0.17460 1.09890
H28B H -0.41110 0.02890 1.09800
O5B O -0.50596(10) -0.17350(18) 0.07018(9)
O5B* O -0.50596(10) -0.17350(18) 1.07018(9)
O7B O -0.40351(11) -0.1364(2) 0.14801(11)
H31A H 0.28100 -0.16270 0.27570
O9B O -0.43122(13) -0.4558(2) 0.08873(10)
H32B H -0.41880 -0.51320 0.05620
O11B O -0.44036(14) -0.64729(19) 0.15796(10)
O12B O -0.55892(15) -0.6148(2) 0.38540(14)
O13B O -0.62598(11) -0.4261(2) 0.40779(10)
#END
