
#######################################################################
#
#                 Cambridge Crystallographic Data Centre
#                                CCDC
#
#######################################################################
#
# If this CIF has been generated from an entry in the Cambridge
# Structural Database, then it will include bibliographic, chemical,
# crystal, experimental, refinement or atomic coordinate data resulting
# from the CCDC's data processing and validation procedures.
#
#######################################################################

data_CSD_CIF_CALDIE
_audit_creation_date 2011-12-12
_audit_creation_method CSD-ConQuest-V1
_database_code_CSD CALDIE
_database_code_depnum_ccdc_archive 'CCDC 855956'
_chemical_formula_sum 'C59 H68 Co2 N6 O25'
_chemical_formula_moiety
;
(C46 H42 Co2 N4 O20 2-)n,n(C13 H16 N2 2+),5n(H2 O1)
;
_journal_coeditor_code "IUCr GG3260"
_journal_coden_Cambridge 591
_journal_volume 67
_journal_year 2011
_journal_page_first m367
_journal_name_full 'Acta Crystallogr.,Sect.C:Cryst.Struct.Commun. '
loop_
_publ_author_name
"A.M.Atria"
"G.Corsini"
"M.T.Garland"
"R.Baggio"
_chemical_name_systematic
;
catena-(4,4'-(propane-1,3-diyl)dipyridinium 
bis(\m~2~-benzene-1,2,4,5-tetracarboxylato)-bis(\m~2~-1,3-bis(4-pyridyl)propan
e)-tetra-aqua-di-cobalt(ii) pentahydrate)
;
_cell_volume   3055.548
_exptl_crystal_colour 'pink'
_exptl_crystal_density_diffrn 1.499
_exptl_crystal_description 'blocks'
_diffrn_ambient_temperature 150
_refine_special_details
;
The structure is disordered by symmetry.

;
#These two values have been output from a single CSD field.
_refine_ls_R_factor_gt 0.0423
_refine_ls_wR_factor_gt 0.0423
_symmetry_cell_setting monoclinic
_symmetry_space_group_name_H-M 'P 2/n'
_symmetry_Int_Tables_number 13
loop_
_symmetry_equiv_pos_site_id
_symmetry_equiv_pos_as_xyz
1 x,y,z
2 1/2-x,y,1/2-z
3 -x,-y,-z
4 -1/2+x,-y,-1/2+z
_cell_length_a 18.068(4)
_cell_length_b 9.346(2)
_cell_length_c 18.209(4)
_cell_angle_alpha 90
_cell_angle_beta 96.421(6)
_cell_angle_gamma 90
_cell_formula_units_Z 2
loop_
_atom_type_symbol
_atom_type_radius_bond
C 0.68
H 0.23
Co 1.26
N 0.68
O 0.68
loop_
_atom_site_label
_atom_site_type_symbol
_atom_site_fract_x
_atom_site_fract_y
_atom_site_fract_z
Co1 Co 0.50000 0.50000 0.50000
Co2 Co 0.50000 0.50000 1.00000
C1 C 0.48876(11) 0.9303(2) 0.80253(11)
C2 C 0.51798(12) 0.9948(2) 0.74278(11)
H1 H 0.51470 1.09580 0.73730
C3 C 0.55188(11) 0.9152(2) 0.69085(11)
C4 C 0.55714(10) 0.7659(2) 0.69914(10)
C5 C 0.53088(11) 0.7028(2) 0.7606(1)
H2 H 0.53710 0.60270 0.76790
C6 C 0.49583(10) 0.7817(2) 0.81157(10)
C7 C 0.45052(11) 1.0234(2) 0.85379(11)
C8 C 0.58081(11) 0.9933(2) 0.62667(12)
C9 C 0.57758(11) 0.6627(2) 0.64005(10)
C10 C 0.46370(11) 0.6936(2) 0.87045(11)
O1 O 0.43006(9) 0.95596(17) 0.91189(9)
H3 H 0.412(2) 1.019(4) 0.940(2)
O2 O 0.43995(10) 1.15004(16) 0.84260(8)
O3 O 0.55778(10) 1.11596(17) 0.6130(1)
O4 O 0.62654(8) 0.92567(16) 0.59127(8)
O5 O 0.52941(8) 0.65433(15) 0.58418(7)
O6 O 0.63449(8) 0.58587(15) 0.65347(8)
O7 O 0.40241(8) 0.63738(16) 0.85238(8)
O8 O 0.50545(8) 0.67515(15) 0.93073(7)
N1 N 0.42304(10) 0.40110(19) 0.56384(9)
C11 C 0.35708(12) 0.3509(2) 0.53401(12)
H4 H 0.34180 0.37020 0.48340
C12 C 0.30992(13) 0.2720(3) 0.57354(12)
H5 H 0.26310 0.24010 0.55040
C13 C 0.33181(12) 0.2400(2) 0.64724(12)
C14 C 0.39948(12) 0.2965(2) 0.67882(12)
H6 H 0.41550 0.28100 0.72970
C15 C 0.44278(12) 0.3745(2) 0.63604(11)
H7 H 0.48880 0.41150 0.65850
C16 C 0.28542(13) 0.1503(2) 0.69342(13)
H8 H 0.31720 0.07600 0.71970
H9 H 0.24570 0.10160 0.66080
C17 C 0.25000 0.2426(3) 0.75000
H10 H 0.21160 0.30490 0.72330
N2 N 0.58874(10) 0.4057(2) 0.94744(10)
C18 C 0.64402(14) 0.4857(3) 0.92498(15)
H11 H 0.64700 0.58380 0.93870
C19 C 0.69665(16) 0.4311(4) 0.88271(16)
H12 H 0.73490 0.49130 0.86840
C20 C 0.69341(17) 0.2887(4) 0.86127(15)
C21 C 0.63620(16) 0.2066(3) 0.88507(14)
H13 H 0.63130 0.10870 0.87130
C22 C 0.58662(14) 0.2673(3) 0.92862(13)
H14 H 0.54950 0.20820 0.94590
C23 C 0.7470(5) 0.1788(8) 0.8258(4)
H15? H 0.78240 0.13600 0.86510
H16? H 0.71720 0.10070 0.80050
C24 C 0.7900(4) 0.2585(8) 0.7702(3)
H17? H 0.84300 0.28350 0.78360
H18? H 0.77060 0.25940 0.71710
C25? C 0.7545(3) 0.2613(8) 0.8086(3)
H19? H 0.79510 0.25720 0.84990
H20? H 0.74040 0.15950 0.80110
N3 N 0.33837(10) 0.91781(19) 0.51918(10)
H21 H 0.3508(16) 0.977(3) 0.4789(16)
C26 C 0.26605(12) 0.8888(2) 0.52268(12)
H22 H 0.22930 0.93140 0.48810
C27 C 0.24461(12) 0.7982(2) 0.57579(12)
H23 H 0.19330 0.77780 0.57760
C28 C 0.29807(11) 0.7362(2) 0.62699(11)
C29 C 0.37223(12) 0.7688(3) 0.62167(12)
H24 H 0.41020 0.72910 0.65600
C30 C 0.39095(12) 0.8588(3) 0.56664(12)
H25 H 0.44190 0.87880 0.56260
C31 C 0.27622(11) 0.6424(2) 0.68812(11)
H26 H 0.31940 0.58360 0.70810
H27 H 0.23570 0.57700 0.66830
C32 C 0.25000 0.7334(3) 0.75000
H28 H 0.20860 0.79580 0.72910
O9 O 0.58851(9) 0.37203(18) 0.55185(8)
H29 H 0.5811(15) 0.289(3) 0.5697(15)
H30 H 0.6096(17) 0.423(4) 0.5848(18)
O10 O 0.41393(9) 0.39625(19) 0.92896(9)
H31 H 0.4003(19) 0.463(4) 0.8990(19)
H32 H 0.4199(18) 0.328(4) 0.9049(18)
O11 O 0.89175(11) 0.88639(18) 0.52078(9)
H33 H 0.9245(17) 0.822(3) 0.5367(16)
H34 H 0.8595(18) 0.876(3) 0.5461(17)
O12 O 0.77770(12) 0.8425(3) 0.61098(14)
H35 H 0.781(2) 0.821(4) 0.653(2)
H36 H 0.7302(19) 0.860(3) 0.6073(17)
O13 O 0.75000 0.7177(3) 0.75000
H37 H 0.7834(17) 0.672(3) 0.7726(18)
Co1A Co 0.00000 0.50000 1.00000
Co2A Co 1.00000 0.50000 0.50000
Co2* Co 0.50000 0.50000 0.00000
C1B C 0.51124(11) 0.0697(2) 0.19747(11)
C2B C 0.48202(12) 0.0052(2) 0.25722(11)
H1B H 0.48530 -0.09580 0.26270
C3B C 0.44812(11) 0.0848(2) 0.30915(11)
C4B C 0.44286(10) 0.2341(2) 0.30086(10)
C5B C 0.46912(11) 0.2972(2) 0.2394(1)
H2B H 0.46290 0.39730 0.23210
C6B C 0.50417(10) 0.2183(2) 0.18843(10)
C7B C 0.54948(11) -0.0234(2) 0.14621(11)
C8B C 0.41919(11) 0.0067(2) 0.37333(12)
C9B C 0.42242(11) 0.3373(2) 0.35995(10)
C10B C 0.53630(11) 0.3064(2) 0.12955(11)
O1B O 0.56994(9) 0.04404(17) 0.08811(9)
H3B H 0.588(2) -0.019(4) 0.060(2)
O2B O 0.56005(10) -0.15004(16) 0.15740(8)
O3B O 0.44222(10) -0.11596(17) 0.3870(1)
O4B O 0.37346(8) 0.07433(16) 0.40873(8)
O5B O 0.47059(8) 0.34567(15) 0.41582(7)
O6B O 0.36551(8) 0.41413(15) 0.34653(8)
O7B O 0.59759(8) 0.36262(16) 0.14762(8)
O8B O 0.49455(8) 0.32485(15) 0.06927(7)
O8B* O 0.49455(8) 0.32485(15) 1.06927(7)
N1A N 0.07696(10) 0.40110(19) 0.93616(9)
N1B N 0.57696(10) 0.59890(19) 0.43616(9)
C11A C 0.14292(12) 0.3509(2) 0.96599(12)
H4A H 0.15820 0.37020 1.01660
C12A C 0.19008(13) 0.2720(3) 0.92646(12)
H5A H 0.23690 0.24010 0.94960
C13A C 0.16819(12) 0.2400(2) 0.85276(12)
C14A C 0.10052(12) 0.2965(2) 0.82118(12)
H6A H 0.08450 0.28100 0.77030
C15A C 0.05722(12) 0.3745(2) 0.86396(11)
H7A H 0.01120 0.41150 0.84150
C16A C 0.21458(13) 0.1503(2) 0.80658(13)
H8A H 0.18280 0.07600 0.78030
H9A H 0.25430 0.10160 0.83920
H10A H 0.28840 0.30490 0.77670
N2A N 0.91126(10) 0.4057(2) 0.55256(10)
N2B N 0.41126(10) 0.5943(2) 1.05256(10)
C18A C 0.85598(14) 0.4857(3) 0.57502(15)
H11A H 0.85300 0.58380 0.56130
C19A C 0.80335(16) 0.4311(4) 0.61729(16)
H12A H 0.76510 0.49130 0.63160
C20A C 0.80659(17) 0.2887(4) 0.63873(15)
C21A C 0.86380(16) 0.2066(3) 0.61493(14)
H13A H 0.86870 0.10870 0.62870
C22A C 0.91338(14) 0.2673(3) 0.57138(13)
H14A H 0.95050 0.20820 0.55410
C23A C 0.7530(5) 0.1788(8) 0.6742(4)
C24A C 0.7100(4) 0.2585(8) 0.7298(3)
N3A N 0.16163(10) 0.91781(19) 0.98082(10)
H21A H 0.1492(16) 0.977(3) 1.0211(16)
C26A C 0.23395(12) 0.8888(2) 0.97732(12)
H22A H 0.27070 0.93140 1.01190
C27A C 0.25539(12) 0.7982(2) 0.92421(12)
H23A H 0.30670 0.77780 0.92240
C28A C 0.20193(11) 0.7362(2) 0.87301(11)
C29A C 0.12777(12) 0.7688(3) 0.87833(12)
H24A H 0.08980 0.72910 0.84400
C30A C 0.10905(12) 0.8588(3) 0.93336(12)
H25A H 0.05810 0.87880 0.93740
C31A C 0.22378(11) 0.6424(2) 0.81188(11)
H26A H 0.18060 0.58360 0.79190
H27A H 0.26430 0.57700 0.83170
H28A H 0.29140 0.79580 0.77090
O9B O 0.41149(9) 0.62797(18) 0.44815(8)
H29B H 0.4189(15) 0.711(3) 0.4303(15)
H30B H 0.3904(17) 0.577(4) 0.4152(18)
O10B O 0.58607(9) 0.60375(19) 1.07104(9)
H31B H 0.5997(19) 0.537(4) 1.1010(19)
H32B H 0.5801(18) 0.672(4) 1.0951(18)
H37A H 0.7166(17) 0.672(3) 0.7274(18)
#END
