
#######################################################################
#
#                 Cambridge Crystallographic Data Centre
#                                CCDC
#
#######################################################################
#
# If this CIF has been generated from an entry in the Cambridge
# Structural Database, then it will include bibliographic, chemical,
# crystal, experimental, refinement or atomic coordinate data resulting
# from the CCDC's data processing and validation procedures.
#
#######################################################################

data_CSD_CIF_CANXAS
_audit_creation_date 2012-08-21
_audit_creation_method CSD-ConQuest-V1
_database_code_CSD CANXAS
_database_code_depnum_ccdc_archive 'CCDC 822841'
_chemical_formula_sum 'C16 H40 N2 Na1 O24 V5'
_chemical_formula_moiety
;
(C16 H40 N2 Na1 O10 2+)n,n(O14 V5 2-)
;
_journal_coden_Cambridge 603
_journal_volume 31
_journal_year 2012
_journal_page_first 401
_journal_name_full 'Jiegou Huaxue(Chin.)(Chin.J.Struct.Chem.) '
loop_
_publ_author_name
"Wen-Tao Xu"
"Lian Chen"
"Fei-Long Jiang"
"Mao-Chun Hong"
_chemical_name_systematic
;
catena-(bis(\m~2~-1,3-Dihydroxy-N,N-bis(2-hydroxyethyl)-2-(hydroxymethyl)propa
n-2-aminium)-sodium 
(\m~6~-oxo)-bis(\m~3~-oxo)-heptakis(\m~2~-oxo)-tetraoxo-penta-vanadium)
;
_cell_volume   5960.002
_exptl_crystal_colour 'yellow'
_exptl_crystal_density_diffrn 2.055
_exptl_crystal_description 'prism'
_diffrn_ambient_temperature 293
#These two values have been output from a single CSD field.
_refine_ls_R_factor_gt 0.0283
_refine_ls_wR_factor_gt 0.0283
_symmetry_cell_setting orthorhombic
_symmetry_space_group_name_H-M 'C m c a'
_symmetry_Int_Tables_number 64
loop_
_symmetry_equiv_pos_site_id
_symmetry_equiv_pos_as_xyz
1 x,y,z
2 -x,1/2-y,1/2+z
3 x,-y,-z
4 -x,1/2+y,1/2-z
5 1/2+x,1/2+y,z
6 1/2-x,-y,1/2+z
7 1/2+x,1/2-y,-z
8 1/2-x,y,1/2-z
9 -x,-y,-z
10 x,-1/2+y,-1/2-z
11 -x,y,z
12 x,-1/2-y,-1/2+z
13 -1/2-x,-1/2-y,-z
14 -1/2+x,y,-1/2-z
15 -1/2-x,-1/2+y,z
16 -1/2+x,-y,-1/2+z
_cell_length_a 23.752(2)
_cell_length_b 13.5360(8)
_cell_length_c 18.5377(11)
_cell_angle_alpha 90
_cell_angle_beta 90
_cell_angle_gamma 90
_cell_formula_units_Z 8
loop_
_atom_type_symbol
_atom_type_radius_bond
C 0.68
H 0.23
N 0.68
Na 1.66
O 0.68
V 1.28
loop_
_atom_site_label
_atom_site_type_symbol
_atom_site_fract_x
_atom_site_fract_y
_atom_site_fract_z
V1 V 0.00000 0.09732(3) 0.55272(2)
V2 V 0.093677(12) 0.06846(2) 0.434824(16)
V3 V 0.00000 0.04588(4) 0.31893(2)
V4 V 0.00000 0.22772(3) 0.41661(3)
O1 O 0.07852(5) 0.07239(9) 0.53966(7)
O2 O 0.07756(5) 0.04151(11) 0.34060(7)
O3 O 0.00000 0.06035(12) 0.44210(8)
O4 O 0.00000 0.09553(14) 0.64392(10)
O5 O 0.07762(6) 0.20044(10) 0.42629(7)
O6 O 0.00000 0.21720(13) 0.52756(10)
O7 O 0.00000 0.18076(15) 0.32428(10)
O8 O 0.16149(6) 0.06899(12) 0.43519(8)
O9 O 0.00000 0.02638(19) 0.23384(10)
O10 O 0.00000 0.34495(17) 0.40763(15)
O11 O 0.34347(5) 0.04292(10) 0.26188(7)
O12 O 0.25536(6) 0.08662(12) 0.35696(8)
N1 N 0.34999(6) 0.20886(10) 0.34727(8)
O13 O 0.35649(7) 0.26889(12) 0.19604(8)
C1 C 0.40430(8) 0.23707(14) 0.30942(11)
H1 H 0.43050 0.26720 0.34470
H2 H 0.42240 0.17690 0.28970
O14 O 0.25338(7) 0.33960(11) 0.32343(8)
O15 O 0.37229(7) 0.13410(12) 0.51373(8)
C2 C 0.39650(9) 0.10768(15) 0.44619(11)
H3 H 0.41330 0.04100 0.45010
H4 H 0.42710 0.15470 0.43450
C3 C 0.29519(8) 0.08228(14) 0.41412(10)
H5 H 0.29570 0.01510 0.43510
H6 H 0.28450 0.12950 0.45250
C4 C 0.33174(9) 0.29318(14) 0.39634(11)
H7 H 0.34260 0.27660 0.44650
H8 H 0.35280 0.35340 0.38240
C5 C 0.37144(8) 0.02974(12) 0.32939(10)
H9 H 0.41260 0.03410 0.32190
H10 H 0.36280 -0.03690 0.34840
C6 C 0.26969(9) 0.31641(15) 0.39497(11)
H11 H 0.24800 0.25880 0.41250
H12 H 0.26170 0.37310 0.42710
C7 C 0.39348(9) 0.30893(14) 0.24912(11)
H13 H 0.37680 0.37000 0.26920
H14 H 0.42970 0.32670 0.22610
C8 C 0.35326(7) 0.10800(12) 0.38500(9)
Na1 Na 0.25000 -0.01000(8) 0.25000
H15 H 0.3243(9) 0.2046(16) 0.3109(12)
H16 H 0.3675(9) 0.044(2) 0.2292(12)
H17 H 0.3886(11) 0.1838(16) 0.5336(14)
H18 H 0.2230(8) 0.090(2) 0.3780(15)
H19 H 0.3780(11) 0.241(2) 0.1634(13)
H20 H 0.2194(9) 0.316(2) 0.3183(17)
V1B V 0.00000 -0.09732(3) 0.44728(2)
V2J V -0.093677(12) 0.06846(2) 0.434824(16)
V2B V 0.093677(12) -0.06846(2) 0.565176(16)
V2H V -0.093677(12) -0.06846(2) 0.565176(16)
V3B V 0.00000 -0.04588(4) 0.68107(2)
O1J O -0.07852(5) 0.07239(9) 0.53966(7)
O1B O 0.07852(5) -0.07239(9) 0.46034(7)
O1H O -0.07852(5) -0.07239(9) 0.46034(7)
O2J O -0.07756(5) 0.04151(11) 0.34060(7)
O3B O 0.00000 -0.06035(12) 0.55790(8)
O4B O 0.00000 -0.09553(14) 0.35608(10)
O5J O -0.07762(6) 0.20044(10) 0.42629(7)
O8J O -0.16149(6) 0.06899(12) 0.43519(8)
O11I O 0.34347(5) -0.45708(10) 0.23812(7)
O11G O 0.15653(5) 0.04292(10) 0.23812(7)
O12I O 0.25536(6) -0.41338(12) 0.14304(8)
O12G O 0.24464(6) 0.08662(12) 0.14304(8)
N1I N 0.34999(6) -0.29114(10) 0.15273(8)
O13I O 0.35649(7) -0.23111(12) 0.30396(8)
C1I C 0.40430(8) -0.26293(14) 0.19058(11)
H1I H 0.43050 -0.23280 0.15530
H2I H 0.42240 -0.32310 0.21030
O14I O 0.25338(7) -0.16040(11) 0.17657(8)
O14N O 0.24662(7) -0.16040(11) 0.32343(8)
O15I O 0.37229(7) -0.36590(12) -0.01373(8)
C2I C 0.39650(9) -0.39232(15) 0.05381(11)
H3I H 0.41330 -0.45900 0.04990
H4I H 0.42710 -0.34530 0.06550
C3I C 0.29519(8) -0.41772(14) 0.08588(10)
H5I H 0.29570 -0.48490 0.06490
H6I H 0.28450 -0.37050 0.04750
C4I C 0.33174(9) -0.20682(14) 0.10366(11)
H7I H 0.34260 -0.22340 0.05350
H8I H 0.35280 -0.14660 0.11760
C5I C 0.37144(8) -0.47026(12) 0.17061(10)
H9I H 0.41260 -0.46590 0.17810
H10I H 0.36280 -0.53690 0.15160
C6I C 0.26969(9) -0.18359(15) 0.10503(11)
H11I H 0.24800 -0.24120 0.08750
H12I H 0.26170 -0.12690 0.07290
C7I C 0.39348(9) -0.19107(14) 0.25088(11)
H13I H 0.37680 -0.13000 0.23080
H14I H 0.42970 -0.17330 0.27390
C8I C 0.35326(7) -0.39200(12) 0.11500(9)
Na1I Na 0.25000 0.49000(8) 0.25000
Na1I* Na 0.25000 -0.51000(8) 0.25000
H15I H 0.3243(9) -0.2954(16) 0.1891(12)
H16I H 0.3675(9) -0.456(2) 0.2708(12)
H16G H 0.1325(9) 0.044(2) 0.2708(12)
H17I H 0.3886(11) -0.3162(16) -0.0336(14)
H18I H 0.2230(8) -0.410(2) 0.1220(15)
H18G H 0.2770(8) 0.090(2) 0.1220(15)
H19I H 0.3780(11) -0.259(2) 0.3366(13)
H20I H 0.2194(9) -0.184(2) 0.1817(17)
H20N H 0.2806(9) -0.184(2) 0.3183(17)
#END
