
#######################################################################
#
#                 Cambridge Crystallographic Data Centre
#                                CCDC
#
#######################################################################
#
# If this CIF has been generated from an entry in the Cambridge
# Structural Database, then it will include bibliographic, chemical,
# crystal, experimental, refinement or atomic coordinate data resulting
# from the CCDC's data processing and validation procedures.
#
#######################################################################

data_CSD_CIF_CANYIA03
_audit_creation_date 2015-02-11
_audit_creation_method CSD-ConQuest-V1
_database_code_CSD CANYIA03
_database_code_depnum_ccdc_archive 'CCDC 1011991'
_chemical_formula_sum 'C38 H54 Cu2 N4 O18'
_chemical_formula_moiety
;
(H3 O1 1+)2n,n(C38 H40 Cu2 N4 O12 2-),4n(H2 O1)
;
_journal_coden_Cambridge 580
_journal_volume 87
_journal_year 2015
_journal_page_first 390
_journal_name_full 'Polyhedron '
loop_
_publ_author_name
"Qiong Wu"
"Na Xing"
"Xin Liu"
"Liting Xu"
"Xitong Ma"
"Zhidan Yan"
"Yongheng Xing"
_chemical_name_systematic
;
catena-[bis(Oxonium) tris(\m~2~-adipato)-bis(2,2'-bipyridine)-di-copper 
tetrahydrate]
;
_cell_volume   1093.824
_exptl_crystal_colour 'blue'
_exptl_crystal_density_diffrn 1.491
_exptl_crystal_description 'block'
_diffrn_ambient_temperature 293
#These two values have been output from a single CSD field.
_refine_ls_R_factor_gt 0.0296
_refine_ls_wR_factor_gt 0.0296
_symmetry_cell_setting triclinic
_symmetry_space_group_name_H-M 'P -1'
_symmetry_Int_Tables_number 2
loop_
_symmetry_equiv_pos_site_id
_symmetry_equiv_pos_as_xyz
1 x,y,z
2 -x,-y,-z
_cell_length_a 9.6255(5)
_cell_length_b 9.9447(5)
_cell_length_c 12.7880(7)
_cell_angle_alpha 70.918(1)
_cell_angle_beta 73.714(1)
_cell_angle_gamma 75.645(1)
_cell_formula_units_Z 1
loop_
_atom_type_symbol
_atom_type_radius_bond
C 0.68
H 0.23
Cu 1.32
N 0.68
O 0.68
loop_
_atom_site_label
_atom_site_type_symbol
_atom_site_fract_x
_atom_site_fract_y
_atom_site_fract_z
Cu1 Cu 0.20661(3) 0.33711(2) 0.16535(2)
C1 C 0.2115(2) 0.5615(2) -0.05920(19)
H1 H 0.15430 0.50910 -0.07320
C2 C 0.2482(3) 0.6848(3) -0.1403(2)
H2 H 0.21630 0.71540 -0.20790
C3 C 0.3328(3) 0.7623(3) -0.1200(2)
H3 H 0.36030 0.84540 -0.17420
C4 C 0.3766(3) 0.7153(2) -0.0176(2)
H4 H 0.43300 0.76710 -0.00210
C5 C 0.3356(2) 0.5905(2) 0.06121(18)
C6 C 0.3745(2) 0.5300(2) 0.17349(18)
C7 C 0.4496(3) 0.5955(3) 0.2149(2)
H5 H 0.47940 0.68300 0.17170
C8 C 0.4799(3) 0.5298(3) 0.3211(2)
H6 H 0.52990 0.57300 0.35030
C9 C 0.4358(3) 0.4004(3) 0.3831(2)
H7 H 0.45620 0.35420 0.45450
C10 C 0.3606(3) 0.3400(3) 0.33759(19)
H8 H 0.33080 0.25220 0.37940
C11 C -0.0625(2) -0.5033(2) 0.32814(19)
C12 C -0.0965(3) -0.3685(2) 0.3665(2)
H9 H -0.12760 -0.39380 0.44850
H10 H -0.17730 -0.30310 0.33530
C13 C 0.1929(2) 0.2033(2) 0.01481(18)
C14 C 0.1166(3) 0.1529(3) -0.05007(19)
H11 H 0.18740 0.12390 -0.11290
H12 H 0.04310 0.23120 -0.08050
C15 C 0.0433(2) 0.0253(2) 0.02923(19)
H13 H 0.11690 -0.05190 0.05840
H14 H -0.02690 0.05500 0.09100
C16 C 0.0901(3) 0.0869(2) 0.32215(18)
C17 C 0.1255(3) -0.0711(2) 0.3252(2)
H15 H 0.18510 -0.12260 0.38080
H16 H 0.18440 -0.08000 0.25180
C18 C -0.0065(2) -0.1443(2) 0.35355(19)
H17 H -0.07690 -0.08290 0.30900
H18 H -0.05340 -0.15610 0.43300
C19 C 0.0351(2) -0.2915(2) 0.33018(19)
H19 H 0.08020 -0.28000 0.25140
H20 H 0.10320 -0.35340 0.37540
N1 N 0.25501(18) 0.51345(18) 0.03952(15)
N2 N 0.32915(19) 0.40404(19) 0.23510(15)
O1 O -0.0026(2) -0.50647(17) 0.23180(14)
O2 O -0.1042(3) -0.61635(18) 0.40715(15)
O3 O 0.10887(17) 0.27793(17) 0.07957(14)
O4 O 0.32810(18) 0.1693(2) 0.00618(15)
O5 O 0.1989(2) 0.15437(17) 0.28246(16)
O6 O -0.0383(2) 0.14284(17) 0.35654(15)
O7 O 0.4958(2) 0.9525(2) 0.16244(17)
H21 H 0.47450 0.96140 0.22930
H22 H 0.58860 0.93870 0.13900
H23 H 0.45790 1.02900 0.11880
O8 O 0.4516(3) 0.1228(3) 0.6195(2)
H24 H 0.53090 0.06260 0.61110
H25 H 0.46820 0.19490 0.63300
O9 O 0.6693(3) 0.0678(3) 0.4342(2)
H26 H 0.73740 0.01440 0.39990
H27 H 0.70450 0.13370 0.44170
C13A C -0.1929(2) -0.2033(2) -0.01481(18)
C14A C -0.1166(3) -0.1529(3) 0.05007(19)
H11A H -0.18740 -0.12390 0.11290
H12A H -0.04310 -0.23120 0.08050
C15A C -0.0433(2) -0.0253(2) -0.02923(19)
H13A H -0.11690 0.05190 -0.05840
H14A H 0.02690 -0.05500 -0.09100
O3A O -0.10887(17) -0.27793(17) -0.07957(14)
O4A O -0.32810(18) -0.1693(2) -0.00618(15)
Cu1A Cu -0.20661(3) -0.33711(2) -0.16535(2)
C1A C -0.2115(2) -0.5615(2) 0.05920(19)
H1A H -0.15430 -0.50910 0.07320
C2A C -0.2482(3) -0.6848(3) 0.1403(2)
H2A H -0.21630 -0.71540 0.20790
C3A C -0.3328(3) -0.7623(3) 0.1200(2)
H3A H -0.36030 -0.84540 0.17420
C4A C -0.3766(3) -0.7153(2) 0.0176(2)
H4A H -0.43300 -0.76710 0.00210
C5A C -0.3356(2) -0.5905(2) -0.06121(18)
C6A C -0.3745(2) -0.5300(2) -0.17349(18)
C7A C -0.4496(3) -0.5955(3) -0.2149(2)
H5A H -0.47940 -0.68300 -0.17170
C8A C -0.4799(3) -0.5298(3) -0.3211(2)
H6A H -0.52990 -0.57300 -0.35030
C9A C -0.4358(3) -0.4004(3) -0.3831(2)
H7A H -0.45620 -0.35420 -0.45450
C10A C -0.3606(3) -0.3400(3) -0.33759(19)
H8A H -0.33080 -0.25220 -0.37940
C11A C 0.0625(2) 0.5033(2) -0.32814(19)
C12A C 0.0965(3) 0.3685(2) -0.3665(2)
H9A H 0.12760 0.39380 -0.44850
H10A H 0.17730 0.30310 -0.33530
C16A C -0.0901(3) -0.0869(2) -0.32215(18)
C17A C -0.1255(3) 0.0711(2) -0.3252(2)
H15A H -0.18510 0.12260 -0.38080
H16A H -0.18440 0.08000 -0.25180
C18A C 0.0065(2) 0.1443(2) -0.35355(19)
H17A H 0.07690 0.08290 -0.30900
H18A H 0.05340 0.15610 -0.43300
C19A C -0.0351(2) 0.2915(2) -0.33018(19)
H19A H -0.08020 0.28000 -0.25140
H20A H -0.10320 0.35340 -0.37540
N1A N -0.25501(18) -0.51345(18) -0.03952(15)
N2A N -0.32915(19) -0.40404(19) -0.23510(15)
O1A O 0.0026(2) 0.50647(17) -0.23180(14)
O2A O 0.1042(3) 0.61635(18) -0.40715(15)
O5A O -0.1989(2) -0.15437(17) -0.28246(16)
O6A O 0.0383(2) -0.14284(17) -0.35654(15)
Cu1* Cu 0.20661(3) -0.66289(2) 0.16535(2)
Cu1A* Cu -0.20661(3) 0.66289(2) -0.16535(2)
O1* O -0.0026(2) 0.49353(17) 0.23180(14)
O1A* O 0.0026(2) -0.49353(17) -0.23180(14)
#END
