
#######################################################################
#
#                 Cambridge Crystallographic Data Centre
#                                CCDC
#
#######################################################################
#
# If this CIF has been generated from an entry in the Cambridge
# Structural Database, then it will include bibliographic, chemical,
# crystal, experimental, refinement or atomic coordinate data resulting
# from the CCDC's data processing and validation procedures.
#
#######################################################################

data_CSD_CIF_CAPQOC
_audit_creation_date 2017-01-07
_audit_creation_method CSD-ConQuest-V1
_database_code_CSD CAPQOC
_database_code_depnum_ccdc_archive 'CCDC 1490697'
_chemical_formula_sum 'C48 H92 Cr2 Cu2 Mo12 N12 O66'
_chemical_formula_moiety
;
(C16 H34 Cr2 Cu1 Mo12 N4 O52 2-)n,n(C16 H26 Cu1 N4 O6),C16 H20 N4 O2 2+,6(H2 
O1)
;
_journal_coden_Cambridge 580
_journal_volume 124
_journal_year 2017
_journal_page_first 30
_journal_name_full 'Polyhedron '
loop_
_publ_author_name
"Xiu-Li Wang"
"Junjun Sun"
"Hongyan Lin"
"Zhihan Chang"
"Xue Bai"
"Xiang Wang"
_chemical_name_systematic
;
catena-[4,4'-(butane-1,4-diyldicarbamoyl)di(pyridin-1-ium) 
(\m-N,N'-(butane-1,4-diyl)di(pyridine-4-carboxamide))-tetra-aqua-copper 
dodecakis(\m-hydroxo)-tetradecakis(\m-oxido)-(\m-N,N'-(butane-1,4-diyl)di(pyri
dine-4-carboxamide))-diaqua-docosaoxo-di-chromium-copper-dodeca-molybdenum 
hexahydrate]
;
_cell_volume   2529.761
_exptl_crystal_colour 'blue'
_exptl_crystal_density_diffrn 2.15
_exptl_crystal_description 'BLOCK'
_diffrn_ambient_temperature 296
#These two values have been output from a single CSD field.
_refine_ls_R_factor_gt 0.0722
_refine_ls_wR_factor_gt 0.0722
_symmetry_cell_setting triclinic
_symmetry_space_group_name_H-M 'P -1'
_symmetry_Int_Tables_number 2
loop_
_symmetry_equiv_pos_site_id
_symmetry_equiv_pos_as_xyz
1 x,y,z
2 -x,-y,-z
_cell_length_a 10.2440(19)
_cell_length_b 15.663(3)
_cell_length_c 17.150(3)
_cell_angle_alpha 105.122(4)
_cell_angle_beta 98.004(4)
_cell_angle_gamma 103.050(4)
_cell_formula_units_Z 1
loop_
_atom_type_symbol
_atom_type_radius_bond
C 0.68
H 0.23
Cr 1.39
Cu 1.32
Mo 1.54
N 0.68
O 0.68
loop_
_atom_site_label
_atom_site_type_symbol
_atom_site_fract_x
_atom_site_fract_y
_atom_site_fract_z
Mo1 Mo 0.22597(10) 0.20743(7) -0.06953(6)
Cu1 Cu 0.00000 0.00000 0.00000
Cr1 Cr 0.20424(18) 0.41493(12) -0.07826(11)
O1 O 0.1432(9) 0.1426(5) -0.0149(5)
N1 N -0.0101(10) 0.0740(7) 0.1127(6)
C1 C -0.0099(12) 0.0409(9) 0.1764(8)
H1 H 0.00450 -0.01690 0.16980
O2 O -0.1651(8) 0.0278(5) -0.0451(5)
H2 H -0.20280 0.07100 -0.04450
H3 H -0.22330 -0.02240 -0.07430
Mo2 Mo 0.08430(11) 0.43261(8) -0.26406(7)
C2 C -0.0300(14) 0.0879(9) 0.2524(7)
H4 H -0.03130 0.06090 0.29470
O3 O 0.4914(8) 0.4404(6) 0.1596(5)
N2 N -0.0237(12) 0.3138(7) 0.3739(6)
H5 H 0.02630 0.34030 0.34600
Mo3 Mo 0.33298(10) 0.38733(7) 0.09708(7)
C3 C -0.0476(14) 0.1717(8) 0.2647(8)
O4 O 0.3646(9) 0.4744(5) 0.0138(5)
Mo4 Mo 0.10484(11) 0.23073(8) -0.24930(7)
C4 C -0.0418(14) 0.2094(9) 0.2009(8)
H6 H -0.04980 0.26870 0.20810
O5 O 0.3773(7) 0.2961(5) 0.0171(5)
Mo5 Mo 0.16799(11) 0.61082(7) -0.09605(8)
O6 O 0.1528(7) 0.3327(5) -0.0118(5)
C5 C -0.0239(13) 0.1589(8) 0.1261(8)
H7 H -0.02150 0.18520 0.08340
Mo6 Mo 0.30001(10) 0.58977(8) 0.08542(8)
O7 O 0.0729(8) 0.1833(5) -0.1573(5)
C6 C -0.0717(14) 0.2223(9) 0.3481(8)
O8 O 0.2765(7) 0.3150(5) -0.1360(5)
C7 C -0.0531(17) 0.3697(9) 0.4470(9)
H8 H -0.02430 0.34960 0.49390
H9 H -0.15110 0.36200 0.43960
C8 C 0.0198(13) 0.4694(8) 0.4641(7)
H10 H -0.00220 0.48770 0.41510
H11 H 0.11800 0.47770 0.47650
O9 O 0.0433(7) 0.3543(5) -0.1724(5)
O10 O 0.1669(8) 0.3340(6) -0.2890(5)
O11 O 0.3338(9) 0.6457(6) -0.0033(6)
O12 O 0.2544(7) 0.4931(5) -0.1475(5)
O13 O -0.0754(9) 0.3859(7) -0.3253(7)
O14 O 0.1737(10) 0.5031(7) -0.3102(7)
O15 O 0.2012(9) 0.6536(6) 0.1313(6)
O16 O 0.2413(8) 0.4889(5) 0.1311(5)
O17 O 0.3207(9) 0.1444(6) -0.1200(5)
O18 O 0.0283(8) 0.5259(6) -0.1826(6)
O19 O 0.1306(10) 0.5140(6) -0.0223(6)
O20 O 0.2468(9) 0.3260(6) 0.1501(5)
O21 O -0.1399(13) 0.1788(7) 0.3853(7)
O22 O -0.0570(9) 0.1841(7) -0.3087(6)
O23 O 0.0769(9) 0.6772(6) -0.0457(7)
O24 O 0.2590(9) 0.6752(6) -0.1456(7)
O25 O 0.4613(8) 0.6428(6) 0.1444(5)
O26 O 0.2039(10) 0.1652(7) -0.2910(6)
Cu2 Cu -0.50000 0.50000 0.50000
N3 N -0.5216(12) 0.3909(7) 0.4055(7)
O27 O -0.356(1) 0.4645(7) 0.5625(6)
H12 H -0.36130 0.43500 0.59760
H13 H -0.33070 0.43310 0.52190
O28 O -0.6698(17) 0.3955(12) 0.5604(10)
H14 H -0.66770 0.34740 0.57430
H15 H -0.72470 0.41990 0.58510
N4 N -0.4949(11) 0.1798(7) 0.1342(6)
H16 H -0.42290 0.22590 0.15040
C9 C -0.4808(15) 0.0307(9) 0.0448(8)
H17 H -0.52780 -0.00120 0.07870
H18 H -0.38290 0.04450 0.06540
C10 C -0.5199(14) 0.1183(10) 0.0505(8)
H19 H -0.46910 0.15060 0.01820
H20 H -0.61660 0.10310 0.02590
C11 C -0.5774(12) 0.1694(9) 0.1882(8)
C12 C -0.5514(12) 0.2463(9) 0.2642(7)
C13 C -0.6327(15) 0.3170(11) 0.3822(10)
H21 H -0.69910 0.31500 0.41410
C14 C -0.6496(14) 0.2438(9) 0.3114(9)
H22 H -0.72660 0.19350 0.29620
C15 C -0.4272(19) 0.3898(11) 0.3628(11)
H23 H -0.34860 0.43900 0.38120
O29 O -0.6772(10) 0.1030(7) 0.1720(6)
C16 C -0.4349(15) 0.3208(10) 0.2921(9)
H24 H -0.36400 0.32400 0.26360
O30 O 0.1717(9) 0.4248(6) 0.2942(6)
H25 H 0.19610 0.41980 0.24820
H26 H 0.22460 0.47390 0.32890
N5 N -0.7280(18) -0.0159(13) 0.4556(10)
H27 H -0.73920 -0.07430 0.43800
N6 N -0.4499(16) -0.0924(13) 0.2468(8)
H28 H -0.40960 -0.11550 0.20910
C17 C -0.646(2) 0.0328(15) 0.4258(12)
C18 C -0.474(2) 0.0321(14) 0.3399(14)
H29 H -0.44480 0.09530 0.36530
C19 C -0.410(2) -0.0043(17) 0.2831(14)
H30 H -0.33800 0.03280 0.26950
C20 C -0.553(2) -0.1490(17) 0.2663(13)
H31 H -0.57880 -0.21210 0.24020
O31 O -0.620(2) 0.1134(11) 0.4476(13)
C21 C -0.617(2) -0.1100(14) 0.3264(12)
H32 H -0.68650 -0.14750 0.34170
C22 C -0.5802(16) -0.0184(12) 0.3630(9)
C23 C -0.807(2) 0.0160(19) 0.5172(13)
H33 H -0.77380 0.08210 0.54210
H34 H -0.79920 -0.01310 0.56050
C24 C -0.953(2) -0.0110(18) 0.4707(12)
H35 H -0.98170 -0.07630 0.44150
H36 H -0.96030 0.02190 0.43020
O32 O -0.1846(11) 0.1593(7) -0.1128(8)
H37 H -0.13520 0.14420 -0.14710
H38 H -0.18580 0.21440 -0.10870
O33 O -0.7890(15) -0.2073(9) 0.4623(8)
H39 H -0.82280 -0.25830 0.42430
H40 H -0.74620 -0.21790 0.50330
N1A N 0.0101(10) 0.9260(7) 0.8873(6)
C1A C 0.0099(12) 0.9591(9) 0.8236(8)
H1A H -0.00450 1.01690 0.83020
C2A C 0.0300(14) 0.9121(9) 0.7476(7)
H4A H 0.03130 0.93910 0.70530
N2A N 0.0237(12) 0.6862(7) 0.6261(6)
H5A H -0.02630 0.65970 0.65400
C3A C 0.0476(14) 0.8283(8) 0.7353(8)
C4A C 0.0418(14) 0.7906(9) 0.7991(8)
H6A H 0.04980 0.73130 0.79190
C5A C 0.0239(13) 0.8411(8) 0.8739(8)
H7A H 0.02150 0.81480 0.91660
C6A C 0.0717(14) 0.7777(9) 0.6519(8)
C7A C 0.0531(17) 0.6303(9) 0.5530(9)
H8A H 0.02430 0.65040 0.50610
H9A H 0.15110 0.63800 0.56040
C8A C -0.0198(13) 0.5306(8) 0.5359(7)
H10A H 0.00220 0.51230 0.58490
H11A H -0.11800 0.52230 0.52350
O21A O 0.1399(13) 0.8212(7) 0.6147(7)
Mo1A Mo -0.22597(10) -0.20743(7) 0.06953(6)
Cr1A Cr -0.20424(18) -0.41493(12) 0.07826(11)
O1A O -0.1432(9) -0.1426(5) 0.0149(5)
O2A O 0.1651(8) -0.0278(5) 0.0451(5)
H2A H 0.20280 -0.07100 0.04450
H3A H 0.22330 0.02240 0.07430
Mo2A Mo -0.08430(11) -0.43261(8) 0.26406(7)
O3A O -0.4914(8) -0.4404(6) -0.1596(5)
Mo3A Mo -0.33298(10) -0.38733(7) -0.09708(7)
O4A O -0.3646(9) -0.4744(5) -0.0138(5)
Mo4A Mo -0.10484(11) -0.23073(8) 0.24930(7)
O5A O -0.3773(7) -0.2961(5) -0.0171(5)
Mo5A Mo -0.16799(11) -0.61082(7) 0.09605(8)
O6A O -0.1528(7) -0.3327(5) 0.0118(5)
Mo6A Mo -0.30001(10) -0.58977(8) -0.08542(8)
O7A O -0.0729(8) -0.1833(5) 0.1573(5)
O8A O -0.2765(7) -0.3150(5) 0.1360(5)
O9A O -0.0433(7) -0.3543(5) 0.1724(5)
O10A O -0.1669(8) -0.3340(6) 0.2890(5)
O11A O -0.3338(9) -0.6457(6) 0.0033(6)
O12A O -0.2544(7) -0.4931(5) 0.1475(5)
O13A O 0.0754(9) -0.3859(7) 0.3253(7)
O14A O -0.1737(10) -0.5031(7) 0.3102(7)
O15A O -0.2012(9) -0.6536(6) -0.1313(6)
O16A O -0.2413(8) -0.4889(5) -0.1311(5)
O17A O -0.3207(9) -0.1444(6) 0.1200(5)
O18A O -0.0283(8) -0.5259(6) 0.1826(6)
O19A O -0.1306(10) -0.5140(6) 0.0223(6)
O20A O -0.2468(9) -0.3260(6) -0.1501(5)
O22A O 0.0570(9) -0.1841(7) 0.3087(6)
O23A O -0.0769(9) -0.6772(6) 0.0457(7)
O24A O -0.2590(9) -0.6752(6) 0.1456(7)
O25A O -0.4613(8) -0.6428(6) -0.1444(5)
O26A O -0.2039(10) -0.1652(7) 0.2910(6)
Cu1* Cu 0.00000 1.00000 1.00000
N1A* N 0.0101(10) -0.0740(7) -0.1127(6)
N3A N -0.4784(12) -0.3909(7) -0.4055(7)
N4A N -0.5051(11) -0.1798(7) -0.1342(6)
H16A H -0.57710 -0.22590 -0.15040
C9A C -0.5192(15) -0.0307(9) -0.0448(8)
H17A H -0.47220 0.00120 -0.07870
H18A H -0.61710 -0.04450 -0.06540
C10A C -0.4801(14) -0.1183(10) -0.0505(8)
H19A H -0.53090 -0.15060 -0.01820
H20A H -0.38340 -0.10310 -0.02590
C11A C -0.4226(12) -0.1694(9) -0.1882(8)
C12A C -0.4486(12) -0.2463(9) -0.2642(7)
C13A C -0.3673(15) -0.3170(11) -0.3822(10)
H21A H -0.30090 -0.31500 -0.41410
C14A C -0.3504(14) -0.2438(9) -0.3114(9)
H22A H -0.27340 -0.19350 -0.29620
C15A C -0.5728(19) -0.3898(11) -0.3628(11)
H23A H -0.65140 -0.43900 -0.38120
O29A O -0.3228(10) -0.1030(7) -0.1720(6)
C16A C -0.5651(15) -0.3208(10) -0.2921(9)
H24A H -0.63600 -0.32400 -0.26360
O27A O -0.644(1) 0.5355(7) 0.4375(6)
H12A H -0.63870 0.56500 0.40240
H13A H -0.66930 0.56690 0.47810
O28A O -0.3302(17) 0.6045(12) 0.4396(10)
H14A H -0.33230 0.65260 0.42570
H15A H -0.27530 0.58010 0.41490
Cu2* Cu -0.50000 -0.50000 -0.50000
N3A* N -0.4784(12) 0.6091(7) 0.5945(7)
N5A N -1.2720(18) 0.0159(13) 0.5444(10)
H27A H -1.26080 0.07430 0.56200
N6A N -1.5501(16) 0.0924(13) 0.7532(8)
H28A H -1.59040 0.11550 0.79090
C17A C -1.354(2) -0.0328(15) 0.5742(12)
C18A C -1.526(2) -0.0321(14) 0.6601(14)
H29A H -1.55520 -0.09530 0.63470
C19A C -1.590(2) 0.0043(17) 0.7169(14)
H30A H -1.66200 -0.03280 0.73050
C20A C -1.447(2) 0.1490(17) 0.7337(13)
H31A H -1.42120 0.21210 0.75980
O31A O -1.380(2) -0.1134(11) 0.5524(13)
C21A C -1.383(2) 0.1100(14) 0.6736(12)
H32A H -1.31350 0.14750 0.65830
C22A C -1.4198(16) 0.0184(12) 0.6370(9)
C23A C -1.193(2) -0.0160(19) 0.4828(13)
H33A H -1.22620 -0.08210 0.45790
H34A H -1.20080 0.01310 0.43950
C24A C -1.047(2) 0.0110(18) 0.5293(12)
H35A H -1.01830 0.07630 0.55850
H36A H -1.03970 -0.02190 0.56980
#END
