
#######################################################################
#
#                 Cambridge Crystallographic Data Centre
#                                CCDC
#
#######################################################################
#
# If this CIF has been generated from an entry in the Cambridge
# Structural Database, then it will include bibliographic, chemical,
# crystal, experimental, refinement or atomic coordinate data resulting
# from the CCDC's data processing and validation procedures.
#
#######################################################################

data_CSD_CIF_CAQCAZ
_audit_creation_date 2005-09-21
_audit_creation_method CSD-ConQuest-V1
_database_code_CSD CAQCAZ
_database_code_depnum_ccdc_archive 'CCDC 255012'
_chemical_formula_sum 'C32 H19 In3 N2 O18'
_chemical_formula_moiety
;
(C20 H6 In3 O18 1-)n,n(C12 H13 N2 1+)
;
_journal_coden_Cambridge 1290
_journal_year 2005
_journal_page_first 1927
_journal_name_full 'Eur.J.Inorg.Chem. '
loop_
_publ_author_name
"Zheng-zhong Lin"
"Fei-long Jiang"
"Da-qiang Yuan"
"Lian Chen"
"You-fu Zhou"
"Mao-chun Hong"
_chemical_name_systematic
;
catena-((1-(4-Pyridiumyl)-2-(4-pyridyl)ethane) 
bis(\m~6~-benzene-1,2,4,5-tetracarboxylato)-bis(\m~3~-hydroxo)-tri-indium(iii)
)
;
_cell_volume   1679.372
_exptl_crystal_density_diffrn 2.104
_exptl_special_details
;
isostructural with the 2-picolinium and the 4-picolinium analogues

;
_diffrn_ambient_temperature 173
_refine_special_details
;
Cation molecules are disordered and some atoms could not be located.

;
#These two values have been output from a single CSD field.
_refine_ls_R_factor_gt 0.0753
_refine_ls_wR_factor_gt 0.0753
_symmetry_cell_setting monoclinic
_symmetry_space_group_name_H-M 'P 21/c'
_symmetry_Int_Tables_number 14
loop_
_symmetry_equiv_pos_site_id
_symmetry_equiv_pos_as_xyz
1 x,y,z
2 -x,1/2+y,1/2-z
3 -x,-y,-z
4 x,-1/2-y,-1/2+z
_cell_length_a 7.2104(13)
_cell_length_b 13.637(2)
_cell_length_c 17.379(3)
_cell_angle_alpha 90
_cell_angle_beta 100.657(7)
_cell_angle_gamma 90
_cell_formula_units_Z 2
loop_
_atom_type_symbol
_atom_type_radius_bond
C 0.68
H 0.23
In 1.38
N 0.68
O 0.68
loop_
_atom_site_label
_atom_site_type_symbol
_atom_site_fract_x
_atom_site_fract_y
_atom_site_fract_z
In1 In 0.46697(8) 0.09877(4) 0.44673(4)
In2 In 1.00000 0.00000 0.50000
O1 O 0.5741(9) 0.1584(5) 0.5619(4)
O2 O 0.6809(9) 0.0197(4) 0.6258(4)
O3 O 0.9862(9) 0.1200(4) 0.5738(3)
O4 O 1.2545(9) 0.1113(5) 0.6624(4)
O5 O 1.2322(9) 0.3063(5) 0.9131(4)
O6 O 0.9762(9) 0.4048(5) 0.9003(4)
O7 O 0.6639(10) 0.2808(5) 0.9219(4)
O8 O 0.5323(10) 0.3760(5) 0.8256(4)
O9 O 0.6913(8) -0.0123(4) 0.4713(4)
N1 N 0.812(5) 0.080(3) 0.1140(19)
C1 C 0.7796(12) 0.1702(7) 0.6844(5)
C2 C 0.9762(12) 0.1776(6) 0.6996(5)
C3 C 1.0691(12) 0.2246(7) 0.7659(5)
H1 H 1.20310 0.22670 0.77710
C4 C 0.9651(12) 0.2687(6) 0.8160(5)
C5 C 0.7664(13) 0.2631(7) 0.7999(5)
C6 C 0.6753(12) 0.2141(6) 0.7343(5)
H2 H 0.54150 0.21040 0.72340
C7 C 0.6718(12) 0.1118(7) 0.6175(5)
C8 C 1.0856(13) 0.1329(7) 0.6415(6)
C9 C 1.0640(13) 0.3318(6) 0.8826(5)
C10 C 0.6502(13) 0.3105(7) 0.8525(5)
C11 C 0.949(4) 0.039(3) 0.173(2)
C12 C 1.145(5) 0.043(3) 0.171(2)
C13 C 1.238(5) 0.084(3) 0.115(2)
C14 C 1.102(4) 0.128(3) 0.057(2)
C15 C 0.907(5) 0.124(3) 0.060(2)
C16 C 1.445(5) 0.062(5) 0.140(3)
C17 C 1.549(9) 0.100(5) 0.080(4)
In1B In 1.53303(8) -0.09877(4) 0.55327(4)
In1B* In 0.53303(8) -0.09877(4) 0.55327(4)
In1C In 1.46697(8) 0.40123(4) 0.94673(4)
In1C* In 0.46697(8) 0.40123(4) 0.94673(4)
In1* In 1.46697(8) 0.09877(4) 0.44673(4)
In1A In 0.53303(8) -0.40123(4) 0.05327(4)
In1A* In 1.53303(8) -0.40123(4) 0.05327(4)
In2C In 1.00000 0.50000 1.00000
In2C* In 1.00000 -0.50000 0.00000
O1B O 1.4259(9) -0.1584(5) 0.4381(4)
O2B O 1.3191(9) -0.0197(4) 0.3742(4)
O2B* O 0.3191(9) -0.0197(4) 0.3742(4)
O2* O 1.6809(9) 0.0197(4) 0.6258(4)
O3B O 1.0138(9) -0.1200(4) 0.4262(3)
O4B O 0.7455(9) -0.1113(5) 0.3376(4)
O5B O 0.7678(9) -0.3063(5) 0.0869(4)
O5C O 0.2322(9) 0.1937(5) 0.4131(4)
O5A O 1.7678(9) -0.1937(5) 0.5869(4)
O6B O 1.0238(9) -0.4048(5) 0.0997(4)
O6C O 0.9762(9) 0.0952(5) 0.4003(4)
O6A O 1.0238(9) -0.0952(5) 0.5997(4)
O7B O 1.3361(10) -0.2808(5) 0.0781(4)
O7C O 0.6639(10) 0.2192(5) 0.4219(4)
O7A O 1.3361(10) -0.2192(5) 0.5781(4)
O8B O 1.4677(10) -0.3760(5) 0.1744(4)
O8C O 0.5323(10) 0.1240(5) 0.3256(4)
O8A O 1.4677(10) -0.1240(5) 0.6744(4)
O9B O 1.3087(8) 0.0123(4) 0.5287(4)
O9B* O 0.3087(8) 0.0123(4) 0.5287(4)
O9* O 1.6913(8) -0.0123(4) 0.4713(4)
C1B C 1.2204(12) -0.1702(7) 0.3156(5)
C2B C 1.0238(12) -0.1776(6) 0.3004(5)
C3B C 0.9309(12) -0.2246(7) 0.2341(5)
H1B H 0.79690 -0.22670 0.22290
C4B C 1.0349(12) -0.2687(6) 0.1840(5)
C5B C 1.2336(13) -0.2631(7) 0.2001(5)
C6B C 1.3247(12) -0.2141(6) 0.2657(5)
H2B H 1.45850 -0.21040 0.27660
C7B C 1.3282(12) -0.1118(7) 0.3825(5)
C8B C 0.9144(13) -0.1329(7) 0.3585(6)
C9B C 0.9360(13) -0.3318(6) 0.1174(5)
C10B C 1.3498(13) -0.3105(7) 0.1475(5)
#END
