
#######################################################################
#
#                 Cambridge Crystallographic Data Centre
#                                CCDC
#
#######################################################################
#
# If this CIF has been generated from an entry in the Cambridge
# Structural Database, then it will include bibliographic, chemical,
# crystal, experimental, refinement or atomic coordinate data resulting
# from the CCDC's data processing and validation procedures.
#
#######################################################################

data_CSD_CIF_CARFOT
_audit_creation_date 2017-05-24
_audit_creation_method CSD-ConQuest-V1
_database_code_CSD CARFOT
_database_code_depnum_ccdc_archive 'CCDC 1029824'
_chemical_formula_sum 'C23 H24 Cu2 O13'
_chemical_formula_moiety
;
(C23 H15 Cu2 O9 1-)n,3(H2 O1),H3 O1 1+
;
_journal_coden_Cambridge 29
_journal_volume 643
_journal_year 2017
_journal_page_first 642
_journal_name_full 'Z.Anorg.Allg.Chem. '
loop_
_publ_author_name
"Tian Shi"
"Ya-Guang Chen"
_chemical_name_systematic
;
catena-[oxonium 
(\m-3,5-bis[(4-carboxylatobenzyl)oxy]benzoato)-(\m-oxo)-di-copper trihydrate]
;
_cell_volume   2623.443
_exptl_crystal_colour 'blue'
_exptl_crystal_density_diffrn 1.586
_exptl_crystal_description 'stripe'
_diffrn_ambient_temperature 153
#These two values have been output from a single CSD field.
_refine_ls_R_factor_gt 0.0454
_refine_ls_wR_factor_gt 0.0454
_symmetry_cell_setting monoclinic
_symmetry_space_group_name_H-M 'C 2/c'
_symmetry_Int_Tables_number 15
loop_
_symmetry_equiv_pos_site_id
_symmetry_equiv_pos_as_xyz
1 x,y,z
2 -x,y,1/2-z
3 1/2+x,1/2+y,z
4 1/2-x,1/2+y,1/2-z
5 -x,-y,-z
6 x,-y,-1/2+z
7 -1/2-x,-1/2-y,-z
8 -1/2+x,-1/2-y,-1/2+z
_cell_length_a 17.958(5)
_cell_length_b 25.589(5)
_cell_length_c 5.781(5)
_cell_angle_alpha 90
_cell_angle_beta 99.052(5)
_cell_angle_gamma 90
_cell_formula_units_Z 4
loop_
_atom_type_symbol
_atom_type_radius_bond
C 0.68
H 0.23
Cu 1.32
O 0.68
loop_
_atom_site_label
_atom_site_type_symbol
_atom_site_fract_x
_atom_site_fract_y
_atom_site_fract_z
Cu1 Cu 0.91663(2) 0.021592(14) 1.04711(6)
O1 O 0.86843(14) -0.04608(9) 0.9921(4)
C1 C 0.50000 -0.32827(18) 0.25000
O2 O 0.58810(16) -0.21628(10) 0.5880(5)
C2 C 0.54501(19) -0.30175(13) 0.4324(6)
H1 H 0.57390 -0.31990 0.55400
O3 O 1.00000 -0.01008(12) 1.25000
C3 C 0.54520(19) -0.24737(14) 0.4264(6)
O4 O 0.46009(14) -0.40897(9) 0.0807(4)
C4 C 0.50000 -0.2202(2) 0.25000
H2 H 0.50000 -0.18380 0.25000
O5 O 0.83289(13) -0.05499(9) 1.3440(4)
C5 C 0.6391(2) -0.23974(15) 0.7733(7)
H3 H 0.66730 -0.26770 0.71320
H4 H 0.61190 -0.25410 0.89090
C6 C 0.6911(2) -0.19723(15) 0.8758(6)
C7 C 0.6838(2) -0.17384(17) 1.0854(7)
H5 H 0.64760 -0.18600 1.17090
C8 C 0.7296(2) -0.13237(17) 1.1706(7)
H6 H 0.72430 -0.11720 1.31330
C9 C 0.7831(2) -0.11354(13) 1.0445(6)
C10 C 0.7914(2) -0.13759(16) 0.8364(7)
H7 H 0.82770 -0.12550 0.75080
C11 C 0.7466(3) -0.17918(17) 0.7553(7)
H8 H 0.75370 -0.19550 0.61670
C12 C 0.83144(19) -0.06797(13) 1.1332(6)
C13 C 0.50000 -0.38672(18) 0.25000
O6 O 0.386(2) -0.0302(12) 1.195(8)
O7 O 0.4297(18) -0.0619(13) 0.998(6)
O8 O 0.408(2) -0.0513(13) 0.714(8)
O9 O 0.3413(17) -0.0040(12) 0.927(5)
O10 O 0.465(2) -0.0783(15) 0.487(7)
O1A O 0.13157(14) -0.04608(9) -0.4921(4)
O2A O 0.41190(16) -0.21628(10) -0.0880(5)
C2A C 0.45499(19) -0.30175(13) 0.0676(6)
H1A H 0.42610 -0.31990 -0.05400
C3A C 0.45480(19) -0.24737(14) 0.0736(6)
O4A O 0.53991(14) -0.40897(9) 0.4193(4)
O5A O 0.16711(13) -0.05499(9) -0.8440(4)
C5A C 0.3609(2) -0.23974(15) -0.2733(7)
H3A H 0.33270 -0.26770 -0.21320
H4A H 0.38810 -0.25410 -0.39090
C6A C 0.3089(2) -0.19723(15) -0.3758(6)
C7A C 0.3162(2) -0.17384(17) -0.5854(7)
H5A H 0.35240 -0.18600 -0.67090
C8A C 0.2704(2) -0.13237(17) -0.6706(7)
H6A H 0.27570 -0.11720 -0.81330
C9A C 0.2169(2) -0.11354(13) -0.5445(6)
C10A C 0.2086(2) -0.13759(16) -0.3364(7)
H7A H 0.17230 -0.12550 -0.25080
C11A C 0.2534(3) -0.17918(17) -0.2553(7)
H8A H 0.24630 -0.19550 -0.11670
C12A C 0.16856(19) -0.06797(13) -0.6332(6)
Cu1A Cu 0.08337(2) 0.021592(14) -0.54711(6)
Cu1A* Cu 1.08337(2) 0.021592(14) 1.45289(6)
Cu1B Cu 0.41663(2) -0.478408(14) 0.04711(6)
Cu1C Cu 0.58337(2) -0.478408(14) 0.45289(6)
Cu1D Cu 0.08337(2) -0.021592(14) -1.04711(6)
Cu1D* Cu 1.08337(2) -0.021592(14) 0.95289(6)
Cu1E Cu 0.91663(2) -0.021592(14) 1.54711(6)
O3* O 0.00000 -0.01008(12) -0.75000
O3D O 0.00000 0.01008(12) -0.25000
O3D* O 1.00000 0.01008(12) 0.75000
O4B O 0.96009(14) 0.09103(9) 1.0807(4)
O4C O 0.03991(14) 0.09103(9) -0.5807(4)
O5D O 0.16711(13) 0.05499(9) -0.3440(4)
O5E O 0.83289(13) 0.05499(9) 0.8440(4)
#END
