
#######################################################################
#
#                 Cambridge Crystallographic Data Centre
#                                CCDC
#
#######################################################################
#
# If this CIF has been generated from an entry in the Cambridge
# Structural Database, then it will include bibliographic, chemical,
# crystal, experimental, refinement or atomic coordinate data resulting
# from the CCDC's data processing and validation procedures.
#
#######################################################################

data_CSD_CIF_CARFEJ
_audit_creation_date 2017-05-24
_audit_creation_method CSD-ConQuest-V1
_database_code_CSD CARFEJ
_database_code_depnum_ccdc_archive 'CCDC 865624'
_chemical_formula_sum 'C15 H36 Cu1 N4 O27 Sm2'
_chemical_formula_moiety
;
(C11 H4 O19 Sm2 2-)n,C4 H18 Cu1 N4 O1 2+,7(H2 O1)
;
_journal_coden_Cambridge 29
_journal_volume 643
_journal_year 2017
_journal_page_first 657
_journal_name_full 'Z.Anorg.Allg.Chem. '
loop_
_publ_author_name
"Szu-Yu Ke"
"Chang-Tsung Yeh"
"Chih-Chieh Wang"
"Gene-Hsiang Lee"
"Hwo-Shuenn Sheu"
_chemical_name_systematic
;
catena-[bis(ethane-1,2-diamine)-aqua-copper(ii) 
tris(\m-oxalato)-(\m-cyclopentane-1,2,3,4,5-pentone)-diaqua-di-samarium 
heptahydrate]
;
_cell_volume   1718.016
_exptl_crystal_colour 'red brown'
_exptl_crystal_density_diffrn 2.066
_exptl_crystal_description 'block'
_diffrn_ambient_temperature 150
_refine_special_details
;
C13,N2 and C13',N2' disordered over two sites with occupancies 0.658:0.342; 
C15,N4 and C15',N4' disordered over two sites with occupancies 0.510:0.490.
;
#These two values have been output from a single CSD field.
_refine_ls_R_factor_gt 0.0335
_refine_ls_wR_factor_gt 0.0335
_symmetry_cell_setting monoclinic
_symmetry_space_group_name_H-M 'P 21'
_symmetry_Int_Tables_number 4
loop_
_symmetry_equiv_pos_site_id
_symmetry_equiv_pos_as_xyz
1 x,y,z
2 -x,1/2+y,-z
_cell_length_a 10.0987(7)
_cell_length_b 16.7006(11)
_cell_length_c 11.3692(8)
_cell_angle_alpha 90
_cell_angle_beta 116.365(1)
_cell_angle_gamma 90
_cell_formula_units_Z 2
loop_
_atom_type_symbol
_atom_type_radius_bond
C 0.68
H 0.23
Cu 1.32
N 0.68
O 0.68
Sm 1.98
loop_
_atom_site_label
_atom_site_type_symbol
_atom_site_fract_x
_atom_site_fract_y
_atom_site_fract_z
Sm1 Sm 0.15887(3) -0.261375(17) 0.78856(3)
Sm2 Sm -0.14983(3) -0.230113(19) 1.16850(3)
O1 O -0.0804(6) -0.1611(3) 1.0082(5)
O2 O -0.0064(7) -0.3115(3) 1.0920(6)
O3 O 0.0118(6) -0.1786(3) 0.8631(6)
O4 O 0.0881(6) -0.3290(3) 0.9505(5)
O5 O 0.3519(5) -0.2321(4) 1.0121(4)
O6 O 0.4139(5) -0.2691(3) 0.8126(4)
O7 O 0.6569(5) -0.2564(4) 0.9468(4)
O8 O 0.5926(5) -0.2218(4) 1.1453(4)
O9 O -0.0329(5) -0.1962(3) 1.5946(5)
O10 O 0.1618(5) -0.3007(3) 1.5812(5)
O11 O -0.1539(5) -0.1939(3) 1.3764(4)
O12 O 0.0424(5) -0.2968(3) 1.3616(5)
O13 O -0.0645(5) -0.3539(3) 0.6693(6)
O14 O 0.2297(5) -0.4067(3) 0.8180(5)
O15 O 0.2228(5) -0.5868(3) 0.8509(5)
O16 O -0.0748(5) -0.6375(3) 0.7107(6)
O17 O -0.2642(6) -0.4944(6) 0.5968(10)
O18 O 0.2345(7) -0.1253(4) 0.7632(7)
H1 H 0.17160 -0.08870 0.74120
H2 H 0.31210 -0.09900 0.80700
O19 O -0.2300(7) -0.3657(3) 1.1877(6)
H3 H -0.18640 -0.39910 1.22040
H4 H -0.31810 -0.38760 1.14230
C1 C -0.0185(7) -0.2018(4) 0.9519(7)
C2 C 0.0242(7) -0.2887(4) 1.0019(7)
C3 C 0.4859(6) -0.2342(5) 1.0371(5)
C4 C 0.5235(7) -0.2548(4) 0.9222(6)
C5 C 0.0603(6) -0.2771(4) 1.4741(6)
C6 C -0.0518(6) -0.2168(4) 1.4829(6)
C7 C -0.0297(8) -0.4257(4) 0.6965(8)
C8 C 0.1215(8) -0.4536(4) 0.7746(7)
C9 C 0.1177(7) -0.5385(4) 0.7893(7)
C10 C -0.0357(8) -0.5650(4) 0.7180(7)
C11 C -0.1307(7) -0.4960(6) 0.6600(9)
Cu1 Cu 0.50164(10) -0.25884(8) 1.47170(11)
N1 N 0.6122(9) -0.3276(6) 1.3996(9)
H5 H 0.64790 -0.29590 1.35390
H6 H 0.69170 -0.35080 1.46810
N2 N 0.338(2) -0.3420(11) 1.3851(19)
H7 H 0.34310 -0.38170 1.44290
H8 H 0.24610 -0.31900 1.34970
N3 N 0.3903(8) -0.1866(5) 1.5395(9)
H9 H 0.30530 -0.16820 1.47060
H10 H 0.36420 -0.21460 1.59570
N4 N 0.6772(18) -0.2052(12) 1.6001(19)
H11 H 0.74730 -0.24250 1.64850
H12 H 0.71640 -0.17280 1.55800
C12 C 0.5190(13) -0.3901(7) 1.3131(15)
H13 H 0.53920 -0.39490 1.23580
H14 H 0.54350 -0.44200 1.36020
C13 C 0.380(2) -0.3747(12) 1.274(2)
H15 H 0.32310 -0.42430 1.23690
H16 H 0.34900 -0.33460 1.20270
C14 C 0.4824(12) -0.1212(8) 1.6063(14)
H17 H 0.44450 -0.09410 1.66270
H18 H 0.48570 -0.08170 1.54260
C15 C 0.636(2) -0.1555(18) 1.689(3)
H19 H 0.70810 -0.11160 1.72920
H20 H 0.63510 -0.18910 1.76090
O20 O 0.5532(16) -0.3540(9) 1.6548(15)
H21 H 0.63800 -0.32390 1.69170
H22 H 0.53060 -0.35710 1.71810
N5? N 0.315(4) -0.321(2) 1.337(4)
H23? H 0.23970 -0.32110 1.36150
H24? H 0.28150 -0.30100 1.25320
N6? N 0.654(2) -0.1698(12) 1.547(2)
H25? H 0.74760 -0.18930 1.56980
H26? H 0.63490 -0.12950 1.48650
H27? H 0.46120 -0.10390 1.68120
H28? H 0.45940 -0.07310 1.54720
C16? C 0.396(4) -0.409(2) 1.355(4)
H29? H 0.43810 -0.42800 1.44760
H30? H 0.32650 -0.45020 1.29760
H31? H 0.46140 -0.10560 1.68040
H32? H 0.45970 -0.07470 1.54630
C17? C 0.644(2) -0.140(2) 1.661(3)
H33? H 0.70530 -0.09180 1.69600
H34? H 0.67360 -0.18140 1.73030
O21 O 0.3360(11) -0.1595(9) 1.2314(12)
H35 H 0.24800 -0.17440 1.21240
H36 H 0.36490 -0.17920 1.17730
O22 O 0.5978(13) -0.0709(8) 1.3185(15)
H37 H 0.51580 -0.09210 1.31000
H38 H 0.64180 -0.07580 1.26940
O23 O 0.0283(11) -0.4952(5) 1.0537(10)
H39 H 0.07600 -0.49810 1.13750
H40 H -0.03740 -0.45730 1.03580
O24 O 0.4859(9) -0.5625(5) 1.1008(9)
H41 H 0.40410 -0.58430 1.10380
H42 H 0.49030 -0.58250 1.03420
O25 O 0.2098(11) -0.4649(6) 1.5121(10)
H43 H 0.20380 -0.52020 1.50900
H44 H 0.27530 -0.44900 1.58730
O26 O -0.4628(9) -0.4379(5) 0.9714(9)
H45 H -0.54500 -0.41880 0.91630
H46 H -0.47220 -0.46530 1.03010
O27 O -0.0457(7) -0.4970(4) 1.2719(7)
H47 H 0.03790 -0.47440 1.30890
H48 H -0.07200 -0.50410 1.19060
Sm1* Sm 0.15887(3) -0.261375(17) 1.78856(3)
Sm2* Sm 0.85017(3) -0.230113(19) 1.16850(3)
Sm2A Sm 0.14983(3) -0.730113(19) 0.83150(3)
O7* O -0.3431(5) -0.2564(4) 0.9468(4)
O8* O -0.4074(5) -0.2218(4) 1.1453(4)
O9* O -0.0329(5) -0.1962(3) 0.5946(5)
O10* O 0.1618(5) -0.3007(3) 0.5812(5)
O15A O -0.2228(5) -0.0868(3) 1.1491(5)
O16A O 0.0748(5) -0.1375(3) 1.2893(6)
#END
