
#######################################################################
#
#                 Cambridge Crystallographic Data Centre
#                                CCDC
#
#######################################################################
#
# If this CIF has been generated from an entry in the Cambridge
# Structural Database, then it will include bibliographic, chemical,
# crystal, experimental, refinement or atomic coordinate data resulting
# from the CCDC's data processing and validation procedures.
#
#######################################################################

data_CSD_CIF_CASWUP
_audit_creation_date 2005-12-21
_audit_creation_method CSD-ConQuest-V1
_database_code_CSD CASWUP
_database_code_depnum_ccdc_archive 'CCDC 268273'
_chemical_formula_sum 'C48 H99 Ag8 I2 Mo12 N8 Na4 O94.5'
_chemical_formula_moiety
;
(C48 H58 Ag4 N8 Na4 O26 6+)n,n(H16 Ag4 I2 Mo12 O56 6-),12.5n(H2 O1)
;
_journal_coden_Cambridge 9
_journal_volume 44
_journal_year 2005
_journal_page_first 6062
_journal_name_full 'Inorg.Chem. '
loop_
_publ_author_name
"Haiyan An"
"Yangguang Li"
"Enbo Wang"
"Dongrong Xiao"
"Chunyan Sun"
"Lin Xu"
_chemical_name_systematic
;
catena-(hexakis(\m~3~-Pyridine-4-carboxylic 
acid-N,O,O')-bis(\m~3~-pyridine-4-carboxylato-N,O,O')-deca-aqua-tetra-silver(i
)-tetra-sodium 
bis(\m~10~-hexaoxoiodato)-icosakis(\m~2~-oxo)-octa-aqua-hexadecaoxo-dodeca-mol
ybdenum(vi)-tetra-silver(i) hydrate)
;
_cell_volume   2872.031
_exptl_crystal_colour 'yellow'
_exptl_crystal_density_diffrn 2.691
_exptl_crystal_description 'block'
_diffrn_ambient_temperature 293
#These two values have been output from a single CSD field.
_refine_ls_R_factor_gt 0.0427
_refine_ls_wR_factor_gt 0.0427
_symmetry_cell_setting triclinic
_symmetry_space_group_name_H-M 'P -1'
_symmetry_Int_Tables_number 2
loop_
_symmetry_equiv_pos_site_id
_symmetry_equiv_pos_as_xyz
1 x,y,z
2 -x,-y,-z
_cell_length_a 13.280(3)
_cell_length_b 13.641(3)
_cell_length_c 16.356(3)
_cell_angle_alpha 89.68(3)
_cell_angle_beta 88.31(3)
_cell_angle_gamma 75.87(3)
_cell_formula_units_Z 1
loop_
_atom_type_symbol
_atom_type_radius_bond
C 0.68
H 0.23
Ag 1.48
I 1.40
Mo 1.35
N 0.68
Na 1.69
O 0.73
loop_
_atom_site_label
_atom_site_type_symbol
_atom_site_fract_x
_atom_site_fract_y
_atom_site_fract_z
Na1 Na 0.5819(7) -0.3274(6) 0.5000(7)
Na2 Na 0.9184(6) -0.6724(6) 0.4999(6)
I1 I 0.00000 0.00000 0.00000
I2 I -0.50000 0.00000 0.00000
Ag1 Ag -0.22237(12) -0.11045(14) 0.00003(13)
Ag2 Ag -0.27771(12) 0.11114(15) 0.00007(12)
Ag3 Ag 0.86885(13) -0.47485(10) -0.00008(10)
Ag4 Ag 0.63148(12) -0.52529(10) 0.9999(1)
Mo1 Mo -0.07362(12) -0.12722(10) 0.18894(10)
Mo2 Mo 0.06035(11) -0.24119(9) -0.00003(10)
Mo3 Mo -0.13730(11) 0.12738(10) 0.18898(10)
Mo4 Mo -0.42626(11) 0.12737(10) -0.18908(10)
Mo5 Mo -0.56016(11) 0.24098(9) -0.00008(10)
Mo6 Mo -0.36257(11) -0.12735(10) -0.18908(10)
O1 O -0.0560(9) 0.0007(7) 0.1080(7)
O2 O 0.0956(9) -0.1045(8) 0.2207(9)
O3 O 0.0097(9) -0.2120(7) 0.1110(8)
O4 O 0.0436(9) 0.1042(8) 0.2218(9)
O5 O -0.0582(9) -0.2039(8) 0.2724(8)
O6 O -0.5940(9) 0.1011(8) -0.2209(8)
H1 H -0.645(6) 0.128(8) -0.193(6)
H2 H -0.616(9) 0.133(8) -0.262(4)
O7 O -0.1928(9) -0.1302(8) 0.1545(9)
O8 O -0.5433(10) -0.1017(9) -0.2201(9)
H3 H -0.571(9) -0.123(9) -0.181(5)
H4 H -0.544(10) -0.134(8) -0.262(4)
O9 O 0.1789(10) -0.3203(9) 0.0199(9)
O10 O -0.0199(10) -0.3201(8) -0.0201(9)
O11 O -0.0947(9) 0.2110(7) 0.1118(8)
O12 O 0.1146(8) -0.1028(7) 0.0273(7)
O13 O 0.0625(8) 0.1038(7) 0.0287(8)
O14 O -0.2594(9) 0.1295(8) 0.1548(9)
O15 O -0.1589(10) 0.2037(8) 0.2728(8)
O16 O -0.1102(9) -0.0012(8) 0.2506(8)
O17 O -0.3047(8) 0.1290(7) -0.1555(8)
O18 O -0.5103(9) 0.2125(7) -0.1123(8)
O19 O -0.4461(8) 0.0008(7) -0.1090(7)
O20 O -0.4409(9) 0.2034(8) -0.2732(9)
O21 O -0.3856(7) -0.1021(7) 0.0276(7)
O22 O -0.4361(7) 0.1023(6) 0.0268(7)
O23 O -0.5971(9) 0.2124(7) 0.1124(8)
O24 O -0.4811(11) 0.3185(9) 0.0203(9)
O25 O -0.6784(10) 0.3185(8) -0.0197(9)
O26 O -0.2417(9) -0.1300(8) -0.1552(9)
O27 O -0.3900(8) 0.0001(7) -0.2500(7)
O28 O -0.3377(9) -0.2055(8) -0.2728(8)
O29 O 0.7482(14) -0.3488(10) 0.4183(11)
O30 O 0.7835(11) -0.5161(9) 0.428(1)
O31 O 1.0684(13) -0.6498(8) 0.4161(9)
O32 O 0.9754(11) -0.5165(9) 0.5708(10)
O33 O 0.7178(11) -0.4838(9) 0.572(1)
O34 O 0.7591(15) -0.6488(11) 0.5858(12)
O35 O 0.5255(11) -0.4839(9) 0.4280(9)
O36 O 0.4296(16) -0.3512(13) 0.5832(13)
N1 N 0.8522(12) -0.4692(10) 0.1315(11)
N2 N 0.8826(11) -0.4675(9) 0.8701(11)
N3 N 0.6472(10) -0.5325(9) 0.869(1)
N4 N 0.3805(11) -0.4694(10) 0.8683(10)
C1 C 0.8601(13) -0.5496(12) 0.1800(13)
H5 H 0.88010 -0.61400 0.15740
C2 C 0.8395(15) -0.5391(14) 0.2619(15)
H6 H 0.84800 -0.59670 0.29430
C3 C 0.8057(11) -0.4438(11) 0.2986(11)
C4 C 0.8015(12) -0.3625(11) 0.2473(12)
H7 H 0.78310 -0.29700 0.26810
C5 C 0.8243(13) -0.3783(12) 0.1661(12)
H8 H 0.82010 -0.32210 0.13280
C6 C 0.7748(13) -0.4329(11) 0.3903(10)
C7 C 0.8660(13) -0.3777(13) 0.8351(12)
H9 H 0.84340 -0.32080 0.86810
C8 C 0.8801(14) -0.3639(12) 0.7533(13)
H10 H 0.86480 -0.29940 0.73090
C9 C 0.9182(13) -0.4490(12) 0.7039(12)
C10 C 0.9325(11) -0.5429(9) 0.7358(10)
H11 H 0.95190 -0.60050 0.70320
C11 C 0.9164(13) -0.5489(11) 0.8218(12)
H12 H 0.93000 -0.61250 0.84590
C12 C 1.0609(13) -0.5663(11) 0.3886(12)
C13 C 0.6386(13) -0.4527(12) 0.8219(13)
H13 H 0.61530 -0.38910 0.84580
C14 C 0.6629(11) -0.4578(9) 0.7371(11)
H14 H 0.65950 -0.39950 0.70650
C15 C 0.6908(14) -0.5488(12) 0.7024(13)
C16 C 0.6993(14) -0.6357(13) 0.7518(14)
H15 H 0.72000 -0.69990 0.72880
C17 C 0.6764(13) -0.6244(12) 0.8342(13)
H16 H 0.68130 -0.68160 0.86650
C18 C 0.7230(17) -0.5630(15) 0.6164(16)
C19 C 0.4121(14) -0.5492(13) 0.8200(13)
H17 H 0.42070 -0.61360 0.84220
C20 C 0.4319(15) -0.5395(12) 0.7401(14)
H18 H 0.45830 -0.59790 0.70950
C21 C 0.4148(12) -0.4455(11) 0.7000(12)
C22 C 0.3810(12) -0.3629(11) 0.7499(11)
H19 H 0.37000 -0.29800 0.72840
C23 C 0.3630(12) -0.3767(11) 0.8336(12)
H20 H 0.33820 -0.32000 0.86650
C24 C 0.5563(16) -0.5639(15) 0.3848(16)
O37 O 0.4304(13) -0.2316(11) 0.4403(10)
O38 O 0.6862(14) -0.2322(12) 0.5599(10)
O39 O 0.5332(10) -0.1259(8) 0.4997(8)
O40 O 1.0691(15) -0.7668(13) 0.5614(13)
O41 O 0.8137(15) -0.7683(12) 0.4404(12)
O42 O 0.0237(18) -0.1058(17) 0.4999(15)
O43 O 0.1576(13) -0.1489(11) 0.3798(12)
O44 O 0.6551(15) -0.1497(12) 0.3802(13)
O45 O 0.4173(15) -0.1485(13) -0.3805(14)
O46 O -0.0836(12) -0.1487(9) -0.379(1)
O47 O 0.722(2) 0.000(2) -0.3929(19)
O48 O 0.202(2) 0.000(2) -0.4016(16)
O49 O 0.7901(15) -0.1026(12) 0.5033(11)
O50 O 0.241(3) -0.097(2) 0.493(2)
Na1A Na 1.4181(7) -0.6726(6) 0.5000(7)
Na1A* Na 0.4181(7) -0.6726(6) 0.5000(7)
Na2A Na 1.0816(6) -0.3276(6) 0.5001(6)
Ag1A Ag 0.22237(12) 0.11045(14) -0.00003(13)
Ag1A* Ag -0.77763(12) 0.11045(14) -0.00003(13)
Ag2A Ag 0.27771(12) -0.11114(15) -0.00007(12)
Ag2A* Ag -0.72229(12) -0.11114(15) -0.00007(12)
Ag3* Ag 0.86885(13) -0.47485(10) 0.99992(10)
Ag3A Ag 1.13115(13) -0.52515(10) 1.00008(10)
Ag3A* Ag 1.13115(13) -0.52515(10) 0.00008(10)
Ag4A Ag 0.36852(12) -0.47471(10) 1.0001(1)
Ag4* Ag 0.63148(12) -0.52529(10) -0.0001(1)
Ag4A* Ag 1.36852(12) -0.47471(10) 0.0001(1)
Mo1A Mo 0.07362(12) 0.12722(10) -0.18894(10)
Mo2A Mo -0.06035(11) 0.24119(9) 0.00003(10)
Mo3A Mo 0.13730(11) -0.12738(10) -0.18898(10)
Mo4A Mo -0.57374(11) -0.12737(10) 0.18908(10)
Mo5A Mo -0.43984(11) -0.24098(9) 0.00008(10)
Mo6A Mo -0.63743(11) 0.12735(10) 0.18908(10)
O1A O 0.0560(9) -0.0007(7) -0.1080(7)
O2A O -0.0956(9) 0.1045(8) -0.2207(9)
O3A O -0.0097(9) 0.2120(7) -0.1110(8)
O4A O -0.0436(9) -0.1042(8) -0.2218(9)
O5A O 0.0582(9) 0.2039(8) -0.2724(8)
O6A O -0.4060(9) -0.1011(8) 0.2209(8)
H1A H -0.355(6) -0.128(8) 0.193(6)
H2A H -0.384(9) -0.133(8) 0.262(4)
O7A O 0.1928(9) 0.1302(8) -0.1545(9)
O8A O -0.4567(10) 0.1017(9) 0.2201(9)
H3A H -0.429(9) 0.123(9) 0.181(5)
H4A H -0.456(10) 0.134(8) 0.262(4)
O9A O -0.1789(10) 0.3203(9) -0.0199(9)
O10A O 0.0199(10) 0.3201(8) 0.0201(9)
O11A O 0.0947(9) -0.2110(7) -0.1118(8)
O12A O -0.1146(8) 0.1028(7) -0.0273(7)
O13A O -0.0625(8) -0.1038(7) -0.0287(8)
O14A O 0.2594(9) -0.1295(8) -0.1548(9)
O15A O 0.1589(10) -0.2037(8) -0.2728(8)
O16A O 0.1102(9) 0.0012(8) -0.2506(8)
O17A O -0.6953(8) -0.1290(7) 0.1555(8)
O17A* O 0.3047(8) -0.1290(7) 0.1555(8)
O18A O -0.4897(9) -0.2125(7) 0.1123(8)
O19A O -0.5539(8) -0.0008(7) 0.1090(7)
O20A O -0.5591(9) -0.2034(8) 0.2732(9)
O21A O -0.6144(7) 0.1021(7) -0.0276(7)
O21A* O 0.3856(7) 0.1021(7) -0.0276(7)
O22A O -0.5639(7) -0.1023(6) -0.0268(7)
O22A* O 0.4361(7) -0.1023(6) -0.0268(7)
O23A O -0.4029(9) -0.2124(7) -0.1124(8)
O24A O -0.5189(11) -0.3185(9) -0.0203(9)
O25A O -0.3216(10) -0.3185(8) 0.0197(9)
O26A O -0.7583(9) 0.1300(8) 0.1552(9)
O26A* O 0.2417(9) 0.1300(8) 0.1552(9)
O27A O -0.6100(8) -0.0001(7) 0.2500(7)
O28A O -0.6623(9) 0.2055(8) 0.2728(8)
O29A O 1.2518(14) -0.6512(10) 0.5817(11)
O30A O 1.2165(11) -0.4839(9) 0.572(1)
O31A O 0.9316(13) -0.3502(8) 0.5839(9)
O32A O 1.0246(11) -0.4835(9) 0.4292(10)
O33A O 1.2822(11) -0.5162(9) 0.428(1)
O34A O 1.2409(15) -0.3512(11) 0.4142(12)
O35A O 0.4745(11) -0.5161(9) 0.5720(9)
O35A* O 1.4745(11) -0.5161(9) 0.5720(9)
O36A O 0.5704(16) -0.6488(13) 0.4168(13)
O36A* O 1.5704(16) -0.6488(13) 0.4168(13)
N1A N 1.1478(12) -0.5308(10) 0.8685(11)
N2* N 0.8826(11) -0.4675(9) -0.1299(11)
N2A N 1.1174(11) -0.5325(9) 1.1299(11)
N2A* N 1.1174(11) -0.5325(9) 0.1299(11)
N3A N 1.3528(10) -0.4675(9) 0.131(1)
N4A N 0.6195(11) -0.5306(10) 1.1317(10)
N4A* N 0.6195(11) -0.5306(10) 0.1317(10)
N4* N 1.3805(11) -0.4694(10) -0.1317(10)
C1A C 1.1399(13) -0.4504(12) 0.8200(13)
H5A H 1.11990 -0.38600 0.84260
C2A C 1.1605(15) -0.4609(14) 0.7381(15)
H6A H 1.15200 -0.40330 0.70570
C3A C 1.1943(11) -0.5562(11) 0.7014(11)
C4A C 1.1985(12) -0.6375(11) 0.7527(12)
H7A H 1.21690 -0.70300 0.73190
C5A C 1.1757(13) -0.6217(12) 0.8339(12)
H8A H 1.17990 -0.67790 0.86720
C6A C 1.2252(13) -0.5671(11) 0.6097(10)
C7A C 1.1340(13) -0.6223(13) 0.1649(12)
H9A H 1.15660 -0.67920 0.13190
C8A C 1.1199(14) -0.6361(12) 0.2467(13)
H10A H 1.13520 -0.70060 0.26910
C9A C 1.0818(13) -0.5510(12) 0.2961(12)
C10A C 1.0675(11) -0.4571(9) 0.2642(10)
H11A H 1.04810 -0.39950 0.29680
C11A C 1.0836(13) -0.4511(11) 0.1782(12)
H12A H 1.07000 -0.38750 0.15410
C12A C 0.9391(13) -0.4337(11) 0.6114(12)
C13A C 1.3614(13) -0.5473(12) 0.1781(13)
H13A H 1.38470 -0.61090 0.15420
C14A C 1.3371(11) -0.5422(9) 0.2629(11)
H14A H 1.34050 -0.60050 0.29350
C15A C 1.3092(14) -0.4512(12) 0.2976(13)
C16A C 1.3007(14) -0.3643(13) 0.2482(14)
H15A H 1.28000 -0.30010 0.27120
C17A C 1.3236(13) -0.3756(12) 0.1658(13)
H16A H 1.31870 -0.31840 0.13350
C18A C 1.2770(17) -0.4370(15) 0.3836(16)
C19A C 0.5879(14) -0.4508(13) 0.1800(13)
H17A H 0.57930 -0.38640 0.15780
C20A C 0.5681(15) -0.4605(12) 0.2599(14)
H18A H 0.54170 -0.40210 0.29050
C21A C 0.5852(12) -0.5545(11) 0.3000(12)
C22A C 0.6190(12) -0.6371(11) 0.2501(11)
H19A H 0.63000 -0.70200 0.27160
C23A C 0.6370(12) -0.6233(11) 0.1664(12)
H20A H 0.66180 -0.68000 0.13350
C24A C 0.4437(16) -0.4361(15) 0.6152(16)
O37A O 1.5696(13) -0.7684(11) 0.5597(10)
O38A O 1.3138(14) -0.7678(12) 0.4401(10)
O39A O 1.4668(10) -0.8741(8) 0.5003(8)
O40A O 0.9309(15) -0.2332(13) 0.4386(13)
O41A O 1.1863(15) -0.2317(12) 0.5596(12)
#END
