
#######################################################################
#
#                 Cambridge Crystallographic Data Centre
#                                CCDC
#
#######################################################################
#
# If this CIF has been generated from an entry in the Cambridge
# Structural Database, then it will include bibliographic, chemical,
# crystal, experimental, refinement or atomic coordinate data resulting
# from the CCDC's data processing and validation procedures.
#
#######################################################################

data_CSD_CIF_CAVMIW
_audit_creation_date 2005-12-21
_audit_creation_method CSD-ConQuest-V1
_database_code_CSD CAVMIW
_database_code_depnum_ccdc_archive 'CCDC 284328'
_chemical_formula_sum 'C6 H13 Cl2 Fe2 N1 O11'
_chemical_formula_moiety
;
(C4 H1 Cl2 Fe2 O9 1-)n,n(C2 H8 N1 1+),2n(H2 O1)
;
_journal_coden_Cambridge 4
_journal_volume 127
_journal_year 2005
_journal_page_first 10778
_journal_name_full 'J.Am.Chem.Soc. '
loop_
_publ_author_name
"D.Armentano"
"G.De Munno"
"T.F.Mastropietro"
"F.Lloret"
"M.Julve"
_chemical_name_systematic
;
catena-(Ethylammonium 
bis(\m~2~-oxalato)-(\m~2~-hydroxo)-dichloro-di-iron(iii) dihydrate)
;
_cell_volume   1603.453
_exptl_crystal_colour 'yellow'
_exptl_crystal_density_diffrn 1.896
_exptl_special_details
;
magnetic properties
slightly air-sensitive

;
_exptl_crystal_description 'Rhombus'
_diffrn_ambient_temperature 100
#These two values have been output from a single CSD field.
_refine_ls_R_factor_gt 0.0331
_refine_ls_wR_factor_gt 0.0331
_symmetry_cell_setting monoclinic
_symmetry_space_group_name_H-M 'C c'
_symmetry_Int_Tables_number 9
loop_
_symmetry_equiv_pos_site_id
_symmetry_equiv_pos_as_xyz
1 x,y,z
2 x,-y,1/2+z
3 1/2+x,1/2+y,z
4 1/2+x,1/2-y,1/2+z
_cell_length_a 9.2090(5)
_cell_length_b 14.7120(8)
_cell_length_c 12.5178(6)
_cell_angle_alpha 90
_cell_angle_beta 109.01(3)
_cell_angle_gamma 90
_cell_formula_units_Z 4
loop_
_atom_type_symbol
_atom_type_radius_bond
C 0.68
H 0.23
Cl 0.99
Fe 1.34
N 0.68
O 0.68
loop_
_atom_site_label
_atom_site_type_symbol
_atom_site_fract_x
_atom_site_fract_y
_atom_site_fract_z
Fe1 Fe -0.04710(7) 0.04238(4) 0.33270(5)
Fe2 Fe -0.16837(6) 0.20033(4) 0.10783(5)
Cl1 Cl 0.00501(16) -0.06245(8) 0.22280(11)
Cl2 Cl -0.01569(14) 0.30327(8) 0.2352(1)
O1 O -0.1950(4) 0.1130(2) 0.2098(3)
H1 H -0.29950 0.10020 0.20060
O2 O -0.0477(4) 0.1391(2) 0.4533(3)
O3 O 0.1577(4) 0.1089(2) 0.3610(3)
O4 O 0.1133(4) 0.2444(2) 0.5684(3)
O5 O 0.3205(4) 0.2130(2) 0.4755(3)
O6 O -0.2871(4) -0.1087(2) 0.4741(3)
O7 O 0.0195(4) -0.1393(2) 0.5880(3)
O8 O 0.0750(4) -0.0392(2) 0.4776(3)
O9 O -0.2334(4) -0.0160(2) 0.3549(3)
C1 C 0.0757(6) 0.1847(3) 0.4913(4)
C2 C 0.1951(6) 0.1680(3) 0.4380(4)
C3 C -0.1959(6) -0.0674(3) 0.4390(4)
C4 C -0.0181(6) -0.0825(3) 0.5073(4)
C5 C 0.4238(6) 0.2096(4) 0.2577(5)
H2 H 0.34980 0.24690 0.28100
H3 H 0.43550 0.23740 0.18890
C6 C 0.5809(7) 0.2100(4) 0.3531(5)
H4 H 0.61810 0.27270 0.36840
H5 H 0.65490 0.17410 0.32970
H6 H 0.56930 0.18360 0.42180
N1 N 0.3614(6) 0.1148(3) 0.2308(4)
H7 H 0.26920 0.11690 0.17450
H8 H 0.34870 0.08950 0.29360
H9 H 0.42840 0.08060 0.20810
O10 O -0.6082(4) 0.0385(3) -0.1103(3)
H10 H -0.707(3) 0.063(4) -0.150(5)
H11 H -0.541(5) 0.085(3) -0.120(6)
O11 O -0.4723(4) 0.0160(3) 0.1201(3)
H12 H -0.482(7) 0.004(5) 0.192(2)
H13 H -0.573(3) 0.019(5) 0.067(4)
Fe2C Fe 0.33163(6) 0.29967(4) 0.60783(5)
Fe2A Fe -0.16837(6) -0.20033(4) 0.60783(5)
O4C O -0.3867(4) 0.2556(2) 0.0684(3)
O5C O -0.1795(4) 0.2870(2) -0.0245(3)
O6A O -0.2871(4) 0.1087(2) -0.0259(3)
O7A O 0.0195(4) 0.1393(2) 0.0880(3)
#END
