
#######################################################################
#
#                 Cambridge Crystallographic Data Centre
#                                CCDC
#
#######################################################################
#
# If this CIF has been generated from an entry in the Cambridge
# Structural Database, then it will include bibliographic, chemical,
# crystal, experimental, refinement or atomic coordinate data resulting
# from the CCDC's data processing and validation procedures.
#
#######################################################################

data_CSD_CIF_CAVYON
_audit_creation_date 1984-08-24
_audit_creation_method CSD-ConQuest-V1
_database_code_CSD CAVYON
_database_code_depnum_ccdc_archive 'CCDC 1120904'
_chemical_formula_sum 'C4 H6 K1 O9 Y1'
_chemical_formula_moiety
;
(C4 H6 O9 Y1 1-)n,n(K1 1+)
;
_journal_coden_Cambridge 367
_journal_volume 9
_journal_year 1983
_journal_page_first 986
_journal_name_full 'Koord.Khim.(Russ.)(Coord.Chem.) '
loop_
_publ_author_name
"A.S.Antsyshkina"
"M.A.Porai-Koshits"
"V.N.Ostrikova"
"E.V.Petrova"
_chemical_name_systematic
;
catena-[Potassium aqua-bis(\m~2~-formato)-diformato-yttrium(iii)]
;
_cell_volume    247.323
_exptl_special_details
;
Absolute configuration
x,y,z for K should be negative. x(C4)=-.2671 not -.2631
;
_diffrn_ambient_temperature ?
_diffrn_special_details
;
The study was carried out at room temperature,in the range 283-303K

;
#These two values have been output from a single CSD field.
_refine_ls_R_factor_gt 0.043
_refine_ls_wR_factor_gt 0.043
_symmetry_cell_setting triclinic
_symmetry_space_group_name_H-M 'P 1'
_symmetry_Int_Tables_number 1
loop_
_symmetry_equiv_pos_site_id
_symmetry_equiv_pos_as_xyz
1 x,y,z
_cell_length_a 6.198(1)
_cell_length_b 6.620(1)
_cell_length_c 7.249(1)
_cell_angle_alpha 107.65(2)
_cell_angle_beta 113.62(2)
_cell_angle_gamma 98.32(2)
_cell_formula_units_Z 1
loop_
_atom_type_symbol
_atom_type_radius_bond
C 0.68
H 0.23
K 1.33
O 0.68
Y 1.70
loop_
_atom_site_label
_atom_site_type_symbol
_atom_site_fract_x
_atom_site_fract_y
_atom_site_fract_z
Y1 Y 0.00000 0.00000 0.00000
O1 O 0.41290 0.05730 0.05960
O2 O 0.79580 0.23610 0.14760
O3 O 0.11160 0.33560 -0.02020
O4 O 0.09220 0.66890 -0.01160
O5 O 0.19010 0.07700 0.36320
O6 O 0.40460 0.42710 0.59160
O7 O -0.36250 -0.06030 -0.33490
O8 O -0.05750 -0.16490 -0.36910
O9 O -0.33240 -0.24670 -0.00650
C1 C 0.58790 0.22790 0.14040
C2 C 0.03990 0.46420 -0.11130
C3 C 0.31590 0.23260 0.55340
C4 C -0.26710 -0.13790 -0.45280
H1 H 0.56000 0.38600 0.21200
H2 H -0.08300 0.43600 -0.27100
H3 H 0.34600 0.19600 0.69100
H4 H -0.36600 -0.18700 -0.62000
K1 K -0.85520 -0.33750 -0.61220
O2* O -0.20420 0.23610 0.14760
O4* O 0.09220 -0.33110 -0.01160
Y1* Y 1.00000 0.00000 0.00000
Y1** Y 0.00000 1.00000 0.00000
#END
