
#######################################################################
#
#                 Cambridge Crystallographic Data Centre
#                                CCDC
#
#######################################################################
#
# If this CIF has been generated from an entry in the Cambridge
# Structural Database, then it will include bibliographic, chemical,
# crystal, experimental, refinement or atomic coordinate data resulting
# from the CCDC's data processing and validation procedures.
#
#######################################################################

data_CSD_CIF_CAWMOF
_audit_creation_date 2017-05-26
_audit_creation_method CSD-ConQuest-V1
_database_code_CSD CAWMOF
_database_code_depnum_ccdc_archive 'CCDC 1526813'
_chemical_formula_sum 'C84 H114 N14 Ni12 O64 S14'
_chemical_formula_moiety
;
(C84 H66 N14 Ni11 O40 S14 2-)n,H12 Ni1 O6 2+,18(H2 O1)
;
_journal_coden_Cambridge 1295
_journal_volume 81
_journal_year 2017
_journal_page_first 33
_journal_name_full 'Inorg.Chem.Commun. '
loop_
_publ_author_name
"Ning Yuan"
"Chongbin Tian"
"Tianlu Sheng"
"Shengmin Hu"
"Xintao Wu"
_chemical_name_systematic
;
catena-(hexaaqua-nickel 
decakis(\m-2-mercaptonicotinato)-bis(\m-2,2'-(dithio)dinicotinato)-dodecaaqua-
undeca-nickel octadecahydrate)
;
_cell_volume  12330.546
_exptl_crystal_colour 'dark red'
_exptl_crystal_density_diffrn 1.884
_exptl_special_details
;
, Magnetic properties

;
_exptl_crystal_description 'Prism'
_diffrn_ambient_temperature 293
_refine_special_details
;
The structure is disordered.

;
#These two values have been output from a single CSD field.
_refine_ls_R_factor_gt 0.0802
_refine_ls_wR_factor_gt 0.0802
_symmetry_cell_setting monoclinic
_symmetry_space_group_name_H-M 'C 2/c'
_symmetry_Int_Tables_number 15
loop_
_symmetry_equiv_pos_site_id
_symmetry_equiv_pos_as_xyz
1 x,y,z
2 -x,y,1/2-z
3 1/2+x,1/2+y,z
4 1/2-x,1/2+y,1/2-z
5 -x,-y,-z
6 x,-y,-1/2+z
7 -1/2-x,-1/2-y,-z
8 -1/2+x,-1/2-y,-1/2+z
_cell_length_a 27.102(7)
_cell_length_b 24.246(6)
_cell_length_c 19.689(5)
_cell_angle_alpha 90
_cell_angle_beta 107.626(4)
_cell_angle_gamma 90
_cell_formula_units_Z 4
loop_
_atom_type_symbol
_atom_type_radius_bond
C 0.68
H 0.23
N 0.68
Ni 1.24
O 0.68
S 1.02
loop_
_atom_site_label
_atom_site_type_symbol
_atom_site_fract_x
_atom_site_fract_y
_atom_site_fract_z
Ni1 Ni 0.13520(3) 1.15987(4) 1.48081(5)
S1 S 0.10191(7) 1.08488(7) 1.40356(9)
S2 S 0.19247(7) 1.18833(7) 1.40455(9)
N1 N 0.1002(2) 1.2158(3) 1.4049(3)
O1 O 0.0725(2) 1.1504(2) 1.5176(3)
O2 O 0.1860(2) 1.1081(2) 1.5458(3)
S3 S 0.18198(7) 1.23538(7) 1.56231(9)
Ni2 Ni 0.16194(4) 1.01173(4) 1.39535(5)
C1 C 0.0976(3) 1.0399(3) 1.4705(4)
Ni3 Ni 0.25000 1.25000 1.50000
Ni4 Ni 0.19905(4) 1.16026(4) 1.28813(5)
C2 C 0.1346(3) 1.2269(3) 1.3706(4)
C3 C 0.0550(3) 1.2431(3) 1.3881(4)
C4 C 0.0487(3) 1.1067(3) 1.5277(4)
C5 C 0.1982(3) 1.0899(3) 1.6083(4)
S4 S 0.18766(7) 1.05832(8) 1.30357(10)
S5 S 0.23857(8) 1.05036(9) 1.48128(11)
N2 N 0.2093(3) 0.9423(3) 1.4028(3)
N3 N 0.1238(2) 0.9925(3) 1.4706(3)
O3 O 0.10537(19) 0.9737(2) 1.3192(3)
C6 C 0.0718(3) 1.0512(3) 1.5215(4)
N4 N 0.3034(2) 1.1893(2) 1.5215(3)
S6 S 0.29441(8) 1.16095(9) 1.31002(11)
N5 N 0.2180(3) 1.1563(3) 1.1943(4)
N6 N 0.1236(3) 1.1350(3) 1.2416(3)
O4 O 0.1922(2) 1.2437(2) 1.2654(3)
C7 C 0.1247(3) 1.2667(3) 1.3154(4)
C8 C 0.0429(3) 1.2832(3) 1.3359(5)
H1 H 0.03130 1.23480 1.41220
O5 O 0.0084(2) 1.1085(2) 1.5458(3)
C9 C 0.2340(3) 1.0415(3) 1.6215(4)
O6 O 0.1842(3) 1.1087(3) 1.6592(3)
C10 C 0.1251(3) 1.0802(3) 1.2565(3)
C11 C 0.2543(3) 1.0193(3) 1.5696(5)
S7 S 0.29066(8) 1.01308(10) 1.43842(13)
C12 C 0.2611(3) 0.9474(4) 1.4125(4)
C13 C 0.1877(3) 0.8923(3) 1.3874(4)
C14 C 0.1231(3) 0.9532(3) 1.5178(4)
C15 C 0.0756(3) 0.9899(3) 1.2595(4)
C16 C 0.0698(3) 1.0088(3) 1.5680(4)
Ni5 Ni 0.34293(4) 1.24429(4) 1.33094(6)
C17 C 0.3363(3) 1.2024(3) 1.4846(4)
C18 C 0.3123(3) 1.1449(3) 1.5647(4)
C19 C 0.2688(4) 1.1670(3) 1.2174(5)
C20 C 0.1918(4) 1.1608(4) 1.1246(5)
C21 C 0.0798(3) 1.1591(3) 1.2014(4)
C22 C 0.1635(3) 1.2816(3) 1.2782(4)
C23 C 0.0779(3) 1.2951(4) 1.3002(4)
H2 H 0.01150 1.30190 1.32510
C24 C 0.2489(4) 1.0168(4) 1.6884(6)
C25 C 0.0799(3) 1.0482(3) 1.2350(4)
N7 N 0.2871(3) 0.9776(3) 1.5818(5)
C26 C 0.2915(3) 0.9024(4) 1.4042(5)
C27 C 0.2151(3) 0.8453(4) 1.3811(4)
H3 H 0.15230 0.88900 1.38050
C28 C 0.0957(3) 0.9596(3) 1.5667(4)
H4 H 0.14140 0.92070 1.51790
O7 O 0.0408(2) 0.9604(2) 1.2202(3)
H5 H 0.05110 1.01330 1.60020
O8 O 0.3865(2) 1.3176(2) 1.3438(3)
O9 O 0.2829(2) 1.2897(2) 1.2653(3)
O10 O 0.3718(3) 1.2220(3) 1.2497(4)
O11 O 0.4094(2) 1.2124(3) 1.3979(4)
C29 C 0.3808(3) 1.1689(3) 1.4896(4)
C30 C 0.3541(3) 1.1115(3) 1.5716(5)
H6 H 0.28940 1.13680 1.59030
C31 C 0.2960(4) 1.1822(4) 1.1684(5)
C32 C 0.2155(6) 1.1741(5) 1.0742(5)
H7 H 0.15620 1.15480 1.11000
C33 C 0.0340(3) 1.1286(3) 1.1754(4)
H8 H 0.07990 1.19650 1.19070
O12 O 0.1678(3) 1.3309(3) 1.2627(4)
H9 H 0.07040 1.32250 1.26550
H10 H 0.23610 1.03050 1.72390
C34 C 0.2815(5) 0.9733(5) 1.7030(7)
C35 C 0.0349(3) 1.0736(3) 1.1930(4)
C36 C 0.3015(5) 0.9565(5) 1.6498(8)
C37 C 0.2674(4) 0.8515(4) 1.3891(5)
C38 C 0.3474(4) 0.9113(6) 1.4068(6)
H11 H 0.19910 0.81100 1.37190
H12 H 0.09480 0.93130 1.59820
Ni6 Ni 0.00000 0.89884(6) 1.25000
C39 C 0.3526(5) 1.1966(4) 1.1919(6)
C40 C 0.4211(3) 1.1838(4) 1.4547(6)
C41 C 0.3881(3) 1.1234(4) 1.5334(5)
H13 H 0.35970 1.08100 1.60170
C42 C 0.2676(5) 1.1851(5) 1.0956(5)
H14 H 0.19650 1.17550 1.02620
H15 H 0.00380 1.14500 1.14700
H16 H 0.29010 0.95560 1.74690
H17 H 0.00470 1.05290 1.17650
H18 H 0.32640 0.92890 1.66070
H19 H 0.28670 0.82090 1.38420
O13 O 0.3784(3) 0.8720(4) 1.4257(5)
O14 O 0.3577(3) 0.9582(4) 1.3859(5)
O15 O 0.0437(2) 0.8979(2) 1.3565(3)
O16 O 0.0481(3) 0.8363(3) 1.2365(5)
O17 O 0.3783(4) 1.1817(4) 1.1516(5)
O18 O 0.4666(3) 1.1677(3) 1.4854(5)
H20 H 0.41620 1.10030 1.53730
H21 H 0.28410 1.19450 1.06220
Ni7 Ni 0.44485(11) 1.20946(13) 1.14986(19)
O19 O 0.5104(11) 1.2432(12) 1.1455(16)
O20 O 0.4378(17) 1.1711(19) 1.060(2)
O21 O 0.4071(4) 1.2887(5) 1.1233(6)
O22 O 0.4827(14) 1.1421(11) 1.161(2)
Ni8 Ni 0.50000 1.00000 1.00000
O23 O 0.4336(4) 0.9658(4) 0.9316(6)
O24 O 0.5238(4) 0.9236(4) 1.0427(8)
O25 O 0.4616(6) 1.0075(6) 1.0761(8)
O26 O 0.4383(5) 1.2205(4) 0.9056(7)
O27 O 0.1164(4) 0.5713(4) 0.7409(6)
O28 O 0.4266(4) 0.6846(4) 0.4931(5)
O29 O 0.3800(8) 1.0702(9) 1.0704(11)
O30 O 0.0775(10) 0.4019(10) 0.6834(13)
O31 O 0.0660(13) 0.4956(14) 0.7924(18)
O32 O -0.0169(11) 0.5836(12) 0.8132(15)
O33? O 0.5318(10) 1.2234(12) 1.2321(17)
S3F S 0.31802(7) 1.26462(7) 1.43769(9)
S2F S 0.30753(7) 1.31167(7) 1.59545(9)
N4F N 0.1966(2) 1.3107(2) 1.4785(3)
Ni1F Ni 0.36480(3) 1.34013(4) 1.51919(5)
O15A O -0.0437(2) 0.8979(2) 1.1435(3)
O16A O -0.0481(3) 0.8363(3) 1.2635(5)
O7A O -0.0408(2) 0.9604(2) 1.2798(3)
C15A C -0.0756(3) 0.9899(3) 1.2405(4)
C25A C -0.0799(3) 1.0482(3) 1.2650(4)
O3A O -0.10537(19) 0.9737(2) 1.1808(3)
C10A C -0.1251(3) 1.0802(3) 1.2435(3)
C35A C -0.0349(3) 1.0736(3) 1.3070(4)
Ni2A Ni -0.16194(4) 1.01173(4) 1.10465(5)
S4A S -0.18766(7) 1.05832(8) 1.19643(10)
N6A N -0.1236(3) 1.1350(3) 1.2584(3)
H17A H -0.00470 1.05290 1.32350
C33A C -0.0340(3) 1.1286(3) 1.3246(4)
S1A S -0.10191(7) 1.08488(7) 1.09644(9)
S5A S -0.23857(8) 1.05036(9) 1.01872(11)
N2A N -0.2093(3) 0.9423(3) 1.0972(3)
N3A N -0.1238(2) 0.9925(3) 1.0294(3)
Ni4A Ni -0.19905(4) 1.16026(4) 1.21187(5)
C21A C -0.0798(3) 1.1591(3) 1.2986(4)
H15A H -0.00380 1.14500 1.35300
Ni1A Ni -0.13520(3) 1.15987(4) 1.01919(5)
C1A C -0.0976(3) 1.0399(3) 1.0295(4)
C11A C -0.2543(3) 1.0193(3) 0.9304(5)
S7A S -0.29066(8) 1.01308(10) 1.06158(13)
C12A C -0.2611(3) 0.9474(4) 1.0875(4)
C13A C -0.1877(3) 0.8923(3) 1.1126(4)
C14A C -0.1231(3) 0.9532(3) 0.9822(4)
S6A S -0.29441(8) 1.16095(9) 1.18998(11)
S2A S -0.19247(7) 1.18833(7) 1.09545(9)
N5A N -0.2180(3) 1.1563(3) 1.3057(4)
O4A O -0.1922(2) 1.2437(2) 1.2346(3)
H8A H -0.07990 1.19650 1.30930
N1A N -0.1002(2) 1.2158(3) 1.0951(3)
O1A O -0.0725(2) 1.1504(2) 0.9824(3)
O2A O -0.1860(2) 1.1081(2) 0.9542(3)
S3A S -0.18198(7) 1.23538(7) 0.93769(9)
C6A C -0.0718(3) 1.0512(3) 0.9785(4)
C9A C -0.2340(3) 1.0415(3) 0.8785(4)
N7A N -0.2871(3) 0.9776(3) 0.9182(5)
C26A C -0.2915(3) 0.9024(4) 1.0958(5)
C27A C -0.2151(3) 0.8453(4) 1.1189(4)
H3A H -0.15230 0.88900 1.11950
C28A C -0.0957(3) 0.9596(3) 0.9333(4)
H4A H -0.14140 0.92070 0.98210
Ni5A Ni -0.34293(4) 1.24429(4) 1.16906(6)
C19A C -0.2688(4) 1.1670(3) 1.2826(5)
C2A C -0.1346(3) 1.2269(3) 1.1294(4)
Ni3A Ni -0.25000 1.25000 1.00000
C20A C -0.1918(4) 1.1608(4) 1.3754(5)
C22A C -0.1635(3) 1.2816(3) 1.2218(4)
C3A C -0.0550(3) 1.2431(3) 1.1119(4)
C4A C -0.0487(3) 1.1067(3) 0.9723(4)
C5A C -0.1982(3) 1.0899(3) 0.8917(4)
C16A C -0.0698(3) 1.0088(3) 0.9320(4)
C24A C -0.2489(4) 1.0168(4) 0.8116(6)
C36A C -0.3015(5) 0.9565(5) 0.8502(8)
C37A C -0.2674(4) 0.8515(4) 1.1109(5)
C38A C -0.3474(4) 0.9113(6) 1.0932(6)
H11A H -0.19910 0.81100 1.12810
H12A H -0.09480 0.93130 0.90180
S3G S -0.31802(7) 1.26462(7) 1.06231(9)
O8A O -0.3865(2) 1.3176(2) 1.1562(3)
O9A O -0.2829(2) 1.2897(2) 1.2347(3)
O10A O -0.3718(3) 1.2220(3) 1.2503(4)
O11A O -0.4094(2) 1.2124(3) 1.1021(4)
C31A C -0.2960(4) 1.1822(4) 1.3316(5)
C7A C -0.1247(3) 1.2667(3) 1.1846(4)
N4A N -0.3034(2) 1.1893(2) 0.9785(3)
C32A C -0.2155(6) 1.1741(5) 1.4258(5)
H7A H -0.15620 1.15480 1.39000
O12A O -0.1678(3) 1.3309(3) 1.2373(4)
C8A C -0.0429(3) 1.2832(3) 1.1641(5)
H1A H -0.03130 1.23480 1.08780
O5A O -0.0084(2) 1.1085(2) 0.9542(3)
O6A O -0.1842(3) 1.1087(3) 0.8408(3)
H5A H -0.05110 1.01330 0.89980
H10A H -0.23610 1.03050 0.77610
C34A C -0.2815(5) 0.9733(5) 0.7970(7)
H18A H -0.32640 0.92890 0.83930
H19A H -0.28670 0.82090 1.11580
O13A O -0.3784(3) 0.8720(4) 1.0743(5)
O14A O -0.3577(3) 0.9582(4) 1.1141(5)
C17A C -0.3363(3) 1.2024(3) 1.0154(4)
Ni1G Ni -0.36480(3) 1.34013(4) 0.98081(5)
C39A C -0.3526(5) 1.1966(4) 1.3081(6)
C40A C -0.4211(3) 1.1838(4) 1.0453(6)
C42A C -0.2676(5) 1.1851(5) 1.4044(5)
C23A C -0.0779(3) 1.2951(4) 1.1998(4)
C18A C -0.3123(3) 1.1449(3) 0.9353(4)
H14A H -0.19650 1.17550 1.47380
H2A H -0.01150 1.30190 1.17490
H16A H -0.29010 0.95560 0.75310
C29A C -0.3808(3) 1.1689(3) 1.0104(4)
O17A O -0.3783(4) 1.1817(4) 1.3484(5)
O18A O -0.4666(3) 1.1677(3) 1.0146(5)
H21A H -0.28410 1.19450 1.43780
H9A H -0.07040 1.32250 1.23450
C30A C -0.3541(3) 1.1115(3) 0.9284(5)
H6A H -0.28940 1.13680 0.90970
C41A C -0.3881(3) 1.1234(4) 0.9666(5)
Ni7A Ni -0.44485(11) 1.20946(13) 1.35014(19)
H13A H -0.35970 1.08100 0.89830
H20A H -0.41620 1.10030 0.96270
O19A O -0.5104(11) 1.2432(12) 1.3545(16)
O20A O -0.4378(17) 1.1711(19) 1.440(2)
O21A O -0.4071(4) 1.2887(5) 1.3767(6)
O22A O -0.4827(14) 1.1421(11) 1.339(2)
O23D O 0.5664(4) 1.0342(4) 1.0684(6)
O24D O 0.4762(4) 1.0764(4) 0.9573(8)
O25D O 0.5384(6) 0.9925(6) 0.9239(8)
#END
