
#######################################################################
#
#                 Cambridge Crystallographic Data Centre
#                                CCDC
#
#######################################################################
#
# If this CIF has been generated from an entry in the Cambridge
# Structural Database, then it will include bibliographic, chemical,
# crystal, experimental, refinement or atomic coordinate data resulting
# from the CCDC's data processing and validation procedures.
#
#######################################################################

data_CSD_CIF_CAWTAX
_audit_creation_date 2012-05-31
_audit_creation_method CSD-ConQuest-V1
_database_code_CSD CAWTAX
_database_code_depnum_ccdc_archive 'CCDC 880695'
_chemical_formula_sum 'C20 H30 Cr1 Mn1 N1 O14'
_chemical_formula_moiety
;
(C14 H30 N1 O2 1+)n,n(C6 Cr1 Mn1 O12 1-)
;
_journal_coden_Cambridge 4
_journal_volume 134
_journal_year 2012
_journal_page_first 5472
_journal_name_full 'J.Am.Chem.Soc. '
loop_
_publ_author_name
"M.Sadakiyo"
"H.Okawa"
"A.Shigematsu"
"M.Ohba"
"T.Yamada"
"H.Kitagawa"
_chemical_name_systematic
;
catena-(tris(\m~2~-oxalato)-chromium-manganese 
tri-n-butyl(carboxymethyl)ammonium)
;
_cell_volume   3897.257
_exptl_crystal_colour 'dark red'
_exptl_crystal_density_diffrn 1.573
_exptl_crystal_description 'prism'
_diffrn_ambient_temperature 100
_refine_special_details
;
The counter ion is disordered with C(7) and C(8) disordered over two sites 
with occupancies 0.50:0.50 and the carboxymethyl ligand disordered over three 
sites.
;
#These two values have been output from a single CSD field.
_refine_ls_R_factor_gt 0.0519
_refine_ls_wR_factor_gt 0.0519
_symmetry_cell_setting rhombohedral
_symmetry_space_group_name_H-M 'R 3 c'
_symmetry_Int_Tables_number 161
loop_
_symmetry_equiv_pos_site_id
_symmetry_equiv_pos_as_xyz
1 x,y,z
2 -y,x-y,z
3 -x+y,-x,z
4 -x+y,y,1/2+z
5 x,x-y,1/2+z
6 -y,-x,1/2+z
7 2/3+x,1/3+y,1/3+z
8 2/3-y,1/3+x-y,1/3+z
9 2/3-x+y,1/3-x,1/3+z
10 2/3-x+y,1/3+y,5/6+z
11 2/3+x,1/3+x-y,5/6+z
12 2/3-y,1/3-x,5/6+z
13 1/3+x,2/3+y,2/3+z
14 1/3-y,2/3+x-y,2/3+z
15 1/3-x+y,2/3-x,2/3+z
16 1/3-x+y,2/3+y,1/6+z
17 1/3+x,2/3+x-y,1/6+z
18 1/3-y,2/3-x,1/6+z
_cell_length_a 9.3928(13)
_cell_length_b 9.3928(13)
_cell_length_c 51.0080(13)
_cell_angle_alpha 90
_cell_angle_beta 90
_cell_angle_gamma 120
_cell_formula_units_Z 6
loop_
_atom_type_symbol
_atom_type_radius_bond
C 0.68
Cr 1.39
Mn 1.61
N 0.68
O 0.68
loop_
_atom_site_label
_atom_site_type_symbol
_atom_site_fract_x
_atom_site_fract_y
_atom_site_fract_z
O1 O 0.242(4) 0.666(5) 0.7224(5)
N1 N 0.33330 0.66670 0.6444(4)
C1 C 0.345(6) 0.748(5) 0.6707(8)
C2 C 0.33330 0.66670 0.6931(10)
C3 C 0.470(4) 0.636(4) 0.6258(6)
C4 C 0.625(6) 0.673(4) 0.6387(9)
C5 C 0.708(3) 0.713(4) 0.6132(6)
C6 C 0.828(3) 0.680(4) 0.6161(5)
Mn1 Mn 0.66670 0.33330 0.53785(3)
Cr1 Cr 0.33330 0.66670 0.53814(3)
O2 O 0.5055(6) 0.6559(6) 0.51676(11)
O3 O 0.3440(6) 0.4987(5) 0.55928(9)
O4 O 0.6400(5) 0.5209(6) 0.51544(11)
O5 O 0.4852(6) 0.3597(6) 0.56001(11)
C7 C 0.5402(9) 0.5531(9) 0.52513(16)
C8 C 0.4498(7) 0.4601(7) 0.55031(17)
C9? C -0.087(4) 0.337(3) 0.6173(5)
O1B O 0.424(4) 0.758(5) 0.7224(5)
O1A O 0.334(4) 0.576(5) 0.7224(5)
C1A C 0.252(6) 0.597(5) 0.6707(8)
C1B C 0.403(6) 0.655(5) 0.6707(8)
C3A C 0.364(4) 0.834(4) 0.6258(6)
C3B C 0.166(4) 0.530(4) 0.6258(6)
C4A C 0.327(6) 0.952(4) 0.6387(9)
C4B C 0.048(6) 0.375(4) 0.6387(9)
C5A C 0.287(3) 0.995(4) 0.6132(6)
C5B C 0.005(3) 0.292(4) 0.6132(6)
C6A C 0.320(3) 1.148(4) 0.6161(5)
C6B C -0.148(3) 0.172(4) 0.6161(5)
Mn1* Mn 0.66670 1.33330 0.53785(3)
Cr1A Cr 0.33330 -0.33340 0.53814(3)
O2A O 0.3441(6) -0.1504(6) 0.51676(11)
O2A* O 0.3441(6) 0.8496(6) 0.51676(11)
O2B O 0.1504(6) 0.4945(6) 0.51676(11)
O3A O 0.5013(6) -0.1547(5) 0.55928(9)
O3A* O 0.5013(6) 0.8453(5) 0.55928(9)
O3B O 0.1547(6) 0.6560(5) 0.55928(9)
O4A O 0.4791(5) 0.1191(6) 0.51544(11)
O4B O 0.8809(5) 0.3600(6) 0.51544(11)
O4A* O 0.4791(5) 1.1191(6) 0.51544(11)
O5A O 0.6403(6) 0.1255(6) 0.56001(11)
O5B O 0.8745(6) 0.5148(6) 0.56001(11)
O5A* O 0.6403(6) 1.1255(6) 0.56001(11)
C7A C 0.4469(9) -0.0129(9) 0.52513(16)
C7A* C 0.4469(9) 0.9871(9) 0.52513(16)
C8A C 0.5399(7) -0.0103(7) 0.55031(17)
C8A* C 0.5399(7) 0.9897(7) 0.55031(17)
#END
