
#######################################################################
#
#                 Cambridge Crystallographic Data Centre
#                                CCDC
#
#######################################################################
#
# If this CIF has been generated from an entry in the Cambridge
# Structural Database, then it will include bibliographic, chemical,
# crystal, experimental, refinement or atomic coordinate data resulting
# from the CCDC's data processing and validation procedures.
#
#######################################################################

data_CSD_CIF_CAXCIO
_audit_creation_date 2005-12-21
_audit_creation_method CSD-ConQuest-V1
_database_code_CSD CAXCIO
_database_code_depnum_ccdc_archive 'CCDC 255821'
_chemical_formula_sum 'C36 H32 Gd2 N2 O18'
_chemical_formula_moiety
;
(C32 H20 Gd2 O18 2-)n,n(C4 H12 N2 2+)
;
_journal_coden_Cambridge 155
_journal_volume 358
_journal_year 2005
_journal_page_first 4051
_journal_name_full 'Inorg.Chim.Acta '
loop_
_publ_author_name
"S.Natarajan"
"A.Thirumurgan"
_chemical_name_systematic
;
catena-(Piperazinedi-ium 
bis(\m~3~-benzene-1,2-dicarboxylato-O,O',O'',O''')-bis(\m~2~-benzene-1,2-dicar
boxylato-O,O',O'')-diaqua-di-gadolinium)
;
_cell_volume   1847.339
_exptl_crystal_colour 'colorless'
_exptl_crystal_density_diffrn 1.969
_exptl_crystal_description 'plate-like'
_diffrn_ambient_temperature 293
#These two values have been output from a single CSD field.
_refine_ls_R_factor_gt 0.0238
_refine_ls_wR_factor_gt 0.0238
_symmetry_cell_setting monoclinic
_symmetry_space_group_name_H-M 'P 21/c'
_symmetry_Int_Tables_number 14
loop_
_symmetry_equiv_pos_site_id
_symmetry_equiv_pos_as_xyz
1 x,y,z
2 -x,1/2+y,1/2-z
3 -x,-y,-z
4 x,-1/2-y,-1/2+z
_cell_length_a 13.1671(3)
_cell_length_b 13.7336(3)
_cell_length_c 11.3100(1)
_cell_angle_alpha 90
_cell_angle_beta 115.411(1)
_cell_angle_gamma 90
_cell_formula_units_Z 2
loop_
_atom_type_symbol
_atom_type_radius_bond
C 0.68
H 0.23
Gd 1.71
N 0.68
O 0.68
loop_
_atom_site_label
_atom_site_type_symbol
_atom_site_fract_x
_atom_site_fract_y
_atom_site_fract_z
Gd1 Gd 0.896673(17) 0.113756(13) 0.535887(17)
O1 O 0.9357(3) -0.0525(2) 0.5677(3)
O2 O 0.7120(2) 0.0713(2) 0.5270(3)
O3 O 0.7995(3) 0.0523(2) 0.3176(3)
O4 O 0.9906(2) -0.2008(2) 0.5541(3)
O5 O 0.9960(2) -0.24533(19) 0.8148(3)
O6 O 0.8468(3) 0.1059(2) 0.7204(3)
O7 O 0.7910(2) 0.2509(2) 0.9381(3)
O8 O 0.9174(3) -0.39050(18) 0.7795(3)
O9 O 0.6916(3) 0.2836(2) 0.7249(3)
C1 C 0.9148(4) -0.3005(3) 0.7510(4)
C2 C 0.8106(4) -0.2622(3) 0.6413(4)
C3 C 0.7075(4) -0.3042(3) 0.6155(4)
H1 H 0.70410 -0.35590 0.66680
C4 C 0.6111(4) -0.2710(3) 0.5164(5)
H2 H 0.54280 -0.30040 0.50060
C5 C 0.6139(4) -0.1943(3) 0.4392(4)
H3 H 0.54770 -0.17200 0.37170
C6 C 0.7148(4) -0.1507(3) 0.4622(4)
H4 H 0.71610 -0.09870 0.41030
C7 C 0.8150(3) -0.1834(3) 0.5620(4)
C8 C 0.9213(4) -0.1433(3) 0.5655(4)
C9 C 0.7448(4) 0.0835(3) 0.6468(4)
C10 C 0.6664(3) 0.0663(3) 0.7098(4)
C11 C 0.6644(4) 0.1316(3) 0.8042(4)
C12 C 0.6037(4) 0.1084(3) 0.8738(4)
H5 H 0.60590 0.14940 0.94020
C13 C 0.5398(4) 0.0246(4) 0.8457(5)
H6 H 0.49850 0.00990 0.89260
C14 C 0.5369(5) -0.0372(4) 0.7488(5)
H7 H 0.49150 -0.09230 0.72770
C15 C 0.6015(4) -0.0171(3) 0.6827(4)
H8 H 0.60140 -0.06020 0.61920
C16 C 0.7208(4) 0.2305(3) 0.8223(4)
N1 N 0.9696(3) 0.4002(2) 0.4963(4)
H9 H 0.97020 0.34430 0.53800
H10 H 0.93220 0.38960 0.40970
C17 C 1.0859(4) 0.4292(3) 0.5274(4)
H11 H 1.12150 0.37900 0.49790
H12 H 1.12790 0.43550 0.62150
C18 C 0.9103(4) 0.4766(3) 0.5361(4)
H13 H 0.94610 0.48410 0.63060
H14 H 0.83280 0.45750 0.51020
H15 H 0.767(5) 0.097(3) 0.262(4)
H16 H 0.823(4) 0.011(3) 0.281(5)
Gd1B Gd 1.103327(17) -0.113756(13) 0.464113(17)
Gd1A Gd 1.103327(17) -0.386244(13) 0.964113(17)
Gd1C Gd 0.896673(17) 0.386244(13) 1.035887(17)
Gd1C* Gd 0.896673(17) 0.386244(13) 0.035887(17)
O1B O 1.0643(3) 0.0525(2) 0.4323(3)
O2C O 0.7120(2) 0.4287(2) 0.0270(3)
O2B O 1.2880(2) -0.0713(2) 0.4730(3)
O3B O 1.2005(3) -0.0523(2) 0.6824(3)
O4B O 1.0094(2) 0.2008(2) 0.4459(3)
O5B O 1.0040(2) 0.24533(19) 0.1852(3)
O5A O 1.0040(2) 0.25467(19) 0.6852(3)
O5C O 0.9960(2) -0.25467(19) 0.3148(3)
O6C O 0.8468(3) 0.3941(2) 0.2204(3)
O6B O 1.1532(3) -0.1059(2) 0.2796(3)
O7C O 0.7910(2) 0.2491(2) 0.4381(3)
O7A O 1.2090(2) -0.2491(2) 0.5619(3)
O8B O 1.0826(3) 0.39050(18) 0.2205(3)
O8A O 1.0826(3) 0.10950(18) 0.7205(3)
O8C O 0.9174(3) -0.10950(18) 0.2795(3)
O9C O 0.6916(3) 0.2164(2) 0.2249(3)
C1B C 1.0852(4) 0.3005(3) 0.2490(4)
C2B C 1.1894(4) 0.2622(3) 0.3587(4)
C3B C 1.2925(4) 0.3042(3) 0.3845(4)
H1B H 1.29590 0.35590 0.33320
C4B C 1.3889(4) 0.2710(3) 0.4836(5)
H2B H 1.45720 0.30040 0.49940
C5B C 1.3861(4) 0.1943(3) 0.5608(4)
H3B H 1.45230 0.17200 0.62830
C6B C 1.2852(4) 0.1507(3) 0.5378(4)
H4B H 1.28390 0.09870 0.58970
C7B C 1.1850(3) 0.1834(3) 0.4380(4)
C8B C 1.0787(4) 0.1433(3) 0.4345(4)
C9C C 0.7448(4) 0.4165(3) 0.1468(4)
C10C C 0.6664(3) 0.4337(3) 0.2098(4)
C11C C 0.6644(4) 0.3684(3) 0.3042(4)
C12C C 0.6037(4) 0.3916(3) 0.3738(4)
H5C H 0.60590 0.35060 0.44020
C13C C 0.5398(4) 0.4754(4) 0.3457(5)
H6C H 0.49850 0.49010 0.39260
C14C C 0.5369(5) 0.5372(4) 0.2488(5)
H7C H 0.49150 0.59230 0.22770
C15C C 0.6015(4) 0.5171(3) 0.1827(4)
H8C H 0.60140 0.56020 0.11920
C16C C 0.7208(4) 0.2695(3) 0.3223(4)
N1B N 1.0304(3) 0.5998(2) 0.5037(4)
H9B H 1.02980 0.65570 0.46200
H10B H 1.06780 0.61040 0.59030
C17B C 0.9141(4) 0.5708(3) 0.4726(4)
H11B H 0.87850 0.62100 0.50210
H12B H 0.87210 0.56450 0.37850
C18B C 1.0897(4) 0.5234(3) 0.4639(4)
H13B H 1.05390 0.51590 0.36940
H14B H 1.16720 0.54250 0.48980
H15B H 1.233(5) -0.097(3) 0.738(4)
H16B H 1.177(4) -0.011(3) 0.719(5)
#END
