
#######################################################################
#
#                 Cambridge Crystallographic Data Centre
#                                CCDC
#
#######################################################################
#
# If this CIF has been generated from an entry in the Cambridge
# Structural Database, then it will include bibliographic, chemical,
# crystal, experimental, refinement or atomic coordinate data resulting
# from the CCDC's data processing and validation procedures.
#
#######################################################################

data_CSD_CIF_CAXPAV
_audit_creation_date 2017-05-26
_audit_creation_method CSD-ConQuest-V1
_database_code_CSD CAXPAV
_database_code_depnum_ccdc_archive 'CCDC 1543967'
_chemical_formula_sum 'C8 H9 B1 Cu2 K1 O14.5'
_chemical_formula_moiety
;
(C8 H8 B1 Cu2 O14 1-)n,K1 1+,0.5(H2 O1)
;
_journal_coden_Cambridge 222
_journal_volume 46
_journal_year 2017
_journal_page_first 7361
_journal_name_full 'Dalton Trans. '
loop_
_publ_author_name
"Dong Yan"
"Fei-Fei Mao"
"Ting-Ting Ruan"
"Jiang-Gao Mao"
_chemical_name_systematic
;
catena-[potassium (\m-bis[2,3-bis(oxy)butanedioato]borate)-di-copper(ii) 
hemihydrate]
;
_cell_volume   1472.013
_exptl_crystal_colour 'blue'
_exptl_crystal_density_diffrn 2.32
_exptl_special_details
;
Absolute configuration

;
_exptl_crystal_description 'block'
_diffrn_ambient_temperature 293
#These two values have been output from a single CSD field.
_refine_ls_R_factor_gt 0.0378
_refine_ls_wR_factor_gt 0.0378
_symmetry_cell_setting orthorhombic
_symmetry_space_group_name_H-M 'P 21 21 21'
_symmetry_Int_Tables_number 19
loop_
_symmetry_equiv_pos_site_id
_symmetry_equiv_pos_as_xyz
1 x,y,z
2 1/2-x,-y,1/2+z
3 -x,1/2+y,1/2-z
4 1/2+x,1/2-y,-z
_cell_length_a 7.8347(4)
_cell_length_b 13.3996(9)
_cell_length_c 14.0216(13)
_cell_angle_alpha 90
_cell_angle_beta 90
_cell_angle_gamma 90
_cell_formula_units_Z 4
loop_
_atom_type_symbol
_atom_type_radius_bond
C 0.68
H 0.23
B 0.83
Cu 1.32
K 2.03
O 0.68
loop_
_atom_site_label
_atom_site_type_symbol
_atom_site_fract_x
_atom_site_fract_y
_atom_site_fract_z
Cu1 Cu 0.50396(7) 0.33922(4) 0.26898(4)
Cu2 Cu -0.01952(6) 0.09172(4) 0.15545(4)
B1 B 0.2583(5) 0.2090(3) 0.2057(4)
C1 C 0.1917(5) 0.3988(3) 0.3433(3)
C2 C 0.1721(5) 0.2856(3) 0.3506(3)
H1 H 0.16830 0.26580 0.41780
C3 C 0.0119(5) 0.2467(3) 0.2990(3)
H2 H -0.07490 0.29930 0.29720
C4 C -0.0632(5) 0.1536(4) 0.3434(4)
C5 C 0.6388(5) 0.1999(3) 0.1347(3)
C6 C 0.4645(5) 0.2049(3) 0.0858(3)
H3 H 0.47590 0.22520 0.01890
C7 C 0.3775(5) 0.1013(3) 0.0939(3)
H4 H 0.46390 0.04840 0.09250
C8 C 0.2518(5) 0.0872(3) 0.0123(3)
O1 O 0.3290(4) 0.4329(2) 0.3117(3)
O2 O 0.0666(4) 0.4489(2) 0.3713(3)
O3 O -0.1097(6) 0.1568(3) 0.4270(3)
O4 O -0.0803(4) 0.0775(2) 0.2892(3)
O5 O 0.6597(4) 0.2429(2) 0.2139(2)
O6 O 0.7495(3) 0.1506(2) 0.0918(2)
O7 O 0.3166(4) 0.0729(3) -0.0674(3)
O8 O 0.0918(3) 0.0944(2) 0.0290(2)
O9 O 0.3477(3) 0.2685(2) 0.1356(2)
O10 O 0.2979(3) 0.1045(2) 0.1847(2)
O11 O 0.3114(3) 0.2370(2) 0.3045(2)
O12 O 0.0727(3) 0.2275(2) 0.2040(2)
O13 O 0.6063(6) 0.4524(3) 0.2024(3)
H5 H 0.62210 0.50340 0.23740
H6 H 0.69590 0.43780 0.17120
O14 O 0.6229(5) 0.3308(3) 0.4115(3)
H7 H 0.66640 0.27320 0.41920
H8 H 0.54720 0.34070 0.45400
K1 K -0.2728(2) -0.03726(10) 0.42312(10)
O15 O 0.4938(5) 0.6192(3) 0.0596(3)
Cu2* Cu 0.98048(6) 0.09172(4) 0.15545(4)
Cu2B Cu 0.01952(6) 0.59172(4) 0.34455(4)
O2B O -0.0666(4) -0.0511(2) 0.1287(3)
O6* O -0.2505(3) 0.1506(2) 0.0918(2)
#END
