
#######################################################################
#
#                 Cambridge Crystallographic Data Centre
#                                CCDC
#
#######################################################################
#
# If this CIF has been generated from an entry in the Cambridge
# Structural Database, then it will include bibliographic, chemical,
# crystal, experimental, refinement or atomic coordinate data resulting
# from the CCDC's data processing and validation procedures.
#
#######################################################################

data_CSD_CIF_CAXTUS
_audit_creation_date 2012-07-19
_audit_creation_method CSD-ConQuest-V1
_database_code_CSD CAXTUS
_database_code_depnum_ccdc_archive 'CCDC 850715'
_chemical_formula_sum 'C83 H117 N7 O23 S1 Zn2'
_chemical_formula_moiety
;
(C2 H8 N1 1+)n,n(C51 H29 O10 S1 Zn2 1-),6n(C5 H11 N1 O1),7n(H2 O1)
;
_journal_coden_Cambridge 222
_journal_volume 41
_journal_year 2012
_journal_page_first 4172
_journal_name_full 'Dalton Trans. '
loop_
_publ_author_name
"I.M.Hauptvogel"
"V.Bon"
"R.Grunker"
"I.A.Baburin"
"I.Senkovska"
"U.Mueller"
"S.Kaskel"
_chemical_name_systematic
;
catena-[Dimethylammonium 
(\m~6~-4,4',4''-(benzene-1,3,5-triyl-tris(benzene-4,1-diyl))tribenzoato)-(\m~2
~-thiophene-2,5-dicarboxylato)-di-zinc(ii) N,N-diethylformamide solvate 
heptahydrate]
;
_chemical_name_common
;
DUT-42
;
_cell_volume  13530.473
_exptl_crystal_colour 'yellow'
_exptl_special_details
;
air-, heat- and moisture-sensitive

;
_exptl_crystal_description 'hexagon'
_diffrn_ambient_temperature 296
_diffrn_radiation_probe x-ray
_diffrn_source synchrotron
_refine_special_details
;
Disordered cations and solvent molecules were not modelled and the disordered 
density was taken into account using the SQUEEZE/PLATON procedure. The unit 
cell was found to contain a void of 8218 A$3! holding 3200 electrons.
;
#These two values have been output from a single CSD field.
_refine_ls_R_factor_gt 0.0428
_refine_ls_wR_factor_gt 0.0428
_symmetry_cell_setting hexagonal
_symmetry_space_group_name_H-M 'P 65 2 2'
_symmetry_Int_Tables_number 179
loop_
_symmetry_equiv_pos_site_id
_symmetry_equiv_pos_as_xyz
1 x,y,z
2 x-y,x,5/6+z
3 -y,x-y,2/3+z
4 -x,-y,1/2+z
5 -x+y,-x,1/3+z
6 y,-x+y,1/6+z
7 -y,-x,1/6-z
8 x-y,-y,-z
9 x,x-y,5/6-z
10 y,x,2/3-z
11 -x+y,y,1/2-z
12 -x,-x+y,1/3-z
_cell_length_a 24.057(3)
_cell_length_b 24.057(3)
_cell_length_c 26.996(5)
_cell_angle_alpha 90
_cell_angle_beta 90
_cell_angle_gamma 120
_cell_formula_units_Z 6
loop_
_atom_type_symbol
_atom_type_radius_bond
C 0.68
H 0.23
O 0.68
S 1.02
Zn 1.22
loop_
_atom_site_label
_atom_site_type_symbol
_atom_site_fract_x
_atom_site_fract_y
_atom_site_fract_z
Zn1 Zn 0.534630(9) 0.456531(9) 0.020726(7)
S1 S 0.54390(5) 0.54390(5) -0.16670
O1 O 0.51184(9) 0.43904(8) -0.04923(5)
O2 O 0.49334(9) 0.36941(6) 0.04965(6)
O3 O 0.50654(7) 0.37519(10) 0.13014(6)
O4 O 0.48471(11) -0.50480(11) 0.04318(7)
O5 O 0.5769(2) 0.54038(14) -0.05961(12)
C1 C 0.4877(1) 0.34584(8) 0.09106(7)
C2 C 0.45320(12) 0.27333(9) 0.09428(7)
C3 C 0.42618(17) 0.23695(11) 0.05099(9)
H1 H 0.43070 0.25750 0.02090
C4 C 0.44580(14) 0.24208(10) 0.13816(9)
H2 H 0.46310 0.26550 0.16710
C5 C 0.41248(14) 0.1755(1) 0.13970(9)
H3 H 0.40940 0.15480 0.16950
C6 C 0.38370(14) 0.1394(1) 0.09776(9)
C7 C 0.39360(19) 0.17184(11) 0.05329(10)
H4 H 0.37750 0.14840 0.02420
C8 C 0.34415(12) 0.06780(9) 0.09920(8)
C9 C 0.36143(11) 0.03123(10) 0.12795(8)
H5 H 0.39660 0.05120 0.14900
C10 C 0.32598(9) -0.03581(9) 0.12539(8)
H6 H 0.33790 -0.05980 0.14520
C11 C 0.27373(9) -0.06736(8) 0.09423(7)
C12 C 0.25564(13) -0.03005(11) 0.06694(11)
H7 H 0.21970 -0.05000 0.04660
C13 C 0.29003(15) 0.03602(11) 0.06944(11)
H8 H 0.27670 0.05980 0.05080
C14 C 0.23843(9) -0.13793(8) 0.08916(7)
C15 C 0.17178(6) -0.17178(6) 0.08330
H9 H 0.14950 -0.14950 0.08330
C16 C 0.27162(8) -0.17167(9) 0.08888(7)
H10 H 0.31600 -0.14960 0.09240
C17 C 0.23855(6) -0.23855(6) 0.08330
C18 C 0.27450(6) -0.27450(6) 0.08330
C19 C 0.33013(11) -0.25301(11) 0.1108(1)
H11 H 0.34550 -0.21580 0.12960
C20 C 0.36340(13) -0.28668(13) 0.11057(11)
H12 H 0.40070 -0.27140 0.12920
C21 C 0.34212(7) -0.34212(7) 0.08330
C22 C 0.37772(7) -0.37772(7) 0.08330
C23 C 0.41267(17) -0.37744(18) 0.12458(12)
H13 H 0.41380 -0.35390 0.15230
C24 C 0.48159(7) -0.48159(7) 0.08330
C25 C 0.44576(7) -0.44576(7) 0.08330
C26 C 0.44591(16) -0.41099(17) 0.12588(12)
H14 H 0.46800 -0.41060 0.15430
C27 C 0.50502(14) 0.48319(14) -0.12472(9)
C28 C 0.44964(15) 0.43649(14) -0.14398(10)
H15 H 0.42280 0.39850 -0.12730
C29 C 0.53379(16) 0.48932(15) -0.07411(10)
Zn1I Zn 0.456531(9) 0.534630(9) -0.354059(7)
Zn1F Zn 0.543469(9) 0.465370(9) 0.145941(7)
Zn1* Zn 0.534630(9) -0.543469(9) 0.020726(7)
Zn1F* Zn -0.456531(9) -0.534630(9) 0.145941(7)
Zn1** Zn -0.465370(9) -0.543469(9) 0.020726(7)
Zn1F** Zn 0.543469(9) -0.534630(9) 0.145941(7)
O1I O 0.43904(9) 0.51184(8) -0.284103(50)
O2F O -0.36941(9) -0.49334(6) 0.117017(60)
O2I O 0.36941(9) 0.49334(6) -0.382983(60)
O3F O -0.37519(7) -0.50654(10) 0.036527(60)
O3F* O 0.62481(7) 0.49346(10) 0.036527(60)
O3C O 0.49346(7) 0.62481(10) -0.36986(6)
O4F O 0.50480(11) -0.48471(11) 0.123487(70)
O4* O 0.48471(11) 0.49520(11) 0.04318(7)
O4I O 0.49520(11) 0.48471(11) -0.376513(70)
O5I O 0.54038(20) 0.57690(14) -0.273723(120)
C1F C -0.34584(10) -0.48770(8) 0.075607(70)
C2F C -0.27333(12) -0.45320(9) 0.072387(70)
C3F C -0.23695(17) -0.42618(11) 0.115677(90)
H1F H -0.25750 -0.43070 0.14577
C4F C -0.24208(14) -0.4458(1) 0.028507(90)
H2F H -0.26550 -0.46310 -0.00043
C5F C -0.17550(14) -0.41248(10) 0.026967(90)
H3F H -0.15480 -0.40940 -0.00283
C6F C -0.13940(14) -0.3837(1) 0.068907(90)
C7F C -0.17184(19) -0.39360(11) 0.113377(100)
H4F H -0.14840 -0.37750 0.14247
C8F C -0.06780(12) -0.34415(9) 0.067467(80)
C9F C -0.03123(11) -0.36143(10) 0.038717(80)
H5F H -0.05120 -0.39660 0.01767
C10F C 0.03581(9) -0.32598(9) 0.041277(80)
H6F H 0.05980 -0.33790 0.02147
C11F C 0.06736(9) -0.27373(8) 0.072437(70)
C12F C 0.03005(13) -0.25564(11) 0.099727(110)
H7F H 0.05000 -0.21970 0.12007
C13F C -0.03602(15) -0.29003(11) 0.097227(110)
H8F H -0.05980 -0.27670 0.11587
C14F C 0.13793(9) -0.23843(8) 0.077507(70)
C16F C 0.17167(8) -0.27162(9) 0.077787(70)
H10F H 0.14960 -0.31600 0.07427
C19F C 0.25301(11) -0.33013(11) 0.055867(100)
H11F H 0.21580 -0.34550 0.03707
C20F C 0.28668(13) -0.36340(13) 0.056097(110)
H12F H 0.27140 -0.40070 0.03747
C23F C 0.37744(17) -0.41267(18) 0.042087(120)
H13F H 0.35390 -0.41380 0.01437
C26F C 0.41099(16) -0.44591(17) 0.040787(120)
H14F H 0.41060 -0.46800 0.01237
C27I C 0.48319(14) 0.50502(14) -0.208613(90)
C28I C 0.43649(15) 0.44964(14) -0.189353(100)
H15I H 0.39850 0.42280 -0.20603
C29I C 0.48932(16) 0.53379(15) -0.259223(100)
#END
