
#######################################################################
#
#                 Cambridge Crystallographic Data Centre
#                                CCDC
#
#######################################################################
#
# If this CIF has been generated from an entry in the Cambridge
# Structural Database, then it will include bibliographic, chemical,
# crystal, experimental, refinement or atomic coordinate data resulting
# from the CCDC's data processing and validation procedures.
#
#######################################################################

data_CSD_CIF_CAXVAA
_audit_creation_date 2012-07-19
_audit_creation_method CSD-ConQuest-V1
_database_code_CSD CAXVAA
_database_code_depnum_ccdc_archive 'CCDC 850716'
_chemical_formula_sum 'C393 H495 N29 O87 Zn10'
_chemical_formula_moiety
;
(C90 H70 O20 Zn4 2+)n,n(C163 H101 O28 Zn6 1-),n(N1 O3 1-),28n(C5 H11 N1 
O1),8n(H2 O1)
;
_journal_coden_Cambridge 222
_journal_volume 41
_journal_year 2012
_journal_page_first 4172
_journal_name_full 'Dalton Trans. '
loop_
_publ_author_name
"I.M.Hauptvogel"
"V.Bon"
"R.Grunker"
"I.A.Baburin"
"I.Senkovska"
"U.Mueller"
"S.Kaskel"
_chemical_name_systematic
;
catena-[(bis(\m~6~-4,4',4''-(Benzene-1,3,5-triyl-tris(benzene-4,1-diyl))triben
zoato)-octa-aqua-tetra-zinc(ii)) 
(tris(\m~6~-4,4',4''-(benzene-1,3,5-triyl-tris(benzene-4,1-diyl))tribenzoato)-
bis(\m~2~-4,4'-biphenyldicarboxylato)-diaqua-hexa-zinc(ii)) nitrate 
N,N-diethylformamide solvate octahydrate]
;
_chemical_name_common
;
DUT-43
;
_cell_volume  45617.374
_exptl_crystal_colour 'colorless'
_exptl_special_details
;
air-, heat- and moisture-sensitive

;
_exptl_crystal_description 'block'
_diffrn_ambient_temperature 296
_diffrn_radiation_probe x-ray
_diffrn_source synchrotron
_refine_special_details
;
Disordered solvent molecules were not modelled and the disordered density was 
taken into account using the SQUEEZE/PLATON procedure. The unit cell was 
found to contain two voids of 12918 A$3!, each holding 2745 electrons.
;
#These two values have been output from a single CSD field.
_refine_ls_R_factor_gt 0.0911
_refine_ls_wR_factor_gt 0.0911
_symmetry_cell_setting monoclinic
_symmetry_space_group_name_H-M 'C 2/c'
_symmetry_Int_Tables_number 15
loop_
_symmetry_equiv_pos_site_id
_symmetry_equiv_pos_as_xyz
1 x,y,z
2 -x,y,1/2-z
3 1/2+x,1/2+y,z
4 1/2-x,1/2+y,1/2-z
5 -x,-y,-z
6 x,-y,-1/2+z
7 -1/2-x,-1/2-y,-z
8 -1/2+x,-1/2-y,-1/2+z
_cell_length_a 23.934(5)
_cell_length_b 41.860(8)
_cell_length_c 45.532(9)
_cell_angle_alpha 90
_cell_angle_beta 90.12(3)
_cell_angle_gamma 90
_cell_formula_units_Z 4
loop_
_atom_type_symbol
_atom_type_radius_bond
C 0.68
H 0.23
N 0.68
O 0.68
Zn 1.22
loop_
_atom_site_label
_atom_site_type_symbol
_atom_site_fract_x
_atom_site_fract_y
_atom_site_fract_z
Zn1 Zn 0.821240(19) 0.136802(9) 0.892340(9)
Zn2 Zn 0.997203(17) 0.142808(10) 1.212464(9)
Zn3 Zn 0.81837(2) 0.132178(11) 0.818918(10)
Zn4 Zn 0.12598(3) 0.636644(13) 0.415638(18)
Zn5 Zn 0.11707(6) 0.63695(2) 0.48558(3)
N1 N 0.4796(3) 0.29930(18) 0.04278(16)
N2 N 0.2225(4) 0.2025(2) 0.35783(18)
O1 O 0.81221(15) 0.14406(7) 0.93536(6)
O2 O 0.89767(18) 0.12578(11) 0.92730(8)
O3 O 0.91459(19) 0.12898(12) 1.17832(8)
O4 O 0.99823(14) 0.14602(7) 1.16967(6)
O5 O 1.07048(11) 0.16164(7) 1.22326(6)
O6 O 1.50190(16) 0.59852(7) 1.22547(7)
O7 O 1.05601(12) 0.17285(7) 1.27061(6)
O8 O 0.87252(13) 0.16722(7) 0.87412(7)
O9 O 0.88646(12) 0.15675(7) 0.82656(7)
O10 O 1.75741(14) 0.15890(9) 0.82955(7)
O11 O 1.74804(12) 0.15337(7) 0.87788(7)
O12 O 1.3347(2) 0.59104(8) 0.8347(1)
O13 O 1.31753(15) 0.59098(7) 0.88212(8)
O14 O 0.81851(18) 0.12801(9) 0.77443(8)
O15 O 0.1414(3) 0.59283(10) 0.42492(14)
O16 O 0.1454(3) 0.59488(12) 0.47162(16)
O17 O 0.18496(12) 0.63142(6) 0.50202(6)
O18 O 0.1095(5) 0.6417(2) 0.5211(3)
O19 O 0.0692(5) 0.6095(2) 0.4987(5)
O20 O 0.5472(2) 0.15008(13) 0.46523(14)
O21 O 0.56081(19) 0.16263(12) 0.41724(12)
O22 O -0.3239(2) 0.16997(11) 0.47375(10)
O23 O -0.30806(16) 0.16208(8) 0.42643(8)
O24 O 0.13945(19) 0.63396(10) 0.37190(11)
O25 O 0.4202(5) 0.3400(3) 0.0576(3)
O26 O 0.2692(5) 0.1594(3) 0.3379(4)
C1 C 0.8591(3) 0.13572(11) 0.94431(11)
C2 C 0.8719(2) 0.13783(11) 0.97687(9)
C3 C 0.8341(3) 0.14907(14) 0.99657(11)
H1 H 0.79960 0.15630 0.98990
C4 C 0.8459(2) 0.14995(14) 1.02626(11)
H2 H 0.81860 0.15700 1.03930
C5 C 0.8969(2) 0.14067(12) 1.03692(10)
C6 C 0.9343(3) 0.12881(15) 1.01709(11)
H3 H 0.96890 0.12180 1.02380
C7 C 0.9223(3) 0.12678(15) 0.98730(11)
H4 H 0.94830 0.11800 0.97450
C8 C 0.9113(2) 0.14061(12) 1.06860(11)
C9 C 0.9611(2) 0.15189(14) 1.07891(10)
H5 H 0.98740 0.15990 1.06580
C10 C 0.9730(2) 0.15160(13) 1.10863(10)
H6 H 1.00710 0.15970 1.11500
C11 C 0.9358(2) 0.13965(11) 1.12935(10)
C12 C 0.9488(2) 0.13786(11) 1.1614(1)
C13 C 1.08370(17) 0.17405(9) 1.24725(8)
C14 C 1.13762(17) 0.19231(9) 1.24831(9)
C15 C 1.1535(2) 0.20802(13) 1.27392(10)
H7 H 1.13050 0.20720 1.29030
C16 C 1.2027(2) 0.22462(12) 1.27508(10)
H8 H 1.21210 0.23530 1.29230
C17 C 1.23919(18) 0.22596(10) 1.25117(10)
C18 C 1.2225(2) 0.20919(13) 1.2259(1)
H9 H 1.24600 0.20880 1.20960
C19 C 1.17298(19) 0.19367(11) 1.22479(9)
H10 H 1.16260 0.18360 1.20740
C20 C 1.29308(18) 0.24320(9) 1.25189(10)
C21 C 1.29987(18) 0.27090(11) 1.26820(11)
H11 H 1.27010 0.27860 1.27920
C22 C 1.34978(19) 0.28731(10) 1.26841(11)
H12 H 1.35300 0.30590 1.27950
C23 C 1.39593(16) 0.27645(9) 1.25217(9)
C24 C 1.38830(19) 0.24862(10) 1.23584(12)
H13 H 1.41760 0.24080 1.22460
C25 C 1.33861(19) 0.23265(11) 1.23605(12)
H14 H 1.33530 0.21400 1.22510
C26 C 1.44981(16) 0.29408(8) 1.25143(8)
C27 C 1.44949(17) 0.32751(9) 1.25159(8)
H15 H 1.41580 0.33850 1.25280
C28 C 1.50000 0.34439(11) 1.25000
C29 C 1.50000 0.37971(12) 1.25000
C30 C 1.53415(19) 0.39671(9) 1.23136(11)
H16 H 1.55720 0.38580 1.21840
C31 C 1.5347(2) 0.42979(10) 1.23156(11)
H17 H 1.55890 0.44060 1.21910
C32 C 1.50000 0.44716(14) 1.25000
C33 C 1.50000 0.48213(14) 1.25000
C34 C 1.5075(3) 0.50006(11) 1.22418(11)
H18 H 1.51200 0.48940 1.20640
C35 C 1.5083(3) 0.53223(10) 1.22439(11)
H19 H 1.51470 0.54310 1.20690
C36 C 1.50000 0.54976(14) 1.25000
C37 C 1.50000 0.27829(12) 1.25000
H20 H 1.50000 0.25610 1.25000
C38 C 1.50000 0.58532(13) 1.25000
C39 C 0.8850(3) 0.12853(14) 1.11892(11)
H21 H 0.85920 0.12050 1.13220
C40 C 0.8716(3) 0.12890(14) 1.08978(10)
H22 H 0.83680 0.12160 1.08360
C41 C 0.89971(18) 0.16945(9) 0.85056(9)
C42 C 1.73110(18) 0.16260(9) 0.85357(9)
C43 C 1.67681(18) 0.18037(10) 0.85218(9)
C44 C 1.6449(2) 0.18446(12) 0.87713(10)
H23 H 1.65760 0.17630 0.89490
C45 C 1.5958(2) 0.20006(13) 0.87614(10)
H24 H 1.57490 0.20190 0.89320
C46 C 1.5749(2) 0.21386(10) 0.84984(10)
C47 C 1.6086(2) 0.20999(12) 0.8249(1)
H25 H 1.59750 0.21920 0.80720
C48 C 1.6576(2) 0.19286(12) 0.8260(1)
H26 H 1.67810 0.18970 0.80890
C49 C 1.52162(19) 0.23172(10) 0.84939(10)
C50 C 1.4766(2) 0.22241(10) 0.86662(11)
H27 H 1.47980 0.20430 0.87830
C51 C 1.4276(2) 0.23928(10) 0.86688(11)
H28 H 1.39810 0.23220 0.87850
C52 C 1.42122(17) 0.26698(8) 0.84999(9)
C53 C 1.46607(18) 0.27612(9) 0.83275(10)
H29 H 1.46290 0.29440 0.82130
C54 C 1.51476(19) 0.2591(1) 0.83213(11)
H30 H 1.54380 0.26580 0.82010
C55 C 1.36878(18) 0.28551(8) 0.85093(9)
C56 C 1.36971(17) 0.31897(8) 0.85130(8)
H31 H 1.40370 0.32970 0.85030
C57 C 1.32061(16) 0.33616(8) 0.85320(8)
C58 C 1.32219(17) 0.37205(9) 0.85408(9)
C59 C 1.28505(19) 0.38921(9) 0.87137(11)
H32 H 1.25870 0.37840 0.88260
C60 C 1.2869(2) 0.4219(1) 0.87203(11)
H33 H 1.26150 0.43260 0.88390
C61 C 1.3239(2) 0.43943(10) 0.85614(11)
C62 C 1.3254(2) 0.47477(10) 0.85665(11)
C63 C 1.3636(2) 0.42233(10) 0.83891(12)
H34 H 1.39070 0.43340 0.82830
C64 C 1.3619(2) 0.38926(9) 0.83797(11)
H35 H 1.38750 0.37830 0.82640
C65 C 1.27003(17) 0.32063(9) 0.85375(9)
H36 H 1.23720 0.33250 0.85460
C66 C 1.26704(17) 0.28708(9) 0.85307(9)
C67 C 1.21282(17) 0.27079(8) 0.85346(9)
C68 C 1.2042(2) 0.24221(11) 0.83742(12)
H37 H 1.23350 0.23360 0.82660
C69 C 1.1541(2) 0.22724(11) 0.83751(12)
H38 H 1.15020 0.20830 0.82700
C70 C 1.10740(18) 0.23911(10) 0.85293(10)
C71 C 1.11644(19) 0.26714(10) 0.86832(11)
H39 H 1.08700 0.27590 0.87900
C72 C 1.16709(19) 0.28268(10) 0.86855(11)
H40 H 1.17070 0.30160 0.87910
C73 C 1.31748(16) 0.27030(9) 0.85144(9)
H41 H 1.31650 0.24810 0.85070
C74 C 1.3260(2) 0.57730(11) 0.85835(12)
C75 C 1.3266(2) 0.54191(10) 0.85842(11)
C76 C 1.3120(3) 0.52413(10) 0.88285(12)
H42 H 1.30190 0.53460 0.90010
C77 C 1.3120(3) 0.49168(11) 0.88220(12)
H43 H 1.30300 0.48040 0.89910
C78 C 1.3414(3) 0.52541(10) 0.83323(13)
H44 H 1.35260 0.53670 0.81670
C79 C 1.3399(3) 0.49224(11) 0.83222(13)
H45 H 1.34870 0.48170 0.81480
C80 C 0.95242(19) 0.18874(10) 0.85084(9)
C81 C 0.9677(2) 0.20625(12) 0.87546(10)
H46 H 0.94420 0.20680 0.89170
C82 C 1.0173(2) 0.22274(13) 0.87604(10)
H47 H 1.02630 0.23460 0.89270
C83 C 1.05446(19) 0.22231(10) 0.8525(1)
C84 C 1.0374(2) 0.20451(14) 0.82783(11)
H48 H 1.06060 0.20370 0.81150
C85 C 0.9877(2) 0.18842(13) 0.82727(10)
H49 H 0.97770 0.17700 0.81050
C86 C 0.1479(3) 0.58066(13) 0.4472(2)
C87 C 0.1505(3) 0.54485(12) 0.44911(17)
C88 C 0.1419(4) 0.52930(16) 0.4769(2)
H50 H 0.13580 0.54130 0.49380
C89 C 0.1428(4) 0.49598(14) 0.47815(19)
H51 H 0.13950 0.48560 0.49610
C90 C 0.1488(3) 0.47772(12) 0.45167(15)
C91 C 0.1579(4) 0.49310(14) 0.42664(18)
H52 H 0.16340 0.48140 0.40950
C92 C 0.1593(3) 0.52695(14) 0.42537(18)
H53 H 0.16660 0.53690 0.40750
C93 C 0.1447(2) 0.44257(11) 0.45311(14)
C94 C 0.1800(3) 0.42275(11) 0.43667(14)
H54 H 0.20670 0.43190 0.42450
C95 C 0.1759(2) 0.38959(10) 0.43820(12)
H55 H 0.20170 0.37700 0.42820
C96 C 0.1344(2) 0.37524(10) 0.45431(11)
C97 C 0.0977(3) 0.39512(12) 0.47012(15)
H56 H 0.06840 0.38620 0.48080
C98 C 0.1053(3) 0.42812(13) 0.46974(17)
H57 H 0.08230 0.44070 0.48140
C99 C 0.1298(2) 0.34005(10) 0.45538(9)
C100 C 0.1771(2) 0.32081(9) 0.45467(9)
H58 H 0.21220 0.33030 0.45440
C101 C 0.1728(2) 0.28768(9) 0.45429(9)
C102 C 0.22517(19) 0.26784(9) 0.45180(9)
C103 C 0.2297(2) 0.23839(10) 0.46538(10)
H59 H 0.20000 0.23060 0.47640
C104 C 0.2774(2) 0.22055(10) 0.46284(10)
H60 H 0.27910 0.20060 0.47180
C105 C 0.3239(2) 0.2318(1) 0.44698(10)
C106 C 0.3760(2) 0.21304(10) 0.4448(1)
C107 C 0.4090(2) 0.21352(12) 0.41965(12)
H61 H 0.39650 0.22510 0.40350
C108 C 0.4589(2) 0.19793(13) 0.41758(13)
H62 H 0.48010 0.19930 0.40060
C109 C 0.4774(2) 0.17980(12) 0.44153(13)
C110 C 0.5330(3) 0.16315(14) 0.4403(2)
C111 C 0.4441(2) 0.17808(13) 0.46659(12)
H63 H 0.45530 0.16580 0.48260
C112 C 0.3950(2) 0.19444(12) 0.46761(11)
H64 H 0.37330 0.19300 0.48450
C113 C 0.3182(2) 0.26113(11) 0.43386(11)
H65 H 0.34780 0.26920 0.42300
C114 C 0.2700(2) 0.27906(10) 0.43629(11)
H66 H 0.26800 0.29900 0.42730
C115 C 0.1204(2) 0.27401(10) 0.45484(9)
H67 H 0.11740 0.25190 0.45480
C116 C 0.0725(2) 0.29204(9) 0.45545(9)
C117 C 0.0151(2) 0.27671(10) 0.45463(10)
C118 C 0.0075(2) 0.24753(11) 0.43990(11)
H68 H 0.03750 0.23820 0.43020
C119 C -0.0432(3) 0.23272(12) 0.43970(11)
H69 H -0.04690 0.21330 0.43000
C120 C -0.0888(2) 0.24571(11) 0.45349(10)
C121 C -0.1444(2) 0.22859(11) 0.45337(11)
C122 C -0.1804(3) 0.22924(13) 0.47668(13)
H70 H -0.17120 0.24140 0.49310
C123 C -0.2308(3) 0.21206(14) 0.47662(13)
H71 H -0.25440 0.21250 0.49280
C124 C -0.2447(2) 0.19429(12) 0.45151(12)
C125 C -0.2973(2) 0.17406(12) 0.45062(13)
C126 C -0.2086(3) 0.19423(14) 0.42802(12)
H72 H -0.21730 0.18250 0.41130
C127 C -0.1606(3) 0.21107(14) 0.42904(11)
H73 H -0.13730 0.21090 0.41270
C128 C -0.0827(2) 0.27501(12) 0.46746(12)
H74 H -0.11320 0.28470 0.47640
C129 C -0.0309(2) 0.28974(11) 0.46802(12)
H75 H -0.02720 0.30910 0.47780
C130 C 0.0757(2) 0.32524(10) 0.45525(10)
H76 H 0.04340 0.33760 0.45500
C131 C 0.4667(7) 0.3295(3) 0.0564(3)
H77 H 0.49570 0.34130 0.06470
C132 C 0.4344(6) 0.2811(3) 0.0290(2)
H78 H 0.44550 0.27530 0.00920
H79 H 0.40160 0.29460 0.02750
C133 C 0.4185(6) 0.2496(3) 0.0465(2)
H80 H 0.45180 0.23750 0.05050
H81 H 0.39340 0.23690 0.03480
H82 H 0.40080 0.25520 0.06460
C134 C 0.5347(5) 0.2867(2) 0.04232(19)
H83 H 0.53450 0.26650 0.05280
H84 H 0.55880 0.30120 0.05310
C135 C 0.5599(5) 0.28121(19) 0.01243(17)
H85 H 0.53700 0.26650 0.00160
H86 H 0.59670 0.27250 0.01460
H87 H 0.56190 0.30110 0.00210
C136 C 0.2290(7) 0.1739(3) 0.3417(4)
H88 H 0.19670 0.16580 0.33310
C137 C 0.1676(4) 0.2155(2) 0.35919(19)
H89 H 0.14300 0.20260 0.34720
H90 H 0.16820 0.23680 0.35080
C138 C 0.1443(5) 0.2173(2) 0.38935(19)
H91 H 0.10480 0.21320 0.38870
H92 H 0.15070 0.23820 0.39730
H93 H 0.16220 0.20170 0.40160
C139 C 0.2690(5) 0.2178(3) 0.3697(3)
H94 H 0.30050 0.20320 0.36950
H95 H 0.26140 0.22320 0.39000
C140 C 0.2844(5) 0.2479(3) 0.3531(2)
H96 H 0.29560 0.24230 0.33350
H97 H 0.31470 0.25840 0.36300
H98 H 0.25260 0.26180 0.35230
Zn1* Zn -0.178760(19) 0.136802(9) 0.892340(9)
Zn1** Zn 1.821240(19) 0.136802(9) 0.892340(9)
Zn1B Zn 1.321240(19) 0.636802(9) 0.892340(9)
Zn1B* Zn 0.321240(19) 0.636802(9) 0.892340(9)
Zn2* Zn -0.002797(17) 0.142808(10) 1.212464(9)
Zn2B Zn 1.497203(17) 0.642808(10) 1.212464(9)
Zn2A Zn 1.002797(17) 0.142808(10) 1.287536(9)
Zn2A* Zn 2.002797(17) 0.142808(10) 1.287536(9)
Zn2** Zn 1.997203(17) 0.142808(10) 1.212464(9)
Zn2C Zn 1.502797(17) 0.642808(10) 1.287536(9)
Zn3* Zn -0.18163(2) 0.132178(11) 0.818918(10)
Zn3** Zn 1.81837(2) 0.132178(11) 0.818918(10)
Zn3B Zn 1.31837(2) 0.632178(11) 0.818918(10)
Zn3B* Zn 0.31837(2) 0.632178(11) 0.818918(10)
Zn4B Zn -0.37402(3) 1.136644(13) 0.415638(18)
Zn4B* Zn 0.62598(3) 0.136644(13) 0.415638(18)
Zn4B** Zn -0.37402(3) 0.136644(13) 0.415638(18)
Zn4* Zn -0.87402(3) 0.636644(13) 0.415638(18)
Zn5B Zn -0.38293(6) 1.13695(2) 0.48558(3)
Zn5B* Zn 0.61707(6) 0.13695(2) 0.48558(3)
Zn5B** Zn -0.38293(6) 0.13695(2) 0.48558(3)
Zn5* Zn -0.88293(6) 0.63695(2) 0.48558(3)
O1* O -0.18779(15) 0.14406(7) 0.93536(6)
O2* O -0.10233(18) 0.12578(11) 0.92730(8)
O3* O -0.08541(19) 0.12898(12) 1.17832(8)
O4* O -0.00177(14) 0.14602(7) 1.16967(6)
O5A O 1.92952(11) 0.16164(7) 1.27674(6)
O5* O 0.07048(11) 0.16164(7) 1.22326(6)
O6A O 1.49810(16) 0.59852(7) 1.27453(7)
O6B O 1.00190(16) 0.09852(7) 1.22547(7)
O6B* O 0.00190(16) 0.09852(7) 1.22547(7)
O7A O 1.94399(12) 0.17285(7) 1.22939(6)
O7A* O 0.94399(12) 0.17285(7) 1.22939(6)
O7A** O -0.05601(12) 0.17285(7) 1.22939(6)
O8* O -0.12748(13) 0.16722(7) 0.87412(7)
O9* O -0.11354(12) 0.15675(7) 0.82656(7)
O10* O 0.75741(14) 0.15890(9) 0.82955(7)
O10** O -0.24259(14) 0.15890(9) 0.82955(7)
O11* O 0.74804(12) 0.15337(7) 0.87788(7)
O11** O -0.25196(12) 0.15337(7) 0.87788(7)
O12* O 0.3347(2) 0.59104(8) 0.8347(1)
O12B O 0.8347(2) 0.09104(8) 0.8347(1)
O12B* O -0.1653(2) 0.09104(8) 0.8347(1)
O13* O 0.31753(15) 0.59098(7) 0.88212(8)
O13B O 0.81753(15) 0.09098(7) 0.88212(8)
O13B* O -0.18247(15) 0.09098(7) 0.88212(8)
O14* O -0.18149(18) 0.12801(9) 0.77443(8)
O15B O -0.3586(3) 1.09283(10) 0.42492(14)
O16B O -0.3546(3) 1.09488(12) 0.47162(16)
O17B O -0.31504(12) 1.13142(6) 0.50202(6)
O18B O -0.3905(5) 1.1417(2) 0.5211(3)
O19B O -0.4308(5) 1.1095(2) 0.4987(5)
O20B O 0.0472(2) 0.65008(13) 0.46523(14)
O20* O -0.4528(2) 1.15008(13) 0.46523(14)
O21B O 0.06081(19) 0.66263(12) 0.41724(12)
O21* O -0.43919(19) 1.16263(12) 0.41724(12)
O22B O -0.8239(2) 0.66997(11) 0.47375(10)
O22B* O 0.1761(2) 0.66997(11) 0.47375(10)
O22* O -0.3239(2) 1.16997(11) 0.47375(10)
O23B O -0.80806(16) 0.66208(8) 0.42643(8)
O23B* O 0.19194(16) 0.66208(8) 0.42643(8)
O23* O -0.30806(16) 1.16208(8) 0.42643(8)
O24B O -0.36055(19) 1.13396(10) 0.37190(11)
C1* C -0.1409(3) 0.13572(11) 0.94431(11)
C2* C -0.1281(2) 0.13783(11) 0.97687(9)
C3* C -0.1659(3) 0.14907(14) 0.99657(11)
H1* H -0.20040 0.15630 0.98990
C4* C -0.1541(2) 0.14995(14) 1.02626(11)
H2* H -0.18140 0.15700 1.03930
C5* C -0.1031(2) 0.14067(12) 1.03692(10)
C6* C -0.0657(3) 0.12881(15) 1.01709(11)
H3* H -0.03110 0.12180 1.02380
C7* C -0.0777(3) 0.12678(15) 0.98730(11)
H4* H -0.05170 0.11800 0.97450
C8* C -0.0887(2) 0.14061(12) 1.06860(11)
C9* C -0.0389(2) 0.15189(14) 1.07891(10)
H5* H -0.01260 0.15990 1.06580
C10* C -0.0270(2) 0.15160(13) 1.10863(10)
H6* H 0.00710 0.15970 1.11500
C11* C -0.0642(2) 0.13965(11) 1.12935(10)
C12* C -0.0512(2) 0.13786(11) 1.1614(1)
C13A C 1.91630(17) 0.17405(9) 1.25275(8)
C14A C 1.86238(17) 0.19231(9) 1.25169(9)
C15A C 1.8465(2) 0.20802(13) 1.22608(10)
H7A H 1.86950 0.20720 1.20970
C16A C 1.7973(2) 0.22462(12) 1.22492(10)
H8A H 1.78790 0.23530 1.20770
C17A C 1.76081(18) 0.22596(10) 1.24883(10)
C18A C 1.7775(2) 0.20919(13) 1.2741(1)
H9A H 1.75400 0.20880 1.29040
C19A C 1.82702(19) 0.19367(11) 1.27521(9)
H10A H 1.83740 0.18360 1.29260
C20A C 1.70692(18) 0.24320(9) 1.24811(10)
C21A C 1.70013(18) 0.27090(11) 1.23180(11)
H11A H 1.72990 0.27860 1.22080
C22A C 1.65022(19) 0.28731(10) 1.23159(11)
H12A H 1.64700 0.30590 1.22050
C23A C 1.60407(16) 0.27645(9) 1.24783(9)
C24A C 1.61170(19) 0.24862(10) 1.26416(12)
H13A H 1.58240 0.24080 1.27540
C25A C 1.66139(19) 0.23265(11) 1.26395(12)
H14A H 1.66470 0.21400 1.27490
C26A C 1.55019(16) 0.29408(8) 1.24857(8)
C27A C 1.55051(17) 0.32751(9) 1.24841(8)
H15A H 1.58420 0.33850 1.24720
C30A C 1.46585(19) 0.39671(9) 1.26864(11)
H16A H 1.44280 0.38580 1.28160
C31A C 1.4653(2) 0.42979(10) 1.26844(11)
H17A H 1.44110 0.44060 1.28090
C34A C 1.4925(3) 0.50006(11) 1.27582(11)
H18A H 1.48800 0.48940 1.29360
C35A C 1.4917(3) 0.53223(10) 1.27561(11)
H19A H 1.48530 0.54310 1.29310
C39* C -0.1150(3) 0.12853(14) 1.11892(11)
H21* H -0.14080 0.12050 1.13220
C40* C -0.1284(3) 0.12890(14) 1.08978(10)
H22* H -0.16320 0.12160 1.08360
C41* C -0.10029(18) 0.16945(9) 0.85056(9)
C42* C 0.73110(18) 0.16260(9) 0.85357(9)
C43* C 0.67681(18) 0.18037(10) 0.85218(9)
C44* C 0.6449(2) 0.18446(12) 0.87713(10)
H23* H 0.65760 0.17630 0.89490
C45* C 0.5958(2) 0.20006(13) 0.87614(10)
H24* H 0.57490 0.20190 0.89320
C46* C 0.5749(2) 0.21386(10) 0.84984(10)
C47* C 0.6086(2) 0.20999(12) 0.8249(1)
H25* H 0.59750 0.21920 0.80720
C48* C 0.6576(2) 0.19286(12) 0.8260(1)
H26* H 0.67810 0.18970 0.80890
C49* C 0.52162(19) 0.23172(10) 0.84939(10)
C50* C 0.4766(2) 0.22241(10) 0.86662(11)
H27* H 0.47980 0.20430 0.87830
C51* C 0.4276(2) 0.23928(10) 0.86688(11)
H28* H 0.39810 0.23220 0.87850
C52* C 0.42122(17) 0.26698(8) 0.84999(9)
C53* C 0.46607(18) 0.27612(9) 0.83275(10)
H29* H 0.46290 0.29440 0.82130
C54* C 0.51476(19) 0.2591(1) 0.83213(11)
H30* H 0.54380 0.26580 0.82010
C55* C 0.36878(18) 0.28551(8) 0.85093(9)
C56* C 0.36971(17) 0.31897(8) 0.85130(8)
H31* H 0.40370 0.32970 0.85030
C57* C 0.32061(16) 0.33616(8) 0.85320(8)
C58* C 0.32219(17) 0.37205(9) 0.85408(9)
C59* C 0.28505(19) 0.38921(9) 0.87137(11)
H32* H 0.25870 0.37840 0.88260
C60* C 0.2869(2) 0.4219(1) 0.87203(11)
H33* H 0.26150 0.43260 0.88390
C61* C 0.3239(2) 0.43943(10) 0.85614(11)
C62* C 0.3254(2) 0.47477(10) 0.85665(11)
C63* C 0.3636(2) 0.42233(10) 0.83891(12)
H34* H 0.39070 0.43340 0.82830
C64* C 0.3619(2) 0.38926(9) 0.83797(11)
H35* H 0.38750 0.37830 0.82640
C65* C 0.27003(17) 0.32063(9) 0.85375(9)
H36* H 0.23720 0.33250 0.85460
C66* C 0.26704(17) 0.28708(9) 0.85307(9)
C67* C 0.21282(17) 0.27079(8) 0.85346(9)
C68* C 0.2042(2) 0.24221(11) 0.83742(12)
H37* H 0.23350 0.23360 0.82660
C69* C 0.1541(2) 0.22724(11) 0.83751(12)
H38* H 0.15020 0.20830 0.82700
C70* C 0.10740(18) 0.23911(10) 0.85293(10)
C71* C 0.11644(19) 0.26714(10) 0.86832(11)
H39* H 0.08700 0.27590 0.87900
C72* C 0.16709(19) 0.28268(10) 0.86855(11)
H40* H 0.17070 0.30160 0.87910
C73* C 0.31748(16) 0.27030(9) 0.85144(9)
H41* H 0.31650 0.24810 0.85070
C74* C 0.3260(2) 0.57730(11) 0.85835(12)
C75* C 0.3266(2) 0.54191(10) 0.85842(11)
C76* C 0.3120(3) 0.52413(10) 0.88285(12)
H42* H 0.30190 0.53460 0.90010
C77* C 0.3120(3) 0.49168(11) 0.88220(12)
H43* H 0.30300 0.48040 0.89910
C78* C 0.3414(3) 0.52541(10) 0.83323(13)
H44* H 0.35260 0.53670 0.81670
C79* C 0.3399(3) 0.49224(11) 0.83222(13)
H45* H 0.34870 0.48170 0.81480
C80* C -0.04758(19) 0.18874(10) 0.85084(9)
C81* C -0.0323(2) 0.20625(12) 0.87546(10)
H46* H -0.05580 0.20680 0.89170
C82* C 0.0173(2) 0.22274(13) 0.87604(10)
H47* H 0.02630 0.23460 0.89270
C83* C 0.05446(19) 0.22231(10) 0.8525(1)
C84* C 0.0374(2) 0.20451(14) 0.82783(11)
H48* H 0.06060 0.20370 0.81150
C85* C -0.0123(2) 0.18842(13) 0.82727(10)
H49* H -0.02230 0.17700 0.81050
C86B C -0.3521(3) 1.08066(13) 0.4472(2)
C87B C -0.3495(3) 1.04485(12) 0.44911(17)
C88B C -0.3581(4) 1.02930(16) 0.4769(2)
H50B H -0.36420 1.04130 0.49380
C89B C -0.3572(4) 0.99598(14) 0.47815(19)
H51B H -0.36050 0.98560 0.49610
C90B C -0.3512(3) 0.97772(12) 0.45167(15)
C91B C -0.3421(4) 0.99310(14) 0.42664(18)
H52B H -0.33660 0.98140 0.40950
C92B C -0.3407(3) 1.02695(14) 0.42537(18)
H53B H -0.33340 1.03690 0.40750
C93B C -0.3553(2) 0.94257(11) 0.45311(14)
C94B C -0.3200(3) 0.92275(11) 0.43667(14)
H54B H -0.29330 0.93190 0.42450
C95B C -0.3241(2) 0.88959(10) 0.43820(12)
H55B H -0.29830 0.87700 0.42820
C96B C -0.3656(2) 0.87524(10) 0.45431(11)
C97B C -0.4023(3) 0.89512(12) 0.47012(15)
H56B H -0.43160 0.88620 0.48080
C98B C -0.3947(3) 0.92812(13) 0.46974(17)
H57B H -0.41770 0.94070 0.48140
C99B C -0.3702(2) 0.84005(10) 0.45538(9)
C100B C -0.3229(2) 0.82081(9) 0.45467(9)
H58B H -0.28780 0.83030 0.45440
C101B C -0.3272(2) 0.78768(9) 0.45429(9)
C102B C -0.27483(19) 0.76784(9) 0.45180(9)
C103B C -0.2703(2) 0.73839(10) 0.46538(10)
H59B H -0.30000 0.73060 0.47640
C104B C -0.2226(2) 0.72055(10) 0.46284(10)
H60B H -0.22090 0.70060 0.47180
C105B C -0.1761(2) 0.7318(1) 0.44698(10)
C106B C -0.1240(2) 0.71304(10) 0.4448(1)
C107B C -0.0910(2) 0.71352(12) 0.41965(12)
H61B H -0.10350 0.72510 0.40350
C108B C -0.0411(2) 0.69793(13) 0.41758(13)
H62B H -0.01990 0.69930 0.40060
C109B C -0.0226(2) 0.67980(12) 0.44153(13)
C110B C 0.0330(3) 0.66315(14) 0.4403(2)
C111B C -0.0559(2) 0.67808(13) 0.46659(12)
H63B H -0.04470 0.66580 0.48260
C112B C -0.1050(2) 0.69444(12) 0.46761(11)
H64B H -0.12670 0.69300 0.48450
C113B C -0.1818(2) 0.76113(11) 0.43386(11)
H65B H -0.15220 0.76920 0.42300
C114B C -0.2300(2) 0.77906(10) 0.43629(11)
H66B H -0.23200 0.79900 0.42730
C115B C -0.3796(2) 0.77401(10) 0.45484(9)
H67B H -0.38260 0.75190 0.45480
C116B C -0.4275(2) 0.79204(9) 0.45545(9)
C117B C -0.4849(2) 0.77671(10) 0.45463(10)
C118B C -0.4925(2) 0.74753(11) 0.43990(11)
H68B H -0.46250 0.73820 0.43020
C119B C -0.5432(3) 0.73272(12) 0.43970(11)
H69B H -0.54690 0.71330 0.43000
C120B C -0.5888(2) 0.74571(11) 0.45349(10)
C121B C -0.6444(2) 0.72859(11) 0.45337(11)
C122B C -0.6804(3) 0.72924(13) 0.47668(13)
H70B H -0.67120 0.74140 0.49310
C123B C -0.7308(3) 0.71206(14) 0.47662(13)
H71B H -0.75440 0.71250 0.49280
C124B C -0.7447(2) 0.69429(12) 0.45151(12)
C125B C -0.7973(2) 0.67406(12) 0.45062(13)
C126B C -0.7086(3) 0.69423(14) 0.42802(12)
H72B H -0.71730 0.68250 0.41130
C127B C -0.6606(3) 0.71107(14) 0.42904(11)
H73B H -0.63730 0.71090 0.41270
C128B C -0.5827(2) 0.77501(12) 0.46746(12)
H74B H -0.61320 0.78470 0.47640
C129B C -0.5309(2) 0.78974(11) 0.46802(12)
H75B H -0.52720 0.80910 0.47780
C130B C -0.4243(2) 0.82524(10) 0.45525(10)
H76B H -0.45660 0.83760 0.45500
#END
