
#######################################################################
#
#                 Cambridge Crystallographic Data Centre
#                                CCDC
#
#######################################################################
#
# If this CIF has been generated from an entry in the Cambridge
# Structural Database, then it will include bibliographic, chemical,
# crystal, experimental, refinement or atomic coordinate data resulting
# from the CCDC's data processing and validation procedures.
#
#######################################################################

data_CSD_CIF_CAZNIC
_audit_creation_date 2013-02-01
_audit_creation_method CSD-ConQuest-V1
_database_code_CSD CAZNIC
_database_code_depnum_ccdc_archive 'CCDC 865799'
_chemical_formula_sum 'C72 H60 Cd3 N7 O20'
_chemical_formula_moiety
;
(C70 H52 Cd3 N6 O20 1-)n,n(C2 H8 N1 1+)
;
_journal_coden_Cambridge 182
_journal_volume 48
_journal_year 2012
_journal_page_first 10419
_journal_name_full 'Chem.Commun. '
loop_
_publ_author_name
"Fei-Yan Yi"
"Jian Zhang"
"Hai-Xia Zhang"
"Zhong-Ming Sun"
_chemical_name_systematic
;
catena-(Dimethylammonium 
(\m~10~-4-(3-(4-carboxyphenoxy)-2-((3-(4-carboxyphenoxy)-2,2-bis((4-carboxyphe
noxy)methyl)propoxy)methyl)-2-((4-carboxyphenoxy)methyl)propoxy)benzoato)-(\m~
2~-oxo)-(\m~2~-2,4,6-tri(pyridin-4-yl)-1,3,5-triazine)-tri-cadmium)
;
_cell_volume   2232.530
_exptl_crystal_colour 'brown'
_exptl_crystal_density_diffrn 1.249
_exptl_crystal_description 'plate'
_diffrn_ambient_temperature 273
#These two values have been output from a single CSD field.
_refine_ls_R_factor_gt 0.0509
_refine_ls_wR_factor_gt 0.0509
_symmetry_cell_setting triclinic
_symmetry_space_group_name_H-M 'P 1'
_symmetry_Int_Tables_number 1
loop_
_symmetry_equiv_pos_site_id
_symmetry_equiv_pos_as_xyz
1 x,y,z
_cell_length_a 9.3592(14)
_cell_length_b 15.488(2)
_cell_length_c 16.108(3)
_cell_angle_alpha 78.217(2)
_cell_angle_beta 78.133(2)
_cell_angle_gamma 84.160(2)
_cell_formula_units_Z 1
loop_
_atom_type_symbol
_atom_type_radius_bond
C 0.68
H 0.23
Cd 1.44
N 0.68
O 0.68
loop_
_atom_site_label
_atom_site_type_symbol
_atom_site_fract_x
_atom_site_fract_y
_atom_site_fract_z
Cd1 Cd 0.09064(4) 0.71769(3) -0.05520(3)
Cd2 Cd 0.43905(4) 0.63169(3) -0.12321(3)
Cd3 Cd -0.15358(5) 1.59800(3) -0.18747(3)
N1 N -0.0510(7) 1.2317(4) 0.1641(5)
N2 N -0.0153(8) 1.0779(4) 0.1914(5)
N3 N -0.0300(8) 1.1554(4) 0.0511(4)
N4 N -0.1068(7) 1.4708(4) -0.0893(4)
N5 N -0.0476(12) 1.1530(11) 0.4798(7)
N6 N 0.0548(8) 0.8434(4) 0.0080(5)
C1 C 0.4687(8) -0.0027(4) 0.2833(4)
C2 C 0.3957(8) 0.0644(5) 0.2172(5)
H1 H 0.34380 0.03410 0.18660
H2 H 0.32670 0.10490 0.24620
C3 C 0.5622(9) 0.0432(5) 0.3236(5)
H3 H 0.59740 0.00210 0.37020
H4 H 0.64620 0.06490 0.28090
C4 C 0.3425(8) -0.0428(5) 0.3508(5)
H5 H 0.28950 0.00180 0.38180
H6 H 0.27540 -0.06560 0.32320
C5 C 0.5602(8) -0.0716(5) 0.2393(4)
H7 H 0.64420 -0.04550 0.19980
H8 H 0.59540 -0.11810 0.28190
C6 C 0.5628(9) 0.1742(5) 0.3777(5)
H9 H 0.61650 0.20910 0.32580
H10 H 0.63220 0.14270 0.41210
C7 C 0.4555(8) 0.2335(4) 0.4290(4)
C8 C 0.5458(9) 0.2873(5) 0.4655(5)
H11 H 0.59950 0.24880 0.50550
H12 H 0.61530 0.31950 0.41930
C9 C 0.3570(9) 0.1758(5) 0.5016(5)
H13 H 0.29190 0.21170 0.53800
H14 H 0.29860 0.14160 0.47850
C10 C 0.3563(8) 0.2911(4) 0.3750(4)
H15 H 0.30620 0.25540 0.34840
H16 H 0.28370 0.32430 0.41040
C11 C 0.3835(8) 0.4105(5) 0.2534(4)
C12 C 0.4774(9) 0.4695(6) 0.1940(6)
H17 H 0.57650 0.46560 0.19600
C13 C 0.3983(12) 0.4469(7) 0.6057(7)
H18 H 0.30030 0.44970 0.60140
C14 C 0.403(1) 0.0463(6) 0.6068(6)
C15 C 0.2617(9) 0.0265(6) 0.6312(5)
H19 H 0.19060 0.06320 0.60640
C16 C 0.2209(9) -0.0475(5) 0.6926(5)
H20 H 0.12290 -0.05990 0.71040
C17 C 0.4720(9) 0.1905(5) 0.1108(5)
C18 C 0.3067(9) -0.1564(5) 0.4748(5)
C19 C 0.1602(10) -0.1382(6) 0.4889(6)
H21 H 0.11780 -0.09460 0.45080
C20 C -0.0123(9) 1.0811(5) 0.1057(5)
C21 C -0.0371(8) 1.1543(5) 0.2169(5)
C22 C -0.0510(9) 1.2300(5) 0.0837(5)
C23 C -0.0717(9) 1.3130(5) 0.0245(5)
C24 C -0.0794(16) 1.3144(6) -0.0595(6)
H22 H -0.06950 1.26210 -0.08070
C25 C -0.0811(10) 1.3935(5) 0.0495(6)
H23 H -0.07640 1.39550 0.10620
C26 C -0.0402(9) 1.1547(6) 0.3099(6)
C27 C -0.0418(11) 1.2337(7) 0.3382(7)
H24 H -0.04150 1.28750 0.29980
C28 C -0.0458(13) 1.0775(7) 0.3713(7)
H25 H -0.04780 1.02290 0.35590
C29 C 0.0169(16) 0.9981(6) -0.0092(6)
H26 H 0.00250 1.05120 -0.04640
C30 C 0.0092(9) 0.9990(5) 0.0742(5)
C31 C 0.0318(9) -0.3060(5) 0.6879(5)
C32 C 0.1283(9) -0.2519(6) 0.6150(5)
C33 C 0.7368(7) -0.3053(4) -0.0572(4)
C34 C 0.6696(7) -0.2544(5) 0.0095(5)
C35 C 0.2124(8) 0.6105(5) 0.0685(4)
C36 C 0.2718(8) 0.5411(5) 0.1330(4)
C37 C 0.2377(9) 0.4186(6) 0.2528(5)
H27 H 0.17550 0.38080 0.29330
C38 C 0.1807(9) 0.4823(6) 0.1924(5)
H28 H 0.08120 0.48590 0.19160
C39 C 0.3274(10) -0.1027(5) 0.7271(5)
C40 C 0.5324(8) -0.2117(6) 0.0092(6)
H29 H 0.48140 -0.21590 -0.03360
C41 C 0.3764(9) 0.4381(5) -0.0416(5)
C42 C 0.7374(8) -0.2504(5) 0.0766(5)
H30 H 0.82580 -0.28250 0.08130
C43 C 0.4715(9) -0.1638(6) 0.0710(6)
H31 H 0.37930 -0.13520 0.07030
C44 C 0.2851(10) -0.1825(5) 0.7969(5)
C45 C -0.0974(10) 1.4705(5) -0.0074(6)
H32 H -0.10200 1.52400 0.01100
C46 C 0.0335(10) 0.9165(5) 0.1240(6)
H33 H 0.03610 0.91190 0.18220
C47 C 0.0532(10) 0.8434(5) 0.0895(5)
H34 H 0.06650 0.78940 0.12560
C48 C 0.5451(9) -0.1577(6) 0.1332(6)
C49 C 0.6768(9) -0.2002(6) 0.1358(5)
H35 H 0.72680 -0.19520 0.17870
C50 C 0.4142(8) 0.3516(5) 0.0111(6)
C51 C 0.2761(11) -0.2701(8) 0.6006(7)
H36 H 0.31850 -0.31490 0.63750
C52 C 0.6334(14) 0.5414(6) 0.7238(5)
C53 C -0.0439(13) 1.2307(10) 0.4219(8)
H37 H -0.04280 1.28320 0.44130
C54 C 0.4718(11) -0.0868(7) 0.6979(6)
H38 H 0.54380 -0.12720 0.71750
C55 C 0.5104(12) -0.0108(8) 0.6396(8)
H39 H 0.60810 0.00220 0.62220
C56 C 0.5034(10) 0.3929(6) 0.5583(6)
C57 C 0.4432(12) 0.4944(6) 0.6573(7)
H40 H 0.37490 0.53090 0.68680
C58 C 0.5810(11) 0.4899(6) 0.6664(5)
C59 C 0.3622(12) -0.2203(8) 0.5295(7)
H41 H 0.46290 -0.23250 0.52010
C60 C 0.0749(11) -0.1850(7) 0.5604(6)
H42 H -0.02480 -0.16950 0.57160
C61 C -0.1023(16) 1.3950(6) -0.1128(6)
H43 H -0.11510 1.39480 -0.16850
C62 C -0.0481(16) 1.0833(9) 0.4507(8)
H44 H -0.05050 1.03040 0.49050
C63 C 0.0443(17) 0.9244(6) -0.0415(6)
H45 H 0.05690 0.92890 -0.10100
C64 C 0.3402(13) 0.2126(8) 0.0913(11)
H46 H 0.26790 0.17220 0.10840
C65 C 0.3121(14) 0.2940(9) 0.0463(12)
H47 H 0.21630 0.31080 0.03960
C66 C 0.5371(12) 0.3330(8) 0.0403(10)
H48 H 0.60330 0.37660 0.02970
C67 C 0.5707(12) 0.2510(8) 0.0859(10)
H49 H 0.66330 0.23770 0.09950
C68 C 0.6844(12) 0.4348(8) 0.6237(7)
H50 H 0.78120 0.43120 0.63060
C69 C 0.4236(9) 0.5327(6) 0.1333(5)
H51 H 0.48660 0.56990 0.09260
C70 C 0.6430(12) 0.3853(9) 0.5710(8)
H52 H 0.71130 0.34670 0.54430
O1 O 0.4793(6) 0.1140(4) 0.3558(4)
O2 O 0.1998(5) 0.6057(3) -0.1326(3)
O3 O 0.5110(6) 0.1115(4) 0.1583(4)
O4 O 0.4010(6) -0.1116(4) 0.4082(4)
O5 O 0.4488(5) 0.3502(3) 0.3097(3)
O6 O 0.4479(7) 0.3469(4) 0.5086(4)
O7 O 0.4543(7) 0.1187(5) 0.5497(4)
O8 O 0.4750(6) -0.1069(4) 0.1938(4)
O9 O -0.0983(7) -0.2811(4) 0.7077(4)
O10 O 0.0810(6) -0.3761(4) 0.7290(3)
O11 O 0.1523(6) -0.1949(4) 0.8186(3)
O12 O 0.0759(6) 0.6196(4) 0.0734(3)
O13 O 0.2964(5) 0.6564(3) 0.0103(3)
O14 O 0.6592(5) -0.3350(4) -0.0995(3)
O15 O 0.4753(6) 0.4931(4) -0.0645(4)
O16 O 0.2523(7) 0.4524(4) -0.0577(5)
O17 O 0.7571(10) 0.5197(5) 0.7396(4)
O18 O 0.8737(5) -0.3209(3) -0.0737(3)
O19 O 0.3873(7) -0.2272(4) 0.8272(4)
O20 O 0.5438(10) 0.6025(4) 0.7488(4)
Cd1* Cd 0.09064(4) -0.28231(3) 0.94480(3)
Cd1** Cd 1.09064(4) -0.28231(3) -0.05520(3)
Cd2* Cd 0.43905(4) -0.36831(3) -0.12321(3)
Cd2** Cd 0.43905(4) -0.36831(3) 0.87679(3)
Cd2*** Cd 0.43905(4) 0.63169(3) 0.87679(3)
Cd3* Cd -0.15358(5) -0.40200(3) 0.81253(3)
Cd3** Cd 0.84642(5) -0.40200(3) -0.18747(3)
Cd3*** Cd 0.84642(5) 0.59800(3) 0.81253(3)
C31* C 0.0318(9) 1.6940(5) -0.3121(5)
C33* C -0.2632(7) 1.6947(4) -0.0572(4)
O9* O -0.0983(7) 1.7189(4) -0.2923(4)
O10* O 0.0810(6) 1.6239(4) -0.2710(3)
O11* O 0.1523(6) 0.8051(4) -0.1814(3)
O14* O -0.3408(5) 1.6650(4) -0.0995(3)
O14** O 0.6592(5) 0.6650(4) -0.0995(3)
O17* O -0.2429(10) 1.5197(5) -0.2604(4)
O18* O -0.1263(5) 0.6791(3) -0.0737(3)
O18** O -0.1263(5) 1.6791(3) -0.0737(3)
O19* O 0.3873(7) 0.7728(4) -0.1728(4)
O20* O 0.5438(10) 0.6025(4) -0.2512(4)
#END
