
#######################################################################
#
#                 Cambridge Crystallographic Data Centre
#                                CCDC
#
#######################################################################
#
# If this CIF has been generated from an entry in the Cambridge
# Structural Database, then it will include bibliographic, chemical,
# crystal, experimental, refinement or atomic coordinate data resulting
# from the CCDC's data processing and validation procedures.
#
#######################################################################

data_CSD_CIF_CAZNOI
_audit_creation_date 2013-02-01
_audit_creation_method CSD-ConQuest-V1
_database_code_CSD CAZNOI
_database_code_depnum_ccdc_archive 'CCDC 865800'
_chemical_formula_sum 'C72 H60 Co3 N7 O21'
_chemical_formula_moiety
;
(C2 H8 N1 1+)n,n(C70 H52 Co3 N6 O21 1-)
;
_journal_coden_Cambridge 182
_journal_volume 48
_journal_year 2012
_journal_page_first 10419
_journal_name_full 'Chem.Commun. '
loop_
_publ_author_name
"Fei-Yan Yi"
"Jian Zhang"
"Hai-Xia Zhang"
"Zhong-Ming Sun"
_chemical_name_systematic
;
catena-(Dimethylammonium 
(\m~11~-4-(3-(4-carboxyphenoxy)-2-((3-(4-carboxyphenoxy)-2,2-bis((4-carboxyphe
noxy)methyl)propoxy)methyl)-2-((4-carboxyphenoxy)methyl)propoxy)benzoato)-(\m~
3~-oxo)-(\m~3~-2,4,6-tri(pyridin-4-yl)-1,3,5-triazine)-tri-cobalt)
;
_cell_volume   7163.256
_exptl_crystal_colour 'red'
_exptl_crystal_density_diffrn 0.712
_exptl_crystal_description 'brick'
_diffrn_ambient_temperature 273
_refine_special_details
;
The structure is disordered.

;
#These two values have been output from a single CSD field.
_refine_ls_R_factor_gt 0.1035
_refine_ls_wR_factor_gt 0.1035
_symmetry_cell_setting monoclinic
_symmetry_space_group_name_H-M 'P 21'
_symmetry_Int_Tables_number 4
loop_
_symmetry_equiv_pos_site_id
_symmetry_equiv_pos_as_xyz
1 x,y,z
2 -x,1/2+y,-z
_cell_length_a 15.061(8)
_cell_length_b 28.353(16)
_cell_length_c 17.069(10)
_cell_angle_alpha 90
_cell_angle_beta 100.653(9)
_cell_angle_gamma 90
_cell_formula_units_Z 2
loop_
_atom_type_symbol
_atom_type_radius_bond
C 0.68
H 0.23
Co 1.26
N 0.68
O 0.68
loop_
_atom_site_label
_atom_site_type_symbol
_atom_site_fract_x
_atom_site_fract_y
_atom_site_fract_z
N1 N 0.570(3) 0.2068(18) 1.553(3)
C1 C 0.529(3) 0.2485(15) 1.546(2)
Co1 Co 0.47826(8) -0.02995(4) 1.13205(6)
Co2 Co 0.51365(8) -0.43085(4) 0.75924(6)
Co3 Co 0.48533(8) -0.03295(4) 0.34659(6)
N2 N 0.4805(7) -0.1139(3) 0.7391(4)
N3 N 0.4878(7) -0.1858(3) 0.6736(5)
N4 N 0.4856(7) -0.1855(3) 0.8115(5)
N5 N 0.4691(6) -0.0661(3) 1.0207(4)
N6 N 0.4843(6) -0.0688(3) 0.4578(4)
N7 N 0.5089(6) -0.3558(3) 0.7536(4)
C2 C -0.0589(6) -0.3398(4) 1.2871(6)
H1 H -0.05070 -0.37340 1.28080
H2 H -0.11670 -0.33080 1.25540
C3 C 0.0790(7) -0.3430(4) 1.2353(6)
H3 H 0.06280 -0.37600 1.23750
H4 H 0.13690 -0.33830 1.27020
C4 C -0.0565(6) -0.3279(3) 1.3753(6)
C5 C 0.0864(6) -0.3300(3) 1.1510(5)
C6 C 0.0329(7) -0.3362(4) 1.4254(7)
H5 H 0.07590 -0.31330 1.41290
H6 H 0.02900 -0.33290 1.48120
C7 C -0.1274(7) -0.3615(4) 1.4017(6)
H7 H -0.18540 -0.35790 1.36650
H8 H -0.10820 -0.39400 1.39930
C8 C -0.0793(7) -0.2772(4) 1.3876(6)
H9 H -0.07420 -0.27070 1.44410
H10 H -0.03780 -0.25670 1.36670
C9 C 0.1133(7) -0.2803(4) 1.1449(6)
H11 H 0.12000 -0.27310 1.09070
H12 H 0.06760 -0.25950 1.15920
C10 C 0.1525(8) -0.3640(4) 1.1256(6)
H13 H 0.21000 -0.36250 1.16210
H14 H 0.12960 -0.39600 1.12550
C11 C -0.0026(7) -0.3362(4) 1.0980(6)
H15 H -0.04530 -0.31350 1.11170
H16 H 0.00320 -0.33090 1.04300
C12 C 0.1410(8) -0.3976(4) 1.4579(7)
C13 C 0.1714(9) -0.4404(4) 1.4386(8)
H17 H 0.14020 -0.45720 1.39540
C14 C 0.2496(9) -0.4585(4) 1.4845(8)
H18 H 0.26920 -0.48820 1.47190
C15 C 0.2992(7) -0.4347(4) 1.5475(6)
C16 C 0.2671(9) -0.3915(4) 1.5630(8)
H19 H 0.29910 -0.37380 1.60470
C17 C 0.1880(9) -0.3727(5) 1.5185(8)
H20 H 0.16780 -0.34310 1.53080
C18 C 0.3805(7) -0.4536(3) 1.5972(5)
C19 C -0.1915(9) -0.3762(5) 1.5154(8)
C20 C -0.2357(10) -0.4153(5) 1.4814(8)
H21 H -0.23060 -0.42490 1.43040
C21 C -0.2888(8) -0.4403(4) 1.5264(6)
H22 H -0.31610 -0.46820 1.50600
C22 C -0.3017(7) -0.4251(4) 1.5990(6)
C23 C -0.2583(8) -0.3852(5) 1.6284(7)
H23 H -0.26680 -0.37420 1.67780
C24 C -0.2017(9) -0.3602(5) 1.5877(7)
H24 H -0.17170 -0.33320 1.60970
C25 C -0.3624(7) -0.4497(3) 1.6438(5)
C26 C -0.2046(8) -0.2252(4) 1.3589(8)
C27 C -0.1597(9) -0.1905(5) 1.4021(10)
H25 H -0.10070 -0.19510 1.42880
C28 C -0.2016(9) -0.1483(5) 1.4066(8)
H26 H -0.16950 -0.12380 1.43520
C29 C -0.2888(8) -0.1407(4) 1.3708(7)
C30 C -0.3319(8) -0.1773(5) 1.3240(9)
H27 H -0.39040 -0.17320 1.29590
C31 C -0.2897(9) -0.2175(5) 1.3198(10)
H28 H -0.31970 -0.24150 1.28850
C32 C -0.3361(9) -0.0953(4) 1.3738(7)
C33 C 0.2372(8) -0.2300(4) 1.2030(7)
C34 C 0.234(2) -0.2001(9) 1.1385(11)
H29 H 0.19990 -0.20810 1.08900
C35 C 0.2811(14) -0.1588(6) 1.1486(9)
H30 H 0.27970 -0.13910 1.10480
C36 C 0.3289(7) -0.1455(4) 1.2182(6)
C37 C 0.3237(15) -0.1718(6) 1.2774(9)
H31 H 0.34380 -0.15970 1.32830
C38 C 0.2885(15) -0.2193(8) 1.2705(10)
H32 H 0.30180 -0.24090 1.31190
C39 C 0.3800(6) -0.0995(3) 1.2262(5)
C40 C 0.2189(8) -0.3776(5) 1.0112(7)
C41 C 0.2268(9) -0.3609(5) 0.9354(7)
H33 H 0.19210 -0.33560 0.91250
C42 C 0.2863(9) -0.3826(5) 0.8959(7)
H34 H 0.29710 -0.36970 0.84850
C43 C 0.3315(6) -0.4240(4) 0.9255(6)
C44 C 0.3216(9) -0.4392(4) 0.9989(7)
H35 H 0.35180 -0.46640 1.01960
C45 C 0.2680(8) -0.4156(4) 1.0436(7)
H36 H 0.26540 -0.42560 1.09510
C46 C 0.3959(7) -0.4467(3) 0.8801(6)
C47 C -0.1152(7) -0.3968(4) 1.0553(6)
C48 C -0.1364(9) -0.4412(5) 1.0643(9)
H37 H -0.09920 -0.46050 1.10040
C49 C -0.2168(9) -0.4590(4) 1.0179(8)
H38 H -0.23410 -0.49000 1.02420
C50 C -0.2686(6) -0.4305(4) 0.9640(5)
C51 C -0.2438(8) -0.3850(4) 0.9585(7)
H39 H -0.28030 -0.36510 0.92290
C52 C -0.1668(8) -0.3676(4) 1.0035(8)
H40 H -0.15020 -0.33630 0.99880
C53 C -0.3513(7) -0.4496(4) 0.9107(6)
C54 C 0.4818(9) -0.1386(3) 0.8066(5)
C55 C 0.4846(9) -0.1402(3) 0.6752(5)
C56 C 0.4908(8) -0.2068(4) 0.7442(5)
C57 C 0.4774(10) -0.1128(4) 0.8805(6)
C58 C 0.4771(10) -0.0644(4) 0.8846(6)
H41 H 0.48130 -0.04670 0.83960
C59 C 0.471(1) -0.0427(4) 0.9528(6)
H42 H 0.46780 -0.01000 0.95330
C60 C 0.4699(11) -0.1118(4) 1.0180(7)
H43 H 0.46640 -0.12880 1.06390
C61 C 0.4759(13) -0.1356(4) 0.9500(6)
H44 H 0.47890 -0.16840 0.95130
C62 C 0.4846(8) -0.1149(3) 0.6000(5)
C63 C 0.4838(8) -0.0665(3) 0.5958(5)
H45 H 0.48340 -0.04850 0.64130
C64 C 0.4836(8) -0.0452(3) 0.5238(5)
H46 H 0.48300 -0.01240 0.52160
C65 C 0.4841(9) -0.1151(4) 0.4623(6)
H47 H 0.48410 -0.13210 0.41570
C66 C 0.4838(8) -0.1403(3) 0.5322(5)
H48 H 0.48320 -0.17310 0.53250
C67 C 0.4966(8) -0.2582(4) 0.7473(5)
C68 C 0.4979(10) -0.2822(3) 0.8175(6)
H49 H 0.49410 -0.26570 0.86380
C69 C 0.5048(9) -0.3306(3) 0.8191(6)
H50 H 0.50660 -0.34630 0.86720
C70 C 0.5084(9) -0.3322(3) 0.6863(6)
H51 H 0.51100 -0.34920 0.64020
C71 C 0.5043(9) -0.2845(3) 0.6816(5)
H52 H 0.50670 -0.26950 0.63350
O1 O 0.0120(5) -0.3145(3) 1.2619(4)
O2 O 0.5957(7) -0.0760(4) 1.1722(5)
O3 O 0.0622(5) -0.3830(3) 1.4104(5)
O4 O -0.1348(6) -0.3499(3) 1.4791(5)
O5 O -0.1690(5) -0.2688(3) 1.3475(5)
O6 O 0.1983(6) -0.2734(3) 1.1990(5)
O7 O 0.1634(6) -0.3512(3) 1.0489(5)
O8 O -0.0345(5) -0.3821(3) 1.1064(5)
O9 O 0.4262(5) -0.4265(2) 1.6465(4)
O10 O 0.4015(4) -0.4960(2) 1.5889(4)
O11 O -0.3951(5) -0.4882(2) 1.6180(4)
O12 O -0.3764(4) -0.4309(3) 1.7056(4)
O13 O -0.2955(6) -0.0668(3) 1.4315(5)
O14 O -0.4078(5) -0.0865(2) 1.3315(4)
O15 O 0.3981(5) -0.0827(3) 1.2929(4)
O16 O 0.4004(6) -0.0833(3) 1.1647(4)
O17 O 0.4339(5) -0.4829(3) 0.9088(4)
O18 O 0.4040(4) -0.4271(3) 0.8164(4)
O19 O -0.4005(5) -0.4215(2) 0.8653(4)
O20 O -0.3656(5) -0.4937(2) 0.9158(4)
O21 O 0.5077(4) -0.0027(2) 1.2443(3)
C72? C 0.366(8) 0.084(5) 1.611(7)
Co1A Co 0.52174(8) -0.52995(4) 0.86795(6)
Co1A* Co -0.47826(8) -0.52995(4) 0.86795(6)
Co2* Co 0.51365(8) -0.43085(4) 1.75924(6)
Co2** Co -0.48635(8) -0.43085(4) 1.75924(6)
Co2*** Co -0.48635(8) -0.43085(4) 0.75924(6)
Co2A Co 0.48635(8) 0.06915(4) 1.24076(6)
Co3A Co 0.51467(8) -0.53295(4) 1.65341(6)
Co3A* Co -0.48533(8) -0.53295(4) 1.65341(6)
Co3* Co -0.51467(8) -0.03295(4) 1.34659(6)
Co3** Co 0.48533(8) -0.03295(4) 1.34659(6)
O9* O 0.4262(5) -0.4265(2) 0.6465(4)
O10A O 0.5985(4) 0.0040(2) 0.4111(4)
O11A O 0.3951(5) 0.0118(2) 0.3820(4)
O12* O 0.6236(4) -0.4309(3) 0.7056(4)
O14* O 0.5922(5) -0.0865(2) 0.3315(4)
O15* O 0.3981(5) -0.0827(3) 0.2929(4)
O17A O 0.5661(5) 0.0171(3) 1.0912(4)
O19* O 0.5995(5) -0.4215(2) 0.8653(4)
O20A O 0.3656(5) 0.0063(2) 1.0842(4)
O21A O 0.4923(4) -0.5027(2) 0.7557(3)
O21* O 0.5077(4) -0.0027(2) 0.2443(3)
#END
