
#######################################################################
#
#                 Cambridge Crystallographic Data Centre
#                                CCDC
#
#######################################################################
#
# If this CIF has been generated from an entry in the Cambridge
# Structural Database, then it will include bibliographic, chemical,
# crystal, experimental, refinement or atomic coordinate data resulting
# from the CCDC's data processing and validation procedures.
#
#######################################################################

data_CSD_CIF_CAZTUU
_audit_creation_date 2013-02-01
_audit_creation_method CSD-ConQuest-V1
_database_code_CSD CAZTUU
_database_code_depnum_ccdc_archive 'CCDC 873406'
_chemical_formula_sum 'C40 H88 As14 Cd1 K2 N8 O12 Rb2'
_chemical_formula_moiety
;
(C18 H36 K1 N2 O6 1+)2n,n(C4 H16 As14 Cd1 N4 Rb2 2-)
;
_journal_coden_Cambridge 222
_journal_volume 41
_journal_year 2012
_journal_page_first 12365
_journal_name_full 'Dalton Trans. '
loop_
_publ_author_name
"S.Mandal"
"A.C.Reber"
"Meichun Qian"
"R.Liu"
"H.M.Saavedra"
"S.Sen"
"P.S.Weiss"
"S.N.Khanna"
"A.Sen"
_chemical_name_systematic
;
catena-(bis((4,7,13,16,21,24-Hexaoxa-1,10-diazabicyclo[8.8.8]hexacosane)-potas
sium) 
(\m~3~-hetpadeca-arsenido)-(\m~2~-hetpadeca-arsenido)-bis(ethylene-1,2-diamine
)-cadmium-di-rubidium)
;
_chemical_name_common
;
catena-[bis((2,2,2-Cryptand)-potassium) 
(mu!3$-hetpadeca-arsenido)-(mu!2$-hetpadeca-arsenido)-bis(ethylene-1,2-diamine
)-cadmium-di-rubidium]
;
_cell_volume   7454.608
_exptl_crystal_colour 'red'
_exptl_crystal_density_diffrn 2.02
_exptl_crystal_description 'plate'
_diffrn_ambient_temperature 120
_refine_special_details
;
The structure is disordered.

;
#These two values have been output from a single CSD field.
_refine_ls_R_factor_gt 0.0595
_refine_ls_wR_factor_gt 0.0595
_symmetry_cell_setting monoclinic
_symmetry_space_group_name_H-M 'P 21/n'
_symmetry_Int_Tables_number 14
loop_
_symmetry_equiv_pos_site_id
_symmetry_equiv_pos_as_xyz
1 x,y,z
2 1/2-x,1/2+y,1/2-z
3 -x,-y,-z
4 -1/2+x,-1/2-y,-1/2+z
_cell_length_a 14.838(2)
_cell_length_b 20.481(3)
_cell_length_c 24.628(4)
_cell_angle_alpha 90
_cell_angle_beta 95.112(3)
_cell_angle_gamma 90
_cell_formula_units_Z 4
loop_
_atom_type_symbol
_atom_type_radius_bond
C 0.68
H 0.23
As 1.36
Cd 1.44
K 2.03
N 0.83
O 0.68
Rb 2.40
loop_
_atom_site_label
_atom_site_type_symbol
_atom_site_fract_x
_atom_site_fract_y
_atom_site_fract_z
Cd1 Cd 1.09804(4) 0.48132(3) -0.24436(3)
As1 As 1.13993(5) 0.36206(4) -0.28603(3)
As2 As 1.22399(6) 0.56554(4) -0.19522(3)
As3 As 1.02183(6) 0.49696(4) -0.14790(4)
As4 As 1.04516(6) 0.50731(4) -0.35222(4)
As5 As 1.16631(5) 0.42931(4) -0.36414(3)
As6 As 0.98582(6) 0.33536(5) -0.30807(4)
Rb1 Rb 1.18198(7) 0.21887(4) -0.36601(4)
As7 As 1.11552(6) 0.65064(4) -0.21092(4)
As8 As 1.17646(6) 0.52028(4) -0.11160(3)
As9 As 0.97594(6) 0.60337(4) -0.17714(4)
Rb2 Rb 0.98854(14) 0.52297(9) -0.00301(8)
As10 As 0.91984(6) 0.43479(5) -0.35436(4)
As11 As 1.10565(6) 0.36389(4) -0.43842(3)
As12 As 0.96259(6) 0.33899(4) -0.40858(4)
N1 N 1.0299(11) 0.1623(8) -0.3005(7)
As13 As 1.42927(6) 0.17893(4) -0.38138(4)
As14 As 1.33870(6) 0.11432(5) -0.44350(4)
N2 N 0.8390(11) 0.6226(8) 0.0096(7)
C1 C 0.7901(15) 0.6677(11) -0.0218(9)
C2 C 0.8304(14) 0.7040(11) -0.0578(9)
N3 N 0.8973(9) 0.7423(7) -0.0197(6)
K1 K 0.97609(9) 0.84987(6) 0.07485(6)
N4 N 0.7912(5) 0.8531(4) 0.1165(3)
N5 N 1.1632(4) 0.8508(3) 0.0347(3)
O1 O 0.9492(4) 0.9170(2) 0.1747(2)
O2 O 1.1159(4) 0.9344(3) 0.1254(2)
O3 O 0.9066(5) 0.7331(3) 0.1188(3)
O4 O 1.0932(4) 0.7416(3) 0.0974(3)
O5 O 0.8289(4) 0.9083(3) 0.0082(2)
O6 O 0.9971(4) 0.8870(3) -0.0351(2)
C3 C 0.7951(6) 0.8855(5) 0.1696(4)
C4 C 0.7615(7) 0.7843(5) 0.1202(4)
C5 C 0.7307(6) 0.8898(5) 0.0775(4)
C6 C 1.2138(6) 0.9089(4) 0.0562(3)
C7 C 1.2118(6) 0.7903(4) 0.0526(4)
C8 C 1.1489(6) 0.8522(5) -0.0258(4)
C9 C 0.8600(6) 0.9399(5) 0.1765(4)
C10 C 1.0134(6) 0.9652(4) 0.1894(4)
C11 C 1.1057(6) 0.9411(4) 0.1831(3)
C12 C 1.2073(5) 0.9202(4) 0.1154(3)
C13 C 0.9771(7) 0.6966(5) 0.1477(4)
C14 C 0.8288(8) 0.7400(5) 0.1493(5)
C15 C 1.1524(6) 0.7323(4) 0.0563(4)
C16 C 1.0501(7) 0.6825(4) 0.1107(5)
C17 C 0.8404(6) 0.9051(5) -0.0480(4)
C18 C 0.7440(6) 0.8796(6) 0.0204(4)
C19 C 1.0850(6) 0.9032(5) -0.0483(4)
C20 C 0.9324(6) 0.9302(4) -0.0577(4)
H1 H 0.81080 0.85330 0.19770
H2 H 0.73530 0.90190 0.17510
H3 H 0.74720 0.76770 0.08350
H4 H 0.70640 0.78310 0.13850
H5 H 0.66880 0.87820 0.08310
H6 H 0.73800 0.93590 0.08550
H7 H 1.19100 0.94710 0.03610
H8 H 1.27700 0.90380 0.04990
H9 H 1.24390 0.79800 0.08810
H10 H 1.25650 0.78080 0.02730
H11 H 1.20690 0.85910 -0.04030
H12 H 1.12650 0.80990 -0.03850
H13 H 0.84650 0.97180 0.14780
H14 H 0.85430 0.96120 0.21120
H15 H 1.00890 0.97780 0.22710
H16 H 1.00130 1.00350 0.16670
H17 H 1.15010 0.97150 0.19950
H18 H 1.11490 0.89920 0.20110
H19 H 1.22780 0.88170 0.13580
H20 H 1.24600 0.95650 0.12770
H21 H 0.95310 0.65600 0.16060
H22 H 1.00220 0.72130 0.17910
H23 H 0.84740 0.75770 0.18510
H24 H 0.80160 0.69760 0.15410
H25 H 1.11760 0.72540 0.02150
H26 H 1.18930 0.69390 0.06450
H27 H 1.09420 0.65290 0.12870
H28 H 1.02380 0.66160 0.07760
H29 H 0.79430 0.93110 -0.06830
H30 H 0.83410 0.86020 -0.06050
H31 H 0.74430 0.83320 0.01250
H32 H 0.69460 0.89950 -0.00230
H33 H 1.10250 0.94540 -0.03290
H34 H 1.08620 0.90570 -0.08760
H35 H 0.93750 0.93450 -0.09650
H36 H 0.94170 0.97290 -0.04110
C21 C 0.9068(18) 0.1548(13) -0.3283(11)
C22 C 0.9320(15) 0.1201(12) -0.3725(10)
N6 N 0.9907(15) 0.0717(11) -0.3509(9)
C23 C 0.4809(7) 0.6638(4) 0.3052(4)
H37 H 0.49510 0.70970 0.30180
H38 H 0.51190 0.64760 0.33890
C24 C 0.4860(7) 0.7570(5) 0.0497(4)
H39 H 0.55050 0.76570 0.05320
H40 H 0.45640 0.79110 0.02740
C25 C 0.4218(6) 0.8153(4) 0.1799(4)
H41 H 0.46360 0.78860 0.20290
H42 H 0.41920 0.85820 0.19640
C26 C 0.2858(7) 0.7954(5) 0.2224(4)
H43 H 0.22330 0.78320 0.21260
H44 H 0.28660 0.84140 0.23200
C27 C 0.3206(7) 0.7571(5) 0.2713(4)
H45 H 0.28140 0.76430 0.30020
H46 H 0.38040 0.77300 0.28400
C28 C 0.3809(8) 0.6549(5) 0.3060(4)
H47 H 0.36780 0.60840 0.30560
H48 H 0.36270 0.67250 0.33990
C29 C 0.4537(6) 0.8210(4) 0.1242(4)
H49 H 0.41380 0.84940 0.10160
H50 H 0.51430 0.83910 0.12640
C30 C 0.2354(7) 0.6568(5) 0.2557(5)
H51 H 0.19600 0.68490 0.23250
H52 H 0.21270 0.65620 0.29140
C31 C 0.2294(7) 0.5889(5) 0.2329(5)
H53 H 0.26990 0.56030 0.25490
H54 H 0.16820 0.57250 0.23390
C32 C 0.2470(7) 0.5259(5) 0.1550(5)
H55 H 0.18820 0.50700 0.15960
H56 H 0.29310 0.49770 0.17290
C33 C 0.2603(7) 0.5320(5) 0.0955(5)
H57 H 0.24800 0.49040 0.07750
H58 H 0.21860 0.56410 0.07880
C34 C 0.3674(9) 0.5605(5) 0.0337(5)
H59 H 0.33200 0.59690 0.01830
H60 H 0.34980 0.52170 0.01280
C35 C 0.4661(9) 0.5737(5) 0.0305(5)
H61 H 0.50090 0.53830 0.04820
H62 H 0.47860 0.57430 -0.00750
C36 C 0.4683(8) 0.6926(5) 0.0230(4)
H63 H 0.40400 0.68910 0.01230
H64 H 0.49940 0.69130 -0.01010
C37 C 0.5951(8) 0.6358(6) 0.0675(5)
H65 H 0.61560 0.68040 0.07320
H66 H 0.62210 0.61890 0.03590
C38 C 0.6282(7) 0.5955(5) 0.1169(5)
H67 H 0.60490 0.55130 0.11320
H68 H 0.69380 0.59360 0.12050
C39 C 0.6296(7) 0.5943(5) 0.2112(5)
H69 H 0.69480 0.59000 0.21250
H70 H 0.60360 0.55090 0.21240
C40 C 0.6057(6) 0.6319(6) 0.2573(5)
H71 H 0.63650 0.61460 0.29060
H72 H 0.62400 0.67700 0.25350
K2 K 0.41111(10) 0.65339(7) 0.15988(7)
N7 N 0.3262(5) 0.6854(3) 0.2609(3)
N8 N 0.4962(6) 0.6358(4) 0.0560(3)
O7 O 0.3357(4) 0.7867(3) 0.1757(2)
O8 O 0.4532(4) 0.7572(3) 0.1018(2)
O9 O 0.3504(4) 0.5514(3) 0.0893(3)
O10 O 0.2531(4) 0.5889(3) 0.1784(3)
O11 O 0.5097(4) 0.6282(3) 0.2597(3)
O12 O 0.5968(4) 0.6258(3) 0.1625(3)
Rb3? Rb 1.00000 0.50000 -0.50000
Rb1A Rb 1.31802(7) 0.71887(4) -0.13399(4)
Rb2B Rb 1.01146(14) 0.47703(9) 0.00301(8)
As7A As 1.38448(6) 0.15064(4) -0.28908(4)
As2A As 1.27601(6) 0.06554(4) -0.30478(3)
As13A As 1.07073(6) 0.67893(4) -0.11862(4)
As14A As 1.16130(6) 0.61432(5) -0.05650(4)
As14C As 0.83870(6) 0.38568(5) 0.05650(4)
As3B As 0.97817(6) 0.50304(4) 0.14790(4)
#END
