
#######################################################################
#
#                 Cambridge Crystallographic Data Centre
#                                CCDC
#
#######################################################################
#
# If this CIF has been generated from an entry in the Cambridge
# Structural Database, then it will include bibliographic, chemical,
# crystal, experimental, refinement or atomic coordinate data resulting
# from the CCDC's data processing and validation procedures.
#
#######################################################################

data_CSD_CIF_CAZZIP
_audit_creation_date 2017-05-30
_audit_creation_method CSD-ConQuest-V1
_database_code_CSD CAZZIP
_database_code_depnum_ccdc_archive 'CCDC 1527773'
_chemical_formula_sum 'C30 H38 Co11 N44 O6'
_chemical_formula_moiety
;
(C30 H30 Co11 N42 O6 2-)n,2(H4 N1 1+)
;
_journal_coden_Cambridge 1295
_journal_volume 83
_journal_year 2017
_journal_page_first 27
_journal_name_full 'Inorg.Chem.Commun. '
loop_
_publ_author_name
"Bo Ding"
"Shan Zhang"
"Zhong-Yi Liu"
"En-Cui Yang"
"Xiao-Jun Zhao"
_chemical_name_systematic
;
catena-[di-ammonium 
hexakis(\m-hydroxo)-dodecakis(\m-1,2,4-triazolyl)-hexacyano-undeca-cobalt(ii)]

;
_cell_volume   1589.324
_exptl_crystal_colour 'red'
_exptl_crystal_density_diffrn 1.838
_exptl_crystal_description 'BLOCK'
_diffrn_ambient_temperature 296
_refine_special_details
;
The SQUEEZE/PLATON program has been used to model some disordered cations.

;
#These two values have been output from a single CSD field.
_refine_ls_R_factor_gt 0.0568
_refine_ls_wR_factor_gt 0.0568
_symmetry_cell_setting cubic
_symmetry_space_group_name_H-M 'P m -3 m'
_symmetry_Int_Tables_number 221
loop_
_symmetry_equiv_pos_site_id
_symmetry_equiv_pos_as_xyz
1 x,y,z
2 -y,x,z
3 -x,-y,z
4 y,-x,z
5 x,-y,-z
6 y,x,-z
7 -x,y,-z
8 -y,-x,-z
9 z,x,y
10 -x,z,y
11 -z,-x,y
12 x,-z,y
13 z,-x,-y
14 x,z,-y
15 -z,x,-y
16 -x,-z,-y
17 y,z,x
18 -z,-y,-x
19 -z,y,x
20 z,y,-x
21 z,-y,x
22 y,-z,-x
23 -y,-z,x
24 -y,z,-x
25 -x,-y,-z
26 y,-x,-z
27 x,y,-z
28 -y,x,-z
29 -x,y,z
30 -y,-x,z
31 x,-y,z
32 y,x,z
33 -z,-x,-y
34 x,-z,-y
35 z,x,-y
36 -x,z,-y
37 -z,x,y
38 -x,-z,y
39 z,-x,y
40 x,z,y
41 -y,-z,-x
42 z,y,x
43 z,-y,-x
44 -z,-y,x
45 -z,y,-x
46 -y,z,x
47 y,z,-x
48 y,-z,x
_cell_length_a 11.6700(7)
_cell_length_b 11.6700(7)
_cell_length_c 11.6700(7)
_cell_angle_alpha 90
_cell_angle_beta 90
_cell_angle_gamma 90
_cell_formula_units_Z 1
loop_
_atom_type_symbol
_atom_type_radius_bond
C 0.68
H 0.23
Co 1.26
N 0.68
O 0.68
loop_
_atom_site_label
_atom_site_type_symbol
_atom_site_fract_x
_atom_site_fract_y
_atom_site_fract_z
Co1 Co 0.12920(6) 0.87080(6) 0.12920(6)
Co2 Co 0.50000 1.00000 0.50000
N1 N 0.2438(3) 0.9423(5) 0.2438(3)
N2 N 0.3719(4) 1.00000 0.3719(4)
O1 O 0.00000 0.8247(6) 0.00000
H1 H 0.00000 0.75190 0.00000
C1 C 0.3215(4) 0.9120(9) 0.3215(4)
H2 H 0.33870 0.83610 0.33870
C2 C 0.50000 1.1760(16) 0.50000
N3 N 0.50000 1.2779(17) 0.50000
N1T N 0.2438(3) 1.0577(5) 0.2438(3)
C1T C 0.3215(4) 1.0880(9) 0.3215(4)
H2T H 0.33870 1.16390 0.33870
Co1A Co 0.12920(6) 1.12920(6) 0.12920(6)
Co2A Co 0.00000 1.50000 0.50000
N1A N 0.0577(3) 1.2438(5) 0.2438(3)
N2A N 0.0000(4) 1.37190 0.3719(4)
O1A O 0.17530 1.0000(6) 0.00000
H1A H 0.24810 1.00000 0.00000
C1A C 0.0880(4) 1.3215(9) 0.3215(4)
H2A H 0.16390 1.33870 0.33870
N1P N -0.0577(3) 1.2438(5) 0.2438(3)
C1P C -0.0880(4) 1.3215(9) 0.3215(4)
H2P H -0.16390 1.33870 0.33870
Co1B Co -0.12920(6) 1.12920(6) 0.12920(6)
Co2* Co -0.50000 1.00000 0.50000
N1B N -0.2438(3) 1.0577(5) 0.2438(3)
N2B N -0.3719(4) 1.00000 0.3719(4)
O1B O 0.00000 1.1753(6) 0.00000
H1B H 0.00000 1.24810 0.00000
C1B C -0.3215(4) 1.0880(9) 0.3215(4)
H2B H -0.33870 1.16390 0.33870
N1R N -0.2438(3) 0.9423(5) 0.2438(3)
C1R C -0.3215(4) 0.9120(9) 0.3215(4)
H2R H -0.33870 0.83610 0.33870
Co1C Co -0.12920(6) 0.87080(6) 0.12920(6)
N1C N -0.0577(3) 0.7562(5) 0.2438(3)
N2C N 0.0000(4) 0.62810 0.3719(4)
O1C O -0.17530 1.0000(6) 0.00000
H1C H -0.24810 1.00000 0.00000
C1C C -0.0880(4) 0.6785(9) 0.3215(4)
H2C H -0.16390 0.66130 0.33870
N1V N 0.0577(3) 0.7562(5) 0.2438(3)
C1V C 0.0880(4) 0.6785(9) 0.3215(4)
H2V H 0.16390 0.66130 0.33870
Co1D Co 0.12920(6) 1.12920(6) -0.12920(6)
N1D N 0.2438(3) 1.0577(5) -0.2438(3)
N2D N 0.3719(4) 1.00000 -0.3719(4)
C1D C 0.3215(4) 1.0880(9) -0.3215(4)
H2D H 0.33870 1.16390 -0.33870
N1S N 0.2438(3) 0.9423(5) -0.2438(3)
C1S C 0.3215(4) 0.9120(9) -0.3215(4)
H2S H 0.33870 0.83610 -0.33870
Co1E Co -0.12920(6) 1.12920(6) -0.12920(6)
N1E N -0.0577(3) 1.2438(5) -0.2438(3)
N2E N 0.0000(4) 1.37190 -0.3719(4)
C1E C -0.0880(4) 1.3215(9) -0.3215(4)
H2E H -0.16390 1.33870 -0.33870
N1W N 0.0577(3) 1.2438(5) -0.2438(3)
C1W C 0.0880(4) 1.3215(9) -0.3215(4)
H2W H 0.16390 1.33870 -0.33870
Co1F Co -0.12920(6) 0.87080(6) -0.12920(6)
N1F N -0.2438(3) 0.9423(5) -0.2438(3)
N2F N -0.3719(4) 1.00000 -0.3719(4)
C1F C -0.3215(4) 0.9120(9) -0.3215(4)
H2F H -0.33870 0.83610 -0.33870
N1Q N -0.2438(3) 1.0577(5) -0.2438(3)
C1Q C -0.3215(4) 1.0880(9) -0.3215(4)
H2Q H -0.33870 1.16390 -0.33870
Co1G Co 0.12920(6) 0.87080(6) -0.12920(6)
N1G N 0.0577(3) 0.7562(5) -0.2438(3)
N2G N 0.0000(4) 0.62810 -0.3719(4)
C1G C 0.0880(4) 0.6785(9) -0.3215(4)
H2G H 0.16390 0.66130 -0.33870
N1U N -0.0577(3) 0.7562(5) -0.2438(3)
C1U C -0.0880(4) 0.6785(9) -0.3215(4)
H2U H -0.16390 0.66130 -0.33870
N1H N 0.2438(3) 1.2438(5) -0.0577(3)
N2H N 0.3719(4) 1.37190 0.0000(4)
O1H O 0.00000 1.0000(6) -0.17530
H1H H 0.00000 1.00000 -0.24810
C1H C 0.3215(4) 1.3215(9) -0.0880(4)
H2H H 0.33870 1.33870 -0.16390
N1M N 0.2438(3) 1.2438(5) 0.0577(3)
C1M C 0.3215(4) 1.3215(9) 0.0880(4)
H2M H 0.33870 1.33870 0.16390
N1I N -0.2438(3) 1.2438(5) -0.0577(3)
N2I N -0.3719(4) 1.37190 0.0000(4)
C1I C -0.3215(4) 1.3215(9) -0.0880(4)
H2I H -0.33870 1.33870 -0.16390
N1N N -0.2438(3) 1.2438(5) 0.0577(3)
C1N C -0.3215(4) 1.3215(9) 0.0880(4)
H2N H -0.33870 1.33870 0.16390
N1J N -0.2438(3) 0.7562(5) -0.0577(3)
N2J N -0.3719(4) 0.62810 0.0000(4)
C1J C -0.3215(4) 0.6785(9) -0.0880(4)
H2J H -0.33870 0.66130 -0.16390
N1O N -0.2438(3) 0.7562(5) 0.0577(3)
C1O C -0.3215(4) 0.6785(9) 0.0880(4)
H2O H -0.33870 0.66130 0.16390
N1K N 0.2438(3) 0.7562(5) -0.0577(3)
N2K N 0.3719(4) 0.62810 0.0000(4)
C1K C 0.3215(4) 0.6785(9) -0.0880(4)
H2K H 0.33870 0.66130 -0.16390
N1L N 0.2438(3) 0.7562(5) 0.0577(3)
C1L C 0.3215(4) 0.6785(9) 0.0880(4)
H2L H 0.33870 0.66130 0.16390
O1L O 0.00000 1.0000(6) 0.17530
H1L H 0.00000 1.00000 0.24810
C2C C 0.17600 1.5000(16) 0.50000
N3C N 0.27790 1.5000(17) 0.50000
C2B C 0.50000 0.8240(16) 0.50000
N3B N 0.50000 0.7221(17) 0.50000
C2A C -0.17600 1.5000(16) 0.50000
N3A N -0.27790 1.5000(17) 0.50000
C2B* C -0.50000 0.8240(16) 0.50000
N3B* N -0.50000 0.7221(17) 0.50000
C2* C -0.50000 1.1760(16) 0.50000
N3* N -0.50000 1.2779(17) 0.50000
Co2** Co -0.50000 1.00000 -0.50000
Co2*** Co 0.50000 1.00000 -0.50000
Co2A* Co 0.00000 0.50000 -0.50000
Co2A** Co 0.00000 0.50000 0.50000
Co2A*** Co 0.00000 1.50000 -0.50000
Co2H Co -0.50000 0.50000 0.00000
Co2H* Co -0.50000 1.50000 0.00000
Co2H** Co 0.50000 0.50000 0.00000
Co2H*** Co 0.50000 1.50000 0.00000
N2* N -0.6281(4) 1.00000 0.3719(4)
N2B* N 0.6281(4) 1.00000 0.3719(4)
N2C* N 0.0000(4) 1.62810 0.3719(4)
N2D* N -0.6281(4) 1.00000 0.6281(4)
N2D** N 0.3719(4) 1.00000 0.6281(4)
N2E* N 0.0000(4) 1.37190 0.6281(4)
N2F* N -0.3719(4) 1.00000 0.6281(4)
N2F** N 0.6281(4) 1.00000 0.6281(4)
N2G* N 0.0000(4) 1.62810 0.6281(4)
#END
