
#######################################################################
#
#                 Cambridge Crystallographic Data Centre
#                                CCDC
#
#######################################################################
#
# If this CIF has been generated from an entry in the Cambridge
# Structural Database, then it will include bibliographic, chemical,
# crystal, experimental, refinement or atomic coordinate data resulting
# from the CCDC's data processing and validation procedures.
#
#######################################################################

data_CSD_CIF_CECCET
_audit_creation_date 2006-04-04
_audit_creation_method CSD-ConQuest-V1
_database_code_CSD CECCET
_database_code_depnum_ccdc_archive 'CCDC 294603'
_chemical_formula_sum 'C44 H76 Cu6 N8 O108 Rb8 Si2 W22'
_chemical_formula_moiety
;
(C44 H36 Cu6 N8 O88 Si2 W22 8-)n,8n(Rb1 1+),20n(H2 O1)
;
_journal_coden_Cambridge 9
_journal_volume 44
_journal_year 2005
_journal_page_first 9731
_journal_name_full 'Inorg.Chem. '
loop_
_publ_author_name
"S.Reinoso"
"P.Vitoria"
"J.M.Gutierrez-Zorrilla"
"L.Lezama"
"L.San Felices"
"J.I.Beitia"
_chemical_name_systematic
;
catena-[Octa-rubidium 
bis(\m~12~-silicato)-bis(\m~2~-oxalato)-dopentacontakis(\m~2~-oxo)-di-aqua-tet
rakis(2,2'-bipyridyl)-octadecakis(oxo)-hexa-copper(ii)-docosa-tungsten 
icosahydrate]
;
_cell_volume   6476.269
_exptl_crystal_colour 'blue'
_exptl_crystal_density_diffrn 3.904
_exptl_crystal_description 'prism'
_diffrn_ambient_temperature 293
_refine_special_details
;
Some cations and water molecules are disordered. In the anion, the metal atom 
sites have mixed occpancy Cu:W of 0.52:0.48.
;
#These two values have been output from a single CSD field.
_refine_ls_R_factor_gt 0.0485
_refine_ls_wR_factor_gt 0.0485
_symmetry_cell_setting monoclinic
_symmetry_space_group_name_H-M 'P 21/c'
_symmetry_Int_Tables_number 14
loop_
_symmetry_equiv_pos_site_id
_symmetry_equiv_pos_as_xyz
1 x,y,z
2 -x,1/2+y,1/2-z
3 -x,-y,-z
4 x,-1/2-y,-1/2+z
_cell_length_a 12.677(1)
_cell_length_b 18.933(1)
_cell_length_c 26.983(2)
_cell_angle_alpha 90
_cell_angle_beta 90.138(5)
_cell_angle_gamma 90
_cell_formula_units_Z 2
loop_
_atom_type_symbol
_atom_type_radius_bond
C 0.68
H 0.23
Cu 1.47
N 0.68
O 0.66
Rb 1.47
Si 1.20
W 1.37
loop_
_atom_site_label
_atom_site_type_symbol
_atom_site_fract_x
_atom_site_fract_y
_atom_site_fract_z
C1 C 1.3006(14) -0.0326(9) 0.1033(7)
H1 H 1.23680 -0.05530 0.10910
C2 C 1.3795(16) -0.0434(10) 0.1362(8)
H2 H 1.36950 -0.07230 0.16360
C3 C 1.4713(18) -0.0120(11) 0.1285(9)
H3 H 1.52700 -0.01900 0.15040
C4 C 1.4839(15) 0.0316(9) 0.0874(7)
H4 H 1.54740 0.05460 0.08130
C5 C 1.3998(14) 0.0393(9) 0.0566(7)
C6 C 1.4020(15) 0.0813(9) 0.0103(7)
C7 C 1.4876(17) 0.1182(10) -0.0075(9)
H5 H 1.55120 0.11690 0.00970
C8 C 1.4799(18) 0.1555(11) -0.0489(9)
H6 H 1.53820 0.18090 -0.05970
C9 C 1.3853(18) 0.1577(12) -0.0772(10)
H7 H 1.37880 0.18210 -0.10690
C10 C 1.3021(16) 0.1189(10) -0.0554(8)
H8 H 1.23630 0.11970 -0.07070
C11 C 0.9986(15) -0.0260(8) 0.0227(7)
C12 C 0.7090(15) 0.4754(9) -0.1162(8)
H9 H 0.77530 0.45700 -0.12320
C13 C 0.6311(17) 0.4686(11) -0.1509(9)
H10 H 0.64340 0.44420 -0.18020
C14 C 0.5368(17) 0.4973(10) -0.1419(8)
H11 H 0.48220 0.49280 -0.16470
C15 C 0.5223(16) 0.5322(10) -0.1003(8)
H12 H 0.45700 0.55310 -0.09470
C16 C 0.5988(15) 0.5390(9) -0.0651(8)
C17 C 0.5931(14) 0.5737(9) -0.0166(7)
C18 C 0.5054(17) 0.6075(10) 0.0021(9)
H13 H 0.44300 0.60850 -0.01610
C19 C 0.5101(18) 0.6381(11) 0.0455(9)
H14 H 0.45100 0.66200 0.05710
C20 C 0.5977(17) 0.6364(11) 0.0741(9)
H15 H 0.59980 0.65920 0.10460
C21 C 0.6827(17) 0.6002(10) 0.0568(8)
H16 H 0.74250 0.59640 0.07660
C22 C 1.0046(14) 0.4791(8) -0.0238(6)
N1 N 1.3068(12) 0.0056(8) 0.0655(6)
N2 N 1.3129(12) 0.0833(7) -0.0163(6)
N3 N 0.6947(11) 0.5064(7) -0.0743(6)
N4 N 0.6825(12) 0.5694(7) 0.0113(6)
O1 O 1.1406(10) 0.1253(6) 0.0689(6)
O2 O 0.8033(10) -0.0272(6) 0.1478(5)
O3 O 0.746(1) 0.1416(6) -0.0178(5)
O4 O 1.2064(15) 0.2325(8) 0.2316(6)
O5 O 0.869(1) 0.0834(6) 0.3081(5)
O6 O 0.5154(11) 0.0954(7) 0.2325(6)
O7 O 0.4573(8) 0.2615(7) 0.0649(5)
O8 O 0.7517(10) 0.3981(7) -0.0021(5)
O9 O 1.1482(9) 0.3799(6) 0.0826(6)
O10 O 0.8694(10) 0.3741(7) 0.3258(5)
O11 O 0.5232(10) 0.3886(7) 0.2474(6)
O12 O 0.8219(11) 0.5211(7) 0.1779(5)
O13 O 0.9583(8) 0.0667(5) 0.1171(4)
O14 O 0.7693(9) 0.0734(6) 0.0731(5)
O15 O 0.9301(9) 0.1456(6) 0.0359(4)
O16 O 1.063(1) 0.1743(6) 0.1608(4)
O17 O 0.8696(9) 0.0891(6) 0.2036(5)
O18 O 0.6834(8) 0.0951(6) 0.1623(5)
O19 O 0.6511(9) 0.1906(6) 0.0688(5)
O20 O 0.8089(7) 0.2629(6) 0.0317(4)
O21 O 1.0300(7) 0.2547(5) 0.0815(4)
O22 O 1.0136(10) 0.1623(6) 0.2583(5)
O23 O 0.7149(9) 0.1546(5) 0.2500(4)
O24 O 0.5213(8) 0.1802(6) 0.1469(5)
O25 O 0.6561(8) 0.3288(6) 0.0770(4)
O26 O 0.9371(8) 0.3737(5) 0.0496(4)
O27 O 1.0674(8) 0.3152(6) 0.1684(4)
O28 O 1.0141(8) 0.3048(6) 0.2670(4)
O29 O 0.8536(9) 0.2282(6) 0.3035(4)
O30 O 0.5518(9) 0.2414(6) 0.2350(4)
O31 O 0.5223(8) 0.3215(5) 0.1551(5)
O32 O 0.7770(9) 0.4397(6) 0.0955(5)
O33 O 0.9686(9) 0.4335(6) 0.1380(5)
O34 O 0.7161(9) 0.3216(6) 0.2597(5)
O35 O 0.6888(9) 0.4011(6) 0.1814(4)
O36 O 0.8760(8) 0.3916(6) 0.2232(5)
O37 O 0.8500(8) 0.1822(5) 0.1197(4)
O38 O 0.8795(7) 0.2417(5) 0.2103(4)
Cu1 Cu 1.19496(17) 0.03021(12) 0.01743(9)
Cu2 Cu 0.80368(17) 0.52331(12) -0.02196(9)
Cu3 Cu 1.06161(8) 0.23861(6) 0.21581(4)
Rb1 Rb 0.9503(2) 0.17787(14) -0.07683(10)
Rb2 Rb 1.0342(2) 0.12297(15) 0.37466(11)
O39 O 0.6897(8) 0.2477(6) 0.1658(4)
O40 O 0.8520(8) 0.3234(5) 0.1293(4)
O41 O 1.0842(9) -0.0304(6) 0.0463(5)
O42 O 1.0846(9) 0.0562(6) -0.0322(4)
O43 O 0.9258(9) 0.4714(5) -0.0502(4)
O44 O 0.9033(9) 0.5465(6) 0.0308(5)
O45 O 0.8332(12) 0.3089(8) -0.0874(6)
O46 O 1.0630(11) 0.2840(7) -0.0316(6)
O47 O 0.2519(12) 0.2518(8) 0.0248(6)
O48 O 0.6368(17) 0.2341(11) 0.3542(9)
O49 O 1.120(2) 0.1790(15) -0.1482(12)
O50 O 1.416(2) 0.2604(16) -0.1846(13)
O51 O 1.3000(12) 0.1624(8) 0.1485(6)
Si1 Si 0.8186(3) 0.2477(3) 0.15612(19)
Rb3? Rb 0.3015(6) 0.3316(4) 0.1612(3)
O52 O 0.3015(6) 0.3316(4) 0.1612(3)
Rb4? Rb 0.7036(8) -0.1173(6) 0.2318(5)
O53 O 0.7036(8) -0.1173(6) 0.2318(5)
Rb5 Rb 0.8913(4) -0.0571(3) 0.2652(2)
O54? O 0.8913(4) -0.0571(3) 0.2652(2)
Rb6 Rb 1.0901(3) 0.02578(18) 0.20766(15)
O55? O 1.0901(3) 0.02578(18) 0.20766(15)
Rb7? Rb 1.2833(8) 0.0924(5) 0.2402(4)
O56 O 1.2833(8) 0.0924(5) 0.2402(4)
W1 W 1.02165(6) 0.15657(4) 0.09572(3)
W2 W 0.81694(6) 0.06253(4) 0.13988(3)
Cu4? Cu 0.81694(6) 0.06253(4) 0.13988(3)
W3 W 0.78471(6) 0.16397(4) 0.04053(3)
Cu5? Cu 0.78471(6) 0.16397(4) 0.04053(3)
W4? W 1.06161(8) 0.23861(6) 0.21581(4)
W5 W 0.86713(7) 0.14689(4) 0.26206(3)
Cu6? Cu 0.86713(7) 0.14689(4) 0.26206(3)
W6 W 0.60092(6) 0.15544(4) 0.20531(3)
Cu7? Cu 0.60092(6) 0.15544(4) 0.20531(3)
W7 W 0.56588(5) 0.25618(4) 0.10407(3)
Cu8? Cu 0.56588(5) 0.25618(4) 0.10407(3)
W8 W 0.79062(6) 0.35894(4) 0.05294(3)
Cu9? Cu 0.79062(6) 0.35894(4) 0.05294(3)
W9 W 1.02634(7) 0.34892(4) 0.10721(3)
W10 W 0.86897(7) 0.32168(4) 0.27355(3)
Cu10? Cu 0.86897(7) 0.32168(4) 0.27355(3)
W11 W 0.60562(6) 0.33356(4) 0.21477(3)
Cu11? Cu 0.60562(6) 0.33356(4) 0.21477(3)
W12 W 0.82841(7) 0.43421(4) 0.16197(3)
Cu12? Cu 0.82841(7) 0.43421(4) 0.16197(3)
C11B C 1.0014(15) 0.0260(8) -0.0227(7)
C22B C 0.9954(14) 0.5209(8) 0.0238(6)
O42B O 0.9154(9) -0.0562(6) 0.0322(4)
O44B O 1.0967(9) 0.4535(6) -0.0308(5)
#END
