
#######################################################################
#
#                 Cambridge Crystallographic Data Centre
#                                CCDC
#
#######################################################################
#
# If this CIF has been generated from an entry in the Cambridge
# Structural Database, then it will include bibliographic, chemical,
# crystal, experimental, refinement or atomic coordinate data resulting
# from the CCDC's data processing and validation procedures.
#
#######################################################################

data_CSD_CIF_CECJOJ
_audit_creation_date 2000-02-03
_audit_creation_method CSD-ConQuest-V1
_database_code_CSD CECJOJ
_database_code_depnum_ccdc_archive 'CCDC 1122026'
_database_code_depnum_ccdc_journal 182/1149
_chemical_formula_sum 'C8 H20 Cu2 N2 S8'
_chemical_formula_moiety
;
(C2 Cu2 S8 2-)n,2n(C3 H10 N1 1+)
;
_journal_coden_Cambridge 182
_journal_year 1999
_journal_page_first 377
_journal_name_full 'Chem.Commun. '
loop_
_publ_author_name
"Guo-Cong Guo"
"T.C.W.Mak"
_chemical_name_systematic
;
catena(Trimethylammonium (\m~3~-perthiocarbonato)-copper(i))
;
_cell_volume    960.853
_exptl_crystal_colour 'dark red'
_exptl_crystal_density_diffrn 1.824
_exptl_crystal_description 'prism'
_diffrn_ambient_temperature ?
_diffrn_special_details
;
The study was carried out at room temperature,in the range 283-303K

;
#These two values have been output from a single CSD field.
_refine_ls_R_factor_gt 0.0436
_refine_ls_wR_factor_gt 0.0436
_symmetry_cell_setting triclinic
_symmetry_space_group_name_H-M 'P -1'
_symmetry_Int_Tables_number 2
loop_
_symmetry_equiv_pos_site_id
_symmetry_equiv_pos_as_xyz
1 x,y,z
2 -x,-y,-z
_cell_length_a 9.254(1)
_cell_length_b 10.737(1)
_cell_length_c 10.887(1)
_cell_angle_alpha 78.62(1)
_cell_angle_beta 74.18(1)
_cell_angle_gamma 68.22(1)
_cell_formula_units_Z 2
loop_
_atom_type_symbol
_atom_type_radius_bond
C 0.68
H 0.23
Cu 1.16
N 0.68
S 1.02
loop_
_atom_site_label
_atom_site_type_symbol
_atom_site_fract_x
_atom_site_fract_y
_atom_site_fract_z
Cu1 Cu 0.43160(5) 0.05884(4) -0.10888(4)
Cu2 Cu -0.08129(5) 0.54752(4) -0.38404(4)
S1 S 0.00230(8) 0.31708(7) -0.41909(7)
S2 S 0.19141(9) 0.22864(7) -0.33015(8)
S3 S 0.35417(9) 0.28587(7) -0.16682(9)
S4 S 0.09173(10) 0.51067(7) -0.25770(8)
S5 S 0.70718(8) -0.03470(7) -0.11640(7)
S6 S 0.76984(8) -0.20607(7) -0.20199(8)
S7 S 0.42042(8) -0.10376(7) -0.20745(8)
S8 S 0.64691(9) -0.35477(7) -0.31806(8)
C1 C 0.2098(3) 0.3477(3) -0.2523(3)
C2 C 0.6069(3) -0.2174(3) -0.2411(3)
N1 N -0.1762(3) 0.3277(3) -0.0901(3)
C3 C -0.2348(8) 0.4355(5) -0.0067(5)
C4 C -0.0742(6) 0.1985(6) -0.0358(6)
C5 C -0.3134(5) 0.3092(4) -0.1186(5)
H1 H -0.2993(8) 0.5168(5) -0.0476(5)
H2 H -0.2976(8) 0.4097(5) 0.0734(5)
H3 H -0.1458(8) 0.4507(5) 0.0091(5)
H4 H -0.0397(6) 0.1320(6) -0.0947(6)
H5 H 0.0172(6) 0.2101(6) -0.0205(6)
H6 H -0.1345(6) 0.1691(6) 0.0438(6)
H7 H -0.3793(5) 0.3931(4) -0.1546(5)
H8 H -0.2753(5) 0.2435(4) -0.1787(5)
H9 H -0.3747(5) 0.2779(4) -0.0406(5)
N2 N 0.3137(3) -0.1871(3) -0.4424(3)
C6 C 0.1468(5) -0.1515(5) -0.3701(5)
C7 C 0.3418(6) -0.0775(5) -0.5403(5)
C8 C 0.3641(5) -0.3146(4) -0.5017(5)
H10 H 0.1165(5) -0.0691(5) -0.3329(5)
H11 H 0.0798(5) -0.1398(5) -0.4280(5)
H12 H 0.1349(5) -0.2224(5) -0.3032(5)
H13 H 0.3088(6) 0.0043(5) -0.5013(5)
H14 H 0.4534(6) -0.1022(5) -0.5800(5)
H15 H 0.2818(6) -0.0638(5) -0.6041(5)
H16 H 0.3451(5) -0.3847(4) -0.4364(5)
H17 H 0.3041(5) -0.3015(4) -0.5654(5)
H18 H 0.4757(5) -0.3399(4) -0.5414(5)
S5A S 0.29282(8) 0.03470(7) 0.11640(7)
Cu1A Cu 0.56840(5) -0.05884(4) 0.10888(4)
Cu2A Cu 0.08129(5) 0.45248(4) -0.61596(4)
Cu2* Cu 0.91871(5) -0.45248(4) -0.38404(4)
S1A S -0.00230(8) 0.68292(7) -0.58091(7)
S8* S -0.35309(9) 0.64523(7) -0.31806(8)
#END
