
#######################################################################
#
#                 Cambridge Crystallographic Data Centre
#                                CCDC
#
#######################################################################
#
# If this CIF has been generated from an entry in the Cambridge
# Structural Database, then it will include bibliographic, chemical,
# crystal, experimental, refinement or atomic coordinate data resulting
# from the CCDC's data processing and validation procedures.
#
#######################################################################

data_CSD_CIF_CECKIH
_audit_creation_date 2017-10-04
_audit_creation_method CSD-ConQuest-V1
_database_code_CSD CECKIH
_database_code_depnum_ccdc_archive 'CCDC 1479449'
_chemical_formula_sum 'C28 H52 N4 O32 Zn4'
_chemical_formula_moiety
;
(C12 O24 Zn4 4-)n,2(C8 H18 N2 2+),8(H2 O1)
;
_journal_coden_Cambridge 211
_journal_volume 70
_journal_year 2017
_journal_page_first 84
_journal_name_full 'J.Coord.Chem. '
loop_
_publ_author_name
"Jin-Hua Li"
"Jie Pan"
"Zhen-Zhen Xue"
"Zhen-Zhen Bao"
"Guo-Ming Wang"
_chemical_name_systematic
;
catena-(bis(1,4-dimethyl-1,4-diazoniabicyclo(2.2.2)octane) 
hexakis(\m-oxalato)-tetra-zinc octahydrate)
;
_cell_volume   1149.958
_exptl_crystal_colour 'colorless'
_exptl_crystal_density_diffrn 1.759
_exptl_crystal_description 'block'
_diffrn_ambient_temperature 293
_refine_special_details
;
C10,C11,C12,C7,C8,C9 and C10A,C11A,C12A,C7A,C8A,C9A disordered over two sites 
with occupancies 0.50:0.50.
;
#These two values have been output from a single CSD field.
_refine_ls_R_factor_gt 0.0702
_refine_ls_wR_factor_gt 0.0702
_symmetry_cell_setting triclinic
_symmetry_space_group_name_H-M 'P -1'
_symmetry_Int_Tables_number 2
loop_
_symmetry_equiv_pos_site_id
_symmetry_equiv_pos_as_xyz
1 x,y,z
2 -x,-y,-z
_cell_length_a 9.110(13)
_cell_length_b 9.723(14)
_cell_length_c 14.337(18)
_cell_angle_alpha 91.703(10)
_cell_angle_beta 97.738(17)
_cell_angle_gamma 113.407(10)
_cell_formula_units_Z 1
loop_
_atom_type_symbol
_atom_type_radius_bond
C 0.68
H 0.23
N 0.68
O 0.68
Zn 1.22
loop_
_atom_site_label
_atom_site_type_symbol
_atom_site_fract_x
_atom_site_fract_y
_atom_site_fract_z
C1 C 0.4956(7) 0.4497(7) 0.4553(4)
C2 C -0.0125(6) 0.4159(6) 0.4993(4)
C3 C 0.3895(6) 0.7339(6) 0.2606(4)
C4 C 0.2438(6) 0.5916(6) 0.2102(4)
C5 C 0.5571(7) 0.5046(6) 0.0474(3)
C6 C 0.5914(6) 1.0150(6) 0.0043(4)
O1 O 0.5904(6) 0.3837(6) 0.4629(3)
O2 O 0.3955(5) 0.4395(6) 0.3854(3)
O3 O 0.0756(5) 0.3757(5) 0.4544(3)
O4 O -0.1170(5) 0.3333(5) 0.5447(3)
O5 O 0.4032(5) 0.7525(5) 0.3490(3)
O6 O 0.1507(5) 0.5071(5) 0.2615(3)
O7 O 0.4821(5) 0.8193(4) 0.2101(3)
O8 O 0.2300(5) 0.5725(5) 0.1225(3)
O9 O 0.5761(5) 0.6050(4) 0.1097(3)
O10 O 0.6184(5) 0.4103(4) 0.0523(3)
O11 O 0.6321(5) 0.9135(4) 0.0340(3)
O12 O 0.6845(5) 1.1412(4) -0.0183(3)
Zn1 Zn 0.25405(8) 0.56148(8) 0.40704(4)
Zn2 Zn 0.43630(8) 0.72904(7) 0.07061(4)
C7 C 0.073(2) 0.9547(19) 0.3699(13)
C8 C 0.226(2) 1.0536(19) 0.3251(12)
C9 C 0.025(2) 1.1343(19) 0.2346(12)
C10 C -0.121(2) 1.001(2) 0.2554(13)
C11 C -0.021(2) 0.8102(19) 0.2108(13)
C12 C 0.096(2) 0.9396(19) 0.1618(12)
C13 C -0.1975(9) 0.7555(9) 0.3301(6)
H1 H -0.15420 0.68830 0.35810
H2 H -0.28550 0.70080 0.28020
H3 H -0.23590 0.79880 0.37720
C14 C 0.2863(11) 1.2116(10) 0.1821(7)
H4 H 0.24210 1.23050 0.12160
H5 H 0.37250 1.18090 0.17480
H6 H 0.32770 1.30170 0.22430
N1 N -0.0667(6) 0.8790(6) 0.2903(4)
N2 N 0.1547(7) 1.0878(6) 0.2222(4)
C15? C 0.011(2) 1.0144(19) 0.3607(13)
C16? C 0.125(2) 1.1492(19) 0.3102(12)
C17? C -0.011(2) 1.0302(19) 0.1508(12)
C18? C -0.150(2) 0.928(2) 0.2065(13)
C19? C 0.046(2) 0.8204(19) 0.2575(13)
C20? C 0.192(2) 0.9566(19) 0.2302(12)
O13 O 0.0366(7) 0.2848(7) 0.0025(5)
H7 H 0.08580 0.38410 0.03310
H8 H -0.06620 0.28940 -0.00560
O14 O 0.6861(8) 0.9804(8) 0.4683(5)
H9 H 0.67930 1.06480 0.43950
H10 H 0.57380 0.92300 0.44760
O15 O 0.6210(12) 0.1809(9) 0.3310(6)
H11 H 0.65830 0.27830 0.36350
H12 H 0.67730 0.22350 0.28050
O16 O 0.8121(9) 0.3477(15) 0.2078(7)
H13 H 0.78960 0.42720 0.18610
H14 H 0.91680 0.39250 0.19550
C1A C 0.5044(7) 0.5503(7) 0.5447(4)
O1A O 0.4096(6) 0.6163(6) 0.5371(3)
O2A O 0.6045(5) 0.5605(6) 0.6146(3)
C2A C 0.0125(6) 0.5841(6) 0.5007(4)
O3A O -0.0756(5) 0.6243(5) 0.5456(3)
O4A O 0.1170(5) 0.6667(5) 0.4553(3)
C5A C 0.4429(7) 0.4954(6) -0.0474(3)
O9A O 0.4239(5) 0.3950(4) -0.1097(3)
O10A O 0.3816(5) 0.5897(4) -0.0523(3)
C6A C 0.4086(6) 0.9850(6) -0.0043(4)
O11A O 0.3679(5) 1.0865(4) -0.0340(3)
O12A O 0.3155(5) 0.8588(4) 0.0183(3)
C3A C -0.3895(6) 0.2661(6) 0.7394(4)
C4A C -0.2438(6) 0.4084(6) 0.7898(4)
O5A O -0.4032(5) 0.2475(5) 0.6510(3)
O6A O -0.1507(5) 0.4929(5) 0.7385(3)
O7A O -0.4821(5) 0.1807(4) 0.7899(3)
O8A O -0.2300(5) 0.4275(5) 0.8775(3)
Zn1A Zn -0.25405(8) 0.43852(8) 0.59296(4)
Zn2A Zn -0.43630(8) 0.27096(7) 0.92939(4)
O1* O -0.4096(6) 0.3837(6) 0.4629(3)
O2A* O -0.3955(5) 0.5605(6) 0.6146(3)
O9A* O -0.5761(5) 0.3950(4) 0.8903(3)
O10* O -0.3816(5) 0.4103(4) 1.0523(3)
O11A* O -0.6321(5) 0.0865(4) 0.9660(3)
O12* O -0.3155(5) 0.1412(4) 0.9817(3)
Zn1A* Zn 0.74595(8) 0.43852(8) 0.59296(4)
Zn2A* Zn 0.56370(8) 0.27096(7) -0.07061(4)
Zn2A** Zn 0.56370(8) 1.27096(7) -0.07061(4)
#END
