
#######################################################################
#
#                 Cambridge Crystallographic Data Centre
#                                CCDC
#
#######################################################################
#
# If this CIF has been generated from an entry in the Cambridge
# Structural Database, then it will include bibliographic, chemical,
# crystal, experimental, refinement or atomic coordinate data resulting
# from the CCDC's data processing and validation procedures.
#
#######################################################################

data_CSD_CIF_CEDDIZ02
_audit_creation_date 2010-05-26
_audit_creation_method CSD-ConQuest-V1
_database_code_CSD CEDDIZ02
_database_code_depnum_ccdc_archive 'CCDC 685222'
_chemical_formula_sum 'C20 H17 Bi1 Br4 N4'
_chemical_formula_moiety
;
(C10 H9 N2 1+)n,n(C10 H8 Bi1 Br4 N2 1-)
;
_journal_coden_Cambridge 211
_journal_volume 62
_journal_year 2009
_journal_page_first 2869
_journal_name_full 'J.Coord.Chem. '
loop_
_publ_author_name
"N.Soltanzadeh"
"A.Morsali"
_chemical_name_systematic
;
catena-(4-(4-Pyridyl)pyridinium 
(4,4'-bipyridine-N,N')-tetrabromo-bismuth(iii))
;
_cell_volume   4613.364
_exptl_crystal_colour 'yellow'
_exptl_crystal_density_diffrn 2.425
_exptl_crystal_description 'block'
_diffrn_ambient_temperature 296
_refine_special_details
;
The cation is disordered by symmetry.

;
#These two values have been output from a single CSD field.
_refine_ls_R_factor_gt 0.0302
_refine_ls_wR_factor_gt 0.0302
_symmetry_cell_setting orthorhombic
_symmetry_space_group_name_H-M 'F d d 2'
_symmetry_Int_Tables_number 43
loop_
_symmetry_equiv_pos_site_id
_symmetry_equiv_pos_as_xyz
1 x,y,z
2 -x,-y,z
3 1/4+x,1/4-y,1/4+z
4 1/4-x,1/4+y,1/4+z
5 x,1/2+y,1/2+z
6 -x,1/2-y,1/2+z
7 1/4+x,3/4-y,3/4+z
8 1/4-x,3/4+y,3/4+z
9 1/2+x,y,1/2+z
10 1/2-x,-y,1/2+z
11 3/4+x,1/4-y,3/4+z
12 3/4-x,1/4+y,3/4+z
13 1/2+x,1/2+y,z
14 1/2-x,1/2-y,z
15 3/4+x,3/4-y,1/4+z
16 3/4-x,3/4+y,1/4+z
_cell_length_a 14.9357(17)
_cell_length_b 25.351(3)
_cell_length_c 12.1842(14)
_cell_angle_alpha 90
_cell_angle_beta 90
_cell_angle_gamma 90
_cell_formula_units_Z 8
loop_
_atom_type_symbol
_atom_type_radius_bond
C 0.68
H 0.23
Bi 1.57
Br 1.21
N 0.68
loop_
_atom_site_label
_atom_site_type_symbol
_atom_site_fract_x
_atom_site_fract_y
_atom_site_fract_z
Bi1 Bi 0.50000 0.50000 -0.11040
Br1 Br 0.31336(5) 0.49048(4) -0.1146(2)
Br2 Br 0.51714(6) 0.38873(3) -0.1174(2)
C1 C 0.5719(5) 0.4866(3) -0.3717(7)
H1 H 0.62290 0.47660 -0.33320
C2 C 0.5765(6) 0.4865(3) -0.4871(7)
H2 H 0.62930 0.47760 -0.52300
C3 C 0.50000 0.50000 -0.5464(14)
C4 C 0.3451(4) 0.3777(3) -0.3304(6)
H3 H 0.35490 0.37780 -0.25510
C5 C 0.4171(4) 0.3735(4) -0.4022(8)
H4 H 0.47510 0.37090 -0.37490
N1 N 0.4024(5) 0.3733(3) -0.5149(7)
H5 H 0.44700 0.37070 -0.55930
C6 C 0.3158(6) 0.3772(4) -0.5557(5)
H6 H 0.30600 0.37710 -0.63110
C7 C 0.2438(5) 0.3814(3) -0.4839(4)
H7 H 0.18590 0.38400 -0.51130
C8 C 0.2585(4) 0.3816(2) -0.3713(4)
C9 C 0.3721(6) 0.3834(4) -0.3590(5)
H8 H 0.38170 0.38490 -0.28360
C10 C 0.4439(5) 0.3759(3) -0.4298(4)
H9 H 0.50150 0.37230 -0.40190
C11 C 0.4295(4) 0.3736(2) -0.5423(4)
C12 C 0.3433(4) 0.3789(3) -0.5839(6)
H10 H 0.33370 0.37740 -0.65930
C13 C 0.2715(4) 0.3864(4) -0.5131(7)
H11 H 0.21390 0.38990 -0.54110
N2 N 0.2859(5) 0.3887(3) -0.4006(7)
N3 N 0.50000 0.50000 -0.3137(10)
C14 C 0.5767(6) 0.5099(3) -0.8402(7)
H12 H 0.62870 0.51740 -0.87930
C15 C 0.5790(7) 0.5090(3) -0.7282(7)
H13 H 0.63280 0.51440 -0.69150
C16 C 0.50000 0.50000 -0.6682(14)
N4 N 0.50000 0.50000 -0.8946(11)
H14 H 0.24150 0.39330 -0.35680
Bi1* Bi 0.50000 0.50000 -1.11040
Br1A Br 0.68664(5) 0.50952(4) -0.1146(2)
Br2A Br 0.48286(6) 0.61127(3) -0.1174(2)
C1A C 0.4281(5) 0.5134(3) -0.3717(7)
H1A H 0.37710 0.52340 -0.33320
C2A C 0.4235(6) 0.5135(3) -0.4871(7)
H2A H 0.37070 0.52240 -0.52300
C4F C 0.5951(4) 0.3723(3) -0.5804(6)
C5N C 0.1671(4) 0.3765(4) -0.1522(8)
N1N N 0.1524(5) 0.3767(3) -0.2649(7)
H5N H 0.19700 0.37930 -0.30930
C6N C 0.0658(6) 0.3728(4) -0.3057(5)
C7F C 0.4938(5) 0.3686(3) -0.7339(4)
C8F C 0.5085(4) 0.3684(2) -0.6213(4)
C9F C 0.6221(6) 0.3666(4) -0.6090(5)
C10N C 0.1939(5) 0.3741(3) -0.1798(4)
C11N C 0.1795(4) 0.3764(2) -0.2923(4)
C12N C 0.0933(4) 0.3711(3) -0.3339(6)
C13F C 0.5215(4) 0.3636(4) -0.7631(7)
N2F N 0.5359(5) 0.3613(3) -0.6506(7)
C14A C 0.4233(6) 0.4901(3) -0.8402(7)
H12A H 0.37130 0.48260 -0.87930
C15A C 0.4210(7) 0.4910(3) -0.7282(7)
H13A H 0.36720 0.48560 -0.69150
N4* N 0.50000 0.50000 0.1054(11)
H14F H 0.49150 0.35670 -0.60680
#END
