
#######################################################################
#
#                 Cambridge Crystallographic Data Centre
#                                CCDC
#
#######################################################################
#
# If this CIF has been generated from an entry in the Cambridge
# Structural Database, then it will include bibliographic, chemical,
# crystal, experimental, refinement or atomic coordinate data resulting
# from the CCDC's data processing and validation procedures.
#
#######################################################################

data_CSD_CIF_CEJCAW
_audit_creation_date 2006-08-20
_audit_creation_method CSD-ConQuest-V1
_database_code_CSD CEJCAW
_database_code_depnum_ccdc_archive 'CCDC 288857'
_chemical_formula_sum 'C66 H72 Cu6 N6 O42'
_chemical_formula_moiety
;
(C10 H16 Cu1 N2 O4 1+)n,n(C56 H40 Cu5 N4 O30 1-),8n(H2 O1)
;
_journal_coden_Cambridge 1295
_journal_volume 9
_journal_year 2006
_journal_page_first 364
_journal_name_full 'Inorg.Chem.Commun. '
loop_
_publ_author_name
"Bing Liu"
"Ling Xu"
_chemical_name_systematic
;
catena-((\m~2~-4,4'-Bipyridine)-tetra-aqua-copper(ii) 
tetrakis(\m~4~-benzene-1,2,3-tricarboxylato)-bis(\m~2~-4,4'-bipyridine)-hexa-a
qua-penta-copper(ii) octahydrate)
;
_cell_volume   2046.393
_exptl_crystal_colour 'blue'
_exptl_crystal_density_diffrn 1.625
_exptl_special_details
;
fluorescent

;
_exptl_crystal_description 'block'
_diffrn_ambient_temperature 293
#These two values have been output from a single CSD field.
_refine_ls_R_factor_gt 0.0927
_refine_ls_wR_factor_gt 0.0927
_symmetry_cell_setting triclinic
_symmetry_space_group_name_H-M 'P -1'
_symmetry_Int_Tables_number 2
loop_
_symmetry_equiv_pos_site_id
_symmetry_equiv_pos_as_xyz
1 x,y,z
2 -x,-y,-z
_cell_length_a 11.1556(18)
_cell_length_b 13.043(2)
_cell_length_c 14.135(2)
_cell_angle_alpha 89.759(18)
_cell_angle_beta 87.182(18)
_cell_angle_gamma 85.006(14)
_cell_formula_units_Z 1
loop_
_atom_type_symbol
_atom_type_radius_bond
C 0.68
H 0.23
Cu 1.10
N 0.68
O 0.73
loop_
_atom_site_label
_atom_site_type_symbol
_atom_site_fract_x
_atom_site_fract_y
_atom_site_fract_z
Cu1 Cu 0.59444(10) 0.93211(8) 0.99934(7)
Cu2 Cu 1.50000 0.50000 1.00000
Cu3 Cu 0.59847(12) 1.54972(8) 0.49893(8)
C1 C 0.6582(9) 1.1497(8) 0.7838(7)
C2 C 0.5936(9) 1.2277(7) 0.7348(6)
C3 C 0.6582(10) 1.2856(8) 0.6690(7)
C4 C 0.7799(11) 1.2637(8) 0.6505(8)
H1 H 0.82030 1.30300 0.60640
C5 C 0.8429(11) 1.1839(9) 0.6965(9)
H2 H 0.92540 1.16970 0.68450
C6 C 0.7791(10) 1.1247(9) 0.7621(8)
H3 H 0.81900 1.06820 0.79100
C7 C 0.5985(9) 1.0895(7) 0.8628(7)
C8 C 0.4617(10) 1.2477(7) 0.7505(6)
C9 C 0.5950(11) 1.3698(8) 0.6122(7)
O1 O 0.6555(7) 1.0110(5) 0.8933(5)
O2 O 0.4989(7) 1.1283(5) 0.8964(5)
O3 O 0.4163(7) 1.3262(5) 0.7939(5)
O4 O 0.3970(6) 1.1839(5) 0.7122(5)
O5 O 0.6547(7) 1.4437(6) 0.5896(5)
O6 O 0.4880(7) 1.3608(5) 0.5924(5)
C10 C 0.3400(9) 0.8242(7) 0.8190(7)
C11 C 0.4041(9) 0.7504(6) 0.7583(6)
C12 C 0.339(1) 0.6911(7) 0.7006(7)
C13 C 0.2167(10) 0.7019(8) 0.7048(8)
H4 H 0.17580 0.66010 0.66680
C14 C 0.1509(10) 0.7728(9) 0.7634(8)
H5 H 0.06710 0.77960 0.76460
C15 C 0.2140(9) 0.8342(8) 0.8210(8)
H6 H 0.17160 0.88230 0.86120
C16 C 0.4011(10) 0.8874(7) 0.8850(7)
C17 C 0.5402(9) 0.7451(7) 0.7524(6)
C18 C 0.402(1) 0.6151(7) 0.6299(7)
O7 O 0.5030(6) 0.8554(5) 0.9114(5)
O8 O 0.3450(6) 0.9700(5) 0.9112(6)
O9 O 0.5886(6) 0.8147(5) 0.7092(5)
O10 O 0.5961(6) 0.6680(5) 0.7904(5)
O11 O 0.5036(7) 0.6291(5) 0.6007(5)
O12 O 0.3410(7) 0.5436(5) 0.6044(5)
N1 N 1.3278(8) 0.5608(7) 1.0021(7)
C19 C 1.2932(11) 0.6407(10) 1.0572(10)
H7 H 1.34990 0.66590 1.09510
C20 C 1.1776(10) 0.6889(10) 1.0617(10)
H8 H 1.15770 0.74440 1.10230
C21 C 1.0923(9) 0.6539(9) 1.0054(8)
C22 C 1.1299(10) 0.5701(9) 0.949(1)
H9 H 1.07660 0.54270 0.90960
C23 C 1.2467(10) 0.5275(9) 0.9515(9)
H10 H 1.26880 0.47010 0.91360
N2 N 0.7507(7) 0.8252(6) 1.0037(6)
C24 C 0.8059(11) 0.8097(10) 1.0833(9)
H11 H 0.76980 0.83920 1.13850
C25 C 0.9158(10) 0.7512(10) 1.0887(8)
H12 H 0.95120 0.74170 1.14660
C26 C 0.9718(10) 0.7075(9) 1.0078(8)
C27 C 0.9071(9) 0.7177(9) 0.9264(9)
H13 H 0.93680 0.68440 0.87090
C28 C 0.7968(9) 0.7784(9) 0.9278(8)
H14 H 0.75530 0.78550 0.87240
O13 O 1.4356(7) 0.3441(5) 0.9963(6)
O14 O 1.4968(7) 0.4994(6) 1.1455(5)
O15 O 0.7503(8) 1.6402(7) 0.5061(6)
Cu4 Cu 0.50000 0.00000 0.50000
N3 N 0.6765(8) 0.0015(6) 0.5024(5)
C29 C 0.7461(10) -0.0588(10) 0.5566(9)
H15 H 0.70740 -0.10270 0.59760
C30 C 0.8694(9) -0.0632(10) 0.5587(9)
H16 H 0.90990 -0.10940 0.59890
C31 C 0.9337(9) 0.0013(8) 0.5007(7)
C32 C 0.8624(10) 0.0691(12) 0.4476(10)
H17 H 0.89810 0.11750 0.40980
C33 C 0.7387(10) 0.0661(11) 0.4498(10)
H18 H 0.69530 0.11260 0.41170
O16 O 0.5236(7) -0.1695(5) 0.5036(6)
O17 O 0.5155(6) 0.0020(5) 0.3546(5)
O18 O 0.7966(11) 0.5791(9) 1.2594(9)
O19 O 0.103(4) 0.482(3) 1.277(3)
O20 O 0.8359(10) 0.7592(11) 1.3567(10)
O21 O 0.1729(12) 0.332(2) 1.3116(11)
Cu1A Cu 2.40556(10) 0.06789(8) 1.00066(7)
Cu1A* Cu 0.40556(10) 1.06789(8) 1.00066(7)
Cu3A Cu 0.40153(12) 0.45028(8) 1.50107(8)
Cu3A* Cu 0.40153(12) 1.45028(8) 0.50107(8)
Cu3* Cu 0.59847(12) 0.54972(8) 0.49893(8)
Cu3A** Cu 0.40153(12) 0.45028(8) 0.50107(8)
Cu3** Cu 0.59847(12) 0.54972(8) 1.49893(8)
Cu3A*** Cu 0.40153(12) 1.45028(8) 1.50107(8)
Cu3*** Cu 0.59847(12) 1.54972(8) 1.49893(8)
C1A C 0.3418(9) 0.8503(8) 1.2162(7)
C2A C 0.4064(9) 0.7723(7) 1.2652(6)
C3A C 0.3418(10) 0.7144(8) 1.3310(7)
C4A C 0.2201(11) 0.7363(8) 1.3495(8)
H1A H 0.17970 0.69700 1.39360
C5A C 0.1571(11) 0.8161(9) 1.3035(9)
H2A H 0.07460 0.83030 1.31550
C6A C 0.2209(10) 0.8753(9) 1.2379(8)
H3A H 0.18100 0.93180 1.20900
C7A C 0.4015(9) 0.9105(7) 1.1372(7)
C8A C 0.5383(10) 0.7523(7) 1.2495(6)
C9A C 0.4050(11) 0.6302(8) 1.3878(7)
O1A O 0.3445(7) 0.9890(5) 1.1067(5)
O1A* O 2.3445(7) -0.0110(5) 1.1067(5)
O2A O 0.5011(7) 0.8717(5) 1.1036(5)
O2* O 2.4989(7) 0.1283(5) 0.8964(5)
O3A O 0.5837(7) 0.6738(5) 1.2061(5)
O4A O 0.6030(6) 0.8161(5) 1.2878(5)
O5A O 0.3453(7) 0.5563(6) 1.4104(5)
O6A O 0.5120(7) 0.6392(5) 1.4076(5)
O6A* O 0.5120(7) 1.6392(5) 0.4076(5)
O6* O 0.4880(7) 0.3608(5) 1.5924(5)
C10A C 0.6600(9) 1.1758(7) 1.1810(7)
C11A C 0.5959(9) 1.2496(6) 1.2417(6)
C12A C 0.661(1) 1.3089(7) 1.2994(7)
C13A C 0.7833(10) 1.2981(8) 1.2952(8)
H4A H 0.82420 1.33990 1.33320
C14A C 0.8491(10) 1.2272(9) 1.2366(8)
H5A H 0.93290 1.22040 1.23540
C15A C 0.7860(9) 1.1658(8) 1.1790(8)
H6A H 0.82840 1.11770 1.13880
C16A C 0.5989(10) 1.1126(7) 1.1150(7)
C17A C 0.4598(9) 1.2549(7) 1.2476(6)
C18A C 0.598(1) 1.3849(7) 1.3701(7)
O7A O 0.4970(6) 1.1446(5) 1.0886(5)
O7A* O 2.4970(6) 0.1446(5) 1.0886(5)
O8A O 0.6550(6) 1.0300(5) 1.0888(6)
O8* O 2.3450(6) -0.0300(5) 0.9112(6)
O9A O 0.4114(6) 1.1853(5) 1.2908(5)
O10A O 0.4039(6) 1.3320(5) 1.2096(5)
O11A O 0.4964(7) 1.3709(5) 1.3993(5)
O11* O 0.5036(7) 1.6291(5) 0.6007(5)
O11A* O 0.4964(7) 0.3709(5) 1.3993(5)
O12A O 0.6590(7) 1.4564(5) 1.3956(5)
O12A* O 0.6590(7) 1.4564(5) 0.3956(5)
O12* O 0.3410(7) 0.5436(5) 1.6044(5)
N1A N 1.6722(8) 0.4392(7) 0.9979(7)
C19A C 1.7068(11) 0.3593(10) 0.9428(10)
H7A H 1.65010 0.33410 0.90490
C20A C 1.8224(10) 0.3111(10) 0.9383(10)
H8A H 1.84230 0.25560 0.89770
C21A C 1.9077(9) 0.3461(9) 0.9946(8)
C22A C 1.8701(10) 0.4299(9) 1.051(1)
H9A H 1.92340 0.45730 1.09040
C23A C 1.7533(10) 0.4725(9) 1.0485(9)
H10A H 1.73120 0.52990 1.08640
N2A N 2.2493(7) 0.1748(6) 0.9963(6)
C24A C 2.1941(11) 0.1903(10) 0.9167(9)
H11A H 2.23020 0.16080 0.86150
C25A C 2.0842(10) 0.2488(10) 0.9113(8)
H12A H 2.04880 0.25830 0.85340
C26A C 2.0282(10) 0.2925(9) 0.9922(8)
C27A C 2.0929(9) 0.2823(9) 1.0736(9)
H13A H 2.06320 0.31560 1.12910
C28A C 2.2032(9) 0.2216(9) 1.0722(8)
H14A H 2.24470 0.21450 1.12760
O13A O 1.5644(7) 0.6559(5) 1.0037(6)
O14A O 1.5032(7) 0.5006(6) 0.8545(5)
O15A O 0.2497(8) 0.3598(7) 1.4939(6)
Cu4* Cu 1.50000 0.00000 0.50000
N3A N 1.3235(8) -0.0015(6) 0.4976(5)
N3A* N 0.3235(8) -0.0015(6) 0.4976(5)
C29A C 1.2539(10) 0.0588(10) 0.4434(9)
H15A H 1.29260 0.10270 0.40240
C30A C 1.1306(9) 0.0632(10) 0.4413(9)
H16A H 1.09010 0.10940 0.40110
C31A C 1.0663(9) -0.0013(8) 0.4993(7)
C32A C 1.1376(10) -0.0691(12) 0.5524(10)
H17A H 1.10190 -0.11750 0.59020
C33A C 1.2613(10) -0.0661(11) 0.5502(10)
H18A H 1.30470 -0.11260 0.58830
O16A O 0.4764(7) 0.1695(5) 0.4964(6)
O17A O 0.4845(6) -0.0020(5) 0.6454(5)
#END
