
#######################################################################
#
#                 Cambridge Crystallographic Data Centre
#                                CCDC
#
#######################################################################
#
# If this CIF has been generated from an entry in the Cambridge
# Structural Database, then it will include bibliographic, chemical,
# crystal, experimental, refinement or atomic coordinate data resulting
# from the CCDC's data processing and validation procedures.
#
#######################################################################

data_CSD_CIF_CEJCEC
_audit_creation_date 2017-10-06
_audit_creation_method CSD-ConQuest-V1
_database_code_CSD CEJCEC
_database_code_depnum_ccdc_archive 'CCDC 1551491'
_chemical_formula_sum 'C7 H22 N1 O16 P4 Zn3'
_chemical_formula_moiety
;
0.5(C6 H18 N2 2+),n(C4 H11 O15 P4 Zn3 1-),H2 O1
;
_journal_coden_Cambridge 1147
_journal_volume 17
_journal_year 2017
_journal_page_first 5620
_journal_name_full 'Cryst.Growth Des. '
loop_
_publ_author_name
"A.K.Paul"
"R.Kanagaraj"
"Neha Pant"
"K.Naveen"
_chemical_name_systematic
;
catena-[hemikis(1,5-diammonio-2-methylpentane) (\m-hydrogen 
(1-hydroxyethane-1,1-diyl)bis(phosphonate))-(\m-(1-hydrogenethane-1,1-diyl)bis
(phosphonate))-aqua-tri-zinc monohydrate]
;
_cell_volume   1037.076
_exptl_crystal_colour 'colorless'
_exptl_crystal_description 'Plate like'
_diffrn_ambient_temperature 293
_refine_special_details
;
The structure is disordered by symmetry.

;
#These two values have been output from a single CSD field.
_refine_ls_R_factor_gt 0.0545
_refine_ls_wR_factor_gt 0.0545
_symmetry_cell_setting triclinic
_symmetry_space_group_name_H-M 'P -1'
_symmetry_Int_Tables_number 2
loop_
_symmetry_equiv_pos_site_id
_symmetry_equiv_pos_as_xyz
1 x,y,z
2 -x,-y,-z
_cell_length_a 8.118(5)
_cell_length_b 11.489(5)
_cell_length_c 11.662(5)
_cell_angle_alpha 77.746(5)
_cell_angle_beta 77.556(5)
_cell_angle_gamma 85.149(5)
_cell_formula_units_Z 2
loop_
_atom_type_symbol
_atom_type_radius_bond
C 0.68
H 0.23
N 0.68
O 0.68
P 1.05
Zn 1.22
loop_
_atom_site_label
_atom_site_type_symbol
_atom_site_fract_x
_atom_site_fract_y
_atom_site_fract_z
Zn1 Zn 0.94832(7) 0.11638(6) 0.66072(6)
Zn2 Zn 1.44116(7) -0.07390(6) 0.69752(5)
Zn3 Zn 1.14705(7) 0.13146(6) 0.90949(5)
P1 P 1.33437(16) 0.16349(13) 0.53148(12)
P2 P 1.08285(15) -0.10941(12) 0.84024(11)
P3 P 0.70920(15) -0.05444(13) 0.85229(12)
P4 P 1.14212(18) 0.32885(13) 0.69637(13)
O1 O 0.9807(5) 0.2735(4) 0.6978(4)
O2 O 1.1647(5) 0.1133(4) 0.5373(4)
O3 O 0.7356(5) 0.0739(4) 0.7867(4)
O4 O 0.7978(6) 0.1575(5) 0.5317(4)
O5 O 0.9420(5) -0.0799(4) 0.6587(3)
O6 O 1.0894(4) 0.0271(3) 0.8132(3)
O7 O 0.5555(4) -0.1053(4) 0.8305(3)
O8 O 1.4434(5) 0.1778(4) 0.4063(4)
O9 O 1.4300(5) 0.0938(4) 0.6251(4)
O10 O 1.2368(4) -0.1642(4) 0.7680(3)
O11 O 0.6981(5) -0.0732(4) 0.9865(3)
O12 O 1.2252(5) 0.2753(4) 0.8003(4)
O13 O 1.0569(4) -0.1632(4) 0.9736(3)
O14 O 1.1021(6) 0.4655(4) 0.6918(5)
O15 O 1.4554(6) 0.3617(5) 0.5640(5)
C1 C 1.2362(10) 0.3945(7) 0.4540(6)
H1 H 1.13020 0.36800 0.44740
H2 H 1.31840 0.38970 0.38220
H3 H 1.22250 0.47550 0.46500
C2 C 1.2945(7) 0.3169(5) 0.5589(5)
C3 C 0.8995(6) -0.1374(5) 0.7847(5)
C4 C 0.8736(8) -0.2690(6) 0.7999(7)
H4 H 0.84590 -0.30410 0.88380
H5 H 0.97540 -0.30700 0.76330
H6 H 0.78310 -0.27960 0.76240
O16 O 0.3287(8) 0.6115(6) 0.6905(7)
N1 N 0.3615(7) 0.7702(6) 0.0601(6)
C5 C 0.402(2) 0.6472(14) 0.113(2)
C6 C 0.434(4) 0.5550(14) 0.025(3)
C7 C 0.238(3) 0.556(2) 0.013(2)
Zn2* Zn 0.44116(7) -0.07390(6) 0.69752(5)
Zn2A Zn 1.55884(7) 0.07390(6) 0.30248(5)
Zn3A Zn 0.85295(7) -0.13146(6) 1.09051(5)
O7* O 1.5555(4) -0.1053(4) 0.8305(3)
O8A O 1.5566(5) -0.1778(4) 0.5937(4)
O11A O 1.3019(5) 0.0732(4) 1.0135(3)
O13A O 0.9431(4) 0.1632(4) 1.0264(3)
N1A N 0.6385(7) 0.2298(6) -0.0601(6)
C5A C 0.598(2) 0.3528(14) -0.113(2)
C6A C 0.566(4) 0.4450(14) -0.025(3)
C7A C 0.762(3) 0.444(2) -0.013(2)
#END
