
#######################################################################
#
#                 Cambridge Crystallographic Data Centre
#                                CCDC
#
#######################################################################
#
# If this CIF has been generated from an entry in the Cambridge
# Structural Database, then it will include bibliographic, chemical,
# crystal, experimental, refinement or atomic coordinate data resulting
# from the CCDC's data processing and validation procedures.
#
#######################################################################

data_CSD_CIF_CEKRUH
_audit_creation_date 2012-11-29
_audit_creation_method CSD-ConQuest-V1
_database_code_CSD CEKRUH
_database_code_depnum_ccdc_archive 'CCDC 879073'
_chemical_formula_sum 'C168 H216 Br12 Fe3 Mn6 N33 O24'
_chemical_formula_moiety
;
(C132 H108 Br12 Fe3 Mn6 N30 O12 3-)n,3n(C8 H20 N1 1+),12n(C1 H4 O1)
;
_journal_coden_Cambridge 1350
_journal_volume 14
_journal_year 2012
_journal_page_first 7320
_journal_name_full 'CrystEngComm '
loop_
_publ_author_name
"H.Kara"
"A.Azizoglu"
"A.Karaoglu"
"Y.Yahsi"
"E.Gungor"
"A.Caneschi"
"L.Sorace"
_chemical_name_systematic
;
catena-(tris(tetraethylammonium) 
dodecakis(\m~2~-cyanido)-hexacyanido-hexakis(2,2'-((2,2-dimethylpropane-1,3-di
yl)bis(nitrilomethylylidene))bis(4-bromophenolato))-tri-iron(iii)-hexa-mangane
se(iii) methanol solvate)
;
_cell_volume  13569.343
_exptl_crystal_colour 'red'
_exptl_crystal_density_diffrn 1.666
_exptl_crystal_description 'block'
_diffrn_ambient_temperature 100
_refine_special_details
;
C167,O23A and C168,O23B disordered over two sites with occupancies 0.50:0.50; 
C169,O24A and C170,O24B disordered over two sites with occupancies 0.50:0.50.
;
#These two values have been output from a single CSD field.
_refine_ls_R_factor_gt 0.0379
_refine_ls_wR_factor_gt 0.0379
_symmetry_cell_setting hexagonal
_symmetry_space_group_name_H-M 'P 32'
_symmetry_Int_Tables_number 145
loop_
_symmetry_equiv_pos_site_id
_symmetry_equiv_pos_as_xyz
1 x,y,z
2 -y,x-y,2/3+z
3 -x+y,-x,1/3+z
_cell_length_a 28.5554(2)
_cell_length_b 28.5554(2)
_cell_length_c 19.2155(2)
_cell_angle_alpha 90
_cell_angle_beta 90
_cell_angle_gamma 120
_cell_formula_units_Z 3
loop_
_atom_type_symbol
_atom_type_radius_bond
C 0.68
H 0.23
Br 1.21
Fe 1.52
Mn 1.57
N 0.68
O 0.68
loop_
_atom_site_label
_atom_site_type_symbol
_atom_site_fract_x
_atom_site_fract_y
_atom_site_fract_z
Mn1 Mn 1.02029(2) 0.76417(2) 1.08077(3)
Mn2 Mn 0.73421(2) 0.75516(2) 0.85156(3)
Mn3 Mn 0.68669(2) 0.59049(2) 1.18345(3)
Mn4 Mn 1.35425(2) 0.92626(2) 1.18016(3)
Mn5 Mn 0.91019(2) 0.59804(2) 0.74600(3)
Mn6 Mn 1.07104(2) 0.64635(2) 1.40932(3)
Fe1 Fe 0.82273(2) 0.64379(2) 0.96550(3)
Fe2 Fe 0.48742(2) 0.51027(2) 1.29513(2)
Fe3 Fe 1.15719(2) 0.84669(2) 1.29836(3)
Br1 Br 1.099854(17) 1.026792(15) 1.238704(18)
Br2 Br 1.214662(16) 0.672391(18) 1.030752(19)
Br3 Br 0.923071(16) 1.023201(15) 0.710301(18)
Br4 Br 0.447756(16) 0.661951(18) 0.891176(19)
Br5 Br 0.767437(17) 0.407662(17) 1.02765(2)
Br6 Br 0.883076(16) 0.875473(16) 1.23211(2)
Br7 Br 1.432590(16) 0.740260(17) 1.02755(2)
Br8 Br 1.54574(2) 1.214140(16) 1.22649(2)
Br9 Br 0.643100(17) 0.409160(17) 0.88945(2)
Br10 Br 1.006300(15) 0.885530(16) 0.704990(19)
Br11 Br 1.256860(16) 0.565790(17) 1.55617(2)
Br12 Br 0.78634(2) 0.45012(2) 1.36597(2)
N1 N 0.97852(12) 0.77141(12) 1.16167(15)
N2 N 1.00295(12) 0.68976(12) 1.11185(14)
N3 N 0.78410(11) 0.76467(12) 0.77133(14)
N4 N 0.67853(12) 0.67983(12) 0.82094(14)
N5 N 0.64530(12) 0.54149(12) 1.10259(15)
N6 N 0.66928(12) 0.64747(12) 1.15276(15)
N7 N 1.31235(12) 0.87658(12) 1.09953(14)
N8 N 1.33619(12) 0.98273(12) 1.14889(14)
N9 N 0.90096(12) 0.54791(12) 0.82607(15)
N10 N 0.98507(13) 0.65369(12) 0.77723(15)
N11 N 1.12034(13) 0.68679(12) 1.48986(14)
N12 N 1.01479(12) 0.66500(13) 1.43975(14)
N13 N 0.93949(12) 0.72441(12) 1.01933(15)
N14 N 0.77838(12) 0.71787(12) 0.91296(15)
N15 N 0.70927(14) 0.55477(13) 0.91854(17)
N16 N 0.85193(13) 0.55808(13) 1.01185(16)
N17 N 0.76350(12) 0.63219(13) 1.10635(15)
N18 N 0.87419(12) 0.63874(12) 0.82450(15)
N19 N 0.60545(12) 0.54874(12) 1.24450(15)
N20 N 1.43078(12) 0.96725(12) 1.10238(14)
N21 N 0.37286(14) 0.48461(13) 1.33982(16)
N22 N 1.02952(13) 0.56925(13) 1.48689(15)
N23 N 0.94766(12) 0.55478(13) 0.68399(15)
N24 N 0.51546(13) 0.62426(13) 1.24669(15)
N25 N 1.04375(13) 0.82121(14) 1.34708(17)
N26 N 1.11479(12) 0.72792(12) 1.34850(15)
N27 N 1.27372(12) 0.88495(13) 1.24217(14)
N28 N 1.18497(13) 0.96172(13) 1.25444(16)
N29 N 1.20886(12) 0.90228(12) 1.43995(15)
N30 N 1.09712(12) 0.79901(12) 1.15794(15)
O1 O 1.04408(10) 0.83616(9) 1.05466(12)
O2 O 1.06243(10) 0.76014(9) 1.00698(12)
O3 O 0.78100(9) 0.82583(10) 0.88133(12)
O4 O 0.68699(10) 0.74974(10) 0.92437(12)
O5 O 0.71081(10) 0.54286(10) 1.21032(12)
O6 O 0.72791(10) 0.63627(10) 1.25780(12)
O7 O 1.37761(10) 0.87814(10) 1.20723(12)
O8 O 1.39718(10) 0.97335(10) 1.25273(11)
O9 O 0.83924(10) 0.55074(10) 0.71709(12)
O10 O 0.91489(10) 0.64564(10) 0.67413(12)
O11 O 1.11796(10) 0.62181(11) 1.38085(12)
O12 O 1.02478(10) 0.60534(11) 1.33521(11)
C1 C 0.89613(15) 0.69719(15) 0.99843(17)
C2 C 0.79775(14) 0.69350(14) 0.93306(17)
C3 C 0.75201(15) 0.58743(15) 0.93527(18)
C4 C 0.84067(14) 0.58978(15) 0.99578(18)
C5 C 0.78840(15) 0.63885(15) 1.05628(18)
C6 C 0.85461(15) 0.64274(14) 0.87477(18)
C7 C 0.56161(15) 0.53199(14) 1.26396(17)
C8 C 1.45554(14) 0.97316(14) 1.05243(17)
C9 C 0.41579(15) 0.49490(15) 1.32449(17)
C10 C 1.02485(14) 0.54551(15) 1.53779(17)
C11 C 0.97277(14) 0.53627(15) 0.66234(17)
C12 C 0.50417(14) 0.58191(15) 1.26382(18)
C13 C 1.08694(15) 0.83187(15) 1.33026(18)
C14 C 1.13313(14) 0.77171(14) 1.32918(17)
C15 C 1.23013(14) 0.86786(15) 1.26367(17)
C16 C 1.17424(15) 0.91860(14) 1.26958(18)
C17 C 1.18917(14) 0.87903(14) 1.38965(18)
C18 C 1.12181(14) 0.81740(15) 1.20776(17)
C19 C 1.05920(14) 0.87654(14) 1.09941(18)
C20 C 1.09973(14) 0.92853(14) 1.07951(18)
H1 H 1.11840 0.93330 1.03680
C21 C 1.11280(14) 0.97271(15) 1.12103(18)
H2 H 1.14040 1.00770 1.10730
C22 C 1.08494(15) 0.96546(14) 1.18379(18)
C23 C 1.04699(15) 0.91554(14) 1.20612(18)
H3 H 1.02920 0.91140 1.24940
C24 C 1.03408(15) 0.86973(14) 1.16478(18)
C25 C 0.99211(15) 0.81784(15) 1.18885(18)
H4 H 0.97240 0.81770 1.22880
C26 C 0.93051(15) 0.72381(14) 1.19109(19)
H5 H 0.90080 0.71030 1.15660
H6 H 0.91860 0.73520 1.23290
C27 C 0.94019(15) 0.67723(14) 1.21121(18)
C28 C 0.95120(14) 0.65282(15) 1.14614(18)
H7 H 0.95120 0.61940 1.15960
H8 H 0.92140 0.64270 1.11240
C29 C 1.03770(14) 0.67388(15) 1.10465(18)
H9 H 1.03090 0.64220 1.12930
C30 C 1.08607(14) 0.69974(14) 1.06262(18)
C31 C 1.12145(15) 0.67893(14) 1.06630(18)
H10 H 1.11480 0.65090 1.09840
C32 C 1.16571(15) 0.69940(15) 1.02320(19)
C33 C 1.17524(15) 0.73863(15) 0.97418(18)
H11 H 1.20560 0.75160 0.94400
C34 C 1.14037(15) 0.75874(15) 0.96948(18)
H12 H 1.14680 0.78550 0.93550
C35 C 1.09536(15) 0.74041(14) 1.01401(17)
C36 C 0.88699(15) 0.63318(15) 1.2428(2)
H13 H 0.88950 0.60070 1.25150
H14 H 0.85730 0.62450 1.21030
H15 H 0.88020 0.64620 1.28670
C37 C 0.98676(15) 0.69625(15) 1.26296(18)
H16 H 1.01910 0.72730 1.24360
H17 H 0.99420 0.66680 1.27190
H18 H 0.97690 0.70680 1.30660
C38 C 0.80839(14) 0.86773(14) 0.83869(18)
C39 C 0.82247(14) 0.91985(15) 0.86422(18)
H19 H 0.80910 0.92330 0.90800
C40 C 0.85554(14) 0.96543(15) 0.82570(18)
H20 H 0.86460 1.00020 0.84260
C41 C 0.87552(15) 0.96014(15) 0.76203(18)
C42 C 0.86178(14) 0.91042(15) 0.73632(19)
H21 H 0.87550 0.90760 0.69250
C43 C 0.82748(14) 0.86321(14) 0.77390(18)
C44 C 0.81726(14) 0.81161(15) 0.74601(18)
H22 H 0.83680 0.81260 0.70550
C45 C 0.78581(15) 0.71819(15) 0.74100(18)
H23 H 0.80310 0.70540 0.77480
H24 H 0.80880 0.73040 0.69880
C46 C 0.73035(15) 0.67074(14) 0.72135(18)
C47 C 0.69534(15) 0.64487(14) 0.78560(18)
H25 H 0.66260 0.61090 0.77160
H26 H 0.71580 0.63540 0.81890
C48 C 0.62773(15) 0.66128(14) 0.82956(17)
H27 H 0.60370 0.62740 0.80870
C49 C 0.60395(14) 0.68745(14) 0.86833(17)
C50 C 0.54756(14) 0.66668(15) 0.86296(18)
H28 H 0.52660 0.63760 0.83210
C51 C 0.52321(15) 0.68851(15) 0.90242(18)
C52 C 0.55253(15) 0.73018(16) 0.94864(18)
H29 H 0.53490 0.74480 0.97550
C53 C 0.60748(15) 0.75056(15) 0.95563(18)
H30 H 0.62740 0.77880 0.98800
C54 C 0.63407(15) 0.73008(15) 0.91545(18)
C55 C 0.74055(16) 0.62764(15) 0.6877(2)
H31 H 0.76230 0.64250 0.64550
H32 H 0.70590 0.59580 0.67560
H33 H 0.75990 0.61720 0.72060
C56 C 0.70103(15) 0.68903(15) 0.67047(19)
H34 H 0.69520 0.71660 0.69280
H35 H 0.66610 0.65790 0.65760
H36 H 0.72310 0.70430 0.62860
C57 C 0.72610(14) 0.51733(14) 1.16610(18)
C58 C 0.76685(15) 0.50551(15) 1.1861(2)
H37 H 0.78540 0.51910 1.22890
C59 C 0.77987(15) 0.47485(15) 1.1445(2)
H38 H 0.80770 0.46770 1.15800
C60 C 0.75221(16) 0.45420(15) 1.0825(2)
C61 C 0.71392(16) 0.46581(15) 1.05934(19)
H39 H 0.69620 0.45180 1.01620
C62 C 0.70108(15) 0.49881(15) 1.10028(18)
C63 C 0.65889(15) 0.50843(15) 1.07531(19)
H40 H 0.63940 0.48880 1.03530
C64 C 0.59734(14) 0.54116(15) 1.07298(18)
H41 H 0.56750 0.52480 1.10730
H42 H 0.58560 0.51800 1.03090
C65 C 0.60723(15) 0.59713(15) 1.05349(19)
C66 C 0.61730(15) 0.63265(15) 1.11785(19)
H43 H 0.61740 0.66610 1.10380
H44 H 0.58730 0.61310 1.15130
C67 C 0.70328(15) 0.69799(15) 1.16157(19)
H45 H 0.69550 0.72290 1.13900
C68 C 0.75220(15) 0.72050(15) 1.20257(19)
C69 C 0.78826(15) 0.77649(15) 1.19778(18)
H46 H 0.78190 0.79780 1.16530
C70 C 0.83275(15) 0.80006(15) 1.24036(19)
C71 C 0.84262(15) 0.76978(15) 1.28911(19)
H47 H 0.87360 0.78670 1.31820
C72 C 0.80707(15) 0.71524(15) 1.29466(18)
H48 H 0.81340 0.69480 1.32850
C73 C 0.76157(15) 0.68921(14) 1.25117(18)
C74 C 0.55335(15) 0.58785(16) 1.0216(2)
H49 H 0.54560 0.56660 0.97880
H50 H 0.55640 0.62280 1.01080
H51 H 0.52390 0.56830 1.05500
C75 C 0.65364(15) 0.62550(16) 1.00130(19)
H52 H 0.68650 0.62790 1.02070
H53 H 0.66000 0.66200 0.99190
H54 H 0.64410 0.60480 0.95790
C76 C 1.39275(15) 0.85241(14) 1.16396(17)
C77 C 1.43207(15) 0.83910(15) 1.18509(19)
H55 H 1.45000 0.85210 1.22840
C78 C 1.44464(16) 0.80779(16) 1.1442(2)
H56 H 1.47180 0.79990 1.15870
C79 C 1.41796(16) 0.78747(16) 1.08135(19)
C80 C 1.38082(15) 0.80016(15) 1.05798(19)
H57 H 1.36330 0.78660 1.01460
C81 C 1.36843(15) 0.83364(15) 1.09849(18)
C82 C 1.32622(15) 0.84382(14) 1.07290(17)
H58 H 1.30700 0.82430 1.03270
C83 C 1.26406(15) 0.87575(15) 1.07025(18)
H59 H 1.23450 0.85970 1.10500
H60 H 1.25200 0.85220 1.02860
C84 C 1.27380(15) 0.93168(14) 1.05000(18)
C85 C 1.28435(15) 0.96712(14) 1.11396(18)
H61 H 1.28400 1.00030 1.09990
H62 H 1.25450 0.94750 1.14770
C86 C 1.37015(16) 1.03342(15) 1.15557(17)
H63 H 1.36250 1.05770 1.13100
C87 C 1.41902(16) 1.05700(15) 1.19705(18)
C88 C 1.45338(17) 1.11321(16) 1.19263(19)
H64 H 1.44590 1.13400 1.16060
C89 C 1.49815(17) 1.13793(15) 1.23531(18)
C90 C 1.50898(16) 1.10844(16) 1.28296(19)
H65 H 1.53980 1.12610 1.31230
C91 C 1.47519(16) 1.05350(15) 1.28814(19)
H66 H 1.48280 1.03360 1.32150
C92 C 1.42958(16) 1.02604(15) 1.24510(17)
C93 C 1.22025(16) 0.92216(15) 1.0177(2)
H67 H 1.21240 0.90010 0.97560
H68 H 1.22350 0.95700 1.00570
H69 H 1.19080 0.90330 1.05130
C94 C 1.32027(16) 0.95965(15) 0.99800(18)
H70 H 1.35330 0.96290 1.01820
H71 H 1.32610 0.99570 0.98730
H72 H 1.31120 0.93820 0.95520
C95 C 0.79755(15) 0.52342(15) 0.75897(18)
C96 C 0.74541(15) 0.50957(15) 0.7350(2)
H73 H 0.74150 0.52340 0.69180
C97 C 0.70027(15) 0.47623(15) 0.7736(2)
H74 H 0.66530 0.46650 0.75660
C98 C 0.70597(15) 0.45685(16) 0.83767(19)
C99 C 0.75584(15) 0.47061(16) 0.8632(2)
H75 H 0.75900 0.45710 0.90710
C100 C 0.80260(15) 0.50482(15) 0.82468(19)
C101 C 0.85408(15) 0.51511(15) 0.85207(18)
H76 H 0.85330 0.49600 0.89290
C102 C 0.94743(15) 0.54603(15) 0.85641(19)
H77 H 0.96050 0.52910 0.82240
H78 H 0.93510 0.52280 0.89830
C103 C 0.99467(15) 0.60164(15) 0.87656(18)
C104 C 1.02067(15) 0.63732(15) 0.81218(19)
H79 H 1.05450 0.67020 0.82640
H80 H 1.03040 0.61730 0.77860
C105 C 1.00326(16) 0.70473(15) 0.76957(19)
H81 H 1.03640 0.72870 0.79200
C106 C 0.97790(15) 0.72875(15) 0.73002(18)
C107 C 1.00005(15) 0.78497(15) 0.73528(18)
H82 H 1.02930 0.80560 0.76600
C108 C 0.97875(14) 0.80973(15) 0.69520(18)
C109 C 0.93717(15) 0.78068(15) 0.64769(18)
H83 H 0.92360 0.79870 0.61970
C110 C 0.91616(15) 0.72596(15) 0.64173(18)
H84 H 0.88790 0.70620 0.60920
C111 C 0.93553(15) 0.69837(15) 0.68269(18)
C112 C 1.03798(16) 0.59165(15) 0.9095(2)
H85 H 1.06990 0.62640 0.92120
H86 H 1.04820 0.57220 0.87640
H87 H 1.02350 0.57000 0.95190
C113 C 0.97654(17) 0.63059(16) 0.9274(2)
H88 H 0.94840 0.63580 0.90550
H89 H 1.00750 0.66580 0.93960
H90 H 0.96200 0.60870 0.96950
C114 C 1.14475(15) 0.60757(15) 1.42361(17)
C115 C 1.15739(16) 0.56789(15) 1.40130(19)
H91 H 1.14320 0.54970 1.35840
C116 C 1.18954(16) 0.55523(15) 1.4402(2)
H92 H 1.19780 0.52870 1.42420
C117 C 1.21023(16) 0.58156(15) 1.50350(19)
C118 C 1.19738(15) 0.61870(15) 1.52850(18)
H93 H 1.21130 0.63580 1.57210
C119 C 1.16343(15) 0.63155(15) 1.48934(18)
C120 C 1.15367(15) 0.67311(15) 1.51611(17)
H94 H 1.17330 0.69210 1.55640
C121 C 1.12160(15) 0.73482(15) 1.52041(18)
H95 H 1.13900 0.76510 1.48690
H96 H 1.14430 0.74550 1.56290
C122 C 1.06564(15) 0.72635(16) 1.53956(18)
C123 C 1.03075(15) 0.71680(16) 1.47488(18)
H97 H 0.99770 0.71760 1.48860
H98 H 1.05100 0.74670 1.44160
C124 C 0.96387(16) 0.63198(16) 1.43075(17)
H99 H 0.93930 0.64090 1.45210
C125 C 0.94100(15) 0.58235(16) 1.39083(17)
C126 C 0.88491(17) 0.54649(16) 1.39627(19)
H100 H 0.86360 0.55400 1.42740
C127 C 0.86140(17) 0.50039(17) 1.35586(19)
C128 C 0.89128(17) 0.48963(17) 1.30843(19)
H101 H 0.87410 0.45780 1.28070
C129 C 0.94567(16) 0.52490(17) 1.30154(19)
H102 H 0.96580 0.51780 1.26810
C130 C 0.97217(16) 0.57160(16) 1.34351(18)
C131 C 1.07555(16) 0.77934(17) 1.57256(19)
H103 H 1.04090 0.77570 1.58690
H104 H 1.09310 0.80870 1.53870
H105 H 1.09890 0.78740 1.61340
C132 C 1.03673(16) 0.67912(17) 1.59065(18)
H106 H 1.00150 0.67480 1.60320
H107 H 1.05880 0.68650 1.63270
H108 H 1.03140 0.64580 1.56880
N31 N 0.12784(12) 0.06207(12) 0.62581(14)
C133 C 0.16574(16) 0.11578(15) 0.59154(18)
H109 H 0.14450 0.13290 0.57710
H110 H 0.19240 0.13970 0.62660
C134 C 0.19605(16) 0.11273(18) 0.5290(2)
H111 H 0.21500 0.09330 0.54150
H112 H 0.22240 0.14940 0.51370
H113 H 0.17050 0.09360 0.49120
C135 C 0.08779(15) 0.02158(15) 0.57475(18)
H114 H 0.06630 -0.01340 0.59910
H115 H 0.10820 0.01600 0.53720
C136 C 0.04864(16) 0.03709(16) 0.5413(2)
H116 H 0.02380 0.03660 0.57680
H117 H 0.02800 0.01110 0.50460
H118 H 0.06920 0.07340 0.52130
C137 C 0.09986(16) 0.07550(15) 0.68266(19)
H119 H 0.08150 0.09350 0.66120
H120 H 0.12770 0.10170 0.71480
C138 C 0.05863(16) 0.02762(16) 0.7249(2)
H121 H 0.02970 0.00210 0.69410
H122 H 0.04330 0.04030 0.76090
H123 H 0.07630 0.00950 0.74680
C139 C 0.15916(15) 0.03630(15) 0.65659(18)
H124 H 0.13270 -0.00030 0.67350
H125 H 0.18020 0.03200 0.61880
C140 C 0.19750(16) 0.06697(16) 0.71568(19)
H126 H 0.22020 0.10500 0.70250
H127 H 0.22050 0.05130 0.72530
H128 H 0.17660 0.06440 0.75740
N32 N 0.26965(13) 0.53903(12) 0.96713(17)
C141 C 0.29432(18) 0.50671(17) 0.9369(2)
H129 H 0.33130 0.53250 0.92030
H130 H 0.29780 0.48520 0.97490
C142 C 0.2635(2) 0.46911(18) 0.8781(2)
H131 H 0.22610 0.44480 0.89260
H132 H 0.28050 0.44780 0.86560
H133 H 0.26380 0.49020 0.83770
C143 C 0.21566(17) 0.50212(17) 1.0021(2)
H134 H 0.19960 0.52430 1.01660
H135 H 0.19110 0.47580 0.96710
C144 C 0.2176(2) 0.47103(19) 1.0648(2)
H136 H 0.23530 0.45040 1.05200
H137 H 0.18070 0.44610 1.08070
H138 H 0.23800 0.49640 1.10220
C145 C 0.31077(15) 0.57710(15) 1.01934(19)
H139 H 0.34600 0.59820 0.99550
H140 H 0.31520 0.55530 1.05610
C146 C 0.29670(17) 0.61627(16) 1.0537(2)
H141 H 0.29770 0.64180 1.01890
H142 H 0.32300 0.63610 1.09050
H143 H 0.26040 0.59620 1.07380
C147 C 0.25907(16) 0.56909(17) 0.9115(2)
H144 H 0.24230 0.58860 0.93320
H145 H 0.23240 0.54240 0.87850
C148 C 0.30819(17) 0.60946(17) 0.8704(2)
H146 H 0.33340 0.63840 0.90140
H147 H 0.29680 0.62500 0.83310
H148 H 0.32620 0.59110 0.85010
N33 N 0.79437(12) 0.39916(13) 0.63344(17)
C149 C 0.83111(17) 0.38128(19) 0.6676(2)
H149 H 0.80850 0.34330 0.68290
H150 H 0.85650 0.38200 0.63190
C150 C 0.86379(18) 0.4143(2) 0.7292(2)
H151 H 0.88270 0.45280 0.71680
H152 H 0.89020 0.40350 0.74200
H153 H 0.83960 0.40810 0.76860
C151 C 0.82696(17) 0.45535(16) 0.6022(2)
H154 H 0.80140 0.46700 0.58630
H155 H 0.84940 0.48050 0.63950
C152 C 0.86317(18) 0.4612(2) 0.5427(2)
H156 H 0.88970 0.45120 0.55790
H157 H 0.88200 0.49890 0.52670
H158 H 0.84150 0.43750 0.50450
C153 C 0.76275(18) 0.35766(16) 0.5787(2)
H159 H 0.74330 0.32170 0.60120
H160 H 0.78860 0.35680 0.54500
C154 C 0.72210(19) 0.36666(17) 0.5388(2)
H161 H 0.69390 0.36350 0.57060
H162 H 0.70570 0.33940 0.50200
H163 H 0.74050 0.40280 0.51800
C155 C 0.75782(17) 0.40286(17) 0.6867(2)
H164 H 0.73670 0.41740 0.66370
H165 H 0.78060 0.42920 0.72270
C156 C 0.71843(18) 0.35005(18) 0.7227(2)
H166 H 0.69200 0.32530 0.68880
H167 H 0.69960 0.35740 0.76010
H168 H 0.73840 0.33350 0.74240
O13 O 0.39637(14) 0.26493(15) 0.20949(14)
H169 H 0.38580 0.27110 0.24740
C157 C 0.4176(2) 0.2312(2) 0.2210(2)
H170 H 0.45290 0.24630 0.19820
H171 H 0.39300 0.19530 0.20180
H172 H 0.42180 0.22820 0.27110
O14 O 0.06908(15) 0.47235(13) 0.04961(14)
H173 H 0.05930 0.45600 0.01140
C158 C 0.0955(2) 0.52763(19) 0.0379(2)
H174 H 0.06980 0.54070 0.04330
H175 H 0.11030 0.53530 -0.00930
H176 H 0.12490 0.54590 0.07170
O15 O 0.06857(14) 0.60305(12) 0.20738(13)
H177 H 0.05840 0.60940 0.24550
C159 C 0.0813(2) 0.56177(19) 0.2166(2)
H178 H 0.11780 0.57400 0.19890
H179 H 0.05530 0.52940 0.19110
H180 H 0.07980 0.55320 0.26620
O16 O 0.93312(12) 0.75213(14) 0.37350(16)
H181 H 0.96500 0.77630 0.36500
C160 C 0.9221(2) 0.7539(2) 0.4419(2)
H182 H 0.95550 0.76780 0.46910
H183 H 0.89590 0.71750 0.45800
H184 H 0.90710 0.77790 0.44810
O17 O 0.83329(14) 0.75953(15) 0.56136(18)
H185 H 0.82260 0.78210 0.56360
C161 C 0.8031(2) 0.7212(2) 0.5172(3)
H186 H 0.81210 0.69230 0.51950
H187 H 0.80980 0.73620 0.46990
H188 H 0.76490 0.70660 0.52900
O18 O 0.59917(13) 0.51428(16) 0.89226(17)
H189 H 0.63150 0.52340 0.90050
C162 C 0.5879(2) 0.5003(2) 0.8235(3)
H190 H 0.56310 0.51190 0.80610
H191 H 0.57110 0.46100 0.81880
H192 H 0.62160 0.51790 0.79660
O19 O 0.74067(13) 0.93222(14) 0.21183(14)
H193 H 0.73210 0.94000 0.25010
C163 C 0.76555(19) 0.90165(18) 0.2234(2)
H194 H 0.79540 0.91250 0.19030
H195 H 0.73910 0.86320 0.21700
H196 H 0.77970 0.90770 0.27100
O20 O 0.72994(13) 0.79546(11) 0.05454(14)
H197 H 0.71700 0.77810 0.01750
C164 C 0.74508(19) 0.85016(16) 0.0442(2)
H198 H 0.71700 0.85680 0.06310
H199 H 0.74930 0.85830 -0.00580
H200 H 0.77940 0.87340 0.06800
O21 O 0.40780(13) 0.13947(12) 0.05186(14)
H201 H 0.39430 0.12270 0.01460
C165 C 0.4261(2) 0.1942(2) 0.0420(2)
H202 H 0.39710 0.20180 0.05320
H203 H 0.43710 0.20380 -0.00660
H204 H 0.45720 0.21560 0.07250
O22 O 0.90713(14) 0.50068(14) 0.03837(17)
H205 H 0.88630 0.51330 0.03510
C166 C 0.9475(2) 0.5311(2) 0.0821(3)
H206 H 0.96410 0.56920 0.06830
H207 H 0.97470 0.51980 0.08040
H208 H 0.93330 0.52670 0.12950
O23 O 0.57700(19) 0.84014(18) 0.03192(17)
H209 H 0.55690 0.85340 0.02540
C167 C 0.5795(4) 0.8315(3) 0.1024(4)
H210 H 0.61570 0.83800 0.11400
H211 H 0.55250 0.79400 0.11390
H212 H 0.57200 0.85620 0.12900
O24 O 0.57694(15) 0.73526(13) 0.22038(16)
H213 H 0.55960 0.70130 0.22210
C168 C 0.6178(4) 0.7509(4) 0.1790(4)
H214 H 0.64030 0.79040 0.18080
H215 H 0.60490 0.73960 0.13130
H216 H 0.63930 0.73450 0.19350
C169? C 0.6087(4) 0.8629(4) 0.0752(5)
C170? C 0.5793(4) 0.7438(4) 0.1495(4)
H217? H 0.56190 0.80670 0.03900
H218? H 0.62630 0.90190 0.06700
H219? H 0.63600 0.85160 0.07460
H220? H 0.59070 0.85440 0.12060
H221? H 0.60150 0.76300 0.24000
H222? H 0.55760 0.76040 0.13730
H223? H 0.56510 0.70910 0.12520
H224? H 0.61700 0.76780 0.13560
O25? O 0.57700(19) 0.84014(18) 0.03192(17)
O26? O 0.57694(15) 0.73526(13) 0.22038(16)
Mn2A Mn 1.24484(2) 0.97905(2) 1.518227(30)
Fe2A Fe 1.48973(2) 0.97715(2) 0.961797(20)
Fe2B Fe 1.02285(2) 0.51258(2) 1.628463(20)
Fe2B* Fe 1.02285(2) 0.51258(2) 0.628463(20)
N29B N 0.69342(12) 0.79114(12) 0.773283(150)
C8B C 0.51762(14) 0.54446(14) 1.385763(170)
C10A C 0.45449(14) 0.47934(15) 1.204457(170)
C11A C 0.46373(14) 0.43650(15) 1.329007(170)
#END
