
#######################################################################
#
#                 Cambridge Crystallographic Data Centre
#                                CCDC
#
#######################################################################
#
# If this CIF has been generated from an entry in the Cambridge
# Structural Database, then it will include bibliographic, chemical,
# crystal, experimental, refinement or atomic coordinate data resulting
# from the CCDC's data processing and validation procedures.
#
#######################################################################

data_CSD_CIF_CEKROB
_audit_creation_date 2012-11-29
_audit_creation_method CSD-ConQuest-V1
_database_code_CSD CEKROB
_database_code_depnum_ccdc_archive 'CCDC 879072'
_chemical_formula_sum 'C56 H72 Cl4 Fe1 Mn2 N11 O8'
_chemical_formula_moiety
;
(C44 H36 Cl4 Fe1 Mn2 N10 O4 1-)n,n(C8 H20 N1 1+),4n(C1 H4 O1)
;
_journal_coden_Cambridge 1350
_journal_volume 14
_journal_year 2012
_journal_page_first 7320
_journal_name_full 'CrystEngComm '
loop_
_publ_author_name
"H.Kara"
"A.Azizoglu"
"A.Karaoglu"
"Y.Yahsi"
"E.Gungor"
"A.Caneschi"
"L.Sorace"
_chemical_name_systematic
;
catena-(tetraethylammonium 
tetrakis(\m~2~-cyanido)-dicyanido-bis(2,2'-((2,2-dimethylpropane-1,3-diyl)bis(
nitrilomethylylidene))bis(4-chlorophenolato))-iron(iii)-di-manganese(iii) 
methanol solvate)
;
_cell_volume   4453.416
_exptl_crystal_colour 'black'
_exptl_crystal_density_diffrn 1.493
_exptl_crystal_description 'block'
_diffrn_ambient_temperature 100
_refine_special_details
;
C28A,O4A and C28B,O4B disordered over two sites with occupancies 0.539:0.461.

;
#These two values have been output from a single CSD field.
_refine_ls_R_factor_gt 0.0312
_refine_ls_wR_factor_gt 0.0312
_symmetry_cell_setting hexagonal
_symmetry_space_group_name_H-M 'P 32 2 1'
_symmetry_Int_Tables_number 154
loop_
_symmetry_equiv_pos_site_id
_symmetry_equiv_pos_as_xyz
1 x,y,z
2 -y,x-y,2/3+z
3 -x+y,-x,1/3+z
4 y,x,-z
5 x-y,-y,1/3-z
6 -x,-x+y,2/3-z
_cell_length_a 16.2948(3)
_cell_length_b 16.2948(3)
_cell_length_c 19.3671(6)
_cell_angle_alpha 90
_cell_angle_beta 90
_cell_angle_gamma 120
_cell_formula_units_Z 3
loop_
_atom_type_symbol
_atom_type_radius_bond
C 0.68
H 0.23
Cl 0.99
Fe 1.52
Mn 1.57
N 0.68
O 0.68
loop_
_atom_site_label
_atom_site_type_symbol
_atom_site_fract_x
_atom_site_fract_y
_atom_site_fract_z
Fe1 Fe 0.53315(2) 1.00000 0.16670
Mn1 Mn 0.500650(19) 0.78404(2) 0.384410(13)
O1 O 0.44909(9) 0.82162(9) 0.45757(6)
O2 O 0.62195(9) 0.88088(9) 0.41056(6)
O3 O 0.13242(13) 0.67291(15) 0.25294(8)
H1 H 0.15700 0.67380 0.21460
N1 N 0.36758(11) 0.68875(11) 0.35500(7)
N2 N 0.55854(11) 0.74930(11) 0.30471(7)
N3 N 0.49293(11) 0.89456(11) 0.30768(8)
N4 N 0.33598(11) 0.84091(11) 0.11339(8)
N5 N 0.59574(12) 0.85805(13) 0.12105(9)
N6 N 0.18822(14) 1.00000 0.16670
C1 C 0.37484(13) 0.83401(14) 0.45056(9)
C2 C 0.36728(14) 0.89984(14) 0.49327(9)
H2 H 0.41560 0.93520 0.52610
C3 C 0.29073(15) 0.91358(15) 0.48794(10)
H3 H 0.28660 0.95850 0.51680
C4 C 0.21961(15) 0.86173(14) 0.44034(10)
C5 C 0.22316(15) 0.79533(14) 0.39901(10)
H4 H 0.17300 0.75890 0.36770
C6 C 0.30166(14) 0.78134(14) 0.40322(9)
C7 C 0.29870(14) 0.70521(14) 0.36305(10)
H5 H 0.24070 0.66350 0.34050
C8 C 0.34631(13) 0.59937(13) 0.32082(9)
H6 H 0.27860 0.56480 0.30740
H7 H 0.35670 0.55940 0.35410
C9 C 0.40689(13) 0.61404(13) 0.25647(9)
C10 C 0.51132(13) 0.65235(14) 0.27555(10)
H8 H 0.51520 0.60910 0.30960
H9 H 0.54610 0.65220 0.23370
C11 C 0.63844(12) 0.80960(13) 0.27766(9)
H10 H 0.65750 0.78990 0.23750
C12 C 0.70185(13) 0.90432(13) 0.30241(9)
C13 C 0.78237(14) 0.96270(14) 0.26239(10)
H11 H 0.79150 0.94070 0.21920
C14 C 0.84746(14) 1.05093(14) 0.28542(11)
C15 C 0.83507(15) 1.08497(14) 0.34818(11)
H12 H 0.87990 1.14720 0.36290
C16 C 0.75752(14) 1.02818(13) 0.38889(10)
H13 H 0.74940 1.05150 0.43170
C17 C 0.69036(12) 0.93598(12) 0.36743(9)
C18 C 0.39524(14) 0.67854(15) 0.20544(10)
H14 H 0.32810 0.65090 0.19330
H15 H 0.43200 0.68530 0.16360
H16 H 0.41810 0.74100 0.22640
C19 C 0.37270(13) 0.51572(15) 0.22489(11)
H17 H 0.30520 0.48630 0.21340
H18 H 0.38210 0.47590 0.25820
H19 H 0.40890 0.52220 0.18280
C20 C 0.40639(13) 0.90251(12) 0.13404(8)
C21 C 0.57365(13) 0.91231(13) 0.13713(9)
C22 C 0.50598(13) 0.93670(12) 0.25679(8)
C23 C 0.20166(19) 0.92238(18) 0.19840(12)
H20 H 0.13880 0.86980 0.21250
H21 H 0.22660 0.89760 0.16240
C24 C 0.2669(2) 0.9511(3) 0.25994(15)
H22 H 0.32690 1.00820 0.24870
H23 H 0.27880 0.89960 0.27200
H24 H 0.23720 0.96430 0.29920
C25 C 0.15971(17) 1.04727(15) 0.22069(11)
H25 H 0.15390 1.09880 0.19830
H26 H 0.21130 1.07690 0.25520
C26 C 0.0687(2) 0.9837(2) 0.25815(13)
H27 H 0.01620 0.95610 0.22500
H28 H 0.05690 1.02080 0.29250
H29 H 0.07360 0.93290 0.28130
C27 C 0.03970(18) 0.6548(2) 0.24275(12)
H30 H 0.02970 0.70000 0.26970
H31 H -0.00530 0.59020 0.25780
H32 H 0.02980 0.66160 0.19360
O4 O 0.5614(6) 0.6763(5) 0.0929(4)
H33 H 0.57010 0.73090 0.10030
C28 C 0.5839(4) 0.6695(4) 0.0251(3)
H34 H 0.57510 0.71420 -0.00350
H35 H 0.54240 0.60480 0.00830
H36 H 0.65000 0.68460 0.02230
Cl1 Cl 0.12431(4) 0.88233(4) 0.43255(3)
Cl2 Cl 0.94738(4) 1.12270(4) 0.23530(3)
C29? C 0.5206(5) 0.6370(6) 0.0522(4)
H37? H 0.50360 0.57040 0.05590
H38? H 0.53130 0.65630 0.00360
H39? H 0.46900 0.64490 0.07060
H40? H 0.60810 0.74610 0.09920
O5? O 0.6041(5) 0.6938(7) 0.0903(6)
Mn1D Mn 0.716610(19) 1.21596(2) -0.051077(13)
Mn1A Mn 0.215960(19) 0.71661(2) 0.051077(13)
Mn1E Mn 0.499350(19) 1.28339(2) 0.282257(13)
O1D O 0.62747(9) 1.17838(9) -0.124237(60)
O2D O 0.74107(9) 1.11912(9) -0.077227(60)
N1D N 0.67883(11) 1.31125(11) -0.021667(70)
N2D N 0.80924(11) 1.25070(11) 0.028623(70)
N3D N 0.59837(11) 1.10544(11) 0.025653(80)
N4D N 0.49507(11) 1.15909(11) 0.219943(80)
N4B N 0.50493(11) 0.66402(11) 0.446723(80)
N4C N 0.84091(11) 1.33598(11) -0.11339(8)
N5D N 0.73769(12) 1.14195(13) 0.212283(90)
C1D C 0.54083(13) 1.16599(14) -0.117227(90)
C2D C 0.46744(14) 1.10016(14) -0.159937(90)
H2D H 0.48040 1.06480 -0.19277
C3D C 0.37715(15) 1.08642(15) -0.154607(100)
H3D H 0.32810 1.04150 -0.18347
C4D C 0.35788(15) 1.13827(14) -0.107007(100)
C5D C 0.42783(15) 1.20467(14) -0.065677(100)
H4D H 0.41410 1.24110 -0.03437
C6D C 0.52032(14) 1.21866(14) -0.069887(90)
C7D C 0.59349(14) 1.29479(14) -0.029717(100)
H5D H 0.57720 1.33650 -0.00717
C8D C 0.74694(13) 1.40063(13) 0.012513(90)
H6D H 0.71380 1.43520 0.02593
H7D H 0.79730 1.44060 -0.02077
C9D C 0.79285(13) 1.38596(13) 0.076863(90)
C10D C 0.85897(13) 1.34765(14) 0.057783(100)
H8D H 0.90610 1.39090 0.02373
H9D H 0.89390 1.34780 0.09963
C11D C 0.82884(12) 1.19040(13) 0.055673(90)
H10D H 0.86760 1.21010 0.09583
C12D C 0.79753(13) 1.09568(13) 0.030923(90)
C13D C 0.81967(14) 1.03730(14) 0.070943(100)
H11D H 0.85080 1.05930 0.11413
C14D C 0.79653(14) 0.94907(14) 0.047913(110)
C15D C 0.75010(15) 0.91503(14) -0.014847(110)
H12D H 0.73270 0.85280 -0.02957
C16D C 0.72934(14) 0.97182(13) -0.055557(100)
H13D H 0.69790 0.94850 -0.09837
C17D C 0.75438(12) 1.06402(12) -0.034097(90)
C18D C 0.71670(14) 1.32146(15) 0.127893(100)
H14D H 0.67720 1.34910 0.14003
H15D H 0.74670 1.31470 0.16973
H16D H 0.67710 1.25900 0.10693
C19D C 0.85698(13) 1.48428(15) 0.108443(110)
H17D H 0.81890 1.51370 0.11993
H18D H 0.90620 1.52410 0.07513
H19D H 0.88670 1.47780 0.15053
C20D C 0.50388(13) 1.09749(12) 0.199293(80)
C21D C 0.66134(13) 1.08769(13) 0.196203(90)
C22D C 0.56928(13) 1.06330(12) 0.076543(80)
C23D C 0.27928(19) 1.07762(18) 0.134933(120)
H20D H 0.26900 1.13020 0.12083
H21D H 0.32900 1.10240 0.17093
C24D C 0.3158(2) 1.0489(3) 0.073393(150)
H22D H 0.31870 0.99180 0.08463
H23D H 0.37920 1.10040 0.06133
H24D H 0.27290 1.03570 0.03413
C25D C 0.11244(17) 0.95273(15) 0.112643(110)
H25D H 0.05510 0.90120 0.13503
H26D H 0.13440 0.92310 0.07813
C26D C 0.0850(2) 1.0163(2) 0.075183(130)
H27D H 0.06010 1.04390 0.10833
H28D H 0.03610 0.97920 0.04083
H29D H 0.14070 1.06710 0.05203
Cl1D Cl 0.24198(4) 1.11767(4) -0.099217(30)
Cl2D Cl 0.82468(4) 0.87730(4) 0.098033(30)
#END
