
#######################################################################
#
#                 Cambridge Crystallographic Data Centre
#                                CCDC
#
#######################################################################
#
# If this CIF has been generated from an entry in the Cambridge
# Structural Database, then it will include bibliographic, chemical,
# crystal, experimental, refinement or atomic coordinate data resulting
# from the CCDC's data processing and validation procedures.
#
#######################################################################

data_CSD_CIF_CELMAJ
_audit_creation_date 2013-02-01
_audit_creation_method CSD-ConQuest-V1
_database_code_CSD CELMAJ
_database_code_depnum_ccdc_archive 'CCDC 906960'
_chemical_formula_sum 'C52 H80 Cd4 N6 Na2 O40 S4'
_chemical_formula_moiety
;
(C44 H48 Cd4 N4 Na2 O36 S4 2-)n,2n(C4 H12 N1 1+),4n(H2 O1)
;
_journal_coden_Cambridge 1147
_journal_volume 12
_journal_year 2012
_journal_page_first 2613
_journal_name_full 'Cryst.Growth Des. '
loop_
_publ_author_name
"T.Kurc"
"J.Janczak"
"J.Hoffmann"
"V.Videnova-Adrabinska"
_chemical_name_systematic
;
catena-[bis(Diethylammonium) 
tetrakis(\m~5~-5-sulfoisophthalato)-tetrakis(\m~2~-aqua)-tetrakis(dimethylform
amide)-tetra-cadmium-di-sodium tetrahydrate]
;
_cell_volume   1872.590
_exptl_crystal_colour 'colorless'
_exptl_crystal_density_diffrn 1.817
_exptl_special_details
;
The formula gives 1 cation per NaCd2 unit, not two as in the published 
formulation
;
_exptl_crystal_description 'parallelepiped'
_diffrn_ambient_temperature 295
#These two values have been output from a single CSD field.
_refine_ls_R_factor_gt 0.0605
_refine_ls_wR_factor_gt 0.0605
_symmetry_cell_setting triclinic
_symmetry_space_group_name_H-M 'P -1'
_symmetry_Int_Tables_number 2
loop_
_symmetry_equiv_pos_site_id
_symmetry_equiv_pos_as_xyz
1 x,y,z
2 -x,-y,-z
_cell_length_a 8.936(2)
_cell_length_b 12.821(2)
_cell_length_c 17.109(3)
_cell_angle_alpha 102.64(1)
_cell_angle_beta 93.32(1)
_cell_angle_gamma 100.24(1)
_cell_formula_units_Z 1
loop_
_atom_type_symbol
_atom_type_radius_bond
C 0.68
H 0.23
Cd 1.22
N 0.68
Na 1.78
O 0.89
S 0.91
loop_
_atom_site_label
_atom_site_type_symbol
_atom_site_fract_x
_atom_site_fract_y
_atom_site_fract_z
Cd1 Cd 0.64097(6) 0.86071(5) 0.37088(4)
Cd2 Cd 0.70391(6) 0.36693(5) 0.06685(4)
S1 S 0.8358(2) 0.72818(16) 0.48554(12)
O1 O 0.6921(5) 0.7385(4) 0.4459(3)
O2 O 0.9226(5) 0.8304(4) 0.5323(3)
O3 O 0.8120(6) 0.6446(4) 0.5306(3)
C1 C 0.9445(8) 0.6846(6) 0.4060(5)
C2 C 0.8715(8) 0.6139(5) 0.3351(4)
H1 H 0.76670 0.58760 0.33050
C3 C 0.9553(8) 0.5826(6) 0.2709(4)
C4 C 1.1118(8) 0.6232(6) 0.2787(5)
H2 H 1.16820 0.60150 0.23610
C5 C 1.1860(8) 0.6954(6) 0.3486(5)
C6 C 1.1007(8) 0.7260(6) 0.4119(4)
H3 H 1.14850 0.77470 0.45890
C7 C 0.8773(9) 0.5090(6) 0.1938(5)
O4 O 0.9509(6) 0.4835(5) 0.1361(3)
O5 O 0.7349(6) 0.4762(5) 0.1925(3)
C8 C 1.3516(9) 0.7488(6) 0.3533(5)
O6 O 1.4319(6) 0.7208(5) 0.3003(4)
O7 O 1.4008(6) 0.8296(4) 0.4140(3)
S2 S 1.4709(2) 1.06603(15) 0.31517(12)
O8 O 1.5001(6) 1.1429(4) 0.2652(4)
O9 O 1.5952(6) 1.0083(4) 0.3202(4)
O10 O 1.4279(6) 1.1175(5) 0.3924(4)
C9 C 1.3112(9) 0.9650(6) 0.2677(5)
C10 C 1.1717(8) 0.9571(5) 0.2978(5)
H4 H 1.16110 1.00420 0.34600
C11 C 1.0468(8) 0.8805(5) 0.2579(4)
C12 C 1.0639(8) 0.8136(6) 0.1856(4)
H5 H 0.97970 0.76350 0.15700
C13 C 1.2051(8) 0.8195(5) 0.1542(4)
C14 C 1.3297(8) 0.8933(5) 0.1966(4)
H6 H 1.42570 0.89530 0.17790
C15 C 0.9007(7) 0.8698(6) 0.2954(5)
O11 O 0.7812(6) 0.8110(4) 0.2558(3)
O12 O 0.9002(5) 0.9197(4) 0.3670(3)
C16 C 1.2268(9) 0.7449(6) 0.0768(5)
O13 O 1.3615(6) 0.7527(4) 0.0557(3)
O14 O 1.1161(6) 0.6790(4) 0.0363(3)
O15 O 0.7134(7) 0.5122(4) 0.0033(4)
Na1 Na 1.00000 1.00000 0.50000
O16 O 0.7075(6) 0.9897(4) 0.4983(3)
Na2 Na 1.00000 0.50000 0.00000
N1 N 0.4561(10) 0.3490(6) 0.3867(6)
H7 H 0.45080 0.27800 0.36400
H8 H 0.37560 0.35390 0.41560
C17 C 0.4404(17) 0.4050(11) 0.3230(9)
H9 H 0.51620 0.39020 0.28590
H10 H 0.45980 0.48300 0.34580
C18 C 0.2862(18) 0.3710(13) 0.2784(9)
H11 H 0.26820 0.29440 0.25380
H12 H 0.27960 0.41110 0.23750
H13 H 0.21090 0.38540 0.31500
C19 C 0.6028(13) 0.3894(10) 0.4451(9)
H14 H 0.61630 0.46780 0.46440
H15 H 0.58970 0.35730 0.49120
C20 C 0.7391(16) 0.3645(11) 0.4110(9)
H16 H 0.72930 0.28690 0.39420
H17 H 0.82540 0.39390 0.45060
H18 H 0.75360 0.39610 0.36540
O17 O 0.4510(6) 0.3172(5) 0.0832(4)
C21 C 0.4015(10) 0.2235(8) 0.0859(6)
H19 H 0.47290 0.18240 0.09650
N2 N 0.2578(9) 0.1747(7) 0.0755(5)
C22 C 0.2120(13) 0.064(1) 0.0829(8)
H20 H 0.30100 0.03290 0.08850
H21 H 0.15720 0.06320 0.12940
H22 H 0.14720 0.02210 0.03570
C23 C 0.1363(11) 0.2296(11) 0.0572(8)
H23 H 0.17550 0.30660 0.06750
H24 H 0.09760 0.20260 0.00150
H25 H 0.05540 0.21600 0.09040
O18 O 0.7521(7) 0.2223(5) 0.1176(4)
C24 C 0.8221(11) 0.2306(8) 0.1844(6)
H26 H 0.85530 0.29990 0.21750
N3 N 0.8518(9) 0.1463(6) 0.2106(5)
C25 C 0.7945(11) 0.0377(8) 0.1630(6)
H27 H 0.74960 0.04120 0.11150
H28 H 0.87710 -0.00110 0.15550
H29 H 0.71860 0.00050 0.19010
C26 C 0.9317(12) 0.1613(9) 0.2896(6)
H30 H 0.95230 0.23730 0.31620
H31 H 0.86940 0.12070 0.32090
H32 H 1.02630 0.13610 0.28410
O19 O 0.4226(8) 0.5509(5) 0.1581(4)
O20 O -0.6705(8) 0.2865(6) -0.0960(4)
Cd1A Cd 1.35903(6) 1.13929(5) 0.62912(4)
Cd1* Cd 1.64097(6) 0.86071(5) 0.37088(4)
Cd1A* Cd 0.35903(6) 1.13929(5) 0.62912(4)
Cd2A Cd 1.29609(6) 1.63307(5) 0.93315(4)
Cd2A* Cd 1.29609(6) 0.63307(5) -0.06685(4)
Cd2* Cd 0.70391(6) 1.36693(5) 1.06685(4)
S1A S 1.1642(2) 1.27182(16) 0.51446(12)
O1A O 1.3079(5) 1.2615(4) 0.5541(3)
O2A O 1.0774(5) 1.1696(4) 0.4677(3)
O3A O 1.1880(6) 1.3554(4) 0.4694(3)
C1A C 1.0555(8) 1.3154(6) 0.5940(5)
C2A C 1.1285(8) 1.3861(5) 0.6649(4)
H1A H 1.23330 1.41240 0.66950
C3A C 1.0447(8) 1.4174(6) 0.7291(4)
C4A C 0.8882(8) 1.3768(6) 0.7213(5)
H2A H 0.83180 1.39850 0.76390
C5A C 0.8140(8) 1.3046(6) 0.6514(5)
C6A C 0.8993(8) 1.2740(6) 0.5881(4)
H3A H 0.85150 1.22530 0.54110
C7A C 1.1227(9) 1.4910(6) 0.8062(5)
O4A O 1.0491(6) 1.5165(5) 0.8639(3)
O4A* O 1.0491(6) 0.5165(5) -0.1361(3)
O5A O 1.2651(6) 1.5238(5) 0.8075(3)
C8A C 0.6484(9) 1.2512(6) 0.6467(5)
O6A O 0.5681(6) 1.2792(5) 0.6997(4)
O6* O 0.4319(6) 0.7208(5) 0.3003(4)
O6A* O 1.5681(6) 1.2792(5) 0.6997(4)
O7A O 0.5992(6) 1.1704(4) 0.5860(3)
O7* O 0.4008(6) 0.8296(4) 0.4140(3)
O7A* O 1.5992(6) 1.1704(4) 0.5860(3)
S2A S 0.5291(2) 0.93397(15) 0.68483(12)
O8A O 0.4999(6) 0.8571(4) 0.7348(4)
O9A O 0.4048(6) 0.9917(4) 0.6798(4)
O9* O 0.5952(6) 1.0083(4) 0.3202(4)
O9A* O 1.4048(6) 0.9917(4) 0.6798(4)
O10A O 0.5721(6) 0.8825(5) 0.6076(4)
C9A C 0.6888(9) 1.0350(6) 0.7323(5)
C10A C 0.8283(8) 1.0429(5) 0.7022(5)
H4A H 0.83890 0.99580 0.65400
C11A C 0.9532(8) 1.1195(5) 0.7421(4)
C12A C 0.9361(8) 1.1864(6) 0.8144(4)
H5A H 1.02030 1.23650 0.84300
C13A C 0.7949(8) 1.1805(5) 0.8458(4)
C14A C 0.6703(8) 1.1067(5) 0.8034(4)
H6A H 0.57430 1.10470 0.82210
C15A C 1.0993(7) 1.1302(6) 0.7046(5)
O11A O 1.2188(6) 1.1890(4) 0.7442(3)
O12A O 1.0998(5) 1.0803(4) 0.6330(3)
C16A C 0.7732(9) 1.2551(6) 0.9232(5)
O13A O 0.6385(6) 1.2473(4) 0.9443(3)
O13A* O 0.6385(6) 0.2473(4) -0.0557(3)
O13* O 1.3615(6) 1.7527(4) 1.0557(3)
O14A O 0.8839(6) 1.3210(4) 0.9637(3)
O14A* O 0.8839(6) 0.3210(4) -0.0363(3)
O14* O 1.1161(6) 1.6790(4) 1.0363(3)
O15A O 1.2866(7) 0.4878(4) -0.0033(4)
O15A* O 1.2866(7) 1.4878(4) 0.9967(4)
O16A O 1.2925(6) 1.0103(4) 0.5017(3)
Na2* Na 1.00000 1.50000 1.00000
O17A O 1.5490(6) 1.6828(5) 0.9168(4)
C21A C 1.5985(10) 1.7765(8) 0.9141(6)
H19A H 1.52710 1.81760 0.90350
N2A N 1.7422(9) 1.8253(7) 0.9245(5)
C22A C 1.7880(13) 1.936(1) 0.9171(8)
H20A H 1.69900 1.96710 0.91150
H21A H 1.84280 1.93680 0.87060
H22A H 1.85280 1.97790 0.96430
C23A C 1.8637(11) 1.7704(11) 0.9428(8)
H23A H 1.82450 1.69340 0.93250
H24A H 1.90240 1.79740 0.99850
H25A H 1.94460 1.78400 0.90960
O18A O 1.2479(7) 1.7777(5) 0.8824(4)
C24A C 1.1779(11) 1.7694(8) 0.8156(6)
H26A H 1.14470 1.70010 0.78250
N3A N 1.1482(9) 1.8537(6) 0.7894(5)
C25A C 1.2055(11) 1.9623(8) 0.8370(6)
H27A H 1.25040 1.95880 0.88850
H28A H 1.12290 2.00110 0.84450
H29A H 1.28140 1.99950 0.80990
C26A C 1.0683(12) 1.8387(9) 0.7104(6)
H30A H 1.04770 1.76270 0.68380
H31A H 1.13060 1.87930 0.67910
H32A H 0.97370 1.86390 0.71590
#END
