
#######################################################################
#
#                 Cambridge Crystallographic Data Centre
#                                CCDC
#
#######################################################################
#
# If this CIF has been generated from an entry in the Cambridge
# Structural Database, then it will include bibliographic, chemical,
# crystal, experimental, refinement or atomic coordinate data resulting
# from the CCDC's data processing and validation procedures.
#
#######################################################################

data_CSD_CIF_CELNAL
_audit_creation_date 2017-10-06
_audit_creation_method CSD-ConQuest-V1
_database_code_CSD CELNAL
_database_code_depnum_ccdc_archive 'CCDC 1545335; not CCDC 11545335 as published'
_chemical_formula_sum 'C130 H118 N60 O52 U2'
_chemical_formula_moiety
;
(C26 H16 N2 O20 U2 2-)n,C20 H18 N2 O4 2+,2(C42 H42 N28 O14)
;
_journal_coden_Cambridge 1220
_journal_volume 23
_journal_year 2017
_journal_page_first 13995
_journal_name_full 'Chem.-Eur.J. '
loop_
_publ_author_name
"Lei Mei"
"Zhen-Ni Xie"
"Kong-qiu Hu"
"Li-Yong Yuan"
"Zeng-Qiang Gao"
"Zhi-Fang Chai"
"Wei-Qun Shi"
_chemical_name_systematic
;
catena-[1,1'-[1,4-phenylenebis(methylene)]bis(4-carboxypyridin-1-ium) 
(\m-1,1'-[1,4-phenylenebis(methylene)]bis(pyridin-1-ium-4-carboxylato))-(\m-ox
alato)-bis(oxalato)-tetraoxo-di-uranium(vi) bis(cucurbit[7]uril) unknown 
solvate]
;
_cell_volume   8302.528
_exptl_crystal_colour 'yellow'
_exptl_crystal_density_diffrn 1.522
_exptl_crystal_description 'block'
_diffrn_ambient_temperature 153
_diffrn_special_details
;
twin

;
_refine_special_details
;
The SQUEEZE/PLATON program has been used to model some disorder.

;
#These two values have been output from a single CSD field.
_refine_ls_R_factor_gt 0.0464
_refine_ls_wR_factor_gt 0.0464
_symmetry_cell_setting monoclinic
_symmetry_space_group_name_H-M 'P 21'
_symmetry_Int_Tables_number 4
loop_
_symmetry_equiv_pos_site_id
_symmetry_equiv_pos_as_xyz
1 x,y,z
2 -x,1/2+y,-z
_cell_length_a 18.562(4)
_cell_length_b 19.966(4)
_cell_length_c 22.588(5)
_cell_angle_alpha 90
_cell_angle_beta 97.35(3)
_cell_angle_gamma 90
_cell_formula_units_Z 2
loop_
_atom_type_symbol
_atom_type_radius_bond
C 0.68
H 0.23
N 0.68
O 0.68
U 1.96
loop_
_atom_site_label
_atom_site_type_symbol
_atom_site_fract_x
_atom_site_fract_y
_atom_site_fract_z
U1 U 1.11163(2) 1.70996(2) 0.65434(2)
U2 U 1.29419(2) 1.56616(2) 0.83737(2)
O1 O 0.9363(5) 1.6260(6) 0.5832(4)
C1 C 0.8657(5) 1.5631(6) 0.6831(5)
H1 H 0.83320 1.56760 0.64840
C2 C 0.9384(7) 1.5493(8) 0.7801(6)
H2 H 0.96900 1.54780 0.81610
O2 O 1.3088(6) 1.3489(5) 0.8765(4)
C3 C 0.9750(5) 1.6120(5) 0.6229(4)
C4 C 0.9762(7) 1.5695(8) 0.7276(5)
H3 H 1.02650 1.57370 0.73220
C5 C 0.8322(6) 1.5385(6) 0.7370(5)
H4 H 0.78310 1.52760 0.73260
C6 C 0.8215(7) 1.4379(8) 0.8470(7)
O3 O 1.2173(4) 1.5746(5) 0.8881(3)
O4 O 1.3703(4) 1.5561(5) 0.7849(3)
O5 O 1.1879(4) 1.6980(4) 0.6014(3)
O6 O 1.1951(4) 1.7246(4) 0.7300(3)
O7 O 1.0362(4) 1.7262(4) 0.7065(3)
O8 O 1.2199(4) 1.5537(4) 0.7577(3)
O9 O 1.1472(4) 1.6042(4) 0.6992(3)
O10 O 1.2658(4) 1.6750(4) 0.7907(3)
C7 C 1.2201(6) 1.6733(6) 0.7546(5)
C8 C 1.1931(6) 1.6039(6) 0.7354(4)
O11 O 1.0595(4) 1.7667(4) 0.5791(3)
O12 O 1.1406(5) 1.8270(4) 0.6488(4)
O13 O 1.2798(4) 1.4478(4) 0.8384(3)
O14 O 1.3498(4) 1.5118(4) 0.9149(3)
C9 C 0.9397(5) 1.5806(5) 0.6772(4)
C10 C 0.8283(7) 1.5111(8) 0.8440(6)
H5 H 0.85700 1.52730 0.88000
H6 H 0.78050 1.53130 0.84140
O15 O 1.3677(5) 1.4176(5) 0.9649(4)
O16 O 1.0429(4) 1.6243(4) 0.6173(3)
C11 C 1.3072(6) 1.4108(7) 0.8760(5)
C12 C 1.1363(7) 1.8572(6) 0.5974(6)
O17 O 1.1635(8) 1.9109(6) 0.5829(6)
C13 C 1.0892(6) 1.8212(6) 0.5558(5)
C14 C 1.3453(7) 1.4481(7) 0.9230(5)
C15 C 0.7572(9) 1.4072(9) 0.8540(9)
H7 H 0.71750 1.43520 0.85610
C16 C 0.7445(9) 1.3384(9) 0.8583(10)
H8 H 0.69980 1.32130 0.86540
C17 C 0.8797(11) 1.3957(12) 0.8428(11)
H9 H 0.92500 1.41400 0.83890
O18 O 1.0827(4) 1.8435(5) 0.5086(3)
C18 C 0.8720(11) 1.3256(11) 0.8442(11)
H10 H 0.91160 1.29810 0.84040
N1 N 0.8675(6) 1.5327(5) 0.7851(5)
C19 C 0.6778(9) 1.1828(7) 0.9098(6)
H11 H 0.65400 1.17440 0.87170
C20 C 0.6340(8) 1.1700(7) 0.9610(5)
H12 H 0.58500 1.15960 0.95160
C21 C 0.6600(7) 1.1725(6) 1.0163(4)
C22 C 0.7256(9) 1.1921(8) 1.0177(6)
H13 H 0.75130 1.19540 1.05580
C23 C 0.7718(9) 1.2124(10) 0.9633(7)
H14 H 0.81830 1.23000 0.97210
N2 N 0.7464(7) 1.2047(7) 0.9126(5)
C24 C 0.8042(8) 1.2970(9) 0.8513(8)
C25 C 0.7899(11) 1.2212(8) 0.8546(7)
H15 H 0.83570 1.19710 0.85850
H16 H 0.76090 1.20640 0.81810
C26 C 0.6127(6) 1.1576(6) 1.0702(4)
O19 O 0.6439(4) 1.1486(4) 1.1171(3)
O20 O 0.5454(5) 1.1518(5) 1.0718(4)
N3 N 1.0004(7) 1.2164(9) 0.7066(6)
O21 O 0.5444(4) 1.3136(4) 0.9241(3)
N4 N 0.9206(4) 1.3189(4) 0.6214(3)
O22 O 0.6208(4) 1.2392(4) 0.7922(4)
N5 N 0.5220(5) 1.3909(4) 0.8514(4)
O23 O 0.6590(5) 1.3401(7) 1.0460(4)
N6 N 0.6108(5) 1.4409(5) 0.7115(4)
C27 C 1.0584(6) 1.3744(8) 0.6940(6)
N7 N 0.8895(6) 1.2064(6) 0.6587(4)
N8 N 0.5711(5) 1.4951(4) 0.8076(3)
C28 C 0.6119(6) 1.5394(5) 0.8378(5)
C29 C 0.6710(5) 1.4488(6) 0.6721(4)
O24 O 1.0716(6) 1.5014(10) 0.8353(5)
N9 N 0.7540(6) 1.5520(9) 1.0279(5)
N10 N 0.6566(5) 1.2863(5) 0.6993(4)
N11 N 0.5686(5) 1.3364(5) 0.7588(4)
O25 O 0.8046(7) 1.1611(5) 0.7318(5)
O26 O 0.7576(6) 1.6164(7) 0.9447(5)
N12 N 1.0380(5) 1.3229(6) 0.6579(4)
N13 N 0.8057(4) 1.3421(4) 0.6114(4)
N14 N 0.6179(6) 1.4438(6) 1.0231(4)
N15 N 0.7726(5) 1.2358(5) 0.6611(4)
C30 C 0.5136(5) 1.4626(5) 0.8474(4)
H17 H 0.46400 1.47370 0.82990
N16 N 1.0698(7) 1.2382(9) 0.7778(6)
C31 C 0.9980(6) 1.3341(6) 0.6080(5)
H18 H 1.01260 1.34820 0.57220
N17 N 1.0953(7) 1.3436(10) 0.7344(5)
C32 C 0.5389(5) 1.3706(5) 0.9077(4)
C33 C 0.5469(5) 1.4236(6) 1.0047(4)
H19 H 0.51060 1.41140 1.02740
C34 C 0.8712(6) 1.3692(5) 0.6159(4)
N18 N 0.6854(4) 1.3897(5) 0.6430(4)
C35 C 0.7446(6) 1.3800(6) 0.5956(4)
H20 H 0.73670 1.40010 0.55820
N19 N 0.6591(6) 1.5507(6) 0.9796(4)
C36 C 0.8202(9) 1.1976(6) 0.6884(6)
O27 O 1.0442(5) 1.4324(7) 0.6865(4)
C37 C 0.8087(6) 1.2681(5) 0.6086(5)
H21 H 0.78270 1.25300 0.57040
C38 C 1.0101(9) 1.1973(11) 0.7653(6)
C39 C 0.5750(6) 1.3772(6) 0.7066(4)
H22 H 0.52690 1.38250 0.68360
C40 C 0.7272(8) 1.5767(10) 0.9806(6)
C41 C 0.6339(7) 1.5143(8) 1.0324(5)
H23 H 0.59950 1.53910 1.05360
N20 N 0.5873(5) 1.5344(5) 0.8963(4)
C42 C 0.5725(6) 1.4972(6) 0.7429(4)
H24 H 0.59490 1.53920 0.73390
H25 H 0.52250 1.49890 0.72420
C43 C 0.5090(6) 1.3439(6) 0.8070(5)
H26 H 0.46780 1.31690 0.80410
O28 O 0.9401(7) 1.5732(13) 0.9482(6)
C44 C 0.6159(6) 1.2828(6) 0.7539(5)
C45 C 0.6086(8) 1.5805(6) 0.9419(6)
H27 H 0.59080 1.62370 0.94500
C46 C 0.8885(7) 1.2532(6) 0.6097(5)
H28 H 0.90050 1.23270 0.57280
C47 C 0.6319(6) 1.3396(6) 0.6626(4)
H29 H 0.60260 1.32170 0.62700
O29 O 0.7075(4) 1.5004(4) 0.6624(3)
O30 O 0.6590(4) 1.5762(4) 0.8140(3)
O31 O 0.8854(4) 1.4308(4) 0.6132(3)
N21 N 0.5452(5) 1.4266(5) 0.9409(4)
C48 C 0.5266(6) 1.4875(5) 0.9102(4)
H30 H 0.48480 1.51050 0.92330
C49 C 0.6650(7) 1.4015(9) 1.0446(5)
N22 N 0.7177(7) 1.4352(10) 1.0619(6)
O32 O 0.9981(8) 1.2207(12) 0.9401(6)
N23 N 0.9870(8) 1.4836(14) 0.9969(7)
C50 C 0.6958(7) 1.2284(6) 0.6746(5)
H31 H 0.69540 1.19160 0.70270
H32 H 0.66670 1.21440 0.63800
C51 C 0.8807(9) 1.3494(12) 1.0521(6)
O33 O 0.9715(7) 1.1647(7) 0.7994(5)
C52 C 0.968(1) 1.4424(11) 1.0470(7)
H33 H 1.00770 1.44770 1.07970
C53 C 0.7031(8) 1.5052(13) 1.0645(6)
H34 H 0.70440 1.52040 1.10580
O34 O 0.8598(8) 1.2936(10) 1.0488(7)
C54 C 1.1030(11) 1.2244(18) 0.8337(8)
H35 H 1.13150 1.18680 0.84390
C55 C 1.1046(8) 1.2743(11) 0.7289(7)
H36 H 1.15510 1.26110 0.72710
N24 N 0.9572(7) 1.3716(11) 1.0383(6)
C56 C 0.8226(9) 1.5718(15) 1.0466(7)
H37 H 0.83150 1.61190 1.06710
N25 N 1.0876(9) 1.2770(14) 0.8757(6)
N26 N 0.8811(8) 1.5302(12) 1.0342(7)
C57 C 1.0605(12) 1.4881(14) 0.9640(11)
H38 H 1.05730 1.52930 0.94110
H39 H 1.10110 1.49320 0.99530
N27 N 1.0444(7) 1.3274(12) 0.9595(6)
N28 N 0.8467(8) 1.4085(12) 1.0660(6)
C58 C 1.1396(9) 1.3895(12) 0.7699(7)
H40 H 1.17770 1.41510 0.75900
C59 C 1.1021(9) 1.3625(19) 0.9375(8)
H41 H 1.14420 1.36270 0.96840
N29 N 1.0813(9) 1.4327(13) 0.9225(7)
C60 C 0.7704(9) 1.4025(12) 1.0967(8)
H42 H 0.76510 1.38030 1.13210
C61 C 1.0576(8) 1.257(1) 0.6776(6)
H43 H 1.08130 1.23110 0.64870
C62 C 0.8937(11) 1.4631(15) 1.0734(9)
H44 H 0.90430 1.47450 1.11580
C63 C 1.0391(13) 1.2675(15) 0.9254(11)
C64 C 1.085(1) 1.4479(14) 0.8571(9)
N30 N 1.1100(7) 1.3876(15) 0.8322(7)
C65 C 0.9545(10) 1.1760(8) 0.6765(8)
H45 H 0.96470 1.13170 0.66820
C66 C 1.1282(10) 1.338(2) 0.8751(8)
H46 H 1.18050 1.32900 0.88010
C67 C 1.0163(13) 1.3303(15) 1.0261(10)
H47 H 1.00400 1.28470 1.03600
H48 H 1.05800 1.34300 1.05420
C68 C 0.9358(10) 1.5343(16) 0.9884(8)
N31 N 1.4671(4) 1.6338(4) 0.5116(3)
C69 C 1.5973(5) 1.2547(5) 0.3036(4)
N32 N 1.3373(4) 1.2077(5) 0.2601(3)
N33 N 1.5834(4) 1.5159(4) 0.5315(3)
N34 N 1.1491(5) 1.2800(5) 0.3858(3)
N35 N 1.1575(4) 1.4209(5) 0.5385(3)
N36 N 1.5634(5) 1.3458(4) 0.1873(4)
C70 C 1.6896(6) 1.3197(5) 0.3484(5)
H49 H 1.72740 1.29060 0.36170
N37 N 1.5756(5) 1.6095(4) 0.4637(4)
N38 N 1.6431(5) 1.3089(4) 0.3007(3)
N39 N 1.2287(4) 1.5806(5) 0.5145(4)
N40 N 1.6729(5) 1.4763(4) 0.3073(3)
N41 N 1.6611(4) 1.4531(4) 0.4557(3)
O35 O 1.3741(5) 1.4040(4) 0.1654(3)
N42 N 1.4421(5) 1.3079(4) 0.1748(4)
C71 C 1.4167(5) 1.5406(5) 0.6299(4)
H50 H 1.42800 1.54250 0.67120
C72 C 1.5062(5) 1.6089(5) 0.5586(4)
N43 N 1.6757(4) 1.3828(4) 0.3787(3)
C73 C 1.4020(5) 1.1865(5) 0.2766(4)
O36 O 1.1558(4) 1.5422(4) 0.3691(4)
C74 C 1.5810(6) 1.5883(5) 0.5228(4)
H51 H 1.62460 1.60820 0.54510
C75 C 1.0828(5) 1.4123(5) 0.4607(4)
H52 H 1.03000 1.40640 0.45660
C76 C 1.6424(6) 1.5355(5) 0.3256(4)
C77 C 1.7116(5) 1.4440(5) 0.3554(4)
H53 H 1.76320 1.43810 0.35180
N44 N 1.2158(4) 1.2226(4) 0.3142(4)
C78 C 1.3107(5) 1.4748(5) 0.6049(4)
N45 N 1.1429(5) 1.5129(5) 0.4682(4)
N46 N 1.6482(5) 1.4008(4) 0.2286(4)
N47 N 1.1217(6) 1.3686(5) 0.3168(4)
C79 C 1.5321(6) 1.1889(5) 0.2338(4)
H54 H 1.54930 1.14660 0.22560
C80 C 1.4284(6) 1.2377(5) 0.1806(4)
H55 H 1.43560 1.21200 0.14480
C81 C 1.2356(5) 1.5590(6) 0.5744(4)
H56 H 1.19890 1.57690 0.59770
C82 C 1.2054(5) 1.2347(5) 0.3728(5)
C83 C 1.6905(6) 1.4577(5) 0.2462(4)
H57 H 1.72280 1.47950 0.22440
C84 C 1.3968(5) 1.6658(5) 0.5219(4)
H58 H 1.40590 1.69360 0.55720
H59 H 1.38160 1.69520 0.48840
C85 C 1.5905(6) 1.4089(5) 0.1967(4)
C86 C 1.6529(5) 1.3868(6) 0.4389(5)
C87 C 1.5078(5) 1.6333(5) 0.4568(4)
N48 N 1.1072(5) 1.4413(5) 0.4040(4)
C88 C 1.1605(5) 1.3561(6) 0.5196(5)
C89 C 1.6489(5) 1.4748(6) 0.5171(5)
C90 C 1.3783(6) 1.3427(5) 0.1762(4)
C91 C 1.6956(6) 1.4948(5) 0.4084(4)
H60 H 1.74120 1.51500 0.42670
C92 C 1.1746(7) 1.3812(6) 0.2704(5)
C93 C 1.6645(5) 1.3312(5) 0.2395(4)
H61 H 1.71450 1.31930 0.23400
C94 C 1.0798(7) 1.4206(7) 0.3501(5)
H62 H 1.03540 1.43720 0.33230
N49 N 1.2065(5) 1.3230(5) 0.2509(4)
C95 C 1.5259(5) 1.4936(5) 0.5719(4)
C96 C 1.2854(5) 1.6183(5) 0.4908(4)
C97 C 1.2468(6) 1.3182(6) 0.1912(5)
H63 H 1.21890 1.28660 0.16500
H64 H 1.24050 1.36160 0.17190
O37 O 1.1901(6) 1.4376(5) 0.2488(4)
C98 C 1.2690(6) 1.1771(5) 0.2848(5)
H65 H 1.24070 1.15400 0.25180
H66 H 1.28660 1.14320 0.31380
C99 C 1.6118(5) 1.2920(5) 0.2052(4)
H67 H 1.62990 1.26850 0.17190
C100 C 1.1579(6) 1.5806(6) 0.4911(5)
H68 H 1.12550 1.61620 0.48980
C101 C 1.1071(5) 1.4627(5) 0.5055(5)
H69 H 1.06920 1.48100 0.52740
C102 C 1.1167(6) 1.2992(6) 0.3299(4)
H70 H 1.06650 1.28300 0.32200
C103 C 1.1390(6) 1.5053(6) 0.4098(5)
C104 C 1.3461(6) 1.2314(5) 0.1983(4)
H71 H 1.31690 1.20310 0.16890
C105 C 1.1099(5) 1.2872(6) 0.4462(5)
H72 H 1.08240 1.25320 0.46050
C106 C 1.1693(5) 1.2669(6) 0.2805(5)
H73 H 1.13850 1.24160 0.24980
C107 C 1.6348(6) 1.6087(5) 0.4142(5)
H74 H 1.61800 1.64000 0.38260
H75 H 1.68090 1.62530 0.43380
C108 C 1.5119(6) 1.3351(5) 0.1457(5)
H76 H 1.51400 1.34170 0.10520
O38 O 1.2386(3) 1.2076(4) 0.4109(3)
O39 O 1.5789(4) 1.2200(3) 0.3482(3)
O40 O 1.5198(4) 1.4371(4) 0.5921(3)
O41 O 1.6310(4) 1.3414(4) 0.4717(3)
O42 O 1.3300(4) 1.4194(4) 0.6209(3)
N50 N 1.4567(4) 1.2061(4) 0.2334(3)
O43 O 1.6151(4) 1.5750(4) 0.2944(3)
O44 O 1.4098(4) 1.1567(3) 0.3223(3)
O45 O 1.2903(4) 1.6481(4) 0.4419(3)
N51 N 1.2480(5) 1.4881(4) 0.5808(3)
N52 N 1.4804(4) 1.5459(4) 0.5861(3)
N53 N 1.3355(4) 1.6203(4) 0.5294(3)
O46 O 1.4878(4) 1.6535(3) 0.4101(3)
N54 N 1.5757(4) 1.2451(4) 0.2483(3)
O47 O 1.5687(4) 1.4610(4) 0.1786(3)
N55 N 1.3217(5) 1.3005(5) 0.1910(4)
N56 N 1.1213(5) 1.3483(5) 0.4740(4)
N57 N 1.6479(5) 1.5444(4) 0.3868(4)
O48 O 1.1916(4) 1.3115(4) 0.5420(3)
N58 N 1.3489(5) 1.5336(4) 0.6048(3)
C109 C 1.3084(5) 1.5904(5) 0.5871(4)
H77 H 1.31020 1.62350 0.61920
C110 C 1.1863(6) 1.4426(6) 0.5921(4)
H78 H 1.17140 1.43200 0.62870
N59 N 1.4114(6) 1.2844(5) 0.4645(5)
O49 O 1.3331(6) 1.2690(5) 0.6778(4)
H79 H 1.34150 1.27480 0.71400
C111 C 1.3892(8) 1.4919(8) 0.3406(6)
N60 N 1.4288(8) 1.5873(6) 0.2721(6)
C112 C 1.4239(7) 1.5614(8) 0.2166(6)
H80 H 1.39230 1.52540 0.20850
C113 C 1.4668(7) 1.2993(6) 0.5502(7)
H81 H 1.51050 1.30980 0.57320
C114 C 1.3484(7) 1.2709(7) 0.4967(6)
H82 H 1.30590 1.26050 0.47200
C115 C 1.3411(7) 1.2710(7) 0.5584(6)
H83 H 1.29870 1.26230 0.57500
C116 C 1.4611(10) 1.5824(8) 0.1699(7)
H84 H 1.45150 1.55810 0.13460
O50 O 1.4530(7) 1.2862(6) 0.6767(6)
C117 C 1.3792(9) 1.5642(8) 0.3237(6)
H85 H 1.39180 1.59160 0.35890
H86 H 1.32840 1.57210 0.30930
C118 C 1.3979(9) 1.2801(7) 0.6514(8)
C119 C 1.4027(8) 1.2850(6) 0.5870(6)
C120 C 1.4041(8) 1.3586(6) 0.3748(7)
C121 C 1.4696(7) 1.2992(6) 0.4916(8)
H87 H 1.51080 1.30920 0.47390
C122 C 1.3324(9) 1.4552(9) 0.3557(8)
H88 H 1.28780 1.47640 0.35560
C123 C 1.4146(8) 1.2867(6) 0.3976(5)
H89 H 1.37690 1.25840 0.37720
H90 H 1.46120 1.26990 0.38910
O51 O 1.5964(6) 1.7170(7) 0.1228(5)
O52 O 1.5431(8) 1.6432(6) 0.0655(5)
C124 C 1.5132(8) 1.6376(7) 0.1686(7)
C125 C 1.5523(9) 1.6660(8) 0.1144(7)
C126 C 1.3376(8) 1.3849(9) 0.3719(8)
H91 H 1.29750 1.35990 0.37970
C127 C 1.4771(8) 1.6360(7) 0.2721(7)
H92 H 1.48640 1.65830 0.30840
C128 C 1.4596(9) 1.4635(8) 0.3387(9)
H93 H 1.49770 1.48740 0.32590
C129 C 1.4664(9) 1.3972(8) 0.3577(9)
H94 H 1.51150 1.37650 0.35970
C130 C 1.5197(9) 1.6623(9) 0.2256(6)
H95 H 1.55230 1.69720 0.23570
U2A U 0.70581(2) 1.06616(2) 1.16263(2)
O19A O 1.3561(4) 1.6486(4) 0.8829(3)
#END
