
#######################################################################
#
#                 Cambridge Crystallographic Data Centre
#                                CCDC
#
#######################################################################
#
# If this CIF has been generated from an entry in the Cambridge
# Structural Database, then it will include bibliographic, chemical,
# crystal, experimental, refinement or atomic coordinate data resulting
# from the CCDC's data processing and validation procedures.
#
#######################################################################

data_CSD_CIF_CEMPER
_audit_creation_date 2013-04-29
_audit_creation_method CSD-ConQuest-V1
_database_code_CSD CEMPER
_database_code_depnum_ccdc_archive 'CCDC 928496'
_chemical_formula_sum 'C48 H48 Cu2 N4 O32 S4 U2'
_chemical_formula_moiety
;
(C28 H16 O24 S4 U2 4-)n,2n(C10 H14 Cu1 N2 O3 2+),2n(H2 O1)
;
_journal_coden_Cambridge 9
_journal_volume 52
_journal_year 2013
_journal_page_first 435
_journal_name_full 'Inorg.Chem. '
loop_
_publ_author_name
"P.Thuery"
_chemical_name_systematic
;
catena-(bis((\m~2~-4,4'-bipyridine)-triaqua-copper) 
bis(\m~2~-2-sulfobenzoato)-bis(2-sulfobenzoato)-tetraoxo-di-uranium 
dihydrate)
;
_cell_volume   2994.158
_exptl_crystal_colour 'light green'
_exptl_crystal_density_diffrn 2.134
_exptl_crystal_description 'parallelepiped'
_diffrn_ambient_temperature 150
#These two values have been output from a single CSD field.
_refine_ls_R_factor_gt 0.0271
_refine_ls_wR_factor_gt 0.0271
_symmetry_cell_setting monoclinic
_symmetry_space_group_name_H-M 'P 21/n'
_symmetry_Int_Tables_number 14
loop_
_symmetry_equiv_pos_site_id
_symmetry_equiv_pos_as_xyz
1 x,y,z
2 1/2-x,1/2+y,1/2-z
3 -x,-y,-z
4 -1/2+x,-1/2-y,-1/2+z
_cell_length_a 11.2043(2)
_cell_length_b 15.0029(5)
_cell_length_c 17.9274(6)
_cell_angle_alpha 90
_cell_angle_beta 96.5021(19)
_cell_angle_gamma 90
_cell_formula_units_Z 2
loop_
_atom_type_symbol
_atom_type_radius_bond
C 0.68
H 0.23
Cu 1.32
N 0.68
O 0.68
S 1.02
U 1.96
loop_
_atom_site_label
_atom_site_type_symbol
_atom_site_fract_x
_atom_site_fract_y
_atom_site_fract_z
U1 U 0.626230(8) 0.335417(7) 0.036747(5)
S1 S 0.79700(6) 0.38778(5) -0.11989(4)
S2 S 0.55570(6) 0.14697(5) 0.14793(4)
O1 O 0.52796(18) 0.27562(15) -0.02847(12)
O2 O 0.72320(18) 0.39945(16) 0.10043(12)
O3 O 0.59034(18) 0.45851(14) -0.04221(12)
O4 O 0.53379(18) 0.59152(15) -0.08605(13)
O5 O 0.7761(2) 0.33876(14) -0.05069(13)
O6 O 0.69245(19) 0.39034(15) -0.17485(12)
O7 O 0.9040(2) 0.35290(15) -0.14778(14)
O8 O 0.75806(19) 0.21924(16) 0.06433(13)
O9 O 0.88779(19) 0.10981(16) 0.06862(12)
O10 O 0.54370(17) 0.24524(14) 0.13372(11)
O11 O 0.56731(19) 0.09688(15) 0.08083(12)
O12 O 0.46134(18) 0.11788(14) 0.19118(12)
C1 C 0.6132(2) 0.53331(19) -0.06783(16)
C2 C 0.7407(2) 0.5594(2) -0.07572(16)
C3 C 0.8304(2) 0.4995(2) -0.09262(16)
C4 C 0.9473(3) 0.5301(2) -0.09398(18)
H1 H 1.00680 0.49070 -0.10530
C5 C 0.9764(3) 0.6185(3) -0.0788(2)
H2 H 1.05540 0.63770 -0.07800
C6 C 0.8877(3) 0.6779(2) -0.0648(2)
H3 H 0.90670 0.73760 -0.05610
C7 C 0.7705(3) 0.6490(2) -0.0638(2)
H4 H 0.71110 0.68970 -0.05510
C8 C 0.8165(3) 0.15681(19) 0.09903(17)
C9 C 0.8026(3) 0.14290(19) 0.18049(16)
C10 C 0.6915(3) 0.1382(2) 0.20851(16)
C11 C 0.6845(3) 0.1281(2) 0.28503(17)
H5 H 0.61010 0.12410 0.30310
C12 C 0.7896(3) 0.1241(3) 0.33420(18)
H6 H 0.78520 0.11820 0.38550
C13 C 0.9003(3) 0.1288(3) 0.30775(19)
H7 H 0.97010 0.12590 0.34110
C14 C 0.9072(3) 0.1378(2) 0.23149(18)
H8 H 0.98210 0.14050 0.21380
Cu1 Cu 0.06729(3) 0.88793(3) 0.16092(2)
O13 O 0.06887(18) 1.00389(15) 0.11134(13)
H9 H 0.00160 1.03550 0.09600
H10 H 0.11600 1.04360 0.13120
O14 O 0.08051(18) 0.79381(15) 0.23961(12)
H11 H 0.07500 0.73880 0.22820
H12 H 0.03030 0.78610 0.27390
O15 O 0.04795(18) 0.81145(15) 0.05775(12)
H13 H 0.07850 0.76470 0.06150
H14 H 0.06960 0.84160 0.02850
N1 N 0.2508(2) 0.88718(17) 0.16426(14)
N2 N 0.8850(2) 0.89251(17) 0.16033(15)
C15 C 0.3000(3) 0.9116(2) 0.10255(16)
H15 H 0.24920 0.92860 0.06030
C16 C 0.4219(3) 0.9126(2) 0.09861(16)
H16 H 0.45130 0.92980 0.05430
C17 C 0.5013(2) 0.88815(19) 0.16037(16)
C18 C 0.4497(3) 0.8606(2) 0.22453(18)
H17 H 0.49850 0.84180 0.26700
C19 C 0.3260(3) 0.8615(2) 0.22426(18)
H18 H 0.29360 0.84360 0.26740
C20 C 0.8110(3) 0.8823(2) 0.09631(19)
H19 H 0.84500 0.87610 0.05160
C21 C 0.6864(3) 0.8806(2) 0.09350(18)
H20 H 0.63920 0.87350 0.04780
C22 C 0.6330(3) 0.8895(2) 0.15956(17)
C23 C 0.7106(3) 0.9018(2) 0.22551(17)
H21 H 0.67930 0.90930 0.27100
C24 C 0.8341(3) 0.9027(2) 0.22359(17)
H22 H 0.88360 0.91070 0.26840
O16 O 0.2139(2) 1.12748(17) 0.17233(14)
H23 H 0.21530 1.13830 0.22450
H24 H 0.29300 1.12250 0.17720
U1B U 0.373770(8) 0.664583(7) -0.036747(5)
S1B S 0.20300(6) 0.61222(5) 0.11989(4)
S2B S 0.44430(6) 0.85303(5) -0.14793(4)
O1B O 0.47204(18) 0.72438(15) 0.02847(12)
O2B O 0.27680(18) 0.60055(16) -0.10043(12)
O3B O 0.40966(18) 0.54149(14) 0.04221(12)
O4B O 0.46621(18) 0.40848(15) 0.08605(13)
O5B O 0.2239(2) 0.66124(14) 0.05069(13)
O6B O 0.30755(19) 0.60966(15) 0.17485(12)
O7B O 0.0960(2) 0.64710(15) 0.14778(14)
O8B O 0.24194(19) 0.78076(16) -0.06433(13)
O9B O 0.11221(19) 0.89019(16) -0.06862(12)
O10B O 0.45630(17) 0.75476(14) -0.13372(11)
O11B O 0.43269(19) 0.90312(15) -0.08083(12)
O12B O 0.53866(18) 0.88212(14) -0.19118(12)
C1B C 0.3868(2) 0.46669(19) 0.06783(16)
C2B C 0.2593(2) 0.4406(2) 0.07572(16)
C3B C 0.1696(2) 0.5005(2) 0.09262(16)
C4B C 0.0527(3) 0.4699(2) 0.09398(18)
H1B H -0.00680 0.50930 0.10530
C5B C 0.0236(3) 0.3815(3) 0.0788(2)
H2B H -0.05540 0.36230 0.07800
C6B C 0.1123(3) 0.3221(2) 0.0648(2)
H3B H 0.09330 0.26240 0.05610
C7B C 0.2295(3) 0.3510(2) 0.0638(2)
H4B H 0.28890 0.31030 0.05510
C8B C 0.1835(3) 0.84319(19) -0.09903(17)
C9B C 0.1974(3) 0.85710(19) -0.18049(16)
C10B C 0.3085(3) 0.8618(2) -0.20851(16)
C11B C 0.3155(3) 0.8719(2) -0.28503(17)
H5B H 0.38990 0.87590 -0.30310
C12B C 0.2104(3) 0.8759(3) -0.33420(18)
H6B H 0.21480 0.88180 -0.38550
C13B C 0.0997(3) 0.8712(3) -0.30775(19)
H7B H 0.02990 0.87410 -0.34110
C14B C 0.0928(3) 0.8622(2) -0.23149(18)
H8B H 0.01790 0.85950 -0.21380
Cu1* Cu 1.06729(3) 0.88793(3) 0.16092(2)
N2* N -0.1150(2) 0.89251(17) 0.16033(15)
#END
