
#######################################################################
#
#                 Cambridge Crystallographic Data Centre
#                                CCDC
#
#######################################################################
#
# If this CIF has been generated from an entry in the Cambridge
# Structural Database, then it will include bibliographic, chemical,
# crystal, experimental, refinement or atomic coordinate data resulting
# from the CCDC's data processing and validation procedures.
#
#######################################################################

data_CSD_CIF_CEMPOB
_audit_creation_date 2013-04-29
_audit_creation_method CSD-ConQuest-V1
_database_code_CSD CEMPOB
_database_code_depnum_ccdc_archive 'CCDC 928494'
_chemical_formula_sum 'C40 H54 N4 O38 S4 U5'
_chemical_formula_moiety
;
(C28 H18 O34 S4 U5 4-)n,4n(H2 O1),2n(C6 H14 N2 2+)
;
_journal_coden_Cambridge 9
_journal_volume 52
_journal_year 2013
_journal_page_first 435
_journal_name_full 'Inorg.Chem. '
loop_
_publ_author_name
"P.Thuery"
_chemical_name_systematic
;
catena-(bis(1,4-Diazoniabicyclo[2.2.2]octane) 
bis(\m~3~-2-sulfobenzoato)-bis(\m~3~-oxo)-bis(\m~2~-2-sulfobenzoato)-bis(\m~2~
-hydroxo)-decaoxo-penta-uranium tetrahydrate)
;
_cell_volume   6172.845
_exptl_crystal_colour 'light yellow'
_exptl_crystal_density_diffrn 2.709
_exptl_crystal_description 'needle'
_diffrn_ambient_temperature 150
#These two values have been output from a single CSD field.
_refine_ls_R_factor_gt 0.0351
_refine_ls_wR_factor_gt 0.0351
_symmetry_cell_setting monoclinic
_symmetry_space_group_name_H-M 'P 21/n'
_symmetry_Int_Tables_number 14
loop_
_symmetry_equiv_pos_site_id
_symmetry_equiv_pos_as_xyz
1 x,y,z
2 1/2-x,1/2+y,1/2-z
3 -x,-y,-z
4 -1/2+x,-1/2-y,-1/2+z
_cell_length_a 13.3465(1)
_cell_length_b 28.5557(3)
_cell_length_c 16.3283(2)
_cell_angle_alpha 90
_cell_angle_beta 97.2807(5)
_cell_angle_gamma 90
_cell_formula_units_Z 4
loop_
_atom_type_symbol
_atom_type_radius_bond
C 0.68
H 0.23
N 0.68
O 0.68
S 1.02
U 1.96
loop_
_atom_site_label
_atom_site_type_symbol
_atom_site_fract_x
_atom_site_fract_y
_atom_site_fract_z
U1 U 0.605596(13) 0.106719(7) 0.305259(11)
U2 U 0.329776(15) 0.122310(7) 0.186153(12)
U3 U 0.362171(15) 0.124516(8) 0.417091(12)
U4 U 0.882582(14) 0.119323(7) 0.422705(12)
U5 U 0.850388(14) 0.118516(7) 0.193661(12)
S1 S 0.4170(1) 0.14133(6) -0.01516(9)
S2 S 0.7929(1) 0.15144(5) 0.61673(8)
S3 S 0.35394(12) 0.13907(6) 0.63672(10)
S4 S 0.86588(12) 0.13746(6) -0.02421(9)
O1 O 0.6007(3) 0.04440(15) 0.3025(2)
O2 O 0.6091(3) 0.16891(16) 0.3067(3)
O3 O 0.3018(3) 0.06128(15) 0.1808(3)
O4 O 0.3512(3) 0.18411(16) 0.1882(3)
O5 O 0.3355(3) 0.06419(15) 0.4287(3)
O6 O 0.3867(3) 0.18580(17) 0.4097(3)
O7 O 0.9029(3) 0.05823(15) 0.4421(2)
O8 O 0.8662(3) 0.18109(15) 0.4100(3)
O9 O 0.8693(3) 0.05734(16) 0.1799(3)
O10 O 0.8328(3) 0.17998(15) 0.2030(3)
O11 O 0.4352(3) 0.11206(15) 0.3017(2)
O12 O 0.7750(3) 0.10676(14) 0.3076(2)
O13 O 0.2402(3) 0.13317(17) 0.2998(3)
H1 H 0.20460 0.10880 0.30040
O14 O 0.9721(3) 0.11787(15) 0.3097(2)
H2 H 1.01990 0.09260 0.30630
O15 O 0.5050(3) 0.10554(15) 0.1595(2)
O16 O 0.6671(3) 0.10470(16) 0.1612(2)
O17 O 0.3407(3) 0.12526(16) 0.0376(3)
O18 O 0.3703(3) 0.15400(18) -0.0963(3)
O19 O 0.4825(3) 0.17685(16) 0.0256(3)
O20 O 0.5430(3) 0.10452(16) 0.4492(2)
O21 O 0.7051(3) 0.10658(16) 0.4506(2)
O22 O 0.8713(3) 0.13330(15) 0.5686(3)
O23 O 0.7240(3) 0.18365(15) 0.5701(3)
O24 O 0.8377(3) 0.16885(16) 0.6962(3)
O25 O 0.2110(3) 0.14008(17) 0.4745(3)
O26 O 0.0495(3) 0.13317(15) 0.4876(2)
O27 O 0.4060(3) 0.13027(17) 0.5645(3)
O28 O 0.3033(4) 0.18290(19) 0.6323(4)
O29 O 0.4236(4) 0.1326(2) 0.7128(3)
O30 O 1.0048(3) 0.13329(19) 0.1413(3)
O31 O 1.1636(3) 0.13308(15) 0.1205(3)
O32 O 0.8099(3) 0.12569(17) 0.0455(3)
O33 O 0.9206(4) 0.18104(17) -0.0112(4)
O34 O 0.7998(4) 0.1349(2) -0.1008(3)
C1 C 0.5808(4) 0.09845(19) 0.1222(3)
C2 C 0.5685(4) 0.07855(19) 0.0378(3)
C3 C 0.4937(4) 0.0922(2) -0.0259(3)
C4 C 0.4819(5) 0.0679(2) -0.0991(4)
H3 H 0.43410 0.07780 -0.14200
C5 C 0.5399(5) 0.0288(2) -0.1101(4)
H4 H 0.52880 0.01180 -0.15900
C6 C 0.6143(5) 0.0150(2) -0.0482(4)
H5 H 0.65330 -0.01130 -0.05550
C7 C 0.6310(4) 0.0402(2) 0.0245(4)
H6 H 0.68360 0.03190 0.06480
C8 C 0.6299(4) 0.10069(19) 0.4897(3)
C9 C 0.6431(4) 0.08494(19) 0.5758(3)
C10 C 0.7187(4) 0.10253(19) 0.6362(3)
C11 C 0.7336(4) 0.0827(2) 0.7145(4)
H7 H 0.78130 0.09540 0.75480
C12 C 0.6780(5) 0.0444(2) 0.7327(4)
H8 H 0.69050 0.03040 0.78440
C13 C 0.6023(5) 0.0261(2) 0.6735(4)
H9 H 0.56460 0.00020 0.68560
C14 C 0.5850(5) 0.0473(2) 0.5972(4)
H10 H 0.53310 0.03610 0.55880
C15 C 0.1415(4) 0.1251(2) 0.5120(3)
C16 C 0.1664(4) 0.0950(2) 0.5877(3)
C17 C 0.2590(4) 0.0958(2) 0.6391(4)
C18 C 0.2782(5) 0.0628(3) 0.7018(4)
H11 H 0.34060 0.06290 0.73430
C19 C 0.2068(6) 0.0301(3) 0.7169(5)
H12 H 0.22090 0.00800 0.75860
C20 C 0.1133(5) 0.0308(3) 0.6686(5)
H13 H 0.06330 0.00970 0.67910
C21 C 0.0948(5) 0.0623(2) 0.6059(4)
H14 H 0.03200 0.06200 0.57400
C22 C 1.0732(4) 0.1213(2) 0.1004(3)
C23 C 1.0491(4) 0.0907(2) 0.0255(4)
C24 C 0.9590(4) 0.0930(2) -0.0293(4)
C25 C 0.9416(5) 0.0620(3) -0.0944(4)
H15 H 0.88150 0.06370 -0.13010
C26 C 1.0128(6) 0.0284(3) -0.1071(5)
H16 H 1.00030 0.00730 -0.15060
C27 C 1.1028(6) 0.0262(3) -0.0546(5)
H17 H 1.15130 0.00390 -0.06300
C28 C 1.1197(5) 0.0572(3) 0.0099(4)
H18 H 1.18070 0.05570 0.04440
O35 O 0.1684(4) 0.0027(2) 0.4343(3)
H19 H 0.18960 0.02810 0.47190
H20 H 0.12540 -0.01040 0.47440
O36 O 0.1163(3) 0.04832(18) 0.2911(3)
H21 H 0.16620 0.03900 0.26850
H22 H 0.11850 0.03010 0.33670
O37 O 0.2558(5) 0.22590(19) 0.0206(4)
H23 H 0.29550 0.23110 0.06600
H24 H 0.22560 0.25530 0.02170
O38 O 0.4755(4) 0.27165(17) 0.0801(3)
H25 H 0.48550 0.24540 0.06430
H26 H 0.51310 0.29140 0.06340
N1 N 0.1553(6) 0.2258(3) 0.2921(5)
H27 H 0.19540 0.19830 0.30290
N2 N 0.0357(6) 0.2931(3) 0.2792(5)
H28 H -0.01250 0.31760 0.27330
C29 C 0.1173(9) 0.2320(4) 0.2107(7)
H29 H 0.07730 0.20510 0.19070
H30 H 0.17220 0.23550 0.17750
C30 C 0.0530(8) 0.2752(4) 0.2040(9)
H31 H 0.08570 0.29900 0.17430
H32 H -0.01130 0.26790 0.17200
C31 C 0.0730(6) 0.2171(3) 0.3479(7)
H33 H 0.09830 0.22280 0.40530
H34 H 0.04760 0.18530 0.34200
C32 C -0.0100(6) 0.2529(4) 0.3163(7)
H35 H -0.05940 0.23820 0.27550
H36 H -0.04450 0.26340 0.36180
C33 C 0.2126(7) 0.2688(4) 0.3210(6)
H37 H 0.25900 0.27750 0.28250
H38 H 0.25080 0.26360 0.37480
C34 C 0.1295(7) 0.3089(3) 0.3259(8)
H39 H 0.11980 0.31460 0.38290
H40 H 0.15150 0.33790 0.30270
N3 N 0.1646(4) 0.20699(18) -0.1292(3)
H41 H 0.20840 0.20570 -0.07840
N4 N 0.0439(4) 0.20883(18) -0.2582(3)
H42 H 0.00420 0.21390 -0.30180
C35 C 0.2158(4) 0.2279(2) -0.1958(4)
H43 H 0.26930 0.20730 -0.20910
H44 H 0.24550 0.25770 -0.17790
C36 C 0.1372(5) 0.2347(3) -0.2719(4)
H45 H 0.12230 0.26770 -0.28010
H46 H 0.16310 0.22280 -0.32070
C37 C 0.0732(4) 0.2348(2) -0.1145(4)
H47 H 0.09150 0.26740 -0.10440
H48 H 0.04540 0.22280 -0.06660
C38 C -0.0049(4) 0.2307(2) -0.1914(4)
H49 H -0.06140 0.21170 -0.17920
H50 H -0.03010 0.26150 -0.20840
C39 C 0.1324(5) 0.1577(2) -0.1521(5)
H51 H 0.09280 0.14500 -0.11150
H52 H 0.19140 0.13800 -0.15370
C40 C 0.0699(5) 0.1587(2) -0.2363(5)
H53 H 0.10800 0.14520 -0.27730
H54 H 0.00870 0.14060 -0.23520
U2* U 1.329776(15) 0.122310(7) 0.186153(12)
U4* U -0.117418(14) 0.119323(7) 0.422705(12)
O26* O 1.0495(3) 0.13317(15) 0.4876(2)
O31* O 0.1636(3) 0.13308(15) 0.1205(3)
#END
