
#######################################################################
#
#                 Cambridge Crystallographic Data Centre
#                                CCDC
#
#######################################################################
#
# If this CIF has been generated from an entry in the Cambridge
# Structural Database, then it will include bibliographic, chemical,
# crystal, experimental, refinement or atomic coordinate data resulting
# from the CCDC's data processing and validation procedures.
#
#######################################################################

data_CSD_CIF_CEMPUH
_audit_creation_date 2013-04-29
_audit_creation_method CSD-ConQuest-V1
_database_code_CSD CEMPUH
_database_code_depnum_ccdc_archive 'CCDC 928493'
_chemical_formula_sum 'C22 H32 N2 O18 S2 U3'
_chemical_formula_moiety
;
(C14 H8 O18 S2 U3 2-)n,2n(C4 H12 N1 1+)
;
_journal_coden_Cambridge 9
_journal_volume 52
_journal_year 2013
_journal_page_first 435
_journal_name_full 'Inorg.Chem. '
loop_
_publ_author_name
"P.Thuery"
_chemical_name_systematic
;
catena-(bis(tetramethylammonium) 
bis(\m~3~-2-sulfobenzoato)-bis(\m~3~-oxo)-hexaoxo-tri-uranium)
;
_cell_volume    844.003
_exptl_crystal_colour 'light yellow'
_exptl_crystal_density_diffrn 2.736
_exptl_crystal_description 'needle'
_diffrn_ambient_temperature 150
#These two values have been output from a single CSD field.
_refine_ls_R_factor_gt 0.0349
_refine_ls_wR_factor_gt 0.0349
_symmetry_cell_setting triclinic
_symmetry_space_group_name_H-M 'P -1'
_symmetry_Int_Tables_number 2
loop_
_symmetry_equiv_pos_site_id
_symmetry_equiv_pos_as_xyz
1 x,y,z
2 -x,-y,-z
_cell_length_a 7.0444(5)
_cell_length_b 10.6214(10)
_cell_length_c 11.5329(11)
_cell_angle_alpha 83.349(4)
_cell_angle_beta 87.808(5)
_cell_angle_gamma 80.027(5)
_cell_formula_units_Z 1
loop_
_atom_type_symbol
_atom_type_radius_bond
C 0.68
H 0.23
N 0.68
O 0.68
S 1.02
U 1.96
loop_
_atom_site_label
_atom_site_type_symbol
_atom_site_fract_x
_atom_site_fract_y
_atom_site_fract_z
U1 U 0.00000 0.00000 0.00000
U2 U 0.47205(3) 0.08200(2) 0.131940(19)
S1 S 0.2348(2) 0.30061(15) 0.32788(14)
O1 O 0.0461(6) -0.1497(5) 0.0897(4)
O2 O 0.5016(6) -0.0641(4) 0.2278(4)
O3 O 0.4500(6) 0.2363(4) 0.0494(4)
O4 O 0.1121(5) 0.1047(4) 0.1734(4)
O5 O -0.1941(5) 0.1041(5) 0.1776(4)
O6 O 0.3920(5) 0.1960(4) 0.3009(4)
O7 O 0.2978(6) 0.3793(5) 0.4086(5)
O8 O 0.1445(6) 0.3714(5) 0.2244(4)
O9 O 0.3127(6) 0.0071(4) -0.0030(4)
C1 C -0.0465(7) 0.1219(6) 0.2295(5)
C2 C -0.0627(7) 0.1519(6) 0.3525(5)
C3 C 0.0562(8) 0.2198(6) 0.4056(5)
C4 C 0.0291(9) 0.2357(6) 0.5224(6)
H1 H 0.10680 0.28260 0.55700
C5 C -0.1111(9) 0.1834(6) 0.5891(6)
H2 H -0.12540 0.19310 0.66820
C6 C -0.2278(9) 0.1175(7) 0.5379(6)
H3 H -0.32300 0.08260 0.58240
C7 C -0.2065(8) 0.1016(6) 0.4200(5)
H4 H -0.28840 0.05720 0.38590
N1 N 0.6545(7) 0.5638(5) 0.2202(5)
C8 C 0.7899(9) 0.6556(7) 0.1873(6)
H5 H 0.77180 0.69040 0.10710
H6 H 0.92020 0.61150 0.19740
H7 H 0.76530 0.72420 0.23610
C9 C 0.686(1) 0.4648(7) 0.1365(7)
H8 H 0.59880 0.40500 0.15540
H9 H 0.81640 0.41970 0.14170
H10 H 0.66320 0.50600 0.05850
C10 C 0.4508(8) 0.6322(7) 0.2113(7)
H11 H 0.36510 0.57250 0.23520
H12 H 0.42560 0.66790 0.13190
H13 H 0.43090 0.70000 0.26090
C11 C 0.6924(10) 0.5013(7) 0.3418(7)
H14 H 0.65290 0.56340 0.39600
H15 H 0.82760 0.46850 0.34980
H16 H 0.62090 0.43180 0.35770
U2A U -0.47205(3) -0.08200(2) -0.131940(19)
S1A S -0.2348(2) -0.30061(15) -0.32788(14)
O1A O -0.0461(6) 0.1497(5) -0.0897(4)
O2A O -0.5016(6) 0.0641(4) -0.2278(4)
O3A O -0.4500(6) -0.2363(4) -0.0494(4)
O4A O -0.1121(5) -0.1047(4) -0.1734(4)
O5A O 0.1941(5) -0.1041(5) -0.1776(4)
O6A O -0.3920(5) -0.1960(4) -0.3009(4)
O7A O -0.2978(6) -0.3793(5) -0.4086(5)
O8A O -0.1445(6) -0.3714(5) -0.2244(4)
O9A O -0.3127(6) -0.0071(4) 0.0030(4)
C1A C 0.0465(7) -0.1219(6) -0.2295(5)
C2A C 0.0627(7) -0.1519(6) -0.3525(5)
C3A C -0.0562(8) -0.2198(6) -0.4056(5)
C4A C -0.0291(9) -0.2357(6) -0.5224(6)
H1A H -0.10680 -0.28260 -0.55700
C5A C 0.1111(9) -0.1834(6) -0.5891(6)
H2A H 0.12540 -0.19310 -0.66820
C6A C 0.2278(9) -0.1175(7) -0.5379(6)
H3A H 0.32300 -0.08260 -0.58240
C7A C 0.2065(8) -0.1016(6) -0.4200(5)
H4A H 0.28840 -0.05720 -0.38590
U2* U -0.52795(3) 0.08200(2) 0.131940(19)
U2A* U 0.52795(3) -0.08200(2) -0.131940(19)
O5* O 0.8059(5) 0.1041(5) 0.1776(4)
O5A* O -0.8059(5) -0.1041(5) -0.1776(4)
O9* O -0.6873(6) 0.0071(4) -0.0030(4)
O9A* O 0.6873(6) -0.0071(4) 0.0030(4)
#END
