
#######################################################################
#
#                 Cambridge Crystallographic Data Centre
#                                CCDC
#
#######################################################################
#
# If this CIF has been generated from an entry in the Cambridge
# Structural Database, then it will include bibliographic, chemical,
# crystal, experimental, refinement or atomic coordinate data resulting
# from the CCDC's data processing and validation procedures.
#
#######################################################################

data_CSD_CIF_CEMQES
_audit_creation_date 2013-04-29
_audit_creation_method CSD-ConQuest-V1
_database_code_CSD CEMQES
_database_code_depnum_ccdc_archive 'CCDC 928491'
_chemical_formula_sum 'C41 H40 N4 O24 S3 U2'
_chemical_formula_moiety
;
(C21 H14 O20 S3 U2 2-)n,2n(C10 H9 N2 1+),4n(H2 O1)
;
_journal_coden_Cambridge 9
_journal_volume 52
_journal_year 2013
_journal_page_first 435
_journal_name_full 'Inorg.Chem. '
loop_
_publ_author_name
"P.Thuery"
_chemical_name_systematic
;
catena-(bis(4,4'-bipyridinium) 
tris(\m~2~-2-sulfobenzoato)-aqua-tetraoxo-di-uranium tetrahydrate)
;
_cell_volume   4880.586
_exptl_crystal_colour 'light yellow'
_exptl_crystal_density_diffrn 2.103
_exptl_crystal_description 'parallelepiped'
_diffrn_ambient_temperature 150
#These two values have been output from a single CSD field.
_refine_ls_R_factor_gt 0.0767
_refine_ls_wR_factor_gt 0.0767
_symmetry_cell_setting monoclinic
_symmetry_space_group_name_H-M 'P 21/n'
_symmetry_Int_Tables_number 14
loop_
_symmetry_equiv_pos_site_id
_symmetry_equiv_pos_as_xyz
1 x,y,z
2 1/2-x,1/2+y,1/2-z
3 -x,-y,-z
4 -1/2+x,-1/2-y,-1/2+z
_cell_length_a 10.743(4)
_cell_length_b 32.178(2)
_cell_length_c 14.3508(10)
_cell_angle_alpha 90
_cell_angle_beta 100.324(4)
_cell_angle_gamma 90
_cell_formula_units_Z 4
loop_
_atom_type_symbol
_atom_type_radius_bond
C 0.68
H 0.23
N 0.68
O 0.68
S 1.02
U 1.96
loop_
_atom_site_label
_atom_site_type_symbol
_atom_site_fract_x
_atom_site_fract_y
_atom_site_fract_z
U1 U 0.60243(4) 0.386787(16) 0.26569(4)
U2 U 0.12469(4) 0.406677(16) 0.04868(4)
S1 S 0.4528(3) 0.38704(11) 0.4752(3)
S2 S 0.9257(3) 0.38869(11) 0.3953(3)
S3 S 0.2781(3) 0.39005(11) -0.1535(3)
O1 O 0.5863(7) 0.3341(3) 0.2545(6)
O2 O 0.6207(8) 0.4396(3) 0.2776(7)
O3 O 0.1601(9) 0.3541(3) 0.0637(8)
O4 O 0.0971(8) 0.4595(3) 0.0375(6)
O5 O 0.3844(8) 0.3930(3) 0.2594(6)
O6 O 0.2008(8) 0.4179(3) 0.2083(6)
O7 O 0.5599(8) 0.3857(3) 0.4239(7)
O8 O 0.3607(9) 0.3551(3) 0.4462(7)
O9 O 0.5029(9) 0.3888(3) 0.5764(7)
O10 O 0.7799(8) 0.3806(3) 0.1843(7)
O11 O 0.9444(8) 0.3941(3) 0.1171(7)
O12 O 0.7910(8) 0.3737(3) 0.3768(7)
O13 O 1.0071(8) 0.3606(3) 0.3531(7)
O14 O 0.9690(9) 0.3954(3) 0.4956(8)
O15 O 0.5376(8) 0.3970(3) 0.0982(7)
O16 O 0.3421(8) 0.4198(3) 0.0614(7)
O17 O 0.1770(8) 0.4049(3) -0.1061(7)
O18 O 0.3343(7) 0.3520(3) -0.1137(7)
O19 O 0.2320(9) 0.3868(3) -0.2551(7)
O20 O -0.0606(8) 0.3910(3) -0.0723(7)
H1 H -0.12850 0.37870 -0.06280
H2 H -0.06030 0.39180 -0.13620
C1 C 0.2966(11) 0.4168(4) 0.2726(10)
C2 C 0.3059(11) 0.4448(4) 0.3566(10)
C3 C 0.3776(11) 0.4373(4) 0.4472(10)
C4 C 0.3852(13) 0.4652(4) 0.5187(11)
H3 H 0.43030 0.45890 0.57860
C5 C 0.3261(13) 0.5029(5) 0.5022(13)
H4 H 0.33390 0.52280 0.55000
C6 C 0.2560(13) 0.5111(5) 0.4156(13)
H5 H 0.21420 0.53650 0.40590
C7 C 0.2442(12) 0.4826(4) 0.3403(11)
H6 H 0.19650 0.48900 0.28140
C8 C 0.8759(11) 0.4019(3) 0.1759(9)
C9 C 0.9032(11) 0.4404(3) 0.236(1)
C10 C 0.9200(11) 0.4371(4) 0.3376(11)
C11 C 0.9302(11) 0.4731(4) 0.3912(11)
H7 H 0.93980 0.47160 0.45680
C12 C 0.9258(12) 0.5124(4) 0.3452(12)
H8 H 0.92740 0.53680 0.38020
C13 C 0.9190(11) 0.5142(4) 0.2463(11)
H9 H 0.92170 0.53950 0.21550
C14 C 0.9088(11) 0.4785(5) 0.1980(11)
H10 H 0.90520 0.48010 0.13290
C15 C 0.4495(12) 0.4145(4) 0.0442(10)
C16 C 0.4791(12) 0.4328(4) -0.0456(11)
C17 C 0.4021(12) 0.4287(4) -0.1334(10)
C18 C 0.4305(14) 0.4508(5) -0.2111(11)
H11 H 0.37950 0.44790 -0.27030
C19 C 0.5282(14) 0.4757(5) -0.2006(12)
H12 H 0.54090 0.49210 -0.25140
C20 C 0.6127(14) 0.4782(4) -0.1170(13)
H13 H 0.68760 0.49320 -0.11290
C21 C 0.5831(13) 0.4580(4) -0.0395(13)
H14 H 0.63530 0.46160 0.01900
O21 O -0.2784(9) 0.3595(4) -0.0342(7)
O22 O -0.0383(10) 0.3742(3) -0.2526(7)
O23 O 0.7715(9) 0.3725(3) 0.5997(7)
H15 H 0.68550 0.37120 0.58140
H16 H 0.78850 0.39700 0.57880
O24 O 0.5537(13) 0.3566(4) 0.7767(10)
N1 N 0.1527(10) 0.2512(4) -0.1193(9)
H17 H 0.19790 0.25190 -0.16300
N2 N -0.2013(9) 0.2489(3) 0.2444(8)
C22 C 0.1593(14) 0.2182(4) -0.0624(12)
H18 H 0.21110 0.19590 -0.07090
C23 C 0.0898(12) 0.2174(4) 0.008(1)
H19 H 0.09670 0.19460 0.04860
C24 C 0.0090(11) 0.2496(4) 0.0210(9)
C25 C 0.0050(14) 0.2840(4) -0.0412(10)
H20 H -0.04630 0.30680 -0.03530
C26 C 0.0782(13) 0.2830(4) -0.1100(11)
H21 H 0.07540 0.30540 -0.15140
C27 C -0.0671(12) 0.2495(4) 0.0996(9)
C28 C -0.0825(12) 0.2856(4) 0.1468(10)
H22 H -0.04850 0.31060 0.13050
C29 C -0.1528(13) 0.2834(4) 0.2221(11)
H23 H -0.16400 0.30730 0.25590
C30 C -0.1853(12) 0.2135(4) 0.1983(11)
H24 H -0.21850 0.18880 0.21680
C31 C -0.1204(12) 0.2135(4) 0.1241(10)
H25 H -0.11280 0.18910 0.09080
N3 N 1.0372(10) 0.2593(4) 0.4813(9)
H26 H 1.08200 0.26200 0.43770
N4 N 0.6762(10) 0.2343(4) 0.8379(8)
C32 C 1.0285(12) 0.2907(4) 0.5400(11)
H27 H 1.06770 0.31590 0.53180
C33 C 0.9615(13) 0.2862(4) 0.6131(10)
H28 H 0.95740 0.30790 0.65530
C34 C 0.8999(12) 0.2485(4) 0.6228(10)
C35 C 0.9070(13) 0.2174(4) 0.5593(10)
H29 H 0.86550 0.19220 0.56260
C36 C 0.9795(12) 0.2249(4) 0.4891(11)
H30 H 0.98610 0.20390 0.44580
C37 C 0.819(1) 0.2436(4) 0.6983(9)
C38 C 0.7693(12) 0.2774(4) 0.7357(11)
H31 H 0.78320 0.30360 0.71230
C39 C 0.6978(15) 0.2741(5) 0.8083(12)
H32 H 0.66680 0.29740 0.83490
C40 C 0.7195(12) 0.2010(4) 0.8001(11)
H33 H 0.69880 0.17470 0.81930
C41 C 0.7948(12) 0.2050(4) 0.7328(11)
H34 H 0.82980 0.18140 0.71030
U2* U 1.12469(4) 0.406677(16) 0.04868(4)
O11* O -0.0556(8) 0.3941(3) 0.1171(7)
#END
