
#######################################################################
#
#                 Cambridge Crystallographic Data Centre
#                                CCDC
#
#######################################################################
#
# If this CIF has been generated from an entry in the Cambridge
# Structural Database, then it will include bibliographic, chemical,
# crystal, experimental, refinement or atomic coordinate data resulting
# from the CCDC's data processing and validation procedures.
#
#######################################################################

data_CSD_CIF_CENQAP
_audit_creation_date 2013-04-29
_audit_creation_method CSD-ConQuest-V1
_database_code_CSD CENQAP
_database_code_depnum_ccdc_archive 'CCDC 927218'
_chemical_formula_sum 'C205 H280 N32 O46 Zn4'
_chemical_formula_moiety
;
(C117 H72 N3 O18 Zn4 1-)n,n(C4 H12 N1 1+),28n(C3 H7 N1 O1)
;
_journal_coden_Cambridge 1147
_journal_volume 13
_journal_year 2013
_journal_page_first 6
_journal_name_full 'Cryst.Growth Des. '
loop_
_publ_author_name
"Yan-Ping He"
"Yan-Xi Tan"
"Jian Zhang"
_chemical_name_systematic
;
catena-(Tetramethylammonium 
bis(\m~6~-tris(4'-carboxylatobiphenyl-4-yl)amine)-(\m~5~-tris(4'-carboxylatobi
phenyl-4-yl)amine)-tetra-zinc dimethylformamide solvate)
;
_chemical_name_common
;
FIR-4
;
_cell_volume  21745.073
_exptl_crystal_colour 'yellow'
_exptl_crystal_density_diffrn 0.632
_exptl_crystal_description 'prism'
_diffrn_ambient_temperature 293
_refine_special_details
;
The SQUEEZE/PLATON program was used to model the disordered cation and 
solvent molecules.
;
#These two values have been output from a single CSD field.
_refine_ls_R_factor_gt 0.0681
_refine_ls_wR_factor_gt 0.0681
_symmetry_cell_setting orthorhombic
_symmetry_space_group_name_H-M 'P n a 21'
_symmetry_Int_Tables_number 33
loop_
_symmetry_equiv_pos_site_id
_symmetry_equiv_pos_as_xyz
1 x,y,z
2 -x,-y,1/2+z
3 1/2+x,1/2-y,z
4 1/2-x,1/2+y,1/2+z
_cell_length_a 30.1777(17)
_cell_length_b 21.4903(16)
_cell_length_c 33.5299(18)
_cell_angle_alpha 90
_cell_angle_beta 90
_cell_angle_gamma 90
_cell_formula_units_Z 2
loop_
_atom_type_symbol
_atom_type_radius_bond
C 0.68
H 0.23
N 0.68
O 0.68
Zn 1.22
loop_
_atom_site_label
_atom_site_type_symbol
_atom_site_fract_x
_atom_site_fract_y
_atom_site_fract_z
Zn1 Zn -0.10259(4) 0.27502(6) 0.02990(4)
Zn2 Zn 0.00923(4) 0.21363(6) 0.05138(4)
Zn3 Zn -0.12944(4) -0.23172(6) -0.42736(4)
Zn4 Zn -0.23681(3) -0.22560(6) -0.46907(4)
O1 O -0.2400(2) 0.6993(3) -0.4382(2)
O2 O -0.1833(2) 0.7341(3) -0.4001(2)
O3 O -0.04151(19) 0.2731(3) 0.00971(16)
O4 O 0.0056(2) 0.1961(3) -0.0054(2)
O5 O -0.3618(2) -0.2385(3) -0.51800(18)
O6 O -0.2954(2) -0.2189(4) -0.4889(2)
O7 O 0.0211(2) -0.7078(3) -0.9231(2)
O8 O 0.0924(2) -0.6947(3) -0.9103(2)
O9 O -0.1047(2) 0.1963(4) -0.9448(3)
O10 O -0.0377(2) 0.1734(3) -0.9185(2)
O11 O 0.1061(2) 0.1750(4) -0.8847(2)
O12 O 0.0610(2) 0.1624(4) -0.9381(2)
O13 O -0.1292(2) -0.2654(3) -0.48317(18)
O14 O -0.1972(2) -0.2499(4) -0.5114(2)
O15 O -0.2383(2) -0.1443(3) -0.44243(19)
O16 O -0.1640(2) -0.1488(3) -0.45051(19)
N1 N -0.1889(3) -0.2272(5) -0.7947(3)
N2 N -0.1501(2) 0.2750(4) -0.2923(2)
N3 N -0.0201(2) -0.2671(4) -0.7858(2)
C1 C -0.1796(3) -0.2840(6) -0.8128(4)
C2 C -0.1624(3) 0.3347(5) -0.3055(3)
C3 C -0.1575(3) 0.2223(5) -0.3155(3)
C4 C -0.1284(3) 0.2692(6) -0.2540(3)
C5 C -0.1984(3) 0.2113(5) -0.3319(3)
H1 H -0.22080 0.24010 -0.32700
C6 C -0.0093(3) -0.2080(6) -0.8016(3)
C7 C -0.1740(4) -0.1694(5) -0.8128(3)
C8 C -0.1857(3) 0.4510(5) -0.3372(4)
C9 C -0.0230(4) 0.2325(6) -0.0155(3)
C10 C -0.1956(3) 0.5122(5) -0.3556(4)
C11 C 0.0056(3) -0.1420(6) -0.8584(3)
H2 H 0.00640 -0.13790 -0.88600
C12 C -0.0091(4) -0.3221(5) -0.8060(3)
C13 C -0.0331(3) 0.1933(6) -0.0865(4)
H3 H -0.01930 0.15690 -0.07790
C14 C -0.1445(3) -0.0604(6) -0.8469(3)
C15 C 0.0415(4) -0.6136(5) -0.8938(3)
C16 C -0.0970(4) -0.2772(5) -0.6300(3)
C17 C -0.0850(3) 0.2600(8) -0.1802(4)
C18 C 0.0240(4) -0.4985(5) -0.8606(3)
C19 C -0.2688(4) -0.2153(6) -0.6406(3)
C20 C -0.1285(3) 0.2112(6) -0.2341(3)
H4 H -0.14330 0.17700 -0.24470
C21 C -0.1606(3) -0.2704(6) -0.5867(3)
H5 H -0.19120 -0.27120 -0.58310
C22 C -0.1303(6) -0.5613(12) -0.9166(10)
C23 C -0.2086(3) 0.6301(6) -0.3911(3)
C24 C -0.3234(4) -0.2513(6) -0.5920(4)
H6 H -0.34870 -0.27490 -0.58720
C25 C -0.1840(4) 0.5691(6) -0.3348(3)
H7 H -0.17210 0.56730 -0.30930
C26 C -0.2081(4) -0.2249(7) -0.7555(4)
C27 C -0.1798(3) 0.3796(5) -0.2811(3)
H8 H -0.18470 0.37150 -0.25420
C28 C -0.2507(3) -0.2183(7) -0.6796(4)
C29 C -0.0660(4) 0.2473(7) -0.1387(3)
C30 C -0.0068(3) -0.1975(6) -0.8418(3)
H9 H -0.01400 -0.23010 -0.85890
C31 C 0.0337(4) 0.0377(6) -0.9087(3)
H10 H 0.02600 0.04730 -0.93480
C32 C -0.0374(3) -0.2688(5) -0.7458(4)
C33 C -0.2302(4) -0.0287(7) -0.4045(4)
H11 H -0.25830 -0.04650 -0.40420
C34 C -0.0887(3) -0.2756(6) -0.5578(3)
H12 H -0.07010 -0.27680 -0.53570
C35 C -0.0778(3) -0.2751(6) -0.6704(4)
C36 C -0.3042(4) -0.2206(6) -0.5618(3)
C37 C 0.0112(4) -0.4345(5) -0.8422(3)
C38 C -0.1485(4) 0.0305(6) -0.4054(4)
H13 H -0.12100 0.04990 -0.40700
C39 C 0.0228(3) -0.0151(6) -0.8935(3)
H14 H 0.00990 -0.04470 -0.91010
C40 C -0.1959(4) -0.0599(6) -0.4243(4)
C41 C 0.0534(4) -0.6762(6) -0.9100(3)
C42 C -0.1300(4) 0.0007(6) -0.8669(4)
C43 C -0.1747(3) 0.1154(5) -0.3618(3)
C44 C -0.2219(4) 0.5770(6) -0.4090(3)
H15 H -0.23650 0.57960 -0.43330
C45 C 0.0318(3) -0.3319(5) -0.8214(3)
H16 H 0.05330 -0.30110 -0.81950
C46 C 0.0296(3) -0.0307(5) -0.8518(4)
C47 C -0.0107(3) -0.5382(7) -0.8782(4)
H17 H -0.04010 -0.52540 -0.87830
C48 C -0.1908(3) 0.6256(6) -0.3530(4)
H18 H -0.18320 0.66180 -0.33950
C49 C -0.0406(4) -0.3675(6) -0.8079(3)
H19 H -0.06840 -0.36070 -0.79690
C50 C -0.1406(4) 0.0896(6) -0.9069(4)
H20 H -0.15920 0.11480 -0.92190
C51 C -0.2021(4) -0.1212(6) -0.8174(3)
H21 H -0.23130 -0.12550 -0.80870
C52 C -0.1052(4) 0.2071(6) -0.1976(4)
H22 H -0.10310 0.16880 -0.18470
C53 C -0.1321(3) 0.1275(6) -0.3442(3)
H23 H -0.10930 0.09900 -0.34760
C54 C 0.0036(3) -0.1585(5) -0.7781(4)
H24 H 0.00400 -0.16350 -0.75050
C55 C -0.1304(4) -0.1642(5) -0.8257(3)
H25 H -0.11070 -0.19710 -0.82250
C56 C -0.2084(3) 0.1599(6) -0.3552(3)
H26 H -0.23650 0.15480 -0.36610
C57 C -0.0466(4) 0.1966(7) -0.1250(4)
H27 H -0.04220 0.16290 -0.14190
C58 C 0.0168(3) -0.0922(5) -0.8347(4)
C59 C -0.3180(5) -0.2267(6) -0.5175(4)
C60 C -0.1987(4) -0.1231(6) -0.4416(3)
C61 C -0.2110(4) 0.6919(6) -0.4103(3)
C62 C -0.0869(4) 0.3146(6) -0.2033(4)
H28 H -0.07330 0.34980 -0.19280
C63 C -0.1825(4) 0.0584(5) -0.3850(3)
C64 C 0.0656(3) 0.0684(6) -0.8450(3)
H29 H 0.08060 0.09810 -0.82990
C65 C -0.1465(4) -0.4512(7) -0.8773(6)
C66 C -0.1707(3) 0.4028(7) -0.3623(3)
H30 H -0.16890 0.40950 -0.38970
C67 C 0.0527(4) 0.0147(6) -0.8273(3)
H31 H 0.05840 0.00730 -0.80040
C68 C -0.1245(4) 0.1818(6) -0.3218(3)
H32 H -0.09660 0.18950 -0.31130
C69 C -0.1571(4) 0.0367(7) -0.8887(4)
H33 H -0.18690 0.02620 -0.89150
C70 C -0.1706(3) -0.3414(7) -0.8756(4)
H34 H -0.17220 -0.34120 -0.90330
C71 C -0.1667(4) -0.3359(7) -0.7932(4)
H35 H -0.16360 -0.33410 -0.76560
C72 C -0.3061(4) -0.2484(7) -0.6305(4)
H36 H -0.32070 -0.27010 -0.65060
C73 C -0.2237(3) 0.0280(7) -0.3852(4)
H37 H -0.24750 0.04640 -0.37210
C74 C -0.1333(4) -0.2684(5) -0.5545(3)
C75 C -0.1899(3) 0.4364(5) -0.2969(3)
H38 H -0.20020 0.46720 -0.27970
C76 C 0.0657(3) -0.5211(7) -0.8637(3)
H39 H 0.08930 -0.49680 -0.85510
C77 C -0.2562(3) -0.2666(6) -0.7065(4)
H40 H -0.27400 -0.29950 -0.69840
C78 C -0.2149(3) 0.5201(6) -0.3930(3)
H41 H -0.22320 0.48510 -0.40750
C79 C -0.1063(4) 0.3204(6) -0.2385(3)
H42 H -0.10520 0.35770 -0.25250
C80 C -0.1424(4) -0.2712(6) -0.6255(3)
H43 H -0.16070 -0.26780 -0.64770
C81 C -0.0861(4) 0.0225(6) -0.8595(4)
H44 H -0.06800 0.00010 -0.84220
C82 C -0.0732(4) -0.2330(6) -0.7364(3)
H45 H -0.08560 -0.20750 -0.75590
C83 C -0.0913(4) -0.2339(6) -0.6993(4)
H46 H -0.11360 -0.20550 -0.69320
C84 C -0.1891(4) -0.0660(6) -0.8345(3)
H47 H -0.20900 -0.03340 -0.83790
C85 C 0.0737(3) -0.5775(5) -0.8790(4)
H48 H 0.10270 -0.59220 -0.87930
C86 C -0.0265(3) -0.3103(6) -0.7182(4)
H49 H -0.00540 -0.33990 -0.72500
C87 C -0.1556(4) -0.0287(6) -0.4245(3)
H50 H -0.13180 -0.04710 -0.43770
C88 C -0.2384(3) -0.2705(6) -0.7432(4)
H51 H -0.24600 -0.30300 -0.76020
C89 C -0.1579(3) -0.3923(7) -0.8127(5)
H52 H -0.15160 -0.42790 -0.79800
C90 C -0.0384(3) 0.2391(8) -0.0606(3)
C91 C 0.0006(4) -0.5919(5) -0.8937(3)
H53 H -0.02150 -0.61610 -0.90540
C92 C -0.0707(4) 0.0721(6) -0.8760(4)
H54 H -0.04220 0.08590 -0.87000
C93 C -0.1589(3) 0.3472(6) -0.3470(4)
H55 H -0.14830 0.31640 -0.36390
C94 C -0.0582(3) 0.2978(6) -0.0737(4)
H56 H -0.06100 0.33220 -0.05710
C95 C -0.1802(3) -0.2884(6) -0.8535(5)
H57 H -0.18760 -0.25260 -0.86760
C96 C -0.0969(4) 0.1049(5) -0.9028(3)
C97 C -0.1587(3) -0.3948(7) -0.8548(5)
C98 C 0.0155(3) -0.1032(6) -0.7936(3)
H58 H 0.02330 -0.07110 -0.77640
C99 C -0.1171(3) -0.1104(6) -0.8430(3)
H59 H -0.08820 -0.10750 -0.85250
C100 C -0.1500(4) -0.5057(9) -0.8586(5)
H60 H -0.15970 -0.50570 -0.83220
C101 C -0.1992(4) -0.1727(6) -0.7304(4)
H61 H -0.18040 -0.14080 -0.73860
C102 C -0.2193(4) -0.1711(6) -0.6937(4)
H62 H -0.21260 -0.13820 -0.67670
C103 C 0.0413(4) -0.3878(7) -0.8398(3)
H63 H 0.06930 -0.39370 -0.85080
C104 C -0.1563(6) -0.2590(5) -0.5128(3)
C105 C -0.1219(6) -0.508(2) -0.9321(7)
H64 H -0.10720 -0.50960 -0.95640
C106 C -0.2675(4) -0.1843(6) -0.5723(4)
H65 H -0.25390 -0.16070 -0.55250
C107 C -0.0316(4) -0.4208(6) -0.8252(3)
H66 H -0.05370 -0.45090 -0.82650
C108 C -0.0430(4) -0.3129(6) -0.6824(4)
H67 H -0.03110 -0.34100 -0.66430
C109 C -0.0720(4) 0.2977(6) -0.1122(4)
H68 H -0.08630 0.33300 -0.12170
C110 C -0.1321(8) -0.4402(11) -0.9170(6)
H69 H -0.12940 -0.40260 -0.93050
C111 C 0.0573(4) 0.0808(7) -0.8854(4)
C112 C -0.2510(4) -0.1817(6) -0.6087(4)
H70 H -0.22660 -0.15640 -0.61330
C113 C -0.0726(3) -0.2809(6) -0.5965(4)
H71 H -0.04230 -0.28760 -0.59950
C114 C 0.0747(5) 0.1475(6) -0.9051(6)
C115 C -0.0783(5) 0.1665(6) -0.9250(4)
C116 C -0.1396(5) -0.5651(9) -0.8770(6)
H72 H -0.13930 -0.60240 -0.86300
O17 O -0.1093(3) -0.6152(5) -0.9767(4)
O18 O -0.1133(5) -0.6670(6) -0.9213(3)
C117 C -0.1131(8) -0.6339(15) -0.9424(4)
Zn1* Zn -0.10259(4) -0.72498(6) -0.97010(4)
Zn1** Zn -0.10259(4) 0.27502(6) -0.97010(4)
Zn1C Zn -0.39741(4) -0.22498(6) -0.47010(4)
Zn2* Zn 0.00923(4) -0.78637(6) -0.94862(4)
Zn2** Zn 0.00923(4) 0.21363(6) -0.94862(4)
Zn3* Zn -0.12944(4) 0.76828(6) -0.42736(4)
Zn3A Zn 0.12944(4) -0.76828(6) -0.92736(4)
Zn3A* Zn 0.12944(4) 0.23172(6) -0.92736(4)
Zn4* Zn -0.23681(3) 0.77440(6) -0.46907(4)
O1* O -0.2400(2) -0.3007(3) -0.4382(2)
O2* O -0.1833(2) -0.2659(3) -0.4001(2)
O5C O -0.1382(2) 0.2615(3) -0.01800(18)
O7* O 0.0211(2) 0.2922(3) 0.0769(2)
O8A O -0.0924(2) -0.3053(3) -0.4103(2)
O9* O -0.1047(2) 0.1963(4) 0.0552(3)
O10* O -0.0377(2) 0.1734(3) 0.0815(2)
O11A O -0.1061(2) -0.1750(4) -0.3847(2)
O12* O 0.0610(2) 0.1624(4) 0.0619(2)
O12A O -0.0610(2) -0.1624(4) -0.4381(2)
O17* O -0.1093(3) 0.3848(5) 0.0233(4)
O18* O -0.1133(5) 0.3330(6) 0.0787(3)
#END
