
#######################################################################
#
#                 Cambridge Crystallographic Data Centre
#                                CCDC
#
#######################################################################
#
# If this CIF has been generated from an entry in the Cambridge
# Structural Database, then it will include bibliographic, chemical,
# crystal, experimental, refinement or atomic coordinate data resulting
# from the CCDC's data processing and validation procedures.
#
#######################################################################

data_CSD_CIF_CEPKEQ
_audit_creation_date 2018-02-13
_audit_creation_method CSD-ConQuest-V1
_database_code_CSD CEPKEQ
_database_code_depnum_ccdc_archive 'CCDC 1573130'
_chemical_formula_sum 'C54 H44 N6 Ni1 O20 U2'
_chemical_formula_moiety
;
C30 H24 N6 Ni1 2+,n(C24 H12 O16 U2 2-),4(H2 O1)
;
_journal_coden_Cambridge 1290
_journal_year 2017
_journal_page_first 5451
_journal_name_full 'Eur.J.Inorg.Chem. '
loop_
_publ_author_name
"P.Thuery"
"J.Harrowfield"
_chemical_name_systematic
;
catena-[tris(2,2'-bipyridine)-nickel(ii) 
tris(\m-benzene-1,3-dicarboxylato)-tetraoxo-di-uranium(vi) tetrahydrate]
;
_cell_volume   6714.997
_exptl_crystal_colour 'light orange'
_exptl_crystal_density_diffrn 1.614
_exptl_special_details
;
Some voids in the lattice likely indicate the presence of other, unresolved 
water solvent molecules
;
_exptl_crystal_description 'parallelepiped'
_diffrn_ambient_temperature 150
_refine_special_details
;
O12A and O12B disordered over two sites with occupancies 0.5:0.5; O13A and 
O13B disordered over two sites with occupancies 0.35:0.15.
;
#These two values have been output from a single CSD field.
_refine_ls_R_factor_gt 0.0327
_refine_ls_wR_factor_gt 0.0327
_symmetry_cell_setting orthorhombic
_symmetry_space_group_name_H-M 'P n n a'
_symmetry_Int_Tables_number 52
loop_
_symmetry_equiv_pos_site_id
_symmetry_equiv_pos_as_xyz
1 x,y,z
2 1/2-x,-y,z
3 1/2-x,1/2+y,1/2-z
4 x,1/2-y,1/2-z
5 -x,-y,-z
6 -1/2+x,y,-z
7 -1/2+x,-1/2-y,-1/2+z
8 -x,-1/2+y,-1/2+z
_cell_length_a 17.2556(3)
_cell_length_b 13.6441(4)
_cell_length_c 28.5214(9)
_cell_angle_alpha 90
_cell_angle_beta 90
_cell_angle_gamma 90
_cell_formula_units_Z 4
loop_
_atom_type_symbol
_atom_type_radius_bond
C 0.68
H 0.23
N 0.68
Ni 1.24
O 0.68
U 1.96
loop_
_atom_site_label
_atom_site_type_symbol
_atom_site_fract_x
_atom_site_fract_y
_atom_site_fract_z
U1 U 0.53592(2) 0.36410(2) 0.41555(2)
O1 O 0.54230(18) 0.4901(3) 0.40159(13)
O2 O 0.52999(19) 0.2365(3) 0.42873(14)
O3 O 0.4087(2) 0.3544(3) 0.37596(13)
O4 O 0.40797(18) 0.3861(3) 0.45109(12)
O5 O 0.04653(18) 0.3887(3) 0.49944(13)
O6 O 0.1557(2) 0.3771(3) 0.53845(13)
O7 O 0.65369(19) 0.3355(3) 0.36876(12)
O8 O 0.54300(18) 0.3210(3) 0.33093(13)
C1 C 0.2446(3) 0.3784(3) 0.45509(18)
H1 H 0.27210 0.37860 0.48400
C2 C 0.2845(3) 0.3739(4) 0.41288(18)
C3 C 0.2450(3) 0.3744(4) 0.37031(19)
H2 H 0.27290 0.37110 0.34170
C4 C 0.1642(3) 0.3797(4) 0.36987(19)
H3 H 0.13690 0.38010 0.34100
C5 C 0.1244(3) 0.3844(4) 0.41176(17)
H4 H 0.06940 0.38900 0.41140
C6 C 0.1633(3) 0.3825(3) 0.45476(18)
C7 C 0.3724(3) 0.3708(4) 0.41355(17)
C8 C 0.1197(3) 0.3841(3) 0.49982(18)
C9 C 0.6190(4) 0.25000 0.25000
H5 H 0.56400 0.25000 0.25000
C10 C 0.6597(3) 0.2829(4) 0.28934(17)
C11 C 0.7401(3) 0.2830(4) 0.28902(17)
H6 H 0.76790 0.30570 0.31570
C12 C 0.7800(4) 0.25000 0.25000
H7 H 0.83510 0.25000 0.25000
C13 C 0.6169(3) 0.3154(4) 0.33139(17)
Ni1 Ni 0.75000 0.00000 0.42976(4)
N1 N 0.8325(2) -0.0326(3) 0.48187(16)
N2 N 0.8061(3) 0.1333(3) 0.43665(17)
N3 N 0.6784(2) 0.0342(3) 0.37239(17)
C14 C 0.8405(3) -0.1174(4) 0.5047(2)
H8 H 0.81330 -0.17310 0.49330
C15 C 0.8862(4) -0.1283(4) 0.5440(3)
H9 H 0.88850 -0.18890 0.56030
C16 C 0.9285(5) -0.0483(5) 0.5588(3)
H10 H 0.96170 -0.05320 0.58530
C17 C 0.9221(4) 0.0388(4) 0.5347(2)
H11 H 0.95100 0.09460 0.54430
C18 C 0.8736(3) 0.0444(4) 0.4966(2)
C19 C 0.8641(3) 0.1363(4) 0.4685(2)
C20 C 0.9090(3) 0.2189(4) 0.47460(19)
H12 H 0.94960 0.21890 0.49710
C21 C 0.8950(3) 0.3015(4) 0.4480(2)
H13 H 0.92550 0.35880 0.45180
C22 C 0.8356(3) 0.2985(4) 0.4159(2)
H14 H 0.82430 0.35440 0.39720
C23 C 0.7922(3) 0.2137(4) 0.4109(2)
H15 H 0.75140 0.21240 0.38850
C24 C 0.6034(3) 0.0596(4) 0.3750(2)
H16 H 0.58280 0.07710 0.40480
C25 C 0.5548(3) 0.0614(4) 0.3369(2)
H17 H 0.50200 0.08000 0.34010
C26 C 0.5850(3) 0.0355(4) 0.2936(2)
H18 H 0.55270 0.03430 0.26660
C27 C 0.6628(3) 0.0113(4) 0.2899(2)
H19 H 0.68480 -0.00550 0.26040
C28 C 0.7074(3) 0.0122(4) 0.3301(2)
O9 O 0.4241(7) 0.417(1) 0.2680(4)
O10 O 0.3687(8) 0.1937(12) 0.3120(6)
O11 O 0.2692(8) 0.75000 0.25000
O12 O 0.75000 0.50000 0.3341(5)
O13? O 0.75000 0.50000 0.3948(8)
O14 O 0.3153(9) 0.5555(10) 0.2520(5)
O15? O 0.3718(14) 0.597(2) 0.2419(11)
O7C O 0.65369(19) 0.1645(3) 0.13124(12)
O8C O 0.54300(18) 0.1790(3) 0.16907(13)
C10C C 0.6597(3) 0.2171(4) 0.21066(17)
C11C C 0.7401(3) 0.2170(4) 0.21098(17)
H6C H 0.76790 0.19430 0.18430
C13C C 0.6169(3) 0.1846(4) 0.16861(17)
U1C U 0.53592(2) 0.13590(2) 0.08445(2)
O1C O 0.54230(18) 0.0099(3) 0.09841(13)
O2C O 0.52999(19) 0.2635(3) 0.07127(14)
O3C O 0.4087(2) 0.1456(3) 0.12404(13)
O4C O 0.40797(18) 0.1139(3) 0.04891(12)
O5C O 0.04653(18) 0.1113(3) 0.00056(13)
O6C O 0.1557(2) 0.1229(3) -0.03845(13)
C1C C 0.2446(3) 0.1216(3) 0.04491(18)
H1C H 0.27210 0.12140 0.01600
C2C C 0.2845(3) 0.1261(4) 0.08712(18)
C3C C 0.2450(3) 0.1256(4) 0.12969(19)
H2C H 0.27290 0.12890 0.15830
C4C C 0.1642(3) 0.1203(4) 0.13013(19)
H3C H 0.13690 0.11990 0.15900
C5C C 0.1244(3) 0.1156(4) 0.08824(17)
H4C H 0.06940 0.11100 0.08860
C6C C 0.1633(3) 0.1175(3) 0.04524(18)
C7C C 0.3724(3) 0.1292(4) 0.08645(17)
C8C C 0.1197(3) 0.1159(3) 0.00018(18)
U1E U 0.03592(2) 0.36410(2) 0.58445(2)
U1F U 0.03592(2) 0.13590(2) -0.08445(2)
O5E O 0.54653(18) 0.3887(3) 0.50056(13)
O5F O 0.54653(18) 0.1113(3) -0.00056(13)
O6E O 0.6557(2) 0.3771(3) 0.46155(13)
O6F O 0.6557(2) 0.1229(3) 0.03845(13)
N3A N 0.8216(2) -0.0342(3) 0.37239(17)
C24A C 0.8966(3) -0.0596(4) 0.3750(2)
H16A H 0.91720 -0.07710 0.40480
C25A C 0.9452(3) -0.0614(4) 0.3369(2)
H17A H 0.99800 -0.08000 0.34010
C26A C 0.9150(3) -0.0355(4) 0.2936(2)
H18A H 0.94730 -0.03430 0.26660
C27A C 0.8372(3) -0.0113(4) 0.2899(2)
H19A H 0.81520 0.00550 0.26040
C28A C 0.7926(3) -0.0122(4) 0.3301(2)
N1A N 0.6675(2) 0.0326(3) 0.48187(16)
N2A N 0.6939(3) -0.1333(3) 0.43665(17)
C14A C 0.6595(3) 0.1174(4) 0.5047(2)
H8A H 0.68670 0.17310 0.49330
C15A C 0.6138(4) 0.1283(4) 0.5440(3)
H9A H 0.61150 0.18890 0.56030
C16A C 0.5715(5) 0.0483(5) 0.5588(3)
H10A H 0.53830 0.05320 0.58530
C17A C 0.5779(4) -0.0388(4) 0.5347(2)
H11A H 0.54900 -0.09460 0.54430
C18A C 0.6264(3) -0.0444(4) 0.4966(2)
C19A C 0.6359(3) -0.1363(4) 0.4685(2)
C20A C 0.5910(3) -0.2189(4) 0.47460(19)
H12A H 0.55040 -0.21890 0.49710
C21A C 0.6050(3) -0.3015(4) 0.4480(2)
H13A H 0.57450 -0.35880 0.45180
C22A C 0.6644(3) -0.2985(4) 0.4159(2)
H14A H 0.67570 -0.35440 0.39720
C23A C 0.7078(3) -0.2137(4) 0.4109(2)
H15A H 0.74860 -0.21240 0.38850
#END
