
#######################################################################
#
#                 Cambridge Crystallographic Data Centre
#                                CCDC
#
#######################################################################
#
# If this CIF has been generated from an entry in the Cambridge
# Structural Database, then it will include bibliographic, chemical,
# crystal, experimental, refinement or atomic coordinate data resulting
# from the CCDC's data processing and validation procedures.
#
#######################################################################

data_CSD_CIF_CEPKIU
_audit_creation_date 2018-02-13
_audit_creation_method CSD-ConQuest-V1
_database_code_CSD CEPKIU
_database_code_depnum_ccdc_archive 'CCDC 1573131'
_chemical_formula_sum 'C69 H59 N7 Ni1 O22 U2'
_chemical_formula_moiety
;
(C36 H18 O16 U2 2-)n,C30 H24 N6 Ni1 2+,C3 H7 N1 O1,5(H2 O1)
;
_journal_coden_Cambridge 1290
_journal_year 2017
_journal_page_first 5451
_journal_name_full 'Eur.J.Inorg.Chem. '
loop_
_publ_author_name
"P.Thuery"
"J.Harrowfield"
_chemical_name_systematic
;
catena-[tris(2,2'-bipyridine)-nickel(ii) 
tris(\m-naphthalene-2,6-dicarboxylato)-tetraoxo-di-uranium(vi) 
N,N-dimethylformamide solvate pentahydrate]
;
_cell_volume   6564.241
_exptl_crystal_colour 'light pink'
_exptl_crystal_density_diffrn 1.895
_exptl_crystal_description 'parallelepiped'
_diffrn_ambient_temperature 150
#These two values have been output from a single CSD field.
_refine_ls_R_factor_gt 0.0331
_refine_ls_wR_factor_gt 0.0331
_symmetry_cell_setting monoclinic
_symmetry_space_group_name_H-M 'P 21/n'
_symmetry_Int_Tables_number 14
loop_
_symmetry_equiv_pos_site_id
_symmetry_equiv_pos_as_xyz
1 x,y,z
2 1/2-x,1/2+y,1/2-z
3 -x,-y,-z
4 -1/2+x,-1/2-y,-1/2+z
_cell_length_a 16.2231(5)
_cell_length_b 22.3002(4)
_cell_length_c 18.4139(5)
_cell_angle_alpha 90
_cell_angle_beta 99.8152(16)
_cell_angle_gamma 90
_cell_formula_units_Z 4
loop_
_atom_type_symbol
_atom_type_radius_bond
C 0.68
H 0.23
N 0.68
Ni 1.24
O 0.68
U 1.96
loop_
_atom_site_label
_atom_site_type_symbol
_atom_site_fract_x
_atom_site_fract_y
_atom_site_fract_z
U1 U 0.66037(2) 0.41306(2) -0.06433(2)
U2 U 0.37456(2) 0.38581(2) 0.58772(2)
O1 O 0.5566(2) 0.40702(16) -0.1132(2)
O2 O 0.7626(2) 0.42089(15) -0.01329(19)
O3 O 0.2736(2) 0.37730(15) 0.53335(18)
O4 O 0.4745(2) 0.39516(15) 0.6429(2)
O5 O 0.6068(2) 0.46244(16) 0.03646(19)
O6 O 0.6134(2) 0.36452(16) 0.0409(2)
O7 O 0.4505(2) 0.33974(17) 0.4955(2)
O8 O 0.4222(3) 0.43539(17) 0.4828(2)
O9 O 0.6786(2) 0.30250(15) -0.06446(18)
O10 O 0.7098(2) 0.35141(14) -0.15909(18)
O11 O 0.8021(2) -0.02588(14) -0.33498(18)
O12 O 0.8405(2) 0.02387(14) -0.42588(18)
O13 O 0.3450(2) 0.49346(14) 0.58362(17)
O14 O 0.3076(2) 0.44359(14) 0.67558(18)
O15 O 0.1653(2) 0.82112(14) 0.81582(18)
O16 O 0.1225(2) 0.77393(14) 0.90705(18)
C1 C 0.5974(3) 0.4143(3) 0.0697(3)
C2 C 0.5685(4) 0.4166(3) 0.1421(3)
C3 C 0.5712(4) 0.3683(3) 0.1849(3)
H1 H 0.59080 0.33110 0.16930
C4 C 0.5427(4) 0.3735(2) 0.2583(3)
C5 C 0.5140(3) 0.4300(2) 0.2746(4)
C6 C 0.5114(4) 0.4795(3) 0.2325(4)
H2 H 0.49140 0.51670 0.24770
C7 C 0.5392(4) 0.4733(3) 0.1657(3)
H3 H 0.53900 0.50730 0.13470
C8 C 0.4856(4) 0.4341(3) 0.3480(3)
H4 H 0.46450 0.47090 0.36330
C9 C 0.4901(4) 0.3861(3) 0.3916(3)
C10 C 0.5270(4) 0.3319(3) 0.3715(4)
H5 H 0.53410 0.29940 0.40540
C11 C 0.5529(4) 0.3250(3) 0.3040(4)
H6 H 0.57630 0.28860 0.29040
C12 C 0.4534(4) 0.3881(3) 0.4603(3)
C13 C 0.7036(3) 0.3019(2) -0.1261(3)
C14 C 0.7258(3) 0.2448(2) -0.1596(3)
C15 C 0.7412(3) 0.2440(2) -0.2306(3)
H7 H 0.73680 0.28010 -0.25830
C16 C 0.7637(3) 0.1900(2) -0.2635(3)
C17 C 0.7681(3) 0.1359(2) -0.2220(3)
C18 C 0.7530(3) 0.1382(2) -0.1484(3)
H8 H 0.75690 0.10250 -0.11990
C19 C 0.7326(3) 0.1914(2) -0.1174(3)
H9 H 0.72330 0.19220 -0.06790
C20 C 0.7860(3) 0.0817(2) -0.2562(3)
H10 H 0.78740 0.04510 -0.22960
C21 C 0.8014(3) 0.0811(2) -0.3273(3)
C22 C 0.8001(3) 0.1357(2) -0.3668(3)
H11 H 0.81230 0.13560 -0.41550
C23 C 0.7817(4) 0.1882(2) -0.3360(3)
H12 H 0.78080 0.22430 -0.36350
C24 C 0.8160(3) 0.0236(2) -0.3641(3)
C25 C 0.3109(3) 0.4928(2) 0.6409(3)
C26 C 0.2754(3) 0.5485(2) 0.6661(3)
C27 C 0.2526(3) 0.5508(2) 0.7347(3)
H13 H 0.25610 0.51540 0.76380
C28 C 0.2240(3) 0.6047(2) 0.7631(3)
C29 C 0.2193(3) 0.6570(2) 0.7181(3)
C30 C 0.2401(3) 0.6533(2) 0.6465(3)
H14 H 0.23430 0.68770 0.61570
C31 C 0.2686(3) 0.6007(2) 0.6211(3)
H15 H 0.28370 0.59910 0.57350
C32 C 0.1962(3) 0.7117(2) 0.7481(3)
H16 H 0.19390 0.74730 0.71950
C33 C 0.1770(3) 0.7143(2) 0.8181(3)
C34 C 0.1812(3) 0.6618(2) 0.8617(3)
H17 H 0.16800 0.66360 0.90990
C35 C 0.2042(3) 0.6084(2) 0.8343(3)
H18 H 0.20690 0.57340 0.86390
C36 C 0.1538(3) 0.7723(2) 0.8488(3)
Ni1 Ni 0.54642(4) 0.93318(3) 0.75840(3)
N1 N 0.5728(3) 0.87891(18) 0.6732(2)
N2 N 0.5671(3) 0.99728(18) 0.6819(2)
N3 N 0.6680(2) 0.93815(18) 0.8148(2)
N4 N 0.5330(3) 0.99274(19) 0.8439(2)
N5 N 0.5073(3) 0.86377(18) 0.8218(2)
N6 N 0.4189(3) 0.92717(18) 0.7124(2)
C37 C 0.5760(3) 0.8194(2) 0.6728(3)
H19 H 0.57230 0.79840 0.71700
C38 C 0.5845(3) 0.7865(3) 0.6105(3)
H20 H 0.59040 0.74410 0.61280
C39 C 0.5840(3) 0.8166(3) 0.5457(3)
H21 H 0.58580 0.79510 0.50140
C40 C 0.5810(3) 0.8783(3) 0.5454(3)
H22 H 0.58090 0.89970 0.50080
C41 C 0.5780(3) 0.9087(2) 0.6101(3)
C42 C 0.5818(3) 0.9748(2) 0.6170(3)
C43 C 0.5984(3) 1.0130(3) 0.5610(3)
H23 H 0.60900 0.99690 0.51570
C44 C 0.5994(4) 1.0740(3) 0.5721(4)
H24 H 0.61150 1.10030 0.53470
C45 C 0.5828(4) 1.0972(3) 0.6376(4)
H25 H 0.58110 1.13920 0.64550
C46 C 0.5688(3) 1.0570(2) 0.6914(3)
H26 H 0.55990 1.07250 0.73750
C47 C 0.7340(3) 0.9105(2) 0.7955(3)
H27 H 0.72640 0.88810 0.75100
C48 C 0.8132(3) 0.9133(2) 0.8380(3)
H28 H 0.85880 0.89280 0.82300
C49 C 0.8248(4) 0.9460(3) 0.9019(3)
H29 H 0.87850 0.94850 0.93200
C50 C 0.7568(3) 0.9754(2) 0.9219(3)
H30 H 0.76350 0.99830 0.96600
C51 C 0.6799(3) 0.9714(2) 0.8777(3)
C52 C 0.6034(3) 1.0028(2) 0.8923(3)
C53 C 0.6039(4) 1.0413(2) 0.9525(3)
H31 H 0.65420 1.04880 0.98600
C54 C 0.5299(4) 1.0683(3) 0.9621(3)
H32 H 0.52890 1.09460 1.00260
C55 C 0.4577(4) 1.0570(3) 0.9131(4)
H33 H 0.40610 1.07480 0.91940
C56 C 0.4621(4) 1.0193(3) 0.8548(3)
H34 H 0.41240 1.01170 0.82060
C57 C 0.5544(4) 0.8346(2) 0.8761(3)
H35 H 0.61300 0.84140 0.88450
C58 C 0.5217(4) 0.7942(3) 0.9216(4)
H36 H 0.55750 0.77280 0.95910
C59 C 0.4365(4) 0.7859(3) 0.9109(4)
H37 H 0.41230 0.75910 0.94140
C60 C 0.3857(4) 0.8177(3) 0.8544(3)
H38 H 0.32650 0.81340 0.84680
C61 C 0.4233(3) 0.8551(2) 0.8103(3)
C62 C 0.3746(3) 0.8873(2) 0.7454(3)
C63 C 0.2908(3) 0.8761(3) 0.7192(3)
H39 H 0.26040 0.84860 0.74380
C64 C 0.2520(4) 0.9058(3) 0.6565(3)
H40 H 0.19440 0.89910 0.63800
C65 C 0.2973(3) 0.9451(2) 0.6211(3)
H41 H 0.27240 0.96490 0.57710
C66 C 0.3791(3) 0.9547(2) 0.6510(3)
H42 H 0.40990 0.98250 0.62720
O17 O 0.5557(3) 0.2405(3) 0.6958(3)
N7 N 0.5090(3) 0.2455(2) 0.8049(3)
C67 C 0.5298(4) 0.2698(4) 0.7454(4)
H43 H 0.52480 0.31210 0.73970
C68 C 0.5193(5) 0.1810(3) 0.8179(5)
H44 H 0.46600 0.16060 0.80100
H45 H 0.53720 0.17360 0.87070
H46 H 0.56170 0.16550 0.79070
C69 C 0.4761(5) 0.2812(4) 0.8611(5)
H47 H 0.45870 0.32070 0.84080
H48 H 0.51990 0.28600 0.90450
H49 H 0.42800 0.26050 0.87530
O18 O 0.4076(2) 0.39123(18) -0.0197(2)
H50 H 0.45280 0.40120 -0.04080
H51 H 0.38030 0.42830 -0.01860
O19 O 0.5891(3) 0.2709(2) 0.5611(3)
H52 H 0.53370 0.28430 0.55380
H53 H 0.63380 0.29300 0.55240
O20 O 0.3087(3) 0.28587(18) -0.0422(2)
O21 O 0.6336(3) 0.1903(2) 0.4588(3)
O22 O 0.7571(3) 0.3141(2) 0.5419(3)
U1A U 0.83963(2) -0.08694(2) -0.43567(2)
U2A U 0.12544(2) 0.88581(2) 0.91228(2)
O11A O 0.6979(2) 0.47412(14) -0.16502(18)
O12A O 0.6595(2) 0.52387(14) -0.07412(18)
O15A O 0.3347(2) 0.32112(14) 0.68418(18)
O16A O 0.3775(2) 0.27393(14) 0.59295(18)
#END
