
#######################################################################
#
#                 Cambridge Crystallographic Data Centre
#                                CCDC
#
#######################################################################
#
# If this CIF has been generated from an entry in the Cambridge
# Structural Database, then it will include bibliographic, chemical,
# crystal, experimental, refinement or atomic coordinate data resulting
# from the CCDC's data processing and validation procedures.
#
#######################################################################

data_CSD_CIF_CEQHIS
_audit_creation_date 2018-02-13
_audit_creation_method CSD-ConQuest-V1
_database_code_CSD CEQHIS
_database_code_depnum_ccdc_archive 'CCDC 1578126'
_chemical_formula_sum 'C76 H66 Ag13 Br17 Fe2 N12 O5 S2'
_chemical_formula_moiety
;
2(C36 H24 Fe1 N6 2+),n(Ag13 Br17 4-),2(C2 H6 O1 S1),3(H2 O1)
;
_journal_coden_Cambridge 1290
_journal_year 2018
_journal_page_first 826
_journal_name_full 'Eur.J.Inorg.Chem. '
loop_
_publ_author_name
"Yali Shen"
"Limei Zhang"
"Shufen Li"
"Peipei Sun"
"Wenqing Jiang"
"Dingxian Jia"
_chemical_name_systematic
;
catena-[bis(tris(1,10-phenanthroline)-iron(ii)) 
heptadecakis(\m-bromo)-trideca-silver(i) dimethyl sulfoxide solvate 
trihydrate]
;
_cell_volume  10843.609
_exptl_crystal_colour 'dark red'
_exptl_crystal_density_diffrn 2.551
_exptl_crystal_description 'block'
_diffrn_ambient_temperature 223
_refine_special_details
;
The atom Ag1 is present at half-occupancy. The dimethyl sulfoxide solvent 
molecule is disordered by symmetry.
;
#These two values have been output from a single CSD field.
_refine_ls_R_factor_gt 0.0529
_refine_ls_wR_factor_gt 0.0529
_symmetry_cell_setting cubic
_symmetry_space_group_name_H-M 'I 21 3'
_symmetry_Int_Tables_number 199
loop_
_symmetry_equiv_pos_site_id
_symmetry_equiv_pos_as_xyz
1 x,y,z
2 1/2-x,-y,1/2+z
3 -x,1/2+y,1/2-z
4 1/2+x,1/2-y,-z
5 z,x,y
6 1/2+z,1/2-x,-y
7 1/2-z,-x,1/2+y
8 -z,1/2+x,1/2-y
9 y,z,x
10 -y,1/2+z,1/2-x
11 1/2+y,1/2-z,-x
12 1/2-y,-z,1/2+x
13 1/2+x,1/2+y,1/2+z
14 -x,1/2-y,z
15 1/2-x,y,-z
16 x,-y,1/2-z
17 1/2+z,1/2+x,1/2+y
18 z,-x,1/2-y
19 -z,1/2-x,y
20 1/2-z,x,-y
21 1/2+y,1/2+z,1/2+x
22 1/2-y,z,-x
23 y,-z,1/2-x
24 -y,1/2-z,x
_cell_length_a 22.1339(5)
_cell_length_b 22.1339(5)
_cell_length_c 22.1339(5)
_cell_angle_alpha 90
_cell_angle_beta 90
_cell_angle_gamma 90
_cell_formula_units_Z 4
loop_
_atom_type_symbol
_atom_type_radius_bond
C 0.68
H 0.23
Ag 1.45
Br 1.21
Fe 1.52
N 0.68
O 0.68
S 1.02
loop_
_atom_site_label
_atom_site_type_symbol
_atom_site_fract_x
_atom_site_fract_y
_atom_site_fract_z
Ag1 Ag 0.1348(3) 0.1551(2) 0.01197(16)
Ag2 Ag 0.0922(2) 0.26477(17) 0.13437(17)
Br1 Br 0.19515(13) 0.23521(12) 0.07327(14)
Br2 Br 0.0742(1) 0.0742(1) 0.0742(1)
Br3 Br 0.00000 0.25000 0.05272(16)
Br4 Br 0.10214(14) 0.38005(14) 0.1651(2)
Fe1 Fe 1.06344(11) 0.56344(11) 0.93656(11)
N1 N 0.9745(6) 0.5643(6) 0.9317(7)
N2 N 1.0556(8) 0.5706(7) 0.8493(6)
C1 C 0.9308(7) 0.5614(8) 0.9769(9)
H1 H 0.94310 0.56150 1.01710
C2 C 0.8697(9) 0.5585(13) 0.9640(14)
H2 H 0.84270 0.55840 0.99620
C3 C 0.8482(12) 0.5560(9) 0.9109(19)
H3 H 0.80780 0.54750 0.90340
C4 C 0.8910(14) 0.5674(11) 0.8628(10)
C5 C 0.8706(15) 0.5683(18) 0.8042(13)
H4 H 0.83000 0.56300 0.79480
C6 C 0.9139(10) 0.5777(13) 0.7602(13)
H5 H 0.90060 0.58810 0.72170
C7 C 0.9761(10) 0.5726(14) 0.7693(10)
C8 C 1.0211(11) 0.5796(10) 0.7258(12)
H6 H 1.01100 0.58470 0.68530
C9 C 1.0814(10) 0.5789(11) 0.7437(9)
H7 H 1.11160 0.58400 0.71490
C10 C 1.0976(9) 0.5705(9) 0.8046(9)
H8 H 1.13800 0.56480 0.81450
C11 C 0.9967(11) 0.5702(9) 0.8302(8)
C12 C 0.9522(9) 0.5657(8) 0.8752(9)
O1 O 0.00000 0.75000 0.767(2)
O2? O 0.293(2) 0.293(2) 0.293(2)
S1? S 0.242(3) 0.249(4) 0.298(2)
C13? C 0.225(2) 0.225(2) 0.225(2)
C14? C 0.274(8) 0.183(4) 0.328(6)
Ag3? Ag 0.1494(2) 0.1494(2) 0.1494(2)
Ag1D Ag 0.01197(30) 0.1348(2) 0.15510(16)
Ag2D Ag 0.13437(20) 0.09220(17) 0.26477(17)
Br1D Br 0.07327(13) 0.19515(12) 0.23521(14)
Br3D Br 0.05272 0.00000 0.25000(16)
Br4D Br 0.16510(14) 0.10214(14) 0.38005(20)
Ag1H Ag 0.1551(3) 0.01197(20) 0.13480(16)
Ag2H Ag 0.26477(20) 0.13437(17) 0.09220(17)
Br1H Br 0.23521(13) 0.07327(12) 0.19515(14)
Br3H Br 0.25000 0.05272 0.00000(16)
Br4H Br 0.38005(14) 0.16510(14) 0.10214(20)
Ag1M Ag -0.1348(3) 0.3449(2) 0.01197(16)
Ag2M Ag -0.0922(2) 0.23523(17) 0.13437(17)
Br1M Br -0.19515(13) 0.26479(12) 0.07327(14)
Br2M Br -0.0742(1) 0.4258(1) 0.0742(1)
Br4M Br -0.10214(14) 0.11995(14) 0.1651(2)
Ag1N Ag 0.3652(3) 0.1551(2) -0.01197(16)
Ag2N Ag 0.4078(2) 0.26477(17) -0.13437(17)
Br1N Br 0.30485(13) 0.23521(12) -0.07327(14)
Br4N Br 0.39786(14) 0.38005(14) -0.1651(2)
Ag1E Ag 0.51197(30) 0.3652(2) -0.15510(16)
Ag2E Ag 0.63437(20) 0.40780(17) -0.26477(17)
Br1E Br 0.57327(13) 0.30485(12) -0.23521(14)
Br4E Br 0.66510(14) 0.39786(14) -0.38005(20)
Ag1R Ag -0.01197(30) 0.3652(2) 0.15510(16)
Ag1T Ag 0.6551(3) 0.51197(20) -0.36520(16)
Ag1V Ag 0.1551(3) -0.01197(20) 0.36520(16)
Ag1W Ag -0.1551(3) 0.48803(20) 0.13480(16)
Ag2C Ag 0.5922(2) 0.23523(17) -0.13437(17)
Ag2Q Ag 0.13437(20) -0.09220(17) 0.23523(17)
Ag2U Ag 0.23523(20) 0.13437(17) -0.09220(17)
Ag2W Ag -0.26477(20) 0.36563(17) 0.09220(17)
Br1J Br 0.73521(13) 0.42673(12) -0.19515(14)
Br1R Br -0.07327(13) 0.30485(12) 0.23521(14)
Br1S Br 0.42673(13) 0.19515(12) -0.23521(14)
Br2C Br 0.5742(1) 0.4258(1) -0.0742(1)
Br2N Br 0.4258(1) 0.0742(1) -0.0742(1)
Br3C Br 0.50000 0.25000 -0.05272(16)
Br3E Br 0.55272 0.50000 -0.25000(16)
Br4J Br -0.11995(14) 0.33490(14) -0.10214(20)
Br4Q Br 0.16510(14) -0.10214(14) 0.11995(20)
Br4U Br 0.11995(14) 0.16510(14) -0.10214(20)
N1G N 1.0683(6) 0.4745(6) 0.9357(7)
N2G N 1.1507(8) 0.5556(7) 0.9294(6)
C1G C 1.0231(7) 0.4308(8) 0.9386(9)
H1G H 0.98290 0.44310 0.93850
C2G C 1.0360(9) 0.3697(13) 0.9415(14)
H2G H 1.00380 0.34270 0.94160
C3G C 1.0891(12) 0.3482(9) 0.9440(19)
H3G H 1.09660 0.30780 0.95250
C4G C 1.1372(14) 0.3910(11) 0.9326(10)
C5G C 1.1958(15) 0.3706(18) 0.9317(13)
H4G H 1.20520 0.33000 0.93700
C6G C 1.2398(10) 0.4139(13) 0.9223(13)
H5G H 1.27830 0.40060 0.91190
C7G C 1.2307(10) 0.4761(14) 0.9274(10)
C8G C 1.2742(11) 0.5211(10) 0.9204(12)
H6G H 1.31470 0.51100 0.91530
C9G C 1.2563(10) 0.5814(11) 0.9211(9)
H7G H 1.28510 0.61160 0.91600
C10G C 1.1954(9) 0.5976(9) 0.9295(9)
H8G H 1.18550 0.63800 0.93520
C11G C 1.1698(11) 0.4967(9) 0.9298(8)
C12G C 1.1248(9) 0.4522(8) 0.9343(9)
N1J N 1.0643(6) 0.5683(6) 1.0255(7)
N2J N 1.0706(8) 0.6507(7) 0.9444(6)
C1J C 1.0614(7) 0.5231(8) 1.0692(9)
H1J H 1.06150 0.48290 1.05690
C2J C 1.0585(9) 0.5360(13) 1.1303(14)
H2J H 1.05840 0.50380 1.15730
C3J C 1.0560(12) 0.5891(9) 1.1518(19)
H3J H 1.04750 0.59660 1.19220
C4J C 1.0674(14) 0.6372(11) 1.109(1)
C5J C 1.0683(15) 0.6958(18) 1.1294(13)
H4J H 1.06300 0.70520 1.17000
C6J C 1.0777(10) 0.7398(13) 1.0861(13)
H5J H 1.08810 0.77830 1.09940
C7J C 1.0726(10) 0.7307(14) 1.0239(10)
C8J C 1.0796(11) 0.7742(10) 0.9789(12)
H6J H 1.08470 0.81470 0.98900
C9J C 1.0789(10) 0.7563(11) 0.9186(9)
H7J H 1.08400 0.78510 0.88840
C10J C 1.0705(9) 0.6954(9) 0.9024(9)
H8J H 1.06480 0.68550 0.86200
C11J C 1.0702(11) 0.6698(9) 1.0033(8)
C12J C 1.0657(9) 0.6248(8) 1.0478(9)
#END
