
#######################################################################
#
#                 Cambridge Crystallographic Data Centre
#                                CCDC
#
#######################################################################
#
# If this CIF has been generated from an entry in the Cambridge
# Structural Database, then it will include bibliographic, chemical,
# crystal, experimental, refinement or atomic coordinate data resulting
# from the CCDC's data processing and validation procedures.
#
#######################################################################

data_CSD_CIF_CEQJIU
_audit_creation_date 2018-02-13
_audit_creation_method CSD-ConQuest-V1
_database_code_CSD CEQJIU
_database_code_depnum_ccdc_archive 'CCDC 1578131'
_chemical_formula_sum 'C48 H32 Ag2 Br4 Cl4 Fe2 N8'
_chemical_formula_moiety
;
(C24 H16 Cl2 Fe1 N4 1+)2n,n(Ag2 Br4 2-)
;
_journal_coden_Cambridge 1290
_journal_year 2018
_journal_page_first 826
_journal_name_full 'Eur.J.Inorg.Chem. '
loop_
_publ_author_name
"Yali Shen"
"Limei Zhang"
"Shufen Li"
"Peipei Sun"
"Wenqing Jiang"
"Dingxian Jia"
_chemical_name_systematic
;
catena-(bis(dichloro-bis(1,10-phenanthroline)-iron) 
tetrakis(\m-bromo)-di-silver)
;
_cell_volume   4916.768
_exptl_crystal_colour 'dark red'
_exptl_crystal_density_diffrn 2.039
_exptl_crystal_description 'Prism'
_diffrn_ambient_temperature 223
#These two values have been output from a single CSD field.
_refine_ls_R_factor_gt 0.0517
_refine_ls_wR_factor_gt 0.0517
_symmetry_cell_setting monoclinic
_symmetry_space_group_name_H-M 'P 21/c'
_symmetry_Int_Tables_number 14
loop_
_symmetry_equiv_pos_site_id
_symmetry_equiv_pos_as_xyz
1 x,y,z
2 -x,1/2+y,1/2-z
3 -x,-y,-z
4 x,-1/2-y,-1/2+z
_cell_length_a 7.2064(14)
_cell_length_b 19.134(4)
_cell_length_c 36.250(8)
_cell_angle_alpha 90
_cell_angle_beta 100.37(3)
_cell_angle_gamma 90
_cell_formula_units_Z 4
loop_
_atom_type_symbol
_atom_type_radius_bond
C 0.68
H 0.23
Ag 1.45
Br 1.21
Cl 0.99
Fe 1.52
N 0.68
loop_
_atom_site_label
_atom_site_type_symbol
_atom_site_fract_x
_atom_site_fract_y
_atom_site_fract_z
Ag1 Ag 1.3151(5) 0.6180(2) 0.11381(11)
Ag2 Ag 0.8309(5) 0.6162(2) 0.11365(11)
Br1 Br 1.0294(6) 0.6795(3) 0.06576(13)
Br2 Br 1.1170(6) 0.5612(3) 0.16627(13)
Br3 Br 0.6052(6) 0.6962(3) 0.15198(15)
Br4 Br 0.5468(6) 0.5315(2) 0.08359(13)
Cl1 Cl 0.8779(14) 0.1814(5) 0.1096(3)
Cl2 Cl 1.1117(14) 0.2900(6) 0.1775(3)
Fe1 Fe 0.8201(7) 0.2814(2) 0.14087(13)
N1 N 0.553(4) 0.2868(11) 0.0989(5)
N2 N 0.889(3) 0.3534(13) 0.1029(7)
N3 N 0.687(3) 0.2210(16) 0.1806(6)
N4 N 0.697(4) 0.3639(10) 0.1696(7)
C1 C 0.393(4) 0.2521(15) 0.1002(10)
H1 H 0.37960 0.22400 0.12050
C2 C 0.249(4) 0.260(2) 0.0697(7)
H2 H 0.13140 0.24050 0.07020
C3 C 0.277(4) 0.2972(19) 0.0385(9)
H3 H 0.18040 0.30010 0.01790
C4 C 0.448(3) 0.3301(12) 0.0375(6)
C5 C 0.493(3) 0.3720(18) 0.0092(9)
H4 H 0.40470 0.37830 -0.01260
C6 C 0.667(6) 0.405(3) 0.0126(9)
H5 H 0.70310 0.42330 -0.00870
C7 C 0.787(5) 0.410(2) 0.0467(13)
C8 C 0.959(4) 0.440(2) 0.0443(11)
H6 H 0.98720 0.46050 0.02270
C9 C 1.085(4) 0.4352(19) 0.0775(10)
H7 H 1.19830 0.45950 0.08080
C10 C 1.041(4) 0.3945(14) 0.1058(7)
H8 H 1.12340 0.39550 0.12880
C11 C 0.760(5) 0.3619(14) 0.0719(6)
C12 C 0.577(5) 0.3238(16) 0.0687(10)
C13 C 0.705(4) 0.1532(18) 0.1899(10)
H9 H 0.75610 0.12290 0.17420
C14 C 0.651(6) 0.127(2) 0.2217(11)
H10 H 0.66040 0.07920 0.22700
C15 C 0.583(4) 0.1724(14) 0.2458(9)
H11 H 0.54680 0.15540 0.26740
C16 C 0.569(6) 0.2432(12) 0.2379(8)
C17 C 0.506(4) 0.2884(18) 0.2628(7)
H12 H 0.47970 0.27320 0.28570
C18 C 0.485(5) 0.3574(17) 0.2519(8)
H13 H 0.41640 0.38540 0.26550
C19 C 0.554(4) 0.3897(17) 0.2233(8)
C20 C 0.529(4) 0.4569(15) 0.2094(9)
H14 H 0.44670 0.48640 0.21910
C21 C 0.620(6) 0.4823(16) 0.1818(9)
H15 H 0.63320 0.52980 0.17750
C22 C 0.690(3) 0.4312(10) 0.1608(9)
H16 H 0.73420 0.44490 0.13940
C23 C 0.633(6) 0.343(2) 0.2005(9)
C24 C 0.637(4) 0.2660(14) 0.2054(6)
Cl3 Cl 0.3888(14) 0.4597(6) 0.3344(3)
Cl4 Cl 0.6186(14) 0.5682(6) 0.4019(3)
Fe2 Fe 0.6757(7) 0.4669(3) 0.37188(14)
N5 N 0.806(4) 0.3802(10) 0.3443(7)
N6 N 0.804(4) 0.5165(12) 0.3308(10)
N7 N 0.613(4) 0.3898(12) 0.4137(7)
N8 N 0.935(5) 0.4606(19) 0.4128(10)
C25 C 0.828(4) 0.3109(12) 0.3502(10)
H17 H 0.76980 0.29520 0.36960
C26 C 0.916(5) 0.2575(16) 0.3341(8)
H18 H 0.93800 0.21230 0.34340
C27 C 0.966(6) 0.2839(17) 0.3017(8)
H19 H 1.00300 0.25250 0.28490
C28 C 0.964(5) 0.3543(17) 0.2929(8)
C29 C 1.018(4) 0.3777(14) 0.2601(7)
H20 H 1.05170 0.34660 0.24270
C30 C 1.020(4) 0.4491(13) 0.2544(14)
H21 H 1.08140 0.46690 0.23600
C31 C 0.933(4) 0.4947(13) 0.2752(11)
C32 C 0.905(5) 0.5638(15) 0.2644(8)
H22 H 0.92180 0.57760 0.24060
C33 C 0.854(4) 0.6128(11) 0.2890(6)
H23 H 0.85180 0.66070 0.28460
C34 C 0.807(5) 0.5832(15) 0.3204(8)
H24 H 0.77040 0.61490 0.33720
C35 C 0.875(4) 0.4700(19) 0.3095(9)
C36 C 0.887(5) 0.400(3) 0.3157(9)
C37 C 0.453(4) 0.3520(15) 0.4081(11)
H25 H 0.36490 0.35600 0.38600
C38 C 0.424(5) 0.307(3) 0.4364(7)
H26 H 0.31240 0.28140 0.43350
C39 C 0.555(4) 0.2994(19) 0.4687(6)
H27 H 0.53250 0.26870 0.48730
C40 C 0.722(4) 0.3378(15) 0.4735(6)
C41 C 0.851(5) 0.3432(16) 0.5065(9)
H28 H 0.82430 0.32500 0.52870
C42 C 1.021(5) 0.3761(17) 0.5058(7)
H29 H 1.11790 0.37100 0.52630
C43 C 1.052(6) 0.4167(18) 0.4756(11)
C44 C 1.217(5) 0.4544(12) 0.4821(8)
H30 H 1.30370 0.45670 0.50440
C45 C 1.229(6) 0.4882(14) 0.4490(9)
H31 H 1.34290 0.51090 0.44880
C46 C 1.099(5) 0.494(2) 0.4160(9)
H32 H 1.12670 0.52060 0.39630
C47 C 0.912(4) 0.4202(10) 0.4420(9)
C48 C 0.741(4) 0.384(2) 0.4455(9)
Ag1* Ag 0.3151(5) 0.6180(2) 0.11381(11)
Br3* Br 1.6052(6) 0.6962(3) 0.15198(15)
Br4* Br 1.5468(6) 0.5315(2) 0.08359(13)
#END
