
#######################################################################
#
#                 Cambridge Crystallographic Data Centre
#                                CCDC
#
#######################################################################
#
# If this CIF has been generated from an entry in the Cambridge
# Structural Database, then it will include bibliographic, chemical,
# crystal, experimental, refinement or atomic coordinate data resulting
# from the CCDC's data processing and validation procedures.
#
#######################################################################

data_CSD_CIF_CERSOI
_audit_creation_date 2006-11-30
_audit_creation_method CSD-ConQuest-V1
_database_code_CSD CERSOI
_database_code_depnum_ccdc_archive 'CCDC 624524'
_chemical_formula_sum 'C22 H34 Co1 N2 O20 Zn1'
_chemical_formula_moiety
;
(C18 H18 Co1 O18 Zn1 2-)n,n(C4 H12 N2 2+),2n(H2 O1)
;
_journal_coeditor_code "IUCr GD2003"
_journal_coden_Cambridge 1370
_journal_volume 62
_journal_year 2006
_journal_page_first m2597
_journal_name_full 'Acta Crystallogr.,Sect.E:Struct.Rep.Online '
loop_
_publ_author_name
"Wen-Ying Wei"
"Zhen Wang"
"Jin-Yu Han"
"Yan-Hua Yin"
_chemical_name_systematic
;
catena-(piperazinedium 
bis(\m~2~-benzene-1,3,5-tricarboxylato)-hexaaqua-cobalt(ii)-zinc(ii) 
dihydrate)
;
_chemical_name_common
;
catena-(piperazinium(2+) 
(tetraaquazinc(ii)-mu-benzene-1,3,5-tricarboxylato-diaquacobalt(ii)-mu-benzene
-1,3,5-tricarboxylato) dihydrate)
;
_cell_volume    731.821
_exptl_crystal_colour 'pink'
_exptl_crystal_density_diffrn 1.749
_exptl_crystal_description 'block'
_diffrn_ambient_temperature 294
#These two values have been output from a single CSD field.
_refine_ls_R_factor_gt 0.041
_refine_ls_wR_factor_gt 0.041
_symmetry_cell_setting triclinic
_symmetry_space_group_name_H-M 'P -1'
_symmetry_Int_Tables_number 2
loop_
_symmetry_equiv_pos_site_id
_symmetry_equiv_pos_as_xyz
1 x,y,z
2 -x,-y,-z
_cell_length_a 7.189(3)
_cell_length_b 10.588(4)
_cell_length_c 10.593(4)
_cell_angle_alpha 110.675(5)
_cell_angle_beta 91.429(6)
_cell_angle_gamma 102.538(6)
_cell_formula_units_Z 1
loop_
_atom_type_symbol
_atom_type_radius_bond
C 0.68
H 0.23
Co 1.33
N 0.68
O 0.68
Zn 1.45
loop_
_atom_site_label
_atom_site_type_symbol
_atom_site_fract_x
_atom_site_fract_y
_atom_site_fract_z
Zn1 Zn 0.00000 0.00000 0.50000
Co1 Co 0.00000 0.50000 0.00000
O1 O 0.1055(4) 0.1875(2) 0.4742(2)
O2 O 0.2716(4) 0.3080(2) 0.6791(3)
O3 O 0.0274(4) 0.4139(3) 0.1503(3)
O4 O 0.1526(4) 0.6365(2) 0.2003(2)
O5 O 0.5063(4) 0.9218(2) 0.6667(3)
O6 O 0.6071(4) 0.8101(3) 0.7884(3)
C1 C 0.2372(5) 0.4302(3) 0.5319(3)
C2 C 0.1645(5) 0.4234(3) 0.4056(3)
H1 H 0.09290 0.33920 0.34320
C3 C 0.1985(5) 0.5424(3) 0.3722(3)
C4 C 0.3050(5) 0.6689(3) 0.4675(3)
H2 H 0.32670 0.74850 0.44620
C5 C 0.3789(5) 0.6771(3) 0.5939(3)
C6 C 0.3456(5) 0.5563(3) 0.6251(3)
H3 H 0.39620 0.56040 0.70850
C7 C 0.2020(5) 0.2991(3) 0.5644(3)
C8 C 0.1219(5) 0.5304(3) 0.2340(4)
C9 C 0.5051(5) 0.8133(4) 0.6910(4)
C10 C 0.8829(6) 1.0789(4) 0.0889(4)
H4 H 0.86970 1.16440 0.15840
H5 H 0.75910 1.01270 0.06620
C11 C 0.9442(7) 1.1075(4) -0.0357(4)
H6 H 1.06230 1.17980 -0.01140
H7 H 0.84650 1.14010 -0.07150
N1 N 1.0257(5) 1.0221(3) 0.1422(3)
H8 H 0.98450 1.00280 0.21440
H9 H 1.13800 1.08650 0.16990
O7 O 0.2138(4) 0.0466(2) 0.6636(2)
H10 H 0.25450 0.13330 0.68490
H11 H 0.31120 0.01260 0.65570
O8 O 0.1634(4) -0.0885(2) 0.3462(3)
H12 H 0.27400 -0.04200 0.34520
H13 H 0.16470 -0.17350 0.31340
O9 O 0.2548(4) 0.4571(3) -0.0641(3)
H14 H 0.29930 0.41370 -0.02220
H15 H 0.24330 0.40670 -0.14770
O10 O 0.4469(5) 0.2870(4) 0.0029(4)
H16 H 0.43050 0.25670 0.06720
H17 H 0.54650 0.35310 0.01910
Co1* Co 0.00000 -0.50000 1.00000
O1A O -0.1055(4) -0.1875(2) 0.5258(2)
O2A O -0.2716(4) -0.3080(2) 0.3209(3)
O3A O -0.0274(4) -0.4139(3) 0.8497(3)
O3A* O -0.0274(4) 0.5861(3) -0.1503(3)
O4A O -0.1526(4) -0.6365(2) 0.7997(2)
O4A* O -0.1526(4) 0.3635(2) -0.2003(2)
O5A O -0.5063(4) -0.9218(2) 0.3333(3)
O6A O -0.6071(4) -0.8101(3) 0.2116(3)
C1A C -0.2372(5) -0.4302(3) 0.4681(3)
C2A C -0.1645(5) -0.4234(3) 0.5944(3)
H1A H -0.09290 -0.33920 0.65680
C3A C -0.1985(5) -0.5424(3) 0.6278(3)
C4A C -0.3050(5) -0.6689(3) 0.5325(3)
H2A H -0.32670 -0.74850 0.55380
C5A C -0.3789(5) -0.6771(3) 0.4061(3)
C6A C -0.3456(5) -0.5563(3) 0.3749(3)
H3A H -0.39620 -0.56040 0.29150
C7A C -0.2020(5) -0.2991(3) 0.4356(3)
C8A C -0.1219(5) -0.5304(3) 0.7660(4)
C9A C -0.5051(5) -0.8133(4) 0.3090(4)
C10A C 1.1171(6) 0.9211(4) -0.0889(4)
H4A H 1.13030 0.83560 -0.15840
H5A H 1.24090 0.98730 -0.06620
C11A C 1.0558(7) 0.8925(4) 0.0357(4)
H6A H 0.93770 0.82020 0.01140
H7A H 1.15350 0.85990 0.07150
N1A N 0.9743(5) 0.9779(3) -0.1422(3)
H8A H 1.01550 0.99720 -0.21440
H9A H 0.86200 0.91350 -0.16990
O7A O -0.2138(4) -0.0466(2) 0.3364(2)
H10A H -0.25450 -0.13330 0.31510
H11A H -0.31120 -0.01260 0.34430
O8A O -0.1634(4) 0.0885(2) 0.6538(3)
H12A H -0.27400 0.04200 0.65480
H13A H -0.16470 0.17350 0.68660
O9A O -0.2548(4) 0.5429(3) 0.0641(3)
H14A H -0.29930 0.58630 0.02220
H15A H -0.24330 0.59330 0.14770
#END
