
#######################################################################
#
#                 Cambridge Crystallographic Data Centre
#                                CCDC
#
#######################################################################
#
# If this CIF has been generated from an entry in the Cambridge
# Structural Database, then it will include bibliographic, chemical,
# crystal, experimental, refinement or atomic coordinate data resulting
# from the CCDC's data processing and validation procedures.
#
#######################################################################

data_CSD_CIF_CETLAR
_audit_creation_date 2018-02-14
_audit_creation_method CSD-ConQuest-V1
_database_code_CSD CETLAR
_database_code_depnum_ccdc_archive 'CCDC 1571475'
_chemical_formula_sum 'C30 H50 N2 O10 P2 Zn2'
_chemical_formula_moiety
;
2(C8 H20 N1 1+),n(C14 H10 O10 P2 Zn2 2-)
;
_journal_coden_Cambridge 9
_journal_volume 57
_journal_year 2018
_journal_page_first 2390
_journal_name_full 'Inorg.Chem. '
loop_
_publ_author_name
"Chih-Min Wang"
"Ming-Feng Pan"
"Yong-Jie Lin"
"Mei-Ying Chung"
"Yuh-Sheng Wen"
"Yung Chang"
"Hsiu-Mei Lin"
"Todd Hsu"
_chemical_name_systematic
;
catena-[bis(n-octylammonium) 
(\m-biphenyl-4,4'-dicarboxylato)-bis(\m-phosphonato)-di-zinc(ii)]
;
_chemical_name_common
;
NTOU-3
;
_cell_volume   7798.106
_exptl_crystal_colour 'colorless'
_exptl_crystal_description 'needle'
_diffrn_ambient_temperature 296
_refine_special_details
;
Disordered cation molecules were not modelled and the disordered density was 
taken into account using the SQUEEZE/PLATON procedure.
;
#These two values have been output from a single CSD field.
_refine_ls_R_factor_gt 0.0564
_refine_ls_wR_factor_gt 0.0564
_symmetry_cell_setting orthorhombic
_symmetry_space_group_name_H-M 'P c c n'
_symmetry_Int_Tables_number 56
loop_
_symmetry_equiv_pos_site_id
_symmetry_equiv_pos_as_xyz
1 x,y,z
2 1/2-x,1/2-y,z
3 -x,1/2+y,1/2-z
4 1/2+x,-y,1/2-z
5 -x,-y,-z
6 -1/2+x,-1/2+y,-z
7 x,-1/2-y,-1/2+z
8 -1/2-x,y,-1/2+z
_cell_length_a 20.5011(8)
_cell_length_b 37.9847(12)
_cell_length_c 10.0139(3)
_cell_angle_alpha 90
_cell_angle_beta 90
_cell_angle_gamma 90
_cell_formula_units_Z 8
loop_
_atom_type_symbol
_atom_type_radius_bond
C 0.68
H 0.23
O 0.68
P 1.05
Zn 1.22
loop_
_atom_site_label
_atom_site_type_symbol
_atom_site_fract_x
_atom_site_fract_y
_atom_site_fract_z
Zn1 Zn 0.34061(2) 0.333568(11) 0.94987(4)
Zn2 Zn 0.41891(2) 0.202564(11) 0.79618(4)
P1 P 0.22780(5) 0.31362(2) 0.73933(9)
H1 H 0.24160 0.28100 0.74900
P2 P 0.39786(6) 0.26037(3) 1.01035(10)
H2 H 0.34400 0.24640 1.01660
O1 O 0.28436(17) 0.33505(8) 0.7911(3)
O2 O 0.21757(17) 0.32156(9) 0.5955(3)
O3 O 0.16804(16) 0.31772(8) 0.8258(3)
O4 O 0.40173(16) 0.29488(7) 0.9353(3)
O5 O 0.43956(16) 0.23191(7) 0.9479(3)
O6 O 0.4157(2) 0.26324(8) 1.1563(3)
O7 O 0.36589(19) 0.38320(8) 0.9700(3)
O8 O 0.4203(2) 0.36914(9) 0.7847(4)
O9 O 0.5256(2) 0.66321(8) 0.7469(4)
O10 O 0.5280(2) 0.64747(9) 0.5335(3)
C1 C 0.4000(2) 0.39091(11) 0.8684(5)
C2 C 0.4143(2) 0.42919(11) 0.8442(5)
C3 C 0.3925(3) 0.45504(11) 0.9285(5)
H3 H 0.36830 0.44880 1.00350
C4 C 0.4054(3) 0.48999(12) 0.9048(5)
H4 H 0.39200 0.50700 0.96580
C5 C 0.4479(3) 0.43854(13) 0.7315(6)
H5 H 0.46190 0.42130 0.67210
C6 C 0.4612(4) 0.47391(14) 0.7056(6)
H6 H 0.48570 0.48000 0.63100
C7 C 0.4384(3) 0.49992(12) 0.7902(5)
C8 C 0.4528(3) 0.53770(11) 0.7578(5)
C9 C 0.4729(3) 0.56105(12) 0.8555(5)
H7 H 0.47390 0.55380 0.94420
C10 C 0.4915(3) 0.59493(12) 0.8233(5)
H8 H 0.50530 0.61030 0.88980
C11 C 0.4476(4) 0.54990(14) 0.6257(5)
H9 H 0.43160 0.53500 0.55980
C12 C 0.4657(3) 0.58338(13) 0.5931(5)
H10 H 0.46220 0.59110 0.50530
C13 C 0.4893(2) 0.60602(11) 0.6906(4)
C14 C 0.5158(2) 0.64165(12) 0.6521(6)
Zn1G Zn 0.15939(2) 0.333568(11) 0.44987(4)
Zn2A Zn 0.08109(2) 0.297436(11) 0.79618(4)
Zn2B Zn 0.58109(2) 0.702564(11) 0.70382(4)
Zn2F Zn 0.41891(2) 0.297436(11) 1.29618(4)
O2G O 0.28243(17) 0.32156(9) 1.0955(3)
O3A O 0.33196(16) 0.18228(8) 0.8258(3)
O6F O 0.4157(2) 0.23676(8) 0.6563(3)
O9B O 0.4744(2) 0.16321(8) 0.7531(4)
#END
