
#######################################################################
#
#                 Cambridge Crystallographic Data Centre
#                                CCDC
#
#######################################################################
#
# If this CIF has been generated from an entry in the Cambridge
# Structural Database, then it will include bibliographic, chemical,
# crystal, experimental, refinement or atomic coordinate data resulting
# from the CCDC's data processing and validation procedures.
#
#######################################################################

data_CSD_CIF_CEVJEV
_audit_creation_date 2018-02-15
_audit_creation_method CSD-ConQuest-V1
_database_code_CSD CEVJEV
_database_code_depnum_ccdc_archive 'CCDC 1589657'
_chemical_formula_sum 'C96 H92 Co2 K1 N7 O16'
_chemical_formula_moiety
;
(C78 H48 Co2 K1 N2 O12 1-)n,C2 H8 N1 1+,4(C4 H9 N1 O1)
;
_journal_coden_Cambridge 1295
_journal_volume 90
_journal_year 2018
_journal_page_first 65
_journal_name_full 'Inorg.Chem.Commun. '
loop_
_publ_author_name
"Guang-Hui Chen"
"Yan-Ping He"
"Shu-Hua Zhang"
"Jian Zhang"
_chemical_name_systematic
;
catena-[dimethylammonium 
bis(\m-4',4'',4'''-nitrilotri([1,1'-biphenyl]-4-carboxylato))-di-cobalt-potass
ium N,N-dimethylacetamide solvate]
;
_chemical_name_common
;
FIR-47
;
_cell_volume   4521.079
_exptl_crystal_colour 'red'
_exptl_crystal_description 'block'
_diffrn_ambient_temperature 293
_refine_special_details
;
Disordered dimethylammonium ions and N,N-dimethylacetamide solvent molecules 
were not modelled and the disordered density was taken into account using the 
SQUEEZE/PLATON procedure.
;
#These two values have been output from a single CSD field.
_refine_ls_R_factor_gt 0.0548
_refine_ls_wR_factor_gt 0.0548
_symmetry_cell_setting monoclinic
_symmetry_space_group_name_H-M 'P 21/c'
_symmetry_Int_Tables_number 14
loop_
_symmetry_equiv_pos_site_id
_symmetry_equiv_pos_as_xyz
1 x,y,z
2 -x,1/2+y,1/2-z
3 -x,-y,-z
4 x,-1/2-y,-1/2+z
_cell_length_a 7.6449(2)
_cell_length_b 27.8028(10)
_cell_length_c 21.4651(7)
_cell_angle_alpha 90
_cell_angle_beta 97.717(3)
_cell_angle_gamma 90
_cell_formula_units_Z 2
loop_
_atom_type_symbol
_atom_type_radius_bond
C 0.68
H 0.23
Co 1.26
K 2.03
N 0.68
O 0.68
loop_
_atom_site_label
_atom_site_type_symbol
_atom_site_fract_x
_atom_site_fract_y
_atom_site_fract_z
N1 N -0.7504(4) 0.36913(12) 0.49013(12)
Co1 Co 0.08251(5) 0.43684(2) 0.03474(2)
C1 C -1.1628(4) 0.26831(12) 0.48769(15)
C2 C -0.1445(4) 0.45901(12) 0.91936(14)
C3 C -0.2385(4) 0.44433(12) 0.85564(14)
C4 C -1.3013(4) 0.23151(12) 0.49102(16)
C5 C -0.6649(4) 0.37924(13) 0.43657(14)
C6 C -0.4006(4) 0.40963(14) 0.27659(15)
C7 C -0.4032(4) 0.41921(13) 0.73519(14)
C8 C -1.1500(4) 0.30795(13) 0.52659(17)
H1 H -1.23270 0.31210 0.55420
C9 C -0.4914(4) 0.40627(13) 0.67085(15)
C10 C -0.6615(4) 0.38104(13) 0.55068(14)
C11 C -0.3286(5) 0.38541(14) 0.77718(15)
H2 H -0.33510 0.35320 0.76550
C12 C -0.8923(4) 0.33636(13) 0.48594(14)
C13 C -1.5967(5) 0.21054(14) 0.50769(19)
H3 H -1.70890 0.22030 0.51450
C14 C -0.9063(5) 0.29792(14) 0.44541(16)
H4 H -0.82560 0.29440 0.41690
C15 C -1.5594(4) 0.16233(12) 0.50630(15)
C16 C -0.3155(5) 0.47860(13) 0.81464(16)
H5 H -0.31180 0.51060 0.82720
C17 C -0.4789(5) 0.40537(14) 0.21556(16)
H6 H -0.59700 0.39630 0.20750
C18 C -0.4941(4) 0.39924(13) 0.33128(15)
C19 C -1.2621(4) 0.18286(13) 0.48941(16)
H7 H -1.14940 0.17300 0.48330
C20 C -0.4844(5) 0.37691(15) 0.44033(16)
H8 H -0.41740 0.36860 0.47820
C21 C -0.5519(5) 0.35970(14) 0.65720(15)
H9 H -0.53600 0.33620 0.68830
C22 C -1.0398(5) 0.26421(13) 0.44652(17)
H10 H -1.04640 0.23830 0.41890
C23 C -0.2100(5) 0.42689(14) 0.17577(17)
C24 C -1.3904(4) 0.14865(13) 0.49694(16)
H11 H -1.36250 0.11610 0.49570
C25 C -0.3977(5) 0.46701(13) 0.75574(16)
H12 H -0.45000 0.49100 0.72940
C26 C -1.0184(5) 0.34153(14) 0.52574(16)
H13 H -1.01440 0.36800 0.55230
C27 C -0.6355(5) 0.34789(13) 0.59787(16)
H14 H -0.67480 0.31650 0.59000
C28 C -1.6949(4) 0.12609(12) 0.51651(15)
C29 C -0.2284(6) 0.4265(2) 0.28605(19)
H15 H -0.17520 0.43310 0.32670
C30 C -0.4030(5) 0.38659(16) 0.38949(17)
H16 H -0.28060 0.38470 0.39370
C31 C -0.2451(5) 0.39719(13) 0.83558(15)
H17 H -0.19240 0.37320 0.86190
C32 C -0.6748(5) 0.40095(16) 0.32826(16)
H18 H -0.74210 0.40910 0.29040
C33 C -0.7588(5) 0.39106(15) 0.37924(16)
H19 H -0.88140 0.39230 0.37510
C34 C -0.1022(6) 0.43278(14) 0.12213(18)
C35 C -0.3867(5) 0.41414(15) 0.16578(16)
H20 H -0.44400 0.41150 0.12490
C36 C -0.1334(5) 0.43367(17) 0.23583(19)
H21 H -0.01600 0.44330 0.24360
C37 C -1.4717(5) 0.24480(13) 0.49929(19)
H22 H -1.50190 0.27720 0.49920
C38 C -0.5190(6) 0.43911(15) 0.62287(18)
H23 H -0.48130 0.47070 0.63010
C39 C -0.6017(6) 0.42632(16) 0.56383(18)
H24 H -0.61680 0.44950 0.53230
O1 O -0.1730(4) 0.44563(11) 0.07081(12)
O2 O 0.0589(4) 0.42388(12) 0.13286(14)
O3 O -1.6623(3) 0.08235(9) 0.51253(12)
O4 O -1.8420(3) 0.13936(9) 0.52930(13)
O5 O -0.1875(3) 0.49766(8) 0.94145(10)
O6 O -0.0325(3) 0.43065(9) 0.94530(11)
K1 K -0.50000 0.50000 0.00000
N1B N -0.2496(4) 0.63087(12) -0.49013(12)
Co1B Co -1.08251(5) 0.56316(2) -0.03474(2)
C1B C 0.1628(4) 0.73169(12) -0.48769(15)
C2B C -0.8555(4) 0.54099(12) -0.91936(14)
C3B C -0.7615(4) 0.55567(12) -0.85564(14)
C4B C 0.3013(4) 0.76849(12) -0.49102(16)
C5B C -0.3351(4) 0.62076(13) -0.43657(14)
C6B C -0.5994(4) 0.59037(14) -0.27659(15)
C7B C -0.5968(4) 0.58079(13) -0.73519(14)
C8B C 0.1500(4) 0.69205(13) -0.52659(17)
H1B H 0.23270 0.68790 -0.55420
C9B C -0.5086(4) 0.59373(13) -0.67085(15)
C10B C -0.3385(4) 0.61896(13) -0.55068(14)
C11B C -0.6714(5) 0.61459(14) -0.77718(15)
H2B H -0.66490 0.64680 -0.76550
C12B C -0.1077(4) 0.66364(13) -0.48594(14)
C13B C 0.5967(5) 0.78946(14) -0.50769(19)
H3B H 0.70890 0.77970 -0.51450
C14B C -0.0937(5) 0.70208(14) -0.44541(16)
H4B H -0.17440 0.70560 -0.41690
C15B C 0.5594(4) 0.83767(12) -0.50630(15)
C16B C -0.6845(5) 0.52140(13) -0.81464(16)
H5B H -0.68820 0.48940 -0.82720
C17B C -0.5211(5) 0.59463(14) -0.21556(16)
H6B H -0.40300 0.60370 -0.20750
C18B C -0.5059(4) 0.60076(13) -0.33128(15)
C19B C 0.2621(4) 0.81714(13) -0.48941(16)
H7B H 0.14940 0.82700 -0.48330
C20B C -0.5156(5) 0.62309(15) -0.44033(16)
H8B H -0.58260 0.63140 -0.47820
C21B C -0.4481(5) 0.64030(14) -0.65720(15)
H9B H -0.46400 0.66380 -0.68830
C22B C 0.0398(5) 0.73579(13) -0.44652(17)
H10B H 0.04640 0.76170 -0.41890
C23B C -0.7900(5) 0.57311(14) -0.17577(17)
C24B C 0.3904(4) 0.85135(13) -0.49694(16)
H11B H 0.36250 0.88390 -0.49570
C25B C -0.6023(5) 0.53299(13) -0.75574(16)
H12B H -0.55000 0.50900 -0.72940
C26B C 0.0184(5) 0.65847(14) -0.52574(16)
H13B H 0.01440 0.63200 -0.55230
C27B C -0.3645(5) 0.65211(13) -0.59787(16)
H14B H -0.32520 0.68350 -0.59000
C28B C 0.6949(4) 0.87391(12) -0.51651(15)
C29B C -0.7716(6) 0.5735(2) -0.28605(19)
H15B H -0.82480 0.56690 -0.32670
C30B C -0.5970(5) 0.61341(16) -0.38949(17)
H16B H -0.71940 0.61530 -0.39370
C31B C -0.7549(5) 0.60281(13) -0.83558(15)
H17B H -0.80760 0.62680 -0.86190
C32B C -0.3252(5) 0.59905(16) -0.32826(16)
H18B H -0.25790 0.59090 -0.29040
C33B C -0.2412(5) 0.60894(15) -0.37924(16)
H19B H -0.11860 0.60770 -0.37510
C34B C -0.8978(6) 0.56722(14) -0.12213(18)
C35B C -0.6133(5) 0.58586(15) -0.16578(16)
H20B H -0.55600 0.58850 -0.12490
C36B C -0.8666(5) 0.56633(17) -0.23583(19)
H21B H -0.98400 0.55670 -0.24360
C37B C 0.4717(5) 0.75520(13) -0.49929(19)
H22B H 0.50190 0.72280 -0.49920
C38B C -0.4810(6) 0.56089(15) -0.62287(18)
H23B H -0.51870 0.52930 -0.63010
C39B C -0.3983(6) 0.57368(16) -0.56383(18)
H24B H -0.38320 0.55050 -0.53230
O1B O -0.8270(4) 0.55437(11) -0.07081(12)
O2B O -1.0589(4) 0.57612(12) -0.13286(14)
O3B O 0.6623(3) 0.91765(9) -0.51253(12)
O4B O 0.8420(3) 0.86064(9) -0.52930(13)
O5B O -0.8125(3) 0.50234(8) -0.94145(10)
O6B O -0.9675(3) 0.56935(9) -0.94530(11)
Co1* Co -0.91749(5) 0.43684(2) -0.96526(2)
Co1** Co 0.08251(5) 0.43684(2) 1.03474(2)
Co1A Co 0.91749(5) 0.93684(2) -0.53474(2)
Co1B* Co -1.08251(5) 0.56316(2) -1.03474(2)
Co1B** Co -0.08251(5) 0.56316(2) 0.96526(2)
Co1C Co -1.91749(5) 0.06316(2) 0.53474(2)
O3A O -1.3377(3) 0.58235(9) -0.01253(12)
O3A* O -0.3377(3) 0.58235(9) -0.01253(12)
O3C O -0.6623(3) 0.41765(9) 0.01253(12)
O3C* O 0.3377(3) 0.41765(9) 0.01253(12)
O4A O -1.1580(3) 0.63936(9) -0.02930(13)
O4C O 0.1580(3) 0.36064(9) 0.02930(13)
O5* O -1.1875(3) 0.49766(8) -0.05855(10)
O5** O -0.1875(3) 0.49766(8) -0.05855(10)
O5B* O -0.8125(3) 0.50234(8) 0.05855(10)
O5B** O 0.1875(3) 0.50234(8) 0.05855(10)
O6* O -0.0325(3) 0.43065(9) -0.05470(11)
O6B* O -0.9675(3) 0.56935(9) 0.05470(11)
K1* K -0.50000 0.50000 -1.00000
K1** K -0.50000 0.50000 1.00000
K1A K -1.50000 0.00000 0.50000
K1A* K 0.50000 1.00000 -0.50000
#END
