
#######################################################################
#
#                 Cambridge Crystallographic Data Centre
#                                CCDC
#
#######################################################################
#
# If this CIF has been generated from an entry in the Cambridge
# Structural Database, then it will include bibliographic, chemical,
# crystal, experimental, refinement or atomic coordinate data resulting
# from the CCDC's data processing and validation procedures.
#
#######################################################################

data_CSD_CIF_CEYYUC
_audit_creation_date 2013-07-06
_audit_creation_method CSD-ConQuest-V1
_database_code_CSD CEYYUC
_database_code_depnum_ccdc_archive 'CCDC 928205'
_chemical_formula_sum 'C36 H34 N4 O23 U2'
_chemical_formula_moiety
;
(C16 H10 O20 U2 2-)n,2(C10 H9 N2 1+),3(H2 O1)
;
_journal_coden_Cambridge 1290
_journal_year 2013
_journal_page_first 4563
_journal_name_full 'Eur.J.Inorg.Chem. '
loop_
_publ_author_name
"P.Thuery"
_chemical_name_systematic
;
catena-(bis(2,2'-Bipyridinium) bis(\m~3~-hydrogen 
cyclobutane-1,2,3,4-tetracarboxylato)-tetraoxo-di-uranium trihydrate)
;
_cell_volume   2095.629
_exptl_crystal_colour 'light yellow'
_exptl_crystal_density_diffrn 2.166
_exptl_crystal_description 'irregular'
_diffrn_ambient_temperature 150
#These two values have been output from a single CSD field.
_refine_ls_R_factor_gt 0.034
_refine_ls_wR_factor_gt 0.034
_symmetry_cell_setting monoclinic
_symmetry_space_group_name_H-M 'P 21'
_symmetry_Int_Tables_number 4
loop_
_symmetry_equiv_pos_site_id
_symmetry_equiv_pos_as_xyz
1 x,y,z
2 -x,1/2+y,-z
_cell_length_a 8.3551(3)
_cell_length_b 17.1370(8)
_cell_length_c 14.6771(6)
_cell_angle_alpha 90
_cell_angle_beta 94.279(3)
_cell_angle_gamma 90
_cell_formula_units_Z 2
loop_
_atom_type_symbol
_atom_type_radius_bond
C 0.68
H 0.23
N 0.68
O 0.68
U 1.96
loop_
_atom_site_label
_atom_site_type_symbol
_atom_site_fract_x
_atom_site_fract_y
_atom_site_fract_z
U1 U 0.69017(2) 0.188359(10) 0.374983(13)
U2 U 0.18492(2) 0.215881(11) 0.880864(12)
O1 O 0.6634(5) 0.0929(3) 0.4161(3)
O2 O 0.7194(5) 0.2827(3) 0.3340(3)
O3 O 0.2044(5) 0.1349(3) 0.8068(3)
O4 O 0.1652(5) 0.2978(3) 0.9514(3)
O5 O 0.8301(5) 0.2235(4) 0.5239(3)
O6 O 0.5687(5) 0.2504(4) 0.5081(3)
O7 O 0.9987(4) 0.2770(3) 0.7641(3)
O8 O 0.8840(5) 0.1973(4) 0.8563(3)
O9 O 0.4733(5) 0.2427(4) 0.8792(3)
O10 O 0.3174(5) 0.2983(3) 0.7715(3)
O11 O 0.6382(6) 0.4487(3) 0.5690(3)
H1 H 0.69210 0.49740 0.56620
O12 O 0.5869(6) 0.4835(3) 0.7108(3)
O13 O 0.3855(5) 0.1995(4) 0.3496(3)
O14 O 0.5195(5) 0.1626(3) 0.2330(3)
O15 O -0.1619(5) 0.1345(3) 0.2521(3)
O16 O -0.0179(5) 0.1646(3) 0.3788(3)
O17 O -0.0063(5) -0.0632(3) 0.2363(3)
H2 H -0.02900 -0.11810 0.22150
O18 O 0.1447(5) -0.0752(3) 0.1177(3)
O19 O 0.0826(5) 0.1360(3) 0.0018(3)
O20 O 0.3423(5) 0.1510(3) 0.0053(3)
C1 C 0.7229(8) 0.2996(4) 0.6416(4)
H3 H 0.81990 0.33190 0.64410
C2 C 0.7168(7) 0.2518(4) 0.7311(4)
H4 H 0.66090 0.20210 0.71960
C3 C 0.5990(8) 0.3158(4) 0.7670(4)
H5 H 0.65700 0.35290 0.80820
C4 C 0.5803(8) 0.3477(5) 0.6676(4)
H6 H 0.48080 0.32830 0.63580
C5 C 0.7062(7) 0.2544(4) 0.5525(4)
C6 C 0.8719(6) 0.2399(4) 0.7867(4)
C7 C 0.4580(8) 0.2840(5) 0.8080(4)
C8 C 0.5966(9) 0.4353(5) 0.6533(4)
C9 C 0.2324(6) 0.1516(4) 0.2166(4)
H7 H 0.17700 0.19950 0.19580
C10 C 0.1153(7) 0.0957(4) 0.2628(4)
H8 H 0.17280 0.06290 0.30920
C11 C 0.0871(8) 0.0525(4) 0.1721(4)
H9 H -0.00970 0.07290 0.13850
C12 C 0.2367(7) 0.0916(4) 0.1363(4)
H10 H 0.33100 0.05760 0.14410
C13 C 0.3903(7) 0.1707(4) 0.2699(4)
C14 C -0.0303(7) 0.1342(4) 0.3001(4)
C15 C 0.0829(8) -0.0341(4) 0.1712(4)
C16 C 0.2183(7) 0.1257(4) 0.0418(4)
O21 O 1.0876(6) 0.1311(4) 0.6052(3)
H11 H 1.11330 0.14890 0.66950
H12 H 0.98410 0.15650 0.59100
O22 O 0.6914(6) 0.5887(3) 0.5144(3)
H13 H 0.67380 0.62180 0.56840
H14 H 0.78310 0.60510 0.47990
O23 O 0.5829(8) 0.2767(4) 0.0851(4)
H15 H 0.57190 0.22960 0.10680
H16 H 0.56160 0.26870 0.02690
N1 N 0.6914(7) 0.0733(4) 0.9251(4)
H17 H 0.74050 0.10540 0.87960
N2 N 0.6763(8) 0.0533(3) 0.7459(4)
C17 C 0.7087(9) 0.0909(6) 1.0133(5)
H18 H 0.75770 0.13760 1.03190
C18 C 0.6552(10) 0.0410(5) 1.0771(5)
H19 H 0.66650 0.05330 1.13890
C19 C 0.5847(10) -0.0274(6) 1.0478(5)
H20 H 0.55040 -0.06250 1.09050
C20 C 0.5632(10) -0.0455(5) 0.9550(5)
H21 H 0.51220 -0.09140 0.93520
C21 C 0.6198(8) 0.0067(4) 0.8938(4)
C22 C 0.6083(8) -0.0045(4) 0.7922(4)
C23 C 0.5285(10) -0.0654(4) 0.7489(4)
H22 H 0.47560 -0.10220 0.78220
C24 C 0.5275(10) -0.0713(5) 0.6541(5)
H23 H 0.47880 -0.11350 0.62340
C25 C 0.5997(8) -0.0139(4) 0.6073(4)
H24 H 0.59960 -0.01590 0.54400
C26 C 0.6718(9) 0.0463(4) 0.6550(5)
H25 H 0.72100 0.08490 0.62240
N3 N 0.1372(7) 0.3228(4) 0.4132(3)
H26 H 0.13940 0.27570 0.37440
N4 N 0.0503(9) 0.3288(4) 0.2379(4)
C27 C 0.1865(9) 0.3090(5) 0.5018(4)
H27 H 0.24340 0.26380 0.51790
C28 C 0.1523(8) 0.3619(5) 0.5673(5)
H28 H 0.18850 0.35450 0.62820
C29 C 0.0606(10) 0.4279(6) 0.5401(5)
H29 H 0.03210 0.46370 0.58370
C30 C 0.0129(9) 0.4400(5) 0.4494(5)
H30 H -0.04610 0.48420 0.43170
C31 C 0.0530(8) 0.3859(4) 0.3843(4)
C32 C 0.0119(9) 0.3906(4) 0.2845(4)
C33 C -0.0717(11) 0.4541(5) 0.2460(5)
H31 H -0.10660 0.49430 0.28230
C34 C -0.1014(12) 0.4557(5) 0.1512(5)
H32 H -0.14890 0.49930 0.12260
C35 C -0.0608(13) 0.3936(5) 0.1013(5)
H33 H -0.08230 0.39310 0.03820
C36 C 0.0143(14) 0.3301(6) 0.1462(5)
H34 H 0.04070 0.28700 0.11200
U1* U -0.30983(2) 0.188359(10) 0.374983(13)
U2* U 0.18492(2) 0.215881(11) -0.119136(12)
U2** U 1.18492(2) 0.215881(11) 0.880864(12)
O7* O -0.0013(4) 0.2770(3) 0.7641(3)
O8* O -0.1160(5) 0.1973(4) 0.8563(3)
O15* O 0.8381(5) 0.1345(3) 0.2521(3)
O16* O 0.9821(5) 0.1646(3) 0.3788(3)
O19* O 0.0826(5) 0.1360(3) 1.0018(3)
O20* O 0.3423(5) 0.1510(3) 1.0053(3)
#END
