
#######################################################################
#
#                 Cambridge Crystallographic Data Centre
#                                CCDC
#
#######################################################################
#
# If this CIF has been generated from an entry in the Cambridge
# Structural Database, then it will include bibliographic, chemical,
# crystal, experimental, refinement or atomic coordinate data resulting
# from the CCDC's data processing and validation procedures.
#
#######################################################################

data_CSD_CIF_CEYZOX
_audit_creation_date 2013-07-06
_audit_creation_method CSD-ConQuest-V1
_database_code_CSD CEYZOX
_database_code_depnum_ccdc_archive 'CCDC 928201'
_chemical_formula_sum 'C17 H16 N3 O11 U2'
_chemical_formula_moiety
;
(C2 H3 O11 U2 1-)n,n(C10 H9 N2 1+),0.5n(C10 H8 N2)
;
_journal_coden_Cambridge 1290
_journal_year 2013
_journal_page_first 4563
_journal_name_full 'Eur.J.Inorg.Chem. '
loop_
_publ_author_name
"P.Thuery"
_chemical_name_systematic
;
catena-((2,2'-Bipyridinium) 
tris(\m~2~-hydroxo)-(\m~2~-oxalato)-tetraoxo-di-uranium 
hemikis(2,2'-bipyridine))
;
_cell_volume   2101.790
_exptl_crystal_colour 'light yellow'
_exptl_crystal_density_diffrn 2.89
_exptl_crystal_description 'irregular'
_diffrn_ambient_temperature 150
#These two values have been output from a single CSD field.
_refine_ls_R_factor_gt 0.029
_refine_ls_wR_factor_gt 0.029
_symmetry_cell_setting monoclinic
_symmetry_space_group_name_H-M 'P 21/n'
_symmetry_Int_Tables_number 14
loop_
_symmetry_equiv_pos_site_id
_symmetry_equiv_pos_as_xyz
1 x,y,z
2 1/2-x,1/2+y,1/2-z
3 -x,-y,-z
4 -1/2+x,-1/2-y,-1/2+z
_cell_length_a 9.7325(5)
_cell_length_b 19.1566(10)
_cell_length_c 11.6271(3)
_cell_angle_alpha 90
_cell_angle_beta 104.173(3)
_cell_angle_gamma 90
_cell_formula_units_Z 4
loop_
_atom_type_symbol
_atom_type_radius_bond
C 0.68
H 0.23
N 0.68
O 0.68
U 1.96
loop_
_atom_site_label
_atom_site_type_symbol
_atom_site_fract_x
_atom_site_fract_y
_atom_site_fract_z
U1 U 0.624915(15) 0.228401(8) 0.276975(12)
U2 U 0.226007(15) 0.263808(8) 0.155206(12)
O1 O 0.6795(3) 0.31352(15) 0.3281(2)
O2 O 0.5853(3) 0.14133(15) 0.2241(2)
O3 O 0.2112(3) 0.35009(15) 0.2073(2)
O4 O 0.2286(3) 0.17619(15) 0.1044(2)
O5 O 0.8867(3) 0.20555(16) 0.3431(2)
O6 O 1.0961(3) 0.22517(15) 0.3012(2)
O7 O 0.7535(3) 0.23558(14) 0.1196(2)
O8 O 0.9615(3) 0.25536(15) 0.0767(2)
O9 O 0.4533(3) 0.27605(15) 0.1189(2)
H1 H 0.46490 0.29030 0.04710
O10 O 0.4055(3) 0.23923(15) 0.3215(2)
H2 H 0.39180 0.24990 0.38460
O11 O 0.6718(3) 0.18758(15) 0.4676(2)
H3 H 0.66570 0.14420 0.49530
C1 C 0.9640(4) 0.2215(2) 0.2747(4)
C2 C 0.8852(4) 0.2391(2) 0.1436(3)
N1 N 0.1541(3) 0.39690(18) 0.4965(3)
H4 H 0.20430 0.37020 0.54910
N2 N 0.4056(4) 0.42713(19) 0.6405(3)
C3 C 0.0311(5) 0.3730(2) 0.4317(4)
H5 H 0.00080 0.32830 0.44490
C4 C -0.0509(4) 0.4143(2) 0.3457(3)
H6 H -0.13700 0.39840 0.29930
C5 C -0.0021(5) 0.4805(2) 0.3298(3)
H7 H -0.05540 0.50930 0.27100
C6 C 0.1246(4) 0.5047(2) 0.3998(3)
H8 H 0.15550 0.54960 0.38950
C7 C 0.2045(4) 0.4616(2) 0.4849(3)
C8 C 0.3390(4) 0.4795(2) 0.5696(3)
C9 C 0.3916(4) 0.5470(2) 0.5771(3)
H9 H 0.34330 0.58180 0.52780
C10 C 0.5178(5) 0.5617(2) 0.6594(4)
H10 H 0.55510 0.60660 0.66620
C11 C 0.5871(4) 0.5086(2) 0.7310(4)
H11 H 0.67200 0.51690 0.78660
C12 C 0.5273(5) 0.4427(2) 0.7179(4)
H12 H 0.57470 0.40710 0.76600
N3 N 0.8496(4) 0.5409(2) 0.0392(3)
C13 C 0.9290(4) 0.4898(2) 0.0094(3)
C14 C 0.8817(5) 0.4209(2) -0.0051(4)
H13 H 0.93620 0.38680 -0.02990
C15 C 0.7526(5) 0.4037(2) 0.0180(4)
H14 H 0.71900 0.35810 0.00830
C16 C 0.6751(5) 0.4551(3) 0.0552(4)
H15 H 0.59040 0.44470 0.07490
C17 C 0.7263(4) 0.5228(2) 0.0627(3)
H16 H 0.67190 0.55770 0.08530
U2* U 1.226007(15) 0.263808(8) 0.155206(12)
U2C U 0.726007(15) 0.236192(8) 0.655206(12)
O6* O 0.0961(3) 0.22517(15) 0.3012(2)
O8* O -0.0385(3) 0.25536(15) 0.0767(2)
O11C O 0.1718(3) 0.31242(15) -0.0324(2)
N3B N 1.1504(4) 0.4591(2) -0.0392(3)
C13B C 1.0710(4) 0.5102(2) -0.0094(3)
C14B C 1.1183(5) 0.5791(2) 0.0051(4)
H13B H 1.06380 0.61320 0.02990
C15B C 1.2474(5) 0.5963(2) -0.0180(4)
H14B H 1.28100 0.64190 -0.00830
C16B C 1.3249(5) 0.5449(3) -0.0552(4)
H15B H 1.40960 0.55530 -0.07490
C17B C 1.2737(4) 0.4772(2) -0.0627(3)
H16B H 1.32810 0.44230 -0.08530
#END
