
#######################################################################
#
#                 Cambridge Crystallographic Data Centre
#                                CCDC
#
#######################################################################
#
# If this CIF has been generated from an entry in the Cambridge
# Structural Database, then it will include bibliographic, chemical,
# crystal, experimental, refinement or atomic coordinate data resulting
# from the CCDC's data processing and validation procedures.
#
#######################################################################

data_CSD_CIF_CEZCOC
_audit_creation_date 2018-06-28
_audit_creation_method CSD-ConQuest-V1
_database_code_CSD CEZCOC
_database_code_depnum_ccdc_archive 'CCDC 1835021'
_chemical_formula_sum 'C78 H222 Cu6 Fe2 N12 Ni4 O118'
_chemical_formula_moiety
;
(C39 H36 Cu3 N6 Ni2 O21 4-)2n,0.5n(H12 Fe2 O8 2+),n(H12 Fe1 O6 3+),66n(H2 O1)
;
_journal_coden_Cambridge 4
_journal_volume 140
_journal_year 2018
_journal_page_first 8827
_journal_name_full 'J.Am.Chem.Soc. '
loop_
_publ_author_name
"M.Tejeda-Serrano"
"M.Mon"
"B.Ross"
"F.Gonell"
"J.Ferrando-Soria"
"A.Corma"
"A.Leyva-Perez"
"D.Armentano"
"E.Pardo"
_chemical_name_systematic
;
catena-(hexa-aqua-iron(iii) hemikis(bis(\m-oxo)-hexa-aqua-di-iron(iii)) 
bis(tris(\m-2,2'-[(2,4,6-trimethyl-1,3-phenylene)diazanediyl]bis(oxoacetato))-
triaqua-tri-copper(ii)-di-nickel(ii)) hexahexacontahydrate)
;
_cell_volume  20502.014
_exptl_crystal_colour 'brown'
_exptl_crystal_density_diffrn 1.278
_exptl_crystal_description 'prism'
_exptl_crystal_preparation 'single crystal to single crystal transformation'
_diffrn_ambient_temperature 90
_refine_special_details
;
The structure is disordered. The SQUEEZE/PLATON program was used to model the 
disordered water molecules.
;
#These two values have been output from a single CSD field.
_refine_ls_R_factor_gt 0.1472
_refine_ls_wR_factor_gt 0.1472
_symmetry_cell_setting tetragonal
_symmetry_space_group_name_H-M 'P 4/m m m'
_symmetry_Int_Tables_number 123
loop_
_symmetry_equiv_pos_site_id
_symmetry_equiv_pos_as_xyz
1 x,y,z
2 -x,-y,z
3 -y,x,z
4 y,-x,z
5 -x,y,-z
6 x,-y,-z
7 y,x,-z
8 -y,-x,-z
9 -x,-y,-z
10 x,y,-z
11 y,-x,-z
12 -y,x,-z
13 x,-y,z
14 -x,y,z
15 -y,-x,z
16 y,x,z
_cell_length_a 36.382(3)
_cell_length_b 36.382(3)
_cell_length_c 15.4890(15)
_cell_angle_alpha 90
_cell_angle_beta 90
_cell_angle_gamma 90
_cell_formula_units_Z 4
loop_
_atom_type_symbol
_atom_type_radius_bond
C 0.68
H 0.23
Cu 1.32
Fe 1.52
N 0.68
Ni 1.24
O 0.68
loop_
_atom_site_label
_atom_site_type_symbol
_atom_site_fract_x
_atom_site_fract_y
_atom_site_fract_z
Cu1 Cu 0.50000 0.82879(5) 0.77117(12)
O1 O 0.5356(2) 0.85632(12) 0.6979(3)
N1 N 0.54477(14) 0.81351(13) 0.8378(4)
O2 O 0.50000 0.7806(3) 0.6584(7)
C1 C 0.5682(3) 0.85092(13) 0.7185(4)
C2 C 0.5775(4) 0.82470(13) 0.8045(4)
C3 C 0.54709(6) 0.7943(3) 0.9238(6)
O3 O 0.5965(2) 0.86261(12) 0.6832(4)
O4 O 0.6088(2) 0.81983(13) 0.8233(4)
C4 C 0.54708(12) 0.8152(4) 1.00000
C5 C 0.54910(11) 0.7562(3) 0.9206(6)
Ni1 Ni 0.64595(5) 0.85225(6) 0.75052(10)
C6 C 0.54485(17) 0.8563(4) 1.00000
C7 C 0.55132(19) 0.7370(4) 1.00000
C8 C 0.54910(17) 0.7341(3) 0.8386(6)
O5 O 0.66086(17) 0.81091(18) 0.6669(4)
O6 O 0.69295(16) 0.83649(17) 0.8073(4)
O7 O 0.67089(12) 0.8979(3) 0.6846(4)
O8 O 0.63502(13) 0.8927(3) 0.8337(4)
H1 H 0.55430 0.71110 1.00000
H2 H 0.52370 0.72820 0.82240
H3 H 0.56290 0.71130 0.84750
H4 H 0.56060 0.74840 0.79230
C9 C 0.68821(19) 0.7930(2) 0.6936(4)
C10 C 0.7082(2) 0.8051(2) 0.7722(5)
C11 C 0.66398(13) 0.9283(5) 0.7152(5)
C12 C 0.64331(13) 0.9246(5) 0.8011(5)
N2 N 0.70225(14) 0.76346(16) 0.6598(4)
O9 O 0.73465(18) 0.78832(18) 0.7993(4)
O10 O 0.67076(14) 0.9604(3) 0.6889(4)
N3 N 0.63399(13) 0.9560(2) 0.8418(4)
Cu2 Cu 0.74443(4) 0.74443(4) 0.72859(13)
C13 C 0.68721(9) 0.74794(10) 0.5747(4)
Cu3 Cu 0.64881(11) 1.00000 0.7679(2)
C14 C 0.61127(19) 0.95392(8) 0.9255(4)
O11 O 0.7130(4) 0.7130(4) 0.8363(13)
C15 C 0.69990(16) 0.76376(17) 0.50000
C16 C 0.66235(14) 0.71964(14) 0.5765(4)
O12 O 0.6007(6) 1.00000 0.6519(11)
C17 C 0.57382(19) 0.95080(12) 0.9199(5)
C18 C 0.6316(3) 0.95543(18) 1.00000
C19 C 0.7284(3) 0.7962(3) 0.50000
C20 C 0.6491(2) 0.7060(2) 0.50000
C21 C 0.6470(3) 0.7006(4) 0.6576(8)
C22 C 0.5578(5) 0.9493(2) 1.00000
C23 C 0.5494(5) 0.9490(2) 0.8388(9)
C24 C 0.6736(6) 0.9589(3) 1.00000
H5 H 0.63090 0.68720 0.50000
H6 H 0.66710 0.69560 0.69800
H7 H 0.63510 0.67750 0.64120
H8 H 0.62890 0.71680 0.68540
H9 H 0.53180 0.94680 1.00000
H10 H 0.55550 0.96950 0.80030
H11 H 0.52350 0.95060 0.85580
H12 H 0.55370 0.92570 0.80880
Fe1 Fe 0.81200(11) 0.81200(11) 1.00000
O13 O 0.7546(8) 0.7999(18) 0.978(4)
O14 O 0.8159(9) 0.8159(9) 0.8643(15)
O15 O 0.795(2) 0.8676(8) 1.00000
Fe2 Fe 0.07371(18) 0.54257(19) 0.50000
O16 O 0.0713(4) 0.5808(3) 0.5919(8)
O17 O 0.1264(10) 0.5594(8) 0.50000
O18 O 0.0806(4) 0.50000 0.3983(9)
H13? H 0.68440 0.93780 0.97020
H14? H 0.68250 0.95970 1.05970
H15? H 0.68070 0.98160 0.97010
H16? H 0.56720 0.86650 0.97430
H17? H 0.54240 0.86520 1.05950
H18? H 0.52340 0.86420 0.96620
H19? H 0.73190 0.80510 0.55910
H20? H 0.71920 0.81630 0.46370
H21? H 0.75200 0.78750 0.47710
O1I O 0.5356(2) 0.85632(12) 1.3021(3)
N1I N 0.54477(14) 0.81351(13) 1.1622(4)
C1I C 0.5682(3) 0.85092(13) 1.2815(4)
C2I C 0.5775(4) 0.82470(13) 1.1955(4)
C3I C 0.54709(6) 0.7943(3) 1.0762(6)
O3I O 0.5965(2) 0.86261(12) 1.3168(4)
O4I O 0.6088(2) 0.81983(13) 1.1767(4)
C5I C 0.54910(11) 0.7562(3) 1.0794(6)
C8I C 0.54910(17) 0.7341(3) 1.1614(6)
H2I H 0.52370 0.72820 1.17760
H3I H 0.56290 0.71130 1.15250
H4I H 0.56060 0.74840 1.20770
O5I O 0.66086(17) 0.81091(18) 0.3331(4)
O6I O 0.69295(16) 0.83649(17) 0.1927(4)
C9I C 0.68821(19) 0.7930(2) 0.3064(4)
C10I C 0.7082(2) 0.8051(2) 0.2278(5)
N2I N 0.70225(14) 0.76346(16) 0.3402(4)
O9I O 0.73465(18) 0.78832(18) 0.2007(4)
C13I C 0.68721(9) 0.74794(10) 0.4253(4)
C16I C 0.66235(14) 0.71964(14) 0.4235(4)
C21I C 0.6470(3) 0.7006(4) 0.3424(8)
H6I H 0.66710 0.69560 0.30200
H7I H 0.63510 0.67750 0.35880
H8I H 0.62890 0.71680 0.31460
O7I O 0.67089(12) 0.8979(3) 1.3154(4)
O8I O 0.63502(13) 0.8927(3) 1.1663(4)
C11I C 0.66398(13) 0.9283(5) 1.2848(5)
C12I C 0.64331(13) 0.9246(5) 1.1989(5)
O10I O 0.67076(14) 0.9604(3) 1.3111(4)
N3I N 0.63399(13) 0.9560(2) 1.1582(4)
C14I C 0.61127(19) 0.95392(8) 1.0745(4)
C17I C 0.57382(19) 0.95080(12) 1.0801(5)
C23I C 0.5494(5) 0.9490(2) 1.1612(9)
H10I H 0.55550 0.96950 1.19970
H11I H 0.52350 0.95060 1.14420
H12I H 0.55370 0.92570 1.19120
Ni1I Ni 0.64595(5) 0.85225(6) 1.24948(10)
Cu1D Cu 0.50000 0.82879(5) 1.22883(12)
O1M O 0.4644(2) 0.85632(12) 0.6979(3)
N1M N 0.45523(14) 0.81351(13) 0.8378(4)
Ni1I* Ni 0.64595(5) 0.85225(6) 0.24948(10)
O5I* O 0.66086(17) 0.81091(18) 1.3331(4)
O6I* O 0.69295(16) 0.83649(17) 1.1927(4)
N2O N 0.76346(14) 0.70225(16) 0.6598(4)
O9O O 0.78832(18) 0.73465(18) 0.7993(4)
O10L O 0.67076(14) 1.0396(3) 0.6889(4)
N3L N 0.63399(13) 1.0440(2) 0.8418(4)
Cu2F Cu 0.74443(4) 0.74443(4) 0.27141(13)
Cu3E Cu 0.64881(11) 1.00000 1.2321(2)
O13I O 0.7546(8) 0.7999(18) 1.022(4)
O13F O 0.7999(8) 0.7546(18) 1.022(4)
O14F O 0.8159(9) 0.8159(9) 1.1357(15)
O15F O 0.8676(20) 0.7950(8) 1.00000
O13O O 0.7999(8) 0.7546(18) 0.978(4)
Fe2E Fe 0.07371(18) 0.45743(19) 0.50000
O16E O 0.0713(4) 0.4192(3) 0.4081(8)
O17E O 0.1264(10) 0.4406(8) 0.50000
O18E O 0.0806(4) 0.50000 0.6017(9)
O16I O 0.0713(4) 0.5808(3) 0.4081(8)
O16L O 0.0713(4) 0.4192(3) 0.5919(8)
#END
