
#######################################################################
#
#                 Cambridge Crystallographic Data Centre
#                                CCDC
#
#######################################################################
#
# If this CIF has been generated from an entry in the Cambridge
# Structural Database, then it will include bibliographic, chemical,
# crystal, experimental, refinement or atomic coordinate data resulting
# from the CCDC's data processing and validation procedures.
#
#######################################################################

data_CSD_CIF_CEZMUR
_audit_creation_date 2013-07-06
_audit_creation_method CSD-ConQuest-V1
_database_code_CSD CEZMUR
_database_code_depnum_ccdc_archive 'CCDC 917420'
_chemical_formula_sum 'C18 H18 Na2 O25 U2'
_chemical_formula_moiety
;
(C18 H10 Na1 O21 U2 1-)n,n(H8 Na1 O4 1+)
;
_journal_coden_Cambridge 182
_journal_volume 49
_journal_year 2013
_journal_page_first 6659
_journal_name_full 'Chem.Commun. '
loop_
_publ_author_name
"Hao Wang"
"Ze Chang"
"Yue Li"
"Rong-Mei Wen"
"Xian-He Bu"
_chemical_name_systematic
;
catena-(Tetra-aqua-sodium 
bis(\m~4~-furan-2,5-dicarboxylato)-(\m~2~-furan-2,5-dicarboxylato)-diaqua-tetr
aoxo-sodium-di-uranium)
;
_cell_volume   3012.557
_exptl_crystal_colour 'yellow'
_exptl_crystal_density_diffrn 2.523
_exptl_crystal_description 'block'
_diffrn_ambient_temperature 293
#These two values have been output from a single CSD field.
_refine_ls_R_factor_gt 0.0335
_refine_ls_wR_factor_gt 0.0335
loop_
_citation_database_id_CSD
_citation_special_details
CEZNAY "is a stereoisomer of this entry"
_symmetry_cell_setting orthorhombic
_symmetry_space_group_name_H-M 'C 2 2 21'
_symmetry_Int_Tables_number 20
loop_
_symmetry_equiv_pos_site_id
_symmetry_equiv_pos_as_xyz
1 x,y,z
2 -x,-y,1/2+z
3 -x,y,1/2-z
4 x,-y,-z
5 1/2+x,1/2+y,z
6 1/2-x,1/2-y,1/2+z
7 1/2-x,1/2+y,1/2-z
8 1/2+x,1/2-y,-z
_cell_length_a 7.9674(16)
_cell_length_b 17.755(4)
_cell_length_c 21.296(4)
_cell_angle_alpha 90
_cell_angle_beta 90
_cell_angle_gamma 90
_cell_formula_units_Z 4
loop_
_atom_type_symbol
_atom_type_radius_bond
C 0.68
H 0.23
Na 1.66
O 0.68
U 1.96
loop_
_atom_site_label
_atom_site_type_symbol
_atom_site_fract_x
_atom_site_fract_y
_atom_site_fract_z
O1 O 0.6705(10) 0.8064(4) 0.6117(5)
O2 O 0.8114(9) 0.8997(4) 0.5704(3)
C1 C 0.8007(14) 0.8304(6) 0.5869(5)
U1 U 1.03057(5) 0.428378(19) 0.618092(18)
O3 O 0.9216(9) 0.5578(4) 0.6161(4)
O4 O 0.7518(10) 0.4388(5) 0.6714(4)
O5 O 1.1722(10) 0.5445(4) 0.5747(4)
O6 O 0.8715(11) 0.3277(4) 0.6691(4)
C2 C 0.9424(13) 0.7781(5) 0.5749(4)
C3 C 0.6189(13) 0.3367(6) 0.7229(5)
O7 O 0.9103(9) 0.7051(4) 0.5899(4)
O8 O 0.50000 0.3838(6) 0.75000
O9 O 1.1346(11) 0.4463(4) 0.6897(4)
O10 O 0.9280(9) 0.4104(4) 0.5462(3)
C4 C 1.0577(13) 0.6665(5) 0.5773(4)
C5 C 1.0511(15) 0.5859(5) 0.5884(5)
C6 C 1.0994(14) 0.7875(6) 0.5544(5)
H1 H 1.15040 0.83180 0.54110
C7 C 1.1730(13) 0.7121(6) 0.5577(5)
H2 H 1.28290 0.69930 0.54760
C8 C 0.7522(15) 0.3712(6) 0.6868(5)
Na1 Na 0.8869(10) 1.00000 0.50000
O11 O 1.0831(16) 0.9404(8) 0.4385(7)
C9 C 0.5725(17) 0.2639(7) 0.7324(5)
H3 H 0.62880 0.22150 0.71770
Na2 Na 0.50000 0.6145(4) 0.75000
O12 O 0.445(3) 0.6752(8) 0.8337(6)
O13 O 0.262(3) 0.5724(14) 0.731(2)
O4B O 0.2482(10) 0.4388(5) 0.8286(4)
O6B O 0.1285(11) 0.3277(4) 0.8309(4)
C3B C 0.3811(13) 0.3367(6) 0.7771(5)
C8B C 0.2478(15) 0.3712(6) 0.8132(5)
C9B C 0.4275(17) 0.2639(7) 0.7676(5)
H3B H 0.37120 0.22150 0.78230
O1B O 0.3295(10) 0.8064(4) 0.8883(5)
O2B O 0.1886(9) 0.8997(4) 0.9296(3)
C1B C 0.1993(14) 0.8304(6) 0.9131(5)
U1B U -0.03057(5) 0.428378(19) 0.881908(18)
O3B O 0.0784(9) 0.5578(4) 0.8839(4)
O5B O -0.1722(10) 0.5445(4) 0.9253(4)
C2B C 0.0576(13) 0.7781(5) 0.9251(4)
O7B O 0.0897(9) 0.7051(4) 0.9101(4)
O9B O -0.1346(11) 0.4463(4) 0.8103(4)
O10B O 0.0720(9) 0.4104(4) 0.9538(3)
C4B C -0.0577(13) 0.6665(5) 0.9227(4)
C5B C -0.0511(15) 0.5859(5) 0.9116(5)
C6B C -0.0994(14) 0.7875(6) 0.9456(5)
H1B H -0.15040 0.83180 0.95890
C7B C -0.1730(13) 0.7121(6) 0.9423(5)
H2B H -0.28290 0.69930 0.95240
O11C O 1.0831(16) 1.0596(8) 0.5615(7)
O1D O 1.1705(10) 0.3064(4) 0.6117(5)
O1F O -0.1705(10) 0.3064(4) 0.8883(5)
O2C O 0.8114(9) 1.1003(4) 0.4296(3)
O2D O 1.3114(9) 0.3997(4) 0.5704(3)
O2F O -0.3114(9) 0.3997(4) 0.9296(3)
U1D U 0.53057(5) 0.928378(19) 0.618092(18)
U1F U 0.46943(5) 0.928378(19) 0.881908(18)
O5D O 0.6722(10) 1.0445(4) 0.5747(4)
O5G O 0.6722(10) 0.9555(4) 0.4253(4)
Na1A Na 0.1131(10) 1.00000 1.00000
Na1D Na 1.3869(10) 0.50000 0.50000
Na1E Na -0.3869(10) 0.50000 1.00000
O12B O 0.555(3) 0.6752(8) 0.6663(6)
O13B O 0.738(3) 0.5724(14) 0.769(2)
#END
