
#######################################################################
#
#                 Cambridge Crystallographic Data Centre
#                                CCDC
#
#######################################################################
#
# If this CIF has been generated from an entry in the Cambridge
# Structural Database, then it will include bibliographic, chemical,
# crystal, experimental, refinement or atomic coordinate data resulting
# from the CCDC's data processing and validation procedures.
#
#######################################################################

data_CSD_CIF_CEZYUE
_audit_creation_date 2018-06-29
_audit_creation_method CSD-ConQuest-V1
_database_code_CSD CEZYUE
_database_code_depnum_ccdc_archive 'CCDC 1852378'
_chemical_formula_sum 'C103 H99 N11 O29 Zn5'
_chemical_formula_moiety
;
2(C2 H8 N1 1+),n(C90 H62 N6 O26 Zn5 2-),3(C3 H7 N1 O1)
;
_journal_coden_Cambridge 1078
_journal_year 2018
_journal_name_full 'CSD Communication(Private Communication) '
loop_
_publ_author_name
"Meng Qinghua"
_chemical_name_systematic
;
catena-[bis(dimethylammonium) 
tetrakis(\m-4,4',4''-nitrilotribenzoato)-bis(N,N-dimethylformamide)-penta-zinc
(ii) N,N-dimethylformamide solvate]
;
_cell_volume   5142.734
_exptl_special_details
;
antitumour activity

;
_diffrn_ambient_temperature 293
_refine_special_details
;
Disordered cation and solvent molecules were not modelled and the disordered 
density was taken into account using the SQUEEZE/PLATON procedure. The unit 
cell was found to contain a void of 1390 A$3! holding 373 electrons.
;
#These two values have been output from a single CSD field.
_refine_ls_R_factor_gt 0.098
_refine_ls_wR_factor_gt 0.098
_symmetry_cell_setting monoclinic
_symmetry_space_group_name_H-M 'P 21/c'
_symmetry_Int_Tables_number 14
loop_
_symmetry_equiv_pos_site_id
_symmetry_equiv_pos_as_xyz
1 x,y,z
2 -x,1/2+y,1/2-z
3 -x,-y,-z
4 x,-1/2-y,-1/2+z
_cell_length_a 14.6611(11)
_cell_length_b 23.3118(11)
_cell_length_c 15.7765(13)
_cell_angle_alpha 90
_cell_angle_beta 107.491(8)
_cell_angle_gamma 90
_cell_formula_units_Z 2
loop_
_atom_type_symbol
_atom_type_radius_bond
C 0.68
H 0.23
N 0.68
O 0.68
Zn 1.22
loop_
_atom_site_label
_atom_site_type_symbol
_atom_site_fract_x
_atom_site_fract_y
_atom_site_fract_z
Zn1 Zn 0.26552(5) 1.06124(3) 0.41279(5)
Zn2 Zn -0.24383(5) 0.69905(3) 0.19985(5)
Zn3 Zn 0.50000 0.50000 0.00000
O1 O 0.6472(5) 0.6242(3) 0.1378(6)
O2 O 0.5410(6) 0.5949(3) 0.0143(5)
O3 O -0.1721(5) 0.6590(4) 0.1009(5)
O4 O 0.3846(6) 0.5108(3) 0.0625(5)
O5 O 0.3871(6) 0.9841(3) 0.3631(5)
O6 O 0.2689(6) 0.4478(4) 0.0566(5)
O7 O 0.6609(7) 0.7225(4) 0.6989(5)
O8 O 0.2357(6) 0.9743(4) 0.3608(7)
O9 O 0.6457(7) 0.7550(4) 0.5658(5)
O10 O -0.1019(6) 0.5741(4) 0.1223(6)
N1 N 0.2666(6) 0.7332(4) 0.1888(7)
N2 N 0.3471(8) 0.5486(4) 0.4526(5)
C1 C 0.3319(7) 0.5017(4) 0.1890(6)
O11 O 0.2670(7) 0.3317(5) 0.6700(6)
C2 C 0.5622(6) 0.6224(3) 0.0859(7)
C3 C 0.4885(6) 0.6512(4) 0.1147(6)
C4 C 0.3276(7) 0.4856(4) 0.0966(6)
C5 C 0.3113(8) 0.9561(4) 0.3458(6)
C6 C 0.6219(8) 0.7216(4) 0.6140(7)
C7 C 0.5035(6) 0.6732(4) 0.2007(7)
H1 H 0.56333 0.66926 0.24252
C8 C 0.4111(7) 0.5301(4) 0.2419(6)
H2 H 0.46208 0.53813 0.22024
C9 C -0.0981(7) 0.6291(5) 0.1181(6)
C10 C -0.0026(6) 0.6554(4) 0.1366(7)
C11 C 0.3407(6) 0.7060(4) 0.1626(8)
C12 C 0.3419(8) 0.5350(4) 0.3637(6)
C13 C 0.2824(7) 0.7870(4) 0.2308(8)
C14 C 0.3950(7) 0.6571(5) 0.0554(7)
H3 H 0.38159 0.64308 -0.00220
C15 C 0.4152(8) 0.5469(5) 0.3287(7)
H4 H 0.46868 0.56656 0.36323
O12 O 0.1869(7) 0.3985(6) 0.7200(8)
C16 C 0.3151(8) 0.5086(5) 0.5052(6)
C17 C 0.3046(6) 0.8956(4) 0.3092(6)
C18 C 0.4318(6) 0.7004(4) 0.2243(7)
H5 H 0.44357 0.71512 0.28141
C19 C 0.5437(8) 0.6785(4) 0.5761(6)
C20 C 0.5365(7) 0.6281(4) 0.6214(6)
H6 H 0.57672 0.62276 0.67896
C21 C 0.3621(7) 0.8792(4) 0.2585(7)
H7 H 0.40908 0.90388 0.25154
C22 C 0.1766(6) 0.7072(4) 0.1700(8)
C23 C 0.3251(7) 0.6827(5) 0.0809(8)
H8 H 0.26385 0.68440 0.04084
C24 C 0.2581(8) 0.4893(5) 0.2262(8)
H9 H 0.20456 0.46949 0.19213
C25 C 0.4714(8) 0.5863(4) 0.5829(6)
H10 H 0.46828 0.55283 0.61407
C26 C 0.3495(7) 0.8256(4) 0.2178(8)
H11 H 0.38642 0.81536 0.18142
C27 C 0.4098(8) 0.5939(4) 0.4970(7)
C28 C 0.2621(7) 0.5052(5) 0.3092(6)
H12 H 0.21140 0.49633 0.33092
C29 C 0.4791(10) 0.6878(5) 0.4914(8)
H13 H 0.48280 0.72152 0.46104
C30 C 0.0032(8) 0.7128(5) 0.1183(9)
H14 H -0.05216 0.73447 0.09639
C31 C 0.2761(9) 0.5243(6) 0.5690(8)
H15 H 0.26776 0.56313 0.57810
C32 C 0.4087(9) 0.6469(5) 0.4519(7)
H16 H 0.36273 0.65424 0.39787
C33 C 0.3342(9) 0.4489(5) 0.4979(9)
H17 H 0.36432 0.43657 0.45708
C34 C 0.2375(7) 0.8580(4) 0.3221(8)
H18 H 0.19589 0.86956 0.35314
C35 C 0.0946(7) 0.7390(5) 0.1330(9)
H19 H 0.09908 0.77717 0.11778
C36 C 0.3080(9) 0.4102(5) 0.5510(9)
H20 H 0.32105 0.37146 0.54619
C37 C 0.2324(8) 0.8033(5) 0.2888(8)
H21 H 0.19429 0.77634 0.30560
C38 C 0.0802(7) 0.6236(5) 0.1672(9)
H22 H 0.07581 0.58427 0.17487
C39 C 0.2481(10) 0.4846(6) 0.6212(8)
H23 H 0.21933 0.49708 0.66296
C40 C 0.1689(8) 0.6485(5) 0.1866(10)
H24 H 0.22362 0.62662 0.21069
C41 C 0.2621(8) 0.4275(6) 0.6124(8)
C42 C 0.2372(9) 0.3830(8) 0.6716(9)
O13 O -0.1099(13) 0.7558(9) 0.2684(12)
N3 N 0.0323(14) 0.7283(9) 0.3705(12)
C43 C -0.0552(15) 0.7224(13) 0.3021(13)
H25 H -0.07021 0.68507 0.28171
C44 C 0.097(2) 0.6812(12) 0.408(2)
H26 H 0.10126 0.65616 0.36117
H27 H 0.07218 0.66010 0.44884
H28 H 0.15873 0.69607 0.43888
C45 C 0.068(2) 0.7831(11) 0.411(2)
H29 H 0.06693 0.81068 0.36563
H30 H 0.13275 0.77854 0.44894
H31 H 0.02873 0.79638 0.44596
Zn1B Zn -0.26552(5) -0.06124(3) 0.58721(5)
Zn2B Zn 0.24383(5) 0.30095(3) 0.80015(5)
O1B O -0.6472(5) 0.3758(3) 0.8622(6)
O2B O -0.5410(6) 0.4051(3) 0.9857(5)
O3B O 0.1721(5) 0.3410(4) 0.8991(5)
O4B O -0.3846(6) 0.4892(3) 0.9375(5)
O5B O -0.3871(6) 0.0159(3) 0.6369(5)
O6B O -0.2689(6) 0.5522(4) 0.9434(5)
O7B O -0.6609(7) 0.2775(4) 0.3011(5)
O8B O -0.2357(6) 0.0257(4) 0.6392(7)
O9B O -0.6457(7) 0.2450(4) 0.4342(5)
O10B O 0.1019(6) 0.4259(4) 0.8777(6)
N1B N -0.2666(6) 0.2668(4) 0.8112(7)
N2B N -0.3471(8) 0.4514(4) 0.5474(5)
C1B C -0.3319(7) 0.4983(4) 0.8110(6)
O11B O -0.2670(7) 0.6683(5) 0.3300(6)
C2B C -0.5622(6) 0.3776(3) 0.9141(7)
C3B C -0.4885(6) 0.3488(4) 0.8853(6)
C4B C -0.3276(7) 0.5144(4) 0.9034(6)
C5B C -0.3113(8) 0.0439(4) 0.6542(6)
C6B C -0.6219(8) 0.2784(4) 0.3860(7)
C7B C -0.5035(6) 0.3268(4) 0.7993(7)
H1B H -0.56333 0.33074 0.75748
C8B C -0.4111(7) 0.4699(4) 0.7581(6)
H2B H -0.46208 0.46187 0.77976
C9B C 0.0981(7) 0.3709(5) 0.8819(6)
C10B C 0.0026(6) 0.3446(4) 0.8634(7)
C11B C -0.3407(6) 0.2940(4) 0.8374(8)
C12B C -0.3419(8) 0.4650(4) 0.6363(6)
C13B C -0.2824(7) 0.2130(4) 0.7692(8)
C14B C -0.3950(7) 0.3429(5) 0.9446(7)
H3B H -0.38159 0.35692 1.00220
C15B C -0.4152(8) 0.4531(5) 0.6713(7)
H4B H -0.46868 0.43344 0.63677
O12B O -0.1869(7) 0.6015(6) 0.2800(8)
C16B C -0.3151(8) 0.4914(5) 0.4948(6)
C17B C -0.3046(6) 0.1044(4) 0.6908(6)
C18B C -0.4318(6) 0.2996(4) 0.7757(7)
H5B H -0.44357 0.28488 0.71859
C19B C -0.5437(8) 0.3215(4) 0.4239(6)
C20B C -0.5365(7) 0.3719(4) 0.3786(6)
H6B H -0.57672 0.37724 0.32104
C21B C -0.3621(7) 0.1208(4) 0.7415(7)
H7B H -0.40908 0.09612 0.74846
C22B C -0.1766(6) 0.2928(4) 0.8300(8)
C23B C -0.3251(7) 0.3173(5) 0.9191(8)
H8B H -0.26385 0.31560 0.95916
C24B C -0.2581(8) 0.5107(5) 0.7738(8)
H9B H -0.20456 0.53051 0.80787
C25B C -0.4714(8) 0.4137(4) 0.4171(6)
H10B H -0.46828 0.44717 0.38593
C26B C -0.3495(7) 0.1744(4) 0.7822(8)
H11B H -0.38642 0.18464 0.81858
C27B C -0.4098(8) 0.4061(4) 0.5030(7)
C28B C -0.2621(7) 0.4948(5) 0.6908(6)
H12B H -0.21140 0.50367 0.66908
C29B C -0.4791(10) 0.3122(5) 0.5086(8)
H13B H -0.48280 0.27848 0.53896
C30B C -0.0032(8) 0.2872(5) 0.8817(9)
H14B H 0.05216 0.26553 0.90361
C31B C -0.2761(9) 0.4757(6) 0.4310(8)
H15B H -0.26776 0.43687 0.42190
C32B C -0.4087(9) 0.3531(5) 0.5481(7)
H16B H -0.36273 0.34576 0.60213
C33B C -0.3342(9) 0.5511(5) 0.5021(9)
H17B H -0.36432 0.56343 0.54292
C34B C -0.2375(7) 0.1420(4) 0.6779(8)
H18B H -0.19589 0.13044 0.64686
C35B C -0.0946(7) 0.2610(5) 0.8670(9)
H19B H -0.09908 0.22283 0.88222
C36B C -0.3080(9) 0.5898(5) 0.4490(9)
H20B H -0.32105 0.62854 0.45381
C37B C -0.2324(8) 0.1967(5) 0.7112(8)
H21B H -0.19429 0.22366 0.69440
C38B C -0.0802(7) 0.3764(5) 0.8328(9)
H22B H -0.07581 0.41573 0.82513
C39B C -0.2481(10) 0.5154(6) 0.3788(8)
H23B H -0.21933 0.50292 0.33704
C40B C -0.1689(8) 0.3515(5) 0.8134(10)
H24B H -0.22362 0.37338 0.78931
C41B C -0.2621(8) 0.5725(6) 0.3876(8)
C42B C -0.2372(9) 0.6170(8) 0.3284(9)
O13B O 0.1099(13) 0.2442(9) 0.7316(12)
N3B N -0.0323(14) 0.2717(9) 0.6295(12)
C43B C 0.0552(15) 0.2776(13) 0.6979(13)
H25B H 0.07021 0.31493 0.71829
C44B C -0.097(2) 0.3188(12) 0.592(2)
H26B H -0.10126 0.34384 0.63883
H27B H -0.07218 0.33990 0.55116
H28B H -0.15873 0.30393 0.56112
C45B C -0.068(2) 0.2169(11) 0.589(2)
H29B H -0.06693 0.18932 0.63437
H30B H -0.13275 0.22146 0.55106
H31B H -0.02873 0.20362 0.55404
Zn1A Zn -0.26552(5) 0.56124(3) 0.08721(5)
Zn1A* Zn -0.26552(5) 0.56124(3) 1.08721(5)
Zn1A** Zn 0.73448(5) 0.56124(3) 0.08721(5)
Zn1C Zn -0.73448(5) 0.43876(3) 0.91279(5)
Zn1C* Zn 0.26552(5) 0.43876(3) -0.08721(5)
Zn1C** Zn 0.26552(5) 0.43876(3) 0.91279(5)
Zn2* Zn 0.75617(5) 0.69905(3) 0.19985(5)
Zn2A Zn -0.75617(5) 0.19905(3) 0.30015(5)
Zn2B* Zn -0.75617(5) 0.30095(3) 0.80015(5)
Zn2C Zn 0.75617(5) 0.80095(3) 0.69985(5)
Zn3* Zn -0.50000 0.50000 1.00000
Zn3A Zn -0.50000 0.00000 0.50000
Zn3A* Zn 0.50000 1.00000 0.50000
O1* O -0.3528(5) 0.6242(3) 0.1378(6)
O1A O 0.3528(5) 1.1242(3) 0.3622(6)
O1B* O 0.3528(5) 0.3758(3) 0.8622(6)
O1C O -0.3528(5) -0.1242(3) 0.6378(6)
O2B* O 0.4590(6) 0.4051(3) -0.0143(5)
O4B* O 0.6154(6) 0.4892(3) -0.0625(5)
O5A O 0.6129(6) 0.4841(3) 0.1369(5)
O5C O 0.3871(6) 0.5159(3) -0.1369(5)
O6A O -0.2689(6) -0.0522(4) 0.4434(5)
O6C O 0.2689(6) 1.0522(4) 0.5566(5)
O7A O 0.3391(7) 0.2225(4) 0.8011(5)
O7C O -0.3391(7) 0.7775(4) 0.1989(5)
O9A O 0.3543(7) 0.2550(4) 0.9342(5)
O9C O -0.3543(7) 0.7450(4) 0.0658(5)
O10A O 0.1019(6) 1.0741(4) 0.3777(6)
O10C O -0.1019(6) -0.0741(4) 0.6223(6)
#END
