
#######################################################################
#
#                 Cambridge Crystallographic Data Centre
#                                CCDC
#
#######################################################################
#
# If this CIF has been generated from an entry in the Cambridge
# Structural Database, then it will include bibliographic, chemical,
# crystal, experimental, refinement or atomic coordinate data resulting
# from the CCDC's data processing and validation procedures.
#
#######################################################################

data_CSD_CIF_CIBRUB
_audit_creation_date 2007-06-14
_audit_creation_method CSD-ConQuest-V1
_database_code_CSD CIBRUB
_database_code_depnum_ccdc_archive 'CCDC 626500'
_chemical_formula_sum 'C8 H10 B1 K1 Mn2 O15'
_chemical_formula_moiety
;
(C8 H8 B1 Mn2 O14 1-)n,n(K1 1+),n(H2 O1)
;
_journal_coden_Cambridge 1295
_journal_volume 10
_journal_year 2007
_journal_page_first 440
_journal_name_full 'Inorg.Chem.Commun. '
loop_
_publ_author_name
"Huagang Yao"
"Min Ji"
"Shouhua Ji"
"Yansi Jiang"
"Liang Li"
"Yonglin An"
_chemical_name_systematic
;
catena-[Potassium (\m~4~-bis(L-tartrato)boron)-diaqua-di-manganese 
monohydrate]
;
_cell_volume   1531.146
_exptl_crystal_density_diffrn 2.169
_diffrn_ambient_temperature 273
_refine_special_details
;
the solvent water molecule is disordered equally over two sites.

;
#These two values have been output from a single CSD field.
_refine_ls_R_factor_gt 0.0511
_refine_ls_wR_factor_gt 0.0511
_symmetry_cell_setting orthorhombic
_symmetry_space_group_name_H-M 'P 21 21 21'
_symmetry_Int_Tables_number 19
loop_
_symmetry_equiv_pos_site_id
_symmetry_equiv_pos_as_xyz
1 x,y,z
2 1/2-x,-y,1/2+z
3 -x,1/2+y,1/2-z
4 1/2+x,1/2-y,-z
_cell_length_a 7.9504(6)
_cell_length_b 13.4587(9)
_cell_length_c 14.3095(11)
_cell_angle_alpha 90
_cell_angle_beta 90
_cell_angle_gamma 90
_cell_formula_units_Z 4
loop_
_atom_type_symbol
_atom_type_radius_bond
C 0.68
H 0.23
B 0.83
K 1.33
Mn 1.41
O 0.68
loop_
_atom_site_label
_atom_site_type_symbol
_atom_site_fract_x
_atom_site_fract_y
_atom_site_fract_z
Mn1 Mn 0.03342(15) 0.60077(8) 0.36031(7)
Mn2 Mn -0.52741(16) 0.83601(8) 0.22659(8)
O1 O -0.3069(7) 0.7322(4) 0.1950(3)
O2 O -0.1062(6) 0.5979(4) 0.4860(4)
O3 O -0.0759(6) 0.7446(3) 0.2955(3)
O4 O -0.3642(5) 0.7734(3) 0.3540(3)
O5 O 0.0566(7) 0.5833(4) 0.2162(4)
C1 C -0.1985(10) 0.8969(5) 0.1524(5)
B1 B -0.2528(11) 0.7156(6) 0.2923(6)
O6 O -0.2722(6) 0.6114(3) 0.3237(3)
O7 O -0.3432(7) 0.5791(5) 0.5663(4)
O8 O -0.6759(7) 0.7311(4) 0.2955(4)
C2 C -0.6376(10) 0.6972(5) 0.3751(5)
O9 O -0.6297(10) 0.8125(7) 0.0910(5)
O10 O -0.3245(8) 0.9320(4) 0.1923(5)
O11 O -0.6662(11) 0.9525(5) 0.2848(5)
C3 C -0.4633(10) 0.7092(5) 0.4110(5)
H1 H -0.46530 0.73340 0.47560
C4 C -0.1764(10) 0.7851(5) 0.1483(5)
H2 H -0.16910 0.76330 0.08300
O12 O -0.7412(6) 0.6509(4) 0.4263(4)
C5 C -0.0182(10) 0.7534(5) 0.2012(5)
H3 H 0.06750 0.80560 0.19700
C6 C -0.3711(8) 0.6078(5) 0.4056(5)
H4 H -0.45340 0.55380 0.40090
C7 C 0.0517(15) 0.6556(7) 0.1629(6)
C8 C -0.2614(9) 0.5931(5) 0.4932(5)
O13 O 0.098(2) 0.6555(7) 0.0816(6)
O14 O -0.0861(8) 0.9470(4) 0.1150(4)
K1 K 0.1968(3) 0.45072(15) 0.09492(15)
O15 O 0.615(2) 0.6324(12) 0.0156(11)
O16? O 0.460(2) 0.5943(12) 0.0809(10)
Mn1* Mn -0.96658(15) 0.60077(8) 0.36031(7)
Mn1B Mn -0.03342(15) 1.10077(8) 0.13969(7)
O12* O 0.2588(6) 0.6509(4) 0.4263(4)
O14B O 0.0861(8) 0.4470(4) 0.3850(4)
#END
