
#######################################################################
#
#                 Cambridge Crystallographic Data Centre
#                                CCDC
#
#######################################################################
#
# If this CIF has been generated from an entry in the Cambridge
# Structural Database, then it will include bibliographic, chemical,
# crystal, experimental, refinement or atomic coordinate data resulting
# from the CCDC's data processing and validation procedures.
#
#######################################################################

data_CSD_CIF_CIDCUQ
_audit_creation_date 2018-07-02
_audit_creation_method CSD-ConQuest-V1
_database_code_CSD CIDCUQ
_database_code_depnum_ccdc_archive 'CCDC 1823434'
_chemical_formula_sum 'C24 H20 In1 N1 O10 S1'
_chemical_formula_moiety
;
(C22 H12 In1 O10 S1 1-)n,n(C2 H8 N1 1+)
;
_journal_coden_Cambridge 222
_journal_volume 47
_journal_year 2018
_journal_page_first 9474
_journal_name_full 'Dalton Trans. '
loop_
_publ_author_name
"Yuan-Han Li"
"Sue-Lein Wang"
"Yu-Chia Su"
"Bao-Tsan Ko"
"Chen-Yen Tsai"
"Chia-Her Lin"
_chemical_name_systematic
;
catena-(dimethylammonium 
(\m-benzene-1,4-dicarboxylato)-(\m-4,4'-sulfonyldibenzoato)-indium unknown 
solvate)
;
_cell_volume   7331.465
_exptl_crystal_colour 'colorless'
_exptl_crystal_description 'columnar'
_diffrn_ambient_temperature 295
_refine_special_details
;
The cations and solvent were taken into account using PLATON/SQUEEZE.

;
#These two values have been output from a single CSD field.
_refine_ls_R_factor_gt 0.0876
_refine_ls_wR_factor_gt 0.0876
_symmetry_cell_setting orthorhombic
_symmetry_space_group_name_H-M 'C c c a'
_symmetry_Int_Tables_number 68
loop_
_symmetry_equiv_pos_site_id
_symmetry_equiv_pos_as_xyz
1 x,y,z
2 1/2-x,-y,z
3 -x,y,1/2-z
4 1/2+x,-y,1/2-z
5 1/2+x,1/2+y,z
6 -x,1/2-y,z
7 1/2-x,1/2+y,1/2-z
8 x,1/2-y,1/2-z
9 -x,-y,-z
10 -1/2+x,y,-z
11 x,-y,-1/2+z
12 -1/2-x,y,-1/2+z
13 -1/2-x,-1/2-y,-z
14 x,-1/2+y,-z
15 -1/2+x,-1/2-y,-1/2+z
16 -x,-1/2+y,-1/2+z
_cell_length_a 14.5653(3)
_cell_length_b 21.0484(5)
_cell_length_c 23.9140(5)
_cell_angle_alpha 90
_cell_angle_beta 90
_cell_angle_gamma 90
_cell_formula_units_Z 8
loop_
_atom_type_symbol
_atom_type_radius_bond
C 0.68
H 0.23
In 1.42
O 0.68
S 1.02
loop_
_atom_site_label
_atom_site_type_symbol
_atom_site_fract_x
_atom_site_fract_y
_atom_site_fract_z
In1 In 0.25000 0.00000 0.32876(3)
S1 S 0.00000 -0.25000 0.08690(12)
O1 O 0.2474(4) -0.0960(3) 0.2817(2)
O2 O 0.1430(5) -0.0226(3) 0.2630(3)
O3 O -0.0677(5) -0.2159(4) 0.0570(2)
O4 O 0.3739(4) -0.0470(3) 0.3746(2)
O5 O 0.3298(4) 0.0484(3) 0.3963(2)
C1 C 0.1767(6) -0.0756(5) 0.2549(3)
C2 C 0.1356(6) -0.1195(4) 0.2111(3)
C3 C 0.1739(6) -0.1783(5) 0.1994(3)
H1 H 0.22820 -0.19090 0.21670
C4 C 0.1302(7) -0.2180(6) 0.1618(4)
H2 H 0.15250 -0.25880 0.15570
C5 C 0.0543(5) -0.1975(4) 0.1336(3)
C6 C 0.0151(5) -0.1396(4) 0.1449(3)
H3 H -0.03740 -0.12650 0.12590
C7 C 0.0547(6) -0.1010(5) 0.1848(3)
H4 H 0.02720 -0.06250 0.19420
C8 C 0.3784(6) 0.0028(5) 0.4054(3)
C9 C 0.4423(6) 0.0016(5) 0.4538(3)
C10 C 0.4941(7) -0.0522(5) 0.4669(4)
H5 H 0.49040 -0.08760 0.44380
C11 C 0.4504(6) 0.0543(5) 0.4875(4)
H6 H 0.41790 0.09110 0.47910
O1E O -0.2474(4) -0.4040(3) 0.2817(2)
O2E O -0.1430(5) -0.4774(3) 0.2630(3)
O3E O 0.0677(5) -0.2841(4) 0.0570(2)
C1E C -0.1767(6) -0.4244(5) 0.2549(3)
C2E C -0.1356(6) -0.3805(4) 0.2111(3)
C3E C -0.1739(6) -0.3217(5) 0.1994(3)
H1E H -0.22820 -0.30910 0.21670
C4E C -0.1302(7) -0.2820(6) 0.1618(4)
H2E H -0.15250 -0.24120 0.15570
C5E C -0.0543(5) -0.3025(4) 0.1336(3)
C6E C -0.0151(5) -0.3604(4) 0.1449(3)
H3E H 0.03740 -0.37350 0.12590
C7E C -0.0547(6) -0.3990(5) 0.1848(3)
H4E H -0.02720 -0.43750 0.19420
O4H O 0.6261(4) 0.0470(3) 0.6254(2)
O5H O 0.6702(4) -0.0484(3) 0.6037(2)
C8H C 0.6216(6) -0.0028(5) 0.5946(3)
C9H C 0.5577(6) -0.0016(5) 0.5462(3)
C10H C 0.5059(7) 0.0522(5) 0.5331(4)
H5H H 0.50960 0.08760 0.55620
C11H C 0.5496(6) -0.0543(5) 0.5125(4)
H6H H 0.58210 -0.09110 0.52090
In1D In -0.25000 -0.50000 0.32876(3)
In1H In 0.75000 0.00000 0.67124(3)
O1A O 0.2526(4) 0.0960(3) 0.2817(2)
O2A O 0.3570(5) 0.0226(3) 0.2630(3)
O4A O 0.1261(4) 0.0470(3) 0.3746(2)
O5A O 0.1702(4) -0.0484(3) 0.3963(2)
#END
