
#######################################################################
#
#                 Cambridge Crystallographic Data Centre
#                                CCDC
#
#######################################################################
#
# If this CIF has been generated from an entry in the Cambridge
# Structural Database, then it will include bibliographic, chemical,
# crystal, experimental, refinement or atomic coordinate data resulting
# from the CCDC's data processing and validation procedures.
#
#######################################################################

data_CSD_CIF_CIDCIE
_audit_creation_date 2018-07-02
_audit_creation_method CSD-ConQuest-V1
_database_code_CSD CIDCIE
_database_code_depnum_ccdc_archive 'CCDC 1823436'
_chemical_formula_sum 'C70 H52 Cl2 In3 N3 O20'
_chemical_formula_moiety
;
(C70 H40 Cl2 In3 O20 3-)n,3n(H4 N1 1+)
;
_journal_coden_Cambridge 222
_journal_volume 47
_journal_year 2018
_journal_page_first 9474
_journal_name_full 'Dalton Trans. '
loop_
_publ_author_name
"Yuan-Han Li"
"Sue-Lein Wang"
"Yu-Chia Su"
"Bao-Tsan Ko"
"Chen-Yen Tsai"
"Chia-Her Lin"
_chemical_name_systematic
;
catena-(tris(ammonium) 
pentakis(\m-4,4'-biphenyldicarboxylato)-dichloro-tri-indium unknown solvate)
;
_cell_volume   9466.653
_exptl_crystal_colour 'colorless'
_exptl_crystal_description 'pillar'
_diffrn_ambient_temperature 296
_refine_special_details
;
The cations and solvent were taken into account using PLATON/SQUEEZE.

;
#These two values have been output from a single CSD field.
_refine_ls_R_factor_gt 0.0656
_refine_ls_wR_factor_gt 0.0656
_symmetry_cell_setting orthorhombic
_symmetry_space_group_name_H-M 'P 21 21 2'
_symmetry_Int_Tables_number 18
loop_
_symmetry_equiv_pos_site_id
_symmetry_equiv_pos_as_xyz
1 x,y,z
2 1/2+x,1/2-y,-z
3 1/2-x,1/2+y,-z
4 -x,-y,z
_cell_length_a 29.6876(5)
_cell_length_b 33.7481(5)
_cell_length_c 9.4487(1)
_cell_angle_alpha 90
_cell_angle_beta 90
_cell_angle_gamma 90
_cell_formula_units_Z 4
loop_
_atom_type_symbol
_atom_type_radius_bond
C 0.68
H 0.23
Cl 0.99
In 1.42
O 0.68
loop_
_atom_site_label
_atom_site_type_symbol
_atom_site_fract_x
_atom_site_fract_y
_atom_site_fract_z
In1 In 0.52230(3) 0.26635(2) 0.99740(8)
In2 In 0.70249(3) 0.88559(2) 0.34331(8)
In3 In 0.74686(3) 0.62609(2) 1.66565(9)
Cl1 Cl 0.77701(15) 0.88728(15) 0.2476(5)
Cl2 Cl 0.82178(15) 0.63348(17) 1.7520(6)
O1 O 0.6872(3) 0.5942(2) 1.5809(10)
O2 O 0.7494(3) 0.5610(2) 1.6153(10)
O3 O 0.5216(4) 0.3283(3) 1.0880(11)
O4 O 0.5860(3) 0.3010(3) 1.0458(12)
O5 O 0.7379(4) 0.6789(3) 1.5388(10)
O6 O 0.7709(4) 0.6320(4) 1.4156(12)
O7 O 0.7286(4) 0.8871(3) 0.6013(12)
O8 O 0.7071(4) 0.8352(3) 0.4814(11)
O9 O 0.6973(3) -0.0511(2) 0.3817(10)
O10 O 0.6385(3) -0.0861(3) 0.4467(10)
O11 O 0.6727(5) 0.9039(3) 0.1110(12)
O12 O 0.6651(4) 0.8454(3) 0.2090(9)
O13 O 0.2770(5) 0.3985(4) -0.1020(13)
O14 O 0.2976(4) 0.3418(3) -0.1912(9)
O15 O 0.4689(4) 0.2825(4) 0.8555(11)
O16 O 0.5287(5) 0.2966(5) 0.7497(14)
O17 O 0.5356(3) 0.7485(3) -0.8632(9)
O18 O 0.4691(3) 0.7579(3) -0.7737(10)
O19 O 0.5738(5) 0.2255(4) 0.9007(15)
O20 O 0.5090(4) 0.1992(4) 0.9477(14)
C1 C 0.6878(5) 0.5268(3) 1.5049(16)
C2 C 0.6456(6) 0.5297(5) 1.443(2)
H1 H 0.62980 0.55360 1.44530
C3 C 0.6279(6) 0.4981(5) 1.380(2)
H2 H 0.59970 0.50060 1.33810
C4 C 0.6495(5) 0.4610(4) 1.375(2)
C5 C 0.6920(6) 0.4583(5) 1.436(2)
H3 H 0.70790 0.43460 1.43250
C6 C 0.7101(5) 0.4908(4) 1.501(2)
H4 H 0.73820 0.48860 1.54430
C7 C 0.6285(5) 0.4260(4) 1.302(2)
C8 C 0.5817(6) 0.4228(5) 1.301(3)
H5 H 0.56410 0.44190 1.34530
C9 C 0.5611(6) 0.3900(5) 1.2316(19)
H6 H 0.52990 0.38760 1.23120
C10 C 0.5865(5) 0.3629(4) 1.167(2)
C11 C 0.6324(6) 0.3671(5) 1.159(2)
H7 H 0.65010 0.34950 1.10760
C12 C 0.7086(4) 0.5627(4) 1.5716(13)
C13 C 0.5621(6) 0.3293(4) 1.0944(16)
C14 C 0.7517(5) 0.6935(4) 1.2976(13)
C15 C 0.7292(5) 0.7295(4) 1.3122(15)
H8 H 0.71650 0.73690 1.39820
C16 C 0.7265(5) 0.7541(4) 1.1944(14)
H9 H 0.71040 0.77760 1.20190
C17 C 0.7463(5) 0.7451(4) 1.0690(13)
C18 C 0.7696(5) 0.7090(4) 1.0563(14)
H10 H 0.78340 0.70240 0.97110
C19 C 0.7721(5) 0.6832(4) 1.1695(16)
H11 H 0.78730 0.65930 1.16070
C20 C 0.7411(5) 0.7724(4) 0.9464(13)
C21 C 0.7486(5) 0.8122(4) 0.9593(14)
H12 H 0.75850 0.82210 1.04560
C22 C 0.7419(4) 0.8377(3) 0.8492(14)
H13 H 0.74650 0.86470 0.86220
C23 C 0.7282(4) 0.8234(4) 0.7168(13)
C24 C 0.7209(5) 0.7835(4) 0.7021(14)
H14 H 0.71160 0.77350 0.61520
C25 C 0.7272(5) 0.7584(4) 0.8122(14)
H15 H 0.72230 0.73140 0.79930
C26 C 0.7524(5) 0.6665(4) 1.4240(15)
C27 C 0.7205(5) 0.8507(4) 0.5943(17)
C28 C 0.6350(5) 0.8539(4) -0.0221(13)
C29 C 0.6188(6) 0.8158(5) -0.0218(14)
H16 H 0.62230 0.79960 0.05710
C30 C 0.5965(7) 0.8017(6) -0.1451(19)
H17 H 0.58310 0.77680 -0.14380
C31 C 0.5944(4) 0.8239(4) -0.2645(12)
C32 C 0.6124(6) 0.8603(5) -0.2649(15)
H18 H 0.61160 0.87510 -0.34780
C33 C 0.6325(6) 0.8768(5) -0.1426(16)
H19 H 0.64370 0.90250 -0.14340
C34 C 0.5723(5) 0.8080(4) -0.3932(13)
C35 C 0.5289(5) 0.7968(5) -0.3916(14)
H20 H 0.51240 0.79870 -0.30820
C36 C 0.5084(4) 0.7824(4) -0.5127(15)
H21 H 0.47770 0.77710 -0.51150
C37 C 0.5324(5) 0.7758(4) -0.6346(13)
C38 C 0.5792(5) 0.7860(5) -0.6349(13)
H22 H 0.59670 0.78120 -0.71480
C39 C 0.5980(5) 0.8027(6) -0.5181(17)
H23 H 0.62790 0.81080 -0.52020
C40 C 0.6580(5) 0.8688(4) 0.1078(14)
C41 C 0.6584(5) -0.0532(4) 0.4389(13)
C42 C 0.2980(5) 0.3664(4) -0.0898(16)
C43 C 0.3264(5) 0.3581(4) 0.0337(12)
C44 C 0.4600(5) 0.3086(4) 0.6273(14)
C45 C 0.4802(5) 0.3200(6) 0.5032(16)
H24 H 0.51140 0.32170 0.49780
C46 C 0.4539(5) 0.3289(5) 0.3853(14)
H25 H 0.46790 0.33480 0.29980
C47 C 0.4078(5) 0.3293(4) 0.3931(14)
C48 C 0.3874(5) 0.3186(6) 0.5228(15)
H26 H 0.35620 0.31950 0.53160
C49 C 0.4131(5) 0.3068(5) 0.6355(15)
H27 H 0.39930 0.29770 0.71760
C50 C 0.3789(5) 0.3387(4) 0.2679(14)
C51 C 0.3832(6) 0.3178(5) 0.1436(17)
H28 H 0.40450 0.29770 0.13640
C52 C 0.3560(5) 0.3267(5) 0.0293(15)
H29 H 0.35760 0.31120 -0.05180
C53 C 0.3478(5) 0.3682(5) 0.2793(15)
H30 H 0.34410 0.38170 0.36440
C54 C 0.4871(6) 0.2955(5) 0.7517(16)
C55 C 0.5114(4) 0.7601(4) -0.7620(13)
C56 C 0.5615(5) 0.1580(4) 0.8370(19)
C57 C 0.6071(6) 0.1537(5) 0.790(2)
H31 H 0.62740 0.17440 0.80230
C58 C 0.6205(6) 0.1202(5) 0.730(3)
H32 H 0.65060 0.11750 0.70480
C59 C 0.5914(5) 0.0890(5) 0.7019(18)
C60 C 0.5461(6) 0.0923(5) 0.746(3)
H33 H 0.52560 0.07210 0.72850
C61 C 0.5327(6) 0.1273(4) 0.8193(17)
H34 H 0.50360 0.12910 0.85540
C62 C 0.6085(6) 0.0516(4) 0.6377(18)
C63 C 0.6427(5) 0.0520(4) 0.5391(18)
H35 H 0.65490 0.07620 0.51240
C64 C 0.6587(5) 0.0194(4) 0.481(2)
H36 H 0.68390 0.02100 0.42270
C65 C 0.6389(5) -0.0176(4) 0.5052(17)
C66 C 0.6028(6) -0.0191(4) 0.5969(17)
H37 H 0.58890 -0.04320 0.61530
C67 C 0.5871(5) 0.0146(4) 0.661(2)
H38 H 0.56220 0.01320 0.72040
C68 C 0.5482(6) 0.1974(5) 0.9011(17)
C69 C 0.6516(6) 0.3997(5) 1.233(2)
H39 H 0.68270 0.40240 1.23140
C70 C 0.3211(6) 0.3782(4) 0.1599(17)
H40 H 0.29990 0.39840 0.16670
In1C In 0.47770(3) 0.73365(2) -1.00260(8)
In2* In 0.70249(3) -0.11441(2) 0.34331(8)
In3C In 0.25314(3) 0.37391(2) -0.33435(9)
O9* O 0.6973(3) 0.9489(2) 0.3817(10)
O10* O 0.6385(3) 0.9139(3) 0.4467(10)
O13C O 0.7230(5) 0.6015(4) 1.8980(13)
O14C O 0.7024(4) 0.6582(3) 1.8088(9)
O17C O 0.4644(3) 0.2515(3) 1.1368(9)
O18C O 0.5309(3) 0.2421(3) 1.2263(10)
#END
