
#######################################################################
#
#                 Cambridge Crystallographic Data Centre
#                                CCDC
#
#######################################################################
#
# If this CIF has been generated from an entry in the Cambridge
# Structural Database, then it will include bibliographic, chemical,
# crystal, experimental, refinement or atomic coordinate data resulting
# from the CCDC's data processing and validation procedures.
#
#######################################################################

data_CSD_CIF_CIFKUA
_audit_creation_date 2018-07-02
_audit_creation_method CSD-ConQuest-V1
_database_code_CSD CIFKUA
_database_code_depnum_ccdc_archive 'CCDC 1534603'
_chemical_formula_sum 'C264 H220.5 I1.5 In6 N9 O48'
_chemical_formula_moiety
;
(C216 H120 In6 O48 6-)n,1.5(C16 H19 N2 1+),1.5(I1 1-),6(C4 H12 N1 1+)
;
_journal_coden_Cambridge 1540
_journal_volume 8
_journal_year 2018
_journal_page_first 9838
_journal_name_full 'Scientific Reports '
loop_
_publ_author_name
"In-Hwan Choi"
"Suk Bin Yoon"
"Seong Huh"
"Sung-Jin Kim"
"Youngmee Kim"
_chemical_name_systematic
;
 catena-[hexakis(diethylammonium) 
2-[4-(dimethylamino]styryl)-1-methylpyridinium iodide octakis( 
-1,3,5-benzenetribenzoato)-hexa-indium(iii) unknown solvate]
;
_chemical_name_common
;
DMMP@In-BTB
;
_cell_volume  73348.498
_exptl_crystal_colour 'orange'
_exptl_crystal_description 'block'
_diffrn_ambient_temperature 296
_refine_special_details
;
Disordered diethylammonium, iodide anions and solvent molecules were not 
modelled and the disordered density was taken into account using the 
SQUEEZE/PLATON procedure.
;
#These two values have been output from a single CSD field.
_refine_ls_R_factor_gt 0.0944
_refine_ls_wR_factor_gt 0.0944
_symmetry_cell_setting rhombohedral
_symmetry_space_group_name_H-M 'R -3'
_symmetry_Int_Tables_number 148
loop_
_symmetry_equiv_pos_site_id
_symmetry_equiv_pos_as_xyz
1 x,y,z
2 -y,x-y,z
3 -x+y,-x,z
4 2/3+x,1/3+y,1/3+z
5 2/3-y,1/3+x-y,1/3+z
6 2/3-x+y,1/3-x,1/3+z
7 1/3+x,2/3+y,2/3+z
8 1/3-y,2/3+x-y,2/3+z
9 1/3-x+y,2/3-x,2/3+z
10 -x,-y,-z
11 y,-x+y,-z
12 x-y,x,-z
13 -2/3-x,-1/3-y,-1/3-z
14 -2/3+y,-1/3-x+y,-1/3-z
15 -2/3+x-y,-1/3+x,-1/3-z
16 -1/3-x,-2/3-y,-2/3-z
17 -1/3+y,-2/3-x+y,-2/3-z
18 -1/3+x-y,-2/3+x,-2/3-z
_cell_length_a 44.9141(10)
_cell_length_b 44.9141(10)
_cell_length_c 41.9851(10)
_cell_angle_alpha 90
_cell_angle_beta 90
_cell_angle_gamma 120
_cell_formula_units_Z 6
loop_
_atom_type_symbol
_atom_type_radius_bond
C 0.68
H 0.23
In 1.42
N 0.68
O 0.68
loop_
_atom_site_label
_atom_site_type_symbol
_atom_site_fract_x
_atom_site_fract_y
_atom_site_fract_z
In1 In 0.23983(2) 0.05066(2) 0.45948(2)
In2 In 0.42744(2) 0.27733(2) 0.13563(2)
O1 O 0.24962(11) 0.08469(10) 0.41449(9)
O2 O 0.27402(11) 0.10871(10) 0.45945(9)
O3 O 0.39782(12) 0.25626(13) 0.1798(1)
O4 O 0.43180(13) 0.31201(13) 0.18171(9)
O5 O 0.1850(1) 0.02180(12) 0.44455(11)
O6 O 0.19745(11) 0.06309(12) 0.47789(11)
O7 O 0.22410(11) 0.00851(11) 0.49858(9)
O8 O 0.26061(11) 0.06155(11) 0.50926(9)
O9 O 0.43911(16) 0.09420(11) 0.75836(10)
O10 O 0.42528(16) 0.04523(11) 0.77988(10)
O11 O 0.47078(11) 0.27340(12) 0.15814(11)
O12 O 0.48421(10) 0.31778(11) 0.1277(1)
O13 O 0.35369(16) 0.43513(23) 0.44184(14)
O14 O 0.4042(2) 0.44620(26) 0.44779(16)
O15 O 0.07776(11) -0.15088(16) 0.75517(9)
O16 O 0.11188(11) -0.14658(16) 0.79366(11)
C1 C 0.26874(15) 0.11087(16) 0.43028(14)
C2 C 0.28565(15) 0.14612(14) 0.41490(13)
C3 C 0.28378(17) 0.14914(15) 0.38269(13)
H1 H 0.27160 0.12950 0.37030
C4 C 0.29979(17) 0.18096(16) 0.36853(13)
H2 H 0.29820 0.18250 0.34660
C5 C 0.31830(16) 0.21087(15) 0.38616(12)
C6 C 0.32003(18) 0.20717(16) 0.41896(13)
H3 H 0.33280 0.22660 0.43150
C7 C 0.30309(18) 0.17502(17) 0.43322(15)
H4 H 0.30360 0.17310 0.45530
C8 C 0.33586(16) 0.24520(14) 0.37108(12)
C9 C 0.34876(17) 0.24857(15) 0.34014(13)
H5 H 0.34640 0.22920 0.32980
C10 C 0.36496(16) 0.27997(14) 0.32431(12)
C11 C 0.36785(16) 0.30878(14) 0.34002(12)
H6 H 0.37850 0.33000 0.32980
C12 C 0.35513(16) 0.30606(14) 0.37049(12)
C13 C 0.33941(16) 0.27414(15) 0.38577(12)
H7 H 0.33110 0.27240 0.40640
C14 C 0.37753(11) 0.28154(10) 0.29058(7)
C15 C 0.36343(16) 0.25182(9) 0.27221(11)
C16 C 0.37434(17) 0.25317(10) 0.24099(11)
C17 C 0.39934(12) 0.28423(11) 0.22814(7)
C18 C 0.41345(11) 0.31395(8) 0.24651(9)
H8 H 0.43020 0.33470 0.23790
C19 C 0.40254(11) 0.31260(8) 0.27773(9)
H9 H 0.41200 0.33250 0.29000
C20 C 0.40979(18) 0.2836(2) 0.19455(15)
C21 C 0.35927(15) 0.33748(14) 0.38722(13)
C22 C 0.33167(18) 0.3361(2) 0.4035(2)
C23 C 0.39152(18) 0.3670(2) 0.3878(2)
C24 C 0.17588(15) 0.03900(18) 0.46066(17)
C25 C 0.13949(13) 0.03130(15) 0.46063(14)
C26 C 0.12908(14) 0.05203(15) 0.47626(15)
H10 H 0.14510 0.07120 0.48760
C27 C 0.09530(14) 0.04451(14) 0.47510(14)
H11 H 0.08880 0.05860 0.48560
C28 C 0.07112(12) 0.01617(13) 0.45833(13)
C29 C 0.08133(15) -0.00429(16) 0.44353(16)
H12 H 0.06530 -0.02360 0.43240
C30 C 0.11503(16) 0.00311(17) 0.44478(17)
H13 H 0.12120 -0.01140 0.43460
C31 C 0.03476(13) 0.00795(13) 0.45784(13)
C32 C 0.00796(13) -0.02601(13) 0.45710(14)
H14 H 0.01320 -0.04350 0.45610
C33 C 0.24343(16) 0.0310(2) 0.51838(14)
C34 C 0.24603(14) 0.02147(16) 0.55146(13)
C35 C 0.26963(16) 0.04603(17) 0.57247(14)
H15 H 0.28410 0.06830 0.56510
C36 C 0.27204(16) 0.03834(16) 0.60345(13)
H16 H 0.28780 0.05540 0.61690
C37 C 0.25090(14) 0.00475(15) 0.61536(12)
C38 C 0.22788(15) -0.01946(16) 0.59410(14)
H17 H 0.21340 -0.04180 0.60120
C39 C 0.22595(16) -0.01141(17) 0.56302(14)
H18 H 0.21070 -0.02860 0.54930
C40 C 0.25353(14) -0.00365(14) 0.64904(12)
C41 C 0.28509(14) 0.01129(15) 0.66453(13)
H19 H 0.30470 0.02750 0.65380
C42 C 0.28797(14) 0.00261(15) 0.69560(12)
C43 C 0.25819(14) -0.02148(15) 0.71137(13)
H20 H 0.26000 -0.02740 0.73220
C44 C 0.22606(14) -0.03683(15) 0.69702(13)
C45 C 0.22450(14) -0.02773(15) 0.66562(13)
H21 H 0.20330 -0.03810 0.65530
C46 C 0.19490(8) -0.06156(11) 0.71576(10)
C47 C 0.16287(10) -0.07807(12) 0.70108(8)
H22 H 0.16060 -0.07260 0.68020
C48 C 0.13432(8) -0.10271(12) 0.71762(9)
H23 H 0.11290 -0.11380 0.70780
C49 C 0.13779(9) -0.11082(11) 0.74884(9)
C50 C 0.16981(11) -0.09431(14) 0.76352(8)
C51 C 0.19837(9) -0.06968(14) 0.74698(10)
C52 C 0.32191(14) 0.01794(16) 0.71218(12)
C53 C 0.32924(16) -0.00087(16) 0.73291(14)
H24 H 0.31290 -0.02380 0.73650
C54 C 0.34683(16) 0.05199(17) 0.70769(15)
H25 H 0.34250 0.06570 0.69400
C55 C 0.41808(25) 0.06295(18) 0.76183(13)
C56 C 0.38462(22) 0.04691(15) 0.74409(13)
C57 C 0.36030(23) 0.01310(16) 0.74875(14)
H26 H 0.36470 -0.00050 0.76250
C58 C 0.37826(24) 0.06601(16) 0.72336(15)
H27 H 0.39510 0.08870 0.71950
C59 C 0.49309(17) 0.30029(18) 0.14450(16)
C60 C 0.52964(8) 0.30909(12) 0.14639(11)
C61 C 0.53773(10) 0.28760(12) 0.16355(13)
C62 C 0.57139(12) 0.29407(14) 0.16422(15)
C63 C 0.59697(8) 0.32202(13) 0.14775(14)
C64 C 0.58889(10) 0.3435(1) 0.13060(12)
C65 C 0.55523(11) 0.33704(11) 0.12992(12)
C66 C 0.63348(16) 0.32788(17) 0.14909(18)
C67 C 0.3755(3) 0.4276(4) 0.43709(16)
C68 C 0.36909(18) 0.39595(25) 0.41971(15)
C69 C 0.3972(3) 0.3964(4) 0.4037(2)
C70 C 0.33681(18) 0.36667(27) 0.4199(2)
C71 C 0.63877(17) 0.30007(16) 0.14895(18)
H28 H 0.62010 0.27780 0.14880
C72 C 0.10785(17) -0.13805(24) 0.76664(15)
N1 N 0.4776(3) 0.3051(4) 1.0328(3)
C73 C 0.4609(4) 0.3217(4) 1.0448(3)
H29 H 0.46830 0.33410 1.06360
C74 C 0.4330(4) 0.3197(4) 1.0285(4)
H30 H 0.42180 0.33080 1.03650
C75 C 0.4219(3) 0.3012(4) 1.0002(4)
H31 H 0.40320 0.29990 0.98940
C76 C 0.4386(4) 0.2846(4) 0.9883(3)
H32 H 0.43120 0.27220 0.96940
C77 C 0.4665(4) 0.2865(4) 1.0046(3)
C78 C 0.5054(5) 0.3062(7) 1.0527(5)
H33 H 0.50850 0.31980 1.07130
H34 H 0.52640 0.31630 1.04060
H35 H 0.49930 0.28330 1.05890
C79 C 0.4804(6) 0.2678(6) 0.9910(6)
H36 H 0.49560 0.26600 1.00490
C80 C 0.4780(4) 0.2530(4) 0.9657(4)
H37 H 0.46630 0.25810 0.95030
C81 C 0.4884(4) 0.2304(4) 0.9543(4)
C82 C 0.5056(7) 0.2188(7) 0.9736(3)
H38 H 0.50860 0.22440 0.99520
C83 C 0.5184(8) 0.1989(8) 0.9608(5)
H39 H 0.52990 0.19120 0.97370
C84 C 0.5140(6) 0.1907(6) 0.9286(6)
C85 C 0.4968(5) 0.2023(4) 0.9092(3)
H40 H 0.49380 0.19670 0.88770
C86 C 0.4840(4) 0.2222(4) 0.9221(3)
H41 H 0.47250 0.23000 0.90910
N2 N 0.5345(7) 0.1749(8) 0.9181(5)
C87 C 0.5715(6) 0.1861(15) 0.9169(8)
C88 C 0.5319(6) 0.1702(7) 0.8832(5)
N3 N 0.4831(6) 0.4172(5) 0.1490(5)
C89 C 0.5137(5) 0.4471(6) 0.1421(6)
H42 H 0.53250 0.44590 0.13440
C90 C 0.5162(5) 0.4789(5) 0.1466(6)
H43 H 0.53660 0.49900 0.14200
C91 C 0.4881(6) 0.4808(4) 0.1581(5)
H44 H 0.48980 0.50210 0.16120
C92 C 0.4576(5) 0.4508(5) 0.1651(4)
H45 H 0.43880 0.45200 0.17270
C93 C 0.4551(5) 0.4190(4) 0.1605(5)
C94 C 0.4813(8) 0.3851(5) 0.1376(7)
C95 C 0.4224(6) 0.3893(6) 0.1601(5)
H46 H 0.42370 0.36940 0.15850
C96 C 0.3935(6) 0.3833(6) 0.1615(5)
H47 H 0.39180 0.40300 0.15940
C97 C 0.3607(3) 0.3531(3) 0.1654(3)
C98 C 0.3558(4) 0.3205(4) 0.1713(4)
H48 H 0.37450 0.31770 0.17560
C99 C 0.3228(5) 0.2921(3) 0.1709(5)
H49 H 0.31950 0.27030 0.17490
C100 C 0.2947(4) 0.2963(5) 0.1645(6)
C101 C 0.2997(4) 0.3289(6) 0.1586(5)
H50 H 0.28090 0.33170 0.15430
C102 C 0.3326(4) 0.3573(4) 0.1590(4)
H51 H 0.33590 0.37910 0.15500
N4 N 0.2650(8) 0.2616(5) 0.1584(12)
C103 C 0.2364(12) 0.2585(18) 0.1385(14)
C104 C 0.2688(12) 0.231(1) 0.1629(13)
C105? C 0.1980(3) -0.0835(3) 0.7371(3)
C106? C 0.1695(2) -0.1086(5) 0.7533(4)
C107? C 0.3601(7) 0.3413(8) 0.42009(16)
C108? C 0.3707(8) 0.3709(10) 0.4379(7)
C109? C 0.3636(11) 0.3670(6) 0.3723(8)
C110? C 0.3616(9) 0.3907(8) 0.3923(8)
C111? C 0.3567(3) 0.2556(3) 0.2694(2)
C112? C 0.3706(2) 0.2551(2) 0.2399(2)
C113? C 0.57219(14) 0.2976(5) 0.1679(4)
O5A O -0.0218(1) 0.16320(12) 0.44455(11)
O6A O -0.06309(11) 0.13436(12) 0.47789(11)
C24A C -0.03900(15) 0.13688(18) 0.46066(17)
C25A C -0.03130(13) 0.10819(15) 0.46063(14)
C26A C -0.05203(14) 0.07705(15) 0.47626(15)
H10A H -0.07120 0.07390 0.48760
C27A C -0.04451(14) 0.05079(14) 0.47510(14)
H11A H -0.05860 0.03020 0.48560
C28A C -0.01617(12) 0.05495(13) 0.45833(13)
C29A C 0.00429(15) 0.08562(16) 0.44353(16)
H12A H 0.02360 0.08890 0.43240
C30A C -0.00311(16) 0.11192(17) 0.44478(17)
H13A H 0.01140 0.13260 0.43460
C31A C -0.00795(13) 0.02681(13) 0.45784(13)
C32A C 0.02601(13) 0.03397(13) 0.45710(14)
H14A H 0.04350 0.05670 0.45610
O5B O -0.1632(1) -0.18500(12) 0.44455(11)
O6B O -0.13436(11) -0.19745(12) 0.47789(11)
C24B C -0.13688(15) -0.17588(18) 0.46066(17)
C25B C -0.10819(13) -0.13949(15) 0.46063(14)
C26B C -0.07705(14) -0.12908(15) 0.47626(15)
H10B H -0.07390 -0.14510 0.48760
C27B C -0.05079(14) -0.09530(14) 0.47510(14)
H11B H -0.03020 -0.08880 0.48560
C28B C -0.05495(12) -0.07112(13) 0.45833(13)
C29B C -0.08562(15) -0.08133(16) 0.44353(16)
H12B H -0.08890 -0.06530 0.43240
C30B C -0.11192(16) -0.11503(17) 0.44478(17)
H13B H -0.13260 -0.12120 0.43460
C31B C -0.02681(13) -0.03476(13) 0.45784(13)
C32B C -0.03397(13) -0.00796(13) 0.45710(14)
H14B H -0.05670 -0.01320 0.45610
O11A O 0.72660(11) 0.19738(12) 0.15814(11)
O12A O 0.68222(10) 0.16643(11) 0.1277(1)
C59A C 0.69971(17) 0.19280(18) 0.14450(16)
C60A C 0.69091(8) 0.22055(12) 0.14639(11)
C61A C 0.7124(1) 0.25013(12) 0.16355(13)
C62A C 0.70593(12) 0.27732(14) 0.16422(15)
C63A C 0.67798(8) 0.27495(13) 0.14775(14)
C64A C 0.6565(1) 0.24539(10) 0.13060(12)
C65A C 0.66296(11) 0.21819(11) 0.12992(12)
C66A C 0.67212(16) 0.30560(17) 0.14909(18)
C71A C 0.69993(17) 0.33870(16) 0.14895(18)
H28A H 0.72220 0.34230 0.14880
O11B O 0.80262(11) 0.52922(12) 0.15814(11)
O12B O 0.83357(10) 0.51579(11) 0.1277(1)
C59B C 0.80720(17) 0.50691(18) 0.14450(16)
C60B C 0.77945(8) 0.47036(12) 0.14639(11)
C61B C 0.74987(10) 0.46227(12) 0.16355(13)
C62B C 0.72268(12) 0.42861(14) 0.16422(15)
C63B C 0.72505(8) 0.40303(13) 0.14775(14)
C64B C 0.75461(10) 0.41111(10) 0.13060(12)
C65B C 0.78181(11) 0.44477(11) 0.12992(12)
C66B C 0.69440(16) 0.36652(17) 0.14909(18)
C71B C 0.66130(17) 0.36123(16) 0.14895(18)
H28B H 0.65770 0.37990 0.14880
In1A In -0.05066(2) 0.18917(2) 0.45948(2)
In2A In -0.27733(2) 0.15011(2) 0.13563(2)
O1A O -0.08469(11) 0.16493(10) 0.41449(9)
O2A O -0.10871(11) 0.16531(10) 0.45945(9)
O3A O -0.25626(12) 0.14156(13) 0.1798(1)
O4A O -0.31201(13) 0.11979(13) 0.18171(9)
O7A O -0.00851(11) 0.21559(11) 0.49858(9)
O8A O -0.06155(11) 0.19906(11) 0.50926(9)
O9A O -0.09420(16) 0.34491(11) 0.75836(10)
O10A O -0.04523(16) 0.38005(11) 0.77988(10)
O13A O -0.43513(16) -0.08144(23) 0.44184(14)
O14A O -0.4462(2) -0.04200(26) 0.44779(16)
O15A O 0.15088(11) 0.22864(16) 0.75517(9)
O16A O 0.14658(11) 0.25846(16) 0.79366(11)
C1A C -0.11087(15) 0.15787(16) 0.43028(14)
C2A C -0.14612(15) 0.13953(14) 0.41490(13)
C3A C -0.14914(17) 0.13464(15) 0.38269(13)
H1A H -0.12950 0.14210 0.37030
C4A C -0.18096(17) 0.11883(16) 0.36853(13)
H2A H -0.18250 0.11570 0.34660
C5A C -0.21087(16) 0.10743(15) 0.38616(12)
C6A C -0.20717(18) 0.11286(16) 0.41896(13)
H3A H -0.22660 0.10620 0.43150
C7A C -0.17502(18) 0.12807(17) 0.43322(15)
H4A H -0.17310 0.13050 0.45530
C8A C -0.24520(16) 0.09066(14) 0.37108(12)
C9A C -0.24857(17) 0.10019(15) 0.34014(13)
H5A H -0.22920 0.11720 0.32980
C10A C -0.27997(16) 0.08499(14) 0.32431(12)
C11A C -0.30878(16) 0.05907(14) 0.34002(12)
H6A H -0.33000 0.04850 0.32980
C12A C -0.30606(16) 0.04907(14) 0.37049(12)
C13A C -0.27414(16) 0.06527(15) 0.38577(12)
H7A H -0.27240 0.05870 0.40640
C14A C -0.28154(11) 0.09599(10) 0.29058(7)
C15A C -0.25182(16) 0.11161(9) 0.27221(11)
C16A C -0.25317(17) 0.12117(10) 0.24099(11)
C17A C -0.28423(12) 0.11511(11) 0.22814(7)
C18A C -0.31395(11) 0.09950(8) 0.24651(9)
H8A H -0.33470 0.09550 0.23790
C19A C -0.31260(11) 0.08994(8) 0.27773(9)
H9A H -0.33250 0.07950 0.29000
C20A C -0.28360(18) 0.12619(20) 0.19455(15)
C21A C -0.33748(15) 0.02179(14) 0.38722(13)
C22A C -0.33610(18) -0.00443(20) 0.4035(2)
C23A C -0.36700(18) 0.02452(20) 0.3878(2)
C33A C -0.03100(16) 0.21243(20) 0.51838(14)
C34A C -0.02147(14) 0.22456(16) 0.55146(13)
C35A C -0.04603(16) 0.22360(17) 0.57247(14)
H15A H -0.06830 0.21580 0.56510
C36A C -0.03834(16) 0.23370(16) 0.60345(13)
H16A H -0.05540 0.23240 0.61690
C37A C -0.00475(14) 0.24615(15) 0.61536(12)
C38A C 0.01946(15) 0.24734(16) 0.59410(14)
H17A H 0.04180 0.25520 0.60120
C39A C 0.01141(16) 0.23736(17) 0.56302(14)
H18A H 0.02860 0.23930 0.54930
C40A C 0.00365(14) 0.25718(14) 0.64904(12)
C41A C -0.01129(14) 0.27380(15) 0.66453(13)
H19A H -0.02750 0.27720 0.65380
C42A C -0.00261(14) 0.28536(15) 0.69560(12)
C43A C 0.02148(14) 0.27967(15) 0.71137(13)
H20A H 0.02740 0.28740 0.73220
C44A C 0.03683(14) 0.26289(15) 0.69702(13)
C45A C 0.02773(14) 0.25223(15) 0.66562(13)
H21A H 0.03810 0.24140 0.65530
C46A C 0.06156(8) 0.25646(11) 0.71576(10)
C47A C 0.07807(10) 0.24094(12) 0.70108(8)
H22A H 0.07260 0.23320 0.68020
C48A C 0.10271(8) 0.23703(12) 0.71762(9)
H23A H 0.11380 0.22670 0.70780
C49A C 0.11082(9) 0.24861(11) 0.74884(9)
C50A C 0.09431(11) 0.26412(14) 0.76352(8)
C51A C 0.06968(9) 0.26805(14) 0.74698(10)
C52A C -0.01794(14) 0.30397(16) 0.71218(12)
C53A C 0.00087(16) 0.33011(16) 0.73291(14)
H24A H 0.02380 0.33670 0.73650
C54A C -0.05199(16) 0.29484(17) 0.70769(15)
H25A H -0.06570 0.27680 0.69400
C55A C -0.06295(25) 0.35513(18) 0.76183(13)
C56A C -0.04691(22) 0.33771(15) 0.74409(13)
C57A C -0.01310(23) 0.34720(16) 0.74875(14)
H26A H 0.00050 0.36520 0.76250
C58A C -0.06601(24) 0.31225(16) 0.72336(15)
H27A H -0.08870 0.30640 0.71950
C67A C -0.4276(3) -0.0521(4) 0.43709(16)
C68A C -0.39595(18) -0.02686(25) 0.41971(15)
C69A C -0.3964(3) 0.0008(4) 0.4037(2)
C70A C -0.36667(18) -0.02986(27) 0.4199(2)
C72A C 0.13805(17) 0.24590(24) 0.76664(15)
In1B In -0.18917(2) -0.23983(2) 0.45948(2)
In2B In -0.15011(2) -0.42744(2) 0.13563(2)
O1B O -0.16493(11) -0.24962(10) 0.41449(9)
O2B O -0.16531(11) -0.27402(10) 0.45945(9)
O3B O -0.14156(12) -0.39782(13) 0.1798(1)
O4B O -0.11979(13) -0.43180(13) 0.18171(9)
O7B O -0.21559(11) -0.22410(11) 0.49858(9)
O8B O -0.19906(11) -0.26061(11) 0.50926(9)
O9B O -0.34491(16) -0.43911(11) 0.75836(10)
O10B O -0.38005(16) -0.42528(11) 0.77988(10)
O13B O 0.08144(16) -0.35369(23) 0.44184(14)
O14B O 0.0420(2) -0.40420(26) 0.44779(16)
O15B O -0.22864(11) -0.07776(16) 0.75517(9)
O16B O -0.25846(11) -0.11188(16) 0.79366(11)
C1B C -0.15787(15) -0.26874(16) 0.43028(14)
C2B C -0.13953(15) -0.28565(14) 0.41490(13)
C3B C -0.13464(17) -0.28378(15) 0.38269(13)
H1B H -0.14210 -0.27160 0.37030
C4B C -0.11883(17) -0.29979(16) 0.36853(13)
H2B H -0.11570 -0.29820 0.34660
C5B C -0.10743(16) -0.31830(15) 0.38616(12)
C6B C -0.11286(18) -0.32003(16) 0.41896(13)
H3B H -0.10620 -0.33280 0.43150
C7B C -0.12807(18) -0.30309(17) 0.43322(15)
H4B H -0.13050 -0.30360 0.45530
C8B C -0.09066(16) -0.33586(14) 0.37108(12)
C9B C -0.10019(17) -0.34876(15) 0.34014(13)
H5B H -0.11720 -0.34640 0.32980
C10B C -0.08499(16) -0.36496(14) 0.32431(12)
C11B C -0.05907(16) -0.36785(14) 0.34002(12)
H6B H -0.04850 -0.37850 0.32980
C12B C -0.04907(16) -0.35513(14) 0.37049(12)
C13B C -0.06527(16) -0.33941(15) 0.38577(12)
H7B H -0.05870 -0.33110 0.40640
C14B C -0.09599(11) -0.37753(10) 0.29058(7)
C15B C -0.11161(16) -0.36343(9) 0.27221(11)
C16B C -0.12117(17) -0.37434(10) 0.24099(11)
C17B C -0.11511(12) -0.39934(11) 0.22814(7)
C18B C -0.09950(11) -0.41345(8) 0.24651(9)
H8B H -0.09550 -0.43020 0.23790
C19B C -0.08994(11) -0.40254(8) 0.27773(9)
H9B H -0.07950 -0.41200 0.29000
C20B C -0.12619(18) -0.40979(20) 0.19455(15)
C21B C -0.02179(15) -0.35927(14) 0.38722(13)
C22B C 0.00443(18) -0.33167(20) 0.4035(2)
C23B C -0.02452(18) -0.39152(20) 0.3878(2)
C33B C -0.21243(16) -0.24343(20) 0.51838(14)
C34B C -0.22456(14) -0.24603(16) 0.55146(13)
C35B C -0.22360(16) -0.26963(17) 0.57247(14)
H15B H -0.21580 -0.28410 0.56510
C36B C -0.23370(16) -0.27204(16) 0.60345(13)
H16B H -0.23240 -0.28780 0.61690
C37B C -0.24615(14) -0.25090(15) 0.61536(12)
C38B C -0.24734(15) -0.22788(16) 0.59410(14)
H17B H -0.25520 -0.21340 0.60120
C39B C -0.23736(16) -0.22595(17) 0.56302(14)
H18B H -0.23930 -0.21070 0.54930
C40B C -0.25718(14) -0.25353(14) 0.64904(12)
C41B C -0.27380(14) -0.28509(15) 0.66453(13)
H19B H -0.27720 -0.30470 0.65380
C42B C -0.28536(14) -0.28797(15) 0.69560(12)
C43B C -0.27967(14) -0.25819(15) 0.71137(13)
H20B H -0.28740 -0.26000 0.73220
C44B C -0.26289(14) -0.22606(15) 0.69702(13)
C45B C -0.25223(14) -0.22450(15) 0.66562(13)
H21B H -0.24140 -0.20330 0.65530
C46B C -0.25646(8) -0.19490(11) 0.71576(10)
C47B C -0.24094(10) -0.16287(12) 0.70108(8)
H22B H -0.23320 -0.16060 0.68020
C48B C -0.23703(8) -0.13432(12) 0.71762(9)
H23B H -0.22670 -0.11290 0.70780
C49B C -0.24861(9) -0.13779(11) 0.74884(9)
C50B C -0.26412(11) -0.16981(14) 0.76352(8)
C51B C -0.26805(9) -0.19837(14) 0.74698(10)
C52B C -0.30397(14) -0.32191(16) 0.71218(12)
C53B C -0.33011(16) -0.32924(16) 0.73291(14)
H24B H -0.33670 -0.31290 0.73650
C54B C -0.29484(16) -0.34683(17) 0.70769(15)
H25B H -0.27680 -0.34250 0.69400
C55B C -0.35513(25) -0.41808(18) 0.76183(13)
C56B C -0.33771(22) -0.38462(15) 0.74409(13)
C57B C -0.34720(23) -0.36030(16) 0.74875(14)
H26B H -0.36520 -0.36470 0.76250
C58B C -0.31225(24) -0.37826(16) 0.72336(15)
H27B H -0.30640 -0.39510 0.71950
C67B C 0.0521(3) -0.3755(4) 0.43709(16)
C68B C 0.02686(18) -0.36909(25) 0.41971(15)
C69B C -0.0008(3) -0.3972(4) 0.4037(2)
C70B C 0.02986(18) -0.33681(27) 0.4199(2)
C72B C -0.24590(17) -0.10785(24) 0.76664(15)
In1C In -0.093503(20) 0.383993(20) 0.792813(20)
In1D In -0.383993(20) -0.477497(20) 0.792813(20)
In1E In 0.477497(20) 0.093503(20) 0.792813(20)
In2A* In 0.72267(2) 0.15011(2) 0.13563(2)
In2B* In 0.84989(2) 0.57256(2) 0.13563(2)
In2C In 0.094107(20) -0.389337(20) 0.468963(20)
In2D In 0.389337(20) 0.483443(20) 0.468963(20)
In2E In -0.483443(20) -0.094107(20) 0.468963(20)
In2F In -0.239227(20) -0.056003(20) 0.802297(20)
In2G In 0.056003(20) -0.183223(20) 0.802297(20)
In2H In 0.183223(20) 0.239227(20) 0.802297(20)
O9F O -0.227557(160) -0.239133(110) 0.425027(100)
O9G O 0.239133(160) 0.011577(110) 0.425027(100)
O9H O -0.011577(160) 0.227557(110) 0.425027(100)
O10F O -0.241387(160) -0.288103(110) 0.446547(100)
O10G O 0.288103(160) 0.046717(110) 0.446547(100)
O10H O -0.046717(160) 0.241387(110) 0.446547(100)
O11A* O -0.27340(11) 0.19738(12) 0.15814(11)
O11B* O -0.19738(11) -0.47078(12) 0.15814(11)
O12A* O -0.31778(10) 0.16643(11) 0.1277(1)
O12B* O -0.16643(10) -0.48421(11) 0.1277(1)
O13F O -0.312977(160) 0.101797(230) 0.108507(140)
O13G O -0.101797(160) -0.414773(230) 0.108507(140)
O13H O 0.414773(160) 0.312977(230) 0.108507(140)
O14F O -0.262467(200) 0.112867(260) 0.114457(160)
O14G O -0.112867(200) -0.375333(260) 0.114457(160)
O14H O 0.375333(200) 0.262467(260) 0.114457(160)
O15C O -0.255573(110) 0.182453(160) 0.088503(90)
O15D O -0.182453(110) -0.438027(160) 0.088503(90)
O15E O 0.438027(110) 0.255573(160) 0.088503(90)
O16C O -0.221453(110) 0.186753(160) 0.126993(110)
O16D O -0.186753(110) -0.408207(160) 0.126993(110)
O16E O 0.408207(110) 0.221453(160) 0.126993(110)
#END
