
#######################################################################
#
#                 Cambridge Crystallographic Data Centre
#                                CCDC
#
#######################################################################
#
# If this CIF has been generated from an entry in the Cambridge
# Structural Database, then it will include bibliographic, chemical,
# crystal, experimental, refinement or atomic coordinate data resulting
# from the CCDC's data processing and validation procedures.
#
#######################################################################

data_CSD_CIF_CIFLAH
_audit_creation_date 2018-07-02
_audit_creation_method CSD-ConQuest-V1
_database_code_CSD CIFLAH
_database_code_depnum_ccdc_archive 'CCDC 1533265'
_chemical_formula_sum 'C255 H207 In6 N8.25 O50.27 S0.38'
_chemical_formula_moiety
;
(C216 H120 In6 O48 6-)n,0.75(C20 H20 N3 O1 1+),0.38(O4 S1 2-),6(C4 H12 N1 1+)
;
_journal_coden_Cambridge 1540
_journal_volume 8
_journal_year 2018
_journal_page_first 9838
_journal_name_full 'Scientific Reports '
loop_
_publ_author_name
"In-Hwan Choi"
"Suk Bin Yoon"
"Seong Huh"
"Sung-Jin Kim"
"Youngmee Kim"
_chemical_name_systematic
;
catena-[hexakis(diethylammonium) 
5-amino-N,N-diethyl-9H-benzo[a]phenoxazin-9-iminium sulfate 
octakis(\m-1,3,5-benzenetribenzoato)-hexa-indium(iii) unknown solvate]
;
_chemical_name_common
;
catena-[hexakis(diethylammonium)  nile blue A 
octakis(mu-1,3,5-benzenetribenzoato)-hexa-indium(iii) unknown solvate]
;
_cell_volume  73514.754
_exptl_crystal_colour 'dark blue'
_exptl_crystal_description 'block'
_diffrn_ambient_temperature 223
_refine_special_details
;
The structure is disordered. Disordered sulfate anion, diethylammonium 
cations and solvent molecules were not modelled and the disordered density 
was taken into account using the SQUEEZE/PLATON procedure.
;
#These two values have been output from a single CSD field.
_refine_ls_R_factor_gt 0.0709
_refine_ls_wR_factor_gt 0.0709
_symmetry_cell_setting rhombohedral
_symmetry_space_group_name_H-M 'R -3'
_symmetry_Int_Tables_number 148
loop_
_symmetry_equiv_pos_site_id
_symmetry_equiv_pos_as_xyz
1 x,y,z
2 -y,x-y,z
3 -x+y,-x,z
4 2/3+x,1/3+y,1/3+z
5 2/3-y,1/3+x-y,1/3+z
6 2/3-x+y,1/3-x,1/3+z
7 1/3+x,2/3+y,2/3+z
8 1/3-y,2/3+x-y,2/3+z
9 1/3-x+y,2/3-x,2/3+z
10 -x,-y,-z
11 y,-x+y,-z
12 x-y,x,-z
13 -2/3-x,-1/3-y,-1/3-z
14 -2/3+y,-1/3-x+y,-1/3-z
15 -2/3+x-y,-1/3+x,-1/3-z
16 -1/3-x,-2/3-y,-2/3-z
17 -1/3+y,-2/3-x+y,-2/3-z
18 -1/3+x-y,-2/3+x,-2/3-z
_cell_length_a 45.0162(8)
_cell_length_b 45.0162(8)
_cell_length_c 41.8896(9)
_cell_angle_alpha 90
_cell_angle_beta 90
_cell_angle_gamma 120
_cell_formula_units_Z 6
loop_
_atom_type_symbol
_atom_type_radius_bond
C 0.68
H 0.23
In 1.42
N 0.68
O 0.68
loop_
_atom_site_label
_atom_site_type_symbol
_atom_site_fract_x
_atom_site_fract_y
_atom_site_fract_z
In1 In 0.81154(2) 0.05108(2) 0.95776(2)
O1 O 0.83472(8) 0.10850(8) 0.95741(8)
O2 O 0.83591(9) 0.08446(9) 0.91249(8)
O3 O 0.77329(8) 0.01215(9) 0.92343(8)
O4 O 0.75953(8) 0.04738(10) 0.94555(8)
O5 O 0.83750(8) 0.02176(9) 0.94282(8)
O6 O 0.86591(8) 0.06382(9) 0.97653(8)
O7 O 0.78487(9) 0.00897(16) 0.99629(8)
O8 O 0.80231(9) 0.06246(16) 1.00793(8)
C1 C 0.84225(12) 0.11094(13) 0.92853(13)
C2 C 0.75228(12) 0.02262(15) 0.92754(12)
C3 C 0.86367(13) 0.03960(14) 0.95974(13)
C4 C 0.85976(8) 0.14590(6) 0.91257(7)
C5 C 0.71872(6) 0.00494(8) 0.90915(7)
C6 C 0.89233(6) 0.03140(8) 0.96028(7)
C7 C 0.87057(8) 0.17499(8) 0.93132(5)
C8 C 0.86459(8) 0.14907(7) 0.87970(7)
C9 C 0.71211(7) -0.02129(9) 0.88780(8)
C10 C 0.69414(8) 0.01446(7) 0.91448(7)
C11 C 0.88743(6) 0.00204(7) 0.94465(7)
C12 C 0.92353(8) 0.05308(6) 0.97495(7)
H1 H 0.86730 0.17280 0.95350
C13 C 0.88621(9) 0.20726(7) 0.91721(7)
C14 C 0.88024(8) 0.18134(8) 0.86559(5)
H2 H 0.85730 0.12940 0.86700
H3 H 0.72870 -0.02770 0.88420
C15 C 0.68091(8) -0.03801(8) 0.87177(7)
C16 C 0.66295(7) -0.00225(9) 0.89845(7)
H4 H 0.69860 0.03220 0.92890
H5 H 0.86630 -0.01260 0.93470
C17 C 0.91373(7) -0.00564(6) 0.94371(7)
C18 C 0.94982(6) 0.04539(7) 0.97401(7)
H6 H 0.92680 0.07290 0.98550
H7 H 0.89350 0.22690 0.92990
C19 C 0.89104(8) 0.21043(6) 0.88435(7)
H8 H 0.88350 0.18350 0.84340
H9 H 0.67640 -0.05570 0.85730
C20 C 0.65633(6) -0.02849(8) 0.87709(7)
H10 H 0.64630 0.00420 0.90200
H11 H 0.91040 -0.02550 0.93310
C21 C 0.94493(6) 0.01604(7) 0.95839(7)
H12 H 0.97090 0.06010 0.98390
C22 C 0.90752(8) 0.24519(6) 0.86823(7)
C23 C 0.62212(6) -0.04683(8) 0.85999(7)
C24 C 0.97336(10) 0.00818(11) 0.95749(10)
C25 C 0.93278(8) 0.27408(8) 0.88382(5)
C26 C 0.89753(7) 0.24803(6) 0.83751(7)
C27 C 0.61977(6) -0.05810(9) 0.82870(7)
C28 C 0.59289(8) -0.05176(8) 0.87588(5)
C29 C 1.00776(11) 0.03390(11) 0.95729(10)
H13 H 0.93950 0.27220 0.90460
C30 C 0.94805(7) 0.30581(6) 0.86870(7)
C31 C 0.91281(8) 0.27976(8) 0.82238(5)
H14 H 0.88040 0.22850 0.82700
H15 H 0.63950 -0.05480 0.81800
C32 C 0.58819(8) -0.07429(8) 0.81331(5)
C33 C 0.56131(6) -0.06796(9) 0.86049(7)
H16 H 0.59450 -0.04410 0.89700
H17 H 1.01310 0.05690 0.95700
C34 C 0.93807(8) 0.30865(6) 0.83798(7)
C35 C 0.97557(12) 0.33703(12) 0.88581(10)
C36 C 0.90424(10) 0.28231(9) 0.78774(6)
C37 C 0.55896(6) -0.07922(8) 0.82920(7)
C38 C 0.58567(12) -0.08552(12) 0.77949(11)
C39 C 0.52947(12) -0.07279(13) 0.87781(10)
H18 H 0.94840 0.33010 0.82770
C40 C 1.00127(17) 0.3364(2) 0.90366(18)
C41 C 0.9718(2) 0.36585(17) 0.8843(2)
C42 C 0.89059(13) 0.25303(7) 0.76883(9)
C43 C 0.90829(9) 0.31277(7) 0.77533(7)
H19 H 0.53760 -0.09020 0.81880
C44 C 0.60493(14) -0.09919(16) 0.76794(12)
C45 C 0.56292(12) -0.08415(13) 0.75883(12)
C46 C 0.5321(3) -0.0496(2) 0.9011(2)
C47 C 0.49719(13) -0.09272(16) 0.86570(12)
C48 C 1.0255(2) 0.3661(2) 0.9190(2)
C49 C 0.9954(2) 0.3954(2) 0.9003(2)
C50 C 0.88100(13) 0.25421(8) 0.73752(9)
C51 C 0.89870(9) 0.31394(8) 0.74402(8)
H20 H 0.91750 0.33260 0.78810
H21 H 0.62040 -0.10090 0.78180
C52 C 0.60244(21) -0.11044(15) 0.73679(13)
H22 H 0.54880 -0.07570 0.76610
C53 C 0.56012(19) -0.09500(13) 0.72704(12)
C54 C 0.50197(17) -0.06797(26) 0.9276(2)
H23 H 0.49450 -0.10340 0.84580
C55 C 0.46820(13) -0.09757(19) 0.88223(12)
C56 C 1.02460(18) 0.39528(11) 0.91777(10)
C57 C 0.88505(11) 0.28466(10) 0.72512(6)
H24 H 0.90140 0.33450 0.73560
C58 C 0.57994(18) -0.10848(12) 0.71608(11)
H25 H 0.61620 -0.11940 0.72990
H26 H 0.54470 -0.09310 0.71320
C59 C 0.47136(12) -0.08186(18) 0.91066(12)
H27 H 0.44630 -0.11190 0.87360
C60 C 1.04923(16) 0.42656(11) 0.93544(12)
C61 C 0.87188(13) 0.28404(12) 0.69146(12)
C62 C 0.57680(21) -0.12112(13) 0.68332(12)
C63 C 0.44075(17) -0.08665(22) 0.92876(15)
O9 O 1.07881(25) 0.43318(19) 0.94250(18)
O10 O 1.0412(3) 0.4365(2) 0.96008(16)
O11 O 0.8632(2) 0.25845(17) 0.67406(19)
O12 O 0.87906(9) 0.31177(10) 0.67844(8)
O13 O 0.44518(10) -0.07243(15) 0.95558(11)
O14 O 0.4116(1) -0.10435(14) 0.91773(9)
In2 In 1.09395(3) 0.48326(2) 0.96529(2)
O15 O 0.80191(9) 0.2725(1) 0.65279(9)
O16 O 0.83376(9) 0.31705(9) 0.62305(9)
C64 C 0.80615(15) 0.29927(15) 0.63789(13)
C65 C 0.77815(8) 0.30768(10) 0.63907(9)
C66 C 0.74729(10) 0.28562(8) 0.65409(9)
C67 C 0.78210(8) 0.33652(9) 0.62315(9)
H28 H 0.74460 0.26610 0.66490
C68 C 0.72038(8) 0.29240(9) 0.65318(10)
C69 C 0.75519(10) 0.34331(8) 0.62224(9)
H29 H 0.80300 0.35140 0.61300
H30 H 0.69950 0.27750 0.66330
C70 C 0.72433(8) 0.32125(10) 0.63725(10)
H31 H 0.75790 0.36280 0.61150
C71 C 0.69394(11) 0.32723(12) 0.63606(15)
C72 C 0.66082(16) 0.3001(2) 0.6409(3)
C73 C 0.7911(6) 0.1519(5) -0.0106(6)
H32 H 0.79250 0.16410 0.00890
H33 H 0.78110 0.15900 -0.02740
H34 H 0.81390 0.15700 -0.01700
O17 O 0.8380(2) 0.1385(4) 0.0992(2)
N1 N 0.7844(3) 0.1150(4) 0.1518(2)
C74 C 0.8009(2) 0.1271(4) 0.0979(4)
C75 C 0.7918(4) 0.1257(4) 0.0660(3)
H35 H 0.80850 0.13200 0.05000
C76 C 0.7580(4) 0.1150(4) 0.0578(2)
C77 C 0.7333(3) 0.1056(4) 0.0815(3)
H36 H 0.71040 0.09830 0.07600
C78 C 0.7424(3) 0.1070(4) 0.1134(3)
H37 H 0.72570 0.10060 0.12950
C79 C 0.7762(3) 0.1177(4) 0.1216(2)
N2 N 0.7496(4) 0.1091(5) 0.0268(2)
C80 C 0.8201(3) 0.1235(4) 0.1587(4)
C81 C 0.8316(3) 0.1250(4) 0.1897(3)
C82 C 0.8662(4) 0.1369(4) 0.1954(3)
C83 C 0.8892(3) 0.1473(5) 0.1701(5)
C84 C 0.8776(4) 0.1458(5) 0.1390(4)
H38 H 0.89320 0.15290 0.12190
C85 C 0.8430(5) 0.1339(5) 0.1333(2)
C86 C 0.8734(9) 0.1318(9) 0.2266(4)
H39 H 0.89690 0.13940 0.22900
C87 C 0.8562(7) 0.1190(9) 0.2554(7)
H40 H 0.86570 0.11710 0.27470
C88 C 0.8222(8) 0.1096(11) 0.2495(9)
H41 H 0.80580 0.10170 0.26600
C89 C 0.8138(11) 0.1125(17) 0.2182(6)
H42 H 0.79010 0.10390 0.21560
N3 N 0.9272(3) 0.1667(6) 0.1701(7)
H43 H 0.93830 0.17330 0.18800
H44 H 0.93830 0.17150 0.15210
C90 C 0.7684(6) 0.1130(5) -0.0050(4)
H45 H 0.78250 0.10210 -0.00370
H46 H 0.75190 0.10240 -0.02250
C91 C 0.7038(7) 0.0634(5) 0.0032(6)
C92 C 0.7160(4) 0.1014(5) 0.0102(5)
H47 H 0.70040 0.10430 0.02440
H48 H 0.71990 0.11490 -0.00930
O18? O 0.85060(18) 0.25557(13) 0.67965(17)
O19? O 1.0799(3) 0.4403(2) 0.9267(2)
O20? O 1.03936(21) 0.44732(16) 0.94260(18)
C93? C 1.0320(2) 0.3882(2) 0.8860(3)
C94? C 0.9717(3) 0.3428(3) 0.91776(14)
C95? C 1.00655(16) 0.3591(2) 0.8708(2)
C96? C 0.9970(3) 0.3724(3) 0.9325(3)
C97? C 0.5319(3) -0.0647(3) 0.91013(12)
C98? C 0.50375(17) -0.05399(34) 0.9165(3)
C99? C 0.8777(3) 0.2540(2) 0.7725(3)
C100? C 0.8666(4) 0.2538(2) 0.7415(3)
C101? C 0.66108(17) 0.3003(2) 0.6298(3)
C29A C 0.96610(11) -0.02614(11) 0.95729(10)
C24B C 1.03482(10) 0.02664(11) 0.95749(10)
C24A C 0.99182(10) -0.03482(11) 0.95749(10)
H17A H 0.94310 -0.04380 0.95700
C21B C 1.07111(6) 0.05507(7) 0.95839(7)
C29B C 1.02614(11) -0.00776(11) 0.95729(10)
C21A C 0.98396(6) -0.07111(7) 0.95839(7)
C17B C 1.08063(7) 0.08627(6) 0.94371(7)
C18B C 1.09557(6) 0.05018(7) 0.97401(7)
H17B H 1.04380 -0.01310 0.95700
C17A C 1.00564(7) -0.08063(6) 0.94371(7)
C18A C 0.95461(6) -0.09557(7) 0.97401(7)
C11B C 1.11461(6) 0.11257(7) 0.94465(7)
H11B H 1.06410 0.08960 0.93310
H12B H 1.08920 0.02910 0.98390
C12B C 1.12955(8) 0.07647(6) 0.97495(7)
C11A C 0.99796(6) -0.11461(7) 0.94465(7)
H11A H 1.02550 -0.06410 0.93310
H12A H 0.93990 -0.08920 0.98390
C12A C 0.94692(8) -0.12955(6) 0.97495(7)
C6B C 1.13907(6) 0.10767(8) 0.96028(7)
H5B H 1.12110 0.13370 0.93470
H6B H 1.14610 0.07320 0.98550
C6A C 0.96860(6) -0.13907(8) 0.96028(7)
H5A H 1.01260 -0.12110 0.93470
H6A H 0.92710 -0.14610 0.98550
C3B C 1.17593(13) 0.13633(14) 0.95974(13)
C3A C 0.96040(13) -0.17593(14) 0.95974(13)
O7H O 0.557433(90) -0.118203(160) 0.662957(80)
O8H O 0.593483(90) -0.135643(160) 0.674597(80)
O5B O 1.18426(8) 0.16250(9) 0.94282(8)
O6B O 1.19791(8) 0.13409(9) 0.97653(8)
O5A O 0.97824(8) -0.18426(9) 0.94282(8)
O6A O 0.93618(8) -0.19791(9) 0.97653(8)
In2G In 0.850073(30) 0.277357(20) 0.631957(20)
In1H In 0.572873(20) -0.144873(20) 0.624427(20)
In2B In 0.38931(3) -0.09395(2) 0.96529(2)
In1B In 1.23954(2) 0.18846(2) 0.95776(2)
In1A In 0.94892(2) -0.23954(2) 0.95776(2)
O13H O 0.815723(100) 0.221487(150) 0.622247(110)
O14H O 0.817383(100) 0.255067(140) 0.584397(90)
O9G O 0.900153(250) 0.312297(190) 0.609167(180)
O10G O 0.896833(300) 0.271367(200) 0.626747(160)
O9B O 0.35437(25) -0.07881(19) 0.94250(18)
O10B O 0.3953(3) -0.0412(2) 0.96008(16)
O1A O 0.89150(8) -0.27378(8) 0.95741(8)
O2A O 0.91554(9) -0.24855(9) 0.91249(8)
O3A O 0.98785(8) -0.23886(9) 0.92343(8)
O4A O 0.95262(8) -0.28785(10) 0.94555(8)
O7A O 0.99103(9) -0.22410(16) 0.99629(8)
O8A O 0.93754(9) -0.26015(16) 1.00793(8)
C60B C 0.37733(16) -0.04923(11) 0.93544(12)
C1A C 0.88906(12) -0.26869(13) 0.92853(13)
C2A C 0.97738(12) -0.27034(15) 0.92754(12)
C56B C 0.37068(18) -0.02460(11) 0.91777(10)
C4A C 0.85410(8) -0.28614(6) 0.91257(7)
C5A C 0.99506(6) -0.28622(8) 0.90915(7)
C49B C 0.4000(2) 0.0046(2) 0.9003(2)
C48B C 0.3406(2) -0.0255(2) 0.9190(2)
C7A C 0.82501(8) -0.30442(8) 0.93132(5)
C8A C 0.85093(8) -0.28448(7) 0.87970(7)
C9A C 1.02129(7) -0.26660(9) 0.88780(8)
C10A C 0.98554(8) -0.32032(7) 0.91448(7)
C41B C 0.39405(20) 0.02820(17) 0.8843(2)
C40B C 0.33513(17) -0.00127(20) 0.90366(18)
H1A H 0.82720 -0.30550 0.95350
C13A C 0.79274(9) -0.32105(7) 0.91721(7)
C14A C 0.81866(8) -0.30110(8) 0.86559(5)
H2A H 0.87060 -0.27210 0.86700
H3A H 1.02770 -0.24360 0.88420
C15A C 1.03801(8) -0.28108(8) 0.87177(7)
C16A C 1.00225(7) -0.33480(9) 0.89845(7)
H4A H 0.96780 -0.33360 0.92890
C35B C 0.36146(12) 0.02443(12) 0.88581(10)
H7A H 0.77310 -0.33340 0.92990
C19A C 0.78957(8) -0.31939(6) 0.88435(7)
H8A H 0.81650 -0.30000 0.84340
H9A H 1.05570 -0.26790 0.85730
C20A C 1.02849(6) -0.31518(8) 0.87709(7)
H10A H 0.99580 -0.35790 0.90200
C30B C 0.35776(7) 0.05195(6) 0.86870(7)
C22A C 0.75481(8) -0.33767(6) 0.86823(7)
C23A C 1.04683(6) -0.33105(8) 0.85999(7)
C72A C 0.69990(16) 0.36072(20) 0.6409(3)
C25B C 0.34130(8) 0.06722(8) 0.88382(5)
C34B C 0.37058(8) 0.06193(6) 0.83798(7)
C25A C 0.72592(8) -0.34130(8) 0.88382(5)
C26A C 0.75197(7) -0.35050(6) 0.83751(7)
C27A C 1.05810(6) -0.32213(9) 0.82870(7)
C28A C 1.05176(8) -0.35535(8) 0.87588(5)
C71B C 0.63329(11) 0.30606(12) 0.63606(15)
C71A C 0.67277(11) 0.36671(12) 0.63606(15)
C22B C 0.33767(8) 0.09248(6) 0.86823(7)
H13B H 0.33270 0.06050 0.90460
H18B H 0.38170 0.05160 0.82770
C31B C 0.36695(8) 0.08719(8) 0.82238(5)
H13A H 0.72780 -0.33270 0.90460
C30A C 0.69419(7) -0.35776(6) 0.86870(7)
C31A C 0.72024(8) -0.36695(8) 0.82238(5)
H14A H 0.77150 -0.34810 0.82700
H15A H 1.05480 -0.30570 0.81800
C32A C 1.07429(8) -0.33752(8) 0.81331(5)
C33A C 1.06796(6) -0.37073(9) 0.86049(7)
H16A H 1.04410 -0.36140 0.89700
C70B C 0.59692(8) 0.27567(10) 0.63725(10)
C72B C 0.63928(16) 0.33918(20) 0.6409(3)
C70A C 0.67875(8) 0.40308(10) 0.63725(10)
C19B C 0.31939(8) 0.10896(6) 0.88435(7)
C26B C 0.35050(7) 0.10247(6) 0.83751(7)
C36B C 0.37807(10) 0.09576(9) 0.78774(6)
C34A C 0.69135(8) -0.37058(6) 0.83798(7)
C35A C 0.66297(12) -0.36146(12) 0.88581(10)
C36A C 0.71769(10) -0.37807(9) 0.78774(6)
C37A C 1.07922(6) -0.36182(8) 0.82920(7)
C38A C 1.08552(12) -0.32881(12) 0.77949(11)
C39A C 1.07279(12) -0.39774(13) 0.87781(10)
C68B C 0.57202(8) 0.27962(9) 0.65318(10)
C69B C 0.58812(10) 0.24481(8) 0.62224(9)
C68A C 0.70760(8) 0.42798(9) 0.65318(10)
C69A C 0.65669(10) 0.41188(8) 0.62224(9)
C13B C 0.32105(9) 0.11379(7) 0.91721(7)
C14B C 0.30110(8) 0.11976(8) 0.86559(5)
H14B H 0.34810 0.11960 0.82700
C42B C 0.36244(13) 0.10941(7) 0.76883(9)
C43B C 0.40448(9) 0.09171(7) 0.77533(7)
H18A H 0.66990 -0.38170 0.82770
C40A C 0.66360(17) -0.33513(20) 0.90366(18)
C41A C 0.63415(20) -0.39405(17) 0.8843(2)
C42A C 0.74697(13) -0.36244(7) 0.76883(9)
C43A C 0.68723(9) -0.40448(7) 0.77533(7)
H19A H 1.09020 -0.37220 0.81880
C44A C 1.09919(14) -0.29588(16) 0.76794(12)
C45A C 1.08415(12) -0.35293(13) 0.75883(12)
C46A C 1.0496(3) -0.4183(2) 0.9011(2)
C47A C 1.09272(13) -0.41009(16) 0.86570(12)
C66B C 0.53833(10) 0.25271(8) 0.65409(9)
H30B H 0.57800 0.30050 0.66330
H31B H 0.60490 0.24210 0.61150
C67B C 0.55442(8) 0.21790(9) 0.62315(9)
C66A C 0.71438(10) 0.46167(8) 0.65409(9)
H30A H 0.72250 0.42200 0.66330
H31A H 0.63720 0.39510 0.61150
C67A C 0.66348(8) 0.44558(9) 0.62315(9)
C7B C 0.30442(8) 0.12943(8) 0.93132(5)
H7B H 0.33340 0.10650 0.92990
H8B H 0.30000 0.11650 0.84340
C8B C 0.28448(8) 0.13541(7) 0.87970(7)
C50B C 0.37321(13) 0.11900(8) 0.73752(9)
C51B C 0.41524(9) 0.10130(8) 0.74402(8)
H20B H 0.41510 0.08250 0.78810
C48A C 0.6339(2) -0.3406(2) 0.9190(2)
C49A C 0.6046(2) -0.4000(2) 0.9003(2)
C50A C 0.74579(13) -0.37321(8) 0.73752(9)
C51A C 0.68606(9) -0.41524(8) 0.74402(8)
H20A H 0.66740 -0.41510 0.78810
H21A H 1.10090 -0.27870 0.78180
C52A C 1.11044(21) -0.28712(15) 0.73679(13)
H22A H 1.07570 -0.37550 0.76610
C53A C 1.09500(19) -0.34488(13) 0.72704(12)
C54A C 1.06797(17) -0.43006(26) 0.9276(2)
H23A H 1.10340 -0.40210 0.84580
C55A C 1.09757(13) -0.43423(19) 0.88223(12)
C65B C 0.52953(8) 0.22185(10) 0.63907(9)
H28B H 0.52150 0.25540 0.66490
H29B H 0.54840 0.19700 0.61300
C65A C 0.69232(8) 0.47047(10) 0.63907(9)
H28A H 0.73390 0.47850 0.66490
H29A H 0.64860 0.45160 0.61300
C4B C 0.28614(8) 0.14024(6) 0.91257(7)
H1B H 0.30550 0.13270 0.95350
H2B H 0.27210 0.14270 0.86700
C57B C 0.39961(11) 0.11495(10) 0.72512(6)
H24B H 0.43310 0.09860 0.73560
C56A C 0.60472(18) -0.37068(11) 0.91777(10)
C57A C 0.71534(11) -0.39961(10) 0.72512(6)
H24A H 0.66550 -0.43310 0.73560
C58A C 1.10848(18) -0.31158(12) 0.71608(11)
H25A H 1.11940 -0.26440 0.72990
H26A H 1.09310 -0.36220 0.71320
C59A C 1.08186(12) -0.44678(18) 0.91066(12)
H27A H 1.11190 -0.44180 0.87360
C64B C 0.49312(15) 0.19385(15) 0.63789(13)
C64A C 0.70073(15) 0.50688(15) 0.63789(13)
C1B C 0.26869(12) 0.15775(13) 0.92853(13)
C61B C 0.41216(13) 0.12812(12) 0.69146(12)
C60A C 0.57344(16) -0.37733(11) 0.93544(12)
C61A C 0.71596(13) -0.41216(12) 0.69146(12)
C62A C 1.12112(21) -0.30208(13) 0.68332(12)
C63A C 1.08665(17) -0.47260(22) 0.92876(15)
O15B O 0.47059(9) 0.19809(10) 0.65279(9)
O16B O 0.48329(9) 0.16624(9) 0.62305(9)
O15A O 0.72750(9) 0.52941(10) 0.65279(9)
O16A O 0.68295(9) 0.51671(9) 0.62305(9)
O9H O 0.687703(250) -0.412143(190) 0.609167(180)
O10H O 0.728633(300) -0.374533(200) 0.626747(160)
O1B O 0.27378(8) 0.16528(8) 0.95741(8)
O2B O 0.24855(9) 0.16409(9) 0.91249(8)
O11B O 0.39525(20) 0.13680(17) 0.67406(19)
O12B O 0.43271(9) 0.12094(10) 0.67844(8)
O9A O 0.56682(25) -0.35437(19) 0.94250(18)
O10A O 0.5635(3) -0.3953(2) 0.96008(16)
O11A O 0.74155(20) -0.39525(17) 0.67406(19)
O12A O 0.68823(9) -0.43271(10) 0.67844(8)
O7F O 1.118203(90) -0.324363(160) 0.662957(80)
O8F O 1.135643(90) -0.270873(160) 0.674597(80)
O13A O 1.07243(10) -0.48239(15) 0.95558(11)
O14A O 1.10435(10) -0.48405(14) 0.91773(9)
In2F In 0.427283(30) 0.149927(20) 0.631957(20)
In2H In 0.722643(30) 0.572717(20) 0.631957(20)
In2H* In 0.722643(30) -0.427283(20) 0.631957(20)
In1B* In 0.23954(2) 0.18846(2) 0.95776(2)
In2A In 0.51674(3) -0.38931(2) 0.96529(2)
In1F In 1.144873(20) -0.282253(20) 0.624427(20)
In2* In 1.09395(3) -0.51674(2) 0.96529(2)
O13G O 0.405763(100) 0.184277(150) 0.622247(110)
O14G O 0.437683(100) 0.182617(140) 0.584397(90)
O9F O 0.412143(250) 0.099847(190) 0.609167(180)
O10F O 0.374533(300) 0.103167(200) 0.626747(160)
O15A* O 0.72750(9) -0.47059(10) 0.65279(9)
O16A* O 0.68295(9) -0.48329(9) 0.62305(9)
O13F O 0.778513(100) -0.405763(150) 0.622247(110)
O14F O 0.744933(100) -0.437683(140) 0.584397(90)
O3B O 0.23886(8) 0.22671(9) 0.92343(8)
O4B O 0.28785(8) 0.24047(10) 0.94555(8)
O5B* O 0.18426(8) 0.16250(9) 0.94282(8)
O6B* O 0.19791(8) 0.13409(9) 0.97653(8)
O7B O 0.22410(9) 0.21513(16) 0.99629(8)
O8B O 0.26015(9) 0.19769(16) 1.00793(8)
C2B C 0.27034(12) 0.24772(15) 0.92754(12)
C5B C 0.28622(6) 0.28128(8) 0.90915(7)
C9B C 0.26660(7) 0.28789(9) 0.88780(8)
C10B C 0.32032(8) 0.30586(7) 0.91448(7)
H3B H 0.24360 0.27130 0.88420
C15B C 0.28108(8) 0.31909(8) 0.87177(7)
C16B C 0.33480(7) 0.33705(9) 0.89845(7)
H4B H 0.33360 0.30140 0.92890
H9B H 0.26790 0.32360 0.85730
C20B C 0.31518(6) 0.34367(8) 0.87709(7)
H10B H 0.35790 0.35370 0.90200
C23B C 0.33105(6) 0.37788(8) 0.85999(7)
C27B C 0.32213(6) 0.38023(9) 0.82870(7)
C28B C 0.35535(8) 0.40711(8) 0.87588(5)
H15B H 0.30570 0.36050 0.81800
C32B C 0.33752(8) 0.41181(8) 0.81331(5)
C33B C 0.37073(6) 0.43869(9) 0.86049(7)
H16B H 0.36140 0.40550 0.89700
C37B C 0.36182(6) 0.44104(8) 0.82920(7)
C38B C 0.32881(12) 0.41433(12) 0.77949(11)
C39B C 0.39774(12) 0.47053(13) 0.87781(10)
H19B H 0.37220 0.46240 0.81880
C44B C 0.29588(14) 0.39507(16) 0.76794(12)
C45B C 0.35293(12) 0.43708(13) 0.75883(12)
C46B C 0.4183(3) 0.4679(2) 0.9011(2)
C47B C 0.41009(13) 0.50281(16) 0.86570(12)
H21B H 0.27870 0.37960 0.78180
C52B C 0.28712(21) 0.39756(15) 0.73679(13)
H22B H 0.37550 0.45120 0.76610
C53B C 0.34488(19) 0.43988(13) 0.72704(12)
C54B C 0.43006(17) 0.49803(26) 0.9276(2)
H23B H 0.40210 0.50550 0.84580
C55B C 0.43423(13) 0.53180(19) 0.88223(12)
C58B C 0.31158(18) 0.42006(12) 0.71608(11)
H25B H 0.26440 0.38380 0.72990
H26B H 0.36220 0.45530 0.71320
C59B C 0.44678(12) 0.52864(18) 0.91066(12)
H27B H 0.44180 0.55370 0.87360
C62B C 0.30208(21) 0.42320(13) 0.68332(12)
C63B C 0.47260(17) 0.55925(22) 0.92876(15)
O7G O 0.324363(90) 0.442567(160) 0.662957(80)
O8G O 0.270873(90) 0.406517(160) 0.674597(80)
O13B O 0.48239(10) 0.55482(15) 0.95558(11)
O14B O 0.48405(10) 0.58840(14) 0.91773(9)
In1G In 0.282253(20) 0.427127(20) 0.624427(20)
In2A* In 0.51674(3) 0.61069(2) 0.96529(2)
#END
