
#######################################################################
#
#                 Cambridge Crystallographic Data Centre
#                                CCDC
#
#######################################################################
#
# If this CIF has been generated from an entry in the Cambridge
# Structural Database, then it will include bibliographic, chemical,
# crystal, experimental, refinement or atomic coordinate data resulting
# from the CCDC's data processing and validation procedures.
#
#######################################################################

data_CSD_CIF_CIFQUG
_audit_creation_date 2018-07-02
_audit_creation_method CSD-ConQuest-V1
_database_code_CSD CIFQUG
_database_code_depnum_ccdc_archive 'CCDC 1533176'
_chemical_formula_sum 'C258.8 H214.5 Cl0.75 In6 N8.25 O48'
_chemical_formula_moiety
;
(C216 H120 In6 O48 6-)n,0.75(C25 H30 N3 1+),0.75(Cl1 1-),6(C4 H12 N1 1+)
;
_journal_coden_Cambridge 1540
_journal_volume 8
_journal_year 2018
_journal_page_first 9838
_journal_name_full 'Scientific Reports '
loop_
_publ_author_name
"In-Hwan Choi"
"Suk Bin Yoon"
"Seong Huh"
"Sung-Jin Kim"
"Youngmee Kim"
_chemical_name_systematic
;
catena-[hexakis(diethylammonium) 
4-{bis[4-(dimethylamino)phenyl]methylidene}-N,N-dimethylcyclohexa-2,5-dien-1-i
minium chloride octakis(\m-1,3,5-benzenetribenzoato)-hexa-indium(iii) unknown 
solvate]
;
_chemical_name_common
;
catena-[hexakis(diethylammonium) crystal violet  
octakis(mu-1,3,5-benzenetribenzoato)-hexa-indium(iii) unknown solvate]
;
_cell_volume  73843.043
_exptl_crystal_colour 'violet'
_exptl_crystal_description 'block'
_diffrn_ambient_temperature 296
_refine_special_details
;
The structure is disordered. Disordered chloride anion, diethylammonium 
cations and solvent molecules were not modelled and the disordered density 
was taken into account using the SQUEEZE/PLATON procedure.
;
#These two values have been output from a single CSD field.
_refine_ls_R_factor_gt 0.1539
_refine_ls_wR_factor_gt 0.1539
_symmetry_cell_setting rhombohedral
_symmetry_space_group_name_H-M 'R -3'
_symmetry_Int_Tables_number 148
loop_
_symmetry_equiv_pos_site_id
_symmetry_equiv_pos_as_xyz
1 x,y,z
2 -y,x-y,z
3 -x+y,-x,z
4 2/3+x,1/3+y,1/3+z
5 2/3-y,1/3+x-y,1/3+z
6 2/3-x+y,1/3-x,1/3+z
7 1/3+x,2/3+y,2/3+z
8 1/3-y,2/3+x-y,2/3+z
9 1/3-x+y,2/3-x,2/3+z
10 -x,-y,-z
11 y,-x+y,-z
12 x-y,x,-z
13 -2/3-x,-1/3-y,-1/3-z
14 -2/3+y,-1/3-x+y,-1/3-z
15 -2/3+x-y,-1/3+x,-1/3-z
16 -1/3-x,-2/3-y,-2/3-z
17 -1/3+y,-2/3-x+y,-2/3-z
18 -1/3+x-y,-2/3+x,-2/3-z
_cell_length_a 45.2799(19)
_cell_length_b 45.2799(19)
_cell_length_c 41.588(2)
_cell_angle_alpha 90
_cell_angle_beta 90
_cell_angle_gamma 120
_cell_formula_units_Z 6
loop_
_atom_type_symbol
_atom_type_radius_bond
C 0.68
H 0.23
In 1.42
N 0.68
O 0.68
loop_
_atom_site_label
_atom_site_type_symbol
_atom_site_fract_x
_atom_site_fract_y
_atom_site_fract_z
In1 In 0.38639(2) 0.90595(2) 0.70668(2)
O1 O 0.44280(13) 0.93856(15) 0.70805(14)
O2 O 0.42039(15) 0.91594(17) 0.75354(16)
O3 O 0.39799(16) 0.92709(17) 0.65597(13)
O4 O 0.34509(17) 0.89018(15) 0.66658(15)
O5 O 0.39798(19) 0.86306(17) 0.6867(2)
O6 O 0.35967(18) 0.85198(14) 0.72249(17)
O7 O 0.38222(27) 0.95372(15) 0.72033(14)
O8 O 0.34592(24) 0.90444(14) 0.74049(14)
C1 C 0.4461(2) 0.9347(2) 0.7368(3)
C2 C 0.3689(3) 0.9107(2) 0.6476(2)
C3 C 0.3749(3) 0.8424(2) 0.7054(3)
C4 C 0.4806(2) 0.9513(2) 0.7519(2)
C5 C 0.3575(2) 0.9129(2) 0.61350(19)
C6 C 0.36719(16) 0.80534(10) 0.70694(16)
C7 C 0.5084(2) 0.9690(2) 0.7326(2)
C8 C 0.4855(2) 0.9494(2) 0.7849(2)
C9 C 0.3252(2) 0.8947(2) 0.6028(2)
C10 C 0.3833(3) 0.9351(3) 0.5919(2)
C11 C 0.38646(13) 0.79460(12) 0.68978(16)
C12 C 0.33979(18) 0.78216(16) 0.72547(18)
H1 H 0.50570 0.97050 0.71060
C13 C 0.5415(2) 0.9850(2) 0.7465(2)
C14 C 0.51690(19) 0.9648(2) 0.79799(19)
H2 H 0.46660 0.93730 0.79800
H3 H 0.30810 0.88000 0.61680
C15 C 0.3171(2) 0.8976(2) 0.5720(2)
C16 C 0.3758(2) 0.9390(2) 0.5605(2)
H4 H 0.40570 0.94740 0.59900
H5 H 0.40480 0.81010 0.67740
C17 C 0.37835(14) 0.76069(14) 0.69114(16)
C18 C 0.33167(17) 0.74824(15) 0.7268(2)
H6 H 0.56060 0.99640 0.73330
C19 C 0.54595(18) 0.98391(18) 0.77965(18)
H7 H 0.51920 0.96250 0.81990
H8 H 0.29470 0.88440 0.56520
C20 C 0.3417(2) 0.91988(19) 0.5503(2)
H9 H 0.39280 0.95390 0.54660
H10 H 0.39120 0.75350 0.67970
C21 C 0.35095(16) 0.73751(10) 0.70967(18)
C22 C 0.58034(16) 1.00122(19) 0.79444(16)
C23 C 0.3325(2) 0.92231(19) 0.51519(19)
C24 C 0.3431(3) 0.70226(18) 0.7025(4)
C25 C 0.60940(18) 1.00534(19) 0.77938(18)
C26 C 0.58403(18) 1.0146(2) 0.82586(19)
C27 C 0.3093(2) 0.89446(19) 0.49922(17)
C28 C 0.3468(2) 0.9535(2) 0.5000(2)
C29 C 0.3671(3) 0.6921(3) 0.7165(3)
H11 H 0.60740 0.99610 0.75900
C30 C 0.64173(18) 1.0228(2) 0.79356(17)
C31 C 0.61591(18) 1.0312(2) 0.84146(17)
H12 H 0.56490 1.01230 0.83650
H13 H 0.29980 0.87330 0.50930
C32 C 0.2987(2) 0.89642(19) 0.46729(19)
C33 C 0.3375(2) 0.95755(17) 0.46937(18)
H14 H 0.36340 0.97260 0.51080
C34 C 0.64364(18) 1.0344(2) 0.82478(18)
C35 C 0.67255(18) 1.0279(2) 0.77825(19)
C36 C 0.61689(18) 1.04318(19) 0.87465(17)
C37 C 0.3143(2) 0.9286(2) 0.45357(18)
C38 C 0.27379(19) 0.8655(2) 0.45004(19)
C39 C 0.3533(2) 0.9907(3) 0.45358(18)
H15 H 0.66480 1.04490 0.83500
C40 C 0.6733(2) 1.0014(3) 0.7608(2)
C41 C 0.7048(5) 1.0558(7) 0.7837(10)
C42 C 0.64596(19) 1.0714(2) 0.88670(19)
C43 C 0.5898(2) 1.0282(3) 0.8949(2)
H16 H 0.30880 0.93070 0.43250
C44 C 0.2561(4) 0.8335(2) 0.4632(2)
C45 C 0.2637(4) 0.8672(2) 0.4187(2)
C46 C 0.3344(2) 0.9995(3) 0.4339(2)
C47 C 0.3874(2) 1.0156(3) 0.4570(2)
H17 H 0.65400 0.97990 0.75960
C48 C 0.7039(4) 1.0080(3) 0.7452(2)
C49 C 0.7314(4) 1.0648(3) 0.7608(2)
H18 H 0.66510 1.08320 0.87370
C50 C 0.6466(2) 1.0823(3) 0.9188(2)
C51 C 0.5897(2) 1.0386(3) 0.9263(2)
H19 H 0.56990 1.00960 0.88720
C52 C 0.2324(4) 0.8054(2) 0.4478(2)
H20 H 0.26080 0.83100 0.48450
C53 C 0.2392(4) 0.8403(2) 0.4024(2)
H21 H 0.27450 0.88820 0.40840
C54 C 0.34773(19) 1.03097(28) 0.4179(2)
H22 H 0.31150 0.98360 0.43090
C55 C 0.4020(2) 1.0471(3) 0.4412(2)
H23 H 0.40120 1.01110 0.47030
C56 C 0.7314(3) 1.0380(2) 0.7455(2)
H24 H 0.70440 0.99030 0.73440
H25 H 0.75120 1.08600 0.76140
H26 H 0.66650 1.10040 0.92700
C57 C 0.6183(2) 1.0667(2) 0.93776(18)
H27 H 0.57060 1.02670 0.93930
C58 C 0.2234(3) 0.8080(2) 0.4164(2)
H28 H 0.22210 0.78440 0.45810
H29 H 0.23300 0.84340 0.38190
C59 C 0.3821(2) 1.0550(3) 0.42165(19)
H30 H 0.33370 1.03580 0.40510
H31 H 0.42500 1.06280 0.44390
C60 C 0.7642(4) 1.0447(3) 0.7273(2)
C61 C 0.6173(3) 1.0786(2) 0.9708(2)
C62 C 0.19789(28) 0.7779(2) 0.3978(2)
C63 C 0.3986(2) 1.0883(3) 0.4040(2)
O9 O 0.76900(23) 1.02151(17) 0.72132(15)
O10 O 0.78350(26) 1.0749(2) 0.71856(18)
O11 O 0.6430(2) 1.1018(2) 0.98298(15)
O12 O 0.5901(2) 1.06526(17) 0.98564(15)
O13 O 0.18369(23) 0.74854(16) 0.41071(14)
O14 O 0.18997(19) 0.78178(13) 0.37040(13)
In2 In 0.81966(3) 1.05848(2) 0.69716(2)
O15 O 0.60422(15) 1.13820(13) 1.00781(15)
O16 O 0.64807(14) 1.15091(12) 1.03978(14)
C64 C 0.6302(2) 1.1599(2) 1.0230(2)
C65 C 0.6395(2) 1.19676(15) 1.0233(2)
C66 C 0.6188(2) 1.2075(2) 1.0090(3)
C67 C 0.6665(2) 1.2190(2) 1.0429(2)
C68 C 0.6249(3) 1.2404(3) 1.0143(3)
C69 C 0.6726(3) 1.2519(2) 1.0481(3)
C70 C 0.6518(3) 1.26260(18) 1.0338(3)
C71 C 0.6596(4) 1.2985(2) 1.0327(5)
C72 C 0.6327(4) 1.3051(5) 1.0339(5)
N1 N 0.5075(3) 0.1120(7) -0.0066(7)
N2 N 0.2733(4) -0.0906(3) -0.0026(5)
C73 C 0.4147(3) 0.0531(4) -0.0177(4)
H32 H 0.40090 0.03460 -0.03080
C74 C 0.4499(4) 0.0685(5) -0.0197(4)
H33 H 0.45980 0.06030 -0.03420
C75 C 0.4705(2) 0.0961(5) -0.0001(5)
C76 C 0.4558(4) 0.1083(4) 0.0215(5)
H34 H 0.46950 0.12680 0.03470
C77 C 0.4205(4) 0.0929(5) 0.0236(5)
H35 H 0.41060 0.10110 0.03810
C78 C 0.3999(3) 0.0653(5) 0.0040(4)
C79 C 0.3626(2) 0.0506(2) 0.0076(5)
C80 C 0.3405(3) 0.0173(3) 0.0035(4)
C81 C 0.3522(4) -0.0071(3) 0.0115(5)
H36 H 0.37480 0.00130 0.01750
C82 C 0.3311(3) -0.0409(4) 0.0104(5)
H37 H 0.33900 -0.05490 0.01810
C83 C 0.2959(3) -0.0571(3) -0.0023(5)
C84 C 0.2853(5) -0.0324(3) -0.0123(6)
H38 H 0.26350 -0.04080 -0.02080
C85 C 0.3055(3) 0.0014(3) -0.0098(4)
H39 H 0.29730 0.01550 -0.01660
N3 N 0.3142(5) 0.1446(5) 0.0244(7)
C86 C 0.3509(4) 0.0758(3) 0.0092(4)
C87 C 0.3206(3) 0.0662(3) 0.0254(4)
H40 H 0.30740 0.04400 0.03290
C88 C 0.3101(4) 0.0899(4) 0.0304(4)
H41 H 0.28980 0.08350 0.04130
C89 C 0.3299(5) 0.1231(4) 0.0192(4)
C90 C 0.3602(4) 0.1326(3) 0.0030(4)
H42 H 0.37340 0.15480 -0.00450
C91 C 0.3707(3) 0.1090(4) -0.0020(4)
H43 H 0.39100 0.11530 -0.01290
C92 C 0.5243(9) 0.0977(9) -0.0267(9)
C93 C 0.5273(8) 0.1389(8) 0.0173(7)
C94 C 0.2745(9) -0.1217(6) 0.0058(9)
C95 C 0.2361(4) -0.1053(7) -0.0067(7)
C96 C 0.2784(5) 0.1317(8) 0.0342(8)
C97 C 0.3304(9) 0.1801(6) 0.0125(8)
C98? C 0.3325(4) 0.7489(4) 0.7265(4)
C99? C 0.3426(3) 0.70209(16) 0.7167(4)
C100? C 0.3678(3) 0.6926(4) 0.7019(4)
C101? C 0.6221(5) 1.2056(3) 1.0014(5)
C102? C 0.6276(3) 1.2386(3) 0.9982(3)
C103? C 0.6540(2) 1.2643(2) 1.0158(3)
C104? C 0.6756(3) 1.2558(3) 1.0320(4)
C105? C 0.6690(5) 1.2223(3) 1.0317(6)
C106? C 0.6602(3) 1.2996(2) 1.0136(4)
C107? C 0.6333(3) 1.3061(3) 1.0148(4)
C108? C 0.7012(3) 1.0602(3) 0.7758(5)
C29A C 0.3079(3) 0.6750(3) 0.7165(3)
C24B C 0.35916(30) 0.65690(18) 0.7025(4)
C24A C 0.29774(30) 0.64084(18) 0.7025(4)
C21B C 0.38656(16) 0.64905(10) 0.70967(18)
C29B C 0.3250(3) 0.6329(3) 0.7165(3)
C21A C 0.26249(16) 0.61344(10) 0.70967(18)
C17B C 0.38234(14) 0.62165(14) 0.69114(16)
C18B C 0.41657(17) 0.66833(15) 0.7268(2)
C17A C 0.23931(14) 0.61766(14) 0.69114(16)
C18A C 0.25176(17) 0.58343(15) 0.7268(2)
C11B C 0.40814(13) 0.61354(12) 0.68978(16)
H10B H 0.36230 0.60880 0.67970
C12B C 0.44237(18) 0.66021(16) 0.72547(18)
C11A C 0.20540(13) 0.59186(12) 0.68978(16)
H10A H 0.24650 0.63770 0.67970
C12A C 0.21784(18) 0.55763(16) 0.72547(18)
C6B C 0.43815(16) 0.63281(10) 0.70694(16)
H5B H 0.40530 0.59520 0.67740
C6A C 0.19466(16) 0.56185(10) 0.70694(16)
H5A H 0.18990 0.59470 0.67740
C3B C 0.4675(3) 0.6251(2) 0.7054(3)
C3A C 0.1576(3) 0.5325(2) 0.7054(3)
O7G O 0.379613(270) 1.095167(150) 0.386997(140)
O8G O 0.428893(240) 1.108147(140) 0.407157(140)
O5B O 0.46508(19) 0.60202(17) 0.6867(2)
O6B O 0.49231(18) 0.64033(14) 0.72249(17)
O5A O 0.13694(19) 0.53492(17) 0.6867(2)
O6A O 0.14802(18) 0.50769(14) 0.72249(17)
In2D In 0.608187(30) 1.094513(20) 1.030493(20)
In2F In 0.152993(30) 0.725147(20) 0.363827(20)
In1G In 0.427383(20) 1.147107(20) 0.373347(20)
In1B In 0.51956(2) 0.61361(2) 0.70668(2)
In1A In 0.09405(2) 0.48044(2) 0.70668(2)
O13G O 0.584793(230) 1.101817(160) 1.077377(140)
O14G O 0.551553(190) 1.074857(130) 1.037067(130)
O9D O 0.645157(230) 1.080823(170) 1.054653(150)
O10D O 0.591767(260) 1.041933(200) 1.051893(180)
O1B O 0.49576(13) 0.55720(15) 0.70805(14)
O2B O 0.49555(15) 0.57961(17) 0.75354(16)
O3B O 0.52910(16) 0.60201(17) 0.65597(13)
O4B O 0.54509(17) 0.65491(15) 0.66658(15)
O7B O 0.57150(27) 0.61778(15) 0.72033(14)
O8B O 0.55852(24) 0.65408(14) 0.74049(14)
O1A O 0.06144(13) 0.50424(15) 0.70805(14)
O2A O 0.08406(15) 0.50445(17) 0.75354(16)
O3A O 0.07291(16) 0.47090(17) 0.65597(13)
O4A O 0.10982(17) 0.45491(15) 0.66658(15)
O7A O 0.04628(27) 0.42850(15) 0.72033(14)
O8A O 0.09556(24) 0.44148(14) 0.74049(14)
C1B C 0.4886(2) 0.5539(2) 0.7368(3)
C2B C 0.5418(3) 0.6311(2) 0.6476(2)
C1A C 0.0653(2) 0.5114(2) 0.7368(3)
C2A C 0.0893(3) 0.4582(2) 0.6476(2)
C4B C 0.4707(2) 0.5194(2) 0.7519(2)
C5B C 0.5554(2) 0.6425(2) 0.61350(19)
C4A C 0.0487(2) 0.5293(2) 0.7519(2)
C5A C 0.0871(2) 0.4446(2) 0.61350(19)
C7B C 0.4606(2) 0.4916(2) 0.7326(2)
C8B C 0.4639(2) 0.5145(2) 0.7849(2)
C9B C 0.5695(2) 0.6748(2) 0.6028(2)
C10B C 0.5518(3) 0.6167(3) 0.5919(2)
C7A C 0.0310(2) 0.5394(2) 0.7326(2)
C8A C 0.0506(2) 0.5361(2) 0.7849(2)
C9A C 0.1053(2) 0.4305(2) 0.6028(2)
C10A C 0.0649(3) 0.4482(3) 0.5919(2)
H1B H 0.46480 0.49430 0.71060
C13B C 0.4435(2) 0.4585(2) 0.7465(2)
C14B C 0.44790(19) 0.4831(2) 0.79799(19)
H2B H 0.47070 0.53340 0.79800
H3B H 0.57190 0.69190 0.61680
C15B C 0.5805(2) 0.6829(2) 0.5720(2)
C16B C 0.5632(2) 0.6242(2) 0.5605(2)
H4B H 0.54170 0.59430 0.59900
H1A H 0.02950 0.53520 0.71060
C13A C 0.0150(2) 0.5565(2) 0.7465(2)
C14A C 0.03520(19) 0.5521(2) 0.79799(19)
H2A H 0.06270 0.52930 0.79800
H3A H 0.12000 0.42810 0.61680
C15A C 0.1024(2) 0.4195(2) 0.5720(2)
C16A C 0.0610(2) 0.4368(2) 0.5605(2)
H4A H 0.05260 0.45830 0.59900
H6B H 0.43580 0.43940 0.73330
C19B C 0.43796(18) 0.45405(18) 0.77965(18)
H7B H 0.44330 0.48080 0.81990
H8B H 0.58970 0.70530 0.56520
C20B C 0.57818(20) 0.65830(19) 0.5503(2)
H9B H 0.56110 0.60720 0.54660
H6A H 0.00360 0.56420 0.73330
C19A C 0.01609(18) 0.56204(18) 0.77965(18)
H7A H 0.03750 0.55670 0.81990
H8A H 0.11560 0.41030 0.56520
C20A C 0.08012(20) 0.42182(19) 0.5503(2)
H9A H 0.04610 0.43890 0.54660
C22B C 0.42088(16) 0.41966(19) 0.79444(16)
C23B C 0.58981(20) 0.66750(19) 0.51519(19)
C22A C -0.00122(16) 0.57912(19) 0.79444(16)
C23A C 0.07769(20) 0.41019(19) 0.51519(19)
C72A C 0.6949(4) 1.3276(5) 1.0339(5)
C25B C 0.39594(18) 0.39060(19) 0.77938(18)
C26B C 0.43057(18) 0.41597(20) 0.82586(19)
C27B C 0.58516(20) 0.69070(19) 0.49922(17)
C28B C 0.6067(2) 0.6532(2) 0.5000(2)
C25A C -0.00534(18) 0.60406(19) 0.77938(18)
C26A C -0.01460(18) 0.56943(20) 0.82586(19)
C27A C 0.10554(20) 0.41484(19) 0.49922(17)
C28A C 0.0465(2) 0.3933(2) 0.5000(2)
C71B C 0.6389(4) 1.3404(2) 1.0327(5)
C71A C 0.7015(4) 1.3611(2) 1.0327(5)
H11B H 0.38870 0.39260 0.75900
C30B C 0.38107(18) 0.35827(20) 0.79356(17)
C31B C 0.41529(18) 0.38409(20) 0.84146(17)
H12B H 0.44740 0.43510 0.83650
H13B H 0.57350 0.70020 0.50930
C32B C 0.59772(20) 0.70130(19) 0.46729(19)
C33B C 0.62005(20) 0.66250(17) 0.46937(18)
H14B H 0.60920 0.63660 0.51080
H11A H 0.00390 0.61130 0.75900
C30A C -0.02280(18) 0.61893(20) 0.79356(17)
C31A C -0.03120(18) 0.58471(20) 0.84146(17)
H12A H -0.01230 0.55260 0.83650
H13A H 0.12670 0.42650 0.50930
C32A C 0.10358(20) 0.40228(19) 0.46729(19)
C33A C 0.04245(20) 0.37995(17) 0.46937(18)
H14A H 0.02740 0.39080 0.51080
C70B C 0.6108(3) 1.34820(18) 1.0338(3)
C72B C 0.6724(4) 1.3673(5) 1.0339(5)
C70A C 0.7374(3) 1.38920(18) 1.0338(3)
C34B C 0.39076(18) 0.35636(20) 0.82478(18)
C35B C 0.35535(18) 0.32745(20) 0.77825(19)
C36B C 0.42629(18) 0.38311(19) 0.87465(17)
C37B C 0.6143(2) 0.6857(2) 0.45357(18)
C38B C 0.59171(19) 0.72621(20) 0.45004(19)
C39B C 0.6374(2) 0.6467(3) 0.45358(18)
C34A C -0.03440(18) 0.60924(20) 0.82478(18)
C35A C -0.02790(18) 0.64465(20) 0.77825(19)
C36A C -0.04318(18) 0.57371(19) 0.87465(17)
C37A C 0.0714(2) 0.3857(2) 0.45357(18)
C38A C 0.13450(19) 0.40829(20) 0.45004(19)
C39A C 0.0093(2) 0.3626(3) 0.45358(18)
C68B C 0.6155(3) 1.3751(3) 1.0143(3)
C69B C 0.5793(3) 1.3274(2) 1.0481(3)
C68A C 0.7596(3) 1.3845(3) 1.0143(3)
C69A C 0.7481(3) 1.4207(2) 1.0481(3)
H15B H 0.38010 0.33520 0.83500
C40B C 0.3281(2) 0.3267(3) 0.7608(2)
C41B C 0.3510(5) 0.2952(7) 0.7837(10)
C42B C 0.42544(19) 0.35404(20) 0.88670(19)
C43B C 0.4384(2) 0.4102(3) 0.8949(2)
H16B H 0.62190 0.69120 0.43250
C44B C 0.5774(4) 0.7439(2) 0.4632(2)
C45B C 0.6035(4) 0.7363(2) 0.4187(2)
C46B C 0.6651(2) 0.6656(3) 0.4339(2)
C47B C 0.6282(2) 0.6126(3) 0.4570(2)
H15A H -0.04490 0.61990 0.83500
C40A C -0.0014(2) 0.6719(3) 0.7608(2)
C41A C -0.0558(5) 0.6490(7) 0.7837(10)
C42A C -0.07140(19) 0.57456(20) 0.88670(19)
C43A C -0.0282(2) 0.5616(3) 0.8949(2)
H16A H 0.06930 0.37810 0.43250
C44A C 0.1665(4) 0.4226(2) 0.4632(2)
C45A C 0.1328(4) 0.3965(2) 0.4187(2)
C46A C 0.0005(2) 0.3349(3) 0.4339(2)
C47A C -0.0156(2) 0.3718(3) 0.4570(2)
C66B C 0.5887(2) 1.3812(2) 1.0090(3)
C67B C 0.5525(2) 1.3335(2) 1.0429(2)
C66A C 0.7925(2) 1.4113(2) 1.0090(3)
C67A C 0.7810(2) 1.4475(2) 1.0429(2)
H17B H 0.32590 0.34600 0.75960
C48B C 0.3041(4) 0.2961(3) 0.7452(2)
C49B C 0.3334(4) 0.2686(3) 0.7608(2)
H18B H 0.41810 0.33490 0.87370
C50B C 0.4357(2) 0.3534(3) 0.9188(2)
C51B C 0.4489(2) 0.4103(3) 0.9263(2)
H19B H 0.43970 0.43010 0.88720
C52B C 0.5730(4) 0.7676(2) 0.4478(2)
H20B H 0.57020 0.73920 0.48450
C53B C 0.6011(4) 0.7608(2) 0.4024(2)
H21B H 0.61370 0.72550 0.40840
C54B C 0.68324(19) 0.65227(28) 0.4179(2)
H22B H 0.67210 0.68850 0.43090
C55B C 0.6451(2) 0.5980(3) 0.4412(2)
H23B H 0.60990 0.59880 0.47030
H17A H 0.02010 0.67410 0.75960
C48A C -0.0080(4) 0.6959(3) 0.7452(2)
C49A C -0.0648(4) 0.6666(3) 0.7608(2)
H18A H -0.08320 0.58190 0.87370
C50A C -0.0823(2) 0.5643(3) 0.9188(2)
C51A C -0.0386(2) 0.5511(3) 0.9263(2)
H19A H -0.00960 0.56030 0.88720
C52A C 0.1946(4) 0.4270(2) 0.4478(2)
H20A H 0.16900 0.42980 0.48450
C53A C 0.1597(4) 0.3989(2) 0.4024(2)
H21A H 0.11180 0.38630 0.40840
C54A C -0.03097(19) 0.31676(28) 0.4179(2)
H22A H 0.01640 0.32790 0.43090
C55A C -0.0471(2) 0.3549(3) 0.4412(2)
H23A H -0.01110 0.39010 0.47030
C65B C 0.55726(20) 1.36050(15) 1.0233(2)
C65A C 0.80324(20) 1.44274(15) 1.0233(2)
C56B C 0.3066(3) 0.2686(2) 0.7455(2)
H24B H 0.28590 0.29560 0.73440
H25B H 0.33480 0.24880 0.76140
H26B H 0.43390 0.33350 0.92700
C57B C 0.4484(2) 0.3817(2) 0.93776(18)
H27B H 0.45610 0.42940 0.93930
C58B C 0.5846(3) 0.7766(2) 0.4164(2)
H28B H 0.56230 0.77790 0.45810
H29B H 0.61040 0.76700 0.38190
C59B C 0.6729(2) 0.6179(3) 0.42165(19)
H30B H 0.70210 0.66630 0.40510
H31B H 0.63780 0.57500 0.44390
C56A C -0.0380(3) 0.6934(2) 0.7455(2)
H24A H 0.00970 0.71410 0.73440
H25A H -0.08600 0.66520 0.76140
H26A H -0.10040 0.56610 0.92700
C57A C -0.0667(2) 0.5516(2) 0.93776(18)
H27A H -0.02670 0.54390 0.93930
C58A C 0.1920(3) 0.4154(2) 0.4164(2)
H28A H 0.21560 0.43770 0.45810
H29A H 0.15660 0.38960 0.38190
C59A C -0.0550(2) 0.3271(3) 0.42165(19)
H30A H -0.03580 0.29790 0.40510
H31A H -0.06280 0.36220 0.44390
C64B C 0.5297(2) 1.3698(2) 1.0230(2)
C64A C 0.8401(2) 1.4703(2) 1.0230(2)
C60B C 0.2805(4) 0.2358(3) 0.7273(2)
C61B C 0.4613(3) 0.3827(2) 0.9708(2)
C62B C 0.58001(28) 0.80211(20) 0.3978(2)
C63B C 0.6897(2) 0.6014(3) 0.4040(2)
C60A C -0.0447(4) 0.7195(3) 0.7273(2)
C61A C -0.0786(3) 0.5387(2) 0.9708(2)
C62A C 0.22210(28) 0.41999(20) 0.3978(2)
C63A C -0.0883(2) 0.3103(3) 0.4040(2)
O15B O 0.53398(15) 1.39578(13) 1.00781(15)
O16B O 0.50284(14) 1.35193(12) 1.03978(14)
O15A O 0.86180(15) 1.46602(13) 1.00781(15)
O16A O 0.84909(14) 1.49716(12) 1.03978(14)
O9B O 0.25251(23) 0.23100(17) 0.72132(15)
O10B O 0.29140(26) 0.2165(2) 0.71856(18)
O11B O 0.4588(2) 0.3570(2) 0.98298(15)
O12B O 0.47516(20) 0.40990(17) 0.98564(15)
O13B O 0.56485(23) 0.81631(16) 0.41071(14)
O14B O 0.59181(19) 0.81003(13) 0.37040(13)
O7F O 0.715553(270) 0.620387(150) 0.386997(140)
O8F O 0.679253(240) 0.571107(140) 0.407157(140)
O9A O -0.02151(23) 0.74749(17) 0.72132(15)
O10A O -0.07490(26) 0.7086(2) 0.71856(18)
O11A O -0.1018(2) 0.5412(2) 0.98298(15)
O12A O -0.06526(20) 0.52484(17) 0.98564(15)
O13A O 0.25146(23) 0.43515(16) 0.41071(14)
O14A O 0.21822(19) 0.40819(13) 0.37040(13)
O7H O -0.095167(270) 0.284447(150) 0.386997(140)
O8H O -0.108147(240) 0.320747(140) 0.407157(140)
O9E O -0.080823(230) 0.564333(170) 1.054653(150)
O10E O -0.041933(260) 0.549833(200) 1.051893(180)
In2H In 0.572153(30) 0.847007(20) 0.363827(20)
In2C In 0.486327(30) 1.391813(20) 1.030493(20)
In2E In 0.905487(30) 1.513673(20) 1.030493(20)
In2G In 0.274853(30) 0.427847(20) 0.363827(20)
In2B In 0.23882(3) 0.18034(2) 0.69716(2)
In2C* In 0.486327(30) 0.391813(20) 1.030493(20)
In1F In 0.719723(20) 0.572617(20) 0.373347(20)
In2A In -0.05848(3) 0.76118(2) 0.69716(2)
In2E* In -0.094513(30) 0.513673(20) 1.030493(20)
In1H In -0.147107(20) 0.280277(20) 0.373347(20)
O15B* O 0.53398(15) 0.39578(13) 1.00781(15)
O16B* O 0.50284(14) 0.35193(12) 1.03978(14)
O13F O 0.517023(230) 0.415207(160) 1.077377(140)
O14F O 0.523303(190) 0.448447(130) 1.037067(130)
O9C O 0.435667(230) 0.354843(170) 1.054653(150)
O10C O 0.450167(260) 0.408233(200) 1.051893(180)
O15A* O -0.13820(15) 0.46602(13) 1.00781(15)
O16A* O -0.15091(14) 0.49716(12) 1.03978(14)
O13H O -0.101817(230) 0.482977(160) 1.077377(140)
O14H O -0.074857(190) 0.476697(130) 1.037067(130)
#END
