
#######################################################################
#
#                 Cambridge Crystallographic Data Centre
#                                CCDC
#
#######################################################################
#
# If this CIF has been generated from an entry in the Cambridge
# Structural Database, then it will include bibliographic, chemical,
# crystal, experimental, refinement or atomic coordinate data resulting
# from the CCDC's data processing and validation procedures.
#
#######################################################################

data_CSD_CIF_CIFSAO
_audit_creation_date 2018-07-02
_audit_creation_method CSD-ConQuest-V1
_database_code_CSD CIFSAO
_database_code_depnum_ccdc_archive 'CCDC 1533175'
_chemical_formula_sum 'C256.5 H209.2 Cl0.75 In6 N7.5 O48'
_chemical_formula_moiety
;
(C216 H120 In6 O48 6-)n,0.75(C22 H23 N2 1+),6(C4 H12 N1 1+),0.75(Cl1 1-)
;
_journal_coden_Cambridge 1540
_journal_volume 8
_journal_year 2018
_journal_page_first 9838
_journal_name_full 'Scientific Reports '
loop_
_publ_author_name
"In-Hwan Choi"
"Suk Bin Yoon"
"Seong Huh"
"Sung-Jin Kim"
"Youngmee Kim"
_chemical_name_systematic
;
catena-[hexakis(diethylammonium) 
1,3,3-trimethyl-2-[2-(2-methyl-1H-indol-3-yl)ethenyl]-3H-indol-1-ium chloride 
octakis(\m-1,3,5-benzenetribenzoato)-hexa-indium(iii) unknown solvate]
;
_chemical_name_common
;
catena-[hexakis(diethylammonium) 
octakis(mu-1,3,5-benzenetribenzoato)-hexa-indium(iii) astrazon orange G 
unknown solvate]
;
_cell_volume  73380.173
_exptl_crystal_colour 'orange'
_exptl_crystal_description 'block'
_diffrn_ambient_temperature 296
_refine_special_details
;
The structure is disordered. Disordered chloride anion, diethylammonium 
cations and solvent molecules were not modelled and the disordered density 
was taken into account using the SQUEEZE/PLATON procedure.
;
#These two values have been output from a single CSD field.
_refine_ls_R_factor_gt 0.1232
_refine_ls_wR_factor_gt 0.1232
_symmetry_cell_setting rhombohedral
_symmetry_space_group_name_H-M 'R -3'
_symmetry_Int_Tables_number 148
loop_
_symmetry_equiv_pos_site_id
_symmetry_equiv_pos_as_xyz
1 x,y,z
2 -y,x-y,z
3 -x+y,-x,z
4 2/3+x,1/3+y,1/3+z
5 2/3-y,1/3+x-y,1/3+z
6 2/3-x+y,1/3-x,1/3+z
7 1/3+x,2/3+y,2/3+z
8 1/3-y,2/3+x-y,2/3+z
9 1/3-x+y,2/3-x,2/3+z
10 -x,-y,-z
11 y,-x+y,-z
12 x-y,x,-z
13 -2/3-x,-1/3-y,-1/3-z
14 -2/3+y,-1/3-x+y,-1/3-z
15 -2/3+x-y,-1/3+x,-1/3-z
16 -1/3-x,-2/3-y,-2/3-z
17 -1/3+y,-2/3-x+y,-2/3-z
18 -1/3+x-y,-2/3+x,-2/3-z
_cell_length_a 44.8184(13)
_cell_length_b 44.8184(13)
_cell_length_c 42.1828(14)
_cell_angle_alpha 90
_cell_angle_beta 90
_cell_angle_gamma 120
_cell_formula_units_Z 6
loop_
_atom_type_symbol
_atom_type_radius_bond
C 0.68
H 0.23
In 1.42
N 0.68
O 0.68
loop_
_atom_site_label
_atom_site_type_symbol
_atom_site_fract_x
_atom_site_fract_y
_atom_site_fract_z
In1 In 0.24008(2) 0.05005(2) 0.46055(2)
O1 O 0.27480(16) 0.10793(14) 0.45971(14)
O2 O 0.24926(17) 0.08393(17) 0.41574(15)
O3 O 0.28854(17) 0.04624(19) 0.44803(14)
O4 O 0.23887(18) 0.01001(16) 0.42675(14)
O5 O 0.18404(14) 0.02082(16) 0.44582(15)
O6 O 0.19804(15) 0.06324(17) 0.47852(16)
O7 O 0.2233(4) 0.00816(18) 0.50051(14)
O8 O 0.26114(36) 0.06193(16) 0.51015(12)
C1 C 0.2694(2) 0.1109(3) 0.4306(3)
C2 C 0.2705(3) 0.0216(3) 0.4304(2)
C3 C 0.1763(2) 0.0395(3) 0.4623(2)
C4 C 0.2853(2) 0.1444(2) 0.4149(2)
C5 C 0.2853(2) 0.0029(2) 0.4120(2)
C6 C 0.13961(19) 0.0315(2) 0.46140(19)
C7 C 0.3044(3) 0.1744(3) 0.4327(2)
C8 C 0.2830(2) 0.1482(2) 0.3831(2)
C9 C 0.3181(3) 0.0111(3) 0.4159(2)
C10 C 0.2662(2) -0.0232(3) 0.3907(2)
C11 C 0.1152(2) 0.0031(2) 0.4447(2)
C12 C 0.12969(19) 0.0515(2) 0.4761(2)
H1 H 0.30620 0.17270 0.45450
C13 C 0.3210(3) 0.2073(2) 0.4182(2)
C14 C 0.2992(2) 0.1809(2) 0.36909(19)
H2 H 0.27050 0.12880 0.37060
H3 H 0.33140 0.02850 0.43020
C15 C 0.3338(2) -0.0047(3) 0.4001(2)
C16 C 0.2807(2) -0.0399(3) 0.3751(2)
H4 H 0.24330 -0.02970 0.38700
H5 H 0.12140 -0.01140 0.43460
C17 C 0.0816(2) -0.0037(2) 0.4432(2)
C18 C 0.0955(2) 0.0443(2) 0.4750(2)
H6 H 0.14590 0.07060 0.48740
H7 H 0.33360 0.22690 0.43060
C19 C 0.3185(2) 0.2103(2) 0.38634(16)
H8 H 0.29680 0.18270 0.34740
H9 H 0.35690 0.00240 0.40370
C20 C 0.3146(2) -0.0312(2) 0.37904(18)
H10 H 0.26700 -0.05770 0.36120
H11 H 0.06550 -0.02260 0.43160
C21 C 0.07121(19) 0.0166(2) 0.45821(17)
H12 H 0.08930 0.05850 0.48570
C22 C 0.3344(2) 0.2438(2) 0.37042(17)
C23 C 0.32967(19) -0.0493(2) 0.36273(18)
C24 C 0.0348(2) 0.00848(19) 0.45713(18)
C25 C 0.3477(2) 0.2484(2) 0.33975(18)
C26 C 0.3389(2) 0.2736(3) 0.38534(18)
C27 C 0.3213(2) -0.0615(2) 0.33196(19)
C28 C 0.3536(2) -0.0553(2) 0.37783(18)
C29 C 0.0258(2) 0.03371(19) 0.45702(18)
H13 H 0.34570 0.22930 0.32920
C30 C 0.3637(2) 0.27966(19) 0.32425(17)
C31 C 0.3548(2) 0.3054(3) 0.37087(18)
H14 H 0.33080 0.27190 0.40590
H15 H 0.30450 -0.05890 0.32140
C32 C 0.3367(2) -0.07746(28) 0.31614(18)
C33 C 0.37077(27) -0.0709(2) 0.36405(17)
H16 H 0.35870 -0.04850 0.39890
H17 H 0.04330 0.05660 0.45690
C34 C 0.3752(2) 0.28092(18) 0.29027(16)
C35 C 0.3667(2) 0.3073(3) 0.33983(16)
C36 C 0.3589(2) 0.3369(3) 0.38751(18)
C37 C 0.3289(2) -0.08794(28) 0.28292(16)
C38 C 0.3611(3) -0.0822(2) 0.33265(18)
C39 C 0.3957(3) -0.0773(2) 0.38148(18)
C40 C 0.4007(3) 0.3109(2) 0.2773(2)
C41 C 0.3553(3) 0.2535(3) 0.2701(2)
H18 H 0.37710 0.32850 0.32950
C42 C 0.3492(5) 0.3591(6) 0.3740(2)
C43 C 0.3737(5) 0.3438(6) 0.4175(3)
C44 C 0.3521(2) -0.0866(3) 0.26247(18)
C45 C 0.2952(3) -0.1011(4) 0.2721(2)
H19 H 0.37130 -0.09330 0.32250
C46 C 0.4040(6) -0.1033(4) 0.3719(4)
C47 C 0.4138(7) -0.0547(5) 0.4058(4)
H20 H 0.41120 0.33090 0.28950
C48 C 0.4110(2) 0.3118(2) 0.24594(19)
C49 C 0.3697(3) 0.2532(3) 0.24100(18)
C50 C 0.3543(5) 0.3881(5) 0.3905(3)
C51 C 0.3788(5) 0.3728(6) 0.4340(2)
C52 C 0.3440(2) -0.0967(3) 0.2306(2)
H21 H 0.37440 -0.07890 0.26950
H22 H 0.27810 -0.10330 0.28600
C53 C 0.2868(3) -0.1111(4) 0.2402(2)
C54 C 0.4298(6) -0.1054(5) 0.3888(4)
C55 C 0.4387(8) -0.0583(6) 0.4233(5)
H23 H 0.42790 0.33270 0.23750
C56 C 0.3975(2) 0.2839(3) 0.22778(17)
C57 C 0.3691(2) 0.3949(3) 0.42049(19)
C58 C 0.3108(2) -0.1094(3) 0.21950(18)
H24 H 0.36110 -0.09490 0.21690
H25 H 0.26450 -0.11880 0.23320
C59 C 0.4455(3) -0.0851(2) 0.41534(19)
C60 C 0.4078(2) 0.2826(3) 0.19483(19)
C61 C 0.3761(4) 0.4271(6) 0.4387(2)
C62 C 0.3022(3) -0.1212(4) 0.1861(2)
C63 C 0.4717(4) -0.0869(3) 0.4342(3)
O9 O 0.39645(17) 0.25479(19) 0.18059(13)
O10 O 0.42942(19) 0.31021(19) 0.18223(12)
O11 O 0.4057(3) 0.4458(4) 0.4494(2)
O12 O 0.3544(2) 0.4342(3) 0.44188(19)
O13 O 0.48514(26) -0.10414(19) 0.42357(14)
O14 O 0.48059(25) -0.07387(19) 0.46034(17)
In2 In 0.42690(2) 0.27733(2) 0.13645(2)
O15 O 0.48386(14) 0.31708(17) 0.12991(15)
O16 O 0.46963(16) 0.27255(19) 0.16056(16)
C64 C 0.4919(3) 0.2994(3) 0.1467(2)
C65 C 0.5291(2) 0.3084(3) 0.1499(2)
C66 C 0.5546(3) 0.3360(3) 0.1349(3)
C67 C 0.5369(2) 0.2869(3) 0.1674(3)
H26 H 0.54950 0.35100 0.12410
C68 C 0.5888(3) 0.3425(3) 0.1354(3)
C69 C 0.5688(3) 0.2895(3) 0.1628(6)
H27 H 0.60600 0.36070 0.12390
C70 C 0.5965(2) 0.3210(2) 0.1535(3)
C71 C 0.6331(3) 0.3278(2) 0.1550(3)
C72 C 0.6394(6) 0.3007(6) 0.1605(6)
N1 N 0.1766(7) 0.0164(7) 0.2763(7)
H28 H 0.16970 0.00280 0.26020
N2 N 0.1698(6) 0.1175(8) 0.4067(6)
C73 C 0.2018(7) 0.0411(9) 0.3261(9)
C74 C 0.2287(9) 0.0557(8) 0.3478(7)
H29 H 0.22700 0.06700 0.36560
C75 C 0.2582(8) 0.0533(12) 0.343(1)
H30 H 0.27620 0.06310 0.35750
C76 C 0.2607(10) 0.0364(16) 0.3164(12)
H31 H 0.28040 0.03480 0.31310
C77 C 0.2338(12) 0.0218(13) 0.2947(9)
H32 H 0.23550 0.01050 0.27690
C78 C 0.2044(9) 0.0242(9) 0.2995(8)
C79 C 0.1643(8) 0.0390(8) 0.2892(7)
C80 C 0.1452(12) 0.0530(13) 0.2694(15)
C81 C 0.1738(7) 0.0485(8) 0.3194(7)
C82 C 0.1648(11) 0.0696(10) 0.3399(8)
H33 H 0.14770 0.07260 0.33050
C83 C 0.1737(8) 0.0856(8) 0.3681(7)
H34 H 0.19110 0.08570 0.38020
C84 C 0.1550(8) 0.1031(11) 0.3790(8)
C85 C 0.1199(6) 0.0966(7) 0.3721(7)
C86 C 0.1228(9) 0.1210(8) 0.3972(6)
C87 C 0.1015(9) 0.1353(11) 0.3980(8)
H35 H 0.08560 0.13050 0.38190
C88 C 0.104(1) 0.1567(10) 0.4230(9)
H36 H 0.08980 0.16630 0.42350
C89 C 0.1278(9) 0.1638(7) 0.4471(7)
H37 H 0.12950 0.17820 0.46380
C90 C 0.1491(7) 0.1495(8) 0.4463(6)
H38 H 0.16500 0.15430 0.46240
C91 C 0.1466(7) 0.1281(7) 0.4214(7)
C92 C 0.1991(8) 0.1227(10) 0.4269(8)
C93 C 0.132(3) 0.1188(19) 0.3419(12)
C94 C 0.0871(11) 0.0609(10) 0.3745(15)
C95? C 0.5712(2) 0.2977(4) 0.1739(4)
C96? C 0.3670(6) 0.2509(2) 0.27386(19)
C97? C 0.4409(7) -0.0915(5) 0.3831(5)
C98? C 0.4146(6) -0.0883(5) 0.3658(4)
C99? C 0.4003(7) -0.0688(5) 0.4151(4)
C100? C 0.4245(7) -0.0742(5) 0.4318(4)
C101? C 0.3372(3) 0.3675(5) 0.4197(3)
C102? C 0.3322(3) 0.3362(5) 0.4035(3)
C103? C 0.3916(4) 0.3668(6) 0.3868(3)
C104? C 0.3976(4) 0.3951(6) 0.4047(3)
C105? C 0.6379(6) 0.3001(6) 0.1476(5)
C29B C 0.00791(20) -0.02580(19) 0.45702(18)
C24A C -0.00848(20) 0.02632(19) 0.45713(18)
C24B C -0.02632(20) -0.03480(19) 0.45713(18)
H17B H 0.01330 -0.04330 0.45690
C21A C -0.01660(19) 0.05461(20) 0.45821(17)
C29A C -0.03371(20) -0.00791(19) 0.45702(18)
C21B C -0.05461(19) -0.07121(20) 0.45821(17)
C17A C 0.0037(2) 0.0853(2) 0.4432(2)
C18A C -0.0443(2) 0.0512(2) 0.4750(2)
H17A H -0.05660 -0.01330 0.45690
C17B C -0.0853(2) -0.0816(2) 0.4432(2)
C18B C -0.0512(2) -0.0955(2) 0.4750(2)
C11A C -0.0031(2) 0.1121(2) 0.4447(2)
H11A H 0.02260 0.08810 0.43160
C12A C -0.05150(19) 0.07819(20) 0.4761(2)
H12A H -0.05850 0.03080 0.48570
C11B C -0.1121(2) -0.1152(2) 0.4447(2)
H11B H -0.08810 -0.06550 0.43160
C12B C -0.07819(19) -0.12969(20) 0.4761(2)
H12B H -0.03080 -0.08930 0.48570
C6A C -0.03150(19) 0.10811(20) 0.46140(19)
H5A H 0.01140 0.13280 0.43460
H6A H -0.07060 0.07530 0.48740
C6B C -0.10811(19) -0.13961(20) 0.46140(19)
H5B H -0.13280 -0.12140 0.43460
H6B H -0.07530 -0.14590 0.48740
C3A C -0.0395(2) 0.1368(3) 0.4623(2)
C3B C -0.1368(2) -0.1763(3) 0.4623(2)
O7G O 0.325173(400) -0.118193(180) 0.167177(140)
O8G O 0.271403(360) -0.134123(160) 0.176817(120)
O5A O -0.02082(14) 0.16322(16) 0.44582(15)
O6A O -0.06324(15) 0.13480(17) 0.47852(16)
O5B O -0.16322(14) -0.18404(16) 0.44582(15)
O6B O -0.13480(15) -0.19804(17) 0.47852(16)
In2D In 0.389337(20) 0.482903(20) 0.469783(20)
In1G In 0.283283(20) -0.143303(20) 0.127217(20)
In2E In 0.517097(20) -0.093567(20) 0.469783(20)
In1A In -0.05005(2) 0.19003(2) 0.46055(2)
In1B In -0.19003(2) -0.24008(2) 0.46055(2)
O11H O 0.373433(300) 0.260967(400) 0.116067(200)
O12H O 0.413133(200) 0.312267(300) 0.108547(190)
O13G O 0.437473(260) 0.255947(190) 0.090237(140)
O14G O 0.407203(250) 0.221127(190) 0.127007(170)
O1A O -0.10793(16) 0.16687(14) 0.45971(14)
O2A O -0.08393(17) 0.16533(17) 0.41574(15)
O3A O -0.04624(17) 0.24230(19) 0.44803(14)
O4A O -0.01001(18) 0.22886(16) 0.42675(14)
O7A O -0.00816(40) 0.21514(18) 0.50051(14)
O8A O -0.06193(36) 0.19921(16) 0.51015(12)
O1B O -0.16687(16) -0.27480(14) 0.45971(14)
O2B O -0.16533(17) -0.24926(17) 0.41574(15)
O3B O -0.24230(17) -0.28854(19) 0.44803(14)
O4B O -0.22886(18) -0.23887(16) 0.42675(14)
O7B O -0.21514(40) -0.22330(18) 0.50051(14)
O8B O -0.19921(36) -0.26114(16) 0.51015(12)
C1A C -0.1109(2) 0.1585(3) 0.4306(3)
C2A C -0.0216(3) 0.2489(3) 0.4304(2)
C1B C -0.1585(2) -0.2694(3) 0.4306(3)
C2B C -0.2489(3) -0.2705(3) 0.4304(2)
C4A C -0.1444(2) 0.1409(2) 0.4149(2)
C5A C -0.0029(2) 0.2824(2) 0.4120(2)
C4B C -0.1409(2) -0.2853(2) 0.4149(2)
C5B C -0.2824(2) -0.2853(2) 0.4120(2)
C7A C -0.1744(3) 0.1300(3) 0.4327(2)
C8A C -0.1482(2) 0.1348(2) 0.3831(2)
C9A C -0.0111(3) 0.3070(3) 0.4159(2)
C10A C 0.0232(2) 0.2894(3) 0.3907(2)
C7B C -0.1300(3) -0.3044(3) 0.4327(2)
C8B C -0.1348(2) -0.2830(2) 0.3831(2)
C9B C -0.3070(3) -0.3181(3) 0.4159(2)
C10B C -0.2894(2) -0.2662(3) 0.3907(2)
H1A H -0.17270 0.13350 0.45450
C13A C -0.2073(3) 0.1137(2) 0.4182(2)
C14A C -0.1809(2) 0.1183(2) 0.36909(19)
H2A H -0.12880 0.14170 0.37060
H3A H -0.02850 0.30290 0.43020
C15A C 0.0047(2) 0.3385(3) 0.4001(2)
C16A C 0.0399(2) 0.3206(3) 0.3751(2)
H4A H 0.02970 0.27300 0.38700
H1B H -0.13350 -0.30620 0.45450
C13B C -0.1137(3) -0.3210(2) 0.4182(2)
C14B C -0.1183(2) -0.2992(2) 0.36909(19)
H2B H -0.14170 -0.27050 0.37060
H3B H -0.30290 -0.33140 0.43020
C15B C -0.3385(2) -0.3338(3) 0.4001(2)
C16B C -0.3206(2) -0.2807(3) 0.3751(2)
H4B H -0.27300 -0.24330 0.38700
H7A H -0.22690 0.10670 0.43060
C19A C -0.2103(2) 0.1082(2) 0.38634(16)
H8A H -0.18270 0.11410 0.34740
H9A H -0.00240 0.35450 0.40370
C20A C 0.0312(2) 0.3458(2) 0.37904(18)
H10A H 0.05770 0.32470 0.36120
H7B H -0.10670 -0.33360 0.43060
C19B C -0.1082(2) -0.3185(2) 0.38634(16)
H8B H -0.11410 -0.29680 0.34740
H9B H -0.35450 -0.35690 0.40370
C20B C -0.3458(2) -0.3146(2) 0.37904(18)
H10B H -0.32470 -0.26700 0.36120
C22A C -0.2438(2) 0.0906(2) 0.37042(17)
C23A C 0.04930(19) 0.37897(20) 0.36273(18)
C22B C -0.0906(2) -0.3344(2) 0.37042(17)
C23B C -0.37897(19) -0.32967(20) 0.36273(18)
C72B C 0.6613(6) 0.3606(6) 0.1605(6)
C25A C -0.2484(2) 0.0993(2) 0.33975(18)
C26A C -0.2736(2) 0.0653(3) 0.38534(18)
C27A C 0.0615(2) 0.3828(2) 0.33196(19)
C28A C 0.0553(2) 0.4089(2) 0.37783(18)
C25B C -0.0993(2) -0.3477(2) 0.33975(18)
C26B C -0.0653(2) -0.3389(3) 0.38534(18)
C27B C -0.3828(2) -0.3213(2) 0.33196(19)
C28B C -0.4089(2) -0.3536(2) 0.37783(18)
C71A C 0.6722(3) 0.3053(2) 0.1550(3)
C71B C 0.6947(3) 0.3669(2) 0.1550(3)
H13A H -0.22930 0.11640 0.32920
C30A C -0.27966(20) 0.08404(19) 0.32425(17)
C31A C -0.3054(2) 0.0494(3) 0.37087(18)
H14A H -0.27190 0.05890 0.40590
H15A H 0.05890 0.36340 0.32140
C32A C 0.07746(20) 0.41416(28) 0.31614(18)
C33A C 0.07090(27) 0.44167(20) 0.36405(17)
H16A H 0.04850 0.40720 0.39890
H13B H -0.11640 -0.34570 0.32920
C30B C -0.08404(20) -0.36370(19) 0.32425(17)
C31B C -0.0494(2) -0.3548(3) 0.37087(18)
H14B H -0.05890 -0.33080 0.40590
H15B H -0.36340 -0.30450 0.32140
C32B C -0.41416(20) -0.33670(28) 0.31614(18)
C33B C -0.44167(27) -0.37077(20) 0.36405(17)
H16B H -0.40720 -0.35870 0.39890
C70A C 0.6790(2) 0.2755(2) 0.1535(3)
C72A C 0.6993(6) 0.3387(6) 0.1605(6)
C70B C 0.7245(2) 0.4035(2) 0.1535(3)
C34A C -0.28092(20) 0.09428(18) 0.29027(16)
C35A C -0.3073(2) 0.0594(3) 0.33983(16)
C36A C -0.3369(2) 0.0220(3) 0.38751(18)
C37A C 0.08794(20) 0.41684(28) 0.28292(16)
C38A C 0.0822(3) 0.4433(2) 0.33265(18)
C39A C 0.0773(3) 0.4730(2) 0.38148(18)
C34B C -0.09428(20) -0.37520(18) 0.29027(16)
C35B C -0.0594(2) -0.3667(3) 0.33983(16)
C36B C -0.0220(2) -0.3589(3) 0.38751(18)
C37B C -0.41684(20) -0.32890(28) 0.28292(16)
C38B C -0.4433(3) -0.3611(2) 0.33265(18)
C39B C -0.4730(3) -0.3957(2) 0.38148(18)
C68A C 0.6575(3) 0.2463(3) 0.1354(3)
C69A C 0.7105(3) 0.2793(3) 0.1628(6)
C68B C 0.7537(3) 0.4112(3) 0.1354(3)
C69B C 0.7207(3) 0.4312(3) 0.1628(6)
C40A C -0.3109(3) 0.0898(2) 0.2773(2)
C41A C -0.2535(3) 0.1018(3) 0.2701(2)
H18A H -0.32850 0.04860 0.32950
C42A C -0.3591(5) -0.0099(6) 0.3740(2)
C43A C -0.3438(5) 0.0299(6) 0.4175(3)
C44A C 0.0866(2) 0.4387(3) 0.26247(18)
C45A C 0.1011(3) 0.3963(4) 0.2721(2)
H19A H 0.09330 0.46460 0.32250
C46A C 0.1033(6) 0.5073(4) 0.3719(4)
C47A C 0.0547(7) 0.4685(5) 0.4058(4)
C40B C -0.0898(3) -0.4007(2) 0.2773(2)
C41B C -0.1018(3) -0.3553(3) 0.2701(2)
H18B H -0.04860 -0.37710 0.32950
C42B C 0.0099(5) -0.3492(6) 0.3740(2)
C43B C -0.0299(5) -0.3737(6) 0.4175(3)
C44B C -0.4387(2) -0.3521(3) 0.26247(18)
C45B C -0.3963(3) -0.2952(4) 0.2721(2)
H19B H -0.46460 -0.37130 0.32250
C46B C -0.5073(6) -0.4040(4) 0.3719(4)
C47B C -0.4685(7) -0.4138(5) 0.4058(4)
C66A C 0.6640(3) 0.2186(3) 0.1349(3)
H27A H 0.63930 0.24530 0.12390
C67A C 0.7131(2) 0.2500(3) 0.1674(3)
C66B C 0.7814(3) 0.4454(3) 0.1349(3)
H27B H 0.75470 0.39400 0.12390
C67B C 0.7500(2) 0.4631(3) 0.1674(3)
H20A H -0.33090 0.08030 0.28950
C48A C -0.3118(2) 0.0992(2) 0.24594(19)
C49A C -0.2532(3) 0.1165(3) 0.24100(18)
C50A C -0.3881(5) -0.0338(5) 0.3905(3)
C51A C -0.3728(5) 0.0060(6) 0.4340(2)
C52A C 0.0967(2) 0.4407(3) 0.2306(2)
H21A H 0.07890 0.45330 0.26950
H22A H 0.10330 0.38140 0.28600
C53A C 0.1111(3) 0.3979(4) 0.2402(2)
C54A C 0.1054(6) 0.5352(5) 0.3888(4)
C55A C 0.0583(8) 0.4970(6) 0.4233(5)
H20B H -0.08030 -0.41120 0.28950
C48B C -0.0992(2) -0.4110(2) 0.24594(19)
C49B C -0.1165(3) -0.3697(3) 0.24100(18)
C50B C 0.0338(5) -0.3543(5) 0.3905(3)
C51B C -0.0060(5) -0.3788(6) 0.4340(2)
C52B C -0.4407(2) -0.3440(3) 0.2306(2)
H21B H -0.45330 -0.37440 0.26950
H22B H -0.38140 -0.27810 0.28600
C53B C -0.3979(3) -0.2868(4) 0.2402(2)
C54B C -0.5352(6) -0.4298(5) 0.3888(4)
C55B C -0.4970(8) -0.4387(6) 0.4233(5)
C65A C 0.6916(2) 0.2207(3) 0.1499(2)
H26A H 0.64900 0.19850 0.12410
C65B C 0.7793(2) 0.4709(3) 0.1499(2)
H26B H 0.80150 0.45050 0.12410
H23A H -0.33270 0.09520 0.23750
C56A C -0.2839(2) 0.1136(3) 0.22778(17)
C57A C -0.3949(2) -0.0258(3) 0.42049(19)
C58A C 0.1094(2) 0.4202(3) 0.21950(18)
H24A H 0.09490 0.45600 0.21690
H25A H 0.11880 0.38330 0.23320
C59A C 0.0851(3) 0.5306(2) 0.41534(19)
H23B H -0.09520 -0.42790 0.23750
C56B C -0.1136(2) -0.3975(3) 0.22778(17)
C57B C 0.0258(2) -0.3691(3) 0.42049(19)
C58B C -0.4202(2) -0.3108(3) 0.21950(18)
H24B H -0.45600 -0.36110 0.21690
H25B H -0.38330 -0.26450 0.23320
C59B C -0.5306(3) -0.4455(2) 0.41534(19)
C64A C 0.7006(3) 0.1925(3) 0.1467(2)
C64B C 0.8075(3) 0.5081(3) 0.1467(2)
C60A C -0.2826(2) 0.1252(3) 0.19483(19)
C61A C -0.4271(4) -0.0510(6) 0.4387(2)
C62A C 0.1212(3) 0.4234(4) 0.1861(2)
C63A C 0.0869(4) 0.5586(3) 0.4342(3)
C60B C -0.1252(2) -0.4078(3) 0.19483(19)
C61B C 0.0510(4) -0.3761(6) 0.4387(2)
C62B C -0.4234(3) -0.3022(4) 0.1861(2)
C63B C -0.5586(4) -0.4717(3) 0.4342(3)
O15A O 0.68292(14) 0.16678(17) 0.12991(15)
O16A O 0.72745(16) 0.19708(19) 0.16056(16)
O15B O 0.83322(14) 0.51614(17) 0.12991(15)
O16B O 0.80292(16) 0.53037(19) 0.16056(16)
O11G O -0.112467(300) -0.373433(400) 0.116067(200)
O12G O -0.100867(200) -0.413133(300) 0.108547(190)
O9A O -0.25479(17) 0.14166(19) 0.18059(13)
O10A O -0.31021(19) 0.11921(19) 0.18223(12)
O11A O -0.4458(3) -0.0401(4) 0.4494(2)
O12A O -0.4342(2) -0.0798(3) 0.44188(19)
O7H O 0.118193(400) 0.443367(180) 0.167177(140)
O8H O 0.134123(360) 0.405527(160) 0.176817(120)
O13A O 0.10414(26) 0.58928(19) 0.42357(14)
O14A O 0.07387(25) 0.55446(19) 0.46034(17)
O9B O -0.14166(17) -0.39645(19) 0.18059(13)
O10B O -0.11921(19) -0.42942(19) 0.18223(12)
O11B O 0.0401(3) -0.4057(4) 0.4494(2)
O12B O 0.0798(2) -0.3544(3) 0.44188(19)
O7F O -0.443367(400) -0.325173(180) 0.167177(140)
O8F O -0.405527(360) -0.271403(160) 0.176817(120)
O13B O -0.58928(26) -0.48514(19) 0.42357(14)
O14B O -0.55446(25) -0.48059(19) 0.46034(17)
In2A In 0.72267(2) 0.14957(2) 0.13645(2)
In2B In 0.85043(2) 0.57310(2) 0.13645(2)
In1H In 0.143303(20) 0.426587(20) 0.127217(20)
In2C In 0.093567(20) 0.610663(20) 0.469783(20)
In2B* In -0.14957(2) -0.42690(2) 0.13645(2)
In2C* In 0.093567(20) -0.389337(20) 0.469783(20)
In2A* In -0.27733(2) 0.14957(2) 0.13645(2)
In2E* In -0.482903(20) -0.093567(20) 0.469783(20)
In1F In -0.426587(20) -0.283283(20) 0.127217(20)
In2D* In -0.610663(20) -0.517097(20) 0.469783(20)
O13F O -0.181527(260) -0.437473(190) 0.090237(140)
O14F O -0.186077(250) -0.407203(190) 0.127007(170)
O15B* O -0.16678(14) -0.48386(17) 0.12991(15)
O16B* O -0.19708(16) -0.46963(19) 0.16056(16)
O11F O -0.260967(300) 0.112467(400) 0.116067(200)
O12F O -0.312267(200) 0.100867(300) 0.108547(190)
O13H O -0.255947(260) 0.181527(190) 0.090237(140)
O14H O -0.221127(250) 0.186077(190) 0.127007(170)
O15A* O -0.31708(14) 0.16678(17) 0.12991(15)
O16A* O -0.27255(16) 0.19708(19) 0.16056(16)
#END
