
#######################################################################
#
#                 Cambridge Crystallographic Data Centre
#                                CCDC
#
#######################################################################
#
# If this CIF has been generated from an entry in the Cambridge
# Structural Database, then it will include bibliographic, chemical,
# crystal, experimental, refinement or atomic coordinate data resulting
# from the CCDC's data processing and validation procedures.
#
#######################################################################

data_CSD_CIF_CIFSES
_audit_creation_date 2018-07-02
_audit_creation_method CSD-ConQuest-V1
_database_code_CSD CIFSES
_database_code_depnum_ccdc_archive 'CCDC 1533235'
_chemical_formula_sum 'C255.8 H209.2 I0.75 In6 N7.5 O49.5'
_chemical_formula_moiety
;
(C216 H120 In6 O48 6-)n,0.75(C21 H23 N2 O2 1+),0.75(I1 1-),6(C4 H12 N1 1+)
;
_journal_coden_Cambridge 1540
_journal_volume 8
_journal_year 2018
_journal_page_first 9838
_journal_name_full 'Scientific Reports '
loop_
_publ_author_name
"In-Hwan Choi"
"Suk Bin Yoon"
"Seong Huh"
"Sung-Jin Kim"
"Youngmee Kim"
_chemical_name_systematic
;
catena-[hexakis(diethylammonium) 
3-ethyl-2-[3-(3-ethyl-3a,4-dihydro-1,3-benzoxazol-2(3H)-ylidene)prop-1-en-1-yl
]-1,3-benzoxazol-3-ium iodide 
octakis(\m-1,3,5-benzenetribenzoato)-hexa-indium(iii) unknown solvate]
;
_chemical_name_common
;
catena-[hexakis(diethylammonium) 
octakis(mu-1,3,5-benzenetribenzoato)-hexa-indium(iii) 3,3 
-diethyloxacarbocyaine iodide unknown solvate]
;
_cell_volume  73363.372
_exptl_crystal_colour 'orange'
_exptl_crystal_description 'block'
_diffrn_ambient_temperature 296
_refine_special_details
;
The structure is disordered. Disordered iodide anion, diethylammonium cations 
and solvent molecules were not modelled and the disordered density was taken 
into account using the SQUEEZE/PLATON procedure.
;
#These two values have been output from a single CSD field.
_refine_ls_R_factor_gt 0.0824
_refine_ls_wR_factor_gt 0.0824
_symmetry_cell_setting rhombohedral
_symmetry_space_group_name_H-M 'R -3'
_symmetry_Int_Tables_number 148
loop_
_symmetry_equiv_pos_site_id
_symmetry_equiv_pos_as_xyz
1 x,y,z
2 -y,x-y,z
3 -x+y,-x,z
4 2/3+x,1/3+y,1/3+z
5 2/3-y,1/3+x-y,1/3+z
6 2/3-x+y,1/3-x,1/3+z
7 1/3+x,2/3+y,2/3+z
8 1/3-y,2/3+x-y,2/3+z
9 1/3-x+y,2/3-x,2/3+z
10 -x,-y,-z
11 y,-x+y,-z
12 x-y,x,-z
13 -2/3-x,-1/3-y,-1/3-z
14 -2/3+y,-1/3-x+y,-1/3-z
15 -2/3+x-y,-1/3+x,-1/3-z
16 -1/3-x,-2/3-y,-2/3-z
17 -1/3+y,-2/3-x+y,-2/3-z
18 -1/3+x-y,-2/3+x,-2/3-z
_cell_length_a 44.8708(7)
_cell_length_b 44.8708(7)
_cell_length_c 42.0747(7)
_cell_angle_alpha 90
_cell_angle_beta 90
_cell_angle_gamma 120
_cell_formula_units_Z 6
loop_
_atom_type_symbol
_atom_type_radius_bond
C 0.68
H 0.23
In 1.42
N 0.68
O 0.68
loop_
_atom_site_label
_atom_site_type_symbol
_atom_site_fract_x
_atom_site_fract_y
_atom_site_fract_z
In1 In 0.24015(2) 0.05049(2) 0.96080(2)
O1 O 0.27294(9) 0.10750(9) 0.95829(9)
O2 O 0.24849(10) 0.08322(10) 0.91370(9)
O3 O 0.26176(9) 0.06271(10) 1.01022(7)
O4 O 0.2262(1) 0.00955(10) 1.00017(8)
O5 O 0.18500(8) 0.02168(10) 0.94696(9)
O6 O 0.19749(9) 0.06237(10) 0.98024(10)
O7 O 0.23902(10) 0.01040(17) 0.92718(9)
O8 O 0.28833(10) 0.04679(17) 0.94728(9)
C1 C 0.26748(14) 0.10954(14) 0.92938(14)
C2 C 0.24543(13) 0.03256(16) 1.01947(12)
C3 C 0.17574(13) 0.03873(15) 0.96343(13)
C4 C 0.28429(13) 0.14441(13) 0.91371(12)
C5 C 0.24818(13) 0.02300(14) 1.05314(11)
C6 C 0.13945(11) 0.03037(12) 0.96246(11)
C7 C 0.28179(14) 0.14807(12) 0.88200(12)
C8 C 0.30218(15) 0.17321(14) 0.93211(13)
C9 C 0.27030(14) 0.04737(15) 1.07441(13)
C10 C 0.22709(13) -0.00996(14) 1.06484(11)
C11 C 0.11487(13) 0.00202(13) 0.94628(12)
C12 C 0.12897(12) 0.05145(13) 0.97721(12)
H1 H 0.26860 0.12860 0.86970
C13 C 0.29823(14) 0.17978(13) 0.86764(11)
C14 C 0.31863(16) 0.20539(14) 0.91759(12)
H2 H 0.30330 0.17130 0.95400
H3 H 0.28470 0.06980 1.06750
C15 C 0.27153(14) 0.03931(15) 1.10521(11)
C16 C 0.22910(13) -0.01795(14) 1.09542(12)
H4 H 0.21120 -0.02690 1.05130
H5 H 0.12090 -0.01290 0.93680
C17 C 0.08151(12) -0.00461(12) 0.94390(12)
C18 C 0.09503(11) 0.04440(12) 0.97549(12)
H6 H 0.14500 0.07070 0.98850
H7 H 0.29640 0.18140 0.84580
C19 C 0.31748(13) 0.20929(12) 0.88527(10)
H8 H 0.33080 0.22490 0.93010
H9 H 0.28640 0.05640 1.11920
C20 C 0.25123(11) 0.00650(13) 1.11611(11)
H10 H 0.21520 -0.04040 1.10250
H11 H 0.06570 -0.02360 0.93230
C21 C 0.07096(10) 0.01608(11) 0.95813(11)
H12 H 0.08850 0.05850 0.98590
C22 C 0.33487(13) 0.24390(12) 0.86971(11)
C23 C 0.25333(11) -0.00249(12) 1.1504(1)
C24 C 0.03486(10) 0.00790(11) 0.95758(10)
C25 C 0.33886(14) 0.27352(12) 0.88488(11)
C26 C 0.34759(13) 0.24765(12) 0.83855(11)
C27 C 0.22421(12) -0.02638(12) 1.16633(11)
C28 C 0.28497(13) 0.01199(13) 1.16639(12)
C29 C 0.00764(11) -0.02606(10) 0.95723(11)
H13 H 0.33050 0.27160 0.90540
C30 C 0.35450(14) 0.30484(12) 0.87057(11)
C31 C 0.36354(14) 0.27924(12) 0.82326(11)
H14 H 0.34520 0.22840 0.82790
H15 H 0.20300 -0.03610 1.15610
C32 C 0.22575(12) -0.03638(13) 1.19772(11)
C33 C 0.28743(11) 0.00322(12) 1.19734(11)
H16 H 0.30480 0.02790 1.15590
H17 H 0.01280 -0.04370 0.95670
C34 C 0.36702(14) 0.30781(12) 0.84008(11)
C35 C 0.35881(16) 0.33531(13) 0.88734(12)
C36 C 0.37622(10) 0.28173(9) 0.78991(6)
C37 C 0.25800(12) -0.02055(13) 1.21213(11)
C38 C 0.19394(12) -0.06236(13) 1.21519(10)
C39 C 0.32092(12) 0.01838(13) 1.21397(11)
H18 H 0.37810 0.32930 0.83040
C40 C 0.3918(3) 0.3640(2) 0.8898(2)
C41 C 0.3334(2) 0.33603(17) 0.90287(16)
C42 C 0.36072(11) 0.25275(8) 0.77058(9)
C43 C 0.40230(9) 0.31272(7) 0.77788(7)
H19 H 0.25960 -0.02650 1.23300
C44 C 0.1979(3) -0.0802(3) 1.2403(2)
C45 C 0.16288(14) -0.07686(16) 1.20249(12)
C46 C 0.34616(13) 0.05288(15) 1.20944(13)
C47 C 0.32846(12) -0.00043(13) 1.23441(11)
C48 C 0.3990(2) 0.3938(3) 0.9106(3)
H20 H 0.31190 0.31620 0.90380
C49 C 0.3386(2) 0.36720(28) 0.91840(16)
C50 C 0.37130(11) 0.25476(9) 0.73922(8)
C51 C 0.41288(9) 0.31473(8) 0.74652(8)
H21 H 0.41270 0.33210 0.79080
C52 C 0.16918(17) -0.10458(34) 1.2560(3)
H22 H 0.16040 -0.06990 1.18230
C53 C 0.13366(14) -0.10215(21) 1.21801(13)
H23 H 0.34210 0.06660 1.19550
C54 C 0.37700(21) 0.06655(14) 1.22559(13)
H24 H 0.31180 -0.02320 1.23830
C55 C 0.35940(19) 0.01263(13) 1.24947(11)
C56 C 0.36997(16) 0.39535(22) 0.91973(14)
H25 H 0.32000 0.36770 0.92750
C57 C 0.39738(10) 0.28575(10) 0.72718(6)
H26 H 0.43030 0.33550 0.73850
C58 C 0.13608(12) -0.11234(18) 1.24764(11)
H27 H 0.11240 -0.11200 1.20790
C59 C 0.38442(19) 0.04732(13) 1.24554(11)
H28 H 0.39320 0.08960 1.22270
H29 H 0.36400 -0.00150 1.26230
C60 C 0.3751(2) 0.42586(28) 0.93707(13)
C61 C 0.41032(16) 0.28695(19) 0.69350(13)
C62 C 0.10557(16) -0.13847(21) 1.26576(14)
C63 C 0.41754(23) 0.06288(16) 1.26324(12)
O9 O 0.40409(15) 0.44620(19) 0.94709(13)
O10 O 0.35336(12) 0.43320(17) 0.94242(10)
O11 O 0.39736(10) 0.25929(13) 0.67876(9)
O12 O 0.43228(12) 0.31398(12) 0.68157(8)
O13 O 0.10997(10) -0.14613(15) 1.29320(9)
O14 O 0.07653(10) -0.15196(15) 1.25389(9)
In2 In 0.38785(2) 0.48226(3) 0.96856(2)
O15 O 0.48432(8) 0.31669(9) 0.62829(9)
O16 O 0.4702(1) 0.27384(11) 0.66038(11)
C64 C 0.49272(14) 0.29982(15) 0.64585(14)
C65 C 0.52962(7) 0.30864(10) 0.64831(10)
C66 C 0.55526(10) 0.33636(10) 0.63163(9)
C67 C 0.53781(8) 0.28785(11) 0.66648(12)
H30 H 0.54980 0.35030 0.61950
C68 C 0.58909(8) 0.34328(9) 0.63312(10)
C69 C 0.57219(14) 0.2973(6) 0.6706(5)
H31 H 0.60620 0.36180 0.62200
C70 C 0.59727(7) 0.32249(11) 0.65128(12)
C71 C 0.63325(11) 0.32855(12) 0.65087(17)
C72 C 0.6611(2) 0.36072(17) 0.6435(3)
N1 N 0.3765(4) 0.1622(4) 0.0107(6)
N2 N 0.3219(3) -0.0234(3) -0.0085(4)
O17 O 0.4093(4) 0.1390(4) 0.0196(5)
O18 O 0.3777(3) 0.0189(2) 0.0021(3)
C73 C 0.4319(7) 0.1759(5) 0.0268(7)
C74 C 0.4132(5) 0.1892(9) 0.0124(8)
C75 C 0.4179(7) 0.2210(11) 0.0219(11)
H32 H 0.40540 0.22990 0.01230
C76 C 0.4414(11) 0.2394(7) 0.0458(11)
H33 H 0.44460 0.26060 0.05220
C77 C 0.4601(8) 0.2261(7) 0.0602(6)
H34 H 0.47580 0.23840 0.07620
C78 C 0.4554(6) 0.1943(6) 0.0507(6)
H35 H 0.46790 0.18540 0.06030
C79 C 0.3740(4) 0.1282(4) 0.0086(5)
C80 C 0.3483(5) 0.0956(4) 0.0114(7)
H36 H 0.32540 0.08800 0.01630
C81 C 0.3645(4) 0.0744(3) 0.0051(4)
H37 H 0.38790 0.08240 0.00370
C82 C 0.3392(4) 0.0417(3) 0.0019(4)
H38 H 0.31700 0.03830 0.00270
C83 C 0.3416(3) 0.0104(3) -0.0029(4)
C84 C 0.3434(3) -0.0399(4) -0.0092(4)
C85 C 0.3771(4) -0.0139(3) -0.0036(3)
C86 C 0.4028(3) -0.0222(4) 0.0011(4)
H39 H 0.42530 -0.00480 0.00480
C87 C 0.3948(4) -0.0563(4) 0.0004(4)
H40 H 0.41200 -0.06180 0.00360
C88 C 0.3612(5) -0.0823(3) -0.0052(5)
H41 H 0.35580 -0.10510 -0.00570
C89 C 0.3355(3) -0.0740(3) -0.0100(5)
H42 H 0.31300 -0.09140 -0.01370
C90 C 0.2841(3) -0.0398(5) -0.0123(4)
H43 H 0.27880 -0.02320 -0.02140
H44 H 0.27640 -0.05890 -0.02700
C91 C 0.2650(6) -0.0527(7) 0.0179(5)
C92 C 0.3406(5) 0.1552(8) 0.0081(7)
H45 H 0.32990 0.13590 -0.00640
H46 H 0.34280 0.17480 -0.00370
C93 C 0.3131(7) 0.1480(8) 0.0315(7)
C94? C 0.1956(3) -0.0667(3) 1.24777(11)
C95? C 0.16588(18) -0.09258(35) 1.2652(2)
C96? C 0.3920(4) 0.3964(6) 0.8959(3)
C97? C 0.3575(2) 0.2550(3) 0.7687(2)
C98? C 0.57163(10) 0.29477(12) 0.66796(13)
C99? C 0.6605(2) 0.36143(15) 0.6571(3)
C29A C 0.02606(11) 0.0337(1) 0.95723(11)
C24B C -0.02696(10) -0.03486(11) 0.95758(10)
C24A C -0.0079(1) 0.02696(11) 0.95758(10)
H17A H 0.04370 0.05650 0.95670
C21B C -0.05488(10) -0.07096(11) 0.95813(11)
C29B C -0.03370(11) -0.00764(10) 0.95723(11)
C21A C -0.01608(10) 0.05488(11) 0.95813(11)
C17B C -0.08612(12) -0.08151(12) 0.94390(12)
C18B C -0.05063(11) -0.09503(12) 0.97549(12)
H17B H -0.05650 -0.01280 0.95670
C17A C 0.00461(12) 0.08612(12) 0.94390(12)
C18A C -0.04440(11) 0.05063(12) 0.97549(12)
C11B C -0.11285(13) -0.11487(13) 0.94628(12)
H11B H -0.08930 -0.06570 0.93230
H12B H -0.03000 -0.08850 0.98590
C12B C -0.07752(12) -0.12897(13) 0.97721(12)
C11A C -0.00202(13) 0.11285(13) 0.94628(12)
H11A H 0.02360 0.08930 0.93230
H12A H -0.05850 0.03000 0.98590
C12A C -0.05145(12) 0.07752(13) 0.97721(12)
C6B C -0.10908(11) -0.13945(12) 0.96246(11)
H5B H -0.13380 -0.12090 0.93680
H6B H -0.07430 -0.14500 0.98850
C6A C -0.03037(11) 0.10908(12) 0.96246(11)
H5A H 0.01290 0.13380 0.93680
H6A H -0.07070 0.07430 0.98850
C3B C -0.13701(13) -0.17574(15) 0.96343(13)
C3A C -0.03873(13) 0.13701(15) 0.96343(13)
O7E O 0.438047(100) 0.094313(170) 1.260513(90)
O8E O 0.425127(100) 0.045003(170) 1.280613(90)
O5B O -0.16332(8) -0.1850(1) 0.94696(9)
O6B O -0.13512(9) -0.19749(10) 0.98024(10)
O5A O -0.02168(8) 0.16332(10) 0.94696(9)
O6A O -0.06237(9) 0.13512(10) 0.98024(10)
In2H In 0.427743(20) 0.278817(30) 0.635227(20)
In2C In 0.054517(20) -0.184407(30) 1.301893(20)
In1E In 0.477007(20) 0.093183(20) 1.294133(20)
In1B In -0.18966(2) -0.24015(2) 0.96080(2)
In1A In -0.05049(2) 0.18966(2) 0.96080(2)
O13E O 0.410567(100) 0.223363(150) 0.626533(90)
O14E O 0.438177(100) 0.256803(150) 0.587223(90)
O9H O 0.375443(150) 0.262577(190) 0.613757(130)
O10H O 0.413173(120) 0.313307(170) 0.609087(100)
O1B O -0.16544(9) -0.27294(9) 0.95829(9)
O2B O -0.16527(10) -0.24849(10) 0.91370(9)
O3B O -0.19905(9) -0.26176(10) 1.01022(7)
O4B O -0.21665(10) -0.2262(1) 1.00017(8)
O7B O -0.22862(10) -0.23902(17) 0.92718(9)
O8B O -0.24154(10) -0.28833(17) 0.94728(9)
O1A O -0.10750(9) 0.16544(9) 0.95829(9)
O2A O -0.08322(10) 0.16527(10) 0.91370(9)
O3A O -0.06271(9) 0.19905(10) 1.01022(7)
O4A O -0.00955(10) 0.21665(10) 1.00017(8)
O7A O -0.0104(1) 0.22862(17) 0.92718(9)
O8A O -0.04679(10) 0.24154(17) 0.94728(9)
C1B C -0.15794(14) -0.26748(14) 0.92938(14)
C2B C -0.21287(13) -0.24543(16) 1.01947(12)
C1A C -0.10954(14) 0.15794(14) 0.92938(14)
C2A C -0.03256(13) 0.21287(16) 1.01947(12)
C4B C -0.13988(13) -0.28429(13) 0.91371(12)
C5B C -0.22518(13) -0.24818(14) 1.05314(11)
C4A C -0.14441(13) 0.13988(13) 0.91371(12)
C5A C -0.02300(13) 0.22518(14) 1.05314(11)
C7B C -0.13372(14) -0.28179(12) 0.88200(12)
C8B C -0.12897(15) -0.30218(14) 0.93211(13)
C9B C -0.22293(14) -0.27030(15) 1.07441(13)
C10B C -0.23705(13) -0.22709(14) 1.06484(11)
C7A C -0.14807(14) 0.13372(12) 0.88200(12)
C8A C -0.17321(15) 0.12897(14) 0.93211(13)
C9A C -0.04737(14) 0.22293(15) 1.07441(13)
C10A C 0.00996(13) 0.23705(14) 1.06484(11)
H1B H -0.14000 -0.26860 0.86970
C13B C -0.11845(14) -0.29823(13) 0.86764(11)
C14B C -0.11324(16) -0.31863(14) 0.91759(12)
H2B H -0.13200 -0.30330 0.95400
H3B H -0.21490 -0.28470 1.06750
C15B C -0.23222(14) -0.27153(15) 1.10521(11)
C16B C -0.24705(13) -0.22910(14) 1.09542(12)
H4B H -0.23810 -0.21120 1.05130
H1A H -0.12860 0.14000 0.86970
C13A C -0.17978(14) 0.11845(13) 0.86764(11)
C14A C -0.20539(16) 0.11324(14) 0.91759(12)
H2A H -0.17130 0.13200 0.95400
H3A H -0.06980 0.21490 1.06750
C15A C -0.03931(14) 0.23222(15) 1.10521(11)
C16A C 0.01795(13) 0.24705(14) 1.09542(12)
H4A H 0.02690 0.23810 1.05130
H7B H -0.11500 -0.29640 0.84580
C19B C -0.10819(13) -0.31748(12) 0.88527(10)
H8B H -0.10590 -0.33080 0.93010
H9B H -0.23000 -0.28640 1.11920
C20B C -0.24473(11) -0.25123(13) 1.11611(11)
H10B H -0.25560 -0.21520 1.10250
H7A H -0.18140 0.11500 0.84580
C19A C -0.20929(13) 0.10819(12) 0.88527(10)
H8A H -0.22490 0.10590 0.93010
H9A H -0.05640 0.23000 1.11920
C20A C -0.00650(11) 0.24473(13) 1.11611(11)
H10A H 0.04040 0.25560 1.10250
C22B C -0.09097(13) -0.33487(12) 0.86971(11)
C23B C -0.25582(11) -0.25333(12) 1.1504(1)
C22A C -0.24390(13) 0.09097(12) 0.86971(11)
C23A C 0.00249(11) 0.25582(12) 1.1504(1)
C72A C 0.63928(20) 0.30038(17) 0.6435(3)
C25B C -0.06534(14) -0.33886(12) 0.88488(11)
C26B C -0.09994(13) -0.34759(12) 0.83855(11)
C27B C -0.25059(12) -0.22421(12) 1.16633(11)
C28B C -0.27298(13) -0.28497(13) 1.16639(12)
C25A C -0.27352(14) 0.06534(12) 0.88488(11)
C26A C -0.24765(13) 0.09994(12) 0.83855(11)
C27A C 0.02638(12) 0.25059(12) 1.16633(11)
C28A C -0.01199(13) 0.27298(13) 1.16639(12)
C71B C 0.69530(11) 0.36675(12) 0.65087(17)
C71A C 0.67145(11) 0.30470(12) 0.65087(17)
H13B H -0.05890 -0.33050 0.90540
C30B C -0.04966(14) -0.35450(12) 0.87057(11)
C31B C -0.08430(14) -0.36354(12) 0.82326(11)
H14B H -0.11680 -0.34520 0.82790
H15B H -0.23910 -0.20300 1.15610
C32B C -0.26213(12) -0.22575(13) 1.19772(11)
C33B C -0.28421(11) -0.28743(12) 1.19734(11)
H16B H -0.27690 -0.30480 1.15590
H13A H -0.27160 0.05890 0.90540
C30A C -0.30484(14) 0.04966(12) 0.87057(11)
C31A C -0.27924(14) 0.08430(12) 0.82326(11)
H14A H -0.22840 0.11680 0.82790
H15A H 0.03610 0.23910 1.15610
C32A C 0.03638(12) 0.26213(13) 1.19772(11)
C33A C -0.00322(11) 0.28421(12) 1.19734(11)
H16A H -0.02790 0.27690 1.15590
C70B C 0.72522(7) 0.40273(11) 0.65128(12)
C72B C 0.69962(20) 0.33890(17) 0.6435(3)
C70A C 0.67751(7) 0.27478(11) 0.65128(12)
C34B C -0.05921(14) -0.36702(12) 0.84008(11)
C35B C -0.02350(16) -0.35881(13) 0.88734(12)
C36B C -0.09449(10) -0.37622(9) 0.78991(6)
C37B C -0.27855(12) -0.25800(13) 1.21213(11)
C38B C -0.25630(12) -0.19394(13) 1.21519(10)
C39B C -0.30254(12) -0.32092(13) 1.21397(11)
C34A C -0.30781(14) 0.05921(12) 0.84008(11)
C35A C -0.33531(16) 0.02350(13) 0.88734(12)
C36A C -0.28173(10) 0.09449(9) 0.78991(6)
C37A C 0.02055(12) 0.27855(13) 1.21213(11)
C38A C 0.06236(12) 0.25630(13) 1.21519(10)
C39A C -0.01838(12) 0.30254(13) 1.21397(11)
C68B C 0.75419(8) 0.41091(9) 0.63312(10)
C69B C 0.72511(14) 0.42781(60) 0.6706(5)
C68A C 0.65672(8) 0.24581(9) 0.63312(10)
C69A C 0.70270(14) 0.27489(60) 0.6706(5)
H18B H -0.04880 -0.37810 0.83040
C40B C -0.0278(3) -0.3918(2) 0.8898(2)
C41B C 0.00263(20) -0.33340(17) 0.90287(16)
C42B C -0.10797(11) -0.36072(8) 0.77058(9)
C43B C -0.08958(9) -0.40230(7) 0.77788(7)
H19B H -0.28610 -0.25960 1.23300
C44B C -0.2781(3) -0.1979(3) 1.2403(2)
C45B C -0.23974(14) -0.16288(16) 1.20249(12)
C46B C -0.29328(13) -0.34616(15) 1.20944(13)
C47B C -0.32889(12) -0.32846(13) 1.23441(11)
H18A H -0.32930 0.04880 0.83040
C40A C -0.3640(3) 0.0278(2) 0.8898(2)
C41A C -0.33603(20) -0.00263(17) 0.90287(16)
C42A C -0.25275(11) 0.10797(8) 0.77058(9)
C43A C -0.31272(9) 0.08958(7) 0.77788(7)
H19A H 0.02650 0.28610 1.23300
C44A C 0.0802(3) 0.2781(3) 1.2403(2)
C45A C 0.07686(14) 0.23974(16) 1.20249(12)
C46A C -0.05288(13) 0.29328(15) 1.20944(13)
C47A C 0.00043(12) 0.32889(13) 1.23441(11)
C66B C 0.7811(1) 0.44474(10) 0.63163(9)
H31B H 0.75560 0.39380 0.62200
C67B C 0.75004(8) 0.46219(11) 0.66648(12)
C66A C 0.66364(10) 0.2189(1) 0.63163(9)
H31A H 0.63820 0.24440 0.62200
C67A C 0.71215(8) 0.24996(11) 0.66648(12)
C48B C -0.0052(2) -0.3990(3) 0.9106(3)
H20B H 0.00430 -0.31190 0.90380
C49B C 0.0286(2) -0.33860(28) 0.91840(16)
C50B C -0.11654(11) -0.37130(9) 0.73922(8)
C51B C -0.09815(9) -0.41288(8) 0.74652(8)
H21B H -0.08060 -0.41270 0.79080
C52B C -0.27376(17) -0.16918(34) 1.2560(3)
H22B H -0.23030 -0.16040 1.18230
C53B C -0.23581(14) -0.13366(21) 1.21801(13)
H23B H -0.27550 -0.34210 1.19550
C54B C -0.31045(21) -0.37700(14) 1.22559(13)
H24B H -0.33500 -0.31180 1.23830
C55B C -0.34677(19) -0.35940(13) 1.24947(11)
C48A C -0.3938(2) 0.0052(3) 0.9106(3)
H20A H -0.31620 -0.00430 0.90380
C49A C -0.3672(2) -0.02860(28) 0.91840(16)
C50A C -0.25476(11) 0.11654(9) 0.73922(8)
C51A C -0.31473(9) 0.09815(8) 0.74652(8)
H21A H -0.33210 0.08060 0.79080
C52A C 0.10458(17) 0.27376(34) 1.2560(3)
H22A H 0.06990 0.23030 1.18230
C53A C 0.10215(14) 0.23581(21) 1.21801(13)
H23A H -0.06660 0.27550 1.19550
C54A C -0.06655(21) 0.31045(14) 1.22559(13)
H24A H 0.02320 0.33500 1.23830
C55A C -0.01263(19) 0.34677(13) 1.24947(11)
C65B C 0.77902(7) 0.47038(10) 0.64831(10)
H30B H 0.80050 0.45020 0.61950
C65A C 0.69136(7) 0.22098(10) 0.64831(10)
H30A H 0.64970 0.19950 0.61950
C56B C 0.02538(16) -0.36997(22) 0.91973(14)
H25B H 0.04770 -0.32000 0.92750
C57B C -0.11163(10) -0.39738(10) 0.72718(6)
H26B H -0.09480 -0.43030 0.73850
C58B C -0.24842(12) -0.13608(18) 1.24764(11)
H27B H -0.22440 -0.11240 1.20790
C59B C -0.33710(19) -0.38442(13) 1.24554(11)
H28B H -0.30360 -0.39320 1.22270
H29B H -0.36550 -0.36400 1.26230
C56A C -0.39535(16) -0.02538(22) 0.91973(14)
H25A H -0.36770 -0.04770 0.92750
C57A C -0.28575(10) 0.11163(10) 0.72718(6)
H26A H -0.33550 0.09480 0.73850
C58A C 0.11234(12) 0.24842(18) 1.24764(11)
H27A H 0.11200 0.22440 1.20790
C59A C -0.04732(19) 0.33710(13) 1.24554(11)
H28A H -0.08960 0.30360 1.22270
H29A H 0.00150 0.36550 1.26230
C64B C 0.80710(14) 0.50728(15) 0.64585(14)
C64A C 0.70018(14) 0.19290(15) 0.64585(14)
C60B C 0.05076(20) -0.37510(28) 0.93707(13)
C61B C -0.12337(16) -0.41032(19) 0.69350(13)
C62B C -0.24404(16) -0.10557(21) 1.26576(14)
C63B C -0.35466(23) -0.41754(16) 1.26324(12)
C60A C -0.42586(20) -0.05076(28) 0.93707(13)
C61A C -0.28695(16) 0.12337(19) 0.69350(13)
C62A C 0.13847(16) 0.24404(21) 1.26576(14)
C63A C -0.06288(23) 0.35466(16) 1.26324(12)
O15B O 0.83237(8) 0.51568(9) 0.62829(9)
O16B O 0.80364(10) 0.52980(11) 0.66038(11)
O15A O 0.68331(8) 0.16763(9) 0.62829(9)
O16A O 0.72616(10) 0.19636(11) 0.66038(11)
O9B O 0.04211(15) -0.40409(19) 0.94709(13)
O10B O 0.07984(12) -0.35336(17) 0.94242(10)
O11B O -0.13807(10) -0.39736(13) 0.67876(9)
O12B O -0.11830(12) -0.43228(12) 0.68157(8)
O13B O -0.2561(1) -0.10997(15) 1.29320(9)
O14B O -0.22849(10) -0.07653(15) 1.25389(9)
O7D O -0.343733(100) -0.438047(170) 1.260513(90)
O8D O -0.380123(100) -0.425127(170) 1.280613(90)
O9A O -0.44620(15) -0.04211(19) 0.94709(13)
O10A O -0.43320(12) -0.07984(17) 0.94242(10)
O11A O -0.25929(10) 0.13807(13) 0.67876(9)
O12A O -0.31398(12) 0.11830(12) 0.68157(8)
O13A O 0.14613(10) 0.25610(15) 1.29320(9)
O14A O 0.15196(10) 0.22849(15) 1.25389(9)
O7C O -0.094313(100) 0.343733(170) 1.260513(90)
O8C O -0.045003(100) 0.380123(170) 1.280613(90)
O9G O -0.112867(150) -0.375443(190) 0.613757(130)
O10G O -0.099867(120) -0.413173(170) 0.609087(100)
In2D In 0.184407(20) 0.238923(30) 1.301893(20)
In2G In 0.851073(20) 0.572257(30) 0.635227(20)
In2F In 0.721183(20) 0.148927(30) 0.635227(20)
In2E In -0.238923(20) -0.054517(30) 1.301893(20)
In2B In 0.09441(2) -0.38785(3) 0.96856(2)
In2G* In -0.148927(20) -0.427743(30) 0.635227(20)
In1D In -0.383823(20) -0.477007(20) 1.294133(20)
In2A In -0.48226(2) -0.09441(3) 0.96856(2)
In2F* In -0.278817(20) 0.148927(30) 0.635227(20)
In1C In -0.093183(20) 0.383823(20) 1.294133(20)
O13D O -0.187203(100) -0.410567(150) 0.626533(90)
O14D O -0.181373(100) -0.438177(150) 0.587223(90)
O15B* O -0.16763(8) -0.48432(9) 0.62829(9)
O16B* O -0.19636(10) -0.47020(11) 0.66038(11)
O13C O -0.223363(100) 0.187203(150) 0.626533(90)
O14C O -0.256803(100) 0.181373(150) 0.587223(90)
O9F O -0.262577(150) 0.112867(190) 0.613757(130)
O10F O -0.313307(120) 0.099867(170) 0.609087(100)
O15A* O -0.31669(8) 0.16763(9) 0.62829(9)
O16A* O -0.27384(10) 0.19636(11) 0.66038(11)
#END
