
#######################################################################
#
#                 Cambridge Crystallographic Data Centre
#                                CCDC
#
#######################################################################
#
# If this CIF has been generated from an entry in the Cambridge
# Structural Database, then it will include bibliographic, chemical,
# crystal, experimental, refinement or atomic coordinate data resulting
# from the CCDC's data processing and validation procedures.
#
#######################################################################

data_CSD_CIF_CIGTUK
_audit_creation_date 2018-07-03
_audit_creation_method CSD-ConQuest-V1
_database_code_CSD CIGTUK
_database_code_depnum_ccdc_archive 'CCDC 1840386'
_chemical_formula_sum 'C40 H32 Co1 N6 O16'
_chemical_formula_moiety
;
(C36 H16 Co1 N4 O16 2-)n,2(C2 H8 N1 1+)
;
_journal_coden_Cambridge 1350
_journal_volume 20
_journal_year 2018
_journal_page_first 4115
_journal_name_full 'CrystEngComm '
loop_
_publ_author_name
"N.Kyratzis"
"Winnie Cao"
"E.I.Izgorodina"
"D.R.Turner"
_chemical_name_systematic
;
catena-(bis(dimethylammonium) 
bis(\m-[7-(carboxylatomethyl)-1,3,6,8-tetraoxo-3,6,7,8-tetrahydrobenzo[lmn][3,
8]phenanthrolin-2(1H)-yl]acetato)-cobalt)
;
_cell_volume   3770.822
_exptl_crystal_colour 'blue'
_exptl_crystal_density_diffrn 1.606
_exptl_crystal_description 'block'
_diffrn_ambient_temperature 100
_diffrn_radiation_probe x-ray
_diffrn_source synchrotron
#These two values have been output from a single CSD field.
_refine_ls_R_factor_gt 0.0508
_refine_ls_wR_factor_gt 0.0508
_symmetry_cell_setting monoclinic
_symmetry_space_group_name_H-M 'C 2/c'
_symmetry_Int_Tables_number 15
loop_
_symmetry_equiv_pos_site_id
_symmetry_equiv_pos_as_xyz
1 x,y,z
2 -x,y,1/2-z
3 1/2+x,1/2+y,z
4 1/2-x,1/2+y,1/2-z
5 -x,-y,-z
6 x,-y,-1/2+z
7 -1/2-x,-1/2-y,-z
8 -1/2+x,-1/2-y,-1/2+z
_cell_length_a 16.464(3)
_cell_length_b 9.1800(18)
_cell_length_c 25.501(5)
_cell_angle_alpha 90
_cell_angle_beta 101.94(3)
_cell_angle_gamma 90
_cell_formula_units_Z 4
loop_
_atom_type_symbol
_atom_type_radius_bond
C 0.68
H 0.23
Co 1.26
N 0.68
O 0.68
loop_
_atom_site_label
_atom_site_type_symbol
_atom_site_fract_x
_atom_site_fract_y
_atom_site_fract_z
Co1 Co 0.50000 0.18949(5) 0.75000
O1 O 0.57699(11) 0.3182(2) 0.72295(7)
O2 O 0.67945(13) 0.3753(3) 0.68347(9)
O3 O 0.54419(11) 0.3787(3) 0.56199(8)
O4 O 0.73217(12) 0.0479(2) 0.64486(8)
O5 O 0.44239(11) 0.0876(2) 0.68577(7)
O6 O 0.35492(12) -0.0003(3) 0.73355(7)
O7 O 0.29584(13) 0.1258(4) 0.56419(10)
O8 O 0.47266(17) -0.2352(3) 0.63630(9)
N1 N 0.63222(11) 0.1994(2) 0.59917(8)
N2 N 0.38151(14) -0.0602(3) 0.59782(9)
C1 C 0.61677(14) 0.3036(3) 0.68601(10)
C2 C 0.58714(14) 0.1891(3) 0.64304(9)
H1 H 0.59541 0.09089 0.65932
H2 H 0.52701 0.20231 0.62852
C3 C 0.70637(15) 0.1217(3) 0.60506(9)
C4 C 0.60567(14) 0.3060(3) 0.56074(9)
C5 C 0.75302(14) 0.1365(3) 0.56116(9)
C6 C 0.65528(13) 0.3268(3) 0.51867(9)
C7 C 0.82317(15) 0.0535(3) 0.56194(10)
H3 H 0.84041 -0.01584 0.58966
C8 C 0.72666(13) 0.2408(3) 0.52024(8)
C9 C 0.63085(14) 0.4282(3) 0.47846(10)
H4 H 0.58281 0.48591 0.47805
C10 C 0.38111(16) 0.0103(4) 0.69185(11)
C11 C 0.3380(2) -0.0745(5) 0.64231(12)
H5 H 0.33514 -0.17870 0.65173
H6 H 0.28043 -0.03823 0.63068
C12 C 0.45201(18) -0.1453(4) 0.60061(10)
C13 C 0.35602(15) 0.0517(4) 0.56152(11)
C14 C 0.50069(15) -0.1219(3) 0.55836(10)
C15 C 0.40592(14) 0.0763(3) 0.5197(1)
C16 C 0.56931(18) -0.2073(3) 0.55731(11)
H7 H 0.58463 -0.28239 0.58309
C17 C 0.47629(13) -0.0112(3) 0.51994(8)
C18 C 0.38337(17) 0.1831(4) 0.48199(12)
H8 H 0.33567 0.24103 0.48234
N3 N 0.69329(17) 0.6415(3) 0.73915(10)
H9 H 0.695(2) 0.5528(16) 0.7302(15)
H10 H 0.730(2) 0.668(6) 0.7657(14)
C19 C 0.7100(3) 0.7406(4) 0.69732(18)
H11 H 0.67383 0.71559 0.66293
H12 H 0.76819 0.73115 0.69437
H13 H 0.69917 0.84119 0.70679
C20 C 0.6090(2) 0.6440(4) 0.7495(2)
H14 H 0.59819 0.73957 0.76378
H15 H 0.60368 0.56830 0.77568
H16 H 0.56887 0.62591 0.71603
O1F O 0.92301(11) 0.1818(2) 0.27705(7)
O2F O 0.82055(13) 0.1247(3) 0.31653(9)
O3F O 0.95581(11) 0.1213(3) 0.43801(8)
O4F O 0.76783(12) 0.4521(2) 0.35514(8)
N1F N 0.86778(11) 0.3006(2) 0.40083(8)
C1F C 0.88323(14) 0.1964(3) 0.31399(10)
C2F C 0.91286(14) 0.3109(3) 0.35696(9)
H1F H 0.90459 0.40910 0.34068
H2F H 0.97299 0.29769 0.37148
C3F C 0.79363(15) 0.3783(3) 0.39494(9)
C4F C 0.89433(14) 0.1940(3) 0.43926(9)
C5F C 0.74698(14) 0.3635(3) 0.43884(9)
C6F C 0.84472(13) 0.1732(3) 0.48133(9)
C7F C 0.67683(15) 0.4465(3) 0.43806(10)
H3F H 0.65959 0.51584 0.41034
C8F C 0.77334(13) 0.2592(3) 0.47976(8)
C9F C 0.86915(14) 0.0718(3) 0.52154(10)
H4F H 0.91719 0.01409 0.52195
O5D O 0.55761(11) -0.0876(2) 0.31423(7)
O6D O 0.64508(12) 0.0003(3) 0.26645(7)
O7D O 0.70416(13) -0.1258(4) 0.43581(10)
O8D O 0.52734(17) 0.2352(3) 0.36370(9)
N2D N 0.61849(14) 0.0602(3) 0.40218(9)
C10D C 0.61889(16) -0.0103(4) 0.30815(11)
C11D C 0.6620(2) 0.0745(5) 0.35769(12)
H5D H 0.66486 0.17870 0.34827
H6D H 0.71957 0.03823 0.36932
C12D C 0.54799(18) 0.1453(4) 0.39939(10)
C13D C 0.64398(15) -0.0517(4) 0.43848(11)
C14D C 0.49931(15) 0.1219(3) 0.44164(10)
C15D C 0.59408(14) -0.0763(3) 0.4803(1)
C16D C 0.43069(18) 0.2073(3) 0.44269(11)
H7D H 0.41537 0.28239 0.41691
C17D C 0.52371(13) 0.0112(3) 0.48006(8)
C18D C 0.61663(17) -0.1831(4) 0.51801(12)
H8D H 0.66433 -0.24103 0.51766
Co1D Co 0.50000 -0.18949(5) 0.25000
Co1F Co 1.00000 0.31051(5) 0.25000
O1A O 0.42301(11) 0.3182(2) 0.77705(7)
O5A O 0.55761(11) 0.0876(2) 0.81423(7)
#END
