
#######################################################################
#
#                 Cambridge Crystallographic Data Centre
#                                CCDC
#
#######################################################################
#
# If this CIF has been generated from an entry in the Cambridge
# Structural Database, then it will include bibliographic, chemical,
# crystal, experimental, refinement or atomic coordinate data resulting
# from the CCDC's data processing and validation procedures.
#
#######################################################################

data_CSD_CIF_CIGVAS
_audit_creation_date 2018-07-03
_audit_creation_method CSD-ConQuest-V1
_database_code_CSD CIGVAS
_database_code_depnum_ccdc_archive 'CCDC 1840387'
_chemical_formula_sum 'C40 H32 N6 O16 Zn1'
_chemical_formula_moiety
;
(C36 H16 N4 O16 Zn1 2-)n,2n(C2 H8 N1 1+)
;
_journal_coden_Cambridge 1350
_journal_volume 20
_journal_year 2018
_journal_page_first 4115
_journal_name_full 'CrystEngComm '
loop_
_publ_author_name
"N.Kyratzis"
"Winnie Cao"
"E.I.Izgorodina"
"D.R.Turner"
_chemical_name_systematic
;
catena-(bis(dimethylammonium) 
bis(\m-[7-(carboxylatomethyl)-1,3,6,8-tetraoxo-3,6,7,8-tetrahydrobenzo[lmn][3,
8]phenanthrolin-2(1H)-yl]acetato)-zinc)
;
_cell_volume   3767.447
_exptl_crystal_colour 'colorless'
_exptl_crystal_density_diffrn 1.619
_exptl_crystal_description 'plate'
_diffrn_ambient_temperature 100
_diffrn_radiation_probe x-ray
_diffrn_source synchrotron
#These two values have been output from a single CSD field.
_refine_ls_R_factor_gt 0.0901
_refine_ls_wR_factor_gt 0.0901
_symmetry_cell_setting monoclinic
_symmetry_space_group_name_H-M 'C 2/c'
_symmetry_Int_Tables_number 15
loop_
_symmetry_equiv_pos_site_id
_symmetry_equiv_pos_as_xyz
1 x,y,z
2 -x,y,1/2-z
3 1/2+x,1/2+y,z
4 1/2-x,1/2+y,1/2-z
5 -x,-y,-z
6 x,-y,-1/2+z
7 -1/2-x,-1/2-y,-z
8 -1/2+x,-1/2-y,-1/2+z
_cell_length_a 16.468(3)
_cell_length_b 9.1690(18)
_cell_length_c 25.512(5)
_cell_angle_alpha 90
_cell_angle_beta 102.04(3)
_cell_angle_gamma 90
_cell_formula_units_Z 4
loop_
_atom_type_symbol
_atom_type_radius_bond
C 0.68
H 0.23
N 0.68
O 0.68
Zn 1.22
loop_
_atom_site_label
_atom_site_type_symbol
_atom_site_fract_x
_atom_site_fract_y
_atom_site_fract_z
Zn1 Zn 0.50000 0.18835(10) 0.75000
O1 O 0.5762(2) 0.3168(4) 0.72266(16)
O2 O 0.6796(3) 0.3731(6) 0.6838(2)
O3 O 0.7313(3) 0.0453(5) 0.64414(17)
O4 O 0.5440(2) 0.3790(5) 0.56211(17)
O5 O 0.4421(2) 0.0862(5) 0.68670(15)
O6 O 0.3531(3) -0.0022(6) 0.73337(17)
O7 O 0.2959(2) 0.1266(7) 0.5644(2)
O8 O 0.4732(3) -0.2362(6) 0.63613(18)
N1 N 0.6318(2) 0.1991(5) 0.59874(16)
N2 N 0.3815(3) -0.0608(6) 0.59772(19)
C1 C 0.6165(3) 0.3015(6) 0.6859(2)
C2 C 0.5866(3) 0.1883(6) 0.6425(2)
H1 H 0.59437 0.08958 0.65847
H2 H 0.52650 0.20249 0.62795
C3 C 0.7061(3) 0.1201(6) 0.6046(2)
C4 C 0.6056(3) 0.3056(6) 0.5607(2)
C5 C 0.7530(3) 0.1361(6) 0.5607(2)
C6 C 0.6550(3) 0.3276(5) 0.5185(2)
C7 C 0.8231(3) 0.0525(6) 0.5614(2)
H3 H 0.84008 -0.01728 0.58907
C8 C 0.7267(3) 0.2408(5) 0.52040(18)
C9 C 0.6310(3) 0.4293(6) 0.4786(2)
H4 H 0.58302 0.48726 0.47816
C10 C 0.3794(3) 0.0096(7) 0.6918(2)
C11 C 0.3377(4) -0.0753(10) 0.6420(2)
H5 H 0.33510 -0.17971 0.65140
H6 H 0.27999 -0.03982 0.63003
C12 C 0.4524(4) -0.1470(7) 0.6004(2)
C13 C 0.3561(3) 0.0513(8) 0.5618(2)
C14 C 0.5010(3) -0.1228(7) 0.5580(2)
C15 C 0.4055(3) 0.0760(6) 0.5195(2)
C16 C 0.5702(4) -0.2072(7) 0.5569(2)
H7 H 0.58625 -0.28181 0.58279
C17 C 0.4768(3) -0.0109(6) 0.52021(19)
C18 C 0.3833(3) 0.1824(7) 0.4826(3)
H8 H 0.33594 0.24091 0.48341
N3 N 0.6927(3) 0.6438(7) 0.7394(2)
H9 H 0.70485 0.55079 0.73118
H10 H 0.72898 0.66859 0.77007
C19 C 0.7085(6) 0.7389(9) 0.6966(4)
H11 H 0.71827 0.83864 0.71027
H12 H 0.66027 0.73776 0.66668
H13 H 0.75751 0.70406 0.68422
C20 C 0.6096(4) 0.6436(9) 0.7507(5)
H14 H 0.56876 0.62496 0.71748
H15 H 0.59842 0.73859 0.76526
H16 H 0.60575 0.56704 0.77684
O1F O 0.9238(2) 0.1832(4) 0.27734(16)
O2F O 0.8204(3) 0.1269(6) 0.3162(2)
O3F O 0.7687(3) 0.4547(5) 0.35586(17)
O4F O 0.9560(2) 0.1210(5) 0.43789(17)
N1F N 0.8682(2) 0.3009(5) 0.40126(16)
C1F C 0.8835(3) 0.1985(6) 0.3141(2)
C2F C 0.9134(3) 0.3117(6) 0.3575(2)
H1F H 0.90563 0.41042 0.34153
H2F H 0.97350 0.29751 0.37205
C3F C 0.7939(3) 0.3799(6) 0.3954(2)
C4F C 0.8944(3) 0.1944(6) 0.4393(2)
C5F C 0.7470(3) 0.3639(6) 0.4393(2)
C6F C 0.8450(3) 0.1724(5) 0.4815(2)
C7F C 0.6769(3) 0.4475(6) 0.4386(2)
H3F H 0.65992 0.51728 0.41093
C8F C 0.7733(3) 0.2592(5) 0.47960(18)
C9F C 0.8690(3) 0.0707(6) 0.5214(2)
H4F H 0.91698 0.01274 0.52184
O5D O 0.5579(2) -0.0862(5) 0.31330(15)
O6D O 0.6469(3) 0.0022(6) 0.26663(17)
O7D O 0.7041(2) -0.1266(7) 0.4356(2)
O8D O 0.5268(3) 0.2362(6) 0.36387(18)
N2D N 0.6185(3) 0.0608(6) 0.40228(19)
C10D C 0.6206(3) -0.0096(7) 0.3082(2)
C11D C 0.6623(4) 0.0753(10) 0.3580(2)
H5D H 0.66490 0.17971 0.34860
H6D H 0.72001 0.03982 0.36997
C12D C 0.5476(4) 0.1470(7) 0.3996(2)
C13D C 0.6439(3) -0.0513(8) 0.4382(2)
C14D C 0.4990(3) 0.1228(7) 0.4420(2)
C15D C 0.5945(3) -0.0760(6) 0.4805(2)
C16D C 0.4298(4) 0.2072(7) 0.4431(2)
H7D H 0.41375 0.28181 0.41721
C17D C 0.5232(3) 0.0109(6) 0.47979(19)
C18D C 0.6167(3) -0.1824(7) 0.5174(3)
H8D H 0.66406 -0.24091 0.51659
Zn1D Zn 0.50000 -0.18835(10) 0.25000
Zn1F Zn 1.00000 0.31165(10) 0.25000
O1A O 0.4238(2) 0.3168(4) 0.77734(16)
O5A O 0.5579(2) 0.0862(5) 0.81330(15)
#END
