
#######################################################################
#
#                 Cambridge Crystallographic Data Centre
#                                CCDC
#
#######################################################################
#
# If this CIF has been generated from an entry in the Cambridge
# Structural Database, then it will include bibliographic, chemical,
# crystal, experimental, refinement or atomic coordinate data resulting
# from the CCDC's data processing and validation procedures.
#
#######################################################################

data_CSD_CIF_CIGVUM
_audit_creation_date 2018-07-03
_audit_creation_method CSD-ConQuest-V1
_database_code_CSD CIGVUM
_database_code_depnum_ccdc_archive 'CCDC 1840391'
_chemical_formula_sum 'C64 H54 Cu2 N10 O26'
_chemical_formula_moiety
;
(C54 H24 Cu2 N6 O24 2-)n,2n(C3 H7 N1 O1),2n(C2 H8 N1 1+)
;
_journal_coden_Cambridge 1350
_journal_volume 20
_journal_year 2018
_journal_page_first 4115
_journal_name_full 'CrystEngComm '
loop_
_publ_author_name
"N.Kyratzis"
"Winnie Cao"
"E.I.Izgorodina"
"D.R.Turner"
_chemical_name_systematic
;
catena-(bis(dimethylammonium) 
tris(\m-2,2'-(1,3,6,8-tetraoxo-1,3,6,8-tetrahydrobenzo[lmn][3,8]phenanthroline
-2,7-diyl)diacetato)-di-copper dimethylformamide solvate)
;
_cell_volume   1561.735
_exptl_crystal_colour 'green'
_exptl_crystal_density_diffrn 1.602
_exptl_crystal_description 'block'
_diffrn_ambient_temperature 100
_diffrn_radiation_probe x-ray
_diffrn_source synchrotron
#These two values have been output from a single CSD field.
_refine_ls_R_factor_gt 0.0684
_refine_ls_wR_factor_gt 0.0684
_symmetry_cell_setting triclinic
_symmetry_space_group_name_H-M 'P -1'
_symmetry_Int_Tables_number 2
loop_
_symmetry_equiv_pos_site_id
_symmetry_equiv_pos_as_xyz
1 x,y,z
2 -x,-y,-z
_cell_length_a 9.864(2)
_cell_length_b 13.216(3)
_cell_length_c 13.312(3)
_cell_angle_alpha 113.74(3)
_cell_angle_beta 98.29(3)
_cell_angle_gamma 92.58(3)
_cell_formula_units_Z 1
loop_
_atom_type_symbol
_atom_type_radius_bond
C 0.68
H 0.23
Cu 1.32
N 0.68
O 0.68
loop_
_atom_site_label
_atom_site_type_symbol
_atom_site_fract_x
_atom_site_fract_y
_atom_site_fract_z
Cu1 Cu 0.62324(3) 0.05255(3) 0.53632(3)
O1 O 0.3202(2) 0.09313(19) 0.55762(18)
O2 O 0.5335(2) 0.18223(18) 0.61970(18)
O3 O 0.4574(3) 0.4814(3) 0.6944(2)
O4 O 0.4379(3) 0.2401(2) 0.8563(2)
O5 O 1.0245(3) 0.7981(3) 1.1029(3)
O6 O 1.0338(3) 0.5404(3) 1.2448(3)
O7 O 0.9668(2) 0.8060(2) 1.3456(2)
O8 O 1.1800(2) 0.8692(2) 1.4363(2)
O9 O 0.3642(2) -0.0095(2) 0.33704(19)
O10 O 0.5778(3) 0.0798(2) 0.40104(19)
O11 O 0.3999(4) -0.0920(3) 0.0277(3)
O12 O 0.2649(4) 0.2073(3) 0.2945(2)
N1 N 0.4498(3) 0.3595(2) 0.7754(2)
N2 N 1.0385(3) 0.6609(3) 1.1635(3)
N3 N 0.3297(4) 0.0560(3) 0.1643(3)
C1 C 0.4058(3) 0.1775(3) 0.6149(2)
C2 C 0.3467(3) 0.2829(3) 0.6825(3)
H1 H 0.31299 0.31988 0.63370
H2 H 0.26727 0.26336 0.71162
C3 C 0.5044(3) 0.4554(3) 0.7687(3)
C4 C 0.4954(3) 0.3236(3) 0.8575(3)
C5 C 0.6219(3) 0.5226(3) 0.8573(3)
C6 C 0.6164(3) 0.3889(2) 0.9423(2)
C7 C 0.6792(5) 0.6192(3) 0.8572(3)
H3 H 0.64093 0.64428 0.80280
C8 C 0.6772(3) 0.4852(2) 0.9379(2)
C9 C 0.6714(4) 0.3549(3) 1.0223(3)
H4 H 0.62879 0.29076 1.02568
C10 C 0.7940(5) 0.6802(3) 0.9374(3)
H5 H 0.83134 0.74829 0.93859
C11 C 0.7958(3) 0.5453(2) 1.0163(2)
C12 C 0.7908(4) 0.4146(3) 1.0995(3)
H6 H 0.82871 0.39052 1.15475
C13 C 0.8532(3) 0.6443(3) 1.0135(3)
C14 C 0.8523(3) 0.5074(3) 1.0952(3)
C15 C 0.9777(4) 0.7078(3) 1.0964(3)
C16 C 0.9812(4) 0.5686(3) 1.1743(3)
C17 C 1.1516(3) 0.7291(3) 1.2530(3)
H7 H 1.20842 0.77355 1.22642
H8 H 1.21112 0.68051 1.27509
C18 C 1.0934(3) 0.8068(3) 1.3536(3)
C19 C 0.4664(4) 0.0472(3) 0.3325(3)
C20 C 0.4646(5) 0.0776(5) 0.2339(4)
H9 H 0.49759 0.15768 0.26210
H10 H 0.52988 0.03508 0.18755
C21 C 0.3088(5) -0.0358(4) 0.0601(4)
C22 C 0.2347(5) 0.1280(4) 0.2049(3)
C23 C 0.1677(4) -0.0590(3) -0.0063(3)
C24 C 0.0948(4) 0.1050(3) 0.1353(3)
C25 C 0.1374(5) -0.1500(3) -0.1075(3)
H11 H 0.20623 -0.19701 -0.13408
C26 C 0.0666(4) 0.0117(3) 0.0329(3)
C27 C -0.0048(5) 0.1728(3) 0.1707(3)
H12 H 0.01639 0.23659 0.23959
O13 O 0.1901(11) 0.6811(7) 0.6784(6)
N4 N 0.2371(6) 0.5607(4) 0.5222(3)
C28 C 0.1921(15) 0.5806(7) 0.6124(7)
H13 H 0.16078 0.52160 0.62989
C29 C 0.2570(11) 0.4547(8) 0.4420(6)
H14 H 0.23574 0.45315 0.36708
H15 H 0.19581 0.39694 0.44678
H16 H 0.35309 0.44102 0.45670
C30 C 0.2965(16) 0.6531(9) 0.5073(12)
H17 H 0.39519 0.66760 0.53869
H18 H 0.25117 0.71895 0.54549
H19 H 0.28391 0.63611 0.42758
N5 N 0.9028(3) 1.0116(3) 1.3638(2)
H20 H 0.879(5) 1.070(3) 1.421(3)
H21 H 0.920(5) 0.942(2) 1.358(4)
C31 C 0.8127(4) 0.9876(4) 1.2569(3)
H22 H 0.85899 0.94425 1.19544
H23 H 0.79270 1.05760 1.25206
H24 H 0.72626 0.94483 1.25199
C32 C 1.0379(4) 1.0724(4) 1.3779(3)
H25 H 1.08780 1.02734 1.31980
H26 H 1.09132 1.08759 1.45140
H27 H 1.02441 1.14288 1.37169
O9A O -0.3642(2) 0.0095(2) -0.33704(19)
O10A O -0.5778(3) -0.0798(2) -0.40104(19)
O11A O -0.3999(4) 0.0920(3) -0.0277(3)
O12A O -0.2649(4) -0.2073(3) -0.2945(2)
N3A N -0.3297(4) -0.0560(3) -0.1643(3)
C19A C -0.4664(4) -0.0472(3) -0.3325(3)
C20A C -0.4646(5) -0.0776(5) -0.2339(4)
H9A H -0.49759 -0.15768 -0.26210
H10A H -0.52988 -0.03508 -0.18755
C21A C -0.3088(5) 0.0358(4) -0.0601(4)
C22A C -0.2347(5) -0.1280(4) -0.2049(3)
C23A C -0.1677(4) 0.0590(3) 0.0063(3)
C24A C -0.0948(4) -0.1050(3) -0.1353(3)
C25A C -0.1374(5) 0.1500(3) 0.1075(3)
H11A H -0.20623 0.19701 0.13408
C26A C -0.0666(4) -0.0117(3) -0.0329(3)
C27A C 0.0048(5) -0.1728(3) -0.1707(3)
H12A H -0.01639 -0.23659 -0.23959
Cu1A Cu -0.62324(3) -0.05255(3) -0.53632(3)
O1A O -0.3202(2) -0.09313(19) -0.55762(18)
O2A O -0.5335(2) -0.18223(18) -0.61970(18)
O3A O -0.4574(3) -0.4814(3) -0.6944(2)
O4A O -0.4379(3) -0.2401(2) -0.8563(2)
O5A O -1.0245(3) -0.7981(3) -1.1029(3)
O6A O -1.0338(3) -0.5404(3) -1.2448(3)
O7A O -0.9668(2) -0.8060(2) -1.3456(2)
O8A O -1.1800(2) -0.8692(2) -1.4363(2)
N1A N -0.4498(3) -0.3595(2) -0.7754(2)
N2A N -1.0385(3) -0.6609(3) -1.1635(3)
C1A C -0.4058(3) -0.1775(3) -0.6149(2)
C2A C -0.3467(3) -0.2829(3) -0.6825(3)
H1A H -0.31299 -0.31988 -0.63370
H2A H -0.26727 -0.26336 -0.71162
C3A C -0.5044(3) -0.4554(3) -0.7687(3)
C4A C -0.4954(3) -0.3236(3) -0.8575(3)
C5A C -0.6219(3) -0.5226(3) -0.8573(3)
C6A C -0.6164(3) -0.3889(2) -0.9423(2)
C7A C -0.6792(5) -0.6192(3) -0.8572(3)
H3A H -0.64093 -0.64428 -0.80280
C8A C -0.6772(3) -0.4852(2) -0.9379(2)
C9A C -0.6714(4) -0.3549(3) -1.0223(3)
H4A H -0.62879 -0.29076 -1.02568
C10A C -0.7940(5) -0.6802(3) -0.9374(3)
H5A H -0.83134 -0.74829 -0.93859
C11A C -0.7958(3) -0.5453(2) -1.0163(2)
C12A C -0.7908(4) -0.4146(3) -1.0995(3)
H6A H -0.82871 -0.39052 -1.15475
C13A C -0.8532(3) -0.6443(3) -1.0135(3)
C14A C -0.8523(3) -0.5074(3) -1.0952(3)
C15A C -0.9777(4) -0.7078(3) -1.0964(3)
C16A C -0.9812(4) -0.5686(3) -1.1743(3)
C17A C -1.1516(3) -0.7291(3) -1.2530(3)
H7A H -1.20842 -0.77355 -1.22642
H8A H -1.21112 -0.68051 -1.27509
C18A C -1.0934(3) -0.8068(3) -1.3536(3)
Cu1* Cu -1.37676(3) -0.94745(3) -1.46368(3)
Cu1** Cu -0.37676(3) 0.05255(3) -0.46368(3)
Cu1A* Cu 0.37676(3) -0.05255(3) 0.46368(3)
Cu1A** Cu 1.37676(3) 0.94745(3) 1.46368(3)
O1* O -0.6798(2) 0.09313(19) -0.44238(18)
O1A* O 0.6798(2) -0.09313(19) 0.44238(18)
O8* O -0.8200(2) -0.1308(2) -0.5637(2)
O8A* O 0.8200(2) 0.1308(2) 0.5637(2)
O9* O -0.6358(2) -0.0095(2) -0.66296(19)
O9A* O 0.6358(2) 0.0095(2) 0.66296(19)
#END
