
#######################################################################
#
#                 Cambridge Crystallographic Data Centre
#                                CCDC
#
#######################################################################
#
# If this CIF has been generated from an entry in the Cambridge
# Structural Database, then it will include bibliographic, chemical,
# crystal, experimental, refinement or atomic coordinate data resulting
# from the CCDC's data processing and validation procedures.
#
#######################################################################

data_CSD_CIF_CIJGEK09
_audit_creation_date 2018-07-03
_audit_creation_method CSD-ConQuest-V1
_database_code_CSD CIJGEK09
_database_code_depnum_ccdc_archive 'CCDC 1840723'
_chemical_formula_sum 'C8 H18 N4 Ni1 O8'
_chemical_formula_moiety
;
(C4 H4 Ni1 O8 2-)n,2n(C2 H7 N2 1+)
;
_journal_coden_Cambridge 222
_journal_volume 47
_journal_year 2018
_journal_page_first 11925
_journal_name_full 'Dalton Trans. '
loop_
_publ_author_name
"Shu Liu"
"Bing-Wu Wang"
"Zhe-Ming Wang"
"Song Gao"
_chemical_name_systematic
;
catena-(bis(acetamidinium) bis(\m-formato)-bis(hydrogen formato)-nickel(ii))
;
_cell_volume   1488.483
_exptl_crystal_colour 'green'
_exptl_crystal_density_diffrn 1.593
_exptl_crystal_description 'block'
_diffrn_ambient_temperature 440
#These two values have been output from a single CSD field.
_refine_ls_R_factor_gt 0.032
_refine_ls_wR_factor_gt 0.032
_symmetry_cell_setting orthorhombic
_symmetry_space_group_name_H-M 'P c c n'
_symmetry_Int_Tables_number 56
loop_
_symmetry_equiv_pos_site_id
_symmetry_equiv_pos_as_xyz
1 x,y,z
2 1/2-x,1/2-y,z
3 -x,1/2+y,1/2-z
4 1/2+x,-y,1/2-z
5 -x,-y,-z
6 -1/2+x,-1/2+y,-z
7 x,-1/2-y,-1/2+z
8 -1/2-x,y,-1/2+z
_cell_length_a 7.8983(2)
_cell_length_b 22.0866(4)
_cell_length_c 8.5326(2)
_cell_angle_alpha 90
_cell_angle_beta 90
_cell_angle_gamma 90
_cell_formula_units_Z 4
loop_
_atom_type_symbol
_atom_type_radius_bond
C 0.68
H 0.23
N 0.68
Ni 1.24
O 0.68
loop_
_atom_site_label
_atom_site_type_symbol
_atom_site_fract_x
_atom_site_fract_y
_atom_site_fract_z
Ni1 Ni 0.00000 0.00000 0.00000
O1 O 0.07422(16) -0.02446(6) 0.22360(14)
O2 O 0.25474(18) -0.01653(6) 0.42067(15)
O3 O 0.0457(2) 0.08907(6) 0.06424(18)
O4 O 0.0810(4) 0.18605(8) 0.0240(2)
C1 C 0.2023(2) -0.00306(8) 0.2867(2)
H1 H 0.26440 0.02520 0.23000
C2 C 0.0844(4) 0.13272(10) -0.0154(3)
H2 H 0.12050 0.12470 -0.11710
C3 C -0.0481(3) 0.15891(10) 0.4393(3)
C4 C -0.0927(6) 0.17122(14) 0.6047(3)
H3 H -0.18250 0.20050 0.60870
H4 H 0.00460 0.18680 0.65880
H5 H -0.12920 0.13440 0.65400
N1 N -0.0770(3) 0.10567(8) 0.3828(2)
H6 H -0.05180 0.09770 0.28690
H7 H -0.12150 0.07810 0.44100
N2 N 0.0190(3) 0.20180(9) 0.3550(3)
H8 H 0.04540 0.19510 0.25880
H9 H 0.03690 0.23690 0.39560
O1D O -0.07422(16) 0.02446(6) -0.22360(14)
O2D O -0.25474(18) 0.01653(6) -0.42067(15)
O3D O -0.0457(2) -0.08907(6) -0.06424(18)
O4D O -0.0810(4) -0.18605(8) -0.0240(2)
C1D C -0.2023(2) 0.00306(8) -0.2867(2)
H1D H -0.26440 -0.02520 -0.23000
C2D C -0.0844(4) -0.13272(10) 0.0154(3)
H2D H -0.12050 -0.12470 0.11710
Ni1C Ni -0.50000 0.00000 -0.50000
Ni1C* Ni 0.50000 0.00000 0.50000
O2C O -0.24526(18) 0.01653(6) 0.07933(15)
O2G O 0.24526(18) -0.01653(6) -0.07933(15)
#END
