
#######################################################################
#
#                 Cambridge Crystallographic Data Centre
#                                CCDC
#
#######################################################################
#
# If this CIF has been generated from an entry in the Cambridge
# Structural Database, then it will include bibliographic, chemical,
# crystal, experimental, refinement or atomic coordinate data resulting
# from the CCDC's data processing and validation procedures.
#
#######################################################################

data_CSD_CIF_CIJGEK
_audit_creation_date 2018-07-03
_audit_creation_method CSD-ConQuest-V1
_database_code_CSD CIJGEK
_database_code_depnum_ccdc_archive 'CCDC 1840714'
_chemical_formula_sum 'C8 H18 N4 Ni1 O8'
_chemical_formula_moiety
;
(C4 H4 Ni1 O8 2-)n,2(C2 H7 N2 1+)
;
_journal_coden_Cambridge 222
_journal_volume 47
_journal_year 2018
_journal_page_first 11925
_journal_name_full 'Dalton Trans. '
loop_
_publ_author_name
"Shu Liu"
"Bing-Wu Wang"
"Zhe-Ming Wang"
"Song Gao"
_chemical_name_systematic
;
catena-(bis(acetamidinium) bis(\m-formato)-bis(hydrogen formato)-nickel(ii))
;
_cell_volume   1453.878
_exptl_crystal_colour 'green'
_exptl_crystal_density_diffrn 1.631
_exptl_crystal_description 'block'
_diffrn_ambient_temperature 80
#These two values have been output from a single CSD field.
_refine_ls_R_factor_gt 0.024
_refine_ls_wR_factor_gt 0.024
_symmetry_cell_setting orthorhombic
_symmetry_space_group_name_H-M 'P c c n'
_symmetry_Int_Tables_number 56
loop_
_symmetry_equiv_pos_site_id
_symmetry_equiv_pos_as_xyz
1 x,y,z
2 1/2-x,1/2-y,z
3 -x,1/2+y,1/2-z
4 1/2+x,-y,1/2-z
5 -x,-y,-z
6 -1/2+x,-1/2+y,-z
7 x,-1/2-y,-1/2+z
8 -1/2-x,y,-1/2+z
_cell_length_a 7.7921(1)
_cell_length_b 22.0548(3)
_cell_length_c 8.4600(1)
_cell_angle_alpha 90
_cell_angle_beta 90
_cell_angle_gamma 90
_cell_formula_units_Z 4
loop_
_atom_type_symbol
_atom_type_radius_bond
C 0.68
H 0.23
N 0.68
Ni 1.24
O 0.68
loop_
_atom_site_label
_atom_site_type_symbol
_atom_site_fract_x
_atom_site_fract_y
_atom_site_fract_z
Ni1 Ni 0.00000 0.00000 0.00000
O1 O 0.06900(11) -0.02600(4) 0.22454(10)
O2 O 0.25198(12) -0.01690(4) 0.42473(10)
O3 O 0.04778(12) 0.08831(4) 0.06760(11)
O4 O 0.08172(15) 0.18709(4) 0.02671(12)
C1 C 0.19942(16) -0.00338(5) 0.28813(15)
H1 H 0.26280 0.02580 0.22970
C2 C 0.08724(18) 0.13312(6) -0.01647(15)
H2 H 0.12430 0.12520 -0.12150
C3 C -0.05157(17) 0.15865(6) 0.44267(15)
C4 C -0.1076(2) 0.17118(6) 0.60829(16)
H3 H -0.22430 0.18780 0.60740
H4 H -0.02940 0.20060 0.65680
H5 H -0.10600 0.13340 0.66930
N1 N -0.07883(15) 0.10474(5) 0.38306(13)
H6 H -0.04920 0.09690 0.28480
H7 H -0.12680 0.07630 0.44120
N2 N 0.01974(15) 0.20228(5) 0.35954(14)
H8 H 0.05060 0.19560 0.26100
H9 H 0.03660 0.23810 0.40250
O1D O -0.06900(11) 0.02600(4) -0.22454(10)
O2D O -0.25198(12) 0.01690(4) -0.42473(10)
O3D O -0.04778(12) -0.08831(4) -0.06760(11)
O4D O -0.08172(15) -0.18709(4) -0.02671(12)
C1D C -0.19942(16) 0.00338(5) -0.28813(15)
H1D H -0.26280 -0.02580 -0.22970
C2D C -0.08724(18) -0.13312(6) 0.01647(15)
H2D H -0.12430 -0.12520 0.12150
Ni1C Ni -0.50000 0.00000 -0.50000
Ni1C* Ni 0.50000 0.00000 0.50000
O2C O -0.24802(12) 0.01690(4) 0.07527(10)
O2G O 0.24802(12) -0.01690(4) -0.07527(10)
#END
