
#######################################################################
#
#                 Cambridge Crystallographic Data Centre
#                                CCDC
#
#######################################################################
#
# If this CIF has been generated from an entry in the Cambridge
# Structural Database, then it will include bibliographic, chemical,
# crystal, experimental, refinement or atomic coordinate data resulting
# from the CCDC's data processing and validation procedures.
#
#######################################################################

data_CSD_CIF_CIJGEK06
_audit_creation_date 2018-07-03
_audit_creation_method CSD-ConQuest-V1
_database_code_CSD CIJGEK06
_database_code_depnum_ccdc_archive 'CCDC 1840720'
_chemical_formula_sum 'C8 H18 N4 Ni1 O8'
_chemical_formula_moiety
;
(C4 H4 Ni1 O8 2-)n,2n(C2 H7 N2 1+)
;
_journal_coden_Cambridge 222
_journal_volume 47
_journal_year 2018
_journal_page_first 11925
_journal_name_full 'Dalton Trans. '
loop_
_publ_author_name
"Shu Liu"
"Bing-Wu Wang"
"Zhe-Ming Wang"
"Song Gao"
_chemical_name_systematic
;
catena-(bis(acetamidinium) bis(\m-formato)-bis(hydrogen formato)-nickel(ii))
;
_cell_volume   1473.465
_exptl_crystal_colour 'green'
_exptl_crystal_density_diffrn 1.609
_exptl_crystal_description 'block'
_diffrn_ambient_temperature 320
#These two values have been output from a single CSD field.
_refine_ls_R_factor_gt 0.0282
_refine_ls_wR_factor_gt 0.0282
_symmetry_cell_setting orthorhombic
_symmetry_space_group_name_H-M 'P c c n'
_symmetry_Int_Tables_number 56
loop_
_symmetry_equiv_pos_site_id
_symmetry_equiv_pos_as_xyz
1 x,y,z
2 1/2-x,1/2-y,z
3 -x,1/2+y,1/2-z
4 1/2+x,-y,1/2-z
5 -x,-y,-z
6 -1/2+x,-1/2+y,-z
7 x,-1/2-y,-1/2+z
8 -1/2-x,y,-1/2+z
_cell_length_a 7.8494(2)
_cell_length_b 22.0641(4)
_cell_length_c 8.5078(2)
_cell_angle_alpha 90
_cell_angle_beta 90
_cell_angle_gamma 90
_cell_formula_units_Z 4
loop_
_atom_type_symbol
_atom_type_radius_bond
C 0.68
H 0.23
N 0.68
Ni 1.24
O 0.68
loop_
_atom_site_label
_atom_site_type_symbol
_atom_site_fract_x
_atom_site_fract_y
_atom_site_fract_z
Ni1 Ni 0.00000 0.00000 0.00000
O1 O 0.07201(14) -0.02508(5) 0.22400(12)
O2 O 0.25345(15) -0.01676(5) 0.42237(13)
O3 O 0.04645(18) 0.08882(5) 0.06579(14)
O4 O 0.0820(3) 0.18633(6) 0.02456(19)
C1 C 0.2010(2) -0.00330(6) 0.28731(18)
H1 H 0.26340 0.02510 0.23040
C2 C 0.0865(3) 0.13270(8) -0.0157(2)
H2 H 0.12370 0.12460 -0.11740
C3 C -0.0487(3) 0.15894(8) 0.4401(2)
C4 C -0.0956(4) 0.17136(10) 0.6059(3)
H3 H -0.19940 0.19440 0.60880
H4 H -0.00620 0.19400 0.65560
H5 H -0.11170 0.13370 0.66050
N1 N -0.0774(2) 0.10549(7) 0.38283(19)
H6 H -0.05190 0.09770 0.28670
H7 H -0.12200 0.07780 0.44100
N2 N 0.0189(3) 0.20221(7) 0.3555(2)
H8 H 0.04570 0.19560 0.25900
H9 H 0.03660 0.23730 0.39640
O1D O -0.07201(14) 0.02508(5) -0.22400(12)
O2D O -0.25345(15) 0.01676(5) -0.42237(13)
O3D O -0.04645(18) -0.08882(5) -0.06579(14)
O4D O -0.0820(3) -0.18633(6) -0.02456(19)
C1D C -0.2010(2) 0.00330(6) -0.28731(18)
H1D H -0.26340 -0.02510 -0.23040
C2D C -0.0865(3) -0.13270(8) 0.0157(2)
H2D H -0.12370 -0.12460 0.11740
Ni1C Ni -0.50000 0.00000 -0.50000
Ni1C* Ni 0.50000 0.00000 0.50000
O2C O -0.24655(15) 0.01676(5) 0.07763(13)
O2G O 0.24655(15) -0.01676(5) -0.07763(13)
#END
