
#######################################################################
#
#                 Cambridge Crystallographic Data Centre
#                                CCDC
#
#######################################################################
#
# If this CIF has been generated from an entry in the Cambridge
# Structural Database, then it will include bibliographic, chemical,
# crystal, experimental, refinement or atomic coordinate data resulting
# from the CCDC's data processing and validation procedures.
#
#######################################################################

data_CSD_CIF_CIJGEK04
_audit_creation_date 2018-07-03
_audit_creation_method CSD-ConQuest-V1
_database_code_CSD CIJGEK04
_database_code_depnum_ccdc_archive 'CCDC 1840718'
_chemical_formula_sum 'C8 H18 N4 Ni1 O8'
_chemical_formula_moiety
;
(C4 H4 Ni1 O8 2-)n,2n(C2 H7 N2 1+)
;
_journal_coden_Cambridge 222
_journal_volume 47
_journal_year 2018
_journal_page_first 11925
_journal_name_full 'Dalton Trans. '
loop_
_publ_author_name
"Shu Liu"
"Bing-Wu Wang"
"Zhe-Ming Wang"
"Song Gao"
_chemical_name_systematic
;
catena-(bis(acetamidinium) bis(\m-formato)-bis(hydrogen formato)-nickel(ii))
;
_cell_volume   1467.020
_exptl_crystal_colour 'green'
_exptl_crystal_density_diffrn 1.616
_exptl_crystal_description 'block'
_diffrn_ambient_temperature 260
#These two values have been output from a single CSD field.
_refine_ls_R_factor_gt 0.0268
_refine_ls_wR_factor_gt 0.0268
_symmetry_cell_setting orthorhombic
_symmetry_space_group_name_H-M 'P c c n'
_symmetry_Int_Tables_number 56
loop_
_symmetry_equiv_pos_site_id
_symmetry_equiv_pos_as_xyz
1 x,y,z
2 1/2-x,1/2-y,z
3 -x,1/2+y,1/2-z
4 1/2+x,-y,1/2-z
5 -x,-y,-z
6 -1/2+x,-1/2+y,-z
7 x,-1/2-y,-1/2+z
8 -1/2-x,y,-1/2+z
_cell_length_a 7.8287(1)
_cell_length_b 22.0521(3)
_cell_length_c 8.4976(1)
_cell_angle_alpha 90
_cell_angle_beta 90
_cell_angle_gamma 90
_cell_formula_units_Z 4
loop_
_atom_type_symbol
_atom_type_radius_bond
C 0.68
H 0.23
N 0.68
Ni 1.24
O 0.68
loop_
_atom_site_label
_atom_site_type_symbol
_atom_site_fract_x
_atom_site_fract_y
_atom_site_fract_z
Ni1 Ni 0.00000 0.00000 0.00000
O1 O 0.07104(13) -0.02541(5) 0.22404(11)
O2 O 0.25273(14) -0.01682(5) 0.42311(12)
O3 O 0.04684(16) 0.08872(5) 0.06645(13)
O4 O 0.0824(3) 0.18655(6) 0.02499(17)
C1 C 0.20046(19) -0.00334(6) 0.28761(17)
H1 H 0.26280 0.02510 0.23080
C2 C 0.0871(3) 0.13275(7) -0.01585(19)
H2 H 0.12420 0.12460 -0.11770
C3 C -0.0491(2) 0.15899(7) 0.44047(19)
C4 C -0.0973(4) 0.17131(9) 0.6066(2)
H3 H -0.20650 0.19110 0.60950
H4 H -0.01290 0.19700 0.65420
H5 H -0.10370 0.13380 0.66350
N1 N -0.0777(2) 0.10534(6) 0.38278(17)
H6 H -0.05180 0.09750 0.28650
H7 H -0.12260 0.07770 0.44080
N2 N 0.0189(2) 0.20236(6) 0.35613(19)
H8 H 0.04610 0.19580 0.25960
H9 H 0.03640 0.23740 0.39730
O1D O -0.07104(13) 0.02541(5) -0.22404(11)
O2D O -0.25273(14) 0.01682(5) -0.42311(12)
O3D O -0.04684(16) -0.08872(5) -0.06645(13)
O4D O -0.0824(3) -0.18655(6) -0.02499(17)
C1D C -0.20046(19) 0.00334(6) -0.28761(17)
H1D H -0.26280 -0.02510 -0.23080
C2D C -0.0871(3) -0.13275(7) 0.01585(19)
H2D H -0.12420 -0.12460 0.11770
Ni1C Ni -0.50000 0.00000 -0.50000
Ni1C* Ni 0.50000 0.00000 0.50000
O2C O -0.24727(14) 0.01682(5) 0.07689(12)
O2G O 0.24727(14) -0.01682(5) -0.07689(12)
#END
