
#######################################################################
#
#                 Cambridge Crystallographic Data Centre
#                                CCDC
#
#######################################################################
#
# If this CIF has been generated from an entry in the Cambridge
# Structural Database, then it will include bibliographic, chemical,
# crystal, experimental, refinement or atomic coordinate data resulting
# from the CCDC's data processing and validation procedures.
#
#######################################################################

data_CSD_CIF_CIJGEK01
_audit_creation_date 2018-07-03
_audit_creation_method CSD-ConQuest-V1
_database_code_CSD CIJGEK01
_database_code_depnum_ccdc_archive 'CCDC 1840715'
_chemical_formula_sum 'C8 H18 N4 Ni1 O8'
_chemical_formula_moiety
;
(C4 H4 Ni1 O8 2-)n,2n(C2 H7 N2 1+)
;
_journal_coden_Cambridge 222
_journal_volume 47
_journal_year 2018
_journal_page_first 11925
_journal_name_full 'Dalton Trans. '
loop_
_publ_author_name
"Shu Liu"
"Bing-Wu Wang"
"Zhe-Ming Wang"
"Song Gao"
_chemical_name_systematic
;
catena-(bis(acetamidinium) bis(\m-formato)-bis(hydrogen formato)-nickel(ii))
;
_cell_volume   1456.097
_exptl_crystal_colour 'green'
_exptl_crystal_density_diffrn 1.628
_exptl_crystal_description 'block'
_diffrn_ambient_temperature 140
#These two values have been output from a single CSD field.
_refine_ls_R_factor_gt 0.0236
_refine_ls_wR_factor_gt 0.0236
_symmetry_cell_setting orthorhombic
_symmetry_space_group_name_H-M 'P c c n'
_symmetry_Int_Tables_number 56
loop_
_symmetry_equiv_pos_site_id
_symmetry_equiv_pos_as_xyz
1 x,y,z
2 1/2-x,1/2-y,z
3 -x,1/2+y,1/2-z
4 1/2+x,-y,1/2-z
5 -x,-y,-z
6 -1/2+x,-1/2+y,-z
7 x,-1/2-y,-1/2+z
8 -1/2-x,y,-1/2+z
_cell_length_a 7.7962(1)
_cell_length_b 22.0461(3)
_cell_length_c 8.4718(1)
_cell_angle_alpha 90
_cell_angle_beta 90
_cell_angle_gamma 90
_cell_formula_units_Z 4
loop_
_atom_type_symbol
_atom_type_radius_bond
C 0.68
H 0.23
N 0.68
Ni 1.24
O 0.68
loop_
_atom_site_label
_atom_site_type_symbol
_atom_site_fract_x
_atom_site_fract_y
_atom_site_fract_z
Ni1 Ni 0.00000 0.00000 0.00000
O1 O 0.06959(11) -0.02586(4) 0.22435(10)
O2 O 0.25212(12) -0.01691(4) 0.42437(10)
O3 O 0.04730(13) 0.08843(4) 0.06734(11)
O4 O 0.08228(18) 0.18691(5) 0.02601(13)
C1 C 0.19972(17) -0.00343(5) 0.28793(15)
H1 H 0.26330 0.02570 0.22960
C2 C 0.08759(19) 0.13295(6) -0.01627(16)
H2 H 0.12540 0.12490 -0.12080
C3 C -0.05049(19) 0.15882(6) 0.44191(16)
C4 C -0.1033(3) 0.17125(7) 0.60778(18)
H3 H -0.21730 0.19000 0.60840
H4 H -0.02060 0.19890 0.65700
H5 H -0.10690 0.13310 0.66710
N1 N -0.07822(16) 0.10499(5) 0.38293(14)
H6 H -0.04990 0.09710 0.28450
H7 H -0.12520 0.07660 0.44160
N2 N 0.01933(17) 0.20237(5) 0.35802(15)
H8 H 0.04880 0.19570 0.25930
H9 H 0.03670 0.23830 0.40050
O1D O -0.06959(11) 0.02586(4) -0.22435(10)
O2D O -0.25212(12) 0.01691(4) -0.42437(10)
O3D O -0.04730(13) -0.08843(4) -0.06734(11)
O4D O -0.08228(18) -0.18691(5) -0.02601(13)
C1D C -0.19972(17) 0.00343(5) -0.28793(15)
H1D H -0.26330 -0.02570 -0.22960
C2D C -0.08759(19) -0.13295(6) 0.01627(16)
H2D H -0.12540 -0.12490 0.12080
Ni1C Ni -0.50000 0.00000 -0.50000
Ni1C* Ni 0.50000 0.00000 0.50000
O2C O -0.24788(12) 0.01691(4) 0.07563(10)
O2G O 0.24788(12) -0.01691(4) -0.07563(10)
#END
