
#######################################################################
#
#                 Cambridge Crystallographic Data Centre
#                                CCDC
#
#######################################################################
#
# If this CIF has been generated from an entry in the Cambridge
# Structural Database, then it will include bibliographic, chemical,
# crystal, experimental, refinement or atomic coordinate data resulting
# from the CCDC's data processing and validation procedures.
#
#######################################################################

data_CSD_CIF_CIJGEK02
_audit_creation_date 2018-07-03
_audit_creation_method CSD-ConQuest-V1
_database_code_CSD CIJGEK02
_database_code_depnum_ccdc_archive 'CCDC 1840716'
_chemical_formula_sum 'C8 H18 N4 Ni1 O8'
_chemical_formula_moiety
;
(C4 H4 Ni1 O8 2-)n,2n(C2 H7 N2 1+)
;
_journal_coden_Cambridge 222
_journal_volume 47
_journal_year 2018
_journal_page_first 11925
_journal_name_full 'Dalton Trans. '
loop_
_publ_author_name
"Shu Liu"
"Bing-Wu Wang"
"Zhe-Ming Wang"
"Song Gao"
_chemical_name_systematic
;
catena-(bis(acetamidinium) bis(\m-formato)-bis(hydrogen formato)-nickel(ii))
;
_cell_volume   1459.183
_exptl_crystal_colour 'green'
_exptl_crystal_density_diffrn 1.625
_exptl_crystal_description 'block'
_diffrn_ambient_temperature 180
#These two values have been output from a single CSD field.
_refine_ls_R_factor_gt 0.0255
_refine_ls_wR_factor_gt 0.0255
_symmetry_cell_setting orthorhombic
_symmetry_space_group_name_H-M 'P c c n'
_symmetry_Int_Tables_number 56
loop_
_symmetry_equiv_pos_site_id
_symmetry_equiv_pos_as_xyz
1 x,y,z
2 1/2-x,1/2-y,z
3 -x,1/2+y,1/2-z
4 1/2+x,-y,1/2-z
5 -x,-y,-z
6 -1/2+x,-1/2+y,-z
7 x,-1/2-y,-1/2+z
8 -1/2-x,y,-1/2+z
_cell_length_a 7.8046(1)
_cell_length_b 22.0464(3)
_cell_length_c 8.4805(1)
_cell_angle_alpha 90
_cell_angle_beta 90
_cell_angle_gamma 90
_cell_formula_units_Z 4
loop_
_atom_type_symbol
_atom_type_radius_bond
C 0.68
H 0.23
N 0.68
Ni 1.24
O 0.68
loop_
_atom_site_label
_atom_site_type_symbol
_atom_site_fract_x
_atom_site_fract_y
_atom_site_fract_z
Ni1 Ni 0.00000 0.00000 0.00000
O1 O 0.06995(12) -0.02574(4) 0.22427(11)
O2 O 0.25220(13) -0.01686(4) 0.42385(11)
O3 O 0.04717(14) 0.08847(4) 0.06706(12)
O4 O 0.0823(2) 0.18676(5) 0.02558(15)
C1 C 0.19997(18) -0.00337(6) 0.28787(16)
H1 H 0.26360 0.02580 0.22970
C2 C 0.0875(2) 0.13289(7) -0.01611(18)
H2 H 0.12530 0.12470 -0.12040
C3 C -0.0498(2) 0.15887(7) 0.44135(17)
C4 C -0.1012(3) 0.17133(8) 0.6074(2)
H3 H -0.21420 0.19070 0.60870
H4 H -0.01700 0.19830 0.65660
H5 H -0.10640 0.13310 0.66620
N1 N -0.07815(18) 0.10513(6) 0.38286(15)
H6 H -0.05080 0.09720 0.28430
H7 H -0.12460 0.07670 0.44190
N2 N 0.01916(19) 0.20244(6) 0.35732(17)
H8 H 0.04770 0.19580 0.25840
H9 H 0.03690 0.23830 0.39980
O1D O -0.06995(12) 0.02574(4) -0.22427(11)
O2D O -0.25220(13) 0.01686(4) -0.42385(11)
O3D O -0.04717(14) -0.08847(4) -0.06706(12)
O4D O -0.0823(2) -0.18676(5) -0.02558(15)
C1D C -0.19997(18) 0.00337(6) -0.28787(16)
H1D H -0.26360 -0.02580 -0.22970
C2D C -0.0875(2) -0.13289(7) 0.01611(18)
H2D H -0.12530 -0.12470 0.12040
Ni1C Ni -0.50000 0.00000 -0.50000
Ni1C* Ni 0.50000 0.00000 0.50000
O2C O -0.24780(13) 0.01686(4) 0.07615(11)
O2G O 0.24780(13) -0.01686(4) -0.07615(11)
#END
