
#######################################################################
#
#                 Cambridge Crystallographic Data Centre
#                                CCDC
#
#######################################################################
#
# If this CIF has been generated from an entry in the Cambridge
# Structural Database, then it will include bibliographic, chemical,
# crystal, experimental, refinement or atomic coordinate data resulting
# from the CCDC's data processing and validation procedures.
#
#######################################################################

data_CSD_CIF_CIJGEK08
_audit_creation_date 2018-07-03
_audit_creation_method CSD-ConQuest-V1
_database_code_CSD CIJGEK08
_database_code_depnum_ccdc_archive 'CCDC 1840722'
_chemical_formula_sum 'C8 H18 N4 Ni1 O8'
_chemical_formula_moiety
;
(C4 H4 Ni1 O8 2-)n,2n(C2 H7 N2 1+)
;
_journal_coden_Cambridge 222
_journal_volume 47
_journal_year 2018
_journal_page_first 11925
_journal_name_full 'Dalton Trans. '
loop_
_publ_author_name
"Shu Liu"
"Bing-Wu Wang"
"Zhe-Ming Wang"
"Song Gao"
_chemical_name_systematic
;
catena-(bis(acetamidinium) bis(\m-formato)-bis(hydrogen formato)-nickel(ii))
;
_cell_volume   1483.435
_exptl_crystal_colour 'green'
_exptl_crystal_density_diffrn 1.598
_exptl_crystal_description 'block'
_diffrn_ambient_temperature 400
#These two values have been output from a single CSD field.
_refine_ls_R_factor_gt 0.0298
_refine_ls_wR_factor_gt 0.0298
_symmetry_cell_setting orthorhombic
_symmetry_space_group_name_H-M 'P c c n'
_symmetry_Int_Tables_number 56
loop_
_symmetry_equiv_pos_site_id
_symmetry_equiv_pos_as_xyz
1 x,y,z
2 1/2-x,1/2-y,z
3 -x,1/2+y,1/2-z
4 1/2+x,-y,1/2-z
5 -x,-y,-z
6 -1/2+x,-1/2+y,-z
7 x,-1/2-y,-1/2+z
8 -1/2-x,y,-1/2+z
_cell_length_a 7.8802(2)
_cell_length_b 22.0783(4)
_cell_length_c 8.5264(2)
_cell_angle_alpha 90
_cell_angle_beta 90
_cell_angle_gamma 90
_cell_formula_units_Z 4
loop_
_atom_type_symbol
_atom_type_radius_bond
C 0.68
H 0.23
N 0.68
Ni 1.24
O 0.68
loop_
_atom_site_label
_atom_site_type_symbol
_atom_site_fract_x
_atom_site_fract_y
_atom_site_fract_z
Ni1 Ni 0.00000 0.00000 0.00000
O1 O 0.07346(15) -0.02470(6) 0.22359(13)
O2 O 0.25410(17) -0.01664(6) 0.42109(14)
O3 O 0.0459(2) 0.08896(6) 0.06478(16)
O4 O 0.0814(4) 0.18618(7) 0.0240(2)
C1 C 0.2020(2) -0.00314(7) 0.28697(19)
H1 H 0.26420 0.02520 0.23040
C2 C 0.0853(4) 0.13266(9) -0.0154(2)
H2 H 0.12210 0.12460 -0.11690
C3 C -0.0482(3) 0.15893(9) 0.4395(2)
C4 C -0.0939(5) 0.17127(12) 0.6051(3)
H3 H -0.19320 0.19640 0.60850
H4 H -0.00150 0.19160 0.65610
H5 H -0.11670 0.13370 0.65790
N1 N -0.0771(3) 0.10561(8) 0.3829(2)
H6 H -0.05200 0.09770 0.28690
H7 H -0.12150 0.07800 0.44120
N2 N 0.0188(3) 0.20200(8) 0.3550(3)
H8 H 0.04520 0.19530 0.25870
H9 H 0.03670 0.23710 0.39570
O1D O -0.07346(15) 0.02470(6) -0.22359(13)
O2D O -0.25410(17) 0.01664(6) -0.42109(14)
O3D O -0.0459(2) -0.08896(6) -0.06478(16)
O4D O -0.0814(4) -0.18618(7) -0.0240(2)
C1D C -0.2020(2) 0.00314(7) -0.28697(19)
H1D H -0.26420 -0.02520 -0.23040
C2D C -0.0853(4) -0.13266(9) 0.0154(2)
H2D H -0.12210 -0.12460 0.11690
Ni1C Ni -0.50000 0.00000 -0.50000
Ni1C* Ni 0.50000 0.00000 0.50000
O2C O -0.24590(17) 0.01664(6) 0.07891(14)
O2G O 0.24590(17) -0.01664(6) -0.07891(14)
#END
