
#######################################################################
#
#                 Cambridge Crystallographic Data Centre
#                                CCDC
#
#######################################################################
#
# If this CIF has been generated from an entry in the Cambridge
# Structural Database, then it will include bibliographic, chemical,
# crystal, experimental, refinement or atomic coordinate data resulting
# from the CCDC's data processing and validation procedures.
#
#######################################################################

data_CSD_CIF_CIJJEN06
_audit_creation_date 2018-07-03
_audit_creation_method CSD-ConQuest-V1
_database_code_CSD CIJJEN06
_database_code_depnum_ccdc_archive 'CCDC 1840731'
_chemical_formula_sum 'C8 H18 Co1 N4 O8'
_chemical_formula_moiety
;
(C4 H4 Co1 O8 2-)n,2n(C2 H7 N2 1+)
;
_journal_coden_Cambridge 222
_journal_volume 47
_journal_year 2018
_journal_page_first 11925
_journal_name_full 'Dalton Trans. '
loop_
_publ_author_name
"Shu Liu"
"Bing-Wu Wang"
"Zhe-Ming Wang"
"Song Gao"
_chemical_name_systematic
;
catena-(bis(acetamidinium) bis(\m-formato)-bis(hydrogen formato)-cobalt(ii))
;
_cell_volume   1503.676
_exptl_crystal_colour 'purple red'
_exptl_crystal_density_diffrn 1.578
_exptl_crystal_description 'block'
_diffrn_ambient_temperature 360
#These two values have been output from a single CSD field.
_refine_ls_R_factor_gt 0.0277
_refine_ls_wR_factor_gt 0.0277
_symmetry_cell_setting orthorhombic
_symmetry_space_group_name_H-M 'P c c n'
_symmetry_Int_Tables_number 56
loop_
_symmetry_equiv_pos_site_id
_symmetry_equiv_pos_as_xyz
1 x,y,z
2 1/2-x,1/2-y,z
3 -x,1/2+y,1/2-z
4 1/2+x,-y,1/2-z
5 -x,-y,-z
6 -1/2+x,-1/2+y,-z
7 x,-1/2-y,-1/2+z
8 -1/2-x,y,-1/2+z
_cell_length_a 7.9102(2)
_cell_length_b 22.1031(7)
_cell_length_c 8.6003(2)
_cell_angle_alpha 90
_cell_angle_beta 90
_cell_angle_gamma 90
_cell_formula_units_Z 4
loop_
_atom_type_symbol
_atom_type_radius_bond
C 0.68
H 0.23
Co 1.26
N 0.68
O 0.68
loop_
_atom_site_label
_atom_site_type_symbol
_atom_site_fract_x
_atom_site_fract_y
_atom_site_fract_z
Co1 Co 0.00000 0.00000 0.00000
O1 O 0.07113(16) -0.02513(6) 0.22700(14)
O2 O 0.25105(17) -0.01703(6) 0.42328(15)
O3 O 0.0476(2) 0.09009(6) 0.06617(17)
O4 O 0.0790(4) 0.18751(8) 0.0268(2)
C1 C 0.1980(2) -0.00332(8) 0.2907(2)
H1 H 0.25870 0.02560 0.23540
C2 C 0.0842(4) 0.13428(10) -0.0135(3)
H2 H 0.11940 0.12660 -0.11480
C3 C -0.0481(3) 0.15882(10) 0.4388(3)
C4 C -0.0919(5) 0.17076(13) 0.6036(3)
H3 H -0.19940 0.19080 0.60880
H4 H -0.00680 0.19610 0.64960
H5 H -0.09780 0.13320 0.65920
N1 N -0.0774(3) 0.10570(8) 0.3814(2)
H6 H -0.05290 0.09810 0.28590
H7 H -0.12150 0.07800 0.43870
N2 N 0.0186(3) 0.20206(9) 0.3557(3)
H8 H 0.04430 0.19570 0.26000
H9 H 0.03680 0.23690 0.39670
O1D O -0.07113(16) 0.02513(6) -0.22700(14)
O2D O -0.25105(17) 0.01703(6) -0.42328(15)
O3D O -0.0476(2) -0.09009(6) -0.06617(17)
O4D O -0.0790(4) -0.18751(8) -0.0268(2)
C1D C -0.1980(2) 0.00332(8) -0.2907(2)
H1D H -0.25870 -0.02560 -0.23540
C2D C -0.0842(4) -0.13428(10) 0.0135(3)
H2D H -0.11940 -0.12660 0.11480
Co1C Co -0.50000 0.00000 -0.50000
Co1C* Co 0.50000 0.00000 0.50000
O2C O -0.24895(17) 0.01703(6) 0.07672(15)
O2G O 0.24895(17) -0.01703(6) -0.07672(15)
#END
