
#######################################################################
#
#                 Cambridge Crystallographic Data Centre
#                                CCDC
#
#######################################################################
#
# If this CIF has been generated from an entry in the Cambridge
# Structural Database, then it will include bibliographic, chemical,
# crystal, experimental, refinement or atomic coordinate data resulting
# from the CCDC's data processing and validation procedures.
#
#######################################################################

data_CSD_CIF_CIJJEN08
_audit_creation_date 2018-07-03
_audit_creation_method CSD-ConQuest-V1
_database_code_CSD CIJJEN08
_database_code_depnum_ccdc_archive 'CCDC 1840733'
_chemical_formula_sum 'C8 H18 Co1 N4 O8'
_chemical_formula_moiety
;
(C4 H4 Co1 O8 2-)n,2n(C2 H7 N2 1+)
;
_journal_coden_Cambridge 222
_journal_volume 47
_journal_year 2018
_journal_page_first 11925
_journal_name_full 'Dalton Trans. '
loop_
_publ_author_name
"Shu Liu"
"Bing-Wu Wang"
"Zhe-Ming Wang"
"Song Gao"
_chemical_name_systematic
;
catena-(bis(acetamidinium) bis(\m-formato)-bis(hydrogen formato)-cobalt(ii))
;
_cell_volume   1513.657
_exptl_crystal_colour 'purple red'
_exptl_crystal_density_diffrn 1.567
_exptl_crystal_description 'block'
_diffrn_ambient_temperature 440
#These two values have been output from a single CSD field.
_refine_ls_R_factor_gt 0.0426
_refine_ls_wR_factor_gt 0.0426
_symmetry_cell_setting orthorhombic
_symmetry_space_group_name_H-M 'P c c n'
_symmetry_Int_Tables_number 56
loop_
_symmetry_equiv_pos_site_id
_symmetry_equiv_pos_as_xyz
1 x,y,z
2 1/2-x,1/2-y,z
3 -x,1/2+y,1/2-z
4 1/2+x,-y,1/2-z
5 -x,-y,-z
6 -1/2+x,-1/2+y,-z
7 x,-1/2-y,-1/2+z
8 -1/2-x,y,-1/2+z
_cell_length_a 7.9479(3)
_cell_length_b 22.1124(11)
_cell_length_c 8.6127(3)
_cell_angle_alpha 90
_cell_angle_beta 90
_cell_angle_gamma 90
_cell_formula_units_Z 4
loop_
_atom_type_symbol
_atom_type_radius_bond
C 0.68
H 0.23
Co 1.26
N 0.68
O 0.68
loop_
_atom_site_label
_atom_site_type_symbol
_atom_site_fract_x
_atom_site_fract_y
_atom_site_fract_z
Co1 Co 0.00000 0.00000 0.00000
O1 O 0.0730(3) -0.02451(11) 0.2264(2)
O2 O 0.2529(3) -0.01669(11) 0.4219(3)
O3 O 0.0469(4) 0.09024(11) 0.0651(3)
O4 O 0.0776(6) 0.18756(14) 0.0272(4)
C1 C 0.1986(4) -0.00314(15) 0.2902(4)
H1 H 0.25860 0.02580 0.23490
C2 C 0.0831(7) 0.1344(2) -0.0128(5)
H2 H 0.11900 0.12690 -0.11380
C3 C -0.0470(6) 0.15886(19) 0.4391(5)
C4 C -0.0894(8) 0.1706(2) 0.6035(5)
H3 H -0.20230 0.18570 0.61040
H4 H -0.01290 0.20000 0.64520
H5 H -0.08040 0.13370 0.66170
N1 N -0.0768(5) 0.10598(15) 0.3816(4)
H6 H -0.05280 0.09850 0.28610
H7 H -0.12050 0.07820 0.43880
N2 N 0.0189(5) 0.20179(16) 0.3560(4)
H8 H 0.04390 0.19530 0.26020
H9 H 0.03760 0.23670 0.39670
O1D O -0.0730(3) 0.02451(11) -0.2264(2)
O2D O -0.2529(3) 0.01669(11) -0.4219(3)
O3D O -0.0469(4) -0.09024(11) -0.0651(3)
O4D O -0.0776(6) -0.18756(14) -0.0272(4)
C1D C -0.1986(4) 0.00314(15) -0.2902(4)
H1D H -0.25860 -0.02580 -0.23490
C2D C -0.0831(7) -0.1344(2) 0.0128(5)
H2D H -0.11900 -0.12690 0.11380
Co1C Co -0.50000 0.00000 -0.50000
Co1C* Co 0.50000 0.00000 0.50000
O2C O -0.2471(3) 0.01669(11) 0.0781(3)
O2G O 0.2471(3) -0.01669(11) -0.0781(3)
#END
