
#######################################################################
#
#                 Cambridge Crystallographic Data Centre
#                                CCDC
#
#######################################################################
#
# If this CIF has been generated from an entry in the Cambridge
# Structural Database, then it will include bibliographic, chemical,
# crystal, experimental, refinement or atomic coordinate data resulting
# from the CCDC's data processing and validation procedures.
#
#######################################################################

data_CSD_CIF_CIJJEN03
_audit_creation_date 2018-07-03
_audit_creation_method CSD-ConQuest-V1
_database_code_CSD CIJJEN03
_database_code_depnum_ccdc_archive 'CCDC 1840728'
_chemical_formula_sum 'C8 H18 Co1 N4 O8'
_chemical_formula_moiety
;
(C4 H4 Co1 O8 2-)n,2n(C2 H7 N2 1+)
;
_journal_coden_Cambridge 222
_journal_volume 47
_journal_year 2018
_journal_page_first 11925
_journal_name_full 'Dalton Trans. '
loop_
_publ_author_name
"Shu Liu"
"Bing-Wu Wang"
"Zhe-Ming Wang"
"Song Gao"
_chemical_name_systematic
;
catena-(bis(acetamidinium) bis(\m-formato)-bis(hydrogen formato)-cobalt(ii))
;
_cell_volume   1490.752
_exptl_crystal_colour 'purple red'
_exptl_crystal_density_diffrn 1.592
_exptl_crystal_description 'block'
_diffrn_ambient_temperature 260
#These two values have been output from a single CSD field.
_refine_ls_R_factor_gt 0.0257
_refine_ls_wR_factor_gt 0.0257
_symmetry_cell_setting orthorhombic
_symmetry_space_group_name_H-M 'P c c n'
_symmetry_Int_Tables_number 56
loop_
_symmetry_equiv_pos_site_id
_symmetry_equiv_pos_as_xyz
1 x,y,z
2 1/2-x,1/2-y,z
3 -x,1/2+y,1/2-z
4 1/2+x,-y,1/2-z
5 -x,-y,-z
6 -1/2+x,-1/2+y,-z
7 x,-1/2-y,-1/2+z
8 -1/2-x,y,-1/2+z
_cell_length_a 7.8675(2)
_cell_length_b 22.0901(6)
_cell_length_c 8.5777(2)
_cell_angle_alpha 90
_cell_angle_beta 90
_cell_angle_gamma 90
_cell_formula_units_Z 4
loop_
_atom_type_symbol
_atom_type_radius_bond
C 0.68
H 0.23
Co 1.26
N 0.68
O 0.68
loop_
_atom_site_label
_atom_site_type_symbol
_atom_site_fract_x
_atom_site_fract_y
_atom_site_fract_z
Co1 Co 0.00000 0.00000 0.00000
O1 O 0.06890(14) -0.02570(5) 0.22758(12)
O2 O 0.24985(15) -0.01716(6) 0.42495(13)
O3 O 0.04859(18) 0.08983(5) 0.06710(14)
O4 O 0.0793(3) 0.18776(7) 0.02711(18)
C1 C 0.1970(2) -0.00346(7) 0.29136(18)
H1 H 0.25790 0.02550 0.23580
C2 C 0.0858(3) 0.13424(9) -0.0139(2)
H2 H 0.12210 0.12660 -0.11520
C3 C -0.0489(3) 0.15885(8) 0.4393(2)
C4 C -0.0956(4) 0.17084(10) 0.6044(3)
H3 H -0.20470 0.19020 0.60820
H4 H -0.01190 0.19670 0.65100
H5 H -0.10040 0.13330 0.66050
N1 N -0.0777(2) 0.10558(7) 0.38117(18)
H6 H -0.05250 0.09810 0.28550
H7 H -0.12210 0.07780 0.43830
N2 N 0.0185(2) 0.20234(8) 0.3562(2)
H8 H 0.04480 0.19600 0.26020
H9 H 0.03630 0.23720 0.39740
O1D O -0.06890(14) 0.02570(5) -0.22758(12)
O2D O -0.24985(15) 0.01716(6) -0.42495(13)
O3D O -0.04859(18) -0.08983(5) -0.06710(14)
O4D O -0.0793(3) -0.18776(7) -0.02711(18)
C1D C -0.1970(2) 0.00346(7) -0.29136(18)
H1D H -0.25790 -0.02550 -0.23580
C2D C -0.0858(3) -0.13424(9) 0.0139(2)
H2D H -0.12210 -0.12660 0.11520
Co1C Co -0.50000 0.00000 -0.50000
Co1C* Co 0.50000 0.00000 0.50000
O2C O -0.25015(15) 0.01716(6) 0.07505(13)
O2G O 0.25015(15) -0.01716(6) -0.07505(13)
#END
