
#######################################################################
#
#                 Cambridge Crystallographic Data Centre
#                                CCDC
#
#######################################################################
#
# If this CIF has been generated from an entry in the Cambridge
# Structural Database, then it will include bibliographic, chemical,
# crystal, experimental, refinement or atomic coordinate data resulting
# from the CCDC's data processing and validation procedures.
#
#######################################################################

data_CSD_CIF_CIJJEN02
_audit_creation_date 2018-07-03
_audit_creation_method CSD-ConQuest-V1
_database_code_CSD CIJJEN02
_database_code_depnum_ccdc_archive 'CCDC 1840727'
_chemical_formula_sum 'C8 H18 Co1 N4 O8'
_chemical_formula_moiety
;
(C4 H4 Co1 O8 2-)n,2n(C2 H7 N2 1+)
;
_journal_coden_Cambridge 222
_journal_volume 47
_journal_year 2018
_journal_page_first 11925
_journal_name_full 'Dalton Trans. '
loop_
_publ_author_name
"Shu Liu"
"Bing-Wu Wang"
"Zhe-Ming Wang"
"Song Gao"
_chemical_name_systematic
;
catena-(bis(acetamidinium) bis(\m-formato)-bis(hydrogen formato)-cobalt(ii))
;
_cell_volume   1487.191
_exptl_crystal_colour 'purple red'
_exptl_crystal_density_diffrn 1.595
_exptl_crystal_description 'block'
_diffrn_ambient_temperature 220
#These two values have been output from a single CSD field.
_refine_ls_R_factor_gt 0.0256
_refine_ls_wR_factor_gt 0.0256
_symmetry_cell_setting orthorhombic
_symmetry_space_group_name_H-M 'P c c n'
_symmetry_Int_Tables_number 56
loop_
_symmetry_equiv_pos_site_id
_symmetry_equiv_pos_as_xyz
1 x,y,z
2 1/2-x,1/2-y,z
3 -x,1/2+y,1/2-z
4 1/2+x,-y,1/2-z
5 -x,-y,-z
6 -1/2+x,-1/2+y,-z
7 x,-1/2-y,-1/2+z
8 -1/2-x,y,-1/2+z
_cell_length_a 7.8547(2)
_cell_length_b 22.0887(6)
_cell_length_c 8.5717(2)
_cell_angle_alpha 90
_cell_angle_beta 90
_cell_angle_gamma 90
_cell_formula_units_Z 4
loop_
_atom_type_symbol
_atom_type_radius_bond
C 0.68
H 0.23
Co 1.26
N 0.68
O 0.68
loop_
_atom_site_label
_atom_site_type_symbol
_atom_site_fract_x
_atom_site_fract_y
_atom_site_fract_z
Co1 Co 0.00000 0.00000 0.00000
O1 O 0.06828(13) -0.02593(5) 0.22779(12)
O2 O 0.24955(14) -0.01722(5) 0.42550(13)
O3 O 0.04878(17) 0.08966(5) 0.06755(14)
O4 O 0.0794(3) 0.18782(6) 0.02738(17)
C1 C 0.1965(2) -0.00354(7) 0.29162(18)
H1 H 0.25800 0.02570 0.23540
C2 C 0.0863(3) 0.13423(8) -0.0142(2)
H2 H 0.12310 0.12650 -0.11670
C3 C -0.0491(2) 0.15884(8) 0.4395(2)
C4 C -0.0972(4) 0.17084(10) 0.6046(2)
H3 H -0.20780 0.19030 0.60780
H4 H -0.01300 0.19710 0.65210
H5 H -0.10200 0.13290 0.66140
N1 N -0.0781(2) 0.10545(6) 0.38109(17)
H6 H -0.05240 0.09790 0.28430
H7 H -0.12320 0.07730 0.43880
N2 N 0.0186(2) 0.20241(7) 0.3564(2)
H8 H 0.04550 0.19600 0.25930
H9 H 0.03670 0.23770 0.39830
O1D O -0.06828(13) 0.02593(5) -0.22779(12)
O2D O -0.24955(14) 0.01722(5) -0.42550(13)
O3D O -0.04878(17) -0.08966(5) -0.06755(14)
O4D O -0.0794(3) -0.18782(6) -0.02738(17)
C1D C -0.1965(2) 0.00354(7) -0.29162(18)
H1D H -0.25800 -0.02570 -0.23540
C2D C -0.0863(3) -0.13423(8) 0.0142(2)
H2D H -0.12310 -0.12650 0.11670
Co1C Co -0.50000 0.00000 -0.50000
Co1C* Co 0.50000 0.00000 0.50000
O2C O -0.25045(14) 0.01722(5) 0.07450(13)
O2G O 0.25045(14) -0.01722(5) -0.07450(13)
#END
