
#######################################################################
#
#                 Cambridge Crystallographic Data Centre
#                                CCDC
#
#######################################################################
#
# If this CIF has been generated from an entry in the Cambridge
# Structural Database, then it will include bibliographic, chemical,
# crystal, experimental, refinement or atomic coordinate data resulting
# from the CCDC's data processing and validation procedures.
#
#######################################################################

data_CSD_CIF_CIJJEN07
_audit_creation_date 2018-07-03
_audit_creation_method CSD-ConQuest-V1
_database_code_CSD CIJJEN07
_database_code_depnum_ccdc_archive 'CCDC 1840732'
_chemical_formula_sum 'C8 H18 Co1 N4 O8'
_chemical_formula_moiety
;
(C4 H4 Co1 O8 2-)n,2n(C2 H7 N2 1+)
;
_journal_coden_Cambridge 222
_journal_volume 47
_journal_year 2018
_journal_page_first 11925
_journal_name_full 'Dalton Trans. '
loop_
_publ_author_name
"Shu Liu"
"Bing-Wu Wang"
"Zhe-Ming Wang"
"Song Gao"
_chemical_name_systematic
;
catena-(bis(acetamidinium) bis(\m-formato)-bis(hydrogen formato)-cobalt(ii))
;
_cell_volume   1507.882
_exptl_crystal_colour 'purple red'
_exptl_crystal_density_diffrn 1.573
_exptl_crystal_description 'block'
_diffrn_ambient_temperature 400
#These two values have been output from a single CSD field.
_refine_ls_R_factor_gt 0.0285
_refine_ls_wR_factor_gt 0.0285
_symmetry_cell_setting orthorhombic
_symmetry_space_group_name_H-M 'P c c n'
_symmetry_Int_Tables_number 56
loop_
_symmetry_equiv_pos_site_id
_symmetry_equiv_pos_as_xyz
1 x,y,z
2 1/2-x,1/2-y,z
3 -x,1/2+y,1/2-z
4 1/2+x,-y,1/2-z
5 -x,-y,-z
6 -1/2+x,-1/2+y,-z
7 x,-1/2-y,-1/2+z
8 -1/2-x,y,-1/2+z
_cell_length_a 7.9282(2)
_cell_length_b 22.1074(8)
_cell_length_c 8.6031(3)
_cell_angle_alpha 90
_cell_angle_beta 90
_cell_angle_gamma 90
_cell_formula_units_Z 4
loop_
_atom_type_symbol
_atom_type_radius_bond
C 0.68
H 0.23
Co 1.26
N 0.68
O 0.68
loop_
_atom_site_label
_atom_site_type_symbol
_atom_site_fract_x
_atom_site_fract_y
_atom_site_fract_z
Co1 Co 0.00000 0.00000 0.00000
O1 O 0.07196(17) -0.02489(6) 0.22690(15)
O2 O 0.25156(18) -0.01691(7) 0.42267(16)
O3 O 0.0474(2) 0.09021(7) 0.06546(18)
O4 O 0.0788(4) 0.18743(8) 0.0269(2)
C1 C 0.1987(3) -0.00325(9) 0.2903(2)
H1 H 0.25950 0.02550 0.23480
C2 C 0.0835(4) 0.13420(11) -0.0134(3)
H2 H 0.11830 0.12660 -0.11470
C3 C -0.0474(3) 0.15872(11) 0.4386(3)
C4 C -0.0911(5) 0.17066(13) 0.6034(3)
H3 H -0.19450 0.19320 0.60820
H4 H -0.00240 0.19360 0.65130
H5 H -0.10480 0.13300 0.65730
N1 N -0.0774(3) 0.10576(9) 0.3816(2)
H6 H -0.05380 0.09820 0.28600
H7 H -0.12100 0.07810 0.43920
N2 N 0.0185(3) 0.20197(10) 0.3556(3)
H8 H 0.04340 0.19570 0.25960
H9 H 0.03700 0.23680 0.39670
O1D O -0.07196(17) 0.02489(6) -0.22690(15)
O2D O -0.25156(18) 0.01691(7) -0.42267(16)
O3D O -0.0474(2) -0.09021(7) -0.06546(18)
O4D O -0.0788(4) -0.18743(8) -0.0269(2)
C1D C -0.1987(3) 0.00325(9) -0.2903(2)
H1D H -0.25950 -0.02550 -0.23480
C2D C -0.0835(4) -0.13420(11) 0.0134(3)
H2D H -0.11830 -0.12660 0.11470
Co1C Co -0.50000 0.00000 -0.50000
Co1C* Co 0.50000 0.00000 0.50000
O2C O -0.24844(18) 0.01691(7) 0.07733(16)
O2G O 0.24844(18) -0.01691(7) -0.07733(16)
#END
