
#######################################################################
#
#                 Cambridge Crystallographic Data Centre
#                                CCDC
#
#######################################################################
#
# If this CIF has been generated from an entry in the Cambridge
# Structural Database, then it will include bibliographic, chemical,
# crystal, experimental, refinement or atomic coordinate data resulting
# from the CCDC's data processing and validation procedures.
#
#######################################################################

data_CSD_CIF_CIJJEN
_audit_creation_date 2018-07-03
_audit_creation_method CSD-ConQuest-V1
_database_code_CSD CIJJEN
_database_code_depnum_ccdc_archive 'CCDC 1840724'
_chemical_formula_sum 'C8 H18 Co1 N4 O8'
_chemical_formula_moiety
;
(C4 H4 Co1 O8 2-)n,2n(C2 H7 N2 1+)
;
_journal_coden_Cambridge 222
_journal_volume 47
_journal_year 2018
_journal_page_first 11925
_journal_name_full 'Dalton Trans. '
loop_
_publ_author_name
"Shu Liu"
"Bing-Wu Wang"
"Zhe-Ming Wang"
"Song Gao"
_chemical_name_systematic
;
catena-(bis(acetamidinium) bis(\m-formato)-bis(hydrogen formato)-cobalt(ii))
;
_cell_volume   1478.513
_exptl_crystal_colour 'purple red'
_exptl_crystal_density_diffrn 1.605
_exptl_crystal_description 'block'
_diffrn_ambient_temperature 100
#These two values have been output from a single CSD field.
_refine_ls_R_factor_gt 0.0268
_refine_ls_wR_factor_gt 0.0268
_symmetry_cell_setting orthorhombic
_symmetry_space_group_name_H-M 'P c c n'
_symmetry_Int_Tables_number 56
loop_
_symmetry_equiv_pos_site_id
_symmetry_equiv_pos_as_xyz
1 x,y,z
2 1/2-x,1/2-y,z
3 -x,1/2+y,1/2-z
4 1/2+x,-y,1/2-z
5 -x,-y,-z
6 -1/2+x,-1/2+y,-z
7 x,-1/2-y,-1/2+z
8 -1/2-x,y,-1/2+z
_cell_length_a 7.8265(2)
_cell_length_b 22.0990(6)
_cell_length_c 8.5484(2)
_cell_angle_alpha 90
_cell_angle_beta 90
_cell_angle_gamma 90
_cell_formula_units_Z 4
loop_
_atom_type_symbol
_atom_type_radius_bond
C 0.68
H 0.23
Co 1.26
N 0.68
O 0.68
loop_
_atom_site_label
_atom_site_type_symbol
_atom_site_fract_x
_atom_site_fract_y
_atom_site_fract_z
Co1 Co 0.00000 0.00000 0.00000
O1 O 0.06675(13) -0.02633(5) 0.22837(12)
O2 O 0.24890(13) -0.01729(5) 0.42688(12)
O3 O 0.04958(14) 0.08942(5) 0.06823(12)
O4 O 0.07860(19) 0.18812(6) 0.02812(15)
C1 C 0.1956(2) -0.00363(6) 0.29220(18)
H1 H 0.25770 0.02600 0.23510
C2 C 0.0864(2) 0.13452(8) -0.01479(18)
H2 H 0.12330 0.12700 -0.11890
C3 C -0.0509(2) 0.15859(7) 0.44045(18)
C4 C -0.1035(3) 0.17068(8) 0.6057(2)
H3 H -0.22010 0.18680 0.60720
H4 H -0.02540 0.20030 0.65250
H5 H -0.09930 0.13290 0.66580
N1 N -0.07887(18) 0.10514(6) 0.38118(15)
H6 H -0.05060 0.09750 0.28350
H7 H -0.12610 0.07670 0.43880
N2 N 0.01936(18) 0.20237(7) 0.35831(17)
H8 H 0.04890 0.19600 0.26040
H9 H 0.03680 0.23800 0.40130
O1D O -0.06675(13) 0.02633(5) -0.22837(12)
O2D O -0.24890(13) 0.01729(5) -0.42688(12)
O3D O -0.04958(14) -0.08942(5) -0.06823(12)
O4D O -0.07860(19) -0.18812(6) -0.02812(15)
C1D C -0.1956(2) 0.00363(6) -0.29220(18)
H1D H -0.25770 -0.02600 -0.23510
C2D C -0.0864(2) -0.13452(8) 0.01479(18)
H2D H -0.12330 -0.12700 0.11890
Co1C Co -0.50000 0.00000 -0.50000
Co1C* Co 0.50000 0.00000 0.50000
O2C O -0.25110(13) 0.01729(5) 0.07312(12)
O2G O 0.25110(13) -0.01729(5) -0.07312(12)
#END
