
#######################################################################
#
#                 Cambridge Crystallographic Data Centre
#                                CCDC
#
#######################################################################
#
# If this CIF has been generated from an entry in the Cambridge
# Structural Database, then it will include bibliographic, chemical,
# crystal, experimental, refinement or atomic coordinate data resulting
# from the CCDC's data processing and validation procedures.
#
#######################################################################

data_CSD_CIF_CIJJEN05
_audit_creation_date 2018-07-03
_audit_creation_method CSD-ConQuest-V1
_database_code_CSD CIJJEN05
_database_code_depnum_ccdc_archive 'CCDC 1840730'
_chemical_formula_sum 'C8 H18 Co1 N4 O8'
_chemical_formula_moiety
;
(C4 H4 Co1 O8 2-)n,2n(C2 H7 N2 1+)
;
_journal_coden_Cambridge 222
_journal_volume 47
_journal_year 2018
_journal_page_first 11925
_journal_name_full 'Dalton Trans. '
loop_
_publ_author_name
"Shu Liu"
"Bing-Wu Wang"
"Zhe-Ming Wang"
"Song Gao"
_chemical_name_systematic
;
catena-(bis(acetamidinium) bis(\m-formato)-bis(hydrogen formato)-cobalt(ii))
;
_cell_volume   1497.657
_exptl_crystal_colour 'purple red'
_exptl_crystal_density_diffrn 1.584
_exptl_crystal_description 'block'
_diffrn_ambient_temperature 320
#These two values have been output from a single CSD field.
_refine_ls_R_factor_gt 0.027
_refine_ls_wR_factor_gt 0.027
_symmetry_cell_setting orthorhombic
_symmetry_space_group_name_H-M 'P c c n'
_symmetry_Int_Tables_number 56
loop_
_symmetry_equiv_pos_site_id
_symmetry_equiv_pos_as_xyz
1 x,y,z
2 1/2-x,1/2-y,z
3 -x,1/2+y,1/2-z
4 1/2+x,-y,1/2-z
5 -x,-y,-z
6 -1/2+x,-1/2+y,-z
7 x,-1/2-y,-1/2+z
8 -1/2-x,y,-1/2+z
_cell_length_a 7.8926(2)
_cell_length_b 22.0966(7)
_cell_length_c 8.5875(2)
_cell_angle_alpha 90
_cell_angle_beta 90
_cell_angle_gamma 90
_cell_formula_units_Z 4
loop_
_atom_type_symbol
_atom_type_radius_bond
C 0.68
H 0.23
Co 1.26
N 0.68
O 0.68
loop_
_atom_site_label
_atom_site_type_symbol
_atom_site_fract_x
_atom_site_fract_y
_atom_site_fract_z
Co1 Co 0.00000 0.00000 0.00000
O1 O 0.07012(15) -0.02534(6) 0.22726(13)
O2 O 0.25035(16) -0.01712(6) 0.42404(14)
O3 O 0.0479(2) 0.08997(6) 0.06643(16)
O4 O 0.0795(3) 0.18760(7) 0.0270(2)
C1 C 0.1976(2) -0.00341(8) 0.2909(2)
H1 H 0.25870 0.02540 0.23540
C2 C 0.0849(3) 0.13425(10) -0.0138(2)
H2 H 0.12050 0.12660 -0.11510
C3 C -0.0484(3) 0.15878(9) 0.4390(2)
C4 C -0.0937(5) 0.17076(12) 0.6039(3)
H3 H -0.20010 0.19170 0.60810
H4 H -0.00740 0.19520 0.65120
H5 H -0.10290 0.13310 0.65890
N1 N -0.0776(3) 0.10567(8) 0.3815(2)
H6 H -0.05300 0.09810 0.28590
H7 H -0.12170 0.07790 0.43890
N2 N 0.0185(3) 0.20219(9) 0.3558(2)
H8 H 0.04440 0.19590 0.25990
H9 H 0.03660 0.23710 0.39690
O1D O -0.07012(15) 0.02534(6) -0.22726(13)
O2D O -0.25035(16) 0.01712(6) -0.42404(14)
O3D O -0.0479(2) -0.08997(6) -0.06643(16)
O4D O -0.0795(3) -0.18760(7) -0.0270(2)
C1D C -0.1976(2) 0.00341(8) -0.2909(2)
H1D H -0.25870 -0.02540 -0.23540
C2D C -0.0849(3) -0.13425(10) 0.0138(2)
H2D H -0.12050 -0.12660 0.11510
Co1C Co -0.50000 0.00000 -0.50000
Co1C* Co 0.50000 0.00000 0.50000
O2C O -0.24965(16) 0.01712(6) 0.07596(14)
O2G O 0.24965(16) -0.01712(6) -0.07596(14)
#END
