
#######################################################################
#
#                 Cambridge Crystallographic Data Centre
#                                CCDC
#
#######################################################################
#
# If this CIF has been generated from an entry in the Cambridge
# Structural Database, then it will include bibliographic, chemical,
# crystal, experimental, refinement or atomic coordinate data resulting
# from the CCDC's data processing and validation procedures.
#
#######################################################################

data_CSD_CIF_CIJLIT
_audit_creation_date 2018-07-03
_audit_creation_method CSD-ConQuest-V1
_database_code_CSD CIJLIT
_database_code_depnum_ccdc_archive 'CCDC 1837480'
_chemical_formula_sum 'C63.5 H73.5 N8.5 O31.5 Zn4'
_chemical_formula_moiety
;
(C45 H27 N2 O26 Zn4 1-)n,C2 H8 N1 1+,5.5(C3 H7 N1 O1)
;
_journal_coden_Cambridge 222
_journal_volume 47
_journal_year 2018
_journal_page_first 9627
_journal_name_full 'Dalton Trans. '
loop_
_publ_author_name
"Aiqing Ma"
"Jian Wu"
"Yutong Han"
"Fuming Chen"
"Baohong Li"
"Shaoge Cai"
"Hui Huang"
"Amita Singh"
"A.Kumar"
"Jianqiang Liu"
_chemical_name_systematic
;
catena-[dimethylammonium 
bis(\m-2^5^-nitro[1^1^,2^1^:2^3^,3^1^-terphenyl]-1^3^,1^5^,3^3^,3^5^-tetracarb
oxylato)-(\m-formato)-tetraaqua-tetra-zinc N,N-dimethylformamide solvate]
;
_cell_volume  10020.255
_exptl_crystal_colour 'colorless'
_exptl_crystal_description 'block'
_diffrn_ambient_temperature 293
_refine_special_details
;
The SQUEEZE/PLATON program has been used to model some disorder.

;
#These two values have been output from a single CSD field.
_refine_ls_R_factor_gt 0.0479
_refine_ls_wR_factor_gt 0.0479
_symmetry_cell_setting orthorhombic
_symmetry_space_group_name_H-M 'P 21 21 21'
_symmetry_Int_Tables_number 19
loop_
_symmetry_equiv_pos_site_id
_symmetry_equiv_pos_as_xyz
1 x,y,z
2 1/2-x,-y,1/2+z
3 1/2+x,1/2-y,-z
4 -x,1/2+y,1/2-z
_cell_length_a 17.4270(2)
_cell_length_b 22.7852(8)
_cell_length_c 25.2350(7)
_cell_angle_alpha 90
_cell_angle_beta 90
_cell_angle_gamma 90
_cell_formula_units_Z 4
loop_
_atom_type_symbol
_atom_type_radius_bond
C 0.68
H 0.23
N 0.68
O 0.68
Zn 1.22
loop_
_atom_site_label
_atom_site_type_symbol
_atom_site_fract_x
_atom_site_fract_y
_atom_site_fract_z
Zn1 Zn 1.25399(2) 0.25017(4) 0.99524(3)
Zn2 Zn 1.58680(3) 0.24371(3) 0.98866(3)
Zn3 Zn 0.58536(5) 0.45148(5) 0.64625(5)
Zn4 Zn 0.41777(5) 0.37211(7) 0.71332(4)
O1 O 1.48081(15) 0.23182(19) 0.96437(14)
O2 O 0.62697(18) 0.2820(2) 0.92205(16)
O3 O 0.75518(17) 0.28479(19) 0.93164(15)
O4 O -0.0813(2) 0.67448(18) 0.52350(15)
O5 O 0.24376(19) 0.67065(19) 0.52815(17)
O6 O 1.0871(2) 0.29327(19) 0.93835(15)
O7 O 1.35684(16) 0.2359(2) 0.96764(15)
O8 O -0.2087(2) 0.6715(2) 0.53007(18)
O9 O 1.2142(2) 0.2898(2) 0.92841(18)
O10 O 0.37115(18) 0.6661(2) 0.54023(17)
O11 O 0.5101(2) 0.3571(3) 0.7587(2)
O12 O 0.9893(3) 0.5661(3) 0.6997(3)
C1 C 0.7718(3) 0.3509(3) 0.8372(3)
H1 H 0.81506 0.34668 0.85842
O13 O 0.5829(2) 0.3842(3) 0.6921(2)
O14 O -0.2728(3) 0.4275(4) 0.6363(3)
O15 O 1.33401(19) 0.3554(3) 0.7627(3)
C2 C 0.7001(3) 0.3266(3) 0.8543(3)
C3 C 0.7773(3) 0.3799(3) 0.7907(3)
C4 C 0.3565(3) 0.5019(4) 0.6125(4)
C5 C -0.2070(3) 0.5642(4) 0.5759(3)
H2 H -0.25331 0.58406 0.57275
C6 C -0.1404(3) 0.5904(3) 0.5587(2)
C7 C 0.0759(3) 0.5022(3) 0.5938(2)
H3 H 0.07772 0.54283 0.59020
N1 N 0.9280(4) 0.5427(3) 0.7140(3)
C8 C 1.4218(2) 0.2435(2) 0.9885(2)
H4 H 1.42499 0.25816 1.02285
C9 C 0.3623(3) 0.5559(4) 0.5920(4)
H5 H 0.40986 0.57448 0.59157
C10 C -0.1429(3) 0.6509(3) 0.5364(2)
C11 C 0.2965(3) 0.5857(3) 0.5707(3)
C12 C -0.0686(3) 0.5041(3) 0.5863(3)
C13 C 0.0047(3) 0.4736(3) 0.5939(3)
C14 C 0.8519(3) 0.4074(4) 0.7737(3)
O16 O -0.3410(2) 0.5093(4) 0.6121(2)
C15 C 1.1471(3) 0.3008(3) 0.9120(3)
C16 C 0.6352(3) 0.3343(3) 0.8225(3)
H6 H 0.58800 0.31975 0.83369
C17 C 1.1411(3) 0.3280(3) 0.8590(3)
C18 C -0.0715(3) 0.5613(3) 0.5648(2)
H7 H -0.02618 0.57970 0.55465
C19 C 0.2200(3) 0.5032(3) 0.5962(3)
O17 O 0.4878(2) 0.4959(3) 0.6289(3)
C20 C 0.3037(3) 0.6448(3) 0.5446(3)
C21 C 0.2855(3) 0.4757(4) 0.6165(4)
H8 H 0.28100 0.43927 0.63290
C22 C 1.0649(2) 0.3767(4) 0.7903(3)
O18 O 0.5770(3) 0.4003(4) 0.5842(3)
C23 C 1.0720(3) 0.3493(3) 0.8401(2)
H9 H 1.02848 0.34546 0.86111
C24 C 0.6932(2) 0.2961(3) 0.9064(3)
C25 C 0.9210(3) 0.3796(3) 0.7868(2)
H10 H 0.91994 0.34318 0.80346
O19 O 1.2614(3) 0.3604(4) 0.6905(3)
C26 C 0.2268(3) 0.5577(3) 0.5744(3)
H11 H 0.18308 0.57643 0.56165
C27 C 0.9904(3) 0.4054(4) 0.7754(3)
C28 C 1.2064(3) 0.3359(4) 0.8281(3)
H12 H 1.25453 0.32753 0.84216
C29 C -0.1373(3) 0.4800(4) 0.6057(3)
H13 H -0.13645 0.44454 0.62390
C30 C 0.7123(3) 0.3859(3) 0.7570(3)
H14 H 0.71678 0.40414 0.72412
C31 C -0.2059(3) 0.5089(4) 0.5977(3)
C32 C 0.9237(4) 0.4858(3) 0.7371(3)
O20 O 0.8678(5) 0.5725(3) 0.7068(3)
C33 C 0.6408(3) 0.3637(5) 0.7743(3)
C34 C 0.1443(3) 0.4708(4) 0.5991(3)
C35 C 0.5746(3) 0.3709(5) 0.7397(3)
C36 C 0.8543(3) 0.4596(4) 0.7498(3)
H15 H 0.80869 0.47869 0.74162
O21 O 0.5902(3) 0.4983(3) 0.7183(3)
O22 O 0.4170(3) 0.4233(4) 0.6556(4)
C37 C 1.2723(4) 0.3595(6) 0.7398(4)
C38 C 0.4235(4) 0.4728(5) 0.6357(5)
C39 C -0.2771(3) 0.4762(4) 0.6191(3)
C40 C 0.9933(3) 0.4603(4) 0.7498(3)
H16 H 1.03963 0.47848 0.74185
C41 C 0.1410(4) 0.4116(4) 0.6074(5)
H17 H 0.18502 0.39000 0.61464
C42 C 1.1309(3) 0.3816(5) 0.7604(3)
H18 H 1.12924 0.40241 0.72869
C43 C 1.2002(3) 0.3563(6) 0.7764(4)
O23 O 0.4189(6) 0.2960(4) 0.6721(4)
C44 C 0.0034(4) 0.4134(4) 0.5946(6)
H19 H -0.04162 0.39245 0.58864
C45 C 0.0715(5) 0.3856(5) 0.6047(7)
N2 N 0.0730(8) 0.3200(5) 0.6127(12)
O24 O 0.0091(7) 0.2984(5) 0.6301(12)
O25 O 0.1327(6) 0.2912(4) 0.6011(9)
O26 O 0.4224(6) 0.4673(5) 0.7518(4)
Zn1A Zn 0.24601(2) 0.74983(4) 0.49524(3)
Zn1B Zn 0.75399(2) 0.24983(4) 1.00476(3)
Zn1C Zn -0.25399(2) 0.75017(4) 0.50476(3)
Zn2* Zn 0.58680(3) 0.24371(3) 0.98866(3)
Zn2A Zn -0.08680(3) 0.75629(3) 0.48866(3)
Zn2B Zn 1.08680(3) 0.25629(3) 1.01134(3)
Zn2C Zn 0.41320(3) 0.74371(3) 0.51134(3)
Zn3* Zn -0.41464(5) 0.45148(5) 0.64625(5)
Zn4* Zn 1.41777(5) 0.37211(7) 0.71332(4)
O2* O 1.62697(18) 0.2820(2) 0.92205(16)
O3B O 1.25518(17) 0.21521(19) 1.06836(15)
O4A O 1.5813(2) 0.32552(18) 1.02350(15)
O5A O 1.25624(19) 0.32935(19) 1.02815(17)
O6B O 1.5871(2) 0.20673(19) 1.06165(15)
O8C O 1.2087(2) 0.1715(2) 0.96993(18)
O10C O 1.62885(18) 0.1661(2) 0.95977(17)
O14* O 0.7272(3) 0.4275(4) 0.6363(3)
O15* O 0.33401(19) 0.3554(3) 0.7627(3)
O16* O 0.6590(2) 0.5093(4) 0.6121(2)
#END
