
#######################################################################
#
#                 Cambridge Crystallographic Data Centre
#                                CCDC
#
#######################################################################
#
# If this CIF has been generated from an entry in the Cambridge
# Structural Database, then it will include bibliographic, chemical,
# crystal, experimental, refinement or atomic coordinate data resulting
# from the CCDC's data processing and validation procedures.
#
#######################################################################

data_CSD_CIF_CIJTOG
_audit_creation_date 2013-07-07
_audit_creation_method CSD-ConQuest-V1
_database_code_CSD CIJTOG
_database_code_depnum_ccdc_archive 'CCDC 858049'
_chemical_formula_sum 'C30 H26 Cu2 Mo12 N6 O40 Si1'
_chemical_formula_moiety
;
(C20 H16 Cu2 Mo12 N4 O40 Si1 2-)n,n(C10 H10 N2 2+)
;
_journal_coden_Cambridge 155
_journal_volume 402
_journal_year 2013
_journal_page_first 123
_journal_name_full 'Inorg.Chim.Acta '
loop_
_publ_author_name
"Shu-Yun Shi"
"Zhan-Lin Xu"
"Hong-Hui Teng"
"Ling-Zi Zhao"
"Xiao-Bing Cui"
"Ji-Qing Xu"
_chemical_name_systematic
;
catena-(4,4'-Bipyridinium 
(\m~12~-silicato)-bis(\m~3~-oxo)-bis(\m~2~-4,4'-bipyridine)-tetracosakis(\m~2~
-oxo)-decaoxo-di-copper-dodeca-molybdenum)
;
_cell_volume   1374.823
_exptl_crystal_density_diffrn 2.919
_diffrn_ambient_temperature 293
_refine_special_details
;
O1,O2,O3,O4 disordered by symmetry over two sites with occupancy 0.50.

;
#These two values have been output from a single CSD field.
_refine_ls_R_factor_gt 0.0691
_refine_ls_wR_factor_gt 0.0691
_symmetry_cell_setting triclinic
_symmetry_space_group_name_H-M 'P -1'
_symmetry_Int_Tables_number 2
loop_
_symmetry_equiv_pos_site_id
_symmetry_equiv_pos_as_xyz
1 x,y,z
2 -x,-y,-z
_cell_length_a 10.8645(9)
_cell_length_b 11.8169(12)
_cell_length_c 13.3176(10)
_cell_angle_alpha 105.386(6)
_cell_angle_beta 102.406(5)
_cell_angle_gamma 115.660(4)
_cell_formula_units_Z 1
loop_
_atom_type_symbol
_atom_type_radius_bond
C 0.68
H 0.23
Cu 1.32
Mo 1.54
N 0.68
O 0.68
Si 1.20
loop_
_atom_site_label
_atom_site_type_symbol
_atom_site_fract_x
_atom_site_fract_y
_atom_site_fract_z
Mo1 Mo 1.0901(1) 0.82527(9) 0.29764(7)
O1 O 0.9640(13) 0.9340(13) 0.3672(10)
O2 O 1.086(1) 0.9691(12) 0.2436(13)
O3 O 1.1416(11) 0.7562(10) 0.2013(7)
O4 O 0.8894(10) 0.7242(11) 0.2267(13)
O5 O 1.1037(14) 0.7436(11) 0.3929(8)
O6 O 1.2868(14) 0.9915(10) 0.4003(8)
Mo2 Mo 0.72296(10) 0.75134(9) 0.23576(7)
Mo3 Mo 0.99819(10) 1.07089(11) 0.25812(8)
Si1 Si 1.00000 1.00000 0.50000
Mo4 Mo 1.13809(11) 0.7919(1) 0.55450(8)
Mo5 Mo 1.37430(9) 1.10945(10) 0.54706(8)
O7 O 0.5957(9) 0.6265(9) 0.1099(7)
O8 O 0.8072(11) 0.8970(11) 0.1982(13)
O9 O 0.7043(18) 0.6358(15) 0.3229(10)
O10 O 0.6156(18) 0.8065(15) 0.2981(9)
O11 O 0.9882(11) 1.0993(11) 0.1424(8)
O12 O 1.1670(11) 1.2290(15) 0.3618(9)
O13 O 0.8804(10) 1.1447(14) 0.3109(9)
O14 O 1.3081(14) 0.9469(10) 0.5879(7)
O15 O 0.9216(11) 0.6643(15) 0.4885(10)
O16 O 1.1962(11) 0.6884(10) 0.5725(7)
O17 O 1.5498(9) 1.1598(12) 0.5771(8)
O18 O 1.3710(19) 1.2509(15) 0.5207(10)
Cu1 Cu 0.49347(16) 0.39980(18) 0.14372(18)
Mo6 Mo 0.7543(1) 0.66490(9) 0.47204(8)
N1 N 0.6581(10) 0.3839(10) 0.1353(9)
N2 N 1.3194(10) 0.3973(10) 0.1498(10)
O19 O 0.6366(11) 0.5118(9) 0.4626(10)
C1 C 0.6984(13) 0.3804(15) 0.0467(11)
C2 C 0.7524(12) 0.3989(11) 0.2276(10)
H1 H 0.63620 0.37470 -0.01700
C3 C 0.8277(12) 0.3849(14) 0.0446(10)
C4 C 0.8870(11) 0.4096(11) 0.2351(9)
H2 H 0.72700 0.40250 0.29020
H3 H 0.84910 0.37890 -0.01990
C5 C 0.9246(10) 0.3986(11) 0.1408(8)
H4 H 0.95110 0.42380 0.30230
C6 C 1.0639(10) 0.4038(10) 0.1451(9)
C7 C 1.1906(12) 0.4795(13) 0.2426(10)
C8 C 1.0682(13) 0.3237(15) 0.0493(10)
H5 H 1.19420 0.53480 0.30900
C9 C 1.3119(13) 0.4691(15) 0.2366(13)
H6 H 0.98550 0.27040 -0.01750
C10 C 1.1977(13) 0.3245(14) 0.0552(9)
H7 H 1.39610 0.51930 0.30230
H8 H 1.20010 0.27220 -0.00930
O20 O 1.0207(14) 1.1161(13) 0.449(1)
N3 N 0.3356(18) 0.047(2) 0.1947(17)
C11 C 0.288(3) 0.049(3) 0.098(2)
H9 H 0.21100 0.06440 0.08130
C12 C 0.4660(14) 0.0075(19) 0.0400(16)
C13 C 0.346(2) 0.029(3) 0.021(2)
H10 H 0.30530 0.02840 -0.04860
C14 C 0.5172(18) 0.015(3) 0.1497(18)
H11 H 0.60140 0.01070 0.17320
C15 C 0.452(2) 0.028(3) 0.219(2)
H12 H 0.48570 0.02410 0.28760
O21? O 1.1127(12) 0.9487(12) 0.4805(9)
O22? O 0.8296(13) 0.8687(13) 0.4334(10)
O1A O 1.0360(13) 1.0660(13) 0.6328(10)
O20A O 0.9793(14) 0.8839(13) 0.551(1)
Mo1A Mo 0.9099(1) 1.17473(9) 0.70236(7)
O2A O 0.914(1) 1.0309(12) 0.7564(13)
O3A O 0.8584(11) 1.2438(10) 0.7987(7)
O4A O 1.1106(10) 1.2758(11) 0.7733(13)
O5A O 0.8963(14) 1.2564(11) 0.6071(8)
O6A O 0.7132(14) 1.0085(10) 0.5997(8)
Mo2A Mo 1.27704(10) 1.24866(9) 0.76424(7)
Mo3A Mo 1.00181(10) 0.92911(11) 0.74188(8)
Mo4A Mo 0.86191(11) 1.2081(1) 0.44550(8)
Mo5A Mo 0.62570(9) 0.89055(10) 0.45294(8)
O7A O 1.4043(9) 1.3735(9) 0.8901(7)
O8A O 1.1928(11) 1.1030(11) 0.8018(13)
O9A O 1.2957(18) 1.3642(15) 0.6771(10)
O10A O 1.3844(18) 1.1935(15) 0.7019(9)
O11A O 1.0118(11) 0.9007(11) 0.8576(8)
O12A O 0.8330(11) 0.7710(15) 0.6382(9)
O13A O 1.1196(10) 0.8553(14) 0.6891(9)
O14A O 0.6919(14) 1.0531(10) 0.4121(7)
O15A O 1.0784(11) 1.3357(15) 0.5115(10)
O16A O 0.8038(11) 1.3116(10) 0.4275(7)
O17A O 0.4502(9) 0.8402(12) 0.4229(8)
O18A O 0.6290(19) 0.7491(15) 0.4793(10)
Cu1A Cu 1.50653(16) 1.60020(18) 0.85628(18)
Mo6A Mo 1.2457(1) 1.33510(9) 0.52796(8)
N1A N 1.3419(10) 1.6161(10) 0.8647(9)
N2A N 0.6806(10) 1.6027(10) 0.8502(10)
O19A O 1.3634(11) 1.4882(9) 0.5374(10)
C1A C 1.3016(13) 1.6196(15) 0.9533(11)
C2A C 1.2476(12) 1.6011(11) 0.7724(10)
H1A H 1.36380 1.62530 1.01700
C3A C 1.1723(12) 1.6151(14) 0.9554(10)
C4A C 1.1130(11) 1.5904(11) 0.7649(9)
H2A H 1.27300 1.59750 0.70980
H3A H 1.15090 1.62110 1.01990
C5A C 1.0754(10) 1.6014(11) 0.8592(8)
H4A H 1.04890 1.57620 0.69770
C6A C 0.9361(10) 1.5962(10) 0.8549(9)
C7A C 0.8094(12) 1.5205(13) 0.7574(10)
C8A C 0.9318(13) 1.6763(15) 0.9507(10)
H5A H 0.80580 1.46520 0.69100
C9A C 0.6881(13) 1.5309(15) 0.7634(13)
H6A H 1.01450 1.72960 1.01750
C10A C 0.8023(13) 1.6755(14) 0.9448(9)
H7A H 0.60390 1.48070 0.69770
H8A H 0.79990 1.72780 1.00930
Cu1* Cu 1.49347(16) 0.39980(18) 0.14372(18)
Cu1A* Cu 0.50653(16) 1.60020(18) 0.85628(18)
N2* N 0.3194(10) 0.3973(10) 0.1498(10)
N2A* N 1.6806(10) 1.6027(10) 0.8502(10)
N3A N 0.6644(18) -0.047(2) -0.1947(17)
C11A C 0.712(3) -0.049(3) -0.098(2)
H9A H 0.78900 -0.06440 -0.08130
C12A C 0.5340(14) -0.0075(19) -0.0400(16)
C13A C 0.654(2) -0.029(3) -0.021(2)
H10A H 0.69470 -0.02840 0.04860
C14A C 0.4828(18) -0.015(3) -0.1497(18)
H11A H 0.39860 -0.01070 -0.17320
C15A C 0.548(2) -0.028(3) -0.219(2)
H12A H 0.51430 -0.02410 -0.28760
#END
