
#######################################################################
#
#                 Cambridge Crystallographic Data Centre
#                                CCDC
#
#######################################################################
#
# If this CIF has been generated from an entry in the Cambridge
# Structural Database, then it will include bibliographic, chemical,
# crystal, experimental, refinement or atomic coordinate data resulting
# from the CCDC's data processing and validation procedures.
#
#######################################################################

data_CSD_CIF_CIKPOD
_audit_creation_date 2013-11-19
_audit_creation_method CSD-ConQuest-V1
_database_code_CSD CIKPOD
_database_code_depnum_ccdc_archive 'CCDC 901993'
_chemical_formula_sum 'C48 H45 Cu2 N12 O22.5 Si0.5 W6'
_chemical_formula_moiety
;
(C48 H40 Cu2 N12 2+)n,0.5n(O40 Si1 W12 4-),2.5n(H2 O1)
;
_journal_coden_Cambridge 1147
_journal_volume 13
_journal_year 2013
_journal_page_first 3454
_journal_name_full 'Cryst.Growth Des. '
loop_
_publ_author_name
"Xin Wang"
"Mao-Mao Zhang"
"Xiu-Li Hao"
"Yong-Hui Wang"
"Ying Wei"
"Fu-Shun Liang"
"Li-Jie Xu"
"Yang-Guang Li"
_chemical_name_systematic
;
catena-[bis(\m~2~-2,2'-(1,2-phenylenebis(methylene-1H-pyrazole-1,3-diyl))dipyr
idine)-di-copper 
hemikis((\m~10~-tetraoxosilicate)-tetraicosakis(\m~2~-oxido)-dodeca(oxido)-dod
eca-tungsten) hydrate]
;
_cell_volume   5897.266
_exptl_crystal_density_diffrn 2.697
_diffrn_ambient_temperature 150
_refine_special_details
;
O1,O2,O3,O4 disordered by symmetry over two sites with occupancy 0.50.

;
#These two values have been output from a single CSD field.
_refine_ls_R_factor_gt 0.0725
_refine_ls_wR_factor_gt 0.0725
_symmetry_cell_setting monoclinic
_symmetry_space_group_name_H-M 'P 21/c'
_symmetry_Int_Tables_number 14
loop_
_symmetry_equiv_pos_site_id
_symmetry_equiv_pos_as_xyz
1 x,y,z
2 -x,1/2+y,1/2-z
3 -x,-y,-z
4 x,-1/2-y,-1/2+z
_cell_length_a 15.919(3)
_cell_length_b 16.025(3)
_cell_length_c 27.627(8)
_cell_angle_alpha 90
_cell_angle_beta 123.20(2)
_cell_angle_gamma 90
_cell_formula_units_Z 4
loop_
_atom_type_symbol
_atom_type_radius_bond
C 0.68
H 0.23
Cu 1.32
N 0.68
O 0.68
Si 1.20
W 1.62
loop_
_atom_site_label
_atom_site_type_symbol
_atom_site_fract_x
_atom_site_fract_y
_atom_site_fract_z
W1 W 0.07679(6) -0.40215(5) -0.36757(3)
W2 W -0.10978(6) -0.55806(5) -0.42387(4)
W3 W 0.18271(6) -0.34139(5) -0.44536(4)
W4 W 0.24233(5) -0.53790(5) -0.37569(4)
W5 W 0.05761(6) -0.69593(5) -0.42997(4)
W6 W 0.16393(5) -0.63788(5) -0.50739(4)
Si1 Si 0.00000 -0.50000 -0.50000
O1 O 0.0831(15) -0.5696(13) -0.4648(10)
O2 O -0.1818(11) -0.4619(10) -0.4633(7)
O3 O 0.2590(13) -0.4332(11) -0.4030(8)
O4 O -0.0017(11) -0.4896(9) -0.3681(7)
O5 O 0.1155(11) -0.7093(10) -0.4742(7)
O6 O 0.3579(12) -0.5554(11) -0.3169(8)
O7 O 0.1690(11) -0.6333(10) -0.3776(7)
O8 O 0.1378(12) -0.3314(10) -0.3947(7)
O9 O -0.0434(12) -0.3463(10) -0.4203(7)
O10 O 0.0849(12) -0.7894(10) -0.3963(7)
O11 O 0.0668(11) -0.2806(10) -0.5013(7)
O12 O -0.0123(12) -0.6467(11) -0.4011(7)
O13 O -0.1906(11) -0.6165(10) -0.4940(7)
O14 O 0.2520(11) -0.5915(10) -0.4330(7)
O15 O 0.2702(9) -0.2668(8) -0.4189(6)
O16 O 0.1111(9) -0.3552(8) -0.3057(6)
O17 O 0.2415(9) -0.7026(8) -0.5126(6)
O18 O -0.1581(9) -0.5859(8) -0.3861(6)
O19 O 0.1834(11) -0.4795(10) -0.3421(7)
O20 O 0.0979(14) -0.4598(12) -0.4413(9)
O21 O -0.0423(16) -0.5788(14) -0.4824(10)
O22 O 0.0372(16) -0.5350(14) -0.5415(10)
Cu1 Cu 0.2642(2) -0.53326(18) -0.10623(13)
Cu2 Cu 0.3039(2) 0.05057(19) -0.23576(13)
N1 N 0.2351(10) -0.4120(9) -0.1056(6)
N2 N 0.3815(12) -0.602(1) -0.0991(8)
N3 N 0.1898(12) -0.5938(10) -0.1837(7)
N4 N 0.2264(13) -0.5368(11) -0.0462(8)
N5 N -0.2153(8) -0.4099(7) -0.2879(5)
C1 C -0.2604(8) -0.3902(8) -0.3443(5)
C2 C -0.1903(10) -0.3579(9) -0.3519(6)
H1 H -0.20120 -0.33870 -0.38750
C3 C -0.1019(9) -0.3577(8) -0.3003(6)
H2 H -0.03960 -0.33840 -0.29300
N6 N -0.1174(8) -0.3899(7) -0.2607(5)
N7 N -0.4114(9) -0.4290(8) -0.3544(5)
C4 C -0.5117(10) -0.4446(9) -0.3863(6)
H3 H -0.54430 -0.46170 -0.36760
C5 C -0.5653(11) -0.4358(10) -0.4447(7)
H4 H -0.63540 -0.44670 -0.46690
C6 C -0.5186(12) -0.4114(10) -0.4714(6)
H5 H -0.55610 -0.40530 -0.51230
C7 C -0.4183(11) -0.3958(9) -0.4396(6)
H6 H -0.38560 -0.37870 -0.45820
C8 C -0.3647(8) -0.4046(8) -0.3811(6)
N8 N 0.3219(10) -0.0593(8) -0.2654(6)
N9 N 0.303(1) -0.1411(9) -0.2658(6)
C9 C 0.3276(13) -0.180(1) -0.2994(8)
H7 H 0.32190 -0.23810 -0.30740
C10 C 0.3617(13) -0.1222(12) -0.3199(8)
H8 H 0.38430 -0.13230 -0.34480
C11 C 0.3581(12) -0.0476(10) -0.2989(7)
N10 N 0.3431(11) 0.0962(11) -0.2883(7)
C12 C 0.3778(13) 0.0373(10) -0.3082(8)
C13 C 0.4246(14) 0.0603(13) -0.3349(8)
H9 H 0.44900 0.01900 -0.34890
C14 C 0.4366(14) 0.1422(14) -0.3417(8)
H10 H 0.46930 0.15840 -0.36040
C15 C 0.4018(14) 0.2011(12) -0.3217(9)
H11 H 0.41020 0.25860 -0.32650
C16 C 0.3550(12) 0.1781(11) -0.2951(8)
H12 H 0.33060 0.21940 -0.28110
N11 N 0.2245(11) -0.3384(9) -0.1320(7)
C17 C 0.1891(13) -0.2761(13) -0.1139(9)
H13 H 0.17680 -0.21970 -0.12640
C18 C 0.1755(16) -0.3111(14) -0.0749(10)
H14 H 0.15270 -0.28430 -0.05340
C19 C 0.2011(12) -0.3939(11) -0.0719(8)
C20 C 0.2001(15) -0.4642(13) -0.0377(9)
C21 C 0.174(2) -0.4507(19) 0.0029(13)
H15 H 0.15510 -0.39700 0.00830
C22 C 0.177(2) -0.521(2) 0.0355(14)
H16 H 0.16480 -0.51520 0.06520
C23 C 0.200(2) -0.598(2) 0.0216(14)
H17 H 0.19750 -0.64700 0.04010
C24 C 0.2254(18) -0.6043(16) -0.0173(11)
H18 H 0.24290 -0.65730 -0.02470
C25 C 0.2609(16) -0.3299(14) -0.1697(10)
H19 H 0.20650 -0.30730 -0.20750
H20 H 0.27920 -0.38560 -0.17660
C26 C 0.3515(14) -0.2726(12) -0.1443(9)
C27 C 0.4298(17) -0.2921(15) -0.0899(11)
H21 H 0.42400 -0.33920 -0.07100
C28 C 0.5189(19) -0.2449(16) -0.0606(12)
H22 H 0.57270 -0.25920 -0.02270
C29 C 0.5248(16) -0.1780(14) -0.089(1)
H23 H 0.58400 -0.14500 -0.07070
C30 C 0.4461(16) -0.1575(15) -0.1439(10)
H24 H 0.45130 -0.11040 -0.16300
C31 C 0.3578(15) -0.2060(14) -0.1717(10)
C32 C 0.2736(19) -0.1781(16) -0.2321(11)
H25 H 0.23190 -0.22730 -0.25320
H26 H 0.23050 -0.13810 -0.22800
C33 C -0.0473(13) -0.4002(11) -0.1995(8)
H27 H -0.06730 -0.36320 -0.17880
H28 H 0.02010 -0.38240 -0.18930
C34 C -0.0408(13) -0.4881(11) -0.1790(8)
C35 C -0.0676(15) -0.5018(14) -0.1397(9)
H29 H -0.09150 -0.45630 -0.12840
C36 C -0.0607(18) -0.5791(16) -0.1166(12)
H30 H -0.07830 -0.58730 -0.08920
C37 C -0.0278(17) -0.6439(17) -0.1339(11)
H31 H -0.02250 -0.69780 -0.11810
C38 C -0.0028(16) -0.6337(15) -0.1726(10)
H32 H 0.01840 -0.68040 -0.18450
C39 C -0.0077(15) -0.5545(13) -0.1955(9)
C40 C 0.0212(15) -0.5405(13) -0.2383(9)
H33 H -0.03960 -0.54530 -0.27790
H34 H 0.04730 -0.48300 -0.23350
N12 N 0.0973(12) -0.5996(10) -0.2319(7)
C41 C 0.0936(16) -0.6563(14) -0.2679(10)
H35 H 0.03600 -0.67180 -0.30430
C42 C 0.1888(15) -0.6887(13) -0.2427(9)
H36 H 0.21030 -0.73030 -0.25810
C43 C 0.2472(15) -0.6476(13) -0.1896(9)
C44 C 0.3511(13) -0.6530(11) -0.1447(8)
C45 C 0.4184(16) -0.7084(14) -0.1448(10)
H37 H 0.39670 -0.74570 -0.17630
C46 C 0.5155(17) -0.7081(15) -0.0993(11)
H38 H 0.56280 -0.74430 -0.09930
C47 C 0.5457(19) -0.6554(16) -0.0530(12)
H39 H 0.61310 -0.65600 -0.02050
C48 C 0.4763(19) -0.6022(17) -0.0549(12)
H40 H 0.49690 -0.56470 -0.02370
O1B O -0.0831(15) -0.4304(13) -0.5352(10)
O20B O -0.0979(14) -0.5402(12) -0.5587(9)
O21B O 0.0423(16) -0.4212(14) -0.5176(10)
O22B O -0.0372(16) -0.4650(14) -0.4585(10)
W1B W -0.07679(6) -0.59785(5) -0.63243(3)
W2B W 0.10978(6) -0.44194(5) -0.57613(4)
W3B W -0.18271(6) -0.65861(5) -0.55464(4)
W4B W -0.24233(5) -0.46210(5) -0.62431(4)
W5B W -0.05761(6) -0.30407(5) -0.57003(4)
W6B W -0.16393(5) -0.36212(5) -0.49261(4)
O2B O 0.1818(11) -0.5381(10) -0.5367(7)
O3B O -0.2590(13) -0.5668(11) -0.5970(8)
O4B O 0.0017(11) -0.5104(9) -0.6319(7)
O5B O -0.1155(11) -0.2907(10) -0.5258(7)
O6B O -0.3579(12) -0.4446(11) -0.6831(8)
O7B O -0.1690(11) -0.3667(10) -0.6224(7)
O8B O -0.1378(12) -0.6686(10) -0.6053(7)
O9B O 0.0434(12) -0.6537(10) -0.5797(7)
O10B O -0.0849(12) -0.2106(10) -0.6037(7)
O11B O -0.0668(11) -0.7194(10) -0.4987(7)
O12B O 0.0123(12) -0.3533(11) -0.5989(7)
O13B O 0.1906(11) -0.3835(10) -0.5060(7)
O14B O -0.2520(11) -0.4085(10) -0.5670(7)
O15B O -0.2702(9) -0.7332(8) -0.5811(6)
O16B O -0.1111(9) -0.6448(8) -0.6943(6)
O17B O -0.2415(9) -0.2974(8) -0.4874(6)
O18B O 0.1581(9) -0.4141(8) -0.6139(6)
O19B O -0.1834(11) -0.5205(10) -0.6579(7)
Cu2A Cu -0.3039(2) -0.44943(19) -0.26424(13)
N5A N 0.2153(8) 0.0901(7) -0.2121(5)
N7A N 0.4114(9) 0.0710(8) -0.1456(5)
#END
