
#######################################################################
#
#                 Cambridge Crystallographic Data Centre
#                                CCDC
#
#######################################################################
#
# If this CIF has been generated from an entry in the Cambridge
# Structural Database, then it will include bibliographic, chemical,
# crystal, experimental, refinement or atomic coordinate data resulting
# from the CCDC's data processing and validation procedures.
#
#######################################################################

data_CSD_CIF_CIKYAY
_audit_creation_date 2013-11-20
_audit_creation_method CSD-ConQuest-V1
_database_code_CSD CIKYAY
_database_code_depnum_ccdc_archive 'CCDC 949602'
_chemical_formula_sum 'C14 H22 Co1 Cu1 N2 O16'
_chemical_formula_moiety
;
(C14 H6 Cu1 N2 O8 2-)n,n(H12 Co1 O6 2+),2n(H2 O1)
;
_journal_coden_Cambridge 1290
_journal_year 2013
_journal_page_first 6147
_journal_name_full 'Eur.J.Inorg.Chem. '
loop_
_publ_author_name
"K.Shankar"
"B.Das"
"J.B.Baruah"
_chemical_name_systematic
;
catena-(Hexa-aqua-cobalt bis(\m~2~-pyridine-2,3-dicarboxylato)-copper 
dihydrate)
;
_cell_volume    522.915
_exptl_crystal_colour 'violet'
_exptl_crystal_density_diffrn 1.895
_exptl_crystal_description 'plates'
_diffrn_ambient_temperature 296
#These two values have been output from a single CSD field.
_refine_ls_R_factor_gt 0.0383
_refine_ls_wR_factor_gt 0.0383
_symmetry_cell_setting triclinic
_symmetry_space_group_name_H-M 'P -1'
_symmetry_Int_Tables_number 2
loop_
_symmetry_equiv_pos_site_id
_symmetry_equiv_pos_as_xyz
1 x,y,z
2 -x,-y,-z
_cell_length_a 7.0078(4)
_cell_length_b 7.5881(5)
_cell_length_c 11.3217(6)
_cell_angle_alpha 85.343(4)
_cell_angle_beta 72.348(3)
_cell_angle_gamma 65.866(3)
_cell_formula_units_Z 1
loop_
_atom_type_symbol
_atom_type_radius_bond
C 0.68
H 0.23
Co 1.26
Cu 1.32
N 0.68
O 0.68
loop_
_atom_site_label
_atom_site_type_symbol
_atom_site_fract_x
_atom_site_fract_y
_atom_site_fract_z
Cu1 Cu 0.00000 1.00000 0.50000
O1 O 0.5295(4) 1.0071(4) 0.2469(2)
O2 O 0.1814(5) 1.0744(5) 0.3536(3)
O3 O 0.9950(4) 0.7608(4) 0.3339(2)
O4 O 0.9101(5) 0.5851(5) 0.2272(3)
N1 N 0.2816(5) 0.8378(5) 0.5241(3)
C1 C 0.4557(6) 0.8349(5) 0.4290(3)
C2 C 0.3864(6) 0.9817(6) 0.3335(3)
C3 C 0.6664(6) 0.7159(6) 0.4255(3)
C4 C 0.5208(7) 0.6071(6) 0.6255(3)
H1 H 0.54160 0.53180 0.69320
C5 C 0.3119(7) 0.7297(6) 0.6217(3)
H2 H 0.19130 0.73680 0.68790
C6 C 0.8710(6) 0.6902(6) 0.3185(3)
C7 C 0.6953(7) 0.6002(7) 0.5269(4)
H3 H 0.83600 0.51680 0.52730
Co1 Co 0.50000 0.50000 0.00000
O5 O 0.2334(5) 0.5879(5) -0.0846(3)
H4 H 0.24220 0.49370 -0.12020
O6 O 0.3347(5) 0.3357(4) 0.1258(2)
H5 H 0.21360 0.41040 0.16770
O7 O 0.3095(5) 0.7556(4) 0.1213(3)
H6 H 0.22750 0.73190 0.18300
H7 H 0.389(8) 0.238(6) 0.175(4)
H8 H 0.259(9) 0.884(4) 0.096(5)
H9 H 0.123(17) 0.708(11) -0.042(13)
O8 O 0.1956(6) 0.1144(5) 1.0023(3)
H10 H 0.24(1) 0.094(10) 0.916(2)
H11 H 0.258(12) 0.183(10) 1.033(7)
O1A O -0.5295(4) 0.9929(4) 0.7531(2)
O2A O -0.1814(5) 0.9256(5) 0.6464(3)
O3A O -0.9950(4) 1.2392(4) 0.6661(2)
O4A O -0.9101(5) 1.4149(5) 0.7728(3)
N1A N -0.2816(5) 1.1622(5) 0.4759(3)
C1A C -0.4557(6) 1.1651(5) 0.5710(3)
C2A C -0.3864(6) 1.0183(6) 0.6665(3)
C3A C -0.6664(6) 1.2841(6) 0.5745(3)
C4A C -0.5208(7) 1.3929(6) 0.3745(3)
H1A H -0.54160 1.46820 0.30680
C5A C -0.3119(7) 1.2703(6) 0.3783(3)
H2A H -0.19130 1.26320 0.31210
C6A C -0.8710(6) 1.3098(6) 0.6815(3)
C7A C -0.6953(7) 1.3998(7) 0.4731(4)
H3A H -0.83600 1.48320 0.47270
Cu1* Cu -1.00000 1.00000 0.50000
Cu1** Cu 1.00000 1.00000 0.50000
O3* O -0.0050(4) 0.7608(4) 0.3339(2)
O3A* O 0.0050(4) 1.2392(4) 0.6661(2)
O5A O 0.7666(5) 0.4121(5) 0.0846(3)
H4A H 0.75780 0.50630 0.12020
O6A O 0.6653(5) 0.6643(4) -0.1258(2)
H5A H 0.78640 0.58960 -0.16770
O7A O 0.6905(5) 0.2444(4) -0.1213(3)
H6A H 0.77250 0.26810 -0.18300
H7A H 0.611(8) 0.762(6) -0.175(4)
H8A H 0.741(9) 0.116(4) -0.096(5)
H9A H 0.877(17) 0.292(11) 0.042(13)
#END
