
#######################################################################
#
#                 Cambridge Crystallographic Data Centre
#                                CCDC
#
#######################################################################
#
# If this CIF has been generated from an entry in the Cambridge
# Structural Database, then it will include bibliographic, chemical,
# crystal, experimental, refinement or atomic coordinate data resulting
# from the CCDC's data processing and validation procedures.
#
#######################################################################

data_CSD_CIF_CIKYEC
_audit_creation_date 2013-11-20
_audit_creation_method CSD-ConQuest-V1
_database_code_CSD CIKYEC
_database_code_depnum_ccdc_archive 'CCDC 949603'
_chemical_formula_sum 'C14 H22 Cu1 Mg1 N2 O16'
_chemical_formula_moiety
;
(C14 H6 Cu1 N2 O8 2-)n,n(H12 Mg1 O6 2+),2n(H2 O1)
;
_journal_coden_Cambridge 1290
_journal_year 2013
_journal_page_first 6147
_journal_name_full 'Eur.J.Inorg.Chem. '
loop_
_publ_author_name
"K.Shankar"
"B.Das"
"J.B.Baruah"
_chemical_name_systematic
;
catena-(Hexa-aqua-magnesium bis(\m~2~-pyridine-2,3-dicarboxylato)-copper 
dihydrate)
;
_cell_volume    515.175
_exptl_crystal_colour 'blue'
_exptl_crystal_density_diffrn 1.812
_exptl_crystal_description 'blocks'
_diffrn_ambient_temperature 296
#These two values have been output from a single CSD field.
_refine_ls_R_factor_gt 0.0378
_refine_ls_wR_factor_gt 0.0378
_symmetry_cell_setting triclinic
_symmetry_space_group_name_H-M 'P -1'
_symmetry_Int_Tables_number 2
loop_
_symmetry_equiv_pos_site_id
_symmetry_equiv_pos_as_xyz
1 x,y,z
2 -x,-y,-z
_cell_length_a 6.9758(8)
_cell_length_b 7.5074(9)
_cell_length_c 11.3187(13)
_cell_angle_alpha 85.179(7)
_cell_angle_beta 72.204(7)
_cell_angle_gamma 66.030(7)
_cell_formula_units_Z 1
loop_
_atom_type_symbol
_atom_type_radius_bond
C 0.68
H 0.23
Cu 1.32
Mg 1.41
N 0.68
O 0.68
loop_
_atom_site_label
_atom_site_type_symbol
_atom_site_fract_x
_atom_site_fract_y
_atom_site_fract_z
Cu1 Cu 1.00000 0.00000 0.50000
O1 O 0.8195(3) -0.0754(3) 0.6476(2)
O2 O 0.4718(3) -0.0095(3) 0.7559(2)
O3 O 0.0007(4) 0.2431(4) 0.6703(2)
O4 O 0.0920(4) 0.4151(4) 0.7767(2)
N1 N 0.7174(4) 0.1606(4) 0.4760(2)
C1 C 0.6138(5) 0.0171(5) 0.6681(3)
C2 C 0.5437(5) 0.1641(5) 0.5733(3)
C3 C 0.3310(5) 0.2861(5) 0.5767(3)
C4 C 0.3017(5) 0.4013(5) 0.4757(3)
H1 H 0.16050 0.48620 0.47600
C5 C 0.4772(5) 0.3921(5) 0.3755(3)
H2 H 0.45590 0.46690 0.30720
C6 C 0.6859(5) 0.2694(5) 0.3785(3)
H3 H 0.80650 0.26230 0.31160
C7 C 0.1254(5) 0.3115(5) 0.6861(3)
Mg1 Mg 0.50000 0.50000 0.00000
O5 O 0.6814(4) 0.2542(4) -0.1160(2)
O6 O 0.7517(4) 0.4161(5) 0.0827(3)
O7 O 0.3398(4) 0.3438(3) 0.1213(2)
H4 H 0.402(7) 0.239(5) 0.167(4)
H5 H 0.729(6) 0.130(4) -0.085(3)
H6 H 0.870(8) 0.328(7) 0.051(4)
H7 H 0.785(6) 0.258(7) -0.189(3)
H8 H 0.778(6) 0.488(6) 0.125(4)
H9 H 0.201(4) 0.425(5) 0.165(4)
O8 O 0.1915(5) 0.1150(4) 1.0039(3)
H10 H 0.243(9) 0.198(7) 1.032(5)
H11 H 0.242(12) 0.068(11) 0.921(3)
O1A O 0.1805(3) 0.0754(3) 0.3524(2)
O2A O 0.5282(3) 0.0095(3) 0.2441(2)
O3A O 0.9993(4) -0.2431(4) 0.3297(2)
O4A O 0.9080(4) -0.4151(4) 0.2233(2)
N1A N 0.2826(4) -0.1606(4) 0.5240(2)
C1A C 0.3862(5) -0.0171(5) 0.3319(3)
C2A C 0.4563(5) -0.1641(5) 0.4267(3)
C3A C 0.6690(5) -0.2861(5) 0.4233(3)
C4A C 0.6983(5) -0.4013(5) 0.5243(3)
H1A H 0.83950 -0.48620 0.52400
C5A C 0.5228(5) -0.3921(5) 0.6245(3)
H2A H 0.54410 -0.46690 0.69280
C6A C 0.3141(5) -0.2694(5) 0.6215(3)
H3A H 0.19350 -0.26230 0.68840
C7A C 0.8746(5) -0.3115(5) 0.3139(3)
Cu1* Cu 0.00000 0.00000 0.50000
O1A* O 1.1805(3) 0.0754(3) 0.3524(2)
O3* O 1.0007(4) 0.2431(4) 0.6703(2)
N1A* N 1.2826(4) -0.1606(4) 0.5240(2)
O5A O 0.3186(4) 0.7458(4) 0.1160(2)
O6A O 0.2483(4) 0.5839(5) -0.0827(3)
O7A O 0.6602(4) 0.6562(3) -0.1213(2)
H4A H 0.598(7) 0.761(5) -0.167(4)
H5A H 0.271(6) 0.870(4) 0.085(3)
H6A H 0.130(8) 0.672(7) -0.051(4)
H7A H 0.215(6) 0.742(7) 0.189(3)
H8A H 0.222(6) 0.512(6) -0.125(4)
H9A H 0.799(4) 0.575(5) -0.165(4)
#END
