
#######################################################################
#
#                 Cambridge Crystallographic Data Centre
#                                CCDC
#
#######################################################################
#
# If this CIF has been generated from an entry in the Cambridge
# Structural Database, then it will include bibliographic, chemical,
# crystal, experimental, refinement or atomic coordinate data resulting
# from the CCDC's data processing and validation procedures.
#
#######################################################################

data_CSD_CIF_CILFIO
_audit_creation_date 2013-11-20
_audit_creation_method CSD-ConQuest-V1
_database_code_CSD CILFIO
_database_code_depnum_ccdc_archive 'CCDC 933431'
_chemical_formula_sum 'C32 H34 Cu1 N8 O18'
_chemical_formula_moiety
;
(C14 H6 Cu1 N2 O8 2-)n,2n(C9 H14 N3 O5 1+)
;
_journal_coden_Cambridge 1290
_journal_year 2013
_journal_page_first 6147
_journal_name_full 'Eur.J.Inorg.Chem. '
loop_
_publ_author_name
"K.Shankar"
"B.Das"
"J.B.Baruah"
_chemical_name_systematic
;
catena-(bis(Cytidinium) bis(\m~2~-pyridine-2,3-dicarboxylato)-copper)
;
_cell_volume    876.813
_exptl_crystal_colour 'blue'
_exptl_crystal_density_diffrn 1.671
_exptl_crystal_description 'plates'
_diffrn_ambient_temperature 296
#These two values have been output from a single CSD field.
_refine_ls_R_factor_gt 0.0609
_refine_ls_wR_factor_gt 0.0609
_symmetry_cell_setting triclinic
_symmetry_space_group_name_H-M 'P 1'
_symmetry_Int_Tables_number 1
loop_
_symmetry_equiv_pos_site_id
_symmetry_equiv_pos_as_xyz
1 x,y,z
_cell_length_a 6.7564(8)
_cell_length_b 8.3947(11)
_cell_length_c 15.916(3)
_cell_angle_alpha 79.240(12)
_cell_angle_beta 89.650(11)
_cell_angle_gamma 81.465(10)
_cell_formula_units_Z 1
loop_
_atom_type_symbol
_atom_type_radius_bond
C 0.68
H 0.23
Cu 1.32
N 0.68
O 0.68
loop_
_atom_site_label
_atom_site_type_symbol
_atom_site_fract_x
_atom_site_fract_y
_atom_site_fract_z
C1 C 0.8637(13) 0.0539(12) 0.4032(6)
C2 C 0.8749(12) 0.2255(12) 0.4138(6)
C3 C 1.0144(13) 0.3213(12) 0.3785(6)
C4 C 1.0020(15) 0.4784(12) 0.3986(7)
H1 H 1.09720 0.54460 0.37830
C5 C 0.8486(14) 0.5351(12) 0.4486(6)
H2 H 0.83700 0.64000 0.46110
C6 C 0.7153(14) 0.4323(12) 0.4790(7)
H3 H 0.61260 0.46850 0.51320
C7 C 1.1766(14) 0.2710(12) 0.3176(6)
C8 C 0.1963(13) 0.2084(12) 0.5855(7)
C9 C 0.1948(13) 0.0306(11) 0.5729(6)
C10 C 0.0489(13) -0.0642(11) 0.6069(6)
C11 C 0.0631(13) -0.2218(12) 0.5898(7)
H4 H -0.03220 -0.28760 0.61060
C12 C 0.2166(13) -0.2801(12) 0.5423(6)
H5 H 0.22740 -0.38610 0.53140
C13 C 0.3584(15) -0.1785(12) 0.5101(6)
H6 H 0.46260 -0.21750 0.47740
C14 C -0.1110(13) -0.0116(12) 0.6680(6)
Cu1 Cu 0.53134(13) 0.13135(12) 0.49357(8)
N1 N 0.7258(10) 0.2850(9) 0.4620(5)
N2 N 0.3446(10) -0.0272(9) 0.5261(5)
O1 O 0.7164(9) -0.0093(8) 0.4345(4)
O2 O 1.0016(10) -0.0160(8) 0.3635(5)
O3 O 1.3540(9) 0.2439(10) 0.3442(5)
O4 O 1.1141(10) 0.2716(10) 0.2442(5)
O5 O 0.3450(8) 0.2719(8) 0.5510(4)
O6 O 0.0618(9) 0.2725(9) 0.6233(5)
O7 O -0.0536(9) -0.0171(8) 0.7441(4)
O8 O -0.2886(10) 0.0214(9) 0.6412(4)
C15 C 0.8770(13) 0.4109(10) 1.0170(5)
C16 C 0.6617(13) 0.3556(10) 1.1389(6)
C17 C 0.4927(13) 0.3739(10) 1.0838(6)
H7 H 0.36640 0.36130 1.10520
C18 C 0.5231(13) 0.4106(11) 0.9986(6)
H8 H 0.41470 0.42200 0.96110
C19 C 0.7277(12) 0.4753(11) 0.8707(5)
H9 H 0.84900 0.52580 0.85830
C20 C 0.7340(11) 0.3325(10) 0.8243(5)
H10 H 0.64630 0.25640 0.85240
C21 C 0.6451(14) 0.4188(11) 0.7373(6)
H11 H 0.58550 0.34400 0.70800
C22 C 0.4885(15) 0.5516(13) 0.7600(7)
H12 H 0.47990 0.64920 0.71470
C23 C 0.2862(14) 0.5013(13) 0.7725(7)
H13 H 0.19630 0.58610 0.79320
H14 H 0.23280 0.48770 0.71820
N3 N 0.6550(12) 0.315(1) 1.2231(5)
H15 H 0.76150 0.30710 1.25380
H16 H 0.54420 0.29640 1.24710
N4 N 0.8366(10) 0.3835(9) 1.1038(5)
N5 N 0.7066(10) 0.4314(9) 0.9656(5)
O9 O 1.0421(9) 0.4169(9) 0.9903(4)
O10 O 0.5600(9) 0.5894(7) 0.8385(4)
O11 O 0.9317(8) 0.2491(8) 0.8236(5)
H17 H 0.93170 0.16960 0.80040
O12 O 0.7867(10) 0.5006(8) 0.6846(4)
H18 H 0.88120 0.43300 0.67550
O13 O 0.2986(9) 0.3521(9) 0.8321(5)
H19 H 0.19410 0.31410 0.83040
H20 H 0.935(8) 0.344(9) 1.145(4)
C24 C 0.7320(12) 0.8586(10) -0.0532(5)
C25 C 0.4540(13) 0.9426(11) -0.1568(6)
C26 C 0.3171(13) 0.9242(13) -0.0890(6)
H21 H 0.17990 0.94400 -0.10050
C27 C 0.3879(13) 0.8779(12) -0.0079(6)
H22 H 0.29830 0.86920 0.03670
C28 C 0.6661(12) 0.7986(10) 0.0991(6)
H23 H 0.80140 0.73640 0.10170
C29 C 0.6631(13) 0.948(1) 0.1414(6)
H24 H 0.53920 1.02320 0.12340
C30 C 0.6460(12) 0.8716(11) 0.2355(6)
H25 H 0.58810 0.95220 0.26960
C31 C 0.5133(14) 0.7442(12) 0.2309(6)
H26 H 0.56230 0.64580 0.27330
C32 C 0.2922(14) 0.7992(13) 0.2479(7)
H27 H 0.21410 0.71510 0.23960
H28 H 0.27780 0.81450 0.30670
N6 N 0.4002(12) 0.9864(11) -0.2360(5)
H29 H 0.48900 0.99980 -0.27460
H30 H 0.27540 1.00240 -0.25040
N7 N 0.6544(10) 0.9176(9) -0.1349(5)
N8 N 0.5887(10) 0.8433(9) 0.0102(5)
O14 O 0.9084(9) 0.8254(10) -0.0406(5)
O15 O 0.5334(9) 0.7041(7) 0.1479(4)
O16 O 0.8259(9) 1.0334(8) 0.1181(4)
H31 H 0.92710 0.98330 0.14450
O17 O 0.8408(9) 0.7891(8) 0.2675(5)
H32 H 0.88480 0.84020 0.30050
O18 O 0.2186(10) 0.9506(8) 0.1907(5)
H33 H 0.19130 1.02400 0.21830
H34 H 0.743(10) 0.935(11) -0.179(4)
Cu1* Cu -0.46866(13) 0.13135(12) 0.49357(8)
Cu1** Cu 1.53134(13) 0.13135(12) 0.49357(8)
O3* O 0.3540(9) 0.2439(10) 0.3442(5)
O8* O 0.7114(10) 0.0214(9) 0.6412(4)
#END
