
#######################################################################
#
#                 Cambridge Crystallographic Data Centre
#                                CCDC
#
#######################################################################
#
# If this CIF has been generated from an entry in the Cambridge
# Structural Database, then it will include bibliographic, chemical,
# crystal, experimental, refinement or atomic coordinate data resulting
# from the CCDC's data processing and validation procedures.
#
#######################################################################

data_CSD_CIF_CILNUI
_audit_creation_date 2013-11-20
_audit_creation_method CSD-ConQuest-V1
_database_code_CSD CILNUI
_database_code_depnum_ccdc_archive 'CCDC 933430'
_chemical_formula_sum 'C20 H20 Cu1 N6 O10'
_chemical_formula_moiety
;
(C14 H6 Cu1 N2 O8 2-)n,2n(C3 H5 N2 1+),2n(H2 O1)
;
_journal_coden_Cambridge 1290
_journal_year 2013
_journal_page_first 6147
_journal_name_full 'Eur.J.Inorg.Chem. '
loop_
_publ_author_name
"K.Shankar"
"B.Das"
"J.B.Baruah"
_chemical_name_systematic
;
catena-(bis(Imidazolium) bis(\m~2~-pyridine-2,3-dicarboxylato)-copper 
dihydrate)
;
_cell_volume   1211.812
_exptl_crystal_colour 'blue'
_exptl_crystal_density_diffrn 1.557
_exptl_crystal_description 'plates'
_diffrn_ambient_temperature 296
#These two values have been output from a single CSD field.
_refine_ls_R_factor_gt 0.0386
_refine_ls_wR_factor_gt 0.0386
_symmetry_cell_setting triclinic
_symmetry_space_group_name_H-M 'P -1'
_symmetry_Int_Tables_number 2
loop_
_symmetry_equiv_pos_site_id
_symmetry_equiv_pos_as_xyz
1 x,y,z
2 -x,-y,-z
_cell_length_a 8.0447(10)
_cell_length_b 12.4673(16)
_cell_length_c 13.4014(16)
_cell_angle_alpha 110.964(7)
_cell_angle_beta 95.056(6)
_cell_angle_gamma 101.381(6)
_cell_formula_units_Z 2
loop_
_atom_type_symbol
_atom_type_radius_bond
C 0.68
H 0.23
Cu 1.32
N 0.68
O 0.68
loop_
_atom_site_label
_atom_site_type_symbol
_atom_site_fract_x
_atom_site_fract_y
_atom_site_fract_z
Cu1 Cu 0.50002(12) 0.00018(9) 0.25010(9)
O1 O 0.4375(5) -0.1931(4) -0.2274(4)
O2 O 0.4464(7) -0.3530(4) -0.1940(4)
O3 O 0.7696(5) 0.1896(4) 0.5445(4)
O4 O 0.6982(5) 0.0772(4) 0.3683(4)
O5 O 0.5608(5) 0.1912(4) 0.7287(4)
O6 O 0.5553(6) 0.3511(4) 0.6917(4)
O7 O 0.3010(5) -0.0771(4) 0.1319(4)
O8 O 0.2305(5) -0.1895(4) -0.0441(4)
N1 N 0.3700(6) 0.0578(4) 0.3684(4)
N2 N 0.6285(6) -0.0588(5) 0.1319(5)
C1 C 0.4824(8) -0.2426(6) -0.1669(6)
C2 C 0.4730(7) 0.1200(5) 0.4651(5)
C3 C 0.4066(7) 0.1689(5) 0.5589(5)
C4 C 0.2279(8) 0.1524(5) 0.5487(6)
H1 H 0.17810 0.18400 0.60930
C5 C 0.1261(8) 0.0889(6) 0.4480(6)
H2 H 0.00710 0.07730 0.44040
C6 C 0.2008(8) 0.0428(6) 0.3593(6)
H3 H 0.13160 0.00040 0.29150
C7 C 0.6633(7) 0.1298(5) 0.4602(6)
C8 C 0.5188(8) 0.2429(6) 0.6704(6)
C9 C 0.3370(8) -0.1315(6) 0.0390(6)
C10 C 0.5286(7) -0.1199(5) 0.0345(6)
C11 C 0.8004(7) -0.0420(6) 0.1400(6)
H4 H 0.86950 0.00250 0.20750
C12 C 0.8773(8) -0.0887(6) 0.0520(6)
H5 H 0.99610 -0.07810 0.05940
C13 C 0.7723(8) -0.1515(6) -0.0475(6)
H6 H 0.82090 -0.18360 -0.10850
C14 C 0.5949(8) -0.1677(5) -0.0580(5)
N3 N 1.1032(7) 0.6915(5) 0.1784(5)
H7 H 1.20720 0.73310 0.20500
N4 N 0.8638(7) 0.6033(5) 0.0699(5)
H8 H 0.78570 0.57800 0.01300
C15 C 1.0196(8) 0.6718(6) 0.0842(7)
H9 H 1.06220 0.70120 0.03430
C16 C 0.9983(10) 0.6351(7) 0.2284(7)
H10 H 1.02630 0.63530 0.29730
C17 C 0.8491(11) 0.5798(7) 0.1613(7)
H11 H 0.75340 0.53420 0.17400
N5 N -0.1035(8) 0.3078(5) 0.3245(6)
H12 H -0.20730 0.26510 0.29960
C18 C 0.1458(10) 0.4191(8) 0.3372(7)
H13 H 0.23830 0.46510 0.32210
C19 C -0.0054(10) 0.3616(8) 0.2730(7)
H14 H -0.03720 0.35940 0.20380
C20 C -0.0129(10) 0.3315(7) 0.4212(6)
H15 H -0.05130 0.30530 0.47390
N6 N 0.1388(7) 0.3976(5) 0.4291(5)
H16 H 0.22100 0.42340 0.48370
O9 O 0.6358(9) 0.5317(5) 0.3902(5)
H17 H 0.612(7) 0.578(4) 0.353(4)
H18 H 0.652(9) 0.474(5) 0.326(4)
O10 O 0.3563(8) 0.4668(5) 0.1119(5)
H19 H 0.404(7) 0.544(2) 0.159(4)
H20 H 0.436(5) 0.425(4) 0.117(4)
Cu1A Cu 0.49998(12) -0.00018(9) -0.25010(9)
Cu1A* Cu 0.49998(12) -0.00018(9) 0.74990(9)
O1A O 0.5625(5) 0.1931(4) 0.2274(4)
O5A O 0.4392(5) -0.1912(4) 0.2713(4)
#END
