
#######################################################################
#
#                 Cambridge Crystallographic Data Centre
#                                CCDC
#
#######################################################################
#
# If this CIF has been generated from an entry in the Cambridge
# Structural Database, then it will include bibliographic, chemical,
# crystal, experimental, refinement or atomic coordinate data resulting
# from the CCDC's data processing and validation procedures.
#
#######################################################################

data_CSD_CIF_CILPOE
_audit_creation_date 2013-11-20
_audit_creation_method CSD-ConQuest-V1
_database_code_CSD CILPOE
_database_code_depnum_ccdc_archive 'CCDC 930524'
_chemical_formula_sum 'C20 H30 Cu1 N4 O10'
_chemical_formula_moiety
;
(C14 H6 Cu1 N2 O8 2-)n,2n(C3 H10 N1 1+),2n(H2 O1)
;
_journal_coden_Cambridge 1290
_journal_year 2013
_journal_page_first 6147
_journal_name_full 'Eur.J.Inorg.Chem. '
loop_
_publ_author_name
"K.Shankar"
"B.Das"
"J.B.Baruah"
_chemical_name_systematic
;
catena-[bis(isopropylammonium) bis(\m~2~-pyridine-2,3-dicarboxylato)-copper 
dihydrate]
;
_cell_volume   1268.336
_exptl_crystal_colour 'blue'
_exptl_crystal_description 'plates'
_diffrn_ambient_temperature 296
#These two values have been output from a single CSD field.
_refine_ls_R_factor_gt 0.0673
_refine_ls_wR_factor_gt 0.0673
_symmetry_cell_setting monoclinic
_symmetry_space_group_name_H-M 'P 21/c'
_symmetry_Int_Tables_number 14
loop_
_symmetry_equiv_pos_site_id
_symmetry_equiv_pos_as_xyz
1 x,y,z
2 -x,1/2+y,1/2-z
3 -x,-y,-z
4 x,-1/2-y,-1/2+z
_cell_length_a 11.3777(15)
_cell_length_b 6.2596(9)
_cell_length_c 20.920(2)
_cell_angle_alpha 90
_cell_angle_beta 121.649(8)
_cell_angle_gamma 90
_cell_formula_units_Z 2
loop_
_atom_type_symbol
_atom_type_radius_bond
C 0.68
H 0.23
Cu 1.32
N 0.68
O 0.68
loop_
_atom_site_label
_atom_site_type_symbol
_atom_site_fract_x
_atom_site_fract_y
_atom_site_fract_z
Cu1 Cu 0.00000 0.50000 0.00000
O1 O 0.0427(4) 0.6694(6) 0.0871(2)
O2 O 0.1766(5) 0.9385(7) 0.1568(2)
O3 O 0.4228(4) 1.1318(6) 0.1589(2)
O4 O 0.2620(4) 1.3806(6) 0.0951(2)
N1 N 0.0943(4) 0.7327(7) -0.0192(2)
C1 C 0.1245(6) 0.8283(8) 0.1000(3)
C2 C 0.1540(5) 0.8707(8) 0.0389(3)
C3 C 0.2344(6) 1.0393(8) 0.0396(3)
C4 C 0.2483(7) 1.0609(10) -0.0215(3)
H1 H 0.29910 1.17400 -0.02370
C5 C 0.1873(7) 0.9157(11) -0.0795(3)
H2 H 0.19810 0.92820 -0.12040
C6 C 0.1111(6) 0.7535(10) -0.0760(3)
H3 H 0.07000 0.65520 -0.11510
C7 C 0.3096(5) 1.1963(9) 0.1037(3)
N2 N 0.5222(5) 0.1866(7) 0.3112(3)
H4 H 0.49610 0.17410 0.26320
H5 H 0.58930 0.09340 0.33860
H6 H 0.55290 0.31860 0.32700
C8 C 0.2993(7) 0.3204(12) 0.2818(4)
H7 H 0.34030 0.45310 0.30640
H8 H 0.21930 0.29250 0.28470
H9 H 0.27270 0.32900 0.23010
C9 C 0.4019(6) 0.1427(11) 0.3196(4)
H10 H 0.35890 0.00810 0.29410
C10 C 0.4517(9) 0.1202(15) 0.4028(4)
H11 H 0.51440 0.00180 0.42370
H12 H 0.37400 0.09570 0.40810
H13 H 0.49800 0.24880 0.42880
O5 O 0.0531(9) 0.798(3) 0.2448(5)
O1B O -0.0427(4) 0.3306(6) -0.0871(2)
O2B O -0.1766(5) 0.0615(7) -0.1568(2)
O3B O -0.4228(4) -0.1318(6) -0.1589(2)
O4B O -0.2620(4) -0.3806(6) -0.0951(2)
N1B N -0.0943(4) 0.2673(7) 0.0192(2)
C1B C -0.1245(6) 0.1717(8) -0.1000(3)
C2B C -0.1540(5) 0.1293(8) -0.0389(3)
C3B C -0.2344(6) -0.0393(8) -0.0396(3)
C4B C -0.2483(7) -0.0609(10) 0.0215(3)
H1B H -0.29910 -0.17400 0.02370
C5B C -0.1873(7) 0.0843(11) 0.0795(3)
H2B H -0.19810 0.07180 0.12040
C6B C -0.1111(6) 0.2465(10) 0.0760(3)
H3B H -0.07000 0.34480 0.11510
C7B C -0.3096(5) -0.1963(9) -0.1037(3)
Cu1* Cu 0.00000 -0.50000 0.00000
Cu1** Cu 0.00000 1.50000 0.00000
O4* O 0.2620(4) 0.3806(6) 0.0951(2)
O4B* O -0.2620(4) 0.6194(6) -0.0951(2)
#END
