
#######################################################################
#
#                 Cambridge Crystallographic Data Centre
#                                CCDC
#
#######################################################################
#
# If this CIF has been generated from an entry in the Cambridge
# Structural Database, then it will include bibliographic, chemical,
# crystal, experimental, refinement or atomic coordinate data resulting
# from the CCDC's data processing and validation procedures.
#
#######################################################################

data_CSD_CIF_CILPIY
_audit_creation_date 2013-11-20
_audit_creation_method CSD-ConQuest-V1
_database_code_CSD CILPIY
_database_code_depnum_ccdc_archive 'CCDC 930526'
_chemical_formula_sum 'C24 H26 Cu1 N4 O13'
_chemical_formula_moiety
;
(C14 H6 Cu1 N2 O8 2-)n,2(C5 H5 N1 1+),5(H2 O1)
;
_journal_coden_Cambridge 1290
_journal_year 2013
_journal_page_first 6147
_journal_name_full 'Eur.J.Inorg.Chem. '
loop_
_publ_author_name
"K.Shankar"
"B.Das"
"J.B.Baruah"
_chemical_name_systematic
;
catena-[bis(pyridinium) bis(\m-pyridine-2,3-dicarboxylato)-copper(ii) 
pentahydrate]
;
_cell_volume   2151.932
_exptl_crystal_colour 'blue'
_exptl_crystal_description 'plates'
_diffrn_ambient_temperature 293
_refine_special_details
;
The structure is disordered.

;
#These two values have been output from a single CSD field.
_refine_ls_R_factor_gt 0.0563
_refine_ls_wR_factor_gt 0.0563
_symmetry_cell_setting monoclinic
_symmetry_space_group_name_H-M 'C 2/c'
_symmetry_Int_Tables_number 15
loop_
_symmetry_equiv_pos_site_id
_symmetry_equiv_pos_as_xyz
1 x,y,z
2 -x,y,1/2-z
3 1/2+x,1/2+y,z
4 1/2-x,1/2+y,1/2-z
5 -x,-y,-z
6 x,-y,-1/2+z
7 -1/2-x,-1/2-y,-z
8 -1/2+x,-1/2-y,-1/2+z
_cell_length_a 21.6963(13)
_cell_length_b 14.8361(13)
_cell_length_c 6.8547(5)
_cell_angle_alpha 90
_cell_angle_beta 102.763(7)
_cell_angle_gamma 90
_cell_formula_units_Z 4
loop_
_atom_type_symbol
_atom_type_radius_bond
C 0.68
H 0.23
Cu 1.32
N 0.68
O 0.68
loop_
_atom_site_label
_atom_site_type_symbol
_atom_site_fract_x
_atom_site_fract_y
_atom_site_fract_z
C1 C 0.81952(17) 0.3126(2) 0.7376(5)
C2 C 0.75260(16) 0.3451(2) 0.6507(5)
C3 C 0.73463(18) 0.3946(3) 0.4767(5)
C4 C 0.67082(19) 0.4155(3) 0.4119(6)
H1 H 0.65700 0.44730 0.29330
C5 C 0.62829(19) 0.3894(3) 0.5223(6)
H2 H 0.58570 0.40340 0.47990
C6 C 0.64975(18) 0.3420(3) 0.6967(6)
H3 H 0.62120 0.32540 0.77340
C7 C 0.77990(18) 0.4300(2) 0.3569(5)
Cu1 Cu 0.75000 0.25000 1.00000
N1 N 0.71027(14) 0.3195(2) 0.7586(4)
O1 O 0.82653(14) 0.26851(19) 0.9015(4)
O2 O 0.86103(12) 0.3274(2) 0.6471(4)
O3 O 0.81338(13) 0.4977(2) 0.4185(4)
O4 O 0.7769(2) 0.3963(2) 0.1894(5)
C8 C 0.50000 0.1393(6) 0.75000
H4 H 0.50000 0.20200 0.75000
C9 C 0.5554(3) 0.0927(5) 0.8003(9)
H5 H 0.59350 0.12350 0.83580
C10 C 0.50000 -0.0424(7) 0.75000
H6 H 0.50000 -0.10510 0.75000
H7 H 0.595(2) -0.029(5) 0.811(13)
N2 N 0.5546(4) 0.0015(5) 0.7983(8)
O5 O 0.4677(4) 0.2836(8) 0.3714(19)
O6 O 0.4732(15) 0.405(3) 0.539(6)
O7? O 0.50000 0.4285(8) 0.75000
C1F C 0.68048(17) 0.1874(2) 0.2624(5)
C2F C 0.74740(16) 0.1549(2) 0.3493(5)
C3F C 0.76537(18) 0.1054(3) 0.5233(5)
C4F C 0.82918(19) 0.0845(3) 0.5881(6)
H1F H 0.84300 0.05270 0.70670
C5F C 0.87171(19) 0.1106(3) 0.4777(6)
H2F H 0.91430 0.09660 0.52010
C6F C 0.85025(18) 0.1580(3) 0.3033(6)
H3F H 0.87880 0.17460 0.22660
C7F C 0.72010(18) 0.0700(2) 0.6431(5)
N1F N 0.78973(14) 0.1805(2) 0.2414(4)
O1F O 0.67347(14) 0.23149(19) 0.0985(4)
O2F O 0.63897(12) 0.1726(2) 0.3529(4)
O3F O 0.68662(13) 0.0023(2) 0.5815(4)
O4F O 0.7231(2) 0.1037(2) 0.8106(5)
Cu1* Cu 0.75000 0.25000 0.00000
N1F* N 0.78973(14) 0.1805(2) 1.2414(4)
O1F* O 0.67347(14) 0.23149(19) 1.0985(4)
O4* O 0.7769(2) 0.3963(2) 1.1894(5)
C9A C 0.4446(3) 0.0927(5) 0.6997(9)
H5A H 0.40650 0.12350 0.66420
H7A H 0.405(2) -0.029(5) 0.689(13)
N2A N 0.4454(4) 0.0015(5) 0.7017(8)
#END
