
#######################################################################
#
#                 Cambridge Crystallographic Data Centre
#                                CCDC
#
#######################################################################
#
# If this CIF has been generated from an entry in the Cambridge
# Structural Database, then it will include bibliographic, chemical,
# crystal, experimental, refinement or atomic coordinate data resulting
# from the CCDC's data processing and validation procedures.
#
#######################################################################

data_CSD_CIF_CILQIZ
_audit_creation_date 2013-11-20
_audit_creation_method CSD-ConQuest-V1
_database_code_CSD CILQIZ
_database_code_depnum_ccdc_archive 'CCDC 930098'
_chemical_formula_sum 'C54 H82 Cu3 N14 O34'
_chemical_formula_moiety
;
(C42 H20 Cu3 N6 O24 6-)n,2n(C6 H21 N4 3+),10n(H2 O1)
;
_journal_coden_Cambridge 1290
_journal_year 2013
_journal_page_first 6147
_journal_name_full 'Eur.J.Inorg.Chem. '
loop_
_publ_author_name
"K.Shankar"
"B.Das"
"J.B.Baruah"
_chemical_name_systematic
;
catena-[bis(2,2',2''-nitrilotriethanaminium) 
tetrakis(\m~2~-pyridine-2,3-dicarboxylato)-bis(hydrogen 
pyridine-2,3-dicarboxylato)-tri-copper decahydrate]
;
_cell_volume   1759.635
_exptl_crystal_colour 'blue'
_exptl_crystal_description 'needles'
_diffrn_ambient_temperature 293
#These two values have been output from a single CSD field.
_refine_ls_R_factor_gt 0.0644
_refine_ls_wR_factor_gt 0.0644
_symmetry_cell_setting triclinic
_symmetry_space_group_name_H-M 'P -1'
_symmetry_Int_Tables_number 2
loop_
_symmetry_equiv_pos_site_id
_symmetry_equiv_pos_as_xyz
1 x,y,z
2 -x,-y,-z
_cell_length_a 11.1704(2)
_cell_length_b 12.6342(3)
_cell_length_c 14.6490(5)
_cell_angle_alpha 105.248(1)
_cell_angle_beta 92.701(1)
_cell_angle_gamma 116.081(1)
_cell_formula_units_Z 1
loop_
_atom_type_symbol
_atom_type_radius_bond
C 0.68
H 0.23
Cu 1.32
N 0.68
O 0.68
loop_
_atom_site_label
_atom_site_type_symbol
_atom_site_fract_x
_atom_site_fract_y
_atom_site_fract_z
Cu1 Cu 0.76747(8) 0.56173(7) 0.13091(5)
O1 O 1.2513(4) 0.8269(4) 0.4523(3)
O2 O 1.2273(4) 0.6326(4) 0.3977(3)
O3 O 0.7889(4) 0.5702(4) 0.2675(3)
O4 O 0.9402(4) 0.6384(3) 0.3999(3)
O5 O 0.7471(4) 0.5291(4) -0.0084(3)
O6 O 0.5893(4) 0.4243(3) -0.1426(3)
O7 O 0.3463(5) 0.1390(4) -0.1887(3)
O8 O 0.2560(4) 0.2691(4) -0.1662(3)
N1 N 0.5837(5) 0.4231(4) 0.0971(4)
N2 N 0.9677(5) 0.6400(4) 0.1614(3)
C1 C 0.6280(7) 0.4492(6) -0.0560(5)
C2 C 1.1540(7) 0.7079(5) 0.2878(4)
C3 C 1.0182(6) 0.6611(5) 0.2537(4)
C4 C 0.5311(6) 0.3808(5) 0.0023(4)
C5 C 0.3311(7) 0.2270(6) -0.1397(4)
C6 C 0.9094(7) 0.6217(5) 0.3134(5)
C7 C 1.0512(7) 0.6677(6) 0.1013(4)
H1 H 1.01570 0.65370 0.03810
C8 C 1.2150(6) 0.7255(7) 0.3888(4)
C9 C 0.4015(7) 0.2839(6) -0.0343(4)
C10 C 0.5124(7) 0.3727(6) 0.1578(5)
H2 H 0.54960 0.40580 0.22320
C11 C 1.2415(6) 0.7365(5) 0.2231(5)
H3 H 1.33430 0.76860 0.24340
C12 C 1.1908(7) 0.7171(6) 0.1283(4)
H4 H 1.24820 0.73650 0.08460
C13 C 0.3864(8) 0.2741(7) 0.1271(5)
H5 H 0.33970 0.23690 0.17030
C14 C 0.3284(7) 0.2294(6) 0.0299(5)
H6 H 0.24100 0.16350 0.00780
Cu2 Cu 1.50000 1.00000 0.50000
O9 O 1.5130(4) 0.9820(4) 0.6286(3)
O10 O 1.5793(4) 0.8872(4) 0.7118(3)
O11 O 1.5106(4) 0.6121(4) 0.6285(3)
O12 O 1.7330(5) 0.7038(4) 0.6446(3)
N3 N 1.5634(5) 0.8752(4) 0.4684(3)
C15 C 1.5566(6) 0.9060(6) 0.6369(4)
C16 C 1.5777(6) 0.8344(5) 0.5431(4)
C17 C 1.6310(6) 0.6872(6) 0.4430(4)
H7 H 1.65310 0.62260 0.43320
C18 C 1.6168(8) 0.6821(6) 0.6099(4)
C19 C 1.5844(6) 0.8268(5) 0.3826(4)
H8 H 1.57510 0.85600 0.33210
C20 C 1.6090(6) 0.7378(5) 0.5316(4)
C21 C 1.6203(7) 0.7321(6) 0.3686(4)
H9 H 1.63710 0.69920 0.30890
N4 N 0.9741(5) 0.2985(4) 0.3089(3)
N5 N 0.7379(5) 0.4096(4) 0.4279(3)
H10 H 0.74760 0.39660 0.48400
H11 H 0.65230 0.39210 0.41020
H12 H 0.79260 0.48880 0.43410
N6 N 1.2386(5) 0.4421(4) 0.2541(3)
H13 H 1.22580 0.50000 0.29570
H14 H 1.30360 0.47800 0.22290
H15 H 1.26300 0.40140 0.28570
N7 N 1.0323(6) 0.1535(5) 0.4178(4)
H16 H 1.09560 0.19460 0.38760
H17 H 1.04310 0.09030 0.42510
H18 H 1.04000 0.20450 0.47530
C22 C 0.9189(6) 0.3581(5) 0.3812(4)
H19 H 0.97460 0.44730 0.39830
H20 H 0.92710 0.33530 0.43860
C23 C 0.7737(6) 0.3280(6) 0.3532(4)
H21 H 0.76060 0.34020 0.29150
H22 H 0.71460 0.24170 0.34660
C24 C 0.9074(7) 0.1621(6) 0.2796(4)
H23 H 0.95590 0.13300 0.23490
H24 H 0.81610 0.13050 0.24530
C25 C 1.1088(6) 0.3524(6) 0.1828(4)
H25 H 1.10400 0.27090 0.16170
H26 H 1.10830 0.37960 0.12670
C26 C 0.9867(6) 0.3440(6) 0.2268(4)
H27 H 0.99200 0.42570 0.24690
H28 H 0.90550 0.28930 0.17790
C27 C 0.8986(7) 0.1064(6) 0.3610(5)
H29 H 0.84120 0.12650 0.40240
H30 H 0.85740 0.01670 0.33430
O13 O 0.5232(5) 0.9839(4) 0.1429(3)
O14 O 0.0995(5) 0.9509(4) 0.4297(3)
O15 O 0.6806(6) 0.1155(5) 0.0240(4)
O16 O 0.0075(7) 0.9246(6) 0.2422(4)
O17 O 0.8415(13) 0.0333(9) 0.9038(11)
Cu1A Cu 0.23253(8) 0.43827(7) -0.13091(5)
O1A O -0.2513(4) 0.1731(4) -0.4523(3)
O2A O -0.2273(4) 0.3674(4) -0.3977(3)
O3A O 0.2111(4) 0.4298(4) -0.2675(3)
O4A O 0.0598(4) 0.3616(3) -0.3999(3)
O5A O 0.2529(4) 0.4709(4) 0.0084(3)
O6A O 0.4107(4) 0.5757(3) 0.1426(3)
O7A O 0.6537(5) 0.8610(4) 0.1887(3)
O8A O 0.7440(4) 0.7309(4) 0.1662(3)
N1A N 0.4163(5) 0.5769(4) -0.0971(4)
N2A N 0.0323(5) 0.3600(4) -0.1614(3)
C1A C 0.3720(7) 0.5508(6) 0.0560(5)
C2A C -0.1540(7) 0.2921(5) -0.2878(4)
C3A C -0.0182(6) 0.3389(5) -0.2537(4)
C4A C 0.4689(6) 0.6192(5) -0.0023(4)
C5A C 0.6689(7) 0.7730(6) 0.1397(4)
C6A C 0.0906(7) 0.3783(5) -0.3134(5)
C7A C -0.0512(7) 0.3323(6) -0.1013(4)
H1A H -0.01570 0.34630 -0.03810
C8A C -0.2150(6) 0.2745(7) -0.3888(4)
C9A C 0.5985(7) 0.7161(6) 0.0343(4)
C10A C 0.4876(7) 0.6273(6) -0.1578(5)
H2A H 0.45040 0.59420 -0.22320
C11A C -0.2415(6) 0.2635(5) -0.2231(5)
H3A H -0.33430 0.23140 -0.24340
C12A C -0.1908(7) 0.2829(6) -0.1283(4)
H4A H -0.24820 0.26350 -0.08460
C13A C 0.6136(8) 0.7259(7) -0.1271(5)
H5A H 0.66030 0.76310 -0.17030
C14A C 0.6716(7) 0.7706(6) -0.0299(5)
H6A H 0.75900 0.83650 -0.00780
O9A O 1.4870(4) 1.0180(4) 0.3714(3)
O10A O 1.4207(4) 1.1128(4) 0.2882(3)
O11A O 1.4894(4) 1.3879(4) 0.3715(3)
O12A O 1.2670(5) 1.2962(4) 0.3554(3)
N3A N 1.4366(5) 1.1248(4) 0.5316(3)
C15A C 1.4434(6) 1.0940(6) 0.3631(4)
C16A C 1.4223(6) 1.1656(5) 0.4569(4)
C17A C 1.3690(6) 1.3128(6) 0.5570(4)
H7A H 1.34690 1.37740 0.56680
C18A C 1.3832(8) 1.3179(6) 0.3901(4)
C19A C 1.4156(6) 1.1732(5) 0.6174(4)
H8A H 1.42490 1.14400 0.66790
C20A C 1.3910(6) 1.2622(5) 0.4684(4)
C21A C 1.3797(7) 1.2679(6) 0.6314(4)
H9A H 1.36290 1.30080 0.69110
O1A* O 1.7487(4) 1.1731(4) 0.5477(3)
Cu2* Cu -0.50000 0.00000 -0.50000
#END
