
#######################################################################
#
#                 Cambridge Crystallographic Data Centre
#                                CCDC
#
#######################################################################
#
# If this CIF has been generated from an entry in the Cambridge
# Structural Database, then it will include bibliographic, chemical,
# crystal, experimental, refinement or atomic coordinate data resulting
# from the CCDC's data processing and validation procedures.
#
#######################################################################

data_CSD_CIF_CILXIG
_audit_creation_date 2013-11-20
_audit_creation_method CSD-ConQuest-V1
_database_code_CSD CILXIG
_database_code_depnum_ccdc_archive 'CCDC 769586'
_chemical_formula_sum 'C16 H24 Cu1 N4 O12'
_chemical_formula_moiety
;
(C14 H6 Cu1 N2 O8 2-)n,C2 H10 N2 2+,4(H2 O1)
;
_journal_coden_Cambridge 1290
_journal_year 2013
_journal_page_first 6147
_journal_name_full 'Eur.J.Inorg.Chem. '
loop_
_publ_author_name
"K.Shankar"
"B.Das"
"J.B.Baruah"
_chemical_name_systematic
;
catena-[ethane-1,2-diaminium 
bis(\m~2~-3-carboxypyridine-2-carboxylate)-copper tetrahydrate]
;
_cell_volume    514.160
_exptl_crystal_colour 'blue'
_exptl_crystal_density_diffrn 1.705
_exptl_crystal_description 'plates'
_diffrn_ambient_temperature 293
#These two values have been output from a single CSD field.
_refine_ls_R_factor_gt 0.0298
_refine_ls_wR_factor_gt 0.0298
_symmetry_cell_setting triclinic
_symmetry_space_group_name_H-M 'P -1'
_symmetry_Int_Tables_number 2
loop_
_symmetry_equiv_pos_site_id
_symmetry_equiv_pos_as_xyz
1 x,y,z
2 -x,-y,-z
_cell_length_a 6.1845(3)
_cell_length_b 8.1568(4)
_cell_length_c 10.9703(5)
_cell_angle_alpha 70.148(3)
_cell_angle_beta 82.111(3)
_cell_angle_gamma 83.340(3)
_cell_formula_units_Z 1
loop_
_atom_type_symbol
_atom_type_radius_bond
C 0.68
H 0.23
Cu 1.32
N 0.68
O 0.68
loop_
_atom_site_label
_atom_site_type_symbol
_atom_site_fract_x
_atom_site_fract_y
_atom_site_fract_z
Cu1 Cu 0.00000 0.50000 0.00000
O1 O 0.18776(19) 0.29099(14) 0.07554(12)
O2 O 0.4591(2) 0.19622(15) 0.20125(13)
O3 O 0.55003(19) 0.34259(18) 0.40836(12)
O4 O 0.83277(18) 0.40642(17) 0.25439(12)
N1 N 0.1982(2) 0.61460(16) 0.06584(13)
C1 C 0.3315(2) 0.31270(19) 0.14036(15)
C2 C 0.3415(2) 0.49789(19) 0.13883(14)
C3 C 0.4839(2) 0.5473(2) 0.20496(15)
C4 C 0.4783(3) 0.7249(2) 0.19053(17)
H1 H 0.57430 0.76340 0.23140
C5 C 0.3308(3) 0.8424(2) 0.11592(18)
H2 H 0.32540 0.96040 0.10650
C6 C 0.1908(3) 0.7826(2) 0.05521(17)
H3 H 0.08920 0.86140 0.00580
C7 C 0.6346(2) 0.4183(2) 0.29603(16)
N2 N 0.0974(2) 0.29248(19) 0.46516(15)
H4 H 0.02790 0.31260 0.39530
H5 H 0.09070 0.18120 0.51450
H6 H 0.23660 0.31560 0.44030
C8 C -0.0073(3) 0.4051(2) 0.54082(17)
H7 H 0.06510 0.38040 0.61880
H8 H -0.15970 0.38060 0.56720
O5 O 0.7524(2) 0.04235(19) 0.57677(16)
H9 H 0.67800 0.11580 0.51820
H10 H 0.65140 -0.00780 0.63890
O6 O 0.8510(3) -0.0204(2) 0.27285(17)
H11 H 0.94360 0.01910 0.29800
H12 H 0.74920 0.05440 0.23990
O1A O -0.18776(19) 0.70901(14) -0.07554(12)
O2A O -0.4591(2) 0.80378(15) -0.20125(13)
O3A O -0.55003(19) 0.65741(18) -0.40836(12)
O4A O -0.83277(18) 0.59358(17) -0.25439(12)
N1A N -0.1982(2) 0.38540(16) -0.06584(13)
C1A C -0.3315(2) 0.68730(19) -0.14036(15)
C2A C -0.3415(2) 0.50211(19) -0.13883(14)
C3A C -0.4839(2) 0.4527(2) -0.20496(15)
C4A C -0.4783(3) 0.2751(2) -0.19053(17)
H1A H -0.57430 0.23660 -0.23140
C5A C -0.3308(3) 0.1576(2) -0.11592(18)
H2A H -0.32540 0.03960 -0.10650
C6A C -0.1908(3) 0.2174(2) -0.05521(17)
H3A H -0.08920 0.13860 -0.00580
C7A C -0.6346(2) 0.5817(2) -0.29603(16)
Cu1* Cu -1.00000 0.50000 0.00000
Cu1** Cu 1.00000 0.50000 0.00000
O4* O -0.16723(18) 0.40642(17) 0.25439(12)
O4A* O 0.16723(18) 0.59358(17) -0.25439(12)
N2A N -0.0974(2) 0.70752(19) 0.53484(15)
H4A H -0.02790 0.68740 0.60470
H5A H -0.09070 0.81880 0.48550
H6A H -0.23660 0.68440 0.55970
C8A C 0.0073(3) 0.5949(2) 0.45918(17)
H7A H -0.06510 0.61960 0.38120
H8A H 0.15970 0.61940 0.43280
#END
