
#######################################################################
#
#                 Cambridge Crystallographic Data Centre
#                                CCDC
#
#######################################################################
#
# If this CIF has been generated from an entry in the Cambridge
# Structural Database, then it will include bibliographic, chemical,
# crystal, experimental, refinement or atomic coordinate data resulting
# from the CCDC's data processing and validation procedures.
#
#######################################################################

data_CSD_CIF_CIMTAV
_audit_creation_date 2013-11-21
_audit_creation_method CSD-ConQuest-V1
_database_code_CSD CIMTAV
_database_code_depnum_ccdc_archive 'CCDC 861466'
_chemical_formula_sum 'C149 H196 B4 La4 N6 O35'
_chemical_formula_moiety
;
(C145 H176 B4 La4 N4 O33 2-)n,2n(C2 H8 N1 1+),2n(H2 O1)
;
_journal_coden_Cambridge 9
_journal_volume 52
_journal_year 2013
_journal_page_first 10286
_journal_name_full 'Inorg.Chem. '
loop_
_publ_author_name
"Yan Liu"
"Ke Mo"
"Yong Cui"
_chemical_name_systematic
;
catena-(bis(Dimethylammonium) 
bis(\m~6~-tris(4-carboxylatoduryl)borane)-(\m~4~-tris(4-carboxylatoduryl)boran
e-O,O',O'',O''',O'''',O''''')-(\m~4~-tris(4-carboxylatoduryl)borane-O,O',O'',O
''')-(\m~4~-carbonato)-diaqua-tetrakis(dimethylformamide)-tetra-lanthanum 
dihydrate)
;
_cell_volume  19030.831
_exptl_crystal_colour 'colorless'
_exptl_crystal_density_diffrn 1.127
_exptl_crystal_description 'block'
_diffrn_ambient_temperature 123
_refine_special_details
;
The structure is disordered.

;
#These two values have been output from a single CSD field.
_refine_ls_R_factor_gt 0.0609
_refine_ls_wR_factor_gt 0.0609
_symmetry_cell_setting orthorhombic
_symmetry_space_group_name_H-M 'P n n a'
_symmetry_Int_Tables_number 52
loop_
_symmetry_equiv_pos_site_id
_symmetry_equiv_pos_as_xyz
1 x,y,z
2 1/2-x,-y,z
3 x,1/2-y,1/2-z
4 1/2-x,1/2+y,1/2-z
5 -x,-y,-z
6 -1/2+x,y,-z
7 -x,-1/2+y,-1/2+z
8 -1/2+x,-1/2-y,-1/2+z
_cell_length_a 37.927(3)
_cell_length_b 27.1472(19)
_cell_length_c 18.4835(12)
_cell_angle_alpha 90
_cell_angle_beta 90
_cell_angle_gamma 90
_cell_formula_units_Z 4
loop_
_atom_type_symbol
_atom_type_radius_bond
C 0.68
H 0.23
B 0.83
La 2.07
N 0.68
O 0.68
loop_
_atom_site_label
_atom_site_type_symbol
_atom_site_fract_x
_atom_site_fract_y
_atom_site_fract_z
La1 La 1.023392(16) 0.74087(2) 0.62619(3)
La2 La 0.900568(17) 0.74851(3) 0.61948(4)
C1 C 0.9634(3) 0.6775(4) 0.5166(6)
C2 C 0.96486(15) 0.64738(19) 0.4475(3)
C3 C 0.98831(13) 0.66029(17) 0.3929(3)
C4 C 0.98994(13) 0.63246(18) 0.3299(3)
C5 C 0.96812(15) 0.59172(18) 0.3214(3)
C6 C 0.94467(13) 0.57881(16) 0.3760(3)
C7 C 0.94304(13) 0.60664(18) 0.4391(3)
C8 C 1.0110(2) 0.7082(2) 0.3983(4)
H1 H 1.00720 0.72340 0.44460
H2 H 1.00420 0.73060 0.36060
H3 H 1.03550 0.70000 0.39320
C9 C 1.01859(19) 0.6458(3) 0.2747(4)
H4 H 1.03070 0.67500 0.29030
H5 H 1.00790 0.65160 0.22840
H6 H 1.03510 0.61910 0.27090
C10 C 0.91702(19) 0.5382(2) 0.3644(4)
H7 H 0.92130 0.52210 0.31900
H8 H 0.89390 0.55260 0.36400
H9 H 0.91860 0.51460 0.40300
C11 C 0.9190(2) 0.5902(3) 0.5029(3)
H10 H 0.90560 0.56170 0.48870
H11 H 0.90310 0.61650 0.51520
H12 H 0.93330 0.58220 0.54410
C12 C 0.96943(15) 0.50411(14) 0.2406(3)
C13 C 0.99691(13) 0.47872(16) 0.2735(3)
C14 C 0.99888(12) 0.42775(16) 0.2677(3)
C15 C 0.97337(13) 0.40216(14) 0.2290(3)
C16 C 0.94589(12) 0.42755(16) 0.1960(3)
C17 C 0.94392(13) 0.47853(16) 0.2018(3)
C18 C 1.02702(18) 0.5060(2) 0.3144(4)
H13 H 1.02240 0.54080 0.31440
H14 H 1.04910 0.49980 0.29060
H15 H 1.02820 0.49440 0.36330
C19 C 1.03053(16) 0.3989(2) 0.2999(4)
H16 H 1.02750 0.36440 0.29080
H17 H 1.03170 0.40460 0.35110
H18 H 1.05200 0.41000 0.27760
C20 C 0.91727(16) 0.3988(2) 0.1539(4)
H19 H 0.92260 0.36420 0.15520
H20 H 0.91680 0.40990 0.10460
H21 H 0.89470 0.40440 0.17590
C21 C 0.91232(17) 0.5049(2) 0.1659(4)
H22 H 0.89780 0.48100 0.14180
H23 H 0.92080 0.52840 0.13130
H24 H 0.89870 0.52150 0.20230
C22 C 0.97498(19) 0.34628(14) 0.2240(5)
C23 C 0.96579(13) 0.59561(15) 0.1708(2)
C24 C 0.98713(13) 0.58447(16) 0.1119(2)
C25 C 0.98703(11) 0.61485(15) 0.0514(2)
C26 C 0.96560(12) 0.65637(15) 0.0498(2)
C27 C 0.94426(11) 0.66751(14) 0.1087(2)
C28 C 0.94436(11) 0.63713(14) 0.1692(2)
C29 C 1.01484(19) 0.5427(2) 0.1136(3)
H25 H 1.01240 0.52430 0.15760
H26 H 1.03810 0.55670 0.11110
H27 H 1.01120 0.52120 0.07300
C30 C 1.00844(14) 0.6011(2) -0.0172(3)
H28 H 1.00530 0.62620 -0.05330
H29 H 1.00030 0.57010 -0.03570
H30 H 1.03300 0.59860 -0.00500
C31 C 0.92296(16) 0.71599(18) 0.1103(3)
H31 H 0.92550 0.73270 0.06490
H32 H 0.93160 0.73660 0.14850
H33 H 0.89850 0.70870 0.11850
C32 C 0.91649(12) 0.64764(19) 0.2278(2)
H34 H 0.91910 0.62450 0.26670
H35 H 0.89330 0.64450 0.20730
H36 H 0.91960 0.68050 0.24600
C33 C 0.96521(18) 0.6899(2) -0.0160(2)
C34 C 0.8444(3) 0.7380(4) 0.5070(4)
C35 C 0.81811(9) 0.7341(2) 0.4463(2)
C36 C 0.82675(10) 0.7081(2) 0.3841(2)
C37 C 0.80515(11) 0.7109(2) 0.3235(2)
C38 C 0.77492(10) 0.73982(18) 0.3251(2)
C39 C 0.76628(10) 0.76590(16) 0.3873(2)
C40 C 0.78787(9) 0.76306(16) 0.4480(2)
C41 C 0.86110(12) 0.6767(3) 0.3804(3)
H37 H 0.87310 0.67830 0.42610
H38 H 0.87620 0.68940 0.34310
H39 H 0.85520 0.64310 0.36980
C42 C 0.81388(14) 0.6774(2) 0.2573(2)
H40 H 0.79700 0.68310 0.21960
H41 H 0.81300 0.64350 0.27170
H42 H 0.83710 0.68500 0.23980
C43 C 0.73338(12) 0.80142(17) 0.3917(2)
H43 H 0.72060 0.80020 0.34690
H44 H 0.74130 0.83450 0.40040
H45 H 0.71820 0.79120 0.43050
C44 C 0.77751(11) 0.78679(16) 0.5204(2)
H46 H 0.75630 0.80560 0.51420
H47 H 0.79620 0.80810 0.53650
H48 H 0.77360 0.76150 0.55580
C45 C 0.71137(12) 0.7500(2) 0.2500(2)
C46 C 0.69280(13) 0.7912(3) 0.2250(2)
C47 C 0.65615(13) 0.7921(3) 0.2258(3)
C48 C 0.63833(12) 0.7500(3) 0.2500(3)
C49 C 0.7135(4) 0.8371(6) 0.2002(9)
H49 H 0.69720 0.86210 0.18490
H50 H 0.72870 0.82840 0.16070
H51 H 0.72740 0.84930 0.23970
C50 C 0.6340(3) 0.8370(5) 0.2034(8)
H52 H 0.64940 0.86310 0.18810
H53 H 0.62010 0.84790 0.24380
H54 H 0.61870 0.82810 0.16420
C51 C 0.59785(12) 0.7500(4) 0.2500(3)
C52 C 0.83068(14) 0.7500(3) 0.7500(2)
C53 C 0.79076(14) 0.7500(2) 0.7500(2)
C54 C 0.77261(14) 0.7090(3) 0.7745(2)
C55 C 0.73560(14) 0.7093(3) 0.7766(2)
C56 C 0.71682(14) 0.7500(3) 0.7500(2)
C57 C 0.79335(16) 0.6625(3) 0.7978(2)
H55 H 0.81820 0.66860 0.79310
H56 H 0.78680 0.63530 0.76760
H57 H 0.78800 0.65490 0.84730
C58 C 0.71733(16) 0.6640(3) 0.8083(2)
H58 H 0.73480 0.64050 0.82340
H59 H 0.70240 0.64940 0.77230
H60 H 0.70330 0.67360 0.84920
C59 C 0.65463(17) 0.7425(3) 0.8255(3)
C60 C 0.66404(15) 0.7706(3) 0.8854(3)
C61 C 0.64599(16) 0.7648(2) 0.9503(3)
C62 C 0.61853(16) 0.7311(2) 0.9553(3)
C63 C 0.60912(16) 0.7031(2) 0.8954(3)
C64 C 0.62717(17) 0.7088(3) 0.8305(3)
C65 C 0.6918(2) 0.8118(4) 0.8820(5)
H61 H 0.70250 0.81220 0.83490
H62 H 0.70960 0.80600 0.91800
H63 H 0.68070 0.84290 0.89100
C66 C 0.6553(2) 0.7978(3) 1.0153(4)
H64 H 0.67470 0.81880 1.00280
H65 H 0.66170 0.77750 1.05580
H66 H 0.63530 0.81760 1.02790
C67 C 0.5781(2) 0.6642(4) 0.9019(5)
H67 H 0.56860 0.66500 0.95000
H68 H 0.58700 0.63180 0.89180
H69 H 0.55990 0.67220 0.86770
C68 C 0.6157(3) 0.6756(4) 0.7665(4)
H70 H 0.59640 0.65510 0.78130
H71 H 0.63520 0.65520 0.75190
H72 H 0.60850 0.69580 0.72660
C69 C 0.6000(2) 0.7244(4) 1.0256(3)
C70 C 1.0355(6) 0.5530(8) 0.5172(13)
H73 H 1.04030 0.53440 0.47420
H74 H 1.01100 0.56220 0.51810
H75 H 1.04080 0.53340 0.55900
C71 C 1.0758(6) 0.6106(8) 0.4584(12)
H76 H 1.07560 0.58490 0.42270
H77 H 1.09960 0.61730 0.47280
H78 H 1.06550 0.63980 0.43820
C72 C 1.0529(5) 0.6293(8) 0.5795(10)
H79 H 1.04040 0.61900 0.62010
C73 C 0.9505(4) 0.75000 0.75000
O1 O 0.9906(2) 0.6793(3) 0.5552(5)
O2 O 0.9347(2) 0.6986(3) 0.5321(5)
O3 O 0.9724(3) 0.3218(3) 0.2808(6)
O4 O 0.9792(3) 0.3277(3) 0.1631(6)
O5 O 0.9370(2) 0.6917(3) -0.0514(5)
O6 O 0.9931(2) 0.7128(3) -0.0312(4)
O7 O 0.8528(3) 0.7001(4) 0.5419(5)
O8 O 0.8582(3) 0.7791(4) 0.5219(6)
O9 O 0.5823(2) 0.7399(3) 0.1917(4)
O10 O 0.8452(2) 0.7493(4) 0.6900(5)
O11 O 0.6209(3) 0.7111(5) 1.0812(6)
O12 O 0.5690(3) 0.7308(5) 1.0327(5)
O13 O 1.0661(3) 0.6712(5) 0.5786(7)
O14 O 0.8910(3) 0.8393(4) 0.6644(6)
O15 O 0.9165(3) 0.75000 0.75000
O16 O 0.9657(2) 0.7461(3) 0.6890(4)
O17 O 0.8937(3) 0.6600(4) 0.6748(6)
N1 N 1.0565(4) 0.5959(6) 0.5177(8)
B1 B 0.9675(4) 0.5634(5) 0.2442(8)
B2 B 0.7532(6) 0.75000 0.25000
B3 B 0.6750(6) 0.75000 0.75000
C74 C 0.8721(11) 0.8947(17) 0.540(3)
H80 H 0.86220 0.92050 0.51130
H81 H 0.85340 0.87540 0.56100
H82 H 0.88670 0.87400 0.51100
C75 C 0.9205(11) 0.9536(16) 0.573(3)
H83 H 0.93420 0.96650 0.61210
H84 H 0.90840 0.98010 0.54900
H85 H 0.93580 0.93750 0.53880
N2 N 0.8942(13) 0.9173(13) 0.6013(19)
C76 C 0.9103(9) 0.8770(12) 0.648(3)
H86 H 0.93360 0.87920 0.66340
N3 N 0.7964(10) 0.6246(13) 0.592(2)
C77 C 0.8344(11) 0.6066(17) 0.602(2)
H87 H 0.84230 0.61450 0.64970
H88 H 0.84930 0.62240 0.56690
H89 H 0.83520 0.57160 0.59490
C78 C 0.7799(11) 0.6139(19) 0.519(2)
H90 H 0.75610 0.62610 0.51800
H91 H 0.77980 0.57910 0.51030
H92 H 0.79330 0.63000 0.48150
O18 O 0.678(2) 0.604(4) 1.005(5)
O19? O 0.660(3) 0.560(4) 0.978(6)
C34B C 0.8444(3) 0.7620(4) -0.0070(4)
C35B C 0.81811(9) 0.7659(2) 0.0537(2)
C36B C 0.82675(10) 0.7919(2) 0.1159(2)
C37B C 0.80515(11) 0.7891(2) 0.1765(2)
C38B C 0.77492(10) 0.76018(18) 0.1749(2)
C39B C 0.76628(10) 0.73410(16) 0.1127(2)
C40B C 0.78787(9) 0.73694(16) 0.0520(2)
C41B C 0.86110(12) 0.8233(3) 0.1196(3)
H37B H 0.87310 0.82170 0.07390
H38B H 0.87620 0.81060 0.15690
H39B H 0.85520 0.85690 0.13020
C42B C 0.81388(14) 0.8226(2) 0.2427(2)
H40B H 0.79700 0.81690 0.28040
H41B H 0.81300 0.85650 0.22830
H42B H 0.83710 0.81500 0.26020
C43B C 0.73338(12) 0.69858(17) 0.1083(2)
H43B H 0.72060 0.69980 0.15310
H44B H 0.74130 0.66550 0.09960
H45B H 0.71820 0.70880 0.06950
C44B C 0.77751(11) 0.71321(16) -0.0204(2)
H46B H 0.75630 0.69440 -0.01420
H47B H 0.79620 0.69190 -0.03650
H48B H 0.77360 0.73850 -0.05580
C46B C 0.69280(13) 0.7088(3) 0.2750(2)
C47B C 0.65615(13) 0.7079(3) 0.2742(3)
C49B C 0.7135(4) 0.6629(6) 0.2998(9)
H49B H 0.69720 0.63790 0.31510
H50B H 0.72870 0.67160 0.33930
H51B H 0.72740 0.65070 0.26030
C50B C 0.6340(3) 0.6630(5) 0.2966(8)
H52B H 0.64940 0.63690 0.31190
H53B H 0.62010 0.65210 0.25620
H54B H 0.61870 0.67190 0.33580
O7B O 0.8528(3) 0.7999(4) -0.0419(5)
O8B O 0.8582(3) 0.7209(4) -0.0219(6)
O9B O 0.5823(2) 0.7601(3) 0.3083(4)
C54B C 0.77261(14) 0.7910(3) 0.7255(2)
C55B C 0.73560(14) 0.7907(3) 0.7234(2)
C57B C 0.79335(16) 0.8375(3) 0.7022(2)
H55B H 0.81820 0.83140 0.70690
H56B H 0.78680 0.86470 0.73240
H57B H 0.78800 0.84510 0.65270
C58B C 0.71733(16) 0.8360(3) 0.6917(2)
H58B H 0.73480 0.85950 0.67660
H59B H 0.70240 0.85060 0.72770
H60B H 0.70330 0.82640 0.65080
C59B C 0.65463(17) 0.7575(3) 0.6745(3)
C60B C 0.66404(15) 0.7294(3) 0.6146(3)
C61B C 0.64599(16) 0.7352(2) 0.5497(3)
C62B C 0.61853(16) 0.7689(2) 0.5447(3)
C63B C 0.60912(16) 0.7969(2) 0.6046(3)
C64B C 0.62717(17) 0.7912(3) 0.6695(3)
C65B C 0.6918(2) 0.6882(4) 0.6180(5)
H61B H 0.70250 0.68780 0.66510
H62B H 0.70960 0.69400 0.58200
H63B H 0.68070 0.65710 0.60900
C66B C 0.6553(2) 0.7022(3) 0.4847(4)
H64B H 0.67470 0.68120 0.49720
H65B H 0.66170 0.72250 0.44420
H66B H 0.63530 0.68240 0.47210
C67B C 0.5781(2) 0.8358(4) 0.5981(5)
H67B H 0.56860 0.83500 0.55000
H68B H 0.58700 0.86820 0.60820
H69B H 0.55990 0.82780 0.63230
C68B C 0.6157(3) 0.8244(4) 0.7335(4)
H70B H 0.59640 0.84490 0.71870
H71B H 0.63520 0.84480 0.74810
H72B H 0.60850 0.80420 0.77340
C69B C 0.6000(2) 0.7756(4) 0.4744(3)
O10B O 0.8452(2) 0.7507(4) 0.8100(5)
O11B O 0.6209(3) 0.7889(5) 0.4188(6)
O12B O 0.5690(3) 0.7692(5) 0.4673(5)
O16B O 0.9657(2) 0.7539(3) 0.8110(4)
La1B La 1.023392(16) 0.75913(2) -0.12619(3)
La2B La 0.900568(17) 0.75149(3) -0.11948(4)
C1B C 0.9634(3) 0.8225(4) -0.0166(6)
C2B C 0.96486(15) 0.85262(19) 0.0525(3)
C3B C 0.98831(13) 0.83971(17) 0.1071(3)
C4B C 0.98994(13) 0.86754(18) 0.1701(3)
C5B C 0.96812(15) 0.90828(18) 0.1786(3)
C6B C 0.94467(13) 0.92119(16) 0.1240(3)
C7B C 0.94304(13) 0.89336(18) 0.0609(3)
C8B C 1.0110(2) 0.7918(2) 0.1017(4)
H1B H 1.00720 0.77660 0.05540
H2B H 1.00420 0.76940 0.13940
H3B H 1.03550 0.80000 0.10680
C9B C 1.01859(19) 0.8542(3) 0.2253(4)
H4B H 1.03070 0.82500 0.20970
H5B H 1.00790 0.84840 0.27160
H6B H 1.03510 0.88090 0.22910
C10B C 0.91702(19) 0.9618(2) 0.1356(4)
H7B H 0.92130 0.97790 0.18100
H8B H 0.89390 0.94740 0.13600
H9B H 0.91860 0.98540 0.09700
C11B C 0.9190(2) 0.9098(3) -0.0029(3)
H10B H 0.90560 0.93830 0.01130
H11B H 0.90310 0.88350 -0.01520
H12B H 0.93330 0.91780 -0.04410
C12B C 0.96943(15) 0.99589(14) 0.2594(3)
C13B C 0.99691(13) 1.02128(16) 0.2265(3)
C14B C 0.99888(12) 1.07225(16) 0.2323(3)
C15B C 0.97337(13) 1.09784(14) 0.2710(3)
C16B C 0.94589(12) 1.07245(16) 0.3040(3)
C17B C 0.94392(13) 1.02147(16) 0.2982(3)
C18B C 1.02702(18) 0.9940(2) 0.1856(4)
H13B H 1.02240 0.95920 0.18560
H14B H 1.04910 1.00020 0.20940
H15B H 1.02820 1.00560 0.13670
C19B C 1.03053(16) 1.1011(2) 0.2001(4)
H16B H 1.02750 1.13560 0.20920
H17B H 1.03170 1.09540 0.14890
H18B H 1.05200 1.09000 0.22240
C20B C 0.91727(16) 1.1012(2) 0.3461(4)
H19B H 0.92260 1.13580 0.34480
H20B H 0.91680 1.09010 0.39540
H21B H 0.89470 1.09560 0.32410
C21B C 0.91232(17) 0.9951(2) 0.3341(4)
H22B H 0.89780 1.01900 0.35820
H23B H 0.92080 0.97160 0.36870
H24B H 0.89870 0.97850 0.29770
C22B C 0.97498(19) 1.15372(14) 0.2760(5)
C23B C 0.96579(13) 0.90439(15) 0.3292(2)
C24B C 0.98713(13) 0.91553(16) 0.3881(2)
C25B C 0.98703(11) 0.88515(15) 0.4486(2)
C26B C 0.96560(12) 0.84363(15) 0.4502(2)
C27B C 0.94426(11) 0.83249(14) 0.3913(2)
C28B C 0.94436(11) 0.86287(14) 0.3308(2)
C29B C 1.01484(19) 0.9573(2) 0.3864(3)
H25B H 1.01240 0.97570 0.34240
H26B H 1.03810 0.94330 0.38890
H27B H 1.01120 0.97880 0.42700
C30B C 1.00844(14) 0.8989(2) 0.5172(3)
H28B H 1.00530 0.87380 0.55330
H29B H 1.00030 0.92990 0.53570
H30B H 1.03300 0.90140 0.50500
C31B C 0.92296(16) 0.78401(18) 0.3897(3)
H31B H 0.92550 0.76730 0.43510
H32B H 0.93160 0.76340 0.35150
H33B H 0.89850 0.79130 0.38150
C32B C 0.91649(12) 0.85236(19) 0.2722(2)
H34B H 0.91910 0.87550 0.23330
H35B H 0.89330 0.85550 0.29270
H36B H 0.91960 0.81950 0.25400
C33B C 0.96521(18) 0.8101(2) 0.5160(2)
C70B C 1.0355(6) 0.9470(8) -0.0172(13)
H73B H 1.04030 0.96560 0.02580
H74B H 1.01100 0.93780 -0.01810
H75B H 1.04080 0.96660 -0.05900
C71B C 1.0758(6) 0.8894(8) 0.0416(12)
H76B H 1.07560 0.91510 0.07730
H77B H 1.09960 0.88270 0.02720
H78B H 1.06550 0.86020 0.06180
C72B C 1.0529(5) 0.8707(8) -0.0795(10)
H79B H 1.04040 0.88100 -0.12010
O1B O 0.9906(2) 0.8207(3) -0.0552(5)
O2B O 0.9347(2) 0.8014(3) -0.0321(5)
O3B O 0.9724(3) 1.1782(3) 0.2192(6)
O4B O 0.9792(3) 1.1723(3) 0.3369(6)
O5B O 0.9370(2) 0.8083(3) 0.5514(5)
O6B O 0.9931(2) 0.7872(3) 0.5312(4)
O13B O 1.0661(3) 0.8288(5) -0.0786(7)
O14B O 0.8910(3) 0.6607(4) -0.1644(6)
O17B O 0.8937(3) 0.8400(4) -0.1748(6)
N1B N 1.0565(4) 0.9041(6) -0.0177(8)
B1B B 0.9675(4) 0.9366(5) 0.2558(8)
C74B C 0.8721(11) 0.6053(17) -0.040(3)
H80B H 0.86220 0.57950 -0.01130
H81B H 0.85340 0.62460 -0.06100
H82B H 0.88670 0.62600 -0.01100
C75B C 0.9205(11) 0.5464(16) -0.073(3)
H83B H 0.93420 0.53350 -0.11210
H84B H 0.90840 0.51990 -0.04900
H85B H 0.93580 0.56250 -0.03880
N2B N 0.8942(13) 0.5827(13) -0.1013(19)
C76B C 0.9103(9) 0.6230(12) -0.148(3)
H86B H 0.93360 0.62080 -0.16340
La1B* La 1.023392(16) 0.75913(2) 0.87381(3)
La1D La 0.976608(16) 0.25913(2) 0.37381(3)
La1D* La 0.976608(16) 1.25913(2) 0.37381(3)
La1E La 0.523392(16) 0.74087(2) 0.37381(3)
La1F La 0.976608(16) 0.24087(2) 0.12619(3)
La1F* La 0.976608(16) 1.24087(2) 0.12619(3)
La1G La 0.523392(16) 0.75913(2) 0.12619(3)
La1G* La 0.523392(16) 0.75913(2) 1.12619(3)
La2B* La 0.900568(17) 0.75149(3) 0.88052(4)
O3D O 1.0276(3) 0.6782(3) 0.7192(6)
O3F O 1.0276(3) 0.8218(3) -0.2192(6)
O4D O 1.0208(3) 0.6723(3) -0.1631(6)
O4F O 1.0208(3) 0.8277(3) 0.6631(6)
O9E O 1.0823(2) 0.7399(3) -0.1917(4)
O9G O 1.0823(2) 0.7601(3) 0.6917(4)
O10B* O 0.8452(2) 0.7507(4) -0.1900(5)
O12E O 1.0690(3) 0.7308(5) -0.0327(5)
O12G O 1.0690(3) 0.7692(5) 0.5327(5)
O15* O 0.9165(3) 0.75000 -0.25000
O16B* O 0.9657(2) 0.7539(3) -0.1890(4)
#END
