
#######################################################################
#
#                 Cambridge Crystallographic Data Centre
#                                CCDC
#
#######################################################################
#
# If this CIF has been generated from an entry in the Cambridge
# Structural Database, then it will include bibliographic, chemical,
# crystal, experimental, refinement or atomic coordinate data resulting
# from the CCDC's data processing and validation procedures.
#
#######################################################################

data_CSD_CIF_CINLAP
_audit_creation_date 2018-11-23
_audit_creation_method CSD-ConQuest-V1
_database_code_CSD CINLAP
_database_code_depnum_ccdc_archive 'CCDC 1569151'
_chemical_formula_sum 'C28 H48 Gd4 N24 O42'
_chemical_formula_moiety
;
(C16 H8 Gd4 O36 4-)n,4(C3 H7 N6 1+),6(H2 O1)
;
_journal_coden_Cambridge 29
_journal_volume 643
_journal_year 2017
_journal_page_first 1712
_journal_name_full 'Z.Anorg.Allg.Chem. '
loop_
_publ_author_name
"L.Vella-Zarb"
"U.Baisch"
_chemical_name_systematic
;
catena-[tetrakis(2,4,6-triamino-1,3,5-triazin-1-ium) 
octakis(\m-oxalato)-tetrakis(aqua)-tetra-gadolinium(iii) hexahydrate]
;
_chemical_name_common
;
catena-[tetrakis(melaminium) 
octakis(mu-oxalato)-tetrakis(aqua)-tetra-gadolinium(iii) hexahydrate]
;
_cell_volume   2854.713
_exptl_crystal_colour 'colorless'
_exptl_crystal_description 'block'
_diffrn_ambient_temperature 150.2
#These two values have been output from a single CSD field.
_refine_ls_R_factor_gt 0.0522
_refine_ls_wR_factor_gt 0.0522
_symmetry_cell_setting monoclinic
_symmetry_space_group_name_H-M 'P 21/c'
_symmetry_Int_Tables_number 14
loop_
_symmetry_equiv_pos_site_id
_symmetry_equiv_pos_as_xyz
1 x,y,z
2 -x,1/2+y,1/2-z
3 -x,-y,-z
4 x,-1/2-y,-1/2+z
_cell_length_a 9.9174(5)
_cell_length_b 35.3475(12)
_cell_length_c 8.5763(5)
_cell_angle_alpha 90
_cell_angle_beta 108.282(5)
_cell_angle_gamma 90
_cell_formula_units_Z 2
loop_
_atom_type_symbol
_atom_type_radius_bond
C 0.68
H 0.23
Gd 1.96
N 0.68
O 0.68
loop_
_atom_site_label
_atom_site_type_symbol
_atom_site_fract_x
_atom_site_fract_y
_atom_site_fract_z
Gd1 Gd 0.95252(6) 0.43551(2) 0.73105(8)
O1 O 0.6948(7) 0.4333(2) 0.6357(10)
H1 H 0.66747 0.41193 0.65610
H2 H 0.677(12) 0.455(3) 0.652(15)
Gd2 Gd 1.14421(6) 0.31682(2) 1.29548(8)
O2 O 1.4017(7) 0.3211(2) 1.3733(9)
H3 H 1.43981 0.32565 1.48198
H4 H 1.42802 0.34165 1.32724
O3 O 1.1154(7) 0.4213(2) 1.0019(9)
O4 O 0.8862(7) 0.3802(2) 0.8497(9)
O5 O 0.9660(7) 0.3335(2) 1.0354(9)
O6 O 1.1932(7) 0.3767(2) 1.1926(9)
C1 C 1.1061(11) 0.3902(3) 1.0632(15)
C2 C 0.9770(11) 0.3654(3) 0.9789(15)
O7 O 1.2542(7) 0.2604(2) 1.4403(10)
O8 O 1.0153(7) 0.2871(2) 1.4750(9)
O9 O 1.0143(7) 0.2396(2) 1.6473(9)
O10 O 1.2410(7) 0.20988(19) 1.5911(9)
C3 C 1.2002(11) 0.2412(3) 1.5256(14)
C4 C 1.0627(11) 0.2576(3) 1.5514(15)
O11 O 0.9566(7) 0.3583(2) 0.3275(9)
O12 O 1.2166(7) 0.3546(2) 0.5450(9)
O13 O 1.1443(8) 0.3901(2) 0.7204(10)
O14 O 0.8839(7) 0.3941(2) 0.5003(9)
C5 C 0.9740(11) 0.3750(3) 0.4577(15)
C6 C 1.1274(11) 0.3740(3) 0.5878(15)
O15 O 1.0974(7) 0.49082(19) 0.8651(9)
O16 O 1.1386(7) 0.53256(19) 1.0718(9)
C7 C 1.0687(11) 0.5065(3) 0.9798(16)
O17 O 1.0919(7) 0.4580(2) 0.5612(9)
O18 O 1.1446(7) 0.5076(2) 0.4288(9)
C8 C 1.0699(11) 0.4897(3) 0.4989(14)
O19 O 0.5971(9) 0.3723(2) 0.3369(11)
O20 O 0.5105(9) 0.3774(2) 0.6747(11)
O21 O 1.4011(9) 0.3598(3) 0.9734(12)
C9 C 0.5522(11) 0.2264(3) 0.2946(14)
N1 N 0.5675(9) 0.2640(2) 0.2739(12)
C10 C 0.6689(11) 0.2742(3) 0.2120(15)
N2 N 0.7473(9) 0.2472(2) 0.1632(11)
H5 H 0.80976 0.25416 0.11509
C11 C 0.729(1) 0.2103(3) 0.1887(14)
N3 N 0.6323(9) 0.1982(3) 0.2551(12)
N4 N 0.4535(10) 0.2150(3) 0.3538(12)
H6 H 0.39803 0.23168 0.37972
H7 H 0.44217 0.19074 0.36803
N5 N 0.6981(9) 0.3100(3) 0.1928(12)
H8 H 0.64950 0.32808 0.22154
H9 H 0.76606 0.31584 0.15130
N6 N 0.8070(9) 0.1853(3) 0.1387(12)
H10 H 0.79442 0.16096 0.14967
H11 H 0.87107 0.19320 0.09473
C12 C 0.5693(11) 0.5316(3) 0.7330(14)
N7 N 0.5377(9) 0.4934(3) 0.7181(13)
C13 C 0.4311(12) 0.4823(3) 0.7686(15)
N8 N 0.3557(9) 0.5082(3) 0.8307(12)
H12 H 0.28091 0.50096 0.85728
C14 C 0.3986(12) 0.5446(3) 0.8496(14)
N9 N 0.5047(9) 0.5575(3) 0.8013(11)
N10 N 0.6699(9) 0.5429(3) 0.6760(11)
H13 H 0.69432 0.56693 0.68243
H14 H 0.71335 0.52651 0.63102
N11 N 0.3938(10) 0.4471(3) 0.7672(14)
H15 H 0.44013 0.42955 0.73167
H16 H 0.32225 0.44069 0.80171
N12 N 0.3302(10) 0.5684(3) 0.9186(13)
H17 H 0.35554 0.59234 0.93181
H18 H 0.25969 0.56017 0.95116
H19? H 0.657(12) 0.389(3) 0.385(18)
H20? H 0.537(10) 0.3570(17) 0.718(12)
H21? H 1.335(8) 0.365(3) 0.887(9)
O15B O 0.9026(7) 0.50918(19) 1.1349(9)
O16B O 0.8614(7) 0.46744(19) 0.9282(9)
C7B C 0.9313(11) 0.4935(3) 1.0202(16)
O17B O 0.9081(7) 0.5420(2) 0.4388(9)
O18B O 0.8554(7) 0.4924(2) 0.5712(9)
C8B C 0.9301(11) 0.5103(3) 0.5011(14)
Gd1B Gd 1.04748(6) 0.56449(2) 0.26895(8)
O1B O 1.3052(7) 0.5667(2) 0.3643(10)
H1B H 1.33253 0.58807 0.34390
H2B H 1.323(12) 0.545(3) 0.348(15)
Gd2B Gd 0.85579(6) 0.68318(2) -0.29548(8)
O2B O 0.5983(7) 0.6789(2) -0.3733(9)
H3B H 0.56019 0.67435 -0.48198
H4B H 0.57198 0.65835 -0.32724
O3B O 0.8846(7) 0.5787(2) -0.0019(9)
O4B O 1.1138(7) 0.6198(2) 0.1503(9)
O5B O 1.0340(7) 0.6665(2) -0.0354(9)
O6B O 0.8068(7) 0.6233(2) -0.1926(9)
C1B C 0.8939(11) 0.6098(3) -0.0632(15)
C2B C 1.0230(11) 0.6346(3) 0.0211(15)
O7B O 0.7458(7) 0.7396(2) -0.4403(10)
O8B O 0.9847(7) 0.7129(2) -0.4750(9)
O9B O 0.9857(7) 0.7604(2) -0.6473(9)
O10B O 0.7590(7) 0.79012(19) -0.5911(9)
C3B C 0.7998(11) 0.7588(3) -0.5256(14)
C4B C 0.9373(11) 0.7424(3) -0.5514(15)
O11B O 1.0434(7) 0.6417(2) 0.6725(9)
O12B O 0.7834(7) 0.6454(2) 0.4550(9)
O13B O 0.8557(8) 0.6099(2) 0.2796(10)
O14B O 1.1161(7) 0.6059(2) 0.4997(9)
C5B C 1.0260(11) 0.6250(3) 0.5423(15)
C6B C 0.8726(11) 0.6260(3) 0.4122(15)
Gd1B* Gd 1.04748(6) 0.56449(2) 1.26895(8)
Gd2* Gd 1.14421(6) 0.31682(2) 0.29548(8)
Gd2A Gd 0.85579(6) 0.81682(2) -0.79548(8)
Gd2B* Gd 0.85579(6) 0.68318(2) 0.70452(8)
Gd2C Gd 1.14421(6) 0.18318(2) 1.79548(8)
O9A O 0.9857(7) 0.7396(2) -0.1473(9)
O9C O 1.0143(7) 0.2604(2) 1.1473(9)
O10A O 0.7590(7) 0.70988(19) -0.0911(9)
O10C O 1.2410(7) 0.29012(19) 1.0911(9)
O11* O 0.9566(7) 0.3583(2) 1.3275(9)
O11B* O 1.0434(7) 0.6417(2) -0.3275(9)
O12* O 1.2166(7) 0.3546(2) 1.5450(9)
O12B* O 0.7834(7) 0.6454(2) -0.5450(9)
O15B* O 0.9026(7) 0.50918(19) 0.1349(9)
O16* O 1.1386(7) 0.53256(19) 0.0718(9)
#END
