
#######################################################################
#
#                 Cambridge Crystallographic Data Centre
#                                CCDC
#
#######################################################################
#
# If this CIF has been generated from an entry in the Cambridge
# Structural Database, then it will include bibliographic, chemical,
# crystal, experimental, refinement or atomic coordinate data resulting
# from the CCDC's data processing and validation procedures.
#
#######################################################################

data_CSD_CIF_CINYUV
_audit_creation_date 2013-11-21
_audit_creation_method CSD-ConQuest-V1
_database_code_CSD CINYUV
_database_code_depnum_ccdc_archive 'CCDC 957892'
_chemical_formula_sum 'C38 H47 Co1 Mo5 N6 O28 P2'
_chemical_formula_moiety
;
(C30 H24 Co1 N6)n,n(C8 H8 Mo5 O21 P2 1-),6n(H2 O1),n(H3 O1 1+)
;
_journal_coden_Cambridge 1350
_journal_volume 16
_journal_year 2014
_journal_page_first 191
_journal_name_full 'CrystEngComm '
loop_
_publ_author_name
"T.M.Smith"
"K.Perkins"
"D.Symester"
"S.R.Freund"
"J.Vargas"
"L.Spinu"
"J.Zubieta"
_chemical_name_systematic
;
catena-[oxonium tris(2,2'-bipyridine)-cobalt 
(\m~10~-(4-(phosphonomethyl)benzyl)phosphonato)-pentakis(\m~2~-oxo)-decaoxo-pe
nta-molybdenum hexahydrate]
;
_cell_volume   5163.989
_exptl_crystal_colour 'orange'
_exptl_crystal_density_diffrn 2.106
_exptl_crystal_description 'rod'
_diffrn_ambient_temperature 90
_refine_special_details
;
O95B and O95A disordered over two sites with occupancies 0.66:0.34.

;
#These two values have been output from a single CSD field.
_refine_ls_R_factor_gt 0.0377
_refine_ls_wR_factor_gt 0.0377
_symmetry_cell_setting orthorhombic
_symmetry_space_group_name_H-M 'P 21 21 21'
_symmetry_Int_Tables_number 19
loop_
_symmetry_equiv_pos_site_id
_symmetry_equiv_pos_as_xyz
1 x,y,z
2 1/2-x,-y,1/2+z
3 -x,1/2+y,1/2-z
4 1/2+x,1/2-y,-z
_cell_length_a 14.574(3)
_cell_length_b 17.358(3)
_cell_length_c 20.413(4)
_cell_angle_alpha 90
_cell_angle_beta 90
_cell_angle_gamma 90
_cell_formula_units_Z 4
loop_
_atom_type_symbol
_atom_type_radius_bond
C 0.68
H 0.23
Co 1.26
Mo 1.54
N 0.68
O 0.68
P 1.05
loop_
_atom_site_label
_atom_site_type_symbol
_atom_site_fract_x
_atom_site_fract_y
_atom_site_fract_z
Mo1 Mo 0.46730(5) 1.05527(4) 0.04360(3)
Mo2 Mo 0.41800(5) 1.20117(4) 0.14679(4)
Mo3 Mo 0.22436(5) 1.16188(4) 0.22870(4)
Mo4 Mo 0.12277(5) 0.99822(4) 0.15184(3)
Mo5 Mo 0.31402(5) 0.91297(4) 0.06053(4)
P1 P 0.36256(15) 1.01276(13) 0.19342(10)
P2 P 0.25662(15) 0.88578(12) 0.56068(11)
O1 O 0.4377(4) 0.9494(3) 0.0505(3)
O2 O 0.4729(4) 1.0668(3) -0.0396(3)
O3 O 0.5791(4) 1.0493(3) 0.0668(3)
O4 O 0.4447(4) 1.1638(3) 0.0616(3)
O5 O 0.4252(4) 1.0667(3) 0.1541(3)
O6 O 0.5239(4) 1.2070(4) 0.1821(3)
O7 O 0.3912(4) 1.2943(3) 0.1296(3)
O8 O 0.3485(4) 1.1861(3) 0.2280(3)
O9 O 0.1708(4) 1.2490(3) 0.2193(3)
O10 O 0.2135(4) 1.1435(3) 0.3095(3)
O11 O 0.1088(4) 1.1042(3) 0.1960(3)
O12 O 0.2645(4) 1.0469(3) 0.1997(3)
O13 O 0.0149(4) 0.9870(3) 0.1215(3)
O14 O 0.1152(4) 0.9495(3) 0.2247(3)
O15 O 0.1936(4) 0.9305(3) 0.1018(3)
O16 O 0.3561(4) 0.9337(3) 0.1638(3)
O17 O 0.3348(4) 0.8179(3) 0.0735(3)
O18 O 0.2793(4) 0.9135(3) -0.0191(3)
O19 O 0.1854(4) 0.9502(3) 0.5503(3)
O20 O 0.2295(4) 0.8317(3) 0.6175(3)
O21 O 0.3497(4) 0.9216(3) 0.5725(3)
C1 C 0.4139(6) 1.0063(5) 0.2731(4)
H1 H 0.47680 0.98920 0.26730
H2 H 0.41640 1.05790 0.29120
C2 C 0.3697(6) 0.9547(5) 0.3235(4)
C3 C 0.2821(6) 0.9696(5) 0.3470(4)
H3 H 0.24710 1.00810 0.32760
C4 C 0.4182(6) 0.8953(5) 0.3525(4)
H4 H 0.47610 0.88300 0.33640
C5 C 0.2460(6) 0.9281(5) 0.3988(4)
H5 H 0.18710 0.93920 0.41360
C6 C 0.3834(6) 0.8537(5) 0.4044(4)
H6 H 0.41810 0.81450 0.42300
C7 C 0.2963(6) 0.8703(5) 0.4291(4)
C8 C 0.2599(6) 0.8280(5) 0.4882(4)
H7 H 0.29810 0.78320 0.49630
H8 H 0.19830 0.80990 0.47870
Co1 Co 0.77506(8) 0.91804(7) 0.89269(5)
N1 N 0.6430(5) 0.9270(4) 0.8920(3)
N2 N 0.7539(5) 0.8567(4) 0.9701(3)
N3 N 0.8000(5) 1.0024(4) 0.9513(3)
N4 N 0.9051(5) 0.9031(4) 0.8980(3)
N5 N 0.7967(5) 0.9797(4) 0.8151(3)
N6 N 0.7574(5) 0.8375(4) 0.8295(3)
C9 C 0.5921(6) 0.9562(5) 0.8440(4)
H9 H 0.62040 0.98490 0.81130
C10 C 0.4983(6) 0.9451(5) 0.8413(4)
H10 H 0.46410 0.96650 0.80750
C11 C 0.4555(6) 0.9016(5) 0.8899(4)
H11 H 0.39260 0.89270 0.88840
C12 C 0.5073(6) 0.8721(5) 0.9399(4)
H12 H 0.48030 0.84330 0.97310
C13 C 0.6017(6) 0.8862(4) 0.9400(4)
C14 C 0.6644(6) 0.8539(5) 0.9897(4)
C15 C 0.6379(6) 0.8262(5) 1.0493(4)
H13 H 0.57650 0.82670 1.06170
C16 C 0.7050(7) 0.7973(5) 1.0910(4)
H14 H 0.68920 0.77940 1.13250
C17 C 0.7959(6) 0.7953(5) 1.0704(4)
H15 H 0.84140 0.77380 1.09660
C18 C 0.8164(6) 0.8259(5) 1.0102(4)
H16 H 0.87720 0.82510 0.99640
C19 C 0.7383(6) 1.0499(5) 0.9767(4)
H17 H 0.67680 1.04250 0.96660
C20 C 0.7621(7) 1.1094(5) 1.0176(4)
H18 H 0.71710 1.14070 1.03590
C21 C 0.8537(6) 1.1224(5) 1.0312(4)
H19 H 0.87140 1.16380 1.05730
C22 C 0.9189(7) 1.0726(5) 1.0053(4)
H20 H 0.98080 1.07940 1.01480
C23 C 0.8907(6) 1.0133(5) 0.9656(4)
C24 C 0.9505(6) 0.9546(5) 0.9369(4)
C25 C 1.0448(6) 0.9484(5) 0.9470(4)
H21 H 1.07510 0.98330 0.97400
C26 C 1.0919(6) 0.8908(5) 0.9170(4)
H22 H 1.15490 0.88610 0.92300
C27 C 1.0448(6) 0.8387(6) 0.8771(4)
H23 H 1.07640 0.79930 0.85600
C28 C 0.9524(6) 0.8460(5) 0.8692(4)
H24 H 0.92130 0.81050 0.84330
C29 C 0.8124(6) 1.0556(5) 0.8127(4)
H25 H 0.80390 1.08540 0.85010
C30 C 0.8412(6) 1.0905(5) 0.7553(4)
H26 H 0.84990 1.14360 0.75410
C31 C 0.8568(6) 1.0476(5) 0.7006(4)
H27 H 0.87910 1.07040 0.66260
C32 C 0.8386(6) 0.9692(5) 0.7030(4)
H28 H 0.84770 0.93870 0.66610
C33 C 0.8074(6) 0.9372(5) 0.7598(4)
C34 C 0.7806(6) 0.8561(5) 0.7678(4)
C35 C 0.7756(6) 0.8039(5) 0.7168(4)
H29 H 0.79290 0.81790 0.67460
C36 C 0.7445(6) 0.7309(5) 0.7302(5)
H30 H 0.74240 0.69420 0.69710
C37 C 0.7166(6) 0.7123(5) 0.7919(4)
H31 H 0.69330 0.66360 0.80090
C38 C 0.7235(6) 0.7665(5) 0.8410(4)
H32 H 0.70430 0.75390 0.88310
O22 O 0.4835(5) 0.8130(4) 0.1982(3)
H33 H 0.453(6) 0.853(3) 0.203(4)
H34 H 0.493(7) 0.797(5) 0.237(2)
O23 O 0.9524(6) 0.3041(5) 0.4367(4)
H35 H 0.987(7) 0.305(6) 0.403(4)
H36 H 0.931(8) 0.349(3) 0.442(6)
O24 O 0.9587(6) 0.3605(4) 0.1703(3)
H37 H 0.926(7) 0.388(5) 0.194(4)
H38 H 0.954(8) 0.380(5) 0.132(2)
O25 O 0.9836(5) 0.1968(4) 0.1491(3)
H39 H 0.961(7) 0.155(3) 0.158(4)
H40 H 0.983(7) 0.225(4) 0.182(3)
O26 O 0.0421(7) 0.2577(5) 0.0356(4)
H41 H 0.005(6) 0.281(5) 0.012(5)
H42 H 0.070(7) 0.283(5) 0.064(4)
O27? O 0.1656(16) 0.3304(14) 0.1059(11)
O28 O 0.1340(9) 0.3612(8) 0.1265(6)
O29 O 0.039(1) 0.3169(7) 0.3104(5)
H43 H 0.030(13) 0.276(5) 0.333(6)
H44 H 0.060(12) 0.302(8) 0.273(4)
Mo1A Mo 0.03270(5) 0.94473(4) 0.54360(3)
Mo2A Mo 0.08200(5) 0.79883(4) 0.64679(4)
Mo3A Mo 0.27564(5) 0.83812(4) 0.72870(4)
Mo4A Mo 0.37723(5) 1.00178(4) 0.65184(3)
Mo5A Mo 0.18598(5) 1.08703(4) 0.56053(4)
O19A O 0.3146(4) 1.0498(3) 0.0503(3)
O20A O 0.2705(4) 1.1683(3) 0.1175(3)
O21A O 0.1503(4) 1.0784(3) 0.0725(3)
#END
