
#######################################################################
#
#                 Cambridge Crystallographic Data Centre
#                                CCDC
#
#######################################################################
#
# If this CIF has been generated from an entry in the Cambridge
# Structural Database, then it will include bibliographic, chemical,
# crystal, experimental, refinement or atomic coordinate data resulting
# from the CCDC's data processing and validation procedures.
#
#######################################################################

data_CSD_CIF_CINYIJ
_audit_creation_date 2013-11-21
_audit_creation_method CSD-ConQuest-V1
_database_code_CSD CINYIJ
_database_code_depnum_ccdc_archive 'CCDC 957890'
_chemical_formula_sum 'C28 H30 Mo5 N6 O21 P2'
_chemical_formula_moiety
;
(C8 H8 Mo5 O21 P2 4-)n,2n(C10 H11 N3 2+)
;
_journal_coden_Cambridge 1350
_journal_volume 16
_journal_year 2014
_journal_page_first 191
_journal_name_full 'CrystEngComm '
loop_
_publ_author_name
"T.M.Smith"
"K.Perkins"
"D.Symester"
"S.R.Freund"
"J.Vargas"
"L.Spinu"
"J.Zubieta"
_chemical_name_systematic
;
catena-[bis(4,4'-iminodipyridinium) 
(\m~10~-(3-(phosphonomethyl)benzyl)phosphonato)-pentakis(\m~2~-oxo)-decaoxo-pe
nta-molybdenum]
;
_cell_volume   2990.867
_exptl_crystal_colour 'green'
_exptl_crystal_density_diffrn 2.212
_exptl_crystal_description 'block'
_diffrn_ambient_temperature 90
#These two values have been output from a single CSD field.
_refine_ls_R_factor_gt 0.0338
_refine_ls_wR_factor_gt 0.0338
_symmetry_cell_setting hexagonal
_symmetry_space_group_name_H-M 'P 32'
_symmetry_Int_Tables_number 145
loop_
_symmetry_equiv_pos_site_id
_symmetry_equiv_pos_as_xyz
1 x,y,z
2 -y,x-y,2/3+z
3 -x+y,-x,1/3+z
_cell_length_a 11.1778(7)
_cell_length_b 11.1778(7)
_cell_length_c 27.6410(17)
_cell_angle_alpha 90
_cell_angle_beta 90
_cell_angle_gamma 120
_cell_formula_units_Z 3
loop_
_atom_type_symbol
_atom_type_radius_bond
C 0.68
H 0.23
Mo 1.54
N 0.68
O 0.68
P 1.05
loop_
_atom_site_label
_atom_site_type_symbol
_atom_site_fract_x
_atom_site_fract_y
_atom_site_fract_z
Mo1 Mo 1.15857(7) 0.71566(7) 0.31185(3)
Mo2 Mo 0.94565(8) 0.81303(7) 0.36164(3)
Mo3 Mo 0.67841(7) 0.53954(8) 0.41701(3)
Mo4 Mo 1.06339(7) 0.39100(7) 0.35212(3)
Mo5 Mo 0.70357(7) 0.25655(7) 0.39677(2)
P1 P 0.6806(3) 0.1897(2) 0.64054(7)
P2 P 1.0028(2) 0.5839(2) 0.42716(7)
O1 O 1.3067(7) 0.8529(7) 0.3339(2)
O2 O 1.1982(7) 0.7119(7) 0.2516(2)
O3 O 0.5587(8) 0.0402(6) 0.6419(2)
O4 O 1.1967(6) 0.5754(6) 0.3373(2)
O5 O 1.0399(7) 0.3137(7) 0.2967(2)
O6 O 1.1558(7) 0.3306(7) 0.3818(2)
O7 O 0.8809(6) 0.2773(6) 0.3777(2)
O8 O 1.0770(6) 0.5019(6) 0.4239(2)
O9 O 0.7012(7) 0.2063(7) 0.4553(2)
O10 O 0.5943(6) 0.3470(7) 0.4013(2)
O11 O 0.6269(8) 0.2878(6) 0.6520(2)
O12 O 0.8451(6) 0.4852(6) 0.4219(2)
O13 O 0.5506(7) 0.5660(8) 0.3945(3)
O14 O 1.0561(6) 0.6982(6) 0.3885(2)
O15 O 0.5899(7) 0.1041(7) 0.3696(2)
O16 O 0.8530(7) 0.8724(7) 0.3297(2)
O17 O 0.6559(7) 0.5327(7) 0.4779(2)
O18 O 0.7958(8) 0.2097(6) 0.6760(2)
O19 O 0.8328(6) 0.7290(6) 0.4166(2)
O20 O 1.0728(7) 0.9592(7) 0.3880(2)
O21 O 1.0409(7) 0.7919(6) 0.3064(2)
C1 C 0.7564(13) 0.2260(9) 0.5809(3)
H1 H 0.78090 0.15480 0.57260
H2 H 0.68630 0.21840 0.55740
C2 C 1.0306(9) 0.6687(8) 0.4853(3)
H3 H 1.12450 0.75070 0.48550
H4 H 0.96390 0.70200 0.48860
C3 C 1.0164(8) 0.5813(8) 0.5285(3)
C4 C 0.8955(9) 0.4524(9) 0.5362(3)
H5 H 0.81980 0.42190 0.51460
C5 C 0.8863(8) 0.3694(9) 0.5756(3)
C6 C 0.9979(9) 0.4175(9) 0.6077(3)
H6 H 0.99410 0.36120 0.63410
C7 C 1.1128(9) 0.5454(9) 0.6014(3)
H7 H 1.18590 0.57780 0.62430
C8 C 1.1243(9) 0.6282(9) 0.5622(3)
H8 H 1.20470 0.71610 0.55830
N1 N -0.1667(11) -0.2235(9) 0.1264(3)
H9 H -0.21240 -0.27810 0.10210
N2 N 0.0388(8) 0.0141(8) 0.2461(3)
H10 H -0.01820 0.02160 0.26620
N3 N 0.4392(8) 0.2125(8) 0.2963(3)
H11 H 0.52450 0.25490 0.30730
C9 C -0.0288(13) -0.1421(12) 0.1230(4)
H12 H 0.01820 -0.14270 0.09440
C10 C -0.2355(12) -0.2237(10) 0.1656(4)
H13 H -0.33350 -0.27730 0.16560
C11 C 0.0438(12) -0.0576(11) 0.1613(4)
H14 H 0.14040 0.00380 0.15820
C12 C -0.0219(10) -0.0608(9) 0.2045(3)
C13 C -0.1678(11) -0.1475(10) 0.2066(4)
H15 H -0.21770 -0.15320 0.23520
C14 C 0.1759(9) 0.0794(8) 0.2610(3)
C15 C 0.2811(11) 0.0671(10) 0.2379(3)
H16 H 0.26210 0.01070 0.21000
C16 C 0.2073(9) 0.1579(9) 0.3026(3)
H17 H 0.13700 0.16580 0.31910
C17 C 0.4107(10) 0.1381(10) 0.2565(4)
H18 H 0.48350 0.13390 0.24030
C18 C 0.3429(9) 0.2259(9) 0.3205(3)
H19 H 0.36580 0.28010 0.34910
N4 N 0.3991(9) -0.0816(9) 0.4390(3)
H20 H 0.41370 -0.12440 0.41500
N5 N 0.3503(10) 0.1309(10) 0.5521(3)
H21 H 0.33410 0.08630 0.57970
N6 N 0.3886(11) 0.5122(11) 0.5707(4)
H22 H 0.39980 0.59500 0.57590
C19 C 0.3388(10) -0.0046(10) 0.4300(4)
H23 H 0.30960 -0.00070 0.39800
C20 C 0.4364(11) -0.0934(11) 0.4834(4)
H24 H 0.47290 -0.15280 0.48920
C21 C 0.3194(10) 0.0669(10) 0.4656(4)
H25 H 0.27600 0.11960 0.45890
C22 C 0.4231(11) -0.0213(11) 0.5210(4)
H26 H 0.45330 -0.02760 0.55250
C23 C 0.3644(11) 0.0617(10) 0.5125(4)
C24 C 0.3573(10) 0.2558(11) 0.5552(4)
C25 C 0.3817(12) 0.3449(12) 0.5168(5)
H27 H 0.38810 0.31760 0.48480
C26 C 0.3463(13) 0.2984(14) 0.6027(5)
H28 H 0.32720 0.23800 0.62940
C27 C 0.3966(12) 0.4746(12) 0.5252(5)
H29 H 0.41230 0.53590 0.49910
C28 C 0.3634(12) 0.4262(14) 0.6094(5)
H30 H 0.35790 0.45610 0.64110
Mo1B Mo 0.55709(7) -0.15857(7) 0.645183(30)
Mo2B Mo 0.86738(8) 0.05435(7) 0.694973(30)
Mo3B Mo 0.86113(7) 0.32159(8) 0.750343(30)
Mo4B Mo 0.32761(7) -0.06339(7) 0.685453(30)
Mo5B Mo 0.55298(7) 0.29643(7) 0.730103(20)
O3A O 0.9598(8) 0.5185(6) 0.308567(200)
O11A O 0.7122(8) 0.3391(6) 0.318667(200)
O18A O 0.7903(8) 0.5861(6) 0.342667(200)
#END
