
#######################################################################
#
#                 Cambridge Crystallographic Data Centre
#                                CCDC
#
#######################################################################
#
# If this CIF has been generated from an entry in the Cambridge
# Structural Database, then it will include bibliographic, chemical,
# crystal, experimental, refinement or atomic coordinate data resulting
# from the CCDC's data processing and validation procedures.
#
#######################################################################

data_CSD_CIF_CINYOP
_audit_creation_date 2013-11-21
_audit_creation_method CSD-ConQuest-V1
_database_code_CSD CINYOP
_database_code_depnum_ccdc_archive 'CCDC 957891'
_chemical_formula_sum 'C38 H35 Co1 Mo5 N6 O23 P2'
_chemical_formula_moiety
;
(C30 H22 Co1 N6)n,n(C8 H8 Mo5 O21 P2 1-),n(H2 O1),n(H3 O1 1+)
;
_journal_coden_Cambridge 1350
_journal_volume 16
_journal_year 2014
_journal_page_first 191
_journal_name_full 'CrystEngComm '
loop_
_publ_author_name
"T.M.Smith"
"K.Perkins"
"D.Symester"
"S.R.Freund"
"J.Vargas"
"L.Spinu"
"J.Zubieta"
_chemical_name_systematic
;
catena-[oxonium bis(2,2':6',2''-terpyridine)-cobalt 
(\m~10~-(4-(phosphonomethyl)benzyl)phosphonato)-pentakis(\m~2~-oxo)-decaoxo-pe
nta-molybdenum monohydrate]
;
_cell_volume   4800.487
_exptl_crystal_colour 'orange'
_exptl_crystal_density_diffrn 2.137
_exptl_crystal_description 'block'
_diffrn_ambient_temperature 90
_diffrn_special_details
;
twin

;
#These two values have been output from a single CSD field.
_refine_ls_R_factor_gt 0.0395
_refine_ls_wR_factor_gt 0.0395
_symmetry_cell_setting orthorhombic
_symmetry_space_group_name_H-M 'P n a 21'
_symmetry_Int_Tables_number 33
loop_
_symmetry_equiv_pos_site_id
_symmetry_equiv_pos_as_xyz
1 x,y,z
2 -x,-y,1/2+z
3 1/2-x,1/2+y,1/2+z
4 1/2+x,1/2-y,z
_cell_length_a 23.327(3)
_cell_length_b 21.115(3)
_cell_length_c 9.7462(14)
_cell_angle_alpha 90
_cell_angle_beta 90
_cell_angle_gamma 90
_cell_formula_units_Z 4
loop_
_atom_type_symbol
_atom_type_radius_bond
C 0.68
H 0.23
Co 1.26
Mo 1.54
N 0.68
O 0.68
P 1.05
loop_
_atom_site_label
_atom_site_type_symbol
_atom_site_fract_x
_atom_site_fract_y
_atom_site_fract_z
Mo1 Mo 0.75696(3) -0.07686(4) 0.32527(8)
Mo2 Mo 0.61693(3) -0.06515(4) 0.23037(7)
Mo3 Mo 0.61298(3) 0.07301(4) -0.00162(7)
Mo4 Mo 0.75036(3) 0.09118(4) -0.10536(8)
Mo5 Mo 0.83816(3) 0.00636(4) 0.10279(10)
P1 P 0.71081(10) 0.07357(10) 0.2376(2)
P2 P 0.78928(10) 0.43757(10) 0.4819(2)
O1 O 0.6986(3) 0.0042(3) 0.2806(6)
O2 O 0.6802(3) -0.1126(3) 0.2978(6)
O3 O 0.7550(3) -0.0660(3) 0.5004(7)
O4 O 0.7927(3) -0.1470(3) 0.3053(7)
O5 O 0.8162(3) -0.0161(3) 0.2878(6)
O6 O 0.5942(3) -0.0347(3) 0.3914(7)
O7 O 0.5651(3) -0.1211(3) 0.2036(7)
O8 O 0.5926(2) 0.0036(3) 0.1123(8)
O9 O 0.5895(3) 0.0428(3) -0.1647(7)
O10 O 0.5607(3) 0.1266(3) 0.0274(7)
O11 O 0.6551(3) 0.1029(3) 0.1858(6)
O12 O 0.6732(3) 0.1234(3) -0.0712(6)
O13 O 0.7454(3) 0.0814(3) -0.2793(7)
O14 O 0.7858(3) 0.1616(3) -0.0867(7)
O15 O 0.8116(3) 0.0305(3) -0.0777(6)
O16 O 0.7594(3) 0.0756(3) 0.1288(6)
O17 O 0.8828(3) -0.0542(3) 0.0597(8)
O18 O 0.8831(3) 0.0678(3) 0.1388(8)
O19 O 0.7403(3) 0.4362(3) 0.5879(7)
O20 O 0.8042(3) 0.5068(3) 0.4405(6)
O21 O 0.8427(3) 0.4062(3) 0.5386(6)
C1 C 0.7342(4) 0.1175(4) 0.3871(9)
H1 H 0.70680 0.11010 0.46030
H2 H 0.77070 0.10020 0.41680
C2 C 0.7412(4) 0.1891(4) 0.3697(9)
C3 C 0.7807(4) 0.2152(4) 0.2761(10)
H3 H 0.80160 0.18830 0.21970
C4 C 0.7114(4) 0.2315(5) 0.4493(10)
H4 H 0.68520 0.21530 0.51220
C5 C 0.7892(4) 0.2804(4) 0.266(1)
H5 H 0.81620 0.29590 0.20440
C6 C 0.7177(4) 0.2974(4) 0.4421(9)
H6 H 0.69610 0.32370 0.49840
C7 C 0.7576(4) 0.3234(4) 0.3473(9)
C8 C 0.7660(4) 0.3942(4) 0.3322(9)
H7 H 0.73000 0.41240 0.30170
H8 H 0.79380 0.40130 0.25990
Co1 Co 0.49721(5) 0.26827(4) 0.36109(15)
N1 N 0.4266(3) 0.2770(3) 0.4651(7)
N2 N 0.4940(3) 0.3565(3) 0.3582(9)
N3 N 0.5671(3) 0.2817(3) 0.2574(7)
N4 N 0.5405(3) 0.2601(3) 0.5308(7)
N5 N 0.4991(3) 0.1802(3) 0.3643(9)
N6 N 0.4545(3) 0.2534(3) 0.1930(7)
C9 C 0.3937(4) 0.2304(4) 0.5168(9)
H9 H 0.40370 0.18850 0.49900
C10 C 0.3457(4) 0.2427(4) 0.5954(9)
H10 H 0.32370 0.20960 0.63010
C11 C 0.3306(4) 0.3057(5) 0.6220(9)
H11 H 0.29860 0.31530 0.67480
C12 C 0.3640(4) 0.3531(4) 0.5687(9)
H12 H 0.35480 0.39510 0.58650
C13 C 0.4115(4) 0.3389(4) 0.4883(9)
C14 C 0.4500(4) 0.3850(4) 0.4233(8)
C15 C 0.4465(4) 0.4512(4) 0.4226(10)
H13 H 0.41720 0.47220 0.46820
C16 C 0.4882(4) 0.4842(4) 0.3517(12)
H14 H 0.48620 0.52810 0.34840
C17 C 0.5335(4) 0.4535(4) 0.2847(9)
H15 H 0.56150 0.47660 0.23870
C18 C 0.5356(4) 0.3876(4) 0.2884(9)
C19 C 0.5775(4) 0.3444(4) 0.2269(9)
C20 C 0.6238(4) 0.3620(5) 0.1503(10)
H16 H 0.63120 0.40460 0.13320
C21 C 0.6605(4) 0.3142(4) 0.0970(11)
H17 H 0.69160 0.32530 0.04250
C22 C 0.6022(4) 0.2375(4) 0.2084(9)
H18 H 0.59490 0.19530 0.22940
C23 C 0.6500(4) 0.2522(4) 0.1257(8)
H19 H 0.67370 0.22040 0.09190
C24 C 0.5623(4) 0.3065(5) 0.607(1)
H20 H 0.55700 0.34830 0.57950
C25 C 0.5928(4) 0.2942(5) 0.7268(11)
H21 H 0.60760 0.32730 0.77870
C26 C 0.6007(5) 0.2322(5) 0.7678(11)
H22 H 0.62050 0.22300 0.84820
C27 C 0.5788(5) 0.1841(6) 0.6879(12)
H23 H 0.58430 0.14200 0.71320
C28 C 0.5486(4) 0.1986(4) 0.5701(9)
C29 C 0.5244(4) 0.1518(4) 0.4728(10)
C30 C 0.5247(4) 0.0867(4) 0.4812(12)
H24 H 0.54120 0.06620 0.55580
C31 C 0.4998(4) 0.0526(4) 0.3756(14)
H25 H 0.50080 0.00860 0.37880
C32 C 0.4733(4) 0.0819(4) 0.2656(12)
H26 H 0.45590 0.05840 0.19650
C33 C 0.4739(4) 0.1479(4) 0.2621(10)
C34 C 0.4487(4) 0.1912(4) 0.1612(10)
C35 C 0.4200(4) 0.1717(5) 0.0411(9)
H27 H 0.41700 0.12900 0.01890
C36 C 0.3966(5) 0.2173(5) -0.0422(10)
H28 H 0.37620 0.20550 -0.12020
C37 C 0.4032(4) 0.2807(5) -0.0106(11)
H29 H 0.38830 0.31170 -0.06840
C38 C 0.4325(4) 0.2980(4) 0.1093(10)
H30 H 0.43680 0.34060 0.13130
O22 O 0.6491(3) 0.0016(5) 0.6209(11)
H31 H 0.62690 0.00110 0.55190
H32 H 0.68290 0.01310 0.59690
O23 O 0.8432(3) 0.0018(3) 0.6504(6)
Mo1B Mo 0.74304(3) 0.42314(4) 0.82527(8)
Mo2B Mo 0.88307(3) 0.43485(4) 0.73037(7)
Mo3B Mo 0.88702(3) 0.57301(4) 0.49838(7)
Mo4B Mo 0.74964(3) 0.59118(4) 0.39464(8)
Mo5B Mo 0.66184(3) 0.50636(4) 0.60279(10)
O19B O 0.7597(3) -0.0638(3) 0.0879(7)
O20B O 0.6958(3) 0.0068(3) -0.0595(6)
O21B O 0.6573(3) -0.0938(3) 0.0386(6)
#END
