
#######################################################################
#
#                 Cambridge Crystallographic Data Centre
#                                CCDC
#
#######################################################################
#
# If this CIF has been generated from an entry in the Cambridge
# Structural Database, then it will include bibliographic, chemical,
# crystal, experimental, refinement or atomic coordinate data resulting
# from the CCDC's data processing and validation procedures.
#
#######################################################################

data_CSD_CIF_CINYEF
_audit_creation_date 2013-11-21
_audit_creation_method CSD-ConQuest-V1
_database_code_CSD CINYEF
_database_code_depnum_ccdc_archive 'CCDC 957889'
_chemical_formula_sum 'C28 H32 Mo5 N6 O22 P2'
_chemical_formula_moiety
;
(C8 H8 Mo5 O21 P2 4-)n,2n(C10 H11 N3 2+),n(H2 O1)
;
_journal_coden_Cambridge 1350
_journal_volume 16
_journal_year 2014
_journal_page_first 191
_journal_name_full 'CrystEngComm '
loop_
_publ_author_name
"T.M.Smith"
"K.Perkins"
"D.Symester"
"S.R.Freund"
"J.Vargas"
"L.Spinu"
"J.Zubieta"
_chemical_name_systematic
;
catena-[bis(4,4'-iminodipyridinium) 
(\m~10~-(2-(phosphonomethyl)benzyl)phosphonato)-pentakis(\m~2~-oxo)-decaoxo-pe
nta-molybdenum monohydrate]
;
_cell_volume   3949.677
_exptl_crystal_colour 'yellow'
_exptl_crystal_density_diffrn 2.264
_exptl_crystal_description 'block'
_diffrn_ambient_temperature 90
#These two values have been output from a single CSD field.
_refine_ls_R_factor_gt 0.0154
_refine_ls_wR_factor_gt 0.0154
_symmetry_cell_setting monoclinic
_symmetry_space_group_name_H-M 'P 21/c'
_symmetry_Int_Tables_number 14
loop_
_symmetry_equiv_pos_site_id
_symmetry_equiv_pos_as_xyz
1 x,y,z
2 -x,1/2+y,1/2-z
3 -x,-y,-z
4 x,-1/2-y,-1/2+z
_cell_length_a 11.4959(7)
_cell_length_b 19.4686(12)
_cell_length_c 18.3104(11)
_cell_angle_alpha 90
_cell_angle_beta 105.464(1)
_cell_angle_gamma 90
_cell_formula_units_Z 4
loop_
_atom_type_symbol
_atom_type_radius_bond
C 0.68
H 0.23
Mo 1.54
N 0.68
O 0.68
P 1.05
loop_
_atom_site_label
_atom_site_type_symbol
_atom_site_fract_x
_atom_site_fract_y
_atom_site_fract_z
Mo1 Mo 0.60957(2) 0.67461(2) 0.34370(2)
Mo2 Mo 0.64208(2) 0.82537(2) 0.43846(2)
Mo3 Mo 0.96519(2) 0.86512(2) 0.48018(2)
Mo4 Mo 1.10245(2) 0.71388(2) 0.47612(2)
Mo5 Mo 0.88814(2) 0.60093(2) 0.38125(2)
P1 P 0.83474(4) 0.70650(3) 0.51705(3)
P2 P 0.84865(4) 0.72698(3) 0.82856(3)
O1 O 0.54275(13) 0.60336(8) 0.36913(9)
O2 O 0.52195(13) 0.69634(8) 0.25593(8)
O3 O 0.55743(12) 0.73885(7) 0.40812(8)
O4 O 0.73120(12) 0.73629(7) 0.85408(8)
O5 O 0.73829(12) 0.63075(7) 0.31114(8)
O6 O 0.78137(12) 0.65473(7) 0.45308(8)
O7 O 0.73765(12) 0.75280(7) 0.53090(8)
O8 O 0.56713(12) 0.85447(7) 0.50233(8)
O9 O 0.57575(13) 0.87331(7) 0.36019(8)
O10 O 0.79251(12) 0.86962(7) 0.46651(8)
O11 O 1.00722(13) 0.87143(8) 0.57679(8)
O12 O 1.00007(13) 0.94363(8) 0.45147(8)
O13 O 0.90586(12) 0.65923(7) 0.85816(8)
O14 O 0.93493(12) 0.74982(7) 0.49697(8)
O15 O 1.10185(12) 0.81218(7) 0.46379(8)
O16 O 1.17570(13) 0.70690(8) 0.56938(8)
O17 O 1.21059(13) 0.69891(8) 0.42857(9)
O18 O 1.02074(12) 0.62625(7) 0.46217(8)
O19 O 0.93637(12) 0.78730(7) 0.85500(8)
O20 O 0.95343(13) 0.57468(8) 0.31174(8)
O21 O 0.84375(13) 0.52470(8) 0.41231(8)
C1 C 0.91177(18) 0.66165(11) 0.60232(11)
H1 H 0.97020 0.62910 0.59020
H2 H 0.95810 0.69530 0.63930
C2 C 0.82881(18) 0.62250(11) 0.63861(11)
C3 C 0.8003(2) 0.55493(12) 0.61434(12)
H3 H 0.83690 0.53530 0.57840
C4 C 0.7203(2) 0.51619(12) 0.64149(13)
H4 H 0.70260 0.47020 0.62490
C5 C 0.77801(18) 0.65113(11) 0.69348(11)
C6 C 0.69587(19) 0.61125(12) 0.71946(12)
H5 H 0.65970 0.63010 0.75600
C7 C 0.6660(2) 0.54523(12) 0.69334(12)
H6 H 0.60830 0.51970 0.71090
C8 C 0.80858(19) 0.72290(11) 0.72547(11)
H7 H 0.87680 0.74090 0.70770
H8 H 0.73830 0.75320 0.70500
O22 O 0.1354(2) 0.84473(13) 0.78029(12)
H9 H 0.069(2) 0.8638(18) 0.784(2)
H10 H 0.174(3) 0.8801(15) 0.8103(18)
N1 N 0.17093(16) 0.65397(10) 0.83799(10)
N2 N 0.29731(16) 0.58754(9) 0.6591(1)
N3 N 0.50990(17) 0.66055(11) 0.52712(11)
C9 C 0.11041(19) 0.60605(11) 0.78948(12)
H11 H 0.03800 0.58710 0.79650
C10 C 0.15270(18) 0.58451(11) 0.73012(12)
H12 H 0.11010 0.55030 0.69640
C11 C 0.27405(19) 0.68116(11) 0.83008(12)
H13 H 0.31540 0.71440 0.86560
C12 C 0.25935(18) 0.61302(11) 0.71902(11)
C13 C 0.32102(19) 0.66196(11) 0.77166(12)
H14 H 0.39430 0.68150 0.76690
C14 C 0.37309(18) 0.61452(11) 0.61944(12)
C15 C 0.3876(2) 0.57456(12) 0.55839(12)
H15 H 0.35020 0.53080 0.54860
C16 C 0.43322(19) 0.67769(11) 0.63308(12)
H16 H 0.42750 0.70540 0.67470
C17 C 0.4559(2) 0.59913(13) 0.51317(13)
H17 H 0.46500 0.57240 0.47160
C18 C 0.50060(19) 0.69907(12) 0.58563(12)
H18 H 0.54130 0.74200 0.59460
H19 H 0.255(2) 0.5535(11) 0.6377(14)
H20 H 0.145(2) 0.6685(14) 0.8754(13)
H21 H 0.544(2) 0.6784(14) 0.4952(14)
N4 N 0.23395(17) 0.89869(10) 0.67951(10)
N5 N 0.35751(16) 0.93131(9) 0.49125(10)
N6 N 0.28538(16) 1.07672(9) 0.3225(1)
C19 C 0.28432(19) 0.84742(12) 0.65036(12)
H22 H 0.29190 0.80330 0.67340
C20 C 0.21965(19) 0.96125(12) 0.64817(12)
H23 H 0.18160 0.99630 0.66960
C21 C 0.32503(19) 0.85788(11) 0.58765(12)
H24 H 0.36160 0.82150 0.56730
C22 C 0.25921(18) 0.97553(11) 0.58553(11)
H25 H 0.25080 1.02030 0.56410
C23 C 0.31226(17) 0.92277(11) 0.55379(11)
C24 C 0.32989(18) 0.98099(10) 0.43639(11)
C25 C 0.22412(18) 1.02037(10) 0.42003(11)
H26 H 0.16610 1.01390 0.44790
C26 C 0.41063(18) 0.99002(11) 0.39126(12)
H27 H 0.48190 0.96300 0.40000
C27 C 0.20538(18) 1.06824(11) 0.36350(11)
H28 H 0.13480 1.09590 0.35310
C28 C 0.38539(19) 1.03791(11) 0.33491(12)
H29 H 0.43920 1.04390 0.30400
H30 H 0.269(2) 1.1029(12) 0.2824(12)
H31 H 0.418(2) 0.9059(13) 0.4913(16)
H32 H 0.206(2) 0.8900(15) 0.7176(13)
Mo1C Mo 0.60957(2) 0.82539(2) 0.84370(2)
Mo2C Mo 0.64208(2) 0.67463(2) 0.93846(2)
Mo3C Mo 0.96519(2) 0.63488(2) 0.98018(2)
Mo4C Mo 1.10245(2) 0.78612(2) 0.97612(2)
Mo5C Mo 0.88814(2) 0.89907(2) 0.88125(2)
O4C O 0.73120(12) 0.76371(7) 0.35408(8)
O13C O 0.90586(12) 0.84077(7) 0.35816(8)
O19C O 0.93637(12) 0.71270(7) 0.35500(8)
#END
