
#######################################################################
#
#                 Cambridge Crystallographic Data Centre
#                                CCDC
#
#######################################################################
#
# If this CIF has been generated from an entry in the Cambridge
# Structural Database, then it will include bibliographic, chemical,
# crystal, experimental, refinement or atomic coordinate data resulting
# from the CCDC's data processing and validation procedures.
#
#######################################################################

data_CSD_CIF_CINZOQ
_audit_creation_date 2013-11-21
_audit_creation_method CSD-ConQuest-V1
_database_code_CSD CINZOQ
_database_code_depnum_ccdc_archive 'CCDC 957896'
_chemical_formula_sum 'C28 H42 Mo5 N4 Ni1 O29 P2'
_chemical_formula_moiety
;
(C18 H25 Mo5 N2 Ni1 O25 P2 1-)n,n(C10 H9 N2 1+),4n(H2 O1)
;
_journal_coden_Cambridge 1350
_journal_volume 16
_journal_year 2014
_journal_page_first 191
_journal_name_full 'CrystEngComm '
loop_
_publ_author_name
"T.M.Smith"
"K.Perkins"
"D.Symester"
"S.R.Freund"
"J.Vargas"
"L.Spinu"
"J.Zubieta"
_chemical_name_systematic
;
catena-[4-(pyridin-4-yl)pyridinium 
(\m~10~-(2-(phosphonomethyl)benzyl)phosphonato)-hexakis(\m~2~-oxo)-(4-(pyridin
-4-yl)pyridinium)-tetraaqua-nonaoxo-penta-molybdenum-nickel tetrahydrate]
;
_cell_volume   4529.432
_exptl_crystal_colour 'green'
_exptl_crystal_density_diffrn 2.198
_exptl_crystal_description 'block'
_diffrn_ambient_temperature 90
#These two values have been output from a single CSD field.
_refine_ls_R_factor_gt 0.0183
_refine_ls_wR_factor_gt 0.0183
_symmetry_cell_setting monoclinic
_symmetry_space_group_name_H-M 'P 21/c'
_symmetry_Int_Tables_number 14
loop_
_symmetry_equiv_pos_site_id
_symmetry_equiv_pos_as_xyz
1 x,y,z
2 -x,1/2+y,1/2-z
3 -x,-y,-z
4 x,-1/2-y,-1/2+z
_cell_length_a 15.6642(11)
_cell_length_b 17.0366(13)
_cell_length_c 18.1045(13)
_cell_angle_alpha 90
_cell_angle_beta 110.366(1)
_cell_angle_gamma 90
_cell_formula_units_Z 4
loop_
_atom_type_symbol
_atom_type_radius_bond
C 0.68
H 0.23
Mo 1.54
N 0.68
Ni 1.24
O 0.68
P 1.05
loop_
_atom_site_label
_atom_site_type_symbol
_atom_site_fract_x
_atom_site_fract_y
_atom_site_fract_z
Mo1 Mo 0.11372(2) 0.13930(2) -0.07139(2)
Mo2 Mo 0.04462(2) 0.31458(2) -0.02583(2)
Mo3 Mo 0.23245(2) 0.42683(2) 0.05549(2)
Mo4 Mo 0.42252(2) 0.32077(2) 0.07984(2)
Mo5 Mo 0.36168(2) 0.13227(2) 0.03320(2)
Ni1 Ni 0.33465(2) 0.49020(2) 0.26712(2)
P1 P 0.23556(4) 0.20610(3) 0.41415(3)
P2 P 0.23390(4) 0.23197(3) 0.11265(3)
O1 O 0.23896(11) 0.10683(10) -0.02623(9)
O2 O 0.08138(11) 0.09345(10) -0.16065(9)
O3 O 0.17666(11) 0.27279(9) 0.36926(9)
O4 O 0.02864(11) 0.22633(9) -0.09623(9)
O5 O 0.06657(11) 0.08112(10) -0.01849(10)
O6 O 0.15129(11) 0.22691(9) 0.03412(9)
O7 O 0.18075(11) 0.15070(9) 0.44900(9)
O8 O -0.01133(11) 0.38351(10) -0.09498(10)
O9 O -0.03169(11) 0.28808(10) 0.0173(1)
O10 O 0.12084(11) 0.38176(9) 0.05773(9)
O11 O 0.19580(12) 0.50927(10) 0.00068(10)
O12 O 0.29080(11) 0.30612(9) 0.11437(9)
O13 O 0.34502(11) 0.41092(9) 0.03807(9)
O14 O 0.27036(11) 0.46198(9) 0.15147(9)
O15 O 0.47690(11) 0.35184(10) 0.17561(10)
O16 O 0.49897(12) 0.33961(10) 0.03445(11)
O17 O 0.43989(11) 0.20974(9) 0.10038(9)
O18 O 0.32012(11) 0.23891(9) 0.48018(9)
O19 O 0.40756(11) 0.12457(10) -0.04071(10)
O20 O 0.40210(11) 0.04848(10) 0.08589(10)
O21 O 0.28973(11) 0.15720(9) 0.12097(9)
O22 O 0.35097(13) 0.37138(11) 0.29573(12)
H1 H 0.369(2) 0.3391(19) 0.2743(18)
H2 H 0.371(2) 0.3614(18) 0.3390(19)
O23 O 0.45700(12) 0.48569(12) 0.25107(11)
H3 H 0.471(2) 0.5178(18) 0.2259(18)
H4 H 0.461(2) 0.4418(19) 0.2312(17)
O24 O 0.41047(13) 0.51558(11) 0.38475(10)
H5 H 0.463(2) 0.5182(17) 0.3907(17)
H6 H 0.4127(19) 0.4782(18) 0.4117(17)
O25 O 0.21502(13) 0.48835(11) 0.29081(12)
H7 H 0.210(2) 0.4600(18) 0.3196(19)
H8 H 0.168(2) 0.4842(17) 0.2507(18)
N1 N 0.30976(13) 0.60891(12) 0.23993(11)
N2 N 0.22089(15) 1.00332(12) 0.12687(13)
H9 H 0.2129(19) 1.0529(11) 0.1115(16)
C1 C 0.27312(16) 0.15064(14) 0.34672(13)
H10 H 0.31100 0.18430 0.32590
H11 H 0.31090 0.10590 0.37470
C2 C 0.19230(16) 0.12057(14) 0.27944(14)
C3 C 0.15336(17) 0.04939(14) 0.29097(14)
H12 H 0.18090 0.02090 0.33840
C4 C 0.07563(18) 0.02012(15) 0.23449(15)
H13 H 0.05020 -0.02800 0.24330
C5 C 0.03468(17) 0.06133(15) 0.16463(15)
H14 H -0.01870 0.04140 0.12570
C6 C 0.07223(17) 0.13154(15) 0.15224(14)
H15 H 0.04400 0.15950 0.10450
C7 C 0.15084(16) 0.16209(14) 0.20858(14)
C8 C 0.18865(16) 0.23927(13) 0.19152(13)
H16 H 0.23750 0.25730 0.23990
H17 H 0.13970 0.27920 0.17740
C9 C 0.24408(17) 0.63005(14) 0.17198(14)
H18 H 0.21210 0.59000 0.13660
C10 C 0.35263(17) 0.66648(14) 0.28967(15)
H19 H 0.39830 0.65250 0.33820
C11 C 0.22130(17) 0.70757(14) 0.15153(15)
H20 H 0.17470 0.71980 0.10300
C12 C 0.33320(17) 0.74575(14) 0.27345(15)
H21 H 0.36480 0.78460 0.31050
C13 C 0.26671(16) 0.76749(14) 0.20207(14)
C14 C 0.24778(17) 0.85133(14) 0.17884(14)
C15 C 0.16607(17) 0.87396(15) 0.12082(15)
H22 H 0.11900 0.83650 0.09910
C16 C 0.31353(17) 0.90883(15) 0.21252(15)
H23 H 0.36830 0.89560 0.25390
C17 C 0.15397(17) 0.95064(15) 0.09524(15)
H24 H 0.09880 0.96630 0.05550
C18 C 0.29827(18) 0.98482(15) 0.18520(15)
H25 H 0.34270 1.02420 0.20780
O26 O 0.39587(15) 0.51311(12) 0.93275(12)
H26 H 0.424(2) 0.5546(14) 0.9515(18)
H27 H 0.388(2) 0.4907(18) 0.9711(15)
O27 O 0.06509(13) 0.46705(11) 0.16265(11)
H28 H 0.0408(19) 0.5067(13) 0.1412(16)
H29 H 0.074(2) 0.4407(16) 0.1285(14)
O28 O 0.43625(14) 0.22607(13) 0.27870(13)
H30 H 0.4844(17) 0.2482(19) 0.3110(17)
H31 H 0.447(2) 0.217(2) 0.2371(14)
O29 O 0.53195(15) 0.56976(13) 0.16777(14)
H32 H 0.546(2) 0.6185(12) 0.1825(19)
H33 H 0.554(2) 0.5486(19) 0.1358(17)
N3 N 0.58696(17) 0.27022(17) 0.40881(16)
N4 N 0.9834(2) 0.24759(17) 0.74567(15)
H34 H 1.032(2) 0.245(2) 0.7898(16)
C19 C 0.6234(2) 0.20092(19) 0.43976(18)
H35 H 0.59570 0.15420 0.41370
C20 C 0.6257(2) 0.3349(2) 0.4478(2)
H36 H 0.59960 0.38430 0.42790
C21 C 0.69943(19) 0.19431(18) 0.50772(17)
H37 H 0.72290 0.14410 0.52740
C22 C 0.7018(2) 0.33379(19) 0.5154(2)
H38 H 0.72740 0.38150 0.54050
C23 C 0.74078(19) 0.26194(17) 0.54662(17)
C24 C 0.82488(19) 0.25719(17) 0.61745(16)
C25 C 0.8521(2) 0.31874(18) 0.67234(19)
H39 H 0.81600 0.36480 0.66560
C26 C 0.88061(19) 0.19111(16) 0.63095(15)
H40 H 0.86380 0.14800 0.59550
C27 C 0.9319(3) 0.3114(2) 0.73626(17)
H41 H 0.95020 0.35250 0.77390
C28 C 0.9599(2) 0.18775(18) 0.69533(17)
H42 H 0.99780 0.14270 0.70380
Mo1C Mo 0.11372(2) 0.36070(2) 0.42861(2)
Mo2C Mo 0.04462(2) 0.18542(2) 0.47417(2)
Mo3C Mo 0.23245(2) 0.07317(2) 0.55549(2)
Mo4C Mo 0.42252(2) 0.17923(2) 0.57984(2)
Mo5C Mo 0.36168(2) 0.36773(2) 0.53320(2)
O3C O 0.17666(11) 0.22721(9) -0.13074(9)
O7C O 0.18075(11) 0.34930(9) -0.05100(9)
O18C O 0.32012(11) 0.26109(9) -0.01982(9)
#END
