
#######################################################################
#
#                 Cambridge Crystallographic Data Centre
#                                CCDC
#
#######################################################################
#
# If this CIF has been generated from an entry in the Cambridge
# Structural Database, then it will include bibliographic, chemical,
# crystal, experimental, refinement or atomic coordinate data resulting
# from the CCDC's data processing and validation procedures.
#
#######################################################################

data_CSD_CIF_CIPLUJ
_audit_creation_date 2008-01-31
_audit_creation_method CSD-ConQuest-V1
_database_code_CSD CIPLUJ
_database_code_depnum_ccdc_archive 'CCDC 665942'
_chemical_formula_sum 'C64 H54 La2 Mn1 N16 O23'
_chemical_formula_moiety
;
(C64 H40 La2 N16 O16 2-)n,n(H12 Mn1 O6 2+),n(H2 O1)
;
_journal_coden_Cambridge 4
_journal_volume 129
_journal_year 2007
_journal_page_first 10620
_journal_name_full 'J.Am.Chem.Soc. '
loop_
_publ_author_name
"Peng Wang"
"Jian-Ping Ma"
"Yu-Bin Dong"
"Ru-Qi Huang"
_chemical_name_systematic
;
catena-[tetrakis(\m~3~-4-Amino-3,5-bis(carboxylatophenyl)-1,2,4-triazole)-di-l
anthanum(iii) hexaaqua-manganese(ii) clathrate monohydrate]
;
_cell_volume   1697.840
_exptl_crystal_colour 'colorless'
_exptl_crystal_density_diffrn 1.71
_exptl_special_details
;
luminescent

;
_exptl_crystal_description 'block'
_diffrn_ambient_temperature 298
#These two values have been output from a single CSD field.
_refine_ls_R_factor_gt 0.0367
_refine_ls_wR_factor_gt 0.0367
_symmetry_cell_setting triclinic
_symmetry_space_group_name_H-M 'P -1'
_symmetry_Int_Tables_number 2
loop_
_symmetry_equiv_pos_site_id
_symmetry_equiv_pos_as_xyz
1 x,y,z
2 -x,-y,-z
_cell_length_a 11.0587(12)
_cell_length_b 11.3607(13)
_cell_length_c 13.9423(15)
_cell_angle_alpha 76.804(1)
_cell_angle_beta 84.652(1)
_cell_angle_gamma 89.438(1)
_cell_formula_units_Z 1
loop_
_atom_type_symbol
_atom_type_radius_bond
C 0.67
H 0.23
La 1.82
Mn 1.35
N 0.68
O 0.60
loop_
_atom_site_label
_atom_site_type_symbol
_atom_site_fract_x
_atom_site_fract_y
_atom_site_fract_z
La1 La 0.952971(18) 0.895350(18) 0.905321(14)
Mn1 Mn 0.00000 0.00000 0.50000
C1 C 1.2666(4) 1.1894(4) 0.1657(3)
C2 C 1.3863(4) 1.2174(4) 0.1996(3)
C3 C 1.4763(5) 1.2795(6) 0.1317(4)
H1 H 1.46200 1.30660 0.06570
C4 C 1.5874(5) 1.3009(7) 0.1625(4)
H2 H 1.64860 1.34080 0.11670
C5 C 1.6084(5) 1.2631(6) 0.2619(4)
H3 H 1.68330 1.27800 0.28240
C6 C 1.5171(4) 1.2030(4) 0.3299(3)
C7 C 1.4072(3) 1.1791(4) 0.2979(3)
H4 H 1.34680 1.13680 0.34310
C8 C 1.5449(3) 1.1609(4) 0.4331(3)
C9 C 1.5365(3) 1.1205(4) 0.5947(3)
C10 C 1.4993(4) 1.1141(4) 0.7002(3)
C11 C 1.5856(4) 1.1459(5) 0.7563(4)
H5 H 1.66340 1.16930 0.72730
C12 C 1.5556(5) 1.1427(6) 0.8552(4)
H6 H 1.61290 1.16600 0.89230
C13 C 1.4412(4) 1.1051(5) 0.8997(4)
H7 H 1.42120 1.10410 0.96610
C14 C 1.3566(4) 1.0689(4) 0.8449(3)
C15 C 1.3853(3) 1.0716(4) 0.7452(3)
H8 H 1.32890 1.04540 0.70890
C16 C 1.2335(4) 1.0273(4) 0.8966(3)
C17 C 1.0716(4) 0.8307(4) 0.1541(3)
C18 C 1.1252(4) 0.7076(4) 0.1856(3)
C19 C 1.1757(4) 0.6453(4) 0.1169(3)
H9 H 1.17620 0.67940 0.04960
C20 C 1.2250(5) 0.5328(5) 0.1489(3)
H10 H 1.26040 0.49220 0.10280
C21 C 1.2224(4) 0.4797(4) 0.2486(3)
H11 H 1.25510 0.40350 0.26950
C22 C 1.1704(4) 0.5414(4) 0.3174(3)
C23 C 1.1243(4) 0.6554(3) 0.2858(3)
H12 H 1.09230 0.69760 0.33200
C24 C 1.1588(4) 0.4810(3) 0.4227(3)
C25 C 1.1527(4) 0.4459(3) 0.5835(3)
C26 C 1.1578(4) 0.4619(3) 0.6848(3)
C27 C 1.1989(4) 0.3669(4) 0.7562(3)
H13 H 1.22940 0.29760 0.73830
C28 C 1.1943(4) 0.3763(4) 0.8534(3)
H14 H 1.22230 0.31300 0.90070
C29 C 1.1484(4) 0.4786(4) 0.8815(3)
H15 H 1.14480 0.48390 0.94730
C30 C 1.1075(3) 0.5744(3) 0.8092(3)
C31 C 1.1124(4) 0.5661(3) 0.7117(3)
H16 H 1.08560 0.62980 0.66410
C32 C 1.0581(4) 0.6864(4) 0.8382(3)
N1 N 1.6458(3) 1.0920(3) 0.5611(2)
N2 N 1.6508(3) 1.1168(3) 0.4593(3)
N3 N 1.4704(3) 1.1619(3) 0.5164(2)
N4 N 1.3560(3) 1.2156(5) 0.5194(3)
N5 N 1.2287(4) 0.6473(3) 0.4938(3)
N6 N 1.1759(3) 0.5340(3) 0.4993(2)
N7 N 1.1231(4) 0.3444(3) 0.5611(2)
N8 N 1.1261(3) 0.3673(3) 0.4584(2)
O1 O 1.1673(3) 0.9683(3) 0.8555(2)
O2 O 1.2065(3) 1.0546(3) 0.9781(2)
O3 O 1.2014(3) 1.1068(3) 0.2223(2)
O4 O 1.2357(3) 1.2470(3) 0.0851(2)
O5 O 1.0348(3) 0.7763(3) 0.7719(2)
O6 O 1.0417(3) 0.6872(3) 0.9276(2)
O7 O 1.0629(3) 0.8984(3) 0.2143(2)
O8 O 1.0374(3) 0.8656(3) 0.0687(2)
O9 O 0.1152(3) 0.1466(3) 0.4153(2)
H17 H 0.13120 0.13700 0.35900
O10 O 0.1304(3) -0.0433(4) 0.6099(2)
H18 H 0.09710 -0.08490 0.66130
O11 O -0.1067(3) 0.1049(2) 0.5933(2)
H19 H -0.07150 0.10550 0.64240
H20 H 0.08030 0.21220 0.42120
H21 H 1.17470 0.70470 0.47430
H22 H -0.17470 0.07620 0.58540
H23 H 1.29190 1.16680 0.53020
H24 H 0.18510 -0.07420 0.57690
H25 H 1.34310 1.28020 0.46980
H26 H 1.29480 0.66210 0.45060
O12 O 0.4804(17) 0.546(2) 0.4066(12)
H27 H 0.46120 0.53580 0.35130
H28 H 0.55750 0.54840 0.40380
La1A La 1.047029(18) 1.104650(18) 1.094679(14)
La1A* La 1.047029(18) 1.104650(18) 0.094679(14)
La1* La 0.952971(18) 0.895350(18) -0.094679(14)
La1** La 0.952971(18) 0.895350(18) 1.905321(14)
C1A C 0.7334(4) 0.8106(4) 1.8343(3)
C2A C 0.6137(4) 0.7826(4) 1.8004(3)
C3A C 0.5237(5) 0.7205(6) 1.8683(4)
H1A H 0.53800 0.69340 1.93430
C4A C 0.4126(5) 0.6991(7) 1.8375(4)
H2A H 0.35140 0.65920 1.88330
C5A C 0.3916(5) 0.7369(6) 1.7381(4)
H3A H 0.31670 0.72200 1.71760
C6A C 0.4829(4) 0.7970(4) 1.6701(3)
C7A C 0.5928(3) 0.8209(4) 1.7021(3)
H4A H 0.65320 0.86320 1.65690
C8A C 0.4551(3) 0.8391(4) 1.5669(3)
C9A C 0.4635(3) 0.8795(4) 1.4053(3)
C10A C 0.5007(4) 0.8859(4) 1.2998(3)
C11A C 0.4144(4) 0.8541(5) 1.2437(4)
H5A H 0.33660 0.83070 1.27270
C12A C 0.4444(5) 0.8573(6) 1.1448(4)
H6A H 0.38710 0.83400 1.10770
C13A C 0.5588(4) 0.8949(5) 1.1003(4)
H7A H 0.57880 0.89590 1.03390
C14A C 0.6434(4) 0.9311(4) 1.1551(3)
C15A C 0.6147(3) 0.9284(4) 1.2548(3)
H8A H 0.67110 0.95460 1.29110
C16A C 0.7665(4) 0.9727(4) 1.1034(3)
C17A C 0.9284(4) 1.1693(4) 0.8459(3)
C18A C 0.8748(4) 1.2924(4) 0.8144(3)
C19A C 0.8243(4) 1.3547(4) 0.8831(3)
H9A H 0.82380 1.32060 0.95040
C20A C 0.7750(5) 1.4672(5) 0.8511(3)
H10A H 0.73960 1.50780 0.89720
C21A C 0.7776(4) 1.5203(4) 0.7514(3)
H11A H 0.74490 1.59650 0.73050
C22A C 0.8296(4) 1.4586(4) 0.6826(3)
C23A C 0.8757(4) 1.3446(3) 0.7142(3)
H12A H 0.90770 1.30240 0.66800
C24A C 0.8412(4) 1.5190(3) 0.5773(3)
C25A C 0.8473(4) 1.5541(3) 0.4165(3)
C26A C 0.8422(4) 1.5381(3) 0.3152(3)
C27A C 0.8011(4) 1.6331(4) 0.2438(3)
H13A H 0.77060 1.70240 0.26170
C28A C 0.8057(4) 1.6237(4) 0.1466(3)
H14A H 0.77770 1.68700 0.09930
C29A C 0.8516(4) 1.5214(4) 0.1185(3)
H15A H 0.85520 1.51610 0.05270
C30A C 0.8925(3) 1.4256(3) 0.1908(3)
C31A C 0.8876(4) 1.4339(3) 0.2883(3)
H16A H 0.91440 1.37020 0.33590
C32A C 0.9419(4) 1.3136(4) 0.1618(3)
N1A N 0.3542(3) 0.9080(3) 1.4389(2)
N2A N 0.3492(3) 0.8832(3) 1.5407(3)
N3A N 0.5296(3) 0.8381(3) 1.4836(2)
N4A N 0.6440(3) 0.7844(5) 1.4806(3)
N5A N 0.7713(4) 1.3527(3) 0.5062(3)
N6A N 0.8241(3) 1.4660(3) 0.5007(2)
N7A N 0.8769(4) 1.6556(3) 0.4389(2)
N8A N 0.8739(3) 1.6327(3) 0.5416(2)
O1A O 0.8327(3) 1.0317(3) 1.1445(2)
O2A O 0.7935(3) 0.9454(3) 1.0219(2)
O3A O 0.7986(3) 0.8932(3) 1.7777(2)
O3A* O 0.7986(3) 0.8932(3) 0.7777(2)
O3* O 1.2014(3) 1.1068(3) 1.2223(2)
O4A O 0.7643(3) 0.7530(3) 1.9149(2)
O4A* O 0.7643(3) 0.7530(3) 0.9149(2)
O4* O 1.2357(3) 1.2470(3) 1.0851(2)
O5A O 0.9652(3) 1.2237(3) 0.2281(2)
O5A* O 0.9652(3) 1.2237(3) 1.2281(2)
O6A O 0.9583(3) 1.3128(3) 0.0724(2)
O6A* O 0.9583(3) 1.3128(3) 1.0724(2)
O7A O 0.9371(3) 1.1016(3) 0.7857(2)
O7* O 1.0629(3) 0.8984(3) 1.2143(2)
O8A O 0.9626(3) 1.1344(3) 0.9313(2)
O8* O 1.0374(3) 0.8656(3) 1.0687(2)
O9A O -0.1152(3) -0.1466(3) 0.5847(2)
H17A H -0.13120 -0.13700 0.64100
O10A O -0.1304(3) 0.0433(4) 0.3901(2)
H18A H -0.09710 0.08490 0.33870
O11A O 0.1067(3) -0.1049(2) 0.4067(2)
H19A H 0.07150 -0.10550 0.35760
H20A H -0.08030 -0.21220 0.57880
H21A H 0.82530 1.29530 0.52570
H22A H 0.17470 -0.07620 0.41460
H23A H 0.70810 0.83320 1.46980
H24A H -0.18510 0.07420 0.42310
H25A H 0.65690 0.71980 1.53020
H26A H 0.70520 1.33790 0.54940
#END
