
#######################################################################
#
#                 Cambridge Crystallographic Data Centre
#                                CCDC
#
#######################################################################
#
# If this CIF has been generated from an entry in the Cambridge
# Structural Database, then it will include bibliographic, chemical,
# crystal, experimental, refinement or atomic coordinate data resulting
# from the CCDC's data processing and validation procedures.
#
#######################################################################

data_CSD_CIF_CIPMAQ
_audit_creation_date 2008-01-31
_audit_creation_method CSD-ConQuest-V1
_database_code_CSD CIPMAQ
_database_code_depnum_ccdc_archive 'CCDC 665943'
_chemical_formula_sum 'C64 H53 Gd2 Mn1 N16 O22.5'
_chemical_formula_moiety
;
(C64 H40 Gd2 N16 O16 2-)n,n(H12 Mn1 O6 2+),0.5n(H2 O1)
;
_journal_coden_Cambridge 4
_journal_volume 129
_journal_year 2007
_journal_page_first 10620
_journal_name_full 'J.Am.Chem.Soc. '
loop_
_publ_author_name
"Peng Wang"
"Jian-Ping Ma"
"Yu-Bin Dong"
"Ru-Qi Huang"
_chemical_name_systematic
;
catena-[(\m~4~-4-Amino-3,5-bis(3-carboxylatophenyl)-1,2,4-triazole)-bis(\m~3~-
4-amino-3,5-bis(3-carboxylatophenyl)-1,2,4-triazole)-(\m~2~-4-amino-3,5-bis(3-
carboxylatophenyl)-1,2,4-triazole)-di-gadolinium(iii) hexaaqua-manganese(ii) 
clathrate hemihydrate]
;
_cell_volume   3300.192
_exptl_crystal_colour 'colorless'
_exptl_crystal_density_diffrn 1.787
_exptl_special_details
;
luminescent

;
_diffrn_ambient_temperature 298
_refine_special_details
;
The water molecule is disordered over two sites with occupancies 0.239:0.261.

;
#These two values have been output from a single CSD field.
_refine_ls_R_factor_gt 0.038
_refine_ls_wR_factor_gt 0.038
_symmetry_cell_setting triclinic
_symmetry_space_group_name_H-M 'P -1'
_symmetry_Int_Tables_number 2
loop_
_symmetry_equiv_pos_site_id
_symmetry_equiv_pos_as_xyz
1 x,y,z
2 -x,-y,-z
_cell_length_a 11.1220(11)
_cell_length_b 11.1502(11)
_cell_length_c 27.107(3)
_cell_angle_alpha 79.744(1)
_cell_angle_beta 86.150(1)
_cell_angle_gamma 89.992(1)
_cell_formula_units_Z 2
loop_
_atom_type_symbol
_atom_type_radius_bond
C 0.68
H 0.23
Gd 1.59
Mn 1.35
N 0.68
O 0.68
loop_
_atom_site_label
_atom_site_type_symbol
_atom_site_fract_x
_atom_site_fract_y
_atom_site_fract_z
Gd1 Gd 0.93967(2) 0.61449(2) 0.046425(8)
Gd2 Gd 0.87547(2) 0.47268(2) 0.454627(8)
Mn1 Mn 0.90333(7) 0.53629(6) 0.25022(3)
N1 N 1.0330(4) 1.1810(4) 0.22683(16)
N2 N 1.0233(4) 1.1731(4) 0.27837(16)
N3 N 1.0821(4) 0.9973(4) 0.26166(16)
N4 N 1.1383(5) 0.8837(4) 0.26803(19)
N5 N 0.2679(4) 0.6591(4) 0.27234(16)
N6 N 0.2743(4) 0.6748(4) 0.22046(16)
N7 N 0.4475(4) 0.7272(4) 0.24364(16)
N8 N 0.5599(4) 0.7869(5) 0.24115(18)
N9 N 0.7933(4) -0.1133(4) 0.28944(16)
N10 N 0.8062(4) -0.0973(4) 0.23758(16)
N11 N 0.7434(4) 0.0724(3) 0.25772(16)
N12 N 0.6888(5) 0.1872(4) 0.2551(2)
N13 N 1.5397(4) 0.4238(4) 0.26619(16)
N14 N 1.5557(4) 0.4371(4) 0.21453(16)
N15 N 1.3681(4) 0.3848(4) 0.23772(16)
N16 N 1.2523(4) 0.3368(5) 0.2372(2)
C1 C 1.0277(4) 0.8182(4) 0.08436(19)
C2 C 1.0699(4) 0.9311(4) 0.10150(19)
C3 C 1.1234(5) 1.0251(5) 0.0661(2)
H1 H 1.13190 1.01740 0.03240
C4 C 1.1638(6) 1.1303(5) 0.0807(2)
H2 H 1.19980 1.19250 0.05680
C5 C 1.1509(5) 1.1427(5) 0.1304(2)
H3 H 1.17970 1.21260 0.14010
C6 C 1.0942(5) 1.0499(4) 0.16659(19)
C7 C 1.0562(5) 0.9438(4) 0.15189(19)
H4 H 1.02140 0.88090 0.17570
C8 C 1.0701(5) 1.0751(4) 0.21763(19)
C9 C 1.0551(5) 1.0618(4) 0.29898(19)
C10 C 1.0644(5) 1.0202(4) 0.35298(19)
C11 C 1.1122(6) 1.1007(5) 0.3805(2)
H5 H 1.13630 1.17880 0.36480
C12 C 1.1236(7) 1.0631(6) 0.4315(2)
H6 H 1.15390 1.11710 0.45020
C13 C 1.0908(6) 0.9479(5) 0.4547(2)
H7 H 1.10140 0.92310 0.48870
C14 C 1.0415(5) 0.8674(4) 0.42759(19)
C15 C 1.0267(5) 0.9045(4) 0.37730(19)
H8 H 0.99100 0.85190 0.35940
C16 C 1.0074(4) 0.7398(4) 0.45395(16)
H9 H 0.74320 0.24530 0.24270
H10 H 1.08190 0.82750 0.26760
H11 H 0.61430 0.72780 0.24090
H12 H 1.18830 0.38460 0.23180
H13 H 0.61480 0.21110 0.24530
H14 H 1.25970 0.28520 0.21530
H15 H 0.57180 0.82730 0.26630
H16 H 1.19640 0.88420 0.24330
O1? O 0.3654(4) 0.0551(4) 0.29622(16)
H17? H 0.40940 0.03740 0.32140
H18? H 0.37950 0.00710 0.27520
O2 O 0.4695(4) 0.0679(4) 0.20201(16)
H19 H 0.40940 0.02210 0.19970
H20 H 0.44960 0.12860 0.21600
C17 C 0.7149(4) 0.7099(5) 0.07279(18)
C18 C 0.5887(5) 0.7475(5) 0.0867(2)
C19 C 0.5199(6) 0.8147(6) 0.0518(2)
H21 H 0.55130 0.83950 0.01890
C20 C 0.4029(7) 0.8455(8) 0.0660(3)
H22 H 0.35450 0.88680 0.04200
C21 C 0.3588(6) 0.8152(8) 0.1150(2)
H23 H 0.28160 0.83860 0.12450
C22 C 0.4293(5) 0.7494(5) 0.1507(2)
C23 C 0.5421(4) 0.7136(4) 0.13586(18)
H24 H 0.58780 0.66580 0.15920
C24 C 0.3821(5) 0.7167(5) 0.2036(2)
C25 C 0.3729(4) 0.6912(5) 0.28560(19)
C26 C 0.4048(4) 0.6868(4) 0.33750(18)
C27 C 0.3191(5) 0.7204(5) 0.3728(2)
H25 H 0.24530 0.75100 0.36260
C28 C 0.3441(5) 0.7081(5) 0.4225(2)
H26 H 0.28720 0.73050 0.44580
C29 C 0.4549(5) 0.6620(5) 0.4378(2)
H27 H 0.47120 0.65250 0.47150
C30 C 0.5413(4) 0.6302(4) 0.40287(19)
C31 C 0.5150(4) 0.6434(4) 0.35298(19)
H28 H 0.57250 0.62270 0.32950
C32 C 0.6598(5) 0.5820(4) 0.41970(19)
C33 C 0.9104(5) 0.3421(4) 0.07752(18)
C34 C 0.8477(5) 0.2226(4) 0.09613(18)
C35 C 0.8100(5) 0.1518(5) 0.0627(2)
H29 H 0.82380 0.17850 0.02820
C36 C 0.7519(6) 0.0416(6) 0.0808(2)
H30 H 0.72280 -0.00380 0.05830
C37 C 0.7367(5) -0.0015(5) 0.1314(2)
H31 H 0.69920 -0.07660 0.14320
C38 C 0.7774(5) 0.0671(4) 0.16554(19)
C39 C 0.8307(5) 0.1794(4) 0.14738(19)
H32 H 0.85550 0.22690 0.16980
C40 C 0.7746(5) 0.0145(4) 0.21908(19)
C41 C 0.7548(5) -0.0097(4) 0.30120(19)
C42 C 0.7287(5) 0.0141(5) 0.3520(2)
C43 C 0.6715(7) -0.0750(6) 0.3885(2)
H33 H 0.65150 -0.15030 0.38090
C44 C 0.6448(8) -0.0508(6) 0.4359(2)
H34 H 0.60620 -0.11040 0.46020
H35 H 0.99240 0.38770 0.33030
H36 H 1.03480 0.34120 0.28890
H37 H 0.81940 0.70800 0.17210
H38 H 0.77870 0.74550 0.21580
H39 H 0.81970 0.42780 0.16850
H40 H 0.77780 0.36900 0.21540
H41 H 0.73440 0.50790 0.32760
H42 H 0.68270 0.45210 0.29280
H43 H 1.05420 0.60970 0.16870
H44 H 1.13730 0.57650 0.20370
H45 H 0.95370 0.63830 0.33520
H46 H 0.99160 0.72700 0.29520
C45 C 0.6736(7) 0.0589(6) 0.4483(2)
H47 H 0.65120 0.07460 0.48020
C46 C 0.7363(5) 0.1468(5) 0.41335(19)
C47 C 0.7624(5) 0.1236(5) 0.36549(19)
H48 H 0.80340 0.18250 0.34170
C48 C 0.7748(5) 0.2658(5) 0.42613(19)
C49 C 1.2106(5) 0.4873(5) 0.04493(19)
C50 C 1.3209(4) 0.4458(5) 0.0708(2)
C51 C 1.4161(5) 0.3984(6) 0.0442(2)
H49 H 1.40970 0.39280 0.01070
C52 C 1.5193(6) 0.3600(7) 0.0674(2)
H50 H 1.58240 0.32960 0.04920
C53 C 1.5302(5) 0.3660(6) 0.1172(2)
H51 H 1.60120 0.34210 0.13220
C54 C 1.4345(5) 0.4081(5) 0.1450(2)
C55 C 1.3322(5) 0.4504(5) 0.12141(19)
H52 H 1.27010 0.48240 0.13960
C56 C 1.4531(4) 0.4122(5) 0.19751(19)
C57 C 1.4266(4) 0.3925(5) 0.27989(19)
C58 C 1.3802(5) 0.3682(5) 0.33258(18)
C59 C 1.4561(5) 0.3078(5) 0.3680(2)
H53 H 1.52860 0.27630 0.35720
C60 C 1.4248(6) 0.2944(6) 0.4187(2)
H54 H 1.47450 0.25250 0.44200
C61 C 1.3177(5) 0.3445(5) 0.4344(2)
H55 H 1.29710 0.33780 0.46860
C62 C 1.2418(5) 0.4037(4) 0.40046(18)
C63 C 1.2718(4) 0.4132(4) 0.34919(19)
H56 H 1.21890 0.44990 0.32610
C64 C 1.1281(4) 0.4608(5) 0.41806(18)
O3 O 0.9360(3) 0.6808(3) 0.43382(14)
O4 O 1.0560(4) 0.7022(3) 0.49414(14)
O5 O 0.9845(3) 0.7286(3) 0.11639(13)
O6 O 1.0356(4) 0.8136(3) 0.03902(13)
O7 O 0.7409(3) 0.5569(3) 0.38742(12)
O8 O 0.6801(3) 0.5665(4) 0.46523(13)
O9 O 0.7719(3) 0.7667(3) 0.03513(14)
O10 O 0.7582(3) 0.6214(4) 0.10087(14)
O11 O 0.8646(4) 0.3205(3) 0.40121(14)
O12 O 0.7197(3) 0.3067(3) 0.46112(13)
O13 O 0.9072(3) 0.4221(3) 0.10477(13)
O14 O 0.9634(3) 0.3622(3) 0.03432(13)
O15 O 1.1362(3) 0.5491(3) 0.06629(14)
O16 O 1.1999(3) 0.4566(4) 0.00267(14)
O17 O 1.0463(3) 0.4876(4) 0.38883(13)
O18 O 1.1137(3) 0.4763(3) 0.46339(12)
O19 O 0.8162(3) 0.4329(3) 0.19985(13)
O20 O 0.8160(4) 0.6876(4) 0.20423(15)
O21 O 1.0628(4) 0.5750(5) 0.19934(16)
O22 O 0.9995(4) 0.4013(3) 0.29823(14)
O23 O 0.9471(4) 0.6629(4) 0.30373(16)
O24 O 0.7469(4) 0.4907(6) 0.29822(16)
Gd1A Gd 1.06033(2) 0.38551(2) -0.046425(8)
Gd2A Gd 1.12453(2) 0.52732(2) 0.545373(8)
O4A O 0.9440(4) 0.2978(3) 0.50586(14)
O14A O 1.0366(3) 0.6378(3) -0.03432(13)
O16A O 0.8001(3) 0.5434(4) -0.00267(14)
O18A O 0.8863(3) 0.5237(3) 0.53661(12)
#END
