
#######################################################################
#
#                 Cambridge Crystallographic Data Centre
#                                CCDC
#
#######################################################################
#
# If this CIF has been generated from an entry in the Cambridge
# Structural Database, then it will include bibliographic, chemical,
# crystal, experimental, refinement or atomic coordinate data resulting
# from the CCDC's data processing and validation procedures.
#
#######################################################################

data_CSD_CIF_CIPMEU
_audit_creation_date 2008-01-31
_audit_creation_method CSD-ConQuest-V1
_database_code_CSD CIPMEU
_database_code_depnum_ccdc_archive 'CCDC 665944'
_chemical_formula_sum 'C64 H52 Eu2 Mn1 N16 O22'
_chemical_formula_moiety
;
(C64 H40 Eu2 N16 O16 2-)n,n(H12 Mn1 O6 2+)
;
_journal_coden_Cambridge 4
_journal_volume 129
_journal_year 2007
_journal_page_first 10620
_journal_name_full 'J.Am.Chem.Soc. '
loop_
_publ_author_name
"Peng Wang"
"Jian-Ping Ma"
"Yu-Bin Dong"
"Ru-Qi Huang"
_chemical_name_systematic
;
catena-[(\m~4~-4-Amino-3,5-bis(3-carboxylatophenyl)-1,2,4-triazole)-bis(\m~3~-
4-amino-3,5-bis(3-carboxylatophenyl)-1,2,4-triazole)-(\m~2~-4-amino-3,5-bis(3-
carboxylatophenyl)-1,2,4-triazole)-di-europium(iii) hexaaqua-manganese(ii) 
clathrate]
;
_cell_volume   3313.460
_exptl_crystal_colour 'colorless'
_exptl_crystal_density_diffrn 1.76
_exptl_special_details
;
luminescent

;
_exptl_crystal_description 'block'
_diffrn_ambient_temperature 298
#These two values have been output from a single CSD field.
_refine_ls_R_factor_gt 0.1244
_refine_ls_wR_factor_gt 0.1244
_symmetry_cell_setting triclinic
_symmetry_space_group_name_H-M 'P -1'
_symmetry_Int_Tables_number 2
loop_
_symmetry_equiv_pos_site_id
_symmetry_equiv_pos_as_xyz
1 x,y,z
2 -x,-y,-z
_cell_length_a 11.139(3)
_cell_length_b 11.154(3)
_cell_length_c 27.170(8)
_cell_angle_alpha 79.687(5)
_cell_angle_beta 86.145(4)
_cell_angle_gamma 89.942(5)
_cell_formula_units_Z 2
loop_
_atom_type_symbol
_atom_type_radius_bond
C 0.68
H 0.23
Eu 1.61
Mn 1.35
N 0.68
O 0.68
loop_
_atom_site_label
_atom_site_type_symbol
_atom_site_fract_x
_atom_site_fract_y
_atom_site_fract_z
C1 C 0.4927(17) 0.2595(17) 0.0468(7)
C2 C 0.4585(17) 0.1385(17) 0.0683(7)
C3 C 0.404(2) 0.064(2) 0.0462(8)
H1 H 0.38160 0.09120 0.01380
C4 C 0.377(2) -0.063(2) 0.0694(9)
H2 H 0.34920 -0.11680 0.05020
C5 C 0.392(2) -0.101(2) 0.1179(8)
H3 H 0.37190 -0.18150 0.13270
C6 C 0.4369(16) -0.0207(16) 0.1469(6)
C7 C 0.4737(15) 0.0947(15) 0.1233(6)
H4 H 0.50870 0.14650 0.14170
C8 C 0.4446(15) -0.0621(15) 0.2011(6)
C9 C 0.4286(16) -0.0773(16) 0.2829(7)
C10 C 0.4069(16) -0.0510(16) 0.3329(7)
C11 C 0.3512(18) -0.1452(18) 0.3693(7)
H5 H 0.32400 -0.21600 0.35990
C12 C 0.3372(18) -0.1307(16) 0.4201(7)
H6 H 0.30160 -0.19380 0.44360
C13 C 0.374(2) -0.0276(15) 0.4363(7)
H7 H 0.36480 -0.01930 0.46980
C14 C 0.4258(16) 0.0632(15) 0.3995(6)
C15 C 0.4452(15) 0.0555(16) 0.3485(6)
H8 H 0.48230 0.11900 0.32570
C16 C 0.4728(18) 0.1815(18) 0.4164(7)
C17 C 0.7840(15) 0.2896(15) 0.4264(6)
C18 C 0.9115(15) 0.2514(15) 0.4136(6)
C19 C 0.9770(17) 0.181(2) 0.4482(7)
H9 H 0.94470 0.15220 0.48070
C20 C 1.0927(19) 0.153(3) 0.4332(10)
H10 H 1.14050 0.11070 0.45700
C21 C 1.140(2) 0.186(2) 0.3854(10)
H11 H 1.21870 0.16380 0.37700
C22 C 1.0726(17) 0.2518(18) 0.3489(7)
C23 C 0.9586(17) 0.2865(17) 0.3648(7)
H12 H 0.91270 0.33490 0.34180
C24 C 1.1194(16) 0.2831(17) 0.2969(7)
C25 C 1.1270(15) 0.3089(16) 0.2151(6)
C26 C 1.0967(15) 0.3133(16) 0.1626(6)
C27 C 1.1805(17) 0.2813(17) 0.1271(7)
H13 H 1.25420 0.25030 0.13720
C28 C 1.1570(15) 0.2943(17) 0.0774(7)
H14 H 1.21540 0.27310 0.05440
C29 C 1.0490(13) 0.3380(17) 0.0613(6)
H15 H 1.03320 0.34550 0.02770
C30 C 0.9635(14) 0.3708(15) 0.0956(6)
C31 C 0.9855(16) 0.3557(16) 0.1476(6)
H16 H 0.92640 0.37400 0.17090
C32 C 0.8425(15) 0.4169(15) 0.0805(6)
C33 C 0.7256(16) 0.7370(16) 0.0736(6)
C34 C 0.7640(18) 0.8536(17) 0.0861(7)
C35 C 0.8263(19) 0.9478(17) 0.0507(8)
H17 H 0.84680 0.93380 0.01850
C36 C 0.856(3) 1.055(3) 0.0624(11)
H18 H 0.89210 1.11620 0.03810
C37 C 0.831(2) 1.074(2) 0.1125(9)
H19 H 0.85480 1.14660 0.12160
C38 C 0.7724(17) 0.9877(17) 0.1471(7)
C39 C 0.7379(17) 0.8786(17) 0.1336(7)
H20 H 0.69580 0.82070 0.15740
C40 C 0.7447(17) 1.0114(18) 0.1990(7)
C41 C 0.7284(16) 0.9839(16) 0.2807(7)
C42 C 0.7236(16) 0.9339(16) 0.3337(7)
C43 C 0.7631(19) 0.9997(19) 0.3685(8)
H21 H 0.80220 1.07410 0.35710
C44 C 0.7460(19) 0.958(2) 0.4190(8)
H22 H 0.77210 1.00460 0.44140
C45 C 0.6898(18) 0.8450(19) 0.4374(8)
H23 H 0.67910 0.81600 0.47170
C46 C 0.6510(15) 0.7783(15) 0.4038(6)
C47 C 0.6730(16) 0.8192(16) 0.3523(6)
H24 H 0.65350 0.76900 0.33000
C48 C 0.5901(16) 0.6568(16) 0.4224(6)
C49 C 0.2838(16) 0.5161(15) 0.4552(6)
C50 C 0.1783(15) 0.5557(15) 0.4286(6)
C51 C 0.085(2) 0.601(2) 0.4548(9)
H25 H 0.09390 0.60710 0.48800
C52 C -0.020(2) 0.637(2) 0.4339(9)
H26 H -0.08400 0.66360 0.45300
C53 C -0.030(2) 0.634(2) 0.3819(9)
H27 H -0.10070 0.65820 0.36680
C54 C 0.0633(16) 0.5951(17) 0.3546(6)
C55 C 0.1685(16) 0.5487(16) 0.3778(7)
H28 H 0.22950 0.51450 0.35980
C56 C 0.0474(16) 0.5911(17) 0.3027(7)
C57 C 0.0708(16) 0.6096(16) 0.2200(7)
C58 C 0.1205(17) 0.6315(17) 0.1673(7)
C59 C 0.2256(16) 0.5872(16) 0.1500(7)
H29 H 0.27730 0.54830 0.17310
C60 C 0.2591(16) 0.5977(16) 0.0990(7)
C61 C 0.3686(16) 0.5402(16) 0.0813(6)
C62 C 0.1830(17) 0.6571(17) 0.0644(7)
H30 H 0.20390 0.66430 0.03020
C63 C 0.076(2) 0.706(2) 0.0803(8)
H31 H 0.02500 0.74470 0.05700
C64 C 0.0455(19) 0.6952(19) 0.1317(7)
H32 H -0.02480 0.73060 0.14250
Eu1 Eu 0.56052(8) 0.38486(8) 0.45367(3)
Eu2 Eu 0.62528(8) 0.52829(8) 0.04534(3)
Mn1 Mn 0.5976(3) 0.4645(3) 0.24994(10)
N1 N 0.6942(15) 1.0985(15) 0.2624(6)
N2 N 0.7090(14) 1.1170(14) 0.2110(6)
N3 N 0.7572(14) 0.9289(13) 0.2413(5)
N4 N 0.8048(18) 0.8150(17) 0.2434(7)
H33 H 0.87690 0.81380 0.25570
H34 H 0.81230 0.79800 0.21260
N5 N -0.0567(14) 0.5623(14) 0.2854(6)
N6 N -0.0389(14) 0.5775(14) 0.2336(6)
N7 N 0.1300(12) 0.6156(13) 0.2610(5)
N8 N 0.2503(14) 0.6611(16) 0.2618(6)
H35 H 0.27100 0.64900 0.29340
H36 H 0.25240 0.74060 0.24940
N9 N 0.4673(14) -0.1802(13) 0.2721(5)
N10 N 0.4778(14) -0.1717(14) 0.2207(6)
N11 N 0.4155(13) 0.0029(12) 0.2393(5)
N12 N 0.3619(17) 0.1139(17) 0.2344(7)
H37 H 0.30950 0.11960 0.21080
H38 H 0.41800 0.17200 0.22560
N13 N 1.2274(14) 0.3244(14) 0.2799(5)
N14 N 1.2331(14) 0.3416(15) 0.2281(6)
N15 N 1.0544(14) 0.2729(14) 0.2561(6)
N16 N 0.9431(18) 0.2125(18) 0.2590(7)
H39 H 0.93190 0.19060 0.22970
H40 H 0.88510 0.26300 0.26600
O1 O 0.5640(12) 0.3191(12) 0.0669(5)
O2 O 0.4470(13) 0.2974(13) 0.0054(5)
O3 O 0.7607(12) 0.4451(13) 0.1127(5)
O4 O 0.8197(12) 0.4334(13) 0.0354(5)
O5 O 0.6351(12) 0.6826(12) 0.0991(5)
O6 O 0.7816(12) 0.6955(12) 0.0389(5)
O7 O 0.4546(11) 0.5144(12) 0.1116(5)
O8 O 0.3857(12) 0.5252(12) 0.0372(5)
O9 O 0.3628(11) 0.4520(11) 0.4330(5)
O10 O 0.3001(13) 0.5450(13) 0.4962(5)
O11 O 0.5948(12) 0.5791(12) 0.3939(5)
O12 O 0.5383(12) 0.6370(12) 0.4654(5)
O13 O 0.7422(13) 0.3787(13) 0.3992(5)
O14 O 0.7270(12) 0.2321(12) 0.4642(5)
O15 O 0.5148(11) 0.2694(11) 0.3835(4)
O16 O 0.4608(12) 0.1852(12) 0.4604(5)
O17 O 0.6845(13) 0.5671(13) 0.3002(5)
O18 O 0.4386(17) 0.4270(18) 0.3007(7)
O19 O 0.6850(15) 0.3131(14) 0.2953(6)
O20 O 0.5537(16) 0.3356(16) 0.1967(6)
O21 O 0.7524(17) 0.5145(18) 0.2025(7)
O22 O 0.4996(14) 0.5979(14) 0.2021(6)
H41 H 0.67640 0.57470 0.33160
H42 H 0.74430 0.61310 0.28750
H43 H 0.44700 0.39200 0.33220
H44 H 0.36440 0.41660 0.29650
H45 H 0.70970 0.32380 0.32400
H46 H 0.66470 0.23610 0.30050
H47 H 0.59570 0.29740 0.17660
H48 H 0.49080 0.35970 0.18230
H49 H 0.75960 0.50380 0.17230
H50 H 0.82290 0.53980 0.20890
H51 H 0.50850 0.60380 0.17040
H52 H 0.46160 0.66030 0.20830
Eu1A Eu 0.43948(8) 0.61514(8) 0.54633(3)
Eu2A Eu 0.37472(8) 0.47171(8) -0.04534(3)
O2A O 0.5530(13) 0.7026(13) -0.0054(5)
O8A O 0.6143(12) 0.4748(12) -0.0372(5)
O10A O 0.6999(13) 0.4550(13) 0.5038(5)
O12A O 0.4617(12) 0.3630(12) 0.5346(5)
#END
