
#######################################################################
#
#                 Cambridge Crystallographic Data Centre
#                                CCDC
#
#######################################################################
#
# If this CIF has been generated from an entry in the Cambridge
# Structural Database, then it will include bibliographic, chemical,
# crystal, experimental, refinement or atomic coordinate data resulting
# from the CCDC's data processing and validation procedures.
#
#######################################################################

data_CSD_CIF_CIPMIY
_audit_creation_date 2008-01-31
_audit_creation_method CSD-ConQuest-V1
_database_code_CSD CIPMIY
_database_code_depnum_ccdc_archive 'CCDC 665945'
_chemical_formula_sum 'C64 H53 Mn1 N16 O22.5 Tb2'
_chemical_formula_moiety
;
(C64 H40 N16 O16 Tb2 2-)n,n(H12 Mn1 O6 2+),0.5n(H2 O1)
;
_journal_coden_Cambridge 4
_journal_volume 129
_journal_year 2007
_journal_page_first 10620
_journal_name_full 'J.Am.Chem.Soc. '
loop_
_publ_author_name
"Peng Wang"
"Jian-Ping Ma"
"Yu-Bin Dong"
"Ru-Qi Huang"
_chemical_name_systematic
;
catena-[(\m~4~-4-Amino-3,5-bis(3-carboxylatophenyl)-1,2,4-triazole)-bis(\m~3~-
4-amino-3,5-bis(3-carboxylatophenyl)-1,2,4-triazole)-(\m~2~-4-amino-3,5-bis(3-
carboxylatophenyl)-1,2,4-triazole)-di-terbium(iii) hexaaqua-manganese(ii) 
clathrate hemihydrate]
;
_cell_volume   3291.863
_exptl_crystal_colour 'colorless'
_exptl_crystal_density_diffrn 1.795
_exptl_special_details
;
luminescent

;
_diffrn_ambient_temperature 298
_refine_special_details
;
The water molecule is disordered over two sites with occupancies 0.245:0.255.

;
#These two values have been output from a single CSD field.
_refine_ls_R_factor_gt 0.0394
_refine_ls_wR_factor_gt 0.0394
_symmetry_cell_setting triclinic
_symmetry_space_group_name_H-M 'P -1'
_symmetry_Int_Tables_number 2
loop_
_symmetry_equiv_pos_site_id
_symmetry_equiv_pos_as_xyz
1 x,y,z
2 -x,-y,-z
_cell_length_a 11.1188(16)
_cell_length_b 11.1414(16)
_cell_length_c 27.065(4)
_cell_angle_alpha 79.742(2)
_cell_angle_beta 86.224(2)
_cell_angle_gamma 89.898(2)
_cell_formula_units_Z 2
loop_
_atom_type_symbol
_atom_type_radius_bond
C 0.68
H 0.23
Mn 1.35
N 0.68
O 0.68
Tb 1.60
loop_
_atom_site_label
_atom_site_type_symbol
_atom_site_fract_x
_atom_site_fract_y
_atom_site_fract_z
Tb1 Tb 0.56063(2) 0.38477(2) 0.953588(8)
Tb2 Tb 0.62454(2) 0.52693(2) 0.545410(8)
Mn1 Mn 0.59670(7) 0.46411(7) 0.74982(3)
N1 N 0.8109(5) 0.8116(4) 0.74442(19)
N2 N 0.7563(4) 0.9266(4) 0.74214(16)
N3 N 0.7073(5) 1.1128(4) 0.71050(17)
N4 N 0.6948(4) 1.0961(4) 0.76252(17)
N5 N 0.9399(4) 0.2120(5) 0.75916(18)
N6 N 1.0528(4) 0.2718(4) 0.75664(16)
N7 N 1.2316(4) 0.3411(4) 0.72805(16)
N8 N 1.2252(4) 0.3243(4) 0.78013(17)
N9 N 0.3614(5) 0.1177(4) 0.73243(19)
N10 N 0.4180(4) 0.0030(4) 0.73764(16)
N11 N 0.4771(4) -0.1721(4) 0.72080(16)
N12 N 0.4669(4) -0.1806(4) 0.77245(16)
N13 N 0.2483(4) 0.6634(5) 0.76479(19)
N14 N 0.1322(4) 0.6147(4) 0.76252(16)
N15 N -0.0386(4) 0.5745(4) 0.73419(16)
N16 N -0.0549(4) 0.5621(4) 0.78588(17)
C1 C 0.7243(5) 0.7334(5) 0.57350(19)
C2 C 0.7644(5) 0.8529(5) 0.5863(2)
C3 C 0.8294(7) 0.9393(6) 0.5512(2)
H1 H 0.85410 0.92200 0.51980
C4 C 0.8567(8) 1.0503(7) 0.5634(3)
H2 H 0.89210 1.11140 0.53880
C5 C 0.8321(8) 1.0723(6) 0.6117(2)
H3 H 0.85580 1.14570 0.62010
C6 C 0.7720(5) 0.9844(5) 0.6478(2)
C7 C 0.7373(5) 0.8756(5) 0.6349(2)
H4 H 0.69560 0.81730 0.65860
C8 C 0.7455(5) 1.0086(5) 0.6990(2)
C9 C 0.7253(5) 0.9834(4) 0.7810(2)
C10 C 0.7229(5) 0.9317(5) 0.8348(2)
C11 C 0.7639(6) 1.0011(5) 0.8686(2)
H5 H 0.80100 1.07640 0.85670
C12 C 0.7490(6) 0.9572(6) 0.9198(2)
H6 H 0.77890 1.00170 0.94240
C13 C 0.6902(5) 0.8483(5) 0.9374(2)
H7 H 0.67660 0.82160 0.97190
C14 C 0.6511(5) 0.7776(5) 0.90416(18)
C15 C 0.6696(5) 0.8195(5) 0.85286(19)
H8 H 0.64580 0.77140 0.83040
C16 C 0.5884(5) 0.6582(5) 0.92330(18)
C17 C 0.2911(5) 0.5117(5) 0.9561(2)
C18 C 0.1792(5) 0.5545(5) 0.9298(2)
C19 C 0.0849(6) 0.6012(6) 0.9561(2)
H9 H 0.09130 0.60660 0.98970
C20 C -0.0176(6) 0.6396(7) 0.9332(2)
H10 H -0.08130 0.66890 0.95150
C21 C -0.0275(5) 0.6353(7) 0.8834(2)
H11 H -0.09760 0.66210 0.86820
C22 C 0.0663(5) 0.5911(5) 0.8554(2)
C23 C 0.1696(5) 0.5485(5) 0.8790(2)
H12 H 0.23210 0.51620 0.86110
C24 C 0.0482(5) 0.5878(5) 0.80263(19)
C25 C 0.0738(5) 0.6070(5) 0.72047(19)
C26 C 0.1204(5) 0.6319(5) 0.66743(19)
C27 C 0.2285(5) 0.5860(5) 0.65101(19)
H13 H 0.28110 0.54840 0.67420
C28 C 0.2588(5) 0.5961(5) 0.59935(19)
C29 C 0.1818(6) 0.6570(5) 0.5655(2)
H14 H 0.20240 0.66520 0.53120
C30 C 0.0762(6) 0.7053(6) 0.5814(2)
H15 H 0.02590 0.74660 0.55810
C31 C 0.0443(6) 0.6926(6) 0.6324(2)
H16 H -0.02800 0.72460 0.64330
C32 C 0.3724(5) 0.5388(5) 0.58140(18)
C33 C 0.4941(5) 0.2609(5) 0.54527(19)
C34 C 0.4587(5) 0.1339(5) 0.5710(2)
C35 C 0.4076(6) 0.0552(6) 0.5445(2)
H17 H 0.39470 0.08110 0.51070
C36 C 0.3751(8) -0.0623(6) 0.5676(2)
H18 H 0.34420 -0.11630 0.54890
C37 C 0.3886(7) -0.0992(6) 0.6181(2)
H19 H 0.36620 -0.17800 0.63360
C38 C 0.4355(5) -0.0197(5) 0.6463(2)
C39 C 0.4733(5) 0.0958(4) 0.62187(19)
H20 H 0.50900 0.14830 0.63990
C40 C 0.4446(5) -0.0610(4) 0.70030(19)
C41 C 0.4302(5) -0.0745(4) 0.78196(19)
C42 C 0.4064(5) -0.0493(5) 0.83315(19)
C43 C 0.3506(5) -0.1413(5) 0.8685(2)
H21 H 0.32320 -0.21160 0.85860
C44 C 0.3357(6) -0.1287(5) 0.9185(2)
H22 H 0.29770 -0.19040 0.94200
C45 C 0.3768(5) -0.0249(5) 0.9340(2)
H23 H 0.36910 -0.01800 0.96780
C46 C 0.4303(5) 0.0696(5) 0.89812(19)
C47 C 0.4441(5) 0.0578(5) 0.84775(19)
H24 H 0.47820 0.12110 0.82390
C48 C 0.4734(5) 0.1821(5) 0.9151(2)
C49 C 0.7849(5) 0.2899(5) 0.92749(19)
C50 C 0.9105(5) 0.2528(5) 0.91380(19)
C51 C 0.9803(6) 0.1862(7) 0.9488(2)
H25 H 0.94980 0.16350 0.98200
C52 C 1.0961(7) 0.1530(9) 0.9347(3)
H26 H 1.14360 0.10970 0.95860
C53 C 1.1414(6) 0.1838(9) 0.8853(3)
H27 H 1.21860 0.16040 0.87580
C54 C 1.0703(5) 0.2502(5) 0.8498(2)
C55 C 0.9574(5) 0.2859(5) 0.8645(2)
H28 H 0.91150 0.33310 0.84100
C56 C 1.1177(5) 0.2817(5) 0.7969(2)
C57 C 1.1270(4) 0.3080(5) 0.71490(19)
C58 C 1.0944(5) 0.3128(5) 0.6626(2)
C59 C 0.9832(5) 0.3564(5) 0.64755(19)
H29 H 0.92560 0.37660 0.67110
C60 C 0.9574(5) 0.3699(4) 0.59713(19)
C61 C 0.8387(5) 0.4180(5) 0.58038(19)
C62 C 1.0445(5) 0.3394(5) 0.5625(2)
H30 H 1.02890 0.35060 0.52860
C63 C 1.1545(5) 0.2926(5) 0.5776(2)
H31 H 1.21090 0.26920 0.55430
C64 C 1.1795(5) 0.2809(5) 0.6272(2)
H32 H 1.25390 0.25140 0.63730
O1 O 0.6361(4) 0.6783(3) 0.59854(14)
O2 O 0.7805(3) 0.6917(4) 0.53864(14)
O3 O 0.5927(4) 0.5766(3) 0.89616(14)
O4 O 0.5340(3) 0.6396(4) 0.96605(13)
O5 O 0.7413(4) 0.3788(4) 0.89956(14)
O6 O 0.7269(4) 0.2335(3) 0.96573(14)
O7 O 0.7578(3) 0.4432(3) 0.61253(13)
O8 O 0.8180(3) 0.4331(4) 0.53505(13)
O9 O 0.5649(3) 0.3197(3) 0.56543(14)
O10 O 0.4438(4) 0.2977(3) 0.50470(15)
O11 O 0.5158(3) 0.2720(3) 0.88350(13)
O12 O 0.4651(4) 0.1876(3) 0.96081(14)
O13 O 0.3656(3) 0.4505(3) 0.93423(14)
O14 O 0.3014(3) 0.5420(4) 0.99799(14)
O15 O 0.4547(3) 0.5127(4) 0.61054(14)
O16 O 0.3855(3) 0.5228(3) 0.53627(13)
O17 O 0.5526(4) 0.3358(4) 0.69611(16)
H33 H 0.51640 0.37340 0.67280
O18 O 0.7540(4) 0.5095(6) 0.70200(17)
H34 H 0.74470 0.49050 0.67460
O19 O 0.4992(4) 0.5978(4) 0.70162(14)
H35 H 0.50600 0.66440 0.71020
O20 O 0.6853(4) 0.3123(4) 0.79576(15)
H36 H 0.67060 0.24880 0.78590
O21 O 0.6836(3) 0.5678(3) 0.80054(14)
H37 H 0.63650 0.57350 0.82460
O22 O 0.4368(4) 0.4249(5) 0.80046(17)
H38 H 0.45230 0.43330 0.82880
O23? O 0.1062(4) 0.9702(5) 0.69545(18)
H39? H 0.09410 0.98410 0.66870
H40? H 0.15630 0.92620 0.70880
O24 O 0.0555(4) 0.9423(5) 0.80064(18)
H41 H 0.07640 0.88700 0.78270
H42 H 0.11280 0.99650 0.80140
H43 H 0.62840 0.32920 0.69380
H44 H 0.50130 0.59510 0.67050
H45 H 0.75280 0.58360 0.70510
H46 H 0.43760 0.14330 0.72610
H47 H 0.74760 0.75930 0.75330
H48 H 0.65940 0.31890 0.82560
H49 H 0.40980 0.35370 0.79760
H50 H 0.92140 0.19260 0.72950
H51 H 0.28900 0.59440 0.76380
H52 H 0.75350 0.53990 0.80730
H53 H 0.85850 0.80090 0.77040
H54 H 0.25700 0.71370 0.73530
H55 H 0.87770 0.25380 0.77030
H56 H 0.32720 0.11710 0.70340
Tb1A Tb 0.43937(2) 0.61523(2) 1.046412(8)
Tb2A Tb 0.37546(2) 0.47307(2) 0.454590(8)
O4A O 0.4660(3) 0.3604(4) 1.03395(13)
O10A O 0.5562(4) 0.7023(3) 0.49530(15)
O14A O 0.6986(3) 0.4580(4) 1.00201(14)
O16A O 0.6145(3) 0.4772(3) 0.46373(13)
#END
