
#######################################################################
#
#                 Cambridge Crystallographic Data Centre
#                                CCDC
#
#######################################################################
#
# If this CIF has been generated from an entry in the Cambridge
# Structural Database, then it will include bibliographic, chemical,
# crystal, experimental, refinement or atomic coordinate data resulting
# from the CCDC's data processing and validation procedures.
#
#######################################################################

data_CSD_CIF_CIPVUV
_audit_creation_date 2018-11-24
_audit_creation_method CSD-ConQuest-V1
_database_code_CSD CIPVUV
_database_code_depnum_ccdc_archive 'CCDC 1571452'
_chemical_formula_sum 'C37 H77 Bi2 Cu2 I10 N3'
_chemical_formula_moiety
;
2(C16 H36 N1 1+),n(C5 H5 Bi2 Cu2 I10 N1 2-)
;
_journal_coden_Cambridge 1290
_journal_year 2017
_journal_page_first 4990
_journal_name_full 'Eur.J.Inorg.Chem. '
loop_
_publ_author_name
"A.W.Kelly"
"A.M.Wheaton"
"A.D.Nicholas"
"F.H.Barnes"
"H.H.Patterson"
"R.D.Pike"
_chemical_name_systematic
;
catena-[bis(tetrabutylammonium) 
(\m-pyridine)-hexakis(\m-iodo)-tetraiodo-di-bismuth(iii)-di-copper(i)]
;
_cell_volume   1550.599
_exptl_crystal_colour 'red'
_exptl_crystal_density_diffrn 2.547
_exptl_crystal_description 'block'
_exptl_crystal_preparation 'acetonitrile/acetone/2-propanol'
_diffrn_ambient_temperature 100
_refine_special_details
;
C3,Cu1A,N1 disordered by symmetry over two configurations with occupancy 0.5; 
Cu1B and Cu1C disordered over two sites with occupancies 0.384:0.116.
;
#These two values have been output from a single CSD field.
_refine_ls_R_factor_gt 0.018
_refine_ls_wR_factor_gt 0.018
_symmetry_cell_setting triclinic
_symmetry_space_group_name_H-M 'P -1'
_symmetry_Int_Tables_number 2
loop_
_symmetry_equiv_pos_site_id
_symmetry_equiv_pos_as_xyz
1 x,y,z
2 -x,-y,-z
_cell_length_a 12.0034(10)
_cell_length_b 12.0573(10)
_cell_length_c 13.1255(10)
_cell_angle_alpha 67.624(1)
_cell_angle_beta 86.656(1)
_cell_angle_gamma 63.041(1)
_cell_formula_units_Z 2
loop_
_atom_type_symbol
_atom_type_radius_bond
C 0.68
H 0.23
Bi 1.48
Cu 1.32
I 1.40
N 0.68
loop_
_atom_site_label
_atom_site_type_symbol
_atom_site_fract_x
_atom_site_fract_y
_atom_site_fract_z
Bi1 Bi 0.40017(2) 0.23406(2) 0.33083(2)
I1 I 0.33721(2) 0.06242(2) 0.57202(2)
I2 I 0.30868(2) 0.09037(2) 0.22950(2)
I3 I 0.48034(2) -0.31623(2) 0.52610(2)
I4 I 0.15607(2) 0.47301(2) 0.27009(2)
I5 I 0.51136(2) 0.33700(2) 0.13826(2)
Cu1 Cu 0.30688(8) -0.05013(9) 0.44396(8)
C1 C 0.0215(5) 0.0487(4) 0.3934(4)
H1 H 0.03380 0.08390 0.31800
C2 C -0.1009(4) 0.0763(4) 0.4189(4)
H2 H -0.17000 0.13040 0.36050
N1 N 0.1227(4) -0.0270(4) 0.4742(3)
C3 C 0.2865(3) 0.4873(3) 0.6749(3)
H3 H 0.30360 0.56010 0.67530
H4 H 0.34790 0.44100 0.63250
C4 C 0.1545(3) 0.5527(4) 0.6133(3)
H5 H 0.09240 0.61070 0.64790
H6 H 0.13200 0.48170 0.61790
N2 N 0.3108(2) 0.3848(3) 0.7949(2)
C5 C 0.1516(3) 0.6383(4) 0.4917(3)
H7 H 0.18270 0.70280 0.48810
H8 H 0.20840 0.57840 0.45600
C6 C 0.0186(3) 0.7167(4) 0.4287(3)
H9 H 0.01980 0.76940 0.35090
H10 H -0.03720 0.77820 0.46250
H11 H -0.01230 0.65290 0.43230
C7 C 0.2092(3) 0.4436(3) 0.8613(3)
H12 H 0.12750 0.46150 0.82850
H13 H 0.22870 0.37420 0.93820
C8 C 0.1935(3) 0.5734(3) 0.8670(3)
H14 H 0.18130 0.64180 0.79080
H15 H 0.27060 0.55490 0.90840
C9 C 0.0799(4) 0.6283(4) 0.9251(3)
H16 H 0.00220 0.65520 0.87920
H17 H 0.08820 0.55570 0.99760
C10 C 0.0680(4) 0.7496(5) 0.9441(4)
H18 H -0.01020 0.78700 0.97500
H19 H 0.06620 0.81900 0.87320
H20 H 0.14030 0.72090 0.99630
C11 C 0.4379(3) 0.3505(3) 0.8477(3)
H21 H 0.43560 0.43590 0.84170
H22 H 0.44910 0.29350 0.92790
C12 C 0.5529(3) 0.2773(4) 0.7991(3)
H23 H 0.53880 0.32630 0.71730
H24 H 0.56580 0.18460 0.81620
C13 C 0.6702(3) 0.2693(3) 0.8476(3)
H25 H 0.66110 0.36190 0.82210
H26 H 0.67680 0.23210 0.92970
C14 C 0.7902(3) 0.1812(4) 0.8138(3)
H27 H 0.86200 0.18350 0.84310
H28 H 0.78290 0.21560 0.73250
H29 H 0.80320 0.08770 0.84390
C15 C 0.3091(3) 0.2611(3) 0.7918(3)
H30 H 0.22380 0.28850 0.75880
H31 H 0.36930 0.22900 0.74210
C16 C 0.3422(4) 0.1440(4) 0.9039(3)
H32 H 0.28330 0.17510 0.95470
H33 H 0.42870 0.11310 0.93650
C17 C 0.2034(4) 0.0508(4) 0.8641(4)
H34 H 0.20650 -0.03240 0.86550
H35 H 0.16780 0.12290 0.78950
H36 H 0.15030 0.07850 0.91830
C18 C 0.3346(4) 0.0252(4) 0.8932(3)
H37 H 0.38580 0.00250 0.83530
H38 H 0.37310 -0.05490 0.96450
Cu2? Cu 0.4935(7) -0.0991(5) 0.3863(5)
H39? H 0.20540 -0.04500 0.45680
C19? C 0.1227(4) -0.0270(4) 0.4742(3)
Cu3? Cu 0.43522(19) -0.07140(14) 0.42348(14)
C1A C -0.0215(5) -0.0487(4) 0.6066(4)
H1A H -0.03380 -0.08390 0.68200
C2A C 0.1009(4) -0.0763(4) 0.5811(4)
H2A H 0.17000 -0.13040 0.63950
N1A N -0.1227(4) 0.0270(4) 0.5258(3)
Bi1A Bi -0.40017(2) -0.23406(2) 0.66917(2)
I1A I -0.33721(2) -0.06242(2) 0.42798(2)
I2A I -0.30868(2) -0.09037(2) 0.77050(2)
I3A I -0.48034(2) 0.31623(2) 0.47390(2)
I4A I -0.15607(2) -0.47301(2) 0.72991(2)
I5A I -0.51136(2) -0.33700(2) 0.86174(2)
Cu1A Cu -0.30688(8) 0.05013(9) 0.55604(8)
Bi1* Bi -0.59983(2) 0.23406(2) 0.33083(2)
Bi1A* Bi 0.59983(2) -0.23406(2) 0.66917(2)
I1* I -0.66279(2) 0.06242(2) 0.57202(2)
I1A* I 0.66279(2) -0.06242(2) 0.42798(2)
I3* I -0.51966(2) -0.31623(2) 0.52610(2)
I3A* I 0.51966(2) 0.31623(2) 0.47390(2)
#END
