
#######################################################################
#
#                 Cambridge Crystallographic Data Centre
#                                CCDC
#
#######################################################################
#
# If this CIF has been generated from an entry in the Cambridge
# Structural Database, then it will include bibliographic, chemical,
# crystal, experimental, refinement or atomic coordinate data resulting
# from the CCDC's data processing and validation procedures.
#
#######################################################################

data_CSD_CIF_CIRSUR
_audit_creation_date 2000-03-16
_audit_creation_method CSD-ConQuest-V1
_database_code_CSD CIRSUR
_database_code_depnum_ccdc_archive 'CCDC 136917'
_chemical_formula_sum 'C8 H28 Fe2 N2 O16 P4'
_chemical_formula_moiety
;
(C4 H10 Fe2 O14 P4 2-)n,n(C4 H14 N2 2+),2n(H2 O1)
;
_journal_coden_Cambridge 9
_journal_volume 38
_journal_year 1999
_journal_page_first 4618
_journal_name_full 'Inorg.Chem. '
loop_
_publ_author_name
"Li-Min Zheng"
"Hui-Hua Song"
"Chia-Heir Lin"
"Sue-Lein Wang"
"Zheng Hu"
"Zhi Yu"
"Xin-Quan Xin"
_chemical_name_systematic
;
catena-(Butane-1,4-diammonium 
bis(\m~3~-1-hydroxy-1-(hydrogenphosphonate)-1-(phosphonato)ethane)-di-iron(ii)
 dihydrate)
;
_cell_volume   1085.073
_exptl_crystal_colour 'colorless'
_exptl_crystal_density_diffrn 1.971
_exptl_special_details
;
R=0.0245 is published in the paper

;
_exptl_crystal_description 'acicular'
_diffrn_ambient_temperature ?
_diffrn_special_details
;
The study was carried out at room temperature,in the range 283-303K

;
#These two values have been output from a single CSD field.
_refine_ls_R_factor_gt 0.0254
_refine_ls_wR_factor_gt 0.0254
_symmetry_cell_setting monoclinic
_symmetry_space_group_name_H-M 'P 21/c'
_symmetry_Int_Tables_number 14
loop_
_symmetry_equiv_pos_site_id
_symmetry_equiv_pos_as_xyz
1 x,y,z
2 x,1/2-y,1/2+z
3 -x,-y,-z
4 -x,-1/2+y,-1/2-z
_cell_length_a 5.5362(2)
_cell_length_b 12.8676(5)
_cell_length_c 15.4337(5)
_cell_angle_alpha 90
_cell_angle_beta 99.279(1)
_cell_angle_gamma 90
_cell_formula_units_Z 2
loop_
_atom_type_symbol
_atom_type_radius_bond
C 0.68
H 0.23
Fe 1.34
N 0.68
O 0.68
P 1.05
loop_
_atom_site_label
_atom_site_type_symbol
_atom_site_fract_x
_atom_site_fract_y
_atom_site_fract_z
Fe1 Fe -0.61186(5) 0.03357(2) 0.09076(2)
P1 P -0.0998(1) 0.12016(4) 0.17583(3)
P2 P -0.10671(10) -0.10132(4) 0.11290(3)
O1 O -0.3233(3) 0.14325(11) 0.10803(9)
O2 O 0.1459(3) 0.13425(11) 0.1476(1)
O3 O -0.1238(3) 0.18421(12) 0.25888(10)
O4 O -0.3156(3) -0.06727(11) 0.04185(9)
O5 O -1.1494(3) 0.08967(11) -0.09234(10)
O6 O -0.1569(3) -0.21440(11) 0.13702(10)
O7 O -0.3916(3) -0.02148(11) 0.21864(10)
O8 O -0.4478(3) -0.19418(14) 0.30063(15)
N1 N -0.3889(3) 0.26783(13) -0.04178(13)
C1 C -0.3348(5) 0.3814(2) -0.0399(2)
C2 C -0.5251(5) 0.4415(2) -0.0011(2)
C3 C 0.0357(4) -0.0445(2) 0.29027(14)
C4 C -0.1369(4) -0.01636(15) 0.20639(13)
H1 H -0.26040 0.23270 -0.07490
H2 H -0.37990 0.24320 0.00880
H3 H -0.52250 0.25710 -0.06930
H4 H -0.15930 0.39630 -0.00580
H5 H -0.33060 0.40680 -0.10040
H6 H -0.52960 0.42290 0.05390
H7 H -0.67940 0.43160 -0.03800
H8 H 0.18640 -0.03460 0.28330
H9 H -0.00420 -0.00430 0.34000
H10 H 0.02300 -0.10930 0.30530
H11 H 0.00940 0.22210 0.30070
H12 H -0.40480 -0.08100 0.24210
H13 H -0.54750 -0.23210 0.27090
H14 H -0.33200 -0.24340 0.30890
O2* O -0.8541(3) 0.13425(11) 0.1476(1)
Fe1* Fe 0.38814(5) 0.03357(2) 0.09076(2)
O2B O -0.1459(3) -0.13425(11) -0.1476(1)
Fe1B Fe -0.38814(5) -0.03357(2) -0.09076(2)
O1B O -0.6767(3) -0.14325(11) -0.10803(9)
O4B O -0.6844(3) 0.06727(11) -0.04185(9)
Fe1B* Fe -1.38814(5) -0.03357(2) -0.09076(2)
P2B P -0.89329(10) 0.10132(4) -0.11290(3)
O5B O -0.8506(3) -0.08967(11) 0.09234(10)
O2B* O -1.1459(3) -0.13425(11) -0.1476(1)
O6B O -0.8431(3) 0.21440(11) -0.13702(10)
C4B C -0.8631(4) 0.01636(15) -0.20639(13)
O5* O -0.1494(3) 0.08967(11) -0.09234(10)
O7B O -0.6084(3) 0.02148(11) -0.21864(10)
O5B* O 0.1494(3) -0.08967(11) 0.09234(10)
C2B C -0.4749(5) 0.5585(2) 0.0011(2)
C1B C -0.6652(5) 0.6186(2) 0.0399(2)
N1B N -0.6111(3) 0.73217(13) 0.04178(13)
H1B H -0.73960 0.76730 0.07490
H2B H -0.62010 0.75680 -0.00880
H3B H -0.47750 0.74290 0.06930
H4B H -0.84070 0.60370 0.00580
H5B H -0.66940 0.59320 0.10040
H6B H -0.47040 0.57710 -0.05390
H7B H -0.32060 0.56840 0.03800
H12B H -0.59520 0.08100 -0.24210
P1B P -0.9002(1) -0.12016(4) -0.17583(3)
C3B C -1.0357(4) 0.0445(2) -0.29027(14)
H8B H -1.18640 0.03460 -0.28330
H9B H -0.99580 0.00430 -0.34000
H10B H -1.02300 0.10930 -0.30530
O3B O -0.8762(3) -0.18421(12) -0.25888(10)
H11B H -1.00940 -0.22210 -0.30070
#END
