
#######################################################################
#
#                 Cambridge Crystallographic Data Centre
#                                CCDC
#
#######################################################################
#
# If this CIF has been generated from an entry in the Cambridge
# Structural Database, then it will include bibliographic, chemical,
# crystal, experimental, refinement or atomic coordinate data resulting
# from the CCDC's data processing and validation procedures.
#
#######################################################################

data_CSD_CIF_CITKAT
_audit_creation_date 2013-11-26
_audit_creation_method CSD-ConQuest-V1
_database_code_CSD CITKAT
_database_code_depnum_ccdc_archive 'CCDC 842912'
_chemical_formula_sum 'C15 H32 Eu1 N3 O13'
_chemical_formula_moiety
;
(C14 H20 Eu1 N2 O10 1-)n,n(C1 H6 N1 1+),3n(H2 O1)
;
_journal_coden_Cambridge 211
_journal_volume 66
_journal_year 2013
_journal_page_first 3660
_journal_name_full 'J.Coord.Chem. '
loop_
_publ_author_name
"Congcong Ma"
"Ying Li"
"Jun Wang"
"Jingqun Gao"
"Qiong Wu"
_chemical_name_systematic
;
catena-[Methanaminium 
(\m~2~-3-((carboxy)methyl)-12-((carboxy)methyl)-6,9-dioxa-3,12-diazatetradecan
e-1,14-dioato)-europium trihydrate]
;
_cell_volume   4490.574
_exptl_crystal_density_diffrn 1.818
_diffrn_ambient_temperature 298
#These two values have been output from a single CSD field.
_refine_ls_R_factor_gt 0.0442
_refine_ls_wR_factor_gt 0.0442
_symmetry_cell_setting monoclinic
_symmetry_space_group_name_H-M 'C 2/c'
_symmetry_Int_Tables_number 15
loop_
_symmetry_equiv_pos_site_id
_symmetry_equiv_pos_as_xyz
1 x,y,z
2 -x,y,1/2-z
3 1/2+x,1/2+y,z
4 1/2-x,1/2+y,1/2-z
5 -x,-y,-z
6 x,-y,-1/2+z
7 -1/2-x,-1/2-y,-z
8 -1/2+x,-1/2-y,-1/2+z
_cell_length_a 38.513(3)
_cell_length_b 13.5877(8)
_cell_length_c 8.7051(5)
_cell_angle_alpha 90
_cell_angle_beta 99.678(1)
_cell_angle_gamma 90
_cell_formula_units_Z 8
loop_
_atom_type_symbol
_atom_type_radius_bond
C 0.68
H 0.23
Eu 1.98
N 0.68
O 0.68
loop_
_atom_site_label
_atom_site_type_symbol
_atom_site_fract_x
_atom_site_fract_y
_atom_site_fract_z
Eu1 Eu 0.625108(10) 0.31380(2) 0.25169(4)
N1 N 0.57552(16) 0.1831(4) 0.1820(7)
N2 N 0.67109(17) 0.3434(4) 0.5112(6)
O1 O 0.63717(14) 0.1981(4) 0.0439(6)
O2 O 0.68762(13) 0.3193(4) 0.2062(5)
O3 O 0.59415(14) 0.2699(4) 0.4566(5)
O4 O 0.5783(2) 0.1451(5) 0.5890(8)
O5 O 0.56928(14) 0.3804(4) 0.1409(6)
O6 O 0.51184(15) 0.3751(5) 0.0637(7)
O7 O 0.65519(13) 0.1684(3) 0.3661(5)
O8 O 0.68874(17) 0.0858(4) 0.5540(6)
O9 O 0.62408(14) 0.4706(3) 0.3565(5)
O10 O 0.63246(14) 0.5827(3) 0.5417(5)
C1 C 0.5802(2) 0.1322(6) 0.0392(10)
H1 H 0.57050 0.17260 -0.04940
H2 H 0.56700 0.07110 0.03200
C2 C 0.6181(2) 0.1093(6) 0.0299(10)
H3 H 0.62780 0.06460 0.11310
H4 H 0.61960 0.07810 -0.06890
C3 C 0.6738(2) 0.1806(6) 0.0412(10)
H5 H 0.67660 0.15310 -0.05890
H6 H 0.68290 0.13330 0.12140
C4 C 0.6937(2) 0.2713(7) 0.0672(10)
H7 H 0.71860 0.25690 0.07540
H8 H 0.68700 0.31480 -0.02100
C5 C 0.7155(2) 0.3139(6) 0.3391(9)
H9 H 0.73730 0.33890 0.31250
H10 H 0.71920 0.24630 0.37400
C6 C 0.70426(19) 0.3750(6) 0.4625(8)
H11 H 0.72280 0.37430 0.55300
H12 H 0.70150 0.44240 0.42570
C7 C 0.5839(2) 0.1827(7) 0.4679(10)
C8 C 0.5786(2) 0.1210(5) 0.3215(9)
H13 H 0.59830 0.07630 0.32420
H14 H 0.55740 0.08180 0.31710
C9 C 0.5401(2) 0.3363(6) 0.1155(9)
C10 C 0.5403(2) 0.2297(6) 0.1598(10)
H15 H 0.53080 0.22340 0.25570
H16 H 0.52480 0.19410 0.07930
C11 C 0.6735(2) 0.1622(6) 0.5014(9)
C12 C 0.6756(2) 0.2521(5) 0.6027(8)
H17 H 0.65760 0.24840 0.66780
H18 H 0.69830 0.25340 0.67060
C13 C 0.63676(19) 0.4989(5) 0.4911(8)
C14 C 0.6577(2) 0.4241(5) 0.5989(8)
H19 H 0.67740 0.45690 0.66260
H20 H 0.64280 0.39690 0.66780
N3 N 0.44529(17) 0.4181(5) 0.9137(7)
H21 H 0.46650 0.41990 0.97290
H22 H 0.43130 0.37830 0.95700
H23 H 0.43620 0.47840 0.90580
C15 C 0.4484(3) 0.3814(7) 0.7579(10)
H24 H 0.46520 0.42080 0.71510
H25 H 0.42590 0.38520 0.69130
H26 H 0.45620 0.31420 0.76540
O11 O 0.72187(15) 0.0179(4) 0.8397(6)
H27 H 0.70900 0.03530 0.75500
H28 H 0.70920 -0.01260 0.89500
O12 O 0.75995(17) 0.0942(5) 0.1375(7)
H29 H 0.75020 0.07600 0.04720
H30 H 0.75000 0.06450 0.20420
O13 O 0.51284(18) 0.0623(7) 0.6173(9)
H31 H 0.53260 0.08570 0.60450
H32 H 0.50550 0.02380 0.54180
H33? H 0.50890 0.06910 0.70990
Eu1E Eu 0.625108(10) 0.68620(2) 0.75169(4)
O10E O 0.63246(14) 0.4173(3) 0.0417(5)
#END
