
#######################################################################
#
#                 Cambridge Crystallographic Data Centre
#                                CCDC
#
#######################################################################
#
# If this CIF has been generated from an entry in the Cambridge
# Structural Database, then it will include bibliographic, chemical,
# crystal, experimental, refinement or atomic coordinate data resulting
# from the CCDC's data processing and validation procedures.
#
#######################################################################

data_CSD_CIF_CITPIG
_audit_creation_date 2013-11-26
_audit_creation_method CSD-ConQuest-V1
_database_code_CSD CITPIG
_database_code_depnum_ccdc_archive 'CCDC 948164'
_chemical_formula_sum 'C14 H36 Cu1 Mo8 N8 O34'
_chemical_formula_moiety
;
(C10 H8 Cu1 Mo8 N4 O30 4-)n,2(C2 H10 N2 2+),4(H2 O1)
;
_journal_coden_Cambridge 222
_journal_volume 43
_journal_year 2014
_journal_page_first 2052
_journal_name_full 'Dalton Trans. '
loop_
_publ_author_name
"Xiuli Wang"
"Na Han"
"Hongyan Lin"
"Aixiang Tian"
"Guocheng Liu"
"Juwen Zhang"
_chemical_name_systematic
;
catena-[bis(ethane-1,2-diaminium) 
bis(\m~5~-oxido)-tetrakis(\m~3~-oxido)-bis(pyrazine-2-carboxylate)-dodecakis(o
xido)-copper-octa-molybdenum tetrahydrate]
;
_cell_volume   1003.011
_exptl_crystal_colour 'green'
_exptl_crystal_density_diffrn 2.797
_exptl_crystal_description 'block'
_diffrn_ambient_temperature 293
#These two values have been output from a single CSD field.
_refine_ls_R_factor_gt 0.0237
_refine_ls_wR_factor_gt 0.0237
_symmetry_cell_setting triclinic
_symmetry_space_group_name_H-M 'P -1'
_symmetry_Int_Tables_number 2
loop_
_symmetry_equiv_pos_site_id
_symmetry_equiv_pos_as_xyz
1 x,y,z
2 -x,-y,-z
_cell_length_a 8.4443(5)
_cell_length_b 10.7103(7)
_cell_length_c 11.8338(8)
_cell_angle_alpha 71.646(1)
_cell_angle_beta 84.246(1)
_cell_angle_gamma 81.500(1)
_cell_formula_units_Z 1
loop_
_atom_type_symbol
_atom_type_radius_bond
C 0.68
H 0.23
Cu 1.32
Mo 1.54
N 0.68
O 0.68
loop_
_atom_site_label
_atom_site_type_symbol
_atom_site_fract_x
_atom_site_fract_y
_atom_site_fract_z
Mo1 Mo -0.18457(4) -0.03336(3) -0.41847(3)
Cu1 Cu 0.00000 0.00000 0.00000
O1 O 0.0320(4) 0.2866(3) -0.3207(3)
N1 N 0.1434(4) 0.1247(3) 0.0153(3)
C1 C 0.2820(5) -0.0888(4) 0.1102(3)
Mo2 Mo -0.04799(4) 0.23197(3) -0.42034(3)
N2 N 0.3792(5) 0.2580(4) 0.0515(3)
H1 H 0.45270 0.30000 0.06250
O2 O 0.0832(3) -0.2090(3) -0.2060(2)
C2 C 0.2740(5) 0.0588(4) 0.0729(3)
Mo3 Mo 0.18588(4) -0.05805(3) -0.29539(3)
O3 O -0.0760(3) 0.0460(3) -0.3253(2)
C3 C 0.3906(5) 0.1265(5) 0.0926(4)
H2 H 0.47840 0.07930 0.13540
Mo4 Mo 0.04781(4) -0.32907(3) -0.29045(3)
O4 O 0.0295(3) 0.3438(3) -0.5673(3)
C4 C 0.2514(6) 0.3221(4) -0.0066(4)
H3 H 0.24170 0.41410 -0.03670
O5 O 0.0850(3) -0.1202(2) -0.4429(2)
C5 C 0.1303(6) 0.2554(4) -0.0242(4)
H4 H 0.04020 0.30320 -0.06380
O6 O 0.1895(3) 0.0964(3) -0.4427(2)
O7 O -0.3728(3) 0.0428(3) -0.4131(3)
O8 O 0.3750(3) -0.1339(3) -0.3107(3)
O9 O -0.2455(4) 0.2946(3) -0.4181(3)
O10 O 0.2426(4) -0.3913(3) -0.3090(3)
O11 O -0.0354(4) -0.4506(3) -0.1810(3)
O12 O 0.1938(4) 0.0147(3) -0.1873(3)
O13 O -0.1876(3) -0.1905(3) -0.3124(2)
O14 O 0.3992(4) -0.1586(3) 0.1607(3)
O15 O 0.1627(3) -0.1340(3) 0.0840(3)
O16 O 0.6691(4) 0.3746(3) 0.0374(3)
O17 O 0.6262(4) -0.2953(4) 0.3160(3)
N3 N 0.7070(5) 0.4106(4) -0.2066(3)
H5 H 0.70570 0.39470 -0.12800
H6 H 0.80760 0.41260 -0.23710
H7 H 0.66490 0.34670 -0.22210
N4 N 0.5400(5) 0.7047(4) -0.4527(4)
H8 H 0.54180 0.71930 -0.53110
H9 H 0.59540 0.76160 -0.43760
H10 H 0.43900 0.71580 -0.42430
C6 C 0.6125(5) 0.5680(4) -0.3949(4)
H11 H 0.72210 0.55550 -0.42670
H12 H 0.55300 0.50600 -0.41220
C7 C 0.6110(5) 0.5404(4) -0.2610(4)
H13 H 0.65590 0.61030 -0.24360
H14 H 0.50150 0.53890 -0.22730
Mo1A Mo 0.18457(4) 0.03336(3) -0.58153(3)
O1A O -0.0320(4) -0.2866(3) -0.6793(3)
Mo2A Mo 0.04799(4) -0.23197(3) -0.57966(3)
O2A O -0.0832(3) 0.2090(3) -0.7940(2)
Mo3A Mo -0.18588(4) 0.05805(3) -0.70461(3)
O3A O 0.0760(3) -0.0460(3) -0.6747(2)
Mo4A Mo -0.04781(4) 0.32907(3) -0.70955(3)
O4A O -0.0295(3) -0.3438(3) -0.4327(3)
O5A O -0.0850(3) 0.1202(2) -0.5571(2)
O6A O -0.1895(3) -0.0964(3) -0.5573(2)
O7A O 0.3728(3) -0.0428(3) -0.5869(3)
O8A O -0.3750(3) 0.1339(3) -0.6893(3)
O9A O 0.2455(4) -0.2946(3) -0.5819(3)
O10A O -0.2426(4) 0.3913(3) -0.6910(3)
O11A O 0.0354(4) 0.4506(3) -0.8190(3)
O12A O -0.1938(4) -0.0147(3) -0.8127(3)
O13A O 0.1876(3) 0.1905(3) -0.6876(2)
N1A N -0.1434(4) -0.1247(3) -0.0153(3)
C1A C -0.2820(5) 0.0888(4) -0.1102(3)
N2A N -0.3792(5) -0.2580(4) -0.0515(3)
H1A H -0.45270 -0.30000 -0.06250
C2A C -0.2740(5) -0.0588(4) -0.0729(3)
C3A C -0.3906(5) -0.1265(5) -0.0926(4)
H2A H -0.47840 -0.07930 -0.13540
C4A C -0.2514(6) -0.3221(4) 0.0066(4)
H3A H -0.24170 -0.41410 0.03670
C5A C -0.1303(6) -0.2554(4) 0.0242(4)
H4A H -0.04020 -0.30320 0.06380
O14A O -0.3992(4) 0.1586(3) -0.1607(3)
O15A O -0.1627(3) 0.1340(3) -0.0840(3)
Cu1* Cu 0.00000 0.00000 -1.00000
O12A* O -0.1938(4) -0.0147(3) 0.1873(3)
#END
