
#######################################################################
#
#                 Cambridge Crystallographic Data Centre
#                                CCDC
#
#######################################################################
#
# If this CIF has been generated from an entry in the Cambridge
# Structural Database, then it will include bibliographic, chemical,
# crystal, experimental, refinement or atomic coordinate data resulting
# from the CCDC's data processing and validation procedures.
#
#######################################################################

data_CSD_CIF_CIVCAM
_audit_creation_date 2008-04-21
_audit_creation_method CSD-ConQuest-V1
_database_code_CSD CIVCAM
_database_code_depnum_ccdc_archive 'CCDC 641393'
_chemical_formula_sum 'C42.5 H38 Co1 Cr2 Mn2 N6 O31.5'
_chemical_formula_moiety
;
(C30 H22 Co1 N6 2+)n,n(C12 H4 Cr2 Mn2 O26 2-),0.5n(C1 H4 O1),5n(H2 O1)
;
_journal_coden_Cambridge 9
_journal_volume 46
_journal_year 2007
_journal_page_first 9513
_journal_name_full 'Inorg.Chem. '
loop_
_publ_author_name
"Hui-Zhong Kou"
"O.Sato"
_chemical_name_systematic
;
catena-[bis(2,2':6',2''-Terpyridyl)-cobalt(ii) 
tetrakis(\m~2~-oxalato-O,O',O'',O''')-bis(\m~2~-oxalato-O,O',O'')-diaqua-di-ch
romium(iii)-di-manganese(ii) methanol solvate pentahydrate]
;
_cell_volume   5220.539
_exptl_crystal_colour 'light red'
_exptl_crystal_density_diffrn 1.794
_exptl_special_details
;
magnetic properties

;
_exptl_crystal_description 'platelet'
_diffrn_ambient_temperature 113
#These two values have been output from a single CSD field.
_refine_ls_R_factor_gt 0.1125
_refine_ls_wR_factor_gt 0.1125
_symmetry_cell_setting monoclinic
_symmetry_space_group_name_H-M 'P 21/n'
_symmetry_Int_Tables_number 14
loop_
_symmetry_equiv_pos_site_id
_symmetry_equiv_pos_as_xyz
1 x,y,z
2 1/2-x,1/2+y,1/2-z
3 -x,-y,-z
4 -1/2+x,-1/2-y,-1/2+z
_cell_length_a 14.693(3)
_cell_length_b 17.947(4)
_cell_length_c 20.005(5)
_cell_angle_alpha 90
_cell_angle_beta 98.2571(13)
_cell_angle_gamma 90
_cell_formula_units_Z 4
loop_
_atom_type_symbol
_atom_type_radius_bond
C 0.68
H 0.23
Co 1.33
Cr 1.35
Mn 1.35
N 0.68
O 0.68
loop_
_atom_site_label
_atom_site_type_symbol
_atom_site_fract_x
_atom_site_fract_y
_atom_site_fract_z
Co1 Co -0.97805(8) 0.32287(6) -0.15349(6)
Cr1 Cr 0.36870(11) -0.22589(8) 0.33489(8)
Cr2 Cr -0.15379(11) 0.01434(9) 0.18388(8)
Mn1 Mn 0.21635(13) -0.00924(11) 0.15951(10)
Mn2 Mn 0.75339(15) -0.20283(13) 0.36384(11)
O1 O -0.0737(5) 0.0144(4) 0.1122(3)
O2 O 0.2698(5) -0.2161(3) 0.2575(3)
O3 O 0.2837(5) -0.2139(4) 0.4016(3)
O4 O 0.3805(4) -0.1164(3) 0.3222(3)
O5 O 0.4738(5) -0.2269(4) 0.4085(3)
N1 N -1.1060(5) 0.3285(4) -0.1391(4)
O6 O 0.2009(5) -0.2819(5) 0.4628(4)
N2 N -0.9781(5) 0.4006(4) -0.2149(4)
O7 O 0.4676(5) -0.2407(4) 0.2774(3)
O8 O -0.1315(4) -0.0924(3) 0.2044(3)
N3 N -0.8502(5) 0.2962(4) -0.1525(3)
O9 O 0.3412(6) -0.3326(4) 0.3434(4)
O10 O 0.3232(4) -0.0268(3) 0.2502(3)
N4 N -0.9416(5) 0.4015(4) -0.0878(4)
O11 O 0.0767(5) 0.0012(4) 0.1023(3)
O12 O 0.6200(5) -0.2165(4) 0.2858(3)
O13 O -0.2602(5) -0.0095(4) 0.1168(3)
N5 N -1.0135(5) 0.2644(4) -0.2353(3)
O14 O 0.6280(5) -0.2149(4) 0.4229(3)
O15 O 0.2021(4) -0.1288(4) 0.1866(3)
C1 C -0.9507(6) 0.5275(5) -0.2367(4)
H1 H -0.93650 0.57570 -0.22150
C2 C -0.9930(5) 0.3844(5) -0.2812(4)
N6 N -0.9758(5) 0.2433(4) -0.0947(4)
C3 C -1.0548(6) 0.2253(5) -0.0712(4)
C4 C -1.0129(6) 0.3057(5) -0.2936(5)
O16 O -0.0336(5) 0.0384(4) 0.2425(3)
O17 O 0.1173(5) 0.0185(4) 0.2395(4)
O18 O -0.2586(5) -0.0751(4) 0.3377(4)
C5 C -0.7356(6) 0.2043(5) -0.1117(4)
H2 H -0.71910 0.16120 -0.08700
C6 C -0.8988(6) 0.2031(5) -0.0813(4)
C7 C -1.1298(6) 0.2757(5) -0.0947(4)
C8 C 0.0124(7) 0.0123(5) 0.1350(5)
C9 C -0.7874(6) 0.3316(5) -0.1831(4)
H3 H -0.80380 0.37520 -0.20680
C10 C 0.5526(7) -0.2235(5) 0.3877(5)
C11 C -0.9548(6) 0.4694(5) -0.1907(5)
C12 C -0.3004(7) 0.0477(6) 0.0886(5)
C13 C -0.9203(6) 0.3934(5) -0.0212(5)
H4 H -0.92670 0.34690 -0.00190
C14 C -1.2842(6) 0.3226(6) -0.1075(5)
H5 H -1.34390 0.32130 -0.09710
C15 C 0.3249(6) -0.0920(5) 0.2706(4)
C16 C -1.2585(7) 0.3751(5) -0.1530(5)
H6 H -1.30150 0.40880 -0.17400
C17 C -1.0579(7) 0.1616(5) -0.0313(5)
H7 H -1.11190 0.14740 -0.01560
C18 C -0.6991(6) 0.3050(6) -0.1802(5)
H8 H -0.65670 0.33030 -0.20210
C19 C -1.0287(6) 0.2719(5) -0.3561(4)
H9 H -1.02640 0.29960 -0.39510
O19 O -0.2224(5) 0.0078(4) 0.2615(4)
C20 C -0.6739(6) 0.2406(6) -0.1450(5)
H10 H -0.61470 0.22180 -0.14380
O20 O -0.3641(5) 0.0466(5) 0.0395(4)
C21 C -0.2228(6) -0.0567(6) 0.2885(5)
C22 C -0.8236(6) 0.2335(5) -0.1156(4)
C23 C -1.0334(6) 0.1929(5) -0.2405(5)
H11 H -1.03340 0.16510 -0.20130
O21 O -0.1936(6) 0.1184(4) 0.1635(4)
C24 C -0.9032(6) 0.5306(5) -0.0776(5)
H12 H -0.89880 0.57710 -0.09750
C25 C -0.2633(8) 0.1228(6) 0.1193(6)
C26 C -0.8884(6) 0.4534(5) 0.0202(5)
H13 H -0.87360 0.44660 0.06660
C27 C 0.5476(7) -0.2276(5) 0.3106(5)
C28 C -1.1690(6) 0.3767(5) -0.1664(5)
H14 H -1.15230 0.41280 -0.19570
C29 C -0.9332(6) 0.4699(5) -0.1165(5)
O22 O 0.8535(7) -0.1591(7) 0.4499(5)
C30 C -1.2179(6) 0.2720(5) -0.0782(4)
H15 H -1.23290 0.23630 -0.04790
C31 C -0.1694(6) -0.1177(6) 0.2544(5)
C32 C 0.2590(6) -0.1488(5) 0.2348(5)
C33 C -0.8790(6) 0.5216(5) -0.0075(5)
H16 H -0.85700 0.56170 0.01950
C34 C 0.2781(8) -0.3437(6) 0.3798(6)
C35 C -0.8955(6) 0.1391(5) -0.0418(4)
H17 H -0.84230 0.11040 -0.03300
C36 C -0.9768(6) 0.1197(5) -0.0157(4)
H18 H -0.97660 0.07840 0.01230
C37 C 0.2493(7) -0.2755(6) 0.4190(5)
C38 C -1.0480(6) 0.1967(5) -0.3603(5)
H19 H -1.05650 0.17270 -0.40190
C39 C 0.0364(8) 0.0245(5) 0.2122(5)
C40 C -0.9679(6) 0.5124(5) -0.3044(5)
H20 H -0.96430 0.55090 -0.33510
C41 C -0.9907(6) 0.4406(5) -0.3289(4)
H21 H -1.00370 0.43100 -0.37490
O23 O 0.2968(7) -0.0678(5) 0.0872(5)
C42 C -1.0543(6) 0.1579(5) -0.3020(5)
H22 H -1.07260 0.10830 -0.30400
O24 O -0.3042(5) 0.1823(4) 0.1002(5)
O25 O -0.1661(4) -0.1813(4) 0.2759(3)
O26 O 0.2385(5) -0.4051(4) 0.3846(5)
O27 O -0.4524(8) 0.1921(6) -0.0187(5)
O28 O 0.4241(6) -0.1696(5) 0.1479(4)
O29 O 0.0870(5) -0.4019(6) 0.4914(4)
O30 O 0.185(2) -0.1250(13) 0.5109(12)
O31 O -0.5191(14) 0.3263(15) -0.0292(9)
O32 O 0.0044(11) 0.0576(16) 0.3864(7)
O33 O 0.857(3) -0.025(2) 0.515(2)
C43 C 0.168(4) -0.055(8) 0.537(5)
Mn1A Mn 0.28365(13) -0.50924(11) 0.34049(10)
Mn2* Mn -0.24661(15) -0.20283(13) 0.36384(11)
Mn2A Mn -0.25339(15) 0.29717(13) 0.13616(11)
O18* O 0.7414(5) -0.0751(4) 0.3377(4)
O24A O 0.8042(5) -0.3177(4) 0.3998(5)
O25* O 0.8339(4) -0.1813(4) 0.2759(3)
O26A O 0.2615(5) 0.0949(4) 0.1154(5)
#END
