
#######################################################################
#
#                 Cambridge Crystallographic Data Centre
#                                CCDC
#
#######################################################################
#
# If this CIF has been generated from an entry in the Cambridge
# Structural Database, then it will include bibliographic, chemical,
# crystal, experimental, refinement or atomic coordinate data resulting
# from the CCDC's data processing and validation procedures.
#
#######################################################################

data_CSD_CIF_CIWDES
_audit_creation_date 2008-04-21
_audit_creation_method CSD-ConQuest-V1
_database_code_CSD CIWDES
_database_code_depnum_ccdc_archive 'CCDC 652607'
_chemical_formula_sum 'C40 H64 Cl2 Cu2 Mo6 N8 Na5 O40 Te1'
_chemical_formula_moiety
;
(H28 Mo6 Na5 O38 Te1 2-)n,2n(C20 H16 Cl1 Cu1 N4 1+),2n(H2 O1)
;
_journal_coden_Cambridge 471
_journal_volume 23
_journal_year 2007
_journal_page_first x235
_journal_name_full 'Anal.Sci.:X-Ray Struct.Anal.Online '
loop_
_publ_author_name
"Zhi-hong Xu"
"Pin-xian Xi"
"Feng-juan Chen"
"Zheng-zhi Zeng"
_chemical_name_systematic
;
catena-(bis(bis(2,2'-Bipyridyl)-chloro-copper) 
(\m~10~-orthotellurato)-bis(\m~3~-aqua)-tetrakis(\m~2~-aqua)-decakis(\m~2~-oxo
)-octa-aqua-octaoxo-hexa-molybdenum-penta-sodium dihydrate)
;
_cell_volume   1756.825
_exptl_crystal_colour 'blue'
_exptl_crystal_density_diffrn 2.188
_exptl_crystal_description 'block'
_diffrn_ambient_temperature 293
#These two values have been output from a single CSD field.
_refine_ls_R_factor_gt 0.038
_refine_ls_wR_factor_gt 0.038
_symmetry_cell_setting triclinic
_symmetry_space_group_name_H-M 'P -1'
_symmetry_Int_Tables_number 2
loop_
_symmetry_equiv_pos_site_id
_symmetry_equiv_pos_as_xyz
1 x,y,z
2 -x,-y,-z
_cell_length_a 7.9150(8)
_cell_length_b 13.5900(14)
_cell_length_c 16.956(2)
_cell_angle_alpha 98.373(2)
_cell_angle_beta 92.604(2)
_cell_angle_gamma 102.393(3)
_cell_formula_units_Z 1
loop_
_atom_type_symbol
_atom_type_radius_bond
C 0.68
H 0.23
Cl 0.99
Cu 1.52
Mo 1.32
N 0.68
Na 1.42
O 0.78
Te 1.42
loop_
_atom_site_label
_atom_site_type_symbol
_atom_site_fract_x
_atom_site_fract_y
_atom_site_fract_z
Cu1 Cu 0.23427(12) 0.24682(7) 0.98084(5)
Te1 Te 1.00000 0.50000 0.50000
Mo1 Mo 0.91571(7) 0.58444(4) 0.68244(3)
Mo2 Mo 0.93971(7) 0.73225(4) 0.54325(3)
Mo3 Mo 1.03457(7) 0.64969(4) 0.36137(3)
Na1 Na 1.4265(4) 0.7334(2) 0.55024(19)
Na2 Na 0.50000 0.50000 0.50000
Na3 Na 1.3087(8) 0.9994(5) 0.5340(4)
Cl1 Cl 0.4724(3) 0.17977(15) 1.00816(13)
N1 N 0.2188(7) 0.3971(4) 1.0204(3)
N2 N 0.3450(8) 0.3126(4) 0.8935(3)
N3 N 0.1019(8) 0.1815(4) 1.0637(3)
N4 N 0.0074(8) 0.1699(4) 0.9111(3)
O1 O 0.8260(5) 0.5649(3) 0.5482(2)
O2 O 0.9069(5) 0.4948(3) 0.3911(2)
O3 O 1.1236(5) 0.6369(3) 0.4916(2)
O4 O 1.0336(5) 0.7063(3) 0.6438(3)
O5 O 0.8660(5) 0.6972(3) 0.4294(3)
O6 O 0.8091(5) 0.4395(3) 0.6684(2)
O7 O 1.0561(6) 0.6000(4) 0.7661(3)
O8 O 0.7348(6) 0.6226(4) 0.7156(3)
O9 O 1.0912(6) 0.8434(4) 0.5426(3)
O10 O 0.7547(6) 0.7692(4) 0.5732(3)
O11 O 1.1883(6) 0.7621(4) 0.3667(3)
O12 O 0.9160(6) 0.6355(4) 0.2722(3)
O13 O 0.4335(7) 0.5956(4) 0.6161(3)
H1 H 0.33620 0.56970 0.63230
H2 H 0.51330 0.60850 0.65390
O14 O 0.5007(7) 0.6410(4) 0.4336(3)
H3 H 0.59970 0.66710 0.41920
H4 H 0.42350 0.62900 0.39480
O15 O 1.4452(9) 0.8746(5) 0.4821(4)
H5 H 1.40340 0.85250 0.43420
H6? H 0.55190 0.90190 0.48060
O16 O 1.3617(8) 0.8217(5) 0.6794(4)
H7 H 1.37170 0.78550 0.71550
H8 H 1.43300 0.87910 0.69130
O17 O 1.1601(12) 1.1047(6) 0.6139(6)
H9 H 1.15830 1.15770 0.59300
H10 H 1.05670 1.07190 0.61650
O18 O 1.1978(12) 1.0113(6) 0.4055(6)
H11 H 1.17520 1.06970 0.40580
H12 H 1.27300 1.00330 0.37230
O19 O 1.4325(12) 1.0274(7) 0.6727(6)
H13 H 1.37280 0.98420 0.69790
H14 H 1.53630 1.01980 0.67300
O20 O 0.3941(8) 0.7191(5) 0.8107(4)
H15 H 0.41670 0.74260 0.86020
H16 H 0.28990 0.68470 0.80340
C1 C 0.1501(9) 0.4354(5) 1.0857(4)
H17 H 0.10700 0.39170 1.12110
C2 C 0.1404(9) 0.5351(6) 1.1027(5)
H18 H 0.09010 0.55840 1.14830
C3 C 0.2063(9) 0.6008(6) 1.0515(5)
H19 H 0.20290 0.66940 1.06230
C4 C 0.2771(9) 0.5637(6) 0.9840(5)
H20 H 0.32260 0.60710 0.94880
C5 C 0.2800(8) 0.4613(5) 0.9690(4)
C6 C 0.3525(8) 0.4136(5) 0.8980(4)
C7 C 0.4252(9) 0.4661(6) 0.8386(4)
H21 H 0.42860 0.53530 0.84120
C8 C 0.4919(9) 0.4141(6) 0.7761(4)
H22 H 0.54150 0.44860 0.73630
C9 C 0.4858(10) 0.3120(6) 0.7722(4)
H23 H 0.53200 0.27640 0.73060
C10 C 0.4087(10) 0.2631(6) 0.8320(5)
H24 H 0.40100 0.19340 0.82920
C11 C 0.1584(11) 0.1953(6) 1.1410(4)
H25 H 0.26510 0.23910 1.15830
C12 C 0.0614(12) 0.1458(6) 1.1963(5)
H26 H 0.10130 0.15640 1.24990
C13 C -0.0956(12) 0.0804(6) 1.1685(5)
H27 H -0.16260 0.04590 1.20390
C14 C -0.1534(11) 0.0660(6) 1.0899(5)
H28 H -0.25920 0.02180 1.07160
C15 C -0.0532(9) 0.1179(5) 1.0371(4)
C16 C -0.1054(9) 0.1100(5) 0.9511(4)
C17 C -0.2596(10) 0.0495(6) 0.9136(5)
H29 H -0.33460 0.00740 0.94160
C18 C -0.3003(11) 0.0523(7) 0.8345(6)
H30 H -0.40250 0.01100 0.80840
C19 C -0.1906(12) 0.1157(7) 0.7940(5)
H31 H -0.21900 0.12070 0.74120
C20 C -0.0359(11) 0.1724(6) 0.8342(5)
H32 H 0.04110 0.21390 0.80650
Mo1A Mo 1.08429(7) 0.41556(4) 0.31756(3)
Mo2A Mo 1.06029(7) 0.26775(4) 0.45675(3)
Mo2* Mo 1.93971(7) 0.73225(4) 0.54325(3)
Mo3A Mo 0.96543(7) 0.35031(4) 0.63863(3)
Na1A Na 0.5735(4) 0.2666(2) 0.44976(19)
Na1* Na 0.4265(4) 0.7334(2) 0.55024(19)
Na2* Na 1.50000 0.50000 0.50000
Na3A Na 0.6913(8) 0.0006(5) 0.4660(4)
Na3A* Na 1.6913(8) 1.0006(5) 0.4660(4)
Na3* Na 0.3087(8) -0.0006(5) 0.5340(4)
O1A O 1.1740(5) 0.4351(3) 0.4518(2)
O1A* O 0.1740(5) 0.4351(3) 0.4518(2)
O2A O 1.0931(5) 0.5052(3) 0.6089(2)
O3A O 0.8764(5) 0.3631(3) 0.5084(2)
O4A O 0.9664(5) 0.2937(3) 0.3562(3)
O5A O 1.1340(5) 0.3028(3) 0.5706(3)
O6A O 1.1909(5) 0.5605(3) 0.3316(2)
O7A O 0.9439(6) 0.4000(4) 0.2339(3)
O8A O 1.2652(6) 0.3774(4) 0.2844(3)
O9A O 0.9088(6) 0.1566(4) 0.4574(3)
O10* O 1.7547(6) 0.7692(4) 0.5732(3)
O10A O 1.2453(6) 0.2308(4) 0.4268(3)
O10A* O 0.2453(6) 0.2308(4) 0.4268(3)
O11A O 0.8117(6) 0.2379(4) 0.6333(3)
O12A O 1.0840(6) 0.3645(4) 0.7278(3)
O13A O 0.5665(7) 0.4044(4) 0.3839(3)
O13* O 1.4335(7) 0.5956(4) 0.6161(3)
H1A H 0.66380 0.43030 0.36770
H1* H 1.33620 0.56970 0.63230
H2A H 0.48670 0.39150 0.34610
H2* H 1.51330 0.60850 0.65390
O14A O 0.4993(7) 0.3590(4) 0.5664(3)
O14* O 1.5007(7) 0.6410(4) 0.4336(3)
H3A H 0.40030 0.33290 0.58080
H3* H 1.59970 0.66710 0.41920
H4A H 0.57650 0.37100 0.60520
H4* H 1.42350 0.62900 0.39480
O15A O 0.5548(9) 0.1254(5) 0.5179(4)
O15A* O 1.5548(9) 1.1254(5) 0.5179(4)
O15* O 0.4452(9) -0.1254(5) 0.4821(4)
H5A H 0.59660 0.14750 0.56580
H5A* H 1.59660 1.14750 0.56580
H5* H 0.40340 -0.14750 0.43420
O16A O 0.6383(8) 0.1783(5) 0.3206(4)
H7A H 0.62830 0.21450 0.28450
H8A H 0.56700 0.12090 0.30870
O17A O 0.8399(12) -0.1047(6) 0.3861(6)
H9A H 0.84170 -0.15770 0.40700
H10A H 0.94330 -0.07190 0.38350
O18A O 0.8022(12) -0.0113(6) 0.5945(6)
H11A H 0.82480 -0.06970 0.59420
H12A H 0.72700 -0.00330 0.62770
O19A O 0.5675(12) -0.0274(7) 0.3273(6)
H13A H 0.62720 0.01580 0.30210
H14A H 0.46370 -0.01980 0.32700
#END
