
#######################################################################
#
#                 Cambridge Crystallographic Data Centre
#                                CCDC
#
#######################################################################
#
# If this CIF has been generated from an entry in the Cambridge
# Structural Database, then it will include bibliographic, chemical,
# crystal, experimental, refinement or atomic coordinate data resulting
# from the CCDC's data processing and validation procedures.
#
#######################################################################

data_CSD_CIF_CIXNUV
_audit_creation_date 2019-03-28
_audit_creation_method CSD-ConQuest-V1
_database_code_CSD CIXNUV
_database_code_depnum_ccdc_archive 'CCDC 1894228'
_chemical_formula_sum 'C45.6 H58.4 Cl6 Mn2 N1.8 Na1 O17.5'
_chemical_formula_moiety
;
(C18 Cl6 Mn2 O12 2-)n,n(C4 H12 N1 1+),n(Na1 1+),5.5n(C4 H8 O1),0.8n(C2 H3 N1)
;
_journal_coden_Cambridge 1475
_journal_volume 10
_journal_year 2019
_journal_page_first 4652
_journal_name_full 'Chemical Science '
loop_
_publ_author_name
"Lujia Liu"
"J.A.DeGayner"
"Lei Sun"
"D.Z.Zee"
"T.David Harris"
_chemical_name_systematic
;
catena-(sodium tetramethylammonium 
tris(\m-2,5-dichloro-3,6-dioxy-1,4-benzoquinone)-di-manganese(ii) 
acetonitrile tetrahydrofuran solvate)
;
_cell_volume   1722.015
_exptl_crystal_colour 'brown'
_exptl_crystal_description 'hexagonal'
_diffrn_ambient_temperature 250.0
_refine_special_details
;
The tetramethylammonium cation is disordered by symmetry. The MASK/OLEX2 
program was used to model the sodium cation and solvent molecules.
;
#These two values have been output from a single CSD field.
_refine_ls_R_factor_gt 0.1305
_refine_ls_wR_factor_gt 0.1305
_symmetry_cell_setting hexagonal
_symmetry_space_group_name_H-M 'P -3 1 m'
_symmetry_Int_Tables_number 162
loop_
_symmetry_equiv_pos_site_id
_symmetry_equiv_pos_as_xyz
1 x,y,z
2 -y,x-y,z
3 -x+y,-x,z
4 -y,-x,-z
5 -x+y,y,-z
6 x,x-y,-z
7 -x,-y,-z
8 y,-x+y,-z
9 x-y,x,-z
10 y,x,z
11 x-y,-y,z
12 -x,-x+y,z
_cell_length_a 14.0833(13)
_cell_length_b 14.0833(13)
_cell_length_c 10.0253(12)
_cell_angle_alpha 90
_cell_angle_beta 90
_cell_angle_gamma 120
_cell_formula_units_Z 1
loop_
_atom_type_symbol
_atom_type_radius_bond
C 0.68
H 0.23
Cl 0.99
Mn 1.61
N 0.68
O 0.68
loop_
_atom_site_label
_atom_site_type_symbol
_atom_site_fract_x
_atom_site_fract_y
_atom_site_fract_z
Mn1 Mn 0.66667 0.33333 0.00000
Cl1 Cl 1.00000 0.6033(3) 0.2823(4)
O1 O 0.8082(4) 0.4460(5) 0.1176(5)
C1 C 0.8997(6) 0.4737(6) 0.0678(6)
C2 C 1.00000 0.5489(7) 0.1304(9)
N1 N 0.66667 0.33333 0.50000
C3 C 0.66667 0.33333 0.3514(10)
H1 H 0.67301 0.40121 0.31918
C4 C 0.657(4) 0.229(2) 0.5511(13)
H2 H 0.65263 0.18302 0.47645
H3 H 0.72058 0.24543 0.60503
H4 H 0.59118 0.19024 0.60503
Cl1E Cl 1.00000 0.3967(3) -0.2823(4)
O1E O 0.8082(4) 0.3622(5) -0.1176(5)
C1E C 0.8997(6) 0.4260(6) -0.0678(6)
C2E C 1.00000 0.4511(7) -0.1304(9)
O1F O 1.1918(4) 0.5540(5) -0.1176(5)
C1F C 1.1003(6) 0.5263(6) -0.0678(6)
O1K O 1.1918(4) 0.6378(5) 0.1176(5)
C1K C 1.1003(6) 0.5740(6) 0.0678(6)
Cl1A Cl 0.39670 0.3967(3) 0.2823(4)
O1A O 0.5540(4) 0.3622(5) 0.1176(5)
C1A C 0.5263(6) 0.4260(6) 0.0678(6)
C2A C 0.45110 0.4511(7) 0.1304(9)
Cl1D Cl 0.60330 0.6033(3) -0.2823(4)
O1D O 0.6378(4) 0.4460(5) -0.1176(5)
C1D C 0.5740(6) 0.4737(6) -0.0678(6)
C2D C 0.54890 0.5489(7) -0.1304(9)
O1G O 0.4460(4) 0.6378(5) -0.1176(5)
C1G C 0.4737(6) 0.5740(6) -0.0678(6)
O1J O 0.3622(4) 0.5540(5) 0.1176(5)
C1J C 0.4260(6) 0.5263(6) 0.0678(6)
Cl1B Cl 0.60330 0.0000(3) 0.2823(4)
O1B O 0.6378(4) 0.1918(5) 0.1176(5)
C1B C 0.5740(6) 0.1003(6) 0.0678(6)
C2B C 0.54890 0.0000(7) 0.1304(9)
Cl1C Cl 0.39670 0.0000(3) -0.2823(4)
O1C O 0.5540(4) 0.1918(5) -0.1176(5)
C1C C 0.5263(6) 0.1003(6) -0.0678(6)
C2C C 0.45110 0.0000(7) -0.1304(9)
O1H O 0.3622(4) -0.1918(5) -0.1176(5)
C1H C 0.4260(6) -0.1003(6) -0.0678(6)
O1I O 0.4460(4) -0.1918(5) 0.1176(5)
C1I C 0.4737(6) -0.1003(6) 0.0678(6)
Mn1F Mn 1.33333 0.66667 0.00000
Mn1F* Mn 0.33333 -0.33333 0.00000
Mn1F** Mn 0.33333 0.66667 0.00000
O1G* O 1.4460(4) 0.6378(5) -0.1176(5)
O1H* O 1.3622(4) 0.8082(5) -0.1176(5)
O1I* O 1.4460(4) 0.8082(5) 0.1176(5)
O1J* O 1.3622(4) 0.5540(5) 0.1176(5)
H1A H 0.59879 0.27180 0.31918
C4A C 0.771(4) 0.428(2) 0.5511(13)
H2A H 0.81698 0.46961 0.47645
H3A H 0.75457 0.47515 0.60503
H4A H 0.80976 0.40094 0.60503
H1B H 0.72820 0.32699 0.31918
C4B C 0.572(4) 0.343(2) 0.5511(13)
H2B H 0.53039 0.34737 0.47645
H3B H 0.52485 0.27942 0.60503
H4B H 0.59906 0.40882 0.60503
C3C C 0.66667 0.33333 0.6486(10)
H1C H 0.59879 0.32699 0.68082
C4C C 0.771(4) 0.343(2) 0.4489(13)
H2C H 0.81698 0.34737 0.52355
H3C H 0.75457 0.27942 0.39497
H4C H 0.80976 0.40882 0.39497
H1D H 0.72820 0.40121 0.68082
C4D C 0.572(4) 0.229(2) 0.4489(13)
H2D H 0.53039 0.18302 0.52355
H3D H 0.52485 0.24543 0.39497
H4D H 0.59906 0.19024 0.39497
H1E H 0.67301 0.27180 0.68082
C4E C 0.657(4) 0.428(2) 0.4489(13)
H2E H 0.65263 0.46961 0.52355
H3E H 0.72058 0.47515 0.39497
H4E H 0.59118 0.40094 0.39497
#END
