
#######################################################################
#
#                 Cambridge Crystallographic Data Centre
#                                CCDC
#
#######################################################################
#
# If this CIF has been generated from an entry in the Cambridge
# Structural Database, then it will include bibliographic, chemical,
# crystal, experimental, refinement or atomic coordinate data resulting
# from the CCDC's data processing and validation procedures.
#
#######################################################################

data_CSD_CIF_CIXPEH
_audit_creation_date 2019-03-28
_audit_creation_method CSD-ConQuest-V1
_database_code_CSD CIXPEH
_database_code_depnum_ccdc_archive 'CCDC 1894230'
_chemical_formula_sum 'C38.8 H56 Cl6 Mn2 N2 O15.2'
_chemical_formula_moiety
;
(C18 Cl6 Mn2 O12 2-)n,2n(C4 H12 N1 1+),3.2n(C4 H10 O1)
;
_journal_coden_Cambridge 1475
_journal_volume 10
_journal_year 2019
_journal_page_first 4652
_journal_name_full 'Chemical Science '
loop_
_publ_author_name
"Lujia Liu"
"J.A.DeGayner"
"Lei Sun"
"D.Z.Zee"
"T.David Harris"
_chemical_name_systematic
;
catena-(tetramethylammonium 
tris(\m-2,5-dichloro-3,6-dioxy-1,4-benzoquinone)-di-manganese(ii) diethyl 
ether solvate)
;
_cell_volume   1708.301
_exptl_crystal_colour 'brown'
_exptl_crystal_description 'hexagonal'
_diffrn_ambient_temperature 250.0
_refine_special_details
;
The tetramethylammonium cation is disordered by symmetry. The MASK/OLEX2 
program was used to model the solvent molecules.
;
#These two values have been output from a single CSD field.
_refine_ls_R_factor_gt 0.075
_refine_ls_wR_factor_gt 0.075
_symmetry_cell_setting hexagonal
_symmetry_space_group_name_H-M 'P -3 1 m'
_symmetry_Int_Tables_number 162
loop_
_symmetry_equiv_pos_site_id
_symmetry_equiv_pos_as_xyz
1 x,y,z
2 -y,x-y,z
3 -x+y,-x,z
4 -y,-x,-z
5 -x+y,y,-z
6 x,x-y,-z
7 -x,-y,-z
8 y,-x+y,-z
9 x-y,x,-z
10 y,x,z
11 x-y,-y,z
12 -x,-x+y,z
_cell_length_a 14.0339(11)
_cell_length_b 14.0339(11)
_cell_length_c 10.0156(8)
_cell_angle_alpha 90
_cell_angle_beta 90
_cell_angle_gamma 120
_cell_formula_units_Z 1
loop_
_atom_type_symbol
_atom_type_radius_bond
C 0.68
H 0.23
Cl 0.99
Mn 1.61
N 0.68
O 0.68
loop_
_atom_site_label
_atom_site_type_symbol
_atom_site_fract_x
_atom_site_fract_y
_atom_site_fract_z
Mn1 Mn 0.66667 0.33333 0.50000
Cl1 Cl 1.00000 0.39440(17) 0.78015(16)
O1 O 0.8077(2) 0.3605(2) 0.6156(3)
C1 C 0.9003(3) 0.4244(3) 0.5678(3)
C2 C 1.00000 0.4518(4) 0.6283(5)
N1 N 0.66667 0.33333 1.00000
C3 C 0.66667 0.33333 1.1485(9)
H1 H 0.60055 0.26917 1.18083
C4 C 0.7697(12) 0.4334(13) 0.9417(10)
H2 H 0.76631 0.43003 0.84496
H3 H 0.77280 0.50055 0.97171
H4 H 0.83501 0.43247 0.97171
Cl1E Cl 1.00000 0.60560(17) 0.21985(16)
O1E O 0.8077(2) 0.4472(2) 0.3844(3)
C1E C 0.9003(3) 0.4759(3) 0.4322(3)
C2E C 1.00000 0.5482(4) 0.3717(5)
O1F O 1.1923(2) 0.6395(2) 0.3844(3)
C1F C 1.0997(3) 0.5756(3) 0.4322(3)
O1K O 1.1923(2) 0.5528(2) 0.6156(3)
C1K C 1.0997(3) 0.5241(3) 0.5678(3)
Cl1A Cl 0.60560 0.60560(17) 0.78015(16)
O1A O 0.6395(2) 0.4472(2) 0.6156(3)
C1A C 0.5756(3) 0.4759(3) 0.5678(3)
C2A C 0.54820 0.5482(4) 0.6283(5)
Cl1D Cl 0.39440 0.39440(17) 0.21985(16)
O1D O 0.5528(2) 0.3605(2) 0.3844(3)
C1D C 0.5241(3) 0.4244(3) 0.4322(3)
C2D C 0.45180 0.4518(4) 0.3717(5)
O1G O 0.3605(2) 0.5528(2) 0.3844(3)
C1G C 0.4244(3) 0.5241(3) 0.4322(3)
O1J O 0.4472(2) 0.6395(2) 0.6156(3)
C1J C 0.4759(3) 0.5756(3) 0.5678(3)
Cl1B Cl 0.39440 0.00000(17) 0.78015(16)
O1B O 0.5528(2) 0.1923(2) 0.6156(3)
C1B C 0.5241(3) 0.0997(3) 0.5678(3)
C2B C 0.45180 0.0000(4) 0.6283(5)
Cl1C Cl 0.60560 0.00000(17) 0.21985(16)
O1C O 0.6395(2) 0.1923(2) 0.3844(3)
C1C C 0.5756(3) 0.0997(3) 0.4322(3)
C2C C 0.54820 0.0000(4) 0.3717(5)
O1H O 0.4472(2) -0.1923(2) 0.3844(3)
C1H C 0.4759(3) -0.0997(3) 0.4322(3)
O1I O 0.3605(2) -0.1923(2) 0.6156(3)
C1I C 0.4244(3) -0.0997(3) 0.5678(3)
Mn1F Mn 1.33333 0.66667 0.50000
Mn1F* Mn 0.33333 -0.33333 0.50000
Mn1F** Mn 0.33333 0.66667 0.50000
O1G* O 1.3605(2) 0.5528(2) 0.3844(3)
O1H* O 1.4472(2) 0.8077(2) 0.3844(3)
O1I* O 1.3605(2) 0.8077(2) 0.6156(3)
O1J* O 1.4472(2) 0.6395(2) 0.6156(3)
H1A H 0.73083 0.33138 1.18083
C4A C 0.5666(12) 0.3363(13) 0.9417(10)
H2A H 0.56997 0.33628 0.84496
H3A H 0.49945 0.27225 0.97171
H4A H 0.56753 0.40253 0.97171
H1B H 0.66862 0.39945 1.18083
C4B C 0.6637(12) 0.2303(13) 0.9417(10)
H2B H 0.66372 0.23369 0.84496
H3B H 0.72775 0.22720 0.97171
H4B H 0.59747 0.16499 0.97171
C3C C 0.66667 0.33333 0.8515(9)
H1C H 0.73083 0.39945 0.81917
C4C C 0.5666(12) 0.2303(13) 1.0583(10)
H2C H 0.56997 0.23369 1.15504
H3C H 0.49945 0.22720 1.02829
H4C H 0.56753 0.16499 1.02829
H1D H 0.66862 0.26917 0.81917
C4D C 0.6637(12) 0.4334(13) 1.0583(10)
H2D H 0.66372 0.43003 1.15504
H3D H 0.72775 0.50055 1.02829
H4D H 0.59747 0.43247 1.02829
H1E H 0.60055 0.33138 0.81917
C4E C 0.7697(12) 0.3363(13) 1.0583(10)
H2E H 0.76631 0.33628 1.15504
H3E H 0.77280 0.27225 1.02829
H4E H 0.83501 0.40253 1.02829
#END
