
#######################################################################
#
#                 Cambridge Crystallographic Data Centre
#                                CCDC
#
#######################################################################
#
# If this CIF has been generated from an entry in the Cambridge
# Structural Database, then it will include bibliographic, chemical,
# crystal, experimental, refinement or atomic coordinate data resulting
# from the CCDC's data processing and validation procedures.
#
#######################################################################

data_CSD_CIF_CIXPAD
_audit_creation_date 2019-03-28
_audit_creation_method CSD-ConQuest-V1
_database_code_CSD CIXPAD
_database_code_depnum_ccdc_archive 'CCDC 1894229'
_chemical_formula_sum 'C41.6 H55.2 Cl6 Mn2 N2 Na3 O15.9'
_chemical_formula_moiety
;
(C18 Cl6 Mn2 O12 5-)n,3n(Na1 1+),2n(C4 H12 N1 1+),3.9n(C4 H8 O1)
;
_journal_coden_Cambridge 1475
_journal_volume 10
_journal_year 2019
_journal_page_first 4652
_journal_name_full 'Chemical Science '
loop_
_publ_author_name
"Lujia Liu"
"J.A.DeGayner"
"Lei Sun"
"D.Z.Zee"
"T.David Harris"
_chemical_name_systematic
;
catena-(tri-sodium tetramethylammonium 
tris(3,6-dichlorobenzene-1,2,4,5-tetrolato)-di-manganese tetrahdyrofuran 
solvate)
;
_cell_volume   1585.875
_exptl_crystal_colour 'brown'
_exptl_crystal_description 'hexagonal'
_diffrn_ambient_temperature 250.0
_refine_special_details
;
The tetramethylammonium cations are disordered by symmetry. The MASK/OLEX2 
program was used to model the sodium cations and solvent molecules.
;
#These two values have been output from a single CSD field.
_refine_ls_R_factor_gt 0.153
_refine_ls_wR_factor_gt 0.153
_symmetry_cell_setting hexagonal
_symmetry_space_group_name_H-M 'P -3 1 m'
_symmetry_Int_Tables_number 162
loop_
_symmetry_equiv_pos_site_id
_symmetry_equiv_pos_as_xyz
1 x,y,z
2 -y,x-y,z
3 -x+y,-x,z
4 -y,-x,-z
5 -x+y,y,-z
6 x,x-y,-z
7 -x,-y,-z
8 y,-x+y,-z
9 x-y,x,-z
10 y,x,z
11 x-y,-y,z
12 -x,-x+y,z
_cell_length_a 14.030(3)
_cell_length_b 14.030(3)
_cell_length_c 9.3030(19)
_cell_angle_alpha 90
_cell_angle_beta 90
_cell_angle_gamma 120
_cell_formula_units_Z 1
loop_
_atom_type_symbol
_atom_type_radius_bond
C 0.68
H 0.23
Cl 0.99
Mn 1.61
N 0.68
O 0.68
loop_
_atom_site_label
_atom_site_type_symbol
_atom_site_fract_x
_atom_site_fract_y
_atom_site_fract_z
Mn1 Mn 0.66667 0.33333 0.00000
Cl1 Cl 0.3991(7) 0.3991(7) -0.3014(8)
O1 O 0.5534(11) 0.3626(12) -0.1224(12)
C1 C 0.5213(15) 0.4252(15) -0.064(2)
C2 C 0.4595(17) 0.4595(17) -0.129(2)
N1 N 0.66667 0.33333 0.50000
C3 C 0.66667 0.33333 0.6595(11)
H1 H 0.66269 0.39643 0.69427
C4 C 0.673(4) 0.237(2) 0.4462(14)
H2 H 0.67542 0.19450 0.52705
H3 H 0.60832 0.19085 0.38820
H4 H 0.73850 0.26191 0.38821
Cl1C Cl 0.6009(7) 0.6009(7) 0.3014(8)
O1C O 0.6374(11) 0.4466(12) 0.1224(12)
C1C C 0.5748(15) 0.4787(15) 0.064(2)
C2C C 0.5405(17) 0.5405(17) 0.129(2)
O1F O 0.4466(11) 0.6374(12) 0.1224(12)
C1F C 0.4787(15) 0.5748(15) 0.064(2)
O1I O 0.3626(11) 0.5534(12) -0.1224(12)
C1I C 0.4252(15) 0.5213(15) -0.064(2)
Cl1A Cl 0.6009(7) 0.0000(7) -0.3014(8)
O1A O 0.6374(11) 0.1908(12) -0.1224(12)
C1A C 0.5748(15) 0.0961(15) -0.064(2)
C2A C 0.5405(17) 0.0000(17) -0.129(2)
Cl1E Cl 0.3991(7) 0.0000(7) 0.3014(8)
O1E O 0.5534(11) 0.1908(12) 0.1224(12)
C1E C 0.5213(15) 0.0961(15) 0.064(2)
C2E C 0.4595(17) 0.0000(17) 0.129(2)
O1G O 0.3626(11) -0.1908(12) 0.1224(12)
C1G C 0.4252(15) -0.0961(15) 0.064(2)
O1K O 0.4466(11) -0.1908(12) -0.1224(12)
C1K C 0.4787(15) -0.0961(15) -0.064(2)
Cl1B Cl 1.0000(7) 0.6009(7) -0.3014(8)
O1B O 0.8092(11) 0.4466(12) -0.1224(12)
C1B C 0.9039(15) 0.4787(15) -0.064(2)
C2B C 1.0000(17) 0.5405(17) -0.129(2)
Cl1D Cl 1.0000(7) 0.3991(7) 0.3014(8)
O1D O 0.8092(11) 0.3626(12) 0.1224(12)
C1D C 0.9039(15) 0.4252(15) 0.064(2)
C2D C 1.0000(17) 0.4595(17) 0.129(2)
O1H O 1.1908(11) 0.5534(12) 0.1224(12)
C1H C 1.0961(15) 0.5213(15) 0.064(2)
O1J O 1.1908(11) 0.6374(12) -0.1224(12)
C1J C 1.0961(15) 0.5748(15) -0.064(2)
Mn1F Mn 0.33333 0.66667 0.00000
Mn1F* Mn 0.33333 -0.33333 0.00000
Mn1F** Mn 1.33333 0.66667 0.00000
O1G* O 0.3626(11) 0.8092(12) 0.1224(12)
O1H* O 0.1908(11) 0.5534(12) 0.1224(12)
O1J* O 0.1908(11) 0.6374(12) -0.1224(12)
O1K* O 0.4466(11) 0.8092(12) -0.1224(12)
H1A H 0.60357 0.26625 0.69427
C4A C 0.763(4) 0.436(2) 0.4462(14)
H2A H 0.80550 0.48092 0.52705
H3A H 0.80915 0.41747 0.38820
H4A H 0.73809 0.47659 0.38821
H1B H 0.73375 0.33731 0.69427
C4B C 0.564(4) 0.327(2) 0.4462(14)
H2B H 0.51908 0.32458 0.52705
H3B H 0.58253 0.39168 0.38820
H4B H 0.52341 0.26150 0.38821
C3C C 0.66667 0.33333 0.3405(11)
H1C H 0.60357 0.33731 0.30573
C4C C 0.763(4) 0.327(2) 0.5538(14)
H2C H 0.80550 0.32458 0.47295
H3C H 0.80915 0.39168 0.61180
H4C H 0.73809 0.26150 0.61179
H1D H 0.73375 0.39643 0.30573
C4D C 0.564(4) 0.237(2) 0.5538(14)
H2D H 0.51908 0.19450 0.47295
H3D H 0.58253 0.19085 0.61180
H4D H 0.52341 0.26191 0.61179
H1E H 0.66269 0.26625 0.30573
C4E C 0.673(4) 0.436(2) 0.5538(14)
H2E H 0.67542 0.48092 0.47295
H3E H 0.60832 0.41747 0.61180
H4E H 0.73850 0.47659 0.61179
#END
