
#######################################################################
#
#                 Cambridge Crystallographic Data Centre
#                                CCDC
#
#######################################################################
#
# If this CIF has been generated from an entry in the Cambridge
# Structural Database, then it will include bibliographic, chemical,
# crystal, experimental, refinement or atomic coordinate data resulting
# from the CCDC's data processing and validation procedures.
#
#######################################################################

data_CSD_CIF_CIXTIN
_audit_creation_date 2008-08-28
_audit_creation_method CSD-ConQuest-V1
_database_code_CSD CIXTIN
_database_code_depnum_ccdc_archive 'CCDC 629174'
_chemical_formula_sum 'C22 H42 N4 O31 Sn4'
_chemical_formula_moiety
;
(C12 O24 Sn4 4-)n,2n(C5 H14 N2 2+),7n(H2 O1)
;
_journal_coden_Cambridge 1290
_journal_year 2008
_journal_page_first 1376
_journal_name_full 'Eur.J.Inorg.Chem. '
loop_
_publ_author_name
"P.Ramaswamy"
"A.Datta"
"S.Natarajan"
_chemical_name_systematic
;
catena-(bis(1,4-Diazoniacycloheptane) 
hexakis(\m~2~-oxalato-O,O',O'',O''')-tetra-tin(ii) heptahydrate)
;
_cell_volume   4041.267
_exptl_crystal_colour 'colorless'
_exptl_crystal_density_diffrn 2.168
_exptl_crystal_description 'needle-like'
_diffrn_ambient_temperature 293
#These two values have been output from a single CSD field.
_refine_ls_R_factor_gt 0.0557
_refine_ls_wR_factor_gt 0.0557
_symmetry_cell_setting monoclinic
_symmetry_space_group_name_H-M 'P 21/c'
_symmetry_Int_Tables_number 14
loop_
_symmetry_equiv_pos_site_id
_symmetry_equiv_pos_as_xyz
1 x,y,z
2 -x,1/2+y,1/2-z
3 -x,-y,-z
4 x,-1/2-y,-1/2+z
_cell_length_a 16.954(6)
_cell_length_b 20.500(7)
_cell_length_c 11.693(4)
_cell_angle_alpha 90
_cell_angle_beta 96.061(6)
_cell_angle_gamma 90
_cell_formula_units_Z 4
loop_
_atom_type_symbol
_atom_type_radius_bond
C 0.68
H 0.23
N 0.68
O 0.68
Sn 1.48
loop_
_atom_site_label
_atom_site_type_symbol
_atom_site_fract_x
_atom_site_fract_y
_atom_site_fract_z
Sn1 Sn 0.41400(3) 0.30036(2) 0.39977(4)
Sn2 Sn 0.38939(3) 0.69968(2) 0.95214(4)
Sn3 Sn 0.09033(3) 0.54438(2) 0.86362(4)
Sn4 Sn 0.10679(3) 0.45009(2) 0.36826(4)
O1 O 0.2855(3) 0.2923(2) 0.3806(4)
O2 O 0.3861(3) 0.2080(2) 0.5120(4)
O3 O 0.3958(3) 0.2914(3) 0.7743(4)
O4 O 0.3960(4) 0.3303(3) 0.5981(4)
O5 O 0.3535(3) 0.4113(3) 0.3974(5)
O6 O 0.3828(4) 0.1698(3) 0.6890(4)
O7 O 0.2610(3) 0.7069(2) 0.9225(4)
O8 O 0.3731(3) 0.7894(2) 0.8294(4)
O9 O 0.3583(3) 0.7059(2) 0.5674(4)
O10 O 0.3335(3) 0.5891(2) 0.9398(4)
O11 O 0.3667(4) 0.6665(2) 0.7455(4)
O12 O 0.3520(4) 0.8277(2) 0.6518(4)
O13 O 0.2186(3) 0.5393(2) 0.8904(4)
O14 O 0.1133(3) 0.4550(2) 0.7470(4)
O15 O 0.1159(3) 0.4519(2) -0.0098(4)
O16 O 0.1453(3) 0.6562(2) 0.8832(4)
O17 O 0.1257(3) 0.5789(2) 0.6718(4)
O18 O 0.1203(3) 0.5756(2) 0.0714(4)
O19 O 0.2346(3) 0.4579(2) 0.3904(4)
O20 O 0.1276(3) 0.5378(2) 0.2494(4)
O21 O 0.1289(3) 0.5424(2) 0.4938(4)
O22 O 0.1290(4) 0.4186(2) 0.5738(4)
O23 O 0.1674(3) 0.3389(2) 0.3761(4)
O24 O 0.1346(3) 0.4159(2) 0.1710(4)
O25 O 0.3265(6) 0.4416(4) 0.0719(8)
O26 O 0.4148(5) 0.5818(3) 0.4533(7)
O27 O 0.3187(4) 0.5486(3) 0.2355(7)
C1 C 0.3628(4) 0.7825(3) 0.7225(6)
O28 O 0.2140(4) 0.3392(3) 0.9082(6)
C2 C 0.1218(4) 0.4640(3) 0.6443(6)
C3 C 0.1253(4) 0.5340(3) 0.5997(6)
O29 O 0.2004(4) 0.3034(3) 0.6717(6)
O30 O 0.7782(3) 0.1407(3) 0.0950(5)
O31 O 0.0871(4) 0.2882(3) 0.1234(5)
C4 C 0.2609(4) 0.5895(3) 0.9137(5)
C5 C 0.1252(4) 0.4597(3) 0.0964(5)
C6 C 0.3921(5) 0.2851(4) 0.6675(6)
C7 C 0.2184(4) 0.6561(3) 0.9067(5)
C8 C 0.3864(5) 0.2148(4) 0.6188(6)
C9 C 0.3627(4) 0.7118(3) 0.6747(6)
C10 C 0.2799(4) 0.4091(3) 0.3903(5)
C11 C 0.2407(4) 0.3417(3) 0.3805(5)
C12 C 0.1244(4) 0.5302(3) 0.1433(5)
C13 C 1.0517(4) 0.2378(3) 0.3919(6)
H1 H 1.09500 0.25530 0.35330
H2 H 1.07340 0.22590 0.46920
C14 C 0.9938(4) 0.2906(3) 0.4012(7)
H3 H 0.98370 0.31210 0.32720
H4 H 1.01660 0.32260 0.45620
N1 N 0.9154(4) 0.2669(4) 0.4387(6)
H5 H 0.92530 0.23310 0.48720
H6 H 0.89450 0.29910 0.47820
C15 C 0.8538(4) 0.2456(4) 0.3421(6)
H7 H 0.80370 0.23860 0.37320
H8 H 0.84630 0.28040 0.28580
N2 N 0.9550(5) 0.1849(4) 0.2396(6)
H9 H 0.96090 0.22220 0.20100
H10 H 0.95660 0.15180 0.18940
C16 C 1.0235(5) 0.1779(4) 0.3316(7)
H11 H 1.00830 0.14710 0.38840
H12 H 1.06770 0.15890 0.29690
C17 C 0.8756(4) 0.1853(3) 0.2836(5)
H13 H 0.83580 0.17720 0.21940
H14 H 0.87360 0.14920 0.33700
C18 C 0.3208(5) 0.4446(5) 0.7514(8)
H15 H 0.27820 0.46890 0.78070
H16 H 0.29720 0.40690 0.71110
C19 C 0.4117(7) 0.5145(15) 0.6473(11)
H17 H 0.39500 0.55940 0.63430
H18 H 0.42520 0.49860 0.57370
N3 N 0.3577(11) 0.4880(6) 0.6630(14)
H19 H 0.35000 0.46320 0.59940
H20 H 0.32110 0.51980 0.65170
C20 C 0.4528(12) 0.4428(7) 0.870(2)
H21 H 0.45750 0.45670 0.94960
H22 H 0.48330 0.40280 0.86910
C21 C 0.4868(6) 0.5187(10) 0.7191(10)
H23 H 0.49720 0.56400 0.73920
H24 H 0.52880 0.50380 0.67510
N4 N 0.4892(9) 0.4795(17) 0.8266(15)
H25 H 0.53610 0.45880 0.82720
H26 H 0.49760 0.51050 0.88110
C22 C 0.3729(6) 0.4216(4) 0.8483(9)
H27 H 0.34740 0.43180 0.91660
H28 H 0.37420 0.37450 0.84250
Sn1C Sn 0.41400(3) 0.19964(2) 0.89977(4)
Sn2C Sn 0.38939(3) 0.80032(2) 0.45214(4)
Sn3* Sn 0.09033(3) 0.54438(2) -0.13638(4)
O3C O 0.3958(3) 0.2086(3) 0.2743(4)
O6C O 0.3828(4) 0.3302(3) 0.1890(4)
O9C O 0.3583(3) 0.7941(2) 1.0674(4)
O12C O 0.3520(4) 0.6723(2) 1.1518(4)
O15* O 0.1159(3) 0.4519(2) 0.9902(4)
O18* O 0.1203(3) 0.5756(2) 1.0714(4)
#END
