
#######################################################################
#
#                 Cambridge Crystallographic Data Centre
#                                CCDC
#
#######################################################################
#
# If this CIF has been generated from an entry in the Cambridge
# Structural Database, then it will include bibliographic, chemical,
# crystal, experimental, refinement or atomic coordinate data resulting
# from the CCDC's data processing and validation procedures.
#
#######################################################################

data_CSD_CIF_CIZJUQ
_audit_creation_date 1985-05-09
_audit_creation_method CSD-ConQuest-V1
_database_code_CSD CIZJUQ
_database_code_depnum_ccdc_archive 'CCDC 1126895'
_chemical_formula_sum 'C8 H8 Cl2 K2 Mo4 O16'
_chemical_formula_moiety
;
(C8 H8 Cl2 Mo4 O16 2-)n,2n(K1 1+)
;
_journal_coden_Cambridge 9
_journal_volume 23
_journal_year 1984
_journal_page_first 2086
_journal_name_full 'Inorg.Chem. '
loop_
_publ_author_name
"G.A.Robbins"
"D.S.Martin"
_chemical_name_systematic
;
catena-(Potassium (\m~2~-chloro)-tetrakis(\m~2~-formato)-di-molybdenum(ii))
;
_cell_volume    560.851
_exptl_crystal_colour 'yellow'
_diffrn_ambient_temperature ?
_diffrn_special_details
;
The study was carried out at room temperature,in the range 283-303K

;
#These two values have been output from a single CSD field.
_refine_ls_R_factor_gt 0.055
_refine_ls_wR_factor_gt 0.055
_symmetry_cell_setting triclinic
_symmetry_space_group_name_H-M 'P -1'
_symmetry_Int_Tables_number 2
loop_
_symmetry_equiv_pos_site_id
_symmetry_equiv_pos_as_xyz
1 x,y,z
2 -x,-y,-z
_cell_length_a 8.253(3)
_cell_length_b 10.684(3)
_cell_length_c 6.769(3)
_cell_angle_alpha 89.52(5)
_cell_angle_beta 109.73(4)
_cell_angle_gamma 87.03(6)
_cell_formula_units_Z 1
loop_
_atom_type_symbol
_atom_type_radius_bond
C 0.68
H 0.23
Cl 0.99
K 1.33
Mo 1.33
O 0.68
loop_
_atom_site_label
_atom_site_type_symbol
_atom_site_fract_x
_atom_site_fract_y
_atom_site_fract_z
Mo1 Mo 0.39467(7) 0.44525(5) 0.42609(8)
Mo2 Mo 0.01116(8) 0.09091(5) 0.05947(9)
Cl1 Cl 0.0735(2) 0.3341(2) 0.2412(3)
O1 O 0.3515(6) 0.5364(5) 0.1303(7)
O2 O 0.5528(6) 0.3035(5) 0.3580(7)
O3 O 0.4252(6) 0.3476(5) 0.7121(8)
O4 O 0.2220(6) 0.5826(5) 0.4906(8)
O5 O -0.1164(7) 0.0466(5) 0.2734(8)
O6 O 0.2577(7) 0.0371(5) 0.2835(8)
O7 O 0.1342(7) 0.1494(5) -0.1538(8)
O8 O -0.2307(7) 0.1546(5) -0.1596(9)
C1 C 0.449(1) 0.6244(7) 0.130(1)
C2 C 0.7137(9) 0.3205(7) 0.421(1)
C3 C -0.160(1) -0.0658(8) 0.275(1)
C4 C 0.311(1) -0.0744(8) 0.283(1)
H1 H 0.43110 0.66830 -0.00280
H2 H 0.79030 0.25580 0.39170
H3 H -0.21660 -0.08940 0.37300
H4 H 0.42410 -0.10110 0.38450
K1 K 0.1136(2) 0.4039(2) -0.2092(3)
Mo1A Mo 0.60533(7) 0.55475(5) 0.57391(8)
Mo2A Mo -0.01116(8) -0.09091(5) -0.05947(9)
C1A C 0.551(1) 0.3756(7) 0.870(1)
C2A C 0.2863(9) 0.6795(7) 0.579(1)
C3A C 0.160(1) 0.0658(8) -0.275(1)
C4A C -0.311(1) 0.0744(8) -0.283(1)
O3A O 0.5748(6) 0.6524(5) 0.2879(8)
O4A O 0.7780(6) 0.4174(5) 0.5094(8)
O7A O -0.1342(7) -0.1494(5) 0.1538(8)
O8A O 0.2307(7) -0.1546(5) 0.1596(9)
Cl1A Cl 0.9265(2) 0.6659(2) 0.7588(3)
O1A O 0.6485(6) 0.4636(5) 0.8697(7)
O2A O 0.4472(6) 0.6965(5) 0.6420(7)
Cl1A* Cl -0.0735(2) -0.3341(2) -0.2412(3)
O5A O 0.1164(7) -0.0466(5) -0.2734(8)
O6A O -0.2577(7) -0.0371(5) -0.2835(8)
H1A H 0.56890 0.33170 1.00280
H2A H 0.20970 0.74420 0.60830
H3A H 0.21660 0.08940 -0.37300
H4A H -0.42410 0.10110 -0.38450
Mo2A* Mo 0.98884(8) 0.90909(5) 0.94053(9)
#END
