
#######################################################################
#
#                 Cambridge Crystallographic Data Centre
#                                CCDC
#
#######################################################################
#
# If this CIF has been generated from an entry in the Cambridge
# Structural Database, then it will include bibliographic, chemical,
# crystal, experimental, refinement or atomic coordinate data resulting
# from the CCDC's data processing and validation procedures.
#
#######################################################################

data_CSD_CIF_CIZNOQ
_audit_creation_date 2014-04-17
_audit_creation_method CSD-ConQuest-V1
_database_code_CSD CIZNOQ
_database_code_depnum_ccdc_archive 'CCDC 979427'
_chemical_formula_sum 'C44 H72 Ag4 N16 O65 P2 W18'
_chemical_formula_moiety
;
(C22 H32 Ag2 N8 2+)2n,n(H2 O62 P2 W18 4-),3n(H2 O1)
;
_journal_coden_Cambridge 222
_journal_volume 43
_journal_year 2014
_journal_page_first 8405
_journal_name_full 'Dalton Trans. '
loop_
_publ_author_name
"Ai-xiang Tian"
"Yang Yang"
"Jun Ying"
"Na Li"
"Xiao-ling Lin"
"Ju-wen Zhang"
"Xiu-li Wang"
_chemical_name_systematic
;
catena-[bis(bis(\m~2~-4,4'-Methanediylbis(3,5-dimethyl-1H-pyrazole))-di-silver
(i)) 
bis(\m~9~-phosphato)-bis(\m~2~-hydroxo)-tetratriacontakis(\m~2~-oxo)-octadeca-
oxo-octadeca-tungsten trihydrate]
;
_cell_volume  11109.862
_exptl_crystal_colour 'yellow'
_exptl_crystal_density_diffrn 3.355
_exptl_special_details
;
The Keggin anion H atoms have not been located and have been placed 
arbitrarily in the 2D diagram
;
_exptl_crystal_description 'block'
_diffrn_ambient_temperature 293
_refine_special_details
;
Disordered water solvent molecules were not modelled and the disordered 
density was taken into account using the SQUEEZE/PLATON procedure.
;
#These two values have been output from a single CSD field.
_refine_ls_R_factor_gt 0.0496
_refine_ls_wR_factor_gt 0.0496
_symmetry_cell_setting monoclinic
_symmetry_space_group_name_H-M 'C 2/c'
_symmetry_Int_Tables_number 15
loop_
_symmetry_equiv_pos_site_id
_symmetry_equiv_pos_as_xyz
1 x,y,z
2 -x,y,1/2-z
3 1/2+x,1/2+y,z
4 1/2-x,1/2+y,1/2-z
5 -x,-y,-z
6 x,-y,-1/2+z
7 -1/2-x,-1/2-y,-z
8 -1/2+x,-1/2-y,-1/2+z
_cell_length_a 14.978(5)
_cell_length_b 29.229(5)
_cell_length_c 25.515(5)
_cell_angle_alpha 90
_cell_angle_beta 95.961(5)
_cell_angle_gamma 90
_cell_formula_units_Z 4
loop_
_atom_type_symbol
_atom_type_radius_bond
C 0.68
H 0.23
Ag 1.45
N 0.68
O 0.68
P 1.05
W 1.62
loop_
_atom_site_label
_atom_site_type_symbol
_atom_site_fract_x
_atom_site_fract_y
_atom_site_fract_z
P1 P 0.8833(2) 0.10756(12) 0.20577(15)
W1 W 0.82841(5) 0.20959(2) 0.26825(3)
W2 W 0.76149(4) 0.07383(2) 0.08562(3)
W3 W 0.99892(4) 0.11141(2) 0.09193(3)
W4 W 0.94883(5) 0.21100(2) 0.14922(3)
W5 W 0.65544(4) 0.07452(2) 0.19673(3)
W6 W 0.71113(4) 0.17446(2) 0.13971(3)
W7 W 0.77924(4) 0.10941(2) 0.32483(3)
W8 W 0.94474(4) 0.00227(2) 0.15169(3)
W9 W 0.83673(4) 0.00154(2) 0.26181(3)
O1 O 0.9496(7) 0.1328(4) 0.1739(4)
O2 O 0.8699(7) 0.1325(4) 0.2577(4)
O3 O 0.9083(7) 0.0576(3) 0.2150(4)
O4 O 0.7906(7) 0.1074(3) 0.1708(4)
O5 O 0.7884(8) -0.0446(4) 0.2880(5)
O6 O 0.7322(7) 0.0244(4) 0.2201(4)
O7 O 1.0018(7) 0.0508(4) 0.1204(5)
O8 O 0.8177(7) 0.0495(4) 0.3091(4)
O9 O 0.8333(7) 0.0244(3) 0.1162(4)
O10 O 0.6229(7) 0.1330(4) 0.1653(5)
O11 O 0.7646(8) 0.1745(4) 0.3143(5)
O12 O 0.8244(8) 0.1950(4) 0.1255(5)
O13 O 0.9063(7) 0.2201(4) 0.2150(5)
O14 O 0.7078(9) 0.1009(5) 0.3713(5)
O15 O 0.9622(8) -0.0425(4) 0.1114(5)
O16 O 0.6672(7) 0.0536(4) 0.1262(4)
O17 O 0.9817(8) 0.1757(4) 0.0909(4)
O18 O 1.0333(8) 0.1045(5) 0.0312(5)
O19 O 1.0662(8) 0.2097(4) 0.1811(5)
O20 O 0.5537(8) 0.0525(4) 0.2063(5)
O21 O 0.8741(8) 0.1011(4) 0.0745(5)
O22 O 0.9526(8) -0.0050(4) 0.2983(4)
O23 O 0.9483(9) 0.2652(4) 0.1233(5)
O24 O 0.7234(8) 0.0495(4) 0.0272(5)
O25 O 0.8756(7) -0.0288(4) 0.2009(4)
O26 O 0.7068(7) 0.1333(4) 0.0808(4)
O27 O 0.7399(7) 0.1956(4) 0.2098(5)
O28 O 0.7876(8) 0.2623(4) 0.2808(6)
O29 O 0.8851(7) 0.1194(4) 0.3692(5)
O30 O 0.6909(7) 0.1009(4) 0.2620(5)
O31 O 0.6384(8) 0.2167(4) 0.1124(5)
Ag1 Ag 0.95792(14) 0.19770(7) -0.01981(8)
Ag2 Ag 1.12082(10) 0.44208(5) 0.21033(6)
C1 C 1.1112(14) 0.2677(7) 0.0216(8)
C2 C 1.1321(13) 0.3131(6) 0.0151(8)
C3 C 1.0627(16) 0.3321(8) -0.0170(8)
C4 C 1.1641(16) 0.2319(8) 0.0545(10)
H1 H 1.13300 0.20320 0.05110
H2 H 1.17060 0.24120 0.09080
H3 H 1.22240 0.22860 0.04240
C5 C 1.0452(17) 0.3798(9) -0.0374(11)
H4 H 0.98930 0.38050 -0.05950
H5 H 1.09290 0.38900 -0.05740
H6 H 1.04210 0.40030 -0.00830
C6 C 1.2158(13) 0.3371(7) 0.0386(10)
H7 H 1.25170 0.31540 0.06040
H8 H 1.25030 0.34610 0.01020
C7 C 1.1520(11) 0.3805(6) 0.1162(7)
C8 C 1.2017(12) 0.3786(6) 0.0713(7)
C9 C 1.2313(13) 0.4220(7) 0.0657(7)
C10 C 1.1023(13) 0.3416(6) 0.1406(8)
H9 H 1.07470 0.35290 0.17040
H10 H 1.14410 0.31780 0.15190
H11 H 1.05700 0.32960 0.11490
C11 C 1.2864(15) 0.4404(7) 0.0246(8)
H12 H 1.29740 0.47240 0.03060
H13 H 1.25450 0.43610 -0.00970
H14 H 1.34260 0.42430 0.02650
C12 C 1.1157(12) 0.4104(6) 0.3257(8)
C13 C 1.1074(13) 0.4256(6) 0.3760(8)
C14 C 1.0784(14) 0.4696(7) 0.3716(9)
C15 C 1.1442(15) 0.3651(7) 0.3081(9)
H15 H 1.14270 0.36490 0.27040
H16 H 1.10420 0.34200 0.31890
H17 H 1.20410 0.35880 0.32360
C16 C 1.0601(17) 0.5052(8) 0.4105(10)
H18 H 1.04030 0.53280 0.39240
H19 H 1.11400 0.51140 0.43330
H20 H 1.01420 0.49460 0.43120
C17 C 1.1342(13) 0.3984(8) 0.4245(8)
H21 H 1.10300 0.36930 0.42180
H22 H 1.11530 0.41450 0.45470
C18 C 1.2755(16) 0.3476(6) 0.4494(8)
C19 C 1.2340(12) 0.3896(6) 0.4337(7)
C20 C 1.3036(13) 0.4201(7) 0.4302(7)
C21 C 1.2305(18) 0.3026(8) 0.4609(11)
H23 H 1.27560 0.27990 0.47030
H24 H 1.19320 0.29280 0.43000
H25 H 1.19430 0.30670 0.48940
C22 C 1.3097(16) 0.4692(7) 0.4181(10)
H26 H 1.37170 0.47780 0.41900
H27 H 1.28170 0.48660 0.44370
H28 H 1.27980 0.47510 0.38360
N1 N 1.0329(13) 0.2582(6) -0.0053(8)
N2 N 1.0045(14) 0.2975(8) -0.0266(9)
H29 H 0.95340 0.30060 -0.04500
N3 N 1.1543(11) 0.4221(6) 0.1367(6)
N4 N 1.2042(12) 0.4465(5) 0.1048(6)
H30 H 1.21680 0.47500 0.10960
N5 N 1.0941(10) 0.4426(5) 0.2891(7)
N6 N 1.0723(10) 0.4792(5) 0.3183(7)
H31 H 1.05660 0.50540 0.30510
N7 N 1.3797(12) 0.3963(6) 0.4422(7)
H32 H 1.43230 0.40800 0.44210
N8 N 1.3647(12) 0.3512(6) 0.4547(7)
P1A P 1.1167(2) 0.10756(12) 0.29423(15)
W1A W 1.17159(5) 0.20959(2) 0.23175(3)
W2A W 1.23851(4) 0.07383(2) 0.41438(3)
W3A W 1.00108(4) 0.11141(2) 0.40807(3)
W4A W 1.05117(5) 0.21100(2) 0.35078(3)
W5A W 1.34456(4) 0.07452(2) 0.30327(3)
W6A W 1.28887(4) 0.17446(2) 0.36029(3)
W7A W 1.22076(4) 0.10941(2) 0.17517(3)
W8A W 1.05526(4) 0.00227(2) 0.34831(3)
W9A W 1.16327(4) 0.00154(2) 0.23819(3)
O1A O 1.0504(7) 0.1328(4) 0.3261(4)
O2A O 1.1301(7) 0.1325(4) 0.2423(4)
O3A O 1.0917(7) 0.0576(3) 0.2850(4)
O4A O 1.2094(7) 0.1074(3) 0.3292(4)
O5A O 1.2116(8) -0.0446(4) 0.2120(5)
O6A O 1.2678(7) 0.0244(4) 0.2799(4)
O7A O 0.9982(7) 0.0508(4) 0.3796(5)
O8A O 1.1823(7) 0.0495(4) 0.1909(4)
O9A O 1.1667(7) 0.0244(3) 0.3838(4)
O10A O 1.3771(7) 0.1330(4) 0.3347(5)
O11A O 1.2354(8) 0.1745(4) 0.1857(5)
O12A O 1.1756(8) 0.1950(4) 0.3745(5)
O13A O 1.0937(7) 0.2201(4) 0.2850(5)
O14A O 1.2922(9) 0.1009(5) 0.1287(5)
O15A O 1.0378(8) -0.0425(4) 0.3886(5)
O16A O 1.3328(7) 0.0536(4) 0.3738(4)
O17A O 1.0183(8) 0.1757(4) 0.4091(4)
O18A O 0.9667(8) 0.1045(5) 0.4688(5)
O19A O 0.9338(8) 0.2097(4) 0.3189(5)
O20A O 1.4463(8) 0.0525(4) 0.2937(5)
O21A O 1.1259(8) 0.1011(4) 0.4255(5)
O22A O 1.0474(8) -0.0050(4) 0.2017(4)
O23A O 1.0517(9) 0.2652(4) 0.3767(5)
O24A O 1.2766(8) 0.0495(4) 0.4728(5)
O25A O 1.1244(7) -0.0288(4) 0.2991(4)
O26A O 1.2932(7) 0.1333(4) 0.4192(4)
O27A O 1.2601(7) 0.1956(4) 0.2902(5)
O28A O 1.2124(8) 0.2623(4) 0.2192(6)
O29A O 1.1149(7) 0.1194(4) 0.1308(5)
O30A O 1.3091(7) 0.1009(4) 0.2380(5)
O31A O 1.3616(8) 0.2167(4) 0.3876(5)
Ag1G Ag 1.45792(14) 0.30230(7) 0.48019(8)
N8G N 0.8647(12) 0.1488(6) -0.0453(7)
#END
