
#######################################################################
#
#                 Cambridge Crystallographic Data Centre
#                                CCDC
#
#######################################################################
#
# If this CIF has been generated from an entry in the Cambridge
# Structural Database, then it will include bibliographic, chemical,
# crystal, experimental, refinement or atomic coordinate data resulting
# from the CCDC's data processing and validation procedures.
#
#######################################################################

data_CSD_CIF_COBSIY
_audit_creation_date 2019-03-29
_audit_creation_method CSD-ConQuest-V1
_database_code_CSD COBSIY
_database_code_depnum_ccdc_archive 'CCDC 1847383'
_chemical_formula_sum 'C8 H18 Al1 K1 N2 O12'
_chemical_formula_moiety
;
(C6 H6 Al1 K1 O12 2-)n,2n(C1 H6 N1 1+)
;
_journal_coden_Cambridge 1326
_journal_volume 21
_journal_year 2019
_journal_page_first 7965
_journal_name_full 'Phys.Chem.Chem.Phys.(PCCP) '
loop_
_publ_author_name
"M.Ptak"
"B.Dziuk"
"D.Stefanska"
"K.Hermanowicz"
_chemical_name_systematic
;
catena-(bis(methylammonium) hexakis(\m-formato)-aluminium-potassium)
;
_cell_volume    911.432
_exptl_crystal_colour 'colorless'
_exptl_crystal_density_diffrn 1.459
_exptl_crystal_description 'plate'
_diffrn_ambient_temperature 293
#These two values have been output from a single CSD field.
_refine_ls_R_factor_gt 0.0611
_refine_ls_wR_factor_gt 0.0611
_symmetry_cell_setting monoclinic
_symmetry_space_group_name_H-M 'P 21/n'
_symmetry_Int_Tables_number 14
loop_
_symmetry_equiv_pos_site_id
_symmetry_equiv_pos_as_xyz
1 x,y,z
2 1/2-x,1/2+y,1/2-z
3 -x,-y,-z
4 -1/2+x,-1/2-y,-1/2+z
_cell_length_a 8.1644(8)
_cell_length_b 9.0972(10)
_cell_length_c 12.2715(13)
_cell_angle_alpha 90
_cell_angle_beta 90.289(10)
_cell_angle_gamma 90
_cell_formula_units_Z 2
loop_
_atom_type_symbol
_atom_type_radius_bond
C 0.68
H 0.23
Al 1.21
K 2.03
N 0.68
O 0.68
loop_
_atom_site_label
_atom_site_type_symbol
_atom_site_fract_x
_atom_site_fract_y
_atom_site_fract_z
K1 K 0.00000 1.00000 0.50000
C1 C 0.3138(8) 0.7617(8) 0.4671(5)
H1 H 0.24180 0.72520 0.51890
O1 O 0.4373(4) 0.6861(4) 0.4467(3)
Al1 Al 0.50000 0.50000 0.50000
O2 O 0.3803(4) 0.5303(4) 0.6295(3)
C2 C 0.7784(8) 0.6850(7) 0.5344(5)
H2 H 0.74350 0.73460 0.47220
O3 O 0.2787(5) 0.8801(5) 0.4248(4)
C3 C 0.4252(7) 0.5169(7) 0.7271(5)
H3 H 0.53170 0.48450 0.73950
O4 O 0.6913(4) 0.5802(4) 0.5653(3)
O5 O 0.3418(5) 0.5426(5) 0.8072(3)
O6 O 0.9059(5) 0.7296(5) 0.5776(4)
N1 N 0.5029(6) 0.9425(5) 0.2581(4)
H4 H 0.47600 0.89060 0.19920
H5 H 0.44500 0.91110 0.31480
H6 H 0.60920 0.93140 0.27220
C4 C 0.4675(9) 1.0985(8) 0.2385(7)
H7 H 0.52710 1.13150 0.17590
H8 H 0.50000 1.15500 0.30110
H9 H 0.35220 1.11100 0.22580
C1B C -0.3138(8) 1.2383(8) 0.5329(5)
H1B H -0.24180 1.27480 0.48110
O1B O -0.4373(4) 1.3139(4) 0.5533(3)
O3B O -0.2787(5) 1.1199(5) 0.5752(4)
O2C O -0.1197(4) 0.9697(4) 0.1295(3)
C3C C -0.0748(7) 0.9831(7) 0.2271(5)
H3C H 0.03170 1.01550 0.23950
O5C O -0.1582(5) 0.9574(5) 0.3072(3)
C2B C 0.2216(8) 1.3150(7) 0.4656(5)
H2B H 0.25650 1.26540 0.52780
O4B O 0.3087(4) 1.4198(4) 0.4347(3)
O6B O 0.0941(5) 1.2704(5) 0.4224(4)
K1* K 1.00000 1.00000 0.50000
K1A K 0.50000 0.50000 1.00000
O1B* O 0.5627(4) 0.3139(4) 0.5533(3)
Al1* Al -0.50000 1.50000 0.50000
Al1** Al 0.50000 1.50000 0.50000
Al1A Al 0.00000 1.00000 0.00000
O2B O 0.6197(4) 0.4697(4) 0.3705(3)
O4B* O 0.3087(4) 0.4198(4) 0.4347(3)
O5A O 0.1582(5) 1.0426(5) 0.6928(3)
O6* O -0.0941(5) 0.7296(5) 0.5776(4)
#END
