
#######################################################################
#
#                 Cambridge Crystallographic Data Centre
#                                CCDC
#
#######################################################################
#
# If this CIF has been generated from an entry in the Cambridge
# Structural Database, then it will include bibliographic, chemical,
# crystal, experimental, refinement or atomic coordinate data resulting
# from the CCDC's data processing and validation procedures.
#
#######################################################################

data_CSD_CIF_COBSUK
_audit_creation_date 2019-03-29
_audit_creation_method CSD-ConQuest-V1
_database_code_CSD COBSUK
_database_code_depnum_ccdc_archive 'CCDC 1847385'
_chemical_formula_sum 'C8 H18 Cr1 K1 N2 O12'
_chemical_formula_moiety
;
(C6 H6 Cr1 K1 O12 2-)n,2n(C1 H6 N1 1+)
;
_journal_coden_Cambridge 1326
_journal_volume 21
_journal_year 2019
_journal_page_first 7965
_journal_name_full 'Phys.Chem.Chem.Phys.(PCCP) '
loop_
_publ_author_name
"M.Ptak"
"B.Dziuk"
"D.Stefanska"
"K.Hermanowicz"
_chemical_name_systematic
;
catena-(bis(methylammonium) hexakis(\m-formato)-chromium-potassium)
;
_cell_volume    922.470
_exptl_crystal_colour 'slightly purple'
_exptl_crystal_density_diffrn 1.531
_exptl_crystal_description 'plate'
_diffrn_ambient_temperature 293
#These two values have been output from a single CSD field.
_refine_ls_R_factor_gt 0.0648
_refine_ls_wR_factor_gt 0.0648
_symmetry_cell_setting monoclinic
_symmetry_space_group_name_H-M 'P 21/n'
_symmetry_Int_Tables_number 14
loop_
_symmetry_equiv_pos_site_id
_symmetry_equiv_pos_as_xyz
1 x,y,z
2 1/2-x,1/2+y,1/2-z
3 -x,-y,-z
4 -1/2+x,-1/2-y,-1/2+z
_cell_length_a 8.2054(9)
_cell_length_b 9.1089(13)
_cell_length_c 12.3423(15)
_cell_angle_alpha 90
_cell_angle_beta 90.377(10)
_cell_angle_gamma 90
_cell_formula_units_Z 2
loop_
_atom_type_symbol
_atom_type_radius_bond
C 0.68
H 0.23
Cr 1.39
K 2.03
N 0.68
O 0.68
loop_
_atom_site_label
_atom_site_type_symbol
_atom_site_fract_x
_atom_site_fract_y
_atom_site_fract_z
Cr1 Cr 0.50000 0.50000 0.50000
O1 O 0.6280(4) 0.5329(4) 0.3676(3)
O2 O 0.4402(4) 0.3060(4) 0.4434(3)
O3 O 0.3028(4) 0.5797(4) 0.4296(3)
C1 C 0.5789(7) 0.5191(6) 0.2715(5)
C2 C 0.3145(8) 0.2336(7) 0.4648(5)
C3 C 0.7831(7) 0.3156(7) 0.5368(5)
H1 H 0.47190 0.48830 0.26100
O4 O 0.6601(4) 0.5430(5) 0.1902(3)
H2 H 0.24410 0.27200 0.51630
O5 O 0.2775(5) 0.1167(5) 0.4232(4)
H3 H 0.74710 0.26800 0.47450
O6 O 0.9097(5) 0.2701(4) 0.5784(4)
K1 K 0.50000 0.50000 0.00000
N1 N 0.5038(5) 0.0557(5) 0.2583(4)
H4 H 0.48240 0.10720 0.19860
H5 H 0.60830 0.06650 0.27630
H6 H 0.44160 0.08770 0.31210
C4 C 0.4700(9) -0.0984(7) 0.2383(6)
H7 H 0.35770 -0.10990 0.21770
H8 H 0.49140 -0.15380 0.30310
H9 H 0.53840 -0.13340 0.18110
O1B O 0.3720(4) 0.4671(4) 0.6324(3)
O3B O 0.6972(4) 0.4203(4) 0.5704(3)
O2B O 0.5598(4) 0.6940(4) 0.5566(3)
K1A K 0.00000 0.00000 0.50000
K1A* K 1.00000 0.00000 0.50000
O4A O 0.8399(4) 0.0430(5) 0.3098(3)
O4C O 1.1601(4) -0.0430(5) 0.6902(3)
O5B O 0.7225(5) -0.1167(5) 0.5768(4)
O6B O 1.0903(5) -0.2701(4) 0.4216(4)
O5* O 1.2775(5) 0.1167(5) 0.4232(4)
C1A C 0.9211(7) 0.0191(6) 0.2285(5)
C1C C 1.0789(7) -0.0191(6) 0.7715(5)
C2B C 0.6855(8) -0.2336(7) 0.5352(5)
O1A O 0.8720(4) 0.0329(4) 0.1324(3)
H1A H 1.02810 -0.01170 0.23900
O1C O 1.1280(4) -0.0329(4) 0.8676(3)
H1C H 0.97190 0.01170 0.76100
O2B* O 0.5598(4) -0.3060(4) 0.5566(3)
H2B H 0.75590 -0.27200 0.48370
Cr1A Cr 1.00000 0.00000 0.00000
Cr1A* Cr 1.00000 0.00000 1.00000
Cr1* Cr 0.50000 -0.50000 0.50000
#END
