
#######################################################################
#
#                 Cambridge Crystallographic Data Centre
#                                CCDC
#
#######################################################################
#
# If this CIF has been generated from an entry in the Cambridge
# Structural Database, then it will include bibliographic, chemical,
# crystal, experimental, refinement or atomic coordinate data resulting
# from the CCDC's data processing and validation procedures.
#
#######################################################################

data_CSD_CIF_COBSUK01
_audit_creation_date 2019-03-29
_audit_creation_method CSD-ConQuest-V1
_database_code_CSD COBSUK01
_database_code_depnum_ccdc_archive 'CCDC 1847386'
_chemical_formula_sum 'C8 H18 Cr1 K1 N2 O12'
_chemical_formula_moiety
;
(C6 H6 Cr1 K1 O12 2-)n,2(C1 H6 N1 1+)
;
_journal_coden_Cambridge 1326
_journal_volume 21
_journal_year 2019
_journal_page_first 7965
_journal_name_full 'Phys.Chem.Chem.Phys.(PCCP) '
loop_
_publ_author_name
"M.Ptak"
"B.Dziuk"
"D.Stefanska"
"K.Hermanowicz"
_chemical_name_systematic
;
catena-(bis(methylammonium) hexakis(\m-formato)-chromium-potassium)
;
_cell_volume    911.543
_exptl_crystal_colour 'slightly purple'
_exptl_crystal_density_diffrn 1.55
_exptl_crystal_description 'plate'
_diffrn_ambient_temperature 100
#These two values have been output from a single CSD field.
_refine_ls_R_factor_gt 0.0439
_refine_ls_wR_factor_gt 0.0439
_symmetry_cell_setting monoclinic
_symmetry_space_group_name_H-M 'P 21/n'
_symmetry_Int_Tables_number 14
loop_
_symmetry_equiv_pos_site_id
_symmetry_equiv_pos_as_xyz
1 x,y,z
2 1/2-x,1/2+y,1/2-z
3 -x,-y,-z
4 -1/2+x,-1/2-y,-1/2+z
_cell_length_a 8.1907(5)
_cell_length_b 9.0549(7)
_cell_length_c 12.2909(8)
_cell_angle_alpha 90
_cell_angle_beta 90.410(6)
_cell_angle_gamma 90
_cell_formula_units_Z 2
loop_
_atom_type_symbol
_atom_type_radius_bond
C 0.68
H 0.23
Cr 1.39
K 2.03
N 0.68
O 0.68
loop_
_atom_site_label
_atom_site_type_symbol
_atom_site_fract_x
_atom_site_fract_y
_atom_site_fract_z
Cr1 Cr 0.50000 0.50000 0.50000
O1 O 0.6309(3) 0.5323(3) 0.36832(18)
O2 O 0.4419(3) 0.3038(3) 0.4435(2)
O3 O 0.3036(3) 0.5799(3) 0.4272(2)
C1 C 0.5808(4) 0.5155(4) 0.2714(3)
C2 C 0.3119(5) 0.2330(5) 0.4637(3)
C3 C 0.7828(5) 0.3155(4) 0.5376(3)
H1 H 0.47460 0.48180 0.26100
O4 O 0.6630(3) 0.5406(3) 0.1898(2)
H2 H 0.23930 0.27310 0.51340
O5 O 0.2765(3) 0.1139(3) 0.4210(2)
H3 H 0.74510 0.26650 0.47580
O6 O 0.9123(3) 0.2725(3) 0.5774(2)
K1 K 0.50000 0.50000 0.00000
N1 N 0.5013(4) 0.0493(3) 0.2578(3)
H4 H 0.47440 0.10260 0.19950
H5 H 0.60690 0.06140 0.27260
H6 H 0.44250 0.07880 0.31430
C4 C 0.4682(5) -0.1083(5) 0.2359(4)
H7 H 0.35430 -0.12120 0.21950
H8 H 0.49680 -0.16570 0.29880
H9 H 0.53200 -0.14030 0.17500
O1B O 0.3691(3) 0.4677(3) 0.63168(18)
O3B O 0.6964(3) 0.4201(3) 0.5728(2)
O2B O 0.5581(3) 0.6962(3) 0.5565(2)
K1A K 0.00000 0.00000 0.50000
K1A* K 1.00000 0.00000 0.50000
O4A O 0.8370(3) 0.0406(3) 0.3102(2)
O4C O 1.1630(3) -0.0406(3) 0.6898(2)
O5* O 1.2765(3) 0.1139(3) 0.4210(2)
O5B O 0.7235(3) -0.1139(3) 0.5790(2)
O6B O 1.0877(3) -0.2725(3) 0.4226(2)
C1A C 0.9192(4) 0.0155(4) 0.2286(3)
C1C C 1.0808(4) -0.0155(4) 0.7714(3)
C2* C 1.3119(5) 0.2330(5) 0.4637(3)
O1A O 0.8691(3) 0.0323(3) 0.13168(18)
H1A H 1.02540 -0.01820 0.23900
O1C O 1.1309(3) -0.0323(3) 0.86832(18)
H1C H 0.97460 0.01820 0.76100
O2* O 1.4419(3) 0.3038(3) 0.4435(2)
H2* H 1.23930 0.27310 0.51340
Cr1A Cr 1.00000 0.00000 0.00000
Cr1A* Cr 1.00000 0.00000 1.00000
Cr1* Cr 1.50000 0.50000 0.50000
#END
