
#######################################################################
#
#                 Cambridge Crystallographic Data Centre
#                                CCDC
#
#######################################################################
#
# If this CIF has been generated from an entry in the Cambridge
# Structural Database, then it will include bibliographic, chemical,
# crystal, experimental, refinement or atomic coordinate data resulting
# from the CCDC's data processing and validation procedures.
#
#######################################################################

data_CSD_CIF_COKNIA
_audit_creation_date 2009-01-23
_audit_creation_method CSD-ConQuest-V1
_database_code_CSD COKNIA
_database_code_depnum_ccdc_archive 'CCDC 679711'
_chemical_formula_sum 'C64 H88 Cu4 F8 Mo24 N26 O88 P2'
_chemical_formula_moiety
;
(C52 H48 Cu4 F8 N24 O4 4+)n,2n(Mo12 O40 P1 3-),4n(H2 O1),2n(C6 H16 N1 1+)
;
_journal_coden_Cambridge 1350
_journal_volume 10
_journal_year 2008
_journal_page_first 1129
_journal_name_full 'CrystEngComm '
loop_
_publ_author_name
"Ya-Qian Lan"
"Shun-Li Li"
"Yang-Guang Li"
"Zhong-Min Su"
"Kui-Zhan Shao"
"Xin-Long Wang"
_chemical_name_systematic
;
catena-(bis(triethylammonium) 
tetrakis(\m~2~-1,3-bis(1H-1,2,4-triazol-1-yl)-2-(2,4-difluorophenyl)propan-2-o
l)-tetra-copper(i) 
(\m~12~-phosphato)-tetracosakis(\m~2~-oxo)-dodecaoxo-dodeca-molybdenum 
tetrahydrate)
;
_cell_volume   3409.180
_exptl_crystal_colour 'red'
_exptl_crystal_density_diffrn 2.628
_exptl_crystal_description 'block'
_diffrn_ambient_temperature 293
_refine_special_details
;
The keggins are partially disordered by symmetry.

;
#These two values have been output from a single CSD field.
_refine_ls_R_factor_gt 0.0643
_refine_ls_wR_factor_gt 0.0643
_symmetry_cell_setting triclinic
_symmetry_space_group_name_H-M 'P -1'
_symmetry_Int_Tables_number 2
loop_
_symmetry_equiv_pos_site_id
_symmetry_equiv_pos_as_xyz
1 x,y,z
2 -x,-y,-z
_cell_length_a 14.501(3)
_cell_length_b 15.205(4)
_cell_length_c 16.228(4)
_cell_angle_alpha 80.506(3)
_cell_angle_beta 89.984(3)
_cell_angle_gamma 75.230(3)
_cell_formula_units_Z 1
loop_
_atom_type_symbol
_atom_type_radius_bond
C 0.68
H 0.23
Cu 1.52
F 0.64
Mo 1.36
N 0.68
O 0.69
P 1.05
loop_
_atom_site_label
_atom_site_type_symbol
_atom_site_fract_x
_atom_site_fract_y
_atom_site_fract_z
C1 C 0.5610(8) -0.3977(9) 1.0789(8)
H1 H 0.61770 -0.38120 1.08550
C2 C 0.4498(7) -0.4644(8) 1.0914(7)
H2 H 0.41450 -0.50590 1.11160
C3 C 0.5007(10) -0.2806(8) 0.9563(9)
H3 H 0.50240 -0.30020 0.90230
H4 H 0.56030 -0.26480 0.96510
C4 C 0.4190(8) -0.1936(8) 0.9530(7)
C5 C 0.3684(8) -0.1881(7) 1.0350(6)
C6 C 0.4125(9) -0.1934(9) 1.1108(8)
C7 C 0.3706(13) -0.194(1) 1.1873(8)
H5 H 0.40450 -0.19770 1.23690
C8 C 0.2757(12) -0.1887(9) 1.1839(8)
C9 C 0.2238(10) -0.1847(9) 1.1134(8)
H6 H 0.15920 -0.18240 1.11440
C10 C 0.2732(8) -0.1841(8) 1.0380(7)
H7 H 0.23940 -0.18090 0.98840
C11 C 0.4626(7) -0.1119(7) 0.9265(7)
H8 H 0.50800 -0.11110 0.97010
H9 H 0.49740 -0.12080 0.87620
C12 C 0.2991(9) 0.0964(8) 0.9335(7)
H10 H 0.26510 0.14310 0.96060
C13 C 0.3467(8) 0.0191(7) 0.8391(7)
H11 H 0.35570 -0.00210 0.78840
C14 C 0.0293(7) 0.3167(7) 0.7002(6)
H12 H -0.00500 0.30560 0.74750
C15 C 0.1352(7) 0.3123(7) 0.6123(7)
H13 H 0.19330 0.29430 0.58760
C16 C -0.1013(6) 0.4335(7) 0.6145(6)
H14 H -0.10030 0.49560 0.58890
H15 H -0.13350 0.43720 0.66670
C17 C -0.1580(6) 0.3934(6) 0.5554(5)
C18 C -0.2643(6) 0.4377(6) 0.5643(5)
C19 C -0.3195(7) 0.3872(8) 0.6132(7)
H16 H -0.29260 0.32600 0.63700
C20 C -0.4130(8) 0.4282(9) 0.6258(9)
H17 H -0.44910 0.39500 0.65900
C21 C -0.4530(7) 0.5171(9) 0.5901(8)
C22 C -0.4037(8) 0.5705(8) 0.5418(8)
H18 H -0.43160 0.63160 0.51820
C23 C -0.3108(7) 0.5281(7) 0.5305(7)
C24 C -0.1242(6) 0.4103(7) 0.4648(5)
H19 H -0.12050 0.47380 0.45080
H20 H -0.06060 0.37070 0.46220
C25 C -0.2446(8) 0.4508(9) 0.3448(7)
H21 H -0.25320 0.51450 0.33510
C26 C -0.2526(9) 0.3173(10) 0.3364(7)
H22 H -0.27090 0.26880 0.31880
C27 C 1.077(3) 0.883(3) 0.744(3)
H23 H 1.11470 0.88930 0.69570
H24 H 1.08430 0.81750 0.76440
C28 C 1.1083(19) 0.9257(18) 0.8101(16)
H25 H 1.17390 0.89550 0.82630
H26 H 1.06960 0.91970 0.85770
H27 H 1.10210 0.98990 0.78930
C29 C 0.914(2) 0.893(2) 0.7886(19)
H28 H 0.86630 0.87220 0.75990
H29 H 0.95070 0.83970 0.82730
C30 C 0.866(2) 0.961(2) 0.8346(19)
H30 H 0.82510 0.93640 0.87290
H31 H 0.82940 1.01340 0.79690
H32 H 0.91280 0.97940 0.86530
C31 C 0.984(3) 0.886(3) 0.579(3)
H33 H 0.95530 0.86430 0.53650
H34 H 1.04470 0.84410 0.59770
H35 H 0.99360 0.94600 0.55740
C32 C 0.934(3) 0.893(2) 0.636(2)
H36 H 0.92020 0.83340 0.65430
H37 H 0.87410 0.93710 0.61710
N1 N 0.5350(6) -0.4648(7) 1.1280(6)
N2 N 0.4226(7) -0.4002(7) 1.0255(6)
N3 N 0.4961(6) -0.3583(7) 1.0203(6)
N4 N 0.3922(6) -0.0234(5) 0.9108(5)
N5 N 0.3624(7) 0.0257(7) 0.9725(6)
N6 N 0.2855(6) 0.0980(6) 0.8511(6)
N7 N 0.1190(6) 0.2742(6) 0.6906(5)
N8 N -0.0047(5) 0.3779(5) 0.6318(5)
N9 N 0.0643(6) 0.3752(6) 0.5744(6)
N10 N -0.1864(6) 0.3928(6) 0.4033(5)
N11 N -0.1881(7) 0.3053(7) 0.3983(6)
N12 N -0.2889(6) 0.4059(8) 0.3019(5)
N13 N 0.9813(19) 0.9261(16) 0.7233(15)
O1 O -0.2435(5) 0.3193(5) 0.1280(4)
O2 O -0.2440(5) 0.4271(6) -0.1966(5)
O3 O 0.9667(10) 0.1112(10) 0.6734(12)
O4 O -0.2117(7) 0.4142(8) -0.0229(5)
O5 O 0.2332(6) 0.4277(6) 0.1158(5)
O6 O 0.0954(6) 0.4950(6) 0.2111(5)
O7 O 0.0209(6) 0.3697(6) 0.3190(5)
O8 O -0.0730(6) 0.3546(5) 0.1791(8)
O9 O 0.1179(6) 0.3269(6) 0.1804(5)
O10 O -0.2352(7) 0.6500(7) 0.0239(4)
O11 O -0.2177(7) 0.4921(6) 0.1143(8)
O12 O 0.2983(5) 0.2403(6) 0.1276(7)
O13 O 0.1222(7) 0.2531(7) 0.0476(5)
O14 O -0.0699(7) 0.2799(8) 0.0479(6)
O15 O 0.0363(7) 0.1611(6) -0.0461(6)
O16 O -0.0734(6) 0.3390(8) -0.1134(6)
O17 O -0.1084(6) 0.6896(6) 0.1142(4)
O18 O -0.0867(7) 0.5207(6) 0.2097(9)
O19 O -0.2600(5) 0.6470(6) 0.1929(4)
O20 O -0.0578(8) 0.4843(8) 0.0820(7)
O21 O 0.0536(8) 0.5750(7) 0.0188(7)
O22 O 0.0682(7) 0.4580(8) 0.0713(6)
O23 O -0.0705(8) 0.5855(8) 0.0081(7)
O24 O 0.2616(6) -0.1875(6) 0.4377(5)
O25 O 0.3280(6) -0.0459(8) 0.3563(7)
O26 O 0.3592(6) 0.0403(5) 0.1970(4)
O27 O 0.4861(8) 0.1052(9) 0.2758(7)
O28 O 0.4989(6) -0.0778(8) 0.2988(7)
O29 O 0.5690(6) 0.2545(6) 0.2680(5)
O30 O 0.3433(10) -0.0685(6) 0.6606(6)
O31 O 0.3280(5) 0.1136(5) 0.6435(4)
O32 O 0.606(1) -0.2631(8) 0.3236(6)
O33 O 0.4574(6) -0.2005(9) 0.4152(7)
O34 O 0.3916(10) -0.1940(6) 0.5649(6)
O35 O 0.2612(11) -0.0407(6) 0.5119(7)
O36 O 0.1662(7) 0.0533(10) 0.6330(6)
O37 O 0.2478(5) 0.1309(5) 0.4926(5)
O38 O 0.3631(5) 0.2320(5) 0.5183(4)
O39 O 0.2299(8) 0.2929(7) 0.3824(7)
O40 O 0.3168(9) 0.1258(10) 0.3378(7)
O41 O 0.4246(9) 0.233(1) 0.3694(7)
O42 O 0.4142(8) -0.0373(8) 0.5385(6)
O43 O 0.4779(11) -0.0587(10) 0.4327(9)
O44 O 0.4231(8) 0.0639(8) 0.5218(8)
O45 O 0.4472(10) 0.0801(8) 0.4222(8)
O46 O 0.3497(6) -0.1837(6) 0.8858(5)
H38 H 0.32270 -0.22540 0.89530
O47 O -0.1352(4) 0.2969(4) 0.5847(4)
H39 H -0.16670 0.27310 0.55740
Cu1 Cu 0.20553(10) 0.18652(10) 0.76987(9)
Cu2 Cu 0.61833(11) -0.54003(14) 1.21509(9)
Mo1 Mo -0.16909(6) 0.37990(7) 0.08554(7)
Mo2 Mo -0.17341(5) 0.60177(6) 0.13395(6)
Mo3 Mo 0.02382(6) 0.26707(6) -0.02754(6)
Mo4 Mo 0.01582(6) 0.40595(6) 0.21779(5)
Mo5 Mo 0.20540(5) 0.32472(5) 0.08753(5)
Mo6 Mo -0.16515(6) 0.44903(7) -0.13585(5)
Mo7 Mo 0.31104(7) 0.19784(7) 0.41886(6)
Mo8 Mo 0.27486(7) 0.03606(7) 0.59455(6)
Mo9 Mo 0.54469(10) 0.17603(8) 0.34278(6)
Mo10 Mo 0.57130(7) -0.18168(7) 0.38208(6)
Mo11 Mo 0.33560(9) -0.12566(8) 0.45542(7)
Mo12 Mo 0.40504(8) 0.02894(9) 0.29174(6)
P1 P 0.50000 0.00000 0.50000
P2 P 0.00000 0.50000 0.00000
F1 F 0.5085(6) -0.1976(6) 1.1089(5)
F2 F 0.2301(8) -0.1892(7) 1.2579(5)
F3 F -0.5462(5) 0.5553(6) 0.6019(6)
F4 F -0.2595(5) 0.5780(4) 0.4819(5)
H40 H 0.958(12) 0.984(3) 0.708(10)
C1* C -0.4390(8) 0.6023(9) 0.0789(8)
H1* H -0.38230 0.61880 0.08550
C2* C -0.5502(7) 0.5356(8) 0.0914(7)
H2* H -0.58550 0.49410 0.11160
C3* C -0.4993(10) 0.7194(8) -0.0437(9)
H3* H -0.49760 0.69980 -0.09770
H4* H -0.43970 0.73520 -0.03490
C4* C -0.5810(8) 0.8064(8) -0.0470(7)
C5* C -0.6316(8) 0.8119(7) 0.0350(6)
C6* C -0.5875(9) 0.8066(9) 0.1108(8)
C7* C -0.6294(13) 0.806(1) 0.1873(8)
H5* H -0.59550 0.80230 0.23690
C8* C -0.7243(12) 0.8113(9) 0.1839(8)
C9* C -0.7762(10) 0.8153(9) 0.1134(8)
H6* H -0.84080 0.81760 0.11440
C10* C -0.7268(8) 0.8159(8) 0.0380(7)
H7* H -0.76060 0.81910 -0.01160
C11* C -0.5374(7) 0.8881(7) -0.0735(7)
H8* H -0.49200 0.88890 -0.02990
H9* H -0.50260 0.87920 -0.12380
C12* C -0.7009(9) 1.0964(8) -0.0665(7)
H10* H -0.73490 1.14310 -0.03940
C13* C -0.6533(8) 1.0191(7) -0.1609(7)
H11* H -0.64430 0.99790 -0.21160
C14* C 1.0293(7) -0.6833(7) 1.7002(6)
H12* H 0.99500 -0.69440 1.74750
C15* C 1.1352(7) -0.6877(7) 1.6123(7)
H13* H 1.19330 -0.70570 1.58760
C16* C 0.8987(6) -0.5665(7) 1.6145(6)
H14* H 0.89970 -0.50440 1.58890
H15* H 0.86650 -0.56280 1.66670
C17* C 0.8420(6) -0.6066(6) 1.5554(5)
C18* C 0.7357(6) -0.5623(6) 1.5643(5)
C19* C 0.6805(7) -0.6128(8) 1.6132(7)
H16* H 0.70740 -0.67400 1.63700
C20* C 0.5870(8) -0.5718(9) 1.6258(9)
H17* H 0.55090 -0.60500 1.65900
C21* C 0.5470(7) -0.4829(9) 1.5901(8)
C22* C 0.5963(8) -0.4295(8) 1.5418(8)
H18* H 0.56840 -0.36840 1.51820
C23* C 0.6892(7) -0.4719(7) 1.5305(7)
C24* C 0.8758(6) -0.5897(7) 1.4648(5)
H19* H 0.87950 -0.52620 1.45080
H20* H 0.93940 -0.62930 1.46220
C25* C 0.7554(8) -0.5492(9) 1.3448(7)
H21* H 0.74680 -0.48550 1.33510
C26* C 0.7474(9) -0.6827(10) 1.3364(7)
H22* H 0.72910 -0.73120 1.31880
N1* N -0.4650(6) 0.5352(7) 0.1280(6)
N2* N -0.5774(7) 0.5998(7) 0.0255(6)
N3* N -0.5039(6) 0.6417(7) 0.0203(6)
N4* N -0.6078(6) 0.9766(5) -0.0892(5)
N5* N -0.6376(7) 1.0257(7) -0.0275(6)
N6* N -0.7145(6) 1.0980(6) -0.1489(6)
N7* N 1.1190(6) -0.7258(6) 1.6906(5)
N7** N -0.8810(6) 1.2742(6) -0.3094(5)
N8* N 0.9953(5) -0.6221(5) 1.6318(5)
N9* N 1.0643(6) -0.6248(6) 1.5744(6)
N10* N 0.8136(6) -0.6072(6) 1.4033(5)
N11* N 0.8119(7) -0.6947(7) 1.3983(6)
N12* N 0.7111(6) -0.5941(8) 1.3019(5)
O1A O 0.2435(5) 0.6807(5) -0.1280(4)
O2A O 0.2440(5) 0.5729(6) 0.1966(5)
O4A O 0.2117(7) 0.5858(8) 0.0229(5)
O5A O -0.2332(6) 0.5723(6) -0.1158(5)
O6A O -0.0954(6) 0.5050(6) -0.2111(5)
O7A O -0.0209(6) 0.6303(6) -0.3190(5)
O8A O 0.0730(6) 0.6454(5) -0.1791(8)
O9A O -0.1179(6) 0.6731(6) -0.1804(5)
O10A O 0.2352(7) 0.3500(7) -0.0239(4)
O11A O 0.2177(7) 0.5079(6) -0.1143(8)
O12A O -0.2983(5) 0.7597(6) -0.1276(7)
O13A O -0.1222(7) 0.7469(7) -0.0476(5)
O14A O 0.0699(7) 0.7201(8) -0.0479(6)
O15A O -0.0363(7) 0.8389(6) 0.0461(6)
O16A O 0.0734(6) 0.6610(8) 0.1134(6)
O17A O 0.1084(6) 0.3104(6) -0.1142(4)
O18A O 0.0867(7) 0.4793(6) -0.2097(9)
O19A O 0.2600(5) 0.3530(6) -0.1929(4)
O20A O 0.0578(8) 0.5157(8) -0.0820(7)
O21A O -0.0536(8) 0.4250(7) -0.0188(7)
O22A O -0.0682(7) 0.5420(8) -0.0713(6)
O23A O 0.0705(8) 0.4145(8) -0.0081(7)
O24A O 0.7384(6) 0.1875(6) 0.5623(5)
O25A O 0.6720(6) 0.0459(8) 0.6437(7)
O26A O 0.6408(6) -0.0403(5) 0.8030(4)
O27A O 0.5139(8) -0.1052(9) 0.7242(7)
O28A O 0.5011(6) 0.0778(8) 0.7012(7)
O29A O 0.4310(6) -0.2545(6) 0.7320(5)
O30A O 0.6567(10) 0.0685(6) 0.3394(6)
O31A O 0.6720(5) -0.1136(5) 0.3565(4)
O32A O 0.394(1) 0.2631(8) 0.6764(6)
O33A O 0.5426(6) 0.2005(9) 0.5848(7)
O34A O 0.6084(10) 0.1940(6) 0.4351(6)
O35A O 0.7388(11) 0.0407(6) 0.4881(7)
O36A O 0.8338(7) -0.0533(10) 0.3670(6)
O37A O 0.7522(5) -0.1309(5) 0.5074(5)
O38A O 0.6369(5) -0.2320(5) 0.4817(4)
O39A O 0.7701(8) -0.2929(7) 0.6176(7)
O40A O 0.6832(9) -0.1258(10) 0.6622(7)
O41A O 0.5754(9) -0.233(1) 0.6306(7)
O42A O 0.5858(8) 0.0373(8) 0.4615(6)
O43A O 0.5221(11) 0.0587(10) 0.5673(9)
O44A O 0.5769(8) -0.0639(8) 0.4782(8)
O45A O 0.5528(10) -0.0801(8) 0.5778(8)
O46* O -0.6503(6) 0.8163(6) -0.1142(5)
H38* H -0.67730 0.77460 -0.10470
O47* O 0.8648(4) -0.7031(4) 1.5847(4)
H39* H 0.83330 -0.72690 1.55740
Cu1* Cu -0.79447(10) 1.18652(10) -0.23013(9)
Cu1** Cu 1.20553(10) -0.81348(10) 1.76987(9)
Cu2* Cu -0.38167(11) 0.45997(14) 0.21509(9)
Mo1A Mo 0.16909(6) 0.62010(7) -0.08554(7)
Mo2A Mo 0.17341(5) 0.39823(6) -0.13395(6)
Mo3A Mo -0.02382(6) 0.73293(6) 0.02754(6)
Mo4A Mo -0.01582(6) 0.59405(6) -0.21779(5)
Mo5A Mo -0.20540(5) 0.67528(5) -0.08753(5)
Mo6A Mo 0.16515(6) 0.55097(7) 0.13585(5)
Mo7A Mo 0.68896(7) -0.19784(7) 0.58114(6)
Mo8A Mo 0.72514(7) -0.03606(7) 0.40545(6)
Mo9A Mo 0.45531(10) -0.17603(8) 0.65722(6)
Mo10A Mo 0.42870(7) 0.18168(7) 0.61792(6)
Mo11A Mo 0.66440(9) 0.12566(8) 0.54458(7)
Mo12A Mo 0.59496(8) -0.02894(9) 0.70826(6)
F1* F -0.4915(6) 0.8024(6) 0.1089(5)
F2* F -0.7699(8) 0.8108(7) 0.2579(5)
F3* F 0.4538(5) -0.4447(6) 1.6019(6)
F4* F 0.7405(5) -0.4220(4) 1.4819(5)
#END
