
#######################################################################
#
#                 Cambridge Crystallographic Data Centre
#                                CCDC
#
#######################################################################
#
# If this CIF has been generated from an entry in the Cambridge
# Structural Database, then it will include bibliographic, chemical,
# crystal, experimental, refinement or atomic coordinate data resulting
# from the CCDC's data processing and validation procedures.
#
#######################################################################

data_CSD_CIF_COMHES
_audit_creation_date 2009-07-17
_audit_creation_method CSD-ConQuest-V1
_database_code_CSD COMHES
_database_code_depnum_ccdc_archive 'CCDC 682174'
_chemical_formula_sum 'C24 H36 Cu3 Mo12 N18 O40 P1'
_chemical_formula_moiety
;
(C16 H24 Cu2 N12 2+)n,n(C8 H12 Cu1 Mo12 N6 O40 P1 2-)
;
_journal_coden_Cambridge 1147
_journal_volume 8
_journal_year 2008
_journal_page_first 3717
_journal_name_full 'Cryst.Growth Des. '
loop_
_publ_author_name
"Ai-xiang Tian"
"Jun Ying"
"Jun Peng"
"Jing-quan Sha"
"Hai-jun Pang"
"Peng-peng Zhang"
"Yuan Chen"
"Min Zhu"
"Zhong-min Su"
_chemical_name_systematic
;
catena-(bis(\m~2~-1,4-bis(1,2,4-Triazol-1-yl)butane)-di-copper(i) 
(\m~12~-phosphato)-(\m~2~-1,4-bis(1,2,4-triazol-1-yl)butane)-hexacosakis(\m~2~
-oxo)-decaoxo-copper(i)-dodeca-molybdenum(vi))
;
_cell_volume   3133.484
_exptl_crystal_colour 'wine'
_exptl_crystal_density_diffrn 2.745
_exptl_special_details
;
We find that the given synthetic formula is not correct and that the cation 
is [2(btb)Cu2], not [(btb)Cu], whilst the anion is [Cu(btb)polymolybdate] and 
not [2(btb)Cu2polymolybdate]
;
_exptl_crystal_description 'block'
_diffrn_ambient_temperature 296
_refine_special_details
;
The phosphate anion is disordered by symmetry.

;
#These two values have been output from a single CSD field.
_refine_ls_R_factor_gt 0.0441
_refine_ls_wR_factor_gt 0.0441
_symmetry_cell_setting monoclinic
_symmetry_space_group_name_H-M 'P 21/c'
_symmetry_Int_Tables_number 14
loop_
_symmetry_equiv_pos_site_id
_symmetry_equiv_pos_as_xyz
1 x,y,z
2 -x,1/2+y,1/2-z
3 -x,-y,-z
4 x,-1/2-y,-1/2+z
_cell_length_a 12.4830(7)
_cell_length_b 21.2207(12)
_cell_length_c 11.9177(7)
_cell_angle_alpha 90
_cell_angle_beta 96.994(1)
_cell_angle_gamma 90
_cell_formula_units_Z 2
loop_
_atom_type_symbol
_atom_type_radius_bond
C 0.68
H 0.23
Cu 1.52
Mo 1.37
N 0.68
O 0.68
P 1.05
loop_
_atom_site_label
_atom_site_type_symbol
_atom_site_fract_x
_atom_site_fract_y
_atom_site_fract_z
P1 P 0.50000 0.00000 1.00000
Mo1 Mo 0.51356(6) -0.15882(3) 1.09140(6)
Mo2 Mo 0.66122(5) 0.05968(3) 1.24356(6)
Mo3 Mo 0.43650(7) -0.03881(4) 1.27522(6)
Mo4 Mo 0.39359(6) 0.11665(3) 1.17078(6)
Mo5 Mo 0.26040(5) -0.08471(3) 1.03138(6)
Mo6 Mo 0.75431(5) -0.06920(3) 1.09031(6)
O1 O 0.5708(6) -0.0602(4) 1.0068(7)
O2? O 0.3904(6) -0.0130(4) 0.9500(7)
O3 O 0.4427(6) -0.0507(4) 1.0653(7)
O4? O 0.4971(7) -0.0241(4) 0.8749(7)
O5 O 0.5459(5) 0.1138(3) 1.2348(7)
O6 O 0.4926(5) -0.1137(3) 1.2317(5)
O7 O 0.3742(5) 0.0450(3) 1.2497(8)
O8 O 0.4020(6) -0.0559(3) 1.4005(5)
O9 O 0.3025(5) -0.0629(3) 1.1768(5)
O10 O 0.6626(6) -0.1306(3) 1.1317(5)
O11 O 0.1469(5) -0.1245(3) 1.0372(6)
O12 O 0.7228(6) -0.1012(4) 0.9363(5)
O13 O 0.8747(5) -0.1000(3) 1.1252(6)
O14 O 0.7385(6) 0.0841(3) 1.3574(5)
O15 O 0.7922(5) 0.0065(3) 1.0107(5)
O16 O 0.3682(5) -0.1512(3) 1.0494(5)
O17 O 0.5467(5) -0.1665(3) 0.9457(5)
O18 O 0.5246(5) -0.2321(2) 1.1395(5)
O19 O 0.5680(5) -0.0015(3) 1.3090(7)
O20 O 0.3458(4) 0.1725(3) 1.2462(5)
O21 O 0.7376(5) -0.0182(2) 1.2109(4)
O22 O 0.2770(5) -0.0974(3) 0.8705(4)
Cu1 Cu 0.46064(8) 0.19776(5) 0.58134(10)
Cu2 Cu 1.00000 0.00000 1.00000
C1 C 0.6693(7) 0.2437(4) 0.6707(8)
H1 H 0.64340 0.26590 0.72900
C2 C 0.6824(8) 0.1896(5) 0.5307(8)
H2 H 0.66410 0.16460 0.46720
C3 C -0.1351(7) 0.2276(5) 0.2166(9)
H3 H -0.15930 0.19800 0.27010
H4 H -0.09550 0.20430 0.16510
C4 C -0.0670(13) 0.2715(8) 0.2745(14)
H5 H -0.10400 0.29020 0.33330
H6 H -0.05330 0.30490 0.22240
C5 C 0.0455(13) 0.2444(9) 0.3306(15)
H7 H 0.06000 0.20440 0.29630
H8 H 0.10300 0.27350 0.31850
C6 C 0.0419(10) 0.2369(9) 0.4386(13)
H9 H -0.01460 0.20690 0.44940
H10 H 0.02310 0.27680 0.47090
N1 N 0.1458(5) 0.2141(4) 0.5003(6)
N2 N 0.1459(5) 0.1762(6) 0.5874(7)
C7 C 0.2466(5) 0.1624(5) 0.6240(7)
H11 H 0.26980 0.13640 0.68490
N3 N 0.3086(4) 0.1917(3) 0.5596(5)
C8 C 0.2464(5) 0.2237(4) 0.4832(6)
H12 H 0.26950 0.24870 0.42670
C9 C 0.9320(9) -0.0806(6) 0.8081(8)
H13 H 0.94130 -0.11680 0.85220
C10 C 0.9267(7) 0.0122(5) 0.7620(8)
H14 H 0.93080 0.05590 0.76260
C11 C 0.8610(8) -0.0004(6) 0.5568(7)
H15 H 0.79460 -0.02120 0.52650
H16 H 0.84760 0.04460 0.55660
C12 C 0.9484(7) -0.0147(7) 0.4814(7)
H17 H 0.92380 -0.00060 0.40520
H18 H 0.95850 -0.06000 0.47870
N4 N 0.6092(5) 0.2096(3) 0.5957(6)
N5 N 0.7816(6) 0.2077(4) 0.5627(8)
N6 N -0.2290(5) 0.2576(4) 0.1526(6)
N7 N 0.9548(5) -0.0233(4) 0.8502(6)
N8 N 0.8959(8) -0.0823(5) 0.7010(7)
N9 N 0.8919(6) -0.0213(5) 0.6720(5)
Mo1B Mo 0.48644(6) 0.15882(3) 0.90860(6)
Mo2B Mo 0.33878(5) -0.05968(3) 0.75644(6)
Mo3B Mo 0.56350(7) 0.03881(4) 0.72478(6)
Mo4B Mo 0.60641(6) -0.11665(3) 0.82922(6)
Mo5B Mo 0.73960(5) 0.08471(3) 0.96862(6)
Mo6B Mo 0.24569(5) 0.06920(3) 0.90969(6)
O1B O 0.4292(6) 0.0602(4) 0.9932(7)
O3B O 0.5573(6) 0.0507(4) 0.9347(7)
O5B O 0.4541(5) -0.1138(3) 0.7652(7)
O6B O 0.5074(5) 0.1137(3) 0.7683(5)
O7B O 0.6258(5) -0.0450(3) 0.7503(8)
O8B O 0.5980(6) 0.0559(3) 0.5995(5)
O9B O 0.6975(5) 0.0629(3) 0.8232(5)
O10B O 0.3374(6) 0.1306(3) 0.8683(5)
O11B O 0.8531(5) 0.1245(3) 0.9628(6)
O12B O 0.2772(6) 0.1012(4) 1.0637(5)
O13B O 0.1253(5) 0.1000(3) 0.8748(6)
O14B O 0.2615(6) -0.0841(3) 0.6426(5)
O15B O 0.2078(5) -0.0065(3) 0.9893(5)
O15B* O 1.2078(5) -0.0065(3) 0.9893(5)
O16B O 0.6318(5) 0.1512(3) 0.9506(5)
O17B O 0.4533(5) 0.1665(3) 1.0543(5)
O18B O 0.4754(5) 0.2321(2) 0.8605(5)
O19B O 0.4320(5) 0.0015(3) 0.6910(7)
O20B O 0.6542(4) -0.1725(3) 0.7538(5)
O21B O 0.2624(5) 0.0182(2) 0.7891(4)
O22B O 0.7230(5) 0.0974(3) 1.1295(4)
Cu1C Cu -0.53936(8) 0.30224(5) 0.08134(10)
Cu1C* Cu 1.46064(8) 0.30224(5) 1.08134(10)
Cu2* Cu 1.00000 0.00000 0.00000
Cu2** Cu 0.00000 0.00000 1.00000
Cu2*** Cu 1.00000 0.00000 2.00000
C1C C -0.3307(7) 0.2563(4) 0.1707(8)
H1C H -0.35660 0.23410 0.22900
C2C C -0.3176(8) 0.3104(5) 0.0307(8)
H2C H -0.33590 0.33540 -0.03280
C3C C 0.8649(7) 0.2724(5) 0.7166(9)
H3C H 0.84070 0.30200 0.77010
H4C H 0.90450 0.29570 0.66510
C4C C 0.9330(13) 0.2285(8) 0.7745(14)
H5C H 0.89600 0.20980 0.83330
H6C H 0.94670 0.19510 0.72240
C5C C 1.0455(13) 0.2556(9) 0.8306(15)
H7C H 1.06000 0.29560 0.79630
H8C H 1.10300 0.22650 0.81850
C6C C 1.0419(10) 0.2631(9) 0.9386(13)
H9C H 0.98540 0.29310 0.94940
H10C H 1.02310 0.22320 0.97090
N1C N 1.1458(5) 0.2859(4) 1.0003(6)
N2C N 1.1459(5) 0.3238(6) 1.0874(7)
C7C C 1.2466(5) 0.3376(5) 1.1240(7)
H11C H 1.26980 0.36360 1.18490
N3C N 1.3086(4) 0.3083(3) 1.0596(5)
N3C* N -0.6914(4) 0.3083(3) 0.0596(5)
C8C C 1.2464(5) 0.2763(4) 0.9832(6)
H12C H 1.26950 0.25130 0.92670
C9B C 1.0680(9) 0.0806(6) 0.1919(8)
C9B* C 1.0680(9) 0.0806(6) 1.1919(8)
C9* C 0.9320(9) -0.0806(6) 1.8081(8)
H13B H 1.05870 0.11680 0.14780
H13B* H 1.05870 0.11680 1.14780
H13* H 0.94130 -0.11680 1.85220
C10B C 1.0733(7) -0.0122(5) 0.2380(8)
C10B* C 1.0733(7) -0.0122(5) 1.2380(8)
C10* C 0.9267(7) 0.0122(5) 1.7620(8)
H14B H 1.06920 -0.05590 0.23740
H14B* H 1.06920 -0.05590 1.23740
H14* H 0.93080 0.05590 1.76260
C11B C 1.1390(8) 0.0004(6) 0.4432(7)
C11B* C 1.1390(8) 0.0004(6) 1.4432(7)
C11* C 0.8610(8) -0.0004(6) 1.5568(7)
H15B H 1.20540 0.02120 0.47350
H15B* H 1.20540 0.02120 1.47350
H15* H 0.79460 -0.02120 1.52650
H16B H 1.15240 -0.04460 0.44340
H16B* H 1.15240 -0.04460 1.44340
H16* H 0.84760 0.04460 1.55660
C12B C 1.0516(7) 0.0147(7) 0.5186(7)
C12B* C 1.0516(7) 0.0147(7) 1.5186(7)
C12* C 0.9484(7) -0.0147(7) 1.4814(7)
H17B H 1.07620 0.00060 0.59480
H17B* H 1.07620 0.00060 1.59480
H17* H 0.92380 -0.00060 1.40520
H18B H 1.04150 0.06000 0.52130
H18B* H 1.04150 0.06000 1.52130
H18* H 0.95850 -0.06000 1.47870
N4C N -0.3908(5) 0.2904(3) 0.0957(6)
N5C N -0.2184(6) 0.2923(4) 0.0627(8)
N6C N 0.7710(5) 0.2424(4) 0.6526(6)
N7B N 1.0452(5) 0.0233(4) 1.1498(6)
N7B* N 1.0452(5) 0.0233(4) 0.1498(6)
N7* N 0.9548(5) -0.0233(4) 1.8502(6)
N7B** N 1.0452(5) 0.0233(4) 2.1498(6)
N8B N 1.1041(8) 0.0823(5) 0.2990(7)
N8B* N 1.1041(8) 0.0823(5) 1.2990(7)
N8* N 0.8959(8) -0.0823(5) 1.7010(7)
N9B N 1.1081(6) 0.0213(5) 0.3280(5)
N9B* N 1.1081(6) 0.0213(5) 1.3280(5)
N9* N 0.8919(6) -0.0213(5) 1.6720(5)
#END
