
#######################################################################
#
#                 Cambridge Crystallographic Data Centre
#                                CCDC
#
#######################################################################
#
# If this CIF has been generated from an entry in the Cambridge
# Structural Database, then it will include bibliographic, chemical,
# crystal, experimental, refinement or atomic coordinate data resulting
# from the CCDC's data processing and validation procedures.
#
#######################################################################

data_CSD_CIF_COMQON
_audit_creation_date 2019-08-06
_audit_creation_method CSD-ConQuest-V1
_database_code_CSD COMQON
_database_code_depnum_ccdc_archive 'CCDC 1938806'
_chemical_formula_sum 'C19 H67 Ho1 K2 N3 O54 P1 W11'
_chemical_formula_moiety
;
(C7 H17 Ho1 K2 O47 P1 W11 3-)n,3(C4 H12 N1 1+),7(H2 O1)
;
_journal_coden_Cambridge 1295
_journal_volume 108
_journal_year 2019
_journal_page_first 107511
_journal_name_full 'Inorg.Chem.Commun. '
loop_
_publ_author_name
"Ke Wang"
"Shuo Feng"
"Pengtao Ma"
_chemical_name_systematic
;
catena-[tris(tetramethylammonium) 
(\m-phosphato)-tetrakis(\m-oxido)-(\m-benzoato)-tetracosakis(\m-oxido)-hexakis
(aqua)-heptakis(oxido)-holmium(iii)-undeca-tungsten(vi)-di-potassium 
heptahydrate]
;
_cell_volume   3251.557
_exptl_crystal_colour 'colorless'
_exptl_special_details
;
Luminescent

;
_exptl_crystal_description 'block'
_diffrn_ambient_temperature 296.1
#These two values have been output from a single CSD field.
_refine_ls_R_factor_gt 0.0569
_refine_ls_wR_factor_gt 0.0569
_symmetry_cell_setting triclinic
_symmetry_space_group_name_H-M 'P -1'
_symmetry_Int_Tables_number 2
loop_
_symmetry_equiv_pos_site_id
_symmetry_equiv_pos_as_xyz
1 x,y,z
2 -x,-y,-z
_cell_length_a 12.8243(13)
_cell_length_b 13.3956(14)
_cell_length_c 19.974(2)
_cell_angle_alpha 83.953(2)
_cell_angle_beta 78.672(2)
_cell_angle_gamma 75.497(2)
_cell_formula_units_Z 2
loop_
_atom_type_symbol
_atom_type_radius_bond
C 0.68
H 0.23
Ho 1.92
K 2.03
N 0.68
O 0.68
P 1.05
W 1.62
loop_
_atom_site_label
_atom_site_type_symbol
_atom_site_fract_x
_atom_site_fract_y
_atom_site_fract_z
W1 W 0.50483(6) 0.94231(6) 0.81715(4)
W2 W 0.46673(6) 0.85365(5) 0.67051(4)
W3 W 0.45800(6) 0.70168(6) 0.82447(4)
W4 W 0.67003(6) 0.49149(5) 0.73704(4)
W5 W 0.67578(6) 0.64766(5) 0.58641(4)
W6 W 0.91193(6) 0.54107(5) 0.65039(4)
W7 W 0.71690(7) 0.59543(6) 0.89078(4)
W8 W 0.95920(6) 0.64469(6) 0.80171(4)
W9 W 0.76275(7) 0.83912(6) 0.88155(4)
W10 W 0.95677(6) 0.80801(5) 0.63662(4)
W11 W 0.76103(6) 0.99821(5) 0.71444(4)
Ho1 Ho 0.71711(7) 0.93216(6) 0.54267(4)
P1 P 0.7177(4) 0.7485(3) 0.7335(2)
K1 K 1.0476(5) 0.2978(4) 0.5271(3)
K2 K 0.8060(7) 0.4448(7) 1.0715(4)
O1 O 0.4243(11) 1.0458(10) 0.8608(7)
O2 O 0.3548(11) 0.8899(9) 0.6286(7)
O3 O 0.3536(12) 0.6578(10) 0.8737(7)
O4 O 0.6380(12) 0.3741(10) 0.7554(7)
O5 O 0.6395(12) 0.6194(10) 0.5151(7)
O6 O 1.0253(11) 0.4522(9) 0.6122(7)
O7 O 0.6989(12) 0.5163(10) 0.9618(7)
O8 O 1.0881(11) 0.5941(10) 0.8187(7)
O9 O 0.7709(12) 0.9096(10) 0.9475(8)
O10 O 1.0903(10) 0.8058(9) 0.6079(6)
O11 O 0.7763(12) 1.1148(10) 0.7325(7)
O12 O 0.8244(11) 0.4502(9) 0.6967(7)
O13 O 0.728(1) 1.0242(9) 0.6316(6)
O14 O 0.948(1) 0.5533(9) 0.7365(6)
O15 O 0.6402(11) 0.5271(9) 0.6502(7)
O16 O 0.725(1) 0.7602(9) 0.5606(6)
O17 O 0.5398(10) 0.5851(9) 0.7737(6)
O18 O 0.907(1) 0.7523(9) 0.8673(6)
O19 O 0.560(1) 0.9171(9) 0.6187(6)
O20 O 0.4335(11) 0.8359(9) 0.8592(7)
O21 O 0.5713(10) 0.6599(9) 0.8801(6)
O22 O 0.3998(10) 0.7622(9) 0.7498(6)
O23 O 0.7227(11) 0.7163(9) 0.9329(7)
O24 O 0.6118(11) 0.8870(9) 0.8745(7)
O25 O 0.7944(10) 0.9215(9) 0.8057(6)
O26 O 0.5412(10) 0.7227(9) 0.6339(6)
O27 O 0.4293(10) 0.9498(8) 0.7427(6)
O28 O 0.8731(11) 0.5662(9) 0.8702(7)
O29 O 0.9782(10) 0.7396(8) 0.7298(6)
O30 O 0.8952(10) 0.8583(9) 0.5651(6)
O31 O 0.9126(11) 0.9350(9) 0.6822(7)
O32 O 0.614(1) 0.9985(8) 0.7601(6)
O33 O 0.7238(10) 0.5113(9) 0.8183(6)
O34 O 0.9497(10) 0.6677(8) 0.6221(6)
O35 O 0.8264(10) 0.5612(9) 0.5801(6)
O36 O 0.5931(9) 0.7929(8) 0.7533(6)
O37 O 0.7371(9) 0.6504(8) 0.6942(6)
O38 O 0.7641(10) 0.7173(9) 0.7984(6)
O39 O 0.7716(9) 0.8282(8) 0.6907(6)
O40 O 0.6163(11) 0.8980(9) 0.4585(7)
O41 O 0.7942(12) 0.8577(10) 0.4318(7)
C1 C 0.7033(17) 0.8571(14) 0.4189(10)
C2 C 0.6937(17) 0.8094(14) 0.3559(10)
C3 C 0.5956(18) 0.8263(15) 0.3345(11)
H1 H 0.53256 0.86677 0.35886
C4 C 0.592(2) 0.7823(18) 0.2762(13)
H2 H 0.52604 0.79527 0.26060
C5 C 0.682(2) 0.721(2) 0.2406(15)
H3 H 0.67655 0.68978 0.20220
C6 C 0.783(2) 0.704(2) 0.2629(14)
H4 H 0.84558 0.66306 0.23881
C7 C 0.787(2) 0.7483(17) 0.3193(12)
H5 H 0.85322 0.73784 0.33407
O42 O 0.8342(13) 1.0393(12) 0.4836(8)
O43 O 0.5992(11) 1.0951(9) 0.5151(7)
O44 O 0.9617(16) 0.1001(14) 0.5695(10)
O45 O 0.8306(16) 0.3537(14) 0.5487(10)
O46 O 0.942(4) 0.266(4) 1.033(3)
O47 O 0.761(3) 0.656(3) 1.066(2)
N1 N 0.3272(10) 0.5591(9) 0.6180(6)
C8 C 0.2229(12) 0.5311(15) 0.6142(11)
H6 H 0.16571 0.59283 0.61272
H7 H 0.23247 0.49467 0.57376
H8 H 0.20342 0.48787 0.65384
C9 C 0.4171(14) 0.4636(12) 0.6205(12)
H9 H 0.48376 0.48235 0.62288
H10 H 0.39814 0.42020 0.66006
H11 H 0.42719 0.42700 0.57998
C10 C 0.3123(19) 0.6151(16) 0.6818(9)
H12 H 0.37921 0.63319 0.68438
H13 H 0.25489 0.67673 0.68078
H14 H 0.29320 0.57120 0.72114
C11 C 0.3561(18) 0.6294(15) 0.5573(9)
H15 H 0.42307 0.64726 0.55982
H16 H 0.36506 0.59477 0.51609
H17 H 0.29848 0.69097 0.55712
N2 N 1.1057(15) 0.9827(14) 0.8002(10)
C12 C 0.9914(17) 1.018(2) 0.8383(14)
H18 H 0.94185 0.99437 0.81709
H19 H 0.98735 0.99090 0.88485
H20 H 0.97179 1.09237 0.83726
C13 C 1.135(3) 0.8674(14) 0.8006(19)
H21 H 1.08346 0.84503 0.77984
H22 H 1.20711 0.84415 0.77536
H23 H 1.13150 0.83889 0.84693
C14 C 1.184(2) 1.019(3) 0.832(2)
H24 H 1.16442 1.09302 0.83162
H25 H 1.18100 0.99099 0.87863
H26 H 1.25661 0.99625 0.80706
C15 C 1.111(3) 1.025(3) 0.7273(11)
H27 H 1.06076 1.00197 0.70662
H28 H 1.09238 1.09946 0.72618
H29 H 1.18412 1.00190 0.70250
N3 N 0.6112(16) 0.2190(15) 0.9371(10)
C16 C 0.533(2) 0.161(2) 0.9789(14)
H30 H 0.51131 0.18519 1.02420
H31 H 0.46928 0.17142 0.95794
H32 H 0.56752 0.08850 0.98122
C17 C 0.646(3) 0.183(3) 0.8662(11)
H33 H 0.69616 0.22079 0.84027
H34 H 0.68124 0.11043 0.86809
H35 H 0.58300 0.19335 0.84481
C18 C 0.559(3) 0.3322(15) 0.935(2)
H36 H 0.53641 0.35498 0.98062
H37 H 0.60992 0.36947 0.90938
H38 H 0.49561 0.34479 0.91319
C19 C 0.710(2) 0.201(3) 0.971(2)
H39 H 0.68841 0.22389 1.01631
H40 H 0.74458 0.12819 0.97240
H41 H 0.76111 0.23811 0.94473
O48 O 0.6629(18) 1.2562(16) 0.6075(11)
O49 O 0.925(2) 0.2425(18) 0.7040(12)
O50 O 0.916(2) 0.330(2) 0.8276(16)
K1A K 0.9524(5) 0.7022(4) 0.4729(3)
K2A K 0.1940(7) 0.5552(7) 0.9285(4)
K2A* K 1.1940(7) 0.5552(7) 0.9285(4)
O3A O 0.6464(12) 0.3422(10) 1.1263(7)
O8A O 0.9119(11) 0.4059(10) 1.1813(7)
O16A O 1.275(1) 0.2398(9) 0.4394(6)
O30A O 1.1048(10) 0.1417(9) 0.4349(6)
O34A O 1.0503(10) 0.3323(8) 0.3779(6)
O35A O 1.1736(10) 0.4388(9) 0.4199(6)
O41A O 1.2058(12) 0.1423(10) 0.5682(7)
#END
