
#######################################################################
#
#                 Cambridge Crystallographic Data Centre
#                                CCDC
#
#######################################################################
#
# If this CIF has been generated from an entry in the Cambridge
# Structural Database, then it will include bibliographic, chemical,
# crystal, experimental, refinement or atomic coordinate data resulting
# from the CCDC's data processing and validation procedures.
#
#######################################################################

data_CSD_CIF_CONBEO
_audit_creation_date 2014-09-10
_audit_creation_method CSD-ConQuest-V1
_database_code_CSD CONBEO
_database_code_depnum_ccdc_archive 'CCDC 892175'
_chemical_formula_sum 'C16 H32 Cu2 Mn2 O30'
_chemical_formula_moiety
;
(C16 H12 Cu2 Mn1 O20 2-)n,H12 Mn1 O6 2+,4(H2 O1)
;
_journal_coden_Cambridge 208
_journal_volume 201
_journal_year 2013
_journal_page_first 208
_journal_name_full 'J.Solid State Chem. '
loop_
_publ_author_name
"T.-J.Jia"
"S.-M.Li"
"W.Cao"
"L.-C.Li"
"X.-J.Zheng"
"D.-Q.Yuan"
_chemical_name_systematic
;
catena-[hexa-aqua-manganese 
bis(\m-2,5-anhydro-3,4-dicarboxylato-3,4-dideoxyhexarato)-diaqua-di-copper-man
ganese tetrahydrate]
;
_cell_volume   2952.218
_exptl_crystal_colour 'blue'
_exptl_crystal_density_diffrn 2.118
_exptl_crystal_description 'plate'
_diffrn_ambient_temperature 293
#These two values have been output from a single CSD field.
_refine_ls_R_factor_gt 0.0318
_refine_ls_wR_factor_gt 0.0318
_symmetry_cell_setting monoclinic
_symmetry_space_group_name_H-M 'C 2/c'
_symmetry_Int_Tables_number 15
loop_
_symmetry_equiv_pos_site_id
_symmetry_equiv_pos_as_xyz
1 x,y,z
2 -x,y,1/2-z
3 1/2+x,1/2+y,z
4 1/2-x,1/2+y,1/2-z
5 -x,-y,-z
6 x,-y,-1/2+z
7 -1/2-x,-1/2-y,-z
8 -1/2+x,-1/2-y,-1/2+z
_cell_length_a 20.7223(11)
_cell_length_b 11.5326(6)
_cell_length_c 16.0254(15)
_cell_angle_alpha 90
_cell_angle_beta 129.569(2)
_cell_angle_gamma 90
_cell_formula_units_Z 4
loop_
_atom_type_symbol
_atom_type_radius_bond
C 0.68
H 0.23
Cu 1.32
Mn 1.61
O 0.68
loop_
_atom_site_label
_atom_site_type_symbol
_atom_site_fract_x
_atom_site_fract_y
_atom_site_fract_z
C1 C 0.57873(16) 0.5787(2) 0.1383(2)
C2 C 0.66295(15) 0.60438(19) 0.16542(19)
H1 H 0.68950 0.66970 0.21610
C3 C 0.65608(14) 0.63380(19) 0.06681(18)
H2 H 0.60340 0.67390 0.01120
C4 C 0.73123(15) 0.7086(2) 0.10535(18)
C5 C 0.65736(14) 0.51242(19) 0.02883(18)
H3 H 0.60090 0.48010 -0.01250
C6 C 0.68035(14) 0.51089(19) -0.04450(18)
C7 C 0.71531(15) 0.4423(2) 0.13519(18)
H4 H 0.77160 0.43790 0.15740
C8 C 0.68187(15) 0.3203(2) 0.12272(18)
Cu1 Cu 0.670236(19) 0.39497(2) 0.28527(2)
Mn1 Mn 0.75000 0.25000 0.00000
O1 O 0.71822(10) 0.50605(14) 0.21497(13)
O2 O 0.57390(11) 0.49213(16) 0.18302(15)
O3 O 0.52100(12) 0.64769(19) 0.07978(18)
O4 O 0.65000(12) 0.29588(15) 0.16530(14)
O5 O 0.68798(13) 0.24886(15) 0.06904(16)
O6 O 0.72509(12) 0.43272(15) -0.03772(15)
O7 O 0.64826(11) 0.59142(15) -0.11334(14)
O8 O 0.79557(11) 0.66456(16) 0.13142(16)
O9 O 0.72334(11) 0.81694(14) 0.11642(15)
O10 O 0.62886(13) 0.2129(2) -0.15648(18)
H5 H 0.582(2) 0.262(3) -0.192(4)
H6 H 0.610(3) 0.138(2) -0.156(4)
Mn2 Mn 0.50000 0.00000 0.00000
O11 O 0.5700(4) -0.1293(3) 0.1198(3)
O12 O 0.6135(2) 0.0335(3) 0.0266(3)
O13 O 0.53326(18) 0.1355(2) 0.1160(2)
H7 H 0.562(4) -0.107(4) 0.169(4)
H8 H 0.552(3) -0.208(2) 0.102(4)
H9 H 0.654(2) 0.095(3) 0.068(3)
H10 H 0.572(2) 0.070(4) -0.041(2)
H11 H 0.580(2) 0.179(4) 0.139(4)
H12 H 0.518(3) 0.158(4) 0.158(4)
O14 O 0.50000 0.7407(3) 0.75000
H13 H 0.458(3) 0.690(4) 0.697(3)
O15 O 0.58592(16) 0.9867(2) 0.8322(2)
H14 H 0.621(3) 0.936(4) 0.832(4)
H15 H 0.600(3) 0.978(5) 0.902(3)
O16 O 0.50000 0.6297(3) 0.25000
H16 H 0.510(3) 0.588(4) 0.208(4)
C1F C 0.92127(16) -0.0787(2) -0.1383(2)
C2F C 0.83705(15) -0.10438(19) -0.16542(19)
H1F H 0.81050 -0.16970 -0.21610
C3F C 0.84392(14) -0.13380(19) -0.06681(18)
H2F H 0.89660 -0.17390 -0.01120
C4F C 0.76877(15) -0.2086(2) -0.10535(18)
C5F C 0.84264(14) -0.01242(19) -0.02883(18)
H3F H 0.89910 0.01990 0.01250
C6F C 0.81965(14) -0.01089(19) 0.04450(18)
C7F C 0.78469(15) 0.0577(2) -0.13519(18)
H4F H 0.72840 0.06210 -0.15740
C8F C 0.81813(15) 0.1797(2) -0.12272(18)
Cu1F Cu 0.829764(19) 0.10503(2) -0.28527(2)
O1F O 0.78178(10) -0.00605(14) -0.21497(13)
O2F O 0.92610(11) 0.00787(16) -0.18302(15)
O3F O 0.97900(12) -0.14769(19) -0.07978(18)
O4F O 0.85000(12) 0.20412(15) -0.16530(14)
O5F O 0.81202(13) 0.25114(15) -0.06904(16)
O6F O 0.77491(12) 0.06728(15) 0.03772(15)
O7F O 0.85174(11) -0.09142(15) 0.11334(14)
O8F O 0.70443(11) -0.16456(16) -0.13142(16)
O9F O 0.77666(11) -0.31694(14) -0.11642(15)
O10F O 0.87114(13) 0.2871(2) 0.15648(18)
H5F H 0.918(2) 0.238(3) 0.192(4)
H6F H 0.890(3) 0.362(2) 0.156(4)
Cu1C Cu 0.829764(19) -0.10503(2) 0.21473(2)
Cu1C* Cu 0.829764(19) 0.89497(2) 0.21473(2)
Cu1E Cu 0.670236(19) -0.39497(2) -0.21473(2)
Cu1E* Cu 0.670236(19) 0.60503(2) -0.21473(2)
O7C O 0.85174(11) 0.09142(15) -0.38666(14)
O7E O 0.64826(11) 0.40858(15) 0.38666(14)
O9C O 0.77666(11) 0.31694(14) 0.38358(15)
O9E O 0.72334(11) 0.18306(14) -0.38358(15)
O11D O 0.4300(4) 0.1293(3) -0.1198(3)
O12D O 0.3865(2) -0.0335(3) -0.0266(3)
O13D O 0.46674(18) -0.1355(2) -0.1160(2)
H7D H 0.438(4) 0.107(4) -0.169(4)
H8D H 0.448(3) 0.208(2) -0.102(4)
H9D H 0.346(2) -0.095(3) -0.068(3)
H10D H 0.428(2) -0.070(4) 0.041(2)
H11D H 0.420(2) -0.179(4) -0.139(4)
H12D H 0.482(3) -0.158(4) -0.158(4)
H13A H 0.542(3) 0.690(4) 0.803(3)
H16A H 0.490(3) 0.588(4) 0.292(4)
#END
