
#######################################################################
#
#                 Cambridge Crystallographic Data Centre
#                                CCDC
#
#######################################################################
#
# If this CIF has been generated from an entry in the Cambridge
# Structural Database, then it will include bibliographic, chemical,
# crystal, experimental, refinement or atomic coordinate data resulting
# from the CCDC's data processing and validation procedures.
#
#######################################################################

data_CSD_CIF_CONBOY
_audit_creation_date 2014-09-10
_audit_creation_method CSD-ConQuest-V1
_database_code_CSD CONBOY
_database_code_depnum_ccdc_archive 'CCDC 892177'
_chemical_formula_sum 'C16 H32 Co2 Cu2 O30'
_chemical_formula_moiety
;
(C16 H12 Co1 Cu2 O20 2-)n,H12 Co1 O6 2+,4(H2 O1)
;
_journal_coden_Cambridge 208
_journal_volume 201
_journal_year 2013
_journal_page_first 208
_journal_name_full 'J.Solid State Chem. '
loop_
_publ_author_name
"T.-J.Jia"
"S.-M.Li"
"W.Cao"
"L.-C.Li"
"X.-J.Zheng"
"D.-Q.Yuan"
_chemical_name_systematic
;
catena-[hexa-aqua-cobalt 
bis(\m-2,5-anhydro-3,4-dicarboxylato-3,4-dideoxyhexarato)-diaqua-di-copper-cob
alt tetrahydrate]
;
_cell_volume   2894.819
_exptl_crystal_colour 'blue'
_exptl_crystal_density_diffrn 2.178
_exptl_crystal_description 'block'
_diffrn_ambient_temperature 296
#These two values have been output from a single CSD field.
_refine_ls_R_factor_gt 0.038
_refine_ls_wR_factor_gt 0.038
_symmetry_cell_setting monoclinic
_symmetry_space_group_name_H-M 'C 2/c'
_symmetry_Int_Tables_number 15
loop_
_symmetry_equiv_pos_site_id
_symmetry_equiv_pos_as_xyz
1 x,y,z
2 -x,y,1/2-z
3 1/2+x,1/2+y,z
4 1/2-x,1/2+y,1/2-z
5 -x,-y,-z
6 x,-y,-1/2+z
7 -1/2-x,-1/2-y,-z
8 -1/2+x,-1/2-y,-1/2+z
_cell_length_a 20.5490(3)
_cell_length_b 11.4470(2)
_cell_length_c 15.9766(2)
_cell_angle_alpha 90
_cell_angle_beta 129.620(1)
_cell_angle_gamma 90
_cell_formula_units_Z 4
loop_
_atom_type_symbol
_atom_type_radius_bond
C 0.68
H 0.23
Co 1.26
Cu 1.32
O 0.68
loop_
_atom_site_label
_atom_site_type_symbol
_atom_site_fract_x
_atom_site_fract_y
_atom_site_fract_z
C1 C 0.0773(2) 0.5802(3) 0.1360(3)
C2 C 0.1623(2) 0.6042(3) 0.1633(3)
H1 H 0.18940 0.67020 0.21390
C3 C 0.1551(2) 0.6333(3) 0.0639(3)
H2 H 0.10170 0.67300 0.00760
C4 C 0.2307(2) 0.7093(3) 0.1032(3)
C5 C 0.1577(2) 0.5108(3) 0.0273(3)
H3 H 0.10090 0.47760 -0.01380
C6 C 0.1803(2) 0.5084(3) -0.0467(3)
C7 C 0.2159(2) 0.4411(3) 0.1339(3)
H4 H 0.27290 0.43780 0.15680
C8 C 0.1835(2) 0.3181(3) 0.1214(3)
Co1 Co 0.25000 0.25000 0.00000
Cu1 Cu 0.16967(3) 0.39480(4) 0.28285(4)
O1 O 0.21794(15) 0.5047(2) 0.21354(19)
O2 O 0.07144(16) 0.4903(2) 0.1784(2)
O3 O 0.02020(17) 0.6519(3) 0.0802(2)
O4 O 0.22244(16) 0.8180(2) 0.1154(2)
O5 O 0.29624(17) 0.6667(2) 0.1295(2)
O6 O 0.14690(17) 0.5896(2) -0.1168(2)
O7 O 0.22518(17) 0.4298(2) -0.0404(2)
O8 O 0.18879(17) 0.2466(2) 0.0661(2)
O9 O 0.15167(17) 0.2923(2) 0.1646(2)
O10 O 0.36455(19) 0.2850(3) 0.1494(2)
H5 H 0.382(3) 0.3539(19) 0.156(4)
H6 H 0.405(2) 0.237(3) 0.179(4)
Co2 Co 0.50000 0.50000 0.50000
O11 O 0.4334(4) 0.3782(4) 0.3811(4)
H7 H 0.410(6) 0.367(7) 0.409(8)
H8 H 0.453(5) 0.313(4) 0.379(7)
O12 O 0.3902(3) 0.5321(4) 0.4772(4)
H9 H 0.435(2) 0.562(6) 0.535(4)
H10 H 0.351(3) 0.584(4) 0.449(5)
O13 O 0.4664(2) 0.6313(3) 0.3880(3)
H11 H 0.486(3) 0.648(5) 0.356(4)
H12 H 0.422(2) 0.669(5) 0.362(4)
O14 O 0.50000 0.7546(5) 0.25000
H13 H 0.544(3) 0.791(5) 0.300(4)
O15 O 0.5860(2) 0.5094(3) 0.3296(3)
H14 H 0.589(4) 0.517(5) 0.384(4)
H15 H 0.617(3) 0.559(4) 0.331(5)
O16 O 1.00000 0.6333(4) 0.25000
H16 H 0.988(3) 0.593(4) 0.282(4)
C1F C 0.4227(2) -0.0802(3) -0.1360(3)
C2F C 0.3377(2) -0.1042(3) -0.1633(3)
H1F H 0.31060 -0.17020 -0.21390
C3F C 0.3449(2) -0.1333(3) -0.0639(3)
H2F H 0.39830 -0.17300 -0.00760
C4F C 0.2693(2) -0.2093(3) -0.1032(3)
C5F C 0.3423(2) -0.0108(3) -0.0273(3)
H3F H 0.39910 0.02240 0.01380
C6F C 0.3197(2) -0.0084(3) 0.0467(3)
C7F C 0.2841(2) 0.0589(3) -0.1339(3)
H4F H 0.22710 0.06220 -0.15680
C8F C 0.3165(2) 0.1819(3) -0.1214(3)
Cu1F Cu 0.33033(3) 0.10520(4) -0.28285(4)
O1F O 0.28206(15) -0.0047(2) -0.21354(19)
O2F O 0.42856(16) 0.0097(2) -0.1784(2)
O3F O 0.47980(17) -0.1519(3) -0.0802(2)
O4F O 0.27756(16) -0.3180(2) -0.1154(2)
O5F O 0.20376(17) -0.1667(2) -0.1295(2)
O6F O 0.35310(17) -0.0896(2) 0.1168(2)
O7F O 0.27482(17) 0.0702(2) 0.0404(2)
O8F O 0.31121(17) 0.2534(2) -0.0661(2)
O9F O 0.34833(17) 0.2077(2) -0.1646(2)
O10F O 0.13545(19) 0.2150(3) -0.1494(2)
H5F H 0.118(3) 0.1461(19) -0.156(4)
H6F H 0.095(2) 0.263(3) -0.179(4)
Cu1C Cu 0.33033(3) -0.10520(4) 0.21715(4)
Cu1C* Cu 0.33033(3) 0.89480(4) 0.21715(4)
Cu1E Cu 0.16967(3) -0.39480(4) -0.21715(4)
Cu1E* Cu 0.16967(3) 0.60520(4) -0.21715(4)
O4C O 0.27756(16) 0.3180(2) 0.3846(2)
O4E O 0.22244(16) 0.1820(2) -0.3846(2)
O6C O 0.35310(17) 0.0896(2) -0.3832(2)
O6E O 0.14690(17) 0.4104(2) 0.3832(2)
O11D O 0.5666(4) 0.6218(4) 0.6189(4)
H7D H 0.590(6) 0.633(7) 0.591(8)
H8D H 0.547(5) 0.687(4) 0.621(7)
O12D O 0.6098(3) 0.4679(4) 0.5228(4)
H9D H 0.565(2) 0.438(6) 0.465(4)
H10D H 0.649(3) 0.416(4) 0.551(5)
O13D O 0.5336(2) 0.3687(3) 0.6120(3)
H11D H 0.514(3) 0.352(5) 0.644(4)
H12D H 0.578(2) 0.331(5) 0.638(4)
H13A H 0.456(3) 0.791(5) 0.200(4)
H16A H 1.012(3) 0.593(4) 0.218(4)
#END
