
#######################################################################
#
#                 Cambridge Crystallographic Data Centre
#                                CCDC
#
#######################################################################
#
# If this CIF has been generated from an entry in the Cambridge
# Structural Database, then it will include bibliographic, chemical,
# crystal, experimental, refinement or atomic coordinate data resulting
# from the CCDC's data processing and validation procedures.
#
#######################################################################

data_CSD_CIF_COPBOB
_audit_creation_date 2019-08-06
_audit_creation_method CSD-ConQuest-V1
_database_code_CSD COPBOB
_database_code_depnum_ccdc_archive 'CCDC 1919646'
_chemical_formula_sum 'C56 H65 Cu4 N8 Na1 O35'
_chemical_formula_moiety
;
3(H3 O1 1+),n(C56 H40 Cu4 N8 Na1 O24 3-),8(H2 O1)
;
_journal_coden_Cambridge 1695
_journal_volume 7
_journal_year 2019
_journal_page_first 10211
_journal_name_full 'J.Mater.Chem.C '
loop_
_publ_author_name
"Dongying Shi"
"Chao-Jie Cui"
"Min Hu"
"A-Hao Ren"
"Lu-Bin Song"
"Chun-Sen Liu"
"Miao Du"
_chemical_name_systematic
;
catena-[tris(oxonium) 
bis(\m-citrato)-bis(\m-4,4'-(4-(4H-1,2,4-triazol-4-yl)phenylazanediyl)dibenzoa
to)-tetra-copper(ii)-sodium octahydrate]
;
_cell_volume   3199.590
_exptl_crystal_colour 'blue green'
_exptl_crystal_density_diffrn 1.751
_exptl_crystal_description 'block'
_diffrn_ambient_temperature 293
#These two values have been output from a single CSD field.
_refine_ls_R_factor_gt 0.0582
_refine_ls_wR_factor_gt 0.0582
_symmetry_cell_setting monoclinic
_symmetry_space_group_name_H-M 'P 21/c'
_symmetry_Int_Tables_number 14
loop_
_symmetry_equiv_pos_site_id
_symmetry_equiv_pos_as_xyz
1 x,y,z
2 -x,1/2+y,1/2-z
3 -x,-y,-z
4 x,-1/2-y,-1/2+z
_cell_length_a 15.7471(10)
_cell_length_b 17.8249(10)
_cell_length_c 11.4482(6)
_cell_angle_alpha 90
_cell_angle_beta 95.314(5)
_cell_angle_gamma 90
_cell_formula_units_Z 2
loop_
_atom_type_symbol
_atom_type_radius_bond
C 0.68
H 0.23
Cu 1.32
N 0.68
Na 1.66
O 0.68
loop_
_atom_site_label
_atom_site_type_symbol
_atom_site_fract_x
_atom_site_fract_y
_atom_site_fract_z
Cu1 Cu 0.32086(4) 1.34596(3) -0.34538(5)
Cu2 Cu 0.35160(4) 1.15984(3) -0.38989(5)
C1 C -0.0979(3) 1.0629(3) -1.1188(4)
H1 H -0.05940 1.02750 -1.14140
C2 C -0.0686(3) 1.1321(3) -1.0777(4)
H2 H -0.01060 1.14280 -1.07310
C3 C -0.1256(3) 1.1856(2) -1.0434(4)
C4 C -0.2124(3) 1.1699(3) -1.0543(5)
H3 H -0.25110 1.20590 -1.03360
C5 C -0.2412(3) 1.1006(3) -1.0961(4)
H4 H -0.29940 1.09060 -1.10380
C6 C -0.1845(3) 1.0458(2) -1.1266(4)
C7 C -0.2133(3) 0.9683(2) -1.1615(4)
C8 C -0.1947(3) 1.4428(3) -0.9745(4)
H5 H -0.20430 1.47840 -0.91770
C9 C -0.1534(3) 1.3762(3) -0.9414(4)
H6 H -0.13480 1.36790 -0.86300
C10 C -0.1395(3) 1.3217(2) -1.0253(4)
C11 C -0.1717(3) 1.3344(3) -1.1419(4)
H7 H -0.16630 1.29740 -1.19800
C12 C -0.2110(3) 1.4012(2) -1.1744(4)
H8 H -0.23050 1.40930 -1.25260
C13 C -0.2220(3) 1.4569(2) -1.0912(4)
C14 C -0.2614(3) 1.5303(2) -1.1284(4)
C15 C 0.0469(3) 1.1966(3) -0.7347(4)
H9 H 0.05250 1.15730 -0.68110
C16 C -0.0175(3) 1.1954(3) -0.8257(4)
H10 H -0.05450 1.15470 -0.83420
C17 C -0.0268(3) 1.2549(2) -0.9046(4)
C18 C 0.0316(3) 1.3141(3) -0.8935(4)
H11 H 0.02660 1.35350 -0.94680
C19 C 0.0964(3) 1.3145(3) -0.8040(4)
H12 H 0.13570 1.35360 -0.79770
C20 C 0.1026(3) 1.2564(3) -0.7241(4)
C21 C 0.2116(3) 1.1974(3) -0.5813(4)
H13 H 0.20570 1.14850 -0.60940
C22 C 0.1960(3) 1.3171(3) -0.5611(4)
H14 H 0.17700 1.36620 -0.57230
C23 C 0.4169(3) 1.3261(3) -0.1408(4)
C24 C 0.4423(3) 1.2602(2) -0.2180(3)
C25 C 0.4487(3) 1.1894(3) -0.1423(4)
H15 H 0.48800 1.19900 -0.07360
H16 H 0.39320 1.17940 -0.11540
C26 C 0.4778(3) 1.1205(2) -0.2024(4)
C27 C 0.5290(3) 1.2756(3) -0.2652(4)
H17 H 0.57200 1.27810 -0.19890
H18 H 0.54290 1.23300 -0.31270
C28 C 0.5361(3) 1.3454(3) -0.3370(4)
N1 N -0.0952(2) 1.2553(2) -0.9951(4)
N2 N 0.1680(2) 1.2574(2) -0.6268(3)
N3 N 0.2540(2) 1.2947(2) -0.4790(3)
N4 N 0.2639(2) 1.2186(2) -0.4911(3)
O1 O -0.1751(2) 0.9315(2) -1.2301(3)
O2 O -0.2782(2) 0.94402(18) -1.1110(3)
O3 O -0.2575(2) 1.55296(18) -1.2310(3)
O4 O -0.2970(2) 1.56705(18) -1.0510(3)
O5 O 0.4494(3) 1.3316(2) -0.0385(3)
O6 O 0.3610(2) 1.37095(18) -0.1864(3)
O7 O 0.5346(2) 1.0805(2) -0.1526(3)
O8 O 0.4418(2) 1.10449(18) -0.3045(3)
O9 O 0.4774(2) 1.38552(19) -0.3745(3)
O10 O 0.6156(3) 1.3571(3) -0.3592(4)
O11 O 0.37736(19) 1.25288(15) -0.3120(2)
Na1 Na 0.50000 1.00000 0.00000
O12 O 0.3568(2) 1.0007(2) -0.0749(3)
O13 O -0.1131(3) 1.5204(3) -1.3503(5)
O14 O 0.3861(5) 1.5263(4) -0.1448(6)
O15 O 0.0082(5) 1.0259(4) -0.6226(9)
O16 O 0.4700(5) 1.4716(5) 0.0220(7)
O17 O -0.3659(8) 1.3234(11) -0.9728(17)
O18 O 0.5623(9) 1.4461(8) -0.1238(15)
Cu1B Cu 0.67914(4) 0.65404(3) 0.34538(5)
Cu2B Cu 0.64840(4) 0.84016(3) 0.38989(5)
C1B C 1.0979(3) 0.9371(3) 1.1188(4)
H1B H 1.05940 0.97250 1.14140
C2B C 1.0686(3) 0.8679(3) 1.0777(4)
H2B H 1.01060 0.85720 1.07310
C3B C 1.1256(3) 0.8144(2) 1.0434(4)
C4B C 1.2124(3) 0.8301(3) 1.0543(5)
H3B H 1.25110 0.79410 1.03360
C5B C 1.2412(3) 0.8994(3) 1.0961(4)
H4B H 1.29940 0.90940 1.10380
C6B C 1.1845(3) 0.9542(2) 1.1266(4)
C7B C 1.2133(3) 1.0317(2) 1.1615(4)
C8B C 1.1947(3) 0.5572(3) 0.9745(4)
H5B H 1.20430 0.52160 0.91770
C9B C 1.1534(3) 0.6238(3) 0.9414(4)
H6B H 1.13480 0.63210 0.86300
C10B C 1.1395(3) 0.6783(2) 1.0253(4)
C11B C 1.1717(3) 0.6656(3) 1.1419(4)
H7B H 1.16630 0.70260 1.19800
C12B C 1.2110(3) 0.5988(2) 1.1744(4)
H8B H 1.23050 0.59070 1.25260
C13B C 1.2220(3) 0.5431(2) 1.0912(4)
C14B C 1.2614(3) 0.4697(2) 1.1284(4)
C15B C 0.9531(3) 0.8034(3) 0.7347(4)
H9B H 0.94750 0.84270 0.68110
C16B C 1.0175(3) 0.8046(3) 0.8257(4)
H10B H 1.05450 0.84530 0.83420
C17B C 1.0268(3) 0.7451(2) 0.9046(4)
C18B C 0.9684(3) 0.6859(3) 0.8935(4)
H11B H 0.97340 0.64650 0.94680
C19B C 0.9036(3) 0.6855(3) 0.8040(4)
H12B H 0.86430 0.64640 0.79770
C20B C 0.8974(3) 0.7436(3) 0.7241(4)
C21B C 0.7884(3) 0.8026(3) 0.5813(4)
H13B H 0.79430 0.85150 0.60940
C22B C 0.8040(3) 0.6829(3) 0.5611(4)
H14B H 0.82300 0.63380 0.57230
C23B C 0.5831(3) 0.6739(3) 0.1408(4)
C24B C 0.5577(3) 0.7398(2) 0.2180(3)
C25B C 0.5513(3) 0.8106(3) 0.1423(4)
H15B H 0.51200 0.80100 0.07360
H16B H 0.60680 0.82060 0.11540
C26B C 0.5222(3) 0.8795(2) 0.2024(4)
C27B C 0.4710(3) 0.7244(3) 0.2652(4)
H17B H 0.42800 0.72190 0.19890
H18B H 0.45710 0.76700 0.31270
C28B C 0.4639(3) 0.6546(3) 0.3370(4)
N1B N 1.0952(2) 0.7447(2) 0.9951(4)
N2B N 0.8320(2) 0.7426(2) 0.6268(3)
N3B N 0.7460(2) 0.7053(2) 0.4790(3)
N4B N 0.7361(2) 0.7814(2) 0.4911(3)
O1B O 1.1751(2) 1.0685(2) 1.2301(3)
O2B O 1.2782(2) 1.05598(18) 1.1110(3)
O3B O 1.2575(2) 0.44704(18) 1.2310(3)
O4B O 1.2970(2) 0.43295(18) 1.0510(3)
O5B O 0.5506(3) 0.6684(2) 0.0385(3)
O6B O 0.6390(2) 0.62905(18) 0.1864(3)
O7B O 0.4654(2) 0.9195(2) 0.1526(3)
O8B O 0.5582(2) 0.89551(18) 0.3045(3)
O9B O 0.5226(2) 0.61448(19) 0.3745(3)
O10B O 0.3844(3) 0.6429(3) 0.3592(4)
O11B O 0.62264(19) 0.74712(15) 0.3120(2)
O12B O 0.6432(2) 0.9993(2) 0.0749(3)
Cu1A Cu -0.32086(4) 0.84596(3) -1.15462(5)
Cu1C Cu 1.32086(4) 1.15404(3) 1.15462(5)
Cu2A Cu -0.35160(4) 1.65984(3) -1.11011(5)
Cu2A* Cu 0.64840(4) 0.65984(3) -0.11011(5)
Cu2C Cu 0.35160(4) 1.34016(3) 0.11011(5)
Cu2C* Cu 1.35160(4) 0.34016(3) 1.11011(5)
O2A O 0.2782(2) 1.44402(18) -0.3890(3)
O2C O 0.7218(2) 0.55598(18) 0.3890(3)
O4A O 0.2970(2) 1.06705(18) -0.4490(3)
O4C O 0.7030(2) 0.93295(18) 0.4490(3)
O5A O 0.5506(3) 0.8316(2) 0.5385(3)
O5C O 0.4494(3) 1.1684(2) -0.5385(3)
O9A O 0.5226(2) 0.88552(19) -0.1255(3)
O9C O 0.4774(2) 1.11448(19) 0.1255(3)
Na1A Na 0.50000 0.50000 0.50000
Na1A* Na 0.50000 1.50000 -0.50000
#END
