
#######################################################################
#
#                 Cambridge Crystallographic Data Centre
#                                CCDC
#
#######################################################################
#
# If this CIF has been generated from an entry in the Cambridge
# Structural Database, then it will include bibliographic, chemical,
# crystal, experimental, refinement or atomic coordinate data resulting
# from the CCDC's data processing and validation procedures.
#
#######################################################################

data_CSD_CIF_COPVOU
_audit_creation_date 2014-09-12
_audit_creation_method CSD-ConQuest-V1
_database_code_CSD COPVOU
_database_code_depnum_ccdc_archive 'CCDC 1024023'
_chemical_formula_sum 'C40 H52 Cd1 Mn1 N8 O54 P1 W12'
_chemical_formula_moiety
;
(C40 H32 Cd1 Mn1 N8 O4 3+)n,n(O40 P1 W12 3-),10n(H2 O1)
;
_journal_coden_Cambridge 4
_journal_volume 134
_journal_year 2012
_journal_page_first 87
_journal_name_full 'J.Am.Chem.Soc. '
loop_
_publ_author_name
"Chao Zou"
"Zhijuan Zhang"
"Xuan Xu"
"Qihan Gong"
"Jing Li"
"Chuan-De Wu"
_chemical_name_systematic
;
catena-((\m~5~-5,10,15,20-tetrakis(4-Pyridyl)porphyrinato)-tetra-aqua-cadmium-
manganese 
(\m~12~-phosphato)-tetracosakis(\m~2~-oxo)-dodecaoxo-dodeca-tungsten 
decahydrate)
;
_cell_volume   4709.677
_exptl_crystal_colour 'brown'
_exptl_crystal_density_diffrn 2.633
_exptl_crystal_description 'block'
_diffrn_ambient_temperature 293
_refine_special_details
;
The Keggin anion is disordered by symmetry. The SQUEEZE/PLATON program was 
used to model the disordered water molecules.
;
#These two values have been output from a single CSD field.
_refine_ls_R_factor_gt 0.105
_refine_ls_wR_factor_gt 0.105
_symmetry_cell_setting tetragonal
_symmetry_space_group_name_H-M 'P 42/m m c'
_symmetry_Int_Tables_number 131
loop_
_symmetry_equiv_pos_site_id
_symmetry_equiv_pos_as_xyz
1 x,y,z
2 -x,-y,z
3 -y,x,1/2+z
4 y,-x,1/2+z
5 -x,y,-z
6 x,-y,-z
7 y,x,1/2-z
8 -y,-x,1/2-z
9 -x,-y,-z
10 x,y,-z
11 y,-x,-1/2-z
12 -y,x,-1/2-z
13 x,-y,z
14 -x,y,z
15 -y,-x,-1/2+z
16 y,x,-1/2+z
_cell_length_a 14.1159(6)
_cell_length_b 14.1159(6)
_cell_length_c 23.636(4)
_cell_angle_alpha 90
_cell_angle_beta 90
_cell_angle_gamma 90
_cell_formula_units_Z 2
loop_
_atom_type_symbol
_atom_type_radius_bond
C 0.68
H 0.23
Cd 1.44
Mn 1.61
N 0.68
O 0.68
P 1.05
W 1.62
loop_
_atom_site_label
_atom_site_type_symbol
_atom_site_fract_x
_atom_site_fract_y
_atom_site_fract_z
W1 W 0.96429(19) 0.2841(2) 0.42573(13)
W2 W 0.8181(4) 0.3220(4) 0.50000
O1 O 1.00000 0.3918(7) 0.50000
O2 O 1.00000 0.3824(19) 0.3686(11)
O3 O 1.067(2) 0.257(2) 0.50000
O4 O 1.00000 0.2105(7) 0.3781(5)
W3 W 0.78348(15) 0.46198(18) 0.42515(11)
O5 O 0.759(3) 0.224(3) 0.50000
O6 O 0.7728(18) 0.4161(18) 0.4574(12)
P1 P 1.00000 0.50000 0.50000
W4 W 1.00000 0.50000 0.35147(10)
O7 O 0.8916(7) 0.50000 0.50000
O8 O 0.688(3) 0.434(2) 0.3946(18)
O9 O 0.871(3) 0.50000 0.3714(15)
O10 O 1.00000 0.50000 0.4353(4)
O11 O 1.00000 0.50000 0.2825(16)
Cd1 Cd 1.00000 0.00000 0.25000
Mn1 Mn 0.50000 0.50000 0.25000
O12 O 0.50000 0.50000 0.3469(12)
O13 O 1.00000 0.00000 0.1502(18)
N1 N 0.6415(16) 0.50000 0.2494(10)
N2 N 0.8833(12) 0.1167(12) 0.25000
C1 C 0.790(2) 0.4533(17) 0.2485(14)
H1 H 0.84350 0.41440 0.24810
C2 C 0.6995(16) 0.4244(15) 0.2492(11)
C3 C 0.6701(13) 0.3299(13) 0.25000
C4 C 0.7490(16) 0.2510(16) 0.25000
C5 C 0.778(3) 0.209(3) 0.304(2)
H2 H 0.75220 0.22660 0.33870
C6 C 0.842(4) 0.147(4) 0.298(2)
H3 H 0.86260 0.11810 0.33130
O3D O 0.933(2) 0.257(2) 0.50000
W1M W 1.03571(19) 0.2841(2) 0.42573(13)
W1I W 0.96429(19) 0.2841(2) 0.57427(13)
W3I W 0.78348(15) 0.46198(18) 0.57485(11)
O6I O 0.7728(18) 0.4161(18) 0.5426(12)
W1D W 1.03571(19) 0.2841(2) 0.57427(13)
W2D W 1.1819(4) 0.3220(4) 0.50000
W3L W 0.78348(15) 0.53802(18) 0.42515(11)
O8L O 0.688(3) 0.566(2) 0.3946(18)
O6L O 0.7728(18) 0.5839(18) 0.4574(12)
O2D O 1.00000 0.3824(19) 0.6314(11)
O4D O 1.00000 0.2105(7) 0.6219(5)
W3E W 0.78348(15) 0.53802(18) 0.57485(11)
O8E O 0.688(3) 0.566(2) 0.6054(18)
O6E O 0.7728(18) 0.5839(18) 0.5426(12)
O9E O 0.871(3) 0.50000 0.6286(15)
O8I O 0.688(3) 0.434(2) 0.6054(18)
O7A O 1.1084(7) 0.50000 0.50000
O1A O 1.00000 0.6082(7) 0.50000
O10D O 1.00000 0.50000 0.5647(4)
O2A O 1.00000 0.6176(19) 0.3686(11)
O9A O 1.129(3) 0.50000 0.3714(15)
W3D W 1.21652(15) 0.46198(18) 0.57485(11)
O5D O 1.241(3) 0.224(3) 0.50000
O6D O 1.2272(18) 0.4161(18) 0.5426(12)
W3M W 1.21652(15) 0.46198(18) 0.42515(11)
O6M O 1.2272(18) 0.4161(18) 0.4574(12)
W2E W 0.8181(4) 0.6780(4) 0.50000
W4D W 1.00000 0.50000 0.64853(10)
W3A W 1.21652(15) 0.53802(18) 0.42515(11)
W3H W 1.21652(15) 0.53802(18) 0.57485(11)
W1A W 1.03571(19) 0.7159(2) 0.42573(13)
W1E W 0.96429(19) 0.7159(2) 0.57427(13)
W1H W 1.03571(19) 0.7159(2) 0.57427(13)
W1L W 0.96429(19) 0.7159(2) 0.42573(13)
O8D O 1.312(3) 0.434(2) 0.6054(18)
O9D O 1.129(3) 0.50000 0.6286(15)
O8H O 1.312(3) 0.566(2) 0.6054(18)
O6H O 1.2272(18) 0.5839(18) 0.5426(12)
O8A O 1.312(3) 0.566(2) 0.3946(18)
O6A O 1.2272(18) 0.5839(18) 0.4574(12)
O8M O 1.312(3) 0.434(2) 0.3946(18)
O3A O 0.933(2) 0.743(2) 0.50000
O5E O 0.759(3) 0.776(3) 0.50000
O11D O 1.00000 0.50000 0.7175(16)
O2E O 1.00000 0.6176(19) 0.6314(11)
W2A W 1.1819(4) 0.6780(4) 0.50000
O4A O 1.00000 0.7895(7) 0.3781(5)
O3E O 1.067(2) 0.743(2) 0.50000
O4E O 1.00000 0.7895(7) 0.6219(5)
O5A O 1.241(3) 0.776(3) 0.50000
N1G N 0.5000(16) 0.35850 0.2506(10)
C1G C 0.5467(20) 0.2100(17) 0.2515(14)
H1G H 0.58560 0.15650 0.25190
C2G C 0.5756(16) 0.3005(15) 0.2508(11)
C5G C 0.791(3) 0.222(3) 0.196(2)
H2G H 0.77340 0.24780 0.16130
C6G C 0.853(4) 0.158(4) 0.202(2)
H3G H 0.88190 0.13740 0.16870
N2K N 0.8833(12) 0.8833(12) 0.25000
C1L C 0.790(2) 0.5467(17) 0.2485(14)
H1L H 0.84350 0.58560 0.24810
C2L C 0.6995(16) 0.5756(15) 0.2492(11)
C3K C 0.6701(13) 0.6701(13) 0.25000
C4K C 0.7490(16) 0.7490(16) 0.25000
C5L C 0.778(3) 0.791(3) 0.304(2)
H2L H 0.75220 0.77340 0.33870
C6L C 0.842(4) 0.853(4) 0.298(2)
H3L H 0.86260 0.88190 0.33130
N2J N 0.1167(12) 0.1167(12) 0.25000
C1J C 0.4533(20) 0.2100(17) 0.2515(14)
H1J H 0.41440 0.15650 0.25190
C2J C 0.4244(16) 0.3005(15) 0.2508(11)
C3J C 0.3299(13) 0.3299(13) 0.25000
C4J C 0.2510(16) 0.2510(16) 0.25000
C5J C 0.209(3) 0.222(3) 0.196(2)
H2J H 0.22660 0.24780 0.16130
C6J C 0.147(4) 0.158(4) 0.202(2)
H3J H 0.11810 0.13740 0.16870
N1F N 0.5000(16) 0.64150 0.2506(10)
C1K C 0.5467(20) 0.7900(17) 0.2515(14)
H1K H 0.58560 0.84350 0.25190
C2K C 0.5756(16) 0.6995(15) 0.2508(11)
C5K C 0.791(3) 0.778(3) 0.196(2)
H2K H 0.77340 0.75220 0.16130
C6K C 0.853(4) 0.842(4) 0.202(2)
H3K H 0.88190 0.86260 0.16870
N2A N 0.1167(12) 0.8833(12) 0.25000
C1F C 0.4533(20) 0.7900(17) 0.2515(14)
H1F H 0.41440 0.84350 0.25190
C2F C 0.4244(16) 0.6995(15) 0.2508(11)
C3A C 0.3299(13) 0.6701(13) 0.25000
C4A C 0.2510(16) 0.7490(16) 0.25000
C5F C 0.209(3) 0.778(3) 0.196(2)
H2F H 0.22660 0.75220 0.16130
C6F C 0.147(4) 0.842(4) 0.202(2)
H3F H 0.11810 0.86260 0.16870
N1A N 0.3585(16) 0.50000 0.2494(10)
C1M C 0.210(2) 0.4533(17) 0.2485(14)
H1M H 0.15650 0.41440 0.24810
C2M C 0.3005(16) 0.4244(15) 0.2492(11)
C5M C 0.222(3) 0.209(3) 0.304(2)
H2M H 0.24780 0.22660 0.33870
C6M C 0.158(4) 0.147(4) 0.298(2)
H3M H 0.13740 0.11810 0.33130
C1A C 0.210(2) 0.5467(17) 0.2485(14)
H1A H 0.15650 0.58560 0.24810
C2A C 0.3005(16) 0.5756(15) 0.2492(11)
C5A C 0.222(3) 0.791(3) 0.304(2)
H2A H 0.24780 0.77340 0.33870
C6A C 0.158(4) 0.853(4) 0.298(2)
H3A H 0.13740 0.88190 0.33130
O12F O 0.50000 0.50000 0.1531(12)
O13F O 1.00000 0.00000 0.3498(18)
Cd1* Cd 0.00000 0.00000 0.25000
Cd1** Cd 0.00000 1.00000 0.25000
Cd1*** Cd 1.00000 1.00000 0.25000
N2A* N 1.1167(12) -0.1167(12) 0.25000
N2J* N 1.1167(12) 0.1167(12) 0.25000
N2K* N 0.8833(12) -0.1167(12) 0.25000
#END
