
#######################################################################
#
#                 Cambridge Crystallographic Data Centre
#                                CCDC
#
#######################################################################
#
# If this CIF has been generated from an entry in the Cambridge
# Structural Database, then it will include bibliographic, chemical,
# crystal, experimental, refinement or atomic coordinate data resulting
# from the CCDC's data processing and validation procedures.
#
#######################################################################

data_CSD_CIF_COPVUA
_audit_creation_date 2014-09-12
_audit_creation_method CSD-ConQuest-V1
_database_code_CSD COPVUA
_database_code_depnum_ccdc_archive 'CCDC 1024024'
_chemical_formula_sum 'C40 H32 Cd1 Mn1 N8 O44 P1 W12'
_chemical_formula_moiety
;
(C40 H32 Cd1 Mn1 N8 O4 3+)n,n(O40 P1 W12 3-)
;
_journal_coden_Cambridge 4
_journal_volume 134
_journal_year 2012
_journal_page_first 87
_journal_name_full 'J.Am.Chem.Soc. '
loop_
_publ_author_name
"Chao Zou"
"Zhijuan Zhang"
"Xuan Xu"
"Qihan Gong"
"Jing Li"
"Chuan-De Wu"
_chemical_name_systematic
;
catena-((\m~5~-5,10,15,20-tetrakis(4-Pyridyl)porphyrinato)-tetra-aqua-cadmium-
manganese 
(\m~12~-phosphato)-tetracosakis(\m~2~-oxo)-dodecaoxo-dodeca-tungsten unknown 
solvate)
;
_cell_volume   4595.316
_exptl_crystal_colour 'brown'
_exptl_crystal_density_diffrn 2.698
_exptl_crystal_description 'block'
_diffrn_ambient_temperature 293
_refine_special_details
;
The anion is disordered by symmetry. The SQUEEZE/PLATON program was used to 
model some disordered solvent.
;
#These two values have been output from a single CSD field.
_refine_ls_R_factor_gt 0.1096
_refine_ls_wR_factor_gt 0.1096
_symmetry_cell_setting tetragonal
_symmetry_space_group_name_H-M 'P 42/m m c'
_symmetry_Int_Tables_number 131
loop_
_symmetry_equiv_pos_site_id
_symmetry_equiv_pos_as_xyz
1 x,y,z
2 -x,-y,z
3 -y,x,1/2+z
4 y,-x,1/2+z
5 -x,y,-z
6 x,-y,-z
7 y,x,1/2-z
8 -y,-x,1/2-z
9 -x,-y,-z
10 x,y,-z
11 y,-x,-1/2-z
12 -y,x,-1/2-z
13 x,-y,z
14 -x,y,z
15 -y,-x,-1/2+z
16 y,x,-1/2+z
_cell_length_a 14.1967(7)
_cell_length_b 14.1967(7)
_cell_length_c 22.8003(18)
_cell_angle_alpha 90
_cell_angle_beta 90
_cell_angle_gamma 90
_cell_formula_units_Z 2
loop_
_atom_type_symbol
_atom_type_radius_bond
C 0.68
H 0.23
Cd 1.44
Mn 1.61
N 0.68
O 0.68
P 1.05
W 1.62
loop_
_atom_site_label
_atom_site_type_symbol
_atom_site_fract_x
_atom_site_fract_y
_atom_site_fract_z
Cd1 Cd 0.00000 0.00000 0.25000
Mn1 Mn 0.50000 0.50000 0.25000
O1 O 0.50000 0.50000 0.151(2)
O2 O 0.00000 0.00000 0.1467(18)
N1 N 0.50000 0.3583(14) 0.2557(9)
N2 N 0.1145(11) 0.1145(11) 0.25000
C1 C 0.4521(14) 0.2061(16) 0.2562(10)
H1 H 0.41340 0.15340 0.25810
C2 C 0.4223(12) 0.2998(12) 0.2528(8)
C3 C 0.3308(14) 0.3308(14) 0.25000
C4 C 0.2555(13) 0.2555(13) 0.25000
C5 C 0.218(2) 0.235(2) 0.2009(13)
H2 H 0.23710 0.26430 0.16660
C6 C 0.1394(19) 0.1599(18) 0.1991(9)
H3 H 0.10940 0.14550 0.16400
W1 W 0.3753(2) 0.00000 0.13471(16)
W2 W 0.2509(3) 0.00000 0.00000
W3 W 0.3775(4) 0.2017(2) 0.0481(2)
W4 W 0.50000 0.2114(2) 0.0844(2)
P1 P 0.50000 0.00000 0.00000
O3 O 0.417(3) 0.00000 0.043(3)
O4 O 0.50000 0.1076(7) 0.00000
O5 O 0.301(4) 0.286(4) 0.064(3)
O6 O 0.1345(8) 0.00000 0.00000
O7 O 0.50000 0.300(3) 0.1307(19)
O8 O 0.297(7) 0.00000 0.084(4)
O9 O 0.327(3) 0.00000 0.199(2)
O10 O 0.404(2) 0.130(2) 0.1140(15)
O11 O 0.276(4) 0.123(4) 0.00000
O12 O 0.50000 0.00000 0.1690(18)
O13 O 0.400(16) 0.285(4) 0.00000
N1F N 0.35830 0.5000(14) 0.2443(9)
C1F C 0.2061(14) 0.4521(16) 0.2438(10)
H1F H 0.15340 0.41340 0.24190
C2F C 0.2998(12) 0.4223(12) 0.2472(8)
C5F C 0.235(2) 0.218(2) 0.2991(13)
H2F H 0.26430 0.23710 0.33340
C6F C 0.1599(19) 0.1394(18) 0.3009(9)
H3F H 0.14550 0.10940 0.33600
N2K N 0.8855(11) 0.1145(11) 0.25000
C1M C 0.5479(14) 0.2061(16) 0.2562(10)
H1M H 0.58660 0.15340 0.25810
C2M C 0.5777(12) 0.2998(12) 0.2528(8)
C3K C 0.6692(14) 0.3308(14) 0.25000
C4K C 0.7445(13) 0.2555(13) 0.25000
C5M C 0.782(2) 0.235(2) 0.2009(13)
H2M H 0.76290 0.26430 0.16660
C6M C 0.8606(19) 0.1599(18) 0.1991(9)
H3M H 0.89060 0.14550 0.16400
N2J N 0.1145(11) 0.8855(11) 0.25000
C1J C 0.2061(14) 0.5479(16) 0.2438(10)
H1J H 0.15340 0.58660 0.24190
C2J C 0.2998(12) 0.5777(12) 0.2472(8)
C3J C 0.3308(14) 0.6692(14) 0.25000
C4J C 0.2555(13) 0.7445(13) 0.25000
C5J C 0.235(2) 0.782(2) 0.2991(13)
H2J H 0.26430 0.76290 0.33340
C6J C 0.1599(19) 0.8606(18) 0.3009(9)
H3J H 0.14550 0.89060 0.33600
N1G N 0.64170 0.5000(14) 0.2443(9)
C1K C 0.7939(14) 0.4521(16) 0.2438(10)
H1K H 0.84660 0.41340 0.24190
C2K C 0.7002(12) 0.4223(12) 0.2472(8)
C5K C 0.765(2) 0.218(2) 0.2991(13)
H2K H 0.73570 0.23710 0.33340
C6K C 0.8401(19) 0.1394(18) 0.3009(9)
H3K H 0.85450 0.10940 0.33600
N2A N 0.8855(11) 0.8855(11) 0.25000
C1G C 0.7939(14) 0.5479(16) 0.2438(10)
H1G H 0.84660 0.58660 0.24190
C2G C 0.7002(12) 0.5777(12) 0.2472(8)
C3A C 0.6692(14) 0.6692(14) 0.25000
C4A C 0.7445(13) 0.7445(13) 0.25000
C5G C 0.765(2) 0.782(2) 0.2991(13)
H2G H 0.73570 0.76290 0.33340
C6G C 0.8401(19) 0.8606(18) 0.3009(9)
H3G H 0.85450 0.89060 0.33600
N1A N 0.50000 0.6417(14) 0.2557(9)
C1L C 0.4521(14) 0.7939(16) 0.2562(10)
H1L H 0.41340 0.84660 0.25810
C2L C 0.4223(12) 0.7002(12) 0.2528(8)
C5L C 0.218(2) 0.765(2) 0.2009(13)
H2L H 0.23710 0.73570 0.16660
C6L C 0.1394(19) 0.8401(18) 0.1991(9)
H3L H 0.10940 0.85450 0.16400
C1A C 0.5479(14) 0.7939(16) 0.2562(10)
H1A H 0.58660 0.84660 0.25810
C2A C 0.5777(12) 0.7002(12) 0.2528(8)
C5A C 0.782(2) 0.765(2) 0.2009(13)
H2A H 0.76290 0.73570 0.16660
C6A C 0.8606(19) 0.8401(18) 0.1991(9)
H3A H 0.89060 0.85450 0.16400
O1F O 0.50000 0.50000 0.349(2)
O2F O 0.00000 0.00000 0.3533(18)
Cd1* Cd 0.00000 1.00000 0.25000
Cd1** Cd 1.00000 0.00000 0.25000
Cd1*** Cd 1.00000 1.00000 0.25000
N2A* N -0.1145(11) -0.1145(11) 0.25000
N2J* N 0.1145(11) -0.1145(11) 0.25000
N2K* N -0.1145(11) 0.1145(11) 0.25000
O3A O 0.583(3) 0.00000 0.043(3)
O4A O 0.50000 -0.1076(7) 0.00000
O3D O 0.583(3) 0.00000 -0.043(3)
O3E O 0.417(3) 0.00000 -0.043(3)
W1A W 0.6247(2) 0.00000 0.13471(16)
W2A W 0.7491(3) 0.00000 0.00000
W3A W 0.6225(4) -0.2017(2) 0.0481(2)
W4A W 0.50000 -0.2114(2) 0.0844(2)
O5A O 0.699(4) -0.286(4) 0.064(3)
O6A O 0.8655(8) 0.00000 0.00000
O7A O 0.50000 -0.300(3) 0.1307(19)
O8A O 0.703(7) 0.00000 0.084(4)
O9A O 0.673(3) 0.00000 0.199(2)
O10A O 0.596(2) -0.130(2) 0.1140(15)
O11A O 0.724(4) -0.123(4) 0.00000
O13A O 0.600(16) -0.285(4) 0.00000
W1D W 0.6247(2) 0.00000 -0.13471(16)
W3D W 0.6225(4) 0.2017(2) -0.0481(2)
W4D W 0.50000 0.2114(2) -0.0844(2)
O5D O 0.699(4) 0.286(4) -0.064(3)
O7D O 0.50000 0.300(3) -0.1307(19)
O8D O 0.703(7) 0.00000 -0.084(4)
O9D O 0.673(3) 0.00000 -0.199(2)
O10D O 0.596(2) 0.130(2) -0.1140(15)
O11D O 0.724(4) 0.123(4) 0.00000
O12D O 0.50000 0.00000 -0.1690(18)
O13D O 0.600(16) 0.285(4) 0.00000
W1E W 0.3753(2) 0.00000 -0.13471(16)
W3E W 0.3775(4) -0.2017(2) -0.0481(2)
W4E W 0.50000 -0.2114(2) -0.0844(2)
O5E O 0.301(4) -0.286(4) -0.064(3)
O7E O 0.50000 -0.300(3) -0.1307(19)
O8E O 0.297(7) 0.00000 -0.084(4)
O9E O 0.327(3) 0.00000 -0.199(2)
O10E O 0.404(2) -0.130(2) -0.1140(15)
O11E O 0.276(4) -0.123(4) 0.00000
O13E O 0.400(16) -0.285(4) 0.00000
W3H W 0.6225(4) -0.2017(2) -0.0481(2)
O5H O 0.699(4) -0.286(4) -0.064(3)
O10H O 0.596(2) -0.130(2) -0.1140(15)
W3I W 0.3775(4) 0.2017(2) -0.0481(2)
O5I O 0.301(4) 0.286(4) -0.064(3)
O10I O 0.404(2) 0.130(2) -0.1140(15)
W3L W 0.3775(4) -0.2017(2) 0.0481(2)
O5L O 0.301(4) -0.286(4) 0.064(3)
O10L O 0.404(2) -0.130(2) 0.1140(15)
W3M W 0.6225(4) 0.2017(2) 0.0481(2)
O5M O 0.699(4) 0.286(4) 0.064(3)
O10M O 0.596(2) 0.130(2) 0.1140(15)
#END
