
#######################################################################
#
#                 Cambridge Crystallographic Data Centre
#                                CCDC
#
#######################################################################
#
# If this CIF has been generated from an entry in the Cambridge
# Structural Database, then it will include bibliographic, chemical,
# crystal, experimental, refinement or atomic coordinate data resulting
# from the CCDC's data processing and validation procedures.
#
#######################################################################

data_CSD_CIF_COQKEB
_audit_creation_date 2019-08-07
_audit_creation_method CSD-ConQuest-V1
_database_code_CSD COQKEB
_database_code_depnum_ccdc_archive 'CCDC 1914835'
_chemical_formula_sum 'C48 H44 Cu1 N6 Na2 O12 P4'
_chemical_formula_moiety
;
(C44 H28 Cu1 N4 Na2 O12 P4 2-)n,2(C2 H8 N1 1+)
;
_journal_coden_Cambridge 1220
_journal_year 2019
_journal_name_full 'Chem.-Eur.J. '
loop_
_publ_author_name
"M.Maares"
"M.Menaf Ayhan"
"K.B.Yu"
"A.Ozgur Yazaydin"
"K.Harmandar"
"H.Haase"
"J.Beckmann"
"Y.Zorlu"
"G.Yucesan"
_chemical_name_systematic
;
catena-[bis(dimethylammonium) 
(\m-[porphine-21,23-diide-5,10,15,20-tetrayltetra(4,1-phenylene)]tetrakis[hydr
ogen (phosphonato)])-copper-di-sodium]
;
_cell_volume   2776.358
_exptl_crystal_colour 'red'
_exptl_crystal_density_diffrn 1.352
_exptl_crystal_description 'block'
_diffrn_ambient_temperature 296
#These two values have been output from a single CSD field.
_refine_ls_R_factor_gt 0.0823
_refine_ls_wR_factor_gt 0.0823
_symmetry_cell_setting triclinic
_symmetry_space_group_name_H-M 'P -1'
_symmetry_Int_Tables_number 2
loop_
_symmetry_equiv_pos_site_id
_symmetry_equiv_pos_as_xyz
1 x,y,z
2 -x,-y,-z
_cell_length_a 9.847(4)
_cell_length_b 17.208(7)
_cell_length_c 17.271(7)
_cell_angle_alpha 86.02(3)
_cell_angle_beta 75.13(3)
_cell_angle_gamma 79.05(3)
_cell_formula_units_Z 2
loop_
_atom_type_symbol
_atom_type_radius_bond
C 0.68
H 0.23
Cu 1.32
N 0.68
Na 1.66
O 0.68
P 1.05
loop_
_atom_site_label
_atom_site_type_symbol
_atom_site_fract_x
_atom_site_fract_y
_atom_site_fract_z
C1 C 0.0600(9) 0.6740(5) 0.5138(6)
C2 C -0.0125(10) 0.7522(5) 0.5371(6)
H1 H -0.05000 0.79140 0.50470
C3 C -0.0165(10) 0.7584(5) 0.6164(6)
H2 H -0.05780 0.80210 0.64850
C4 C 0.0573(10) 0.6826(5) 0.6400(5)
C5 C 0.0763(9) 0.6676(5) 0.7159(5)
C6 C -0.0021(9) 0.7238(5) 0.7812(5)
C7 C -0.1507(9) 0.7398(5) 0.8043(5)
H3 H -0.20370 0.71250 0.78190
C8 C -0.2191(9) 0.7973(5) 0.8614(5)
H4 H -0.31830 0.80940 0.87520
C9 C -0.1438(9) 0.8365(4) 0.8978(5)
C10 C 0.0041(9) 0.8184(5) 0.8753(5)
H5 H 0.05750 0.84370 0.89940
C11 C 0.0719(9) 0.7637(5) 0.8181(5)
H6 H 0.17120 0.75300 0.80350
C12 C 0.1634(10) 0.5994(5) 0.7362(5)
C13 C 0.1864(9) 0.5794(5) 0.8129(5)
H7 H 0.13820 0.60640 0.85970
C14 C 0.2879(10) 0.5159(5) 0.8073(5)
H8 H 0.32700 0.49200 0.84850
C15 C 0.3273(9) 0.4899(5) 0.7238(5)
C16 C 0.4280(9) 0.4248(5) 0.6940(5)
C17 C 0.5042(9) 0.3774(5) 0.7514(5)
C18 C 0.5993(9) 0.4071(5) 0.7817(5)
H9 H 0.62160 0.45640 0.76380
C19 C 0.6618(9) 0.3657(5) 0.8377(6)
H10 H 0.72860 0.38660 0.85550
C20 C 0.6289(9) 0.2947(5) 0.8681(5)
C21 C 0.5329(9) 0.2646(5) 0.8392(5)
H11 H 0.50750 0.21650 0.85970
C22 C 0.4728(9) 0.3041(5) 0.7801(5)
H12 H 0.41110 0.28130 0.75970
C23 C 0.4531(9) 0.3983(5) 0.6171(5)
C24 C 0.5587(9) 0.3315(5) 0.5818(5)
H13 H 0.62490 0.30050 0.60620
C25 C 0.5450(9) 0.3217(5) 0.5083(5)
H14 H 0.59940 0.28290 0.47250
C26 C 0.4318(9) 0.3815(5) 0.4950(5)
C27 C 0.3704(9) 0.3863(5) 0.4301(5)
C28 C 0.4223(9) 0.3191(5) 0.3719(5)
C29 C 0.4015(10) 0.2431(5) 0.3969(5)
H15 H 0.35380 0.23440 0.44970
C30 C 0.4488(10) 0.1804(5) 0.3463(5)
H16 H 0.43510 0.12980 0.36510
C31 C 0.5173(9) 0.1930(5) 0.2666(5)
C32 C 0.5363(8) 0.2677(5) 0.2401(5)
H17 H 0.58060 0.27670 0.18670
C33 C 0.4900(9) 0.3304(5) 0.2923(5)
H18 H 0.50470 0.38080 0.27350
C34 C 0.2648(9) 0.4481(5) 0.4164(5)
C35 C 0.1989(9) 0.4531(5) 0.3508(5)
H19 H 0.21080 0.41400 0.31380
C36 C 0.1174(10) 0.5246(5) 0.3529(5)
H20 H 0.06210 0.54500 0.31740
C37 C 0.1309(9) 0.5636(5) 0.4195(5)
C38 C 0.0668(9) 0.6415(5) 0.4400(5)
C39 C 0.0002(9) 0.6947(4) 0.3836(5)
C40 C 0.0803(9) 0.7357(5) 0.3225(5)
H21 H 0.17920 0.72680 0.31340
C41 C 0.013(1) 0.7904(5) 0.2744(5)
H22 H 0.06900 0.81700 0.23350
C42 C -0.1304(9) 0.8060(5) 0.2850(5)
C43 C -0.2103(9) 0.7638(5) 0.3452(5)
H23 H -0.30910 0.77250 0.35350
C44 C -0.1466(10) 0.7096(5) 0.3923(5)
H24 H -0.20330 0.68160 0.43160
Cu1 Cu 0.23871(11) 0.53119(6) 0.56919(6)
N1 N 0.1078(7) 0.6341(4) 0.5759(4)
N2 N 0.2478(7) 0.5432(4) 0.6817(4)
N3 N 0.3797(7) 0.4315(4) 0.5602(4)
N4 N 0.2165(7) 0.5151(3) 0.4605(4)
Na1 Na 0.0425(3) 0.92805(18) 1.06457(19)
Na2 Na 0.5640(3) 0.08390(19) 0.00223(19)
O1 O -0.3409(5) 0.9696(3) 0.9287(3)
O2 O -0.1227(5) 0.9528(3) 0.9882(3)
O3 O -0.3307(6) 0.8767(3) 1.0395(3)
O4 O 0.5782(8) 0.2538(4) 1.0212(4)
O5 O 0.8255(9) 0.2779(5) 0.9540(5)
O6 O 0.7455(6) 0.1545(4) 0.9267(3)
O7 O 0.5132(6) 0.0415(3) 0.2368(3)
O8 O 0.7476(6) 0.0875(3) 0.2100(4)
H25 H 0.79130 0.05080 0.18060
O9 O 0.5850(7) 0.1335(3) 0.1181(3)
O10 O -0.3593(6) 0.9089(4) 0.2746(4)
H26 H -0.39820 0.94610 0.25110
O11 O -0.2248(8) 0.8262(4) 0.1548(4)
O12 O -0.1215(6) 0.9381(3) 0.1916(3)
P1 P -0.2334(2) 0.91624(13) 0.96611(13)
P2 P 0.7077(3) 0.24033(16) 0.94486(16)
P3 P 0.5905(2) 0.10856(13) 0.20170(14)
P4 P -0.2095(3) 0.87473(14) 0.22048(15)
H27 H 0.579(9) 0.217(4) 1.055(4)
H28 H -0.304(9) 0.869(5) 1.082(3)
C45 C 0.3079(13) 0.9115(7) 0.2469(9)
H29 H 0.28790 0.90210 0.30380
H30 H 0.40750 0.89330 0.22350
H31 H 0.25200 0.88340 0.22450
C46 C 0.1064(11) 1.0267(7) 0.2641(7)
H32 H 0.05490 1.00200 0.23550
H33 H 0.08280 1.08320 0.25810
H34 H 0.08080 1.01190 0.31980
N5 N 0.2703(9) 0.9991(5) 0.2295(5)
H35 H 0.29350 1.00860 0.17690
H36 H 0.31880 1.02570 0.25210
C47 C 0.1321(13) 0.3468(7) 0.9635(7)
H37 H 0.23090 0.34990 0.94150
H38 H 0.12340 0.31120 1.00910
H39 H 0.07930 0.39840 0.97970
C48 C 0.0620(12) 0.3753(6) 0.8327(7)
H40 H 0.01700 0.42650 0.85410
H41 H 0.00610 0.35880 0.80090
H42 H 0.15580 0.37820 0.79990
N6 N 0.0733(9) 0.3164(5) 0.9006(6)
H43 H 0.12980 0.27180 0.88100
H44 H -0.01280 0.30530 0.92370
Na1* Na 0.0425(3) 0.92805(18) 0.06457(19)
Na1A Na -0.0425(3) 1.07195(18) 0.93543(19)
Na1A* Na 0.9575(3) 0.07195(18) 0.93543(19)
Na2* Na -0.4360(3) 1.08390(19) 1.00223(19)
Na2** Na 0.5640(3) 0.08390(19) 1.00223(19)
Na2A Na -0.5640(3) 0.91610(19) 0.99777(19)
O1* O 0.6591(5) -0.0304(3) -0.0713(3)
O1A O 0.3409(5) 0.0304(3) 0.0713(3)
O2A O 0.1227(5) 1.0472(3) 1.0118(3)
O3A O 0.3307(6) 0.1233(3) -0.0395(3)
O4* O 0.5782(8) 0.2538(4) 0.0212(4)
O6* O 0.7455(6) 0.1545(4) -0.0733(3)
O6A O 0.2545(6) 0.8455(4) 1.0733(3)
O12* O -0.1215(6) 0.9381(3) 1.1916(3)
#END
