
#######################################################################
#
#                 Cambridge Crystallographic Data Centre
#                                CCDC
#
#######################################################################
#
# If this CIF has been generated from an entry in the Cambridge
# Structural Database, then it will include bibliographic, chemical,
# crystal, experimental, refinement or atomic coordinate data resulting
# from the CCDC's data processing and validation procedures.
#
#######################################################################

data_CSD_CIF_COQYUF
_audit_creation_date 2019-08-07
_audit_creation_method CSD-ConQuest-V1
_database_code_CSD COQYUF
_database_code_depnum_ccdc_archive 'CCDC 1945930'
_chemical_formula_sum 'C45.25 H65.75 N12.75 O19 Zn3'
_chemical_formula_moiety
;
(C26 H17 N6 O13 Zn3 1-)n,C2 H8 N1 1+,5.75(C3 H7 N1 O1),0.25(H2 O1)
;
_journal_coden_Cambridge 1071
_journal_volume 22
_journal_year 2015
_journal_page_first 867
_journal_name_full 'J.Porous Mater. '
loop_
_publ_author_name
"Jihyun An"
"S.J.Geib"
"Myung-Gil Kim"
"Sik Young Choi"
"Woo Taik Lim"
_chemical_name_systematic
;
catena-[dimethylammonium 
(\m-6-amino-7H-purin-7-yl)-bis(\m-benzene-1,3,5-tricarboxylato)-(N,N-dimethylf
ormamide)-tri-zinc(ii) N,N-dimethylformamide solvate hydrate]
;
_cell_volume   5865.126
_exptl_special_details
;
We calculate void space in the structure.  The formula in the publication is 
[Zn3 (ad) (BTC)2 (Me2NH2), 5.75 DMF, 0.25 H2O]
;
_diffrn_ambient_temperature 173
#These two values have been output from a single CSD field.
_refine_ls_R_factor_gt 0.0663
_refine_ls_wR_factor_gt 0.0663
_symmetry_cell_setting monoclinic
_symmetry_space_group_name_H-M 'P 21/n'
_symmetry_Int_Tables_number 14
loop_
_symmetry_equiv_pos_site_id
_symmetry_equiv_pos_as_xyz
1 x,y,z
2 1/2-x,1/2+y,1/2-z
3 -x,-y,-z
4 -1/2+x,-1/2-y,-1/2+z
_cell_length_a 14.468(5)
_cell_length_b 25.046(9)
_cell_length_c 16.684(6)
_cell_angle_alpha 90
_cell_angle_beta 104.039(7)
_cell_angle_gamma 90
_cell_formula_units_Z 4
loop_
_atom_type_symbol
_atom_type_radius_bond
C 0.68
N 0.68
O 0.68
Zn 1.22
loop_
_atom_site_label
_atom_site_type_symbol
_atom_site_fract_x
_atom_site_fract_y
_atom_site_fract_z
Zn1 Zn 0.1788(1) 0.9947(1) 0.8779(1)
Zn2 Zn 0.1303(1) 0.9339(1) 0.6832(1)
Zn3 Zn 0.4859(1) 0.8234(1) 0.7057(1)
O1 O 0.013(3) 0.9147(2) 0.7146(2)
O2 O 0.082(3) 0.9366(2) 0.8436(2)
O3 O -0.1401(3) 0.9896(2) 1.0193(2)
O4 O -0.2669(3) 0.9373(2) 1.0087(2)
O5 O -0.4095(3) 0.8717(2) 0.7289(3)
O6 O -0.3136(4) 0.8295(4) 0.6618(4)
O7 O 0.1325(3) 1.0133(2) 0.6896(2)
O8 O 0.1268(3) 1.0542(2) 0.8059(2)
O9 O 0.0291(3) 1.2456(1) 0.7802(2)
O10 O -0.0612(3) 1.2744(2) 0.6643(3)
O11 O -0.0921(3) 1.0711(2) 0.4363(2)
O12 O -0.1176(3) 1.1575(2) 0.4149(3)
O13 O 0.4161(3) 0.8322(2) 0.5885(2)
N1 N 0.2561(3) 0.9086(2) 0.7463(2)
N2 N 0.3017(3) 0.9579(2) 0.8768(2)
N3 N 0.4578(3) 0.9377(2) 0.9553(3)
N4 N 0.3917(3) 0.8618(2) 0.7584(2)
N5 N 0.5506(3) 0.873(2) 0.9203(3)
N6 N 0.4027(6) 0.8635(4) 0.4595(5)
C1 C 0.3056(3) 0.8724(2) 0.7128(3)
C2 C 0.3156(4) 0.9215(2) 0.82(3)
C3 C 0.3776(4) 0.9637(2) 0.9405(3)
C4 C 0.4707(4) 0.9002(2) 0.9021(3)
C5 C 0.3997(3) 0.8929(2) 0.8287(3)
C6 C -0.082(4) 0.9168(2) 0.8097(3)
C7 C -0.0945(4) 0.937(2) 0.885(3)
C8 C -0.1822(4) 0.9333(2) 0.9033(3)
C9 C -0.2565(4) 0.9095(3) 0.8476(4)
C10 C -0.244(5) 0.8883(3) 0.7735(4)
C11 C -0.1571(4) 0.8932(3) 0.7546(4)
C12 C 0.0104(4) 0.9229(2) 0.7885(3)
C13 C -0.1981(5) 0.9545(3) 0.9823(3)
C14 C -0.3276(6) 0.8602(4) 0.7152(5)
C15 C 0.0561(4) 1.0955(2) 0.6799(3)
C16 C 0.0451(4) 1.1443(2) 0.7154(3)
C17 C -0.0051(4) 1.185(2) 0.6686(3)
C18 C -0.0479(4) 1.1766(2) 0.5856(3)
C19 C -0.0414(4) 1.1277(2) 0.5485(3)
C20 C 0.0108(4) 1.0875(2) 0.5961(3)
C21 C 0.1087(4) 1.0508(2) 0.7285(3)
C22 C -0.014(4) 1.239(2) 0.7062(4)
C23 C -0.0878(4) 1.1196(3) 0.46(3)
C24 C 0.446(10) 0.8838(7) 0.3925(7)
C25 C 0.2957(7) 0.8657(6) 0.4492(7)
C26 C 0.4491(7) 0.8476(4) 0.5364(6)
N7 N -0.2463(12) 0.9554(7) 0.5484(11)
C27 C -0.3246(14) 0.9663(11) 0.5806(13)
C28 C -0.1795(17) 0.9619(16) 0.5383(17)
N8 N 0.1501(11) 0.8943(9) 1.1532(13)
C29 C 0.1813(17) 0.836(7) 1.188(14)
C30 C 0.084(14) 0.9107(6) 1.1145(12)
Zn1B Zn -0.1788(1) 1.0053(1) 1.1221(1)
Zn2B Zn -0.1303(1) 1.0661(1) 0.3168(1)
Zn3* Zn -0.5141(1) 0.8234(1) 0.7057(1)
Zn3A Zn 0.0141(1) 1.3234(1) 0.7943(1)
O3B O 0.1401(3) 1.0104(2) 0.9807(2)
O5* O 0.5905(3) 0.8717(2) 0.7289(3)
O9A O 0.4709(3) 0.7456(1) 0.7198(2)
O10A O 0.5612(3) 0.7744(2) 0.8357(3)
O11B O 0.0921(3) 0.9289(2) 0.5637(2)
#END
