
#######################################################################
#
#                 Cambridge Crystallographic Data Centre
#                                CCDC
#
#######################################################################
#
# If this CIF has been generated from an entry in the Cambridge
# Structural Database, then it will include bibliographic, chemical,
# crystal, experimental, refinement or atomic coordinate data resulting
# from the CCDC's data processing and validation procedures.
#
#######################################################################

data_CSD_CIF_COSFOG
_audit_creation_date 2009-07-17
_audit_creation_method CSD-ConQuest-V1
_database_code_CSD COSFOG
_database_code_depnum_ccdc_archive 'CCDC 693160'
_chemical_formula_sum 'C50 H43 Ag3 N10 O62 P2 W18'
_chemical_formula_moiety
;
(C10 H10 N2 2+)n,n(C40 H33 Ag3 N8 O62 P2 W18 2-)
;
_journal_coden_Cambridge 119
_journal_volume 921
_journal_year 2009
_journal_page_first 289
_journal_name_full 'J.Mol.Struct. '
loop_
_publ_author_name
"Haijun Pang"
"Jun Peng"
"Jingquan Sha"
"Aixiang Tian"
"Pengpeng Zhang"
"Yuan Chen"
"Min Zhu"
_chemical_name_systematic
;
catena-[(4,4'-Bipyridinium) 
bis(\m~9~-phosphato)-bis(\m~3~-oxo)-bis(\m~2~-4,4'-bipyridine-N,N')-octatriaco
ntakis(\m~2~-oxo)-(4,4-bipyridin-1'-ium-N)-(4,4'-bipyridine-N)-tetradeca-oxo-t
ri-silver(i)-octadeca-tungsten(vi)]
;
_cell_volume   8984.623
_exptl_crystal_colour 'yellow'
_exptl_crystal_density_diffrn 4.042
_exptl_special_details
;
The protons on the 4,4-bipyridinium cations required for charge balance do 
not appear to have been located from the diffraction data
;
_exptl_crystal_description 'block'
_diffrn_ambient_temperature 296
#These two values have been output from a single CSD field.
_refine_ls_R_factor_gt 0.0507
_refine_ls_wR_factor_gt 0.0507
_symmetry_cell_setting monoclinic
_symmetry_space_group_name_H-M 'C 2/c'
_symmetry_Int_Tables_number 15
loop_
_symmetry_equiv_pos_site_id
_symmetry_equiv_pos_as_xyz
1 x,y,z
2 -x,y,1/2-z
3 1/2+x,1/2+y,z
4 1/2-x,1/2+y,1/2-z
5 -x,-y,-z
6 x,-y,-1/2+z
7 -1/2-x,-1/2-y,-z
8 -1/2+x,-1/2-y,-1/2+z
_cell_length_a 23.418(2)
_cell_length_b 21.834(2)
_cell_length_c 17.6496(17)
_cell_angle_alpha 90
_cell_angle_beta 95.381(2)
_cell_angle_gamma 90
_cell_formula_units_Z 4
loop_
_atom_type_symbol
_atom_type_radius_bond
C 0.68
H 0.23
Ag 1.68
N 0.68
O 0.72
P 1.05
W 1.35
loop_
_atom_site_label
_atom_site_type_symbol
_atom_site_fract_x
_atom_site_fract_y
_atom_site_fract_z
P1 P 0.00181(12) 0.22547(14) 0.36294(17)
W1 W 0.00300(2) 0.13474(3) 0.52847(3)
W2 W 0.07697(2) 0.26847(3) 0.53573(3)
W3 W -0.06675(2) 0.27017(3) 0.52428(3)
W4 W 0.07067(2) 0.36630(2) 0.14984(3)
W5 W 0.15117(2) 0.22038(2) 0.36916(3)
W6 W 0.07294(2) 0.36646(2) 0.36374(3)
W7 W -0.14707(2) 0.21987(2) 0.34415(3)
W8 W -0.07717(2) 0.08616(2) 0.34729(3)
W9 W 0.08020(2) 0.08693(2) 0.36581(3)
Ag1 Ag -0.31929(8) 0.23955(8) 0.29943(18)
Ag2 Ag -0.25000 0.25000 0.50000
O1 O 0.0635(4) 0.3782(4) 0.2565(5)
O2 O 0.1242(4) 0.2958(5) 0.6055(6)
O3 O -0.0519(3) 0.1924(4) 0.3317(5)
O4 O 0.0017(4) 0.0721(4) 0.3379(5)
O5 O 0.0617(4) 0.1899(5) 0.5755(5)
O6 O -0.0910(4) 0.0893(4) 0.2404(5)
O7 O -0.0518(4) 0.1907(5) 0.5658(6)
O8 O 0.0057(4) 0.2948(4) 0.5712(5)
O9 O 0.0708(4) 0.3350(4) 0.4644(5)
O10 O -0.2173(4) 0.2323(5) 0.3566(6)
O11 O 0.1271(4) 0.2332(4) 0.4698(6)
O12 O -0.1446(3) 0.1341(4) 0.3572(5)
O13 O -0.0656(4) 0.3360(4) 0.4536(5)
O14 O -0.1186(4) 0.2332(4) 0.4476(5)
O15 O 0.0020(4) 0.4075(4) 0.3709(6)
O16 O 0.1073(4) 0.0166(5) 0.3856(6)
O17 O 0.2231(4) 0.2339(4) 0.3940(6)
O18 O 0.1496(4) 0.1337(4) 0.3845(5)
O19 O -0.0525(4) 0.1072(4) 0.4518(5)
O20 O -0.1028(4) 0.0155(5) 0.3624(6)
O21 O 0.1178(4) 0.4250(5) 0.3862(6)
O22 O 0.1248(4) 0.3013(4) 0.3493(6)
O23 O 0.0562(3) 0.1929(4) 0.3428(5)
O24 O -0.1213(4) 0.3015(4) 0.3260(5)
O25 O 0.0031(4) 0.2249(4) 0.4529(5)
O26 O 0.0014(3) 0.2929(4) 0.3376(5)
O27 O 0.0034(4) 0.0803(5) 0.5965(6)
O28 O -0.1548(4) 0.2096(4) 0.2368(5)
O29 O 0.1160(4) 0.4245(5) 0.1380(6)
O30 O -0.1127(4) 0.2971(5) 0.5865(6)
O31 O 0.0589(3) 0.1080(4) 0.4644(5)
N1 N 0.00000 0.4962(12) 0.75000
N2 N -0.2689(5) 0.6603(6) 0.5468(8)
N3 N -0.2003(6) -0.1616(6) 0.2272(9)
N4 N 0.00000 0.1721(12) 0.75000
N5 N -0.3086(7) 0.1387(7) 0.2727(11)
N6 N -0.2583(7) 0.3466(6) 0.4779(9)
C1 C -0.3040(8) 0.0340(8) 0.312(1)
H1 H -0.31620 0.00350 0.34350
C2 C -0.2659(6) 0.0199(7) 0.2584(9)
C3 C 0.0372(17) 0.4649(14) 0.709(2)
H2 H 0.06160 0.48740 0.68070
C4 C -0.2122(8) 0.3810(8) 0.4739(12)
H3 H -0.17770 0.36190 0.46640
C5 C -0.2243(6) 0.5792(7) 0.489(1)
H4 H -0.19450 0.56470 0.46270
C6 C -0.2129(8) 0.4441(10) 0.4804(13)
H5 H -0.17980 0.46710 0.47760
C7 C -0.2656(6) 0.4725(7) 0.4913(9)
C8 C -0.2674(6) 0.5404(6) 0.5076(8)
C9 C -0.2263(7) 0.6399(7) 0.510(1)
H6 H -0.19740 0.66650 0.49830
C10 C -0.2518(7) -0.1521(8) 0.2542(10)
H7 H -0.27290 -0.18630 0.26640
C11 C -0.3096(8) 0.3737(7) 0.4861(9)
H8 H -0.34240 0.34970 0.48700
C12 C -0.2501(7) 0.0679(9) 0.2141(10)
H9 H -0.22410 0.06060 0.17840
C13 C -0.2715(7) 0.1264(8) 0.2207(12)
H10 H -0.26040 0.15740 0.18910
C14 C -0.3116(6) 0.6243(7) 0.5644(10)
H11 H -0.34170 0.64030 0.58910
C15 C -0.3237(9) 0.0934(10) 0.3182(11)
H12 H -0.34830 0.10230 0.35520
C16 C -0.2425(6) -0.0445(7) 0.2488(9)
C17 C 0.0478(12) 0.2082(13) 0.7392(14)
H13 H 0.08160 0.18770 0.73160
C18 C -0.2746(7) -0.0961(8) 0.2646(11)
H14 H -0.31080 -0.09200 0.28180
C19 C -0.1700(7) -0.1131(9) 0.2108(13)
H15 H -0.13480 -0.11850 0.19110
C20 C -0.3106(6) 0.5633(7) 0.5455(8)
H16 H -0.33970 0.53750 0.55880
C21 C 0.0496(9) 0.268(1) 0.7388(12)
H17 H 0.08350 0.28850 0.73120
C22 C 0.00000 0.3695(12) 0.75000
C23 C -0.3135(6) 0.4360(7) 0.4931(10)
H18 H -0.34890 0.45390 0.49900
C24 C 0.00000 0.3005(12) 0.75000
C25 C 0.0407(11) 0.3973(11) 0.7062(14)
H19 H 0.06640 0.37570 0.67920
C26 C -0.1903(7) -0.0529(8) 0.2227(11)
H20 H -0.16790 -0.01920 0.21280
P1A P -0.00181(12) 0.22547(14) 0.13706(17)
W1A W -0.00300(2) 0.13474(3) -0.02847(3)
W2A W -0.07697(2) 0.26847(3) -0.03573(3)
W3A W 0.06675(2) 0.27017(3) -0.02428(3)
W4A W -0.07067(2) 0.36630(2) 0.35016(3)
W5A W -0.15117(2) 0.22038(2) 0.13084(3)
W6A W -0.07294(2) 0.36646(2) 0.13626(3)
W7A W 0.14707(2) 0.21987(2) 0.15585(3)
W8A W 0.07717(2) 0.08616(2) 0.15271(3)
W9A W -0.08020(2) 0.08693(2) 0.13419(3)
Ag1A Ag 0.31929(8) 0.23955(8) 0.20057(18)
Ag1F Ag -0.18071(8) 0.26045(8) 0.70057(18)
Ag1C Ag -0.18071(8) -0.26045(8) 0.20057(18)
Ag1G Ag 0.18071(8) 0.26045(8) -0.20057(18)
Ag1C* Ag -0.18071(8) 0.73955(8) 0.20057(18)
Ag2A Ag 0.25000 0.25000 0.00000
O1A O -0.0635(4) 0.3782(4) 0.2435(5)
O2A O -0.1242(4) 0.2958(5) -0.1055(6)
O3A O 0.0519(3) 0.1924(4) 0.1683(5)
O4A O -0.0017(4) 0.0721(4) 0.1621(5)
O5A O -0.0617(4) 0.1899(5) -0.0755(5)
O6A O 0.0910(4) 0.0893(4) 0.2596(5)
O7A O 0.0518(4) 0.1907(5) -0.0658(6)
O8A O -0.0057(4) 0.2948(4) -0.0712(5)
O9A O -0.0708(4) 0.3350(4) 0.0356(5)
O10A O 0.2173(4) 0.2323(5) 0.1434(6)
O10F O -0.2827(4) 0.2677(5) 0.6434(6)
O11A O -0.1271(4) 0.2332(4) 0.0302(6)
O12A O 0.1446(3) 0.1341(4) 0.1428(5)
O13A O 0.0656(4) 0.3360(4) 0.0464(5)
O14A O 0.1186(4) 0.2332(4) 0.0524(5)
O15A O -0.0020(4) 0.4075(4) 0.1291(6)
O16A O -0.1073(4) 0.0166(5) 0.1144(6)
O17A O -0.2231(4) 0.2339(4) 0.1060(6)
O18A O -0.1496(4) 0.1337(4) 0.1155(5)
O19A O 0.0525(4) 0.1072(4) 0.0482(5)
O20A O 0.1028(4) 0.0155(5) 0.1376(6)
O21A O -0.1178(4) 0.4250(5) 0.1138(6)
O22A O -0.1248(4) 0.3013(4) 0.1507(6)
O23A O -0.0562(3) 0.1929(4) 0.1572(5)
O24A O 0.1213(4) 0.3015(4) 0.1740(5)
O25A O -0.0031(4) 0.2249(4) 0.0471(5)
O26A O -0.0014(3) 0.2929(4) 0.1624(5)
O27A O -0.0034(4) 0.0803(5) -0.0965(6)
O28A O 0.1548(4) 0.2096(4) 0.2632(5)
O29A O -0.1160(4) 0.4245(5) 0.3620(6)
O30A O 0.1127(4) 0.2971(5) -0.0865(6)
O30F O -0.3873(4) 0.2029(5) 0.4135(6)
O30G O 0.3873(4) 0.2029(5) 0.0865(6)
O31A O -0.0589(3) 0.1080(4) 0.0356(5)
N2F N -0.2311(5) -0.1603(6) 0.4532(8)
N3C N -0.2997(6) 0.3384(6) 0.2728(9)
N3B N 0.2997(6) 0.3384(6) 0.2272(9)
N5C N -0.1914(7) 0.6387(7) 0.2273(11)
N5A N 0.3086(7) 0.1387(7) 0.2273(11)
N6F N -0.2417(7) 0.1534(6) 0.5221(9)
C1C C -0.1960(8) 0.5340(8) 0.188(1)
H1C H -0.18380 0.50350 0.15650
C2C C -0.2341(6) 0.5199(7) 0.2416(9)
C3A C -0.0372(17) 0.4649(14) 0.791(2)
H2A H -0.06160 0.48740 0.81930
C4F C -0.2878(8) 0.1190(8) 0.5261(12)
H3F H -0.32230 0.13810 0.53360
C5F C -0.2757(6) -0.0792(7) 0.511(1)
H4F H -0.30550 -0.06470 0.53730
C6F C -0.2871(8) 0.0559(10) 0.5196(13)
H5F H -0.32020 0.03290 0.52240
C7F C -0.2344(6) 0.0275(7) 0.5087(9)
C8F C -0.2326(6) -0.0404(6) 0.4924(8)
C9F C -0.2737(7) -0.1399(7) 0.490(1)
H6F H -0.30260 -0.16650 0.50170
C10C C -0.2482(7) 0.3479(8) 0.2458(10)
H7C H -0.22710 0.31370 0.23360
C11F C -0.1904(8) 0.1263(7) 0.5139(9)
H8F H -0.15760 0.15030 0.51300
C12C C -0.2499(7) 0.5679(9) 0.2859(10)
H9C H -0.27590 0.56060 0.32160
C13C C -0.2285(7) 0.6264(8) 0.2793(12)
H10C H -0.23960 0.65740 0.31090
C14F C -0.1884(6) -0.1243(7) 0.4356(10)
H11F H -0.15830 -0.14030 0.41090
C15C C -0.1763(9) 0.5934(10) 0.1818(11)
H12C H -0.15170 0.60230 0.14480
C16C C -0.2575(6) 0.4555(7) 0.2512(9)
C17A C -0.0478(12) 0.2082(13) 0.7608(14)
H13A H -0.08160 0.18770 0.76840
C18C C -0.2254(7) 0.4039(8) 0.2354(11)
H14C H -0.18920 0.40800 0.21820
C19C C -0.3300(7) 0.3869(9) 0.2892(13)
H15C H -0.36520 0.38150 0.30890
C20F C -0.1894(6) -0.0633(7) 0.4545(8)
H16F H -0.16030 -0.03750 0.44120
C21A C -0.0496(9) 0.268(1) 0.7612(12)
H17A H -0.08350 0.28850 0.76880
C23F C -0.1865(6) 0.0640(7) 0.5069(10)
H18F H -0.15110 0.04610 0.50100
C25A C -0.0407(11) 0.3973(11) 0.7938(14)
H19A H -0.06640 0.37570 0.82080
C26C C -0.3097(7) 0.4471(8) 0.2773(11)
H20C H -0.33210 0.48080 0.28720
#END
