
#######################################################################
#
#                 Cambridge Crystallographic Data Centre
#                                CCDC
#
#######################################################################
#
# If this CIF has been generated from an entry in the Cambridge
# Structural Database, then it will include bibliographic, chemical,
# crystal, experimental, refinement or atomic coordinate data resulting
# from the CCDC's data processing and validation procedures.
#
#######################################################################

data_CSD_CIF_COTFOH
_audit_creation_date 2009-07-17
_audit_creation_method CSD-ConQuest-V1
_database_code_CSD COTFOH
_database_code_depnum_ccdc_archive 'CCDC 721011'
_chemical_formula_sum 'C20 H22 Mn1 N3 O7'
_chemical_formula_moiety
;
(H4 N1 1+)n,n(C20 H16 Mn1 N2 O6 1-),n(H2 O1)
;
_journal_coden_Cambridge 1078
_journal_year 2009
_journal_name_full 'CSD Communication(Private Communication) '
loop_
_publ_author_name
"H.Kooijman"
"A.L.Spek"
"S.T.Warzeska"
"E.Bouwman"
"J.Reedijk"
_chemical_name_systematic
;
catena-[Ammonium 
(\m~2~-3,4-bis((salicylidene)amino)hexanedioato-N,N',O,O',O'',O''')-manganese(
iii) monohydrate]
;
_chemical_name_common
;
catena-[Ammonium 
(mu!2$-3,4-bis(((E)-(2-oxyphenyl)methylidene)amino)hexanedioato-N,N',O,O',O'',
O''')-manganese(iii) monohydrate]
;
_cell_volume   1983.655
_exptl_crystal_colour 'brown'
_exptl_crystal_density_diffrn 1.578
_exptl_special_details
;
contribution from Laboratory of Crystal and Structural Chemistry, Bijvoet 
Center for Biomolecular Research, Utrecht University. Kruijtgebouw, room 
N801, Padualaan 8, 3584 CH, Utrecht, The Netherlands
;
_exptl_crystal_description 'block'
_diffrn_ambient_temperature 150
#These two values have been output from a single CSD field.
_refine_ls_R_factor_gt 0.0392
_refine_ls_wR_factor_gt 0.0392
_symmetry_cell_setting monoclinic
_symmetry_space_group_name_H-M 'P 21/c'
_symmetry_Int_Tables_number 14
loop_
_symmetry_equiv_pos_site_id
_symmetry_equiv_pos_as_xyz
1 x,y,z
2 -x,1/2+y,1/2-z
3 -x,-y,-z
4 x,-1/2-y,-1/2+z
_cell_length_a 17.836(3)
_cell_length_b 11.7949(12)
_cell_length_c 9.4298(10)
_cell_angle_alpha 90
_cell_angle_beta 90.652(10)
_cell_angle_gamma 90
_cell_formula_units_Z 4
loop_
_atom_type_symbol
_atom_type_radius_bond
C 0.68
H 0.23
Mn 1.58
N 0.68
O 0.68
loop_
_atom_site_label
_atom_site_type_symbol
_atom_site_fract_x
_atom_site_fract_y
_atom_site_fract_z
Mn1 Mn 0.23522(2) 0.49732(3) 0.43325(4)
O1 O 0.29511(9) 0.61875(13) 0.49498(17)
O2 O 0.27235(9) 0.13076(13) 0.08623(17)
O3 O 0.30624(11) 0.03046(14) 0.2773(2)
O4 O 0.15345(9) 0.53489(14) 0.55262(17)
O5 O 0.20363(9) 0.59403(14) 0.24107(18)
O6 O 0.15541(10) 0.62783(15) 0.02787(18)
N1 N 0.31464(11) 0.43803(16) 0.3067(2)
N2 N 0.17388(10) 0.37911(16) 0.3375(2)
C1 C 0.36767(13) 0.6347(2) 0.4757(2)
C2 C 0.40320(14) 0.7214(2) 0.5520(3)
C3 C 0.47858(14) 0.7428(2) 0.5371(3)
C4 C 0.52189(14) 0.6791(2) 0.4451(3)
C5 C 0.48838(14) 0.5935(2) 0.3681(3)
C6 C 0.41182(13) 0.56939(19) 0.3817(2)
C7 C 0.38182(13) 0.47695(19) 0.2985(2)
C8 C 0.29030(13) 0.34019(19) 0.2174(2)
C9 C 0.31201(14) 0.23035(19) 0.2942(3)
C10 C 0.29519(13) 0.12124(19) 0.2128(3)
C11 C 0.09875(12) 0.4656(2) 0.5908(3)
C12 C 0.05998(13) 0.4891(2) 0.7173(3)
C13 C -0.00028(14) 0.4241(2) 0.7573(3)
C14 C -0.02574(14) 0.3347(2) 0.6739(3)
C15 C 0.01174(13) 0.3081(2) 0.5517(3)
C16 C 0.07522(13) 0.3710(2) 0.5099(3)
C17 C 0.11161(13) 0.3381(2) 0.3807(3)
C18 C 0.20478(13) 0.3488(2) 0.1971(2)
C19 C 0.17911(14) 0.4353(2) 0.0849(3)
C20 C 0.18048(13) 0.5623(2) 0.1199(3)
N3 N 0.22204(14) 0.82718(19) 0.2674(2)
O7 O 0.41763(14) 0.0204(2) 0.4740(3)
H1 H 0.37480 0.76640 0.61540
H2 H 0.50130 0.80210 0.59050
H3 H 0.57390 0.69430 0.43550
H4 H 0.51770 0.54990 0.30460
H5 H 0.41430 0.44200 0.23230
H6 H 0.31540 0.34360 0.12320
H7 H 0.36640 0.23280 0.31620
H8 H 0.28520 0.22770 0.38550
H9 H 0.07570 0.55060 0.77550
H10 H -0.02490 0.44070 0.84360
H11 H -0.06860 0.29230 0.70100
H12 H -0.00530 0.24670 0.49450
H13 H 0.08780 0.28210 0.32350
H14 H 0.18510 0.27240 0.16940
H15 H 0.21050 0.42390 0.00020
H16 H 0.12700 0.41560 0.05710
H17 H 0.1892(16) 0.851(2) 0.199(3)
H18 H 0.1990(15) 0.841(2) 0.346(3)
H19 H 0.2251(15) 0.749(3) 0.257(3)
H20 H 0.2649(17) 0.861(2) 0.267(3)
H21 H 0.376(2) 0.016(3) 0.407(4)
H22 H 0.433(2) -0.039(4) 0.459(5)
Mn1C Mn 0.23522(2) 0.00268(3) -0.06675(4)
O2C O 0.27235(9) 0.36924(13) 0.58623(17)
#END
