
#######################################################################
#
#                 Cambridge Crystallographic Data Centre
#                                CCDC
#
#######################################################################
#
# If this CIF has been generated from an entry in the Cambridge
# Structural Database, then it will include bibliographic, chemical,
# crystal, experimental, refinement or atomic coordinate data resulting
# from the CCDC's data processing and validation procedures.
#
#######################################################################

data_CSD_CIF_COTYIV
_audit_creation_date 2015-02-25
_audit_creation_method CSD-ConQuest-V1
_database_code_CSD COTYIV
_database_code_depnum_ccdc_archive 'CCDC 1034129'
_chemical_formula_sum 'C35 H41 Cu5 N40'
_chemical_formula_moiety
;
(C27 H9 Cu5 N36 4-)n,4(C2 H8 N1 1+)
;
_journal_coden_Cambridge 182
_journal_volume 51
_journal_year 2015
_journal_page_first 5691
_journal_name_full 'Chem.Commun. '
loop_
_publ_author_name
"B.X.Dong"
"S.Y.Zhang"
"W.L.Liu"
"Y.C.Wu"
"J.Ge"
"L.Song"
"Y.L.Teng"
_chemical_name_systematic
;
catena-[tetrakis(diethylammonium) 
tris(\m-5,5',5''-benzene-1,3,5-triyltris(tetrazol-1-yl))-penta-copper unknown 
solvate]
;
_cell_volume  31702.402
_exptl_crystal_colour 'brown'
_exptl_crystal_density_diffrn 1.123
_exptl_crystal_description 'block'
_diffrn_ambient_temperature 296
_refine_special_details
;
The SQUEEZE/PLATON program has been used to model some disorder.

;
#These two values have been output from a single CSD field.
_refine_ls_R_factor_gt 0.0489
_refine_ls_wR_factor_gt 0.0489
_symmetry_cell_setting orthorhombic
_symmetry_space_group_name_H-M 'F d d d'
_symmetry_Int_Tables_number 70
loop_
_symmetry_equiv_pos_site_id
_symmetry_equiv_pos_as_xyz
1 x,y,z
2 3/4-x,3/4-y,z
3 3/4-x,y,3/4-z
4 x,3/4-y,3/4-z
5 x,1/2+y,1/2+z
6 3/4-x,1/4-y,1/2+z
7 3/4-x,1/2+y,1/4-z
8 x,1/4-y,1/4-z
9 1/2+x,y,1/2+z
10 1/4-x,3/4-y,1/2+z
11 1/4-x,y,1/4-z
12 1/2+x,3/4-y,1/4-z
13 1/2+x,1/2+y,z
14 1/4-x,1/4-y,z
15 1/4-x,1/2+y,3/4-z
16 1/2+x,1/4-y,3/4-z
17 -x,-y,-z
18 -3/4+x,-3/4+y,-z
19 -3/4+x,-y,-3/4+z
20 -x,-3/4+y,-3/4+z
21 -x,-1/2-y,-1/2-z
22 -3/4+x,-1/4+y,-1/2-z
23 -3/4+x,-1/2-y,-1/4+z
24 -x,-1/4+y,-1/4+z
25 -1/2-x,-y,-1/2-z
26 -1/4+x,-3/4+y,-1/2-z
27 -1/4+x,-y,-1/4+z
28 -1/2-x,-3/4+y,-1/4+z
29 -1/2-x,-1/2-y,-z
30 -1/4+x,-1/4+y,-z
31 -1/4+x,-1/2-y,-3/4+z
32 -1/2-x,-1/4+y,-3/4+z
_cell_length_a 16.180(2)
_cell_length_b 43.077(5)
_cell_length_c 45.485(6)
_cell_angle_alpha 90
_cell_angle_beta 90
_cell_angle_gamma 90
_cell_formula_units_Z 16
loop_
_atom_type_symbol
_atom_type_radius_bond
C 0.68
H 0.23
Cu 1.32
N 0.68
loop_
_atom_site_label
_atom_site_type_symbol
_atom_site_fract_x
_atom_site_fract_y
_atom_site_fract_z
Cu1 Cu 0.62500 0.42783(2) 0.12500
Cu2 Cu 0.50118(3) 0.42879(2) 0.06245(2)
Cu3 Cu 0.43155(4) 0.40796(2) -0.01052(2)
C1 C 0.5333(3) 0.49541(9) 0.16348(9)
C2 C 0.5823(3) 0.47863(9) 0.18251(9)
H1 H 0.59620 0.45830 0.17780
C3 C 0.6116(3) 0.49157(9) 0.20858(9)
C4 C 0.5909(3) 0.52226(9) 0.21518(10)
H2 H 0.61000 0.53130 0.23250
C5 C 0.5421(3) 0.53926(10) 0.19614(10)
C6 C 0.5118(3) 0.52553(10) 0.1705(1)
H3 H 0.47700 0.53670 0.15810
C7 C 0.37500 0.37500 0.10576(11)
C8 C 0.3026(3) 0.36899(9) 0.12112(8)
H4 H 0.25400 0.36500 0.11090
C9 C 0.3023(3) 0.36891(10) 0.15178(9)
C10 C 0.37500 0.37500 0.16647(13)
H5 H 0.37500 0.37500 0.18690
C11 C 0.37500 0.37500 0.07342(11)
N1 N 0.4347(2) 0.49453(7) 0.12222(7)
C12 C 0.4994(2) 0.48255(7) 0.13639(6)
N2 N 0.52790(16) 0.45872(5) 0.12062(5)
N3 N 0.48074(17) 0.45600(6) 0.09671(5)
N4 N 0.4231(2) 0.47812(7) 0.09769(6)
N5 N 0.71463(16) 0.45163(5) 0.22553(4)
N6 N 0.74250(17) 0.44224(5) 0.25162(5)
N7 N 0.70570(18) 0.45930(6) 0.27226(5)
N8 N 0.65510(19) 0.47923(6) 0.25892(5)
C13 C 0.66062(19) 0.47448(6) 0.23004(5)
N9 N 0.5251(3) 0.61853(8) 0.21847(8)
N10 N 0.4569(3) 0.61507(9) 0.20313(11)
N11 N 0.4529(3) 0.58603(9) 0.19246(11)
N12 N 0.3986(2) 0.38740(7) 0.02872(6)
N13 N 0.4150(2) 0.39574(7) 0.05676(6)
C14 C 0.22713(17) 0.36390(7) 0.16880(6)
N14 N 0.2183(2) 0.37230(8) 0.19679(6)
N15 N 0.14379(19) 0.36321(8) 0.20574(6)
N16 N 0.10657(15) 0.34919(6) 0.18326(5)
N17 N 0.15806(15) 0.34961(6) 0.16044(5)
C15 C 0.5208(4) 0.57175(10) 0.20259(11)
N18 N 0.5676(3) 0.59127(7) 0.21874(8)
N19 N 0.8261(13) 0.5497(4) -0.0568(5)
H6 H 0.79320 0.53090 -0.05810
H7 H 0.88370 0.54350 -0.05600
C16 C 0.8123(18) 0.5690(5) -0.0850(6)
H8 H 0.82400 0.55640 -0.10190
H9 H 0.84840 0.58670 -0.08490
H10 H 0.75590 0.57590 -0.08580
C17 C 0.8044(14) 0.5664(4) -0.0280(4)
H11 H 0.80910 0.55220 -0.01190
H12 H 0.74880 0.57410 -0.02910
H13 H 0.84170 0.58350 -0.02510
N20 N 1.197(2) 0.4377(4) -0.1662(3)
H14 H 1.19140 0.42760 -0.18510
H15 H 1.21080 0.45920 -0.17040
C18 C 1.1066(19) 0.4392(11) -0.1538(11)
H16 H 1.07100 0.44860 -0.16810
H17 H 1.10600 0.45130 -0.13610
H18 H 1.08760 0.41850 -0.14970
C19 C 1.2749(19) 0.4241(8) -0.1529(6)
H19 H 1.31590 0.42170 -0.16790
H20 H 1.26260 0.40420 -0.14440
H21 H 1.29550 0.43770 -0.13790
C8A C 0.4474(3) 0.38101(9) 0.12112(8)
H4A H 0.49600 0.38500 0.11090
C9A C 0.4477(3) 0.38109(10) 0.15178(9)
N12A N 0.3514(2) 0.36260(7) 0.02872(6)
N13A N 0.3350(2) 0.35426(7) 0.05676(6)
C14A C 0.52287(17) 0.38610(7) 0.16880(6)
N14A N 0.5317(2) 0.37770(8) 0.19679(6)
N15A N 0.60621(19) 0.38679(8) 0.20574(6)
N16A N 0.64343(15) 0.40081(6) 0.18326(5)
N17A N 0.59194(15) 0.40039(6) 0.16044(5)
Cu2A Cu 0.24882(3) 0.32121(2) 0.06245(2)
Cu3A Cu 0.31845(4) 0.34204(2) -0.01052(2)
C1A C 0.2167(3) 0.25459(9) 0.16348(9)
C2A C 0.1677(3) 0.27137(9) 0.18251(9)
H1A H 0.15380 0.29170 0.17780
C3A C 0.1384(3) 0.25843(9) 0.20858(9)
C4A C 0.1591(3) 0.22774(9) 0.21518(10)
H2A H 0.14000 0.21870 0.23250
C5A C 0.2079(3) 0.21074(10) 0.19614(10)
C6A C 0.2382(3) 0.22447(10) 0.1705(1)
H3A H 0.27300 0.21330 0.15810
N1A N 0.3153(2) 0.25547(7) 0.12222(7)
C12A C 0.2506(2) 0.26745(7) 0.13639(6)
N2A N 0.22210(16) 0.29128(5) 0.12062(5)
N3A N 0.26926(17) 0.29400(6) 0.09671(5)
N4A N 0.3269(2) 0.27188(7) 0.09769(6)
N5A N 0.03537(16) 0.29837(5) 0.22553(4)
N6A N 0.00750(17) 0.30776(5) 0.25162(5)
N7A N 0.04430(18) 0.29070(6) 0.27226(5)
N8A N 0.09490(19) 0.27077(6) 0.25892(5)
C13A C 0.08938(19) 0.27552(6) 0.23004(5)
N9A N 0.2249(3) 0.13147(8) 0.21847(8)
N10A N 0.2931(3) 0.13493(9) 0.20313(11)
N11A N 0.2971(3) 0.16397(9) 0.19246(11)
C15A C 0.2292(4) 0.17825(10) 0.20259(11)
N18A N 0.1824(3) 0.15873(7) 0.21874(8)
Cu1A Cu 0.12500 0.32217(2) 0.12500
Cu2J Cu 0.74882(3) 0.42879(2) 0.18755(2)
Cu2K Cu 0.00118(3) 0.32121(2) 0.18755(2)
Cu3J Cu 0.81845(4) 0.40796(2) 0.26052(2)
Cu3K Cu -0.06845(4) 0.34204(2) 0.26052(2)
Cu3R Cu 0.68155(4) 0.59204(2) 0.23948(2)
Cu3S Cu 0.56845(4) 0.65796(2) 0.23948(2)
Cu3DA Cu 0.18155(4) 0.09204(2) 0.23948(2)
Cu3EA Cu 0.06845(4) 0.15796(2) 0.23948(2)
N2J N 0.72210(16) 0.45872(5) 0.12938(5)
N5J N 0.53537(16) 0.45163(5) 0.02447(4)
N5K N 0.21463(16) 0.29837(5) 0.02447(4)
N6J N 0.50750(17) 0.44224(5) -0.00162(5)
N6K N 0.24250(17) 0.30776(5) -0.00162(5)
N9W N 0.4749(3) 0.36853(8) -0.03153(8)
N9Z N 0.2751(3) 0.38147(8) -0.03153(8)
N16J N 0.14343(15) 0.34919(6) 0.06674(5)
N16K N 0.60657(15) 0.40081(6) 0.06674(5)
N17K N 0.65806(15) 0.40039(6) 0.08956(5)
N18W N 0.4324(3) 0.34127(7) -0.03126(8)
N18Z N 0.3176(3) 0.40873(7) -0.03126(8)
#END
