
#######################################################################
#
#                 Cambridge Crystallographic Data Centre
#                                CCDC
#
#######################################################################
#
# If this CIF has been generated from an entry in the Cambridge
# Structural Database, then it will include bibliographic, chemical,
# crystal, experimental, refinement or atomic coordinate data resulting
# from the CCDC's data processing and validation procedures.
#
#######################################################################

data_CSD_CIF_COVFIE
_audit_creation_date 2015-02-25
_audit_creation_method CSD-ConQuest-V1
_database_code_CSD COVFIE
_database_code_depnum_ccdc_archive 'CCDC 981635'
_chemical_formula_sum 'C56 H72 Cu2 Mo8 N24 O26'
_chemical_formula_moiety
;
(C28 H36 Cu1 N12 2+)2n,n(Mo8 O26 4-)
;
_journal_coden_Cambridge 9
_journal_volume 53
_journal_year 2014
_journal_page_first 10112
_journal_name_full 'Inorg.Chem. '
loop_
_publ_author_name
"G.A.Senchyk"
"A.B.Lysenko"
"A.A.Babaryk"
"E.B.Rusanov"
"H.Krautscheid"
"P.Neves"
"A.A.Valente"
"I.S.Goncalves"
"K.W.Kramer"
"Shi-Xia Liu"
"S.Decurtins"
"K.V.Domasevitch"
_chemical_name_systematic
;
catena-[bis(bis(\m-4,4'-tricyclo[3.3.1.1^3,7^]decane-1,3-diylbis(4H-1,2,4-tria
zole))-copper(ii)) dodecakis(\m-oxo)-tetradecaoxo-octa-molybdenum(vi)]
;
_chemical_name_common
;
catena-[bis(bis(mu-1,3-bis(1,2,4-triazol-4-yl)adamantane)-copper(ii)) 
beta-octamolybdate(vi)]
;
_cell_volume   1829.058
_exptl_crystal_colour 'blue'
_exptl_crystal_density_diffrn 2.172
_exptl_crystal_description 'needle'
_diffrn_ambient_temperature 213
#These two values have been output from a single CSD field.
_refine_ls_R_factor_gt 0.0605
_refine_ls_wR_factor_gt 0.0605
_symmetry_cell_setting triclinic
_symmetry_space_group_name_H-M 'P -1'
_symmetry_Int_Tables_number 2
loop_
_symmetry_equiv_pos_site_id
_symmetry_equiv_pos_as_xyz
1 x,y,z
2 -x,-y,-z
_cell_length_a 12.1133(4)
_cell_length_b 12.7626(5)
_cell_length_c 12.9724(5)
_cell_angle_alpha 83.839(3)
_cell_angle_beta 67.379(3)
_cell_angle_gamma 81.747(3)
_cell_formula_units_Z 1
loop_
_atom_type_symbol
_atom_type_radius_bond
C 0.68
H 0.23
Cu 1.32
Mo 1.54
N 0.68
O 0.68
loop_
_atom_site_label
_atom_site_type_symbol
_atom_site_fract_x
_atom_site_fract_y
_atom_site_fract_z
Cu1 Cu 0.13170(8) 0.89667(8) 0.91504(9)
N1 N 0.1718(6) 0.7982(5) 0.7950(6)
N2 N 0.2133(6) 0.8263(5) 0.6799(6)
N3 N 0.1914(6) 0.6566(5) 0.7059(6)
N4 N -0.0052(6) 0.1914(5) 0.9900(6)
N5 N 0.0793(6) 0.2210(5) 1.0285(6)
N6 N 0.1065(6) 0.2963(5) 0.8615(6)
N7 N 0.2801(6) 0.9657(5) 0.8271(6)
N8 N 0.2899(6) 1.0697(5) 0.8372(6)
N9 N 0.4699(6) 0.9834(5) 0.7562(6)
N10 N 0.8817(5) 1.0371(5) 0.9469(5)
N11 N 0.9931(5) 1.0032(5) 0.8661(6)
N12 N 0.8488(5) 0.9900(5) 0.8085(6)
C1 C 0.1593(7) 0.6968(6) 0.8065(7)
H1 H 0.13190 0.65750 0.87540
C2 C 0.2240(7) 0.7407(7) 0.6295(8)
H2 H 0.25040 0.73690 0.55160
C3 C 0.0144(7) 0.2378(6) 0.8890(8)
H3 H -0.02900 0.23080 0.84410
C4 C 0.1439(7) 0.2825(6) 0.9489(8)
H4 H 0.20850 0.31370 0.95120
C5 C 0.2018(7) 0.5451(6) 0.6778(7)
C6 C 0.3332(7) 0.5082(6) 0.6172(7)
H5 H 0.37810 0.51390 0.66470
H6 H 0.36630 0.55280 0.54850
C7 C 0.3461(7) 0.3903(6) 0.5879(7)
H7 H 0.43200 0.36480 0.54880
C8 C 0.2929(7) 0.3222(7) 0.6957(7)
H8 H 0.33660 0.32610 0.74470
H9 H 0.30060 0.24800 0.67830
C9 C 0.1589(7) 0.3630(6) 0.7552(7)
C10 C 0.1480(7) 0.4771(6) 0.7857(7)
H10 H 0.19130 0.48080 0.83510
H11 H 0.06320 0.50310 0.82500
C11 C 0.1310(7) 0.5417(6) 0.6017(7)
H12 H 0.16340 0.58700 0.53350
H13 H 0.04590 0.56700 0.64070
C12 C 0.1445(7) 0.4246(6) 0.5722(7)
H14 H 0.10140 0.41990 0.52200
C13 C 0.0905(7) 0.3551(6) 0.6793(7)
H15 H 0.00500 0.37940 0.71750
H16 H 0.09770 0.28120 0.66100
C14 C 0.2779(7) 0.3853(7) 0.5130(7)
H17 H 0.28580 0.31200 0.49260
H18 H 0.31230 0.42920 0.44400
C15 C 0.3874(7) 0.9162(7) 0.7783(7)
H19 H 0.40410 0.84450 0.76130
C16 C 0.4061(7) 1.0781(7) 0.7930(7)
H20 H 0.44050 1.14100 0.78750
C17 C 0.7986(7) 1.0295(6) 0.9084(7)
H21 H 0.71580 1.04910 0.94580
C18 C 0.9703(7) 0.9760(6) 0.7848(7)
H22 H 1.02870 0.95010 0.71810
C19 C 0.6021(7) 0.9602(6) 0.7018(7)
C20 C 0.6484(7) 1.0303(7) 0.5934(7)
H23 H 0.62690 1.10540 0.60980
H24 H 0.61230 1.01560 0.54140
C21 C 0.7876(7) 1.0046(7) 0.5408(7)
H25 H 0.81940 1.04820 0.47010
C22 C 0.8406(7) 1.0325(7) 0.6217(7)
H26 H 0.81820 1.10780 0.63670
H27 H 0.92860 1.01970 0.58850
C23 C 0.7932(7) 0.9646(6) 0.7313(7)
C24 C 0.6557(6) 0.9876(7) 0.7843(7)
H28 H 0.63300 1.06260 0.80060
H29 H 0.62460 0.94480 0.85460
C25 C 0.6367(7) 0.8445(7) 0.6788(7)
H30 H 0.60110 0.82610 0.62790
H31 H 0.60550 0.80130 0.74880
C26 C 0.7745(7) 0.8206(7) 0.6261(7)
H32 H 0.79610 0.74450 0.61050
C27 C 0.8283(7) 0.8462(6) 0.7059(7)
H33 H 0.91610 0.83110 0.67280
H34 H 0.79870 0.80200 0.77540
C28 C 0.8206(7) 0.8881(7) 0.5162(7)
H35 H 0.90820 0.87280 0.48020
H36 H 0.78440 0.87110 0.46510
Mo1 Mo 0.46749(6) 0.54314(6) 0.87800(6)
Mo2 Mo 0.52981(6) 0.71656(6) 1.00315(6)
Mo3 Mo 0.30997(6) 0.66321(6) 1.23756(6)
Mo4 Mo 0.24740(6) 0.48742(6) 1.10638(6)
O1 O 0.5494(4) 0.4742(4) 0.7575(5)
O2 O 0.3779(5) 0.6383(4) 0.8369(5)
O3 O 0.5872(4) 0.4196(4) 0.9504(5)
O4 O 0.5929(4) 0.6263(4) 0.8711(5)
O5 O 0.3578(4) 0.4368(4) 0.9561(5)
O6 O 0.4332(5) 0.8054(4) 0.9618(5)
O7 O 0.6514(5) 0.7824(4) 0.9761(5)
O8 O 0.4590(4) 0.7242(4) 1.1614(4)
O9 O 0.2182(4) 0.7556(4) 1.1949(5)
O10 O 0.2783(5) 0.6879(4) 1.3734(5)
O11 O 0.2314(4) 0.5432(4) 1.2436(4)
O12 O 0.1605(5) 0.3867(4) 1.1569(5)
O13 O 0.1636(5) 0.5806(4) 1.0555(5)
Cu1* Cu 1.13170(8) 0.89667(8) 0.91504(9)
Cu1A Cu -0.13170(8) 0.10333(8) 1.08496(9)
Cu1A* Cu 0.86830(8) 1.10333(8) 1.08496(9)
N4A N 0.0052(6) 0.8086(5) 1.0100(6)
N10A N 0.1183(5) 0.9629(5) 1.0531(5)
N11* N -0.0069(5) 1.0032(5) 0.8661(6)
Mo1A Mo 0.53251(6) 0.45686(6) 1.12200(6)
Mo2A Mo 0.47019(6) 0.28344(6) 0.99685(6)
Mo3A Mo 0.69003(6) 0.33679(6) 0.76244(6)
Mo4A Mo 0.75260(6) 0.51258(6) 0.89362(6)
O1A O 0.4506(4) 0.5258(4) 1.2425(5)
O2A O 0.6221(5) 0.3617(4) 1.1631(5)
O3A O 0.4128(4) 0.5804(4) 1.0496(5)
O4A O 0.4071(4) 0.3737(4) 1.1289(5)
O5A O 0.6422(4) 0.5632(4) 1.0439(5)
O6A O 0.5668(5) 0.1946(4) 1.0382(5)
O7A O 0.3486(5) 0.2176(4) 1.0239(5)
O8A O 0.5410(4) 0.2758(4) 0.8386(4)
O9A O 0.7818(4) 0.2444(4) 0.8051(5)
O10A O 0.7217(5) 0.3121(4) 0.6266(5)
O11A O 0.7686(4) 0.4568(4) 0.7564(4)
O12A O 0.8395(5) 0.6133(4) 0.8431(5)
O13A O 0.8364(5) 0.4194(4) 0.9445(5)
#END
