
#######################################################################
#
#                 Cambridge Crystallographic Data Centre
#                                CCDC
#
#######################################################################
#
# If this CIF has been generated from an entry in the Cambridge
# Structural Database, then it will include bibliographic, chemical,
# crystal, experimental, refinement or atomic coordinate data resulting
# from the CCDC's data processing and validation procedures.
#
#######################################################################

data_CSD_CIF_COVREM
_audit_creation_date 2015-02-26
_audit_creation_method CSD-ConQuest-V1
_database_code_CSD COVREM
_database_code_depnum_ccdc_archive 'CCDC 977407'
_chemical_formula_sum 'C7 H38 Bi1 Mo7 N5 O37'
_chemical_formula_moiety
;
(C7 H8 Bi1 Mo7 N1 O30 4-)n,4n(H4 N1 1+),7n(H2 O1)
;
_journal_coden_Cambridge 603
_journal_volume 33
_journal_year 2014
_journal_page_first 1409
_journal_name_full 'Jiegou Huaxue(Chin.)(Chin.J.Struct.Chem.) '
loop_
_publ_author_name
"Xiao-Jing Hu"
"Long-Sheng Li"
"Su-Yi Liu"
"Zhi-Jie Liang"
"Jing-Yang Niu"
_chemical_name_systematic
;
catena-[tetrakis(ammonium) 
(\m-hydroxo)-tridecakis(\m-oxo)-diaqua-decaoxo-(pyridine-2,6-dicarboxylato)-bi
smuth-hepta-molybdenum heptahydrate]
;
_cell_volume   9003.044
_exptl_crystal_colour 'colorless'
_exptl_crystal_density_diffrn 2.457
_exptl_special_details
;
The anion H atom has not been located and has been placed arbitrarily in the 
2D diagram
;
_exptl_crystal_description 'rod'
_diffrn_ambient_temperature 296
#These two values have been output from a single CSD field.
_refine_ls_R_factor_gt 0.0365
_refine_ls_wR_factor_gt 0.0365
_symmetry_cell_setting monoclinic
_symmetry_space_group_name_H-M 'C 2/c'
_symmetry_Int_Tables_number 15
loop_
_symmetry_equiv_pos_site_id
_symmetry_equiv_pos_as_xyz
1 x,y,z
2 -x,y,1/2-z
3 1/2+x,1/2+y,z
4 1/2-x,1/2+y,1/2-z
5 -x,-y,-z
6 x,-y,-1/2+z
7 -1/2-x,-1/2-y,-z
8 -1/2+x,-1/2-y,-1/2+z
_cell_length_a 24.312(2)
_cell_length_b 21.4869(18)
_cell_length_c 18.5423(16)
_cell_angle_alpha 90
_cell_angle_beta 111.649(1)
_cell_angle_gamma 90
_cell_formula_units_Z 8
loop_
_atom_type_symbol
_atom_type_radius_bond
C 0.68
H 0.23
Bi 1.48
Mo 1.54
N 0.68
O 0.68
loop_
_atom_site_label
_atom_site_type_symbol
_atom_site_fract_x
_atom_site_fract_y
_atom_site_fract_z
Bi1 Bi 0.214716(13) -0.106451(14) 0.703339(18)
Mo1 Mo 0.14959(3) 0.06128(3) 0.60694(4)
Mo2 Mo 0.29018(3) 0.02800(3) 0.66396(4)
Mo3 Mo 0.19975(4) 0.19009(3) 0.56901(4)
Mo4 Mo 0.24747(3) 0.14412(3) 0.75927(4)
Mo5 Mo 0.31144(3) 0.26235(3) 0.69502(4)
Mo6 Mo 0.39176(3) 0.10135(3) 0.80668(5)
Mo7 Mo 0.36491(3) 0.22860(3) 0.88031(4)
O1 O 0.1312(3) 0.0341(3) 0.5154(4)
O2 O 0.0932(3) 0.0392(3) 0.6346(4)
O3 O 0.2093(2) -0.0015(2) 0.6614(3)
O4 O 0.1331(3) 0.1483(3) 0.5821(4)
O5 O 0.1805(3) 0.1096(3) 0.7433(4)
O6 O 0.2346(3) 0.1059(2) 0.6388(3)
O7 O 0.2850(3) 0.0145(3) 0.5709(4)
O8 O 0.3171(2) -0.0407(2) 0.7145(3)
O9 O 0.3600(2) 0.0775(3) 0.6966(3)
O10 O 0.2984(2) 0.0744(2) 0.7811(3)
O11 O 0.1976(3) 0.1546(3) 0.4850(4)
O12 O 0.1646(3) 0.2602(3) 0.5424(4)
O13 O 0.2834(3) 0.2153(3) 0.6044(3)
O14 O 0.2264(2) 0.2143(2) 0.6944(3)
O15 O 0.2669(3) 0.1783(3) 0.8506(3)
O16 O 0.3372(2) 0.1850(2) 0.7678(3)
O17 O 0.2729(3) 0.3321(2) 0.6676(3)
O18 O 0.3807(3) 0.2802(3) 0.7006(4)
O19 O 0.3187(2) 0.2893(2) 0.8064(3)
O20 O 0.4147(3) 0.0300(3) 0.8488(4)
O21 O 0.4547(3) 0.1355(3) 0.8027(4)
O22 O 0.3882(2) 0.1413(3) 0.8991(3)
O23 O 0.4337(3) 0.2584(3) 0.8965(4)
O24 O 0.3515(3) 0.2464(3) 0.9627(3)
O25 O 0.2363(3) -0.1296(3) 0.5908(4)
O26 O 0.2058(3) -0.1267(4) 0.4619(4)
O27 O 0.1288(3) -0.0860(3) 0.7278(3)
O28 O 0.0311(3) -0.0819(4) 0.6844(4)
C1 C 0.1347(4) -0.1127(4) 0.5199(5)
C2 C 0.0859(4) -0.1102(5) 0.4519(5)
H1 H 0.08970 -0.11620 0.40430
C3 C 0.0316(5) -0.0986(6) 0.4560(6)
H2 H -0.00200 -0.09720 0.41070
C4 C 0.0265(4) -0.0890(5) 0.5276(6)
H3 H -0.00970 -0.07930 0.53120
C5 C 0.0777(4) -0.0946(4) 0.5932(5)
C6 C 0.1967(4) -0.1237(4) 0.5239(6)
C7 C 0.0787(4) -0.0870(5) 0.6747(5)
N1 N 0.1292(3) -0.1050(3) 0.5883(4)
O29 O 0.3193(3) -0.1828(3) 0.7546(4)
O30 O 0.2564(3) -0.0291(3) 0.8355(4)
N2 N 0.0959(4) 0.0949(4) 0.3644(4)
H4 H 0.06840 0.11870 0.36740
H5 H 0.08930 0.05680 0.37300
H6 H 0.13000 0.10680 0.39710
H7 H 0.10050 0.09780 0.32110
N3 N 0.1622(5) 0.9792(5) 0.3616(7)
H8 H 0.18550 0.99700 0.40200
H9 H 0.16640 0.94000 0.37000
H10 H 0.17420 0.98700 0.32510
H11 H 0.12620 0.97070 0.34960
N4 N 0.3060(4) 0.1110(4) 0.4697(6)
H12 H 0.32200 0.08550 0.50710
H13 H 0.32560 0.11420 0.44030
H14 H 0.26970 0.10250 0.44470
H15 H 0.31050 0.13890 0.50400
N5 N 0.3242(5) -0.0884(5) 0.4890(7)
H16 H 0.33640 -0.08490 0.53860
H17 H 0.33010 -0.05410 0.46820
H18 H 0.28710 -0.09690 0.46990
H19 H 0.34540 -0.11600 0.47810
O31 O 0.50000 0.2442(6) 0.75000
O32 O 0.1898(7) 0.2562(5) 0.9015(8)
O33 O 0.4029(5) 0.1624(7) 0.6047(7)
O34 O 0.0484(5) 0.2131(7) 0.4137(9)
O35 O 0.3841(6) -0.1192(7) 0.6469(9)
O36 O 0.3934(8) 0.8972(6) 0.8688(11)
O37 O 0.0623(8) 0.7649(8) 0.1183(17)
O38 O 0.4721(9) 0.1524(12) 0.5090(12)
O39 O 0.4078(10) 0.0094(10) 0.5042(14)
O40 O 0.4618(10) 0.0225(16) 0.668(2)
Bi1C Bi 0.285284(13) 0.393549(14) 0.796661(18)
O17C O 0.2271(3) -0.1679(2) 0.8324(3)
O19C O 0.1813(2) -0.2107(2) 0.6936(3)
#END
