
#######################################################################
#
#                 Cambridge Crystallographic Data Centre
#                                CCDC
#
#######################################################################
#
# If this CIF has been generated from an entry in the Cambridge
# Structural Database, then it will include bibliographic, chemical,
# crystal, experimental, refinement or atomic coordinate data resulting
# from the CCDC's data processing and validation procedures.
#
#######################################################################

data_CSD_CIF_COVTAL
_audit_creation_date 2019-12-02
_audit_creation_method CSD-ConQuest-V1
_database_code_CSD COVTAL
_database_code_depnum_ccdc_archive 'CCDC 1822639'
_chemical_formula_sum 'C36 H36 N3 O9 P1 U1'
_chemical_formula_moiety
;
C24 H20 P1 1+,(C8 H10 N1 O9 U1 1-)n,2(C2 H3 N1)
;
_journal_coden_Cambridge 1147
_journal_volume 18
_journal_year 2018
_journal_page_first 2609
_journal_name_full 'Cryst.Growth Des. '
loop_
_publ_author_name
"P.Thuery"
"Y.Atoini"
"J.Harrowfield"
_chemical_name_systematic
;
catena-[tetraphenylphosphonium 
(\m-cyclohexane-1,4-dicarboxylato)-(nitrato)-dioxo-uranium acetonitrile 
solvate]
;
_cell_volume   7197.587
_exptl_crystal_colour 'light yellow'
_exptl_crystal_density_diffrn 1.705
_exptl_crystal_description 'platelet'
_diffrn_ambient_temperature 150
#These two values have been output from a single CSD field.
_refine_ls_R_factor_gt 0.0365
_refine_ls_wR_factor_gt 0.0365
_symmetry_cell_setting orthorhombic
_symmetry_space_group_name_H-M 'P b c n'
_symmetry_Int_Tables_number 60
loop_
_symmetry_equiv_pos_site_id
_symmetry_equiv_pos_as_xyz
1 x,y,z
2 1/2-x,1/2-y,1/2+z
3 -x,y,1/2-z
4 1/2+x,1/2-y,-z
5 -x,-y,-z
6 -1/2+x,-1/2+y,-1/2-z
7 x,-y,-1/2+z
8 -1/2-x,-1/2+y,z
_cell_length_a 20.5334(8)
_cell_length_b 14.7720(5)
_cell_length_c 23.7294(11)
_cell_angle_alpha 90
_cell_angle_beta 90
_cell_angle_gamma 90
_cell_formula_units_Z 8
loop_
_atom_type_symbol
_atom_type_radius_bond
C 0.68
H 0.23
N 0.68
O 0.68
P 1.05
U 1.96
loop_
_atom_site_label
_atom_site_type_symbol
_atom_site_fract_x
_atom_site_fract_y
_atom_site_fract_z
U1 U 0.31086(2) 0.40011(2) 0.54530(2)
O1 O 0.31958(15) 0.4715(2) 0.48674(16)
O2 O 0.30117(17) 0.3323(2) 0.60593(16)
O3 O 0.43002(17) 0.3909(2) 0.55022(17)
O4 O 0.37884(16) 0.2868(2) 0.50192(16)
O5 O 0.74372(16) 0.2039(3) 0.50997(17)
O6 O 0.69265(15) 0.0961(2) 0.46531(16)
O7 O 0.25656(17) 0.5302(2) 0.59624(16)
O8 O 0.35986(17) 0.5164(3) 0.60996(18)
O9 O 0.3054(2) 0.6180(3) 0.6563(2)
N1 N 0.3072(2) 0.5582(3) 0.6224(2)
C1 C 0.4959(2) 0.2834(3) 0.4970(3)
H1 H 0.49250 0.27600 0.45520
C2 C 0.5542(2) 0.3444(3) 0.5089(2)
H2 H 0.55670 0.35670 0.54990
H3 H 0.54820 0.40290 0.48920
C3 C 0.6176(2) 0.3009(4) 0.4895(3)
H4 H 0.65470 0.33980 0.50060
H5 H 0.61760 0.29600 0.44780
C4 C 0.6266(2) 0.2051(4) 0.5156(2)
H6 H 0.62870 0.21210 0.55750
C5 C 0.5681(2) 0.1453(3) 0.5020(3)
H7 H 0.57360 0.08560 0.52030
H8 H 0.56560 0.13560 0.46080
C6 C 0.5052(2) 0.1891(4) 0.5226(3)
H9 H 0.50630 0.19400 0.56420
H10 H 0.46780 0.15020 0.51220
C7 C 0.4317(3) 0.3228(3) 0.5177(2)
C8 C 0.6911(2) 0.1660(4) 0.4959(2)
P1 P 0.50000 0.25222(14) 0.75000
C9 C 0.4660(3) 0.1805(4) 0.6966(2)
C10 C 0.4986(3) 0.1016(4) 0.6803(2)
H11 H 0.53960 0.08740 0.69670
C11 C 0.4721(3) 0.0437(4) 0.6404(3)
H12 H 0.49510 -0.00890 0.62880
C12 C 0.4112(3) 0.0635(4) 0.6175(2)
H13 H 0.39140 0.02250 0.59190
C13 C 0.3792(3) 0.1434(4) 0.6321(3)
H14 H 0.33860 0.15780 0.61520
C14 C 0.4060(2) 0.2011(4) 0.6708(2)
H15 H 0.38400 0.25550 0.68030
C15 C 0.5635(3) 0.3238(4) 0.7227(2)
C16 C 0.5944(3) 0.3049(4) 0.6726(3)
H16 H 0.58030 0.25470 0.65060
C17 C 0.6449(3) 0.3571(5) 0.6538(3)
H17 H 0.66540 0.34410 0.61880
C18 C 0.6658(3) 0.4288(4) 0.6863(3)
H18 H 0.70140 0.46450 0.67360
C19 C 0.6365(3) 0.4499(4) 0.7363(3)
H19 H 0.65140 0.49940 0.75840
C20 C 0.5848(3) 0.3977(4) 0.7541(3)
H20 H 0.56330 0.41240 0.78840
P2 P 0.50000 0.74320(14) 0.75000
C21 C 0.5282(3) 0.6715(3) 0.6940(2)
C22 C 0.5881(3) 0.6860(4) 0.6679(2)
H21 H 0.61510 0.73440 0.68020
C23 C 0.6086(3) 0.6313(4) 0.6249(3)
H22 H 0.64970 0.64160 0.60770
C24 C 0.5696(3) 0.5613(4) 0.6066(2)
H23 H 0.58420 0.52310 0.57690
C25 C 0.5091(3) 0.5462(4) 0.6312(2)
H24 H 0.48200 0.49870 0.61800
C26 C 0.4888(3) 0.6009(4) 0.6750(2)
H25 H 0.44780 0.59040 0.69240
C27 C 0.5657(3) 0.8142(4) 0.7725(2)
C28 C 0.6008(3) 0.7971(5) 0.8209(3)
H26 H 0.58850 0.74920 0.84540
C29 C 0.6539(3) 0.8505(5) 0.8333(3)
H27 H 0.67810 0.83890 0.86670
C30 C 0.6725(3) 0.9194(5) 0.7987(3)
H28 H 0.70960 0.95480 0.80800
C31 C 0.6374(3) 0.9382(4) 0.7501(3)
H29 H 0.65010 0.98630 0.72590
C32 C 0.5842(3) 0.8863(4) 0.7376(3)
H30 H 0.55950 0.89920 0.70470
N2 N 0.4180(4) 0.1082(5) 0.4025(3)
C33 C 0.3685(4) 0.1025(6) 0.4277(4)
C34 C 0.3113(3) 0.0985(5) 0.4578(3)
H31 H 0.28620 0.15400 0.45140
H32 H 0.32110 0.09250 0.49800
H33 H 0.28580 0.04610 0.44530
N3 N 0.2025(7) 0.6091(7) 0.8388(7)
C35 C 0.2227(6) 0.6582(9) 0.8050(8)
C36 C 0.2471(5) 0.7226(9) 0.7608(5)
H34 H 0.24510 0.78470 0.77530
H35 H 0.21990 0.71760 0.72700
H36 H 0.29230 0.70760 0.75130
U1C U 0.81086(2) 0.09989(2) 0.45470(2)
O5C O 0.24372(16) 0.2961(3) 0.49003(17)
O6C O 0.19265(15) 0.4039(2) 0.53469(16)
C9B C 0.5340(3) 0.1805(4) 0.8034(2)
C10B C 0.5014(3) 0.1016(4) 0.8197(2)
H11B H 0.46040 0.08740 0.80330
C11B C 0.5279(3) 0.0437(4) 0.8596(3)
H12B H 0.50490 -0.00890 0.87120
C12B C 0.5888(3) 0.0635(4) 0.8825(2)
H13B H 0.60860 0.02250 0.90810
C13B C 0.6208(3) 0.1434(4) 0.8679(3)
H14B H 0.66140 0.15780 0.88480
C14B C 0.5940(2) 0.2011(4) 0.8292(2)
H15B H 0.61600 0.25550 0.81970
C15B C 0.4365(3) 0.3238(4) 0.7773(2)
C16B C 0.4056(3) 0.3049(4) 0.8274(3)
H16B H 0.41970 0.25470 0.84940
C17B C 0.3551(3) 0.3571(5) 0.8462(3)
H17B H 0.33460 0.34410 0.88120
C18B C 0.3342(3) 0.4288(4) 0.8137(3)
H18B H 0.29860 0.46450 0.82640
C19B C 0.3635(3) 0.4499(4) 0.7637(3)
H19B H 0.34860 0.49940 0.74160
C20B C 0.4152(3) 0.3977(4) 0.7459(3)
H20B H 0.43670 0.41240 0.71160
C21B C 0.4718(3) 0.6715(3) 0.8060(2)
C22B C 0.4119(3) 0.6860(4) 0.8321(2)
H21B H 0.38490 0.73440 0.81980
C23B C 0.3914(3) 0.6313(4) 0.8751(3)
H22B H 0.35030 0.64160 0.89230
C24B C 0.4304(3) 0.5613(4) 0.8934(2)
H23B H 0.41580 0.52310 0.92310
C25B C 0.4909(3) 0.5462(4) 0.8688(2)
H24B H 0.51800 0.49870 0.88200
C26B C 0.5112(3) 0.6009(4) 0.8250(2)
H25B H 0.55220 0.59040 0.80760
C27B C 0.4343(3) 0.8142(4) 0.7275(2)
C28B C 0.3992(3) 0.7971(5) 0.6791(3)
H26B H 0.41150 0.74920 0.65460
C29B C 0.3461(3) 0.8505(5) 0.6667(3)
H27B H 0.32190 0.83890 0.63330
C30B C 0.3275(3) 0.9194(5) 0.7013(3)
H28B H 0.29040 0.95480 0.69200
C31B C 0.3626(3) 0.9382(4) 0.7499(3)
H29B H 0.34990 0.98630 0.77410
C32B C 0.4158(3) 0.8863(4) 0.7624(3)
H30B H 0.44050 0.89920 0.79530
#END
