
#######################################################################
#
#                 Cambridge Crystallographic Data Centre
#                                CCDC
#
#######################################################################
#
# If this CIF has been generated from an entry in the Cambridge
# Structural Database, then it will include bibliographic, chemical,
# crystal, experimental, refinement or atomic coordinate data resulting
# from the CCDC's data processing and validation procedures.
#
#######################################################################

data_CSD_CIF_COVTOZ
_audit_creation_date 2019-12-02
_audit_creation_method CSD-ConQuest-V1
_database_code_CSD COVTOZ
_database_code_depnum_ccdc_archive 'CCDC 1822642'
_chemical_formula_sum 'C62 H70 O18 P2 U2'
_chemical_formula_moiety
;
(C24 H30 O16 U2 2-)n,2(C19 H18 P1 1+),2(H2 O1)
;
_journal_coden_Cambridge 1147
_journal_volume 18
_journal_year 2018
_journal_page_first 2609
_journal_name_full 'Cryst.Growth Des. '
loop_
_publ_author_name
"P.Thuery"
"Y.Atoini"
"J.Harrowfield"
_chemical_name_systematic
;
catena-[bis(methyl(triphenyl)phosphonium) 
tris(\m-cyclohexane-1,4-dicarboxylato)-tetraoxo-di-uranium dihydrate]
;
_cell_volume   3083.252
_exptl_crystal_colour 'light yellow'
_exptl_crystal_density_diffrn 1.768
_exptl_crystal_description 'platelet'
_diffrn_ambient_temperature 150
#These two values have been output from a single CSD field.
_refine_ls_R_factor_gt 0.0296
_refine_ls_wR_factor_gt 0.0296
_symmetry_cell_setting monoclinic
_symmetry_space_group_name_H-M 'P 21/c'
_symmetry_Int_Tables_number 14
loop_
_symmetry_equiv_pos_site_id
_symmetry_equiv_pos_as_xyz
1 x,y,z
2 -x,1/2+y,1/2-z
3 -x,-y,-z
4 x,-1/2-y,-1/2+z
_cell_length_a 8.7748(4)
_cell_length_b 25.8721(7)
_cell_length_c 13.6877(7)
_cell_angle_alpha 90
_cell_angle_beta 97.150(2)
_cell_angle_gamma 90
_cell_formula_units_Z 2
loop_
_atom_type_symbol
_atom_type_radius_bond
C 0.68
H 0.23
O 0.68
P 1.05
U 1.96
loop_
_atom_site_label
_atom_site_type_symbol
_atom_site_fract_x
_atom_site_fract_y
_atom_site_fract_z
U1 U 0.76322(2) 0.83329(2) 0.49692(2)
O1 O 0.8672(4) 0.84239(12) 0.3966(2)
O2 O 0.6600(4) 0.82300(14) 0.5977(2)
O3 O 0.5136(3) 0.83834(12) 0.3928(3)
O4 O 0.6200(3) 0.76203(12) 0.4113(2)
O5 O -0.1006(4) 0.75034(12) 0.0289(3)
O6 O 0.0080(4) 0.68223(15) 0.0999(3)
O7 O 0.8722(3) 0.91021(11) 0.5817(2)
O8 O 0.6786(3) 0.92323(11) 0.4686(2)
C1 C 0.3789(5) 0.76608(18) 0.3091(3)
H1 H 0.37770 0.72820 0.32350
C2 C 0.4086(5) 0.7728(2) 0.2022(4)
H2 H 0.51080 0.75860 0.19350
H3 H 0.40830 0.81010 0.18550
C3 C 0.2842(6) 0.7448(2) 0.1334(4)
H4 H 0.30160 0.75080 0.06420
H5 H 0.29120 0.70720 0.14620
C4 C 0.1244(5) 0.76389(19) 0.1483(4)
H6 H 0.11220 0.80060 0.12570
C5 C 0.0985(5) 0.7605(2) 0.2565(4)
H7 H -0.00240 0.77590 0.26460
H8 H 0.09580 0.72370 0.27590
C6 C 0.2230(5) 0.7880(2) 0.3239(4)
H9 H 0.20490 0.78350 0.39330
H10 H 0.22030 0.82550 0.30900
C7 C 0.5107(5) 0.78991(18) 0.3750(4)
C8 C 0.0040(6) 0.7307(2) 0.0886(4)
C9 C 0.7924(4) 0.94140(17) 0.5248(3)
C10 C 0.8350(4) 0.99727(16) 0.5189(3)
H11 H 0.74220 1.01830 0.52770
C11 C 0.9648(4) 1.01357(16) 0.5991(3)
H12 H 0.97220 1.05170 0.60010
H13 H 0.93850 1.00220 0.66400
C12 C 1.1204(4) 0.99100(17) 0.5835(3)
H14 H 1.11780 0.95310 0.59270
H15 H 1.20000 1.00520 0.63390
P1 P 0.81686(11) 0.59986(4) 0.38367(8)
C13 C 0.7549(5) 0.66057(17) 0.3313(3)
H16 H 0.78420 0.66320 0.26470
H17 H 0.80360 0.68860 0.37210
H18 H 0.64310 0.66330 0.32840
C14 C 0.7364(4) 0.54748(18) 0.3090(3)
C15 C 0.7907(5) 0.49772(19) 0.3284(3)
H19 H 0.87290 0.49190 0.37920
C16 C 0.7251(6) 0.4564(2) 0.2735(3)
H20 H 0.76170 0.42220 0.28670
C17 C 0.6051(6) 0.4657(3) 0.1990(4)
H21 H 0.55850 0.43750 0.16200
C18 C 0.5537(5) 0.5147(3) 0.1786(4)
H22 H 0.47340 0.52040 0.12640
C19 C 0.6167(5) 0.5562(2) 0.2327(3)
H23 H 0.57970 0.59020 0.21850
C20 C 0.7640(4) 0.59447(18) 0.5059(3)
C21 C 0.7246(5) 0.54720(18) 0.5439(3)
H24 H 0.71830 0.51700 0.50400
C22 C 0.6945(6) 0.54477(19) 0.6415(4)
H25 H 0.66700 0.51260 0.66800
C23 C 0.7041(5) 0.58825(19) 0.7002(3)
H26 H 0.68630 0.58600 0.76710
C24 C 0.7396(5) 0.63473(19) 0.6609(3)
H27 H 0.74460 0.66490 0.70070
C25 C 0.7685(5) 0.63826(19) 0.5637(3)
H28 H 0.79150 0.67080 0.53700
C26 C 1.0228(4) 0.59829(15) 0.3895(3)
C27 C 1.0858(4) 0.59794(17) 0.3014(3)
H29 H 1.02080 0.59570 0.24060
C28 C 1.2428(5) 0.60083(17) 0.3022(3)
H30 H 1.28690 0.60080 0.24220
C29 C 1.3364(5) 0.6038(2) 0.3924(4)
H31 H 1.44470 0.60540 0.39320
C30 C 1.2755(5) 0.6043(2) 0.4789(3)
H32 H 1.34130 0.60650 0.53930
C31 C 1.1171(5) 0.60174(17) 0.4793(3)
H33 H 1.07390 0.60230 0.53950
O9 O 0.3118(6) 0.88536(19) 0.5484(4)
H34 H 0.38390 0.87130 0.50880
H35 H 0.22700 0.86210 0.55720
O7B O 1.1278(3) 1.08979(11) 0.4183(2)
O8B O 1.3214(3) 1.07677(11) 0.5314(2)
C9B C 1.2076(4) 1.05860(17) 0.4752(3)
C10B C 1.1650(4) 1.00273(16) 0.4811(3)
H11B H 1.25780 0.98170 0.47230
C11B C 1.0352(4) 0.98643(16) 0.4009(3)
H12B H 1.02780 0.94830 0.39990
H13B H 1.06150 0.99780 0.33600
C12B C 0.8796(4) 1.00900(17) 0.4165(3)
H14B H 0.88220 1.04690 0.40730
H15B H 0.80000 0.99480 0.36610
U1B U 1.23678(2) 1.16671(2) 0.50308(2)
O1B O 1.1328(4) 1.15761(12) 0.6034(2)
O2B O 1.3400(4) 1.17700(14) 0.4023(2)
O3B O 1.4864(3) 1.16166(12) 0.6072(3)
O4B O 1.3800(3) 1.23797(12) 0.5887(2)
O5B O 2.1006(4) 1.24966(12) 0.9711(3)
O6B O 1.9920(4) 1.31777(15) 0.9001(3)
C1B C 1.6211(5) 1.23392(18) 0.6909(3)
H1B H 1.62230 1.27180 0.67650
C2B C 1.5914(5) 1.2272(2) 0.7978(4)
H2B H 1.48920 1.24140 0.80650
H3B H 1.59170 1.18990 0.81450
C3B C 1.7158(6) 1.2552(2) 0.8666(4)
H4B H 1.69840 1.24920 0.93580
H5B H 1.70880 1.29280 0.85380
C4B C 1.8756(5) 1.23611(19) 0.8517(4)
H6B H 1.88780 1.19940 0.87430
C5B C 1.9015(5) 1.2395(2) 0.7435(4)
H7B H 2.00240 1.22410 0.73540
H8B H 1.90420 1.27630 0.72410
C6B C 1.7770(5) 1.2120(2) 0.6761(4)
H9B H 1.79510 1.21650 0.60670
H10B H 1.77970 1.17450 0.69100
C7B C 1.4893(5) 1.21009(18) 0.6250(4)
C8B C 1.9960(6) 1.2693(2) 0.9114(4)
U1A U 2.23678(2) 1.33329(2) 1.00308(2)
U1C U -0.23678(2) 0.66671(2) -0.00308(2)
O5A O 1.1006(4) 1.25034(12) 0.4711(3)
O5C O 0.8994(4) 0.74966(12) 0.5289(3)
O6A O 0.9920(4) 1.18223(15) 0.4001(3)
O6C O 1.0080(4) 0.81777(15) 0.5999(3)
#END
