
#######################################################################
#
#                 Cambridge Crystallographic Data Centre
#                                CCDC
#
#######################################################################
#
# If this CIF has been generated from an entry in the Cambridge
# Structural Database, then it will include bibliographic, chemical,
# crystal, experimental, refinement or atomic coordinate data resulting
# from the CCDC's data processing and validation procedures.
#
#######################################################################

data_CSD_CIF_COVTIT
_audit_creation_date 2019-12-02
_audit_creation_method CSD-ConQuest-V1
_database_code_CSD COVTIT
_database_code_depnum_ccdc_archive 'CCDC 1822641'
_chemical_formula_sum 'C72 H78 O20 P2 U2'
_chemical_formula_moiety
;
(C24 H30 O16 U2 2-)n,2(C24 H20 P1 1+),4(H2 O1)
;
_journal_coden_Cambridge 1147
_journal_volume 18
_journal_year 2018
_journal_page_first 2609
_journal_name_full 'Cryst.Growth Des. '
loop_
_publ_author_name
"P.Thuery"
"Y.Atoini"
"J.Harrowfield"
_chemical_name_systematic
;
catena-[bis(triphenylphosphonium) 
tris(\m-cyclohexane-1,4-dicarboxylato)-tetraoxo-di-uranium tetrahydrate]
;
_cell_volume   1755.914
_exptl_crystal_colour 'light yellow'
_exptl_crystal_density_diffrn 1.703
_exptl_crystal_description 'irregular'
_diffrn_ambient_temperature 150
_refine_special_details
;
O10A and O10B disordered over two sites with occupancies 0.62:0.38.

;
#These two values have been output from a single CSD field.
_refine_ls_R_factor_gt 0.0222
_refine_ls_wR_factor_gt 0.0222
_symmetry_cell_setting triclinic
_symmetry_space_group_name_H-M 'P -1'
_symmetry_Int_Tables_number 2
loop_
_symmetry_equiv_pos_site_id
_symmetry_equiv_pos_as_xyz
1 x,y,z
2 -x,-y,-z
_cell_length_a 10.0284(4)
_cell_length_b 13.5216(6)
_cell_length_c 14.0662(6)
_cell_angle_alpha 102.635(3)
_cell_angle_beta 95.694(3)
_cell_angle_gamma 106.678(3)
_cell_formula_units_Z 1
loop_
_atom_type_symbol
_atom_type_radius_bond
C 0.68
H 0.23
O 0.68
P 1.05
U 1.96
loop_
_atom_site_label
_atom_site_type_symbol
_atom_site_fract_x
_atom_site_fract_y
_atom_site_fract_z
U1 U 0.46594(2) 0.18943(2) 0.83137(2)
O1 O 0.5580(2) 0.09801(19) 0.84062(19)
O2 O 0.3742(2) 0.28201(18) 0.82163(19)
O3 O 0.3312(2) 0.07285(18) 0.67105(17)
O4 O 0.5263(2) 0.19591(17) 0.66802(16)
O5 O 0.6944(2) 0.32531(18) 0.83989(17)
O6 O 0.6136(2) 0.32886(19) 0.97888(17)
O7 O 0.3740(2) 0.16906(19) 0.98446(17)
O8 O 0.2483(2) 0.05782(18) 0.84540(18)
C1 C 0.4220(3) 0.1142(2) 0.6229(2)
C2 C 0.4063(3) 0.0674(2) 0.5126(2)
H1 H 0.33670 0.09370 0.47810
C3 C 0.5459(3) 0.1023(2) 0.4741(2)
H2 H 0.52720 0.07950 0.40090
H3 H 0.58560 0.18130 0.49450
C4 C 0.6528(3) 0.0550(2) 0.5131(2)
H4 H 0.67890 0.08350 0.58580
H5 H 0.73940 0.07640 0.48420
C5 C 0.7113(3) 0.3644(3) 0.9320(2)
C6 C 0.8470(3) 0.4488(2) 0.9873(2)
H6 H 0.82660 0.49030 1.04910
C7 C 0.9077(3) 0.5263(2) 0.9269(2)
H7 H 0.84010 0.56430 0.91280
H8 H 0.92180 0.48610 0.86290
C8 C 1.0487(3) 0.6075(3) 0.9830(2)
H9 H 1.03270 0.65330 1.04310
H10 H 1.08980 0.65390 0.94080
C9 C 0.2637(3) 0.0928(3) 0.9379(3)
C10 C 0.1488(3) 0.0491(3) 0.9935(2)
H11 H 0.19340 0.06040 1.06350
C11 C 0.0454(4) 0.1116(3) 0.9939(3)
H12 H 0.00430 0.10490 0.92500
H13 H 0.09610 0.18820 1.02550
C12 C -0.0740(4) 0.0708(3) 1.0502(3)
H14 H -0.03430 0.08440 1.12080
H15 H -0.14310 0.10990 1.04590
P1 P 0.92552(8) 0.70135(6) 0.59289(6)
C13 C 1.0773(3) 0.7077(2) 0.6763(2)
C14 C 1.0959(3) 0.6138(3) 0.6932(2)
H16 H 1.02640 0.54640 0.66300
C15 C 1.2170(4) 0.6204(3) 0.7546(3)
H17 H 1.23060 0.55700 0.76590
C16 C 1.3171(4) 0.7169(3) 0.7991(3)
H18 H 1.39880 0.72020 0.84160
C17 C 1.2997(4) 0.8099(3) 0.7823(3)
H19 H 1.37000 0.87670 0.81280
C18 C 1.1798(3) 0.8056(3) 0.7210(3)
H20 H 1.16770 0.86950 0.70970
C19 C 0.8694(3) 0.8147(2) 0.6384(2)
C20 C 0.7556(3) 0.8073(3) 0.6896(2)
H21 H 0.70000 0.73990 0.69590
C21 C 0.7248(4) 0.8995(3) 0.7310(2)
H22 H 0.64690 0.89480 0.76500
C22 C 0.8062(4) 0.9980(3) 0.7233(3)
H23 H 0.78520 1.06070 0.75320
C23 C 0.9179(4) 1.0057(3) 0.6725(3)
H24 H 0.97350 1.07360 0.66730
C24 C 0.9493(3) 0.9146(3) 0.6289(3)
H25 H 1.02490 0.91990 0.59250
C25 C 0.9725(3) 0.7052(2) 0.4742(2)
C26 C 1.0990(3) 0.6906(2) 0.4510(2)
H26 H 1.16320 0.68050 0.49950
C27 C 1.1306(3) 0.6907(2) 0.3580(2)
H27 H 1.21750 0.68190 0.34300
C28 C 1.0378(3) 0.7035(2) 0.2866(3)
H28 H 1.06040 0.70260 0.22250
C29 C 0.9117(3) 0.7177(3) 0.3077(3)
H29 H 0.84780 0.72640 0.25800
C30 C 0.8786(3) 0.7191(3) 0.4009(3)
H30 H 0.79240 0.72950 0.41550
C31 C 0.7849(3) 0.5786(2) 0.5805(3)
C32 C 0.7205(3) 0.5112(2) 0.4878(3)
H31 H 0.75150 0.52740 0.42960
C33 C 0.6092(3) 0.4193(2) 0.4821(3)
H32 H 0.56360 0.37300 0.41900
C34 C 0.5647(4) 0.3943(3) 0.5630(3)
H33 H 0.48870 0.33080 0.55660
C35 C 0.6285(4) 0.4602(3) 0.6553(3)
H34 H 0.59650 0.44180 0.71240
C36 C 0.7392(4) 0.5532(3) 0.6658(3)
H35 H 0.78320 0.59880 0.72960
O9 O 0.3436(3) 0.3237(3) 1.1492(2)
H36 H 0.34050 0.26320 1.09410
H37 H 0.40960 0.38820 1.14790
O10 O 0.5799(10) 0.4918(4) 1.1393(5)
O11? O 0.499(3) 0.4841(11) 1.081(3)
O3A O 0.6688(2) -0.07285(18) 0.32895(17)
O4A O 0.4737(2) -0.19591(17) 0.33198(16)
C1A C 0.5780(3) -0.1142(2) 0.3771(2)
C2A C 0.5937(3) -0.0674(2) 0.4874(2)
H1A H 0.66330 -0.09370 0.52190
C3A C 0.4541(3) -0.1023(2) 0.5259(2)
H2A H 0.47280 -0.07950 0.59910
H3A H 0.41440 -0.18130 0.50550
C4A C 0.3472(3) -0.0550(2) 0.4869(2)
H4A H 0.32110 -0.08350 0.41420
H5A H 0.26060 -0.07640 0.51580
O5A O 1.3056(2) 0.67469(18) 1.16011(17)
O6A O 1.3864(2) 0.67114(19) 1.02112(17)
C5A C 1.2887(3) 0.6356(3) 1.0680(2)
C6A C 1.1530(3) 0.5512(2) 1.0127(2)
H6A H 1.17340 0.50970 0.95090
C7A C 1.0923(3) 0.4737(2) 1.0731(2)
H7A H 1.15990 0.43570 1.08720
H8A H 1.07820 0.51390 1.13710
C8A C 0.9513(3) 0.3925(3) 1.0170(2)
H9A H 0.96730 0.34670 0.95690
H10A H 0.91020 0.34610 1.05920
O7A O -0.3740(2) -0.16906(19) 1.01554(17)
O8A O -0.2483(2) -0.05782(18) 1.15460(18)
C9A C -0.2637(3) -0.0928(3) 1.0621(3)
C10A C -0.1488(3) -0.0491(3) 1.0065(2)
H11A H -0.19340 -0.06040 0.93650
C11A C -0.0454(4) -0.1116(3) 1.0061(3)
H12A H -0.00430 -0.10490 1.07500
H13A H -0.09610 -0.18820 0.97450
C12A C 0.0740(4) -0.0708(3) 0.9498(3)
H14A H 0.03430 -0.08440 0.87920
H15A H 0.14310 -0.10990 0.95410
U1A U -0.46594(2) -0.18943(2) 1.16863(2)
O1A O -0.5580(2) -0.09801(19) 1.15938(19)
O2A O -0.3742(2) -0.28201(18) 1.17837(19)
U1A* U 0.53406(2) -0.18943(2) 0.16863(2)
U1A** U 1.53406(2) 0.81057(2) 1.16863(2)
O3A* O -0.3312(2) -0.07285(18) 1.32895(17)
O4A* O -0.5263(2) -0.19591(17) 1.33198(16)
O5A* O -0.6944(2) -0.32531(18) 1.16011(17)
O6A* O -0.6136(2) -0.32886(19) 1.02112(17)
#END
