
#######################################################################
#
#                 Cambridge Crystallographic Data Centre
#                                CCDC
#
#######################################################################
#
# If this CIF has been generated from an entry in the Cambridge
# Structural Database, then it will include bibliographic, chemical,
# crystal, experimental, refinement or atomic coordinate data resulting
# from the CCDC's data processing and validation procedures.
#
#######################################################################

data_CSD_CIF_COVTOZ01
_audit_creation_date 2019-12-02
_audit_creation_method CSD-ConQuest-V1
_database_code_CSD COVTOZ01
_database_code_depnum_ccdc_archive 'CCDC 1822643'
_chemical_formula_sum 'C62 H70 O18 P2 U2'
_chemical_formula_moiety
;
(C24 H30 O16 U2 2-)n,2(C19 H18 P1 1+),2(H2 O1)
;
_journal_coden_Cambridge 1147
_journal_volume 18
_journal_year 2018
_journal_page_first 2609
_journal_name_full 'Cryst.Growth Des. '
loop_
_publ_author_name
"P.Thuery"
"Y.Atoini"
"J.Harrowfield"
_chemical_name_systematic
;
catena-[bis(methyl(triphenyl)phosphonium) 
tris(\m-cyclohexane-1,4-dicarboxylato)-tetraoxo-di-uranium dihydrate]
;
_cell_volume   6110.098
_exptl_crystal_colour 'light yellow'
_exptl_crystal_density_diffrn 1.784
_exptl_crystal_description 'parallelepiped'
_diffrn_ambient_temperature 150
#These two values have been output from a single CSD field.
_refine_ls_R_factor_gt 0.0206
_refine_ls_wR_factor_gt 0.0206
_symmetry_cell_setting monoclinic
_symmetry_space_group_name_H-M 'P 21/c'
_symmetry_Int_Tables_number 14
loop_
_symmetry_equiv_pos_site_id
_symmetry_equiv_pos_as_xyz
1 x,y,z
2 -x,1/2+y,1/2-z
3 -x,-y,-z
4 x,-1/2-y,-1/2+z
_cell_length_a 28.3178(6)
_cell_length_b 13.1707(3)
_cell_length_c 16.3855(3)
_cell_angle_alpha 90
_cell_angle_beta 91.0988(13)
_cell_angle_gamma 90
_cell_formula_units_Z 4
loop_
_atom_type_symbol
_atom_type_radius_bond
C 0.68
H 0.23
O 0.68
P 1.05
U 1.96
loop_
_atom_site_label
_atom_site_type_symbol
_atom_site_fract_x
_atom_site_fract_y
_atom_site_fract_z
U1 U 0.09360(2) 0.44686(2) 0.33012(2)
U2 U 0.41570(2) 0.56956(2) 0.28795(2)
O1 O 0.06721(6) 0.34090(14) 0.37741(11)
O2 O 0.12048(7) 0.55233(14) 0.28239(12)
O3 O 0.37976(7) 0.47193(16) 0.24673(13)
O4 O 0.45251(7) 0.66698(16) 0.32701(13)
O5 O 0.17055(7) 0.36494(15) 0.35258(12)
O6 O 0.14995(6) 0.47031(15) 0.44861(11)
O7 O 0.35380(7) 0.63247(15) 0.35365(12)
O8 O 0.28127(7) 0.69298(16) 0.36261(13)
O9 O 0.05928(7) 0.55599(14) 0.43316(12)
O10 O 0.01439(6) 0.52861(14) 0.32511(11)
O11 O -0.04883(6) 0.90827(14) 0.29784(11)
O12 O -0.11794(6) 0.83562(15) 0.28325(11)
O13 O 0.39574(7) 0.67638(16) 0.17097(12)
O14 O 0.45650(7) 0.57530(16) 0.15758(13)
O15 O 0.52129(8) 0.94725(16) 0.18965(13)
O16 O 0.56912(7) 0.97123(16) 0.08721(12)
C1 C 0.22447(10) 0.3793(2) 0.46710(18)
H1 H 0.21760 0.31610 0.49860
C2 C 0.26458(10) 0.3545(2) 0.4092(2)
H2 H 0.29140 0.32460 0.44050
H3 H 0.25360 0.30380 0.36850
C3 C 0.28105(11) 0.4495(2) 0.36545(19)
H4 H 0.25480 0.47630 0.33090
H5 H 0.30740 0.43170 0.32920
C4 C 0.29756(10) 0.5324(2) 0.42580(18)
H6 H 0.32630 0.50750 0.45610
C5 C 0.25889(11) 0.5542(2) 0.48730(19)
H7 H 0.27160 0.60090 0.52960
H8 H 0.23240 0.58910 0.45880
C6 C 0.24023(11) 0.4599(2) 0.52852(18)
H9 H 0.21320 0.47870 0.56280
H10 H 0.26520 0.43130 0.56480
C7 C 0.17930(9) 0.4080(2) 0.42052(17)
C8 C 0.31059(10) 0.6275(2) 0.37824(17)
C9 C -0.01575(9) 0.6409(2) 0.42954(16)
H11 H -0.01820 0.62570 0.48910
C10 C -0.06524(9) 0.6316(2) 0.39040(17)
H12 H -0.06310 0.64030 0.33060
H13 H -0.07790 0.56290 0.40100
C11 C -0.09885(9) 0.7110(2) 0.42440(17)
H14 H -0.10400 0.69690 0.48290
H15 H -0.12970 0.70580 0.39540
C12 C -0.07972(9) 0.8193(2) 0.41524(16)
H16 H -0.10110 0.86480 0.44670
C13 C -0.03061(9) 0.8285(2) 0.45482(16)
H17 H -0.01800 0.89740 0.44500
H18 H -0.03290 0.81890 0.51450
C14 C 0.00315(9) 0.7497(2) 0.42040(16)
H19 H 0.03410 0.75530 0.44920
H20 H 0.00810 0.76410 0.36190
C15 C 0.02052(10) 0.5705(2) 0.39399(17)
C16 C -0.08170(9) 0.8555(2) 0.32753(16)
C17 C 0.43778(11) 0.6872(3) 0.04395(18)
H21 H 0.41910 0.64440 0.00460
C18 C 0.48955(11) 0.6801(3) 0.01984(19)
H22 H 0.50090 0.60970 0.02810
H23 H 0.49240 0.69690 -0.03870
C19 C 0.52011(11) 0.7527(2) 0.07070(19)
H24 H 0.55310 0.74940 0.05200
H25 H 0.51980 0.73160 0.12870
C20 C 0.50195(10) 0.8623(2) 0.06310(18)
H26 H 0.50480 0.88420 0.00500
C21 C 0.44981(10) 0.8685(2) 0.0860(2)
H27 H 0.44670 0.85240 0.14470
H28 H 0.43830 0.93870 0.07710
C22 C 0.41949(11) 0.7954(3) 0.0358(2)
H29 H 0.41970 0.81600 -0.02230
H30 H 0.38650 0.79850 0.05450
C23 C 0.42985(11) 0.6445(2) 0.12885(18)
C24 C 0.53213(11) 0.9307(2) 0.11537(19)
P1 P 0.85274(2) 0.17756(5) 0.50870(4)
C25 C 0.84609(10) 0.2765(2) 0.58190(17)
H31 H 0.81790 0.26380 0.61400
H32 H 0.84280 0.34180 0.55360
H33 H 0.87400 0.27840 0.61830
C26 C 0.79952(9) 0.1609(2) 0.44927(17)
C27 C 0.80280(11) 0.1376(2) 0.36678(19)
H34 H 0.83290 0.12950 0.34300
C28 C 0.76212(12) 0.1263(3) 0.3193(2)
H35 H 0.76420 0.11080 0.26290
C29 C 0.71867(12) 0.1379(3) 0.3545(2)
H36 H 0.69080 0.13060 0.32190
C30 C 0.71511(11) 0.1596(3) 0.4354(2)
H37 H 0.68480 0.16670 0.45860
C31 C 0.75538(10) 0.1716(2) 0.4846(2)
H38 H 0.75280 0.18660 0.54100
C32 C 0.86731(10) 0.0625(2) 0.56211(18)
C33 C 0.90625(10) 0.0626(2) 0.61626(19)
H39 H 0.92390 0.12310 0.62470
C34 C 0.91894(11) -0.0248(3) 0.6572(2)
H40 H 0.94550 -0.02480 0.69360
C35 C 0.89292(13) -0.1127(2) 0.6452(2)
H41 H 0.90170 -0.17290 0.67360
C36 C 0.85452(13) -0.1138(2) 0.5927(2)
H42 H 0.83680 -0.17440 0.58540
C37 C 0.84148(11) -0.0259(2) 0.54990(18)
H43 H 0.81520 -0.02670 0.51290
C38 C 0.89884(9) 0.2084(2) 0.43960(16)
C39 C 0.92543(10) 0.1309(2) 0.40573(17)
H44 H 0.92070 0.06270 0.42250
C40 C 0.95881(10) 0.1529(2) 0.34764(18)
H45 H 0.97660 0.10000 0.32360
C41 C 0.96602(10) 0.2527(3) 0.32501(18)
H46 H 0.98920 0.26810 0.28570
C42 C 0.94003(11) 0.3306(2) 0.35881(18)
H47 H 0.94560 0.39890 0.34300
C43 C 0.90586(10) 0.3088(2) 0.41583(17)
H48 H 0.88740 0.36170 0.43840
P2 P 0.32904(3) 0.99764(6) 0.29894(5)
C44 C 0.35476(10) 0.8747(2) 0.2931(2)
H49 H 0.38670 0.87640 0.31700
H50 H 0.35620 0.85370 0.23580
H51 H 0.33550 0.82620 0.32320
C45 C 0.26908(10) 0.9937(2) 0.26335(17)
C46 C 0.24477(11) 0.9026(3) 0.2566(2)
H52 H 0.26030 0.84030 0.26890
C47 C 0.19729(11) 0.9031(3) 0.2317(2)
H53 H 0.18060 0.84090 0.22570
C48 C 0.17462(11) 0.9939(3) 0.21579(19)
H54 H 0.14220 0.99380 0.19950
C49 C 0.19840(12) 1.0849(3) 0.2232(2)
H55 H 0.18230 1.14700 0.21280
C50 C 0.24582(11) 1.0860(3) 0.24593(18)
H56 H 0.26250 1.14840 0.24970
C51 C 0.33069(11) 1.0402(2) 0.40321(18)
C52 C 0.37339(11) 1.0358(2) 0.44742(19)
H57 H 0.40120 1.01150 0.42240
C53 C 0.37469(12) 1.0672(2) 0.5281(2)
H58 H 0.40340 1.06390 0.55880
C54 C 0.33429(12) 1.1035(3) 0.5641(2)
H59 H 0.33550 1.12490 0.61950
C55 C 0.29252(12) 1.1089(3) 0.52067(19)
H60 H 0.26500 1.13430 0.54600
C56 C 0.29022(11) 1.0775(2) 0.44015(19)
H61 H 0.26120 1.08120 0.41010
C57 C 0.36143(10) 1.0837(2) 0.23619(18)
C58 C 0.36412(12) 1.0618(2) 0.1530(2)
H62 H 0.34750 1.00530 0.13070
C59 C 0.39115(12) 1.1228(3) 0.1030(2)
H63 H 0.39290 1.10850 0.04630
C60 C 0.41550(12) 1.2041(3) 0.1359(2)
H64 H 0.43460 1.24460 0.10190
C61 C 0.41244(12) 1.2274(3) 0.2177(2)
H65 H 0.42900 1.28410 0.23970
C62 C 0.38488(12) 1.1672(2) 0.2677(2)
H66 H 0.38220 1.18370 0.32380
O17 O -0.21270(11) 0.8453(3) 0.3348(2)
H67 H -0.18180 0.84990 0.31920
H68 H -0.22500 0.84600 0.27830
O18 O 0.53715(9) 0.4470(2) 0.16309(17)
H69 H 0.51130 0.48990 0.14420
H70 H 0.52090 0.39250 0.19350
U1A U -0.09360(2) 0.94686(2) 0.16988(2)
U2A U 0.58430(2) 1.06956(2) 0.21205(2)
O11A O 0.04883(6) 0.40827(14) 0.20216(11)
O12A O 0.11794(6) 0.33562(15) 0.21675(11)
O15A O 0.47871(8) 0.44725(16) 0.31035(13)
O16A O 0.43088(7) 0.47123(16) 0.41279(12)
#END
