
#######################################################################
#
#                 Cambridge Crystallographic Data Centre
#                                CCDC
#
#######################################################################
#
# If this CIF has been generated from an entry in the Cambridge
# Structural Database, then it will include bibliographic, chemical,
# crystal, experimental, refinement or atomic coordinate data resulting
# from the CCDC's data processing and validation procedures.
#
#######################################################################

data_CSD_CIF_COVWAM
_audit_creation_date 2009-11-04
_audit_creation_method CSD-ConQuest-V1
_database_code_CSD COVWAM
_database_code_depnum_ccdc_archive 'CCDC 694612'
_chemical_formula_sum 'C18 H36 N3 Na1 O55 Si1 W12'
_chemical_formula_moiety
;
(C6 H6 N1 O2 1+)2n,n(C6 H12 N1 Na1 O45 Si1 W12 2-),6n(H2 O1)
;
_journal_coden_Cambridge 1133
_journal_volume 19
_journal_year 2008
_journal_page_first 631
_journal_name_full 'J.Cluster Sci. '
loop_
_publ_author_name
"Ha-Jun Pang"
"Chun-Jing Zhang"
"Ya-Guang Chen"
"Mi-Xia Hu"
"Jia Li"
_chemical_name_systematic
;
catena-(bis(4-Carboxypyridinium) 
(\m~12~-silicato)-hexacosakis(\m~2~-oxo)-triaqua-decaoxo-(4-pyridiniocarboxyli
c acid-O)-sodium-dodeca-tungsten(vi) hexahydrate)
;
_cell_volume   3045.463
_exptl_crystal_colour 'colorless'
_exptl_crystal_density_diffrn 3.698
_exptl_special_details
;
The sites of protonation of the 4-carboxypyridinium cations and the ligand 
were not located and were assigned by the authors on the basis of charge 
balance
;
_exptl_crystal_description 'block'
_diffrn_ambient_temperature 293
#These two values have been output from a single CSD field.
_refine_ls_R_factor_gt 0.0486
_refine_ls_wR_factor_gt 0.0486
_symmetry_cell_setting monoclinic
_symmetry_space_group_name_H-M 'P 21'
_symmetry_Int_Tables_number 4
loop_
_symmetry_equiv_pos_site_id
_symmetry_equiv_pos_as_xyz
1 x,y,z
2 -x,1/2+y,-z
_cell_length_a 13.093(5)
_cell_length_b 19.565(5)
_cell_length_c 13.142(5)
_cell_angle_alpha 90
_cell_angle_beta 115.226(5)
_cell_angle_gamma 90
_cell_formula_units_Z 2
loop_
_atom_type_symbol
_atom_type_radius_bond
C 0.68
H 0.23
N 0.68
Na 1.48
O 0.68
Si 1.20
W 1.36
loop_
_atom_site_label
_atom_site_type_symbol
_atom_site_fract_x
_atom_site_fract_y
_atom_site_fract_z
Si1 Si -0.2864(4) 0.2686(4) 0.7872(5)
W1 W -0.22727(6) 0.14029(4) 0.99594(8)
W2 W -0.50032(7) 0.38968(5) 0.74263(9)
W3 W -0.32597(7) 0.13960(5) 0.58552(8)
W4 W -0.43212(7) 0.25887(5) 0.95924(8)
W5 W -0.47814(7) 0.13476(5) 0.76291(8)
W6 W -0.35865(8) 0.39434(5) 0.57842(9)
W7 W -0.08968(7) 0.40027(4) 0.82925(8)
W8 W -0.13999(6) 0.26832(6) 0.61698(7)
W9 W -0.07574(6) 0.14589(4) 0.81842(8)
W10 W -0.02653(6) 0.27804(5) 1.03137(7)
W11 W -0.23203(7) 0.39651(4) 0.99289(8)
W12 W -0.54633(6) 0.26592(5) 0.54567(7)
O1 O -0.4971(12) 0.2676(11) 1.0482(13)
O2 O -0.5710(13) 0.0698(7) 0.7292(13)
O3 O -0.3729(15) 0.4512(8) 0.4764(18)
O4 O 0.0957(11) 0.2692(10) 1.1461(12)
O5 O -0.3664(15) 0.0773(9) 0.4864(16)
O6 O 0.0287(13) 0.0886(9) 0.8540(17)
O7 O -0.0706(13) 0.2829(9) 0.5340(15)
O8 O -0.1512(13) 0.1160(8) 0.9008(14)
O9 O -0.178(2) 0.0790(9) 1.0994(18)
O10 O -0.229(2) 0.4568(9) 1.083(2)
O11 O -0.0758(13) 0.3307(9) 0.7346(16)
O12 O -0.2667(17) 0.3294(12) 0.5531(19)
O13 O -0.1233(14) 0.2112(8) 1.0517(16)
O14 O -0.0031(14) 0.4616(9) 0.832(2)
O15 O -0.2355(16) 0.1962(11) 0.531(2)
O16 O -0.0130(14) 0.2164(9) 0.9281(16)
O17 O -0.6698(11) 0.2474(7) 0.4300(14)
O18 O -0.5974(14) 0.4455(9) 0.747(2)
O19 O -0.3170(17) 0.3249(11) 1.020(2)
O20 O -0.5539(16) 0.2023(8) 0.649(2)
O21 O -0.0962(13) 0.3472(8) 1.0847(16)
O22 O -0.3931(19) 0.1120(9) 0.6820(17)
O23 O -0.1466(13) 0.4455(8) 0.9302(15)
O24 O -0.2250(11) 0.2196(7) 0.7270(12)
O25 O -0.3366(11) 0.2170(6) 0.8539(13)
O26 O -0.4431(12) 0.2057(8) 0.5276(16)
O27 O -0.2343(16) 0.4166(10) 0.7038(18)
O28 O 0.0153(15) 0.3530(8) 0.9587(18)
O29 O -0.0390(12) 0.1943(9) 0.7166(17)
O30 O -0.3564(12) 0.0969(9) 0.8949(17)
O31 O -0.3868(12) 0.3131(7) 0.6984(13)
O32 O -0.1876(13) 0.0983(8) 0.6932(17)
O33 O -0.1934(12) 0.3164(8) 0.8760(13)
O34 O -0.5167(13) 0.1854(9) 0.8691(16)
O35 O -0.5055(13) 0.3173(9) 0.8353(17)
O36 O -0.3676(15) 0.4149(8) 0.8591(16)
O37 O -0.3198(12) 0.1916(10) 1.0471(19)
O38 O -0.5887(19) 0.3342(10) 0.624(2)
O39 O -0.4487(15) 0.4343(8) 0.6408(19)
O40 O -0.4870(15) 0.3362(8) 0.4874(17)
Na1 Na -0.2593(9) 0.4992(6) 0.3759(11)
O41 O -0.4242(17) 0.2781(14) 0.3101(18)
O42 O 1.0183(16) 0.4452(13) 1.316(2)
O43 O 1.171(2) 0.4520(14) 1.463(2)
C1 C 1.117(3) 0.454(2) 1.370(3)
C2 C 1.192(2) 0.4482(13) 1.302(2)
C3 C 1.3069(19) 0.4444(14) 1.352(2)
H1 H 1.34530 0.44000 1.42960
C4 C 1.364(2) 0.4470(13) 1.289(3)
H2 H 1.44210 0.44830 1.32520
N1 N 1.312(2) 0.4480(11) 1.170(2)
C5 C 1.199(2) 0.4506(12) 1.125(2)
H3 H 1.16210 0.45310 1.04700
C6 C 1.134(2) 0.4499(14) 1.183(3)
H4 H 1.05520 0.45060 1.14630
O44 O 0.262(3) 0.343(2) 0.981(3)
O45 O 0.2632(17) 0.236(2) 0.990(3)
C7 C 0.237(4) 0.2863(16) 0.946(3)
C8 C 0.2205(19) 0.2797(14) 0.820(2)
C9 C 0.222(3) 0.2202(15) 0.767(3)
H5 H 0.23910 0.17950 0.80780
C10 C 0.200(3) 0.2198(14) 0.658(4)
H6 H 0.20170 0.17830 0.62460
N2 N 0.1747(16) 0.2798(15) 0.592(2)
C11 C 0.181(2) 0.3368(17) 0.647(3)
H7 H 0.17260 0.37750 0.60800
C12 C 0.2001(18) 0.3421(16) 0.759(3)
H8 H 0.19930 0.38400 0.79240
O46 O -0.2165(19) 0.5873(12) 0.510(3)
C13 C -0.339(2) 0.5912(12) 0.656(3)
H9 H -0.38200 0.59150 0.57890
C14 C -0.162(2) 0.6028(16) 0.816(3)
H10 H -0.08400 0.60960 0.84700
C15 C -0.164(2) 0.6055(14) 0.624(3)
O47 O -0.0661(18) 0.6318(12) 0.658(3)
C16 C -0.389(3) 0.5839(18) 0.724(3)
H11 H -0.46700 0.57760 0.69300
N3 N -0.330(2) 0.5852(12) 0.838(3)
C17 C -0.213(3) 0.5972(17) 0.887(4)
H12 H -0.17250 0.60120 0.96470
C18 C -0.219(2) 0.5988(14) 0.701(4)
O48 O 0.3479(19) 0.2663(18) 1.2114(19)
O49 O -0.332(2) 0.3965(14) 0.259(2)
O50 O 0.0921(19) 0.2951(12) 0.375(2)
O51 O -0.147(2) 0.287(3) 0.271(2)
O52 O -0.084(2) 0.4334(18) 0.463(3)
O53 O -0.166(3) 0.5528(13) 0.282(3)
O54 O 1.452(2) 0.4350(16) 1.066(3)
O2A O -0.4290(13) 0.5698(7) 0.2708(13)
Na1A Na -0.7407(9) -0.0008(6) 0.6241(11)
#END
