
#######################################################################
#
#                 Cambridge Crystallographic Data Centre
#                                CCDC
#
#######################################################################
#
# If this CIF has been generated from an entry in the Cambridge
# Structural Database, then it will include bibliographic, chemical,
# crystal, experimental, refinement or atomic coordinate data resulting
# from the CCDC's data processing and validation procedures.
#
#######################################################################

data_CSD_CIF_COWSAL
_audit_creation_date 2019-12-02
_audit_creation_method CSD-ConQuest-V1
_database_code_CSD COWSAL
_database_code_depnum_ccdc_archive 'CCDC 1956681'
_chemical_formula_sum 'C32 H49 N4 O31 U5'
_chemical_formula_moiety
;
(C19 H7 O28 U5 4-)n,C6 H14 N1 1+,2(C2 H8 N1 1+),H2 O1,H3 O1 1+,C3 H7 N1 O1
;
_journal_coden_Cambridge 222
_journal_volume 49
_journal_year 2020
_journal_page_first 3676
_journal_name_full 'Dalton Trans. '
loop_
_publ_author_name
"Yugang Zhang"
"Lanhua Chen"
"Jingwen Guan"
"Xia Wang"
"Shuao Wang"
"Juan Diwu"
_chemical_name_systematic
;
catena-[bis(dimethylammonium) 1,1-dimethylpyrrolidin-1-ium oxonium 
bis(benzene-1,2,4-tricarboxylato)-tetrakis(\m-oxido)-(\m-formato)-doecaoxo-pen
ta-uranium N,N-dimethylformamide solvate monohydrate]
;
_cell_volume   4957.184
_exptl_crystal_colour 'dark yellow'
_exptl_crystal_density_diffrn 2.791
_exptl_special_details
;
The structures contains voids due to the unmodelled N,N-dimethylformamide 
molecules
;
_exptl_crystal_description 'bulk'
_diffrn_ambient_temperature 296
_diffrn_special_details
;
twin

;
#These two values have been output from a single CSD field.
_refine_ls_R_factor_gt 0.0333
_refine_ls_wR_factor_gt 0.0333
_symmetry_cell_setting monoclinic
_symmetry_space_group_name_H-M 'C c'
_symmetry_Int_Tables_number 9
loop_
_symmetry_equiv_pos_site_id
_symmetry_equiv_pos_as_xyz
1 x,y,z
2 x,-y,1/2+z
3 1/2+x,1/2+y,z
4 1/2+x,1/2-y,1/2+z
_cell_length_a 25.3322(19)
_cell_length_b 8.8310(7)
_cell_length_c 25.293(3)
_cell_angle_alpha 90
_cell_angle_beta 118.825(2)
_cell_angle_gamma 90
_cell_formula_units_Z 4
loop_
_atom_type_symbol
_atom_type_radius_bond
C 0.68
H 0.23
N 0.68
O 0.68
U 1.96
loop_
_atom_site_label
_atom_site_type_symbol
_atom_site_fract_x
_atom_site_fract_y
_atom_site_fract_z
U1 U 0.18647(2) 0.79622(7) 0.31947(2)
U2 U 0.26680(2) 0.67996(6) 0.47994(2)
U3 U 0.08068(2) 0.71649(7) 0.38274(2)
U4 U 0.37126(2) 0.88094(7) 0.44223(2)
U5 U 0.43115(2) 0.75344(6) 0.60902(2)
O1 O 0.1797(6) 0.9900(15) 0.3350(6)
O2 O 0.2793(5) 0.4936(14) 0.4596(5)
O3 O 0.1756(5) 0.7061(12) 0.3986(5)
O4 O 0.4596(5) 0.5775(14) 0.5989(5)
O5 O 0.6172(5) 0.6745(12) 0.7069(5)
O6 O 0.2795(5) 0.7698(13) 0.3996(5)
O7 O 0.7164(5) 1.0447(13) 0.5274(5)
O8 O 0.3396(5) 1.3696(13) 0.0943(5)
O9 O 0.1932(5) 0.6066(14) 0.2974(5)
O10 O 0.3397(5) 1.0482(14) 0.4545(6)
O11 O 0.6336(5) 1.1874(13) 0.4898(5)
O12 O 0.4751(6) 1.2263(16) 0.2996(7)
O13 O 0.4065(5) 0.9292(13) 0.6232(5)
O14 O 0.4664(5) 0.8895(13) 0.5470(5)
O15 O 0.2540(6) 0.8559(14) 0.5053(6)
O16 O 0.2437(5) 0.8945(14) 0.2701(5)
O17 O 0.4489(5) 1.3156(12) 0.2078(5)
O18 O 0.0844(6) 0.7604(15) 0.2951(6)
O19 O 0.0815(5) 0.9152(14) 0.3971(6)
C1 C 0.2931(7) 0.9547(17) 0.2876(7)
O20 O 0.5064(5) 1.1934(14) 0.4202(5)
O21 O 0.3372(6) 0.9426(15) 0.3395(6)
C2 C 0.3040(7) 1.0567(18) 0.2456(7)
O22 O 0.4445(6) 1.0658(15) 0.4420(6)
O23 O 0.3301(5) 1.5266(14) 0.1585(5)
O24 O 0.4911(6) 1.1257(16) 0.5820(6)
O25 O 0.0743(6) 0.5139(15) 0.3747(6)
O26 O 0.3628(5) 0.7538(12) 0.5136(5)
O27 O 0.4069(6) 0.7213(15) 0.4278(6)
C3 C 0.2573(8) 1.111(2) 0.1929(8)
H1 H 0.21830 1.07750 0.18090
C4 C 0.5035(6) 1.0013(18) 0.5736(7)
C5 C 0.3317(7) 1.4041(18) 0.1401(7)
C6 C 0.5680(7) 0.9644(18) 0.5904(7)
C7 C 0.3619(7) 1.1064(18) 0.2620(7)
H2 H 0.39420 1.07070 0.29750
C8 C 0.3239(7) 1.2699(16) 0.1745(7)
O28 O 0.5340(5) 0.8192(12) 0.6690(5)
C9 C 0.6850(7) 0.9072(19) 0.6098(7)
H3 H 0.72400 0.88910 0.61680
C10 C 0.6485(7) 1.0066(19) 0.5659(7)
C11 C 0.5908(7) 1.0383(18) 0.5565(7)
H4 H 0.56710 1.10900 0.52740
C12 C 0.6632(8) 0.835(2) 0.6431(8)
H5 H 0.68830 0.76820 0.67320
C13 C 0.6037(7) 0.8581(18) 0.6332(7)
C14 C 0.3723(6) 1.2078(17) 0.2266(7)
C15 C 0.5838(7) 0.7792(17) 0.6734(7)
C16 C 0.4768(9) 1.075(2) 0.4174(9)
C17 C 0.4374(7) 1.2530(17) 0.2460(7)
C18 C 0.6674(7) 1.0847(19) 0.5247(7)
C19 C 0.2669(9) 1.212(2) 0.1578(9)
H6 H 0.23450 1.24370 0.12160
N1 N 0.5466(9) 0.249(2) 0.7510(9)
C20 C 0.5519(12) 0.317(3) 0.8084(13)
C21 C 0.4960(13) 0.138(3) 0.7272(13)
C22 C 0.4845(16) 0.321(4) 0.7936(16)
C23 C 0.4490(17) 0.212(4) 0.7406(18)
C24 C 0.5380(14) 0.375(4) 0.7094(15)
H7 H 0.57210 0.44170 0.72760
H8 H 0.53410 0.33570 0.67230
H9 H 0.50220 0.43000 0.70130
C25 C 0.6045(15) 0.163(4) 0.7687(16)
H10 H 0.60830 0.08240 0.79570
H11 H 0.60380 0.12230 0.73330
H12 H 0.63810 0.23100 0.78850
N2 N 0.3139(8) 0.475(2) 0.3573(8)
C26 C 0.2829(14) 0.334(3) 0.3439(14)
H13 H 0.27560 0.30650 0.37650
H14 H 0.24520 0.34380 0.30740
H15 H 0.30700 0.25790 0.33880
C27 C 0.3245(12) 0.515(3) 0.3066(12)
H16 H 0.34540 0.60970 0.31480
H17 H 0.34830 0.43730 0.30170
H18 H 0.28660 0.52320 0.27030
C28 C 0.2072(17) 1.188(4) 0.4604(18)
H19 H 0.20350 1.19930 0.42100
H20 H 0.18780 1.09620 0.46200
H21 H 0.18850 1.27280 0.46860
N3 N 0.2680(11) 1.183(3) 0.5035(12)
C29 C 0.2820(19) 1.166(5) 0.5673(18)
H22 H 0.32490 1.16320 0.59280
H23 H 0.26550 1.24960 0.57850
H24 H 0.26480 1.07300 0.57190
O29 O 0.4187(11) 0.368(3) 0.4670(12)
H25 H 0.417(11) 0.32(3) 0.494(9)
H26 H 0.448(8) 0.33(3) 0.464(11)
O30 O 0.3866(13) 1.298(3) 0.5486(14)
H27 H 0.397(9) 1.34(2) 0.582(5)
H28 H 0.349(3) 1.28(3) 0.534(9)
H29? H 0.21830 1.07750 0.18090
H30? H 0.39420 1.07070 0.29750
H31? H 0.72400 0.88910 0.61680
H32? H 0.68830 0.76820 0.67320
H33? H 0.56710 1.10900 0.52740
H34? H 0.23450 1.24370 0.12160
U1C U 0.68647(2) 0.70378(7) 0.81947(2)
U2A U 0.26680(2) 1.32004(6) -0.02006(2)
U2B U 0.76680(2) 1.17996(6) 0.47994(2)
U3B U 0.58068(2) 1.21649(7) 0.38274(2)
U5A U 0.43115(2) 1.24656(6) 0.10902(2)
O5C O 0.1172(5) 0.8255(12) 0.2069(5)
O7B O 0.2164(5) 0.5447(13) 0.5274(5)
O8A O 0.3396(5) 0.6304(13) 0.5943(5)
O11B O 0.1336(5) 0.6874(13) 0.4898(5)
O12B O -0.0249(6) 0.7263(16) 0.2996(7)
O17A O 0.4489(5) 0.6844(12) 0.7078(5)
O20B O 0.0064(5) 0.6934(14) 0.4202(5)
#END
