
#######################################################################
#
#                 Cambridge Crystallographic Data Centre
#                                CCDC
#
#######################################################################
#
# If this CIF has been generated from an entry in the Cambridge
# Structural Database, then it will include bibliographic, chemical,
# crystal, experimental, refinement or atomic coordinate data resulting
# from the CCDC's data processing and validation procedures.
#
#######################################################################

data_CSD_CIF_COWZOG
_audit_creation_date 2019-12-02
_audit_creation_method CSD-ConQuest-V1
_database_code_CSD COWZOG
_database_code_depnum_ccdc_archive 'CCDC 1956682'
_chemical_formula_sum 'C34 H48 N2 O17 U2'
_chemical_formula_moiety
;
(C18 H8 O17 U2 2-)n,2(C8 H20 N1 1+)
;
_journal_coden_Cambridge 222
_journal_volume 49
_journal_year 2020
_journal_page_first 3676
_journal_name_full 'Dalton Trans. '
loop_
_publ_author_name
"Yugang Zhang"
"Lanhua Chen"
"Jingwen Guan"
"Xia Wang"
"Shuao Wang"
"Juan Diwu"
_chemical_name_systematic
;
catena-(bis(tetraethylammonium) 
bis(\m-benzene-1,2,4-tricarboxylato)-aqua-tetraoxo-di-uranium)
;
_cell_volume   4349.898
_exptl_crystal_colour 'yellow'
_exptl_crystal_density_diffrn 1.878
_exptl_crystal_description 'bulk'
_diffrn_ambient_temperature 298
#These two values have been output from a single CSD field.
_refine_ls_R_factor_gt 0.0371
_refine_ls_wR_factor_gt 0.0371
_symmetry_cell_setting monoclinic
_symmetry_space_group_name_H-M 'P 21/n'
_symmetry_Int_Tables_number 14
loop_
_symmetry_equiv_pos_site_id
_symmetry_equiv_pos_as_xyz
1 x,y,z
2 1/2-x,1/2+y,1/2-z
3 -x,-y,-z
4 -1/2+x,-1/2-y,-1/2+z
_cell_length_a 9.8823(13)
_cell_length_b 15.971(2)
_cell_length_c 27.569(3)
_cell_angle_alpha 90
_cell_angle_beta 91.413(4)
_cell_angle_gamma 90
_cell_formula_units_Z 4
loop_
_atom_type_symbol
_atom_type_radius_bond
C 0.68
H 0.23
N 0.68
O 0.68
U 1.96
loop_
_atom_site_label
_atom_site_type_symbol
_atom_site_fract_x
_atom_site_fract_y
_atom_site_fract_z
U1 U 0.63052(2) 0.73203(2) 0.44875(2)
U2 U 0.32842(2) 0.79366(2) 0.24276(2)
O1 O 0.4922(4) 0.6681(3) 0.38255(15)
O2 O 0.4078(5) 0.5343(3) 0.29923(16)
O3 O 0.4008(4) 0.6666(3) 0.27521(15)
O4 O 0.1180(6) 0.3390(3) 0.17416(17)
O5 O 0.3843(4) 0.7371(3) 0.43788(17)
O6 O -0.1170(4) 0.7193(3) 0.44803(17)
O7 O 0.1584(7) 0.7715(3) 0.11479(19)
O8 O -0.2319(4) 0.6547(3) 0.39200(18)
O9 O 0.2429(5) 0.6960(4) 0.01847(18)
O10 O 0.6462(5) 0.8236(3) 0.41363(17)
O11 O 0.1884(6) 0.4354(3) 0.22573(16)
O12 O 0.2908(6) 0.7192(3) 0.17293(19)
C1 C 0.3834(5) 0.6930(4) 0.4000(2)
O13 O 0.6146(5) 0.6404(3) 0.48405(16)
O14 O 0.4960(5) 0.8159(4) 0.2251(2)
C2 C 0.3618(5) 0.6042(4) 0.30132(19)
O15 O 0.2361(6) 0.8913(3) 0.18083(17)
H1 H 0.20650 0.86460 0.15750
C3 C 0.2504(5) 0.6674(3) 0.37711(19)
C4 C 0.1365(6) 0.6035(4) 0.0742(2)
C5 C 0.1340(7) 0.6665(4) 0.0332(2)
C6 C 0.2105(7) 0.7124(4) 0.1363(2)
C7 C 0.0040(6) 0.6091(4) 0.3419(2)
H2 H -0.07820 0.58800 0.33020
O16 O 0.0240(5) 0.6830(3) 0.01247(16)
C8 C 0.1765(6) 0.6245(4) 0.1221(2)
C9 C 0.1518(8) 0.4139(4) 0.1831(2)
C10 C 0.1329(5) 0.6848(4) 0.4021(2)
H3 H 0.13760 0.71560 0.43070
C11 C 0.0061(5) 0.6555(4) 0.3837(2)
C12 C 0.2406(5) 0.6217(3) 0.33354(18)
C13 C -0.1192(5) 0.6770(4) 0.4094(2)
C14 C 0.1189(6) 0.5927(4) 0.3168(2)
H4 H 0.11360 0.56170 0.28820
C15 C 0.1786(7) 0.5606(4) 0.1562(2)
H5 H 0.20490 0.57300 0.18800
C16 C 0.1432(7) 0.4795(4) 0.1448(2)
C17 C 0.1098(7) 0.4586(5) 0.0976(2)
H6 H 0.09040 0.40330 0.08950
O17 O 0.1612(5) 0.7726(3) 0.2601(2)
C18 C 0.1050(8) 0.5199(5) 0.0621(2)
H7 H 0.08110 0.50590 0.03030
N1 N 0.8609(6) 0.9686(6) 0.3264(3)
C19 C 0.9382(10) 1.0437(8) 0.3149(4)
H8 H 0.99140 1.04530 0.28750
C20 C 0.8954(11) 0.9347(11) 0.3775(4)
H9 H 0.84840 0.88180 0.38090
H10 H 0.85730 0.97310 0.40070
C21 C 0.7077(10) 0.9797(9) 0.3271(5)
H11 H 0.68510 1.02100 0.35150
H12 H 0.66570 0.92710 0.33580
C22 C 1.0378(16) 0.9209(15) 0.3919(7)
H13 H 1.04280 0.89970 0.42450
H14 H 1.07730 0.88100 0.37040
H15 H 1.08630 0.97280 0.39030
C23 C 0.841(2) 0.8232(16) 0.2927(7)
H16 H 0.87820 0.78820 0.26810
H17 H 0.85710 0.79820 0.32390
H18 H 0.74500 0.82900 0.28690
C24 C 0.9029(18) 0.9034(12) 0.2914(6)
H19 H 0.96900 0.91500 0.26890
C25 C 0.9305(17) 1.1170(11) 0.3474(6)
H20 H 0.98620 1.16120 0.33530
H21 H 0.83840 1.13580 0.34860
H22 H 0.96200 1.10150 0.37930
C26 C 0.6517(19) 1.0088(17) 0.2764(7)
H23 H 0.55530 1.01550 0.27750
H24 H 0.69240 1.06130 0.26800
H25 H 0.67300 0.96760 0.25240
N2 N 0.2624(9) 0.6120(5) 0.5834(3)
C27 C 0.4968(10) 0.5423(7) 0.5802(4)
H26 H 0.54870 0.49600 0.59280
H27 H 0.48990 0.53830 0.54550
H28 H 0.54070 0.59390 0.58910
C28 C 0.2626(13) 0.6172(7) 0.5298(4)
H29 H 0.35480 0.62720 0.52010
H30 H 0.20950 0.66580 0.52000
C29 C 0.2067(13) 0.5394(9) 0.5007(5)
H31 H 0.21190 0.55010 0.46650
H32 H 0.26000 0.49090 0.50890
H33 H 0.11420 0.52960 0.50890
C30 C 0.3617(15) 0.5404(7) 0.6002(4)
H34 H 0.37100 0.54250 0.63530
H35 H 0.32040 0.48710 0.59180
C31 C 0.1306(15) 0.5944(13) 0.6032(6)
H36 H 0.13890 0.59340 0.63830
H37 H 0.10140 0.53930 0.59250
C32 C 0.3261(14) 0.6941(7) 0.6035(5)
H38 H 0.41470 0.70150 0.58970
H39 H 0.27010 0.74110 0.59310
C33 C 0.3412(17) 0.6951(12) 0.6601(6)
H40 H 0.38100 0.74720 0.67050
H41 H 0.25360 0.68920 0.67400
H42 H 0.39830 0.64960 0.67060
C34 C 0.0306(18) 0.6539(15) 0.5892(7)
H43 H -0.05400 0.63920 0.60330
H44 H 0.05780 0.70850 0.60030
H45 H 0.02030 0.65440 0.55450
U1* U -0.36948(2) 0.73203(2) 0.44875(2)
U1C U 0.13052(2) 0.76797(2) -0.05125(2)
U2A U 0.17158(2) 0.29366(2) 0.25724(2)
O4A O 0.3820(6) 0.8390(3) 0.32584(17)
O6* O 0.8830(4) 0.7193(3) 0.44803(17)
O8* O 0.7681(4) 0.6547(3) 0.39200(18)
O9C O 0.7429(5) 0.8040(4) 0.51847(18)
O11A O 0.3116(6) 0.9354(3) 0.27427(16)
O16C O 0.5240(5) 0.8170(3) 0.51247(16)
#END
