
#######################################################################
#
#                 Cambridge Crystallographic Data Centre
#                                CCDC
#
#######################################################################
#
# If this CIF has been generated from an entry in the Cambridge
# Structural Database, then it will include bibliographic, chemical,
# crystal, experimental, refinement or atomic coordinate data resulting
# from the CCDC's data processing and validation procedures.
#
#######################################################################

data_CSD_CIF_COXFOL
_audit_creation_date 2009-11-04
_audit_creation_method CSD-ConQuest-V1
_database_code_CSD COXFOL
_database_code_depnum_ccdc_archive 'CCDC 642848'
_chemical_formula_sum 'C52 H49 Co6 N2 O29.5'
_chemical_formula_moiety
;
(C2 H8 N1 1+)2n,n(C48 H28 Co6 O27 2-),2.5n(H2 O1)
;
_journal_coden_Cambridge 1147
_journal_volume 9
_journal_year 2009
_journal_page_first 1271
_journal_name_full 'Cryst.Growth Des. '
loop_
_publ_author_name
"Feng Luo"
"Ji-min Zheng"
"G.J.Long"
_chemical_name_systematic
;
catena-(bis(Dimethylammonium) 
bis((\m~5~-1,3-benzenedicarboxylato)-(\m~4~-1,3-benzenedicarboxylato)-(\m~3~-h
ydroxo))-(\m~3~-1,3-benzenedicarboxylato-O,O',O'',O''')-(\m~3~-1,3-benzenedica
rboxylato-O,O',O'')-aqua-hexa-cobalt(ii) hydrate)
;
_cell_volume   6359.032
_exptl_crystal_colour 'purple'
_exptl_crystal_density_diffrn 1.58
_exptl_special_details
;
magnetic properties

;
_exptl_crystal_description 'block'
_diffrn_ambient_temperature 293
_refine_special_details
;
An unspecified number of disordered lattice water molecules were not modelled 
and the disordered density was taken into account using the SQUEEZE/PLATON 
procedure.
;
#These two values have been output from a single CSD field.
_refine_ls_R_factor_gt 0.1035
_refine_ls_wR_factor_gt 0.1035
_symmetry_cell_setting monoclinic
_symmetry_space_group_name_H-M 'P 21/c'
_symmetry_Int_Tables_number 14
loop_
_symmetry_equiv_pos_site_id
_symmetry_equiv_pos_as_xyz
1 x,y,z
2 -x,1/2+y,1/2-z
3 -x,-y,-z
4 x,-1/2-y,-1/2+z
_cell_length_a 22.787(5)
_cell_length_b 10.590(2)
_cell_length_c 27.675(5)
_cell_angle_alpha 90
_cell_angle_beta 107.79(3)
_cell_angle_gamma 90
_cell_formula_units_Z 4
loop_
_atom_type_symbol
_atom_type_radius_bond
C 0.68
H 0.23
Co 1.31
N 0.68
O 0.68
loop_
_atom_site_label
_atom_site_type_symbol
_atom_site_fract_x
_atom_site_fract_y
_atom_site_fract_z
C1 C 0.5410(6) 0.3890(14) 0.9618(5)
H1 H 0.54430 0.38150 0.99600
C2 C 0.1431(6) 0.1567(12) 0.9468(4)
C3 C 0.3579(5) 0.1781(11) 1.0578(4)
H2 H 0.32960 0.23710 1.06200
C4 C 0.2177(5) 0.594(1) 0.7517(4)
C5 C 0.3687(4) 0.1658(9) 1.0114(3)
C6 C 0.2802(4) 0.8158(8) 0.8692(3)
H3 H 0.23940 0.80380 0.86810
C7 C -0.0915(4) 0.6631(9) 0.7459(3)
C8 C 0.1974(5) 0.8096(11) 0.7309(4)
C9 C 0.3344(5) 0.2470(11) 0.9665(4)
C10 C 0.2993(4) 0.9334(8) 0.8579(3)
C11 C 0.2326(5) 0.7054(10) 0.7331(4)
H4 H 0.26710 0.70950 0.72200
C12 C 0.1585(5) 0.1532(10) 1.0857(3)
C13 C 0.2997(5) 0.5855(10) 0.8915(4)
C14 C 0.2569(5) 0.4833(10) 0.7548(3)
C15 C 0.2561(4) 1.0415(9) 0.8431(3)
C16 C 0.3214(5) 0.7154(9) 0.8821(3)
C17 C 0.1338(4) 0.1243(9) 0.9962(3)
C18 C 0.0914(5) 0.4477(11) 0.8700(4)
C19 C 0.1668(4) 0.1816(9) 1.0401(3)
H5 H 0.19590 0.24210 1.03900
C20 C -0.0031(4) 0.5521(9) 0.8085(3)
H6 H 0.00080 0.49800 0.78320
C21 C 0.1922(5) 0.2294(10) 1.1324(4)
C22 C 0.4259(5) 0.3405(11) 0.8334(4)
C23 C -0.0494(4) 0.6433(9) 0.7980(3)
C24 C 0.0374(4) 0.5438(8) 0.8580(3)
C25 C 0.4087(5) 0.0723(10) 1.0046(4)
H7 H 0.41450 0.06290 0.97300
C26 C 0.3895(6) 0.1019(15) 1.0980(4)
C27 C 0.1657(5) 0.5889(13) 0.7685(5)
H8 H 0.15540 0.51310 0.78090
C28 C 0.2157(5) 0.9336(11) 0.7123(3)
C29 C 0.4836(5) 0.3732(9) 0.8742(4)
C30 C 0.1177(5) 0.0582(10) 1.0882(4)
H9 H 0.11220 0.03710 1.11920
C31 C 0.5334(4) 0.4119(8) 0.8615(4)
H10 H 0.53050 0.41670 0.82730
C32 C 0.3820(5) 0.7371(10) 0.8851(4)
H11 H 0.41000 0.67050 0.89330
C33 C 0.3606(5) 0.9521(9) 0.8625(4)
H12 H 0.37400 1.03170 0.85620
C34 C 0.0926(5) 0.0302(11) 0.9977(4)
H13 H 0.06990 -0.00950 0.96790
C35 C 0.0849(5) -0.0055(10) 1.0441(4)
H14 H 0.05820 -0.07090 1.04550
C36 C 0.4023(5) 0.8544(11) 0.8762(5)
H15 H 0.44370 0.86770 0.87950
C37 C 0.5890(5) 0.4451(10) 0.8974(4)
C38 C 0.4305(7) 0.0079(14) 1.0914(5)
H16 H 0.45120 -0.04420 1.11830
C39 C 0.0319(6) 0.6270(13) 0.8951(4)
H17 H 0.06000 0.62280 0.92750
C40 C 0.6403(5) 0.4932(12) 0.8800(6)
C41 C 0.4396(5) -0.0060(12) 1.0435(5)
H18 H 0.46620 -0.06740 1.03840
C42 C 0.4871(5) 0.3558(12) 0.9252(4)
H19 H 0.45400 0.32270 0.93410
C43 C 0.3714(11) 0.130(3) 1.1477(4)
C44 C 0.5911(6) 0.4343(12) 0.9472(4)
H20 H 0.62700 0.45790 0.97230
C45 C -0.0133(6) 0.7135(15) 0.8852(5)
H21 H -0.01820 0.76560 0.91080
C46 C 0.1467(6) 0.8009(12) 0.7488(5)
H22 H 0.12290 0.87250 0.74830
C47 C 0.1307(6) 0.6898(15) 0.7671(5)
H23 H 0.09610 0.68540 0.77830
C48 C -0.0527(6) 0.7235(13) 0.8359(5)
H24 H -0.08230 0.78700 0.82830
C49 C 0.6052(13) 0.239(3) 0.7830(17)
H25 H 0.63400 0.23870 0.76390
H26 H 0.62300 0.19590 0.81470
H27 H 0.59570 0.32430 0.78950
C50 C 0.5068(10) 0.206(2) 0.7001(10)
H28 H 0.46600 0.17270 0.69420
H29 H 0.52460 0.17170 0.67570
H30 H 0.50470 0.29640 0.69690
C51 C 0.1662(12) 0.802(3) 0.9354(14)
H31 H 0.15630 0.74350 0.90750
H32 H 0.16970 0.88530 0.92330
H33 H 0.13410 0.80000 0.95130
C52 C 0.2776(15) 0.864(2) 0.9963(10)
H34 H 0.27020 0.92720 0.97020
H35 H 0.31920 0.83410 1.00400
H36 H 0.27160 0.90050 1.02620
Co1 Co 0.22264(6) 0.40893(12) 0.93433(4)
Co2 Co 0.14803(6) 0.19679(12) 0.85126(5)
Co3 Co 0.30107(5) 0.30934(11) 0.85823(4)
Co4 Co -0.21954(6) 0.70835(11) 0.75657(4)
Co5 Co 0.35256(6) 0.16069(14) 1.23143(5)
Co6 Co 0.28869(6) 0.41500(13) 1.16707(5)
H37 H 0.198(2) 0.384(4) 0.8444(16)
H38 H -0.318(2) 0.638(4) 0.7403(12)
N1 N 0.2348(10) 0.7588(14) 0.9788(9)
H39 H 0.22700 0.72360 1.00580
H40 H 0.25300 0.69990 0.96480
N2 N 0.5462(15) 0.171(2) 0.7528(11)
H41 H 0.55670 0.08960 0.75120
H42 H 0.52110 0.17300 0.77240
O1 O 0.2193(3) 0.4960(7) 1.0023(2)
O2 O 0.2164(2) 0.3289(6) 0.8657(2)
O3 O -0.0787(3) 0.6118(6) 0.7089(2)
O4 O -0.1392(3) 0.7314(6) 0.7373(2)
O5 O 0.0847(3) 0.3552(7) 0.8411(2)
O6 O 0.1361(3) 0.4794(7) 0.9077(3)
O7 O 0.1909(3) 0.1950(6) 1.1749(2)
O8 O 0.2182(4) 0.3292(6) 1.1231(3)
O9 O 0.1122(4) 0.1160(8) 0.9063(3)
O10 O 0.1889(5) 0.2274(9) 0.9489(3)
O11 O 0.3827(3) 0.2811(6) 0.8427(3)
O12 O 0.4254(4) 0.3669(11) 0.7890(3)
O13 O 0.6935(4) 0.4929(10) 0.9083(3)
O14 O 0.6282(4) 0.5264(7) 0.8350(4)
O15 O 0.3369(3) 0.2148(6) 0.9242(2)
O16 O 0.3052(3) 0.3403(7) 0.9760(3)
O17 O 0.2594(3) 0.5780(6) 0.9137(3)
O18 O 0.3251(3) 0.4948(5) 0.8774(2)
O19 O 0.2079(3) 1.0400(6) 0.8568(2)
O20 O 0.2702(2) 1.1334(5) 0.8189(2)
O21 O 0.2985(3) 0.4874(6) 0.7332(3)
O22 O 0.2488(3) 0.3826(5) 0.7782(2)
O23 O 0.2548(3) 0.9252(6) 0.6890(3)
O24 O 0.1902(3) 1.0315(6) 0.7204(2)
O25 O 0.4062(5) 0.0471(16) 1.1840(4)
O26 O 0.3388(9) 0.1901(15) 1.1546(6)
O27 O -0.3062(3) 0.6798(6) 0.7675(2)
O28 O 0.4644(12) 0.037(4) 0.7724(8)
O29 O 1.0012(11) 0.141(2) 0.4754(10)
O30 O 0.1099(14) 0.494(2) 0.0404(10)
O31 O 0.9811(8) 0.346(4) 0.3577(12)
Co2A Co -0.14803(6) 0.69679(12) 0.64874(5)
Co2* Co 0.14803(6) 1.19679(12) 0.85126(5)
Co3* Co 0.30107(5) 1.30934(11) 0.85823(4)
Co4B Co 0.21954(6) 0.29165(11) 1.24343(4)
Co4A Co 0.21954(6) 1.20835(11) 0.74343(4)
Co4A* Co 0.21954(6) 0.20835(11) 0.74343(4)
Co5C Co 0.35256(6) 0.33931(14) 0.73143(5)
Co5B Co -0.35256(6) 0.83931(14) 0.76857(5)
Co6B Co 0.71131(6) 0.58500(13) 0.83293(5)
Co6C Co 0.28869(6) 1.08500(13) 0.66707(5)
Co6B* Co -0.28869(6) 0.58500(13) 0.83293(5)
H38B H 0.318(2) 0.362(4) 1.2597(12)
O3A O 0.0787(3) 0.1118(6) 0.7911(2)
O7B O -0.1909(3) 0.8050(6) 0.8251(2)
O12C O 0.4254(4) 0.1331(11) 1.2890(3)
O14B O 0.3718(4) 0.4736(7) 1.1650(4)
O19* O 0.2079(3) 0.0400(6) 0.8568(2)
O20* O 0.2702(2) 0.1334(5) 0.8189(2)
O20A O -0.2702(2) 0.6334(5) 0.6811(2)
O21C O 0.2985(3) 0.0126(6) 1.2332(3)
O22A O -0.2488(3) 0.8826(5) 0.7218(2)
O23C O 0.2548(3) 0.5748(6) 1.1890(3)
O24A O -0.1902(3) 0.5315(6) 0.7796(2)
O27B O 0.3062(3) 0.3202(6) 1.2325(2)
#END
