
#######################################################################
#
#                 Cambridge Crystallographic Data Centre
#                                CCDC
#
#######################################################################
#
# If this CIF has been generated from an entry in the Cambridge
# Structural Database, then it will include bibliographic, chemical,
# crystal, experimental, refinement or atomic coordinate data resulting
# from the CCDC's data processing and validation procedures.
#
#######################################################################

data_CSD_CIF_COXHIH
_audit_creation_date 2009-11-04
_audit_creation_method CSD-ConQuest-V1
_database_code_CSD COXHIH
_database_code_depnum_ccdc_archive 'CCDC 728772'
_chemical_formula_sum 'C36 H96 N12 Ni4 O40 S4'
_chemical_formula_moiety
;
(C2 H8 N1 1+)12n,n(C12 Ni4 O24 4-),4n(O4 S1 2-)
;
_journal_coden_Cambridge 1147
_journal_volume 9
_journal_year 2009
_journal_page_first 1702
_journal_name_full 'Cryst.Growth Des. '
loop_
_publ_author_name
"Cui-Rui Li"
"Shi-Li Li"
"Xian-Ming Zhang"
_chemical_name_systematic
;
catena-(dodecakis(Dimethylammonium) hexakis(\m~2~-oxalato)-tetra-nickel 
tetrasulfate)
;
_cell_volume   3588.956
_exptl_crystal_colour 'green'
_exptl_crystal_density_diffrn 1.573
_exptl_special_details
;
isostructural with the iron and cobalt analogues

;
_exptl_crystal_description 'cubic'
_exptl_crystal_preparation 'dmf'
_diffrn_ambient_temperature 298
_refine_special_details
;
The sulfate ion is disordered by symmetry.

;
#These two values have been output from a single CSD field.
_refine_ls_R_factor_gt 0.0381
_refine_ls_wR_factor_gt 0.0381
_symmetry_cell_setting cubic
_symmetry_space_group_name_H-M 'I 41 3 2'
_symmetry_Int_Tables_number 214
loop_
_symmetry_equiv_pos_site_id
_symmetry_equiv_pos_as_xyz
1 x,y,z
2 1/2-x,-y,1/2+z
3 -x,1/2+y,1/2-z
4 1/2+x,1/2-y,-z
5 z,x,y
6 1/2+z,1/2-x,-y
7 1/2-z,-x,1/2+y
8 -z,1/2+x,1/2-y
9 y,z,x
10 -y,1/2+z,1/2-x
11 1/2+y,1/2-z,-x
12 1/2-y,-z,1/2+x
13 3/4+y,1/4+x,1/4-z
14 3/4-y,3/4-x,3/4-z
15 1/4+y,1/4-x,3/4+z
16 1/4-y,3/4+x,1/4+z
17 3/4+x,1/4+z,1/4-y
18 1/4-x,3/4+z,1/4+y
19 3/4-x,3/4-z,3/4-y
20 1/4+x,1/4-z,3/4+y
21 3/4+z,1/4+y,1/4-x
22 1/4+z,1/4-y,3/4+x
23 1/4-z,3/4+y,1/4+x
24 3/4-z,3/4-y,3/4-x
25 1/2+x,1/2+y,1/2+z
26 -x,1/2-y,z
27 1/2-x,y,-z
28 x,-y,1/2-z
29 1/2+z,1/2+x,1/2+y
30 z,-x,1/2-y
31 -z,1/2-x,y
32 1/2-z,x,-y
33 1/2+y,1/2+z,1/2+x
34 1/2-y,z,-x
35 y,-z,1/2-x
36 -y,1/2-z,x
37 1/4+y,3/4+x,3/4-z
38 1/4-y,1/4-x,1/4-z
39 3/4+y,3/4-x,1/4+z
40 3/4-y,1/4+x,3/4+z
41 1/4+x,3/4+z,3/4-y
42 3/4-x,1/4+z,3/4+y
43 1/4-x,1/4-z,1/4-y
44 3/4+x,3/4-z,1/4+y
45 1/4+z,3/4+y,3/4-x
46 3/4+z,3/4-y,1/4+x
47 3/4-z,1/4+y,3/4+x
48 1/4-z,1/4-y,1/4-x
_cell_length_a 15.3105(5)
_cell_length_b 15.3105(5)
_cell_length_c 15.3105(5)
_cell_angle_alpha 90
_cell_angle_beta 90
_cell_angle_gamma 90
_cell_formula_units_Z 2
loop_
_atom_type_symbol
_atom_type_radius_bond
C 0.68
H 0.23
N 0.68
Ni 1.24
O 0.53
S 1.02
loop_
_atom_site_label
_atom_site_type_symbol
_atom_site_fract_x
_atom_site_fract_y
_atom_site_fract_z
S1 S 0.87500 0.62500 0.37500
O1 O 0.9227(4) 0.6795(3) 0.4373(3)
N1 N 0.89275(19) 0.85725(19) 0.37500
H1 H 0.88420 0.79950 0.38160
H2 H 0.95050 0.86580 0.36840
C1 C 0.8660(6) 0.8994(5) 0.4521(5)
H3 H 0.89840 0.87660 0.50070
H4 H 0.80480 0.88940 0.46130
H5 H 0.87660 0.96100 0.44700
Ni1 Ni 0.87500 0.87500 0.87500
O2 O 0.87416(13) 0.88692(11) 0.73964(11)
C2 C 0.87500 0.96423(15) 0.71423(15)
O3? O 0.9303(4) 0.5697(4) 0.4303(4)
O1E O 0.9373(4) 0.5773(3) 0.3205(3)
O1K O 0.8205(4) 0.5627(3) 0.4227(3)
O1JA O 0.9295(4) 0.6727(3) 0.3127(3)
O1OA O 0.8273(4) 0.6873(3) 0.4295(3)
O1UA O 0.8127(4) 0.5705(3) 0.3273(3)
C1M C 0.8506(6) 0.8840(5) 0.2979(5)
H3M H 0.87340 0.85160 0.24930
H4M H 0.86060 0.94520 0.28870
H5M H 0.78900 0.87340 0.30300
Ni1AA Ni 0.87500 1.12500 0.62500
Ni1Z Ni 0.62500 0.87500 1.12500
Ni1Y Ni 1.12500 0.62500 0.87500
Ni1B Ni 1.12500 1.37500 0.62500
Ni1A Ni 0.62500 1.12500 0.37500
Ni1A* Ni 0.62500 1.12500 1.37500
O2OA O 0.87584(13) 0.98964(11) 0.63692(11)
O2R O 0.87584(13) 1.01036(11) 0.86308(11)
O2AA O 0.87416(13) 1.11308(11) 0.76036(11)
O2D O 0.73964(13) 0.87416(11) 0.88692(11)
O2LA O 0.63692(13) 0.87584(11) 0.98964(11)
O2M O 0.86308(13) 0.87584(11) 1.01036(11)
O2EA O 0.76036(13) 0.87416(11) 1.11308(11)
O2H O 0.88692(13) 0.73964(11) 0.87416(11)
O2RA O 0.98964(13) 0.63692(11) 0.87584(11)
O2W O 1.01036(13) 0.86308(11) 0.87584(11)
O2IA O 1.11308(13) 0.76036(11) 0.87416(11)
O2TA O 1.01036(13) 1.13692(11) 0.62416(11)
O2I O 1.11308(13) 1.23964(11) 0.62584(11)
O2HA O 0.88692(13) 1.26036(11) 0.62584(11)
O2U O 0.98964(13) 1.36308(11) 0.62416(11)
O2MA O 0.86308(13) 1.12416(11) 0.48964(11)
O2F O 0.76036(13) 1.12584(11) 0.38692(11)
O2CA O 0.73964(13) 1.12584(11) 0.61308(11)
O2L O 0.63692(13) 1.12416(11) 0.51036(11)
O2QA O 0.62416(13) 1.01036(11) 1.13692(11)
O2A O 0.62584(13) 1.11308(11) 1.23964(11)
O2Z O 0.62584(13) 0.88692(11) 1.26036(11)
O2P O 0.62416(13) 0.98964(11) 1.36308(11)
O2SA O 0.48964(13) 0.86308(11) 1.12416(11)
O2GA O 0.61308(13) 0.73964(11) 1.12584(11)
O2JA O 1.13692(13) 0.62416(11) 1.01036(11)
O2NA O 1.12416(13) 0.48964(11) 0.86308(11)
O2DA O 1.26036(13) 0.62584(11) 0.88692(11)
O2Y O 1.12584(13) 0.61308(11) 0.73964(11)
C2R C 0.87500 1.03577(15) 0.78577(15)
C2D C 0.71423 0.87500(15) 0.96423(15)
C2M C 0.78577 0.87500(15) 1.03577(15)
C2H C 0.96423 0.71423(15) 0.87500(15)
C2W C 1.03577 0.78577(15) 0.87500(15)
C2I C 1.03577 1.21423(15) 0.62500(15)
C2U C 0.96423 1.28577(15) 0.62500(15)
C2F C 0.78577 1.12500(15) 0.46423(15)
C2L C 0.71423 1.12500(15) 0.53577(15)
C2A C 0.62500 1.03577(15) 1.21423(15)
C2P C 0.62500 0.96423(15) 1.28577(15)
#END
