
#######################################################################
#
#                 Cambridge Crystallographic Data Centre
#                                CCDC
#
#######################################################################
#
# If this CIF has been generated from an entry in the Cambridge
# Structural Database, then it will include bibliographic, chemical,
# crystal, experimental, refinement or atomic coordinate data resulting
# from the CCDC's data processing and validation procedures.
#
#######################################################################

data_CSD_CIF_COXHED
_audit_creation_date 2009-11-04
_audit_creation_method CSD-ConQuest-V1
_database_code_CSD COXHED
_database_code_depnum_ccdc_archive 'CCDC 728771'
_chemical_formula_sum 'C36 H96 Co4 N12 O40 S4'
_chemical_formula_moiety
;
(C2 H8 N1 1+)12n,n(C12 Co4 O24 4-),4n(O4 S1 2-)
;
_journal_coden_Cambridge 1147
_journal_volume 9
_journal_year 2009
_journal_page_first 1702
_journal_name_full 'Cryst.Growth Des. '
loop_
_publ_author_name
"Cui-Rui Li"
"Shi-Li Li"
"Xian-Ming Zhang"
_chemical_name_systematic
;
catena-(dodecakis(Dimethylammonium) hexakis(\m~2~-oxalato)-tetra-cobalt 
tetrasulfate)
;
_cell_volume   3689.314
_exptl_crystal_colour 'red'
_exptl_crystal_density_diffrn 1.531
_exptl_special_details
;
isostructural with the iron and nickel analogues

;
_exptl_crystal_description 'cubic'
_exptl_crystal_preparation 'dmf'
_diffrn_ambient_temperature 298
_refine_special_details
;
The sulfate ion is disordered by symmetry.

;
#These two values have been output from a single CSD field.
_refine_ls_R_factor_gt 0.0489
_refine_ls_wR_factor_gt 0.0489
_symmetry_cell_setting cubic
_symmetry_space_group_name_H-M 'I 41 3 2'
_symmetry_Int_Tables_number 214
loop_
_symmetry_equiv_pos_site_id
_symmetry_equiv_pos_as_xyz
1 x,y,z
2 1/2-x,-y,1/2+z
3 -x,1/2+y,1/2-z
4 1/2+x,1/2-y,-z
5 z,x,y
6 1/2+z,1/2-x,-y
7 1/2-z,-x,1/2+y
8 -z,1/2+x,1/2-y
9 y,z,x
10 -y,1/2+z,1/2-x
11 1/2+y,1/2-z,-x
12 1/2-y,-z,1/2+x
13 3/4+y,1/4+x,1/4-z
14 3/4-y,3/4-x,3/4-z
15 1/4+y,1/4-x,3/4+z
16 1/4-y,3/4+x,1/4+z
17 3/4+x,1/4+z,1/4-y
18 1/4-x,3/4+z,1/4+y
19 3/4-x,3/4-z,3/4-y
20 1/4+x,1/4-z,3/4+y
21 3/4+z,1/4+y,1/4-x
22 1/4+z,1/4-y,3/4+x
23 1/4-z,3/4+y,1/4+x
24 3/4-z,3/4-y,3/4-x
25 1/2+x,1/2+y,1/2+z
26 -x,1/2-y,z
27 1/2-x,y,-z
28 x,-y,1/2-z
29 1/2+z,1/2+x,1/2+y
30 z,-x,1/2-y
31 -z,1/2-x,y
32 1/2-z,x,-y
33 1/2+y,1/2+z,1/2+x
34 1/2-y,z,-x
35 y,-z,1/2-x
36 -y,1/2-z,x
37 1/4+y,3/4+x,3/4-z
38 1/4-y,1/4-x,1/4-z
39 3/4+y,3/4-x,1/4+z
40 3/4-y,1/4+x,3/4+z
41 1/4+x,3/4+z,3/4-y
42 3/4-x,1/4+z,3/4+y
43 1/4-x,1/4-z,1/4-y
44 3/4+x,3/4-z,1/4+y
45 1/4+z,3/4+y,3/4-x
46 3/4+z,3/4-y,1/4+x
47 3/4-z,1/4+y,3/4+x
48 1/4-z,1/4-y,1/4-x
_cell_length_a 15.4519(5)
_cell_length_b 15.4519(5)
_cell_length_c 15.4519(5)
_cell_angle_alpha 90
_cell_angle_beta 90
_cell_angle_gamma 90
_cell_formula_units_Z 2
loop_
_atom_type_symbol
_atom_type_radius_bond
C 0.68
H 0.23
Co 1.26
N 0.68
O 0.48
S 1.02
loop_
_atom_site_label
_atom_site_type_symbol
_atom_site_fract_x
_atom_site_fract_y
_atom_site_fract_z
S1 S 0.12500 0.37500 0.62500
O1 O 0.0778(5) 0.3224(5) 0.5615(4)
N1 N 0.1065(2) 0.1435(2) 0.62500
H1 H 0.11510 0.20070 0.61820
H2 H 0.04930 0.13490 0.63180
C1 C 0.1340(6) 0.1003(6) 0.5490(6)
H3 H 0.10250 0.12220 0.50010
H4 H 0.12340 0.03940 0.55490
H5 H 0.19480 0.11010 0.54050
Co1 Co 0.12500 -0.12500 0.37500
O2 O 0.12410(17) 0.01038(14) 0.36166(14)
C2 C 0.12500 0.03589(18) 0.28589(18)
O3? O 0.0712(4) 0.4288(4) 0.5712(4)
O1E O 0.0615(5) 0.4222(5) 0.6776(4)
O1K O 0.1776(5) 0.4385(5) 0.5778(4)
O1L O 0.0724(5) 0.3278(5) 0.6885(4)
O1Q O 0.1722(5) 0.3115(5) 0.5724(4)
O1W O 0.1885(5) 0.4276(5) 0.6722(4)
C1KA C 0.1497(6) 0.1160(6) 0.7010(6)
H3KA H 0.12780 0.14750 0.74990
H4KA H 0.21060 0.12660 0.69510
H5KA H 0.13990 0.05520 0.70950
Co1N Co 0.12500 0.12500 0.12500
Co1O Co 0.37500 -0.12500 0.62500
Co1M Co -0.12500 -0.37500 0.37500
Co1B Co -0.12500 0.37500 0.12500
Co1A Co 0.37500 0.12500 -0.12500
Co1A* Co 0.37500 0.12500 0.87500
O2Q O 0.12590(17) 0.11166(14) 0.26038(14)
O2AA O 0.12410(17) -0.01038(14) 0.13834(14)
O2PA O 0.12590(17) -0.11166(14) 0.23962(14)
O2F O 0.13834(17) -0.12410(14) 0.51038(14)
O2O O 0.23962(17) -0.12590(14) 0.61166(14)
O2CA O 0.36166(17) -0.12410(14) 0.48962(14)
O2JA O 0.26038(17) -0.12590(14) 0.38834(14)
O2I O -0.01038(17) -0.13834(14) 0.37590(14)
O2V O -0.11166(17) -0.23962(14) 0.37410(14)
O2HA O 0.01038(17) -0.36166(14) 0.37590(14)
O2SA O 0.11166(17) -0.26038(14) 0.37410(14)
O2T O 0.11166(17) 0.26038(14) 0.12590(14)
O2H O 0.01038(17) 0.36166(14) 0.12410(14)
O2UA O -0.11166(17) 0.23962(14) 0.12590(14)
O2IA O -0.01038(17) 0.13834(14) 0.12410(14)
O2N O 0.26038(17) 0.12590(14) 0.11166(14)
O2D O 0.36166(17) 0.12410(14) 0.01038(14)
O2KA O 0.23962(17) 0.12590(14) -0.11166(14)
O2EA O 0.13834(17) 0.12410(14) -0.01038(14)
O2S O 0.37410(17) -0.11166(14) 0.76038(14)
O2A O 0.37590(17) -0.01038(14) 0.86166(14)
O2NA O 0.37410(17) 0.11166(14) 0.73962(14)
O2Z O 0.37590(17) 0.01038(14) 0.63834(14)
O2W O 0.38834(17) -0.26038(14) 0.62590(14)
O2FA O 0.51038(17) -0.13834(14) 0.62410(14)
O2M O -0.26038(17) -0.37410(14) 0.38834(14)
O2P O -0.12590(17) -0.38834(14) 0.23962(14)
O2BA O -0.13834(17) -0.37590(14) 0.51038(14)
O2Y O -0.12410(17) -0.51038(14) 0.36166(14)
C2AA C 0.12500 -0.03589(18) 0.21411(18)
C2F C 0.21411 -0.12500(18) 0.53589(18)
C2CA C 0.28589 -0.12500(18) 0.46411(18)
C2I C -0.03589 -0.21411(18) 0.37500(18)
C2HA C 0.03589 -0.28589(18) 0.37500(18)
C2H C 0.03589 0.28589(18) 0.12500(18)
C2IA C -0.03589 0.21411(18) 0.12500(18)
C2D C 0.28589 0.12500(18) 0.03589(18)
C2EA C 0.21411 0.12500(18) -0.03589(18)
C2A C 0.37500 -0.03589(18) 0.78589(18)
C2Z C 0.37500 0.03589(18) 0.71411(18)
#END
