
#######################################################################
#
#                 Cambridge Crystallographic Data Centre
#                                CCDC
#
#######################################################################
#
# If this CIF has been generated from an entry in the Cambridge
# Structural Database, then it will include bibliographic, chemical,
# crystal, experimental, refinement or atomic coordinate data resulting
# from the CCDC's data processing and validation procedures.
#
#######################################################################

data_CSD_CIF_COXHON
_audit_creation_date 2009-11-04
_audit_creation_method CSD-ConQuest-V1
_database_code_CSD COXHON
_database_code_depnum_ccdc_archive 'CCDC 728823'
_chemical_formula_sum 'C36 H96 Fe4 N12 O40 S4'
_chemical_formula_moiety
;
(C2 H8 N1 1+)12n,n(C12 Fe4 O24 4-),4n(O4 S1 2-)
;
_journal_coden_Cambridge 1147
_journal_volume 9
_journal_year 2009
_journal_page_first 1702
_journal_name_full 'Cryst.Growth Des. '
loop_
_publ_author_name
"Cui-Rui Li"
"Shi-Li Li"
"Xian-Ming Zhang"
_chemical_name_systematic
;
catena-(dodecakis(Dimethylammonium) hexakis(\m~2~-oxalato)-tetra-iron 
tetrasulfate)
;
_cell_volume   3786.423
_exptl_crystal_colour 'yellow'
_exptl_crystal_density_diffrn 1.481
_exptl_special_details
;
isostructural with the cobalt and nickel analogues

;
_exptl_crystal_description 'cubic'
_exptl_crystal_preparation 'dmf'
_diffrn_ambient_temperature 298
_refine_special_details
;
The sulfate ion is disordered by symmetry.

;
#These two values have been output from a single CSD field.
_refine_ls_R_factor_gt 0.0413
_refine_ls_wR_factor_gt 0.0413
_symmetry_cell_setting cubic
_symmetry_space_group_name_H-M 'I 41 3 2'
_symmetry_Int_Tables_number 214
loop_
_symmetry_equiv_pos_site_id
_symmetry_equiv_pos_as_xyz
1 x,y,z
2 1/2-x,-y,1/2+z
3 -x,1/2+y,1/2-z
4 1/2+x,1/2-y,-z
5 z,x,y
6 1/2+z,1/2-x,-y
7 1/2-z,-x,1/2+y
8 -z,1/2+x,1/2-y
9 y,z,x
10 -y,1/2+z,1/2-x
11 1/2+y,1/2-z,-x
12 1/2-y,-z,1/2+x
13 3/4+y,1/4+x,1/4-z
14 3/4-y,3/4-x,3/4-z
15 1/4+y,1/4-x,3/4+z
16 1/4-y,3/4+x,1/4+z
17 3/4+x,1/4+z,1/4-y
18 1/4-x,3/4+z,1/4+y
19 3/4-x,3/4-z,3/4-y
20 1/4+x,1/4-z,3/4+y
21 3/4+z,1/4+y,1/4-x
22 1/4+z,1/4-y,3/4+x
23 1/4-z,3/4+y,1/4+x
24 3/4-z,3/4-y,3/4-x
25 1/2+x,1/2+y,1/2+z
26 -x,1/2-y,z
27 1/2-x,y,-z
28 x,-y,1/2-z
29 1/2+z,1/2+x,1/2+y
30 z,-x,1/2-y
31 -z,1/2-x,y
32 1/2-z,x,-y
33 1/2+y,1/2+z,1/2+x
34 1/2-y,z,-x
35 y,-z,1/2-x
36 -y,1/2-z,x
37 1/4+y,3/4+x,3/4-z
38 1/4-y,1/4-x,1/4-z
39 3/4+y,3/4-x,1/4+z
40 3/4-y,1/4+x,3/4+z
41 1/4+x,3/4+z,3/4-y
42 3/4-x,1/4+z,3/4+y
43 1/4-x,1/4-z,1/4-y
44 3/4+x,3/4-z,1/4+y
45 1/4+z,3/4+y,3/4-x
46 3/4+z,3/4-y,1/4+x
47 3/4-z,1/4+y,3/4+x
48 1/4-z,1/4-y,1/4-x
_cell_length_a 15.5863(6)
_cell_length_b 15.5863(6)
_cell_length_c 15.5863(6)
_cell_angle_alpha 90
_cell_angle_beta 90
_cell_angle_gamma 90
_cell_formula_units_Z 2
loop_
_atom_type_symbol
_atom_type_radius_bond
C 0.68
H 0.23
Fe 1.52
N 0.68
O 0.53
S 1.02
loop_
_atom_site_label
_atom_site_type_symbol
_atom_site_fract_x
_atom_site_fract_y
_atom_site_fract_z
S1 S 0.12500 0.37500 0.62500
O1 O 0.0783(4) 0.3237(3) 0.5606(3)
N1 N 0.10631(17) 0.14369(17) 0.62500
H1 H 0.11470 0.20040 0.61800
H2 H 0.04960 0.13530 0.63200
C1 C 0.1321(4) 0.1015(4) 0.5486(4)
H3 H 0.10020 0.12400 0.50100
H4 H 0.12130 0.04110 0.55390
H5 H 0.19230 0.11090 0.53940
Fe1 Fe 0.12500 -0.12500 0.37500
O2 O 0.12292(14) 0.01071(11) 0.36103(11)
C2 C 0.12500 0.03543(15) 0.28543(15)
O3? O 0.0725(3) 0.4275(3) 0.5725(3)
O1E O 0.0606(4) 0.4217(3) 0.6763(3)
O1K O 0.1763(4) 0.4394(3) 0.5783(3)
O1L O 0.0737(4) 0.3283(3) 0.6894(3)
O1Q O 0.1717(4) 0.3106(3) 0.5737(3)
O1W O 0.1894(4) 0.4263(3) 0.6717(3)
C1KA C 0.1485(4) 0.1179(4) 0.7014(4)
H3KA H 0.12600 0.14980 0.74900
H4KA H 0.20890 0.12870 0.69610
H5KA H 0.13910 0.05770 0.71060
Fe1N Fe 0.12500 0.12500 0.12500
Fe1O Fe 0.37500 -0.12500 0.62500
Fe1M Fe -0.12500 -0.37500 0.37500
Fe1B Fe -0.12500 0.37500 0.12500
Fe1A Fe 0.37500 0.12500 -0.12500
Fe1A* Fe 0.37500 0.12500 0.87500
O2Q O 0.12708(14) 0.11103(11) 0.26071(11)
O2AA O 0.12292(14) -0.01071(11) 0.13897(11)
O2PA O 0.12708(14) -0.11103(11) 0.23929(11)
O2F O 0.13897(14) -0.12292(11) 0.51071(11)
O2O O 0.23929(14) -0.12708(11) 0.61103(11)
O2CA O 0.36103(14) -0.12292(11) 0.48929(11)
O2JA O 0.26071(14) -0.12708(11) 0.38897(11)
O2I O -0.01071(14) -0.13897(11) 0.37708(11)
O2V O -0.11103(14) -0.23929(11) 0.37292(11)
O2HA O 0.01071(14) -0.36103(11) 0.37708(11)
O2SA O 0.11103(14) -0.26071(11) 0.37292(11)
O2T O 0.11103(14) 0.26071(11) 0.12708(11)
O2H O 0.01071(14) 0.36103(11) 0.12292(11)
O2UA O -0.11103(14) 0.23929(11) 0.12708(11)
O2IA O -0.01071(14) 0.13897(11) 0.12292(11)
O2N O 0.26071(14) 0.12708(11) 0.11103(11)
O2D O 0.36103(14) 0.12292(11) 0.01071(11)
O2KA O 0.23929(14) 0.12708(11) -0.11103(11)
O2EA O 0.13897(14) 0.12292(11) -0.01071(11)
O2S O 0.37292(14) -0.11103(11) 0.76071(11)
O2A O 0.37708(14) -0.01071(11) 0.86103(11)
O2NA O 0.37292(14) 0.11103(11) 0.73929(11)
O2Z O 0.37708(14) 0.01071(11) 0.63897(11)
O2W O 0.38897(14) -0.26071(11) 0.62708(11)
O2FA O 0.51071(14) -0.13897(11) 0.62292(11)
O2M O -0.26071(14) -0.37292(11) 0.38897(11)
O2P O -0.12708(14) -0.38897(11) 0.23929(11)
O2BA O -0.13897(14) -0.37708(11) 0.51071(11)
O2Y O -0.12292(14) -0.51071(11) 0.36103(11)
C2AA C 0.12500 -0.03543(15) 0.21457(15)
C2F C 0.21457 -0.12500(15) 0.53543(15)
C2CA C 0.28543 -0.12500(15) 0.46457(15)
C2I C -0.03543 -0.21457(15) 0.37500(15)
C2HA C 0.03543 -0.28543(15) 0.37500(15)
C2H C 0.03543 0.28543(15) 0.12500(15)
C2IA C -0.03543 0.21457(15) 0.12500(15)
C2D C 0.28543 0.12500(15) 0.03543(15)
C2EA C 0.21457 0.12500(15) -0.03543(15)
C2A C 0.37500 -0.03543(15) 0.78543(15)
C2Z C 0.37500 0.03543(15) 0.71457(15)
#END
