
#######################################################################
#
#                 Cambridge Crystallographic Data Centre
#                                CCDC
#
#######################################################################
#
# If this CIF has been generated from an entry in the Cambridge
# Structural Database, then it will include bibliographic, chemical,
# crystal, experimental, refinement or atomic coordinate data resulting
# from the CCDC's data processing and validation procedures.
#
#######################################################################

data_CSD_CIF_COYCAV
_audit_creation_date 2009-11-04
_audit_creation_method CSD-ConQuest-V1
_database_code_CSD COYCAV
_database_code_depnum_ccdc_archive 'CCDC 728723'
_chemical_formula_sum 'C78 H110 Cu6 Mo2 N14 O2 S10'
_chemical_formula_moiety
;
(C16 H36 N1 1+)2n,n(C34 H24 Cu6 Mo2 N10 O2 S10 2-),2n(C6 H7 N1)
;
_journal_coden_Cambridge 1147
_journal_volume 9
_journal_year 2009
_journal_page_first 1461
_journal_name_full 'Cryst.Growth Des. '
loop_
_publ_author_name
"Jin-Xiang Chen"
"Xiao-Yan Tang"
"Yang Chen"
"Wen-Hua Zhang"
"Ling-Ling Li"
"Rong-Xin Yuan"
"Yong Zhang"
"Jian-Ping Lang"
_chemical_name_systematic
;
catena-(bis(tetra-n-butylammonium) 
hexakis(\m~3~-sulfido)-tris(\m~2~-4,4'-bipyridine)-tetrakis(isothiocyanato)-di
oxo-hexa-copper-di-molybdenum aniline solvate)
;
_cell_volume   4768.916
_exptl_crystal_colour 'dark red'
_exptl_crystal_density_diffrn 1.511
_exptl_crystal_description 'block'
_diffrn_ambient_temperature 193
_refine_special_details
;
Short C=N bonds at N1 and N4.

;
#These two values have been output from a single CSD field.
_refine_ls_R_factor_gt 0.0927
_refine_ls_wR_factor_gt 0.0927
_symmetry_cell_setting monoclinic
_symmetry_space_group_name_H-M 'P 21'
_symmetry_Int_Tables_number 4
loop_
_symmetry_equiv_pos_site_id
_symmetry_equiv_pos_as_xyz
1 x,y,z
2 -x,1/2+y,-z
_cell_length_a 9.901(2)
_cell_length_b 25.752(5)
_cell_length_c 18.883(4)
_cell_angle_alpha 90
_cell_angle_beta 97.90(3)
_cell_angle_gamma 90
_cell_formula_units_Z 2
loop_
_atom_type_symbol
_atom_type_radius_bond
C 0.68
H 0.23
Cu 1.19
Mo 1.03
N 0.57
O 0.68
S 1.02
loop_
_atom_site_label
_atom_site_type_symbol
_atom_site_fract_x
_atom_site_fract_y
_atom_site_fract_z
Mo1 Mo -0.51180(15) 0.61249(8) 0.46898(8)
Mo2 Mo 0.58459(16) 0.56909(8) 1.06449(8)
Cu1 Cu -0.5407(3) 0.69009(11) 0.55759(14)
Cu2 Cu -0.5417(2) 0.55026(10) 0.58012(12)
Cu3 Cu -0.2442(2) 0.61246(10) 0.50997(11)
Cu4 Cu 0.3173(2) 0.58015(10) 1.02568(11)
Cu5 Cu 0.6218(2) 0.63358(10) 0.95618(12)
Cu6 Cu 0.5863(3) 0.49445(11) 0.96915(14)
S1 S -0.6736(5) 0.6191(2) 0.5436(2)
S2 S -0.3792(5) 0.6841(2) 0.4860(2)
S3 S -0.3819(5) 0.5422(2) 0.5025(2)
S4 S 0.4716(5) 0.6438(2) 1.0391(3)
S5 S 0.4328(5) 0.5030(2) 1.0440(3)
S6 S 0.7373(5) 0.5589(2) 0.9874(2)
S7 S -0.5538(12) 0.7972(4) 0.7509(5)
S8 S -0.7431(13) 0.3873(4) 0.5961(5)
S9 S 0.9100(12) 0.7760(4) 0.9397(6)
S10 S 0.5510(11) 0.3873(3) 0.7718(4)
O1 O -0.5834(14) 0.6046(6) 0.3835(6)
O2 O 0.6604(14) 0.5708(8) 1.1510(7)
N1 N -0.5726(16) 0.7472(6) 0.6273(7)
N2 N -0.6661(16) 0.4847(5) 0.5969(8)
N3 N 0.7435(15) 0.6978(5) 0.9422(8)
N4 N 0.5903(15) 0.4410(6) 0.8934(6)
N5 N -0.4141(17) 0.5645(7) 0.6773(8)
N6 N 0.1626(14) 0.5816(7) 0.9470(7)
N7 N -0.0895(16) 0.6131(8) 0.5900(7)
N8 N 0.4798(14) 0.6243(7) 0.8623(7)
N9 N -0.1366(15) 0.6098(7) 0.4189(8)
N10 N 0.2064(16) 0.5841(6) 0.1119(7)
C1 C -0.5622(19) 0.7644(7) 0.6717(7)
C2 C -0.6749(18) 0.4486(5) 0.5988(10)
C3 C 0.7927(17) 0.7270(6) 0.939(1)
C4 C 0.5677(19) 0.4228(7) 0.8490(7)
C5 C -0.355(2) 0.6109(11) 0.6964(10)
H1 H -0.39170 0.64060 0.67050
C6 C -0.249(2) 0.6191(9) 0.7496(10)
H2 H -0.21440 0.65290 0.76150
C7 C -0.1916(18) 0.5732(9) 0.7867(9)
C8 C -0.2549(19) 0.5273(8) 0.7679(10)
H3 H -0.22200 0.49640 0.79200
C9 C -0.365(2) 0.5242(9) 0.7153(12)
H4 H -0.40750 0.49140 0.70570
C10 C -0.071(2) 0.5781(8) 0.8417(10)
C11 C -0.014(2) 0.6258(8) 0.8681(10)
H5 H -0.05510 0.65740 0.85070
C12 C 0.102(2) 0.6271(8) 0.9194(10)
H6 H 0.14020 0.65960 0.93540
C13 C 0.115(2) 0.5380(8) 0.9161(10)
H7 H 0.16450 0.50680 0.92770
C14 C -0.002(2) 0.5355(10) 0.8679(12)
H8 H -0.03580 0.50230 0.85240
C15 C -0.025(2) 0.6589(8) 0.6066(11)
H9 H -0.05340 0.68970 0.58120
C16 C 0.088(3) 0.6598(10) 0.6630(13)
H10 H 0.12830 0.69230 0.67720
C17 C 0.1403(18) 0.6154(9) 0.6976(8)
C18 C 0.0752(18) 0.5711(8) 0.6726(9)
H11 H 0.10640 0.53880 0.69300
C19 C -0.029(2) 0.5714(9) 0.6214(10)
H12 H -0.06530 0.53860 0.60530
C20 C 0.2611(19) 0.6206(8) 0.7523(9)
C21 C 0.305(3) 0.6662(10) 0.7811(16)
H13 H 0.25810 0.69750 0.76670
C22 C 0.421(3) 0.6670(11) 0.8332(15)
H14 H 0.45980 0.69960 0.84820
C23 C 0.435(2) 0.5792(9) 0.8339(11)
H15 H 0.48100 0.54840 0.85110
C24 C 0.326(2) 0.5748(8) 0.7813(9)
H16 H 0.29500 0.54160 0.76440
C25 C -0.2088(19) 0.6034(10) 0.3520(9)
H17 H -0.30560 0.60410 0.34680
C26 C -0.1465(18) 0.5959(9) 0.2926(9)
H18 H -0.19880 0.58930 0.24740
C27 C -0.002(2) 0.5983(8) 0.2997(8)
C28 C 0.0728(18) 0.6068(10) 0.3669(9)
H19 H 0.16970 0.60780 0.37360
C29 C -0.0029(17) 0.6136(8) 0.4244(10)
H20 H 0.04590 0.62150 0.47000
C30 C 0.0709(17) 0.5905(7) 0.235(1)
C31 C 0.004(2) 0.5833(9) 0.1685(9)
H21 H -0.09240 0.58020 0.16130
C32 C 0.077(2) 0.5802(9) 0.1099(10)
H22 H 0.02530 0.57480 0.06430
C33 C 0.272(2) 0.5912(9) 0.1799(9)
H23 H 0.36850 0.59400 0.18590
C34 C 0.210(2) 0.5946(8) 0.2392(10)
H24 H 0.26310 0.59990 0.28440
N11 N -0.2405(17) 0.7554(6) 0.1954(9)
C35 C -0.351(3) 0.7200(8) 0.2191(14)
H25 H -0.39880 0.70250 0.17620
H26 H -0.30500 0.69260 0.25060
C36 C -0.453(2) 0.7448(8) 0.2568(11)
H27 H -0.49180 0.77560 0.22960
H28 H -0.41080 0.75650 0.30460
C37 C -0.569(2) 0.7044(9) 0.2643(12)
H29 H -0.60800 0.69140 0.21650
H30 H -0.53130 0.67450 0.29350
C38 C -0.681(3) 0.7303(13) 0.3001(18)
H31 H -0.64100 0.74630 0.34520
H32 H -0.74850 0.70420 0.30970
H33 H -0.72650 0.75710 0.26830
C39 C -0.139(3) 0.7232(8) 0.1557(13)
H34 H -0.10680 0.69270 0.18520
H35 H -0.18760 0.71030 0.10980
C40 C -0.017(3) 0.7542(9) 0.1410(16)
H36 H 0.03060 0.76930 0.18570
H37 H -0.04530 0.78260 0.10680
C41 C 0.077(3) 0.7146(13) 0.1082(17)
H38 H 0.02620 0.69640 0.06650
H39 H 0.11430 0.68850 0.14410
C42 C 0.196(3) 0.7502(14) 0.0843(18)
H40 H 0.16530 0.76560 0.03740
H41 H 0.27720 0.72890 0.08140
H42 H 0.21880 0.77790 0.11950
C43 C -0.166(2) 0.7829(7) 0.2616(11)
H43 H -0.10170 0.80820 0.24560
H44 H -0.23470 0.80290 0.28410
C44 C -0.088(3) 0.7485(10) 0.3187(13)
H45 H -0.15220 0.72640 0.34100
H46 H -0.02480 0.72560 0.29690
C45 C -0.012(3) 0.7816(11) 0.3726(14)
H47 H -0.07610 0.80510 0.39250
H48 H 0.05200 0.80340 0.34940
C46 C 0.071(3) 0.7508(10) 0.4349(11)
H49 H 0.00940 0.73870 0.46790
H50 H 0.14100 0.77340 0.46060
H51 H 0.11470 0.72080 0.41560
C47 C -0.305(2) 0.7981(8) 0.1455(12)
H52 H -0.23120 0.81850 0.12820
H53 H -0.35670 0.82180 0.17300
C48 C -0.401(3) 0.7776(10) 0.0804(12)
H54 H -0.48620 0.76380 0.09530
H55 H -0.35660 0.74970 0.05600
C49 C -0.432(3) 0.8254(9) 0.0302(14)
H56 H -0.47320 0.85350 0.05590
H57 H -0.34670 0.83850 0.01510
C50 C -0.532(4) 0.8085(13) -0.0357(16)
H58 H -0.49370 0.77890 -0.05880
H59 H -0.54640 0.83750 -0.06960
H60 H -0.61930 0.79850 -0.02080
N12 N 0.3561(18) 0.4309(6) 0.3443(9)
C51 C 0.467(2) 0.4663(9) 0.3242(12)
H61 H 0.42320 0.49500 0.29450
H62 H 0.51590 0.48170 0.36840
C52 C 0.568(3) 0.4401(11) 0.2841(15)
H63 H 0.52300 0.42930 0.23630
H64 H 0.60460 0.40880 0.31030
C53 C 0.683(3) 0.4780(12) 0.277(2)
H65 H 0.72590 0.48900 0.32470
H66 H 0.64490 0.50930 0.25060
C54 C 0.795(3) 0.4522(12) 0.2343(17)
H67 H 0.76810 0.41660 0.22070
H68 H 0.88350 0.45170 0.26510
H69 H 0.80340 0.47260 0.19120
C55 C 0.421(2) 0.3863(9) 0.3940(13)
H70 H 0.34650 0.36650 0.41190
H71 H 0.46930 0.36220 0.36540
C56 C 0.521(3) 0.4054(11) 0.4586(14)
H72 H 0.47680 0.43140 0.48660
H73 H 0.60250 0.42140 0.44250
C57 C 0.561(4) 0.3558(13) 0.5044(17)
H74 H 0.47890 0.33970 0.51940
H75 H 0.60530 0.33010 0.47600
C58 C 0.661(3) 0.3722(13) 0.5707(14)
H76 H 0.64590 0.40890 0.58130
H77 H 0.75480 0.36740 0.56110
H78 H 0.64490 0.35090 0.61170
C59 C 0.259(2) 0.4626(8) 0.3818(11)
H79 H 0.22630 0.49180 0.34990
H80 H 0.31240 0.47800 0.42500
C60 C 0.135(3) 0.4363(9) 0.4049(13)
H81 H 0.16580 0.40950 0.44120
H82 H 0.08370 0.41850 0.36310
C61 C 0.039(3) 0.4741(15) 0.4363(17)
H83 H 0.09230 0.49400 0.47540
H84 H 0.00260 0.49920 0.39870
C62 C -0.074(3) 0.4495(11) 0.4637(14)
H85 H -0.09900 0.41750 0.43680
H86 H -0.15260 0.47320 0.45850
H87 H -0.04830 0.44110 0.51430
C63 C 0.277(3) 0.4046(9) 0.2790(12)
H88 H 0.20800 0.38140 0.29570
H89 H 0.34090 0.38240 0.25680
C64 C 0.201(3) 0.4410(8) 0.2193(12)
H90 H 0.13380 0.46310 0.23910
H91 H 0.26770 0.46380 0.19960
C65 C 0.130(3) 0.4051(12) 0.1607(13)
H92 H 0.19830 0.38350 0.14070
H93 H 0.06590 0.38180 0.18110
C66 C 0.057(5) 0.4367(17) 0.105(2)
H94 H -0.02430 0.45140 0.12200
H95 H 0.02920 0.41530 0.06270
H96 H 0.11590 0.46490 0.09290
N13 N 0.003(4) 0.9321(10) 0.3264(18)
H97 H -0.05660 0.94760 0.34990
H98 H 0.08570 0.92560 0.34790
C67 C -0.036(3) 0.9174(12) 0.2522(18)
C68 C -0.167(3) 0.9288(10) 0.222(2)
H99 H -0.23710 0.94190 0.24630
C69 C -0.177(4) 0.9180(11) 0.150(2)
H100 H -0.26560 0.92140 0.12410
C70 C -0.077(4) 0.9028(14) 0.111(2)
H101 H -0.09690 0.90250 0.06040
C71 C 0.051(4) 0.8881(11) 0.142(2)
H102 H 0.11910 0.87200 0.11820
C72 C 0.064(4) 0.9009(10) 0.213(2)
H103 H 0.15290 0.89800 0.23890
N14 N -0.212(4) 0.7529(10) 0.7562(19)
H104 H -0.29460 0.74240 0.73830
H105 H -0.18430 0.74960 0.80230
C73 C -0.123(3) 0.7755(12) 0.7099(19)
C74 C 0.010(4) 0.7879(10) 0.735(2)
H106 H 0.05740 0.78360 0.78200
C75 C 0.057(4) 0.8083(11) 0.676(2)
H107 H 0.14520 0.82250 0.68780
C76 C 0.013(4) 0.8140(14) 0.604(2)
H108 H 0.06040 0.82880 0.56800
C77 C -0.116(4) 0.7932(11) 0.596(2)
H109 H -0.15730 0.79130 0.54750
C78 C -0.199(4) 0.7745(10) 0.6431(19)
H110 H -0.29020 0.76310 0.63170
Cu4* Cu 0.3173(2) 0.58015(10) 0.02568(11)
N10* N 0.2064(16) 0.5841(6) 1.1119(7)
#END
