
#######################################################################
#
#                 Cambridge Crystallographic Data Centre
#                                CCDC
#
#######################################################################
#
# If this CIF has been generated from an entry in the Cambridge
# Structural Database, then it will include bibliographic, chemical,
# crystal, experimental, refinement or atomic coordinate data resulting
# from the CCDC's data processing and validation procedures.
#
#######################################################################

data_CSD_CIF_COYMUZ
_audit_creation_date 2009-11-04
_audit_creation_method CSD-ConQuest-V1
_database_code_CSD COYMUZ
_database_code_depnum_ccdc_archive 'CCDC 708142'
_chemical_formula_sum 'C176 H176 Ag8 N24 O52 S8'
_chemical_formula_moiety
;
(C80 H64 Ag5 N16 5+)n,n(C96 H72 Ag3 N8 O32 S8 5-),20n(H2 O1)
;
_journal_coden_Cambridge 182
_journal_year 2009
_journal_page_first 1840
_journal_name_full 'Chem.Commun. '
loop_
_publ_author_name
"Kecai Xiong"
"Mingyan Wu"
"Qingfu Zhang"
"Wei Wei"
"Ming Yang"
"Feilong Jiang"
"Maochun Hong"
_chemical_name_systematic
;
catena-[tetrakis(\m~2~-2,2'-Bipyridine-N,N')-tetrakis(2,2'-bipyridine-N,N')-pe
nta-silver(i) 
bis(\m~2~-2,2'-bipyridine-N,N')-bis(2,2'-bipyridine-N,N')-bis(25,26,27,28-tetr
ahydroxycalix(4)arene-5,11,17,23-tetrasulfonate-O)-tri-silver(i) 
icosahydrate]
;
_cell_volume   4557.329
_exptl_crystal_colour 'colorless'
_exptl_crystal_density_diffrn 1.668
_exptl_special_details
;
luminescent
The calixarene ligands adopt a cone conformation.

;
_exptl_crystal_description 'block'
_diffrn_ambient_temperature 150
_refine_special_details
;
Two solvent water molecules are disordered over two sites with occupancies 
0.511:0.489 and 0.507:0.493 respectively.
;
#These two values have been output from a single CSD field.
_refine_ls_R_factor_gt 0.0614
_refine_ls_wR_factor_gt 0.0614
_symmetry_cell_setting triclinic
_symmetry_space_group_name_H-M 'P -1'
_symmetry_Int_Tables_number 2
loop_
_symmetry_equiv_pos_site_id
_symmetry_equiv_pos_as_xyz
1 x,y,z
2 -x,-y,-z
_cell_length_a 14.323(2)
_cell_length_b 14.516(2)
_cell_length_c 22.911(3)
_cell_angle_alpha 76.552(4)
_cell_angle_beta 79.765(4)
_cell_angle_gamma 89.185(5)
_cell_formula_units_Z 1
loop_
_atom_type_symbol
_atom_type_radius_bond
C 0.68
H 0.23
Ag 1.45
N 0.68
O 0.68
S 1.02
loop_
_atom_site_label
_atom_site_type_symbol
_atom_site_fract_x
_atom_site_fract_y
_atom_site_fract_z
Ag1 Ag 0.50000 0.00000 0.50000
S1 S 0.26023(10) 0.06892(9) 0.74272(6)
O1 O 0.1363(3) 0.3559(3) 0.54622(18)
N1 N 0.3952(3) -0.1128(3) 0.5131(2)
C1 C 0.1593(4) 0.2921(4) 0.5958(2)
Ag2 Ag 0.36043(4) 0.04297(3) 0.60043(2)
S2 S 0.21342(12) 0.58715(10) 0.79274(7)
O2 O 0.1238(3) 0.5298(3) 0.56163(18)
N2 N 0.4494(3) -0.0906(3) 0.6222(2)
C2 C 0.1151(4) 0.2014(4) 0.6137(2)
Ag3 Ag -0.08479(3) 0.00385(3) 0.96261(2)
S3 S -0.30414(10) 0.58023(10) 0.78273(6)
O3 O -0.0594(3) 0.5254(3) 0.55782(17)
N3 N 0.2424(4) 0.0529(5) 0.5407(3)
C3 C 0.1438(4) 0.1365(4) 0.6613(3)
H1 H 0.11370 0.07550 0.67500
Ag4 Ag -0.29312(3) -0.01933(3) 0.99727(2)
S4 S -0.28334(10) 0.05561(10) 0.72782(6)
O4 O -0.0466(3) 0.3520(3) 0.54497(18)
N4 N 0.3783(5) 0.1890(4) 0.5318(3)
C4 C 0.2159(4) 0.1590(4) 0.6895(2)
Ag5 Ag -0.50000 0.00000 1.00000
O5 O 0.2950(3) -0.0016(3) 0.70792(19)
N5 N -0.0175(4) 0.1512(4) 0.8927(2)
C5 C 0.2567(4) 0.2494(4) 0.6724(2)
H2 H 0.30510 0.26460 0.69240
O6 O 0.1820(3) 0.0318(3) 0.79179(19)
N6 N -0.0912(3) 0.1142(3) 1.0160(2)
C6 C 0.2278(4) 0.3192(4) 0.6257(2)
O7 O 0.3367(3) 0.1115(3) 0.76219(19)
N7 N -0.1211(4) -0.1130(3) 0.9235(2)
C7 C 0.2727(4) 0.4193(4) 0.6083(3)
H3 H 0.33740 0.41590 0.61820
H4 H 0.27870 0.44450 0.56370
O8 O 0.3002(4) 0.5364(4) 0.8018(2)
N8 N -0.2170(4) -0.1437(3) 1.0481(2)
C8 C 0.2160(4) 0.4866(4) 0.6408(2)
O9 O 0.2232(6) 0.6887(4) 0.7821(3)
N9 N -0.2734(4) 0.1300(3) 0.9351(2)
C9 C 0.2359(4) 0.5006(4) 0.6957(3)
H5 H 0.28490 0.46610 0.71330
O10 O 0.1356(4) 0.5476(4) 0.8412(2)
N10 N -0.3519(4) 0.0895(4) 1.0586(2)
C10 C 0.1850(4) 0.5641(4) 0.7251(2)
O11 O -0.3195(4) 0.6814(3) 0.7677(2)
N11 N -0.3822(4) -0.1154(3) 0.9506(2)
C11 C 0.1111(4) 0.6134(4) 0.7009(3)
H6 H 0.07580 0.65560 0.72180
O12 O -0.3909(3) 0.5231(3) 0.7923(2)
N12 N -0.4842(3) -0.1334(3) 1.0691(2)
C12 C 0.0881(4) 0.6017(4) 0.6465(3)
O13 O -0.2509(4) 0.5507(4) 0.8318(2)
C13 C 0.1423(4) 0.5386(4) 0.6171(2)
O14 O -0.3675(4) 0.0969(4) 0.7526(3)
C14 C 0.0068(4) 0.6542(4) 0.6207(3)
H7 H 0.00050 0.71570 0.63240
H8 H 0.02170 0.66740 0.57560
O15 O -0.2280(4) 0.0108(4) 0.7742(2)
C15 C -0.0865(4) 0.5991(4) 0.6428(3)
O16 O -0.2970(4) -0.0074(4) 0.6893(3)
C16 C -0.1455(4) 0.6087(4) 0.6957(3)
H9 H -0.12720 0.65110 0.71790
O17 O 0.5013(4) 0.1750(4) 0.6748(2)
C17 C -0.2315(4) 0.5573(4) 0.7174(3)
O18 O 0.5187(5) 0.3808(5) 0.6394(3)
C18 C -0.2583(4) 0.4930(4) 0.6867(2)
H10 H -0.31610 0.45720 0.70220
O19 O 0.4691(4) 0.4999(4) 0.7245(3)
C19 C -0.2003(4) 0.4804(4) 0.6327(2)
O20 O -0.1869(4) 0.8285(3) 0.6996(2)
C20 C -0.1159(4) 0.5348(4) 0.6118(2)
O21 O 0.0021(4) 0.9004(5) 0.6584(3)
C21 C -0.2290(4) 0.4085(4) 0.5998(2)
H11 H -0.20740 0.43280 0.55540
H12 H -0.29910 0.40240 0.60740
O22 O 0.1739(5) 0.8496(4) 0.7010(3)
C22 C -0.1886(4) 0.3110(4) 0.6193(2)
O23 O -0.0175(6) 0.5169(5) 0.9421(4)
C23 C -0.2432(4) 0.2405(4) 0.6638(2)
H13 H -0.30400 0.25470 0.68340
O24 O -0.2059(7) 0.4882(4) 0.9479(4)
C24 C -0.2090(4) 0.1498(4) 0.6795(2)
C25 C -0.1184(4) 0.1281(4) 0.6545(2)
H14 H -0.09510 0.06650 0.66730
C26 C -0.0619(4) 0.1966(4) 0.6106(2)
C27 C -0.0995(4) 0.2866(4) 0.5930(2)
O25 O -0.521(1) 0.4928(10) 1.0804(5)
C28 C 0.0373(4) 0.1737(4) 0.5824(2)
H15 H 0.05020 0.20730 0.53880
H16 H 0.03980 0.10480 0.58450
C29 C 0.0079(5) 0.1665(5) 0.8324(3)
H17 H 0.02990 0.11470 0.81540
C30 C 0.0039(6) 0.2552(6) 0.7929(3)
H18 H 0.02240 0.26380 0.75000
C31 C -0.0278(6) 0.3293(5) 0.8182(4)
H19 H -0.03220 0.39060 0.79290
C32 C -0.0534(6) 0.3144(5) 0.8809(3)
H20 H -0.07530 0.36510 0.89900
C33 C -0.0466(4) 0.2241(4) 0.9172(3)
C34 C -0.0714(4) 0.2046(4) 0.9850(3)
C35 C -0.0715(5) 0.2774(4) 1.0163(3)
H21 H -0.05540 0.34080 0.99440
C36 C -0.0950(5) 0.2556(4) 1.0791(3)
H22 H -0.09580 0.30430 1.10060
C37 C -0.1175(4) 0.1631(4) 1.1108(3)
H23 H -0.13420 0.14680 1.15400
C38 C -0.1147(4) 0.0949(4) 1.0768(3)
H24 H -0.13040 0.03110 1.09800
C39 C -0.0990(5) -0.0977(5) 0.8623(3)
H25 H -0.07370 -0.03740 0.83930
C40 C -0.1120(5) -0.1669(6) 0.8316(3)
H26 H -0.09580 -0.15420 0.78840
C41 C -0.1481(5) -0.2530(5) 0.8641(4)
H27 H -0.15710 -0.30130 0.84370
C42 C -0.1720(5) -0.2708(5) 0.9274(3)
H28 H -0.19800 -0.33070 0.95070
C43 C -0.1568(4) -0.1984(4) 0.9558(3)
C44 C -0.1812(4) -0.2164(4) 1.0232(3)
C45 C -0.1654(5) -0.3037(4) 1.0593(3)
H29 H -0.14070 -0.35340 1.04100
C46 C -0.1858(5) -0.3184(5) 1.1228(3)
H30 H -0.17610 -0.37820 1.14830
C47 C -0.2204(5) -0.2440(5) 1.1476(3)
H31 H -0.23370 -0.25110 1.19050
C48 C -0.2353(5) -0.1594(4) 1.1090(3)
H32 H -0.26020 -0.10900 1.12660
C49 C -0.2502(5) 0.1474(4) 0.8746(3)
H33 H -0.22650 0.09700 0.85670
C50 C -0.2588(7) 0.2346(5) 0.8367(4)
H34 H -0.24070 0.24430 0.79380
C51 C -0.2944(7) 0.3080(5) 0.8626(4)
H35 H -0.30260 0.36850 0.83750
C52 C -0.3181(6) 0.2922(4) 0.9261(4)
H36 H -0.34160 0.34210 0.94460
C53 C -0.3067(4) 0.2027(4) 0.9616(3)
C54 C -0.3299(4) 0.1812(4) 1.0289(3)
C55 C -0.3274(5) 0.2524(5) 1.0607(4)
H37 H -0.31190 0.31610 1.03910
C56 C -0.3477(6) 0.2293(6) 1.1238(4)
H38 H -0.34620 0.27670 1.14610
C57 C -0.3704(5) 0.1355(6) 1.1540(4)
H39 H -0.38480 0.11760 1.19730
C58 C -0.3713(5) 0.0688(5) 1.1198(3)
H40 H -0.38660 0.00480 1.14070
C59 C -0.3578(5) -0.1045(5) 0.8897(3)
H41 H -0.32940 -0.04590 0.86580
C60 C -0.3723(5) -0.1745(5) 0.8606(3)
H42 H -0.35580 -0.16350 0.81750
C61 C -0.4106(5) -0.2600(6) 0.8943(4)
H43 H -0.42090 -0.30930 0.87500
C62 C -0.4343(5) -0.2741(5) 0.9572(4)
H44 H -0.46040 -0.33340 0.98160
C63 C -0.4195(4) -0.2006(4) 0.9840(3)
C64 C -0.4454(4) -0.2094(4) 1.0503(3)
C65 C -0.4300(5) -0.2936(4) 1.0913(3)
H45 H -0.40230 -0.34570 1.07680
C66 C -0.4552(5) -0.2998(5) 1.1527(3)
H46 H -0.44500 -0.35610 1.18140
C67 C -0.4964(5) -0.2214(5) 1.1725(3)
H47 H -0.51500 -0.22410 1.21480
C68 C -0.5093(4) -0.1405(4) 1.1295(3)
H48 H -0.53710 -0.08760 1.14300
C69 C 0.1796(5) -0.0150(6) 0.5446(4)
H49 H 0.17150 -0.06590 0.57980
C70 C 0.1244(6) -0.0170(8) 0.5003(4)
H50 H 0.07730 -0.06520 0.50560
C71 C 0.1425(8) 0.0554(9) 0.4485(4)
H51 H 0.11150 0.05400 0.41530
C72 C 0.2042(7) 0.1295(8) 0.4434(4)
H52 H 0.21190 0.18120 0.40860
C73 C 0.2559(6) 0.1280(6) 0.4905(3)
C74 C 0.3223(6) 0.2045(6) 0.4893(3)
C75 C 0.3279(7) 0.2934(7) 0.4465(4)
H53 H 0.28920 0.30510 0.41610
C76 C 0.3907(8) 0.3628(6) 0.4498(4)
H54 H 0.39460 0.42270 0.42170
C77 C 0.4458(7) 0.3466(6) 0.4922(5)
H55 H 0.48940 0.39400 0.49410
C78 C 0.4382(6) 0.2584(5) 0.5337(4)
H56 H 0.47660 0.24710 0.56430
C79 C 0.5019(4) -0.0877(4) 0.6651(3)
H57 H 0.52010 -0.02760 0.66990
C80 C 0.5306(5) -0.1686(5) 0.7026(3)
H58 H 0.56870 -0.16400 0.73180
C81 C 0.5023(6) -0.2560(5) 0.6963(4)
H59 H 0.52070 -0.31260 0.72140
C82 C 0.4472(5) -0.2599(4) 0.6534(3)
H60 H 0.42550 -0.31930 0.64940
C83 C 0.4237(4) -0.1767(4) 0.6163(2)
C84 C 0.3713(4) -0.1782(4) 0.5656(3)
C85 C 0.3026(5) -0.2487(4) 0.5718(3)
H61 H 0.28640 -0.29520 0.60900
C86 C 0.2585(5) -0.2497(5) 0.5233(3)
H62 H 0.21140 -0.29710 0.52690
C87 C 0.2826(5) -0.1825(5) 0.4695(3)
H63 H 0.25310 -0.18340 0.43570
C88 C 0.3502(4) -0.1142(4) 0.4657(2)
H64 H 0.36590 -0.06650 0.42900
O26 O -0.3245(4) 0.5055(4) 1.0657(2)
H65 H -0.21810 0.88210 0.69280
H66 H 0.45280 0.15590 0.70060
H67 H 0.55220 0.15350 0.68720
H68 H -0.22500 0.78300 0.71230
H69 H 0.15260 0.48150 0.55380
O27? O -0.3592(4) 0.5038(4) 1.0049(2)
O28? O -0.4352(7) 0.4523(8) 1.1268(4)
S1A S 0.73977(10) -0.06892(9) 0.25728(6)
O1A O 0.8637(3) -0.3559(3) 0.45378(18)
N1A N 0.6048(3) 0.1128(3) 0.4869(2)
C1A C 0.8407(4) -0.2921(4) 0.4042(2)
Ag2A Ag 0.63957(4) -0.04297(3) 0.39957(2)
S2A S 0.78658(12) -0.58715(10) 0.20726(7)
O2A O 0.8762(3) -0.5298(3) 0.43837(18)
N2A N 0.5506(3) 0.0906(3) 0.3778(2)
C2A C 0.8849(4) -0.2014(4) 0.3863(2)
Ag3A Ag -0.91521(3) -0.00385(3) 1.03739(2)
Ag3A* Ag 0.08479(3) -0.00385(3) 1.03739(2)
Ag3* Ag -1.08479(3) 0.00385(3) 0.96261(2)
S3A S 1.30414(10) -0.58023(10) 0.21727(6)
O3A O 1.0594(3) -0.5254(3) 0.44218(17)
N3A N 0.7576(4) -0.0529(5) 0.4593(3)
C3A C 0.8562(4) -0.1365(4) 0.3387(3)
H1A H 0.88630 -0.07550 0.32500
Ag4A Ag -0.70688(3) 0.01933(3) 1.00273(2)
S4A S 1.28334(10) -0.05561(10) 0.27218(6)
O4A O 1.0466(3) -0.3520(3) 0.45503(18)
N4A N 0.6217(5) -0.1890(4) 0.4682(3)
C4A C 0.7841(4) -0.1590(4) 0.3105(2)
O5A O 0.7050(3) 0.0016(3) 0.29208(19)
N5A N -0.9825(4) -0.1512(4) 1.1073(2)
C5A C 0.7433(4) -0.2494(4) 0.3276(2)
H2A H 0.69490 -0.26460 0.30760
O6A O 0.8180(3) -0.0318(3) 0.20821(19)
N6A N -0.9088(3) -0.1142(3) 0.9840(2)
C6A C 0.7722(4) -0.3192(4) 0.3743(2)
O7A O 0.6633(3) -0.1115(3) 0.23781(19)
N7A N -0.8789(4) 0.1130(3) 1.0765(2)
C7A C 0.7273(4) -0.4193(4) 0.3917(3)
H3A H 0.66260 -0.41590 0.38180
H4A H 0.72130 -0.44450 0.43630
O8A O 0.6998(4) -0.5364(4) 0.1982(2)
N8A N -0.7830(4) 0.1437(3) 0.9519(2)
C8A C 0.7840(4) -0.4866(4) 0.3592(2)
O9A O 0.7768(6) -0.6887(4) 0.2179(3)
N9A N -0.7266(4) -0.1300(3) 1.0649(2)
C9A C 0.7641(4) -0.5006(4) 0.3043(3)
H5A H 0.71510 -0.46610 0.28670
O10A O 0.8644(4) -0.5476(4) 0.1588(2)
N10A N -0.6481(4) -0.0895(4) 0.9414(2)
C10A C 0.8150(4) -0.5641(4) 0.2749(2)
O11A O 1.3195(4) -0.6814(3) 0.2323(2)
N11A N -0.6178(4) 0.1154(3) 1.0494(2)
C11A C 0.8889(4) -0.6134(4) 0.2991(3)
H6A H 0.92420 -0.65560 0.27820
O12A O 1.3909(3) -0.5231(3) 0.2077(2)
N12A N -0.5158(3) 0.1334(3) 0.9309(2)
C12A C 0.9119(4) -0.6017(4) 0.3535(3)
O13A O 1.2509(4) -0.5507(4) 0.1682(2)
C13A C 0.8577(4) -0.5386(4) 0.3829(2)
O14A O 1.3675(4) -0.0969(4) 0.2474(3)
C14A C 0.9932(4) -0.6542(4) 0.3793(3)
H7A H 0.99950 -0.71570 0.36760
H8A H 0.97830 -0.66740 0.42440
O15A O 1.2280(4) -0.0108(4) 0.2258(2)
C15A C 1.0865(4) -0.5991(4) 0.3572(3)
O16A O 1.2970(4) 0.0074(4) 0.3107(3)
C16A C 1.1455(4) -0.6087(4) 0.3043(3)
H9A H 1.12720 -0.65110 0.28210
C17A C 1.2315(4) -0.5573(4) 0.2826(3)
C18A C 1.2583(4) -0.4930(4) 0.3133(2)
H10A H 1.31610 -0.45720 0.29780
C19A C 1.2003(4) -0.4804(4) 0.3673(2)
C20A C 1.1159(4) -0.5348(4) 0.3882(2)
C21A C 1.2290(4) -0.4085(4) 0.4002(2)
H11A H 1.20740 -0.43280 0.44460
H12A H 1.29910 -0.40240 0.39260
C22A C 1.1886(4) -0.3110(4) 0.3807(2)
C23A C 1.2432(4) -0.2405(4) 0.3362(2)
H13A H 1.30400 -0.25470 0.31660
C24A C 1.2090(4) -0.1498(4) 0.3205(2)
C25A C 1.1184(4) -0.1281(4) 0.3455(2)
H14A H 1.09510 -0.06650 0.33270
C26A C 1.0619(4) -0.1966(4) 0.3894(2)
C27A C 1.0995(4) -0.2866(4) 0.4070(2)
C28A C 0.9627(4) -0.1737(4) 0.4176(2)
H15A H 0.94980 -0.20730 0.46120
H16A H 0.96020 -0.10480 0.41550
C29A C -1.0079(5) -0.1665(5) 1.1676(3)
H17A H -1.02990 -0.11470 1.18460
C30A C -1.0039(6) -0.2552(6) 1.2071(3)
H18A H -1.02240 -0.26380 1.25000
C31A C -0.9722(6) -0.3293(5) 1.1818(4)
H19A H -0.96780 -0.39060 1.20710
C32A C -0.9466(6) -0.3144(5) 1.1191(3)
H20A H -0.92470 -0.36510 1.10100
C33A C -0.9534(4) -0.2241(4) 1.0828(3)
C34A C -0.9286(4) -0.2046(4) 1.0150(3)
C35A C -0.9285(5) -0.2774(4) 0.9837(3)
H21A H -0.94460 -0.34080 1.00560
C36A C -0.9050(5) -0.2556(4) 0.9209(3)
H22A H -0.90420 -0.30430 0.89940
C37A C -0.8825(4) -0.1631(4) 0.8892(3)
H23A H -0.86580 -0.14680 0.84600
C38A C -0.8853(4) -0.0949(4) 0.9232(3)
H24A H -0.86960 -0.03110 0.90200
C39A C -0.9010(5) 0.0977(5) 1.1377(3)
H25A H -0.92630 0.03740 1.16070
C40A C -0.8880(5) 0.1669(6) 1.1684(3)
H26A H -0.90420 0.15420 1.21160
C41A C -0.8519(5) 0.2530(5) 1.1359(4)
H27A H -0.84290 0.30130 1.15630
C42A C -0.8280(5) 0.2708(5) 1.0726(3)
H28A H -0.80200 0.33070 1.04930
C43A C -0.8432(4) 0.1984(4) 1.0442(3)
C44A C -0.8188(4) 0.2164(4) 0.9768(3)
C45A C -0.8346(5) 0.3037(4) 0.9407(3)
H29A H -0.85930 0.35340 0.95900
C46A C -0.8142(5) 0.3184(5) 0.8772(3)
H30A H -0.82390 0.37820 0.85170
C47A C -0.7796(5) 0.2440(5) 0.8524(3)
H31A H -0.76630 0.25110 0.80950
C48A C -0.7647(5) 0.1594(4) 0.8910(3)
H32A H -0.73980 0.10900 0.87340
C49A C -0.7498(5) -0.1474(4) 1.1254(3)
H33A H -0.77350 -0.09700 1.14330
C50A C -0.7412(7) -0.2346(5) 1.1633(4)
H34A H -0.75930 -0.24430 1.20620
C51A C -0.7056(7) -0.3080(5) 1.1374(4)
H35A H -0.69740 -0.36850 1.16250
C52A C -0.6819(6) -0.2922(4) 1.0739(4)
H36A H -0.65840 -0.34210 1.05540
C53A C -0.6933(4) -0.2027(4) 1.0384(3)
C54A C -0.6701(4) -0.1812(4) 0.9711(3)
C55A C -0.6726(5) -0.2524(5) 0.9393(4)
H37A H -0.68810 -0.31610 0.96090
C56A C -0.6523(6) -0.2293(6) 0.8762(4)
H38A H -0.65380 -0.27670 0.85390
C57A C -0.6296(5) -0.1355(6) 0.8460(4)
H39A H -0.61520 -0.11760 0.80270
C58A C -0.6287(5) -0.0688(5) 0.8802(3)
H40A H -0.61340 -0.00480 0.85930
C59A C -0.6422(5) 0.1045(5) 1.1103(3)
H41A H -0.67060 0.04590 1.13420
C60A C -0.6277(5) 0.1745(5) 1.1394(3)
H42A H -0.64420 0.16350 1.18250
C61A C -0.5894(5) 0.2600(6) 1.1057(4)
H43A H -0.57910 0.30930 1.12500
C62A C -0.5657(5) 0.2741(5) 1.0428(4)
H44A H -0.53960 0.33340 1.01840
C63A C -0.5805(4) 0.2006(4) 1.0160(3)
C64A C -0.5546(4) 0.2094(4) 0.9497(3)
C65A C -0.5700(5) 0.2936(4) 0.9087(3)
H45A H -0.59770 0.34570 0.92320
C66A C -0.5448(5) 0.2998(5) 0.8473(3)
H46A H -0.55500 0.35610 0.81860
C67A C -0.5036(5) 0.2214(5) 0.8275(3)
H47A H -0.48500 0.22410 0.78520
C68A C -0.4907(4) 0.1405(4) 0.8705(3)
H48A H -0.46290 0.08760 0.85700
C69A C 0.8204(5) 0.0150(6) 0.4554(4)
H49A H 0.82850 0.06590 0.42020
C70A C 0.8756(6) 0.0170(8) 0.4997(4)
H50A H 0.92270 0.06520 0.49440
C71A C 0.8575(8) -0.0554(9) 0.5515(4)
H51A H 0.88850 -0.05400 0.58470
C72A C 0.7958(7) -0.1295(8) 0.5566(4)
H52A H 0.78810 -0.18120 0.59140
C73A C 0.7441(6) -0.1280(6) 0.5095(3)
C74A C 0.6777(6) -0.2045(6) 0.5107(3)
C75A C 0.6721(7) -0.2934(7) 0.5535(4)
H53A H 0.71080 -0.30510 0.58390
C76A C 0.6093(8) -0.3628(6) 0.5502(4)
H54A H 0.60540 -0.42270 0.57830
C77A C 0.5542(7) -0.3466(6) 0.5078(5)
H55A H 0.51060 -0.39400 0.50590
C78A C 0.5618(6) -0.2584(5) 0.4663(4)
H56A H 0.52340 -0.24710 0.43570
C79A C 0.4981(4) 0.0877(4) 0.3349(3)
H57A H 0.47990 0.02760 0.33010
C80A C 0.4694(5) 0.1686(5) 0.2974(3)
H58A H 0.43130 0.16400 0.26820
C81A C 0.4977(6) 0.2560(5) 0.3037(4)
H59A H 0.47930 0.31260 0.27860
C82A C 0.5528(5) 0.2599(4) 0.3466(3)
H60A H 0.57450 0.31930 0.35060
C83A C 0.5763(4) 0.1767(4) 0.3837(2)
C84A C 0.6287(4) 0.1782(4) 0.4344(3)
C85A C 0.6974(5) 0.2487(4) 0.4282(3)
H61A H 0.71360 0.29520 0.39100
C86A C 0.7415(5) 0.2497(5) 0.4767(3)
H62A H 0.78860 0.29710 0.47310
C87A C 0.7174(5) 0.1825(5) 0.5305(3)
H63A H 0.74690 0.18340 0.56430
C88A C 0.6498(4) 0.1142(4) 0.5343(2)
H64A H 0.63410 0.06650 0.57100
H69A H 0.84740 -0.48150 0.44620
#END
