
#######################################################################
#
#                 Cambridge Crystallographic Data Centre
#                                CCDC
#
#######################################################################
#
# If this CIF has been generated from an entry in the Cambridge
# Structural Database, then it will include bibliographic, chemical,
# crystal, experimental, refinement or atomic coordinate data resulting
# from the CCDC's data processing and validation procedures.
#
#######################################################################

data_CSD_CIF_COYQEN01
_audit_creation_date 2018-10-29
_audit_creation_method CSD-ConQuest-V1
_database_code_CSD COYQEN01
_database_code_depnum_ccdc_archive 'CCDC 1857371'
_chemical_formula_sum 'C18 H28 Fe2 N1 O6 S6'
_chemical_formula_moiety
;
C12 H28 N1 1+,n(C6 Fe2 O6 S6 1-)
;
_journal_coden_Cambridge 9
_journal_volume 57
_journal_year 2018
_journal_page_first 13728
_journal_name_full 'Inorg.Chem. '
loop_
_publ_author_name
"Miho Itoi"
"A.Okazawa"
"J.Yamaura"
"S.Maki"
"T.Komatsu"
"I.Maurin"
"E.Codjovi"
"K.Boukheddaden"
"N.Kojima"
_chemical_name_systematic
;
catena-[tetra-n-propylammonium tris(dithiooxalato)-iron(ii)-iron(iii)]
;
_cell_volume   1387.461
_exptl_crystal_colour 'black'
_exptl_crystal_density_diffrn 1.576
_exptl_special_details
;
Absolute configuration

;
_exptl_crystal_description 'prism'
_diffrn_ambient_temperature 140
_refine_special_details
;
The structure is disordered.

;
#These two values have been output from a single CSD field.
_refine_ls_R_factor_gt 0.0918
_refine_ls_wR_factor_gt 0.0918
_symmetry_cell_setting hexagonal
_symmetry_space_group_name_H-M 'P 63'
_symmetry_Int_Tables_number 173
loop_
_symmetry_equiv_pos_site_id
_symmetry_equiv_pos_as_xyz
1 x,y,z
2 -y,x-y,z
3 -x+y,-x,z
4 -x,-y,1/2+z
5 y,-x+y,1/2+z
6 x-y,x,1/2+z
_cell_length_a 10.0764(9)
_cell_length_b 10.0764(9)
_cell_length_c 15.779(2)
_cell_angle_alpha 90
_cell_angle_beta 90
_cell_angle_gamma 120
_cell_formula_units_Z 2
loop_
_atom_type_symbol
_atom_type_radius_bond
C 0.68
H 0.23
Fe 1.52
N 0.68
O 0.68
S 1.02
loop_
_atom_site_label
_atom_site_type_symbol
_atom_site_fract_x
_atom_site_fract_y
_atom_site_fract_z
Fe1 Fe 0.33333 0.66667 -0.0047(2)
Fe2 Fe 0.00000 0.00000 0.0006(4)
S1 S 0.1789(4) 0.1877(5) 0.0861(4)
S2 S 0.0077(5) 0.1839(5) -0.0876(4)
O1 O 0.3142(9) 0.4802(10) 0.0679(5)
O2 O 0.1638(10) 0.4735(11) -0.0761(5)
C1 C 0.2183(15) 0.3548(15) 0.0391(9)
C2 C 0.1367(15) 0.3524(17) -0.0433(10)
N1 N 0.33333 0.66667 0.3195(9)
C3 C 0.303(11) 0.622(6) 0.4100(15)
H1 H 0.37968 0.59493 0.42910
H2 H 0.20121 0.52819 0.41365
C4 C 0.304(7) 0.737(8) 0.4724(17)
H3 H 0.19702 0.70835 0.48495
H4 H 0.35414 0.83895 0.44512
C5 C 0.385(7) 0.749(8) 0.555(2)
H5 H 0.38059 0.82565 0.59146
H6 H 0.33520 0.64955 0.58381
H7 H 0.49267 0.78044 0.54389
C6 C 0.360(7) 0.831(3) 0.325(2)
H8 H 0.27740 0.82671 0.36102
H9 H 0.45752 0.89309 0.35646
C7 C 0.368(8) 0.915(4) 0.246(2)
H10 H 0.26192 0.87617 0.22477
H11 H 0.42284 0.89030 0.20207
C8 C 0.445(9) 1.088(4) 0.253(4)
H12 H 0.44381 1.13150 0.19792
H13 H 0.38964 1.11434 0.29462
H14 H 0.55101 1.12851 0.27186
C9 C 0.181(5) 0.583(4) 0.276(4)
H15 H 0.19891 0.59116 0.21438
H16 H 0.12396 0.63704 0.28960
C10 C 0.080(5) 0.416(4) 0.298(4)
H17 H 0.03513 0.40839 0.35514
H18 H 0.14395 0.36719 0.30133
C11 C -0.050(7) 0.326(6) 0.236(5)
H19 H -0.10965 0.21887 0.25525
H20 H -0.11668 0.37049 0.23388
H21 H -0.00764 0.32922 0.17996
C12 C 0.463(6) 0.677(6) 0.269(3)
H22 H 0.55636 0.77484 0.28232
H23 H 0.43997 0.67938 0.20790
C13 C 0.495(6) 0.547(6) 0.283(3)
H24 H 0.53753 0.55652 0.34088
H25 H 0.39691 0.44836 0.28077
C14 C 0.605(6) 0.540(8) 0.220(3)
H26 H 0.61949 0.45281 0.23417
H27 H 0.56308 0.52659 0.16295
H28 H 0.70398 0.63496 0.22319
S1A S -0.1877(4) -0.0088(5) 0.0861(4)
S2A S -0.1839(5) -0.1762(5) -0.0876(4)
O1A O -0.4802(9) -0.166(1) 0.0679(5)
O2A O -0.4735(10) -0.3097(11) -0.0761(5)
C1A C -0.3548(15) -0.1365(15) 0.0391(9)
C2A C -0.3524(15) -0.2157(17) -0.0433(10)
S1B S 0.0088(4) -0.1789(5) 0.0861(4)
S2B S 0.1762(5) -0.0077(5) -0.0876(4)
O1B O 0.1660(9) -0.3142(10) 0.0679(5)
O2B O 0.3097(10) -0.1638(11) -0.0761(5)
C1B C 0.1365(15) -0.2183(15) 0.0391(9)
C2B C 0.2157(15) -0.1367(17) -0.0433(10)
Fe1* Fe -0.66667 -0.33333 -0.0047(2)
Fe1** Fe 0.33333 -0.33333 -0.0047(2)
O1A* O 0.5198(9) 0.834(1) 0.0679(5)
O1B* O 0.1660(9) 0.6858(10) 0.0679(5)
O2A* O 0.5265(10) 0.6903(11) -0.0761(5)
O2B* O 0.3097(10) 0.8362(11) -0.0761(5)
C3A C 0.378(11) 0.681(6) 0.4100(15)
H1A H 0.40507 0.78475 0.42910
H2A H 0.47181 0.67302 0.41365
C4A C 0.263(7) 0.567(8) 0.4724(17)
H3A H 0.29165 0.48867 0.48495
H4A H 0.16105 0.51519 0.44512
C5A C 0.251(7) 0.636(8) 0.555(2)
H5A H 0.17435 0.55493 0.59146
H6A H 0.35045 0.68565 0.58381
H7A H 0.21956 0.71223 0.54389
C6A C 0.169(7) 0.529(3) 0.325(2)
H8A H 0.17329 0.45069 0.36102
H9A H 0.10691 0.56443 0.35646
C7A C 0.085(8) 0.453(4) 0.246(2)
H10A H 0.12383 0.38576 0.22477
H11A H 0.10970 0.53254 0.20207
C8A C -0.088(9) 0.357(4) 0.253(4)
H12A H -0.13150 0.31231 0.19792
H13A H -0.11434 0.27530 0.29462
H14A H -0.12851 0.42250 0.27186
C9A C 0.417(5) 0.598(4) 0.276(4)
H15A H 0.40884 0.60775 0.21438
H16A H 0.36296 0.48691 0.28960
C10A C 0.584(5) 0.664(4) 0.298(4)
H17A H 0.59161 0.62674 0.35514
H18A H 0.63281 0.77676 0.30133
C11A C 0.674(7) 0.624(6) 0.236(5)
H19A H 0.78113 0.67147 0.25525
H20A H 0.62950 0.51282 0.23388
H21A H 0.67078 0.66315 0.17996
C12A C 0.323(6) 0.786(6) 0.269(3)
H22A H 0.22516 0.78152 0.28232
H23A H 0.32062 0.76059 0.20790
C13A C 0.453(6) 0.948(6) 0.283(3)
H24A H 0.44348 0.98101 0.34088
H25A H 0.55164 0.94855 0.28077
C14A C 0.460(6) 1.065(8) 0.220(3)
H26A H 0.54719 1.16668 0.23417
H27A H 0.47341 1.03649 0.16295
H28A H 0.36504 1.06902 0.22319
C3B C 0.319(11) 0.697(6) 0.4100(15)
H1B H 0.21525 0.62032 0.42910
H2B H 0.32698 0.79879 0.41365
C4B C 0.433(7) 0.696(8) 0.4724(17)
H3B H 0.51133 0.80298 0.48495
H4B H 0.48481 0.64586 0.44512
C5B C 0.364(7) 0.615(8) 0.555(2)
H5B H 0.44507 0.61942 0.59146
H6B H 0.31435 0.66480 0.58381
H7B H 0.28777 0.50733 0.54389
C6B C 0.471(7) 0.640(3) 0.325(2)
H8B H 0.54931 0.72260 0.36102
H9B H 0.43557 0.54248 0.35646
C7B C 0.547(8) 0.632(4) 0.246(2)
H10B H 0.61424 0.73808 0.22477
H11B H 0.46746 0.57716 0.20207
C8B C 0.643(9) 0.555(4) 0.253(4)
H12B H 0.68769 0.55619 0.19792
H13B H 0.72470 0.61036 0.29462
H14B H 0.57750 0.44899 0.27186
C9B C 0.402(5) 0.819(4) 0.276(4)
H15B H 0.39225 0.80109 0.21438
H16B H 0.51309 0.87604 0.28960
C10B C 0.336(5) 0.920(4) 0.298(4)
H17B H 0.37326 0.96487 0.35514
H18B H 0.22324 0.85605 0.30133
C11B C 0.376(7) 1.050(6) 0.236(5)
H19B H 0.32853 1.10965 0.25525
H20B H 0.48718 1.11668 0.23388
H21B H 0.33685 1.00764 0.17996
C12B C 0.214(6) 0.537(6) 0.269(3)
H22B H 0.21848 0.44364 0.28232
H23B H 0.23941 0.56003 0.20790
C13B C 0.052(6) 0.505(6) 0.283(3)
H24B H 0.01899 0.46247 0.34088
H25B H 0.05145 0.60309 0.28077
C14B C -0.065(6) 0.395(8) 0.220(3)
H26B H -0.16668 0.38051 0.23417
H27B H -0.03650 0.43692 0.16295
H28B H -0.06902 0.29602 0.22319
#END
