
#######################################################################
#
#                 Cambridge Crystallographic Data Centre
#                                CCDC
#
#######################################################################
#
# If this CIF has been generated from an entry in the Cambridge
# Structural Database, then it will include bibliographic, chemical,
# crystal, experimental, refinement or atomic coordinate data resulting
# from the CCDC's data processing and validation procedures.
#
#######################################################################

data_CSD_CIF_COYQEN02
_audit_creation_date 2018-10-29
_audit_creation_method CSD-ConQuest-V1
_database_code_CSD COYQEN02
_database_code_depnum_ccdc_archive 'CCDC 1857372'
_chemical_formula_sum 'C18 H28 Fe2 N1 O6 S6'
_chemical_formula_moiety
;
C12 H28 N1 1+,n(C6 Fe2 O6 S6 1-)
;
_journal_coden_Cambridge 9
_journal_volume 57
_journal_year 2018
_journal_page_first 13728
_journal_name_full 'Inorg.Chem. '
loop_
_publ_author_name
"Miho Itoi"
"A.Okazawa"
"J.Yamaura"
"S.Maki"
"T.Komatsu"
"I.Maurin"
"E.Codjovi"
"K.Boukheddaden"
"N.Kojima"
_chemical_name_systematic
;
catena-[tetra-n-propylammonium tris(dithiooxalato)-iron(ii)-iron(iii)]
;
_cell_volume   1371.058
_exptl_crystal_colour 'black'
_exptl_crystal_density_diffrn 1.595
_exptl_special_details
;
Absolute configuration

;
_exptl_crystal_description 'prism'
_diffrn_ambient_temperature 88
_refine_special_details
;
The structure is disordered.

;
#These two values have been output from a single CSD field.
_refine_ls_R_factor_gt 0.0788
_refine_ls_wR_factor_gt 0.0788
_symmetry_cell_setting hexagonal
_symmetry_space_group_name_H-M 'P 63'
_symmetry_Int_Tables_number 173
loop_
_symmetry_equiv_pos_site_id
_symmetry_equiv_pos_as_xyz
1 x,y,z
2 x-y,x,1/2+z
3 -y,x-y,z
4 -x,-y,1/2+z
5 -x+y,-x,z
6 y,-x+y,1/2+z
_cell_length_a 10.0585(10)
_cell_length_b 10.0585(10)
_cell_length_c 15.648(2)
_cell_angle_alpha 90
_cell_angle_beta 90
_cell_angle_gamma 120
_cell_formula_units_Z 2
loop_
_atom_type_symbol
_atom_type_radius_bond
C 0.68
H 0.23
Fe 1.52
N 0.68
O 0.68
S 1.02
loop_
_atom_site_label
_atom_site_type_symbol
_atom_site_fract_x
_atom_site_fract_y
_atom_site_fract_z
Fe1 Fe 0.33333 0.66667 -0.00515(19)
Fe2 Fe 0.00000 0.00000 0.0001(3)
S1 S 0.1789(3) 0.1876(3) 0.0858(3)
S2 S 0.0079(3) 0.1840(3) -0.0883(3)
O1 O 0.3155(6) 0.4805(7) 0.0679(4)
O2 O 0.1640(7) 0.4737(8) -0.0774(4)
C1 C 0.2195(11) 0.3544(11) 0.0399(6)
C2 C 0.1361(11) 0.3509(12) -0.0441(7)
N1 N 0.33333 0.66667 0.3201(5)
C3 C 0.3321(11) 0.6195(9) 0.4128(6)
C4 C 0.3033(11) 0.7198(9) 0.4758(6)
C5 C 0.2443(11) 0.6273(9) 0.5598(6)
C6 C 0.3776(11) 0.8398(9) 0.3222(6)
C7 C 0.1876(11) 0.5791(9) 0.2657(6)
C8 C 0.4833(11) 0.6968(9) 0.2794(6)
C9 C 0.3548(11) 0.9067(9) 0.2410(6)
C10 C 0.0780(11) 0.4126(9) 0.2917(6)
C11 C 0.4990(11) 0.5535(9) 0.2807(6)
C12 C 0.3751(11) 1.0684(9) 0.2504(6)
C13 C -0.0680(11) 0.3870(9) 0.2436(6)
C14 C 0.6382(11) 0.5833(9) 0.2248(6)
H1 H 0.43197 0.62739 0.42621
H2 H 0.25105 0.51096 0.42008
H3 H 0.22589 0.74325 0.45236
H4 H 0.39948 0.81764 0.48629
H5 H 0.28749 0.69701 0.60867
H6 H 0.27599 0.54976 0.56235
H7 H 0.13200 0.57657 0.56161
H8 H 0.31686 0.85270 0.36789
H9 H 0.48704 0.90137 0.33861
H10 H 0.13065 0.63573 0.26772
H11 H 0.21894 0.57992 0.20563
H12 H 0.57049 0.78057 0.31069
H13 H 0.48731 0.73058 0.21957
H14 H 0.25023 0.83655 0.21908
H15 H 0.42870 0.91106 0.19772
H16 H 0.06203 0.40149 0.35427
H17 H 0.11357 0.34254 0.27116
H18 H 0.40429 0.46461 0.25812
H19 H 0.51446 0.53000 0.34009
H20 H 0.35690 1.10222 0.19507
H21 H 0.47983 1.14018 0.26956
H22 H 0.30155 1.06553 0.29242
H23 H -0.15483 0.28638 0.25890
H24 H -0.05030 0.39114 0.18186
H25 H -0.09115 0.46745 0.25981
H26 H 0.65995 0.49939 0.23256
H27 H 0.72809 0.68050 0.24188
H28 H 0.61467 0.58899 0.16460
S1B S -0.1876(3) -0.0087(3) 0.0858(3)
S2B S -0.1840(3) -0.1761(3) -0.0883(3)
O1B O -0.4805(6) -0.1650(7) 0.0679(4)
O2B O -0.4737(7) -0.3097(8) -0.0774(4)
C1B C -0.3544(11) -0.1349(11) 0.0399(6)
C2B C -0.3509(11) -0.2148(12) -0.0441(7)
S1D S 0.0087(3) -0.1789(3) 0.0858(3)
S2D S 0.1761(3) -0.0079(3) -0.0883(3)
O1D O 0.1650(6) -0.3155(7) 0.0679(4)
O2D O 0.3097(7) -0.1640(8) -0.0774(4)
C1D C 0.1349(11) -0.2195(11) 0.0399(6)
C2D C 0.2148(11) -0.1361(12) -0.0441(7)
Fe1* Fe -0.66667 -0.33333 -0.00515(19)
Fe1** Fe 0.33333 -0.33333 -0.00515(19)
O1B* O 0.5195(6) 0.8350(7) 0.0679(4)
O1D* O 0.1650(6) 0.6845(7) 0.0679(4)
O2B* O 0.5263(7) 0.6903(8) -0.0774(4)
O2D* O 0.3097(7) 0.8360(8) -0.0774(4)
C3B C 0.3805(11) 0.7126(9) 0.4128(6)
C4B C 0.2802(11) 0.5835(9) 0.4758(6)
C5B C 0.3727(11) 0.6170(9) 0.5598(6)
C6B C 0.1602(11) 0.5378(9) 0.3222(6)
C7B C 0.4209(11) 0.6085(9) 0.2657(6)
C8B C 0.3032(11) 0.7865(9) 0.2794(6)
C9B C 0.0933(11) 0.4481(9) 0.2410(6)
C10B C 0.5874(11) 0.6654(9) 0.2917(6)
C11B C 0.4465(11) 0.9455(9) 0.2807(6)
C12B C -0.0684(11) 0.3067(9) 0.2504(6)
C13B C 0.6130(11) 0.5450(9) 0.2436(6)
C14B C 0.4167(11) 1.0549(9) 0.2248(6)
H1B H 0.37261 0.80458 0.42621
H2B H 0.48904 0.74009 0.42008
H3B H 0.25675 0.48264 0.45236
H4B H 0.18236 0.58184 0.48629
H5B H 0.30299 0.59048 0.60867
H6B H 0.45024 0.72623 0.56235
H7B H 0.42343 0.55543 0.56161
H8B H 0.14730 0.46416 0.36789
H9B H 0.09863 0.58567 0.33861
H10B H 0.36427 0.49492 0.26772
H11B H 0.42008 0.63902 0.20563
H12B H 0.21943 0.78992 0.31069
H13B H 0.26942 0.75673 0.21957
H14B H 0.16345 0.41368 0.21908
H15B H 0.08894 0.51764 0.19772
H16B H 0.59851 0.66054 0.35427
H17B H 0.65746 0.77103 0.27116
H18B H 0.53539 0.93968 0.25812
H19B H 0.47000 0.98446 0.34009
H20B H -0.10222 0.25468 0.19507
H21B H -0.14018 0.33965 0.26956
H22B H -0.06553 0.23602 0.29242
H23B H 0.71362 0.55879 0.25890
H24B H 0.60886 0.55856 0.18186
H25B H 0.53255 0.44140 0.25981
H26B H 0.50061 1.16056 0.23256
H27B H 0.31950 1.04759 0.24188
H28B H 0.41101 1.02568 0.16460
C3D C 0.2874(11) 0.6679(9) 0.4128(6)
C4D C 0.4165(11) 0.6967(9) 0.4758(6)
C5D C 0.3830(11) 0.7557(9) 0.5598(6)
C6D C 0.4622(11) 0.6224(9) 0.3222(6)
C7D C 0.3915(11) 0.8124(9) 0.2657(6)
C8D C 0.2135(11) 0.5167(9) 0.2794(6)
C9D C 0.5519(11) 0.6452(9) 0.2410(6)
C10D C 0.3346(11) 0.9220(9) 0.2917(6)
C11D C 0.0545(11) 0.5010(9) 0.2807(6)
C12D C 0.6933(11) 0.6249(9) 0.2504(6)
C13D C 0.4550(11) 1.0680(9) 0.2436(6)
C14D C -0.0549(11) 0.3618(9) 0.2248(6)
H1D H 0.19542 0.56803 0.42621
H2D H 0.25991 0.74895 0.42008
H3D H 0.51736 0.77411 0.45236
H4D H 0.41816 0.60052 0.48629
H5D H 0.40952 0.71251 0.60867
H6D H 0.27377 0.72401 0.56235
H7D H 0.44457 0.86800 0.56161
H8D H 0.53584 0.68314 0.36789
H9D H 0.41433 0.51296 0.33861
H10D H 0.50508 0.86935 0.26772
H11D H 0.36098 0.78106 0.20563
H12D H 0.21008 0.42951 0.31069
H13D H 0.24327 0.51269 0.21957
H14D H 0.58632 0.74977 0.21908
H15D H 0.48236 0.57130 0.19772
H16D H 0.33946 0.93797 0.35427
H17D H 0.22897 0.88643 0.27116
H18D H 0.06032 0.59571 0.25812
H19D H 0.01554 0.48554 0.34009
H20D H 0.74532 0.64310 0.19507
H21D H 0.66035 0.52017 0.26956
H22D H 0.76398 0.69845 0.29242
H23D H 0.44121 1.15483 0.25890
H24D H 0.44144 1.05030 0.18186
H25D H 0.55860 1.09115 0.25981
H26D H -0.16056 0.34005 0.23256
H27D H -0.04759 0.27191 0.24188
H28D H -0.02568 0.38533 0.16460
#END
