
#######################################################################
#
#                 Cambridge Crystallographic Data Centre
#                                CCDC
#
#######################################################################
#
# If this CIF has been generated from an entry in the Cambridge
# Structural Database, then it will include bibliographic, chemical,
# crystal, experimental, refinement or atomic coordinate data resulting
# from the CCDC's data processing and validation procedures.
#
#######################################################################

data_CSD_CIF_COZHIK
_audit_creation_date 2015-02-27
_audit_creation_method CSD-ConQuest-V1
_database_code_CSD COZHIK
_database_code_depnum_ccdc_archive 'CCDC 1017227'
_chemical_formula_sum 'C42 H94 Ag8 Ba2 I12 O21'
_chemical_formula_moiety
;
(C20 H44 Ba1 O10 2+)2n,n(Ag8 I12 4-),n(C2 H6 O1)
;
_journal_coden_Cambridge 9
_journal_volume 53
_journal_year 2014
_journal_page_first 11721
_journal_name_full 'Inorg.Chem. '
loop_
_publ_author_name
"Shashank Mishra"
"E.Jeanneau"
"G.Ledoux"
"S.Daniele"
_chemical_name_systematic
;
catena-(bis(bis(Tetraglyme)-barium) 
(\m~5~-iodo)-(\m~4~-iodo)-tris(\m~3~-iodo)-hexakis(\m~2~-iodo)-iodo-octa-silve
r ethanol solvate)
;
_cell_volume   8624.652
_exptl_crystal_colour 'colorless'
_exptl_crystal_density_diffrn 2.767
_exptl_crystal_description 'needle'
_diffrn_ambient_temperature 110
_symmetry_cell_setting monoclinic
_symmetry_space_group_name_H-M 'P 21/n'
_symmetry_Int_Tables_number 14
loop_
_symmetry_equiv_pos_site_id
_symmetry_equiv_pos_as_xyz
1 x,y,z
2 1/2-x,1/2+y,1/2-z
3 -x,-y,-z
4 -1/2+x,-1/2-y,-1/2+z
_cell_length_a 13.0917(4)
_cell_length_b 24.9736(7)
_cell_length_c 26.3839(8)
_cell_angle_alpha 90
_cell_angle_beta 91.062(3)
_cell_angle_gamma 90
_cell_formula_units_Z 4
loop_
_atom_type_symbol
_atom_type_radius_bond
C 0.68
H 0.23
Ag 1.45
Ba 2.15
I 1.40
O 0.68
loop_
_atom_site_label
_atom_site_type_symbol
_atom_site_fract_x
_atom_site_fract_y
_atom_site_fract_z
Ba1 Ba 0.77514(12) 0.67868(6) 0.55990(6)
O1 O 0.8667(18) 0.5794(9) 0.5324(10)
O2 O 0.6606(15) 0.5842(9) 0.5289(9)
O3 O 0.6088(15) 0.6440(8) 0.6129(8)
O4 O 0.6871(18) 0.7400(9) 0.6361(9)
O5 O 0.757(2) 0.7927(8) 0.5482(10)
O6 O 0.8723(17) 0.6345(10) 0.6460(9)
O7 O 0.9443(14) 0.7313(8) 0.6118(8)
O8 O 0.9640(18) 0.7035(9) 0.5139(8)
O9 O 0.7865(18) 0.6997(10) 0.4569(9)
O10 O 0.5990(16) 0.7056(10) 0.5054(8)
C1 C 0.973(3) 0.5738(13) 0.5330(16)
C2 C 0.809(3) 0.5365(13) 0.5074(15)
C3 C 0.699(2) 0.5359(13) 0.5258(14)
C4 C 0.560(2) 0.5819(13) 0.5454(13)
C5 C 0.553(2) 0.5936(13) 0.6053(13)
C6 C 0.616(3) 0.6578(13) 0.6652(13)
C7 C 0.607(3) 0.7167(13) 0.6679(13)
C8 C 0.668(3) 0.7985(13) 0.6241(14)
C9 C 0.760(3) 0.8207(12) 0.5955(14)
C10 C 0.812(3) 0.8274(13) 0.5086(16)
C11 C 0.869(3) 0.5763(15) 0.6564(14)
C12 C 0.948(2) 0.6616(13) 0.6782(13)
C13 C 0.940(2) 0.7225(13) 0.6657(12)
C14 C 1.040(2) 0.7220(12) 0.5921(12)
C15 C 1.042(2) 0.7347(13) 0.5373(12)
C16 C 0.966(3) 0.7047(14) 0.4597(12)
C17 C 0.880(3) 0.6764(14) 0.4371(13)
C18 C 0.690(3) 0.6893(15) 0.4320(13)
C19 C 0.613(3) 0.7192(15) 0.4526(13)
C20 C 0.503(2) 0.7259(16) 0.5248(13)
H1 H 1.00480 0.60440 0.54900
H2 H 0.98980 0.54200 0.55200
H3 H 0.99750 0.57040 0.49890
H4 H 0.84240 0.50240 0.51520
H5 H 0.80790 0.54200 0.47100
H6 H 0.66590 0.50490 0.53580
H7 H 0.52110 0.61010 0.52860
H8 H 0.52950 0.54740 0.53740
H9 H 0.58990 0.56500 0.62270
H10 H 0.68220 0.64620 0.67910
H11 H 0.56140 0.64140 0.68410
H12 H 0.61670 0.72840 0.70280
H13 H 0.53980 0.72830 0.65540
H14 H 0.65860 0.81840 0.65530
H15 H 0.60560 0.80070 0.60340
H16 H 0.75050 0.85890 0.58980
H17 H 0.82390 0.81490 0.61430
H18 H 0.76410 0.83430 0.48130
H19 H 0.87060 0.80870 0.49560
H20 H 0.83410 0.86090 0.52340
H21 H 0.81930 0.55950 0.63510
H22 H 0.85330 0.57050 0.69090
H23 H 0.93500 0.56160 0.64980
H24 H 0.93170 0.65580 0.71360
H25 H 1.01630 0.64850 0.67160
H26 H 0.99630 0.74040 0.68280
H27 H 0.87530 0.73650 0.67790
H28 H 1.09020 0.74490 0.60950
H29 H 1.05850 0.68460 0.59740
H30 H 1.03030 0.77270 0.53180
H31 H 1.10680 0.72440 0.52320
H32 H 0.96370 0.74180 0.44860
H33 H 1.02880 0.68810 0.44860
H34 H 0.87990 0.67930 0.40040
H35 H 0.88420 0.63880 0.44690
H36 H 0.69740 0.69810 0.39630
H37 H 0.67450 0.65150 0.43550
H38 H 0.63110 0.75690 0.45070
H39 H 0.54950 0.71280 0.43390
H40 H 0.49380 0.70730 0.56170
H41 H 0.51440 0.76910 0.52730
H42 H 0.44190 0.71520 0.49790
O11 O 1.241(2) 0.9789(10) 0.7781(10)
O12 O 1.1613(19) 0.8871(9) 0.7370(9)
O13 O 1.0515(17) 0.9214(9) 0.6541(9)
O14 O 1.1526(16) 0.9666(9) 0.5750(9)
O15 O 1.3523(16) 0.9864(9) 0.5837(8)
O16 O 1.248(2) 0.8587(9) 0.6193(10)
O17 O 1.3959(19) 0.8761(10) 0.6975(10)
O18 O 1.4638(19) 0.9774(11) 0.7087(9)
O19 O 1.3381(19) 1.0668(9) 0.6856(9)
O20 O 1.140(2) 1.0545(10) 0.6665(10)
C21 C 1.238(3) 1.0311(15) 0.8002(16)
C22 C 1.213(3) 0.9359(14) 0.8115(15)
C23 C 1.211(3) 0.8831(13) 0.7862(14)
C24 C 1.057(3) 0.8891(13) 0.7402(11)
C25 C 1.016(3) 0.8838(14) 0.6871(11)
C26 C 1.016(2) 0.9149(13) 0.6023(13)
C27 C 1.044(2) 0.9641(12) 0.5733(13)
C28 C 1.200(2) 1.0082(12) 0.5423(12)
C29 C 1.306(2) 0.9952(12) 0.5365(12)
C30 C 1.458(2) 0.9706(13) 0.5786(13)
C31 C 1.267(3) 0.8486(14) 0.5670(14)
C32 C 1.274(3) 0.8163(14) 0.6545(15)
C33 C 1.384(3) 0.8240(14) 0.6723(16)
C34 C 1.495(3) 0.8851(14) 0.7103(15)
C35 C 1.495(3) 0.9416(15) 0.7398(15)
C36 C 1.486(3) 1.0323(15) 0.7238(14)
C37 C 1.447(3) 1.0711(15) 0.6866(15)
C38 C 1.284(2) 1.1032(13) 0.6515(12)
C39 C 1.173(2) 1.1069(14) 0.6632(15)
C40 C 1.034(3) 1.0591(15) 0.6860(15)
Ba2 Ba 1.25441(13) 0.95929(6) 0.67093(6)
H43 H 1.25850 1.05780 0.77170
H44 H 1.28830 1.03230 0.83120
H45 H 1.16200 1.03690 0.81110
H46 H 1.25790 0.93500 0.84120
H47 H 1.14310 0.94360 0.82180
H48 H 1.28180 0.87200 0.78230
H49 H 1.17540 0.85680 0.80660
H50 H 0.94230 0.91010 0.60110
H51 H 1.04870 0.88370 0.58790
H52 H 1.01570 0.99580 0.58910
H53 H 1.01860 0.96130 0.53860
H54 H 1.19100 1.04320 0.55760
H55 H 1.16520 1.00730 0.50940
H56 H 1.33860 1.02570 0.52040
H57 H 1.31350 0.96350 0.51550
H58 H 1.49220 0.96900 0.61150
H59 H 1.49200 0.99640 0.55700
H60 H 1.45900 0.93550 0.56280
H61 H 1.21850 0.87000 0.54610
H62 H 1.33840 0.86000 0.56090
H63 H 1.25890 0.80990 0.55960
H64 H 1.23070 0.81760 0.68390
H65 H 1.26740 0.78170 0.63810
H66 H 1.40420 0.79550 0.69540
H67 H 1.42740 0.82370 0.64290
H68 H 1.52090 0.85660 0.73210
H69 H 1.53650 0.88720 0.68010
H70 H 1.51840 0.94690 0.77300
H71 H 1.55940 1.03650 0.72600
H72 H 1.45590 1.03930 0.75680
H73 H 1.46660 1.10730 0.69650
H74 H 1.47390 1.06320 0.65320
H75 H 1.00950 1.02370 0.69370
H76 H 1.03420 1.08040 0.71650
H77 H 0.98870 1.07540 0.66110
H78 H 1.03630 0.92270 0.75360
H79 H 1.03260 0.86100 0.76110
H80 H 0.94300 0.88580 0.68740
H81 H 1.03600 0.84950 0.67510
H82 H 1.31490 1.13760 0.65510
H83 H 1.29140 1.09110 0.61750
H84 H 1.16320 1.12540 0.69420
H85 H 1.13760 1.12490 0.63640
O21 O 0.373(3) 0.6948(12) 0.6390(11)
C41 C 0.232(3) 0.6758(15) 0.7003(16)
C42 C 0.346(3) 0.6736(15) 0.6891(14)
H86 H 0.22150 0.68600 0.73490
H87 H 0.20020 0.70170 0.67810
H88 H 0.20170 0.64130 0.69420
H89 H 0.38170 0.69410 0.71520
H90 H 0.36760 0.63640 0.69080
H91 H 0.34280 0.67670 0.61590
I1 I 1.23550(16) 0.51981(8) 0.10676(8)
I2 I 1.34975(18) 0.49659(8) 0.27890(8)
I3 I 1.09671(16) 0.58108(8) 0.38474(8)
I4 I 1.25505(16) 0.60266(8) 0.55214(8)
I5 I 1.45683(15) 0.59367(8) 0.40138(8)
I6 I 1.26982(15) 0.67355(8) 0.25850(8)
I7 I 1.26235(14) 0.73349(7) 0.42448(7)
I8 I 0.96662(16) 0.74906(9) 0.31377(8)
I9 I 1.45822(15) 0.87378(7) 0.45019(8)
I10 I 1.07280(16) 0.87677(8) 0.44695(8)
I11 I 1.25964(16) 0.84991(8) 0.29882(8)
Ag1 Ag 1.26911(19) 0.45922(10) 0.18968(10)
Ag2 Ag 1.28165(19) 0.58675(10) 0.33045(10)
Ag3 Ag 1.2668(2) 0.61646(10) 0.44961(10)
Ag4 Ag 1.13524(19) 0.68596(10) 0.34127(10)
Ag5 Ag 1.40047(18) 0.68842(9) 0.34611(9)
Ag6 Ag 1.1142(2) 0.8057(1) 0.36888(10)
Ag7 Ag 1.40610(19) 0.80590(9) 0.37061(10)
Ag8 Ag 1.26631(19) 0.90552(10) 0.41244(10)
I12 I 1.55540(15) 0.75657(7) 0.31173(8)
I1A I 1.26450(16) 1.01981(8) 0.39324(8)
I11A I 1.24036(16) 0.34991(8) 0.20118(8)
Ag1A Ag 1.23089(19) 0.95922(10) 0.31032(10)
Ag8A Ag 1.23369(19) 0.40552(10) 0.08756(10)
#END
