
#######################################################################
#
#                 Cambridge Crystallographic Data Centre
#                                CCDC
#
#######################################################################
#
# If this CIF has been generated from an entry in the Cambridge
# Structural Database, then it will include bibliographic, chemical,
# crystal, experimental, refinement or atomic coordinate data resulting
# from the CCDC's data processing and validation procedures.
#
#######################################################################

data_CSD_CIF_COZJAE
_audit_creation_date 2015-02-27
_audit_creation_method CSD-ConQuest-V1
_database_code_CSD COZJAE
_database_code_depnum_ccdc_archive 'CCDC 1017230'
_chemical_formula_sum 'C42 H94 Ag7 Ba2 Cu1 I12 O21'
_chemical_formula_moiety
;
(C20 H44 Ba1 O10 2+)2n,n(Ag7 Cu1 I12 4-),n(C2 H6 O1)
;
_journal_coden_Cambridge 9
_journal_volume 53
_journal_year 2014
_journal_page_first 11721
_journal_name_full 'Inorg.Chem. '
loop_
_publ_author_name
"Shashank Mishra"
"E.Jeanneau"
"G.Ledoux"
"S.Daniele"
_chemical_name_systematic
;
catena-(bis(bis(Tetraglyme)-barium) 
(\m~5~-iodo)-(\m~4~-iodo)-tris(\m~3~-iodo)-hexakis(\m~2~-iodo)-iodo-copper-hep
ta-silver ethanol solvate)
;
_cell_volume   8620.447
_exptl_crystal_colour 'colorless'
_exptl_crystal_density_diffrn 2.736
_exptl_crystal_description 'needle'
_diffrn_ambient_temperature 150
#These two values have been output from a single CSD field.
_refine_ls_R_factor_gt 0.0702
_refine_ls_wR_factor_gt 0.0702
_symmetry_cell_setting monoclinic
_symmetry_space_group_name_H-M 'P 21/n'
_symmetry_Int_Tables_number 14
loop_
_symmetry_equiv_pos_site_id
_symmetry_equiv_pos_as_xyz
1 x,y,z
2 1/2-x,1/2+y,1/2-z
3 -x,-y,-z
4 -1/2+x,-1/2-y,-1/2+z
_cell_length_a 13.1030(2)
_cell_length_b 24.9518(5)
_cell_length_c 26.3743(6)
_cell_angle_alpha 90
_cell_angle_beta 91.368(2)
_cell_angle_gamma 90
_cell_formula_units_Z 4
loop_
_atom_type_symbol
_atom_type_radius_bond
C 0.68
H 0.23
Ag 1.45
Ba 2.15
Cu 1.32
I 1.40
O 0.68
loop_
_atom_site_label
_atom_site_type_symbol
_atom_site_fract_x
_atom_site_fract_y
_atom_site_fract_z
C1 C 0.4962(11) 0.7208(8) 0.4770(6)
C2 C 0.3956(11) 0.7180(6) 0.5498(5)
C3 C 0.3075(10) 0.6878(6) 0.5723(5)
C4 C 0.1275(11) 0.6777(7) 0.5654(5)
C5 C 0.0372(11) 0.7086(6) 0.5425(5)
C6 C -0.0374(11) 0.7354(7) 0.4630(5)
C7 C -0.0407(10) 0.7216(7) 0.4090(5)
C8 C 0.0606(10) 0.7197(7) 0.3367(5)
C9 C 0.0567(11) 0.6597(7) 0.3247(6)
C10 C 0.1288(17) 0.5774(8) 0.3486(7)
C11 C 0.0270(11) 0.5727(7) 0.4747(8)
C12 C 0.1890(12) 0.5366(6) 0.4923(8)
C13 C 0.2990(14) 0.5431(9) 0.4888(11)
C14 C 0.4337(11) 0.5785(7) 0.4464(8)
C15 C 0.4389(11) 0.5941(7) 0.3905(7)
C16 C 0.3842(12) 0.6624(8) 0.3341(5)
C17 C 0.3911(12) 0.7217(8) 0.3338(6)
C18 C 0.3335(13) 0.7982(7) 0.3787(7)
C19 C 0.2468(15) 0.8215(6) 0.4084(7)
O1 O 0.4047(6) 0.7011(4) 0.4980(4)
O2 O 0.2170(7) 0.7004(4) 0.5442(3)
O3 O 0.0396(7) 0.7039(4) 0.4891(3)
O4 O 0.0574(7) 0.7310(4) 0.3888(4)
O5 O 0.1276(8) 0.6338(4) 0.3566(4)
O6 O 0.1335(8) 0.5829(4) 0.4770(6)
O7 O 0.3297(9) 0.5787(5) 0.4577(7)
O8 O 0.3920(7) 0.6451(4) 0.3851(4)
O9 O 0.3134(8) 0.7446(5) 0.3680(4)
O10 O 0.2407(9) 0.7928(4) 0.4563(4)
Ba1 Ba 0.22640(5) 0.67922(3) 0.44154(2)
C20 C 0.203(2) 0.8248(7) 0.4949(9)
H1 H 0.12420 0.73390 0.32400
H2 H 0.00360 0.73730 0.31970
H3 H -0.09050 0.74410 0.39130
H4 H -0.05960 0.68420 0.40490
H5 H -0.02070 0.77320 0.46660
H6 H -0.10270 0.72840 0.47790
H7 H 0.04170 0.74600 0.55220
H8 H -0.02600 0.69330 0.55440
H9 H 0.12870 0.68170 0.60190
H10 H 0.12290 0.63990 0.55700
H11 H -0.01110 0.64590 0.33110
H12 H 0.07290 0.65350 0.28940
H13 H 0.18020 0.56120 0.37020
H14 H 0.06300 0.56310 0.35650
H15 H 0.14370 0.56990 0.31360
H16 H 0.45880 0.73230 0.34590
H17 H 0.37960 0.73470 0.29960
H18 H 0.43910 0.64720 0.31460
H19 H 0.31900 0.65140 0.31980
H20 H 0.50980 0.59610 0.38060
H21 H 0.40320 0.56790 0.36950
H22 H 0.47030 0.60420 0.46790
H23 H 0.46240 0.54300 0.45200
H24 H 0.32520 0.55260 0.52220
H25 H 0.32740 0.50900 0.47860
H26 H 0.17270 0.52830 0.52700
H27 H 0.16710 0.50710 0.47060
H28 H -0.00860 0.60580 0.46930
H29 H 0.00610 0.55730 0.50620
H30 H 0.01100 0.54850 0.44740
H31 H 0.39690 0.80160 0.39810
H32 H 0.33870 0.81770 0.34690
H33 H 0.49870 0.71250 0.44150
H34 H 0.49870 0.75910 0.48160
H35 H 0.55320 0.70450 0.49480
H36 H 0.38190 0.75610 0.55130
H37 H 0.45780 0.70990 0.56860
H38 H 0.25370 0.82750 0.52170
H39 H 0.18800 0.86000 0.48190
H40 H 0.14240 0.80880 0.50770
H41 H 0.25960 0.85930 0.41480
H42 H 0.18280 0.81760 0.38930
H43 H 0.30010 0.69860 0.60730
H44 H 0.31980 0.64930 0.57060
C21 C -0.263(2) 0.5298(9) 0.2993(9)
C22 C -0.2950(19) 0.4382(9) 0.3115(7)
C23 C -0.2967(15) 0.3855(8) 0.2869(6)
C24 C -0.4480(13) 0.3923(8) 0.2381(7)
C25 C -0.4903(13) 0.3844(8) 0.1863(8)
C26 C -0.4871(11) 0.4186(6) 0.1023(7)
C27 C -0.4558(10) 0.4652(6) 0.0727(6)
C28 C -0.3051(11) 0.5075(6) 0.0411(5)
C29 C -0.1945(11) 0.4960(7) 0.0349(5)
C30 C -0.0405(11) 0.4724(7) 0.0770(6)
C31 C -0.2306(14) 0.3490(7) 0.0664(7)
C32 C -0.2225(16) 0.3177(7) 0.1525(7)
C33 C -0.1234(16) 0.3250(8) 0.1733(9)
C34 C -0.0049(12) 0.3869(7) 0.2117(7)
C35 C 0.0017(12) 0.4387(8) 0.2387(6)
C36 C -0.0139(10) 0.5322(7) 0.2236(5)
C37 C -0.0528(10) 0.5714(6) 0.1862(6)
C38 C -0.2129(12) 0.6033(6) 0.1510(6)
C39 C -0.3216(12) 0.6071(5) 0.1640(6)
C40 C -0.4643(11) 0.5559(6) 0.1865(7)
O11 O -0.2567(11) 0.4792(5) 0.2792(4)
O12 O -0.3420(8) 0.3880(5) 0.2364(4)
O13 O -0.4496(7) 0.4243(4) 0.1537(4)
O14 O -0.3479(7) 0.4669(4) 0.0741(4)
O15 O -0.1451(7) 0.4884(4) 0.0826(4)
O16 O -0.2488(11) 0.3587(4) 0.1188(4)
O17 O -0.1080(9) 0.3765(5) 0.2001(5)
O18 O -0.0417(7) 0.4798(4) 0.2072(4)
O19 O -0.1638(7) 0.5671(4) 0.1858(4)
O20 O -0.3644(7) 0.5542(4) 0.1662(4)
Ba2 Ba -0.24655(5) 0.45990(3) 0.17035(2)
H45 H -0.16270 0.52570 0.01730
H46 H -0.18690 0.46340 0.01500
H47 H -0.31300 0.54280 0.05580
H48 H -0.34020 0.50610 0.00820
H49 H -0.48280 0.49770 0.08760
H50 H -0.48120 0.46190 0.03810
H51 H -0.56070 0.41570 0.10170
H52 H -0.45810 0.38670 0.08750
H53 H -0.56410 0.38640 0.18630
H54 H -0.46990 0.34940 0.17440
H55 H -0.46720 0.42780 0.24950
H56 H -0.47600 0.36560 0.26080
H57 H -0.03150 0.60730 0.19510
H58 H -0.02890 0.56210 0.15280
H59 H -0.04300 0.53980 0.25640
H60 H 0.05950 0.53530 0.22600
H61 H -0.03620 0.43670 0.26970
H62 H 0.07240 0.44680 0.24700
H63 H -0.27530 0.37060 0.04570
H64 H -0.16130 0.35720 0.05880
H65 H -0.24350 0.31200 0.05920
H66 H -0.18120 0.63860 0.15300
H67 H -0.20760 0.58970 0.11640
H68 H -0.32770 0.62510 0.19650
H69 H -0.35810 0.62750 0.13810
H70 H -0.49190 0.52020 0.18720
H71 H -0.46110 0.57010 0.22030
H72 H -0.50680 0.57830 0.16530
H73 H -0.01160 0.46330 0.10970
H74 H -0.00260 0.50130 0.06260
H75 H -0.03750 0.44160 0.05530
H76 H -0.36400 0.44740 0.32100
H77 H -0.25120 0.43610 0.34160
H78 H -0.33560 0.36050 0.30690
H79 H -0.22700 0.37290 0.28430
H80 H -0.24480 0.55590 0.27430
H81 H -0.21770 0.53260 0.32840
H82 H -0.33230 0.53590 0.30950
H83 H 0.02210 0.35860 0.23310
H84 H 0.03340 0.38840 0.18080
H85 H -0.10680 0.29600 0.19650
H86 H -0.07660 0.32490 0.14520
H87 H -0.27080 0.31630 0.17990
H88 H -0.22400 0.28370 0.13400
C41 C 0.6617(15) 0.6718(8) 0.3137(8)
C42 C 0.7688(16) 0.676(1) 0.2988(9)
O21 O 0.6376(11) 0.6952(6) 0.3610(5)
H89 H 0.77720 0.66110 0.26550
H90 H 0.78900 0.71310 0.29870
H91 H 0.81090 0.65660 0.32300
H92 H 0.62090 0.68940 0.28740
H93 H 0.64310 0.63400 0.31520
H94 H 0.67020 0.67340 0.37960
I1 I 0.16089(9) 1.00404(4) 0.22625(4)
I2 I 0.23385(7) 0.48227(4) 0.11350(4)
I3 I 0.23863(7) 0.64410(3) 0.20096(3)
I4 I 0.42508(7) 0.62225(4) 0.05294(3)
I5 I 0.04189(7) 0.62741(4) 0.04992(3)
I6 I 0.52694(8) 0.74756(4) 0.18794(4)
I7 I 0.23787(6) 0.76570(3) 0.07677(3)
I8 I -0.04810(7) 0.74268(3) 0.18888(3)
I9 I 0.23115(6) 0.82727(4) 0.24430(3)
I10 I 0.04963(7) 0.90690(4) 0.10282(3)
I11 I 0.40147(7) 0.91707(4) 0.11878(3)
I12 I 0.24498(7) 0.89650(4) -0.05068(4)
Ag1 Ag 0.23219(9) 0.59449(5) 0.08923(5)
Ag2 Ag 0.38109(10) 0.69156(5) 0.13141(5)
Ag3 Ag 0.09656(9) 0.69303(5) 0.12988(4)
Ag4 Ag 0.10577(9) 0.81103(4) 0.15594(4)
Ag5 Ag 0.36143(9) 0.81221(5) 0.16094(4)
Ag6 Ag 0.22033(10) 0.91430(5) 0.17452(5)
Ag7 Ag 0.23525(10) 0.88397(5) 0.05169(5)
Cu1 Cu 0.26604(12) 0.54154(7) 0.18991(6)
I1A I 0.33911(9) 0.50404(4) 0.27375(4)
Cu1A Cu 0.23396(12) 1.04154(7) 0.31009(6)
#END
