
#######################################################################
#
#                 Cambridge Crystallographic Data Centre
#                                CCDC
#
#######################################################################
#
# If this CIF has been generated from an entry in the Cambridge
# Structural Database, then it will include bibliographic, chemical,
# crystal, experimental, refinement or atomic coordinate data resulting
# from the CCDC's data processing and validation procedures.
#
#######################################################################

data_CSD_CIF_CUBFEN
_audit_creation_date 2019-12-03
_audit_creation_method CSD-ConQuest-V1
_database_code_CSD CUBFEN
_database_code_depnum_ccdc_archive 'CCDC 1849167'
_chemical_formula_sum 'C19 H66 N12 Np2 O28'
_chemical_formula_moiety
;
(C15 H18 Np2 O16 4-)n,4(C1 H6 N3 1+),12(H2 O1)
;
_journal_coden_Cambridge 885
_journal_volume 65
_journal_year 2020
_journal_page_first 63
_journal_name_full 'Crystallogr.Rep. '
loop_
_publ_author_name
"L.B.Serezhkina"
"M.S.Grigoriev"
"A.M.Fedoseev"
"S.A.Novikov"
"V.N.Serezhkin"
_chemical_name_systematic
;
catena-[tetrakis(diaminomethaniminium) 
tris(\m-pentanedioato)-tetraoxo-di-neptunium dodecahydrate]
;
_cell_volume   4547.906
_exptl_crystal_density_diffrn 2.023
_diffrn_ambient_temperature 100
#These two values have been output from a single CSD field.
_refine_ls_R_factor_gt 0.0345
_refine_ls_wR_factor_gt 0.0345
_symmetry_cell_setting monoclinic
_symmetry_space_group_name_H-M 'P 21/c'
_symmetry_Int_Tables_number 14
loop_
_symmetry_equiv_pos_site_id
_symmetry_equiv_pos_as_xyz
1 x,y,z
2 -x,1/2+y,1/2-z
3 -x,-y,-z
4 x,-1/2-y,-1/2+z
_cell_length_a 17.6879(4)
_cell_length_b 16.9141(4)
_cell_length_c 15.4370(4)
_cell_angle_alpha 90
_cell_angle_beta 100.021(1)
_cell_angle_gamma 90
_cell_formula_units_Z 4
loop_
_atom_type_symbol
_atom_type_radius_bond
C 0.68
H 0.23
N 0.68
Np 1.90
O 0.68
loop_
_atom_site_label
_atom_site_type_symbol
_atom_site_fract_x
_atom_site_fract_y
_atom_site_fract_z
Np1 Np 0.12425(2) 0.56985(2) 0.69400(2)
Np2 Np 0.38439(2) 0.57429(2) 0.32217(2)
O1 O 0.07628(13) 0.57192(14) 0.57824(16)
O2 O 0.17447(13) 0.56713(13) 0.81008(15)
O3 O 0.43055(13) 0.56650(13) 0.43804(15)
O4 O 0.33666(15) 0.57963(14) 0.20584(16)
O5 O 0.18373(13) 0.44169(12) 0.65056(15)
O6 O 0.24753(13) 0.55012(13) 0.63456(16)
O7 O 0.31561(13) 0.44693(13) 0.34965(15)
O8 O 0.25690(13) 0.55650(14) 0.37584(16)
O9 O 0.04480(13) 0.45320(13) 0.72584(17)
O10 O -0.00147(13) 0.57068(13) 0.74689(18)
O11 O -0.18875(13) 0.19932(12) 0.82542(16)
O12 O -0.07404(12) 0.20889(12) 0.79148(17)
O13 O 0.45794(14) 0.45786(13) 0.27849(17)
O14 O 0.51217(14) 0.57442(13) 0.27344(18)
O15 O 0.55949(13) 0.21485(13) 0.18153(16)
O16 O 0.67560(13) 0.20411(13) 0.15098(16)
C1 C 0.23825(16) 0.47661(17) 0.62215(19)
C2 C 0.29056(17) 0.43048(18) 0.5736(2)
H1 H 0.32220 0.39410 0.61530
H2 H 0.32570 0.46760 0.55090
C3 C 0.24679(18) 0.38251(18) 0.49673(19)
H3 H 0.20830 0.34890 0.51860
H4 H 0.28330 0.34710 0.47380
C4 C 0.20593(17) 0.43433(18) 0.4214(2)
H5 H 0.17550 0.40020 0.37610
H6 H 0.17000 0.47050 0.44420
C5 C 0.26199(17) 0.48234(18) 0.3797(2)
C6 C -0.00709(17) 0.49561(17) 0.7486(2)
C7 C -0.07608(17) 0.45944(16) 0.7787(2)
H7 H -0.12330 0.47740 0.73950
H8 H -0.07840 0.47800 0.83900
C8 C -0.07318(16) 0.37001(16) 0.7781(2)
H9 H -0.02640 0.35250 0.81840
H10 H -0.06890 0.35200 0.71810
C9 C -0.14287(17) 0.33046(17) 0.8055(2)
H11 H -0.14880 0.34950 0.86450
H12 H -0.18970 0.34530 0.76350
C10 C -0.13452(16) 0.24172(16) 0.8074(2)
C11 C 0.51133(18) 0.50018(17) 0.2590(2)
C12 C 0.57478(18) 0.46420(17) 0.2182(2)
H13 H 0.62470 0.47490 0.25650
H14 H 0.57550 0.48960 0.16060
C13 C 0.56518(17) 0.37595(16) 0.2053(2)
H15 H 0.51670 0.36590 0.16410
H16 H 0.56050 0.35150 0.26240
C14 C 0.63042(18) 0.33584(18) 0.1700(2)
H17 H 0.63200 0.35570 0.11000
H18 H 0.67980 0.34950 0.20790
C15 C 0.62113(17) 0.24701(17) 0.1671(2)
N1 N 0.11988(16) 0.15377(15) 0.6907(2)
H19 H 0.15780 0.12740 0.67410
H20 H 0.08190 0.12800 0.70800
N2 N 0.17633(15) 0.27211(15) 0.66371(19)
H21 H 0.17630 0.32410 0.66440
H22 H 0.21400 0.24630 0.64590
N3 N 0.06250(16) 0.27155(16) 0.7167(2)
H23 H 0.06230 0.32350 0.71740
H24 H 0.02490 0.24510 0.73390
C16 C 0.11984(16) 0.23276(17) 0.68951(19)
N4 N 0.36870(17) 0.16303(17) 0.2828(2)
H25 H 0.33070 0.13570 0.29810
H26 H 0.40570 0.13850 0.26220
N5 N 0.42728(16) 0.28204(17) 0.26676(19)
H27 H 0.42820 0.33390 0.27140
H28 H 0.46420 0.25730 0.24630
N6 N 0.31454(16) 0.27883(16) 0.32170(19)
H29 H 0.27640 0.25200 0.33710
H30 H 0.31580 0.33060 0.32680
C17 C 0.37011(18) 0.24113(18) 0.2908(2)
N7 N 0.15469(18) 0.84034(17) 0.9536(2)
H31 H 0.19210 0.86680 0.93580
H32 H 0.12170 0.86520 0.98040
N8 N 0.09071(19) 0.7223(2) 0.9662(2)
H33 H 0.08610 0.67110 0.95670
H34 H 0.05760 0.74720 0.99300
N9 N 0.19708(17) 0.72477(17) 0.89979(19)
H35 H 0.23470 0.75070 0.88180
H36 H 0.19230 0.67350 0.89090
C18 C 0.14802(19) 0.76262(19) 0.9398(2)
N10 N 0.35645(17) 0.85227(17) 0.06719(19)
H37 H 0.31700 0.87630 0.08320
H38 H 0.38970 0.87950 0.04290
N11 N 0.31635(16) 0.73390(16) 0.11662(19)
H39 H 0.27670 0.75770 0.13260
H40 H 0.32290 0.68270 0.12500
N12 N 0.42668(18) 0.73949(19) 0.0561(2)
H41 H 0.43370 0.68840 0.06480
H42 H 0.45960 0.76710 0.03170
C19 C 0.36610(18) 0.77509(18) 0.0799(2)
O17 O 0.0290(4) 0.4253(5) 0.9923(6)
O18 O 0.4171(4) 0.5678(2) 0.0628(3)
O19 O 0.4132(3) 0.0753(2) 0.4834(3)
O20 O -0.05126(19) 0.7526(2) 0.5651(2)
H43 H -0.023(3) 0.736(3) 0.611(2)
H44 H -0.067(3) 0.713(2) 0.536(3)
O21 O 0.57484(16) 0.76527(16) 0.44714(18)
H45 H 0.541(2) 0.752(3) 0.404(2)
H46 H 0.582(3) 0.724(2) 0.478(3)
O22 O -0.05079(17) 0.62150(18) 0.4677(2)
H47 H -0.017(2) 0.596(3) 0.501(3)
H48 H -0.080(3) 0.587(2) 0.439(3)
O23 O 0.26814(18) 0.43575(18) 0.8676(2)
H49 H 0.237(2) 0.476(2) 0.858(4)
H50 H 0.302(2) 0.457(3) 0.909(3)
O24 O 0.19809(16) 0.19991(17) 0.4074(2)
H51 H 0.208(3) 0.1517(14) 0.403(4)
H52 H 0.1513(13) 0.204(3) 0.409(4)
O25 O 0.12574(18) 0.54796(18) 0.97610(19)
H53 H 0.102(3) 0.506(2) 0.985(3)
H54 H 0.142(3) 0.539(3) 0.928(2)
O26 O 0.22643(17) 0.46540(16) 0.11459(19)
H55 H 0.261(2) 0.497(2) 0.136(3)
H56 H 0.199(2) 0.485(3) 0.071(2)
O27 O 0.28057(16) 0.18305(15) 0.57780(18)
H57 H 0.259(3) 0.184(3) 0.5245(15)
H58 H 0.277(3) 0.1377(16) 0.597(3)
O28 O 0.55650(15) 0.63163(15) 0.53609(18)
H59 H 0.522(2) 0.605(2) 0.504(3)
H60 H 0.586(2) 0.599(2) 0.565(3)
Np1A Np -0.12425(2) 0.06985(2) 0.80600(2)
Np2A Np 0.61561(2) 0.07429(2) 0.17783(2)
O11A O 0.18875(13) 0.69932(12) 0.67458(16)
O12A O 0.07404(12) 0.70889(12) 0.70852(17)
O15A O 0.44051(13) 0.71485(13) 0.31847(16)
O16A O 0.32440(13) 0.70411(13) 0.34902(16)
#END
