
#######################################################################
#
#                 Cambridge Crystallographic Data Centre
#                                CCDC
#
#######################################################################
#
# If this CIF has been generated from an entry in the Cambridge
# Structural Database, then it will include bibliographic, chemical,
# crystal, experimental, refinement or atomic coordinate data resulting
# from the CCDC's data processing and validation procedures.
#
#######################################################################

data_CSD_CIF_CUBQIB
_audit_creation_date 2015-02-27
_audit_creation_method CSD-ConQuest-V1
_database_code_CSD CUBQIB
_database_code_depnum_ccdc_archive 'CCDC 1020187'
_chemical_formula_sum 'C32 H42 Ho6 Na2 O47 S4'
_chemical_formula_moiety
;
(C32 H26 Ho6 O39 S4 2-)n,2(Na1 1+),8(H2 O1)
;
_journal_coden_Cambridge 9
_journal_volume 53
_journal_year 2014
_journal_page_first 12234
_journal_name_full 'Inorg.Chem. '
loop_
_publ_author_name
"Yi-Xia Ren"
"Xiang-Jun Zheng"
"Li-Cun Li"
"Da-Qiang Yuan"
"Miao An"
"Lin-Pei Jin"
_chemical_name_systematic
;
catena-[di-sodium 
tetrakis(\m~4~-2-sulfonatoterephthalato)-octakis(\m~3~-hydroxo)-(\m~2~-aqua)-d
iaqua-hexa-holmium octahydrate]
;
_cell_volume   5791.273
_exptl_crystal_colour 'yellow'
_exptl_crystal_density_diffrn 2.661
_exptl_crystal_description 'block'
_diffrn_ambient_temperature 110
#These two values have been output from a single CSD field.
_refine_ls_R_factor_gt 0.072
_refine_ls_wR_factor_gt 0.072
_symmetry_cell_setting monoclinic
_symmetry_space_group_name_H-M 'C 2/m'
_symmetry_Int_Tables_number 12
loop_
_symmetry_equiv_pos_site_id
_symmetry_equiv_pos_as_xyz
1 x,y,z
2 -x,y,-z
3 1/2+x,1/2+y,z
4 1/2-x,1/2+y,-z
5 -x,-y,-z
6 x,-y,z
7 -1/2-x,-1/2-y,-z
8 -1/2+x,-1/2-y,z
_cell_length_a 26.781(8)
_cell_length_b 17.916(5)
_cell_length_c 13.763(4)
_cell_angle_alpha 90
_cell_angle_beta 118.719(5)
_cell_angle_gamma 90
_cell_formula_units_Z 4
loop_
_atom_type_symbol
_atom_type_radius_bond
C 0.68
H 0.23
Ho 1.92
Na 1.66
O 0.68
S 1.02
loop_
_atom_site_label
_atom_site_type_symbol
_atom_site_fract_x
_atom_site_fract_y
_atom_site_fract_z
Ho1 Ho 0.47833(5) 1.00000 0.34105(9)
Ho2 Ho 0.63236(4) 1.00000 0.41108(9)
Ho3 Ho 0.52261(3) 0.89624(5) 0.15805(6)
Ho4 Ho 0.57757(3) 0.76585(6) 0.03626(7)
S1 S 0.5800(2) 0.6655(3) -0.1807(5)
S2 S 0.64034(19) 0.6644(3) 0.2862(4)
O1 O 0.8513(5) 0.5825(7) 0.4438(9)
O2 O 0.9063(5) 0.6800(8) 0.4837(12)
O3 O 0.6705(5) 0.8983(7) 0.3720(9)
O4 O 0.6152(5) 0.8312(7) 0.2221(10)
O5 O 0.6138(5) 0.6693(7) 0.1617(10)
O6 O 0.6555(6) 0.5879(8) 0.3187(13)
O7 O 0.6065(5) 0.6997(8) 0.3300(11)
O8 O 0.5731(5) 0.8918(8) -0.2726(9)
O9 O 0.5636(5) 0.8353(7) -0.1379(11)
O10 O 0.8330(5) 0.7069(7) -0.0806(10)
O11 O 0.7854(5) 0.6028(8) -0.0966(12)
O12 O 0.5287(5) 0.7008(8) -0.2663(11)
O13 O 0.5894(6) 0.5896(9) -0.2039(14)
O14 O 0.5832(5) 0.6713(7) -0.0718(12)
O15 O 0.5516(4) 0.8905(7) 0.0223(8)
H1 H 0.57730 0.92280 0.03470
O16 O 0.5146(5) 0.7716(7) 0.106(1)
H2 H 0.52080 0.73700 0.15270
O17 O 0.5830(6) 1.00000 0.2094(12)
H3 H 0.60510 1.00000 0.18110
O18 O 0.5502(4) 0.9227(6) 0.3416(9)
H4 H 0.55650 0.88410 0.38170
O19 O 0.4705(6) 1.00000 0.1607(12)
H5 H 0.43700 1.00000 0.10630
O20 O 0.7386(7) 1.00000 0.5225(15)
O21 O 0.50000 0.9192(19) 0.50000
O22 O 0.3819(8) 1.00000 0.322(2)
C1 C 0.8110(8) 0.7774(10) 0.4123(14)
H6 H 0.84720 0.80010 0.43740
C2 C 0.7643(6) 0.8231(10) 0.3804(13)
H7 H 0.76840 0.87590 0.38400
C3 C 0.7108(7) 0.7902(11) 0.3424(13)
C4 C 0.7053(7) 0.7133(9) 0.3350(14)
C5 C 0.7553(7) 0.6689(11) 0.3709(14)
H8 H 0.75220 0.61610 0.36800
C6 C 0.8081(7) 0.7017(10) 0.4100(14)
C7 C 0.8594(7) 0.6525(11) 0.4461(14)
C8 C 0.6616(7) 0.8427(12) 0.3085(15)
C9 C 0.7372(7) 0.7165(10) -0.1287(14)
C10 C 0.6878(7) 0.6807(12) -0.1435(15)
H9 H 0.68870 0.62810 -0.13420
C11 C 0.6385(7) 0.7175(10) -0.1707(15)
C12 C 0.6387(6) 0.7951(10) -0.1761(14)
C13 C 0.6865(7) 0.8321(10) -0.1629(13)
H10 H 0.68600 0.88480 -0.17060
C14 C 0.7358(6) 0.7916(10) -0.1379(12)
H11 H 0.76910 0.81750 -0.12730
C15 C 0.7890(7) 0.6723(11) -0.1015(14)
C16 C 0.5870(8) 0.8439(12) -0.1991(16)
Na1 Na 0.6367(6) 1.00000 0.0529(15)
Na2 Na 0.6288(6) 0.50000 0.1675(12)
O23 O 0.5337(12) 0.5242(13) 0.154(2)
O24 O 0.7242(11) 0.50000 0.200(2)
O25 O 0.5905(13) 0.50000 -0.021(2)
O26 O 0.7173(17) 0.50000 -0.277(2)
O27 O 0.4513(9) 0.7052(13) -0.4259(18)
O28 O 0.50000 0.6400(18) 0.00000
O29 O 0.7455(12) 0.50000 0.0187(19)
Ho3A Ho 0.47739(3) 0.89624(5) -0.15805(6)
Ho4A Ho 0.42243(3) 0.76585(6) -0.03626(7)
S1A S 0.4200(2) 0.6655(3) 0.1807(5)
S2A S 0.35966(19) 0.6644(3) -0.2862(4)
O1A O 0.1487(5) 0.5825(7) -0.4438(9)
O2A O 0.0937(5) 0.6800(8) -0.4837(12)
O3A O 0.3295(5) 0.8983(7) -0.3720(9)
O4A O 0.3848(5) 0.8312(7) -0.2221(10)
O5A O 0.3862(5) 0.6693(7) -0.1617(10)
O6A O 0.3445(6) 0.5879(8) -0.3187(13)
O7A O 0.3935(5) 0.6997(8) -0.3300(11)
O8A O 0.4269(5) 0.8918(8) 0.2726(9)
O9A O 0.4364(5) 0.8353(7) 0.1379(11)
O10A O 0.1670(5) 0.7069(7) 0.0806(10)
O11A O 0.2146(5) 0.6028(8) 0.0966(12)
O12A O 0.4713(5) 0.7008(8) 0.2663(11)
O13A O 0.4106(6) 0.5896(9) 0.2039(14)
O14A O 0.4168(5) 0.6713(7) 0.0718(12)
O15A O 0.4484(4) 0.8905(7) -0.0223(8)
H1A H 0.42270 0.92280 -0.03470
O16A O 0.4854(5) 0.7716(7) -0.106(1)
H2A H 0.47920 0.73700 -0.15270
O18A O 0.4498(4) 0.9227(6) -0.3416(9)
H4A H 0.44350 0.88410 -0.38170
C1A C 0.1890(8) 0.7774(10) -0.4123(14)
H6A H 0.15280 0.80010 -0.43740
C2A C 0.2357(6) 0.8231(10) -0.3804(13)
H7A H 0.23160 0.87590 -0.38400
C3A C 0.2892(7) 0.7902(11) -0.3424(13)
C4A C 0.2947(7) 0.7133(9) -0.3350(14)
C5A C 0.2447(7) 0.6689(11) -0.3709(14)
H8A H 0.24780 0.61610 -0.36800
C6A C 0.1919(7) 0.7017(10) -0.4100(14)
C7A C 0.1406(7) 0.6525(11) -0.4461(14)
C8A C 0.3384(7) 0.8427(12) -0.3085(15)
C9A C 0.2628(7) 0.7165(10) 0.1287(14)
C10A C 0.3122(7) 0.6807(12) 0.1435(15)
H9A H 0.31130 0.62810 0.13420
C11A C 0.3615(7) 0.7175(10) 0.1707(15)
C12A C 0.3613(6) 0.7951(10) 0.1761(14)
C13A C 0.3135(7) 0.8321(10) 0.1629(13)
H10A H 0.31400 0.88480 0.17060
C14A C 0.2642(6) 0.7916(10) 0.1379(12)
H11A H 0.23090 0.81750 0.12730
C15A C 0.2110(7) 0.6723(11) 0.1015(14)
C16A C 0.4130(8) 0.8439(12) 0.1991(16)
Ho1A Ho 0.52167(5) 1.00000 -0.34105(9)
Ho1A* Ho 0.52167(5) 1.00000 0.65895(9)
Ho2A Ho 0.36764(4) 1.00000 -0.41108(9)
Ho2B Ho 0.13236(4) 0.50000 -0.58892(9)
Ho2C Ho 0.86764(4) 0.50000 0.58892(9)
Ho3E Ho 0.52261(3) 1.10376(5) 0.15805(6)
Ho4F Ho 0.92243(3) 0.73415(6) -0.03626(7)
Ho4G Ho 0.07757(3) 0.73415(6) 0.03626(7)
O1C O 0.6487(5) 1.0825(7) 0.5562(9)
O1F O 0.6487(5) 0.9175(7) 0.5562(9)
O3E O 0.6705(5) 1.1017(7) 0.3720(9)
O8D O 0.4269(5) 1.1082(8) 0.2726(9)
O10F O 0.6670(5) 0.7931(7) 0.0806(10)
O10G O 0.3330(5) 0.7931(7) -0.0806(10)
O17A O 0.4170(6) 1.00000 -0.2094(12)
O18E O 0.5502(4) 1.0773(6) 0.3416(9)
O19A O 0.5295(6) 1.00000 -0.1607(12)
O21D O 0.50000 1.0808(19) 0.50000
#END
