
#######################################################################
#
#                 Cambridge Crystallographic Data Centre
#                                CCDC
#
#######################################################################
#
# If this CIF has been generated from an entry in the Cambridge
# Structural Database, then it will include bibliographic, chemical,
# crystal, experimental, refinement or atomic coordinate data resulting
# from the CCDC's data processing and validation procedures.
#
#######################################################################

data_CSD_CIF_CUCSIC
_audit_creation_date 1985-09-20
_audit_creation_method CSD-ConQuest-V1
_database_code_CSD CUCSIC
_database_code_depnum_ccdc_archive 'CCDC 1132276'
_chemical_formula_sum 'C4 H8 Na1 O10 Y1'
_chemical_formula_moiety
;
(C4 H6 O9 Y1 1-)n,n(Na1 1+),n(H2 O1)
;
_journal_coden_Cambridge 367
_journal_volume 11
_journal_year 1985
_journal_page_first 106
_journal_name_full 'Koord.Khim.(Russ.)(Coord.Chem.) '
loop_
_publ_author_name
"A.S.Antsyshkina"
"M.A.Porai-Koshits"
"V.N.Ostrikova"
_chemical_name_systematic
;
catena-[Sodium aqua-bis(\m-formato)-bis(formato)-yttrium(iii) monohydrate]
;
_cell_volume    513.205
_diffrn_ambient_temperature ?
_diffrn_special_details
;
The study was carried out at room temperature,in the range 283-303K

;
#These two values have been output from a single CSD field.
_refine_ls_R_factor_gt 0.055
_refine_ls_wR_factor_gt 0.055
_symmetry_cell_setting monoclinic
_symmetry_space_group_name_H-M 'P 21'
_symmetry_Int_Tables_number 4
loop_
_symmetry_equiv_pos_site_id
_symmetry_equiv_pos_as_xyz
1 x,y,z
2 -x,1/2+y,-z
_cell_length_a 6.519(1)
_cell_length_b 11.296(3)
_cell_length_c 7.031(2)
_cell_angle_alpha 90
_cell_angle_beta 97.60(2)
_cell_angle_gamma 90
_cell_formula_units_Z 2
loop_
_atom_type_symbol
_atom_type_radius_bond
C 0.68
Na 0.97
O 0.68
Y 1.75
loop_
_atom_site_label
_atom_site_type_symbol
_atom_site_fract_x
_atom_site_fract_y
_atom_site_fract_z
Na1 Na 0.2999(14) 0.7531(7) 0.0602(11)
Y1 Y 0.1049(2) -0.00420 0.3028(2)
O1 O 0.4356(20) -0.0761(12) 0.2368(21)
O2 O 0.7702(22) -0.0895(13) 0.2986(20)
O3 O -0.1099(24) 0.0815(12) 0.0144(19)
O4 O 0.0518(24) -0.0899(14) -0.0204(20)
O5 O 0.1417(21) -0.2118(11) 0.3705(18)
O6 O 0.0618(23) -0.3722(12) 0.5173(18)
O7 O 0.5284(25) 0.3031(13) 0.2186(19)
O8 O 0.2895(22) 0.1667(12) 0.2387(19)
O9 O 0.2946(21) -0.0103(21) 0.6134(17)
C1 C 0.6006(33) -0.0359(16) 0.3035(36)
C2 C -0.0710(32) -0.0082(34) -0.0915(27)
C3 C 0.0737(30) -0.2610(19) 0.5075(30)
C4 C 0.4002(34) 0.2497(20) 0.3046(31)
O10 O 0.3450(25) 0.1781(14) 0.8422(20)
O2* O -0.2298(22) -0.0895(13) 0.2986(20)
O6A O -0.0618(23) 0.1278(12) 0.4827(18)
Y1A Y -0.1049(2) -0.50420 0.6972(2)
Y1* Y 1.1049(2) -0.00420 0.3028(2)
#END
