
#######################################################################
#
#                 Cambridge Crystallographic Data Centre
#                                CCDC
#
#######################################################################
#
# If this CIF has been generated from an entry in the Cambridge
# Structural Database, then it will include bibliographic, chemical,
# crystal, experimental, refinement or atomic coordinate data resulting
# from the CCDC's data processing and validation procedures.
#
#######################################################################

data_CSD_CIF_CUDQEZ
_audit_creation_date 2015-03-01
_audit_creation_method CSD-ConQuest-V1
_database_code_CSD CUDQEZ
_database_code_depnum_ccdc_archive 'CCDC 1026384'
_chemical_formula_sum 'C19 H18 N12 O6 Zn3'
_chemical_formula_moiety
;
(C17 H10 N11 O6 Zn3 1-)n,C2 H8 N1 1+
;
_journal_coden_Cambridge 1220
_journal_volume 21
_journal_year 2015
_journal_page_first 5700
_journal_name_full 'Chem.-Eur.J. '
loop_
_publ_author_name
"Hong-Ru Fu"
"Jian Zhang"
_chemical_name_systematic
;
catena-[dimethylammonium 
tris(\m~3~-4-carboxylato-1H-pyrazol-1-yl)-(\m~3~-6-amino-7H-purin-7-yl)-tri-zi
nc(ii) unknown solvate]
;
_cell_volume   7683.464
_exptl_crystal_colour 'colorless'
_exptl_crystal_density_diffrn 1.142
_exptl_special_details
;
We calculate 51.77% void space in the structure

;
_exptl_crystal_description 'block'
_diffrn_ambient_temperature 373
_refine_special_details
;
Disordered cation and solvent molecules were not modelled and the disordered 
density was taken into account using the SQUEEZE/PLATON procedure.
;
#These two values have been output from a single CSD field.
_refine_ls_R_factor_gt 0.0393
_refine_ls_wR_factor_gt 0.0393
_symmetry_cell_setting monoclinic
_symmetry_space_group_name_H-M 'C 2/c'
_symmetry_Int_Tables_number 15
loop_
_symmetry_equiv_pos_site_id
_symmetry_equiv_pos_as_xyz
1 x,y,z
2 -x,y,1/2-z
3 1/2+x,1/2+y,z
4 1/2-x,1/2+y,1/2-z
5 -x,-y,-z
6 x,-y,-1/2+z
7 -1/2-x,-1/2-y,-z
8 -1/2+x,-1/2-y,-1/2+z
_cell_length_a 17.7098(6)
_cell_length_b 13.6266(4)
_cell_length_c 31.9688(8)
_cell_angle_alpha 90
_cell_angle_beta 95.170(3)
_cell_angle_gamma 90
_cell_formula_units_Z 8
loop_
_atom_type_symbol
_atom_type_radius_bond
C 0.68
H 0.23
N 0.68
O 0.68
Zn 1.22
loop_
_atom_site_label
_atom_site_type_symbol
_atom_site_fract_x
_atom_site_fract_y
_atom_site_fract_z
Zn1 Zn 0.03727(2) 0.91091(2) 0.038955(10)
Zn2 Zn -0.26240(2) 0.90551(2) 0.105526(10)
Zn3 Zn -0.22687(2) 1.03644(3) 0.191775(10)
N1 N -0.28476(17) 1.09309(18) 0.14009(8)
N2 N 0.08688(13) 1.03730(16) 0.02673(7)
N3 N -0.26460(17) 0.89902(19) 0.19744(7)
N4 N -0.30906(16) 1.03772(18) 0.10596(8)
N5 N 0.04279(14) 1.11206(16) 0.00972(6)
O1 O -0.42417(18) 1.2710(2) 0.04093(8)
O2 O 0.18635(16) 1.33542(17) 0.05838(7)
O3 O -0.28764(19) 0.5672(2) 0.21913(9)
C1 C 0.2066(2) 1.2456(3) 0.05921(10)
C2 C -0.10562(16) 0.9097(2) 0.07841(8)
H1 H -0.12460 0.88030 0.05340
O4 O -0.35834(18) 1.36289(18) 0.08662(9)
C3 C -0.10131(17) 0.9761(2) 0.13883(8)
N6 N -0.11939(16) 1.0159(2) 0.17552(7)
N7 N -0.15060(14) 0.93483(18) 0.10814(7)
N8 N -0.03210(14) 0.92922(19) 0.08664(7)
N9 N -0.27812(18) 0.84621(19) 0.16115(7)
C4 C -0.3043(2) 1.1858(2) 0.13191(10)
H2 H -0.29310 1.23860 0.14980
O5 O -0.2728(2) 0.6558(2) 0.27667(8)
N10 N 0.01265(18) 1.0461(3) 0.19133(9)
C5 C 0.08037(19) 1.1954(2) 0.01806(8)
H3 H 0.06290 1.25760 0.01010
O6 O 0.26795(16) 1.2168(2) 0.07661(10)
C6 C -0.3454(2) 1.0964(2) 0.07783(10)
H4 H -0.36850 1.07660 0.05190
C7 C -0.2880(2) 0.7527(2) 0.17122(10)
H5 H -0.29930 0.70240 0.15200
C8 C -0.3435(2) 1.1914(2) 0.09283(10)
C9 C -0.02859(17) 0.9709(2) 0.12624(8)
C10 C 0.14989(18) 1.1755(2) 0.04055(8)
C11 C 0.03174(19) 1.0062(3) 0.15459(9)
C12 C 0.15062(17) 1.0755(2) 0.04498(9)
H6 H 0.19000 1.03950 0.05880
C13 C -0.2791(2) 0.7412(2) 0.21421(9)
C14 C -0.2643(2) 0.8357(3) 0.22913(10)
H7 H -0.25550 0.85240 0.25740
C15 C -0.2801(2) 0.6460(3) 0.23741(10)
N11 N 0.10412(17) 1.0017(3) 0.14892(9)
H8 H 0.13730 1.02350 0.16800
H9 H 0.11840 0.97710 0.12610
C16 C -0.0592(2) 1.0496(3) 0.19914(10)
H10 H -0.06900 1.07930 0.22430
C17 C -0.3763(2) 1.2809(3) 0.07213(11)
Zn1B Zn -0.46273(2) 1.41091(2) 0.038955(10)
Zn1D Zn -0.03727(2) 1.08909(2) -0.038955(10)
Zn2B Zn 0.23760(2) 1.40551(2) 0.105526(10)
Zn3C Zn -0.27313(2) 0.53644(3) 0.308225(10)
N5D N -0.04279(14) 0.88794(16) -0.00972(6)
O1B O 0.07583(18) 0.7710(2) 0.04093(8)
O2B O -0.31365(16) 0.83542(17) 0.05838(7)
O4B O 0.14166(18) 0.86289(18) 0.08662(9)
O5C O -0.2272(2) 1.1558(2) 0.22333(8)
#END
