
#######################################################################
#
#                 Cambridge Crystallographic Data Centre
#                                CCDC
#
#######################################################################
#
# If this CIF has been generated from an entry in the Cambridge
# Structural Database, then it will include bibliographic, chemical,
# crystal, experimental, refinement or atomic coordinate data resulting
# from the CCDC's data processing and validation procedures.
#
#######################################################################

data_CSD_CIF_CUFBEL
_audit_creation_date 2010-07-07
_audit_creation_method CSD-ConQuest-V1
_database_code_CSD CUFBEL
_database_code_depnum_ccdc_archive 'CCDC 740818'
_chemical_formula_sum 'C26 H81 K1 N11 Ni1 O14 Rb3 Si9'
_chemical_formula_moiety
;
(C2 Ni1 O2 Rb2 Si9 2-)n,n(C12 H30 N2 O6 Rb1 1+),n(C12 H30 K1 N2 O6 1+),7n(H3 
N1)
;
_journal_coden_Cambridge 179
_journal_volume 48
_journal_year 2009
_journal_page_first 8770
_journal_name_full 'Angew.Chem.,Int.Ed. '
loop_
_publ_author_name
"S.Joseph"
"M.Hamberger"
"F.Mutzbauer"
"O.Hartl"
"M.Meier"
"N.Korber"
_chemical_name_systematic
;
catena-((18-crown-6)-diammonia-potassium (18-crown-6)-diammonia-rubidium 
(\m~2~-carbonyl)-carbonyl-nonasilicide-nickel-rubidium hepta-ammonia 
clathrate)
;
_cell_volume   3019.288
_exptl_crystal_colour 'red'
_exptl_crystal_density_diffrn 1.517
_exptl_special_details
;
air-and moisture-sensitive

;
_exptl_crystal_description 'rod'
_diffrn_ambient_temperature 123
#These two values have been output from a single CSD field.
_refine_ls_R_factor_gt 0.056
_refine_ls_wR_factor_gt 0.056
_symmetry_cell_setting triclinic
_symmetry_space_group_name_H-M 'P -1'
_symmetry_Int_Tables_number 2
loop_
_symmetry_equiv_pos_site_id
_symmetry_equiv_pos_as_xyz
1 x,y,z
2 -x,-y,-z
_cell_length_a 10.020(2)
_cell_length_b 16.780(3)
_cell_length_c 18.390(4)
_cell_angle_alpha 82.39(3)
_cell_angle_beta 87.60(3)
_cell_angle_gamma 80.18(3)
_cell_formula_units_Z 2
loop_
_atom_type_symbol
_atom_type_radius_bond
C 0.68
H 0.23
K 2.03
N 0.68
Ni 1.08
O 0.66
Rb 2.15
Si 1.18
loop_
_atom_site_label
_atom_site_type_symbol
_atom_site_fract_x
_atom_site_fract_y
_atom_site_fract_z
Rb1 Rb 0.47982(6) 0.56707(4) 0.11591(3)
Rb2 Rb 0.90631(7) 0.66745(4) -0.07719(3)
Rb3 Rb 1.25391(7) 0.05606(4) 0.15906(3)
Ni1 Ni 0.75820(8) 0.47238(5) 0.01317(3)
K1 K 0.56212(13) 0.30142(8) 0.45559(6)
Si1 Si 0.78444(17) 0.57120(11) 0.21051(8)
Si2 Si 0.86178(17) 0.53974(10) 0.09014(8)
Si3 Si 1.02628(17) 0.48717(10) 0.18761(8)
Si4 Si 0.77117(18) 0.68068(11) 0.10876(8)
Si5 Si 0.97944(17) 0.57502(11) 0.28312(8)
Si6 Si 1.13674(17) 0.61865(11) 0.18703(8)
Si7 Si 1.08646(16) 0.57051(10) 0.07508(7)
Si8 Si 1.00635(19) 0.71302(11) 0.09243(8)
Si9 Si 0.89396(18) 0.70616(11) 0.21039(8)
O1 O 0.7409(5) 0.3163(3) 0.0995(2)
O2 O 0.3924(5) 0.3873(3) 0.0750(2)
O3 O 0.7966(4) 0.3648(3) 0.4812(2)
O4 O 0.3253(4) 0.4152(3) 0.4356(2)
O5 O 0.6498(5) 0.3111(3) 0.6053(2)
O6 O 1.2158(5) 0.2166(3) 0.2210(2)
O7 O 1.0938(5) -0.0553(3) 0.2507(2)
O8 O 0.3742(5) 0.3151(3) 0.5729(2)
O9 O 0.7562(4) 0.3168(3) 0.3437(2)
O10 O 1.5525(5) -0.0212(3) 0.1737(2)
O11 O 0.4808(4) 0.3721(3) 0.3131(2)
O12 O 1.3648(5) -0.1273(3) 0.2280(2)
O13 O 1.0515(5) 0.1035(3) 0.2894(2)
O14 O 1.4896(5) 0.1430(3) 0.2012(2)
N1 N 1.2708(8) -0.0413(4) 0.0201(4)
N2 N 1.3636(6) 0.0211(4) 0.3321(3)
N3 N 1.0407(6) 0.0582(4) -0.0929(3)
N4 N 0.3803(7) 0.7644(4) 0.0295(3)
N5 N 0.9712(7) 0.1463(4) 0.0822(3)
N6 N 0.6888(8) 0.1407(4) 0.5379(3)
N7 N 0.3926(7) 0.1745(4) 0.4444(3)
N8 N 1.3392(9) 0.1408(5) 0.0149(4)
N9 N 1.6626(8) -0.0028(5) 0.4144(4)
N10 N 0.012(1) 0.1027(6) 0.4782(4)
N11 N 0.1649(7) 0.1919(4) 0.5967(3)
C1 C 0.7381(6) 0.3801(4) 0.0646(3)
C2 C 0.8926(7) 0.3663(4) 0.4231(3)
H1 H 0.95310 0.31280 0.42530
H2 H 0.94860 0.40860 0.42710
C3 C 0.7023(7) 0.3229(4) 0.2730(3)
H3 H 0.67810 0.26960 0.26610
H4 H 0.77320 0.33450 0.23590
C4 C 0.5804(7) 0.3872(4) 0.2595(3)
H5 H 0.60470 0.44150 0.26180
H6 H 0.54520 0.38660 0.21010
C5 C 1.2542(7) -0.1629(4) 0.2107(4)
H7 H 1.28090 -0.22290 0.21450
H8 H 1.22590 -0.14230 0.15980
C6 C 0.3404(6) 0.4457(4) 0.0369(3)
C7 C 0.3645(7) 0.4349(4) 0.3079(3)
H9 H 0.32280 0.43920 0.25940
H10 H 0.39170 0.48790 0.31290
C8 C 1.1189(7) 0.2345(4) 0.2781(3)
H11 H 1.08510 0.29390 0.27340
H12 H 1.16190 0.21770 0.32650
C9 C 0.2656(7) 0.4152(4) 0.3669(3)
H13 H 0.18190 0.45630 0.36180
H14 H 0.24160 0.36100 0.36350
C10 C 0.7523(7) 0.3588(5) 0.6086(3)
H15 H 0.79350 0.34690 0.65760
H16 H 0.71290 0.41740 0.60040
C11 C 0.8587(7) 0.3393(5) 0.5508(3)
H17 H 0.93530 0.36860 0.55520
H18 H 0.89370 0.28000 0.55630
C12 C 0.4290(7) 0.2892(5) 0.6440(3)
H19 H 0.46080 0.22950 0.64920
H20 H 0.35660 0.30020 0.68140
C13 C 0.8203(7) 0.3842(4) 0.3529(3)
H21 H 0.75160 0.43410 0.35320
H22 H 0.88510 0.39340 0.31180
C14 C 1.6508(7) 0.0247(4) 0.1909(4)
H23 H 1.73960 0.00380 0.16880
H24 H 1.66080 0.01910 0.24470
C15 C 1.1407(8) -0.1419(4) 0.2625(3)
H25 H 1.06590 -0.17130 0.25470
H26 H 1.17130 -0.15830 0.31370
C16 C 0.9440(7) 0.0594(4) 0.2851(4)
H27 H 0.90840 0.06990 0.23470
H28 H 0.86950 0.07790 0.31920
C17 C 0.2992(8) 0.3966(5) 0.5652(3)
H29 H 0.36130 0.43650 0.56540
H30 H 0.23300 0.40330 0.60630
C18 C 1.0047(7) 0.1900(4) 0.2728(4)
H31 H 0.93130 0.20780 0.30780
H32 H 0.96800 0.20230 0.22270
C19 C 1.6082(8) 0.1129(4) 0.1618(4)
H33 H 1.68110 0.14410 0.16840
H34 H 1.58930 0.11850 0.10870
C20 C 0.5427(7) 0.3302(5) 0.6581(3)
H35 H 0.51220 0.38990 0.65360
H36 H 0.57590 0.31130 0.70840
C21 C 1.4811(7) -0.1495(4) 0.1832(4)
H37 H 1.45770 -0.13530 0.13080
H38 H 1.51270 -0.20900 0.19260
C22 C 1.3275(7) 0.2577(4) 0.2251(4)
H39 H 1.36080 0.24850 0.27590
H40 H 1.29880 0.31700 0.21130
C23 C 1.4393(7) 0.2256(4) 0.1734(3)
H41 H 1.40360 0.22870 0.12360
H42 H 1.51280 0.25860 0.17070
C24 C 1.5913(8) -0.1050(4) 0.2003(4)
H43 H 1.60470 -0.11180 0.25390
H44 H 1.67750 -0.12720 0.17640
C25 C 0.9922(8) -0.0296(5) 0.3045(3)
H45 H 1.03120 -0.04050 0.35410
H46 H 0.91570 -0.06000 0.30430
C26 C 0.2269(7) 0.4101(4) 0.4936(3)
H47 H 0.17790 0.36440 0.48980
H48 H 0.16030 0.46120 0.49050
H49 H 1.31930 0.18140 -0.01150
H50 H 0.20820 0.23560 0.58960
H51 H 1.29250 -0.09000 0.01610
H52 H 1.00030 0.16800 0.04010
H53 H 1.40330 0.05630 0.30690
H54 H 0.30550 0.19240 0.46300
H55 H 0.95770 0.05690 -0.06930
H56 H 1.04260 0.11070 -0.10620
H57 H 1.32730 -0.04140 0.00110
H58 H 0.96830 0.10070 0.08590
H59 H 1.38300 -0.02890 0.30430
H60 H 0.40120 0.73490 -0.00020
H61 H 0.46180 0.14580 0.47800
H62 H 1.34400 0.09480 0.01260
H63 H 1.26570 0.04090 0.32410
H64 H 0.12550 0.20830 0.63460
H65 H 1.45260 0.13340 0.01280
H66 H -0.00760 0.12220 0.43750
H67 H 1.00860 0.04990 -0.13820
H68 H 0.45650 0.74220 0.05410
H69 H 1.21980 -0.00880 -0.02300
H70 H 1.58470 0.00130 0.40410
H71 H -0.01950 0.06080 0.50930
H72 H 0.39530 0.13220 0.42390
H73 H 1.67750 0.05510 0.41490
H74 H 0.88050 0.16970 0.09950
H75 H 0.75020 0.12060 0.52180
H76 H 0.70820 0.16520 0.55940
H77 H 0.65700 0.10600 0.56500
H78 H 0.04540 0.12770 0.50140
H79 H 0.17330 0.14000 0.61160
H80 H 1.60120 -0.00350 0.46140
H81 H 0.29640 0.77590 0.05610
Rb1* Rb 1.47982(6) 0.56707(4) 0.11591(3)
Rb2A Rb 1.09369(7) 0.33255(4) 0.07719(3)
Ni1A Ni 1.24180(8) 0.52762(5) -0.01317(3)
Ni1A* Ni 0.24180(8) 0.52762(5) -0.01317(3)
Si3A Si 0.97372(17) 0.51283(10) -0.18761(8)
Si6* Si 0.13674(17) 0.61865(11) 0.18703(8)
Si7A Si 0.91354(16) 0.42949(10) -0.07508(7)
C6A C 0.6596(6) 0.5543(4) -0.0369(3)
#END
