
#######################################################################
#
#                 Cambridge Crystallographic Data Centre
#                                CCDC
#
#######################################################################
#
# If this CIF has been generated from an entry in the Cambridge
# Structural Database, then it will include bibliographic, chemical,
# crystal, experimental, refinement or atomic coordinate data resulting
# from the CCDC's data processing and validation procedures.
#
#######################################################################

data_CSD_CIF_CUFFUF
_audit_creation_date 2010-08-05
_audit_creation_method CSD-ConQuest-V1
_database_code_CSD CUFFUF
_database_code_depnum_ccdc_archive 'CCDC 737616'
_chemical_formula_sum 'C54 H60 In3 N5 O28'
_chemical_formula_moiety
;
(C36 H12 In3 O24 3-)n,3n(C5 H14 N1 O1 1+),n(C3 H6 N2 O1)
;
_journal_coden_Cambridge 4
_journal_volume 131
_journal_year 2009
_journal_page_first 16027
_journal_name_full 'J.Am.Chem.Soc. '
loop_
_publ_author_name
"Shumei Chen"
"Jian Zhang"
"Tao Wu"
"Pingyun Feng"
"Xianhui Bu"
_chemical_name_systematic
;
catena-(tetrakis(\m~3~-Benzene-1,3,5-tricarboxylato)-tri-indium 
tris(cholinium) ethyleneurea solvate)
;
_cell_volume   8474.442
_exptl_special_details
;
Choline is a B-complex vitamin
The cholinium ions and the solvent molecules have not been located and there 
is no evidence of their existence in the cif but they are described in the 
paper
;
_diffrn_ambient_temperature 293
#These two values have been output from a single CSD field.
_refine_ls_R_factor_gt 0.0385
_refine_ls_wR_factor_gt 0.0385
_symmetry_cell_setting cubic
_symmetry_space_group_name_H-M 'I -4 3 d'
_symmetry_Int_Tables_number 220
loop_
_symmetry_equiv_pos_site_id
_symmetry_equiv_pos_as_xyz
1 x,y,z
2 1/2-x,-y,1/2+z
3 -x,1/2+y,1/2-z
4 1/2+x,1/2-y,-z
5 z,x,y
6 1/2+z,1/2-x,-y
7 1/2-z,-x,1/2+y
8 -z,1/2+x,1/2-y
9 y,z,x
10 -y,1/2+z,1/2-x
11 1/2+y,1/2-z,-x
12 1/2-y,-z,1/2+x
13 1/4+y,1/4+x,1/4+z
14 1/4-y,3/4-x,3/4+z
15 3/4+y,1/4-x,3/4-z
16 3/4-y,3/4+x,1/4-z
17 1/4+x,1/4+z,1/4+y
18 3/4-x,3/4+z,1/4-y
19 1/4-x,3/4-z,3/4+y
20 3/4+x,1/4-z,3/4-y
21 1/4+z,1/4+y,1/4+x
22 3/4+z,1/4-y,3/4-x
23 3/4-z,3/4+y,1/4-x
24 1/4-z,3/4-y,3/4+x
25 1/2+x,1/2+y,1/2+z
26 -x,1/2-y,z
27 1/2-x,y,-z
28 x,-y,1/2-z
29 1/2+z,1/2+x,1/2+y
30 z,-x,1/2-y
31 -z,1/2-x,y
32 1/2-z,x,-y
33 1/2+y,1/2+z,1/2+x
34 1/2-y,z,-x
35 y,-z,1/2-x
36 -y,1/2-z,x
37 3/4+y,3/4+x,3/4+z
38 3/4-y,1/4-x,1/4+z
39 1/4+y,3/4-x,1/4-z
40 1/4-y,1/4+x,3/4-z
41 3/4+x,3/4+z,3/4+y
42 1/4-x,1/4+z,3/4-y
43 3/4-x,1/4-z,1/4+y
44 1/4+x,3/4-z,1/4-y
45 3/4+z,3/4+y,3/4+x
46 1/4+z,3/4-y,1/4-x
47 1/4-z,1/4+y,3/4-x
48 3/4-z,1/4-y,1/4+x
_cell_length_a 20.3878(4)
_cell_length_b 20.3878(4)
_cell_length_c 20.3878(4)
_cell_angle_alpha 90
_cell_angle_beta 90
_cell_angle_gamma 90
_cell_formula_units_Z 4
loop_
_atom_type_symbol
_atom_type_radius_bond
C 0.68
In 1.42
O 0.68
loop_
_atom_site_label
_atom_site_type_symbol
_atom_site_fract_x
_atom_site_fract_y
_atom_site_fract_z
In1 In 1.00000 0.75000 0.62500
O1 O 0.9459(2) 0.6680(2) 0.5845(2)
O2 O 1.0360(2) 0.6868(3) 0.5312(2)
C1 C 0.9703(3) 0.5972(3) 0.4970(4)
C2 C 1.0105(3) 0.5834(3) 0.4424(3)
C3 C 0.9856(3) 0.6539(3) 0.5396(3)
In1K In 0.75000 0.37500 0.50000
In1E In 1.12500 0.50000 0.25000
In1G In 1.37500 0.50000 0.75000
In1J In 1.25000 0.87500 1.00000
In1I In 1.25000 1.12500 0.50000
In1F In 0.87500 1.00000 0.25000
In1D In 0.62500 1.00000 0.75000
In1H In 0.75000 0.62500 1.00000
O1K O 0.8320(2) 0.4155(2) 0.4459(2)
O1E O 1.0845(2) 0.5541(2) 0.3320(2)
O1O O 1.0820(2) 0.6959(2) 0.6655(2)
O1U O 1.3345(2) 0.5820(2) 0.8041(2)
O1P O 1.1959(2) 0.8345(2) 0.9180(2)
O1Y O 1.0541(2) 0.8320(2) 0.5845(2)
O1FA O 1.1680(2) 1.0845(2) 0.4459(2)
O1EA O 0.9155(2) 0.9459(2) 0.3320(2)
O1LA O 0.9180(2) 0.8041(2) 0.6655(2)
O1TA O 0.6655(2) 0.9180(2) 0.8041(2)
O1PA O 0.8041(2) 0.6655(2) 0.9180(2)
O1Q O 0.8041(2) 0.3345(2) 0.5820(2)
O1HA O 0.6680(2) 0.4155(2) 0.5541(2)
O1NA O 0.6959(2) 0.3345(2) 0.4180(2)
O1V O 1.1655(2) 0.4180(2) 0.3041(2)
O1BA O 1.0845(2) 0.4459(2) 0.1680(2)
O1UA O 1.1655(2) 0.5820(2) 0.1959(2)
O2K O 0.8132(2) 0.4688(3) 0.5360(2)
O2E O 1.0312(2) 0.4640(3) 0.3132(2)
O2O O 1.0632(2) 0.7860(3) 0.7188(2)
O2U O 1.2812(2) 0.5632(3) 0.7140(2)
O2P O 1.2860(2) 0.7812(3) 0.9368(2)
O2Y O 0.9640(2) 0.8132(3) 0.5312(2)
O2FA O 1.1868(2) 1.0312(3) 0.5360(2)
O2EA O 0.9688(2) 1.0360(3) 0.3132(2)
O2LA O 0.9368(2) 0.7140(3) 0.7188(2)
O2TA O 0.7188(2) 0.9368(3) 0.7140(2)
O2PA O 0.7140(2) 0.7188(3) 0.9368(2)
O2Q O 0.7140(2) 0.2812(3) 0.5632(2)
O2HA O 0.6868(2) 0.4688(3) 0.4640(2)
O2NA O 0.7860(2) 0.2812(3) 0.4368(2)
O2V O 1.2188(2) 0.4368(3) 0.2140(2)
O2BA O 1.0312(2) 0.5360(3) 0.1868(2)
O2UA O 1.2188(2) 0.5632(3) 0.2860(2)
C1E C 0.9970(3) 0.5297(3) 0.4028(4)
C1K C 0.9028(3) 0.5030(3) 0.4703(4)
C1O C 1.1528(3) 0.7203(3) 0.7530(4)
C1P C 1.2203(3) 0.7470(3) 0.8472(4)
C1U C 1.2470(3) 0.6528(3) 0.7797(4)
C1Y C 1.0297(3) 0.9028(3) 0.4970(4)
C1EA C 1.0030(3) 0.9703(3) 0.4028(4)
C1FA C 1.0972(3) 0.9970(3) 0.4703(4)
C1LA C 0.8472(3) 0.7797(3) 0.7530(4)
C1PA C 0.7797(3) 0.7530(3) 0.8472(4)
C1TA C 0.7530(3) 0.8472(3) 0.7797(4)
C2E C 0.9424(3) 0.4895(3) 0.4166(3)
C2K C 0.9166(3) 0.5576(3) 0.5105(3)
C2O C 1.1666(3) 0.7605(3) 0.8076(3)
C2P C 1.2605(3) 0.6924(3) 0.8334(3)
C2U C 1.1924(3) 0.6666(3) 0.7395(3)
C2Y C 0.9895(3) 0.9166(3) 0.4424(3)
C2EA C 1.0576(3) 1.0105(3) 0.4166(3)
C2FA C 1.0834(3) 0.9424(3) 0.5105(3)
C2LA C 0.8334(3) 0.7395(3) 0.8076(3)
C2PA C 0.7395(3) 0.8076(3) 0.8334(3)
C2TA C 0.8076(3) 0.8334(3) 0.7395(3)
C3K C 0.8461(3) 0.4604(3) 0.4856(3)
C3E C 1.0396(3) 0.5144(3) 0.3461(3)
C3O C 1.0961(3) 0.7356(3) 0.7104(3)
C3U C 1.2896(3) 0.5961(3) 0.7644(3)
C3P C 1.2356(3) 0.7896(3) 0.9039(3)
C3Y C 1.0144(3) 0.8461(3) 0.5396(3)
C3FA C 1.1539(3) 1.0396(3) 0.4856(3)
C3EA C 0.9604(3) 0.9856(3) 0.3461(3)
C3LA C 0.9039(3) 0.7644(3) 0.7104(3)
C3TA C 0.7104(3) 0.9039(3) 0.7644(3)
C3PA C 0.7644(3) 0.7104(3) 0.9039(3)
#END
