
#######################################################################
#
#                 Cambridge Crystallographic Data Centre
#                                CCDC
#
#######################################################################
#
# If this CIF has been generated from an entry in the Cambridge
# Structural Database, then it will include bibliographic, chemical,
# crystal, experimental, refinement or atomic coordinate data resulting
# from the CCDC's data processing and validation procedures.
#
#######################################################################

data_CSD_CIF_CUFFIT
_audit_creation_date 2010-08-06
_audit_creation_method CSD-ConQuest-V1
_database_code_CSD CUFFIT
_database_code_depnum_ccdc_archive 'CCDC 737614'
_chemical_formula_sum 'C65 H83 In3 N4 O25'
_chemical_formula_moiety
;
(C36 H12 In3 O24 3-)n,3n(C8 H20 N1 1+),n(C5 H11 N1 O1)
;
_journal_coden_Cambridge 4
_journal_volume 131
_journal_year 2009
_journal_page_first 16027
_journal_name_full 'J.Am.Chem.Soc. '
loop_
_publ_author_name
"Shumei Chen"
"Jian Zhang"
"Tao Wu"
"Pingyun Feng"
"Xianhui Bu"
_chemical_name_systematic
;
catena-(tetrakis(\m~3~-Benzene-1,3,5-tricarboxylato)-tri-indium 
tris(tetraethylammonium) diethylformamide solvate)
;
_cell_volume   8528.426
_exptl_special_details
;
The tetraethylammonium ions and the solvent molecules have not been located 
and there is no evidence of their existence in the cif but they are described 
in the paper
;
_diffrn_ambient_temperature 293
#These two values have been output from a single CSD field.
_refine_ls_R_factor_gt 0.0547
_refine_ls_wR_factor_gt 0.0547
_symmetry_cell_setting cubic
_symmetry_space_group_name_H-M 'I -4 3 d'
_symmetry_Int_Tables_number 220
loop_
_symmetry_equiv_pos_site_id
_symmetry_equiv_pos_as_xyz
1 x,y,z
2 1/2-x,-y,1/2+z
3 -x,1/2+y,1/2-z
4 1/2+x,1/2-y,-z
5 z,x,y
6 1/2+z,1/2-x,-y
7 1/2-z,-x,1/2+y
8 -z,1/2+x,1/2-y
9 y,z,x
10 -y,1/2+z,1/2-x
11 1/2+y,1/2-z,-x
12 1/2-y,-z,1/2+x
13 1/4+y,1/4+x,1/4+z
14 1/4-y,3/4-x,3/4+z
15 3/4+y,1/4-x,3/4-z
16 3/4-y,3/4+x,1/4-z
17 1/4+x,1/4+z,1/4+y
18 3/4-x,3/4+z,1/4-y
19 1/4-x,3/4-z,3/4+y
20 3/4+x,1/4-z,3/4-y
21 1/4+z,1/4+y,1/4+x
22 3/4+z,1/4-y,3/4-x
23 3/4-z,3/4+y,1/4-x
24 1/4-z,3/4-y,3/4+x
25 1/2+x,1/2+y,1/2+z
26 -x,1/2-y,z
27 1/2-x,y,-z
28 x,-y,1/2-z
29 1/2+z,1/2+x,1/2+y
30 z,-x,1/2-y
31 -z,1/2-x,y
32 1/2-z,x,-y
33 1/2+y,1/2+z,1/2+x
34 1/2-y,z,-x
35 y,-z,1/2-x
36 -y,1/2-z,x
37 3/4+y,3/4+x,3/4+z
38 3/4-y,1/4-x,1/4+z
39 1/4+y,3/4-x,1/4-z
40 1/4-y,1/4+x,3/4-z
41 3/4+x,3/4+z,3/4+y
42 1/4-x,1/4+z,3/4-y
43 3/4-x,1/4-z,1/4+y
44 1/4+x,3/4-z,1/4-y
45 3/4+z,3/4+y,3/4+x
46 1/4+z,3/4-y,1/4-x
47 1/4-z,1/4+y,3/4-x
48 3/4-z,1/4-y,1/4+x
_cell_length_a 20.4310(1)
_cell_length_b 20.4310(1)
_cell_length_c 20.4310(1)
_cell_angle_alpha 90
_cell_angle_beta 90
_cell_angle_gamma 90
_cell_formula_units_Z 4
loop_
_atom_type_symbol
_atom_type_radius_bond
C 0.68
H 0.23
In 1.42
O 0.68
loop_
_atom_site_label
_atom_site_type_symbol
_atom_site_fract_x
_atom_site_fract_y
_atom_site_fract_z
In1 In 0.00000 0.75000 0.12500
O1 O 0.0829(3) 0.8032(3) 0.1655(3)
O2 O 0.0644(3) 0.7139(3) 0.2183(3)
C1 C 0.1533(4) 0.7787(4) 0.2529(5)
C2 C 0.1668(4) 0.7398(4) 0.3062(4)
H1 H 0.13970 0.70450 0.31570
C3 C 0.0978(4) 0.7639(4) 0.2103(4)
In1F In 0.37500 1.00000 0.25000
In1I In 0.25000 0.62500 0.50000
In1H In -0.25000 1.12500 0.00000
In1D In 0.12500 1.00000 -0.25000
In1E In -0.37500 0.50000 0.25000
In1K In -0.25000 0.87500 0.50000
In1J In 0.25000 0.37500 0.00000
In1G In -0.12500 0.50000 -0.25000
O1F O 0.3345(3) 0.9171(3) 0.3032(3)
O1I O 0.1968(3) 0.6655(3) 0.4171(3)
O1O O -0.0532(3) 0.8329(3) 0.0845(3)
O1S O -0.1671(3) 1.0845(3) -0.0532(3)
O1W O 0.0845(3) 0.9468(3) -0.1671(3)
O1Y O -0.0829(3) 0.6968(3) 0.1655(3)
O1BA O -0.3345(3) 0.5829(3) 0.3032(3)
O1HA O -0.1968(3) 0.8345(3) 0.4171(3)
O1LA O 0.0532(3) 0.6671(3) 0.0845(3)
O1OA O 0.1671(3) 0.4155(3) -0.0532(3)
O1RA O -0.0845(3) 0.5532(3) -0.1671(3)
O1T O 0.4155(3) 1.0532(3) 0.3329(3)
O1EA O 0.3345(3) 1.0829(3) 0.1968(3)
O1SA O 0.4155(3) 0.9468(3) 0.1671(3)
O1R O 0.1671(3) 0.5845(3) 0.5532(3)
O1FA O 0.3032(3) 0.6655(3) 0.5829(3)
O1QA O 0.3329(3) 0.5845(3) 0.4468(3)
O2F O 0.2817(3) 0.9356(3) 0.2139(3)
O2I O 0.2861(3) 0.7183(3) 0.4356(3)
O2O O 0.0361(3) 0.8144(3) 0.0317(3)
O2S O -0.1856(3) 1.0317(3) 0.0361(3)
O2W O 0.0317(3) 1.0361(3) -0.1856(3)
O2Y O -0.0644(3) 0.7861(3) 0.2183(3)
O2BA O -0.2817(3) 0.5644(3) 0.2139(3)
O2HA O -0.2861(3) 0.7817(3) 0.4356(3)
O2LA O -0.0361(3) 0.6856(3) 0.0317(3)
O2OA O 0.1856(3) 0.4683(3) 0.0361(3)
O2RA O -0.0317(3) 0.4639(3) -0.1856(3)
O2T O 0.4683(3) 0.9639(3) 0.3144(3)
O2EA O 0.2817(3) 1.0644(3) 0.2861(3)
O2SA O 0.4683(3) 1.0361(3) 0.1856(3)
O2R O 0.1856(3) 0.5317(3) 0.4639(3)
O2FA O 0.2139(3) 0.7183(3) 0.5644(3)
O2QA O 0.3144(3) 0.5317(3) 0.5361(3)
C1I C 0.2213(4) 0.7529(4) 0.3467(5)
C1F C 0.2471(4) 0.8467(4) 0.2787(5)
C1O C -0.0287(4) 0.9033(4) -0.0029(5)
C1W C -0.0029(4) 0.9713(4) -0.0967(5)
C1S C -0.0967(4) 0.9971(4) -0.0287(5)
C1Y C -0.1533(4) 0.7213(4) 0.2529(5)
C1HA C -0.2213(4) 0.7471(4) 0.3467(5)
C1BA C -0.2471(4) 0.6533(4) 0.2787(5)
C1LA C 0.0287(4) 0.5967(4) -0.0029(5)
C1RA C 0.0029(4) 0.5287(4) -0.0967(5)
C1OA C 0.0967(4) 0.5029(4) -0.0287(5)
C2I C 0.2602(4) 0.8062(4) 0.3332(4)
C2F C 0.1938(4) 0.8332(4) 0.2398(4)
C2O C 0.0102(4) 0.9168(4) -0.0562(4)
C2W C -0.0562(4) 1.0102(4) -0.0832(4)
C2S C -0.0832(4) 0.9438(4) 0.0102(4)
C2Y C -0.1668(4) 0.7602(4) 0.3062(4)
C2HA C -0.2602(4) 0.6938(4) 0.3332(4)
C2BA C -0.1938(4) 0.6668(4) 0.2398(4)
C2LA C -0.0102(4) 0.5832(4) -0.0562(4)
C2RA C 0.0562(4) 0.4898(4) -0.0832(4)
C2OA C 0.0832(4) 0.5562(4) 0.0102(4)
H1F H 0.18430 0.86030 0.20450
H1I H 0.29550 0.81570 0.36030
H1O H 0.04550 0.88970 -0.06570
H1S H -0.11030 0.93430 0.04550
H1W H -0.06570 1.04550 -0.11030
H1Y H -0.13970 0.79550 0.31570
H1BA H -0.18430 0.63970 0.20450
H1HA H -0.29550 0.68430 0.36030
H1LA H -0.04550 0.61030 -0.06570
H1OA H 0.11030 0.56570 0.04550
H1RA H 0.06570 0.45450 -0.11030
C3F C 0.2897(4) 0.9022(4) 0.2639(4)
C3I C 0.2361(4) 0.7103(4) 0.4022(4)
C3O C -0.0139(4) 0.8478(4) 0.0397(4)
C3S C -0.1522(4) 1.0397(4) -0.0139(4)
C3W C 0.0397(4) 0.9861(4) -0.1522(4)
C3Y C -0.0978(4) 0.7361(4) 0.2103(4)
C3BA C -0.2897(4) 0.5978(4) 0.2639(4)
C3HA C -0.2361(4) 0.7897(4) 0.4022(4)
C3LA C 0.0139(4) 0.6522(4) 0.0397(4)
C3OA C 0.1522(4) 0.4603(4) -0.0139(4)
C3RA C -0.0397(4) 0.5139(4) -0.1522(4)
#END
