
#######################################################################
#
#                 Cambridge Crystallographic Data Centre
#                                CCDC
#
#######################################################################
#
# If this CIF has been generated from an entry in the Cambridge
# Structural Database, then it will include bibliographic, chemical,
# crystal, experimental, refinement or atomic coordinate data resulting
# from the CCDC's data processing and validation procedures.
#
#######################################################################

data_CSD_CIF_CUFSIF
_audit_creation_date 2000-05-03
_audit_creation_method CSD-ConQuest-V1
_database_code_CSD CUFSIF
_database_code_depnum_ccdc_archive 'CCDC 133996'
_chemical_formula_sum 'C26 H56 Ge9 K2 N2 O12'
_chemical_formula_moiety
;
(C14 H32 K1 N2 O6 1+)n,n(C12 H24 Ge9 K1 O6 1-)
;
_journal_coden_Cambridge 179
_journal_volume 39
_journal_year 2000
_journal_page_first 338
_journal_name_full 'Angew.Chem.,Int.Ed. '
loop_
_publ_author_name
"C.Downie"
"Zhongjia Tang"
"A.M.Guloy"
_chemical_name_systematic
;
catena-[(Ethylenediamine)-[18-crown-6]-potassium 
(\m~3~-([18-crown-6]-potassium))-nido-heptagermanate]
;
_cell_volume   4616.382
_exptl_crystal_colour 'dark blue-green'
_exptl_crystal_density_diffrn 1.9
_exptl_special_details
;
moisture-sensitive
the exact amount of ethylene diamine could not be determined
;
_exptl_crystal_description 'flat column'
_diffrn_ambient_temperature 223
_refine_special_details
;
One of the two crown ether molecules is disordered equally over two 
positions. The ethylene diamine molecule is disordered equally between 
bidentate and monodentate coordination.
;
#These two values have been output from a single CSD field.
_refine_ls_R_factor_gt 0.0328
_refine_ls_wR_factor_gt 0.0328
_symmetry_cell_setting orthorhombic
_symmetry_space_group_name_H-M 'P 21 21 21'
_symmetry_Int_Tables_number 19
loop_
_symmetry_equiv_pos_site_id
_symmetry_equiv_pos_as_xyz
1 x,y,z
2 1/2-x,-y,1/2+z
3 -x,1/2+y,1/2-z
4 1/2+x,1/2-y,-z
_cell_length_a 11.2796(7)
_cell_length_b 14.7049(9)
_cell_length_c 27.8321(17)
_cell_angle_alpha 90
_cell_angle_beta 90
_cell_angle_gamma 90
_cell_formula_units_Z 4
loop_
_atom_type_symbol
_atom_type_radius_bond
C 0.68
H 0.23
Ge 1.39
K 2.04
N 0.68
O 0.68
loop_
_atom_site_label
_atom_site_type_symbol
_atom_site_fract_x
_atom_site_fract_y
_atom_site_fract_z
Ge1 Ge 0.87808(10) 0.41787(7) 0.61576(3)
Ge2 Ge 0.74840(8) 0.27438(7) 0.60069(4)
Ge3 Ge 0.75076(8) 0.42996(7) 0.53880(4)
Ge4 Ge 0.99278(8) 0.42125(7) 0.53569(4)
Ge5 Ge 0.98795(8) 0.26706(7) 0.59801(3)
Ge6 Ge 0.71967(7) 0.26406(7) 0.50743(3)
Ge7 Ge 0.86506(9) 0.36704(7) 0.46216(3)
Ge8 Ge 1.00223(8) 0.25359(7) 0.50385(3)
Ge9 Ge 0.85731(9) 0.15085(6) 0.54883(4)
K1 K 0.57368(18) 0.44989(15) 0.65557(8)
K2 K 0.3849(2) 0.63909(16) 0.35694(8)
O1 O 0.6786(5) 0.5870(4) 0.7204(2)
O2 O 0.5661(6) 0.6425(5) 0.6359(3)
O3 O 0.3752(7) 0.5342(5) 0.6055(2)
O4 O 0.3747(6) 0.3519(5) 0.6351(2)
O5 O 0.4981(6) 0.2869(5) 0.7135(2)
O6 O 0.6820(6) 0.4006(5) 0.7439(2)
C1 C 0.7215(10) 0.6594(7) 0.6913(4)
H1 H 0.77510 0.63560 0.66660
H2 H 0.76550 0.70310 0.71100
C2 C 0.6186(10) 0.7048(6) 0.6684(4)
H3 H 0.56090 0.72300 0.69290
H4 H 0.64470 0.75940 0.65120
C3 C 0.4633(12) 0.6790(8) 0.6138(5)
H5 H 0.48290 0.73560 0.59700
H6 H 0.40290 0.69240 0.63810
C4 C 0.4180(12) 0.6109(9) 0.5794(5)
H7 H 0.35390 0.63730 0.56020
H8 H 0.48160 0.59210 0.55760
C5 C 0.3376(11) 0.4608(9) 0.5757(4)
H9 H 0.40570 0.43640 0.55810
H10 H 0.27950 0.48280 0.55230
C6 C 0.2847(10) 0.3893(8) 0.6050(4)
H11 H 0.22050 0.41440 0.62470
H12 H 0.25150 0.34180 0.58430
C7 C 0.3421(10) 0.2703(8) 0.6587(4)
H13 H 0.30430 0.22890 0.63570
H14 H 0.28500 0.28360 0.68430
C8 C 0.4472(9) 0.2270(7) 0.6792(4)
H15 H 0.42520 0.16960 0.69470
H16 H 0.50470 0.21370 0.65380
C9 C 0.6044(9) 0.2532(7) 0.7330(4)
H17 H 0.66270 0.24410 0.70730
H18 H 0.58990 0.19450 0.74860
C10 C 0.6512(10) 0.3201(6) 0.7690(4)
H19 H 0.59060 0.33340 0.79320
H20 H 0.72100 0.29510 0.78530
C11 C 0.7245(10) 0.4689(7) 0.7754(4)
H21 H 0.78670 0.44380 0.79610
H22 H 0.65980 0.49040 0.79590
C12 C 0.7732(9) 0.5467(7) 0.7466(4)
H23 H 0.80930 0.59170 0.76800
H24 H 0.83420 0.52460 0.72440
O7 O 0.2855(14) 0.6942(10) 0.4463(6)
O8 O 0.4503(14) 0.8064(11) 0.4021(6)
O9 O 0.5524(12) 0.7689(10) 0.3159(5)
O10 O 0.4045(13) 0.6588(9) 0.2558(5)
O11 O 0.2442(13) 0.5333(10) 0.2956(5)
O12 O 0.1530(14) 0.5784(10) 0.3866(5)
C13 C 0.3038(19) 0.7839(13) 0.4622(9)
H25 H 0.28900 0.78760 0.49680
H26 H 0.24810 0.82480 0.44590
C14 C 0.430(2) 0.8136(19) 0.4516(7)
H27 H 0.44210 0.87660 0.46200
H28 H 0.48630 0.77480 0.46910
C15 C 0.5632(18) 0.839(2) 0.3903(8)
H29 H 0.62290 0.79470 0.40110
H30 H 0.57760 0.89610 0.40710
C16 C 0.575(3) 0.8533(15) 0.3366(9)
H31 H 0.51810 0.89880 0.32530
H32 H 0.65540 0.87400 0.32850
C17 C 0.546(2) 0.7799(15) 0.2660(5)
H33 H 0.62180 0.80270 0.25380
H34 H 0.48440 0.82450 0.25810
C18 C 0.517(2) 0.689(2) 0.2423(12)
H35 H 0.52010 0.69630 0.20730
H36 H 0.57660 0.64410 0.25160
C19 C 0.3842(17) 0.5758(12) 0.2327(8)
H37 H 0.44180 0.53020 0.24330
H38 H 0.39140 0.58300 0.19780
C20 C 0.259(2) 0.547(2) 0.2460(6)
H39 H 0.20320 0.59320 0.23510
H40 H 0.24020 0.49000 0.22910
C21 C 0.1285(17) 0.5111(18) 0.3093(8)
H41 H 0.10300 0.45550 0.29290
H42 H 0.07430 0.56030 0.30030
C22 C 0.126(3) 0.4969(14) 0.3633(7)
H43 H 0.04650 0.47640 0.37310
H44 H 0.18300 0.45000 0.37240
C23 C 0.156(3) 0.5674(15) 0.4364(6)
H45 H 0.22070 0.52560 0.44490
H46 H 0.08160 0.54100 0.44750
C24 C 0.1763(19) 0.6583(16) 0.4608(8)
H47 H 0.11240 0.70040 0.45230
H48 H 0.17570 0.65020 0.49580
O13? O 0.3549(12) 0.7345(9) 0.4439(5)
O14? O 0.4929(13) 0.8102(9) 0.3703(5)
O15? O 0.5297(11) 0.7232(8) 0.2854(4)
O16? O 0.3344(11) 0.6144(9) 0.2549(4)
O17? O 0.1833(13) 0.5354(10) 0.3242(5)
O18? O 0.1726(12) 0.6158(9) 0.4139(5)
C25? C 0.391(2) 0.8250(12) 0.4463(9)
H49? H 0.40270 0.84350 0.47980
H50? H 0.33180 0.86490 0.43170
C26? C 0.508(2) 0.8306(19) 0.4188(6)
H51? H 0.54090 0.89210 0.42190
H52? H 0.56520 0.78800 0.43290
C27? C 0.5924(19) 0.8333(19) 0.3430(7)
H53? H 0.66100 0.79730 0.35330
H54? H 0.61130 0.89790 0.34730
C28? C 0.5642(19) 0.8139(10) 0.2905(7)
H55? H 0.50030 0.85400 0.27960
H56? H 0.63430 0.82580 0.27070
C29? C 0.507(3) 0.704(2) 0.2370(6)
H57? H 0.58170 0.70370 0.21900
H58? H 0.45630 0.75190 0.22340
C30? C 0.4458(15) 0.6123(15) 0.2320(8)
H59? H 0.43540 0.59770 0.19790
H60? H 0.49520 0.56480 0.24650
C31? C 0.270(3) 0.535(2) 0.2479(13)
H61? H 0.31740 0.48250 0.25830
H62? H 0.25330 0.52720 0.21350
C32? C 0.1530(19) 0.5346(16) 0.2753(5)
H63? H 0.10610 0.58850 0.26710
H64? H 0.10670 0.48020 0.26760
C33? C 0.0843(18) 0.5240(19) 0.3537(7)
H65? H 0.04660 0.46520 0.34730
H66? H 0.02630 0.57220 0.34760
C34? C 0.127(2) 0.5282(12) 0.4057(7)
H67? H 0.06090 0.51610 0.42760
H68? H 0.18850 0.48240 0.41120
C35? C 0.208(2) 0.6243(16) 0.4618(6)
H69? H 0.27400 0.58320 0.46880
H70? H 0.14200 0.61010 0.48350
C36? C 0.2460(17) 0.7230(15) 0.4676(10)
H71? H 0.18620 0.76350 0.45380
H72? H 0.25460 0.73770 0.50180
N1 N 0.5210(16) 0.4663(15) 0.3491(8)
H73 H 0.47340 0.41890 0.35740
H74 H 0.54440 0.45810 0.31810
C37 C 0.6271(18) 0.4674(13) 0.3810(8)
H75 H 0.61590 0.42070 0.40560
H76 H 0.69570 0.44920 0.36160
C38 C 0.6577(18) 0.5542(14) 0.4058(8)
H77 H 0.72920 0.54850 0.42560
H78 H 0.66680 0.60490 0.38320
N2 N 0.5505(17) 0.5624(15) 0.4348(7)
H79 H 0.56010 0.60180 0.45980
H80 H 0.52520 0.50760 0.44610
N3? N 0.501(3) 0.585(4) 0.4413(19)
C39? C 0.629(3) 0.603(4) 0.4475(18)
C40? C 0.707(4) 0.601(6) 0.404(2)
N4? N 0.834(5) 0.602(4) 0.4154(18)
N5? N 0.527(3) 0.491(3) 0.3708(14)
C41? C 0.626(4) 0.491(3) 0.4053(18)
C42? C 0.637(5) 0.582(3) 0.429(2)
N6? N 0.750(8) 0.612(5) 0.423(3)
Ge8C Ge 0.50223(8) 0.24641(7) 0.49615(3)
Ge6C Ge 1.21967(7) 0.23594(7) 0.49257(3)
#END
