
#######################################################################
#
#                 Cambridge Crystallographic Data Centre
#                                CCDC
#
#######################################################################
#
# If this CIF has been generated from an entry in the Cambridge
# Structural Database, then it will include bibliographic, chemical,
# crystal, experimental, refinement or atomic coordinate data resulting
# from the CCDC's data processing and validation procedures.
#
#######################################################################

data_CSD_CIF_CUFZUB
_audit_creation_date 2019-12-05
_audit_creation_method CSD-ConQuest-V1
_database_code_CSD CUFZUB
_database_code_depnum_ccdc_archive 'CCDC 1943809'
_chemical_formula_sum 'C48 H110 Mo12 N8 Na2 O87 P8 Zn5'
_chemical_formula_moiety
;
(C48 H72 Mo12 N8 O68 P8 Zn5 2-)n,2(Na1 1+),19(H2 O1)
;
_journal_coden_Cambridge 9
_journal_volume 58
_journal_year 2019
_journal_page_first 16667
_journal_name_full 'Inorg.Chem. '
loop_
_publ_author_name
"Lin Hou"
"Yaqi Zhang"
"Yuanyuan Ma"
"Yali Wang"
"Zhifei Hu"
"Yuanzhe Gao"
"Zhangang Han"
_chemical_name_systematic
;
catena-[di-sodium bis(\m-phosphato)-hexakis(\m-hydrogen 
phosphato)-dodecakis(\m-oxo)-hexakis(\m-hydroxo)-tetrakis(4,4'-dimethyl-2,2'-b
ipyridine)-hexa-aqua-dodeca-oxo-dodeca-molybdenum(v)-penta-zinc(ii) 
nonadecahydrate]
;
_cell_volume   3027.825
_exptl_crystal_colour 'brown'
_exptl_crystal_density_diffrn 2.153
_exptl_crystal_description 'block'
_diffrn_ambient_temperature 296.1
_refine_special_details
;
O6W and O7W disordered over two sites with occupancies 0.5:0.5; Disordered 
water solvent molecules were not modelled and the disordered density was 
taken into account using the SQUEEZE/PLATON procedure.
;
#These two values have been output from a single CSD field.
_refine_ls_R_factor_gt 0.0241
_refine_ls_wR_factor_gt 0.0241
_symmetry_cell_setting triclinic
_symmetry_space_group_name_H-M 'P -1'
_symmetry_Int_Tables_number 2
loop_
_symmetry_equiv_pos_site_id
_symmetry_equiv_pos_as_xyz
1 x,y,z
2 -x,-y,-z
_cell_length_a 13.505(3)
_cell_length_b 14.249(3)
_cell_length_c 17.038(3)
_cell_angle_alpha 67.667(3)
_cell_angle_beta 88.273(3)
_cell_angle_gamma 86.784(3)
_cell_formula_units_Z 1
loop_
_atom_type_symbol
_atom_type_radius_bond
C 0.68
H 0.23
Mo 1.54
N 0.68
Na 1.66
O 0.68
P 1.05
Zn 1.22
loop_
_atom_site_label
_atom_site_type_symbol
_atom_site_fract_x
_atom_site_fract_y
_atom_site_fract_z
Mo1 Mo 0.80655(2) 0.30504(2) 0.12025(2)
Mo2 Mo 1.06233(2) 0.54320(2) 0.20014(2)
Mo3 Mo 1.10443(2) 0.35523(2) 0.22173(2)
Mo4 Mo 0.88506(2) 0.26112(2) -0.00357(2)
Mo5 Mo 0.78601(2) 0.70280(2) -0.05521(2)
Mo6 Mo 0.75280(2) 0.56002(2) 0.09083(2)
Zn1 Zn 1.00000 0.50000 0.00000
Zn2 Zn 0.46951(3) 0.24453(3) 0.34574(3)
Zn3 Zn 0.97945(4) 0.80669(3) 0.27682(3)
P1 P 0.73688(6) 0.47984(6) -0.07608(5)
P2 P 0.58747(6) 0.38284(7) 0.17856(6)
P3 P 0.29097(6) 0.18086(7) 0.25422(6)
P4 P 1.16659(7) 0.75663(7) 0.18812(6)
O1 O 0.87525(15) 0.59069(16) 0.01974(14)
O2 O 0.92582(15) 0.35584(16) 0.04825(14)
O3 O 1.00497(16) 0.67319(16) 0.09808(14)
H1 H 0.95946 0.65963 0.07026
O4 O 1.02749(15) 0.46427(16) 0.13176(14)
O5 O 0.73846(16) 0.45090(16) 0.02170(14)
O6 O 0.81382(15) 0.40756(16) -0.09847(14)
O7 O 0.82455(16) 0.42155(16) 0.16462(14)
H2 H 0.88459 0.43283 0.16079
O8 O 0.90133(16) 0.73229(17) -0.14673(14)
H3 H 0.95815 0.71316 -0.12017
O9 O 0.66374(16) 0.64814(17) 0.00276(15)
O10 O 1.16275(17) 0.44549(18) 0.26732(15)
O11 O 0.77277(16) 0.59007(16) -0.11897(14)
O12 O 0.75384(17) 0.24055(17) 0.04848(15)
O13 O 0.62640(17) 0.49028(18) 0.14970(16)
O14 O 1.01534(18) 0.29641(18) 0.29164(16)
O15 O 0.96294(18) 0.52879(19) 0.26541(16)
O16 O 0.95337(19) 0.15437(18) 0.05192(17)
O17 O 0.85487(18) 0.20790(18) 0.20440(15)
O18 O 0.63333(16) 0.47111(18) -0.10453(15)
O19 O 0.66388(16) 0.30413(17) 0.16809(15)
O20 O 0.50164(19) 0.3876(2) 0.11612(18)
O21 O 0.54797(19) 0.3533(2) 0.26783(16)
O22 O 0.76844(19) 0.62288(19) 0.15526(15)
O23 O 0.80919(18) 0.79778(18) -0.02294(16)
O24 O 1.1698(2) 0.7905(2) 0.09122(17)
O25 O 1.1251(2) 0.65170(19) 0.23348(16)
O26 O 0.30333(17) 0.21338(18) 0.15751(15)
O27 O 0.2427(2) 0.07362(19) 0.28839(17)
O28 O 0.22115(17) 0.25503(18) 0.27905(15)
O29 O 0.38944(18) 0.16719(19) 0.29750(17)
O30 O 1.1085(2) 0.8349(2) 0.21347(19)
O31 O 1.2750(2) 0.7511(3) 0.2197(2)
H4 H 1.30875 0.70930 0.20696
C1 C 0.6270(3) 0.0819(3) 0.3312(3)
H5 H 0.61252 0.10969 0.27365
C2 C 0.6964(3) 0.0006(4) 0.3601(3)
H6 H 0.72767 -0.02465 0.32229
C3 C 0.7186(3) -0.0424(3) 0.4458(3)
C4 C 0.6686(3) -0.0022(3) 0.4994(3)
H7 H 0.68074 -0.02987 0.55739
C5 C 0.6001(3) 0.0801(3) 0.4659(2)
C6 C 0.5470(3) 0.1298(3) 0.5193(2)
C7 C 0.5592(3) 0.0968(3) 0.6064(2)
H8 H 0.59979 0.03944 0.63422
C8 C 0.5115(4) 0.1485(4) 0.6526(3)
C9 C 0.4511(4) 0.2340(4) 0.6076(3)
H9 H 0.41885 0.27193 0.63548
C10 C 0.4397(4) 0.2615(4) 0.5214(3)
H10 H 0.39779 0.31754 0.49281
C11 C 0.5245(5) 0.1125(5) 0.7472(3)
H11 H 0.46381 0.08542 0.77546
H12 H 0.54104 0.16851 0.76174
H13 H 0.57679 0.06059 0.76480
C12 C 0.7937(4) -0.1316(4) 0.4812(4)
H14 H 0.85917 -0.10681 0.47590
H15 H 0.79035 -0.17504 0.44994
H16 H 0.77887 -0.16936 0.53989
C13 C 0.8222(3) 0.6464(3) 0.3475(3)
H17 H 0.80129 0.66824 0.29163
C14 C 0.7697(3) 0.5726(4) 0.4106(3)
H18 H 0.71476 0.54605 0.39637
C15 C 0.7992(3) 0.5389(3) 0.4941(3)
C16 C 0.8824(3) 0.5818(3) 0.5117(3)
H19 H 0.90418 0.56135 0.56724
C17 C 0.9323(3) 0.6546(3) 0.4465(2)
C18 C 1.0211(3) 0.7039(3) 0.4607(2)
C19 C 1.1331(4) 0.8286(4) 0.3998(3)
H20 H 1.15520 0.88242 0.35268
C20 C 1.1839(4) 0.8006(4) 0.4743(3)
H21 H 1.23870 0.83597 0.47707
C21 C 1.1540(3) 0.7195(4) 0.5459(3)
C22 C 1.0703(3) 0.6712(3) 0.5378(3)
H22 H 1.04720 0.61701 0.58405
C23 C 0.7453(4) 0.4579(4) 0.5649(3)
H23 H 0.67511 0.47346 0.55949
H24 H 0.76662 0.45607 0.61871
H25 H 0.75995 0.39296 0.56127
C24 C 1.2103(4) 0.6854(5) 0.6278(3)
H26 H 1.27910 0.67353 0.61713
H27 H 1.18405 0.62385 0.66740
H28 H 1.20352 0.73724 0.65100
N1 N 0.4860(2) 0.2117(2) 0.4766(2)
N2 N 0.9023(2) 0.6873(2) 0.3649(2)
N3 N 1.0525(3) 0.7813(3) 0.3918(2)
N4 N 0.5802(2) 0.1218(2) 0.38240(19)
O32 O 0.9039(2) 0.8014(2) 0.17140(19)
H29 H 0.93059 0.75947 0.14337
H30 H 0.89758 0.86547 0.12208
O33 O 0.35310(19) 0.3546(2) 0.34370(18)
H31 H 0.36343 0.42723 0.32071
O34 O 0.9147(3) 0.9449(3) 0.2570(2)
H32 H 0.93601 0.98060 0.28386
H33 H 0.85444 0.97367 0.22370
Na1 Na 0.4848(2) 0.6502(3) 0.01429(19)
O35 O 0.4918(11) 0.7875(6) -0.0885(7)
O36 O 0.6208(2) 0.4304(3) -0.2488(2)
O37? O 0.4457(14) 0.7411(9) 0.0779(11)
Mo1A Mo 0.19345(2) 0.69496(2) -0.12025(2)
Mo4A Mo 0.11494(2) 0.73888(2) 0.00357(2)
Mo5A Mo 0.21399(2) 0.29720(2) 0.05521(2)
Mo6A Mo 0.24720(2) 0.43998(2) -0.09083(2)
Zn2A Zn 0.53049(3) 0.75547(3) -0.34574(3)
P1A P 0.26312(6) 0.52016(6) 0.07608(5)
P2A P 0.41253(6) 0.61716(7) -0.17856(6)
P3A P 0.70903(6) 0.81914(7) -0.25422(6)
O1A O 0.12475(15) 0.40931(16) -0.01974(14)
O2A O 0.07418(15) 0.64416(16) -0.04825(14)
O5A O 0.26154(16) 0.54910(16) -0.02170(14)
O6A O 0.18618(15) 0.59244(16) 0.09847(14)
O7A O 0.17545(16) 0.57845(16) -0.16462(14)
H2A H 0.11541 0.56717 -0.16079
O8A O 0.09867(16) 0.26771(17) 0.14673(14)
H3A H 0.04185 0.28684 0.12017
O9A O 0.33626(16) 0.35186(17) -0.00276(15)
O11A O 0.22723(16) 0.40993(16) 0.11897(14)
O12A O 0.24616(17) 0.75945(17) -0.04848(15)
O13A O 0.37360(17) 0.50972(18) -0.14970(16)
O16A O 0.04663(19) 0.84563(18) -0.05192(17)
O17A O 0.14513(18) 0.79210(18) -0.20440(15)
O18A O 0.36667(16) 0.52889(18) 0.10453(15)
O19A O 0.33612(16) 0.69587(17) -0.16809(15)
O20A O 0.49836(19) 0.6124(2) -0.11612(18)
O21A O 0.45203(19) 0.6467(2) -0.26783(16)
O22A O 0.23156(19) 0.37712(19) -0.15526(15)
O23A O 0.19081(18) 0.20222(18) 0.02294(16)
O26A O 0.69667(17) 0.78662(18) -0.15751(15)
O27A O 0.7573(2) 0.92638(19) -0.28839(17)
O28A O 0.77885(17) 0.74497(18) -0.27905(15)
O29A O 0.61056(18) 0.83281(19) -0.29750(17)
C1A C 0.3730(3) 0.9181(3) -0.3312(3)
H5A H 0.38748 0.89031 -0.27365
C2A C 0.3036(3) 0.9994(4) -0.3601(3)
H6A H 0.27233 1.02465 -0.32229
C3A C 0.2814(3) 1.0424(3) -0.4458(3)
C4A C 0.3314(3) 1.0022(3) -0.4994(3)
H7A H 0.31926 1.02987 -0.55739
C5A C 0.3999(3) 0.9199(3) -0.4659(2)
C6A C 0.4530(3) 0.8702(3) -0.5193(2)
C7A C 0.4408(3) 0.9032(3) -0.6064(2)
H8A H 0.40021 0.96056 -0.63422
C8A C 0.4885(4) 0.8515(4) -0.6526(3)
C9A C 0.5489(4) 0.7660(4) -0.6076(3)
H9A H 0.58115 0.72807 -0.63548
C10A C 0.5603(4) 0.7385(4) -0.5214(3)
H10A H 0.60221 0.68246 -0.49281
C11A C 0.4755(5) 0.8875(5) -0.7472(3)
H11A H 0.53619 0.91458 -0.77546
H12A H 0.45896 0.83149 -0.76174
H13A H 0.42321 0.93941 -0.76480
C12A C 0.2063(4) 1.1316(4) -0.4812(4)
H14A H 0.14083 1.10681 -0.47590
H15A H 0.20965 1.17504 -0.44994
H16A H 0.22113 1.16936 -0.53989
N1A N 0.5140(2) 0.7883(2) -0.4766(2)
N4A N 0.4198(2) 0.8782(2) -0.38240(19)
O33A O 0.64690(19) 0.6454(2) -0.34370(18)
H31A H 0.63657 0.57277 -0.32071
Mo2A Mo 0.93767(2) 0.45680(2) -0.20014(2)
Mo3A Mo 0.89557(2) 0.64477(2) -0.22173(2)
Zn3A Zn 1.02055(4) 0.19331(3) -0.27682(3)
P4A P 0.83341(7) 0.24337(7) -0.18812(6)
O3A O 0.99503(16) 0.32681(16) -0.09808(14)
H1A H 1.04054 0.34037 -0.07026
O4A O 0.97251(15) 0.53573(16) -0.13176(14)
O10A O 0.83725(17) 0.55451(18) -0.26732(15)
O14A O 0.98466(18) 0.70359(18) -0.29164(16)
O15A O 1.03706(18) 0.47121(19) -0.26541(16)
O24A O 0.8302(2) 0.2095(2) -0.09122(17)
O25A O 0.8749(2) 0.34830(19) -0.23348(16)
O30A O 0.8915(2) 0.1651(2) -0.21347(19)
O31A O 0.7250(2) 0.2489(3) -0.2197(2)
H4A H 0.69125 0.29070 -0.20696
C13A C 1.1778(3) 0.3536(3) -0.3475(3)
H17A H 1.19871 0.33176 -0.29163
C14A C 1.2303(3) 0.4274(4) -0.4106(3)
H18A H 1.28524 0.45395 -0.39637
C15A C 1.2008(3) 0.4611(3) -0.4941(3)
C16A C 1.1176(3) 0.4182(3) -0.5117(3)
H19A H 1.09582 0.43865 -0.56724
C17A C 1.0677(3) 0.3454(3) -0.4465(2)
C18A C 0.9789(3) 0.2961(3) -0.4607(2)
C19A C 0.8669(4) 0.1714(4) -0.3998(3)
H20A H 0.84480 0.11758 -0.35268
C20A C 0.8161(4) 0.1994(4) -0.4743(3)
H21A H 0.76130 0.16403 -0.47707
C21A C 0.8460(3) 0.2805(4) -0.5459(3)
C22A C 0.9297(3) 0.3288(3) -0.5378(3)
H22A H 0.95280 0.38299 -0.58405
C23A C 1.2547(4) 0.5421(4) -0.5649(3)
H23A H 1.32489 0.52654 -0.55949
H24A H 1.23338 0.54393 -0.61871
H25A H 1.24005 0.60704 -0.56127
C24A C 0.7897(4) 0.3146(5) -0.6278(3)
H26A H 0.72090 0.32647 -0.61713
H27A H 0.81595 0.37615 -0.66740
H28A H 0.79648 0.26276 -0.65100
N2A N 1.0977(2) 0.3127(2) -0.3649(2)
N3A N 0.9475(3) 0.2187(3) -0.3918(2)
O32A O 1.0961(2) 0.1986(2) -0.17140(19)
H29A H 1.06941 0.24053 -0.14337
H30A H 1.10242 0.13453 -0.12208
O34A O 1.0853(3) 0.0551(3) -0.2570(2)
H32A H 1.06399 0.01940 -0.28386
H33A H 1.14556 0.02633 -0.22370
Mo2* Mo 0.06233(2) 0.54320(2) 0.20014(2)
Mo3* Mo 0.10443(2) 0.35523(2) 0.22173(2)
Mo4A* Mo 1.11494(2) 0.73888(2) 0.00357(2)
Zn1* Zn 0.00000 0.50000 0.00000
O1A* O 1.12475(15) 0.40931(16) -0.01974(14)
O2A* O 1.07418(15) 0.64416(16) -0.04825(14)
O3* O 0.00497(16) 0.67319(16) 0.09808(14)
O6A* O 1.18618(15) 0.59244(16) 0.09847(14)
O8A* O 1.09867(16) 0.26771(17) 0.14673(14)
O11A* O 1.22723(16) 0.40993(16) 0.11897(14)
O24* O 0.1698(2) 0.7905(2) 0.09122(17)
O28* O 1.22115(17) 0.25503(18) 0.27905(15)
#END
