
#######################################################################
#
#                 Cambridge Crystallographic Data Centre
#                                CCDC
#
#######################################################################
#
# If this CIF has been generated from an entry in the Cambridge
# Structural Database, then it will include bibliographic, chemical,
# crystal, experimental, refinement or atomic coordinate data resulting
# from the CCDC's data processing and validation procedures.
#
#######################################################################

data_CSD_CIF_CUHNID
_audit_creation_date 2010-08-06
_audit_creation_method CSD-ConQuest-V1
_database_code_CSD CUHNID
_database_code_depnum_ccdc_archive 'CCDC 757758'
_chemical_formula_sum 'C64 H124 Mo12 N3 O50 P1 Zn4'
_chemical_formula_moiety
;
(C16 H36 N1 1+)3n,n(C16 H12 Mo12 O48 P1 Zn4 3-),2n(H2 O1)
;
_journal_coden_Cambridge 4
_journal_volume 131
_journal_year 2009
_journal_page_first 16078
_journal_name_full 'J.Am.Chem.Soc. '
loop_
_publ_author_name
"L.M.Rodriguez-Albelo"
"A.R.Ruiz-Salvador"
"A.Sampieri"
"D.W.Lewis"
"A.Gomez"
"B.Nohra"
"P.Mialane"
"J.Marrot"
"F.Secheresse"
"C.Mellot-Draznieks"
"R.N.Biboum"
"B.Keita"
"L.Nadjo"
"A.Dolbecq"
_chemical_name_systematic
;
catena-[tris(Tetra-n-butylammonium) 
(\m~12~-phosphato)-dodecakis(\m~3~-oxo)-bis(\m~2~-benzene-1,4-dicarboxylato)-t
etrakis(\m~2~-hydroxo)-octakis(\m~2~-oxo)-dodeca-oxo-octa-molybdenum(v)-tetra-
molybdenum(vi)-tetra-zinc(ii) dihydrate]
;
_chemical_name_common
;
Z-POMOF-1
;
_cell_volume  10070.775
_exptl_crystal_colour 'dark red'
_exptl_crystal_density_diffrn 2.096
_exptl_crystal_description 'hexagonal'
_diffrn_ambient_temperature 293
_refine_special_details
;
Several carbon atoms from the independent 'half' tetra-n-butylammonium cation 
are disordered. The protons present on the epsilon-Keggin unit have not been 
modelled from the X-ray data, but the locations have been established from 
BVS calculations. The solvent water molecules have not been located from the 
X-ray data.
;
#These two values have been output from a single CSD field.
_refine_ls_R_factor_gt 0.0618
_refine_ls_wR_factor_gt 0.0618
_symmetry_cell_setting monoclinic
_symmetry_space_group_name_H-M 'C 2/c'
_symmetry_Int_Tables_number 15
loop_
_symmetry_equiv_pos_site_id
_symmetry_equiv_pos_as_xyz
1 x,y,z
2 -x,y,1/2-z
3 1/2+x,1/2+y,z
4 1/2-x,1/2+y,1/2-z
5 -x,-y,-z
6 x,-y,-1/2+z
7 -1/2-x,-1/2-y,-z
8 -1/2+x,-1/2-y,-1/2+z
_cell_length_a 15.0956(11)
_cell_length_b 27.0921(19)
_cell_length_c 25.7271(18)
_cell_angle_alpha 90
_cell_angle_beta 106.834(2)
_cell_angle_gamma 90
_cell_formula_units_Z 4
loop_
_atom_type_symbol
_atom_type_radius_bond
C 0.72
H 0.23
Mo 1.26
N 0.68
O 0.87
P 1.05
Zn 1.22
loop_
_atom_site_label
_atom_site_type_symbol
_atom_site_fract_x
_atom_site_fract_y
_atom_site_fract_z
Mo1 Mo 0.38352(2) 0.159152(13) 0.608790(13)
Mo2 Mo 0.71764(2) 0.092480(14) 0.721390(14)
Mo3 Mo 0.50604(3) 0.090332(14) 0.612381(13)
Mo4 Mo 0.40656(2) 0.253144(13) 0.701277(14)
Mo5 Mo 0.55960(3) -0.001037(13) 0.708195(14)
Mo6 Mo 0.25264(2) 0.161133(14) 0.704614(14)
Zn1 Zn 0.32516(3) 0.040734(18) 0.661224(19)
Zn2 Zn 0.60496(3) 0.210901(19) 0.670274(18)
P1 P 0.50000 0.12583(5) 0.75000
O1 O 0.54477(18) 0.2465(1) 0.71731(10)
O2 O 0.51805(19) 0.16165(10) 0.62556(11)
O3 O 0.69398(19) 0.16410(11) 0.71653(11)
O4 O 0.38219(19) 0.08774(10) 0.62138(11)
O5 O 0.72828(19) 0.08964(10) 0.79853(11)
O6 O 0.42445(16) 0.15820(9) 0.71075(10)
O7 O 0.2170(2) 0.01058(12) 0.61109(12)
O8 O 0.25932(19) 0.15983(11) 0.62635(11)
O9 O 0.54767(17) 0.09361(9) 0.71604(10)
O10 O 0.4279(2) 0.00578(10) 0.71254(11)
O11 O 0.3436(2) 0.16700(12) 0.54182(11)
O12 O 0.6544(2) 0.24088(13) 0.61572(12)
O13 O 0.3927(2) 0.31458(11) 0.69320(13)
O14 O 0.5165(2) 0.02038(11) 0.63862(11)
O15 O 0.1390(2) 0.16977(13) 0.69252(14)
O16 O 0.3956(2) 0.22989(10) 0.63337(11)
O17 O 0.5698(3) -0.06276(11) 0.70288(14)
O18 O 0.6777(2) 0.02186(11) 0.72197(12)
O19 O 0.29507(19) 0.23161(11) 0.70623(11)
O20 O 0.6480(2) 0.09109(11) 0.64017(11)
O21 O 0.8252(2) 0.08572(14) 0.71734(15)
O22 O 0.4919(3) 0.08301(13) 0.54647(12)
O23 O 0.7012(3) 0.16615(15) 0.59696(16)
O24 O 0.1741(2) 0.08542(13) 0.57515(15)
C1 C 0.6899(3) 0.2106(2) 0.58881(19)
C2 C 0.7212(3) 0.23176(19) 0.54331(17)
C3 C 0.7638(3) 0.2010(2) 0.51505(18)
H1 H 0.77280 0.16790 0.52460
C4 C 0.7066(3) 0.2805(2) 0.52792(18)
H2 H 0.67680 0.30130 0.54620
C5 C 0.1631(3) 0.04052(18) 0.57719(18)
C6 C 0.0801(3) 0.01831(18) 0.53682(17)
C7 C 0.0230(3) 0.04911(18) 0.49777(19)
H3 H 0.03850 0.08220 0.49620
C8 C 0.0565(3) -0.03075(18) 0.53866(18)
H4 H 0.09420 -0.05160 0.56450
N1 N 0.5478(4) -0.1851(2) 0.5929(2)
C9 C 0.5333(5) -0.2161(3) 0.6398(3)
C10 C 0.4541(6) -0.2526(3) 0.6220(3)
C11 C 0.4268(6) -0.2732(3) 0.6728(3)
C12 C 0.3784(6) -0.2334(3) 0.6982(4)
C13 C 0.4589(6) -0.1494(3) 0.5655(4)
C14 C 0.4344(8) -0.1162(4) 0.6013(5)
C15 C 0.3373(8) -0.0833(4) 0.5737(5)
C16 C 0.3363(10) -0.0555(5) 0.5328(6)
C17 C 0.5459(6) -0.2164(3) 0.5448(4)
C18 C 0.6246(7) -0.2480(4) 0.5602(4)
C19 C 0.6245(7) -0.2860(4) 0.5033(4)
C20 C 0.5491(10) -0.3119(5) 0.4704(6)
C21 C 0.6349(5) -0.1553(3) 0.6192(3)
C22 C 0.6550(7) -0.1192(3) 0.5783(4)
C23 C 0.7425(8) -0.0923(4) 0.6021(5)
C24 C 0.7640(11) -0.0581(6) 0.5610(6)
N2 N 0.00000 -0.0294(2) 0.75000
C25 C 0.0605(7) -0.0086(4) 0.8076(4)
C26? C 0.005(2) 0.0359(11) 0.8278(13)
C27 C 0.0839(7) 0.0513(3) 0.8818(4)
C28 C 0.0637(10) 0.0983(5) 0.8973(6)
C29 C -0.0630(8) -0.0720(4) 0.7623(4)
C30 C -0.0770(12) -0.0885(6) 0.7997(7)
C31? C -0.131(2) -0.0647(12) 0.7783(13)
C32 C -0.2006(10) -0.1016(5) 0.7879(6)
C33 C -0.1606(11) -0.1333(5) 0.8312(6)
C34? C -0.0902(11) -0.0449(6) 0.7527(6)
C35? C -0.0032(12) 0.0167(6) 0.7855(7)
C36 C 0.0361(15) 0.0216(8) 0.8371(9)
Mo1A Mo 0.61648(2) 0.159152(13) 0.891210(13)
Mo2A Mo 0.28236(2) 0.092480(14) 0.778610(14)
Mo3A Mo 0.49396(3) 0.090332(14) 0.887619(13)
Mo4A Mo 0.59344(2) 0.253144(13) 0.798723(14)
Mo5A Mo 0.44040(3) -0.001037(13) 0.791805(14)
Mo6A Mo 0.74736(2) 0.161133(14) 0.795386(14)
Zn1A Zn 0.67484(3) 0.040734(18) 0.838776(19)
Zn1D Zn -0.32516(3) -0.040734(18) 0.338776(19)
Zn2A Zn 0.39504(3) 0.210901(19) 0.829726(18)
Zn2F Zn 0.89504(3) 0.289099(19) 0.329726(18)
O1A O 0.45523(18) 0.2465(1) 0.78269(10)
O2A O 0.48195(19) 0.16165(10) 0.87444(11)
O3A O 0.30602(19) 0.16410(11) 0.78347(11)
O4A O 0.61781(19) 0.08774(10) 0.87862(11)
O5A O 0.27172(19) 0.08964(10) 0.70147(11)
O6A O 0.57555(16) 0.15820(9) 0.78925(10)
O7D O -0.2170(2) -0.01058(12) 0.38891(12)
O7A O 0.7830(2) 0.01058(12) 0.88891(12)
O8A O 0.74068(19) 0.15983(11) 0.87365(11)
O9A O 0.45233(17) 0.09361(9) 0.78396(10)
O10A O 0.5721(2) 0.00578(10) 0.78746(11)
O11A O 0.6564(2) 0.16700(12) 0.95818(11)
O12F O 0.8456(2) 0.25912(13) 0.38428(12)
O12A O 0.3456(2) 0.24088(13) 0.88428(12)
O13A O 0.6073(2) 0.31458(11) 0.80680(13)
O14A O 0.4835(2) 0.02038(11) 0.86138(11)
O15A O 0.8610(2) 0.16977(13) 0.80748(14)
O16A O 0.6044(2) 0.22989(10) 0.86663(11)
O17A O 0.4302(3) -0.06276(11) 0.79712(14)
O18A O 0.3223(2) 0.02186(11) 0.77803(12)
O19A O 0.70493(19) 0.23161(11) 0.79377(11)
O20A O 0.3520(2) 0.09109(11) 0.85983(11)
O21A O 0.1748(2) 0.08572(14) 0.78266(15)
O22A O 0.5081(3) 0.08301(13) 0.95353(12)
O23F O 0.7988(3) 0.33385(15) 0.40304(16)
O24D O -0.1741(2) -0.08542(13) 0.42485(15)
C1F C 0.8101(3) 0.2894(2) 0.41119(19)
C2F C 0.7788(3) 0.26824(19) 0.45669(17)
C3F C 0.7362(3) 0.2990(2) 0.48495(18)
H1F H 0.72720 0.33210 0.47540
C4F C 0.7934(3) 0.2195(2) 0.47208(18)
H2F H 0.82320 0.19870 0.45380
C5D C -0.1631(3) -0.04052(18) 0.42281(18)
C6D C -0.0801(3) -0.01831(18) 0.46318(17)
C7D C -0.0230(3) -0.04911(18) 0.50223(19)
H3D H -0.03850 -0.08220 0.50380
C8D C -0.0565(3) 0.03075(18) 0.46134(18)
H4D H -0.09420 0.05160 0.43550
C25A C -0.0605(7) -0.0086(4) 0.6924(4)
C27A C -0.0839(7) 0.0513(3) 0.6182(4)
C28A C -0.0637(10) 0.0983(5) 0.6027(6)
C29A C 0.0630(8) -0.0720(4) 0.7377(4)
C30A C 0.0770(12) -0.0885(6) 0.7003(7)
C32A C 0.2006(10) -0.1016(5) 0.7121(6)
C33A C 0.1606(11) -0.1333(5) 0.6688(6)
C36A C -0.0361(15) 0.0216(8) 0.6629(9)
#END
