
#######################################################################
#
#                 Cambridge Crystallographic Data Centre
#                                CCDC
#
#######################################################################
#
# If this CIF has been generated from an entry in the Cambridge
# Structural Database, then it will include bibliographic, chemical,
# crystal, experimental, refinement or atomic coordinate data resulting
# from the CCDC's data processing and validation procedures.
#
#######################################################################

data_CSD_CIF_CUKXEN
_audit_creation_date 2015-07-11
_audit_creation_method CSD-ConQuest-V1
_database_code_CSD CUKXEN
_database_code_depnum_ccdc_archive 'CCDC 1010180'
_chemical_formula_sum 'C28 H40 Cd2 N4 O18'
_chemical_formula_moiety
;
(C20 H4 Cd2 O16 4-)n,4n(C2 H8 N1 1+),2n(H2 O1)
;
_journal_coden_Cambridge 9
_journal_volume 54
_journal_year 2015
_journal_page_first 6169
_journal_name_full 'Inorg.Chem. '
loop_
_publ_author_name
"Jian Su"
"Liudi Yao"
"Meng Zhao"
"Hui Wang"
"Qiong Zhang"
"Longjiu Cheng"
"Jun Zhang"
"Shengyi Zhang"
"Jieying Wu"
"Yupeng Tian"
_chemical_name_systematic
;
catena-(tetrakis(Dimethylammonium) 
bis(\m~4~-benzene-1,2,4,5-tetracarboxylato)-di-cadmium dihydrate)
;
_cell_volume   3376.529
_exptl_crystal_colour 'colorless'
_exptl_crystal_density_diffrn 1.86
_exptl_crystal_description 'octahedral'
_diffrn_ambient_temperature 296
_refine_special_details
;
The SQUEEZE/PLATON program was used to model the disordered cations and water 
molecules.
;
#These two values have been output from a single CSD field.
_refine_ls_R_factor_gt 0.0425
_refine_ls_wR_factor_gt 0.0425
_symmetry_cell_setting tetragonal
_symmetry_space_group_name_H-M 'P 42/m b c'
_symmetry_Int_Tables_number 135
loop_
_symmetry_equiv_pos_site_id
_symmetry_equiv_pos_as_xyz
1 x,y,z
2 -x,-y,z
3 -y,x,1/2+z
4 y,-x,1/2+z
5 1/2-x,1/2+y,-z
6 1/2+x,1/2-y,-z
7 1/2+y,1/2+x,1/2-z
8 1/2-y,1/2-x,1/2-z
9 -x,-y,-z
10 x,y,-z
11 y,-x,-1/2-z
12 -y,x,-1/2-z
13 -1/2+x,-1/2-y,z
14 -1/2-x,-1/2+y,z
15 -1/2-y,-1/2-x,-1/2+z
16 -1/2+y,-1/2+x,-1/2+z
_cell_length_a 13.795(2)
_cell_length_b 13.795(2)
_cell_length_c 17.743(6)
_cell_angle_alpha 90
_cell_angle_beta 90
_cell_angle_gamma 90
_cell_formula_units_Z 4
loop_
_atom_type_symbol
_atom_type_radius_bond
C 0.68
H 0.23
Cd 1.44
O 0.68
loop_
_atom_site_label
_atom_site_type_symbol
_atom_site_fract_x
_atom_site_fract_y
_atom_site_fract_z
C1 C 0.1399(3) 0.4801(4) 0.3610(2)
C2 C 0.1999(3) 0.4849(3) 0.4317(2)
C3 C 0.2992(3) 0.5059(3) 0.4320(2)
C4 C 0.3597(4) 0.5137(5) 0.3609(3)
C5 C 0.3463(5) 0.5175(6) 0.50000
H1 H 0.41180 0.53350 0.50000
C6 C 0.1527(4) 0.4733(5) 0.50000
H2 H 0.08730 0.45730 0.50000
Cd1 Cd 0.00000 0.50000 0.25000
Cd2 Cd 0.50000 0.50000 0.25000
O1 O 0.0775(3) 0.4171(3) 0.3541(2)
O2 O 0.1503(3) 0.5460(3) 0.3125(2)
O3 O 0.3524(3) 0.4493(3) 0.3122(2)
O4 O 0.4204(3) 0.5798(3) 0.3558(2)
C1I C 0.1399(3) 0.4801(4) 0.6390(2)
C2I C 0.1999(3) 0.4849(3) 0.5683(2)
C3I C 0.2992(3) 0.5059(3) 0.5680(2)
C4I C 0.3597(4) 0.5137(5) 0.6391(3)
O1I O 0.0775(3) 0.4171(3) 0.6459(2)
O2I O 0.1503(3) 0.5460(3) 0.6875(2)
O3I O 0.3524(3) 0.4493(3) 0.6878(2)
O4I O 0.4204(3) 0.5798(3) 0.6442(2)
C1A C -0.1399(3) 0.5199(4) 0.3610(2)
C2A C -0.1999(3) 0.5151(3) 0.4317(2)
C3A C -0.2992(3) 0.4941(3) 0.4320(2)
C4A C -0.3597(4) 0.4863(5) 0.3609(3)
C5A C -0.3463(5) 0.4825(6) 0.50000
H1A H -0.41180 0.46650 0.50000
C6A C -0.1527(4) 0.5267(5) 0.50000
H2A H -0.08730 0.54270 0.50000
O1A O -0.0775(3) 0.5829(3) 0.3541(2)
O2A O -0.1503(3) 0.4540(3) 0.3125(2)
O3A O -0.3524(3) 0.5507(3) 0.3122(2)
O4A O -0.4204(3) 0.4202(3) 0.3558(2)
C1H C -0.1399(3) 0.5199(4) 0.6390(2)
C2H C -0.1999(3) 0.5151(3) 0.5683(2)
C3H C -0.2992(3) 0.4941(3) 0.5680(2)
C4H C -0.3597(4) 0.4863(5) 0.6391(3)
O1H O -0.0775(3) 0.5829(3) 0.6459(2)
O2H O -0.1503(3) 0.4540(3) 0.6875(2)
O3H O -0.3524(3) 0.5507(3) 0.6878(2)
O4H O -0.4204(3) 0.4202(3) 0.6442(2)
Cd1H Cd 0.00000 0.50000 0.75000
Cd2* Cd -0.50000 0.50000 0.25000
Cd2B Cd -0.50000 0.50000 0.75000
Cd2B* Cd 0.50000 0.50000 0.75000
O1F O -0.0829(3) 0.5775(3) 0.1459(2)
O1G O 0.0829(3) 0.4225(3) 0.1459(2)
O2F O 0.0460(3) 0.6503(3) 0.1875(2)
O2G O -0.0460(3) 0.3497(3) 0.1875(2)
O3A* O 0.6476(3) 0.5507(3) 0.3122(2)
O3J O 0.4493(3) 0.6476(3) 0.1878(2)
O3K O 0.5507(3) 0.3524(3) 0.1878(2)
O4A* O 0.5796(3) 0.4202(3) 0.3558(2)
O4J O 0.5798(3) 0.5796(3) 0.1442(2)
O4K O 0.4202(3) 0.4204(3) 0.1442(2)
#END
