
#######################################################################
#
#                 Cambridge Crystallographic Data Centre
#                                CCDC
#
#######################################################################
#
# If this CIF has been generated from an entry in the Cambridge
# Structural Database, then it will include bibliographic, chemical,
# crystal, experimental, refinement or atomic coordinate data resulting
# from the CCDC's data processing and validation procedures.
#
#######################################################################

data_CSD_CIF_CUMCOD
_audit_creation_date 2010-08-06
_audit_creation_method CSD-ConQuest-V1
_database_code_CSD CUMCOD
_database_code_depnum_ccdc_archive 'CCDC 761640'
_chemical_formula_sum 'C6 H20 Ce1 K1 N2 O10 P2'
_chemical_formula_moiety
;
(K1 1+)n,n(C6 H12 Ce1 N2 O6 P2 1-),4n(H2 O1)
;
_journal_coden_Cambridge 208
_journal_volume 182
_journal_year 2009
_journal_page_first 2769
_journal_name_full 'J.Solid State Chem. '
loop_
_publ_author_name
"J.P.S.Mowat"
"J.A.Groves"
"M.T.Wharmby"
"S.R.Miller"
"Yang Li"
"P.Lightfoot"
"P.A.Wright"
_chemical_name_systematic
;
catena-(potassium 
(\m~6~-(piperazine-1,4-diylbis(methylene))-bis(phosphonato))-cerium 
tetrahydrate)
;
_cell_volume   1547.418
_exptl_crystal_colour 'grey'
_exptl_special_details
;
powder data
The paper describes a number of bonds involving the K atom which have not 
been represented in the 2D diagram
;
_diffrn_ambient_temperature 100
_diffrn_radiation_probe x-ray
_diffrn_source synchrotron
_refine_special_details
;
The water molecules are disordered.

;
#These two values have been output from a single CSD field.
_refine_ls_R_factor_gt 0.0761
_refine_ls_wR_factor_gt 0.0761
_symmetry_cell_setting monoclinic
_symmetry_space_group_name_H-M 'C 2/c'
_symmetry_Int_Tables_number 15
loop_
_symmetry_equiv_pos_site_id
_symmetry_equiv_pos_as_xyz
1 x,y,z
2 -x,y,1/2-z
3 1/2+x,1/2+y,z
4 1/2-x,1/2+y,1/2-z
5 -x,-y,-z
6 x,-y,-1/2+z
7 -1/2-x,-1/2-y,-z
8 -1/2+x,-1/2-y,-1/2+z
_cell_length_a 22.58648(24)
_cell_length_b 12.11857(17)
_cell_length_c 5.66134(16)
_cell_angle_alpha 90
_cell_angle_beta 93.0397(20)
_cell_angle_gamma 90
_cell_formula_units_Z 4
loop_
_atom_type_symbol
_atom_type_radius_bond
C 0.68
Ce 1.67
K 1.43
N 0.68
O 0.68
P 1.05
loop_
_atom_site_label
_atom_site_type_symbol
_atom_site_fract_x
_atom_site_fract_y
_atom_site_fract_z
Ce1 Ce 1.00000 0.37997(13) 0.25000
P1 P 0.91342(15) 0.34681(32) -0.2015(7)
O1 O 0.94582(23) 0.4616(4) -0.1220(11)
O2 O 0.92436(25) 0.2637(4) -0.0009(10)
O3 O 0.94439(24) 0.3089(4) -0.4320(8)
K1 K 1.00000 0.1134(5) -0.25000
O4? O 0.8807(19) 0.001(4) -0.248(13)
O5 O 0.8400(4) 0.0784(7) -0.1902(19)
O6 O 0.9374(5) -0.0627(10) -0.1990(28)
O7? O 0.9491(15) -0.0993(31) -0.246(7)
O8? O 0.9013(21) -0.064(4) -0.382(13)
C1 C 0.83561(18) 0.3761(5) -0.2637(13)
C2 C 0.73031(23) 0.3216(4) -0.3162(8)
C3 C 0.80566(16) 0.2833(6) -0.5898(9)
N1 N 0.79429(17) 0.2840(5) -0.3230(7)
Ce1D Ce 1.00000 0.62003(13) -0.25000
Ce1* Ce 1.00000 0.37997(13) -0.75000
Ce1F Ce 0.50000 0.12003(13) -1.25000
Ce1B Ce 0.50000 -0.12003(13) -0.75000
Ce1F* Ce 0.50000 0.12003(13) -0.25000
P1F P 0.58658(15) 0.15319(32) -0.7985(7)
O1F O 0.55418(23) 0.0384(4) -0.8780(11)
O1A O 1.05418(23) 0.4616(4) 0.6220(11)
O1D O 1.05418(23) 0.5384(4) 0.1220(11)
O1E O 0.94582(23) 0.5384(4) 0.3780(11)
O2F O 0.57564(25) 0.2363(4) -0.9991(10)
O2A O 1.07564(25) 0.2637(4) 0.5009(10)
O3F O 0.55561(24) 0.1911(4) -0.5680(8)
O3* O 0.94439(24) 0.3089(4) 0.5680(8)
O3A O 1.05561(24) 0.3089(4) -0.0680(8)
C1F C 0.66439(18) 0.1239(5) -0.7363(13)
C2F C 0.76969(23) 0.1784(4) -0.6838(8)
C3F C 0.69434(16) 0.2167(6) -0.4102(9)
N1F N 0.70571(17) 0.2160(5) -0.6770(7)
#END
