
#######################################################################
#
#                 Cambridge Crystallographic Data Centre
#                                CCDC
#
#######################################################################
#
# If this CIF has been generated from an entry in the Cambridge
# Structural Database, then it will include bibliographic, chemical,
# crystal, experimental, refinement or atomic coordinate data resulting
# from the CCDC's data processing and validation procedures.
#
#######################################################################

data_CSD_CIF_CUMDAQ
_audit_creation_date 2010-08-06
_audit_creation_method CSD-ConQuest-V1
_database_code_CSD CUMDAQ
_database_code_depnum_ccdc_archive 'CCDC 761642'
_chemical_formula_sum 'C7 H22.5 Ce1 K0.5 N2 O10 P2'
_chemical_formula_moiety
;
(K1 1+)0.5n,0.5n(H1 1+),n(C7 H14 Ce1 N2 O6 P2 1-),4n(H2 O1)
;
_journal_coden_Cambridge 208
_journal_volume 182
_journal_year 2009
_journal_page_first 2769
_journal_name_full 'J.Solid State Chem. '
loop_
_publ_author_name
"J.P.S.Mowat"
"J.A.Groves"
"M.T.Wharmby"
"S.R.Miller"
"Yang Li"
"P.Lightfoot"
"P.A.Wright"
_chemical_name_systematic
;
catena-(hemi-potassium hemihydrogen 
(\m~6~-(2-methylpiperazine-1,4-diylbis(methylene))-bis(phosphonato))-cerium 
tetrahydrate)
;
_cell_volume   1757.014
_exptl_crystal_colour 'colorless'
_exptl_special_details
;
The paper describes a number of bonds involving the K atom which have not 
been represented in the 2D diagram
;
_diffrn_ambient_temperature 113
_refine_special_details
;
C2A,C3A and C2B,C3B disordered over two sites with occupancies 0.50:0.50; 
C1A,N1A and C1B,N1B disordered over two sites with occupancies 0.50:0.50; The 
methyl group on the piperazine ring could not be located and is thought to be 
disordered over all the carbon atoms on the piperazine ring.
;
#These two values have been output from a single CSD field.
_refine_ls_R_factor_gt 0.0927
_refine_ls_wR_factor_gt 0.0927
_symmetry_cell_setting monoclinic
_symmetry_space_group_name_H-M 'C 2/c'
_symmetry_Int_Tables_number 15
loop_
_symmetry_equiv_pos_site_id
_symmetry_equiv_pos_as_xyz
1 x,y,z
2 -x,y,1/2-z
3 1/2+x,1/2+y,z
4 1/2-x,1/2+y,1/2-z
5 -x,-y,-z
6 x,-y,-1/2+z
7 -1/2-x,-1/2-y,-z
8 -1/2+x,-1/2-y,-1/2+z
_cell_length_a 23.144(9)
_cell_length_b 13.813(5)
_cell_length_c 5.6241(19)
_cell_angle_alpha 90
_cell_angle_beta 102.251(17)
_cell_angle_gamma 90
_cell_formula_units_Z 4
loop_
_atom_type_symbol
_atom_type_radius_bond
C 0.68
H 0.23
Ce 1.68
K 1.63
N 0.68
O 0.68
P 1.05
loop_
_atom_site_label
_atom_site_type_symbol
_atom_site_fract_x
_atom_site_fract_y
_atom_site_fract_z
Ce1 Ce 0.00000 0.39437(8) 0.25000
P1 P -0.08296(16) 0.3655(3) -0.2685(7)
O1 O -0.0545(4) 0.4620(7) -0.1600(18)
O2 O -0.0705(5) 0.2928(8) -0.0606(18)
O3 O -0.0655(5) 0.3346(8) -0.4964(17)
K1 K 0.00000 0.1500(11) -0.25000
O4 O -0.103(5) 0.134(7) -0.83(2)
O5 O -0.171(4) 0.250(6) -0.878(15)
O6 O -0.060(3) 0.011(6) -0.593(14)
C1 C -0.1610(13) 0.387(2) -0.307(7)
H1 H -0.17080 0.38580 -0.14790
H2 H -0.16940 0.45140 -0.37300
C2 C -0.2622(10) 0.357(2) -0.535(7)
H3 H -0.26330 0.41190 -0.64200
H4 H -0.27520 0.37740 -0.39000
C3 C -0.1974(18) 0.2237(19) -0.337(6)
H5 H -0.20680 0.23500 -0.17880
H6 H -0.15690 0.20110 -0.30860
N1 N -0.2013(10) 0.3172(17) -0.468(6)
C4? C -0.1627(14) 0.398(2) -0.383(7)
C5? C -0.2661(11) 0.342(2) -0.430(8)
C6? C -0.1921(19) 0.245(3) -0.568(7)
H7? H -0.17340 0.44970 -0.28390
H8? H -0.16820 0.42190 -0.54900
H9? H -0.27540 0.37390 -0.58630
H10? H -0.27220 0.38770 -0.30690
H11? H -0.15130 0.22310 -0.53100
H12? H -0.20000 0.27660 -0.72480
N2? N -0.2034(11) 0.311(2) -0.377(6)
Ce1D Ce 0.00000 0.60563(8) -0.25000
Ce1* Ce 0.00000 0.39437(8) -0.75000
Ce1F Ce -0.50000 0.10563(8) -1.25000
Ce1B Ce -0.50000 -0.10563(8) -0.75000
Ce1F* Ce -0.50000 0.10563(8) -0.25000
P1F P -0.41704(16) 0.1345(3) -0.7315(7)
O1F O -0.4455(4) 0.0380(7) -0.8400(18)
O1D O 0.0545(4) 0.5380(7) 0.1600(18)
O1A O 0.0545(4) 0.4620(7) 0.6600(18)
O1E O -0.0545(4) 0.5380(7) 0.3400(18)
O2F O -0.4295(5) 0.2072(8) -0.9394(18)
O2A O 0.0705(5) 0.2928(8) 0.5606(18)
O3F O -0.4345(5) 0.1654(8) -0.5036(17)
O3* O -0.0655(5) 0.3346(8) 0.5036(17)
O3A O 0.0655(5) 0.3346(8) -0.0036(17)
C1F C -0.3390(13) 0.113(2) -0.693(7)
H1F H -0.32920 0.11420 -0.85210
H2F H -0.33060 0.04860 -0.62700
C2F C -0.2378(10) 0.143(2) -0.465(7)
H3F H -0.23670 0.08810 -0.35800
H4F H -0.22480 0.12260 -0.61000
C3F C -0.3026(18) 0.2763(19) -0.663(6)
H5F H -0.29320 0.26500 -0.82120
H6F H -0.34310 0.29890 -0.69140
N1F N -0.2987(10) 0.1828(17) -0.532(6)
#END
