
#######################################################################
#
#                 Cambridge Crystallographic Data Centre
#                                CCDC
#
#######################################################################
#
# If this CIF has been generated from an entry in the Cambridge
# Structural Database, then it will include bibliographic, chemical,
# crystal, experimental, refinement or atomic coordinate data resulting
# from the CCDC's data processing and validation procedures.
#
#######################################################################

data_CSD_CIF_CUMLUT
_audit_creation_date 2015-07-11
_audit_creation_method CSD-ConQuest-V1
_database_code_CSD CUMLUT
_database_code_depnum_ccdc_archive 'CCDC 961110'
_chemical_formula_sum 'C11 H13 Cd1 N1 O7'
_chemical_formula_moiety
;
(C9 H5 Cd1 O7 1-)n,C2 H8 N1 1+
;
_journal_coden_Cambridge 923
_journal_volume 45
_journal_year 2015
_journal_page_first 1739
_journal_name_full 'Synth.React.Inorg.,Met.-Org.,Nano-Met.Chem. '
loop_
_publ_author_name
"Jian-Min Wang"
_chemical_name_systematic
;
catena-[N-methylmethanaminium (\m-benzene-1,3,5-tricarboxylato)-aqua-cadmium]
;
_cell_volume   1743.631
_exptl_crystal_colour 'colorless'
_exptl_crystal_density_diffrn 1.461
_exptl_crystal_description 'block'
_diffrn_ambient_temperature 293
#These two values have been output from a single CSD field.
_refine_ls_R_factor_gt 0.0522
_refine_ls_wR_factor_gt 0.0522
_symmetry_cell_setting monoclinic
_symmetry_space_group_name_H-M 'P 21/n'
_symmetry_Int_Tables_number 14
loop_
_symmetry_equiv_pos_site_id
_symmetry_equiv_pos_as_xyz
1 x,y,z
2 1/2-x,1/2+y,1/2-z
3 -x,-y,-z
4 -1/2+x,-1/2-y,-1/2+z
_cell_length_a 10.2117(10)
_cell_length_b 13.870(3)
_cell_length_c 12.3107(15)
_cell_angle_alpha 90
_cell_angle_beta 90.198(12)
_cell_angle_gamma 90
_cell_formula_units_Z 4
loop_
_atom_type_symbol
_atom_type_radius_bond
C 0.68
H 0.23
Cd 1.44
N 0.68
O 0.68
loop_
_atom_site_label
_atom_site_type_symbol
_atom_site_fract_x
_atom_site_fract_y
_atom_site_fract_z
Cd1 Cd 2.14715(5) 0.43769(4) 0.92096(4)
C1 C 1.6476(8) 0.2936(6) 0.6554(6)
C2 C 1.5281(7) 0.3225(6) 0.6976(7)
H1 H 1.45130 0.30010 0.66570
C3 C 1.5202(8) 0.3848(6) 0.7875(7)
C4 C 1.6381(7) 0.4189(5) 0.8324(7)
H2 H 1.63620 0.46020 0.89190
C5 C 1.7561(7) 0.3915(6) 0.7889(7)
C6 C 1.7609(8) 0.3294(6) 0.7014(7)
H3 H 1.84160 0.31140 0.67320
C7 C 1.6546(9) 0.2213(6) 0.5651(7)
C8 C 1.3911(7) 0.4117(6) 0.8321(7)
C9 C 1.8856(8) 0.4244(6) 0.8408(7)
O1 O 2.1360(6) 0.5926(5) 0.8503(6)
H4 H 2.08050 0.60580 0.79540
H5 H 2.18720 0.63940 0.87790
O2 O 1.7619(7) 0.1920(6) 0.5341(7)
O3 O 1.5499(6) 0.1891(5) 0.5255(5)
O4 O 1.2932(6) 0.3741(6) 0.7919(6)
O5 O 1.3859(6) 0.4702(4) 0.9080(5)
O6 O 1.8822(6) 0.4771(5) 0.9211(5)
O7 O 1.9904(5) 0.3946(5) 0.7973(5)
C10 C 1.952(4) 0.8358(17) 0.2517(13)
H6 H 1.99630 0.88330 0.20850
H7 H 1.85910 0.84510 0.24580
H8 H 1.97440 0.77250 0.22620
C11 C 1.903(2) 0.7706(19) 0.418(2)
H9 H 1.91710 0.76120 0.49420
H10 H 1.91770 0.71110 0.38010
H11 H 1.81410 0.79120 0.40570
N1 N 1.9961(10) 0.8468(7) 0.3761(10)
H12 H 2.08070 0.83130 0.38700
H13 H 1.97930 0.90580 0.40310
Cd1* Cd 1.14715(5) 0.43769(4) 0.92096(4)
Cd1B Cd 1.85285(5) 0.56231(4) 1.07904(4)
Cd1C Cd 1.64715(5) 0.06231(4) 0.42096(4)
O2C O 2.2619(7) 0.3080(6) 1.0341(7)
O3C O 2.0499(6) 0.3109(5) 1.0255(5)
O4* O 2.2932(6) 0.3741(6) 0.7919(6)
O5* O 2.3859(6) 0.4702(4) 0.9080(5)
O6B O 2.1178(6) 0.5229(5) 1.0789(5)
#END
