
#######################################################################
#
#                 Cambridge Crystallographic Data Centre
#                                CCDC
#
#######################################################################
#
# If this CIF has been generated from an entry in the Cambridge
# Structural Database, then it will include bibliographic, chemical,
# crystal, experimental, refinement or atomic coordinate data resulting
# from the CCDC's data processing and validation procedures.
#
#######################################################################

data_CSD_CIF_CUMQOQ
_audit_creation_date 2000-05-24
_audit_creation_method CSD-ConQuest-V1
_database_code_CSD CUMQOQ
_database_code_depnum_ccdc_archive 'CCDC 139542'
_database_code_depnum_ccdc_journal 1350/7
_chemical_formula_sum 'C40 H66 N8 O32 S4 Zn3'
_chemical_formula_moiety
;
(C30 H36 N6 O22 S4 Zn3 2-)n,n(C10 H10 N2 2+),10n(H2 O1)
;
_journal_coden_Cambridge 1350
_journal_volume 2
_journal_year 2000
_journal_page_first 1
_journal_name_full 'CrystEngComm '
loop_
_publ_author_name
"Ming-Liang Tong"
"Xiao-Ming Chen"
_chemical_name_systematic
;
catena-(4,4'-Bipyridinium 
tris(\m~2~-4,4'-bipyridine)-bis(\m~2~-sulfato)-hexa-aqua-disulfato-tri-zinc 
decahydrate)
;
_cell_volume   1456.037
_exptl_crystal_colour 'colorless'
_exptl_crystal_density_diffrn 1.705
_exptl_crystal_description 'block'
_diffrn_ambient_temperature ?
_diffrn_special_details
;
The study was carried out at room temperature,in the range 283-303K

;
#These two values have been output from a single CSD field.
_refine_ls_R_factor_gt 0.0641
_refine_ls_wR_factor_gt 0.0641
_symmetry_cell_setting triclinic
_symmetry_space_group_name_H-M 'P -1'
_symmetry_Int_Tables_number 2
loop_
_symmetry_equiv_pos_site_id
_symmetry_equiv_pos_as_xyz
1 x,y,z
2 -x,-y,-z
_cell_length_a 11.491(2)
_cell_length_b 12.094(2)
_cell_length_c 12.620(3)
_cell_angle_alpha 69.61(3)
_cell_angle_beta 64.15(3)
_cell_angle_gamma 72.46(3)
_cell_formula_units_Z 1
loop_
_atom_type_symbol
_atom_type_radius_bond
C 0.68
H 0.23
N 0.68
O 0.68
S 1.02
Zn 1.45
loop_
_atom_site_label
_atom_site_type_symbol
_atom_site_fract_x
_atom_site_fract_y
_atom_site_fract_z
Zn1 Zn 0.00000 -1.00000 0.00000
Zn2 Zn -1.00000 -0.50000 0.50000
Zn3 Zn 0.00000 -0.50000 0.00000
O1 O 0.0592(4) -1.0259(4) 0.1475(4)
H1 H 0.08320 -1.10370 0.18690
H2 H 0.10190 -0.98280 0.15040
O2 O -1.0167(5) -0.4081(4) 0.3303(4)
H3 H -1.08900 -0.38380 0.31630
H4 H -0.99880 -0.32940 0.29950
O3 O -0.0494(6) -0.5892(5) 0.1882(5)
H5 H -0.11300 -0.58310 0.18670
H6 H 0.01560 -0.65710 0.17170
S1 S -1.15395(15) -0.74121(14) 0.61218(15)
O4 O -1.0936(4) -0.6404(4) 0.5157(4)
O5 O -1.2919(5) -0.7225(5) 0.6279(6)
O6 O -1.0843(5) -0.8545(4) 0.5732(5)
O7 O -1.1406(5) -0.7516(4) 0.7264(4)
S2 S -0.15421(14) -0.24190(13) 0.10334(15)
O8 O -0.0732(4) -0.1638(4) 0.0996(4)
O9 O -0.0743(5) -0.3287(6) 0.0385(8)
O10 O -0.2017(6) -0.3193(6) 0.2353(6)
O11 O -0.2712(6) -0.1810(5) 0.0818(7)
N1 N -0.1856(5) -0.9009(4) 0.0912(4)
N2 N -0.8125(5) -0.5923(4) 0.4084(5)
C1 C -0.1980(6) -0.8289(5) 0.1585(6)
H7 H -0.11950 -0.81930 0.16110
C2 C -0.3174(6) -0.7684(5) 0.2228(6)
H8 H -0.32070 -0.71920 0.26990
C3 C -0.4344(6) -0.7789(5) 0.2190(5)
C4 C -0.4201(6) -0.8536(6) 0.1481(6)
H9 H -0.49620 -0.86430 0.14180
C5 C -0.2973(6) -0.9105(6) 0.0882(6)
H10 H -0.29070 -0.96100 0.04080
C6 C -0.5649(5) -0.7154(5) 0.2855(5)
C7 C -0.5810(6) -0.6493(6) 0.3643(6)
H11 H -0.50640 -0.64470 0.37720
C8 C -0.7042(6) -0.5911(6) 0.4229(6)
H12 H -1.28670 -0.45260 0.52260
C9 C -1.2016(6) -0.3443(6) 0.6672(6)
H13 H -1.12490 -0.34190 0.67820
C10 C -1.3213(6) -0.2829(6) 0.7286(6)
H14 H -1.32680 -0.23840 0.78110
N3 N 0.1907(5) -0.4944(5) -0.0080(5)
C11 C 0.3027(7) -0.5534(7) -0.0739(8)
H15 H 0.29880 -0.59350 -0.12560
C12 C 0.4240(6) -0.5589(6) -0.0721(7)
H16 H 0.50150 -0.60480 -0.11890
C13 C 0.4349(5) -0.4983(5) -0.0018(6)
C14 C 0.3194(6) -0.4328(6) 0.0630(6)
H17 H 0.32180 -0.38790 0.11130
C15 C 0.2009(6) -0.4324(6) 0.0575(6)
H18 H 0.12230 -0.38610 0.10250
N4 N 0.8400(5) -0.0610(5) -0.5681(5)
H19 H 0.93660 -0.08390 -0.57470
C16 C 0.7619(7) 0.0087(7) -0.4924(7)
H20 H 0.79900 0.03980 -0.45600
C17 C 0.6291(7) 0.0352(6) -0.4659(7)
H21 H 0.57380 0.08740 -0.41350
C18 C 0.5728(6) -0.0128(5) -0.5153(5)
C19 C 0.6579(6) -0.0835(6) -0.5950(6)
H22 H 0.62340 -0.11570 -0.63270
C20 C 0.7920(7) -0.1069(6) -0.6195(6)
H23 H 0.85050 -0.15660 -0.67360
O12 O 1.2613(8) 0.0875(7) -0.8385(7)
H24 H 1.36060 0.02450 -0.87860
H25 H 1.24510 0.12000 -0.91970
O13 O 1.2947(7) -0.4096(6) -0.3722(6)
H26 H 1.33870 -0.37520 -0.43950
H27 H 1.20390 -0.35450 -0.37970
O14 O 1.0048(8) 0.1733(7) -0.6907(6)
H28 H 1.10320 0.13820 -0.74440
H29 H 1.00000 0.13200 -0.60100
O15 O 1.5532(7) -0.3652(8) -0.6198(7)
H30 H 1.46110 -0.33180 -0.63600
H31 H 1.62110 -0.31650 -0.70620
O16 O 1.4501(8) -0.1159(8) -0.8151(10)
H32 H 1.43790 -0.16730 -0.87000
H33 H 1.39330 -0.04650 -0.79520
O3A O 0.0494(6) -0.4108(5) -0.1882(5)
H5A H 0.11300 -0.41690 -0.18670
H6A H -0.01560 -0.34290 -0.17170
O9A O 0.0743(5) -0.6713(6) -0.0385(8)
S2A S 0.15421(14) -0.75810(13) -0.10334(15)
O8A O 0.0732(4) -0.8362(4) -0.0996(4)
Zn1* Zn 0.00000 0.00000 0.00000
O1A O -0.0592(4) -0.9741(4) -0.1475(4)
O8* O -0.0732(4) -1.1638(4) 0.0996(4)
O2A O -0.9833(5) -0.5919(4) 0.6697(4)
H3A H -0.91100 -0.61620 0.68370
H4A H -1.00120 -0.67060 0.70050
O4A O -0.9064(4) -0.3596(4) 0.4843(4)
S1A S -0.84605(15) -0.25879(14) 0.38782(15)
O5A O -0.7081(5) -0.2775(5) 0.3721(6)
O6A O -0.9157(5) -0.1455(4) 0.4268(5)
O7A O -0.8594(5) -0.2484(4) 0.2736(4)
N2A N -1.1875(5) -0.4077(4) 0.5916(5)
C8A C -1.2958(6) -0.4089(6) 0.5771(6)
C7A C -1.4190(6) -0.3507(6) 0.6357(6)
C6A C -1.4351(5) -0.2846(5) 0.7145(5)
C3A C -1.5656(6) -0.2211(5) 0.7810(5)
C2A C -1.6826(6) -0.2316(5) 0.7772(6)
C1A C -1.8020(6) -0.1711(5) 0.8415(6)
N1A N -1.8144(5) -0.0991(4) 0.9088(4)
Zn1** Zn -2.00000 0.00000 1.00000
C5A C -1.7027(6) -0.0895(6) 0.9118(6)
C4A C -1.5799(6) -0.1464(6) 0.8519(6)
H9A H -1.50380 -0.13570 0.85820
H10A H -1.70930 -0.03900 0.95920
H7A H -1.88050 -0.18070 0.83890
H8A H -1.67930 -0.28080 0.73010
H11A H -1.49360 -0.35530 0.62280
C9A C -0.7984(6) -0.6557(6) 0.3328(6)
H13A H -0.87510 -0.65810 0.32180
C10A C -0.6787(6) -0.7171(6) 0.2714(6)
H14A H -0.67320 -0.76160 0.21890
H12A H -0.71330 -0.54740 0.47740
N1A* N 0.1856(5) -1.0991(4) -0.0912(4)
O10A O 0.2017(6) -0.6807(6) -0.2353(6)
O11A O 0.2712(6) -0.8190(5) -0.0818(7)
C13A C 0.5651(5) -0.5017(5) 0.0018(6)
C12A C 0.5760(6) -0.4411(6) 0.0721(7)
C11A C 0.6973(7) -0.4466(7) 0.0739(8)
N3A N 0.8093(5) -0.5056(5) 0.0080(5)
Zn3A Zn 1.00000 -0.50000 0.00000
C15A C 0.7991(6) -0.5676(6) -0.0575(6)
C14A C 0.6806(6) -0.5672(6) -0.0630(6)
H17A H 0.67820 -0.61210 -0.11130
H18A H 0.87770 -0.61390 -0.10250
H15A H 0.70120 -0.40650 0.12560
H16A H 0.49850 -0.39520 0.11890
N3A* N -0.1907(5) -0.5056(5) 0.0080(5)
C18A C 0.4272(6) 0.0128(5) -0.4847(5)
C17A C 0.3709(7) -0.0352(6) -0.5341(7)
C16A C 0.2381(7) -0.0087(7) -0.5076(7)
N4A N 0.1600(5) 0.0610(5) -0.4319(5)
H19A H 0.06340 0.08390 -0.42530
C20A C 0.2080(7) 0.1069(6) -0.3805(6)
C19A C 0.3421(6) 0.0835(6) -0.4050(6)
H22A H 0.37660 0.11570 -0.36730
H23A H 0.14950 0.15660 -0.32640
H20A H 0.20100 -0.03980 -0.54400
H21A H 0.42620 -0.08740 -0.58650
H1A H -0.08320 -0.89630 -0.18690
H2A H -0.10190 -1.01720 -0.15040
#END
