
#######################################################################
#
#                 Cambridge Crystallographic Data Centre
#                                CCDC
#
#######################################################################
#
# If this CIF has been generated from an entry in the Cambridge
# Structural Database, then it will include bibliographic, chemical,
# crystal, experimental, refinement or atomic coordinate data resulting
# from the CCDC's data processing and validation procedures.
#
#######################################################################

data_CSD_CIF_CUMWEM
_audit_creation_date 1985-11-27
_audit_creation_method CSD-ConQuest-V1
_database_code_CSD CUMWEM
_database_code_depnum_ccdc_archive 'CCDC 1133298'
_chemical_formula_sum 'C24 H32 Cu3 I4 K1 O8'
_chemical_formula_moiety
;
(C24 H32 K1 O8 1+)n,n(Cu3 I4 1-)
;
_journal_coden_Cambridge 182
_journal_year 1985
_journal_page_first 665
_journal_name_full 'Chem.Commun. '
loop_
_publ_author_name
"N.P.Rath"
"E.M.Holt"
_chemical_name_systematic
;
catena-[(24-Crown-8)-potassium bis(\m~3~-iodo)-bis(\m~2~-iodo)-tri-copper(i)]
;
_cell_volume   1703.578
_exptl_crystal_density_diffrn 2.312
_exptl_special_details
;
Bonds C29-C30 = 1.97(8), C5-C6 = 1.85(9), and C20-C21 = 1.87(8) are outside 
our bond tolerance limits
;
_diffrn_ambient_temperature ?
_diffrn_special_details
;
The study was carried out at room temperature,in the range 283-303K

;
#These two values have been output from a single CSD field.
_refine_ls_R_factor_gt 0.069
_refine_ls_wR_factor_gt 0.069
_symmetry_cell_setting monoclinic
_symmetry_space_group_name_H-M 'P 21'
_symmetry_Int_Tables_number 4
loop_
_symmetry_equiv_pos_site_id
_symmetry_equiv_pos_as_xyz
1 x,y,z
2 -x,1/2+y,-z
_cell_length_a 4.500(2)
_cell_length_b 20.217(6)
_cell_length_c 18.797(9)
_cell_angle_alpha 90
_cell_angle_beta 95.0(4)
_cell_angle_gamma 90
_cell_formula_units_Z 2
loop_
_atom_type_symbol
_atom_type_radius_bond
C 0.68
Cu 1.52
I 1.39
K 2.02
O 0.68
loop_
_atom_site_label
_atom_site_type_symbol
_atom_site_fract_x
_atom_site_fract_y
_atom_site_fract_z
K1 K -0.1420(26) 0.4420(6) -0.2390(6)
O1 O -0.0841(69) 0.3159(17) -0.1826(17)
O2 O -0.1208(96) 0.408(2) -0.0769(19)
O3 O -0.2968(78) 0.5449(17) -0.1142(19)
O4 O -0.2845(92) 0.6711(23) -0.1635(20)
O5 O -0.347(16) 0.6973(32) -0.3035(33)
O6 O -0.3463(87) 0.6012(22) -0.4033(18)
O7 O -0.1876(94) 0.4618(27) -0.3882(25)
O8 O -0.2618(77) 0.3327(17) -0.3198(16)
C1 C 0.029(11) 0.3051(21) -0.1334(27)
C2 C 0.0332(84) 0.3548(17) -0.0629(16)
C3 C -0.186(11) 0.4479(27) -0.0275(26)
C4 C -0.488(16) 0.4959(46) -0.0765(36)
C5 C -0.208(10) 0.6034(27) -0.0757(25)
C6 C -0.029(16) 0.6334(25) -0.1094(39)
C7 C -0.1372(97) 0.731(2) -0.2096(26)
C8 C -0.3223(96) 0.746(2) -0.2718(24)
C9 C -0.5598(77) 0.6981(19) -0.3890(17)
C10 C -0.5457(91) 0.6594(23) -0.4229(25)
C11 C -0.2389(88) 0.5573(22) -0.4666(20)
C12 C -0.0611(82) 0.5057(20) -0.4372(24)
C13 C -0.266(15) 0.4141(37) -0.4354(35)
C14 C -0.4474(95) 0.3461(20) -0.3871(18)
C15 C -0.363(16) 0.2883(19) -0.2983(26)
C16 C -0.1234(92) 0.2589(20) -0.2342(27)
C17 C 0.2793(95) 0.2478(20) -0.1005(26)
C18 C 0.3946(90) 0.2423(22) -0.0452(20)
C19 C 0.363(16) 0.3027(36) 0.0205(29)
C20 C 0.178(11) 0.3421(31) 0.0161(28)
C21 C -0.696(11) 0.7565(39) -0.3873(31)
C22 C -0.898(13) 0.7513(37) -0.4841(30)
C23 C -0.851(13) 0.7144(29) -0.5145(29)
C24 C -0.656(10) 0.6561(26) -0.4906(22)
I1 I 0.2360(9) 0.09910 -0.3152(2)
I2 I 0.2839(9) -0.0992(2) -0.1868(2)
I3 I -0.2158(10) 0.0721(4) -0.1242(2)
I4 I -0.2772(8) -0.0712(3) -0.3788(2)
Cu1 Cu 0.2619(21) 0.0363(6) -0.1904(5)
Cu2 Cu 0.2468(22) -0.0331(7) -0.3127(5)
Cu3 Cu -0.2646(18) 0.0426(5) -0.2971(7)
I1* I -0.7640(9) 0.09910 -0.3152(2)
I3* I 0.7842(10) 0.0721(4) -0.1242(2)
I4* I 0.7228(8) -0.0712(3) -0.3788(2)
Cu1* Cu -0.7381(21) 0.0363(6) -0.1904(5)
Cu2* Cu -0.7532(22) -0.0331(7) -0.3127(5)
Cu3* Cu 0.7354(18) 0.0426(5) -0.2971(7)
#END
