
#######################################################################
#
#                 Cambridge Crystallographic Data Centre
#                                CCDC
#
#######################################################################
#
# If this CIF has been generated from an entry in the Cambridge
# Structural Database, then it will include bibliographic, chemical,
# crystal, experimental, refinement or atomic coordinate data resulting
# from the CCDC's data processing and validation procedures.
#
#######################################################################

data_CSD_CIF_CUNFID
_audit_creation_date 2020-05-07
_audit_creation_method CSD-ConQuest-V1
_database_code_CSD CUNFID
_database_code_depnum_ccdc_archive 'CCDC 1588029'
_chemical_formula_sum 'C44 H29 N4 Nd1 O13 S4'
_chemical_formula_moiety
;
(C44 H26 N4 Nd1 O12 S4 1-)n,H3 O1 1+
;
_journal_coden_Cambridge 1229
_journal_volume 22
_journal_year 2018
_journal_page_first 325
_journal_name_full 'J.Porphyrins Phthalocyanines '
loop_
_publ_author_name
"Rong-Hua Hu"
"Cai Yi"
"Yao Li"
"Zhuan-Xia Zhang"
"Long-Zhen Lin"
"Wen-Tong Chen"
_chemical_name_systematic
;
catena-[oxonium 
(\m-4,4',4'',4'''-(porphyrin-5,10,15,20-tetrayl)tetrakis(benzene-1-sulfonato))
-neodymium]
;
_cell_volume   2370.673
_exptl_crystal_colour 'purple'
_exptl_crystal_density_diffrn 1.533
_exptl_crystal_description 'needle-like'
_diffrn_ambient_temperature 293
#These two values have been output from a single CSD field.
_refine_ls_R_factor_gt 0.0677
_refine_ls_wR_factor_gt 0.0677
_symmetry_cell_setting tetragonal
_symmetry_space_group_name_H-M 'P 4/m c c'
_symmetry_Int_Tables_number 124
loop_
_symmetry_equiv_pos_site_id
_symmetry_equiv_pos_as_xyz
1 x,y,z
2 -x,-y,z
3 -y,x,z
4 y,-x,z
5 -x,y,1/2-z
6 x,-y,1/2-z
7 y,x,1/2-z
8 -y,-x,1/2-z
9 -x,-y,-z
10 x,y,-z
11 y,-x,-z
12 -y,x,-z
13 x,-y,-1/2+z
14 -x,y,-1/2+z
15 -y,-x,-1/2+z
16 y,x,-1/2+z
_cell_length_a 15.4040(5)
_cell_length_b 15.4040(5)
_cell_length_c 9.9909(12)
_cell_angle_alpha 90
_cell_angle_beta 90
_cell_angle_gamma 90
_cell_formula_units_Z 2
loop_
_atom_type_symbol
_atom_type_radius_bond
C 0.68
H 0.23
N 0.68
Nd 2.01
O 0.68
S 1.02
loop_
_atom_site_label
_atom_site_type_symbol
_atom_site_fract_x
_atom_site_fract_y
_atom_site_fract_z
Nd1 Nd 0.50000 -0.50000 0.25000
S1 S 0.52792(12) -0.31698(11) 0.00000
N1 N 0.1319(4) 0.0314(4) 0.00000
O1 O 0.5323(3) -0.3681(3) 0.1210(4)
O2 O 0.5894(3) -0.2512(3) 0.00000
C1 C 0.1639(5) 0.1135(5) 0.00000
C2 C 0.2550(6) 0.1070(6) 0.00000
H1 H 0.29420 0.15300 0.00000
C3 C 0.2753(6) 0.0200(6) 0.00000
H2 H 0.33100 -0.00340 0.00000
C4 C 0.1990(5) -0.0264(5) 0.00000
C5 C 0.1910(5) -0.1171(5) 0.00000
C6 C 0.2732(5) -0.1680(5) 0.00000
C7 C 0.3120(4) -0.1950(4) -0.1181(7)
H3 H 0.28500 -0.18210 -0.19890
C8 C 0.3878(4) -0.2397(4) -0.1203(6)
H4 H 0.41460 -0.25340 -0.20100
C9 C 0.4244(4) -0.2642(4) 0.00000
O3 O 0.00000 0.00000 0.25000
S1B S 0.31698(12) 0.52792(11) 0.00000
N1B N -0.0314(4) 0.1319(4) 0.00000
O1B O 0.3681(3) 0.5323(3) 0.1210(4)
O2B O 0.2512(3) 0.5894(3) 0.00000
C1B C -0.1135(5) 0.1639(5) 0.00000
C2B C -0.1070(6) 0.2550(6) 0.00000
H1B H -0.15300 0.29420 0.00000
C3B C -0.0200(6) 0.2753(6) 0.00000
H2B H 0.00340 0.33100 0.00000
C4B C 0.0264(5) 0.1990(5) 0.00000
C5B C 0.1171(5) 0.1910(5) 0.00000
C6B C 0.1680(5) 0.2732(5) 0.00000
C7B C 0.1950(4) 0.3120(4) -0.1181(7)
H3B H 0.18210 0.28500 -0.19890
C8B C 0.2397(4) 0.3878(4) -0.1203(6)
H4B H 0.25340 0.41460 -0.20100
C9B C 0.2642(4) 0.4244(4) 0.00000
S1C S -0.31698(12) -0.52792(11) 0.00000
N1C N 0.0314(4) -0.1319(4) 0.00000
O1C O -0.3681(3) -0.5323(3) 0.1210(4)
O2C O -0.2512(3) -0.5894(3) 0.00000
C1C C 0.1135(5) -0.1639(5) 0.00000
C2C C 0.1070(6) -0.2550(6) 0.00000
H1C H 0.15300 -0.29420 0.00000
C3C C 0.0200(6) -0.2753(6) 0.00000
H2C H -0.00340 -0.33100 0.00000
C4C C -0.0264(5) -0.1990(5) 0.00000
C5C C -0.1171(5) -0.1910(5) 0.00000
C6C C -0.1680(5) -0.2732(5) 0.00000
C7C C -0.1950(4) -0.3120(4) -0.1181(7)
H3C H -0.18210 -0.28500 -0.19890
C8C C -0.2397(4) -0.3878(4) -0.1203(6)
H4C H -0.25340 -0.41460 -0.20100
C9C C -0.2642(4) -0.4244(4) 0.00000
O1I O 0.5323(3) -0.3681(3) -0.1210(4)
C7I C 0.3120(4) -0.1950(4) 0.1181(7)
H3I H 0.28500 -0.18210 0.19890
C8I C 0.3878(4) -0.2397(4) 0.1203(6)
H4I H 0.41460 -0.25340 0.20100
O1J O -0.3681(3) -0.5323(3) -0.1210(4)
C7J C -0.1950(4) -0.3120(4) 0.1181(7)
H3J H -0.18210 -0.28500 0.19890
C8J C -0.2397(4) -0.3878(4) 0.1203(6)
H4J H -0.25340 -0.41460 0.20100
O1K O 0.3681(3) 0.5323(3) -0.1210(4)
C7K C 0.1950(4) 0.3120(4) 0.1181(7)
H3K H 0.18210 0.28500 0.19890
C8K C 0.2397(4) 0.3878(4) 0.1203(6)
H4K H 0.25340 0.41460 0.20100
S1A S -0.52792(12) 0.31698(11) 0.00000
N1A N -0.1319(4) -0.0314(4) 0.00000
O1A O -0.5323(3) 0.3681(3) 0.1210(4)
O2A O -0.5894(3) 0.2512(3) 0.00000
C1A C -0.1639(5) -0.1135(5) 0.00000
C2A C -0.2550(6) -0.1070(6) 0.00000
H1A H -0.29420 -0.15300 0.00000
C3A C -0.2753(6) -0.0200(6) 0.00000
H2A H -0.33100 0.00340 0.00000
C4A C -0.1990(5) 0.0264(5) 0.00000
C5A C -0.1910(5) 0.1171(5) 0.00000
C6A C -0.2732(5) 0.1680(5) 0.00000
C7A C -0.3120(4) 0.1950(4) -0.1181(7)
H3A H -0.28500 0.18210 -0.19890
C8A C -0.3878(4) 0.2397(4) -0.1203(6)
H4A H -0.41460 0.25340 -0.20100
C9A C -0.4244(4) 0.2642(4) 0.00000
O1H O -0.5323(3) 0.3681(3) -0.1210(4)
C7H C -0.3120(4) 0.1950(4) 0.1181(7)
H3H H -0.28500 0.18210 0.19890
C8H C -0.3878(4) 0.2397(4) 0.1203(6)
H4H H -0.41460 0.25340 0.20100
Nd1* Nd -0.50000 -0.50000 0.25000
Nd1** Nd -0.50000 0.50000 0.25000
Nd1*** Nd 0.50000 0.50000 0.25000
Nd1H Nd -0.50000 -0.50000 -0.25000
Nd1H* Nd -0.50000 0.50000 -0.25000
Nd1H** Nd 0.50000 -0.50000 -0.25000
Nd1H*** Nd 0.50000 0.50000 -0.25000
O1A* O 0.4677(3) -0.6319(3) 0.1210(4)
O1B* O 0.3681(3) -0.4677(3) 0.1210(4)
O1C* O 0.6319(3) -0.5323(3) 0.1210(4)
O1D O 0.4677(3) -0.3681(3) 0.3790(4)
O1E O 0.5323(3) -0.6319(3) 0.3790(4)
O1F O 0.6319(3) -0.4677(3) 0.3790(4)
O1G O 0.3681(3) -0.5323(3) 0.3790(4)
#END
