
#######################################################################
#
#                 Cambridge Crystallographic Data Centre
#                                CCDC
#
#######################################################################
#
# If this CIF has been generated from an entry in the Cambridge
# Structural Database, then it will include bibliographic, chemical,
# crystal, experimental, refinement or atomic coordinate data resulting
# from the CCDC's data processing and validation procedures.
#
#######################################################################

data_CSD_CIF_CUNQOT
_audit_creation_date 2015-07-13
_audit_creation_method CSD-ConQuest-V1
_database_code_CSD CUNQOT
_database_code_depnum_ccdc_archive 'CCDC 1062252'
_chemical_formula_sum 'C6 H20 Mn2 N2 O14 P2'
_chemical_formula_moiety
;
(C2 H6 Mn2 O14 P2 2-)n,n(C4 H14 N2 2+)
;
_journal_coden_Cambridge 222
_journal_volume 44
_journal_year 2015
_journal_page_first 13485
_journal_name_full 'Dalton Trans. '
loop_
_publ_author_name
"Lindong Luan"
"Meng Yang"
"Yixuan Bian"
"Zhien Lin"
"Hui Huang"
_chemical_name_systematic
;
catena-(Butane-1,4-diammonium bis(\m~3~-hydrogen 
phosphato)-(\m~2~-oxalato)-diaqua-di-manganese)
;
_cell_volume    829.695
_exptl_crystal_colour 'light pink'
_exptl_crystal_density_diffrn 2.066
_exptl_crystal_description 'block'
_diffrn_ambient_temperature 293
#These two values have been output from a single CSD field.
_refine_ls_R_factor_gt 0.0436
_refine_ls_wR_factor_gt 0.0436
_symmetry_cell_setting monoclinic
_symmetry_space_group_name_H-M 'P 21/n'
_symmetry_Int_Tables_number 14
loop_
_symmetry_equiv_pos_site_id
_symmetry_equiv_pos_as_xyz
1 x,y,z
2 1/2-x,1/2+y,1/2-z
3 -x,-y,-z
4 -1/2+x,-1/2-y,-1/2+z
_cell_length_a 5.56671(11)
_cell_length_b 15.6297(3)
_cell_length_c 9.54079(18)
_cell_angle_alpha 90
_cell_angle_beta 91.8039(17)
_cell_angle_gamma 90
_cell_formula_units_Z 2
loop_
_atom_type_symbol
_atom_type_radius_bond
C 0.68
H 0.23
Mn 1.61
N 0.68
O 0.68
P 1.05
loop_
_atom_site_label
_atom_site_type_symbol
_atom_site_fract_x
_atom_site_fract_y
_atom_site_fract_z
Mn1 Mn 0.69614(8) 0.66845(3) 0.56126(4)
P1 P 0.18503(13) 0.69831(5) 0.35375(7)
O1 O 0.4362(4) 0.72178(15) 0.4062(2)
O2 O -0.0102(4) 0.72222(14) 0.4528(2)
O3 O 0.1356(4) 0.73450(15) 0.2078(2)
O4 O 0.1828(4) 0.59687(14) 0.3359(2)
H1 H 0.05450 0.57780 0.36200
O5 O 0.7439(4) 0.55217(14) 0.4287(2)
O6 O 0.5761(4) 0.42681(14) 0.3702(2)
O7 O 0.9774(4) 0.62553(16) 0.7303(2)
H2 H 1.01760 0.66800 0.78790
H3 H 1.11050 0.60750 0.69140
C1 C 0.5926(5) 0.49375(18) 0.4416(3)
N1 N 0.3033(6) 0.33541(18) 0.8565(3)
H4 H 0.37910 0.34280 0.77660
H5 H 0.15950 0.31240 0.83820
H6 H 0.38910 0.30070 0.91250
C2 C 0.2738(7) 0.4189(2) 0.9263(4)
H7 H 0.18210 0.41130 1.01020
H8 H 0.18530 0.45740 0.86400
C3 C 0.5150(7) 0.4574(2) 0.9651(4)
H9 H 0.60300 0.41910 1.02800
H10 H 0.60730 0.46440 0.88130
O5B O 0.2561(4) 0.44783(14) 0.5713(2)
O6B O 0.4239(4) 0.57319(14) 0.6298(2)
C1B C 0.4074(5) 0.50625(18) 0.5584(3)
Mn1B Mn 0.30386(8) 0.33155(3) 0.43874(4)
P1B P 0.81497(13) 0.30169(5) 0.64625(7)
O1B O 0.5638(4) 0.27822(15) 0.5938(2)
O2B O 1.0102(4) 0.27778(14) 0.5472(2)
O3B O 0.8644(4) 0.26550(15) 0.7922(2)
O4B O 0.8172(4) 0.40313(14) 0.6641(2)
H1B H 0.94550 0.42220 0.63800
O7B O 0.0226(4) 0.37447(16) 0.2697(2)
H2B H -0.01760 0.33200 0.21210
H3B H -0.11050 0.39250 0.30860
Mn1* Mn -0.30386(8) 0.66845(3) 0.56126(4)
Mn1A Mn 0.80386(8) 0.16845(3) 0.93874(4)
Mn1B* Mn 1.30386(8) 0.33155(3) 0.43874(4)
Mn1C Mn 0.19614(8) 0.83155(3) 0.06126(4)
O2* O 0.9898(4) 0.72222(14) 0.4528(2)
O2B* O 0.0102(4) 0.27778(14) 0.5472(2)
O3A O 0.3644(4) 0.23450(15) 0.2922(2)
O3C O 0.6356(4) 0.76550(15) 0.7078(2)
N1B N 0.6967(6) 0.66459(18) 1.1435(3)
H4B H 0.62090 0.65720 1.22340
H5B H 0.84050 0.68760 1.16180
H6B H 0.61090 0.69930 1.08750
C2B C 0.7262(7) 0.5811(2) 1.0737(4)
H7B H 0.81790 0.58870 0.98980
H8B H 0.81470 0.54260 1.13600
C3B C 0.4850(7) 0.5426(2) 1.0349(4)
H9B H 0.39700 0.58090 0.97200
H10B H 0.39270 0.53560 1.11870
#END
