
#######################################################################
#
#                 Cambridge Crystallographic Data Centre
#                                CCDC
#
#######################################################################
#
# If this CIF has been generated from an entry in the Cambridge
# Structural Database, then it will include bibliographic, chemical,
# crystal, experimental, refinement or atomic coordinate data resulting
# from the CCDC's data processing and validation procedures.
#
#######################################################################

data_CSD_CIF_CUNQEJ
_audit_creation_date 2015-07-13
_audit_creation_method CSD-ConQuest-V1
_database_code_CSD CUNQEJ
_database_code_depnum_ccdc_archive 'CCDC 1062250'
_chemical_formula_sum 'C8 H18 Co2 N2 O16 P2'
_chemical_formula_moiety
;
(C4 H4 Co2 O16 P2 2-)n,n(C4 H14 N2 2+)
;
_journal_coden_Cambridge 222
_journal_volume 44
_journal_year 2015
_journal_page_first 13485
_journal_name_full 'Dalton Trans. '
loop_
_publ_author_name
"Lindong Luan"
"Meng Yang"
"Yixuan Bian"
"Zhien Lin"
"Hui Huang"
_chemical_name_systematic
;
catena-(Butane-1,4-diammonium bis(\m~2~-dihydrogen 
phosphato)-bis(\m~2~-oxalato)-di-cobalt)
;
_cell_volume   1775.295
_exptl_crystal_colour 'reddish violet'
_exptl_crystal_density_diffrn 2.163
_exptl_crystal_description 'block'
_diffrn_ambient_temperature 293
_refine_special_details
;
C5' and C5 disordered over two sites with occupancies 0.605:0.395.

;
#These two values have been output from a single CSD field.
_refine_ls_R_factor_gt 0.032
_refine_ls_wR_factor_gt 0.032
_symmetry_cell_setting orthorhombic
_symmetry_space_group_name_H-M 'P c c n'
_symmetry_Int_Tables_number 56
loop_
_symmetry_equiv_pos_site_id
_symmetry_equiv_pos_as_xyz
1 x,y,z
2 1/2-x,1/2-y,z
3 -x,1/2+y,1/2-z
4 1/2+x,-y,1/2-z
5 -x,-y,-z
6 -1/2+x,-1/2+y,-z
7 x,-1/2-y,-1/2+z
8 -1/2-x,y,-1/2+z
_cell_length_a 16.3686(9)
_cell_length_b 8.2405(5)
_cell_length_c 13.1615(8)
_cell_angle_alpha 90
_cell_angle_beta 90
_cell_angle_gamma 90
_cell_formula_units_Z 4
loop_
_atom_type_symbol
_atom_type_radius_bond
C 0.68
H 0.23
Co 1.26
N 0.68
O 0.68
P 1.05
loop_
_atom_site_label
_atom_site_type_symbol
_atom_site_fract_x
_atom_site_fract_y
_atom_site_fract_z
Co1 Co 0.41738(2) 0.20341(5) 0.63064(3)
P1 P 0.43389(4) 0.56995(9) 0.72291(6)
O1 O 0.43234(14) 0.4507(3) 0.63740(16)
O2 O 0.37262(14) 0.7108(3) 0.7025(2)
H1 H 0.39430 0.77920 0.66620
O3 O 0.39795(13) 0.4911(3) 0.82289(16)
H2 H 0.37210 0.40920 0.80810
O4 O 0.51685(13) 0.6376(3) 0.74449(17)
O5 O 0.42280(12) -0.0456(2) 0.58671(16)
O6 O 0.49371(13) -0.2094(2) 0.48428(16)
O7 O 0.31739(11) 0.2286(3) 0.53163(15)
O8 O 0.31673(11) 0.2226(3) 0.73561(15)
C1 C 0.47618(16) -0.0735(3) 0.5206(2)
C2 C 0.25000 0.25000 0.5746(3)
C3 C 0.25000 0.25000 0.6922(3)
N1 N 0.38202(18) 0.5168(4) 0.4168(2)
H3 H 0.39320 0.43230 0.37710
H4 H 0.41700 0.59680 0.40360
H5 H 0.38660 0.48750 0.48160
C4 C 0.2977(3) 0.5730(6) 0.3970(3)
H6 H 0.26610 0.47900 0.37640
H7 H 0.29990 0.64540 0.33890
C5 C 0.2494(5) 0.6595(7) 0.4802(5)
H8 H 0.19290 0.62480 0.47530
H9 H 0.26990 0.62260 0.54540
H10? H 0.29090 0.60830 0.32720
H11? H 0.25790 0.48920 0.41220
C6? C 0.2915(7) 0.7101(11) 0.4686(8)
H12? H 0.33240 0.79060 0.45110
H13? H 0.30350 0.67150 0.53660
O5D O 0.57720(12) 0.0456(2) 0.41329(16)
O6D O 0.50629(13) 0.2094(2) 0.51572(16)
C1D C 0.52382(16) 0.0735(3) 0.4794(2)
O7A O 0.18261(11) 0.2714(3) 0.53163(15)
O8A O 0.18327(11) 0.2774(3) 0.73561(15)
Co1A Co 0.08262(2) 0.29659(5) 0.63064(3)
P1A P 0.06611(4) -0.06995(9) 0.72291(6)
O1A O 0.06766(14) 0.0493(3) 0.63740(16)
O2A O 0.12738(14) -0.2108(3) 0.7025(2)
H1A H 0.10570 -0.27920 0.66620
O3A O 0.10205(13) 0.0089(3) 0.82289(16)
H2A H 0.12790 0.09080 0.80810
O4A O -0.01685(13) -0.1376(3) 0.74449(17)
Co1B Co 0.58262(2) 0.70341(5) 0.86936(3)
Co1C Co -0.08262(2) -0.20341(5) 0.86936(3)
Co1D Co 0.58262(2) -0.20341(5) 0.36936(3)
O4B O 0.48315(13) 0.1376(3) 0.75551(17)
O4C O 0.01685(13) 0.3624(3) 0.75551(17)
O5A O 0.07720(12) 0.5456(2) 0.58671(16)
O6E O -0.00629(13) 0.2906(2) 0.51572(16)
N1A N 0.11798(18) 0.9832(4) 0.4168(2)
H3A H 0.10680 1.06770 0.37710
H4A H 0.08300 0.90320 0.40360
H5A H 0.11340 1.01250 0.48160
C4A C 0.2023(3) 0.9270(6) 0.3970(3)
H6A H 0.23390 1.02100 0.37640
H7A H 0.20010 0.85460 0.33890
C5A C 0.2506(5) 0.8405(7) 0.4802(5)
H8A H 0.30710 0.87520 0.47530
H9A H 0.23010 0.87740 0.54540
#END
