
#######################################################################
#
#                 Cambridge Crystallographic Data Centre
#                                CCDC
#
#######################################################################
#
# If this CIF has been generated from an entry in the Cambridge
# Structural Database, then it will include bibliographic, chemical,
# crystal, experimental, refinement or atomic coordinate data resulting
# from the CCDC's data processing and validation procedures.
#
#######################################################################

data_CSD_CIF_CUNQUZ
_audit_creation_date 2015-07-13
_audit_creation_method CSD-ConQuest-V1
_database_code_CSD CUNQUZ
_database_code_depnum_ccdc_archive 'CCDC 1062253'
_chemical_formula_sum 'C6 H20 Cd2 N2 O14 P2'
_chemical_formula_moiety
;
(C2 H6 Cd2 O14 P2 2-)n,n(C4 H14 N2 2+)
;
_journal_coden_Cambridge 222
_journal_volume 44
_journal_year 2015
_journal_page_first 13485
_journal_name_full 'Dalton Trans. '
loop_
_publ_author_name
"Lindong Luan"
"Meng Yang"
"Yixuan Bian"
"Zhien Lin"
"Hui Huang"
_chemical_name_systematic
;
catena-(Butane-1,4-diammonium bis(\m~3~-hydrogen 
phosphato)-(\m~2~-oxalato)-diaqua-di-cadmium)
;
_cell_volume    863.750
_exptl_crystal_colour 'colorless'
_exptl_crystal_density_diffrn 2.426
_exptl_crystal_description 'block'
_diffrn_ambient_temperature 293
#These two values have been output from a single CSD field.
_refine_ls_R_factor_gt 0.0395
_refine_ls_wR_factor_gt 0.0395
_symmetry_cell_setting monoclinic
_symmetry_space_group_name_H-M 'P 21/n'
_symmetry_Int_Tables_number 14
loop_
_symmetry_equiv_pos_site_id
_symmetry_equiv_pos_as_xyz
1 x,y,z
2 1/2-x,1/2+y,1/2-z
3 -x,-y,-z
4 -1/2+x,-1/2-y,-1/2+z
_cell_length_a 5.63389(10)
_cell_length_b 15.9428(2)
_cell_length_c 9.61828(15)
_cell_angle_alpha 90
_cell_angle_beta 91.1156(15)
_cell_angle_gamma 90
_cell_formula_units_Z 2
loop_
_atom_type_symbol
_atom_type_radius_bond
C 0.68
H 0.23
Cd 1.44
N 0.68
O 0.68
P 1.05
loop_
_atom_site_label
_atom_site_type_symbol
_atom_site_fract_x
_atom_site_fract_y
_atom_site_fract_z
Cd1 Cd 0.29808(5) 0.33175(2) 0.93741(3)
P1 P 0.3075(2) 0.19603(7) 0.65010(11)
O1 O 0.3638(7) 0.2262(2) 0.7973(3)
O2 O 0.4921(6) 0.2244(2) 0.5484(4)
O3 O 0.0562(6) 0.2196(2) 0.6074(3)
O4 O 0.3131(6) 0.0963(2) 0.6579(3)
H1 H 0.44800 0.07960 0.64340
O5 O 0.5759(6) 0.4288(2) 0.8684(3)
O6 O 0.7457(7) 0.5497(2) 0.9280(3)
O7 O 0.0141(7) 0.3726(2) 0.7616(4)
H2 H -0.11560 0.38640 0.79930
H3 H -0.01040 0.33170 0.70660
C1 C 0.5924(8) 0.4939(3) 0.9411(4)
C2 C 0.2731(10) 0.4214(4) 0.4282(5)
H4 H 0.17900 0.41630 0.51110
H5 H 0.19080 0.45920 0.36450
C3 C 0.5116(10) 0.4575(3) 0.4665(6)
H6 H 0.60590 0.46250 0.38360
H7 H 0.59380 0.41980 0.53030
N1 N 0.2968(9) 0.3382(2) 0.3623(5)
H8 H 0.37880 0.34310 0.28460
H9 H 0.15330 0.31770 0.34210
H10 H 0.37260 0.30360 0.42060
O5B O 0.4241(6) 0.5712(2) 1.1316(3)
O6B O 0.2543(7) 0.4503(2) 1.0720(3)
C1B C 0.4076(8) 0.5061(3) 1.0589(4)
Cd1B Cd 0.70192(5) 0.66825(2) 1.06259(3)
P1B P 0.6925(2) 0.80397(7) 1.34990(11)
O1B O 0.6362(7) 0.7738(2) 1.2027(3)
O2B O 0.5079(6) 0.7756(2) 1.4516(4)
O3B O 0.9438(6) 0.7804(2) 1.3926(3)
O4B O 0.6869(6) 0.9037(2) 1.3421(3)
H1B H 0.55200 0.92040 1.35660
O7B O 0.9859(7) 0.6274(2) 1.2384(4)
H2B H 1.11560 0.61360 1.20070
H3B H 1.01040 0.66830 1.29340
Cd1A Cd 0.20192(5) 0.83175(2) 1.56259(3)
Cd1A* Cd 1.20192(5) 0.83175(2) 1.56259(3)
Cd1C Cd -0.20192(5) 0.16825(2) 0.43741(3)
Cd1C* Cd 0.79808(5) 0.16825(2) 0.43741(3)
O2A O 1.0079(6) 0.7244(2) 0.9516(4)
O2C O -0.0079(6) 0.2756(2) 1.0484(4)
O3A O 0.4438(6) 0.7196(2) 0.8926(3)
O3C O 0.5562(6) 0.2804(2) 1.1074(3)
C2B C 0.7269(10) 0.5786(4) 0.5718(5)
H4B H 0.82100 0.58370 0.48890
H5B H 0.80920 0.54080 0.63550
C3B C 0.4884(10) 0.5425(3) 0.5335(6)
H6B H 0.39410 0.53750 0.61640
H7B H 0.40620 0.58020 0.46970
N1B N 0.7032(9) 0.6618(2) 0.6377(5)
H8B H 0.62120 0.65690 0.71540
H9B H 0.84670 0.68230 0.65790
H10B H 0.62740 0.69640 0.57940
#END
