
#######################################################################
#
#                 Cambridge Crystallographic Data Centre
#                                CCDC
#
#######################################################################
#
# If this CIF has been generated from an entry in the Cambridge
# Structural Database, then it will include bibliographic, chemical,
# crystal, experimental, refinement or atomic coordinate data resulting
# from the CCDC's data processing and validation procedures.
#
#######################################################################

data_CSD_CIF_CUPBEW
_audit_creation_date 2015-07-13
_audit_creation_method CSD-ConQuest-V1
_database_code_CSD CUPBEW
_database_code_depnum_ccdc_archive 'CCDC 1062255'
_chemical_formula_sum 'C6 H20 In2 N2 O20 P4'
_chemical_formula_moiety
;
(C2 H6 In2 O20 P4 2-)n,n(C4 H14 N2 2+)
;
_journal_coden_Cambridge 222
_journal_volume 44
_journal_year 2015
_journal_page_first 13485
_journal_name_full 'Dalton Trans. '
loop_
_publ_author_name
"Lindong Luan"
"Meng Yang"
"Yixuan Bian"
"Zhien Lin"
"Hui Huang"
_chemical_name_systematic
;
catena-[butane-1,4-diaminium bis(\m-dihydrogen phosphato)-bis(\m-hydrogen 
phosphato)-(\m-oxalato)-di-indium]
;
_cell_volume    512.647
_exptl_crystal_colour 'colorless'
_exptl_crystal_density_diffrn 2.571
_exptl_crystal_description 'block'
_diffrn_ambient_temperature 293
#These two values have been output from a single CSD field.
_refine_ls_R_factor_gt 0.0232
_refine_ls_wR_factor_gt 0.0232
_symmetry_cell_setting triclinic
_symmetry_space_group_name_H-M 'P -1'
_symmetry_Int_Tables_number 2
loop_
_symmetry_equiv_pos_site_id
_symmetry_equiv_pos_as_xyz
1 x,y,z
2 -x,-y,-z
_cell_length_a 7.6595(6)
_cell_length_b 8.4550(4)
_cell_length_c 9.6469(6)
_cell_angle_alpha 91.768(5)
_cell_angle_beta 111.205(6)
_cell_angle_gamma 115.495(6)
_cell_formula_units_Z 1
loop_
_atom_type_symbol
_atom_type_radius_bond
C 0.68
H 0.23
In 1.42
N 0.68
O 0.68
P 1.05
loop_
_atom_site_label
_atom_site_type_symbol
_atom_site_fract_x
_atom_site_fract_y
_atom_site_fract_z
In1 In 0.31418(3) 0.52882(3) 0.70205(2)
P1 P 0.20679(12) 0.76453(10) 0.43817(9)
P2 P 0.38903(14) 0.64715(11) 1.05605(9)
O1 O 0.2246(4) 0.7089(3) 0.5899(2)
O2 O 0.3867(3) 0.7792(3) 0.3983(2)
O3 O -0.0101(3) 0.6432(3) 0.3086(2)
O4 O 0.2195(4) 0.9567(3) 0.4588(3)
H1 H 0.34420 1.03390 0.50370
O5 O 0.4072(4) 0.6936(3) 0.9111(3)
O6 O 0.5800(4) 0.6404(3) 1.1701(3)
O7 O 0.3618(5) 0.7948(4) 1.1314(3)
H2 H 0.36870 0.78120 1.21670
O8 O 0.1866(4) 0.4619(3) 1.0207(3)
H3 H 0.11000 0.43210 0.92910
O9 O 0.6126(3) 0.6529(3) 0.6727(2)
O10 O 0.7536(3) 0.6398(3) 0.5106(3)
C1 C 0.6049(5) 0.5838(4) 0.5529(3)
C2 C 1.1087(6) 0.9215(5) 0.8772(4)
H4 H 1.25030 0.95960 0.95530
H5 H 1.02460 0.79320 0.86520
C3 C 1.0089(6) 1.0192(5) 0.9257(4)
H6 H 0.86840 0.98240 0.84650
H7 H 1.09420 1.14750 0.93850
N1 N 1.1217(5) 0.9595(4) 0.7303(3)
H8 H 0.99220 0.92790 0.65960
H9 H 1.17520 0.89690 0.70060
H10 H 1.20540 1.07630 0.74300
O9A O 0.3874(3) 0.3471(3) 0.3273(2)
O10A O 0.2464(3) 0.3602(3) 0.4894(3)
C1A C 0.3951(5) 0.4162(4) 0.4471(3)
In1A In -0.31418(3) 0.47118(3) 0.29795(2)
P1A P -0.20679(12) 0.23547(10) 0.56183(9)
P2A P -0.38903(14) 0.35285(11) -0.05605(9)
O1A O -0.2246(4) 0.2911(3) 0.4101(2)
O2A O -0.3867(3) 0.2208(3) 0.6017(2)
O3A O 0.0101(3) 0.3568(3) 0.6914(2)
O4A O -0.2195(4) 0.0433(3) 0.5412(3)
H1A H -0.34420 -0.03390 0.49630
O5A O -0.4072(4) 0.3064(3) 0.0889(3)
O6A O -0.5800(4) 0.3596(3) -0.1701(3)
O7A O -0.3618(5) 0.2052(4) -0.1314(3)
H2A H -0.36870 0.21880 -0.21670
O8A O -0.1866(4) 0.5381(3) -0.0207(3)
H3A H -0.11000 0.56790 0.07090
In1* In -0.68582(3) 0.52882(3) -0.29795(2)
In1A* In 0.68582(3) 0.47118(3) 0.29795(2)
In1A** In 0.68582(3) 0.47118(3) 1.29795(2)
O6* O -0.4200(4) 0.6404(3) 0.1701(3)
O6A* O 0.4200(4) 0.3596(3) 0.8299(3)
O9A* O -0.6126(3) 0.3471(3) 0.3273(2)
O10* O -0.2464(3) 0.6398(3) 0.5106(3)
C2A C 0.8913(6) 1.0785(5) 1.1228(4)
H4A H 0.74970 1.04040 1.04470
H5A H 0.97540 1.20680 1.13480
C3A C 0.9911(6) 0.9808(5) 1.0743(4)
H6A H 1.13160 1.01760 1.15350
H7A H 0.90580 0.85250 1.06150
N1A N 0.8783(5) 1.0405(4) 1.2697(3)
H8A H 1.00780 1.07210 1.34040
H9A H 0.82480 1.10310 1.29940
H10A H 0.79460 0.92370 1.25700
#END
