
#######################################################################
#
#                 Cambridge Crystallographic Data Centre
#                                CCDC
#
#######################################################################
#
# If this CIF has been generated from an entry in the Cambridge
# Structural Database, then it will include bibliographic, chemical,
# crystal, experimental, refinement or atomic coordinate data resulting
# from the CCDC's data processing and validation procedures.
#
#######################################################################

data_CSD_CIF_CUPYAO
_audit_creation_date 2010-07-30
_audit_creation_method CSD-ConQuest-V1
_database_code_CSD CUPYAO
_database_code_depnum_ccdc_archive 'CCDC 689886; not CCDC 609886 as published'
_chemical_formula_sum 'C18 H33.5 Mn1 N4 O15.75'
_chemical_formula_moiety
;
(C14 H6 Mn1 N2 O8 2-)n,n(C4 H12 N2 2+),7.75n(H2 O1)
;
_journal_coden_Cambridge 908
_journal_volume 6
_journal_year 2009
_journal_page_first 620
_journal_name_full 'J.Iran.Chem.Soc. '
loop_
_publ_author_name
"H.Aghabozorg"
"S.Daneshvar"
"E.Motyeian"
"F.Manteghi"
"R.Khadivi"
"M.Ghadermazi"
"A.Shokrollahi"
"M.Ghaedi"
"S.Derki"
"M.Shamsipur"
_chemical_name_systematic
;
catena-(Piperazinedi-ium 
bis(\m~2~-pyridine-2,3-dicarboxylato-N,O,O')-manganese(ii) hydrate)
;
_chemical_melting_point 525.15
_cell_volume   5188.034
_exptl_crystal_colour 'light red'
_exptl_crystal_density_diffrn 1.569
_exptl_crystal_description 'prism'
_diffrn_ambient_temperature 100
_refine_special_details
;
Two of the water molecules are disordered.

;
#These two values have been output from a single CSD field.
_refine_ls_R_factor_gt 0.0547
_refine_ls_wR_factor_gt 0.0547
_symmetry_cell_setting monoclinic
_symmetry_space_group_name_H-M 'P 21/c'
_symmetry_Int_Tables_number 14
loop_
_symmetry_equiv_pos_site_id
_symmetry_equiv_pos_as_xyz
1 x,y,z
2 -x,1/2+y,1/2-z
3 -x,-y,-z
4 x,-1/2-y,-1/2+z
_cell_length_a 20.1078(19)
_cell_length_b 19.9095(18)
_cell_length_c 12.9967(12)
_cell_angle_alpha 90
_cell_angle_beta 94.354(2)
_cell_angle_gamma 90
_cell_formula_units_Z 8
loop_
_atom_type_symbol
_atom_type_radius_bond
C 0.68
H 0.23
Mn 1.61
N 0.68
O 0.68
loop_
_atom_site_label
_atom_site_type_symbol
_atom_site_fract_x
_atom_site_fract_y
_atom_site_fract_z
Mn1 Mn 0.48714(3) 0.26840(3) 0.24009(5)
O1 O 0.57398(13) 0.25396(14) 0.3453(2)
O2 O 0.61535(13) 0.20898(14) 0.4933(2)
O3 O 0.58854(13) 0.07099(14) 0.5904(2)
O4 O 0.54886(13) 0.15503(14) 0.6792(2)
O5 O 0.40009(13) 0.25428(14) 0.1321(2)
O6 O 0.35999(13) 0.20601(15) -0.0151(2)
O7 O 0.38709(14) 0.07139(14) -0.1048(2)
O8 O 0.42691(14) 0.15275(14) -0.2000(2)
N1 N 0.45835(16) 0.18970(16) 0.3556(3)
N2 N 0.51660(16) 0.19021(17) 0.1255(3)
C1 C 0.50630(19) 0.1777(2) 0.4315(3)
C2 C 0.49755(19) 0.1331(2) 0.5112(3)
C3 C 0.4374(2) 0.0975(2) 0.5099(4)
H1 H 0.43030 0.06550 0.56220
C4 C 0.3888(2) 0.1094(2) 0.4318(3)
H2 H 0.34740 0.08630 0.43000
C5 C 0.40091(19) 0.1559(2) 0.3556(3)
H3 H 0.36720 0.16390 0.30170
C6 C 0.57023(19) 0.2166(2) 0.4236(3)
C7 C 0.54995(19) 0.1193(2) 0.5991(3)
C8 C 0.46965(19) 0.1783(2) 0.0481(3)
C9 C 0.4792(2) 0.1335(2) -0.0311(4)
C10 C 0.5396(2) 0.0997(2) -0.0300(4)
H4 H 0.54770 0.06860 -0.08300
C11 C 0.5875(2) 0.1120(2) 0.0494(4)
H5 H 0.62930 0.08950 0.05150
C12 C 0.5745(2) 0.1572(2) 0.1258(4)
H6 H 0.60770 0.16500 0.18040
C13 C 0.4045(2) 0.2157(2) 0.0551(3)
C14 C 0.4262(2) 0.1189(2) -0.1170(4)
Mn2 Mn 0.00435(3) 0.48289(3) 0.24779(5)
O9 O 0.09085(13) 0.50074(14) 0.3555(2)
O10 O 0.12742(13) 0.54506(15) 0.5075(2)
O11 O 0.09402(13) 0.68077(14) 0.6034(2)
O12 O 0.05571(13) 0.59605(14) 0.6926(2)
O13 O -0.08463(13) 0.49541(14) 0.1455(2)
O14 O -0.13237(15) 0.54611(17) 0.0060(3)
O15 O -0.10646(14) 0.67793(15) -0.0992(2)
O16 O -0.06948(14) 0.59236(14) -0.1885(2)
N3 N -0.02769(15) 0.56037(17) 0.3631(3)
N4 N 0.03007(15) 0.56068(17) 0.1293(3)
C15 C 0.01816(19) 0.5725(2) 0.4421(3)
C16 C 0.00619(19) 0.6155(2) 0.5222(3)
C17 C -0.0552(2) 0.6490(2) 0.5183(4)
H7 H -0.06490 0.67940 0.57140
C18 C -0.1013(2) 0.6371(2) 0.4366(4)
H8 H -0.14290 0.66000 0.43180
C19 C -0.08621(19) 0.5917(2) 0.3620(4)
H9 H -0.11900 0.58240 0.30730
C20 C 0.08421(19) 0.5365(2) 0.4358(3)
C21 C 0.05688(19) 0.6313(2) 0.6118(3)
C22 C -0.01989(19) 0.5728(2) 0.0549(3)
C23 C -0.01299(19) 0.6168(2) -0.0258(3)
C24 C 0.0473(2) 0.6502(2) -0.0301(3)
H10 H 0.05350 0.68110 -0.08430
C25 C 0.0980(2) 0.6383(2) 0.0445(4)
H11 H 0.13970 0.66050 0.04250
C26 C 0.0872(2) 0.5933(2) 0.1225(4)
H12 H 0.12250 0.58530 0.17390
C27 C -0.08412(19) 0.5348(2) 0.0705(4)
C28 C -0.0685(2) 0.6296(2) -0.1089(4)
N5 N 0.81228(15) 0.10759(17) 0.7234(3)
H13 H 0.80340 0.08400 0.66310
H14 H 0.85750 0.10590 0.74030
N6 N 0.68074(16) 0.15111(17) 0.7662(3)
H15 H 0.63550 0.15270 0.74950
H16 H 0.68970 0.17440 0.82680
C29 C 0.70213(19) 0.0799(2) 0.7810(4)
H17 H 0.68980 0.05400 0.71730
H18 H 0.67900 0.05960 0.83800
C30 C 0.77702(19) 0.0764(2) 0.8061(3)
H19 H 0.78890 0.10000 0.87200
H20 H 0.79100 0.02890 0.81440
C31 C 0.7910(2) 0.1795(2) 0.7074(3)
H21 H 0.81400 0.19920 0.64980
H22 H 0.80360 0.20580 0.77050
C32 C 0.71610(19) 0.1831(2) 0.6830(4)
H23 H 0.70220 0.23060 0.67560
H24 H 0.70400 0.16000 0.61680
N7 N 0.19381(16) 0.41780(17) 0.2887(3)
H25 H 0.17980 0.44920 0.33420
H26 H 0.15680 0.40150 0.25080
N8 N 0.29887(16) 0.34258(17) 0.2032(3)
H27 H 0.31180 0.31080 0.15730
H28 H 0.33650 0.35830 0.24010
C33 C 0.2393(2) 0.4506(2) 0.2175(3)
H29 H 0.27730 0.47170 0.25840
H30 H 0.21490 0.48630 0.17730
C34 C 0.2649(2) 0.3994(2) 0.1451(3)
H31 H 0.22720 0.38170 0.09950
H32 H 0.29670 0.42120 0.10100
C35 C 0.2536(2) 0.3110(2) 0.2752(3)
H33 H 0.27800 0.27540 0.31560
H34 H 0.21550 0.28970 0.23470
C36 C 0.2278(2) 0.3618(2) 0.3474(3)
H35 H 0.19610 0.33990 0.39140
H36 H 0.26540 0.37980 0.39280
O17 O -0.03645(18) 0.22201(18) 0.2623(3)
H37 H -0.06950 0.22480 0.21770
H38 H -0.05160 0.24880 0.30580
O18 O -0.24200(15) 0.14413(15) 0.1341(3)
H39 H -0.24770 0.10270 0.12030
H40 H -0.23920 0.14230 0.19960
O19 O -0.25877(16) 0.15756(18) 0.3411(3)
H41 H -0.25700 0.19380 0.37570
H42 H -0.28040 0.13120 0.37770
O20 O 0.09467(18) 0.24590(17) 0.2772(3)
H43 H 0.10670 0.26450 0.22270
H44 H 0.05330 0.23730 0.26610
O21 O -0.41398(16) 0.01509(17) 0.2647(3)
H45 H -0.45640 0.01400 0.26160
H46 H -0.40430 -0.00750 0.21240
O22 O -0.33668(14) 0.05806(15) 0.4237(2)
H47 H -0.36360 0.04840 0.37230
H48 H -0.35960 0.07050 0.47260
O23 O -0.12431(17) 0.20890(16) 0.0938(3)
H49 H -0.15830 0.18410 0.08010
H50 H -0.11260 0.20110 0.03340
O24 O -0.54939(15) 0.01356(16) 0.2411(3)
H51 H -0.57290 -0.00390 0.28570
H52 H -0.58000 0.02900 0.19890
O25 O -0.24607(14) 0.01519(15) 0.0556(2)
H53 H -0.27140 -0.00050 0.00610
H54 H -0.20740 0.02160 0.03510
O26 O 0.24612(15) 0.24608(15) 0.0532(3)
H55 H 0.22220 0.26620 0.00610
H56 H 0.28450 0.23320 0.03820
O27 O -0.65294(17) 0.04339(17) 0.0868(3)
H57 H -0.68080 0.07220 0.10860
H58 H -0.63380 0.05700 0.03450
O28 O -0.23376(15) 0.02553(17) 0.5647(3)
H59 H -0.26020 0.03750 0.51390
H60 H -0.20710 -0.00620 0.55280
O29 O -0.28059(14) 0.28115(15) 0.4485(2)
H61 H -0.26920 0.30310 0.50310
H62 H -0.31690 0.26230 0.46180
O30 O 0.1591(3) 0.1944(3) 0.4220(5)
O31 O 0.2289(3) 0.0958(4) 0.3362(6)
O32 O 0.2609(3) 0.1379(3) 0.1921(6)
O33? O 0.1945(3) 0.1648(3) 0.3773(5)
O34? O 0.2689(4) 0.1234(5) 0.1489(8)
Mn1C Mn 0.48714(3) 0.23160(3) 0.74009(5)
Mn1C* Mn 0.48714(3) 0.23160(3) -0.25991(5)
O4C O 0.54886(13) 0.34497(14) 0.1792(2)
O8C O 0.42691(14) 0.34725(14) 0.3000(2)
Mn2B Mn -0.00435(3) 0.51711(3) 0.75221(5)
Mn2B* Mn -0.00435(3) 0.51711(3) -0.24779(5)
O12B O -0.05571(13) 0.40395(14) 0.3074(2)
O16B O 0.06948(14) 0.40764(14) 0.1885(2)
#END
