
#######################################################################
#
#                 Cambridge Crystallographic Data Centre
#                                CCDC
#
#######################################################################
#
# If this CIF has been generated from an entry in the Cambridge
# Structural Database, then it will include bibliographic, chemical,
# crystal, experimental, refinement or atomic coordinate data resulting
# from the CCDC's data processing and validation procedures.
#
#######################################################################

data_CSD_CIF_CUQKIK
_audit_creation_date 2015-07-14
_audit_creation_method CSD-ConQuest-V1
_database_code_CSD CUQKIK
_database_code_depnum_ccdc_archive 'CCDC 1412604'
_chemical_formula_sum 'C13 H16 F1 N1 O8 P2 U1'
_chemical_formula_moiety
;
(C6 H6 F1 O8 P2 U1 1-)n,n(C7 H10 N1 1+)
;
_journal_coden_Cambridge 222
_journal_volume 44
_journal_year 2015
_journal_page_first 18158
_journal_name_full 'Dalton Trans. '
loop_
_publ_author_name
"Tao Zheng"
"Yang Gao"
"Lanhua Chen"
"Zhiyong Liu"
"Juan Diwu"
"Zhifang Chai"
"T.E.Albrecht-Schmitt"
"Shuao Wang"
_chemical_name_systematic
;
catena-(Ethylpyridinium (\m~3~-dihydrogen 
1,3-phenylenediphosphonato)-(\m~2~-fluoro)-uranium)
;
_cell_volume    891.265
_exptl_crystal_colour 'yellow'
_exptl_crystal_density_diffrn 2.36
_exptl_special_details
;
Luminescent

;
_exptl_crystal_description 'needle-like'
_diffrn_ambient_temperature 293
#These two values have been output from a single CSD field.
_refine_ls_R_factor_gt 0.0719
_refine_ls_wR_factor_gt 0.0719
_symmetry_cell_setting triclinic
_symmetry_space_group_name_H-M 'P -1'
_symmetry_Int_Tables_number 2
loop_
_symmetry_equiv_pos_site_id
_symmetry_equiv_pos_as_xyz
1 x,y,z
2 -x,-y,-z
_cell_length_a 9.7194(9)
_cell_length_b 10.3787(9)
_cell_length_c 10.4643(9)
_cell_angle_alpha 110.067(2)
_cell_angle_beta 103.971(2)
_cell_angle_gamma 105.105(2)
_cell_formula_units_Z 2
loop_
_atom_type_symbol
_atom_type_radius_bond
C 0.68
H 0.23
F 0.64
N 0.68
O 0.68
P 1.05
U 1.96
loop_
_atom_site_label
_atom_site_type_symbol
_atom_site_fract_x
_atom_site_fract_y
_atom_site_fract_z
U1 U 0.72171(7) 0.57242(8) 0.03623(8)
P1 P 0.8808(5) 0.2766(5) -0.0556(5)
P2 P 0.9045(6) -0.0400(5) 0.2783(5)
F1 F 0.5073(13) 0.6301(13) 0.0526(14)
O1 O 0.7646(15) 0.3520(15) -0.0529(16)
O2 O 1.0172(14) 0.3552(14) -0.0861(15)
O3 O 0.7973(15) 0.1146(15) -0.1778(16)
H1 H 0.86050 0.08280 -0.20160
O4 O 0.8088(15) -0.1660(15) 0.1280(15)
O5 O 1.0566(16) -0.0466(16) 0.3519(15)
O6 O 0.8088(16) -0.0286(18) 0.3782(17)
H2 H 0.86650 0.01570 0.46410
O7 O 0.6825(17) 0.5677(17) -0.1426(15)
O8 O 0.7619(17) 0.5770(19) 0.208(2)
C1 C 0.942(2) 0.269(2) 0.115(2)
C2 C 0.909(2) 0.133(2) 0.124(2)
H3 H 0.86240 0.04400 0.03990
C3 C 0.947(2) 0.132(2) 0.262(2)
C4 C 1.024(3) 0.264(3) 0.384(2)
H4 H 1.05200 0.26280 0.47540
C5 C 1.063(3) 0.398(3) 0.376(3)
H5 H 1.11560 0.48620 0.46090
C6 C 1.020(2) 0.398(2) 0.239(2)
H6 H 1.04450 0.48770 0.23180
N1 N 0.495(4) 0.217(3) 0.350(4)
C7 C 0.407(4) 0.269(3) 0.409(5)
H7 H 0.33480 0.29090 0.35280
C8 C 0.409(4) 0.292(3) 0.534(4)
H8 H 0.34350 0.33320 0.56920
C9 C 0.501(4) 0.258(4) 0.615(4)
H9 H 0.49890 0.27030 0.70700
C10 C 0.603(5) 0.203(4) 0.566(5)
H10 H 0.66790 0.17420 0.62160
C11 C 0.605(5) 0.191(4) 0.431(5)
H11 H 0.67960 0.16630 0.39720
C12 C 0.459(6) 0.170(6) 0.181(7)
H12 H 0.44500 0.06750 0.12620
H13 H 0.37600 0.19300 0.13420
C13 C 0.603(5) 0.271(5) 0.217(6)
H14 H 0.60690 0.36930 0.26650
H15 H 0.62470 0.25980 0.13040
H16 H 0.67790 0.25320 0.28110
U1* U 0.72171(7) -0.42758(8) 0.03623(8)
U1A U 0.27829(7) 0.42758(8) -0.03623(8)
U1A* U 1.27829(7) 0.42758(8) -0.03623(8)
F1A F 0.4927(13) 0.3699(13) -0.0526(14)
O2A O 0.9828(14) 0.6448(14) 0.0861(15)
O4* O 0.8088(15) 0.8340(15) 0.1280(15)
#END
