
#######################################################################
#
#                 Cambridge Crystallographic Data Centre
#                                CCDC
#
#######################################################################
#
# If this CIF has been generated from an entry in the Cambridge
# Structural Database, then it will include bibliographic, chemical,
# crystal, experimental, refinement or atomic coordinate data resulting
# from the CCDC's data processing and validation procedures.
#
#######################################################################

data_CSD_CIF_CUQTIU
_audit_creation_date 2020-05-11
_audit_creation_method CSD-ConQuest-V1
_database_code_CSD CUQTIU
_database_code_depnum_ccdc_archive 'CCDC 2003159'
_chemical_formula_sum 'C6 H12 N7 O8 Rb1'
_chemical_formula_moiety
;
(C6 H8 N6 O8 Rb1 1-)n,H4 N1 1+
;
_journal_coden_Cambridge 1078
_journal_year 2020
_journal_name_full 'CSD Communication(Private Communication) '
loop_
_publ_author_name
"M.Aibibula"
_chemical_name_systematic
;
catena-(ammonium bis(\m-isocyanurate)-diaqua-rubidium)
;
_cell_volume   1320.690
_exptl_crystal_colour 'colorless'
_exptl_crystal_density_diffrn 1.99
_exptl_crystal_description 'block'
_diffrn_ambient_temperature 293
#These two values have been output from a single CSD field.
_refine_ls_R_factor_gt 0.0584
_refine_ls_wR_factor_gt 0.0584
_symmetry_cell_setting orthorhombic
_symmetry_space_group_name_H-M 'P n m a'
_symmetry_Int_Tables_number 62
loop_
_symmetry_equiv_pos_site_id
_symmetry_equiv_pos_as_xyz
1 x,y,z
2 1/2-x,-y,1/2+z
3 1/2+x,1/2-y,1/2-z
4 -x,1/2+y,-z
5 -x,-y,-z
6 -1/2+x,y,-1/2-z
7 -1/2-x,-1/2+y,-1/2+z
8 x,-1/2-y,z
_cell_length_a 6.820(2)
_cell_length_b 16.457(6)
_cell_length_c 11.767(4)
_cell_angle_alpha 90
_cell_angle_beta 90
_cell_angle_gamma 90
_cell_formula_units_Z 4
loop_
_atom_type_symbol
_atom_type_radius_bond
C 0.68
H 0.23
N 0.68
O 0.68
Rb 2.20
loop_
_atom_site_label
_atom_site_type_symbol
_atom_site_fract_x
_atom_site_fract_y
_atom_site_fract_z
Rb1 Rb -0.18629(12) 0.25000 0.62253(7)
O1 O 0.1495(5) 0.13383(19) 0.6976(3)
O2 O -0.6099(8) 0.25000 0.5846(5)
H1 H -0.68980 0.28870 0.59300
O3 O 0.2898(6) -0.0954(2) 0.5000(3)
O4 O 0.2919(5) -0.0993(2) 0.8844(3)
O5 O -0.0066(8) 0.25000 0.4046(4)
H2 H 0.07640 0.21290 0.39500
N1 N 0.2129(6) 0.0157(2) 0.7913(3)
H3 H 0.20270 0.04220 0.85230
N2 N 0.2171(6) 0.0189(2) 0.5974(3)
H4 H 0.20960 0.04650 0.53740
N3 N 0.2908(6) -0.1039(2) 0.6915(3)
C1 C 0.1905(6) 0.0613(3) 0.6955(4)
C2 C 0.2664(7) -0.0632(3) 0.5943(4)
C3 C 0.2667(7) -0.0648(3) 0.7914(4)
N4 N 0.4978(8) 0.25000 0.3498(4)
H5 H 0.40080 0.25000 0.30490
H6 H 0.56940 0.20890 0.33780
H7 H 0.45830 0.25000 0.41810
H1G H -0.68980 0.21130 0.59300
H2G H 0.07640 0.28710 0.39500
O1D O -0.1495(5) -0.13383(19) 0.3024(3)
O3D O -0.2898(6) 0.0954(2) 0.5000(3)
O4D O -0.2919(5) 0.0993(2) 0.1156(3)
N1D N -0.2129(6) -0.0157(2) 0.2087(3)
H3D H -0.20270 -0.04220 0.14770
N2D N -0.2171(6) -0.0189(2) 0.4026(3)
H4D H -0.20960 -0.04650 0.46260
N3D N -0.2908(6) 0.1039(2) 0.3085(3)
C1D C -0.1905(6) -0.0613(3) 0.3045(4)
C2D C -0.2664(7) 0.0632(3) 0.4057(4)
C3D C -0.2667(7) 0.0648(3) 0.2086(4)
Rb1A Rb -0.31371(12) -0.25000 0.12253(7)
Rb1B Rb 0.31371(12) 0.25000 0.87747(7)
Rb1C Rb 0.18629(12) -0.25000 0.37747(7)
O1B O -0.3505(5) 0.36617(19) 0.8024(3)
O1E O -0.3505(5) 0.13383(19) 0.8024(3)
O1G O 0.1495(5) 0.36617(19) 0.6976(3)
O3C O -0.2898(6) 0.4046(2) 0.5000(3)
H6G H 0.56940 0.29110 0.33780
#END
