
#######################################################################
#
#                 Cambridge Crystallographic Data Centre
#                                CCDC
#
#######################################################################
#
# If this CIF has been generated from an entry in the Cambridge
# Structural Database, then it will include bibliographic, chemical,
# crystal, experimental, refinement or atomic coordinate data resulting
# from the CCDC's data processing and validation procedures.
#
#######################################################################

data_CSD_CIF_CUQXES
_audit_creation_date 2011-01-04
_audit_creation_method CSD-ConQuest-V1
_database_code_CSD CUQXES
_database_code_depnum_ccdc_archive 'CCDC 757067'
_chemical_formula_sum 'C56 H65 Cu3 N16 O44 Si1 W12'
_chemical_formula_moiety
;
(C28 H28 Cu2 N8 O40 Si1 W12 2-)n,n(C14 H14 Cu1 N4 1+),n(C14 H15 N4 1+),4n(H2 
O1)
;
_journal_coden_Cambridge 971
_journal_volume 12
_journal_year 2010
_journal_page_first 1585
_journal_name_full 'Solid State Sciences '
loop_
_publ_author_name
"Peng-peng Zhang"
"Jun Peng"
"Hai-jun Pang"
"Yuan Chen"
"Min Zhu"
"Dan-dan Wang"
"Ming-guan Liu"
"Yong-hui Wang"
_chemical_name_systematic
;
catena-[(1-(imidazol-1-iumylmethyl)-4-(imidazol-1-ylmethyl)benzene) 
(\m~2~-1,4-bis(imidazol-1-ylmethyl)benzene)-copper(i) 
(\m~12~-silicato)-bis(\m~3~-oxo)-bis(\m~2~-1,4-bis(imidazol-1-ylmethyl)benzene
)-docosakis(\m~2~-oxo)-dodecaoxo-di-copper(i)-dodeca-tungsten tetrahydrate]
;
_cell_volume   2085.843
_exptl_crystal_colour 'brown'
_exptl_crystal_density_diffrn 3.25
_exptl_crystal_description 'block'
_diffrn_ambient_temperature 293
#These two values have been output from a single CSD field.
_refine_ls_R_factor_gt 0.0452
_refine_ls_wR_factor_gt 0.0452
_symmetry_cell_setting triclinic
_symmetry_space_group_name_H-M 'P 1'
_symmetry_Int_Tables_number 1
loop_
_symmetry_equiv_pos_site_id
_symmetry_equiv_pos_as_xyz
1 x,y,z
_cell_length_a 13.244(3)
_cell_length_b 13.594(3)
_cell_length_c 14.638(3)
_cell_angle_alpha 109.72(3)
_cell_angle_beta 116.51(3)
_cell_angle_gamma 97.92(3)
_cell_formula_units_Z 1
loop_
_atom_type_symbol
_atom_type_radius_bond
C 0.68
H 0.23
Cu 1.57
N 0.67
O 0.79
Si 1.18
W 1.23
loop_
_atom_site_label
_atom_site_type_symbol
_atom_site_fract_x
_atom_site_fract_y
_atom_site_fract_z
W1 W 0.39344(8) -0.35193(7) -0.28123(8)
W2 W 0.54467(7) -0.53484(7) -0.18864(8)
W3 W 0.02626(7) -0.81972(6) -0.56011(7)
W4 W -0.07328(7) -0.66269(7) -0.40425(8)
W5 W 0.29007(8) -0.60558(8) -0.04128(8)
W6 W 0.43735(7) -0.36778(6) -0.02321(7)
W7 W 0.38383(8) -0.77302(7) -0.21965(8)
W8 W 0.34428(8) -0.74605(7) -0.45441(7)
W9 W 0.18384(8) -0.56637(7) -0.54103(7)
W10 W 0.13876(8) -0.43702(7) -0.12207(7)
W11 W 0.09765(8) -0.40780(7) -0.37410(8)
W12 W 0.06681(8) -0.83528(6) -0.31960(8)
Cu1 Cu 0.2372(3) -0.0980(3) -0.2969(3)
Cu2 Cu 0.1354(3) -0.5236(2) 0.1209(3)
Cu3 Cu -0.6534(3) -0.6656(2) -0.7037(3)
Si1 Si 0.2348(6) -0.5912(5) -0.2947(6)
N1 N 0.1250(17) -0.1467(15) 0.3851(16)
N2 N 0.3471(18) -0.0372(14) 0.0279(16)
N3 N 0.2765(17) -0.0540(17) -0.1482(17)
N4 N 0.1955(14) -0.1409(12) 0.5515(14)
N5 N 0.8038(17) 0.2754(15) 0.8510(17)
N6 N 0.4512(18) -0.3041(14) 0.4043(16)
N7 N 0.2823(15) -0.4133(14) 0.2372(15)
N8 N 0.9787(19) 0.3710(16) 1.0126(19)
N9 N -0.4976(17) -0.5620(16) -0.5927(19)
N10 N 0.1967(18) 0.2236(16) 0.1831(18)
N11 N 0.0224(15) 0.1163(13) 0.0215(15)
N12 N -0.3193(17) -0.4687(14) -0.4305(16)
N13 N 0.884(3) -0.171(2) -0.540(3)
N14 N 0.8341(15) -0.2959(14) -0.7131(17)
N15 N 0.6458(15) -0.8935(13) -0.8693(15)
N16 N 0.603(2) -1.014(2) -1.035(2)
O1 O 0.0081(14) -0.5640(11) -0.2513(13)
O2 O -0.4432(17) -0.8452(15) -0.6169(17)
O3 O 0.1083(12) -0.6917(11) -0.3695(12)
O4 O -1.081(2) -1.3382(17) -0.968(2)
O5 O 0.5438(16) -0.2557(14) 0.0968(15)
O6 O 0.7239(17) 0.0306(13) -0.6085(15)
O7 O 0.0719(17) -0.3685(12) -0.0609(16)
O8 O 0.7430(19) -1.2298(15) -0.9711(19)
O9 O -0.1029(14) -0.7707(12) -0.5494(13)
O10 O 0.2663(11) -0.5228(10) -0.1689(11)
O11 O 0.1790(13) -0.8233(12) -0.5227(13)
O12 O 0.2997(13) -0.3324(12) -0.0220(14)
O13 O 0.4181(12) -0.4642(12) 0.0422(12)
O14 O 0.2505(13) -0.3043(12) -0.3174(12)
O15 O 0.2898(17) -0.6489(14) -0.514(2)
O16 O -0.0642(16) -0.9248(15) -0.6955(17)
O17 O 0.3105(13) -0.6351(13) 0.0680(14)
O18 O 0.3413(11) -0.6412(10) -0.2914(12)
O19 O 0.5234(14) -0.4501(13) -0.0736(13)
O20 O -0.0199(13) -0.5457(12) -0.4294(13)
O21 O 0.0900(12) -0.4741(11) -0.5220(12)
O22 O 0.3740(13) -0.8233(11) -0.3610(12)
O23 O -0.0666(14) -0.7818(12) -0.3595(13)
O24 O 0.2160(13) -0.8420(12) -0.2995(12)
O25 O 0.3780(17) -0.8192(13) -0.5464(19)
O26 O 0.5342(16) -0.6541(12) -0.1557(13)
O27 O 0.1807(13) -0.5235(17) -0.0430(19)
O28 O 0.3230(13) -0.4257(12) -0.4449(12)
O29 O 0.4110(14) -0.3235(12) -0.1414(13)
O30 O 0.3744(11) -0.6767(11) -0.0977(11)
O31 O 0.5017(14) -0.6372(13) -0.3404(14)
O32 O 0.1470(13) -0.7269(13) -0.1745(14)
O33 O 0.0670(14) -0.6943(13) -0.5819(14)
O34 O 0.0079(16) -0.9041(12) -0.4850(14)
O35 O 0.2299(12) -0.5076(10) -0.3517(12)
O36 O 0.4878(14) -0.4395(13) -0.2599(14)
O37 O 0.1275(13) -0.3830(12) -0.2317(13)
O38 O 0.4841(16) -0.2332(12) -0.2554(14)
O39 O 0.6943(15) -0.4864(15) -0.1291(14)
O40 O -0.2179(16) -0.6751(16) -0.4430(16)
O41 O 0.4489(15) -0.8620(12) -0.1733(13)
O42 O 0.0005(17) -0.9495(14) -0.3153(16)
O43 O 0.1524(14) -0.5749(12) -0.6683(13)
O44 O 0.0185(14) -0.3283(13) -0.4055(13)
C1 C 0.6693(16) 0.0999(14) 0.6771(16)
C2 C 0.7098(17) 0.2301(16) 0.7324(17)
H1 H 0.73900 0.25740 0.69230
H2 H 0.64210 0.25350 0.72640
C3 C 0.523(2) -0.0722(17) 0.619(2)
H3 H 0.45500 -0.10870 0.61500
C4 C 0.921(2) 0.3379(18) 0.9010(19)
H4 H 0.95540 0.35460 0.86230
C5 C 0.8542(19) -0.5358(17) -0.737(2)
H5 H 0.93580 -0.49540 -0.69610
C6 C 0.7712(19) -0.5016(17) -0.8052(19)
C7 C 0.814(2) -0.140(2) -0.624(2)
H6 H 0.78930 -0.07860 -0.61170
C8 C 0.791(3) -0.212(2) -0.721(2)
H7 H 0.74860 -0.20740 -0.78880
C9 C 0.8135(19) -0.3915(16) -0.8123(19)
H8 H 0.88700 -0.38530 -0.81290
H9 H 0.75250 -0.39320 -0.88220
C10 C 0.886(2) -0.2721(18) -0.603(2)
H10 H 0.91920 -0.31770 -0.57220
C11 C -0.070(2) 0.0661(15) -0.1012(17)
H11 H -0.04040 0.09390 -0.14060
H12 H -0.14130 0.08520 -0.11160
C12 C 0.119(2) 0.1689(18) 0.207(2)
H13 H 0.13540 0.17690 0.27800
C13 C 0.1336(17) 0.1903(15) 0.0692(17)
H14 H 0.16150 0.21420 0.02950
C14 C 0.0176(17) 0.1035(16) 0.1058(19)
H15 H -0.04780 0.05550 0.09600
C15 C 0.3218(16) -0.0999(17) -0.0790(18)
H16 H 0.33470 -0.16720 -0.10120
C16 C 0.190(2) -0.2363(19) 0.4766(19)
H17 H 0.21790 -0.28930 0.49710
C17 C 0.398(3) -0.069(2) 0.121(2)
H18 H 0.47630 -0.01320 0.18230
H19 H 0.40930 -0.13960 0.09320
C18 C 0.143(2) -0.2465(18) 0.374(2)
H20 H 0.12450 -0.30680 0.30780
C19 C -0.210(2) -0.1218(19) -0.166(2)
H21 H -0.25310 -0.08250 -0.14350
C20 C -0.421(2) -0.5124(19) -0.616(2)
H22 H -0.44310 -0.51300 -0.68570
C21 C -0.254(2) -0.2447(19) -0.218(2)
H23 H -0.32370 -0.28440 -0.22800
C22 C -0.302(2) -0.459(2) -0.5153(19)
H24 H -0.23110 -0.42650 -0.50850
C23 C 0.685(2) -0.972(2) -0.852(2)
H25 H 0.72310 -0.97650 -0.78310
C24 C 0.813(2) -0.6326(17) -0.732(2)
H26 H 0.86950 -0.65620 -0.68670
C25 C 0.2898(17) -0.0820(16) 0.3173(17)
H27 H 0.32320 -0.07960 0.38930
C26 C 0.1160(18) -0.1105(15) 0.1363(17)
H28 H 0.03450 -0.12430 0.08990
C27 C 0.188(2) -0.0999(18) 0.095(2)
H29 H 0.15520 -0.10770 0.02060
C28 C 0.359(2) -0.0673(17) 0.271(2)
H30 H 0.44180 -0.04980 0.31630
C29 C 0.314(2) -0.0769(17) 0.1640(19)
C30 C 0.7894(18) 0.2792(18) 0.937(2)
H31 H 0.71620 0.24840 0.92750
C31 C 0.724(2) 0.0406(17) 0.637(2)
H32 H 0.79050 0.07920 0.64130
C32 C 0.6913(19) -0.0693(17) 0.5911(18)
H33 H 0.73580 -0.10470 0.56610
C33 C 0.462(2) -0.274(2) 0.327(2)
H34 H 0.52490 -0.21950 0.34090
C34 C 0.893(2) 0.333(2) 1.038(2)
H35 H 0.90700 0.34290 1.10910
C35 C 0.589(2) -0.1322(19) 0.5802(17)
C36 C 0.693(2) -0.695(2) -0.790(2)
C37 C 0.6449(18) -0.5651(17) -0.8651(18)
H36 H 0.58740 -0.54220 -0.90990
C38 C 0.653(2) -0.7971(19) -0.7837(18)
H37 H 0.70810 -0.78980 -0.70870
H38 H 0.57430 -0.80670 -0.79280
C39 C 0.612(2) -0.654(2) -0.856(3)
H39 H 0.53030 -0.69350 -0.89550
C40 C 0.661(2) -1.046(2) -0.954(2)
H40 H 0.68040 -1.11060 -0.96680
C41 C 0.591(2) -0.914(2) -0.982(2)
H41 H 0.55510 -0.87070 -1.01500
C42 C -0.1022(16) -0.0640(14) -0.1513(15)
C43 C -0.1844(17) -0.2987(15) -0.2529(16)
C44 C -0.225(2) -0.423(2) -0.311(2)
H42 H -0.15720 -0.44570 -0.30510
H43 H -0.25450 -0.45190 -0.27200
C45 C -0.4351(19) -0.5296(19) -0.480(2)
H44 H -0.46780 -0.54710 -0.44100
C46 C -0.043(2) -0.115(2) -0.1864(19)
H45 H 0.02630 -0.07340 -0.17690
C47 C -0.0800(19) -0.2330(16) -0.2399(19)
H46 H -0.03630 -0.26780 -0.26660
C48 C 0.3428(19) -0.3873(16) 0.3481(19)
H47 H 0.31540 -0.42070 0.38260
C49 C 0.542(2) -0.2565(18) 0.528(2)
H48 H 0.60790 -0.28460 0.53940
H49 H 0.50590 -0.27920 0.56630
C50 C 0.357(3) -0.3432(17) 0.225(2)
H50 H 0.33800 -0.34320 0.15550
C51 C 0.2843(18) 0.0544(16) -0.0729(18)
H51 H 0.26510 0.10970 -0.09400
C52 C 0.1590(19) -0.1017(17) 0.2454(19)
C53 C 0.1618(18) -0.0853(16) 0.4924(18)
H52 H 0.16350 -0.01240 0.52220
C54 C 0.0795(17) -0.1169(17) 0.2893(18)
H53 H 0.06310 -0.04840 0.31380
H54 H 0.00360 -0.17450 0.22650
C55 C 0.324(2) 0.0604(17) 0.0324(18)
H55 H 0.33450 0.11870 0.09550
C56 C 0.565(3) 0.045(2) 0.663(3)
H56 H 0.52110 0.08560 0.68270
Cu1* Cu 0.2372(3) -0.0980(3) 0.7031(3)
Cu2* Cu 1.1354(3) 0.4764(2) 1.1209(3)
Cu3* Cu 0.3466(3) 0.3344(2) 0.2963(3)
N4* N 0.1955(14) -0.1409(12) -0.4485(14)
N8* N -0.0213(19) -0.6290(16) 0.0126(19)
N10* N -0.8033(18) -0.7764(16) -0.8169(18)
#END
