
#######################################################################
#
#                 Cambridge Crystallographic Data Centre
#                                CCDC
#
#######################################################################
#
# If this CIF has been generated from an entry in the Cambridge
# Structural Database, then it will include bibliographic, chemical,
# crystal, experimental, refinement or atomic coordinate data resulting
# from the CCDC's data processing and validation procedures.
#
#######################################################################

data_CSD_CIF_CUQXIW
_audit_creation_date 2011-01-04
_audit_creation_method CSD-ConQuest-V1
_database_code_CSD CUQXIW
_database_code_depnum_ccdc_archive 'CCDC 757068'
_chemical_formula_sum 'C126 H148 Cu3 N36 O128 Si3 W36'
_chemical_formula_moiety
;
(C126 H140 Cu3 N36 O4 12+)n,3n(O40 Si1 W12 4-),4n(H2 O1)
;
_journal_coden_Cambridge 971
_journal_volume 12
_journal_year 2010
_journal_page_first 1585
_journal_name_full 'Solid State Sciences '
loop_
_publ_author_name
"Peng-peng Zhang"
"Jun Peng"
"Hai-jun Pang"
"Yuan Chen"
"Min Zhu"
"Dan-dan Wang"
"Ming-guan Liu"
"Yong-hui Wang"
_chemical_name_systematic
;
catena-[bis(\m~2~-1-(imidazol-1-iumylmethyl)-4-(imidazol-1-ylmethyl)benzene)-(
\m~2~-1,4-bis(imidazol-1-ylmethyl)benzene)-tetrakis(1-(imidazol-1-iumylmethyl)
-4-(imidazol-1-ylmethyl)benzene)-bis(1,4-bis(imidazol-1-ylmethyl)benzene)-tetr
aaqua-tri-copper(ii) 
tris((\m~12~-silicato)-tetracosakis(\m~2~-oxo)-dodecaoxo-dodeca-tungsten) 
tetrahydrate]
;
_cell_volume   5307.784
_exptl_crystal_colour 'blue'
_exptl_crystal_density_diffrn 3.468
_exptl_crystal_description 'block'
_diffrn_ambient_temperature 293
_refine_special_details
;
The structure is partially disordered by symmetry.

;
#These two values have been output from a single CSD field.
_refine_ls_R_factor_gt 0.0581
_refine_ls_wR_factor_gt 0.0581
_symmetry_cell_setting triclinic
_symmetry_space_group_name_H-M 'P -1'
_symmetry_Int_Tables_number 2
loop_
_symmetry_equiv_pos_site_id
_symmetry_equiv_pos_as_xyz
1 x,y,z
2 -x,-y,-z
_cell_length_a 13.112(5)
_cell_length_b 15.798(5)
_cell_length_c 27.462(5)
_cell_angle_alpha 91.530(5)
_cell_angle_beta 92.919(5)
_cell_angle_gamma 110.716(5)
_cell_formula_units_Z 1
loop_
_atom_type_symbol
_atom_type_radius_bond
C 0.68
H 0.23
Cu 1.69
N 0.68
O 0.68
Si 1.20
W 1.34
loop_
_atom_site_label
_atom_site_type_symbol
_atom_site_fract_x
_atom_site_fract_y
_atom_site_fract_z
W1 W 0.22168(8) 0.21613(6) 0.63926(4)
W2 W 0.34174(8) 0.40120(6) 0.71379(4)
W3 W 0.18207(8) 0.53654(6) 0.75572(4)
W4 W -0.13529(8) 0.14841(6) 0.71729(4)
W5 W -0.08384(8) 0.47401(6) 0.71952(4)
W6 W 0.25014(8) 0.53884(6) 0.62684(4)
W7 W -0.01547(8) 0.47724(6) 0.59075(4)
W8 W 0.13036(8) 0.35444(6) 0.55304(4)
W9 W -0.21739(7) 0.27103(6) 0.63649(4)
W10 W -0.07086(8) 0.14796(6) 0.60037(4)
W11 W 0.15706(8) 0.21349(6) 0.75633(4)
W12 W -0.00042(8) 0.35091(6) 0.79954(3)
W13? W 0.21132(9) -0.07770(7) 0.99064(5)
W14? W 0.64059(11) -0.11338(8) 0.93297(4)
W15? W 0.34989(10) -0.10423(7) 1.09913(4)
W16? W 0.35126(8) -0.19420(7) 0.92578(4)
W17? W 0.49546(9) -0.21490(7) 1.03380(4)
W18? W 0.63870(8) -0.02065(6) 1.11032(4)
Cu1 Cu 0.3054(2) -0.69465(19) 1.17276(11)
Cu2 Cu -0.50000 -1.00000 1.50000
Si1? Si 0.50000 0.00000 1.00000
Si2 Si 0.0625(5) 0.3447(4) 0.6759(2)
O1 O 0.3254(13) -0.5625(11) 1.2193(6)
O2 O -0.1816(11) 0.3639(10) 0.6882(6)
O3 O 0.2461(12) 0.4699(10) 0.5683(6)
O4 O 0.887(2) 0.2705(16) 1.1870(9)
O5 O -0.0939(12) 0.4184(9) 0.7834(5)
O6 O 0.2855(15) 0.2188(13) 0.4965(7)
O7 O -0.1025(11) 0.2444(10) 0.7623(5)
O8 O -0.5455(15) -0.8777(12) 1.5598(7)
O9 O -0.2462(11) 0.1853(9) 0.6861(6)
O10 O 0.1595(10) 0.3067(9) 0.6896(5)
O11 O 0.3259(11) 0.4702(9) 0.6607(6)
O12 O -0.1307(12) 0.0859(9) 0.6562(6)
O13 O 0.3545(12) 0.6361(9) 0.6152(7)
O14 O 0.2737(10) 0.4682(8) 0.7516(5)
O15 O 0.2058(11) 0.1625(9) 0.7033(5)
O16 O 0.4764(12) 0.4542(10) 0.7319(7)
O17 O -0.1334(11) 0.3656(9) 0.5983(5)
O18 O 0.0336(10) 0.4193(9) 0.5418(5)
O19 O 0.0953(11) 0.4083(9) 0.6281(6)
O20 O 0.3487(12) 0.3115(10) 0.6679(6)
O21 O 0.2956(12) 0.3073(9) 0.7587(5)
O22 O 0.1610(14) 0.3303(10) 0.4961(6)
O23 O -0.0368(14) 0.3275(10) 0.8585(6)
O24 O 0.1156(11) 0.4643(9) 0.8088(5)
O25 O -0.047(1) 0.2597(9) 0.6639(5)
O26 O 0.1013(11) 0.2906(9) 0.7934(5)
O27 O 0.2848(13) 0.1553(11) 0.6086(6)
O28 O 0.0051(11) 0.2496(9) 0.5641(5)
O29 O -0.1947(12) 0.1841(9) 0.5943(5)
O30 O 0.0107(11) 0.1506(9) 0.7339(5)
O31 O -0.1687(12) 0.5334(10) 0.7278(7)
O32 O -0.0387(11) 0.5092(8) 0.6551(5)
O33 O 0.2140(12) 0.5684(9) 0.6886(6)
O34 O 0.1299(11) 0.5662(9) 0.5979(6)
O35 O 0.2643(12) 0.6306(10) 0.7876(6)
O36 O -0.0810(12) 0.5337(10) 0.5573(6)
O37 O 0.0497(12) 0.5648(10) 0.7474(5)
O38 O 0.0428(10) 0.4062(8) 0.7217(4)
O39 O 0.2118(11) 0.2978(10) 0.5908(5)
O40 O -0.2116(11) 0.0600(9) 0.7499(6)
O41 O 0.0711(10) 0.1514(10) 0.6230(5)
O42 O -0.1026(13) 0.0589(11) 0.5565(5)
O43 O 0.1777(13) 0.1469(11) 0.8011(5)
O44 O -0.3483(12) 0.2619(10) 0.6185(6)
O45? O 0.242(2) -0.1297(13) 1.0465(8)
O46? O 0.758(2) -0.0328(12) 0.9770(7)
O47? O 0.620(2) 0.0134(16) 0.9657(9)
O48? O 0.6038(15) -0.1378(12) 1.0793(7)
O49? O 0.4922(13) -0.0523(13) 1.1298(8)
O50? O 0.4953(16) -0.1769(13) 0.9056(8)
O51? O 0.396(2) -0.0504(18) 0.9603(10)
O52? O 0.3495(14) -0.0983(11) 0.8843(8)
O53? O 0.3871(16) -0.1951(13) 1.0734(7)
O54? O 0.5971(16) -0.1956(13) 0.9867(7)
O55 O 0.0768(13) -0.1151(12) 0.9858(6)
O56? O 0.4924(14) -0.3159(11) 1.0507(7)
O57? O 0.7006(18) -0.0328(14) 1.1637(8)
O58? O 0.2771(15) -0.1525(12) 1.1470(7)
O59? O 0.7068(12) -0.1682(9) 0.8986(6)
O60? O 0.5084(19) 0.0987(16) 1.0190(9)
O61? O 0.3894(15) -0.2517(12) 0.9810(7)
O62? O 0.2450(14) -0.0139(13) 0.9319(7)
O63? O 0.2388(13) -0.1715(10) 0.9604(7)
O64? O 0.2769(18) -0.2850(11) 0.8906(7)
O65? O 0.508(2) -0.0645(16) 1.0431(8)
O66? O 0.347(2) 0.0149(12) 1.1070(9)
N1 N -0.3998(17) -1.5572(13) 1.5795(9)
N2 N -0.5192(19) -1.6472(16) 1.5274(10)
N3 N -0.4269(16) -1.0339(14) 1.5574(9)
N4 N -0.3223(14) -1.0838(12) 1.6055(7)
N5 N -0.2022(16) -0.8141(13) 1.4652(7)
N6 N -0.3679(17) -0.8950(13) 1.4878(8)
N7 N 0.1900(16) -0.7902(11) 1.2080(7)
N8 N 0.0299(18) -0.8714(14) 1.2345(8)
N9 N 0.1831(14) -0.6737(10) 1.1319(6)
N10 N 0.0580(15) -0.6195(11) 1.1072(7)
N11 N 0.4174(15) -0.6295(13) 1.1262(7)
N12 N 0.5796(17) -0.5680(15) 1.0937(8)
N13 N 1.089(2) -0.077(2) 1.1391(13)
N14 N 0.9504(14) -0.1052(14) 1.0877(7)
N15 N 0.377(5) -1.348(4) 1.168(3)
N16 N 0.4671(18) -1.2506(14) 1.2324(10)
N17 N 0.4201(15) -0.7201(13) 1.2157(7)
N18 N 0.5388(14) -0.7741(13) 1.2446(7)
C1 C 0.359(3) -1.311(3) 1.2163(16)
H1 H 0.29390 -1.32450 1.23200
C2 C -0.428(3) -1.603(2) 1.5031(12)
H2 H -0.42080 -1.60840 1.46980
C3 C -0.361(3) -0.8093(18) 1.4801(12)
H3 H -0.41650 -0.78660 1.48430
C4 C -0.263(2) -0.762(2) 1.4655(14)
H4 H -0.24010 -0.70200 1.45680
C5 C 0.4533(19) -1.0681(17) 1.2432(9)
H5 H 0.38800 -1.10660 1.22770
C6 C 0.988(3) -0.0209(18) 1.0977(12)
H6 H 0.96010 0.02040 1.08440
C7 C -0.075(2) -0.581(2) 1.0121(11)
H7 H -0.12850 -0.63510 1.01870
C8 C 0.488(3) -1.1982(19) 1.2815(10)
H8 H 0.54910 -1.20570 1.29990
H9 H 0.42400 -1.22020 1.30030
C9 C 0.476(4) -1.302(3) 1.1611(13)
H10 H 0.50980 -1.30970 1.13340
C10 C 0.512(2) -1.105(2) 1.2719(10)
C11 C 0.790(2) -0.4047(18) 1.0371(10)
H11 H 0.79870 -0.44480 1.01380
C12 C 0.524(3) -1.243(2) 1.1953(15)
H12 H 0.59290 -1.19960 1.19340
C13 C 0.497(2) -0.5836(15) 1.0571(10)
H13 H 0.50470 -0.57240 1.02420
C14 C 0.401(2) -0.6192(15) 1.0802(8)
H14 H 0.33150 -0.63400 1.06460
C15 C -0.002(2) -0.5609(16) 1.0990(9)
H15 H -0.07630 -0.59210 1.10720
H16 H 0.02940 -0.50810 1.12120
C16 C 1.080(2) 0.002(2) 1.1321(11)
H17 H 1.12220 0.05880 1.14610
C17 C 1.017(3) -0.139(2) 1.1141(13)
H18 H 1.00940 -0.19940 1.11370
C18 C -0.352(3) -1.5504(18) 1.5366(11)
H19 H -0.27970 -1.51600 1.53120
C19 C -0.506(3) -1.616(2) 1.5722(11)
H20 H -0.55860 -1.62990 1.59520
C20 C -0.272(2) -0.8933(17) 1.4772(9)
H21 H -0.25290 -0.94470 1.47800
C21 C 0.068(2) -0.4490(18) 1.0363(10)
H22 H 0.11530 -0.41050 1.06050
C22 C 0.484(2) -0.9785(16) 1.2356(9)
H23 H 0.43930 -0.95880 1.21490
C23 C 0.2009(19) -0.8596(17) 1.2327(12)
H24 H 0.26590 -0.87010 1.23810
C24 C -0.0963(18) -0.8000(17) 1.4499(9)
H25 H -0.05170 -0.73720 1.45790
H26 H -0.06580 -0.83660 1.46950
C25 C 0.604(2) -1.0422(18) 1.2996(10)
H27 H 0.64320 -1.06270 1.32250
C26 C -0.449(2) -1.0288(17) 1.6054(11)
H28 H -0.50220 -1.00700 1.61600
C27 C 0.0334(18) -0.7056(16) 1.0835(8)
H29 H -0.02490 -0.73400 1.06090
C28 C -0.003(2) -0.5304(16) 1.0497(9)
C29 C -0.378(2) -1.2808(15) 1.6109(8)
H30 H -0.43230 -1.25740 1.60220
C30 C 0.8618(17) -0.1497(14) 1.0514(8)
H31 H 0.80770 -0.12090 1.05270
H32 H 0.88990 -0.14200 1.01920
C31 C -0.4045(19) -1.3730(16) 1.6133(8)
H33 H -0.47630 -1.41160 1.60640
C32 C 0.634(2) -0.9513(19) 1.2922(13)
H34 H 0.69340 -0.91140 1.31090
C33 C -0.240(2) -1.1220(15) 1.6196(10)
H35 H -0.18240 -1.10150 1.59720
H36 H -0.20850 -1.09580 1.65170
C34 C -0.3226(18) -1.4101(14) 1.6262(8)
C35 C 0.4831(18) -0.7650(17) 1.2039(10)
H37 H 0.48820 -0.78690 1.17270
C36 C -0.0901(19) -0.9348(15) 1.3379(10)
H38 H -0.08850 -0.99230 1.33120
C37 C 0.106(2) -0.9102(16) 1.2479(10)
H39 H 0.09250 -0.96290 1.26490
C38 C -0.094(3) -0.9048(17) 1.3836(12)
H40 H -0.10570 -0.94720 1.40750
C39 C 0.5063(19) -0.7393(14) 1.2841(8)
H41 H 0.52810 -0.73950 1.31690
C40 C 0.0880(18) -0.7987(16) 1.2121(8)
H42 H 0.05870 -0.75710 1.20020
C41 C -0.0870(17) -0.9008(16) 1.2477(9)
H43 H -0.12190 -0.96590 1.24250
H44 H -0.12670 -0.87200 1.22730
C42 C 0.714(2) -0.3732(19) 1.1095(10)
H45 H 0.67470 -0.39370 1.13670
C43 C 0.833(2) -0.3106(19) 1.0330(12)
H46 H 0.88430 -0.28810 1.00990
C44 C -0.219(2) -1.3502(18) 1.6359(11)
H47 H -0.16260 -1.37140 1.64330
C45 C 0.4334(19) -0.7037(17) 1.2638(10)
H48 H 0.39800 -0.67230 1.28140
C46 C 0.621(2) -0.8159(19) 1.2462(13)
H49 H 0.65390 -0.80990 1.21500
H50 H 0.67860 -0.78330 1.27080
C47 C -0.0851(19) -0.7851(15) 1.3128(10)
H51 H -0.08180 -0.74330 1.28910
C48 C 0.526(2) -0.5966(15) 1.1336(10)
H52 H 0.56120 -0.59370 1.16410
C49 C -0.1967(18) -1.2565(14) 1.6347(10)
H53 H -0.12630 -1.21660 1.64350
C50 C 0.754(2) -0.2804(19) 1.1012(10)
H54 H 0.74460 -0.23880 1.12360
C51 C -0.087(2) -0.7635(17) 1.3611(9)
H55 H -0.09150 -0.70730 1.36930
C52 C -0.0833(19) -0.8191(17) 1.3991(9)
C53 C 0.7328(19) -0.4340(18) 1.0783(10)
C54 C -0.346(2) -1.5095(17) 1.6281(9)
H56 H -0.27900 -1.52040 1.63530
H57 H -0.39470 -1.53380 1.65390
C55 C -0.352(2) -1.0745(18) 1.5603(9)
H58 H -0.32480 -1.09360 1.53320
C56 C 0.1487(19) -0.6055(16) 1.1343(10)
H59 H 0.18480 -0.55250 1.15310
C57 C 0.806(2) -0.2520(16) 1.0593(9)
C58 C -0.2728(18) -1.2236(16) 1.6216(8)
C59 C 0.692(2) -0.5326(16) 1.0902(10)
H60 H 0.72740 -0.53930 1.12090
H61 H 0.71150 -0.56720 1.06510
C60 C -0.0883(19) -0.8741(14) 1.2998(8)
C61 C 0.5785(18) -0.9149(13) 1.2575(9)
C62 C -0.388(3) -1.0584(19) 1.6352(10)
H62 H -0.38880 -1.06120 1.66900
C63 C 0.1089(18) -0.7389(15) 1.0994(8)
H63 H 0.11170 -0.79520 1.09040
Cu1A Cu -0.3054(2) -0.30535(19) 0.82724(11)
Cu2* Cu 0.50000 0.00000 0.50000
O1A O -0.3254(13) -0.4375(11) 0.7807(6)
O8A O -0.4545(15) -1.1223(12) 1.4402(7)
N1A N -0.6002(17) -0.4428(13) 1.4205(9)
N2A N -0.4808(19) -0.3528(16) 1.4726(10)
N3A N -0.5731(16) -0.9661(14) 1.4426(9)
N4A N -0.6777(14) -0.9162(12) 1.3945(7)
N5A N 0.2022(16) -0.1859(13) 0.5348(7)
N6A N -0.6321(17) -1.1050(13) 1.5122(8)
N6A* N 0.3679(17) -0.1050(13) 0.5122(8)
N7A N -0.1900(16) -0.2098(11) 0.7920(7)
N8A N -0.0299(18) -0.1286(14) 0.7655(8)
N9A N -0.1831(14) -0.3263(10) 0.8681(6)
N10A N -0.0580(15) -0.3805(11) 0.8928(7)
N11A N -0.4174(15) -0.3705(13) 0.8738(7)
N12A N -0.5796(17) -0.4320(15) 0.9063(8)
N13A N -1.089(2) -0.923(2) 0.8609(13)
N14A N -0.9504(14) -0.8948(14) 0.9123(7)
N15A N -0.377(5) 0.348(4) 0.832(3)
N16A N -0.4671(18) 0.2506(14) 0.7676(10)
N17A N -0.4201(15) -0.2799(13) 0.7843(7)
N18A N -0.5388(14) -0.2259(13) 0.7554(7)
C1A C -0.359(3) 0.311(3) 0.7837(16)
H1A H -0.29390 0.32450 0.76800
C2A C -0.572(3) -0.397(2) 1.4969(12)
H2A H -0.57920 -0.39160 1.53020
C3A C 0.361(3) -0.1907(18) 0.5199(12)
H3A H 0.41650 -0.21340 0.51570
C4A C 0.263(2) -0.238(2) 0.5345(14)
H4A H 0.24010 -0.29800 0.54320
C5A C -0.4533(19) 0.0681(17) 0.7568(9)
H5A H -0.38800 0.10660 0.77230
C6A C -0.988(3) -0.9791(18) 0.9023(12)
H6A H -0.96010 -1.02040 0.91560
C7A C 0.075(2) -0.419(2) 0.9879(11)
H7A H 0.12850 -0.36490 0.98130
C8A C -0.488(3) 0.1982(19) 0.7185(10)
H8A H -0.54910 0.20570 0.70010
H9A H -0.42400 0.22020 0.69970
C9A C -0.476(4) 0.302(3) 0.8389(13)
H10A H -0.50980 0.30970 0.86660
C10A C -0.512(2) 0.105(2) 0.7281(10)
C11A C -0.790(2) -0.5953(18) 0.9629(10)
H11A H -0.79870 -0.55520 0.98620
C12A C -0.524(3) 0.243(2) 0.8047(15)
H12A H -0.59290 0.19960 0.80660
C13A C -0.497(2) -0.4164(15) 0.9429(10)
H13A H -0.50470 -0.42760 0.97580
C14A C -0.401(2) -0.3808(15) 0.9198(8)
H14A H -0.33150 -0.36600 0.93540
C15A C 0.002(2) -0.4391(16) 0.9010(9)
H15A H 0.07630 -0.40790 0.89280
H16A H -0.02940 -0.49190 0.87880
C16A C -1.080(2) -1.002(2) 0.8679(11)
H17A H -1.12220 -1.05880 0.85390
C17A C -1.017(3) -0.861(2) 0.8859(13)
H18A H -1.00940 -0.80060 0.88630
C18A C -0.648(3) -0.4496(18) 1.4634(11)
H19A H -0.72030 -0.48400 1.46880
C19A C -0.494(3) -0.384(2) 1.4278(11)
H20A H -0.44140 -0.37010 1.40480
C20A C 0.272(2) -0.1067(17) 0.5228(9)
H21A H 0.25290 -0.05530 0.52200
C21A C -0.068(2) -0.5510(18) 0.9637(10)
H22A H -0.11530 -0.58950 0.93950
C22A C -0.484(2) -0.0215(16) 0.7644(9)
H23A H -0.43930 -0.04120 0.78510
C23A C -0.2009(19) -0.1404(17) 0.7673(12)
H24A H -0.26590 -0.12990 0.76190
C24A C 0.0963(18) -0.2000(17) 0.5501(9)
H25A H 0.05170 -0.26280 0.54210
H26A H 0.06580 -0.16340 0.53050
C25A C -0.604(2) 0.0422(18) 0.7004(10)
H27A H -0.64320 0.06270 0.67750
C26A C -0.551(2) -0.9712(17) 1.3946(11)
H28A H -0.49780 -0.99300 1.38400
C27A C -0.0334(18) -0.2944(16) 0.9165(8)
H29A H 0.02490 -0.26600 0.93910
C28A C 0.003(2) -0.4696(16) 0.9503(9)
C29A C -0.622(2) -0.7192(15) 1.3891(8)
H30A H -0.56770 -0.74260 1.39780
C30A C -0.8618(17) -0.8503(14) 0.9486(8)
H31A H -0.80770 -0.87910 0.94730
H32A H -0.88990 -0.85800 0.98080
C31A C -0.5955(19) -0.6270(16) 1.3867(8)
H33A H -0.52370 -0.58840 1.39360
C32A C -0.634(2) -0.0487(19) 0.7078(13)
H34A H -0.69340 -0.08860 0.68910
C33A C -0.760(2) -0.8780(15) 1.3804(10)
H35A H -0.81760 -0.89850 1.40280
H36A H -0.79150 -0.90420 1.34830
C34A C -0.6774(18) -0.5899(14) 1.3738(8)
C35A C -0.4831(18) -0.2350(17) 0.7961(10)
H37A H -0.48820 -0.21310 0.82730
C36A C 0.0901(19) -0.0652(15) 0.6621(10)
H38A H 0.08850 -0.00770 0.66880
C37A C -0.106(2) -0.0898(16) 0.7521(10)
H39A H -0.09250 -0.03710 0.73510
C38A C 0.094(3) -0.0952(17) 0.6164(12)
H40A H 0.10570 -0.05280 0.59250
C39A C -0.5063(19) -0.2607(14) 0.7159(8)
H41A H -0.52810 -0.26050 0.68310
C40A C -0.0880(18) -0.2013(16) 0.7879(8)
H42A H -0.05870 -0.24290 0.79980
C41A C 0.0870(17) -0.0992(16) 0.7523(9)
H43A H 0.12190 -0.03410 0.75750
H44A H 0.12670 -0.12800 0.77270
C42A C -0.714(2) -0.6268(19) 0.8905(10)
H45A H -0.67470 -0.60630 0.86330
C43A C -0.833(2) -0.6894(19) 0.9670(12)
H46A H -0.88430 -0.71190 0.99010
C44A C -0.781(2) -0.6498(18) 1.3641(11)
H47A H -0.83740 -0.62860 1.35670
C45A C -0.4334(19) -0.2963(17) 0.7362(10)
H48A H -0.39800 -0.32770 0.71860
C46A C -0.621(2) -0.1841(19) 0.7538(13)
H49A H -0.65390 -0.19010 0.78500
H50A H -0.67860 -0.21670 0.72920
C47A C 0.0851(19) -0.2149(15) 0.6872(10)
H51A H 0.08180 -0.25670 0.71090
C48A C -0.526(2) -0.4034(15) 0.8664(10)
H52A H -0.56120 -0.40630 0.83590
C49A C -0.8033(18) -0.7435(14) 1.3653(10)
H53A H -0.87370 -0.78340 1.35650
C50A C -0.754(2) -0.7196(19) 0.8988(10)
H54A H -0.74460 -0.76120 0.87640
C51A C 0.087(2) -0.2365(17) 0.6389(9)
H55A H 0.09150 -0.29270 0.63070
C52A C 0.0833(19) -0.1809(17) 0.6009(9)
C53A C -0.7328(19) -0.5660(18) 0.9217(10)
C54A C -0.654(2) -0.4905(17) 1.3719(9)
H56A H -0.72100 -0.47960 1.36470
H57A H -0.60530 -0.46620 1.34610
C55A C -0.648(2) -0.9255(18) 1.4397(9)
H58A H -0.67520 -0.90640 1.46680
C56A C -0.1487(19) -0.3945(16) 0.8657(10)
H59A H -0.18480 -0.44750 0.84690
C57A C -0.806(2) -0.7480(16) 0.9407(9)
C58A C -0.7272(18) -0.7764(16) 1.3784(8)
C59A C -0.692(2) -0.4674(16) 0.9098(10)
H60A H -0.72740 -0.46070 0.87910
H61A H -0.71150 -0.43280 0.93490
C60A C 0.0883(19) -0.1259(14) 0.7002(8)
C61A C -0.5785(18) -0.0851(13) 0.7425(9)
C62A C -0.612(3) -0.9416(19) 1.3648(10)
H62A H -0.61120 -0.93880 1.33100
C63A C -0.1089(18) -0.2611(15) 0.9006(8)
H63A H -0.11170 -0.20480 0.90960
#END
