
#######################################################################
#
#                 Cambridge Crystallographic Data Centre
#                                CCDC
#
#######################################################################
#
# If this CIF has been generated from an entry in the Cambridge
# Structural Database, then it will include bibliographic, chemical,
# crystal, experimental, refinement or atomic coordinate data resulting
# from the CCDC's data processing and validation procedures.
#
#######################################################################

data_CSD_CIF_CURRUF
_audit_creation_date 2020-05-11
_audit_creation_method CSD-ConQuest-V1
_database_code_CSD CURRUF
_database_code_depnum_ccdc_archive 'CCDC 1873999'
_chemical_formula_sum 'C28 H14 Co3 N26'
_chemical_formula_moiety
;
(C16 Co3 N24 2-)n,n(C12 H14 N2 2+)
;
_journal_coden_Cambridge 1295
_journal_volume 116
_journal_year 2020
_journal_page_first 107908
_journal_name_full 'Inorg.Chem.Commun. '
loop_
_publ_author_name
"Li-Na Wu"
"Meng-Qin He"
"Ming-Xing Li"
"E.N.Nfor"
"Zhao-Xi Wang"
_chemical_name_systematic
;
catena-(1,1'-dimethyl-4,4'-bipyridinium 
octakis(\m-dicyanamide)-tri-cobalt(ii))
;
_cell_volume   1783.096
_exptl_crystal_colour 'red'
_exptl_crystal_density_diffrn 1.66
_exptl_crystal_description 'sheet'
_diffrn_ambient_temperature 296
#These two values have been output from a single CSD field.
_refine_ls_R_factor_gt 0.0309
_refine_ls_wR_factor_gt 0.0309
_symmetry_cell_setting monoclinic
_symmetry_space_group_name_H-M 'P 21/n'
_symmetry_Int_Tables_number 14
loop_
_symmetry_equiv_pos_site_id
_symmetry_equiv_pos_as_xyz
1 x,y,z
2 1/2-x,1/2+y,1/2-z
3 -x,-y,-z
4 -1/2+x,-1/2-y,-1/2+z
_cell_length_a 7.358(3)
_cell_length_b 15.994(5)
_cell_length_c 15.249(5)
_cell_angle_alpha 90
_cell_angle_beta 96.480(4)
_cell_angle_gamma 90
_cell_formula_units_Z 2
loop_
_atom_type_symbol
_atom_type_radius_bond
C 0.68
H 0.23
Co 1.26
N 0.68
loop_
_atom_site_label
_atom_site_type_symbol
_atom_site_fract_x
_atom_site_fract_y
_atom_site_fract_z
N1 N 0.6020(3) 0.27435(13) 1.16948(13)
C1 C 0.5460(3) 0.31521(14) 1.11167(14)
N2 N 0.0066(3) -0.26330(13) 1.15155(15)
N3 N 0.8049(3) 0.41542(12) 0.53503(13)
C2 C 0.7341(3) 0.36283(14) 0.56821(15)
N4 N 0.3755(3) -0.09580(12) 0.76070(13)
C3 C 0.3912(3) -0.03848(13) 0.80434(13)
C4 C 0.1010(3) -0.24778(14) 1.09910(16)
C5 C 0.2664(3) -0.16549(14) 1.01961(14)
C6 C 0.3687(3) 0.09957(13) 0.83644(13)
C7 C 0.5548(3) 0.30686(14) 0.66350(17)
C8 C 0.4149(3) 0.34907(13) 0.97385(15)
Co1 Co 0.22572(4) 0.28622(2) 0.78409(2)
Co2 Co 0.50000 0.00000 1.00000
N5 N 0.3307(3) 0.16711(11) 0.82147(12)
N6 N 0.4194(3) 0.02332(10) 0.86134(11)
N7 N 0.3232(3) -0.10250(12) 0.99950(13)
N8 N 0.2102(3) -0.23967(12) 1.03842(15)
N9 N 0.4614(3) 0.30610(13) 0.71846(14)
N10 N 0.6602(3) 0.29791(12) 0.60144(16)
N11 N 0.3519(3) 0.33896(12) 0.90248(12)
N12 N 0.4861(3) 0.37046(12) 1.05258(12)
C9 C 0.1899(4) 0.55012(15) 0.07544(19)
H1 H 0.20830 0.59820 0.04320
C10 C 0.0408(4) 0.42220(16) 0.0943(2)
H2 H -0.04530 0.38150 0.07550
C11 C 0.1488(4) 0.41179(16) 0.1718(2)
H3 H 0.13590 0.36380 0.20500
C12 C 0.3879(4) 0.45600(18) 0.28614(19)
H4 H 0.31250 0.45750 0.33350
H5 H 0.47820 0.49940 0.29440
H6 H 0.44760 0.40270 0.28560
C13 C 0.2936(4) 0.53736(16) 0.15387(19)
H7 H 0.38020 0.57710 0.17470
C14 C 0.0571(3) 0.49316(14) 0.04226(16)
N13 N 0.2728(3) 0.46888(12) 0.20118(14)
N1B N -0.6020(3) -0.27435(13) 0.83052(13)
C1B C -0.5460(3) -0.31521(14) 0.88833(14)
N2B N -0.0066(3) 0.26330(13) 0.84845(15)
N3B N -0.8049(3) -0.41542(12) 1.46497(13)
C2B C -0.7341(3) -0.36283(14) 1.43179(15)
N4B N -0.3755(3) 0.09580(12) 1.23930(13)
C3B C -0.3912(3) 0.03848(13) 1.19566(13)
C4B C -0.1010(3) 0.24778(14) 0.90090(16)
C5B C -0.2664(3) 0.16549(14) 0.98039(14)
C6B C -0.3687(3) -0.09957(13) 1.16356(13)
C7B C -0.5548(3) -0.30686(14) 1.33650(17)
C8B C -0.4149(3) -0.34907(13) 1.02615(15)
Co1B Co -0.22572(4) -0.28622(2) 1.21591(2)
N5B N -0.3307(3) -0.16711(11) 1.17853(12)
N6B N -0.4194(3) -0.02332(10) 1.13866(11)
N7B N -0.3232(3) 0.10250(12) 1.00050(13)
N8B N -0.2102(3) 0.23967(12) 0.96158(15)
N9B N -0.4614(3) -0.30610(13) 1.28154(14)
N10B N -0.6602(3) -0.29791(12) 1.39856(16)
N11B N -0.3519(3) -0.33896(12) 1.09752(12)
N12B N -0.4861(3) -0.37046(12) 0.94742(12)
N1A N -0.1020(3) -0.22565(13) 1.33052(13)
N1C N 0.1020(3) 0.22565(13) 0.66948(13)
N3A N 0.6951(3) -0.08458(12) 0.96497(13)
N3C N 0.3049(3) 0.08458(12) 1.03503(13)
N4A N 0.1245(3) 0.40420(12) 0.73930(13)
N4C N -0.1245(3) -0.40420(12) 1.26070(13)
Co1A Co -0.72572(4) -0.21378(2) 0.71591(2)
Co1A* Co 0.27428(4) -0.21378(2) 0.71591(2)
Co1C Co -0.27428(4) 0.21378(2) 1.28409(2)
Co1C* Co 0.72572(4) 0.21378(2) 1.28409(2)
Co2* Co -0.50000 0.00000 1.00000
Co2A Co -1.00000 -0.50000 1.50000
Co2A* Co 1.00000 0.50000 0.50000
N6B* N 0.5806(3) -0.02332(10) 1.13866(11)
N7B* N 0.6768(3) 0.10250(12) 1.00050(13)
C9B C -0.1899(4) 0.44988(15) -0.07544(19)
H1B H -0.20830 0.40180 -0.04320
C10B C -0.0408(4) 0.57780(16) -0.0943(2)
H2B H 0.04530 0.61850 -0.07550
C11B C -0.1488(4) 0.58821(16) -0.1718(2)
H3B H -0.13590 0.63620 -0.20500
C12B C -0.3879(4) 0.54400(18) -0.28614(19)
H4B H -0.31250 0.54250 -0.33350
H5B H -0.47820 0.50060 -0.29440
H6B H -0.44760 0.59730 -0.28560
C13B C -0.2936(4) 0.46264(16) -0.15387(19)
H7B H -0.38020 0.42290 -0.17470
C14B C -0.0571(3) 0.50684(14) -0.04226(16)
N13B N -0.2728(3) 0.53112(12) -0.20118(14)
#END
