
#######################################################################
#
#                 Cambridge Crystallographic Data Centre
#                                CCDC
#
#######################################################################
#
# If this CIF has been generated from an entry in the Cambridge
# Structural Database, then it will include bibliographic, chemical,
# crystal, experimental, refinement or atomic coordinate data resulting
# from the CCDC's data processing and validation procedures.
#
#######################################################################

data_CSD_CIF_CURXAQ
_audit_creation_date 2015-11-23
_audit_creation_method CSD-ConQuest-V1
_database_code_CSD CURXAQ
_database_code_depnum_ccdc_archive 'CCDC 1039223'
_chemical_formula_sum 'C20 H48 N1 Na1 O10 P4 S8 Zn1'
_chemical_formula_moiety
;
(C14 H28 Na1 O8 P4 S8 Zn1 1-)n,C6 H16 N1 1+,2(H2 O1)
;
_journal_coden_Cambridge 222
_journal_volume 44
_journal_year 2015
_journal_page_first 21073
_journal_name_full 'Dalton Trans. '
loop_
_publ_author_name
"D.Meltzer"
"H.E.Gottlieb"
"A.Amir"
"L.J.W.Shimon"
"B.Fischer"
_chemical_name_systematic
;
catena-[triethylammonium 
bis(\m-2,4-disulfanyl-2,4-disulfanylidene-1,5,8,11-tetraoxa-2,4-diphosphacyclo
tridecane)-sodium-zinc dihydrate]
;
_cell_volume   4044.610
_exptl_crystal_colour 'colorless'
_exptl_crystal_density_diffrn 1.529
_exptl_crystal_description 'needle'
_diffrn_ambient_temperature 100
#These two values have been output from a single CSD field.
_refine_ls_R_factor_gt 0.0594
_refine_ls_wR_factor_gt 0.0594
_symmetry_cell_setting monoclinic
_symmetry_space_group_name_H-M 'P 21/c'
_symmetry_Int_Tables_number 14
loop_
_symmetry_equiv_pos_site_id
_symmetry_equiv_pos_as_xyz
1 x,y,z
2 -x,1/2+y,1/2-z
3 -x,-y,-z
4 x,-1/2-y,-1/2+z
_cell_length_a 10.227(3)
_cell_length_b 19.931(6)
_cell_length_c 19.854(7)
_cell_angle_alpha 90
_cell_angle_beta 91.939(12)
_cell_angle_gamma 90
_cell_formula_units_Z 4
loop_
_atom_type_symbol
_atom_type_radius_bond
C 0.68
H 0.23
N 0.68
Na 1.66
O 0.68
P 1.05
S 1.02
Zn 1.22
loop_
_atom_site_label
_atom_site_type_symbol
_atom_site_fract_x
_atom_site_fract_y
_atom_site_fract_z
Zn1 Zn 0.90445(6) 0.11491(3) 0.80069(3)
S1 S 0.83787(12) 0.05538(6) 0.89319(6)
S2 S 0.88792(13) 0.02666(6) 0.72145(6)
S3 S 0.74798(11) 0.19806(6) 0.78027(6)
S4 S 1.11930(12) 0.15261(7) 0.80901(6)
S5 S 1.35788(11) 0.16854(7) 0.92167(7)
S6 S 0.87557(13) 0.06030(6) 1.05784(6)
S7 S 0.73505(15) -0.01456(6) 0.57929(7)
S8 S 0.58748(11) 0.26999(6) 0.65442(6)
P1 P 1.16688(11) 0.17176(6) 0.90655(6)
P2 P 0.91204(11) 0.10572(5) 0.97345(6)
P3 P 0.73021(10) 0.20807(5) 0.67941(6)
P4 P 0.81589(12) 0.05874(6) 0.63206(6)
O1 O 1.1078(3) 0.24359(16) 0.92849(18)
O2 O 0.9531(3) 0.35697(16) 0.91753(17)
O3 O 0.7425(3) 0.30973(15) 0.98657(16)
O4 O 0.8574(3) 0.18228(15) 0.97228(17)
O5 O 0.9290(3) 0.09465(16) 0.59011(18)
O6 O 1.1712(4) 0.15131(17) 0.5709(2)
O7 O 1.1066(3) 0.28021(17) 0.60234(17)
O8 O 0.8686(3) 0.22957(14) 0.64938(15)
Na1 Na 0.96771(16) 0.28942(8) 1.02605(8)
C1 C 1.0870(4) 0.1192(2) 0.9675(2)
H1 H 1.11740 0.13590 1.01230
H2 H 1.12580 0.07400 0.96260
C2 C 1.1546(6) 0.3045(3) 0.8965(3)
H3 H 1.21780 0.29310 0.86160
H4 H 1.19910 0.33380 0.93050
C3 C 1.0398(6) 0.3397(3) 0.8654(3)
H5 H 1.06850 0.38070 0.84200
H6 H 0.99470 0.31010 0.83200
C4 C 0.8242(6) 0.3706(2) 0.8912(3)
H7 H 0.79740 0.33570 0.85800
H8 H 0.82210 0.41470 0.86830
C5 C 0.7332(5) 0.3708(2) 0.9482(3)
H9 H 0.75400 0.40930 0.97820
H10 H 0.64230 0.37640 0.93030
C6 C 0.6723(4) 0.2555(2) 0.9551(2)
H11 H 0.68670 0.25580 0.90600
H12 H 0.57750 0.26100 0.96190
C7 C 0.7180(4) 0.1904(2) 0.9847(3)
H13 H 0.70380 0.18990 1.03380
H14 H 0.66780 0.15290 0.96380
C8 C 0.7017(4) 0.1286(2) 0.6362(2)
H15 H 0.67870 0.14040 0.58880
H16 H 0.62130 0.10980 0.65530
C9 C 1.0393(6) 0.0558(3) 0.5680(3)
H17 H 1.04120 0.05630 0.51820
H18 H 1.03090 0.00870 0.58300
C10 C 1.1607(6) 0.0852(3) 0.5969(3)
H19 H 1.15790 0.08630 0.64670
H20 H 1.23710 0.05800 0.58420
C11 C 1.2593(5) 0.1895(3) 0.6142(3)
H21 H 1.35090 0.17620 0.60660
H22 H 1.24060 0.18090 0.66200
C12 C 1.2409(5) 0.2609(3) 0.5986(3)
H23 H 1.29450 0.28810 0.63080
H24 H 1.27140 0.27010 0.55270
C13 C 1.0658(5) 0.2932(3) 0.6695(3)
H25 H 1.10250 0.33640 0.68570
H26 H 1.09820 0.25730 0.70020
C14 C 0.9189(4) 0.2957(2) 0.6692(2)
H27 H 0.88910 0.30750 0.71460
H28 H 0.88610 0.33020 0.63690
N1 N 0.5185(5) 0.4747(3) 0.6941(3)
H29 H 0.51170 0.45290 0.73920
C15 C 0.6548(6) 0.4662(3) 0.6745(3)
H30 H 0.68200 0.50720 0.65050
H31 H 0.65870 0.42840 0.64230
C16 C 0.7516(7) 0.4533(4) 0.7321(4)
H32 H 0.84000 0.45060 0.71480
H33 H 0.73000 0.41080 0.75410
H34 H 0.74750 0.49000 0.76480
C17 C 0.4804(6) 0.5479(3) 0.7033(3)
H35 H 0.48540 0.57120 0.65950
H36 H 0.38850 0.55000 0.71730
C18 C 0.5648(7) 0.5836(4) 0.7541(4)
H37 H 0.65360 0.58760 0.73740
H38 H 0.56730 0.55840 0.79640
H39 H 0.52910 0.62850 0.76180
C19 C 0.4279(7) 0.4386(4) 0.6482(4)
H40 H 0.33750 0.44840 0.66160
H41 H 0.44250 0.38990 0.65450
C20 C 0.4372(7) 0.4540(5) 0.5755(4)
H42 H 0.42360 0.50210 0.56820
H43 H 0.37020 0.42870 0.54980
H44 H 0.52410 0.44130 0.56040
O9 O 0.4293(6) 0.2816(2) 0.7987(3)
H45 H 0.41450 0.24730 0.82270
H46 H 0.47100 0.27000 0.76430
O10 O 0.4749(6) 0.4146(3) 0.8198(3)
H47 H 0.452(7) 0.3747(17) 0.809(4)
H48 H 0.413(5) 0.428(3) 0.844(4)
O5C O 0.9290(3) 0.40535(16) 1.09011(18)
O6C O 1.1712(4) 0.34869(17) 1.0709(2)
O7C O 1.1066(3) 0.21979(17) 1.10234(17)
O8C O 0.8686(3) 0.27043(14) 1.14938(15)
Na1C Na 0.96771(16) 0.21058(8) 0.52605(8)
#END
