
#######################################################################
#
#                 Cambridge Crystallographic Data Centre
#                                CCDC
#
#######################################################################
#
# If this CIF has been generated from an entry in the Cambridge
# Structural Database, then it will include bibliographic, chemical,
# crystal, experimental, refinement or atomic coordinate data resulting
# from the CCDC's data processing and validation procedures.
#
#######################################################################

data_CSD_CIF_CUSHEG
_audit_creation_date 2020-05-12
_audit_creation_method CSD-ConQuest-V1
_database_code_CSD CUSHEG
_database_code_depnum_ccdc_archive 'CCDC 1960307'
_chemical_formula_sum 'C114 H84 Co9 N10 O35'
_chemical_formula_moiety
;
(C110 H68 Co9 N8 O35 2-)n,2(C2 H8 N1 1+)
;
_journal_coden_Cambridge 4
_journal_volume 142
_journal_year 2020
_journal_page_first 9258
_journal_name_full 'J.Am.Chem.Soc. '
loop_
_publ_author_name
"Lizhen Liu"
"Zizhu Yao"
"Yingxiang Ye"
"Yike Yang"
"Quanjie Lin"
"Zhangjing Zhang"
"M.OKeeffe"
"Shengchang Xiang"
_chemical_name_systematic
;
catena-[bis(dimethylammonium) 
bis(\m-benzene-1,3,5-tribenzoato)-octakis(\m-isonicotinato)-(\m-1,4-benzenedic
arboxylato)-(\m-oxo)-bis(\m-hydroxo)-nona-cobalt(ii) unknown solvate]
;
_chemical_name_common
;
FJU-6
;
_cell_volume  18784.358
_exptl_crystal_colour 'pinkish black'
_exptl_crystal_density_diffrn 0.916
_exptl_crystal_description 'block'
_diffrn_ambient_temperature 291.1
_refine_special_details
;
Disordered diemthylammonium cation and solvent molecules were not modelled 
and the disordered density was taken into account using the SQUEEZE/PLATON 
procedure.
;
#These two values have been output from a single CSD field.
_refine_ls_R_factor_gt 0.097
_refine_ls_wR_factor_gt 0.097
_symmetry_cell_setting tetragonal
_symmetry_space_group_name_H-M 'P -4 n 2'
_symmetry_Int_Tables_number 118
loop_
_symmetry_equiv_pos_site_id
_symmetry_equiv_pos_as_xyz
1 x,y,z
2 y,-x,-z
3 -x,-y,z
4 -y,x,-z
5 1/2+y,1/2+x,1/2-z
6 1/2-y,1/2-x,1/2-z
7 1/2-x,1/2+y,1/2+z
8 1/2+x,1/2-y,1/2+z
_cell_length_a 21.8423(5)
_cell_length_b 21.8423(5)
_cell_length_c 39.3731(18)
_cell_angle_alpha 90
_cell_angle_beta 90
_cell_angle_gamma 90
_cell_formula_units_Z 4
loop_
_atom_type_symbol
_atom_type_radius_bond
C 0.68
H 0.23
Co 1.26
N 0.68
O 0.68
loop_
_atom_site_label
_atom_site_type_symbol
_atom_site_fract_x
_atom_site_fract_y
_atom_site_fract_z
Co1 Co 0.61661(11) 0.23289(11) 0.02376(8)
Co2 Co 0.94696(7) 0.44696(7) 0.25000
Co3 Co 0.73244(10) 0.11787(10) 0.02395(8)
Co4 Co 0.74717(12) 0.24840(11) 0.07368(6)
Co5 Co 0.95454(19) 0.54274(17) 0.17775(11)
O1 O 1.00000 0.50000 0.2828(3)
O2 O 0.6986(4) 0.2010(4) 0.03902(19)
O3 O 0.7600(6) 0.0926(6) 0.0716(4)
O4 O 0.8447(5) -0.1769(5) -0.0146(3)
O5 O 0.5802(4) 0.1454(5) 0.0290(3)
O6 O 0.7063(6) 0.1385(6) -0.0264(4)
O7 O 0.9051(5) 0.4014(6) 0.2087(3)
N1 N 0.8006(7) 0.3017(7) 0.1090(3)
O8 O 0.6287(6) 0.2041(6) -0.0273(4)
O9 O 0.3195(5) 0.3505(5) -0.0144(3)
O10 O 0.3219(4) 0.2546(4) -0.0419(3)
O11 O 0.6509(5) 0.0741(5) 0.0359(4)
C1 C 0.7941(8) -0.1569(8) -0.0293(5)
C2 C 0.3495(6) 0.3057(6) -0.0245(5)
C3 C 0.7919(8) -0.0968(8) -0.0115(5)
O12 O 0.7756(5) -0.1707(5) -0.0510(3)
C4 C 0.4475(6) 0.3316(6) 0.0008(4)
H1 H 0.43210 0.37110 0.00270
C5 C 0.5436(7) 0.0477(7) 0.0335(4)
C6 C 0.5587(7) -0.0206(7) 0.0341(5)
H2 H 0.59900 -0.03420 0.03300
C7 C 0.5956(7) 0.0906(7) 0.0331(4)
C8 C 0.8293(8) -0.0564(8) 0.0085(5)
H3 H 0.86570 -0.06980 0.01820
C9 C 0.7427(7) -0.0606(7) -0.0274(5)
H4 H 0.72620 -0.06990 -0.04860
C10 C 0.4124(6) 0.2880(5) -0.0164(4)
C11 C 0.8680(7) 0.3755(7) 0.1524(4)
C12 C 0.4876(7) 0.0599(8) 0.0364(5)
H5 H 0.47750 0.10060 0.04060
C13 C 0.8429(8) 0.3408(8) 0.0970(4)
H6 H 0.84990 0.34230 0.07380
C14 C 0.8763(8) 0.3792(8) 0.1181(4)
H7 H 0.90400 0.40700 0.10900
C15 C 0.8209(8) -0.0234(7) 0.2819(4)
C16 C 0.4353(6) 0.2281(6) -0.0176(4)
H8 H 0.41100 0.19340 -0.01970
C17 C 0.6611(10) 0.1641(9) -0.0419(4)
C18 C 0.8000(6) 0.0800(5) 0.1250(3)
C19 C 0.8177(6) 0.1118(4) 0.1540(3)
H9 H 0.81970 0.15440 0.15360
C20 C 0.8325(6) 0.0801(5) 0.1835(3)
H10 H 0.84430 0.10150 0.20280
C21 C 0.8296(6) 0.0166(5) 0.1840(3)
C22 C 0.8119(6) -0.0153(4) 0.1551(3)
H11 H 0.80990 -0.05780 0.15540
C23 C 0.7971(6) 0.0164(5) 0.1256(3)
H12 H 0.78530 -0.00490 0.10620
C24 C 0.8213(6) 0.0082(7) 0.2503(5)
H13 H 0.80650 0.04810 0.25070
C25 C 0.7742(10) 0.1166(9) 0.0993(5)
C26 C 0.8007(7) 0.2926(7) 0.1420(4)
H14 H 0.77430 0.26340 0.15100
C27 C 0.8383(6) 0.3246(6) 0.1639(4)
H15 H 0.84330 0.31160 0.18620
C28 C 0.8667(8) -0.0716(7) 0.2227(5)
H16 H 0.88720 -0.08820 0.20420
C29 C 0.8417(8) -0.0139(7) 0.2180(5)
O13 O 0.7761(6) 0.1713(6) 0.1020(4)
N2 N 0.7641(6) 0.0287(7) 0.0031(4)
C30 C 0.5046(6) 0.3189(6) 0.0151(4)
H17 H 0.52570 0.34820 0.02760
C31 C 0.4999(6) 0.2272(6) -0.0154(4)
H18 H 0.52290 0.20450 -0.03070
N3 N 0.5287(6) 0.2606(5) 0.0100(4)
O14 O 0.9553(5) 0.4417(5) 0.1591(3)
C32 C 0.9062(7) 0.4188(7) 0.1756(5)
C33 C 0.8090(8) 0.0032(8) 0.0129(5)
H19 H 0.83510 0.02760 0.02570
C34 C 0.7225(8) -0.0094(8) -0.0073(5)
H20 H 0.68140 -0.00390 -0.00200
O15 O 0.7603(6) 0.0902(6) 0.4288(4)
C35 C 0.8369(8) -0.0860(7) 0.2817(5)
H21 H 0.82930 -0.11120 0.30030
C36 C 0.8648(7) -0.1083(6) 0.2522(5)
C37 C 0.9244(5) -0.1989(5) 0.2691(3)
H22 H 0.93370 -0.17610 0.28840
C38 C 0.9494(5) -0.2569(5) 0.2648(3)
H23 H 0.97550 -0.27290 0.28120
C39 C 0.9355(6) -0.2909(4) 0.2360(3)
C40 C 0.8965(6) -0.2669(5) 0.2115(3)
H24 H 0.88720 -0.28970 0.19220
C41 C 0.8715(5) -0.2089(5) 0.2157(3)
H25 H 0.84540 -0.19290 0.19930
C42 C 0.8854(5) -0.1749(4) 0.2445(3)
C43 C 0.7786(6) 0.0809(5) 0.3694(3)
C44 C 0.7771(5) 0.0173(5) 0.3711(3)
H26 H 0.76740 -0.00200 0.39140
C45 C 0.7903(6) -0.0174(4) 0.3424(3)
H27 H 0.78930 -0.05990 0.34360
C46 C 0.8048(6) 0.0115(5) 0.3120(3)
C47 C 0.8063(5) 0.0750(5) 0.3103(3)
H28 H 0.81600 0.09430 0.28990
C48 C 0.7931(5) 0.1097(4) 0.3390(3)
H29 H 0.79410 0.15220 0.33780
O16 O 0.9895(5) -0.3777(5) 0.2507(5)
O17 O 0.9583(6) -0.3678(6) 0.1992(4)
C49 C 0.9616(9) -0.3448(8) 0.2287(5)
O18 O 0.7543(6) 0.1757(6) 0.3950(3)
C50 C 0.7701(9) 0.1166(9) 0.4019(5)
C51 C 0.5909(6) 0.1660(4) -0.0945(3)
H30 H 0.57850 0.20500 -0.08810
C52 C 0.6301(6) 0.1327(6) -0.0737(2)
C53 C 0.6486(5) 0.0743(6) -0.0833(3)
H31 H 0.67480 0.05200 -0.06940
C54 C 0.6280(6) 0.0492(4) -0.1137(3)
H32 H 0.64040 0.01020 -0.12010
N4 N 0.5888(5) 0.0825(5) -0.1345(2)
C55 C 0.5702(5) 0.1409(5) -0.1249(3)
H33 H 0.54400 0.16320 -0.13880
O5B O 0.4198(4) -0.1454(5) 0.0290(3)
O11B O 0.3491(5) -0.0741(5) 0.0359(4)
C5B C 0.4564(7) -0.0477(7) 0.0335(4)
C6B C 0.4413(7) 0.0206(7) 0.0341(5)
H2B H 0.40100 0.03420 0.03300
C7B C 0.4044(7) -0.0906(7) 0.0331(4)
C12B C 0.5124(7) -0.0599(8) 0.0364(5)
H5B H 0.52250 -0.10060 0.04060
Co1A Co 0.23289(11) 0.38339(11) -0.02376(8)
Co3A Co 0.11787(10) 0.26756(10) -0.02395(8)
Co4A Co 0.24840(12) 0.25283(11) -0.07368(6)
Co5A Co 0.54274(19) 0.04546(17) -0.17775(11)
O2A O 0.2010(4) 0.3014(4) -0.03902(19)
O3A O 0.0926(6) 0.2400(6) -0.0716(4)
O4A O -0.1769(5) 0.1553(5) 0.0146(3)
O6A O 0.1385(6) 0.2937(6) 0.0264(4)
O7A O 0.4014(5) 0.0949(6) -0.2087(3)
N1A N 0.3017(7) 0.1994(7) -0.1090(3)
O8A O 0.2041(6) 0.3713(6) 0.0273(4)
O9A O 0.3505(5) 0.6805(5) 0.0144(3)
O10A O 0.2546(4) 0.6781(4) 0.0419(3)
C1A C -0.1569(8) 0.2059(8) 0.0293(5)
C2A C 0.3057(6) 0.6505(6) 0.0245(5)
C3A C -0.0968(8) 0.2081(8) 0.0115(5)
O12A O -0.1707(5) 0.2244(5) 0.0510(3)
C4A C 0.3316(6) 0.5525(6) -0.0008(4)
H1A H 0.37110 0.56790 -0.00270
C8A C -0.0564(8) 0.1707(8) -0.0085(5)
H3A H -0.06980 0.13430 -0.01820
C9A C -0.0606(7) 0.2573(7) 0.0274(5)
H4A H -0.06990 0.27380 0.04860
C10A C 0.2880(6) 0.5876(5) 0.0164(4)
C11A C 0.3755(7) 0.1320(7) -0.1524(4)
C13A C 0.3408(8) 0.1571(8) -0.0970(4)
H6A H 0.34230 0.15010 -0.07380
C14A C 0.3792(8) 0.1237(8) -0.1181(4)
H7A H 0.40700 0.09600 -0.10900
C15A C -0.0234(8) 0.1791(7) -0.2819(4)
C16A C 0.2281(6) 0.5647(6) 0.0176(4)
H8A H 0.19340 0.58900 0.01970
C17A C 0.1641(10) 0.3389(9) 0.0419(4)
C18A C 0.0800(6) 0.2000(5) -0.1250(3)
C19A C 0.1118(6) 0.1823(4) -0.1540(3)
H9A H 0.15440 0.18030 -0.15360
C20A C 0.0801(6) 0.1675(5) -0.1835(3)
H10A H 0.10150 0.15570 -0.20280
C21A C 0.0166(6) 0.1704(5) -0.1840(3)
C22A C -0.0153(6) 0.1881(4) -0.1551(3)
H11A H -0.05780 0.19010 -0.15540
C23A C 0.0164(6) 0.2029(5) -0.1256(3)
H12A H -0.00490 0.21470 -0.10620
C24A C 0.0082(6) 0.1787(7) -0.2503(5)
H13A H 0.04810 0.19350 -0.25070
C25A C 0.1166(10) 0.2258(9) -0.0993(5)
C26A C 0.2926(7) 0.1993(7) -0.1420(4)
H14A H 0.26340 0.22570 -0.15100
C27A C 0.3246(6) 0.1617(6) -0.1639(4)
H15A H 0.31160 0.15670 -0.18620
C28A C -0.0716(8) 0.1333(7) -0.2227(5)
H16A H -0.08820 0.11280 -0.20420
C29A C -0.0139(8) 0.1583(7) -0.2180(5)
O13A O 0.1713(6) 0.2239(6) -0.1020(4)
N2A N 0.0287(6) 0.2359(7) -0.0031(4)
C30A C 0.3189(6) 0.4954(6) -0.0151(4)
H17A H 0.34820 0.47430 -0.02760
C31A C 0.2272(6) 0.5001(6) 0.0154(4)
H18A H 0.20450 0.47710 0.03070
N3A N 0.2606(6) 0.4713(5) -0.0100(4)
O14A O 0.4417(5) 0.0447(5) -0.1591(3)
C32A C 0.4188(7) 0.0938(7) -0.1756(5)
C33A C 0.0032(8) 0.1910(8) -0.0129(5)
H19A H 0.02760 0.16490 -0.02570
C34A C -0.0094(8) 0.2775(8) 0.0073(5)
H20A H -0.00390 0.31860 0.00200
O15A O 0.0902(6) 0.2397(6) -0.4288(4)
C35A C -0.0860(8) 0.1631(7) -0.2817(5)
H21A H -0.11120 0.17070 -0.30030
C36A C -0.1083(7) 0.1352(6) -0.2522(5)
C37A C -0.1989(5) 0.0756(5) -0.2691(3)
H22A H -0.17610 0.06630 -0.28840
C38A C -0.2569(5) 0.0506(5) -0.2648(3)
H23A H -0.27290 0.02450 -0.28120
C39A C -0.2909(6) 0.0645(4) -0.2360(3)
C40A C -0.2669(6) 0.1035(5) -0.2115(3)
H24A H -0.28970 0.11280 -0.19220
C41A C -0.2089(5) 0.1285(5) -0.2157(3)
H25A H -0.19290 0.15460 -0.19930
C42A C -0.1749(5) 0.1146(4) -0.2445(3)
C43A C 0.0809(6) 0.2214(5) -0.3694(3)
C44A C 0.0173(5) 0.2229(5) -0.3711(3)
H26A H -0.00200 0.23260 -0.39140
C45A C -0.0174(6) 0.2097(4) -0.3424(3)
H27A H -0.05990 0.21070 -0.34360
C46A C 0.0115(6) 0.1952(5) -0.3120(3)
C47A C 0.0750(5) 0.1937(5) -0.3103(3)
H28A H 0.09430 0.18400 -0.28990
C48A C 0.1097(5) 0.2069(4) -0.3390(3)
H29A H 0.15220 0.20590 -0.33780
O16A O -0.3777(5) 0.0105(5) -0.2507(5)
O17A O -0.3678(6) 0.0417(6) -0.1992(4)
C49A C -0.3448(9) 0.0384(8) -0.2287(5)
O18A O 0.1757(6) 0.2457(6) -0.3950(3)
C50A C 0.1166(9) 0.2299(9) -0.4019(5)
C51A C 0.1660(6) 0.4091(4) 0.0945(3)
H30A H 0.20500 0.42150 0.08810
C52A C 0.1327(6) 0.3699(6) 0.0737(2)
C53A C 0.0743(5) 0.3514(6) 0.0833(3)
H31A H 0.05200 0.32520 0.06940
C54A C 0.0492(6) 0.3720(4) 0.1137(3)
H32A H 0.01020 0.35960 0.12010
N4A N 0.0825(5) 0.4112(5) 0.1345(2)
C55A C 0.1409(5) 0.4298(5) 0.1249(3)
H33A H 0.16320 0.45600 0.13880
Co1B Co 0.38339(11) -0.23289(11) 0.02376(8)
Co1B* Co 0.38339(11) 0.76711(11) 0.02376(8)
Co1D Co 0.73289(11) 0.11661(11) 0.47624(8)
Co1G Co 0.11661(11) 0.26711(11) -0.47624(8)
Co2A Co 0.44696(7) 0.05304(7) -0.25000
Co2B Co 1.05304(7) -0.44696(7) 0.25000
Co2B* Co 1.05304(7) 0.55304(7) 0.25000
Co2C Co -0.44696(7) -0.05304(7) -0.25000
Co3* Co -0.26756(10) 0.11787(10) 0.02395(8)
Co3B Co 0.26756(10) -0.11787(10) 0.02395(8)
Co3C Co 0.88213(10) -0.26756(10) -0.02395(8)
Co4* Co -0.25283(12) 0.24840(11) 0.07368(6)
Co4B Co 0.25283(12) 0.75160(11) 0.07368(6)
Co4C Co 0.75160(12) -0.25283(11) -0.07368(6)
Co4D Co 0.74840(12) 0.24717(11) 0.42632(6)
Co4G Co 0.24717(12) 0.25160(11) -0.42632(6)
Co5* Co 0.95454(19) -0.45726(17) 0.17775(11)
Co5A* Co -0.45726(19) 0.04546(17) -0.17775(11)
Co5B Co 0.04546(19) 0.45726(17) 0.17775(11)
Co5B* Co 1.04546(19) 0.45726(17) 0.17775(11)
Co5C Co 0.45726(19) -0.04546(17) -0.17775(11)
Co5D Co 1.04274(19) 0.45454(17) 0.32225(11)
Co5E Co 0.95726(19) 0.54546(17) 0.32225(11)
O1D O 1.00000 0.50000 0.2172(3)
O1F O 0.50000 0.00000 -0.2172(3)
O4A* O 0.8231(5) 0.1553(5) 0.0146(3)
O4B O 0.1553(5) 0.1769(5) -0.0146(3)
O5A O 0.1454(4) 0.4198(5) -0.0290(3)
O7D O 0.9014(5) 0.4051(6) 0.2913(3)
O9C O 0.6495(5) 0.3195(5) 0.0144(3)
O10C O 0.7454(4) 0.3219(4) 0.0419(3)
O11A O 0.0741(5) 0.3491(5) -0.0359(4)
O12A* O 0.8293(5) 0.2244(5) 0.0510(3)
O12B O 0.2244(5) 0.1707(5) -0.0510(3)
O14B O 1.0447(5) 0.5583(5) 0.1591(3)
O14C O 0.5583(5) -0.0447(5) -0.1591(3)
O15D O 0.5902(6) 0.2603(6) 0.0712(4)
O15G O 0.2603(6) 0.4098(6) -0.0712(4)
O16B O 1.0105(5) 0.3777(5) 0.2507(5)
O16E O 0.8777(5) 0.5105(5) 0.2493(5)
O17* O 0.9583(6) 0.6322(6) 0.1992(4)
O17A* O 0.6322(6) 0.0417(6) -0.1992(4)
O18D O 0.6757(6) 0.2543(6) 0.1050(3)
O18G O 0.2543(6) 0.3243(6) -0.1050(3)
N4C N 0.9175(5) 0.5888(5) 0.1345(2)
#END
