
#######################################################################
#
#                 Cambridge Crystallographic Data Centre
#                                CCDC
#
#######################################################################
#
# If this CIF has been generated from an entry in the Cambridge
# Structural Database, then it will include bibliographic, chemical,
# crystal, experimental, refinement or atomic coordinate data resulting
# from the CCDC's data processing and validation procedures.
#
#######################################################################

data_CSD_CIF_CUSHUW
_audit_creation_date 2020-05-12
_audit_creation_method CSD-ConQuest-V1
_database_code_CSD CUSHUW
_database_code_depnum_ccdc_archive 'CCDC 1960310'
_chemical_formula_sum 'C122 H100 Co9 N10 O35'
_chemical_formula_moiety
;
(C118 H84 Co9 N8 O35 2-)n,2(C2 H8 N1 1+)
;
_journal_coden_Cambridge 4
_journal_volume 142
_journal_year 2020
_journal_page_first 9258
_journal_name_full 'J.Am.Chem.Soc. '
loop_
_publ_author_name
"Lizhen Liu"
"Zizhu Yao"
"Yingxiang Ye"
"Yike Yang"
"Quanjie Lin"
"Zhangjing Zhang"
"M.OKeeffe"
"Shengchang Xiang"
_chemical_name_systematic
;
catena-[bis(dimethylammonium) 
bis(\m-benzene-1,3,5-tribenzoato)-octakis(\m-3-methyl-isonicotinato)-(\m-1,4-b
enzenedicarboxylato)-(\m-oxo)-bis(\m-hydroxo)-nona-cobalt(ii) unknown 
solvate]
;
_chemical_name_common
;
FJU-6-Me-INA
;
_cell_volume  18806.251
_exptl_crystal_colour 'pinkish pink'
_exptl_crystal_density_diffrn 0.945
_exptl_crystal_description 'block'
_diffrn_ambient_temperature 293.6
_refine_special_details
;
Disordered diemthylammonium and solvent molecules were not modelled and the 
disordered density was taken into account using the SQUEEZE/PLATON procedure.
;
#These two values have been output from a single CSD field.
_refine_ls_R_factor_gt 0.1208
_refine_ls_wR_factor_gt 0.1208
_symmetry_cell_setting tetragonal
_symmetry_space_group_name_H-M 'P -4 n 2'
_symmetry_Int_Tables_number 118
loop_
_symmetry_equiv_pos_site_id
_symmetry_equiv_pos_as_xyz
1 x,y,z
2 y,-x,-z
3 -x,-y,z
4 -y,x,-z
5 1/2+y,1/2+x,1/2-z
6 1/2-y,1/2-x,1/2-z
7 1/2-x,1/2+y,1/2+z
8 1/2+x,1/2-y,1/2+z
_cell_length_a 21.8598(3)
_cell_length_b 21.8598(3)
_cell_length_c 39.3559(11)
_cell_angle_alpha 90
_cell_angle_beta 90
_cell_angle_gamma 90
_cell_formula_units_Z 4
loop_
_atom_type_symbol
_atom_type_radius_bond
C 0.68
H 0.23
Co 1.26
N 0.68
O 0.68
loop_
_atom_site_label
_atom_site_type_symbol
_atom_site_fract_x
_atom_site_fract_y
_atom_site_fract_z
Co1 Co 0.88394(10) 0.2683(1) 0.02469(7)
O1 O 0.8004(3) 0.3005(3) 0.03928(19)
O2 O 0.9239(5) 0.3497(4) 0.0341(4)
O3 O 0.8467(5) 0.1857(5) 0.0149(3)
O4 O 0.9064(6) 0.2376(7) 0.0703(4)
O5 O 0.8717(8) 0.2975(8) -0.0262(4)
N1 N 0.9707(5) 0.2357(6) 0.0101(3)
Co2 Co 0.76822(11) 0.38361(10) 0.02483(7)
Co3 Co 0.75128(11) 0.2520(1) 0.07402(5)
C1 C 0.9068(7) 0.4058(6) 0.0363(4)
C2 C 0.7984(7) 0.1523(6) 0.0235(4)
C3 C 0.8818(6) 0.2238(8) 0.0983(4)
C4 C 0.8515(9) 0.3456(10) -0.0363(5)
O6 O 0.6797(5) 0.3470(5) 0.0100(3)
O7 O 0.8539(6) 0.4225(5) 0.0355(4)
O8 O 0.7999(6) 0.3707(6) -0.0248(3)
N2 N 0.7380(6) 0.4752(5) 0.0089(4)
O9 O 0.7413(6) 0.4129(6) 0.0737(3)
O10 O 0.7730(6) 0.1703(5) 0.0510(4)
O11 O 0.6761(6) 0.2637(7) 0.0436(3)
O12 O 0.8276(7) 0.2279(12) 0.1018(4)
N3 N 0.6995(5) 0.1949(5) 0.1080(2)
O13 O 0.7348(9) 0.3244(6) 0.1040(4)
C5 C 0.9582(7) 0.4536(6) 0.0357(5)
C6 C 0.7846(9) 0.0843(6) 0.0131(5)
C7 C 0.9178(5) 0.1994(10) 0.1270(3)
C8 C 0.8748(9) 0.3785(6) -0.0695(3)
C9 C 0.6564(7) 0.3064(8) 0.0237(5)
C10 C 0.7148(6) 0.1342(5) 0.1139(3)
C11 C 0.6513(6) 0.2216(5) 0.1257(3)
C12 C 1.0128(9) 0.4417(7) 0.0394(5)
C13 C 0.9378(9) 0.5188(6) 0.0285(6)
C14 C 0.7486(9) 0.0845(7) -0.0159(5)
C15 C 0.8121(8) 0.0439(8) 0.0322(5)
C16 C 0.8882(5) 0.1866(11) 0.1575(3)
C17 C 0.9813(5) 0.2028(10) 0.1260(3)
C18 C 0.8920(9) 0.3365(4) -0.0942(4)
C19 C 0.8829(8) 0.4407(5) -0.0751(3)
C20 C 0.5915(6) 0.2894(6) 0.0117(4)
C21 C 0.6820(8) 0.1001(4) 0.1375(4)
H1 H 0.74700 0.11630 0.10210
H2 H 0.64100 0.26230 0.12170
C22 C 0.6185(6) 0.1876(6) 0.1493(4)
H3 H 1.02300 0.40500 0.04980
H4 H 0.90080 0.53100 0.01890
C23 C 0.7423(9) 0.0233(8) -0.0244(5)
H5 H 0.73230 0.11820 -0.02710
C24 C 0.8005(11) -0.0083(8) 0.0172(5)
C25 C 0.8477(13) 0.0499(11) 0.0698(5)
H6 H 0.84580 0.18430 0.15820
C26 C 0.9221(7) 0.1772(10) 0.1869(3)
C27 C 1.0152(5) 0.1934(11) 0.1555(3)
H7 H 1.00110 0.21130 0.10570
H8 H 0.88660 0.29490 -0.09050
C28 C 0.9173(8) 0.3568(5) -0.1246(3)
C29 C 0.9082(8) 0.4610(4) -0.1055(4)
C30 C 0.8750(13) 0.5003(8) -0.0587(6)
C31 C 0.5649(7) 0.2335(7) 0.0209(5)
C32 C 0.5569(7) 0.3292(7) -0.0067(5)
C33 C 0.6338(7) 0.1268(6) 0.1552(3)
C34 C 0.7106(12) 0.0632(12) 0.1566(7)
H9 H 0.58630 0.20540 0.16110
H10 H 0.71830 0.01670 -0.04360
H11 H 0.82200 -0.04020 0.02720
H12 H 0.89100 0.04610 0.06660
H13 H 0.83370 0.01790 0.08470
H14 H 0.83860 0.08890 0.07980
H15 H 0.90230 0.16870 0.20730
C35 C 0.9856(7) 0.1806(10) 0.1859(3)
H16 H 1.05760 0.19570 0.15480
H17 H 0.92880 0.32870 -0.14120
N4 N 0.9254(8) 0.4190(6) -0.1303(3)
H18 H 0.91360 0.50260 -0.10930
H19 H 0.82620 0.52320 -0.05570
H20 H 0.89760 0.54740 -0.06480
H21 H 0.88450 0.50630 -0.02970
H22 H 0.58630 0.20440 0.03340
C36 C 0.5062(7) 0.2240(8) 0.0105(5)
C37 C 0.4975(6) 0.3148(7) -0.0176(5)
C38 C 0.5834(11) 0.3915(9) -0.0192(8)
C39 C 0.6047(13) 0.0793(10) 0.1779(5)
H23 H 0.73080 0.08550 0.17430
H24 H 0.74040 0.04130 0.14340
H25 H 0.68220 0.03470 0.16640
C40 C 1.0148(5) 0.1577(7) 0.2197(3)
Co4 Co 0.95461(16) 0.45759(19) -0.17614(9)
H26 H 0.48690 0.18830 0.01750
H27 H 0.47490 0.34210 -0.03060
H28 H 0.59910 0.41390 -0.00010
H29 H 0.55150 0.41480 -0.02990
H30 H 0.61570 0.38420 -0.03520
O14 O 0.6022(6) 0.0929(5) 0.2094(3)
O15 O 0.5497(10) 0.0479(8) 0.1621(4)
C41 C 1.0749(6) 0.1370(7) 0.2206(3)
C42 C 0.9876(4) 0.1808(7) 0.2489(4)
O16 O 1.00000 0.50000 -0.2170(2)
O17 O 0.9639(8) 0.3675(6) -0.1951(4)
Co5 Co 0.55318(7) 0.05318(7) 0.25000
H31 H 1.09310 0.12150 0.20110
C43 C 1.1078(4) 0.1394(8) 0.2508(4)
H32 H 0.94740 0.19470 0.24820
C44 C 1.0205(6) 0.1833(8) 0.2791(3)
C45 C 1.0806(6) 0.1625(9) 0.2800(3)
C46 C 1.1727(8) 0.1059(11) 0.2426(6)
C47 C 0.9809(8) 0.1846(11) 0.3096(4)
O18 O 0.9902(5) 0.3767(4) -0.2495(3)
H33 H 1.10260 0.16420 0.30030
C48 C 1.1949(10) 0.0662(14) 0.2670(6)
C49 C 1.2046(9) 0.1256(11) 0.2146(6)
C50 C 0.9174(8) 0.1814(12) 0.3103(4)
C51 C 1.0128(6) 0.2039(11) 0.3382(5)
C52 C 1.2601(10) 0.0557(13) 0.2607(5)
H34 H 1.17210 0.04890 0.28450
C53 C 1.2634(9) 0.1030(11) 0.2141(5)
H35 H 1.18840 0.15120 0.19800
H36 H 0.89600 0.16850 0.29110
C54 C 0.8858(6) 0.1976(12) 0.3396(5)
C55 C 0.9813(8) 0.2201(10) 0.3675(4)
H37 H 1.05530 0.20610 0.33770
H38 H 1.28120 0.03820 0.27880
C56 C 1.2924(8) 0.0666(10) 0.2347(5)
H39 H 1.28660 0.11630 0.19570
H40 H 0.84340 0.19540 0.34010
C57 C 0.9178(8) 0.2169(10) 0.3682(4)
H41 H 1.00260 0.23300 0.38660
C58 C 1.3525(7) 0.0329(9) 0.2248(4)
C59 C 0.876(3) 0.2323(13) 0.3976(9)
C13B C 1.0622(9) 0.4812(6) 0.0285(6)
C12B C 0.9872(9) 0.5583(7) 0.0394(5)
C5B C 1.0418(7) 0.5464(6) 0.0357(5)
H4B H 1.09920 0.46900 0.01890
H3B H 0.97700 0.59500 0.04980
N1C N 0.7643(5) -0.0293(6) -0.0101(3)
C1B C 1.0932(7) 0.5942(6) 0.0363(4)
Co1C Co 0.7317(1) -0.11606(10) -0.02469(7)
N2A N 0.4752(6) 0.2620(5) -0.0089(4)
O2B O 1.0761(5) 0.6503(4) 0.0341(4)
O7B O 1.1461(6) 0.5775(5) 0.0355(4)
Co4B Co 1.04539(16) 0.54241(19) -0.17614(9)
O15A O 1.0479(10) 0.4503(8) -0.1621(4)
O15C O 0.9521(10) 0.5497(8) -0.1621(4)
Co2A Co 0.38361(11) 0.23178(10) -0.02483(7)
Co4A Co 0.45759(16) 0.04539(19) 0.17614(9)
Co4C Co 0.54241(16) -0.04539(19) 0.17614(9)
Co1B Co 1.11606(10) 0.7317(1) 0.02469(7)
Co2B Co 1.23178(11) 0.61639(10) 0.02483(7)
Co5A Co 1.05318(7) 0.44682(7) -0.25000
Co5C Co 0.94682(7) 0.55318(7) -0.25000
O1A O 0.3005(3) 0.1996(3) -0.03928(19)
O6A O 0.3470(5) 0.3203(5) -0.0100(3)
O8A O 0.3707(6) 0.2001(6) 0.0248(3)
O9A O 0.4129(6) 0.2587(6) -0.0737(3)
O7A O 0.4225(6) 0.1461(5) -0.0355(4)
O16A O 0.50000 0.00000 0.2170(2)
N4A N 0.4190(8) 0.0746(6) 0.1303(3)
O15B O 0.4503(10) -0.0479(8) 0.1621(4)
O17A O 0.3675(8) 0.0361(6) 0.1951(4)
O16D O 1.00000 0.50000 -0.2830(2)
O18E O 1.1233(5) 0.5098(4) -0.2505(3)
O14A O 1.0929(6) 0.3978(5) -0.2094(3)
O14G O 1.1022(6) 0.4071(5) -0.2906(3)
Co1A Co 0.2683(1) 0.11606(10) -0.02469(7)
Co3A Co 0.25200(11) 0.24872(10) -0.07402(5)
C9A C 0.3064(7) 0.3436(8) -0.0237(5)
C4A C 0.3456(9) 0.1485(10) 0.0363(5)
C28A C 0.3568(8) 0.0827(5) 0.1246(3)
C29A C 0.4610(8) 0.0918(4) 0.1055(4)
O3A O 0.1857(5) 0.1533(5) -0.0149(3)
O4A O 0.2376(6) 0.0936(7) -0.0703(4)
O5A O 0.2975(8) 0.1283(8) 0.0262(4)
O2A O 0.3497(5) 0.0761(4) -0.0341(4)
N1A N 0.2357(5) 0.0293(6) -0.0101(3)
O10A O 0.1703(6) 0.2270(5) -0.0510(4)
O11A O 0.2637(6) 0.3239(7) -0.0436(3)
O12A O 0.2279(7) 0.1724(12) -0.1018(4)
N3A N 0.1949(5) 0.3005(5) -0.1080(2)
O13A O 0.3244(9) 0.2652(6) -0.1040(4)
C20A C 0.2894(6) 0.4085(6) -0.0117(4)
C8A C 0.3785(9) 0.1252(6) 0.0695(3)
C18A C 0.3365(9) 0.1080(4) 0.0942(4)
H17A H 0.32870 0.07120 0.14120
H18A H 0.50260 0.08640 0.10930
C19A C 0.4407(8) 0.1171(5) 0.0751(3)
C2A C 0.1523(7) 0.2016(6) -0.0235(4)
C3A C 0.2238(6) 0.1182(8) -0.0983(4)
C10A C 0.1342(6) 0.2852(5) -0.1139(3)
C11A C 0.2216(6) 0.3487(5) -0.1257(3)
C31A C 0.2335(7) 0.4351(7) -0.0209(5)
C32A C 0.3292(7) 0.4431(7) 0.0067(5)
H8A H 0.29490 0.11340 0.09050
C30A C 0.5003(13) 0.1250(8) 0.0587(6)
C6A C 0.0843(9) 0.2154(6) -0.0131(5)
C7A C 0.1994(5) 0.0822(10) -0.1270(3)
C21A C 0.1001(8) 0.3180(4) -0.1375(4)
H1A H 0.11630 0.25300 -0.10210
H2A H 0.26230 0.35900 -0.12170
C22A C 0.1876(6) 0.3815(6) -0.1493(4)
H22A H 0.20440 0.41370 -0.03340
C36A C 0.2240(7) 0.4938(8) -0.0105(5)
C37A C 0.3148(6) 0.5025(7) 0.0176(5)
C38A C 0.3915(11) 0.4166(9) 0.0192(8)
H19A H 0.52320 0.17380 0.05570
H20A H 0.54740 0.10240 0.06480
H21A H 0.50630 0.11550 0.02970
Co4A* Co 1.45759(16) 0.04539(19) 0.17614(9)
C14A C 0.0845(9) 0.2514(7) 0.0159(5)
C15A C 0.0439(8) 0.1879(8) -0.0322(5)
C16A C 0.1866(5) 0.1118(11) -0.1575(3)
C17A C 0.2028(5) 0.0187(10) -0.1260(3)
C33A C 0.1268(7) 0.3662(6) -0.1552(3)
C34A C 0.0632(12) 0.2894(12) -0.1566(7)
H9A H 0.20540 0.41370 -0.16110
N2B N 0.2620(6) 0.5248(5) 0.0089(4)
H26A H 0.18830 0.51310 -0.01750
H27A H 0.34210 0.52510 0.03060
H28A H 0.41390 0.40090 0.00010
H29A H 0.41480 0.44850 0.02990
H30A H 0.38420 0.38430 0.03520
O18A O 1.3767(5) 0.0098(4) 0.2495(3)
O17A* O 1.3675(8) 0.0361(6) 0.1951(4)
O9D O 0.9129(6) 0.2413(6) 0.4263(3)
O13D O 0.8244(9) 0.2348(6) 0.3960(4)
C23A C 0.0233(9) 0.2577(8) 0.0244(5)
H5A H 0.11820 0.26770 0.02710
C24A C -0.0083(11) 0.1995(8) -0.0172(5)
C25A C 0.0499(13) 0.1523(11) -0.0698(5)
H6A H 0.18430 0.15420 -0.15820
C26A C 0.1772(7) 0.0779(10) -0.1869(3)
C27A C 0.1934(5) -0.0152(11) -0.1555(3)
H7A H 0.21130 -0.00110 -0.10570
C39A C 0.0793(13) 0.3953(10) -0.1779(5)
H23A H 0.08550 0.26920 -0.17430
H24A H 0.04130 0.25960 -0.14340
H25A H 0.03470 0.31780 -0.16640
Co2B* Co 0.23178(11) 0.61639(10) 0.02483(7)
Co3D Co 0.75200(11) 0.25128(10) 0.42598(5)
Co5B Co 1.44682(7) -0.05318(7) 0.25000
Co2D Co 0.88361(11) 0.26822(10) 0.47517(7)
N1* N -0.0293(5) 0.2357(6) 0.0101(3)
H10A H 0.01670 0.28170 0.04360
H11A H -0.04020 0.17800 -0.02720
H12A H 0.04610 0.10900 -0.06660
H13A H 0.01790 0.16630 -0.08470
H14A H 0.08890 0.16140 -0.07980
H15A H 0.16870 0.09770 -0.20730
C35A C 0.1806(7) 0.0144(10) -0.1859(3)
H16A H 0.19570 -0.05760 -0.15480
O14A* O 0.0929(6) 0.3978(5) -0.2094(3)
O15A* O 0.0479(10) 0.4503(8) -0.1621(4)
Co1* Co -0.11606(10) 0.2683(1) 0.02469(7)
C40A C 0.1577(5) -0.0148(7) -0.2197(3)
Co5A* Co 0.05318(7) 0.44682(7) -0.25000
Co4* Co -0.04539(16) 0.45759(19) -0.17614(9)
Co4B* Co 0.04539(16) 0.54241(19) -0.17614(9)
C41A C 0.1370(6) -0.0749(7) -0.2206(3)
C42A C 0.1808(4) 0.0124(7) -0.2489(4)
H31A H 0.12150 -0.09310 -0.20110
C43A C 0.1394(4) -0.1078(8) -0.2508(4)
H32A H 0.19470 0.05260 -0.24820
C44A C 0.1833(6) -0.0205(8) -0.2791(3)
C45A C 0.1625(6) -0.0806(9) -0.2800(3)
C46A C 0.1059(8) -0.1727(11) -0.2426(6)
C47A C 0.1846(8) 0.0191(11) -0.3096(4)
H33A H 0.16420 -0.10260 -0.30030
C48A C 0.0662(10) -0.1949(14) -0.2670(6)
C49A C 0.1256(9) -0.2046(11) -0.2146(6)
C50A C 0.1814(8) 0.0826(12) -0.3103(4)
C51A C 0.2039(6) -0.0128(11) -0.3382(5)
C52A C 0.0557(10) -0.2601(13) -0.2607(5)
H34A H 0.04890 -0.17210 -0.28450
C53A C 0.1030(9) -0.2634(11) -0.2141(5)
H35A H 0.15120 -0.18840 -0.19800
H36A H 0.16850 0.10400 -0.29110
C54A C 0.1976(6) 0.1142(12) -0.3396(5)
C55A C 0.2201(8) 0.0187(10) -0.3675(4)
H37A H 0.20610 -0.05530 -0.33770
Co4B** Co 0.04539(16) -0.45759(19) -0.17614(9)
H38A H 0.03820 -0.28120 -0.27880
C56A C 0.0666(8) -0.2924(10) -0.2347(5)
H39A H 0.11630 -0.28660 -0.19570
H40A H 0.19540 0.15660 -0.34010
C57A C 0.2169(8) 0.0822(10) -0.3682(4)
H41A H 0.23300 -0.00260 -0.38660
O17B O 0.0361(8) -0.3675(6) -0.1951(4)
C58A C 0.0329(7) -0.3525(9) -0.2248(4)
C59A C 0.2323(30) 0.1240(13) -0.3976(9)
Co3G Co 0.25128(11) 0.2480(1) -0.42598(5)
Co5C* Co -0.05318(7) -0.44682(7) -0.25000
O18B O 0.0098(5) -0.3767(4) -0.2495(3)
O9G O 0.2413(6) 0.0871(6) -0.4263(3)
O13G O 0.2348(9) 0.1756(6) -0.3960(4)
Co2G Co 0.26822(11) 0.11639(10) -0.47517(7)
#END
