
#######################################################################
#
#                 Cambridge Crystallographic Data Centre
#                                CCDC
#
#######################################################################
#
# If this CIF has been generated from an entry in the Cambridge
# Structural Database, then it will include bibliographic, chemical,
# crystal, experimental, refinement or atomic coordinate data resulting
# from the CCDC's data processing and validation procedures.
#
#######################################################################

data_CSD_CIF_CUSHIK
_audit_creation_date 2020-05-12
_audit_creation_method CSD-ConQuest-V1
_database_code_CSD CUSHIK
_database_code_depnum_ccdc_archive 'CCDC 1960308'
_chemical_formula_sum 'C112 H82 Co9 N12 O35'
_chemical_formula_moiety
;
(C108 H66 Co9 N10 O35 2-)n,2(C2 H8 N1 1+)
;
_journal_coden_Cambridge 4
_journal_volume 142
_journal_year 2020
_journal_page_first 9258
_journal_name_full 'J.Am.Chem.Soc. '
loop_
_publ_author_name
"Lizhen Liu"
"Zizhu Yao"
"Yingxiang Ye"
"Yike Yang"
"Quanjie Lin"
"Zhangjing Zhang"
"M.OKeeffe"
"Shengchang Xiang"
_chemical_name_systematic
;
catena-[bis(dimethylammonium) 
bis(\m-4,4',4''-(pyridine-2,4,6-triyl)tribenzoato)-octakis(\m-isonicotinato)-(
\m-1,4-benzenedicarboxylato)-(\m-oxo)-bis(\m-hydroxo)-nona-cobalt(ii) unknown 
solvate]
;
_chemical_name_common
;
FJU-6-PTB
;
_cell_volume  18575.987
_exptl_crystal_colour 'pinkish pink'
_exptl_crystal_density_diffrn 0.927
_exptl_crystal_description 'block'
_diffrn_ambient_temperature 273.1
_refine_special_details
;
Disordered diemthylammonium and solvent molecules were not modelled and the 
disordered density was taken into account using the SQUEEZE/PLATON procedure.
;
#These two values have been output from a single CSD field.
_refine_ls_R_factor_gt 0.0736
_refine_ls_wR_factor_gt 0.0736
_symmetry_cell_setting tetragonal
_symmetry_space_group_name_H-M 'P -4 n 2'
_symmetry_Int_Tables_number 118
loop_
_symmetry_equiv_pos_site_id
_symmetry_equiv_pos_as_xyz
1 x,y,z
2 y,-x,-z
3 -x,-y,z
4 -y,x,-z
5 1/2+y,1/2+x,1/2-z
6 1/2-y,1/2-x,1/2-z
7 1/2-x,1/2+y,1/2+z
8 1/2+x,1/2-y,1/2+z
_cell_length_a 21.8132(1)
_cell_length_b 21.8132(1)
_cell_length_c 39.0403(9)
_cell_angle_alpha 90
_cell_angle_beta 90
_cell_angle_gamma 90
_cell_formula_units_Z 4
loop_
_atom_type_symbol
_atom_type_radius_bond
C 0.68
H 0.23
Co 1.26
N 0.68
O 0.68
loop_
_atom_site_label
_atom_site_type_symbol
_atom_site_fract_x
_atom_site_fract_y
_atom_site_fract_z
Co1 Co 0.61678(5) 0.23270(5) 0.02429(3)
Co2 Co 0.94699(3) 0.44699(3) 0.25000
Co3 Co 0.73268(6) 0.11670(5) 0.02434(3)
Co4 Co 0.74740(5) 0.24740(5) 0.07434(2)
Co5 Co 1.04361(8) 0.45589(8) 0.17645(3)
O1 O 0.6988(2) 0.1990(2) 0.03920(7)
O2 O 0.8501(3) -0.1799(3) -0.01392(17)
N1 N 0.7607(4) 0.0285(4) 0.0074(2)
O3 O 0.5908(4) 0.2619(4) 0.42855(16)
N2 N 0.8013(4) 0.3010(4) 0.10953(11)
C1 C 0.8031(4) -0.1542(4) -0.0266(2)
O4 O 0.6318(4) 0.2036(4) -0.02646(16)
O5 O 0.6730(4) 0.2667(5) 0.10518(17)
O6 O 0.3230(3) 0.2589(3) -0.04331(13)
O7 O 0.5757(3) 0.1483(3) 0.03874(15)
C2 C 0.3450(5) 0.3049(5) -0.0244(2)
O8 O 0.3196(3) 0.3485(3) -0.01318(15)
O9 O 0.5900(3) 0.2630(4) 0.07299(18)
N3 N 0.5274(4) 0.2621(4) 0.0077(2)
O10 O 0.7761(3) -0.1708(3) -0.05064(14)
C3 C 0.4094(5) 0.2889(5) -0.0127(2)
C4 C 0.4448(5) 0.3306(5) 0.0028(2)
H1 H 0.43040 0.37020 0.00620
C5 C 0.7922(5) -0.0892(5) -0.0147(2)
O11 O 0.7033(4) 0.1306(4) -0.02603(19)
O12 O 0.6744(4) 0.2646(6) 0.3960(2)
C6 C 0.8159(5) 0.0035(5) 0.0151(3)
H2 H 0.84460 0.02740 0.02650
C7 C 0.5043(5) 0.3144(5) 0.0141(2)
H3 H 0.52710 0.34270 0.02660
O13 O 0.6479(3) 0.0778(3) 0.02984(15)
C8 C 0.6182(5) 0.2713(6) 0.0998(2)
C9 C 0.5813(5) 0.2878(7) 0.1294(3)
C10 C 0.6553(6) 0.1581(5) -0.03826(17)
C11 C 0.5938(5) 0.0947(5) 0.03371(15)
C12 C 0.8313(4) -0.0564(4) 0.0067(2)
H4 H 0.86700 -0.07410 0.01510
C13 C 0.8447(6) 0.3410(6) 0.0978(2)
H5 H 0.85280 0.34180 0.07440
C14 C 0.8737(5) 0.3701(7) 0.15401(19)
C15 C 0.4879(5) 0.3156(8) 0.3431(3)
H6 H 0.44650 0.32540 0.34490
C16 C 0.7386(5) -0.0621(5) -0.0254(3)
H7 H 0.71220 -0.08230 -0.04030
C17 C 0.5792(6) 0.2894(7) 0.3697(3)
N4 N 0.5076(4) 0.3180(6) 0.2497(3)
C18 C 0.4170(7) 0.3488(10) 0.2192(3)
H8 H 0.39660 0.35470 0.19850
C19 C 0.8771(6) 0.3802(6) 0.1186(2)
H9 H 0.90040 0.41210 0.10960
C20 C 0.8255(7) 0.3364(7) 0.1646(3)
H10 H 0.81240 0.33950 0.18720
C21 C 0.5188(6) 0.3027(8) 0.3721(3)
H11 H 0.49910 0.30290 0.39320
C22 C 0.4806(7) 0.3362(9) 0.2796(3)
C23 C 0.6067(6) 0.2921(9) 0.3353(3)
H12 H 0.64890 0.28860 0.33270
C24 C 0.4215(6) 0.3564(8) 0.2809(2)
H13 H 0.40310 0.36480 0.30190
C25 C 0.6184(5) 0.2718(6) 0.4014(3)
C26 C 0.5739(4) 0.1543(4) -0.0840(2)
H14 H 0.55440 0.18630 -0.07260
C27 C 0.5482(3) 0.1299(5) -0.1135(2)
H15 H 0.51160 0.14560 -0.12200
N5 N 0.5774(3) 0.0821(3) -0.13055(11)
C28 C 0.6322(4) 0.0587(3) -0.11796(16)
H16 H 0.65170 0.02670 -0.12930
C29 C 0.6579(3) 0.0831(4) -0.08836(17)
H17 H 0.69450 0.06740 -0.07990
C30 C 0.6287(4) 0.1309(3) -0.07136(11)
C31 C 0.4774(7) 0.3238(9) 0.2207(3)
C32 C 0.5137(7) 0.3152(10) 0.3111(3)
C33 C 0.7960(6) 0.2981(8) 0.1428(2)
H18 H 0.77060 0.26820 0.15200
C34 C 0.5118(7) 0.3167(9) 0.1882(3)
C35 C 0.4918(5) 0.2195(5) -0.0066(2)
H19 H 0.50760 0.18020 -0.00970
C36 C 0.4335(4) 0.2310(4) -0.0169(2)
H20 H 0.41000 0.20000 -0.02660
C37 C 0.7248(5) -0.0023(5) -0.0129(2)
H21 H 0.68810 0.01580 -0.01960
C38 C 0.4836(9) 0.3060(8) 0.1564(4)
H22 H 0.44120 0.30810 0.15420
C39 C 0.5730(6) 0.2992(9) 0.3093(3)
H23 H 0.59010 0.29310 0.28780
C40 C 0.3896(4) 0.3641(7) 0.2513(4)
C41 C 0.5196(7) 0.2923(10) 0.1291(3)
H24 H 0.49990 0.28550 0.10830
O14 O 0.9526(3) 0.4483(5) 0.16080(15)
C42 C 0.5762(10) 0.3130(9) 0.1896(5)
H25 H 0.59670 0.32250 0.20980
C43 C 0.6102(7) 0.2945(11) 0.1598(3)
H26 H 0.65210 0.28730 0.16140
O15 O 1.00000 0.50000 0.28334(9)
O16 O 0.9037(3) 0.4041(4) 0.2090(1)
C44 C 0.9086(6) 0.4155(6) 0.1764(2)
C45 C 0.5591(7) -0.0170(6) 0.0318(3)
H27 H 0.59890 -0.02940 0.02660
C46 C 0.4848(5) 0.0605(6) 0.0369(2)
H28 H 0.47410 0.10060 0.04230
C47 C 0.5469(5) 0.0432(5) 0.03384(19)
C48 C 0.2954(4) 0.3758(5) 0.2857(2)
H29 H 0.31390 0.35180 0.30250
C49 C 0.2374(4) 0.4003(5) 0.29135(18)
H30 H 0.21720 0.39280 0.31190
C50 C 0.2097(3) 0.4360(4) 0.2663(2)
C51 C 0.2400(4) 0.4473(4) 0.23557(17)
H31 H 0.22140 0.47120 0.21880
C52 C 0.2979(4) 0.4227(5) 0.22995(17)
H32 H 0.31810 0.43030 0.20940
C53 C 0.3256(3) 0.3870(5) 0.2550(2)
O17 O 0.12217(18) 0.4886(2) 0.25048(17)
C54 C 0.1506(4) 0.4649(4) 0.27365(19)
O18 O 0.1333(3) 0.4619(3) 0.30348(15)
O7B O 0.4243(3) -0.1483(3) 0.03874(15)
O13B O 0.3521(3) -0.0778(3) 0.02984(15)
C11B C 0.4062(5) -0.0947(5) 0.03371(15)
C45B C 0.4409(7) 0.0170(6) 0.0318(3)
H27B H 0.40110 0.02940 0.02660
C46B C 0.5152(5) -0.0605(6) 0.0369(2)
H28B H 0.52590 -0.10060 0.04230
C47B C 0.4531(5) -0.0432(5) 0.03384(19)
Co1A Co 0.23270(5) 0.38322(5) -0.02429(3)
Co3A Co 0.11670(6) 0.26732(5) -0.02434(3)
Co4A Co 0.24740(5) 0.25260(5) -0.07434(2)
Co5A Co 0.45589(8) -0.04361(8) -0.17645(3)
O1A O 0.1990(2) 0.3012(2) -0.03920(7)
O2A O -0.1799(3) 0.1499(3) 0.01392(17)
N1A N 0.0285(4) 0.2393(4) -0.0074(2)
O3A O 0.2619(4) 0.4092(4) -0.42855(16)
N2A N 0.3010(4) 0.1987(4) -0.10953(11)
C1A C -0.1542(4) 0.1969(4) 0.0266(2)
O4A O 0.2036(4) 0.3682(4) 0.02646(16)
O5A O 0.2667(4) 0.3270(5) -0.10518(17)
O6A O 0.2589(3) 0.6770(3) 0.04331(13)
C2A C 0.3049(5) 0.6550(5) 0.0244(2)
O8A O 0.3485(3) 0.6804(3) 0.01318(15)
O9A O 0.2630(3) 0.4100(4) -0.07299(18)
N3A N 0.2621(4) 0.4726(4) -0.0077(2)
O10A O -0.1708(3) 0.2239(3) 0.05064(14)
C3A C 0.2889(5) 0.5906(5) 0.0127(2)
C4A C 0.3306(5) 0.5552(5) -0.0028(2)
H1A H 0.37020 0.56960 -0.00620
C5A C -0.0892(5) 0.2078(5) 0.0147(2)
O11A O 0.1306(4) 0.2967(4) 0.02603(19)
O12A O 0.2646(4) 0.3256(6) -0.3960(2)
C6A C 0.0035(5) 0.1841(5) -0.0151(3)
H2A H 0.02740 0.15540 -0.02650
C7A C 0.3144(5) 0.4957(5) -0.0141(2)
H3A H 0.34270 0.47290 -0.02660
C8A C 0.2713(5) 0.3818(6) -0.0998(2)
C9A C 0.2878(5) 0.4187(7) -0.1294(3)
C10A C 0.1581(6) 0.3447(5) 0.03826(17)
C12A C -0.0564(4) 0.1687(4) -0.0067(2)
H4A H -0.07410 0.13300 -0.01510
C13A C 0.3410(6) 0.1553(6) -0.0978(2)
H5A H 0.34180 0.14720 -0.07440
C14A C 0.3701(5) 0.1263(7) -0.15401(19)
C15A C 0.3156(5) 0.5121(8) -0.3431(3)
H6A H 0.32540 0.55350 -0.34490
C16A C -0.0621(5) 0.2614(5) 0.0254(3)
H7A H -0.08230 0.28780 0.04030
C17A C 0.2894(6) 0.4208(7) -0.3697(3)
N4A N 0.3180(4) 0.4924(6) -0.2497(3)
C18A C 0.3488(7) 0.583(1) -0.2192(3)
H8A H 0.35470 0.60340 -0.19850
C19A C 0.3802(6) 0.1229(6) -0.1186(2)
H9A H 0.41210 0.09960 -0.10960
C20A C 0.3364(7) 0.1745(7) -0.1646(3)
H10A H 0.33950 0.18760 -0.18720
C21A C 0.3027(6) 0.4812(8) -0.3721(3)
H11A H 0.30290 0.50090 -0.39320
C22A C 0.3362(7) 0.5194(9) -0.2796(3)
C23A C 0.2921(6) 0.3933(9) -0.3353(3)
H12A H 0.28860 0.35110 -0.33270
C24A C 0.3564(6) 0.5785(8) -0.2809(2)
H13A H 0.36480 0.59690 -0.30190
C25A C 0.2718(5) 0.3816(6) -0.4014(3)
C26A C 0.1543(4) 0.4261(4) 0.0840(2)
H14A H 0.18630 0.44560 0.07260
C27A C 0.1299(3) 0.4518(5) 0.1135(2)
H15A H 0.14560 0.48840 0.12200
N5A N 0.0821(3) 0.4226(3) 0.13055(11)
C28A C 0.0587(4) 0.3678(3) 0.11796(16)
H16A H 0.02670 0.34830 0.12930
C29A C 0.0831(3) 0.3421(4) 0.08836(17)
H17A H 0.06740 0.30550 0.07990
C30A C 0.1309(4) 0.3713(3) 0.07136(11)
C31A C 0.3238(7) 0.5226(9) -0.2207(3)
C32A C 0.3152(7) 0.4863(10) -0.3111(3)
C33A C 0.2981(6) 0.2040(8) -0.1428(2)
H18A H 0.26820 0.22940 -0.15200
C34A C 0.3167(7) 0.4882(9) -0.1882(3)
C35A C 0.2195(5) 0.5082(5) 0.0066(2)
H19A H 0.18020 0.49240 0.00970
C36A C 0.2310(4) 0.5665(4) 0.0169(2)
H20A H 0.20000 0.59000 0.02660
C37A C -0.0023(5) 0.2752(5) 0.0129(2)
H21A H 0.01580 0.31190 0.01960
C38A C 0.3060(9) 0.5164(8) -0.1564(4)
H22A H 0.30810 0.55880 -0.15420
C39A C 0.2992(6) 0.4270(9) -0.3093(3)
H23A H 0.29310 0.40990 -0.28780
C40A C 0.3641(4) 0.6104(7) -0.2513(4)
C41A C 0.2923(7) 0.4804(10) -0.1291(3)
H24A H 0.28550 0.50010 -0.10830
O14A O 0.4483(3) 0.0474(5) -0.16080(15)
C42A C 0.313(1) 0.4238(9) -0.1896(5)
H25A H 0.32250 0.40330 -0.20980
C43A C 0.2945(7) 0.3898(11) -0.1598(3)
H26A H 0.28730 0.34790 -0.16140
O16A O 0.4041(3) 0.0963(4) -0.2090(1)
C44A C 0.4155(6) 0.0914(6) -0.1764(2)
C48A C 0.3758(4) 0.7046(5) -0.2857(2)
H29A H 0.35180 0.68610 -0.30250
C49A C 0.4003(4) 0.7626(5) -0.29135(18)
H30A H 0.39280 0.78280 -0.31190
C50A C 0.4360(3) 0.7903(4) -0.2663(2)
C51A C 0.4473(4) 0.7600(4) -0.23557(17)
H31A H 0.47120 0.77860 -0.21880
C52A C 0.4227(4) 0.7021(5) -0.22995(17)
H32A H 0.43030 0.68190 -0.20940
C53A C 0.3870(3) 0.6744(5) -0.2550(2)
O17A O 0.48860(18) 0.87783(20) -0.25048(17)
C54A C 0.4649(4) 0.8494(4) -0.27365(19)
O18A O 0.4619(3) 0.8667(3) -0.30348(15)
Co1B Co 0.38322(5) -0.23270(5) 0.02429(3)
Co1B* Co 0.38322(5) 0.76730(5) 0.02429(3)
Co2A Co 0.44699(3) 0.05301(3) -0.25000
Co2B Co 0.05301(3) 0.55301(3) 0.25000
Co2B* Co 1.05301(3) 0.55301(3) 0.25000
Co2C Co 0.55301(3) 0.94699(3) -0.25000
Co3* Co -0.26732(6) 0.11670(5) 0.02434(3)
Co3B Co 0.26732(6) -0.11670(5) 0.02434(3)
Co3C Co 0.88330(6) -0.26732(5) -0.02434(3)
Co3D Co 0.61670(6) 0.23268(5) 0.47566(3)
Co3G Co 0.23268(6) 0.38330(5) -0.47566(3)
Co4* Co -0.25260(5) 0.24740(5) 0.07434(2)
Co4B Co 0.25260(5) 0.75260(5) 0.07434(2)
Co4C Co 0.75260(5) -0.25260(5) -0.07434(2)
Co4D Co 0.74740(5) 0.24740(5) 0.42566(2)
Co4G Co 0.24740(5) 0.25260(5) -0.42566(2)
Co5* Co 0.04361(8) 0.45589(8) 0.17645(3)
Co5B Co 0.95639(8) 0.54411(8) 0.17645(3)
Co5C Co 0.54411(8) 0.04361(8) -0.17645(3)
Co5D Co 0.95589(8) 0.54361(8) 0.32355(3)
Co5E Co 0.04411(8) 0.45639(8) 0.32355(3)
Co5E* Co 1.04411(8) 0.45639(8) 0.32355(3)
Co5F Co 0.45639(8) 0.95589(8) -0.32355(3)
O2A* O 0.8201(3) 0.1499(3) 0.01392(17)
O2B O 0.1499(3) 0.1799(3) -0.01392(17)
O3D O 0.7619(4) 0.0908(4) 0.07145(16)
O3G O 0.0908(4) 0.2381(4) -0.07145(16)
O6C O 0.7411(3) 0.3230(3) 0.04331(13)
O7A O 0.1483(3) 0.4243(3) -0.03874(15)
O8C O 0.6515(3) 0.3196(3) 0.01318(15)
O10A* O 0.8292(3) 0.2239(3) 0.05064(14)
O10B O 0.2239(3) 0.1708(3) -0.05064(14)
O12D O 0.7646(4) 0.1744(6) 0.1040(2)
O12G O 0.1744(4) 0.2354(6) -0.1040(2)
O13A O 0.0778(3) 0.3521(3) -0.02984(15)
N5A* N 1.0821(3) 0.4226(3) 0.13055(11)
N5B N 0.4226(3) -0.0821(3) -0.13055(11)
O14B O 1.0474(3) 0.5517(5) 0.16080(15)
O14C O 0.5517(3) -0.0474(5) -0.16080(15)
O15D O 1.00000 0.50000 0.21666(9)
O15F O 0.50000 0.00000 -0.21666(9)
O16D O 0.9041(3) 0.4037(4) 0.2910(1)
O17B O 0.87783(18) 0.5114(2) 0.25048(17)
O17E O 1.01140(18) 0.37783(20) 0.24952(17)
O18E O 1.0381(3) 0.3667(3) 0.19652(15)
O18F O 0.3667(3) -0.0381(3) -0.19652(15)
#END
