
#######################################################################
#
#                 Cambridge Crystallographic Data Centre
#                                CCDC
#
#######################################################################
#
# If this CIF has been generated from an entry in the Cambridge
# Structural Database, then it will include bibliographic, chemical,
# crystal, experimental, refinement or atomic coordinate data resulting
# from the CCDC's data processing and validation procedures.
#
#######################################################################

data_CSD_CIF_CUSJAE
_audit_creation_date 2020-05-12
_audit_creation_method CSD-ConQuest-V1
_database_code_CSD CUSJAE
_database_code_depnum_ccdc_archive 'CCDC 1960311'
_chemical_formula_sum 'C108 H78 Co9 N16 O35'
_chemical_formula_moiety
;
(C104 H62 Co9 N14 O35 2-)n,2(C2 H8 N1 1+)
;
_journal_coden_Cambridge 4
_journal_volume 142
_journal_year 2020
_journal_page_first 9258
_journal_name_full 'J.Am.Chem.Soc. '
loop_
_publ_author_name
"Lizhen Liu"
"Zizhu Yao"
"Yingxiang Ye"
"Yike Yang"
"Quanjie Lin"
"Zhangjing Zhang"
"M.OKeeffe"
"Shengchang Xiang"
_chemical_name_systematic
;
catena-[bis(dimethylammonium) 
bis(\m-4,4',4''-(1,3,5-triazine-2,4,6-triyl)tribenzoato)-octakis(\m-isonicotin
ato)-(\m-1,4-benzenedicarboxylato)-(\m-oxo)-bis(\m-hydroxo)-nona-cobalt(ii) 
unknown solvate]
;
_chemical_name_common
;
FJU-6-TATB
;
_cell_volume  18585.614
_exptl_crystal_colour 'pinkish pink'
_exptl_crystal_density_diffrn 0.928
_exptl_crystal_description 'block'
_diffrn_ambient_temperature 294.1
_refine_special_details
;
Disordered diemthylammonium and solvent molecules were not modelled and the 
disordered density was taken into account using the SQUEEZE/PLATON procedure.
;
#These two values have been output from a single CSD field.
_refine_ls_R_factor_gt 0.0903
_refine_ls_wR_factor_gt 0.0903
_symmetry_cell_setting tetragonal
_symmetry_space_group_name_H-M 'P -4 n 2'
_symmetry_Int_Tables_number 118
loop_
_symmetry_equiv_pos_site_id
_symmetry_equiv_pos_as_xyz
1 x,y,z
2 y,-x,-z
3 -x,-y,z
4 -y,x,-z
5 1/2+y,1/2+x,1/2-z
6 1/2-y,1/2-x,1/2-z
7 1/2-x,1/2+y,1/2+z
8 1/2+x,1/2-y,1/2+z
_cell_length_a 21.7735(5)
_cell_length_b 21.7735(5)
_cell_length_c 39.2031(16)
_cell_angle_alpha 90
_cell_angle_beta 90
_cell_angle_gamma 90
_cell_formula_units_Z 4
loop_
_atom_type_symbol
_atom_type_radius_bond
C 0.68
H 0.23
Co 1.26
N 0.68
O 0.68
loop_
_atom_site_label
_atom_site_type_symbol
_atom_site_fract_x
_atom_site_fract_y
_atom_site_fract_z
Co1 Co 0.44654(5) 0.05346(5) 0.25000
Co2 Co 0.73322(11) 0.11578(11) -0.02514(6)
Co3 Co 0.74629(11) 0.24592(11) -0.07584(3)
Co4 Co 0.61597(11) 0.23254(11) -0.02518(6)
Co5 Co 0.54468(16) 0.04557(13) 0.17714(5)
O1 O 0.50000 0.00000 0.21667(15)
O2 O 0.6966(4) 0.2000(4) -0.04018(12)
O3 O 0.6499(6) 0.3195(5) -0.0123(3)
O4 O 0.8273(6) 0.2353(8) -0.0479(4)
N1 N 0.8019(8) 0.2981(6) -0.1112(2)
O5 O 0.5895(7) 0.2632(7) -0.0720(3)
O6 O 0.6687(7) 0.2617(8) -0.1055(4)
O7 O 0.8192(6) 0.1518(7) -0.0175(4)
C1 C 0.6956(10) 0.3460(8) -0.0266(5)
O8 O 0.7301(7) 0.3242(6) -0.0496(4)
O9 O 0.6476(7) 0.0749(6) -0.0337(5)
C2 C 0.8450(9) 0.1972(8) -0.0279(5)
O10 O 0.5854(6) 0.2613(7) -0.4266(3)
O11 O 0.7056(6) 0.1316(7) 0.0264(3)
C3 C 0.7110(9) 0.4129(8) -0.0170(5)
O12 O 0.6714(7) 0.2640(9) -0.3952(3)
O13 O 0.6310(7) 0.2051(8) 0.0256(4)
N2 N 0.5781(8) 0.0823(9) 0.1324(3)
C4 C 0.5944(10) 0.0942(10) -0.0327(2)
C5 C 0.9447(10) 0.1690(9) 0.0064(5)
H1 H 0.92970 0.13140 0.01400
C6 C 0.9063(8) 0.2082(9) -0.0129(4)
N3 N 1.0262(7) 0.2371(6) 0.0076(4)
C7 C 0.4847(7) 0.0607(7) -0.0376(4)
H2 H 0.47380 0.09780 -0.04770
O14 O 0.5786(6) 0.1481(7) -0.0322(4)
C8 C 0.6866(9) 0.4990(8) 0.0175(6)
H3 H 0.66180 0.51670 0.03400
C9 C 0.7643(9) 0.4341(9) -0.0222(6)
H4 H 0.79480 0.41090 -0.03270
C10 C 0.5754(6) 0.2872(8) -0.3687(3)
C11 C 0.5146(6) 0.3065(9) -0.3708(3)
H5 H 0.49450 0.30630 -0.39170
C12 C 0.4840(5) 0.3259(8) -0.3416(3)
H6 H 0.44340 0.33880 -0.34300
C13 C 0.5141(6) 0.3261(7) -0.3104(3)
C14 C 0.5749(6) 0.3068(8) -0.3083(3)
H7 H 0.59500 0.30690 -0.28740
C15 C 0.6055(5) 0.2873(9) -0.3375(3)
H8 H 0.64610 0.27440 -0.33610
C16 C 0.5451(9) 0.0456(9) -0.0328(3)
C17 C 0.8714(12) 0.3702(12) -0.1549(3)
C18 C 0.5090(8) 0.3112(8) -0.1880(4)
C19 C 0.9405(9) 0.2647(9) -0.0238(5)
H9 H 0.92210 0.29150 -0.03920
C20 C 0.5621(8) -0.0174(7) -0.0266(4)
H10 H 0.59900 -0.02910 -0.01660
C21 C 0.4792(5) 0.3337(7) -0.2201(3)
N4 N 0.5097(3) 0.3202(5) -0.2503(4)
C22 C 0.4810(6) 0.3307(8) -0.2815(3)
N5 N 0.4218(6) 0.3547(9) -0.2823(3)
C23 C 0.3914(3) 0.3681(5) -0.2521(4)
N6 N 0.4201(5) 0.3576(7) -0.2210(3)
C24 C 0.4882(8) 0.3170(11) -0.1570(5)
H11 H 0.44750 0.32940 -0.15470
C25 C 0.6694(9) 0.4416(8) 0.0028(5)
H12 H 0.63090 0.42460 0.00670
C26 C 0.8768(11) 0.3781(11) -0.1202(3)
H13 H 0.90470 0.40590 -0.11100
C27 C 0.6308(11) 0.1325(7) 0.0708(3)
C28 C 0.8388(11) 0.3426(9) -0.0993(3)
H14 H 0.83910 0.35020 -0.07600
C29 C 0.6138(10) 0.274(1) -0.3997(5)
C30 C 0.5188(8) 0.3071(11) -0.1288(4)
H15 H 0.49980 0.31140 -0.10760
C31 C 0.5789(7) 0.2903(9) -0.1308(4)
C32 C 0.615(1) 0.2673(9) -0.1004(5)
C33 C 0.5509(12) 0.1235(12) 0.1124(6)
H16 H 0.50860 0.12900 0.11370
C34 C 0.6569(11) 0.160(1) 0.0383(3)
C35 C 0.5865(13) 0.1598(12) 0.0885(6)
H17 H 0.57850 0.20140 0.08560
C36 C 0.8360(11) 0.3259(9) -0.1658(3)
H18 H 0.83510 0.31700 -0.18900
C37 C 0.8006(11) 0.2924(10) -0.1442(3)
H19 H 0.77380 0.26370 -0.15360
C38 C 0.5698(9) 0.2943(12) -0.1897(5)
H20 H 0.58750 0.28830 -0.21100
C39 C 0.6028(9) 0.2867(12) -0.1635(5)
H21 H 0.64440 0.27840 -0.16630
C40 C 0.6374(10) 0.0614(10) 0.1197(5)
H22 H 0.66320 0.03810 0.13350
C41 C 0.3308(4) 0.3874(7) -0.2440(3)
C42 C 0.3003(5) 0.4140(7) -0.2714(2)
H23 H 0.31840 0.41420 -0.29290
C43 C 0.2427(5) 0.4402(6) -0.2667(3)
H24 H 0.22230 0.45800 -0.28510
C44 C 0.2156(4) 0.4399(6) -0.2346(3)
C45 C 0.2461(5) 0.4133(7) -0.2072(3)
H25 H 0.22790 0.41300 -0.18570
C46 C 0.3037(5) 0.3871(7) -0.2119(3)
H26 H 0.32410 0.36930 -0.19350
C47 C 0.7744(11) 0.4937(10) -0.0115(7)
H27 H 0.81100 0.51140 -0.01870
C48 C 0.9965(10) 0.2779(9) -0.0120(5)
H28 H 1.01490 0.31530 -0.01740
N7 N 0.7395(7) 0.5284(7) 0.0074(4)
C49 C 1.0046(9) 0.1863(9) 0.0143(4)
H29 H 1.02970 0.15790 0.02530
O15 O 0.1245(3) 0.4886(3) -0.2507(4)
O16 O 0.9447(8) 0.4543(7) -0.1629(2)
O17 O 0.9048(5) 0.4028(5) -0.20924(16)
C50 C 0.1519(6) 0.4663(6) -0.2282(3)
O18 O 0.1330(4) 0.4617(5) -0.1979(2)
C51 C 0.9041(8) 0.4173(8) -0.1782(3)
C52 C 0.6548(13) 0.0765(10) 0.0868(6)
H30 H 0.68160 0.05120 0.07480
O9B O 0.3524(7) -0.0749(6) -0.0337(5)
C4B C 0.4056(10) -0.0942(10) -0.0327(2)
C7B C 0.5153(7) -0.0607(7) -0.0376(4)
H2B H 0.52620 -0.09780 -0.04770
O14B O 0.4214(6) -0.1481(7) -0.0322(4)
C16B C 0.4549(9) -0.0456(9) -0.0328(3)
C20B C 0.4379(8) 0.0174(7) -0.0266(4)
H10B H 0.40100 0.02910 -0.01660
Co2A Co 0.11578(11) 0.26678(11) 0.02514(6)
Co3A Co 0.24592(11) 0.25371(11) 0.07584(3)
Co4A Co 0.23254(11) 0.38403(11) 0.02518(6)
Co5A Co 0.04557(16) 0.45532(13) -0.17714(5)
O2A O 0.2000(4) 0.3034(4) 0.04018(12)
O3A O 0.3195(6) 0.3501(5) 0.0123(3)
O4A O 0.2353(6) 0.1727(8) 0.0479(4)
N1A N 0.2981(8) 0.1981(6) 0.1112(2)
O5A O 0.2632(7) 0.4105(7) 0.0720(3)
O6A O 0.2617(7) 0.3313(8) 0.1055(4)
O7A O 0.1518(6) 0.1808(7) 0.0175(4)
C1A C 0.346(1) 0.3044(8) 0.0266(5)
O8A O 0.3242(7) 0.2699(6) 0.0496(4)
C2A C 0.1972(9) 0.1550(8) 0.0279(5)
O10A O 0.2613(6) 0.4146(7) 0.4266(3)
O11A O 0.1316(6) 0.2944(7) -0.0264(3)
C3A C 0.4129(9) 0.2890(8) 0.0170(5)
O12A O 0.2640(7) 0.3286(9) 0.3952(3)
O13A O 0.2051(7) 0.3690(8) -0.0256(4)
N2A N 0.0823(8) 0.4219(9) -0.1324(3)
C5A C 0.169(1) 0.0553(9) -0.0064(5)
H1A H 0.13140 0.07030 -0.01400
C6A C 0.2082(8) 0.0937(9) 0.0129(4)
N3A N 0.2371(7) -0.0262(6) -0.0076(4)
C8A C 0.4990(9) 0.3134(8) -0.0175(6)
H3A H 0.51670 0.33820 -0.03400
C9A C 0.4341(9) 0.2357(9) 0.0222(6)
H4A H 0.41090 0.20520 0.03270
C10A C 0.2872(6) 0.4246(8) 0.3687(3)
C11A C 0.3065(6) 0.4854(9) 0.3708(3)
H5A H 0.30630 0.50550 0.39170
C12A C 0.3259(5) 0.5160(8) 0.3416(3)
H6A H 0.33880 0.55660 0.34300
C13A C 0.3261(6) 0.4859(7) 0.3104(3)
C14A C 0.3068(6) 0.4251(8) 0.3083(3)
H7A H 0.30690 0.40500 0.28740
C15A C 0.2873(5) 0.3945(9) 0.3375(3)
H8A H 0.27440 0.35390 0.33610
C17A C 0.3702(12) 0.1286(12) 0.1549(3)
C18A C 0.3112(8) 0.4910(8) 0.1880(4)
C19A C 0.2647(9) 0.0595(9) 0.0238(5)
H9A H 0.29150 0.07790 0.03920
C21A C 0.3337(5) 0.5208(7) 0.2201(3)
N4A N 0.3202(3) 0.4903(5) 0.2503(4)
C22A C 0.3307(6) 0.5190(8) 0.2815(3)
N5A N 0.3547(6) 0.5782(9) 0.2823(3)
C23A C 0.3681(3) 0.6086(5) 0.2521(4)
N6A N 0.3576(5) 0.5799(7) 0.2210(3)
C24A C 0.3170(8) 0.5118(11) 0.1570(5)
H11A H 0.32940 0.55250 0.15470
C25A C 0.4416(9) 0.3306(8) -0.0028(5)
H12A H 0.42460 0.36910 -0.00670
C26A C 0.3781(11) 0.1232(11) 0.1202(3)
H13A H 0.40590 0.09530 0.11100
C27A C 0.1325(11) 0.3692(7) -0.0708(3)
C28A C 0.3426(11) 0.1612(9) 0.0993(3)
H14A H 0.35020 0.16090 0.07600
C29A C 0.274(1) 0.3862(10) 0.3997(5)
C30A C 0.3071(8) 0.4812(11) 0.1288(4)
H15A H 0.31140 0.50020 0.10760
C31A C 0.2903(7) 0.4211(9) 0.1308(4)
C32A C 0.2673(10) 0.3850(9) 0.1004(5)
C33A C 0.1235(12) 0.4491(12) -0.1124(6)
H16A H 0.12900 0.49140 -0.11370
C34A C 0.1600(11) 0.3431(10) -0.0383(3)
C35A C 0.1598(13) 0.4135(12) -0.0885(6)
H17A H 0.20140 0.42150 -0.08560
C36A C 0.3259(11) 0.1640(9) 0.1658(3)
H18A H 0.31700 0.16490 0.18900
C37A C 0.2924(11) 0.1994(10) 0.1442(3)
H19A H 0.26370 0.22620 0.15360
C38A C 0.2943(9) 0.4302(12) 0.1897(5)
H20A H 0.28830 0.41250 0.21100
C39A C 0.2867(9) 0.3972(12) 0.1635(5)
H21A H 0.27840 0.35560 0.16630
C40A C 0.0614(10) 0.3626(10) -0.1197(5)
H22A H 0.03810 0.33680 -0.13350
C41A C 0.3874(4) 0.6692(7) 0.2440(3)
C42A C 0.4140(5) 0.6997(7) 0.2714(2)
H23A H 0.41420 0.68160 0.29290
C43A C 0.4402(5) 0.7573(6) 0.2667(3)
H24A H 0.45800 0.77770 0.28510
C44A C 0.4399(4) 0.7844(6) 0.2346(3)
C45A C 0.4133(5) 0.7539(7) 0.2072(3)
H25A H 0.41300 0.77210 0.18570
C46A C 0.3871(5) 0.6963(7) 0.2119(3)
H26A H 0.36930 0.67590 0.19350
C47A C 0.4937(11) 0.2256(10) 0.0115(7)
H27A H 0.51140 0.18900 0.01870
C48A C 0.2779(10) 0.0035(9) 0.0120(5)
H28A H 0.31530 -0.01490 0.01740
N7A N 0.5284(7) 0.2605(7) -0.0074(4)
C49A C 0.1863(9) -0.0046(9) -0.0143(4)
H29A H 0.15790 -0.02970 -0.02530
O15A O 0.4886(3) 0.8755(3) 0.2507(4)
O16A O 0.4543(8) 0.0553(7) 0.1629(2)
O17A O 0.4028(5) 0.0952(5) 0.20924(16)
C50A C 0.4663(6) 0.8481(6) 0.2282(3)
O18A O 0.4617(4) 0.8670(5) 0.1979(2)
C51A C 0.4173(8) 0.0959(8) 0.1782(3)
C52A C 0.0765(13) 0.3452(10) -0.0868(6)
H30A H 0.05120 0.31840 -0.07480
Co1A Co 0.05346(5) 0.55346(5) -0.25000
Co1B Co 0.55346(5) -0.05346(5) 0.25000
Co1B* Co 0.55346(5) 0.94654(5) 0.25000
Co1C Co 0.94654(5) 0.44654(5) -0.25000
Co2A* Co 1.11578(11) 0.26678(11) 0.02514(6)
Co2B Co 0.26678(11) -0.11578(11) -0.02514(6)
Co2D Co 0.61578(11) 0.23322(11) -0.47486(6)
Co2G Co 0.23322(11) 0.38422(11) 0.47486(6)
Co3D Co 0.74592(11) 0.24629(11) -0.42416(3)
Co3G Co 0.24629(11) 0.25408(11) 0.42416(3)
Co4B Co 0.38403(11) -0.23254(11) -0.02518(6)
Co4C Co 0.76746(11) 0.61597(11) 0.02518(6)
Co5A* Co 1.04557(16) 0.45532(13) -0.17714(5)
Co5B Co 0.45532(16) -0.04557(13) 0.17714(5)
Co5B* Co 0.45532(16) 0.95443(13) 0.17714(5)
Co5C Co 0.95443(16) 0.54468(13) -0.17714(5)
O1A O 0.00000 0.50000 -0.21667(15)
O1D O 0.50000 0.00000 0.28333(15)
O9A O 0.0749(7) 0.3524(6) 0.0337(5)
O10D O 0.7613(6) 0.0854(7) -0.0734(3)
O10G O 0.0854(6) 0.2387(7) 0.0734(3)
O12D O 0.7640(7) 0.1714(9) -0.1048(3)
O12G O 0.1714(7) 0.2360(9) 0.1048(3)
N3* N 0.0262(7) 0.2371(6) 0.0076(4)
N3C N 0.7629(7) 0.0262(6) -0.0076(4)
O14A O 0.1481(6) 0.4214(7) 0.0322(4)
N7B N 0.2605(7) 0.4716(7) 0.0074(4)
O15C O 0.5114(3) 0.1245(3) 0.2507(4)
O15F O 0.3755(3) -0.0114(3) 0.2493(4)
O16* O -0.0553(8) 0.4543(7) -0.1629(2)
O16B O 0.0553(8) 0.5457(7) -0.1629(2)
O16C O 0.5457(8) -0.0553(7) 0.1629(2)
O17G O 0.4048(5) 0.0972(5) 0.29076(16)
O18C O 0.5383(4) 0.1330(5) 0.1979(2)
#END
