
#######################################################################
#
#                 Cambridge Crystallographic Data Centre
#                                CCDC
#
#######################################################################
#
# If this CIF has been generated from an entry in the Cambridge
# Structural Database, then it will include bibliographic, chemical,
# crystal, experimental, refinement or atomic coordinate data resulting
# from the CCDC's data processing and validation procedures.
#
#######################################################################

data_CSD_CIF_CUSJOS
_audit_creation_date 2020-05-12
_audit_creation_method CSD-ConQuest-V1
_database_code_CSD CUSJOS
_database_code_depnum_ccdc_archive 'CCDC 1960314'
_chemical_formula_sum 'C114 H84 N10 Ni9 O35'
_chemical_formula_moiety
;
(C110 H68 N8 Ni9 O35 2-)n,2(C2 H8 N1 1+)
;
_journal_coden_Cambridge 4
_journal_volume 142
_journal_year 2020
_journal_page_first 9258
_journal_name_full 'J.Am.Chem.Soc. '
loop_
_publ_author_name
"Lizhen Liu"
"Zizhu Yao"
"Yingxiang Ye"
"Yike Yang"
"Quanjie Lin"
"Zhangjing Zhang"
"M.OKeeffe"
"Shengchang Xiang"
_chemical_name_systematic
;
catena-[bis(dimethylammonium) 
bis(\m-benzene-1,3,5-tribenzoato)-octakis(\m-isonicotinato)-(\m-1,4-benzenedic
arboxylato)-(\m-oxo)-bis(\m-hydroxo)-nona-nickel(ii) unknown solvate]
;
_chemical_name_common
;
FJU-6-Ni
;
_cell_volume  18395.260
_exptl_crystal_colour 'greenish green'
_exptl_crystal_density_diffrn 0.935
_exptl_crystal_description 'block'
_diffrn_ambient_temperature 292.2
_refine_special_details
;
Disordered solvent molecules were not modelled and the disordered density was 
taken into account using the SQUEEZE/PLATON procedure.
;
#These two values have been output from a single CSD field.
_refine_ls_R_factor_gt 0.0915
_refine_ls_wR_factor_gt 0.0915
_symmetry_cell_setting tetragonal
_symmetry_space_group_name_H-M 'P -4 n 2'
_symmetry_Int_Tables_number 118
loop_
_symmetry_equiv_pos_site_id
_symmetry_equiv_pos_as_xyz
1 x,y,z
2 y,-x,-z
3 -x,-y,z
4 -y,x,-z
5 1/2+y,1/2+x,1/2-z
6 1/2-y,1/2-x,1/2-z
7 1/2-x,1/2+y,1/2+z
8 1/2+x,1/2-y,1/2+z
_cell_length_a 21.6973(5)
_cell_length_b 21.6973(5)
_cell_length_c 39.0746(19)
_cell_angle_alpha 90
_cell_angle_beta 90
_cell_angle_gamma 90
_cell_formula_units_Z 4
loop_
_atom_type_symbol
_atom_type_radius_bond
C 0.68
H 0.23
N 0.68
Ni 1.24
O 0.68
loop_
_atom_site_label
_atom_site_type_symbol
_atom_site_fract_x
_atom_site_fract_y
_atom_site_fract_z
Ni1 Ni 0.11786(12) 0.26702(12) 0.02265(8)
Ni2 Ni 0.23252(11) 0.38257(11) 0.02352(7)
Ni3 Ni 0.05169(8) 0.55169(8) -0.25000
Ni4 Ni 0.24711(13) 0.25250(12) 0.07333(5)
Ni5 Ni 0.04213(18) 0.4552(2) -0.17636(8)
O1 O 0.2007(4) 0.2997(4) 0.03813(18)
O2 O 0.00000 0.50000 -0.2158(2)
O3 O 0.4895(4) 0.8771(4) 0.2542(3)
O4 O 0.3161(4) 0.3426(5) 0.0113(3)
N1 N 0.5303(5) 0.2642(5) -0.0033(3)
O5 O 0.3996(6) 0.0934(5) 0.2094(2)
O6 O 0.1476(5) 0.1770(5) 0.0170(4)
O7 O 0.0803(5) 0.3501(5) 0.0239(3)
O8 O 0.2562(6) 0.4092(5) 0.0722(3)
N2 N 0.3027(7) 0.2033(6) 0.1092(2)
O9 O 0.2045(6) 0.3629(6) -0.0285(3)
O10 O 0.1306(7) 0.2903(7) -0.0266(4)
N3 N 0.2412(6) -0.0349(6) -0.0109(4)
C1 C 0.4114(8) 0.2928(7) 0.0137(5)
C2 C 0.2135(7) 0.0888(7) 0.0150(4)
C3 C 0.1933(7) 0.1504(7) 0.0238(4)
C4 C 0.0895(7) 0.3997(7) 0.0306(3)
O11 O 0.2445(5) 0.1791(5) 0.0425(3)
O12 O 0.2627(7) 0.4162(7) 0.4342(3)
O13 O 0.3287(4) 0.2783(4) 0.0530(2)
C5 C 0.0504(7) 0.4588(7) 0.0294(3)
O14 O 0.1502(4) 0.4232(4) 0.0361(3)
C6 C 0.3423(7) 0.2909(9) 0.0274(5)
C7 C 0.1685(5) 0.0523(5) -0.0071(3)
H1 H 0.12980 0.06680 -0.01350
O15 O 0.2705(9) 0.3258(7) 0.1018(5)
C8 C 0.1922(7) -0.0069(7) -0.0170(4)
H2 H 0.16540 -0.02900 -0.03100
C9 C 0.4376(15) 0.3160(14) -0.0073(8)
H3 H 0.41360 0.33720 -0.02320
C10 C 0.0669(9) 0.5074(8) 0.0277(5)
H4 H 0.10760 0.51620 0.02200
O16 O 0.2646(8) 0.3268(6) 0.3985(3)
C11 C 0.2935(7) 0.4244(6) 0.1251(3)
C12 C 0.2792(8) 0.4868(6) 0.1257(3)
H5 H 0.26350 0.50580 0.10630
C13 C 0.2883(9) 0.5209(5) 0.1554(4)
H6 H 0.27870 0.56270 0.15580
C14 C 0.3117(8) 0.4925(7) 0.1846(3)
C15 C 0.3260(8) 0.4301(8) 0.1840(3)
H7 H 0.34170 0.41110 0.20340
C16 C 0.3169(7) 0.3960(5) 0.1543(4)
H8 H 0.32650 0.35420 0.15390
C17 C 0.5033(7) 0.3180(7) -0.0134(5)
H9 H 0.52430 0.35130 -0.02290
C18 C 0.3761(9) 0.1368(9) 0.1545(3)
C19 C 0.2680(8) 0.3871(8) 0.4059(4)
C20 C 0.2687(8) 0.3835(9) 0.0992(5)
C21 C 0.4346(8) 0.2306(8) 0.0179(4)
H10 H 0.41280 0.19420 0.02100
C22 C 0.1625(11) 0.3342(12) -0.0436(4)
C23 C 0.3478(7) 0.1646(6) 0.0972(4)
H11 H 0.35440 0.16170 0.07380
C24 C 0.4980(11) 0.2396(10) 0.0160(6)
H12 H 0.51920 0.22200 0.03420
C25 C 0.3839(7) 0.1296(7) 0.1192(3)
H13 H 0.41270 0.10200 0.11060
C26 C -0.0196(8) 0.4396(9) 0.0350(5)
H14 H -0.03140 0.40040 0.04210
C27 C 0.3192(7) 0.5185(7) 0.2200(3)
C28 C 0.3375(7) 0.5799(7) 0.2184(3)
H15 H 0.33840 0.60030 0.19750
C29 C 0.3543(6) 0.6107(4) 0.2481(4)
C30 C 0.3530(7) 0.5803(6) 0.2794(3)
H16 H 0.36430 0.60090 0.29930
C31 C 0.3348(7) 0.5189(6) 0.2810(3)
C32 C 0.3179(6) 0.4880(4) 0.2513(4)
H17 H 0.30570 0.44700 0.25230
C33 C 0.2582(8) 0.0583(8) 0.0297(4)
H18 H 0.27470 0.06940 0.05080
C34 C 0.2984(11) 0.2101(9) 0.1407(4)
H19 H 0.27100 0.23930 0.14920
C35 C 0.1306(8) 0.3695(7) -0.0725(3)
C36 C 0.1566(8) 0.4202(8) -0.0887(4)
H20 H 0.19140 0.43890 -0.07940
C37 C 0.1307(8) 0.4430(7) -0.1186(4)
H21 H 0.14810 0.47700 -0.12940
N4 N 0.0787(7) 0.4150(7) -0.1324(3)
C38 C 0.0526(7) 0.3642(9) -0.1162(5)
H22 H 0.01780 0.34550 -0.12550
C39 C 0.0786(9) 0.3415(8) -0.0863(5)
H23 H 0.06110 0.30750 -0.07550
C40 C 0.3345(12) 0.1742(11) 0.1643(4)
H24 H 0.32710 0.17840 0.18760
C41 C 0.4052(10) 0.0890(11) 0.1777(6)
C42 C 0.2944(13) 0.4779(9) 0.3746(5)
H25 H 0.29740 0.49720 0.39580
C43 C 0.2777(13) 0.4202(9) 0.3725(5)
C44 C 0.2788(10) 0.3893(8) 0.3397(5)
H26 H 0.26810 0.34790 0.33820
C45 C 0.3119(12) 0.4831(9) 0.3131(5)
C46 C 0.3079(13) 0.5111(9) 0.3436(5)
H27 H 0.31410 0.55340 0.34480
C47 C 0.2956(10) 0.4211(8) 0.3113(5)
H28 H 0.29630 0.40120 0.29020
C48 C 0.2802(6) 0.0042(6) 0.0099(4)
H29 H 0.32200 -0.00530 0.01100
O17 O 0.4358(8) 0.0380(7) 0.1614(3)
O18 O 0.4600(7) 0.8703(6) 0.1954(4)
C49 C 0.4586(11) 0.8557(14) 0.2276(4)
C50 C 0.3789(10) 0.6799(8) 0.2469(6)
C51 C 0.4177(12) 0.7127(10) 0.2700(6)
H30 H 0.42240 0.69630 0.29180
C52 C 0.4320(13) 0.7933(11) 0.2346(7)
C53 C 0.4493(12) 0.7668(11) 0.2629(6)
H31 H 0.47980 0.78270 0.27710
C54 C 0.3886(11) 0.7725(11) 0.2111(6)
H32 H 0.37680 0.79550 0.19200
C55 C 0.3641(10) 0.7150(11) 0.2181(6)
H33 H 0.33590 0.69860 0.20270
O7B O -0.0803(5) 0.6499(5) 0.0239(3)
C4B C -0.0895(7) 0.6003(7) 0.0306(3)
C5B C -0.0504(7) 0.5412(7) 0.0294(3)
O14B O -0.1502(4) 0.5768(4) 0.0361(3)
C10B C -0.0669(9) 0.4926(8) 0.0277(5)
H4B H -0.10760 0.48380 0.02200
C26B C 0.0196(8) 0.5604(9) 0.0350(5)
H14B H 0.03140 0.59960 0.04210
Ni1A Ni 0.26702(12) -0.11786(12) -0.02265(8)
Ni2A Ni 0.38257(11) -0.23252(11) -0.02352(7)
Ni4A Ni 0.25250(13) -0.24711(12) -0.07333(5)
Ni5A Ni 0.45520(18) -0.04213(20) 0.17636(8)
O1A O 0.2997(4) -0.2007(4) -0.03813(18)
O3A O 0.8771(4) -0.4895(4) -0.2542(3)
O4A O 0.3426(4) -0.3161(5) -0.0113(3)
N1A N 0.2642(5) -0.5303(5) 0.0033(3)
O5A O 0.0934(6) -0.3996(5) -0.2094(2)
O6A O 0.1770(5) -0.1476(5) -0.0170(4)
O8A O 0.4092(6) -0.2562(5) -0.0722(3)
N2A N 0.2033(7) -0.3027(6) -0.1092(2)
O9A O 0.3629(6) -0.2045(6) 0.0285(3)
O10A O 0.2903(7) -0.1306(7) 0.0266(4)
N3A N -0.0349(6) -0.2412(6) 0.0109(4)
C1A C 0.2928(8) -0.4114(7) -0.0137(5)
C2A C 0.0888(7) -0.2135(7) -0.0150(4)
C3A C 0.1504(7) -0.1933(7) -0.0238(4)
O11A O 0.1791(5) -0.2445(5) -0.0425(3)
O12A O 0.4162(7) -0.2627(7) -0.4342(3)
O13A O 0.2783(4) -0.3287(4) -0.0530(2)
C6A C 0.2909(7) -0.3423(9) -0.0274(5)
C7A C 0.0523(5) -0.1685(5) 0.0071(3)
H1A H 0.06680 -0.12980 0.01350
O15A O 0.3258(9) -0.2705(7) -0.1018(5)
C8A C -0.0069(7) -0.1922(7) 0.0170(4)
H2A H -0.02900 -0.16540 0.03100
C9A C 0.3160(15) -0.4376(14) 0.0073(8)
H3A H 0.33720 -0.41360 0.02320
O16A O 0.3268(8) -0.2646(6) -0.3985(3)
C11A C 0.4244(7) -0.2935(6) -0.1251(3)
C12A C 0.4868(8) -0.2792(6) -0.1257(3)
H5A H 0.50580 -0.26350 -0.10630
C13A C 0.5209(9) -0.2883(5) -0.1554(4)
H6A H 0.56270 -0.27870 -0.15580
C14A C 0.4925(8) -0.3117(7) -0.1846(3)
C15A C 0.4301(8) -0.3260(8) -0.1840(3)
H7A H 0.41110 -0.34170 -0.20340
C16A C 0.3960(7) -0.3169(5) -0.1543(4)
H8A H 0.35420 -0.32650 -0.15390
C17A C 0.3180(7) -0.5033(7) 0.0134(5)
H9A H 0.35130 -0.52430 0.02290
C18A C 0.1368(9) -0.3761(9) -0.1545(3)
C19A C 0.3871(8) -0.2680(8) -0.4059(4)
C20A C 0.3835(8) -0.2687(9) -0.0992(5)
C21A C 0.2306(8) -0.4346(8) -0.0179(4)
H10A H 0.19420 -0.41280 -0.02100
C22A C 0.3342(11) -0.1625(12) 0.0436(4)
C23A C 0.1646(7) -0.3478(6) -0.0972(4)
H11A H 0.16170 -0.35440 -0.07380
C24A C 0.2396(11) -0.498(1) -0.0160(6)
H12A H 0.22200 -0.51920 -0.03420
C25A C 0.1296(7) -0.3839(7) -0.1192(3)
H13A H 0.10200 -0.41270 -0.11060
C27A C 0.5185(7) -0.3192(7) -0.2200(3)
C28A C 0.5799(7) -0.3375(7) -0.2184(3)
H15A H 0.60030 -0.33840 -0.19750
C29A C 0.6107(6) -0.3543(4) -0.2481(4)
C30A C 0.5803(7) -0.3530(6) -0.2794(3)
H16A H 0.60090 -0.36430 -0.29930
C31A C 0.5189(7) -0.3348(6) -0.2810(3)
C32A C 0.4880(6) -0.3179(4) -0.2513(4)
H17A H 0.44700 -0.30570 -0.25230
C33A C 0.0583(8) -0.2582(8) -0.0297(4)
H18A H 0.06940 -0.27470 -0.05080
C34A C 0.2101(11) -0.2984(9) -0.1407(4)
H19A H 0.23930 -0.27100 -0.14920
C35A C 0.3695(8) -0.1306(7) 0.0725(3)
C36A C 0.4202(8) -0.1566(8) 0.0887(4)
H20A H 0.43890 -0.19140 0.07940
C37A C 0.4430(8) -0.1307(7) 0.1186(4)
H21A H 0.47700 -0.14810 0.12940
N4A N 0.4150(7) -0.0787(7) 0.1324(3)
C38A C 0.3642(7) -0.0526(9) 0.1162(5)
H22A H 0.34550 -0.01780 0.12550
C39A C 0.3415(9) -0.0786(8) 0.0863(5)
H23A H 0.30750 -0.06110 0.07550
C40A C 0.1742(12) -0.3345(11) -0.1643(4)
H24A H 0.17840 -0.32710 -0.18760
C41A C 0.089(1) -0.4052(11) -0.1777(6)
C42A C 0.4779(13) -0.2944(9) -0.3746(5)
H25A H 0.49720 -0.29740 -0.39580
C43A C 0.4202(13) -0.2777(9) -0.3725(5)
C44A C 0.3893(10) -0.2788(8) -0.3397(5)
H26A H 0.34790 -0.26810 -0.33820
C45A C 0.4831(12) -0.3119(9) -0.3131(5)
C46A C 0.5111(13) -0.3079(9) -0.3436(5)
H27A H 0.55340 -0.31410 -0.34480
C47A C 0.4211(10) -0.2956(8) -0.3113(5)
H28A H 0.40120 -0.29630 -0.29020
C48A C 0.0042(6) -0.2802(6) -0.0099(4)
H29A H -0.00530 -0.32200 -0.01100
O17A O 0.0380(8) -0.4358(7) -0.1614(3)
O18A O 0.8703(7) -0.4600(6) -0.1954(4)
C49A C 0.8557(11) -0.4586(14) -0.2276(4)
C50A C 0.6799(10) -0.3789(8) -0.2469(6)
C51A C 0.7127(12) -0.4177(10) -0.2700(6)
H30A H 0.69630 -0.42240 -0.29180
C52A C 0.7933(13) -0.4320(11) -0.2346(7)
C53A C 0.7668(12) -0.4493(11) -0.2629(6)
H31A H 0.78270 -0.47980 -0.27710
C54A C 0.7725(11) -0.3886(11) -0.2111(6)
H32A H 0.79550 -0.37680 -0.19200
C55A C 0.715(1) -0.3641(11) -0.2181(6)
H33A H 0.69860 -0.33590 -0.20270
Ni1B Ni -0.11786(12) -0.26702(12) 0.02265(8)
Ni1B* Ni -0.11786(12) 0.73298(12) 0.02265(8)
Ni1E Ni 0.23298(12) 0.38214(12) 0.47735(8)
Ni1F Ni 0.38214(12) -0.23298(12) -0.47735(8)
Ni2* Ni 0.23252(11) -0.61743(11) 0.02352(7)
Ni2B Ni -0.23252(11) 0.61743(11) 0.02352(7)
Ni2C Ni 0.61743(11) 0.23252(11) -0.02352(7)
Ni3* Ni 0.05169(8) -0.44831(8) -0.25000
Ni3A Ni 0.55169(8) 0.94831(8) 0.25000
Ni3B Ni -0.05169(8) 0.44831(8) -0.25000
Ni3B* Ni 0.94831(8) -0.55169(8) -0.25000
Ni3C Ni 0.44831(8) 0.05169(8) 0.25000
Ni4E Ni 0.24750(13) 0.25289(12) 0.42667(5)
Ni4F Ni 0.25289(13) -0.24750(12) -0.42667(5)
Ni5* Ni 0.04213(18) -0.5448(2) -0.17636(8)
Ni5A* Ni 0.45520(18) 0.95787(20) 0.17636(8)
Ni5B Ni -0.04213(18) -0.4552(2) -0.17636(8)
Ni5B* Ni -0.04213(18) 0.5448(2) -0.17636(8)
Ni5B** Ni 0.95787(18) -0.4552(2) -0.17636(8)
Ni5C Ni 0.54480(18) 0.04213(20) 0.17636(8)
O2A O 0.50000 0.00000 0.2158(2)
O2D O 0.00000 0.50000 -0.2842(2)
O3C O 0.1229(4) 0.4895(4) -0.2542(3)
O3G O -0.0105(4) 0.6229(4) -0.2458(3)
N1A* N 0.2642(5) 0.4697(5) 0.0033(3)
N1B N 0.4697(5) -0.2642(5) -0.0033(3)
O5A* O 0.0934(6) 0.6004(5) -0.2094(2)
O5F O 0.1004(6) 0.5934(5) -0.2906(2)
O7A O 0.3501(5) -0.0803(5) -0.0239(3)
N3C N 0.0349(6) 0.2412(6) 0.0109(4)
O12E O 0.0838(7) 0.2373(7) 0.0658(3)
O12F O 0.2373(7) -0.0838(7) -0.0658(3)
O14A O 0.4232(4) -0.1502(4) -0.0361(3)
O16E O 0.1732(8) 0.2354(6) 0.1015(3)
O16F O 0.2354(8) -0.1732(6) -0.1015(3)
O17A* O 0.0380(8) 0.5642(7) -0.1614(3)
O17B O 0.5642(8) -0.0380(7) 0.1614(3)
O17C O -0.0380(8) 0.4358(7) -0.1614(3)
O18* O 0.4600(7) -0.1297(6) 0.1954(4)
O18C O 0.1297(7) 0.4600(6) -0.1954(4)
#END
