
#######################################################################
#
#                 Cambridge Crystallographic Data Centre
#                                CCDC
#
#######################################################################
#
# If this CIF has been generated from an entry in the Cambridge
# Structural Database, then it will include bibliographic, chemical,
# crystal, experimental, refinement or atomic coordinate data resulting
# from the CCDC's data processing and validation procedures.
#
#######################################################################

data_CSD_CIF_CUSLAG
_audit_creation_date 2020-05-12
_audit_creation_method CSD-ConQuest-V1
_database_code_CSD CUSLAG
_database_code_depnum_ccdc_archive 'CCDC 1990889'
_chemical_formula_sum 'C88 H80 N2 O36 Tb6'
_chemical_formula_moiety
;
(C84 H64 O36 Tb6 2-)n,2(C2 H8 N1 1+)
;
_journal_coden_Cambridge 4
_journal_volume 142
_journal_year 2020
_journal_page_first 9135
_journal_name_full 'J.Am.Chem.Soc. '
loop_
_publ_author_name
"B.Ortin-Rubio"
"H.Ghasempour"
"V.Guillerm"
"A.Morsali"
"Judith Juanhuix"
"I.Imaz"
"D.Maspoch"
_chemical_name_systematic
;
catena-[bis(dimethylammonium) 
hexakis(\m-[1,1'-biphenyl]-3,3'-dicarboxylato)-octakis(\m-hydroxo)-tetra-aqua-
hexa-terbium(iii) unknown solvate]
;
_cell_volume   7264.256
_exptl_crystal_colour 'metallic light colorless'
_exptl_crystal_description 'block'
_diffrn_ambient_temperature 100
_diffrn_radiation_probe x-ray
_diffrn_source synchrotron
_refine_special_details
;
Disordered dimethylammonium cation and solvent molecules were not modelled 
and the disordered density was taken into account using the SQUEEZE/PLATON 
procedure.
;
#These two values have been output from a single CSD field.
_refine_ls_R_factor_gt 0.042
_refine_ls_wR_factor_gt 0.042
_symmetry_cell_setting monoclinic
_symmetry_space_group_name_H-M 'P 21/n'
_symmetry_Int_Tables_number 14
loop_
_symmetry_equiv_pos_site_id
_symmetry_equiv_pos_as_xyz
1 x,y,z
2 1/2-x,1/2+y,1/2-z
3 -x,-y,-z
4 -1/2+x,-1/2-y,-1/2+z
_cell_length_a 17.290(5)
_cell_length_b 17.430(5)
_cell_length_c 24.110(5)
_cell_angle_alpha 90
_cell_angle_beta 91.22(5)
_cell_angle_gamma 90
_cell_formula_units_Z 2
loop_
_atom_type_symbol
_atom_type_radius_bond
C 0.68
H 0.23
O 0.68
Tb 1.94
loop_
_atom_site_label
_atom_site_type_symbol
_atom_site_fract_x
_atom_site_fract_y
_atom_site_fract_z
Tb1 Tb 0.57963(2) 0.62915(2) 0.48313(2)
Tb2 Tb 0.36138(2) 0.58511(2) 0.50512(2)
Tb3 Tb 0.52215(2) 0.51811(2) 0.61620(2)
O1 O 0.61103(14) 0.52930(13) 0.54261(11)
O2 O 0.58973(14) 0.51260(13) 0.43603(11)
O3 O 0.48320(15) 0.60790(14) 0.54727(11)
O4 O 0.46300(15) 0.59079(14) 0.44094(11)
O5 O 0.7918(2) 0.8948(2) 0.91929(15)
O6 O 0.9287(2) 0.9066(2) 0.16357(14)
O7 O 0.5431(2) 0.5803(2) 0.33519(15)
O8 O 0.25887(19) 0.5025(2) 0.52061(17)
O9 O 0.5104(2) 0.74303(18) 0.47814(16)
O10 O 0.7318(2) 0.8412(2) 0.98895(16)
O11 O 0.6272(2) 0.6977(2) 0.56022(15)
O12 O 0.5971(2) 0.6676(2) 0.39231(15)
O13 O 0.3856(2) 0.71603(19) 0.49197(19)
O14 O 0.3207(2) 0.6336(2) 0.59232(16)
O15 O 0.28549(19) 0.3774(2) 0.52561(16)
O16 O 0.5946(2) 0.6284(2) 0.63394(16)
O17 O 1.0170(2) 0.9501(2) 0.22166(15)
C1 C 0.9572(3) 0.9129(3) 0.2121(2)
C2 C 0.7383(3) 0.8527(3) 0.9379(2)
C3 C 0.5917(4) 0.6311(3) 0.3469(2)
C4 C 0.6208(3) 0.6875(3) 0.6107(2)
C5 C 0.9158(3) 0.8752(3) 0.2593(2)
C6 C 0.4407(4) 0.7602(3) 0.4846(3)
C7 C 0.2400(3) 0.4336(3) 0.5221(2)
C8 C 0.7056(4) 0.7060(4) 0.3149(3)
H1 H 0.70626 0.73209 0.34949
C9 C 0.8590(4) 0.8207(4) 0.2467(2)
H2 H 0.84416 0.81098 0.20915
C10 C 0.9352(4) 0.8925(5) 0.3131(3)
H3 H 0.97406 0.92956 0.32133
C11 C 0.8238(4) 0.7802(5) 0.2898(3)
C12 C 0.7622(6) 0.7222(5) 0.2763(3)
C13 C 0.6477(5) 0.6516(5) 0.3033(3)
C14 C 0.8975(6) 0.8553(7) 0.3552(3)
H4 H 0.90878 0.86874 0.39268
C15 C 0.8437(6) 0.7988(6) 0.3435(3)
H5 H 0.82009 0.77229 0.37318
C16 C 0.6439(5) 0.7524(4) 0.6492(3)
C17 C 0.6327(5) 0.7442(5) 0.7060(3)
H6 H 0.61241 0.69772 0.72016
C18 C 0.6745(9) 0.8188(5) 0.6277(4)
H7 H 0.68276 0.82321 0.58898
C19 C 0.7580(9) 0.6836(8) 0.2248(5)
H8 H 0.79639 0.69270 0.19801
C20 C 0.6515(6) 0.8045(6) 0.7422(4)
C21 C 0.6437(5) 0.7895(5) 0.80427(16)
C22 C 0.5910(6) 0.7358(6) 0.8234(2)
H9 H 0.55891 0.70852 0.79773
C23 C 0.5854(6) 0.7222(7) 0.8799(3)
H10 H 0.54939 0.68556 0.89297
C24 C 0.6324(5) 0.7622(6) 0.91742(18)
H11 H 0.62854 0.75286 0.95608
C25 C 0.6851(4) 0.8158(4) 0.89834(18)
C26 C 0.6907(3) 0.8294(3) 0.84177(19)
H12 H 0.72673 0.86608 0.82872
C27 C 0.4640(4) 0.9734(3) 0.4848(7)
C28 C 0.3893(4) 0.9984(2) 0.4725(7)
H13 H 0.37866 1.05180 0.46980
C29 C 0.3301(4) 0.9454(3) 0.4643(6)
H14 H 0.27900 0.96257 0.45592
C30 C 0.3456(3) 0.8674(3) 0.4683(4)
H15 H 0.30518 0.83114 0.46266
C31 C 0.4204(3) 0.8423(2) 0.4805(4)
C32 C 0.4796(3) 0.8953(3) 0.4888(5)
H16 H 0.53068 0.87817 0.49714
C33 C 0.6445(8) 0.6153(7) 0.2516(4)
H17 H 0.60505 0.57877 0.24344
C34 C 0.6983(10) 0.6327(9) 0.2131(5)
H18 H 0.69489 0.60938 0.17747
C35 C 0.6837(10) 0.8700(6) 0.7210(4)
H19 H 0.70003 0.90963 0.74557
C36 C 0.6931(12) 0.8795(7) 0.6635(5)
H20 H 0.71183 0.92658 0.64916
C37 C 0.0000(3) 0.3891(3) 0.5004(8)
H21 H -0.05343 0.37922 0.49369
C38 C 0.0510(3) 0.3286(2) 0.5096(7)
H22 H 0.03243 0.27729 0.50914
C39 C 0.1291(3) 0.3431(2) 0.5193(6)
H23 H 0.16400 0.30171 0.52560
C40 C 0.1563(2) 0.4182(3) 0.5199(4)
C41 C 0.1053(2) 0.4787(2) 0.5107(5)
H24 H 0.12387 0.53001 0.51116
C42 C 0.0272(2) 0.4642(3) 0.5010(7)
O18 O 0.6307(2) 0.4595(2) 0.66057(15)
O8B O -0.25887(19) 0.4975(2) 0.47939(17)
O15B O -0.28549(19) 0.6226(2) 0.47439(16)
C7B C -0.2400(3) 0.5664(3) 0.4779(2)
C37B C 0.0000(3) 0.6109(3) 0.4996(8)
H21B H 0.05343 0.62078 0.50631
C38B C -0.0510(3) 0.6714(2) 0.4904(7)
H22B H -0.03243 0.72271 0.49086
C39B C -0.1291(3) 0.6569(2) 0.4807(6)
H23B H -0.16400 0.69829 0.47440
C40B C -0.1563(2) 0.5818(3) 0.4801(4)
C41B C -0.1053(2) 0.5213(2) 0.4893(5)
H24B H -0.12387 0.46999 0.48884
C42B C -0.0272(2) 0.5358(3) 0.4990(7)
O9B O 0.4896(2) 1.25697(18) 0.52186(16)
O13B O 0.6144(2) 1.28397(19) 0.50803(19)
C6B C 0.5593(4) 1.2398(3) 0.5154(3)
C27B C 0.5360(4) 1.0266(3) 0.5152(7)
C28B C 0.6107(4) 1.0016(2) 0.5275(7)
H13B H 0.62134 0.94820 0.53020
C29B C 0.6699(4) 1.0546(3) 0.5357(6)
H14B H 0.72100 1.03743 0.54408
C30B C 0.6544(3) 1.1326(3) 0.5317(4)
H15B H 0.69482 1.16886 0.53734
C31B C 0.5796(3) 1.1577(2) 0.5195(4)
C32B C 0.5204(3) 1.1047(3) 0.5112(5)
H16B H 0.46932 1.12183 0.50286
Tb1B Tb -0.57963(2) 0.37085(2) 0.51687(2)
Tb2B Tb -0.36138(2) 0.41489(2) 0.49488(2)
Tb3B Tb -0.52215(2) 0.48189(2) 0.38380(2)
O1B O -0.61103(14) 0.47070(13) 0.45739(11)
O2B O -0.58973(14) 0.48740(13) 0.56397(11)
O3B O -0.48320(15) 0.39210(14) 0.45273(11)
O4B O -0.46300(15) 0.40921(14) 0.55906(11)
O5B O -0.7918(2) 0.1052(2) 0.08071(15)
O6B O -0.9287(2) 0.0934(2) 0.83643(14)
O7B O -0.5431(2) 0.4197(2) 0.66481(15)
O10B O -0.7318(2) 0.1588(2) 0.01105(16)
O11B O -0.6272(2) 0.3023(2) 0.43978(15)
O12B O -0.5971(2) 0.3324(2) 0.60769(15)
O14B O -0.3207(2) 0.3664(2) 0.40768(16)
O16B O -0.5946(2) 0.3716(2) 0.36606(16)
O17B O -1.0170(2) 0.0499(2) 0.77834(15)
C1B C -0.9572(3) 0.0871(3) 0.7879(2)
C2B C -0.7383(3) 0.1473(3) 0.0621(2)
C3B C -0.5917(4) 0.3689(3) 0.6531(2)
C4B C -0.6208(3) 0.3125(3) 0.3893(2)
C5B C -0.9158(3) 0.1248(3) 0.7407(2)
C8B C -0.7056(4) 0.2940(4) 0.6851(3)
H1B H -0.70626 0.26791 0.65051
C9B C -0.8590(4) 0.1793(4) 0.7533(2)
H2B H -0.84416 0.18902 0.79085
C10B C -0.9352(4) 0.1075(5) 0.6869(3)
H3B H -0.97406 0.07044 0.67867
C11B C -0.8238(4) 0.2198(5) 0.7102(3)
C12B C -0.7622(6) 0.2778(5) 0.7237(3)
C13B C -0.6477(5) 0.3484(5) 0.6967(3)
C14B C -0.8975(6) 0.1447(7) 0.6448(3)
H4B H -0.90878 0.13126 0.60732
C15B C -0.8437(6) 0.2012(6) 0.6565(3)
H5B H -0.82009 0.22771 0.62682
C16B C -0.6439(5) 0.2476(4) 0.3508(3)
C17B C -0.6327(5) 0.2558(5) 0.2940(3)
H6B H -0.61241 0.30228 0.27984
C18B C -0.6745(9) 0.1812(5) 0.3723(4)
H7B H -0.68276 0.17679 0.41102
C19B C -0.7580(9) 0.3164(8) 0.7752(5)
H8B H -0.79639 0.30730 0.80199
C20B C -0.6515(6) 0.1955(6) 0.2578(4)
C21B C -0.6437(5) 0.2105(5) 0.19573(16)
C22B C -0.5910(6) 0.2642(6) 0.1766(2)
H9B H -0.55891 0.29148 0.20227
C23B C -0.5854(6) 0.2778(7) 0.1201(3)
H10B H -0.54939 0.31444 0.10703
C24B C -0.6324(5) 0.2378(6) 0.08258(18)
H11B H -0.62854 0.24714 0.04392
C25B C -0.6851(4) 0.1842(4) 0.10166(18)
C26B C -0.6907(3) 0.1706(3) 0.15823(19)
H12B H -0.72673 0.13392 0.17128
C33B C -0.6445(8) 0.3847(7) 0.7484(4)
H17B H -0.60505 0.42123 0.75656
C34B C -0.6983(10) 0.3673(9) 0.7869(5)
H18B H -0.69489 0.39062 0.82253
C35B C -0.6837(10) 0.1300(6) 0.2790(4)
H19B H -0.70003 0.09037 0.25443
C36B C -0.6931(12) 0.1205(7) 0.3365(5)
H20B H -0.71183 0.07342 0.35084
O18B O -0.6307(2) 0.5405(2) 0.33943(15)
Tb1* Tb -0.42037(2) 0.62915(2) 0.48313(2)
Tb1B* Tb 0.42037(2) 0.37085(2) 0.51687(2)
Tb1B** Tb 0.42037(2) 1.37085(2) 0.51687(2)
Tb2* Tb -0.63862(2) 0.58511(2) 0.50512(2)
Tb2A Tb -0.86138(2) 0.08511(2) -0.00512(2)
Tb2B* Tb 0.63862(2) 0.41489(2) 0.49488(2)
Tb2B** Tb 0.63862(2) 1.41489(2) 0.49488(2)
Tb2C Tb 0.86138(2) 0.91489(2) 1.00512(2)
Tb3* Tb -0.47785(2) 0.51811(2) 0.61620(2)
Tb3A Tb -1.02215(2) 0.01811(2) 0.88380(2)
Tb3B* Tb 0.47785(2) 0.48189(2) 0.38380(2)
Tb3C Tb 1.02215(2) 0.98189(2) 0.11620(2)
O1* O -0.38897(14) 0.52930(13) 0.54261(11)
O1B* O 0.38897(14) 0.47070(13) 0.45739(11)
O2* O -0.41027(14) 0.51260(13) 0.43603(11)
O2B* O 0.41027(14) 0.48740(13) 0.56397(11)
O4* O -0.53700(15) 0.59079(14) 0.44094(11)
O4B* O 0.53700(15) 0.40921(14) 0.55906(11)
O5A O -0.2918(2) 0.3948(2) 0.58071(15)
O5C O 0.2918(2) 0.6052(2) 0.41929(15)
O6A O -0.4287(2) 0.4066(2) 0.33643(14)
O6C O 0.4287(2) 0.5934(2) 0.66357(14)
O7* O -0.4569(2) 0.5803(2) 0.33519(15)
O7B* O 0.4569(2) 0.4197(2) 0.66481(15)
O9B* O -0.5104(2) 0.25697(18) 0.52186(16)
O10A O -0.2318(2) 0.3412(2) 0.51105(16)
O10C O 0.2318(2) 0.6588(2) 0.48895(16)
O13B* O -0.3856(2) 0.28397(19) 0.50803(19)
O15* O -0.71451(19) 0.3774(2) 0.52561(16)
O15B* O 0.71451(19) 0.6226(2) 0.47439(16)
O17A O -0.5170(2) 0.4501(2) 0.27834(15)
O17C O 0.5170(2) 0.5499(2) 0.72166(15)
#END
