
#######################################################################
#
#                 Cambridge Crystallographic Data Centre
#                                CCDC
#
#######################################################################
#
# If this CIF has been generated from an entry in the Cambridge
# Structural Database, then it will include bibliographic, chemical,
# crystal, experimental, refinement or atomic coordinate data resulting
# from the CCDC's data processing and validation procedures.
#
#######################################################################

data_CSD_CIF_CUSQIT
_audit_creation_date 2020-05-12
_audit_creation_method CSD-ConQuest-V1
_database_code_CSD CUSQIT
_database_code_depnum_ccdc_archive 'CCDC 1971674'
_chemical_formula_sum 'C52 H40 Cu2 N2 O12'
_chemical_formula_moiety
;
(C48 H24 Cu2 O12 2-)n,2n(C2 H8 N1 1+)
;
_journal_coden_Cambridge 4
_journal_volume 142
_journal_year 2020
_journal_page_first 9471
_journal_name_full 'J.Am.Chem.Soc. '
loop_
_publ_author_name
"F.M.A.Noa"
"E.S.Grape"
"S.M.Brulls"
"Ocean Cheung"
"P.Malmberg"
"A.Ken Inge"
"C.J.McKenzie"
"J.Martensson"
"L.Ohrstrom"
_chemical_name_systematic
;
catena-(bis(dimethylammonium) 
(\m-hexakis(4-carboxylatophenyl)benzene)-di-copper unknown solvate)
;
_chemical_name_common
;
CTH-7
;
_cell_volume   5048.019
_exptl_crystal_colour 'sky blue'
_exptl_crystal_density_diffrn 1.332
_exptl_crystal_description 'block'
_diffrn_ambient_temperature 100
_refine_special_details
;
The SQUEEZE/PLATON program was used to model some disorder.

;
#These two values have been output from a single CSD field.
_refine_ls_R_factor_gt 0.1199
_refine_ls_wR_factor_gt 0.1199
_symmetry_cell_setting monoclinic
_symmetry_space_group_name_H-M 'I 2/a'
_symmetry_Int_Tables_number 15
loop_
_symmetry_equiv_pos_site_id
_symmetry_equiv_pos_as_xyz
1 x,y,z
2 1/2-x,y,-z
3 1/2+x,1/2+y,1/2+z
4 -x,1/2+y,1/2-z
5 -x,-y,-z
6 -1/2+x,-y,z
7 -1/2-x,-1/2-y,-1/2-z
8 x,-1/2-y,-1/2+z
_cell_length_a 12.8598(8)
_cell_length_b 29.2610(14)
_cell_length_c 13.8247(7)
_cell_angle_alpha 90
_cell_angle_beta 103.980(6)
_cell_angle_gamma 90
_cell_formula_units_Z 4
loop_
_atom_type_symbol
_atom_type_radius_bond
C 0.68
H 0.23
Cu 1.32
N 0.68
O 0.68
loop_
_atom_site_label
_atom_site_type_symbol
_atom_site_fract_x
_atom_site_fract_y
_atom_site_fract_z
Cu1 Cu 0.25000 0.23840(4) 0.50000
Cu2 Cu 0.25000 -0.10390(4) 0.50000
O1 O 0.3043(4) 0.19486(15) 0.6067(4)
O2 O 0.4431(4) 0.21450(19) 0.5460(4)
O3 O 0.3824(8) -0.0538(2) 0.5257(5)
O4 O 0.3251(5) -0.0910(2) 0.6406(4)
O5 O 0.7311(4) -0.20294(15) 0.9187(4)
O6 O 0.8376(8) 0.33028(19) 1.0145(4)
C1 C 0.4046(5) 0.1933(2) 0.6068(5)
C2 C 0.4772(5) 0.1646(2) 0.6869(4)
C3 C 0.4332(5) 0.1411(3) 0.7554(5)
H1 H 0.35991 0.14245 0.75077
C4 C 0.4994(5) 0.1159(2) 0.8303(5)
H2 H 0.46956 0.09979 0.87493
C5 C 0.6081(5) 0.11424(18) 0.8400(4)
C6 C 0.6513(5) 0.1378(2) 0.7705(4)
H3 H 0.72467 0.13698 0.77550
C7 C 0.5847(5) 0.1624(2) 0.6942(4)
H4 H 0.61373 0.17754 0.64762
C8 C 0.6800(4) 0.08790(18) 0.9217(4)
C9 C 0.6784(4) 0.04004(18) 0.9230(4)
C10 C 0.75000 0.0162(3) 1.00000
C11 C 0.75000 0.1116(3) 1.00000
C12 C 0.6024(5) 0.01484(19) 0.8422(4)
C13 C 0.6069(6) 0.0192(2) 0.7431(4)
H5 H 0.65728 0.03837 0.72600
C14 C 0.5351(6) -0.0054(2) 0.6695(5)
H6 H 0.53837 -0.00278 0.60328
C15 C 0.4587(6) -0.0338(2) 0.6946(5)
C16 C 0.4546(5) -0.0383(2) 0.7928(5)
H7 H 0.40482 -0.05782 0.80979
C17 C 0.5249(5) -0.0136(2) 0.8664(5)
H8 H 0.52049 -0.01606 0.93238
C18 C 0.3843(7) -0.0604(2) 0.6152(6)
C19 C 0.75000 -0.0351(3) 1.00000
C20 C 0.7634(5) -0.05896(18) 0.9171(4)
H9 H 0.77415 -0.04319 0.86187
C21 C 0.7608(5) -0.1068(2) 0.9166(5)
H10 H 0.76641 -0.12266 0.85983
C22 C 0.75000 -0.1304(3) 1.00000
C23 C 0.75000 -0.1816(3) 1.00000
C24 C 0.75000 0.1628(3) 1.00000
C25 C 0.8375(5) 0.1871(2) 0.9827(4)
H11 H 0.89598 0.17123 0.97110
C26 C 0.8381(6) 0.2344(2) 0.9827(4)
H12 H 0.89677 0.25019 0.97135
C27 C 0.75000 0.2584(3) 1.00000
C28 C 0.75000 0.3098(4) 1.00000
N1 N 0.4835(7) 0.1922(3) 0.3286(5)
H13 H 0.43652 0.17017 0.33128
H14 H 0.53196 0.19226 0.38673
C29 C 0.5443(15) 0.1832(8) 0.2498(16)
H15 H 0.49955 0.16651 0.19568
H16 H 0.60742 0.16571 0.27801
H17 H 0.56452 0.21180 0.22544
C30 C 0.4246(10) 0.2366(4) 0.3175(7)
H18 H 0.37329 0.23738 0.25422
H19 H 0.47454 0.26132 0.32100
H20 H 0.38810 0.23976 0.37004
O1A O 1.1957(4) 0.19486(15) 1.3933(4)
O2A O 1.0569(4) 0.21450(19) 1.4540(4)
O3A O 1.1176(8) -0.0538(2) 1.4743(5)
O4A O 1.1749(5) -0.0910(2) 1.3594(4)
O5A O 0.7689(4) -0.20294(15) 1.0813(4)
O6A O 0.6624(8) 0.33028(19) 0.9855(4)
C1A C 1.0954(5) 0.1933(2) 1.3932(5)
C2A C 1.0228(5) 0.1646(2) 1.3131(4)
C3A C 1.0668(5) 0.1411(3) 1.2446(5)
H1A H 1.14009 0.14245 1.24923
C4A C 1.0006(5) 0.1159(2) 1.1697(5)
H2A H 1.03044 0.09979 1.12507
C5A C 0.8919(5) 0.11424(18) 1.1600(4)
C6A C 0.8487(5) 0.1378(2) 1.2295(4)
H3A H 0.77533 0.13698 1.22450
C7A C 0.9153(5) 0.1624(2) 1.3058(4)
H4A H 0.88627 0.17754 1.35238
C8A C 0.8200(4) 0.08790(18) 1.0783(4)
C9A C 0.8216(4) 0.04004(18) 1.0770(4)
C12A C 0.8976(5) 0.01484(19) 1.1578(4)
C13A C 0.8931(6) 0.0192(2) 1.2569(4)
H5A H 0.84272 0.03837 1.27400
C14A C 0.9649(6) -0.0054(2) 1.3305(5)
H6A H 0.96163 -0.00278 1.39672
C15A C 1.0413(6) -0.0338(2) 1.3054(5)
C16A C 1.0454(5) -0.0383(2) 1.2072(5)
H7A H 1.09518 -0.05782 1.19021
C17A C 0.9751(5) -0.0136(2) 1.1336(5)
H8A H 0.97951 -0.01606 1.06762
C18A C 1.1157(7) -0.0604(2) 1.3848(6)
C20A C 0.7366(5) -0.05896(18) 1.0829(4)
H9A H 0.72585 -0.04319 1.13813
C21A C 0.7392(5) -0.1068(2) 1.0834(5)
H10A H 0.73359 -0.12266 1.14017
C25A C 0.6625(5) 0.1871(2) 1.0173(4)
H11A H 0.60402 0.17123 1.02890
C26A C 0.6619(6) 0.2344(2) 1.0173(4)
H12A H 0.60323 0.25019 1.02865
Cu1* Cu 1.25000 0.23840(4) 1.50000
Cu1B Cu 0.75000 -0.26160(4) 1.00000
Cu2* Cu 1.25000 -0.10390(4) 1.50000
Cu2B Cu 0.75000 0.39610(4) 1.00000
O1A* O 0.1957(4) 0.19486(15) 0.3933(4)
O2A* O 0.0569(4) 0.21450(19) 0.4540(4)
O3A* O 0.1176(8) -0.0538(2) 0.4743(5)
O4A* O 0.1749(5) -0.0910(2) 0.3594(4)
O5B O 0.2311(4) 0.29706(15) 0.4187(4)
O5C O 0.2689(4) 0.29706(15) 0.5813(4)
O6B O 0.3376(8) -0.16972(19) 0.5145(4)
O6C O 0.1624(8) -0.16972(19) 0.4855(4)
#END
