
#######################################################################
#
#                 Cambridge Crystallographic Data Centre
#                                CCDC
#
#######################################################################
#
# If this CIF has been generated from an entry in the Cambridge
# Structural Database, then it will include bibliographic, chemical,
# crystal, experimental, refinement or atomic coordinate data resulting
# from the CCDC's data processing and validation procedures.
#
#######################################################################

data_CSD_CIF_CUSRAM
_audit_creation_date 2020-05-12
_audit_creation_method CSD-ConQuest-V1
_database_code_CSD CUSRAM
_database_code_depnum_ccdc_archive 'CCDC 1971677'
_chemical_formula_sum 'C60 H56 Fe2 N2 O12'
_chemical_formula_moiety
;
(C48 H24 Fe2 O12 2-)n,2n(C6 H16 N1 1+)
;
_journal_coden_Cambridge 4
_journal_volume 142
_journal_year 2020
_journal_page_first 9471
_journal_name_full 'J.Am.Chem.Soc. '
loop_
_publ_author_name
"F.M.A.Noa"
"E.S.Grape"
"S.M.Brulls"
"Ocean Cheung"
"P.Malmberg"
"A.Ken Inge"
"C.J.McKenzie"
"J.Martensson"
"L.Ohrstrom"
_chemical_name_systematic
;
catena-(bis(triethylammonium) 
(\m-hexakis(4-carboxylatophenyl)benzene)-di-iron)
;
_chemical_name_common
;
CTH-10
;
_cell_volume   5220.253
_exptl_crystal_colour 'orange'
_exptl_crystal_density_diffrn 1.411
_exptl_crystal_description 'block'
_diffrn_ambient_temperature 297
_diffrn_special_details
;
twin

;
#These two values have been output from a single CSD field.
_refine_ls_R_factor_gt 0.1765
_refine_ls_wR_factor_gt 0.1765
_symmetry_cell_setting monoclinic
_symmetry_space_group_name_H-M 'P 21'
_symmetry_Int_Tables_number 4
loop_
_symmetry_equiv_pos_site_id
_symmetry_equiv_pos_as_xyz
1 x,y,z
2 -x,1/2+y,-z
_cell_length_a 16.696(4)
_cell_length_b 21.624(5)
_cell_length_c 16.696(4)
_cell_angle_alpha 90
_cell_angle_beta 120
_cell_angle_gamma 90
_cell_formula_units_Z 4
loop_
_atom_type_symbol
_atom_type_radius_bond
C 0.68
H 0.23
Fe 1.52
N 0.68
O 0.68
loop_
_atom_site_label
_atom_site_type_symbol
_atom_site_fract_x
_atom_site_fract_y
_atom_site_fract_z
Fe1 Fe 0.4308(3) 0.3747(4) -0.1399(3)
O1 O 0.5343(16) 0.4154(10) -0.1679(14)
O2 O 0.4614(14) 0.3351(10) -0.2382(13)
O3 O 0.5265(16) 0.3339(10) -0.0132(14)
O4 O 0.4630(14) 0.4186(9) -0.0125(13)
O5 O 0.3017(15) 0.4176(10) -0.2379(14)
O6 O 0.3009(15) 0.3344(10) -0.1618(14)
C1 C 0.5133(19) 0.3745(12) 0.0289(17)
C2 C 0.5684(13) 0.3764(8) 0.1303(7)
C3 C 0.5493(13) 0.4213(7) 0.1791(9)
C4 C 0.6222(13) 0.3253(6) 0.1783(9)
C5 C 0.6055(13) 0.4248(6) 0.2754(9)
H1 H 0.49994 0.44836 0.14789
C6 C 0.6794(13) 0.3294(7) 0.2745(9)
H2 H 0.62021 0.28925 0.14699
C7 C 0.6612(13) 0.3747(8) 0.3233(7)
H3 H 0.60557 0.46032 0.30698
H4 H 0.72882 0.30233 0.30556
C8 C 0.7140(16) 0.3750(14) 0.4249(14)
C9 C 0.6650(17) 0.3743(14) 0.4742(15)
C10 C 0.8089(16) 0.3753(14) 0.4730(14)
C11 C 0.7116(17) 0.3777(14) 0.5685(15)
C12 C 0.5610(16) 0.3681(12) 0.4212(14)
C13 C 0.8596(18) 0.3791(14) 0.4224(16)
C14 C 0.8595(16) 0.3711(14) 0.5692(15)
C15 C 0.6584(15) 0.3805(12) 0.6202(14)
C16 C 0.8113(17) 0.3749(14) 0.6171(15)
C17 C 0.509(2) 0.3209(14) 0.3680(19)
C18 C 0.5110(16) 0.4211(11) 0.4235(15)
C19 C 0.9167(19) 0.3272(13) 0.4245(18)
C20 C 0.862(2) 0.4288(15) 0.373(2)
C21 C 0.9594(16) 0.3672(12) 0.6207(14)
C22 C 0.6654(19) 0.4250(13) 0.6716(17)
C23 C 0.6038(19) 0.3276(12) 0.6168(17)
C24 C 0.8616(13) 0.3742(8) 0.7186(7)
C25 C 0.418(2) 0.3178(14) 0.322(2)
H5 H 0.54083 0.28717 0.36258
C26 C 0.413(2) 0.4253(14) 0.3695(17)
H6 H 0.54376 0.45405 0.46185
C27 C 0.958(2) 0.3282(14) 0.3737(18)
H7 H 0.92448 0.29319 0.46180
H8 H 0.83165 0.46500 0.37283
C28 C 0.908(2) 0.4273(14) 0.321(2)
C29 C 1.0108(19) 0.3214(13) 0.6729(17)
C30 C 1.010(2) 0.4183(13) 0.6146(18)
C31 C 0.620(2) 0.4267(13) 0.7225(18)
H9 H 0.70248 0.45836 0.67590
C32 C 0.563(2) 0.3260(13) 0.6705(17)
H10 H 0.59633 0.29456 0.57809
C33 C 0.9203(13) 0.4234(7) 0.7668(9)
C34 C 0.8388(12) 0.3317(7) 0.7675(9)
C35 C 0.3682(19) 0.3679(15) 0.3183(17)
H11 H 0.38775 0.28118 0.29356
H12 H 0.38074 0.46092 0.36644
C36 C 0.9552(19) 0.3802(15) 0.3245(17)
H13 H 0.98850 0.29307 0.37117
H14 H 0.90442 0.46103 0.28501
C37 C 1.105(2) 0.3221(14) 0.7220(18)
H15 H 0.98082 0.28613 0.67648
C38 C 1.1069(18) 0.4241(12) 0.6684(16)
H16 H 0.97655 0.44969 0.57287
H17 H 0.62449 0.46193 0.75647
C39 C 0.5684(19) 0.3769(15) 0.7235(17)
H18 H 0.53147 0.29073 0.67131
C40 C 0.9778(13) 0.4184(8) 0.8628(9)
H19 H 0.92127 0.45882 0.73570
C41 C 0.8956(14) 0.3271(8) 0.8637(10)
H20 H 0.78659 0.30684 0.73649
C42 C 0.2665(19) 0.3704(15) 0.2704(17)
C43 C 1.007(2) 0.3755(16) 0.2694(18)
H21 H 1.13598 0.28753 0.75699
C44 C 1.1535(17) 0.3706(14) 0.7216(15)
H22 H 1.13801 0.45996 0.66915
C45 C 0.5174(19) 0.3731(15) 0.7739(17)
C46 C 0.9541(14) 0.3764(9) 0.9116(7)
H23 H 1.03081 0.44249 0.89367
H24 H 0.89431 0.29185 0.89502
O7 O 0.2217(16) 0.4176(10) 0.2780(14)
O8 O 0.2211(17) 0.3312(11) 0.2097(15)
O9 O 0.9970(17) 0.4206(11) 0.2185(16)
O10 O 1.0587(18) 0.3365(11) 0.2778(16)
C47 C 1.2569(19) 0.3732(15) 0.7735(17)
Fe2 Fe 1.0908(3) 0.3747(4) 0.1816(3)
C48 C 1.004(3) 0.3716(19) 1.009(2)
O11 O 0.9904(17) 0.3353(11) 1.0548(15)
O12 O 1.0620(16) 0.4164(11) 1.0508(15)
Fe3 Fe -0.0948(3) 0.6265(4) 1.3399(4)
Fe4 Fe 0.5661(3) 0.6227(4) 0.6609(4)
O13 O 0.540(2) 0.5807(13) 1.5359(18)
O14 O -0.0614(17) 0.6736(11) 1.2436(15)
O15 O 0.0022(17) 0.6708(11) 0.4667(15)
O16 O -0.0039(16) 0.5837(10) 1.3056(14)
C49 C 0.3327(13) 0.6236(8) 1.1970(8)
O17 O 0.4670(19) 0.6673(12) 1.5359(16)
O18 O 0.5330(17) 0.6630(11) 0.7570(16)
O19 O 0.7743(16) 0.6701(11) 1.3192(15)
O20 O 0.4517(16) 0.5813(10) 0.6791(14)
O21 O 0.7754(17) 0.5917(11) 1.2384(15)
C50 C 0.1470(13) 0.6754(7) 0.7553(10)
H25 H 0.18283 0.70937 0.78745
O22 O -0.0708(18) 0.5851(12) 0.4633(16)
C51 C 0.1879(19) 0.6255(15) 0.9046(18)
C52 C 0.3304(16) 0.6256(13) 1.0438(15)
O23 O -0.3030(17) 0.5809(11) 0.7590(16)
C53 C 0.3331(18) 0.6222(14) 0.9039(17)
C54 C 0.1399(17) 0.6249(14) 0.9536(16)
O24 O -0.3064(16) 0.6677(11) 0.6975(15)
C55 C 0.3235(14) 0.6736(7) 1.2451(10)
H26 H 0.29305 0.70938 1.21381
C56 C 0.3607(14) 0.6689(8) 1.3409(10)
H27 H 0.34030 0.69506 1.37127
C57 C 0.1868(17) 0.6242(14) 1.0467(16)
C58 C 0.0394(14) 0.6272(9) 0.6105(7)
C59 C 0.090(2) 0.5692(16) 1.199(2)
H28 H 0.08786 0.53326 1.22802
C60 C 0.2867(17) 0.6241(14) 0.9549(16)
C61 C 0.2838(17) 0.6247(14) 1.0981(16)
C62 C 0.1037(14) 0.6735(7) 0.6588(10)
H29 H 0.11780 0.70290 0.62711
C63 C 0.4285(14) 0.6247(9) 1.3901(8)
C64 C 0.481(2) 0.6804(15) 1.147(2)
H30 H 0.44832 0.71620 1.14284
C65 C 0.476(2) 0.6195(17) 1.489(2)
C66 C 0.0413(19) 0.6247(16) 1.1986(18)
C67 C 0.376(2) 0.5674(13) 0.7999(19)
H31 H 0.37224 0.53192 0.76696
C68 C 0.037(2) 0.6727(13) 1.1443(18)
H32 H 0.00275 0.70732 1.14085
C69 C 0.336(2) 0.5699(14) 0.8512(18)
H33 H 0.30622 0.53410 0.85374
C70 C -0.017(2) 0.6762(14) 0.8473(18)
H34 H 0.01563 0.71088 0.84580
C71 C 0.489(2) 0.5775(14) 1.0990(19)
H35 H 0.46178 0.54312 1.06173
C72 C 0.1362(13) 0.6261(8) 0.8037(7)
C73 C 0.4247(19) 0.6220(15) 0.7968(18)
C74 C 0.0282(15) 0.5784(7) 0.6589(10)
H36 H -0.00394 0.54297 0.62770
C75 C -0.007(2) 0.6228(13) 1.2507(18)
C76 C -0.0188(19) 0.6260(16) 0.5070(7)
C77 C -0.1102(19) 0.6770(13) 0.7974(18)
H37 H -0.14220 0.71066 0.76067
C78 C 0.577(2) 0.6787(13) 1.2011(18)
H38 H 0.60822 0.71275 1.23744
C79 C -0.014(2) 0.5758(15) 0.907(2)
H39 H 0.01613 0.54112 0.94178
C80 C 0.4427(13) 0.5769(7) 1.3421(11)
H40 H 0.48038 0.54360 1.37433
C81 C -0.2624(18) 0.6251(13) 0.7491(18)
C82 C 0.732(2) 0.6289(16) 1.2554(19)
C83 C 0.4742(18) 0.6180(13) 0.7465(17)
C84 C 0.4326(19) 0.6239(14) 1.0965(17)
C85 C 0.628(2) 0.6275(16) 1.2022(19)
C86 C 0.437(2) 0.6712(13) 0.8532(18)
H41 H 0.47656 0.70348 0.86032
C87 C 0.0343(17) 0.6249(14) 0.9019(17)
C88 C -0.1582(19) 0.6230(15) 0.8036(18)
C89 C 0.386(2) 0.6710(14) 0.9000(18)
H42 H 0.38788 0.70699 0.93147
C90 C -0.109(2) 0.5790(14) 0.8582(19)
H43 H -0.14115 0.54631 0.86554
C91 C 0.583(2) 0.5784(15) 1.153(2)
H44 H 0.61648 0.54354 1.15428
C92 C 0.0658(15) 0.5832(8) 0.7548(11)
H45 H 0.04417 0.55822 0.78534
C93 C 0.4003(15) 0.5790(8) 1.2456(11)
H46 H 0.41704 0.55107 1.21419
C94 C 0.1340(19) 0.6252(15) 1.0980(18)
C95 C 0.139(2) 0.5718(13) 1.1546(17)
H47 H 0.17662 0.53871 1.16006
C96 C 0.081(2) 0.6727(14) 1.0958(19)
H48 H 0.07414 0.70671 1.05895
N1 N 0.2825(17) 0.5498(12) 0.5342(17)
H49 H 0.33448 0.56558 0.59190
C97 C 0.360(3) 0.4481(15) 0.564(2)
H50 H 0.41047 0.46186 0.62165
H51 H 0.38124 0.41734 0.53738
H52 H 0.31255 0.43074 0.57358
C98 C 0.321(3) 0.5020(14) 0.499(2)
H53 H 0.36932 0.52030 0.49034
H54 H 0.27253 0.48757 0.43892
C99 C 0.128(2) 0.4983(16) 0.478(2)
H55 H 0.10079 0.52812 0.42848
H56 H 0.08386 0.48797 0.49680
H57 H 0.14381 0.46176 0.45629
C100 C 0.2129(18) 0.5252(17) 0.5579(19)
H58 H 0.24228 0.49347 0.60487
H59 H 0.19458 0.55840 0.58439
C101 C 0.238(4) 0.6632(18) 0.515(4)
H60 H 0.25808 0.65603 0.57860
H61 H 0.17583 0.67822 0.48346
H62 H 0.27799 0.69333 0.50991
C102 C 0.243(2) 0.6038(13) 0.471(2)
H63 H 0.18105 0.59320 0.42230
H64 H 0.27993 0.61083 0.44142
C103 C 0.6545(16) 0.7229(16) 1.448(2)
H65 H 0.63482 0.75212 1.39734
H66 H 0.61135 0.68855 1.42512
C104 C 0.822(2) 0.7479(13) 1.504(2)
H67 H 0.83464 0.76419 1.56346
H68 H 0.87917 0.73018 1.51192
C105 C 0.647(3) 0.7518(16) 1.519(2)
H69 H 0.66731 0.72393 1.57010
H70 H 0.58373 0.76310 1.49660
H71 H 0.68489 0.78829 1.53841
N2 N 0.7481(15) 0.6988(11) 1.4714(16)
H72 H 0.74122 0.68319 1.41321
C106 C 0.790(3) 0.7988(15) 1.434(2)
H73 H 0.83971 0.81167 1.42470
H74 H 0.76948 0.83329 1.45541
H75 H 0.73941 0.78418 1.37640
C107 C 0.776(3) 0.6463(15) 1.533(2)
H76 H 0.76813 0.65622 1.58519
H77 H 0.84135 0.63850 1.55651
C108 C 0.722(4) 0.589(2) 1.487(4)
H78 H 0.76445 0.55508 1.49963
H79 H 0.68639 0.59536 1.42153
H80 H 0.68201 0.57919 1.51080
C109 C 0.792(2) 0.4748(17) 0.968(2)
H81 H 0.81976 0.43982 0.95442
H82 H 0.75824 0.49857 0.91191
C110 C 0.869(3) 0.5144(18) 1.039(3)
H83 H 0.84812 0.53561 1.07542
H84 H 0.88663 0.54417 1.00761
H85 H 0.92115 0.48894 1.07784
C111 C 0.682(3) 0.4926(17) 1.031(2)
H86 H 0.72890 0.51346 1.08584
H87 H 0.64110 0.47033 1.04611
C112 C 0.764(4) 0.345(2) 1.028(3)
H88 H 0.70467 0.32709 1.00740
H89 H 0.81090 0.32101 1.07753
H90 H 0.77648 0.34534 0.97705
N3 N 0.725(2) 0.4504(16) 0.995(2)
H91 H 0.67523 0.42925 0.94118
C113 C 0.766(4) 0.410(2) 1.060(4)
H92 H 0.73752 0.41035 1.09807
H93 H 0.82996 0.42256 1.09827
C114 C 0.629(4) 0.538(2) 0.955(3)
H94 H 0.67035 0.55921 0.93966
H95 H 0.59955 0.56775 0.97451
H96 H 0.58266 0.51676 0.90095
C115 C 1.177(2) 0.2748(18) 0.967(2)
H97 H 1.13502 0.30950 0.94974
H98 H 1.15903 0.24992 0.91204
C116 C 1.352(2) 0.2533(17) 1.029(3)
H99 H 1.40689 0.27517 1.03986
H100 H 1.36553 0.23185 1.08588
C117 C 1.326(4) 0.213(3) 0.960(4)
H101 H 1.37971 0.19427 0.96320
H102 H 1.29065 0.23352 0.90185
H103 H 1.28849 0.18085 0.96527
N4 N 1.2740(19) 0.2982(15) 1.003(3)
H104 H 1.26912 0.31686 0.94751
C118 C 1.267(3) 0.4132(17) 1.024(3)
H105 H 1.30032 0.42875 0.99451
H106 H 1.27254 0.44203 1.06973
H107 H 1.20329 0.40787 0.97799
C119 C 1.172(3) 0.2367(19) 1.039(2)
H108 H 1.22371 0.20855 1.06641
H109 H 1.11557 0.21371 1.01139
H110 H 1.17470 0.26338 1.08631
C120 C 1.308(4) 0.3521(14) 1.068(3)
H111 H 1.37434 0.35442 1.09739
H112 H 1.29265 0.34488 1.11684
O1* O 0.5343(16) 0.4154(10) 0.8321(14)
O2* O 0.4614(14) 0.3351(10) 0.7618(13)
Fe2* Fe 0.0908(3) 0.3747(4) 0.1816(3)
O5* O 1.3017(15) 0.4176(10) 0.7621(14)
O6* O 1.3009(15) 0.3344(10) 0.8382(14)
Fe1* Fe 0.4308(3) 0.3747(4) 0.8601(3)
Fe1** Fe 1.4308(3) 0.3747(4) 0.8601(3)
Fe2** Fe 1.0908(3) 0.3747(4) 1.1816(3)
O8* O 1.2211(17) 0.3312(11) 1.2097(15)
O9* O 0.9970(17) 0.4206(11) 1.2185(16)
O10* O 1.0587(18) 0.3365(11) 1.2778(16)
O7* O 1.2217(16) 0.4176(10) 1.2780(14)
Fe3* Fe -0.0948(3) 0.6265(4) 0.3399(4)
Fe3** Fe 0.9052(3) 0.6265(4) 1.3399(4)
Fe4* Fe -0.4339(3) 0.6227(4) 0.6609(4)
Fe4** Fe 0.5661(3) 0.6227(4) 1.6609(4)
O13* O 0.540(2) 0.5807(13) 0.5359(18)
O15* O 0.0022(17) 0.6708(11) 1.4667(15)
O17* O 0.4670(19) 0.6673(12) 0.5359(16)
O19* O -0.2257(16) 0.6701(11) 1.3192(15)
O21* O -0.2246(17) 0.5917(11) 1.2384(15)
O22* O -0.0708(18) 0.5851(12) 1.4633(16)
O23* O 0.6970(17) 0.5809(11) 0.7590(16)
O24* O 0.6936(16) 0.6677(11) 0.6975(15)
#END
