
#######################################################################
#
#                 Cambridge Crystallographic Data Centre
#                                CCDC
#
#######################################################################
#
# If this CIF has been generated from an entry in the Cambridge
# Structural Database, then it will include bibliographic, chemical,
# crystal, experimental, refinement or atomic coordinate data resulting
# from the CCDC's data processing and validation procedures.
#
#######################################################################

data_CSD_CIF_CUSYUN
_audit_creation_date 2020-09-20
_audit_creation_method CSD-ConQuest-V1
_database_code_CSD CUSYUN
_database_code_depnum_ccdc_archive 'CCDC 1981519'
_chemical_formula_sum 'C30 H32 Dy1 Mg1 N9 O17'
_chemical_formula_moiety
;
(C27 H21 Dy1 Mg1 N7 O14 1-)n,C3 H5 N2 1+,3(H2 O1)
;
_journal_coden_Cambridge 119
_journal_volume 1224
_journal_year 2021
_journal_page_first 129301
_journal_name_full 'J.Mol.Struct. '
loop_
_publ_author_name
"Yanmei Chen"
"Rui Gao"
"Xinggong Zhao"
"Zhijun Ruan"
"Junqi Lin"
"Zhengfang Tian"
"Shanshan Liu"
_chemical_name_systematic
;
catena-[1H-imidazol-3-ium 
tris(\m-pyridine-2,6-dicarboxylato)-bis(1H-imidazole)-diaqua-dysprosium(iii)-m
agnesium(ii) trihydrate]
;
_cell_volume   3709.308
_exptl_crystal_colour 'colorless'
_exptl_crystal_density_diffrn 1.75
_exptl_crystal_description 'Prism'
_diffrn_ambient_temperature 173
_refine_special_details
;
1H-imidazol-3-ium and water (C15,C16,C17,N5,N6,O9) disordered by symmetry 
over two configurations with occupancy 0.5.
;
#These two values have been output from a single CSD field.
_refine_ls_R_factor_gt 0.0417
_refine_ls_wR_factor_gt 0.0417
_symmetry_cell_setting monoclinic
_symmetry_space_group_name_H-M 'C 2/c'
_symmetry_Int_Tables_number 15
loop_
_symmetry_equiv_pos_site_id
_symmetry_equiv_pos_as_xyz
1 x,y,z
2 -x,y,1/2-z
3 1/2+x,1/2+y,z
4 1/2-x,1/2+y,1/2-z
5 -x,-y,-z
6 x,-y,-1/2+z
7 -1/2-x,-1/2-y,-z
8 -1/2+x,-1/2-y,-1/2+z
_cell_length_a 17.873(5)
_cell_length_b 11.325(3)
_cell_length_c 19.417(5)
_cell_angle_alpha 90
_cell_angle_beta 109.302(5)
_cell_angle_gamma 90
_cell_formula_units_Z 4
loop_
_atom_type_symbol
_atom_type_radius_bond
C 0.68
H 0.23
Dy 1.92
Mg 1.41
N 0.68
O 0.68
loop_
_atom_site_label
_atom_site_type_symbol
_atom_site_fract_x
_atom_site_fract_y
_atom_site_fract_z
Dy1 Dy 0.50000 0.57388(2) 0.25000
Mg1 Mg 0.75000 0.75000 0.50000
O1 O 0.60792(17) 0.6666(2) 0.34195(15)
N1 N 0.50000 0.7956(4) 0.25000
C1 C 0.5552(2) 0.8547(3) 0.3017(2)
O2 O 0.66252(17) 0.8227(2) 0.41069(15)
N2 N 0.3763(2) 0.4714(3) 0.24480(19)
C2 C 0.5574(2) 0.9775(4) 0.3036(2)
H1 H 0.59720 1.01856 0.34061
O3 O 0.44118(17) 0.6399(3) 0.33685(16)
N3 N 0.8342(3) 0.7565(4) 0.4400(2)
C3 C 0.50000 1.0373(5) 0.25000
H2 H 0.50000 1.12115 0.25000
O4 O 0.3499(2) 0.6278(3) 0.39079(19)
C4 C 0.6136(2) 0.7756(4) 0.3562(2)
N4 N 0.9307(3) 0.8050(5) 0.3992(4)
H3 H 0.97152 0.84321 0.39429
O5 O 0.45991(19) 0.4172(3) 0.16145(17)
C5 C 0.3364(3) 0.5046(4) 0.2889(2)
O6 O 0.3841(2) 0.2632(3) 0.1132(2)
C6 C 0.2640(3) 0.4558(4) 0.2842(3)
H4 H 0.23698 0.47956 0.31662
O7 O 0.7210(2) 0.5826(2) 0.46234(18)
H5 H 0.67514 0.58208 0.42997
H6 H 0.71595 0.53972 0.49663
C7 C 0.2319(4) 0.3716(6) 0.2312(4)
H7 H 0.18115 0.33896 0.22512
C8 C 0.2741(3) 0.3356(5) 0.1873(4)
H8 H 0.25331 0.27627 0.15145
C9 C 0.3469(3) 0.3862(4) 0.1955(3)
C10 C 0.3789(3) 0.5980(4) 0.3438(2)
C11 C 0.4000(3) 0.3515(4) 0.1520(2)
C12 C 0.8933(3) 0.8309(6) 0.4464(3)
H9 H 0.90728 0.89442 0.48027
C13 C 0.8952(7) 0.7101(7) 0.3606(6)
H10 H 0.90907 0.67157 0.32304
C14 C 0.8351(5) 0.6802(6) 0.3860(4)
H11 H 0.79946 0.61615 0.36874
O8 O 0.7638(3) 0.3952(4) 0.5462(3)
H12 H 0.72568 0.38728 0.56273
H13 H 0.79903 0.34343 0.56517
O9? O 0.4151(5) 0.7929(7) 0.4868(4)
H14? H 0.39315 0.74935 0.45007
H15? H 0.42123 0.86207 0.47249
N5? N 0.4598(4) 0.8384(4) 0.4421(3)
H16? H 0.47778 0.76688 0.45604
C15? C 0.5193(3) 0.9270(5) 0.4579(4)
H17? H 0.56655 0.92429 0.44571
N6? N 0.4958(4) 1.0203(4) 0.4951(4)
H18? H 0.52237 1.08582 0.51088
C16? C 0.4217(4) 0.9894(5) 0.5023(4)
H19? H 0.39221 1.03578 0.52503
C17? C 0.3995(3) 0.8769(5) 0.4696(4)
H20? H 0.35251 0.83489 0.46657
O1A O 0.39208(17) 0.6666(2) 0.15805(15)
C1A C 0.4448(2) 0.8547(3) 0.1983(2)
O2A O 0.33748(17) 0.8227(2) 0.08931(15)
C2A C 0.4426(2) 0.9775(4) 0.1964(2)
H1A H 0.40280 1.01856 0.15939
C4A C 0.3864(2) 0.7756(4) 0.1438(2)
N2A N 0.6237(2) 0.4714(3) 0.25520(19)
O3A O 0.55882(17) 0.6399(3) 0.16315(16)
O4A O 0.6501(2) 0.6278(3) 0.10921(19)
O5A O 0.54009(19) 0.4172(3) 0.33855(17)
C5A C 0.6636(3) 0.5046(4) 0.2111(2)
O6A O 0.6159(2) 0.2632(3) 0.3868(2)
C6A C 0.7360(3) 0.4558(4) 0.2158(3)
H4A H 0.76302 0.47956 0.18338
C7A C 0.7681(4) 0.3716(6) 0.2688(4)
H7A H 0.81885 0.33896 0.27488
C8A C 0.7259(3) 0.3356(5) 0.3127(4)
H8A H 0.74669 0.27627 0.34855
C9A C 0.6531(3) 0.3862(4) 0.3045(3)
C10A C 0.6211(3) 0.5980(4) 0.1562(2)
C11A C 0.6000(3) 0.3515(4) 0.3480(2)
N3F N 0.6658(3) 0.7435(4) 0.5600(2)
N4F N 0.5693(3) 0.6950(5) 0.6008(4)
H3F H 0.52848 0.65679 0.60571
C12F C 0.6067(3) 0.6691(6) 0.5536(3)
H9F H 0.59272 0.60558 0.51973
C13F C 0.6048(7) 0.7899(7) 0.6394(6)
H10F H 0.59093 0.82843 0.67696
C14F C 0.6649(5) 0.8198(6) 0.6140(4)
H11F H 0.70054 0.88385 0.63126
O7F O 0.7790(2) 0.9174(2) 0.53766(18)
H5F H 0.82486 0.91792 0.57003
H6F H 0.78405 0.96028 0.50337
Mg1A Mg 0.25000 0.75000 0.00000
O2F O 0.83748(17) 0.6773(2) 0.58931(15)
#END
