
#######################################################################
#
#                 Cambridge Crystallographic Data Centre
#                                CCDC
#
#######################################################################
#
# If this CIF has been generated from an entry in the Cambridge
# Structural Database, then it will include bibliographic, chemical,
# crystal, experimental, refinement or atomic coordinate data resulting
# from the CCDC's data processing and validation procedures.
#
#######################################################################

data_CSD_CIF_CUSZIB
_audit_creation_date 2015-11-23
_audit_creation_method CSD-ConQuest-V1
_database_code_CSD CUSZIB
_database_code_depnum_ccdc_archive 'CCDC 1438465'
_chemical_formula_sum 'C24 H32 Cu1 N5'
_chemical_formula_moiety
;
C12 H28 N1 1+,(C12 H4 Cu1 N4 1-)n
;
_journal_coden_Cambridge 1078
_journal_year 2015
_journal_name_full 'CSD Communication(Private Communication) '
loop_
_publ_author_name
"B.F.Abrahams"
"R.W.Elliott"
"T.A.Hudson"
"R.Robson"
"A.L.Sutton"
_chemical_name_systematic
;
catena-(dimethyldipentylammonium 
(\m-7,7,8,8-tetracyanoquinodimethanide)-copper)
;
_cell_volume   2368.476
_exptl_crystal_colour 'colorless'
_exptl_crystal_density_diffrn 1.273
_exptl_crystal_description 'block'
_diffrn_ambient_temperature 250
#These two values have been output from a single CSD field.
_refine_ls_R_factor_gt 0.0685
_refine_ls_wR_factor_gt 0.0685
_symmetry_cell_setting orthorhombic
_symmetry_space_group_name_H-M 'P c c n'
_symmetry_Int_Tables_number 56
loop_
_symmetry_equiv_pos_site_id
_symmetry_equiv_pos_as_xyz
1 x,y,z
2 1/2-x,1/2-y,z
3 -x,1/2+y,1/2-z
4 1/2+x,-y,1/2-z
5 -x,-y,-z
6 -1/2+x,-1/2+y,-z
7 x,-1/2-y,-1/2+z
8 -1/2-x,y,-1/2+z
_cell_length_a 9.7563(2)
_cell_length_b 11.2413(3)
_cell_length_c 21.5957(5)
_cell_angle_alpha 90
_cell_angle_beta 90
_cell_angle_gamma 90
_cell_formula_units_Z 4
loop_
_atom_type_symbol
_atom_type_radius_bond
C 0.68
H 0.23
Cu 1.32
N 0.68
loop_
_atom_site_label
_atom_site_type_symbol
_atom_site_fract_x
_atom_site_fract_y
_atom_site_fract_z
C1 C 0.1057(3) 0.9407(3) 0.33258(14)
C2 C 0.0256(3) 1.0199(3) 0.36700(14)
C3 C -0.0476(3) 1.1040(3) 0.33329(13)
C4 C 0.0120(3) 1.0093(3) 0.43475(14)
C5 C 0.0841(3) 0.9231(3) 0.46788(14)
H1 H 0.14110 0.87060 0.44670
C6 C -0.0725(3) 1.0861(3) 0.46823(14)
H2 H -0.12190 1.14440 0.44740
N1 N 0.1693(3) 0.8753(3) 0.30336(12)
N2 N -0.1090(3) 1.1724(3) 0.30458(12)
Cu1 Cu 0.25000 0.75000 0.24919(3)
C7 C 0.1958(5) 0.3462(4) 0.24873(19)
H3 H 0.12200 0.31550 0.27340
H4 H 0.16280 0.41080 0.22380
H5 H 0.26770 0.37430 0.27530
C8 C 0.1294(5) 0.2050(5) 0.1703(2)
H6 H 0.05330 0.19190 0.19840
H7 H 0.10210 0.26720 0.14170
C9 C 0.1525(7) 0.0925(6) 0.1339(4)
H8 H 0.19720 0.03390 0.16000
H9 H 0.21220 0.10910 0.09910
C10 C 0.0120(6) 0.0411(6) 0.1097(3)
H10 H -0.05340 0.04290 0.14350
H11 H -0.02220 0.09340 0.07750
C11 C 0.0171(7) -0.0800(6) 0.0851(4)
H12 H 0.07840 -0.08090 0.04970
H13 H 0.05600 -0.13170 0.11640
C12 C -0.1146(7) -0.1287(6) 0.0660(4)
H14 H -0.17450 -0.13320 0.10110
H15 H -0.10140 -0.20680 0.04910
H16 H -0.15470 -0.07800 0.03510
N3 N 0.25000 0.25000 0.2078(2)
C1D C -0.1057(3) 1.0593(3) 0.66742(14)
C2D C -0.0256(3) 0.9801(3) 0.63300(14)
C4D C -0.0120(3) 0.9907(3) 0.56525(14)
C5D C -0.0841(3) 1.0769(3) 0.53212(14)
H1D H -0.14110 1.12940 0.55330
C6D C 0.0725(3) 0.9139(3) 0.53177(14)
H2D H 0.12190 0.85560 0.55260
N1D N -0.1693(3) 1.1247(3) 0.69664(12)
C3D C 0.0476(3) 0.8960(3) 0.66671(13)
N2D N 0.1090(3) 0.8276(3) 0.69542(12)
N1A N 0.3307(3) 0.6247(3) 0.30336(12)
N2B N 0.1090(3) 0.6724(3) 0.19542(12)
N2C N 0.3910(3) 0.8276(3) 0.19542(12)
Cu1B Cu -0.25000 1.25000 0.25081(3)
Cu1D Cu -0.25000 1.25000 0.75081(3)
Cu1F Cu 0.25000 0.75000 0.74919(3)
C7A C 0.3042(5) 0.1538(4) 0.24873(19)
H3A H 0.37800 0.18450 0.27340
H4A H 0.33720 0.08920 0.22380
H5A H 0.23230 0.12570 0.27530
C8A C 0.3706(5) 0.2950(5) 0.1703(2)
H6A H 0.44670 0.30810 0.19840
H7A H 0.39790 0.23280 0.14170
C9A C 0.3475(7) 0.4075(6) 0.1339(4)
H8A H 0.30280 0.46610 0.16000
H9A H 0.28780 0.39090 0.09910
C10A C 0.4880(6) 0.4589(6) 0.1097(3)
H10A H 0.55340 0.45710 0.14350
H11A H 0.52220 0.40660 0.07750
C11A C 0.4829(7) 0.5800(6) 0.0851(4)
H12A H 0.42160 0.58090 0.04970
H13A H 0.44400 0.63170 0.11640
C12A C 0.6146(7) 0.6287(6) 0.0660(4)
H14A H 0.67450 0.63320 0.10110
H15A H 0.60140 0.70680 0.04910
H16A H 0.65470 0.57800 0.03510
#END
