
#######################################################################
#
#                 Cambridge Crystallographic Data Centre
#                                CCDC
#
#######################################################################
#
# If this CIF has been generated from an entry in the Cambridge
# Structural Database, then it will include bibliographic, chemical,
# crystal, experimental, refinement or atomic coordinate data resulting
# from the CCDC's data processing and validation procedures.
#
#######################################################################

data_CSD_CIF_CUSZEX
_audit_creation_date 2015-11-23
_audit_creation_method CSD-ConQuest-V1
_database_code_CSD CUSZEX
_database_code_depnum_ccdc_archive 'CCDC 1438464'
_chemical_formula_sum 'C24 H17 Cu1 N6'
_chemical_formula_moiety
;
(C12 H4 Cu1 N4 1-)n,C10 H10 N1 1+,C2 H3 N1
;
_journal_coden_Cambridge 1078
_journal_year 2015
_journal_name_full 'CSD Communication(Private Communication) '
loop_
_publ_author_name
"B.F.Abrahams"
"R.W.Elliott"
"T.A.Hudson"
"R.Robson"
"A.L.Sutton"
_chemical_name_systematic
;
catena-(2-methylisoquinolinium (\m-7,7,8,8-tetracyanoquinodimethanide)-copper 
acetonitrile solvate)
;
_cell_volume   2128.409
_exptl_crystal_colour 'black'
_exptl_crystal_density_diffrn 1.414
_exptl_crystal_description 'block'
_diffrn_ambient_temperature 130
#These two values have been output from a single CSD field.
_refine_ls_R_factor_gt 0.0843
_refine_ls_wR_factor_gt 0.0843
_symmetry_cell_setting monoclinic
_symmetry_space_group_name_H-M 'P 21/n'
_symmetry_Int_Tables_number 14
loop_
_symmetry_equiv_pos_site_id
_symmetry_equiv_pos_as_xyz
1 x,y,z
2 1/2-x,1/2+y,1/2-z
3 -x,-y,-z
4 -1/2+x,-1/2-y,-1/2+z
_cell_length_a 12.5255(3)
_cell_length_b 8.1701(3)
_cell_length_c 20.9474(6)
_cell_angle_alpha 90
_cell_angle_beta 96.835(3)
_cell_angle_gamma 90
_cell_formula_units_Z 4
loop_
_atom_type_symbol
_atom_type_radius_bond
C 0.68
H 0.23
Cu 1.32
N 0.68
loop_
_atom_site_label
_atom_site_type_symbol
_atom_site_fract_x
_atom_site_fract_y
_atom_site_fract_z
C1 C 0.6441(6) 0.3366(8) 0.1538(3)
H1 H 0.62260 0.37330 0.19340
C2 C 0.7087(6) 0.2283(9) 0.0370(3)
H2 H 0.72970 0.19080 -0.00260
C3 C 0.8150(5) 0.4811(8) 0.1758(3)
H3 H 0.79400 0.51740 0.21550
N1 N 0.9105(5) 0.5249(6) 0.1601(2)
C4 C 0.9431(6) 0.4785(8) 0.1019(3)
H4 H 1.01080 0.51360 0.09060
C5 C 0.8784(5) 0.3828(8) 0.0610(3)
H5 H 0.90150 0.35070 0.02130
C6 C 0.7450(5) 0.3839(8) 0.1358(3)
C7 C 0.7768(5) 0.3299(8) 0.0765(3)
C8 C 0.5782(6) 0.2387(9) 0.1144(3)
H6 H 0.51020 0.20780 0.12630
C9 C 0.9849(6) 0.6225(8) 0.2043(3)
H7 H 1.05100 0.64280 0.18480
H8 H 1.00220 0.56270 0.24480
H9 H 0.95100 0.72720 0.21290
C10 C 0.6105(6) 0.1817(9) 0.0553(3)
H10 H 0.56450 0.11160 0.02830
C11 C 0.6653(4) -0.4286(7) -0.1668(2)
Cu1 Cu 0.99885(5) 0.14147(10) 0.24513(3)
N2 N 0.9031(3) -0.2507(6) -0.1928(2)
N3 N 0.5946(4) -0.4931(7) -0.1973(2)
C12 C 0.7502(4) -0.3459(6) -0.1308(2)
C13 C 0.7387(4) -0.2045(6) 0.0667(2)
C14 C 0.8121(4) -0.0504(6) 0.1654(2)
C15 C 0.8302(4) -0.2090(7) -0.0294(2)
H11 H 0.88940 -0.17590 -0.05070
C16 C 0.7324(4) -0.1509(7) 0.1330(2)
C17 C 0.6619(4) -0.3511(7) -0.0291(2)
H12 H 0.60550 -0.41630 -0.05010
N4 N 0.8807(3) 0.0291(6) 0.1924(2)
N5 N 0.5731(4) -0.2150(6) 0.1946(2)
C18 C 0.8256(4) -0.1621(7) 0.0340(2)
H13 H 0.88300 -0.09980 0.05560
C19 C 0.6456(4) -0.1848(7) 0.1661(2)
C20 C 0.6578(4) -0.3027(6) 0.0341(2)
H14 H 0.59910 -0.33660 0.05570
C21 C 0.7479(4) -0.3052(6) -0.0625(2)
C22 C 0.8326(4) -0.2947(6) -0.1648(2)
C23 C 0.2007(7) -0.1594(10) 0.1249(4)
C24 C 0.2943(7) -0.0841(11) 0.1586(4)
H15 H 0.34520 -0.16900 0.17560
H16 H 0.27340 -0.01810 0.19420
H17 H 0.32840 -0.01360 0.12900
N6 N 0.1303(7) -0.2234(12) 0.0951(4)
Cu1A Cu 0.50115(5) -0.35853(10) 0.25487(3)
Cu1B Cu 1.00115(5) -0.14147(10) -0.24513(3)
Cu1C Cu 0.49885(5) -0.64147(10) -0.25487(3)
N2B N 1.0969(3) 0.2507(6) 0.1928(2)
N3C N 1.0946(4) -0.0069(7) 0.3027(2)
N5A N 0.9269(4) 0.2850(6) 0.3054(2)
#END
