
#######################################################################
#
#                 Cambridge Crystallographic Data Centre
#                                CCDC
#
#######################################################################
#
# If this CIF has been generated from an entry in the Cambridge
# Structural Database, then it will include bibliographic, chemical,
# crystal, experimental, refinement or atomic coordinate data resulting
# from the CCDC's data processing and validation procedures.
#
#######################################################################

data_CSD_CIF_CUTDEC
_audit_creation_date 2015-11-24
_audit_creation_method CSD-ConQuest-V1
_database_code_CSD CUTDEC
_database_code_depnum_ccdc_archive 'CCDC 1438484'
_chemical_formula_sum 'C74 H48 Br2 N12 P2 Zn3'
_chemical_formula_moiety
;
(C36 H12 Br2 N12 Zn3 2-)n,2(C19 H18 P1 1+)
;
_journal_coden_Cambridge 1078
_journal_year 2015
_journal_name_full 'CSD Communication(Private Communication) '
loop_
_publ_author_name
"B.F.Abrahams"
"R.W.Elliott"
"T.A.Hudson"
"R.Robson"
"A.L.Sutton"
_chemical_name_systematic
;
catena-(bis(methyltriphenylphosphonium) 
tris(\m-7,7,8,8-tetracyanoquinodimethanide)-dibromo-tri-zinc(ii))
;
_cell_volume   4738.482
_exptl_crystal_colour 'yellow'
_exptl_crystal_density_diffrn 1.601
_exptl_crystal_description 'Hexagonal plate'
_diffrn_ambient_temperature 130
#These two values have been output from a single CSD field.
_refine_ls_R_factor_gt 0.0441
_refine_ls_wR_factor_gt 0.0441
_symmetry_cell_setting rhombohedral
_symmetry_space_group_name_H-M 'R -3'
_symmetry_Int_Tables_number 148
loop_
_symmetry_equiv_pos_site_id
_symmetry_equiv_pos_as_xyz
1 x,y,z
2 -y,x-y,z
3 -x+y,-x,z
4 2/3+x,1/3+y,1/3+z
5 2/3-y,1/3+x-y,1/3+z
6 2/3-x+y,1/3-x,1/3+z
7 1/3+x,2/3+y,2/3+z
8 1/3-y,2/3+x-y,2/3+z
9 1/3-x+y,2/3-x,2/3+z
10 -x,-y,-z
11 y,-x+y,-z
12 x-y,x,-z
13 -2/3-x,-1/3-y,-1/3-z
14 -2/3+y,-1/3-x+y,-1/3-z
15 -2/3+x-y,-1/3+x,-1/3-z
16 -1/3-x,-2/3-y,-2/3-z
17 -1/3+y,-2/3-x+y,-2/3-z
18 -1/3+x-y,-2/3+x,-2/3-z
_cell_length_a 12.3733(2)
_cell_length_b 12.3733(2)
_cell_length_c 35.7386(5)
_cell_angle_alpha 90
_cell_angle_beta 90
_cell_angle_gamma 120
_cell_formula_units_Z 3
loop_
_atom_type_symbol
_atom_type_radius_bond
C 0.68
H 0.23
Br 1.21
N 0.68
P 1.05
Zn 1.22
loop_
_atom_site_label
_atom_site_type_symbol
_atom_site_fract_x
_atom_site_fract_y
_atom_site_fract_z
Br1 Br 0.66670 0.33330 -0.03035(2)
Zn1 Zn 0.33330 -0.33330 0.16670
Zn2 Zn 0.66670 0.33330 0.03435(2)
N1 N 0.5379(3) 0.1727(3) 0.05847(9)
N2 N 0.3783(3) -0.1713(3) 0.13310(8)
C1 C 0.4200(3) 0.0464(3) 0.11519(9)
C2 C 0.4005(3) -0.0734(3) 0.12360(9)
C3 C 0.3885(3) 0.2244(3) 0.13331(10)
H1 H 0.42640 0.26490 0.11050
C4 C 0.3757(3) 0.1075(3) 0.14119(9)
C5 C 0.4857(3) 0.1107(3) 0.08344(10)
C6 C 0.3475(3) 0.2816(3) 0.15795(10)
H2 H 0.35760 0.36080 0.15170
C7 C 0.00000 0.00000 0.13710(17)
H3 H -0.06650 -0.08080 0.14620
P1 P 0.00000 0.00000 0.08681(4)
C8 C 0.0094(3) -0.1309(3) 0.06972(10)
C9 C 0.1172(3) -0.2472(3) 0.06911(11)
H4 H 0.18200 -0.26030 0.07810
C10 C 0.1038(3) -0.1514(3) 0.08341(10)
H5 H 0.15840 -0.09930 0.10250
C11 C -0.0728(3) -0.2104(3) 0.04264(10)
H6 H -0.13830 -0.19830 0.03370
C12 C -0.0590(3) -0.3073(3) 0.02867(10)
H7 H -0.11500 -0.36170 0.01020
C13 C 0.0371(3) -0.3245(3) 0.04173(11)
H8 H 0.04770 -0.38980 0.03180
H9? H -0.06650 -0.08080 0.14620
H10? H -0.06650 -0.08080 0.14620
N1O N 0.128767(300) 0.160633(300) 0.274863(90)
N2O N 0.288367(300) 0.504633(300) 0.200233(80)
C1O C 0.246667(300) 0.286933(300) 0.218143(90)
C2O C 0.266167(300) 0.406733(300) 0.209733(90)
C3O C 0.278167(300) 0.108933(300) 0.200023(100)
H1O H 0.24027 0.06843 0.22283
C4O C 0.290967(300) 0.225833(300) 0.192143(90)
C5O C 0.180967(300) 0.222633(300) 0.249893(100)
C6O C 0.319167(300) 0.051733(300) 0.175383(100)
H2O H 0.30907 -0.02747 0.18163
N1A N -0.1727(3) -0.6348(3) 0.05847(9)
N2A N 0.1713(3) -0.4504(3) 0.13310(8)
C1A C -0.0464(3) -0.6264(3) 0.11519(9)
C2A C 0.0734(3) -0.5261(3) 0.12360(9)
C3A C -0.2244(3) -0.8359(3) 0.13331(10)
H1A H -0.26490 -0.83850 0.11050
C4A C -0.1075(3) -0.7318(3) 0.14119(9)
C5A C -0.1107(3) -0.6250(3) 0.08344(10)
C6A C -0.2816(3) -0.9341(3) 0.15795(10)
H2A H -0.36080 -1.00320 0.15170
N1P N -0.160633(300) -1.031867(300) 0.274863(90)
N2P N -0.504633(300) -1.216267(300) 0.200233(80)
C1P C -0.286933(300) -1.040267(300) 0.218143(90)
C2P C -0.406733(300) -1.140567(300) 0.209733(90)
C3P C -0.108933(300) -0.830767(300) 0.200023(100)
H1P H -0.06843 -0.82817 0.22283
C4P C -0.225833(300) -0.934867(300) 0.192143(90)
C5P C -0.222633(300) -1.041667(300) 0.249893(100)
C6P C -0.051733(300) -0.732567(300) 0.175383(100)
H2P H 0.02747 -0.66347 0.18163
N1B N -0.3652(3) -0.5379(3) 0.05847(9)
N2B N -0.5496(3) -0.3783(3) 0.13310(8)
C1B C -0.3736(3) -0.4200(3) 0.11519(9)
C2B C -0.4739(3) -0.4005(3) 0.12360(9)
C3B C -0.1641(3) -0.3885(3) 0.13331(10)
H1B H -0.16150 -0.42640 0.11050
C4B C -0.2682(3) -0.3757(3) 0.14119(9)
C5B C -0.3750(3) -0.4857(3) 0.08344(10)
C6B C -0.0659(3) -0.3475(3) 0.15795(10)
H2B H 0.00320 -0.35760 0.15170
N1Q N 0.031867(300) -0.128767(300) 0.274863(90)
N2Q N 0.216267(300) -0.288367(300) 0.200233(80)
C1Q C 0.040267(300) -0.246667(300) 0.218143(90)
C2Q C 0.140567(300) -0.266167(300) 0.209733(90)
C3Q C -0.169233(300) -0.278167(300) 0.200023(100)
H1Q H -0.17183 -0.24027 0.22283
C4Q C -0.065133(300) -0.290967(300) 0.192143(90)
C5Q C 0.041667(300) -0.180967(300) 0.249893(100)
C6Q C -0.267433(300) -0.319167(300) 0.175383(100)
H2Q H -0.33653 -0.30907 0.18163
Br1O Br -0.00003 -0.99997 0.363683(20)
Zn2O Zn -0.00003 -0.99997 0.298983(20)
Zn1* Zn -0.66670 -1.33330 0.16670
Zn1** Zn -0.66670 -0.33330 0.16670
Zn1*** Zn 0.33330 0.66670 0.16670
Zn2* Zn -0.33330 -0.66670 0.03435(2)
Zn2O* Zn -0.00003 0.00003 0.298983(20)
N1A* N 0.8273(3) 0.3652(3) 0.05847(9)
N1B* N 0.6348(3) 0.4621(3) 0.05847(9)
N1O* N 0.128767(300) -0.839367(300) 0.274863(90)
N1Q* N 0.031867(300) -1.128767(300) 0.274863(90)
N2B* N 0.4504(3) -0.3783(3) 0.13310(8)
N2O* N 0.288367(300) -0.495367(300) 0.200233(80)
N2P* N 0.495367(300) -0.216267(300) 0.200233(80)
H3B H -0.01430 0.06650 0.14620
H3A H 0.08080 0.01430 0.14620
C8A C 0.1309(3) 0.1403(3) 0.06972(10)
C9A C 0.2472(3) 0.3644(3) 0.06911(11)
H4A H 0.26030 0.44230 0.07810
C10A C 0.1514(3) 0.2552(3) 0.08341(10)
H5A H 0.09930 0.25770 0.10250
C11A C 0.2104(3) 0.1376(3) 0.04264(10)
H6A H 0.19830 0.06000 0.03370
C12A C 0.3073(3) 0.2483(3) 0.02867(10)
H7A H 0.36170 0.24670 0.01020
C13A C 0.3245(3) 0.3616(3) 0.04173(11)
H8A H 0.38980 0.43750 0.03180
C8B C -0.1403(3) -0.0094(3) 0.06972(10)
C9B C -0.3644(3) -0.1172(3) 0.06911(11)
H4B H -0.44230 -0.18200 0.07810
C10B C -0.2552(3) -0.1038(3) 0.08341(10)
H5B H -0.25770 -0.15840 0.10250
C11B C -0.1376(3) 0.0728(3) 0.04264(10)
H6B H -0.06000 0.13830 0.03370
C12B C -0.2483(3) 0.0590(3) 0.02867(10)
H7B H -0.24670 0.11500 0.01020
C13B C -0.3616(3) -0.0371(3) 0.04173(11)
H8B H -0.43750 -0.04770 0.03180
#END
