
#######################################################################
#
#                 Cambridge Crystallographic Data Centre
#                                CCDC
#
#######################################################################
#
# If this CIF has been generated from an entry in the Cambridge
# Structural Database, then it will include bibliographic, chemical,
# crystal, experimental, refinement or atomic coordinate data resulting
# from the CCDC's data processing and validation procedures.
#
#######################################################################

data_CSD_CIF_CUTMIP
_audit_creation_date 2015-11-24
_audit_creation_method CSD-ConQuest-V1
_database_code_CSD CUTMIP
_database_code_depnum_ccdc_archive 'CCDC 1438545'
_chemical_formula_sum 'C40 H40 Cu2 F8 N10'
_chemical_formula_moiety
;
(C8 H20 N1 1+)2n,n(C24 Cu2 F8 N8 2-)
;
_journal_coden_Cambridge 1078
_journal_year 2015
_journal_name_full 'CSD Communication(Private Communication) '
loop_
_publ_author_name
"B.F.Abrahams"
"R.W.Elliott"
"T.A.Hudson"
"R.Robson"
"A.L.Sutton"
_chemical_name_systematic
;
catena-[bis(Tetraethylammonium) 
bis(\m~4~-2,3,5,6-tetrafluorotetracyanoquinodimethane dianion)-di-copper(i)]
;
_cell_volume   2951.157
_exptl_crystal_colour 'pale yellow'
_exptl_crystal_density_diffrn 1.587
_exptl_crystal_description 'hexagonal prism'
_diffrn_ambient_temperature 130
#These two values have been output from a single CSD field.
_refine_ls_R_factor_gt 0.0404
_refine_ls_wR_factor_gt 0.0404
_symmetry_cell_setting hexagonal
_symmetry_space_group_name_H-M 'P 32 2 1'
_symmetry_Int_Tables_number 154
loop_
_symmetry_equiv_pos_site_id
_symmetry_equiv_pos_as_xyz
1 x,y,z
2 -y,x-y,2/3+z
3 y,x,-z
4 -x+y,-x,1/3+z
5 -x,-x+y,2/3-z
6 x-y,-y,1/3-z
_cell_length_a 13.0310(5)
_cell_length_b 13.0310(5)
_cell_length_c 20.0681(9)
_cell_angle_alpha 90
_cell_angle_beta 90
_cell_angle_gamma 120
_cell_formula_units_Z 3
loop_
_atom_type_symbol
_atom_type_radius_bond
C 0.68
H 0.23
Cu 1.32
F 0.64
N 0.68
loop_
_atom_site_label
_atom_site_type_symbol
_atom_site_fract_x
_atom_site_fract_y
_atom_site_fract_z
Cu1 Cu 0.55389(7) 0.00000 0.16670
Cu2 Cu 1.05867(7) 0.00000 0.16670
F1 F 0.6877(2) -0.6014(2) 0.13078(12)
F2 F 0.3332(2) -0.6087(2) 0.06996(14)
F3 F 0.4506(2) -0.3759(2) 0.06168(13)
F4 F 0.8035(2) -0.3694(2) 0.12411(13)
C1 C 0.4509(4) -0.5521(4) 0.08460(19)
C2 C 0.6334(4) -0.3594(4) 0.09428(19)
N1 N 0.5904(3) -0.1085(3) 0.11336(19)
C3 C 0.5041(4) -0.6177(4) 0.10230(18)
C4 C 0.5117(4) -0.4299(4) 0.08040(18)
C5 C 0.6321(4) -0.1675(4) 0.1047(2)
C6 C 0.8173(4) -0.1559(4) 0.1004(2)
N2 N 0.5203(3) -0.8861(3) 0.11494(18)
C7 C 0.6248(4) -0.5481(4) 0.1134(2)
C8 C 0.4383(4) -0.7460(3) 0.1095(2)
N3 N 0.2144(3) -0.8739(3) 0.13101(18)
N4 N 0.9166(4) -0.0882(3) 0.10534(18)
C9 C 0.4893(4) -0.8180(4) 0.1124(2)
C10 C 0.3153(4) -0.8109(3) 0.1213(2)
C11 C 0.6928(4) -0.2299(4) 0.0952(2)
C12 C 0.6856(4) -0.4264(4) 0.1097(2)
N5 N 0.2444(3) -0.1322(3) -0.01194(16)
C13 C 0.1154(4) -0.2217(4) -0.02764(19)
H1 H 0.09140 -0.19430 -0.06760
H2 H 0.10960 -0.29840 -0.03880
C14 C 0.2578(5) -0.0110(4) 0.0029(2)
H3 H 0.21230 -0.01790 0.04390
H4 H 0.34230 0.04530 0.01260
C15 C 0.3153(4) -0.1266(5) -0.0728(2)
H5 H 0.28610 -0.10080 -0.11130
H6 H 0.30030 -0.20740 -0.08260
C16 C 0.0293(4) -0.2417(5) 0.0278(2)
H7 H 0.05160 -0.26960 0.06760
H8 H -0.05080 -0.30130 0.01390
H9 H 0.03120 -0.16720 0.03790
C17 C 0.4479(5) -0.0441(6) -0.0666(2)
H10 H 0.46420 0.03680 -0.05830
H11 H 0.48680 -0.04580 -0.10810
H12 H 0.47840 -0.07000 -0.02950
C18 C 0.2853(4) -0.1690(4) 0.0494(2)
H13 H 0.23420 -0.17420 0.08730
H14 H 0.36710 -0.10610 0.06000
C19 C 0.2183(5) 0.0409(5) -0.0507(3)
H15 H 0.26400 0.05050 -0.09130
H16 H 0.23120 0.11830 -0.03630
H17 H 0.13390 -0.01210 -0.05960
C20 C 0.2834(5) -0.2855(5) 0.0435(3)
H18 H 0.20200 -0.34940 0.03560
H19 H 0.31310 -0.30120 0.08490
H20 H 0.33390 -0.28150 0.00620
F1E F 1.2891(2) 0.6014(2) 0.202553(120)
F2E F 0.9419(2) 0.6087(2) 0.263373(140)
F3E F 0.8265(2) 0.3759(2) 0.271653(130)
F4E F 1.1729(2) 0.3694(2) 0.209223(130)
C1E C 1.0030(4) 0.5521(4) 0.248733(190)
C2E C 0.9928(4) 0.3594(4) 0.239053(190)
N1E N 0.6989(3) 0.1085(3) 0.219973(190)
C3E C 1.1218(4) 0.6177(4) 0.231033(180)
C4E C 0.9416(4) 0.4299(4) 0.252933(180)
C5E C 0.7996(4) 0.1675(4) 0.228633(200)
C6E C 0.9732(4) 0.1559(4) 0.232933(200)
N2E N 1.4064(3) 0.8861(3) 0.218393(180)
C7E C 1.1729(4) 0.5481(4) 0.219933(200)
C8E C 1.1843(4) 0.7460(3) 0.223833(200)
N3E N 1.0883(3) 0.8739(3) 0.202323(180)
N4E N 1.0048(4) 0.0882(3) 0.227993(180)
C9E C 1.3073(4) 0.8180(4) 0.220933(200)
C10E C 1.1262(4) 0.8109(3) 0.212033(200)
C11E C 0.9227(4) 0.2299(4) 0.238133(200)
C12E C 1.1120(4) 0.4264(4) 0.223633(200)
Cu1* Cu 0.55389(7) -1.00000 0.16670
Cu1** Cu 1.55389(7) 1.00000 0.16670
Cu2* Cu 0.05867(7) -1.00000 0.16670
Cu2** Cu 1.05867(7) 1.00000 0.16670
N2* N 0.5203(3) 0.1139(3) 0.11494(18)
N2E* N 0.4064(3) -0.1139(3) 0.218393(180)
N3* N 1.2144(3) 0.1261(3) 0.13101(18)
N3E* N 1.0883(3) -0.1261(3) 0.202323(180)
#END
