
#######################################################################
#
#                 Cambridge Crystallographic Data Centre
#                                CCDC
#
#######################################################################
#
# If this CIF has been generated from an entry in the Cambridge
# Structural Database, then it will include bibliographic, chemical,
# crystal, experimental, refinement or atomic coordinate data resulting
# from the CCDC's data processing and validation procedures.
#
#######################################################################

data_CSD_CIF_CUWNOZ
_audit_creation_date 2015-11-24
_audit_creation_method CSD-ConQuest-V1
_database_code_CSD CUWNOZ
_database_code_depnum_ccdc_archive 'CCDC 1015564'
_chemical_formula_sum 'C118 H120 Co6 N14 O38'
_chemical_formula_moiety
;
(C88 H54 Co6 N2 O32 2-)n,6(C3 H7 N1 O1),2(C4 H4 N2),2(C2 H8 N1 1+)
;
_journal_coden_Cambridge 9
_journal_volume 54
_journal_year 2015
_journal_page_first 11269
_journal_name_full 'Inorg.Chem. '
loop_
_publ_author_name
"M.Y.Masoomi"
"M.Bagheri"
"A.Morsali"
_chemical_name_systematic
;
catena-[bis(dimethylammonium) 
hexakis(\m-4,4'-oxydibenzoato)-bis(\m-hydroxo)-(\m-pyrazine)-hexa-cobalt 
N,N-dimethylformamide pyrazine solvate]
;
_chemical_name_common
;
TMU-12
;
_cell_volume   6122.877
_exptl_crystal_colour 'purple'
_exptl_crystal_description 'plate'
_diffrn_ambient_temperature 180
_refine_special_details
;
The SQUEEZE/PLATON program has been used to model some disorder.

;
#These two values have been output from a single CSD field.
_refine_ls_R_factor_gt 0.0728
_refine_ls_wR_factor_gt 0.0728
_symmetry_cell_setting monoclinic
_symmetry_space_group_name_H-M 'P 21/c'
_symmetry_Int_Tables_number 14
loop_
_symmetry_equiv_pos_site_id
_symmetry_equiv_pos_as_xyz
1 x,y,z
2 -x,1/2+y,1/2-z
3 -x,-y,-z
4 x,-1/2-y,-1/2+z
_cell_length_a 15.8983(14)
_cell_length_b 26.422(3)
_cell_length_c 16.3418(15)
_cell_angle_alpha 90
_cell_angle_beta 116.881(2)
_cell_angle_gamma 90
_cell_formula_units_Z 2
loop_
_atom_type_symbol
_atom_type_radius_bond
C 0.68
H 0.23
Co 1.26
N 0.68
O 0.68
loop_
_atom_site_label
_atom_site_type_symbol
_atom_site_fract_x
_atom_site_fract_y
_atom_site_fract_z
Co1 Co 0.23019(5) 0.50347(3) 0.52220(5)
Co2 Co 0.44686(5) 0.50841(3) 0.67991(5)
Co3 Co 0.39105(5) 0.52369(3) 0.44082(5)
N1 N 0.0877(3) 0.50248(16) 0.5015(3)
O1 O 0.3915(3) 0.44325(14) 0.7112(3)
O2 O 0.2426(3) 0.43873(14) 0.6015(3)
O3 O 0.2351(4) 0.25734(16) 0.8487(4)
O4 O 0.4861(2) 0.07336(13) 0.8400(2)
O5 O 0.4682(2) 0.05013(12) 0.9627(2)
O6 O 0.2588(3) 0.54857(15) 0.6394(3)
O7 O 0.4039(3) 0.55482(14) 0.7529(3)
O8 O 0.1716(3) 0.68748(14) 0.9068(3)
O9 O 0.2024(3) 0.92681(13) 0.9556(3)
O10 O 0.3352(2) 0.90765(12) 0.9464(2)
O11 O 0.4207(2) 0.54616(13) 0.3350(2)
O12 O 0.4264(2) 0.51052(14) 0.2156(2)
O13 O 0.0373(2) 0.62516(14) 0.0039(2)
O14 O -0.1838(2) 0.53981(13) -0.4034(2)
O15 O -0.2711(2) 0.50998(13) -0.3384(2)
O16 O 0.3697(2) 0.49622(15) 0.5462(2)
C1 C 0.3092(4) 0.42578(19) 0.6762(4)
C2 C 0.2892(4) 0.3837(2) 0.7262(4)
C3 C 0.1989(5) 0.3631(2) 0.6938(5)
H1 H 0.14830 0.37810 0.64210
C4 C 0.1811(5) 0.3220(2) 0.7346(5)
H2 H 0.11920 0.30840 0.71080
C5 C 0.2536(5) 0.3004(2) 0.8102(5)
C6 C 0.3424(5) 0.3198(2) 0.8467(4)
H3 H 0.39120 0.30500 0.90010
C7 C 0.3620(5) 0.3626(2) 0.8040(4)
H4 H 0.42380 0.37640 0.82850
C8 C 0.2900(5) 0.2147(2) 0.8582(5)
C9 C 0.3390(5) 0.2065(2) 0.8098(5)
H5 H 0.33760 0.23100 0.76660
C10 C 0.3906(4) 0.1633(2) 0.8228(4)
H6 H 0.42290 0.15810 0.78680
C11 C 0.3977(4) 0.1267(2) 0.8857(4)
C12 C 0.3434(5) 0.1348(2) 0.9317(5)
H7 H 0.34310 0.10990 0.97350
C13 C 0.2900(5) 0.1780(2) 0.9182(5)
H8 H 0.25320 0.18250 0.95010
C14 C 0.4557(4) 0.0802(2) 0.8964(4)
C15 C 0.3158(4) 0.56395(19) 0.7165(4)
C16 C 0.2809(4) 0.59591(19) 0.7696(4)
C17 C 0.1929(4) 0.6202(2) 0.7229(4)
H9 H 0.15680 0.61550 0.65860
C18 C 0.1589(4) 0.6505(2) 0.7693(5)
H10 H 0.10050 0.66760 0.73670
C19 C 0.2085(4) 0.6562(2) 0.8619(5)
C20 C 0.2945(4) 0.6321(2) 0.9107(4)
H11 H 0.32900 0.63620 0.97530
C21 C 0.3289(4) 0.6021(2) 0.8634(4)
H12 H 0.38740 0.58520 0.89650
C22 C 0.1903(5) 0.7387(2) 0.9098(4)
C23 C 0.1341(5) 0.7707(2) 0.9298(5)
H13 H 0.08170 0.75780 0.93640
C24 C 0.1546(4) 0.8223(2) 0.9403(4)
H14 H 0.11620 0.84450 0.95460
C25 C 0.2297(4) 0.8416(2) 0.9302(4)
C26 C 0.2845(5) 0.8087(2) 0.9095(5)
H15 H 0.33730 0.82150 0.90370
C27 C 0.2646(5) 0.7576(2) 0.8970(5)
H16 H 0.30140 0.73580 0.87970
C28 C 0.2580(4) 0.8973(2) 0.9454(3)
C29 C 0.3856(3) 0.53817(19) 0.2493(4)
C30 C 0.2935(3) 0.56237(19) 0.1836(3)
C31 C 0.2446(4) 0.59239(19) 0.2145(4)
H17 H 0.26980 0.59950 0.27820
C32 C 0.1581(4) 0.6129(2) 0.1537(4)
H18 H 0.12350 0.63360 0.17540
C33 C 0.1231(3) 0.60247(19) 0.0603(4)
C34 C 0.1717(4) 0.5722(2) 0.0288(4)
H19 H 0.14670 0.56470 -0.03480
C35 C 0.2584(4) 0.5526(2) 0.0908(4)
H20 H 0.29380 0.53240 0.06930
C36 C -0.0186(3) 0.6017(2) -0.0817(4)
C37 C -0.0596(4) 0.5555(2) -0.0813(4)
H21 H -0.04690 0.53890 -0.02530
C38 C -0.1202(4) 0.5343(2) -0.1657(4)
H22 H -0.15140 0.50330 -0.16730
C39 C -0.1356(3) 0.5574(2) -0.2466(4)
C40 C -0.0902(4) 0.6027(2) -0.2439(4)
H23 H -0.09880 0.61840 -0.29940
C41 C -0.0330(4) 0.6250(2) -0.1610(4)
H24 H -0.00360 0.65660 -0.15930
C42 C -0.2016(4) 0.53370(19) -0.3374(4)
C43 C 0.0407(4) 0.4591(2) 0.4872(4)
H25 H 0.056(4) 0.433(2) 0.475(4)
C44 C 0.0451(4) 0.5438(2) 0.5134(4)
H26 H 0.079(3) 0.5741(19) 0.521(3)
H27 H 0.387(5) 0.469(3) 0.551(5)
N2 N 0.5630(4) 0.5145(2) 0.9652(4)
C45 C 0.4938(5) 0.4797(3) 0.9225(5)
H28 H 0.48780 0.46380 0.86800
C46 C 0.5689(5) 0.5328(3) 1.0419(5)
H29 H 0.61840 0.55590 1.07540
N3 N 0.0903(4) 0.4540(2) 0.7917(4)
O17 O 0.2165(5) 0.4333(4) 0.9199(5)
C47 C 0.1359(9) 0.4263(5) 0.8679(7)
C48 C 0.118(1) 0.4966(4) 0.7619(8)
H30 H 0.17990 0.50760 0.80910
H31 H 0.07180 0.52360 0.75030
H32 H 0.12220 0.48890 0.70520
C49 C -0.0022(7) 0.4339(4) 0.7298(8)
H33 H -0.01580 0.40430 0.75780
H34 H -0.00280 0.42410 0.67170
H35 H -0.05030 0.45990 0.71820
N4 N 0.0694(6) 0.2505(3) 0.9538(6)
O18 O 0.0164(6) 0.1695(3) 0.9529(6)
C50 C 0.0738(8) 0.2037(5) 0.9838(7)
H36 H 0.12990 0.19550 1.03730
C51 C -0.0115(12) 0.2628(4) 0.8727(10)
H37 H -0.05300 0.23320 0.85130
H38 H 0.00700 0.27310 0.82560
H39 H -0.04500 0.29070 0.88490
C52 C 0.1406(8) 0.2893(4) 0.9978(8)
H40 H 0.19120 0.27580 1.05460
H41 H 0.11190 0.31860 1.01210
H42 H 0.16680 0.29960 0.95640
N5 N 0.4671(4) 0.2037(2) 0.1259(4)
O19 O 0.3578(5) 0.2551(2) 0.1327(5)
C53 C 0.4015(7) 0.2153(3) 0.1510(6)
H43 H 0.38730 0.19100 0.18570
C54 C 0.4925(6) 0.2389(3) 0.0722(6)
H44 H 0.45510 0.26990 0.06140
H45 H 0.47980 0.22340 0.01330
H46 H 0.55970 0.24720 0.10590
C55 C 0.5140(6) 0.1540(3) 0.1502(6)
H47 H 0.49020 0.13500 0.18690
H48 H 0.58220 0.15880 0.18580
H49 H 0.50080 0.13510 0.09400
N6 N 0.6139(4) 0.58737(18) 0.8599(3)
H50 H 0.57010 0.58770 0.79910
H51 H 0.60530 0.55800 0.88540
C56 C 0.5963(5) 0.6301(2) 0.9056(5)
H52 H 0.53190 0.62800 0.89890
H53 H 0.60360 0.66160 0.87790
H54 H 0.64130 0.62960 0.97090
C57 C 0.7085(4) 0.5866(3) 0.8651(5)
H55 H 0.71470 0.55690 0.83220
H56 H 0.75590 0.58490 0.92950
H57 H 0.71820 0.61740 0.83710
N1B N -0.0877(3) 0.49752(16) 0.4985(3)
C43B C -0.0407(4) 0.5409(2) 0.5128(4)
H25B H -0.056(4) 0.567(2) 0.525(4)
C44B C -0.0451(4) 0.4562(2) 0.4866(4)
H26B H -0.079(3) 0.4259(19) 0.479(3)
Co1B Co -0.23019(5) 0.49653(3) -0.52220(5)
Co2B Co -0.44686(5) 0.49159(3) -0.67991(5)
Co3B Co -0.39105(5) 0.47631(3) -0.44082(5)
O1B O -0.3915(3) 0.55675(14) -0.7112(3)
O2B O -0.2426(3) 0.56127(14) -0.6015(3)
O3B O -0.2351(4) 0.74266(16) -0.8487(4)
O4B O -0.4861(2) 0.92664(13) -0.8400(2)
O5B O -0.4682(2) 0.94987(12) -0.9627(2)
O6B O -0.2588(3) 0.45143(15) -0.6394(3)
O7B O -0.4039(3) 0.44518(14) -0.7529(3)
O8B O -0.1716(3) 0.31252(14) -0.9068(3)
O9B O -0.2024(3) 0.07319(13) -0.9556(3)
O10B O -0.3352(2) 0.09235(12) -0.9464(2)
O11B O -0.4207(2) 0.45384(13) -0.3350(2)
O12B O -0.4264(2) 0.48948(14) -0.2156(2)
O13B O -0.0373(2) 0.37484(14) -0.0039(2)
O14B O 0.1838(2) 0.46019(13) 0.4034(2)
O15B O 0.2711(2) 0.49002(13) 0.3384(2)
O16B O -0.3697(2) 0.50378(15) -0.5462(2)
C1B C -0.3092(4) 0.57422(19) -0.6762(4)
C2B C -0.2892(4) 0.6163(2) -0.7262(4)
C3B C -0.1989(5) 0.6369(2) -0.6938(5)
H1B H -0.14830 0.62190 -0.64210
C4B C -0.1811(5) 0.6780(2) -0.7346(5)
H2B H -0.11920 0.69160 -0.71080
C5B C -0.2536(5) 0.6996(2) -0.8102(5)
C6B C -0.3424(5) 0.6802(2) -0.8467(4)
H3B H -0.39120 0.69500 -0.90010
C7B C -0.3620(5) 0.6374(2) -0.8040(4)
H4B H -0.42380 0.62360 -0.82850
C8B C -0.2900(5) 0.7853(2) -0.8582(5)
C9B C -0.3390(5) 0.7935(2) -0.8098(5)
H5B H -0.33760 0.76900 -0.76660
C10B C -0.3906(4) 0.8367(2) -0.8228(4)
H6B H -0.42290 0.84190 -0.78680
C11B C -0.3977(4) 0.8733(2) -0.8857(4)
C12B C -0.3434(5) 0.8652(2) -0.9317(5)
H7B H -0.34310 0.89010 -0.97350
C13B C -0.2900(5) 0.8220(2) -0.9182(5)
H8B H -0.25320 0.81750 -0.95010
C14B C -0.4557(4) 0.9198(2) -0.8964(4)
C15B C -0.3158(4) 0.43605(19) -0.7165(4)
C16B C -0.2809(4) 0.40409(19) -0.7696(4)
C17B C -0.1929(4) 0.3798(2) -0.7229(4)
H9B H -0.15680 0.38450 -0.65860
C18B C -0.1589(4) 0.3495(2) -0.7693(5)
H10B H -0.10050 0.33240 -0.73670
C19B C -0.2085(4) 0.3438(2) -0.8619(5)
C20B C -0.2945(4) 0.3679(2) -0.9107(4)
H11B H -0.32900 0.36380 -0.97530
C21B C -0.3289(4) 0.3979(2) -0.8634(4)
H12B H -0.38740 0.41480 -0.89650
C22B C -0.1903(5) 0.2613(2) -0.9098(4)
C23B C -0.1341(5) 0.2293(2) -0.9298(5)
H13B H -0.08170 0.24220 -0.93640
C24B C -0.1546(4) 0.1777(2) -0.9403(4)
H14B H -0.11620 0.15550 -0.95460
C25B C -0.2297(4) 0.1584(2) -0.9302(4)
C26B C -0.2845(5) 0.1913(2) -0.9095(5)
H15B H -0.33730 0.17850 -0.90370
C27B C -0.2646(5) 0.2424(2) -0.8970(5)
H16B H -0.30140 0.26420 -0.87970
C28B C -0.2580(4) 0.1027(2) -0.9454(3)
C29B C -0.3856(3) 0.46183(19) -0.2493(4)
C30B C -0.2935(3) 0.43763(19) -0.1836(3)
C31B C -0.2446(4) 0.40761(19) -0.2145(4)
H17B H -0.26980 0.40050 -0.27820
C32B C -0.1581(4) 0.3871(2) -0.1537(4)
H18B H -0.12350 0.36640 -0.17540
C33B C -0.1231(3) 0.39753(19) -0.0603(4)
C34B C -0.1717(4) 0.4278(2) -0.0288(4)
H19B H -0.14670 0.43530 0.03480
C35B C -0.2584(4) 0.4474(2) -0.0908(4)
H20B H -0.29380 0.46760 -0.06930
C36B C 0.0186(3) 0.3983(2) 0.0817(4)
C37B C 0.0596(4) 0.4445(2) 0.0813(4)
H21B H 0.04690 0.46110 0.02530
C38B C 0.1202(4) 0.4657(2) 0.1657(4)
H22B H 0.15140 0.49670 0.16730
C39B C 0.1356(3) 0.4426(2) 0.2466(4)
C40B C 0.0902(4) 0.3973(2) 0.2439(4)
H23B H 0.09880 0.38160 0.29940
C41B C 0.0330(4) 0.3750(2) 0.1610(4)
H24B H 0.00360 0.34340 0.15930
C42B C 0.2016(4) 0.46630(19) 0.3374(4)
H27B H -0.387(5) 0.531(3) -0.551(5)
Co1A Co -0.23019(5) 0.00347(3) -1.02220(5)
Co1B* Co -0.23019(5) 0.49653(3) 0.47780(5)
Co1C Co 0.23019(5) 0.99653(3) 1.02220(5)
Co2* Co -0.55314(5) 0.50841(3) -0.32009(5)
Co2A Co 0.55314(5) 0.00841(3) 0.82009(5)
Co2B* Co 0.55314(5) 0.49159(3) 0.32009(5)
Co2C Co -0.55314(5) 0.99159(3) -0.82009(5)
Co3A Co -0.39105(5) 0.02369(3) -0.94082(5)
Co3A* Co -0.39105(5) 1.02369(3) -0.94082(5)
Co3A** Co 0.60895(5) 0.02369(3) 1.05918(5)
Co3C Co -0.60895(5) 0.97631(3) -1.05918(5)
Co3C* Co 0.39105(5) -0.02369(3) 0.94082(5)
Co3C** Co 0.39105(5) 0.97631(3) 0.94082(5)
N1B* N -0.0877(3) 0.49752(16) -0.5015(3)
O4A O 0.5139(2) 0.57336(13) 0.6600(2)
O4C O -0.5139(2) 0.42664(13) -0.6600(2)
O5A O -0.4682(2) 0.55013(12) -0.4627(2)
O5A* O 0.5318(2) 0.55013(12) 0.5373(2)
O5C O -0.5318(2) 0.44987(12) -0.5373(2)
O5C* O 0.4682(2) 0.44987(12) 0.4627(2)
O9A O -0.2024(3) 0.42681(13) -0.4556(3)
O9C O 0.2024(3) 0.57319(13) 0.4556(3)
O10A O -0.3352(2) 0.40765(12) -0.4464(2)
O10C O 0.3352(2) 0.59235(12) 0.4464(2)
O12* O -0.5736(2) 0.51052(14) -0.7844(2)
O12B* O 0.5736(2) 0.48948(14) 0.7844(2)
N2B N 0.4370(4) 0.4855(2) 1.0348(4)
C45B C 0.5062(5) 0.5203(3) 1.0775(5)
H28B H 0.51220 0.53620 1.13200
C46B C 0.4311(5) 0.4672(3) 0.9581(5)
H29B H 0.38160 0.44410 0.92460
#END
