
#######################################################################
#
#                 Cambridge Crystallographic Data Centre
#                                CCDC
#
#######################################################################
#
# If this CIF has been generated from an entry in the Cambridge
# Structural Database, then it will include bibliographic, chemical,
# crystal, experimental, refinement or atomic coordinate data resulting
# from the CCDC's data processing and validation procedures.
#
#######################################################################

data_CSD_CIF_CUXDAD
_audit_creation_date 2020-09-22
_audit_creation_method CSD-ConQuest-V1
_database_code_CSD CUXDAD
_database_code_depnum_ccdc_archive 'CCDC 985963'
_chemical_formula_sum 'C41 H16 Cu2 F25 N1 O10'
_chemical_formula_moiety
;
(C35 Cu2 F25 O10 1-)n,C6 H16 N1 1+
;
_journal_coden_Cambridge 155
_journal_volume 514
_journal_year 2021
_journal_page_first 120019
_journal_name_full 'Inorg.Chim.Acta '
loop_
_publ_author_name
"Li-Juan Han"
"Ya-Jie Kong"
"Meng-Meng Huang"
_chemical_name_systematic
;
catena-[(triethylammonium) pentakis[\m-pentafluorobenzoato]-di-copper(ii)]
;
_cell_volume   4728.936
_exptl_crystal_colour 'blue'
_exptl_crystal_density_diffrn 1.804
_exptl_crystal_description 'block'
_diffrn_ambient_temperature 293
#These two values have been output from a single CSD field.
_refine_ls_R_factor_gt 0.0443
_refine_ls_wR_factor_gt 0.0443
_symmetry_cell_setting triclinic
_symmetry_space_group_name_H-M 'P -1'
_symmetry_Int_Tables_number 2
loop_
_symmetry_equiv_pos_site_id
_symmetry_equiv_pos_as_xyz
1 x,y,z
2 -x,-y,-z
_cell_length_a 12.9870(9)
_cell_length_b 17.5653(12)
_cell_length_c 21.9475(17)
_cell_angle_alpha 103.684(3)
_cell_angle_beta 101.239(4)
_cell_angle_gamma 94.621(3)
_cell_formula_units_Z 4
loop_
_atom_type_symbol
_atom_type_radius_bond
C 0.68
H 0.23
Cu 1.32
F 0.64
N 0.68
O 0.68
loop_
_atom_site_label
_atom_site_type_symbol
_atom_site_fract_x
_atom_site_fract_y
_atom_site_fract_z
Cu1 Cu 0.46746(3) 0.06886(2) -0.00794(2)
Cu2 Cu 0.48205(3) 0.42841(2) 0.01043(2)
F1 F 0.7951(3) 0.28558(17) 0.27518(15)
F2 F 0.9964(3) 0.25371(19) 0.27790(17)
F3 F 1.0373(2) 0.1320(2) 0.18802(19)
F4 F 0.87761(19) 0.04261(17) 0.09517(15)
F5 F 0.4759(2) 0.0448(2) 0.21910(13)
F6 F 0.3554(3) 0.0368(3) 0.30533(15)
F7 F 0.1447(3) -0.0098(2) 0.26465(17)
F8 F 0.0547(2) -0.05139(19) 0.13760(17)
F9 F 0.17537(19) -0.04379(17) 0.05125(13)
F10 F 0.6350(2) 0.19384(16) 0.18490(13)
F11 F 0.8281(2) 0.58936(18) 0.14739(14)
F12 F 1.0302(3) 0.5647(3) 0.1880(2)
F13 F 1.1217(3) 0.4607(3) 0.1089(3)
F14 F 1.0094(3) 0.3789(2) -0.0090(3)
F15 F 0.8078(3) 0.40129(16) -0.04828(17)
F16 F 0.3613(3) 0.51776(19) 0.19035(15)
F17 F 0.3744(3) 0.5911(2) 0.31341(17)
F18 F 0.5293(3) 0.7123(2) 0.37542(13)
F19 F 0.6688(3) 0.7625(2) 0.31176(15)
F20 F 0.6571(2) 0.69093(17) 0.18934(14)
F21 F 0.68454(18) 0.28098(14) 0.08514(12)
F22 F 0.8661(2) 0.26062(18) 0.04498(17)
F23 F 0.8621(2) 0.21476(18) -0.08218(19)
F24 F 0.6756(3) 0.18835(19) -0.16902(15)
F25 F 0.4941(2) 0.20807(15) -0.12909(12)
O1 O 0.5989(2) 0.10670(14) 0.05812(13)
O2 O 0.65545(19) -0.00638(14) 0.07251(13)
O3 O 0.3898(2) 0.05798(14) 0.05933(13)
O4 O 0.4485(2) -0.05391(14) 0.07401(13)
O5 O 0.63768(19) 0.44021(13) 0.03030(13)
O6 O 0.6706(2) 0.56044(14) 0.01438(14)
O7 O 0.4861(2) 0.48767(15) 0.09913(12)
O8 O 0.5158(2) 0.60678(14) 0.08058(12)
O9 O 0.45044(19) 0.31332(12) 0.02048(13)
O10 O 0.42677(18) 0.18362(12) -0.00439(13)
C1 C 0.6608(3) 0.0670(2) 0.08498(17)
C2 C 0.3954(3) 0.0019(2) 0.08489(17)
C3 C 0.6970(3) 0.4998(2) 0.02967(18)
C4 C 0.5023(3) 0.5612(2) 0.11535(19)
C5 C 0.4799(3) 0.24856(19) 0.00022(16)
C6 C 0.7515(3) 0.1154(2) 0.13754(19)
C7 C 0.7323(4) 0.1783(2) 0.1841(2)
C8 C 0.8141(5) 0.2244(3) 0.2308(2)
C9 C 0.9151(5) 0.2090(3) 0.2322(3)
C10 C 0.9371(4) 0.1472(3) 0.1870(3)
C11 C 0.8550(3) 0.1011(2) 0.1400(2)
C12 C 0.3282(3) 0.0001(2) 0.13327(19)
C13 C 0.3716(4) 0.0201(3) 0.1984(2)
C14 C 0.3106(5) 0.0164(3) 0.2421(2)
C15 C 0.2041(4) -0.0072(3) 0.2215(3)
C16 C 0.1580(4) -0.0274(3) 0.1573(3)
C17 C 0.2210(3) -0.0232(2) 0.1141(2)
C18 C 0.81348(18) 0.49444(17) 0.04948(16)
C19 C 0.8714(3) 0.53699(18) 0.10984(16)
C20 C 0.9758(3) 0.5256(3) 0.1304(2)
C21 C 1.02237(19) 0.4716(3) 0.0907(3)
C22 C 0.9645(3) 0.4291(2) 0.0303(3)
C23 C 0.8600(3) 0.44048(17) 0.00971(17)
C24 C 0.5088(3) 0.6014(2) 0.18503(18)
C25 C 0.4393(4) 0.5771(3) 0.2193(2)
C26 C 0.4452(5) 0.6149(3) 0.2831(3)
C27 C 0.5223(6) 0.6768(3) 0.3138(2)
C28 C 0.5919(5) 0.7016(3) 0.2815(2)
C29 C 0.5857(4) 0.6642(3) 0.2178(2)
C30 C 0.5841(3) 0.24502(18) -0.02114(18)
C31 C 0.6800(3) 0.2586(2) 0.0223(2)
C32 C 0.7736(3) 0.2476(2) 0.0020(3)
C33 C 0.7716(4) 0.2246(3) -0.0620(3)
C34 C 0.6794(4) 0.2124(2) -0.1056(2)
C35 C 0.5854(3) 0.2220(2) -0.0856(2)
Cu3 Cu 0.49133(4) 0.42162(2) 0.49332(2)
Cu4 Cu 0.46834(3) 0.06653(2) 0.48745(2)
F26 F 0.8646(3) 0.4512(2) 0.53918(18)
F27 F 1.0546(3) 0.4798(3) 0.6232(2)
F28 F 0.9046(3) 0.6207(2) 0.78470(17)
F29 F 0.7151(3) 0.5937(2) 0.70158(15)
F30 F 0.4904(2) 0.34932(16) 0.28671(14)
F31 F 0.5513(2) 0.33832(17) 0.17607(13)
F32 F 0.7067(2) 0.44533(17) 0.16779(13)
F33 F 0.7918(2) 0.56887(18) 0.26982(14)
F34 F 0.7319(2) 0.58240(16) 0.38038(13)
F35 F 0.4666(2) 0.0834(2) 0.71738(14)
F36 F 0.3460(3) 0.0827(3) 0.80539(15)
F37 F 0.1410(3) 0.0206(2) 0.76710(16)
F38 F 0.0551(2) -0.0435(2) 0.64122(17)
F39 F 0.1755(2) -0.0453(2) 0.55333(14)
F40 F 0.8762(2) 0.05431(19) 0.58708(18)
F41 F 1.0384(3) 0.1444(2) 0.6768(2)
F42 F 1.0008(3) 0.2611(2) 0.7719(2)
F43 F 0.7981(3) 0.2906(2) 0.77465(18)
F44 F 0.6366(2) 0.20117(17) 0.68437(14)
F45 F 0.6760(2) 0.28192(14) 0.56777(13)
F46 F 0.8645(2) 0.2641(2) 0.5351(2)
F47 F 0.8713(3) 0.2055(2) 0.4096(2)
F48 F 0.6914(3) 0.1636(2) 0.31841(18)
F49 F 0.5041(2) 0.18477(17) 0.35063(13)
O11 O 0.6349(2) 0.44081(15) 0.54755(14)
O12 O 0.6476(2) 0.57183(15) 0.56101(14)
O13 O 0.5526(2) 0.41428(15) 0.41769(14)
O14 O 0.5632(2) 0.54447(15) 0.42812(13)
O15 O 0.3884(2) 0.06697(15) 0.55553(14)
O16 O 0.4444(2) -0.04251(15) 0.57734(13)
O17 O 0.5974(2) 0.11210(14) 0.55357(14)
O18 O 0.6541(2) 0.00189(14) 0.57368(13)
O19 O 0.42323(18) 0.17489(12) 0.47320(12)
O20 O 0.4436(2) 0.30306(13) 0.48577(13)
C36 C 0.6798(3) 0.5099(2) 0.5709(2)
C37 C 0.78537(19) 0.52172(18) 0.61878(14)
C38 C 0.8725(3) 0.4919(2) 0.59861(15)
C39 C 0.9702(2) 0.5058(3) 0.6415(2)
C40 C 0.9807(2) 0.5495(2) 0.7046(2)
C41 C 0.8936(3) 0.5793(2) 0.72482(13)
C42 C 0.7959(2) 0.56538(19) 0.68189(16)
C43 C 0.5723(3) 0.4756(2) 0.4005(2)
C44 C 0.6087(3) 0.4662(2) 0.33837(19)
C45 C 0.5665(3) 0.4043(2) 0.2849(2)
C46 C 0.5972(4) 0.3981(3) 0.2271(2)
C47 C 0.6740(4) 0.4525(3) 0.2227(2)
C48 C 0.7175(4) 0.5147(3) 0.2745(2)
C49 C 0.6854(3) 0.5209(2) 0.3313(2)
C50 C 0.3918(3) 0.0139(2) 0.58429(19)
C51 C 0.3243(3) 0.0181(2) 0.6338(2)
C52 C 0.3652(4) 0.0507(3) 0.6978(2)
C53 C 0.3048(4) 0.0517(3) 0.7430(2)
C54 C 0.2013(4) 0.0196(3) 0.7238(3)
C55 C 0.1578(4) -0.0124(3) 0.6599(3)
C56 C 0.2195(4) -0.0130(3) 0.6161(2)
C57 C 0.6600(3) 0.0747(2) 0.58277(19)
C58 C 0.7517(3) 0.1250(2) 0.6331(2)
C59 C 0.8547(4) 0.1122(3) 0.6332(3)
C60 C 0.9382(4) 0.1574(3) 0.6784(4)
C61 C 0.9199(5) 0.2172(3) 0.7261(3)
C62 C 0.8175(5) 0.2325(3) 0.7282(3)
C63 C 0.7352(4) 0.1856(3) 0.6813(2)
C64 C 0.4770(3) 0.23806(19) 0.47535(16)
C65 C 0.5855(3) 0.2343(2) 0.4609(2)
C66 C 0.6774(3) 0.2545(2) 0.5058(2)
C67 C 0.7758(4) 0.2458(3) 0.4893(3)
C68 C 0.7772(4) 0.2163(3) 0.4254(4)
C69 C 0.6876(5) 0.1954(3) 0.3800(3)
C70 C 0.5919(4) 0.2052(2) 0.3965(2)
F50 F 1.0737(3) 0.5648(3) 0.7464(2)
N1 N 0.2112(3) 0.2109(2) 0.4548(2)
H1 H 0.28050 0.20460 0.46690
C71 C 0.1822(6) 0.1783(5) 0.3814(4)
H2 H 0.19060 0.12270 0.37180
H3 H 0.10750 0.18160 0.36700
C72 C 0.2368(6) 0.2130(5) 0.3444(4)
H4 H 0.21030 0.18650 0.29970
H5 H 0.31090 0.20860 0.35630
H6 H 0.22720 0.26770 0.35140
C73 C 0.1488(5) 0.1524(4) 0.4809(4)
H7 H 0.07350 0.15330 0.46640
H8 H 0.16400 0.09930 0.46390
C74 C 0.1761(8) 0.1721(6) 0.5510(4)
H9 H 0.13570 0.13470 0.56570
H10 H 0.16020 0.22430 0.56790
H11 H 0.25030 0.17010 0.56540
C75 C 0.2053(5) 0.2915(4) 0.4815(3)
H12 H 0.25110 0.32260 0.46390
H13 H 0.23480 0.30320 0.52740
C76 C 0.0980(5) 0.3206(4) 0.4725(4)
H14 H 0.10620 0.37620 0.49290
H15 H 0.05190 0.29250 0.49140
H16 H 0.06800 0.31160 0.42740
N2 N 0.2302(3) 0.2235(2) 0.0185(2)
H17 H 0.29750 0.21680 0.01430
C77 C 0.1785(3) 0.1441(3) 0.0175(3)
H18 H 0.22130 0.12510 0.05070
H19 H 0.17790 0.10800 -0.02350
C78 C 0.0676(4) 0.1417(3) 0.0273(3)
H20 H 0.04080 0.08860 0.02580
H21 H 0.02380 0.15900 -0.00600
H22 H 0.06720 0.17590 0.06840
C79 C 0.2411(5) 0.2828(4) 0.0817(4)
H23 H 0.27920 0.33200 0.08030
H24 H 0.17100 0.29330 0.08760
C80 C 0.2968(7) 0.2576(6) 0.1378(4)
H25 H 0.30070 0.29820 0.17640
H26 H 0.36720 0.24870 0.13310
H27 H 0.25880 0.20970 0.14020
C81 C 0.1901(6) 0.2054(5) -0.1007(4)
H28 H 0.15740 0.22830 -0.13400
H29 H 0.15490 0.15290 -0.10740
H30 H 0.26340 0.20320 -0.10160
C82 C 0.1816(4) 0.2547(3) -0.0371(4)
H31 H 0.10740 0.25790 -0.03710
H32 H 0.21610 0.30780 -0.03110
Cu1A Cu 0.53254(3) -0.06886(2) 0.00794(2)
Cu2A Cu 0.51795(3) 0.57159(2) -0.01043(2)
O2A O 0.34455(19) 0.00638(14) -0.07251(13)
O4A O 0.5515(2) 0.05391(14) -0.07401(13)
O6A O 0.3294(2) 0.43956(14) -0.01438(14)
O8A O 0.4842(2) 0.39322(14) -0.08058(12)
Cu3A Cu 0.50867(4) 0.57838(2) 0.50668(2)
Cu4A Cu 0.53166(3) -0.06653(2) 0.51255(2)
O12A O 0.3524(2) 0.42817(15) 0.43899(14)
O14A O 0.4368(2) 0.45553(15) 0.57188(13)
O16A O 0.5556(2) 0.04251(15) 0.42266(13)
O18A O 0.3459(2) -0.00189(14) 0.42632(13)
#END
