
#######################################################################
#
#                 Cambridge Crystallographic Data Centre
#                                CCDC
#
#######################################################################
#
# If this CIF has been generated from an entry in the Cambridge
# Structural Database, then it will include bibliographic, chemical,
# crystal, experimental, refinement or atomic coordinate data resulting
# from the CCDC's data processing and validation procedures.
#
#######################################################################

data_CSD_CIF_CUXLEO
_audit_creation_date 2015-11-25
_audit_creation_method CSD-ConQuest-V1
_database_code_CSD CUXLEO
_database_code_depnum_ccdc_archive 'CCDC 1438689'
_chemical_formula_sum 'C23 H10 Cu1 F4 N7 O2'
_chemical_formula_moiety
;
(C11 H10 N3 O2 1+)n,n(C12 Cu1 F4 N4 1-)
;
_journal_coden_Cambridge 1078
_journal_year 2015
_journal_name_full 'CSD Communication(Private Communication) '
loop_
_publ_author_name
"B.F.Abrahams"
"R.W.Elliott"
"T.A.Hudson"
"R.Robson"
"A.L.Sutton"
_chemical_name_systematic
;
catena-[(1-(4-Nitrobenzyl)pyrazin-1-ium) 
(\m~4~-2,3,5,6-tetrafluorotetracyanoquinodimethane dianion)-copper(i)]
;
_cell_volume   2140.994
_exptl_crystal_colour 'dark red'
_exptl_crystal_density_diffrn 1.725
_exptl_crystal_description 'Spike'
_diffrn_ambient_temperature 130
_diffrn_special_details
;
twin

;
#These two values have been output from a single CSD field.
_refine_ls_R_factor_gt 0.0276
_refine_ls_wR_factor_gt 0.0276
_symmetry_cell_setting monoclinic
_symmetry_space_group_name_H-M 'C c'
_symmetry_Int_Tables_number 9
loop_
_symmetry_equiv_pos_site_id
_symmetry_equiv_pos_as_xyz
1 x,y,z
2 x,-y,1/2+z
3 1/2+x,1/2+y,z
4 1/2+x,1/2-y,1/2+z
_cell_length_a 9.2630(2)
_cell_length_b 11.0891(2)
_cell_length_c 21.1717(3)
_cell_angle_alpha 90
_cell_angle_beta 100.104(2)
_cell_angle_gamma 90
_cell_formula_units_Z 4
loop_
_atom_type_symbol
_atom_type_radius_bond
C 0.68
H 0.23
Cu 1.32
F 0.64
N 0.68
O 0.68
loop_
_atom_site_label
_atom_site_type_symbol
_atom_site_fract_x
_atom_site_fract_y
_atom_site_fract_z
Cu1 Cu 0.83814(4) 0.37908(4) 0.64904(3)
F1 F 0.0910(2) 0.6044(2) 0.34151(10)
F2 F 0.2027(2) 0.6704(2) 0.45931(11)
F3 F 0.6139(2) 0.4208(2) 0.45463(10)
F4 F 0.5005(2) 0.3524(2) 0.33706(11)
N1 N 0.0000(3) 0.5268(3) 0.19842(14)
N2 N 0.4212(3) 0.7852(3) 0.58022(15)
N3 N 0.6615(3) 0.4630(3) 0.60593(14)
N4 N 0.3022(4) 0.2543(3) 0.20755(16)
C1 C 0.4838(4) 0.4678(3) 0.42762(17)
C2 C 0.2889(4) 0.4721(3) 0.33362(16)
C3 C 0.4159(4) 0.5500(3) 0.46275(15)
C4 C 0.4756(4) 0.5855(3) 0.52844(17)
C5 C 0.5793(4) 0.5167(3) 0.56906(17)
C6 C 0.4229(4) 0.4315(3) 0.36626(17)
C7 C 0.0999(4) 0.4877(3) 0.23203(17)
C8 C 0.2216(4) 0.5574(3) 0.36823(17)
C9 C 0.2815(4) 0.5929(3) 0.42943(17)
C10 C 0.4416(4) 0.6965(3) 0.55469(16)
C11 C 0.2245(4) 0.4341(3) 0.26887(17)
C12 C 0.2743(4) 0.3342(3) 0.23767(17)
O1 O 0.9482(3) 0.4580(3) 0.43081(14)
O2 O 0.7835(3) 0.5540(3) 0.36500(13)
N5 N 0.8265(3) 0.8232(2) 0.68207(14)
N6 N 0.8610(4) 0.5418(3) 0.41785(15)
C13 C 0.7537(4) 0.7257(3) 0.45382(17)
H1 H 0.70310 0.73800 0.41120
C14 C 0.7350(4) 0.8049(3) 0.50280(17)
H2 H 0.67060 0.87180 0.49380
C15 C 0.7352(4) 0.7446(3) 0.70399(18)
H3 H 0.64340 0.72510 0.67830
C16 C 0.8108(4) 0.7862(3) 0.56520(16)
N7 N 0.9101(4) 0.7257(4) 0.80123(18)
C17 C 0.9990(4) 0.8079(4) 0.77763(18)
H4 H 1.08940 0.83210 0.80300
C18 C 0.9558(4) 0.8546(3) 0.71718(18)
H5 H 1.01780 0.90940 0.70020
C19 C 0.8475(4) 0.6290(3) 0.46862(17)
C20 C 0.7821(4) 0.8728(3) 0.61624(17)
H6 H 0.83650 0.94850 0.61250
H7 H 0.67620 0.89240 0.60920
C21 C 0.9253(5) 0.6097(4) 0.52905(19)
H8 H 0.99050 0.54320 0.53750
C22 C 0.9070(4) 0.6891(4) 0.57771(18)
H9 H 0.96050 0.67720 0.61980
C23 C 0.7757(5) 0.6926(4) 0.76373(19)
H10 H 0.71370 0.63560 0.77920
Cu1A Cu -0.16186(4) 0.62092(4) 0.14904(3)
Cu1B Cu 0.33814(4) 0.87908(4) 0.64904(3)
Cu1C Cu 0.33814(4) 0.12092(4) 0.14904(3)
N1A N 1.0000(3) 0.4732(3) 0.69842(14)
N2B N 0.9212(3) 0.2852(3) 0.58022(15)
N4C N 0.8022(4) 0.2457(3) 0.70755(16)
#END
