
#######################################################################
#
#                 Cambridge Crystallographic Data Centre
#                                CCDC
#
#######################################################################
#
# If this CIF has been generated from an entry in the Cambridge
# Structural Database, then it will include bibliographic, chemical,
# crystal, experimental, refinement or atomic coordinate data resulting
# from the CCDC's data processing and validation procedures.
#
#######################################################################

data_CSD_CIF_DABMUR
_audit_creation_date 2015-11-21
_audit_creation_method CSD-ConQuest-V1
_database_code_CSD DABMUR
_database_code_depnum_ccdc_archive 'CCDC 1438170'
_chemical_formula_sum 'C50 H59 Cu2 F8 N11'
_chemical_formula_moiety
;
(C12 H28 N1 1+)2n,n(C24 Cu2 F8 N8 2-),n(C2 H3 N1)
;
_journal_coden_Cambridge 1078
_journal_year 2015
_journal_name_full 'CSD Communication(Private Communication) '
loop_
_publ_author_name
"B.F.Abrahams"
"R.W.Elliott"
"T.A.Hudson"
"R.Robson"
"A.L.Sutton"
_chemical_name_systematic
;
catena-[bis(Tetrapropylammonium) 
(\m~4~-2,3,5,6-tetrafluorotetracyanoquinodimethane 
dianion)-(\m~3~-2,3,5,6-tetrafluorotetracyanoquinodimethane 
dianion)-di-copper acetonitrile solvate]
;
_cell_volume   5268.424
_exptl_crystal_colour 'pale yellow'
_exptl_crystal_density_diffrn 1.378
_exptl_crystal_description 'Plate'
_diffrn_ambient_temperature 130
_refine_special_details
;
N11 and N12 disordered over two sites with occupancies 0.50:0.50.

;
#These two values have been output from a single CSD field.
_refine_ls_R_factor_gt 0.0575
_refine_ls_wR_factor_gt 0.0575
_symmetry_cell_setting monoclinic
_symmetry_space_group_name_H-M 'P 21/c'
_symmetry_Int_Tables_number 14
loop_
_symmetry_equiv_pos_site_id
_symmetry_equiv_pos_as_xyz
1 x,y,z
2 -x,1/2+y,1/2-z
3 -x,-y,-z
4 x,-1/2-y,-1/2+z
_cell_length_a 21.8518(11)
_cell_length_b 14.1610(8)
_cell_length_c 17.9185(10)
_cell_angle_alpha 90
_cell_angle_beta 108.165(5)
_cell_angle_gamma 90
_cell_formula_units_Z 4
loop_
_atom_type_symbol
_atom_type_radius_bond
C 0.68
H 0.23
Cu 1.32
F 0.64
N 0.68
loop_
_atom_site_label
_atom_site_type_symbol
_atom_site_fract_x
_atom_site_fract_y
_atom_site_fract_z
F1 F 0.91719(10) 0.45798(15) 0.72994(14)
Cu1 Cu 0.81063(3) 0.38194(4) 0.47626(3)
Cu2 Cu 0.75179(2) 0.89546(4) 0.58471(3)
F2 F 1.02449(10) 0.45921(16) 0.84971(14)
F3 F 0.93462(10) 0.78807(15) 0.70343(14)
F4 F 1.04117(10) 0.78880(16) 0.82299(14)
F5 F 0.59428(12) 0.4358(3) 0.35870(14)
F6 F 0.58148(11) 0.4531(2) 0.09173(14)
N1 N 0.31310(15) 0.3917(3) 0.0199(2)
N2 N 0.74352(16) 0.3975(3) 0.3780(2)
F7 F 0.46817(12) 0.4215(3) 0.31862(15)
N3 N 1.14484(16) 0.7659(3) 0.9899(2)
C1 C 0.49490(19) 0.4289(3) 0.2607(2)
F8 F 0.45596(12) 0.4438(3) 0.05153(14)
C2 C 1.00387(17) 0.5417(3) 0.8132(2)
C3 C 0.34747(17) 0.4059(3) 0.0815(2)
C4 C 0.86121(17) 0.6225(3) 0.6448(2)
N4 N 0.78824(16) 0.7684(3) 0.6172(2)
N5 N 0.71827(16) 0.5427(3) 0.1633(2)
C5 C 1.10036(17) 0.6226(3) 0.9040(2)
N6 N 1.17673(15) 0.4818(3) 0.9202(2)
C6 C 0.92075(17) 0.6226(3) 0.7098(2)
C7 C 1.12433(17) 0.7017(3) 0.9509(2)
C8 C 0.95558(17) 0.7052(3) 0.7385(2)
C9 C 1.14190(17) 0.5445(3) 0.9138(2)
C10 C 0.66458(18) 0.4523(3) 0.2488(2)
C11 C 1.03934(17) 0.6239(3) 0.8409(2)
C12 C 0.70658(17) 0.4213(3) 0.3210(2)
C13 C 0.55470(18) 0.4463(3) 0.1501(2)
C14 C 0.56090(19) 0.4362(3) 0.2810(2)
C15 C 0.45501(18) 0.4310(3) 0.1830(2)
C16 C 1.01158(17) 0.7053(3) 0.8010(2)
C17 C 0.48864(19) 0.4408(3) 0.1291(2)
C18 C 0.94828(17) 0.5414(3) 0.7510(2)
C19 C 0.84479(18) 0.5477(3) 0.5920(2)
C20 C 0.82011(18) 0.7020(3) 0.6290(2)
N7 N 0.83158(18) 0.4871(3) 0.5465(2)
C21 C 0.69391(17) 0.5010(3) 0.2015(2)
C22 C 0.38505(19) 0.4220(3) 0.1591(2)
C23 C 0.59410(17) 0.4447(3) 0.2274(2)
C24 C 0.3500(2) 0.4275(4) 0.2127(3)
N8 N 0.3171(2) 0.4296(5) 0.2521(3)
C25 C 0.3681(3) 0.5162(4) 0.4472(4)
H1 H 0.38170 0.54700 0.49940
H2 H 0.40580 0.51290 0.42780
C26 C 0.1658(3) 0.7558(6) 0.2417(4)
H3 H 0.17460 0.82370 0.24770
H4 H 0.12030 0.74430 0.23570
H5 H 0.17560 0.73270 0.19520
C27 C 0.2069(3) 0.7052(5) 0.3128(4)
H6 H 0.19800 0.72970 0.36020
H7 H 0.19640 0.63690 0.30820
C28 C 0.3419(4) 0.4152(5) 0.4535(4)
H8 H 0.30740 0.41880 0.47740
H9 H 0.37690 0.37560 0.48600
H10 H 0.32510 0.38760 0.40080
C29 C 0.4066(3) 0.6648(5) 0.3134(6)
H11 H 0.38170 0.70110 0.26660
H12 H 0.39360 0.59760 0.30490
C30 C 0.4791(4) 0.6744(6) 0.3248(8)
H13 H 0.49340 0.73820 0.34320
H14 H 0.48710 0.66280 0.27480
H15 H 0.50290 0.62820 0.36380
C31 C 0.3923(3) 0.7020(5) 0.3861(6)
H16 H 0.42490 0.67600 0.43320
H17 H 0.39740 0.77150 0.38760
N9 N 0.3265(2) 0.6789(3) 0.3910(3)
C32 C 0.3145(3) 0.5721(4) 0.3906(3)
H18 H 0.27420 0.56100 0.40360
H19 H 0.30780 0.54780 0.33690
C33 C 0.3085(3) 0.8463(4) 0.5551(4)
H20 H 0.27300 0.81100 0.56430
H21 H 0.30090 0.91420 0.55830
H22 H 0.34900 0.82900 0.59500
C34 C 0.3175(3) 0.7172(4) 0.4679(4)
H23 H 0.27800 0.68880 0.47410
H24 H 0.35430 0.69550 0.51260
C35 C 0.2762(3) 0.7188(5) 0.3209(4)
H25 H 0.28390 0.78760 0.32010
H26 H 0.28360 0.69180 0.27350
C36 C 0.3127(3) 0.8224(4) 0.4730(5)
H27 H 0.27380 0.84560 0.43200
H28 H 0.35090 0.85290 0.46510
C37 C 0.4081(4) 0.2041(6) 0.3828(6)
H29 H 0.38820 0.25720 0.34890
H30 H 0.39230 0.20220 0.42840
H31 H 0.39680 0.14490 0.35330
C38 C 0.4732(5) 0.2149(9) 0.4078(8)
N10 N 0.5240(12) 0.2057(19) 0.4001(16)
N11? N 0.5262(9) 0.2526(13) 0.4380(11)
N12 N 0.84910(16) 0.7626(2) 0.89752(19)
C39 C 0.8673(2) 0.8298(3) 0.8422(2)
H32 H 0.83440 0.82480 0.79000
H33 H 0.90870 0.80840 0.83640
C40 C 0.89835(19) 0.7647(3) 0.9787(2)
H34 H 0.88460 0.71950 1.01250
H35 H 0.89800 0.82850 1.00110
C41 C 0.8452(2) 0.6660(3) 0.8606(3)
H36 H 0.88630 0.65370 0.85000
H37 H 0.81080 0.66730 0.80930
C42 C 0.9675(2) 0.7409(4) 0.9827(3)
H38 H 0.96950 0.67560 0.96370
H39 H 0.98210 0.78450 0.94850
C43 C 0.8321(2) 0.5841(3) 0.9082(3)
H40 H 0.86500 0.58360 0.96080
H41 H 0.78940 0.59250 0.91550
C44 C 0.8995(3) 0.9880(4) 0.8087(3)
H42 H 0.87010 0.97980 0.75520
H43 H 0.94230 0.96440 0.81160
H44 H 0.90230 1.05510 0.82260
C45 C 0.78520(19) 0.7910(3) 0.9090(3)
H45 H 0.77450 0.74410 0.94400
H46 H 0.79110 0.85270 0.93620
C46 C 0.6694(2) 0.8310(4) 0.8566(4)
H47 H 0.67680 0.89450 0.87920
H48 H 0.66150 0.78720 0.89490
H49 H 0.63180 0.83180 0.80910
C47 C 1.0111(2) 0.7500(4) 1.0672(3)
H50 H 0.99590 0.70760 1.10090
H51 H 1.01020 0.81530 1.08490
H52 H 1.05520 0.73300 1.07010
C48 C 0.8741(2) 0.9330(3) 0.8658(3)
H53 H 0.90420 0.93950 0.91980
H54 H 0.83170 0.95860 0.86500
C49 C 0.8338(3) 0.4908(4) 0.8675(3)
H55 H 0.87710 0.48020 0.86380
H56 H 0.80260 0.49230 0.81460
H57 H 0.82270 0.43940 0.89770
C50 C 0.7291(2) 0.7986(4) 0.8352(3)
H58 H 0.72060 0.73650 0.80850
H59 H 0.73890 0.84460 0.79900
Cu1A Cu 1.18937(3) 0.88194(4) 1.02374(3)
Cu2A Cu 0.24821(2) 0.39546(4) -0.08471(3)
Cu2A* Cu 1.24821(2) 0.39546(4) 0.91529(3)
Cu2C Cu 0.75179(2) 0.60454(4) 0.08471(3)
N1A N 0.68690(15) 0.8917(3) 0.4801(2)
N3A N 0.85516(16) 0.2659(3) 0.5101(2)
N5C N 0.71827(16) 0.9573(3) 0.6633(2)
N6A N 0.82327(15) 0.9818(3) 0.5798(2)
#END
