
#######################################################################
#
#                 Cambridge Crystallographic Data Centre
#                                CCDC
#
#######################################################################
#
# If this CIF has been generated from an entry in the Cambridge
# Structural Database, then it will include bibliographic, chemical,
# crystal, experimental, refinement or atomic coordinate data resulting
# from the CCDC's data processing and validation procedures.
#
#######################################################################

data_CSD_CIF_DACDIY
_audit_creation_date 2020-09-11
_audit_creation_method CSD-ConQuest-V1
_database_code_CSD DACDIY
_database_code_depnum_ccdc_archive 'CCDC 2009622'
_chemical_formula_sum 'C40 H46 K3 N5 O27 S4 Zn2'
_chemical_formula_moiety
;
(C33 H28 K3 N2 O26 S4 Zn2 1-)n,C5 H10 N2 O1,C2 H8 N1 1+
;
_journal_coden_Cambridge 1147
_journal_volume 20
_journal_year 2020
_journal_page_first 6668
_journal_name_full 'Cryst.Growth Des. '
loop_
_publ_author_name
"A.N.Hong"
"Huajun Yang"
"Angel Zhou"
"Xianhui Bu"
"Pingyun Feng"
_chemical_name_systematic
;
catena-[dimethylammonium 
bis(\m-4,4'-oxybis(3-sulfonatobenzoato))-(1,3-dimethylimidazolidin-2-one)-tria
qua-di-zinc-tri-potassium 1,3-dimethylimidazolidin-2-one unknown solvate]
;
_cell_volume   6845.358
_exptl_crystal_colour 'colorless'
_exptl_crystal_density_diffrn 1.356
_exptl_crystal_description 'block'
_diffrn_ambient_temperature 296
_refine_special_details
;
The SQUEEZE/PLATON program has been used to model some disorder.

;
#These two values have been output from a single CSD field.
_refine_ls_R_factor_gt 0.0647
_refine_ls_wR_factor_gt 0.0647
_symmetry_cell_setting monoclinic
_symmetry_space_group_name_H-M 'P 21/c'
_symmetry_Int_Tables_number 14
loop_
_symmetry_equiv_pos_site_id
_symmetry_equiv_pos_as_xyz
1 x,y,z
2 -x,1/2+y,1/2-z
3 -x,-y,-z
4 x,-1/2-y,-1/2+z
_cell_length_a 23.142(3)
_cell_length_b 12.3715(13)
_cell_length_c 25.092(3)
_cell_angle_alpha 90
_cell_angle_beta 107.659(2)
_cell_angle_gamma 90
_cell_formula_units_Z 4
loop_
_atom_type_symbol
_atom_type_radius_bond
C 0.68
H 0.23
K 2.03
N 0.68
O 0.68
S 1.02
Zn 1.22
loop_
_atom_site_label
_atom_site_type_symbol
_atom_site_fract_x
_atom_site_fract_y
_atom_site_fract_z
Zn1 Zn 0.45902(3) 0.90433(5) 0.49425(2)
Zn2 Zn 0.87601(3) 0.48690(6) 0.33194(3)
S1 S 0.75446(7) 0.87500(13) 0.38198(7)
S2 S 0.72803(7) 0.47140(12) 0.28243(6)
S3 S 0.86364(6) 0.31169(12) 0.42082(6)
S4 S 0.96012(8) -0.07132(14) 0.38079(7)
K1 K 0.77768(7) 0.57256(12) 0.41679(6)
K2 K 0.89365(8) 0.01918(15) 0.47470(7)
K3 K 1.15744(8) 0.26707(13) 0.18930(7)
O1 O 0.51576(19) 0.8422(4) 0.45467(18)
O2 O 0.5762(2) 0.9849(4) 0.46424(19)
O3 O 0.69006(16) 0.6830(3) 0.31916(15)
O4 O 0.5207(2) 0.6315(4) 0.06902(17)
O5 O 0.5802(2) 0.4871(4) 0.07717(17)
O6 O 0.7644(2) 0.9717(4) 0.4155(2)
O7 O 0.7508(2) 0.8962(4) 0.32390(19)
O8 O 0.79583(18) 0.7879(4) 0.40613(19)
O9 O 0.7083(2) 0.4430(4) 0.32958(18)
O10 O 0.78462(17) 0.5328(3) 0.29993(17)
O11 O 0.7304(2) 0.3829(4) 0.24572(19)
O12 O 1.0282(2) 0.4799(4) 0.59996(19)
O13 O 1.11541(18) 0.4041(4) 0.60521(17)
O14 O 0.94851(18) 0.1680(4) 0.38907(18)
O15 O 1.1033(2) 0.1136(4) 0.2228(2)
O16 O 1.0802(2) -0.0567(4) 0.22665(19)
O17 O 0.8956(2) -0.0481(4) 0.3693(2)
O18 O 0.9702(3) -0.1732(4) 0.3581(2)
O19 O 0.9938(2) -0.0543(4) 0.43932(19)
O20 O 0.83786(18) 0.2056(3) 0.42086(18)
O21 O 0.84139(18) 0.3911(4) 0.45097(18)
O22 O 0.85894(18) 0.3438(3) 0.36286(16)
O23 O 0.7155(5) 0.5903(10) 0.4913(4)
O24 O 0.8561(4) 0.0156(14) 0.5665(4)
O25 O 1.1696(6) 0.3761(10) 0.2937(5)
O26 O 0.4014(2) 0.7843(4) 0.48756(19)
C1 C 0.5593(3) 0.8919(5) 0.4469(2)
C2 C 0.5939(2) 0.8368(5) 0.4126(2)
C3 C 0.6490(3) 0.8762(5) 0.4107(2)
H1 H 0.66471 0.93843 0.43062
C4 C 0.6812(2) 0.8259(5) 0.3800(2)
C5 C 0.6569(2) 0.7357(5) 0.3491(2)
C6 C 0.6026(3) 0.6928(5) 0.3512(2)
H2 H 0.58674 0.63112 0.33079
C7 C 0.5722(3) 0.7423(5) 0.3839(2)
H3 H 0.53655 0.71178 0.38683
C8 C 0.6599(2) 0.6598(5) 0.2639(2)
C9 C 0.6734(2) 0.5638(4) 0.2414(2)
C10 C 0.6434(2) 0.5377(4) 0.1862(2)
H4 H 0.65276 0.47380 0.17111
C11 C 0.5992(2) 0.6065(5) 0.1531(2)
C12 C 0.5887(3) 0.7043(5) 0.1757(2)
H5 H 0.56074 0.75243 0.15351
C13 C 0.6191(3) 0.7314(5) 0.2302(2)
H6 H 0.61204 0.79796 0.24436
C14 C 0.5643(3) 0.5732(5) 0.0950(2)
C15 C 1.0585(3) 0.4154(5) 0.5822(2)
C16 C 1.0305(3) 0.3493(5) 0.5305(2)
C17 C 0.9689(3) 0.3573(5) 0.5036(2)
H7 H 0.94527 0.40297 0.51784
C18 C 0.9423(2) 0.2988(5) 0.4560(2)
C19 C 0.9782(3) 0.2289(5) 0.4351(2)
C20 C 1.0393(3) 0.2209(5) 0.4618(3)
H8 H 1.06315 0.17534 0.44774
C21 C 1.0652(3) 0.2803(5) 0.5095(3)
H9 H 1.10658 0.27398 0.52775
C22 C 0.9813(3) 0.1369(5) 0.3534(2)
C23 C 0.9879(3) 0.0285(5) 0.3442(2)
C24 C 1.0183(3) -0.0029(5) 0.3062(2)
H10 H 1.02232 -0.07593 0.29917
C25 C 1.0425(3) 0.0741(5) 0.2792(3)
C26 C 1.0344(3) 0.1812(6) 0.2883(3)
H11 H 1.04991 0.23314 0.26957
C27 C 1.0034(3) 0.2140(6) 0.3252(3)
H12 H 0.99769 0.28712 0.33066
C28 C 1.0773(3) 0.0407(6) 0.2407(3)
C29 C 0.3797(6) 0.7455(10) 0.5189(6)
C30 C 0.3793(8) 0.6094(14) 0.5910(6)
H13 H 0.40236 0.61817 0.63014
H14 H 0.37051 0.53364 0.58242
C31 C 0.3186(7) 0.6859(12) 0.5720(6)
H15 H 0.28264 0.64445 0.55326
H16 H 0.31233 0.72386 0.60364
C32 C 0.2929(9) 0.8291(16) 0.5071(9)
H17 H 0.25971 0.83213 0.52256
H18 H 0.31163 0.89895 0.50996
H19 H 0.27811 0.80805 0.46854
C33 C 0.4616(8) 0.5983(15) 0.5473(8)
H20 H 0.47709 0.63877 0.52192
H21 H 0.49266 0.59137 0.58258
H22 H 0.44951 0.52771 0.53204
N1 N 0.4060(6) 0.6581(11) 0.5558(6)
N2 N 0.3342(6) 0.7558(10) 0.5358(5)
O27 O 0.4433(6) 0.5070(9) 0.3228(5)
C34 C 0.3938(7) 0.7082(14) 0.3494(7)
H23 H 0.37673 0.77956 0.34403
H24 H 0.36398 0.65778 0.35359
H25 H 0.42832 0.70709 0.38237
C35 C 0.4769(8) 0.4981(16) 0.2267(8)
H26 H 0.48763 0.51718 0.19383
H27 H 0.51176 0.46918 0.25437
H28 H 0.44526 0.44477 0.21723
C36 C 0.4387(5) 0.5827(10) 0.2947(6)
C37 C 0.4427(7) 0.6971(19) 0.2231(8)
H29 H 0.41188 0.69187 0.18701
H30 H 0.47891 0.72946 0.21808
C38 C 0.4197(6) 0.7626(14) 0.2648(10)
H31 H 0.44919 0.81607 0.28440
H32 H 0.38151 0.79822 0.24638
N3 N 0.4123(4) 0.6787(11) 0.3020(5)
N4 N 0.4556(5) 0.5941(9) 0.2489(6)
C39 C 0.7306(5) 0.1408(9) 0.3030(5)
H33 H 0.71666 0.12001 0.33382
H34 H 0.72709 0.21768 0.29800
H35 H 0.70649 0.10547 0.26955
C40 C 0.8180(5) 0.1373(9) 0.2702(4)
H36 H 0.85956 0.11440 0.28030
H37 H 0.79531 0.10198 0.23629
H38 H 0.81591 0.21420 0.26474
N5 N 0.7929(3) 0.1096(6) 0.3142(3)
Zn1A Zn 0.54098(3) 0.40433(5) 0.00575(2)
Zn1B Zn 0.54098(3) 1.09567(5) 0.50575(2)
Zn1C Zn 0.45902(3) 0.59567(5) -0.00575(2)
Zn2A Zn 1.12399(3) -0.01310(6) 0.16806(3)
Zn2B Zn 1.12399(3) 0.51310(6) 0.66806(3)
K1B K 1.22232(7) 0.42744(12) 0.58321(6)
K2* K 0.89365(8) 1.01918(15) 0.47470(7)
K2B K 1.10635(8) -0.01918(15) 0.52530(7)
K3A K 0.84256(8) -0.23293(13) 0.31070(7)
K3A* K 0.84256(8) 0.76707(13) 0.31070(7)
K3C K 1.15744(8) 0.23293(13) 0.68930(7)
O2B O 0.4238(2) 1.0151(4) 0.53576(19)
O4C O 0.5207(2) 0.8685(4) 0.56902(17)
O5A O 0.4198(2) 0.9871(4) 0.42283(17)
O6* O 0.7644(2) -0.0283(4) 0.4155(2)
O7A O 1.2492(2) 0.3962(4) 0.17610(19)
O8A O 1.20417(18) 0.2879(4) 0.09387(19)
O10A O 1.21538(17) 0.0328(3) 0.20007(17)
O12B O 0.9718(2) 0.5201(4) 0.40004(19)
O13B O 0.88459(18) 0.5959(4) 0.39479(17)
O13C O 1.11541(18) 0.0959(4) 0.10521(17)
O15A O 0.8967(2) 0.6136(4) 0.2772(2)
O16A O 0.9198(2) 0.4433(4) 0.27335(19)
O17A O 1.1044(2) 0.4519(4) 0.1307(2)
O18A O 1.0298(3) 0.3268(4) 0.1419(2)
O19B O 1.0062(2) 0.0543(4) 0.56068(19)
#END
