
#######################################################################
#
#                 Cambridge Crystallographic Data Centre
#                                CCDC
#
#######################################################################
#
# If this CIF has been generated from an entry in the Cambridge
# Structural Database, then it will include bibliographic, chemical,
# crystal, experimental, refinement or atomic coordinate data resulting
# from the CCDC's data processing and validation procedures.
#
#######################################################################

data_CSD_CIF_DACDET
_audit_creation_date 2015-11-23
_audit_creation_method CSD-ConQuest-V1
_database_code_CSD DACDET
_database_code_depnum_ccdc_archive 'CCDC 1415457; CCDC 945392'
_chemical_formula_sum 'C17 H21 N7 O9 U2'
_chemical_formula_moiety
;
(C6 H6 N3 O9 U2 1-)n,C11 H15 N4 1+
;
_journal_coden_Cambridge 9
_journal_volume 54
_journal_year 2015
_journal_page_first 10323
_journal_name_full 'Inorg.Chem. '
loop_
_publ_author_name
"S.P.Kelley"
"R.D.Rogers"
_chemical_name_systematic
;
catena-[3-(4-cyanobutyl)-1-(2-cyanoethyl)-1H-imidazol-3-ium 
(\m-oxo)-bis(\m-acetato)-(\m-dicyanoazanide)-tetraoxo-di-uranium]
;
_cell_volume   1239.690
_exptl_crystal_colour 'yellow'
_exptl_crystal_density_diffrn 2.528
_exptl_crystal_description 'Prism'
_diffrn_ambient_temperature 173
#These two values have been output from a single CSD field.
_refine_ls_R_factor_gt 0.0337
_refine_ls_wR_factor_gt 0.0337
_symmetry_cell_setting triclinic
_symmetry_space_group_name_H-M 'P -1'
_symmetry_Int_Tables_number 2
loop_
_symmetry_equiv_pos_site_id
_symmetry_equiv_pos_as_xyz
1 x,y,z
2 -x,-y,-z
_cell_length_a 10.0087(8)
_cell_length_b 10.6432(8)
_cell_length_c 12.4241(10)
_cell_angle_alpha 102.123(5)
_cell_angle_beta 96.577(6)
_cell_angle_gamma 103.460(5)
_cell_formula_units_Z 2
loop_
_atom_type_symbol
_atom_type_radius_bond
C 0.68
H 0.23
N 0.68
O 0.68
U 1.96
loop_
_atom_site_label
_atom_site_type_symbol
_atom_site_fract_x
_atom_site_fract_y
_atom_site_fract_z
U1 U 0.25560(4) 0.00386(3) 0.28531(3)
U2 U 0.41451(4) -0.18192(3) 0.48427(3)
O1 O 0.3484(7) -0.0263(6) 0.1750(5)
O2 O 0.1479(6) 0.0307(6) 0.3863(5)
O3 O 0.5350(7) -0.2331(6) 0.4006(6)
O4 O 0.2848(7) -0.1433(6) 0.5641(5)
O5 O 0.4238(7) -0.0020(5) 0.4105(5)
O6 O 0.2315(7) -0.2185(6) 0.3047(5)
O7 O 0.2436(7) -0.3954(6) 0.3632(5)
O8 O 0.4004(7) -0.3798(6) 0.5692(6)
O9 O 0.5870(7) -0.2198(6) 0.6445(5)
N1 N 0.0401(9) -0.1381(7) 0.1494(7)
N2 N -0.1215(11) -0.2493(7) -0.0255(7)
N3 N -0.1551(10) -0.1534(8) -0.1851(8)
C1 C 0.2065(10) -0.3447(9) 0.2863(8)
C2 C 0.1338(13) -0.4302(9) 0.1741(8)
H1 H 0.05680 -0.39610 0.14710
H2 H 0.09710 -0.52180 0.17980
H3 H 0.19990 -0.42860 0.12160
C3 C 0.5062(11) -0.3391(9) 0.6400(8)
C4 C 0.5508(11) -0.4148(9) 0.7162(9)
H4 H 0.48670 -0.50420 0.69800
H5 H 0.55030 -0.36910 0.79330
H6 H 0.64530 -0.42190 0.70840
C5 C -0.0345(11) -0.1849(8) 0.0651(8)
C6 C -0.1334(11) -0.1927(8) -0.1073(8)
N4 N -0.2776(8) -0.1852(7) 0.2439(6)
N5 N -0.1485(8) -0.2629(7) 0.3522(6)
N6 N -0.3906(13) 0.3692(9) 0.0242(9)
N7 N 0.0617(11) -0.3884(8) 0.6667(7)
C7 C -0.1921(10) -0.1573(9) 0.3393(8)
H7 H -0.16520 -0.07320 0.39190
C8 C -0.2126(11) -0.3650(9) 0.2579(8)
H8 H -0.20200 -0.45310 0.24330
C9 C -0.2920(11) -0.3168(8) 0.1914(9)
H9 H -0.34780 -0.36430 0.12110
C10 C -0.3534(10) -0.0956(9) 0.2077(8)
H10 H -0.39140 -0.05190 0.27110
H11 H -0.43280 -0.14780 0.14770
C11 C -0.2590(11) 0.0111(10) 0.1644(9)
H12 H -0.17490 0.05770 0.22160
H13 H -0.22860 -0.03170 0.09620
C12 C -0.3365(12) 0.1117(9) 0.1378(9)
H14 H -0.42600 0.06370 0.08750
H15 H -0.35750 0.16140 0.20780
C13 C -0.2515(12) 0.2089(9) 0.0828(9)
H16 H -0.16460 0.26070 0.13520
H17 H -0.22520 0.15860 0.01570
C14 C -0.3270(13) 0.3005(11) 0.0503(9)
C15 C -0.0517(11) -0.2706(9) 0.4470(8)
H18 H -0.00170 -0.17920 0.49080
H19 H 0.01830 -0.31490 0.41860
C16 C -0.1262(11) -0.3467(9) 0.5227(8)
H20 H -0.18370 -0.29450 0.56220
H21 H -0.18880 -0.43250 0.47740
C17 C -0.0226(12) -0.3720(9) 0.6052(9)
U1A U -0.25560(4) -0.00386(3) -0.28531(3)
U1A* U 0.74440(4) -0.00386(3) 0.71469(3)
U2A U 0.58549(4) 0.18192(3) 0.51573(3)
O5A O 0.5762(7) 0.0020(5) 0.5895(5)
O9A O 0.4130(7) 0.2198(6) 0.3555(5)
N3A N 0.1551(10) 0.1534(8) 0.1851(8)
#END
