
#######################################################################
#
#                 Cambridge Crystallographic Data Centre
#                                CCDC
#
#######################################################################
#
# If this CIF has been generated from an entry in the Cambridge
# Structural Database, then it will include bibliographic, chemical,
# crystal, experimental, refinement or atomic coordinate data resulting
# from the CCDC's data processing and validation procedures.
#
#######################################################################

data_CSD_CIF_DACKID
_audit_creation_date 2012-01-25
_audit_creation_method CSD-ConQuest-V1
_database_code_CSD DACKID
_database_code_depnum_ccdc_archive 'CCDC 817568'
_chemical_formula_sum 'C30 H20 Ag4 N4 O9'
_chemical_formula_moiety
;
(C10 H2 Ag2 O8 2-)n,2n(C10 H8 Ag1 N2 1+),n(H2 O1)
;
_journal_coden_Cambridge 222
_journal_volume 40
_journal_year 2011
_journal_page_first 10071
_journal_name_full 'Dalton Trans. '
loop_
_publ_author_name
"Bo Li"
"Shuang-Quan Zang"
"Can Ji"
"Ran Liang"
"Hong-Wei Hou"
"Yang-Jie Wu"
"T.C.W.Mak"
_chemical_name_systematic
;
catena-(bis((\m~2~-4,4'-bipyridine)-silver) 
(\m~4~-Benzene-1,2,3,4-tetracarboxylato)-di-silver monohydrate)
;
_cell_volume   2803.958
_exptl_crystal_density_diffrn 2.397
_diffrn_ambient_temperature 296
#These two values have been output from a single CSD field.
_refine_ls_R_factor_gt 0.0474
_refine_ls_wR_factor_gt 0.0474
_symmetry_cell_setting orthorhombic
_symmetry_space_group_name_H-M 'I 21 21 21'
_symmetry_Int_Tables_number 24
loop_
_symmetry_equiv_pos_site_id
_symmetry_equiv_pos_as_xyz
1 x,y,z
2 1/2-x,-y,1/2+z
3 -x,1/2+y,1/2-z
4 1/2+x,1/2-y,-z
5 1/2+x,1/2+y,1/2+z
6 -x,1/2-y,z
7 1/2-x,y,-z
8 x,-y,1/2-z
_cell_length_a 11.3486(8)
_cell_length_b 14.1073(18)
_cell_length_c 17.514(2)
_cell_angle_alpha 90
_cell_angle_beta 90
_cell_angle_gamma 90
_cell_formula_units_Z 4
loop_
_atom_type_symbol
_atom_type_radius_bond
C 0.68
H 0.23
Ag 1.51
N 0.68
O 0.80
loop_
_atom_site_label
_atom_site_type_symbol
_atom_site_fract_x
_atom_site_fract_y
_atom_site_fract_z
Ag1 Ag 0.07464(9) 0.00000 0.25000
N1 N -0.113(1) 0.00000 0.25000
C1 C -0.1745(9) -0.0303(7) 0.3105(6)
H1 H -0.13320 -0.05300 0.35260
N2 N -0.7389(10) 0.00000 0.25000
C2 C -0.2950(8) -0.0296(7) 0.3136(6)
H2 H -0.33310 -0.04870 0.35800
C3 C -0.3620(11) 0.00000 0.25000
C4 C -0.4917(12) 0.00000 0.25000
C5 C -0.5547(8) -0.0163(7) 0.1830(6)
H3 H -0.51560 -0.02680 0.13710
C6 C -0.6750(8) -0.0165(8) 0.1859(6)
H4 H -0.71580 -0.02890 0.14100
O1 O 0.0747(6) -0.1071(5) 0.4143(4)
Ag2 Ag -0.25000 0.04802(9) 0.50000
Ag3 Ag 0.00000 -0.25000 0.42255(8)
O2 O -0.0649(6) 0.0498(6) 0.5134(4)
O3 O -0.0339(6) 0.1280(6) 0.4068(5)
O4 O 0.1229(9) -0.1555(7) 0.5293(4)
C7 C 0.1899(7) -0.0030(7) 0.4920(6)
C8 C 0.1314(8) 0.0821(7) 0.4820(4)
C9 C 0.1900(8) 0.1660(7) 0.4915(6)
H5 H 0.14980 0.22310 0.48650
C10 C 0.1244(9) -0.0979(7) 0.4782(6)
C11 C -0.0008(10) 0.0861(7) 0.4655(5)
Ag4 Ag 0.00000 0.25000 0.27329(9)
N3 N -0.1892(6) 0.2466(6) 0.2654(5)
C12 C -0.2506(10) 0.2189(7) 0.3273(5)
H6 H -0.21050 0.19880 0.37070
C13 C -0.2495(10) 0.2757(7) 0.2028(5)
H7 H -0.20740 0.29660 0.16050
C14 C -0.3715(8) 0.2198(7) 0.3273(5)
H8 H -0.41150 0.20060 0.37100
C15 C -0.4350(7) 0.2480(7) 0.2652(5)
C16 C -0.3708(8) 0.2755(7) 0.1994(6)
H9 H -0.40970 0.29300 0.15480
O5 O -0.25000 -0.1531(12) 0.50000
H10 H -0.19200 -0.19080 0.50500
Ag1* Ag -0.92536(9) 0.00000 0.25000
C1G C -0.1745(9) 0.0303(7) 0.1895(6)
H1G H -0.13320 0.05300 0.14740
N2* N 0.2611(10) 0.00000 0.25000
C2G C -0.2950(8) 0.0296(7) 0.1864(6)
H2G H -0.33310 0.04870 0.14200
C5G C -0.5547(8) 0.0163(7) 0.3170(6)
H3G H -0.51560 0.02680 0.36290
C6G C -0.6750(8) 0.0165(8) 0.3141(6)
H4G H -0.71580 0.02890 0.35900
O1F O 0.4253(6) -0.1071(5) 0.5857(4)
O1E O -0.0747(6) -0.3929(5) 0.4143(4)
Ag2* Ag 0.75000 0.04802(9) 0.50000
Ag3C Ag 0.50000 -0.25000 0.57745(8)
O2F O 0.5649(6) 0.0498(6) 0.4866(4)
O2F* O -0.4351(6) 0.0498(6) 0.4866(4)
O3F O 0.5339(6) 0.1280(6) 0.5932(5)
O4F O 0.3771(9) -0.1555(7) 0.4707(4)
O4E O -0.1229(9) -0.3445(7) 0.5293(4)
C7F C 0.3101(7) -0.0030(7) 0.5080(6)
C8F C 0.3686(8) 0.0821(7) 0.5180(4)
C9F C 0.3100(8) 0.1660(7) 0.5085(6)
H5F H 0.35020 0.22310 0.51350
C10F C 0.3756(9) -0.0979(7) 0.5218(6)
C11F C 0.5008(10) 0.0861(7) 0.5345(5)
Ag4* Ag -1.00000 0.25000 0.27329(9)
N3E N -0.8108(6) 0.2534(6) 0.2654(5)
N3E* N 0.1892(6) 0.2534(6) 0.2654(5)
C12E C -0.7494(10) 0.2811(7) 0.3273(5)
H6E H -0.78950 0.30120 0.37070
C13E C -0.7505(10) 0.2243(7) 0.2028(5)
H7E H -0.79260 0.20340 0.16050
C14E C -0.6285(8) 0.2802(7) 0.3273(5)
H8E H -0.58850 0.29940 0.37100
C15E C -0.5650(7) 0.2520(7) 0.2652(5)
C16E C -0.6292(8) 0.2245(7) 0.1994(6)
H9E H -0.59030 0.20700 0.15480
H10F H -0.30800 -0.19080 0.49500
#END
