
#######################################################################
#
#                 Cambridge Crystallographic Data Centre
#                                CCDC
#
#######################################################################
#
# If this CIF has been generated from an entry in the Cambridge
# Structural Database, then it will include bibliographic, chemical,
# crystal, experimental, refinement or atomic coordinate data resulting
# from the CCDC's data processing and validation procedures.
#
#######################################################################

data_CSD_CIF_DACKAV
_audit_creation_date 2012-01-25
_audit_creation_method CSD-ConQuest-V1
_database_code_CSD DACKAV
_database_code_depnum_ccdc_archive 'CCDC 817566'
_chemical_formula_sum 'C100 H106 Ag9 N17 O38'
_chemical_formula_moiety
;
(C20 H16 Ag2 N4 2+)2n,n(C60 H36 Ag5 N8 O16 3-),n(N1 O3 1-),19n(H2 O1)
;
_journal_coden_Cambridge 222
_journal_volume 40
_journal_year 2011
_journal_page_first 10071
_journal_name_full 'Dalton Trans. '
loop_
_publ_author_name
"Bo Li"
"Shuang-Quan Zang"
"Can Ji"
"Ran Liang"
"Hong-Wei Hou"
"Yang-Jie Wu"
"T.C.W.Mak"
_chemical_name_systematic
;
catena-(bis(bis(\m~2~-4,4'-Bipyridine)-di-silver) 
bis(\m~3~-3,4-dicarboxyphthalato)-tetrakis(\m~2~-4,4'-bipyridine)-penta-silver
 nitrate nonadecahydrate)
;
_cell_volume   5495.098
_exptl_crystal_density_diffrn 1.89
_diffrn_ambient_temperature 296
_refine_special_details
;
A nitrate ion is equally disordered over two sites by symmetry.

;
#These two values have been output from a single CSD field.
_refine_ls_R_factor_gt 0.039
_refine_ls_wR_factor_gt 0.039
_symmetry_cell_setting monoclinic
_symmetry_space_group_name_H-M 'P 21/c'
_symmetry_Int_Tables_number 14
loop_
_symmetry_equiv_pos_site_id
_symmetry_equiv_pos_as_xyz
1 x,y,z
2 -x,1/2+y,1/2-z
3 -x,-y,-z
4 x,-1/2-y,-1/2+z
_cell_length_a 14.6049(11)
_cell_length_b 17.4423(12)
_cell_length_c 22.5810(11)
_cell_angle_alpha 90
_cell_angle_beta 107.200(7)
_cell_angle_gamma 90
_cell_formula_units_Z 2
loop_
_atom_type_symbol
_atom_type_radius_bond
C 0.68
H 0.23
Ag 1.50
N 0.68
O 0.68
loop_
_atom_site_label
_atom_site_type_symbol
_atom_site_fract_x
_atom_site_fract_y
_atom_site_fract_z
O1 O 0.9974(3) 0.4867(3) 0.59218(19)
H1 H 0.94760 0.47810 0.58760
H2 H 1.04090 0.47040 0.61210
O2 O 0.7297(4) 0.4291(4) 0.9150(2)
H3 H 0.70910 0.45240 0.94250
H4 H 0.69520 0.44330 0.87900
O3 O 0.9165(5) 0.0712(5) 0.4752(3)
H5 H 0.86440 0.05320 0.47050
H6 H 0.95030 0.03740 0.46430
Ag1 Ag 0.89714(3) 0.25214(3) 0.970276(17)
Ag2 Ag 0.60365(3) -0.19261(3) 1.207925(16)
Ag3 Ag 0.34791(3) -0.19549(3) 1.113165(16)
Ag4 Ag 0.50000 0.00000 1.00000
Ag5 Ag 0.15646(3) 0.23977(4) 0.682783(18)
O4 O 0.6434(2) -0.0526(2) 1.21035(15)
O5 O 0.6821(2) 0.0217(2) 1.29445(14)
O6 O 0.4593(2) -0.0883(2) 1.10175(14)
O7 O 0.5135(2) 0.02982(19) 1.09433(13)
O8 O 0.2360(2) -0.0675(2) 1.10176(14)
O9 O 0.2816(2) 0.0384(2) 1.06251(13)
O10 O 0.1840(2) 0.0046(2) 1.25332(16)
O11 O 0.1633(2) 0.0770(2) 1.16969(16)
O12 O 0.6612(4) 0.9969(4) 0.5042(3)
N1 N 0.6069(3) -0.2146(2) 1.30376(16)
N2 N 0.6047(3) -0.2819(2) 1.61357(17)
N3 N 0.3568(3) -0.2212(2) 1.20928(16)
N4 N 0.3381(3) -0.2805(2) 1.51611(16)
N5 N 0.9059(3) 0.2532(2) 1.06605(17)
N6 N 0.8930(3) 0.2459(3) 1.37529(18)
N7 N 0.1584(3) 0.2453(3) 0.77706(17)
N8 N 0.1478(3) 0.2601(3) 1.08702(18)
O13 O 0.7901(4) 0.0130(3) 0.6213(2)
H7 H 0.78760 0.03520 0.65430
H8 H 0.77540 0.03910 0.58810
O14 O 0.7960(3) 0.0142(2) 0.17779(17)
H9 H 0.77010 0.01650 0.20440
H10 H 0.84600 0.02360 0.18750
O15 O 0.9646(5) -0.0102(3) 0.5937(3)
H11 H 0.92330 0.00170 0.56310
H12 H 0.94200 0.01210 0.61990
O16 O 0.1383(3) 0.0588(3) 0.6774(2)
H13 H 0.19170 0.03550 0.68580
H14 H 0.09920 0.03870 0.64560
O17 O 0.0074(3) 0.0036(3) 0.7479(2)
H15 H 0.04160 0.02970 0.72800
H16 H -0.04050 0.02490 0.74540
O18 O 0.9354(2) 0.0953(2) 0.97492(15)
H17 H 0.94390 0.09150 1.00630
H18 H 0.96910 0.06810 0.96940
O19 O 0.7984(3) 0.9967(3) 0.05874(16)
H19 H 0.75850 0.99800 0.07950
H20 H 0.77380 0.98680 0.02710
C1 C 0.5169(3) 0.0118(3) 1.23611(18)
C2 C 0.4839(3) 0.0330(3) 1.2853(2)
H21 H 0.52740 0.04200 1.32410
C3 C 0.3864(3) 0.0411(3) 1.27701(19)
H22 H 0.36540 0.05370 1.31080
C4 C 0.3201(3) 0.0309(3) 1.21991(19)
C5 C 0.3517(3) 0.0122(2) 1.16944(18)
C6 C 0.4513(3) 0.0022(2) 1.17772(18)
C7 C 0.6225(3) -0.0072(3) 1.24787(19)
C8 C 0.4786(3) -0.0218(3) 1.12122(18)
C9 C 0.2831(3) -0.0060(3) 1.10573(19)
C10 C 0.2128(3) 0.0371(3) 1.2128(2)
C11 C 0.3396(4) -0.2905(3) 1.2293(2)
H23 H 0.33040 -0.33160 1.20200
C12 C 0.3718(4) -0.1639(3) 1.2506(2)
H24 H 0.38540 -0.11540 1.23840
C13 C 0.3679(4) -0.1731(3) 1.3099(2)
H25 H 0.37810 -0.13120 1.33660
C14 C 0.3490(3) -0.2444(3) 1.33070(19)
C15 C 0.3351(4) -0.3035(3) 1.2880(2)
H26 H 0.32260 -0.35270 1.29940
C16 C 0.3452(3) -0.2569(3) 1.39481(19)
C17 C 0.3300(4) -0.1966(3) 1.4310(2)
H27 H 0.32080 -0.14720 1.41490
C18 C 0.3286(4) -0.2104(3) 1.4909(2)
H28 H 0.32070 -0.16900 1.51480
C19 C 0.3498(4) -0.3377(3) 1.4804(2)
H29 H 0.35530 -0.38700 1.49670
C20 C 0.3542(4) -0.3289(3) 1.4212(2)
H30 H 0.36320 -0.37150 1.39870
C21 C 0.5903(3) -0.2848(3) 1.3231(2)
H31 H 0.57950 -0.32500 1.29480
C22 C 0.5884(3) -0.3001(3) 1.3822(2)
H32 H 0.57710 -0.34990 1.39310
C23 C 0.6032(3) -0.2420(3) 1.42596(19)
C24 C 0.6206(4) -0.1697(3) 1.4062(2)
H33 H 0.63130 -0.12850 1.43360
C25 C 0.6221(4) -0.1586(3) 1.3465(2)
H34 H 0.63440 -0.10950 1.33470
C26 C 0.6023(3) -0.2564(3) 1.49040(19)
C27 C 0.6253(3) -0.3271(3) 1.5185(2)
H35 H 0.64040 -0.36770 1.49640
C28 C 0.6259(3) -0.3377(3) 1.57893(19)
H36 H 0.64180 -0.38580 1.59660
C29 C 0.5819(4) -0.2136(3) 1.5858(2)
H37 H 0.56700 -0.17400 1.60900
C30 C 0.5790(4) -0.1984(3) 1.5265(2)
H38 H 0.56160 -0.15000 1.50980
C31 C 0.1693(4) 0.3108(4) 0.8085(2)
H39 H 0.17980 0.35530 0.78880
C32 C 0.1659(4) 0.3161(3) 0.8680(2)
H40 H 0.17650 0.36310 0.88830
C33 C 0.1469(3) 0.2520(3) 0.8980(2)
C34 C 0.1349(4) 0.1838(3) 0.8654(2)
H41 H 0.12230 0.13880 0.88360
C35 C 0.1417(4) 0.1827(3) 0.8060(2)
H42 H 0.13420 0.13610 0.78510
C36 C 0.1440(3) 0.2556(3) 0.9629(2)
C37 C 0.1327(4) 0.3241(3) 0.9912(2)
H43 H 0.12330 0.36960 0.96880
C38 C 0.1355(4) 0.3241(3) 1.0531(2)
H44 H 0.12860 0.37040 1.07170
C39 C 0.1574(3) 0.1932(3) 1.0595(2)
H45 H 0.16570 0.14830 1.08280
C40 C 0.1552(3) 0.1890(3) 0.9994(2)
H46 H 0.16130 0.14170 0.98200
C41 C 0.8907(4) 0.1892(3) 1.0932(2)
H47 H 0.87830 0.14460 1.06960
C42 C 0.8920(4) 0.1846(3) 1.1539(2)
H48 H 0.88140 0.13790 1.17080
C43 C 0.9094(3) 0.2500(3) 1.1899(2)
C44 C 0.9272(4) 0.3171(3) 1.1621(2)
H49 H 0.94090 0.36240 1.18470
C45 C 0.9241(4) 0.3156(3) 1.1009(2)
H50 H 0.93560 0.36110 1.08270
C46 C 0.9055(3) 0.2487(3) 1.25442(19)
C47 C 0.9184(4) 0.1815(3) 1.2891(2)
H51 H 0.93130 0.13560 1.27220
C48 C 0.9118(4) 0.1834(3) 1.3482(2)
H52 H 0.92110 0.13780 1.37060
C49 C 0.8798(4) 0.3110(3) 1.3422(2)
H53 H 0.86630 0.35570 1.36050
C50 C 0.8852(4) 0.3148(3) 1.2830(2)
H54 H 0.87540 0.36130 1.26190
N9 N 0.5817(10) 1.0072(8) 0.5026(7)
O20 O 0.4841(10) 0.9999(8) 0.4561(6)
Ag1C Ag 0.89714(3) 0.24786(3) 0.470276(17)
Ag1C* Ag 0.89714(3) 0.24786(3) 1.470276(17)
Ag2B Ag 0.39635(3) 0.19261(3) 0.792075(16)
Ag2C Ag 0.60365(3) -0.30739(3) 1.707925(16)
Ag2C* Ag 0.60365(3) -0.30739(3) 0.707925(16)
Ag3B Ag 0.65209(3) 0.19549(3) 0.886835(16)
Ag3C Ag 0.34791(3) -0.30451(3) 1.613165(16)
Ag3C* Ag 0.34791(3) -0.30451(3) 0.613165(16)
Ag5C Ag 0.15646(3) 0.26023(4) 0.182783(18)
Ag5C* Ag 0.15646(3) 0.26023(4) 1.182783(18)
O4B O 0.3566(2) 0.0526(2) 0.78965(15)
O5B O 0.3179(2) -0.0217(2) 0.70555(14)
O6B O 0.5407(2) 0.0883(2) 0.89825(14)
O7B O 0.4865(2) -0.02982(19) 0.90567(13)
O8B O 0.7640(2) 0.0675(2) 0.89824(14)
O9B O 0.7184(2) -0.0384(2) 0.93749(13)
O10B O 0.8160(2) -0.0046(2) 0.74668(16)
O11B O 0.8367(2) -0.0770(2) 0.83031(16)
O12B O 0.3388(4) 1.0031(4) 0.4958(3)
N1C N 0.6069(3) -0.2854(2) 0.80376(16)
N1B N 0.3931(3) 0.2146(2) 0.69624(16)
N2C N 0.6047(3) -0.2181(2) 1.11357(17)
N2A N 0.3953(3) 0.2181(2) 0.88643(17)
N3C N 0.3568(3) -0.2788(2) 0.70928(16)
N3B N 0.6432(3) 0.2212(2) 0.79072(16)
N4C N 0.3381(3) -0.2195(2) 1.01611(16)
N4A N 0.6619(3) 0.2195(2) 0.98389(16)
N5C N 0.9059(3) 0.2468(2) 0.56605(17)
N6C N 0.8930(3) 0.2541(3) 0.87529(18)
N6* N 0.8930(3) 0.2459(3) 0.37529(18)
N7C N 0.1584(3) 0.2547(3) 0.27706(17)
N8C N 0.1478(3) 0.2399(3) 0.58702(18)
N8* N 0.1478(3) 0.2601(3) 0.08702(18)
C1B C 0.4831(3) -0.0118(3) 0.76389(18)
C2B C 0.5161(3) -0.0330(3) 0.7147(2)
H21B H 0.47260 -0.04200 0.67590
C3B C 0.6136(3) -0.0411(3) 0.72299(19)
H22B H 0.63460 -0.05370 0.68920
C4B C 0.6799(3) -0.0309(3) 0.78009(19)
C5B C 0.6483(3) -0.0122(2) 0.83056(18)
C6B C 0.5487(3) -0.0022(2) 0.82228(18)
C7B C 0.3775(3) 0.0072(3) 0.75213(19)
C8B C 0.5214(3) 0.0218(3) 0.87878(18)
C9B C 0.7169(3) 0.0060(3) 0.89427(19)
C10B C 0.7872(3) -0.0371(3) 0.7872(2)
C11C C 0.3396(4) -0.2095(3) 0.7293(2)
H23C H 0.33040 -0.16840 0.70200
C12C C 0.3718(4) -0.3361(3) 0.7506(2)
H24C H 0.38540 -0.38460 0.73840
C13C C 0.3679(4) -0.3269(3) 0.8099(2)
H25C H 0.37810 -0.36880 0.83660
C14C C 0.3490(3) -0.2556(3) 0.83070(19)
C15C C 0.3351(4) -0.1965(3) 0.7880(2)
H26C H 0.32260 -0.14730 0.79940
C16C C 0.3452(3) -0.2431(3) 0.89481(19)
C17C C 0.3300(4) -0.3034(3) 0.9310(2)
H27C H 0.32080 -0.35280 0.91490
C18C C 0.3286(4) -0.2896(3) 0.9909(2)
H28C H 0.32070 -0.33100 1.01480
C19C C 0.3498(4) -0.1623(3) 0.9804(2)
H29C H 0.35530 -0.11300 0.99670
C20C C 0.3542(4) -0.1711(3) 0.9212(2)
H30C H 0.36320 -0.12850 0.89870
C21C C 0.5903(3) -0.2152(3) 0.8231(2)
H31C H 0.57950 -0.17500 0.79480
C22C C 0.5884(3) -0.1999(3) 0.8822(2)
H32C H 0.57710 -0.15010 0.89310
C23C C 0.6032(3) -0.2580(3) 0.92596(19)
C24C C 0.6206(4) -0.3303(3) 0.9062(2)
H33C H 0.63130 -0.37150 0.93360
C25C C 0.6221(4) -0.3414(3) 0.8465(2)
H34C H 0.63440 -0.39050 0.83470
C26C C 0.6023(3) -0.2436(3) 0.99040(19)
C27C C 0.6253(3) -0.1729(3) 1.0185(2)
H35C H 0.64040 -0.13230 0.99640
C28C C 0.6259(3) -0.1623(3) 1.07893(19)
H36C H 0.64180 -0.11420 1.09660
C29C C 0.5819(4) -0.2864(3) 1.0858(2)
H37C H 0.56700 -0.32600 1.10900
C30C C 0.5790(4) -0.3016(3) 1.0265(2)
H38C H 0.56160 -0.35000 1.00980
C31C C 0.1693(4) 0.1892(4) 0.3085(2)
H39C H 0.17980 0.14470 0.28880
C32C C 0.1659(4) 0.1839(3) 0.3680(2)
H40C H 0.17650 0.13690 0.38830
C33C C 0.1469(3) 0.2480(3) 0.3980(2)
C34C C 0.1349(4) 0.3162(3) 0.3654(2)
H41C H 0.12230 0.36120 0.38360
C35C C 0.1417(4) 0.3173(3) 0.3060(2)
H42C H 0.13420 0.36390 0.28510
C36C C 0.1440(3) 0.2444(3) 0.4629(2)
C37C C 0.1327(4) 0.1759(3) 0.4912(2)
H43C H 0.12330 0.13040 0.46880
C38C C 0.1355(4) 0.1759(3) 0.5531(2)
H44C H 0.12860 0.12960 0.57170
C39C C 0.1574(3) 0.3068(3) 0.5595(2)
H45C H 0.16570 0.35170 0.58280
C40C C 0.1552(3) 0.3110(3) 0.4994(2)
H46C H 0.16130 0.35830 0.48200
C41C C 0.8907(4) 0.3108(3) 0.5932(2)
H47C H 0.87830 0.35540 0.56960
C42C C 0.8920(4) 0.3154(3) 0.6539(2)
H48C H 0.88140 0.36210 0.67080
C43C C 0.9094(3) 0.2500(3) 0.6899(2)
C44C C 0.9272(4) 0.1829(3) 0.6621(2)
H49C H 0.94090 0.13760 0.68470
C45C C 0.9241(4) 0.1844(3) 0.6009(2)
H50C H 0.93560 0.13890 0.58270
C46C C 0.9055(3) 0.2513(3) 0.75442(19)
C47C C 0.9184(4) 0.3185(3) 0.7891(2)
H51C H 0.93130 0.36440 0.77220
C48C C 0.9118(4) 0.3166(3) 0.8482(2)
H52C H 0.92110 0.36220 0.87060
C49C C 0.8798(4) 0.1890(3) 0.8422(2)
H53C H 0.86630 0.14430 0.86050
C50C C 0.8852(4) 0.1852(3) 0.7830(2)
H54C H 0.87540 0.13870 0.76190
N9B N 0.4183(10) 0.9928(8) 0.4974(7)
O20B O 0.5159(10) 1.0001(8) 0.5439(6)
#END
