
#######################################################################
#
#                 Cambridge Crystallographic Data Centre
#                                CCDC
#
#######################################################################
#
# If this CIF has been generated from an entry in the Cambridge
# Structural Database, then it will include bibliographic, chemical,
# crystal, experimental, refinement or atomic coordinate data resulting
# from the CCDC's data processing and validation procedures.
#
#######################################################################

data_CSD_CIF_DADNII
_audit_creation_date 2016-12-12
_audit_creation_method CSD-ConQuest-V1
_database_code_CSD DADNII
_database_code_depnum_ccdc_archive 'CCDC 1508532'
_chemical_formula_sum 'C8 H25 Eu2 Fe1 N2 O25 S4'
_chemical_formula_moiety
;
(C4 H4 Eu2 Fe1 O22 S4 1-)n,C2 H8 N1 1+,3(H2 O1),C2 H7 N1
;
_journal_coden_Cambridge 1147
_journal_volume 17
_journal_year 2017
_journal_page_first 347
_journal_name_full 'Cryst.Growth Des. '
loop_
_publ_author_name
"Xingxiang He"
"Weiwei Cheng"
"Qingfang Lin"
"Yayu Dong"
"Yan Xu"
_chemical_name_systematic
;
catena-[dimethylammonium dimethylamine 
(\m-tartarato)-tetrakis(\m-sulfato)-iron(iii)-di-europium(iii) trihydrate]
;
_cell_volume   3214.097
_exptl_crystal_colour 'yellow'
_exptl_crystal_density_diffrn 2.144
_exptl_crystal_description 'Block'
_diffrn_ambient_temperature 296
#These two values have been output from a single CSD field.
_refine_ls_R_factor_gt 0.0503
_refine_ls_wR_factor_gt 0.0503
_symmetry_cell_setting monoclinic
_symmetry_space_group_name_H-M 'C 2/c'
_symmetry_Int_Tables_number 15
loop_
_symmetry_equiv_pos_site_id
_symmetry_equiv_pos_as_xyz
1 x,y,z
2 -x,y,1/2-z
3 1/2+x,1/2+y,z
4 1/2-x,1/2+y,1/2-z
5 -x,-y,-z
6 x,-y,-1/2+z
7 -1/2-x,-1/2-y,-z
8 -1/2+x,-1/2-y,-1/2+z
_cell_length_a 15.5244(13)
_cell_length_b 16.3987(13)
_cell_length_c 12.6433(10)
_cell_angle_alpha 90
_cell_angle_beta 93.075(1)
_cell_angle_gamma 90
_cell_formula_units_Z 4
loop_
_atom_type_symbol
_atom_type_radius_bond
C 0.68
H 0.23
Eu 1.98
Fe 1.52
N 0.68
O 0.68
S 1.02
loop_
_atom_site_label
_atom_site_type_symbol
_atom_site_fract_x
_atom_site_fract_y
_atom_site_fract_z
Eu1 Eu 0.12197(3) 0.18899(3) 0.91147(3)
Fe1 Fe 0.00000 0.04959(10) 0.75000
S1 S 0.10725(13) 0.21920(14) 0.66703(15)
S2 S 0.18365(14) 0.34951(14) 1.0757(2)
O1 O 0.0545(4) 0.0622(4) 0.9011(5)
O2 O 0.1031(4) 0.1414(4) 0.7279(5)
O3 O 0.0863(4) 0.1432(4) 1.0766(4)
O4 O 0.0242(4) 0.2338(4) 0.6085(5)
O5 O 0.1267(5) 0.3211(5) 0.9888(7)
O6 O 0.1220(4) 0.2824(4) 0.7495(5)
O7 O 0.0749(5) 0.0412(4) 1.1842(6)
O8 O 0.1767(4) 0.2182(5) 0.5962(6)
O9 O 0.2548(4) 0.4001(4) 1.0408(7)
C1 C 0.0648(6) 0.0734(5) 1.0952(7)
O10 O 0.1315(6) 0.3889(7) 1.1526(8)
O11 O 0.2278(5) 0.2774(6) 1.1228(8)
C2 C 0.0368(10) 0.022(1) 0.9969(10)
H1 H 0.08060 -0.02110 0.99970
C3 C -0.1133(17) -0.2361(18) 0.667(2)
H2 H -0.10350 -0.27680 0.72140
H3 H -0.13430 -0.26170 0.60290
H4 H -0.06010 -0.20840 0.65590
C4 C -0.2185(16) -0.0999(15) 0.651(2)
H5 H -0.25900 -0.07500 0.69570
H6 H -0.17320 -0.06190 0.63790
H7 H -0.24740 -0.11520 0.58490
N1 N -0.1812(16) -0.1734(14) 0.704(2)
H8 H -0.22670 -0.20360 0.71810
H9 H -0.15960 -0.15540 0.76600
O12 O 0.2225(16) 0.5066(16) 0.8605(18)
H10 H 0.25240 0.51410 0.91560
H11 H 0.20190 0.46050 0.86770
O13 O 0.012(3) 0.434(3) 0.8522(9)
O1D O -0.0545(4) -0.0622(4) 1.0989(5)
O3D O -0.0863(4) -0.1432(4) 0.9234(4)
O7D O -0.0749(5) -0.0412(4) 0.8158(6)
C1D C -0.0648(6) -0.0734(5) 0.9048(7)
C2D C -0.0368(10) -0.022(1) 1.0031(10)
H1D H -0.08060 0.02110 1.00030
Eu1A Eu -0.12197(3) 0.18899(3) 0.58853(3)
S1A S -0.10725(13) 0.21920(14) 0.83297(15)
S2A S -0.18365(14) 0.34951(14) 0.4243(2)
O2A O -0.1031(4) 0.1414(4) 0.7721(5)
O4A O -0.0242(4) 0.2338(4) 0.8915(5)
O5A O -0.1267(5) 0.3211(5) 0.5112(7)
O6A O -0.1220(4) 0.2824(4) 0.7505(5)
O8A O -0.1767(4) 0.2182(5) 0.9038(6)
O9A O -0.2548(4) 0.4001(4) 0.4592(7)
O10A O -0.1315(6) 0.3889(7) 0.3474(8)
O11A O -0.2278(5) 0.2774(6) 0.3772(8)
Eu1D Eu -0.12197(3) -0.18899(3) 1.08853(3)
Eu1F Eu 0.37803(3) 0.31101(3) 1.08853(3)
Eu1G Eu -0.37803(3) 0.31101(3) 0.41147(3)
Fe1D Fe 0.00000 -0.04959(10) 1.25000
O1A O -0.0545(4) 0.0622(4) 0.5989(5)
O3A O -0.0863(4) 0.1432(4) 0.4234(4)
O7E O 0.0749(5) -0.0412(4) 0.6842(6)
O9F O 0.2452(4) 0.0999(4) 0.9592(7)
O9G O -0.2452(4) 0.0999(4) 0.5408(7)
O11F O 0.2722(5) 0.2226(6) 0.8772(8)
O11G O -0.2722(5) 0.2226(6) 0.6228(8)
#END
