
#######################################################################
#
#                 Cambridge Crystallographic Data Centre
#                                CCDC
#
#######################################################################
#
# If this CIF has been generated from an entry in the Cambridge
# Structural Database, then it will include bibliographic, chemical,
# crystal, experimental, refinement or atomic coordinate data resulting
# from the CCDC's data processing and validation procedures.
#
#######################################################################

data_CSD_CIF_DADPEG
_audit_creation_date 2016-12-12
_audit_creation_method CSD-ConQuest-V1
_database_code_CSD DADPEG
_database_code_depnum_ccdc_archive 'CCDC 1508536'
_chemical_formula_sum 'C8 H23 Er2 Fe1 N2 O24 S4'
_chemical_formula_moiety
;
(C4 H4 Er2 Fe1 O22 S4 1-)n,C2 H8 N1 1+,2(H2 O1),C2 H7 N1
;
_journal_coden_Cambridge 1147
_journal_volume 17
_journal_year 2017
_journal_page_first 347
_journal_name_full 'Cryst.Growth Des. '
loop_
_publ_author_name
"Xingxiang He"
"Weiwei Cheng"
"Qingfang Lin"
"Yayu Dong"
"Yan Xu"
_chemical_name_systematic
;
catena-[dimethylammonium dimethylamine 
(\m-tartarato)-tetrakis(\m-sulfato)-iron(iii)-di-erbium(iii) dihydrate]
;
_cell_volume   3188.239
_exptl_crystal_colour 'yellow'
_exptl_crystal_density_diffrn 2.187
_exptl_crystal_description 'Block'
_diffrn_ambient_temperature 296
#These two values have been output from a single CSD field.
_refine_ls_R_factor_gt 0.0417
_refine_ls_wR_factor_gt 0.0417
_symmetry_cell_setting monoclinic
_symmetry_space_group_name_H-M 'C 2/c'
_symmetry_Int_Tables_number 15
loop_
_symmetry_equiv_pos_site_id
_symmetry_equiv_pos_as_xyz
1 x,y,z
2 -x,y,1/2-z
3 1/2+x,1/2+y,z
4 1/2-x,1/2+y,1/2-z
5 -x,-y,-z
6 x,-y,-1/2+z
7 -1/2-x,-1/2-y,-z
8 -1/2+x,-1/2-y,-1/2+z
_cell_length_a 15.5555(14)
_cell_length_b 16.5429(14)
_cell_length_c 12.3964(11)
_cell_angle_alpha 90
_cell_angle_beta 91.906(1)
_cell_angle_gamma 90
_cell_formula_units_Z 4
loop_
_atom_type_symbol
_atom_type_radius_bond
C 0.68
H 0.23
Er 1.89
Fe 1.52
N 0.68
O 0.68
S 1.02
loop_
_atom_site_label
_atom_site_type_symbol
_atom_site_fract_x
_atom_site_fract_y
_atom_site_fract_z
Er1 Er 0.11801(2) 0.18608(2) 0.90641(3)
Fe1 Fe 0.00000 0.04728(9) 0.75000
S1 S 0.10482(12) 0.21854(14) 0.66307(16)
S2 S 0.18953(15) 0.35092(16) 1.0709(2)
O1 O 0.0565(3) 0.0627(3) 0.8993(4)
O2 O 0.1007(3) 0.1403(4) 0.7243(4)
O3 O 0.0827(5) 0.1464(4) 1.0735(5)
O4 O 0.0220(4) 0.2328(4) 0.6067(5)
O5 O 0.1376(5) 0.3051(4) 0.9934(6)
O6 O 0.1192(4) 0.2805(4) 0.7487(5)
O7 O 0.0745(4) 0.0429(4) 1.1834(5)
O8 O 0.1740(4) 0.2180(5) 0.5885(5)
O9 O 0.2626(5) 0.3884(6) 1.0189(10)
C1 C 0.0660(6) 0.0735(6) 1.0912(7)
O10 O 0.1348(6) 0.4060(7) 1.1228(12)
O11 O 0.2357(6) 0.2963(6) 1.1454(7)
C2 C 0.0438(6) 0.0185(6) 0.9962(7)
H1 H 0.08560 -0.02580 0.99820
C3 C -0.1246(19) -0.216(2) 0.676(3)
H2 H -0.10560 -0.25700 0.72580
H3 H -0.14830 -0.24110 0.61140
H4 H -0.07660 -0.18270 0.65750
C4 C -0.2239(16) -0.1012(15) 0.654(2)
H5 H -0.26700 -0.06910 0.68730
H6 H -0.17640 -0.06740 0.63570
H7 H -0.24800 -0.12570 0.58960
N1 N -0.1944(17) -0.1631(14) 0.728(2)
H8 H -0.23860 -0.19410 0.74530
H9 H -0.17270 -0.14040 0.78760
O12 O 0.219(3) 0.507(2) 0.862(3)
H10 H 0.24860 0.51480 0.91740
H11 H 0.19810 0.46130 0.86950
O13 O 0.004(3) 0.430(3) 0.8547(8)
O1D O -0.0565(3) -0.0627(3) 1.1007(4)
O3D O -0.0827(5) -0.1464(4) 0.9265(5)
O7D O -0.0745(4) -0.0429(4) 0.8166(5)
C1D C -0.0660(6) -0.0735(6) 0.9088(7)
C2D C -0.0438(6) -0.0185(6) 1.0038(7)
H1D H -0.08560 0.02580 1.00180
Er1A Er -0.11801(2) 0.18608(2) 0.59359(3)
S1A S -0.10482(12) 0.21854(14) 0.83693(16)
S2A S -0.18953(15) 0.35092(16) 0.4291(2)
O2A O -0.1007(3) 0.1403(4) 0.7757(4)
O4A O -0.0220(4) 0.2328(4) 0.8933(5)
O5A O -0.1376(5) 0.3051(4) 0.5066(6)
O6A O -0.1192(4) 0.2805(4) 0.7513(5)
O8A O -0.1740(4) 0.2180(5) 0.9115(5)
O9A O -0.2626(5) 0.3884(6) 0.4811(10)
O10A O -0.1348(6) 0.4060(7) 0.3772(12)
O11A O -0.2357(6) 0.2963(6) 0.3546(7)
Er1D Er -0.11801(2) -0.18608(2) 1.09359(3)
Er1F Er 0.38199(2) 0.31392(2) 1.09359(3)
Er1G Er -0.38199(2) 0.31392(2) 0.40641(3)
Fe1D Fe 0.00000 -0.04728(9) 1.25000
O1A O -0.0565(3) 0.0627(3) 0.6007(4)
O3A O -0.0827(5) 0.1464(4) 0.4265(5)
O7E O 0.0745(4) -0.0429(4) 0.6834(5)
O9F O 0.2374(5) 0.1116(6) 0.9811(10)
O9G O -0.2374(5) 0.1116(6) 0.5189(10)
O11F O 0.2643(6) 0.2037(6) 0.8546(7)
O11G O -0.2643(6) 0.2037(6) 0.6454(7)
#END
