
#######################################################################
#
#                 Cambridge Crystallographic Data Centre
#                                CCDC
#
#######################################################################
#
# If this CIF has been generated from an entry in the Cambridge
# Structural Database, then it will include bibliographic, chemical,
# crystal, experimental, refinement or atomic coordinate data resulting
# from the CCDC's data processing and validation procedures.
#
#######################################################################

data_CSD_CIF_DADTOS15
_audit_creation_date 2018-06-05
_audit_creation_method CSD-ConQuest-V1
_database_code_CSD DADTOS15
_database_code_depnum_ccdc_archive 'CCDC 1837767'
_chemical_formula_sum 'C5 H11 Mn1 N1 O6'
_chemical_formula_moiety
;
(C3 H3 Mn1 O6 1-)n,C2 H8 N1 1+
;
_journal_coden_Cambridge 1350
_journal_volume 20
_journal_year 2018
_journal_page_first 3512
_journal_name_full 'CrystEngComm '
loop_
_publ_author_name
"I.E.Collings"
"M.Bykov"
"E.Bykova"
"M.Hanfland"
"S.van Smaalen"
"L.Dubrovinsky"
"N.Dubrovinskaia"
_chemical_name_systematic
;
catena-[dimethylammonium tris(\m-formato)-manganese(ii)]
;
_cell_volume   1264.413
_exptl_crystal_colour 'colorless'
_exptl_crystal_density_diffrn 1.86
_exptl_crystal_description 'block'
_diffrn_ambient_temperature 293
_diffrn_ambient_pressure 2560000.0
_diffrn_radiation_probe x-ray
_diffrn_source synchrotron
_refine_special_details
;
N1 disordered by symmetry over three configurations with occupancy 0.3333.

;
#These two values have been output from a single CSD field.
_refine_ls_R_factor_gt 0.0369
_refine_ls_wR_factor_gt 0.0369
_symmetry_cell_setting rhombohedral
_symmetry_space_group_name_H-M 'R -3 c'
_symmetry_Int_Tables_number 167
loop_
_symmetry_equiv_pos_site_id
_symmetry_equiv_pos_as_xyz
1 x,y,z
2 -y,x-y,z
3 -x+y,-x,z
4 y,x,1/2-z
5 x-y,-y,1/2-z
6 -x,-x+y,1/2-z
7 2/3+x,1/3+y,1/3+z
8 2/3-y,1/3+x-y,1/3+z
9 2/3-x+y,1/3-x,1/3+z
10 2/3+y,1/3+x,5/6-z
11 2/3+x-y,1/3-y,5/6-z
12 2/3-x,1/3-x+y,5/6-z
13 1/3+x,2/3+y,2/3+z
14 1/3-y,2/3+x-y,2/3+z
15 1/3-x+y,2/3-x,2/3+z
16 1/3+y,2/3+x,1/6-z
17 1/3+x-y,2/3-y,1/6-z
18 1/3-x,2/3-x+y,1/6-z
19 -x,-y,-z
20 y,-x+y,-z
21 x-y,x,-z
22 -y,-x,-1/2+z
23 -x+y,y,-1/2+z
24 x,x-y,-1/2+z
25 -2/3-x,-1/3-y,-1/3-z
26 -2/3+y,-1/3-x+y,-1/3-z
27 -2/3+x-y,-1/3+x,-1/3-z
28 -2/3-y,-1/3-x,-5/6+z
29 -2/3-x+y,-1/3+y,-5/6+z
30 -2/3+x,-1/3+x-y,-5/6+z
31 -1/3-x,-2/3-y,-2/3-z
32 -1/3+y,-2/3-x+y,-2/3-z
33 -1/3+x-y,-2/3+x,-2/3-z
34 -1/3-y,-2/3-x,-1/6+z
35 -1/3-x+y,-2/3+y,-1/6+z
36 -1/3+x,-2/3+x-y,-1/6+z
_cell_length_a 8.2046(2)
_cell_length_b 8.2046(2)
_cell_length_c 21.6892(3)
_cell_angle_alpha 90
_cell_angle_beta 90
_cell_angle_gamma 120
_cell_formula_units_Z 6
loop_
_atom_type_symbol
_atom_type_radius_bond
C 0.68
H 0.23
Mn 1.61
N 0.68
O 0.68
loop_
_atom_site_label
_atom_site_type_symbol
_atom_site_fract_x
_atom_site_fract_y
_atom_site_fract_z
Mn1 Mn 0.66667 0.33333 0.33333
O1 O 0.8696(3) 0.3076(3) 0.27760(8)
C1 C 1.00000 0.4429(4) 0.25000
H1 H 1.00000 0.55622 0.25000
N1 N 0.7462(12) 0.33333 0.08333
H2 H 0.772(8) 0.239(6) 0.082(6)
C2 C 0.66667 0.33333 0.0275(2)
H3 H 0.564(5) 0.187(2) 0.0176(17)
O1E O 1.1304(3) 0.4380(3) 0.22240(8)
O1A O 0.6924(3) 0.5620(3) 0.27760(8)
C1A C 0.55710 0.5571(4) 0.25000
H1A H 0.44378 0.44378 0.25000
O1D O 0.5620(3) 0.6924(3) 0.22240(8)
O1B O 0.4380(3) 0.1304(3) 0.27760(8)
C1B C 0.44290 0.0000(4) 0.25000
H1B H 0.55622 -0.00000 0.25000
O1C O 0.3076(3) -0.1304(3) 0.22240(8)
Mn1C Mn 0.33333 -0.33333 0.16667
Mn1C* Mn 0.33333 0.66667 0.16667
Mn1C** Mn 1.33333 0.66667 0.16667
O1X O 0.463733(300) 0.359067(300) 0.389067(80)
O1Y O 0.640933(300) 0.104667(300) 0.389067(80)
O1Z O 0.895333(300) 0.536267(300) 0.389067(80)
N1A N 0.666667(1200) 0.41287 0.08333
H2A H 0.761(8) 0.533(6) 0.082(6)
H3A H 0.813(5) 0.377(2) 0.0176(17)
N1B N 0.587133(1200) 0.25380 0.08333
H2B H 0.467(8) 0.228(6) 0.082(6)
H3B H 0.623(5) 0.436(2) 0.0176(17)
H2O H 0.572333(8000) 0.438667(6000) 0.084667(6000)
C2O C 0.66667 0.33333 0.139167(200)
H3O H 0.520333(5000) 0.230667(2000) 0.149067(1700)
H2P H 0.866333(8000) 0.427667(6000) 0.084667(6000)
H3P H 0.710333(5000) 0.479667(2000) 0.149067(1700)
H2Q H 0.561333(8000) 0.133667(6000) 0.084667(6000)
H3Q H 0.769333(5000) 0.289667(2000) 0.149067(1700)
#END
