
#######################################################################
#
#                 Cambridge Crystallographic Data Centre
#                                CCDC
#
#######################################################################
#
# If this CIF has been generated from an entry in the Cambridge
# Structural Database, then it will include bibliographic, chemical,
# crystal, experimental, refinement or atomic coordinate data resulting
# from the CCDC's data processing and validation procedures.
#
#######################################################################

data_CSD_CIF_DADTOS03
_audit_creation_date 2014-03-20
_audit_creation_method CSD-ConQuest-V1
_database_code_CSD DADTOS03
_database_code_depnum_ccdc_archive 'CCDC 980996'
_chemical_formula_sum 'C5 H11 Mn1 N1 O6'
_chemical_formula_moiety
;
(C3 H3 Mn1 O6 1-)n,n(C2 H8 N1 1+)
;
_journal_coden_Cambridge 1350
_journal_volume 16
_journal_year 2014
_journal_page_first 3558
_journal_name_full 'CrystEngComm '
loop_
_publ_author_name
"M.Sanchez-Andujar"
"L.C.Gomez-Aguirre"
"B.Pato Doldan"
"S.Yanez-Vilar"
"R.Artiaga"
"A.L.Llamas-Saiz"
"R.S.Manna"
"F.Schnelle"
"M.Lang"
"F.Ritter"
"A.A.Haghighirad"
"M.A.Senaris-Rodriguez"
_chemical_name_systematic
;
catena-(Dimethylammonium tris(\m~2~-formato)-manganese)
;
_cell_volume    913.143
_exptl_crystal_colour 'colorless'
_exptl_crystal_density_diffrn 1.717
_exptl_special_details
;
Cc polymorph

;
_exptl_crystal_description 'cubic'
_diffrn_ambient_temperature 185
_diffrn_special_details
;
twin

;
#These two values have been output from a single CSD field.
_refine_ls_R_factor_gt 0.0634
_refine_ls_wR_factor_gt 0.0634
_symmetry_cell_setting monoclinic
_symmetry_space_group_name_H-M 'C c'
_symmetry_Int_Tables_number 9
loop_
_symmetry_equiv_pos_site_id
_symmetry_equiv_pos_as_xyz
1 x,y,z
2 x,-y,1/2+z
3 1/2+x,1/2+y,z
4 1/2+x,1/2-y,1/2+z
_cell_length_a 14.3644(17)
_cell_length_b 8.318(1)
_cell_length_c 8.8927(11)
_cell_angle_alpha 90
_cell_angle_beta 120.750(5)
_cell_angle_gamma 90
_cell_formula_units_Z 4
loop_
_atom_type_symbol
_atom_type_radius_bond
C 0.68
H 0.23
Mn 1.61
N 0.68
O 0.68
loop_
_atom_site_label
_atom_site_type_symbol
_atom_site_fract_x
_atom_site_fract_y
_atom_site_fract_z
Mn1 Mn 0.00000 0.25159(15) 0.00000
O1 O 0.1597(5) 0.1451(8) 0.1658(10)
O2 O 0.0476(6) 0.5210(7) -0.3603(10)
O3 O 0.0492(5) 0.3373(8) -0.1791(10)
O4 O -0.0528(6) -0.0272(7) 0.3561(9)
O5 O -0.0522(5) 0.1614(7) 0.1783(9)
C1 C 0.2496(11) 0.2131(6) 0.251(2)
H1 H 0.25050 0.32730 0.25280
O6 O 0.3383(5) 0.1421(7) 0.3342(10)
C2 C 0.0348(7) 0.4743(12) -0.2411(16)
H2 H 0.01100 0.55280 -0.19050
C3 C -0.0250(8) 0.0272(12) 0.2548(16)
H3 H 0.02090 -0.03840 0.23300
C4 C -0.3041(10) 0.2692(10) 0.0975(17)
H4 H -0.30460 0.15610 0.06610
H5 H -0.31170 0.33800 0.00240
H6 H -0.36450 0.28910 0.11670
N1 N -0.1969(5) 0.3072(6) 0.2654(10)
H7 H -0.14050 0.26140 0.25970
H8 H -0.18630 0.41670 0.27580
C5 C -0.1981(10) 0.2454(9) 0.4185(18)
H9 H -0.12990 0.27330 0.52480
H10 H -0.20630 0.12830 0.40970
H11 H -0.25870 0.29330 0.42360
Mn1A Mn 0.00000 -0.25159(15) 0.50000
Mn1A* Mn 0.00000 0.74841(15) -0.50000
Mn1C Mn 0.50000 0.24841(15) 0.50000
O2A O 0.0476(6) 0.4790(7) 0.1397(10)
O4A O -0.0528(6) 0.0272(7) -0.1439(9)
O6C O -0.1617(5) 0.3579(7) -0.1658(10)
#END
