
#######################################################################
#
#                 Cambridge Crystallographic Data Centre
#                                CCDC
#
#######################################################################
#
# If this CIF has been generated from an entry in the Cambridge
# Structural Database, then it will include bibliographic, chemical,
# crystal, experimental, refinement or atomic coordinate data resulting
# from the CCDC's data processing and validation procedures.
#
#######################################################################

data_CSD_CIF_DADTUY
_audit_creation_date 2004-12-02
_audit_creation_method CSD-ConQuest-V1
_database_code_CSD DADTUY
_database_code_depnum_ccdc_archive 'CCDC 246992'
_chemical_formula_sum 'C5 H11 Co1 N1 O6'
_chemical_formula_moiety
;
(C3 H3 Co1 O6 1-)n,n(C2 H8 N1 1+)
;
_journal_coden_Cambridge 9
_journal_volume 43
_journal_year 2004
_journal_page_first 4615
_journal_name_full 'Inorg.Chem. '
loop_
_publ_author_name
"Xin-Yi Wang"
"Lin Gan"
"Shi-Wei Zhang"
"Song Gao"
_chemical_name_systematic
;
catena-(dimethylammonium tris(\m~2~-formato)-cobalt(ii))
;
_cell_volume   1293.791
_exptl_crystal_colour 'pink'
_exptl_crystal_density_diffrn 1.849
_exptl_special_details
;
weak ferromagnet
isomorphous with the Mn and Ni analogues

;
_exptl_crystal_description 'block'
_exptl_crystal_preparation 'DMF'
_diffrn_ambient_temperature 293
_refine_special_details
;
The cation is disordered.

;
#These two values have been output from a single CSD field.
_refine_ls_R_factor_gt 0.0247
_refine_ls_wR_factor_gt 0.0247
_symmetry_cell_setting rhombohedral
_symmetry_space_group_name_H-M 'R -3 c'
_symmetry_Int_Tables_number 167
loop_
_symmetry_equiv_pos_site_id
_symmetry_equiv_pos_as_xyz
1 x,y,z
2 -y,x-y,z
3 -x+y,-x,z
4 y,x,1/2-z
5 2/3+x,1/3+y,1/3+z
6 2/3-y,1/3+x-y,1/3+z
7 2/3-x+y,1/3-x,1/3+z
8 2/3+y,1/3+x,5/6-z
9 1/3+x,2/3+y,2/3+z
10 1/3+y,2/3+x,1/6-z
11 x-y,-y,1/2-z
12 -x,-x+y,1/2-z
13 1/3-y,2/3+x-y,2/3+z
14 1/3-x+y,2/3-x,2/3+z
15 1/3+x-y,2/3-y,1/6-z
16 1/3-x,2/3-x+y,1/6-z
17 2/3+x-y,1/3-y,5/6-z
18 2/3-x,1/3-x+y,5/6-z
19 -x,-y,-z
20 y,-x+y,-z
21 x-y,x,-z
22 -y,-x,-1/2+z
23 -2/3-x,-1/3-y,-1/3-z
24 -2/3+y,-1/3-x+y,-1/3-z
25 -2/3+x-y,-1/3+x,-1/3-z
26 -2/3-y,-1/3-x,-5/6+z
27 -1/3-x,-2/3-y,-2/3-z
28 -1/3-y,-2/3-x,-1/6+z
29 -x+y,y,-1/2+z
30 x,x-y,-1/2+z
31 -1/3+y,-2/3-x+y,-2/3-z
32 -1/3+x-y,-2/3+x,-2/3-z
33 -1/3-x+y,-2/3+y,-1/6+z
34 -1/3+x,-2/3+x-y,-1/6+z
35 -2/3-x+y,-1/3+y,-5/6+z
36 -2/3+x,-1/3+x-y,-5/6+z
_cell_length_a 8.1989(12)
_cell_length_b 8.1989(12)
_cell_length_c 22.224(4)
_cell_angle_alpha 90
_cell_angle_beta 90
_cell_angle_gamma 120
_cell_formula_units_Z 6
loop_
_atom_type_symbol
_atom_type_radius_bond
C 0.68
H 0.23
Co 1.33
N 0.68
O 0.68
loop_
_atom_site_label
_atom_site_type_symbol
_atom_site_fract_x
_atom_site_fract_y
_atom_site_fract_z
N1 N 0.66670 0.4210(7) 0.08330
C1 C 0.66670 0.33330 0.13830(13)
Co1 Co 0.33330 0.66670 0.16670
O1 O 0.34145(15) 0.45821(14) 0.11327(4)
C2 C 0.2090(2) 0.33330 0.08330
H1 H 0.09560 0.33330 0.08330
N1A N 0.57900 0.2457(7) 0.08330
N1B N 0.75430 0.3333(7) 0.08330
C1N C 0.66673 0.33337 0.028367(130)
O1N O 0.216573(150) 0.208457(140) 0.053397(40)
O1A O 0.54179(15) 0.88324(14) 0.11327(4)
C2A C 0.6667(2) 0.87570 0.08330
H1A H 0.66670 0.76230 0.08330
O1I O 0.791543(150) 1.008117(140) 0.053397(40)
O1B O 0.11676(15) 0.65855(14) 0.11327(4)
C2B C 0.1243(2) 0.79100 0.08330
H1B H 0.23770 0.90440 0.08330
O1O O -0.008117(150) 0.783427(140) 0.053397(40)
O1DA O 0.124877(150) 0.450093(140) 0.220063(40)
O1EA O 0.549907(150) 0.674783(140) 0.220063(40)
O1Z O 0.325217(150) 0.875123(140) 0.220063(40)
Co1I Co 0.00003 -0.00003 -0.00003
Co1I* Co 1.00003 0.99997 -0.00003
Co1I** Co 0.00003 0.99997 -0.00003
#END
