
#######################################################################
#
#                 Cambridge Crystallographic Data Centre
#                                CCDC
#
#######################################################################
#
# If this CIF has been generated from an entry in the Cambridge
# Structural Database, then it will include bibliographic, chemical,
# crystal, experimental, refinement or atomic coordinate data resulting
# from the CCDC's data processing and validation procedures.
#
#######################################################################

data_CSD_CIF_DADTOS10
_audit_creation_date 2017-11-01
_audit_creation_method CSD-ConQuest-V1
_database_code_CSD DADTOS10
_database_code_depnum_ccdc_archive 'CCDC 1583521'
_chemical_formula_sum 'C5 H11 Mn1 N1 O6'
_chemical_formula_moiety
;
(C3 H3 Mn1 O6 1-)n,C2 H8 N1 1+
;
_journal_coden_Cambridge 2157
_journal_volume 1
_journal_year 2016
_journal_page_first 16012
_journal_name_full 'npj Quantum Mater. '
loop_
_publ_author_name
"Prashant Jain"
"A.Stroppa"
"D.Nabok"
"A.Marino"
"A.Rubano"
"D.Paparo"
"M.Matsubara"
"H.Nakotte"
"M.Fiebig"
"S.Picozzi"
"Eun Sang Choi"
"A.K.Cheetham"
"C.Draxl"
"N.S.Dalal"
"V.S.Zapf"
_chemical_name_systematic
;
catena-[dimethylammonium tris(\m-formato)-manganese(ii)]
;
_cell_volume    912.350
_exptl_special_details
;
powder data

;
_diffrn_ambient_temperature 25
_diffrn_radiation_probe 'neutron radiation'
_symmetry_cell_setting monoclinic
_symmetry_space_group_name_H-M 'C c'
_symmetry_Int_Tables_number 9
loop_
_symmetry_equiv_pos_site_id
_symmetry_equiv_pos_as_xyz
1 x,y,z
2 x,-y,1/2+z
3 1/2+x,1/2+y,z
4 1/2+x,1/2-y,1/2+z
_cell_length_a 14.315
_cell_length_b 8.311
_cell_length_c 8.914
_cell_angle_alpha 90
_cell_angle_beta 120.651
_cell_angle_gamma 90
_cell_formula_units_Z 4
loop_
_atom_type_symbol
_atom_type_radius_bond
C 0.68
H 0.23
Mn 1.61
N 0.68
O 0.68
loop_
_atom_site_label
_atom_site_type_symbol
_atom_site_fract_x
_atom_site_fract_y
_atom_site_fract_z
Mn1 Mn 0.7025(28) 0.2584(33) 0.789(5)
O1 O 0.5470(26) 0.1465(31) 0.608(5)
O2 O 0.3648(25) 0.1447(32) 0.442(5)
C1 C 0.4547(28) 0.2088(26) 0.542(6)
H1 H 0.457(9) 0.341(4) 0.523(13)
O3 O 0.7503(31) 0.0381(28) 0.928(5)
O4 O 0.742(4) -0.1542(26) 1.100(6)
C2 C 0.712(4) -0.0268(28) 1.017(6)
H2 H 0.629(5) 0.007(5) 0.988(11)
O5 O 0.637(5) 0.3382(28) 0.948(7)
O6 O 0.6488(30) 0.5338(29) 1.140(5)
C3 C 0.657(4) 0.4770(29) 1.015(6)
H3 H 0.651(8) 0.576(5) 0.924(11)
N1 N 0.8835(29) 0.3114(22) 0.504(4)
H4 H 0.874(10) 0.427(7) 0.502(14)
H5 H 0.831(8) 0.247(8) 0.538(14)
C4 C 0.877(4) 0.2423(26) 0.346(5)
H6 H 0.933(7) 0.291(8) 0.329(11)
H7 H 0.805(5) 0.261(8) 0.243(7)
H8 H 0.889(6) 0.123(4) 0.365(10)
C5 C 0.9867(32) 0.2742(27) 0.668(5)
H9 H 0.993(7) 0.158(4) 0.688(10)
H10 H 0.996(7) 0.331(8) 0.771(8)
H11 H 1.043(6) 0.314(8) 0.641(11)
Mn1A Mn 0.7025(28) -0.2584(33) 1.289(5)
Mn1A* Mn 0.7025(28) 0.7416(33) 1.289(5)
Mn1C Mn 0.2025(28) 0.2416(33) 0.289(5)
O2C O 0.8648(25) 0.3553(32) 0.942(5)
O4A O 0.742(4) 0.1542(26) 0.600(6)
O6A O 0.6488(30) 0.4662(29) 0.640(5)
#END
