
#######################################################################
#
#                 Cambridge Crystallographic Data Centre
#                                CCDC
#
#######################################################################
#
# If this CIF has been generated from an entry in the Cambridge
# Structural Database, then it will include bibliographic, chemical,
# crystal, experimental, refinement or atomic coordinate data resulting
# from the CCDC's data processing and validation procedures.
#
#######################################################################

data_CSD_CIF_DADTOS02
_audit_creation_date 2005-01-06
_audit_creation_method CSD-ConQuest-V1
_database_code_CSD DADTOS02
_database_code_depnum_ccdc_archive 'CCDC 234554'
_chemical_formula_sum 'C5 H11 Mn1 N1 O6'
_chemical_formula_moiety
;
(C2 H8 N1 1+)n,n(C3 H3 Mn1 O6 1-)
;
_journal_coden_Cambridge 222
_journal_year 2004
_journal_page_first 2209
_journal_name_full 'Dalton Trans. '
loop_
_publ_author_name
"Zheming Wang"
"Bin Zhang"
"T.Otsuka"
"K.Inoue"
"H.Kobayashi"
"M.Kurmoo"
_chemical_name_systematic
;
catena-(Dimethylammonium tris(\m~2~-formato)-manganese(ii))
;
_cell_volume   1363.806
_exptl_crystal_colour 'colorless'
_exptl_crystal_density_diffrn 1.725
_exptl_special_details
;
R-3c polymorph

;
_exptl_crystal_description 'block'
_diffrn_ambient_temperature 180
_refine_special_details
;
The cation is disordered.

;
#These two values have been output from a single CSD field.
_refine_ls_R_factor_gt 0.0227
_refine_ls_wR_factor_gt 0.0227
_symmetry_cell_setting rhombohedral
_symmetry_space_group_name_H-M 'R -3 c'
_symmetry_Int_Tables_number 167
loop_
_symmetry_equiv_pos_site_id
_symmetry_equiv_pos_as_xyz
1 x,y,z
2 -y,x-y,z
3 -x+y,-x,z
4 y,x,1/2-z
5 2/3+x,1/3+y,1/3+z
6 2/3-y,1/3+x-y,1/3+z
7 2/3-x+y,1/3-x,1/3+z
8 2/3+y,1/3+x,5/6-z
9 1/3+x,2/3+y,2/3+z
10 1/3+y,2/3+x,1/6-z
11 x-y,-y,1/2-z
12 -x,-x+y,1/2-z
13 1/3-y,2/3+x-y,2/3+z
14 1/3-x+y,2/3-x,2/3+z
15 1/3+x-y,2/3-y,1/6-z
16 1/3-x,2/3-x+y,1/6-z
17 2/3+x-y,1/3-y,5/6-z
18 2/3-x,1/3-x+y,5/6-z
19 -x,-y,-z
20 y,-x+y,-z
21 x-y,x,-z
22 -y,-x,-1/2+z
23 -2/3-x,-1/3-y,-1/3-z
24 -2/3+y,-1/3-x+y,-1/3-z
25 -2/3+x-y,-1/3+x,-1/3-z
26 -2/3-y,-1/3-x,-5/6+z
27 -1/3-x,-2/3-y,-2/3-z
28 -1/3-y,-2/3-x,-1/6+z
29 -x+y,y,-1/2+z
30 x,x-y,-1/2+z
31 -1/3+y,-2/3-x+y,-2/3-z
32 -1/3+x-y,-2/3+x,-2/3-z
33 -1/3-x+y,-2/3+y,-1/6+z
34 -1/3+x,-2/3+x-y,-1/6+z
35 -2/3-x+y,-1/3+y,-5/6+z
36 -2/3+x,-1/3+x-y,-5/6+z
_cell_length_a 8.3269(16)
_cell_length_b 8.3269(16)
_cell_length_c 22.712(5)
_cell_angle_alpha 90
_cell_angle_beta 90
_cell_angle_gamma 120
_cell_formula_units_Z 6
loop_
_atom_type_symbol
_atom_type_radius_bond
C 0.68
H 0.23
Mn 1.35
N 0.68
O 0.68
loop_
_atom_site_label
_atom_site_type_symbol
_atom_site_fract_x
_atom_site_fract_y
_atom_site_fract_z
C1 C 0.33330 0.66670 0.36283(16)
N1 N 0.4232(8) 0.66670 0.41670
H1 H 0.445(9) 0.559(9) 0.417(3)
H2 H 0.221(5) 0.551(5) 0.3621(18)
H3 H 0.291(13) 0.700(15) 0.329(3)
Mn1 Mn 0.00000 -0.00010 0.50000
O1 O 0.45777(15) 0.34689(15) 0.38791(5)
C2 C 0.33330 0.2166(3) 0.41670
H4 H 0.33330 0.101(4) 0.41670
C1G C 0.33337 0.66663 0.470503(160)
N1G N 0.333367(800) 0.75653 0.41663
N1B N 0.2435(8) 0.57680 0.41670
H2G H 0.217667(5000) 0.554333(5000) 0.471233(1800)
H1B H 0.114(9) 0.555(9) 0.417(3)
H1Q H 0.221667(9000) 0.447333(9000) 0.416333(3000)
H2A H 0.449(5) 0.670(5) 0.3621(18)
H1P H 0.552667(9000) 0.774333(9000) 0.416333(3000)
H2Q H 0.445667(5000) 0.663333(5000) 0.471233(1800)
H2P H 0.336667(5000) 0.782333(5000) 0.471233(1800)
H1G H 0.225667(9000) 0.778333(9000) 0.416333(3000)
H1A H 0.441(9) 0.886(9) 0.417(3)
H2B H 0.330(5) 0.779(5) 0.3621(18)
H3A H 0.300(13) 0.591(15) 0.329(3)
H3B H 0.409(13) 0.709(15) 0.329(3)
H3G H 0.366667(13000) 0.624333(15000) 0.504333(3000)
H3P H 0.257667(13000) 0.633333(15000) 0.504333(3000)
H3Q H 0.375667(13000) 0.742333(15000) 0.504333(3000)
O1Q O 0.208897(150) 0.222453(150) 0.445423(50)
Mn1G Mn 0.66657 0.33333 0.33333
O1G O 0.013557(150) -0.208897(150) 0.445423(50)
C2G C -0.11673 -0.333367(300) 0.41663
O1B O -0.11088(15) -0.45777(15) 0.38791(5)
Mn1G* Mn -0.33343 -0.66667 0.33333
H4G H -0.23233 -0.333367(4000) 0.41663
O1P O -0.222453(150) -0.013557(150) 0.445423(50)
C2P C -0.21663 0.116733(300) 0.41663
O1IA O -0.208897(150) -0.222453(150) 0.554577(50)
O1Y O -0.013557(150) 0.208897(150) 0.554577(50)
O1HA O 0.222453(150) 0.013557(150) 0.554577(50)
O1A O -0.34689(15) 0.11088(15) 0.38791(5)
H4A H -0.10100 0.2323(40) 0.41670
Mn1G** Mn -0.33343 0.33333 0.33333
#END
