
#######################################################################
#
#                 Cambridge Crystallographic Data Centre
#                                CCDC
#
#######################################################################
#
# If this CIF has been generated from an entry in the Cambridge
# Structural Database, then it will include bibliographic, chemical,
# crystal, experimental, refinement or atomic coordinate data resulting
# from the CCDC's data processing and validation procedures.
#
#######################################################################

data_CSD_CIF_DADTOS09
_audit_creation_date 2016-10-23
_audit_creation_method CSD-ConQuest-V1
_database_code_CSD DADTOS09
_database_code_depnum_ccdc_archive 'CCDC 1499866'
_chemical_formula_sum 'C5 H11 Mn1 N1 O6'
_chemical_formula_moiety
;
(C3 H3 Mn1 O6 1-)n,C2 H8 N1 1+
;
_journal_coden_Cambridge 1078
_journal_year 2016
_journal_name_full 'CSD Communication(Private Communication) '
loop_
_publ_author_name
"Lipeng Xin"
"Lei Qin"
"Yanzhen Zheng"
"Xiaojie Lou"
_chemical_name_systematic
;
catena-[dimethylammonium tris(\m-formato)-manganese]
;
_cell_volume   1381.037
_exptl_crystal_colour 'colorless'
_exptl_crystal_density_diffrn 1.703
_exptl_special_details
;
, Magnetic properties,Ferroelectric properties
, Moisture-sensitive,Heat-sensitive
;
_exptl_crystal_description 'block'
_diffrn_ambient_temperature 296
#These two values have been output from a single CSD field.
_refine_ls_R_factor_gt 0.0206
_refine_ls_wR_factor_gt 0.0206
_symmetry_cell_setting rhombohedral
_symmetry_space_group_name_H-M 'R -3 c'
_symmetry_Int_Tables_number 167
loop_
_symmetry_equiv_pos_site_id
_symmetry_equiv_pos_as_xyz
1 x,y,z
2 -y,x-y,z
3 -x+y,-x,z
4 y,x,1/2-z
5 x-y,-y,1/2-z
6 -x,-x+y,1/2-z
7 2/3+x,1/3+y,1/3+z
8 2/3-y,1/3+x-y,1/3+z
9 2/3-x+y,1/3-x,1/3+z
10 2/3+y,1/3+x,5/6-z
11 2/3+x-y,1/3-y,5/6-z
12 2/3-x,1/3-x+y,5/6-z
13 1/3+x,2/3+y,2/3+z
14 1/3-y,2/3+x-y,2/3+z
15 1/3-x+y,2/3-x,2/3+z
16 1/3+y,2/3+x,1/6-z
17 1/3+x-y,2/3-y,1/6-z
18 1/3-x,2/3-x+y,1/6-z
19 -x,-y,-z
20 y,-x+y,-z
21 x-y,x,-z
22 -y,-x,-1/2+z
23 -x+y,y,-1/2+z
24 x,x-y,-1/2+z
25 -2/3-x,-1/3-y,-1/3-z
26 -2/3+y,-1/3-x+y,-1/3-z
27 -2/3+x-y,-1/3+x,-1/3-z
28 -2/3-y,-1/3-x,-5/6+z
29 -2/3-x+y,-1/3+y,-5/6+z
30 -2/3+x,-1/3+x-y,-5/6+z
31 -1/3-x,-2/3-y,-2/3-z
32 -1/3+y,-2/3-x+y,-2/3-z
33 -1/3+x-y,-2/3+x,-2/3-z
34 -1/3-y,-2/3-x,-1/6+z
35 -1/3-x+y,-2/3+y,-1/6+z
36 -1/3+x,-2/3+x-y,-1/6+z
_cell_length_a 8.3405(11)
_cell_length_b 8.3405(11)
_cell_length_c 22.924(6)
_cell_angle_alpha 90
_cell_angle_beta 90
_cell_angle_gamma 120
_cell_formula_units_Z 6
loop_
_atom_type_symbol
_atom_type_radius_bond
C 0.68
H 0.23
Mn 1.61
N 0.68
O 0.68
loop_
_atom_site_label
_atom_site_type_symbol
_atom_site_fract_x
_atom_site_fract_y
_atom_site_fract_z
Mn1 Mn 1.00000 1.00000 0.00000
O1 O 1.22098(10) 1.2106(1) 0.05439(3)
C1 C 1.21532(19) 1.33330 0.08330
H1 H 1.0992(12) 1.33330 0.08330
N1 N 1.5781(6) 1.2447(6) 0.08330
H2 H 1.49800 1.29020 0.09580
H3 H 1.50650 1.11360 0.07730
C2 C 1.66670 1.33330 0.03025(17)
H4 H 1.79240 1.35900 0.03030
H5 H 1.60120 1.25260 -0.00170
H6? H 1.66510 1.44710 0.02610
O1P O 1.343713(100) 1.456067(100) 0.112277(30)
O1A O 0.7894(1) 1.01038(10) 0.05439(3)
C1A C 0.66670(19) 0.88202 0.08330
H1A H 0.6667(12) 0.76590 0.08330
O1O O 0.543933(100) 0.887647(100) 0.112277(30)
O1B O 0.98962(10) 0.77902(10) 0.05439(3)
C1B C 1.11798(19) 0.78468 0.08330
H1B H 1.2341(12) 0.90080 0.08330
O1Q O 1.112353(100) 0.656287(100) 0.112277(30)
Mn1O Mn 0.33333 0.66667 0.16667
Mn1O* Mn 1.33333 0.66667 0.16667
Mn1O** Mn 1.33333 1.66667 0.16667
O1R O 0.77902(10) 0.7894(1) -0.05439(3)
O1S O 1.2106(1) 0.98962(10) -0.05439(3)
O1T O 1.01038(10) 1.22098(10) -0.05439(3)
H4A H 1.64100 1.43340 0.03030
C2O C 1.66663 1.33337 0.136417(170)
H4O H 1.69233 1.45907 0.13637
H5O H 1.58593 1.26787 0.16837
H4P H 1.76673 1.30767 0.13637
#END
