
#######################################################################
#
#                 Cambridge Crystallographic Data Centre
#                                CCDC
#
#######################################################################
#
# If this CIF has been generated from an entry in the Cambridge
# Structural Database, then it will include bibliographic, chemical,
# crystal, experimental, refinement or atomic coordinate data resulting
# from the CCDC's data processing and validation procedures.
#
#######################################################################

data_CSD_CIF_DADTOS06
_audit_creation_date 2014-07-30
_audit_creation_method CSD-ConQuest-V1
_database_code_CSD DADTOS06
_database_code_depnum_ccdc_archive 'CCDC 989985'
_chemical_formula_sum 'C5 H11 Mn1 N1 O6'
_chemical_formula_moiety
;
(C3 H3 Mn1 O6 1-)n,n(C2 H8 N1 1+)
;
_journal_coden_Cambridge 1290
_journal_year 2014
_journal_page_first 4385
_journal_name_full 'Eur.J.Inorg.Chem. '
loop_
_publ_author_name
"A.Cheansirisomboon"
"J.Salinas-Uber"
"C.Massera"
"O.Roubeau"
"Sujittra Youngme"
"P.Gamez"
_chemical_name_systematic
;
catena-[dimethylammonium tris(\m-formato)-manganese]
;
_cell_volume   1376.170
_exptl_crystal_colour 'colorless'
_exptl_crystal_density_diffrn 1.709
_exptl_crystal_description 'prismatic'
_diffrn_ambient_temperature 293
_refine_special_details
;
The structure is disordered.

;
#These two values have been output from a single CSD field.
_refine_ls_R_factor_gt 0.017
_refine_ls_wR_factor_gt 0.017
_symmetry_cell_setting rhombohedral
_symmetry_space_group_name_H-M 'R -3 c'
_symmetry_Int_Tables_number 167
loop_
_symmetry_equiv_pos_site_id
_symmetry_equiv_pos_as_xyz
1 x,y,z
2 -y,x-y,z
3 -x+y,-x,z
4 x-y,-y,1/2-z
5 -x,-x+y,1/2-z
6 y,x,1/2-z
7 2/3+x,1/3+y,1/3+z
8 2/3-y,1/3+x-y,1/3+z
9 2/3-x+y,1/3-x,1/3+z
10 2/3+x-y,1/3-y,5/6-z
11 2/3-x,1/3-x+y,5/6-z
12 2/3+y,1/3+x,5/6-z
13 1/3+x,2/3+y,2/3+z
14 1/3-y,2/3+x-y,2/3+z
15 1/3-x+y,2/3-x,2/3+z
16 1/3+x-y,2/3-y,1/6-z
17 1/3-x,2/3-x+y,1/6-z
18 1/3+y,2/3+x,1/6-z
19 -x,-y,-z
20 y,-x+y,-z
21 x-y,x,-z
22 -x+y,y,-1/2+z
23 x,x-y,-1/2+z
24 -y,-x,-1/2+z
25 -2/3-x,-1/3-y,-1/3-z
26 -2/3+y,-1/3-x+y,-1/3-z
27 -2/3+x-y,-1/3+x,-1/3-z
28 -2/3-x+y,-1/3+y,-5/6+z
29 -2/3+x,-1/3+x-y,-5/6+z
30 -2/3-y,-1/3-x,-5/6+z
31 -1/3-x,-2/3-y,-2/3-z
32 -1/3+y,-2/3-x+y,-2/3-z
33 -1/3+x-y,-2/3+x,-2/3-z
34 -1/3-x+y,-2/3+y,-1/6+z
35 -1/3+x,-2/3+x-y,-1/6+z
36 -1/3-y,-2/3-x,-1/6+z
_cell_length_a 8.3307(8)
_cell_length_b 8.3307
_cell_length_c 22.897(2)
_cell_angle_alpha 90
_cell_angle_beta 90
_cell_angle_gamma 120
_cell_formula_units_Z 6
loop_
_atom_type_symbol
_atom_type_radius_bond
C 0.68
H 0.23
Mn 1.61
N 0.68
O 0.68
loop_
_atom_site_label
_atom_site_type_symbol
_atom_site_fract_x
_atom_site_fract_y
_atom_site_fract_z
Mn1 Mn 0.00000 0.00000 0.50000
O1 O -0.01068(10) 0.21039(10) 0.55438(3)
C1 C 0.11819(15) 0.33330 0.58330
H1 H 0.22980 0.33330 0.58330
C2 C 0.00000 0.00000 0.69695(11)
H2 H -0.11850 -0.11110 0.69440
H3 H 0.07610 0.00520 0.66470
H4 H -0.01670 0.10600 0.69580
N1 N 0.0872(4) 0.00000 0.75000
H5 H 0.20150 0.10030 0.75000
O1O O 0.112263(100) 0.456277(100) 0.612287(30)
O1A O -0.21039(10) -0.22107(10) 0.55438(3)
C1A C -0.33330(15) -0.21511 0.58330
H1A H -0.33330 -0.10350 0.58330
O1Q O -0.456277(100) -0.344013(100) 0.612287(30)
O1B O 0.22107(10) 0.01068(10) 0.55438(3)
C1B C 0.21511(15) -0.11819 0.58330
H1B H 0.10350 -0.22980 0.58330
O1P O 0.344013(100) -0.112263(100) 0.612287(30)
Mn1O Mn -0.66667 -0.33333 0.66667
Mn1O* Mn 0.33333 -0.33333 0.66667
Mn1O** Mn 0.33333 0.66667 0.66667
O1R O 0.01068(10) -0.21039(10) 0.44562(3)
O1S O 0.21039(10) 0.22107(10) 0.44562(3)
O1T O -0.22107(10) -0.01068(10) 0.44562(3)
H2A H 0.11110 -0.00740 0.69440
H3A H -0.00520 0.07090 0.66470
H4A H -0.10600 -0.12270 0.69580
N1A N 0.0000(4) 0.08720 0.75000
H5A H -0.10030 0.10120 0.75000
H2B H 0.00740 0.11850 0.69440
H3B H -0.07090 -0.07610 0.66470
H4B H 0.12270 0.01670 0.69580
N1B N -0.0872(4) -0.08720 0.75000
H5B H -0.10120 -0.20150 0.75000
C2C C 0.00000 0.00000 0.80305(11)
H2C H -0.00740 0.11110 0.80560
H3C H 0.07090 -0.00520 0.83530
H4C H -0.12270 -0.10600 0.80420
H5C H 0.10120 -0.10030 0.75000
H2D H 0.11850 0.00740 0.80560
H3D H -0.07610 -0.07090 0.83530
H4D H 0.01670 0.12270 0.80420
H5D H -0.20150 -0.10120 0.75000
H2E H -0.11110 -0.11850 0.80560
H3E H 0.00520 0.07610 0.83530
H4E H 0.10600 -0.01670 0.80420
H5E H 0.10030 0.20150 0.75000
#END
