
#######################################################################
#
#                 Cambridge Crystallographic Data Centre
#                                CCDC
#
#######################################################################
#
# If this CIF has been generated from an entry in the Cambridge
# Structural Database, then it will include bibliographic, chemical,
# crystal, experimental, refinement or atomic coordinate data resulting
# from the CCDC's data processing and validation procedures.
#
#######################################################################

data_CSD_CIF_DADTOS01
_audit_creation_date 2005-01-06
_audit_creation_method CSD-ConQuest-V1
_database_code_CSD DADTOS01
_database_code_depnum_ccdc_archive 'CCDC 234553'
_chemical_formula_sum 'C5 H11 Mn1 N1 O6'
_chemical_formula_moiety
;
(C2 H8 N1 1+)n,n(C3 H3 Mn1 O6 1-)
;
_journal_coden_Cambridge 222
_journal_year 2004
_journal_page_first 2209
_journal_name_full 'Dalton Trans. '
loop_
_publ_author_name
"Zheming Wang"
"Bin Zhang"
"T.Otsuka"
"K.Inoue"
"H.Kobayashi"
"M.Kurmoo"
_chemical_name_systematic
;
catena-(Dimethylammonium tris(\m~2~-formato)-manganese(ii))
;
_cell_volume   1376.807
_exptl_crystal_colour 'colorless'
_exptl_crystal_density_diffrn 1.708
_exptl_special_details
;
R-3c polymorph

;
_exptl_crystal_description 'block'
_diffrn_ambient_temperature 290
_refine_special_details
;
The cation is disordered.

;
#These two values have been output from a single CSD field.
_refine_ls_R_factor_gt 0.0203
_refine_ls_wR_factor_gt 0.0203
_symmetry_cell_setting rhombohedral
_symmetry_space_group_name_H-M 'R -3 c'
_symmetry_Int_Tables_number 167
loop_
_symmetry_equiv_pos_site_id
_symmetry_equiv_pos_as_xyz
1 x,y,z
2 -y,x-y,z
3 -x+y,-x,z
4 y,x,1/2-z
5 2/3+x,1/3+y,1/3+z
6 2/3-y,1/3+x-y,1/3+z
7 2/3-x+y,1/3-x,1/3+z
8 2/3+y,1/3+x,5/6-z
9 1/3+x,2/3+y,2/3+z
10 1/3+y,2/3+x,1/6-z
11 x-y,-y,1/2-z
12 -x,-x+y,1/2-z
13 1/3-y,2/3+x-y,2/3+z
14 1/3-x+y,2/3-x,2/3+z
15 1/3+x-y,2/3-y,1/6-z
16 1/3-x,2/3-x+y,1/6-z
17 2/3+x-y,1/3-y,5/6-z
18 2/3-x,1/3-x+y,5/6-z
19 -x,-y,-z
20 y,-x+y,-z
21 x-y,x,-z
22 -y,-x,-1/2+z
23 -2/3-x,-1/3-y,-1/3-z
24 -2/3+y,-1/3-x+y,-1/3-z
25 -2/3+x-y,-1/3+x,-1/3-z
26 -2/3-y,-1/3-x,-5/6+z
27 -1/3-x,-2/3-y,-2/3-z
28 -1/3-y,-2/3-x,-1/6+z
29 -x+y,y,-1/2+z
30 x,x-y,-1/2+z
31 -1/3+y,-2/3-x+y,-2/3-z
32 -1/3+x-y,-2/3+x,-2/3-z
33 -1/3-x+y,-2/3+y,-1/6+z
34 -1/3+x,-2/3+x-y,-1/6+z
35 -2/3-x+y,-1/3+y,-5/6+z
36 -2/3+x,-1/3+x-y,-5/6+z
_cell_length_a 8.3339(11)
_cell_length_b 8.3339(11)
_cell_length_c 22.890(4)
_cell_angle_alpha 90
_cell_angle_beta 90
_cell_angle_gamma 120
_cell_formula_units_Z 6
loop_
_atom_type_symbol
_atom_type_radius_bond
C 0.68
H 0.23
Mn 1.35
N 0.68
O 0.68
loop_
_atom_site_label
_atom_site_type_symbol
_atom_site_fract_x
_atom_site_fract_y
_atom_site_fract_z
C1 C 0.33330 0.66670 0.36365(18)
N1 N 0.4211(7) 0.66670 0.41670
H1 H 0.449(18) 0.559(17) 0.406(6)
H2 H 0.226(6) 0.556(7) 0.3600(18)
H3 H 0.282(12) 0.685(17) 0.330(3)
Mn1 Mn 0.00000 -0.00010 0.50000
O1 O 0.45610(13) 0.34392(14) 0.38770(4)
C2 C 0.33330 0.2155(2) 0.41670
H4 H 0.33330 0.101(3) 0.41670
C1G C 0.33337 0.66663 0.469683(180)
N1G N 0.333367(700) 0.75443 0.41663
N1B N 0.2456(7) 0.57890 0.41670
H2G H 0.222667(6000) 0.559333(7000) 0.473333(1800)
H1B H 0.110(18) 0.551(17) 0.406(6)
H1Q H 0.217667(18000) 0.443333(17000) 0.427333(6000)
H1G H 0.225667(18000) 0.782333(17000) 0.427333(6000)
H1A H 0.441(18) 0.890(17) 0.406(6)
H2B H 0.330(6) 0.774(7) 0.3600(18)
H2A H 0.444(6) 0.670(7) 0.3600(18)
H1P H 0.556667(18000) 0.774333(17000) 0.427333(6000)
H2Q H 0.440667(6000) 0.663333(7000) 0.473333(1800)
H2P H 0.336667(6000) 0.777333(7000) 0.473333(1800)
H3G H 0.351667(12000) 0.615333(17000) 0.503333(3000)
H3P H 0.263667(12000) 0.648333(17000) 0.503333(3000)
H3Q H 0.384667(12000) 0.736333(17000) 0.503333(3000)
H3A H 0.315(12) 0.597(17) 0.330(3)
H3B H 0.403(12) 0.718(17) 0.330(3)
O1Q O 0.210567(130) 0.221153(140) 0.445633(40)
Mn1G Mn 0.66657 0.33333 0.33333
O1G O 0.010587(130) -0.210567(140) 0.445633(40)
C2G C -0.11783 -0.333367(200) 0.41663
O1B O -0.11218(13) -0.45610(14) 0.38770(4)
Mn1G* Mn -0.33343 -0.66667 0.33333
H4G H -0.23233 -0.333367(3000) 0.41663
O1P O -0.221153(130) -0.010587(140) 0.445633(40)
C2P C -0.21553 0.117833(200) 0.41663
O1IA O -0.210567(130) -0.221153(140) 0.554367(40)
O1Y O -0.010587(130) 0.210567(140) 0.554367(40)
O1HA O 0.221153(130) 0.010587(140) 0.554367(40)
O1A O -0.34392(13) 0.11218(14) 0.38770(4)
H4A H -0.10100 0.2323(30) 0.41670
Mn1G** Mn -0.33343 0.33333 0.33333
#END
