
#######################################################################
#
#                 Cambridge Crystallographic Data Centre
#                                CCDC
#
#######################################################################
#
# If this CIF has been generated from an entry in the Cambridge
# Structural Database, then it will include bibliographic, chemical,
# crystal, experimental, refinement or atomic coordinate data resulting
# from the CCDC's data processing and validation procedures.
#
#######################################################################

data_CSD_CIF_DADTOS04
_audit_creation_date 2014-03-20
_audit_creation_method CSD-ConQuest-V1
_database_code_CSD DADTOS04
_database_code_depnum_ccdc_archive 'CCDC 980997'
_chemical_formula_sum 'C5 H11 Mn1 N1 O6'
_chemical_formula_moiety
;
(C3 H3 Mn1 O6 1-)n,n(C2 H8 N1 1+)
;
_journal_coden_Cambridge 1350
_journal_volume 16
_journal_year 2014
_journal_page_first 3558
_journal_name_full 'CrystEngComm '
loop_
_publ_author_name
"M.Sanchez-Andujar"
"L.C.Gomez-Aguirre"
"B.Pato Doldan"
"S.Yanez-Vilar"
"R.Artiaga"
"A.L.Llamas-Saiz"
"R.S.Manna"
"F.Schnelle"
"M.Lang"
"F.Ritter"
"A.A.Haghighirad"
"M.A.Senaris-Rodriguez"
_chemical_name_systematic
;
catena-(Dimethylammonium tris(\m~2~-formato)-manganese)
;
_cell_volume   1382.386
_exptl_crystal_colour 'colorless'
_exptl_crystal_density_diffrn 1.702
_exptl_special_details
;
R-3c polymorph

;
_exptl_crystal_description 'cubic'
_diffrn_ambient_temperature 190
_refine_special_details
;
N1 disordered by symmetry over three configurations with occupancy 0.33.

;
#These two values have been output from a single CSD field.
_refine_ls_R_factor_gt 0.0371
_refine_ls_wR_factor_gt 0.0371
_symmetry_cell_setting rhombohedral
_symmetry_space_group_name_H-M 'R -3 c'
_symmetry_Int_Tables_number 167
loop_
_symmetry_equiv_pos_site_id
_symmetry_equiv_pos_as_xyz
1 x,y,z
2 -y,x-y,z
3 -x+y,-x,z
4 y,x,1/2-z
5 x-y,-y,1/2-z
6 -x,-x+y,1/2-z
7 2/3+x,1/3+y,1/3+z
8 2/3-y,1/3+x-y,1/3+z
9 2/3-x+y,1/3-x,1/3+z
10 2/3+y,1/3+x,5/6-z
11 2/3+x-y,1/3-y,5/6-z
12 2/3-x,1/3-x+y,5/6-z
13 1/3+x,2/3+y,2/3+z
14 1/3-y,2/3+x-y,2/3+z
15 1/3-x+y,2/3-x,2/3+z
16 1/3+y,2/3+x,1/6-z
17 1/3+x-y,2/3-y,1/6-z
18 1/3-x,2/3-x+y,1/6-z
19 -x,-y,-z
20 y,-x+y,-z
21 x-y,x,-z
22 -y,-x,-1/2+z
23 -x+y,y,-1/2+z
24 x,x-y,-1/2+z
25 -2/3-x,-1/3-y,-1/3-z
26 -2/3+y,-1/3-x+y,-1/3-z
27 -2/3+x-y,-1/3+x,-1/3-z
28 -2/3-y,-1/3-x,-5/6+z
29 -2/3-x+y,-1/3+y,-5/6+z
30 -2/3+x,-1/3+x-y,-5/6+z
31 -1/3-x,-2/3-y,-2/3-z
32 -1/3+y,-2/3-x+y,-2/3-z
33 -1/3+x-y,-2/3+x,-2/3-z
34 -1/3-y,-2/3-x,-1/6+z
35 -1/3-x+y,-2/3+y,-1/6+z
36 -1/3+x,-2/3+x-y,-1/6+z
_cell_length_a 8.3544(5)
_cell_length_b 8.3544(5)
_cell_length_c 22.8701(16)
_cell_angle_alpha 90
_cell_angle_beta 90
_cell_angle_gamma 120
_cell_formula_units_Z 6
loop_
_atom_type_symbol
_atom_type_radius_bond
C 0.68
H 0.23
Mn 1.61
N 0.68
O 0.68
loop_
_atom_site_label
_atom_site_type_symbol
_atom_site_fract_x
_atom_site_fract_y
_atom_site_fract_z
C1 C 0.66670 0.33330 0.0292(3)
N1 N 0.5777(13) 0.2444(13) 0.08330
H1 H 0.107(6) 0.33330 0.08330
Mn1 Mn 0.00000 0.00000 0.00000
O1 O 0.2223(3) 0.2089(3) 0.05463(9)
C2 C 0.2169(5) 0.33330 0.08330
N1A N 0.7556(13) 0.3333(13) 0.08330
N1B N 0.6667(13) 0.4223(13) 0.08330
C1O C 0.66663 0.33337 0.137467(300)
O1P O 0.346733(300) 0.457767(300) 0.112037(90)
H1A H -0.3333(60) -0.22630 0.08330
O1A O -0.2089(3) 0.0134(3) 0.05463(9)
C2A C -0.3333(5) -0.11640 0.08330
O1O O -0.457767(300) -0.111033(300) 0.112037(90)
H1B H 0.2263(60) -0.10700 0.08330
O1B O -0.0134(3) -0.2223(3) 0.05463(9)
C2B C 0.1164(5) -0.21690 0.08330
O1Q O 0.111033(300) -0.346733(300) 0.112037(90)
Mn1O Mn -0.66667 -0.33333 0.16667
Mn1O* Mn 0.33333 -0.33333 0.16667
Mn1O** Mn 0.33333 0.66667 0.16667
O1R O -0.2223(3) -0.2089(3) -0.05463(9)
O1S O 0.2089(3) -0.0134(3) -0.05463(9)
O1T O 0.0134(3) 0.2223(3) -0.05463(9)
#END
