
#######################################################################
#
#                 Cambridge Crystallographic Data Centre
#                                CCDC
#
#######################################################################
#
# If this CIF has been generated from an entry in the Cambridge
# Structural Database, then it will include bibliographic, chemical,
# crystal, experimental, refinement or atomic coordinate data resulting
# from the CCDC's data processing and validation procedures.
#
#######################################################################

data_CSD_CIF_DADTOS07
_audit_creation_date 2015-09-11
_audit_creation_method CSD-ConQuest-V1
_database_code_CSD DADTOS07
_database_code_depnum_ccdc_archive 'CCDC 1423599'
_chemical_formula_sum 'C5 H11 Mn1 N1 O6'
_chemical_formula_moiety
;
(C3 H3 Mn1 O6 1-)n,n(C2 H8 N1 1+)
;
_journal_coden_Cambridge 9
_journal_volume 49
_journal_year 2010
_journal_page_first 1510
_journal_name_full 'Inorg.Chem. '
loop_
_publ_author_name
"M.Sanchez-Andujar"
"S.Presedo"
"S.Yanez-Vilar"
"S.Castro-Garcia"
"J.Shamir"
"M.A.Senaris-Rodriguez"
_chemical_name_systematic
;
catena-(Dimethylammonium tris(\m~2~-formato)-manganese(ii))
;
_cell_volume    911.634
_exptl_crystal_colour 'colorless'
_exptl_crystal_density_diffrn 1.72
_exptl_special_details
;
Cc polymorph

;
_exptl_crystal_description 'prism'
_diffrn_ambient_temperature 100
#These two values have been output from a single CSD field.
_refine_ls_R_factor_gt 0.037
_refine_ls_wR_factor_gt 0.037
_symmetry_cell_setting monoclinic
_symmetry_space_group_name_H-M 'C c'
_symmetry_Int_Tables_number 9
loop_
_symmetry_equiv_pos_site_id
_symmetry_equiv_pos_as_xyz
1 x,y,z
2 x,-y,1/2+z
3 1/2+x,1/2+y,z
4 1/2+x,1/2-y,1/2+z
_cell_length_a 14.345(2)
_cell_length_b 8.3232(13)
_cell_length_c 8.8793(14)
_cell_angle_alpha 90
_cell_angle_beta 120.694(2)
_cell_angle_gamma 90
_cell_formula_units_Z 4
loop_
_atom_type_symbol
_atom_type_radius_bond
C 0.68
H 0.23
Mn 1.61
N 0.68
O 0.68
loop_
_atom_site_label
_atom_site_type_symbol
_atom_site_fract_x
_atom_site_fract_y
_atom_site_fract_z
O1 O 0.2340(2) 0.3565(4) 0.0618(4)
C1 C 0.3242(7) 0.2881(3) 0.1471(11)
H1 H 0.32480 0.17640 0.14800
C2 C 0.0502(4) 0.5281(6) -0.3491(7)
H2 H 0.09750 0.46550 -0.36680
C3 C 0.1117(4) 0.0246(6) -0.3434(7)
H3 H 0.09410 -0.05370 -0.28720
O2 O 0.0222(2) 0.6615(4) -0.4247(4)
O3 O 0.4132(3) 0.3582(4) 0.2305(4)
O4 O 0.1212(3) -0.0217(4) -0.4691(4)
Mn1 Mn 0.07462(12) 0.24816(8) -0.1038(2)
O5 O 0.1232(2) 0.1655(4) -0.2845(4)
O6 O 0.0187(3) 0.4737(4) -0.2512(4)
C4 C 0.2731(6) 0.7282(7) -0.0024(10)
H4 H 0.27460 0.68290 -0.10060
H5 H 0.26380 0.84250 -0.01690
H6 H 0.21400 0.68260 0.00450
N1 N 0.3776(3) 0.6917(4) 0.1624(5)
C5 C 0.3802(6) 0.7555(6) 0.3196(10)
H7 H 0.44790 0.72770 0.42190
H8 H 0.32160 0.71010 0.32820
H9 H 0.37280 0.87030 0.31090
H10 H 0.435(4) 0.739(5) 0.144(7)
H11 H 0.384(4) 0.597(5) 0.161(6)
O2A O 0.0222(2) 0.3385(4) 0.0753(4)
O3C O -0.0868(3) 0.1418(4) -0.2695(4)
O4A O 0.1212(3) 0.0217(4) 0.0309(4)
Mn1A Mn 0.07462(12) -0.24816(8) -0.6038(2)
Mn1A* Mn 0.07462(12) 0.75184(8) -0.6038(2)
Mn1C Mn 0.57462(12) 0.25184(8) 0.3962(2)
#END
