
#######################################################################
#
#                 Cambridge Crystallographic Data Centre
#                                CCDC
#
#######################################################################
#
# If this CIF has been generated from an entry in the Cambridge
# Structural Database, then it will include bibliographic, chemical,
# crystal, experimental, refinement or atomic coordinate data resulting
# from the CCDC's data processing and validation procedures.
#
#######################################################################

data_CSD_CIF_DADTOS
_audit_creation_date 2004-12-02
_audit_creation_method CSD-ConQuest-V1
_database_code_CSD DADTOS
_database_code_depnum_ccdc_archive 'CCDC 246991'
_chemical_formula_sum 'C5 H11 Mn1 N1 O6'
_chemical_formula_moiety
;
(C2 H8 N1 1+)n,n(C3 H3 Mn1 O6 1-)
;
_journal_coden_Cambridge 9
_journal_volume 43
_journal_year 2004
_journal_page_first 4615
_journal_name_full 'Inorg.Chem. '
loop_
_publ_author_name
"Xin-Yi Wang"
"Lin Gan"
"Shi-Wei Zhang"
"Song Gao"
_chemical_name_systematic
;
catena-(dimethylammonium tris(\m~2~-formato)-manganese(ii))
;
_cell_volume   1377.020
_exptl_crystal_colour 'colorless'
_exptl_crystal_density_diffrn 1.708
_exptl_special_details
;
weak ferromagnet
R-3c polymorph
isomorphous with the Co and Ni analogues

;
_exptl_crystal_description 'block'
_exptl_crystal_preparation 'DMF'
_diffrn_ambient_temperature 293
_refine_special_details
;
The cation is disordered.

;
#These two values have been output from a single CSD field.
_refine_ls_R_factor_gt 0.024
_refine_ls_wR_factor_gt 0.024
_symmetry_cell_setting rhombohedral
_symmetry_space_group_name_H-M 'R -3 c'
_symmetry_Int_Tables_number 167
loop_
_symmetry_equiv_pos_site_id
_symmetry_equiv_pos_as_xyz
1 x,y,z
2 -y,x-y,z
3 -x+y,-x,z
4 y,x,1/2-z
5 2/3+x,1/3+y,1/3+z
6 2/3-y,1/3+x-y,1/3+z
7 2/3-x+y,1/3-x,1/3+z
8 2/3+y,1/3+x,5/6-z
9 1/3+x,2/3+y,2/3+z
10 1/3+y,2/3+x,1/6-z
11 x-y,-y,1/2-z
12 -x,-x+y,1/2-z
13 1/3-y,2/3+x-y,2/3+z
14 1/3-x+y,2/3-x,2/3+z
15 1/3+x-y,2/3-y,1/6-z
16 1/3-x,2/3-x+y,1/6-z
17 2/3+x-y,1/3-y,5/6-z
18 2/3-x,1/3-x+y,5/6-z
19 -x,-y,-z
20 y,-x+y,-z
21 x-y,x,-z
22 -y,-x,-1/2+z
23 -2/3-x,-1/3-y,-1/3-z
24 -2/3+y,-1/3-x+y,-1/3-z
25 -2/3+x-y,-1/3+x,-1/3-z
26 -2/3-y,-1/3-x,-5/6+z
27 -1/3-x,-2/3-y,-2/3-z
28 -1/3-y,-2/3-x,-1/6+z
29 -x+y,y,-1/2+z
30 x,x-y,-1/2+z
31 -1/3+y,-2/3-x+y,-2/3-z
32 -1/3+x-y,-2/3+x,-2/3-z
33 -1/3-x+y,-2/3+y,-1/6+z
34 -1/3+x,-2/3+x-y,-1/6+z
35 -2/3-x+y,-1/3+y,-5/6+z
36 -2/3+x,-1/3+x-y,-5/6+z
_cell_length_a 8.3340(12)
_cell_length_b 8.3340(12)
_cell_length_c 22.893(5)
_cell_angle_alpha 90
_cell_angle_beta 90
_cell_angle_gamma 120
_cell_formula_units_Z 6
loop_
_atom_type_symbol
_atom_type_radius_bond
C 0.68
H 0.23
Mn 1.35
N 0.68
O 0.68
loop_
_atom_site_label
_atom_site_type_symbol
_atom_site_fract_x
_atom_site_fract_y
_atom_site_fract_z
N1 N 0.5804(6) 0.2471(6) 0.08330
C1 C 0.66670 0.33330 0.03002(17)
Mn1 Mn 0.00000 0.00000 0.00000
O1 O 0.22092(13) 0.21080(13) 0.05426(4)
C2 C 0.2155(3) 0.33330 0.08330
H1 H 0.109(4) 0.33330 0.08330
N1A N 0.7529(6) 0.3333(6) 0.08330
N1B N 0.6667(6) 0.4196(6) 0.08330
C1N C 0.66673 0.33337 0.136647(170)
O1N O 0.343453(130) 0.455867(130) 0.112407(40)
O1A O -0.21080(13) 0.01012(13) 0.05426(4)
C2A C -0.3333(3) -0.11780 0.08330
H1A H -0.3333(40) -0.22430 0.08330
O1I O -0.455867(130) -0.112413(130) 0.112407(40)
O1B O -0.01012(13) -0.22092(13) 0.05426(4)
C2B C 0.1178(3) -0.21550 0.08330
H1B H 0.2243(40) -0.10900 0.08330
O1O O 0.112413(130) -0.343453(130) 0.112407(40)
O1R O -0.22092(13) -0.21080(13) -0.05426(4)
O1S O 0.21080(13) -0.01012(13) -0.05426(4)
O1T O 0.01012(13) 0.22092(13) -0.05426(4)
Mn1I Mn 0.33333 0.66667 0.16667
Mn1I* Mn -0.66667 -0.33333 0.16667
Mn1I** Mn 0.33333 -0.33333 0.16667
#END
