
#######################################################################
#
#                 Cambridge Crystallographic Data Centre
#                                CCDC
#
#######################################################################
#
# If this CIF has been generated from an entry in the Cambridge
# Structural Database, then it will include bibliographic, chemical,
# crystal, experimental, refinement or atomic coordinate data resulting
# from the CCDC's data processing and validation procedures.
#
#######################################################################

data_CSD_CIF_DADTOS05
_audit_creation_date 2014-02-07
_audit_creation_method CSD-ConQuest-V1
_database_code_CSD DADTOS05
_database_code_depnum_ccdc_archive 'CCDC 962980'
_chemical_formula_sum 'C5 H9 D2 Mn1 N1 O6'
_chemical_formula_moiety
;
(C3 H3 Mn1 O6 1-)n,n(C2 H6 D2 N1 1+)
;
_journal_coden_Cambridge 9
_journal_volume 53
_journal_year 2014
_journal_page_first 457
_journal_name_full 'Inorg.Chem. '
loop_
_publ_author_name
"M.Maczka"
"A.Gagor"
"B.Macalik"
"A.Pikul"
"M.Ptak"
"J.Hanuza"
_chemical_name_systematic
;
catena-(Dideuterodimethylammonium tris(\m~2~-formato)-manganese)
;
_cell_volume   1375.773
_exptl_crystal_colour 'pink'
_exptl_crystal_density_diffrn 1.724
_exptl_special_details
;
R-3c polymorph

;
_diffrn_ambient_temperature 295
_refine_special_details
;
The cation is disordered by symmetry.

;
#These two values have been output from a single CSD field.
_refine_ls_R_factor_gt 0.0255
_refine_ls_wR_factor_gt 0.0255
_symmetry_cell_setting rhombohedral
_symmetry_space_group_name_H-M 'R -3 c'
_symmetry_Int_Tables_number 167
loop_
_symmetry_equiv_pos_site_id
_symmetry_equiv_pos_as_xyz
1 x,y,z
2 -y,x-y,z
3 -x+y,-x,z
4 y,x,1/2-z
5 x-y,-y,1/2-z
6 -x,-x+y,1/2-z
7 2/3+x,1/3+y,1/3+z
8 2/3-y,1/3+x-y,1/3+z
9 2/3-x+y,1/3-x,1/3+z
10 2/3+y,1/3+x,5/6-z
11 2/3+x-y,1/3-y,5/6-z
12 2/3-x,1/3-x+y,5/6-z
13 1/3+x,2/3+y,2/3+z
14 1/3-y,2/3+x-y,2/3+z
15 1/3-x+y,2/3-x,2/3+z
16 1/3+y,2/3+x,1/6-z
17 1/3+x-y,2/3-y,1/6-z
18 1/3-x,2/3-x+y,1/6-z
19 -x,-y,-z
20 y,-x+y,-z
21 x-y,x,-z
22 -y,-x,-1/2+z
23 -x+y,y,-1/2+z
24 x,x-y,-1/2+z
25 -2/3-x,-1/3-y,-1/3-z
26 -2/3+y,-1/3-x+y,-1/3-z
27 -2/3+x-y,-1/3+x,-1/3-z
28 -2/3-y,-1/3-x,-5/6+z
29 -2/3-x+y,-1/3+y,-5/6+z
30 -2/3+x,-1/3+x-y,-5/6+z
31 -1/3-x,-2/3-y,-2/3-z
32 -1/3+y,-2/3-x+y,-2/3-z
33 -1/3+x-y,-2/3+x,-2/3-z
34 -1/3-y,-2/3-x,-1/6+z
35 -1/3-x+y,-2/3+y,-1/6+z
36 -1/3+x,-2/3+x-y,-1/6+z
_cell_length_a 8.3315(6)
_cell_length_b 8.3315(6)
_cell_length_c 22.886(3)
_cell_angle_alpha 90
_cell_angle_beta 90
_cell_angle_gamma 120
_cell_formula_units_Z 6
loop_
_atom_type_symbol
_atom_type_radius_bond
C 0.68
H 0.23
D 0.23
Mn 1.61
N 0.68
O 0.68
loop_
_atom_site_label
_atom_site_type_symbol
_atom_site_fract_x
_atom_site_fract_y
_atom_site_fract_z
C1 C 0.00000 0.00000 0.1971(2)
H1 H -0.02110 0.10450 0.18640
H2 H -0.04900 -0.08750 0.16040
H3 H 0.13390 0.04680 0.19790
N1 N -0.087(1) -0.087(1) 0.25000
D1 D -0.21480 -0.11150 0.25000
Mn1 Mn 0.00000 0.00000 0.00000
O1 O -0.2108(2) -0.2210(2) 0.05432(6)
C2 C -0.33330 -0.2151(4) 0.08330
H4 H -0.33330 -0.102(5) 0.08330
H1A H -0.10450 -0.12560 0.18640
H2A H 0.08750 0.03850 0.16040
H3A H -0.04680 0.08710 0.19790
N1A N 0.087(1) 0.000(1) 0.25000
D1A D 0.11150 -0.10330 0.25000
H1B H 0.12560 0.02110 0.18640
H2B H -0.03850 0.04900 0.16040
H3B H -0.08710 -0.13390 0.19790
N1B N 0.000(1) 0.087(1) 0.25000
D1B D 0.10330 0.21480 0.25000
C1C C 0.00000 0.00000 0.3029(2)
H1C H 0.10450 -0.02110 0.31360
H2C H -0.08750 -0.04900 0.33960
H3C H 0.04680 0.13390 0.30210
D1C D -0.11150 -0.21480 0.25000
H1D H -0.12560 -0.10450 0.31360
H2D H 0.03850 0.08750 0.33960
H3D H 0.08710 -0.04680 0.30210
D1D D -0.10330 0.11150 0.25000
H1E H 0.02110 0.12560 0.31360
H2E H 0.04900 -0.03850 0.33960
H3E H -0.13390 -0.08710 0.30210
D1E D 0.21480 0.10330 0.25000
O1Q O -0.455867(200) -0.343533(200) 0.112347(60)
O1A O 0.2210(2) 0.0102(2) 0.05432(6)
C2A C 0.21510 -0.1182(4) 0.08330
H4A H 0.10200 -0.2313(50) 0.08330
O1P O 0.343533(200) -0.112333(200) 0.112347(60)
O1B O -0.0102(2) 0.2108(2) 0.05432(6)
C2B C 0.11820 0.3333(4) 0.08330
H4B H 0.23130 0.3333(50) 0.08330
O1O O 0.112333(200) 0.455867(200) 0.112347(60)
Mn1O Mn -0.66667 -0.33333 0.16667
Mn1O* Mn 0.33333 -0.33333 0.16667
Mn1O** Mn 0.33333 0.66667 0.16667
O1R O 0.2108(2) 0.2210(2) -0.05432(6)
O1S O -0.2210(2) -0.0102(2) -0.05432(6)
O1T O 0.0102(2) -0.2108(2) -0.05432(6)
#END
