
#######################################################################
#
#                 Cambridge Crystallographic Data Centre
#                                CCDC
#
#######################################################################
#
# If this CIF has been generated from an entry in the Cambridge
# Structural Database, then it will include bibliographic, chemical,
# crystal, experimental, refinement or atomic coordinate data resulting
# from the CCDC's data processing and validation procedures.
#
#######################################################################

data_CSD_CIF_DADTOS17
_audit_creation_date 2018-06-05
_audit_creation_method CSD-ConQuest-V1
_database_code_CSD DADTOS17
_database_code_depnum_ccdc_archive 'CCDC 1837769'
_chemical_formula_sum 'C5 H11 Mn1 N1 O6'
_chemical_formula_moiety
;
(C3 H3 Mn1 O6 1-)n,C2 H8 N1 1+
;
_journal_coden_Cambridge 1350
_journal_volume 20
_journal_year 2018
_journal_page_first 3512
_journal_name_full 'CrystEngComm '
loop_
_publ_author_name
"I.E.Collings"
"M.Bykov"
"E.Bykova"
"M.Hanfland"
"S.van Smaalen"
"L.Dubrovinsky"
"N.Dubrovinskaia"
_chemical_name_systematic
;
catena-[dimethylammonium tris(\m-formato)-manganese(ii)]
;
_cell_volume   1213.414
_exptl_crystal_colour 'colorless'
_exptl_crystal_density_diffrn 1.938
_exptl_crystal_description 'block'
_diffrn_ambient_temperature 293
_diffrn_ambient_pressure 4370000.0
_diffrn_radiation_probe x-ray
_diffrn_source synchrotron
_refine_special_details
;
N1 disordered by symmetry over three configurations with occupancy 0.3333.

;
#These two values have been output from a single CSD field.
_refine_ls_R_factor_gt 0.0532
_refine_ls_wR_factor_gt 0.0532
_symmetry_cell_setting rhombohedral
_symmetry_space_group_name_H-M 'R -3 c'
_symmetry_Int_Tables_number 167
loop_
_symmetry_equiv_pos_site_id
_symmetry_equiv_pos_as_xyz
1 x,y,z
2 -y,x-y,z
3 -x+y,-x,z
4 y,x,1/2-z
5 x-y,-y,1/2-z
6 -x,-x+y,1/2-z
7 2/3+x,1/3+y,1/3+z
8 2/3-y,1/3+x-y,1/3+z
9 2/3-x+y,1/3-x,1/3+z
10 2/3+y,1/3+x,5/6-z
11 2/3+x-y,1/3-y,5/6-z
12 2/3-x,1/3-x+y,5/6-z
13 1/3+x,2/3+y,2/3+z
14 1/3-y,2/3+x-y,2/3+z
15 1/3-x+y,2/3-x,2/3+z
16 1/3+y,2/3+x,1/6-z
17 1/3+x-y,2/3-y,1/6-z
18 1/3-x,2/3-x+y,1/6-z
19 -x,-y,-z
20 y,-x+y,-z
21 x-y,x,-z
22 -y,-x,-1/2+z
23 -x+y,y,-1/2+z
24 x,x-y,-1/2+z
25 -2/3-x,-1/3-y,-1/3-z
26 -2/3+y,-1/3-x+y,-1/3-z
27 -2/3+x-y,-1/3+x,-1/3-z
28 -2/3-y,-1/3-x,-5/6+z
29 -2/3-x+y,-1/3+y,-5/6+z
30 -2/3+x,-1/3+x-y,-5/6+z
31 -1/3-x,-2/3-y,-2/3-z
32 -1/3+y,-2/3-x+y,-2/3-z
33 -1/3+x-y,-2/3+x,-2/3-z
34 -1/3-y,-2/3-x,-1/6+z
35 -1/3-x+y,-2/3+y,-1/6+z
36 -1/3+x,-2/3+x-y,-1/6+z
_cell_length_a 8.1373(6)
_cell_length_b 8.1373(6)
_cell_length_c 21.1601(7)
_cell_angle_alpha 90
_cell_angle_beta 90
_cell_angle_gamma 120
_cell_formula_units_Z 6
loop_
_atom_type_symbol
_atom_type_radius_bond
C 0.68
H 0.23
Mn 1.61
N 0.68
O 0.68
loop_
_atom_site_label
_atom_site_type_symbol
_atom_site_fract_x
_atom_site_fract_y
_atom_site_fract_z
Mn1 Mn 0.66667 0.33333 0.33333
O1 O 0.8663(4) 0.3007(4) 0.27695(14)
C1 C 1.00000 0.4385(7) 0.25000
H1 H 1.00000 0.55284 0.25000
N1 N 0.7426(19) 0.33333 0.08333
H2 H 0.800(12) 0.285(19) 0.107(5)
C2 C 0.66667 0.33333 0.0267(4)
H3 H 0.579(8) 0.192(4) 0.006(3)
O1E O 1.1337(4) 0.4344(4) 0.22305(14)
O1A O 0.6993(4) 0.5656(4) 0.27695(14)
C1A C 0.56150 0.5615(7) 0.25000
H1A H 0.44716 0.44716 0.25000
O1D O 0.5656(4) 0.6993(4) 0.22305(14)
O1B O 0.4344(4) 0.1337(4) 0.27695(14)
C1B C 0.43850 0.0000(7) 0.25000
H1B H 0.55284 0.00000 0.25000
O1C O 0.3007(4) -0.1337(4) 0.22305(14)
Mn1C Mn 0.33333 -0.33333 0.16667
Mn1C* Mn 0.33333 0.66667 0.16667
Mn1C** Mn 1.33333 0.66667 0.16667
O1X O 0.467033(400) 0.365967(400) 0.389717(140)
O1Y O 0.634033(400) 0.101067(400) 0.389717(140)
O1Z O 0.898933(400) 0.532967(400) 0.389717(140)
N1A N 0.666667(1900) 0.40927 0.08333
H2A H 0.715(12) 0.515(19) 0.107(5)
H3A H 0.808(8) 0.387(4) 0.006(3)
N1B N 0.590733(1900) 0.25740 0.08333
H2B H 0.485(12) 0.200(19) 0.107(5)
H3B H 0.613(8) 0.421(4) 0.006(3)
H2O H 0.618333(12000) 0.466667(19000) 0.059667(5000)
C2O C 0.66667 0.33333 0.139967(400)
H3O H 0.525333(8000) 0.245667(4000) 0.160667(3000)
H2P H 0.848333(12000) 0.381667(19000) 0.059667(5000)
H3P H 0.720333(8000) 0.474667(4000) 0.160667(3000)
H2Q H 0.533333(12000) 0.151667(19000) 0.059667(5000)
H3Q H 0.754333(8000) 0.279667(4000) 0.160667(3000)
#END
