
#######################################################################
#
#                 Cambridge Crystallographic Data Centre
#                                CCDC
#
#######################################################################
#
# If this CIF has been generated from an entry in the Cambridge
# Structural Database, then it will include bibliographic, chemical,
# crystal, experimental, refinement or atomic coordinate data resulting
# from the CCDC's data processing and validation procedures.
#
#######################################################################

data_CSD_CIF_DADVAG01
_audit_creation_date 2006-08-31
_audit_creation_method CSD-ConQuest-V1
_database_code_CSD DADVAG01
_database_code_depnum_ccdc_archive 'CCDC 265463'
_chemical_formula_sum 'C5 H11 N1 Ni1 O6'
_chemical_formula_moiety
;
(C3 H3 Ni1 O6 1-)n,n(C2 H8 N1 1+)
;
_journal_coden_Cambridge 1347
_journal_volume 91
_journal_year 2006
_journal_page_first 215
_journal_name_full 'Microporous and Mesoporous Materials '
loop_
_publ_author_name
"Yanqin Wang"
"Rong Cao"
"Wenhua Bi"
"Xing Li"
"Daqiang Yuan"
"Daofeng Sun"
_chemical_name_systematic
;
catena-(dimethylammonium tris(\m~2~-formato)-nickel(ii))
;
_cell_volume   1265.494
_exptl_crystal_colour 'red'
_exptl_crystal_density_diffrn 1.888
_exptl_crystal_description 'block'
_diffrn_ambient_temperature 293
_refine_special_details
;
The cation is disordered by symmetry.

;
#These two values have been output from a single CSD field.
_refine_ls_R_factor_gt 0.0371
_refine_ls_wR_factor_gt 0.0371
_symmetry_cell_setting rhombohedral
_symmetry_space_group_name_H-M 'R -3 c'
_symmetry_Int_Tables_number 167
loop_
_symmetry_equiv_pos_site_id
_symmetry_equiv_pos_as_xyz
1 x,y,z
2 -y,x-y,z
3 -x+y,-x,z
4 y,x,1/2-z
5 2/3+x,1/3+y,1/3+z
6 2/3-y,1/3+x-y,1/3+z
7 2/3-x+y,1/3-x,1/3+z
8 2/3+y,1/3+x,5/6-z
9 1/3+x,2/3+y,2/3+z
10 1/3+y,2/3+x,1/6-z
11 x-y,-y,1/2-z
12 -x,-x+y,1/2-z
13 1/3-y,2/3+x-y,2/3+z
14 1/3-x+y,2/3-x,2/3+z
15 1/3+x-y,2/3-y,1/6-z
16 1/3-x,2/3-x+y,1/6-z
17 2/3+x-y,1/3-y,5/6-z
18 2/3-x,1/3-x+y,5/6-z
19 -x,-y,-z
20 y,-x+y,-z
21 x-y,x,-z
22 -y,-x,-1/2+z
23 -2/3-x,-1/3-y,-1/3-z
24 -2/3+y,-1/3-x+y,-1/3-z
25 -2/3+x-y,-1/3+x,-1/3-z
26 -2/3-y,-1/3-x,-5/6+z
27 -1/3-x,-2/3-y,-2/3-z
28 -1/3-y,-2/3-x,-1/6+z
29 -x+y,y,-1/2+z
30 x,x-y,-1/2+z
31 -1/3+y,-2/3-x+y,-2/3-z
32 -1/3+x-y,-2/3+x,-2/3-z
33 -1/3-x+y,-2/3+y,-1/6+z
34 -1/3+x,-2/3+x-y,-1/6+z
35 -2/3-x+y,-1/3+y,-5/6+z
36 -2/3+x,-1/3+x-y,-5/6+z
_cell_length_a 8.1368(19)
_cell_length_b 8.1368(19)
_cell_length_c 22.071(7)
_cell_angle_alpha 90
_cell_angle_beta 90
_cell_angle_gamma 120
_cell_formula_units_Z 6
loop_
_atom_type_symbol
_atom_type_radius_bond
C 0.68
H 0.23
N 0.68
Ni 1.50
O 0.68
loop_
_atom_site_label
_atom_site_type_symbol
_atom_site_fract_x
_atom_site_fract_y
_atom_site_fract_z
C1 C -0.66670 -0.33330 0.4719(5)
N1 N -0.747(3) -0.33330 0.41670
H1 H -0.78(2) -0.35(3) 0.484(6)
Ni1 Ni 0.00000 0.00000 0.50000
O1 O -0.2144(4) -0.2083(4) 0.44685(13)
C2 C -0.2054(8) -0.33330 0.41670
H2 H -0.078(10) -0.33330 0.41670
H3? H -0.789(17) -0.285(19) 0.421(6)
C1G C -0.66663 -0.33337 0.361433(500)
N1G N -0.666633(3000) -0.41367 0.41663
N1B N -0.5863(30) -0.25300 0.41670
H1G H -0.683333(20000) -0.446667(30000) 0.349333(6000)
H1P H -0.763333(20000) -0.316667(30000) 0.349333(6000)
H1Q H -0.553333(20000) -0.236667(30000) 0.349333(6000)
H1A H -0.65(2) -0.43(3) 0.484(6)
H1B H -0.57(2) -0.22(3) 0.484(6)
Ni1G Ni -0.33333 -0.66667 0.33333
Ni1G* Ni 0.66667 0.33333 0.33333
Ni1G** Ni -0.33333 0.33333 0.33333
O1P O -0.339433(400) -0.458367(400) 0.386483(130)
O1A O 0.2083(4) -0.0061(4) 0.44685(13)
O1G O 0.458367(400) 0.118933(400) 0.386483(130)
O1B O 0.0061(4) 0.2144(4) 0.44685(13)
O1Q O -0.118933(400) 0.339433(400) 0.386483(130)
O1R O 0.2144(4) 0.2083(4) 0.55315(13)
O1S O -0.2083(4) 0.0061(4) 0.55315(13)
O1T O -0.0061(4) -0.2144(4) 0.55315(13)
C2A C 0.3333(8) 0.12790 0.41670
C2B C -0.1279(8) 0.20540 0.41670
H2A H 0.3333(100) 0.25530 0.41670
H2B H -0.2553(100) 0.07800 0.41670
#END
