
#######################################################################
#
#                 Cambridge Crystallographic Data Centre
#                                CCDC
#
#######################################################################
#
# If this CIF has been generated from an entry in the Cambridge
# Structural Database, then it will include bibliographic, chemical,
# crystal, experimental, refinement or atomic coordinate data resulting
# from the CCDC's data processing and validation procedures.
#
#######################################################################

data_CSD_CIF_DADVAG06
_audit_creation_date 2018-08-21
_audit_creation_method CSD-ConQuest-V1
_database_code_CSD DADVAG06
_database_code_depnum_ccdc_archive 'CCDC 1845706'
_chemical_formula_sum 'C5 H11 N1 Ni1 O6'
_chemical_formula_moiety
;
(C3 H3 Ni1 O6 1-)n,C2 H8 N1 1+
;
_journal_coden_Cambridge 1350
_journal_volume 20
_journal_year 2018
_journal_page_first 5348
_journal_name_full 'CrystEngComm '
loop_
_publ_author_name
"S.Sobczak"
"A.Chitnis"
"M.Andrzejewski"
"M.Maczka"
"S.Gohil"
"N.Garg"
"A.Katrusiak"
_chemical_name_systematic
;
catena-(dimethylammonium tris(\m~2~-formato)-nickel(ii))
;
_cell_volume   1174.616
_exptl_crystal_colour 'green'
_exptl_special_details
;
DMF

;
_exptl_crystal_description 'block'
_diffrn_ambient_temperature 293
_diffrn_ambient_pressure 2730000.0
_refine_special_details
;
N1 disordered by symmetry over three configurations with occupancy 0.3333.

;
#These two values have been output from a single CSD field.
_refine_ls_R_factor_gt 0.0469
_refine_ls_wR_factor_gt 0.0469
_symmetry_cell_setting rhombohedral
_symmetry_space_group_name_H-M 'R -3 c'
_symmetry_Int_Tables_number 167
loop_
_symmetry_equiv_pos_site_id
_symmetry_equiv_pos_as_xyz
1 x,y,z
2 -y,x-y,z
3 -x+y,-x,z
4 x-y,-y,1/2-z
5 -x,-x+y,1/2-z
6 y,x,1/2-z
7 2/3+x,1/3+y,1/3+z
8 2/3-y,1/3+x-y,1/3+z
9 2/3-x+y,1/3-x,1/3+z
10 2/3+x-y,1/3-y,5/6-z
11 2/3-x,1/3-x+y,5/6-z
12 2/3+y,1/3+x,5/6-z
13 1/3+x,2/3+y,2/3+z
14 1/3-y,2/3+x-y,2/3+z
15 1/3-x+y,2/3-x,2/3+z
16 1/3+x-y,2/3-y,1/6-z
17 1/3-x,2/3-x+y,1/6-z
18 1/3+y,2/3+x,1/6-z
19 -x,-y,-z
20 y,-x+y,-z
21 x-y,x,-z
22 -x+y,y,-1/2+z
23 x,x-y,-1/2+z
24 -y,-x,-1/2+z
25 -2/3-x,-1/3-y,-1/3-z
26 -2/3+y,-1/3-x+y,-1/3-z
27 -2/3+x-y,-1/3+x,-1/3-z
28 -2/3-x+y,-1/3+y,-5/6+z
29 -2/3+x,-1/3+x-y,-5/6+z
30 -2/3-y,-1/3-x,-5/6+z
31 -1/3-x,-2/3-y,-2/3-z
32 -1/3+y,-2/3-x+y,-2/3-z
33 -1/3+x-y,-2/3+x,-2/3-z
34 -1/3-x+y,-2/3+y,-1/6+z
35 -1/3+x,-2/3+x-y,-1/6+z
36 -1/3-y,-2/3-x,-1/6+z
_cell_length_a 8.0039(15)
_cell_length_b 8.0039(15)
_cell_length_c 21.172(5)
_cell_angle_alpha 90
_cell_angle_beta 90
_cell_angle_gamma 120
_cell_formula_units_Z 6
loop_
_atom_type_symbol
_atom_type_radius_bond
C 0.68
H 0.23
N 0.68
Ni 1.24
O 0.68
loop_
_atom_site_label
_atom_site_type_symbol
_atom_site_fract_x
_atom_site_fract_y
_atom_site_fract_z
Ni1 Ni -0.33330 -0.66670 0.33330
O1 O -0.3153(3) -0.8692(3) 0.27939(10)
C1 C -0.4523(6) -1.00000 0.25000
H1 H -0.566(8) -1.00000 0.25000
N1 N -0.33330 -0.7467(18) 0.08330
C2 C -0.33330 -0.66670 0.1412(4)
H2 H -0.252(10) -0.547(14) 0.159(5)
H3 H -0.417(13) -0.858(18) 0.066(8)
O1C O -0.4461(3) -1.1308(3) 0.22061(10)
O1A O -0.1308(3) -0.4461(3) 0.27939(10)
C1A C 0.0000(6) -0.45230 0.25000
H1A H 0.000(8) -0.56600 0.25000
O1E O 0.1308(3) -0.3153(3) 0.22061(10)
O1B O -0.5539(3) -0.6847(3) 0.27939(10)
C1B C -0.5477(6) -0.54770 0.25000
H1B H -0.434(8) -0.43400 0.25000
O1D O -0.6847(3) -0.5539(3) 0.22061(10)
Ni1C Ni -0.66660 -1.33330 0.16670
Ni1C* Ni -0.66660 -0.33330 0.16670
Ni1C** Ni 0.33340 -0.33330 0.16670
O1X O -0.351367(300) -0.464133(300) 0.387277(100)
O1Y O -0.535867(300) -0.887233(300) 0.387277(100)
O1Z O -0.112767(300) -0.648633(300) 0.387277(100)
N1A N -0.25330 -0.5866(18) 0.08330
H2A H -0.453(10) -0.705(14) 0.159(5)
H3A H -0.142(13) -0.559(18) 0.066(8)
N1B N -0.41340 -0.6667(18) 0.08330
H2B H -0.295(10) -0.748(14) 0.159(5)
H3B H -0.441(13) -0.583(18) 0.066(8)
C2O C -0.33327 -0.66663 0.025467(400)
H2O H -0.371667(10000) -0.786333(14000) 0.007667(5000)
H3O H -0.225667(13000) -0.475333(18000) 0.100667(8000)
H2P H -0.414667(10000) -0.628333(14000) 0.007667(5000)
H3P H -0.249667(13000) -0.774333(18000) 0.100667(8000)
H2Q H -0.213667(10000) -0.585333(14000) 0.007667(5000)
H3Q H -0.524667(13000) -0.750333(18000) 0.100667(8000)
#END
