
#######################################################################
#
#                 Cambridge Crystallographic Data Centre
#                                CCDC
#
#######################################################################
#
# If this CIF has been generated from an entry in the Cambridge
# Structural Database, then it will include bibliographic, chemical,
# crystal, experimental, refinement or atomic coordinate data resulting
# from the CCDC's data processing and validation procedures.
#
#######################################################################

data_CSD_CIF_DAFHID
_audit_creation_date 2011-12-12
_audit_creation_method CSD-ConQuest-V1
_database_code_CSD DAFHID
_database_code_depnum_ccdc_archive 'CCDC 809088'
_chemical_formula_sum 'C44 H38 N4 Ni3 O16'
_chemical_formula_moiety
;
(C32 H16 Ni3 O16 2-)n,2n(C6 H11 N2 1+)
;
_journal_coden_Cambridge 222
_journal_volume 40
_journal_year 2011
_journal_page_first 10237
_journal_name_full 'Dalton Trans. '
loop_
_publ_author_name
"Wen-Xian Chen"
"Gui-Lin Zhuang"
"Hai-Xia Zhao"
"La-Sheng Long"
"Rong-Bin Huang"
"Lan-Sun Zheng"
_chemical_name_systematic
;
catena-(bis(\m~4~-isophthalato)-bis(\m~3~-isophthalato)-tri-nickel(ii) 
bis(3-ethyl-1-methyl-1H-imidazol-3-ium))
;
_cell_volume   4293.138
_exptl_crystal_colour 'green'
_exptl_crystal_density_diffrn 1.632
_exptl_crystal_description 'block'
_diffrn_ambient_temperature 173
_refine_special_details
;
C18,C19,C21,C22,N2 and C18',C19',C21',C22',N2' disordered over two sites with 
occupancies 0.50:0.50.
;
#These two values have been output from a single CSD field.
_refine_ls_R_factor_gt 0.0389
_refine_ls_wR_factor_gt 0.0389
_symmetry_cell_setting orthorhombic
_symmetry_space_group_name_H-M 'P b c a'
_symmetry_Int_Tables_number 61
loop_
_symmetry_equiv_pos_site_id
_symmetry_equiv_pos_as_xyz
1 x,y,z
2 1/2-x,-y,1/2+z
3 -x,1/2+y,1/2-z
4 1/2+x,1/2-y,-z
5 -x,-y,-z
6 -1/2+x,y,-1/2-z
7 x,-1/2-y,-1/2+z
8 -1/2-x,-1/2+y,z
_cell_length_a 15.4912(6)
_cell_length_b 11.6687(5)
_cell_length_c 23.7502(9)
_cell_angle_alpha 90
_cell_angle_beta 90
_cell_angle_gamma 90
_cell_formula_units_Z 4
loop_
_atom_type_symbol
_atom_type_radius_bond
C 0.68
H 0.23
N 0.68
Ni 1.24
O 0.68
loop_
_atom_site_label
_atom_site_type_symbol
_atom_site_fract_x
_atom_site_fract_y
_atom_site_fract_z
Ni1 Ni 0.00000 0.50000 0.00000
Ni2 Ni 0.046976(19) 0.35733(3) 0.123107(12)
O1 O 0.15795(11) 0.28741(14) 0.08386(7)
O2 O 0.09892(10) 0.44945(13) 0.05684(6)
O3 O 0.44279(9) 0.15831(13) 0.00153(6)
O4 O 0.46705(11) 0.24271(14) -0.08198(6)
O5 O -0.13573(11) 0.90019(15) 0.30551(7)
O6 O -0.04714(11) 0.75446(14) 0.30710(6)
O7 O -0.07311(10) 0.55096(14) 0.06680(6)
O8 O -0.03919(11) 0.47185(14) 0.15059(6)
C1 C 0.23919(15) 0.3999(2) 0.01992(9)
C2 C 0.30005(15) 0.3142(2) 0.01263(9)
H1 H 0.29180 0.24350 0.02990
C3 C 0.37295(15) 0.3320(2) -0.01998(10)
C4 C 0.38650(17) 0.4414(2) -0.04224(12)
H2 H 0.43550 0.45580 -0.06370
C5 C 0.32794(17) 0.5281(2) -0.03268(13)
H3 H 0.33910 0.60130 -0.04620
C6 C 0.25214(15) 0.5069(2) -0.00286(11)
H4 H 0.21100 0.56420 0.00160
C7 C 0.16141(15) 0.3762(2) 0.05426(10)
C8 C 0.43357(15) 0.2351(2) -0.03399(10)
C9 C -0.13657(16) 0.7727(2) 0.22684(10)
C10 C -0.09919(16) 0.6768(2) 0.20173(10)
H5 H -0.05750 0.63540 0.22120
C11 C -0.12315(15) 0.6423(2) 0.14821(9)
C12 C -0.18702(16) 0.7018(2) 0.12097(11)
H6 H -0.20370 0.67900 0.08510
C13 C -0.22717(17) 0.7951(2) 0.14569(11)
H7 H -0.27110 0.83350 0.12690
C14 C -0.20131(17) 0.8306(2) 0.19877(10)
H8 H -0.22760 0.89360 0.21550
C15 C -0.10644(15) 0.8121(2) 0.28359(9)
C16 C -0.07498(15) 0.5463(2) 0.11937(11)
C17 C -0.10551(19) 0.3138(2) 0.26368(14)
H9 H -0.09230 0.35860 0.23090
N1 N -0.12198(16) 0.2017(2) 0.26300(12)
C18 C -0.1248(2) 0.1292(3) 0.21362(15)
H10 H -0.11460 0.17470 0.18060
H11 H -0.18060 0.09370 0.21100
H12 H -0.08120 0.07110 0.21650
C19 C -0.1141(3) 0.1667(4) 0.3253(2)
H13 H -0.12040 0.09220 0.33860
N2 N -0.0862(3) 0.3501(4) 0.32464(18)
C20 C -0.0971(3) 0.2563(4) 0.3573(2)
H14 H -0.09330 0.25510 0.39640
C21 C -0.0690(4) 0.4660(5) 0.3449(3)
H15 H -0.03470 0.50840 0.31780
H16 H -0.03850 0.46410 0.38050
C22 C -0.1624(5) 0.5234(7) 0.3523(4)
H17 H -0.15780 0.58960 0.37610
H18 H -0.20110 0.46910 0.36910
H19 H -0.18420 0.54600 0.31610
C23? C -0.1724(5) 0.2557(6) 0.3368(3)
C24? C -0.1646(5) 0.1622(6) 0.3033(3)
C25? C -0.1331(6) 0.4657(6) 0.3234(3)
C26? C -0.0940(4) 0.4966(6) 0.3756(3)
H20? H -0.19410 0.25830 0.37330
H21? H -0.18530 0.08820 0.30880
H22? H -0.10210 0.50670 0.29420
H23? H -0.19120 0.49680 0.32390
H24? H -0.11810 0.56770 0.38860
H25? H -0.03290 0.50530 0.37040
H26? H -0.10480 0.43770 0.40290
N3? N -0.1404(4) 0.3485(4) 0.3047(2)
Ni1C Ni 0.50000 0.00000 0.00000
Ni1C* Ni -0.50000 1.00000 0.00000
Ni2D Ni -0.046976(19) 0.64267(3) -0.123107(12)
Ni2C Ni 0.546976(19) 0.14267(3) -0.123107(12)
Ni2B Ni -0.046976(19) 0.85733(3) 0.376893(12)
Ni2G Ni -0.546976(19) 0.85733(3) 0.123107(12)
Ni2F Ni 0.046976(19) 0.14267(3) -0.376893(12)
O1D O -0.15795(11) 0.71259(14) -0.08386(7)
O2D O -0.09892(10) 0.55055(13) -0.05684(6)
O3D O -0.44279(9) 0.84169(13) -0.00153(6)
O3C O -0.05721(9) 0.34169(13) -0.00153(6)
O3G O 0.05721(9) 0.65831(13) 0.00153(6)
O4D O -0.46705(11) 0.75729(14) 0.08198(6)
O4C O -0.03295(11) 0.25729(14) 0.08198(6)
O4G O 0.03295(11) 0.74271(14) -0.08198(6)
O5D O 0.13573(11) 0.09981(15) -0.30551(7)
O5B O 0.13573(11) 0.40019(15) 0.19449(7)
O5F O -0.13573(11) 0.59981(15) -0.19449(7)
O6D O 0.04714(11) 0.24554(14) -0.30710(6)
O6B O 0.04714(11) 0.25446(14) 0.19290(6)
O6F O -0.04714(11) 0.74554(14) -0.19290(6)
O7D O 0.07311(10) 0.44904(14) -0.06680(6)
O8D O 0.03919(11) 0.52815(14) -0.15059(6)
C1D C -0.23919(15) 0.6001(2) -0.01992(9)
C2D C -0.30005(15) 0.6858(2) -0.01263(9)
H1D H -0.29180 0.75650 -0.02990
C3D C -0.37295(15) 0.6680(2) 0.01998(10)
C4D C -0.38650(17) 0.5586(2) 0.04224(12)
H2D H -0.43550 0.54420 0.06370
C5D C -0.32794(17) 0.4719(2) 0.03268(13)
H3D H -0.33910 0.39870 0.04620
C6D C -0.25214(15) 0.4931(2) 0.00286(11)
H4D H -0.21100 0.43580 -0.00160
C7D C -0.16141(15) 0.6238(2) -0.05426(10)
C8D C -0.43357(15) 0.7649(2) 0.03399(10)
C9D C 0.13657(16) 0.2273(2) -0.22684(10)
C10D C 0.09919(16) 0.3232(2) -0.20173(10)
H5D H 0.05750 0.36460 -0.22120
C11D C 0.12315(15) 0.3577(2) -0.14821(9)
C12D C 0.18702(16) 0.2982(2) -0.12097(11)
H6D H 0.20370 0.32100 -0.08510
C13D C 0.22717(17) 0.2049(2) -0.14569(11)
H7D H 0.27110 0.16650 -0.12690
C14D C 0.20131(17) 0.1694(2) -0.19877(10)
H8D H 0.22760 0.10640 -0.21550
C15D C 0.10644(15) 0.1879(2) -0.28359(9)
C16D C 0.07498(15) 0.4537(2) -0.11937(11)
#END
