
#######################################################################
#
#                 Cambridge Crystallographic Data Centre
#                                CCDC
#
#######################################################################
#
# If this CIF has been generated from an entry in the Cambridge
# Structural Database, then it will include bibliographic, chemical,
# crystal, experimental, refinement or atomic coordinate data resulting
# from the CCDC's data processing and validation procedures.
#
#######################################################################

data_CSD_CIF_DAFHOJ
_audit_creation_date 2011-12-12
_audit_creation_method CSD-ConQuest-V1
_database_code_CSD DAFHOJ
_database_code_depnum_ccdc_archive 'CCDC 809089'
_chemical_formula_sum 'C44 H38 Mn3 N4 O16'
_chemical_formula_moiety
;
(C32 H16 Mn3 O16 2-)n,2n(C6 H11 N2 1+)
;
_journal_coden_Cambridge 222
_journal_volume 40
_journal_year 2011
_journal_page_first 10237
_journal_name_full 'Dalton Trans. '
loop_
_publ_author_name
"Wen-Xian Chen"
"Gui-Lin Zhuang"
"Hai-Xia Zhao"
"La-Sheng Long"
"Rong-Bin Huang"
"Lan-Sun Zheng"
_chemical_name_systematic
;
catena-(bis(\m~4~-isophthalato)-bis(\m~3~-isophthalato)-tri-manganese(ii) 
bis(3-ethyl-1-methyl-1H-imidazol-3-ium))
;
_cell_volume   2139.340
_exptl_crystal_colour 'colorless'
_exptl_crystal_density_diffrn 1.62
_exptl_crystal_description 'block'
_diffrn_ambient_temperature 173
#These two values have been output from a single CSD field.
_refine_ls_R_factor_gt 0.0579
_refine_ls_wR_factor_gt 0.0579
_symmetry_cell_setting monoclinic
_symmetry_space_group_name_H-M 'P 21/c'
_symmetry_Int_Tables_number 14
loop_
_symmetry_equiv_pos_site_id
_symmetry_equiv_pos_as_xyz
1 x,y,z
2 -x,1/2+y,1/2-z
3 -x,-y,-z
4 x,-1/2-y,-1/2+z
_cell_length_a 13.092(3)
_cell_length_b 14.490(3)
_cell_length_c 12.640(3)
_cell_angle_alpha 90
_cell_angle_beta 116.85(3)
_cell_angle_gamma 90
_cell_formula_units_Z 2
loop_
_atom_type_symbol
_atom_type_radius_bond
C 0.68
H 0.23
Mn 1.51
N 0.68
O 0.68
loop_
_atom_site_label
_atom_site_type_symbol
_atom_site_fract_x
_atom_site_fract_y
_atom_site_fract_z
Mn1 Mn 0.00000 0.50000 0.00000
Mn2 Mn 0.27135(5) 0.44289(4) 0.24477(6)
O1 O -0.0285(3) 0.0569(2) 0.3283(3)
O2 O -0.1816(3) 0.0010(2) 0.1717(3)
O3 O 0.1928(3) 0.3047(2) 0.2548(3)
O4 O 0.1164(2) 0.3817(2) 0.0869(3)
O5 O 0.1442(3) 0.5735(2) 0.0055(3)
O6 O 0.3079(3) 0.5609(2) 0.1722(3)
O7 O 0.5839(3) 0.8351(2) 0.2554(3)
O8 O 0.5740(3) 0.9109(2) 0.0993(3)
C1 C -0.0642(4) 0.1059(3) 0.1350(4)
C2 C 0.0140(4) 0.1776(3) 0.1779(4)
H1 H 0.05540 0.18650 0.25920
C3 C 0.0314(4) 0.2367(3) 0.0998(4)
C4 C -0.0282(4) 0.2230(3) -0.0220(5)
H2 H -0.01740 0.26240 -0.07430
C5 C -0.1048(5) 0.1486(4) -0.0644(5)
H3 H -0.14440 0.13760 -0.14550
C6 C -0.1217(5) 0.0917(4) 0.0136(5)
H4 H -0.17280 0.04260 -0.01590
C7 C -0.0912(4) 0.0490(3) 0.2192(4)
C8 C 0.1180(4) 0.3126(3) 0.1504(4)
C9 C 0.2934(4) 0.6747(3) 0.0303(4)
C10 C 0.3919(4) 0.7229(3) 0.1076(4)
H5 H 0.42900 0.70700 0.18750
C11 C 0.4345(4) 0.7945(3) 0.0653(4)
C12 C 0.3799(4) 0.8161(3) -0.0560(4)
H6 H 0.40890 0.86290 -0.08500
C13 C 0.2834(4) 0.7682(3) -0.1325(5)
H7 H 0.24800 0.78210 -0.21300
C14 C 0.2395(4) 0.6989(3) -0.0884(4)
H8 H 0.17280 0.66850 -0.13950
C15 C 0.2437(4) 0.5977(3) 0.0719(4)
C16 C 0.5377(4) 0.8491(3) 0.1469(4)
C17 C 0.3069(5) 0.3768(4) 0.7214(5)
H9 H 0.26940 0.32830 0.73740
C18 C 0.4003(6) 0.5049(4) 0.7380(6)
H10 H 0.43700 0.56080 0.76760
C19 C 0.3895(4) 0.4611(4) 0.6377(5)
H11 H 0.41780 0.48080 0.58600
C20 C 0.2927(6) 0.3159(4) 0.5341(6)
H12 H 0.25140 0.26700 0.54900
H13 H 0.35870 0.29090 0.52980
H14 H 0.24400 0.34540 0.46030
C21 C 0.3290(13) 0.4739(6) 0.8882(9)
H15 H 0.39200 0.51280 0.94030
H16 H 0.25980 0.51050 0.86060
C22 C 0.3196(12) 0.4010(5) 0.9557(8)
H17 H 0.30920 0.42520 1.02090
H18 H 0.38810 0.36440 0.98560
H19 H 0.25510 0.36330 0.90700
N1 N 0.3290(4) 0.3827(3) 0.6291(4)
N2 N 0.3471(5) 0.4510(4) 0.7860(5)
Mn1A Mn 0.00000 0.00000 0.50000
Mn1A* Mn 0.00000 1.00000 -0.50000
Mn2B Mn -0.27135(5) 0.55711(4) -0.24477(6)
Mn2A Mn 0.72865(5) 0.94289(4) 0.25523(6)
Mn2C Mn -0.72865(5) 0.05711(4) -0.25523(6)
Mn2A* Mn -0.27135(5) -0.05711(4) 0.25523(6)
Mn2C* Mn 0.27135(5) 1.05711(4) -0.25523(6)
O1C O -0.0285(3) 0.4431(2) -0.1717(3)
O1A O 0.0285(3) 0.5569(2) 0.1717(3)
O1B O 0.0285(3) 0.9431(2) -0.3283(3)
O2C O -0.1816(3) 0.4990(2) -0.3283(3)
O2A O 0.1816(3) 0.5010(2) 0.3283(3)
O2B O 0.1816(3) 0.9990(2) -0.1717(3)
O3B O -0.1928(3) 0.6953(2) -0.2548(3)
O4B O -0.1164(2) 0.6183(2) -0.0869(3)
O5B O -0.1442(3) 0.4265(2) -0.0055(3)
O6B O -0.3079(3) 0.4391(2) -0.1722(3)
O7B O -0.5839(3) 0.1649(2) -0.2554(3)
O7A O 0.4161(3) 0.3351(2) 0.2446(3)
O7C O -0.4161(3) 0.6649(2) -0.2446(3)
O8B O -0.5740(3) 0.0891(2) -0.0993(3)
O8A O 0.4260(3) 0.4109(2) 0.4007(3)
O8C O -0.4260(3) 0.5891(2) -0.4007(3)
C1B C 0.0642(4) 0.8941(3) -0.1350(4)
C2B C -0.0140(4) 0.8224(3) -0.1779(4)
H1B H -0.05540 0.81350 -0.25920
C3B C -0.0314(4) 0.7633(3) -0.0998(4)
C4B C 0.0282(4) 0.7770(3) 0.0220(5)
H2B H 0.01740 0.73760 0.07430
C5B C 0.1048(5) 0.8514(4) 0.0644(5)
H3B H 0.14440 0.86240 0.14550
C6B C 0.1217(5) 0.9083(4) -0.0136(5)
H4B H 0.17280 0.95740 0.01590
C7B C 0.0912(4) 0.9510(3) -0.2192(4)
C8B C -0.1180(4) 0.6874(3) -0.1504(4)
C9B C -0.2934(4) 0.3253(3) -0.0303(4)
C10B C -0.3919(4) 0.2771(3) -0.1076(4)
H5B H -0.42900 0.29300 -0.18750
C11B C -0.4345(4) 0.2055(3) -0.0653(4)
C12B C -0.3799(4) 0.1839(3) 0.0560(4)
H6B H -0.40890 0.13710 0.08500
C13B C -0.2834(4) 0.2318(3) 0.1325(5)
H7B H -0.24800 0.21790 0.21300
C14B C -0.2395(4) 0.3011(3) 0.0884(4)
H8B H -0.17280 0.33150 0.13950
C15B C -0.2437(4) 0.4023(3) -0.0719(4)
C16B C -0.5377(4) 0.1509(3) -0.1469(4)
#END
