
#######################################################################
#
#                 Cambridge Crystallographic Data Centre
#                                CCDC
#
#######################################################################
#
# If this CIF has been generated from an entry in the Cambridge
# Structural Database, then it will include bibliographic, chemical,
# crystal, experimental, refinement or atomic coordinate data resulting
# from the CCDC's data processing and validation procedures.
#
#######################################################################

data_CSD_CIF_DAFHEZ
_audit_creation_date 2011-12-12
_audit_creation_method CSD-ConQuest-V1
_database_code_CSD DAFHEZ
_database_code_depnum_ccdc_archive 'CCDC 809087'
_chemical_formula_sum 'C44 H38 Co3 N4 O16'
_chemical_formula_moiety
;
(C32 H16 Co3 O16 2-)n,2n(C6 H11 N2 1+)
;
_journal_coden_Cambridge 222
_journal_volume 40
_journal_year 2011
_journal_page_first 10237
_journal_name_full 'Dalton Trans. '
loop_
_publ_author_name
"Wen-Xian Chen"
"Gui-Lin Zhuang"
"Hai-Xia Zhao"
"La-Sheng Long"
"Rong-Bin Huang"
"Lan-Sun Zheng"
_chemical_name_systematic
;
catena-(bis(\m~4~-isophthalato)-bis(\m~3~-isophthalato)-tri-cobalt(ii) 
bis(3-ethyl-1-methyl-1H-imidazol-3-ium))
;
_cell_volume   4421.923
_exptl_crystal_colour 'violet'
_exptl_crystal_density_diffrn 1.586
_exptl_crystal_description 'block'
_diffrn_ambient_temperature 293
#These two values have been output from a single CSD field.
_refine_ls_R_factor_gt 0.0637
_refine_ls_wR_factor_gt 0.0637
_symmetry_cell_setting orthorhombic
_symmetry_space_group_name_H-M 'P b c a'
_symmetry_Int_Tables_number 61
loop_
_symmetry_equiv_pos_site_id
_symmetry_equiv_pos_as_xyz
1 x,y,z
2 1/2-x,-y,1/2+z
3 -x,1/2+y,1/2-z
4 1/2+x,1/2-y,-z
5 -x,-y,-z
6 -1/2+x,y,-1/2-z
7 x,-1/2-y,-1/2+z
8 -1/2-x,-1/2+y,z
_cell_length_a 15.414(3)
_cell_length_b 11.877(2)
_cell_length_c 24.154(5)
_cell_angle_alpha 90
_cell_angle_beta 90
_cell_angle_gamma 90
_cell_formula_units_Z 4
loop_
_atom_type_symbol
_atom_type_radius_bond
C 0.68
H 0.23
Co 1.32
N 0.68
O 0.68
loop_
_atom_site_label
_atom_site_type_symbol
_atom_site_fract_x
_atom_site_fract_y
_atom_site_fract_z
Co1 Co 0.50000 0.50000 0.50000
Co2 Co 0.55003(5) 0.35951(6) 0.62469(3)
O1 O 0.4283(2) 0.5463(3) 0.56845(14)
O2 O 0.4691(3) 0.4810(4) 0.65159(16)
O3 O 0.3560(3) 0.9015(4) 0.79954(17)
O4 O 0.4458(3) 0.7596(4) 0.80559(16)
O5 O 0.3944(2) 0.5474(3) 0.44396(15)
O6 O 0.3334(3) 0.7013(4) 0.41325(17)
O7 O 0.0558(3) 0.8416(3) 0.50050(15)
O8 O 0.0288(3) 0.7584(3) 0.58232(16)
C1 C 0.3819(4) 0.6455(5) 0.6477(2)
C2 C 0.4020(4) 0.6808(5) 0.7000(2)
H1 H 0.44330 0.64150 0.72030
C3 C 0.3622(4) 0.7740(5) 0.7235(2)
C4 C 0.2995(4) 0.8301(5) 0.6935(2)
H2 H 0.27260 0.89310 0.70860
C5 C 0.2761(5) 0.7936(6) 0.6412(3)
H3 H 0.23280 0.83100 0.62170
C6 C 0.3169(4) 0.7020(6) 0.6179(2)
H4 H 0.30150 0.67770 0.58260
C7 C 0.4298(4) 0.5501(5) 0.6202(2)
C8 C 0.3894(4) 0.8154(5) 0.7795(2)
C9 C 0.2545(4) 0.5978(5) 0.4796(2)
C10 C 0.1956(4) 0.6831(5) 0.4878(2)
H5 H 0.20450 0.75230 0.47070
C11 C 0.1230(4) 0.6680(5) 0.5211(2)
C12 C 0.1076(5) 0.5616(6) 0.5424(3)
H6 H 0.05810 0.54860 0.56350
C13 C 0.1649(5) 0.4750(6) 0.5326(4)
H7 H 0.15360 0.40370 0.54670
C14 C 0.2396(5) 0.4935(5) 0.5018(3)
H8 H 0.27910 0.43550 0.49620
C15 C 0.3312(4) 0.6181(5) 0.4445(2)
C16 C 0.0626(4) 0.7632(5) 0.5347(2)
C17 C 0.6114(5) 0.6916(8) 0.2426(4)
H9 H 0.59340 0.64780 0.27240
C18 C 0.6489(12) 0.7447(10) 0.1605(5)
H10 H 0.66110 0.74270 0.12280
C19 C 0.6490(8) 0.8353(8) 0.1930(5)
H11 H 0.66310 0.90840 0.18270
C20 C 0.6192(6) 0.8701(7) 0.2921(4)
H12 H 0.60020 0.82540 0.32290
H13 H 0.57840 0.92980 0.28570
H14 H 0.67520 0.90170 0.30010
C21 C 0.6432(10) 0.5288(12) 0.1760(5)
H15 H 0.70110 0.51660 0.16150
H16 H 0.63220 0.47700 0.20630
C22 C 0.5793(9) 0.5223(11) 0.1346(5)
H17 H 0.57900 0.44790 0.11900
H18 H 0.59180 0.57620 0.10610
H19 H 0.52350 0.53820 0.15050
N1 N 0.6250(4) 0.8005(6) 0.2436(3)
N2 N 0.6274(7) 0.6558(6) 0.1932(4)
Co1C Co 0.00000 1.00000 0.50000
Co1C* Co 1.00000 0.00000 0.50000
Co2D Co 0.44997(5) 0.64049(6) 0.37531(3)
Co2B Co 0.44997(5) 0.85951(6) 0.87531(3)
Co2G Co -0.05003(5) 0.85951(6) 0.62469(3)
Co2F Co 0.55003(5) 0.14049(6) 0.12469(3)
Co2C Co 1.05003(5) 0.14049(6) 0.37531(3)
O1D O 0.5717(2) 0.4537(3) 0.43155(14)
O2D O 0.5309(3) 0.5190(4) 0.34841(16)
O3D O 0.6440(3) 0.0985(4) 0.20046(17)
O3B O 0.6440(3) 0.4015(4) 0.70046(17)
O3F O 0.3560(3) 0.5985(4) 0.29954(17)
O4D O 0.5542(3) 0.2404(4) 0.19441(16)
O4B O 0.5542(3) 0.2596(4) 0.69441(16)
O4F O 0.4458(3) 0.7404(4) 0.30559(16)
O5D O 0.6056(2) 0.4526(3) 0.55604(15)
O6D O 0.6666(3) 0.2987(4) 0.58675(17)
O7D O 0.9442(3) 0.1584(3) 0.49950(15)
O7C O 0.5558(3) 0.6584(3) 0.49950(15)
O7G O 0.4442(3) 0.3416(3) 0.50050(15)
O8D O 0.9712(3) 0.2416(3) 0.41768(16)
O8G O 0.4712(3) 0.2584(3) 0.58232(16)
O8C O 0.5288(3) 0.7416(3) 0.41768(16)
C1D C 0.6181(4) 0.3545(5) 0.3523(2)
C2D C 0.5980(4) 0.3192(5) 0.3000(2)
H1D H 0.55670 0.35850 0.27970
C3D C 0.6378(4) 0.2260(5) 0.2765(2)
C4D C 0.7005(4) 0.1699(5) 0.3065(2)
H2D H 0.72740 0.10690 0.29140
C5D C 0.7239(5) 0.2064(6) 0.3588(3)
H3D H 0.76720 0.16900 0.37830
C6D C 0.6831(4) 0.2980(6) 0.3821(2)
H4D H 0.69850 0.32230 0.41740
C7D C 0.5702(4) 0.4499(5) 0.3798(2)
C8D C 0.6106(4) 0.1846(5) 0.2205(2)
C9D C 0.7455(4) 0.4022(5) 0.5204(2)
C10D C 0.8044(4) 0.3169(5) 0.5122(2)
H5D H 0.79550 0.24770 0.52930
C11D C 0.8770(4) 0.3320(5) 0.4789(2)
C12D C 0.8924(5) 0.4384(6) 0.4576(3)
H6D H 0.94190 0.45140 0.43650
C13D C 0.8351(5) 0.5250(6) 0.4674(4)
H7D H 0.84640 0.59630 0.45330
C14D C 0.7604(5) 0.5065(5) 0.4982(3)
H8D H 0.72090 0.56450 0.50380
C15D C 0.6688(4) 0.3819(5) 0.5555(2)
C16D C 0.9374(4) 0.2368(5) 0.4653(2)
#END
