
#######################################################################
#
#                 Cambridge Crystallographic Data Centre
#                                CCDC
#
#######################################################################
#
# If this CIF has been generated from an entry in the Cambridge
# Structural Database, then it will include bibliographic, chemical,
# crystal, experimental, refinement or atomic coordinate data resulting
# from the CCDC's data processing and validation procedures.
#
#######################################################################

data_CSD_CIF_DAFJUS
_audit_creation_date 2016-12-12
_audit_creation_method CSD-ConQuest-V1
_database_code_CSD DAFJUS
_database_code_depnum_ccdc_archive 'CCDC 1447153'
_chemical_formula_sum 'C44 H33 Mg3 N7 O13'
_chemical_formula_moiety
;
C2 H8 N1 1+,n(C42 H25 Mg3 N6 O13 1-)
;
_journal_coden_Cambridge 1490
_journal_volume 7
_journal_year 2016
_journal_page_first 13645
_journal_name_full 'Nat.Commun. '
loop_
_publ_author_name
"Quan-Guo Zhai"
"Xianhui Bu"
"Chengyu Mao"
"Xiang Zhao"
"L.Daemen"
"Yongqiang Cheng"
"A.J.Ramirez-Cuesta"
"Pingyun Feng"
_chemical_name_systematic
;
catena-[Dimethylammonium 
tris(\m-benzene-1,4-dicarboxylato)-(\m-hydroxo)-(\m-2,4,6-tris(pyridin-4-yl)-1
,3,5-triazine)-tri-magnesium unknown solvate]
;
_chemical_name_common
;
CPM-143
;
_cell_volume   3751.129
_exptl_crystal_colour 'yellow'
_exptl_crystal_density_diffrn 0.833
_exptl_crystal_description 'polyhedron'
_diffrn_ambient_temperature 296
_refine_special_details
;
Disordered cation and solvent molecules were not modelled and the disordered 
density was taken into account using the SQUEEZE/PLATON procedure.
;
#These two values have been output from a single CSD field.
_refine_ls_R_factor_gt 0.0487
_refine_ls_wR_factor_gt 0.0487
_symmetry_cell_setting hexagonal
_symmetry_space_group_name_H-M 'P 63/m m c'
_symmetry_Int_Tables_number 194
loop_
_symmetry_equiv_pos_site_id
_symmetry_equiv_pos_as_xyz
1 x,y,z
2 x-y,x,1/2+z
3 -y,x-y,z
4 -x,-y,1/2+z
5 -x+y,-x,z
6 y,-x+y,1/2+z
7 -y,-x,1/2-z
8 x-y,-y,-z
9 x,x-y,1/2-z
10 y,x,-z
11 -x+y,y,1/2-z
12 -x,-x+y,-z
13 -x,-y,-z
14 -x+y,-x,-1/2-z
15 y,-x+y,-z
16 x,y,-1/2-z
17 x-y,x,-z
18 -y,x-y,-1/2-z
19 y,x,-1/2+z
20 -x+y,y,z
21 -x,-x+y,-1/2+z
22 -y,-x,z
23 x-y,-y,-1/2+z
24 x,x-y,z
_cell_length_a 17.0231(11)
_cell_length_b 17.0231(11)
_cell_length_c 14.947(3)
_cell_angle_alpha 90
_cell_angle_beta 90
_cell_angle_gamma 120
_cell_formula_units_Z 2
loop_
_atom_type_symbol
_atom_type_radius_bond
C 0.68
H 0.23
Mg 1.41
N 0.68
O 0.68
loop_
_atom_site_label
_atom_site_type_symbol
_atom_site_fract_x
_atom_site_fract_y
_atom_site_fract_z
Mg1 Mg 0.26589(4) 0.53177(8) 0.25000
N1 N 0.18963(11) 0.3793(2) 0.25000
O1 O 0.33330 0.66670 0.25000
O2 O 0.17569(10) 0.52249(9) 0.15414(10)
C1 C 0.2321(2) 0.3306(2) 0.25000
C2 C 0.14665(18) 0.57332(9) 0.12922(18)
H1 H 0.29520 0.36220 0.25000
C3 C 0.1890(2) 0.2377(2) 0.25000
C4 C 0.0707(2) 0.53533(10) 0.0625(2)
H2 H 0.22200 0.20770 0.25000
C5 C 0.09473(14) 0.1895(3) 0.25000
C6 C 0.03447(18) 0.44822(16) 0.03131(19)
C7 C 0.04373(14) 0.0875(3) 0.25000
H3 H 0.05670 0.41180 0.05270
N2 N 0.0931(2) 0.04654(11) 0.25000
O2J O 0.3468(1) 0.52249(9) 0.34586(10)
O2O O 0.17569(10) 0.52249(9) 0.34586(10)
O2S O 0.3468(1) 0.52249(9) 0.15414(10)
C1J C 0.0985(2) 0.3306(2) 0.25000
Mg1B Mg 0.46823(4) 0.73412(8) 0.25000
Mg1D Mg 0.26588(4) 0.73411(8) 0.25000
H1J H 0.06700 0.36220 0.25000
C3J C 0.0487(2) 0.2377(2) 0.25000
O2W O 0.17569(10) 0.65320(9) 0.15414(10)
H2J H -0.01430 0.20770 0.25000
C6W C 0.03447(18) 0.58625(16) 0.03131(19)
C6K C -0.03447(18) 0.41375(16) -0.03131(19)
C6L C -0.03447(18) 0.55178(16) -0.03131(19)
H3W H 0.05670 0.64490 0.05270
N2B N -0.04654(20) 0.04656(11) 0.25000
C4K C -0.0707(2) 0.46463(10) -0.0625(2)
H3K H -0.05670 0.35510 -0.05270
H3L H -0.05670 0.58820 -0.05270
C7D C 0.04377(14) -0.04373(30) 0.25000
C7B C -0.08750(14) -0.04377(30) 0.25000
C2K C -0.14665(18) 0.42667(9) -0.12922(18)
C5D C 0.09477(14) -0.09473(30) 0.25000
N2D N -0.04656(20) -0.09310(11) 0.25000
C5B C -0.18950(14) -0.09477(30) 0.25000
O2K O -0.17569(10) 0.34680(9) -0.15414(10)
O2L O -0.17569(10) 0.47751(9) -0.15414(10)
C3D C 0.0487(2) -0.1890(2) 0.25000
C3H C 0.1890(2) -0.0487(2) 0.25000
C3B C -0.2377(2) -0.0487(2) 0.25000
C3F C -0.2377(2) -0.1890(2) 0.25000
Mg1A Mg -0.26588(4) 0.26589(8) -0.25000
Mg1C Mg -0.26589(4) 0.46823(8) -0.25000
C1D C 0.0985(2) -0.2321(2) 0.25000
H2D H -0.01430 -0.22200 0.25000
C1H C 0.2321(2) -0.0985(2) 0.25000
H2H H 0.22200 0.01430 0.25000
C1B C -0.3306(2) -0.0985(2) 0.25000
H2B H -0.20770 0.01430 0.25000
C1F C -0.3306(2) -0.2321(2) 0.25000
H2F H -0.20770 -0.22200 0.25000
O2P O -0.3468(1) 0.17569(9) -0.15414(10)
H1D H 0.06700 -0.29520 0.25000
N1D N 0.18967(11) -0.18963(20) 0.25000
H1H H 0.29520 -0.06700 0.25000
H1B H -0.36220 -0.06700 0.25000
N1B N -0.37930(11) -0.18967(20) 0.25000
H1F H -0.36220 -0.29520 0.25000
C2I C -0.42668(18) 0.14665(9) -0.12922(18)
Mg1E Mg -0.46823(4) 0.26588(8) -0.25000
Mg1D* Mg 0.26588(4) -0.26589(8) 0.25000
Mg1B* Mg -0.53177(4) -0.26588(8) 0.25000
C4I C -0.46467(20) 0.0707(1) -0.0625(2)
O2I O -0.47751(10) 0.17569(9) -0.15414(10)
O2B O -0.52249(10) -0.34680(9) 0.15414(10)
O2U O -0.52249(10) -0.17569(9) 0.15414(10)
O1* O -0.66670 -0.33330 0.25000
O2F O -0.52249(10) -0.17569(9) 0.34586(10)
O2Q O -0.52249(10) -0.34680(9) 0.34586(10)
C6I C -0.55178(18) 0.03447(16) -0.03131(19)
C6P C -0.41375(18) 0.03447(16) -0.03131(19)
C2B C -0.57332(18) -0.42667(9) 0.12922(18)
C2D C -0.57333(18) -0.14665(9) 0.12922(18)
Mg1D** Mg -0.73412(4) -0.26589(8) 0.25000
Mg1* Mg -0.73411(4) -0.46823(8) 0.25000
C6D C -0.58625(18) -0.03447(16) 0.03131(19)
H3I H -0.58820 0.05670 -0.05270
H3P H -0.35510 0.05670 -0.05270
C6U C -0.44822(18) -0.03447(16) 0.03131(19)
C4B C -0.53533(20) -0.46463(10) 0.0625(2)
O2S* O -0.6532(1) -0.47751(9) 0.15414(10)
C4D C -0.53537(20) -0.0707(1) 0.0625(2)
O2D O -0.6532(1) -0.17569(9) 0.15414(10)
N1D* N -0.81033(11) -0.18963(20) 0.25000
O2H O -0.82431(10) -0.34680(9) 0.34586(10)
O2M O -0.6532(1) -0.17569(9) 0.34586(10)
O2W* O -0.82431(10) -0.34680(9) 0.15414(10)
H3D H -0.64490 -0.05670 0.05270
H3U H -0.41180 -0.05670 0.05270
C6B C -0.44822(18) -0.41375(16) 0.03131(19)
C6S C -0.58625(18) -0.55178(16) 0.03131(19)
H3B H -0.41180 -0.35510 0.05270
C6G C -0.41375(18) -0.44822(16) -0.03131(19)
C6N C -0.55178(18) -0.58625(16) -0.03131(19)
H3S H -0.64490 -0.58820 0.05270
C4G C -0.46463(20) -0.53533(10) -0.0625(2)
H3G H -0.35510 -0.41180 -0.05270
H3N H -0.58820 -0.64490 -0.05270
C2G C -0.42667(18) -0.57332(9) -0.12922(18)
O2G O -0.3468(1) -0.52249(9) -0.15414(10)
O2N O -0.47751(10) -0.65320(9) -0.15414(10)
Mg1C* Mg -0.26589(4) -0.53177(8) -0.25000
Mg1E* Mg -0.46823(4) -0.73412(8) -0.25000
#END
