
#######################################################################
#
#                 Cambridge Crystallographic Data Centre
#                                CCDC
#
#######################################################################
#
# If this CIF has been generated from an entry in the Cambridge
# Structural Database, then it will include bibliographic, chemical,
# crystal, experimental, refinement or atomic coordinate data resulting
# from the CCDC's data processing and validation procedures.
#
#######################################################################

data_CSD_CIF_DAFWEN
_audit_creation_date 2004-12-02
_audit_creation_method CSD-ConQuest-V1
_database_code_CSD DAFWEN
_database_code_depnum_ccdc_archive 'CCDC 247383'
_chemical_formula_sum 'C18 H20 Cu1 N8 O11'
_chemical_formula_moiety
;
(C12 H4 Cu1 N4 O8 2-)n,2n(C3 H5 N2 1+),3n(H2 O1)
;
_journal_coden_Cambridge 1295
_journal_volume 7
_journal_year 2004
_journal_page_first 912
_journal_name_full 'Inorg.Chem.Commun. '
loop_
_publ_author_name
"Xin-Hua Li"
"Qian Shi"
"Mao-Lin Hu"
"Hong-Ping Xiao"
_chemical_name_systematic
;
catena-(bis(Imidazolium) bis(\m~2~-2,3-pyrazinedicarboxylato-N,O,O')-copper 
trihydrate)
;
_cell_volume    585.921
_exptl_crystal_colour 'green'
_exptl_crystal_density_diffrn 1.666
_exptl_crystal_description 'prism'
_diffrn_ambient_temperature 273
#These two values have been output from a single CSD field.
_refine_ls_R_factor_gt 0.0596
_refine_ls_wR_factor_gt 0.0596
_symmetry_cell_setting triclinic
_symmetry_space_group_name_H-M 'P -1'
_symmetry_Int_Tables_number 2
loop_
_symmetry_equiv_pos_site_id
_symmetry_equiv_pos_as_xyz
1 x,y,z
2 -x,-y,-z
_cell_length_a 6.4779(13)
_cell_length_b 8.0458(16)
_cell_length_c 11.314(2)
_cell_angle_alpha 93.19(3)
_cell_angle_beta 91.06(3)
_cell_angle_gamma 95.47(3)
_cell_formula_units_Z 1
loop_
_atom_type_symbol
_atom_type_radius_bond
C 0.68
H 0.23
Cu 1.52
N 0.68
O 0.68
loop_
_atom_site_label
_atom_site_type_symbol
_atom_site_fract_x
_atom_site_fract_y
_atom_site_fract_z
Cu1 Cu 1.00000 0.00000 1.00000
H1 H 0.596(12) 0.17(1) 0.442(7)
H2 H 0.479(10) 0.173(8) 0.552(5)
H3 H 0.641(8) 0.497(7) 0.899(5)
H4 H 1.039(11) 0.757(9) 0.724(6)
H5 H 0.898(8) 0.361(6) 0.988(4)
H6 H 0.77(1) 0.401(9) 0.581(6)
H7? H 0.96(2) -0.07(2) 0.523(15)
H8? H 0.98(2) 0.081(19) 0.516(14)
H9 H 0.752(9) 0.660(8) 0.618(5)
H10 H 1.057(12) 0.298(10) 0.649(7)
H11 H 1.255(11) 0.551(9) 0.758(6)
O1 O 0.8025(4) -0.1809(3) 0.9335(3)
O2 O 0.5428(6) 0.2452(5) 0.4980(4)
O3 O 0.5194(5) -0.2270(4) 0.8178(3)
O4 O 0.1494(4) -0.0167(4) 0.8058(3)
O5 O 0.3229(5) 0.0302(4) 0.6421(3)
O6 O 0.8889(12) 0.0045(12) 0.5777(7)
N1 N 0.7962(5) 0.1430(4) 0.9375(3)
N2 N 0.4863(6) 0.2993(4) 0.8298(3)
N3 N 1.0157(7) 0.6640(6) 0.7014(4)
N4 N 0.8507(7) 0.4469(6) 0.6181(4)
C1 C 0.6389(6) 0.0530(5) 0.8772(3)
C2 C 0.4841(6) 0.1311(5) 0.8235(3)
C3 C 0.6430(7) 0.3852(5) 0.8915(4)
C4 C 0.7966(7) 0.3086(5) 0.9456(4)
C5 C 0.6517(6) -0.1349(5) 0.8743(4)
C6 C 0.3038(6) 0.0385(5) 0.7520(4)
C7 C 0.8461(9) 0.6086(7) 0.6409(5)
C8 C 1.029(1) 0.3993(8) 0.6657(5)
C9 C 1.1310(9) 0.5354(8) 0.7173(5)
H3A H 1.359(8) -0.497(7) 1.101(5)
H5A H 1.102(8) -0.361(6) 1.012(4)
O1A O 1.1975(4) 0.1809(3) 1.0665(3)
O3A O 1.4806(5) 0.2270(4) 1.1822(3)
O4A O 1.8506(4) 0.0167(4) 1.1942(3)
O5A O 1.6771(5) -0.0302(4) 1.3579(3)
N1A N 1.2038(5) -0.1430(4) 1.0625(3)
N2A N 1.5137(6) -0.2993(4) 1.1702(3)
C1A C 1.3611(6) -0.0530(5) 1.1228(3)
C2A C 1.5159(6) -0.1311(5) 1.1765(3)
C3A C 1.3570(7) -0.3852(5) 1.1085(4)
C4A C 1.2034(7) -0.3086(5) 1.0544(4)
C5A C 1.3483(6) 0.1349(5) 1.1257(4)
C6A C 1.6962(6) -0.0385(5) 1.2480(4)
O4* O 1.1494(4) -0.0167(4) 0.8058(3)
O4A* O 0.8506(4) 0.0167(4) 1.1942(3)
Cu1* Cu 0.00000 0.00000 1.00000
Cu1** Cu 2.00000 0.00000 1.00000
#END
