
#######################################################################
#
#                 Cambridge Crystallographic Data Centre
#                                CCDC
#
#######################################################################
#
# If this CIF has been generated from an entry in the Cambridge
# Structural Database, then it will include bibliographic, chemical,
# crystal, experimental, refinement or atomic coordinate data resulting
# from the CCDC's data processing and validation procedures.
#
#######################################################################

data_CSD_CIF_DAGFEZ
_audit_creation_date 2016-12-12
_audit_creation_method CSD-ConQuest-V1
_database_code_CSD DAGFEZ
_database_code_depnum_ccdc_archive 'CCDC 1522271'
_chemical_formula_sum 'C16 H13 Bi2 F18 N1 O13'
_chemical_formula_moiety
;
C4 H12 N1 1+,n(C10 Bi2 F15 O11 1-),C2 H1 F3 O2
;
_journal_coden_Cambridge 9
_journal_volume 55
_journal_year 2016
_journal_page_first 11560
_journal_name_full 'Inorg.Chem. '
loop_
_publ_author_name
"I.I.L.Fernandez"
"S.Donaldson"
"D.E.Schipper"
"S.Andleeb"
"K.Whitmire"
_chemical_name_systematic
;
catena-[Tetramethylammonium 
tetrakis(\m-trifluoroacetato)-(\m-oxo)-(trifluoroacetato)-di-bismuth 
trifluoroacetic acid solvate]
;
_cell_volume   1536.927
_exptl_crystal_colour 'faint yellow'
_exptl_crystal_density_diffrn 2.563
_exptl_crystal_description 'Blocks'
_diffrn_ambient_temperature 173
#These two values have been output from a single CSD field.
_refine_ls_R_factor_gt 0.0393
_refine_ls_wR_factor_gt 0.0393
_symmetry_cell_setting triclinic
_symmetry_space_group_name_H-M 'P -1'
_symmetry_Int_Tables_number 2
loop_
_symmetry_equiv_pos_site_id
_symmetry_equiv_pos_as_xyz
1 x,y,z
2 -x,-y,-z
_cell_length_a 9.429(3)
_cell_length_b 13.001(5)
_cell_length_c 13.971(5)
_cell_angle_alpha 113.359(5)
_cell_angle_beta 96.626(2)
_cell_angle_gamma 96.678(3)
_cell_formula_units_Z 2
loop_
_atom_type_symbol
_atom_type_radius_bond
C 0.68
H 0.23
Bi 1.48
F 0.64
N 0.68
O 0.68
loop_
_atom_site_label
_atom_site_type_symbol
_atom_site_fract_x
_atom_site_fract_y
_atom_site_fract_z
Bi1 Bi 0.82518(2) -0.44264(2) 0.44038(2)
Bi2 Bi 0.43695(2) -0.60421(2) 0.36930(2)
C1 C 0.7736(5) -0.7001(4) 0.4368(4)
C2 C 0.8203(7) -0.7954(5) 0.4668(5)
C3 C 0.6879(6) -0.2116(4) 0.5177(5)
C4 C 0.6963(8) -0.0932(5) 0.5158(6)
C5 C 0.9525(5) -0.3430(5) 0.7030(4)
C6 C 0.9978(7) -0.2300(6) 0.8010(5)
C7 C 0.3077(7) -0.4884(6) 0.2504(5)
C8 C 0.2687(11) -0.3965(8) 0.2148(6)
C9 C 0.7177(6) -0.5191(5) 0.2150(4)
C10 C 0.6522(9) -0.5942(7) 0.0990(5)
O1 O 0.8628(4) -0.6082(3) 0.4765(3)
O2 O 0.6592(4) -0.7248(3) 0.3763(3)
O3 O 0.7516(4) -0.2763(3) 0.4493(3)
O4 O 0.6233(5) -0.2280(3) 0.5816(3)
O5 O 0.8478(4) -0.3470(3) 0.6344(3)
O6 O 1.0253(5) -0.4155(4) 0.6992(3)
O7 O 0.3746(5) -0.4500(4) 0.3459(3)
O8 O 0.2779(6) -0.5870(4) 0.1867(4)
O9 O 0.6682(4) -0.5491(4) 0.2823(3)
O10 O 0.8112(5) -0.4363(4) 0.2353(4)
O11 O 0.6225(3) -0.4814(3) 0.4789(3)
F1 F 0.8508(11) -0.8750(6) 0.3854(5)
F2 F 0.7109(5) -0.8432(5) 0.4952(6)
F3 F 0.9267(5) -0.7612(4) 0.5456(4)
F4 F 0.6389(9) -0.0245(5) 0.5873(6)
F5 F 0.8299(6) -0.0480(5) 0.5203(7)
F6 F 0.6268(8) -0.1005(5) 0.4256(6)
F7 F 0.9088(9) -0.1620(6) 0.8109(7)
F8 F 1.0169(8) -0.2438(6) 0.8881(4)
F9 F 1.1241(7) -0.1790(5) 0.7987(4)
F10 F 0.1779(9) -0.4384(7) 0.1251(5)
F11 F 0.2144(15) -0.3220(8) 0.2812(6)
F12 F 0.3819(9) -0.3459(7) 0.1954(8)
F13 F 0.5541(8) -0.6797(6) 0.0861(4)
F14 F 0.7486(8) -0.6393(7) 0.0457(4)
F15 F 0.5959(10) -0.5364(6) 0.0529(5)
C11 C 0.4323(8) -0.9202(5) 0.1776(5)
C12 C 0.3524(12) -1.0360(7) 0.0977(7)
O12 O 0.5332(6) -0.9310(4) 0.2415(4)
H1 H 0.57570 -0.86770 0.28430
O13 O 0.3976(6) -0.8348(4) 0.1781(4)
F16 F 0.2578(14) -1.0306(7) 0.0289(8)
F17 F 0.4329(10) -1.0983(7) 0.0466(9)
F18 F 0.2862(14) -1.0942(8) 0.1356(7)
C13 C 1.9366(12) -0.1502(10) 0.2531(8)
H2 H 1.93570 -0.20520 0.28300
H3 H 1.90400 -0.08400 0.29970
H4 H 2.03350 -0.12890 0.24420
C14 C 1.8367(14) -0.1170(9) 0.0997(10)
H5 H 1.77330 -0.15100 0.03220
H6 H 1.93310 -0.09480 0.09050
H7 H 1.80280 -0.05110 0.14560
C15 C 1.6889(10) -0.2307(9) 0.1683(9)
H8 H 1.69090 -0.28310 0.20110
H9 H 1.62170 -0.26530 0.10250
H10 H 1.65910 -0.16290 0.21450
C16 C 1.8927(13) -0.3015(7) 0.0777(7)
H11 H 1.89570 -0.35490 0.10920
H12 H 1.98860 -0.27800 0.06840
H13 H 1.82940 -0.33680 0.01010
N1 N 1.8380(6) -0.2008(4) 0.1478(4)
Bi1A Bi 1.17482(2) -0.55736(2) 0.55962(2)
Bi2A Bi 0.56305(2) -0.39579(2) 0.63070(2)
O1A O 1.1372(4) -0.3918(3) 0.5235(3)
O4A O 0.3767(5) -0.7720(3) 0.4184(3)
O5A O 0.1522(4) -0.6530(3) 0.3656(3)
O6A O 0.9747(5) -0.5845(4) 0.3008(3)
O11A O 0.3775(3) -0.5186(3) 0.5211(3)
#END
