
#######################################################################
#
#                 Cambridge Crystallographic Data Centre
#                                CCDC
#
#######################################################################
#
# If this CIF has been generated from an entry in the Cambridge
# Structural Database, then it will include bibliographic, chemical,
# crystal, experimental, refinement or atomic coordinate data resulting
# from the CCDC's data processing and validation procedures.
#
#######################################################################

data_CSD_CIF_DAHCAS
_audit_creation_date 2012-07-19
_audit_creation_method CSD-ConQuest-V1
_database_code_CSD DAHCAS
_database_code_depnum_ccdc_archive 'CCDC 818796'
_chemical_formula_sum 'C145 H159 Cd6 N29 Na2 O30'
_chemical_formula_moiety
;
(C120 H72 Cd6 N18 Na2 O24 4-)n,6n(C2 H8 N1 1+),2n(C2 H6 N1 1-),3n(C3 H7 N1 
O1),3n(H2 O1)
;
_journal_coden_Cambridge 222
_journal_volume 40
_journal_year 2011
_journal_page_first 10319
_journal_name_full 'Dalton Trans. '
loop_
_publ_author_name
"Yun-Wu Li"
"Li-Fu Wang"
"Kun-Huan He"
"Qiang Chen"
"Xian-He Bu"
_chemical_name_systematic
;
catena-(hexakis(Dimethylammonium) bis(dimethylamide) 
tris(\m~4~-biphenyl-4,4'-dicarboxylato)-hexakis(\m~3~-benzotriazolato)-tris(\m
~2~-biphenyl-4,4'-dicarboxylato)-hexa-cadmium-di-sodium dimethylformamide 
solvate trihydrate)
;
_cell_volume   7508.371
_exptl_crystal_colour 'colorless'
_exptl_crystal_description 'block'
_diffrn_ambient_temperature 123
_refine_special_details
;
C21,C22,C23 disordered by symmetry over two sites with occupancy 0.50; 
C25,C26 disordered by symmetry over two sites with occupancy 0.50. The 
SQUEEZE/PLATON program was used to model some disorder.
;
#These two values have been output from a single CSD field.
_refine_ls_R_factor_gt 0.0593
_refine_ls_wR_factor_gt 0.0593
_symmetry_cell_setting hexagonal
_symmetry_space_group_name_H-M 'P 63 2 2'
_symmetry_Int_Tables_number 182
loop_
_symmetry_equiv_pos_site_id
_symmetry_equiv_pos_as_xyz
1 x,y,z
2 x-y,x,1/2+z
3 -y,x-y,z
4 -x,-y,1/2+z
5 -x+y,-x,z
6 y,-x+y,1/2+z
7 -y,-x,1/2-z
8 x-y,-y,-z
9 x,x-y,1/2-z
10 y,x,-z
11 -x+y,y,1/2-z
12 -x,-x+y,-z
_cell_length_a 18.643(3)
_cell_length_b 18.643(3)
_cell_length_c 24.945(5)
_cell_angle_alpha 90
_cell_angle_beta 90
_cell_angle_gamma 120
_cell_formula_units_Z 2
loop_
_atom_type_symbol
_atom_type_radius_bond
C 0.68
H 0.23
Cd 1.47
N 0.68
Na 1.66
O 0.68
loop_
_atom_site_label
_atom_site_type_symbol
_atom_site_fract_x
_atom_site_fract_y
_atom_site_fract_z
Cd1 Cd 0.80800(3) 0.54846(3) -0.562258(19)
Na1 Na 0.66670 0.33330 -0.51369(10)
O1 O 0.2888(3) 1.00000 0.00000
O2 O 0.7493(5) 0.4667(3) -0.47674(17)
O3 O 0.8334(6) 0.5994(3) -0.47681(18)
O4 O 0.9221(6) 0.6828(4) -0.5809(2)
O5 O 0.8411(7) 0.6180(5) -0.6464(3)
N1 N 0.6126(4) 0.1593(3) -0.5891(2)
N2 N 0.5857(4) 0.2089(3) -0.5708(2)
N3 N 0.5089(5) 0.1837(3) -0.5894(2)
C1 C 0.7880(7) 0.5333(4) -0.4525(2)
C2 C 0.7814(7) 0.5345(4) -0.3926(2)
C3 C 0.8366(7) 0.6029(4) -0.3635(3)
H1 H 0.87910 0.65000 -0.38140
C4 C 0.8300(7) 0.6028(4) -0.3075(2)
H2 H 0.86810 0.65070 -0.28800
C5 C 0.7705(6) 0.5359(3) -0.2798(2)
C6 C 0.7147(6) 0.4687(3) -0.3103(2)
H3 H 0.67140 0.42170 -0.29280
C7 C 0.7208(7) 0.4687(4) -0.3661(2)
H4 H 0.68180 0.42170 -0.38580
C8 C 0.9012(8) 0.6811(6) -0.6264(3)
C9 C 0.9516(6) 0.7529(5) -0.6641(3)
C10 C 1.0005(8) 0.8330(6) -0.6433(3)
H5 H 0.99970 0.84350 -0.60610
C11 C 1.0496(8) 0.8959(5) -0.6779(3)
H6 H 1.08230 0.95050 -0.66430
C12 C 1.0527(6) 0.8816(4) -0.7325(3)
C13 C 1.0010(6) 0.8041(5) -0.7520(3)
H7 H 1.00050 0.79470 -0.78950
C14 C 0.9490(6) 0.7386(5) -0.7190(3)
H8 H 0.91260 0.68540 -0.73350
C15 C 0.5527(6) 0.0987(4) -0.6196(3)
C16 C 0.5497(8) 0.0318(5) -0.6466(3)
H9 H 0.59530 0.02240 -0.64680
C17 C 0.4767(11) -0.0202(7) -0.6732(5)
H10 H 0.47090 -0.06780 -0.69110
C18 C 0.4110(11) -0.0038(7) -0.6743(4)
H11 H 0.36280 -0.03920 -0.69440
C19 C 0.4141(9) 0.0604(5) -0.6477(3)
H12 H 0.36800 0.06910 -0.64780
C20 C 0.4870(8) 0.1142(5) -0.6198(3)
O6? O 0.4101(10) 0.00000 1.00000
N4? N 0.5273(9) 0.00000 1.00000
C21? C 0.4809(12) 0.0363(16) 0.9806(11)
H13? H 0.49920 0.07840 0.95350
C22? C 0.501(2) -0.0722(13) 1.0338(10)
H14? H 0.44320 -0.09840 1.04240
H15? H 0.51230 -0.11130 1.01600
H16? H 0.53310 -0.05350 1.06610
C23? C 0.6091(12) 0.0514(18) 0.9768(12)
H17? H 0.61100 0.09420 0.95440
H18? H 0.64630 0.07600 1.00650
H19? H 0.62540 0.01830 0.95640
N5 N 0.00000 0.8129(19) 1.00000
C24 C -0.017(3) 0.778(2) 0.9458(10)
H20 H -0.00040 0.79830 0.91000
H21 H -0.01310 0.72900 0.95090
H22 H -0.07360 0.76450 0.95130
C25? C 0.0851(12) 0.8824(13) 1.0058(17)
H23? H 0.12210 0.92620 1.02920
H24 H -0.02920 0.84040 0.98740
H25? H 0.08970 0.83410 1.01220
Cd1J Cd 0.74046(3) 0.54846(3) 0.062258(19)
Cd1B Cd 0.45154(3) 0.25954(3) -0.562258(19)
Cd1F Cd 0.45154(3) 0.19200(3) 0.062258(19)
Cd1D Cd 0.74046(3) 0.19200(3) -0.562258(19)
Cd1H Cd 0.80800(3) 0.25954(3) 0.062258(19)
Cd1F* Cd 1.45154(3) 1.19200(3) -0.937742(19)
Cd1D* Cd 0.74046(3) 1.19200(3) 0.437742(19)
Cd1H* Cd -0.19200(3) 0.25954(3) -0.937742(19)
Na1J Na 0.66660 0.33330 0.01369(10)
O2J O 0.7174(5) 0.4667(3) -0.02326(17)
O2B O 0.5333(5) 0.2826(3) -0.47674(17)
O2F O 0.5333(5) 0.2507(3) -0.02326(17)
O2D O 0.7174(5) 0.2507(3) -0.47674(17)
O2H O 0.7493(5) 0.2826(3) -0.02326(17)
O3J O 0.7660(6) 0.5994(3) -0.02319(18)
O3B O 0.4006(6) 0.2340(3) -0.47681(18)
O3F O 0.4006(6) 0.1666(3) -0.02319(18)
O3D O 0.7660(6) 0.1666(3) -0.47681(18)
O3H O 0.8334(6) 0.2340(3) -0.02319(18)
O4F O 1.3172(6) 1.0779(4) -0.9191(2)
O4J O 0.7607(6) 0.6828(4) 0.0809(2)
O4D O 0.7607(6) 1.0779(4) 0.4191(2)
O4B O 0.3172(6) 0.2393(4) -0.5809(2)
O4H O -0.0779(6) 0.2393(4) -0.9191(2)
O4F* O 0.3172(6) 0.0779(4) 0.0809(2)
O4D* O 0.7607(6) 0.0779(4) -0.5809(2)
O4H* O 0.9221(6) 0.2393(4) 0.0809(2)
O5F O 1.3820(7) 1.1589(5) -0.8536(3)
O5J O 0.7769(7) 0.6180(5) 0.1464(3)
O5D O 0.7769(7) 1.1589(5) 0.3536(3)
O5B O 0.3820(7) 0.2231(5) -0.6464(3)
O5H O -0.1589(7) 0.2231(5) -0.8536(3)
O5F* O 0.3820(7) 0.1589(5) 0.1464(3)
O5D* O 0.7769(7) 0.1589(5) -0.6464(3)
O5H* O 0.8411(7) 0.2231(5) 0.1464(3)
N1B N 0.8407(4) 0.4533(3) -0.5891(2)
N1D N 0.5467(4) 0.3874(3) -0.5891(2)
N1J N 0.5467(4) 0.1593(3) 0.0891(2)
N1H N 0.6126(4) 0.4533(3) 0.0891(2)
N1F N 0.8407(4) 0.3874(3) 0.0891(2)
N2B N 0.7911(4) 0.3768(3) -0.5708(2)
N2D N 0.6232(4) 0.4143(3) -0.5708(2)
N2J N 0.6232(4) 0.2089(3) 0.0708(2)
N2H N 0.5857(4) 0.3768(3) 0.0708(2)
N2F N 0.7911(4) 0.4143(3) 0.0708(2)
N3B N 0.8163(5) 0.3252(3) -0.5894(2)
N3D N 0.6748(5) 0.4911(3) -0.5894(2)
N3J N 0.6748(5) 0.1837(3) 0.0894(2)
N3H N 0.5089(5) 0.3252(3) 0.0894(2)
N3F N 0.8163(5) 0.4911(3) 0.0894(2)
C1J C 0.7453(7) 0.5333(4) -0.0475(2)
C1B C 0.4667(7) 0.2547(4) -0.4525(2)
C1F C 0.4667(7) 0.2120(4) -0.0475(2)
C1D C 0.7453(7) 0.2120(4) -0.4525(2)
C1H C 0.7880(7) 0.2547(4) -0.0475(2)
C2J C 0.7531(7) 0.5345(4) -0.1074(2)
C2B C 0.4655(7) 0.2469(4) -0.3926(2)
C2F C 0.4655(7) 0.2186(4) -0.1074(2)
C2D C 0.7531(7) 0.2186(4) -0.3926(2)
C2H C 0.7814(7) 0.2469(4) -0.1074(2)
C3J C 0.7663(7) 0.6029(4) -0.1365(3)
C3B C 0.3971(7) 0.2337(4) -0.3635(3)
C3F C 0.3971(7) 0.1634(4) -0.1365(3)
C3D C 0.7663(7) 0.1634(4) -0.3635(3)
C3H C 0.8366(7) 0.2337(4) -0.1365(3)
H1J H 0.77090 0.65000 -0.11860
H1B H 0.35000 0.22910 -0.38140
H1F H 0.35000 0.12090 -0.11860
H1D H 0.77090 0.12090 -0.38140
H1H H 0.87910 0.22910 -0.11860
C4J C 0.7728(7) 0.6028(4) -0.1925(2)
C4B C 0.3972(7) 0.2272(4) -0.3075(2)
C4F C 0.3972(7) 0.1700(4) -0.1925(2)
C4D C 0.7728(7) 0.1700(4) -0.3075(2)
C4H C 0.8300(7) 0.2272(4) -0.1925(2)
H2J H 0.78260 0.65070 -0.21200
H2B H 0.34930 0.21740 -0.28800
H2F H 0.34930 0.13190 -0.21200
H2D H 0.78260 0.13190 -0.28800
H2H H 0.86810 0.21740 -0.21200
C5J C 0.7654(6) 0.5359(3) -0.2202(2)
C5B C 0.4641(6) 0.2346(3) -0.2798(2)
C5F C 0.4641(6) 0.2295(3) -0.2202(2)
C5D C 0.7654(6) 0.2295(3) -0.2798(2)
C5H C 0.7705(6) 0.2346(3) -0.2202(2)
C6J C 0.7540(6) 0.4687(3) -0.1897(2)
C6B C 0.5313(6) 0.2460(3) -0.3103(2)
C6F C 0.5313(6) 0.2853(3) -0.1897(2)
C6D C 0.7540(6) 0.2853(3) -0.3103(2)
C6H C 0.7147(6) 0.2460(3) -0.1897(2)
H3J H 0.75030 0.42170 -0.20720
H3B H 0.57830 0.24970 -0.29280
H3F H 0.57830 0.32860 -0.20720
H3D H 0.75030 0.32860 -0.29280
H3H H 0.67140 0.24970 -0.20720
C7J C 0.7479(7) 0.4687(4) -0.1339(2)
C7B C 0.5313(7) 0.2521(4) -0.3661(2)
C7F C 0.5313(7) 0.2792(4) -0.1339(2)
C7D C 0.7479(7) 0.2792(4) -0.3661(2)
C7H C 0.7208(7) 0.2521(4) -0.1339(2)
H4J H 0.73990 0.42170 -0.11420
H4B H 0.57830 0.26010 -0.38580
H4F H 0.57830 0.31820 -0.11420
H4D H 0.73990 0.31820 -0.38580
H4H H 0.68180 0.26010 -0.11420
C8F C 1.3189(8) 1.0988(6) -0.8736(3)
C8J C 0.7799(8) 0.6811(6) 0.1264(3)
C8D C 0.7799(8) 1.0988(6) 0.3736(3)
C8B C 0.3189(8) 0.2201(6) -0.6264(3)
C8H C -0.0988(8) 0.2201(6) -0.8736(3)
C9F C 1.2471(6) 1.0484(5) -0.8359(3)
C9J C 0.8013(6) 0.7529(5) 0.1641(3)
C9D C 0.8013(6) 1.0484(5) 0.3359(3)
C9B C 0.2471(6) 0.1987(5) -0.6641(3)
C9H C -0.0484(6) 0.1987(5) -0.8359(3)
C10F C 1.1670(8) 0.9995(6) -0.8567(3)
C10J C 0.8325(8) 0.8330(6) 0.1433(3)
C10D C 0.8325(8) 0.9995(6) 0.3567(3)
C10B C 0.1670(8) 0.1675(6) -0.6433(3)
C10H C 0.0005(8) 0.1675(6) -0.8567(3)
H5F H 1.15650 1.00030 -0.89390
H5J H 0.84380 0.84350 0.10610
H5D H 0.84380 1.00030 0.39390
H5B H 0.15650 0.15620 -0.60610
H5H H -0.00030 0.15620 -0.89390
C11F C 1.1041(8) 0.9504(5) -0.8221(3)
C11J C 0.8463(8) 0.8959(5) 0.1779(3)
C11D C 0.8463(8) 0.9504(5) 0.3221(3)
C11B C 0.1041(8) 0.1537(5) -0.6779(3)
C11H C 0.0496(8) 0.1537(5) -0.8221(3)
H6F H 1.04950 0.91770 -0.83570
H6J H 0.86820 0.95050 0.16430
H6D H 0.86820 0.91770 0.33570
H6B H 0.04950 0.13180 -0.66430
H6H H 0.08230 0.13180 -0.83570
C12F C 1.1184(6) 0.9473(4) -0.7675(3)
C12J C 0.8289(6) 0.8816(4) 0.2325(3)
C12D C 0.8289(6) 0.9473(4) 0.2675(3)
C12B C 0.1184(6) 0.1711(4) -0.7325(3)
C12H C 0.0527(6) 0.1711(4) -0.7675(3)
C13F C 1.1959(6) 0.9990(5) -0.7480(3)
C13J C 0.8031(6) 0.8041(5) 0.2520(3)
C13D C 0.8031(6) 0.9990(5) 0.2480(3)
C13B C 0.1959(6) 0.1969(5) -0.7520(3)
C13H C 0.0010(6) 0.1969(5) -0.7480(3)
H7F H 1.20530 0.99950 -0.71050
H7J H 0.79420 0.79470 0.28950
H7D H 0.79420 0.99950 0.21050
H7B H 0.20530 0.20580 -0.78950
H7H H 0.00050 0.20580 -0.71050
C14F C 1.2614(6) 1.0510(5) -0.7810(3)
C14J C 0.7896(6) 0.7386(5) 0.2190(3)
C14D C 0.7896(6) 1.0510(5) 0.2810(3)
C14B C 0.2614(6) 0.2104(5) -0.7190(3)
C14H C -0.0510(6) 0.2104(5) -0.7810(3)
H8F H 1.31460 1.08740 -0.76650
H8J H 0.77280 0.68540 0.23350
H8D H 0.77280 1.08740 0.26650
H8B H 0.31460 0.22720 -0.73350
H8H H -0.08740 0.22720 -0.76650
C15B C 0.9013(6) 0.4540(4) -0.6196(3)
C15D C 0.5460(6) 0.4473(4) -0.6196(3)
C15J C 0.5460(6) 0.0987(4) 0.1196(3)
C15H C 0.5527(6) 0.4540(4) 0.1196(3)
C15F C 0.9013(6) 0.4473(4) 0.1196(3)
C16B C 0.9682(8) 0.5179(5) -0.6466(3)
C16D C 0.4821(8) 0.4503(5) -0.6466(3)
C16J C 0.4821(8) 0.0318(5) 0.1466(3)
C16H C 0.5497(8) 0.5179(5) 0.1466(3)
C16F C 0.9682(8) 0.4503(5) 0.1466(3)
H9B H 0.97760 0.57290 -0.64680
H9D H 0.42710 0.40470 -0.64680
H9J H 0.42710 0.02240 0.14680
H9H H 0.59530 0.57290 0.14680
H9F H 0.97760 0.40470 0.14680
C17B C 1.0202(11) 0.4969(7) -0.6732(5)
C17D C 0.5031(11) 0.5233(7) -0.6732(5)
C17J C 0.5031(11) -0.0202(7) 0.1732(5)
C17H C 0.4767(11) 0.4969(7) 0.1732(5)
C17F C 1.0202(11) 0.5233(7) 0.1732(5)
H10B H 1.06780 0.53870 -0.69110
H10D H 0.46130 0.52910 -0.69110
H10J H 0.46130 -0.06780 0.19110
H10H H 0.47090 0.53870 0.19110
H10F H 1.06780 0.52910 0.19110
C18B C 1.0038(11) 0.4148(7) -0.6743(4)
C18D C 0.5852(11) 0.5890(7) -0.6743(4)
C18J C 0.5852(11) -0.0038(7) 0.1743(4)
C18H C 0.4110(11) 0.4148(7) 0.1743(4)
C18F C 1.0038(11) 0.5890(7) 0.1743(4)
H11B H 1.03920 0.40200 -0.69440
H11D H 0.59800 0.63720 -0.69440
H11J H 0.59800 -0.03920 0.19440
H11H H 0.36280 0.40200 0.19440
H11F H 1.03920 0.63720 0.19440
C19B C 0.9396(9) 0.3537(5) -0.6477(3)
C19D C 0.6463(9) 0.5859(5) -0.6477(3)
C19J C 0.6463(9) 0.0604(5) 0.1477(3)
C19H C 0.4141(9) 0.3537(5) 0.1477(3)
C19F C 0.9396(9) 0.5859(5) 0.1477(3)
H12B H 0.93090 0.29890 -0.64780
H12D H 0.70110 0.63200 -0.64780
H12J H 0.70110 0.06910 0.14780
H12H H 0.36800 0.29890 0.14780
H12F H 0.93090 0.63200 0.14780
C20B C 0.8858(8) 0.3728(5) -0.6198(3)
C20D C 0.6272(8) 0.5130(5) -0.6198(3)
C20J C 0.6272(8) 0.1142(5) 0.1198(3)
C20H C 0.4870(8) 0.3728(5) 0.1198(3)
C20F C 0.8858(8) 0.5130(5) 0.1198(3)
C24K C 0.017(3) 0.795(2) 1.0542(10)
H20K H 0.00040 0.79870 1.09000
H21K H 0.01310 0.74210 1.04910
H22K H 0.07360 0.83810 1.04870
H24K H 0.02920 0.86960 1.01260
#END
