
#######################################################################
#
#                 Cambridge Crystallographic Data Centre
#                                CCDC
#
#######################################################################
#
# If this CIF has been generated from an entry in the Cambridge
# Structural Database, then it will include bibliographic, chemical,
# crystal, experimental, refinement or atomic coordinate data resulting
# from the CCDC's data processing and validation procedures.
#
#######################################################################

data_CSD_CIF_DAHNUW
_audit_creation_date 2005-04-12
_audit_creation_method CSD-ConQuest-V1
_database_code_CSD DAHNUW
_database_code_depnum_ccdc_archive 'CCDC 243120'
_chemical_formula_sum 'C22 H52 N2 Nd4 O42'
_chemical_formula_moiety
;
(C4 H12 N1 1+)2n,n(C14 H12 Nd4 O34 2-),8n(H2 O1)
;
_journal_coden_Cambridge 971
_journal_volume 6
_journal_year 2004
_journal_page_first 1403
_journal_name_full 'Solid State Sciences '
loop_
_publ_author_name
"J.C.Trombe"
"A.Mohanu"
_chemical_name_systematic
;
catena-(bis(Tetramethylammonium) 
bis(\m~3~-oxalato)-pentakis(\m~2~-oxalato)-hexa-aqua-tetra-neodymium 
octahydrate clathrate)
;
_cell_volume   2362.906
_exptl_crystal_colour 'pale blue'
_exptl_crystal_density_diffrn 2.24
_exptl_crystal_description 'needle'
_diffrn_ambient_temperature 293
#These two values have been output from a single CSD field.
_refine_ls_R_factor_gt 0.0361
_refine_ls_wR_factor_gt 0.0361
_symmetry_cell_setting monoclinic
_symmetry_space_group_name_H-M 'P 21/n'
_symmetry_Int_Tables_number 14
loop_
_symmetry_equiv_pos_site_id
_symmetry_equiv_pos_as_xyz
1 x,y,z
2 1/2-x,1/2+y,1/2-z
3 -x,-y,-z
4 -1/2+x,-1/2-y,-1/2+z
_cell_length_a 10.0350(5)
_cell_length_b 21.2040(18)
_cell_length_c 11.115(1)
_cell_angle_alpha 90
_cell_angle_beta 92.453(7)
_cell_angle_gamma 90
_cell_formula_units_Z 2
loop_
_atom_type_symbol
_atom_type_radius_bond
C 0.68
H 0.23
N 0.68
Nd 1.81
O 0.68
loop_
_atom_site_label
_atom_site_type_symbol
_atom_site_fract_x
_atom_site_fract_y
_atom_site_fract_z
Nd1 Nd 0.56769(2) 0.095456(10) -0.05977(2)
Nd2 Nd 0.07836(2) 0.105155(10) 0.30640(2)
O1 O 0.4039(3) 0.15374(14) 0.0505(3)
O2 O 0.2543(3) 0.15910(14) 0.1926(3)
O3 O 0.3983(3) 0.02598(13) 0.0639(3)
O4 O 0.2279(3) 0.03429(13) 0.1881(3)
O5 O 0.8148(3) 0.08851(14) -0.0332(3)
O6 O 0.9926(3) 0.09633(14) 0.0931(3)
O7 O 0.6544(3) 0.08652(14) 0.1518(3)
O8 O 0.8323(3) 0.09244(15) 0.2804(3)
O9 O 0.6636(3) 0.20315(13) -0.0173(3)
O10 O 0.6491(3) 0.30740(13) -0.0511(3)
O11 O 0.4943(3) 0.18258(13) -0.2054(3)
O12 O 0.4816(3) 0.28672(14) -0.2401(3)
O13 O 0.0357(3) -0.00889(13) 0.3484(3)
O14 O 0.0041(3) -0.08249(14) 0.4886(3)
O15 O 0.3666(3) 0.06223(15) -0.1879(3)
H1 H 0.29260 0.05230 -0.14290
H2 H 0.34300 0.09170 -0.25120
O16 O 0.6618(4) 0.07688(16) -0.2563(3)
H3 H 0.66480 0.10110 -0.32020
H4 H 0.73600 0.05170 -0.25180
O17 O 0.2797(3) 0.06873(17) 0.4328(3)
H5 H 0.35950 0.06220 0.40600
H6 H 0.30580 0.09070 0.49930
C1 C 0.3261(4) 0.1295(2) 0.1227(4)
C2 C 0.3151(4) 0.05661(19) 0.1250(4)
C3 C 0.8691(4) 0.09162(18) 0.0692(4)
C4 C 0.7772(5) 0.09027(19) 0.1768(4)
C5 C 0.6199(4) 0.25057(19) -0.0740(4)
C6 C 0.5235(4) 0.23937(19) -0.1836(4)
C7 C 0.0113(4) -0.02662(19) 0.4524(4)
O18 O 0.1109(4) 0.04294(17) 0.8764(3)
H7 H 0.07480 0.06120 0.94800
H8 H 0.04940 0.03640 0.81530
O19 O 0.3091(4) 0.14661(19) 0.6289(3)
H9 H 0.25760 0.17520 0.59500
H10 H 0.37320 0.16740 0.67170
O20 O 0.5305(4) 0.0419(2) 0.3544(4)
H11 H 0.58080 0.06500 0.30010
H12 H 0.59000 0.04140 0.41870
O21 O 0.2097(5) 0.3789(2) 0.0225(4)
H13 H 0.16200 0.41110 0.04210
H14 H 0.29500 0.38130 0.00120
N1 N 0.5490(4) 0.26371(19) 0.3442(4)
C8 C 0.4672(7) 0.2327(4) 0.4303(6)
H15 H 0.42660 0.26380 0.47980
H16 H 0.52170 0.20510 0.48020
H17 H 0.39900 0.20860 0.38830
C9 C 0.4661(7) 0.3068(3) 0.2679(6)
H18 H 0.52090 0.32740 0.21110
H19 H 0.42600 0.33790 0.31770
H20 H 0.39740 0.28320 0.22540
C10 C 0.6551(7) 0.2989(3) 0.4134(6)
H21 H 0.71080 0.32040 0.35860
H22 H 0.70820 0.26980 0.46130
H23 H 0.61490 0.32900 0.46510
C11 C 0.6144(7) 0.2180(3) 0.2669(6)
H24 H 0.66730 0.24010 0.21050
H25 H 0.54790 0.19330 0.22380
H26 H 0.67080 0.19080 0.31570
C7B C -0.0113(4) 0.02662(19) 0.5476(4)
O13B O -0.0357(3) 0.00889(13) 0.6516(3)
O14B O -0.0041(3) 0.08249(14) 0.5114(3)
O1B O 0.5961(3) -0.15374(14) -0.0505(3)
O2B O 0.7457(3) -0.15910(14) -0.1926(3)
O3B O 0.6017(3) -0.02598(13) -0.0639(3)
O4B O 0.7721(3) -0.03429(13) -0.1881(3)
C1B C 0.6739(4) -0.1295(2) -0.1227(4)
C2B C 0.6849(4) -0.05661(19) -0.1250(4)
Nd1B Nd 0.43231(2) -0.095456(10) 0.05977(2)
Nd2B Nd 0.92164(2) -0.105155(10) -0.30640(2)
O5* O -0.1852(3) 0.08851(14) -0.0332(3)
O6* O -0.0074(3) 0.09633(14) 0.0931(3)
O7* O -0.3456(3) 0.08652(14) 0.1518(3)
O8* O -0.1677(3) 0.09244(15) 0.2804(3)
C3* C -0.1309(4) 0.09162(18) 0.0692(4)
C4* C -0.2228(5) 0.09027(19) 0.1768(4)
O9C O 0.1636(3) 0.29685(13) 0.4827(3)
O10C O 0.1491(3) 0.19260(13) 0.4489(3)
O11C O -0.0057(3) 0.31742(13) 0.2946(3)
O12C O -0.0184(3) 0.21328(14) 0.2599(3)
C5C C 0.1199(4) 0.24943(19) 0.4260(4)
C6C C 0.0235(4) 0.26063(19) 0.3164(4)
O15B O 0.6334(3) -0.06223(15) 0.1879(3)
H1B H 0.70740 -0.05230 0.14290
H2B H 0.65700 -0.09170 0.25120
O16B O 0.3382(4) -0.07688(16) 0.2563(3)
H3B H 0.33520 -0.10110 0.32020
H4B H 0.26400 -0.05170 0.25180
O17B O 0.7203(3) -0.06873(17) -0.4328(3)
H5B H 0.64050 -0.06220 -0.40600
H6B H 0.69420 -0.09070 -0.49930
Nd2* Nd 1.07836(2) 0.105155(10) 0.30640(2)
Nd2C Nd 0.57836(2) 0.394845(10) -0.19360(2)
Nd2B* Nd -0.07836(2) -0.105155(10) 0.69360(2)
O5B O 0.1852(3) -0.08851(14) 0.0332(3)
O7B O 0.3456(3) -0.08652(14) -0.1518(3)
O9B O 0.3364(3) -0.20315(13) 0.0173(3)
O11B O 0.5057(3) -0.18258(13) 0.2054(3)
O6B O 1.0074(3) -0.09633(14) -0.0931(3)
O8B O 1.1677(3) -0.09244(15) -0.2804(3)
O10A O 0.8509(3) -0.19260(13) -0.4489(3)
O12A O 1.0184(3) -0.21328(14) -0.2599(3)
O13B* O 0.9643(3) 0.00889(13) -0.3484(3)
O14* O 1.0041(3) -0.08249(14) -0.5114(3)
Nd1* Nd -0.43231(2) 0.095456(10) -0.05977(2)
Nd1C Nd 0.06769(2) 0.404544(10) 0.44023(2)
#END
