
#######################################################################
#
#                 Cambridge Crystallographic Data Centre
#                                CCDC
#
#######################################################################
#
# If this CIF has been generated from an entry in the Cambridge
# Structural Database, then it will include bibliographic, chemical,
# crystal, experimental, refinement or atomic coordinate data resulting
# from the CCDC's data processing and validation procedures.
#
#######################################################################

data_CSD_CIF_DAHNOQ
_audit_creation_date 2005-04-12
_audit_creation_method CSD-ConQuest-V1
_database_code_CSD DAHNOQ
_database_code_depnum_ccdc_archive 'CCDC 243119'
_chemical_formula_sum 'C10 H22 N6 Nd2 O21'
_chemical_formula_moiety
;
(C1 H6 N3 1+)2n,n(C8 H4 Nd2 O18 2-),3n(H2 O1)
;
_journal_coden_Cambridge 971
_journal_volume 6
_journal_year 2004
_journal_page_first 1403
_journal_name_full 'Solid State Sciences '
loop_
_publ_author_name
"J.C.Trombe"
"A.Mohanu"
_chemical_name_systematic
;
catena-(bis(Guanidinium) tetrakis(\m~2~-oxalato)-diaqua-di-neodymium 
trihydrate clathrate)
;
_cell_volume   2444.291
_exptl_crystal_colour 'pale blue'
_exptl_crystal_density_diffrn 2.312
_exptl_crystal_description 'parallelepiped'
_diffrn_ambient_temperature 293
#These two values have been output from a single CSD field.
_refine_ls_R_factor_gt 0.0237
_refine_ls_wR_factor_gt 0.0237
_symmetry_cell_setting monoclinic
_symmetry_space_group_name_H-M 'C 2/c'
_symmetry_Int_Tables_number 15
loop_
_symmetry_equiv_pos_site_id
_symmetry_equiv_pos_as_xyz
1 x,y,z
2 1/2+x,1/2+y,z
3 -x,y,1/2-z
4 1/2-x,1/2+y,1/2-z
5 -x,-y,-z
6 -1/2-x,-1/2-y,-z
7 x,-y,-1/2+z
8 -1/2+x,-1/2-y,-1/2+z
_cell_length_a 14.1840(7)
_cell_length_b 11.5150(12)
_cell_length_c 15.6190(12)
_cell_angle_alpha 90
_cell_angle_beta 106.633(4)
_cell_angle_gamma 90
_cell_formula_units_Z 4
loop_
_atom_type_symbol
_atom_type_radius_bond
C 0.68
H 0.23
N 0.68
Nd 1.81
O 0.68
loop_
_atom_site_label
_atom_site_type_symbol
_atom_site_fract_x
_atom_site_fract_y
_atom_site_fract_z
Nd1 Nd 0.324546(9) 0.357167(11) 0.339828(9)
O1 O 0.19515(13) 0.23982(16) 0.23600(14)
O2 O 0.14289(13) 0.06677(17) 0.17652(14)
O3 O 0.32172(13) -0.02205(16) 0.24562(14)
O4 O 0.37653(14) 0.15073(15) 0.30694(14)
O5 O 0.35674(13) 0.22068(17) 0.46863(13)
O6 O 0.30542(14) 0.14609(15) 0.58019(13)
O7 O 0.50347(14) 0.36481(16) 0.36326(13)
O8 O 0.62757(13) 0.36599(16) 0.30023(13)
O9 O 0.38781(15) 0.46519(18) 0.48983(14)
H1 H 0.41800 0.53410 0.50220
H2 H 0.40900 0.41630 0.54080
C1 C 0.20745(19) 0.1344(2) 0.22188(19)
C2 C 0.31186(18) 0.0837(2) 0.26203(17)
C3 C 0.29729(17) 0.2112(2) 0.51424(17)
C4 C 0.53795(19) 0.3648(2) 0.29778(18)
O10 O 0.44671(17) 0.35709(19) 0.64759(17)
H3 H 0.45350 0.27670 0.65500
H4 H 0.50840 0.38740 0.67190
O11 O 0.50000 0.1446(3) 0.75000
H5 H 0.45820 0.09000 0.76650
N1 N 0.21167(18) 0.5810(3) 0.53973(19)
H6 H 0.24060 0.52310 0.51670
H7 H 0.24900 0.61660 0.58920
N2 N 0.06869(19) 0.5670(3) 0.42546(19)
H8 H 0.00720 0.59230 0.39890
H9 H 0.10180 0.52090 0.39780
N3 N 0.0738(2) 0.6814(3) 0.5475(2)
H10 H 0.10810 0.70090 0.60590
H11 H 0.00430 0.68390 0.53340
C5 C 0.1173(2) 0.6100(3) 0.5042(2)
C3E C 0.20271(17) 0.2888(2) 0.48576(17)
O5E O 0.14326(13) 0.27932(17) 0.53137(13)
O6E O 0.19458(14) 0.35391(15) 0.41981(13)
C4B C 0.46205(19) 0.3648(2) 0.20222(18)
O7B O 0.49653(14) 0.36481(16) 0.13674(13)
O8B O 0.37243(13) 0.36599(16) 0.19977(13)
O1C O 0.30485(13) 0.73982(16) 0.26400(14)
O2C O 0.35711(13) 0.56677(17) 0.32348(14)
O3C O 0.17828(13) 0.47795(16) 0.25438(14)
O4C O 0.12347(14) 0.65073(15) 0.19306(14)
C1C C 0.29255(19) 0.6344(2) 0.27812(19)
C2C C 0.18814(18) 0.5837(2) 0.23797(17)
Nd1C Nd 0.175454(9) 0.857167(11) 0.160172(9)
O9C O 0.11219(15) 0.96519(18) 0.01017(14)
H1C H 0.08200 1.03410 -0.00220
H2C H 0.09100 0.91630 -0.04080
Nd1C* Nd 0.175454(9) -0.142833(11) 0.160172(9)
Nd1E Nd 0.175454(9) 0.142833(11) 0.660172(9)
Nd1B Nd 0.675454(9) 0.357167(11) 0.160172(9)
O2* O 0.14289(13) 1.06677(17) 0.17652(14)
O3* O 0.32172(13) 0.97795(16) 0.24562(14)
O5C O 0.14326(13) 0.72068(17) 0.03137(13)
O6F O 0.30542(14) 0.85391(15) 0.08019(13)
O7C O -0.00347(14) 0.86481(16) 0.13674(13)
O8A O 0.12757(13) 0.86599(16) 0.30023(13)
H5B H 0.54180 0.09000 0.73350
#END
