
#######################################################################
#
#                 Cambridge Crystallographic Data Centre
#                                CCDC
#
#######################################################################
#
# If this CIF has been generated from an entry in the Cambridge
# Structural Database, then it will include bibliographic, chemical,
# crystal, experimental, refinement or atomic coordinate data resulting
# from the CCDC's data processing and validation procedures.
#
#######################################################################

data_CSD_CIF_DAHPAE
_audit_creation_date 2005-04-12
_audit_creation_method CSD-ConQuest-V1
_database_code_CSD DAHPAE
_database_code_depnum_ccdc_archive 'CCDC 243121'
_chemical_formula_sum 'C8 H12 N1 O8 Yb1'
_chemical_formula_moiety
;
(C4 H12 N1 1+)n,n(C4 O8 Yb1 1-)
;
_journal_coden_Cambridge 971
_journal_volume 6
_journal_year 2004
_journal_page_first 1403
_journal_name_full 'Solid State Sciences '
loop_
_publ_author_name
"J.C.Trombe"
"A.Mohanu"
_chemical_name_systematic
;
catena-(Tetramethylammonium bis(\m~2~-oxalato)-ytterbium clathrate)
;
_cell_volume   1246.883
_exptl_crystal_colour 'colorless'
_exptl_crystal_density_diffrn 2.255
_exptl_crystal_description 'octahedron'
_diffrn_ambient_temperature 293
#These two values have been output from a single CSD field.
_refine_ls_R_factor_gt 0.0209
_refine_ls_wR_factor_gt 0.0209
_symmetry_cell_setting tetragonal
_symmetry_space_group_name_H-M 'I 41/a'
_symmetry_Int_Tables_number 88
loop_
_symmetry_equiv_pos_site_id
_symmetry_equiv_pos_as_xyz
1 x,y,z
2 3/4-y,1/4+x,1/4+z
3 1/4+y,1/4-x,1/4+z
4 1/2+x,1/2+y,1/2+z
5 1/4-y,3/4+x,3/4+z
6 -x,1/2-y,z
7 1/2-x,-y,1/2+z
8 3/4+y,3/4-x,3/4+z
9 -x,-y,-z
10 -3/4+y,-1/4-x,-1/4-z
11 -1/4-y,-1/4+x,-1/4-z
12 -1/2-x,-1/2-y,-1/2-z
13 -1/4+y,-3/4-x,-3/4-z
14 x,-1/2+y,-z
15 -1/2+x,y,-1/2-z
16 -3/4-y,-3/4+x,-3/4-z
_cell_length_a 8.4410(4)
_cell_length_b 8.4410(4)
_cell_length_c 17.5000(5)
_cell_angle_alpha 90
_cell_angle_beta 90
_cell_angle_gamma 90
_cell_formula_units_Z 4
loop_
_atom_type_symbol
_atom_type_radius_bond
C 0.68
H 0.23
N 0.68
O 0.68
Yb 1.94
loop_
_atom_site_label
_atom_site_type_symbol
_atom_site_fract_x
_atom_site_fract_y
_atom_site_fract_z
Yb1 Yb 0.00000 0.25000 0.12500
O1 O 0.1386(3) 0.1479(3) 0.01736(14)
O2 O 0.1265(3) -0.0297(3) -0.07737(13)
C1 C 0.0772(3) 0.0341(4) -0.01712(18)
N1 N 0.50000 0.75000 0.12500
C2 C 0.6397(8) 0.7824(8) 0.1733(4)
H1 H 0.66120 0.69200 0.20490
H2 H 0.61910 0.87290 0.20500
H3 H 0.72980 0.80350 0.14130
C1H C -0.0772(3) -0.0341(4) 0.01712(18)
O1H O -0.1386(3) -0.1479(3) -0.01736(14)
O2H O -0.1265(3) 0.0297(3) 0.07737(13)
O1O O 0.1021(3) 0.3886(3) 0.23264(14)
O2O O 0.2797(3) 0.3765(3) 0.32737(13)
C1O C 0.2159(3) 0.3272(4) 0.26712(18)
C1B C 0.2841(3) 0.1728(4) 0.23288(18)
O1B O 0.3979(3) 0.1114(3) 0.26736(14)
O2B O 0.2203(3) 0.1235(3) 0.17263(13)
O1L O -0.1021(3) 0.1114(3) 0.23264(14)
O1E O -0.1386(3) 0.3521(3) 0.01736(14)
O2A O -0.2203(3) 0.3765(3) 0.17263(13)
O2M O 0.1265(3) 0.4703(3) 0.07737(13)
Yb1D Yb 0.00000 -0.25000 -0.12500
Yb1A Yb 0.50000 0.25000 0.37500
C2O C 0.4676(8) 0.8897(8) 0.0767(4)
H1O H 0.55800 0.91120 0.04510
H2O H 0.37710 0.86910 0.04500
H3O H 0.44650 0.97980 0.10870
C2L C 0.5324(8) 0.6103(8) 0.0767(4)
H1L H 0.44200 0.58880 0.04510
H2L H 0.62290 0.63090 0.04500
H3L H 0.55350 0.52020 0.10870
C2E C 0.3603(8) 0.7176(8) 0.1733(4)
H1E H 0.33880 0.80800 0.20490
H2E H 0.38090 0.62710 0.20500
H3E H 0.27020 0.69650 0.14130
#END
