
#######################################################################
#
#                 Cambridge Crystallographic Data Centre
#                                CCDC
#
#######################################################################
#
# If this CIF has been generated from an entry in the Cambridge
# Structural Database, then it will include bibliographic, chemical,
# crystal, experimental, refinement or atomic coordinate data resulting
# from the CCDC's data processing and validation procedures.
#
#######################################################################

data_CSD_CIF_DAHWUE
_audit_creation_date 1986-04-23
_audit_creation_method CSD-ConQuest-V1
_database_code_CSD DAHWUE
_chemical_formula_sum 'C42 H41 F33 O33 Pr4'
_chemical_formula_moiety
;
(C26 H41 F9 O17 Pr2 2+)n,n(C16 F24 O16 Pr2 2-)
;
_journal_coden_Cambridge 186
_journal_year 1985
_journal_page_first 885
_journal_name_full 'J.Chem.Soc.,Dalton Trans. '
loop_
_publ_author_name
"D.Harrison"
"A.Giorgetti"
"J.-C.G.Bunzli"
_chemical_name_systematic
;
catena((\m~2~-Hydroxo)-tris(\m~2~-trifluoroacetato)-bis((1,4,7,10,13-pentaoxac
yclopentadecane)-praseodymium(iii))) 
octakis(trifluoroacetato)-di-praseodymium(iii)
;
_cell_volume   3698.720
_exptl_crystal_density_diffrn 2.03
_exptl_special_details
;
z (C22) should be 0.176 not 0.180. Author's correction

;
_diffrn_ambient_temperature ?
_diffrn_special_details
;
The study was carried out at room temperature,in the range 283-303K

;
#These two values have been output from a single CSD field.
_refine_ls_R_factor_gt 0.075
_refine_ls_wR_factor_gt 0.075
_symmetry_cell_setting monoclinic
_symmetry_space_group_name_H-M 'P 21/m'
_symmetry_Int_Tables_number 11
loop_
_symmetry_equiv_pos_site_id
_symmetry_equiv_pos_as_xyz
1 x,y,z
2 -x,1/2+y,-z
3 -x,-y,-z
4 x,-1/2-y,z
_cell_length_a 9.124(1)
_cell_length_b 31.607(4)
_cell_length_c 13.006(2)
_cell_angle_alpha 90
_cell_angle_beta 99.55(1)
_cell_angle_gamma 90
_cell_formula_units_Z 2
loop_
_atom_type_symbol
_atom_type_radius_bond
C 0.68
H 0.23
F 0.64
O 0.68
Pr 1.77
loop_
_atom_site_label
_atom_site_type_symbol
_atom_site_fract_x
_atom_site_fract_y
_atom_site_fract_z
Pr1 Pr 0.3488(2) 0.18422(4) -0.0041(1)
O1 O 0.243(3) 0.25000 -0.044(2)
O2 O 0.113(3) 0.1494(8) 0.043(2)
O3 O 0.116(3) 0.1745(6) -0.146(2)
O4 O 0.353(3) 0.1309(5) -0.152(1)
O5 O 0.572(2) 0.1317(5) 0.009(1)
O6 O 0.374(3) 0.1258(6) 0.136(2)
C1 C -0.022(5) 0.146(2) -0.022(5)
C2 C -0.012(6) 0.178(1) -0.107(4)
C3 C 0.115(5) 0.1436(9) -0.232(2)
C4 C 0.269(5) 0.1398(8) -0.250(2)
C5 C 0.497(5) 0.1160(9) -0.168(2)
C6 C 0.565(4) 0.0986(8) -0.065(3)
C7 C 0.620(4) 0.1184(9) 0.116(3)
C8 C 0.495(5) 0.0997(9) 0.158(2)
C9 C 0.256(8) 0.113(2) 0.182(4)
C10 C 0.127(5) 0.121(2) 0.126(4)
O7 O 0.583(3) 0.2149(6) 0.086(2)
C11 C 0.629(4) 0.25000 0.112(3)
C12 C 0.774(7) 0.25000 0.176(10)
F1 F 0.820(4) 0.218(1) 0.223(3)
F2 F 0.882(7) 0.25000 0.120(7)
O8 O 0.297(3) 0.2151(5) 0.160(1)
C13 C 0.291(5) 0.250(3) 0.198(3)
C14 C 0.255(9) 0.250(3) 0.307(3)
F3 F 0.193(4) 0.2830(7) 0.336(2)
F4 F 0.383(6) 0.25000 0.372(3)
O9 O 0.479(2) 0.2149(5) -0.136(1)
C15 C 0.507(6) 0.25000 -0.169(3)
C16 C 0.601(9) 0.25000 -0.257(4)
F5 F 0.494(7) 0.25000 -0.347(3)
F6 F 0.646(4) 0.2835(8) -0.280(2)
Pr2 Pr 0.6821(2) -0.00229(4) 0.40738(9)
O10 O 0.886(2) 0.0427(5) 0.460(1)
O11 O 0.878(2) -0.0514(5) 0.471(2)
C17 C 0.998(3) 0.0616(6) 0.479(1)
C18 C 0.999(5) 0.107(1) 0.433(3)
F7 F 1.009(4) 0.1351(6) 0.502(2)
F8 F 1.117(4) 0.115(1) 0.395(3)
F9 F 0.900(4) 0.1145(7) 0.357(2)
O12 O 0.446(2) -0.0072(6) 0.272(1)
O13 O 0.667(2) 0.0009(6) 0.583(1)
C19 C 0.344(3) -0.0080(7) 0.318(2)
C20 C 0.201(4) -0.018(1) 0.253(2)
F10 F 0.185(3) -0.013(2) 0.159(2)
F11 F 0.086(3) -0.001(1) 0.282(2)
F12 F 0.160(3) -0.057(1) 0.259(3)
O14 O 0.562(2) 0.0664(5) 0.429(1)
O15 O 0.559(2) -0.0700(4) 0.436(1)
C21 C 0.507(3) 0.0846(7) 0.497(2)
C22 C 0.532(5) 0.1325(8) 0.502(3)
F13 F 0.427(3) 0.1535(5) 0.535(2)
F14 F 0.552(4) 0.1496(5) 0.415(2)
F15 F 0.645(4) 0.1423(8) 0.571(3)
O16 O 0.750(2) -0.0392(5) 0.246(1)
O17 O 0.738(2) 0.0298(5) 0.238(1)
C23 C 0.754(3) -0.0051(8) 0.202(2)
C24 C 0.792(3) -0.0066(9) 0.090(2)
F16 F 0.868(2) 0.0256(5) 0.065(1)
F17 F 0.858(2) -0.0406(5) 0.069(1)
F18 F 0.662(2) -0.0053(6) 0.025(1)
H1 H -0.03600 0.11600 -0.05600
H2 H -0.11000 0.14900 0.01600
H3 H -0.11300 0.17500 -0.16500
H4 H -0.03400 0.20700 -0.07500
H5 H 0.07300 0.11500 -0.21500
H6 H 0.04600 0.15400 -0.30000
H7 H 0.27700 0.11600 -0.30200
H8 H 0.30000 0.16700 -0.27900
H9 H 0.49100 0.09300 -0.22400
H10 H 0.56200 0.13900 -0.18900
H11 H 0.50700 0.07400 -0.04500
H12 H 0.67200 0.08700 -0.06600
H13 H 0.70600 0.09600 0.11800
H14 H 0.66600 0.14200 0.16000
H15 H 0.47300 0.07000 0.12700
H16 H 0.52400 0.09500 0.23700
H17 H 0.27200 0.08200 0.20200
H18 H 0.26800 0.12900 0.25300
H19 H 0.08800 0.09100 0.10300
H20 H 0.06100 0.13000 0.18100
Pr1C Pr 0.3488(2) 0.31578(4) -0.0041(1)
O7C O 0.583(3) 0.2851(6) 0.086(2)
F1C F 0.820(4) 0.282(1) 0.223(3)
O8C O 0.297(3) 0.2849(5) 0.160(1)
F3C F 0.193(4) 0.2170(7) 0.336(2)
O9C O 0.479(2) 0.2851(5) -0.136(1)
F6C F 0.646(4) 0.2165(8) -0.280(2)
O2C O 0.113(3) 0.3506(8) 0.043(2)
O3C O 0.116(3) 0.3255(6) -0.146(2)
O4C O 0.353(3) 0.3691(5) -0.152(1)
O5C O 0.572(2) 0.3683(5) 0.009(1)
O6C O 0.374(3) 0.3742(6) 0.136(2)
C1C C -0.022(5) 0.354(2) -0.022(5)
C10C C 0.127(5) 0.379(2) 0.126(4)
C2C C -0.012(6) 0.322(1) -0.107(4)
C3C C 0.115(5) 0.3564(9) -0.232(2)
C4C C 0.269(5) 0.3602(8) -0.250(2)
C5C C 0.497(5) 0.3840(9) -0.168(2)
C6C C 0.565(4) 0.4014(8) -0.065(3)
C7C C 0.620(4) 0.3816(9) 0.116(3)
C8C C 0.495(5) 0.4003(9) 0.158(2)
C9C C 0.256(8) 0.387(2) 0.182(4)
H1C H -0.03600 0.38400 -0.05600
H2C H -0.11000 0.35100 0.01600
H19C H 0.08800 0.40900 0.10300
H20C H 0.06100 0.37000 0.18100
H3C H -0.11300 0.32500 -0.16500
H4C H -0.03400 0.29300 -0.07500
H5C H 0.07300 0.38500 -0.21500
H6C H 0.04600 0.34600 -0.30000
H7C H 0.27700 0.38400 -0.30200
H8C H 0.30000 0.33300 -0.27900
H9C H 0.49100 0.40700 -0.22400
H10C H 0.56200 0.36100 -0.18900
H11C H 0.50700 0.42600 -0.04500
H12C H 0.67200 0.41300 -0.06600
H13C H 0.70600 0.40400 0.11800
H14C H 0.66600 0.35800 0.16000
H15C H 0.47300 0.43000 0.12700
H16C H 0.52400 0.40500 0.23700
H17C H 0.27200 0.41800 0.20200
H18C H 0.26800 0.37100 0.25300
C17B C 1.002(3) -0.0616(6) 0.521(1)
O11B O 1.122(2) 0.0514(5) 0.529(2)
C19B C 0.656(3) 0.0080(7) 0.682(2)
O13B O 0.333(2) -0.0009(6) 0.417(1)
C21B C 0.493(3) -0.0846(7) 0.503(2)
O15B O 0.441(2) 0.0700(4) 0.564(1)
O10B O 1.114(2) -0.0427(5) 0.540(1)
C18B C 1.001(5) -0.107(1) 0.567(3)
Pr2B Pr 1.3179(2) 0.00229(4) 0.59262(9)
O12B O 0.554(2) 0.0072(6) 0.728(1)
C20B C 0.799(4) 0.018(1) 0.747(2)
Pr2B* Pr 0.3179(2) 0.00229(4) 0.59262(9)
O14B O 0.438(2) -0.0664(5) 0.571(1)
C22B C 0.468(5) -0.1325(8) 0.498(3)
F7B F 0.991(4) -0.1351(6) 0.498(2)
F8B F 0.883(4) -0.115(1) 0.605(3)
F9B F 1.100(4) -0.1145(7) 0.643(2)
O12B* O 1.554(2) 0.0072(6) 0.728(1)
O13B* O 1.333(2) -0.0009(6) 0.417(1)
O14B* O 1.438(2) -0.0664(5) 0.571(1)
O15B* O 1.441(2) 0.0700(4) 0.564(1)
O16B O 1.250(2) 0.0392(5) 0.754(1)
O17B O 1.262(2) -0.0298(5) 0.762(1)
F10B F 0.815(3) 0.013(2) 0.841(2)
F11B F 0.914(3) 0.001(1) 0.718(2)
F12B F 0.840(3) 0.057(1) 0.741(3)
F13B F 0.573(3) -0.1535(5) 0.465(2)
F14B F 0.448(4) -0.1496(5) 0.585(2)
F15B F 0.355(4) -0.1423(8) 0.429(3)
C23B C 1.246(3) 0.0051(8) 0.798(2)
C24B C 1.208(3) 0.0066(9) 0.910(2)
F16B F 1.132(2) -0.0256(5) 0.935(1)
F17B F 1.142(2) 0.0406(5) 0.931(1)
F18B F 1.338(2) 0.0053(6) 0.975(1)
#END
