
#######################################################################
#
#                 Cambridge Crystallographic Data Centre
#                                CCDC
#
#######################################################################
#
# If this CIF has been generated from an entry in the Cambridge
# Structural Database, then it will include bibliographic, chemical,
# crystal, experimental, refinement or atomic coordinate data resulting
# from the CCDC's data processing and validation procedures.
#
#######################################################################

data_CSD_CIF_DAJWET
_audit_creation_date 2016-12-13
_audit_creation_method CSD-ConQuest-V1
_database_code_CSD DAJWET
_database_code_depnum_ccdc_archive 'CCDC 1498032'
_chemical_formula_sum 'C152 H122 Mg6 N16 O32'
_chemical_formula_moiety
;
4(C2 H8 N1 1+),n(C144 H90 Mg6 N12 O32 4-)
;
_journal_coden_Cambridge 4
_journal_volume 138
_journal_year 2016
_journal_page_first 13822
_journal_name_full 'J.Am.Chem.Soc. '
loop_
_publ_author_name
"Qi Liu"
"Hengjiang Cong"
"Hexiang Deng"
_chemical_name_systematic
;
catena-[tetrakis(Dimethylammonium) 
tris(\m-5,10,15,20-tetrakis(4-carboxylatophenyl)porphyrin)-bis(\m-oxo)-hexa-aq
ua-hexa-magnesium unknown solvate]
;
_cell_volume  14830.117
_exptl_crystal_colour 'black'
_exptl_special_details
;
, Air-sensitive,Moisture-sensitive,Heat-sensitive

;
_exptl_crystal_description 'block'
_diffrn_ambient_temperature 293
_diffrn_radiation_probe x-ray
_diffrn_source synchrotron
_refine_special_details
;
Terminal oxygen atoms have been assumed to represent water molecules. The 
authors state that based on elemental analysis data dimethylammonium cations 
were used to balance the charge for the formula of the MOF. Disordered 
solvent molecules were not modelled and the disordered density was taken into 
account using the SQUEEZE/PLATON procedure.
;
#These two values have been output from a single CSD field.
_refine_ls_R_factor_gt 0.1214
_refine_ls_wR_factor_gt 0.1214
_symmetry_cell_setting hexagonal
_symmetry_space_group_name_H-M 'P 6/m m m'
_symmetry_Int_Tables_number 191
loop_
_symmetry_equiv_pos_site_id
_symmetry_equiv_pos_as_xyz
1 x,y,z
2 -y,x-y,z
3 -x+y,-x,z
4 -x,-y,z
5 y,-x+y,z
6 x-y,x,z
7 y,x,-z
8 x-y,-y,-z
9 -x,-x+y,-z
10 -y,-x,-z
11 -x+y,y,-z
12 x,x-y,-z
13 -x,-y,-z
14 y,-x+y,-z
15 x-y,x,-z
16 x,y,-z
17 -y,x-y,-z
18 -x+y,-x,-z
19 -y,-x,z
20 -x+y,y,z
21 x,x-y,z
22 y,x,z
23 x-y,-y,z
24 -x,-x+y,z
_cell_length_a 31.848(8)
_cell_length_b 31.848(8)
_cell_length_c 16.883(5)
_cell_angle_alpha 90
_cell_angle_beta 90
_cell_angle_gamma 120
_cell_formula_units_Z 1
loop_
_atom_type_symbol
_atom_type_radius_bond
C 0.68
H 0.23
Mg 1.41
N 0.68
O 0.68
loop_
_atom_site_label
_atom_site_type_symbol
_atom_site_fract_x
_atom_site_fract_y
_atom_site_fract_z
Mg1 Mg 0.29738(4) 0.59475(8) 0.50000
O1 O 0.25861(11) 0.5172(2) 0.50000
C1 C 0.0404(2) 0.52020(11) 0.1723(6)
N1 N 0.00000 0.50000 0.1184(6)
H1 H 0.00000 0.50000 0.06740
O2 O 0.24971(10) 0.59004(10) 0.4134(2)
C2 C 0.0881(2) 0.54405(11) 0.1423(5)
N2 N 0.0740(3) 0.53699(14) 0.00000
C3 C 0.23570(19) 0.61785(10) 0.3893(4)
C4 C 0.1026(3) 0.55129(14) 0.0652(6)
O3 O 0.33330 0.66670 0.50000
C5 C 0.19831(19) 0.59915(9) 0.3248(5)
C6 C 0.1270(2) 0.56352(10) 0.2083(5)
C7 C 0.1527(2) 0.57635(11) 0.0394(5)
H2 H 0.17990 0.58990 0.07200
C8 C 0.1799(2) 0.55344(18) 0.2941(4)
H3 H 0.19290 0.53450 0.31100
C9 C 0.1433(2) 0.5346(2) 0.2396(5)
H4 H 0.12950 0.50240 0.22400
C10 C 0.0249(2) 0.51244(12) 0.2513(7)
H5 H 0.04470 0.52240 0.29580
C1C C -0.0404(2) 0.47980(11) 0.1723(6)
O2C O -0.24971(10) 0.40996(10) 0.4134(2)
C2C C -0.0881(2) 0.45595(11) 0.1423(5)
N2C N -0.0740(3) 0.46301(14) 0.00000
C3C C -0.23570(19) 0.38215(10) 0.3893(4)
C4C C -0.1026(3) 0.44871(14) 0.0652(6)
C5C C -0.19831(19) 0.40085(9) 0.3248(5)
C6C C -0.1270(2) 0.43648(10) 0.2083(5)
C7C C -0.1527(2) 0.42365(11) 0.0394(5)
H2C H -0.17990 0.41010 0.07200
C8C C -0.1799(2) 0.44656(18) 0.2941(4)
H3C H -0.19290 0.46550 0.31100
C9C C -0.1433(2) 0.4654(2) 0.2396(5)
H4C H -0.12950 0.49760 0.22400
C10C C -0.0249(2) 0.48756(12) 0.2513(7)
H5C H -0.04470 0.47760 0.29580
C1H C -0.0404(2) 0.47980(11) -0.1723(6)
N1H N 0.00000 0.50000 -0.1184(6)
H1H H 0.00000 0.50000 -0.06740
O2H O -0.24971(10) 0.34033(10) -0.4134(2)
C2H C -0.0881(2) 0.45595(11) -0.1423(5)
C3H C -0.23570(19) 0.38215(10) -0.3893(4)
C4H C -0.1026(3) 0.44869(14) -0.0652(6)
C5H C -0.19831(19) 0.40084(9) -0.3248(5)
C6H C -0.1270(2) 0.43652(10) -0.2083(5)
C7H C -0.1527(2) 0.42365(11) -0.0394(5)
H2H H -0.17990 0.41000 -0.07200
C8H C -0.1799(2) 0.37354(18) -0.2941(4)
H3H H -0.19290 0.34160 -0.31100
C9H C -0.1433(2) 0.3913(2) -0.2396(5)
H4H H -0.12950 0.37290 -0.22400
C10H C -0.0249(2) 0.48754(12) -0.2513(7)
H5H H -0.04470 0.47770 -0.29580
C1K C 0.0404(2) 0.52020(11) -0.1723(6)
O2K O 0.24971(10) 0.65967(10) -0.4134(2)
C2K C 0.0881(2) 0.54405(11) -0.1423(5)
C3K C 0.23570(19) 0.61785(10) -0.3893(4)
C4K C 0.1026(3) 0.55131(14) -0.0652(6)
C5K C 0.19831(19) 0.59916(9) -0.3248(5)
C6K C 0.1270(2) 0.56348(10) -0.2083(5)
C7K C 0.1527(2) 0.57635(11) -0.0394(5)
H2K H 0.17990 0.59000 -0.07200
C8K C 0.1799(2) 0.62646(18) -0.2941(4)
H3K H 0.19290 0.65840 -0.31100
C9K C 0.1433(2) 0.6087(2) -0.2396(5)
H4K H 0.12950 0.62710 -0.22400
C10K C 0.0249(2) 0.51246(12) -0.2513(7)
H5K H 0.04470 0.52230 -0.29580
O2L O -0.24971(10) 0.40996(10) -0.4134(2)
C8L C -0.1799(2) 0.44656(18) -0.2941(4)
H3L H -0.19290 0.46550 -0.31100
C9L C -0.1433(2) 0.4654(2) -0.2396(5)
H4L H -0.12950 0.49760 -0.22400
O2O O 0.24971(10) 0.59004(10) -0.4134(2)
C8O C 0.1799(2) 0.55344(18) -0.2941(4)
H3O H 0.19290 0.53450 -0.31100
C9O C 0.1433(2) 0.5346(2) -0.2396(5)
H4O H 0.12950 0.50240 -0.22400
O2T O 0.24971(10) 0.65967(10) 0.4134(2)
C8T C 0.1799(2) 0.62646(18) 0.2941(4)
H3T H 0.19290 0.65840 0.31100
C9T C 0.1433(2) 0.6087(2) 0.2396(5)
H4T H 0.12950 0.62710 0.22400
O2W O -0.24971(10) 0.34033(10) 0.4134(2)
C8W C -0.1799(2) 0.37354(18) 0.2941(4)
H3W H -0.19290 0.34160 0.31100
C9W C -0.1433(2) 0.3913(2) 0.2396(5)
H4W H -0.12950 0.37290 0.22400
Mg1A Mg 0.40525(4) 0.70263(8) 0.50000
O1A O 0.48280(11) 0.74141(20) 0.50000
C1A C 0.4798(2) 0.52020(11) 0.1723(6)
N1A N 0.50000 0.50000 0.1184(6)
H1A H 0.50000 0.50000 0.06740
O2A O 0.40996(10) 0.65967(10) 0.4134(2)
C2A C 0.45595(20) 0.54405(11) 0.1423(5)
N2A N 0.46301(30) 0.53701(14) 0.00000
C3A C 0.38215(19) 0.61785(10) 0.3893(4)
C4A C 0.44871(30) 0.55131(14) 0.0652(6)
C5A C 0.40085(19) 0.59916(9) 0.3248(5)
C6A C 0.43648(20) 0.56348(10) 0.2083(5)
C7A C 0.42365(20) 0.57635(11) 0.0394(5)
H2A H 0.41010 0.59000 0.07200
C8A C 0.44656(20) 0.62646(18) 0.2941(4)
H3A H 0.46550 0.65840 0.31100
C9A C 0.4654(2) 0.6087(2) 0.2396(5)
H4A H 0.49760 0.62710 0.22400
C10A C 0.48756(20) 0.51246(12) 0.2513(7)
H5A H 0.47760 0.52230 0.29580
C1D C 0.5202(2) 0.47980(11) 0.1723(6)
O2D O 0.59004(10) 0.34033(10) 0.4134(2)
C2D C 0.54405(20) 0.45595(11) 0.1423(5)
N2D N 0.53699(30) 0.46299(14) 0.00000
C3D C 0.61785(19) 0.38215(10) 0.3893(4)
C4D C 0.55129(30) 0.44869(14) 0.0652(6)
C5D C 0.59915(19) 0.40084(9) 0.3248(5)
C6D C 0.56352(20) 0.43652(10) 0.2083(5)
C7D C 0.57635(20) 0.42365(11) 0.0394(5)
H2D H 0.58990 0.41000 0.07200
C8D C 0.55344(20) 0.37354(18) 0.2941(4)
H3D H 0.53450 0.34160 0.31100
C9D C 0.5346(2) 0.3913(2) 0.2396(5)
H4D H 0.50240 0.37290 0.22400
C10D C 0.51244(20) 0.48754(12) 0.2513(7)
H5D H 0.52240 0.47770 0.29580
C1G C 0.5202(2) 0.47980(11) -0.1723(6)
N1G N 0.50000 0.50000 -0.1184(6)
H1G H 0.50000 0.50000 -0.06740
O2G O 0.65967(10) 0.40996(10) -0.4134(2)
C2G C 0.54405(20) 0.45595(11) -0.1423(5)
C3G C 0.61785(19) 0.38215(10) -0.3893(4)
C4G C 0.55131(30) 0.44871(14) -0.0652(6)
C5G C 0.59916(19) 0.40085(9) -0.3248(5)
C6G C 0.56348(20) 0.43648(10) -0.2083(5)
C7G C 0.57635(20) 0.42365(11) -0.0394(5)
H2G H 0.59000 0.41010 -0.07200
C8G C 0.62646(20) 0.44656(18) -0.2941(4)
H3G H 0.65840 0.46550 -0.31100
C9G C 0.6087(2) 0.4654(2) -0.2396(5)
H4G H 0.62710 0.49760 -0.22400
C10G C 0.51246(20) 0.48756(12) -0.2513(7)
H5G H 0.52230 0.47760 -0.29580
C1J C 0.4798(2) 0.52020(11) -0.1723(6)
O2J O 0.34033(10) 0.59004(10) -0.4134(2)
C2J C 0.45595(20) 0.54405(11) -0.1423(5)
C3J C 0.38215(19) 0.61785(10) -0.3893(4)
C4J C 0.44869(30) 0.55129(14) -0.0652(6)
C5J C 0.40084(19) 0.59915(9) -0.3248(5)
C6J C 0.43652(20) 0.56352(10) -0.2083(5)
C7J C 0.42365(20) 0.57635(11) -0.0394(5)
H2J H 0.41000 0.58990 -0.07200
C8J C 0.37354(20) 0.55344(18) -0.2941(4)
H3J H 0.34160 0.53450 -0.31100
C9J C 0.3913(2) 0.5346(2) -0.2396(5)
H4J H 0.37290 0.50240 -0.22400
C10J C 0.48754(20) 0.51244(12) -0.2513(7)
H5J H 0.47770 0.52240 -0.29580
O2M O 0.59004(10) 0.34033(10) -0.4134(2)
C8M C 0.55344(20) 0.37354(18) -0.2941(4)
H3M H 0.53450 0.34160 -0.31100
C9M C 0.5346(2) 0.3913(2) -0.2396(5)
H4M H 0.50240 0.37290 -0.22400
O2P O 0.40996(10) 0.65967(10) -0.4134(2)
C8P C 0.44656(20) 0.62646(18) -0.2941(4)
H3P H 0.46550 0.65840 -0.31100
C9P C 0.4654(2) 0.6087(2) -0.2396(5)
H4P H 0.49760 0.62710 -0.22400
O2S O 0.34033(10) 0.59004(10) 0.4134(2)
C8S C 0.37354(20) 0.55344(18) 0.2941(4)
H3S H 0.34160 0.53450 0.31100
C9S C 0.3913(2) 0.5346(2) 0.2396(5)
H4S H 0.37290 0.50240 0.22400
O2V O 0.65967(10) 0.40996(10) 0.4134(2)
C8V C 0.62646(20) 0.44656(18) 0.2941(4)
H3V H 0.65840 0.46550 0.31100
C9V C 0.6087(2) 0.4654(2) 0.2396(5)
H4V H 0.62710 0.49760 0.22400
Mg1B Mg 0.29737(4) 0.70262(8) 0.50000
O1B O 0.25859(11) 0.74139(20) 0.50000
C1B C 0.4798(2) 0.95960(11) 0.1723(6)
N1B N 0.50000 1.00000 0.1184(6)
H1B H 0.50000 1.00000 0.06740
O2B O 0.34033(10) 0.75029(10) 0.4134(2)
C2B C 0.45595(20) 0.91190(11) 0.1423(5)
N2B N 0.46299(30) 0.92600(14) 0.00000
C3B C 0.38215(19) 0.7643(1) 0.3893(4)
C4B C 0.44869(30) 0.89740(14) 0.0652(6)
C5B C 0.40084(19) 0.80169(9) 0.3248(5)
C6B C 0.43652(20) 0.8730(1) 0.2083(5)
C7B C 0.42365(20) 0.84730(11) 0.0394(5)
H2B H 0.41000 0.82010 0.07200
C8B C 0.37354(20) 0.82010(18) 0.2941(4)
H3B H 0.34160 0.80710 0.31100
C9B C 0.3913(2) 0.8567(2) 0.2396(5)
H4B H 0.37290 0.87050 0.22400
C10B C 0.48754(20) 0.97510(12) 0.2513(7)
H5B H 0.47770 0.95530 0.29580
C1E C 0.5202(2) 1.04040(11) 0.1723(6)
O2E O 0.65967(10) 1.24971(10) 0.4134(2)
C2E C 0.54405(20) 1.08810(11) 0.1423(5)
N2E N 0.53701(30) 1.07400(14) 0.00000
C3E C 0.61785(19) 1.2357(1) 0.3893(4)
C4E C 0.55131(30) 1.10260(14) 0.0652(6)
C5E C 0.59916(19) 1.19831(9) 0.3248(5)
C6E C 0.56348(20) 1.1270(1) 0.2083(5)
C7E C 0.57635(20) 1.15270(11) 0.0394(5)
H2E H 0.59000 1.17990 0.07200
C8E C 0.62646(20) 1.17990(18) 0.2941(4)
H3E H 0.65840 1.19290 0.31100
C9E C 0.6087(2) 1.1433(2) 0.2396(5)
H4E H 0.62710 1.12950 0.22400
C10E C 0.51246(20) 1.02490(12) 0.2513(7)
H5E H 0.52230 1.04470 0.29580
C1F C 0.5202(2) 1.04040(11) -0.1723(6)
N1F N 0.50000 1.00000 -0.1184(6)
H1F H 0.50000 1.00000 -0.06740
O2F O 0.59004(10) 1.24971(10) -0.4134(2)
C2F C 0.54405(20) 1.08810(11) -0.1423(5)
C3F C 0.61785(19) 1.2357(1) -0.3893(4)
C4F C 0.55129(30) 1.10260(14) -0.0652(6)
C5F C 0.59915(19) 1.19831(9) -0.3248(5)
C6F C 0.56352(20) 1.1270(1) -0.2083(5)
C7F C 0.57635(20) 1.15270(11) -0.0394(5)
H2F H 0.58990 1.17990 -0.07200
C8F C 0.55344(20) 1.17990(18) -0.2941(4)
H3F H 0.53450 1.19290 -0.31100
C9F C 0.5346(2) 1.1433(2) -0.2396(5)
H4F H 0.50240 1.12950 -0.22400
C10F C 0.51244(20) 1.02490(12) -0.2513(7)
H5F H 0.52240 1.04470 -0.29580
C1I C 0.4798(2) 0.95960(11) -0.1723(6)
O2I O 0.40996(10) 0.75029(10) -0.4134(2)
C2I C 0.45595(20) 0.91190(11) -0.1423(5)
C3I C 0.38215(19) 0.7643(1) -0.3893(4)
C4I C 0.44871(30) 0.89740(14) -0.0652(6)
C5I C 0.40085(19) 0.80169(9) -0.3248(5)
C6I C 0.43648(20) 0.8730(1) -0.2083(5)
C7I C 0.42365(20) 0.84730(11) -0.0394(5)
H2I H 0.41010 0.82010 -0.07200
C8I C 0.44656(20) 0.82010(18) -0.2941(4)
H3I H 0.46550 0.80710 -0.31100
C9I C 0.4654(2) 0.8567(2) -0.2396(5)
H4I H 0.49760 0.87050 -0.22400
C10I C 0.48756(20) 0.97510(12) -0.2513(7)
H5I H 0.47760 0.95530 -0.29580
O2N O 0.65967(10) 1.24971(10) -0.4134(2)
C8N C 0.62646(20) 1.17990(18) -0.2941(4)
H3N H 0.65840 1.19290 -0.31100
C9N C 0.6087(2) 1.1433(2) -0.2396(5)
H4N H 0.62710 1.12950 -0.22400
O2Q O 0.34033(10) 0.75029(10) -0.4134(2)
C8Q C 0.37354(20) 0.82010(18) -0.2941(4)
H3Q H 0.34160 0.80710 -0.31100
C9Q C 0.3913(2) 0.8567(2) -0.2396(5)
H4Q H 0.37290 0.87050 -0.22400
O2R O 0.40996(10) 0.75029(10) 0.4134(2)
C8R C 0.44656(20) 0.82010(18) 0.2941(4)
H3R H 0.46550 0.80710 0.31100
C9R C 0.4654(2) 0.8567(2) 0.2396(5)
H4R H 0.49760 0.87050 0.22400
O2U O 0.59004(10) 1.24971(10) 0.4134(2)
C8U C 0.55344(20) 1.17990(18) 0.2941(4)
H3U H 0.53450 1.19290 0.31100
C9U C 0.5346(2) 1.1433(2) 0.2396(5)
H4U H 0.50240 1.12950 0.22400
Mg1C Mg -0.29738(4) 0.40525(8) 0.50000
O1C O -0.25861(11) 0.4828(2) 0.50000
O3C O -0.33330 0.33330 0.50000
Mg1D Mg -0.40525(4) 0.29737(8) 0.50000
O1D O -0.48280(11) 0.25859(20) 0.50000
Mg1E Mg -0.29737(4) 0.29738(8) 0.50000
O1E O -0.25859(11) 0.25861(20) 0.50000
Mg1* Mg 0.29738(4) 0.59475(8) -0.50000
Mg1A* Mg 0.40525(4) 0.70263(8) -0.50000
Mg1B* Mg 0.29737(4) 0.70262(8) -0.50000
Mg1C* Mg -0.29738(4) 0.40525(8) -0.50000
Mg1C** Mg 0.70262(4) 0.40525(8) -0.50000
Mg1C*** Mg 0.70262(4) 0.40525(8) 0.50000
Mg1D* Mg 0.59475(4) 0.29737(8) -0.50000
Mg1D** Mg 0.59475(4) 0.29737(8) 0.50000
Mg1D*** Mg 0.59475(4) 1.29737(8) -0.50000
Mg1D**** Mg 0.59475(4) 1.29737(8) 0.50000
Mg1E* Mg -0.29737(4) 0.29738(8) -0.50000
Mg1E** Mg 0.70263(4) 1.29738(8) -0.50000
Mg1E*** Mg 0.70263(4) 1.29738(8) 0.50000
O2D* O -0.40996(10) 0.34033(10) 0.4134(2)
O2E* O -0.34033(10) 0.24971(10) 0.4134(2)
O2F* O -0.40996(10) 0.24971(10) 0.5866(2)
O2G* O -0.34033(10) 0.40996(10) 0.5866(2)
O2H* O -0.24971(10) 0.34033(10) 0.5866(2)
O2I* O 0.40996(10) 0.75029(10) 0.5866(2)
O2J* O 0.34033(10) 0.59004(10) 0.5866(2)
O2K* O 0.24971(10) 0.65967(10) 0.5866(2)
O2L* O -0.24971(10) 0.40996(10) 0.5866(2)
O2M* O -0.40996(10) 0.34033(10) 0.5866(2)
O2N* O -0.34033(10) 0.24971(10) 0.5866(2)
O2O* O 0.24971(10) 0.59004(10) 0.5866(2)
O2P* O 0.40996(10) 0.65967(10) 0.5866(2)
O2Q* O 0.34033(10) 0.75029(10) 0.5866(2)
O2U* O -0.40996(10) 0.24971(10) 0.4134(2)
O2V* O -0.34033(10) 0.40996(10) 0.4134(2)
#END
