
#######################################################################
#
#                 Cambridge Crystallographic Data Centre
#                                CCDC
#
#######################################################################
#
# If this CIF has been generated from an entry in the Cambridge
# Structural Database, then it will include bibliographic, chemical,
# crystal, experimental, refinement or atomic coordinate data resulting
# from the CCDC's data processing and validation procedures.
#
#######################################################################

data_CSD_CIF_DALHIH
_audit_creation_date 1986-04-23
_audit_creation_method CSD-ConQuest-V1
_database_code_CSD DALHIH
_chemical_formula_sum 'C108 H216 K8 N12 O36 Sn18'
_chemical_formula_moiety
;
(C18 H36 K1 N2 O6 1+)6n,n(K2 Sn18 6-)
;
_journal_coden_Cambridge 9
_journal_volume 24
_journal_year 1985
_journal_page_first 1489
_journal_name_full 'Inorg.Chem. '
loop_
_publ_author_name
"R.C.Burns"
"J.D.Corbett"
_chemical_name_systematic
;
catena-(hexakis(Cryptate(2.2.2)-potassium) di-potassium-octadeca-tin)
;
_cell_volume   4186.070
_exptl_crystal_colour 'deep red-brown'
_exptl_special_details
;
Author has supplied corrected coordinates for N11,C33,C34,C35,C36. 
y(C18)=.0290
;
_diffrn_ambient_temperature 173.15
#These two values have been output from a single CSD field.
_refine_ls_R_factor_gt 0.075
_refine_ls_wR_factor_gt 0.075
_symmetry_cell_setting triclinic
_symmetry_space_group_name_H-M 'P -1'
_symmetry_Int_Tables_number 2
loop_
_symmetry_equiv_pos_site_id
_symmetry_equiv_pos_as_xyz
1 x,y,z
2 -x,-y,-z
_cell_length_a 16.146(6)
_cell_length_b 20.488(5)
_cell_length_c 15.824(5)
_cell_angle_alpha 98.56(3)
_cell_angle_beta 118.21(3)
_cell_angle_gamma 106.01(3)
_cell_formula_units_Z 1
loop_
_atom_type_symbol
_atom_type_radius_bond
C 0.68
K 1.99
N 0.68
O 0.68
Sn 1.46
loop_
_atom_site_label
_atom_site_type_symbol
_atom_site_fract_x
_atom_site_fract_y
_atom_site_fract_z
Sn1 Sn 0.3422(1) 0.31993(9) 0.1093(1)
Sn2 Sn 0.4857(1) 0.34870(7) 0.3261(1)
Sn3 Sn 0.2569(1) 0.33897(8) 0.2371(1)
Sn4 Sn 0.1707(1) 0.19050(9) 0.0624(1)
Sn5 Sn 0.4077(1) 0.20203(8) 0.1580(1)
Sn6 Sn 0.3674(1) 0.30015(8) 0.4198(1)
Sn7 Sn 0.1639(1) 0.19360(9) 0.2468(1)
Sn8 Sn 0.2614(1) 0.10591(8) 0.1921(1)
Sn9 Sn 0.4609(1) 0.20961(7) 0.3668(1)
K1 K 0.7490(3) -0.0091(2) 0.3604(3)
K2 K 0.7189(3) 0.3245(2) 0.9364(3)
K3 K 0.0346(3) 0.3669(2) 0.6076(3)
K4 K 0.00000 0.00000 0.00000
K5 K 0.50000 0.50000 0.50000
N1 N 0.767(1) -0.0301(8) 0.181(1)
N2 N 0.736(1) 0.0154(9) 0.542(1)
O1 O 0.071(1) 0.2925(7) 0.473(1)
O2 O -0.126(1) 0.2856(7) 0.400(1)
O3 O 0.168(1) 0.3459(7) 0.790(1)
O4 O -0.044(1) 0.2832(7) 0.703(1)
O5 O 0.160(1) 0.5124(7) 0.652(1)
O6 O -0.026(1) 0.4824(7) 0.642(1)
C1 C 0.775(2) -0.100(1) 0.156(2)
C2 C 0.692(2) -0.163(1) 0.153(2)
C3 C 0.635(2) -0.205(1) 0.255(2)
C4 C 0.666(1) -0.194(1) 0.364(2)
C5 C 0.688(2) -0.117(1) 0.506(2)
C6 C 0.668(2) -0.051(1) 0.538(2)
C7 C 0.676(2) -0.030(1) 0.090(2)
C8 C 0.645(2) 0.029(1) 0.119(2)
C9 C 0.567(2) 0.064(1) 0.203(2)
C10 C 0.535(2) 0.050(1) 0.275(2)
C11 C 0.596(2) 0.228(1) 0.670(2)
C12 C 0.628(2) 0.302(1) 0.672(2)
C13 C 0.633(2) 0.416(1) 0.739(2)
C14 C 0.620(2) 0.455(1) 0.817(2)
C15 C 0.655(2) 0.139(1) 0.958(2)
C16 C 0.645(2) 0.179(1) 1.036(2)
C17 C 0.603(2) 0.275(1) 1.079(2)
C18 C 0.558(2) 0.327(1) 1.041(2)
C19 C 0.583(2) 0.430(1) 0.989(2)
C20 C 0.664(2) 0.490(1) 0.991(2)
C21 C 0.250(2) 0.343(1) 0.601(2)
C22 C 0.169(2) 0.321(1) 0.486(2)
C23 C -0.007(2) 0.263(1) 0.366(2)
C24 C -0.106(2) 0.230(1) 0.353(2)
N3 N 0.738(1) 0.1817(10) 0.945(1)
N4 N 0.696(1) 0.4660(8) 0.923(1)
N5 N 0.248(1) 0.4028(8) 0.667(1)
N6 N -0.174(1) 0.3344(9) 0.551(1)
O7 O 0.714(1) -0.1503(7) 0.256(1)
O8 O 0.662(1) -0.1290(7) 0.402(1)
O9 O 0.606(1) 0.0117(7) 0.183(1)
O10 O 0.624(1) 0.0611(7) 0.370(1)
O11 O 0.937(1) 0.0738(7) 0.383(1)
O12 O 0.933(1) 0.0724(7) 0.559(1)
O13 O 0.911(1) 0.3219(8) 1.065(1)
O14 O 0.895(1) 0.4510(7) 1.025(1)
O15 O 0.667(1) 0.2200(8) 0.761(1)
O16 O 0.616(1) 0.3429(7) 0.746(1)
O17 O 0.612(1) 0.2369(7) 1.004(1)
O18 O 0.628(1) 0.3809(7) 1.030(1)
C25 C 0.597(2) 0.057(1) 0.445(2)
C26 C 0.694(2) 0.070(1) 0.546(2)
C27 C 0.863(2) 0.029(1) 0.205(2)
C28 C 0.954(2) 0.045(1) 0.306(2)
C29 C 1.028(2) 0.099(1) 0.481(2)
C30 C 1.010(2) 0.130(1) 0.561(2)
C31 C 0.920(2) 0.099(1) 0.640(2)
C32 C 0.838(2) 0.041(1) 0.636(2)
C33 C 0.839(2) 0.197(1) 1.038(2)
C34 C 0.925(2) 0.254(2) 1.045(2)
C35 C 0.994(2) 0.379(1) 1.075(2)
C36 C 0.986(2) 0.450(1) 1.107(2)
C37 C 0.883(2) 0.516(1) 1.047(2)
C38 C 0.800(2) 0.521(1) 0.958(2)
C39 C 0.724(2) 0.142(1) 0.851(2)
C40 C 0.636(2) 0.147(1) 0.757(2)
C41 C -0.227(2) 0.261(1) 0.379(2)
C42 C -0.241(2) 0.315(1) 0.434(2)
C43 C 0.310(2) 0.408(1) 0.772(2)
C44 C 0.263(2) 0.343(1) 0.800(2)
C45 C 0.126(2) 0.287(1) 0.813(2)
C46 C 0.025(1) 0.290(1) 0.804(1)
C47 C -0.137(1) 0.280(1) 0.691(1)
C48 C -0.210(1) 0.271(1) 0.578(1)
C49 C 0.288(2) 0.473(1) 0.658(2)
C50 C 0.271(2) 0.531(1) 0.704(2)
C51 C 0.143(2) 0.566(1) 0.702(2)
C52 C 0.027(2) 0.550(1) 0.640(2)
C53 C -0.133(2) 0.466(1) 0.590(2)
C54 C -0.185(2) 0.396(1) 0.598(2)
Sn2A Sn 0.5143(1) 0.65130(7) 0.6739(1)
Sn4A Sn -0.1707(1) -0.19050(9) -0.0624(1)
Sn6A Sn 0.6326(1) 0.69985(8) 0.5802(1)
Sn8A Sn -0.2614(1) -0.10591(8) -0.1921(1)
Sn1A Sn 0.6578(1) 0.68007(9) 0.8907(1)
Sn3A Sn 0.7431(1) 0.66103(8) 0.7629(1)
Sn5A Sn 0.5923(1) 0.79797(8) 0.8420(1)
Sn9A Sn 0.5391(1) 0.79039(7) 0.6332(1)
Sn7A Sn 0.8361(1) 0.80640(9) 0.7532(1)
Sn4A* Sn 0.8293(1) 0.80950(9) 0.9376(1)
Sn8A* Sn 0.7386(1) 0.89409(8) 0.8079(1)
K4* K 1.00000 1.00000 1.00000
#END
