
#######################################################################
#
#                 Cambridge Crystallographic Data Centre
#                                CCDC
#
#######################################################################
#
# If this CIF has been generated from an entry in the Cambridge
# Structural Database, then it will include bibliographic, chemical,
# crystal, experimental, refinement or atomic coordinate data resulting
# from the CCDC's data processing and validation procedures.
#
#######################################################################

data_CSD_CIF_DALRUG
_audit_creation_date 2016-12-14
_audit_creation_method CSD-ConQuest-V1
_database_code_CSD DALRUG
_database_code_depnum_ccdc_archive 'CCDC 1495415'
_chemical_formula_sum 'C3 H8 Cl3 Fe1 K1 N1 O5'
_chemical_formula_moiety
;
(C2 H2 Cl3 Fe1 K1 O5 1-)n,C1 H6 N1 1+
;
_journal_coden_Cambridge 9
_journal_volume 55
_journal_year 2016
_journal_page_first 11160
_journal_name_full 'Inorg.Chem. '
loop_
_publ_author_name
"T.F.Mastropietro"
"N.Marino"
"G.De Munno"
"F.Lloret"
"M.Julve"
"E.Pardo"
"D.Armentano"
_chemical_name_systematic
;
catena-(methylammonium 
(\m-aqua)-tris(\m-chloro)-(\m-oxalato)-iron(iii)-potassium)
;
_cell_volume    546.544
_exptl_crystal_colour 'green'
_exptl_crystal_density_diffrn 2.063
_exptl_crystal_description 'prism'
_exptl_crystal_preparation 'water'
_diffrn_ambient_temperature 294
#These two values have been output from a single CSD field.
_refine_ls_R_factor_gt 0.0391
_refine_ls_wR_factor_gt 0.0391
_symmetry_cell_setting monoclinic
_symmetry_space_group_name_H-M 'P 21/m'
_symmetry_Int_Tables_number 11
loop_
_symmetry_equiv_pos_site_id
_symmetry_equiv_pos_as_xyz
1 x,y,z
2 -x,1/2+y,-z
3 -x,-y,-z
4 x,-1/2-y,z
_cell_length_a 8.725(2)
_cell_length_b 7.5076(19)
_cell_length_c 9.026(3)
_cell_angle_alpha 90
_cell_angle_beta 112.421(7)
_cell_angle_gamma 90
_cell_formula_units_Z 2
loop_
_atom_type_symbol
_atom_type_radius_bond
C 0.68
H 0.23
Cl 0.99
Fe 1.52
K 2.03
N 0.68
O 0.68
loop_
_atom_site_label
_atom_site_type_symbol
_atom_site_fract_x
_atom_site_fract_y
_atom_site_fract_z
Fe1 Fe 0.82462(4) 0.75000 0.28027(3)
K1 K 0.56905(7) 0.75000 0.57766(8)
Cl1 Cl 0.75063(9) 0.75000 0.00497(7)
Cl2 Cl 0.65126(5) 0.98811(6) 0.27623(6)
O1 O 0.8934(2) 0.75000 0.5321(2)
O2 O 1.01769(14) 0.92389(15) 0.31926(14)
O3 O 1.27975(16) 0.93239(19) 0.33329(18)
C1 C 1.15459(19) 0.8530(2) 0.32658(18)
H1 H 0.951(3) 0.848(4) 0.581(4)
C2 C 0.1567(4) 0.75000 0.9524(4)
H2 H 0.12540 0.84930 0.87990
H3 H 0.10330 0.75960 1.02740
N1 N 0.3355(4) 0.75000 1.0385(3)
H4 H 0.36680 0.85250 1.09090
H5 H 0.38500 0.73720 0.96930
H6? H 0.12340 0.64110 0.89290
H7? H 0.36420 0.66020 1.10820
H1C H 0.951(3) 0.652(4) 0.581(4)
O2C O 1.01769(14) 0.57611(15) 0.31926(14)
O3C O 1.27975(16) 0.56761(19) 0.33329(18)
C1C C 1.15459(19) 0.6470(2) 0.32658(18)
Cl2B Cl 0.34874(5) 1.01189(6) 0.72377(6)
Fe1A Fe 0.17538(4) 1.25000 0.71973(3)
K1* K 0.56905(7) 0.75000 -0.42234(8)
K1** K 1.56905(7) 0.75000 0.57766(8)
K1A K 0.43095(7) 1.25000 0.42234(8)
K1A* K 1.43095(7) 0.25000 0.42234(8)
K1A** K 1.43095(7) 1.25000 0.42234(8)
Cl1* Cl 0.75063(9) 0.75000 1.00497(7)
Cl2A Cl 0.34874(5) 0.48811(6) 0.72377(6)
Cl2C Cl 0.65126(5) 0.51189(6) 0.27623(6)
O3* O 0.27975(16) 0.93239(19) 0.33329(18)
O3A O 0.72025(16) 0.43239(19) 0.66671(18)
O3B O 0.72025(16) 1.06761(19) 0.66671(18)
O3C* O 0.27975(16) 0.56761(19) 0.33329(18)
#END
