
#######################################################################
#
#                 Cambridge Crystallographic Data Centre
#                                CCDC
#
#######################################################################
#
# If this CIF has been generated from an entry in the Cambridge
# Structural Database, then it will include bibliographic, chemical,
# crystal, experimental, refinement or atomic coordinate data resulting
# from the CCDC's data processing and validation procedures.
#
#######################################################################

data_CSD_CIF_DALSAN
_audit_creation_date 2016-12-14
_audit_creation_method CSD-ConQuest-V1
_database_code_CSD DALSAN
_database_code_depnum_ccdc_archive 'CCDC 1495416'
_chemical_formula_sum 'C5 H13 Cl2 Fe2 N1 O12'
_chemical_formula_moiety
;
(C4 H1 Cl2 Fe2 O9 1-)n,C1 H6 N1 1+,3(H2 O1)
;
_journal_coden_Cambridge 9
_journal_volume 55
_journal_year 2016
_journal_page_first 11160
_journal_name_full 'Inorg.Chem. '
loop_
_publ_author_name
"T.F.Mastropietro"
"N.Marino"
"G.De Munno"
"F.Lloret"
"M.Julve"
"E.Pardo"
"D.Armentano"
_chemical_name_systematic
;
catena-(methylammonium (\m-hydroxo)-bis(\m-oxalato)-dichloro-di-iron(iii) 
trihydrate)
;
_cell_volume   1571.789
_exptl_crystal_colour 'yellow'
_exptl_crystal_density_diffrn 1.951
_exptl_crystal_description 'prism'
_exptl_crystal_preparation 'water'
_diffrn_ambient_temperature 100
#These two values have been output from a single CSD field.
_refine_ls_R_factor_gt 0.0556
_refine_ls_wR_factor_gt 0.0556
_symmetry_cell_setting monoclinic
_symmetry_space_group_name_H-M 'C c'
_symmetry_Int_Tables_number 9
loop_
_symmetry_equiv_pos_site_id
_symmetry_equiv_pos_as_xyz
1 x,y,z
2 x,-y,1/2+z
3 1/2+x,1/2+y,z
4 1/2+x,1/2-y,1/2+z
_cell_length_a 8.945(3)
_cell_length_b 14.936(5)
_cell_length_c 12.408(5)
_cell_angle_alpha 90
_cell_angle_beta 108.531(8)
_cell_angle_gamma 90
_cell_formula_units_Z 4
loop_
_atom_type_symbol
_atom_type_radius_bond
C 0.68
H 0.23
Cl 0.99
Fe 1.52
N 0.68
O 0.68
loop_
_atom_site_label
_atom_site_type_symbol
_atom_site_fract_x
_atom_site_fract_y
_atom_site_fract_z
Fe1 Fe 0.12132(9) 0.04953(5) 0.67924(7)
Fe2 Fe 0.23500(9) 0.20554(5) 0.90427(7)
Cl1 Cl 0.0852(2) -0.05055(9) 0.80424(14)
Cl2 Cl 0.0809(2) 0.3125(1) 0.79043(14)
O1 O 0.2482(5) 0.2849(3) 1.0487(4)
O2 O 0.2588(5) 0.1339(3) 0.7811(4)
O3 O 0.3056(5) -0.0077(3) 0.6415(4)
O4 O 0.6139(5) 0.3609(3) 1.0452(4)
O5 O 0.3579(5) -0.1103(3) 0.5249(4)
O6 O 0.0515(5) -0.1418(3) 0.4325(4)
O7 O -0.0031(5) -0.0358(3) 0.5433(4)
O8 O 0.4507(5) 0.2626(3) 0.9307(4)
O9 O 0.4091(5) 0.3882(3) 1.1577(4)
C1 C 0.4890(7) 0.3171(4) 1.0129(5)
C2 C 0.2663(7) -0.0652(3) 0.5624(5)
C3 C 0.0876(7) -0.0814(4) 0.5079(5)
C4 C 0.3702(7) 0.3303(3) 1.0785(5)
H1 H 0.31430 0.16370 0.74940
O10 O 0.4351(8) 0.2282(5) 0.6806(5)
H2 H 0.421(12) 0.216(8) 0.602(4)
H3 H 0.334(7) 0.251(8) 0.676(8)
O11 O 0.3701(10) 0.1824(7) 0.4600(7)
H4 H 0.434(10) 0.130(5) 0.493(10)
H5 H 0.269(6) 0.154(6) 0.431(10)
N1 N 0.7028(10) 0.1515(6) 0.8368(9)
H6 H 0.78770 0.16770 0.81900
H7 H 0.72270 0.15640 0.91160
H8 H 0.62230 0.18700 0.80110
C5 C 0.6631(11) 0.0600(7) 0.8027(12)
H9 H 0.56390 0.04510 0.81260
H10 H 0.74370 0.02100 0.84850
H11 H 0.65540 0.05300 0.72420
O12 O 0.2218(11) 0.3780(6) 0.5763(8)
H12 H 0.269(10) 0.422(6) 0.634(8)
H13 H 0.112(4) 0.390(7) 0.562(10)
Fe1C Fe 0.62132(9) 0.45047(5) 1.17924(7)
Fe2A Fe 0.23500(9) -0.20554(5) 0.40427(7)
O4C O 0.1139(5) 0.1391(3) 0.5452(4)
O5A O 0.3579(5) 0.1103(3) 1.0249(4)
O6A O 0.0515(5) 0.1418(3) 0.9325(4)
O9C O -0.0909(5) 0.1118(3) 0.6577(4)
#END
