
#######################################################################
#
#                 Cambridge Crystallographic Data Centre
#                                CCDC
#
#######################################################################
#
# If this CIF has been generated from an entry in the Cambridge
# Structural Database, then it will include bibliographic, chemical,
# crystal, experimental, refinement or atomic coordinate data resulting
# from the CCDC's data processing and validation procedures.
#
#######################################################################

data_CSD_CIF_DALSER
_audit_creation_date 2016-12-14
_audit_creation_method CSD-ConQuest-V1
_database_code_CSD DALSER
_database_code_depnum_ccdc_archive 'CCDC 1495417'
_chemical_formula_sum 'C5 H13 Cl2 Fe2 N1 O12'
_chemical_formula_moiety
;
(C4 Cl2 Fe2 O9 2-)n,n(C1 H6 N1 1+),2n(H2 O1),n(H3 O1 1+)
;
_journal_coden_Cambridge 9
_journal_volume 55
_journal_year 2016
_journal_page_first 11160
_journal_name_full 'Inorg.Chem. '
loop_
_publ_author_name
"T.F.Mastropietro"
"N.Marino"
"G.De Munno"
"F.Lloret"
"M.Julve"
"E.Pardo"
"D.Armentano"
_chemical_name_systematic
;
catena-(methylammonium oxonium bis(\m-oxalato)-(\m-oxo)-dichloro-di-iron(iii) 
dihydrate)
;
_cell_volume   3246.753
_exptl_crystal_colour 'red'
_exptl_crystal_density_diffrn 1.889
_exptl_crystal_description 'prism'
_exptl_crystal_preparation 'water'
_diffrn_ambient_temperature 100
_refine_special_details
;
C4,N2 disordered by symmetry over two configurations with occupancy 0.5.

;
#These two values have been output from a single CSD field.
_refine_ls_R_factor_gt 0.0416
_refine_ls_wR_factor_gt 0.0416
_symmetry_cell_setting orthorhombic
_symmetry_space_group_name_H-M 'F d d 2'
_symmetry_Int_Tables_number 43
loop_
_symmetry_equiv_pos_site_id
_symmetry_equiv_pos_as_xyz
1 x,y,z
2 -x,-y,z
3 1/4+x,1/4-y,1/4+z
4 1/4-x,1/4+y,1/4+z
5 x,1/2+y,1/2+z
6 -x,1/2-y,1/2+z
7 1/4+x,3/4-y,3/4+z
8 1/4-x,3/4+y,3/4+z
9 1/2+x,y,1/2+z
10 1/2-x,-y,1/2+z
11 3/4+x,1/4-y,3/4+z
12 3/4-x,1/4+y,3/4+z
13 1/2+x,1/2+y,z
14 1/2-x,1/2-y,z
15 3/4+x,3/4-y,1/4+z
16 3/4-x,3/4+y,1/4+z
_cell_length_a 14.914(4)
_cell_length_b 23.507(8)
_cell_length_c 9.261(4)
_cell_angle_alpha 90
_cell_angle_beta 90
_cell_angle_gamma 90
_cell_formula_units_Z 8
loop_
_atom_type_symbol
_atom_type_radius_bond
C 0.68
Cl 0.99
Fe 1.52
N 0.68
O 0.68
loop_
_atom_site_label
_atom_site_type_symbol
_atom_site_fract_x
_atom_site_fract_y
_atom_site_fract_z
Fe1 Fe 0.07694(4) 0.44385(2) 0.55071(5)
Cl1 Cl 0.18137(10) 0.50420(7) 0.6446(2)
O1 O -0.0169(2) 0.37976(14) 0.4956(4)
O2 O 0.0170(2) 0.43018(14) 0.7459(4)
O3 O -0.0874(2) 0.37596(15) 0.8529(4)
O4 O -0.1168(2) 0.32280(14) 0.6033(4)
O5 O 0.00000 0.50000 0.4703(6)
C1 C -0.0601(3) 0.36218(17) 0.6028(5)
C2 C -0.0427(3) 0.39225(17) 0.7471(5)
O6 O 0.1039(12) 0.5512(6) 0.240(2)
O7 O 0.0553(15) 0.6614(10) 0.186(3)
N1 N 0.097(4) 0.489(2) 0.046(8)
C3 C 0.013(4) 0.472(2) 0.046(8)
Fe1A Fe -0.07694(4) 0.55615(2) 0.55071(5)
Cl1A Cl -0.18137(10) 0.49580(7) 0.6446(2)
O1A O 0.0169(2) 0.62024(14) 0.4956(4)
O2A O -0.0170(2) 0.56982(14) 0.7459(4)
O3A O 0.0874(2) 0.62404(15) 0.8529(4)
O4A O 0.1168(2) 0.67720(14) 0.6033(4)
C1A C 0.0601(3) 0.63782(17) 0.6028(5)
C2A C 0.0427(3) 0.60775(17) 0.7471(5)
Fe1C Fe 0.17306(4) 0.69385(2) 0.80071(5)
Fe1N Fe -0.17306(4) 0.30615(2) 0.80071(5)
O3F O 0.1626(2) 0.37404(15) 0.6029(4)
O3K O -0.1626(2) 0.62596(15) 0.6029(4)
O4F O 0.1332(2) 0.42720(14) 0.3533(4)
O4K O -0.1332(2) 0.57280(14) 0.3533(4)
N1A N -0.097(4) 0.511(2) 0.046(8)
C3A C -0.013(4) 0.528(2) 0.046(8)
#END
