
#######################################################################
#
#                 Cambridge Crystallographic Data Centre
#                                CCDC
#
#######################################################################
#
# If this CIF has been generated from an entry in the Cambridge
# Structural Database, then it will include bibliographic, chemical,
# crystal, experimental, refinement or atomic coordinate data resulting
# from the CCDC's data processing and validation procedures.
#
#######################################################################

data_CSD_CIF_DAMRIU
_audit_creation_date 2012-01-09
_audit_creation_method CSD-ConQuest-V1
_database_code_CSD DAMRIU
_database_code_depnum_ccdc_archive 'CCDC 809397'
_chemical_formula_sum 'C52 H123 Fe14 K3 N2 O116 Sb12'
_chemical_formula_moiety
;
(C48 H46 Fe14 O88 Sb12 10-)n,3n(K1 1+),28n(H2 O1),5n(H1 1+),2n(C2 H8 N1 1+)
;
_journal_coden_Cambridge 1147
_journal_volume 11
_journal_year 2011
_journal_page_first 4632
_journal_name_full 'Cryst.Growth Des. '
loop_
_publ_author_name
"Qiang Gao"
"Xiqu Wang"
"M.T.Conato"
"T.Makarenko"
"A.J.Jacobson"
_chemical_name_systematic
;
catena-(tri-potassium pentahydrogen bis(dimethylammonium) 
dodecakis(\m~4~-oxo)-hexakis(\m~4~-L-tartrato)-hexakis(\m~3~-L-tartrato)-tetra
kis(\m~3~-oxo)-tetradeca-iron-dodeca-antimony(iii) octacosahydrate)
;
_cell_volume   7749.732
_exptl_crystal_colour 'red'
_exptl_crystal_density_diffrn 2.14
_exptl_special_details
;
The hydride ligand was not located. The dimethylammonium is not 
crystallographically located
;
_exptl_crystal_description 'hexagonal'
_diffrn_ambient_temperature 298
_refine_special_details
;
O17W disordered by symmetry over two sites with occupancy 0.50.

;
#These two values have been output from a single CSD field.
_refine_ls_R_factor_gt 0.0356
_refine_ls_wR_factor_gt 0.0356
_symmetry_cell_setting hexagonal
_symmetry_space_group_name_H-M 'P 63 2 2'
_symmetry_Int_Tables_number 182
loop_
_symmetry_equiv_pos_site_id
_symmetry_equiv_pos_as_xyz
1 x,y,z
2 x-y,x,1/2+z
3 -y,x-y,z
4 -x,-y,1/2+z
5 -x+y,-x,z
6 y,-x+y,1/2+z
7 x-y,-y,-z
8 -x,-x+y,-z
9 y,x,-z
10 -y,-x,1/2-z
11 -x+y,y,1/2-z
12 x,x-y,1/2-z
_cell_length_a 19.0892(9)
_cell_length_b 19.0892(9)
_cell_length_c 24.5573(12)
_cell_angle_alpha 90
_cell_angle_beta 90
_cell_angle_gamma 120
_cell_formula_units_Z 2
loop_
_atom_type_symbol
_atom_type_radius_bond
C 0.68
H 0.23
Fe 1.35
K 1.58
O 0.68
Sb 1.39
loop_
_atom_site_label
_atom_site_type_symbol
_atom_site_fract_x
_atom_site_fract_y
_atom_site_fract_z
Sb1 Sb 0.78436(4) 0.35475(3) 0.56707(2)
Sb2 Sb 0.76990(4) 0.44758(3) 0.32028(2)
Fe1 Fe 0.86686(6) 0.45907(6) 0.44217(5)
Fe2 Fe 0.78311(7) 0.26407(5) 0.44407(4)
Fe3 Fe 0.66670 0.33330 0.44348(7)
K1 K 1.00000 0.36918(13) 0.50000
O1 O 0.66670 0.33330 0.5754(3)
O2 O 0.66670 0.33330 0.3126(4)
O3 O 0.7696(4) 0.3475(3) 0.48630(19)
O4 O 0.7516(4) 0.4363(3) 0.4000(2)
O5 O 0.9200(3) 0.4449(4) 0.5403(3)
O6 O 1.0146(3) 0.5723(3) 0.5588(2)
O7 O 0.8002(4) 0.4665(3) 0.5742(2)
O8 O 0.7499(4) 0.5933(3) 0.5070(2)
O9 O 0.8305(6) 0.6645(4) 0.5757(3)
O10 O 0.8401(4) 0.5400(3) 0.4736(2)
O11 O 0.9044(6) 0.5236(4) 0.3430(3)
O12 O 1.0206(6) 0.5297(4) 0.3246(3)
O13 O 0.8157(4) 0.3727(3) 0.3141(3)
O14 O 0.8168(4) 0.2188(3) 0.3820(2)
O15 O 0.9051(7) 0.2467(5) 0.3155(3)
O16 O 0.8802(3) 0.3647(4) 0.4161(2)
O17 O 0.9998(9) 0.2554(7) 0.5780(7)
O18 O 0.3056(15) 0.2627(13) 0.3857(13)
C1 C 0.8986(7) 0.3992(5) 0.3192(4)
H1 H 0.91760 0.38680 0.28550
C2 C 0.9485(8) 0.4939(5) 0.3292(4)
C3 C 0.8785(7) 0.2686(5) 0.3526(4)
C4 C 0.8148(6) 0.6189(4) 0.5368(3)
C5 C 0.9144(6) 0.3574(5) 0.3666(3)
H2 H 0.97300 0.38150 0.37140
C6 C 0.8712(6) 0.5872(4) 0.5204(3)
H3 H 0.92530 0.63280 0.51280
C7 C 0.8757(6) 0.5368(4) 0.5672(3)
H4 H 0.88940 0.56890 0.60070
C8 C 0.9436(6) 0.5173(4) 0.5550(3)
Sb1B Sb 0.64525(4) 0.42961(3) 0.56707(2)
Sb1D Sb 0.57039(4) 0.21564(3) 0.56707(2)
Sb1G Sb 1.21564(4) 0.57039(3) 0.43293(2)
Sb1F Sb 0.42961(4) 0.64525(3) 0.43293(2)
Sb1H Sb 0.35475(4) -0.21564(3) 0.43293(2)
Sb1F* Sb 1.42961(4) 0.64525(3) 0.43293(2)
Sb1H* Sb 1.35475(4) 0.78436(3) 0.43293(2)
Sb2B Sb 0.55242(4) 0.32232(3) 0.32028(2)
Sb2D Sb 0.67768(4) 0.23010(3) 0.32028(2)
Sb2G Sb 1.23010(4) 0.67768(3) 0.67972(2)
Sb2H Sb 0.44758(4) -0.23010(3) 0.67972(2)
Sb2F Sb 0.32232(4) 0.55242(3) 0.67972(2)
Sb2F* Sb 1.32232(4) 0.55242(3) 0.67972(2)
Sb2H* Sb 1.44758(4) 0.76990(3) 0.67972(2)
Fe1B Fe 0.54093(6) 0.40779(6) 0.44217(5)
Fe1D Fe 0.59221(6) 0.13314(6) 0.44217(5)
Fe1G Fe 1.13314(6) 0.59221(6) 0.55783(5)
Fe1H Fe 0.45907(6) -0.13314(6) 0.55783(5)
Fe1F Fe 0.40779(6) 0.54093(6) 0.55783(5)
Fe2B Fe 0.73593(7) 0.51904(5) 0.44407(4)
Fe2D Fe 0.48096(7) 0.21689(5) 0.44407(4)
Fe2H Fe 1.26407(7) 0.78311(5) 0.55593(4)
Fe2G Fe 0.21689(7) 0.48096(5) 0.55593(4)
Fe2F Fe 0.51904(7) -0.26407(5) 0.55593(4)
Fe2G* Fe 1.21689(7) 0.48096(5) 0.55593(4)
Fe2F* Fe 0.51904(7) 0.73593(5) 0.55593(4)
Fe2H* Fe 0.26407(7) -0.21689(5) 0.55593(4)
Fe3G Fe 1.33330 0.66660 0.55652(7)
Fe3F Fe 0.33340 0.66670 0.55652(7)
Fe3H Fe 0.33330 -0.33330 0.55652(7)
O1G O 1.33330 0.66660 0.4246(3)
O1F O 0.33340 0.66670 0.4246(3)
O1H O 0.33330 -0.33330 0.4246(3)
O2G O 1.33330 0.66660 0.6874(4)
O2H O 0.33330 -0.33330 0.6874(4)
O2F O 0.33340 0.66670 0.6874(4)
O3B O 0.6525(4) 0.4221(3) 0.48630(19)
O3D O 0.5779(4) 0.2304(3) 0.48630(19)
O3G O 1.2304(4) 0.5779(3) 0.51370(19)
O3F O 0.4221(4) 0.6525(3) 0.51370(19)
O3H O 0.3475(4) -0.2304(3) 0.51370(19)
O3H* O 1.3475(4) 0.7696(3) 0.51370(19)
O3G* O 0.2304(4) 0.5779(3) 0.51370(19)
O3F* O 0.4221(4) -0.3475(3) 0.51370(19)
O3F** O 1.4221(4) 0.6525(3) 0.51370(19)
O4B O 0.5637(4) 0.3153(3) 0.4000(2)
O4D O 0.6847(4) 0.2484(3) 0.4000(2)
O4G O 1.2484(4) 0.6847(3) 0.6000(2)
O4H O 0.4363(4) -0.2484(3) 0.6000(2)
O4F O 0.3153(4) 0.5637(3) 0.6000(2)
O4H* O 1.4363(4) 0.7516(3) 0.6000(2)
O4F* O 1.3153(4) 0.5637(3) 0.6000(2)
O5G O 1.0800(3) 0.5249(4) 0.4597(3)
O5D O 0.5249(3) 0.0800(4) 0.5403(3)
O5B O 0.5551(3) 0.4751(4) 0.5403(3)
O5F O 0.4751(3) 0.5551(4) 0.4597(3)
O5H O 0.4449(3) -0.0800(4) 0.4597(3)
O6G O 0.9854(3) 0.5577(3) 0.4412(2)
O6D O 0.5577(3) -0.0146(3) 0.5588(2)
O6B O 0.4277(3) 0.4423(3) 0.5588(2)
O6F O 0.4423(3) 0.4277(3) 0.4412(2)
O6H O 0.5723(3) 0.0146(3) 0.4412(2)
O7G O 1.1998(4) 0.6663(3) 0.4258(2)
O7D O 0.6663(4) 0.1998(3) 0.5742(2)
O7B O 0.5335(4) 0.3337(3) 0.5742(2)
O7F O 0.3337(4) 0.5335(3) 0.4258(2)
O7H O 0.4665(4) -0.1998(3) 0.4258(2)
O8G O 1.2501(4) 0.8434(3) 0.4930(2)
O8D O 0.8434(4) 0.2501(3) 0.5070(2)
O8B O 0.4067(4) 0.1566(3) 0.5070(2)
O8F O 0.1566(4) 0.4067(3) 0.4930(2)
O8H O 0.5933(4) -0.2501(3) 0.4930(2)
O9G O 1.1695(6) 0.8340(4) 0.4243(3)
O9D O 0.8340(6) 0.1695(4) 0.5757(3)
O9B O 0.3355(6) 0.1660(4) 0.5757(3)
O9F O 0.1660(6) 0.3355(4) 0.4243(3)
O9H O 0.6645(6) -0.1695(4) 0.4243(3)
O10G O 1.1599(4) 0.6999(3) 0.5264(2)
O10D O 0.6999(4) 0.1599(3) 0.4736(2)
O10B O 0.4600(4) 0.3001(3) 0.4736(2)
O10F O 0.3001(4) 0.4600(3) 0.5264(2)
O10H O 0.5400(4) -0.1599(3) 0.5264(2)
O11B O 0.4764(6) 0.3808(4) 0.3430(3)
O11D O 0.6192(6) 0.0956(4) 0.3430(3)
O11G O 1.0956(6) 0.6192(4) 0.6570(3)
O11H O 0.5236(6) -0.0956(4) 0.6570(3)
O11F O 0.3808(6) 0.4764(4) 0.6570(3)
O12B O 0.4703(6) 0.4909(4) 0.3246(3)
O12D O 0.5091(6) -0.0206(4) 0.3246(3)
O12G O 0.9794(6) 0.5091(4) 0.6754(3)
O12H O 0.5297(6) 0.0206(4) 0.6754(3)
O12F O 0.4909(6) 0.4703(4) 0.6754(3)
O13B O 0.6273(4) 0.4430(3) 0.3141(3)
O13D O 0.5570(4) 0.1843(3) 0.3141(3)
O13G O 1.1843(4) 0.5570(3) 0.6859(3)
O13H O 0.3727(4) -0.1843(3) 0.6859(3)
O13F O 0.4430(4) 0.6273(3) 0.6859(3)
O14B O 0.7812(4) 0.5980(3) 0.3820(2)
O14D O 0.4020(4) 0.1832(3) 0.3820(2)
O14G O 1.1832(4) 0.4020(3) 0.6180(2)
O14H O 0.2188(4) -0.1832(3) 0.6180(2)
O14F O 0.5980(4) 0.7812(3) 0.6180(2)
O14H* O 1.2188(4) 0.8168(3) 0.6180(2)
O14G* O 0.1832(4) 0.4020(3) 0.6180(2)
O14F* O 0.5980(4) -0.2188(3) 0.6180(2)
O15B O 0.7533(7) 0.6584(5) 0.3155(3)
O15D O 0.3416(7) 0.0949(5) 0.3155(3)
O15G O 1.0949(7) 0.3416(5) 0.6845(3)
O15H O 0.2467(7) -0.0949(5) 0.6845(3)
O15F O 0.6584(7) 0.7533(5) 0.6845(3)
O16B O 0.6353(3) 0.5155(4) 0.4161(2)
O16D O 0.4845(3) 0.1198(4) 0.4161(2)
O16G O 1.1198(3) 0.4845(4) 0.5839(2)
O16H O 0.3647(3) -0.1198(4) 0.5839(2)
O16F O 0.5155(3) 0.6353(4) 0.5839(2)
O16H* O 1.3647(3) 0.8802(4) 0.5839(2)
O16G* O 0.1198(3) 0.4845(4) 0.5839(2)
O16F* O 0.5155(3) -0.3647(4) 0.5839(2)
C1B C 0.6008(7) 0.4994(5) 0.3192(4)
C1D C 0.5006(7) 0.1014(5) 0.3192(4)
C1G C 1.1014(7) 0.5006(5) 0.6808(4)
C1H C 0.3992(7) -0.1014(5) 0.6808(4)
C1F C 0.4994(7) 0.6008(5) 0.6808(4)
H1B H 0.61320 0.53080 0.28550
H1D H 0.46920 0.08240 0.28550
H1G H 1.08240 0.46920 0.71450
H1H H 0.38680 -0.08240 0.71450
H1F H 0.53080 0.61320 0.71450
C2B C 0.5061(8) 0.4546(5) 0.3292(4)
C2D C 0.5454(8) 0.0515(5) 0.3292(4)
C2G C 1.0515(8) 0.5454(5) 0.6708(4)
C2H C 0.4939(8) -0.0515(5) 0.6708(4)
C2F C 0.4546(8) 0.5061(5) 0.6708(4)
C3B C 0.7314(7) 0.6099(5) 0.3526(4)
C3D C 0.3901(7) 0.1215(5) 0.3526(4)
C3G C 1.1215(7) 0.3901(5) 0.6474(4)
C3H C 0.2686(7) -0.1215(5) 0.6474(4)
C3F C 0.6099(7) 0.7314(5) 0.6474(4)
C4G C 1.1852(6) 0.8041(4) 0.4632(3)
C4D C 0.8041(6) 0.1852(4) 0.5368(3)
C4B C 0.3811(6) 0.1959(4) 0.5368(3)
C4F C 0.1959(6) 0.3811(4) 0.4632(3)
C4H C 0.6189(6) -0.1852(4) 0.4632(3)
C5B C 0.6426(6) 0.5570(5) 0.3666(3)
C5D C 0.4430(6) 0.0856(5) 0.3666(3)
C5G C 1.0856(6) 0.4430(5) 0.6334(3)
C5H C 0.3574(6) -0.0856(5) 0.6334(3)
C5F C 0.5570(6) 0.6426(5) 0.6334(3)
H2B H 0.61850 0.59150 0.37140
H2D H 0.40850 0.02700 0.37140
H2G H 1.02700 0.40850 0.62860
H2H H 0.38150 -0.02700 0.62860
H2F H 0.59150 0.61850 0.62860
C6G C 1.1288(6) 0.7160(4) 0.4796(3)
C6D C 0.7160(6) 0.1288(4) 0.5204(3)
C6B C 0.4128(6) 0.2840(4) 0.5204(3)
C6F C 0.2840(6) 0.4128(4) 0.4796(3)
C6H C 0.5872(6) -0.1288(4) 0.4796(3)
H3G H 1.07470 0.70750 0.48720
H3D H 0.70750 0.07470 0.51280
H3B H 0.36720 0.29250 0.51280
H3F H 0.29250 0.36720 0.48720
H3H H 0.63280 -0.07470 0.48720
C7G C 1.1243(6) 0.6611(4) 0.4328(3)
C7D C 0.6611(6) 0.1243(4) 0.5672(3)
C7B C 0.4632(6) 0.3389(4) 0.5672(3)
C7F C 0.3389(6) 0.4632(4) 0.4328(3)
C7H C 0.5368(6) -0.1243(4) 0.4328(3)
H4G H 1.11060 0.67950 0.39930
H4D H 0.67950 0.11060 0.60070
H4B H 0.43110 0.32050 0.60070
H4F H 0.32050 0.43110 0.39930
H4H H 0.56890 -0.11060 0.39930
C8G C 1.0564(6) 0.5737(4) 0.4450(3)
C8D C 0.5737(6) 0.0564(4) 0.5550(3)
C8B C 0.4827(6) 0.4263(4) 0.5550(3)
C8F C 0.4263(6) 0.4827(4) 0.4450(3)
C8H C 0.5173(6) -0.0564(4) 0.4450(3)
#END
