
#######################################################################
#
#                 Cambridge Crystallographic Data Centre
#                                CCDC
#
#######################################################################
#
# If this CIF has been generated from an entry in the Cambridge
# Structural Database, then it will include bibliographic, chemical,
# crystal, experimental, refinement or atomic coordinate data resulting
# from the CCDC's data processing and validation procedures.
#
#######################################################################

data_CSD_CIF_DANQEO
_audit_creation_date 2000-02-17
_audit_creation_method CSD-ConQuest-V1
_database_code_CSD DANQEO
_database_code_depnum_ccdc_archive 'CCDC 102631'
_chemical_formula_sum 'C14 H20 Bi1 N1 S10'
_chemical_formula_moiety
;
(C8 H20 N1 1+)n,n(C6 Bi1 S10 1-)
;
_journal_coden_Cambridge 580
_journal_volume 18
_journal_year 1999
_journal_page_first 1049
_journal_name_full 'Polyhedron '
loop_
_publ_author_name
"Tianlu Sheng"
"Xintao Wu"
"Ping Lin"
"Wenjian Zhang"
"Quanming Wang"
"Ling Chen"
_chemical_name_systematic
;
catena(Tetraethylammonium 
bis(\m~2~-1,3-dithiole-2-thione-4,5-dithiolato)-bismuth)
;
_cell_volume   2473.048
_exptl_crystal_colour 'black'
_exptl_crystal_density_diffrn 1.97
_exptl_crystal_description 'prism'
_diffrn_ambient_temperature ?
_diffrn_special_details
;
The study was carried out at room temperature,in the range 283-303K

;
#These two values have been output from a single CSD field.
_refine_ls_R_factor_gt 0.0627
_refine_ls_wR_factor_gt 0.0627
_symmetry_cell_setting orthorhombic
_symmetry_space_group_name_H-M 'P n a 21'
_symmetry_Int_Tables_number 33
loop_
_symmetry_equiv_pos_site_id
_symmetry_equiv_pos_as_xyz
1 x,y,z
2 -x,-y,1/2+z
3 1/2+x,1/2-y,z
4 1/2-x,1/2+y,1/2+z
_cell_length_a 8.106(5)
_cell_length_b 20.495(6)
_cell_length_c 14.886(2)
_cell_angle_alpha 90
_cell_angle_beta 90
_cell_angle_gamma 90
_cell_formula_units_Z 4
loop_
_atom_type_symbol
_atom_type_radius_bond
C 0.68
H 0.23
Bi 1.69
N 0.68
S 1.02
loop_
_atom_site_label
_atom_site_type_symbol
_atom_site_fract_x
_atom_site_fract_y
_atom_site_fract_z
Bi1 Bi 0.7945(2) 0.77661(8) 0.64780
S1 S 0.840(2) 0.8906(6) 0.5654(9)
S2 S 0.560(2) 0.7678(6) 0.5103(8)
S3 S 0.330(2) 0.8780(7) 0.474(1)
S4 S 0.565(2) 0.9791(7) 0.512(1)
S5 S 0.233(2) 1.0167(9) 0.450(1)
S6 S 0.594(2) 0.8488(7) 0.749(1)
S7 S 0.573(2) 0.6804(6) 0.751(1)
S8 S 0.440(2) 0.8405(7) 0.927(1)
S9 S 0.418(2) 0.7026(7) 0.932(1)
S10 S 0.286(2) 0.7784(7) 1.086(1)
C1 C 0.639(6) 0.896(2) 0.527(3)
C2 C 0.530(5) 0.853(2) 0.506(3)
C3 C 0.365(7) 0.960(3) 0.480(4)
C4 C 0.520(5) 0.802(2) 0.839(3)
C5 C 0.510(5) 0.732(2) 0.831(3)
C6 C 0.381(6) 0.771(2) 0.989(3)
N1 N 0.877(5) 0.922(2) 0.239(3)
C7 C 0.934(8) 0.873(3) 0.321(5)
C8 C 1.009(8) 0.822(3) 0.287(5)
C9 C 0.820(7) 0.982(2) 0.283(4)
C10 C 0.743(8) 1.028(3) 0.214(5)
C11 C 0.743(7) 0.885(3) 0.193(4)
C12 C 0.592(8) 0.881(3) 0.253(5)
C13 C 1.012(7) 0.932(3) 0.155(7)
C14 C 1.168(9) 0.965(3) 0.216(5)
H1 H 0.83869 0.85946 0.35471
H2 H 1.00713 0.89513 0.36075
H3 H 1.03573 0.79598 0.33499
H4 H 1.09636 0.83862 0.25546
H5 H 0.92793 0.80295 0.24942
H6 H 0.91404 1.00182 0.31227
H7 H 0.74312 0.97013 0.32944
H8 H 0.71065 1.06489 0.24889
H9 H 0.65400 1.00586 0.19141
H10 H 0.82492 1.03755 0.17424
H11 H 0.78029 0.84531 0.17145
H12 H 0.71146 0.91153 0.13763
H13 H 0.50440 0.85891 0.22788
H14 H 0.55744 0.92332 0.27438
H15 H 0.62627 0.85710 0.30820
H16 H 0.97090 0.96085 0.10943
H17 H 1.04034 0.89153 0.12736
H18 H 1.25449 0.97341 0.17863
H19 H 1.19468 0.93401 0.26144
H20 H 1.12523 1.00333 0.24351
S2B S 1.060(2) 0.7322(6) 0.5103(8)
S7B S 1.073(2) 0.8196(6) 0.751(1)
Bi1B Bi 0.2945(2) 0.72339(8) 0.64780
#END
