
#######################################################################
#
#                 Cambridge Crystallographic Data Centre
#                                CCDC
#
#######################################################################
#
# If this CIF has been generated from an entry in the Cambridge
# Structural Database, then it will include bibliographic, chemical,
# crystal, experimental, refinement or atomic coordinate data resulting
# from the CCDC's data processing and validation procedures.
#
#######################################################################

data_CSD_CIF_DANQIS
_audit_creation_date 2000-02-17
_audit_creation_method CSD-ConQuest-V1
_database_code_CSD DANQIS
_database_code_depnum_ccdc_archive 'CCDC 102632'
_chemical_formula_sum 'C32 H50 Bi2 N2 O1 S20'
_chemical_formula_moiety
;
(C8 H20 N1 1+)2n,n(C12 Bi2 S20 2-),n(C4 H10 O1)
;
_journal_coden_Cambridge 580
_journal_volume 18
_journal_year 1999
_journal_page_first 1049
_journal_name_full 'Polyhedron '
loop_
_publ_author_name
"Tianlu Sheng"
"Xintao Wu"
"Ping Lin"
"Wenjian Zhang"
"Quanming Wang"
"Ling Chen"
_chemical_name_systematic
;
catena(bis(Tetraethylammonium) 
tetrakis(\m~2~-1,3-dithiole-2-thione-4,5-dithiolato)-di-bismuth diethyl ether 
solvate)
;
_cell_volume   2684.027
_exptl_crystal_colour 'black'
_exptl_crystal_density_diffrn 1.903
_diffrn_ambient_temperature ?
_diffrn_special_details
;
The study was carried out at room temperature,in the range 283-303K

;
#These two values have been output from a single CSD field.
_refine_ls_R_factor_gt 0.0441
_refine_ls_wR_factor_gt 0.0441
_symmetry_cell_setting triclinic
_symmetry_space_group_name_H-M 'P -1'
_symmetry_Int_Tables_number 2
loop_
_symmetry_equiv_pos_site_id
_symmetry_equiv_pos_as_xyz
1 x,y,z
2 -x,-y,-z
_cell_length_a 7.503(6)
_cell_length_b 17.799(9)
_cell_length_c 21.180(8)
_cell_angle_alpha 77.75(5)
_cell_angle_beta 80.09(3)
_cell_angle_gamma 78.55(3)
_cell_formula_units_Z 2
loop_
_atom_type_symbol
_atom_type_radius_bond
C 0.68
H 0.23
Bi 1.69
N 0.68
O 0.68
S 1.05
loop_
_atom_site_label
_atom_site_type_symbol
_atom_site_fract_x
_atom_site_fract_y
_atom_site_fract_z
Bi1 Bi 0.23591(6) 0.02037(3) 0.00433(2)
S1 S 0.4920(4) 0.1010(2) -0.0852(2)
S2 S 0.3591(5) 0.0981(2) 0.0775(2)
S3 S 0.4918(5) 0.2710(2) -0.0918(2)
S4 S 0.3584(4) 0.2697(2) 0.0424(2)
S5 S 0.4313(5) 0.4199(2) -0.0422(2)
S6 S -0.0064(4) 0.1474(2) -0.0327(2)
S7 S -0.0564(4) 0.0117(2) 0.1085(2)
S8 S -0.1785(4) 0.2627(2) 0.0520(2)
S9 S -0.2453(5) 0.1506(2) 0.1680(2)
S10 S -0.3803(6) 0.3203(3) 0.1700(2)
C1 C 0.4574(15) 0.1804(7) -0.0457(6)
C2 C 0.4008(16) 0.1781(7) 0.0190(7)
C3 C 0.4265(15) 0.3261(7) -0.0312(6)
C4 C -0.1056(15) 0.1645(8) 0.0448(7)
C5 C -0.1321(16) 0.1124(8) 0.0988(7)
C6 C -0.2757(15) 0.2495(8) 0.1320(6)
Bi2 Bi 0.23861(6) 0.52151(3) 0.50240(2)
S11 S 0.4409(4) 0.5172(2) 0.6052(2)
S12 S 0.3915(5) 0.6491(2) 0.4635(2)
S13 S 0.4301(5) 0.6579(2) 0.6628(2)
S14 S 0.3610(5) 0.7677(2) 0.5467(2)
S15 S 0.3841(6) 0.8285(3) 0.6639(2)
S16 S -0.0052(5) 0.5985(2) 0.4134(2)
S17 S -0.0303(5) 0.5997(2) 0.5751(2)
S18 S -0.1716(5) 0.7681(2) 0.4043(2)
S19 S -0.1716(4) 0.7695(2) 0.5386(2)
S20 S -0.3117(5) 0.9172(2) 0.4527(2)
C7 C 0.4241(15) 0.6180(7) 0.5950(6)
C8 C 0.3976(15) 0.6701(8) 0.5390(7)
C9 C 0.3868(16) 0.7555(8) 0.6265(7)
C10 C -0.0918(17) 0.6794(7) 0.4515(6)
C11 C -0.0955(14) 0.6782(7) 0.5161(6)
C12 C -0.2226(15) 0.8225(7) 0.4648(6)
N1 N 0.0837(13) 0.4903(6) 0.1786(5)
C13 C 0.2522(19) 0.5035(9) 0.2020(7)
H1 H 0.3149(19) 0.5381(9) 0.1675(7)
H2 H 0.3345(19) 0.4541(9) 0.2096(7)
C14 C 0.2153(23) 0.5382(11) 0.2642(8)
H3 H 0.3293(23) 0.5446(11) 0.2754(8)
H4 H 0.1565(23) 0.5037(11) 0.2991(8)
H5 H 0.1368(23) 0.5880(11) 0.2570(8)
C15 C -0.0465(18) 0.5665(8) 0.1638(8)
H6 H -0.0808(18) 0.5885(8) 0.2032(8)
H7 H -0.1573(18) 0.5555(8) 0.1524(8)
C16 C 0.0289(21) 0.6277(9) 0.1090(8)
H8 H -0.0625(21) 0.6738(9) 0.1031(8)
H9 H 0.0599(21) 0.6073(9) 0.0693(8)
H10 H 0.1365(21) 0.6404(9) 0.1203(8)
C17 C 0.1520(18) 0.4543(9) 0.1176(7)
H11 H 0.2164(18) 0.4906(9) 0.0852(7)
H12 H 0.2395(18) 0.4072(9) 0.1286(7)
C18 C 0.002(2) 0.4343(10) 0.0874(8)
H13 H 0.0556(20) 0.4122(10) 0.0495(8)
H14 H -0.0838(20) 0.4808(10) 0.0751(8)
H15 H -0.0607(20) 0.3973(10) 0.1185(8)
C19 C -0.0258(19) 0.4383(9) 0.2299(7)
H16 H -0.1338(19) 0.4330(9) 0.2127(7)
H17 H -0.0674(19) 0.4632(9) 0.2676(7)
C20 C 0.0810(22) 0.3570(9) 0.2517(8)
H18 H 0.0037(22) 0.3271(9) 0.2842(8)
H19 H 0.1865(22) 0.3614(9) 0.2698(8)
H20 H 0.1201(22) 0.3313(9) 0.2149(8)
N2 N 0.2391(14) 0.0135(6) 0.3224(5)
C21 C 0.1294(19) 0.0707(8) 0.2723(7)
H21 H 0.1459(19) 0.0484(8) 0.2333(7)
H22 H 0.0002(19) 0.0754(8) 0.2898(7)
C22 C 0.1771(22) 0.1498(9) 0.2534(8)
H23 H 0.1010(22) 0.1808(9) 0.2220(8)
H24 H 0.3037(22) 0.1464(9) 0.2345(8)
H25 H 0.1576(22) 0.1735(9) 0.2912(8)
C23 C 0.4406(19) 0.0027(9) 0.2968(7)
H26 H 0.5067(19) -0.0326(9) 0.3299(7)
H27 H 0.4813(19) 0.0526(9) 0.2899(7)
C24 C 0.4926(21) -0.0290(9) 0.2338(7)
H28 H 0.6230(21) -0.0339(9) 0.2211(7)
H29 H 0.4311(21) 0.0061(9) 0.2001(7)
H30 H 0.4566(21) -0.0792(9) 0.2402(7)
C25 C 0.1644(19) -0.0622(8) 0.3340(7)
H31 H 0.0338(19) -0.0518(8) 0.3491(7)
H32 H 0.1795(19) -0.0797(8) 0.2928(7)
C26 C 0.2532(23) -0.1273(9) 0.3827(9)
H33 H 0.1979(23) -0.1727(9) 0.3870(9)
H34 H 0.2360(23) -0.1114(9) 0.4242(9)
H35 H 0.3820(23) -0.1393(9) 0.3678(9)
C27 C 0.2223(18) 0.0437(9) 0.3857(7)
H36 H 0.2899(18) 0.0045(9) 0.4162(7)
H37 H 0.2794(18) 0.0899(9) 0.3767(7)
C28 C 0.0287(19) 0.0637(9) 0.4176(7)
H38 H 0.0294(19) 0.0822(9) 0.4570(7)
H39 H -0.0283(19) 0.0180(9) 0.4279(7)
H40 H -0.0388(19) 0.1036(9) 0.3884(7)
O1 O -0.1563(17) 0.7319(7) 0.2449(6)
C29 C -0.0901(26) 0.8041(12) 0.2204(10)
H41 H -0.1449(26) 0.8417(12) 0.2484(10)
H42 H -0.1206(26) 0.8257(12) 0.1768(10)
C30 C 0.1109(25) 0.7867(12) 0.2196(10)
H43 H 0.1612(25) 0.8337(12) 0.2035(10)
H44 H 0.1632(25) 0.7495(12) 0.1918(10)
H45 H 0.1389(25) 0.7654(12) 0.2631(10)
C31 C -0.4193(22) 0.6699(10) 0.2821(9)
H46 H -0.5509(22) 0.6791(10) 0.2904(9)
H47 H -0.3703(22) 0.6448(10) 0.3217(9)
H48 H -0.3795(22) 0.637(1) 0.2500(9)
C32 C -0.3560(25) 0.7418(12) 0.2585(10)
H49 H -0.3987(25) 0.7753(12) 0.2907(10)
H50 H -0.4079(25) 0.7675(12) 0.219(1)
Bi1A Bi 0.76409(6) -0.02037(3) -0.00433(2)
S1A S 0.5080(4) -0.1010(2) 0.0852(2)
S7A S 0.0564(4) -0.0117(2) -0.1085(2)
Bi1A* Bi -0.23591(6) -0.02037(3) -0.00433(2)
C1A C 0.5426(15) -0.1804(7) 0.0457(6)
S2A S 0.6409(5) -0.0981(2) -0.0775(2)
S6A S 1.0064(4) -0.1474(2) 0.0327(2)
S7A* S 1.0564(4) -0.0117(2) -0.1085(2)
S7* S 0.9436(4) 0.0117(2) 0.1085(2)
S3A S 0.5082(5) -0.2710(2) 0.0918(2)
C2A C 0.5992(16) -0.1781(7) -0.0190(7)
Bi1* Bi 1.23591(6) 0.02037(3) 0.00433(2)
C5* C 0.8679(16) 0.1124(8) 0.0988(7)
C3A C 0.5735(15) -0.3261(7) 0.0312(6)
S4A S 0.6416(4) -0.2697(2) -0.0424(2)
S6* S 0.9936(4) 0.1474(2) -0.0327(2)
S9* S 0.7547(5) 0.1506(2) 0.1680(2)
C4* C 0.8944(15) 0.1645(8) 0.0448(7)
S5A S 0.5687(5) -0.4199(2) 0.0422(2)
C6* C 0.7243(15) 0.2495(8) 0.1320(6)
S8* S 0.8215(4) 0.2627(2) 0.0520(2)
S10* S 0.6197(6) 0.3203(3) 0.1700(2)
Bi2A Bi 0.76139(6) 0.47849(3) 0.49760(2)
S11A S 0.5591(4) 0.4828(2) 0.3948(2)
Bi2A* Bi -0.23861(6) 0.47849(3) 0.49760(2)
S16A S 0.0052(5) 0.4015(2) 0.5866(2)
C7A C 0.5759(15) 0.3820(7) 0.4050(6)
S12A S 0.6085(5) 0.3509(2) 0.5365(2)
S16A* S 1.0052(5) 0.4015(2) 0.5866(2)
S16* S 0.9948(5) 0.5985(2) 0.4134(2)
S17A S 1.0303(5) 0.4003(2) 0.4249(2)
S13A S 0.5699(5) 0.3421(2) 0.3372(2)
C8A C 0.6024(15) 0.3299(8) 0.4610(7)
Bi2* Bi 1.23861(6) 0.52151(3) 0.50240(2)
C10* C 0.9082(17) 0.6794(7) 0.4515(6)
C9A C 0.6132(16) 0.2445(8) 0.3735(7)
S14A S 0.6390(5) 0.2323(2) 0.4533(2)
S17* S 0.9697(5) 0.5997(2) 0.5751(2)
S18* S 0.8284(5) 0.7681(2) 0.4043(2)
C11* C 0.9045(14) 0.6782(7) 0.5161(6)
S15A S 0.6159(6) 0.1715(3) 0.3361(2)
C12* C 0.7774(15) 0.8225(7) 0.4648(6)
S19* S 0.8284(4) 0.7695(2) 0.5386(2)
S20* S 0.6883(5) 0.9172(2) 0.4527(2)
#END
