
#######################################################################
#
#                 Cambridge Crystallographic Data Centre
#                                CCDC
#
#######################################################################
#
# If this CIF has been generated from an entry in the Cambridge
# Structural Database, then it will include bibliographic, chemical,
# crystal, experimental, refinement or atomic coordinate data resulting
# from the CCDC's data processing and validation procedures.
#
#######################################################################

data_CSD_CIF_DANZEZ
_audit_creation_date 2012-11-29
_audit_creation_method CSD-ConQuest-V1
_database_code_CSD DANZEZ
_database_code_depnum_ccdc_archive 'CCDC 877424'
_chemical_formula_sum 'C112 H102 Cl5 Mn7 N8 O35'
_chemical_formula_moiety
;
(C64 H44 Cl4 Mn6 O28 4-)n,n(C44 H40 Mn1 N8 O2 5+),n(Cl1 1-),4n(C1 H4 O1),n(H2 
O1)
;
_journal_coden_Cambridge 4
_journal_volume 134
_journal_year 2012
_journal_page_first 924
_journal_name_full 'J.Am.Chem.Soc. '
loop_
_publ_author_name
"Zhenjie Zhang"
"Linping Zhang"
"L.Wojtas"
"P.Nugent"
"M.Eddaoudi"
"M.J.Zaworotko"
_chemical_name_systematic
;
catena-(Diaqua-(5,10,15,20-tetrakis(N-methylpyridinium-4-yl)porphyrinato)-mang
anese 
tetrakis(\m~5~-biphenyl-3,4',5-tricarboxylato)-tetrakis(\m~2~-chloro)-tetrakis
(methanol)-hexa-manganese chloride methanol solvate monohydrate)
;
_cell_volume   8427.451
_exptl_crystal_colour 'black'
_exptl_crystal_description 'plate'
_diffrn_ambient_temperature 100
_refine_special_details
;
Some of the chloride anions/solvent molecules are disordered. The 
SQUEEZE/PLATON program was used to model some disordered solvents.
;
#These two values have been output from a single CSD field.
_refine_ls_R_factor_gt 0.0685
_refine_ls_wR_factor_gt 0.0685
_symmetry_cell_setting tetragonal
_symmetry_space_group_name_H-M 'P 4/n'
_symmetry_Int_Tables_number 85
loop_
_symmetry_equiv_pos_site_id
_symmetry_equiv_pos_as_xyz
1 x,y,z
2 1/2-y,x,z
3 y,1/2-x,z
4 1/2-x,1/2-y,z
5 -x,-y,-z
6 -1/2+y,-x,-z
7 -y,-1/2+x,-z
8 -1/2+x,-1/2+y,-z
_cell_length_a 28.5050(17)
_cell_length_b 28.5050(17)
_cell_length_c 10.3718(7)
_cell_angle_alpha 90
_cell_angle_beta 90
_cell_angle_gamma 90
_cell_formula_units_Z 2
loop_
_atom_type_symbol
_atom_type_radius_bond
C 0.68
H 0.23
Cl 0.99
Mn 1.51
N 0.68
O 0.68
loop_
_atom_site_label
_atom_site_type_symbol
_atom_site_fract_x
_atom_site_fract_y
_atom_site_fract_z
Mn1 Mn 0.50000 0.50000 0.00000
Mn2 Mn 0.50938(2) 0.59829(2) 0.23276(6)
Mn3 Mn 0.25000 0.25000 0.36363(17)
Cl1 Cl 0.54370(4) 0.51944(4) 0.20893(11)
O1 O 0.48432(11) 0.43251(10) 0.0833(3)
O2 O 0.52486(11) 0.06469(11) 0.0777(3)
O3 O 0.58145(11) 0.06410(12) 0.2247(3)
O4 O 0.51207(14) 0.33997(11) 0.6332(3)
O5 O 0.49189(11) 0.40795(10) 0.5518(3)
O6 O 0.49620(13) 0.37175(11) -0.0482(3)
O7 O 0.25000 0.25000 0.1491(10)
O8 O 0.25000 0.25000 0.5781(8)
N1 N 0.31976(14) 0.26130(14) 0.3656(5)
N2 N 0.46473(15) 0.09123(13) 0.4264(5)
C1 C 0.49345(15) 0.39024(14) 0.0601(4)
C2 C 0.50172(15) 0.35868(15) 0.1747(4)
C3 C 0.50888(15) 0.31094(15) 0.1559(4)
H1 H 0.50880 0.29870 0.07070
C4 C 0.51614(15) 0.28055(15) 0.2595(4)
C5 C 0.52447(16) 0.22998(15) 0.2355(4)
C6 C 0.51080(15) 0.16012(17) 0.1096(5)
H2 H 0.49520 0.14490 0.04030
C7 C 0.55564(15) 0.20459(17) 0.3115(4)
H3 H 0.57090 0.21970 0.38150
C8 C 0.51592(15) 0.29881(14) 0.3830(4)
H4 H 0.52090 0.27870 0.45460
C9 C 0.50842(15) 0.34677(14) 0.4032(4)
C10 C 0.50257(15) 0.37675(14) 0.2993(4)
H5 H 0.49920 0.40950 0.31300
C11 C 0.50451(15) 0.36656(15) 0.5381(4)
C12 C 0.55028(14) 0.08381(15) 0.1612(4)
C13 C 0.54225(15) 0.13524(16) 0.1849(4)
C14 C 0.56473(16) 0.15805(17) 0.2874(5)
H6 H 0.58620 0.14140 0.34020
C15 C 0.35436(18) 0.22813(19) 0.3698(6)
C16 C 0.34743(18) 0.17991(18) 0.3703(6)
C17 C 0.34201(18) 0.30390(19) 0.3671(6)
C18 C 0.39908(19) 0.2503(2) 0.3715(7)
H7 H 0.42880 0.23520 0.37270
C19 C 0.39135(18) 0.29666(18) 0.3712(7)
H8 H 0.41470 0.32050 0.37320
C20 C 0.38961(17) 0.14942(17) 0.3876(6)
C21 C 0.4131(2) 0.1487(2) 0.5068(6)
H9 H 0.40310 0.16870 0.57470
C22 C 0.4503(2) 0.1194(2) 0.5248(6)
H10 H 0.46600 0.11850 0.60550
C23 C 0.44391(19) 0.0925(2) 0.3116(7)
H11 H 0.45550 0.07340 0.24360
C24 C 0.40633(18) 0.1206(2) 0.2901(7)
H12 H 0.39140 0.12060 0.20820
C25 C 0.50451(19) 0.05976(18) 0.4491(6)
H13 H 0.50480 0.03510 0.38340
H14 H 0.50160 0.04550 0.53470
H15 H 0.53380 0.07760 0.44450
C26 C 0.50200(16) 0.20694(15) 0.1348(5)
H16 H 0.48030 0.22360 0.08250
O9 O 0.58086(17) 0.6279(2) 0.2418(5)
C27 C 0.5934(6) 0.6727(6) 0.273(2)
H17 H 0.58430 0.69390 0.20300
H18 H 0.62750 0.67420 0.28520
H19 H 0.57760 0.68200 0.35270
O10 O 0.4017(5) 0.6937(7) 0.3063(19)
H20 H 0.42990 0.68820 0.32510
C28 C 0.3920(9) 0.6796(9) 0.175(2)
H21 H 0.36700 0.69940 0.13950
H22 H 0.38200 0.64680 0.17350
H23 H 0.42040 0.68330 0.12250
O11? O 0.6642(4) 0.7772(4) 0.2793(11)
Cl2 Cl 0.6346(4) 0.7693(4) 0.0966(11)
Cl3? Cl 0.6384(6) 0.7946(7) 0.0791(17)
Cl4? Cl 0.6484(7) 0.7654(7) 0.173(2)
Cl5? Cl 0.6091(8) 0.7822(7) 0.112(2)
O12 O 0.5977(7) 0.8397(7) 0.079(2)
O13? O 0.5714(10) 0.8274(10) 0.158(3)
Mn1A Mn 0.00000 0.50000 0.00000
Mn1B Mn 0.50000 0.00000 0.00000
Mn1B* Mn 0.50000 1.00000 0.00000
Mn1A* Mn 1.00000 0.50000 0.00000
Mn2D Mn 0.49062(2) 0.40171(2) -0.23276(6)
Mn2B Mn 0.59829(2) -0.00938(2) 0.23276(6)
Mn2F Mn 0.40171(2) 1.00938(2) -0.23276(6)
Mn2D* Mn 0.49062(2) 0.40171(2) 0.76724(6)
Mn2E Mn 0.09829(2) 0.49062(2) 0.76724(6)
Mn2E* Mn 0.09829(2) 0.49062(2) -0.23276(6)
Mn2* Mn 0.50938(2) 0.59829(2) -0.76724(6)
Mn2A Mn 0.90171(2) 0.50938(2) -0.76724(6)
Mn2A* Mn 0.90171(2) 0.50938(2) 0.23276(6)
Mn2F* Mn 0.40171(2) 0.00938(2) -0.23276(6)
Cl1D Cl 0.45630(4) 0.48056(4) -0.20893(11)
Cl1B Cl 0.51944(4) -0.04370(4) 0.20893(11)
Cl1F Cl 0.48056(4) 1.04370(4) -0.20893(11)
Cl1F* Cl 0.48056(4) 0.04370(4) -0.20893(11)
O1A O 0.06749(11) 0.48432(10) 0.0833(3)
O1D O 0.51568(11) 0.56749(10) -0.0833(3)
O1E O 0.93251(11) 0.51568(10) -0.0833(3)
O1B O 0.43251(11) 0.01568(10) 0.0833(3)
O1F O 0.56749(11) -0.01568(10) -0.0833(3)
O2A O 0.43531(11) 0.52486(11) 0.0777(3)
O2D O 0.47514(11) 0.93531(11) -0.0777(3)
O2E O 0.56469(11) 0.47514(11) -0.0777(3)
O2D* O 0.47514(11) -0.06469(11) -0.0777(3)
O3A O 0.43590(11) 0.58145(12) 0.2247(3)
O3D O 0.41855(11) 0.93590(12) -0.2247(3)
O3E O 0.56410(11) 0.41855(12) -0.2247(3)
O4A O 0.16003(14) 0.51207(11) 0.6332(3)
O4D O 0.48793(14) 0.66003(11) -0.6332(3)
O4E O 0.83997(14) 0.48793(11) -0.6332(3)
O4D* O 0.48793(14) 0.66003(11) 0.3668(3)
O4* O 0.51207(14) 0.33997(11) -0.3668(3)
O4F O 0.66003(14) 0.01207(11) 0.3668(3)
O4B O 0.33997(14) 0.98793(11) -0.3668(3)
O5A O 0.09205(11) 0.49189(10) 0.5518(3)
O5D O 0.50811(11) 0.59205(10) -0.5518(3)
O5E O 0.90795(11) 0.50811(10) -0.5518(3)
O5D* O 0.50811(11) 0.59205(10) 0.4482(3)
O5* O 0.49189(11) 0.40795(10) -0.4482(3)
O5F O 0.59205(11) -0.00811(10) 0.4482(3)
O5B O 0.40795(11) 1.00811(10) -0.4482(3)
O6A O 0.12825(13) 0.49620(11) -0.0482(3)
O6D O 0.50380(13) 0.62825(11) 0.0482(3)
O6E O 0.87175(13) 0.50380(11) 0.0482(3)
O6F O 0.62825(13) -0.00380(11) 0.0482(3)
O6B O 0.37175(13) 1.00380(11) -0.0482(3)
N1B N 0.26130(14) 0.18024(14) 0.3656(5)
N1C N 0.18024(14) 0.23870(14) 0.3656(5)
N1A N 0.23870(14) 0.31976(14) 0.3656(5)
N2B N 0.09123(15) 0.03527(13) 0.4264(5)
N2C N 0.03527(15) 0.40877(13) 0.4264(5)
N2A N 0.40877(15) 0.46473(13) 0.4264(5)
C1A C 0.10976(15) 0.49345(14) 0.0601(4)
C1D C 0.50655(15) 0.60976(14) -0.0601(4)
C1E C 0.89024(15) 0.50655(14) -0.0601(4)
C2A C 0.14132(15) 0.50172(15) 0.1747(4)
C2D C 0.49828(15) 0.64132(15) -0.1747(4)
C2E C 0.85868(15) 0.49828(15) -0.1747(4)
C3A C 0.18906(15) 0.50888(15) 0.1559(4)
C3D C 0.49112(15) 0.68906(15) -0.1559(4)
C3E C 0.81094(15) 0.49112(15) -0.1559(4)
H1A H 0.20130 0.50880 0.07070
H1D H 0.49120 0.70130 -0.07070
H1E H 0.79870 0.49120 -0.07070
C4A C 0.21945(15) 0.51614(15) 0.2595(4)
C4D C 0.48386(15) 0.71945(15) -0.2595(4)
C4E C 0.78055(15) 0.48386(15) -0.2595(4)
C5A C 0.27002(16) 0.52447(15) 0.2355(4)
C5D C 0.47553(16) 0.77002(15) -0.2355(4)
C5E C 0.72998(16) 0.47553(15) -0.2355(4)
C6A C 0.33988(15) 0.51080(17) 0.1096(5)
C6D C 0.48920(15) 0.83988(17) -0.1096(5)
C6E C 0.66012(15) 0.48920(17) -0.1096(5)
H2A H 0.35510 0.49520 0.04030
H2D H 0.50480 0.85510 -0.04030
H2E H 0.64490 0.50480 -0.04030
C7A C 0.29541(15) 0.55564(17) 0.3115(4)
C7D C 0.44436(15) 0.79541(17) -0.3115(4)
C7E C 0.70459(15) 0.44436(17) -0.3115(4)
H3A H 0.28030 0.57090 0.38150
H3D H 0.42910 0.78030 -0.38150
H3E H 0.71970 0.42910 -0.38150
C8A C 0.20119(15) 0.51592(14) 0.3830(4)
C8D C 0.48408(15) 0.70119(14) -0.3830(4)
C8E C 0.79881(15) 0.48408(14) -0.3830(4)
H4A H 0.22130 0.52090 0.45460
H4D H 0.47910 0.72130 -0.45460
H4E H 0.77870 0.47910 -0.45460
C9A C 0.15323(15) 0.50842(14) 0.4032(4)
C9D C 0.49158(15) 0.65323(14) -0.4032(4)
C9E C 0.84677(15) 0.49158(14) -0.4032(4)
C10A C 0.12325(15) 0.50257(14) 0.2993(4)
C10D C 0.49743(15) 0.62325(14) -0.2993(4)
C10E C 0.87675(15) 0.49743(14) -0.2993(4)
H5A H 0.09050 0.49920 0.31300
H5D H 0.50080 0.59050 -0.31300
H5E H 0.90950 0.50080 -0.31300
C11A C 0.13344(15) 0.50451(15) 0.5381(4)
C11D C 0.49549(15) 0.63344(15) -0.5381(4)
C11E C 0.86656(15) 0.49549(15) -0.5381(4)
C12A C 0.41619(14) 0.55028(15) 0.1612(4)
C12D C 0.44972(14) 0.91619(15) -0.1612(4)
C12E C 0.58381(14) 0.44972(15) -0.1612(4)
C13A C 0.36476(15) 0.54225(16) 0.1849(4)
C13D C 0.45775(15) 0.86476(16) -0.1849(4)
C13E C 0.63524(15) 0.45775(16) -0.1849(4)
C14A C 0.34195(16) 0.56473(17) 0.2874(5)
C14D C 0.43527(16) 0.84195(17) -0.2874(5)
C14E C 0.65805(16) 0.43527(17) -0.2874(5)
H6A H 0.35860 0.58620 0.34020
H6D H 0.41380 0.85860 -0.34020
H6E H 0.64140 0.41380 -0.34020
C15B C 0.22813(18) 0.14564(19) 0.3698(6)
C15C C 0.14564(18) 0.27187(19) 0.3698(6)
C15A C 0.27187(18) 0.35436(19) 0.3698(6)
C16B C 0.17991(18) 0.15257(18) 0.3703(6)
C16C C 0.15257(18) 0.32009(18) 0.3703(6)
C16A C 0.32009(18) 0.34743(18) 0.3703(6)
C17B C 0.30390(18) 0.15799(19) 0.3671(6)
C17C C 0.15799(18) 0.19610(19) 0.3671(6)
C17A C 0.19610(18) 0.34201(19) 0.3671(6)
C18A C 0.24970(19) 0.39908(20) 0.3715(7)
C18C C 0.10092(19) 0.2497(2) 0.3715(7)
C18B C 0.25030(19) 0.10092(20) 0.3715(7)
H7A H 0.26480 0.42880 0.37270
H7C H 0.07120 0.26480 0.37270
H7B H 0.23520 0.07120 0.37270
C19A C 0.20334(18) 0.39135(18) 0.3712(7)
C19C C 0.10865(18) 0.20334(18) 0.3712(7)
C19B C 0.29666(18) 0.10865(18) 0.3712(7)
H8A H 0.17950 0.41470 0.37320
H8C H 0.08530 0.17950 0.37320
H8B H 0.32050 0.08530 0.37320
C20B C 0.14942(17) 0.11039(17) 0.3876(6)
C20C C 0.11039(17) 0.35058(17) 0.3876(6)
C20A C 0.35058(17) 0.38961(17) 0.3876(6)
C21B C 0.1487(2) 0.0869(2) 0.5068(6)
C21C C 0.0869(2) 0.3513(2) 0.5068(6)
C21A C 0.3513(2) 0.4131(2) 0.5068(6)
H9B H 0.16870 0.09690 0.57470
H9C H 0.09690 0.33130 0.57470
H9A H 0.33130 0.40310 0.57470
C22B C 0.1194(2) 0.0497(2) 0.5248(6)
C22C C 0.0497(2) 0.3806(2) 0.5248(6)
C22A C 0.3806(2) 0.4503(2) 0.5248(6)
H10B H 0.11850 0.03400 0.60550
H10C H 0.03400 0.38150 0.60550
H10A H 0.38150 0.46600 0.60550
C23B C 0.09250(19) 0.05609(20) 0.3116(7)
C23C C 0.05609(19) 0.4075(2) 0.3116(7)
C23A C 0.40750(19) 0.44391(20) 0.3116(7)
H11B H 0.07340 0.04450 0.24360
H11C H 0.04450 0.42660 0.24360
H11A H 0.42660 0.45550 0.24360
C24B C 0.12060(18) 0.09367(20) 0.2901(7)
C24C C 0.09367(18) 0.3794(2) 0.2901(7)
C24A C 0.37940(18) 0.40633(20) 0.2901(7)
H12B H 0.12060 0.10860 0.20820
H12C H 0.10860 0.37940 0.20820
H12A H 0.37940 0.39140 0.20820
C25B C 0.05976(19) -0.00451(18) 0.4491(6)
C25C C -0.00451(19) 0.44024(18) 0.4491(6)
C25A C 0.44024(19) 0.50451(18) 0.4491(6)
H13B H 0.03510 -0.00480 0.38340
H13C H -0.00480 0.46490 0.38340
H13A H 0.46490 0.50480 0.38340
H14B H 0.04550 -0.00160 0.53470
H14C H -0.00160 0.45450 0.53470
H14A H 0.45450 0.50160 0.53470
H15B H 0.07760 -0.03380 0.44450
H15C H -0.03380 0.42240 0.44450
H15A H 0.42240 0.53380 0.44450
C26A C 0.29306(16) 0.50200(15) 0.1348(5)
C26D C 0.49800(16) 0.79306(15) -0.1348(5)
C26E C 0.70694(16) 0.49800(15) -0.1348(5)
H16A H 0.27640 0.48030 0.08250
H16D H 0.51970 0.77640 -0.08250
H16E H 0.72360 0.51970 -0.08250
O9D O 0.41914(17) 0.3721(2) -0.2418(5)
O9B O 0.62790(17) -0.08086(20) 0.2418(5)
O9F O 0.37210(17) 1.08086(20) -0.2418(5)
C27D C 0.4066(6) 0.3273(6) -0.273(2)
C27B C 0.6727(6) -0.0934(6) 0.273(2)
C27F C 0.3273(6) 1.0934(6) -0.273(2)
H17D H 0.41570 0.30610 -0.20300
H17B H 0.69390 -0.08430 0.20300
H17F H 0.30610 1.08430 -0.20300
H18D H 0.37250 0.32580 -0.28520
H18B H 0.67420 -0.12750 0.28520
H18F H 0.32580 1.12750 -0.28520
H19D H 0.42240 0.31800 -0.35270
H19B H 0.68200 -0.07760 0.35270
H19F H 0.31800 1.07760 -0.35270
#END
