
#######################################################################
#
#                 Cambridge Crystallographic Data Centre
#                                CCDC
#
#######################################################################
#
# If this CIF has been generated from an entry in the Cambridge
# Structural Database, then it will include bibliographic, chemical,
# crystal, experimental, refinement or atomic coordinate data resulting
# from the CCDC's data processing and validation procedures.
#
#######################################################################

data_CSD_CIF_DANZID
_audit_creation_date 2012-11-29
_audit_creation_method CSD-ConQuest-V1
_database_code_CSD DANZID
_database_code_depnum_ccdc_archive 'CCDC 877425'
_chemical_formula_sum 'C104 H72 Cd2 Cl4 Cu5 N8 O28'
_chemical_formula_moiety
;
(C60 H36 Cd2 Cl4 Cu4 O28 4-)n,n(C44 H36 Cu1 N8 4+)
;
_journal_coden_Cambridge 4
_journal_volume 134
_journal_year 2012
_journal_page_first 924
_journal_name_full 'J.Am.Chem.Soc. '
loop_
_publ_author_name
"Zhenjie Zhang"
"Linping Zhang"
"L.Wojtas"
"P.Nugent"
"M.Eddaoudi"
"M.J.Zaworotko"
_chemical_name_systematic
;
catena-((5,10,15,20-tetrakis(N-Methylpyridinium-4-yl)porphyrinato)-copper 
tetrakis(\m~5~-biphenyl-3,4',5-tricarboxylato)-tetrakis(\m~2~-chloro)-tetra-aq
ua-di-cadmium-tetra-copper)
;
_cell_volume   8570.818
_exptl_crystal_colour 'black'
_exptl_crystal_density_diffrn 0.982
_exptl_special_details
;
The paper describes some of the metal sites of the anion being mixed and also 
describes the terminal ligands as being methanol rather than aqua ligands, 
but this is not detailed in the crystallographic data
;
_exptl_crystal_description 'rod'
_diffrn_ambient_temperature 293
_refine_special_details
;
Cl4B and Cl4A disordered over two sites with occupancies 0.71:0.29; The 
SQUEEZE/PLATON program was used to model some disorder.
;
#These two values have been output from a single CSD field.
_refine_ls_R_factor_gt 0.0688
_refine_ls_wR_factor_gt 0.0688
_symmetry_cell_setting tetragonal
_symmetry_space_group_name_H-M 'P 4/n'
_symmetry_Int_Tables_number 85
loop_
_symmetry_equiv_pos_site_id
_symmetry_equiv_pos_as_xyz
1 x,y,z
2 1/2-x,1/2-y,z
3 1/2-y,x,z
4 y,1/2-x,z
5 -x,-y,-z
6 -1/2+x,-1/2+y,-z
7 -1/2+y,-x,-z
8 -y,-1/2+x,-z
_cell_length_a 29.2846(9)
_cell_length_b 29.2846(9)
_cell_length_c 9.9941(4)
_cell_angle_alpha 90
_cell_angle_beta 90
_cell_angle_gamma 90
_cell_formula_units_Z 2
loop_
_atom_type_symbol
_atom_type_radius_bond
C 0.68
H 0.23
Cd 1.44
Cl 0.99
Cu 1.32
N 0.68
O 0.68
loop_
_atom_site_label
_atom_site_type_symbol
_atom_site_fract_x
_atom_site_fract_y
_atom_site_fract_z
Cd1 Cd 0.00000 0.50000 0.00000
Cu1 Cu 0.00710(4) 0.59791(4) 0.21312(12)
Cu2 Cu 0.25000 0.25000 0.3548(3)
Cl1 Cl -0.0463(4) 0.5388(7) 0.1899(14)
O1 O 0.06977(18) 0.5177(2) 0.0879(6)
O2 O 0.3769(2) 0.50770(19) -0.0361(6)
O3 O 0.4038(2) 0.5051(2) 0.5921(6)
O4 O 0.4336(2) 0.4960(2) 0.1100(6)
O5 O 0.07321(19) 0.5815(2) 0.2090(6)
O6 O 0.3347(3) 0.5133(3) 0.6641(8)
N1 N 0.2570(2) 0.3171(2) 0.3595(8)
C1 C 0.2980(3) 0.5163(3) 0.3995(9)
H1 H 0.27750 0.52060 0.46930
C2 C 0.3748(3) 0.5071(3) 0.3232(8)
H2 H 0.40590 0.50600 0.34140
N2 N 0.0861(3) 0.4498(3) 0.4059(10)
C3 C 0.3598(3) 0.5054(3) 0.1926(8)
C4 C 0.3140(3) 0.5098(3) 0.1666(9)
H3 H 0.30370 0.50890 0.07870
C5 C 0.3436(3) 0.5105(3) 0.4285(9)
C6 C 0.2092(3) 0.4987(3) 0.1428(9)
H4 H 0.22510 0.47620 0.09670
C7 C 0.1401(3) 0.5389(3) 0.1854(9)
C8 C 0.2318(3) 0.5247(3) 0.2422(9)
C9 C 0.3935(3) 0.5020(3) 0.0806(10)
C10 C 0.1249(3) 0.3992(3) 0.2689(11)
H5 H 0.13200 0.38840 0.18390
C11 C 0.3636(4) 0.5106(3) 0.5703(10)
C12 C 0.1448(4) 0.3794(4) 0.3780(12)
C13 C 0.2237(3) 0.3492(3) 0.3622(11)
C14 C 0.0887(3) 0.5451(3) 0.1555(9)
C15 C 0.2822(3) 0.5157(3) 0.2718(10)
C16 C 0.1640(3) 0.5066(3) 0.1140(9)
H6 H 0.14970 0.49020 0.04640
C17 C 0.2415(3) 0.3950(3) 0.3687(11)
H7 H 0.22530 0.42230 0.37500
C18 C 0.1780(3) 0.3412(3) 0.3657(10)
C19 C 0.0526(3) 0.4886(3) 0.4319(11)
H8 H 0.04960 0.49320 0.52660
H9 H 0.02340 0.48090 0.39470
H10 H 0.06370 0.51600 0.39100
C20 C 0.2861(3) 0.3891(4) 0.3637(11)
H11 H 0.30770 0.41240 0.36130
C21 C 0.2963(3) 0.3418(3) 0.3627(10)
C22 C 0.1344(4) 0.3945(4) 0.4985(14)
H12 H 0.14680 0.37960 0.57230
C23 C 0.1621(3) 0.5633(3) 0.2868(10)
H13 H 0.14660 0.58560 0.33480
C24 C 0.2075(3) 0.5538(3) 0.3149(9)
H14 H 0.22130 0.56840 0.38700
C25 C 0.0941(3) 0.4353(4) 0.2825(12)
H15 H 0.07990 0.44850 0.20880
C26 C 0.1049(4) 0.4328(4) 0.5211(13)
H16 H 0.09910 0.44490 0.60550
O7 O 0.25000 0.25000 0.058(3)
O8 O -0.0604(8) 0.6404(8) 0.214(2)
Cl2? Cl -0.0374(10) 0.5237(13) 0.224(4)
Cd1B Cd 0.00000 0.00000 0.00000
Cd1C Cd 0.50000 0.50000 0.00000
Cd1B* Cd 0.00000 1.00000 0.00000
Cd1C* Cd -0.50000 0.50000 0.00000
Cu1D Cu -0.00710(4) 0.40209(4) -0.21312(12)
Cu1B Cu -0.09791(4) 0.00710(4) 0.21312(12)
Cu1F Cu 0.09791(4) 0.99290(4) -0.21312(12)
Cu1G Cu 0.40209(4) 0.50710(4) -0.21312(12)
Cu1G* Cu 0.40209(4) 0.50710(4) 0.78688(12)
Cu1D* Cu -0.00710(4) 0.40209(4) 0.78688(12)
Cu1* Cu 0.00710(4) 0.59791(4) -0.78688(12)
Cu1C Cu -0.40209(4) 0.49290(4) 0.21312(12)
Cu1C* Cu -0.40209(4) 0.49290(4) -0.78688(12)
Cu1F* Cu 0.09791(4) -0.00710(4) -0.21312(12)
Cl1D Cl 0.0463(4) 0.4612(7) -0.1899(14)
Cl1B Cl -0.0388(4) -0.0463(7) 0.1899(14)
Cl1F Cl 0.0388(4) 0.0463(7) -0.1899(14)
Cl1F* Cl 0.0388(4) 1.0463(7) -0.1899(14)
O1B O -0.01770(18) 0.06977(20) 0.0879(6)
O1F O 0.01770(18) 0.93023(20) -0.0879(6)
O1D O -0.06977(18) 0.4823(2) -0.0879(6)
O1F* O 0.01770(18) -0.06977(20) -0.0879(6)
O2B O -0.0077(2) 0.37690(19) -0.0361(6)
O2F O 0.0077(2) 0.62310(19) 0.0361(6)
O2D O -0.3769(2) 0.49230(19) 0.0361(6)
O2E O -0.1231(2) 0.00770(19) 0.0361(6)
O2A O 0.1231(2) 0.99230(19) -0.0361(6)
O3B O -0.0051(2) 0.4038(2) 0.5921(6)
O3F O 0.0051(2) 0.5962(2) -0.5921(6)
O3D O -0.4038(2) 0.4949(2) -0.5921(6)
O3F* O 0.0051(2) 0.5962(2) 0.4079(6)
O3B* O -0.0051(2) 0.4038(2) -0.4079(6)
O3E O -0.0962(2) 0.0051(2) 0.4079(6)
O3A O 0.0962(2) 0.9949(2) -0.4079(6)
O4B O 0.0040(2) 0.4336(2) 0.1100(6)
O4F O -0.0040(2) 0.5664(2) -0.1100(6)
O4D O -0.4336(2) 0.5040(2) -0.1100(6)
O4A O 0.0664(2) 0.0040(2) 0.1100(6)
O4E O -0.0664(2) -0.0040(2) -0.1100(6)
O5B O -0.08150(19) 0.07321(20) 0.2090(6)
O5F O 0.08150(19) 0.92679(20) -0.2090(6)
O5D O -0.07321(19) 0.4185(2) -0.2090(6)
O6B O -0.0133(3) 0.3347(3) 0.6641(8)
O6F O 0.0133(3) 0.6653(3) -0.6641(8)
O6D O -0.3347(3) 0.4867(3) -0.6641(8)
O6F* O 0.0133(3) 0.6653(3) 0.3359(8)
O6B* O -0.0133(3) 0.3347(3) -0.3359(8)
O6E O -0.1653(3) 0.0133(3) 0.3359(8)
O6A O 0.1653(3) 0.9867(3) -0.3359(8)
N1B N 0.1829(2) 0.2570(2) 0.3595(8)
N1A N 0.2430(2) 0.1829(2) 0.3595(8)
N1C N 0.3171(2) 0.2430(2) 0.3595(8)
C1B C -0.0163(3) 0.2980(3) 0.3995(9)
C1F C 0.0163(3) 0.7020(3) -0.3995(9)
C1D C -0.2980(3) 0.4837(3) -0.3995(9)
H1B H -0.02060 0.27750 0.46930
H1F H 0.02060 0.72250 -0.46930
H1D H -0.27750 0.47940 -0.46930
C2B C -0.0071(3) 0.3748(3) 0.3232(8)
C2F C 0.0071(3) 0.6252(3) -0.3232(8)
C2D C -0.3748(3) 0.4929(3) -0.3232(8)
H2B H -0.00600 0.40590 0.34140
H2F H 0.00600 0.59410 -0.34140
H2D H -0.40590 0.49400 -0.34140
N2B N 0.0502(3) 0.0861(3) 0.4059(10)
N2A N 0.4139(3) 0.0502(3) 0.4059(10)
N2C N 0.4498(3) 0.4139(3) 0.4059(10)
C3B C -0.0054(3) 0.3598(3) 0.1926(8)
C3F C 0.0054(3) 0.6402(3) -0.1926(8)
C3D C -0.3598(3) 0.4946(3) -0.1926(8)
C4B C -0.0098(3) 0.3140(3) 0.1666(9)
C4F C 0.0098(3) 0.6860(3) -0.1666(9)
C4D C -0.3140(3) 0.4902(3) -0.1666(9)
H3B H -0.00890 0.30370 0.07870
H3F H 0.00890 0.69630 -0.07870
H3D H -0.30370 0.49110 -0.07870
C5B C -0.0105(3) 0.3436(3) 0.4285(9)
C5F C 0.0105(3) 0.6564(3) -0.4285(9)
C5D C -0.3436(3) 0.4895(3) -0.4285(9)
C6B C 0.0013(3) 0.2092(3) 0.1428(9)
C6F C -0.0013(3) 0.7908(3) -0.1428(9)
C6D C -0.2092(3) 0.5013(3) -0.1428(9)
H4B H 0.02380 0.22510 0.09670
H4F H -0.02380 0.77490 -0.09670
H4D H -0.22510 0.52380 -0.09670
C7B C -0.0389(3) 0.1401(3) 0.1854(9)
C7F C 0.0389(3) 0.8599(3) -0.1854(9)
C7D C -0.1401(3) 0.4611(3) -0.1854(9)
C8B C -0.0247(3) 0.2318(3) 0.2422(9)
C8F C 0.0247(3) 0.7682(3) -0.2422(9)
C8D C -0.2318(3) 0.4753(3) -0.2422(9)
C9B C -0.0020(3) 0.3935(3) 0.0806(10)
C9F C 0.0020(3) 0.6065(3) -0.0806(10)
C9D C -0.3935(3) 0.4980(3) -0.0806(10)
C10B C 0.1008(3) 0.1249(3) 0.2689(11)
C10A C 0.3751(3) 0.1008(3) 0.2689(11)
C10C C 0.3992(3) 0.3751(3) 0.2689(11)
H5B H 0.11160 0.13200 0.18390
H5A H 0.36800 0.11160 0.18390
H5C H 0.38840 0.36800 0.18390
C11B C -0.0106(4) 0.3636(3) 0.5703(10)
C11F C 0.0106(4) 0.6364(3) -0.5703(10)
C11D C -0.3636(4) 0.4894(3) -0.5703(10)
C12B C 0.1206(4) 0.1448(4) 0.3780(12)
C12A C 0.3552(4) 0.1206(4) 0.3780(12)
C12C C 0.3794(4) 0.3552(4) 0.3780(12)
C13B C 0.1508(3) 0.2237(3) 0.3622(11)
C13A C 0.2763(3) 0.1508(3) 0.3622(11)
C13C C 0.3492(3) 0.2763(3) 0.3622(11)
C14B C -0.0451(3) 0.0887(3) 0.1555(9)
C14F C 0.0451(3) 0.9113(3) -0.1555(9)
C14D C -0.0887(3) 0.4549(3) -0.1555(9)
C15B C -0.0157(3) 0.2822(3) 0.2718(10)
C15F C 0.0157(3) 0.7178(3) -0.2718(10)
C15D C -0.2822(3) 0.4843(3) -0.2718(10)
C16B C -0.0066(3) 0.1640(3) 0.1140(9)
C16F C 0.0066(3) 0.8360(3) -0.1140(9)
C16D C -0.1640(3) 0.4934(3) -0.1140(9)
H6B H 0.00980 0.14970 0.04640
H6F H -0.00980 0.85030 -0.04640
H6D H -0.14970 0.50980 -0.04640
C17C C 0.3950(3) 0.2585(3) 0.3687(11)
C17A C 0.2585(3) 0.1050(3) 0.3687(11)
C17B C 0.1050(3) 0.2415(3) 0.3687(11)
H7C H 0.42230 0.27470 0.37500
H7A H 0.27470 0.07770 0.37500
H7B H 0.07770 0.22530 0.37500
C18B C 0.1588(3) 0.1780(3) 0.3657(10)
C18A C 0.3220(3) 0.1588(3) 0.3657(10)
C18C C 0.3412(3) 0.3220(3) 0.3657(10)
C19B C 0.0114(3) 0.0526(3) 0.4319(11)
C19A C 0.4474(3) 0.0114(3) 0.4319(11)
C19C C 0.4886(3) 0.4474(3) 0.4319(11)
H8B H 0.00680 0.04960 0.52660
H8A H 0.45040 0.00680 0.52660
H8C H 0.49320 0.45040 0.52660
H9B H 0.01910 0.02340 0.39470
H9A H 0.47660 0.01910 0.39470
H9C H 0.48090 0.47660 0.39470
H10B H -0.01600 0.06370 0.39100
H10A H 0.43630 -0.01600 0.39100
H10C H 0.51600 0.43630 0.39100
C20C C 0.3891(3) 0.2139(4) 0.3637(11)
C20A C 0.2139(3) 0.1109(4) 0.3637(11)
C20B C 0.1109(3) 0.2861(4) 0.3637(11)
H11C H 0.41240 0.19230 0.36130
H11A H 0.19230 0.08760 0.36130
H11B H 0.08760 0.30770 0.36130
C21B C 0.1582(3) 0.2963(3) 0.3627(10)
C21A C 0.2037(3) 0.1582(3) 0.3627(10)
C21C C 0.3418(3) 0.2037(3) 0.3627(10)
C22B C 0.1055(4) 0.1344(4) 0.4985(14)
C22A C 0.3656(4) 0.1055(4) 0.4985(14)
C22C C 0.3945(4) 0.3656(4) 0.4985(14)
H12B H 0.12040 0.14680 0.57230
H12A H 0.35320 0.12040 0.57230
H12C H 0.37960 0.35320 0.57230
C23B C -0.0633(3) 0.1621(3) 0.2868(10)
C23F C 0.0633(3) 0.8379(3) -0.2868(10)
C23D C -0.1621(3) 0.4367(3) -0.2868(10)
H13B H -0.08560 0.14660 0.33480
H13F H 0.08560 0.85340 -0.33480
H13D H -0.14660 0.41440 -0.33480
C24B C -0.0538(3) 0.2075(3) 0.3149(9)
C24F C 0.0538(3) 0.7925(3) -0.3149(9)
C24D C -0.2075(3) 0.4462(3) -0.3149(9)
H14B H -0.06840 0.22130 0.38700
H14F H 0.06840 0.77870 -0.38700
H14D H -0.22130 0.43160 -0.38700
C25B C 0.0647(3) 0.0941(4) 0.2825(12)
C25A C 0.4059(3) 0.0647(4) 0.2825(12)
C25C C 0.4353(3) 0.4059(4) 0.2825(12)
H15B H 0.05150 0.07990 0.20880
H15A H 0.42010 0.05150 0.20880
H15C H 0.44850 0.42010 0.20880
C26B C 0.0672(4) 0.1049(4) 0.5211(13)
C26A C 0.3951(4) 0.0672(4) 0.5211(13)
C26C C 0.4328(4) 0.3951(4) 0.5211(13)
H16B H 0.05510 0.09910 0.60550
H16A H 0.40090 0.05510 0.60550
H16C H 0.44490 0.40090 0.60550
O8D O 0.0604(8) 0.3596(8) -0.214(2)
O8B O -0.1404(8) -0.0604(8) 0.214(2)
O8F O 0.1404(8) 1.0604(8) -0.214(2)
#END
