
#######################################################################
#
#                 Cambridge Crystallographic Data Centre
#                                CCDC
#
#######################################################################
#
# If this CIF has been generated from an entry in the Cambridge
# Structural Database, then it will include bibliographic, chemical,
# crystal, experimental, refinement or atomic coordinate data resulting
# from the CCDC's data processing and validation procedures.
#
#######################################################################

data_CSD_CIF_DANZAV
_audit_creation_date 2012-11-29
_audit_creation_method CSD-ConQuest-V1
_database_code_CSD DANZAV
_database_code_depnum_ccdc_archive 'CCDC 877423'
_chemical_formula_sum 'C134 H147 Cd7 Cl5 N18 O40.5'
_chemical_formula_moiety
;
(C60 H36 Cd6 Cl4 O28 4-)n,n(C44 H36 Cd1 Cl1 N8 4+),10n(C3 H7 N1 O1),2.5n(H2 
O1)
;
_journal_coden_Cambridge 4
_journal_volume 134
_journal_year 2012
_journal_page_first 924
_journal_name_full 'J.Am.Chem.Soc. '
loop_
_publ_author_name
"Zhenjie Zhang"
"Linping Zhang"
"L.Wojtas"
"P.Nugent"
"M.Eddaoudi"
"M.J.Zaworotko"
_chemical_name_systematic
;
catena-(Chloro-(5,10,15,20-tetrakis(N-methylpyridinium-4-yl)porphyrinato)-cadm
ium 
tetrakis(\m~5~-biphenyl-3,4',5-tricarboxylato)-tetrakis(\m~2~-chloro)-tetra-aq
ua-hexa-cadmium dimethylformamide solvate hydrate)
;
_cell_volume   8675.679
_exptl_crystal_colour 'black'
_exptl_crystal_density_diffrn 1.378
_exptl_crystal_description 'rod'
_diffrn_ambient_temperature 100
_refine_special_details
;
C71,C75,C76,N71,O71 disordered by symmetry over four sites with occupancy 
0.25. Some electron density was taken into account using PLATON/SQUEEZE.
;
#These two values have been output from a single CSD field.
_refine_ls_R_factor_gt 0.064
_refine_ls_wR_factor_gt 0.064
_symmetry_cell_setting tetragonal
_symmetry_space_group_name_H-M 'P 4/n'
_symmetry_Int_Tables_number 85
loop_
_symmetry_equiv_pos_site_id
_symmetry_equiv_pos_as_xyz
1 x,y,z
2 1/2-y,x,z
3 1/2-x,1/2-y,z
4 y,1/2-x,z
5 -x,-y,-z
6 -1/2+y,-x,-z
7 -1/2+x,-1/2+y,-z
8 -y,-1/2+x,-z
_cell_length_a 28.9318(4)
_cell_length_b 28.9318(4)
_cell_length_c 10.3646(3)
_cell_angle_alpha 90
_cell_angle_beta 90
_cell_angle_gamma 90
_cell_formula_units_Z 2
loop_
_atom_type_symbol
_atom_type_radius_bond
C 0.68
H 0.23
Cd 1.44
Cl 0.99
N 0.68
O 0.68
loop_
_atom_site_label
_atom_site_type_symbol
_atom_site_fract_x
_atom_site_fract_y
_atom_site_fract_z
Cd1 Cd 0.488420(16) 0.094506(16) -0.23176(5)
Cd2 Cd 0.50000 0.00000 0.00000
Cd3 Cd 0.25000 0.25000 0.25983(11)
Cl1 Cl 0.45994(6) 0.01083(7) -0.22063(19)
Cl2 Cl 0.25000 0.25000 0.0227(5)
C1 C 0.4138(2) -0.0488(2) 0.1611(7)
C2 C 0.3632(2) -0.0407(2) 0.1897(7)
C3 C 0.3402(2) -0.0661(3) 0.2827(7)
H1 H 0.35630 -0.08950 0.32900
C4 C 0.2941(3) -0.0578(3) 0.3089(8)
H2 H 0.27880 -0.07560 0.37300
C5 C 0.2698(2) -0.0237(2) 0.2426(7)
C6 C 0.2934(2) 0.0015(3) 0.1505(8)
H3 H 0.27740 0.02470 0.10320
C7 C 0.3396(2) -0.0060(3) 0.1255(8)
H4 H 0.35520 0.01270 0.06420
C8 C 0.2196(2) -0.0162(2) 0.2640(7)
C9 C 0.1907(2) -0.0084(2) 0.1580(7)
H5 H 0.20370 -0.00810 0.07380
C10 C 0.1439(2) -0.0013(2) 0.1723(7)
C11 C 0.1250(2) -0.0013(2) 0.2952(7)
H6 H 0.09260 0.00260 0.30590
C12 C 0.1529(2) -0.0071(2) 0.4027(7)
C13 C 0.2005(2) -0.0148(2) 0.3851(7)
H7 H 0.21980 -0.01920 0.45830
C14 C 0.1330(2) -0.0015(2) 0.5356(7)
C15 C 0.1142(2) 0.0071(2) 0.0548(7)
C16 C 0.2271(3) 0.3546(2) 0.3539(8)
C17 C 0.2487(3) 0.3990(2) 0.3698(9)
H8 H 0.23340 0.42790 0.37830
C18 C 0.2951(2) 0.3918(2) 0.3703(9)
H9 H 0.31830 0.41470 0.38080
C19 C 0.3026(2) 0.3431(2) 0.3520(9)
C20 C 0.1793(2) 0.3456(2) 0.3567(8)
C21 C 0.1180(3) 0.4460(3) 0.5106(9)
H10 H 0.11700 0.46130 0.59170
C22 C 0.1473(3) 0.4095(3) 0.4924(8)
H11 H 0.16720 0.39990 0.56020
C23 C 0.1480(2) 0.3864(2) 0.3744(8)
C24 C 0.1197(3) 0.4018(3) 0.2779(8)
H12 H 0.11950 0.38680 0.19630
C25 C 0.0910(2) 0.4395(3) 0.3001(8)
H13 H 0.07160 0.45060 0.23300
C26 C 0.0586(3) 0.4994(3) 0.4377(8)
H14 H 0.03400 0.49920 0.37280
H15 H 0.07570 0.52860 0.43220
H16 H 0.04500 0.49640 0.52390
N1 N 0.26076(19) 0.32173(19) 0.3413(7)
N2 N 0.0906(2) 0.4602(2) 0.4139(7)
O1 O 0.43390(16) -0.07955(18) 0.2233(5)
O2 O 0.43161(17) -0.02217(18) 0.0789(5)
O3 O 0.13390(16) 0.00116(18) -0.0519(5)
O4 O 0.07312(15) 0.01886(17) 0.0710(5)
O5 O 0.4094(2) 0.1148(2) -0.2094(7)
O6 O 0.1588(2) -0.00660(17) 0.6320(5)
O7 O 0.09061(18) 0.00905(16) 0.5446(5)
O8 O 0.3886(3) 0.1650(3) 0.0100(9)
C27 C 0.3788(4) 0.2067(3) 0.0216(12)
H17 H 0.35910 0.21470 0.09140
C28 C 0.3767(5) 0.2874(4) -0.0343(17)
H18 H 0.35800 0.29640 -0.10920
H19 H 0.40350 0.30790 -0.02740
H20 H 0.35800 0.28990 0.04420
C29 C 0.4267(6) 0.2319(6) -0.1535(16)
H21 H 0.41340 0.21170 -0.21960
H22 H 0.45430 0.21730 -0.11700
H23 H 0.43520 0.26160 -0.19240
N3 N 0.3923(4) 0.2397(3) -0.0500(11)
O9? O 0.0332(5) 0.1548(4) 0.7942(13)
O10 O 0.0739(14) 0.1718(13) 0.791(4)
N4? N -0.0417(9) 0.1556(10) 0.741(3)
C30? C -0.0065(7) 0.1428(9) 0.814(3)
H24? H -0.01250 0.12320 0.88530
C31? C -0.0873(9) 0.1381(17) 0.763(5)
H25? H -0.10870 0.15210 0.70080
H26? H -0.09710 0.14570 0.85060
H27? H -0.08730 0.10440 0.75150
C32? C -0.0346(16) 0.1866(16) 0.634(4)
H28? H -0.06410 0.19220 0.59050
H29? H -0.01270 0.17280 0.57320
H30? H -0.02210 0.21590 0.66610
O11? O -0.1957(16) 0.1364(14) 0.842(4)
O12? O -0.191(2) 0.1384(17) 0.658(5)
N5? N -0.1226(9) 0.1224(10) 0.749(2)
C33? C -0.1673(9) 0.1316(8) 0.754(4)
C34? C -0.0960(11) 0.1140(13) 0.864(3)
H31? H -0.06350 0.10950 0.84070
H32? H -0.10770 0.08630 0.90710
H33? H -0.09880 0.14060 0.92180
C35? C -0.0989(12) 0.1187(13) 0.627(3)
H34? H -0.06580 0.11370 0.64220
H35? H -0.10330 0.14730 0.57750
H36? H -0.11150 0.09260 0.57810
O13? O 0.1737(9) 0.1604(10) 0.681(3)
C36? C 0.214(1) 0.1729(9) 0.665(5)
N6? N 0.2844(9) 0.2297(8) 0.673(4)
C37? C 0.2253(12) 0.2225(8) 0.644(5)
C38? C 0.1982(11) 0.2542(11) 0.674(5)
O14 O -0.2823(13) 0.0393(16) 1.190(5)
N7 N -0.2285(10) 0.0908(10) 1.101(3)
C39 C -0.2425(12) 0.0566(10) 1.175(3)
H37 H -0.21890 0.04260 1.22490
C40 C -0.1816(10) 0.1075(15) 1.100(5)
H38 H -0.17920 0.13370 1.04090
H39 H -0.16090 0.08270 1.07180
H40 H -0.17290 0.11740 1.18730
C41 C -0.2615(12) 0.1148(14) 1.019(4)
H41 H -0.24580 0.13980 0.97310
H42 H -0.28630 0.12780 1.07280
H43 H -0.27470 0.09300 0.95720
O15? O -0.179(2) 0.094(2) 1.183(8)
Cd1D Cd 0.511580(16) -0.094506(16) 0.23176(5)
Cd1E Cd 0.594506(16) 0.511580(16) 0.23176(5)
Cd1A Cd 0.405494(16) -0.511580(16) -0.23176(5)
Cd1C Cd 0.094506(16) 0.011580(16) -0.23176(5)
Cd1C* Cd 0.094506(16) 0.011580(16) 0.76824(5)
Cd1G Cd 0.905494(16) -0.011580(16) 0.23176(5)
Cd1G* Cd 0.905494(16) -0.011580(16) -0.76824(5)
Cd1* Cd 0.488420(16) 0.094506(16) 0.76824(5)
Cd1D* Cd 0.511580(16) -0.094506(16) -0.76824(5)
Cd1A* Cd 0.405494(16) 0.488420(16) -0.23176(5)
Cd2A Cd 0.50000 0.50000 0.00000
Cd2C Cd 0.00000 0.00000 0.00000
Cd2C* Cd 1.00000 0.00000 0.00000
Cd2A* Cd 0.50000 -0.50000 0.00000
Cl1D Cl 0.54006(6) -0.01083(7) 0.22063(19)
Cl1A Cl 0.48917(6) 0.45994(7) -0.22063(19)
Cl1E Cl 0.51083(6) 0.54006(7) 0.22063(19)
Cl1A* Cl 0.48917(6) -0.54006(7) -0.22063(19)
C1D C 0.5862(2) 0.0488(2) -0.1611(7)
C1A C 0.5488(2) 0.4138(2) 0.1611(7)
C1E C 0.4512(2) -0.4138(2) -0.1611(7)
C2D C 0.6368(2) 0.0407(2) -0.1897(7)
C2A C 0.5407(2) 0.3632(2) 0.1897(7)
C2E C 0.4593(2) -0.3632(2) -0.1897(7)
C3D C 0.6598(2) 0.0661(3) -0.2827(7)
C3A C 0.5661(2) 0.3402(3) 0.2827(7)
C3E C 0.4339(2) -0.3402(3) -0.2827(7)
H1D H 0.64370 0.08950 -0.32900
H1A H 0.58950 0.35630 0.32900
H1E H 0.41050 -0.35630 -0.32900
C4D C 0.7059(3) 0.0578(3) -0.3089(8)
C4A C 0.5578(3) 0.2941(3) 0.3089(8)
C4E C 0.4422(3) -0.2941(3) -0.3089(8)
H2D H 0.72120 0.07560 -0.37300
H2A H 0.57560 0.27880 0.37300
H2E H 0.42440 -0.27880 -0.37300
C5D C 0.7302(2) 0.0237(2) -0.2426(7)
C5A C 0.5237(2) 0.2698(2) 0.2426(7)
C5E C 0.4763(2) -0.2698(2) -0.2426(7)
C6D C 0.7066(2) -0.0015(3) -0.1505(8)
C6A C 0.4985(2) 0.2934(3) 0.1505(8)
C6E C 0.5015(2) -0.2934(3) -0.1505(8)
H3D H 0.72260 -0.02470 -0.10320
H3A H 0.47530 0.27740 0.10320
H3E H 0.52470 -0.27740 -0.10320
C7D C 0.6604(2) 0.0060(3) -0.1255(8)
C7A C 0.5060(2) 0.3396(3) 0.1255(8)
C7E C 0.4940(2) -0.3396(3) -0.1255(8)
H4D H 0.64480 -0.01270 -0.06420
H4A H 0.48730 0.35520 0.06420
H4E H 0.51270 -0.35520 -0.06420
C8D C 0.7804(2) 0.0162(2) -0.2640(7)
C8A C 0.5162(2) 0.2196(2) 0.2640(7)
C8E C 0.4838(2) -0.2196(2) -0.2640(7)
C9D C 0.8093(2) 0.0084(2) -0.1580(7)
C9A C 0.5084(2) 0.1907(2) 0.1580(7)
C9E C 0.4916(2) -0.1907(2) -0.1580(7)
H5D H 0.79630 0.00810 -0.07380
H5A H 0.50810 0.20370 0.07380
H5E H 0.49190 -0.20370 -0.07380
C10D C 0.8561(2) 0.0013(2) -0.1723(7)
C10A C 0.5013(2) 0.1439(2) 0.1723(7)
C10E C 0.4987(2) -0.1439(2) -0.1723(7)
C11D C 0.8750(2) 0.0013(2) -0.2952(7)
C11A C 0.5013(2) 0.1250(2) 0.2952(7)
C11E C 0.4987(2) -0.1250(2) -0.2952(7)
H6D H 0.90740 -0.00260 -0.30590
H6A H 0.49740 0.09260 0.30590
H6E H 0.50260 -0.09260 -0.30590
C12D C 0.8471(2) 0.0071(2) -0.4027(7)
C12A C 0.5071(2) 0.1529(2) 0.4027(7)
C12E C 0.4929(2) -0.1529(2) -0.4027(7)
C13D C 0.7995(2) 0.0148(2) -0.3851(7)
C13A C 0.5148(2) 0.2005(2) 0.3851(7)
C13E C 0.4852(2) -0.2005(2) -0.3851(7)
H7D H 0.78020 0.01920 -0.45830
H7A H 0.51920 0.21980 0.45830
H7E H 0.48080 -0.21980 -0.45830
C14D C 0.8670(2) 0.0015(2) -0.5356(7)
C14A C 0.5015(2) 0.1330(2) 0.5356(7)
C14E C 0.4985(2) -0.1330(2) -0.5356(7)
C15D C 0.8858(2) -0.0071(2) -0.0548(7)
C15A C 0.4929(2) 0.1142(2) 0.0548(7)
C15E C 0.5071(2) -0.1142(2) -0.0548(7)
C16C C 0.3546(3) 0.2729(2) 0.3539(8)
C16B C 0.2729(3) 0.1454(2) 0.3539(8)
C16A C 0.1454(3) 0.2271(2) 0.3539(8)
C17C C 0.3990(3) 0.2513(2) 0.3698(9)
C17B C 0.2513(3) 0.1010(2) 0.3698(9)
C17A C 0.1010(3) 0.2487(2) 0.3698(9)
H8C H 0.42790 0.26660 0.37830
H8B H 0.26660 0.07210 0.37830
H8A H 0.07210 0.23340 0.37830
C18C C 0.3918(2) 0.2049(2) 0.3703(9)
C18B C 0.2049(2) 0.1082(2) 0.3703(9)
C18A C 0.1082(2) 0.2951(2) 0.3703(9)
H9C H 0.41470 0.18170 0.38080
H9B H 0.18170 0.08530 0.38080
H9A H 0.08530 0.31830 0.38080
C19C C 0.3431(2) 0.1974(2) 0.3520(9)
C19B C 0.1974(2) 0.1569(2) 0.3520(9)
C19A C 0.1569(2) 0.3026(2) 0.3520(9)
C20C C 0.3456(2) 0.3207(2) 0.3567(8)
C20B C 0.3207(2) 0.1544(2) 0.3567(8)
C20A C 0.1544(2) 0.1793(2) 0.3567(8)
C21A C 0.0540(3) 0.1180(3) 0.5106(9)
C21B C 0.3820(3) 0.0540(3) 0.5106(9)
C21C C 0.4460(3) 0.3820(3) 0.5106(9)
H10A H 0.03870 0.11700 0.59170
H10B H 0.38300 0.03870 0.59170
H10C H 0.46130 0.38300 0.59170
C22A C 0.0905(3) 0.1473(3) 0.4924(8)
C22B C 0.3527(3) 0.0905(3) 0.4924(8)
C22C C 0.4095(3) 0.3527(3) 0.4924(8)
H11A H 0.10010 0.16720 0.56020
H11B H 0.33280 0.10010 0.56020
H11C H 0.39990 0.33280 0.56020
C23A C 0.1136(2) 0.1480(2) 0.3744(8)
C23B C 0.3520(2) 0.1136(2) 0.3744(8)
C23C C 0.3864(2) 0.3520(2) 0.3744(8)
C24A C 0.0982(3) 0.1197(3) 0.2779(8)
C24B C 0.3803(3) 0.0982(3) 0.2779(8)
C24C C 0.4018(3) 0.3803(3) 0.2779(8)
H12A H 0.11320 0.11950 0.19630
H12B H 0.38050 0.11320 0.19630
H12C H 0.38680 0.38050 0.19630
C25A C 0.0605(2) 0.0910(3) 0.3001(8)
C25B C 0.4090(2) 0.0605(3) 0.3001(8)
C25C C 0.4395(2) 0.4090(3) 0.3001(8)
H13A H 0.04940 0.07160 0.23300
H13B H 0.42840 0.04940 0.23300
H13C H 0.45060 0.42840 0.23300
C26A C 0.0006(3) 0.0586(3) 0.4377(8)
C26B C 0.4414(3) 0.0006(3) 0.4377(8)
C26C C 0.4994(3) 0.4414(3) 0.4377(8)
H14A H 0.00080 0.03400 0.37280
H14B H 0.46600 0.00080 0.37280
H14C H 0.49920 0.46600 0.37280
H15A H -0.02860 0.07570 0.43220
H15B H 0.42430 -0.02860 0.43220
H15C H 0.52860 0.42430 0.43220
H16A H 0.00360 0.04500 0.52390
H16B H 0.45500 0.00360 0.52390
H16C H 0.49640 0.45500 0.52390
N1A N 0.17827(19) 0.26076(19) 0.3413(7)
N1B N 0.23924(19) 0.17827(19) 0.3413(7)
N1C N 0.32173(19) 0.23924(19) 0.3413(7)
N2A N 0.0398(2) 0.0906(2) 0.4139(7)
N2B N 0.4094(2) 0.0398(2) 0.4139(7)
N2C N 0.4602(2) 0.4094(2) 0.4139(7)
O1D O 0.56610(16) 0.07955(18) -0.2233(5)
O1A O 0.57955(16) 0.43390(18) 0.2233(5)
O1E O 0.42045(16) -0.43390(18) -0.2233(5)
O2D O 0.56839(17) 0.02217(18) -0.0789(5)
O2A O 0.52217(17) 0.43161(18) 0.0789(5)
O2E O 0.47783(17) -0.43161(18) -0.0789(5)
O2E* O 0.47783(17) 0.56839(18) -0.0789(5)
O3D O 0.86610(16) -0.00116(18) 0.0519(5)
O3A O 0.49884(16) 0.13390(18) -0.0519(5)
O3E O 0.50116(16) -0.13390(18) 0.0519(5)
O3F O 0.63390(16) 0.50116(18) 0.0519(5)
O3B O 0.36610(16) -0.50116(18) -0.0519(5)
O4D O 0.92688(15) -0.01886(17) -0.0710(5)
O4A O 0.48114(15) 0.07312(17) 0.0710(5)
O4E O 0.51886(15) -0.07312(17) -0.0710(5)
O4B O 0.42688(15) 0.48114(17) 0.0710(5)
O4F O 0.57312(15) 0.51886(17) -0.0710(5)
O5D O 0.5906(2) -0.1148(2) 0.2094(7)
O5E O 0.6148(2) 0.5906(2) 0.2094(7)
O5A O 0.3852(2) -0.5906(2) -0.2094(7)
O6D O 0.8412(2) 0.00660(17) -0.6320(5)
O6A O 0.5066(2) 0.15880(17) 0.6320(5)
O6E O 0.4934(2) -0.15880(17) -0.6320(5)
O6A* O 0.5066(2) 0.15880(17) -0.3680(5)
O6E* O 0.4934(2) -0.15880(17) 0.3680(5)
O6F O 0.6588(2) 0.49340(17) 0.3680(5)
O6B O 0.3412(2) -0.49340(17) -0.3680(5)
O7D O 0.90939(18) -0.00905(16) -0.5446(5)
O7A O 0.49095(18) 0.09061(16) 0.5446(5)
O7E O 0.50905(18) -0.09061(16) -0.5446(5)
O7A* O 0.49095(18) 0.09061(16) -0.4554(5)
O7E* O 0.50905(18) -0.09061(16) 0.4554(5)
O7F O 0.59061(18) 0.50905(16) 0.4554(5)
O7B O 0.40939(18) -0.50905(16) -0.4554(5)
#END
