
#######################################################################
#
#                 Cambridge Crystallographic Data Centre
#                                CCDC
#
#######################################################################
#
# If this CIF has been generated from an entry in the Cambridge
# Structural Database, then it will include bibliographic, chemical,
# crystal, experimental, refinement or atomic coordinate data resulting
# from the CCDC's data processing and validation procedures.
#
#######################################################################

data_CSD_CIF_DAPYAW
_audit_creation_date 2012-06-19
_audit_creation_method CSD-ConQuest-V1
_database_code_CSD DAPYAW
_database_code_depnum_ccdc_archive 'CCDC 858707'
_chemical_formula_sum 'C124 H108 Cd5 N2 O28'
_chemical_formula_moiety
;
(C108 H68 Cd5 O28 2-)n,2n(C8 H20 N1 1+)
;
_journal_coden_Cambridge 222
_journal_volume 41
_journal_year 2012
_journal_page_first 3620
_journal_name_full 'Dalton Trans. '
loop_
_publ_author_name
"Qipu Lin"
"Tao Wu"
"Xianhui Bu"
"Pingyun Feng"
_chemical_name_systematic
;
catena-(bis(Tetraethylammonium) 
bis(\m~6~-1,3,5-tris(4-carboxylatophenyl)benzene)-bis(\m~5~-1,3,5-tris(4-carbo
xylatophenyl)benzene)-tetra-aqua-penta-cadmium)
;
_cell_volume  14285.351
_exptl_crystal_colour 'colorless'
_exptl_crystal_description 'sheet'
_diffrn_ambient_temperature 293
_refine_special_details
;
The cations were taken into account using PLATON/SQUEEZE.

;
#These two values have been output from a single CSD field.
_refine_ls_R_factor_gt 0.0682
_refine_ls_wR_factor_gt 0.0682
_symmetry_cell_setting monoclinic
_symmetry_space_group_name_H-M 'C 2/c'
_symmetry_Int_Tables_number 15
loop_
_symmetry_equiv_pos_site_id
_symmetry_equiv_pos_as_xyz
1 x,y,z
2 -x,y,1/2-z
3 1/2+x,1/2+y,z
4 1/2-x,1/2+y,1/2-z
5 -x,-y,-z
6 x,-y,-1/2+z
7 -1/2-x,-1/2-y,-z
8 -1/2+x,-1/2-y,-1/2+z
_cell_length_a 35.859(7)
_cell_length_b 17.020(3)
_cell_length_c 27.824(6)
_cell_angle_alpha 90
_cell_angle_beta 122.73(3)
_cell_angle_gamma 90
_cell_formula_units_Z 4
loop_
_atom_type_symbol
_atom_type_radius_bond
C 0.57
H 0.23
Cd 1.59
O 0.68
loop_
_atom_site_label
_atom_site_type_symbol
_atom_site_fract_x
_atom_site_fract_y
_atom_site_fract_z
Cd1 Cd 0.137430(15) -0.70083(3) 0.452070(17)
Cd2 Cd 0.017860(18) -0.67746(3) 0.37047(2)
Cd3 Cd 0.25000 0.25000 0.50000
O1 O 0.08179(19) -0.6140(3) 0.4420(2)
O2 O 0.0414(2) -0.6752(4) 0.3074(2)
O3 O 0.0482(2) -0.5217(3) 0.3803(3)
O4 O -0.0254(2) -0.7830(5) 0.3151(3)
O5 O 0.34484(19) 0.0961(3) 0.5772(2)
O6 O 0.27452(18) 0.1260(3) 0.5094(2)
O7 O 0.32779(15) -0.2103(3) 0.95511(17)
O8 O 0.26471(15) -0.2722(3) 0.93252(18)
O9 O 0.02731(17) -0.2409(3) -0.0513(2)
O10 O 0.07535(14) -0.2254(2) -0.07774(17)
O11 O 0.4554(2) -0.1014(5) 0.2871(3)
O12 O 0.4611(2) -0.1194(4) 0.3706(3)
O13 O 0.11730(19) 0.2487(4) 0.3587(2)
O14 O 0.17849(16) 0.2089(3) 0.43571(19)
C1 C 0.2010(3) -0.3128(4) 0.5893(3)
C2 C 0.2160(3) -0.2523(4) 0.5712(3)
H1 H 0.20630 -0.24890 0.53280
C3 C 0.2459(3) -0.1949(4) 0.6098(3)
C4 C 0.2594(3) -0.2008(4) 0.6671(3)
H2 H 0.27900 -0.16380 0.69320
C5 C 0.2442(3) -0.2605(4) 0.6861(3)
C6 C 0.2149(2) -0.3173(4) 0.6467(3)
H3 H 0.20480 -0.35800 0.65910
C7 C 0.1703(3) -0.3725(4) 0.5476(3)
C8 C 0.1365(3) -0.3500(4) 0.4927(3)
H4 H 0.13330 -0.29740 0.48220
C9 C 0.1073(3) -0.4061(4) 0.4533(3)
H5 H 0.08560 -0.39100 0.41630
C10 C 0.1112(3) -0.4853(4) 0.4700(3)
C11 C 0.1444(3) -0.5066(4) 0.5241(3)
H6 H 0.14780 -0.55910 0.53500
C12 C 0.1729(2) -0.4514(4) 0.5623(3)
H7 H 0.19460 -0.46720 0.59910
C13 C 0.2605(2) -0.1288(4) 0.5905(3)
C14 C 0.3058(2) -0.1109(4) 0.6183(3)
H8 H 0.32670 -0.14330 0.64740
C15 C 0.3197(3) -0.0453(4) 0.6026(3)
H9 H 0.34980 -0.03570 0.61990
C16 C 0.2895(2) 0.0055(3) 0.5620(3)
C17 C 0.2451(3) -0.0117(4) 0.5336(3)
H10 H 0.22480 0.02180 0.50480
C18 C 0.2296(2) -0.0782(4) 0.5469(3)
H11 H 0.19940 -0.08900 0.52730
C19 C 0.2567(2) -0.2615(3) 0.7467(2)
C20 C 0.2995(2) -0.2376(4) 0.7910(3)
H12 H 0.32090 -0.22560 0.78290
C21 C 0.3096(2) -0.2322(4) 0.8465(3)
H13 H 0.33770 -0.21530 0.87510
C22 C 0.2795(2) -0.2509(3) 0.8604(2)
C23 C 0.2377(2) -0.2773(4) 0.8176(3)
H14 H 0.21710 -0.29200 0.82650
C24 C 0.2267(2) -0.2816(3) 0.7612(2)
H15 H 0.19850 -0.29830 0.73280
C25 C 0.0786(3) -0.5430(5) 0.4277(4)
C26 C 0.3034(3) 0.0816(4) 0.5482(3)
C27 C 0.2917(2) -0.2437(4) 0.9219(3)
C28 C 0.1807(2) -0.0277(4) 0.1562(3)
C29 C 0.2251(2) -0.0339(3) 0.1765(3)
H16 H 0.23350 -0.06060 0.15460
C30 C 0.2582(2) -0.0017(4) 0.2287(3)
C31 C 0.2448(2) 0.0406(4) 0.2596(3)
H17 H 0.26610 0.06380 0.29390
C32 C 0.2001(2) 0.0487(4) 0.2401(3)
C33 C 0.1691(2) 0.0125(4) 0.1900(3)
H18 H 0.13940 0.01470 0.17820
C34 C 0.1471(2) -0.0680(4) 0.1018(3)
C35 C 0.1106(2) -0.1047(4) 0.0972(3)
H19 H 0.10560 -0.10010 0.12650
C36 C 0.0818(2) -0.1481(4) 0.0486(3)
H20 H 0.05720 -0.17230 0.04510
C37 C 0.08991(19) -0.1553(3) 0.0050(2)
C38 C 0.1257(2) -0.1170(4) 0.0096(3)
H21 H 0.13050 -0.12000 -0.02010
C39 C 0.15439(19) -0.0743(3) 0.0582(2)
H22 H 0.17880 -0.04960 0.06150
C40 C 0.3062(2) -0.0167(4) 0.2509(3)
C41 C 0.3201(2) -0.0377(4) 0.2159(3)
H23 H 0.29990 -0.03550 0.17660
C42 C 0.3632(2) -0.0624(4) 0.2362(3)
H24 H 0.37170 -0.07650 0.21120
C43 C 0.3937(2) -0.0655(4) 0.2959(3)
C44 C 0.3807(2) -0.0445(4) 0.3317(3)
H25 H 0.40120 -0.04660 0.37100
C45 C 0.3382(3) -0.0201(4) 0.3117(3)
H26 H 0.33010 -0.00600 0.33720
C46 C 0.1868(3) 0.0895(5) 0.2760(3)
C47 C 0.1500(3) 0.1342(5) 0.2528(3)
H27 H 0.13180 0.13790 0.21320
C48 C 0.1384(2) 0.1748(5) 0.2859(3)
H28 H 0.11340 0.20700 0.26870
C49 C 0.1643(2) 0.1673(5) 0.3456(3)
C50 C 0.2010(3) 0.1201(4) 0.3693(3)
H29 H 0.21810 0.11410 0.40870
C51 C 0.2133(3) 0.0813(4) 0.3368(3)
H30 H 0.23860 0.05000 0.35400
C52 C 0.0617(2) -0.2107(4) -0.0438(3)
C53 C 0.4402(2) -0.0980(5) 0.3195(4)
C54 C 0.1527(3) 0.2110(5) 0.3811(3)
Cd1E Cd 0.137430(15) 0.70083(3) -0.047930(17)
Cd1F Cd 0.362570(15) 0.20083(3) 0.547930(17)
Cd1C Cd 0.362570(15) -0.20083(3) 1.047930(17)
Cd1E* Cd 0.137430(15) -0.29917(3) -0.047930(17)
Cd1* Cd 0.137430(15) 0.29917(3) 0.452070(17)
Cd1C* Cd 0.362570(15) -0.20083(3) 0.047930(17)
Cd1C** Cd 0.362570(15) 0.79917(3) 1.047930(17)
Cd2E Cd 0.017860(18) 0.67746(3) -0.12953(2)
Cd2E* Cd 0.017860(18) -0.32254(3) -0.12953(2)
Cd2B Cd 0.517860(18) -0.17746(3) 0.37047(2)
Cd2C Cd 0.482140(18) 0.82254(3) 1.12953(2)
Cd2D Cd -0.017860(18) 0.67746(3) 0.62953(2)
Cd3C Cd 0.25000 -0.25000 1.00000
Cd3C* Cd 0.25000 -0.25000 0.00000
O1E O 0.08179(19) 0.6140(3) -0.0580(2)
O2E O 0.0414(2) 0.6752(4) -0.1926(2)
O3E O 0.0482(2) 0.5217(3) -0.1197(3)
O4E O -0.0254(2) 0.7830(5) -0.1849(3)
O5E O 0.34484(19) -0.0961(3) 0.0772(2)
O5F O 0.15516(19) -0.5961(3) 0.4228(2)
O5C O 0.15516(19) 0.5961(3) -0.0772(2)
O6E O 0.27452(18) -0.1260(3) 0.0094(2)
O6F O 0.22548(18) 0.3740(3) 0.4906(2)
O7E O 0.32779(15) 0.2103(3) 0.45511(17)
O7C O 0.17221(15) -0.7103(3) 0.54489(17)
O7F O 0.17221(15) 0.7103(3) 0.04489(17)
O8E O 0.26471(15) 0.2722(3) 0.43252(18)
O8C O 0.23529(15) 0.2278(3) 0.56748(18)
O9F O 0.47269(17) 0.7409(3) 1.0513(2)
O9E O 0.02731(17) -0.7591(3) 0.4487(2)
O9* O 0.02731(17) 0.7591(3) -0.0513(2)
O10F O 0.42465(14) 0.7254(2) 1.07774(17)
O10E O 0.07535(14) -0.7746(2) 0.42226(17)
O10* O 0.07535(14) 0.7746(2) -0.07774(17)
O11F O 0.0446(2) 0.6014(5) 0.7129(3)
O11B O -0.0446(2) -0.6014(5) 0.2871(3)
O11G O -0.0446(2) 0.6014(5) -0.2129(3)
O12F O 0.0389(2) 0.6194(4) 0.6294(3)
O12B O -0.0389(2) -0.6194(4) 0.3706(3)
O12G O -0.0389(2) 0.6194(4) -0.1294(3)
O13F O 0.38270(19) 0.2513(4) 0.6413(2)
O13* O 0.11730(19) -0.7513(4) 0.3587(2)
O13E O 0.11730(19) 0.7513(4) -0.1413(2)
O14F O 0.32151(16) 0.2911(3) 0.56429(19)
O14* O 0.17849(16) -0.7911(3) 0.43571(19)
O14E O 0.17849(16) 0.7911(3) -0.06429(19)
C1E C 0.2010(3) 0.3128(4) 0.0893(3)
C2E C 0.2160(3) 0.2523(4) 0.0712(3)
H1E H 0.20630 0.24890 0.03280
C3E C 0.2459(3) 0.1949(4) 0.1098(3)
C4E C 0.2594(3) 0.2008(4) 0.1671(3)
H2E H 0.27900 0.16380 0.19320
C5E C 0.2442(3) 0.2605(4) 0.1861(3)
C6E C 0.2149(2) 0.3173(4) 0.1467(3)
H3E H 0.20480 0.35800 0.15910
C7E C 0.1703(3) 0.3725(4) 0.0476(3)
C8E C 0.1365(3) 0.3500(4) -0.0073(3)
H4E H 0.13330 0.29740 -0.01780
C9E C 0.1073(3) 0.4061(4) -0.0467(3)
H5E H 0.08560 0.39100 -0.08370
C10E C 0.1112(3) 0.4853(4) -0.0300(3)
C11E C 0.1444(3) 0.5066(4) 0.0241(3)
H6E H 0.14780 0.55910 0.03500
C12E C 0.1729(2) 0.4514(4) 0.0623(3)
H7E H 0.19460 0.46720 0.09910
C13E C 0.2605(2) 0.1288(4) 0.0905(3)
C14E C 0.3058(2) 0.1109(4) 0.1183(3)
H8E H 0.32670 0.14330 0.14740
C15E C 0.3197(3) 0.0453(4) 0.1026(3)
H9E H 0.34980 0.03570 0.11990
C16E C 0.2895(2) -0.0055(3) 0.0620(3)
C17E C 0.2451(3) 0.0117(4) 0.0336(3)
H10E H 0.22480 -0.02180 0.00480
C18E C 0.2296(2) 0.0782(4) 0.0469(3)
H11E H 0.19940 0.08900 0.02730
C19E C 0.2567(2) 0.2615(3) 0.2467(2)
C20E C 0.2995(2) 0.2376(4) 0.2910(3)
H12E H 0.32090 0.22560 0.28290
C21E C 0.3096(2) 0.2322(4) 0.3465(3)
H13E H 0.33770 0.21530 0.37510
C22E C 0.2795(2) 0.2509(3) 0.3604(2)
C23E C 0.2377(2) 0.2773(4) 0.3176(3)
H14E H 0.21710 0.29200 0.32650
C24E C 0.2267(2) 0.2816(3) 0.2612(2)
H15E H 0.19850 0.29830 0.23280
C25E C 0.0786(3) 0.5430(5) -0.0723(4)
C26E C 0.3034(3) -0.0816(4) 0.0482(3)
C27E C 0.2917(2) 0.2437(4) 0.4219(3)
C28F C 0.3193(2) 0.5277(4) 0.8438(3)
C29F C 0.2749(2) 0.5339(3) 0.8235(3)
H16F H 0.26650 0.56060 0.84540
C30F C 0.2418(2) 0.5017(4) 0.7713(3)
C31F C 0.2552(2) 0.4594(4) 0.7404(3)
H17F H 0.23390 0.43620 0.70610
C32F C 0.2999(2) 0.4513(4) 0.7599(3)
C33F C 0.3309(2) 0.4875(4) 0.8100(3)
H18F H 0.36060 0.48530 0.82180
C34F C 0.3529(2) 0.5680(4) 0.8982(3)
C35F C 0.3894(2) 0.6047(4) 0.9028(3)
H19F H 0.39440 0.60010 0.87350
C36F C 0.4182(2) 0.6481(4) 0.9514(3)
H20F H 0.44280 0.67230 0.95490
C37F C 0.41009(19) 0.6553(3) 0.9950(2)
C38F C 0.3743(2) 0.6170(4) 0.9904(3)
H21F H 0.36950 0.62000 1.02010
C39F C 0.34561(19) 0.5743(3) 0.9418(2)
H22F H 0.32120 0.54960 0.93850
C40F C 0.1938(2) 0.5167(4) 0.7491(3)
C41F C 0.1799(2) 0.5377(4) 0.7841(3)
H23F H 0.20010 0.53550 0.82340
C42F C 0.1368(2) 0.5624(4) 0.7638(3)
H24F H 0.12830 0.57650 0.78880
C43F C 0.1063(2) 0.5655(4) 0.7041(3)
C44F C 0.1193(2) 0.5445(4) 0.6683(3)
H25F H 0.09880 0.54660 0.62900
C45F C 0.1618(3) 0.5201(4) 0.6883(3)
H26F H 0.16990 0.50600 0.66280
C46F C 0.3132(3) 0.4105(5) 0.7240(3)
C47F C 0.3500(3) 0.3658(5) 0.7472(3)
H27F H 0.36820 0.36210 0.78680
C48F C 0.3616(2) 0.3252(5) 0.7141(3)
H28F H 0.38660 0.29300 0.73130
C49F C 0.3357(2) 0.3327(5) 0.6544(3)
C50F C 0.2990(3) 0.3799(4) 0.6307(3)
H29F H 0.28190 0.38590 0.59130
C51F C 0.2867(3) 0.4187(4) 0.6632(3)
H30F H 0.26140 0.45000 0.64600
C52F C 0.4383(2) 0.7107(4) 1.0438(3)
C53F C 0.0598(2) 0.5980(5) 0.6805(4)
C54F C 0.3473(3) 0.2890(5) 0.6189(3)
#END
