
#######################################################################
#
#                 Cambridge Crystallographic Data Centre
#                                CCDC
#
#######################################################################
#
# If this CIF has been generated from an entry in the Cambridge
# Structural Database, then it will include bibliographic, chemical,
# crystal, experimental, refinement or atomic coordinate data resulting
# from the CCDC's data processing and validation procedures.
#
#######################################################################

data_CSD_CIF_DAQKEN
_audit_creation_date 2012-06-19
_audit_creation_method CSD-ConQuest-V1
_database_code_CSD DAQKEN
_database_code_depnum_ccdc_archive 'CCDC 853050'
_chemical_formula_sum 'C14 H45 N3 O46.5 P1 Tm2 W10'
_chemical_formula_moiety
;
(C2 H4 O44 P1 Tm2 W10 3-)n,3n(C4 H12 N1 1+),2.5n(H2 O1)
;
_journal_coden_Cambridge 222
_journal_volume 41
_journal_year 2012
_journal_page_first 3764
_journal_name_full 'Dalton Trans. '
loop_
_publ_author_name
"Shaowei Zhang"
"Yuan Wang"
"Junwei Zhao"
"Pengtao Ma"
"Jingping Wang"
"Jingyang Niu"
_chemical_name_systematic
;
catena-(tris(Tetramethylammonium) 
(\m~9~-phosphato)-(\m~2~-oxalato)-tetracosakis(\m~2~-oxo)-diaqua-decaoxo-di-th
ulium-deca-tungsten hydrate)
;
_cell_volume   6794.265
_exptl_crystal_colour 'light green'
_exptl_crystal_density_diffrn 3.135
_exptl_crystal_description 'block'
_diffrn_ambient_temperature 296
_refine_special_details
;
The phosphate moiety is disordered by symmetry.

;
#These two values have been output from a single CSD field.
_refine_ls_R_factor_gt 0.0665
_refine_ls_wR_factor_gt 0.0665
_symmetry_cell_setting monoclinic
_symmetry_space_group_name_H-M 'C 2/c'
_symmetry_Int_Tables_number 15
loop_
_symmetry_equiv_pos_site_id
_symmetry_equiv_pos_as_xyz
1 x,y,z
2 -x,y,1/2-z
3 1/2+x,1/2+y,z
4 1/2-x,1/2+y,1/2-z
5 -x,-y,-z
6 x,-y,-1/2+z
7 -1/2-x,-1/2-y,-z
8 -1/2+x,-1/2-y,-1/2+z
_cell_length_a 20.517(11)
_cell_length_b 18.239(9)
_cell_length_c 18.608(9)
_cell_angle_alpha 90
_cell_angle_beta 102.65(1)
_cell_angle_gamma 90
_cell_formula_units_Z 4
loop_
_atom_type_symbol
_atom_type_radius_bond
C 0.68
H 0.23
N 0.68
O 0.68
P 1.05
Tm 1.50
W 1.35
loop_
_atom_site_label
_atom_site_type_symbol
_atom_site_fract_x
_atom_site_fract_y
_atom_site_fract_z
W1 W 0.72193(5) 0.07285(6) -0.08270(5)
W2 W 0.62676(5) 0.22405(5) -0.16498(5)
W3 W 0.87409(5) 0.17058(7) -0.08261(6)
W4 W 0.84428(5) 0.09846(7) 0.08364(6)
W5 W 0.77913(5) 0.32178(6) -0.16692(5)
Tm1 Tm 0.58750(7) 0.14415(6) 0.00157(6)
P1 P 0.75000 0.25000 0.00000
O1 O 0.7113(13) -0.0103(10) -0.1230(12)
O2 O 0.6529(9) 0.0755(8) -0.0354(11)
O3 O 0.6753(9) 0.1338(9) -0.1587(10)
O4 O 0.7795(12) 0.0621(14) 0.0086(14)
O5 O 0.7836(13) 0.1723(10) -0.0093(15)
O6 O 0.5740(11) 0.2140(19) -0.2499(11)
O7 O 0.5770(9) 0.1927(9) -0.1033(10)
O8 O 0.6136(9) 0.3229(9) -0.1411(11)
O9 O 0.7002(11) 0.2654(9) -0.1987(12)
O10 O 0.6966(10) 0.2047(12) -0.0510(12)
O11? O 0.7153(11) 0.2786(13) -0.0757(10)
O12 O 0.9305(9) 0.133(1) -0.1244(11)
O13 O 0.9184(9) 0.2432(10) -0.0322(10)
O14 O 0.8313(16) 0.2312(15) -0.1566(13)
O15 O 0.8016(11) 0.099(2) -0.1122(11)
O16 O 0.8921(9) 0.1168(12) 0.0085(10)
O17 O 0.8879(10) 0.0266(9) 0.1251(12)
O18 O 0.7831(10) 0.1056(9) 0.1424(13)
O19 O 0.7920(13) 0.3548(14) -0.2502(11)
O20 O 0.6492(14) 0.1348(13) 0.0993(14)
O21? O 0.8024(11) 0.2736(13) -0.0474(14)
O22 O 0.5589(14) 0.0416(15) 0.0707(16)
N1 N 0.4174(10) 0.3969(12) -0.1232(12)
N2 N 0.782(2) 0.604(2) -0.1453(17)
O23 O 0.4836(19) 0.1762(19) 0.035(3)
O24 O 0.693(3) 0.828(2) -0.104(3)
O25 O -0.104(2) 0.5795(18) 0.062(3)
O26 O 0.065(4) 0.561(5) 0.242(5)
O27 O 0.4986(16) -0.0720(15) 0.0596(18)
C1 C 0.519(2) -0.0094(18) 0.0392(11)
C2 C 0.4451(18) 0.3220(13) -0.113(2)
H1 H 0.43070 0.29440 -0.15710
H2 H 0.42940 0.29850 -0.07330
H3 H 0.49300 0.32440 -0.10030
C3 C 0.4409(19) 0.4395(19) -0.0559(17)
H4 H 0.42220 0.48790 -0.06230
H5 H 0.48880 0.44270 -0.04560
H6 H 0.42720 0.41590 -0.01550
C4 C 0.3443(10) 0.393(3) -0.141(2)
H7 H 0.32590 0.44110 -0.14850
H8 H 0.32950 0.37020 -0.10020
H9 H 0.32950 0.36380 -0.18430
C5 C 0.440(2) 0.431(2) -0.185(2)
H10 H 0.42030 0.47920 -0.19390
H11 H 0.42560 0.40170 -0.22860
H12 H 0.48740 0.43510 -0.17370
C6 C 0.826(3) 0.668(3) -0.133(3)
H13 H 0.86870 0.65490 -0.10230
H14 H 0.80630 0.70630 -0.10920
H15 H 0.83310 0.68620 -0.17940
C7 C 0.814(4) 0.546(3) -0.180(5)
H16 H 0.85510 0.53160 -0.14840
H17 H 0.82190 0.56300 -0.22620
H18 H 0.78430 0.50390 -0.18930
C8 C 0.718(2) 0.625(4) -0.194(4)
H19 H 0.68890 0.58310 -0.20130
H20 H 0.72590 0.64090 -0.24040
H21 H 0.69820 0.66370 -0.17160
C9 C 0.770(5) 0.578(5) -0.075(3)
H22 H 0.81190 0.56240 -0.04370
H23 H 0.73990 0.53740 -0.08310
H24 H 0.75170 0.61690 -0.05090
W1F W 0.77807(5) 0.42715(6) 0.08270(5)
W2F W 0.87324(5) 0.27595(5) 0.16498(5)
W3F W 0.62591(5) 0.32942(7) 0.08261(6)
W4F W 0.65572(5) 0.40154(7) -0.08364(6)
W5F W 0.72087(5) 0.17822(6) 0.16692(5)
Tm1F Tm 0.91250(7) 0.35585(6) -0.00157(6)
Tm1D Tm 0.41250(7) -0.14415(6) -0.00157(6)
O1F O 0.7887(13) 0.5103(10) 0.1230(12)
O2F O 0.8471(9) 0.4245(8) 0.0354(11)
O3F O 0.8247(9) 0.3662(9) 0.1587(10)
O4F O 0.7205(12) 0.4379(14) -0.0086(14)
O5F O 0.7164(13) 0.3277(10) 0.0093(15)
O6F O 0.9260(11) 0.2860(19) 0.2499(11)
O7F O 0.9230(9) 0.3073(9) 0.1033(10)
O8F O 0.8864(9) 0.1771(9) 0.1411(11)
O9F O 0.7998(11) 0.2346(9) 0.1987(12)
O10F O 0.8034(10) 0.2953(12) 0.0510(12)
O12F O 0.5695(9) 0.367(1) 0.1244(11)
O13F O 0.5816(9) 0.2568(10) 0.0322(10)
O14F O 0.6687(16) 0.2688(15) 0.1566(13)
O15F O 0.6984(11) 0.401(2) 0.1122(11)
O16F O 0.6079(9) 0.3832(12) -0.0085(10)
O17F O 0.6121(10) 0.4734(9) -0.1251(12)
O18F O 0.7169(10) 0.3944(9) -0.1424(13)
O19F O 0.7080(13) 0.1452(14) 0.2502(11)
O20F O 0.8508(14) 0.3652(13) -0.0993(14)
O22D O 0.4411(14) -0.0416(15) -0.0707(16)
O22F O 0.9411(14) 0.4584(15) -0.0707(16)
O23F O 1.0164(19) 0.3238(19) -0.035(3)
O27D O 0.5014(16) 0.0720(15) -0.0596(18)
O27B O 0.9986(16) 0.4280(15) 0.0596(18)
C1D C 0.481(2) 0.0094(18) -0.0392(11)
#END
