
#######################################################################
#
#                 Cambridge Crystallographic Data Centre
#                                CCDC
#
#######################################################################
#
# If this CIF has been generated from an entry in the Cambridge
# Structural Database, then it will include bibliographic, chemical,
# crystal, experimental, refinement or atomic coordinate data resulting
# from the CCDC's data processing and validation procedures.
#
#######################################################################

data_CSD_CIF_DARDUX
_audit_creation_date 2012-07-02
_audit_creation_method CSD-ConQuest-V1
_database_code_CSD DARDUX
_database_code_depnum_ccdc_archive 'CCDC 818485'
_chemical_formula_sum 'C57 H73 N5 O26 P2 Tb2'
_chemical_formula_moiety
;
(C43 H25 O16 P2 Tb2 1-)n,n(C2 H8 N1 1+),4n(C3 H7 N1 O1),6n(H2 O1)
;
_journal_coden_Cambridge 9
_journal_volume 51
_journal_year 2012
_journal_page_first 1813
_journal_name_full 'Inorg.Chem. '
loop_
_publ_author_name
"Zu-Jin Lin"
"Zhen Yang"
"Tian-Fu Liu"
"Yuan-Biao Huang"
"Rong Cao"
_chemical_name_systematic
;
catena-(dimethylammonium 
bis(\m~5~-4,4',4''-phosphoryltribenzoato)-(\m~2~-formato)-di-terbium(iii) 
N,N-dimethylformamide solvate hexahydrate)
;
_cell_volume   3464.950
_exptl_crystal_colour 'colorless'
_exptl_special_details
;
isostructural with Sm, Eu, Gd, Y, Dy, Ho, Er, Tm, Yb, and Lu analogues

;
_exptl_crystal_description 'prism'
_diffrn_ambient_temperature 293
_refine_special_details
;
The disordered cation and solvent molecules were not modelled and the 
disordered density was taken into account using the SQUEEZE/PLATON procedure.
;
#These two values have been output from a single CSD field.
_refine_ls_R_factor_gt 0.0399
_refine_ls_wR_factor_gt 0.0399
_symmetry_cell_setting monoclinic
_symmetry_space_group_name_H-M 'P 2/c'
_symmetry_Int_Tables_number 13
loop_
_symmetry_equiv_pos_site_id
_symmetry_equiv_pos_as_xyz
1 x,y,z
2 -x,y,1/2-z
3 -x,-y,-z
4 x,-y,-1/2+z
_cell_length_a 14.617(4)
_cell_length_b 10.572(3)
_cell_length_c 23.548(7)
_cell_angle_alpha 90
_cell_angle_beta 107.787(4)
_cell_angle_gamma 90
_cell_formula_units_Z 2
loop_
_atom_type_symbol
_atom_type_radius_bond
C 0.68
H 0.23
O 0.68
P 1.05
Tb 1.74
loop_
_atom_site_label
_atom_site_type_symbol
_atom_site_fract_x
_atom_site_fract_y
_atom_site_fract_z
Tb1 Tb 0.153943(11) 0.568541(16) 0.227971(7)
C1 C 0.2165(3) 0.1994(3) 0.14093(16)
C2 C 0.2000(4) 0.1727(4) 0.19461(19)
H1 H 0.19650 0.23840 0.22010
C3 C 0.1887(4) 0.0495(4) 0.2104(2)
H2 H 0.17800 0.03240 0.24660
C4 C 0.1933(3) -0.0491(4) 0.17254(19)
C5 C 0.2114(5) -0.0224(4) 0.1196(2)
H3 H 0.21650 -0.08850 0.09470
C6 C 0.2220(4) 0.0999(4) 0.1030(2)
H4 H 0.23280 0.11640 0.06680
C7 C 0.1792(3) -0.1835(4) 0.18988(18)
C8 C 0.3560(3) 0.4001(3) 0.14651(16)
C9 C 0.4277(3) 0.3099(4) 0.1597(2)
H5 H 0.41100 0.22480 0.15510
C10 C 0.5229(3) 0.3427(4) 0.1793(2)
H6 H 0.56980 0.28010 0.18780
C11 C 0.5493(3) 0.4687(4) 0.18643(17)
C12 C 0.4776(3) 0.5605(4) 0.1732(3)
H7 H 0.49460 0.64550 0.17800
C13 C 0.3826(3) 0.5275(4) 0.1533(2)
H8 H 0.33570 0.59010 0.14420
C14 C 0.6532(3) 0.5055(4) 0.21188(18)
C15 C 0.1903(3) 0.3716(4) 0.04207(15)
C16 C 0.2540(3) 0.3751(6) 0.00923(19)
H9 H 0.31990 0.37360 0.02830
C17 C 0.2189(3) 0.3810(6) -0.05225(19)
H10 H 0.26220 0.38460 -0.07410
C18 C 0.1229(3) 0.3818(4) -0.08193(15)
C19 C 0.0588(3) 0.3772(6) -0.04943(19)
H11 H -0.00700 0.37740 -0.06880
C20 C 0.0930(3) 0.3724(6) 0.01211(18)
H12 H 0.04950 0.36970 0.03380
C21 C 0.0875(3) 0.3856(4) -0.14894(15)
C22 C 0.00000 0.3426(7) 0.25000
H13 H 0.00000 0.25460 0.25000
O1 O 0.1723(2) 0.4490(2) 0.14847(12)
O2 O 0.1563(2) -0.2021(3) 0.23703(13)
O3 O 0.1897(2) -0.2738(3) 0.15782(14)
O4 O 0.7172(2) 0.4218(3) 0.22001(15)
O5 O 0.6757(2) 0.6181(3) 0.22689(14)
O6 O 0.1492(2) 0.3957(3) -0.17573(12)
O7 O -0.0014(2) 0.3773(3) -0.17385(13)
O8 O 0.0703(2) 0.3884(3) 0.24082(16)
P1 P 0.22991(6) 0.36158(9) 0.12210(4)
Tb1* Tb 0.153943(11) 1.568541(16) 0.227971(7)
Tb1** Tb 0.153943(11) -0.431459(16) 0.227971(7)
Tb1A Tb 0.846057(11) 0.568541(16) 0.272029(7)
Tb1C Tb 0.153943(11) 0.431459(16) -0.272029(7)
Tb1B Tb -0.153943(11) 0.431459(16) -0.227971(7)
Tb1A* Tb -0.153943(11) 0.568541(16) 0.272029(7)
Tb1A** Tb 0.846057(11) 1.568541(16) 0.272029(7)
Tb1C* Tb 0.153943(11) 1.431459(16) -0.272029(7)
Tb1B* Tb -0.153943(11) 1.431459(16) -0.227971(7)
C1* C 0.2165(3) 1.1994(3) 0.14093(16)
C2* C 0.2000(4) 1.1727(4) 0.19461(19)
H1* H 0.19650 1.23840 0.22010
C3* C 0.1887(4) 1.0495(4) 0.2104(2)
H2* H 0.17800 1.03240 0.24660
C4* C 0.1933(3) 0.9509(4) 0.17254(19)
C5* C 0.2114(5) 0.9776(4) 0.1196(2)
H3* H 0.21650 0.91150 0.09470
C6* C 0.2220(4) 1.0999(4) 0.1030(2)
H4* H 0.23280 1.11640 0.06680
C7* C 0.1792(3) 0.8165(4) 0.18988(18)
C8* C 0.3560(3) 1.4001(3) 0.14651(16)
C9* C 0.4277(3) 1.3099(4) 0.1597(2)
H5* H 0.41100 1.22480 0.15510
C10* C 0.5229(3) 1.3427(4) 0.1793(2)
H6* H 0.56980 1.28010 0.18780
C11* C 0.5493(3) 1.4687(4) 0.18643(17)
C12* C 0.4776(3) 1.5605(4) 0.1732(3)
H7* H 0.49460 1.64550 0.17800
C13* C 0.3826(3) 1.5275(4) 0.1533(2)
H8* H 0.33570 1.59010 0.14420
C14* C 0.6532(3) 1.5055(4) 0.21188(18)
C15* C 0.1903(3) 1.3716(4) 0.04207(15)
C16* C 0.2540(3) 1.3751(6) 0.00923(19)
H9* H 0.31990 1.37360 0.02830
C17* C 0.2189(3) 1.3810(6) -0.05225(19)
H10* H 0.26220 1.38460 -0.07410
C18* C 0.1229(3) 1.3818(4) -0.08193(15)
C19* C 0.0588(3) 1.3772(6) -0.04943(19)
H11* H -0.00700 1.37740 -0.06880
C20* C 0.0930(3) 1.3724(6) 0.01211(18)
H12* H 0.04950 1.36970 0.03380
C21* C 0.0875(3) 1.3856(4) -0.14894(15)
O1* O 0.1723(2) 1.4490(2) 0.14847(12)
O2* O 0.1563(2) 0.7979(3) 0.23703(13)
O2** O 0.1563(2) 1.7979(3) 0.23703(13)
O3* O 0.1897(2) 0.7262(3) 0.15782(14)
O3** O 0.1897(2) 1.7262(3) 0.15782(14)
O4* O 0.7172(2) 1.4218(3) 0.22001(15)
O4A O 0.2828(2) 0.4218(3) 0.27999(15)
O4A* O 0.2828(2) 1.4218(3) 0.27999(15)
O5* O 0.6757(2) 1.6181(3) 0.22689(14)
O5A O 0.3243(2) 0.6181(3) 0.27311(14)
O5A* O 0.3243(2) 1.6181(3) 0.27311(14)
O6* O 0.1492(2) 1.3957(3) -0.17573(12)
O6C O 0.1492(2) 0.6043(3) 0.32427(12)
O6C* O 0.1492(2) 1.6043(3) 0.32427(12)
O7* O -0.0014(2) 1.3773(3) -0.17385(13)
O7B O 0.0014(2) 0.6227(3) 0.17385(13)
O7B* O 0.0014(2) 1.6227(3) 0.17385(13)
O8A O -0.0703(2) 0.3884(3) 0.25918(16)
O8* O 0.0703(2) 1.3884(3) 0.24082(16)
P1* P 0.22991(6) 1.36158(9) 0.12210(4)
#END
