
#######################################################################
#
#                 Cambridge Crystallographic Data Centre
#                                CCDC
#
#######################################################################
#
# If this CIF has been generated from an entry in the Cambridge
# Structural Database, then it will include bibliographic, chemical,
# crystal, experimental, refinement or atomic coordinate data resulting
# from the CCDC's data processing and validation procedures.
#
#######################################################################

data_CSD_CIF_DARDEH
_audit_creation_date 2012-07-02
_audit_creation_method CSD-ConQuest-V1
_database_code_CSD DARDEH
_database_code_depnum_ccdc_archive 'CCDC 818482'
_chemical_formula_sum 'C57 H73 N5 O26 P2 Sm2'
_chemical_formula_moiety
;
(C43 H25 O16 P2 Sm2 1-)n,n(C2 H8 N1 1+),4n(C3 H7 N1 O1),6n(H2 O1)
;
_journal_coden_Cambridge 9
_journal_volume 51
_journal_year 2012
_journal_page_first 1813
_journal_name_full 'Inorg.Chem. '
loop_
_publ_author_name
"Zu-Jin Lin"
"Zhen Yang"
"Tian-Fu Liu"
"Yuan-Biao Huang"
"Rong Cao"
_chemical_name_systematic
;
catena-(dimethylammonium 
bis(\m~5~-4,4',4''-phosphoryltribenzoato)-(\m~2~-formato)-di-samarium(iii) 
N,N-dimethylformamide solvate hexahydrate)
;
_cell_volume   3503.129
_exptl_crystal_colour 'colorless'
_exptl_special_details
;
isostructural with Y, Eu, Gd, Tb, Dy, Ho, Er, Tm, Yb, and Lu analogues

;
_exptl_crystal_description 'prism'
_diffrn_ambient_temperature 293
_refine_special_details
;
The disordered cation and solvent molecules were not modelled and the 
disordered density was taken into account using the SQUEEZE/PLATON procedure.
;
#These two values have been output from a single CSD field.
_refine_ls_R_factor_gt 0.0674
_refine_ls_wR_factor_gt 0.0674
_symmetry_cell_setting monoclinic
_symmetry_space_group_name_H-M 'P 2/c'
_symmetry_Int_Tables_number 13
loop_
_symmetry_equiv_pos_site_id
_symmetry_equiv_pos_as_xyz
1 x,y,z
2 -x,y,1/2-z
3 -x,-y,-z
4 x,-y,-1/2+z
_cell_length_a 14.664(3)
_cell_length_b 10.603(2)
_cell_length_c 23.698(4)
_cell_angle_alpha 90
_cell_angle_beta 108.058(10)
_cell_angle_gamma 90
_cell_formula_units_Z 2
loop_
_atom_type_symbol
_atom_type_radius_bond
C 0.68
H 0.23
O 0.68
P 1.05
Sm 1.77
loop_
_atom_site_label
_atom_site_type_symbol
_atom_site_fract_x
_atom_site_fract_y
_atom_site_fract_z
Sm1 Sm 0.34655(2) -1.07247(3) -0.227717(14)
C1 C 0.2846(5) -0.7029(6) -0.1404(3)
C2 C 0.2990(8) -0.6771(7) -0.1941(4)
H1 H 0.30090 -0.74270 -0.21980
C3 C 0.3107(8) -0.5547(8) -0.2098(4)
H2 H 0.32030 -0.53820 -0.24610
C4 C 0.3082(6) -0.4562(7) -0.1723(3)
C5 C 0.2914(9) -0.4811(8) -0.1184(4)
H3 H 0.28840 -0.41520 -0.09310
C6 C 0.2793(9) -0.6047(8) -0.1027(4)
H4 H 0.26760 -0.62170 -0.06710
C7 C 0.3216(6) -0.3234(7) -0.1893(3)
C8 C 0.3087(5) -0.8715(6) -0.0421(3)
C9 C 0.4061(6) -0.8726(11) -0.0115(4)
H5 H 0.45010 -0.87070 -0.03250
C10 C 0.4389(6) -0.8763(11) 0.0499(4)
H6 H 0.50450 -0.87560 0.06970
C11 C 0.3750(5) -0.8812(7) 0.0815(3)
C12 C 0.2786(6) -0.8798(12) 0.0513(4)
H7 H 0.23480 -0.88030 0.07250
C13 C 0.2454(6) -0.8776(12) -0.0097(4)
H8 H 0.17970 -0.88030 -0.02920
C14 C 0.4094(5) -0.8817(7) 0.1482(3)
C15 C 0.1447(5) -0.9038(6) -0.1465(3)
C16 C 0.1191(5) -1.0307(7) -0.1533(4)
H9 H 0.16650 -1.09250 -0.14400
C17 C 0.0245(6) -1.0646(7) -0.1735(4)
H10 H 0.00780 -1.14940 -0.17850
C18 C -0.0474(5) -0.9722(7) -0.1867(3)
C19 C -0.0221(6) -0.8468(7) -0.1805(4)
H11 H -0.06920 -0.78470 -0.19030
C20 C 0.0741(6) -0.8135(8) -0.1597(4)
H12 H 0.09100 -0.72880 -0.15460
C21 C -0.1509(5) -1.0088(8) -0.2116(3)
C22 C 0.50000 -0.8475(12) -0.25000
H13 H 0.50000 -0.75980 -0.25000
O1 O 0.3275(4) -0.9524(4) -0.1476(2)
O2 O 0.3430(4) -0.3050(6) -0.2368(3)
O3 O 0.3127(5) -0.2328(5) -0.1574(3)
O4 O 0.4972(4) -0.8758(7) 0.1736(2)
O5 O 0.3477(4) -0.8901(6) 0.1742(2)
O6 O -0.2146(4) -0.9250(5) -0.2200(3)
O7 O -0.1735(4) -1.1212(6) -0.2265(3)
O8 O 0.4303(4) -0.8910(6) -0.2415(3)
P1 P 0.27038(12) -0.86550(16) -0.12163(7)
Sm1* Sm 0.34655(2) -2.07247(3) -0.227717(14)
Sm1** Sm 0.34655(2) -0.07247(3) -0.227717(14)
Sm1B Sm 0.65345(2) -0.92753(3) 0.227717(14)
Sm1C Sm 0.34655(2) -0.92753(3) 0.272283(14)
Sm1A Sm -0.34655(2) -1.07247(3) -0.272283(14)
Sm1A* Sm 0.65345(2) -1.07247(3) -0.272283(14)
Sm1B* Sm 0.65345(2) -1.92753(3) 0.227717(14)
Sm1C* Sm 0.34655(2) -1.92753(3) 0.272283(14)
Sm1A** Sm -0.34655(2) -2.07247(3) -0.272283(14)
C1* C 0.2846(5) -1.7029(6) -0.1404(3)
C2* C 0.2990(8) -1.6771(7) -0.1941(4)
H1* H 0.30090 -1.74270 -0.21980
C3* C 0.3107(8) -1.5547(8) -0.2098(4)
H2* H 0.32030 -1.53820 -0.24610
C4* C 0.3082(6) -1.4562(7) -0.1723(3)
C5* C 0.2914(9) -1.4811(8) -0.1184(4)
H3* H 0.28840 -1.41520 -0.09310
C6* C 0.2793(9) -1.6047(8) -0.1027(4)
H4* H 0.26760 -1.62170 -0.06710
C7* C 0.3216(6) -1.3234(7) -0.1893(3)
C8* C 0.3087(5) -1.8715(6) -0.0421(3)
C9* C 0.4061(6) -1.8726(11) -0.0115(4)
H5* H 0.45010 -1.87070 -0.03250
C10* C 0.4389(6) -1.8763(11) 0.0499(4)
H6* H 0.50450 -1.87560 0.06970
C11* C 0.3750(5) -1.8812(7) 0.0815(3)
C12* C 0.2786(6) -1.8798(12) 0.0513(4)
H7* H 0.23480 -1.88030 0.07250
C13* C 0.2454(6) -1.8776(12) -0.0097(4)
H8* H 0.17970 -1.88030 -0.02920
C14* C 0.4094(5) -1.8817(7) 0.1482(3)
C15* C 0.1447(5) -1.9038(6) -0.1465(3)
C16* C 0.1191(5) -2.0307(7) -0.1533(4)
H9* H 0.16650 -2.09250 -0.14400
C17* C 0.0245(6) -2.0646(7) -0.1735(4)
H10* H 0.00780 -2.14940 -0.17850
C18* C -0.0474(5) -1.9722(7) -0.1867(3)
C19* C -0.0221(6) -1.8468(7) -0.1805(4)
H11* H -0.06920 -1.78470 -0.19030
C20* C 0.0741(6) -1.8135(8) -0.1597(4)
H12* H 0.09100 -1.72880 -0.15460
C21* C -0.1509(5) -2.0088(8) -0.2116(3)
O1* O 0.3275(4) -1.9524(4) -0.1476(2)
O2* O 0.3430(4) -1.3050(6) -0.2368(3)
O2** O 0.3430(4) -2.3050(6) -0.2368(3)
O3* O 0.3127(5) -1.2328(5) -0.1574(3)
O3** O 0.3127(5) -2.2328(5) -0.1574(3)
O4* O 0.4972(4) -1.8758(7) 0.1736(2)
O4B O 0.5028(4) -1.1242(7) -0.1736(2)
O4B* O 0.5028(4) -2.1242(7) -0.1736(2)
O5* O 0.3477(4) -1.8901(6) 0.1742(2)
O5C O 0.3477(4) -1.1099(6) -0.3258(2)
O5C* O 0.3477(4) -2.1099(6) -0.3258(2)
O6* O -0.2146(4) -1.9250(5) -0.2200(3)
O6A O 0.2146(4) -0.9250(5) -0.2800(3)
O6A* O 0.2146(4) -1.9250(5) -0.2800(3)
O7* O -0.1735(4) -2.1212(6) -0.2265(3)
O7A O 0.1735(4) -1.1212(6) -0.2735(3)
O7A* O 0.1735(4) -2.1212(6) -0.2735(3)
O8A O 0.5697(4) -0.8910(6) -0.2585(3)
O8* O 0.4303(4) -1.8910(6) -0.2415(3)
P1* P 0.27038(12) -1.86550(16) -0.12163(7)
#END
