
#######################################################################
#
#                 Cambridge Crystallographic Data Centre
#                                CCDC
#
#######################################################################
#
# If this CIF has been generated from an entry in the Cambridge
# Structural Database, then it will include bibliographic, chemical,
# crystal, experimental, refinement or atomic coordinate data resulting
# from the CCDC's data processing and validation procedures.
#
#######################################################################

data_CSD_CIF_DARDOR
_audit_creation_date 2012-07-02
_audit_creation_method CSD-ConQuest-V1
_database_code_CSD DARDOR
_database_code_depnum_ccdc_archive 'CCDC 818484'
_chemical_formula_sum 'C57 H73 Gd2 N5 O26 P2'
_chemical_formula_moiety
;
(C43 H25 Gd2 O16 P2 1-)n,n(C2 H8 N1 1+),4n(C3 H7 N1 O1),6n(H2 O1)
;
_journal_coden_Cambridge 9
_journal_volume 51
_journal_year 2012
_journal_page_first 1813
_journal_name_full 'Inorg.Chem. '
loop_
_publ_author_name
"Zu-Jin Lin"
"Zhen Yang"
"Tian-Fu Liu"
"Yuan-Biao Huang"
"Rong Cao"
_chemical_name_systematic
;
catena-(dimethylammonium 
bis(\m~5~-4,4',4''-phosphoryltribenzoato)-(\m~2~-formato)-di-gadolinium(iii) 
N,N-dimethylformamide solvate hexahydrate)
;
_cell_volume   3434.178
_exptl_crystal_colour 'colorless'
_exptl_special_details
;
isostructural with Sm, Eu, Y, Tb, Dy, Ho, Er, Tm, Yb, and Lu analogues

;
_exptl_crystal_description 'prism'
_diffrn_ambient_temperature 293
_refine_special_details
;
The disordered cation solvent molecules were not modelled and the disordered 
density was taken into account using the SQUEEZE/PLATON procedure.
;
#These two values have been output from a single CSD field.
_refine_ls_R_factor_gt 0.0355
_refine_ls_wR_factor_gt 0.0355
_symmetry_cell_setting monoclinic
_symmetry_space_group_name_H-M 'P 2/c'
_symmetry_Int_Tables_number 13
loop_
_symmetry_equiv_pos_site_id
_symmetry_equiv_pos_as_xyz
1 x,y,z
2 -x,y,1/2-z
3 -x,-y,-z
4 x,-y,-1/2+z
_cell_length_a 14.528(3)
_cell_length_b 10.497(2)
_cell_length_c 23.674(8)
_cell_angle_alpha 90
_cell_angle_beta 107.97(3)
_cell_angle_gamma 90
_cell_formula_units_Z 2
loop_
_atom_type_symbol
_atom_type_radius_bond
C 0.68
H 0.23
Gd 1.75
O 0.68
P 1.05
loop_
_atom_site_label
_atom_site_type_symbol
_atom_site_fract_x
_atom_site_fract_y
_atom_site_fract_z
Gd1 Gd 0.349541(12) -0.580023(17) -0.225912(7)
C1 C -0.1460(3) -0.4159(4) -0.35350(16)
C2 C -0.1195(3) -0.5448(4) -0.34838(17)
H1 H -0.16680 -0.60760 -0.35900
C3 C -0.0235(3) -0.5779(4) -0.32760(18)
H2 H -0.00630 -0.66360 -0.32420
C4 C 0.0485(3) -0.4852(4) -0.31150(16)
C5 C 0.0225(3) -0.3583(4) -0.31728(18)
H3 H 0.07040 -0.29600 -0.30700
C6 C -0.0744(3) -0.3218(4) -0.33829(17)
H4 H -0.09130 -0.23600 -0.34210
C7 C 0.1525(3) -0.5194(4) -0.28535(16)
C8 C -0.2863(3) -0.2129(3) -0.36206(16)
C9 C -0.2861(4) -0.1150(4) -0.4009(2)
H5 H -0.27680 -0.13260 -0.43720
C10 C -0.2999(4) 0.0106(4) -0.3855(2)
H6 H -0.29970 0.07680 -0.41160
C11 C -0.3141(3) 0.0367(4) -0.33082(18)
C12 C -0.3130(3) -0.0631(3) -0.29194(19)
H7 H -0.32150 -0.04610 -0.25530
C13 C -0.2996(3) -0.1871(4) -0.30727(18)
H8 H -0.29930 -0.25330 -0.28110
C14 C -0.3285(3) 0.1700(3) -0.31359(17)
C15 C -0.3090(3) -0.3855(3) -0.45890(16)
C16 C -0.4071(3) -0.3751(4) -0.49050(18)
H9 H -0.45220 -0.36850 -0.47000
C17 C -0.4380(3) -0.3744(4) -0.55153(17)
H10 H -0.50360 -0.36690 -0.57200
C18 C -0.3715(3) -0.3848(3) -0.58265(15)
C19 C -0.2745(3) -0.3979(5) -0.55187(18)
H11 H -0.22990 -0.40690 -0.57250
C20 C -0.2432(3) -0.3980(5) -0.49044(18)
H12 H -0.17760 -0.40640 -0.47010
C21 C -0.4039(3) -0.3800(3) -0.64942(16)
C22 C 0.50000 -0.3516(7) -0.25000
H13 H 0.50000 -0.26300 -0.25000
O1 O 0.17597(19) -0.6341(3) -0.26848(12)
O2 O 0.21666(18) -0.4353(2) -0.27833(12)
O3 O -0.3210(2) 0.2627(3) -0.34588(12)
O4 O -0.34888(19) 0.1899(2) -0.26564(12)
O5 O -0.49278(19) -0.3720(3) -0.67589(12)
O6 O -0.3397(2) -0.3810(3) -0.67465(12)
O7 O -0.33158(18) -0.4633(2) -0.35380(11)
O8 O 0.4273(2) -0.3971(3) -0.24313(14)
P1 P -0.27241(7) -0.37693(9) -0.37964(4)
Gd1A Gd -0.349541(12) -1.580023(17) -0.274088(7)
Gd1A* Gd -0.349541(12) 0.419977(17) -0.274088(7)
Gd1C Gd -0.650459(12) -0.419977(17) -0.725912(7)
Gd1B Gd -0.349541(12) -0.419977(17) -0.774088(7)
Gd1A** Gd -0.349541(12) -0.580023(17) -0.274088(7)
Gd1A*** Gd 0.650459(12) -0.580023(17) -0.274088(7)
Gd1B* Gd 0.650459(12) -1.419977(17) 0.225912(7)
Gd1C* Gd 0.349541(12) -1.419977(17) 0.274088(7)
Gd1* Gd 0.349541(12) -1.580023(17) -0.225912(7)
C1A C 0.1460(3) -1.4159(4) -0.14650(16)
C2A C 0.1195(3) -1.5448(4) -0.15162(17)
H1A H 0.16680 -1.60760 -0.14100
C3A C 0.0235(3) -1.5779(4) -0.17240(18)
H2A H 0.00630 -1.66360 -0.17580
C4A C -0.0485(3) -1.4852(4) -0.18850(16)
C5A C -0.0225(3) -1.3583(4) -0.18272(18)
H3A H -0.07040 -1.29600 -0.19300
C6A C 0.0744(3) -1.3218(4) -0.16171(17)
H4A H 0.09130 -1.23600 -0.15790
C7A C -0.1525(3) -1.5194(4) -0.21465(16)
C8A C 0.2863(3) -1.2129(3) -0.13794(16)
C9A C 0.2861(4) -1.1150(4) -0.0991(2)
H5A H 0.27680 -1.13260 -0.06280
C10A C 0.2999(4) -0.9894(4) -0.1145(2)
H6A H 0.29970 -0.92320 -0.08840
C11A C 0.3141(3) -0.9633(4) -0.16918(18)
C12A C 0.3130(3) -1.0631(3) -0.20806(19)
H7A H 0.32150 -1.04610 -0.24470
C13A C 0.2996(3) -1.1871(4) -0.19273(18)
H8A H 0.29930 -1.25330 -0.21890
C14A C 0.3285(3) -0.8300(3) -0.18641(17)
C15A C 0.3090(3) -1.3855(3) -0.04110(16)
C16A C 0.4071(3) -1.3751(4) -0.00950(18)
H9A H 0.45220 -1.36850 -0.03000
C17A C 0.4380(3) -1.3744(4) 0.05153(17)
H10A H 0.50360 -1.36690 0.07200
C18A C 0.3715(3) -1.3848(3) 0.08265(15)
C19A C 0.2745(3) -1.3979(5) 0.05187(18)
H11A H 0.22990 -1.40690 0.07250
C20A C 0.2432(3) -1.3980(5) -0.00956(18)
H12A H 0.17760 -1.40640 -0.02990
C21A C 0.4039(3) -1.3800(3) 0.14942(16)
O1A O -0.17597(19) -1.6341(3) -0.23152(12)
O2A O -0.21666(18) -1.4353(2) -0.22167(12)
O3A O 0.3210(2) -0.7373(3) -0.15412(12)
O3* O -0.3210(2) -1.7373(3) -0.34588(12)
O4A O 0.34888(19) -0.8101(2) -0.23436(12)
O4* O -0.34888(19) -1.8101(2) -0.26564(12)
O5A O 0.49278(19) -1.3720(3) 0.17589(12)
O5C O 0.50722(19) -0.6280(3) -0.17589(12)
O5B O -0.50722(19) -1.6280(3) -0.32411(12)
O6A O 0.3397(2) -1.3810(3) 0.17465(12)
O6B O 0.3397(2) -0.6190(3) -0.32535(12)
O6C O -0.3397(2) -1.6190(3) -0.17465(12)
O7A O 0.33158(18) -1.4633(2) -0.14620(11)
O7A* O 0.33158(18) -0.4633(2) -0.14620(11)
O7* O -0.33158(18) -1.4633(2) -0.35380(11)
O8A O 0.5727(2) -0.3971(3) -0.25687(14)
O8A* O -0.4273(2) -1.3971(3) -0.25687(14)
P1A P 0.27241(7) -1.37693(9) -0.12036(4)
#END
