
#######################################################################
#
#                 Cambridge Crystallographic Data Centre
#                                CCDC
#
#######################################################################
#
# If this CIF has been generated from an entry in the Cambridge
# Structural Database, then it will include bibliographic, chemical,
# crystal, experimental, refinement or atomic coordinate data resulting
# from the CCDC's data processing and validation procedures.
#
#######################################################################

data_CSD_CIF_DARDAD
_audit_creation_date 2012-07-02
_audit_creation_method CSD-ConQuest-V1
_database_code_CSD DARDAD
_database_code_depnum_ccdc_archive 'CCDC 818481'
_chemical_formula_sum 'C57 H73 Lu2 N5 O26 P2'
_chemical_formula_moiety
;
(C43 H25 Lu2 O16 P2 1-)n,n(C2 H8 N1 1+),4n(C3 H7 N1 O1),6n(H2 O1)
;
_journal_coden_Cambridge 9
_journal_volume 51
_journal_year 2012
_journal_page_first 1813
_journal_name_full 'Inorg.Chem. '
loop_
_publ_author_name
"Zu-Jin Lin"
"Zhen Yang"
"Tian-Fu Liu"
"Yuan-Biao Huang"
"Rong Cao"
_chemical_name_systematic
;
catena-(dimethylammonium 
bis(\m~5~-4,4',4''-phosphoryltribenzoato)-(\m~2~-formato)-di-lutetium(iii) 
N,N-dimethylformamide solvate hexahydrate)
;
_cell_volume   3361.451
_exptl_crystal_colour 'colorless'
_exptl_special_details
;
isostructural with Sm, Eu, Gd, Tb, Dy, Ho, Er, Tm, Yb, and Y analogues

;
_exptl_crystal_description 'prism'
_diffrn_ambient_temperature 293
_refine_special_details
;
The disordered cation and solvent molecules were not modelled and the 
disordered density was taken into account using the SQUEEZE/PLATON procedure.
;
#These two values have been output from a single CSD field.
_refine_ls_R_factor_gt 0.0384
_refine_ls_wR_factor_gt 0.0384
_symmetry_cell_setting monoclinic
_symmetry_space_group_name_H-M 'P 2/c'
_symmetry_Int_Tables_number 13
loop_
_symmetry_equiv_pos_site_id
_symmetry_equiv_pos_as_xyz
1 x,y,z
2 -x,y,1/2-z
3 -x,-y,-z
4 x,-y,-1/2+z
_cell_length_a 14.4262(11)
_cell_length_b 10.4932(5)
_cell_length_c 23.2269(18)
_cell_angle_alpha 90
_cell_angle_beta 107.052(4)
_cell_angle_gamma 90
_cell_formula_units_Z 2
loop_
_atom_type_symbol
_atom_type_radius_bond
C 0.68
H 0.23
Lu 1.67
O 0.68
P 1.05
loop_
_atom_site_label
_atom_site_type_symbol
_atom_site_fract_x
_atom_site_fract_y
_atom_site_fract_z
Lu1 Lu 0.153365(11) 0.066027(16) 0.227224(7)
C1 C 0.4820(4) 0.0602(4) 0.1723(3)
H1 H 0.49950 0.14580 0.17610
P1 P 0.23118(7) -0.13845(10) 0.12253(5)
O1 O 0.1737(2) -0.0514(3) 0.15047(14)
O2 O 0.1553(2) -0.7077(3) 0.23701(15)
O3 O 0.7219(2) -0.0794(3) 0.21973(17)
O4 O 0.6801(2) 0.1160(4) 0.22931(16)
O5 O -0.0048(2) -0.1207(4) -0.17480(15)
O6 O 0.1891(3) -0.7800(3) 0.15676(16)
O7 O 0.1455(2) -0.0987(3) -0.17877(14)
C2 C 0.2176(3) -0.3020(4) 0.14105(19)
O8 O 0.0689(2) -0.1116(3) 0.23742(18)
C3 C 0.6577(3) 0.0041(5) 0.2122(2)
C4 C 0.3580(3) -0.1009(4) 0.14596(19)
C5 C 0.1905(3) -0.1283(4) 0.04190(19)
C6 C 0.1936(4) -0.5536(4) 0.1722(2)
C7 C 0.1786(3) -0.6896(4) 0.1890(2)
C8 C 0.5535(3) -0.0318(5) 0.1867(2)
C9 C 0.0847(3) -0.1111(4) -0.15074(18)
C10 C 0.5266(3) -0.1583(5) 0.1788(2)
H2 H 0.57410 -0.22120 0.18690
C11 C 0.2018(4) -0.3319(5) 0.1957(2)
H3 H 0.19880 -0.26680 0.22230
C12 C 0.1909(5) -0.4541(5) 0.2108(3)
H4 H 0.18140 -0.47180 0.24790
C13 C 0.4300(3) -0.1927(5) 0.1592(2)
H5 H 0.41310 -0.27850 0.15470
C14 C 0.3861(3) 0.0283(4) 0.1526(2)
H6 H 0.33920 0.09200 0.14360
C15 C 0.2185(4) -0.1123(7) -0.0541(2)
H7 H 0.26190 -0.10620 -0.07670
C16 C 0.2111(5) -0.5263(5) 0.1184(3)
H8 H 0.21480 -0.59230 0.09250
C17 C 0.2542(3) -0.1188(6) 0.0079(2)
H9 H 0.32070 -0.11670 0.02650
C18 C 0.2233(5) -0.4009(5) 0.1024(3)
H10 H 0.23530 -0.38340 0.06590
C19 C 0.0578(3) -0.1237(6) -0.0493(2)
H11 H -0.00860 -0.12630 -0.06830
C20 C 0.0918(3) -0.1289(6) 0.0128(2)
H12 H 0.04810 -0.13280 0.03520
C21 C 0.1212(3) -0.1148(4) -0.08314(18)
C22 C 0.00000 -0.1555(8) 0.25000
H13 H 0.00000 -0.24420 0.25000
Lu1* Lu 0.153365(11) 1.066027(16) 0.227224(7)
Lu1** Lu 0.153365(11) -0.933973(16) 0.227224(7)
Lu1A Lu 0.846635(11) 0.066027(16) 0.272776(7)
Lu1B Lu -0.153365(11) -0.066027(16) -0.227224(7)
Lu1C Lu 0.153365(11) -0.066027(16) -0.272776(7)
Lu1A* Lu -0.153365(11) 0.066027(16) 0.272776(7)
Lu1A** Lu 0.846635(11) 1.066027(16) 0.272776(7)
Lu1B* Lu -0.153365(11) 0.933973(16) -0.227224(7)
Lu1C* Lu 0.153365(11) 0.933973(16) -0.272776(7)
C1* C 0.4820(4) 1.0602(4) 0.1723(3)
H1* H 0.49950 1.14580 0.17610
P1* P 0.23118(7) 0.86155(10) 0.12253(5)
O1* O 0.1737(2) 0.9486(3) 0.15047(14)
O2* O 0.1553(2) 0.2923(3) 0.23701(15)
O2** O 0.1553(2) 1.2923(3) 0.23701(15)
O3* O 0.7219(2) 0.9206(3) 0.21973(17)
O3A O 0.2781(2) -0.0794(3) 0.28027(17)
O3A* O 0.2781(2) 0.9206(3) 0.28027(17)
O4* O 0.6801(2) 1.1160(4) 0.22931(16)
O4A O 0.3199(2) 0.1160(4) 0.27069(16)
O4A* O 0.3199(2) 1.1160(4) 0.27069(16)
O5* O -0.0048(2) 0.8793(4) -0.17480(15)
O5B O 0.0048(2) 0.1207(4) 0.17480(15)
O5B* O 0.0048(2) 1.1207(4) 0.17480(15)
O6* O 0.1891(3) 0.2200(3) 0.15676(16)
O6** O 0.1891(3) 1.2200(3) 0.15676(16)
O7* O 0.1455(2) 0.9013(3) -0.17877(14)
O7C O 0.1455(2) 0.0987(3) 0.32123(14)
O7C* O 0.1455(2) 1.0987(3) 0.32123(14)
C2* C 0.2176(3) 0.6980(4) 0.14105(19)
O8A O -0.0689(2) -0.1116(3) 0.26258(18)
O8* O 0.0689(2) 0.8884(3) 0.23742(18)
C3* C 0.6577(3) 1.0041(5) 0.2122(2)
C4* C 0.3580(3) 0.8991(4) 0.14596(19)
C5* C 0.1905(3) 0.8717(4) 0.04190(19)
C6* C 0.1936(4) 0.4464(4) 0.1722(2)
C7* C 0.1786(3) 0.3104(4) 0.1890(2)
C8* C 0.5535(3) 0.9682(5) 0.1867(2)
C9* C 0.0847(3) 0.8889(4) -0.15074(18)
C10* C 0.5266(3) 0.8417(5) 0.1788(2)
H2* H 0.57410 0.77880 0.18690
C11* C 0.2018(4) 0.6681(5) 0.1957(2)
H3* H 0.19880 0.73320 0.22230
C12* C 0.1909(5) 0.5459(5) 0.2108(3)
H4* H 0.18140 0.52820 0.24790
C13* C 0.4300(3) 0.8073(5) 0.1592(2)
H5* H 0.41310 0.72150 0.15470
C14* C 0.3861(3) 1.0283(4) 0.1526(2)
H6* H 0.33920 1.09200 0.14360
C15* C 0.2185(4) 0.8877(7) -0.0541(2)
H7* H 0.26190 0.89380 -0.07670
C16* C 0.2111(5) 0.4737(5) 0.1184(3)
H8* H 0.21480 0.40770 0.09250
C17* C 0.2542(3) 0.8812(6) 0.0079(2)
H9* H 0.32070 0.88330 0.02650
C18* C 0.2233(5) 0.5991(5) 0.1024(3)
H10* H 0.23530 0.61660 0.06590
C19* C 0.0578(3) 0.8763(6) -0.0493(2)
H11* H -0.00860 0.87370 -0.06830
C20* C 0.0918(3) 0.8711(6) 0.0128(2)
H12* H 0.04810 0.86720 0.03520
C21* C 0.1212(3) 0.8852(4) -0.08314(18)
#END
