
#######################################################################
#
#                 Cambridge Crystallographic Data Centre
#                                CCDC
#
#######################################################################
#
# If this CIF has been generated from an entry in the Cambridge
# Structural Database, then it will include bibliographic, chemical,
# crystal, experimental, refinement or atomic coordinate data resulting
# from the CCDC's data processing and validation procedures.
#
#######################################################################

data_CSD_CIF_DARFIN
_audit_creation_date 2012-07-02
_audit_creation_method CSD-ConQuest-V1
_database_code_CSD DARFIN
_database_code_depnum_ccdc_archive 'CCDC 818488'
_chemical_formula_sum 'C57 H73 Er2 N5 O26 P2'
_chemical_formula_moiety
;
(C43 H25 Er2 O16 P2 1-)n,n(C2 H8 N1 1+),4n(C3 H7 N1 O1),6n(H2 O1)
;
_journal_coden_Cambridge 9
_journal_volume 51
_journal_year 2012
_journal_page_first 1813
_journal_name_full 'Inorg.Chem. '
loop_
_publ_author_name
"Zu-Jin Lin"
"Zhen Yang"
"Tian-Fu Liu"
"Yuan-Biao Huang"
"Rong Cao"
_chemical_name_systematic
;
catena-(dimethylammonium 
bis(\m~5~-4,4',4''-phosphoryltribenzoato)-(\m~2~-formato)-di-erbium(iii) 
N,N-dimethylformamide solvate hexahydrate)
;
_cell_volume   3370.376
_exptl_crystal_colour 'pink'
_exptl_special_details
;
isostructural with Sm, Eu, Gd, Tb, Dy, Ho, Y, Tm, Yb, and Lu analogues

;
_exptl_crystal_description 'prism'
_diffrn_ambient_temperature 293
_refine_special_details
;
The disordered cation solvent molecules were not modelled and the disordered 
density was taken into account using the SQUEEZE/PLATON procedure.
;
#These two values have been output from a single CSD field.
_refine_ls_R_factor_gt 0.059
_refine_ls_wR_factor_gt 0.059
_symmetry_cell_setting monoclinic
_symmetry_space_group_name_H-M 'P 2/c'
_symmetry_Int_Tables_number 13
loop_
_symmetry_equiv_pos_site_id
_symmetry_equiv_pos_as_xyz
1 x,y,z
2 -x,y,1/2-z
3 -x,-y,-z
4 x,-y,-1/2+z
_cell_length_a 14.4248(11)
_cell_length_b 10.4553(5)
_cell_length_c 23.4323(18)
_cell_angle_alpha 90
_cell_angle_beta 107.501(4)
_cell_angle_gamma 90
_cell_formula_units_Z 2
loop_
_atom_type_symbol
_atom_type_radius_bond
C 0.68
H 0.23
Er 1.68
O 0.68
P 1.05
loop_
_atom_site_label
_atom_site_type_symbol
_atom_site_fract_x
_atom_site_fract_y
_atom_site_fract_z
Er1 Er 0.15145(2) 0.07550(3) 0.226347(13)
C1 C 0.1901(5) 0.1203(7) 0.5418(3)
C2 C 0.2561(6) 0.1063(10) 0.5093(4)
H1 H 0.32210 0.09750 0.52920
C3 C 0.2232(6) 0.1057(9) 0.4478(3)
H2 H 0.26780 0.09830 0.42640
C4 C 0.1261(5) 0.1157(7) 0.4174(3)
C5 C 0.0595(6) 0.1249(9) 0.4492(4)
H3 H -0.00660 0.12910 0.42910
C6 C 0.0912(5) 0.1279(9) 0.5101(3)
H4 H 0.04610 0.13520 0.53120
C7 C 0.0913(6) 0.1174(8) 0.3501(3)
C8 C 0.2157(5) 0.2905(7) 0.6409(3)
C9 C 0.2189(8) 0.3914(9) 0.6002(4)
H5 H 0.23090 0.37370 0.56420
C10 C 0.2035(8) 0.5177(9) 0.6159(4)
H6 H 0.20220 0.58390 0.58920
C11 C 0.1901(6) 0.5441(7) 0.6707(3)
C12 C 0.1857(6) 0.4436(8) 0.7094(3)
H7 H 0.17360 0.46100 0.74550
C13 C 0.1992(6) 0.3190(8) 0.6942(3)
H8 H 0.19700 0.25320 0.72050
C14 C 0.1737(6) 0.6786(7) 0.6881(3)
C15 C 0.3563(6) 0.0899(8) 0.6467(3)
C16 C 0.3830(5) -0.0433(7) 0.6527(3)
H9 H 0.33580 -0.10690 0.64380
C17 C 0.4822(6) -0.0743(7) 0.6722(4)
H10 H 0.50090 -0.15980 0.67450
C18 C 0.5500(5) 0.0163(7) 0.6874(3)
C19 C 0.5237(5) 0.1491(8) 0.6807(3)
H11 H 0.57160 0.21190 0.68950
C20 C 0.4286(5) 0.1822(8) 0.6616(3)
H12 H 0.41150 0.26820 0.65850
C21 C 0.6544(5) -0.0176(8) 0.7134(3)
C22 C 0.00000 -0.1531(11) 0.25000
H13 H 0.00000 -0.24210 0.25000
O1 O 0.1548(4) 0.1102(6) 0.3236(2)
O2 O 0.0011(4) 0.1279(6) 0.3247(2)
O3 O 0.1828(4) 0.7703(5) 0.6553(2)
O4 O 0.1503(3) 0.6975(5) 0.7355(2)
O5 O 0.6782(3) -0.1313(6) 0.7313(2)
O6 O 0.7195(4) 0.0697(5) 0.7218(3)
O7 O 0.1715(4) 0.0424(5) 0.6482(2)
O8 O 0.0708(4) -0.1054(5) 0.2411(3)
P1 P 0.22846(12) 0.12770(18) 0.62165(7)
Er1A Er -0.15145(2) 0.07550(3) 0.273653(13)
Er1C Er 0.15145(2) 0.92450(3) 0.726347(13)
Er1B Er 0.84855(2) -0.07550(3) 0.773653(13)
Er1C* Er 0.15145(2) -0.07550(3) 0.726347(13)
Er1B* Er -0.15145(2) 0.92450(3) -0.226347(13)
Er1C** Er -0.84855(2) -0.07550(3) -0.273653(13)
Er1B** Er -0.15145(2) -0.07550(3) -0.226347(13)
C1A C -0.1901(5) 0.1203(7) -0.0418(3)
C2A C -0.2561(6) 0.1063(10) -0.0093(4)
H1A H -0.32210 0.09750 -0.02920
C3A C -0.2232(6) 0.1057(9) 0.0522(3)
H2A H -0.26780 0.09830 0.07360
C4A C -0.1261(5) 0.1157(7) 0.0826(3)
C5A C -0.0595(6) 0.1249(9) 0.0508(4)
H3A H 0.00660 0.12910 0.07090
C6A C -0.0912(5) 0.1279(9) -0.0101(3)
H4A H -0.04610 0.13520 -0.03120
C7A C -0.0913(6) 0.1174(8) 0.1499(3)
C8A C -0.2157(5) 0.2905(7) -0.1409(3)
C9A C -0.2189(8) 0.3914(9) -0.1002(4)
H5A H -0.23090 0.37370 -0.06420
C10A C -0.2035(8) 0.5177(9) -0.1159(4)
H6A H -0.20220 0.58390 -0.08920
C11A C -0.1901(6) 0.5441(7) -0.1707(3)
C12A C -0.1857(6) 0.4436(8) -0.2094(3)
H7A H -0.17360 0.46100 -0.24550
C13A C -0.1992(6) 0.3190(8) -0.1942(3)
H8A H -0.19700 0.25320 -0.22050
C14A C -0.1737(6) 0.6786(7) -0.1881(3)
C15A C -0.3563(6) 0.0899(8) -0.1467(3)
C16A C -0.3830(5) -0.0433(7) -0.1527(3)
H9A H -0.33580 -0.10690 -0.14380
C17A C -0.4822(6) -0.0743(7) -0.1722(4)
H10A H -0.50090 -0.15980 -0.17450
C18A C -0.5500(5) 0.0163(7) -0.1874(3)
C19A C -0.5237(5) 0.1491(8) -0.1807(3)
H11A H -0.57160 0.21190 -0.18950
C20A C -0.4286(5) 0.1822(8) -0.1616(3)
H12A H -0.41150 0.26820 -0.15850
C21A C -0.6544(5) -0.0176(8) -0.2134(3)
O1A O -0.1548(4) 0.1102(6) 0.1764(2)
O2A O -0.0011(4) 0.1279(6) 0.1753(2)
O3A O -0.1828(4) 0.7703(5) -0.1553(2)
O3C O 0.1828(4) 0.2297(5) 0.1553(2)
O3B O -0.1828(4) 0.2297(5) 0.3447(2)
O4A O -0.1503(3) 0.6975(5) -0.2355(2)
O4C O 0.1503(3) 0.3025(5) 0.2355(2)
O4B O -0.1503(3) 0.3025(5) 0.2645(2)
O5A O -0.6782(3) -0.1313(6) -0.2313(2)
O5B O 0.3218(3) 0.1313(6) 0.2687(2)
O5C O -0.3218(3) 0.1313(6) 0.2313(2)
O6A O -0.7195(4) 0.0697(5) -0.2218(3)
O6B O 0.2805(4) -0.0697(5) 0.2782(3)
O6C O -0.2805(4) -0.0697(5) 0.2218(3)
O7A O -0.1715(4) 0.0424(5) -0.1482(2)
O7C O 0.1715(4) -0.0424(5) 0.1482(2)
O7B O -0.1715(4) -0.0424(5) 0.3518(2)
O8A O -0.0708(4) -0.1054(5) 0.2589(3)
P1A P -0.22846(12) 0.12770(18) -0.12165(7)
#END
