
#######################################################################
#
#                 Cambridge Crystallographic Data Centre
#                                CCDC
#
#######################################################################
#
# If this CIF has been generated from an entry in the Cambridge
# Structural Database, then it will include bibliographic, chemical,
# crystal, experimental, refinement or atomic coordinate data resulting
# from the CCDC's data processing and validation procedures.
#
#######################################################################

data_CSD_CIF_DARFAF
_audit_creation_date 2012-07-02
_audit_creation_method CSD-ConQuest-V1
_database_code_CSD DARFAF
_database_code_depnum_ccdc_archive 'CCDC 818486'
_chemical_formula_sum 'C57 H73 Dy2 N5 O26 P2'
_chemical_formula_moiety
;
(C43 H25 Dy2 O16 P2 1-)n,4n(C3 H7 N1 O1),6n(H2 O1),n(C2 H8 N1 1+)
;
_journal_coden_Cambridge 9
_journal_volume 51
_journal_year 2012
_journal_page_first 1813
_journal_name_full 'Inorg.Chem. '
loop_
_publ_author_name
"Zu-Jin Lin"
"Zhen Yang"
"Tian-Fu Liu"
"Yuan-Biao Huang"
"Rong Cao"
_chemical_name_systematic
;
catena-(dimethylammonium 
bis(\m~5~-4,4',4''-phosphoryltribenzoato)-(\m~2~-formato)-di-dysprosium(iii) 
N,N-dimethylformamide solvate hexahydrate)
;
_cell_volume   3464.950
_exptl_crystal_colour 'colorless'
_exptl_special_details
;
isostructural with Sm, Eu, Gd, Y, Tb, Ho, Er, Tm, Yb, and Lu analogues

;
_exptl_crystal_description 'prism'
_diffrn_ambient_temperature 298
_refine_special_details
;
The SQUEEZE/PLATON program was used to model the disordered cations and 
solvent molecules.
;
#These two values have been output from a single CSD field.
_refine_ls_R_factor_gt 0.0378
_refine_ls_wR_factor_gt 0.0378
_symmetry_cell_setting monoclinic
_symmetry_space_group_name_H-M 'P 2/c'
_symmetry_Int_Tables_number 13
loop_
_symmetry_equiv_pos_site_id
_symmetry_equiv_pos_as_xyz
1 x,y,z
2 -x,y,1/2-z
3 -x,-y,-z
4 x,-y,-1/2+z
_cell_length_a 14.617(4)
_cell_length_b 10.572(3)
_cell_length_c 23.548(7)
_cell_angle_alpha 90
_cell_angle_beta 107.787(4)
_cell_angle_gamma 90
_cell_formula_units_Z 2
loop_
_atom_type_symbol
_atom_type_radius_bond
C 0.68
H 0.23
Dy 1.92
O 0.68
P 1.05
loop_
_atom_site_label
_atom_site_type_symbol
_atom_site_fract_x
_atom_site_fract_y
_atom_site_fract_z
Dy1 Dy 0.15382(1) 0.569341(16) 0.227761(6)
C1 C 0.4786(3) 0.5617(4) 0.1731(2)
H1 H 0.49560 0.64670 0.17790
P1 P 0.23027(6) 0.36290(8) 0.12234(3)
O1 O 0.15637(19) -0.2005(3) 0.23732(12)
O2 O 0.1894(2) -0.2742(3) 0.15756(12)
C2 C 0.1797(3) -0.1842(4) 0.18957(17)
C3 C 0.1934(3) -0.0486(4) 0.17277(18)
O3 O 0.17301(19) 0.4504(2) 0.14903(11)
C4 C 0.2169(2) 0.1992(3) 0.14093(14)
C5 C 0.1906(2) 0.3723(3) 0.04192(14)
C6 C 0.3570(3) 0.4014(4) 0.14658(15)
C7 C 0.6540(2) 0.5062(4) 0.21161(16)
C8 C 0.5499(2) 0.4701(4) 0.18639(16)
C9 C 0.1227(2) 0.3816(3) -0.08210(14)
C10 C 0.5241(3) 0.3441(4) 0.1792(2)
H2 H 0.57150 0.28210 0.18740
C11 C 0.3834(3) 0.5290(4) 0.15318(18)
H3 H 0.33640 0.59160 0.14400
C12 C 0.4283(3) 0.3095(4) 0.15972(19)
H4 H 0.41150 0.22430 0.15540
C13 C 0.1894(4) 0.0503(4) 0.2105(2)
H5 H 0.17900 0.03350 0.24680
C14 C 0.2540(3) 0.3785(6) 0.00877(17)
H6 H 0.31980 0.37940 0.02800
C15 C 0.2201(3) 0.3833(6) -0.05260(18)
H7 H 0.26340 0.38780 -0.07440
C16 C 0.0927(3) 0.3723(6) 0.01220(16)
H8 H 0.04920 0.36980 0.03390
O4 O 0.71822(19) 0.4228(3) 0.21955(14)
O5 O 0.6764(2) 0.6191(3) 0.22716(14)
O6 O 0.1482(2) 0.3958(3) -0.17666(11)
C17 C 0.0869(3) 0.3861(4) -0.14942(15)
C18 C 0.0593(3) 0.3761(5) -0.04941(17)
H9 H -0.00650 0.37490 -0.06880
C19 C 0.2112(4) -0.0231(4) 0.1191(2)
H10 H 0.21500 -0.08910 0.09380
C20 C 0.2006(4) 0.1731(4) 0.19476(19)
H11 H 0.19730 0.23890 0.22030
C21 C 0.2234(4) 0.1010(4) 0.1035(2)
H12 H 0.23580 0.11820 0.06790
O7 O 0.0698(2) 0.3909(3) 0.23984(15)
O8 O -0.00233(19) 0.3775(3) -0.17400(12)
C22 C 0.00000 0.3462(7) 0.25000
H13 H 0.00000 0.25820 0.25000
O7A O -0.0698(2) 0.3909(3) 0.26016(15)
Dy1A Dy -0.15382(1) 0.569341(16) 0.272239(6)
C1A C -0.4786(3) 0.5617(4) 0.3269(2)
H1A H -0.49560 0.64670 0.32210
P1A P -0.23027(6) 0.36290(8) 0.37766(3)
O1A O -0.15637(19) -0.2005(3) 0.26268(12)
O2A O -0.1894(2) -0.2742(3) 0.34244(12)
C2A C -0.1797(3) -0.1842(4) 0.31043(17)
C3A C -0.1934(3) -0.0486(4) 0.32723(18)
O3A O -0.17301(19) 0.4504(2) 0.35097(11)
C4A C -0.2169(2) 0.1992(3) 0.35907(14)
C5A C -0.1906(2) 0.3723(3) 0.45808(14)
C6A C -0.3570(3) 0.4014(4) 0.35342(15)
C7A C -0.6540(2) 0.5062(4) 0.28839(16)
C8A C -0.5499(2) 0.4701(4) 0.31361(16)
C9A C -0.1227(2) 0.3816(3) 0.58210(14)
C10A C -0.5241(3) 0.3441(4) 0.3208(2)
H2A H -0.57150 0.28210 0.31260
C11A C -0.3834(3) 0.5290(4) 0.34682(18)
H3A H -0.33640 0.59160 0.35600
C12A C -0.4283(3) 0.3095(4) 0.34028(19)
H4A H -0.41150 0.22430 0.34460
C13A C -0.1894(4) 0.0503(4) 0.2895(2)
H5A H -0.17900 0.03350 0.25320
C14A C -0.2540(3) 0.3785(6) 0.49123(17)
H6A H -0.31980 0.37940 0.47200
C15A C -0.2201(3) 0.3833(6) 0.55260(18)
H7A H -0.26340 0.38780 0.57440
C16A C -0.0927(3) 0.3723(6) 0.48780(16)
H8A H -0.04920 0.36980 0.46610
O4A O -0.71822(19) 0.4228(3) 0.28045(14)
O5A O -0.6764(2) 0.6191(3) 0.27284(14)
O6A O -0.1482(2) 0.3958(3) 0.67666(11)
C17A C -0.0869(3) 0.3861(4) 0.64942(15)
C18A C -0.0593(3) 0.3761(5) 0.54941(17)
H9A H 0.00650 0.37490 0.56880
C19A C -0.2112(4) -0.0231(4) 0.3809(2)
H10A H -0.21500 -0.08910 0.40620
C20A C -0.2006(4) 0.1731(4) 0.30524(19)
H11A H -0.19730 0.23890 0.27970
C21A C -0.2234(4) 0.1010(4) 0.3965(2)
H12A H -0.23580 0.11820 0.43210
O8A O 0.00233(19) 0.3775(3) 0.67400(12)
Dy1* Dy -0.84618(1) 0.569341(16) 0.227761(6)
Dy1** Dy 0.15382(1) -0.430659(16) 0.227761(6)
Dy1A* Dy -0.15382(1) -0.430659(16) 0.272239(6)
Dy1A** Dy 0.84618(1) 0.569341(16) 0.272239(6)
Dy1B Dy -0.15382(1) 0.430659(16) -0.227761(6)
Dy1B* Dy -0.15382(1) 0.430659(16) 0.772239(6)
Dy1C Dy 0.15382(1) 0.430659(16) -0.272239(6)
Dy1C* Dy 0.15382(1) 0.430659(16) 0.727761(6)
O1* O 0.15637(19) 0.7995(3) 0.23732(12)
O1A* O -0.15637(19) 0.7995(3) 0.26268(12)
O2* O 0.1894(2) 0.7258(3) 0.15756(12)
O2A* O -0.1894(2) 0.7258(3) 0.34244(12)
O4* O -0.28178(19) 0.4228(3) 0.21955(14)
O4A* O 0.28178(19) 0.4228(3) 0.28045(14)
O5* O -0.3236(2) 0.6191(3) 0.22716(14)
O5A* O 0.3236(2) 0.6191(3) 0.27284(14)
O6B O -0.1482(2) 0.6042(3) 0.17666(11)
O6C O 0.1482(2) 0.6042(3) 0.32334(11)
O8B O 0.00233(19) 0.6225(3) 0.17400(12)
O8C O -0.00233(19) 0.6225(3) 0.32600(12)
#END
