
#######################################################################
#
#                 Cambridge Crystallographic Data Centre
#                                CCDC
#
#######################################################################
#
# If this CIF has been generated from an entry in the Cambridge
# Structural Database, then it will include bibliographic, chemical,
# crystal, experimental, refinement or atomic coordinate data resulting
# from the CCDC's data processing and validation procedures.
#
#######################################################################

data_CSD_CIF_DARGIM
_audit_creation_date 1986-04-23
_audit_creation_method CSD-ConQuest-V1
_database_code_CSD DARGIM
_chemical_formula_sum 'C4 H9 N2 O7 V1'
_chemical_formula_moiety
;
(C4 H5 N1 O7 V1 1-)n,n(H4 N1 1+)
;
_journal_coden_Cambridge 9
_journal_volume 24
_journal_year 1985
_journal_page_first 1281
_journal_name_full 'Inorg.Chem. '
loop_
_publ_author_name
"C.Djordjevic"
"S.A.Craig"
"E.Sinn"
_chemical_name_systematic
;
catena-(Ammonium (\m~2~-iminodiacetato-O,O',O'')-oxo-peroxo-vanadium(v))
;
_cell_volume    892.189
_diffrn_ambient_temperature ?
_diffrn_special_details
;
The study was carried out at room temperature,in the range 283-303K

;
#These two values have been output from a single CSD field.
_refine_ls_R_factor_gt 0.028
_refine_ls_wR_factor_gt 0.028
_symmetry_cell_setting orthorhombic
_symmetry_space_group_name_H-M 'P 21 21 21'
_symmetry_Int_Tables_number 19
loop_
_symmetry_equiv_pos_site_id
_symmetry_equiv_pos_as_xyz
1 x,y,z
2 1/2+x,1/2-y,-z
3 -x,1/2+y,1/2-z
4 1/2-x,-y,1/2+z
_cell_length_a 6.145(2)
_cell_length_b 8.408(2)
_cell_length_c 17.268(3)
_cell_angle_alpha 90
_cell_angle_beta 90
_cell_angle_gamma 90
_cell_formula_units_Z 4
loop_
_atom_type_symbol
_atom_type_radius_bond
C 0.68
H 0.23
N 0.68
O 0.68
V 1.30
loop_
_atom_site_label
_atom_site_type_symbol
_atom_site_fract_x
_atom_site_fract_y
_atom_site_fract_z
V1 V 0.0321(1) -0.06256(7) 0.09773(3)
O1 O 0.0324(5) 0.1596(3) 0.0875(2)
O2 O 0.1610(5) 0.0836(2) 0.0288(2)
O3 O 0.2234(5) -0.0955(3) 0.1574(2)
O4 O -0.1979(5) -0.0034(3) 0.1751(1)
O5 O -0.3830(5) -0.0772(4) 0.2796(1)
O6 O 0.1359(5) -0.2155(3) 0.0152(1)
O7 O 0.2391(5) -0.4644(3) -0.0090(1)
N1 N -0.1255(5) -0.2824(4) 0.1248(2)
N2 N 0.5236(5) 0.2305(4) 0.0993(2)
C1 C -0.2713(6) -0.1096(4) 0.2230(2)
C2 C -0.2059(7) -0.2795(5) 0.2049(2)
C3 C 0.0206(6) -0.4149(4) 0.1033(2)
C4 C 0.1422(6) -0.3658(5) 0.0304(2)
H1 H -0.331(8) -0.349(5) 0.212(2)
H2 H -0.095(8) -0.313(6) 0.239(3)
H3 H -0.236(7) -0.278(5) 0.093(2)
H4 H 0.128(7) -0.429(6) 0.146(2)
H5 H -0.063(7) -0.513(5) 0.098(3)
H6 H 0.540(9) 0.281(6) 0.062(3)
H7 H 0.626(8) 0.162(5) 0.107(3)
H8 H 0.471(8) 0.202(5) 0.142(2)
H9 H 0.385(9) 0.163(6) 0.095(3)
O7A O -0.2609(5) -0.0356(3) 0.0090(1)
V1A V 0.5321(1) -0.43744(7) -0.09773(3)
#END
