
#######################################################################
#
#                 Cambridge Crystallographic Data Centre
#                                CCDC
#
#######################################################################
#
# If this CIF has been generated from an entry in the Cambridge
# Structural Database, then it will include bibliographic, chemical,
# crystal, experimental, refinement or atomic coordinate data resulting
# from the CCDC's data processing and validation procedures.
#
#######################################################################

data_CSD_CIF_DARQEU
_audit_creation_date 2012-07-02
_audit_creation_method CSD-ConQuest-V1
_database_code_CSD DARQEU
_database_code_depnum_ccdc_archive 'CCDC 835511'
_chemical_formula_sum 'C36 H88 In5 Mn2 N12 O2 Te10'
_chemical_formula_moiety
;
(In5 Te10 4-)n,2n(C18 H42 Mn1 N6 2+),2n(H2 O1)
;
_journal_coden_Cambridge 9
_journal_volume 51
_journal_year 2012
_journal_page_first 1219
_journal_name_full 'Inorg.Chem. '
loop_
_publ_author_name
"Yu-Hong Wang"
"Wen Luo"
"Jian-Bing Jiang"
"Guo-Qing Bian"
"Qin-Yu Zhu"
"Jie Dai"
_chemical_name_systematic
;
catena-(bis(tris(1,2-diaminecyclohexane)-manganese(ii)) 
(\m~3~-ditellurido)-(\m~3~-tellurido)-heptakis(\m~2~-tellurido)-penta-indinum 
dihydrate)
;
_cell_volume   7003.272
_exptl_crystal_colour 'red'
_exptl_crystal_density_diffrn 2.528
_exptl_crystal_description 'block'
_diffrn_ambient_temperature 223
#These two values have been output from a single CSD field.
_refine_ls_R_factor_gt 0.0889
_refine_ls_wR_factor_gt 0.0889
_symmetry_cell_setting monoclinic
_symmetry_space_group_name_H-M 'P 21/n'
_symmetry_Int_Tables_number 14
loop_
_symmetry_equiv_pos_site_id
_symmetry_equiv_pos_as_xyz
1 x,y,z
2 1/2-x,1/2+y,1/2-z
3 -x,-y,-z
4 -1/2+x,-1/2-y,-1/2+z
_cell_length_a 14.0828(10)
_cell_length_b 29.6541(19)
_cell_length_c 17.4065(12)
_cell_angle_alpha 90
_cell_angle_beta 105.545(2)
_cell_angle_gamma 90
_cell_formula_units_Z 4
loop_
_atom_type_symbol
_atom_type_radius_bond
C 0.68
H 0.23
In 1.42
Mn 1.61
N 0.68
O 0.68
Te 1.47
loop_
_atom_site_label
_atom_site_type_symbol
_atom_site_fract_x
_atom_site_fract_y
_atom_site_fract_z
In1 In 1.0213(1) 0.18431(4) 1.07524(7)
In2 In 1.23853(10) 0.29640(4) 1.15367(7)
In3 In 0.93697(10) 0.20660(4) 0.84160(7)
In4 In 0.97296(10) 0.31684(4) 0.99511(8)
In5 In 1.24608(10) 0.17310(4) 1.28390(8)
Mn1 Mn 0.2982(3) -0.00390(12) 0.2029(2)
Mn2 Mn -0.0044(3) 0.27314(12) 0.4449(2)
Te1 Te 1.20715(9) 0.21814(4) 1.05305(7)
Te2 Te 0.96199(11) 0.13199(4) 0.94012(8)
Te3 Te 0.89381(12) 0.25400(5) 1.07536(10)
Te4 Te 1.12102(12) 0.36807(4) 1.09357(9)
Te5 Te 1.43467(10) 0.31943(4) 1.18836(7)
Te6 Te 1.06905(9) 0.27597(4) 0.89417(7)
Te7 Te 1.23295(9) 0.26719(4) 1.30822(7)
Te8 Te 0.82501(11) 0.37531(4) 0.91996(8)
Te9 Te 1.0587(1) 0.13855(5) 1.21795(7)
Te10 Te 1.34507(10) 0.16704(4) 1.16695(8)
N1 N 0.2060(18) -0.0631(6) 0.2313(14)
N2 N 0.2316(17) 0.0249(6) 0.2979(13)
N3 N 0.4240(19) 0.0473(8) 0.2339(15)
N4 N 0.4366(16) -0.0466(7) 0.2556(13)
N5 N 0.262(2) -0.0341(9) 0.0766(14)
N6 N 0.2076(17) 0.0513(7) 0.1209(12)
N7 N -0.1180(17) 0.2156(8) 0.4453(13)
N8 N 0.0825(17) 0.2093(8) 0.4356(15)
N9 N 0.0337(15) 0.2752(8) 0.5802(11)
N10 N 0.1253(15) 0.3207(7) 0.4761(11)
N11 N -0.048(3) 0.2859(12) 0.3131(17)
N12 N -0.124(2) 0.3264(10) 0.430(2)
C1 C 0.147(3) -0.0489(11) 0.2883(19)
H1 H 0.14360 -0.07450 0.32300
C2 C 0.050(3) -0.0383(11) 0.2417(17)
H2 H 0.02290 -0.06450 0.20980
H3 H 0.05410 -0.01410 0.20520
C3 C -0.025(3) -0.0233(11) 0.2934(19)
H4 H -0.08820 -0.01410 0.25830
H5 H -0.03660 -0.04820 0.32610
C4 C 0.023(3) 0.0156(12) 0.3451(19)
H6 H 0.02220 0.04190 0.31190
H7 H -0.01500 0.02270 0.38260
C5 C 0.127(2) 0.0053(12) 0.3902(19)
H8 H 0.12640 -0.01780 0.42960
H9 H 0.15620 0.03220 0.41870
C6 C 0.190(2) -0.0105(10) 0.3383(17)
H10 H 0.24840 -0.02330 0.37630
C7 C 0.503(3) 0.0298(12) 0.299(2)
H11 H 0.46350 0.03010 0.33730
C8 C 0.578(3) 0.0606(12) 0.347(2)
H12 H 0.61690 0.07220 0.31250
H13 H 0.54450 0.08600 0.36250
C9 C 0.641(3) 0.0427(14) 0.413(2)
H14 H 0.61410 0.04840 0.45810
H15 H 0.70310 0.05910 0.42350
C10 C 0.664(3) -0.0064(13) 0.413(2)
H16 H 0.67690 -0.01670 0.46810
H17 H 0.72630 -0.00900 0.39920
C11 C 0.593(3) -0.0402(12) 0.362(2)
H18 H 0.62890 -0.06000 0.33490
H19 H 0.56350 -0.05860 0.39510
C12 C 0.517(2) -0.0177(10) 0.304(2)
H20 H 0.55440 -0.01810 0.26330
C13 C 0.162(2) -0.0136(10) 0.027(2)
H21 H 0.13010 -0.01540 0.07030
C14 C 0.065(2) -0.0074(14) -0.039(2)
H22 H 0.04660 0.02340 -0.05510
H23 H 0.01030 -0.02610 -0.03560
C15 C 0.145(3) -0.0302(13) -0.078(2)
H24 H 0.17350 -0.05600 -0.04560
H25 H 0.11140 -0.04120 -0.13050
C16 C 0.226(3) 0.0009(12) -0.084(2)
H26 H 0.20600 0.01740 -0.13420
H27 H 0.28400 -0.01680 -0.08530
C17 C 0.255(3) 0.0351(13) -0.014(2)
H28 H 0.31920 0.02710 0.01990
H29 H 0.25990 0.06490 -0.03550
C18 C 0.182(2) 0.0365(10) 0.0354(14)
H30 H 0.12290 0.05280 0.00580
C19 C -0.078(2) 0.1737(9) 0.422(2)
H31 H -0.08570 0.17400 0.36410
C20 C -0.138(2) 0.1372(9) 0.442(2)
H32 H -0.16350 0.14810 0.48520
H33 H -0.19490 0.13320 0.39620
C21 C -0.097(2) 0.0929(11) 0.465(2)
H34 H -0.10550 0.07420 0.41750
H35 H -0.13130 0.07850 0.49970
C22 C 0.007(2) 0.0974(13) 0.505(2)
H36 H 0.01030 0.10130 0.56120
H37 H 0.03580 0.06800 0.50110
C23 C 0.077(3) 0.1298(11) 0.489(3)
H38 H 0.13060 0.13430 0.53690
H39 H 0.10470 0.11820 0.44770
C24 C 0.028(2) 0.1724(13) 0.464(3)
H40 H 0.02580 0.18470 0.51580
C25 C 0.118(2) 0.3029(11) 0.6126(13)
H41 H 0.16640 0.27850 0.61660
C26 C 0.142(2) 0.3115(11) 0.6973(14)
H42 H 0.08360 0.32150 0.71130
H43 H 0.16430 0.28370 0.72590
C27 C 0.217(3) 0.3449(12) 0.7219(18)
H44 H 0.27450 0.32880 0.75360
H45 H 0.19540 0.36410 0.75890
C28 C 0.255(3) 0.3749(11) 0.6734(14)
H46 H 0.32620 0.37590 0.69320
H47 H 0.23000 0.40490 0.67830
C29 C 0.229(2) 0.3625(10) 0.5904(14)
H48 H 0.20960 0.38990 0.56000
H49 H 0.28930 0.35220 0.57880
C30 C 0.155(2) 0.3294(9) 0.5581(14)
H50 H 0.10220 0.35170 0.55340
C31 C -0.127(4) 0.3180(18) 0.295(3)
H51 H -0.17290 0.29530 0.26520
C32 C -0.149(4) 0.3481(17) 0.225(3)
H52 H -0.09100 0.36640 0.22890
H53 H -0.15810 0.32930 0.17830
C33 C -0.233(4) 0.3788(19) 0.211(3)
H54 H -0.20920 0.40950 0.21960
H55 H -0.27110 0.37610 0.15570
C34 C -0.298(3) 0.370(2) 0.262(3)
H56 H -0.34000 0.39650 0.25810
H57 H -0.34070 0.34540 0.23790
C35 C -0.260(4) 0.3598(17) 0.346(3)
H58 H -0.31310 0.34940 0.36780
H59 H -0.23040 0.38620 0.37540
C36 C -0.187(3) 0.3243(17) 0.350(2)
H60 H -0.22380 0.29600 0.34820
O1 O 0.9891(7) 0.5743(3) 0.5792(5)
O2 O 0.5206(14) 0.0360(6) 0.0986(11)
In3C In 1.43697(10) 0.29340(4) 1.34160(7)
In5C In 0.74608(10) 0.32690(4) 0.78390(8)
Te5C Te 0.93467(10) 0.18057(4) 0.68836(7)
Te7C Te 0.73295(9) 0.23281(4) 0.80822(7)
Te8C Te 1.32501(11) 0.12469(4) 1.41996(8)
#END
