
#######################################################################
#
#                 Cambridge Crystallographic Data Centre
#                                CCDC
#
#######################################################################
#
# If this CIF has been generated from an entry in the Cambridge
# Structural Database, then it will include bibliographic, chemical,
# crystal, experimental, refinement or atomic coordinate data resulting
# from the CCDC's data processing and validation procedures.
#
#######################################################################

data_CSD_CIF_DASTEY02
_audit_creation_date 2012-08-21
_audit_creation_method CSD-ConQuest-V1
_database_code_CSD DASTEY02
_database_code_depnum_ccdc_archive 'CCDC 856833'
_chemical_formula_sum 'C28 H24 N2 O20 Zn3'
_chemical_formula_moiety
;
(C24 H8 O20 Zn3 2-)n,2n(C2 H8 N1 1+)
;
_journal_coden_Cambridge 1147
_journal_volume 12
_journal_year 2012
_journal_page_first 572
_journal_name_full 'Cryst.Growth Des. '
loop_
_publ_author_name
"S.S.Nagarkar"
"A.K.Chaudhari"
"S.K.Ghosh"
_chemical_name_systematic
;
catena-(bis(\m~4~-Furan-2,5-dicarboxylato)-bis(\m~3~-furan-2,5-dicarboxylato)-
tri-zinc dimethylammonium unknown guest clathrate)
;
_cell_volume   2521.414
_exptl_crystal_colour 'colorless'
_exptl_crystal_density_diffrn 1.191
_exptl_special_details
;
DASTEY, DASTEY01 and DASTEY02 are supramolecular isomers

;
_exptl_crystal_description 'rod'
_diffrn_ambient_temperature 150
_refine_special_details
;
Disordered solvent molecules were not modelled and the disordered density was 
taken into account using the SQUEEZE/PLATON procedure.
;
#These two values have been output from a single CSD field.
_refine_ls_R_factor_gt 0.1038
_refine_ls_wR_factor_gt 0.1038
_symmetry_cell_setting monoclinic
_symmetry_space_group_name_H-M 'P 21/c'
_symmetry_Int_Tables_number 14
loop_
_symmetry_equiv_pos_site_id
_symmetry_equiv_pos_as_xyz
1 x,y,z
2 -x,1/2+y,1/2-z
3 -x,-y,-z
4 x,-1/2-y,-1/2+z
_cell_length_a 9.426(5)
_cell_length_b 15.424(5)
_cell_length_c 17.359(5)
_cell_angle_alpha 90
_cell_angle_beta 92.474(5)
_cell_angle_gamma 90
_cell_formula_units_Z 2
loop_
_atom_type_symbol
_atom_type_radius_bond
C 0.68
H 0.23
N 0.68
O 0.68
Zn 1.44
loop_
_atom_site_label
_atom_site_type_symbol
_atom_site_fract_x
_atom_site_fract_y
_atom_site_fract_z
C1 C 0.7856(5) 0.0071(4) 0.1056(3)
C2 C 0.9386(5) -0.0156(4) 0.1008(3)
C3 C 1.0046(6) -0.0860(4) 0.0728(3)
H1 H 0.96100 -0.13690 0.05200
C4 C 1.1528(6) -0.0683(4) 0.0807(3)
H2 H 1.22790 -0.10490 0.06580
C5 C 1.1658(5) 0.0107(3) 0.1135(3)
C6 C 1.2900(5) 0.0662(4) 0.1362(3)
C7 C 0.4350(6) -0.2233(3) -0.0288(3)
C8 C 0.4136(6) -0.3080(4) 0.0070(3)
C9 C 0.3847(11) -0.3871(4) -0.0236(4)
H3 H 0.37310 -0.40160 -0.07670
C10 C 0.3751(9) -0.4437(4) 0.0405(4)
H4 H 0.35790 -0.50440 0.03840
C11 C 0.3947(6) -0.3963(3) 0.1040(3)
C12 C 0.4046(6) -0.4202(4) 0.1869(3)
O1 O 0.6985(4) -0.0441(3) 0.0769(3)
O2 O 0.7590(4) 0.0772(3) 0.1389(2)
O3 O 1.0360(3) 0.0451(3) 0.1260(2)
O4 O 1.2721(5) 0.1370(4) 0.1657(4)
O5 O 1.4116(3) 0.0328(2) 0.12245(18)
O6 O 0.4386(5) -0.2261(3) -0.1032(2)
O7 O 0.4451(4) -0.1565(2) 0.0106(2)
O8 O 0.4218(4) -0.3118(2) 0.08494(19)
O9 O 0.4287(4) -0.3575(3) 0.23332(19)
O10 O 0.3906(6) -0.4975(3) 0.2048(3)
Zn1 Zn 1.56336(5) 0.11449(4) 0.15741(3)
Zn2 Zn 0.50000 0.00000 0.00000
C13 C 0.6543(9) -0.1899(5) 0.2036(5)
H5 H 0.73440 -0.17020 0.17400
H6 H 0.63690 -0.25160 0.19340
H7 H 0.67650 -0.18140 0.25880
C14 C 0.4062(9) -0.1515(4) 0.2302(4)
H8 H 0.33280 -0.18620 0.20280
H9 H 0.36720 -0.09460 0.24290
H10 H 0.43770 -0.18130 0.27770
N1 N 0.5276(8) -0.1401(5) 0.1807(4)
H11 H 0.55120 -0.08220 0.18020
H12 H 0.49960 -0.15540 0.13120
C1B C 0.2144(5) -0.0071(4) -0.1056(3)
C2B C 0.0614(5) 0.0156(4) -0.1008(3)
C3B C -0.0046(6) 0.0860(4) -0.0728(3)
H1B H 0.03900 0.13690 -0.05200
C4B C -0.1528(6) 0.0683(4) -0.0807(3)
H2B H -0.22790 0.10490 -0.06580
C5B C -0.1658(5) -0.0107(3) -0.1135(3)
C6B C -0.2900(5) -0.0662(4) -0.1362(3)
C7B C 0.5650(6) 0.2233(3) 0.0288(3)
C8B C 0.5864(6) 0.3080(4) -0.0070(3)
C9B C 0.6153(11) 0.3871(4) 0.0236(4)
H3B H 0.62690 0.40160 0.07670
C10B C 0.6249(9) 0.4437(4) -0.0405(4)
H4B H 0.64210 0.50440 -0.03840
C11B C 0.6053(6) 0.3963(3) -0.1040(3)
C12B C 0.5954(6) 0.4202(4) -0.1869(3)
O1B O 0.3015(4) 0.0441(3) -0.0769(3)
O2B O 0.2410(4) -0.0772(3) -0.1389(2)
O2* O 1.7590(4) 0.0772(3) 0.1389(2)
O2B* O -0.7590(4) -0.0772(3) -0.1389(2)
O3B O -0.0360(3) -0.0451(3) -0.1260(2)
O4B O -0.2721(5) -0.1370(4) -0.1657(4)
O5B O -0.4116(3) -0.0328(2) -0.12245(18)
O5* O 0.4116(3) 0.0328(2) 0.12245(18)
O5B* O 0.5884(3) -0.0328(2) -0.12245(18)
O6B O 0.5614(5) 0.2261(3) 0.1032(2)
O6B* O 1.5614(5) 0.2261(3) 0.1032(2)
O6* O -0.5614(5) -0.2261(3) -0.1032(2)
O7B O 0.5549(4) 0.1565(2) -0.0106(2)
O8B O 0.5782(4) 0.3118(2) -0.08494(19)
O9B O 0.5713(4) 0.3575(3) -0.23332(19)
O9A O 1.5713(4) 0.1425(3) 0.26668(19)
O9C O -0.5713(4) -0.1425(3) -0.26668(19)
O10B O 0.6094(6) 0.4975(3) -0.2048(3)
Zn1B Zn -0.56336(5) -0.11449(4) -0.15741(3)
Zn1* Zn 0.56336(5) 0.11449(4) 0.15741(3)
Zn1B* Zn 0.43664(5) -0.11449(4) -0.15741(3)
Zn1A Zn 0.43664(5) -0.38551(4) 0.34259(3)
Zn1C Zn 0.56336(5) 0.38551(4) -0.34259(3)
Zn2* Zn 1.50000 0.00000 0.00000
Zn2** Zn -0.50000 0.00000 0.00000
#END
