
#######################################################################
#
#                 Cambridge Crystallographic Data Centre
#                                CCDC
#
#######################################################################
#
# If this CIF has been generated from an entry in the Cambridge
# Structural Database, then it will include bibliographic, chemical,
# crystal, experimental, refinement or atomic coordinate data resulting
# from the CCDC's data processing and validation procedures.
#
#######################################################################

data_CSD_CIF_DASTEY01
_audit_creation_date 2012-08-21
_audit_creation_method CSD-ConQuest-V1
_database_code_CSD DASTEY01
_database_code_depnum_ccdc_archive 'CCDC 856832'
_chemical_formula_sum 'C56 H48 N4 O40 Zn6'
_chemical_formula_moiety
;
(C48 H16 O40 Zn6 4-)n,4n(C2 H8 N1 1+)
;
_journal_coden_Cambridge 1147
_journal_volume 12
_journal_year 2012
_journal_page_first 572
_journal_name_full 'Cryst.Growth Des. '
loop_
_publ_author_name
"S.S.Nagarkar"
"A.K.Chaudhari"
"S.K.Ghosh"
_chemical_name_systematic
;
catena-(tetrakis(\m~4~-Furan-2,5-dicarboxylato)-tetrakis(\m~3~-furan-2,5-dicar
boxylato)-hexa-zinc tetrakis(dimethylammonium) unknown guest clathrate)
;
_cell_volume   2191.904
_exptl_crystal_colour 'pale yellow'
_exptl_crystal_density_diffrn 1.371
_exptl_special_details
;
DASTEY, DASTEY01 and DASTEY02 are supramolecular isomers

;
_exptl_crystal_description 'block'
_diffrn_ambient_temperature 150
_refine_special_details
;
The SQUEEZE/PLATON program has been used to model some disorder.

;
#These two values have been output from a single CSD field.
_refine_ls_R_factor_gt 0.0312
_refine_ls_wR_factor_gt 0.0312
_symmetry_cell_setting triclinic
_symmetry_space_group_name_H-M 'P -1'
_symmetry_Int_Tables_number 2
loop_
_symmetry_equiv_pos_site_id
_symmetry_equiv_pos_as_xyz
1 x,y,z
2 -x,-y,-z
_cell_length_a 12.7693(10)
_cell_length_b 12.7842(9)
_cell_length_c 14.7758(11)
_cell_angle_alpha 85.019(2)
_cell_angle_beta 65.870(1)
_cell_angle_gamma 89.613(2)
_cell_formula_units_Z 1
loop_
_atom_type_symbol
_atom_type_radius_bond
C 0.68
H 0.23
N 0.68
O 0.68
Zn 1.22
loop_
_atom_site_label
_atom_site_type_symbol
_atom_site_fract_x
_atom_site_fract_y
_atom_site_fract_z
C1 C 0.26509(15) 0.37997(15) 0.06895(14)
C2 C 0.19927(16) 0.33185(15) 0.17113(14)
C3 C 0.18196(19) 0.36203(17) 0.26181(15)
H1 H 0.21320 0.42150 0.27470
C4 C 0.10655(19) 0.28451(17) 0.33314(15)
H2 H 0.07860 0.28330 0.40210
C5 C 0.08348(15) 0.21286(15) 0.28099(13)
C6 C 0.00599(15) 0.11849(14) 0.31046(13)
C7 C 0.11435(17) 0.15325(14) -0.41578(13)
C8 C 0.09417(18) 0.25005(15) -0.36389(15)
C9 C 0.0090(2) 0.31970(18) -0.3427(2)
H3 H -0.05030 0.32110 -0.36390
C10 C 0.0288(2) 0.39057(19) -0.2814(2)
H4 H -0.01560 0.44720 -0.25440
C11 C 0.12451(19) 0.35936(16) -0.27026(16)
C12 C 0.18340(18) 0.39754(16) -0.21080(16)
C13 C 0.76734(15) 0.07116(15) -0.36805(13)
C14 C 0.73696(16) 0.12619(15) -0.27742(14)
C15 C 0.77882(19) 0.12111(18) -0.20644(17)
H5 H 0.83610 0.07790 -0.20280
C16 C 0.7177(2) 0.19508(19) -0.13857(17)
H6 H 0.72670 0.20980 -0.08160
C17 C 0.64324(17) 0.23999(15) -0.17403(15)
C18 C 0.55454(16) 0.31947(15) -0.13587(14)
C19 C 0.45122(15) 0.60590(14) -0.17412(13)
C20 C 0.47381(16) 0.70450(15) -0.23987(14)
C21 C 0.56495(19) 0.77308(18) -0.2822(2)
H7 H 0.63320 0.77030 -0.27360
C22 C 0.5350(2) 0.8501(2) -0.3422(2)
H8 H 0.58040 0.90710 -0.38180
C23 C 0.42779(18) 0.82417(17) -0.33039(16)
C24 C 0.3498(2) 0.87344(19) -0.37215(18)
O1 O 0.25734(14) 0.33340(13) -0.00054(11)
O2 O 0.32040(11) 0.46396(11) 0.05710(11)
O3 O 0.13998(11) 0.23971(11) 0.18111(10)
O4 O -0.00256(14) 0.06644(12) 0.24826(11)
O5 O -0.05449(10) 0.10176(10) 0.40651(9)
O6 O 0.20070(12) 0.10081(11) -0.41959(11)
O7 O 0.04310(13) 0.13244(11) -0.44964(11)
O8 O 0.16679(12) 0.27278(11) -0.32045(11)
O9 O 0.14176(15) 0.47030(15) -0.15991(15)
O10 O 0.27315(13) 0.34896(12) -0.21579(12)
O11 O 0.71612(12) 0.09677(12) -0.42396(10)
O12 O 0.84143(11) 0.00296(11) -0.38292(10)
O13 O 0.65326(12) 0.19904(11) -0.25892(10)
O14 O 0.49426(13) 0.33907(12) -0.18524(11)
O15 O 0.54625(13) 0.35773(11) -0.05877(11)
O16 O 0.36229(12) 0.55381(10) -0.16413(11)
O17 O 0.51971(11) 0.58240(11) -0.13619(10)
O18 O 0.38857(11) 0.73469(11) -0.26919(10)
O19 O 0.25154(15) 0.83810(17) -0.34624(13)
O20 O 0.3862(2) 0.95238(19) -0.4326(2)
Zn1 Zn 0.343786(18) 0.402721(16) -0.132753(15)
Zn2 Zn -0.215161(17) 0.048732(16) 0.440998(15)
Zn3 Zn 0.50000 0.50000 0.00000
Zn4 Zn 1.00000 0.00000 -0.50000
C25 C 0.0560(3) 0.6919(2) -0.1211(3)
H9 H 0.01080 0.62850 -0.10970
H10 H 0.08350 0.71800 -0.19000
H11 H 0.00960 0.74360 -0.08040
C26 C 0.1231(3) 0.6288(2) 0.0089(2)
H12 H 0.08740 0.68270 0.05190
H13 H 0.19090 0.60710 0.01740
H14 H 0.07050 0.56970 0.02550
N1 N 0.15442(15) 0.66977(14) -0.09532(15)
H15 H 0.19840 0.62280 -0.13530
H16 H 0.19710 0.72940 -0.10780
C27 C -0.5269(5) 0.2555(4) 0.5804(4)
H17 H -0.58310 0.30860 0.59050
H18 H -0.48030 0.25460 0.51040
H19 H -0.47910 0.27060 0.61400
C28 C -0.5953(4) 0.1200(4) 0.7193(4)
H20 H -0.52330 0.12920 0.72410
H21 H -0.61840 0.04700 0.73310
H22 H -0.65250 0.15990 0.76670
N2 N -0.5829(5) 0.1566(4) 0.6189(4)
H23 H -0.54370 0.10870 0.57750
H24 H -0.65330 0.15930 0.61880
C1A C 0.73491(15) 0.62003(15) -0.06895(14)
C2A C 0.80073(16) 0.66815(15) -0.17113(14)
C3A C 0.81804(19) 0.63797(17) -0.26181(15)
H1A H 0.78680 0.57850 -0.27470
C4A C 0.89345(19) 0.71549(17) -0.33314(15)
H2A H 0.92140 0.71670 -0.40210
C5A C 0.91652(15) 0.78714(15) -0.28099(13)
C6A C 0.99401(15) 0.88151(14) -0.31046(13)
C7A C -0.11435(17) -0.15325(14) 0.41578(13)
C8A C -0.09417(18) -0.25005(15) 0.36389(15)
C9A C -0.0090(2) -0.31970(18) 0.3427(2)
H3A H 0.05030 -0.32110 0.36390
C10A C -0.0288(2) -0.39057(19) 0.2814(2)
H4A H 0.01560 -0.44720 0.25440
C11A C -0.12451(19) -0.35936(16) 0.27026(16)
C12A C -0.18340(18) -0.39754(16) 0.21080(16)
C13A C 0.23266(15) 0.92884(15) 0.36805(13)
C14A C 0.26304(16) 0.87381(15) 0.27742(14)
C15A C 0.22118(19) 0.87889(18) 0.20644(17)
H5A H 0.16390 0.92210 0.20280
C16A C 0.2823(2) 0.80492(19) 0.13857(17)
H6A H 0.27330 0.79020 0.08160
C17A C 0.35676(17) 0.76001(15) 0.17403(15)
C18A C 0.44546(16) 0.68053(15) 0.13587(14)
C19A C 0.54878(15) 0.39410(14) 0.17412(13)
C20A C 0.52619(16) 0.29550(15) 0.23987(14)
C21A C 0.43505(19) 0.22692(18) 0.2822(2)
H7A H 0.36680 0.22970 0.27360
C22A C 0.4650(2) 0.1499(2) 0.3422(2)
H8A H 0.41960 0.09290 0.38180
C23A C 0.57221(18) 0.17583(17) 0.33039(16)
C24A C 0.6502(2) 0.12656(19) 0.37215(18)
O1A O 0.74266(14) 0.66660(13) 0.00054(11)
O2A O 0.67960(11) 0.53604(11) -0.05710(11)
O3A O 0.86002(11) 0.76029(11) -0.18111(10)
O4A O 1.00256(14) 0.93356(12) -0.24826(11)
O5A O 1.05449(10) 0.89824(10) -0.40651(9)
O5* O 0.94551(10) 0.10176(10) -0.59349(9)
O5A* O 1.05449(10) -0.10176(10) -0.40651(9)
O6A O -0.20070(12) -0.10081(11) 0.41959(11)
O6* O 1.20070(12) 1.10081(11) -0.41959(11)
O7A O -0.04310(13) -0.13244(11) 0.44964(11)
O7A* O 0.95690(13) -0.13244(11) -0.55036(11)
O7* O 1.04310(13) 0.13244(11) -0.44964(11)
O8A O -0.16679(12) -0.27278(11) 0.32045(11)
O9A O -0.14176(15) -0.47030(15) 0.15991(15)
O10A O -0.27315(13) -0.34896(12) 0.21579(12)
O10A* O 0.72685(13) 0.65104(12) 0.21579(12)
O11A O 0.28388(12) 0.90323(12) 0.42396(10)
O11* O -0.28388(12) 0.09677(12) 0.57604(10)
O11A* O 1.28388(12) 0.90323(12) -0.57604(10)
O12A O 0.15857(11) 0.99704(11) 0.38292(10)
O12A* O 1.15857(11) -0.00296(11) -0.61708(10)
O13A O 0.34674(12) 0.80096(11) 0.25892(10)
O14A O 0.50574(13) 0.66093(12) 0.18524(11)
O15A O 0.45375(13) 0.64227(11) 0.05877(11)
O16A O 0.63771(12) 0.44619(10) 0.16413(11)
O17A O 0.48029(11) 0.41760(11) 0.13619(10)
O18A O 0.61143(11) 0.26531(11) 0.26919(10)
O19A O 0.74846(15) 0.16190(17) 0.34624(13)
O19A* O -0.25154(15) 0.16190(17) 0.34624(13)
O19* O 1.25154(15) 0.83810(17) -0.34624(13)
O20A O 0.6138(2) 0.04762(19) 0.4326(2)
O20A* O -0.3862(2) 0.04762(19) 0.4326(2)
O20* O 1.3862(2) 0.95238(19) -0.4326(2)
Zn1A Zn 0.656214(18) 0.597279(16) 0.132753(15)
Zn1A* Zn -0.343786(18) -0.402721(16) 0.132753(15)
Zn2A Zn 1.215161(17) 0.951268(16) -0.440998(15)
Zn2A* Zn 0.215161(17) -0.048732(16) -0.440998(15)
Zn2* Zn 0.784839(17) 0.048732(16) -0.559002(15)
Zn2A** Zn 0.215161(17) 0.951268(16) -0.440998(15)
Zn2A*** Zn 0.215161(17) 0.951268(16) 0.559002(15)
Zn2** Zn 0.784839(17) 0.048732(16) 0.440998(15)
Zn4* Zn 0.00000 0.00000 0.50000
Zn4** Zn 0.00000 0.00000 -0.50000
Zn4*** Zn 1.00000 1.00000 -0.50000
Zn4**** Zn 0.00000 1.00000 0.50000
#END
