
#######################################################################
#
#                 Cambridge Crystallographic Data Centre
#                                CCDC
#
#######################################################################
#
# If this CIF has been generated from an entry in the Cambridge
# Structural Database, then it will include bibliographic, chemical,
# crystal, experimental, refinement or atomic coordinate data resulting
# from the CCDC's data processing and validation procedures.
#
#######################################################################

data_CSD_CIF_DASTEY
_audit_creation_date 2012-08-21
_audit_creation_method CSD-ConQuest-V1
_database_code_CSD DASTEY
_database_code_depnum_ccdc_archive 'CCDC 856831'
_chemical_formula_sum 'C28 H24 N2 O20 Zn3'
_chemical_formula_moiety
;
(C24 H8 O20 Zn3 2-)n,2n(C2 H8 N1 1+)
;
_journal_coden_Cambridge 1147
_journal_volume 12
_journal_year 2012
_journal_page_first 572
_journal_name_full 'Cryst.Growth Des. '
loop_
_publ_author_name
"S.S.Nagarkar"
"A.K.Chaudhari"
"S.K.Ghosh"
_chemical_name_systematic
;
catena-(bis(\m~4~-Furan-2,5-dicarboxylato)-bis(\m~3~-furan-2,5-dicarboxylato)-
tri-zinc dimethylammonium unknown guest clathrate)
;
_cell_volume   1035.793
_exptl_crystal_colour 'colorless'
_exptl_crystal_density_diffrn 1.45
_exptl_special_details
;
DASTEY, DASTEY01 and DASTEY02 are supramolecular isomers

;
_exptl_crystal_description 'block'
_diffrn_ambient_temperature 150
_refine_special_details
;
Disordered guest solvent molecules were not modelled and the disordered 
density was taken into account using the SQUEEZE/PLATON procedure.
;
#These two values have been output from a single CSD field.
_refine_ls_R_factor_gt 0.0347
_refine_ls_wR_factor_gt 0.0347
_symmetry_cell_setting triclinic
_symmetry_space_group_name_H-M 'P -1'
_symmetry_Int_Tables_number 2
loop_
_symmetry_equiv_pos_site_id
_symmetry_equiv_pos_as_xyz
1 x,y,z
2 -x,-y,-z
_cell_length_a 9.3167(16)
_cell_length_b 9.8122(17)
_cell_length_c 11.596(2)
_cell_angle_alpha 95.596(4)
_cell_angle_beta 97.431(3)
_cell_angle_gamma 97.238(3)
_cell_formula_units_Z 1
loop_
_atom_type_symbol
_atom_type_radius_bond
C 0.68
H 0.23
N 0.68
O 0.68
Zn 1.29
loop_
_atom_site_label
_atom_site_type_symbol
_atom_site_fract_x
_atom_site_fract_y
_atom_site_fract_z
Zn1 Zn 0.40150(3) 0.26895(3) 0.26366(2)
Zn2 Zn 0.50000 0.50000 0.50000
C1 C 0.4107(2) 0.5459(2) 0.2305(2)
C2 C 0.3901(3) 0.6590(2) 0.1564(2)
C3 C 0.3787(4) 0.6640(3) 0.0391(2)
H1 H 0.38280 0.59010 -0.01920
C4 C 0.3595(4) 0.8020(4) 0.0209(3)
H2 H 0.34780 0.83840 -0.05220
C5 C 0.3609(3) 0.8713(3) 0.1271(3)
C6 C 0.3579(4) 1.0184(3) 0.1678(5)
C7 C 1.2045(2) 0.3352(2) 0.4319(2)
C8 C 1.0566(2) 0.3297(2) 0.4671(2)
C9 C 1.0112(2) 0.3467(2) 0.5735(2)
H3 H 1.07140 0.36290 0.64740
C10 C 0.8566(2) 0.3356(2) 0.5529(2)
H4 H 0.79290 0.34250 0.61020
C11 C 0.8180(2) 0.3132(2) 0.4349(2)
C12 C 0.6774(2) 0.2981(2) 0.3579(2)
O1 O 0.4113(2) 0.42866(19) 0.17403(15)
O2 O 0.42370(18) 0.57420(19) 0.33914(14)
O3 O 0.38047(19) 0.78606(18) 0.21260(15)
O4 O 0.3898(3) 1.0568(3) 0.2747(4)
O5 O 0.3295(4) 1.1013(3) 0.0990(4)
O6 O 1.21362(17) 0.29016(19) 0.32799(16)
O7 O 1.30788(16) 0.38423(18) 0.51144(15)
O8 O 0.93921(16) 0.30708(17) 0.37975(14)
O9 O 0.6679(2) 0.2605(3) 0.25281(17)
O10 O 0.56306(16) 0.31991(17) 0.40710(14)
C13 C 0.0321(11) 0.9841(12) -0.2027(18)
H5 H -0.06270 0.97960 -0.25170
H6 H 0.01990 1.00070 -0.12000
H7 H 0.07050 0.89640 -0.21670
C14 C 0.2591(9) 1.1225(11) -0.2033(10)
H8 H 0.27730 1.19790 -0.25140
H9 H 0.31710 1.04940 -0.22370
H10 H 0.28680 1.15780 -0.12040
N1 N 0.1082(10) 1.0679(10) -0.224(2)
H11 H 0.06550 1.14410 -0.20250
H12 H 0.09010 1.05660 -0.30490
Zn1A Zn 0.59850(3) 0.73105(3) 0.73634(2)
Zn1* Zn 0.40150(3) 1.26895(3) 0.26366(2)
Zn1** Zn 1.40150(3) 0.26895(3) 0.26366(2)
Zn1A* Zn 0.59850(3) -0.26895(3) 0.73634(2)
Zn1A** Zn -0.40150(3) 0.73105(3) 0.73634(2)
Zn2* Zn 1.50000 0.50000 0.50000
Zn2** Zn -0.50000 0.50000 0.50000
C1A C 0.5893(2) 0.4541(2) 0.7695(2)
C2A C 0.6099(3) 0.3410(2) 0.8436(2)
C3A C 0.6213(4) 0.3360(3) 0.9609(2)
H1A H 0.61720 0.40990 1.01920
C4A C 0.6405(4) 0.1980(4) 0.9791(3)
H2A H 0.65220 0.16160 1.05220
C5A C 0.6391(3) 0.1287(3) 0.8729(3)
C6A C 0.6421(4) -0.0184(3) 0.8322(5)
C7A C -0.2045(2) 0.6648(2) 0.5681(2)
C8A C -0.0566(2) 0.6703(2) 0.5329(2)
C9A C -0.0112(2) 0.6533(2) 0.4265(2)
H3A H -0.07140 0.63710 0.35260
C10A C 0.1434(2) 0.6644(2) 0.4471(2)
H4A H 0.20710 0.65750 0.38980
C11A C 0.1820(2) 0.6868(2) 0.5651(2)
C12A C 0.3226(2) 0.7019(2) 0.6421(2)
O1A O 0.5887(2) 0.57134(19) 0.82597(15)
O2A O 0.57630(18) 0.42580(19) 0.66086(14)
O3A O 0.61953(19) 0.21394(18) 0.78740(15)
O4A O 0.6102(3) -0.0568(3) 0.7253(4)
O4* O 0.3898(3) 0.0568(3) 0.2747(4)
O4A* O 0.6102(3) 0.9432(3) 0.7253(4)
O5A O 0.6705(4) -0.1013(3) 0.9010(4)
O5* O 0.3295(4) 0.1013(3) 0.0990(4)
O5A* O 0.6705(4) 0.8987(3) 0.9010(4)
O6A O -0.21362(17) 0.70984(19) 0.67201(16)
O6* O 0.21362(17) 0.29016(19) 0.32799(16)
O6A* O 0.78638(17) 0.70984(19) 0.67201(16)
O7A O -0.30788(16) 0.61577(18) 0.48856(15)
O7* O 0.30788(16) 0.38423(18) 0.51144(15)
O7A* O 0.69212(16) 0.61577(18) 0.48856(15)
O8A O 0.06079(16) 0.69292(17) 0.62025(14)
O9A O 0.3321(2) 0.7395(3) 0.74719(17)
O10A O 0.43694(16) 0.68009(17) 0.59290(14)
#END
