
#######################################################################
#
#                 Cambridge Crystallographic Data Centre
#                                CCDC
#
#######################################################################
#
# If this CIF has been generated from an entry in the Cambridge
# Structural Database, then it will include bibliographic, chemical,
# crystal, experimental, refinement or atomic coordinate data resulting
# from the CCDC's data processing and validation procedures.
#
#######################################################################

data_CSD_CIF_DAXFEP
_audit_creation_date 2012-07-02
_audit_creation_method CSD-ConQuest-V1
_database_code_CSD DAXFEP
_database_code_depnum_ccdc_archive 'CCDC 854767'
_chemical_formula_sum 'C46 H46 Ag3 N7 O14'
_chemical_formula_moiety
;
(H4 N1 1+)n,n(C46 H30 Ag3 N6 O8 1-),6n(H2 O1)
;
_journal_coden_Cambridge 1147
_journal_volume 12
_journal_year 2012
_journal_page_first 1443
_journal_name_full 'Cryst.Growth Des. '
loop_
_publ_author_name
"Bo Li"
"Shuang-Quan Zang"
"Can Ji"
"Hong-Wei Hou"
"T.C.W.Mak"
_chemical_name_systematic
;
catena-[Ammonium 
tris(\m~2~-4,4'-bipyridine)-(biphenyl-2,2',6,6'-tetracarboxylato)-tri-silver(i
) hexahydrate]
;
_cell_volume   2406.757
_exptl_crystal_density_diffrn 1.717
_diffrn_ambient_temperature 296
#These two values have been output from a single CSD field.
_refine_ls_R_factor_gt 0.0653
_refine_ls_wR_factor_gt 0.0653
_symmetry_cell_setting monoclinic
_symmetry_space_group_name_H-M 'P 2/c'
_symmetry_Int_Tables_number 13
loop_
_symmetry_equiv_pos_site_id
_symmetry_equiv_pos_as_xyz
1 x,y,z
2 -x,y,1/2-z
3 -x,-y,-z
4 x,-y,-1/2+z
_cell_length_a 14.8314(11)
_cell_length_b 9.7047(17)
_cell_length_c 22.344(2)
_cell_angle_alpha 90
_cell_angle_beta 131.552(6)
_cell_angle_gamma 90
_cell_formula_units_Z 2
loop_
_atom_type_symbol
_atom_type_radius_bond
C 0.68
H 0.23
Ag 1.45
N 0.68
O 0.68
loop_
_atom_site_label
_atom_site_type_symbol
_atom_site_fract_x
_atom_site_fract_y
_atom_site_fract_z
N1 N 0.8075(11) 0.5350(13) 0.7034(7)
H1 H 0.75560 0.52520 0.70820
H2 H 0.84370 0.59860 0.72300
H3 H 0.84560 0.47330 0.70930
H4 H 0.77720 0.54100 0.66170
Ag1 Ag -0.50000 0.11680(9) 0.75000
Ag2 Ag 0.50235(4) -0.03539(10) 1.09206(4)
O1 O -0.3997(4) 0.3827(6) 0.9456(3)
O2 O -0.5166(4) 0.2852(6) 0.8270(3)
O3 O 0.4850(6) 0.2743(7) 0.9949(3)
H5 H 0.54570 0.28030 1.04070
H6 H 0.48310 0.33450 0.96960
N2 N 0.3114(4) 0.0022(7) 1.0183(3)
N3 N -0.3054(4) 0.0862(5) 0.8168(3)
N4 N 0.6919(4) -0.0374(7) 1.1542(3)
C1 C 0.2662(5) 0.1267(9) 1.0090(4)
H7 H 0.31800 0.20200 1.03080
C2 C 0.1464(5) 0.1493(7) 0.9686(3)
H8 H 0.11860 0.23830 0.96320
C3 C 0.0672(4) 0.0387(6) 0.9360(3)
C4 C 0.1148(5) -0.0901(7) 0.9441(4)
H9 H 0.06500 -0.16720 0.92180
C5 C 0.2353(5) -0.1039(8) 0.9850(4)
H10 H 0.26520 -0.19130 0.98980
C6 C -0.0615(4) 0.0571(6) 0.8950(3)
C7 C -0.1207(5) 0.1814(7) 0.8623(4)
H11 H -0.07910 0.25820 0.86680
C8 C -0.2421(5) 0.1916(7) 0.8229(4)
H12 H -0.28090 0.27540 0.79980
C9 C -0.2479(5) -0.0333(7) 0.8506(3)
H13 H -0.29070 -0.10680 0.84780
C10 C -0.1289(5) -0.0524(6) 0.8892(3)
H14 H -0.09270 -0.13750 0.91150
C11 C -0.3728(5) 0.4495(6) 0.8570(3)
C12 C -0.2478(5) 0.4620(7) 0.9162(4)
H15 H -0.20790 0.42290 0.96620
C13 C -0.1830(5) 0.5305(7) 0.9022(4)
H16 H -0.09940 0.53240 0.94120
C14 C -0.2416(6) 0.5968(7) 0.8304(4)
H17 H -0.19760 0.64440 0.82100
C15 C -0.3663(5) 0.5924(7) 0.7721(3)
C16 C -0.4324(4) 0.5139(6) 0.7835(3)
C17 C -0.4369(5) 0.3667(7) 0.8766(4)
O4 O -0.4957(5) 0.7821(6) 0.6969(4)
C18 C 0.8681(5) -0.1579(8) 1.2035(5)
H18 H 0.90370 -0.24230 1.21040
C19 C 0.9348(4) -0.0391(7) 1.2293(3)
C20 C 0.8744(5) 0.0808(8) 1.2165(4)
H19 H 0.91470 0.16470 1.23290
C21 C 0.7558(6) 0.0769(8) 1.1798(4)
H20 H 0.71770 0.15950 1.17230
C22 C 0.7490(6) -0.1525(9) 1.1675(5)
H21 H 0.70650 -0.23490 1.15160
C23 C -0.4297(7) 0.6911(10) 0.7023(5)
O5 O -0.4091(6) 0.6788(8) 0.6561(4)
O6 O 0.7354(7) 0.5610(8) 0.0655(4)
H22 H 0.72810 0.49810 0.04560
H23 H 0.68970 0.61810 0.03020
O7 O 0.9786(8) 0.4893(17) 0.1324(6)
H24 H 0.94730 0.48680 0.15080
H25 H 1.04440 0.50510 0.16490
Ag2A Ag -1.50235(4) -0.03539(10) 0.40794(4)
Ag2A* Ag 1.49765(4) -0.03539(10) 1.40794(4)
O1A O -0.6003(4) 0.3827(6) 0.5544(3)
O2A O -0.4834(4) 0.2852(6) 0.6730(3)
N2A N -1.3114(4) 0.0022(7) 0.4817(3)
N3A N -0.6946(4) 0.0862(5) 0.6832(3)
N4A N 1.3081(4) -0.0374(7) 1.3458(3)
N4A* N -1.6919(4) -0.0374(7) 0.3458(3)
C1A C -1.2662(5) 0.1267(9) 0.4910(4)
H7A H -1.31800 0.20200 0.46920
C2A C -1.1464(5) 0.1493(7) 0.5314(3)
H8A H -1.11860 0.23830 0.53680
C3A C -1.0672(4) 0.0387(6) 0.5640(3)
C4A C -1.1148(5) -0.0901(7) 0.5559(4)
H9A H -1.06500 -0.16720 0.57820
C5A C -1.2353(5) -0.1039(8) 0.5150(4)
H10A H -1.26520 -0.19130 0.51020
C6A C -0.9385(4) 0.0571(6) 0.6050(3)
C7A C -0.8793(5) 0.1814(7) 0.6377(4)
H11A H -0.92090 0.25820 0.63320
C8A C -0.7579(5) 0.1916(7) 0.6771(4)
H12A H -0.71910 0.27540 0.70020
C9A C -0.7521(5) -0.0333(7) 0.6494(3)
H13A H -0.70930 -0.10680 0.65220
C10A C -0.8711(5) -0.0524(6) 0.6108(3)
H14A H -0.90730 -0.13750 0.58850
C11A C -0.6272(5) 0.4495(6) 0.6430(3)
C12A C -0.7522(5) 0.4620(7) 0.5838(4)
H15A H -0.79210 0.42290 0.53380
C13A C -0.8170(5) 0.5305(7) 0.5978(4)
H16A H -0.90060 0.53240 0.55880
C14A C -0.7584(6) 0.5968(7) 0.6696(4)
H17A H -0.80240 0.64440 0.67900
C15A C -0.6337(5) 0.5924(7) 0.7279(3)
C16A C -0.5676(4) 0.5139(6) 0.7165(3)
C17A C -0.5631(5) 0.3667(7) 0.6234(4)
O4A O -0.5043(5) 0.7821(6) 0.8031(4)
C18A C 1.1319(5) -0.1579(8) 1.2965(5)
H18A H 1.09630 -0.24230 1.28960
C19A C 1.0652(4) -0.0391(7) 1.2707(3)
C20A C 1.1256(5) 0.0808(8) 1.2835(4)
H19A H 1.08530 0.16470 1.26710
C21A C 1.2442(6) 0.0769(8) 1.3202(4)
H20A H 1.28230 0.15950 1.32770
C22A C 1.2510(6) -0.1525(9) 1.3325(5)
H21A H 1.29350 -0.23490 1.34840
C23A C -0.5703(7) 0.6911(10) 0.7977(5)
O5A O -0.5909(6) 0.6788(8) 0.8439(4)
#END
