
#######################################################################
#
#                 Cambridge Crystallographic Data Centre
#                                CCDC
#
#######################################################################
#
# If this CIF has been generated from an entry in the Cambridge
# Structural Database, then it will include bibliographic, chemical,
# crystal, experimental, refinement or atomic coordinate data resulting
# from the CCDC's data processing and validation procedures.
#
#######################################################################

data_CSD_CIF_DAXKUK
_audit_creation_date 2012-07-02
_audit_creation_method CSD-ConQuest-V1
_database_code_CSD DAXKUK
_database_code_depnum_ccdc_archive 'CCDC 855533'
_chemical_formula_sum 'C42 H48 In3 N15 O30'
_chemical_formula_moiety
;
(C2 H8 N1 1+)3n,n(C36 H12 In3 N12 O24 3-),6n(H2 O1)
;
_journal_coden_Cambridge 1147
_journal_volume 12
_journal_year 2012
_journal_page_first 1501
_journal_name_full 'Cryst.Growth Des. '
loop_
_publ_author_name
"J.Cepeda"
"G.Beobide"
"O.Castillo"
"A.Luque"
"S.Perez-Yanez"
"P.Roman"
_chemical_name_systematic
;
catena-[tris(Dimethylammonium) 
hexakis(\m~2~-pyridazine-3,6-dicarboxylato)-indium(iii) hexahydrate]
;
_cell_volume  10839.001
_exptl_crystal_colour 'colorless'
_exptl_crystal_description 'trigonal prism'
_diffrn_ambient_temperature 100
_refine_special_details
;
C23,N22 disordered by symmetry over three sites with occupancy 0.33. 
Disordered solvent water molecules were not modelled and the disordered 
density was taken into account using the SQUEEZE/PLATON procedure.
;
#These two values have been output from a single CSD field.
_refine_ls_R_factor_gt 0.0416
_refine_ls_wR_factor_gt 0.0416
_symmetry_cell_setting rhombohedral
_symmetry_space_group_name_H-M 'R -3 c'
_symmetry_Int_Tables_number 167
loop_
_symmetry_equiv_pos_site_id
_symmetry_equiv_pos_as_xyz
1 x,y,z
2 -y,x-y,z
3 -x+y,-x,z
4 x-y,-y,1/2-z
5 -x,-x+y,1/2-z
6 y,x,1/2-z
7 2/3+x,1/3+y,1/3+z
8 2/3-y,1/3+x-y,1/3+z
9 2/3-x+y,1/3-x,1/3+z
10 2/3+x-y,1/3-y,5/6-z
11 2/3-x,1/3-x+y,5/6-z
12 2/3+y,1/3+x,5/6-z
13 1/3+x,2/3+y,2/3+z
14 1/3-y,2/3+x-y,2/3+z
15 1/3-x+y,2/3-x,2/3+z
16 1/3+x-y,2/3-y,1/6-z
17 1/3-x,2/3-x+y,1/6-z
18 1/3+y,2/3+x,1/6-z
19 -x,-y,-z
20 y,-x+y,-z
21 x-y,x,-z
22 -x+y,y,-1/2+z
23 x,x-y,-1/2+z
24 -y,-x,-1/2+z
25 -2/3-x,-1/3-y,-1/3-z
26 -2/3+y,-1/3-x+y,-1/3-z
27 -2/3+x-y,-1/3+x,-1/3-z
28 -2/3-x+y,-1/3+y,-5/6+z
29 -2/3+x,-1/3+x-y,-5/6+z
30 -2/3-y,-1/3-x,-5/6+z
31 -1/3-x,-2/3-y,-2/3-z
32 -1/3+y,-2/3-x+y,-2/3-z
33 -1/3+x-y,-2/3+x,-2/3-z
34 -1/3-x+y,-2/3+y,-1/6+z
35 -1/3+x,-2/3+x-y,-1/6+z
36 -1/3-y,-2/3-x,-1/6+z
_cell_length_a 15.380(1)
_cell_length_b 15.380(1)
_cell_length_c 52.911(1)
_cell_angle_alpha 90
_cell_angle_beta 90
_cell_angle_gamma 120
_cell_formula_units_Z 18
loop_
_atom_type_symbol
_atom_type_radius_bond
C 0.68
H 0.23
In 1.42
N 0.52
O 0.68
loop_
_atom_site_label
_atom_site_type_symbol
_atom_site_fract_x
_atom_site_fract_y
_atom_site_fract_z
In1 In 0.54890 0.000000(18) 0.25000
N1 N 0.68579(25) 0.10694(18) 0.27352(5)
N2 N 0.74912(26) 0.20292(19) 0.26708(5)
C1 C 0.8224(3) 0.2593(2) 0.28311(6)
C2 C 0.8360(4) 0.2233(3) 0.30619(7)
H1 H 0.88820 0.26480 0.31700
C3 C 0.7703(4) 0.1250(3) 0.31260(7)
H2 H 0.77630 0.09760 0.32770
C4 C 0.6942(3) 0.0684(2) 0.29534(6)
C5 C 0.8922(3) 0.3672(2) 0.27557(6)
O1 O 0.50354(17) 0.11194(23) 0.25283(4)
O2 O 0.94932(27) 0.4257(2) 0.29159(5)
C6 C 0.6156(3) -0.0403(2) 0.29968(6)
O3 O 0.55682(23) -0.08635(17) 0.28133(4)
O4 O 0.61445(28) -0.0760(2) 0.32055(5)
C7 C 0.66670 0.33330 0.22757(18)
N3 N 0.6678(12) 0.309(4) 0.2009(3)
C8 C 0.7670(7) 0.3318(8) 0.19168(17)
In1B In 0.45110 0.451100(18) 0.25000
In1A In 1.00000 0.548900(18) 0.25000
In1* In 1.54890 1.000000(18) 0.25000
In1A* In 0.00000 0.548900(18) 0.25000
In1B* In 0.45110 -0.548900(18) 0.25000
N1C N 0.57885(25) -0.10694(18) 0.22648(5)
N1B N 0.42115(25) 0.31421(18) 0.27352(5)
N1D N 0.31421(25) 0.42115(18) 0.22648(5)
N1A N 0.89306(25) 0.57885(18) 0.27352(5)
N1E N 1.10694(25) 0.68579(18) 0.22648(5)
N2C N 0.54620(26) -0.20292(19) 0.23292(5)
N2B N 0.45380(26) 0.25088(19) 0.26708(5)
N2D N 0.25088(26) 0.45380(19) 0.23292(5)
N2A N 0.79708(26) 0.54620(19) 0.26708(5)
N2E N 1.20292(26) 0.74912(19) 0.23292(5)
C1C C 0.5631(3) -0.2593(2) 0.21689(6)
C1B C 0.4369(3) 0.1776(2) 0.28311(6)
C1D C 0.1776(3) 0.4369(2) 0.21689(6)
C1A C 0.7407(3) 0.5631(2) 0.28311(6)
C1E C 1.2593(3) 0.8224(2) 0.21689(6)
C2C C 0.6127(4) -0.2233(3) 0.19381(7)
C2D C 0.1640(4) 0.3873(3) 0.19381(7)
C2E C 1.2233(4) 0.8360(3) 0.19381(7)
C2A C 0.7767(4) 0.6127(3) 0.30619(7)
C2B C 0.3873(4) 0.1640(3) 0.30619(7)
H1C H 0.62340 -0.26480 0.18300
H1D H 0.11180 0.37660 0.18300
H1E H 1.26480 0.88820 0.18300
H1A H 0.73520 0.62340 0.31700
H1B H 0.37660 0.11180 0.31700
C3C C 0.6453(4) -0.1250(3) 0.18740(7)
C3D C 0.2297(4) 0.3547(3) 0.18740(7)
C3E C 1.1250(4) 0.7703(3) 0.18740(7)
C3A C 0.8750(4) 0.6453(3) 0.31260(7)
C3B C 0.3547(4) 0.2297(3) 0.31260(7)
H2C H 0.67870 -0.09760 0.17230
H2D H 0.22370 0.32130 0.17230
H2E H 1.09760 0.77630 0.17230
H2A H 0.90240 0.67870 0.32770
H2B H 0.32130 0.22370 0.32770
C4C C 0.6258(3) -0.0684(2) 0.20466(6)
C4D C 0.3058(3) 0.3742(2) 0.20466(6)
C4E C 1.0684(3) 0.6942(2) 0.20466(6)
C4A C 0.9316(3) 0.6258(2) 0.29534(6)
C4B C 0.3742(3) 0.3058(2) 0.29534(6)
C5B C 0.4750(3) 0.1078(2) 0.27557(6)
C5A C 0.6328(3) 0.5250(2) 0.27557(6)
C5E C 1.3672(3) 0.8922(2) 0.22443(6)
C5D C 0.1078(3) 0.4750(2) 0.22443(6)
C5C C 0.5250(3) -0.3672(2) 0.22443(6)
O1B O 0.60840(17) 0.49646(23) 0.25283(4)
O1A O 0.88806(17) 0.39160(23) 0.25283(4)
O1E O 1.11194(17) 0.50354(23) 0.24717(4)
O1C O 1.39160(17) 0.88806(23) 0.24717(4)
O1D O 0.49646(17) 0.60840(23) 0.24717(4)
O1C* O 0.39160(17) -0.11194(23) 0.24717(4)
O1E* O 0.11194(17) 0.50354(23) 0.24717(4)
O1D* O 0.49646(17) -0.39160(23) 0.24717(4)
O2E O 1.42570(27) 0.94932(20) 0.20841(5)
O2A O 0.57430(27) 0.52362(20) 0.29159(5)
O2B O 0.47638(27) 0.05068(20) 0.29159(5)
O2D O 0.05068(27) 0.47638(20) 0.20841(5)
O2C O 0.52362(27) -0.4257(2) 0.20841(5)
C6C C 0.6559(3) 0.0403(2) 0.20032(6)
C6D C 0.3844(3) 0.3441(2) 0.20032(6)
C6E C 0.9597(3) 0.6156(2) 0.20032(6)
C6A C 1.0403(3) 0.6559(2) 0.29968(6)
C6B C 0.3441(3) 0.3844(2) 0.29968(6)
O3C O 0.64317(23) 0.08635(17) 0.21867(4)
O3D O 0.44318(23) 0.35683(17) 0.21867(4)
O3E O 0.91365(23) 0.55682(17) 0.21867(4)
O3A O 1.08635(23) 0.64317(17) 0.28133(4)
O3B O 0.35683(23) 0.44318(17) 0.28133(4)
O4A O 1.07600(28) 0.69045(20) 0.32055(5)
O4E O 0.92400(28) 0.61445(20) 0.17945(5)
O4B O 0.30955(28) 0.38555(20) 0.32055(5)
O4D O 0.38555(28) 0.30955(20) 0.17945(5)
O4C O 0.69045(28) 0.0760(2) 0.17945(5)
N3A N 0.6910(12) 0.3588(40) 0.2009(3)
N3B N 0.6412(12) 0.3322(40) 0.2009(3)
C8B C 0.5648(7) 0.2330(8) 0.19168(17)
C8A C 0.6682(7) 0.4352(8) 0.19168(17)
#END
