
#######################################################################
#
#                 Cambridge Crystallographic Data Centre
#                                CCDC
#
#######################################################################
#
# If this CIF has been generated from an entry in the Cambridge
# Structural Database, then it will include bibliographic, chemical,
# crystal, experimental, refinement or atomic coordinate data resulting
# from the CCDC's data processing and validation procedures.
#
#######################################################################

data_CSD_CIF_DAXKIY
_audit_creation_date 2012-07-02
_audit_creation_method CSD-ConQuest-V1
_database_code_CSD DAXKIY
_database_code_depnum_ccdc_archive 'CCDC 855531'
_chemical_formula_sum 'C16 H20 In1 N5 O10'
_chemical_formula_moiety
;
(C4 H12 N1 1+)n,n(C12 H4 In1 N4 O8 1-),2n(H2 O1)
;
_journal_coden_Cambridge 1147
_journal_volume 12
_journal_year 2012
_journal_page_first 1501
_journal_name_full 'Cryst.Growth Des. '
loop_
_publ_author_name
"J.Cepeda"
"G.Beobide"
"O.Castillo"
"A.Luque"
"S.Perez-Yanez"
"P.Roman"
_chemical_name_systematic
;
catena-[Tetramethylammonium bis(\m~2~-pyrazine-2,5-dicarboxylato)-indium(iii) 
dihydrate]
;
_cell_volume   2050.625
_exptl_crystal_colour 'colorless'
_exptl_crystal_density_diffrn 1.805
_exptl_crystal_description 'prismatic'
_diffrn_ambient_temperature 100
#These two values have been output from a single CSD field.
_refine_ls_R_factor_gt 0.0313
_refine_ls_wR_factor_gt 0.0313
_symmetry_cell_setting tetragonal
_symmetry_space_group_name_H-M 'I 41/a'
_symmetry_Int_Tables_number 88
loop_
_symmetry_equiv_pos_site_id
_symmetry_equiv_pos_as_xyz
1 x,y,z
2 -x,1/2-y,z
3 3/4-y,1/4+x,1/4+z
4 1/4+y,1/4-x,1/4+z
5 1/2+x,1/2+y,1/2+z
6 1/2-x,-y,1/2+z
7 1/4-y,3/4+x,3/4+z
8 3/4+y,3/4-x,3/4+z
9 -x,-y,-z
10 x,-1/2+y,-z
11 -3/4+y,-1/4-x,-1/4-z
12 -1/4-y,-1/4+x,-1/4-z
13 -1/2-x,-1/2-y,-1/2-z
14 -1/2+x,y,-1/2-z
15 -1/4+y,-3/4-x,-3/4-z
16 -3/4-y,-3/4+x,-3/4-z
_cell_length_a 9.159(3)
_cell_length_b 9.159(3)
_cell_length_c 24.445(14)
_cell_angle_alpha 90
_cell_angle_beta 90
_cell_angle_gamma 90
_cell_formula_units_Z 4
loop_
_atom_type_symbol
_atom_type_radius_bond
C 0.68
H 0.23
In 1.42
N 0.68
O 0.68
loop_
_atom_site_label
_atom_site_type_symbol
_atom_site_fract_x
_atom_site_fract_y
_atom_site_fract_z
In1 In 0.00000 0.25000 0.62500
N1 N 0.0147(3) 0.0932(3) 0.54413(10)
C1 C 0.1321(4) 0.0431(3) 0.51775(12)
H1 H 0.22490 0.07090 0.52920
C2 C -0.1169(4) 0.0502(3) 0.52670(12)
C3 C -0.2492(4) 0.1078(4) 0.55761(12)
O1 O -0.2207(2) 0.1935(2) 0.59799(9)
O2 O -0.3708(3) 0.0677(3) 0.54293(10)
N2 N -0.50000 0.75000 0.62500
C4 C -0.3810(5) 0.6911(5) 0.58933(17)
H2 H -0.34560 0.76730 0.56580
H3 H -0.41850 0.61240 0.56750
H4 H -0.30250 0.65600 0.61180
O3 O -0.50000 0.25000 0.65895(15)
H5 H -0.42150 0.23230 0.63430
In1F In 0.00000 -0.25000 0.37500
In1F* In 0.00000 0.75000 0.37500
N1H N -0.0147(3) -0.0932(3) 0.45587(10)
N1A N -0.0147(3) 0.4068(3) 0.54413(10)
N1I N 0.0147(3) 0.5932(3) 0.45587(10)
N1N N -0.1568(3) 0.2353(3) 0.70587(10)
N1O N 0.1568(3) 0.2647(3) 0.70587(10)
C1H C -0.1321(4) -0.0431(3) 0.48225(12)
C1A C -0.1321(4) 0.4569(3) 0.51775(12)
C1I C 0.1321(4) 0.5431(3) 0.48225(12)
H1H H -0.22490 -0.07090 0.47080
H1A H -0.22490 0.42910 0.52920
H1I H 0.22490 0.57090 0.47080
C2H C 0.1169(4) -0.0502(3) 0.47330(12)
C2A C 0.1169(4) 0.4498(3) 0.52670(12)
C2I C -0.1169(4) 0.5502(3) 0.47330(12)
C3H C 0.2492(4) -0.1078(4) 0.44239(12)
C3A C 0.2492(4) 0.3922(4) 0.55761(12)
C3I C -0.2492(4) 0.6078(4) 0.44239(12)
O1H O 0.2207(2) -0.1935(2) 0.40201(9)
O1A O 0.2207(2) 0.3065(2) 0.59799(9)
O1I O -0.2207(2) 0.6935(2) 0.40201(9)
O1N O -0.0565(2) 0.4707(2) 0.65201(9)
O1O O 0.0565(2) 0.0293(2) 0.65201(9)
O2H O 0.3708(3) -0.0677(3) 0.45707(10)
O2A O 0.3708(3) 0.4323(3) 0.54293(10)
O2I O -0.3708(3) 0.5677(3) 0.45707(10)
C4A C -0.6190(5) 0.8089(5) 0.58933(17)
C4N C -0.5589(5) 0.6310(5) 0.66067(17)
C4O C -0.4411(5) 0.8690(5) 0.66067(17)
H2A H -0.65440 0.73270 0.56580
H2N H -0.48270 0.59560 0.68420
H2O H -0.51730 0.90440 0.68420
H3A H -0.58150 0.88760 0.56750
H3N H -0.63760 0.66850 0.68250
H3O H -0.36240 0.83150 0.68250
H4A H -0.69750 0.84400 0.61180
H4N H -0.59400 0.55250 0.63820
H4O H -0.40600 0.94750 0.63820
H5A H -0.57850 0.26770 0.63430
#END
