
#######################################################################
#
#                 Cambridge Crystallographic Data Centre
#                                CCDC
#
#######################################################################
#
# If this CIF has been generated from an entry in the Cambridge
# Structural Database, then it will include bibliographic, chemical,
# crystal, experimental, refinement or atomic coordinate data resulting
# from the CCDC's data processing and validation procedures.
#
#######################################################################

data_CSD_CIF_DAXLAR
_audit_creation_date 2012-07-02
_audit_creation_method CSD-ConQuest-V1
_database_code_CSD DAXLAR
_database_code_depnum_ccdc_archive 'CCDC 855534'
_chemical_formula_sum 'C14 H12 In1 N5 O8'
_chemical_formula_moiety
;
(C2 H8 N1 1+)n,n(C12 H4 In1 N4 O8 1-)
;
_journal_coden_Cambridge 1147
_journal_volume 12
_journal_year 2012
_journal_page_first 1501
_journal_name_full 'Cryst.Growth Des. '
loop_
_publ_author_name
"J.Cepeda"
"G.Beobide"
"O.Castillo"
"A.Luque"
"S.Perez-Yanez"
"P.Roman"
_chemical_name_systematic
;
catena-[Dimethylammonium bis(\m~2~-pyridazine-3,6-dicarboxylato)-indium(iii)]
;
_cell_volume   1713.001
_exptl_crystal_colour 'light brown'
_exptl_crystal_density_diffrn 1.912
_exptl_crystal_description 'pyramidal'
_diffrn_ambient_temperature 100
#These two values have been output from a single CSD field.
_refine_ls_R_factor_gt 0.0306
_refine_ls_wR_factor_gt 0.0306
_symmetry_cell_setting orthorhombic
_symmetry_space_group_name_H-M 'A b a 2'
_symmetry_Int_Tables_number 41
loop_
_symmetry_equiv_pos_site_id
_symmetry_equiv_pos_as_xyz
1 x,y,z
2 -x,-y,z
3 1/2-x,1/2+y,z
4 1/2+x,1/2-y,z
5 x,1/2+y,1/2+z
6 -x,1/2-y,1/2+z
7 1/2-x,y,1/2+z
8 1/2+x,-y,1/2+z
_cell_length_a 12.928(2)
_cell_length_b 10.806(2)
_cell_length_c 12.262(3)
_cell_angle_alpha 90
_cell_angle_beta 90
_cell_angle_gamma 90
_cell_formula_units_Z 4
loop_
_atom_type_symbol
_atom_type_radius_bond
C 0.68
H 0.23
In 1.42
N 0.68
O 0.68
loop_
_atom_site_label
_atom_site_type_symbol
_atom_site_fract_x
_atom_site_fract_y
_atom_site_fract_z
In1 In 0.50000 0.50000 0.82318(7)
N1 N 0.4114(3) 0.4173(3) 0.6812(3)
N2 N 0.3185(3) 0.4611(4) 0.6298(3)
C1 C 0.2832(4) 0.4143(4) 0.5408(3)
C2 C 0.3438(4) 0.3221(4) 0.5007(3)
H1 H 0.32380 0.28320 0.43640
C3 C 0.4409(4) 0.2805(4) 0.5553(3)
H2 H 0.48050 0.21840 0.52340
C4 C 0.4716(4) 0.3299(4) 0.6478(4)
C5 C 0.1757(5) 0.4675(5) 0.4884(4)
O1 O 0.1260(3) 0.5477(3) 0.5245(3)
O2 O 0.1427(3) 0.4192(3) 0.4032(2)
C6 C 0.5743(3) 0.2903(4) 0.7186(3)
O3 O 0.6022(2) 0.3516(2) 0.7959(2)
O4 O 0.6241(3) 0.2023(3) 0.6976(3)
C7 C 0.5963(5) -0.0540(5) 0.7883(4)
H3 H 0.63300 0.01190 0.82380
H4 H 0.64110 -0.09380 0.73660
H5 H 0.57390 -0.11320 0.84170
N3 N 0.50000 0.00000 0.7276(5)
H6 H 0.47640 -0.06050 0.68380
In1F In 0.00000 0.50000 0.32318(7)
In1F* In 1.00000 0.50000 0.32318(7)
N1A N 0.5886(3) 0.5827(3) 0.6812(3)
N2A N 0.6815(3) 0.5389(4) 0.6298(3)
C1A C 0.7168(4) 0.5857(4) 0.5408(3)
C2A C 0.6562(4) 0.6779(4) 0.5007(3)
H1A H 0.67620 0.71680 0.43640
C3A C 0.5591(4) 0.7195(4) 0.5553(3)
H2A H 0.51950 0.78160 0.52340
C4A C 0.5284(4) 0.6701(4) 0.6478(4)
C5A C 0.8243(5) 0.5325(5) 0.4884(4)
O1A O 0.8740(3) 0.4523(3) 0.5245(3)
O2F O 0.3573(3) 0.4192(3) 0.9032(2)
O2G O 0.6427(3) 0.5808(3) 0.9032(2)
O2A O 0.8573(3) 0.5808(3) 0.4032(2)
C6A C 0.4257(3) 0.7097(4) 0.7186(3)
O3A O 0.3978(2) 0.6484(2) 0.7959(2)
O4A O 0.3759(3) 0.7977(3) 0.6976(3)
C7A C 0.4037(5) 0.0540(5) 0.7883(4)
H3A H 0.36700 -0.01190 0.82380
H4A H 0.35890 0.09380 0.73660
H5A H 0.42610 0.11320 0.84170
H6A H 0.52360 0.06050 0.68380
#END
