
#######################################################################
#
#                 Cambridge Crystallographic Data Centre
#                                CCDC
#
#######################################################################
#
# If this CIF has been generated from an entry in the Cambridge
# Structural Database, then it will include bibliographic, chemical,
# crystal, experimental, refinement or atomic coordinate data resulting
# from the CCDC's data processing and validation procedures.
#
#######################################################################

data_CSD_CIF_DAXNIA03
_audit_creation_date 2013-07-18
_audit_creation_method CSD-ConQuest-V1
_database_code_CSD DAXNIA03
_database_code_depnum_ccdc_archive 'CCDC 790008'
_chemical_formula_sum 'C5 H11 N1 O6 Zn1'
_chemical_formula_moiety
;
(C3 H3 O6 Zn1 1-)n,n(C2 H8 N1 1+)
;
_journal_coden_Cambridge 9
_journal_volume 52
_journal_year 2013
_journal_page_first 3620
_journal_name_full 'Inorg.Chem. '
loop_
_publ_author_name
"Chao Zou"
"Tianfu Zhang"
"Ming-Hua Xie"
"Lijun Yan"
"Guo-Qiang Kong"
"Xiu-Li Yang"
"An Ma"
"Chuan-De Wu"
_chemical_name_systematic
;
catena-((dimethylammonium) tris(\m~2~-formato)-zinc)
;
_cell_volume   1293.828
_exptl_crystal_colour 'colorless'
_exptl_crystal_density_diffrn 1.898
_exptl_crystal_description 'block'
_diffrn_ambient_temperature 293
_refine_special_details
;
N1 disordered by symmetry over three sites with occupancy 0.33.

;
#These two values have been output from a single CSD field.
_refine_ls_R_factor_gt 0.0255
_refine_ls_wR_factor_gt 0.0255
_symmetry_cell_setting rhombohedral
_symmetry_space_group_name_H-M 'R -3 c'
_symmetry_Int_Tables_number 167
loop_
_symmetry_equiv_pos_site_id
_symmetry_equiv_pos_as_xyz
1 x,y,z
2 -y,x-y,z
3 -x+y,-x,z
4 y,x,1/2-z
5 x-y,-y,1/2-z
6 -x,-x+y,1/2-z
7 2/3+x,1/3+y,1/3+z
8 2/3-y,1/3+x-y,1/3+z
9 2/3-x+y,1/3-x,1/3+z
10 2/3+y,1/3+x,5/6-z
11 2/3+x-y,1/3-y,5/6-z
12 2/3-x,1/3-x+y,5/6-z
13 1/3+x,2/3+y,2/3+z
14 1/3-y,2/3+x-y,2/3+z
15 1/3-x+y,2/3-x,2/3+z
16 1/3+y,2/3+x,1/6-z
17 1/3+x-y,2/3-y,1/6-z
18 1/3-x,2/3-x+y,1/6-z
19 -x,-y,-z
20 y,-x+y,-z
21 x-y,x,-z
22 -y,-x,-1/2+z
23 -x+y,y,-1/2+z
24 x,x-y,-1/2+z
25 -2/3-x,-1/3-y,-1/3-z
26 -2/3+y,-1/3-x+y,-1/3-z
27 -2/3+x-y,-1/3+x,-1/3-z
28 -2/3-y,-1/3-x,-5/6+z
29 -2/3-x+y,-1/3+y,-5/6+z
30 -2/3+x,-1/3+x-y,-5/6+z
31 -1/3-x,-2/3-y,-2/3-z
32 -1/3+y,-2/3-x+y,-2/3-z
33 -1/3+x-y,-2/3+x,-2/3-z
34 -1/3-y,-2/3-x,-1/6+z
35 -1/3-x+y,-2/3+y,-1/6+z
36 -1/3+x,-2/3+x-y,-1/6+z
_cell_length_a 8.1913(3)
_cell_length_b 8.1913(3)
_cell_length_c 22.2659(10)
_cell_angle_alpha 90
_cell_angle_beta 90
_cell_angle_gamma 120
_cell_formula_units_Z 6
loop_
_atom_type_symbol
_atom_type_radius_bond
C 0.68
H 0.23
N 0.68
O 0.68
Zn 1.22
loop_
_atom_site_label
_atom_site_type_symbol
_atom_site_fract_x
_atom_site_fract_y
_atom_site_fract_z
Zn1 Zn 0.00000 0.00000 0.00000
O1 O 0.2160(3) 0.2083(3) 0.05362(8)
C1 C 0.2093(5) 0.33330 0.08330
H1 H 0.09580 0.33330 0.08330
C2 C 0.00000 0.00000 -0.1944(3)
N1 N 0.0853(14) 0.00000 -0.25000
O1P O 0.341033(300) 0.458367(300) 0.113047(80)
O1A O -0.2083(3) 0.0077(3) 0.05362(8)
C1A C -0.3333(5) -0.12400 0.08330
H1A H -0.33330 -0.23750 0.08330
O1O O -0.458367(300) -0.117333(300) 0.113047(80)
O1B O -0.0077(3) -0.2160(3) 0.05362(8)
C1B C 0.1240(5) -0.20930 0.08330
H1B H 0.23750 -0.09580 0.08330
O1Q O 0.117333(300) -0.341033(300) 0.113047(80)
Zn1O Zn -0.66667 -0.33333 0.16667
Zn1O* Zn 0.33333 -0.33333 0.16667
Zn1O** Zn 0.33333 0.66667 0.16667
O1R O -0.2160(3) -0.2083(3) -0.05362(8)
O1S O 0.2083(3) -0.0077(3) -0.05362(8)
O1T O 0.0077(3) 0.2160(3) -0.05362(8)
N1A N 0.0000(14) 0.08530 -0.25000
N1B N -0.0853(14) -0.08530 -0.25000
C2C C 0.00000 0.00000 -0.3056(3)
#END
