
#######################################################################
#
#                 Cambridge Crystallographic Data Centre
#                                CCDC
#
#######################################################################
#
# If this CIF has been generated from an entry in the Cambridge
# Structural Database, then it will include bibliographic, chemical,
# crystal, experimental, refinement or atomic coordinate data resulting
# from the CCDC's data processing and validation procedures.
#
#######################################################################

data_CSD_CIF_DAXNIA01
_audit_creation_date 2009-02-13
_audit_creation_method CSD-ConQuest-V1
_database_code_CSD DAXNIA01
_database_code_depnum_ccdc_archive 'CCDC 703288'
_chemical_formula_sum 'C5 H11 N1 O6 Zn1'
_chemical_formula_moiety
;
(C2 H8 N1 1+)n,n(C3 H3 O6 Zn1 1-)
;
_journal_coden_Cambridge 4
_journal_volume 130
_journal_year 2008
_journal_page_first 10450
_journal_name_full 'J.Am.Chem.Soc. '
loop_
_publ_author_name
"P.Jain"
"N.S.Dalal"
"B.H.Toby"
"H.W.Kroto"
"A.K.Cheetham"
_chemical_name_systematic
;
catena-(Dimethylammonium tris(\m~2~-formato)-zinc(ii))
;
_cell_volume   1294.821
_exptl_crystal_colour 'colorless'
_exptl_crystal_density_diffrn 1.897
_exptl_special_details
;
an order-disorder phase transition at 156K between paraelectric and 
antiferroelectric states
;
_diffrn_ambient_temperature 273
_refine_special_details
;
The nitrogen atom of the cation is equally disordered over three sites by 
symmetry.
;
#These two values have been output from a single CSD field.
_refine_ls_R_factor_gt 0.0236
_refine_ls_wR_factor_gt 0.0236
_symmetry_cell_setting rhombohedral
_symmetry_space_group_name_H-M 'R -3 c'
_symmetry_Int_Tables_number 167
loop_
_symmetry_equiv_pos_site_id
_symmetry_equiv_pos_as_xyz
1 x,y,z
2 -y,x-y,z
3 -x+y,-x,z
4 y,x,1/2-z
5 2/3+x,1/3+y,1/3+z
6 2/3-y,1/3+x-y,1/3+z
7 2/3-x+y,1/3-x,1/3+z
8 2/3+y,1/3+x,5/6-z
9 1/3+x,2/3+y,2/3+z
10 1/3+y,2/3+x,1/6-z
11 x-y,-y,1/2-z
12 -x,-x+y,1/2-z
13 1/3-y,2/3+x-y,2/3+z
14 1/3-x+y,2/3-x,2/3+z
15 1/3+x-y,2/3-y,1/6-z
16 1/3-x,2/3-x+y,1/6-z
17 2/3+x-y,1/3-y,5/6-z
18 2/3-x,1/3-x+y,5/6-z
19 -x,-y,-z
20 y,-x+y,-z
21 x-y,x,-z
22 -y,-x,-1/2+z
23 -2/3-x,-1/3-y,-1/3-z
24 -2/3+y,-1/3-x+y,-1/3-z
25 -2/3+x-y,-1/3+x,-1/3-z
26 -2/3-y,-1/3-x,-5/6+z
27 -1/3-x,-2/3-y,-2/3-z
28 -1/3-y,-2/3-x,-1/6+z
29 -x+y,y,-1/2+z
30 x,x-y,-1/2+z
31 -1/3+y,-2/3-x+y,-2/3-z
32 -1/3+x-y,-2/3+x,-2/3-z
33 -1/3-x+y,-2/3+y,-1/6+z
34 -1/3+x,-2/3+x-y,-1/6+z
35 -2/3-x+y,-1/3+y,-5/6+z
36 -2/3+x,-1/3+x-y,-5/6+z
_cell_length_a 8.1924(8)
_cell_length_b 8.1924(8)
_cell_length_c 22.277(2)
_cell_angle_alpha 90
_cell_angle_beta 90
_cell_angle_gamma 120
_cell_formula_units_Z 6
loop_
_atom_type_symbol
_atom_type_radius_bond
C 0.68
H 0.23
N 0.68
O 0.68
Zn 1.45
loop_
_atom_site_label
_atom_site_type_symbol
_atom_site_fract_x
_atom_site_fract_y
_atom_site_fract_z
C1 C 0.66670 0.33330 0.1376(2)
N1 N 0.66670 0.2462(11) 0.08330
H1 H 0.71(2) 0.255(16) 0.1577(13)
Zn1 Zn 0.00000 0.00000 0.00000
O1 O -0.0079(2) 0.2086(2) 0.05383(7)
C2 C 0.1236(4) 0.33330 0.08330
H2 H 0.226(4) 0.33330 0.08330
C1I C 0.66663 0.33337 0.029067(200)
N1I N 0.57953 0.333367(1100) 0.08337
N1A N 0.75380 0.4205(11) 0.08330
H1I H 0.588333(20000) 0.376667(16000) 0.008967(1300)
H1N H 0.788333(20000) 0.411667(16000) 0.008967(1300)
H1O H 0.623333(20000) 0.211667(16000) 0.008967(1300)
H1A H 0.745(20) 0.455(16) 0.1577(13)
H1B H 0.545(20) 0.290(16) 0.1577(13)
Zn1I Zn 0.33333 0.66667 0.16667
Zn1I* Zn -0.66667 -0.33333 0.16667
Zn1I** Zn 0.33333 -0.33333 0.16667
O1N O 0.116833(200) 0.458067(200) 0.112837(70)
O1A O -0.2086(2) -0.2165(2) 0.05383(7)
O1I O -0.458067(200) -0.341233(200) 0.112837(70)
O1B O 0.2165(2) 0.0079(2) 0.05383(7)
O1O O 0.341233(200) -0.116833(200) 0.112837(70)
O1R O 0.0079(2) -0.2086(2) -0.05383(7)
O1S O 0.2086(2) 0.2165(2) -0.05383(7)
O1T O -0.2165(2) -0.0079(2) -0.05383(7)
C2A C -0.3333(4) -0.20970 0.08330
C2B C 0.2097(4) -0.12360 0.08330
H2A H -0.3333(40) -0.10730 0.08330
H2B H 0.1073(40) -0.22600 0.08330
#END
