
#######################################################################
#
#                 Cambridge Crystallographic Data Centre
#                                CCDC
#
#######################################################################
#
# If this CIF has been generated from an entry in the Cambridge
# Structural Database, then it will include bibliographic, chemical,
# crystal, experimental, refinement or atomic coordinate data resulting
# from the CCDC's data processing and validation procedures.
#
#######################################################################

data_CSD_CIF_DAXNIA04
_audit_creation_date 2015-04-23
_audit_creation_method CSD-ConQuest-V1
_database_code_CSD DAXNIA04
_database_code_depnum_ccdc_archive 'CCDC 1022422'
_chemical_formula_sum 'C5 H11 N1 O6 Zn1'
_chemical_formula_moiety
;
(C3 H3 O6 Zn1 1-)n,n(C2 H8 N1 1+)
;
_journal_coden_Cambridge 1003
_journal_volume 45
_journal_year 2015
_journal_page_first 178
_journal_name_full 'J.Chem.Cryst. '
loop_
_publ_author_name
"S.Quaresma"
"V.Andre"
"M.Martins"
"M.Teresa Duarte"
_chemical_name_systematic
;
catena-[dimethylammonium tris(\m-formato)-zinc]
;
_cell_volume   1293.033
_exptl_crystal_colour 'colorless'
_exptl_crystal_description 'plate'
_diffrn_ambient_temperature 150
_refine_special_details
;
The structure is disordered.

;
#These two values have been output from a single CSD field.
_refine_ls_R_factor_gt 0.0524
_refine_ls_wR_factor_gt 0.0524
_symmetry_cell_setting rhombohedral
_symmetry_space_group_name_H-M 'R -3 c'
_symmetry_Int_Tables_number 167
loop_
_symmetry_equiv_pos_site_id
_symmetry_equiv_pos_as_xyz
1 x,y,z
2 -y,x-y,z
3 -x+y,-x,z
4 x-y,-y,1/2-z
5 -x,-x+y,1/2-z
6 y,x,1/2-z
7 2/3+x,1/3+y,1/3+z
8 2/3-y,1/3+x-y,1/3+z
9 2/3-x+y,1/3-x,1/3+z
10 2/3+x-y,1/3-y,5/6-z
11 2/3-x,1/3-x+y,5/6-z
12 2/3+y,1/3+x,5/6-z
13 1/3+x,2/3+y,2/3+z
14 1/3-y,2/3+x-y,2/3+z
15 1/3-x+y,2/3-x,2/3+z
16 1/3+x-y,2/3-y,1/6-z
17 1/3-x,2/3-x+y,1/6-z
18 1/3+y,2/3+x,1/6-z
19 -x,-y,-z
20 y,-x+y,-z
21 x-y,x,-z
22 -x+y,y,-1/2+z
23 x,x-y,-1/2+z
24 -y,-x,-1/2+z
25 -2/3-x,-1/3-y,-1/3-z
26 -2/3+y,-1/3-x+y,-1/3-z
27 -2/3+x-y,-1/3+x,-1/3-z
28 -2/3-x+y,-1/3+y,-5/6+z
29 -2/3+x,-1/3+x-y,-5/6+z
30 -2/3-y,-1/3-x,-5/6+z
31 -1/3-x,-2/3-y,-2/3-z
32 -1/3+y,-2/3-x+y,-2/3-z
33 -1/3+x-y,-2/3+x,-2/3-z
34 -1/3-x+y,-2/3+y,-1/6+z
35 -1/3+x,-2/3+x-y,-1/6+z
36 -1/3-y,-2/3-x,-1/6+z
_cell_length_a 8.1895(16)
_cell_length_b 8.1895(16)
_cell_length_c 22.262(5)
_cell_angle_alpha 90
_cell_angle_beta 90
_cell_angle_gamma 120
_cell_formula_units_Z 6
loop_
_atom_type_symbol
_atom_type_radius_bond
C 0.68
N 0.68
O 0.68
Zn 1.22
loop_
_atom_site_label
_atom_site_type_symbol
_atom_site_fract_x
_atom_site_fract_y
_atom_site_fract_z
C1 C 0.4575(2) 0.4575(2) 0.25000
O1 O 0.32445(17) 0.44973(17) 0.22040(6)
Zn1 Zn 0.33330 0.66670 0.16670
C2 C 0.00000 0.00000 0.1950(3)
N1 N 0.00000 0.0884(11) 0.25000
O1E O 0.44973(17) 0.32445(17) 0.27960(6)
C1A C 0.5425(2) 1.0000(2) 0.25000
O1A O 0.55027(17) 0.87472(17) 0.22040(6)
O1D O 0.67555(17) 1.12528(17) 0.27960(6)
C1B C 0.0000(2) 0.5425(2) 0.25000
O1B O 0.12528(17) 0.67555(17) 0.22040(6)
O1C O -0.12528(17) 0.55027(17) 0.27960(6)
O1DA O 0.342217(170) 0.883603(170) 0.112933(60)
O1EA O 0.116397(170) 0.458613(170) 0.112933(60)
O1FA O 0.541387(170) 0.657783(170) 0.112933(60)
Zn1C Zn -0.33340 0.33330 0.33330
Zn1C* Zn 0.66660 0.33330 0.33330
Zn1C** Zn 0.66660 1.33330 0.33330
N1A N -0.08840 -0.0884(11) 0.25000
N1B N 0.08840 0.0000(11) 0.25000
C2C C 0.00000 0.00000 0.3050(3)
#END
