
#######################################################################
#
#                 Cambridge Crystallographic Data Centre
#                                CCDC
#
#######################################################################
#
# If this CIF has been generated from an entry in the Cambridge
# Structural Database, then it will include bibliographic, chemical,
# crystal, experimental, refinement or atomic coordinate data resulting
# from the CCDC's data processing and validation procedures.
#
#######################################################################

data_CSD_CIF_DAXNIA02
_audit_creation_date 2010-11-04
_audit_creation_method CSD-ConQuest-V1
_database_code_CSD DAXNIA02
_database_code_depnum_ccdc_archive 'CCDC 697093; not CCDC 607093 as published'
_chemical_formula_sum 'C5 H11 N1 O6 Zn1'
_chemical_formula_moiety
;
(C2 H8 N1 1+)n,n(C3 H3 O6 Zn1 1-)
;
_journal_coden_Cambridge 63
_journal_volume 53
_journal_year 2009
_journal_page_first 73
_journal_name_full 'J.Korean Chem.Soc. '
loop_
_publ_author_name
"Meiling Qin"
"Dong-Heon Lee"
"Gyungse Park"
_chemical_name_systematic
;
catena-(Dimethylammonium tris(\m~2~-formato)-zinc(ii))
;
_cell_volume   1293.136
_exptl_crystal_density_diffrn 1.899
_diffrn_ambient_temperature 213
_refine_special_details
;
The dimethylammonium ion is extensively disordered related by symmetry.

;
#These two values have been output from a single CSD field.
_refine_ls_R_factor_gt 0.0431
_refine_ls_wR_factor_gt 0.0431
_symmetry_cell_setting rhombohedral
_symmetry_space_group_name_H-M 'R -3 c'
_symmetry_Int_Tables_number 167
loop_
_symmetry_equiv_pos_site_id
_symmetry_equiv_pos_as_xyz
1 x,y,z
2 -y,x-y,z
3 -x+y,-x,z
4 y,x,1/2-z
5 x-y,-y,1/2-z
6 -x,-x+y,1/2-z
7 2/3+x,1/3+y,1/3+z
8 2/3-y,1/3+x-y,1/3+z
9 2/3-x+y,1/3-x,1/3+z
10 2/3+y,1/3+x,5/6-z
11 2/3+x-y,1/3-y,5/6-z
12 2/3-x,1/3-x+y,5/6-z
13 1/3+x,2/3+y,2/3+z
14 1/3-y,2/3+x-y,2/3+z
15 1/3-x+y,2/3-x,2/3+z
16 1/3+y,2/3+x,1/6-z
17 1/3+x-y,2/3-y,1/6-z
18 1/3-x,2/3-x+y,1/6-z
19 -x,-y,-z
20 y,-x+y,-z
21 x-y,x,-z
22 -y,-x,-1/2+z
23 -x+y,y,-1/2+z
24 x,x-y,-1/2+z
25 -2/3-x,-1/3-y,-1/3-z
26 -2/3+y,-1/3-x+y,-1/3-z
27 -2/3+x-y,-1/3+x,-1/3-z
28 -2/3-y,-1/3-x,-5/6+z
29 -2/3-x+y,-1/3+y,-5/6+z
30 -2/3+x,-1/3+x-y,-5/6+z
31 -1/3-x,-2/3-y,-2/3-z
32 -1/3+y,-2/3-x+y,-2/3-z
33 -1/3+x-y,-2/3+x,-2/3-z
34 -1/3-y,-2/3-x,-1/6+z
35 -1/3-x+y,-2/3+y,-1/6+z
36 -1/3+x,-2/3+x-y,-1/6+z
_cell_length_a 8.1983(11)
_cell_length_b 8.1983(11)
_cell_length_c 22.216(4)
_cell_angle_alpha 90
_cell_angle_beta 90
_cell_angle_gamma 120
_cell_formula_units_Z 6
loop_
_atom_type_symbol
_atom_type_radius_bond
C 0.68
H 0.23
N 0.68
O 0.68
Zn 1.22
loop_
_atom_site_label
_atom_site_type_symbol
_atom_site_fract_x
_atom_site_fract_y
_atom_site_fract_z
N1 N 0.9137(18) 0.00000 0.25000
H1 H 0.89910 0.10300 0.25000
C1 C 1.00000 0.00000 0.3050(4)
Zn1 Zn 0.66670 0.33330 0.33330
C2 C 1.00000 0.4557(6) 0.25000
H2 H 1.00000 0.57030 0.25000
O1 O 0.8749(3) 0.3243(4) 0.27955(11)
H3? H 0.92320 0.00000 0.33820
H4? H 1.12380 0.11160 0.30730
H5? H 1.01230 -0.11160 0.30730
N1B N 1.0863(18) 0.08630 0.25000
N1A N 1.0000(18) -0.08630 0.25000
H1A H 0.89700 -0.20390 0.25000
H1C H 1.10300 -0.10090 0.25000
H1B H 1.20390 0.10090 0.25000
H1E H 1.10090 0.20390 0.25000
H1D H 0.79610 -0.10300 0.25000
C1C C 1.00000 0.00000 0.1950(4)
Zn1E Zn 1.33330 0.66660 0.16670
Zn1D Zn 0.33340 0.66670 0.16670
Zn1C Zn 0.33330 -0.33330 0.16670
C2A C 0.54430 0.5443(6) 0.25000
C2B C 0.45570 0.0000(6) 0.25000
H2A H 0.42970 0.42970 0.25000
H2B H 0.57030 0.00000 0.25000
O1E O 1.1251(3) 0.4494(4) 0.22045(11)
O1A O 0.6757(3) 0.5506(4) 0.27955(11)
O1D O 0.5506(3) 0.6757(4) 0.22045(11)
O1B O 0.4494(3) 0.1251(4) 0.27955(11)
O1C O 0.3243(3) -0.1251(4) 0.22045(11)
O1X O 0.458433(300) 0.342367(400) 0.387117(110)
O1Y O 0.657633(300) 0.116067(400) 0.387117(110)
O1Z O 0.883933(300) 0.541567(400) 0.387117(110)
#END
