
#######################################################################
#
#                 Cambridge Crystallographic Data Centre
#                                CCDC
#
#######################################################################
#
# If this CIF has been generated from an entry in the Cambridge
# Structural Database, then it will include bibliographic, chemical,
# crystal, experimental, refinement or atomic coordinate data resulting
# from the CCDC's data processing and validation procedures.
#
#######################################################################

data_CSD_CIF_DECBIY
_audit_creation_date 2012-11-07
_audit_creation_method CSD-ConQuest-V1
_database_code_CSD DECBIY
_database_code_depnum_ccdc_archive 'CCDC 808334'
_chemical_formula_sum 'C22 H19 N1 O9 Zn1'
_chemical_formula_moiety
;
(C13 H10 N1 1+)n,n(C9 H5 O7 Zn1 1-),2n(H2 O1)
;
_journal_coden_Cambridge 1003
_journal_volume 42
_journal_year 2012
_journal_page_first 1007
_journal_name_full 'J.Chem.Cryst. '
loop_
_publ_author_name
"Wenbo Pei"
"Zhangang Han"
"Jingli Xie"
"Yang Zou"
"Xiao-Ming Ren"
_chemical_name_systematic
;
catena-((Acridinium) (\m~3~-benzene-1,3,5-tricarboxylato)-aqua-zinc dihydrate)
;
_cell_volume   2136.563
_exptl_crystal_colour 'orange'
_exptl_crystal_density_diffrn 1.576
_exptl_crystal_description 'block'
_diffrn_ambient_temperature 130
#These two values have been output from a single CSD field.
_refine_ls_R_factor_gt 0.042
_refine_ls_wR_factor_gt 0.042
_symmetry_cell_setting monoclinic
_symmetry_space_group_name_H-M 'P 21/n'
_symmetry_Int_Tables_number 14
loop_
_symmetry_equiv_pos_site_id
_symmetry_equiv_pos_as_xyz
1 x,y,z
2 1/2-x,1/2+y,1/2-z
3 -x,-y,-z
4 -1/2+x,-1/2-y,-1/2+z
_cell_length_a 11.0100(5)
_cell_length_b 16.7104(7)
_cell_length_c 11.7492(5)
_cell_angle_alpha 90
_cell_angle_beta 98.735(2)
_cell_angle_gamma 90
_cell_formula_units_Z 4
loop_
_atom_type_symbol
_atom_type_radius_bond
C 0.68
H 0.23
N 0.68
O 0.68
Zn 1.22
loop_
_atom_site_label
_atom_site_type_symbol
_atom_site_fract_x
_atom_site_fract_y
_atom_site_fract_z
Zn1 Zn 0.81594(3) 0.063679(17) 0.47152(3)
C1 C 0.6751(4) 0.0514(2) 0.8236(3)
H1 H 0.68010 0.00560 0.77960
C2 C 0.5677(3) 0.06915(18) 0.8676(3)
C3 C 0.3594(3) 0.0349(2) 0.8830(3)
C4 C 0.2586(3) -0.0168(2) 0.8572(3)
H2 H 0.26640 -0.06350 0.81580
C5 C 0.1504(4) 0.0009(2) 0.8921(3)
H3 H 0.08400 -0.03360 0.87410
C6 C 0.1369(4) 0.0710(2) 0.9555(4)
H4 H 0.06140 0.08230 0.97810
C7 C 0.2323(4) 0.1223(2) 0.9841(3)
H5 H 0.22210 0.16810 1.02670
C8 C 0.3472(3) 0.1060(2) 0.9492(3)
C9 C 0.5590(3) 0.1398(2) 0.9349(3)
C10 C 0.6635(4) 0.1909(2) 0.9558(3)
H6 H 0.66040 0.23720 0.99920
C11 C 0.7676(4) 0.1722(2) 0.9126(3)
H7 H 0.83550 0.20590 0.92710
C12 C 0.7739(3) 0.1027(2) 0.8462(3)
H8 H 0.84600 0.09110 0.81720
C13 C 0.3409(2) 0.23030(16) 0.7108(2)
H9 H 0.26960 0.24430 0.73950
C14 C 0.4456(2) 0.27897(16) 0.7334(2)
C15 C 0.5506(2) 0.25890(16) 0.6875(2)
H10 H 0.61950 0.29180 0.70080
C16 C 0.5533(2) 0.18974(16) 0.6217(2)
C17 C 0.4496(2) 0.14092(16) 0.6009(2)
H11 H 0.45130 0.09470 0.55720
C18 C 0.3436(2) 0.16123(16) 0.6456(2)
C19 C 0.6696(2) 0.16510(16) 0.5786(2)
C20 C 0.2342(2) 0.10630(16) 0.6243(2)
C21 C 0.4459(2) 0.35079(16) 0.8102(2)
O1 O 0.66128(17) 0.10231(12) 0.51447(17)
O2 O 0.76543(18) 0.20334(13) 0.60634(18)
O3 O 0.25609(18) 0.03682(12) 0.59022(18)
O4 O 0.13179(18) 0.13137(12) 0.6424(2)
O5 O 0.35102(18) 0.35984(12) 0.85747(18)
O6 O 0.53748(19) 0.39521(13) 0.8222(2)
O7 O 0.93700(19) 0.04142(13) 0.60529(19)
H12 H 0.94070 -0.00700 0.61670
O8 O 0.9848(3) 0.23835(17) 0.7488(3)
O9 O 0.4882(2) 0.89661(16) 0.7043(2)
H13 H 0.494(5) 0.836(4) 0.723(5)
H14 H 0.916(4) 0.226(3) 0.715(4)
H15 H 0.446(4) 0.899(2) 0.635(4)
H16 H 1.042(5) 0.216(3) 0.727(5)
N1 N 0.4678(3) 0.02024(17) 0.8459(2)
C22 C 0.4481(3) 0.1568(2) 0.9734(3)
H17 H 0.44140 0.20300 1.01620
H18 H 0.473(4) -0.026(3) 0.792(4)
H19 H 1.002(5) 0.072(3) 0.615(4)
Zn1B Zn 0.18406(3) -0.063679(17) 0.52848(3)
Zn1C Zn 0.31594(3) 0.436321(17) 0.97152(3)
O3B O 0.74391(18) -0.03682(12) 0.40978(18)
O5C O 0.85102(18) 0.14016(12) 0.35747(18)
#END
