
#######################################################################
#
#                 Cambridge Crystallographic Data Centre
#                                CCDC
#
#######################################################################
#
# If this CIF has been generated from an entry in the Cambridge
# Structural Database, then it will include bibliographic, chemical,
# crystal, experimental, refinement or atomic coordinate data resulting
# from the CCDC's data processing and validation procedures.
#
#######################################################################

data_CSD_CIF_DECTUD
_audit_creation_date 2017-09-25
_audit_creation_method CSD-ConQuest-V1
_database_code_CSD DECTUD
_database_code_depnum_ccdc_archive 'CCDC 1443967'
_chemical_formula_sum 'C9 H11 N1 O9 U1'
_chemical_formula_moiety
;
(C4 H1 O7 U1 1-)n,C5 H6 N1 1+,2(H2 O1)
;
_journal_coden_Cambridge 1147
_journal_volume 17
_journal_year 2017
_journal_page_first 5330
_journal_name_full 'Cryst.Growth Des. '
loop_
_publ_author_name
"M.Basile"
"D.K.Unruh"
"L.Streicher"
"T.Z.Forbes"
_chemical_name_systematic
;
catena-[pyridinium (\m-hydroxo)-(\m-squarato)-dioxo-uranium(vi) dihydrate]
;
_cell_volume    638.904
_exptl_crystal_colour 'yellow'
_exptl_crystal_density_diffrn 2.678
_exptl_crystal_description 'plates'
_diffrn_ambient_temperature 100
#These two values have been output from a single CSD field.
_refine_ls_R_factor_gt 0.0236
_refine_ls_wR_factor_gt 0.0236
_symmetry_cell_setting triclinic
_symmetry_space_group_name_H-M 'P -1'
_symmetry_Int_Tables_number 2
loop_
_symmetry_equiv_pos_site_id
_symmetry_equiv_pos_as_xyz
1 x,y,z
2 -x,-y,-z
_cell_length_a 8.684(4)
_cell_length_b 8.716(4)
_cell_length_c 9.696(4)
_cell_angle_alpha 63.545(13)
_cell_angle_beta 79.930(14)
_cell_angle_gamma 77.514(14)
_cell_formula_units_Z 2
loop_
_atom_type_symbol
_atom_type_radius_bond
C 0.68
H 0.23
N 0.68
O 0.68
U 1.96
loop_
_atom_site_label
_atom_site_type_symbol
_atom_site_fract_x
_atom_site_fract_y
_atom_site_fract_z
U1 U 0.53959(2) 0.40884(2) 0.21616(2)
O1 O 0.3348(4) -0.0352(4) 0.9478(4)
O2 O 0.5251(4) -0.1186(4) 0.6655(4)
O3 O 0.3778(4) 0.3711(4) 0.7489(4)
O4 O 0.5870(4) 0.2772(4) 0.4793(3)
O5 O 0.3368(5) 0.4777(5) 0.2647(5)
O6 O 0.5205(4) 0.6534(4) -0.0209(4)
O7 O 0.7426(4) 0.3383(5) 0.1687(4)
C1 C 0.5133(6) 0.1926(6) 0.6065(5)
C2 C 0.4227(6) 0.2341(6) 0.7299(6)
C3 C 0.4001(5) 0.0511(6) 0.8211(5)
C4 C 0.4881(5) 0.0134(6) 0.6913(5)
H1 H 0.446(5) 0.746(5) -0.011(6)
C5 C 0.8916(6) 0.3534(7) 0.5179(6)
H2 H 0.80890 0.44950 0.50070
C6 C 0.9131(6) 0.2265(7) 0.6665(6)
H3 H 0.84690 0.23660 0.75210
C7 C 1.0315(6) 0.0853(7) 0.6896(6)
H4 H 1.04660 -0.00370 0.79060
C8 C 1.1278(6) 0.0758(7) 0.5626(6)
H5 H 1.21010 -0.02010 0.57630
C9 C 1.1046(6) 0.2046(7) 0.4172(6)
H6 H 1.17060 0.19840 0.33010
N1 N 0.9877(5) 0.3399(5) 0.3988(5)
H7 H 0.97400 0.42230 0.30510
O8 O 1.0096(4) 0.6010(5) 0.1120(4)
H8 H 1.104(4) 0.594(7) 0.046(5)
H9 H 0.926(5) 0.679(7) 0.050(6)
O9 O 0.7869(4) 0.8095(4) -0.0902(4)
H10 H 0.698(4) 0.752(6) -0.067(6)
H11 H 0.758(6) 0.898(5) -0.055(6)
U1A U 0.46041(2) -0.40884(2) 0.78384(2)
U1A* U 0.46041(2) 0.59116(2) -0.21616(2)
U1A** U 0.46041(2) 0.59116(2) 0.78384(2)
O2A O 0.4749(4) 0.1186(4) 0.3345(4)
O3A O 0.6222(4) 0.6289(4) 0.2511(4)
O6A O 0.4795(4) 0.3466(4) 0.0209(4)
#END
