
#######################################################################
#
#                 Cambridge Crystallographic Data Centre
#                                CCDC
#
#######################################################################
#
# If this CIF has been generated from an entry in the Cambridge
# Structural Database, then it will include bibliographic, chemical,
# crystal, experimental, refinement or atomic coordinate data resulting
# from the CCDC's data processing and validation procedures.
#
#######################################################################

data_CSD_CIF_DECVAL
_audit_creation_date 2017-09-25
_audit_creation_method CSD-ConQuest-V1
_database_code_CSD DECVAL
_database_code_depnum_ccdc_archive 'CCDC 1555985'
_chemical_formula_sum 'C26 H44 N6 O44 U6'
_chemical_formula_moiety
;
(C10 H7 O22 U3 3-)2n,3(C2 H10 N2 2+)
;
_journal_coden_Cambridge 1147
_journal_volume 17
_journal_year 2017
_journal_page_first 5330
_journal_name_full 'Cryst.Growth Des. '
loop_
_publ_author_name
"M.Basile"
"D.K.Unruh"
"L.Streicher"
"T.Z.Forbes"
_chemical_name_systematic
;
catena-[tris(ethylenediammonium) 
bis(bis(\m-croconato)-(\m-oxo)-tris(\m-hydroxo)-hexaoxo-diaqua-tri-uranium)]
;
_cell_volume   1399.955
_exptl_crystal_colour 'red'
_exptl_special_details
;
The authors have confirmed that the structure contains two croconate ligands 
and not three croconate ligands as described in the paper. To charge balance 
the structure the ratio of ethylenediammonium cations to U atoms is 3:6, 
rather than 5:6 as stated in the paper
;
_exptl_crystal_description 'blocky cubes'
_diffrn_ambient_temperature 100
_refine_special_details
;
Disordered molecules were not modelled and the disordered density was taken 
into account using the SQUEEZE/PLATON procedure.
;
#These two values have been output from a single CSD field.
_refine_ls_R_factor_gt 0.0277
_refine_ls_wR_factor_gt 0.0277
_symmetry_cell_setting monoclinic
_symmetry_space_group_name_H-M 'P 21/m'
_symmetry_Int_Tables_number 11
loop_
_symmetry_equiv_pos_site_id
_symmetry_equiv_pos_as_xyz
1 x,y,z
2 -x,1/2+y,-z
3 -x,-y,-z
4 x,-1/2-y,z
_cell_length_a 8.8817(8)
_cell_length_b 15.8893(15)
_cell_length_c 9.9559(10)
_cell_angle_alpha 90
_cell_angle_beta 94.865(4)
_cell_angle_gamma 90
_cell_formula_units_Z 1
loop_
_atom_type_symbol
_atom_type_radius_bond
C 0.68
H 0.23
O 0.68
U 1.96
loop_
_atom_site_label
_atom_site_type_symbol
_atom_site_fract_x
_atom_site_fract_y
_atom_site_fract_z
U1 U 0.59833(4) 0.75000 1.14965(4)
C1 C 0.6623(8) 0.5516(4) 0.5144(7)
O1 O 0.7976(7) 0.75000 1.1426(7)
U2 U 0.57692(3) 0.63066(2) 0.81739(3)
C2 C 0.6855(8) 0.5894(4) 0.3879(7)
O2 O 0.3998(7) 0.75000 1.1659(7)
O3 O 0.7773(6) 0.6394(3) 0.8244(5)
C3 C 0.7983(8) 0.5403(5) 0.3222(7)
O4 O 0.6267(6) 0.4794(3) 0.8527(5)
H1 H 0.667(6) 0.454(4) 0.791(5)
H2 H 0.549(5) 0.451(4) 0.864(7)
C4 C 0.7573(8) 0.4761(5) 0.5310(7)
O5 O 0.3775(6) 0.6149(3) 0.8060(5)
C5 C 0.8447(8) 0.4712(5) 0.4137(7)
O6 O 0.5705(9) 0.75000 0.6721(7)
O7 O 0.5508(8) 0.75000 0.9289(6)
O8 O 0.5899(6) 0.6094(3) 1.0554(5)
O9 O 0.5703(5) 0.5752(3) 0.5967(5)
O10 O 0.6177(6) 0.6557(3) 0.3414(5)
O11 O 0.8445(6) 0.5536(3) 0.2103(5)
O12 O 0.9411(6) 0.4175(4) 0.3918(6)
O13 O 0.7613(6) 0.4265(3) 0.6288(5)
H3 H 0.675(4) 0.589(5) 1.081(8)
C1C C 0.6623(8) 0.9484(4) 0.5144(7)
U2C U 0.57692(3) 0.86934(2) 0.81739(3)
C2C C 0.6855(8) 0.9106(4) 0.3879(7)
O3C O 0.7773(6) 0.8606(3) 0.8244(5)
C3C C 0.7983(8) 0.9597(5) 0.3222(7)
O4C O 0.6267(6) 1.0206(3) 0.8527(5)
H1C H 0.667(6) 1.046(4) 0.791(5)
H2C H 0.549(5) 1.049(4) 0.864(7)
C4C C 0.7573(8) 1.0239(5) 0.5310(7)
O5C O 0.3775(6) 0.8851(3) 0.8060(5)
C5C C 0.8447(8) 1.0288(5) 0.4137(7)
O8C O 0.5899(6) 0.8906(3) 1.0554(5)
O9C O 0.5703(5) 0.9248(3) 0.5967(5)
O10C O 0.6177(6) 0.8443(3) 0.3414(5)
O11C O 0.8445(6) 0.9464(3) 0.2103(5)
O12C O 0.9411(6) 1.0825(4) 0.3918(6)
O13C O 0.7613(6) 1.0735(3) 0.6288(5)
H3C H 0.675(4) 0.911(5) 1.081(8)
U1* U 0.59833(4) 0.75000 0.14965(4)
O10* O 0.6177(6) 0.6557(3) 1.3414(5)
O10C* O 0.6177(6) 0.8443(3) 1.3414(5)
#END
