
#######################################################################
#
#                 Cambridge Crystallographic Data Centre
#                                CCDC
#
#######################################################################
#
# If this CIF has been generated from an entry in the Cambridge
# Structural Database, then it will include bibliographic, chemical,
# crystal, experimental, refinement or atomic coordinate data resulting
# from the CCDC's data processing and validation procedures.
#
#######################################################################

data_CSD_CIF_DECVIT
_audit_creation_date 2017-09-25
_audit_creation_method CSD-ConQuest-V1
_database_code_CSD DECVIT
_database_code_depnum_ccdc_archive 'CCDC 1443968'
_chemical_formula_sum 'C20 H30 N4 O32 U6'
_chemical_formula_moiety
;
(C12 H6 O32 U6 4-)n,2(C4 H12 N2 2+)
;
_journal_coden_Cambridge 1147
_journal_volume 17
_journal_year 2017
_journal_page_first 5330
_journal_name_full 'Cryst.Growth Des. '
loop_
_publ_author_name
"M.Basile"
"D.K.Unruh"
"L.Streicher"
"T.Z.Forbes"
_chemical_name_systematic
;
catena-[bis(piperazine-1,4-diium) 
tris(\m-squarato)-bis(\m-oxo)-hexakis(\m-hydroxo)-dodecaoxo-hexa-uranium(vi)]
;
_cell_volume   4899.401
_exptl_crystal_colour 'yellow'
_exptl_crystal_description 'hexagonal prisms'
_diffrn_ambient_temperature 100
_refine_special_details
;
The piperazinium molecules could not be refined due to disorder.

;
#These two values have been output from a single CSD field.
_refine_ls_R_factor_gt 0.0259
_refine_ls_wR_factor_gt 0.0259
_symmetry_cell_setting cubic
_symmetry_space_group_name_H-M 'I -4 3 m'
_symmetry_Int_Tables_number 217
loop_
_symmetry_equiv_pos_site_id
_symmetry_equiv_pos_as_xyz
1 x,y,z
2 -x,-y,z
3 -x,y,-z
4 x,-y,-z
5 z,x,y
6 z,-x,-y
7 -z,-x,y
8 -z,x,-y
9 y,z,x
10 -y,z,-x
11 y,-z,-x
12 -y,-z,x
13 y,x,z
14 -y,-x,z
15 y,-x,-z
16 -y,x,-z
17 x,z,y
18 -x,z,-y
19 -x,-z,y
20 x,-z,-y
21 z,y,x
22 z,-y,-x
23 -z,y,-x
24 -z,-y,x
25 1/2+x,1/2+y,1/2+z
26 1/2-x,1/2-y,1/2+z
27 1/2-x,1/2+y,1/2-z
28 1/2+x,1/2-y,1/2-z
29 1/2+z,1/2+x,1/2+y
30 1/2+z,1/2-x,1/2-y
31 1/2-z,1/2-x,1/2+y
32 1/2-z,1/2+x,1/2-y
33 1/2+y,1/2+z,1/2+x
34 1/2-y,1/2+z,1/2-x
35 1/2+y,1/2-z,1/2-x
36 1/2-y,1/2-z,1/2+x
37 1/2+y,1/2+x,1/2+z
38 1/2-y,1/2-x,1/2+z
39 1/2+y,1/2-x,1/2-z
40 1/2-y,1/2+x,1/2-z
41 1/2+x,1/2+z,1/2+y
42 1/2-x,1/2+z,1/2-y
43 1/2-x,1/2-z,1/2+y
44 1/2+x,1/2-z,1/2-y
45 1/2+z,1/2+y,1/2+x
46 1/2+z,1/2-y,1/2-x
47 1/2-z,1/2+y,1/2-x
48 1/2-z,1/2-y,1/2+x
_cell_length_a 16.9843(12)
_cell_length_b 16.9843(12)
_cell_length_c 16.9843(12)
_cell_angle_alpha 90
_cell_angle_beta 90
_cell_angle_gamma 90
_cell_formula_units_Z 4
loop_
_atom_type_symbol
_atom_type_radius_bond
C 0.68
O 0.68
U 1.96
loop_
_atom_site_label
_atom_site_type_symbol
_atom_site_fract_x
_atom_site_fract_y
_atom_site_fract_z
U1 U 0.62214(4) 0.77856(3) 0.22144(3)
O1 O 0.5784(9) 0.7114(6) 0.2886(6)
O2 O 0.6596(9) 0.8467(7) 0.1533(7)
O3 O 0.5124(5) 0.7519(6) 0.1339(5)
O4 O 0.6654(6) 0.8535(8) 0.3346(6)
O5 O 0.7434(10) 0.7434(10) 0.2566(10)
C1 C 0.5066(8) 0.7515(8) 0.0609(8)
O3SA O 0.6339(5) 0.7481(6) -0.0124(5)
C1SA C 0.5609(8) 0.7485(8) -0.0066(8)
O3UA O 0.3661(5) 0.7481(6) 0.0124(5)
C1UA C 0.4391(8) 0.7485(8) 0.0066(8)
O3B O 0.4876(5) 0.7519(6) -0.1339(5)
C1B C 0.4934(8) 0.7515(8) -0.0609(8)
U1B U 0.37786(4) 0.77856(3) -0.22144(3)
O1B O 0.4216(9) 0.7114(6) -0.2886(6)
O2B O 0.3404(9) 0.8467(7) -0.1533(7)
O4B O 0.3346(6) 0.8535(8) -0.3346(6)
U1G U 0.77856(4) 0.62214(3) 0.22144(3)
O1G O 0.7114(9) 0.5784(6) 0.2886(6)
O2G O 0.8467(9) 0.6596(7) 0.1533(7)
O3L O 0.7519(5) 0.5124(6) 0.1339(5)
O4J O 0.8535(6) 0.6654(8) 0.3346(6)
C1L C 0.7515(8) 0.5066(8) 0.0609(8)
O3GA O 0.7481(5) 0.6339(6) -0.0124(5)
C1GA C 0.7485(8) 0.5609(8) -0.0066(8)
O3IA O 0.7481(5) 0.3661(6) 0.0124(5)
C1IA C 0.7485(8) 0.4391(8) 0.0066(8)
O3N O 0.7519(5) 0.4876(6) -0.1339(5)
C1N C 0.7515(8) 0.4934(8) -0.0609(8)
U1F U 0.77856(4) 0.37786(3) -0.22144(3)
O1F O 0.7114(9) 0.4216(6) -0.2886(6)
O2F O 0.8467(9) 0.3404(7) -0.1533(7)
O3S O 0.5124(5) 0.8661(6) 0.2481(5)
C1S C 0.5066(8) 0.9391(8) 0.2485(8)
O3BA O 0.6339(5) 1.0124(6) 0.2519(5)
C1BA C 0.5609(8) 1.0066(8) 0.2515(8)
O3DA O 0.3661(5) 0.9876(6) 0.2519(5)
C1DA C 0.4391(8) 0.9934(8) 0.2515(8)
O3Q O 0.4876(5) 1.1339(6) 0.2481(5)
C1Q C 0.4934(8) 1.0609(8) 0.2485(8)
U1A U 0.37786(4) 1.22144(3) 0.22144(3)
O1A O 0.4216(9) 1.2886(6) 0.2886(6)
O2A O 0.3404(9) 1.1533(7) 0.1533(7)
O4E O 0.3346(6) 1.3346(8) 0.1465(6)
O5A O 0.2566(10) 1.2566(10) 0.2566(10)
U1I U 0.22144(4) 1.22144(3) 0.37786(3)
O1I O 0.2886(9) 1.2886(6) 0.4216(6)
O2I O 0.1533(9) 1.1533(7) 0.3404(7)
O4I O 0.1465(6) 1.3346(8) 0.3346(6)
O4G O 0.6654(6) 0.6654(8) 0.1465(6)
U1E U 0.22144(4) 1.37786(3) 0.22144(3)
U1J U 0.77856(4) 0.77856(3) 0.37786(3)
U1K U 0.22144(4) 0.77856(3) -0.37786(3)
U1BA U 0.72144(4) 1.12214(3) 0.27856(3)
U1DA U 0.27856(4) 0.87786(3) 0.27856(3)
U1FA U 0.27856(4) 0.72144(3) 0.12214(3)
U1GA U 0.72144(4) 0.72144(3) -0.12214(3)
U1IA U 0.72144(4) 0.27856(3) 0.12214(3)
O3A O 0.4876(5) 1.2481(6) 0.1339(5)
O3F O 0.8661(5) 0.4876(6) -0.2481(5)
O3G O 0.8661(5) 0.5124(6) 0.2481(5)
O3I O 0.2481(5) 1.1339(6) 0.4876(5)
O3R O 0.4876(5) 0.8661(6) -0.2481(5)
O3U O 0.1339(5) 1.2481(6) 0.4876(5)
O4A O 0.3346(6) 1.1465(8) 0.3346(6)
O4D O 0.3346(6) 0.6654(8) -0.1465(6)
O4F O 0.6654(6) 0.3346(8) -0.1465(6)
O4H O 0.8535(6) 0.3346(8) -0.3346(6)
O5B O 0.2566(10) 0.7434(10) -0.2566(10)
O5C O 0.7434(10) 0.2566(10) -0.2566(10)
#END
