
#######################################################################
#
#                 Cambridge Crystallographic Data Centre
#                                CCDC
#
#######################################################################
#
# If this CIF has been generated from an entry in the Cambridge
# Structural Database, then it will include bibliographic, chemical,
# crystal, experimental, refinement or atomic coordinate data resulting
# from the CCDC's data processing and validation procedures.
#
#######################################################################

data_CSD_CIF_DEHFUR
_audit_creation_date 1986-07-02
_audit_creation_method CSD-ConQuest-V1
_database_code_CSD DEHFUR
_database_code_depnum_ccdc_archive 'CCDC 1138221'
_chemical_formula_sum 'C18 H48 O24 P2 Zn3'
_chemical_formula_moiety
;
(C18 H24 O12 P2 Zn2 2-)n,n(H10 O5 Zn1 2+),7n(H2 O1)
;
_journal_coden_Cambridge 186
_journal_year 1985
_journal_page_first 2393
_journal_name_full 'J.Chem.Soc.,Dalton Trans. '
loop_
_publ_author_name
"J.Podlahova"
"B.Kratochvil"
"J.Podlaha"
"J.Hasek"
_chemical_name_systematic
;
catena-[Penta-aqua-zinc(ii) 
bis(\m-3,3',3''-phosphinetriyltripropionato)-di-zinc(ii) heptahydrate]
;
_cell_volume   5308.634
_exptl_crystal_density_diffrn 1.7
_exptl_special_details
;
The number of ATOMS+SATOMS exceeds 400, so the H atoms on the C atoms have 
not been retained
;
_diffrn_ambient_temperature ?
_diffrn_special_details
;
The study was carried out at room temperature,in the range 283-303K

;
#These two values have been output from a single CSD field.
_refine_ls_R_factor_gt 0.059
_refine_ls_wR_factor_gt 0.059
_symmetry_cell_setting hexagonal
_symmetry_space_group_name_H-M 'P 61'
_symmetry_Int_Tables_number 169
loop_
_symmetry_equiv_pos_site_id
_symmetry_equiv_pos_as_xyz
1 x,y,z
2 -y,x-y,1/3+z
3 -x+y,-x,2/3+z
4 -x,-y,1/2+z
5 y,-x+y,5/6+z
6 x-y,x,1/6+z
_cell_length_a 11.441(4)
_cell_length_b 11.441(4)
_cell_length_c 46.83(1)
_cell_angle_alpha 90
_cell_angle_beta 90
_cell_angle_gamma 120
_cell_formula_units_Z 6
loop_
_atom_type_symbol
_atom_type_radius_bond
C 0.68
H 0.23
O 0.68
P 1.05
Zn 1.45
loop_
_atom_site_label
_atom_site_type_symbol
_atom_site_fract_x
_atom_site_fract_y
_atom_site_fract_z
Zn1 Zn -0.0186(2) -0.0044(2) 0.00000
Zn2 Zn 0.3232(2) 0.6747(2) -0.0871(1)
P1 P -0.0206(4) -0.0056(4) 0.0519(1)
P2 P 0.3192(4) 0.6615(4) -0.0358(1)
C1 C 0.1495(16) 0.0809(18) 0.0683(4)
C2 C 0.2459(13) 0.0409(14) 0.0544(3)
C3 C 0.3795(15) 0.1098(16) 0.0703(4)
O1 O 0.4695(9) 0.2282(10) 0.0618(2)
O2 O 0.4012(10) 0.0504(12) 0.0906(2)
C4 C -0.1008(15) -0.1741(14) 0.0693(3)
C5 C -0.2316(16) -0.2779(15) 0.0531(4)
C6 C -0.2955(14) -0.4117(15) 0.0679(3)
O3 O -0.2719(10) -0.5028(9) 0.0590(2)
O4 O -0.368(1) -0.4292(11) 0.0892(3)
C7 C -0.1094(16) 0.0754(16) 0.0682(4)
C8 C -0.0596(21) 0.2165(20) 0.0548(4)
C9 C -0.1387(18) 0.2800(15) 0.0683(4)
O5 O -0.2656(10) 0.2258(10) 0.0642(2)
O6 O -0.0745(11) 0.3849(11) 0.0829(2)
C10 C 0.2756(14) 0.4980(14) -0.0200(3)
C11 C 0.1328(14) 0.3878(15) -0.0251(3)
C12 C 0.1001(16) 0.2556(15) -0.0119(4)
O7 O -0.0113(10) 0.1513(10) -0.0198(2)
O8 O 0.1737(11) 0.248(1) 0.0056(2)
C13 C 0.2016(16) 0.6985(16) -0.0170(5)
C14 C 0.2311(16) 0.8451(15) -0.0225(4)
C15 C 0.1295(15) 0.8732(16) -0.0088(4)
O9 O 0.1309(10) 0.979(1) -0.0176(3)
O10 O 0.0415(10) 0.7913(10) 0.0079(2)
C16 C 0.4754(14) 0.7765(14) -0.0185(3)
C17 C 0.5863(19) 0.7458(16) -0.0259(4)
C18 C 0.7213(14) 0.8465(15) -0.0116(4)
O11 O 0.8264(10) 0.8471(10) -0.0202(2)
O12 O 0.7251(10) 0.9227(10) 0.0076(2)
Zn3 Zn 0.5288(3) 0.3145(2) -0.0205(1)
O13 O 0.4341(10) 0.3385(10) 0.0145(3)
O14 O 0.5767(14) 0.1712(15) -0.0160(4)
O15 O 0.5732(12) 0.4378(13) -0.0520(3)
O16 O 0.3485(11) 0.1919(11) -0.0422(2)
O17 O 0.7232(12) 0.4585(13) -0.0019(3)
H1 H 0.42500 0.31000 0.03500
H2 H 0.35000 0.35000 0.01500
H3 H 0.60000 0.12500 0.00000
H4 H 0.66500 0.21000 -0.03000
H5 H 0.63000 0.54000 -0.05200
H6 H 0.53500 0.39500 -0.07100
H7 H 0.26000 0.11000 -0.03200
H8 H 0.40000 0.17500 -0.05700
H9 H 0.76500 0.55000 -0.01300
H10 H 0.73500 0.48500 0.01800
O18 O 0.5693(13) 0.0341(13) 0.0267(2)
H11 H 0.63500 0.07500 0.04500
H12 H 0.61000 -0.01500 0.01500
O19 O 0.8306(11) 0.6376(13) -0.0480(3)
H13 H 0.90000 0.63000 -0.06200
H14 H 0.87500 0.74000 -0.04300
O20 O 0.7713(13) 0.1577(14) -0.0470(3)
H15 H 0.73500 0.10000 -0.06300
H16 H 0.85500 0.15000 -0.04200
O21 O 0.8384(29) 0.3565(24) -0.0885(6)
H17 H 0.82000 0.33000 -0.06700
H18 H 0.93500 0.39500 -0.09900
O22 O 0.6195(24) 0.3272(17) -0.1178(4)
H19 H 0.63500 0.42000 -0.11000
H20 H 0.66000 0.28000 -0.11000
O23 O 0.4307(13) 0.1047(13) -0.0872(3)
H21 H 0.52500 0.17500 -0.09200
H22 H 0.45000 0.03000 -0.07700
O24 O 0.6362(24) 0.5739(18) -0.1177(5)
H23 H 0.57000 0.58000 -0.10400
H24 H 0.66000 0.64000 -0.13500
O9* O 0.1309(10) -0.021(1) -0.0176(3)
O11* O -0.1736(10) -0.1529(10) -0.0202(2)
O1D O 0.2282(9) 0.7587(10) -0.104867(200)
O3D O 0.4972(10) 0.7691(9) -0.107667(200)
O5D O 0.2258(10) 0.4914(10) -0.102467(200)
Zn2E Zn 0.6485(2) 0.3232(2) 0.079567(100)
Zn2E* Zn -0.3515(2) -0.6768(2) 0.079567(100)
Zn2E** Zn -0.3515(2) 0.3232(2) 0.079567(100)
Zn1* Zn -0.0186(2) 0.9956(2) 0.00000
Zn1** Zn 0.9814(2) 0.9956(2) 0.00000
#END
