
#######################################################################
#
#                 Cambridge Crystallographic Data Centre
#                                CCDC
#
#######################################################################
#
# If this CIF has been generated from an entry in the Cambridge
# Structural Database, then it will include bibliographic, chemical,
# crystal, experimental, refinement or atomic coordinate data resulting
# from the CCDC's data processing and validation procedures.
#
#######################################################################

data_CSD_CIF_DEHFUR01
_audit_creation_date 2020-11-10
_audit_creation_method CSD-ConQuest-V1
_database_code_CSD DEHFUR01
_database_code_depnum_ccdc_archive 'CCDC 1964322'
_chemical_formula_sum 'C18 H48 O24 P2 Zn3'
_chemical_formula_moiety
;
(C18 H24 O12 P2 Zn2 2-)n,H10 O5 Zn1 2+,7(H2 O1)
;
_journal_coden_Cambridge 1078
_journal_year 2020
_journal_name_full 'CSD Communication(Private Communication) '
loop_
_publ_author_name
"M.Malinska"
"M.Gorna"
"M.Merski"
_chemical_name_systematic
;
catena-[Penta-aqua-zinc(ii) 
bis(\m-3,3',3''-phosphinetriyltripropionato)-di-zinc(ii) heptahydrate]
;
_cell_volume   5215.935
_exptl_crystal_colour 'colorless'
_exptl_crystal_density_diffrn 1.732
_exptl_special_details
;
Absolute configuration

;
_exptl_crystal_description 'block'
_diffrn_ambient_temperature 100
#These two values have been output from a single CSD field.
_refine_ls_R_factor_gt 0.0448
_refine_ls_wR_factor_gt 0.0448
_symmetry_cell_setting hexagonal
_symmetry_space_group_name_H-M 'P 65'
_symmetry_Int_Tables_number 170
loop_
_symmetry_equiv_pos_site_id
_symmetry_equiv_pos_as_xyz
1 x,y,z
2 -y,x-y,2/3+z
3 -x+y,-x,1/3+z
4 -x,-y,1/2+z
5 y,-x+y,1/6+z
6 x-y,x,5/6+z
_cell_length_a 11.4033(6)
_cell_length_b 11.4033(6)
_cell_length_c 46.317(3)
_cell_angle_alpha 90
_cell_angle_beta 90
_cell_angle_gamma 120
_cell_formula_units_Z 6
loop_
_atom_type_symbol
_atom_type_radius_bond
C 0.68
H 0.23
O 0.68
P 1.05
Zn 1.22
loop_
_atom_site_label
_atom_site_type_symbol
_atom_site_fract_x
_atom_site_fract_y
_atom_site_fract_z
Zn1 Zn 1.35442(6) 0.67413(7) 0.57870(2)
O1 O 1.2779(4) 0.7703(4) 0.55622(9)
P1 P 1.34455(14) 0.6585(2) 0.62936(3)
O2 O 1.5363(4) 0.7591(4) 0.55992(9)
O3 O 1.2663(4) 0.4893(4) 0.56185(10)
C1 C 1.3019(6) 0.8845(6) 0.56622(14)
C2 C 1.5003(6) 0.6950(5) 0.64734(14)
C3 C 1.2224(5) 0.4935(6) 0.64406(13)
C4 C 1.2996(6) 0.7717(6) 0.64723(14)
O4 O 1.3751(4) 0.9390(4) 0.58802(10)
C5 C 1.2347(6) 0.9543(6) 0.55131(14)
C6 C 1.6126(6) 0.8399(6) 0.64271(14)
H1 H 1.53027 0.63270 0.63999
H2 H 1.48295 0.67830 0.66830
C7 C 1.2580(6) 0.3842(6) 0.63874(13)
H3 H 1.13262 0.46482 0.63543
H4 H 1.21488 0.50272 0.66513
H5 H 1.30599 0.76378 0.66838
C8 C 1.1574(6) 0.7414(6) 0.63961(14)
H6 H 1.36527 0.86616 0.64167
C9 C 1.1064(6) 0.9287(6) 0.56722(14)
H7 H 1.21127 0.92052 0.53126
H8 H 1.29915 1.05299 0.55048
H9 H 1.62436 0.85907 0.62173
C10 C 1.7466(6) 0.8678(6) 0.65550(13)
H10 H 1.58586 0.90205 0.65159
C11 C 1.1575(6) 0.2503(6) 0.65243(13)
H11 H 1.26096 0.37126 0.61767
H12 H 1.34932 0.41400 0.64663
C12 C 1.1273(6) 0.8441(6) 0.65308(13)
H13 H 1.14847 0.74282 0.61836
H14 H 1.09069 0.64968 0.64655
P2 P 1.02303(15) 1.01411(14) 0.55070(3)
H15 H 1.13016 0.96004 0.58743
H16 H 1.04188 0.83004 0.56766
O5 O 1.8511(4) 0.9760(4) 0.64706(9)
O6 O 1.7518(4) 0.7897(4) 0.67337(9)
O7 O 1.0751(4) 0.2439(4) 0.67076(10)
O8 O 1.1647(4) 0.1475(4) 0.64462(10)
O9 O 1.0206(4) 0.8427(4) 0.64438(9)
O10 O 1.2018(4) 0.9228(4) 0.6725(1)
Zn2 Zn 1.02325(6) 1.01456(7) 0.49967(2)
C13 C 0.8547(6) 0.9312(6) 0.56708(13)
C14 C 1.1083(6) 1.1824(6) 0.56688(14)
H17 H 0.86327 0.91883 0.58798
H18 H 0.81502 0.99068 0.56498
C15 C 0.7584(6) 0.7928(6) 0.55343(14)
C16 C 1.0643(6) 1.2783(6) 0.55350(15)
H19 H 1.08878 1.17399 0.58784
H20 H 1.20732 1.22263 0.56445
C17 C 0.6219(6) 0.7245(6) 0.56811(13)
H21 H 0.74650 0.80524 0.53269
H22 H 0.79910 0.73404 0.55491
C18 C 1.1377(6) 1.4190(6) 0.56615(13)
H23 H 1.08106 1.28427 0.53244
H24 H 0.96580 1.23942 0.55649
O11 O 0.5981(4) 0.6419(4) 0.58807(9)
O12 O 1.0776(4) 1.4669(5) 0.57966(11)
Zn3 Zn 1.47823(8) 0.78746(8) 0.47848(2)
O13 O 1.5701(4) 0.9069(5) 0.51208(10)
H25 H 1.55252 0.85853 0.52848
H26 H 1.53628 0.96183 0.51597
O14 O 1.2850(5) 0.7301(5) 0.49622(11)
H27 H 1.22893 0.64100 0.49454
H28 H 1.24387 0.76540 0.48590
O15 O 1.6582(4) 0.8500(5) 0.45528(10)
H29 H 1.72184 0.85142 0.46668
H30 H 1.69372 0.93599 0.44979
O16 O 1.4301(5) 0.8626(5) 0.44491(11)
H31 H 1.50379 0.92448 0.43653
H32 H 1.39011 0.90651 0.45091
O17 O 1.4408(6) 0.5992(5) 0.47940(13)
H33 H 1.35991 0.54297 0.47192
H34 H 1.43359 0.57068 0.49745
O18 O 0.6781(5) 0.1025(5) 0.57655(12)
H35 H 0.76021 0.14203 0.58338
H36 H 0.68041 0.15660 0.56305
O19 O 1.1743(4) 0.8011(5) 0.45186(11)
H37 H 1.15606 0.86556 0.45501
H38 H 1.10504 0.74049 0.44222
O20 O 0.4405(5) 0.4690(5) 0.52473(13)
H39 H 0.40499 0.38695 0.51802
H40 H 0.37929 0.46639 0.53632
O21 O 0.9350(6) 0.5791(5) 0.55096(13)
H41 H 0.99664 0.56315 0.54406
H42 H 0.86856 0.49968 0.55577
O22 O 0.6963(7) 0.3202(6) 0.54787(13)
H43 H 0.68006 0.38101 0.55508
H44 H 0.67510 0.31614 0.52969
O23 O 1.3906(5) 1.1566(5) 0.61791(12)
H45 H 1.32005 1.13961 0.62826
H46 H 1.36478 1.08346 0.60781
O24 O 0.4920(8) 0.3447(8) 0.57465(18)
H47 H 0.53567 0.32358 0.56223
H48 H 0.55380 0.39862 0.58677
Zn2D Zn 2.01456(6) 0.99131(7) 0.666337(20)
Zn2D* Zn 1.01456(6) -0.00869(7) 0.666337(20)
Zn2D** Zn 1.01456(6) 0.99131(7) 0.666337(20)
O5E O 0.8751(4) 0.8511(4) 0.480393(90)
O9E O 1.1779(4) 1.0206(4) 0.477713(90)
O8E O 1.0172(4) 1.1647(4) 0.477953(100)
O2* O 0.5363(4) 0.7591(4) 0.55992(9)
O3* O 1.2663(4) 1.4893(4) 0.56185(10)
Zn1* Zn 0.35442(6) 0.67413(7) 0.57870(2)
Zn1** Zn 1.35442(6) 1.67413(7) 0.57870(2)
#END
