
#######################################################################
#
#                 Cambridge Crystallographic Data Centre
#                                CCDC
#
#######################################################################
#
# If this CIF has been generated from an entry in the Cambridge
# Structural Database, then it will include bibliographic, chemical,
# crystal, experimental, refinement or atomic coordinate data resulting
# from the CCDC's data processing and validation procedures.
#
#######################################################################

data_CSD_CIF_DEHYEV
_audit_creation_date 2006-09-26
_audit_creation_method CSD-ConQuest-V1
_database_code_CSD DEHYEV
_database_code_depnum_ccdc_archive 'CCDC 286350'
_chemical_formula_sum 'C2 H5 O6 P1 Zn1'
_chemical_formula_moiety
;
(C2 H2 O5 P1 Zn1 1-)n,n(H3 O1 1+)
;
_journal_coden_Cambridge 1147
_journal_volume 6
_journal_year 2006
_journal_page_first 1445
_journal_name_full 'Cryst.Growth Des. '
loop_
_publ_author_name
"Juan-Juan Hou"
"Xian-Ming Zhang"
_chemical_name_systematic
;
catena-(oxonium (\m~4~-phosphonoacetato)-zinc(ii))
;
_cell_volume    623.989
_exptl_crystal_colour 'colorless'
_exptl_crystal_density_diffrn 2.357
_exptl_special_details
;
isostructural with the ammonium analogue

;
_exptl_crystal_description 'needle'
_diffrn_ambient_temperature 298
#These two values have been output from a single CSD field.
_refine_ls_R_factor_gt 0.0245
_refine_ls_wR_factor_gt 0.0245
_symmetry_cell_setting orthorhombic
_symmetry_space_group_name_H-M 'P n a 21'
_symmetry_Int_Tables_number 33
loop_
_symmetry_equiv_pos_site_id
_symmetry_equiv_pos_as_xyz
1 x,y,z
2 -x,-y,1/2+z
3 1/2+x,1/2-y,z
4 1/2-x,1/2+y,1/2+z
_cell_length_a 9.5524(9)
_cell_length_b 12.5921(12)
_cell_length_c 5.1876(5)
_cell_angle_alpha 90
_cell_angle_beta 90
_cell_angle_gamma 90
_cell_formula_units_Z 4
loop_
_atom_type_symbol
_atom_type_radius_bond
C 0.68
H 0.23
O 0.68
P 1.05
Zn 1.45
loop_
_atom_site_label
_atom_site_type_symbol
_atom_site_fract_x
_atom_site_fract_y
_atom_site_fract_z
Zn1 Zn 0.10731(3) 0.61520(2) 0.27072(14)
P1 P 0.30323(6) 0.99520(5) 0.2701(2)
O1 O 0.1369(3) 0.7579(2) 0.1365(7)
O2 O 0.4082(2) 0.9072(2) 0.2112(5)
C1 C 0.1018(3) 0.8387(2) 0.2703(16)
O3 O 0.2903(3) 1.0142(2) 0.5581(5)
O4 O 0.3358(3) 1.09804(19) 0.1280(5)
O5 O 0.0522(4) 0.8327(2) 0.4876(6)
C2 C 0.1371(3) 0.9460(3) 0.1563(8)
H1 H 0.06410 0.99630 0.20130
H2 H 0.13970 0.94030 -0.03010
O6 O 0.3524(3) 0.7822(2) -0.2463(11)
H3 H 0.283(6) 0.717(5) -0.297(12)
H4 H 0.316(5) 0.858(4) -0.36(1)
H5 H 0.444(8) 0.753(6) -0.339(15)
Zn1B Zn 0.60731(3) 0.88480(2) 0.27072(14)
Zn1C Zn 0.39269(3) 1.11520(2) 0.77072(14)
Zn1C* Zn 0.39269(3) 1.11520(2) -0.22928(14)
O2B O -0.0918(2) 0.5928(2) 0.2112(5)
O3C O 0.2097(3) 0.5142(2) 0.0581(5)
O4C O 0.1642(3) 0.59804(19) 0.6280(5)
#END
