
#######################################################################
#
#                 Cambridge Crystallographic Data Centre
#                                CCDC
#
#######################################################################
#
# If this CIF has been generated from an entry in the Cambridge
# Structural Database, then it will include bibliographic, chemical,
# crystal, experimental, refinement or atomic coordinate data resulting
# from the CCDC's data processing and validation procedures.
#
#######################################################################

data_CSD_CIF_DEJSUI
_audit_creation_date 2013-02-01
_audit_creation_method CSD-ConQuest-V1
_database_code_CSD DEJSUI
_database_code_depnum_ccdc_archive 'CCDC 824405'
_chemical_formula_sum 'C60 H194 N21 O85 P6 V21 Zn4'
_chemical_formula_moiety
;
(H4 N1 1+)n,n(C60 H148 N20 O64 P6 V21 Zn4 1-),21n(H2 O1)
;
_journal_coden_Cambridge 1220
_journal_volume 18
_journal_year 2012
_journal_page_first 11909
_journal_name_full 'Chem.-Eur.J. '
loop_
_publ_author_name
"Cong-Ling Wang"
"Zhi-bin Zhang"
"Jie Fu"
"Yan Xu"
"Dun-ru Zhu"
_chemical_name_systematic
;
catena-[Ammonium 
tris(\m~6~-phosphato)-tris(\m~5~-phosphato)-octadecakis(\m~3~-oxo)-bis(\m~2~-o
xo)-decakis(1,2-diaminocyclohexane)-tetra-aqua-hexadeca-oxo-tri-vanadium(iii)-
octadeca-vanadium(iv)-tetra-zinc(ii) henicosahydrate]
;
_cell_volume  16768.371
_exptl_crystal_colour 'black'
_exptl_crystal_density_diffrn 1.619
_exptl_special_details
;
The stoichiometry of the complex given in the paper does not match with the 
formula given in the deposited CIF
;
_exptl_crystal_description 'block'
_diffrn_ambient_temperature 196
_refine_special_details
;
O9W and O9WA disordered over two sites with occupancies 0.50:0.50. One zinc 
site, modelled with half occupancy, is disordered by symmetry.
;
#These two values have been output from a single CSD field.
_refine_ls_R_factor_gt 0.0733
_refine_ls_wR_factor_gt 0.0733
_symmetry_cell_setting monoclinic
_symmetry_space_group_name_H-M 'C 2/c'
_symmetry_Int_Tables_number 15
loop_
_symmetry_equiv_pos_site_id
_symmetry_equiv_pos_as_xyz
1 x,y,z
2 -x,y,1/2-z
3 1/2+x,1/2+y,z
4 1/2-x,1/2+y,1/2-z
5 -x,-y,-z
6 x,-y,-1/2+z
7 -1/2-x,-1/2-y,-z
8 -1/2+x,-1/2-y,-1/2+z
_cell_length_a 18.1260(13)
_cell_length_b 37.027(3)
_cell_length_c 26.1984(19)
_cell_angle_alpha 90
_cell_angle_beta 107.510(1)
_cell_angle_gamma 90
_cell_formula_units_Z 4
loop_
_atom_type_symbol
_atom_type_radius_bond
C 0.68
H 0.23
N 0.68
O 0.76
P 1.05
V 1.19
Zn 1.17
loop_
_atom_site_label
_atom_site_type_symbol
_atom_site_fract_x
_atom_site_fract_y
_atom_site_fract_z
V1 V 0.50000 0.00326(5) 0.75000
V2 V 0.39627(8) 0.09170(3) 0.57439(5)
V3 V 0.34458(7) 0.18494(3) 0.59659(5)
V4 V 0.49796(8) 0.15592(3) 0.58184(5)
V5 V 0.66290(8) 0.19182(4) 0.67402(5)
V6 V 0.60542(8) 0.10381(3) 0.63568(5)
V7 V 0.75072(7) 0.10881(4) 0.85744(5)
V8 V 0.65827(8) 0.05257(4) 0.74026(5)
V9 V 0.65419(8) 0.04315(4) 0.84573(5)
V10 V 0.27493(8) 0.18698(3) 0.68600(5)
V11 V 0.40620(8) 0.22976(3) 0.72816(5)
P1 P 0.51631(12) 0.02932(5) 0.63755(8)
P2 P 0.75582(12) 0.12382(6) 0.73544(8)
P3 P 0.50185(13) 0.23301(5) 0.64462(8)
Zn1 Zn 0.19441(7) 0.18614(3) 0.46802(5)
Zn2 Zn 0.50000 0.00000 0.50000
Zn3 Zn 0.94081(17) 0.09589(11) 0.77298(12)
O1 O 0.6974(4) 0.00638(15) 0.8704(2)
O2 O 0.3467(3) 0.21359(12) 0.65874(18)
O3 O 0.5158(3) -0.00067(13) 0.67637(18)
O4 O 0.7170(3) 0.06830(13) 0.80957(19)
O5 O 0.5742(3) 0.05944(12) 0.66904(18)
O6 O 0.3589(3) 0.07804(14) 0.51350(18)
O7 O 0.4157(3) 0.03586(14) 0.72498(19)
O8 O 0.5042(3) 0.10381(13) 0.58591(18)
O9 O 0.3886(3) 0.14382(13) 0.57303(18)
O10 O 0.5906(3) 0.15478(13) 0.64220(18)
O11 O 0.7232(3) 0.15693(13) 0.87521(18)
O12 O 0.6827(3) 0.08533(13) 0.89097(18)
O13 O 0.4558(3) 0.20115(13) 0.60986(19)
O14 O 0.2905(3) 0.20517(14) 0.54293(19)
O15 O 0.6639(3) 0.09609(15) 0.6020(2)
O16 O 0.7535(3) 0.13740(13) 0.79123(18)
O17 O 0.6794(3) 0.10146(13) 0.71207(18)
O18 O 0.4636(3) 0.26878(14) 0.6260(2)
O19 O 0.5158(3) 0.16935(15) 0.5286(2)
O20 O 0.5387(3) 0.01728(14) 0.58934(19)
O21 O 0.4344(3) 0.04777(13) 0.62052(18)
O22 O 0.5005(3) 0.22539(13) 0.70379(18)
O23 O 0.3495(3) 0.19527(13) 0.75553(19)
O24 O 0.3769(4) 0.26980(15) 0.7320(2)
O25 O 0.7524(3) 0.15618(14) 0.69988(19)
O26 O 0.8248(3) 0.09995(15) 0.7406(2)
O27 O 0.5853(3) 0.23073(13) 0.6446(2)
O28 O 0.7075(3) 0.02022(15) 0.7269(2)
O29 O 0.8383(3) 0.10165(15) 0.8930(2)
O30 O 0.1981(3) 0.21021(15) 0.6783(2)
N1 N 0.4941(5) 0.05298(19) 0.4745(3)
H1 H 0.46020 0.05470 0.44140
H2 H 0.47690 0.06700 0.49660
N2 N 0.6145(4) 0.0053(2) 0.4964(3)
H3 H 0.64830 0.00450 0.52950
H4 H 0.62560 -0.01270 0.47690
N3 N 0.2308(5) 0.2148(2) 0.4089(3)
H5 H 0.18950 0.22010 0.38070
H6 H 0.25380 0.23560 0.42280
N4 N 0.2699(5) 0.1480(2) 0.4569(3)
H7 H 0.30400 0.14220 0.48860
H8 H 0.24370 0.12790 0.44280
N5 N 0.1373(5) 0.1579(2) 0.5147(3)
H9 H 0.12410 0.13560 0.50130
H10 H 0.16810 0.15590 0.54870
N6 N 0.1278(4) 0.22849(18) 0.4823(2)
H11 H 0.15800 0.24790 0.49380
H12 H 0.09150 0.23450 0.45160
N7 N 0.7444(4) 0.23604(19) 0.6964(3)
H13 H 0.71890 0.25610 0.70060
H14 H 0.77930 0.23090 0.72810
N8 N 0.6933(4) 0.20149(19) 0.6015(3)
H15 H 0.72740 0.18460 0.59820
H16 H 0.65070 0.19960 0.57310
N9 N 0.4220(4) -0.04242(17) 0.7262(3)
H17 H 0.39390 -0.04460 0.74910
H18 H 0.38910 -0.03830 0.69340
N10 N 0.9532(14) 0.1443(7) 0.8124(9)
N11 N 0.9885(13) 0.1244(6) 0.7244(8)
C1 C 0.7040(7) 0.0519(4) 0.4766(5)
H19 H 0.73150 0.05630 0.51400
H20 H 0.72980 0.03240 0.46410
C2 C 0.7059(11) 0.0847(5) 0.4452(8)
H21 H 0.75840 0.09400 0.45590
H22 H 0.69270 0.07820 0.40770
C3 C 0.656(1) 0.1125(4) 0.4508(6)
H23 H 0.64900 0.12890 0.42080
H24 H 0.68180 0.12590 0.48300
C4 C 0.5773(7) 0.1019(3) 0.4535(4)
H25 H 0.56180 0.11920 0.47610
H26 H 0.54110 0.10410 0.41790
C5 C 0.5690(7) 0.0659(3) 0.4734(5)
H27 H 0.59030 0.07130 0.51170
C6 C 0.6193(8) 0.0409(4) 0.4709(7)
H28 H 0.60060 0.03440 0.43280
C7 C 0.3111(8) 0.1620(3) 0.4208(5)
H29 H 0.35120 0.17440 0.44890
C8 C 0.3656(8) 0.1370(3) 0.4058(4)
H30 H 0.40440 0.12890 0.43810
H31 H 0.33730 0.11580 0.38850
C9 C 0.4048(10) 0.1534(5) 0.3697(7)
H32 H 0.45430 0.16260 0.39170
H33 H 0.41570 0.13420 0.34780
C10 C 0.3674(12) 0.1816(5) 0.3349(8)
H34 H 0.40680 0.19570 0.32570
H35 H 0.33500 0.17080 0.30210
C11 C 0.3213(8) 0.2056(3) 0.3540(5)
H36 H 0.28080 0.21470 0.32340
H37 H 0.35320 0.22600 0.37030
C12 C 0.2857(9) 0.1918(4) 0.3916(6)
H38 H 0.24490 0.17910 0.36440
C13 C 0.0906(6) 0.2183(3) 0.5221(4)
H39 H 0.12800 0.22060 0.55780
C14 C 0.0198(7) 0.2423(3) 0.5188(5)
H40 H 0.03650 0.26720 0.52640
H41 H -0.01590 0.24140 0.48280
C15 C -0.0215(9) 0.2299(4) 0.5587(6)
H42 H 0.01280 0.23210 0.59500
H43 H -0.06680 0.24470 0.55540
C16 C -0.0451(9) 0.1908(4) 0.5466(7)
H44 H -0.08060 0.18900 0.51060
H45 H -0.07180 0.18240 0.57140
C17 C 0.0251(8) 0.1670(4) 0.5513(5)
H46 H 0.05990 0.16810 0.58760
H47 H 0.00870 0.14210 0.54360
C18 C 0.0662(6) 0.1795(3) 0.5127(5)
H48 H 0.03020 0.17750 0.47650
C19 C 0.7525(9) 0.2483(4) 0.5634(6)
H49 H 0.71250 0.24440 0.52970
H50 H 0.79700 0.23390 0.56310
C20 C 0.7761(9) 0.2895(3) 0.5679(5)
H51 H 0.79710 0.29620 0.53930
H52 H 0.73140 0.30460 0.56560
C21 C 0.8371(10) 0.2941(4) 0.6222(6)
H53 H 0.88440 0.28240 0.62100
H54 H 0.84810 0.31970 0.62840
C22 C 0.8183(7) 0.2814(3) 0.6618(5)
H55 H 0.78030 0.29750 0.66890
H56 H 0.86370 0.28200 0.69300
C23 C 0.7856(6) 0.2433(3) 0.6564(4)
H57 H 0.82790 0.22590 0.66140
C24 C 0.7277(7) 0.2377(3) 0.6020(4)
H58 H 0.68550 0.25440 0.60130
C25 C 0.4646(6) -0.1437(2) 0.7255(4)
H59 H 0.43380 -0.16510 0.72590
H60 H 0.48080 -0.14450 0.69340
C26 C 0.4157(6) -0.1102(2) 0.7242(4)
H61 H 0.39600 -0.11020 0.75480
H62 H 0.37180 -0.11020 0.69200
C27 C 0.4642(5) -0.0764(2) 0.7255(3)
H63 H 0.48140 -0.07650 0.69340
C28 C 1.00000 0.1600(8) 0.75000
C29 C 0.9624(10) 0.1781(6) 0.7848(8)
C30 C 0.9724(12) 0.2186(6) 0.7869(8)
C31 C 1.00000 0.2415(9) 0.75000
N12 N 0.7251(12) -0.0546(5) 0.7307(8)
O31 O 0.1700(7) 0.1496(4) 0.8798(4)
O32 O 0.6097(8) -0.0568(3) 0.6560(5)
O33 O -0.1075(7) 0.0936(4) 0.5829(6)
O34 O 0.7030(8) 0.0036(4) 0.6143(6)
O35 O 0.8084(8) 0.0587(4) 0.6441(5)
O36 O 0.1066(6) 0.1709(3) 0.3962(4)
O37 O 0.6042(9) 0.3171(4) 0.6403(7)
O38 O 0.9174(10) 0.0680(5) 0.4877(8)
O39 O 0.9520(13) 0.0767(6) 0.8509(9)
O40 O 0.942(3) 0.0419(12) 0.743(2)
O41 O 1.074(1) 0.0640(5) 0.5167(7)
O42 O 0.8701(17) 0.1143(7) 0.4011(9)
O43 O 0.8437(15) -0.0043(7) 0.4664(11)
O44 O 1.044(3) 0.0962(13) 0.434(2)
O45 O 0.770(2) -0.0448(11) 0.5674(18)
O46 O 1.1946(16) 0.0589(7) 0.5074(12)
O47? O 0.1016(15) 0.0449(7) 0.6872(11)
V2A V 0.60373(8) 0.09170(3) 0.92561(5)
V3A V 0.65542(7) 0.18494(3) 0.90341(5)
V4A V 0.50204(8) 0.15592(3) 0.91816(5)
V5A V 0.33710(8) 0.19182(4) 0.82598(5)
V6A V 0.39458(8) 0.10381(3) 0.86432(5)
V7A V 0.24928(7) 0.10881(4) 0.64256(5)
V8A V 0.34173(8) 0.05257(4) 0.75974(5)
V9A V 0.34581(8) 0.04315(4) 0.65427(5)
V10A V 0.72507(8) 0.18698(3) 0.81400(5)
V11A V 0.59380(8) 0.22976(3) 0.77184(5)
P1A P 0.48369(12) 0.02932(5) 0.86245(8)
P2A P 0.24418(12) 0.12382(6) 0.76456(8)
P3A P 0.49815(13) 0.23301(5) 0.85538(8)
Zn1A Zn 0.80559(7) 0.18614(3) 1.03198(5)
Zn2A Zn 0.50000 0.00000 1.00000
Zn3A Zn 0.05919(17) 0.09589(11) 0.72702(12)
Zn3A* Zn 1.05919(17) 0.09589(11) 0.72702(12)
O1A O 0.3026(4) 0.00638(15) 0.6296(2)
O2A O 0.6533(3) 0.21359(12) 0.84126(18)
O3A O 0.4842(3) -0.00067(13) 0.82363(18)
O4A O 0.2830(3) 0.06830(13) 0.69043(19)
O5A O 0.4258(3) 0.05944(12) 0.83096(18)
O6A O 0.6411(3) 0.07804(14) 0.98650(18)
O7A O 0.5843(3) 0.03586(14) 0.77502(19)
O8A O 0.4958(3) 0.10381(13) 0.91409(18)
O9A O 0.6114(3) 0.14382(13) 0.92697(18)
O10A O 0.4094(3) 0.15478(13) 0.85780(18)
O11A O 0.2768(3) 0.15693(13) 0.62479(18)
O12A O 0.3173(3) 0.08533(13) 0.60903(18)
O13A O 0.5442(3) 0.20115(13) 0.89014(19)
O14A O 0.7095(3) 0.20517(14) 0.95707(19)
O15A O 0.3361(3) 0.09609(15) 0.8980(2)
O16A O 0.2465(3) 0.13740(13) 0.70877(18)
O17A O 0.3206(3) 0.10146(13) 0.78793(18)
O18A O 0.5364(3) 0.26878(14) 0.8740(2)
O19A O 0.4842(3) 0.16935(15) 0.9714(2)
O20A O 0.4613(3) 0.01728(14) 0.91066(19)
O20D O 0.4613(3) -0.01728(14) 0.41066(19)
O21A O 0.5656(3) 0.04777(13) 0.87948(18)
O22A O 0.4995(3) 0.22539(13) 0.79621(18)
O23A O 0.6505(3) 0.19527(13) 0.74447(19)
O24A O 0.6231(4) 0.26980(15) 0.7680(2)
O25A O 0.2476(3) 0.15618(14) 0.80012(19)
O26A O 0.1752(3) 0.09995(15) 0.7594(2)
O27A O 0.4147(3) 0.23073(13) 0.8554(2)
O28A O 0.2925(3) 0.02022(15) 0.7731(2)
O29A O 0.1617(3) 0.10165(15) 0.6070(2)
O30A O 0.8019(3) 0.21021(15) 0.8217(2)
N1D N 0.5059(5) -0.05298(19) 0.5255(3)
H1D H 0.53980 -0.05470 0.55860
H2D H 0.52310 -0.06700 0.50340
N2D N 0.3855(4) -0.0053(2) 0.5036(3)
H3D H 0.35170 -0.00450 0.47050
H4D H 0.37440 0.01270 0.52310
N3A N 0.7692(5) 0.2148(2) 1.0911(3)
H5A H 0.81050 0.22010 1.11930
H6A H 0.74620 0.23560 1.07720
N4A N 0.7301(5) 0.1480(2) 1.0431(3)
H7A H 0.69600 0.14220 1.01140
H8A H 0.75630 0.12790 1.05720
N5A N 0.8627(5) 0.1579(2) 0.9853(3)
H9A H 0.87590 0.13560 0.99870
H10A H 0.83190 0.15590 0.95130
N6A N 0.8722(4) 0.22849(18) 1.0177(2)
H11A H 0.84200 0.24790 1.00620
H12A H 0.90850 0.23450 1.04840
N7A N 0.2556(4) 0.23604(19) 0.8036(3)
H13A H 0.28110 0.25610 0.79940
H14A H 0.22070 0.23090 0.77190
N8A N 0.3067(4) 0.20149(19) 0.8985(3)
H15A H 0.27260 0.18460 0.90180
H16A H 0.34930 0.19960 0.92690
N9A N 0.5780(4) -0.04242(17) 0.7738(3)
H17A H 0.60610 -0.04460 0.75090
H18A H 0.61090 -0.03830 0.80660
N10A N 1.0468(14) 0.1443(7) 0.6876(9)
N10A* N 0.0468(14) 0.1443(7) 0.6876(9)
N11A N 1.0115(13) 0.1244(6) 0.7756(8)
N11A* N 0.0115(13) 0.1244(6) 0.7756(8)
N11* N -0.0115(13) 0.1244(6) 0.7244(8)
C1D C 0.2960(7) -0.0519(4) 0.5234(5)
H19D H 0.26850 -0.05630 0.48600
H20D H 0.27020 -0.03240 0.53590
C2D C 0.2941(11) -0.0847(5) 0.5548(8)
H21D H 0.24160 -0.09400 0.54410
H22D H 0.30730 -0.07820 0.59230
C3D C 0.344(1) -0.1125(4) 0.5492(6)
H23D H 0.35100 -0.12890 0.57920
H24D H 0.31820 -0.12590 0.51700
C4D C 0.4227(7) -0.1019(3) 0.5465(4)
H25D H 0.43820 -0.11920 0.52390
H26D H 0.45890 -0.10410 0.58210
C5D C 0.4310(7) -0.0659(3) 0.5266(5)
H27D H 0.40970 -0.07130 0.48830
C6D C 0.3807(8) -0.0409(4) 0.5291(7)
H28D H 0.39940 -0.03440 0.56720
C7A C 0.6889(8) 0.1620(3) 1.0792(5)
H29A H 0.64880 0.17440 1.05110
C8A C 0.6344(8) 0.1370(3) 1.0942(4)
H30A H 0.59560 0.12890 1.06190
H31A H 0.66270 0.11580 1.11150
C9A C 0.5952(10) 0.1534(5) 1.1303(7)
H32A H 0.54570 0.16260 1.10830
H33A H 0.58430 0.13420 1.15220
C10A C 0.6326(12) 0.1816(5) 1.1651(8)
H34A H 0.59320 0.19570 1.17430
H35A H 0.66500 0.17080 1.19790
C11A C 0.6787(8) 0.2056(3) 1.1460(5)
H36A H 0.71920 0.21470 1.17660
H37A H 0.64680 0.22600 1.12970
C12A C 0.7143(9) 0.1918(4) 1.1084(6)
H38A H 0.75510 0.17910 1.13560
C13A C 0.9094(6) 0.2183(3) 0.9779(4)
H39A H 0.87200 0.22060 0.94220
C14A C 0.9802(7) 0.2423(3) 0.9812(5)
H40A H 0.96350 0.26720 0.97360
H41A H 1.01590 0.24140 1.01720
C15A C 1.0215(9) 0.2299(4) 0.9413(6)
H42A H 0.98720 0.23210 0.90500
H43A H 1.06680 0.24470 0.94460
C16A C 1.0451(9) 0.1908(4) 0.9534(7)
H44A H 1.08060 0.18900 0.98940
H45A H 1.07180 0.18240 0.92860
C17A C 0.9749(8) 0.1670(4) 0.9487(5)
H46A H 0.94010 0.16810 0.91240
H47A H 0.99130 0.14210 0.95640
C18A C 0.9338(6) 0.1795(3) 0.9873(5)
H48A H 0.96980 0.17750 1.02350
C19A C 0.2475(9) 0.2483(4) 0.9366(6)
H49A H 0.28750 0.24440 0.97030
H50A H 0.20300 0.23390 0.93690
C20A C 0.2239(9) 0.2895(3) 0.9321(5)
H51A H 0.20290 0.29620 0.96070
H52A H 0.26860 0.30460 0.93440
C21A C 0.1629(10) 0.2941(4) 0.8778(6)
H53A H 0.11560 0.28240 0.87900
H54A H 0.15190 0.31970 0.87160
C22A C 0.1817(7) 0.2814(3) 0.8382(5)
H55A H 0.21970 0.29750 0.83110
H56A H 0.13630 0.28200 0.80700
C23A C 0.2144(6) 0.2433(3) 0.8436(4)
H57A H 0.17210 0.22590 0.83860
C24A C 0.2723(7) 0.2377(3) 0.8980(4)
H58A H 0.31450 0.25440 0.89870
C25A C 0.5354(6) -0.1437(2) 0.7745(4)
H59A H 0.56620 -0.16510 0.77410
H60A H 0.51920 -0.14450 0.80660
C26A C 0.5843(6) -0.1102(2) 0.7758(4)
H61A H 0.60400 -0.11020 0.74520
H62A H 0.62820 -0.11020 0.80800
C27A C 0.5358(5) -0.0764(2) 0.7745(3)
H63A H 0.51860 -0.07650 0.80660
C29A C 1.0376(10) 0.1781(6) 0.7152(8)
C30A C 1.0276(12) 0.2186(6) 0.7131(8)
O36A O 0.8934(6) 0.1709(3) 1.1038(4)
O39A O 0.0480(13) 0.0767(6) 0.6491(9)
O40A O 0.058(3) 0.0419(12) 0.757(2)
#END
