
#######################################################################
#
#                 Cambridge Crystallographic Data Centre
#                                CCDC
#
#######################################################################
#
# If this CIF has been generated from an entry in the Cambridge
# Structural Database, then it will include bibliographic, chemical,
# crystal, experimental, refinement or atomic coordinate data resulting
# from the CCDC's data processing and validation procedures.
#
#######################################################################

data_CSD_CIF_DEKPEP
_audit_creation_date 2006-09-26
_audit_creation_method CSD-ConQuest-V1
_database_code_CSD DEKPEP
_database_code_depnum_ccdc_archive 'CCDC 293688'
_chemical_formula_sum 'C16 H24 F2 Ga4 N2 O18 P6'
_chemical_formula_moiety
;
(C5 H6 N1 1+)2n,n(C6 H12 F2 Ga4 O18 P6 2-)
;
_journal_coden_Cambridge 208
_journal_volume 179
_journal_year 2006
_journal_page_first 1739
_journal_name_full 'J.Solid State Chem. '
loop_
_publ_author_name
"Zhanhui Yuan"
"W.Clegg"
"M.P.Attfield"
_chemical_name_systematic
;
catena-(bis(Pyridinium) 
bis(\m~6~-ethane-1,2-diphosphonato)-(\m~4~-ethane-1,2-diphosphonato)-bis(\m~3~
-fluoro)-tetra-gallium)
;
_cell_volume    738.946
_exptl_crystal_colour 'colorless'
_exptl_crystal_density_diffrn 2.326
_exptl_crystal_description 'block'
_diffrn_ambient_temperature 150
#These two values have been output from a single CSD field.
_refine_ls_R_factor_gt 0.06
_refine_ls_wR_factor_gt 0.06
_symmetry_cell_setting triclinic
_symmetry_space_group_name_H-M 'P -1'
_symmetry_Int_Tables_number 2
loop_
_symmetry_equiv_pos_site_id
_symmetry_equiv_pos_as_xyz
1 x,y,z
2 -x,-y,-z
_cell_length_a 8.670(4)
_cell_length_b 9.742(3)
_cell_length_c 10.406(2)
_cell_angle_alpha 81.44(3)
_cell_angle_beta 65.83(5)
_cell_angle_gamma 67.16(3)
_cell_formula_units_Z 1
loop_
_atom_type_symbol
_atom_type_radius_bond
C 0.68
H 0.23
F 0.64
Ga 1.26
N 0.68
O 0.68
P 1.05
loop_
_atom_site_label
_atom_site_type_symbol
_atom_site_fract_x
_atom_site_fract_y
_atom_site_fract_z
Ga1 Ga 0.13242(11) 1.14930(9) 0.86246(8)
Ga2 Ga 0.11989(11) 1.54631(9) 0.84910(9)
P1 P 0.2412(3) 0.8029(2) 0.8824(2)
P2 P 0.1994(3) 1.3579(2) 0.5908(2)
P3 P 0.7123(3) 0.7193(2) 0.9901(2)
F1 F 0.0010(6) 1.3928(5) 0.9371(4)
O1 O 0.2400(7) 0.9481(5) 0.8019(5)
O2 O 0.1039(7) 0.8403(6) 1.0365(5)
O3 O 0.2018(7) 0.7082(6) 0.8052(5)
O4 O 0.7146(7) 0.8498(6) 1.0568(6)
O5 O 0.6888(7) 0.5935(6) 1.0965(5)
O6 O 0.8795(7) 0.6653(6) 0.8534(5)
O7 O 0.3623(8) 1.3043(6) 0.4555(6)
O8 O 0.1722(8) 1.2249(6) 0.6872(5)
O9 O 0.2147(7) 1.4743(6) 0.6654(5)
C1 C 0.6911(13) 1.0242(10) 0.5482(10)
H1 H 0.66100 0.96930 0.49990
C2 C 0.7908(12) 0.9521(10) 0.6272(9)
H2 H 0.83000 0.84680 0.63520
C3 C 0.8342(12) 1.0341(11) 0.6957(9)
H3 H 0.90310 0.98520 0.75160
C4 C 0.7783(14) 1.1856(11) 0.6832(10)
H4 H 0.81060 1.24250 0.72750
C5 C 0.6743(12) 1.2540(11) 0.6051(9)
H5 H 0.62980 1.35950 0.59850
C6 C 0.5133(10) 0.8051(8) 0.9515(8)
H6 H 0.41030 0.85080 1.03970
H7 H 0.52980 0.88700 0.88490
C7 C -0.0043(10) 1.4403(8) 0.5561(8)
H8 H -0.02720 1.36110 0.52550
H9 H -0.10770 1.48480 0.64450
C8 C 0.4586(10) 0.7063(8) 0.8890(8)
H10 H 0.45730 0.61620 0.94720
H11 H 0.54960 0.67380 0.79270
N1 N 0.6359(10) 1.1730(9) 0.5389(8)
H12 H 0.571(13) 1.217(11) 0.499(10)
Ga1A Ga -0.13242(11) 0.85070(9) 1.13754(8)
Ga1A* Ga 0.86758(11) 0.85070(9) 1.13754(8)
Ga1A** Ga -0.13242(11) 1.85070(9) 0.13754(8)
Ga1* Ga -0.86758(11) 1.14930(9) 0.86246(8)
Ga1A*** Ga -0.13242(11) 1.85070(9) 1.13754(8)
Ga2A Ga -0.11989(11) 1.45369(9) 1.15090(9)
Ga2* Ga 0.11989(11) 0.54631(9) 0.84910(9)
Ga2A* Ga 0.88011(11) 0.45369(9) 1.15090(9)
Ga2** Ga 1.11989(11) 0.54631(9) 0.84910(9)
Ga2A** Ga -0.11989(11) 1.45369(9) 0.15090(9)
Ga2*** Ga -0.88011(11) 1.54631(9) 0.84910(9)
Ga2A*** Ga -1.11989(11) 1.45369(9) 1.15090(9)
P1A P -0.2412(3) 1.1971(2) 1.1176(2)
P2A P -0.1994(3) 1.6421(2) 0.4092(2)
P3A P -0.7123(3) 1.2807(2) 1.0099(2)
F1A F -0.0010(6) 1.6072(5) 1.0629(4)
F1A* F -0.0010(6) 0.6072(5) 1.0629(4)
O1A O -0.2400(7) 1.0519(5) 1.1981(5)
O2A O -0.1039(7) 1.1597(6) 0.9635(5)
O3A O -0.2018(7) 1.2918(6) 1.1948(5)
O3* O 0.2018(7) 1.7082(6) 0.8052(5)
O4A O -0.7146(7) 1.1502(6) 0.9432(6)
O4A* O 0.2854(7) 1.1502(6) 0.9432(6)
O4* O -0.2854(7) 0.8498(6) 1.0568(6)
O5A O -0.6888(7) 1.4065(6) 0.9035(5)
O5A* O 0.3112(7) 1.4065(6) 0.9035(5)
O5* O -0.3112(7) 1.5935(6) 1.0965(5)
O6A O -0.8795(7) 1.3347(6) 1.1466(5)
O6* O -0.1205(7) 1.6653(6) 0.8534(5)
O6A* O 0.1205(7) 1.3347(6) 1.1466(5)
O7A O -0.3623(8) 1.6957(6) 0.5445(6)
O8A O -0.1722(8) 1.7751(6) 0.3128(5)
O8A* O -0.1722(8) 0.7751(6) 1.3128(5)
O9A O -0.2147(7) 1.5257(6) 0.3346(5)
O9A* O -0.2147(7) 1.5257(6) 1.3346(5)
C6A C -0.5133(10) 1.1949(8) 1.0485(8)
H6A H -0.41030 1.14920 0.96030
H7A H -0.52980 1.11300 1.11510
C7A C 0.0043(10) 1.5597(8) 0.4439(8)
H8A H 0.02720 1.63890 0.47450
H9A H 0.10770 1.51520 0.35550
C8A C -0.4586(10) 1.2937(8) 1.1110(8)
H10A H -0.45730 1.38380 1.05280
H11A H -0.54960 1.32620 1.20730
#END
