
#######################################################################
#
#                 Cambridge Crystallographic Data Centre
#                                CCDC
#
#######################################################################
#
# If this CIF has been generated from an entry in the Cambridge
# Structural Database, then it will include bibliographic, chemical,
# crystal, experimental, refinement or atomic coordinate data resulting
# from the CCDC's data processing and validation procedures.
#
#######################################################################

data_CSD_CIF_DEKYIE
_audit_creation_date 2017-09-28
_audit_creation_method CSD-ConQuest-V1
_database_code_CSD DEKYIE
_database_code_depnum_ccdc_archive 'CCDC 1572544'
_chemical_formula_sum 'C52 H103 N3 O18 U2'
_chemical_formula_moiety
;
(C45 H78 O16 U2 2-)n,2(C2 H8 N1 1+),x(C3 H7 N1 O1),x(H2 O1)
;
_journal_coden_Cambridge 222
_journal_volume 46
_journal_year 2017
_journal_page_first 13677
_journal_name_full 'Dalton Trans. '
loop_
_publ_author_name
"P.Thuery"
"J.Harrowfield"
_chemical_name_systematic
;
catena-[bis(dimethylammonium) tris(\m-pentadecanedioato)-di-uranium 
N,N-dimethylformamide solvate hydrate]
;
_cell_volume   6970.243
_exptl_crystal_colour 'light yellow'
_exptl_crystal_density_diffrn 1.375
_exptl_crystal_description 'platelet'
_diffrn_ambient_temperature 150
_refine_special_details
;
Disordered water and N,N-dimethylformamide solvent molecules were not 
modelled and the disordered density was taken into account using the 
SQUEEZE/PLATON procedure.
;
#These two values have been output from a single CSD field.
_refine_ls_R_factor_gt 0.0377
_refine_ls_wR_factor_gt 0.0377
_symmetry_cell_setting monoclinic
_symmetry_space_group_name_H-M 'C 2/c'
_symmetry_Int_Tables_number 15
loop_
_symmetry_equiv_pos_site_id
_symmetry_equiv_pos_as_xyz
1 x,y,z
2 -x,y,1/2-z
3 1/2+x,1/2+y,z
4 1/2-x,1/2+y,1/2-z
5 -x,-y,-z
6 x,-y,-1/2+z
7 -1/2-x,-1/2-y,-z
8 -1/2+x,-1/2-y,-1/2+z
_cell_length_a 33.683(2)
_cell_length_b 13.1767(9)
_cell_length_c 16.5993(8)
_cell_angle_alpha 90
_cell_angle_beta 108.896(4)
_cell_angle_gamma 90
_cell_formula_units_Z 4
loop_
_atom_type_symbol
_atom_type_radius_bond
C 0.68
H 0.23
N 0.68
O 0.68
U 1.96
loop_
_atom_site_label
_atom_site_type_symbol
_atom_site_fract_x
_atom_site_fract_y
_atom_site_fract_z
U1 U 0.25006(2) 0.09948(2) 0.86186(2)
O1 O 0.21929(14) 0.1349(4) 0.9249(3)
O2 O 0.28081(14) 0.0618(3) 0.7994(2)
O3 O 0.30224(13) 0.2283(3) 0.9291(3)
O4 O 0.31148(14) 0.0802(3) 0.9934(3)
O5 O 0.75081(13) 0.4268(3) 1.9198(3)
O6 O 0.70457(15) 0.4561(3) 1.7941(3)
O7 O 0.19241(15) 0.1467(4) 0.7323(3)
O8 O 0.23588(13) 0.2678(3) 0.7924(3)
C1 C 0.32240(19) 0.1715(5) 0.9912(4)
C2 C 0.35813(18) 0.2182(4) 1.0614(4)
H1 H 0.37790 0.24860 1.03520
H2 H 0.34660 0.27430 1.08670
C3 C 0.38279(19) 0.1499(5) 1.1324(4)
H3 H 0.39800 0.09900 1.10970
H4 H 0.36330 0.11320 1.15560
C4 C 0.41435(18) 0.2097(4) 1.2042(3)
H5 H 0.43240 0.24980 1.17930
H6 H 0.39860 0.25830 1.22790
C5 C 0.4423(2) 0.1468(5) 1.2764(4)
H7 H 0.42430 0.10540 1.30050
H8 H 0.45870 0.09950 1.25320
C6 C 0.47230(18) 0.2069(5) 1.3473(4)
H9 H 0.45590 0.25160 1.37280
H10 H 0.48930 0.25100 1.32290
C7 C 0.50140(18) 0.1428(5) 1.4166(4)
H11 H 0.51880 0.10090 1.39140
H12 H 0.48430 0.09590 1.43840
C8 C 0.53062(18) 0.2023(5) 1.4918(4)
H13 H 0.54770 0.24930 1.47010
H14 H 0.51330 0.24390 1.51730
C9 C 0.5597(2) 0.1374(5) 1.5607(4)
H15 H 0.57740 0.09750 1.53500
H16 H 0.54240 0.08870 1.58030
C10 C 0.58840(19) 0.1922(5) 1.6382(4)
H17 H 0.60500 0.24310 1.61900
H18 H 0.57090 0.22920 1.66630
C11 C 0.6182(2) 0.1230(5) 1.7029(4)
H19 H 0.60170 0.06660 1.71520
H20 H 0.63790 0.09320 1.67630
C12 C 0.6437(2) 0.1705(5) 1.7865(4)
H21 H 0.62430 0.19320 1.81690
H22 H 0.66230 0.11810 1.82210
C13 C 0.6697(2) 0.2586(5) 1.7775(4)
H23 H 0.65100 0.31350 1.74620
H24 H 0.68750 0.23750 1.74310
C14 C 0.6982(2) 0.3004(5) 1.8638(4)
H25 H 0.68110 0.30870 1.90180
H26 H 0.72010 0.24920 1.89000
C15 C 0.7193(2) 0.3990(4) 1.8598(4)
C16 C 0.2029(2) 0.2398(5) 0.7359(5)
C17 C 0.1762(2) 0.3162(5) 0.6750(4)
H27 H 0.16200 0.35970 0.70600
H28 H 0.19450 0.36030 0.65400
C18 C 0.1441(2) 0.2696(5) 0.6012(4)
H29 H 0.12540 0.22670 0.62220
H30 H 0.15830 0.22500 0.57110
C19 C 0.1169(2) 0.3486(5) 0.5368(4)
H31 H 0.10220 0.39310 0.56600
H32 H 0.13520 0.39170 0.51490
C20 C 0.08544(19) 0.2956(5) 0.4641(4)
H33 H 0.06720 0.25350 0.48690
H34 H 0.10060 0.24920 0.43720
C21 C 0.05787(19) 0.3652(5) 0.3959(4)
H35 H 0.07580 0.40950 0.37410
H36 H 0.04120 0.40910 0.42130
C22 C 0.02813(19) 0.3054(5) 0.3219(4)
H37 H 0.04520 0.26000 0.29860
H38 H 0.01030 0.26180 0.34460
C23 C 0.00000 0.3676(6) 0.25000
H39 H -0.01760 0.41180 0.27280
N1 N 0.2830(3) 0.4328(5) 0.8831(5)
H40 H 0.28020 0.42540 0.82700
H41 H 0.28050 0.37010 0.90380
C24 C 0.2487(3) 0.4953(8) 0.8893(5)
H42 H 0.25120 0.50420 0.94940
H43 H 0.22190 0.46200 0.85930
H44 H 0.24970 0.56170 0.86350
C25 C 0.3256(5) 0.4705(8) 0.9277(9)
H45 H 0.32850 0.53980 0.90880
H46 H 0.34620 0.42640 0.91490
H47 H 0.33060 0.47050 0.98930
O7A O -0.19241(15) 0.1467(4) -0.2323(3)
O8A O -0.23588(13) 0.2678(3) -0.2924(3)
C16A C -0.2029(2) 0.2398(5) -0.2359(5)
C17A C -0.1762(2) 0.3162(5) -0.1750(4)
H27A H -0.16200 0.35970 -0.20600
H28A H -0.19450 0.36030 -0.15400
C18A C -0.1441(2) 0.2696(5) -0.1012(4)
H29A H -0.12540 0.22670 -0.12220
H30A H -0.15830 0.22500 -0.07110
C19A C -0.1169(2) 0.3486(5) -0.0368(4)
H31A H -0.10220 0.39310 -0.06600
H32A H -0.13520 0.39170 -0.01490
C20A C -0.08544(19) 0.2956(5) 0.0359(4)
H33A H -0.06720 0.25350 0.01310
H34A H -0.10060 0.24920 0.06280
C21A C -0.05787(19) 0.3652(5) 0.1041(4)
H35A H -0.07580 0.40950 0.12590
H36A H -0.04120 0.40910 0.07870
C22A C -0.02813(19) 0.3054(5) 0.1781(4)
H37A H -0.04520 0.26000 0.20140
H38A H -0.01030 0.26180 0.15540
H39A H 0.01760 0.41180 0.22720
U1A U -0.25006(2) 0.09948(2) -0.36186(2)
O1A O -0.21929(14) 0.1349(4) -0.4249(3)
O2A O -0.28081(14) 0.0618(3) -0.2994(2)
O3A O -0.30224(13) 0.2283(3) -0.4291(3)
O4A O -0.31148(14) 0.0802(3) -0.4934(3)
O5A O -0.75081(13) 0.4268(3) -1.4198(3)
O6A O -0.70457(15) 0.4561(3) -1.2941(3)
C1A C -0.32240(19) 0.1715(5) -0.4912(4)
C2A C -0.35813(18) 0.2182(4) -0.5614(4)
H1A H -0.37790 0.24860 -0.53520
H2A H -0.34660 0.27430 -0.58670
C3A C -0.38279(19) 0.1499(5) -0.6324(4)
H3A H -0.39800 0.09900 -0.60970
H4A H -0.36330 0.11320 -0.65560
C4A C -0.41435(18) 0.2097(4) -0.7042(3)
H5A H -0.43240 0.24980 -0.67930
H6A H -0.39860 0.25830 -0.72790
C5A C -0.4423(2) 0.1468(5) -0.7764(4)
H7A H -0.42430 0.10540 -0.80050
H8A H -0.45870 0.09950 -0.75320
C6A C -0.47230(18) 0.2069(5) -0.8473(4)
H9A H -0.45590 0.25160 -0.87280
H10A H -0.48930 0.25100 -0.82290
C7A C -0.50140(18) 0.1428(5) -0.9166(4)
H11A H -0.51880 0.10090 -0.89140
H12A H -0.48430 0.09590 -0.93840
C8A C -0.53062(18) 0.2023(5) -0.9918(4)
H13A H -0.54770 0.24930 -0.97010
H14A H -0.51330 0.24390 -1.01730
C9A C -0.5597(2) 0.1374(5) -1.0607(4)
H15A H -0.57740 0.09750 -1.03500
H16A H -0.54240 0.08870 -1.08030
C10A C -0.58840(19) 0.1922(5) -1.1382(4)
H17A H -0.60500 0.24310 -1.11900
H18A H -0.57090 0.22920 -1.16630
C11A C -0.6182(2) 0.1230(5) -1.2029(4)
H19A H -0.60170 0.06660 -1.21520
H20A H -0.63790 0.09320 -1.17630
C12A C -0.6437(2) 0.1705(5) -1.2865(4)
H21A H -0.62430 0.19320 -1.31690
H22A H -0.66230 0.11810 -1.32210
C13A C -0.6697(2) 0.2586(5) -1.2775(4)
H23A H -0.65100 0.31350 -1.24620
H24A H -0.68750 0.23750 -1.24310
C14A C -0.6982(2) 0.3004(5) -1.3638(4)
H25A H -0.68110 0.30870 -1.40180
H26A H -0.72010 0.24920 -1.39000
C15A C -0.7193(2) 0.3990(4) -1.3598(4)
U1B U 0.75006(2) 0.59948(2) 1.86186(2)
U1C U -0.75006(2) 0.59948(2) -1.36186(2)
O5B O 0.25081(13) -0.0732(3) 0.9198(3)
O5C O -0.25081(13) -0.0732(3) -0.4198(3)
O6B O 0.20457(15) -0.0439(3) 0.7941(3)
O6C O -0.20457(15) -0.0439(3) -0.2941(3)
#END
