
#######################################################################
#
#                 Cambridge Crystallographic Data Centre
#                                CCDC
#
#######################################################################
#
# If this CIF has been generated from an entry in the Cambridge
# Structural Database, then it will include bibliographic, chemical,
# crystal, experimental, refinement or atomic coordinate data resulting
# from the CCDC's data processing and validation procedures.
#
#######################################################################

data_CSD_CIF_DELVAR
_audit_creation_date 1986-07-24
_audit_creation_method CSD-ConQuest-V1
_database_code_CSD DELVAR
_chemical_formula_sum 'C14 H14 Ag2 Mo1 N2 O8'
_chemical_formula_moiety
;
(C14 H10 Ag1 Mo1 N2 O6 1-)n,n(H4 Ag1 O2 1+)
;
_journal_coden_Cambridge 93
_journal_volume 280
_journal_year 1985
_journal_page_first 1360
_journal_name_full 'Dokl.Akad.Nauk SSSR(Russ.)(Proc.Nat.Acad.Sci.USSR) '
loop_
_publ_author_name
"N.K.Makhmudova"
"Kh.T.Sharipov"
"T.S.Khodashova"
"M.A.Porai-Koshits"
"N.A.Parpiev"
_chemical_name_systematic
;
catena(Diaqua-silver 
(\m~2~-bis(benzhydroximato-O,O')-dioxo-molybdenum)-silver)
;
_cell_volume   1970.086
_exptl_crystal_density_diffrn 2.191
_diffrn_ambient_temperature ?
_diffrn_special_details
;
The study was carried out at room temperature,in the range 283-303K

;
#These two values have been output from a single CSD field.
_refine_ls_R_factor_gt 0.076
_refine_ls_wR_factor_gt 0.076
_symmetry_cell_setting monoclinic
_symmetry_space_group_name_H-M 'P 21/c'
_symmetry_Int_Tables_number 14
loop_
_symmetry_equiv_pos_site_id
_symmetry_equiv_pos_as_xyz
1 x,y,z
2 -x,1/2+y,1/2-z
3 -x,-y,-z
4 x,-1/2-y,-1/2+z
_cell_length_a 10.566(2)
_cell_length_b 10.438(1)
_cell_length_c 17.864(3)
_cell_angle_alpha 90
_cell_angle_beta 90.57(1)
_cell_angle_gamma 90
_cell_formula_units_Z 4
loop_
_atom_type_symbol
_atom_type_radius_bond
C 0.68
H 0.23
Ag 1.50
Mo 1.40
N 0.68
O 0.68
loop_
_atom_site_label
_atom_site_type_symbol
_atom_site_fract_x
_atom_site_fract_y
_atom_site_fract_z
Mo1 Mo 0.9553(2) 0.2406(2) 0.1301(1)
Ag1 Ag 0.8394(2) 0.1106(2) -0.1239(1)
Ag2 Ag 1.1313(2) 0.2336(2) -0.1648(1)
O1 O 0.9292(1) 0.2161(10) 0.0196(5)
O2 O 0.9154(10) 0.2639(11) 0.2389(5)
O3 O 0.8060(11) 0.1063(11) 0.1164(5)
O4 O 0.7964(11) 0.3671(11) 0.1347(5)
O5 O 1.0560(12) 0.3662(12) 0.1107(5)
O6 O 1.0534(12) 0.1215(12) 0.1576(5)
O7 O 1.1814(8) 0.0814(17) -0.2373(8)
O8 O 1.0939(18) 0.3724(16) -0.0800(8)
N1 N 0.8483(14) 0.1198(13) -0.0055(6)
N2 N 0.8252(14) 0.3536(13) 0.2599(6)
C1 C 0.7857(17) 0.0630(16) 0.0473(7)
C2 C 0.7644(13) 0.4053(12) 0.2017(6)
C3 C 0.7038(16) -0.0415(18) 0.0351(7)
C4 C 0.5909(17) -0.0561(18) 0.0778(8)
C5 C 0.5112(19) -0.1538(23) 0.0679(11)
C6 C 0.5363(23) -0.2432(21) 0.0146(11)
C7 C 0.6517(23) -0.2360(18) -0.0271(9)
C8 C 0.7271(19) -0.1367(17) -0.0184(8)
C9 C 0.6579(16) 0.4884(15) 0.2099(8)
C10 C 0.6521(19) 0.5831(19) 0.2680(9)
C11 C 0.5458(24) 0.6569(20) 0.2739(11)
C12 C 0.4497(24) 0.6482(22) 0.2265(12)
C13 C 0.4521(20) 0.5586(20) 0.1685(11)
C14 C 0.5599(18) 0.4843(18) 0.1609(9)
H1 H 0.57000 0.01200 0.11800
H2 H 0.43200 -0.16200 0.10000
H3 H 0.47300 -0.31600 0.00400
H4 H 0.67500 -0.30800 -0.06400
H5 H 0.80600 -0.12900 0.00520
H6 H 0.72700 0.59500 0.30500
H7 H 0.54100 0.72200 0.31700
H8 H 0.37300 0.70800 0.23200
H9 H 0.37600 0.54800 0.13200
H10 H 0.56600 0.42300 0.11600
N2C N 0.8252(14) 0.1464(13) -0.2401(6)
Ag1C Ag 0.8394(2) 0.3894(2) 0.3761(1)
#END
