
#######################################################################
#
#                 Cambridge Crystallographic Data Centre
#                                CCDC
#
#######################################################################
#
# If this CIF has been generated from an entry in the Cambridge
# Structural Database, then it will include bibliographic, chemical,
# crystal, experimental, refinement or atomic coordinate data resulting
# from the CCDC's data processing and validation procedures.
#
#######################################################################

data_CSD_CIF_DEMWOI
_audit_creation_date 2006-12-20
_audit_creation_method CSD-ConQuest-V1
_database_code_CSD DEMWOI
_database_code_depnum_ccdc_archive 'CCDC 265713'
_chemical_formula_sum 'C16 H8 Cl4 Fe2 O8 S8'
_chemical_formula_moiety
;
(C4 Cl4 Fe2 O8 2-)n,2n(C6 H4 S4 1+)
;
_journal_coden_Cambridge 1089
_journal_volume 17
_journal_year 2005
_journal_page_first 1988
_journal_name_full 'Adv.Mater. '
loop_
_publ_author_name
"Bin Zhang"
"Zheming Wang"
"H.Fujiwara"
"H.Kobayashi"
"M.Kurmoo"
"K.Inoue"
"T.Mori"
"Song Gao"
"Yan Zhang"
"Daoben Zhu"
_chemical_name_systematic
;
catena-(bis(Tetrathiafulvalenium) 
bis(\m~2~-oxalato-O,O',O'',O''')-tetrachloro-di-iron(iii))
;
_cell_volume   1416.920
_exptl_crystal_colour 'black'
_exptl_crystal_density_diffrn 1.965
_exptl_special_details
;
antiferromagnetic

;
_exptl_crystal_description 'block'
_diffrn_ambient_temperature 293.1500
#These two values have been output from a single CSD field.
_refine_ls_R_factor_gt 0.0661
_refine_ls_wR_factor_gt 0.0661
_symmetry_cell_setting monoclinic
_symmetry_space_group_name_H-M 'P 21/c'
_symmetry_Int_Tables_number 14
loop_
_symmetry_equiv_pos_site_id
_symmetry_equiv_pos_as_xyz
1 x,y,z
2 -x,1/2+y,1/2-z
3 -x,-y,-z
4 x,-1/2-y,-1/2+z
_cell_length_a 8.858(5)
_cell_length_b 11.012(5)
_cell_length_c 14.932(9)
_cell_angle_alpha 90
_cell_angle_beta 103.393(15)
_cell_angle_gamma 90
_cell_formula_units_Z 2
loop_
_atom_type_symbol
_atom_type_radius_bond
C 0.68
H 0.23
Cl 0.99
Fe 1.34
O 0.68
S 1.02
loop_
_atom_site_label
_atom_site_type_symbol
_atom_site_fract_x
_atom_site_fract_y
_atom_site_fract_z
Fe1 Fe 0.79129(7) 0.02638(6) 0.10902(4)
Cl1 Cl 0.91113(15) 0.18452(12) 0.19297(9)
Cl2 Cl 0.74612(15) -0.09328(13) 0.22285(9)
S1 S 0.77592(14) 0.11224(11) 0.51624(9)
S2 S 0.74275(18) -0.14828(11) 0.49708(10)
S3 S 0.48204(16) 0.14564(12) 0.34014(10)
S4 S 0.44174(15) -0.11592(11) 0.33291(8)
O1 O 0.8475(4) 0.1023(3) -0.0109(2)
O2 O 0.5813(3) 0.1137(3) 0.0772(2)
O3 O 1.0193(3) 0.0764(3) -0.0986(2)
O4 O 0.3369(3) 0.0905(3) -0.0071(2)
C1 C 0.6770(5) -0.0078(4) 0.4574(3)
C2 C 0.5471(5) 0.0058(4) 0.3840(3)
C3 C 0.9074(6) 0.0227(6) 0.5918(4)
H1 H 0.98580 0.05700 0.63720
C4 C 0.8922(7) -0.0954(6) 0.5827(4)
H2 H 0.95970 -0.14830 0.62100
C5 C 0.3333(7) 0.0890(6) 0.2557(4)
H3 H 0.26840 0.13990 0.21420
C6 C 0.3149(7) -0.0313(6) 0.2523(4)
H4 H 0.23670 -0.06780 0.20820
C7 C 0.9615(5) 0.0521(4) -0.0311(3)
C8 C 0.4759(4) 0.0581(4) 0.0199(3)
Fe1B Fe 1.20871(7) -0.02638(6) -0.10902(4)
Fe1B* Fe 0.20871(7) -0.02638(6) -0.10902(4)
Cl1B Cl 1.08887(15) -0.18452(12) -0.19297(9)
Cl2B Cl 1.25388(15) 0.09328(13) -0.22285(9)
O1B O 1.1525(4) -0.1023(3) 0.0109(2)
O2B O 0.4187(3) -0.1137(3) -0.0772(2)
O2B* O 1.4187(3) -0.1137(3) -0.0772(2)
O3B O 0.9807(3) -0.0764(3) 0.0986(2)
O4B O 0.6631(3) -0.0905(3) 0.0071(2)
O4* O 1.3369(3) 0.0905(3) -0.0071(2)
C7B C 1.0385(5) -0.0521(4) 0.0311(3)
C8B C 0.5241(4) -0.0581(4) -0.0199(3)
#END
