
#######################################################################
#
#                 Cambridge Crystallographic Data Centre
#                                CCDC
#
#######################################################################
#
# If this CIF has been generated from an entry in the Cambridge
# Structural Database, then it will include bibliographic, chemical,
# crystal, experimental, refinement or atomic coordinate data resulting
# from the CCDC's data processing and validation procedures.
#
#######################################################################

data_CSD_CIF_DEPNEU
_audit_creation_date 2018-02-07
_audit_creation_method CSD-ConQuest-V1
_database_code_CSD DEPNEU
_database_code_depnum_ccdc_archive 'CCDC 1569825'
_chemical_formula_sum 'C12 H83 Gd3 K4 Mo16 O111 P6'
_chemical_formula_moiety
;
(C12 H36 Gd3 Mo16 O90 P6 9-)n,4(K1 1+),21(H2 O1),5(H1 1+)
;
_journal_coden_Cambridge 9
_journal_volume 57
_journal_year 2018
_journal_page_first 1796
_journal_name_full 'Inorg.Chem. '
loop_
_publ_author_name
"Jiawei Wang"
"Yanjun Niu"
"Meng Zhang"
"Pengtao Ma"
"Chao Zhang"
"Jingyang Niu"
"Jingping Wang"
_chemical_name_systematic
;
catena-[tetra-potassium pentahydrogen 
hexakis(\m-phosphonatoacetato)-(\m-aqua)-icosakis(\m-oxo)-undeca-aqua-octacosa
oxo-tri-gadolinium(iii)-hexadeca-molybdenum henicosahydrate]
;
_cell_volume  13064.232
_exptl_crystal_colour 'colorless'
_exptl_crystal_density_diffrn 2.21
_exptl_special_details
;
The H atoms have not been located and have been placed arbitrarily in the 2D 
diagram
;
_exptl_crystal_description 'block'
_diffrn_ambient_temperature 296.1
#These two values have been output from a single CSD field.
_refine_ls_R_factor_gt 0.0586
_refine_ls_wR_factor_gt 0.0586
_symmetry_cell_setting monoclinic
_symmetry_space_group_name_H-M 'C 2/c'
_symmetry_Int_Tables_number 15
loop_
_symmetry_equiv_pos_site_id
_symmetry_equiv_pos_as_xyz
1 x,y,z
2 -x,y,1/2-z
3 1/2+x,1/2+y,z
4 1/2-x,1/2+y,1/2-z
5 -x,-y,-z
6 x,-y,-1/2+z
7 -1/2-x,-1/2-y,-z
8 -1/2+x,-1/2-y,-1/2+z
_cell_length_a 29.8359(13)
_cell_length_b 11.1754(5)
_cell_length_c 39.2899(17)
_cell_angle_alpha 90
_cell_angle_beta 94.256(1)
_cell_angle_gamma 90
_cell_formula_units_Z 4
loop_
_atom_type_symbol
_atom_type_radius_bond
C 0.68
H 0.23
Gd 1.96
K 2.03
Mo 1.54
O 0.68
P 1.05
loop_
_atom_site_label
_atom_site_type_symbol
_atom_site_fract_x
_atom_site_fract_y
_atom_site_fract_z
Gd1 Gd 0.31128(2) 0.81112(4) 0.07704(2)
O1 O 0.3390(3) 0.6132(7) 0.0583(2)
O2 O 0.3869(2) 0.7605(6) 0.05975(18)
O3 O 0.2494(3) 0.6726(7) 0.0776(2)
O4 O 0.2898(3) 0.7954(8) 0.0165(2)
O5 O 0.3311(3) 0.6964(8) 0.1284(2)
O6 O 0.3363(3) 0.9893(9) 0.0484(2)
O7 O 0.3615(3) 0.9335(9) 0.1161(2)
O8 O 0.2445(3) 0.9405(8) 0.0661(2)
O9 O 0.2634(3) 0.9007(7) 0.11901(19)
C1 C 0.3775(3) 0.6534(8) 0.0527(2)
C2 C 0.4104(3) 0.5733(8) 0.0376(2)
P1 P 0.45245(7) 0.50803(19) 0.06731(5)
H1 H 0.42560 0.61850 0.02070
H2 H 0.39400 0.50910 0.02560
O10 O 0.48624(19) 0.4453(5) 0.04669(15)
O11 O 0.4747(2) 0.6074(5) 0.08866(15)
O12 O 0.4275(2) 0.4179(6) 0.08907(15)
Mo1 Mo 0.50346(2) 0.26634(7) 0.03101(2)
Mo2 Mo 0.47506(2) 0.66962(7) 0.14166(2)
Mo3 Mo 0.40890(2) 0.42614(7) 0.14418(2)
Mo4 Mo 0.42398(3) 0.21489(7) 0.08763(2)
O13 O 0.4937(2) 0.2960(6) -0.01155(17)
O14 O 0.5157(2) 0.1174(6) 0.03089(18)
O15 O 0.4413(2) 0.2402(6) 0.04307(16)
O16 O 0.5066(2) 0.2531(5) 0.09112(15)
O17 O 0.5635(2) 0.3249(5) 0.03989(15)
O18 O 0.4603(2) 0.8098(6) 0.12740(18)
O19 O 0.4752(2) 0.6856(6) 0.18500(17)
O20 O 0.4156(2) 0.5918(6) 0.13718(16)
O21 O 0.48737(19) 0.4661(5) 0.14990(15)
O22 O 0.5383(2) 0.6733(5) 0.13806(15)
O23 O 0.4109(2) 0.4104(6) 0.18812(18)
O24 O 0.3532(2) 0.4140(7) 0.13247(19)
O25 O 0.4277(2) 0.2646(6) 0.13460(16)
O26 O 0.4380(3) 0.0681(7) 0.09391(19)
O27 O 0.3669(3) 0.2119(7) 0.0794(2)
C3 C 0.5389(3) 0.2474(8) 0.1142(2)
Mo5 Mo 0.61856(2) 0.25693(8) 0.05767(2)
P2 P 0.52446(7) 0.3953(2) 0.17054(5)
Mo6 Mo 0.59103(3) 0.65745(7) 0.16812(2)
Gd2 Gd 0.45599(3) 0.32415(8) 0.23976(2)
O28 O 0.5800(2) 0.2485(5) 0.10777(15)
C4 C 0.5281(3) 0.2491(8) 0.1510(2)
O29 O 0.6521(3) 0.2898(7) 0.0258(2)
O30 O 0.6304(2) 0.4327(6) 0.07954(16)
O31 O 0.6052(3) 0.1098(7) 0.0506(2)
O32 O 0.6637(2) 0.2175(6) 0.09489(16)
O33 O 0.5131(2) 0.3725(6) 0.20650(16)
O34 O 0.5701(2) 0.4576(5) 0.16881(15)
O35 O 0.6168(3) 0.7910(7) 0.1634(2)
O36 O 0.5665(2) 0.6761(6) 0.20585(18)
O37 O 0.6429(2) 0.5673(6) 0.18949(17)
O38 O 0.6208(2) 0.5916(6) 0.12255(17)
O39 O 0.4476(2) 0.5388(6) 0.23813(16)
O40 O 0.4343(5) 0.1636(13) 0.1985(4)
O41 O 0.50000 0.169(2) 0.25000
O42 O 0.4194(5) 0.1507(15) 0.2682(4)
O43 O 0.3874(3) 0.3936(7) 0.26513(19)
Mo7 Mo 0.65250(3) 0.18960(8) 0.14072(2)
H3 H 0.55080 0.20310 0.16410
H4 H 0.49960 0.20850 0.15270
P3 P 0.64948(7) 0.4865(2) 0.11311(6)
Mo8 Mo 0.64035(3) 0.40284(8) 0.19789(2)
O44 O 0.7061(3) 0.1675(8) 0.1572(2)
O45 O 0.6285(3) 0.0517(8) 0.1385(2)
O46 O 0.6551(2) 0.3912(6) 0.14213(16)
O47 O 0.6249(2) 0.2448(6) 0.18087(17)
C5 C 0.7051(3) 0.5448(9) 0.1073(2)
O48 O 0.6952(3) 0.3815(8) 0.2122(2)
H5 H 0.70220 0.60730 0.09010
H6 H 0.71650 0.58190 0.12850
C6 C 0.7393(3) 0.4571(9) 0.0969(2)
K1 K 0.56075(7) 0.5937(3) 0.06288(6)
K2 K 0.47119(9) 0.8726(3) 0.05906(8)
O49 O 0.4138(3) 1.0033(9) 0.0135(2)
O50 O 0.6188(4) 0.6921(10) 0.0154(3)
O51 O 0.5598(7) 0.887(2) 0.0837(6)
O52 O 0.1927(5) 0.0370(13) 0.0098(4)
O53 O 0.8048(5) 0.8909(13) 0.0638(4)
O54 O -0.2322(6) 0.9950(17) 0.1342(5)
O55 O 0.7782(6) 0.4482(18) 0.1867(5)
O56 O 0.2710(7) 0.990(2) -0.0268(5)
O33A O 0.4869(2) 0.3725(6) 0.29350(16)
Gd2A Gd 0.54401(3) 0.32415(8) 0.26024(2)
Mo8A Mo 0.35965(3) 0.40284(8) 0.30211(2)
P2A P 0.47554(7) 0.3953(2) 0.32946(5)
O43A O 0.6126(3) 0.3936(7) 0.23487(19)
O23A O 0.5891(2) 0.4104(6) 0.31188(18)
O39A O 0.5524(2) 0.5388(6) 0.26187(16)
O40A O 0.5657(5) 0.1636(13) 0.3015(4)
O42A O 0.5806(5) 0.1507(15) 0.2318(4)
O48A O 0.3048(3) 0.3815(8) 0.2878(2)
O37A O 0.3571(2) 0.5673(6) 0.31051(17)
O46A O 0.3449(2) 0.3912(6) 0.35787(16)
O34A O 0.4299(2) 0.4576(5) 0.33119(15)
O47A O 0.3751(2) 0.2448(6) 0.31913(17)
O21A O 0.51263(19) 0.4661(5) 0.35010(15)
C4A C 0.4719(3) 0.2491(8) 0.3490(2)
Mo3A Mo 0.59110(2) 0.42614(7) 0.35582(2)
Mo6A Mo 0.40897(3) 0.65745(7) 0.33188(2)
Mo7A Mo 0.34750(3) 0.18960(8) 0.35928(2)
P3A P 0.35052(7) 0.4865(2) 0.38689(6)
Mo2A Mo 0.52494(2) 0.66962(7) 0.35834(2)
H3A H 0.44920 0.20310 0.33590
H4A H 0.50040 0.20850 0.34730
C3A C 0.4611(3) 0.2474(8) 0.3858(2)
O8B O 0.7445(3) 0.4405(8) 0.0661(2)
O9B O 0.7634(3) 0.4007(7) 0.11901(19)
O24A O 0.6468(2) 0.4140(7) 0.36753(19)
O20A O 0.5844(2) 0.5918(6) 0.36282(16)
O25A O 0.5723(2) 0.2646(6) 0.36540(16)
O12A O 0.5725(2) 0.4179(6) 0.41093(15)
O35A O 0.3832(3) 0.7910(7) 0.3366(2)
O36A O 0.4335(2) 0.6761(6) 0.29415(18)
O38A O 0.3792(2) 0.5916(6) 0.37745(17)
O22A O 0.4617(2) 0.6733(5) 0.36194(15)
O44A O 0.2939(3) 0.1675(8) 0.3428(2)
O45A O 0.3715(3) 0.0517(8) 0.3615(2)
O32A O 0.3363(2) 0.2175(6) 0.40511(16)
O28A O 0.4200(2) 0.2485(5) 0.39223(15)
O30A O 0.3696(2) 0.4327(6) 0.42046(16)
C5A C 0.2949(3) 0.5448(9) 0.3927(2)
O18A O 0.5397(2) 0.8098(6) 0.37260(18)
O19A O 0.5248(2) 0.6856(6) 0.31500(17)
O11A O 0.5253(2) 0.6074(5) 0.41134(15)
O16A O 0.4934(2) 0.2531(5) 0.40888(15)
Gd1B Gd 0.81128(2) 0.31112(4) 0.07704(2)
Mo4A Mo 0.57602(3) 0.21489(7) 0.41237(2)
P1A P 0.54755(7) 0.50803(19) 0.43269(5)
Mo5A Mo 0.38144(2) 0.25693(8) 0.44233(2)
H5A H 0.29780 0.60730 0.40990
H6A H 0.28350 0.58190 0.37150
C6A C 0.2607(3) 0.4571(9) 0.4031(2)
Mo1A Mo 0.49654(2) 0.26634(7) 0.46899(2)
O26A O 0.5620(3) 0.0681(7) 0.40609(19)
O15A O 0.5587(2) 0.2402(6) 0.45693(16)
O27A O 0.6331(3) 0.2119(7) 0.4206(2)
O10A O 0.51376(19) 0.4453(5) 0.45331(15)
C2A C 0.5896(3) 0.5733(8) 0.4624(2)
O29A O 0.3479(3) 0.2898(7) 0.4742(2)
O31A O 0.3948(3) 0.1098(7) 0.4494(2)
O17A O 0.4365(2) 0.3249(5) 0.46011(15)
O8C O 0.2555(3) 0.4405(8) 0.4339(2)
O9C O 0.2366(3) 0.4007(7) 0.38099(19)
O13A O 0.5063(2) 0.2960(6) 0.51155(17)
O14A O 0.4843(2) 0.1174(6) 0.46911(18)
H1A H 0.57440 0.61850 0.47930
H2A H 0.60600 0.50910 0.47440
C1A C 0.6225(3) 0.6534(8) 0.4473(2)
Gd1C Gd 0.18872(2) 0.31112(4) 0.42296(2)
O1A O 0.6610(3) 0.6132(7) 0.4417(2)
O2A O 0.6131(2) 0.7605(6) 0.44025(18)
Gd1A Gd 0.68872(2) 0.81112(4) 0.42296(2)
#END
