
#######################################################################
#
#                 Cambridge Crystallographic Data Centre
#                                CCDC
#
#######################################################################
#
# If this CIF has been generated from an entry in the Cambridge
# Structural Database, then it will include bibliographic, chemical,
# crystal, experimental, refinement or atomic coordinate data resulting
# from the CCDC's data processing and validation procedures.
#
#######################################################################

data_CSD_CIF_DEPNOE
_audit_creation_date 2018-02-07
_audit_creation_method CSD-ConQuest-V1
_database_code_CSD DEPNOE
_database_code_depnum_ccdc_archive 'CCDC 1569827'
_chemical_formula_sum 'C12 H83 Dy3 K4 Mo16 O111 P6'
_chemical_formula_moiety
;
(C12 H36 Dy3 Mo16 O90 P6 9-)n,4(K1 1+),21(H2 O1),5(H1 1+)
;
_journal_coden_Cambridge 9
_journal_volume 57
_journal_year 2018
_journal_page_first 1796
_journal_name_full 'Inorg.Chem. '
loop_
_publ_author_name
"Jiawei Wang"
"Yanjun Niu"
"Meng Zhang"
"Pengtao Ma"
"Chao Zhang"
"Jingyang Niu"
"Jingping Wang"
_chemical_name_systematic
;
catena-[tetra-potassium pentahydrogen 
hexakis(\m-phosphonatoacetato)-(\m-aqua)-icosakis(\m-oxo)-undeca-aqua-octacosa
oxo-tri-dysprosium(iii)-hexadeca-molybdenum henicosahydrate]
;
_cell_volume  12967.869
_exptl_crystal_colour 'colorless'
_exptl_crystal_density_diffrn 2.235
_exptl_special_details
;
The H atoms have not been located and have been placed arbitrarily in the 2D 
diagram
;
_exptl_crystal_description 'block'
_diffrn_ambient_temperature 296.1
#These two values have been output from a single CSD field.
_refine_ls_R_factor_gt 0.0598
_refine_ls_wR_factor_gt 0.0598
_symmetry_cell_setting monoclinic
_symmetry_space_group_name_H-M 'C 2/c'
_symmetry_Int_Tables_number 15
loop_
_symmetry_equiv_pos_site_id
_symmetry_equiv_pos_as_xyz
1 x,y,z
2 -x,y,1/2-z
3 1/2+x,1/2+y,z
4 1/2-x,1/2+y,1/2-z
5 -x,-y,-z
6 x,-y,-1/2+z
7 -1/2-x,-1/2-y,-z
8 -1/2+x,-1/2-y,-1/2+z
_cell_length_a 29.7519(16)
_cell_length_b 11.1479(6)
_cell_length_c 39.204(2)
_cell_angle_alpha 90
_cell_angle_beta 94.203(1)
_cell_angle_gamma 90
_cell_formula_units_Z 4
loop_
_atom_type_symbol
_atom_type_radius_bond
C 0.68
H 0.23
Dy 1.92
K 2.03
Mo 1.54
O 0.68
P 1.05
loop_
_atom_site_label
_atom_site_type_symbol
_atom_site_fract_x
_atom_site_fract_y
_atom_site_fract_z
Dy1 Dy 0.31106(2) 0.80976(4) 0.07709(2)
O1 O 0.3382(3) 0.6127(8) 0.0580(2)
O2 O 0.3861(2) 0.7607(7) 0.05972(18)
C1 C 0.3768(3) 0.6541(9) 0.0526(2)
C2 C 0.4103(3) 0.5739(9) 0.0378(2)
P1 P 0.45240(7) 0.5082(2) 0.06750(6)
H1 H 0.42560 0.61930 0.02100
H2 H 0.39410 0.50940 0.02570
O3 O 0.4862(2) 0.4452(6) 0.04672(16)
O4 O 0.4746(2) 0.6075(6) 0.08890(16)
O5 O 0.4275(2) 0.4181(6) 0.08957(16)
Mo1 Mo 0.50332(3) 0.26600(7) 0.03104(2)
Mo2 Mo 0.47510(3) 0.66996(7) 0.14198(2)
Mo3 Mo 0.40865(3) 0.42608(7) 0.14454(2)
Mo4 Mo 0.42351(3) 0.21458(7) 0.08775(2)
O6 O 0.4936(2) 0.2958(6) -0.01177(18)
O7 O 0.5156(2) 0.1165(7) 0.03128(18)
O8 O 0.4409(2) 0.2405(6) 0.04305(17)
O9 O 0.5061(2) 0.2522(6) 0.09123(16)
O10 O 0.5634(2) 0.3246(6) 0.03980(16)
O11 O 0.4606(2) 0.8110(6) 0.12758(19)
O12 O 0.4752(2) 0.6850(6) 0.18526(18)
O13 O 0.4153(2) 0.5918(6) 0.13750(16)
O14 O 0.4874(2) 0.4656(6) 0.15012(15)
O15 O 0.5385(2) 0.6734(6) 0.13841(16)
O16 O 0.4114(3) 0.4097(7) 0.18845(19)
O17 O 0.3528(3) 0.4147(7) 0.1330(2)
O18 O 0.4270(2) 0.2643(6) 0.13465(16)
O19 O 0.4374(3) 0.0671(7) 0.0942(2)
O20 O 0.3662(3) 0.2130(8) 0.0795(2)
C3 C 0.5389(3) 0.2458(8) 0.1144(2)
Mo5 Mo 0.61869(3) 0.25606(8) 0.05766(2)
P2 P 0.52440(8) 0.3944(2) 0.17074(6)
Mo6 Mo 0.59129(3) 0.65725(7) 0.16842(2)
Dy2 Dy 0.45671(3) 0.32426(8) 0.23990(2)
O21 O 0.5800(2) 0.2472(6) 0.10781(16)
C4 C 0.5277(3) 0.2474(8) 0.1510(2)
O22 O 0.6523(3) 0.2896(8) 0.0257(2)
O23 O 0.6306(2) 0.4316(6) 0.07968(17)
O24 O 0.6052(3) 0.1091(7) 0.0506(2)
O25 O 0.6640(2) 0.2173(6) 0.09492(18)
O26 O 0.5127(2) 0.3720(6) 0.20691(17)
O27 O 0.5700(2) 0.4562(6) 0.16902(15)
O28 O 0.6174(3) 0.7914(8) 0.1640(2)
O29 O 0.5664(3) 0.6763(7) 0.20635(19)
O30 O 0.6429(2) 0.5663(6) 0.18984(18)
O31 O 0.6210(2) 0.5908(6) 0.12274(18)
O32 O 0.4473(2) 0.5385(6) 0.23828(17)
O33 O 0.4343(5) 0.1640(15) 0.1980(4)
O34 O 0.50000 0.168(2) 0.25000
O35 O 0.4222(6) 0.1499(16) 0.2684(4)
O36 O 0.3876(3) 0.3922(7) 0.2650(2)
Mo7 Mo 0.65262(3) 0.18794(8) 0.14077(2)
H3 H 0.55020 0.20070 0.16430
H4 H 0.49890 0.20750 0.15250
P3 P 0.64977(7) 0.4857(2) 0.11327(6)
Mo8 Mo 0.64040(3) 0.40143(8) 0.19820(2)
O37 O 0.7066(3) 0.1658(8) 0.1572(2)
O38 O 0.6297(3) 0.0507(8) 0.1387(2)
O39 O 0.6553(2) 0.3901(6) 0.14225(16)
O40 O 0.6250(2) 0.2430(6) 0.18096(18)
C5 C 0.7057(3) 0.5436(9) 0.1077(3)
O41 O 0.6951(3) 0.3791(8) 0.2121(2)
H5 H 0.70300 0.60720 0.09080
H6 H 0.71720 0.57940 0.12920
C6 C 0.7398(3) 0.4557(9) 0.0970(3)
O42 O 0.7447(3) 0.4403(8) 0.0659(2)
O43 O 0.7641(3) 0.3986(7) 0.1193(2)
O44 O 0.7501(3) 0.6722(8) 0.4220(2)
O45 O 0.7102(3) 0.7946(9) 0.4830(2)
O46 O 0.6692(3) 0.6960(9) 0.3719(2)
O47 O 0.6640(3) 0.9872(9) 0.4513(2)
O48 O 0.6385(3) 0.9293(9) 0.3840(3)
K1 K 0.56099(8) 0.5941(3) 0.06304(7)
K2 K 0.47109(10) 0.8728(3) 0.05913(8)
O49 O 0.4129(3) 1.0028(10) 0.0139(3)
O50 O 0.6190(4) 0.6933(11) 0.0158(3)
O51 O 0.5595(7) 0.8811(19) 0.0845(5)
O52 O 0.1934(5) 0.0352(14) 0.0099(4)
O53 O 0.8033(6) 0.8909(16) 0.0645(4)
O54 O 0.2690(7) 0.4983(19) 0.1354(5)
O55 O 0.2733(7) 0.992(2) -0.0253(5)
O56 O 0.8117(8) 0.660(2) 0.1406(6)
O26A O 0.4873(2) 0.3720(6) 0.29309(17)
Dy2A Dy 0.54329(3) 0.32426(8) 0.26010(2)
Mo8A Mo 0.35960(3) 0.40143(8) 0.30180(2)
P2A P 0.47560(8) 0.3944(2) 0.32926(6)
O36A O 0.6124(3) 0.3922(7) 0.2350(2)
O16A O 0.5886(3) 0.4097(7) 0.31155(19)
O32A O 0.5527(2) 0.5385(6) 0.26172(17)
O33A O 0.5657(5) 0.1640(15) 0.3020(4)
O35A O 0.5778(6) 0.1499(16) 0.2316(4)
O41A O 0.3049(3) 0.3791(8) 0.2879(2)
O30A O 0.3571(2) 0.5663(6) 0.31016(18)
O39A O 0.3447(2) 0.3901(6) 0.35775(16)
O27A O 0.4300(2) 0.4562(6) 0.33098(15)
O40A O 0.3750(2) 0.2430(6) 0.31904(18)
O14A O 0.5126(2) 0.4656(6) 0.34988(15)
C4A C 0.4723(3) 0.2474(8) 0.3490(2)
Mo3A Mo 0.59135(3) 0.42608(7) 0.35546(2)
Mo6A Mo 0.40871(3) 0.65725(7) 0.33158(2)
Mo7A Mo 0.34738(3) 0.18794(8) 0.35923(2)
P3A P 0.35023(7) 0.4857(2) 0.38673(6)
Mo2A Mo 0.52490(3) 0.66996(7) 0.35802(2)
H3A H 0.44980 0.20070 0.33570
H4A H 0.50110 0.20750 0.34750
C3A C 0.4611(3) 0.2458(8) 0.3856(2)
O17A O 0.6472(3) 0.4147(7) 0.3670(2)
O13A O 0.5847(2) 0.5918(6) 0.36250(16)
O18A O 0.5730(2) 0.2643(6) 0.36535(16)
O5A O 0.5725(2) 0.4181(6) 0.41043(16)
O28A O 0.3826(3) 0.7914(8) 0.3360(2)
O29A O 0.4336(3) 0.6763(7) 0.29365(19)
O31A O 0.3790(2) 0.5908(6) 0.37726(18)
O15A O 0.4615(2) 0.6734(6) 0.36159(16)
O37A O 0.2934(3) 0.1658(8) 0.3428(2)
O38A O 0.3703(3) 0.0507(8) 0.3613(2)
O25A O 0.3360(2) 0.2173(6) 0.40508(18)
O21A O 0.4200(2) 0.2472(6) 0.39219(16)
O23A O 0.3694(2) 0.4316(6) 0.42032(17)
C5A C 0.2943(3) 0.5436(9) 0.3923(3)
O11A O 0.5394(2) 0.8110(6) 0.37242(19)
O12A O 0.5248(2) 0.6850(6) 0.31474(18)
O4A O 0.5254(2) 0.6075(6) 0.41110(16)
O9A O 0.4939(2) 0.2522(6) 0.40877(16)
Dy1B Dy 0.81106(2) 0.30976(4) 0.07709(2)
Mo4A Mo 0.57649(3) 0.21458(7) 0.41225(2)
P1A P 0.54760(7) 0.5082(2) 0.43250(6)
Mo5A Mo 0.38131(3) 0.25606(8) 0.44234(2)
H5A H 0.29700 0.60720 0.40920
H6A H 0.28280 0.57940 0.37080
C6A C 0.2602(3) 0.4557(9) 0.4030(3)
Mo1A Mo 0.49668(3) 0.26600(7) 0.46896(2)
O19A O 0.5626(3) 0.0671(7) 0.4058(2)
O8A O 0.5591(2) 0.2405(6) 0.45695(17)
O20A O 0.6338(3) 0.2130(8) 0.4205(2)
O3A O 0.5138(2) 0.4452(6) 0.45328(16)
C2A C 0.5897(3) 0.5739(9) 0.4622(2)
O22A O 0.3477(3) 0.2896(8) 0.4743(2)
O24A O 0.3948(3) 0.1091(7) 0.4494(2)
O10A O 0.4366(2) 0.3246(6) 0.46020(16)
O42A O 0.2553(3) 0.4403(8) 0.4341(2)
O43A O 0.2359(3) 0.3986(7) 0.3807(2)
O6A O 0.5064(2) 0.2958(6) 0.51177(18)
O7A O 0.4844(2) 0.1165(7) 0.46872(18)
H1A H 0.57440 0.61930 0.47900
H2A H 0.60590 0.50940 0.47430
C1A C 0.6232(3) 0.6541(9) 0.4474(2)
Dy1C Dy 0.18894(2) 0.30976(4) 0.42291(2)
O1A O 0.6618(3) 0.6127(8) 0.4420(2)
O2A O 0.6139(2) 0.7607(7) 0.44028(18)
Dy1A Dy 0.68894(2) 0.80976(4) 0.42291(2)
O42C O 0.7553(3) 0.9403(8) 0.4341(2)
O43C O 0.7359(3) 0.8986(7) 0.3807(2)
#END
