
#######################################################################
#
#                 Cambridge Crystallographic Data Centre
#                                CCDC
#
#######################################################################
#
# If this CIF has been generated from an entry in the Cambridge
# Structural Database, then it will include bibliographic, chemical,
# crystal, experimental, refinement or atomic coordinate data resulting
# from the CCDC's data processing and validation procedures.
#
#######################################################################

data_CSD_CIF_DEPNIY
_audit_creation_date 2018-02-07
_audit_creation_method CSD-ConQuest-V1
_database_code_CSD DEPNIY
_database_code_depnum_ccdc_archive 'CCDC 1569826'
_chemical_formula_sum 'C12 H83 K4 Mo16 O111 P6 Tb3'
_chemical_formula_moiety
;
(C12 H36 Mo16 O90 P6 Tb3 9-)n,4(K1 1+),21(H2 O1),5(H1 1+)
;
_journal_coden_Cambridge 9
_journal_volume 57
_journal_year 2018
_journal_page_first 1796
_journal_name_full 'Inorg.Chem. '
loop_
_publ_author_name
"Jiawei Wang"
"Yanjun Niu"
"Meng Zhang"
"Pengtao Ma"
"Chao Zhang"
"Jingyang Niu"
"Jingping Wang"
_chemical_name_systematic
;
catena-[tetra-potassium pentahydrogen 
hexakis(\m-phosphonatoacetato)-(\m-aqua)-icosakis(\m-oxo)-undeca-aqua-octacosa
oxo-tri-terbium(iii)-hexadeca-molybdenum henicosahydrate]
;
_cell_volume  13024.670
_exptl_crystal_colour 'colorless'
_exptl_crystal_density_diffrn 2.22
_exptl_special_details
;
The H atoms have not been located and have been placed arbitrarily in the 2D 
diagram
;
_exptl_crystal_description 'block'
_diffrn_ambient_temperature 296.1
#These two values have been output from a single CSD field.
_refine_ls_R_factor_gt 0.0573
_refine_ls_wR_factor_gt 0.0573
_symmetry_cell_setting monoclinic
_symmetry_space_group_name_H-M 'C 2/c'
_symmetry_Int_Tables_number 15
loop_
_symmetry_equiv_pos_site_id
_symmetry_equiv_pos_as_xyz
1 x,y,z
2 -x,y,1/2-z
3 1/2+x,1/2+y,z
4 1/2-x,1/2+y,1/2-z
5 -x,-y,-z
6 x,-y,-1/2+z
7 -1/2-x,-1/2-y,-z
8 -1/2+x,-1/2-y,-1/2+z
_cell_length_a 29.7923(12)
_cell_length_b 11.1666(4)
_cell_length_c 39.2587(15)
_cell_angle_alpha 90
_cell_angle_beta 94.247(1)
_cell_angle_gamma 90
_cell_formula_units_Z 4
loop_
_atom_type_symbol
_atom_type_radius_bond
C 0.68
H 0.23
K 2.03
Mo 1.54
O 0.68
P 1.05
Tb 1.94
loop_
_atom_site_label
_atom_site_type_symbol
_atom_site_fract_x
_atom_site_fract_y
_atom_site_fract_z
Tb1 Tb 0.31125(2) 0.81064(4) 0.07699(2)
O1 O 0.3385(3) 0.6134(7) 0.0581(2)
O2 O 0.3865(2) 0.7605(6) 0.05979(18)
C1 C 0.3772(3) 0.6536(8) 0.0529(2)
C2 C 0.4107(3) 0.5736(8) 0.0376(2)
P1 P 0.45237(7) 0.50810(19) 0.06742(5)
H1 H 0.42610 0.61960 0.02100
H2 H 0.39450 0.50960 0.02530
O3 O 0.4862(2) 0.4455(5) 0.04669(15)
O4 O 0.4746(2) 0.6076(5) 0.08894(15)
O5 O 0.4273(2) 0.4178(6) 0.08923(16)
Mo1 Mo 0.50340(2) 0.26620(7) 0.03105(2)
Mo2 Mo 0.47508(2) 0.66966(7) 0.14176(2)
Mo3 Mo 0.40879(2) 0.42607(7) 0.14435(2)
Mo4 Mo 0.42381(3) 0.21482(7) 0.08771(2)
O6 O 0.4935(2) 0.2955(6) -0.01169(17)
O7 O 0.5156(2) 0.1167(6) 0.03090(18)
O8 O 0.4411(2) 0.2404(6) 0.04301(16)
O9 O 0.5063(2) 0.2529(5) 0.09099(15)
O10 O 0.5635(2) 0.3245(5) 0.03990(16)
O11 O 0.4602(2) 0.8100(6) 0.12735(18)
O12 O 0.4754(2) 0.6850(6) 0.18496(17)
O13 O 0.4155(2) 0.5922(6) 0.13741(16)
O14 O 0.48739(19) 0.4658(5) 0.15008(15)
O15 O 0.5386(2) 0.6736(5) 0.13820(15)
O16 O 0.4110(2) 0.4105(7) 0.18824(18)
O17 O 0.3530(3) 0.4140(7) 0.13292(19)
O18 O 0.4273(2) 0.2645(6) 0.13473(16)
O19 O 0.4379(2) 0.0677(7) 0.09403(19)
O20 O 0.3667(3) 0.2117(7) 0.0796(2)
C3 C 0.5387(3) 0.2469(8) 0.1143(2)
Mo5 Mo 0.61860(3) 0.25669(8) 0.05768(2)
P2 P 0.52440(7) 0.3949(2) 0.17064(6)
Mo6 Mo 0.59118(3) 0.65743(7) 0.16821(2)
Tb2 Tb 0.45645(3) 0.32450(8) 0.23982(2)
O21 O 0.5800(2) 0.2483(5) 0.10762(15)
C4 C 0.5281(3) 0.2485(8) 0.1511(2)
O22 O 0.6520(3) 0.2892(7) 0.0259(2)
O23 O 0.6306(2) 0.4322(6) 0.07966(16)
O24 O 0.6051(3) 0.1092(7) 0.05072(19)
O25 O 0.6640(2) 0.2178(6) 0.09494(17)
O26 O 0.5131(2) 0.3725(6) 0.20658(16)
O27 O 0.5701(2) 0.4567(5) 0.16893(15)
O28 O 0.6169(3) 0.7906(7) 0.1634(2)
O29 O 0.5666(2) 0.6765(6) 0.20607(18)
O30 O 0.6430(2) 0.5676(6) 0.18951(17)
O31 O 0.6209(2) 0.5918(6) 0.12264(17)
O32 O 0.44740(18) 0.5384(5) 0.23813(14)
O33 O 0.4347(5) 0.1650(13) 0.1985(4)
O34 O 0.50000 0.172(2) 0.25000
O35 O 0.4204(5) 0.1511(15) 0.2682(4)
O36 O 0.3874(3) 0.3931(7) 0.2652(2)
Mo7 Mo 0.65251(3) 0.18909(8) 0.14073(2)
H3 H 0.55100 0.20280 0.16420
H4 H 0.49960 0.20760 0.15300
P3 P 0.64973(7) 0.4863(2) 0.11314(6)
Mo8 Mo 0.64037(3) 0.40228(8) 0.19801(2)
O37 O 0.7061(3) 0.1665(8) 0.1573(2)
O38 O 0.6288(3) 0.0512(8) 0.1385(2)
O39 O 0.6552(2) 0.3907(6) 0.14224(16)
O40 O 0.6250(2) 0.2447(6) 0.18106(17)
C5 C 0.7055(3) 0.5429(9) 0.1073(2)
O41 O 0.6951(3) 0.3804(8) 0.2122(2)
H5 H 0.70270 0.60580 0.09030
H6 H 0.71700 0.57960 0.12860
C6 C 0.7395(3) 0.4567(8) 0.0970(2)
O42 O 0.7448(3) 0.4408(8) 0.0660(2)
O43 O 0.7637(3) 0.3993(7) 0.11900(19)
O44 O 0.7504(3) 0.6727(7) 0.4223(2)
O45 O 0.7103(3) 0.7950(8) 0.4834(2)
O46 O 0.6688(3) 0.6961(8) 0.3719(2)
O47 O 0.6640(3) 0.9881(8) 0.4516(2)
O48 O 0.6389(3) 0.9311(9) 0.3842(2)
K1 K 0.56093(7) 0.5936(3) 0.06294(6)
K2 K 0.47129(9) 0.8727(3) 0.05907(8)
O49 O 0.4133(3) 1.0033(9) 0.0135(2)
O50 O 0.6190(4) 0.6916(10) 0.0156(3)
O51 O 0.5589(7) 0.8841(19) 0.0835(5)
O52 O 0.1929(5) 0.0364(13) 0.0102(4)
O53 O 0.8053(5) 0.8904(14) 0.0638(4)
O54 O 0.7780(7) 0.4517(19) 0.1868(5)
O55 O 0.2703(7) 0.9893(19) -0.0260(5)
O56 O 0.2676(6) 0.4957(17) 0.1346(5)
O26A O 0.4869(2) 0.3725(6) 0.29342(16)
Tb2A Tb 0.54355(3) 0.32450(8) 0.26018(2)
Mo8A Mo 0.35963(3) 0.40228(8) 0.30199(2)
P2A P 0.47560(7) 0.3949(2) 0.32936(6)
O36A O 0.6126(3) 0.3931(7) 0.2348(2)
O16A O 0.5890(2) 0.4105(7) 0.31176(18)
O32A O 0.55260(18) 0.5384(5) 0.26187(14)
O33A O 0.5653(5) 0.1650(13) 0.3015(4)
O35A O 0.5796(5) 0.1511(15) 0.2318(4)
O41A O 0.3049(3) 0.3804(8) 0.2878(2)
O30A O 0.3570(2) 0.5676(6) 0.31049(17)
O39A O 0.3448(2) 0.3907(6) 0.35776(16)
O27A O 0.4299(2) 0.4567(5) 0.33107(15)
O40A O 0.3750(2) 0.2447(6) 0.31894(17)
O14A O 0.51261(19) 0.4658(5) 0.34992(15)
C4A C 0.4719(3) 0.2485(8) 0.3489(2)
Mo3A Mo 0.59121(2) 0.42607(7) 0.35565(2)
Mo6A Mo 0.40882(3) 0.65743(7) 0.33179(2)
Mo7A Mo 0.34749(3) 0.18909(8) 0.35927(2)
P3A P 0.35027(7) 0.4863(2) 0.38686(6)
Mo2A Mo 0.52492(2) 0.66966(7) 0.35824(2)
H3A H 0.44900 0.20280 0.33580
H4A H 0.50040 0.20760 0.34700
C3A C 0.4613(3) 0.2469(8) 0.3857(2)
O17A O 0.6470(3) 0.4140(7) 0.36708(19)
O13A O 0.5845(2) 0.5922(6) 0.36259(16)
O18A O 0.5727(2) 0.2645(6) 0.36527(16)
O5A O 0.5727(2) 0.4178(6) 0.41077(16)
O28A O 0.3831(3) 0.7906(7) 0.3366(2)
O29A O 0.4334(2) 0.6765(6) 0.29393(18)
O31A O 0.3791(2) 0.5918(6) 0.37736(17)
O15A O 0.4614(2) 0.6736(5) 0.36180(15)
O37A O 0.2939(3) 0.1665(8) 0.3427(2)
O38A O 0.3712(3) 0.0512(8) 0.3615(2)
O25A O 0.3360(2) 0.2178(6) 0.40506(17)
O21A O 0.4200(2) 0.2483(5) 0.39238(15)
O23A O 0.3694(2) 0.4322(6) 0.42034(16)
C5A C 0.2945(3) 0.5429(9) 0.3927(2)
O11A O 0.5398(2) 0.8100(6) 0.37265(18)
O12A O 0.5246(2) 0.6850(6) 0.31504(17)
O4A O 0.5254(2) 0.6076(5) 0.41106(15)
O9A O 0.4937(2) 0.2529(5) 0.40901(15)
Tb1B Tb 0.81125(2) 0.31064(4) 0.07699(2)
Mo4A Mo 0.57619(3) 0.21482(7) 0.41229(2)
P1A P 0.54763(7) 0.50810(19) 0.43258(5)
Mo5A Mo 0.38140(3) 0.25669(8) 0.44232(2)
H5A H 0.29730 0.60580 0.40970
H6A H 0.28300 0.57960 0.37140
C6A C 0.2605(3) 0.4567(8) 0.4030(2)
Mo1A Mo 0.49660(2) 0.26620(7) 0.46895(2)
O19A O 0.5621(2) 0.0677(7) 0.40597(19)
O8A O 0.5589(2) 0.2404(6) 0.45699(16)
O20A O 0.6333(3) 0.2117(7) 0.4204(2)
O3A O 0.5138(2) 0.4455(5) 0.45331(15)
C2A C 0.5893(3) 0.5736(8) 0.4624(2)
O22A O 0.3480(3) 0.2892(7) 0.4741(2)
O24A O 0.3949(3) 0.1092(7) 0.44928(19)
O10A O 0.4365(2) 0.3245(5) 0.46010(16)
O42A O 0.2552(3) 0.4408(8) 0.4340(2)
O43A O 0.2363(3) 0.3993(7) 0.38100(19)
O6A O 0.5065(2) 0.2955(6) 0.51169(17)
O7A O 0.4844(2) 0.1167(6) 0.46910(18)
H1A H 0.57390 0.61960 0.47900
H2A H 0.60550 0.50960 0.47470
C1A C 0.6228(3) 0.6536(8) 0.4471(2)
Tb1C Tb 0.18875(2) 0.31064(4) 0.42301(2)
O1A O 0.6615(3) 0.6134(7) 0.4419(2)
O2A O 0.6135(2) 0.7605(6) 0.44021(18)
Tb1A Tb 0.68875(2) 0.81064(4) 0.42301(2)
O42C O 0.7552(3) 0.9408(8) 0.4340(2)
O43C O 0.7363(3) 0.8993(7) 0.38100(19)
#END
