
#######################################################################
#
#                 Cambridge Crystallographic Data Centre
#                                CCDC
#
#######################################################################
#
# If this CIF has been generated from an entry in the Cambridge
# Structural Database, then it will include bibliographic, chemical,
# crystal, experimental, refinement or atomic coordinate data resulting
# from the CCDC's data processing and validation procedures.
#
#######################################################################

data_CSD_CIF_DEPXUS
_audit_creation_date 2006-12-20
_audit_creation_method CSD-ConQuest-V1
_database_code_CSD DEPXUS
_database_code_depnum_ccdc_archive 'CCDC 203533'
_chemical_formula_sum 'C96 H64 Cu2 Eu4 N8 O30'
_chemical_formula_moiety
;
(C20 H16 Cu1 N4 1+)2n,n(C56 H32 Eu4 O30 2-)
;
_journal_coden_Cambridge 119
_journal_volume 796
_journal_year 2006
_journal_page_first 203
_journal_name_full 'J.Mol.Struct. '
loop_
_publ_author_name
"Youfu Zhou"
"Daqiang Yuan"
"Feilong Jiang"
"Yanqing Xu"
"Maochun Hong"
_chemical_name_systematic
;
catena-(bis(bis(2,2'-Bipyridine)-copper(i)) 
pentakis(\m~4~-isophthalato)-bis(\m~2~-isophthalato)-diaqua-tetra-europium(iii
))
;
_cell_volume   8886.091
_exptl_crystal_colour 'black'
_exptl_crystal_density_diffrn 1.9
_exptl_special_details
;
isostructural with the neodymium and samarium analogues

;
_exptl_crystal_description 'Prismatic'
_diffrn_ambient_temperature 293
#These two values have been output from a single CSD field.
_refine_ls_R_factor_gt 0.0622
_refine_ls_wR_factor_gt 0.0622
_symmetry_cell_setting monoclinic
_symmetry_space_group_name_H-M 'C 2/c'
_symmetry_Int_Tables_number 15
loop_
_symmetry_equiv_pos_site_id
_symmetry_equiv_pos_as_xyz
1 x,y,z
2 1/2+x,1/2+y,z
3 -x,y,1/2-z
4 1/2-x,1/2+y,1/2-z
5 -x,-y,-z
6 -1/2-x,-1/2-y,-z
7 x,-y,-1/2+z
8 -1/2+x,-1/2-y,-1/2+z
_cell_length_a 26.4064(3)
_cell_length_b 14.4412(3)
_cell_length_c 25.3777(7)
_cell_angle_alpha 90
_cell_angle_beta 113.333(1)
_cell_angle_gamma 90
_cell_formula_units_Z 4
loop_
_atom_type_symbol
_atom_type_radius_bond
C 0.68
H 0.23
Cu 1.52
Eu 1.69
N 0.68
O 0.68
loop_
_atom_site_label
_atom_site_type_symbol
_atom_site_fract_x
_atom_site_fract_y
_atom_site_fract_z
Eu1 Eu 0.33476(3) -0.41568(4) 0.30170(3)
Eu2 Eu 0.28645(3) -0.63605(4) 0.18990(3)
Cu1 Cu 0.55983(8) -0.02639(14) 0.42187(10)
N1 N 0.5134(5) 0.0889(9) 0.4014(5)
O1 O 0.2441(4) -0.3673(6) 0.2832(4)
O2 O 0.3703(3) -0.5640(5) 0.2661(4)
O3 O 0.2359(4) -0.5199(6) 0.1182(4)
O4 O 0.4146(4) -0.4339(6) 0.2738(4)
O5 O 0.2823(4) -0.4523(6) 0.2011(5)
C1 C 0.6574(6) -0.0701(9) 0.4078(7)
C2 C 0.4571(5) -0.6670(8) 0.2555(6)
H1 H 0.42810 -0.69970 0.25880
C3 C 0.50000 -0.5226(11) 0.25000
H2 H 0.50000 -0.45820 0.25000
C4 C 0.50000 -0.7128(12) 0.25000
H3 H 0.50000 -0.77720 0.25000
C5 C 0.4643(6) 0.0816(11) 0.4064(7)
C6 C 0.4574(5) -0.5712(8) 0.2561(5)
C7 C 0.2499(6) -0.4478(8) 0.1478(7)
C8 C 0.4119(5) -0.5198(8) 0.2658(5)
N2 N 0.4978(6) -0.0676(9) 0.4431(6)
N3 N 0.5697(5) -0.1403(10) 0.3762(6)
C9 C 0.6717(6) 0.0618(9) 0.4660(7)
H4 H 0.65970 0.10180 0.48740
N4 N 0.6390(5) -0.0111(8) 0.4384(6)
C10 C 0.7406(7) 0.0208(14) 0.4314(8)
H5 H 0.77410 0.03200 0.42840
C11 C 0.7217(6) 0.0776(11) 0.4632(7)
H6 H 0.74320 0.12730 0.48300
C12 C 0.1636(5) -0.6825(7) 0.2055(5)
C13 C 0.4529(6) -0.0115(11) 0.4226(7)
C14 C 0.6222(7) -0.1499(10) 0.3827(7)
O6 O 0.3402(4) -0.3554(6) 0.3928(4)
O7 O 0.1853(4) -0.0419(5) 0.1462(4)
O8 O 0.3443(4) -0.3841(6) 0.6415(4)
O9 O 0.1726(4) -0.2804(5) 0.2786(4)
O10 O 0.4132(4) -0.4327(7) 0.3964(4)
O11 O 0.2403(4) -0.7285(6) 0.1056(4)
H7 H 0.26090 -0.73630 0.08880
O12 O 0.1958(4) -0.6695(5) 0.1807(4)
C15 C 0.2005(5) -0.1980(7) 0.1291(6)
O13 O 0.3250(5) -0.2737(8) 0.5755(5)
C16 C 0.1573(5) -0.4417(8) 0.2597(6)
C17 C 0.1942(5) -0.3567(8) 0.2755(6)
C18 C 0.3972(5) -0.4221(9) 0.4828(6)
C19 C 0.3705(5) -0.3758(8) 0.5125(6)
H8 H 0.34620 -0.32810 0.49440
C20 C 0.1735(5) -0.5182(7) 0.2386(6)
H9 H 0.20550 -0.51570 0.23160
C21 C 0.3475(6) -0.3477(9) 0.5971(7)
C22 C 0.2253(5) -0.2814(8) 0.1545(6)
H10 H 0.24160 -0.28610 0.19430
C23 C 0.3839(5) -0.4024(9) 0.4209(6)
C24 C 0.1090(6) -0.4429(9) 0.2689(6)
H11 H 0.09680 -0.38980 0.28100
C25 C 0.1429(5) -0.5998(8) 0.2274(6)
C26 C 0.2259(6) -0.3559(9) 0.1214(6)
C27 C 0.3792(6) -0.3990(9) 0.5682(6)
C28 C 0.0965(6) -0.6041(9) 0.2395(7)
H12 H 0.07670 -0.65910 0.23430
C29 C 0.0793(5) -0.5245(9) 0.2597(6)
H13 H 0.04750 -0.52660 0.26710
C30 C 0.4346(6) -0.4919(10) 0.5103(7)
H14 H 0.45250 -0.52350 0.49080
C31 C 0.4165(6) -0.4697(10) 0.5953(6)
H15 H 0.42230 -0.48720 0.63250
C32 C 0.1766(7) -0.1908(9) 0.0708(6)
H16 H 0.15950 -0.13590 0.05370
C33 C 0.4452(6) -0.5145(11) 0.5666(7)
H17 H 0.47130 -0.55950 0.58540
C34 C 0.2029(7) -0.3488(8) 0.0623(7)
H18 H 0.20410 -0.39860 0.03960
C35 C 0.1777(7) -0.2657(10) 0.0370(7)
H19 H 0.16170 -0.26060 -0.00270
C36 C 0.4289(8) 0.1548(15) 0.3978(9)
H20 H 0.39470 0.14620 0.39950
C37 C 0.5345(8) -0.2107(12) 0.3528(8)
H21 H 0.49820 -0.20440 0.34910
C38 C 0.4915(9) -0.1523(13) 0.4604(8)
H22 H 0.52240 -0.19030 0.47500
C39 C 0.4424(10) -0.1870(16) 0.4580(9)
H23 H 0.43950 -0.24730 0.46920
C40 C 0.3993(9) -0.1310(19) 0.4389(9)
H24 H 0.36570 -0.15180 0.43810
C41 C 0.4028(7) -0.0443(15) 0.4206(8)
H25 H 0.37170 -0.00670 0.40680
C42 C 0.7078(7) -0.0536(12) 0.4040(8)
H26 H 0.71960 -0.09350 0.38240
C43 C 0.5275(8) 0.1748(13) 0.3921(8)
H27 H 0.56170 0.18240 0.39020
C44 C 0.4444(9) 0.2412(15) 0.3865(10)
H28 H 0.42040 0.29120 0.38000
C45 C 0.6403(8) -0.2283(13) 0.3645(8)
H29 H 0.67680 -0.23460 0.36900
C46 C 0.5492(10) -0.2899(15) 0.3344(8)
H30 H 0.52400 -0.33750 0.31910
C47 C 0.4950(9) 0.2533(14) 0.3850(9)
H31 H 0.50720 0.31140 0.37940
C48 C 0.6019(12) -0.2979(15) 0.3391(10)
H32 H 0.61260 -0.35060 0.32510
O14 O 0.2176(4) -0.1341(6) 0.2204(4)
C49 C 0.2016(5) -0.1182(8) 0.1679(6)
O15 O 0.1474(4) -0.7621(6) 0.2134(4)
Eu1C Eu 0.16524(3) 0.08432(4) 0.19830(3)
Eu1C* Eu 0.16524(3) -0.91568(4) 0.19830(3)
Eu1B Eu 0.66524(3) -0.41568(4) 0.19830(3)
Eu1F Eu 0.33476(3) -0.58432(4) -0.19830(3)
Eu2B Eu 0.71355(3) -0.63605(4) 0.31010(3)
Eu2F Eu 0.28645(3) -0.36395(4) 0.68990(3)
Eu2C Eu 0.21355(3) -0.13605(4) 0.31010(3)
Eu2C* Eu 0.21355(3) -1.13605(4) 0.31010(3)
Eu2* Eu 0.28645(3) 0.36395(4) 0.18990(3)
O1C O 0.2559(4) 0.1327(6) 0.2168(4)
O2B O 0.6297(3) -0.5640(5) 0.2339(4)
O2C O 0.1297(3) -0.0640(5) 0.2339(4)
O3C O 0.2641(4) -1.0199(6) 0.3818(4)
O3B O 0.7641(4) -0.5199(6) 0.3818(4)
O4B O 0.5854(4) -0.4339(6) 0.2262(4)
O4C O 0.0854(4) 0.0661(6) 0.2262(4)
O5C O 0.2177(4) -0.9523(6) 0.2989(5)
O5C* O 0.2177(4) 0.0477(6) 0.2989(5)
O5B O 0.7177(4) -0.4523(6) 0.2989(5)
C2B C 0.5429(5) -0.6670(8) 0.2445(6)
H1B H 0.57190 -0.69970 0.24120
C6B C 0.5426(5) -0.5712(8) 0.2439(5)
C7C C 0.2501(6) -0.9478(8) 0.3522(7)
C8B C 0.5881(5) -0.5198(8) 0.2342(5)
C12C C 0.3364(5) -0.1825(7) 0.2945(5)
O6F O 0.3402(4) -0.6446(6) -0.1072(4)
O6C O 0.1598(4) 0.1446(6) 0.1072(4)
O7C O 0.3147(4) -0.5419(5) 0.3538(4)
O8F O 0.3443(4) -0.6159(6) 0.1415(4)
O8D O 0.6557(4) -0.6159(6) 0.3585(4)
O9C O 0.3274(4) 0.2196(5) 0.2214(4)
O9C* O 0.3274(4) -0.7804(5) 0.2214(4)
O9A O 0.6726(4) -0.7804(5) 0.2786(4)
O10F O 0.4132(4) -0.5673(7) -0.1036(4)
O10C O 0.0868(4) 0.0673(7) 0.1036(4)
O11B O 0.7597(4) -0.7285(6) 0.3944(4)
H7B H 0.73910 -0.73630 0.41120
O12C O 0.3042(4) -0.1695(5) 0.3193(4)
O12B O 0.8042(4) -0.6695(5) 0.3193(4)
C15C C 0.2995(5) -0.6980(7) 0.3709(6)
O13F O 0.3250(5) -0.7263(8) 0.0755(5)
C16C C 0.3427(5) 0.0583(8) 0.2403(6)
C17C C 0.3058(5) 0.1433(8) 0.2245(6)
C18F C 0.3972(5) -0.5779(9) -0.0172(6)
C19F C 0.3705(5) -0.6242(8) 0.0125(6)
H8F H 0.34620 -0.67190 -0.00560
C20C C 0.3265(5) -0.0182(7) 0.2614(6)
H9C H 0.29450 -0.01570 0.26840
C21F C 0.3475(6) -0.6523(9) 0.0971(7)
C22C C 0.2747(5) -0.7814(8) 0.3455(6)
H10C H 0.25840 -0.78610 0.30570
C23F C 0.3839(5) -0.5976(9) -0.0791(6)
C24C C 0.3910(6) 0.0571(9) 0.2311(6)
H11C H 0.40320 0.11020 0.21900
C25C C 0.3571(5) -0.0998(8) 0.2726(6)
C26C C 0.2741(6) -0.8559(9) 0.3786(6)
C27F C 0.3792(6) -0.6010(9) 0.0682(6)
C28C C 0.4035(6) -0.1041(9) 0.2605(7)
H12C H 0.42330 -0.15910 0.26570
C29C C 0.4207(5) -0.0245(9) 0.2403(6)
H13C H 0.45250 -0.02660 0.23290
C30F C 0.4346(6) -0.5081(10) 0.0103(7)
H14F H 0.45250 -0.47650 -0.00920
C31F C 0.4165(6) -0.5303(10) 0.0953(6)
H15F H 0.42230 -0.51280 0.13250
C32C C 0.3234(7) -0.6908(9) 0.4292(6)
H16C H 0.34050 -0.63590 0.44630
C33F C 0.4452(6) -0.4855(11) 0.0666(7)
H17F H 0.47130 -0.44050 0.08540
C34C C 0.2971(7) -0.8488(8) 0.4377(7)
H18C H 0.29590 -0.89860 0.46040
C35C C 0.3223(7) -0.7657(10) 0.4630(7)
H19C H 0.33830 -0.76060 0.50270
O14C O 0.2824(4) -0.6341(6) 0.2796(4)
O14A O 0.7176(4) -0.6341(6) 0.2204(4)
C49C C 0.2984(5) -0.6182(8) 0.3321(6)
O15C O 0.3526(4) -0.2621(6) 0.2866(4)
O15* O 0.1474(4) 0.2379(6) 0.2134(4)
#END
