
#######################################################################
#
#                 Cambridge Crystallographic Data Centre
#                                CCDC
#
#######################################################################
#
# If this CIF has been generated from an entry in the Cambridge
# Structural Database, then it will include bibliographic, chemical,
# crystal, experimental, refinement or atomic coordinate data resulting
# from the CCDC's data processing and validation procedures.
#
#######################################################################

data_CSD_CIF_DEPYED
_audit_creation_date 2006-12-20
_audit_creation_method CSD-ConQuest-V1
_database_code_CSD DEPYED
_database_code_depnum_ccdc_archive 'CCDC 192760'
_chemical_formula_sum 'C96 H64 Cu2 N8 O30 Sm4'
_chemical_formula_moiety
;
(C20 H16 Cu1 N4 1+)2n,n(C56 H32 O30 Sm4 2-)
;
_journal_coden_Cambridge 119
_journal_volume 796
_journal_year 2006
_journal_page_first 203
_journal_name_full 'J.Mol.Struct. '
loop_
_publ_author_name
"Youfu Zhou"
"Daqiang Yuan"
"Feilong Jiang"
"Yanqing Xu"
"Maochun Hong"
_chemical_name_systematic
;
catena-(bis(bis(2,2'-Bipyridine)-copper(i)) 
pentakis(\m~4~-isophthalato)-bis(\m~2~-isophthalato)-diaqua-tetra-samarium(iii
))
;
_cell_volume   8870.826
_exptl_crystal_colour 'black'
_exptl_crystal_density_diffrn 1.9
_exptl_special_details
;
isostructural with the neodymium and samarium analogues

;
_diffrn_ambient_temperature 293
#These two values have been output from a single CSD field.
_refine_ls_R_factor_gt 0.0606
_refine_ls_wR_factor_gt 0.0606
_symmetry_cell_setting monoclinic
_symmetry_space_group_name_H-M 'C 2/c'
_symmetry_Int_Tables_number 15
loop_
_symmetry_equiv_pos_site_id
_symmetry_equiv_pos_as_xyz
1 x,y,z
2 1/2+x,1/2+y,z
3 -x,y,1/2-z
4 1/2-x,1/2+y,1/2-z
5 -x,-y,-z
6 -1/2-x,-1/2-y,-z
7 x,-y,-1/2+z
8 -1/2+x,-1/2-y,-1/2+z
_cell_length_a 26.3797(6)
_cell_length_b 14.4378(2)
_cell_length_c 25.4231(7)
_cell_angle_alpha 90
_cell_angle_beta 113.631(1)
_cell_angle_gamma 90
_cell_formula_units_Z 4
loop_
_atom_type_symbol
_atom_type_radius_bond
C 0.68
H 0.23
Cu 1.52
N 0.68
O 0.68
Sm 1.69
loop_
_atom_site_label
_atom_site_type_symbol
_atom_site_fract_x
_atom_site_fract_y
_atom_site_fract_z
Sm1 Sm 0.21376(2) -0.36500(4) 0.31006(2)
Sm2 Sm 0.16496(2) -0.58561(4) 0.19794(2)
Cu1 Cu 0.56023(6) -0.47307(12) 0.42174(8)
C1 C 0.3069(4) -0.6437(7) 0.2258(4)
C2 C 0.3428(4) -0.5606(7) 0.2403(4)
C3 C 0.3906(5) -0.5561(8) 0.2305(5)
H1 H 0.40300 -0.60840 0.21780
C4 C 0.4198(5) -0.4756(8) 0.2393(6)
H2 H 0.45130 -0.47320 0.23140
C5 C 0.4035(5) -0.3975(8) 0.2595(5)
H3 H 0.42340 -0.34270 0.26480
C6 C 0.3567(4) -0.4019(7) 0.2721(4)
C7 C 0.3274(4) -0.4841(6) 0.2622(4)
H4 H 0.29630 -0.48750 0.27080
C8 C 0.3365(4) -0.3184(7) 0.2948(4)
C9 C 0.2511(4) -0.5537(7) 0.3523(4)
C10 C 0.2745(4) -0.6449(7) 0.3797(4)
C11 C 0.2991(6) -0.6525(8) 0.4387(5)
H5 H 0.29990 -0.60250 0.46200
C12 C 0.3229(6) -0.7370(9) 0.4625(5)
H6 H 0.33820 -0.74330 0.50220
C13 C 0.3246(5) -0.8115(8) 0.4294(5)
H7 H 0.34170 -0.86640 0.44650
C14 C 0.3002(4) -0.8029(7) 0.3701(4)
C15 C 0.2752(4) -0.7196(7) 0.3455(4)
H8 H 0.25890 -0.71390 0.30570
C16 C 0.2999(4) -0.8827(7) 0.3328(5)
C17 C 0.1532(4) -0.3477(8) 0.4034(4)
C18 C 0.1217(4) -0.3990(7) 0.4322(4)
C19 C 0.0833(5) -0.4697(9) 0.4044(5)
H9 H 0.07690 -0.48640 0.36700
C20 C 0.0553(5) -0.5137(10) 0.4325(5)
H10 H 0.02990 -0.55990 0.41380
C21 C 0.0645(4) -0.4904(8) 0.4882(5)
H11 H 0.04500 -0.52050 0.50670
C22 C 0.1023(4) -0.4224(8) 0.5167(4)
C23 C 0.1295(4) -0.3755(7) 0.4873(4)
H12 H 0.15340 -0.32720 0.50550
C24 C 0.1159(5) -0.3996(8) 0.5786(4)
C25 C 0.0876(4) -0.4830(7) 0.2340(4)
C26 C 0.0428(4) -0.4314(7) 0.2437(4)
C27 C 0.0423(4) -0.3351(8) 0.2447(5)
H13 H 0.07150 -0.30260 0.24180
C28 C 0.00000 -0.2871(11) 0.25000
H14 H 0.00000 -0.22270 0.25000
C29 C 0.00000 -0.478(1) 0.25000
H15 H 0.00000 -0.54240 0.25000
C30 C 0.5361(7) -0.2883(10) 0.3539(6)
H16 H 0.49990 -0.29320 0.35100
C31 C 0.5507(8) -0.2086(12) 0.3346(7)
H17 H 0.52520 -0.16170 0.31760
C32 C 0.6041(10) -0.2012(13) 0.3413(8)
H18 H 0.61610 -0.14730 0.32980
C33 C 0.6405(8) -0.2719(10) 0.3647(7)
H19 H 0.67700 -0.26710 0.36880
C34 C 0.6224(6) -0.3495(10) 0.3819(6)
C35 C 0.6583(5) -0.4293(8) 0.4089(5)
C36 C 0.7079(6) -0.4471(11) 0.4043(7)
H20 H 0.71960 -0.40760 0.38260
C37 C 0.7398(6) -0.5210(11) 0.4309(7)
H21 H 0.77280 -0.53280 0.42700
C38 C 0.7225(6) -0.5772(10) 0.4633(6)
H22 H 0.74460 -0.62600 0.48390
C39 C 0.6720(5) -0.5607(9) 0.4650(5)
H23 H 0.65960 -0.60150 0.48550
C40 C 0.4923(7) -0.3458(10) 0.4605(6)
H24 H 0.52270 -0.30640 0.47370
C41 C 0.4426(8) -0.3134(13) 0.4600(7)
H25 H 0.44020 -0.25520 0.47450
C42 C 0.3974(7) -0.3698(16) 0.4377(6)
H26 H 0.36280 -0.34850 0.43370
C43 C 0.4036(5) -0.4579(13) 0.4214(6)
H27 H 0.37360 -0.49830 0.40910
C44 C 0.4542(6) -0.4872(10) 0.4230(5)
C45 C 0.4645(5) -0.5796(11) 0.4061(6)
C46 C 0.4300(6) -0.6539(13) 0.3980(7)
H28 H 0.39610 -0.64540 0.40050
C47 C 0.4442(8) -0.7411(14) 0.3861(8)
H29 H 0.42000 -0.79080 0.37910
C48 C 0.4963(7) -0.7516(12) 0.3852(7)
H30 H 0.50910 -0.80950 0.38000
C49 C 0.5281(6) -0.6737(11) 0.3921(6)
H31 H 0.56240 -0.68020 0.39000
N1 N 0.5700(4) -0.3598(7) 0.3766(4)
N2 N 0.6401(4) -0.4897(7) 0.4389(4)
N3 N 0.4987(4) -0.4309(8) 0.4429(4)
N4 N 0.5131(4) -0.5892(8) 0.4015(4)
O1 O 0.3280(3) -0.7198(5) 0.2220(4)
O2 O 0.2558(3) -0.6345(5) 0.2169(3)
O3 O 0.3043(3) -0.3316(5) 0.3192(3)
O4 O 0.3538(3) -0.2396(5) 0.2865(3)
O5 O 0.2176(3) -0.5500(5) 0.2995(3)
O6 O 0.2652(3) -0.4821(5) 0.3819(3)
O7 O 0.3163(3) -0.9595(5) 0.3545(3)
O8 O 0.2822(3) -0.8674(5) 0.2798(3)
O9 O 0.1555(3) -0.3852(5) 0.3586(3)
O10 O 0.1757(4) -0.2741(6) 0.4251(4)
O11 O 0.1595(3) -0.3542(5) 0.6060(3)
O12 O 0.0868(3) -0.4300(6) 0.6030(3)
O13 O 0.1297(3) -0.4370(5) 0.2340(3)
O14 O 0.0838(3) -0.5676(5) 0.2250(3)
O15 O 0.2599(3) -0.2716(5) 0.3953(3)
Sm1C Sm 0.28624(2) -0.86500(4) 0.18994(2)
Sm1C* Sm 0.28624(2) 0.13500(4) 0.18994(2)
Sm1B Sm -0.21376(2) -0.36500(4) 0.18994(2)
Sm1* Sm 0.21376(2) -1.36500(4) 0.31006(2)
Sm1F Sm 0.21376(2) -0.63500(4) -0.18994(2)
Sm2C Sm 0.33504(2) -0.08561(4) 0.30206(2)
Sm2C* Sm 0.33504(2) -1.08561(4) 0.30206(2)
Sm2F Sm 0.16496(2) -0.41439(4) 0.69794(2)
Sm2B Sm -0.16496(2) -0.58561(4) 0.30206(2)
C1C C 0.1931(4) -1.1437(7) 0.2742(4)
C2C C 0.1572(4) -1.0606(7) 0.2597(4)
C3C C 0.1094(5) -1.0561(8) 0.2695(5)
H1C H 0.09700 -1.10840 0.28220
C4C C 0.0802(5) -0.9756(8) 0.2607(6)
H2C H 0.04870 -0.97320 0.26860
C5C C 0.0965(5) -0.8975(8) 0.2405(5)
H3C H 0.07660 -0.84270 0.23520
C6C C 0.1433(4) -0.9019(7) 0.2279(4)
C7C C 0.1726(4) -0.9841(6) 0.2378(4)
H4C H 0.20370 -0.98750 0.22920
C8C C 0.1635(4) -0.8184(7) 0.2052(4)
C9C C 0.2489(4) -0.0537(7) 0.1477(4)
C10C C 0.2255(4) -0.1449(7) 0.1203(4)
C11C C 0.2009(6) -0.1525(8) 0.0613(5)
H5C H 0.20010 -0.10250 0.03800
C12C C 0.1771(6) -0.2370(9) 0.0375(5)
H6C H 0.16180 -0.24330 -0.00220
C13C C 0.1754(5) -0.3115(8) 0.0706(5)
H7C H 0.15830 -0.36640 0.05350
C14C C 0.1998(4) -0.3029(7) 0.1299(4)
C15C C 0.2248(4) -0.2196(7) 0.1545(4)
H8C H 0.24110 -0.21390 0.19430
C16C C 0.2001(4) -0.3827(7) 0.1672(5)
C17F C 0.1532(4) -0.6523(8) -0.0966(4)
C18F C 0.1217(4) -0.6010(7) -0.0678(4)
C19F C 0.0833(5) -0.5303(9) -0.0956(5)
H9F H 0.07690 -0.51360 -0.13300
C20F C 0.0553(5) -0.4863(10) -0.0675(5)
H10F H 0.02990 -0.44010 -0.08620
C21F C 0.0645(4) -0.5096(8) -0.0118(5)
H11F H 0.04500 -0.47950 0.00670
C22F C 0.1023(4) -0.5776(8) 0.0167(4)
C23F C 0.1295(4) -0.6245(7) -0.0127(4)
H12F H 0.15340 -0.67280 0.00550
C24F C 0.1159(5) -0.6004(8) 0.0786(4)
C25B C -0.0876(4) -0.4830(7) 0.2660(4)
C26B C -0.0428(4) -0.4314(7) 0.2563(4)
C27B C -0.0423(4) -0.3351(8) 0.2553(5)
H13B H -0.07150 -0.30260 0.25820
O1C O 0.1720(3) -0.2198(5) 0.2780(4)
O1A O -0.1720(3) -0.2198(5) 0.2220(4)
O1C* O 0.1720(3) -1.2198(5) 0.2780(4)
O2C O 0.2442(3) -1.1345(5) 0.2831(3)
O3C O 0.1957(3) -0.8316(5) 0.1808(3)
O3B O -0.3043(3) -0.3316(5) 0.1808(3)
O4C O 0.1462(3) -0.7396(5) 0.2135(3)
O4* O 0.3538(3) -1.2396(5) 0.2865(3)
O5C O 0.2824(3) -0.0500(5) 0.2005(3)
O5C* O 0.2824(3) -1.0500(5) 0.2005(3)
O5B O -0.2176(3) -0.5500(5) 0.2005(3)
O6C O 0.2348(3) 0.0179(5) 0.1181(3)
O6B O -0.2652(3) -0.4821(5) 0.1181(3)
O7C O 0.1837(3) -0.4595(5) 0.1455(3)
O8C O 0.2178(3) -0.3674(5) 0.2202(3)
O8A O -0.2178(3) -0.3674(5) 0.2798(3)
O9B O -0.1555(3) -0.3852(5) 0.1414(3)
O9F O 0.1555(3) -0.6148(5) -0.1414(3)
O10F O 0.1757(4) -0.7259(6) -0.0749(4)
O11F O 0.1595(3) -0.6458(5) 0.1060(3)
O11E O 0.3405(3) -1.1458(5) 0.3940(3)
O12F O 0.0868(3) -0.5700(6) 0.1030(3)
O12E O 0.4132(3) -1.0700(6) 0.3970(3)
O13B O -0.1297(3) -0.4370(5) 0.2660(3)
O13C O 0.3703(3) -0.9370(5) 0.2660(3)
O14B O -0.0838(3) -0.5676(5) 0.2750(3)
O14C O 0.4162(3) -1.0676(5) 0.2750(3)
O15B O -0.2599(3) -0.2716(5) 0.1047(3)
#END
