
#######################################################################
#
#                 Cambridge Crystallographic Data Centre
#                                CCDC
#
#######################################################################
#
# If this CIF has been generated from an entry in the Cambridge
# Structural Database, then it will include bibliographic, chemical,
# crystal, experimental, refinement or atomic coordinate data resulting
# from the CCDC's data processing and validation procedures.
#
#######################################################################

data_CSD_CIF_DEPYAZ
_audit_creation_date 2006-12-20
_audit_creation_method CSD-ConQuest-V1
_database_code_CSD DEPYAZ
_database_code_depnum_ccdc_archive 'CCDC 203534'
_chemical_formula_sum 'C96 H64 Cu2 N8 Nd4 O30'
_chemical_formula_moiety
;
(C20 H16 Cu1 N4 1+)2n,n(C56 H32 Nd4 O30 2-)
;
_journal_coden_Cambridge 119
_journal_volume 796
_journal_year 2006
_journal_page_first 203
_journal_name_full 'J.Mol.Struct. '
loop_
_publ_author_name
"Youfu Zhou"
"Daqiang Yuan"
"Feilong Jiang"
"Yanqing Xu"
"Maochun Hong"
_chemical_name_systematic
;
catena-(bis(bis(2,2'-Bipyridine)-copper(i)) 
pentakis(\m~4~-isophthalato)-bis(\m~2~-isophthalato)-diaqua-tetra-neodymium(ii
i))
;
_cell_volume   8979.973
_exptl_crystal_colour 'black'
_exptl_crystal_density_diffrn 1.858
_exptl_special_details
;
isostructural with the samarium and europium analogues

;
_exptl_crystal_description 'prismatic'
_diffrn_ambient_temperature 293
#These two values have been output from a single CSD field.
_refine_ls_R_factor_gt 0.0646
_refine_ls_wR_factor_gt 0.0646
_symmetry_cell_setting monoclinic
_symmetry_space_group_name_H-M 'C 2/c'
_symmetry_Int_Tables_number 15
loop_
_symmetry_equiv_pos_site_id
_symmetry_equiv_pos_as_xyz
1 x,y,z
2 1/2+x,1/2+y,z
3 -x,y,1/2-z
4 1/2-x,1/2+y,1/2-z
5 -x,-y,-z
6 -1/2-x,-1/2-y,-z
7 x,-y,-1/2+z
8 -1/2+x,-1/2-y,-1/2+z
_cell_length_a 26.4938(2)
_cell_length_b 14.5214(1)
_cell_length_c 25.6071(4)
_cell_angle_alpha 90
_cell_angle_beta 114.285(1)
_cell_angle_gamma 90
_cell_formula_units_Z 4
loop_
_atom_type_symbol
_atom_type_radius_bond
C 0.68
H 0.23
Cu 1.52
N 0.68
Nd 1.72
O 0.68
loop_
_atom_site_label
_atom_site_type_symbol
_atom_site_fract_x
_atom_site_fract_y
_atom_site_fract_z
Nd1 Nd 0.21414(2) -0.13261(4) 0.31003(2)
Nd2 Nd 0.16455(2) 0.08841(4) 0.19715(2)
Cu1 Cu 0.43908(7) -0.02818(13) 0.07871(8)
N1 N 0.4860(4) 0.0887(8) 0.0993(5)
O1 O 0.1280(3) -0.0591(5) 0.2334(3)
O2 O 0.2187(3) 0.0535(5) 0.3000(3)
O3 O 0.2832(3) 0.3710(5) 0.2812(3)
C1 C 0.00000 -0.0202(9) 0.25000
H1 H 0.00000 0.04390 0.25000
C2 C 0.3012(4) 0.3059(7) 0.3714(4)
O4 O 0.0824(3) 0.0703(5) 0.2236(3)
O5 O 0.2672(4) -0.0132(5) 0.3831(3)
O6 O 0.0848(3) -0.0743(6) 0.6003(3)
O7 O 0.2620(3) -0.2265(5) 0.3963(3)
H2 H 0.24150 -0.23460 0.41260
O8 O 0.1589(3) -0.1480(5) 0.6046(3)
O9 O 0.1768(4) -0.2244(7) 0.4252(4)
O10 O 0.3296(3) 0.2222(5) 0.2231(4)
O11 O 0.3063(3) -0.1642(5) 0.3195(3)
C3 C 0.1532(5) -0.1514(9) 0.4030(5)
C4 C 0.2532(5) 0.0576(8) 0.3537(5)
C5 C 0.2765(4) 0.2215(7) 0.3461(4)
H3 H 0.25970 0.21610 0.30640
C6 C 0.0426(4) -0.0663(7) 0.2430(4)
O12 O 0.1559(3) -0.1146(5) 0.3594(3)
C7 C 0.2770(4) 0.1473(7) 0.3798(4)
C8 C 0.1292(4) -0.1270(8) 0.4865(5)
H4 H 0.15390 -0.17400 0.50510
C9 C 0.1011(4) -0.0812(7) 0.5153(4)
N2 N 0.3590(4) -0.0107(7) 0.0608(4)
C10 C 0.1142(4) -0.1027(7) 0.5764(4)
C11 C 0.1206(5) -0.1031(8) 0.4310(5)
C12 C 0.0871(4) -0.0133(7) 0.2336(4)
C13 C 0.0838(5) -0.0326(9) 0.4041(5)
H5 H 0.07860 -0.01450 0.36740
N3 N 0.4297(4) -0.1412(8) 0.1234(4)
N4 N 0.4999(5) -0.0689(8) 0.0575(5)
C14 C 0.0411(5) -0.1615(8) 0.2441(5)
H6 H 0.06970 -0.19420 0.24060
C15 C 0.5343(6) 0.0783(11) 0.0946(6)
C16 C 0.0544(6) 0.0115(10) 0.4313(6)
H7 H 0.02870 0.05690 0.41210
C17 C 0.5446(5) -0.0134(11) 0.0767(5)
O13 O 0.2577(3) 0.1379(5) 0.2179(3)
O14 O 0.3546(3) -0.2569(5) 0.2874(3)
O15 O 0.3173(4) 0.4612(5) 0.3564(4)
C18 C 0.3573(4) -0.0941(7) 0.2724(4)
C19 C 0.3433(4) 0.0627(7) 0.2403(5)
C20 C 0.3078(4) 0.1473(8) 0.2263(5)
C21 C 0.3285(4) -0.0147(7) 0.2627(4)
H8 H 0.29770 -0.01160 0.27140
C22 C 0.3009(4) 0.3843(7) 0.3344(5)
C23 C 0.3266(5) 0.3119(8) 0.4301(5)
H9 H 0.34400 0.36630 0.44740
C24 C 0.3381(4) -0.1770(7) 0.2948(4)
C25 C 0.4038(5) -0.1010(8) 0.2605(5)
H10 H 0.42350 -0.15580 0.26630
C26 C 0.0636(5) -0.0121(8) 0.4864(5)
H11 H 0.04440 0.01850 0.50460
C27 C 0.3912(5) 0.0594(8) 0.2302(6)
H12 H 0.40360 0.11120 0.21760
C28 C 0.00000 -0.2094(12) 0.25000
H13 H 0.00000 -0.27340 0.25000
C29 C 0.3266(5) 0.0592(9) 0.0355(6)
H14 H 0.33870 0.09910 0.01460
C30 C 0.3020(6) 0.1566(8) 0.4386(5)
H15 H 0.30220 0.10680 0.46160
C31 C 0.4198(6) -0.0234(9) 0.2395(6)
H16 H 0.45080 -0.02700 0.23140
C32 C 0.3262(7) 0.2372(9) 0.4638(5)
H17 H 0.34250 0.24220 0.50350
C33 C 0.5955(6) -0.0428(14) 0.0784(6)
H18 H 0.62600 -0.00370 0.09180
C34 C 0.3416(6) -0.0689(9) 0.0908(6)
C35 C 0.3772(6) -0.1492(9) 0.1187(5)
C36 C 0.5058(7) -0.1545(11) 0.0399(7)
H19 H 0.47570 -0.19440 0.02750
C37 C 0.2768(6) 0.0782(10) 0.0372(6)
H20 H 0.25560 0.12830 0.01750
C38 C 0.2592(6) 0.0217(13) 0.0684(8)
H21 H 0.22580 0.03260 0.07120
C39 C 0.5558(8) -0.1847(15) 0.0398(8)
H22 H 0.55820 -0.24280 0.02570
C40 C 0.4650(7) -0.2118(11) 0.1465(6)
H23 H 0.50100 -0.20690 0.14950
C41 C 0.4718(7) 0.1735(11) 0.1098(7)
H24 H 0.43800 0.18060 0.11240
C42 C 0.6000(8) -0.1300(16) 0.0600(7)
H25 H 0.63380 -0.15070 0.06160
C43 C 0.4496(9) -0.2905(13) 0.1656(7)
H26 H 0.47490 -0.33780 0.18180
C44 C 0.2921(6) -0.0529(12) 0.0964(7)
H27 H 0.28120 -0.09200 0.11860
C45 C 0.3602(7) -0.2293(11) 0.1359(7)
H28 H 0.32360 -0.23670 0.13080
C46 C 0.5694(7) 0.1521(15) 0.1040(8)
H29 H 0.60410 0.14350 0.10380
C47 C 0.5044(8) 0.2499(12) 0.1168(7)
H30 H 0.49270 0.30740 0.12350
C48 C 0.5537(8) 0.2396(16) 0.1139(8)
H31 H 0.57680 0.29000 0.11850
C49 C 0.3983(11) -0.2977(12) 0.1606(9)
H32 H 0.38770 -0.35040 0.17420
Nd1B Nd -0.21414(2) -0.13261(4) 0.18997(2)
Nd1C Nd 0.28586(2) 0.36739(4) 0.18997(2)
Nd1C* Nd 0.28586(2) -0.63261(4) 0.18997(2)
Nd1F Nd 0.21414(2) 0.13261(4) -0.18997(2)
Nd1* Nd 0.21414(2) 0.86739(4) 0.31003(2)
Nd2B Nd -0.16455(2) 0.08841(4) 0.30285(2)
Nd2F Nd 0.16455(2) -0.08841(4) 0.69715(2)
Nd2C Nd 0.33545(2) -0.41159(4) 0.30285(2)
Nd2C* Nd 0.33545(2) 0.58841(4) 0.30285(2)
O1B O -0.1280(3) -0.0591(5) 0.2666(3)
O1C O 0.3720(3) 0.4409(5) 0.2666(3)
O2C O 0.2813(3) -0.4465(5) 0.2000(3)
O2B O -0.2187(3) 0.0535(5) 0.2000(3)
O2C* O 0.2813(3) 0.5535(5) 0.2000(3)
O3C O 0.2168(3) -0.1290(5) 0.2188(3)
O3A O -0.2168(3) -0.1290(5) 0.2812(3)
C2C C 0.1988(4) -0.1941(7) 0.1286(4)
O4B O -0.0824(3) 0.0703(5) 0.2764(3)
O4C O 0.4176(3) 0.5703(5) 0.2764(3)
O5C O 0.2328(4) -0.5132(5) 0.1169(3)
O5B O -0.2672(4) -0.0132(5) 0.1169(3)
O6F O 0.0848(3) 0.0743(6) 0.1003(3)
O6E O 0.4152(3) 0.5743(6) 0.3997(3)
O7B O -0.2620(3) -0.2265(5) 0.1037(3)
H2B H -0.24150 -0.23460 0.08740
O8F O 0.1589(3) 0.1480(5) 0.1046(3)
O8E O 0.3411(3) 0.6480(5) 0.3954(3)
O9F O 0.1768(4) 0.2244(7) -0.0748(4)
O10C O 0.1704(3) -0.2778(5) 0.2769(4)
O10A O -0.1704(3) -0.2778(5) 0.2231(4)
O10C* O 0.1704(3) 0.7222(5) 0.2769(4)
O11B O -0.3063(3) -0.1642(5) 0.1805(3)
O11C O 0.1937(3) 0.3358(5) 0.1805(3)
C3F C 0.1532(5) 0.1514(9) -0.0970(5)
C4C C 0.2468(5) -0.4424(8) 0.1463(5)
C5C C 0.2235(4) -0.2785(7) 0.1539(4)
H3C H 0.24030 -0.28390 0.19360
C6B C -0.0426(4) -0.0663(7) 0.2570(4)
O12F O 0.1559(3) 0.1146(5) -0.1406(3)
O12B O -0.1559(3) -0.1146(5) 0.1406(3)
C7C C 0.2230(4) -0.3527(7) 0.1202(4)
C8F C 0.1292(4) 0.1270(8) -0.0135(5)
H4F H 0.15390 0.17400 0.00510
C9F C 0.1011(4) 0.0812(7) 0.0153(4)
C10F C 0.1142(4) 0.1027(7) 0.0764(4)
C11F C 0.1206(5) 0.1031(8) -0.0690(5)
C12B C -0.0871(4) -0.0133(7) 0.2664(4)
C13F C 0.0838(5) 0.0326(9) -0.0959(5)
H5F H 0.07860 0.01450 -0.13260
C14B C -0.0411(5) -0.1615(8) 0.2559(5)
H6B H -0.06970 -0.19420 0.25940
C16F C 0.0544(6) -0.0115(10) -0.0687(6)
H7F H 0.02870 -0.05690 -0.08790
O13C O 0.2423(3) 0.6379(5) 0.2821(3)
O14C O 0.1454(3) 0.2431(5) 0.2126(3)
O14* O 0.3546(3) 0.7431(5) 0.2874(3)
O15C O 0.1827(4) -0.0388(5) 0.1436(4)
C18C C 0.1427(4) 0.4059(7) 0.2276(4)
C19C C 0.1567(4) 0.5627(7) 0.2597(5)
C20C C 0.1922(4) 0.6473(8) 0.2737(5)
C21C C 0.1715(4) 0.4853(7) 0.2373(4)
H8C H 0.20230 0.48840 0.22860
C22C C 0.1991(4) -0.1157(7) 0.1656(5)
C23C C 0.1734(5) -0.1881(8) 0.0699(5)
H9C H 0.15600 -0.13370 0.05260
C24C C 0.1619(4) 0.3230(7) 0.2052(4)
C25C C 0.0962(5) 0.3990(8) 0.2395(5)
H10C H 0.07650 0.34420 0.23370
C26F C 0.0636(5) 0.0121(8) -0.0136(5)
H11F H 0.04440 -0.01850 0.00460
C27C C 0.1088(5) 0.5594(8) 0.2698(6)
H12C H 0.09640 0.61120 0.28240
C30C C 0.1980(6) -0.3434(8) 0.0614(5)
H15C H 0.19780 -0.39320 0.03840
C31C C 0.0802(6) 0.4766(9) 0.2605(6)
H16C H 0.04920 0.47300 0.26860
C32C C 0.1738(7) -0.2628(9) 0.0362(5)
H17C H 0.15750 -0.25780 -0.00350
#END
