
#######################################################################
#
#                 Cambridge Crystallographic Data Centre
#                                CCDC
#
#######################################################################
#
# If this CIF has been generated from an entry in the Cambridge
# Structural Database, then it will include bibliographic, chemical,
# crystal, experimental, refinement or atomic coordinate data resulting
# from the CCDC's data processing and validation procedures.
#
#######################################################################

data_CSD_CIF_DEQMOE
_audit_creation_date 2018-02-08
_audit_creation_method CSD-ConQuest-V1
_database_code_CSD DEQMOE
_database_code_depnum_ccdc_archive 'CCDC 1584073'
_chemical_formula_sum 'C77 H96 Co2 Mg1 N6 O25'
_chemical_formula_moiety
;
(C56 H32 Co2 Mg1 O16 2-)n,2(C2 H8 N1 1+),4(C3 H7 N1 O1),5(C1 H4 O1)
;
_journal_coden_Cambridge 222
_journal_volume 47
_journal_year 2018
_journal_page_first 2810
_journal_name_full 'Dalton Trans. '
loop_
_publ_author_name
"Zhao-Feng Wu"
"Bin Tan"
"Wen Ma"
"Wei-Wei Xiong"
"Zai-Lai Xie"
"Xiao-Ying Huang"
_chemical_name_systematic
;
catena-[bis(dimethylammonium) 
tetrakis(\m-[1,1'-biphenyl]-4,4'-dicarboxylato)-di-cobalt(ii)-magnesium(ii) 
N,N-dimethylformamide methanol solvate]
;
_cell_volume   8093.158
_exptl_crystal_colour 'blue'
_exptl_crystal_density_diffrn 1.352
_exptl_crystal_description 'block'
_diffrn_ambient_temperature 295
_refine_special_details
;
Disordered solvent molecules were not modelled and the disordered density was 
taken into account using the SQUEEZE/PLATON procedure.
;
#These two values have been output from a single CSD field.
_refine_ls_R_factor_gt 0.0497
_refine_ls_wR_factor_gt 0.0497
_symmetry_cell_setting orthorhombic
_symmetry_space_group_name_H-M 'P n n a'
_symmetry_Int_Tables_number 52
loop_
_symmetry_equiv_pos_site_id
_symmetry_equiv_pos_as_xyz
1 x,y,z
2 1/2-x,-y,z
3 x,1/2-y,1/2-z
4 1/2-x,1/2+y,1/2-z
5 -x,-y,-z
6 -1/2+x,y,-z
7 -x,-1/2+y,-1/2+z
8 -1/2+x,-1/2-y,-1/2+z
_cell_length_a 26.0566(7)
_cell_length_b 22.3986(6)
_cell_length_c 13.8669(4)
_cell_angle_alpha 90
_cell_angle_beta 90
_cell_angle_gamma 90
_cell_formula_units_Z 4
loop_
_atom_type_symbol
_atom_type_radius_bond
C 0.68
H 0.23
Co 1.26
Mg 1.41
O 0.68
loop_
_atom_site_label
_atom_site_type_symbol
_atom_site_fract_x
_atom_site_fract_y
_atom_site_fract_z
Co1 Co 0.09392(2) 0.41065(2) 0.27299(2)
Mg1 Mg 0.09439(3) 0.25000 0.25000
O1 O 0.15844(5) 0.39074(6) 0.20498(12)
O2 O 0.15021(6) 0.29287(7) 0.17554(11)
O3 O 0.53048(6) 0.38969(7) -0.20443(17)
O4 O 0.53862(6) 0.29223(7) -0.17352(11)
O5 O 0.09907(8) 0.49750(8) 0.24851(14)
O6 O 0.02754(11) 0.50172(10) 0.3259(2)
O7 O 0.10745(7) 0.40427(6) 0.41831(11)
O8 O 0.09317(5) 0.31858(6) 0.34988(9)
C1 C 0.17303(8) 0.34149(9) 0.16980(15)
C2 C 0.22289(8) 0.34193(10) 0.11563(17)
C3 C 0.24822(9) 0.39527(10) 0.0958(2)
H1 H 0.23389 0.43129 0.11550
C4 C 0.29465(9) 0.39507(11) 0.0471(2)
H2 H 0.31106 0.43105 0.03405
C5 C 0.31691(9) 0.34215(11) 0.0175(2)
C6 C 0.29101(10) 0.28899(11) 0.0363(2)
H3 H 0.30533 0.25293 0.01671
C7 C 0.2443(1) 0.28914(11) 0.0836(2)
H4 H 0.22712 0.25332 0.09388
C8 C 0.36788(9) 0.34137(11) -0.0316(2)
C9 C 0.38316(12) 0.38858(14) -0.0891(4)
H5 H 0.36140 0.42110 -0.09721
C10 C 0.43036(12) 0.38812(14) -0.1349(3)
H6 H 0.43976 0.41980 -0.17450
C11 C 0.46366(9) 0.34052(10) -0.1219(2)
C12 C 0.44817(10) 0.29346(11) -0.0680(2)
H7 H 0.46959 0.26048 -0.06166
C13 C 0.40087(10) 0.29366(12) -0.0222(3)
H8 H 0.39129 0.26113 0.01542
C14 C 0.51543(8) 0.34029(10) -0.17051(18)
C15 C 0.06367(12) 0.52577(12) 0.2830(2)
C16 C 0.06417(12) 0.59319(12) 0.2725(2)
C17 C 0.02211(14) 0.62626(14) 0.2980(3)
H9 H -0.00691 0.60732 0.32221
C18 C 0.02253(14) 0.68736(14) 0.2878(3)
H10 H -0.00667 0.70942 0.30256
C19 C 0.06783(14) 0.71698(11) 0.2546(2)
C20 C 0.10849(14) 0.68299(14) 0.2319(3)
H11 H 0.13838 0.70139 0.21047
C21 C 0.10730(13) 0.62031(13) 0.2397(3)
H12 H 0.13581 0.59774 0.22242
C22 C 0.10297(8) 0.34818(9) 0.42410(14)
C23 C 0.10809(9) 0.31852(9) 0.52001(14)
C24 C 0.12275(11) 0.3515(1) 0.60074(16)
H13 H 0.13037 0.39187 0.59441
C25 C 0.12600(12) 0.32443(10) 0.69018(16)
H14 H 0.13631 0.34668 0.74339
C26 C 0.11403(10) 0.26429(10) 0.70144(15)
C27 C 0.10039(10) 0.2315(1) 0.61986(15)
H15 H 0.09290 0.19108 0.62590
C28 C 0.09784(9) 0.25833(10) 0.52995(15)
H16 H 0.08920 0.23572 0.47609
O5B O 0.09907(8) 1.00250(8) 0.25149(14)
O6B O 0.02754(11) 0.99828(10) 0.1741(2)
C15B C 0.06367(12) 0.97423(12) 0.2170(2)
C16B C 0.06417(12) 0.90681(12) 0.2275(2)
C17B C 0.02211(14) 0.87374(14) 0.2020(3)
H9B H -0.00691 0.89268 0.17779
C18B C 0.02253(14) 0.81264(14) 0.2122(3)
H10B H -0.00667 0.79058 0.19744
C19B C 0.06783(14) 0.78302(11) 0.2454(2)
C20B C 0.10849(14) 0.81701(14) 0.2681(3)
H11B H 0.13838 0.79861 0.28953
C21B C 0.10730(13) 0.87969(13) 0.2603(3)
H12B H 0.13581 0.90226 0.27758
O7B O 0.10745(7) 0.09573(6) 1.08169(11)
O8B O 0.09317(5) 0.18142(6) 1.15012(9)
C22B C 0.10297(8) 0.15182(9) 1.07590(14)
C23B C 0.10809(9) 0.18148(9) 0.97999(14)
C24B C 0.12275(11) 0.1485(1) 0.89926(16)
H13B H 0.13037 0.10813 0.90559
C25B C 0.12600(12) 0.17557(10) 0.80982(16)
H14B H 0.13631 0.15332 0.75661
C26B C 0.11403(10) 0.23571(10) 0.79856(15)
C27B C 0.10039(10) 0.2685(1) 0.88014(15)
H15B H 0.09290 0.30892 0.87410
C28B C 0.09784(9) 0.24167(10) 0.97005(15)
H16B H 0.08920 0.26428 1.02391
Co1B Co 0.09392(2) 0.08935(2) 0.22701(2)
O1B O 0.15844(5) 0.10926(6) 0.29502(12)
O2B O 0.15021(6) 0.20713(7) 0.32446(11)
O3B O 0.53048(6) 0.11031(7) 0.70443(17)
O4B O 0.53862(6) 0.20777(7) 0.67352(11)
C1B C 0.17303(8) 0.15851(9) 0.33020(15)
C2B C 0.22289(8) 0.15807(10) 0.38437(17)
C3B C 0.24822(9) 0.10473(10) 0.4042(2)
H1B H 0.23389 0.06871 0.38450
C4B C 0.29465(9) 0.10493(11) 0.4529(2)
H2B H 0.31106 0.06895 0.46594
C5B C 0.31691(9) 0.15785(11) 0.4825(2)
C6B C 0.29101(10) 0.21101(11) 0.4637(2)
H3B H 0.30533 0.24707 0.48329
C7B C 0.2443(1) 0.21086(11) 0.4164(2)
H4B H 0.22712 0.24668 0.40612
C8B C 0.36788(9) 0.15863(11) 0.5316(2)
C9B C 0.38316(12) 0.11142(14) 0.5891(4)
H5B H 0.36140 0.07890 0.59721
C10B C 0.43036(12) 0.11188(14) 0.6349(3)
H6B H 0.43976 0.08020 0.67450
C11B C 0.46366(9) 0.15948(10) 0.6219(2)
C12B C 0.44817(10) 0.20654(11) 0.5680(2)
H7B H 0.46959 0.23952 0.56166
C13B C 0.40087(10) 0.20634(12) 0.5222(3)
H8B H 0.39129 0.23887 0.48458
C14B C 0.51543(8) 0.15971(10) 0.67051(18)
Co1B* Co 0.09392(2) 0.08935(2) 1.22701(2)
Co1B** Co 0.09392(2) 1.08935(2) 0.22701(2)
Co1E Co 0.59392(2) 0.41065(2) -0.27299(2)
Co1G Co 0.59392(2) 0.08935(2) 0.77299(2)
Mg1* Mg 0.09439(3) 0.25000 1.25000
Mg1E Mg 0.59439(3) 0.25000 -0.25000
Mg1E* Mg 0.59439(3) 0.25000 0.75000
O3E O 0.03048(6) 0.38969(7) 0.20443(17)
O3G O 0.03048(6) 0.11031(7) 0.29557(17)
O4E O 0.03862(6) 0.29223(7) 0.17352(11)
O4G O 0.03862(6) 0.20777(7) 0.32648(11)
O5B* O 0.09907(8) 0.00250(8) 0.25149(14)
O7B* O 0.10745(7) 0.09573(6) 0.08169(11)
O8B* O 0.09317(5) 0.18142(6) 0.15012(9)
#END
