
#######################################################################
#
#                 Cambridge Crystallographic Data Centre
#                                CCDC
#
#######################################################################
#
# If this CIF has been generated from an entry in the Cambridge
# Structural Database, then it will include bibliographic, chemical,
# crystal, experimental, refinement or atomic coordinate data resulting
# from the CCDC's data processing and validation procedures.
#
#######################################################################

data_CSD_CIF_DERBIO
_audit_creation_date 2018-02-08
_audit_creation_method CSD-ConQuest-V1
_database_code_CSD DERBIO
_database_code_depnum_ccdc_archive 'CCDC 1584072'
_chemical_formula_sum 'C79 H99 Co3 N7 O25'
_chemical_formula_moiety
;
(C56 H32 Co3 O16 2-)n,2(C2 H8 N1 1+),5(C3 H7 N1 O1),4(C1 H4 O1)
;
_journal_coden_Cambridge 222
_journal_volume 47
_journal_year 2018
_journal_page_first 2810
_journal_name_full 'Dalton Trans. '
loop_
_publ_author_name
"Zhao-Feng Wu"
"Bin Tan"
"Wen Ma"
"Wei-Wei Xiong"
"Zai-Lai Xie"
"Xiao-Ying Huang"
_chemical_name_systematic
;
catena-[bis(dimethylammonium) 
tetrakis(\m-[1,1'-biphenyl]-4,4'-dicarboxylato)-tri-cobalt(ii) 
N,N-dimethylformamide methanol solvate]
;
_cell_volume   8138.739
_exptl_crystal_colour 'blue'
_exptl_crystal_density_diffrn 1.407
_exptl_crystal_description 'block'
_diffrn_ambient_temperature 295
_refine_special_details
;
Disordered cation and solvent molecules were not modelled and the disordered 
density was taken into account using the SQUEEZE/PLATON procedure.
;
#These two values have been output from a single CSD field.
_refine_ls_R_factor_gt 0.0469
_refine_ls_wR_factor_gt 0.0469
_symmetry_cell_setting orthorhombic
_symmetry_space_group_name_H-M 'P n n a'
_symmetry_Int_Tables_number 52
loop_
_symmetry_equiv_pos_site_id
_symmetry_equiv_pos_as_xyz
1 x,y,z
2 1/2-x,-y,z
3 1/2-x,1/2+y,1/2-z
4 x,1/2-y,1/2-z
5 -x,-y,-z
6 -1/2+x,y,-z
7 -1/2+x,-1/2-y,-1/2+z
8 -x,-1/2+y,-1/2+z
_cell_length_a 26.0789(5)
_cell_length_b 22.3894(5)
_cell_length_c 13.9388(3)
_cell_angle_alpha 90
_cell_angle_beta 90
_cell_angle_gamma 90
_cell_formula_units_Z 4
loop_
_atom_type_symbol
_atom_type_radius_bond
C 0.68
H 0.23
Co 1.26
O 0.68
loop_
_atom_site_label
_atom_site_type_symbol
_atom_site_fract_x
_atom_site_fract_y
_atom_site_fract_z
Co1 Co 0.09447(2) 0.40992(2) 0.27329(2)
Co2 Co 0.09461(2) 0.25000 0.25000
O1 O 0.15900(7) 0.38776(8) 0.20613(15)
O2 O 0.15138(7) 0.29048(9) 0.17325(15)
O3 O 0.53163(7) 0.38806(9) -0.20234(17)
O4 O 0.53831(7) 0.29077(9) -0.17186(14)
O5 O 0.10309(10) 0.49693(10) 0.24733(17)
O6 O 0.02997(14) 0.50105(13) 0.3203(3)
O7 O 0.10831(9) 0.40476(8) 0.41953(13)
O8 O 0.09231(7) 0.32061(8) 0.35214(12)
C1 C 0.17389(10) 0.33929(13) 0.17039(19)
C2 C 0.22436(10) 0.34057(13) 0.1183(2)
C3 C 0.24913(11) 0.39389(13) 0.0991(2)
H1 H 0.23447 0.42980 0.11842
C4 C 0.29552(12) 0.39397(14) 0.0515(3)
H2 H 0.31170 0.43014 0.03892
C5 C 0.31832(11) 0.34162(14) 0.0223(2)
C6 C 0.29330(12) 0.28847(15) 0.0413(3)
H3 H 0.30799 0.25266 0.02158
C7 C 0.24704(12) 0.28764(14) 0.0887(3)
H4 H 0.23090 0.25140 0.10103
C8 C 0.36948(11) 0.34169(14) -0.0264(2)
C9 C 0.38627(15) 0.38843(18) -0.0777(4)
H5 H 0.36565 0.42221 -0.08221
C10 C 0.43338(15) 0.38822(18) -0.1244(4)
H6 H 0.44325 0.42128 -0.16034
C11 C 0.46521(10) 0.34022(13) -0.1182(2)
C12 C 0.44914(13) 0.29346(15) -0.0656(3)
H7 H 0.46996 0.25992 -0.06000
C13 C 0.40213(14) 0.29448(17) -0.0195(3)
H8 H 0.39252 0.26174 0.01736
C14 C 0.51614(10) 0.33941(12) -0.1682(2)
C15 C 0.06656(17) 0.52484(16) 0.2788(3)
C16 C 0.06715(15) 0.59296(14) 0.2692(3)
C17 C 0.02444(17) 0.62584(17) 0.2910(4)
H9 H -0.00519 0.60689 0.31229
C18 C 0.02545(16) 0.68712(17) 0.2813(4)
H10 H -0.00424 0.70900 0.29275
C19 C 0.07004(16) 0.71676(14) 0.2547(3)
C20 C 0.11176(18) 0.68341(17) 0.2365(3)
H11 H 0.14224 0.70215 0.21939
C21 C 0.11026(15) 0.62029(16) 0.2429(3)
H12 H 0.13936 0.59796 0.22869
C22 C 0.10297(9) 0.34918(11) 0.42564(17)
C23 C 0.10716(10) 0.31913(11) 0.52105(18)
C24 C 0.11981(15) 0.35115(14) 0.6016(2)
H13 H 0.12678 0.39174 0.59601
C25 C 0.12242(15) 0.32447(13) 0.6906(2)
H14 H 0.13163 0.34713 0.74376
C26 C 0.11147(12) 0.26425(12) 0.70178(18)
C27 C 0.09874(14) 0.23233(13) 0.62024(19)
H15 H 0.09147 0.19180 0.62552
C28 C 0.09654(12) 0.25932(12) 0.53084(18)
H16 H 0.08784 0.23681 0.47717
O5C O 0.10309(10) 1.00307(10) 0.25267(17)
O6C O 0.02997(14) 0.99895(13) 0.1797(3)
C15C C 0.06656(17) 0.97516(16) 0.2212(3)
C16C C 0.06715(15) 0.90704(14) 0.2308(3)
C17C C 0.02444(17) 0.87416(17) 0.2090(4)
H9C H -0.00519 0.89311 0.18771
C18C C 0.02545(16) 0.81288(17) 0.2187(4)
H10C H -0.00424 0.79100 0.20725
C19C C 0.07004(16) 0.78324(14) 0.2453(3)
C20C C 0.11176(18) 0.81659(17) 0.2635(3)
H11C H 0.14224 0.79785 0.28061
C21C C 0.11026(15) 0.87971(16) 0.2571(3)
H12C H 0.13936 0.90204 0.27131
O7C O 0.10831(9) 0.09524(8) 1.08047(13)
O8C O 0.09231(7) 0.17939(8) 1.14786(12)
C22C C 0.10297(9) 0.15082(11) 1.07436(17)
C23C C 0.10716(10) 0.18087(11) 0.97895(18)
C24C C 0.11981(15) 0.14885(14) 0.8984(2)
H13C H 0.12678 0.10826 0.90399
C25C C 0.12242(15) 0.17553(13) 0.8094(2)
H14C H 0.13163 0.15287 0.75624
C26C C 0.11147(12) 0.23575(12) 0.79822(18)
C27C C 0.09874(14) 0.26767(13) 0.87976(19)
H15C H 0.09147 0.30820 0.87448
C28C C 0.09654(12) 0.24068(12) 0.96916(18)
H16C H 0.08784 0.26319 1.02283
Co1C Co 0.09447(2) 0.09008(2) 0.22671(2)
O1C O 0.15900(7) 0.11224(8) 0.29387(15)
O2C O 0.15138(7) 0.20952(9) 0.32675(15)
O3C O 0.53163(7) 0.11194(9) 0.70234(17)
O4C O 0.53831(7) 0.20923(9) 0.67186(14)
C1C C 0.17389(10) 0.16071(13) 0.32961(19)
C2C C 0.22436(10) 0.15943(13) 0.3817(2)
C3C C 0.24913(11) 0.10611(13) 0.4009(2)
H1C H 0.23447 0.07020 0.38157
C4C C 0.29552(12) 0.10603(14) 0.4485(3)
H2C H 0.31170 0.06986 0.46108
C5C C 0.31832(11) 0.15838(14) 0.4777(2)
C6C C 0.29330(12) 0.21153(15) 0.4587(3)
H3C H 0.30799 0.24734 0.47842
C7C C 0.24704(12) 0.21236(14) 0.4113(3)
H4C H 0.23090 0.24860 0.39897
C8C C 0.36948(11) 0.15831(14) 0.5264(2)
C9C C 0.38627(15) 0.11157(18) 0.5777(4)
H5C H 0.36565 0.07779 0.58221
C10C C 0.43338(15) 0.11178(18) 0.6244(4)
H6C H 0.44325 0.07872 0.66034
C11C C 0.46521(10) 0.15978(13) 0.6182(2)
C12C C 0.44914(13) 0.20654(15) 0.5656(3)
H7C H 0.46996 0.24008 0.56000
C13C C 0.40213(14) 0.20552(17) 0.5195(3)
H8C H 0.39252 0.23826 0.48264
C14C C 0.51614(10) 0.16059(12) 0.6682(2)
Co1C* Co 0.09447(2) 0.09008(2) 1.22671(2)
Co1C** Co 0.09447(2) 1.09008(2) 0.22671(2)
Co1E Co 0.59447(2) 0.40992(2) -0.27329(2)
Co1F Co 0.59447(2) 0.09008(2) 0.77329(2)
Co2* Co 0.09461(2) 0.25000 1.25000
Co2E Co 0.59461(2) 0.25000 -0.25000
Co2E* Co 0.59461(2) 0.25000 0.75000
O3E O 0.03163(7) 0.38806(9) 0.20234(17)
O3F O 0.03163(7) 0.11194(9) 0.29766(17)
O4E O 0.03831(7) 0.29077(9) 0.17186(14)
O4F O 0.03831(7) 0.20923(9) 0.32814(14)
O5C* O 0.10309(10) 0.00307(10) 0.25267(17)
O7C* O 0.10831(9) 0.09524(8) 0.08047(13)
O8C* O 0.09231(7) 0.17939(8) 0.14786(12)
#END
