
#######################################################################
#
#                 Cambridge Crystallographic Data Centre
#                                CCDC
#
#######################################################################
#
# If this CIF has been generated from an entry in the Cambridge
# Structural Database, then it will include bibliographic, chemical,
# crystal, experimental, refinement or atomic coordinate data resulting
# from the CCDC's data processing and validation procedures.
#
#######################################################################

data_CSD_CIF_DEWNOL
_audit_creation_date 2018-02-11
_audit_creation_method CSD-ConQuest-V1
_database_code_CSD DEWNOL
_database_code_depnum_ccdc_archive 'CCDC 1586553'
_chemical_formula_sum 'C17 H21 N2 O12 Sc1'
_chemical_formula_moiety
;
(C13 H5 O12 Sc1 2-)n,2(C2 H8 N1 1+)
;
_journal_coden_Cambridge 580
_journal_volume 144
_journal_year 2018
_journal_page_first 219
_journal_name_full 'Polyhedron '
loop_
_publ_author_name
"M.O.Barsukova"
"D.G.Samsonenko"
"A.A.Sapianik"
"S.A.Sapchenko"
"V.P.Fedin"
_chemical_name_systematic
;
catena-(dimethylammonium 
(\m-formato)-bis(\m-furan-2,5-dicarboxylato)-scandium)
;
_cell_volume   2156.380
_exptl_crystal_colour 'colorless'
_exptl_crystal_density_diffrn 1.51
_exptl_crystal_description 'plate'
_diffrn_ambient_temperature 130
#These two values have been output from a single CSD field.
_refine_ls_R_factor_gt 0.0343
_refine_ls_wR_factor_gt 0.0343
_symmetry_cell_setting monoclinic
_symmetry_space_group_name_H-M 'C 2/c'
_symmetry_Int_Tables_number 15
loop_
_symmetry_equiv_pos_site_id
_symmetry_equiv_pos_as_xyz
1 x,y,z
2 -x,y,1/2-z
3 1/2+x,1/2+y,z
4 1/2-x,1/2+y,1/2-z
5 -x,-y,-z
6 x,-y,-1/2+z
7 -1/2-x,-1/2-y,-z
8 -1/2+x,-1/2-y,-1/2+z
_cell_length_a 18.0920(7)
_cell_length_b 9.6251(4)
_cell_length_c 12.5071(5)
_cell_angle_alpha 90
_cell_angle_beta 98.071(4)
_cell_angle_gamma 90
_cell_formula_units_Z 4
loop_
_atom_type_symbol
_atom_type_radius_bond
C 0.68
H 0.23
N 0.68
O 0.68
Sc 1.70
loop_
_atom_site_label
_atom_site_type_symbol
_atom_site_fract_x
_atom_site_fract_y
_atom_site_fract_z
Sc1 Sc 0.50000 0.00000 0.50000
C1 C 0.60356(9) 0.73972(17) 0.54077(14)
C2 C 0.59422(9) 0.59506(17) 0.49991(13)
C3 C 0.5707(1) 0.53923(19) 0.40142(14)
H1 H 0.55556 0.58837 0.33614
C4 C 0.5732(1) 0.39312(18) 0.41518(14)
H2 H 0.56041 0.32491 0.36082
C5 C 0.59746(9) 0.36980(16) 0.52139(13)
C6 C 0.60693(9) 0.24320(16) 0.58816(14)
O1 O 0.56849(7) 0.83187(11) 0.47938(9)
O2 O 0.64255(8) 0.76043(13) 0.62820(12)
O3 O 0.59184(6) 0.12828(11) 0.53776(9)
O4 O 0.62886(7) 0.25184(12) 0.68631(10)
O5 O 0.61171(7) 0.49285(11) 0.57474(10)
C7 C 0.50000 0.0066(2) 0.75000
H3 H 0.50000 0.10535 0.75000
O6 O 0.50027(7) -0.05249(13) 0.66252(8)
C8 C 0.70496(11) 0.9626(2) 0.85425(15)
H4 H 0.65648 0.95022 0.87948
H5 H 0.73409 0.87680 0.86653
H6 H 0.73202 1.03900 0.89407
C9 C 0.76387(11) 1.0157(2) 0.69253(15)
H7 H 0.75261 1.03703 0.61534
H8 H 0.79182 1.09295 0.72992
H9 H 0.79389 0.93075 0.70238
N1 N 0.69331(8) 0.99527(13) 0.73778(12)
H10 H 0.66528 1.07383 0.72686
H11 H 0.66718 0.92483 0.70157
O6A O 0.49973(7) -0.05249(13) 0.83748(8)
C1* C 0.60356(9) -0.26028(17) 0.54077(14)
C2* C 0.59422(9) -0.40494(17) 0.49991(13)
C3* C 0.5707(1) -0.46077(19) 0.40142(14)
H1* H 0.55556 -0.41163 0.33614
C4* C 0.5732(1) -0.60688(18) 0.41518(14)
H2* H 0.56041 -0.67509 0.36082
C5* C 0.59746(9) -0.63020(16) 0.52139(13)
C6* C 0.60693(9) -0.75680(16) 0.58816(14)
O1* O 0.56849(7) -0.16813(11) 0.47938(9)
O2* O 0.64255(8) -0.23957(13) 0.62820(12)
O3* O 0.59184(6) -0.87172(11) 0.53776(9)
O4* O 0.62886(7) -0.74816(12) 0.68631(10)
O5* O 0.61171(7) -0.50715(11) 0.57474(10)
Sc1* Sc 0.50000 -1.00000 0.50000
Sc1** Sc 0.50000 1.00000 0.50000
Sc1A Sc 0.50000 0.00000 1.00000
O1D O 0.43151(7) 0.16813(11) 0.52062(9)
O3D O 0.40816(6) -0.12828(11) 0.46224(9)
O6D O 0.49973(7) 0.05249(13) 0.33748(8)
#END
