
#######################################################################
#
#                 Cambridge Crystallographic Data Centre
#                                CCDC
#
#######################################################################
#
# If this CIF has been generated from an entry in the Cambridge
# Structural Database, then it will include bibliographic, chemical,
# crystal, experimental, refinement or atomic coordinate data resulting
# from the CCDC's data processing and validation procedures.
#
#######################################################################

data_CSD_CIF_DEWRIH
_audit_creation_date 2007-03-29
_audit_creation_method CSD-ConQuest-V1
_database_code_CSD DEWRIH
_database_code_depnum_ccdc_archive 'CCDC 293288'
_chemical_formula_sum 'C40 H62 Cd5 Mo12 N8 O70 P8'
_chemical_formula_moiety
;
(C20 H38 Cd5 Mo12 N4 O68 P8 4-)n,2n(C10 H10 N2 2+),2n(H2 O1)
;
_journal_coden_Cambridge 155
_journal_volume 360
_journal_year 2007
_journal_page_first 421
_journal_name_full 'Inorg.Chim.Acta '
loop_
_publ_author_name
"Ying Ma"
"Yangguang Li"
"Enbo Wang"
"Ying Lu"
"Xinlong Wang"
"Dongrong Xiao"
"Xinxin Xu"
_chemical_name_systematic
;
catena-[bis(4,4-bipyridinium) bis(\m~2~-4,4'-bipyridinium)-tetrakis(hydrogen 
phosphato)-tetrakis(phosphato)-hexaaqua-hexakis(hydroxo)-penta-cadmium-dodecak
is(dioxo-molybdenum(v)) dihydrate]
;
_cell_volume   2180.636
_exptl_crystal_colour 'orange'
_exptl_crystal_density_diffrn 2.833
_exptl_special_details
;
The abstract indicates four ligated bipyridyl groups whereas the text 
indicates two as shown
;
_exptl_crystal_description 'block'
_diffrn_ambient_temperature 293
#These two values have been output from a single CSD field.
_refine_ls_R_factor_gt 0.0303
_refine_ls_wR_factor_gt 0.0303
_symmetry_cell_setting triclinic
_symmetry_space_group_name_H-M 'P -1'
_symmetry_Int_Tables_number 2
loop_
_symmetry_equiv_pos_site_id
_symmetry_equiv_pos_as_xyz
1 x,y,z
2 -x,-y,-z
_cell_length_a 12.806(3)
_cell_length_b 13.809(3)
_cell_length_c 14.508(3)
_cell_angle_alpha 113.57(3)
_cell_angle_beta 96.71(3)
_cell_angle_gamma 106.21(3)
_cell_formula_units_Z 1
loop_
_atom_type_symbol
_atom_type_radius_bond
C 0.68
H 0.23
Cd 1.69
Mo 1.37
N 0.68
O 0.68
P 1.05
loop_
_atom_site_label
_atom_site_type_symbol
_atom_site_fract_x
_atom_site_fract_y
_atom_site_fract_z
Mo1 Mo 0.05688(3) 0.42496(3) 0.22506(3)
Mo2 Mo -0.15290(3) 0.40609(3) 0.21016(3)
P1 P 0.02902(10) 0.68339(10) 0.35205(10)
P2 P -0.12883(11) -0.01255(10) 0.36648(11)
P3 P 0.28039(11) 0.59716(12) 0.20117(11)
P4 P -0.31725(10) 0.53818(10) 0.15644(10)
O1 O 0.2353(4) 0.6855(4) 0.1805(4)
O2 O -0.4395(3) 0.4871(3) 0.0894(3)
O3 O -0.1622(3) -0.1226(3) 0.2679(3)
O4 O 0.0560(3) 0.7546(3) 0.4713(3)
O5 O 0.0471(3) 0.7546(3) 0.2955(3)
O6 O -0.3873(3) 0.3488(4) 0.4897(3)
O7 O -0.2152(3) 0.0444(3) 0.3657(3)
O8 O 0.3670(4) 0.5809(4) 0.1428(4)
O9 O -0.1303(4) -0.0352(4) 0.4634(3)
O10 O 0.3298(3) 0.6501(3) 0.3187(3)
O11 O -0.2900(3) 0.1915(3) 0.5133(3)
O12 O -0.2526(3) 0.6336(3) 0.1363(4)
O13 O -0.0947(3) 0.5981(3) 0.3135(3)
O14 O -0.3152(3) 0.1647(3) 0.3002(3)
O15 O 0.3376(3) 0.4169(3) 0.5410(3)
O16 O 0.1437(3) 0.2179(3) 0.3380(3)
O17 O -0.2209(3) 0.2652(3) 0.1401(3)
O18 O -0.3230(3) 0.5784(3) 0.2713(3)
O19 O -0.0098(3) 0.0655(3) 0.3818(3)
O20 O -0.0470(3) 0.4519(3) 0.1377(3)
O21 O -0.2674(3) 0.4435(3) 0.1290(3)
O22 O 0.1784(3) 0.4878(3) 0.1610(3)
O23 O 0.1080(3) 0.6141(3) 0.3311(3)
O24 O 0.1946(3) 0.4743(3) 0.3493(3)
O25 O 0.0422(3) 0.2890(3) 0.1582(3)
O26 O -0.2487(3) 0.4321(3) 0.3199(3)
O27 O 0.1086(3) 0.3966(3) 0.4928(3)
O28 O -0.0790(3) 0.2177(3) 0.3391(3)
O29 O -0.0380(3) 0.4172(3) 0.3210(3)
O30 O 0.1647(3) 0.2358(3) 0.5465(3)
O31 O -0.1657(3) 0.3682(3) 0.4689(3)
O32 O -0.0453(4) -0.3953(4) 0.0590(3)
O33 O -0.3958(4) 0.7826(4) 0.2440(4)
O34 O -0.6092(4) 0.7458(4) 0.0571(4)
O35 O 0.5674(6) 0.7644(7) 0.4156(6)
Cd1 Cd 0.00000 0.50000 0.50000
C1 C 0.3068(5) 0.2748(5) 0.0349(5)
H1 H 0.31390 0.35050 0.06310
C2 C 0.2402(5) 0.2058(5) 0.0692(5)
H2 H 0.20370 0.23490 0.11970
C3 C 0.2283(5) 0.0917(5) 0.0272(5)
C4 C 0.2794(5) 0.0520(5) -0.0518(5)
H3 H 0.26970 -0.02430 -0.08510
C5 C 0.3453(5) 0.1281(5) -0.0804(5)
H4 H 0.37970 0.10010 -0.13300
C6 C 0.1039(5) -0.1561(5) 0.0818(5)
H5 H 0.11380 -0.22380 0.07070
C7 C 0.1729(5) -0.0854(5) 0.0507(5)
H6 H 0.22890 -0.10480 0.02050
C8 C 0.1580(4) 0.0152(4) 0.0649(4)
C9 C 0.0759(5) 0.0411(5) 0.1130(4)
H7 H 0.06350 0.10770 0.12410
Cd2 Cd -0.08480(3) -0.24656(3) 0.18480(3)
Cd3 Cd -0.48805(3) 0.63929(3) 0.08284(3)
C10 C 0.0117(5) -0.0335(5) 0.1446(5)
H8 H -0.04150 -0.01390 0.17940
C11 C -0.5751(7) -0.0538(7) 0.3502(7)
H9 H -0.52870 -0.09370 0.35470
C12 C -0.5459(6) 0.0245(6) 0.3102(7)
H10 H -0.48140 0.03530 0.28640
C13 C -0.6147(5) 0.0854(6) 0.3069(5)
C14 C -0.7156(6) 0.0593(6) 0.3356(6)
H11 H -0.76560 0.09550 0.33010
C15 C -0.7402(6) -0.0201(6) 0.3721(6)
H12 H -0.80770 -0.03850 0.39030
C16 C -0.4831(5) 0.2706(7) 0.1879(6)
H13 H -0.44310 0.26930 0.13810
C17 C -0.5214(5) 0.1749(6) 0.2029(5)
H14 H -0.50770 0.10970 0.16420
C18 C -0.5812(5) 0.1802(5) 0.2780(5)
C19 C -0.6022(6) 0.2772(6) 0.3324(5)
H15 H -0.64380 0.28050 0.38130
C20 C -0.5607(6) 0.3701(6) 0.3137(7)
H16 H -0.57360 0.43640 0.35050
N1 N 0.3626(4) 0.2367(4) -0.0385(4)
N2 N 0.0233(4) -0.1317(4) 0.1272(4)
N3 N -0.6680(6) -0.0706(5) 0.3813(5)
N4 N -0.5023(5) 0.3634(6) 0.2427(7)
Mo3 Mo -0.26918(3) 0.34951(4) 0.55473(3)
Mo4 Mo -0.21433(3) 0.20238(3) 0.40624(3)
Mo5 Mo 0.07093(3) 0.23276(3) 0.42877(3)
Mo6 Mo 0.22675(3) 0.39764(3) 0.59198(3)
Mo1A Mo -0.05688(3) 0.57504(3) 0.77494(3)
Mo2A Mo 0.15290(3) 0.59391(3) 0.78984(3)
P1A P -0.02902(10) 0.31661(10) 0.64795(10)
P2A P 0.12883(11) 1.01255(10) 0.63352(11)
P3A P -0.28039(11) 0.40284(12) 0.79883(11)
P4A P 0.31725(10) 0.46182(10) 0.84356(10)
O1A O -0.2353(4) 0.3145(4) 0.8195(4)
O2A O 0.4395(3) 0.5129(3) 0.9106(3)
O2A* O -0.5605(3) 0.5129(3) -0.0894(3)
O2* O 0.5605(3) 0.4871(3) 1.0894(3)
O3A O 0.1622(3) 1.1226(3) 0.7321(3)
O4A O -0.0560(3) 0.2454(3) 0.5287(3)
O5A O -0.0471(3) 0.2454(3) 0.7045(3)
O5* O 0.0471(3) -0.2454(3) 0.2955(3)
O5A* O -0.0471(3) 1.2454(3) 0.7045(3)
O6A O 0.3873(3) 0.6512(4) 0.5103(3)
O7A O 0.2152(3) 0.9556(3) 0.6343(3)
O8A O -0.3670(4) 0.4191(4) 0.8572(4)
O8* O -0.6330(4) 0.5809(4) 0.1428(4)
O8A* O 0.6330(4) 0.4191(4) 0.8572(4)
O9A O 0.1303(4) 1.0352(4) 0.5366(3)
O10A O -0.3298(3) 0.3499(3) 0.6813(3)
O11A O 0.2900(3) 0.8085(3) 0.4867(3)
O12A O 0.2526(3) 0.3664(3) 0.8637(4)
O12* O -0.2526(3) -0.3664(3) 0.1363(4)
O12A* O 0.2526(3) 1.3664(3) 0.8637(4)
O13A O 0.0947(3) 0.4019(3) 0.6865(3)
O14A O 0.3152(3) 0.8353(3) 0.6998(3)
O15A O -0.3376(3) 0.5831(3) 0.4590(3)
O16A O -0.1437(3) 0.7821(3) 0.6620(3)
O17A O 0.2209(3) 0.7348(3) 0.8599(3)
O18A O 0.3230(3) 0.4216(3) 0.7287(3)
O19A O 0.0098(3) 0.9345(3) 0.6182(3)
O20A O 0.0470(3) 0.5481(3) 0.8623(3)
O21A O 0.2674(3) 0.5565(3) 0.8710(3)
O22A O -0.1784(3) 0.5122(3) 0.8390(3)
O23A O -0.1080(3) 0.3859(3) 0.6689(3)
O24A O -0.1946(3) 0.5257(3) 0.6507(3)
O25A O -0.0422(3) 0.7110(3) 0.8418(3)
O26A O 0.2487(3) 0.5679(3) 0.6801(3)
O27A O -0.1086(3) 0.6034(3) 0.5072(3)
O28A O 0.0790(3) 0.7823(3) 0.6609(3)
O29A O 0.0380(3) 0.5828(3) 0.6790(3)
O30A O -0.1647(3) 0.7642(3) 0.4535(3)
O31A O 0.1657(3) 0.6318(3) 0.5311(3)
O32A O 0.0453(4) 1.3953(4) 0.9410(3)
O33A O 0.3958(4) 0.2174(4) 0.7560(4)
O34A O 0.6092(4) 0.2542(4) 0.9429(4)
C1A C -0.3068(5) 0.7252(5) -0.0349(5)
H1A H -0.31390 0.64950 -0.06310
C2A C -0.2402(5) 0.7942(5) -0.0692(5)
H2A H -0.20370 0.76510 -0.11970
C3A C -0.2283(5) 0.9083(5) -0.0272(5)
C4A C -0.2794(5) 0.9480(5) 0.0518(5)
H3A H -0.26970 1.02430 0.08510
C5A C -0.3453(5) 0.8719(5) 0.0804(5)
H4A H -0.37970 0.89990 0.13300
C6A C -0.1039(5) 1.1561(5) -0.0818(5)
H5A H -0.11380 1.22380 -0.07070
C7A C -0.1729(5) 1.0854(5) -0.0507(5)
H6A H -0.22890 1.10480 -0.02050
C8A C -0.1580(4) 0.9848(4) -0.0649(4)
C9A C -0.0759(5) 0.9589(5) -0.1130(4)
H7A H -0.06350 0.89230 -0.12410
Cd2A Cd 0.08480(3) 1.24656(3) 0.81520(3)
Cd2* Cd -0.08480(3) 0.75344(3) 0.18480(3)
Cd2A* Cd 0.08480(3) 0.24656(3) 0.81520(3)
Cd2A** Cd 0.08480(3) 1.24656(3) -0.18480(3)
Cd3A Cd 0.48805(3) 0.36071(3) 0.91716(3)
Cd3A* Cd -0.51195(3) 0.36071(3) -0.08284(3)
Cd3* Cd 0.51195(3) 0.63929(3) 0.08284(3)
Cd3A** Cd 0.48805(3) 0.36071(3) -0.08284(3)
Cd3A*** Cd -0.51195(3) 0.36071(3) 0.91716(3)
Cd3** Cd 0.51195(3) 0.63929(3) 1.08284(3)
C10A C -0.0117(5) 1.0335(5) -0.1446(5)
H8A H 0.04150 1.01390 -0.17940
N1A N -0.3626(4) 0.7633(4) 0.0385(4)
N1* N 0.3626(4) 0.2367(4) 0.9615(4)
N2A N -0.0233(4) 1.1317(4) -0.1272(4)
N2A* N -0.0233(4) 1.1317(4) 0.8728(4)
Mo3A Mo 0.26918(3) 0.65049(4) 0.44527(3)
Mo4A Mo 0.21433(3) 0.79762(3) 0.59376(3)
Mo5A Mo -0.07093(3) 0.76724(3) 0.57123(3)
Mo6A Mo -0.22675(3) 0.60236(3) 0.40802(3)
#END
