
#######################################################################
#
#                 Cambridge Crystallographic Data Centre
#                                CCDC
#
#######################################################################
#
# If this CIF has been generated from an entry in the Cambridge
# Structural Database, then it will include bibliographic, chemical,
# crystal, experimental, refinement or atomic coordinate data resulting
# from the CCDC's data processing and validation procedures.
#
#######################################################################

data_CSD_CIF_DEXXOU
_audit_creation_date 2007-03-29
_audit_creation_method CSD-ConQuest-V1
_database_code_CSD DEXXOU
_database_code_depnum_ccdc_archive 'CCDC 636136'
_chemical_formula_sum 'C8 H12 K2 Nd2 O22'
_chemical_formula_moiety
;
(K1 1+)2n,n(C8 H4 Nd2 O18 2-),4n(H2 O1)
;
_journal_coeditor_code "IUCr BI2114"
_journal_coden_Cambridge 1370
_journal_volume 63
_journal_year 2007
_journal_page_first m312
_journal_name_full 'Acta Crystallogr.,Sect.E:Struct.Rep.Online '
loop_
_publ_author_name
"Ying-Hong Liu"
"Su-Zhi Li"
_chemical_name_systematic
;
catena-(Dipotassium tetrakis(\m~2~-oxalato)-bis(aqua-neodymium(iii)) 
tetrahydrate)
;
_cell_volume   2208.645
_exptl_crystal_colour 'pink'
_exptl_crystal_density_diffrn 2.487
_exptl_crystal_description 'block'
_diffrn_ambient_temperature 293
#These two values have been output from a single CSD field.
_refine_ls_R_factor_gt 0.0537
_refine_ls_wR_factor_gt 0.0537
_symmetry_cell_setting monoclinic
_symmetry_space_group_name_H-M 'C 2/c'
_symmetry_Int_Tables_number 15
loop_
_symmetry_equiv_pos_site_id
_symmetry_equiv_pos_as_xyz
1 x,y,z
2 1/2+x,1/2+y,z
3 -x,y,1/2-z
4 1/2-x,1/2+y,1/2-z
5 -x,-y,-z
6 -1/2-x,-1/2-y,-z
7 x,-y,-1/2+z
8 -1/2+x,-1/2-y,-1/2+z
_cell_length_a 23.085(5)
_cell_length_b 7.4913(15)
_cell_length_c 12.941(3)
_cell_angle_alpha 90
_cell_angle_beta 99.286(3)
_cell_angle_gamma 90
_cell_formula_units_Z 4
loop_
_atom_type_symbol
_atom_type_radius_bond
C 0.68
H 0.23
K 1.33
Nd 1.81
O 0.68
loop_
_atom_site_label
_atom_site_type_symbol
_atom_site_fract_x
_atom_site_fract_y
_atom_site_fract_z
K1 K 0.58112(15) 0.0002(5) 0.8731(3)
Nd1 Nd 0.63733(2) 0.50022(9) 0.51386(4)
O1 O 0.6605(4) 0.3393(13) 0.3570(6)
O2 O 0.6703(4) 0.3587(14) 0.1886(6)
O3 O 0.5968(4) 0.6377(11) 0.3388(6)
O4 O 0.5991(3) 0.6413(10) 0.1656(6)
O5 O 0.5450(3) 0.3412(10) 0.4542(5)
O6 O 0.4498(3) 0.3272(10) 0.4646(6)
O7 O 0.7464(4) 0.5266(11) 0.5259(8)
O8 O 0.8239(3) 0.6983(10) 0.5122(6)
C1 C 0.6510(5) 0.4117(18) 0.2694(8)
C2 C 0.6122(5) 0.5800(14) 0.2579(8)
C3 C 0.4985(5) 0.4023(14) 0.4762(7)
C4 C 0.7703(4) 0.6689(15) 0.5105(8)
O9 O 0.6766(4) 0.2032(11) 0.5566(7)
H1 H 0.68140 0.14330 0.61320
H2 H 0.69310 0.14990 0.51120
O10 O 0.6910(5) 0.0106(15) 0.7359(8)
H3 H 0.68460 -0.09920 0.72210
H4 H 0.70770 0.01560 0.79940
O11 O 0.5418(4) 0.0093(14) 0.6535(8)
H5 H 0.55480 -0.08010 0.62390
H6 H 0.55330 0.10420 0.62710
Nd1F Nd 0.63733(2) 0.49978(9) 1.01386(4)
Nd1F* Nd 0.63733(2) 0.49978(9) 0.01386(4)
Nd1D Nd 0.36267(2) 0.49978(9) 0.48614(4)
Nd1E Nd 0.86267(2) 0.99978(9) 0.48614(4)
O1F O 0.6605(4) 0.6607(13) 0.8570(6)
O2F O 0.6703(4) 0.6413(14) 0.6886(6)
O2* O 0.6703(4) 0.3587(14) 1.1886(6)
O3F O 0.5968(4) 0.3623(11) 0.8388(6)
O4F O 0.5991(3) 0.3587(10) 0.6656(6)
O4* O 0.5991(3) 0.6413(10) 1.1656(6)
O5D O 0.4550(3) 0.6588(10) 0.5458(5)
O5F O 0.5450(3) 0.6588(10) 0.9542(5)
O6D O 0.5502(3) 0.6728(10) 0.5354(6)
O6B O 0.5502(3) 0.3272(10) 1.0354(6)
O7E O 0.7536(4) 0.9734(11) 0.4741(8)
O7F O 0.7464(4) 0.4734(11) 1.0259(8)
O8E O 0.6761(3) 0.8017(10) 0.4878(6)
O8C O 0.6761(3) 0.1983(10) 0.9878(6)
C1F C 0.6510(5) 0.5883(18) 0.7694(8)
C2F C 0.6122(5) 0.4200(14) 0.7579(8)
C3D C 0.5015(5) 0.5977(14) 0.5238(7)
C4E C 0.7297(4) 0.8311(15) 0.4895(8)
O9F O 0.6766(4) 0.7968(11) 1.0566(7)
H1F H 0.68140 0.85670 1.11320
H2F H 0.69310 0.85010 1.01120
#END
