
#######################################################################
#
#                 Cambridge Crystallographic Data Centre
#                                CCDC
#
#######################################################################
#
# If this CIF has been generated from an entry in the Cambridge
# Structural Database, then it will include bibliographic, chemical,
# crystal, experimental, refinement or atomic coordinate data resulting
# from the CCDC's data processing and validation procedures.
#
#######################################################################

data_CSD_CIF_DEYHOF
_audit_creation_date 2007-06-28
_audit_creation_method CSD-ConQuest-V1
_database_code_CSD DEYHOF
_database_code_depnum_ccdc_archive 'CCDC 606120'
_chemical_formula_sum 'C40 H78 Cu2 N8 O62 Si1 W12'
_chemical_formula_moiety
;
(C40 H36 Cu2 N8 O2 2+)n,n(H2 O40 Si1 W12 2-),20n(H2 O1)
;
_journal_coden_Cambridge 119
_journal_volume 837
_journal_year 2007
_journal_page_first 224
_journal_name_full 'J.Mol.Struct. '
loop_
_publ_author_name
"Fan-Xia Meng"
"Ya-Guang Chen"
"Hong-Bo Liu"
"Hain-Jun Pang"
"Dong-Mei Shi"
"Yu Sun"
_chemical_name_systematic
;
catena-(tetrakis(\m~2~-2,2'-Bipyridine)-diaqua-di-copper(i) 
(\m~12~-silicato)-bis(\m~2~-hydroxo)-docosakis(\m~2~-oxo)-dodecaoxo-dodeca-tun
gsten icosahydrate)
;
_cell_volume   8859.916
_exptl_crystal_colour 'purple'
_exptl_crystal_density_diffrn 3.044
_exptl_crystal_description 'block'
_diffrn_ambient_temperature 293
_refine_special_details
;
The central silicate ligand is disordered over two sites.

;
#These two values have been output from a single CSD field.
_refine_ls_R_factor_gt 0.0362
_refine_ls_wR_factor_gt 0.0362
_symmetry_cell_setting orthorhombic
_symmetry_space_group_name_H-M 'C c c m'
_symmetry_Int_Tables_number 66
loop_
_symmetry_equiv_pos_site_id
_symmetry_equiv_pos_as_xyz
1 x,y,z
2 1/2+x,1/2+y,z
3 -x,-y,z
4 -x,y,1/2-z
5 x,-y,1/2-z
6 1/2-x,1/2-y,z
7 1/2-x,1/2+y,1/2-z
8 1/2+x,1/2-y,1/2-z
9 -x,-y,-z
10 -1/2-x,-1/2-y,-z
11 x,y,-z
12 x,-y,-1/2+z
13 -x,y,-1/2+z
14 -1/2+x,-1/2+y,-z
15 -1/2+x,-1/2-y,-1/2+z
16 -1/2-x,-1/2+y,-1/2+z
_cell_length_a 17.9182(8)
_cell_length_b 22.1945(8)
_cell_length_c 22.2787(10)
_cell_angle_alpha 90
_cell_angle_beta 90
_cell_angle_gamma 90
_cell_formula_units_Z 4
loop_
_atom_type_symbol
_atom_type_radius_bond
C 0.68
H 0.23
Cu 1.52
N 0.68
O 0.68
Si 1.20
W 1.37
loop_
_atom_site_label
_atom_site_type_symbol
_atom_site_fract_x
_atom_site_fract_y
_atom_site_fract_z
Si1 Si 0.25000 0.25000 0.50000
W1 W 0.10228(3) 0.319420(17) 0.578821(17)
W2 W 0.25000 0.25000 0.65799(2)
W3 W 0.28141(2) 0.385747(18) 0.579168(17)
W4 W 0.42883(4) 0.31635(3) 0.50000
O1 O 0.2704(6) 0.4156(9) 0.50000
O2 O 0.0313(4) 0.3520(3) 0.6159(3)
O3 O 0.2948(5) 0.4493(3) 0.6179(4)
O4 O 0.5134(5) 0.3466(4) 0.50000
O5 O 0.25000 0.25000 0.7335(5)
O6 O 0.2864(4) 0.3288(3) 0.6425(5)
O7 O 0.0590(9) 0.2446(4) 0.5588(4)
O8 O 0.3792(5) 0.3618(6) 0.5587(4)
O9 O 0.1537(4) 0.2794(3) 0.6416(5)
O10 O 0.2661(7) 0.2146(5) 0.5591(5)
O11 O 0.341(1) 0.2351(7) 0.50000
O12 O 0.0815(12) 0.3458(6) 0.50000
O13 O 0.1762(4) 0.3796(4) 0.5826(4)
O14 O 0.2891(9) 0.3147(7) 0.50000
O15 O 0.2371(6) 0.0975(5) 0.2337(5)
O16 O 0.1616(6) 0.50000 0.25000
O17 O 0.1379(5) 0.00000 0.25000
O18 O 0.6208(9) 0.1710(12) 0.566(1)
O19 O 0.6233(14) 0.2961(14) 0.5963(14)
O20 O 0.2462(13) 0.1264(13) 0.1103(14)
O21 O 0.2427(14) 0.055(1) 0.00000
Cu1 Cu 0.00000 0.00000 0.25000
Cu2 Cu 0.00000 0.50000 0.25000
N1 N 0.00000 0.00000 0.1585(4)
N2 N 0.00000 0.0907(4) 0.25000
N3 N 0.00000 0.4095(4) 0.25000
N4 N 0.00000 0.50000 0.3412(5)
C1 C 0.0528(5) 0.0278(4) 0.1276(4)
H1 H 0.09040 0.04730 0.14880
C2 C 0.0454(5) 0.1230(4) 0.2862(4)
H2 H 0.07720 0.10230 0.31200
C3 C 0.0472(6) 0.1842(4) 0.2868(4)
H3 H 0.08030 0.20400 0.31220
C4 C 0.0552(6) 0.0293(5) 0.0658(4)
H4 H 0.09340 0.04980 0.04630
C5 C 0.00000 0.00000 0.0325(5)
C6 C 0.00000 0.2175(5) 0.25000
C7 C 0.0625(8) 0.4942(6) 0.3725(5)
H5 H 0.10670 0.48930 0.35120
C8 C 0.0669(7) 0.4949(6) 0.4337(5)
H6 H 0.11280 0.49210 0.45300
C9 C 0.0611(7) 0.3779(4) 0.2377(5)
H7 H 0.10460 0.39900 0.22900
C10 C 0.0640(6) 0.3156(4) 0.2372(4)
H8 H 0.10840 0.29580 0.22830
C11 C 0.00000 0.50000 0.4668(5)
C12 C 0.00000 0.2830(5) 0.25000
W1E W 0.39772(3) 0.180580(17) 0.578821(17)
W1I W 0.39772(3) 0.180580(17) 0.421179(17)
W1J W 0.10228(3) 0.319420(17) 0.421179(17)
W2J W 0.25000 0.25000 0.34201(2)
W3E W 0.21859(2) 0.114253(18) 0.579168(17)
W3I W 0.21859(2) 0.114253(18) 0.420832(17)
W3J W 0.28141(2) 0.385747(18) 0.420832(17)
W4I W 0.07117(4) 0.18365(3) 0.50000
O1I O 0.2296(6) 0.0844(9) 0.50000
O2E O 0.4687(4) 0.1480(3) 0.6159(3)
O2I O 0.4687(4) 0.1480(3) 0.3841(3)
O2J O 0.0313(4) 0.3520(3) 0.3841(3)
O3E O 0.2052(5) 0.0507(3) 0.6179(4)
O3I O 0.2052(5) 0.0507(3) 0.3821(4)
O3J O 0.2948(5) 0.4493(3) 0.3821(4)
O4I O -0.0134(5) 0.1534(4) 0.50000
O5J O 0.25000 0.25000 0.2665(5)
O6E O 0.2136(4) 0.1712(3) 0.6425(5)
O6J O 0.2864(4) 0.3288(3) 0.3575(5)
O6I O 0.2136(4) 0.1712(3) 0.3575(5)
O7I O 0.4410(9) 0.2554(4) 0.4412(4)
O7E O 0.4410(9) 0.2554(4) 0.5588(4)
O7J O 0.0590(9) 0.2446(4) 0.4412(4)
O8J O 0.3792(5) 0.3618(6) 0.4413(4)
O8I O 0.1208(5) 0.1382(6) 0.4413(4)
O8E O 0.1208(5) 0.1382(6) 0.5587(4)
O9E O 0.3463(4) 0.2206(3) 0.6416(5)
O9J O 0.1537(4) 0.2794(3) 0.3584(5)
O9I O 0.3463(4) 0.2206(3) 0.3584(5)
O10E O 0.2339(7) 0.2854(5) 0.5591(5)
O10J O 0.2661(7) 0.2146(5) 0.4409(5)
O10I O 0.2339(7) 0.2854(5) 0.4409(5)
O11I O 0.159(1) 0.2649(7) 0.50000
O12I O 0.4185(12) 0.1542(6) 0.50000
O13E O 0.3238(4) 0.1204(4) 0.5826(4)
O13I O 0.3238(4) 0.1204(4) 0.4174(4)
O13J O 0.1762(4) 0.3796(4) 0.4174(4)
O14I O 0.2109(9) 0.1853(7) 0.50000
O17B O -0.1379(5) 0.00000 0.25000
Cu1J Cu 0.00000 0.00000 -0.25000
Cu2J Cu 0.00000 0.50000 0.75000
Cu2* Cu 0.00000 -0.50000 0.25000
N1J N 0.00000 0.00000 -0.1585(4)
N1C N 0.00000 0.00000 0.3415(4)
N2B N 0.00000 -0.0907(4) 0.25000
N3B N 0.00000 -0.4095(4) 0.25000
N3B* N 0.00000 0.5905(4) 0.25000
N4J N 0.00000 0.50000 0.6588(5)
N4C N 0.00000 0.50000 0.1588(5)
C1B C -0.0528(5) -0.0278(4) 0.1276(4)
C1J C 0.0528(5) 0.0278(4) -0.1276(4)
C1H C -0.0528(5) -0.0278(4) -0.1276(4)
H1B H -0.09040 -0.04730 0.14880
H1H H -0.09040 -0.04730 -0.14880
H1J H 0.09040 0.04730 -0.14880
C2C C -0.0454(5) 0.1230(4) 0.2138(4)
C2B C -0.0454(5) -0.1230(4) 0.2862(4)
C2D C 0.0454(5) -0.1230(4) 0.2138(4)
H2C H -0.07720 0.10230 0.18800
H2B H -0.07720 -0.10230 0.31200
H2D H 0.07720 -0.10230 0.18800
C3C C -0.0472(6) 0.1842(4) 0.2132(4)
C3B C -0.0472(6) -0.1842(4) 0.2868(4)
C3D C 0.0472(6) -0.1842(4) 0.2132(4)
H3C H -0.08030 0.20400 0.18780
H3B H -0.08030 -0.20400 0.31220
H3D H 0.08030 -0.20400 0.18780
C4B C -0.0552(6) -0.0293(5) 0.0658(4)
C4J C 0.0552(6) 0.0293(5) -0.0658(4)
C4H C -0.0552(6) -0.0293(5) -0.0658(4)
H4B H -0.09340 -0.04980 0.04630
H4H H -0.09340 -0.04980 -0.04630
H4J H 0.09340 0.04980 -0.04630
C5J C 0.00000 0.00000 -0.0325(5)
C6B C 0.00000 -0.2175(5) 0.25000
C7B C -0.0625(8) 0.5058(6) 0.3725(5)
C7J C 0.0625(8) 0.4942(6) 0.6275(5)
C7H C -0.0625(8) 0.5058(6) 0.6275(5)
H5B H -0.10670 0.51070 0.35120
H5H H -0.10670 0.51070 0.64880
H5J H 0.10670 0.48930 0.64880
C8B C -0.0669(7) 0.5051(6) 0.4337(5)
C8J C 0.0669(7) 0.4949(6) 0.5663(5)
C8H C -0.0669(7) 0.5051(6) 0.5663(5)
H6B H -0.11280 0.50790 0.45300
H6H H -0.11280 0.50790 0.54700
H6J H 0.11280 0.49210 0.54700
C9C C -0.0611(7) 0.3779(4) 0.2623(5)
C9B C -0.0611(7) -0.3779(4) 0.2377(5)
C9D C 0.0611(7) -0.3779(4) 0.2623(5)
H7C H -0.10460 0.39900 0.27100
H7B H -0.10460 -0.39900 0.22900
H7D H 0.10460 -0.39900 0.27100
C10C C -0.0640(6) 0.3156(4) 0.2628(4)
C10B C -0.0640(6) -0.3156(4) 0.2372(4)
C10D C 0.0640(6) -0.3156(4) 0.2628(4)
H8C H -0.10840 0.29580 0.27170
H8B H -0.10840 -0.29580 0.22830
H8D H 0.10840 -0.29580 0.27170
C11J C 0.00000 0.50000 0.5332(5)
C12B C 0.00000 -0.2830(5) 0.25000
#END
