
#######################################################################
#
#                 Cambridge Crystallographic Data Centre
#                                CCDC
#
#######################################################################
#
# If this CIF has been generated from an entry in the Cambridge
# Structural Database, then it will include bibliographic, chemical,
# crystal, experimental, refinement or atomic coordinate data resulting
# from the CCDC's data processing and validation procedures.
#
#######################################################################

data_CSD_CIF_DEYHUL
_audit_creation_date 2007-06-28
_audit_creation_method CSD-ConQuest-V1
_database_code_CSD DEYHUL
_database_code_depnum_ccdc_archive 'CCDC 607767'
_chemical_formula_sum 'C60 H66 Cu2 N12 O48 Si1 W12'
_chemical_formula_moiety
;
(C40 H40 Cu2 N8 O4 2+)n,n(O40 Si1 W12 4-),n(C10 H10 N2 2+),n(C10 H8 N2),4n(H2 
O1)
;
_journal_coden_Cambridge 119
_journal_volume 837
_journal_year 2007
_journal_page_first 224
_journal_name_full 'J.Mol.Struct. '
loop_
_publ_author_name
"Fan-Xia Meng"
"Ya-Guang Chen"
"Hong-Bo Liu"
"Hain-Jun Pang"
"Dong-Mei Shi"
"Yu Sun"
_chemical_name_systematic
;
catena-(tetrakis(\m~2~-4,4'-Bipyridine)-tetraaqua-di-copper(i) 
(\m~12~-silicato)-tetracosakis(\m~2~-oxo)-dodecaoxo-dodeca-tungsten 
4,4'-bipyridinium 4,4'-bipyridine solvate tetrahydrate)
;
_cell_volume   8595.557
_exptl_crystal_colour 'blue'
_exptl_crystal_density_diffrn 3.142
_exptl_crystal_description 'block'
_diffrn_ambient_temperature 293
#These two values have been output from a single CSD field.
_refine_ls_R_factor_gt 0.0457
_refine_ls_wR_factor_gt 0.0457
_symmetry_cell_setting orthorhombic
_symmetry_space_group_name_H-M 'C m c 21'
_symmetry_Int_Tables_number 36
loop_
_symmetry_equiv_pos_site_id
_symmetry_equiv_pos_as_xyz
1 x,y,z
2 -x,-y,1/2+z
3 x,-y,1/2+z
4 -x,y,z
5 1/2+x,1/2+y,z
6 1/2-x,1/2-y,1/2+z
7 1/2+x,1/2-y,1/2+z
8 1/2-x,1/2+y,z
_cell_length_a 22.768(5)
_cell_length_b 22.145(4)
_cell_length_c 17.048(3)
_cell_angle_alpha 90
_cell_angle_beta 90
_cell_angle_gamma 90
_cell_formula_units_Z 4
loop_
_atom_type_symbol
_atom_type_radius_bond
C 0.68
H 0.23
Cu 1.52
N 0.68
O 0.68
Si 1.20
W 1.37
loop_
_atom_site_label
_atom_site_type_symbol
_atom_site_fract_x
_atom_site_fract_y
_atom_site_fract_z
Si1 Si 0.50000 0.7524(3) 0.9656(6)
Cu1 Cu -0.74983(12) 0.51899(5) 0.7106(2)
W1 W 0.57956(3) 0.69955(3) 0.79852(5)
W2 W 0.57400(3) 0.80332(3) 1.13262(5)
W3 W 0.50000 0.84334(4) 0.79272(8)
W4 W 0.65300(2) 0.74979(3) 0.95908(7)
W5 W 0.57971(3) 0.61611(3) 0.96592(5)
W6 W 0.50000 0.67069(4) 1.13866(8)
W7 W 0.57388(3) 0.89352(3) 0.95154(5)
O1 O 0.6295(5) 0.8307(4) 0.9379(8)
O2 O 0.6175(6) 0.8336(6) 1.200(1)
O3 O 0.6273(5) 0.7654(5) 1.0631(8)
O4 O 0.5702(5) 0.8653(4) 1.0571(8)
O5 O 0.5561(5) 0.6410(5) 1.0691(7)
O6 O 0.5919(5) 0.6264(5) 0.8544(8)
O7 O 0.6496(5) 0.7307(5) 0.8506(8)
O8 O 0.6187(5) 0.9546(4) 0.9585(11)
O9 O 0.5574(5) 0.7246(5) 1.1787(7)
O10 O 0.50000 0.8280(7) 1.1765(11)
O11 O 0.50000 0.6004(6) 0.9466(13)
O12 O 0.50000 0.6212(7) 1.2137(15)
O13 O 0.5569(6) 0.7805(5) 0.7858(8)
O14 O 0.50000 0.9372(6) 0.9668(13)
O15 O 0.6099(6) 0.5478(5) 0.9789(10)
O16 O 0.5583(4) 0.7191(4) 0.9342(7)
O17 O 0.50000 0.6788(7) 0.7910(15)
O18 O 0.7269(4) 0.7573(5) 0.9682(11)
O19 O 0.50000 0.8741(7) 0.7031(12)
O20 O 0.50000 0.7563(5) 1.0588(9)
O21 O 0.6094(7) 0.6787(6) 0.7112(10)
O22 O 0.6495(5) 0.6657(4) 0.9838(9)
O23 O 0.5588(5) 0.8952(4) 0.8404(7)
O24 O 0.50000 0.8227(5) 0.9271(8)
O25 O -0.7490(5) 0.5078(5) 0.8534(10)
O26 O -0.7516(5) 0.5111(6) 0.564(1)
O27 O 0.2541(5) 0.4077(4) 0.4736(9)
O28 O 0.7586(7) 0.5980(6) 0.4426(12)
N1 N -0.7490(8) 0.4284(4) 0.7092(12)
N2 N -0.8423(5) 0.5196(5) 0.7152(10)
N3 N -0.6563(7) 0.5195(5) 0.7127(13)
N4 N -0.7499(8) 0.1095(4) 0.7114(14)
C1 C -0.7866(7) 0.3962(7) 0.7530(13)
H1 H -0.81360 0.41790 0.78280
C2 C -0.7476(11) 0.3023(5) 0.7102(16)
C3 C -0.7893(8) 0.3335(6) 0.7583(12)
H2 H -0.81590 0.31350 0.79040
C4 C -0.7092(8) 0.3348(6) 0.6686(13)
H3 H -0.68190 0.31450 0.63770
C5 C -0.7082(8) 0.3965(6) 0.6695(13)
H4 H -0.67890 0.41690 0.64220
C6 C -0.6246(9) 0.5099(11) 0.7768(17)
H5 H -0.64410 0.50700 0.82450
C7 C -0.9368(7) 0.5294(8) 0.7783(15)
H6 H -0.95660 0.53740 0.82490
C8 C -0.5661(8) 0.5312(9) 0.6390(19)
H7 H -0.54750 0.53950 0.59170
C9 C -0.9345(8) 0.5109(8) 0.6530(17)
H8 H -0.95440 0.50590 0.60580
C10 C -0.7494(10) 0.2357(4) 0.7078(14)
C11 C -0.8744(8) 0.5293(8) 0.7791(15)
H9 H -0.85520 0.53640 0.82640
C12 C -0.8748(7) 0.5091(8) 0.6513(12)
H10 H -0.85600 0.50040 0.60430
C13 C -0.5634(7) 0.5038(9) 0.7767(13)
H11 H -0.54350 0.49000 0.82080
C14 C -0.6252(8) 0.5303(8) 0.6441(16)
H12 H -0.64660 0.53730 0.59860
C15 C -0.7462(9) 0.2037(7) 0.7806(15)
H13 H -0.74410 0.22470 0.82770
C16 C -0.5331(7) 0.5192(5) 0.7075(11)
C17 C -0.7524(7) 0.1400(6) 0.6428(12)
H14 H -0.75480 0.11900 0.59570
C18 C -0.9664(7) 0.5193(6) 0.7178(15)
C19 C -0.7463(7) 0.1405(6) 0.7803(16)
H15 H -0.74390 0.11960 0.82740
C20 C -0.7516(8) 0.2030(7) 0.6427(15)
H16 H -0.75270 0.22300 0.59470
N5 N 0.6558(9) 0.6527(12) 0.444(2)
C21 C 0.6254(17) 0.6640(13) 0.499(3)
H17 H 0.64830 0.66740 0.54400
C22 C 0.5621(15) 0.6747(13) 0.5198(18)
H18 H 0.54580 0.68650 0.56740
C23 C 0.5312(11) 0.6610(9) 0.441(2)
C24 C 0.5665(8) 0.6553(12) 0.3835(18)
H19 H 0.54700 0.65360 0.33570
C25 C 0.6262(11) 0.651(2) 0.375(3)
H20 H 0.64470 0.64710 0.32660
C26 C 0.5332(9) 0.8330(8) 0.4707(15)
C27 C 0.5623(14) 0.836(3) 0.545(3)
H21 H 0.54420 0.83150 0.59340
C28 C 0.6264(15) 0.8469(17) 0.532(2)
H22 H 0.64760 0.86150 0.57500
N6 N 0.6537(10) 0.8386(11) 0.471(3)
C29 C 0.6248(15) 0.8282(12) 0.4059(19)
H23 H 0.64350 0.81970 0.35860
C30 C 0.5668(11) 0.8307(13) 0.4127(18)
H24 H 0.54720 0.83090 0.36490
Cu1G Cu -0.75017(12) 0.01899(5) 0.7106(2)
Cu1C Cu -1.25017(12) 0.51899(5) 0.7106(2)
Cu1C* Cu -0.25017(12) 0.51899(5) 0.7106(2)
Cu1D Cu -0.24983(12) 0.01899(5) 0.7106(2)
W1C W 0.42044(3) 0.69955(3) 0.79852(5)
W2C W 0.42600(3) 0.80332(3) 1.13262(5)
W4C W 0.34700(2) 0.74979(3) 0.95908(7)
W5C W 0.42029(3) 0.61611(3) 0.96592(5)
W7C W 0.42612(3) 0.89352(3) 0.95154(5)
O1C O 0.3705(5) 0.8307(4) 0.9379(8)
O2C O 0.3825(6) 0.8336(6) 1.200(1)
O3C O 0.3727(5) 0.7654(5) 1.0631(8)
O4C O 0.4298(5) 0.8653(4) 1.0571(8)
O5C O 0.4439(5) 0.6410(5) 1.0691(7)
O6C O 0.4081(5) 0.6264(5) 0.8544(8)
O7C O 0.3504(5) 0.7307(5) 0.8506(8)
O8C O 0.3813(5) 0.9546(4) 0.9585(11)
O9C O 0.4426(5) 0.7246(5) 1.1787(7)
O13C O 0.4431(6) 0.7805(5) 0.7858(8)
O15C O 0.3901(6) 0.5478(5) 0.9789(10)
O16C O 0.4417(4) 0.7191(4) 0.9342(7)
O18C O 0.2731(4) 0.7573(5) 0.9682(11)
O21C O 0.3906(7) 0.6787(6) 0.7112(10)
O22C O 0.3505(5) 0.6657(4) 0.9838(9)
O23C O 0.4412(5) 0.8952(4) 0.8404(7)
O25C O -0.2510(5) 0.5078(5) 0.8534(10)
O26C O -0.2484(5) 0.5111(6) 0.564(1)
N1C N -0.2510(8) 0.4284(4) 0.7092(12)
N2C N -1.1577(5) 0.5196(5) 0.7152(10)
N2C* N -0.1577(5) 0.5196(5) 0.7152(10)
N3C N -0.3437(7) 0.5195(5) 0.7127(13)
N4G N -0.7501(8) 0.6095(4) 0.7114(14)
N4D N -0.2499(8) 0.6095(4) 0.7114(14)
N4C N -0.2501(8) 0.1095(4) 0.7114(14)
C1C C -0.2134(7) 0.3962(7) 0.7530(13)
H1C H -0.18640 0.41790 0.78280
C2C C -0.2524(11) 0.3023(5) 0.7102(16)
C3C C -0.2107(8) 0.3335(6) 0.7583(12)
H2C H -0.18410 0.31350 0.79040
C4C C -0.2908(8) 0.3348(6) 0.6686(13)
H3C H -0.31810 0.31450 0.63770
C5C C -0.2918(8) 0.3965(6) 0.6695(13)
H4C H -0.32110 0.41690 0.64220
C6C C -0.3754(9) 0.5099(11) 0.7768(17)
H5C H -0.35590 0.50700 0.82450
C7C C -1.0632(7) 0.5294(8) 0.7783(15)
H6C H -1.04340 0.53740 0.82490
C8C C -0.4339(8) 0.5312(9) 0.6390(19)
H7C H -0.45250 0.53950 0.59170
C9C C -1.0655(8) 0.5109(8) 0.6530(17)
H8C H -1.04560 0.50590 0.60580
C10C C -0.2506(10) 0.2357(4) 0.7078(14)
C11C C -1.1256(8) 0.5293(8) 0.7791(15)
H9C H -1.14480 0.53640 0.82640
C12C C -1.1252(7) 0.5091(8) 0.6513(12)
H10C H -1.14400 0.50040 0.60430
C13C C -0.4366(7) 0.5038(9) 0.7767(13)
H11C H -0.45650 0.49000 0.82080
C14C C -0.3748(8) 0.5303(8) 0.6441(16)
H12C H -0.35340 0.53730 0.59860
C15C C -0.2538(9) 0.2037(7) 0.7806(15)
H13C H -0.25590 0.22470 0.82770
C16C C -0.4669(7) 0.5192(5) 0.7075(11)
C17C C -0.2476(7) 0.1400(6) 0.6428(12)
H14C H -0.24520 0.11900 0.59570
C18C C -1.0336(7) 0.5193(6) 0.7178(15)
C19C C -0.2537(7) 0.1405(6) 0.7803(16)
H15C H -0.25610 0.11960 0.82740
C20C C -0.2484(8) 0.2030(7) 0.6427(15)
H16C H -0.24730 0.22300 0.59470
N5C N 0.3442(9) 0.6527(12) 0.444(2)
C21C C 0.3746(17) 0.6640(13) 0.499(3)
H17C H 0.35170 0.66740 0.54400
C22C C 0.4379(15) 0.6747(13) 0.5198(18)
H18C H 0.45420 0.68650 0.56740
C23C C 0.4688(11) 0.6610(9) 0.441(2)
C24C C 0.4335(8) 0.6553(12) 0.3835(18)
H19C H 0.45300 0.65360 0.33570
C25C C 0.3738(11) 0.651(2) 0.375(3)
H20C H 0.35530 0.64710 0.32660
C26C C 0.4668(9) 0.8330(8) 0.4707(15)
C27C C 0.4377(14) 0.836(3) 0.545(3)
H21C H 0.45580 0.83150 0.59340
C28C C 0.3736(15) 0.8469(17) 0.532(2)
H22C H 0.35240 0.86150 0.57500
N6C N 0.3463(10) 0.8386(11) 0.471(3)
C29C C 0.3752(15) 0.8282(12) 0.4059(19)
H23C H 0.35650 0.81970 0.35860
C30C C 0.4332(11) 0.8307(13) 0.4127(18)
H24C H 0.45280 0.83090 0.36490
#END
