
#######################################################################
#
#                 Cambridge Crystallographic Data Centre
#                                CCDC
#
#######################################################################
#
# If this CIF has been generated from an entry in the Cambridge
# Structural Database, then it will include bibliographic, chemical,
# crystal, experimental, refinement or atomic coordinate data resulting
# from the CCDC's data processing and validation procedures.
#
#######################################################################

data_CSD_CIF_DEZMUS
_audit_creation_date 2013-06-16
_audit_creation_method CSD-ConQuest-V1
_database_code_CSD DEZMUS
_database_code_depnum_ccdc_archive 'CCDC 900292'
_chemical_formula_sum 'C40 H64 Ag5 N24 O40 P1 W12'
_chemical_formula_moiety
;
(C40 H64 Ag5 N24 3+)n,n(O40 P1 W12 3-)
;
_journal_coden_Cambridge 1350
_journal_volume 15
_journal_year 2013
_journal_page_first 4516
_journal_name_full 'CrystEngComm '
loop_
_publ_author_name
"Xiuli Wang"
"Dan Zhao"
"Aixiang Tian"
"Jun Ying"
_chemical_name_systematic
;
catena-(tetrakis(\m~2~-1,6-bis(1,2,4-Triazol-1-yl)hexane)-penta-silver 
(\m~12~-phosphato)-tetracosakis(\m~2~-oxo)-dodecaoxo-dodeca-tungsten)
;
_cell_volume   3940.096
_exptl_crystal_colour 'yellow'
_exptl_crystal_density_diffrn 3.622
_exptl_crystal_description 'block'
_diffrn_ambient_temperature 298
_refine_special_details
;
The phosphate moiety is disordered by symmetry.

;
#These two values have been output from a single CSD field.
_refine_ls_R_factor_gt 0.0641
_refine_ls_wR_factor_gt 0.0641
_symmetry_cell_setting monoclinic
_symmetry_space_group_name_H-M 'P 21/c'
_symmetry_Int_Tables_number 14
loop_
_symmetry_equiv_pos_site_id
_symmetry_equiv_pos_as_xyz
1 x,y,z
2 -x,1/2+y,1/2-z
3 -x,-y,-z
4 x,-1/2-y,-1/2+z
_cell_length_a 13.3672(11)
_cell_length_b 24.450(2)
_cell_length_c 12.1885(11)
_cell_angle_alpha 90
_cell_angle_beta 98.470(2)
_cell_angle_gamma 90
_cell_formula_units_Z 2
loop_
_atom_type_symbol
_atom_type_radius_bond
C 0.68
H 0.23
Ag 1.45
N 0.68
O 0.68
P 1.05
W 1.62
loop_
_atom_site_label
_atom_site_type_symbol
_atom_site_fract_x
_atom_site_fract_y
_atom_site_fract_z
Ag1 Ag 0.53141(13) 0.04765(8) 0.27816(17)
Ag2 Ag 0.98817(15) 0.25647(6) 0.14333(12)
Ag3 Ag 0.50000 -0.50000 0.50000
C1 C 0.6374(19) -0.0382(10) 0.4455(18)
H1 H 0.69910 -0.02000 0.45100
C2 C 0.6934(19) -0.1113(9) 0.586(3)
H2 H 0.73700 -0.08530 0.63050
H3 H 0.65680 -0.13150 0.63630
C3 C 0.9173(17) 0.3808(8) -0.0018(15)
H4 H 0.95290 0.41320 -0.02120
H5 H 0.93990 0.37280 0.07580
C4 C 0.8034(19) 0.3922(9) -0.019(2)
H6 H 0.79130 0.42210 0.02980
H7 H 0.78430 0.40510 -0.09450
C5 C 0.489(2) -0.0604(13) 0.405(3)
H8 H 0.42110 -0.05780 0.37610
C6 C 0.4557(19) -0.3806(10) 0.5692(18)
H9 H 0.38680 -0.38570 0.54690
C7 C 0.613(2) -0.3953(10) 0.597(2)
H10 H 0.67590 -0.41140 0.59940
C8 C 0.4506(18) 0.1632(10) 0.187(2)
H11 H 0.38260 0.15350 0.17820
C9 C 0.610(2) 0.1584(10) 0.215(2)
H12 H 0.67680 0.14620 0.23090
C10 C 0.668(2) -0.3058(11) 0.686(3)
H13 H 0.72050 -0.32540 0.73320
H14 H 0.63380 -0.28260 0.73370
C11 C 0.7158(18) -0.2704(10) 0.611(2)
H15 H 0.74730 -0.29300 0.56070
H16 H 0.76860 -0.24900 0.65480
C12 C 0.656(3) 0.2772(16) 0.104(3)
H17 H 0.58990 0.28930 0.06990
H18 H 0.67960 0.24830 0.05920
C13 C 0.756(3) -0.1494(14) 0.534(4)
H19 H 0.78420 -0.12940 0.47690
H20 H 0.81210 -0.16010 0.58930
C14 C 0.6431(16) -0.2329(9) 0.546(2)
H21 H 0.60770 -0.21070 0.59440
H22 H 0.59400 -0.25290 0.49490
C15 C 0.656(3) 0.2588(16) 0.222(3)
H23 H 0.62690 0.28580 0.26610
H24 H 0.72210 0.24770 0.25820
C16 C 0.734(2) 0.3467(13) 0.000(3)
H25 H 0.74990 0.31580 -0.04460
H26 H 0.66570 0.35810 -0.02930
C17 C 0.733(3) 0.3260(12) 0.119(3)
H27 H 0.71080 0.35440 0.16520
H28 H 0.80000 0.31370 0.15190
C18 C 0.7114(19) -0.1977(10) 0.485(2)
H29 H 0.76600 -0.22100 0.46800
H30 H 0.67230 -0.18750 0.41440
C19 C 0.9988(18) 0.2567(11) -0.1058(18)
H31 H 1.02700 0.22180 -0.09870
C20 C 0.9411(19) 0.3305(10) -0.178(2)
H32 H 0.92100 0.35810 -0.22870
N1 N 0.5562(18) -0.0251(10) 0.377(2)
N2 N 0.6192(15) -0.0807(9) 0.5053(15)
N3 N 0.522(2) -0.0991(10) 0.476(2)
N4 N 0.9802(16) 0.2869(8) -0.0191(18)
N5 N 0.9421(15) 0.3344(8) -0.0701(15)
N6 N 0.5248(13) -0.4186(8) 0.5540(15)
N7 N 0.5951(14) -0.3454(8) 0.6343(15)
N8 N 0.4933(15) -0.3356(9) 0.6181(15)
N9 N 0.5293(12) 0.1283(8) 0.2142(14)
N10 N 0.582(2) 0.2082(10) 0.189(3)
N11 N 0.486(2) 0.2125(10) 0.177(3)
N12 N 0.9731(16) 0.2815(8) -0.2022(18)
P1 P 1.00000 0.00000 0.00000
O1 O 0.902(3) 0.0281(13) 0.008(3)
O2 O 0.8200(12) 0.0942(7) 0.1009(12)
O3 O 0.8337(13) -0.0513(7) 0.1901(15)
O4 O 1.0881(13) 0.0888(7) 0.2307(15)
O5 O 0.8722(13) -0.1260(7) 0.0526(15)
O6 O 0.7757(12) 0.0787(7) -0.1126(12)
O7 O 0.9858(12) 0.1451(7) 0.0690(12)
O8 O 1.0938(11) 0.0296(6) 0.4268(11)
O9 O 0.9247(13) 0.0395(7) 0.2658(15)
O10 O 0.7329(13) 0.0037(7) 0.0258(15)
O11 O 1.081(2) 0.0269(14) 0.094(2)
O12 O 1.1778(13) 0.1802(7) 0.1496(15)
O13 O 0.8018(12) 0.1834(7) -0.0353(12)
O14 O 1.1846(13) -0.0028(7) 0.2474(15)
O15 O 1.0240(13) -0.0534(7) 0.2814(15)
O16 O 1.2297(13) 0.0729(7) 0.1098(15)
O17 O 0.964(3) -0.0141(13) 0.108(3)
O18 O 0.9151(13) -0.1506(7) 0.2733(15)
O19 O 1.3765(12) -0.0049(7) 0.1840(12)
O20 O 1.0601(11) -0.1295(8) 0.1448(12)
O21 O 0.7159(11) 0.0362(6) 0.2394(15)
O22 O 0.994(3) -0.0581(14) 0.023(3)
W1 W 1.06261(8) 0.02012(4) 0.29070(7)
W2 W 0.80707(6) 0.02431(4) 0.16319(7)
W3 W 0.93989(6) -0.10106(3) 0.18711(6)
W4 W 0.86497(6) 0.12557(3) -0.02626(7)
W5 W 1.25503(6) -0.00255(4) 0.12666(8)
W6 W 1.12124(7) 0.12233(3) 0.10301(7)
Ag1B Ag 0.46859(13) -1.04765(8) 0.72184(17)
Ag2B Ag 0.01183(15) -1.25647(6) 0.85667(12)
C1B C 0.3626(19) -0.9618(10) 0.5545(18)
H1B H 0.30090 -0.98000 0.54900
C2B C 0.3066(19) -0.8887(9) 0.414(3)
H2B H 0.26300 -0.91470 0.36950
H3B H 0.34320 -0.86850 0.36370
C3B C 0.0827(17) -1.3808(8) 1.0018(15)
H4B H 0.04710 -1.41320 1.02120
H5B H 0.06010 -1.37280 0.92420
C4B C 0.1966(19) -1.3922(9) 1.019(2)
H6B H 0.20870 -1.42210 0.97020
H7B H 0.21570 -1.40510 1.09450
C5B C 0.511(2) -0.9396(13) 0.595(3)
H8B H 0.57890 -0.94220 0.62390
C6B C 0.5443(19) -0.6194(10) 0.4308(18)
H9B H 0.61320 -0.61430 0.45310
C7B C 0.387(2) -0.6047(10) 0.403(2)
H10B H 0.32410 -0.58860 0.40060
C8B C 0.5494(18) -1.1632(10) 0.813(2)
H11B H 0.61740 -1.15350 0.82180
C9B C 0.390(2) -1.1584(10) 0.785(2)
H12B H 0.32320 -1.14620 0.76910
C10B C 0.332(2) -0.6942(11) 0.314(3)
H13B H 0.27950 -0.67460 0.26680
H14B H 0.36620 -0.71740 0.26630
C11B C 0.2842(18) -0.7296(10) 0.389(2)
H15B H 0.25270 -0.70700 0.43930
H16B H 0.23140 -0.75100 0.34520
C12B C 0.344(3) -1.2772(16) 0.896(3)
H17B H 0.41010 -1.28930 0.93010
H18B H 0.32040 -1.24830 0.94080
C13B C 0.244(3) -0.8506(14) 0.466(4)
H19B H 0.21580 -0.87060 0.52310
H20B H 0.18790 -0.83990 0.41070
C14B C 0.3569(16) -0.7671(9) 0.454(2)
H21B H 0.39230 -0.78930 0.40560
H22B H 0.40600 -0.74710 0.50510
C15B C 0.344(3) -1.2588(16) 0.778(3)
H23B H 0.37310 -1.28580 0.73390
H24B H 0.27790 -1.24770 0.74180
C16B C 0.266(2) -1.3467(13) 1.000(3)
H25B H 0.25010 -1.31580 1.04460
H26B H 0.33430 -1.35810 1.02930
C17B C 0.267(3) -1.3260(12) 0.881(3)
H27B H 0.28920 -1.35440 0.83480
H28B H 0.20000 -1.31370 0.84810
C18B C 0.2886(19) -0.8023(10) 0.515(2)
H29B H 0.23400 -0.77900 0.53200
H30B H 0.32770 -0.81250 0.58560
C19B C 0.0012(18) -1.2567(11) 1.1058(18)
H31B H -0.02700 -1.22180 1.09870
C20B C 0.0589(19) -1.3305(10) 1.178(2)
H32B H 0.07900 -1.35810 1.22870
N1B N 0.4438(18) -0.9749(10) 0.623(2)
N2B N 0.3808(15) -0.9193(9) 0.4947(15)
N3B N 0.478(2) -0.9009(10) 0.524(2)
N4B N 0.0198(16) -1.2869(8) 1.0191(18)
N5B N 0.0579(15) -1.3344(8) 1.0701(15)
N6B N 0.4752(13) -0.5814(8) 0.4460(15)
N7B N 0.4049(14) -0.6546(8) 0.3657(15)
N8B N 0.5067(15) -0.6644(9) 0.3819(15)
N9B N 0.4707(12) -1.1283(8) 0.7858(14)
N10B N 0.418(2) -1.2082(10) 0.811(3)
N11B N 0.514(2) -1.2125(10) 0.823(3)
N12B N 0.0269(16) -1.2815(8) 1.2022(18)
Ag2A Ag 0.01183(15) -1.24353(6) 1.35667(12)
Ag2C Ag 0.98817(15) 0.24353(6) -0.35667(12)
N12A N 0.0269(16) -1.2185(8) 0.7022(18)
N12C N 0.9731(16) 0.2185(8) 0.2978(18)
O1B O 1.098(3) -0.0281(13) -0.008(3)
O11B O 0.919(2) -0.0269(14) -0.094(2)
O17B O 1.036(3) 0.0141(13) -0.108(3)
O22B O 1.006(3) 0.0581(14) -0.023(3)
O2B O 1.1800(12) -0.0942(7) -0.1009(12)
O3B O 1.1663(13) 0.0513(7) -0.1901(15)
O4B O 0.9119(13) -0.0888(7) -0.2307(15)
O5B O 1.1278(13) 0.1260(7) -0.0526(15)
O6B O 1.2243(12) -0.0787(7) 0.1126(12)
O7B O 1.0142(12) -0.1451(7) -0.0690(12)
O8B O 0.9062(11) -0.0296(6) -0.4268(11)
O9B O 1.0753(13) -0.0395(7) -0.2658(15)
O10B O 1.2671(13) -0.0037(7) -0.0258(15)
O12B O 0.8222(13) -0.1802(7) -0.1496(15)
O13B O 1.1982(12) -0.1834(7) 0.0353(12)
O14B O 0.8154(13) 0.0028(7) -0.2474(15)
O15B O 0.9760(13) 0.0534(7) -0.2814(15)
O16B O 0.7703(13) -0.0729(7) -0.1098(15)
O18B O 1.0849(13) 0.1506(7) -0.2733(15)
O19B O 0.6235(12) 0.0049(7) -0.1840(12)
O20B O 0.9399(11) 0.1295(8) -0.1448(12)
O21B O 1.2841(11) -0.0362(6) -0.2394(15)
W1B W 0.93739(8) -0.02012(4) -0.29070(7)
W2B W 1.19293(6) -0.02431(4) -0.16319(7)
W3B W 1.06011(6) 0.10106(3) -0.18711(6)
W4B W 1.13503(6) -0.12557(3) 0.02626(7)
W5B W 0.74497(6) 0.00255(4) -0.12666(8)
W6B W 0.87876(7) -0.12233(3) -0.10301(7)
#END
