
#######################################################################
#
#                 Cambridge Crystallographic Data Centre
#                                CCDC
#
#######################################################################
#
# If this CIF has been generated from an entry in the Cambridge
# Structural Database, then it will include bibliographic, chemical,
# crystal, experimental, refinement or atomic coordinate data resulting
# from the CCDC's data processing and validation procedures.
#
#######################################################################

data_CSD_CIF_DEZPUU01
_audit_creation_date 2013-07-07
_audit_creation_method CSD-ConQuest-V1
_database_code_CSD DEZPUU01
_database_code_depnum_ccdc_archive 'CCDC 858048'
_chemical_formula_sum 'C40 H44 Cu4 N8 O46 Si1 W12'
_chemical_formula_moiety
;
(C20 H16 Cu2 N4 2+)2n,6n(H2 O1),n(O40 Si1 W12 4-)
;
_journal_coden_Cambridge 155
_journal_volume 402
_journal_year 2013
_journal_page_first 123
_journal_name_full 'Inorg.Chim.Acta '
loop_
_publ_author_name
"Shu-Yun Shi"
"Zhan-Lin Xu"
"Hong-Hui Teng"
"Ling-Zi Zhao"
"Xiao-Bing Cui"
"Ji-Qing Xu"
_chemical_name_systematic
;
catena-(bis(bis(\m~2~-4,4'-Bipyridine)-di-copper) 
(\m~12~-silicato)-tetracosakis(\m~2~-oxo)-dodecaoxo-dodeca-tungsten 
hexahydrate)
;
_cell_volume   7762.555
_exptl_crystal_density_diffrn 3.304
_diffrn_ambient_temperature 293
_refine_special_details
;
OW6 disordered by symmetry over two sites with occupancy 0.50.

;
#These two values have been output from a single CSD field.
_refine_ls_R_factor_gt 0.0483
_refine_ls_wR_factor_gt 0.0483
_symmetry_cell_setting monoclinic
_symmetry_space_group_name_H-M 'C 2/m'
_symmetry_Int_Tables_number 12
loop_
_symmetry_equiv_pos_site_id
_symmetry_equiv_pos_as_xyz
1 x,y,z
2 -x,y,-z
3 1/2+x,1/2+y,z
4 1/2-x,1/2+y,-z
5 -x,-y,-z
6 x,-y,z
7 -1/2-x,-1/2-y,-z
8 -1/2+x,-1/2-y,z
_cell_length_a 15.795(3)
_cell_length_b 23.522(4)
_cell_length_c 21.226(4)
_cell_angle_alpha 90
_cell_angle_beta 100.155(13)
_cell_angle_gamma 90
_cell_formula_units_Z 4
loop_
_atom_type_symbol
_atom_type_radius_bond
C 0.68
H 0.23
Cu 1.32
N 0.68
O 0.68
Si 1.20
W 1.62
loop_
_atom_site_label
_atom_site_type_symbol
_atom_site_fract_x
_atom_site_fract_y
_atom_site_fract_z
Si1 Si 1.8189(2) 0.00000 0.74650(16)
O1 O 1.8679(4) 0.0562(3) 0.7801(3)
O2 O 1.7204(6) 0.00000 0.7559(4)
O3 O 1.8231(6) 0.00000 0.6704(4)
W1 W 2.01095(3) 0.077601(18) 0.78066(2)
W2 W 1.95232(4) 0.00000 0.62894(3)
W3 W 1.82314(3) 0.14837(2) 0.75121(2)
W4 W 1.76510(3) 0.07177(2) 0.59945(2)
W5 W 1.67596(5) 0.00000 0.85570(4)
W6 W 1.87955(3) 0.07813(2) 0.89086(2)
W7 W 1.61936(3) 0.07153(2) 0.71599(3)
O4 O 1.8139(5) 0.1224(3) 0.6662(4)
O5 O 1.8793(5) 0.0570(3) 0.5824(4)
O6 O 1.9899(5) 0.0558(3) 0.6949(4)
O7 O 1.9913(5) 0.0895(3) 0.8678(4)
O8 O 2.1134(6) 0.1044(4) 0.7893(4)
O9 O 1.9080(8) 0.00000 0.9059(6)
O10 O 1.7107(5) 0.1236(4) 0.7487(4)
O11 O 1.7639(6) 0.0555(4) 0.8796(4)
O12 O 1.6090(6) 0.0568(4) 0.8034(4)
O13 O 1.5632(9) 0.00000 0.6936(6)
O14 O 1.6695(6) 0.0676(4) 0.6412(4)
O15 O 1.8980(6) 0.1066(4) 0.9657(4)
O16 O 1.8442(5) 0.1466(3) 0.8434(4)
O17 O 1.7303(8) 0.00000 0.5579(5)
O18 O 1.7299(6) 0.1166(4) 0.5374(4)
O19 O 1.6248(10) 0.00000 0.9199(8)
O20 O 1.5351(6) 0.1168(4) 0.6954(5)
O21 O 2.0346(9) 0.00000 0.5866(6)
O22 O 2.0307(7) 0.00000 0.8022(5)
O23 O 1.9490(5) 0.1469(3) 0.7578(4)
O24 O 1.8136(5) 0.2204(3) 0.7423(4)
Cu1 Cu 2.18985(13) 0.17980(8) 0.77684(7)
Cu2 Cu 2.02249(12) 0.24789(8) 0.26426(7)
C1 C 1.8323(6) 0.2966(4) -0.0110(3)
C2 C 1.7771(7) 0.3427(3) -0.0248(3)
H1 H 1.76930 0.36790 0.00750
C3 C 1.7336(6) 0.3513(3) -0.0869(3)
H2 H 1.69660 0.38210 -0.09620
N1 N 1.7453(6) 0.3137(4) -0.1352(3)
C4 C 1.8005(7) 0.2676(4) -0.1214(3)
H3 H 1.80830 0.24250 -0.15370
C5 C 1.8440(7) 0.2591(4) -0.0593(3)
H4 H 1.88090 0.22820 -0.05000
C6 C 1.9740(6) 0.2264(3) 0.1305(3)
H5 H 2.00800 0.19410 0.13890
C7 C 1.9304(6) 0.2369(3) 0.0688(3)
H6 H 1.93520 0.21160 0.03590
C8 C 1.8796(6) 0.2853(4) 0.0562(3)
C9 C 1.8725(6) 0.3231(3) 0.1053(4)
H7 H 1.83850 0.35550 0.09680
C10 C 1.9161(7) 0.3126(4) 0.1669(4)
H8 H 1.91140 0.33800 0.19980
N2 N 1.9669(6) 0.2643(4) 0.1796(3)
N3 N 2.1663(5) 0.1931(3) 0.6866(2)
C11 C 2.1672(6) 0.1479(3) 0.6445(3)
H9 H 2.17720 0.11120 0.66020
C12 C 2.1531(7) 0.1577(3) 0.5789(3)
H10 H 2.15370 0.12740 0.55070
C13 C 2.1382(6) 0.2126(3) 0.5554(2)
C14 C 2.1373(6) 0.2578(3) 0.5975(3)
H11 H 2.12730 0.29450 0.58170
C15 C 2.1513(6) 0.2480(3) 0.6631(3)
H12 H 2.15070 0.27830 0.69120
C16 C 2.1139(5) 0.2225(3) 0.4843(2)
C17 C 2.0746(5) 0.1788(3) 0.4458(3)
H13 H 2.06560 0.14370 0.46380
C18 C 2.0488(5) 0.1874(3) 0.3805(3)
H14 H 2.02250 0.15820 0.35470
N4 N 2.0622(5) 0.2398(3) 0.3536(2)
C19 C 2.1015(6) 0.2836(3) 0.3921(3)
H15 H 2.11050 0.31860 0.37410
C20 C 2.1274(6) 0.2749(3) 0.4574(3)
H16 H 2.15370 0.30420 0.48320
O25 O 2.113(2) 0.00000 0.9432(10)
O26 O 2.287(3) 0.00000 0.949(2)
O27 O 2.206(3) 0.00000 0.566(2)
O28 O 1.385(6) 0.075(4) 0.827(4)
O29 O 2.266(5) 0.00000 0.797(4)
O30 O 2.016(4) 0.417(2) 0.480(3)
O1E O 1.8679(4) -0.0562(3) 0.7801(3)
W1E W 2.01095(3) -0.077601(18) 0.78066(2)
W3E W 1.82314(3) -0.14837(2) 0.75121(2)
W4E W 1.76510(3) -0.07177(2) 0.59945(2)
W6E W 1.87955(3) -0.07813(2) 0.89086(2)
W7E W 1.61936(3) -0.07153(2) 0.71599(3)
O4E O 1.8139(5) -0.1224(3) 0.6662(4)
O5E O 1.8793(5) -0.0570(3) 0.5824(4)
O6E O 1.9899(5) -0.0558(3) 0.6949(4)
O7E O 1.9913(5) -0.0895(3) 0.8678(4)
O8E O 2.1134(6) -0.1044(4) 0.7893(4)
O10E O 1.7107(5) -0.1236(4) 0.7487(4)
O11E O 1.7639(6) -0.0555(4) 0.8796(4)
O12E O 1.6090(6) -0.0568(4) 0.8034(4)
O14E O 1.6695(6) -0.0676(4) 0.6412(4)
O15E O 1.8980(6) -0.1066(4) 0.9657(4)
O16E O 1.8442(5) -0.1466(3) 0.8434(4)
O18E O 1.7299(6) -0.1166(4) 0.5374(4)
O20E O 1.5351(6) -0.1168(4) 0.6954(5)
O23E O 1.9490(5) -0.1469(3) 0.7578(4)
O24E O 1.8136(5) -0.2204(3) 0.7423(4)
Cu1G Cu 1.68985(13) 0.32020(8) -0.22316(7)
N1G N 2.2453(6) 0.1863(4) 0.8648(3)
#END
