
#######################################################################
#
#                 Cambridge Crystallographic Data Centre
#                                CCDC
#
#######################################################################
#
# If this CIF has been generated from an entry in the Cambridge
# Structural Database, then it will include bibliographic, chemical,
# crystal, experimental, refinement or atomic coordinate data resulting
# from the CCDC's data processing and validation procedures.
#
#######################################################################

data_CSD_CIF_DEZRUX
_audit_creation_date 2013-06-16
_audit_creation_method CSD-ConQuest-V1
_database_code_CSD DEZRUX
_database_code_depnum_ccdc_archive 'CCDC 899492'
_chemical_formula_sum 'C56 H64 Eu2 N14 O35 Sr1'
_chemical_formula_moiety
;
(C42 H28 Eu2 N6 O29 Sr1 4-)n,4n(C3 H5 N2 1+),n(C2 H6 O1),5n(H2 O1)
;
_journal_coden_Cambridge 222
_journal_volume 42
_journal_year 2013
_journal_page_first 10495
_journal_name_full 'Dalton Trans. '
loop_
_publ_author_name
"Yanmei Chen"
"Wenqian Chen"
"Zhenghua Ju"
"Qian Gao"
"Tao Lei"
"Wei Liu"
"Yahong Li"
"Dandan Gao"
"Wu Li"
_chemical_name_systematic
;
catena-(tetrakis(Imidazolium) 
tris(\m~2~-pyridine-2,6-dicarboxylato)-penta-aqua-tris(pyridine-2,6-dicarboxyl
ato)-di-europium-strontium ethanol solvate pentahydrate)
;
_cell_volume   3454.089
_exptl_crystal_colour 'colorless'
_exptl_crystal_density_diffrn 1.812
_exptl_crystal_description 'rod'
_diffrn_ambient_temperature 299
#These two values have been output from a single CSD field.
_refine_ls_R_factor_gt 0.0418
_refine_ls_wR_factor_gt 0.0418
_symmetry_cell_setting triclinic
_symmetry_space_group_name_H-M 'P -1'
_symmetry_Int_Tables_number 2
loop_
_symmetry_equiv_pos_site_id
_symmetry_equiv_pos_as_xyz
1 x,y,z
2 -x,-y,-z
_cell_length_a 10.4001(12)
_cell_length_b 11.0984(14)
_cell_length_c 30.433(4)
_cell_angle_alpha 88.442(2)
_cell_angle_beta 87.604(2)
_cell_angle_gamma 79.857(2)
_cell_formula_units_Z 2
loop_
_atom_type_symbol
_atom_type_radius_bond
C 0.68
H 0.23
Eu 1.98
N 0.68
O 0.68
Sr 1.95
loop_
_atom_site_label
_atom_site_type_symbol
_atom_site_fract_x
_atom_site_fract_y
_atom_site_fract_z
Eu1 Eu -0.05595(2) 0.34522(2) 0.873128(7)
O1 O 0.0353(3) 0.4915(3) 0.82496(10)
N1 N 0.1803(3) 0.3626(3) 0.88390(11)
Sr1 Sr 0.22977(4) 0.57090(4) 0.714931(13)
C1 C 0.2366(4) 0.4429(4) 0.85984(14)
Eu2 Eu 0.37490(2) 1.04530(2) 0.649199(7)
O2 O 0.2004(3) 0.5832(3) 0.79992(10)
N2 N -0.2030(4) 0.3407(3) 0.94144(11)
C2 C 0.3633(5) 0.4568(5) 0.86530(15)
H1 H 0.39950 0.51510 0.84880
O3 O 0.0625(3) 0.2023(3) 0.92692(10)
C3 C 0.4360(5) 0.3831(5) 0.89558(17)
H2 H 0.52210 0.39110 0.89980
N3 N -0.1333(3) 0.3293(3) 0.79600(12)
C4 C 0.3802(5) 0.2977(5) 0.91949(15)
H3 H 0.42840 0.24580 0.93970
O4 O 0.2411(4) 0.1230(3) 0.96202(11)
N4 N 0.1370(4) 1.0278(3) 0.64727(11)
N5 N 0.5295(4) 1.0179(4) 0.58208(12)
O5 O -0.0638(3) 0.5131(3) 0.92326(10)
C5 C 0.2512(4) 0.2901(4) 0.91296(14)
C6 C 0.1511(5) 0.5130(4) 0.82540(14)
N6 N 0.4670(4) 1.0885(4) 0.72052(12)
O6 O -0.1360(4) 0.6116(4) 0.98461(12)
C7 C 0.1806(5) 0.1977(4) 0.93673(14)
O7 O -0.1826(3) 0.1770(3) 0.87986(10)
O8 O -0.3194(4) 0.0733(3) 0.91623(12)
C8 C -0.2080(5) 0.4272(4) 0.97120(15)
C9 C -0.2804(6) 0.4244(5) 1.01031(16)
H4 H -0.28340 0.48570 1.03080
O9 O -0.2599(3) 0.4802(3) 0.85326(10)
C10 C -0.3478(6) 0.3294(6) 1.01845(17)
H5 H -0.39790 0.32630 1.04440
O10 O -0.4051(3) 0.5669(3) 0.80507(11)
O11 O 0.0737(3) 0.1891(3) 0.82795(10)
C11 C -0.3406(5) 0.2395(5) 0.98811(15)
H6 H -0.38310 0.17320 0.99350
O12 O 0.1204(3) 0.0903(3) 0.76525(10)
C12 C -0.2684(4) 0.2492(4) 0.94910(14)
C13 C -0.1295(5) 0.5258(4) 0.95903(15)
O13 O 0.2989(3) 0.9030(3) 0.7022(1)
C14 C -0.2573(4) 0.1578(4) 0.91267(15)
O14 O 0.1470(3) 0.8027(3) 0.73111(10)
C15 C -0.0608(4) 0.2520(4) 0.76806(14)
O15 O 0.2510(3) 1.1619(3) 0.59141(10)
C16 C -0.0930(6) 0.2457(5) 0.72492(16)
H7 H -0.04050 0.19210 0.70590
O16 O 0.0642(4) 1.2457(4) 0.56187(12)
C17 C -0.2029(6) 0.3192(6) 0.71028(19)
H8 H -0.22670 0.31580 0.68130
O17 O 0.3748(3) 0.8612(3) 0.60488(11)
C18 C -0.2783(5) 0.3986(5) 0.73913(17)
H9 H -0.35420 0.44850 0.72990
O18 O 0.4892(4) 0.7181(4) 0.56180(13)
C19 C -0.2398(4) 0.4032(4) 0.78190(15)
O19 O 0.5012(3) 1.2105(3) 0.63204(10)
C20 C 0.0551(4) 0.1711(4) 0.78848(14)
O20 O 0.6329(4) 1.3011(4) 0.58810(12)
C21 C -0.3090(4) 0.4913(4) 0.81545(15)
O21 O 0.5693(3) 0.9059(3) 0.67022(12)
C22 C 0.0859(4) 0.9536(4) 0.67549(14)
O22 O 0.7083(4) 0.8257(4) 0.72086(14)
C23 C -0.0441(5) 0.9434(5) 0.67601(16)
H10 H -0.07710 0.88930 0.69550
O23 O 0.2589(3) 1.2231(3) 0.68873(10)
C24 C -0.1243(5) 1.0153(6) 0.64698(17)
H11 H -0.21270 1.01070 0.64680
O24 O 0.2396(4) 1.3546(3) 0.74405(11)
O25 O 0.4452(4) 0.6568(4) 0.72658(14)
H12 H 0.42040 0.72780 0.71550
H13 H 0.48150 0.63100 0.75040
C25 C -0.0730(5) 1.0937(5) 0.61836(16)
H14 H -0.12610 1.14410 0.59900
O26 O 0.2394(4) 0.6813(3) 0.64013(10)
H15 H 0.27450 0.74410 0.63500
H16 H 0.17170 0.69390 0.62480
C26 C 0.0605(4) 1.0961(4) 0.61888(14)
O27 O 0.4293(4) 0.4371(3) 0.67502(12)
H17 H 0.47930 0.48130 0.66230
H18 H 0.43700 0.36500 0.66540
C27 C 0.1840(5) 0.8802(4) 0.70554(14)
O28 O 0.1212(4) 0.4464(4) 0.65761(12)
H19 H 0.17400 0.38450 0.64810
H20 H 0.10610 0.49750 0.63630
C28 C 0.1299(5) 1.1744(5) 0.58826(15)
O29 O -0.0167(3) 0.5898(3) 0.73892(12)
H21 H -0.01620 0.55680 0.76450
H22 H -0.07320 0.61280 0.71960
C29 C 0.5453(5) 0.9146(4) 0.55955(15)
C30 C 0.6306(5) 0.8956(5) 0.52310(16)
H23 H 0.64180 0.82260 0.50800
C31 C 0.6983(5) 0.9868(5) 0.50983(17)
H24 H 0.75400 0.97720 0.48500
C32 C 0.6833(5) 1.0914(5) 0.53332(15)
H25 H 0.72970 1.15330 0.52500
C33 C 0.5980(4) 1.1044(4) 0.56968(14)
C34 C 0.4631(5) 0.8228(5) 0.57673(16)
C35 C 0.5752(5) 1.2154(5) 0.59863(15)
C36 C 0.5722(5) 1.0152(5) 0.73515(16)
C37 C 0.6319(6) 1.0405(7) 0.7725(2)
H26 H 0.70580 0.98850 0.78220
C38 C 0.5797(7) 1.1446(8) 0.7951(2)
H27 H 0.61890 1.16390 0.82030
C39 C 0.4704(6) 1.2199(6) 0.78068(18)
H28 H 0.43490 1.29090 0.79560
C40 C 0.4143(5) 1.1879(5) 0.74359(15)
C41 C 0.6205(5) 0.9059(5) 0.70678(18)
C42 C 0.2933(5) 1.2621(4) 0.72421(15)
N7 N 0.3379(5) 0.5514(4) 0.54253(16)
H29 H 0.38440 0.59970 0.55320
N8 N 0.2199(6) 0.4144(5) 0.53725(16)
H30 H 0.17450 0.35850 0.54410
C43 C 0.2856(7) 0.4681(6) 0.5650(2)
H31 H 0.29340 0.45010 0.59490
C44 C 0.3064(8) 0.5483(6) 0.4999(2)
H32 H 0.33030 0.59820 0.47700
C45 C 0.2358(8) 0.4617(7) 0.4969(2)
H33 H 0.20280 0.43760 0.47120
N9 N 0.8745(4) 0.9457(4) 0.84128(13)
H34 H 0.86670 1.01850 0.85120
N10 N 0.9390(5) 0.7895(5) 0.80274(15)
H35 H 0.98030 0.74170 0.78300
C46 C 0.9520(5) 0.9017(5) 0.80845(18)
H36 H 1.00740 0.94410 0.79190
C47 C 0.8087(5) 0.8585(6) 0.85708(17)
H37 H 0.74690 0.86620 0.88030
C48 C 0.8490(6) 0.7592(6) 0.8331(2)
H38 H 0.82130 0.68410 0.83650
N11 N 0.4433(5) 0.8176(6) 0.8442(2)
H39 H 0.49150 0.74850 0.85030
N12 N 0.3100(4) 0.9539(4) 0.81234(14)
H40 H 0.25450 0.99010 0.79400
C49 C 0.3683(6) 0.8403(6) 0.8105(2)
H41 H 0.35820 0.78490 0.78910
C50 C 0.4330(7) 0.9198(9) 0.8677(2)
H42 H 0.47580 0.92850 0.89340
C51 C 0.3502(6) 1.0058(6) 0.8475(2)
H43 H 0.32480 1.08670 0.85590
N13 N 0.0395(5) 0.9554(5) 0.93416(18)
H44 H 0.04240 1.03240 0.93370
N14 N -0.0140(5) 0.7811(5) 0.95075(15)
H45 H -0.04930 0.72530 0.96420
C52 C -0.0380(7) 0.8995(6) 0.95982(19)
H46 H -0.09910 0.93660 0.98070
C53 C 0.1155(7) 0.8677(7) 0.9080(2)
H47 H 0.18230 0.88000 0.88800
C54 C 0.0745(6) 0.7627(6) 0.9172(2)
H48 H 0.10220 0.68930 0.90280
O30 O 0.6174(5) 0.8606(5) 0.96161(14)
H49 H 0.62500 0.93160 0.95190
H50 H 0.63720 0.85470 0.98850
O31 O 0.5919(4) 0.6613(4) 0.90466(13)
H51 H 0.61790 0.70800 0.92270
H52 H 0.65930 0.60690 0.90010
O32 O 0.8165(5) 0.6396(5) 0.66786(17)
H53 H 0.75750 0.69100 0.68070
H54 H 0.78900 0.57180 0.66920
O33 O 0.9071(9) 0.4435(8) 0.6014(2)
H55 H 0.83620 0.45200 0.58780
H56 H 0.94820 0.37040 0.59970
O34 O 1.0039(6) 0.6942(8) 0.6013(3)
H57 H 0.94240 0.69060 0.61870
C55 C 0.9606(10) 0.7531(11) 0.5654(3)
H58 H 0.87880 0.80630 0.57300
H59 H 0.94130 0.69350 0.54510
C56 C 1.0472(9) 0.8279(8) 0.5420(3)
H60 H 1.02780 0.83440 0.51140
H61 H 1.13670 0.78980 0.54510
H62 H 1.03320 0.90820 0.55420
O35 O 0.6324(5) 0.5291(5) 0.61993(15)
H63 H 0.60640 0.60200 0.61080
H64 H 0.60930 0.47120 0.60620
Sr1* Sr 0.22977(4) 1.57090(4) 0.714931(13)
O24* O 0.2396(4) 0.3546(3) 0.74405(11)
#END
