
#######################################################################
#
#                 Cambridge Crystallographic Data Centre
#                                CCDC
#
#######################################################################
#
# If this CIF has been generated from an entry in the Cambridge
# Structural Database, then it will include bibliographic, chemical,
# crystal, experimental, refinement or atomic coordinate data resulting
# from the CCDC's data processing and validation procedures.
#
#######################################################################

data_CSD_CIF_DEZSEI
_audit_creation_date 2013-06-16
_audit_creation_method CSD-ConQuest-V1
_database_code_CSD DEZSEI
_database_code_depnum_ccdc_archive 'CCDC 899489'
_chemical_formula_sum 'C56 H62 Gd2 N14 O34 Sr1'
_chemical_formula_moiety
;
(C42 H28 Gd2 N6 O29 Sr1 4-)n,4n(C3 H5 N2 1+),n(C2 H6 O1),4n(H2 O1)
;
_journal_coden_Cambridge 222
_journal_volume 42
_journal_year 2013
_journal_page_first 10495
_journal_name_full 'Dalton Trans. '
loop_
_publ_author_name
"Yanmei Chen"
"Wenqian Chen"
"Zhenghua Ju"
"Qian Gao"
"Tao Lei"
"Wei Liu"
"Yahong Li"
"Dandan Gao"
"Wu Li"
_chemical_name_systematic
;
catena-(tetrakis(Imidazolium) 
tris(\m~2~-pyridine-2,6-dicarboxylato)-penta-aqua-tris(pyridine-2,6-dicarboxyl
ato)-di-gadolinium-strontium ethanol solvate tetrahydrate)
;
_cell_volume   3420.883
_exptl_crystal_colour 'colorless'
_exptl_crystal_density_diffrn 1.823
_exptl_crystal_description 'rod'
_diffrn_ambient_temperature 293
#These two values have been output from a single CSD field.
_refine_ls_R_factor_gt 0.038
_refine_ls_wR_factor_gt 0.038
_symmetry_cell_setting triclinic
_symmetry_space_group_name_H-M 'P -1'
_symmetry_Int_Tables_number 2
loop_
_symmetry_equiv_pos_site_id
_symmetry_equiv_pos_as_xyz
1 x,y,z
2 -x,-y,-z
_cell_length_a 10.3910(13)
_cell_length_b 11.0500(14)
_cell_length_c 30.378(4)
_cell_angle_alpha 88.423(3)
_cell_angle_beta 87.529(3)
_cell_angle_gamma 79.069(2)
_cell_formula_units_Z 2
loop_
_atom_type_symbol
_atom_type_radius_bond
C 0.68
H 0.23
Gd 1.96
N 0.68
O 0.68
Sr 1.95
loop_
_atom_site_label
_atom_site_type_symbol
_atom_site_fract_x
_atom_site_fract_y
_atom_site_fract_z
Gd1 Gd 1.05821(2) 1.155247(18) 0.127028(7)
O1 O 0.9703(3) 1.0090(3) 0.1758(1)
N1 N 0.8219(3) 1.1400(3) 0.11716(11)
C1 C 0.7671(4) 1.0592(4) 0.14154(14)
Gd2 Gd 0.63137(2) 0.458775(18) 0.352961(7)
O2 O 0.8071(3) 0.9181(3) 0.20149(10)
N2 N 1.2040(3) 1.1585(3) 0.05861(12)
C2 C 0.6393(4) 1.0460(4) 0.13666(16)
H1 H 0.60300 0.98900 0.15380
Sr1 Sr 0.77390(4) 0.93226(4) 0.286530(14)
C3 C 0.5659(5) 1.1201(5) 0.10548(16)
H2 H 0.48040 1.11130 0.10070
N3 N 1.1372(3) 1.1701(3) 0.20363(12)
O3 O 0.9386(3) 1.2985(3) 0.07339(10)
C4 C 0.6207(5) 1.2058(4) 0.08194(15)
H3 H 0.57150 1.25930 0.06210
N4 N 0.8698(3) 0.4709(3) 0.35381(11)
O4 O 0.7582(3) 1.3788(3) 0.03814(11)
N5 N 0.4767(3) 0.4887(3) 0.41966(12)
C5 C 0.7495(4) 1.2119(4) 0.08794(13)
O5 O 1.0644(3) 0.9873(3) 0.07711(10)
C6 C 0.8539(4) 0.9891(4) 0.17591(14)
N6 N 0.5351(4) 0.4212(3) 0.28176(12)
O6 O 1.1366(4) 0.8879(3) 0.01536(12)
C7 C 0.8199(4) 1.3037(4) 0.06365(14)
O7 O 1.1847(3) 1.3216(3) 0.12017(10)
C8 C 1.2083(4) 1.0715(4) 0.02855(15)
O8 O 1.3215(3) 1.4243(3) 0.08404(12)
C9 C 1.2806(5) 1.0739(5) -0.01073(17)
H4 H 1.28250 1.01300 -0.03140
O9 O 1.2622(3) 1.0178(3) 0.14617(11)
C10 C 1.3500(5) 1.1677(5) -0.01902(17)
H5 H 1.40100 1.16970 -0.04490
O10 O 1.4093(3) 0.9293(3) 0.19438(12)
C11 C 1.3419(5) 1.2585(4) 0.01194(15)
H6 H 1.38500 1.32420 0.00670
O11 O 0.9284(3) 1.3117(3) 0.17201(10)
O12 O 0.8812(3) 1.4112(3) 0.23538(10)
C12 C 1.2694(4) 1.2505(4) 0.05055(15)
C13 C 1.1302(5) 0.9740(4) 0.04109(16)
O13 O 0.7064(3) 0.6007(3) 0.29973(10)
C14 C 1.2597(4) 1.3407(4) 0.08746(15)
O14 O 0.8585(3) 0.6994(3) 0.27035(10)
C15 C 1.2442(4) 1.0945(4) 0.21779(15)
O15 O 0.7568(3) 0.3349(3) 0.40925(10)
C16 C 1.2821(5) 1.0974(5) 0.26103(18)
H7 H 1.35720 1.04520 0.27050
O16 O 0.9465(3) 0.2468(3) 0.43754(12)
C17 C 1.2074(6) 1.1783(5) 0.28929(19)
H8 H 1.23220 1.18230 0.31820
O17 O 0.6348(3) 0.6414(3) 0.39736(10)
O18 O 0.5202(4) 0.7882(3) 0.44025(13)
C18 C 1.0953(5) 1.2538(4) 0.27517(16)
H9 H 1.04190 1.30730 0.29440
O19 O 0.5042(3) 0.2962(3) 0.36917(10)
C19 C 1.0645(4) 1.2480(4) 0.23189(14)
C20 C 1.3128(4) 1.0065(4) 0.18366(16)
O20 O 0.3718(3) 0.2053(3) 0.41307(11)
C21 C 0.9474(4) 1.3302(4) 0.21203(15)
O21 O 0.7452(3) 0.2799(3) 0.31232(10)
C22 C 0.9207(4) 0.5465(4) 0.32553(14)
O22 O 0.7600(4) 0.1496(3) 0.25659(11)
C23 C 1.0520(4) 0.5529(4) 0.32501(16)
H10 H 1.08560 0.60730 0.30580
O23 O 0.4364(3) 0.6050(3) 0.33355(11)
O24 O 0.2925(4) 0.6889(3) 0.28376(13)
C24 C 1.1329(5) 0.4774(5) 0.35348(17)
H11 H 1.22170 0.48050 0.35370
O25 O 1.0233(3) 0.9115(3) 0.26265(12)
H12 H 1.05960 0.90500 0.28740
H13 H 1.01470 0.96050 0.24050
C25 C 1.0810(5) 0.3978(5) 0.38145(16)
H14 H 1.13440 0.34400 0.40010
C26 C 0.9489(4) 0.3990(4) 0.38136(14)
O26 O 0.5741(3) 1.0670(3) 0.32761(12)
H15 H 0.57830 1.13960 0.33520
H16 H 0.51910 1.02350 0.33700
C27 C 0.8216(4) 0.6211(4) 0.29582(14)
O27 O 0.8868(4) 1.0573(3) 0.34339(12)
H17 H 0.85340 1.13320 0.34620
H18 H 0.88970 1.00290 0.36380
C28 C 0.8783(5) 0.3200(4) 0.41209(15)
O28 O 0.7691(4) 0.8208(3) 0.36162(11)
H19 H 0.74240 0.75420 0.36820
H20 H 0.81350 0.83700 0.38280
C29 C 0.4597(4) 0.5923(4) 0.44196(14)
O29 O 0.5619(4) 0.8447(3) 0.27571(14)
H21 H 0.56570 0.76980 0.28360
H22 H 0.49200 0.86750 0.26170
C30 C 0.3730(4) 0.6137(4) 0.47778(16)
H23 H 0.36220 0.68730 0.49290
C31 C 0.3024(5) 0.5239(5) 0.49082(16)
H24 H 0.24400 0.53550 0.51510
C32 C 0.3198(4) 0.4186(4) 0.46758(15)
H25 H 0.27320 0.35720 0.47590
C33 C 0.4065(4) 0.4023(4) 0.43159(14)
C34 C 0.5450(5) 0.6823(4) 0.42531(16)
C35 C 0.4293(4) 0.2911(4) 0.40263(15)
C36 C 0.5843(5) 0.3213(4) 0.25867(15)
C37 C 0.5267(6) 0.2926(5) 0.22128(18)
H26 H 0.56190 0.22180 0.20580
C38 C 0.4159(6) 0.3712(6) 0.2074(2)
H27 H 0.37460 0.35360 0.18240
C39 C 0.3674(6) 0.4752(6) 0.23061(19)
H28 H 0.29390 0.53010 0.22130
C40 C 0.4287(5) 0.4980(4) 0.26815(16)
C41 C 0.7069(5) 0.2431(4) 0.27675(15)
C42 C 0.3817(4) 0.6063(4) 0.29709(17)
C43 C 0.6497(6) 0.4997(6) 0.1531(2)
H29 H 0.67530 0.41880 0.14380
N7 N 0.6908(4) 0.5474(4) 0.18814(15)
H30 H 0.74630 0.50910 0.20640
C44 C 0.5651(7) 0.5881(8) 0.1334(2)
H31 H 0.52150 0.58160 0.10770
C45 C 0.6337(6) 0.6609(5) 0.1903(2)
H32 H 0.64660 0.71510 0.21180
N8 N 0.5555(5) 0.6886(5) 0.1580(2)
H33 H 0.50600 0.75900 0.15320
C46 C 0.1496(6) 0.7410(5) 0.1666(2)
H34 H 0.17480 0.81710 0.16280
C47 C 0.0492(5) 0.5998(5) 0.19193(19)
H35 H -0.00670 0.55850 0.20860
N9 N 0.0621(5) 0.7098(4) 0.19723(16)
H36 H 0.02150 0.75780 0.21730
N10 N 0.1267(4) 0.5537(4) 0.15942(14)
H37 H 0.13450 0.47990 0.15000
C48 C 0.1926(5) 0.6394(5) 0.14282(18)
H38 H 0.25510 0.63030 0.11970
C49 C 0.0410(6) 0.5997(5) 0.04043(18)
H39 H 0.10330 0.56160 0.01980
C50 C -0.0741(6) 0.7395(5) 0.0826(2)
H40 H -0.10270 0.81410 0.09660
N11 N 0.0153(5) 0.7189(4) 0.04946(14)
H41 H 0.05100 0.77450 0.03600
C51 C -0.1152(6) 0.6344(6) 0.0920(2)
H42 H -0.18240 0.62330 0.11200
N12 N -0.0381(5) 0.5446(5) 0.06610(17)
H43 H -0.04100 0.46730 0.06660
N13 N 0.7999(5) 0.0803(4) 0.46651(15)
H44 H 0.84490 0.13640 0.45970
N14 N 0.6758(5) -0.0509(4) 0.46154(17)
H45 H 0.62610 -0.09600 0.45100
C52 C 0.7273(6) 0.0346(5) 0.4396(2)
H46 H 0.71430 0.05800 0.41020
C53 C 0.7145(7) -0.0549(5) 0.5029(2)
H47 H 0.69060 -0.10570 0.52550
C54 C 0.7931(7) 0.0261(5) 0.5065(2)
H48 H 0.83490 0.04200 0.53150
O30 O 0.3784(4) 0.9747(4) 0.38024(14)
H49 H 0.42730 0.92050 0.39560
H50 H 0.32030 1.01490 0.39760
O31 O 0.1839(4) 0.8745(4) 0.33913(17)
H51 H 0.22820 0.92280 0.35000
H52 H 0.22920 0.80550 0.33140
O32 O 0.4080(4) 0.8377(4) 0.09326(15)
H53 H 0.36100 0.79620 0.08000
H54 H 0.35990 0.87840 0.11320
O33 O 0.3872(4) 0.6370(4) 0.03799(14)
H55 H 0.35960 0.63310 0.01220
H56 H 0.36000 0.58200 0.05390
O34 O -0.0005(5) 0.8197(6) 0.4041(2)
H57 H 0.05830 0.84650 0.39050
C55 C 0.0525(8) 0.7339(7) 0.4345(3)
H58 H 0.09360 0.77430 0.45650
H59 H 0.12040 0.67420 0.42000
C56 C -0.0444(8) 0.6676(7) 0.4571(3)
H60 H -0.08640 0.62800 0.43560
H61 H -0.10920 0.72530 0.47300
H62 H -0.00020 0.60670 0.47720
Sr1* Sr 0.77390(4) -0.06774(4) 0.286530(14)
O22* O 0.7600(4) 1.1496(3) 0.25659(11)
#END
