
#######################################################################
#
#                 Cambridge Crystallographic Data Centre
#                                CCDC
#
#######################################################################
#
# If this CIF has been generated from an entry in the Cambridge
# Structural Database, then it will include bibliographic, chemical,
# crystal, experimental, refinement or atomic coordinate data resulting
# from the CCDC's data processing and validation procedures.
#
#######################################################################

data_CSD_CIF_DEZSAE
_audit_creation_date 2013-06-16
_audit_creation_method CSD-ConQuest-V1
_database_code_CSD DEZSAE
_database_code_depnum_ccdc_archive 'CCDC 899491'
_chemical_formula_sum 'C24 H26 Eu1 N5 O18 Sr1'
_chemical_formula_moiety
;
(C21 H19 Eu1 N3 O17 Sr1 1-)n,n(C3 H5 N2 1+),n(H2 O1)
;
_journal_coden_Cambridge 222
_journal_volume 42
_journal_year 2013
_journal_page_first 10495
_journal_name_full 'Dalton Trans. '
loop_
_publ_author_name
"Yanmei Chen"
"Wenqian Chen"
"Zhenghua Ju"
"Qian Gao"
"Tao Lei"
"Wei Liu"
"Yahong Li"
"Dandan Gao"
"Wu Li"
_chemical_name_systematic
;
catena-[1H-Imidazol-3-ium 
(\m~3~-pyridine-2,6-dicarboxylato)-(\m~2~-pyridine-2,6-dicarboxylato)-(pyridin
e-2,6-dicarboxylato)-penta-aqua-europium-strontium monohydrate]
;
_cell_volume   3086.719
_exptl_crystal_colour 'colorless'
_exptl_crystal_density_diffrn 1.963
_exptl_crystal_description 'polyhedron'
_diffrn_ambient_temperature 293
#These two values have been output from a single CSD field.
_refine_ls_R_factor_gt 0.0294
_refine_ls_wR_factor_gt 0.0294
_symmetry_cell_setting monoclinic
_symmetry_space_group_name_H-M 'P 21/n'
_symmetry_Int_Tables_number 14
loop_
_symmetry_equiv_pos_site_id
_symmetry_equiv_pos_as_xyz
1 x,y,z
2 1/2-x,1/2+y,1/2-z
3 -x,-y,-z
4 -1/2+x,-1/2-y,-1/2+z
_cell_length_a 15.8421(13)
_cell_length_b 9.9106(8)
_cell_length_c 20.5688(18)
_cell_angle_alpha 90
_cell_angle_beta 107.095(2)
_cell_angle_gamma 90
_cell_formula_units_Z 4
loop_
_atom_type_symbol
_atom_type_radius_bond
C 0.68
H 0.23
Eu 1.98
N 0.68
O 0.68
Sr 1.95
loop_
_atom_site_label
_atom_site_type_symbol
_atom_site_fract_x
_atom_site_fract_y
_atom_site_fract_z
Eu1 Eu 0.245345(10) 0.362471(15) 0.005973(8)
O1 O 0.28552(14) 0.1881(2) 0.09373(12)
N1 N 0.11967(16) 0.2519(3) 0.03936(13)
C1 C 0.1366(2) 0.1580(3) 0.08816(17)
Sr1 Sr 0.394418(19) 0.12714(3) 0.282733(15)
O2 O 0.25555(15) 0.0722(2) 0.17764(12)
N2 N 0.35245(17) 0.2295(2) -0.03857(13)
C2 C 0.0698(2) 0.0893(4) 0.1046(2)
H1 H 0.08270 0.02410 0.13860
O3 O 0.09601(15) 0.4439(2) -0.05179(12)
N3 N 0.25717(16) 0.6156(2) 0.00825(13)
C3 C -0.0165(3) 0.1194(5) 0.0694(3)
H2 H -0.06260 0.07360 0.07900
C4 C -0.0337(2) 0.2177(4) 0.0202(2)
H3 H -0.09160 0.24060 -0.00320
O4 O -0.04912(15) 0.4085(3) -0.08794(12)
O5 O 0.18160(14) 0.1919(2) -0.08054(12)
C5 C 0.0361(2) 0.2819(3) 0.00589(18)
C6 C 0.2337(2) 0.1364(3) 0.12334(16)
O6 O 0.18941(17) 0.0783(3) -0.17202(13)
O7 O 0.40144(15) 0.4034(2) 0.06146(12)
C7 C 0.0256(2) 0.3872(3) -0.04900(16)
C8 C 0.3227(2) 0.1487(3) -0.09253(17)
O8 O 0.54403(15) 0.3722(3) 0.07150(15)
O9 O 0.25636(15) 0.4678(2) -0.09792(11)
C9 C 0.3786(2) 0.0853(4) -0.1235(2)
H4 H 0.35630 0.02930 -0.16090
O10 O 0.25097(16) 0.6476(2) -0.16357(12)
C10 C 0.4688(3) 0.1073(4) -0.0972(2)
H5 H 0.50840 0.06450 -0.11600
O11 O 0.24718(15) 0.4740(2) 0.11347(11)
C11 C 0.4985(2) 0.1932(4) -0.0432(2)
H6 H 0.55850 0.21120 -0.02580
C12 C 0.4391(2) 0.2532(3) -0.01433(18)
O12 O 0.24394(15) 0.6575(2) 0.17508(12)
C13 C 0.2236(2) 0.1377(3) -0.11790(17)
O13 O 0.45309(17) 0.1568(3) 0.18132(14)
H7 H 0.50390 0.19240 0.19650
H8 H 0.40820 0.14910 0.14660
O14 O 0.33111(17) 0.3710(2) 0.24442(14)
H9 H 0.29350 0.41450 0.25840
H10 H 0.31290 0.42080 0.20940
C14 C 0.4644(2) 0.3509(3) 0.04439(18)
C15 C 0.2593(2) 0.6821(3) -0.04787(17)
O15 O 0.50840(16) 0.3184(3) 0.33177(14)
H11 H 0.51280 0.38100 0.30470
H12 H 0.56070 0.32400 0.35840
O16 O 0.55083(16) 0.0076(3) 0.30762(14)
H13 H 0.59720 0.03670 0.29960
H14 H 0.57220 0.02410 0.34980
C16 C 0.2648(2) 0.8207(3) -0.04925(19)
H15 H 0.26450 0.86560 -0.08900
C17 C 0.2707(3) 0.8916(3) 0.0098(2)
H16 H 0.27620 0.98510 0.01040
O17 O 0.3677(2) -0.1340(3) 0.28292(19)
H17 H 0.35190 -0.17090 0.24390
H18 H 0.33690 -0.16920 0.30610
C18 C 0.2685(2) 0.8238(3) 0.06742(19)
H19 H 0.27230 0.87030 0.10740
C19 C 0.2603(2) 0.6845(3) 0.06477(17)
C20 C 0.2557(2) 0.5934(3) -0.10808(16)
C21 C 0.2497(2) 0.5998(3) 0.12292(16)
N4 N 0.0679(2) 0.9488(3) 0.67334(16)
H20 H 0.06340 1.00810 0.64200
N5 N 0.1220(2) 0.8040(3) 0.75078(16)
H21 H 0.15930 0.75320 0.77900
C22 C 0.1412(3) 0.8888(4) 0.70817(19)
H22 H 0.19700 0.90380 0.70350
C23 C 0.0338(3) 0.8089(5) 0.7433(2)
H23 H 0.00300 0.75830 0.76690
C24 C 0.0005(3) 0.9015(5) 0.6952(3)
H24 H -0.05820 0.92860 0.67950
O18 O 0.13279(18) 0.2817(3) 0.72318(14)
H25 H 0.13960 0.22480 0.75520
H26 H 0.15290 0.23180 0.69760
Sr1A Sr 0.105582(19) 0.62714(3) 0.217267(15)
Sr1C Sr -0.105582(19) 0.37286(3) -0.217267(15)
O4C O 0.45088(15) 0.0915(3) 0.41206(12)
O12A O 0.25606(15) 0.1575(2) 0.32492(12)
#END
