
#######################################################################
#
#                 Cambridge Crystallographic Data Centre
#                                CCDC
#
#######################################################################
#
# If this CIF has been generated from an entry in the Cambridge
# Structural Database, then it will include bibliographic, chemical,
# crystal, experimental, refinement or atomic coordinate data resulting
# from the CCDC's data processing and validation procedures.
#
#######################################################################

data_CSD_CIF_DIFWEW
_audit_creation_date 2013-06-17
_audit_creation_method CSD-ConQuest-V1
_database_code_CSD DIFWEW
_database_code_depnum_ccdc_archive 'CCDC 773509'
_chemical_formula_sum 'C24 H26 Gd1 N5 O18 Sr1'
_chemical_formula_moiety
;
(C21 H19 Gd1 N3 O17 Sr1 1-)n,n(C3 H5 N2 1+),n(H2 O1)
;
_journal_coden_Cambridge 222
_journal_volume 42
_journal_year 2013
_journal_page_first 10495
_journal_name_full 'Dalton Trans. '
loop_
_publ_author_name
"Yanmei Chen"
"Wenqian Chen"
"Zhenghua Ju"
"Qian Gao"
"Tao Lei"
"Wei Liu"
"Yahong Li"
"Dandan Gao"
"Wu Li"
_chemical_name_systematic
;
catena-[1H-Imidazol-3-ium 
(\m~3~-Pyridine-2,6-dicarboxylato)(\m~2~-pyridine-2,6-dicarboxylato)-(pyridine
-2,6-dicarboxylato)-penta-aqua-gadolinium-strontium monohydrate]
;
_cell_volume   3049.628
_exptl_crystal_colour 'colorless'
_exptl_crystal_density_diffrn 1.998
_exptl_crystal_description 'polyhedron'
_diffrn_ambient_temperature 293
#These two values have been output from a single CSD field.
_refine_ls_R_factor_gt 0.0233
_refine_ls_wR_factor_gt 0.0233
_symmetry_cell_setting monoclinic
_symmetry_space_group_name_H-M 'P 21/n'
_symmetry_Int_Tables_number 14
loop_
_symmetry_equiv_pos_site_id
_symmetry_equiv_pos_as_xyz
1 x,y,z
2 1/2-x,1/2+y,1/2-z
3 -x,-y,-z
4 -1/2+x,-1/2-y,-1/2+z
_cell_length_a 15.786(3)
_cell_length_b 9.866(2)
_cell_length_c 20.468(4)
_cell_angle_alpha 90
_cell_angle_beta 106.93(3)
_cell_angle_gamma 90
_cell_formula_units_Z 4
loop_
_atom_type_symbol
_atom_type_radius_bond
C 0.68
H 0.23
Gd 1.96
N 0.68
O 0.68
Sr 1.95
loop_
_atom_site_label
_atom_site_type_symbol
_atom_site_fract_x
_atom_site_fract_y
_atom_site_fract_z
Gd1 Gd 0.245192(9) 0.639034(14) 0.005727(7)
O1 O 0.24582(14) 0.5288(2) 0.1134(1)
N1 N 0.25717(15) 0.3866(2) 0.00804(12)
C1 C 0.26050(19) 0.3169(3) 0.06475(14)
Sr1 Sr 0.105006(19) 0.37405(3) 0.217718(14)
O2 O 0.24441(14) 0.3435(2) 0.17564(10)
N2 N 0.35256(16) 0.7718(2) -0.03885(12)
C2 C 0.2690(2) 0.1777(3) 0.06770(16)
H1 H 0.27340 0.13140 0.10810
O3 O 0.25656(14) 0.5352(2) -0.0985(1)
N3 N 0.11985(16) 0.7494(2) 0.03928(12)
C3 C 0.2708(2) 0.1082(3) 0.00944(17)
H2 H 0.27600 0.01430 0.01000
O4 O 0.25173(15) 0.3542(2) -0.16444(10)
C4 C 0.2649(2) 0.1805(3) -0.04977(16)
H3 H 0.26440 0.13590 -0.08990
O5 O 0.40074(14) 0.5967(2) 0.0616(1)
C5 C 0.25970(19) 0.3198(3) -0.04811(14)
O6 O 0.54427(15) 0.6259(2) 0.07118(13)
C6 C 0.24979(19) 0.4018(3) 0.12309(14)
O7 O 0.18132(14) 0.8094(2) -0.08053(10)
C7 C 0.25617(19) 0.4092(3) -0.10867(14)
C8 C 0.4393(2) 0.7458(3) -0.01476(15)
O8 O 0.18912(15) 0.9249(2) -0.17228(11)
O9 O 0.28568(13) 0.8133(2) 0.09331(10)
C9 C 0.4995(2) 0.8047(4) -0.04400(18)
H4 H 0.55960 0.78560 -0.02700
C10 C 0.4690(3) 0.8917(4) -0.09854(19)
H5 H 0.50860 0.93400 -0.11780
O10 O 0.25596(14) 0.9303(2) 0.1775(1)
O11 O 0.09673(13) 0.5561(2) -0.05231(10)
C11 C 0.3790(2) 0.9157(3) -0.12432(16)
H6 H 0.35680 0.97240 -0.16170
C12 C 0.3231(2) 0.8525(3) -0.09263(15)
O12 O -0.04972(14) 0.5894(2) -0.08809(10)
C13 C 0.4645(2) 0.6482(3) 0.04402(16)
O13 O -0.05156(15) 0.4919(2) 0.19293(11)
H7 H -0.07410 0.48140 0.15020
H8 H -0.09680 0.47350 0.20590
C14 C 0.2232(2) 0.8650(3) -0.11821(15)
O14 O -0.00837(15) 0.1810(2) 0.16854(12)
H9 H -0.04910 0.13620 0.17820
H10 H -0.03110 0.21240 0.12860
O15 O 0.13262(18) 0.6353(2) 0.21525(16)
H11 H 0.16260 0.64510 0.18710
H12 H 0.14480 0.70380 0.24150
C15 C 0.1362(2) 0.8442(3) 0.08774(15)
O16 O 0.16796(16) 0.1288(2) 0.25567(12)
H13 H 0.19100 0.09430 0.29490
H14 H 0.19460 0.09500 0.22890
C16 C 0.0692(2) 0.9140(4) 0.10408(18)
H15 H 0.08220 0.98030 0.13790
O17 O 0.04622(16) 0.3420(3) 0.31944(12)
H16 H 0.08750 0.31330 0.35330
H17 H 0.00060 0.39160 0.30460
C17 C -0.0180(2) 0.8827(4) 0.0687(2)
H18 H -0.06470 0.92870 0.07800
C18 C -0.0343(2) 0.7830(4) 0.01990(18)
H19 H -0.09220 0.75920 -0.00340
C19 C 0.0356(2) 0.7182(3) 0.00542(15)
C20 C 0.2336(2) 0.8661(3) 0.12303(14)
C21 C 0.0258(2) 0.6123(3) -0.04905(15)
C22 C 0.6407(2) 0.3859(3) 0.20798(16)
H20 H 0.69670 0.39960 0.20300
C23 C 0.4987(3) 0.4015(4) 0.1955(2)
H21 H 0.43990 0.42920 0.17940
N4 N 0.56766(19) 0.4477(3) 0.17377(14)
H22 H 0.56380 0.50770 0.14260
C24 C 0.5319(3) 0.3086(4) 0.24443(19)
H23 H 0.50090 0.25980 0.26890
N5 N 0.62007(19) 0.3003(3) 0.25100(14)
H24 H 0.65690 0.24750 0.27880
O18 O 0.63180(16) 0.7776(2) 0.22348(11)
H25 H 0.63680 0.77940 0.26600
H26 H 0.67790 0.73890 0.21900
Sr1A Sr 0.394994(19) 0.87405(3) 0.282282(14)
Sr1B Sr -0.105006(19) 0.62595(3) -0.217718(14)
O10A O 0.24404(14) 0.4303(2) 0.3225(1)
O12B O 0.04972(14) 0.4106(2) 0.08809(10)
#END
