
#######################################################################
#
#                 Cambridge Crystallographic Data Centre
#                                CCDC
#
#######################################################################
#
# If this CIF has been generated from an entry in the Cambridge
# Structural Database, then it will include bibliographic, chemical,
# crystal, experimental, refinement or atomic coordinate data resulting
# from the CCDC's data processing and validation procedures.
#
#######################################################################

data_CSD_CIF_DIFZAW
_audit_creation_date 2018-06-27
_audit_creation_method CSD-ConQuest-V1
_database_code_CSD DIFZAW
_database_code_depnum_ccdc_archive 'CCDC 1581202'
_chemical_formula_sum 'C114 H80 Au4 Cl4 Co6 N6 O28 P4'
_chemical_formula_moiety
;
(C114 H74 Au4 Cl4 Co6 N6 O26 P4 2-)n,2(H3 O1 1+)
;
_journal_coden_Cambridge 179
_journal_volume 57
_journal_year 2018
_journal_page_first 9295
_journal_name_full 'Angew.Chem.,Int.Ed. '
loop_
_publ_author_name
"S.G.Dunning"
"G.Nandra"
"A.D.Conn"
"Wenrui Chai"
"R.Eric Sikma"
"Ji Sun Lee"
"P.Kunal"
"J.E.Reynolds"
"Jong-San Chang"
"A.Steiner"
"G.Henkelman"
"S.M.Humphrey"
_chemical_name_systematic
;
catena-[dioxonium 
tetrakis(\m-4,4',4''-phosphanetriyltribenzoato)-bis(\m-hydroxo)-tris(\m-4,4'-b
ipyridine)-tetrachloro-hexa-cobalt(ii)-tetra-silver(i) unknown solvate]
;
_chemical_name_common
;
AuCl-PCM-101
;
_cell_volume  11258.013
_exptl_crystal_colour 'pink'
_exptl_special_details
;
Oxonium cations are added for charge balance

;
_exptl_crystal_description 'prism'
_diffrn_ambient_temperature 120
_refine_special_details
;
Disordered solvent molecules were not modelled and the disordered density was 
taken into account using the SQUEEZE/PLATON procedure.
;
#These two values have been output from a single CSD field.
_refine_ls_R_factor_gt 0.1025
_refine_ls_wR_factor_gt 0.1025
_symmetry_cell_setting orthorhombic
_symmetry_space_group_name_H-M 'P n n m'
_symmetry_Int_Tables_number 58
loop_
_symmetry_equiv_pos_site_id
_symmetry_equiv_pos_as_xyz
1 x,y,z
2 -x,-y,z
3 1/2-x,1/2+y,1/2-z
4 1/2+x,1/2-y,1/2-z
5 -x,-y,-z
6 x,y,-z
7 -1/2+x,-1/2-y,-1/2+z
8 -1/2-x,-1/2+y,-1/2+z
_cell_length_a 24.527(3)
_cell_length_b 32.127(4)
_cell_length_c 14.2872(18)
_cell_angle_alpha 90
_cell_angle_beta 90
_cell_angle_gamma 90
_cell_formula_units_Z 2
loop_
_atom_type_symbol
_atom_type_radius_bond
C 0.68
H 0.23
Au 1.36
Cl 0.99
Co 1.26
N 0.68
O 0.68
P 1.05
loop_
_atom_site_label
_atom_site_type_symbol
_atom_site_fract_x
_atom_site_fract_y
_atom_site_fract_z
Au1 Au 0.63159(3) 0.54258(3) 1.00000
Au2 Au 0.22285(4) 0.53891(3) 0.00000
Co1 Co 0.42748(10) 0.66343(8) 0.50000
Co2 Co 0.42748(7) 0.75823(5) 0.62153(10)
P1 P 0.62586(19) 0.61178(15) 1.00000
P2 P 0.22941(19) 0.60831(16) 0.00000
Cl1 Cl 0.6407(3) 0.4717(2) 1.00000
Cl2 Cl 0.2125(4) 0.4693(2) 0.00000
O1 O 0.4886(4) 0.6598(3) 0.6034(7)
O2 O 0.4880(4) 0.7208(3) 0.6764(7)
O3 O 0.8660(4) 0.7029(3) 1.0796(6)
O4 O 0.4272(4) 0.7253(3) 0.50000
O5 O 0.3694(4) 0.7188(3) 0.3216(7)
O6 O 0.3698(4) 0.6568(3) 0.3927(7)
O7 O -0.0105(3) 0.7021(3) -0.0789(6)
N1 N 0.4303(8) 0.5973(5) 0.50000
N2 N 0.4280(5) 0.7881(4) 0.7539(8)
C1 C 0.5007(7) 0.6838(5) 0.6682(11)
C2 C 0.5339(7) 0.6658(5) 0.7461(11)
C3 C 0.5395(7) 0.6242(5) 0.7572(11)
H1 H 0.52320 0.60650 0.71400
C4 C 0.5682(6) 0.6073(5) 0.8293(10)
H2 H 0.57250 0.57850 0.83260
C5 C 0.5905(6) 0.6319(4) 0.8966(10)
C6 C 0.5893(7) 0.6737(5) 0.8801(12)
H3 H 0.60700 0.69130 0.92210
C7 C 0.5630(7) 0.6915(5) 0.8038(12)
H4 H 0.56520 0.72000 0.79230
C8 C 0.8472(8) 0.6940(7) 1.00000
C9 C 0.7895(8) 0.6723(7) 1.00000
C10 C 0.7670(6) 0.6640(5) 1.078(1)
H5 H 0.78420 0.67090 1.13390
C11 C 0.7158(6) 0.6442(5) 1.0788(10)
H6 H 0.69940 0.63920 1.13640
C12 C 0.6890(8) 0.6321(6) 1.00000
C13 C 0.4445(7) 0.5785(5) 0.4227(11)
H7 H 0.43730 0.59250 0.36720
C14 C 0.4702(7) 0.5382(4) 0.4142(11)
H8 H 0.47630 0.52510 0.35710
C15 C 0.485(1) 0.5209(6) 0.50000
C16 C 0.4735(7) 0.7950(5) 0.8023(11)
H9 H 0.50630 0.79670 0.77000
C17 C 0.4741(7) 0.7998(5) 0.9005(11)
H10 H 0.50690 0.80440 0.93130
C18 C 0.4280(7) 0.7977(6) 0.9490(11)
C19 C 0.3786(7) 0.7984(5) 0.8927(11)
H11 H 0.34520 0.80330 0.92120
C20 C 0.3809(7) 0.7920(5) 0.7981(11)
H12 H 0.34860 0.79040 0.76420
C21 C 0.3553(7) 0.6827(5) 0.3278(11)
C22 C 0.3238(6) 0.6628(5) 0.2525(10)
C23 C 0.3190(6) 0.6211(4) 0.2381(10)
H13 H 0.33600 0.60320 0.28010
C24 C 0.2900(6) 0.6040(5) 0.1639(9)
H14 H 0.28660 0.57520 0.15940
C25 C 0.2670(6) 0.6281(4) 0.099(1)
C26 C 0.2624(6) 0.6683(5) 0.1203(11)
H15 H 0.23780 0.68450 0.08670
C27 C 0.2958(6) 0.6891(5) 0.1974(11)
H16 H 0.29670 0.71780 0.20570
C28 C 0.0104(8) 0.6946(6) 0.00000
C29 C 0.0607(7) 0.6687(6) 0.00000
C30 C 0.0870(5) 0.6620(5) -0.0813(10)
H17 H 0.07080 0.67020 -0.13720
C31 C 0.1392(6) 0.6425(5) -0.0832(10)
H18 H 0.15560 0.63570 -0.13990
C32 C 0.1650(8) 0.6337(6) 0.00000
O1E O 0.4886(4) 0.6598(3) 1.3966(7)
O2E O 0.4880(4) 0.7208(3) 1.3236(7)
O3E O 0.8660(4) 0.7029(3) 0.9204(6)
C1E C 0.5007(7) 0.6838(5) 1.3318(11)
C2E C 0.5339(7) 0.6658(5) 1.2539(11)
C3E C 0.5395(7) 0.6242(5) 1.2428(11)
H1E H 0.52320 0.60650 1.28600
C4E C 0.5682(6) 0.6073(5) 1.1707(10)
H2E H 0.57250 0.57850 1.16740
C5E C 0.5905(6) 0.6319(4) 1.1034(10)
C6E C 0.5893(7) 0.6737(5) 1.1199(12)
H3E H 0.60700 0.69130 1.07790
C7E C 0.5630(7) 0.6915(5) 1.1962(12)
H4E H 0.56520 0.72000 1.20770
C10E C 0.7670(6) 0.6640(5) 0.922(1)
H5E H 0.78420 0.67090 0.86610
C11E C 0.7158(6) 0.6442(5) 0.9212(10)
H6E H 0.69940 0.63920 0.86360
O5E O 0.3694(4) 0.7188(3) -0.3216(7)
O6E O 0.3698(4) 0.6568(3) -0.3927(7)
O7E O -0.0105(3) 0.7021(3) 0.0789(6)
C21E C 0.3553(7) 0.6827(5) -0.3278(11)
C22E C 0.3238(6) 0.6628(5) -0.2525(10)
C23E C 0.3190(6) 0.6211(4) -0.2381(10)
H13E H 0.33600 0.60320 -0.28010
C24E C 0.2900(6) 0.6040(5) -0.1639(9)
H14E H 0.28660 0.57520 -0.15940
C25E C 0.2670(6) 0.6281(4) -0.099(1)
C26E C 0.2624(6) 0.6683(5) -0.1203(11)
H15E H 0.23780 0.68450 -0.08670
C27E C 0.2958(6) 0.6891(5) -0.1974(11)
H16E H 0.29670 0.71780 -0.20570
C30E C 0.0870(5) 0.6620(5) 0.0813(10)
H17E H 0.07080 0.67020 0.13720
C31E C 0.1392(6) 0.6425(5) 0.0832(10)
H18E H 0.15560 0.63570 0.13990
N1A N 0.5697(8) 0.4027(5) 0.50000
C13A C 0.5555(7) 0.4215(5) 0.4227(11)
H7A H 0.56270 0.40750 0.36720
C14A C 0.5298(7) 0.4618(4) 0.4142(11)
H8A H 0.52370 0.47490 0.35710
C15A C 0.515(1) 0.4791(6) 0.50000
C13D C 0.5555(7) 0.4215(5) 0.5773(11)
H7D H 0.56270 0.40750 0.63280
C14D C 0.5298(7) 0.4618(4) 0.5858(11)
H8D H 0.52370 0.47490 0.64290
C13E C 0.4445(7) 0.5785(5) 0.5773(11)
H7E H 0.43730 0.59250 0.63280
C14E C 0.4702(7) 0.5382(4) 0.5858(11)
H8E H 0.47630 0.52510 0.64290
N2E N 0.4280(5) 0.7881(4) 1.2461(8)
C16E C 0.4735(7) 0.7950(5) 1.1977(11)
H9E H 0.50630 0.79670 1.23000
C17E C 0.4741(7) 0.7998(5) 1.0995(11)
H10E H 0.50690 0.80440 1.06870
C18E C 0.4280(7) 0.7977(6) 1.0510(11)
C19E C 0.3786(7) 0.7984(5) 1.1073(11)
H11E H 0.34520 0.80330 1.07880
C20E C 0.3809(7) 0.7920(5) 1.2019(11)
H12E H 0.34860 0.79040 1.23580
Au1A Au 0.36841(3) 0.45742(3) 1.00000
Au2A Au 0.77715(4) 0.46109(3) 0.00000
Co1A Co 0.57252(10) 0.33657(8) 0.50000
Co2A Co 0.57252(7) 0.24177(5) 0.62153(10)
P1A P 0.37414(19) 0.38822(15) 1.00000
P2A P 0.77059(19) 0.39169(16) 0.00000
Cl1A Cl 0.3593(3) 0.5283(2) 1.00000
Cl2A Cl 0.7875(4) 0.5307(2) 0.00000
O1A O 0.5114(4) 0.3402(3) 0.6034(7)
O2A O 0.5120(4) 0.2792(3) 0.6764(7)
O3A O 0.1340(4) 0.2971(3) 1.0796(6)
O4A O 0.5728(4) 0.2747(3) 0.50000
O5A O 0.6306(4) 0.2812(3) 0.3216(7)
O6A O 0.6302(4) 0.3432(3) 0.3927(7)
O7A O 1.0105(3) 0.2979(3) -0.0789(6)
N2A N 0.5720(5) 0.2119(4) 0.7539(8)
C1A C 0.4993(7) 0.3162(5) 0.6682(11)
C2A C 0.4661(7) 0.3342(5) 0.7461(11)
C3A C 0.4605(7) 0.3758(5) 0.7572(11)
H1A H 0.47680 0.39350 0.71400
C4A C 0.4318(6) 0.3927(5) 0.8293(10)
H2A H 0.42750 0.42150 0.83260
C5A C 0.4095(6) 0.3681(4) 0.8966(10)
C6A C 0.4107(7) 0.3263(5) 0.8801(12)
H3A H 0.39300 0.30870 0.92210
C7A C 0.4370(7) 0.3085(5) 0.8038(12)
H4A H 0.43480 0.28000 0.79230
C8A C 0.1528(8) 0.3060(7) 1.00000
C9A C 0.2105(8) 0.3277(7) 1.00000
C10A C 0.2330(6) 0.3360(5) 1.078(1)
H5A H 0.21580 0.32910 1.13390
C11A C 0.2842(6) 0.3558(5) 1.0788(10)
H6A H 0.30060 0.36080 1.13640
C12A C 0.3110(8) 0.3679(6) 1.00000
C16A C 0.5265(7) 0.2050(5) 0.8023(11)
H9A H 0.49370 0.20330 0.77000
C17A C 0.5259(7) 0.2002(5) 0.9005(11)
H10A H 0.49310 0.19560 0.93130
C18A C 0.5720(7) 0.2023(6) 0.9490(11)
C19A C 0.6214(7) 0.2016(5) 0.8927(11)
H11A H 0.65480 0.19670 0.92120
C20A C 0.6191(7) 0.2080(5) 0.7981(11)
H12A H 0.65140 0.20960 0.76420
C21A C 0.6447(7) 0.3173(5) 0.3278(11)
C22A C 0.6762(6) 0.3372(5) 0.2525(10)
C23A C 0.6810(6) 0.3789(4) 0.2381(10)
H13A H 0.66400 0.39680 0.28010
C24A C 0.7100(6) 0.3960(5) 0.1639(9)
H14A H 0.71340 0.42480 0.15940
C25A C 0.7330(6) 0.3719(4) 0.099(1)
C26A C 0.7376(6) 0.3317(5) 0.1203(11)
H15A H 0.76220 0.31550 0.08670
C27A C 0.7042(6) 0.3109(5) 0.1974(11)
H16A H 0.70330 0.28220 0.20570
C28A C 0.9896(8) 0.3054(6) 0.00000
C29A C 0.9393(7) 0.3313(6) 0.00000
C30A C 0.9130(5) 0.3380(5) -0.0813(10)
H17A H 0.92920 0.32980 -0.13720
C31A C 0.8608(6) 0.3575(5) -0.0832(10)
H18A H 0.84440 0.36430 -0.13990
C32A C 0.8350(8) 0.3663(6) 0.00000
O1D O 0.5114(4) 0.3402(3) 1.3966(7)
O2D O 0.5120(4) 0.2792(3) 1.3236(7)
O3D O 0.1340(4) 0.2971(3) 0.9204(6)
C1D C 0.4993(7) 0.3162(5) 1.3318(11)
C2D C 0.4661(7) 0.3342(5) 1.2539(11)
C3D C 0.4605(7) 0.3758(5) 1.2428(11)
H1D H 0.47680 0.39350 1.28600
C4D C 0.4318(6) 0.3927(5) 1.1707(10)
H2D H 0.42750 0.42150 1.16740
C5D C 0.4095(6) 0.3681(4) 1.1034(10)
C6D C 0.4107(7) 0.3263(5) 1.1199(12)
H3D H 0.39300 0.30870 1.07790
C7D C 0.4370(7) 0.3085(5) 1.1962(12)
H4D H 0.43480 0.28000 1.20770
C10D C 0.2330(6) 0.3360(5) 0.922(1)
H5D H 0.21580 0.32910 0.86610
C11D C 0.2842(6) 0.3558(5) 0.9212(10)
H6D H 0.30060 0.36080 0.86360
O5D O 0.6306(4) 0.2812(3) -0.3216(7)
O6D O 0.6302(4) 0.3432(3) -0.3927(7)
O7D O 1.0105(3) 0.2979(3) 0.0789(6)
C21D C 0.6447(7) 0.3173(5) -0.3278(11)
C22D C 0.6762(6) 0.3372(5) -0.2525(10)
C23D C 0.6810(6) 0.3789(4) -0.2381(10)
H13D H 0.66400 0.39680 -0.28010
C24D C 0.7100(6) 0.3960(5) -0.1639(9)
H14D H 0.71340 0.42480 -0.15940
C25D C 0.7330(6) 0.3719(4) -0.099(1)
C26D C 0.7376(6) 0.3317(5) -0.1203(11)
H15D H 0.76220 0.31550 -0.08670
C27D C 0.7042(6) 0.3109(5) -0.1974(11)
H16D H 0.70330 0.28220 -0.20570
C30D C 0.9130(5) 0.3380(5) 0.0813(10)
H17D H 0.92920 0.32980 0.13720
C31D C 0.8608(6) 0.3575(5) 0.0832(10)
H18D H 0.84440 0.36430 0.13990
N2D N 0.5720(5) 0.2119(4) 1.2461(8)
C16D C 0.5265(7) 0.2050(5) 1.1977(11)
H9D H 0.49370 0.20330 1.23000
C17D C 0.5259(7) 0.2002(5) 1.0995(11)
H10D H 0.49310 0.19560 1.06870
C18D C 0.5720(7) 0.2023(6) 1.0510(11)
C19D C 0.6214(7) 0.2016(5) 1.1073(11)
H11D H 0.65480 0.19670 1.07880
C20D C 0.6191(7) 0.2080(5) 1.2019(11)
H12D H 0.65140 0.20960 1.23580
Co2F Co 0.92748(7) 0.74177(5) 1.12153(10)
Co2E Co 0.42748(7) 0.75823(5) 0.37847(10)
Co1* Co 0.42748(10) 0.66343(8) -0.50000
Co1** Co 0.42748(10) 0.66343(8) 1.50000
Co1A* Co 0.57252(10) 0.33657(8) -0.50000
Co1A** Co 0.57252(10) 0.33657(8) 1.50000
Co2* Co 0.42748(7) 0.75823(5) -0.37847(10)
Co2A* Co 0.57252(7) 0.24177(5) -0.37847(10)
Co2B Co 0.07252(7) 0.25823(5) 0.87847(10)
Co2B* Co 1.07252(7) 0.25823(5) -0.12153(10)
Co2C Co -0.07252(7) 0.74177(5) -0.12153(10)
Co2C* Co 0.92748(7) 0.74177(5) 0.87847(10)
Co2D Co 0.57252(7) 0.24177(5) 0.37847(10)
Co2D* Co 0.57252(7) 0.24177(5) 1.37847(10)
Co2E* Co 0.42748(7) 0.75823(5) 1.37847(10)
Co2F* Co -0.07252(7) 0.74177(5) 0.12153(10)
Co2G Co 0.07252(7) 0.25823(5) 1.12153(10)
Co2G* Co 1.07252(7) 0.25823(5) 0.12153(10)
O1D* O 0.5114(4) 0.3402(3) 0.3966(7)
O1E* O 0.4886(4) 0.6598(3) 0.3966(7)
O2E* O 0.4880(4) 0.7208(3) 0.3236(7)
O2F O 0.9880(4) 0.7792(3) 1.1764(7)
O3C O 0.3660(4) 0.7971(3) 0.4204(6)
O3F O 0.3660(4) 0.7971(3) 0.5796(6)
O3G O 0.6340(4) 0.2029(3) 0.5796(6)
O4C O 0.9272(4) 0.7747(3) 1.00000
O5C O 0.8694(4) 0.7812(3) 1.1784(7)
O5D* O 0.6306(4) 0.2812(3) 0.6784(7)
O5E* O 0.3694(4) 0.7188(3) 0.6784(7)
O6D* O 0.6302(4) 0.3432(3) 0.6073(7)
O6E* O 0.3698(4) 0.6568(3) 0.6073(7)
O7B O 0.5105(3) 0.2021(3) 0.5789(6)
O7C O 0.4895(3) 0.7979(3) 0.5789(6)
O7E* O 0.9895(3) 0.7021(3) 1.0789(6)
O7F O 0.4895(3) 0.7979(3) 0.4211(6)
N2E* N 0.4280(5) 0.7881(4) 0.2461(8)
N2F N 0.9280(5) 0.7119(4) 1.2539(8)
#END
