
#######################################################################
#
#                 Cambridge Crystallographic Data Centre
#                                CCDC
#
#######################################################################
#
# If this CIF has been generated from an entry in the Cambridge
# Structural Database, then it will include bibliographic, chemical,
# crystal, experimental, refinement or atomic coordinate data resulting
# from the CCDC's data processing and validation procedures.
#
#######################################################################

data_CSD_CIF_DIGRIW
_audit_creation_date 2013-06-17
_audit_creation_method CSD-ConQuest-V1
_database_code_CSD DIGRIW
_database_code_depnum_ccdc_archive 'CCDC 932336'
_chemical_formula_sum 'C20 H36 Au2 N4 Na2 O14 S4'
_chemical_formula_moiety
;
(H16 Na2 O8 2+)n,2n(C10 H8 Au1 N2 O2 S2 1-),2n(H2 O1)
;
_journal_coden_Cambridge 702
_journal_volume 29
_journal_year 2013
_journal_page_first 1283
_journal_name_full 'Wuji Huaxue Xuebao(Chin.)(Chin.J.Inorg.Chem.) '
loop_
_publ_author_name
"Zhuang-Dong Yuan"
"Fang-Xia Zhou"
"Hui-Ping Zhang"
"Cheng-Yang Yue"
_chemical_name_systematic
;
catena-[tris(\m~2~-Aqua)-penta-aqua-di-sodium bis(bis(pyridine-2-thiolate 
1-oxide)-gold) dihydrate]
;
_cell_volume   3427.829
_exptl_crystal_colour 'yellow'
_exptl_crystal_density_diffrn 2.179
_exptl_crystal_description 'Plate'
_diffrn_ambient_temperature 173
#These two values have been output from a single CSD field.
_refine_ls_R_factor_gt 0.0592
_refine_ls_wR_factor_gt 0.0592
_symmetry_cell_setting orthorhombic
_symmetry_space_group_name_H-M 'P n m a'
_symmetry_Int_Tables_number 62
loop_
_symmetry_equiv_pos_site_id
_symmetry_equiv_pos_as_xyz
1 x,y,z
2 1/2-x,-y,1/2+z
3 1/2+x,1/2-y,1/2-z
4 -x,1/2+y,-z
5 -x,-y,-z
6 -1/2+x,y,-1/2-z
7 -1/2-x,-1/2+y,-1/2+z
8 x,-1/2-y,z
_cell_length_a 7.24
_cell_length_b 30.728
_cell_length_c 15.408
_cell_angle_alpha 90
_cell_angle_beta 90
_cell_angle_gamma 90
_cell_formula_units_Z 4
loop_
_atom_type_symbol
_atom_type_radius_bond
C 0.68
H 0.23
Au 1.36
N 0.68
Na 1.66
O 0.68
S 1.02
loop_
_atom_site_label
_atom_site_type_symbol
_atom_site_fract_x
_atom_site_fract_y
_atom_site_fract_z
Au1 Au 0.19535(6) 0.017744(14) 0.06323(3)
S1 S 0.1329(4) 0.09079(9) 0.05812(19)
S2 S 0.2701(4) -0.05496(9) 0.0685(2)
O1 O 0.0842(13) 0.1783(2) 0.1094(6)
O2 O 0.4598(11) -0.1311(2) 0.1231(6)
N1 N 0.1020(14) 0.1519(3) 0.1777(7)
N2 N 0.5616(12) -0.0954(3) 0.1339(6)
C1 C 0.0929(19) 0.1689(4) 0.2590(9)
H1 H 0.07200 0.19920 0.26590
C2 C 0.113(2) 0.1437(4) 0.3306(8)
H2 H 0.10340 0.15610 0.38690
C3 C 0.1472(18) 0.1001(4) 0.3211(8)
H3 H 0.16650 0.08210 0.37050
C4 C 0.1533(17) 0.0827(4) 0.2386(8)
H4 H 0.17440 0.05230 0.23200
C5 C 0.1295(14) 0.1079(3) 0.1652(7)
C6 C 0.7352(16) -0.1000(4) 0.1654(7)
H5 H 0.78060 -0.12830 0.17850
C7 C 0.8443(16) -0.0651(4) 0.1783(8)
H6 H 0.96680 -0.06870 0.19930
C8 C 0.7768(18) -0.0243(5) 0.1608(8)
H7 H 0.85110 0.00080 0.17030
C9 C 0.6012(17) -0.0202(4) 0.1296(7)
H8 H 0.55420 0.00810 0.11830
C10 C 0.4892(15) -0.0558(3) 0.1137(7)
Na1 Na 0.2198(8) 0.25000 0.7517(4)
Na2 Na 0.0507(9) 0.25000 0.4692(4)
H9 H 0.21190 0.27030 0.93080
H10 H 0.48180 0.17950 0.79580
H11 H -0.24220 0.27080 0.35210
H12 H -0.04970 0.16400 0.52660
H13 H 0.43250 0.17750 0.71160
H14 H -0.17450 0.17760 0.46310
H15 H 0.39200 0.22830 0.40450
H16 H 0.32560 0.27060 0.58340
O3 O 0.4798(11) 0.1952(2) 0.7482(5)
O4 O 0.1689(19) 0.25000 0.9010(8)
O5 O 0.2426(17) 0.25000 0.5953(8)
O6 O -0.1180(13) 0.1871(3) 0.5094(5)
O7 O -0.1688(18) 0.25000 0.3558(9)
O8 O 0.3242(18) 0.25000 0.3877(9)
H17 H 0.30530 0.14270 0.58290
H18 H 0.47210 0.15110 0.54360
O9 O 0.3898(13) 0.1633(3) 0.5780(6)
H9G H 0.21190 0.22970 0.93080
H11G H -0.24220 0.22920 0.35210
H15G H 0.39200 0.27170 0.40450
H16G H 0.32560 0.22940 0.58340
H10G H 0.48180 0.32050 0.79580
H12G H -0.04970 0.33600 0.52660
H13G H 0.43250 0.32250 0.71160
H14G H -0.17450 0.32240 0.46310
O3G O 0.4798(11) 0.3048(2) 0.7482(5)
O6G O -0.1180(13) 0.3129(3) 0.5094(5)
Na1B Na 0.7198(8) 0.25000 0.7483(4)
O3B O -0.0202(11) 0.3048(2) 0.7518(5)
O3E O -0.0202(11) 0.1952(2) 0.7518(5)
#END
