
#######################################################################
#
#                 Cambridge Crystallographic Data Centre
#                                CCDC
#
#######################################################################
#
# If this CIF has been generated from an entry in the Cambridge
# Structural Database, then it will include bibliographic, chemical,
# crystal, experimental, refinement or atomic coordinate data resulting
# from the CCDC's data processing and validation procedures.
#
#######################################################################

data_CSD_CIF_DIHKOV
_audit_creation_date 2007-11-02
_audit_creation_method CSD-ConQuest-V1
_database_code_CSD DIHKOV
_database_code_depnum_ccdc_archive 'CCDC 610948'
_chemical_formula_sum 'C19 H30 N2 O20 Pb2 S2'
_chemical_formula_moiety
;
(C16 H6 O14 Pb2 S2 2-)n,n(C3 H12 N2 2+),6n(H2 O1)
;
_journal_coden_Cambridge 601
_journal_volume 28
_journal_year 2007
_journal_page_first 1434
_journal_name_full 'Gaodeng Xuexiao Huaxue Xuebao(Chin.)(Chem.J.Chin.Univ.(Chinese Edition)) '
loop_
_publ_author_name
"Kui-Rong Ma"
"Jia-Ning Xu"
"Li Wang"
"Jing Shi"
"Ying Wang"
"Jing Ha"
"De-Kuan Ning"
"Yong Fan"
"Tian-You Song"
_chemical_name_systematic
;
catena-(Propane-1,3-diammonium 
bis(\m~4~-5-(sulfato)benzene-1,3-dicarboxylato)-di-lead(ii) hexahydrate)
;
_cell_volume    748.977
_exptl_crystal_colour 'colorless'
_exptl_crystal_density_diffrn 2.392
_exptl_crystal_description 'block'
_diffrn_ambient_temperature 293
#These two values have been output from a single CSD field.
_refine_ls_R_factor_gt 0.0227
_refine_ls_wR_factor_gt 0.0227
_symmetry_cell_setting triclinic
_symmetry_space_group_name_H-M 'P 1'
_symmetry_Int_Tables_number 1
loop_
_symmetry_equiv_pos_site_id
_symmetry_equiv_pos_as_xyz
1 x,y,z
_cell_length_a 7.9946(16)
_cell_length_b 9.881(2)
_cell_length_c 10.343(2)
_cell_angle_alpha 81.25(3)
_cell_angle_beta 84.95(3)
_cell_angle_gamma 68.13(3)
_cell_formula_units_Z 1
loop_
_atom_type_symbol
_atom_type_radius_bond
C 0.68
H 0.23
N 0.68
O 0.68
Pb 1.64
S 1.02
loop_
_atom_site_label
_atom_site_type_symbol
_atom_site_fract_x
_atom_site_fract_y
_atom_site_fract_z
H1 H 0.858(9) 0.692(8) 0.366(7)
Pb1 Pb 0.28959(3) 0.79597(2) 0.79865(2)
Pb2 Pb 0.23714(3) 0.92939(2) 1.17059(2)
O1 O -0.0538(16) 0.9921(15) 0.7922(12)
C1 C 0.778(3) 0.358(3) 0.491(4)
H2 H 0.77360 0.40750 0.56600
H3 H 0.75490 0.26940 0.52510
C2 C 0.6279(11) 0.4471(10) 0.4198(9)
H4 H 0.62700 0.39690 0.34650
H5 H 0.64990 0.53570 0.38330
C3 C 0.956(2) 0.3107(19) 0.4464(15)
H6 H 0.98960 0.39680 0.42780
H7 H 0.96090 0.27480 0.36350
N1 N 0.454(3) 0.493(3) 0.474(2)
H8 H 0.37560 0.50920 0.41190
H9 H 0.43080 0.57500 0.50890
H10 H 0.44330 0.42280 0.53600
N2 N 1.0894(13) 0.2049(14) 0.5211(13)
H11 H 1.09190 0.23590 0.59710
H12 H 1.19560 0.18830 0.47870
H13 H 1.06680 0.12210 0.53580
O2 O 0.640(2) 0.030(2) 0.6754(15)
O3 O 0.896(2) 0.679(2) 0.2988(15)
O4 O 0.473(2) 0.782(2) 0.5440(14)
O5 O 0.0489(14) 0.9432(12) 0.4319(13)
S1 S -0.4853(5) 1.1093(5) 1.3301(4)
S2 S 1.0141(5) 0.6143(5) 0.6391(4)
O6 O 0.0647(15) 0.8901(14) 0.9864(12)
O7 O 0.4609(15) 0.8284(15) 0.9860(12)
O8 O -0.6731(16) 1.5770(14) 0.9591(13)
O9 O 0.2862(19) 0.0817(17) 0.7498(12)
C4 C -0.4252(18) 1.1594(18) 1.1666(15)
O10 O 1.1953(16) 0.1466(14) 1.0064(14)
C5 C 0.9393(18) 0.5725(16) 0.8047(14)
O11 O -0.5889(18) 1.0195(16) 1.3239(13)
O12 O 1.1169(17) 0.7115(17) 0.6406(12)
O13 O 0.2368(16) 0.6392(14) 0.2166(15)
O14 O 1.1209(19) 0.4773(16) 0.5943(15)
O15 O 1.0306(19) 0.2160(14) 1.1849(14)
C6 C -0.5165(17) 1.2922(18) 1.0981(15)
H14 H -0.61780 1.35780 1.13650
O16 O -0.5974(17) 1.2469(14) 1.3814(13)
C7 C 1.034(2) 0.4287(17) 0.8676(17)
H15 H 1.12630 0.36070 0.82410
O17 O -0.4891(18) 1.5144(15) 0.7900(12)
C8 C 0.8406(18) 0.4979(17) 1.0587(15)
H16 H 0.80730 0.47610 1.14550
C9 C 1.065(2) 0.2477(19) 1.0705(18)
C10 C 0.7980(18) 0.6657(17) 0.8606(16)
H17 H 0.73100 0.75310 0.81110
C11 C -0.315(2) 1.2292(17) 0.9158(14)
H18 H -0.28070 1.25380 0.83000
C12 C -0.2732(18) 1.0508(17) 1.1080(14)
H19 H -0.21310 0.95760 1.15180
C13 C 0.9829(19) 0.3930(17) 0.9972(16)
O18 O -0.3204(18) 1.032(2) 1.3987(13)
C14 C -0.461(2) 1.3313(19) 0.9719(18)
C15 C -0.2219(17) 1.0974(17) 0.9770(13)
O19 O 0.8502(16) 0.6926(19) 0.5690(12)
C16 C 0.7460(18) 0.6399(16) 0.9866(15)
C17 C -0.0630(18) 0.9843(17) 0.9123(15)
C18 C 0.584(2) 0.7375(18) 1.0530(16)
O20 O 0.5795(17) 0.7339(18) 1.1751(13)
C19 C -0.5566(18) 1.4890(15) 0.9049(14)
H20 H 0.572(12) 0.770(9) 0.549(8)
H21 H 0.376(11) 0.084(10) 0.747(8)
H22 H 0.451(10) 0.836(10) 0.490(8)
H23 H 0.269(12) 0.102(10) 0.816(9)
H24 H 1.014(5) 0.635(11) 0.276(9)
Pb1* Pb -0.71041(3) 1.79597(2) 0.79865(2)
Pb1** Pb 1.28959(3) 0.79597(2) 0.79865(2)
Pb2* Pb 1.23714(3) -0.07061(2) 1.17059(2)
Pb2** Pb -0.76286(3) 0.92939(2) 1.17059(2)
O8* O 0.3269(16) 0.5770(14) 0.9591(13)
O10* O 0.1953(16) 1.1466(14) 1.0064(14)
O11* O 0.4111(18) 1.0195(16) 1.3239(13)
O12* O 0.1169(17) 0.7115(17) 0.6406(12)
O15* O 0.0306(19) 1.2160(14) 1.1849(14)
O17* O 0.5109(18) 0.5144(15) 0.7900(12)
#END
