
#######################################################################
#
#                 Cambridge Crystallographic Data Centre
#                                CCDC
#
#######################################################################
#
# If this CIF has been generated from an entry in the Cambridge
# Structural Database, then it will include bibliographic, chemical,
# crystal, experimental, refinement or atomic coordinate data resulting
# from the CCDC's data processing and validation procedures.
#
#######################################################################

data_CSD_CIF_DIHXOI
_audit_creation_date 2007-11-02
_audit_creation_method CSD-ConQuest-V1
_database_code_CSD DIHXOI
_database_code_depnum_ccdc_archive 'CCDC 617063'
_chemical_formula_sum 'C18 H40 Co1 Mo7 N12 O30'
_chemical_formula_moiety
;
(C6 H12 Co1 Mo7 N4 O26 4-)n,4n(C3 H5 N2 1+),4n(H2 O1)
;
_journal_coden_Cambridge 1295
_journal_volume 10
_journal_year 2007
_journal_page_first 757
_journal_name_full 'Inorg.Chem.Commun. '
loop_
_publ_author_name
"Cui-hua Tian"
"Zhen-gang Sun"
"Jing Li"
"Xue-fang Zheng"
"Hai-dong Liang"
"Lan-cui Zhang"
"Wan-sheng You"
"Zai-ming Zhu"
_chemical_name_systematic
;
catena-(tetrakis(Imidazolium) 
bis(\m~4~-oxo)-bis(\m~3~-oxo)-decakis(\m~2~-oxo)-decaoxo-diaqua-bis(imidazole)
-cobalt(ii)-hepta-molybdenum tetrahydrate)
;
_cell_volume   4669.648
_exptl_crystal_colour 'orange'
_exptl_crystal_density_diffrn 2.326
_exptl_crystal_description 'block'
_diffrn_ambient_temperature 295
#These two values have been output from a single CSD field.
_refine_ls_R_factor_gt 0.0594
_refine_ls_wR_factor_gt 0.0594
_symmetry_cell_setting monoclinic
_symmetry_space_group_name_H-M 'P 21/c'
_symmetry_Int_Tables_number 14
loop_
_symmetry_equiv_pos_site_id
_symmetry_equiv_pos_as_xyz
1 x,y,z
2 -x,1/2+y,1/2-z
3 -x,-y,-z
4 x,-1/2-y,-1/2+z
_cell_length_a 12.162(4)
_cell_length_b 16.381(5)
_cell_length_c 23.781(8)
_cell_angle_alpha 90
_cell_angle_beta 99.729(5)
_cell_angle_gamma 90
_cell_formula_units_Z 4
loop_
_atom_type_symbol
_atom_type_radius_bond
C 0.68
H 0.23
Co 1.33
Mo 1.37
N 0.68
O 0.73
loop_
_atom_site_label
_atom_site_type_symbol
_atom_site_fract_x
_atom_site_fract_y
_atom_site_fract_z
Mo1 Mo 0.82033(7) 0.18308(5) 0.91377(3)
Mo2 Mo 0.58097(7) 0.29290(5) 0.90674(3)
Mo3 Mo 0.56569(7) 0.09340(5) 0.90189(3)
Mo4 Mo 0.78782(7) 0.09168(5) 0.78425(3)
Mo5 Mo 0.81073(7) 0.29029(5) 0.78987(3)
Mo6 Mo 0.77643(7) -0.02088(5) 0.89423(3)
Mo7 Mo 0.81029(7) 0.39006(5) 0.90491(3)
Co1 Co 0.41596(11) 0.45393(8) 0.81181(5)
O1 O 0.8795(5) 0.1829(3) 0.8442(2)
O2 O 0.6853(5) 0.1883(3) 0.9431(2)
O3 O 0.7107(5) 0.0945(3) 0.8589(2)
O4 O 0.8821(6) 0.0964(4) 0.9458(3)
O5 O 0.8940(5) 0.2633(4) 0.9498(3)
O6 O 0.7263(5) 0.2865(4) 0.8629(3)
O7 O 0.6990(5) 0.3622(4) 0.9504(2)
O8 O 0.5149(6) 0.3653(4) 0.8603(3)
O9 O 0.5204(5) 0.1968(4) 0.8631(3)
O10 O 0.5041(6) 0.2872(4) 0.9600(3)
O11 O 0.6725(5) 0.0150(4) 0.9424(3)
O12 O 0.4877(6) 0.0989(4) 0.9554(3)
O13 O 0.4911(5) 0.0326(4) 0.8513(3)
O14 O 0.7221(5) 0.1953(3) 0.7607(3)
O15 O 0.8658(5) 0.0085(4) 0.8377(3)
O16 O 0.6858(6) 0.0317(4) 0.7461(3)
O17 O 0.8957(6) 0.0919(4) 0.7457(3)
O18 O 0.8998(5) 0.3574(4) 0.8485(3)
O19 O 0.7257(6) 0.3617(4) 0.7532(3)
O20 O 0.9184(6) 0.2781(4) 0.7519(3)
O21 O 0.6949(6) -0.0947(4) 0.8578(3)
O22 O 0.8721(6) -0.0713(4) 0.9427(3)
O23 O 0.7492(5) 0.4722(4) 0.8700(3)
O24 O 0.9128(6) 0.4301(4) 0.9572(3)
O25 O 0.3591(6) 0.3587(4) 0.7547(3)
H1 H 0.30140 0.33740 0.76440
H2 H 0.34270 0.37790 0.72110
O26 O 0.5457(6) 0.4715(4) 0.7608(3)
H3 H 0.58800 0.51030 0.77490
H4 H 0.58360 0.42790 0.76110
O27 O 0.5197(9) 0.8433(6) 0.9279(4)
H5 H 0.47550 0.85270 0.95130
H6 H 0.58670 0.84590 0.94530
O28 O 0.6773(7) 0.6210(5) 0.7897(3)
H7 H 0.71770 0.59980 0.76770
H8 H 0.64870 0.66510 0.77500
O29 O 0.4958(7) 0.2295(5) 0.7524(3)
H9 H 0.43640 0.20250 0.74150
H10 H 0.53020 0.23610 0.72440
O30 O 0.0861(15) 0.0352(13) 0.7090(9)
H11 H 0.12860 0.00400 0.69380
H12 H 0.06720 0.01150 0.73770
N1 N 0.4766(6) 0.5479(5) 0.8674(3)
N2 N 0.5037(8) 0.6714(5) 0.9044(4)
H13 H 0.49890 0.72330 0.90880
N3 N 0.2846(7) 0.4324(5) 0.8555(4)
N4 N 0.1178(9) 0.4085(6) 0.8736(5)
H14 H 0.04790 0.39680 0.86810
N5 N 0.8809(11) 0.0122(7) 0.0685(6)
H15 H 0.92510 0.01100 0.04380
N6 N 0.8214(11) 0.0147(7) 0.1459(5)
H16 H 0.81850 0.01460 0.18170
N7 N 0.8256(9) 0.6587(7) 0.8860(4)
H17 H 0.77850 0.63770 0.85890
N8 N 0.9515(8) 0.6698(6) 0.9584(4)
H18 H 1.00230 0.65670 0.98660
N9 N 0.7540(13) 0.2573(10) 0.5738(7)
H19 H 0.71980 0.29480 0.55240
N10 N 0.8176(11) 0.1445(9) 0.6036(6)
H20 H 0.83450 0.09340 0.60570
N11 N 0.1907(16) 0.1886(10) 0.8149(9)
H21 H 0.18610 0.18150 0.77870
N12 N 0.1492(14) 0.200(1) 0.8975(9)
H22 H 0.11100 0.20150 0.92490
C1 C 0.4508(10) 0.6270(7) 0.8611(5)
H23 H 0.40180 0.64850 0.83040
C2 C 0.5669(9) 0.6184(7) 0.9402(4)
H24 H 0.61270 0.63180 0.97440
C3 C 0.5517(8) 0.5439(7) 0.9177(4)
H25 H 0.58630 0.49660 0.93350
C4 C 0.1837(9) 0.4115(7) 0.8339(5)
H26 H 0.15980 0.40000 0.79550
C5 C 0.1819(12) 0.4273(9) 0.9237(6)
H27 H 0.15900 0.43010 0.95910
C6 C 0.2847(10) 0.4411(8) 0.9131(5)
H28 H 0.34650 0.45440 0.94030
C7 C 0.9138(8) 0.0104(6) 0.1228(4)
H29 H 0.98690 0.00680 0.14200
C8 C 0.7330(9) 0.0193(7) 0.1030(5)
H30 H 0.65850 0.02390 0.10710
C9 C 0.7711(7) 0.0162(5) 0.0550(4)
H31 H 0.72920 0.01670 0.01850
C10 C 0.8915(9) 0.6188(6) 0.9240(5)
H32 H 0.89590 0.56220 0.92670
C11 C 0.9205(13) 0.7477(7) 0.9421(6)
H33 H 0.94860 0.79560 0.96000
C12 C 0.8428(12) 0.7418(8) 0.8960(7)
H34 H 0.80710 0.78460 0.87460
C13 C 0.7668(9) 0.1806(6) 0.5580(4)
H35 H 0.74430 0.15790 0.52200
C14 C 0.8397(9) 0.1957(7) 0.6460(5)
H36 H 0.87600 0.18260 0.68250
C15 C 0.8036(14) 0.2675(9) 0.6296(5)
H37 H 0.80980 0.31550 0.65080
C16 C 0.1041(9) 0.1927(7) 0.8458(6)
H38 H 0.02810 0.19050 0.83140
C17 C 0.2594(14) 0.2053(10) 0.9065(6)
H39 H 0.30840 0.21210 0.94070
C18 C 0.2820(12) 0.1980(7) 0.8531(5)
H40 H 0.35360 0.19950 0.84430
Co1A Co 0.58404(11) -0.04607(8) 0.68819(5)
O16A O 0.3142(6) 0.5317(4) 0.7539(3)
#END
