
#######################################################################
#
#                 Cambridge Crystallographic Data Centre
#                                CCDC
#
#######################################################################
#
# If this CIF has been generated from an entry in the Cambridge
# Structural Database, then it will include bibliographic, chemical,
# crystal, experimental, refinement or atomic coordinate data resulting
# from the CCDC's data processing and validation procedures.
#
#######################################################################

data_CSD_CIF_DILHUD
_audit_creation_date 2013-11-07
_audit_creation_method CSD-ConQuest-V1
_database_code_CSD DILHUD
_database_code_depnum_ccdc_archive 'CCDC 943574'
_chemical_formula_sum 'C29 H30 In1 N3 O9'
_chemical_formula_moiety
;
(C24 H15 In1 N1 O8 1-)n,n(C2 H8 N1 1+),n(C3 H7 N1 O1)
;
_journal_coden_Cambridge 1147
_journal_volume 13
_journal_year 2013
_journal_page_first 4092
_journal_name_full 'Cryst.Growth Des. '
loop_
_publ_author_name
"Da-Shu Chen"
"Li-Bo Sun"
"Zhi-Qiang Liang"
"Kui-Zhan Shao"
"Chun-Gang Wang"
"Zhong-Min Su"
"Hong-Zhu Xing"
_chemical_name_systematic
;
catena-[dimethylammonium 
(\m~4~-5-(bis(3-carboxylatobenzyl)amino)benzene-1,3-dicarboxylato)-indium 
N,N-dimethylformamide solvate]
;
_cell_volume   3030.299
_exptl_crystal_colour 'colorless'
_exptl_crystal_density_diffrn 1.489
_exptl_crystal_description 'leaf-like'
_diffrn_ambient_temperature 296
#These two values have been output from a single CSD field.
_refine_ls_R_factor_gt 0.0482
_refine_ls_wR_factor_gt 0.0482
_symmetry_cell_setting monoclinic
_symmetry_space_group_name_H-M 'P 21/c'
_symmetry_Int_Tables_number 14
loop_
_symmetry_equiv_pos_site_id
_symmetry_equiv_pos_as_xyz
1 x,y,z
2 -x,1/2+y,1/2-z
3 -x,-y,-z
4 x,-1/2-y,-1/2+z
_cell_length_a 9.8392(12)
_cell_length_b 21.748(3)
_cell_length_c 15.1973(16)
_cell_angle_alpha 90
_cell_angle_beta 111.277(6)
_cell_angle_gamma 90
_cell_formula_units_Z 4
loop_
_atom_type_symbol
_atom_type_radius_bond
C 0.68
H 0.23
In 1.42
N 0.68
O 0.68
loop_
_atom_site_label
_atom_site_type_symbol
_atom_site_fract_x
_atom_site_fract_y
_atom_site_fract_z
In1 In 0.72861(4) -0.135455(18) 0.25094(3)
O1 O 0.5934(4) -0.21633(18) 0.2573(3)
O2 O -0.0302(4) -0.1337(2) 0.2607(4)
O3 O -0.1578(4) -0.35610(19) -0.0868(3)
O4 O 0.6050(5) -0.3535(2) 0.5855(3)
O5 O 0.4860(4) -0.1288(2) 0.2527(3)
O6 O -0.1462(4) -0.2194(2) 0.2285(3)
C1 C -0.0309(7) -0.1892(3) 0.2443(5)
C2 C 0.2314(6) -0.3183(2) 0.2499(4)
C3 C 0.2269(6) -0.1883(2) 0.2514(4)
H1 H 0.22570 -0.14560 0.25260
C4 C 0.3502(6) -0.2200(2) 0.2532(4)
O7 O -0.2467(4) -0.44322(18) -0.1526(3)
C5 C 0.3527(6) -0.2832(3) 0.2544(4)
H2 H 0.43820 -0.30330 0.25850
C6 C 0.4826(6) -0.1851(3) 0.2548(4)
O8 O 0.7175(5) -0.4370(2) 0.6469(3)
C7 C 0.0058(6) -0.4440(3) 0.1820(4)
C8 C 0.1053(6) -0.2221(3) 0.2477(4)
C9 C -0.1424(6) -0.4417(3) 0.0146(5)
C10 C 0.1053(6) -0.2858(3) 0.2445(4)
H3 H 0.02070 -0.30730 0.23870
C11 C 0.6474(7) -0.4064(3) 0.5761(5)
C12 C -0.0337(6) -0.4171(3) 0.0944(4)
H4 H 0.01340 -0.38130 0.08790
C13 C 0.5043(6) -0.4100(3) 0.4017(4)
H5 H 0.44690 -0.37800 0.40930
C14 C 0.4741(6) -0.4349(3) 0.3124(5)
N1 N 0.2331(5) -0.38138(18) 0.2483(4)
C15 C 0.3452(6) -0.4149(3) 0.2277(4)
H6 H 0.38040 -0.38920 0.18820
H7 H 0.30120 -0.45110 0.19120
C16 C 0.6174(6) -0.4316(3) 0.4793(5)
C17 C 0.1259(6) -0.4187(3) 0.2680(4)
H8 H 0.08180 -0.39420 0.30390
H9 H 0.17560 -0.45290 0.30760
C18 C -0.1834(6) -0.4124(3) -0.0796(5)
C19 C 0.7069(8) -0.4777(4) 0.4689(5)
H10 H 0.78340 -0.49250 0.52110
C20 C -0.0677(8) -0.4959(3) 0.1902(6)
H11 H -0.04340 -0.51470 0.24890
C21 C -0.2120(8) -0.4943(3) 0.0262(5)
H12 H -0.28380 -0.51190 -0.02580
C22 C 0.5642(8) -0.4808(3) 0.3033(5)
H13 H 0.54600 -0.49830 0.24420
C23 C 0.6812(10) -0.5017(4) 0.3798(6)
H14 H 0.74260 -0.53180 0.37150
C24 C -0.1771(8) -0.5211(3) 0.1133(5)
H15 H -0.22670 -0.55600 0.12060
N2 N 0.6054(7) -0.2123(3) 0.5902(5)
H16 H 0.65160 -0.24370 0.62760
H17 H 0.50920 -0.21730 0.57700
C25 C 0.6315(10) -0.2165(4) 0.5038(7)
H18 H 0.59690 -0.25550 0.47430
H19 H 0.73420 -0.21310 0.51670
H20 H 0.58080 -0.18390 0.46220
C26 C 0.6515(10) -0.1545(4) 0.6442(8)
H21 H 0.62650 -0.15590 0.69960
H22 H 0.60280 -0.12030 0.60550
H23 H 0.75510 -0.14960 0.66240
N3 N 0.1336(14) -0.2823(5) 0.4928(7)
O9 O 0.3132(8) -0.2039(5) 0.5220(5)
C27 C 0.2431(12) -0.3228(5) 0.5095(7)
H24 H 0.20500 -0.36380 0.50410
H25 H 0.31310 -0.31660 0.57210
H26 H 0.28940 -0.31690 0.46440
C28 C -0.0175(11) -0.2882(5) 0.4661(7)
H27 H -0.04280 -0.33100 0.46280
H28 H -0.06480 -0.26960 0.40530
H29 H -0.04870 -0.26810 0.51170
C29 C 0.1821(16) -0.2221(8) 0.4984(9)
H30 H 0.11090 -0.19160 0.48330
In1* In -0.27139(4) -0.135455(18) 0.25094(3)
In1C In -0.27139(4) -0.364545(18) -0.24906(3)
In1C* In 0.72861(4) -0.364545(18) 0.75094(3)
O2* O 0.9698(4) -0.1337(2) 0.2607(4)
O3C O 0.8422(4) -0.14390(19) 0.4132(3)
O4C O 0.6050(5) -0.1465(2) 0.0855(3)
O6* O 0.8538(4) -0.2194(2) 0.2285(3)
O7C O 0.7533(4) -0.05678(18) 0.3474(3)
O8C O 0.7175(5) -0.0630(2) 0.1469(3)
#END
