
#######################################################################
#
#                 Cambridge Crystallographic Data Centre
#                                CCDC
#
#######################################################################
#
# If this CIF has been generated from an entry in the Cambridge
# Structural Database, then it will include bibliographic, chemical,
# crystal, experimental, refinement or atomic coordinate data resulting
# from the CCDC's data processing and validation procedures.
#
#######################################################################

data_CSD_CIF_DILJEP
_audit_creation_date 2013-11-07
_audit_creation_method CSD-ConQuest-V1
_database_code_CSD DILJEP
_database_code_depnum_ccdc_archive 'CCDC 943576'
_chemical_formula_sum 'C62 H76 Cd2 N8 O18'
_chemical_formula_moiety
;
(C48 H30 Cd2 N2 O16 4-)n,4n(C2 H8 N1 1+),2n(C3 H7 N1 O1)
;
_journal_coden_Cambridge 1147
_journal_volume 13
_journal_year 2013
_journal_page_first 4092
_journal_name_full 'Cryst.Growth Des. '
loop_
_publ_author_name
"Da-Shu Chen"
"Li-Bo Sun"
"Zhi-Qiang Liang"
"Kui-Zhan Shao"
"Chun-Gang Wang"
"Zhong-Min Su"
"Hong-Zhu Xing"
_chemical_name_systematic
;
catena-[tetrakis(dimethylammonium) 
bis(\m~4~-5-(bis(3-carboxylatobenzyl)amino)benzene-1,3-dicarboxylato)-di-cadmi
um N,N-dimethylformamide solvate]
;
_cell_volume   6484.028
_exptl_crystal_colour 'colorless'
_exptl_crystal_density_diffrn 1.481
_exptl_crystal_description 'leaf-like'
_diffrn_ambient_temperature 296
#These two values have been output from a single CSD field.
_refine_ls_R_factor_gt 0.0643
_refine_ls_wR_factor_gt 0.0643
_symmetry_cell_setting monoclinic
_symmetry_space_group_name_H-M 'P 21/c'
_symmetry_Int_Tables_number 14
loop_
_symmetry_equiv_pos_site_id
_symmetry_equiv_pos_as_xyz
1 x,y,z
2 -x,1/2+y,1/2-z
3 -x,-y,-z
4 x,-1/2-y,-1/2+z
_cell_length_a 15.972(2)
_cell_length_b 21.984(3)
_cell_length_c 20.090(3)
_cell_angle_alpha 90
_cell_angle_beta 113.194(2)
_cell_angle_gamma 90
_cell_formula_units_Z 4
loop_
_atom_type_symbol
_atom_type_radius_bond
C 0.68
H 0.23
Cd 1.44
N 0.68
O 0.68
loop_
_atom_site_label
_atom_site_type_symbol
_atom_site_fract_x
_atom_site_fract_y
_atom_site_fract_z
Cd1 Cd -0.68775(3) 0.36469(2) -0.08075(3)
Cd2 Cd -0.19266(3) 0.37686(2) 0.41686(3)
O1 O -0.5721(3) 0.3547(3) 0.0312(3)
O2 O -1.0648(4) 0.1228(2) 0.0320(3)
C1 C -1.0721(5) 0.1786(3) 0.0351(4)
O3 O -0.7843(3) 0.3541(2) -0.0070(3)
O4 O -0.2676(4) 0.0451(3) -0.0534(3)
O5 O -0.5684(3) 0.1416(2) 0.3727(3)
O6 O -1.1169(3) 0.4507(2) 0.3818(3)
C2 C -0.9459(4) 0.3080(3) 0.1631(4)
C3 C -0.4298(5) 0.1835(3) 0.1803(4)
O7 O -1.1302(3) 0.2102(2) -0.0133(3)
O8 O -0.7940(3) 0.1252(2) 0.2740(3)
O9 O -0.2903(4) 0.1313(3) -0.0071(3)
C4 C -0.3785(4) 0.2251(3) 0.2358(4)
H1 H -0.33800 0.21010 0.28000
N1 N -0.4168(4) 0.1206(3) 0.1920(3)
C5 C -1.0710(5) 0.4153(3) 0.3613(4)
O10 O -1.0821(4) 0.3593(2) 0.3567(3)
O11 O -0.7863(3) 0.2033(2) 0.3446(3)
O12 O -0.6198(4) 0.2628(3) -0.0102(3)
O13 O -0.3181(4) 0.3828(2) 0.2675(3)
O14 O -0.2930(3) 0.3075(2) 0.3461(2)
C6 C -1.0042(4) 0.2751(3) 0.1042(4)
H2 H -1.04430 0.29610 0.06420
C7 C -0.3284(5) 0.3287(3) 0.2837(4)
C8 C -1.0052(4) 0.2123(3) 0.1028(4)
C9 C -0.3874(4) 0.2876(3) 0.2255(4)
N2 N -0.9477(4) 0.3706(3) 0.1616(3)
C10 C -0.9720(4) 0.4131(3) 0.2889(4)
H3 H -1.00010 0.37690 0.26770
C11 C -0.8873(4) 0.2115(3) 0.2203(4)
C12 C -0.9451(4) 0.1800(3) 0.1622(3)
H4 H -0.94460 0.13770 0.16210
C13 C -0.8787(5) 0.4072(3) 0.2122(4)
H5 H -0.86170 0.43850 0.18590
H6 H -0.82550 0.38200 0.23660
O15 O -0.6039(3) 0.0514(2) 0.4018(3)
C14 C -0.5037(4) 0.2711(3) 0.1062(4)
C15 C -0.4524(5) 0.3103(3) 0.1598(4)
H7 H -0.46050 0.35200 0.15270
C16 C -0.9199(5) 0.4092(3) -0.0369(4)
C17 C -0.4460(4) 0.0869(3) 0.3206(4)
H8 H -0.47220 0.12340 0.29890
C18 C -0.8877(4) 0.2746(3) 0.2214(4)
H9 H -0.84800 0.29500 0.26230
C19 C -0.5696(5) 0.2988(4) 0.0377(4)
C20 C -0.9984(4) 0.4417(3) 0.3400(4)
C21 C -0.8294(5) 0.3967(4) -0.0422(4)
C22 C -0.9285(5) 0.3984(3) 0.0281(4)
H10 H -0.87950 0.38340 0.06780
C23 C -0.5543(5) 0.0858(3) 0.3813(4)
C24 C -0.3458(5) 0.0925(3) 0.2529(4)
H11 H -0.30130 0.12330 0.27830
H12 H -0.31530 0.06260 0.23480
C25 C -0.3440(5) 0.0399(4) 0.0263(4)
C26 C -0.2987(5) 0.0759(4) -0.0147(5)
C27 C -0.9049(5) 0.4376(3) 0.2693(4)
C28 C -0.3765(5) 0.0619(3) 0.3059(4)
C29 C -0.4786(5) 0.0762(3) 0.1412(4)
H13 H -0.53000 0.09760 0.10580
H14 H -0.50180 0.04880 0.16760
C30 C -1.0216(5) 0.4034(3) 0.1052(4)
H15 H -1.02580 0.44370 0.12350
H16 H -1.07830 0.38250 0.09690
C31 C -0.4927(5) 0.2091(3) 0.1153(4)
H17 H -0.52740 0.18350 0.07780
C32 C -0.4369(5) 0.0039(3) 0.4010(4)
H18 H -0.45690 -0.01540 0.43320
C33 C -0.8181(5) 0.1771(3) 0.2841(4)
C34 C -0.9545(5) 0.4947(3) 0.3733(4)
H19 H -0.97200 0.51450 0.40670
C35 C -0.3378(5) 0.0092(3) 0.3395(5)
H20 H -0.28960 -0.00720 0.33050
C36 C -0.4770(4) 0.0581(3) 0.3671(4)
C37 C -0.4308(5) 0.0393(3) 0.1018(4)
C38 C -0.9970(5) 0.4317(3) -0.0983(4)
H21 H -0.99160 0.43890 -0.14200
O16 O -0.8050(4) 0.4295(3) -0.0830(3)
C39 C -0.3873(5) 0.0719(4) 0.0628(4)
H22 H -0.38810 0.11420 0.06190
C40 C -1.0890(5) 0.4326(3) -0.0289(4)
H23 H -1.14480 0.44000 -0.02600
C41 C -0.8840(6) 0.5182(3) 0.3564(5)
H24 H -0.85280 0.55280 0.37980
C42 C -1.0133(5) 0.4107(3) 0.0333(4)
C43 C -0.3672(6) -0.0201(3) 0.3856(5)
H25 H -0.34020 -0.05660 0.40680
C44 C -1.0785(5) 0.4423(4) -0.0918(4)
H26 H -1.12770 0.45660 -0.13180
C45 C -0.8607(5) 0.4899(3) 0.3049(4)
H27 H -0.81410 0.50620 0.29370
C46 C -0.4293(6) -0.0255(4) 0.1027(5)
H28 H -0.45440 -0.04700 0.13020
C47 C -0.3457(6) -0.0249(4) 0.0269(5)
H29 H -0.31600 -0.04640 0.00280
C48 C -0.3903(6) -0.0560(4) 0.0625(5)
H30 H -0.39420 -0.09820 0.05930
N3 N -0.6865(4) -0.0572(3) 0.3526(3)
H31 H -0.65650 -0.02170 0.35730
H32 H -0.67430 -0.08010 0.32030
C49 C -0.7830(5) -0.0451(4) 0.3247(4)
H33 H -0.80110 -0.02430 0.27910
H34 H -0.79650 -0.02010 0.35840
H35 H -0.81560 -0.08280 0.31790
C50 C -0.6520(7) -0.0889(4) 0.4235(5)
H36 H -0.58760 -0.09560 0.43930
H37 H -0.68250 -0.12730 0.41860
H38 H -0.66350 -0.06440 0.45860
N4 N -0.1569(5) 0.2224(3) 0.2208(4)
O17 O -0.2213(6) 0.2889(4) 0.1256(4)
C51 C -0.1798(8) 0.2786(5) 0.1902(8)
H39 H -0.16230 0.31200 0.22110
C52 C -0.1828(9) 0.1730(5) 0.1741(7)
H40 H -0.16330 0.13610 0.20130
H41 H -0.15520 0.17620 0.13950
H42 H -0.24790 0.17270 0.14910
C53 C -0.1095(8) 0.2137(5) 0.3008(6)
H43 H -0.09820 0.25260 0.32440
H44 H -0.05280 0.19300 0.31140
H45 H -0.14730 0.18980 0.31790
N5 N -1.2050(4) 0.5585(3) 0.3446(3)
H46 H -1.17740 0.52270 0.34530
H47 H -1.19170 0.58330 0.31450
C54 C -1.1646(6) 0.5851(4) 0.4190(4)
H48 H -1.10020 0.59050 0.43310
H49 H -1.17530 0.55820 0.45250
H50 H -1.19230 0.62380 0.41920
C55 C -1.3069(6) 0.5479(4) 0.3132(5)
H51 H -1.32530 0.53120 0.26530
H52 H -1.33770 0.58580 0.31090
H53 H -1.32210 0.51990 0.34330
N6 N -0.8082(4) 0.2269(3) -0.0315(4)
H54 H -0.76970 0.23140 0.01510
H55 H -0.79880 0.25860 -0.05610
C56 C -0.7818(7) 0.1717(4) -0.0587(5)
H56 H -0.71910 0.17460 -0.05220
H57 H -0.81930 0.16710 -0.10930
H58 H -0.78980 0.13710 -0.03260
C57 C -0.8986(7) 0.2319(5) -0.0346(7)
H59 H -0.90560 0.27040 -0.01460
H60 H -0.90990 0.19960 -0.00710
H61 H -0.94120 0.22930 -0.08400
N7 N -0.3054(5) 0.2584(3) -0.0256(4)
H62 H -0.27350 0.25300 0.02220
H63 H -0.29220 0.22690 -0.04840
C58 C -0.2728(7) 0.3124(4) -0.0466(5)
H64 H -0.20880 0.30850 -0.03520
H65 H -0.28310 0.34650 -0.02090
H66 H -0.30470 0.31860 -0.09770
C59 C -0.4021(7) 0.2550(5) -0.0394(7)
H67 H -0.41480 0.21650 -0.02260
H68 H -0.43770 0.25880 -0.09040
H69 H -0.41750 0.28730 -0.01410
N8 N -0.6536(5) 0.2805(4) 0.2128(5)
O18 O -0.7139(5) 0.2168(5) 0.1229(4)
C60 C -0.6667(12) 0.3271(10) 0.1830(12)
H70 H -0.64190 0.35910 0.21770
H71 H -0.73100 0.33310 0.15750
H72 H -0.63790 0.32750 0.14910
C61 C -0.6586(12) 0.2210(8) 0.2074(10)
H73 H -0.63650 0.19080 0.24240
C62 C -0.6178(15) 0.2894(10) 0.2861(11)
H74 H -0.60670 0.25080 0.31030
H75 H -0.66000 0.31240 0.29940
H76 H -0.56150 0.31140 0.30000
Cd1C Cd -0.68775(3) 0.13531(2) 0.41925(3)
Cd2* Cd -1.19266(3) 0.37686(2) 0.41686(3)
Cd2C Cd -1.19266(3) 0.12314(2) -0.08314(3)
Cd2C* Cd -0.19266(3) 0.12314(2) -0.08314(3)
O2C O -0.0648(4) 0.3772(2) 0.5320(3)
O4C O -0.2676(4) 0.4549(3) 0.4466(3)
O5C O -0.5684(3) 0.3584(2) -0.1273(3)
O6* O -0.1169(3) 0.4507(2) 0.3818(3)
O7C O -0.1302(3) 0.2898(2) 0.4867(3)
O8C O -0.7940(3) 0.3748(2) -0.2260(3)
O9C O -0.2903(4) 0.3687(3) 0.4929(3)
O10* O -0.0821(4) 0.3593(2) 0.3567(3)
O11C O -0.7863(3) 0.2967(2) -0.1554(3)
O15C O -0.6039(3) 0.4486(2) -0.0982(3)
#END
