
#######################################################################
#
#                 Cambridge Crystallographic Data Centre
#                                CCDC
#
#######################################################################
#
# If this CIF has been generated from an entry in the Cambridge
# Structural Database, then it will include bibliographic, chemical,
# crystal, experimental, refinement or atomic coordinate data resulting
# from the CCDC's data processing and validation procedures.
#
#######################################################################

data_CSD_CIF_DILJUF
_audit_creation_date 2013-11-07
_audit_creation_method CSD-ConQuest-V1
_database_code_CSD DILJUF
_database_code_depnum_ccdc_archive 'CCDC 943579'
_chemical_formula_sum 'C31 H39.5 Cd1 N3.5 O9'
_chemical_formula_moiety
;
(C24 H15 Cd1 N1 O8 1-)n,n(C4 H12 N1 1+),n(H2 O1),1.5n(C2 H7 N1)
;
_journal_coden_Cambridge 1147
_journal_volume 13
_journal_year 2013
_journal_page_first 4092
_journal_name_full 'Cryst.Growth Des. '
loop_
_publ_author_name
"Da-Shu Chen"
"Li-Bo Sun"
"Zhi-Qiang Liang"
"Kui-Zhan Shao"
"Chun-Gang Wang"
"Zhong-Min Su"
"Hong-Zhu Xing"
_chemical_name_systematic
;
catena-[diethylammonium 
(\m~4~-5-(bis(3-carboxylatobenzyl)amino)benzene-1,3-dicarboxylato)-cadmium 
ethylamine monohydrate]
;
_cell_volume   3276.285
_exptl_crystal_colour 'laurel green'
_exptl_crystal_density_diffrn 1.462
_exptl_special_details
;
The stoichiometry has been assigned to balance the charges and is 
inconsistent with the paper
;
_exptl_crystal_description 'plate-like'
_diffrn_ambient_temperature 293
_refine_special_details
;
N3 disordered by symmetry over two sites with occupancy 0.50.

;
#These two values have been output from a single CSD field.
_refine_ls_R_factor_gt 0.0792
_refine_ls_wR_factor_gt 0.0792
_symmetry_cell_setting monoclinic
_symmetry_space_group_name_H-M 'P 21/c'
_symmetry_Int_Tables_number 14
loop_
_symmetry_equiv_pos_site_id
_symmetry_equiv_pos_as_xyz
1 x,y,z
2 -x,1/2+y,1/2-z
3 -x,-y,-z
4 x,-1/2-y,-1/2+z
_cell_length_a 10.2101(11)
_cell_length_b 21.649(2)
_cell_length_c 15.8443(14)
_cell_angle_alpha 90
_cell_angle_beta 110.692(6)
_cell_angle_gamma 90
_cell_formula_units_Z 4
loop_
_atom_type_symbol
_atom_type_radius_bond
C 0.68
H 0.23
Cd 1.44
N 0.68
O 0.68
loop_
_atom_site_label
_atom_site_type_symbol
_atom_site_fract_x
_atom_site_fract_y
_atom_site_fract_z
Cd1 Cd 0.11600(8) -0.35592(3) 0.40503(5)
N1 N -0.3827(9) -0.1111(5) 0.4134(5)
O1 O -0.7600(11) -0.1578(4) 0.0960(6)
O2 O -0.0278(9) -0.2725(4) 0.4041(6)
O3 O -0.1143(10) -0.3609(4) 0.4289(7)
O4 O -0.0127(10) -0.1409(4) 0.7374(6)
O5 O 0.0773(9) -0.0564(4) 0.8124(5)
O6 O -0.8193(9) -0.0725(4) 0.0135(5)
O7 O -0.7271(12) -0.2830(5) 0.3973(12)
O8 O -0.6257(15) -0.3646(6) 0.4013(15)
C1 C -0.3743(7) -0.3052(3) 0.4097(5)
H1 H -0.37210 -0.34810 0.40920
C2 C -0.4962(7) -0.2746(3) 0.4045(5)
C3 C -0.4994(7) -0.2105(3) 0.4053(4)
H2 H -0.58110 -0.19000 0.40190
C4 C -0.3805(7) -0.1770(3) 0.4113(4)
C5 C -0.2586(7) -0.2077(3) 0.4164(4)
H3 H -0.17890 -0.18520 0.42040
C6 C -0.2555(7) -0.2716(3) 0.4156(5)
C7 C -0.1257(12) -0.3047(6) 0.4165(7)
C8 C -0.1861(7) -0.0409(3) 0.4964(4)
C9 C -0.1265(8) -0.0754(3) 0.5746(4)
H4 H -0.13700 -0.11810 0.57300
C10 C -0.0513(9) -0.0461(3) 0.6550(4)
C11 C -0.0356(9) 0.0176(4) 0.6574(5)
H5 H 0.01480 0.03730 0.71130
C12 C -0.0952(9) 0.0520(3) 0.5792(5)
H6 H -0.08460 0.09470 0.58080
C13 C -0.1704(8) 0.0227(3) 0.4988(4)
H7 H -0.21040 0.04580 0.44650
C14 C -0.4995(11) -0.0754(5) 0.4197(7)
H8 H -0.46360 -0.04220 0.46280
H9 H -0.55680 -0.10180 0.44210
C15 C -0.5906(8) -0.0480(3) 0.3287(4)
C16 C -0.6229(8) 0.0140(3) 0.3227(4)
H10 H -0.58950 0.03890 0.37370
C17 C -0.7047(9) 0.0392(3) 0.2412(5)
H11 H -0.72660 0.08110 0.23720
C18 C -0.7542(8) 0.0023(3) 0.1655(4)
H12 H -0.80930 0.01930 0.11050
C19 C -0.7220(7) -0.0598(3) 0.1714(4)
C20 C -0.6401(7) -0.0849(3) 0.2530(4)
H13 H -0.61840 -0.12680 0.25710
C21 C -0.7708(14) -0.0999(7) 0.0881(7)
C22 C -0.2718(11) -0.0710(5) 0.4092(6)
H14 H -0.31290 -0.03880 0.36510
H15 H -0.20960 -0.09490 0.38750
C23 C 0.0073(12) -0.0840(7) 0.7420(8)
C24 C -0.6258(14) -0.3102(7) 0.4007(10)
O9 O 0.1224(15) 0.4359(6) 0.4305(11)
C25 C -0.321(3) 0.1970(16) 0.371(2)
C26 C -0.169(3) 0.1993(9) 0.3850(17)
N2 N -0.137(2) 0.2513(9) 0.3233(13)
C27 C -0.012(4) 0.3179(12) 0.2601(19)
C28 C 0.006(3) 0.2764(13) 0.3314(18)
C29 C 0.426(4) 0.4963(12) 0.392(2)
C30 C 0.385(4) 0.4364(17) 0.353(3)
N3 N 0.423(4) 0.5011(13) 0.480(3)
C31 C -0.623(5) 0.3074(16) 0.332(4)
C32 C -0.548(3) 0.2492(16) 0.331(2)
N4 N -0.641(4) 0.1990(16) 0.335(2)
C33? C 0.115(3) 0.2620(12) 0.2923(19)
Cd1* Cd -0.88400(8) -0.35592(3) 0.40503(5)
Cd1C Cd -0.88400(8) -0.14408(3) -0.09497(5)
Cd1C* Cd 0.11600(8) -0.14408(3) 0.90503(5)
O4C O -0.0127(10) -0.3591(4) 0.2374(6)
O5C O 0.0773(9) -0.4436(4) 0.3124(5)
O6C O 0.1807(9) -0.4275(4) 0.5135(5)
O7* O 0.2729(12) -0.2830(5) 0.3973(12)
O8* O 0.3743(15) -0.3646(6) 0.4013(15)
#END
