
#######################################################################
#
#                 Cambridge Crystallographic Data Centre
#                                CCDC
#
#######################################################################
#
# If this CIF has been generated from an entry in the Cambridge
# Structural Database, then it will include bibliographic, chemical,
# crystal, experimental, refinement or atomic coordinate data resulting
# from the CCDC's data processing and validation procedures.
#
#######################################################################

data_CSD_CIF_DILJIT
_audit_creation_date 2013-11-07
_audit_creation_method CSD-ConQuest-V1
_database_code_CSD DILJIT
_database_code_depnum_ccdc_archive 'CCDC 943577'
_chemical_formula_sum 'C32 H41 Cd1 N3 O9'
_chemical_formula_moiety
;
(C24 H15 Cd1 N1 O8 2-)n,2n(C4 H12 N1 1+),n(H2 O1)
;
_journal_coden_Cambridge 1147
_journal_volume 13
_journal_year 2013
_journal_page_first 4092
_journal_name_full 'Cryst.Growth Des. '
loop_
_publ_author_name
"Da-Shu Chen"
"Li-Bo Sun"
"Zhi-Qiang Liang"
"Kui-Zhan Shao"
"Chun-Gang Wang"
"Zhong-Min Su"
"Hong-Zhu Xing"
_chemical_name_systematic
;
catena-[bis(diethylammonium) 
(\m~4~-5-(bis(3-carboxylatobenzyl)amino)benzene-1,3-dicarboxylato)-cadmium 
N,N-dimethylformamide solvate monohydrate]
;
_cell_volume   3662.313
_exptl_crystal_colour 'colorless'
_exptl_crystal_density_diffrn 1.313
_exptl_crystal_description 'plate-like'
_diffrn_ambient_temperature 296
#These two values have been output from a single CSD field.
_refine_ls_R_factor_gt 0.0466
_refine_ls_wR_factor_gt 0.0466
_symmetry_cell_setting monoclinic
_symmetry_space_group_name_H-M 'P 21/c'
_symmetry_Int_Tables_number 14
loop_
_symmetry_equiv_pos_site_id
_symmetry_equiv_pos_as_xyz
1 x,y,z
2 -x,1/2+y,1/2-z
3 -x,-y,-z
4 x,-1/2-y,-1/2+z
_cell_length_a 10.0732(6)
_cell_length_b 26.6408(15)
_cell_length_c 14.5918(7)
_cell_angle_alpha 90
_cell_angle_beta 110.730(3)
_cell_angle_gamma 90
_cell_formula_units_Z 4
loop_
_atom_type_symbol
_atom_type_radius_bond
C 0.68
H 0.23
Cd 1.44
N 0.68
O 0.68
loop_
_atom_site_label
_atom_site_type_symbol
_atom_site_fract_x
_atom_site_fract_y
_atom_site_fract_z
Cd1 Cd 0.60297(4) -0.345712(16) 0.49061(3)
C1 C 0.3502(6) -0.3041(3) 0.4950(4)
C2 C 0.2224(6) -0.2746(2) 0.4955(4)
C3 C 0.2261(6) -0.2230(2) 0.4916(4)
H1 H 0.30650 -0.20710 0.48840
C4 C 0.1097(6) -0.1940(2) 0.4926(4)
C5 C -0.0105(6) -0.2195(2) 0.4944(4)
H2 H -0.09050 -0.20130 0.49180
C6 C -0.0125(6) -0.2714(2) 0.5000(4)
C7 C 0.1044(6) -0.2993(2) 0.5012(4)
H3 H 0.10360 -0.33410 0.50590
C8 C -0.1439(7) -0.2984(3) 0.5000(5)
C9 C 0.2157(7) -0.1168(2) 0.4550(5)
H4 H 0.17060 -0.08670 0.42030
H5 H 0.23570 -0.13850 0.40820
C10 C 0.3549(6) -0.1019(2) 0.5325(5)
C11 C 0.3905(6) -0.1130(2) 0.6301(4)
H6 H 0.32820 -0.13200 0.65010
C12 C 0.5154(7) -0.0968(2) 0.6989(5)
C13 C 0.6076(8) -0.0695(3) 0.6693(6)
H7 H 0.69210 -0.05820 0.71550
C14 C 0.5773(9) -0.0588(3) 0.5726(6)
H8 H 0.64160 -0.04050 0.55330
C15 C 0.4523(8) -0.0749(3) 0.5037(5)
H9 H 0.43240 -0.06770 0.43780
C16 C 0.5527(9) -0.1098(3) 0.8071(5)
C17 C 0.0223(7) -0.1106(2) 0.5208(5)
H10 H 0.07840 -0.08430 0.56300
H11 H -0.01880 -0.13060 0.55940
C18 C -0.0968(6) -0.0863(2) 0.4383(4)
C19 C -0.1511(6) -0.1085(2) 0.3463(4)
H12 H -0.11420 -0.13910 0.33570
C20 C -0.2584(6) -0.0862(2) 0.2707(4)
C21 C -0.3141(7) -0.0411(2) 0.2863(5)
H13 H -0.38480 -0.02540 0.23500
C22 C -0.2649(7) -0.0192(2) 0.3778(5)
H14 H -0.30520 0.01050 0.38900
C23 C -0.1556(7) -0.0415(2) 0.4528(5)
H15 H -0.12120 -0.02620 0.51400
C24 C -0.3142(6) -0.1111(3) 0.1714(5)
N1 N 0.1161(5) -0.14216(18) 0.4903(4)
O1 O 0.4531(4) -0.28037(16) 0.4878(3)
O2 O 0.3498(5) -0.35072(16) 0.5017(4)
O3 O -0.2617(5) -0.27774(18) 0.4583(3)
O4 O -0.1332(5) -0.33969(19) 0.5395(4)
O5 O 0.4764(7) -0.1401(2) 0.8288(4)
O6 O 0.6583(7) -0.0913(3) 0.8677(4)
O7 O -0.3114(5) -0.15820(15) 0.1684(3)
O8 O -0.3574(5) -0.08471(16) 0.0966(3)
C25 C -0.3390(15) -0.2773(3) 0.2029(7)
H16 H -0.37540 -0.30910 0.21610
H17 H -0.39150 -0.26830 0.13530
C26 C -0.5109(10) -0.2273(5) 0.2655(9)
H18 H -0.56970 -0.21820 0.19910
H19 H -0.55000 -0.25750 0.28310
C27 C -0.1862(15) -0.2828(5) 0.2172(9)
H20 H -0.17500 -0.30890 0.17510
H21 H -0.13390 -0.29140 0.28420
H22 H -0.15100 -0.25180 0.20130
C28 C -0.5129(14) -0.1855(6) 0.3344(11)
H23 H -0.60870 -0.17970 0.33080
H24 H -0.47580 -0.15540 0.31610
H25 H -0.45550 -0.19460 0.40020
N2 N -0.3611(7) -0.2375(2) 0.2698(4)
H26 H -0.32540 -0.20850 0.25690
H27 H -0.30900 -0.24600 0.33190
C29 C 0.2261(18) -0.4615(5) 0.3859(13)
H28 H 0.21040 -0.49740 0.38320
H29 H 0.31970 -0.45510 0.38380
C30 C 0.3099(11) -0.4667(4) 0.5672(10)
H30 H 0.40850 -0.46180 0.57440
H31 H 0.29010 -0.50250 0.56240
C31 C 0.111(2) -0.4354(8) 0.2989(11)
H32 H 0.11650 -0.44770 0.23840
H33 H 0.12730 -0.39980 0.30300
H34 H 0.01920 -0.44240 0.30130
C32 C 0.2820(17) -0.4449(7) 0.6534(10)
H35 H 0.34090 -0.46140 0.71230
H36 H 0.18400 -0.44970 0.64520
H37 H 0.30340 -0.40970 0.65800
N3 N 0.2146(8) -0.4404(3) 0.4772(6)
H38 H 0.12420 -0.44300 0.47430
H39 H 0.23720 -0.40760 0.48130
O9 O -0.0645(6) -0.4315(2) 0.4783(6)
Cd1* Cd -0.39703(4) -0.345712(16) 0.49061(3)
Cd1C Cd -0.39703(4) -0.154288(16) -0.00939(3)
Cd1C* Cd 0.60297(4) -0.154288(16) 0.99061(3)
O3* O 0.7383(5) -0.27774(18) 0.4583(3)
O4* O 0.8668(5) -0.33969(19) 0.5395(4)
O5C O 0.4764(7) -0.3599(2) 0.3288(4)
O6C O 0.6583(7) -0.4087(3) 0.3677(4)
O7C O 0.6886(5) -0.34180(15) 0.6684(3)
O8C O 0.6426(5) -0.41529(16) 0.5966(3)
#END
