
#######################################################################
#
#                 Cambridge Crystallographic Data Centre
#                                CCDC
#
#######################################################################
#
# If this CIF has been generated from an entry in the Cambridge
# Structural Database, then it will include bibliographic, chemical,
# crystal, experimental, refinement or atomic coordinate data resulting
# from the CCDC's data processing and validation procedures.
#
#######################################################################

data_CSD_CIF_DILJOZ
_audit_creation_date 2013-11-07
_audit_creation_method CSD-ConQuest-V1
_database_code_CSD DILJOZ
_database_code_depnum_ccdc_archive 'CCDC 943578'
_chemical_formula_sum 'C35 H47.5 Cd1 N3.5 O11'
_chemical_formula_moiety
;
(C24 H15 Cd1 N1 O8 1-)n,n(C5 H11 N1 O1),n(C4 H12 N1 1+),2n(H2 O1),0.5n(C4 H11 
N1)
;
_journal_coden_Cambridge 1147
_journal_volume 13
_journal_year 2013
_journal_page_first 4092
_journal_name_full 'Cryst.Growth Des. '
loop_
_publ_author_name
"Da-Shu Chen"
"Li-Bo Sun"
"Zhi-Qiang Liang"
"Kui-Zhan Shao"
"Chun-Gang Wang"
"Zhong-Min Su"
"Hong-Zhu Xing"
_chemical_name_systematic
;
catena-[diethylammonium 
(\m~4~-5-(bis(3-carboxylatobenzyl)amino)benzene-1,3-dicarboxylato)-cadmium 
diethylamine N,N-diethylformamide solvate dihydrate]
;
_cell_volume   3680.778
_exptl_crystal_colour 'colorless'
_exptl_crystal_density_diffrn 1.455
_exptl_special_details
;
The stoichiometry has been assigned to charge balance and is inconsistent 
with the paper
;
_exptl_crystal_description 'strip'
_diffrn_ambient_temperature 296
_refine_special_details
;
C34,C35 and C34',C35' disordered over two sites with occupancies 0.610:0.390.

;
#These two values have been output from a single CSD field.
_refine_ls_R_factor_gt 0.0605
_refine_ls_wR_factor_gt 0.0605
_symmetry_cell_setting monoclinic
_symmetry_space_group_name_H-M 'P 21/c'
_symmetry_Int_Tables_number 14
loop_
_symmetry_equiv_pos_site_id
_symmetry_equiv_pos_as_xyz
1 x,y,z
2 -x,1/2+y,1/2-z
3 -x,-y,-z
4 x,-1/2-y,-1/2+z
_cell_length_a 15.392(3)
_cell_length_b 10.296(2)
_cell_length_c 25.544(4)
_cell_angle_alpha 90
_cell_angle_beta 114.597(10)
_cell_angle_gamma 90
_cell_formula_units_Z 4
loop_
_atom_type_symbol
_atom_type_radius_bond
C 0.68
H 0.23
Cd 1.44
N 0.68
O 0.68
loop_
_atom_site_label
_atom_site_type_symbol
_atom_site_fract_x
_atom_site_fract_y
_atom_site_fract_z
Cd1 Cd 1.35551(4) -0.32726(5) 0.36656(2)
O1 O 1.3694(4) -0.0901(5) 0.37423(19)
O2 O 1.3044(3) -0.1816(4) 0.28959(19)
N1 N 1.1314(4) 0.1765(6) 0.1497(2)
O3 O 1.3642(4) 0.4024(5) 0.3851(2)
C1 C 1.3242(5) -0.0823(7) 0.3210(3)
C2 C 1.2319(5) 0.0565(6) 0.2352(3)
H1 H 1.21440 -0.02010 0.21410
C3 C 1.2909(5) 0.0490(7) 0.2931(3)
C4 C 1.3204(5) 0.1627(7) 0.3255(3)
H2 H 1.35950 0.15900 0.36480
C5 C 1.2901(5) 0.2820(6) 0.2979(3)
C6 C 1.2305(4) 0.2866(6) 0.2403(3)
H3 H 1.21150 0.36700 0.22270
C7 C 1.1972(4) 0.1732(7) 0.2071(3)
C8 C 1.3237(5) 0.4066(7) 0.3314(3)
C9 C 1.0997(5) 0.2997(7) 0.1191(3)
H4 H 1.14020 0.32180 0.09980
H5 H 1.10570 0.36800 0.14660
C10 C 0.9970(5) 0.2909(7) 0.0754(3)
C11 C 0.9713(5) 0.3227(8) 0.0174(3)
H6 H 1.01770 0.34870 0.00520
C12 C 0.8767(6) 0.3151(10) -0.0214(3)
H7 H 0.85940 0.33670 -0.05980
C13 C 0.8071(5) 0.2754(8) -0.0033(3)
H8 H 0.74380 0.26800 -0.02990
C14 C 0.9258(5) 0.2533(7) 0.0920(3)
H9 H 0.94240 0.23150 0.13030
C15 C 0.8314(5) 0.2470(7) 0.0536(3)
C16 C 0.7590(6) 0.2062(7) 0.0765(4)
C17 C 1.1214(5) 0.0664(7) 0.1108(3)
H10 H 1.05510 0.05980 0.08340
H11 H 1.13790 -0.01310 0.13320
C18 C 1.1833(5) 0.0783(7) 0.0783(3)
C19 C 1.1448(5) 0.0635(7) 0.0187(3)
H12 H 1.08000 0.04530 -0.00100
C20 C 1.2813(5) 0.1043(7) 0.1067(3)
H13 H 1.30880 0.11310 0.14660
C21 C 1.3379(5) 0.1172(7) 0.0771(3)
C22 C 1.2966(5) 0.1007(8) 0.0174(3)
H14 H 1.33440 0.10700 -0.00300
C23 C 1.1996(5) 0.0750(8) -0.0118(3)
H15 H 1.17200 0.06560 -0.05160
C24 C 1.4449(5) 0.1433(7) 0.1093(3)
O4 O 1.3071(3) 0.5098(4) 0.30277(19)
O5 O 1.4793(3) 0.1535(6) 0.1619(2)
O6 O 0.7879(4) 0.1867(6) 0.1290(3)
O7 O 0.6729(4) 0.1997(6) 0.0416(3)
O8 O 1.4899(3) 0.1520(5) 0.0775(2)
C25 C -0.3717(9) 0.2369(11) -0.1862(6)
H16 H -0.35410 0.16160 -0.20250
H17 H -0.32410 0.24680 -0.14700
C26 C -0.4511(13) 0.2152(17) -0.1850(8)
H18 H -0.44610 0.14040 -0.16140
H19 H -0.49820 0.19920 -0.22330
H20 H -0.46980 0.28920 -0.16920
C27 C -0.4001(9) 0.4804(11) -0.2040(4)
H21 H -0.39700 0.54770 -0.22970
H22 H -0.46660 0.47120 -0.21070
C28 C -0.3519(11) 0.5206(18) -0.1506(7)
H23 H -0.37820 0.60130 -0.14510
H24 H -0.28610 0.53290 -0.14340
H25 H -0.35630 0.45670 -0.12440
N2 N -0.3683(5) 0.3556(6) -0.2203(3)
H26 H -0.30780 0.36570 -0.21640
H27 H -0.40490 0.34020 -0.25770
C29 C -0.1246(6) 0.3326(9) -0.2063(3)
H28 H -0.16180 0.33620 -0.24580
C30 C 0.0212(8) 0.2791(15) -0.1292(5)
H29 H -0.01850 0.28840 -0.10820
H30 H 0.04830 0.19240 -0.12190
C31 C 0.0966(11) 0.3713(14) -0.1079(6)
H31 H 0.13490 0.35520 -0.06780
H32 H 0.07020 0.45730 -0.11270
H33 H 0.13550 0.36390 -0.12900
C32 C -0.0023(8) 0.2490(11) -0.2316(4)
H34 H 0.05830 0.29160 -0.22300
H35 H -0.04660 0.27710 -0.26960
C33 C 0.0118(10) 0.1055(13) -0.2333(7)
H36 H 0.03590 0.08610 -0.26160
H37 H -0.04810 0.06200 -0.24330
H38 H 0.05680 0.07630 -0.19620
O9 O -0.1632(4) 0.3665(6) -0.1746(2)
N3 N -0.0380(5) 0.2927(7) -0.1900(3)
C34 C 1.4258(14) 0.082(2) 0.4942(9)
C35 C 1.357(2) 0.047(2) 0.5149(19)
N4 N 1.50000 0.00000 0.50000
O10 O 0.5115(7) 0.0476(9) -0.0140(4)
O11 O 0.5275(10) 0.2599(14) -0.0540(6)
C36? C 1.434(2) -0.022(4) 0.5230(13)
C37? C 1.366(4) 0.077(4) 0.492(3)
Cd1* Cd 1.35551(4) 0.67274(5) 0.36656(2)
Cd1A Cd 0.64449(4) 0.17274(5) 0.13344(2)
Cd1A* Cd 1.64449(4) 0.17274(5) 0.13344(2)
O3* O 1.3642(4) -0.5976(5) 0.3851(2)
O4* O 1.3071(3) -0.4902(4) 0.30277(19)
O6A O 1.2121(4) -0.3133(6) 0.3710(3)
O7A O 1.3271(4) -0.3003(6) 0.4584(3)
O8A O 1.5101(3) -0.3480(5) 0.4225(2)
C34B C 1.5742(14) -0.082(2) 0.5058(9)
C35B C 1.643(2) -0.047(2) 0.4851(19)
#END
