
#######################################################################
#
#                 Cambridge Crystallographic Data Centre
#                                CCDC
#
#######################################################################
#
# If this CIF has been generated from an entry in the Cambridge
# Structural Database, then it will include bibliographic, chemical,
# crystal, experimental, refinement or atomic coordinate data resulting
# from the CCDC's data processing and validation procedures.
#
#######################################################################

data_CSD_CIF_DILJAL
_audit_creation_date 2013-11-07
_audit_creation_method CSD-ConQuest-V1
_database_code_CSD DILJAL
_database_code_depnum_ccdc_archive 'CCDC 943575'
_chemical_formula_sum 'C61 H71 In2 N7 O21'
_chemical_formula_moiety
;
(C48 H30 In2 N2 O16 2-)n,2n(C2 H8 N1 1+),2n(H2 O1),3n(C3 H7 N1 O1)
;
_journal_coden_Cambridge 1147
_journal_volume 13
_journal_year 2013
_journal_page_first 4092
_journal_name_full 'Cryst.Growth Des. '
loop_
_publ_author_name
"Da-Shu Chen"
"Li-Bo Sun"
"Zhi-Qiang Liang"
"Kui-Zhan Shao"
"Chun-Gang Wang"
"Zhong-Min Su"
"Hong-Zhu Xing"
_chemical_name_systematic
;
catena-[bis(dimethylamminium) 
bis(\m~4~-5-(bis(3-carboxylatobenzyl)amino)benzene-1,3-dicarboxylato)-di-indiu
m N,N-dimethylformamide solvate dihydrate]
;
_cell_volume   3328.783
_exptl_crystal_colour 'colorless'
_exptl_crystal_density_diffrn 1.464
_exptl_crystal_description 'rodlike'
_diffrn_ambient_temperature 296
#These two values have been output from a single CSD field.
_refine_ls_R_factor_gt 0.0722
_refine_ls_wR_factor_gt 0.0722
_symmetry_cell_setting monoclinic
_symmetry_space_group_name_H-M 'P 21'
_symmetry_Int_Tables_number 4
loop_
_symmetry_equiv_pos_site_id
_symmetry_equiv_pos_as_xyz
1 x,y,z
2 -x,1/2+y,-z
_cell_length_a 9.9183(16)
_cell_length_b 22.930(4)
_cell_length_c 15.082(3)
_cell_angle_alpha 90
_cell_angle_beta 103.957(3)
_cell_angle_gamma 90
_cell_formula_units_Z 2
loop_
_atom_type_symbol
_atom_type_radius_bond
C 0.68
H 0.23
In 1.42
N 0.68
O 0.68
loop_
_atom_site_label
_atom_site_type_symbol
_atom_site_fract_x
_atom_site_fract_y
_atom_site_fract_z
In1 In 0.54521(10) -0.07995(4) 0.63848(8)
In2 In 0.06404(9) 0.15088(4) 1.17455(8)
C1 C -0.0240(19) 0.1954(9) 0.8419(14)
H1 H -0.01110 0.15530 0.84770
C2 C 0.6530(15) -0.1208(7) 0.9702(11)
H2 H 0.65100 -0.08030 0.96590
O1 O 0.0312(12) 0.1489(8) 1.0166(8)
O2 O -0.2216(9) -0.0874(5) 0.6378(7)
O3 O 0.6013(11) -0.0699(6) 0.7962(8)
O4 O -0.3131(9) -0.0024(4) 0.6405(7)
O5 O 0.9152(10) 0.0826(5) 1.1651(8)
O6 O 0.1132(12) 0.1406(6) 0.3333(8)
O7 O 0.3080(9) -0.0888(6) 0.6513(8)
O8 O 0.3963(10) -0.0067(5) 0.6253(8)
O9 O 0.1975(10) 0.0718(4) 1.1722(8)
O10 O 0.8111(11) 0.1650(6) 1.1831(10)
O11 O 0.0993(10) 0.2247(5) 0.2717(8)
C3 C 0.0432(11) -0.0342(7) 0.6384(9)
H3 H 0.04130 -0.07440 0.63000
O12 O 0.5903(12) -0.1570(5) 0.7342(7)
C4 C 0.1597(15) -0.0004(8) 0.6437(11)
C5 C 0.1854(14) 0.2160(7) 0.5988(11)
C6 C 0.5550(13) 0.1059(7) 1.1764(9)
H4 H 0.55570 0.14600 1.18620
C7 C 0.6365(14) -0.1534(8) 0.8939(12)
C8 C 0.4372(12) 0.0768(6) 1.1700(9)
C9 C 0.1903(14) 0.1830(6) 0.6839(10)
H5 H 0.26810 0.15610 0.69480
H6 H 0.20500 0.20990 0.73490
C10 C -0.0741(15) -0.0009(7) 0.6471(10)
C11 C 0.2944(15) -0.0334(7) 0.6390(11)
C12 C 0.6734(18) -0.1479(7) 1.0576(11)
C13 C 0.6118(16) -0.1257(9) 0.8068(13)
C14 C -0.0462(14) 0.2225(9) 0.7589(14)
O13 O 0.0039(11) 0.2299(6) 1.0824(8)
C15 C 0.6782(13) 0.0786(7) 1.169(1)
C16 C 0.2165(17) 0.2732(7) 0.5980(12)
H7 H 0.24860 0.29110 0.65440
C17 C -0.0215(17) 0.2313(7) 0.9182(12)
C18 C 0.6768(15) 0.0177(7) 1.1529(11)
H8 H 0.75540 -0.00030 1.14190
C19 C 0.6766(15) -0.1084(7) 1.1392(10)
H9 H 0.69420 -0.13230 1.19390
H10 H 0.75410 -0.08160 1.14540
C20 C 0.1516(17) 0.2228(7) 0.4313(12)
C21 C 0.6493(16) -0.2131(7) 0.9015(13)
H11 H 0.63910 -0.23480 0.84820
C22 C 0.1532(15) 0.1903(7) 0.5139(12)
H12 H 0.13180 0.15070 0.50940
C23 C 0.0059(19) 0.1981(10) 1.0156(13)
C24 C 0.8085(16) 0.1120(8) 1.1742(11)
C25 C -0.2110(14) -0.0318(7) 0.6433(10)
C26 C 0.6768(17) -0.2096(7) 1.0628(12)
H13 H 0.67850 -0.22770 1.11830
C27 C 0.1894(19) 0.2817(8) 0.4414(14)
H14 H 0.20290 0.30310 0.39190
C28 C 0.0582(11) 0.0891(7) 0.6639(9)
N1 N 0.0632(10) 0.1506(11) 0.6790(7)
C29 C -0.0684(16) 0.0561(8) 0.6558(10)
H15 H -0.14950 0.07620 0.65690
C30 C 0.5560(13) -0.0169(7) 1.1532(10)
C31 C 0.6775(19) -0.2435(9) 0.9865(13)
H16 H 0.69510 -0.28340 0.99060
C32 C 0.4358(13) 0.0141(6) 1.1609(10)
H17 H 0.35450 -0.00630 1.16020
C33 C -0.0652(18) 0.1859(7) 0.6697(12)
H18 H -0.14560 0.16060 0.66210
H19 H -0.07840 0.21130 0.61690
C34 C 0.1206(14) 0.1935(7) 0.3418(11)
C35 C -0.0434(15) 0.3136(7) 0.8320(13)
H20 H -0.03870 0.35400 0.82910
C36 C -0.0582(16) 0.2833(7) 0.7502(13)
H21 H -0.07490 0.30200 0.69390
C37 C 0.2058(19) 0.3067(7) 0.5239(15)
H22 H 0.20970 0.34710 0.52950
C38 C -0.0354(19) 0.2911(8) 0.9110(13)
H23 H -0.03890 0.31410 0.96120
C39 C 0.1658(15) 0.0570(7) 0.6527(10)
H24 H 0.24820 0.07580 0.65130
N2 N 0.5533(10) -0.0750(9) 1.1353(8)
C40 C 0.4137(18) -0.2049(8) 1.2103(14)
H25 H 0.40780 -0.22350 1.15470
C41 C 0.4306(17) -0.1457(7) 1.2159(12)
C42 C 0.4407(15) -0.1195(8) 1.2985(12)
H26 H 0.44160 -0.07890 1.30020
C43 C 0.4492(15) -0.1471(9) 1.3754(13)
C44 C 0.405(2) -0.2375(9) 1.2855(13)
H27 H 0.38350 -0.27700 1.27980
C45 C 0.4306(18) -0.2089(7) 1.3734(13)
H28 H 0.43470 -0.23000 1.42670
C46 C 0.4351(14) -0.1133(7) 1.130(1)
H29 H 0.43390 -0.14170 1.08210
H30 H 0.35110 -0.09020 1.11160
O14 O 0.5042(14) -0.0655(6) 1.4783(9)
O15 O 0.4909(15) -0.1511(6) 1.5408(9)
C47 C 0.4809(19) -0.1222(11) 1.4636(15)
O16 O 0.2973(9) 0.1580(6) 1.1830(6)
C48 C 0.3028(14) 0.1020(6) 1.1749(10)
C49 C 0.647(2) 0.1444(9) 0.9298(13)
H31 H 0.71080 0.14170 0.98870
H32 H 0.55360 0.14570 0.93720
H33 H 0.66570 0.17920 0.89950
N3 N 0.6637(15) 0.0926(6) 0.8739(12)
O17 O 0.4957(13) 0.1242(6) 0.756(1)
C50 C 0.5880(18) 0.0872(8) 0.7896(13)
H34 H 0.60270 0.05560 0.75440
C51 C 0.764(2) 0.0485(9) 0.9207(16)
H35 H 0.80750 0.06190 0.98110
H36 H 0.83320 0.04240 0.88690
H37 H 0.71610 0.01260 0.92460
N4 N 0.5228(19) 0.0711(8) 0.4900(11)
H38 H 0.60930 0.06590 0.48230
H39 H 0.50510 0.04100 0.52400
C52 C 0.522(3) 0.1235(10) 0.5411(14)
H40 H 0.59580 0.12220 0.59560
H41 H 0.43460 0.12710 0.55740
H42 H 0.53510 0.15640 0.50470
C53 C 0.433(3) 0.0679(11) 0.4067(19)
H43 H 0.44040 0.03040 0.38010
H44 H 0.45390 0.09780 0.36780
H45 H 0.33950 0.07310 0.41330
C54 C 0.841(2) 0.2981(10) 0.1947(16)
H46 H 0.77420 0.31170 0.22650
H47 H 0.89110 0.26560 0.22700
H48 H 0.79420 0.28610 0.13410
N5 N 0.950(3) 0.3505(12) 0.1888(18)
H49 H 0.98010 0.36800 0.24350
H50 H 0.90960 0.37750 0.14750
C55 C 1.083(6) 0.317(4) 0.156(2)
H51 H 1.14940 0.34550 0.14810
H52 H 1.04730 0.29670 0.09970
H53 H 1.12650 0.28960 0.20240
N6 N 0.2561(17) 0.0282(8) 0.9253(12)
O18 O 0.1302(16) -0.0458(7) 0.9802(11)
C56 C 0.288(2) 0.0879(10) 0.9182(16)
H54 H 0.36520 0.09150 0.89010
H55 H 0.31270 0.10500 0.97800
H56 H 0.20900 0.10780 0.88150
C57 C 0.363(2) -0.0139(9) 0.9043(14)
H57 H 0.33620 -0.05320 0.91400
H58 H 0.45220 -0.00580 0.94370
H59 H 0.36700 -0.00920 0.84170
C58 C 0.150(2) 0.0066(11) 0.9662(15)
H60 H 0.09120 0.03370 0.98360
N7 N 0.894(2) 0.0043(9) 0.3874(13)
O19 O 0.763(3) 0.0786(11) 0.4264(17)
C59 C 0.865(3) 0.0512(14) 0.4000(19)
H61 H 0.93010 0.07750 0.38870
C60 C 0.794(3) -0.0360(14) 0.398(2)
H62 H 0.82490 -0.07470 0.38870
H63 H 0.70830 -0.02820 0.35380
H64 H 0.77930 -0.03290 0.45840
C61 C 1.032(3) -0.0090(14) 0.365(2)
H65 H 1.04140 -0.05040 0.35870
H66 H 1.10670 0.00530 0.41260
H67 H 1.03510 0.00960 0.30820
O20 O 0.0187(16) 0.4615(7) 0.8848(11)
O21 O 0.4694(15) 0.2206(7) 0.3416(10)
In1* In -0.45479(10) -0.07995(4) 0.63848(8)
In1** In 0.54521(10) -0.07995(4) 1.63848(8)
In2* In 0.06404(9) 0.15088(4) 0.17455(8)
In2** In 1.06404(9) 0.15088(4) 1.17455(8)
O2* O 0.7784(9) -0.0874(5) 0.6378(7)
O4* O 0.6869(9) -0.0024(4) 0.6405(7)
O5* O -0.0848(10) 0.0826(5) 1.1651(8)
O6* O 0.1132(12) 0.1406(6) 1.3333(8)
O10* O -0.1889(11) 0.1650(6) 1.1831(10)
O11* O 0.0993(10) 0.2247(5) 1.2717(8)
O14* O 0.5042(14) -0.0655(6) 0.4783(9)
O15* O 0.4909(15) -0.1511(6) 0.5408(9)
#END
