
#######################################################################
#
#                 Cambridge Crystallographic Data Centre
#                                CCDC
#
#######################################################################
#
# If this CIF has been generated from an entry in the Cambridge
# Structural Database, then it will include bibliographic, chemical,
# crystal, experimental, refinement or atomic coordinate data resulting
# from the CCDC's data processing and validation procedures.
#
#######################################################################

data_CSD_CIF_DILWOM
_audit_creation_date 2013-11-07
_audit_creation_method CSD-ConQuest-V1
_database_code_CSD DILWOM
_database_code_depnum_ccdc_archive 'CCDC 935289'
_chemical_formula_sum 'C38 H39 N3 O4 Sn1'
_chemical_formula_moiety
;
(C32 H23 N2 O4 Sn1 1-)n,C6 H16 N1 1+
;
_journal_coden_Cambridge 1147
_journal_volume 13
_journal_year 2013
_journal_page_first 4607
_journal_name_full 'Cryst.Growth Des. '
loop_
_publ_author_name
"V.Chandrasekhar"
"C.Mohapatra"
"R.Metre"
_chemical_name_systematic
;
catena-[Triethylammonium 
(\m~2~-5-((pyridin-4-ylmethylene)amino)isophthalato)-triphenyl-tin]
;
_cell_volume   6701.995
_exptl_crystal_colour 'colorless'
_exptl_crystal_density_diffrn 1.428
_exptl_crystal_description 'block'
_diffrn_ambient_temperature 293
#These two values have been output from a single CSD field.
_refine_ls_R_factor_gt 0.0547
_refine_ls_wR_factor_gt 0.0547
_symmetry_cell_setting monoclinic
_symmetry_space_group_name_H-M 'P 21/n'
_symmetry_Int_Tables_number 14
loop_
_symmetry_equiv_pos_site_id
_symmetry_equiv_pos_as_xyz
1 x,y,z
2 1/2-x,1/2+y,1/2-z
3 -x,-y,-z
4 -1/2+x,-1/2-y,-1/2+z
_cell_length_a 18.736(5)
_cell_length_b 11.368(5)
_cell_length_c 31.720(5)
_cell_angle_alpha 90
_cell_angle_beta 97.254(5)
_cell_angle_gamma 90
_cell_formula_units_Z 8
loop_
_atom_type_symbol
_atom_type_radius_bond
C 0.68
H 0.23
N 0.68
O 0.68
Sn 1.39
loop_
_atom_site_label
_atom_site_type_symbol
_atom_site_fract_x
_atom_site_fract_y
_atom_site_fract_z
Sn1 Sn 0.84204(2) 1.21093(3) 0.639614(13)
O1 O 0.8202(2) 1.0208(4) 0.64639(13)
O2 O 0.8897(2) 0.9223(4) 0.69783(14)
O3 O 0.9428(2) 0.4959(3) 0.66272(13)
O4 O 0.8478(2) 0.4010(3) 0.62775(12)
N1 N 0.7002(3) 0.7259(4) 0.54642(16)
N2 N 0.5159(3) 0.6634(6) 0.41793(19)
C1 C 0.8492(4) 0.9289(5) 0.6639(2)
C2 C 0.8827(4) 0.4926(5) 0.64109(19)
C3 C 0.8276(3) 0.8163(5) 0.63923(19)
C4 C 0.8628(3) 0.7115(5) 0.65112(18)
H1 H 0.89940 0.71090 0.67390
C5 C 0.8442(3) 0.6088(5) 0.62966(18)
C6 C 0.7888(3) 0.6090(5) 0.59506(18)
H2 H 0.77560 0.53930 0.58080
C7 C 0.7537(3) 0.7147(5) 0.58221(18)
C8 C 0.7748(3) 0.8176(5) 0.60440(18)
H3 H 0.75290 0.88840 0.59570
C9 C 0.6645(4) 0.6387(6) 0.53140(19)
H4 H 0.67190 0.56600 0.54470
C10 C 0.6112(4) 0.6487(6) 0.4933(2)
C11 C 0.5902(4) 0.7556(6) 0.4747(2)
H5 H 0.60760 0.82520 0.48760
C12 C 0.5442(4) 0.7604(7) 0.4376(2)
H6 H 0.53220 0.83350 0.42560
C13 C 0.5806(4) 0.5500(7) 0.4731(2)
H7 H 0.59150 0.47590 0.48460
C14 C 0.5334(5) 0.5612(7) 0.4356(2)
H8 H 0.51350 0.49340 0.42250
C15 C 0.9443(3) 1.1780(5) 0.61937(17)
C16 C 0.9643(3) 1.2478(6) 0.58639(19)
H9 H 0.93590 1.31190 0.57690
C17 C 1.0248(4) 1.2233(6) 0.5680(2)
H10 H 1.03620 1.27000 0.54570
C18 C 1.0695(4) 1.1301(6) 0.5819(2)
H11 H 1.11000 1.11310 0.56890
C19 C 1.0525(4) 1.0628(6) 0.6158(2)
H12 H 1.08310 1.00260 0.62660
C20 C 0.9895(3) 1.0853(5) 0.63374(19)
H13 H 0.97760 1.03760 0.65560
C21 C 0.8204(4) 1.2437(6) 0.70311(19)
C22 C 0.7693(4) 1.1792(6) 0.7212(2)
H14 H 0.74550 1.11690 0.70650
C23 C 0.7535(4) 1.2089(7) 0.7625(2)
H15 H 0.71870 1.16670 0.77460
C24 C 0.7894(4) 1.3002(8) 0.7849(3)
H16 H 0.77860 1.31930 0.81190
C25 C 0.8402(4) 1.3619(7) 0.7676(2)
H17 H 0.86560 1.42130 0.78310
C26 C 0.8545(4) 1.3368(6) 0.72713(19)
H18 H 0.88780 1.38280 0.71520
C27 C 0.7550(3) 1.2135(5) 0.5903(2)
C28 C 0.6935(4) 1.1414(6) 0.5902(2)
H19 H 0.69030 1.09310 0.61360
C29 C 0.6377(4) 1.1392(7) 0.5570(2)
H20 H 0.59790 1.09110 0.55860
C30 C 0.6413(4) 1.2077(7) 0.5220(2)
H21 H 0.60370 1.20680 0.49990
C31 C 0.7010(4) 1.2789(6) 0.5192(2)
H22 H 0.70360 1.32480 0.49520
C32 C 0.7565(4) 1.2809(5) 0.5526(2)
H23 H 0.79620 1.32830 0.55030
Sn2 Sn 0.68973(2) 0.08667(3) 0.376229(12)
O5 O 0.7126(2) 0.2739(3) 0.37612(12)
O6 O 0.6290(2) 0.3572(3) 0.32888(12)
O7 O 0.6183(2) 0.8022(3) 0.32798(12)
O8 O 0.6767(2) 0.8960(3) 0.38452(12)
N3 N 0.8316(3) 0.5837(4) 0.46678(15)
N4 N 1.0253(3) 0.6549(5) 0.58943(17)
C33 C 0.6759(3) 0.3620(5) 0.35948(18)
C34 C 0.6578(3) 0.8043(5) 0.36174(18)
C35 C 0.6976(3) 0.4802(5) 0.37906(17)
C36 C 0.6675(3) 0.5835(5) 0.36299(17)
H24 H 0.63140 0.58130 0.34000
C37 C 0.6903(3) 0.6920(5) 0.38063(18)
C38 C 0.7440(3) 0.6944(5) 0.41525(19)
H25 H 0.75930 0.76630 0.42710
C39 C 0.7752(3) 0.5914(5) 0.43229(18)
C40 C 0.7524(3) 0.4837(5) 0.41354(17)
H26 H 0.77390 0.41410 0.42400
C41 C 0.8439(3) 0.6674(6) 0.49257(19)
H27 H 0.81410 0.73320 0.49030
C42 C 0.9055(4) 0.6616(5) 0.52658(18)
C43 C 0.9276(4) 0.7601(6) 0.55022(19)
H28 H 0.90270 0.83070 0.54560
C44 C 0.9870(4) 0.7527(6) 0.5807(2)
H29 H 1.00120 0.82020 0.59610
C45 C 1.0037(4) 0.5606(6) 0.5661(2)
H30 H 1.02990 0.49140 0.57090
C46 C 0.9444(4) 0.5599(6) 0.53512(19)
H31 H 0.93110 0.49120 0.52020
C47 C 0.5787(3) 0.1129(5) 0.38263(18)
C48 C 0.5264(3) 0.0312(5) 0.36712(19)
H32 H 0.53980 -0.03550 0.35310
C49 C 0.4557(4) 0.0473(6) 0.3722(2)
H33 H 0.42140 -0.00650 0.36060
C50 C 0.4347(4) 0.1427(7) 0.3946(2)
H34 H 0.38690 0.15100 0.39910
C51 C 0.4846(4) 0.2252(6) 0.4101(2)
H35 H 0.47060 0.29090 0.42440
C52 C 0.5557(4) 0.2101(6) 0.4042(2)
H36 H 0.58930 0.26620 0.41490
C53 C 0.7351(3) 0.0609(5) 0.31858(17)
C54 C 0.7736(3) -0.0429(5) 0.31264(18)
H37 H 0.77700 -0.10110 0.33340
C55 C 0.8061(3) -0.0596(5) 0.27671(19)
H38 H 0.83050 -0.12950 0.27320
C56 C 0.8030(3) 0.0268(5) 0.24536(19)
H39 H 0.82590 0.01580 0.22130
C57 C 0.7651(3) 0.1296(6) 0.25063(19)
H40 H 0.76140 0.18710 0.22960
C58 C 0.7325(3) 0.1470(5) 0.28714(18)
H41 H 0.70850 0.21730 0.29060
C59 C 0.7635(3) 0.0779(5) 0.43340(17)
C60 C 0.8253(3) 0.1460(5) 0.43888(19)
H42 H 0.83550 0.19650 0.41740
C61 C 0.8722(4) 0.1390(6) 0.47641(19)
H43 H 0.91390 0.18420 0.47970
C62 C 0.8572(4) 0.0654(6) 0.50888(19)
H44 H 0.88860 0.06100 0.53400
C63 C 0.7953(4) -0.0015(5) 0.50365(19)
H45 H 0.78440 -0.05060 0.52540
C64 C 0.7496(4) 0.0043(5) 0.46627(18)
H46 H 0.70850 -0.04230 0.46290
N5 N 0.9196(3) 0.9615(5) 0.7867(2)
C65 C 0.9525(4) 1.0823(6) 0.7939(2)
H47 H 0.98180 1.08430 0.82140
H48 H 0.91450 1.14020 0.79420
C66 C 0.9987(4) 1.1136(7) 0.7592(2)
H49 H 1.03470 1.05400 0.75780
H50 H 1.02170 1.18810 0.76560
H51 H 0.96890 1.11830 0.73230
C67 C 0.8502(4) 0.9505(6) 0.8057(2)
H52 H 0.82950 0.87390 0.79820
H53 H 0.81690 1.00940 0.79280
C68 C 0.8566(4) 0.9644(7) 0.8536(2)
H54 H 0.88970 0.90700 0.86680
H55 H 0.81030 0.95320 0.86290
H56 H 0.87390 1.04190 0.86130
C69 C 0.9732(4) 0.8676(6) 0.8021(2)
H57 H 0.98570 0.87530 0.83260
H58 H 1.01670 0.87900 0.78890
C70 C 0.9443(4) 0.7442(6) 0.7920(2)
H59 H 0.90850 0.72560 0.81000
H60 H 0.98300 0.68850 0.79670
H61 H 0.92330 0.74060 0.76280
H62 H 0.912(4) 0.963(6) 0.759(2)
N6 N 0.9131(3) 0.4296(5) 0.31001(17)
C71 C 0.8866(4) 0.3073(6) 0.3172(2)
H63 H 0.83880 0.29790 0.30180
H64 H 0.88290 0.29700 0.34720
C72 C 0.9351(4) 0.2135(6) 0.3031(2)
H65 H 0.93890 0.22310 0.27340
H66 H 0.91540 0.13730 0.30780
H67 H 0.98200 0.22010 0.31910
C73 C 0.9015(4) 0.4573(6) 0.2629(2)
H68 H 0.89790 0.38410 0.24710
H69 H 0.85610 0.49860 0.25640
C74 C 0.9602(4) 0.5306(7) 0.2483(2)
H70 H 0.96840 0.59860 0.26620
H71 H 0.94630 0.55520 0.21950
H72 H 1.00360 0.48500 0.24990
C75 C 0.8717(4) 0.5151(6) 0.3354(2)
H73 H 0.82060 0.50600 0.32620
H74 H 0.88030 0.49360 0.36520
C76 C 0.8912(4) 0.6410(7) 0.3311(2)
H75 H 0.94190 0.65090 0.33950
H76 H 0.86490 0.68820 0.34890
H77 H 0.87950 0.66500 0.30200
H78 H 0.962(4) 0.442(7) 0.317(2)
Sn1* Sn 0.84204(2) 0.21093(3) 0.639614(13)
O4* O 0.8478(2) 1.4010(3) 0.62775(12)
Sn2* Sn 0.68973(2) 1.08667(3) 0.376229(12)
O8* O 0.6767(2) -0.1040(3) 0.38452(12)
#END
