
#######################################################################
#
#                 Cambridge Crystallographic Data Centre
#                                CCDC
#
#######################################################################
#
# If this CIF has been generated from an entry in the Cambridge
# Structural Database, then it will include bibliographic, chemical,
# crystal, experimental, refinement or atomic coordinate data resulting
# from the CCDC's data processing and validation procedures.
#
#######################################################################

data_CSD_CIF_DIQKUL03
_audit_creation_date 2014-01-10
_audit_creation_method CSD-ConQuest-V1
_database_code_CSD DIQKUL03
_database_code_depnum_ccdc_archive 'CCDC 940523'
_chemical_formula_sum 'C24 H74 Mn8 O57'
_chemical_formula_moiety
;
(C24 H34 Mn6 O37 4-)n,2n(H12 Mn1 O6 2+),8n(H2 O1)
;
_journal_coden_Cambridge 179
_journal_volume 52
_journal_year 2013
_journal_page_first 13463
_journal_name_full 'Angew.Chem.,Int.Ed. '
loop_
_publ_author_name
"S.C.Capelli"
"L.R.Falvello"
"E.Forcen-Vazquez"
"G.J.McIntyre"
"F.Palacio"
"S.Sanz"
"M.Tomas"
_chemical_name_systematic
;
catena-[bis(hexa-aqua-manganese) 
(\m~5~-2-oxidopropane-1,2,3-tricarboxylato)-(\m~4~-2-oxidopropane-1,2,3-tricar
boxylato)-bis(\m~3~-2-oxidopropane-1,2,3-tricarboxylato)-nona-aqua-hexa-mangan
ese octahydrate]
;
_cell_volume   5978.615
_exptl_crystal_colour 'colorless'
_exptl_crystal_density_diffrn 1.905
_exptl_crystal_description 'block'
_diffrn_ambient_temperature 100
#These two values have been output from a single CSD field.
_refine_ls_R_factor_gt 0.0934
_refine_ls_wR_factor_gt 0.0934
_symmetry_cell_setting monoclinic
_symmetry_space_group_name_H-M 'P 21/n'
_symmetry_Int_Tables_number 14
loop_
_symmetry_equiv_pos_site_id
_symmetry_equiv_pos_as_xyz
1 x,y,z
2 1/2-x,1/2+y,1/2-z
3 -x,-y,-z
4 -1/2+x,-1/2-y,-1/2+z
_cell_length_a 12.5952(3)
_cell_length_b 21.2551(6)
_cell_length_c 22.3719(6)
_cell_angle_alpha 90
_cell_angle_beta 93.412(2)
_cell_angle_gamma 90
_cell_formula_units_Z 4
loop_
_atom_type_symbol
_atom_type_radius_bond
C 0.68
H 0.23
Mn 1.61
O 0.68
loop_
_atom_site_label
_atom_site_type_symbol
_atom_site_fract_x
_atom_site_fract_y
_atom_site_fract_z
Mn1 Mn 0.43683(8) 0.67908(5) 0.27212(5)
Mn2 Mn 0.17277(8) 0.68195(5) 0.24200(5)
Mn3 Mn 0.28481(9) 0.57111(6) 0.32673(5)
Mn4 Mn 0.31716(9) 0.58199(6) 0.17551(5)
C1 C 0.4986(6) 0.5377(4) 0.2613(4)
O1 O 0.4105(4) 0.5781(2) 0.2648(2)
C2 C 0.5414(6) 0.5428(4) 0.1981(3)
O2 O 0.4771(4) 0.5581(3) 0.1552(2)
O3 O 0.6375(4) 0.5288(3) 0.1909(3)
C3 C 0.4634(6) 0.4678(4) 0.2650(4)
H1 H 0.40310 0.46030 0.23550
H2 H 0.52300 0.44040 0.25450
C4 C 0.4301(6) 0.4503(4) 0.3270(4)
O4 O 0.3521(4) 0.4790(3) 0.3486(3)
O5 O 0.4816(4) 0.4072(3) 0.3543(3)
C5 C 0.5850(6) 0.5525(4) 0.3100(3)
H3 H 0.55210 0.55480 0.34900
H4 H 0.63680 0.51740 0.31220
C6 C 0.6444(6) 0.6136(4) 0.3000(3)
O6 O 0.6020(4) 0.6540(3) 0.2645(2)
O7 O 0.7333(4) 0.6207(3) 0.3274(3)
C7 C 0.1037(6) 0.5395(4) 0.2364(3)
O8 O 0.1940(4) 0.5802(2) 0.2385(2)
C8 C 0.0584(7) 0.5347(4) 0.3000(4)
O9 O 0.1229(4) 0.5454(3) 0.3440(2)
O10 O -0.0368(4) 0.5200(3) 0.3036(3)
C9 C 0.1343(7) 0.4710(4) 0.2210(4)
H5 H 0.19410 0.45720 0.24870
H6 H 0.07300 0.44300 0.22720
C10 C 0.1659(6) 0.4646(4) 0.1576(4)
O11 O 0.2479(5) 0.4957(3) 0.1421(3)
O12 O 0.1126(5) 0.4316(3) 0.1217(3)
C11 C 0.0197(6) 0.5652(4) 0.1893(4)
H7 H 0.05490 0.57430 0.15180
H8 H -0.03430 0.53210 0.18020
C12 C -0.0356(6) 0.6235(4) 0.2086(3)
O13 O 0.0085(4) 0.6565(3) 0.2506(2)
O14 O -0.1222(4) 0.6384(3) 0.1816(3)
C13 C 0.3196(6) 0.7281(4) 0.1492(4)
O15 O 0.3235(4) 0.6820(3) 0.1954(2)
C14 C 0.2029(7) 0.7331(5) 0.1212(4)
O16 O 0.1297(4) 0.7102(3) 0.1505(2)
O17 O 0.1917(6) 0.7569(5) 0.0706(3)
C15 C 0.3962(7) 0.7119(5) 0.1023(4)
H9 H 0.40580 0.74960 0.07710
H10 H 0.46600 0.70180 0.12260
C16 C 0.3627(7) 0.6578(5) 0.0622(4)
O18 O 0.3006(5) 0.6151(3) 0.0820(3)
O19 O 0.4050(5) 0.6541(3) 0.0119(3)
C17 C 0.3416(6) 0.7940(5) 0.1741(4)
H11 H 0.32770 0.82500 0.14150
H12 H 0.29140 0.80280 0.20540
C18 C 0.4547(6) 0.8032(4) 0.2006(4)
O20 O 0.4860(4) 0.7706(3) 0.2460(3)
O21 O 0.5161(5) 0.8395(3) 0.1753(3)
C19 C 0.2881(6) 0.7161(4) 0.3675(3)
O22 O 0.2842(4) 0.6758(2) 0.3176(2)
C20 C 0.4036(6) 0.7188(4) 0.3966(3)
O23 O 0.4774(4) 0.7006(3) 0.3652(2)
O24 O 0.4163(4) 0.7381(3) 0.4493(2)
C21 C 0.2121(6) 0.6941(4) 0.4145(3)
H13 H 0.20330 0.72840 0.44370
H14 H 0.14160 0.68540 0.39440
C22 C 0.2502(6) 0.6363(4) 0.4476(4)
O25 O 0.3002(4) 0.5939(3) 0.4201(2)
O26 O 0.2301(5) 0.6315(3) 0.5016(3)
C23 C 0.2639(6) 0.7859(4) 0.3504(4)
H15 H 0.27550 0.81220 0.38660
H16 H 0.31520 0.79970 0.32120
C24 C 0.1519(6) 0.7975(4) 0.3236(3)
O27 O 0.1238(4) 0.7708(3) 0.2742(2)
O28 O 0.0906(5) 0.8319(3) 0.3508(3)
Mn5 Mn 0.55506(9) 0.74128(6) 0.50910(5)
O29 O 0.5248(16) 0.6440(4) 0.5365(5)
O30 O 0.6571(5) 0.7078(4) 0.4425(3)
O31 O 0.5956(8) 0.8415(4) 0.4906(4)
O32 O 0.4465(5) 0.7792(3) 0.5722(3)
Mn6 Mn 0.20046(10) 0.54403(7) 0.54906(6)
O33 O 0.0560(5) 0.5907(3) 0.5739(3)
O34 O 0.1079(5) 0.5103(4) 0.4671(3)
O35 O 0.3382(7) 0.4946(8) 0.5219(6)
O36 O 0.2999(5) 0.5841(3) 0.6210(3)
O37 O 0.1514(5) 0.4621(3) 0.6018(3)
Mn7 Mn -0.30045(10) 0.57943(6) 0.01544(5)
O38 O -0.4382(4) 0.5267(3) 0.0486(2)
O39 O -0.3728(4) 0.5728(3) -0.0734(2)
O40 O -0.1544(5) 0.6205(3) -0.0141(3)
O41 O -0.2416(5) 0.5705(3) 0.1055(3)
O42 O -0.2195(5) 0.4877(3) -0.0047(3)
O43 O -0.3770(5) 0.6689(3) 0.0206(3)
Mn8 Mn -0.19735(8) 0.79514(6) 0.26494(5)
O44 O -0.2676(4) 0.7261(3) 0.2013(2)
O45 O -0.3352(4) 0.7890(3) 0.3209(2)
O46 O -0.1126(4) 0.8621(3) 0.3210(3)
O47 O -0.0586(4) 0.8010(3) 0.2093(2)
O48 O -0.1297(4) 0.7158(3) 0.3165(2)
O49 O -0.2889(4) 0.8661(3) 0.2143(2)
O50 O 0.2361(5) 0.7371(3) 0.5778(3)
O51 O -0.0602(9) 0.6297(4) 0.4779(4)
O52 O 0.3682(5) 0.7574(3) -0.0627(3)
O53 O -0.0976(5) 0.3997(3) 0.1240(3)
O54 O 0.8189(4) 0.4688(3) 0.2238(3)
O55 O 0.483(1) 0.5511(7) 0.4745(6)
O56 O 0.0097(9) 0.5280(7) 0.0326(6)
O57 O 0.2521(6) 0.4029(4) 0.4356(4)
O58 O 0.3295(5) 0.5824(3) -0.0778(3)
O17C O 0.6917(6) 0.7431(5) 0.5706(3)
Mn5C Mn 0.05506(9) 0.75872(6) 0.00910(5)
#END
