
#######################################################################
#
#                 Cambridge Crystallographic Data Centre
#                                CCDC
#
#######################################################################
#
# If this CIF has been generated from an entry in the Cambridge
# Structural Database, then it will include bibliographic, chemical,
# crystal, experimental, refinement or atomic coordinate data resulting
# from the CCDC's data processing and validation procedures.
#
#######################################################################

data_CSD_CIF_DIRPIF
_audit_creation_date 2013-11-10
_audit_creation_method CSD-ConQuest-V1
_database_code_CSD DIRPIF
_database_code_depnum_ccdc_archive 'CCDC 917752'
_chemical_formula_sum 'C190 H218 N16 O40 Zn5'
_chemical_formula_moiety
;
(C4 H12 N1 1+)2n,n(C142 H94 N6 O26 Zn5 2-),8n(C5 H11 N1 O1),6n(H2 O1)
;
_journal_coden_Cambridge 1220
_journal_volume 19
_journal_year 2013
_journal_page_first 17432
_journal_name_full 'Chem.-Eur.J. '
loop_
_publ_author_name
"Myung-Ho Choi"
"Hye Jeong Park"
"Dae Ho Hong"
"Myunghyun Paik Suh"
_chemical_name_systematic
;
catena-[bis(Diethylammonium) 
bis(\m~6~-6,6',6''-nitrilotri-2-naphthoato)-bis(\m~4~-6,6',6''-nitrilotri-2-na
phthoato)-bis(N,N-diethylformamide)-penta-zinc N,N-diethylformamide solvate 
hexahydrate]
;
_chemical_name_common
;
SNU-151
;
_cell_volume   4518.925
_exptl_crystal_colour 'brown'
_exptl_crystal_description 'prism'
_diffrn_ambient_temperature 100
_diffrn_radiation_probe x-ray
_diffrn_source synchrotron
_refine_special_details
;
Disordered cation and solvent molecules were not modelled and the disordered 
density was taken into account using the SQUEEZE/PLATON procedure. The unit 
cell was found to contain a void of 2082 A$3! holding 261 electrons.
;
#These two values have been output from a single CSD field.
_refine_ls_R_factor_gt 0.1059
_refine_ls_wR_factor_gt 0.1059
_symmetry_cell_setting triclinic
_symmetry_space_group_name_H-M 'P -1'
_symmetry_Int_Tables_number 2
loop_
_symmetry_equiv_pos_site_id
_symmetry_equiv_pos_as_xyz
1 x,y,z
2 -x,-y,-z
_cell_length_a 16.158(3)
_cell_length_b 18.171(4)
_cell_length_c 18.955(4)
_cell_angle_alpha 99.19(3)
_cell_angle_beta 106.28(3)
_cell_angle_gamma 116.34(3)
_cell_formula_units_Z 1
loop_
_atom_type_symbol
_atom_type_radius_bond
C 0.68
H 0.23
N 0.68
O 0.68
Zn 1.22
loop_
_atom_site_label
_atom_site_type_symbol
_atom_site_fract_x
_atom_site_fract_y
_atom_site_fract_z
O1 O 0.3152(2) 0.86159(17) 0.10803(17)
O2 O 1.1180(3) 0.8543(2) 0.1008(2)
O3 O 0.1922(3) 0.77144(19) -0.00602(19)
O4 O 0.9487(3) 0.8660(2) 0.93638(17)
O5 O 1.1597(2) 0.79779(19) 0.1882(2)
O6 O 0.3591(3) 0.0047(2) 0.2328(2)
O7 O 1.0370(3) 0.8054(2) 0.91172(19)
O8 O 0.3578(3) 0.8168(2) 0.26639(19)
O9 O 0.1493(3) 0.0112(2) 0.0452(2)
O10 O 0.5062(3) 0.9268(3) 0.2881(2)
O11 O 0.2550(3) -0.0233(2) 0.0199(2)
C1 C 0.9647(3) 0.8208(3) 0.8923(3)
C2 C 0.2696(3) 0.7908(3) 0.0512(2)
O12 O 0.3277(3) -0.0203(3) 0.3336(3)
C3 C 0.3630(4) 0.0289(3) 0.2988(3)
C4 C 0.2290(4) 0.0313(3) 0.0346(3)
Zn1 Zn 0.30431(3) 0.87873(3) 0.21282(3)
Zn2 Zn 0.15344(3) 0.86212(3) 0.01036(2)
N1 N 0.5584(2) 0.5390(2) 0.1427(2)
C5 C 0.6858(3) 0.6229(2) 0.0999(2)
H1 H 0.63950 0.63120 0.06550
C6 C 0.4040(3) 0.7613(2) 0.1087(2)
H2 H 0.44290 0.81900 0.14120
C7 C 0.9582(3) 0.6953(3) 0.1652(2)
H3 H 1.00540 0.68780 0.19940
C8 C 0.4440(4) 0.7214(3) 0.3146(2)
H4 H 0.37470 0.69300 0.28760
C9 C 0.3831(3) 0.6180(2) 0.0664(2)
C10 C 0.8555(3) 0.6492(2) 0.1567(2)
C11 C 0.7866(3) 0.6637(2) 0.1054(2)
C12 C 0.6557(3) 0.5723(2) 0.1434(2)
C13 C 0.4230(3) 0.5624(2) 0.0759(2)
H5 H 0.38500 0.50470 0.04350
C14 C 0.5113(3) 0.3063(3) 0.4121(2)
C15 C 0.4420(3) 0.7055(2) 0.1164(2)
C16 C 0.5398(3) 0.7356(2) 0.1737(2)
H6 H 0.57990 0.79350 0.20570
C17 C 0.2895(3) 0.5902(3) 0.0088(2)
H7 H 0.25150 0.53340 -0.02560
N2 N 0.6276(3) 0.5455(2) 0.4442(2)
C18 C 0.5156(3) 0.5922(2) 0.1316(2)
C19 C 0.8194(3) 0.7187(3) 0.0629(2)
H8 H 0.77320 0.72640 0.02770
C20 C 0.5574(3) 0.3984(3) 0.4487(2)
H9 H 0.56860 0.42000 0.50050
C21 C 0.4946(3) 0.4494(2) 0.1266(2)
C22 C 0.9876(3) 0.7496(2) 0.1244(2)
C23 C 0.6893(3) 0.6474(3) 0.5719(2)
H10 H 0.64050 0.66120 0.55210
C24 C 1.0959(3) 0.8029(3) 0.1375(3)
C25 C 0.4144(3) 0.4236(3) 0.1531(2)
H11 H 0.40700 0.46580 0.18070
C26 C 0.4941(3) 0.2741(3) 0.3347(2)
C27 C 0.4553(5) 0.8561(4) 0.2933(3)
C28 C 0.8975(3) 0.7125(3) 0.7612(2)
H12 H 0.94540 0.69820 0.78200
C29 C 0.7579(3) 0.6915(3) 0.6511(2)
C30 C 0.5844(3) 0.4537(3) 0.4088(2)
C31 C 0.9163(3) 0.7609(3) 0.0717(2)
H13 H 0.93640 0.79750 0.04310
C32 C 0.8212(3) 0.5925(3) 0.1973(3)
H14 H 0.86560 0.58020 0.22890
C33 C 0.4313(3) 0.5856(3) 0.3329(2)
H15 H 0.36190 0.55590 0.30530
C34 C 0.3594(3) 0.2752(3) 0.0989(2)
C35 C 0.4760(4) 0.2459(3) 0.4511(3)
H16 H 0.48510 0.26650 0.50250
C36 C 0.3504(3) 0.3401(3) 0.1387(3)
H17 H 0.29830 0.32500 0.15580
C37 C 0.8945(3) 0.7754(3) 0.8068(2)
C38 C 0.2524(3) 0.6447(3) 0.0017(2)
H18 H 0.18980 0.62470 -0.03700
C39 C 0.5077(3) 0.3875(2) 0.0887(2)
H19 H 0.56030 0.40420 0.07210
C40 C 0.4421(3) 0.2982(2) 0.0744(2)
C41 C 0.6930(3) 0.5862(3) 0.5250(2)
C42 C 0.7567(3) 0.7576(3) 0.7002(2)
H20 H 0.70920 0.77290 0.68080
C43 C 0.8290(3) 0.6676(3) 0.6818(2)
C44 C 0.3097(3) 0.7317(2) 0.0535(2)
C45 C 0.5740(3) 0.6807(3) 0.1816(2)
H21 H 0.63670 0.70080 0.22020
C46 C 0.4447(3) 0.1814(3) 0.2987(2)
H22 H 0.43480 0.15960 0.24730
C47 C 0.2901(3) 0.1873(3) 0.0827(2)
H23 H 0.23490 0.17170 0.09600
C48 C 0.4999(4) 0.8071(3) 0.3263(2)
C49 C 0.7250(3) 0.5548(3) 0.1920(3)
H24 H 0.70420 0.51750 0.21990
C50 C 0.4289(4) 0.1582(3) 0.4149(3)
H25 H 0.40790 0.12030 0.44240
C51 C 0.4119(3) 0.1248(3) 0.3371(3)
C52 C 0.3040(4) 0.1246(3) 0.0474(3)
C53 C 0.8249(3) 0.7999(3) 0.7762(2)
H26 H 0.82480 0.84490 0.80740
C54 C 0.5683(4) 0.4222(3) 0.3298(2)
H27 H 0.58720 0.46060 0.30240
C55 C 0.4751(3) 0.5418(3) 0.3634(2)
H28 H 0.43570 0.48300 0.35630
C56 C 0.6375(3) 0.6723(3) 0.4130(2)
H29 H 0.70710 0.70080 0.43820
C57 C 0.8299(4) 0.6018(3) 0.6307(3)
H30 H 0.87690 0.58580 0.64960
C58 C 0.5943(3) 0.7195(3) 0.3835(2)
C59 C 0.5251(4) 0.3353(3) 0.2945(2)
H31 H 0.51530 0.31500 0.24290
C60 C 0.5818(3) 0.5870(3) 0.4064(2)
C61 C 0.7646(4) 0.5622(3) 0.5555(3)
H32 H 0.76630 0.51890 0.52360
C62 C 0.4877(3) 0.6730(3) 0.3420(2)
C63 C 0.6522(4) 0.8077(3) 0.3949(3)
H33 H 0.72190 0.83640 0.42030
C64 C 0.3812(5) 0.1450(3) 0.0241(3)
H34 H 0.38820 0.10050 0.00000
C65 C 0.6069(4) 0.8532(3) 0.3686(3)
H35 H 0.64540 0.91270 0.37840
C66 C 0.4506(4) 0.2311(3) 0.0354(3)
H36 H 0.50150 0.24380 0.01730
O13 O 0.9718(4) 0.9729(3) 1.0964(3)
C67 C 1.0263(5) 0.9679(4) 1.1535(5)
H37 H 1.08350 0.96910 1.15080
N3 N 1.0125(6) 0.9611(4) 1.2154(5)
C68 C 1.0751(9) 0.9495(8) 1.2805(6)
H38 H 1.12100 0.93780 1.26400
H39 H 1.03140 0.89800 1.28970
C69 C 0.9214(11) 0.9684(10) 1.220(1)
H40 H 0.93760 0.99550 1.27430
H41 H 0.91480 1.00750 1.19270
C70 C 1.1359(13) 1.0225(8) 1.3563(8)
H42 H 1.16920 1.00520 1.39470
H43 H 1.09230 1.03670 1.37300
H44 H 1.18520 1.07250 1.34990
C71 C 0.8221(16) 0.8871(10) 1.1887(9)
H45 H 0.77360 0.89970 1.19800
H46 H 0.82710 0.84660 1.21400
H47 H 0.80110 0.86220 1.13370
Zn3 Zn 1.00000 1.00000 1.00000
O1A O 0.6848(2) 0.13841(17) 0.89197(17)
O2A O -0.1180(3) 0.1457(2) 0.8992(2)
O3A O 0.8078(3) 0.22856(19) 1.00602(19)
O4A O 0.0513(3) 0.1340(2) 0.06362(17)
O5A O -0.1597(2) 0.20221(19) 0.8118(2)
O6A O 0.6409(3) 0.9953(2) 0.7672(2)
O7A O -0.0370(3) 0.1946(2) 0.08828(19)
O8A O 0.6422(3) 0.1832(2) 0.73361(19)
O9A O 0.8507(3) 0.9888(2) 0.9548(2)
O10A O 0.4938(3) 0.0732(3) 0.7119(2)
O11A O 0.7450(3) 1.0233(2) 0.9801(2)
C1A C 0.0353(3) 0.1792(3) 0.1077(3)
C2A C 0.7304(3) 0.2092(3) 0.9488(2)
O12A O 0.6723(3) 1.0203(3) 0.6664(3)
C3A C 0.6370(4) 0.9711(3) 0.7012(3)
C4A C 0.7710(4) 0.9687(3) 0.9654(3)
Zn1A Zn 0.69569(3) 0.12127(3) 0.78718(3)
Zn2A Zn 0.84656(3) 0.13788(3) 0.98964(2)
N1A N 0.4416(2) 0.4610(2) 0.8573(2)
C5A C 0.3142(3) 0.3771(2) 0.9001(2)
H1A H 0.36050 0.36880 0.93450
C6A C 0.5960(3) 0.2387(2) 0.8913(2)
H2A H 0.55710 0.18100 0.85880
C7A C 0.0418(3) 0.3047(3) 0.8348(2)
H3A H -0.00540 0.31220 0.80060
C8A C 0.5560(4) 0.2786(3) 0.6854(2)
H4A H 0.62530 0.30700 0.71240
C9A C 0.6169(3) 0.3820(2) 0.9336(2)
C10A C 0.1445(3) 0.3508(2) 0.8433(2)
C11A C 0.2134(3) 0.3363(2) 0.8946(2)
C12A C 0.3443(3) 0.4277(2) 0.8566(2)
C13A C 0.5770(3) 0.4376(2) 0.9241(2)
H5A H 0.61500 0.49530 0.95650
C14A C 0.4887(3) 0.6937(3) 0.5879(2)
C15A C 0.5580(3) 0.2945(2) 0.8836(2)
C16A C 0.4602(3) 0.2644(2) 0.8263(2)
H6A H 0.42010 0.20650 0.79430
C17A C 0.7105(3) 0.4098(3) 0.9912(2)
H7A H 0.74850 0.46660 1.02560
N2A N 0.3724(3) 0.4545(2) 0.5558(2)
C18A C 0.4844(3) 0.4078(2) 0.8684(2)
C19A C 0.1806(3) 0.2813(3) 0.9371(2)
H8A H 0.22680 0.27360 0.97230
C20A C 0.4426(3) 0.6016(3) 0.5513(2)
H9A H 0.43140 0.58000 0.49950
C21A C 0.5054(3) 0.5506(2) 0.8734(2)
C22A C 0.0124(3) 0.2504(2) 0.8756(2)
C23A C 0.3107(3) 0.3526(3) 0.4281(2)
H10A H 0.35950 0.33880 0.44790
C24A C -0.0959(3) 0.1971(3) 0.8625(3)
C25A C 0.5856(3) 0.5764(3) 0.8469(2)
H11A H 0.59300 0.53420 0.81930
C26A C 0.5059(3) 0.7259(3) 0.6653(2)
C27A C 0.5447(5) 0.1439(4) 0.7067(3)
C28A C 0.1025(3) 0.2875(3) 0.2388(2)
H12A H 0.05460 0.30180 0.21800
C29A C 0.2421(3) 0.3085(3) 0.3489(2)
C30A C 0.4156(3) 0.5463(3) 0.5912(2)
C31A C 0.0837(3) 0.2391(3) 0.9283(2)
H13A H 0.06360 0.20250 0.95690
C32A C 0.1788(3) 0.4075(3) 0.8027(3)
H14A H 0.13440 0.41980 0.77110
C33A C 0.5687(3) 0.4144(3) 0.6671(2)
H15A H 0.63810 0.44410 0.69470
C34A C 0.6406(3) 0.7248(3) 0.9011(2)
C35A C 0.5240(4) 0.7541(3) 0.5489(3)
H16A H 0.51490 0.73350 0.49750
C36A C 0.6496(3) 0.6599(3) 0.8613(3)
H17A H 0.70170 0.67500 0.84420
C37A C 0.1055(3) 0.2246(3) 0.1932(2)
C38A C 0.7476(3) 0.3553(3) 0.9983(2)
H18A H 0.81020 0.37530 1.03700
C39A C 0.4923(3) 0.6125(2) 0.9113(2)
H19A H 0.43970 0.59580 0.92790
C40A C 0.5579(3) 0.7018(2) 0.9256(2)
C41A C 0.3070(3) 0.4138(3) 0.4750(2)
C42A C 0.2433(3) 0.2424(3) 0.2998(2)
H20A H 0.29080 0.22710 0.31920
C43A C 0.1710(3) 0.3324(3) 0.3182(2)
C44A C 0.6903(3) 0.2683(2) 0.9465(2)
C45A C 0.4260(3) 0.3193(3) 0.8184(2)
H21A H 0.36330 0.29920 0.77980
C46A C 0.5553(3) 0.8186(3) 0.7013(2)
H22A H 0.56520 0.84040 0.75270
C47A C 0.7099(3) 0.8127(3) 0.9173(2)
H23A H 0.76510 0.82830 0.90400
C48A C 0.5001(4) 0.1929(3) 0.6737(2)
C49A C 0.2750(3) 0.4452(3) 0.8080(3)
H24A H 0.29580 0.48250 0.78010
C50A C 0.5711(4) 0.8418(3) 0.5851(3)
H25A H 0.59210 0.87970 0.55760
C51A C 0.5881(3) 0.8752(3) 0.6629(3)
C52A C 0.6960(4) 0.8754(3) 0.9526(3)
C53A C 0.1751(3) 0.2001(3) 0.2238(2)
H26A H 0.17520 0.15510 0.19260
C54A C 0.4317(4) 0.5778(3) 0.6702(2)
H27A H 0.41280 0.53940 0.69760
C55A C 0.5249(3) 0.4582(3) 0.6366(2)
H28A H 0.56430 0.51700 0.64370
C56A C 0.3625(3) 0.3277(3) 0.5870(2)
H29A H 0.29290 0.29920 0.56180
C57A C 0.1701(4) 0.3982(3) 0.3693(3)
H30A H 0.12310 0.41420 0.35040
C58A C 0.4057(3) 0.2805(3) 0.6165(2)
C59A C 0.4749(4) 0.6647(3) 0.7055(2)
H31A H 0.48470 0.68500 0.75710
C60A C 0.4182(3) 0.4130(3) 0.5936(2)
C61A C 0.2354(4) 0.4378(3) 0.4445(3)
H32A H 0.23370 0.48110 0.47640
C62A C 0.5123(3) 0.3270(3) 0.6580(2)
C63A C 0.3478(4) 0.1923(3) 0.6051(3)
H33A H 0.27810 0.16360 0.57970
C64A C 0.6188(5) 0.8550(3) 0.9759(3)
H34A H 0.61180 0.89950 1.00000
C65A C 0.3931(4) 0.1468(3) 0.6314(3)
H35A H 0.35460 0.08730 0.62160
C66A C 0.5494(4) 0.7689(3) 0.9646(3)
H36A H 0.49850 0.75620 0.98270
O13A O 1.0282(4) 1.0271(3) 0.9036(3)
C67A C 0.9737(5) 1.0321(4) 0.8465(5)
H37A H 0.91650 1.03090 0.84920
N3A N 0.9875(6) 1.0389(4) 0.7846(5)
C68A C 0.9249(9) 1.0505(8) 0.7195(6)
H38A H 0.87900 1.06220 0.73600
H39A H 0.96860 1.10200 0.71030
C69A C 1.0786(11) 1.0316(10) 0.780(1)
H40A H 1.06240 1.00450 0.72570
H41A H 1.08520 0.99250 0.80730
C70A C 0.8641(13) 0.9775(8) 0.6437(8)
H42A H 0.83080 0.99480 0.60530
H43A H 0.90770 0.96330 0.62700
H44A H 0.81480 0.92750 0.65010
C71A C 1.1779(16) 1.1129(10) 0.8113(9)
H45A H 1.22640 1.10030 0.80200
H46A H 1.17290 1.15340 0.78600
H47A H 1.19890 1.13780 0.86630
O2* O 0.1180(3) 0.8543(2) 0.1008(2)
O2A* O 0.8820(3) 0.1457(2) 0.8992(2)
O4A* O 1.0513(3) 1.1340(2) 1.06362(17)
O5* O 0.1597(2) 0.79779(19) 0.1882(2)
O5A* O 0.8403(2) 0.20221(19) 0.8118(2)
O6* O 0.3591(3) 1.0047(2) 0.2328(2)
O6A* O 0.6409(3) -0.0047(2) 0.7672(2)
O7* O 0.0370(3) 0.8054(2) -0.08828(19)
O7A* O 0.9630(3) 0.1946(2) 1.08828(19)
O9* O 1.1493(3) 1.0112(2) 1.0452(2)
O11* O 0.2550(3) 0.9767(2) 0.0199(2)
O11A* O 0.7450(3) 0.0233(2) 0.9801(2)
O12* O 0.3277(3) 0.9797(3) 0.3336(3)
O12A* O 0.6723(3) 0.0203(3) 0.6664(3)
Zn1* Zn 0.30431(3) -0.12127(3) 0.21282(3)
Zn1** Zn 1.30431(3) 0.87873(3) 0.21282(3)
Zn1A* Zn -0.30431(3) 0.12127(3) 0.78718(3)
Zn1A** Zn 0.69569(3) 1.12127(3) 0.78718(3)
Zn2* Zn 0.15344(3) -0.13788(3) 0.01036(2)
Zn2** Zn 1.15344(3) 0.86212(3) 0.01036(2)
Zn2*** Zn 1.15344(3) 0.86212(3) 1.01036(2)
Zn2A* Zn -0.15344(3) 0.13788(3) -0.01036(2)
Zn2A** Zn -0.15344(3) 0.13788(3) 0.98964(2)
Zn2A*** Zn 0.84656(3) 1.13788(3) 0.98964(2)
Zn3* Zn 0.00000 0.00000 0.00000
#END
