
#######################################################################
#
#                 Cambridge Crystallographic Data Centre
#                                CCDC
#
#######################################################################
#
# If this CIF has been generated from an entry in the Cambridge
# Structural Database, then it will include bibliographic, chemical,
# crystal, experimental, refinement or atomic coordinate data resulting
# from the CCDC's data processing and validation procedures.
#
#######################################################################

data_CSD_CIF_DIRYEK
_audit_creation_date 2013-11-11
_audit_creation_method CSD-ConQuest-V1
_database_code_CSD DIRYEK
_database_code_depnum_ccdc_archive 'CCDC 942364'
_chemical_formula_sum 'C16 H28 Cu1 N4 O14'
_chemical_formula_moiety
;
(C14 H6 Cu1 N2 O8 2-)n,n(C2 H10 N2 2+),6n(H2 O1)
;
_journal_coden_Cambridge 1500
_journal_volume 3
_journal_year 2013
_journal_page_first 26220
_journal_name_full 'RSC Advances '
loop_
_publ_author_name
"K.Shankar"
"B.Das"
"J.B.Baruah"
_chemical_name_systematic
;
catena-[ethane-1,2-diaminium bis(\m~2~-pyridine-2,5-dicarboxylato)-copper(ii) 
hexahydrate]
;
_cell_volume    563.033
_exptl_crystal_colour 'blue'
_exptl_crystal_density_diffrn 1.663
_exptl_crystal_description 'plates'
_diffrn_ambient_temperature 296
#These two values have been output from a single CSD field.
_refine_ls_R_factor_gt 0.043
_refine_ls_wR_factor_gt 0.043
_symmetry_cell_setting triclinic
_symmetry_space_group_name_H-M 'P -1'
_symmetry_Int_Tables_number 2
loop_
_symmetry_equiv_pos_site_id
_symmetry_equiv_pos_as_xyz
1 x,y,z
2 -x,-y,-z
_cell_length_a 7.1562(13)
_cell_length_b 7.2456(13)
_cell_length_c 11.618(2)
_cell_angle_alpha 82.299(10)
_cell_angle_beta 89.056(10)
_cell_angle_gamma 70.66(1)
_cell_formula_units_Z 1
loop_
_atom_type_symbol
_atom_type_radius_bond
C 0.68
H 0.23
Cu 1.32
N 0.68
O 0.68
loop_
_atom_site_label
_atom_site_type_symbol
_atom_site_fract_x
_atom_site_fract_y
_atom_site_fract_z
C1 C 0.6888(5) 0.2111(6) 0.1775(3)
C2 C 0.8514(5) 0.2247(5) 0.0953(3)
C3 C 1.0497(5) 0.1197(5) 0.1173(3)
H1 H 1.09150 0.03270 0.18560
C4 C 1.1853(5) 0.1458(5) 0.0363(3)
H2 H 1.32000 0.07980 0.05060
C5 C 1.1185(5) 0.2714(5) -0.0665(3)
C6 C 0.9169(5) 0.3709(5) -0.0829(3)
H3 H 0.87110 0.45470 -0.15190
C7 C 1.2606(5) 0.3140(6) -0.1568(3)
Cu1 Cu 0.50000 0.50000 0.00000
N1 N 0.7850(4) 0.3505(4) -0.0025(2)
O1 O 0.5152(3) 0.3296(4) 0.1475(2)
O2 O 0.7295(4) 0.0889(4) 0.2653(2)
O3 O 1.1874(4) 0.4072(5) -0.2519(2)
O4 O 1.4399(4) 0.2612(4) -0.1270(2)
C8 C 0.5478(6) 0.4957(7) 0.4425(3)
H4 H 0.66420 0.53540 0.44540
H5 H 0.58980 0.36120 0.42470
N2 N 0.4090(5) 0.6264(5) 0.3510(3)
H6 H 0.30150 0.59090 0.34910
H7 H 0.46690 0.61710 0.28270
H8 H 0.37450 0.75040 0.36590
H9 H 0.519(5) 0.008(8) 0.330(3)
O5 O 0.4219(5) 0.0076(5) 0.3864(3)
H10 H 0.493(12) 0.086(11) 0.412(8)
H11 H 0.234(9) 0.259(7) 0.377(7)
H12 H 0.024(5) 0.454(6) 0.338(3)
O6 O 0.1351(5) 0.3819(5) 0.3858(3)
H13 H 0.908(7) 0.886(10) 0.378(5)
H14 H 0.96(1) 0.77(1) 0.486(5)
O7 O 1.0146(5) 0.8467(6) 0.4314(3)
C1A C 0.3112(5) 0.7889(6) -0.1775(3)
C2A C 0.1486(5) 0.7753(5) -0.0953(3)
C3A C -0.0497(5) 0.8803(5) -0.1173(3)
H1A H -0.09150 0.96730 -0.18560
C4A C -0.1853(5) 0.8542(5) -0.0363(3)
H2A H -0.32000 0.92020 -0.05060
C5A C -0.1185(5) 0.7286(5) 0.0665(3)
C6A C 0.0831(5) 0.6291(5) 0.0829(3)
H3A H 0.12890 0.54530 0.15190
C7A C -0.2606(5) 0.6860(6) 0.1568(3)
N1A N 0.2150(4) 0.6495(4) 0.0025(2)
O1A O 0.4848(3) 0.6704(4) -0.1475(2)
O2A O 0.2705(4) 0.9111(4) -0.2653(2)
O3A O -0.1874(4) 0.5928(5) 0.2519(2)
O4A O -0.4399(4) 0.7388(4) 0.1270(2)
Cu1* Cu -0.50000 0.50000 0.00000
Cu1** Cu 1.50000 0.50000 0.00000
O4* O 0.4399(4) 0.2612(4) -0.1270(2)
O4A* O 0.5601(4) 0.7388(4) 0.1270(2)
C8A C 0.4522(6) 0.5043(7) 0.5575(3)
H4A H 0.33580 0.46460 0.55460
H5A H 0.41020 0.63880 0.57530
N2A N 0.5910(5) 0.3736(5) 0.6490(3)
H6A H 0.69850 0.40910 0.65090
H7A H 0.53310 0.38290 0.71730
H8A H 0.62550 0.24960 0.63410
#END
