
#######################################################################
#
#                 Cambridge Crystallographic Data Centre
#                                CCDC
#
#######################################################################
#
# If this CIF has been generated from an entry in the Cambridge
# Structural Database, then it will include bibliographic, chemical,
# crystal, experimental, refinement or atomic coordinate data resulting
# from the CCDC's data processing and validation procedures.
#
#######################################################################

data_CSD_CIF_DIRYUB
_audit_creation_date 2018-11-28
_audit_creation_method CSD-ConQuest-V1
_database_code_CSD DIRYUB
_database_code_depnum_ccdc_archive 'CCDC 1868065'
_chemical_formula_sum 'C54 H43 Na1 O20 Si2 U2'
_chemical_formula_moiety
;
(C54 H38 Na1 O18 Si2 U2 1-)n,H2 O1,H3 O1 1+
;
_journal_coden_Cambridge 9
_journal_volume 57
_journal_year 2018
_journal_page_first 15370
_journal_name_full 'Inorg.Chem. '
loop_
_publ_author_name
"Chao Liu"
"Chao Wang"
"Zhong-Ming Sun"
_chemical_name_systematic
;
catena-[oxonium 
bis(\m-4,4',4''-(phenylsilanetriyl)tribenzoato)-diaqua-tetraoxo-sodium-di-uran
ium monohydrate]
;
_cell_volume  11877.987
_exptl_crystal_colour 'yellow'
_exptl_crystal_density_diffrn 1.745
_exptl_crystal_description 'block'
_diffrn_ambient_temperature 120
_refine_special_details
;
Disordered oxonium ions were not modelled and the disordered density was 
taken into account using the SQUEEZE/PLATON procedure.
;
#These two values have been output from a single CSD field.
_refine_ls_R_factor_gt 0.0518
_refine_ls_wR_factor_gt 0.0518
_symmetry_cell_setting orthorhombic
_symmetry_space_group_name_H-M 'I b c a'
_symmetry_Int_Tables_number 73
loop_
_symmetry_equiv_pos_site_id
_symmetry_equiv_pos_as_xyz
1 x,y,z
2 -x,1/2-y,z
3 x,-y,1/2-z
4 -x,1/2+y,1/2-z
5 1/2+x,1/2+y,1/2+z
6 1/2-x,-y,1/2+z
7 1/2+x,1/2-y,-z
8 1/2-x,y,-z
9 -x,-y,-z
10 x,-1/2+y,-z
11 -x,y,-1/2+z
12 x,-1/2-y,-1/2+z
13 -1/2-x,-1/2-y,-1/2-z
14 -1/2+x,y,-1/2-z
15 -1/2-x,-1/2+y,z
16 -1/2+x,-y,z
_cell_length_a 16.580(4)
_cell_length_b 25.835(4)
_cell_length_c 27.730(5)
_cell_angle_alpha 90
_cell_angle_beta 90
_cell_angle_gamma 90
_cell_formula_units_Z 8
loop_
_atom_type_symbol
_atom_type_radius_bond
C 0.68
H 0.23
Na 1.66
O 0.68
Si 1.20
U 1.96
loop_
_atom_site_label
_atom_site_type_symbol
_atom_site_fract_x
_atom_site_fract_y
_atom_site_fract_z
U1 U 0.47339(2) 0.52382(2) 0.11032(2)
Si1 Si 0.30186(5) 0.19832(3) 0.14649(3)
O1 O 0.38678(15) 0.44939(8) 0.09261(7)
O2 O 0.55251(15) 0.48791(9) 0.09003(10)
O3 O 0.39308(13) 0.55928(8) 0.13195(8)
O4 O 0.47259(15) 0.03340(7) 0.30853(8)
O5 O 0.42505(14) 0.08737(8) 0.36116(7)
O6 O 0.49930(14) 0.08779(8) -0.04710(8)
O7 O 0.40731(15) 0.02981(7) -0.03199(7)
O8 O 0.43758(15) 0.45050(8) 0.16466(8)
C1 C 0.3994(2) 0.42689(12) 0.13210(12)
C2 C 0.4403(2) 0.07251(13) -0.02224(10)
C3 C 0.40699(19) 0.10519(10) 0.01716(10)
C4 C 0.33460(18) 0.26904(10) 0.14635(10)
C5 C 0.3031(3) 0.29869(12) 0.10967(12)
H1 H 0.26490 0.28440 0.08790
C6 C 0.3276(2) 0.34947(13) 0.10503(13)
H2 H 0.30870 0.36930 0.07850
C7 C 0.4065(2) 0.34202(11) 0.17394(12)
H3 H 0.44140 0.35700 0.19730
C8 C 0.38482(18) 0.29027(11) 0.17702(11)
H4 H 0.40700 0.26960 0.20210
C9 C 0.3769(2) 0.37122(11) 0.13670(11)
C10 C 0.42857(19) 0.07261(10) 0.31766(10)
C11 C 0.39496(18) 0.1024(1) 0.27881(11)
C12 C 0.35522(18) 0.14887(11) 0.28635(11)
H5 H 0.34610 0.16080 0.31830
C13 C 0.32850(19) 0.17829(11) 0.24707(10)
H6 H 0.30240 0.21040 0.25310
C14 C 0.40324(19) 0.08466(11) 0.23146(11)
H7 H 0.42800 0.05220 0.22520
C15 C 0.3364(2) 0.09243(11) 0.03736(11)
H8 H 0.30780 0.06310 0.02580
C16 C 0.4463(2) 0.14702(14) 0.03366(12)
H9 H 0.49580 0.15660 0.01890
C17 C 0.30449(18) 0.12139(11) 0.07498(11)
H10 H 0.25480 0.11140 0.08920
C18 C 0.33847(17) 0.16272(10) 0.20057(10)
C19 C 0.37492(19) 0.11502(11) 0.19355(10)
H11 H 0.38080 0.10250 0.16150
C20 C 0.19073(17) 0.19553(11) 0.14255(11)
C21 C 0.14971(19) 0.19998(12) 0.09841(12)
H12 H 0.17890 0.20490 0.06930
C22 C 0.34424(18) 0.16442(10) 0.09177(10)
C23 C 0.4172(2) 0.17674(12) 0.07152(10)
H13 H 0.44750 0.20530 0.08330
C24 C 0.1434(2) 0.18858(11) 0.18372(13)
H14 H 0.16960 0.18510 0.21400
C25 C 0.0601(2) 0.18658(14) 0.18232(14)
H15 H 0.02950 0.18290 0.21110
C26 C 0.0227(2) 0.19006(14) 0.13812(15)
H16 H -0.03430 0.18750 0.13600
C27 C 0.0671(2) 0.19709(13) 0.09775(13)
H17 H 0.04000 0.20020 0.06770
Na1 Na 0.57945(15) 0.00000 0.25000
O9 O 0.6722(3) -0.06037(15) 0.22825(14)
O10 O 0.3281(2) -0.04751(10) -0.00618(14)
H18 H 0.31540 -0.05390 0.02290
H19 H 0.37180 -0.03030 -0.00680
U1A U 0.52661(2) -0.02382(2) 0.11032(2)
Si1A Si 0.69814(5) 0.30168(3) 0.14649(3)
O1A O 0.61322(15) 0.05061(8) 0.09261(7)
O2A O 0.44749(15) 0.01209(9) 0.09003(10)
O3A O 0.60692(13) -0.05928(8) 0.13195(8)
O4A O 0.52741(15) 0.46660(7) 0.30853(8)
O5A O 0.57495(14) 0.41263(8) 0.36116(7)
O6A O 0.50070(14) 0.41221(8) -0.04710(8)
O7A O 0.59269(15) 0.47019(7) -0.03199(7)
O8A O 0.56242(15) 0.04950(8) 0.16466(8)
C1A C 0.6006(2) 0.07311(12) 0.13210(12)
C2A C 0.5597(2) 0.42749(13) -0.02224(10)
C3A C 0.59301(19) 0.39481(10) 0.01716(10)
C4A C 0.66540(18) 0.23096(10) 0.14635(10)
C5A C 0.6969(3) 0.20131(12) 0.10967(12)
H1A H 0.73510 0.21560 0.08790
C6A C 0.6724(2) 0.15053(13) 0.10503(13)
H2A H 0.69130 0.13070 0.07850
C7A C 0.5935(2) 0.15798(11) 0.17394(12)
H3A H 0.55860 0.14300 0.19730
C8A C 0.61518(18) 0.20973(11) 0.17702(11)
H4A H 0.59300 0.23040 0.20210
C9A C 0.6231(2) 0.12878(11) 0.13670(11)
C10A C 0.57143(19) 0.42739(10) 0.31766(10)
C11A C 0.60504(18) 0.3976(1) 0.27881(11)
C12A C 0.64478(18) 0.35113(11) 0.28635(11)
H5A H 0.65390 0.33920 0.31830
C13A C 0.67150(19) 0.32171(11) 0.24707(10)
H6A H 0.69760 0.28960 0.25310
C14A C 0.59676(19) 0.41534(11) 0.23146(11)
H7A H 0.57200 0.44780 0.22520
C15A C 0.6636(2) 0.40757(11) 0.03736(11)
H8A H 0.69220 0.43690 0.02580
C16A C 0.5537(2) 0.35298(14) 0.03366(12)
H9A H 0.50420 0.34340 0.01890
C17A C 0.69551(18) 0.37861(11) 0.07498(11)
H10A H 0.74520 0.38860 0.08920
C18A C 0.66153(17) 0.33728(10) 0.20057(10)
C19A C 0.62508(19) 0.38498(11) 0.19355(10)
H11A H 0.61920 0.39750 0.16150
C20A C 0.80927(17) 0.30447(11) 0.14255(11)
C21A C 0.85029(19) 0.30002(12) 0.09841(12)
H12A H 0.82110 0.29510 0.06930
C22A C 0.65576(18) 0.33558(10) 0.09177(10)
C23A C 0.5828(2) 0.32326(12) 0.07152(10)
H13A H 0.55250 0.29470 0.08330
C24A C 0.8566(2) 0.31142(11) 0.18372(13)
H14A H 0.83040 0.31490 0.21400
C25A C 0.9399(2) 0.31342(14) 0.18232(14)
H15A H 0.97050 0.31710 0.21110
C26A C 0.9773(2) 0.30994(14) 0.13812(15)
H16A H 1.03430 0.31250 0.13600
C27A C 0.9329(2) 0.30291(13) 0.09775(13)
H17A H 0.96000 0.29980 0.06770
O9B O 0.6722(3) 0.06037(15) 0.27175(14)
U1B U 0.47339(2) 0.47618(2) 0.38968(2)
U1C U 0.52661(2) 0.02382(2) 0.38968(2)
U1H U 0.52661(2) 0.47618(2) -0.11032(2)
U1I U 0.47339(2) 0.02382(2) -0.11032(2)
O4B O 0.47259(15) -0.03340(7) 0.19147(8)
O4C O 0.52741(15) 0.53340(7) 0.19147(8)
O5B O 0.42505(14) -0.08737(8) 0.13884(7)
O5C O 0.57495(14) 0.58737(8) 0.13884(7)
O6H O 0.50070(14) -0.08779(8) 0.04710(8)
O6I O 0.49930(14) 0.58779(8) 0.04710(8)
O7H O 0.59269(15) -0.02981(7) 0.03199(7)
O7I O 0.40731(15) 0.52981(7) 0.03199(7)
O8C O 0.56242(15) -0.04950(8) 0.33534(8)
Na1A Na 0.42055(15) 0.50000 0.25000
#END
