
#######################################################################
#
#                 Cambridge Crystallographic Data Centre
#                                CCDC
#
#######################################################################
#
# If this CIF has been generated from an entry in the Cambridge
# Structural Database, then it will include bibliographic, chemical,
# crystal, experimental, refinement or atomic coordinate data resulting
# from the CCDC's data processing and validation procedures.
#
#######################################################################

data_CSD_CIF_DIRYUA
_audit_creation_date 2013-11-11
_audit_creation_method CSD-ConQuest-V1
_database_code_CSD DIRYUA
_database_code_depnum_ccdc_archive 'CCDC 942366'
_chemical_formula_sum 'C32 H32 Cu1 N6 O12'
_chemical_formula_moiety
;
(C14 H6 Cu1 N2 O8 2-)n,2n(C9 H9 N2 1+),4n(H2 O1)
;
_journal_coden_Cambridge 1500
_journal_volume 3
_journal_year 2013
_journal_page_first 26220
_journal_name_full 'RSC Advances '
loop_
_publ_author_name
"K.Shankar"
"B.Das"
"J.B.Baruah"
_chemical_name_systematic
;
catena-[bis(5-aminoquinolinium) 
bis(\m~2~-pyridine-2,5-dicarboxylato)-copper(ii) tetrahydrate]
;
_cell_volume    768.568
_exptl_crystal_colour 'red'
_exptl_crystal_density_diffrn 1.616
_exptl_crystal_description 'blocks'
_diffrn_ambient_temperature 296
#These two values have been output from a single CSD field.
_refine_ls_R_factor_gt 0.0628
_refine_ls_wR_factor_gt 0.0628
_symmetry_cell_setting triclinic
_symmetry_space_group_name_H-M 'P -1'
_symmetry_Int_Tables_number 2
loop_
_symmetry_equiv_pos_site_id
_symmetry_equiv_pos_as_xyz
1 x,y,z
2 -x,-y,-z
_cell_length_a 6.6726(4)
_cell_length_b 10.795(1)
_cell_length_c 12.0764(10)
_cell_angle_alpha 65.544(9)
_cell_angle_beta 79.053(6)
_cell_angle_gamma 77.697(6)
_cell_formula_units_Z 1
loop_
_atom_type_symbol
_atom_type_radius_bond
C 0.68
H 0.23
Cu 1.32
N 0.68
O 0.68
loop_
_atom_site_label
_atom_site_type_symbol
_atom_site_fract_x
_atom_site_fract_y
_atom_site_fract_z
C1 C 0.5486(7) 0.4955(4) 0.2703(4)
C2 C 0.7522(7) 0.4264(5) 0.3195(4)
C3 C 0.9201(7) 0.3782(6) 0.2550(4)
H1 H 0.91100 0.38410 0.17700
C4 C 1.1033(7) 0.3206(5) 0.3074(4)
H2 H 1.21770 0.28680 0.26500
C5 C 1.1149(6) 0.3136(4) 0.4232(4)
C6 C 0.9392(7) 0.3646(5) 0.4831(4)
H3 H 0.94480 0.36050 0.56090
C7 C 1.3115(7) 0.2518(5) 0.4842(4)
Cu1 Cu 0.50000 0.50000 0.50000
N1 N 0.7619(5) 0.4195(4) 0.4325(3)
O1 O 0.4175(5) 0.5466(3) 0.3389(3)
O2 O 0.5214(5) 0.5026(4) 0.1705(3)
O3 O 1.3204(5) 0.2729(4) 0.5780(3)
O4 O 1.4487(6) 0.1873(5) 0.4362(4)
C8 C 0.6310(8) 0.0822(7) 0.2170(5)
H4 H 0.59610 0.08980 0.29250
C9 C 0.6303(7) 0.2002(6) 0.1112(5)
H5 H 0.59860 0.28670 0.11500
C10 C 0.6774(7) 0.1874(5) -0.0002(5)
H6 H 0.67480 0.26590 -0.07230
C11 C 0.7296(6) 0.0565(5) -0.0058(4)
C12 C 0.7793(7) 0.0350(5) -0.1182(4)
C13 C 0.8311(7) -0.0988(5) -0.1111(4)
H7 H 0.86400 -0.11420 -0.18320
C14 C 0.8356(7) -0.2112(6) 0.0005(5)
H8 H 0.87340 -0.29940 0.00090
C15 C 0.7861(7) -0.1958(5) 0.1093(4)
H9 H 0.78770 -0.27150 0.18350
C16 C 0.7325(6) -0.0606(5) 0.1048(4)
H10 H 0.808(10) 0.132(7) -0.306(6)
H11 H 0.699(11) 0.229(8) -0.232(6)
H12 H 0.681(11) -0.126(4) 0.281(4)
N2 N 0.6800(6) -0.0407(5) 0.2132(4)
N3 N 0.7773(7) 0.1442(5) -0.2298(4)
O5 O 0.7952(6) 0.0468(5) 0.5623(4)
O6 O 0.7751(16) 0.5026(12) 0.9658(10)
C1A C 0.4514(7) 0.5045(4) 0.7297(4)
C2A C 0.2478(7) 0.5736(5) 0.6805(4)
C3A C 0.0799(7) 0.6218(6) 0.7450(4)
H1A H 0.08900 0.61590 0.82300
C4A C -0.1033(7) 0.6794(5) 0.6926(4)
H2A H -0.21770 0.71320 0.73500
C5A C -0.1149(6) 0.6864(4) 0.5768(4)
C6A C 0.0608(7) 0.6354(5) 0.5169(4)
H3A H 0.05520 0.63950 0.43910
C7A C -0.3115(7) 0.7482(5) 0.5158(4)
N1A N 0.2381(5) 0.5805(4) 0.5675(3)
O1A O 0.5825(5) 0.4534(3) 0.6611(3)
O2A O 0.4786(5) 0.4974(4) 0.8295(3)
O3A O -0.3204(5) 0.7271(4) 0.4220(3)
O4A O -0.4487(6) 0.8127(5) 0.5638(4)
Cu1* Cu -0.50000 0.50000 0.50000
Cu1** Cu 1.50000 0.50000 0.50000
O3* O 0.3204(5) 0.2729(4) 0.5780(3)
O3A* O 0.6796(5) 0.7271(4) 0.4220(3)
#END
