
#######################################################################
#
#                 Cambridge Crystallographic Data Centre
#                                CCDC
#
#######################################################################
#
# If this CIF has been generated from an entry in the Cambridge
# Structural Database, then it will include bibliographic, chemical,
# crystal, experimental, refinement or atomic coordinate data resulting
# from the CCDC's data processing and validation procedures.
#
#######################################################################

data_CSD_CIF_DIRZOV
_audit_creation_date 2013-11-11
_audit_creation_method CSD-ConQuest-V1
_database_code_CSD DIRZOV
_database_code_depnum_ccdc_archive 'CCDC 942370'
_chemical_formula_sum 'C50 H74 Cu3 N12 O36'
_chemical_formula_moiety
;
(C42 H18 Cu3 N6 O24 6-)n,2(C4 H16 N3 3+),12(H2 O1)
;
_journal_coden_Cambridge 1500
_journal_volume 3
_journal_year 2013
_journal_page_first 26220
_journal_name_full 'RSC Advances '
loop_
_publ_author_name
"K.Shankar"
"B.Das"
"J.B.Baruah"
_chemical_name_systematic
;
catena-[bis(N-(2-ammonioethyl)ethane-1,2-diaminium) 
tetrakis(\m~2~-pyridine-2,5-dicarboxylato)-bis(pyridine-2,5-dicarboxylato)-tri
-copper dodecahydrate]
;
_cell_volume   1593.054
_exptl_crystal_colour 'blue'
_exptl_crystal_density_diffrn 1.678
_exptl_crystal_description 'plates'
_diffrn_ambient_temperature 296
#These two values have been output from a single CSD field.
_refine_ls_R_factor_gt 0.0504
_refine_ls_wR_factor_gt 0.0504
_symmetry_cell_setting triclinic
_symmetry_space_group_name_H-M 'P -1'
_symmetry_Int_Tables_number 2
loop_
_symmetry_equiv_pos_site_id
_symmetry_equiv_pos_as_xyz
1 x,y,z
2 -x,-y,-z
_cell_length_a 7.3979(5)
_cell_length_b 14.4130(8)
_cell_length_c 15.7932(9)
_cell_angle_alpha 75.612(5)
_cell_angle_beta 82.510(5)
_cell_angle_gamma 78.590(5)
_cell_formula_units_Z 1
loop_
_atom_type_symbol
_atom_type_radius_bond
C 0.68
H 0.23
Cu 1.32
N 0.68
O 0.68
loop_
_atom_site_label
_atom_site_type_symbol
_atom_site_fract_x
_atom_site_fract_y
_atom_site_fract_z
C1 C 0.2515(6) 0.8351(3) 0.0429(3)
C2 C 0.1912(6) 0.8402(3) 0.1372(3)
C3 C 0.0808(6) 0.9189(3) 0.1620(3)
H1 H 0.03290 0.97290 0.12010
C4 C 0.0419(6) 0.9165(3) 0.2510(3)
H2 H -0.03140 0.96940 0.26930
C5 C 0.1129(5) 0.8347(3) 0.3124(3)
C6 C 0.2203(6) 0.7581(3) 0.2814(3)
H3 H 0.26800 0.70260 0.32190
C7 C 0.0789(6) 0.8269(3) 0.4105(3)
C8 C 0.6331(6) 0.5010(3) 0.2349(3)
C9 C 0.6821(5) 0.4961(3) 0.1402(3)
C10 C 0.7997(6) 0.4197(3) 0.1139(3)
H4 H 0.85610 0.36750 0.15500
C11 C 0.8322(6) 0.4222(3) 0.0253(3)
H5 H 0.90620 0.37010 0.00600
C12 C 0.7535(5) 0.5031(3) -0.0345(3)
C13 C 0.6382(5) 0.5774(3) -0.0036(3)
H6 H 0.58640 0.63220 -0.04360
C14 C 0.7857(6) 0.5079(4) -0.1321(3)
Cu1 Cu 0.40991(7) 0.65927(4) 0.14059(3)
N1 N 0.2586(4) 0.7602(2) 0.1962(2)
N2 N 0.5988(4) 0.5726(2) 0.0821(2)
O1 O 0.3491(4) 0.7541(2) 0.03293(19)
O2 O 0.2131(5) 0.9076(2) -0.0158(2)
O3 O 0.1424(5) 0.7484(2) 0.4597(2)
O4 O -0.0082(5) 0.9000(2) 0.4366(2)
O5 O 0.5093(4) 0.5738(2) 0.24754(18)
O6 O 0.7143(4) 0.4400(2) 0.29315(19)
O7 O 0.7560(6) 0.5897(3) -0.1827(2)
O8 O 0.8359(4) 0.4301(3) -0.1565(2)
C15 C 0.2490(6) 1.1632(3) 0.0136(3)
C16 C 0.2817(5) 1.1690(3) -0.0839(3)
C17 C 0.1996(6) 1.2444(3) -0.1465(3)
H7 H 0.11730 1.29610 -0.13050
C18 C 0.2420(6) 1.2416(3) -0.2334(3)
H8 H 0.19010 1.29270 -0.27680
C19 C 0.3618(6) 1.1630(3) -0.2569(3)
C20 C 0.4398(6) 1.0893(3) -0.1898(3)
H9 H 0.52060 1.03620 -0.20410
C21 C 0.4097(6) 1.1558(3) -0.3515(3)
Cu2 Cu 0.50000 1.00000 0.00000
N3 N 0.4020(4) 1.0928(2) -0.1054(2)
O9 O 0.3405(4) 1.0885(2) 0.06244(19)
O10 O 0.1420(5) 1.2281(2) 0.0411(2)
O11 O 0.5008(5) 1.0797(2) -0.3671(2)
O12 O 0.3510(5) 1.2302(2) -0.40876(19)
C22 C 0.8673(6) 0.6422(4) 0.6147(3)
H10 H 0.90810 0.68200 0.64720
H11 H 0.91710 0.65980 0.55400
C23 C 0.6611(6) 0.6599(3) 0.6194(3)
H12 H 0.61240 0.64230 0.68020
H13 H 0.62130 0.61900 0.58770
C24 C 0.3830(6) 0.7833(3) 0.6042(3)
H14 H 0.35680 0.75880 0.66670
H15 H 0.32240 0.74900 0.57350
C25 C 0.3062(6) 0.8904(3) 0.5798(3)
H16 H 0.35870 0.92460 0.61370
H17 H 0.33850 0.91640 0.51810
N4 N 0.9360(5) 0.5383(3) 0.6521(2)
H18 H 0.88630 0.52170 0.70690
H19 H 1.05870 0.52840 0.65180
H20 H 0.90440 0.50220 0.62000
N5 N 0.5844(5) 0.7640(3) 0.5815(2)
H21 H 0.63930 0.80290 0.60260
H22 H 0.60810 0.77710 0.52280
N6 N 0.1026(5) 0.9046(3) 0.5981(3)
H23 H 0.05320 0.88460 0.55870
H24 H 0.05840 0.96730 0.59500
H25 H 0.07360 0.87030 0.65160
O13 O 0.3350(7) 0.4224(3) 0.5876(3)
O14 O 0.1899(7) 0.5595(3) 0.4519(3)
O15 O 0.2842(5) 0.1026(2) 0.3472(2)
O16 O 0.3477(14) 0.2231(4) 0.1874(3)
O17 O 0.6772(14) 0.1290(6) 0.1820(4)
O18 O 0.9268(11) 0.1799(4) 0.2186(4)
C1A C 0.7485(6) 0.1649(3) -0.0429(3)
C2A C 0.8088(6) 0.1598(3) -0.1372(3)
C3A C 0.9192(6) 0.0811(3) -0.1620(3)
H1A H 0.96710 0.02710 -0.12010
C4A C 0.9581(6) 0.0835(3) -0.2510(3)
H2A H 1.03140 0.03060 -0.26930
C5A C 0.8871(5) 0.1653(3) -0.3124(3)
C6A C 0.7797(6) 0.2419(3) -0.2814(3)
H3A H 0.73200 0.29740 -0.32190
C7A C 0.9211(6) 0.1731(3) -0.4105(3)
C8A C 0.3669(6) 0.4990(3) -0.2349(3)
C9A C 0.3179(5) 0.5039(3) -0.1402(3)
C10A C 0.2003(6) 0.5803(3) -0.1139(3)
H4A H 0.14390 0.63250 -0.15500
C11A C 0.1678(6) 0.5778(3) -0.0253(3)
H5A H 0.09380 0.62990 -0.00600
C12A C 0.2465(5) 0.4969(3) 0.0345(3)
C13A C 0.3618(5) 0.4226(3) 0.0036(3)
H6A H 0.41360 0.36780 0.04360
C14A C 0.2143(6) 0.4921(4) 0.1321(3)
Cu1A Cu 0.59009(7) 0.34073(4) -0.14059(3)
N1A N 0.7414(4) 0.2398(2) -0.1962(2)
N2A N 0.4012(4) 0.4274(2) -0.0821(2)
O1A O 0.6509(4) 0.2459(2) -0.03293(19)
O2A O 0.7869(5) 0.0924(2) 0.0158(2)
O3A O 0.8576(5) 0.2516(2) -0.4597(2)
O4A O 1.0082(5) 0.1000(2) -0.4366(2)
O5A O 0.4907(4) 0.4262(2) -0.24754(18)
O6A O 0.2857(4) 0.5600(2) -0.29315(19)
O7A O 0.2440(6) 0.4103(3) 0.1827(2)
O8A O 0.1641(4) 0.5699(3) 0.1565(2)
C15A C 0.7510(6) 0.8368(3) -0.0136(3)
C16A C 0.7183(5) 0.8310(3) 0.0839(3)
C17A C 0.8004(6) 0.7556(3) 0.1465(3)
H7A H 0.88270 0.70390 0.13050
C18A C 0.7580(6) 0.7584(3) 0.2334(3)
H8A H 0.80990 0.70730 0.27680
C19A C 0.6382(6) 0.8370(3) 0.2569(3)
C20A C 0.5602(6) 0.9107(3) 0.1898(3)
H9A H 0.47940 0.96380 0.20410
C21A C 0.5903(6) 0.8442(3) 0.3515(3)
N3A N 0.5980(4) 0.9072(2) 0.1054(2)
O9A O 0.6595(4) 0.9115(2) -0.06244(19)
O10A O 0.8580(5) 0.7719(2) -0.0411(2)
O11A O 0.4992(5) 0.9203(2) 0.3671(2)
O12A O 0.6490(5) 0.7698(2) 0.40876(19)
O2A* O 0.7869(5) 1.0924(2) 0.0158(2)
Cu2* Cu 0.50000 0.00000 0.00000
#END
