
#######################################################################
#
#                 Cambridge Crystallographic Data Centre
#                                CCDC
#
#######################################################################
#
# If this CIF has been generated from an entry in the Cambridge
# Structural Database, then it will include bibliographic, chemical,
# crystal, experimental, refinement or atomic coordinate data resulting
# from the CCDC's data processing and validation procedures.
#
#######################################################################

data_CSD_CIF_DITLOI
_audit_creation_date 2008-05-01
_audit_creation_method CSD-ConQuest-V1
_database_code_CSD DITLOI
_database_code_depnum_ccdc_archive 'CCDC 612724'
_chemical_formula_sum 'C20 H24 Fe1 N2 O10 S2 Zn1'
_chemical_formula_moiety
;
(C10 H16 N2 O4 Zn1 2+)n,n(C10 H8 Fe1 O6 S2 2-)
;
_journal_coden_Cambridge 1290
_journal_year 2007
_journal_page_first 5226
_journal_name_full 'Eur.J.Inorg.Chem. '
loop_
_publ_author_name
"Liwei Mi"
"Hongwei Hou"
"Jiaqiang Xu"
"Hong Xu"
"Zhiyong Song"
"Mingsheng Tang"
"Yaoting Fan"
_chemical_name_systematic
;
catena-((\m~2~-4,4'-Bipyridyl)-tetra-aqua-zinc(ii) ferrocene-1,1'-disulfonate 
clathrate)
;
_cell_volume   2488.429
_exptl_crystal_colour 'red'
_exptl_crystal_density_diffrn 1.702
_exptl_crystal_description 'prismatic'
_diffrn_ambient_temperature 291
#These two values have been output from a single CSD field.
_refine_ls_R_factor_gt 0.0363
_refine_ls_wR_factor_gt 0.0363
_symmetry_cell_setting monoclinic
_symmetry_space_group_name_H-M 'C 2/c'
_symmetry_Int_Tables_number 15
loop_
_symmetry_equiv_pos_site_id
_symmetry_equiv_pos_as_xyz
1 x,y,z
2 1/2+x,1/2+y,z
3 -x,y,1/2-z
4 1/2-x,1/2+y,1/2-z
5 -x,-y,-z
6 -1/2-x,-1/2-y,-z
7 x,-y,-1/2+z
8 -1/2+x,-1/2-y,-1/2+z
_cell_length_a 17.855(4)
_cell_length_b 12.213(2)
_cell_length_c 13.351(3)
_cell_angle_alpha 90
_cell_angle_beta 121.27(3)
_cell_angle_gamma 90
_cell_formula_units_Z 4
loop_
_atom_type_symbol
_atom_type_radius_bond
C 0.68
H 0.23
Fe 1.34
N 0.68
O 0.68
S 1.02
Zn 1.45
loop_
_atom_site_label
_atom_site_type_symbol
_atom_site_fract_x
_atom_site_fract_y
_atom_site_fract_z
Fe1 Fe 0.25000 0.75000 0.00000
Zn1 Zn 0.00000 0.37689(4) -0.25000
N1 N -0.00599(17) 0.2473(2) -0.1441(2)
S1 S 0.20586(5) 0.54207(7) 0.13406(6)
C1 C 0.27465(19) 0.6423(3) 0.1298(3)
C2 C 0.2852(2) 0.7519(3) 0.1730(3)
H1 H 0.25320 0.78660 0.20590
C3 C 0.3526(2) 0.8003(3) 0.1601(3)
H2 H 0.37390 0.87570 0.18100
C4 C 0.3822(2) 0.7232(3) 0.1104(3)
H3 H 0.42750 0.73580 0.09110
C5 C 0.3352(2) 0.6241(3) 0.0919(3)
H4 H 0.34260 0.55620 0.05890
C6 C -0.0693(2) 0.1733(3) -0.1936(3)
H5 H -0.11630 0.18720 -0.26880
C7 C -0.0696(2) 0.0776(3) -0.1407(3)
H6 H -0.11610 0.02900 -0.18000
C8 C -0.00140(19) 0.0524(3) -0.0292(3)
C9 C 0.0631(3) 0.1316(3) 0.0233(3)
H7 H 0.11040 0.12040 0.09890
C10 C 0.0584(2) 0.2261(3) -0.0346(3)
H8 H 0.10220 0.27830 0.00430
O1 O 0.23268(14) 0.5315(2) 0.25683(18)
O2 O 0.11535(13) 0.5814(2) 0.06400(19)
O3 O 0.22112(15) 0.44242(19) 0.0867(2)
O4 O -0.01029(19) 0.4964(2) -0.1464(2)
O5 O 0.13978(17) 0.3843(2) -0.1451(2)
H9 H 0.031(3) 0.520(3) -0.094(3)
H10 H 0.167(3) 0.408(4) -0.075(4)
H11 H -0.042(3) 0.485(4) -0.127(4)
H12 H 0.162(2) 0.400(3) -0.169(3)
Zn1F Zn 0.00000 -0.37689(4) 0.25000
N1D N 0.00599(17) -0.2473(2) 0.1441(2)
N1B N 0.00599(17) 0.2473(2) -0.3559(2)
S1E S 0.29414(5) 0.95793(7) -0.13406(6)
C1E C 0.22535(19) 0.8577(3) -0.1298(3)
C2E C 0.2148(2) 0.7481(3) -0.1730(3)
H1E H 0.24680 0.71340 -0.20590
C3E C 0.1474(2) 0.6997(3) -0.1601(3)
H2E H 0.12610 0.62430 -0.18100
C4E C 0.1178(2) 0.7768(3) -0.1104(3)
H3E H 0.07250 0.76420 -0.09110
C5E C 0.1648(2) 0.8759(3) -0.0919(3)
H4E H 0.15740 0.94380 -0.05890
C6D C 0.0693(2) -0.1733(3) 0.1936(3)
H5D H 0.11630 -0.18720 0.26880
C7D C 0.0696(2) -0.0776(3) 0.1407(3)
H6D H 0.11610 -0.02900 0.18000
C8D C 0.00140(19) -0.0524(3) 0.0292(3)
C9D C -0.0631(3) -0.1316(3) -0.0233(3)
H7D H -0.11040 -0.12040 -0.09890
C10D C -0.0584(2) -0.2261(3) 0.0346(3)
H8D H -0.10220 -0.27830 -0.00430
O1E O 0.26732(14) 0.9685(2) -0.25683(18)
O2E O 0.38465(13) 0.9186(2) -0.06400(19)
O3E O 0.27888(15) 1.05758(19) -0.0867(2)
O4B O 0.01029(19) 0.4964(2) -0.3536(2)
O5B O -0.13978(17) 0.3843(2) -0.3549(2)
H9B H -0.031(3) 0.520(3) -0.406(3)
H10B H -0.167(3) 0.408(4) -0.425(4)
H11B H 0.042(3) 0.485(4) -0.373(4)
H12B H -0.162(2) 0.400(3) -0.331(3)
#END
