
#######################################################################
#
#                 Cambridge Crystallographic Data Centre
#                                CCDC
#
#######################################################################
#
# If this CIF has been generated from an entry in the Cambridge
# Structural Database, then it will include bibliographic, chemical,
# crystal, experimental, refinement or atomic coordinate data resulting
# from the CCDC's data processing and validation procedures.
#
#######################################################################

data_CSD_CIF_DIVNIH
_audit_creation_date 2013-11-12
_audit_creation_method CSD-ConQuest-V1
_database_code_CSD DIVNIH
_database_code_depnum_ccdc_archive 'CCDC 936977'
_chemical_formula_sum 'C10 H30 N2 Nd4 O36 S4'
_chemical_formula_moiety
;
(C6 H16 Nd4 O36 S4 2-)n,C4 H14 N2 2+
;
_journal_coden_Cambridge 1295
_journal_volume 36
_journal_year 2013
_journal_page_first 146
_journal_name_full 'Inorg.Chem.Commun. '
loop_
_publ_author_name
"Kangcai Wang"
"Yu Wang"
"Dingguo Xu"
"Daibing Luo"
"Zhien Lin"
_chemical_name_systematic
;
catena-(N,N'-dimethylethane-1,2-diaminium 
tetrakis(\m-sulfato)-tris(\m-oxalato)-octaaqua-tetra-neodymium)
;
_cell_volume    855.186
_exptl_crystal_colour 'purple'
_exptl_crystal_density_diffrn 2.834
_exptl_crystal_description 'block'
_diffrn_ambient_temperature 293
#These two values have been output from a single CSD field.
_refine_ls_R_factor_gt 0.0217
_refine_ls_wR_factor_gt 0.0217
_symmetry_cell_setting triclinic
_symmetry_space_group_name_H-M 'P -1'
_symmetry_Int_Tables_number 2
loop_
_symmetry_equiv_pos_site_id
_symmetry_equiv_pos_as_xyz
1 x,y,z
2 -x,-y,-z
_cell_length_a 7.0649(3)
_cell_length_b 11.2771(6)
_cell_length_c 11.8318(5)
_cell_angle_alpha 67.370(4)
_cell_angle_beta 80.035(4)
_cell_angle_gamma 82.821(4)
_cell_formula_units_Z 1
loop_
_atom_type_symbol
_atom_type_radius_bond
C 0.68
H 0.23
N 0.68
Nd 2.01
O 0.68
S 1.02
loop_
_atom_site_label
_atom_site_type_symbol
_atom_site_fract_x
_atom_site_fract_y
_atom_site_fract_z
Nd1 Nd 0.22242(3) 0.54693(2) 0.57401(2)
Nd2 Nd 0.28686(4) 1.01011(2) 0.75214(2)
S1 S 0.28932(16) 0.32141(11) 0.46149(11)
S2 S 0.44432(16) 0.71615(11) 0.25258(11)
O1 O 0.4409(4) 0.3979(3) 0.4694(3)
O2 O 0.1065(4) 0.3939(3) 0.4896(3)
O3 O 0.2990(5) 0.1929(3) 0.5568(3)
O4 O 0.3058(5) 0.3167(4) 0.3404(3)
O5 O 0.2860(4) 0.6599(3) 0.3512(3)
O6 O 0.4716(5) 0.8454(3) 0.2449(3)
O7 O 0.6226(5) 0.6348(3) 0.2757(3)
O8 O 0.3909(5) 0.7219(4) 0.1360(3)
O9 O 0.1698(5) 0.7782(3) 0.5309(3)
O10 O 0.2379(5) 0.6096(3) 0.7505(3)
O11 O 0.2286(6) 0.9392(3) 0.5832(3)
O12 O 0.3007(5) 0.7695(3) 0.8042(3)
O13 O 0.0649(6) 0.8856(4) 0.9354(4)
O14 O -0.1252(6) 0.8711(4) 1.1116(4)
O15 O -0.0031(5) 0.4065(4) 0.7526(3)
O16 O -0.0496(5) 1.0712(4) 0.7015(4)
O17 O 0.4787(6) 0.9121(4) 0.9279(4)
O18 O 0.6141(5) 0.9363(4) 0.6642(4)
C1 C 0.2132(7) 0.8232(5) 0.6037(5)
C2 C 0.2554(7) 0.7265(5) 0.7318(4)
C3 C -0.0196(8) 0.9310(5) 1.0135(5)
N1 N 0.3127(7) 0.4140(5) 0.9754(4)
H1 H 0.39980 0.35940 0.95220
H2 H 0.27300 0.47450 0.90670
C4 C 0.1464(10) 0.3424(7) 1.0542(6)
H3 H 0.09120 0.30360 1.00910
H4 H 0.05160 0.40050 1.07770
H5 H 0.18830 0.27650 1.12690
C5 C 0.4056(8) 0.4761(6) 1.0381(5)
H6 H 0.42780 0.41490 1.11940
H7 H 0.32240 0.54760 1.04810
O13A O -0.0649(6) 1.1144(4) 1.0646(4)
O14A O 0.1252(6) 1.1289(4) 0.8884(4)
C3A C 0.0196(8) 1.0690(5) 0.9865(5)
Nd1A Nd -0.22242(3) 0.45307(2) 0.42599(2)
Nd2A Nd -0.28686(4) -0.01011(2) 0.24786(2)
S1A S -0.28932(16) 0.67859(11) 0.53851(11)
S2A S -0.44432(16) 0.28385(11) 0.74742(11)
O1A O -0.4409(4) 0.6021(3) 0.5306(3)
O2A O -0.1065(4) 0.6061(3) 0.5104(3)
O3A O -0.2990(5) 0.8071(3) 0.4432(3)
O4A O -0.3058(5) 0.6833(4) 0.6596(3)
O5A O -0.2860(4) 0.3401(3) 0.6488(3)
O6A O -0.4716(5) 0.1546(3) 0.7551(3)
O7A O -0.6226(5) 0.3652(3) 0.7243(3)
O8A O -0.3909(5) 0.2781(4) 0.8640(3)
O9A O -0.1698(5) 0.2218(3) 0.4691(3)
O10A O -0.2379(5) 0.3904(3) 0.2495(3)
O11A O -0.2286(6) 0.0608(3) 0.4168(3)
O12A O -0.3007(5) 0.2305(3) 0.1958(3)
O15A O 0.0031(5) 0.5935(4) 0.2474(3)
O16A O 0.0496(5) -0.0712(4) 0.2985(4)
O17A O -0.4787(6) 0.0879(4) 0.0721(4)
O18A O -0.6141(5) 0.0637(4) 0.3358(4)
C1A C -0.2132(7) 0.1768(5) 0.3963(5)
C2A C -0.2554(7) 0.2735(5) 0.2682(4)
Nd1* Nd -0.77758(3) 0.54693(2) 0.57401(2)
Nd1A* Nd 0.77758(3) 0.45307(2) 0.42599(2)
Nd2* Nd -0.71314(4) 0.01011(2) 0.75214(2)
Nd2** Nd 0.28686(4) 0.01011(2) 0.75214(2)
Nd2A* Nd -0.28686(4) 0.98989(2) 0.24786(2)
Nd2A** Nd -0.28686(4) 0.98989(2) 1.24786(2)
Nd2A*** Nd 0.71314(4) 0.98989(2) 0.24786(2)
O1* O -0.5591(4) 0.3979(3) 0.4694(3)
O1A* O 0.5591(4) 0.6021(3) 0.5306(3)
O3* O 0.2990(5) 1.1929(3) 0.5568(3)
O3A* O -0.2990(5) -0.1929(3) 0.4432(3)
O6* O -0.5284(5) -0.1546(3) 0.2449(3)
O6A* O 0.5284(5) 1.1546(3) 0.7551(3)
O7* O -0.3774(5) 0.6348(3) 0.2757(3)
O7A* O 0.3774(5) 0.3652(3) 0.7243(3)
O13A* O -0.0649(6) 0.1144(4) 0.0646(4)
O14* O -0.1252(6) -0.1289(4) 0.1116(4)
N1A N 0.6873(7) 0.5860(5) 1.0246(4)
H1A H 0.60020 0.64060 1.04780
H2A H 0.72700 0.52550 1.09330
C4A C 0.8536(10) 0.6576(7) 0.9458(6)
H3A H 0.90880 0.69640 0.99090
H4A H 0.94840 0.59950 0.92230
H5A H 0.81170 0.72350 0.87310
C5A C 0.5944(8) 0.5239(6) 0.9619(5)
H6A H 0.57220 0.58510 0.88060
H7A H 0.67760 0.45240 0.95190
#END
