
#######################################################################
#
#                 Cambridge Crystallographic Data Centre
#                                CCDC
#
#######################################################################
#
# If this CIF has been generated from an entry in the Cambridge
# Structural Database, then it will include bibliographic, chemical,
# crystal, experimental, refinement or atomic coordinate data resulting
# from the CCDC's data processing and validation procedures.
#
#######################################################################

data_CSD_CIF_DIVNAY
_audit_creation_date 2008-05-01
_audit_creation_method CSD-ConQuest-V1
_database_code_CSD DIVNAY
_database_code_depnum_ccdc_archive 'CCDC 644795'
_chemical_formula_sum 'C14 H26 N4 O21 Se2 Y2'
_chemical_formula_moiety
;
(C6 O20 Se2 Y2 4-)n,2n(C4 H12 N2 2+),n(H2 O1)
;
_journal_coden_Cambridge 1290
_journal_year 2007
_journal_page_first 5447
_journal_name_full 'Eur.J.Inorg.Chem. '
loop_
_publ_author_name
"Mei-Ling Feng"
"Jing-Gao Mao"
_chemical_name_systematic
;
catena-(bis(Piperazinedi-ium) 
tris(\m~2~-oxalato-O,O',O'',O''')-bis(\m~2~-selenato-O,O')-di-yttrium(iii) 
monohydrate)
;
_cell_volume   1305.330
_exptl_crystal_colour 'colorless'
_exptl_crystal_density_diffrn 2.346
_exptl_special_details
;
isostructural with the ytterbium, lutetium and erbium analogues

;
_exptl_crystal_description 'Block'
_diffrn_ambient_temperature 293
#These two values have been output from a single CSD field.
_refine_ls_R_factor_gt 0.0337
_refine_ls_wR_factor_gt 0.0337
_symmetry_cell_setting monoclinic
_symmetry_space_group_name_H-M 'P 21/n'
_symmetry_Int_Tables_number 14
loop_
_symmetry_equiv_pos_site_id
_symmetry_equiv_pos_as_xyz
1 x,y,z
2 1/2-x,1/2+y,1/2-z
3 -x,-y,-z
4 -1/2+x,-1/2-y,-1/2+z
_cell_length_a 8.7749(10)
_cell_length_b 15.8803(17)
_cell_length_c 9.5077(9)
_cell_angle_alpha 90
_cell_angle_beta 99.855(6)
_cell_angle_gamma 90
_cell_formula_units_Z 2
loop_
_atom_type_symbol
_atom_type_radius_bond
C 0.68
H 0.23
N 0.68
O 0.68
Se 1.22
Y 1.78
loop_
_atom_site_label
_atom_site_type_symbol
_atom_site_fract_x
_atom_site_fract_y
_atom_site_fract_z
Y1 Y 0.02877(4) 0.19556(2) 0.52519(3)
Se1 Se -0.27814(4) 0.27879(2) 0.70901(4)
N1 N -0.4647(5) 0.0525(3) 0.3857(6)
H1 H -0.36100 0.05600 0.40700
H2 H -0.49640 0.08230 0.30550
N2 N -0.1062(6) 0.0114(3) 1.0965(6)
H3 H -0.04640 0.03660 1.17100
H4 H -0.20170 0.00530 1.11760
C1 C -0.5127(5) -0.0384(3) 0.3620(5)
H5 H -0.46430 -0.06200 0.28640
H6 H -0.62390 -0.04160 0.33240
C2 C -0.5340(4) 0.0881(2) 0.5042(5)
H7 H -0.64590 0.08780 0.47810
H8 H -0.50080 0.14600 0.52060
C3 C -0.0416(6) -0.0721(2) 1.0714(4)
H9 H -0.10940 -0.10010 0.99420
H10 H -0.03680 -0.10630 1.15660
C4 C -0.1133(7) 0.0650(3) 0.9649(6)
H11 H -0.18310 0.03960 0.88610
H12 H -0.15240 0.12050 0.98220
C5 C -0.2304(4) 0.2035(2) 0.2500(4)
C6 C -0.2076(4) 0.2957(2) 0.2985(4)
C7 C 0.0682(4) -0.0012(2) 0.4589(3)
O1 O -0.2599(4) 0.37790(18) 0.6735(3)
O2 O -0.1179(3) 0.22826(19) 0.6966(3)
O3 O -0.3031(3) 0.26640(19) 0.8753(3)
O4 O -0.4244(4) 0.2409(2) 0.5982(4)
O5 O -0.1467(3) 0.15041(17) 0.3260(3)
O6 O -0.3292(3) 0.18921(16) 0.1417(3)
O7 O -0.2895(3) 0.34969(17) 0.2218(3)
O8 O -0.1124(3) 0.31045(16) 0.4082(3)
O9 O 0.1401(3) 0.06716(16) 0.4555(3)
O10 O 0.0957(3) -0.06903(16) 0.4026(3)
O11 O 0.50000 0.00000 1.00000
Y1C Y 0.52877(4) 0.30444(2) 0.02519(3)
Y1C* Y -0.47123(4) 0.30444(2) 1.02519(3)
Y1C** Y -0.47123(4) 0.30444(2) 0.02519(3)
Y1B Y -0.02877(4) -0.19556(2) 0.47481(3)
Y1C*** Y 0.52877(4) 0.30444(2) 1.02519(3)
Se1C Se 0.22186(4) 0.22121(2) 0.20901(4)
N1B N -0.5353(5) -0.0525(3) 0.6143(6)
H1B H -0.63900 -0.05600 0.59300
H2B H -0.50360 -0.08230 0.69450
N2B N 0.1062(6) -0.0114(3) 0.9035(6)
H3B H 0.04640 -0.03660 0.82900
H4B H 0.20170 -0.00530 0.88240
C1B C -0.4873(5) 0.0384(3) 0.6380(5)
H5B H -0.53570 0.06200 0.71360
H6B H -0.37610 0.04160 0.66760
C2B C -0.4660(4) -0.0881(2) 0.4958(5)
H7B H -0.35410 -0.08780 0.52190
H8B H -0.49920 -0.14600 0.47940
C3B C 0.0416(6) 0.0721(2) 0.9286(4)
H9B H 0.10940 0.10010 1.00580
H10B H 0.03680 0.10630 0.84340
C4B C 0.1133(7) -0.0650(3) 1.0351(6)
H11B H 0.18310 -0.03960 1.11390
H12B H 0.15240 -0.12050 1.01780
C5C C 0.2696(4) 0.2965(2) 0.7500(4)
C6C C 0.2924(4) 0.2043(2) 0.7985(4)
C7B C -0.0682(4) 0.0012(2) 0.5411(3)
O1C O 0.2401(4) 0.12210(18) 0.1735(3)
O2C O 0.3821(3) 0.27174(19) 0.1966(3)
O3C O 0.1969(3) 0.23360(19) 0.3753(3)
O3* O 0.6969(3) 0.26640(19) -0.1247(3)
O4C O 0.0756(4) 0.2591(2) 0.0982(4)
O5C O 0.3533(3) 0.34959(17) 0.8260(3)
O5C* O 0.3533(3) 0.34959(17) -0.1740(3)
O6C O 0.1708(3) 0.31079(16) 0.6417(3)
O6* O 0.6708(3) 0.18921(16) 0.1417(3)
O7C O 0.2105(3) 0.15031(17) 0.7218(3)
O7* O 0.7105(3) 0.34969(17) 0.2218(3)
O8C O 0.3876(3) 0.18955(16) 0.9082(3)
O8C* O 0.3876(3) 0.18955(16) -0.0918(3)
O9B O -0.1401(3) -0.06716(16) 0.5445(3)
O9C O 0.6401(3) 0.43284(16) -0.0445(3)
O10B O -0.0957(3) 0.06903(16) 0.5974(3)
O10A O 0.4043(3) 0.43097(16) 0.0974(3)
#END
