
#######################################################################
#
#                 Cambridge Crystallographic Data Centre
#                                CCDC
#
#######################################################################
#
# If this CIF has been generated from an entry in the Cambridge
# Structural Database, then it will include bibliographic, chemical,
# crystal, experimental, refinement or atomic coordinate data resulting
# from the CCDC's data processing and validation procedures.
#
#######################################################################

data_CSD_CIF_DIVRUY
_audit_creation_date 2018-11-28
_audit_creation_method CSD-ConQuest-V1
_database_code_CSD DIVRUY
_database_code_depnum_ccdc_archive 'CCDC 1841392'
_chemical_formula_sum 'C78 H211.4 Cu6 N18.7 Ni4 O101.7 Pt2'
_chemical_formula_moiety
;
(C78 H60 Cu6 N12 Ni4 O36 4-)n,0.7(H12 N4 Pt1 2+),0.65(H20 N6 O1 Pt2 4+),65(H2 
O1)
;
_journal_coden_Cambridge 179
_journal_volume 57
_journal_year 2018
_journal_page_first 17094
_journal_name_full 'Angew.Chem.,Int.Ed. '
loop_
_publ_author_name
"M.A.Rivero-Crespo"
"M.Mon"
"J.Ferrando-Soria"
"C.W.Lopes"
"M.Boronat"
"A.Leyva-Perez"
"A.Corma"
"J.C.Hernandez-Garrido"
"M.Lopez-Haro"
"J.J.Calvino"
"E.V.Ramos-Fernandez"
"D.Armentano"
"E.Pardo"
_chemical_name_systematic
;
catena-[(\m-aqua)-hexaammine-di-platinum(ii) tetraammine-platinum(ii) 
hexakis(\m-2,4-bis{[carboxylato(oxidanidyl)methylidene]amino}-1,3,5-trimethylb
enzene)-hexa-copper(ii)-tetra-nickel(ii) pentahexacontahydrate]
;
_cell_volume  38189.988
_exptl_crystal_colour 'green/brown'
_exptl_crystal_density_diffrn 1.407
_exptl_special_details
;
Several ammine ligands do not appear to have been modelled for the disordered 
platinum complex ions
;
_exptl_crystal_description 'prism'
_diffrn_ambient_temperature 30
_diffrn_radiation_probe x-ray
_diffrn_source synchrotron
_refine_special_details
;
The structure is disordered; Disordered water solvent molecules were not 
modelled and the disordered density was taken into account using the 
SQUEEZE/PLATON procedure.
;
#These two values have been output from a single CSD field.
_refine_ls_R_factor_gt 0.1335
_refine_ls_wR_factor_gt 0.1335
_symmetry_cell_setting orthorhombic
_symmetry_space_group_name_H-M 'C m m m'
_symmetry_Int_Tables_number 65
loop_
_symmetry_equiv_pos_site_id
_symmetry_equiv_pos_as_xyz
1 x,y,z
2 x,-y,-z
3 -x,y,-z
4 -x,-y,z
5 1/2+x,1/2+y,z
6 1/2+x,1/2-y,-z
7 1/2-x,1/2+y,-z
8 1/2-x,1/2-y,z
9 -x,-y,-z
10 -x,y,z
11 x,-y,z
12 x,y,-z
13 -1/2-x,-1/2-y,-z
14 -1/2-x,-1/2+y,z
15 -1/2+x,-1/2-y,z
16 -1/2+x,-1/2+y,-z
_cell_length_a 49.1249(7)
_cell_length_b 51.6079(5)
_cell_length_c 15.0637(1)
_cell_angle_alpha 90
_cell_angle_beta 90
_cell_angle_gamma 90
_cell_formula_units_Z 8
loop_
_atom_type_symbol
_atom_type_radius_bond
C 0.68
H 0.23
Cu 1.32
N 0.68
Ni 1.24
O 0.68
Pt 1.36
loop_
_atom_site_label
_atom_site_type_symbol
_atom_site_fract_x
_atom_site_fract_y
_atom_site_fract_z
Cu1 Cu 0.50000 0.72158(3) 0.23377(8)
Cu2 Cu 0.67517(2) 0.65756(2) 0.26911(6)
Cu3 Cu 0.75586(4) 0.50000 0.23318(7)
Cu4 Cu 0.83534(3) 0.67822(2) 0.26973(6)
Ni1 Ni 0.76489(3) 0.60118(2) 0.24763(5)
Ni2 Ni 0.60623(2) 0.73580(2) 0.24372(6)
N1 N 0.53217(13) 0.71135(12) 0.1621(3)
N2 N 0.64406(14) 0.67076(14) 0.3381(4)
N3 N 0.69174(18) 0.62820(13) 0.3363(4)
N4 N 0.74428(14) 0.52997(12) 0.1618(3)
N5 N 0.80702(14) 0.66212(12) 0.3389(3)
N6 N 0.84256(16) 0.71072(13) 0.3371(4)
O1 O 0.52700(13) 0.74115(11) 0.3047(4)
O2 O 0.57190(12) 0.74843(11) 0.3087(3)
O3 O 0.57922(12) 0.71888(11) 0.1603(3)
O4 O 0.61001(13) 0.70255(11) 0.3195(3)
O5 O 0.63813(12) 0.72096(12) 0.1796(3)
O6 O 0.66753(16) 0.68954(14) 0.1983(4)
O7 O 0.70890(14) 0.65484(12) 0.1978(3)
O8 O 0.74587(13) 0.63037(11) 0.1820(3)
O9 O 0.72894(13) 0.60030(11) 0.3203(3)
O10 O 0.75236(11) 0.57419(10) 0.1605(3)
O11 O 0.78080(13) 0.56935(11) 0.3093(3)
O12 O 0.77547(13) 0.52575(10) 0.3044(3)
O13 O 0.80178(13) 0.61238(11) 0.1819(3)
O14 O 0.77927(14) 0.62575(12) 0.3366(3)
O15 O 0.82890(13) 0.64804(12) 0.1870(3)
O16 O 0.86097(16) 0.69484(13) 0.1824(3)
O17 O 0.88831(16) 0.72835(15) 0.1765(4)
O18 O 0.87012(13) 0.74685(11) 0.3317(3)
C1 C 0.55353(16) 0.72127(18) 0.1939(5)
C2 C 0.5511(3) 0.73824(17) 0.2750(5)
C3 C 0.53391(13) 0.69848(14) 0.0806(4)
C4 C 0.53481(15) 0.67232(19) 0.0819(4)
C5 C 0.5368(2) 0.6580(2) 0.00000
H1 H 0.53930 0.63970 0.00000
C6 C 0.5343(2) 0.71120(18) 0.00000
C7 C 0.5364(2) 0.65731(18) 0.1686(5)
H2 H 0.54720 0.66710 0.21170
H3 H 0.54510 0.64050 0.15790
H4 H 0.51800 0.65460 0.19210
C8 C 0.5330(3) 0.7403(3) 0.00000
C9 C 0.6317(2) 0.69151(19) 0.2983(4)
C10 C 0.6475(2) 0.70113(19) 0.2187(6)
C11 C 0.63217(15) 0.66191(13) 0.4208(4)
C12 C 0.61176(17) 0.64341(15) 0.4185(4)
C13 C 0.6011(2) 0.6338(2) 0.50000
H5 H 0.58710 0.62110 0.50000
C14 C 0.59986(18) 0.63361(18) 0.3318(4)
H6 H 0.58580 0.64560 0.31120
H7 H 0.59180 0.61640 0.34110
H8 H 0.61430 0.63240 0.28710
C15 C 0.6421(2) 0.67158(18) 0.50000
C16 C 0.6635(2) 0.6928(2) 0.50000
C17 C 0.7149(2) 0.61930(19) 0.3001(4)
C18 C 0.7230(2) 0.63727(17) 0.2183(5)
C19 C 0.6930(3) 0.6264(2) 0.50000
C20 C 0.68296(16) 0.61696(12) 0.4199(4)
C21 C 0.66574(14) 0.59725(14) 0.4189(4)
C22 C 0.6563(3) 0.5862(2) 0.50000
H9 H 0.64400 0.57200 0.50000
C23 C 0.6542(2) 0.58567(16) 0.3328(4)
H10 H 0.64670 0.59960 0.29590
H11 H 0.63970 0.57330 0.34730
H12 H 0.66870 0.57680 0.30040
C24 C 0.7136(3) 0.6479(2) 0.50000
C25 C 0.7545(2) 0.55189(14) 0.1927(4)
C26 C 0.7718(2) 0.54901(18) 0.2761(4)
C27 C 0.7300(2) 0.53209(12) 0.0802(4)
C28 C 0.7026(2) 0.53334(17) 0.0813(4)
C29 C 0.6881(3) 0.5357(3) 0.1731(7)
H13 H 0.68900 0.51910 0.20420
H14 H 0.66900 0.54050 0.16390
H15 H 0.69710 0.54910 0.20880
C30 C 0.6875(4) 0.5358(4) 0.00000
H16 H 0.66850 0.53890 0.00000
C31 C 0.7457(3) 0.53081(19) 0.00000
C32 C 0.7768(3) 0.5292(3) 0.00000
C33 C 0.81037(16) 0.63273(18) 0.2170(5)
C34 C 0.79725(17) 0.64112(16) 0.3061(4)
C35 C 0.8044(2) 0.6613(2) 0.50000
C36 C 0.79455(18) 0.66959(17) 0.4262(5)
C37 C 0.7738(2) 0.6857(2) 0.4195(4)
C38 C 0.7636(3) 0.6941(3) 0.50000
H17 H 0.74900 0.70610 0.50000
C39 C 0.8276(2) 0.6414(3) 0.50000
C40 C 0.7604(3) 0.6946(2) 0.3322(6)
H18 H 0.77450 0.69900 0.28880
H19 H 0.74910 0.70990 0.34350
H20 H 0.74900 0.68060 0.30860
C41 C 0.87071(18) 0.71501(17) 0.2115(5)
C42 C 0.86078(19) 0.7253(2) 0.3031(5)
C43 C 0.8405(2) 0.7116(2) 0.50000
C44 C 0.8306(2) 0.72145(18) 0.4201(4)
C45 C 0.81012(19) 0.74026(18) 0.4189(4)
C46 C 0.8006(2) 0.7491(2) 0.50000
H21 H 0.78670 0.76190 0.50000
C47 C 0.8639(3) 0.6927(2) 0.50000
C48 C 0.8000(2) 0.75243(17) 0.3302(6)
H22 H 0.78270 0.76140 0.34030
H23 H 0.79750 0.73870 0.28590
H24 H 0.81360 0.76490 0.30850
O19 O 0.65300(17) 0.63368(13) 0.1603(4)
O20 O 0.7218(3) 0.50000 0.3426(5)
O21 O 0.50000 0.6907(2) 0.3440(6)
O22 O 0.8768(2) 0.6538(3) 0.3101(7)
Pt1 Pt 0.79353(2) 0.67486(2) 0.00000
Pt2 Pt 0.8361(2) 0.7184(4) 0.00000
O23 O 0.8339(2) 0.6796(4) 0.00000
N7 N 0.8173(3) 0.6388(3) 0.00000
N8 N 0.7616(7) 0.6515(9) 0.00000
N9 N 0.806(2) 0.744(2) 0.00000
Pt3 Pt 0.81684(10) 0.53022(10) 0.50000
O24 O 0.8354(5) 0.50000 0.50000
N10 N 0.7796(6) 0.5422(6) 0.50000
Pt4 Pt 0.52300(5) 0.78492(6) 0.50000
N11 N 0.50000 0.7562(2) 0.50000
N12 N 0.55594(18) 0.8116(3) 0.50000
N13 N 0.55590(18) 0.7580(3) 0.50000
N14 N 0.50000 0.8136(2) 0.50000
O25 O 0.7681(4) 0.5970(3) 0.50000
O26 O 0.74398(17) 0.52801(13) 0.50000
O27 O 0.5352(3) 0.71453(18) 0.50000
O28 O 0.8937(3) 0.75417(18) 0.50000
O29 O 0.6881(8) 0.6233(5) 0.00000
O30 O 0.7290(4) 0.5982(2) 0.00000
H25? H 0.51680 0.74600 -0.03250
H26? H 0.54930 0.74730 -0.02880
H27? H 0.53210 0.74660 0.06130
H28? H 0.65530 0.70910 0.48050
H29? H 0.67830 0.68810 0.45930
H30? H 0.67080 0.69490 0.56010
H31? H 0.72990 0.64240 0.46730
H32? H 0.71870 0.65210 0.56130
H33? H 0.70590 0.66330 0.47140
H34? H 0.86830 0.68770 0.56120
H35? H 0.87990 0.70070 0.47250
H36? H 0.85880 0.67720 0.46620
H37? H 0.84090 0.64590 0.54610
H38? H 0.83660 0.64140 0.44190
H39? H 0.82030 0.62410 0.51200
H40? H 0.78450 0.54640 0.01010
H41? H 0.78310 0.52260 -0.05750
H42? H 0.78280 0.51740 0.04730
N1K N 0.53217(13) 0.71135(12) -0.1621(3)
O1K O 0.52700(13) 0.74115(11) -0.3047(4)
O2K O 0.57190(12) 0.74843(11) -0.3087(3)
O3K O 0.57922(12) 0.71888(11) -0.1603(3)
C1K C 0.55353(16) 0.72127(18) -0.1939(5)
C2K C 0.5511(3) 0.73824(17) -0.2750(5)
C3K C 0.53391(13) 0.69848(14) -0.0806(4)
C4K C 0.53481(15) 0.67232(19) -0.0819(4)
C7K C 0.5364(2) 0.65731(18) -0.1686(5)
H2K H 0.54720 0.66710 -0.21170
H3K H 0.54510 0.64050 -0.15790
H4K H 0.51800 0.65460 -0.19210
N2K N 0.64406(14) 0.67076(14) 0.6619(4)
O4K O 0.61001(13) 0.70255(11) 0.6805(3)
O5K O 0.63813(12) 0.72096(12) 0.8204(3)
O6K O 0.66753(16) 0.68954(14) 0.8017(4)
C9K C 0.6317(2) 0.69151(19) 0.7017(4)
C10K C 0.6475(2) 0.70113(19) 0.7813(6)
C11K C 0.63217(15) 0.66191(13) 0.5792(4)
C12K C 0.61176(17) 0.64341(15) 0.5815(4)
C14K C 0.59986(18) 0.63361(18) 0.6682(4)
H6K H 0.58580 0.64560 0.68880
H7K H 0.59180 0.61640 0.65890
H8K H 0.61430 0.63240 0.71290
N3K N 0.69174(18) 0.62820(13) 0.6637(4)
O7K O 0.70890(14) 0.65484(12) 0.8022(3)
O8K O 0.74587(13) 0.63037(11) 0.8180(3)
O9K O 0.72894(13) 0.60030(11) 0.6797(3)
C17K C 0.7149(2) 0.61930(19) 0.6999(4)
C18K C 0.7230(2) 0.63727(17) 0.7817(5)
C20K C 0.68296(16) 0.61696(12) 0.5801(4)
C21K C 0.66574(14) 0.59725(14) 0.5811(4)
C23K C 0.6542(2) 0.58567(16) 0.6672(4)
H10K H 0.64670 0.59960 0.70410
H11K H 0.63970 0.57330 0.65270
H12K H 0.66870 0.57680 0.69960
N4K N 0.74428(14) 0.52997(12) -0.1618(3)
O10K O 0.75236(11) 0.57419(10) -0.1605(3)
O11K O 0.78080(13) 0.56935(11) -0.3093(3)
O12K O 0.77547(13) 0.52575(10) -0.3044(3)
C25K C 0.7545(2) 0.55189(14) -0.1927(4)
C26K C 0.7718(2) 0.54901(18) -0.2761(4)
C27K C 0.7300(2) 0.53209(12) -0.0802(4)
C28K C 0.7026(2) 0.53334(17) -0.0813(4)
C29K C 0.6881(3) 0.5357(3) -0.1731(7)
H13K H 0.68900 0.51910 -0.20420
H14K H 0.66900 0.54050 -0.16390
H15K H 0.69710 0.54910 -0.20880
N5K N 0.80702(14) 0.66212(12) 0.6611(3)
O13K O 0.80178(13) 0.61238(11) 0.8181(3)
O14K O 0.77927(14) 0.62575(12) 0.6634(3)
O15K O 0.82890(13) 0.64804(12) 0.8130(3)
C33K C 0.81037(16) 0.63273(18) 0.7830(5)
C34K C 0.79725(17) 0.64112(16) 0.6939(4)
C36K C 0.79455(18) 0.66959(17) 0.5738(5)
C37K C 0.7738(2) 0.6857(2) 0.5805(4)
C40K C 0.7604(3) 0.6946(2) 0.6678(6)
H18K H 0.77450 0.69900 0.71120
H19K H 0.74910 0.70990 0.65650
H20K H 0.74900 0.68060 0.69140
N6K N 0.84256(16) 0.71072(13) 0.6629(4)
O16K O 0.86097(16) 0.69484(13) 0.8176(3)
O17K O 0.88831(16) 0.72835(15) 0.8235(4)
O18K O 0.87012(13) 0.74685(11) 0.6683(3)
C41K C 0.87071(18) 0.71501(17) 0.7885(5)
C42K C 0.86078(19) 0.7253(2) 0.6969(5)
C44K C 0.8306(2) 0.72145(18) 0.5799(4)
C45K C 0.81012(19) 0.74026(18) 0.5811(4)
C48K C 0.8000(2) 0.75243(17) 0.6698(6)
H22K H 0.78270 0.76140 0.65970
H23K H 0.79750 0.73870 0.71410
H24K H 0.81360 0.76490 0.69150
Cu2K Cu 0.67517(2) 0.65756(2) 0.73089(6)
Cu4K Cu 0.83534(3) 0.67822(2) 0.73027(6)
Ni1K Ni 0.76489(3) 0.60118(2) 0.75237(5)
Ni2G Ni 0.89377(2) 0.76420(2) 0.24372(6)
Cu1B Cu 0.50000 0.72158(3) -0.23377(8)
Cu3A Cu 0.75586(4) 0.50000 -0.23318(7)
Ni1K* Ni 0.76489(3) 0.60118(2) -0.24763(5)
Ni2K Ni 0.60623(2) 0.73580(2) -0.24372(6)
Ni2K* Ni 0.60623(2) 0.73580(2) 0.75628(6)
Ni2L Ni 0.89377(2) 0.76420(2) 0.75628(6)
N1I N 0.46783(13) 0.71135(12) 0.1621(3)
N4J N 0.74428(14) 0.47003(12) 0.1618(3)
O1I O 0.47300(13) 0.74115(11) 0.3047(4)
O2G O 0.92810(12) 0.75157(11) 0.3087(3)
O3G O 0.92078(12) 0.78112(11) 0.1603(3)
O4G O 0.88999(13) 0.79745(11) 0.3195(3)
O5G O 0.86187(12) 0.77904(12) 0.1796(3)
O10K* O 0.75236(11) 0.57419(10) 0.8395(3)
O11K* O 0.78080(13) 0.56935(11) 0.6907(3)
O12J O 0.77547(13) 0.47425(10) 0.3044(3)
O17G O 0.61169(16) 0.77165(15) 0.1765(4)
O18G O 0.62988(13) 0.75315(11) 0.3317(3)
Pt3A Pt 0.81684(10) 0.46978(10) 0.50000
N10A N 0.7796(6) 0.4578(6) 0.50000
Pt4B Pt 0.47700(5) 0.78492(6) 0.50000
N12B N 0.44406(18) 0.8116(3) 0.50000
N13B N 0.44410(18) 0.7580(3) 0.50000
#END
