
#######################################################################
#
#                 Cambridge Crystallographic Data Centre
#                                CCDC
#
#######################################################################
#
# If this CIF has been generated from an entry in the Cambridge
# Structural Database, then it will include bibliographic, chemical,
# crystal, experimental, refinement or atomic coordinate data resulting
# from the CCDC's data processing and validation procedures.
#
#######################################################################

data_CSD_CIF_DIVYOZ
_audit_creation_date 2018-11-28
_audit_creation_method CSD-ConQuest-V1
_database_code_CSD DIVYOZ
_database_code_depnum_ccdc_archive 'CCDC 1841391'
_chemical_formula_sum 'C78 H225 Cu6 N14 Na3 Ni4 O116.5 Pt2'
_chemical_formula_moiety
;
H8 O4 Pt1 1+,3(Na1 1+),0.5(H14 N4 O3 Pt2),2n(C39 H38 Cu3 N6 Ni2 O22 2-),67(H2 
O1)
;
_journal_coden_Cambridge 179
_journal_volume 57
_journal_year 2018
_journal_page_first 17094
_journal_name_full 'Angew.Chem.,Int.Ed. '
loop_
_publ_author_name
"M.A.Rivero-Crespo"
"M.Mon"
"J.Ferrando-Soria"
"C.W.Lopes"
"M.Boronat"
"A.Leyva-Perez"
"A.Corma"
"J.C.Hernandez-Garrido"
"M.Lopez-Haro"
"J.J.Calvino"
"E.V.Ramos-Fernandez"
"D.Armentano"
"E.Pardo"
_chemical_name_systematic
;
catena-[tetra-aqua-platinum(i) tri-sodium 
(\m-oxo)-dihydroxy-tetra-ammine-di-platinum(ii) 
bis(tris(\m-2,4-bis((carboxylato(oxidanidyl)methylidene)amino)-1,3,5-trimethyl
benzene)-tetra-aqua-tri-copper(ii)-di-nickel(ii)) heptahexacontahydrate]
;
_cell_volume  19741.260
_exptl_crystal_colour 'green/brown'
_exptl_crystal_density_diffrn 1.437
_exptl_crystal_description 'prism'
_diffrn_ambient_temperature 30
_diffrn_radiation_probe x-ray
_diffrn_source synchrotron
_refine_special_details
;
Disordered molecules were not modelled and the disordered density was taken 
into account using the SQUEEZE/PLATON procedure. The structure is disordered.
;
#These two values have been output from a single CSD field.
_refine_ls_R_factor_gt 0.1149
_refine_ls_wR_factor_gt 0.1149
_symmetry_cell_setting tetragonal
_symmetry_space_group_name_H-M 'P 4/m m m'
_symmetry_Int_Tables_number 123
loop_
_symmetry_equiv_pos_site_id
_symmetry_equiv_pos_as_xyz
1 x,y,z
2 -x,-y,z
3 -y,x,z
4 y,-x,z
5 -x,y,-z
6 x,-y,-z
7 y,x,-z
8 -y,-x,-z
9 -x,-y,-z
10 x,y,-z
11 y,-x,-z
12 -y,x,-z
13 x,-y,z
14 -x,y,z
15 -y,-x,z
16 y,x,z
_cell_length_a 35.895(2)
_cell_length_b 35.895(2)
_cell_length_c 15.3217(8)
_cell_angle_alpha 90
_cell_angle_beta 90
_cell_angle_gamma 90
_cell_formula_units_Z 4
loop_
_atom_type_symbol
_atom_type_radius_bond
C 0.68
H 0.23
Cu 1.32
N 0.68
Na 1.66
Ni 1.24
O 0.68
Pt 1.36
loop_
_atom_site_label
_atom_site_type_symbol
_atom_site_fract_x
_atom_site_fract_y
_atom_site_fract_z
Cu1 Cu 0.16709(4) 0.50000 0.22491(8)
Cu2 Cu 0.25813(3) 0.74187(3) 0.27044(8)
Cu3 Cu 0.00000 0.65296(5) 0.22974(9)
Ni1 Ni 0.14747(3) 0.64592(3) 0.25004(6)
O1 O 0.18197(14) 0.60891(16) 0.1796(3)
O2 O 0.13404(15) 0.59784(16) 0.3144(3)
O3 O 0.14129(15) 0.53598(18) 0.2966(3)
O4 O 0.18771(14) 0.65984(14) 0.3367(3)
O5 O 0.16650(14) 0.69208(16) 0.1857(3)
O6 O 0.21556(15) 0.73108(15) 0.1932(3)
O7 O 0.10396(15) 0.67265(16) 0.3144(3)
O8 O 0.10691(15) 0.63747(18) 0.1619(3)
O9 O 0.04077(15) 0.67383(18) 0.3064(3)
N1 N 0.18290(16) 0.54408(19) 0.1585(4)
N2 N 0.23771(17) 0.69998(18) 0.3401(3)
N3 N 0.04268(17) 0.63651(19) 0.1594(4)
C1 C 0.1470(2) 0.5695(2) 0.2762(5)
C2 C 0.1731(2) 0.5769(3) 0.1991(5)
C3 C 0.1960(2) 0.7049(2) 0.2201(5)
C4 C 0.2079(2) 0.6859(2) 0.3067(4)
C5 C 0.0750(2) 0.6451(2) 0.1930(5)
C6 C 0.0727(2) 0.6649(2) 0.2810(5)
C7 C 0.20359(19) 0.5473(2) 0.0772(4)
C8 C 0.1831(3) 0.5479(3) 0.00000
C9 C 0.2427(2) 0.5489(2) 0.0808(5)
C10 C 0.2595(3) 0.5491(3) 0.00000
H1 H 0.28590 0.54950 0.00000
C11 C 0.2634(3) 0.5510(4) 0.1635(6)
H2 H 0.24650 0.54560 0.21210
H3 H 0.27370 0.57610 0.17050
H4 H 0.28370 0.53280 0.16290
C12 C 0.1408(3) 0.5492(4) 0.00000
C13 C 0.2510(2) 0.6844(2) 0.4224(4)
C14 C 0.2360(3) 0.6997(3) 0.50000
C15 C 0.2769(3) 0.6560(3) 0.4213(5)
C16 C 0.2902(5) 0.6433(6) 0.50000
H5 H 0.30940 0.62510 0.50000
C17 C 0.2887(4) 0.6378(4) 0.3374(6)
H6 H 0.30480 0.61640 0.35040
H7 H 0.30240 0.65580 0.30170
H8 H 0.26660 0.62930 0.30560
C18 C 0.2064(5) 0.7281(5) 0.50000
C19 C 0.04463(19) 0.6157(2) 0.0783(4)
C20 C 0.0471(2) 0.5765(2) 0.0816(5)
C21 C 0.0483(3) 0.5585(3) 0.00000
H9 H 0.05020 0.53210 0.00000
C22 C 0.0438(2) 0.6362(3) 0.00000
C23 C 0.0460(4) 0.6767(3) 0.00000
C24 C 0.0508(3) 0.5558(3) 0.1632(6)
H10 H 0.03260 0.56500 0.20560
H11 H 0.07600 0.55920 0.18650
H12 H 0.04630 0.52930 0.15230
O10 O 0.2126(3) 0.50000 0.3431(6)
O11 O 0.2934(2) 0.7066(2) 0.1517(6)
O12 O 0.00000 0.6035(3) 0.3484(7)
O13 O 0.00000 0.7264(4) 0.1894(9)
Na1 Na 0.1394(3) 0.6583(3) 0.00000
Na2 Na 0.2295(2) 0.7705(2) 0.0696(6)
O14 O 0.2031(6) 0.7180(6) 0.00000
O15 O 0.00000 0.6967(12) 0.577(4)
O16 O 0.00000 0.753(2) 0.6398(14)
Pt1 Pt 0.00000 0.7462(3) 0.50000
O17 O 0.0761(4) 0.5493(5) 0.50000
O18 O 0.2007(3) 0.7993(3) 0.3173(8)
O19 O 0.1280(4) 0.7426(5) 0.0843(12)
O20 O 0.2419(5) 0.6413(3) 0.0941(12)
O21 O 0.0775(7) 0.50000 0.3869(15)
O22 O 0.1841(7) 0.6213(7) 0.50000
O23 O 0.1701(13) 0.4530(9) 0.50000
H13? H 0.19950 0.73410 0.56030
H14? H 0.18450 0.71850 0.46910
H15? H 0.21540 0.75060 0.47060
H16? H 0.13150 0.54310 -0.05840
H17? H 0.13250 0.57430 0.01610
H18? H 0.13110 0.53120 0.04230
H19? H 0.04490 0.68590 -0.06020
H20? H 0.06950 0.68460 0.02690
H21? H 0.02510 0.68700 0.03330
O24? O 0.2530(5) 0.7117(6) 0.00000
O25? O 0.1774(7) 0.8019(8) 0.1359(17)
Pt2? Pt 0.0697(4) 0.5807(5) 0.4157(9)
O1I O 0.18197(14) 0.60891(16) -0.1796(3)
O2I O 0.13404(15) 0.59784(16) -0.3144(3)
O3I O 0.14129(15) 0.53598(18) -0.2966(3)
N1I N 0.18290(16) 0.54408(19) -0.1585(4)
C1I C 0.1470(2) 0.5695(2) -0.2762(5)
C2I C 0.1731(2) 0.5769(3) -0.1991(5)
C7I C 0.20359(19) 0.5473(2) -0.0772(4)
C9I C 0.2427(2) 0.5489(2) -0.0808(5)
C11I C 0.2634(3) 0.5510(4) -0.1635(6)
H2I H 0.24650 0.54560 -0.21210
H3I H 0.27370 0.57610 -0.17050
H4I H 0.28370 0.53280 -0.16290
O4I O 0.18771(14) 0.65984(14) 0.6633(3)
O5I O 0.16650(14) 0.69208(16) 0.8143(3)
O6I O 0.21556(15) 0.73108(15) 0.8068(3)
N2I N 0.23771(17) 0.69998(18) 0.6599(3)
C3I C 0.1960(2) 0.7049(2) 0.7799(5)
C4I C 0.2079(2) 0.6859(2) 0.6933(4)
C13I C 0.2510(2) 0.6844(2) 0.5776(4)
C15I C 0.2769(3) 0.6560(3) 0.5787(5)
C17I C 0.2887(4) 0.6378(4) 0.6626(6)
H6I H 0.30480 0.61640 0.64960
H7I H 0.30240 0.65580 0.69830
H8I H 0.26660 0.62930 0.69440
O7I O 0.10396(15) 0.67265(16) -0.3144(3)
O8I O 0.10691(15) 0.63747(18) -0.1619(3)
O9I O 0.04077(15) 0.67383(18) -0.3064(3)
N3I N 0.04268(17) 0.63651(19) -0.1594(4)
C5I C 0.0750(2) 0.6451(2) -0.1930(5)
C6I C 0.0727(2) 0.6649(2) -0.2810(5)
C19I C 0.04463(19) 0.6157(2) -0.0783(4)
C20I C 0.0471(2) 0.5765(2) -0.0816(5)
C24I C 0.0508(3) 0.5558(3) -0.1632(6)
H10I H 0.03260 0.56500 -0.20560
H11I H 0.07600 0.55920 -0.18650
H12I H 0.04630 0.52930 -0.15230
Ni1I Ni 0.14747(3) 0.64592(3) -0.25004(6)
Cu1E Cu 0.16709(4) 0.50000 -0.22491(8)
Cu2G Cu 0.25813(3) 0.74187(3) 0.72956(8)
Cu3D Cu 0.00000 0.65296(5) -0.22974(9)
Ni1I* Ni 0.14747(3) 0.64592(3) 0.74996(6)
O3L O 0.14129(15) 0.46402(18) 0.2966(3)
O4I* O 0.18771(14) 0.65984(14) -0.3367(3)
O5I* O 0.16650(14) 0.69208(16) -0.1857(3)
O6N O 0.26892(15) 0.78444(15) 0.1932(3)
O9M O -0.04077(15) 0.67383(18) 0.3064(3)
N1L N 0.18290(16) 0.45592(19) 0.1585(4)
N2N N 0.30002(17) 0.76229(18) 0.3401(3)
N3M N -0.04268(17) 0.63651(19) 0.1594(4)
O15D O 0.00000 0.6967(12) 0.423(4)
O16D O 0.00000 0.753(2) 0.3602(14)
#END
