
#######################################################################
#
#                 Cambridge Crystallographic Data Centre
#                                CCDC
#
#######################################################################
#
# If this CIF has been generated from an entry in the Cambridge
# Structural Database, then it will include bibliographic, chemical,
# crystal, experimental, refinement or atomic coordinate data resulting
# from the CCDC's data processing and validation procedures.
#
#######################################################################

data_CSD_CIF_DIXBAN
_audit_creation_date 1987-02-04
_audit_creation_method CSD-ConQuest-V1
_database_code_CSD DIXBAN
_database_code_depnum_ccdc_archive 'CCDC 1142066'
_chemical_formula_sum 'C8 H8 K4 O18 V2'
_chemical_formula_moiety
;
(C8 H8 O18 V2 4-)n,4n(K1 1+)
;
_journal_coden_Cambridge 186
_journal_year 1986
_journal_page_first 895
_journal_name_full 'J.Chem.Soc.,Dalton Trans. '
loop_
_publ_author_name
"T.R.Gilson"
"I.M.Thom-Postlethwaite"
"M.Webster"
_chemical_name_systematic
;
catena(Dipotassium (\m~2~-formato-O,O')-triformato-oxo-vanadium(iv))
;
_cell_volume   2089.786
_exptl_crystal_colour 'blue'
_exptl_crystal_density_diffrn 2.067
_diffrn_ambient_temperature ?
_diffrn_special_details
;
The study was carried out at room temperature,in the range 283-303K

;
#These two values have been output from a single CSD field.
_refine_ls_R_factor_gt 0.023
_refine_ls_wR_factor_gt 0.023
_symmetry_cell_setting orthorhombic
_symmetry_space_group_name_H-M 'P b c a'
_symmetry_Int_Tables_number 61
loop_
_symmetry_equiv_pos_site_id
_symmetry_equiv_pos_as_xyz
1 x,y,z
2 1/2-x,-y,1/2+z
3 1/2+x,1/2-y,-z
4 -x,1/2+y,1/2-z
5 -x,-y,-z
6 -1/2+x,y,-1/2-z
7 -1/2-x,-1/2+y,z
8 x,-1/2-y,-1/2+z
_cell_length_a 6.8668(4)
_cell_length_b 14.908(3)
_cell_length_c 20.414(4)
_cell_angle_alpha 90
_cell_angle_beta 90
_cell_angle_gamma 90
_cell_formula_units_Z 4
loop_
_atom_type_symbol
_atom_type_radius_bond
C 0.68
H 0.23
K 1.33
O 0.68
V 1.31
loop_
_atom_site_label
_atom_site_type_symbol
_atom_site_fract_x
_atom_site_fract_y
_atom_site_fract_z
V1 V -0.05784(6) 0.30178(2) 0.11197(2)
O1 O 0.0795(3) 0.2850(1) 0.1740(1)
O2 O 0.1052(2) 0.3995(1) 0.0698(1)
O3 O 0.3498(3) 0.4959(1) 0.0774(1)
O4 O -0.2490(3) 0.2023(1) 0.1311(1)
O5 O -0.5168(3) 0.1421(1) 0.1693(1)
O6 O -0.2261(3) 0.3972(1) 0.1504(1)
O7 O -0.3163(2) 0.4901(1) 0.2290(1)
O8 O 0.0523(2) 0.2065(1) 0.0514(1)
O9 O -0.2501(3) 0.3353(1) 0.0285(1)
C1 C 0.2418(4) 0.4394(2) 0.0998(1)
C2 C -0.4179(4) 0.2052(2) 0.1544(1)
C3 C -0.2292(4) 0.4242(2) 0.2093(1)
C4 C 0.2001(4) 0.2134(2) 0.0165(1)
H1 H 0.28600 0.40960 0.14390
H2 H -0.46060 0.27340 0.15770
H3 H -0.12830 0.39570 0.23910
H4 H 0.29630 0.25790 0.03090
K1 K 0.10548(8) 0.10326(4) 0.19307(3)
K2 K -0.25973(9) 0.52977(4) 0.05695(3)
C4B C -0.2999(4) 0.2866(2) -0.0165(1)
O9B O 0.2499(3) 0.1647(1) -0.0285(1)
O8B O -0.4477(2) 0.2935(1) -0.0514(1)
H4B H -0.20370 0.24210 -0.03090
V1B V 0.44216(6) 0.19822(2) -0.11197(2)
V1B* V -0.55784(6) 0.19822(2) -0.11197(2)
O1B O 0.5795(3) 0.2150(1) -0.1740(1)
O2B O 0.6052(2) 0.1005(1) -0.0698(1)
O4B O 0.2510(3) 0.2977(1) -0.1311(1)
O6B O 0.2739(3) 0.1028(1) -0.1504(1)
O8B* O 0.5523(2) 0.2935(1) -0.0514(1)
C1B C 0.7418(4) 0.0606(2) -0.0998(1)
C2B C 0.0821(4) 0.2948(2) -0.1544(1)
C3B C 0.2708(4) 0.0758(2) -0.2093(1)
O3B O 0.8498(3) 0.0041(1) -0.0774(1)
H1B H 0.78600 0.09040 -0.14390
O5B O -0.0168(3) 0.3579(1) -0.1693(1)
H2B H 0.03940 0.22660 -0.15770
O7B O 0.1837(2) 0.0099(1) -0.2290(1)
H3B H 0.37170 0.10430 -0.23910
#END
