
#######################################################################
#
#                 Cambridge Crystallographic Data Centre
#                                CCDC
#
#######################################################################
#
# If this CIF has been generated from an entry in the Cambridge
# Structural Database, then it will include bibliographic, chemical,
# crystal, experimental, refinement or atomic coordinate data resulting
# from the CCDC's data processing and validation procedures.
#
#######################################################################

data_CSD_CIF_DIYWEP
_audit_creation_date 2014-05-01
_audit_creation_method CSD-ConQuest-V1
_database_code_CSD DIYWEP
_database_code_depnum_ccdc_archive 'CCDC 978916'
_chemical_formula_sum 'C20.5 H16 Cd1 N2 O9'
_chemical_formula_moiety
;
(C16 H9 Cd1 O9 1-)n,0.5n(C9 H14 N4 2+)
;
_journal_coden_Cambridge 1350
_journal_volume 16
_journal_year 2014
_journal_page_first 6417
_journal_name_full 'CrystEngComm '
loop_
_publ_author_name
"Xin-Hong Chang"
"Ying Zhao"
"Min-Le Han"
"Lu-Fang Ma"
"Li-Ya Wang"
_chemical_name_systematic
;
catena-[hemi(1,1'-propane-1,3-diylbis(1H-imidazol-3-ium)) (\m~4~-hydrogen 
biphenyl-2,3',5,5'-tetracarboxylate)-aqua-cadmium]
;
_cell_volume   3863.905
_exptl_crystal_density_diffrn 1.88
_diffrn_ambient_temperature 296
#These two values have been output from a single CSD field.
_refine_ls_R_factor_gt 0.0806
_refine_ls_wR_factor_gt 0.0806
_symmetry_cell_setting monoclinic
_symmetry_space_group_name_H-M 'C 2/c'
_symmetry_Int_Tables_number 15
loop_
_symmetry_equiv_pos_site_id
_symmetry_equiv_pos_as_xyz
1 x,y,z
2 -x,y,1/2-z
3 1/2+x,1/2+y,z
4 1/2-x,1/2+y,1/2-z
5 -x,-y,-z
6 x,-y,-1/2+z
7 -1/2-x,-1/2-y,-z
8 -1/2+x,-1/2-y,-1/2+z
_cell_length_a 18.65(3)
_cell_length_b 7.982(11)
_cell_length_c 27.53(4)
_cell_angle_alpha 90
_cell_angle_beta 109.469(16)
_cell_angle_gamma 90
_cell_formula_units_Z 8
loop_
_atom_type_symbol
_atom_type_radius_bond
C 0.68
H 0.23
Cd 1.44
N 0.68
O 0.68
loop_
_atom_site_label
_atom_site_type_symbol
_atom_site_fract_x
_atom_site_fract_y
_atom_site_fract_z
Cd1 Cd 0.06259(4) -0.31307(10) 0.02677(3)
O1 O -0.0116(4) -0.2115(10) -0.0528(3)
H1 H -0.02860 -0.14270 -0.07750
H2 H -0.05580 -0.25220 -0.05880
O2 O 0.4381(4) 0.0527(10) 0.0229(3)
O3 O 0.4774(4) 0.2820(11) 0.0687(3)
O4 O 0.4747(11) 0.291(3) 0.3037(7)
O5 O 0.4196(7) 0.4344(17) 0.3484(4)
H3 H 0.44290 0.36490 0.36980
O6 O 0.0918(5) 0.4270(14) 0.1269(4)
O7 O 0.1594(5) 0.5783(12) 0.0898(4)
O8 O 0.1077(4) -0.0422(10) 0.0479(3)
O9 O 0.1718(4) -0.1654(10) 0.0034(4)
C1 C 0.1523(6) 0.4894(15) 0.1261(5)
C2 C 0.2241(6) 0.4563(14) 0.1711(4)
C3 C 0.2280(7) 0.5269(16) 0.2197(5)
H4 H 0.18590 0.58340 0.22240
C4 C 0.2925(8) 0.5134(18) 0.2625(5)
H5 H 0.29320 0.56110 0.29350
C5 C 0.3564(7) 0.4292(19) 0.2597(5)
C6 C 0.3537(6) 0.3627(16) 0.2115(4)
H6 H 0.39690 0.31100 0.20880
C7 C 0.2888(6) 0.3716(15) 0.1677(4)
C8 C 0.2863(5) 0.2765(15) 0.1199(4)
C9 C 0.3526(5) 0.2744(14) 0.1050(4)
H7 H 0.39430 0.34030 0.12260
C10 C 0.3550(5) 0.1737(13) 0.0641(4)
C11 C 0.2930(5) 0.0714(14) 0.0390(4)
H8 H 0.29430 0.00190 0.01220
C12 C 0.2287(5) 0.0745(14) 0.0547(4)
C13 C 0.2269(6) 0.1788(13) 0.0934(4)
H9 H 0.18280 0.18300 0.10200
C14 C 0.1647(5) -0.0527(15) 0.0317(4)
C15 C 0.4275(5) 0.1685(12) 0.0509(4)
C16 C 0.4237(7) 0.396(3) 0.3048(6)
N1 N 0.0982(12) 0.667(2) 0.8293(9)
N2 N 0.1722(10) 0.783(2) 0.8957(7)
H10 H 0.20870 0.82590 0.92070
C17 C 0.1047(12) 0.775(3) 0.8949(9)
H11 H 0.08770 0.82760 0.91930
C18 C 0.1805(13) 0.720(3) 0.8540(9)
H12 H 0.22270 0.70990 0.84330
C19 C 0.0656(14) 0.697(3) 0.8612(10)
H13 H 0.01680 0.66180 0.85820
C20 C 0.0903(16) 0.548(4) 0.7861(10)
H14 H 0.09210 0.43200 0.79670
H15 H 0.12720 0.56830 0.76880
C21 C 0.00000 0.612(6) 0.75000
H16 H -0.01140 0.68640 0.77430
H17? H -0.01140 0.68640 0.77430
Cd1* Cd 0.06259(4) 0.68693(10) 0.02677(3)
Cd1B Cd 0.56259(4) 0.18693(10) 0.02677(3)
Cd1F Cd 0.43741(4) -0.18693(10) -0.02677(3)
O2B O -0.0619(4) -0.4473(10) 0.0229(3)
O2F O 0.0619(4) -0.5527(10) -0.0229(3)
O3B O -0.0226(4) -0.2180(11) 0.0687(3)
O7* O 0.1594(5) -0.4217(12) 0.0898(4)
H16A H 0.01140 0.68640 0.72570
N1A N -0.0982(12) 0.667(2) 0.6707(9)
N2A N -0.1722(10) 0.783(2) 0.6043(7)
H10A H -0.20870 0.82590 0.57930
C17A C -0.1047(12) 0.775(3) 0.6051(9)
H11A H -0.08770 0.82760 0.58070
C18A C -0.1805(13) 0.720(3) 0.6460(9)
H12A H -0.22270 0.70990 0.65670
C19A C -0.0656(14) 0.697(3) 0.6388(10)
H13A H -0.01680 0.66180 0.64180
C20A C -0.0903(16) 0.548(4) 0.7139(10)
H14A H -0.09210 0.43200 0.70330
H15A H -0.12720 0.56830 0.73120
#END
