
#######################################################################
#
#                 Cambridge Crystallographic Data Centre
#                                CCDC
#
#######################################################################
#
# If this CIF has been generated from an entry in the Cambridge
# Structural Database, then it will include bibliographic, chemical,
# crystal, experimental, refinement or atomic coordinate data resulting
# from the CCDC's data processing and validation procedures.
#
#######################################################################

data_CSD_CIF_DOFFOU
_audit_creation_date 2009-02-19
_audit_creation_method CSD-ConQuest-V1
_database_code_CSD DOFFOU
_database_code_depnum_ccdc_archive 'CCDC 638680'
_chemical_formula_sum 'C12 H24 Cl2 Cu1 Mn2 N4 O8'
_chemical_formula_moiety
;
(C4 H16 Cu1 N4 2+)n,n(C8 H8 Cl2 Mn2 O8 2-)
;
_journal_coden_Cambridge 9
_journal_volume 47
_journal_year 2008
_journal_page_first 4554
_journal_name_full 'Inorg.Chem. '
loop_
_publ_author_name
"V.G.Makhankova"
"A.O.Beznischenko"
"V.N.Kokozay"
"R.I.Zubatyuk"
"O.V.Shishkin"
"J.Jezierska"
"A.Ozarowski"
_chemical_name_systematic
;
catena-(bis(Ethylenediamine)-copper(ii) 
bis(\m~4~-succinato)-dichloro-di-manganese(ii))
;
_cell_volume    524.156
_exptl_crystal_colour 'violet'
_exptl_crystal_density_diffrn 1.89
_exptl_special_details
;
magnetic properties
The axial Cu - Cl distances of 2.934A are described in the paper as having a 
semicoordinative bond character
;
_exptl_crystal_description 'lamina'
_exptl_crystal_preparation 'water'
_diffrn_ambient_temperature 100
#These two values have been output from a single CSD field.
_refine_ls_R_factor_gt 0.0333
_refine_ls_wR_factor_gt 0.0333
_symmetry_cell_setting triclinic
_symmetry_space_group_name_H-M 'P -1'
_symmetry_Int_Tables_number 2
loop_
_symmetry_equiv_pos_site_id
_symmetry_equiv_pos_as_xyz
1 x,y,z
2 -x,-y,-z
_cell_length_a 6.5384(4)
_cell_length_b 8.3059(7)
_cell_length_c 10.9620(6)
_cell_angle_alpha 110.646(7)
_cell_angle_beta 94.732(5)
_cell_angle_gamma 106.160(6)
_cell_formula_units_Z 1
loop_
_atom_type_symbol
_atom_type_radius_bond
C 0.68
H 0.23
Cl 0.99
Cu 1.52
Mn 1.35
N 0.68
O 0.68
loop_
_atom_site_label
_atom_site_type_symbol
_atom_site_fract_x
_atom_site_fract_y
_atom_site_fract_z
Mn1 Mn 0.38860(4) 0.35521(3) 1.35748(2)
Cu1 Cu 0.50000 0.00000 1.00000
Cl1 Cl 0.18531(6) 0.13925(6) 1.14327(4)
N1 N 0.3708(2) 0.05625(19) 0.85263(14)
H1 H 0.39460 -0.01320 0.77230
H2 H 0.22330 0.03050 0.84720
N2 N 0.7300(2) 0.24552(19) 1.05599(14)
H3 H 0.70620 0.32850 1.13020
H4 H 0.86550 0.23770 1.07580
O1 O 0.5813(2) 0.20592(17) 1.40293(12)
O2 O 1.1951(2) 0.29090(19) 1.48969(13)
O3 O 0.7152(2) 0.41713(18) 1.60916(14)
O4 O 1.33547(19) 0.49740(17) 1.69719(12)
C1 C 0.4771(3) 0.2523(2) 0.88381(19)
H5 H 0.40770 0.32600 0.94810
H6 H 0.46260 0.27640 0.80190
C2 C 0.7158(3) 0.3025(2) 0.94315(18)
H7 H 0.78920 0.24030 0.87500
H8 H 0.78840 0.43570 0.97430
C3 C 1.1929(2) 0.3554(2) 1.61111(15)
C4 C 0.6935(2) 0.2663(2) 1.51911(16)
C5 C 0.8029(2) 0.1453(2) 1.55449(16)
H9 H 0.83850 0.06670 1.47330
H10 H 0.70020 0.06500 1.58700
C6 C 1.0095(2) 0.2536(2) 1.66025(15)
H11 H 0.97690 0.34240 1.73730
H12 H 1.05830 0.16950 1.69130
Mn1* Mn -0.61140(4) 0.35521(3) 1.35748(2)
Mn1** Mn 1.38860(4) 0.35521(3) 1.35748(2)
Mn1A Mn 0.61140(4) 0.64479(3) 1.64252(2)
Mn1A* Mn 1.61140(4) 0.64479(3) 1.64252(2)
Mn1A** Mn -0.38860(4) 0.64479(3) 1.64252(2)
Cl1* Cl -0.81469(6) 0.13925(6) 1.14327(4)
N1A N 0.6292(2) -0.05625(19) 1.14737(14)
H1A H 0.60540 0.01320 1.22770
H2A H 0.77670 -0.03050 1.15280
N2A N 0.2700(2) -0.24552(19) 0.94401(14)
H3A H 0.29380 -0.32850 0.86980
H4A H 0.13450 -0.23770 0.92420
O1* O -0.4187(2) 0.20592(17) 1.40293(12)
O2* O 0.1951(2) 0.29090(19) 1.48969(13)
O2** O -0.8049(2) 0.29090(19) 1.48969(13)
O3* O -0.2848(2) 0.41713(18) 1.60916(14)
O3A O 0.2848(2) 0.58287(18) 1.39084(14)
O3A* O -0.7152(2) 0.58287(18) 1.39084(14)
O4* O 0.33547(19) 0.49740(17) 1.69719(12)
O4A O 0.66453(19) 0.50260(17) 1.30281(12)
O4A* O -0.33547(19) 0.50260(17) 1.30281(12)
C1A C 0.5229(3) -0.2523(2) 1.11619(19)
H5A H 0.59230 -0.32600 1.05190
H6A H 0.53740 -0.27640 1.19810
C2A C 0.2842(3) -0.3025(2) 1.05685(18)
H7A H 0.21080 -0.24030 1.12500
H8A H 0.21160 -0.43570 1.02570
C3* C 0.1929(2) 0.3554(2) 1.61111(15)
C4* C -0.3065(2) 0.2663(2) 1.51911(16)
C5* C -0.1971(2) 0.1453(2) 1.55449(16)
H9* H -0.16150 0.06670 1.47330
H10* H -0.29980 0.06500 1.58700
C6* C 0.0095(2) 0.2536(2) 1.66025(15)
H11* H -0.02310 0.34240 1.73730
H12* H 0.05830 0.16950 1.69130
#END
