
#######################################################################
#
#                 Cambridge Crystallographic Data Centre
#                                CCDC
#
#######################################################################
#
# If this CIF has been generated from an entry in the Cambridge
# Structural Database, then it will include bibliographic, chemical,
# crystal, experimental, refinement or atomic coordinate data resulting
# from the CCDC's data processing and validation procedures.
#
#######################################################################

data_CSD_CIF_DOFVEA
_audit_creation_date 2009-02-19
_audit_creation_method CSD-ConQuest-V1
_database_code_CSD DOFVEA
_database_code_depnum_ccdc_archive 'CCDC 646311'
_chemical_formula_sum 'C24 H37 Ge1 N4 Na1 O55 W12'
_chemical_formula_moiety
;
(H3 O1 1+)3n,n(C18 H19 Ge1 N3 Na1 O48 W12 3-),n(C6 H5 N1 O2),2n(H2 O1)
;
_journal_coden_Cambridge 211
_journal_volume 61
_journal_year 2008
_journal_page_first 2499
_journal_name_full 'J.Coord.Chem. '
loop_
_publ_author_name
"Wen Yang"
"Ying Liu"
"Ganglin Xue"
"Huaiming Hu"
"Feng Fu"
"Jiwu Wang"
_chemical_name_systematic
;
catena-(tris(oxonium) 
tetrakis(\m~4~-oxo)-hexacosakis(\m~2~-oxo)-diaqua-tris(pyridine-2-carboxylic 
acid)-decaoxo-germanium-sodium-dodeca-tungsten pyridine-2-carboxylic acid 
solvate dihydrate)
;
_cell_volume   5986.389
_exptl_crystal_colour 'colorless'
_exptl_crystal_density_diffrn 3.953
_exptl_special_details
;
The three protons, presumably present to charge balance the polyanion, have 
not been located and have been arbitrarily assigned to three water molecules
;
_exptl_crystal_description 'block'
_diffrn_ambient_temperature 273
#These two values have been output from a single CSD field.
_refine_ls_R_factor_gt 0.0541
_refine_ls_wR_factor_gt 0.0541
_symmetry_cell_setting orthorhombic
_symmetry_space_group_name_H-M 'P 21 21 21'
_symmetry_Int_Tables_number 19
loop_
_symmetry_equiv_pos_site_id
_symmetry_equiv_pos_as_xyz
1 x,y,z
2 1/2-x,-y,1/2+z
3 1/2+x,1/2-y,-z
4 -x,1/2+y,1/2-z
_cell_length_a 12.819(2)
_cell_length_b 19.326(3)
_cell_length_c 24.164(4)
_cell_angle_alpha 90
_cell_angle_beta 90
_cell_angle_gamma 90
_cell_formula_units_Z 4
loop_
_atom_type_symbol
_atom_type_radius_bond
C 0.68
H 0.23
Ge 1.17
N 0.68
Na 1.77
O 0.71
W 1.35
loop_
_atom_site_label
_atom_site_type_symbol
_atom_site_fract_x
_atom_site_fract_y
_atom_site_fract_z
W1 W 0.28041(8) 0.95591(5) 0.98451(4)
W2 W 0.49897(9) 1.04147(5) 1.05734(4)
W3 W 0.70328(8) 1.10258(5) 0.98515(4)
W4 W 0.31737(9) 1.14574(5) 0.97009(4)
W5 W 0.67441(9) 0.91440(5) 0.84478(4)
W6 W 0.70748(8) 1.08562(5) 0.83174(4)
W7 W 0.52174(8) 1.20705(5) 0.89960(4)
W8 W 0.32458(9) 1.12972(5) 0.83204(4)
W9 W 0.44736(8) 0.84621(5) 0.92396(4)
W10 W 0.50968(9) 1.00696(5) 0.76679(4)
W11 W 0.66635(8) 0.93191(5) 0.99783(4)
W12 W 0.28295(8) 0.94017(5) 0.84682(4)
Ge1 Ge 0.49426(19) 1.02565(11) 0.91163(9)
O1 O 0.5679(14) 1.0265(8) 0.9714(7)
O2 O 0.5754(12) 1.0126(7) 0.8543(6)
O3 O 0.4325(11) 1.1042(7) 0.9054(6)
O4 O 0.4050(12) 0.9622(7) 0.9163(6)
O5 O 0.7047(12) 0.9263(7) 0.9209(6)
O6 O 0.5513(14) 0.8679(8) 0.8704(7)
O7 O 0.6014(12) 0.9311(7) 0.7747(6)
O8 O 0.7625(12) 0.9936(7) 0.8291(6)
O9 O 0.7545(14) 0.8487(9) 0.8261(7)
O10 O 0.8094(18) 1.1340(11) 0.8056(9)
O11 O 0.7354(13) 1.0854(8) 0.9092(7)
O12 O 0.6304(13) 1.0676(8) 0.7653(7)
O13 O 0.6133(13) 1.1587(8) 0.8492(7)
O14 O 0.5649(15) 1.2900(9) 0.8929(8)
O15 O 0.6077(13) 1.1699(7) 0.9553(7)
O16 O 0.4114(14) 1.2200(8) 0.9526(7)
O17 O 0.4139(12) 1.2068(7) 0.8420(6)
O18 O 0.2463(15) 1.1643(9) 0.7841(7)
O19 O 0.4287(14) 1.0864(8) 0.7872(7)
O20 O 0.2537(14) 1.1582(9) 0.8994(7)
O21 O 0.2703(13) 1.0378(8) 0.8444(7)
O22 O 0.1908(14) 0.9128(9) 0.8004(7)
O23 O 0.4013(14) 0.9536(9) 0.7994(7)
O24 O 0.2074(12) 0.9402(7) 0.9171(6)
O25 O 0.3470(13) 0.8533(8) 0.8663(7)
O26 O 0.3401(13) 0.8651(7) 0.9770(6)
O27 O 0.3922(15) 0.9795(8) 1.0307(7)
O28 O 0.2630(13) 1.0516(8) 0.9721(7)
O29 O 0.1822(14) 0.9389(8) 1.0314(7)
O30 O 0.4198(14) 1.1123(8) 1.0214(7)
O31 O 0.2319(15) 1.1894(9) 1.0119(8)
O32 O 0.4707(16) 1.0528(10) 1.1250(8)
O33 O 0.6208(13) 1.0996(8) 1.0530(7)
O34 O 0.4583(13) 0.7581(8) 0.9298(7)
O35 O 0.7422(14) 0.8706(8) 1.0260(7)
O36 O 0.5907(12) 0.9651(7) 1.0606(6)
O37 O 0.8033(16) 1.153(1) 1.0076(8)
O38 O 0.7532(14) 1.0118(8) 1.0038(7)
O39 O 0.0159(14) 0.9987(9) 1.1973(7)
O40 O 0.5429(14) 0.8803(8) 0.9771(7)
O41 O 0.2140(19) 0.7832(12) 1.0865(10)
O42 O 0.309(2) 0.8653(13) 1.1278(11)
O43 O 0.0661(17) 0.8582(10) 1.1376(9)
O44 O -0.1075(16) 0.8794(9) 1.1209(7)
O45 O -0.0127(15) 1.0281(9) 1.0715(8)
O46 O -0.0506(15) 0.9311(9) 1.0249(6)
O47 O 0.291(2) 0.9821(15) 1.2042(12)
O48 O 0.201(2) 1.0850(13) 1.1159(11)
Na1 Na 0.1539(15) 0.9694(8) 1.1316(6)
C1 C 0.3981(12) 0.7769(9) 1.0822(8)
N1 N 0.3891(12) 0.7158(9) 1.0523(9)
C2 C 0.4783(15) 0.6803(8) 1.0359(8)
H1 H 0.47230 0.63940 1.01590
C3 C 0.5763(12) 0.7061(10) 1.0493(9)
H2 H 0.63590 0.68240 1.03830
C4 C 0.5852(12) 0.7673(10) 1.0791(10)
H3 H 0.65080 0.78450 1.08810
C5 C 0.4961(15) 0.8027(8) 1.0956(8)
H4 H 0.50210 0.84360 1.11560
C6 C -0.0625(13) 0.8012(7) 1.1890(6)
N2 N -0.1692(12) 0.7954(8) 1.1983(7)
C7 C -0.2069(10) 0.7460(9) 1.2350(8)
H5 H -0.27830 0.74220 1.24120
C8 C -0.1380(13) 0.7023(8) 1.2624(7)
H6 H -0.16320 0.66920 1.28690
C9 C -0.0313(12) 0.7080(8) 1.2531(7)
H7 H 0.01480 0.67880 1.27140
C10 C 0.0064(10) 0.7575(9) 1.2164(7)
H8 H 0.07780 0.76130 1.21020
C11 C -0.028(2) 0.8506(13) 1.1453(11)
C12 C 0.302(3) 0.8106(16) 1.1034(14)
C13 C -0.027(2) 0.9946(12) 1.0285(11)
C14 C -0.009(2) 1.0288(11) 0.9753(10)
C15 C -0.022(2) 0.9981(15) 0.9235(12)
H9 H -0.04020 0.95160 0.92150
C16 C -0.009(2) 1.0343(15) 0.8761(14)
H10 H -0.01900 1.01370 0.84170
C17 C 0.022(3) 1.1050(17) 0.8805(15)
H11 H 0.03630 1.13090 0.84890
C18 C 0.029(2) 1.1322(13) 0.9283(11)
H12 H 0.04320 1.17930 0.92980
N3 N 0.018(3) 1.0991(15) 0.9772(13)
O49 O 0.899(2) 1.0614(12) 0.7005(10)
O50 O 0.969(2) 0.9757(12) 0.7452(11)
C19 C 0.8237(14) 0.9552(9) 0.6914(8)
N4 N 0.7423(15) 0.9824(7) 0.6603(8)
C20 C 0.6704(13) 0.9384(9) 0.6355(7)
H13 H 0.61590 0.95660 0.61470
C21 C 0.6798(15) 0.8672(8) 0.6419(8)
H14 H 0.63160 0.83780 0.62540
C22 C 0.7611(17) 0.8400(7) 0.6731(9)
H15 H 0.76740 0.79240 0.67740
C23 C 0.8331(14) 0.884(1) 0.6979(8)
H16 H 0.88750 0.86580 0.71870
C24 C 0.901(3) 0.9977(16) 0.7159(13)
O51 O 0.080(3) 0.7700(18) 0.7545(16)
O52 O 0.671(4) 0.737(2) 0.382(2)
O53 O 0.962(3) 0.6472(16) 0.7605(14)
O54 O 0.452(3) 0.7294(18) 0.4087(15)
O55 O 0.978(2) 0.8573(15) 0.8273(12)
W10A W -0.00968(9) 0.99304(5) 1.26679(4)
O39A O 0.4841(14) 1.0013(9) 0.6973(7)
#END
