
#######################################################################
#
#                 Cambridge Crystallographic Data Centre
#                                CCDC
#
#######################################################################
#
# If this CIF has been generated from an entry in the Cambridge
# Structural Database, then it will include bibliographic, chemical,
# crystal, experimental, refinement or atomic coordinate data resulting
# from the CCDC's data processing and validation procedures.
#
#######################################################################

data_CSD_CIF_DOGNIX
_audit_creation_date 2009-02-19
_audit_creation_method CSD-ConQuest-V1
_database_code_CSD DOGNIX
_database_code_depnum_ccdc_archive 'CCDC 679617'
_chemical_formula_sum 'C264 H216 Li3 Mo2 N16 Na1 O36 P8 S12 Ti2'
_chemical_formula_moiety
;
(Li1 1+)n,4n(C36 H30 N1 P2 1+),n(C120 H80 Li2 Mo2 N12 Na1 O28 S12 Ti2 
5-),8n(H2 O1)
;
_journal_coden_Cambridge 179
_journal_volume 47
_journal_year 2008
_journal_page_first 6794
_journal_name_full 'Angew.Chem.,Int.Ed. '
loop_
_publ_author_name
"F.E.Hahn"
"M.Offermann"
"C.S.Isfort"
"T.Pape"
"R.Frohlich"
_chemical_name_systematic
;
catena-[Lithium tetrakis(bis(triphenylphosphine)iminium) 
tetrakis(\m~4~-3-((4-(((2,3-disulfidophenyl)carbonyl)amino)phenyl)carbamoyl)be
nzene-1,2-diolato-O,O,O',O'',S,S')-bis(\m~3~-3-((4-(((2,3-disulfidophenyl)carb
onyl)amino)phenyl)carbamoyl)benzene-1,2-diolato-O,O,O',S,S')-tetra-aqua-di-lit
hium(i)-di-molybdenum(iv)-sodium(i)-di-titanium(iv) octahydrate]
;
_cell_volume  16109.513
_exptl_crystal_colour 'black'
_exptl_crystal_density_diffrn 1.062
_exptl_crystal_description 'column'
_exptl_crystal_preparation 'diethyl ether/methanol'
_diffrn_ambient_temperature 223
_diffrn_special_details
;
racemic twin

;
_refine_special_details
;
One half-cation equivalent (thought to be 0.5 Li) could not be located from 
the X-ray data, most likely due to disorder.
;
#These two values have been output from a single CSD field.
_refine_ls_R_factor_gt 0.0969
_refine_ls_wR_factor_gt 0.0969
_symmetry_cell_setting monoclinic
_symmetry_space_group_name_H-M 'C 2'
_symmetry_Int_Tables_number 5
loop_
_symmetry_equiv_pos_site_id
_symmetry_equiv_pos_as_xyz
1 x,y,z
2 -x,y,-z
3 1/2+x,1/2+y,z
4 1/2-x,1/2+y,-z
_cell_length_a 40.679(1)
_cell_length_b 25.385(1)
_cell_length_c 15.644(1)
_cell_angle_alpha 90
_cell_angle_beta 94.28(1)
_cell_angle_gamma 90
_cell_formula_units_Z 2
loop_
_atom_type_symbol
_atom_type_radius_bond
C 0.68
H 0.23
Li 0.80
Mo 1.47
N 0.68
Na 1.59
O 0.77
P 1.05
S 1.02
Ti 1.07
loop_
_atom_site_label
_atom_site_type_symbol
_atom_site_fract_x
_atom_site_fract_y
_atom_site_fract_z
Mo1 Mo 0.844556(14) 1.31072(3) 0.61633(4)
Ti1 Ti 0.56791(3) 1.32686(7) 0.90664(10)
S1 S 0.79645(5) 1.35891(8) 0.56705(13)
S2 S 0.86878(6) 1.37307(11) 0.52730(17)
C1 C 0.80627(19) 1.4134(3) 0.5068(5)
C2 C 0.8395(2) 1.4186(4) 0.4885(6)
C3 C 0.8500(2) 1.4606(4) 0.4395(8)
H1 H 0.87220 1.46350 0.42680
C4 C 0.8268(3) 1.4982(5) 0.4102(8)
H2 H 0.83350 1.52660 0.37710
C5 C 0.7942(2) 1.4949(4) 0.4283(7)
H3 H 0.77920 1.52080 0.40760
C6 C 0.78346(19) 1.4530(3) 0.4776(5)
C7 C 0.74826(19) 1.4563(3) 0.4944(5)
O1 O 0.72919(15) 1.4886(3) 0.4556(5)
N1 N 0.73635(16) 1.4246(3) 0.5537(5)
H4 H 0.75080 1.40420 0.58080
C8 C 0.70373(18) 1.4196(4) 0.5785(5)
C9 C 0.6983(2) 1.3866(6) 0.6467(7)
H5 H 0.71640 1.37050 0.67720
C10 C 0.6675(2) 1.3771(5) 0.6701(7)
H6 H 0.66470 1.35390 0.71580
C11 C 0.64000(19) 1.4005(4) 0.6287(5)
C12 C 0.6452(3) 1.4339(6) 0.5606(8)
H7 H 0.62730 1.45120 0.53160
C13 C 0.6760(2) 1.4416(6) 0.5359(8)
H8 H 0.67870 1.46280 0.48770
N2 N 0.60875(16) 1.3897(4) 0.6579(5)
H9 H 0.60810 1.37910 0.71070
C14 C 0.5792(2) 1.3944(5) 0.6098(6)
O2 O 0.5769(2) 1.4102(5) 0.5368(5)
C15 C 0.5499(2) 1.3768(6) 0.6514(7)
C16 C 0.5200(2) 1.3785(7) 0.6029(8)
H10 H 0.51910 1.39210 0.54680
C17 C 0.4914(3) 1.3606(8) 0.6360(9)
H11 H 0.47110 1.36500 0.60400
C18 C 0.4921(2) 1.3362(7) 0.7152(7)
H12 H 0.47280 1.32150 0.73500
C19 C 0.5213(2) 1.3340(5) 0.7640(7)
C20 C 0.5499(2) 1.3552(5) 0.7334(5)
O3 O 0.52549(13) 1.3135(4) 0.8437(4)
O4 O 0.57712(12) 1.3522(3) 0.7911(3)
S3 S 0.80458(5) 1.24304(9) 0.63256(14)
S4 S 0.86572(6) 1.24563(11) 0.52598(18)
C21 C 0.8106(2) 1.1922(4) 0.5636(5)
C22 C 0.8385(2) 1.1936(4) 0.5113(6)
C23 C 0.8431(3) 1.1539(5) 0.4526(8)
H13 H 0.86150 1.15510 0.41980
C24 C 0.8217(4) 1.1134(5) 0.4415(8)
H14 H 0.82430 1.08870 0.39780
C25 C 0.7953(3) 1.1077(5) 0.4946(7)
H15 H 0.78160 1.07780 0.48970
C26 C 0.7897(2) 1.1467(4) 0.5540(5)
C27 C 0.7626(2) 1.1361(4) 0.6116(6)
O5 O 0.75887(16) 1.0915(3) 0.6390(4)
N3 N 0.74240(19) 1.1772(3) 0.6271(5)
H16 H 0.74610 1.20660 0.60090
C28 C 0.7164(2) 1.1774(4) 0.6802(6)
C29 C 0.7073(3) 1.2259(4) 0.7116(9)
H17 H 0.71800 1.25660 0.69440
C30 C 0.6822(3) 1.2298(4) 0.7690(9)
H18 H 0.67720 1.26270 0.79230
C31 C 0.66503(19) 1.1853(4) 0.7913(6)
C32 C 0.6738(3) 1.1373(4) 0.7574(7)
H19 H 0.66290 1.10640 0.77210
C33 C 0.6989(2) 1.1350(4) 0.7018(7)
H20 H 0.70390 1.10220 0.67810
N4 N 0.63947(19) 1.1921(4) 0.8462(5)
H21 H 0.63270 1.22410 0.85380
C34 C 0.6246(3) 1.1536(5) 0.8882(8)
O6 O 0.6338(4) 1.1084(5) 0.8877(11)
C35 C 0.5971(3) 1.1707(5) 0.9408(7)
C36 C 0.5840(4) 1.1305(6) 0.9933(10)
H22 H 0.59150 1.09560 0.99030
C37 C 0.5607(4) 1.1432(7) 1.0469(10)
H23 H 0.55300 1.11730 1.08320
C38 C 0.5473(3) 1.1969(6) 1.0495(8)
H24 H 0.53050 1.20530 1.08530
C39 C 0.5599(2) 1.2338(5) 0.9988(5)
C40 C 0.5850(2) 1.2211(4) 0.9434(6)
O7 O 0.55056(15) 1.2835(3) 0.9977(4)
O8 O 0.59471(14) 1.2622(3) 0.8974(4)
S5 S 0.82733(5) 1.33723(9) 0.75232(13)
S6 S 0.89591(5) 1.30836(18) 0.69656(17)
C41 C 0.8605(2) 1.3368(5) 0.8304(6)
C42 C 0.8903(2) 1.3224(6) 0.8028(7)
C43 C 0.9192(3) 1.3160(13) 0.8639(9)
H25 H 0.93950 1.30340 0.84700
C44 C 0.9147(4) 1.3297(13) 0.9483(11)
H26 H 0.93250 1.32550 0.98950
C45 C 0.8862(3) 1.3488(10) 0.9743(9)
H27 H 0.88550 1.36220 1.03010
C46 C 0.8574(2) 1.3490(6) 0.9187(7)
C47 C 0.8266(3) 1.3680(5) 0.9591(6)
O9 O 0.8288(2) 1.3891(6) 1.0289(6)
N5 N 0.7972(2) 1.3559(5) 0.9212(6)
H28 H 0.79780 1.33570 0.87650
C48 C 0.7657(2) 1.3700(5) 0.9407(6)
C49 C 0.7389(2) 1.3481(5) 0.8938(6)
H29 H 0.74250 1.32410 0.84970
C50 C 0.7072(3) 1.3606(5) 0.9103(6)
H30 H 0.68960 1.34580 0.87620
C51 C 0.7004(2) 1.3957(4) 0.9782(6)
C52 C 0.7279(3) 1.4156(5) 1.0262(7)
H31 H 0.72470 1.43680 1.07420
C53 C 0.7597(3) 1.4053(5) 1.0053(7)
H32 H 0.77750 1.42240 1.03540
N6 N 0.6678(2) 1.4035(4) 0.9950(5)
H33 H 0.65330 1.38340 0.96750
C54 C 0.6559(3) 1.4400(5) 1.0510(9)
O10 O 0.6741(2) 1.4692(5) 1.0936(8)
C55 C 0.6196(3) 1.4437(5) 1.0498(8)
C56 C 0.6074(4) 1.4838(6) 1.0994(9)
H34 H 0.62190 1.50650 1.13100
C57 C 0.5729(4) 1.4901(6) 1.1018(10)
H35 H 0.56480 1.51710 1.13550
C58 C 0.5517(3) 1.4583(6) 1.0569(9)
H36 H 0.52880 1.46350 1.05810
C59 C 0.5636(3) 1.4178(5) 1.0091(7)
C60 C 0.5978(2) 1.4104(5) 1.0065(6)
O11 O 0.54433(16) 1.3844(3) 0.9595(4)
O12 O 0.60540(15) 1.3680(3) 0.9570(4)
N7 N 0.8933(2) 0.6741(4) 0.6483(6)
P1 P 0.91470(6) 0.62328(12) 0.64400(17)
P2 P 0.88458(6) 0.72778(12) 0.60078(16)
C61 C 0.9543(3) 0.6302(4) 0.7015(7)
C62 C 0.9671(2) 0.6788(4) 0.7212(6)
H37 H 0.95530 0.70920 0.70310
C63 C 0.9976(2) 0.6836(6) 0.7682(7)
H38 H 1.00570 0.71750 0.78140
C64 C 1.0152(3) 0.6429(8) 0.7945(9)
H39 H 1.03590 0.64740 0.82430
C65 C 1.0024(3) 0.5921(7) 0.7774(9)
H40 H 1.01410 0.56220 0.79810
C66 C 0.9724(3) 0.5865(7) 0.7295(9)
H41 H 0.96430 0.55260 0.71600
C67 C 0.8945(3) 0.5681(5) 0.6979(7)
C68 C 0.8920(5) 0.5170(6) 0.6615(11)
H42 H 0.89880 0.51020 0.60650
C69 C 0.8798(4) 0.4795(8) 0.7074(11)
H43 H 0.87890 0.44530 0.68430
C70 C 0.8684(4) 0.4865(6) 0.7850(11)
H44 H 0.85900 0.45840 0.81370
C71 C 0.8709(5) 0.5363(7) 0.8217(12)
H45 H 0.86340 0.54230 0.87620
C72 C 0.8846(4) 0.5774(7) 0.7766(10)
H46 H 0.88690 0.61110 0.80110
C73 C 0.9216(3) 0.6053(5) 0.5360(8)
C74 C 0.8946(3) 0.5959(6) 0.4775(8)
H47 H 0.87300 0.59760 0.49450
C75 C 0.9008(4) 0.5834(7) 0.3911(8)
H48 H 0.88310 0.57490 0.35140
C76 C 0.9303(5) 0.5836(12) 0.3676(12)
H49 H 0.93380 0.57570 0.31030
C77 C 0.9550(5) 0.5943(15) 0.4197(12)
H50 H 0.97610 0.59390 0.39890
C78 C 0.9526(5) 0.6060(17) 0.5024(15)
H51 H 0.97160 0.61460 0.53770
C79 C 0.8400(3) 0.7338(5) 0.5802(6)
C80 C 0.8263(3) 0.7788(6) 0.5442(11)
H52 H 0.84000 0.80640 0.52860
C81 C 0.7921(4) 0.7839(8) 0.5306(11)
H53 H 0.78270 0.81480 0.50660
C82 C 0.7724(4) 0.7423(8) 0.5534(9)
H54 H 0.74930 0.74510 0.54580
C83 C 0.7864(3) 0.6980(9) 0.5864(11)
H55 H 0.77290 0.66970 0.60060
C84 C 0.8199(3) 0.6930(7) 0.5998(9)
H56 H 0.82920 0.66160 0.62250
C85 C 0.9034(2) 0.7343(5) 0.5005(6)
C86 C 0.8862(3) 0.7325(7) 0.4214(7)
H57 H 0.86310 0.72980 0.41880
C87 C 0.9007(5) 0.7343(9) 0.3499(8)
H58 H 0.88800 0.73080 0.29740
C88 C 0.9350(4) 0.7414(8) 0.3506(8)
H59 H 0.94590 0.74080 0.29970
C89 C 0.9521(3) 0.7495(8) 0.4300(9)
H60 H 0.97460 0.75850 0.43190
C90 C 0.9379(3) 0.7450(9) 0.5024(8)
H61 H 0.95030 0.74870 0.55510
C91 C 0.8966(3) 0.7832(6) 0.6664(7)
C92 C 0.9016(3) 0.8310(6) 0.6304(9)
H62 H 0.90030 0.83510 0.57050
C93 C 0.9090(3) 0.8743(7) 0.6846(9)
H63 H 0.91280 0.90740 0.66030
C94 C 0.9108(4) 0.8694(7) 0.7698(8)
H64 H 0.91450 0.89920 0.80460
C95 C 0.9071(3) 0.8221(7) 0.8058(8)
H65 H 0.90950 0.81900 0.86580
C96 C 0.8999(3) 0.7767(5) 0.7556(7)
H66 H 0.89750 0.74350 0.78100
N8 N 0.7223(2) 0.6456(3) -0.1776(5)
P3 P 0.72171(8) 0.58610(11) -0.14920(15)
P4 P 0.73025(7) 0.70007(11) -0.12938(14)
C97 C 0.7472(3) 0.5489(4) -0.2128(7)
C98 C 0.7553(4) 0.5688(6) -0.2903(7)
H67 H 0.74550 0.60070 -0.30950
C99 C 0.7779(5) 0.5435(7) -0.3435(9)
H68 H 0.78500 0.55740 -0.39470
C100 C 0.7888(4) 0.4904(9) -0.3045(17)
H69 H 0.80370 0.47010 -0.33390
C101 C 0.7792(5) 0.4719(7) -0.2360(11)
H70 H 0.78610 0.43780 -0.21930
C102 C 0.7595(4) 0.4986(6) -0.1852(9)
H71 H 0.75400 0.48430 -0.13270
C103 C 0.6803(3) 0.5611(5) -0.1704(7)
C104 C 0.6728(4) 0.5088(6) -0.160(1)
H72 H 0.68970 0.48500 -0.14300
C105 C 0.6407(5) 0.4906(7) -0.1741(10)
H73 H 0.63550 0.45570 -0.16010
C106 C 0.6193(5) 0.5199(12) -0.205(2)
H74 H 0.59840 0.50550 -0.22000
C107 C 0.6238(6) 0.5730(15) -0.218(3)
H75 H 0.60620 0.59440 -0.23960
C108 C 0.6565(5) 0.5952(10) -0.1994(18)
H76 H 0.66090 0.63120 -0.20680
C109 C 0.7344(4) 0.5736(5) -0.0383(7)
C110 C 0.7140(4) 0.5670(5) 0.0211(7)
H77 H 0.69130 0.56740 0.00550
C111 C 0.7246(5) 0.5594(6) 0.1061(8)
H78 H 0.70980 0.54950 0.14660
C112 C 0.7536(7) 0.5659(8) 0.1268(12)
H79 H 0.76000 0.56530 0.18580
C113 C 0.7797(7) 0.5747(11) 0.0678(13)
H80 H 0.80200 0.57940 0.08630
C114 C 0.7683(5) 0.5752(8) -0.0144(9)
H81 H 0.78340 0.57670 -0.05720
C115 C 0.7127(3) 0.7530(5) -0.1966(5)
C116 C 0.7076(3) 0.7436(6) -0.2853(6)
H82 H 0.71240 0.71080 -0.30920
C117 C 0.6952(4) 0.7858(7) -0.3366(7)
H83 H 0.69140 0.78150 -0.39620
C118 C 0.6888(5) 0.8319(7) -0.2998(10)
H84 H 0.68090 0.85970 -0.33540
C119 C 0.6930(5) 0.8408(7) -0.2150(8)
H85 H 0.68760 0.87340 -0.19140
C120 C 0.7056(4) 0.8004(5) -0.1640(8)
H86 H 0.70930 0.80590 -0.10460
C121 C 0.7137(3) 0.7069(4) -0.0261(6)
C122 C 0.7321(4) 0.7000(5) 0.0510(6)
H87 H 0.75460 0.69100 0.05240
C123 C 0.7167(5) 0.7065(6) 0.1258(6)
H88 H 0.72950 0.70470 0.17830
C124 C 0.6848(6) 0.7152(6) 0.1267(10)
H89 H 0.67520 0.71890 0.17920
C125 C 0.6657(4) 0.7187(7) 0.0513(11)
H90 H 0.64270 0.72220 0.05230
C126 C 0.6798(4) 0.7173(6) -0.0270(8)
H91 H 0.66710 0.72320 -0.07870
C127 C 0.7738(3) 0.7120(4) -0.1134(6)
C128 C 0.7876(4) 0.7526(6) -0.0628(10)
H92 H 0.77360 0.77560 -0.03540
C129 C 0.8214(4) 0.7602(7) -0.0518(11)
H93 H 0.83000 0.78710 -0.01540
C130 C 0.8415(3) 0.7299(7) -0.0918(8)
H94 H 0.86440 0.73380 -0.08220
C131 C 0.8276(4) 0.6906(8) -0.1507(11)
H95 H 0.84140 0.67020 -0.18320
C132 C 0.7958(4) 0.6837(7) -0.1581(9)
H96 H 0.78730 0.65780 -0.19650
Na1 Na 0.50000 1.3291(2) 1.00000
O13 O 0.7299(3) 1.4762(5) 0.2706(7)
O14 O 0.7061(3) 1.3943(6) 0.2604(8)
O15 O 0.6691(3) 1.5378(6) 0.3427(8)
O16 O 0.5198(4) 1.6261(7) 0.8918(9)
O17 O 0.5308(5) 1.6349(9) 1.0847(12)
O18 O 0.5162(8) 1.5017(15) 0.808(2)
Li1 Li 0.7163(5) 1.5287(8) 0.3529(14)
Mo1A Mo 0.155444(14) 1.31072(3) 1.38367(4)
Ti1A Ti 0.43209(3) 1.32686(7) 1.09336(10)
S1A S 0.20355(5) 1.35891(8) 1.43295(13)
S2A S 0.13122(6) 1.37307(11) 1.47270(17)
C1A C 0.19373(19) 1.4134(3) 1.4932(5)
C2A C 0.1605(2) 1.4186(4) 1.5115(6)
C3A C 0.1500(2) 1.4606(4) 1.5605(8)
H1A H 0.12780 1.46350 1.57320
C4A C 0.1732(3) 1.4982(5) 1.5898(8)
H2A H 0.16650 1.52660 1.62290
C5A C 0.2058(2) 1.4949(4) 1.5717(7)
H3A H 0.22080 1.52080 1.59240
C6A C 0.21654(19) 1.4530(3) 1.5224(5)
C7A C 0.25174(19) 1.4563(3) 1.5056(5)
O1A O 0.27081(15) 1.4886(3) 1.5444(5)
N1A N 0.26365(16) 1.4246(3) 1.4463(5)
H4A H 0.24920 1.40420 1.41920
C8A C 0.29627(18) 1.4196(4) 1.4215(5)
C9A C 0.3017(2) 1.3866(6) 1.3533(7)
H5A H 0.28360 1.37050 1.32280
C10A C 0.3325(2) 1.3771(5) 1.3299(7)
H6A H 0.33530 1.35390 1.28420
C11A C 0.36000(19) 1.4005(4) 1.3713(5)
C12A C 0.3548(3) 1.4339(6) 1.4394(8)
H7A H 0.37270 1.45120 1.46840
C13A C 0.3240(2) 1.4416(6) 1.4641(8)
H8A H 0.32130 1.46280 1.51230
N2A N 0.39125(16) 1.3897(4) 1.3421(5)
H9A H 0.39190 1.37910 1.28930
C14A C 0.4208(2) 1.3944(5) 1.3902(6)
O2A O 0.4231(2) 1.4102(5) 1.4632(5)
C15A C 0.4501(2) 1.3768(6) 1.3486(7)
C16A C 0.4800(2) 1.3785(7) 1.3971(8)
H10A H 0.48090 1.39210 1.45320
C17A C 0.5086(3) 1.3606(8) 1.3640(9)
H11A H 0.52890 1.36500 1.39600
C18A C 0.5079(2) 1.3362(7) 1.2848(7)
H12A H 0.52720 1.32150 1.26500
C19A C 0.4787(2) 1.3340(5) 1.2360(7)
C20A C 0.4501(2) 1.3552(5) 1.2666(5)
O3A O 0.47451(13) 1.3135(4) 1.1563(4)
O4A O 0.42288(12) 1.3522(3) 1.2089(3)
S3A S 0.19542(5) 1.24304(9) 1.36744(14)
S4A S 0.13428(6) 1.24563(11) 1.47402(18)
C21A C 0.1894(2) 1.1922(4) 1.4364(5)
C22A C 0.1615(2) 1.1936(4) 1.4887(6)
C23A C 0.1569(3) 1.1539(5) 1.5474(8)
H13A H 0.13850 1.15510 1.58020
C24A C 0.1783(4) 1.1134(5) 1.5585(8)
H14A H 0.17570 1.08870 1.60220
C25A C 0.2047(3) 1.1077(5) 1.5054(7)
H15A H 0.21840 1.07780 1.51030
C26A C 0.2103(2) 1.1467(4) 1.4460(5)
C27A C 0.2374(2) 1.1361(4) 1.3884(6)
O5A O 0.24113(16) 1.0915(3) 1.3610(4)
O5C O 0.74113(16) 1.5915(3) 0.3610(4)
O5B O 0.25887(16) 1.5915(3) 1.6390(4)
N3A N 0.25760(19) 1.1772(3) 1.3729(5)
H16A H 0.25390 1.20660 1.39910
C28A C 0.2836(2) 1.1774(4) 1.3198(6)
C29A C 0.2927(3) 1.2259(4) 1.2884(9)
H17A H 0.28200 1.25660 1.30560
C30A C 0.3178(3) 1.2298(4) 1.2310(9)
H18A H 0.32280 1.26270 1.20770
C31A C 0.33497(19) 1.1853(4) 1.2087(6)
C32A C 0.3262(3) 1.1373(4) 1.2426(7)
H19A H 0.33710 1.10640 1.22790
C33A C 0.3011(2) 1.1350(4) 1.2982(7)
H20A H 0.29610 1.10220 1.32190
N4A N 0.36053(19) 1.1921(4) 1.1538(5)
H21A H 0.36730 1.22410 1.14620
C34A C 0.3754(3) 1.1536(5) 1.1118(8)
O6A O 0.3662(4) 1.1084(5) 1.1123(11)
C35A C 0.4029(3) 1.1707(5) 1.0592(7)
C36A C 0.4160(4) 1.1305(6) 1.0067(10)
H22A H 0.40850 1.09560 1.00970
C37A C 0.4393(4) 1.1432(7) 0.9531(10)
H23A H 0.44700 1.11730 0.91680
C38A C 0.4527(3) 1.1969(6) 0.9505(8)
H24A H 0.46950 1.20530 0.91470
C39A C 0.4401(2) 1.2338(5) 1.0012(5)
C40A C 0.4150(2) 1.2211(4) 1.0566(6)
O7A O 0.44944(15) 1.2835(3) 1.0023(4)
O8A O 0.40529(14) 1.2622(3) 1.1026(4)
S5A S 0.17267(5) 1.33723(9) 1.24768(13)
S6A S 0.10409(5) 1.30836(18) 1.30344(17)
C41A C 0.1395(2) 1.3368(5) 1.1696(6)
C42A C 0.1097(2) 1.3224(6) 1.1972(7)
C43A C 0.0808(3) 1.3160(13) 1.1361(9)
H25A H 0.06050 1.30340 1.15300
C44A C 0.0853(4) 1.3297(13) 1.0517(11)
H26A H 0.06750 1.32550 1.01050
C45A C 0.1138(3) 1.3488(10) 1.0257(9)
H27A H 0.11450 1.36220 0.96990
C46A C 0.1426(2) 1.3490(6) 1.0813(7)
C47A C 0.1734(3) 1.3680(5) 1.0409(6)
O9A O 0.1712(2) 1.3891(6) 0.9711(6)
N5A N 0.2028(2) 1.3559(5) 1.0788(6)
H28A H 0.20220 1.33570 1.12350
C48A C 0.2343(2) 1.3700(5) 1.0593(6)
C49A C 0.2611(2) 1.3481(5) 1.1062(6)
H29A H 0.25750 1.32410 1.15030
C50A C 0.2928(3) 1.3606(5) 1.0897(6)
H30A H 0.31040 1.34580 1.12380
C51A C 0.2996(2) 1.3957(4) 1.0218(6)
C52A C 0.2721(3) 1.4156(5) 0.9738(7)
H31A H 0.27530 1.43680 0.92580
C53A C 0.2403(3) 1.4053(5) 0.9947(7)
H32A H 0.22250 1.42240 0.96460
N6A N 0.3322(2) 1.4035(4) 1.0050(5)
H33A H 0.34670 1.38340 1.03250
C54A C 0.3441(3) 1.4400(5) 0.9490(9)
O10A O 0.3259(2) 1.4692(5) 0.9064(8)
C55A C 0.3804(3) 1.4437(5) 0.9502(8)
C56A C 0.3926(4) 1.4838(6) 0.9006(9)
H34A H 0.37810 1.50650 0.86900
C57A C 0.4271(4) 1.4901(6) 0.8982(10)
H35A H 0.43520 1.51710 0.86450
C58A C 0.4483(3) 1.4583(6) 0.9431(9)
H36A H 0.47120 1.46350 0.94190
C59A C 0.4364(3) 1.4178(5) 0.9909(7)
C60A C 0.4022(2) 1.4104(5) 0.9935(6)
O11A O 0.45567(16) 1.3844(3) 1.0405(4)
O12A O 0.39460(15) 1.3680(3) 1.0430(4)
O13A O 0.2701(3) 1.4762(5) 1.7294(7)
O15A O 0.3309(3) 1.5378(6) 1.6573(8)
Li1A Li 0.2837(5) 1.5287(8) 1.6471(14)
Li1C Li 0.7837(5) 1.0287(8) 0.6471(14)
Li1B Li 0.2163(5) 1.0287(8) 1.3529(14)
#END
