
#######################################################################
#
#                 Cambridge Crystallographic Data Centre
#                                CCDC
#
#######################################################################
#
# If this CIF has been generated from an entry in the Cambridge
# Structural Database, then it will include bibliographic, chemical,
# crystal, experimental, refinement or atomic coordinate data resulting
# from the CCDC's data processing and validation procedures.
#
#######################################################################

data_CSD_CIF_DOHXOP
_audit_creation_date 2014-09-17
_audit_creation_method CSD-ConQuest-V1
_database_code_CSD DOHXOP
_database_code_depnum_ccdc_archive 'CCDC 1011392'
_chemical_formula_sum 'C72 H52 Ag6 Cl2 N24 O42 Si1 W12'
_chemical_formula_moiety
;
(C36 H24 Ag3 Cl1 N12 2+)2n,n(O40 Si1 W12 4-),2n(H2 O1)
;
_journal_coden_Cambridge 222
_journal_volume 43
_journal_year 2014
_journal_page_first 16328
_journal_name_full 'Dalton Trans. '
loop_
_publ_author_name
"Lei Zhang"
"Wenbin Yang"
"Xiaofei Kuang"
"Xiaoyuan Wu"
"Canzhong Lu"
_chemical_name_systematic
;
catena-[bis((\m-chloro)-bis(\m-2,4,6-tri(pyridin-4-yl)-1,3,5-triazine)-tri-sil
ver) tetracosakis(\m-oxo)-(\m-silicato)-dodecaoxo-dodeca-tungsten dihydrate]
;
_cell_volume   5174.198
_exptl_crystal_colour 'yellow'
_exptl_crystal_density_diffrn 3.128
_exptl_special_details
;
for isomer see [DOHXUV]

;
_exptl_crystal_description 'block'
_diffrn_ambient_temperature 293
_refine_special_details
;
O19,O20,O21,O22 disordered by symmetry over two configurations with occupancy 
0.50.
;
#These two values have been output from a single CSD field.
_refine_ls_R_factor_gt 0.059
_refine_ls_wR_factor_gt 0.059
_symmetry_cell_setting monoclinic
_symmetry_space_group_name_H-M 'P 21/n'
_symmetry_Int_Tables_number 14
loop_
_symmetry_equiv_pos_site_id
_symmetry_equiv_pos_as_xyz
1 x,y,z
2 1/2-x,1/2+y,1/2-z
3 -x,-y,-z
4 -1/2+x,-1/2-y,-1/2+z
_cell_length_a 13.819(4)
_cell_length_b 13.641(4)
_cell_length_c 27.456(7)
_cell_angle_alpha 90
_cell_angle_beta 91.330(5)
_cell_angle_gamma 90
_cell_formula_units_Z 2
loop_
_atom_type_symbol
_atom_type_radius_bond
C 0.68
H 0.23
Ag 1.45
Cl 0.99
N 0.68
O 0.68
Si 1.20
W 1.62
loop_
_atom_site_label
_atom_site_type_symbol
_atom_site_fract_x
_atom_site_fract_y
_atom_site_fract_z
Ag1 Ag 0.02860(8) 0.13615(11) 0.38912(4)
Ag2 Ag 0.54168(8) 0.15573(12) -0.02400(4)
Ag3 Ag 0.06472(8) 0.06611(12) -0.44195(4)
Cl1 Cl -0.0174(3) 0.1270(3) 0.47637(12)
C1 C 0.2509(10) 0.1349(11) 0.3764(5)
H1 H 0.24860 0.13130 0.41020
C2 C 0.3407(10) 0.1329(11) 0.3552(5)
H2 H 0.39700 0.12800 0.37430
C3 C 0.3450(9) 0.1385(10) 0.3046(5)
C4 C 0.2582(10) 0.1459(12) 0.2778(5)
H3 H 0.25760 0.14910 0.24390
C5 C 0.1731(11) 0.1483(13) 0.3033(6)
H4 H 0.11540 0.15520 0.28550
C6 C 0.8682(11) 0.1315(16) 0.3049(5)
H5 H 0.92410 0.12770 0.28680
C7 C 0.7798(11) 0.1286(15) 0.2801(5)
H6 H 0.77660 0.11910 0.24660
C8 C 0.6962(8) 0.1401(12) 0.3065(4)
C9 C 0.7053(10) 0.1496(12) 0.3556(5)
H7 H 0.65000 0.15430 0.37420
C10 C 0.7959(10) 0.1525(12) 0.3785(4)
H8 H 0.80030 0.16370 0.41190
C11 C 0.4454(9) 0.1606(15) 0.0769(5)
H9 H 0.38890 0.16080 0.05780
C12 C 0.4371(11) 0.1554(14) 0.1262(5)
H10 H 0.37650 0.15230 0.14010
C13 C 0.5206(8) 0.1546(11) 0.1554(5)
C14 C 0.6068(9) 0.1638(15) 0.1324(5)
H11 H 0.66440 0.16530 0.15060
C15 C 0.6085(11) 0.1707(16) 0.0819(5)
H12 H 0.66760 0.17930 0.06700
C16 C 0.4386(9) 0.1383(10) 0.2793(4)
C17 C 0.6006(9) 0.1394(12) 0.2799(5)
C18 C 0.5181(9) 0.1472(11) 0.2085(5)
C19 C 0.6387(9) 0.1047(12) -0.1232(4)
H13 H 0.69440 0.09390 -0.10430
C20 C 0.6463(9) 0.1050(12) -0.1725(4)
H14 H 0.70690 0.10110 -0.18640
C21 C 0.5633(10) 0.1112(11) -0.2022(5)
C22 C 0.4743(10) 0.1236(13) -0.1789(5)
H15 H 0.41680 0.12970 -0.19690
C23 C 0.475(1) 0.1264(13) -0.1287(5)
H16 H 0.41590 0.13370 -0.11350
C24 C 0.8345(10) 0.0899(11) -0.4231(5)
H17 H 0.83540 0.08590 -0.45690
C25 C 0.7461(9) 0.0983(11) -0.4006(5)
H18 H 0.68920 0.09940 -0.41930
C26 C 0.7425(9) 0.1049(9) -0.3511(4)
C27 C 0.8296(9) 0.1032(11) -0.3240(5)
H19 H 0.83000 0.10670 -0.29020
C28 C 0.9149(11) 0.0963(13) -0.3491(5)
H20 H 0.97270 0.09810 -0.33110
C29 C 0.2184(10) 0.1090(14) -0.3583(6)
H21 H 0.16150 0.11990 -0.34180
C30 C 0.3053(10) 0.1185(14) -0.3334(5)
H22 H 0.30610 0.13570 -0.30060
C31 C 0.3906(9) 0.1031(11) -0.3565(5)
C32 C 0.3851(10) 0.0786(12) -0.4062(5)
H23 H 0.44130 0.06850 -0.42350
C33 C 0.2979(10) 0.0699(11) -0.4285(5)
H24 H 0.29580 0.05320 -0.46140
C34 C 0.4855(9) 0.1058(10) -0.3289(4)
C35 C 0.5645(9) 0.1109(10) -0.2558(4)
C36 C 0.6491(9) 0.1084(10) -0.3258(4)
N1 N 0.1678(9) 0.1415(9) 0.3514(4)
N2 N 0.8778(8) 0.1395(11) 0.3535(4)
N3 N 0.5297(9) 0.1655(11) 0.0546(4)
N4 N 0.4335(8) 0.1478(9) 0.2306(4)
N5 N 0.5207(8) 0.1352(9) 0.3063(4)
N6 N 0.6033(7) 0.1426(11) 0.2323(4)
N7 N 0.5543(9) 0.1193(10) -0.1005(4)
N8 N 0.9202(8) 0.0872(10) -0.3973(4)
N9 N 0.2124(8) 0.0843(10) -0.4058(4)
N10 N 0.4800(8) 0.1098(9) -0.2803(4)
N11 N 0.6516(7) 0.1106(8) -0.2774(4)
N12 N 0.5673(7) 0.1064(9) -0.3533(3)
Si1 Si 0.00000 0.00000 0.00000
W1 W 0.11140(4) -0.08763(4) -0.10639(2)
W2 W 0.16852(4) -0.19297(5) 0.008225(19)
W3 W 0.04948(4) -0.11311(5) 0.11342(2)
W4 W 0.13794(4) 0.12483(5) 0.09058(2)
W5 W 0.07804(5) 0.24298(4) -0.02091(2)
W6 W 0.24601(4) 0.04814(5) -0.018738(19)
O1 O 0.1633(8) -0.1261(9) -0.1578(4)
O2 O 0.0087(9) 0.1457(9) 0.1129(7)
O3 O 0.0547(8) 0.0316(10) -0.1286(8)
O4 O 0.2098(12) -0.0027(10) -0.0804(4)
O5 O 0.1522(12) -0.1818(10) -0.0616(4)
O6 O 0.2505(9) -0.2827(9) 0.0115(4)
O7 O 0.0516(9) -0.2659(13) 0.0061(4)
O8 O 0.1504(8) -0.1694(13) 0.0745(4)
O9 O 0.2502(13) -0.0845(11) 0.0062(4)
O10 O -0.0345(8) -0.2040(13) 0.0857(4)
O11 O 0.0742(8) -0.1629(9) 0.1681(3)
O12 O 0.1318(8) -0.0015(10) 0.1159(8)
O13 O 0.2011(8) 0.1819(9) 0.1338(4)
O14 O 0.2354(10) 0.0822(11) 0.0487(4)
O15 O 0.1083(10) 0.2283(11) 0.0451(4)
O16 O 0.1195(11) 0.3559(9) -0.0303(5)
O17 O 0.3631(8) 0.0713(12) -0.0266(4)
O18 O 0.1905(11) 0.1674(12) -0.0353(4)
O19 O -0.1004(10) 0.0421(11) 0.0198(5)
O20 O -0.0163(10) -0.0193(12) -0.0609(5)
O21 O 0.0846(11) 0.0747(13) 0.0074(5)
O22 O 0.026(1) -0.1042(13) 0.0246(6)
O23 O 1.0645(19) 0.108(2) -0.249(1)
O24 O 0.238(2) 0.094(2) -0.1860(11)
Ag1* Ag 1.02860(8) 0.13615(11) 0.38912(4)
Ag3* Ag 0.06472(8) 0.06611(12) 0.55805(4)
Ag3** Ag 1.06472(8) 0.06611(12) -0.44195(4)
Ag3B Ag -0.06472(8) -0.06611(12) 0.44195(4)
Cl1* Cl -0.0174(3) 0.1270(3) -0.52363(12)
Cl1B Cl 0.0174(3) -0.1270(3) -0.47637(12)
N2* N -0.1222(8) 0.1395(11) 0.3535(4)
N8* N -0.0798(8) 0.0872(10) -0.3973(4)
O19B O 0.1004(10) -0.0421(11) -0.0198(5)
O20B O 0.0163(10) 0.0193(12) 0.0609(5)
O21B O -0.0846(11) -0.0747(13) -0.0074(5)
O22B O -0.026(1) 0.1042(13) -0.0246(6)
W1B W -0.11140(4) 0.08763(4) 0.10639(2)
W2B W -0.16852(4) 0.19297(5) -0.008225(19)
W3B W -0.04948(4) 0.11311(5) -0.11342(2)
W4B W -0.13794(4) -0.12483(5) -0.09058(2)
W5B W -0.07804(5) -0.24298(4) 0.02091(2)
W6B W -0.24601(4) -0.04814(5) 0.018738(19)
O1B O -0.1633(8) 0.1261(9) 0.1578(4)
O2B O -0.0087(9) -0.1457(9) -0.1129(7)
O3B O -0.0547(8) -0.0316(10) 0.1286(8)
O4B O -0.2098(12) 0.0027(10) 0.0804(4)
O5B O -0.1522(12) 0.1818(10) 0.0616(4)
O6B O -0.2505(9) 0.2827(9) -0.0115(4)
O7B O -0.0516(9) 0.2659(13) -0.0061(4)
O8B O -0.1504(8) 0.1694(13) -0.0745(4)
O9B O -0.2502(13) 0.0845(11) -0.0062(4)
O10B O 0.0345(8) 0.2040(13) -0.0857(4)
O11B O -0.0742(8) 0.1629(9) -0.1681(3)
O12B O -0.1318(8) 0.0015(10) -0.1159(8)
O13B O -0.2011(8) -0.1819(9) -0.1338(4)
O14B O -0.2354(10) -0.0822(11) -0.0487(4)
O15B O -0.1083(10) -0.2283(11) -0.0451(4)
O16B O -0.1195(11) -0.3559(9) 0.0303(5)
O17B O -0.3631(8) -0.0713(12) 0.0266(4)
O18B O -0.1905(11) -0.1674(12) 0.0353(4)
#END
