
#######################################################################
#
#                 Cambridge Crystallographic Data Centre
#                                CCDC
#
#######################################################################
#
# If this CIF has been generated from an entry in the Cambridge
# Structural Database, then it will include bibliographic, chemical,
# crystal, experimental, refinement or atomic coordinate data resulting
# from the CCDC's data processing and validation procedures.
#
#######################################################################

data_CSD_CIF_DOHXUV
_audit_creation_date 2014-09-17
_audit_creation_method CSD-ConQuest-V1
_database_code_CSD DOHXUV
_database_code_depnum_ccdc_archive 'CCDC 1011393'
_chemical_formula_sum 'C72 H52 Ag6 Cl2 N24 O42 Si1 W12'
_chemical_formula_moiety
;
(C36 H24 Ag3 Cl1 N12 2+)2n,n(O40 Si1 W12 4-),2n(H2 O1)
;
_journal_coden_Cambridge 222
_journal_volume 43
_journal_year 2014
_journal_page_first 16328
_journal_name_full 'Dalton Trans. '
loop_
_publ_author_name
"Lei Zhang"
"Wenbin Yang"
"Xiaofei Kuang"
"Xiaoyuan Wu"
"Canzhong Lu"
_chemical_name_systematic
;
catena-[bis((\m-chloro)-bis(\m-2,4,6-tri(pyridin-4-yl)-1,3,5-triazine)-tri-sil
ver) tetracosakis(\m-oxo)-(\m-silicato)-dodecaoxo-dodeca-tungsten dihydrate]
;
_cell_volume  10048.443
_exptl_crystal_colour 'pale green'
_exptl_crystal_density_diffrn 3.222
_exptl_special_details
;
for isomer see [DOHXOP]

;
_exptl_crystal_description 'prism'
_diffrn_ambient_temperature 100
#These two values have been output from a single CSD field.
_refine_ls_R_factor_gt 0.0417
_refine_ls_wR_factor_gt 0.0417
_symmetry_cell_setting monoclinic
_symmetry_space_group_name_H-M 'C 2/c'
_symmetry_Int_Tables_number 15
loop_
_symmetry_equiv_pos_site_id
_symmetry_equiv_pos_as_xyz
1 x,y,z
2 -x,y,1/2-z
3 1/2+x,1/2+y,z
4 1/2-x,1/2+y,1/2-z
5 -x,-y,-z
6 x,-y,-1/2+z
7 -1/2-x,-1/2-y,-z
8 -1/2+x,-1/2-y,-1/2+z
_cell_length_a 22.6655(5)
_cell_length_b 18.8656(3)
_cell_length_c 24.6036(5)
_cell_angle_alpha 90
_cell_angle_beta 107.228(2)
_cell_angle_gamma 90
_cell_formula_units_Z 4
loop_
_atom_type_symbol
_atom_type_radius_bond
C 0.68
H 0.23
Ag 1.45
Cl 0.99
N 0.68
O 0.68
Si 1.20
W 1.62
loop_
_atom_site_label
_atom_site_type_symbol
_atom_site_fract_x
_atom_site_fract_y
_atom_site_fract_z
Ag1 Ag 1.23663(4) -0.40462(5) 0.94711(3)
Ag2 Ag 1.06788(4) 0.07225(4) 0.52235(3)
Ag3 Ag 0.83410(4) 0.72747(4) 0.48353(3)
Cl1 Cl 1.3102(2) -0.32604(18) 1.03140(12)
C1 C 1.2301(5) -0.4102(5) 0.8234(4)
H1 H 1.23460 -0.45780 0.83360
C2 C 1.2239(4) -0.3921(5) 0.7682(3)
H2 H 1.22380 -0.42670 0.74130
C3 C 1.2176(4) -0.3207(5) 0.7528(4)
C4 C 1.2187(4) -0.2707(5) 0.7941(3)
H3 H 1.21600 -0.22250 0.78550
C5 C 1.2240(5) -0.2943(5) 0.8487(4)
H4 H 1.22320 -0.26080 0.87620
C6 C 1.1941(5) -0.4424(5) 0.4724(4)
H5 H 1.18050 -0.43720 0.43300
C7 C 1.1839(5) -0.3868(5) 0.5059(4)
H6 H 1.16200 -0.34680 0.48920
C8 C 1.2069(4) -0.3925(5) 0.5639(3)
C9 C 1.2371(4) -0.4540(5) 0.5871(4)
H7 H 1.25200 -0.45960 0.62640
C10 C 1.2448(5) -0.5069(5) 0.5513(3)
H8 H 1.26640 -0.54740 0.56730
C11 C 1.1386(5) -0.0304(5) 0.6139(4)
H9 H 1.13360 0.00510 0.63840
C12 C 1.1617(5) -0.0941(5) 0.6369(4)
H10 H 1.17250 -0.10130 0.67610
C13 C 1.1685(4) -0.1476(5) 0.6010(4)
C14 C 1.1545(5) -0.1327(5) 0.5425(4)
H11 H 1.16000 -0.16690 0.51710
C15 C 1.1325(5) -0.0661(5) 0.5237(4)
H12 H 1.12400 -0.05560 0.48520
C16 C 1.2094(4) -0.3012(4) 0.6930(4)
C17 C 1.2021(4) -0.3353(5) 0.6036(3)
C18 C 1.1862(4) -0.2222(5) 0.6214(3)
C19 C 1.0023(5) 0.1562(5) 0.4183(4)
H13 H 1.01060 0.11570 0.40030
C20 C 0.9806(5) 0.2148(5) 0.3868(4)
H14 H 0.97510 0.21440 0.34780
C21 C 0.9667(5) 0.2743(5) 0.4118(3)
C22 C 0.9724(5) 0.2728(5) 0.4699(3)
H15 H 0.96100 0.31150 0.48790
C23 C 0.9955(5) 0.2117(5) 0.4996(4)
H16 H 0.99960 0.20990 0.53830
C24 C 0.9203(5) 0.4497(5) 0.1448(4)
H17 H 0.92240 0.49090 0.12480
C25 C 0.9232(4) 0.4558(5) 0.2013(4)
H18 H 0.92530 0.49980 0.21870
C26 C 0.9227(4) 0.3932(5) 0.2315(3)
C27 C 0.9200(4) 0.3303(5) 0.2052(3)
H19 H 0.92150 0.28830 0.22530
C28 C 0.9148(4) 0.3292(5) 0.1475(3)
H20 H 0.91140 0.28550 0.12940
C29 C 0.8980(5) 0.5866(5) 0.4786(4)
H21 H 0.91090 0.59280 0.51790
C30 C 0.9166(4) 0.5266(4) 0.4556(3)
H22 H 0.94100 0.49270 0.47940
C31 C 0.8988(4) 0.5170(4) 0.3971(3)
C32 C 0.8613(5) 0.5692(5) 0.3633(4)
H23 H 0.84780 0.56460 0.32390
C33 C 0.8448(5) 0.6277(5) 0.3896(4)
H24 H 0.82070 0.66270 0.36700
C34 C 0.9456(4) 0.3401(4) 0.3779(3)
C35 C 0.9252(4) 0.3960(5) 0.2944(3)
C36 C 0.9166(4) 0.4539(4) 0.3707(3)
N1 N 1.2301(4) -0.3614(4) 0.8638(3)
N2 N 1.2225(4) -0.5028(4) 0.4940(3)
N3 N 1.1231(4) -0.0160(4) 0.5590(3)
N4 N 1.1981(3) -0.2332(4) 0.6775(3)
N5 N 1.2112(4) -0.3538(4) 0.6572(3)
N6 N 1.1873(3) -0.2700(4) 0.5824(3)
N7 N 1.0121(4) 0.1552(4) 0.4752(3)
N8 N 0.9146(4) 0.3873(4) 0.1170(3)
N9 N 0.8620(4) 0.6359(4) 0.4459(3)
N10 N 0.9351(3) 0.3982(4) 0.4045(3)
N11 N 0.9396(3) 0.3350(4) 0.3222(3)
N12 N 0.9123(3) 0.4565(4) 0.3154(3)
Si1 Si 1.00000 0.20030(16) 0.75000
W1 W 1.019472(17) 0.335809(18) 0.852827(13)
W2 W 0.903476(17) 0.19467(2) 0.838591(14)
W3 W 0.884467(17) 0.070623(19) 0.735875(14)
W4 W 0.873086(16) 0.206629(17) 0.625734(13)
W5 W 0.989473(17) 0.065566(18) 0.647850(13)
W6 W 0.881773(16) 0.329894(19) 0.726732(14)
O1 O 1.0492(3) 0.2495(3) 0.7957(2)
O2 O 0.9625(3) 0.1503(3) 0.7830(2)
O3 O 1.0142(3) 0.3983(3) 0.9011(2)
O4 O 0.9671(3) 0.2610(3) 0.8662(2)
O5 O 0.9535(3) 0.3572(3) 0.7884(2)
O6 O 0.8586(3) 0.2076(3) 0.8823(2)
O7 O 0.8556(3) 0.1210(3) 0.7893(2)
O8 O 0.8693(3) 0.2585(3) 0.7769(2)
O9 O 0.8287(3) 0.0066(3) 0.7156(2)
O10 O 0.8570(3) 0.1404(3) 0.6811(2)
O11 O 0.9405(3) 0.0426(3) 0.6948(2)
O12 O 0.8124(3) 0.1911(4) 0.5669(3)
O13 O 0.9129(3) 0.2800(3) 0.5977(2)
O14 O 0.9324(3) 0.1396(3) 0.6176(2)
O15 O 0.8354(3) 0.2771(3) 0.6626(2)
O16 O 0.9676(3) 0.0041(3) 0.5947(2)
O17 O 1.0469(3) 0.1191(3) 0.6184(2)
O18 O 1.0592(3) 0.0201(3) 0.6987(2)
O19 O 0.8281(3) 0.3926(3) 0.7299(2)
O20 O 0.9217(3) 0.3790(3) 0.6783(3)
O21 O 1.1503(9) -0.1322(10) 0.8311(7)
O22 O 0.9488(10) 0.1314(11) 0.2606(8)
Ag1E Ag 1.23663(4) -0.59538(5) 0.44711(3)
Ag3G Ag 1.33410(4) -0.22747(4) 0.98353(3)
Cl1G Cl 0.8102(2) 0.82604(18) 0.53140(12)
N2E N 1.2225(4) -0.4972(4) 0.9940(3)
O1A O 0.9508(3) 0.2495(3) 0.7043(2)
O2A O 1.0375(3) 0.1503(3) 0.7170(2)
W1A W 0.980528(17) 0.335809(18) 0.647173(13)
W2A W 1.096524(17) 0.19467(2) 0.661409(14)
W3A W 1.115533(17) 0.070623(19) 0.764125(14)
W4A W 1.126914(16) 0.206629(17) 0.874266(13)
W5A W 1.010527(17) 0.065566(18) 0.852150(13)
W6A W 1.118227(16) 0.329894(19) 0.773268(14)
O3A O 0.9858(3) 0.3983(3) 0.5989(2)
O4A O 1.0329(3) 0.2610(3) 0.6338(2)
O5A O 1.0465(3) 0.3572(3) 0.7116(2)
O6A O 1.1414(3) 0.2076(3) 0.6177(2)
O7A O 1.1444(3) 0.1210(3) 0.7107(2)
O8A O 1.1307(3) 0.2585(3) 0.7231(2)
O9A O 1.1713(3) 0.0066(3) 0.7844(2)
O10A O 1.1430(3) 0.1404(3) 0.8189(2)
O11A O 1.0595(3) 0.0426(3) 0.8052(2)
O12A O 1.1876(3) 0.1911(4) 0.9331(3)
O13A O 1.0871(3) 0.2800(3) 0.9023(2)
O14A O 1.0676(3) 0.1396(3) 0.8824(2)
O15A O 1.1646(3) 0.2771(3) 0.8374(2)
O16A O 1.0324(3) 0.0041(3) 0.9053(2)
O17A O 0.9531(3) 0.1191(3) 0.8816(2)
O18A O 0.9408(3) 0.0201(3) 0.8013(2)
O19A O 1.1719(3) 0.3926(3) 0.7701(2)
O20A O 1.0783(3) 0.3790(3) 0.8217(3)
#END
