
#######################################################################
#
#                 Cambridge Crystallographic Data Centre
#                                CCDC
#
#######################################################################
#
# If this CIF has been generated from an entry in the Cambridge
# Structural Database, then it will include bibliographic, chemical,
# crystal, experimental, refinement or atomic coordinate data resulting
# from the CCDC's data processing and validation procedures.
#
#######################################################################

data_CSD_CIF_DOJKAP
_audit_creation_date 2009-02-19
_audit_creation_method CSD-ConQuest-V1
_database_code_CSD DOJKAP
_database_code_depnum_ccdc_archive 'CCDC 667020'
_chemical_formula_sum 'C46 H52.5 Eu1 Mo12 N9.5 O56 Si1'
_chemical_formula_moiety
;
(C40 H38 Eu1 N8 O11 3+)n,n(H3 O1 1+),n(Mo12 O40 Si1 4-),0.5n(C10 H8 N2 
O2),0.5n(C2 H3 N1),3n(H2 O1)
;
_journal_coden_Cambridge 644
_journal_volume 63
_journal_year 2008
_journal_page_first 255
_journal_name_full 'Z.Naturforsch.,B:Chem.Sci. '
loop_
_publ_author_name
"Mei Lin Wei"
"Rui Ping Sun"
"Kai Jiang"
_chemical_name_systematic
;
catena-[(\m~2~-4,4'-Bipyridine-N,N'-dioxide-O,O')-triaqua-tris(4,4'-bipyridine
-N,N'-dioxide-O)-europium(iii) oxonium 
(\m~12~-silicato)-tetracosakis(\m~2~-oxo)-dodeca-oxo-dodeca-molybdenum 
hemikis(4,4'-bipyridine-N,N'-dioxide) acetonitrile solvate trihydrate]
;
_cell_volume   3990.619
_exptl_crystal_colour 'orange'
_exptl_crystal_density_diffrn 2.468
_exptl_special_details
;
The proton required for charge balance was not located from the X-ray data. 
The authors suggest its most likely location is on the water molecule located 
between the Keggin anions
;
_exptl_crystal_description 'block'
_diffrn_ambient_temperature 293
#These two values have been output from a single CSD field.
_refine_ls_R_factor_gt 0.062
_refine_ls_wR_factor_gt 0.062
_symmetry_cell_setting triclinic
_symmetry_space_group_name_H-M 'P -1'
_symmetry_Int_Tables_number 2
loop_
_symmetry_equiv_pos_site_id
_symmetry_equiv_pos_as_xyz
1 x,y,z
2 -x,-y,-z
_cell_length_a 13.250(3)
_cell_length_b 16.539(4)
_cell_length_c 18.526(5)
_cell_angle_alpha 88.519(5)
_cell_angle_beta 81.887(4)
_cell_angle_gamma 83.185(4)
_cell_formula_units_Z 2
loop_
_atom_type_symbol
_atom_type_radius_bond
C 0.68
H 0.23
Eu 1.99
Mo 1.38
N 0.68
O 0.68
Si 1.20
loop_
_atom_site_label
_atom_site_type_symbol
_atom_site_fract_x
_atom_site_fract_y
_atom_site_fract_z
Si1 Si -0.51032(15) -0.66518(11) 0.23883(10)
Mo1 Mo -0.36795(7) -0.84817(4) 0.28201(5)
Mo2 Mo -0.43427(7) -0.82479(4) 0.11408(4)
Mo3 Mo -0.61219(7) -0.85307(4) 0.25703(5)
Mo4 Mo -0.76466(6) -0.66505(6) 0.20511(5)
Mo5 Mo -0.69453(6) -0.68994(5) 0.39089(4)
Mo6 Mo -0.45137(6) -0.68705(5) 0.41910(4)
Mo7 Mo -0.25365(6) -0.65510(6) 0.26444(5)
Mo8 Mo -0.31625(7) -0.63304(6) 0.09482(4)
Mo9 Mo -0.58490(7) -0.63443(6) 0.06432(4)
Mo10 Mo -0.66160(7) -0.48903(4) 0.18729(5)
Mo11 Mo -0.58971(7) -0.51583(4) 0.37218(4)
Mo12 Mo -0.39273(6) -0.48472(4) 0.21551(5)
O1 O -0.2861(5) -0.9237(4) 0.3127(4)
O2 O -0.3929(6) -0.8855(4) 0.0419(3)
O3 O -0.6866(6) -0.9300(4) 0.2725(4)
O4 O -0.8889(5) -0.6785(4) 0.2062(4)
O5 O -0.7924(5) -0.7168(4) 0.4512(3)
O6 O -0.3996(5) -0.7135(4) 0.4945(3)
O7 O -0.1357(5) -0.6659(5) 0.2867(4)
O8 O -0.2382(6) -0.6288(4) 0.0157(4)
O9 O -0.5949(5) -0.6342(4) -0.0253(3)
O10 O -0.7213(6) -0.3944(4) 0.1786(4)
O11 O -0.6247(6) -0.4298(3) 0.4189(3)
O12 O -0.3588(6) -0.3897(4) 0.2155(4)
O13 O -0.3484(5) -0.8776(3) 0.1811(3)
O14 O -0.5452(5) -0.8827(3) 0.1609(3)
O15 O -0.4923(5) -0.9031(3) 0.2938(3)
O16 O -0.4210(5) -0.7888(3) 0.3668(3)
O17 O -0.2806(5) -0.7662(3) 0.2585(3)
O18 O -0.3415(4) -0.7428(3) 0.0983(3)
O19 O -0.5300(4) -0.7464(3) 0.0777(3)
O20 O -0.7008(5) -0.7736(3) 0.2130(3)
O21 O -0.6501(4) -0.7918(3) 0.3423(3)
O22 O -0.5872(4) -0.7158(3) 0.4516(3)
O23 O -0.3393(5) -0.6515(3) 0.3549(3)
O24 O -0.2161(4) -0.6556(3) 0.1593(3)
O25 O -0.4501(4) -0.6103(3) 0.0649(3)
O26 O -0.7200(5) -0.6650(4) 0.1026(3)
O27 O -0.7604(4) -0.6591(3) 0.3076(3)
O28 O -0.6997(5) -0.5781(3) 0.4159(3)
O29 O -0.5045(5) -0.5751(3) 0.4377(3)
O30 O -0.2768(5) -0.5391(3) 0.2576(3)
O31 O -0.3254(5) -0.5195(3) 0.1223(3)
O32 O -0.6375(5) -0.5243(3) 0.0886(3)
O33 O -0.7803(5) -0.5469(4) 0.2016(3)
O34 O -0.6618(5) -0.4933(3) 0.2899(3)
O35 O -0.4716(5) -0.4908(3) 0.3111(3)
O36 O -0.5212(5) -0.4701(3) 0.1812(3)
O37 O -0.5486(4) -0.6460(3) 0.3246(3)
O38 O -0.4059(4) -0.6241(3) 0.2136(3)
O39 O -0.5999(4) -0.6265(3) 0.1912(3)
O40 O -0.4889(4) -0.7630(3) 0.2270(3)
Eu1 Eu -0.05217(3) -0.17154(2) 0.29390(2)
O41 O -0.0093(5) -0.1493(6) 0.1647(4)
H1 H -0.03490 -0.10600 0.14520
H2 H 0.05280 -0.16830 0.15140
O42 O -0.0842(6) -0.0252(4) 0.3037(4)
H3 H -0.13180 0.00480 0.28630
H4 H -0.04030 -0.00830 0.32720
O43 O -0.0060(5) -0.1266(4) 0.4065(3)
H5 H -0.03330 -0.08400 0.42960
H6 H 0.04180 -0.16020 0.41950
O44 O -0.1986(5) -0.1183(4) 0.2338(3)
O45 O -0.8447(6) -0.1800(6) 0.0711(4)
O46 O -0.1933(4) -0.1874(3) 0.3835(3)
O47 O -0.8769(5) -0.1613(4) 0.2588(4)
O48 O -0.1049(5) -0.2929(4) 0.2523(4)
O49 O 0.1611(8) -0.7371(5) -0.0730(5)
O50 O 0.0474(5) -0.2846(3) 0.3445(4)
O51 O -0.1302(6) -0.8163(4) 0.5050(5)
O52 O -0.1352(5) -0.0217(4) 0.5104(4)
N1 N -0.2797(5) -0.1299(4) 0.2029(4)
N2 N -0.7538(6) -0.1715(5) 0.0903(4)
N3 N -0.2930(5) -0.1851(4) 0.3759(4)
N4 N -0.7910(5) -0.1682(4) 0.2889(4)
N5 N -0.0626(5) -0.3559(4) 0.2122(4)
N6 N 0.1249(7) -0.6774(6) -0.0251(4)
N7 N 0.0194(6) -0.3566(4) 0.3650(4)
N8 N -0.1109(6) -0.7424(4) 0.4799(5)
N9 N -0.2349(6) -0.0160(4) 0.5098(4)
C1 C -0.3345(8) -0.0636(5) 0.1794(6)
H7 H -0.31000 -0.01320 0.17970
C2 C -0.4272(7) -0.0694(5) 0.1548(5)
H8 H -0.46530 -0.02260 0.14000
C3 C -0.4648(6) -0.1455(5) 0.1518(4)
C4 C -0.4008(7) -0.2110(5) 0.1735(5)
H9 H -0.42010 -0.26290 0.17050
C5 C -0.3114(6) -0.2035(5) 0.1989(4)
H10 H -0.27180 -0.24960 0.21370
C6 C -0.7364(8) -0.0979(7) 0.1148(6)
H11 H -0.78840 -0.05460 0.11880
C7 C -0.6411(7) -0.0879(6) 0.1335(6)
H12 H -0.62860 -0.03730 0.14860
C8 C -0.5637(6) -0.1533(5) 0.1298(5)
C9 C -0.5868(7) -0.2267(6) 0.1047(5)
H13 H -0.53680 -0.27150 0.10110
C10 C -0.6809(8) -0.2347(6) 0.0853(5)
H14 H -0.69410 -0.28440 0.06860
C11 C -0.3466(6) -0.1145(5) 0.3619(4)
H15 H -0.31560 -0.06680 0.36050
C12 C -0.4467(6) -0.1109(5) 0.3494(5)
H16 H -0.48180 -0.06120 0.33780
C13 C -0.4965(6) -0.1814(5) 0.3540(4)
C14 C -0.4392(6) -0.2539(5) 0.3723(5)
H17 H -0.46960 -0.30200 0.37770
C15 C -0.3376(7) -0.2544(5) 0.3824(4)
H18 H -0.29990 -0.30300 0.39380
C16 C -0.7585(7) -0.1018(6) 0.3153(5)
H19 H -0.80050 -0.05250 0.31730
C17 C -0.6664(6) -0.1059(5) 0.3388(5)
H20 H -0.64620 -0.05940 0.35690
C18 C -0.6002(6) -0.1789(5) 0.3365(4)
C19 C -0.6390(7) -0.2466(5) 0.3119(5)
H21 H -0.59960 -0.29700 0.31130
C20 C -0.7321(7) -0.2409(5) 0.2887(5)
H22 H -0.75570 -0.28710 0.27270
C21 C -0.1077(7) -0.4235(6) 0.2167(5)
H23 H -0.16710 -0.42660 0.24970
C22 C -0.0682(7) -0.4885(5) 0.1737(5)
H24 H -0.10080 -0.53560 0.17820
C23 C 0.0187(6) -0.4863(5) 0.1237(5)
C24 C 0.0651(7) -0.4144(6) 0.1210(5)
H25 H 0.12460 -0.41020 0.08850
C25 C 0.0244(8) -0.3501(6) 0.1655(5)
H26 H 0.05650 -0.30290 0.16350
C26 C 0.0439(9) -0.6854(6) 0.0246(6)
H27 H 0.01110 -0.73220 0.02600
C27 C 0.0087(7) -0.6237(6) 0.0741(5)
H28 H -0.04740 -0.62930 0.10950
C28 C 0.0571(6) -0.5538(5) 0.0708(4)
C29 C 0.1396(7) -0.5497(6) 0.0183(5)
H29 H 0.17300 -0.50300 0.01510
C30 C 0.1752(7) -0.6110(7) -0.0296(5)
H30 H 0.23250 -0.60720 -0.06430
C31 C -0.0666(7) -0.3627(5) 0.4115(5)
H31 H -0.10720 -0.31570 0.42910
C32 C -0.0953(6) -0.4368(5) 0.4333(5)
H32 H -0.15540 -0.43950 0.46540
C33 C -0.0367(6) -0.5080(5) 0.4086(4)
C34 C 0.0525(8) -0.4993(6) 0.3620(5)
H33 H 0.09420 -0.54570 0.34400
C35 C 0.0808(7) -0.4249(5) 0.3419(6)
H34 H 0.14260 -0.42080 0.31200
C36 C -0.1752(8) -0.6754(6) 0.5041(6)
H35 H -0.23470 -0.68060 0.53630
C37 C -0.1510(7) -0.6008(5) 0.4805(6)
H36 H -0.19510 -0.55520 0.49750
C38 C -0.0647(6) -0.5893(5) 0.4327(5)
C39 C -0.0030(8) -0.6602(5) 0.4064(6)
H37 H 0.05440 -0.65700 0.37160
C40 C -0.0289(9) -0.7340(6) 0.4328(7)
H38 H 0.01380 -0.78060 0.41660
C41 C -0.2871(7) -0.0780(5) 0.5318(5)
H39 H -0.25270 -0.12570 0.54830
C42 C -0.3926(7) -0.0726(5) 0.5306(5)
H40 H -0.42830 -0.11560 0.54880
C43 C -0.4461(6) -0.0029(5) 0.5022(4)
C44 C -0.3877(7) 0.0604(5) 0.4824(5)
H41 H -0.42020 0.10900 0.46620
C45 C -0.2850(7) 0.0546(5) 0.4856(5)
H42 H -0.24880 0.09860 0.47130
O53 O -0.0022(6) -0.9301(5) 0.3928(4)
O54 O -0.3337(6) -0.4451(5) 0.4182(4)
O55 O -0.8711(15) -0.1597(12) 0.9295(10)
O56 O -0.7021(19) -0.8292(15) 0.0166(13)
O57 O -0.911(2) -0.9826(18) 0.9376(16)
O58 O -0.818(2) -0.8719(18) 0.9788(17)
N10 N -0.852(3) -0.896(2) 0.1369(19)
C46 C -0.929(3) -0.881(2) 0.190(2)
C47 C -0.997(2) -0.8397(19) 0.2291(17)
H43 H -1.03640 -0.87480 0.26060
H44 H -1.04070 -0.80760 0.19960
H45 H -0.96650 -0.80440 0.25810
Eu1* Eu -1.05217(3) -0.17154(2) 0.29390(2)
O47* O 0.1231(5) -0.1613(4) 0.2588(4)
O52A O -0.8648(5) 0.0217(4) 0.4896(4)
N9A N -0.7651(6) 0.0160(4) 0.4902(4)
C41A C -0.7129(7) 0.0780(5) 0.4682(5)
H39A H -0.74730 0.12570 0.45170
C42A C -0.6074(7) 0.0726(5) 0.4694(5)
H40A H -0.57170 0.11560 0.45120
C43A C -0.5539(6) 0.0029(5) 0.4978(4)
C44A C -0.6123(7) -0.0604(5) 0.5176(5)
H41A H -0.57980 -0.10900 0.53380
C45A C -0.7150(7) -0.0546(5) 0.5144(5)
H42A H -0.75120 -0.09860 0.52870
#END
