
#######################################################################
#
#                 Cambridge Crystallographic Data Centre
#                                CCDC
#
#######################################################################
#
# If this CIF has been generated from an entry in the Cambridge
# Structural Database, then it will include bibliographic, chemical,
# crystal, experimental, refinement or atomic coordinate data resulting
# from the CCDC's data processing and validation procedures.
#
#######################################################################

data_CSD_CIF_DOJLEV
_audit_creation_date 2014-09-18
_audit_creation_method CSD-ConQuest-V1
_database_code_CSD DOJLEV
_database_code_depnum_ccdc_archive 'CCDC 978749'
_chemical_formula_sum 'C18 H7 Co1 Na3 O12'
_chemical_formula_moiety
;
(C18 H7 Co1 O12 3-)n,3n(Na1 1+)
;
_journal_coden_Cambridge 644
_journal_volume 69
_journal_year 2014
_journal_page_first 864
_journal_name_full 'Z.Naturforsch.,B:Chem.Sci. '
loop_
_publ_author_name
"Shun Shun Liu"
"Rui Min Zhou"
"Shuai Chen"
"Yan Bai"
"Dong Bin Dang"
_chemical_name_systematic
;
catena-(Tri-sodium (\m~2~-hydrogen 
benzene-1,2,3-tricarboxylato)-(\m~2~-benzene-1,2,3-tricarboxylato)-cobalt)
;
_cell_volume    878.319
_exptl_crystal_density_diffrn 2.054
_diffrn_ambient_temperature 296
#These two values have been output from a single CSD field.
_refine_ls_R_factor_gt 0.0246
_refine_ls_wR_factor_gt 0.0246
_symmetry_cell_setting triclinic
_symmetry_space_group_name_H-M 'P -1'
_symmetry_Int_Tables_number 2
loop_
_symmetry_equiv_pos_site_id
_symmetry_equiv_pos_as_xyz
1 x,y,z
2 -x,-y,-z
_cell_length_a 6.3218(3)
_cell_length_b 10.7689(5)
_cell_length_c 13.2433(7)
_cell_angle_alpha 90.876(1)
_cell_angle_beta 93.451(1)
_cell_angle_gamma 102.480(1)
_cell_formula_units_Z 2
loop_
_atom_type_symbol
_atom_type_radius_bond
C 0.68
H 0.23
Co 1.26
Na 1.66
O 0.68
loop_
_atom_site_label
_atom_site_type_symbol
_atom_site_fract_x
_atom_site_fract_y
_atom_site_fract_z
Co1 Co 0.36129(4) 0.13061(2) 0.187709(18)
O1 O -0.3973(2) 0.21605(14) 0.28635(11)
O2 O -0.2753(2) 0.23754(13) 0.13532(10)
O3 O 0.2139(2) 0.23123(12) 0.09003(10)
O4 O 0.0752(2) 0.39263(12) 0.03988(9)
O5 O 0.5196(2) 0.49935(13) 0.11596(10)
O6 O 0.6873(2) 0.57831(17) 0.26126(13)
C1 C -0.2453(3) 0.25549(17) 0.22909(14)
C2 C 0.1458(3) 0.33184(16) 0.10836(13)
C3 C 0.5307(3) 0.51101(18) 0.21071(15)
C4 C -0.0305(3) 0.32689(17) 0.27571(14)
C5 C 0.1497(3) 0.37161(16) 0.21911(13)
C6 C 0.3385(3) 0.44672(17) 0.26762(14)
C7 C 0.3476(3) 0.4689(2) 0.37196(15)
H1 H 0.47330 0.51800 0.40430
C8 C 0.1740(3) 0.4195(2) 0.42801(15)
H2 H 0.18460 0.43230 0.49790
C9 C -0.0150(3) 0.3511(2) 0.37989(15)
H3 H -0.13420 0.32050 0.41740
O7 O 0.0613(2) -0.31001(16) 0.35081(12)
H4 H -0.06460 -0.35080 0.32980
O8 O 0.1189(2) -0.25073(15) 0.19344(11)
O9 O 0.4347(2) -0.01710(12) 0.1154(1)
O10 O 0.4844(2) -0.21003(12) 0.08336(10)
O11 O 0.9194(2) -0.03867(13) 0.13027(10)
O12 O 1.1177(2) 0.04981(13) 0.26853(10)
C10 C 0.1830(3) -0.25120(18) 0.28144(15)
C11 C 0.4883(3) -0.11977(17) 0.14259(13)
C12 C 0.9466(3) -0.01632(17) 0.22345(14)
C13 C 0.4056(3) -0.18618(18) 0.32058(15)
C14 C 0.5573(3) -0.12711(17) 0.25364(14)
C15 C 0.7695(3) -0.07321(17) 0.29149(14)
C16 C 0.8229(3) -0.0760(2) 0.39486(16)
H5 H 0.96390 -0.04010 0.41990
C17 C 0.6722(4) -0.1304(2) 0.46077(16)
H6 H 0.70990 -0.12960 0.52980
C18 C 0.4641(3) -0.1863(2) 0.42351(16)
H7 H 0.36210 -0.22440 0.46770
Na1 Na 0.21062(12) 0.29689(7) -0.10327(6)
Na2 Na 0.19434(16) -0.09627(8) -0.01867(7)
Na3 Na 0.29136(12) -0.40075(7) -0.00226(6)
Co1* Co -0.63871(4) 0.13061(2) 0.187709(18)
Co1** Co 1.36129(4) 0.13061(2) 0.187709(18)
O1* O 0.6027(2) 0.21605(14) 0.28635(11)
O12* O 0.1177(2) 0.04981(13) 0.26853(10)
#END
