
#######################################################################
#
#                 Cambridge Crystallographic Data Centre
#                                CCDC
#
#######################################################################
#
# If this CIF has been generated from an entry in the Cambridge
# Structural Database, then it will include bibliographic, chemical,
# crystal, experimental, refinement or atomic coordinate data resulting
# from the CCDC's data processing and validation procedures.
#
#######################################################################

data_CSD_CIF_DOJPOK
_audit_creation_date 2019-04-10
_audit_creation_method CSD-ConQuest-V1
_database_code_CSD DOJPOK
_database_code_depnum_ccdc_archive 'CCDC 1851395'
_chemical_formula_sum 'C14 H19 F1 Mn1 N9 P1'
_chemical_formula_moiety
;
C8 H19 F1 P1 1+,(C6 Mn1 N9 1-)n
;
_journal_coden_Cambridge 1220
_journal_volume 25
_journal_year 2019
_journal_page_first 6447
_journal_name_full 'Chem.-Eur.J. '
loop_
_publ_author_name
"Meng-Meng Zhao"
"Lin Zhou"
"Ping-Ping Shi"
"Xuan Zheng"
"Xiao-Gang Chen"
"Ji-Xing Gao"
"Lei He"
"Qiong Ye"
"Cai-Ming Liu"
"Da-Wei Fu"
_chemical_name_systematic
;
catena-[triethyl(2-fluoroethyl)phosphanium 
tris(\m-dicyanoazanido)-manganese(ii)]
;
_cell_volume   1933.468
_exptl_crystal_colour 'colorless'
_exptl_crystal_density_diffrn 1.434
_exptl_crystal_description 'block'
_diffrn_ambient_temperature 293
_refine_special_details
;
F disordered by symmetry over two configurations with occupancy 0.50.

;
#These two values have been output from a single CSD field.
_refine_ls_R_factor_gt 0.0471
_refine_ls_wR_factor_gt 0.0471
_symmetry_cell_setting monoclinic
_symmetry_space_group_name_H-M 'C 2/c'
_symmetry_Int_Tables_number 15
loop_
_symmetry_equiv_pos_site_id
_symmetry_equiv_pos_as_xyz
1 x,y,z
2 -x,y,1/2-z
3 1/2+x,1/2+y,z
4 1/2-x,1/2+y,1/2-z
5 -x,-y,-z
6 x,-y,-1/2+z
7 -1/2-x,-1/2-y,-z
8 -1/2+x,-1/2-y,-1/2+z
_cell_length_a 18.836(4)
_cell_length_b 10.642(2)
_cell_length_c 10.444(2)
_cell_angle_alpha 90
_cell_angle_beta 112.55(3)
_cell_angle_gamma 90
_cell_formula_units_Z 4
loop_
_atom_type_symbol
_atom_type_radius_bond
C 0.68
H 0.23
F 0.64
Mn 1.61
N 0.68
P 1.05
loop_
_atom_site_label
_atom_site_type_symbol
_atom_site_fract_x
_atom_site_fract_y
_atom_site_fract_z
Mn1 Mn 0.25000 0.25000 1.00000
C1 C 0.22030(14) 0.2994(2) 0.6750(3)
N1 N 0.12040(13) 0.2289(2) 0.9089(2)
C2 C 0.06237(14) 0.2625(2) 0.8313(3)
N2 N 0.19238(14) 0.3441(2) 0.5493(2)
N3 N 0.24205(14) 0.2524(2) 0.7814(2)
N4 N 0.23296(13) 0.5453(2) 0.4909(2)
N5 N 0.00000 0.3171(3) 0.75000
C3 C 0.21577(13) 0.4517(3) 0.5233(2)
P1 P 0.00000 0.20370(8) 0.25000
C4 C 0.08541(13) 0.1075(2) 0.3124(2)
H1 H 0.12930 0.16100 0.36050
H2 H 0.08100 0.04800 0.37930
C5 C 0.00229(15) 0.3007(3) 0.1110(3)
H3 H 0.00470 0.24700 0.03770
H4 H -0.04520 0.34830 0.07350
C6 C 0.10078(15) 0.0358(3) 0.2014(3)
H5 H 0.11210 0.09500 0.14120
H6 H 0.14590 -0.01650 0.24470
C7 C 0.06968(16) 0.3916(3) 0.1542(3)
H7 H 0.06610 0.44840 0.22290
H8 H 0.06850 0.43840 0.07480
H9 H 0.11700 0.34540 0.19220
F1 F 0.04359(17) -0.0349(3) 0.1265(3)
N1A N -0.12040(13) 0.2289(2) 0.5911(2)
C2A C -0.06237(14) 0.2625(2) 0.6687(3)
C1F C 0.27970(14) 0.2006(2) 1.3250(3)
N2F N 0.30762(14) 0.1559(2) 1.4507(2)
N3F N 0.25795(14) 0.2476(2) 1.2186(2)
N4F N 0.26704(13) -0.0453(2) 1.5091(2)
C3F C 0.28423(13) 0.0483(3) 1.4767(2)
Mn1A Mn -0.25000 0.25000 0.50000
Mn1C Mn 0.25000 -0.25000 1.50000
Mn1C* Mn 0.25000 0.75000 0.50000
N1F N 0.37960(13) 0.2711(2) 1.0911(2)
N4C N 0.26704(13) 0.0453(2) 1.0091(2)
N4E N 0.23296(13) 0.4547(2) 0.9909(2)
C4A C -0.08541(13) 0.1075(2) 0.1876(2)
H1A H -0.12930 0.16100 0.13950
H2A H -0.08100 0.04800 0.12070
C5A C -0.00229(15) 0.3007(3) 0.3890(3)
H3A H -0.00470 0.24700 0.46230
H4A H 0.04520 0.34830 0.42650
C6A C -0.10078(15) 0.0358(3) 0.2986(3)
H5A H -0.11210 0.09500 0.35880
H6A H -0.14590 -0.01650 0.25530
C7A C -0.06968(16) 0.3916(3) 0.3458(3)
H7A H -0.06610 0.44840 0.27710
H8A H -0.06850 0.43840 0.42520
H9A H -0.11700 0.34540 0.30780
F1A F -0.04359(17) -0.0349(3) 0.3735(3)
#END
