
#######################################################################
#
#                 Cambridge Crystallographic Data Centre
#                                CCDC
#
#######################################################################
#
# If this CIF has been generated from an entry in the Cambridge
# Structural Database, then it will include bibliographic, chemical,
# crystal, experimental, refinement or atomic coordinate data resulting
# from the CCDC's data processing and validation procedures.
#
#######################################################################

data_CSD_CIF_DOJXOQ
_audit_creation_date 2009-02-19
_audit_creation_method CSD-ConQuest-V1
_database_code_CSD DOJXOQ
_database_code_depnum_ccdc_archive 'CCDC 660383'
_chemical_formula_sum 'C19 H15 N2 O9 Pr1'
_chemical_formula_moiety
;
(C3 H5 N2 1+)n,n(C16 H10 O9 Pr1 1-)
;
_journal_coden_Cambridge 208
_journal_volume 181
_journal_year 2008
_journal_page_first 2099
_journal_name_full 'J.Solid State Chem. '
loop_
_publ_author_name
"Rui-Sha Zhou"
"Xiao-Bing Cui"
"Jiang-Feng Song"
"Xiao-Yu Xu"
"Ji-Qing Xu"
"Tie-Gang Wang"
_chemical_name_systematic
;
catena-(1H-imidazol-3-ium 
bis(\m~3~-benzene-1,3-dicarboxylato)-aqua-praseodymium(iii))
;
_chemical_name_common
;
catena-(1H-imidazol-3-ium bis(mu!3$-isophthalato)-aqua-praseodymium(iii))
;
_cell_volume   1884.955
_exptl_crystal_colour 'pale green'
_exptl_crystal_density_diffrn 1.96
_exptl_special_details
;
luminescent
Isostructural with the La, Nd and Dy analogues

;
_exptl_crystal_description 'polyhedron'
_diffrn_ambient_temperature 293
#These two values have been output from a single CSD field.
_refine_ls_R_factor_gt 0.0173
_refine_ls_wR_factor_gt 0.0173
_symmetry_cell_setting orthorhombic
_symmetry_space_group_name_H-M 'P n n a'
_symmetry_Int_Tables_number 52
loop_
_symmetry_equiv_pos_site_id
_symmetry_equiv_pos_as_xyz
1 x,y,z
2 1/2-x,-y,z
3 1/2-x,1/2+y,1/2-z
4 x,1/2-y,1/2-z
5 -x,-y,-z
6 -1/2+x,y,-z
7 -1/2+x,-1/2-y,-1/2+z
8 -x,-1/2+y,-1/2+z
_cell_length_a 9.5051(6)
_cell_length_b 14.6243(10)
_cell_length_c 13.5603(9)
_cell_angle_alpha 90
_cell_angle_beta 90
_cell_angle_gamma 90
_cell_formula_units_Z 4
loop_
_atom_type_symbol
_atom_type_radius_bond
C 0.68
H 0.23
N 0.68
O 0.68
Pr 1.82
loop_
_atom_site_label
_atom_site_type_symbol
_atom_site_fract_x
_atom_site_fract_y
_atom_site_fract_z
Pr1 Pr 1.25000 0.00000 0.60466(1)
O1 O 1.0819(2) 0.11096(11) 0.55062(13)
O2 O 1.25000 0.00000 0.4069(2)
C1 C 1.0450(4) 0.75000 0.75000
C2 C 0.8294(4) 0.7047(2) 0.7489(4)
N1 N 0.9645(3) 0.67796(16) 0.74826(19)
O3 O 0.90769(18) 0.1183(1) 0.44381(11)
C3 C 1.0312(2) 0.28949(14) 0.61719(14)
O4 O 1.20456(16) 0.39117(10) 0.74982(11)
C4 C 1.0066(2) 0.37983(14) 0.64350(15)
C5 C 1.0879(2) 0.42415(14) 0.72530(15)
C6 C 0.9076(3) 0.43011(17) 0.5914(2)
C7 C 0.9840(2) 0.15192(15) 0.50985(14)
C8 C 0.9566(2) 0.24909(14) 0.54051(15)
C9 C 0.8572(3) 0.30033(17) 0.49019(19)
C10 C 0.8346(4) 0.39042(19) 0.5146(2)
O5 O 1.03577(18) 0.49361(9) 0.76841(13)
H1 H 1.096(2) 0.2549(14) 0.6496(16)
H2 H 0.804(3) 0.2749(19) 0.442(2)
H3 H 0.881(4) 0.488(2) 0.617(2)
H4 H 1.141(5) 0.75000 0.75000
H5 H 0.769(3) 0.422(3) 0.478(3)
H6 H 0.991(3) 0.630(2) 0.750(2)
H7 H 0.760(3) 0.667(3) 0.754(4)
H8 H 1.176(9) -0.009(5) 0.367(5)
Pr1E Pr 0.75000 0.00000 0.39534(1)
Pr1B Pr 1.25000 0.50000 0.89534(1)
Pr1E* Pr 1.75000 0.00000 0.39534(1)
Pr1B* Pr 1.25000 -0.50000 0.89534(1)
O1A O 1.4181(2) -0.11096(11) 0.55062(13)
C2C C 0.8294(4) 0.7953(2) 0.7511(4)
N1C N 0.9645(3) 0.82204(16) 0.75174(19)
O3A O 1.59231(18) -0.1183(1) 0.44381(11)
O3E O 1.40769(18) 0.1183(1) 0.55619(11)
O3D O 1.09231(18) -0.1183(1) 0.55619(11)
C3A C 1.4688(2) -0.28949(14) 0.61719(14)
O4A O 1.29544(16) -0.39117(10) 0.74982(11)
O4B O 1.29544(16) -0.10883(10) 0.75018(11)
O4C O 1.20456(16) 0.10883(10) 0.75018(11)
C4A C 1.4934(2) -0.37983(14) 0.64350(15)
C5A C 1.4121(2) -0.42415(14) 0.72530(15)
C6A C 1.5924(3) -0.43011(17) 0.5914(2)
C7A C 1.5160(2) -0.15192(15) 0.50985(14)
C8A C 1.5434(2) -0.24909(14) 0.54051(15)
C9A C 1.6428(3) -0.30033(17) 0.49019(19)
C10A C 1.6654(4) -0.39042(19) 0.5146(2)
O5A O 1.46423(18) -0.49361(9) 0.76841(13)
O5B O 1.46423(18) -0.00639(9) 0.73159(13)
O5C O 1.03577(18) 0.00639(9) 0.73159(13)
H1A H 1.404(2) -0.2549(14) 0.6496(16)
H2A H 1.696(3) -0.2749(19) 0.442(2)
H3A H 1.619(4) -0.488(2) 0.617(2)
H5A H 1.731(3) -0.422(3) 0.478(3)
H6C H 0.991(3) 0.870(2) 0.750(2)
H7C H 0.760(3) 0.833(3) 0.746(4)
H8A H 1.324(9) 0.009(5) 0.367(5)
#END
