
#######################################################################
#
#                 Cambridge Crystallographic Data Centre
#                                CCDC
#
#######################################################################
#
# If this CIF has been generated from an entry in the Cambridge
# Structural Database, then it will include bibliographic, chemical,
# crystal, experimental, refinement or atomic coordinate data resulting
# from the CCDC's data processing and validation procedures.
#
#######################################################################

data_CSD_CIF_DOJYAD
_audit_creation_date 2009-02-19
_audit_creation_method CSD-ConQuest-V1
_database_code_CSD DOJYAD
_database_code_depnum_ccdc_archive 'CCDC 660385'
_chemical_formula_sum 'C19 H15 Dy1 N2 O9'
_chemical_formula_moiety
;
(C3 H5 N2 1+)n,n(C16 H10 Dy1 O9 1-)
;
_journal_coden_Cambridge 208
_journal_volume 181
_journal_year 2008
_journal_page_first 2099
_journal_name_full 'J.Solid State Chem. '
loop_
_publ_author_name
"Rui-Sha Zhou"
"Xiao-Bing Cui"
"Jiang-Feng Song"
"Xiao-Yu Xu"
"Ji-Qing Xu"
"Tie-Gang Wang"
_chemical_name_systematic
;
catena-(1H-imidazol-3-ium 
bis(\m~3~-benzene-1,3-dicarboxylato)-aqua-dysprosium(iii))
;
_chemical_name_common
;
catena-(1H-imidazol-3-ium bis(mu!3$-isophthalato)-aqua-dysprosium(iii))
;
_cell_volume   1816.886
_exptl_crystal_colour 'colorless'
_exptl_crystal_density_diffrn 2.112
_exptl_special_details
;
sensitized luminescent
Isostructural with the Pr, Nd and La analogues

;
_exptl_crystal_description 'polyhedron'
_diffrn_ambient_temperature 293
#These two values have been output from a single CSD field.
_refine_ls_R_factor_gt 0.0259
_refine_ls_wR_factor_gt 0.0259
_symmetry_cell_setting orthorhombic
_symmetry_space_group_name_H-M 'P n n a'
_symmetry_Int_Tables_number 52
loop_
_symmetry_equiv_pos_site_id
_symmetry_equiv_pos_as_xyz
1 x,y,z
2 1/2-x,-y,z
3 x,1/2-y,1/2-z
4 1/2-x,1/2+y,1/2-z
5 -x,-y,-z
6 -1/2+x,y,-z
7 -x,-1/2+y,-1/2+z
8 -1/2+x,-1/2-y,-1/2+z
_cell_length_a 9.4300(15)
_cell_length_b 14.480(2)
_cell_length_c 13.306(2)
_cell_angle_alpha 90
_cell_angle_beta 90
_cell_angle_gamma 90
_cell_formula_units_Z 4
loop_
_atom_type_symbol
_atom_type_radius_bond
C 0.68
H 0.23
Dy 1.75
N 0.68
O 0.68
loop_
_atom_site_label
_atom_site_type_symbol
_atom_site_fract_x
_atom_site_fract_y
_atom_site_fract_z
Dy1 Dy 0.25000 0.50000 0.101946(12)
O1 O 0.2098(2) 0.39321(14) 0.24521(15)
O2 O 0.0361(3) 0.49290(11) 0.22546(19)
O3 O 0.25000 0.50000 -0.0930(3)
O4 O 0.0895(2) 0.10897(15) 0.45231(17)
O5 O -0.0960(2) 0.11348(14) 0.55316(15)
C1 C 0.0909(3) 0.42442(17) 0.27058(19)
C2 C 0.0103(3) 0.37931(17) 0.35419(19)
C3 C -0.0895(4) 0.4306(2) 0.4071(3)
C4 C -0.1652(4) 0.3891(3) 0.4846(3)
C5 C -0.1417(3) 0.2985(2) 0.5090(3)
C6 C -0.0415(2) 0.24652(18) 0.45876(19)
C7 C 0.0347(3) 0.28859(18) 0.38119(19)
C8 C -0.0137(2) 0.1483(2) 0.48971(17)
N1 N 0.5386(3) 0.17719(19) 0.2526(2)
C9 C 0.6767(4) 0.2046(3) 0.2520(4)
C10 C 0.4585(5) 0.25000 0.25000
H1 H 0.093(2) 0.2572(17) 0.3485(19)
H2 H -0.131(6) 0.484(3) 0.377(5)
H3 H -0.186(4) 0.272(2) 0.560(3)
H4 H -0.232(4) 0.417(4) 0.516(4)
H5 H 0.507(3) 0.113(3) 0.258(3)
H6 H 0.171(9) 0.496(3) -0.119(6)
H7 H 0.752(3) 0.167(4) 0.256(4)
H8 H 0.355(5) 0.25000 0.25000
Dy1B Dy 0.25000 0.00000 0.398054(12)
Dy1F Dy -0.25000 0.00000 0.601946(12)
Dy1B* Dy 0.25000 1.00000 0.398054(12)
Dy1F* Dy 0.75000 1.00000 0.601946(12)
O1A O 0.2902(2) 0.60679(14) 0.24521(15)
O2A O 0.4639(3) 0.50710(11) 0.22546(19)
O4A O 0.4105(2) 0.89103(15) 0.45231(17)
O4B O 0.0895(2) 0.39103(15) 0.04769(17)
O4C O 0.4105(2) 0.60897(15) 0.04769(17)
O5A O 0.5960(2) 0.88652(14) 0.55316(15)
O5F O 0.0960(2) 0.61348(14) 0.05316(15)
O5G O 0.4040(2) 0.38652(14) 0.05316(15)
C1A C 0.4091(3) 0.57558(17) 0.27058(19)
C2A C 0.4897(3) 0.62069(17) 0.35419(19)
C3A C 0.5895(4) 0.5694(2) 0.4071(3)
C4A C 0.6652(4) 0.6109(3) 0.4846(3)
C5A C 0.6417(3) 0.7015(2) 0.5090(3)
C6A C 0.5415(2) 0.75348(18) 0.45876(19)
C7A C 0.4653(3) 0.71141(18) 0.38119(19)
C8A C 0.5137(2) 0.8517(2) 0.48971(17)
N1B N 0.5386(3) 0.32281(19) 0.2474(2)
C9B C 0.6767(4) 0.2954(3) 0.2480(4)
H1A H 0.407(2) 0.7428(17) 0.3485(19)
H2A H 0.631(6) 0.516(3) 0.377(5)
H3A H 0.686(4) 0.728(2) 0.560(3)
H4A H 0.732(4) 0.583(4) 0.516(4)
H5B H 0.507(3) 0.387(3) 0.242(3)
H6A H 0.329(9) 0.504(3) -0.119(6)
H7B H 0.752(3) 0.333(4) 0.244(4)
#END
