
#######################################################################
#
#                 Cambridge Crystallographic Data Centre
#                                CCDC
#
#######################################################################
#
# If this CIF has been generated from an entry in the Cambridge
# Structural Database, then it will include bibliographic, chemical,
# crystal, experimental, refinement or atomic coordinate data resulting
# from the CCDC's data processing and validation procedures.
#
#######################################################################

data_CSD_CIF_DOLPIF
_audit_creation_date 2014-09-22
_audit_creation_method CSD-ConQuest-V1
_database_code_CSD DOLPIF
_database_code_depnum_ccdc_archive 'CCDC 1016434'
_chemical_formula_sum 'C44 H30 Eu2 N2 O16'
_chemical_formula_moiety
;
(C12 H14 N2 2+)n,n(C32 H16 Eu2 O16 2-)
;
_journal_coden_Cambridge 182
_journal_volume 50
_journal_year 2014
_journal_page_first 13544
_journal_name_full 'Chem.Commun. '
loop_
_publ_author_name
"Hengjun Chen"
"Guiming Zheng"
"Min Li"
"Yifang Wang"
"Yang Song"
"Conghui Han"
"Jingcao Dai"
"Zhiyong Fu"
_chemical_name_systematic
;
catena-[(1,1'-Dimethyl-4,4'-bipyridinium) 
tetrakis(\m~3~-isophthalato)-di-europium]
;
_cell_volume   1964.869
_exptl_crystal_colour 'brown'
_exptl_crystal_density_diffrn 1.938
_exptl_crystal_description 'Block'
_diffrn_ambient_temperature 298
#These two values have been output from a single CSD field.
_refine_ls_R_factor_gt 0.0454
_refine_ls_wR_factor_gt 0.0454
_symmetry_cell_setting triclinic
_symmetry_space_group_name_H-M 'P -1'
_symmetry_Int_Tables_number 2
loop_
_symmetry_equiv_pos_site_id
_symmetry_equiv_pos_as_xyz
1 x,y,z
2 -x,-y,-z
_cell_length_a 11.046(2)
_cell_length_b 11.633(2)
_cell_length_c 16.246(3)
_cell_angle_alpha 78.69(3)
_cell_angle_beta 73.81(3)
_cell_angle_gamma 88.58(3)
_cell_formula_units_Z 2
loop_
_atom_type_symbol
_atom_type_radius_bond
C 0.68
H 0.23
Eu 1.98
N 0.68
O 0.68
loop_
_atom_site_label
_atom_site_type_symbol
_atom_site_fract_x
_atom_site_fract_y
_atom_site_fract_z
Eu1 Eu -0.06566(3) 0.93808(2) 0.194169(15)
Eu2 Eu 0.54926(3) 0.55298(2) 0.309580(16)
O1 O 0.1422(4) 0.8771(4) 0.2179(3)
O2 O -0.0965(4) 0.7393(4) 0.2652(3)
O3 O 0.7269(4) 0.8933(4) 0.1965(3)
O4 O 0.5791(4) 0.7537(4) 0.2378(3)
O5 O 0.0240(5) 0.8636(4) 0.0667(3)
O6 O 0.0777(5) 0.9038(4) -0.0774(2)
O7 O 0.3420(4) 0.6142(4) 0.2862(3)
O8 O -0.0968(5) 0.9562(4) 0.3461(2)
O9 O -0.1783(5) 1.0944(4) 0.2659(3)
O10 O 0.3400(5) 0.6049(4) -0.2350(3)
O11 O 0.1117(4) 1.0655(4) 0.1855(3)
O12 O -0.2420(4) 0.5970(4) 0.3033(3)
O13 O -0.4355(5) 1.3968(4) 0.4239(3)
O14 O 0.3706(4) 0.4255(4) 0.3177(3)
O15 O 0.4158(5) 0.4624(4) -0.1553(3)
O16 O -0.4648(6) 1.3677(5) 0.5658(3)
C1 C -0.1313(6) 0.6326(5) 0.2814(4)
C2 C 0.1779(6) 0.9807(6) 0.2057(4)
C3 C 0.3940(6) 0.9211(5) 0.2198(4)
H1 H 0.37050 0.84310 0.22570
C4 C 0.3042(6) 0.5104(6) 0.2974(4)
C5 C 0.3063(6) 1.0080(5) 0.2136(4)
C6 C 0.2284(7) 0.7058(6) -0.0847(4)
H2 H 0.20700 0.73890 -0.13550
C7 C -0.1531(6) 1.0522(6) 0.3361(4)
C8 C 0.3587(6) 0.5586(6) -0.1637(4)
C9 C 0.1790(6) 0.7494(5) -0.0091(3)
C10 C 0.6155(6) 0.8585(6) 0.2181(4)
C11 C 0.0879(6) 0.8475(5) -0.0067(4)
C12 C -0.0306(6) 0.5417(6) 0.2788(4)
C13 C 0.5158(6) 0.9502(6) 0.2172(4)
C14 C 0.4622(8) 1.1554(7) 0.2071(6)
H3 H 0.48420 1.23330 0.20310
C15 C 0.3101(6) 0.6126(6) -0.0849(4)
C16 C 0.3463(7) 0.5680(7) -0.0108(4)
H4 H 0.40230 0.50700 -0.01140
C17 C 0.2142(7) 0.7014(7) 0.0656(4)
H5 H 0.17960 0.72900 0.11690
C18 C -0.3092(7) 1.2596(6) 0.4852(4)
C19 C 0.5507(7) 1.0674(7) 0.2108(6)
H6 H 0.63270 1.08680 0.20910
C20 C 0.0880(6) 0.5703(6) 0.2850(4)
H7 H 0.10770 0.64650 0.28770
C21 C 0.1764(6) 0.4837(6) 0.2869(4)
C22 C -0.2712(7) 1.2083(6) 0.4118(4)
H8 H -0.30320 1.23410 0.36440
C23 C -0.4093(6) 1.3501(5) 0.4915(4)
C24 C -0.1853(7) 1.1183(6) 0.4093(4)
C25 C -0.1336(9) 1.0847(8) 0.4786(5)
H9 H -0.07500 1.02570 0.47680
C26 C 0.3006(8) 0.6125(7) 0.0648(4)
H10 H 0.32740 0.58340 0.11420
C27 C 0.1473(8) 0.3728(7) 0.2795(6)
H11 H 0.20710 0.31520 0.28040
C28 C -0.1682(10) 1.1379(10) 0.5503(5)
H12 H -0.13300 1.11450 0.59640
C29 C -0.2544(9) 1.2254(8) 0.5539(5)
H13 H -0.27640 1.26180 0.60190
C30 C -0.0583(7) 0.4303(7) 0.2720(6)
H14 H -0.13770 0.41160 0.26820
C31 C 0.0331(9) 0.3451(8) 0.2709(8)
H15 H 0.01610 0.27000 0.26430
C32 C 0.3397(7) 1.1231(7) 0.2094(5)
H16 H 0.27970 1.18040 0.20820
N1 N 0.7244(8) 0.7897(8) 0.0114(5)
C33 C 0.5468(8) 0.9544(8) 0.0030(5)
C34 C 0.7579(9) 0.8966(9) 0.0026(5)
H17 H 0.84040 0.91610 -0.00060
C35 C 0.8166(10) 0.7046(10) 0.0182(9)
H18 H 0.78930 0.63220 0.00800
H19 H 0.82810 0.69220 0.07560
H20 H 0.89500 0.73150 -0.02450
C36 C 0.6703(9) 0.9841(9) -0.0023(6)
H21 H 0.69440 1.06220 -0.00910
C37 C 0.6077(11) 0.7587(10) 0.0240(8)
H22 H 0.58590 0.67910 0.03730
C38 C 0.5156(12) 0.8373(10) 0.0186(8)
H23 H 0.43340 0.81230 0.02540
N2 N 0.2892(10) 0.2230(8) 0.5047(5)
C39 C 0.1972(16) 0.3174(13) 0.5115(7)
H24 H 0.14870 0.31100 0.57140
H25 H 0.14180 0.31050 0.47640
H26 H 0.24120 0.39230 0.49120
C40 C 0.3273(10) 0.1873(10) 0.5722(7)
H27 H 0.29640 0.22000 0.62160
C41 C 0.4530(11) 0.0507(8) 0.5001(5)
C42 C 0.4166(10) 0.0981(10) 0.5721(7)
H28 H 0.44870 0.07320 0.61960
C43 C 0.3267(19) 0.1797(13) 0.4380(8)
H29 H 0.29740 0.20990 0.39000
C44 C 0.4109(19) 0.0876(12) 0.4319(7)
H30 H 0.43550 0.05460 0.38230
Eu1* Eu 0.93434(3) 0.93808(2) 0.194169(15)
Eu1A Eu 0.06566(3) 1.06192(2) -0.194169(15)
Eu2* Eu -0.45074(3) 0.55298(2) 0.309580(16)
Eu2** Eu -0.45074(3) 1.55298(2) 0.309580(16)
Eu2A Eu -0.54926(3) 1.44702(2) 0.690420(16)
Eu2A* Eu 0.45074(3) 0.44702(2) -0.309580(16)
O3* O -0.2731(4) 0.8933(4) 0.1965(3)
O6A O -0.0777(5) 1.0962(4) 0.0774(2)
O10A O 0.6600(5) 0.3951(4) 0.2350(3)
O12* O 0.7580(4) 0.5970(4) 0.3033(3)
O13* O 0.5645(5) 0.3968(4) 0.4239(3)
O15A O 0.5842(5) 0.5376(4) 0.1553(3)
O16A O 0.4648(6) 0.6323(5) 0.4342(3)
N1A N 0.2756(8) 1.2103(8) -0.0114(5)
C33A C 0.4532(8) 1.0456(8) -0.0030(5)
C34A C 0.2421(9) 1.1034(9) -0.0026(5)
H17A H 0.15960 1.08390 0.00060
C35A C 0.1834(10) 1.2954(10) -0.0182(9)
H18A H 0.21070 1.36780 -0.00800
H19A H 0.17190 1.30780 -0.07560
H20A H 0.10500 1.26850 0.02450
C36A C 0.3297(9) 1.0159(9) 0.0023(6)
H21A H 0.30560 0.93780 0.00910
C37A C 0.3923(11) 1.2413(10) -0.0240(8)
H22A H 0.41410 1.32090 -0.03730
C38A C 0.4844(12) 1.1627(10) -0.0186(8)
H23A H 0.56660 1.18770 -0.02540
N2A N 0.7108(10) -0.2230(8) 0.4953(5)
C39A C 0.8028(16) -0.3174(13) 0.4885(7)
H24A H 0.85130 -0.31100 0.42860
H25A H 0.85820 -0.31050 0.52360
H26A H 0.75880 -0.39230 0.50880
C40A C 0.6727(10) -0.1873(10) 0.4278(7)
H27A H 0.70360 -0.22000 0.37840
C41A C 0.5470(11) -0.0507(8) 0.4999(5)
C42A C 0.5834(10) -0.0981(10) 0.4279(7)
H28A H 0.55130 -0.07320 0.38040
C43A C 0.6733(19) -0.1797(13) 0.5620(8)
H29A H 0.70260 -0.20990 0.61000
C44A C 0.5891(19) -0.0876(12) 0.5681(7)
H30A H 0.56450 -0.05460 0.61770
#END
