
#######################################################################
#
#                 Cambridge Crystallographic Data Centre
#                                CCDC
#
#######################################################################
#
# If this CIF has been generated from an entry in the Cambridge
# Structural Database, then it will include bibliographic, chemical,
# crystal, experimental, refinement or atomic coordinate data resulting
# from the CCDC's data processing and validation procedures.
#
#######################################################################

data_CSD_CIF_DOMFIW
_audit_creation_date 2014-09-23
_audit_creation_method CSD-ConQuest-V1
_database_code_CSD DOMFIW
_database_code_depnum_ccdc_archive 'CCDC 1014716'
_chemical_formula_sum 'C100 H69 N10 Na3 O24 Pr2'
_chemical_formula_moiety
;
(C96 H52 N9 O19 Pr2 3-)n,3n(Na1 1+),4n(H2 O1),n(C4 H9 N1 O1)
;
_journal_coden_Cambridge 182
_journal_volume 50
_journal_year 2014
_journal_page_first 13612
_journal_name_full 'Chem.Commun. '
loop_
_publ_author_name
"G.Nandi"
"I.Goldberg"
_chemical_name_systematic
;
catena-(Tri-sodium 
bis(\m~4~-5,10,15,20-tetrakis(4-carboxylatophenyl)porphyrin)-(\m~2~-nitrato)-d
i-praseodymium dimethylacetamide solvate tetrahydrate)
;
_cell_volume  12402.115
_exptl_crystal_colour 'red'
_exptl_crystal_density_diffrn 1.099
_exptl_crystal_description 'plate'
_diffrn_ambient_temperature 110
_refine_special_details
;
The SQUEEZE/PLATON program was used to model the disordered dimethylacetamide 
and some water molecules.
;
#These two values have been output from a single CSD field.
_refine_ls_R_factor_gt 0.0688
_refine_ls_wR_factor_gt 0.0688
_symmetry_cell_setting monoclinic
_symmetry_space_group_name_H-M 'C 2/m'
_symmetry_Int_Tables_number 12
loop_
_symmetry_equiv_pos_site_id
_symmetry_equiv_pos_as_xyz
1 x,y,z
2 -x,y,-z
3 1/2+x,1/2+y,z
4 1/2-x,1/2+y,-z
5 -x,-y,-z
6 x,-y,z
7 -1/2-x,-1/2-y,-z
8 -1/2+x,-1/2-y,z
_cell_length_a 33.0534(12)
_cell_length_b 35.2658(13)
_cell_length_c 11.3000(6)
_cell_angle_alpha 90
_cell_angle_beta 109.685(3)
_cell_angle_gamma 90
_cell_formula_units_Z 4
loop_
_atom_type_symbol
_atom_type_radius_bond
C 0.68
H 0.23
N 0.68
Na 1.66
O 0.68
Pr 2.03
loop_
_atom_site_label
_atom_site_type_symbol
_atom_site_fract_x
_atom_site_fract_y
_atom_site_fract_z
Pr1 Pr 0.264076(12) 0.50000 0.79023(6)
O1 O 0.23127(13) 0.50000 0.9645(5)
O2 O 0.22886(11) 0.45690(9) 0.6094(4)
O3 O 0.18573(17) 0.50000 0.7639(7)
O4 O 0.23560(11) 0.42954(9) 0.7900(4)
O5 O -0.17378(12) 0.04424(11) -0.2003(5)
O6 O -0.18699(10) 0.04238(9) -0.0231(4)
Pr2 Pr 0.207775(12) 0.50000 1.15493(6)
N1 N 0.1907(2) 0.50000 0.8785(11)
C1 C 0.22108(16) 0.42929(14) 0.6735(7)
O7 O 0.16076(16) 0.50000 0.9266(7)
O8 O -0.19397(11) 0.43024(9) -0.0682(4)
O9 O -0.14743(10) 0.4552(1) -0.1484(4)
O10 O 0.25596(12) 0.04374(10) 0.6630(4)
O11 O 0.22102(11) 0.04328(10) 0.7974(4)
C2 C 0.19524(16) 0.39679(14) 0.6014(7)
C3 C -0.15948(16) 0.42905(14) -0.0886(6)
C4 C 0.18183(18) 0.36894(15) 0.6689(7)
C5 C 0.18231(17) 0.39552(16) 0.4743(7)
C6 C -0.12932(15) 0.39592(13) -0.0454(6)
H1 H 0.19040 0.37000 0.75790
C7 C 0.15560(19) 0.33982(16) 0.6021(7)
H2 H 0.19140 0.41480 0.43020
C8 C 0.15595(17) 0.36645(16) 0.4067(7)
C9 C -0.09210(16) 0.39434(17) -0.0715(6)
C10 C -0.13879(17) 0.36756(16) 0.0271(7)
C11 C 0.14104(17) 0.33849(15) 0.4706(6)
H3 H 0.14730 0.32030 0.64710
H4 H 0.14810 0.36550 0.31780
H5 H -0.08580 0.41330 -0.12250
C12 C -0.06336(17) 0.36502(16) -0.0233(6)
H6 H -0.16520 0.36820 0.04340
C13 C -0.10992(17) 0.33855(16) 0.0755(7)
C14 C 0.11034(15) 0.30823(14) 0.4019(6)
C15 C -0.07073(14) 0.33761(14) 0.0540(6)
H7 H -0.03790 0.36380 -0.04420
H8 H -0.11680 0.31910 0.12370
C16 C 0.06875(15) 0.32092(14) 0.3299(6)
C17 C 0.12454(16) 0.27100(15) 0.4154(6)
C18 C -0.03753(15) 0.30763(13) 0.1112(6)
N2 N 0.03725(11) 0.29871(11) 0.2532(4)
C19 C 0.05220(16) 0.35799(15) 0.3273(6)
N3 N 0.09935(12) 0.24002(11) 0.3719(4)
C20 C 0.16805(17) 0.25912(16) 0.4869(8)
C21 C 0.00111(15) 0.32038(14) 0.1986(6)
C22 C -0.04768(15) 0.27035(14) 0.0748(6)
H9 H 0.03960 0.27430 0.24040
H10 H 0.06710 0.37930 0.37300
C23 C 0.01040(17) 0.35753(16) 0.2461(7)
C24 C 0.12467(15) 0.20891(14) 0.4182(6)
C25 C 0.16818(17) 0.22085(16) 0.4885(7)
H11 H 0.19190 0.27530 0.52520
N4 N -0.02356(11) 0.23882(11) 0.1310(4)
C26 C -0.08707(15) 0.25751(14) -0.0226(6)
H12 H -0.00880 0.37850 0.22580
C27 C 0.11077(15) 0.17140(14) 0.4074(6)
H13 H 0.19210 0.20490 0.52790
C28 C -0.04715(15) 0.20759(13) 0.0784(5)
H14 H -0.10880 0.27320 -0.07690
C29 C -0.08677(16) 0.21978(15) -0.0211(6)
C30 C 0.14149(16) 0.14155(14) 0.4815(6)
C31 C 0.06984(15) 0.15910(14) 0.3382(6)
C32 C -0.03664(15) 0.17017(13) 0.1152(5)
H15 H -0.10820 0.20360 -0.07440
C33 C 0.1734(2) 0.12610(19) 0.4430(8)
C34 C 0.1391(2) 0.1288(2) 0.5933(8)
N5 N 0.03693(12) 0.18110(11) 0.2617(4)
C35 C 0.05487(17) 0.12070(14) 0.3270(6)
C36 C 0.00184(15) 0.15842(13) 0.2032(6)
C37 C -0.06984(15) 0.14021(13) 0.0628(6)
C38 C 0.19992(19) 0.09789(18) 0.5123(7)
H16 H 0.17710 0.13500 0.36800
C39 C 0.1662(2) 0.1017(2) 0.6610(7)
H17 H 0.11800 0.13920 0.62410
H18 H 0.04050 0.20630 0.25340
H19 H 0.07090 0.09940 0.36920
C40 C 0.01360(17) 0.12000(14) 0.2452(6)
C41 C -0.0790(3) 0.1278(3) -0.0549(8)
C42 C -0.0930(3) 0.1263(3) 0.1248(11)
C43 C 0.19673(16) 0.08571(14) 0.6225(6)
H20 H 0.22080 0.08680 0.48210
H21 H 0.16360 0.09370 0.73840
H22 H -0.00410 0.09820 0.22040
C44 C -0.1092(3) 0.0985(3) -0.1035(9)
H23 H -0.06490 0.13890 -0.10710
C45 C -0.1253(4) 0.0993(3) 0.0725(11)
H24 H -0.08790 0.13470 0.20850
C46 C 0.22589(17) 0.05607(15) 0.6987(7)
C47 C -0.13260(14) 0.08473(13) -0.0372(6)
H25 H -0.11290 0.08840 -0.18450
H26 H -0.14260 0.09140 0.12020
C48 C -0.16632(15) 0.05510(13) -0.0879(7)
Na1 Na -0.17867(9) 0.00000 0.1395(4)
Na2 Na 0.25145(7) 0.42474(6) 1.0017(3)
O12 O 0.25894(18) 0.36088(16) 1.0222(5)
O13 O -0.1104(3) 0.00000 0.2854(11)
O14 O 0.23445(18) 0.50000 0.4740(7)
H27? H 0.17990 0.50000 1.01060
O2A O -0.22886(11) 0.45690(9) 0.3906(4)
O4A O -0.23560(11) 0.42954(9) 0.2100(4)
O5A O 0.17378(12) 0.04424(11) 1.2003(5)
O6A O 0.18699(10) 0.04238(9) 1.0231(4)
C1A C -0.22108(16) 0.42929(14) 0.3265(7)
O8A O 0.19397(11) 0.43024(9) 1.0682(4)
O9A O 0.14743(10) 0.4552(1) 1.1484(4)
O10A O -0.25596(12) 0.04374(10) 0.3370(4)
O11A O -0.22102(11) 0.04328(10) 0.2026(4)
C2A C -0.19524(16) 0.39679(14) 0.3986(7)
C3A C 0.15948(16) 0.42905(14) 1.0886(6)
C4A C -0.18183(18) 0.36894(15) 0.3311(7)
C5A C -0.18231(17) 0.39552(16) 0.5257(7)
C6A C 0.12932(15) 0.39592(13) 1.0454(6)
H1A H -0.19040 0.37000 0.24210
C7A C -0.15560(19) 0.33982(16) 0.3979(7)
H2A H -0.19140 0.41480 0.56980
C8A C -0.15595(17) 0.36645(16) 0.5933(7)
C9A C 0.09210(16) 0.39434(17) 1.0715(6)
C10A C 0.13879(17) 0.36756(16) 0.9729(7)
C11A C -0.14104(17) 0.33849(15) 0.5294(6)
H3A H -0.14730 0.32030 0.35290
H4A H -0.14810 0.36550 0.68220
H5A H 0.08580 0.41330 1.12250
C12A C 0.06336(17) 0.36502(16) 1.0233(6)
H6A H 0.16520 0.36820 0.95660
C13A C 0.10992(17) 0.33855(16) 0.9245(7)
C14A C -0.11034(15) 0.30823(14) 0.5981(6)
C15A C 0.07073(14) 0.33761(14) 0.9460(6)
H7A H 0.03790 0.36380 1.04420
H8A H 0.11680 0.31910 0.87630
C16A C -0.06875(15) 0.32092(14) 0.6701(6)
C17A C -0.12454(16) 0.27100(15) 0.5846(6)
C18A C 0.03753(15) 0.30763(13) 0.8888(6)
N2A N -0.03725(11) 0.29871(11) 0.7468(4)
C19A C -0.05220(16) 0.35799(15) 0.6727(6)
N3A N -0.09935(12) 0.24002(11) 0.6281(4)
C20A C -0.16805(17) 0.25912(16) 0.5131(8)
C21A C -0.00111(15) 0.32038(14) 0.8014(6)
C22A C 0.04768(15) 0.27035(14) 0.9252(6)
H9A H -0.03960 0.27430 0.75960
H10A H -0.06710 0.37930 0.62700
C23A C -0.01040(17) 0.35753(16) 0.7539(7)
C24A C -0.12467(15) 0.20891(14) 0.5818(6)
C25A C -0.16818(17) 0.22085(16) 0.5115(7)
H11A H -0.19190 0.27530 0.47480
N4A N 0.02356(11) 0.23882(11) 0.8690(4)
C26A C 0.08707(15) 0.25751(14) 1.0226(6)
H12A H 0.00880 0.37850 0.77420
C27A C -0.11077(15) 0.17140(14) 0.5926(6)
H13A H -0.19210 0.20490 0.47210
C28A C 0.04715(15) 0.20759(13) 0.9216(5)
H14A H 0.10880 0.27320 1.07690
C29A C 0.08677(16) 0.21978(15) 1.0211(6)
C30A C -0.14149(16) 0.14155(14) 0.5185(6)
C31A C -0.06984(15) 0.15910(14) 0.6618(6)
C32A C 0.03664(15) 0.17017(13) 0.8848(5)
H15A H 0.10820 0.20360 1.07440
C33A C -0.1734(2) 0.12610(19) 0.5570(8)
C34A C -0.1391(2) 0.1288(2) 0.4067(8)
N5A N -0.03693(12) 0.18110(11) 0.7383(4)
C35A C -0.05487(17) 0.12070(14) 0.6730(6)
C36A C -0.00184(15) 0.15842(13) 0.7968(6)
C37A C 0.06984(15) 0.14021(13) 0.9372(6)
C38A C -0.19992(19) 0.09789(18) 0.4877(7)
H16A H -0.17710 0.13500 0.63200
C39A C -0.1662(2) 0.1017(2) 0.3390(7)
H17A H -0.11800 0.13920 0.37590
H18A H -0.04050 0.20630 0.74660
H19A H -0.07090 0.09940 0.63080
C40A C -0.01360(17) 0.12000(14) 0.7548(6)
C41A C 0.0790(3) 0.1278(3) 1.0549(8)
C42A C 0.0930(3) 0.1263(3) 0.8752(11)
C43A C -0.19673(16) 0.08571(14) 0.3775(6)
H20A H -0.22080 0.08680 0.51790
H21A H -0.16360 0.09370 0.26160
H22A H 0.00410 0.09820 0.77960
C44A C 0.1092(3) 0.0985(3) 1.1035(9)
H23A H 0.06490 0.13890 1.10710
C45A C 0.1253(4) 0.0993(3) 0.9275(11)
H24A H 0.08790 0.13470 0.79150
C46A C -0.22589(17) 0.05607(15) 0.3013(7)
C47A C 0.13260(14) 0.08473(13) 1.0372(6)
H25A H 0.11290 0.08840 1.18450
H26A H 0.14260 0.09140 0.87980
C48A C 0.16632(15) 0.05510(13) 1.0879(7)
Pr1A Pr -0.264076(12) 0.50000 0.20977(6)
Pr1B Pr -0.235924(12) 0.00000 -0.20977(6)
Pr1C Pr 0.235924(12) 0.00000 1.20977(6)
O2E O 0.22886(11) 0.54310(9) 0.6094(4)
O4E O 0.23560(11) 0.57046(9) 0.7900(4)
O5B O 0.32622(12) 0.54424(11) 0.7997(5)
O5G O 0.32622(12) 0.45576(11) 0.7997(5)
O6B O 0.31301(10) 0.54238(9) 0.9769(4)
O6G O 0.31301(10) 0.45762(9) 0.9769(4)
Pr2A Pr -0.207775(12) 0.50000 -0.15493(6)
Pr2B Pr -0.292225(12) 0.00000 0.15493(6)
Pr2C Pr 0.292225(12) 0.00000 0.84507(6)
O8D O 0.19397(11) 0.56976(9) 1.0682(4)
O9D O 0.14743(10) 0.5448(1) 1.1484(4)
O10C O 0.24404(12) 0.54374(10) 1.3370(4)
O10F O 0.24404(12) 0.45626(10) 1.3370(4)
O11C O 0.27898(11) 0.54328(10) 1.2026(4)
O11F O 0.27898(11) 0.45672(10) 1.2026(4)
#END
