
#######################################################################
#
#                 Cambridge Crystallographic Data Centre
#                                CCDC
#
#######################################################################
#
# If this CIF has been generated from an entry in the Cambridge
# Structural Database, then it will include bibliographic, chemical,
# crystal, experimental, refinement or atomic coordinate data resulting
# from the CCDC's data processing and validation procedures.
#
#######################################################################

data_CSD_CIF_DOMFOC
_audit_creation_date 2014-09-23
_audit_creation_method CSD-ConQuest-V1
_database_code_CSD DOMFOC
_database_code_depnum_ccdc_archive 'CCDC 1014717'
_chemical_formula_sum 'C101 H69 N10 Na3 Nd2 O28 Zn2'
_chemical_formula_moiety
;
(C97 H48 N9 Nd2 O21 Zn2 3-)n,3n(Na1 1+),6n(H2 O1),n(C4 H9 N1 O1)
;
_journal_coden_Cambridge 182
_journal_volume 50
_journal_year 2014
_journal_page_first 13612
_journal_name_full 'Chem.Commun. '
loop_
_publ_author_name
"G.Nandi"
"I.Goldberg"
_chemical_name_systematic
;
catena-(Tri-sodium 
bis(\m~5~-5,10,15,20-tetrakis(4-carboxylatophenyl)porphyrinato)-(\m~2~-carbon 
dioxide)-(\m~2~-nitrato)-di-neodymium-di-zinc N,N-dimethylacetamide solvate 
hexahydrate)
;
_cell_volume  12291.236
_exptl_crystal_colour 'red'
_exptl_crystal_density_diffrn 1.221
_exptl_crystal_description 'plate'
_diffrn_ambient_temperature 110
_refine_special_details
;
The SQUEEZE/PLATON program was used to model some disordered solvent 
(dimethylacetamide and water).
;
#These two values have been output from a single CSD field.
_refine_ls_R_factor_gt 0.0558
_refine_ls_wR_factor_gt 0.0558
_symmetry_cell_setting monoclinic
_symmetry_space_group_name_H-M 'C 2/m'
_symmetry_Int_Tables_number 12
loop_
_symmetry_equiv_pos_site_id
_symmetry_equiv_pos_as_xyz
1 x,y,z
2 -x,y,-z
3 1/2+x,1/2+y,z
4 1/2-x,1/2+y,-z
5 -x,-y,-z
6 x,-y,z
7 -1/2-x,-1/2-y,-z
8 -1/2+x,-1/2-y,z
_cell_length_a 32.9517(15)
_cell_length_b 35.3409(16)
_cell_length_c 11.1750(6)
_cell_angle_alpha 90
_cell_angle_beta 109.182(1)
_cell_angle_gamma 90
_cell_formula_units_Z 4
loop_
_atom_type_symbol
_atom_type_radius_bond
C 0.68
H 0.23
N 0.68
Na 1.66
Nd 2.01
O 0.68
Zn 1.22
loop_
_atom_site_label
_atom_site_type_symbol
_atom_site_fract_x
_atom_site_fract_y
_atom_site_fract_z
Nd1 Nd 0.207366(12) 0.00000 0.27624(5)
O1 O 0.19275(10) -0.06889(9) 0.3323(4)
O2 O 0.14658(11) -0.04267(9) 0.1649(4)
O3 O 0.27835(10) 0.04283(9) 0.3709(3)
O4 O 0.22802(14) 0.00000 0.5118(5)
O5 O 0.15853(16) 0.00000 0.4099(5)
O6 O 0.24369(12) 0.04298(10) 0.1657(3)
C1 C 0.15823(16) -0.07043(14) 0.2419(5)
Nd2 Nd 0.261070(12) 0.00000 0.75376(5)
C2 C 0.12947(15) -0.10394(13) 0.2223(4)
O7 O 0.23402(10) -0.06938(9) 0.6944(4)
O8 O 0.22547(12) -0.04315(9) 0.8630(3)
C3 C 0.13939(15) -0.13416(14) 0.3080(5)
C4 C 0.09128(16) -0.10437(15) 0.1226(5)
C5 C 0.21932(15) -0.07058(14) 0.7867(5)
H1 H 0.16550 -0.13410 0.37730
C6 C 0.11099(16) -0.16421(14) 0.2915(5)
C7 C 0.06273(16) -0.13406(15) 0.1085(5)
H2 H 0.08460 -0.08420 0.06330
C8 C 0.19477(15) -0.10412(13) 0.8041(5)
C9 C 0.07143(15) -0.16412(13) 0.1933(5)
H3 H 0.11850 -0.18520 0.34770
H4 H 0.03660 -0.13390 0.03930
C10 C 0.18321(16) -0.13218(14) 0.7128(5)
C11 C 0.18147(16) -0.10684(14) 0.9091(5)
C12 C 0.03844(15) -0.19413(13) 0.1819(4)
H5 H 0.19310 -0.13110 0.64210
C13 C 0.15712(17) -0.16203(15) 0.7242(5)
H6 H 0.19010 -0.08820 0.97390
C14 C 0.15584(16) -0.13639(15) 0.9200(5)
C15 C -0.00199(15) -0.18238(13) 0.1867(4)
C16 C 0.04931(15) -0.23149(13) 0.1673(4)
C17 C 0.14258(15) -0.16416(13) 0.8263(5)
H7 H 0.14930 -0.18110 0.66080
H8 H 0.14700 -0.13800 0.99260
N1 N -0.03723(12) -0.20449(11) 0.1708(4)
C18 C -0.01228(16) -0.14395(14) 0.2115(5)
N2 N 0.02507(12) -0.26302(10) 0.1762(4)
C19 C 0.08787(16) -0.24404(15) 0.1442(5)
C20 C 0.11130(15) -0.19408(14) 0.8330(5)
Zn1 Zn -0.033686(17) -0.262439(15) 0.20193(6)
C21 C -0.06952(15) -0.18208(13) 0.1793(5)
C22 C -0.05413(16) -0.14374(14) 0.2062(5)
H9 H 0.00660 -0.12290 0.22820
C23 C 0.04881(14) -0.29432(13) 0.1674(4)
H10 H 0.10930 -0.22830 0.13060
C24 C 0.08773(16) -0.28221(14) 0.1454(5)
C25 C 0.12521(15) -0.23208(14) 0.8421(5)
O9 O -0.01338(18) -0.25289(15) 0.3953(4)
N3 N -0.09930(12) -0.26304(11) 0.1691(4)
N4 N -0.03498(12) -0.32059(11) 0.1923(4)
H11 H -0.07010 -0.12250 0.21800
C26 C 0.03854(15) -0.33157(13) 0.1879(4)
H12 H 0.10930 -0.29830 0.13400
C27 C 0.16833(17) -0.24425(15) 0.8594(6)
C28 C 0.00000 -0.2646(2) 0.50000
C29 C -0.12426(15) -0.29420(13) 0.1674(5)
C30 C -0.00022(15) -0.34336(13) 0.2024(4)
C31 C -0.06737(16) -0.34358(13) 0.2033(5)
C32 C 0.07140(15) -0.36117(14) 0.1966(5)
H13 H 0.19270 -0.22840 0.87400
C33 C 0.16791(17) -0.28280(15) 0.8511(5)
C34 C -0.10862(16) -0.33148(14) 0.1919(5)
C35 C -0.01087(17) -0.38198(14) 0.2234(5)
C36 C -0.05170(16) -0.38200(14) 0.2254(5)
C37 C 0.0772(3) -0.3776(3) 0.0953(6)
C38 C 0.0985(3) -0.3722(3) 0.3071(6)
H14 H 0.19160 -0.29880 0.85640
C39 C -0.13936(16) -0.36102(14) 0.2065(5)
H15 H 0.00740 -0.40340 0.23390
H16 H -0.06720 -0.40330 0.23890
H17 H 0.05920 -0.37030 0.01320
C40 C 0.1083(3) -0.4047(3) 0.1053(6)
H18 H 0.09620 -0.36120 0.38220
C41 C 0.1301(3) -0.3993(3) 0.3178(7)
C42 C -0.17280(19) -0.37532(17) 0.1062(5)
C43 C -0.1362(3) -0.3745(2) 0.3227(6)
C44 C 0.13458(15) -0.41658(13) 0.2177(4)
H19 H 0.11120 -0.41520 0.03020
H20 H 0.14910 -0.40560 0.39960
C45 C -0.20009(18) -0.40242(17) 0.1235(5)
H21 H -0.17700 -0.36610 0.02320
C46 C -0.1645(2) -0.4011(2) 0.3401(6)
H22 H -0.11390 -0.36540 0.39450
C47 C 0.16836(15) -0.44599(13) 0.2305(5)
C48 C -0.19642(16) -0.41577(13) 0.2400(5)
H23 H -0.22210 -0.41210 0.05180
H24 H -0.16170 -0.40930 0.42350
O10 O 0.18939(10) -0.45829(9) 0.3394(3)
O11 O 0.17537(12) -0.45764(10) 0.1336(4)
C49 C -0.22611(16) -0.44489(13) 0.2595(5)
O12 O -0.18249(16) 0.00000 0.3782(6)
N5 N -0.1883(2) 0.00000 0.4835(8)
Na1 Na -0.25011(6) -0.07638(5) 0.48584(19)
Na2 Na -0.17794(9) -0.50000 0.5128(3)
O13 O -0.25668(15) -0.13915(11) 0.4899(5)
O14 O -0.1099(3) -0.50000 0.5014(15)
O15 O 0.13963(17) -0.50000 -0.0438(5)
O16 O 0.10633(16) 0.00000 0.0016(5)
O17 O -0.2323(2) 0.00000 -0.0108(6)
O3E O 0.27835(10) -0.04283(9) 0.3709(3)
O1E O 0.19275(10) 0.06889(9) 0.3323(4)
O6E O 0.24369(12) -0.04298(10) 0.1657(3)
O2E O 0.14658(11) 0.04267(9) 0.1649(4)
C21A C 0.06952(15) -0.18208(13) 0.8207(5)
C20A C -0.11130(15) -0.19408(14) 0.1670(5)
N1A N 0.03723(12) -0.20449(11) 0.8292(4)
C22A C 0.05413(16) -0.14374(14) 0.7938(5)
N3A N 0.09930(12) -0.26304(11) 0.8309(4)
C25A C -0.12521(15) -0.23208(14) 0.1579(5)
C17A C -0.14258(15) -0.16416(13) 0.1737(5)
Zn1A Zn 0.033686(17) -0.262439(15) 0.79807(6)
C15A C 0.00199(15) -0.18238(13) 0.8133(4)
H11A H 0.07010 -0.12250 0.78200
C18A C 0.01228(16) -0.14395(14) 0.7885(5)
C29A C 0.12426(15) -0.29420(13) 0.8326(5)
O9A O 0.01338(18) -0.25289(15) 0.6047(4)
C27A C -0.16833(17) -0.24425(15) 0.1406(6)
C33A C -0.16791(17) -0.28280(15) 0.1489(5)
C14A C -0.15584(16) -0.13639(15) 0.0800(5)
C13A C -0.15712(17) -0.16203(15) 0.2758(5)
N2A N -0.02507(12) -0.26302(10) 0.8238(4)
N4A N 0.03498(12) -0.32059(11) 0.8077(4)
C12A C -0.03844(15) -0.19413(13) 0.8181(4)
H9A H -0.00660 -0.12290 0.77180
C34A C 0.10862(16) -0.33148(14) 0.8081(5)
H13A H -0.19270 -0.22840 0.12600
H14A H -0.19160 -0.29880 0.14360
C11A C -0.18147(16) -0.10684(14) 0.0909(5)
H8A H -0.14700 -0.13800 0.00740
C10A C -0.18321(16) -0.13218(14) 0.2872(5)
H7A H -0.14930 -0.18110 0.33920
C16A C -0.04931(15) -0.23149(13) 0.8327(4)
C23A C -0.04881(14) -0.29432(13) 0.8326(4)
C30A C 0.00022(15) -0.34336(13) 0.7976(4)
C31A C 0.06737(16) -0.34358(13) 0.7967(5)
C9A C -0.07143(15) -0.16412(13) 0.8067(5)
C39A C 0.13936(16) -0.36102(14) 0.7935(5)
C8A C -0.19477(15) -0.10412(13) 0.1959(5)
H6A H -0.19010 -0.08820 0.02610
H5A H -0.19310 -0.13110 0.35790
C19A C -0.08787(16) -0.24404(15) 0.8558(5)
C26A C -0.03854(15) -0.33157(13) 0.8121(4)
C24A C -0.08773(16) -0.28221(14) 0.8546(5)
C35A C 0.01087(17) -0.38198(14) 0.7766(5)
C36A C 0.05170(16) -0.38200(14) 0.7746(5)
C6A C -0.11099(16) -0.16421(14) 0.7085(5)
C7A C -0.06273(16) -0.13406(15) 0.8915(5)
C42A C 0.17280(19) -0.37532(17) 0.8938(5)
C43A C 0.1362(3) -0.3745(2) 0.6773(6)
C5A C -0.21932(15) -0.07058(14) 0.2133(5)
H10A H -0.10930 -0.22830 0.86940
C32A C -0.07140(15) -0.36117(14) 0.8034(5)
H12A H -0.10930 -0.29830 0.86600
H15A H -0.00740 -0.40340 0.76610
H16A H 0.06720 -0.40330 0.76110
C3A C -0.13939(15) -0.13416(14) 0.6920(5)
H3A H -0.11850 -0.18520 0.65230
H4A H -0.03660 -0.13390 0.96070
C4A C -0.09128(16) -0.10437(15) 0.8774(5)
C45A C 0.20009(18) -0.40242(17) 0.8765(5)
H21A H 0.17700 -0.36610 0.97680
C46A C 0.1645(2) -0.4011(2) 0.6599(6)
H22A H 0.11390 -0.36540 0.60550
O7A O -0.23402(10) -0.06938(9) 0.3056(4)
O8A O -0.22547(12) -0.04315(9) 0.1370(3)
O7D O -0.23402(10) 0.06938(9) 0.3056(4)
O8D O -0.22547(12) 0.04315(9) 0.1370(3)
C37A C -0.0772(3) -0.3776(3) 0.9047(6)
C38A C -0.0985(3) -0.3722(3) 0.6929(6)
C2A C -0.12947(15) -0.10394(13) 0.7777(4)
H1A H -0.16550 -0.13410 0.62270
H2A H -0.08460 -0.08420 0.93670
C48A C 0.19642(16) -0.41577(13) 0.7600(5)
H23A H 0.22210 -0.41210 0.94820
H24A H 0.16170 -0.40930 0.57650
Nd2A Nd -0.261070(12) 0.00000 0.24624(5)
Nd2C Nd 0.238930(12) -0.50000 0.24624(5)
H17A H -0.05920 -0.37030 0.98680
C40A C -0.1083(3) -0.4047(3) 0.8947(6)
H18A H -0.09620 -0.36120 0.61780
C41A C -0.1301(3) -0.3993(3) 0.6822(7)
C1A C -0.15823(16) -0.07043(14) 0.7581(5)
C49A C 0.22611(16) -0.44489(13) 0.7405(5)
O3B O -0.22165(10) -0.45717(9) 0.3709(3)
O6B O -0.25631(12) -0.45702(10) 0.1657(3)
O4A O -0.22802(14) 0.00000 0.4882(5)
O10B O -0.31061(10) 0.04171(9) 0.3394(3)
O10G O -0.31061(10) -0.04171(9) 0.3394(3)
O11B O -0.32463(12) 0.04236(10) 0.1336(4)
O11G O -0.32463(12) -0.04236(10) 0.1336(4)
C44A C -0.13458(15) -0.41658(13) 0.7823(4)
H19A H -0.11120 -0.41520 0.96980
H20A H -0.14910 -0.40560 0.60040
O1A O -0.19275(10) -0.06889(9) 0.6677(4)
O2A O -0.14658(11) -0.04267(9) 0.8351(4)
O3C O 0.22165(10) -0.45717(9) 0.6291(3)
O6C O 0.25631(12) -0.45702(10) 0.8343(3)
Nd1B Nd -0.292634(12) -0.50000 0.27624(5)
Nd1A Nd -0.207366(12) 0.00000 0.72376(5)
Nd1C Nd 0.292634(12) -0.50000 0.72376(5)
C47A C -0.16836(15) -0.44599(13) 0.7695(5)
O5A O -0.15853(16) 0.00000 0.5901(5)
O10A O -0.18939(10) -0.45829(9) 0.6606(3)
O11A O -0.17537(12) -0.45764(10) 0.8664(4)
Nd2B Nd -0.238930(12) -0.50000 0.75376(5)
#END
