
#######################################################################
#
#                 Cambridge Crystallographic Data Centre
#                                CCDC
#
#######################################################################
#
# If this CIF has been generated from an entry in the Cambridge
# Structural Database, then it will include bibliographic, chemical,
# crystal, experimental, refinement or atomic coordinate data resulting
# from the CCDC's data processing and validation procedures.
#
#######################################################################

data_CSD_CIF_DOMFUI
_audit_creation_date 2014-09-23
_audit_creation_method CSD-ConQuest-V1
_database_code_CSD DOMFUI
_database_code_depnum_ccdc_archive 'CCDC 1014718'
_chemical_formula_sum 'C101 H67 N10 Na4 O27 Sm2 Zn2'
_chemical_formula_moiety
;
(C97 H48 N9 O21 Sm2 Zn2 4-)n,5n(H2 O1),4n(Na1 1+),n(C4 H9 N1 O1)
;
_journal_coden_Cambridge 182
_journal_volume 50
_journal_year 2014
_journal_page_first 13612
_journal_name_full 'Chem.Commun. '
loop_
_publ_author_name
"G.Nandi"
"I.Goldberg"
_chemical_name_systematic
;
catena-(Tetra-sodium 
bis(\m~5~-5,10,15,20-tetrakis(4-carboxylatophenyl)porphyrinato)-(\m~2~-carbon 
dioxide)-(\m~2~-nitrato)-di-samarium-di-zinc dimethylacetamide solvate 
pentahydrate)
;
_cell_volume  12373.243
_exptl_crystal_colour 'red'
_exptl_crystal_density_diffrn 1.227
_exptl_crystal_description 'prism'
_diffrn_ambient_temperature 110
_refine_special_details
;
The SQUEEZE/PLATON program was used to model some disordered solvent 
(dimethylacetamide and some water).
;
#These two values have been output from a single CSD field.
_refine_ls_R_factor_gt 0.0384
_refine_ls_wR_factor_gt 0.0384
_symmetry_cell_setting monoclinic
_symmetry_space_group_name_H-M 'C 2/m'
_symmetry_Int_Tables_number 12
loop_
_symmetry_equiv_pos_site_id
_symmetry_equiv_pos_as_xyz
1 x,y,z
2 -x,y,-z
3 1/2+x,1/2+y,z
4 1/2-x,1/2+y,-z
5 -x,-y,-z
6 x,-y,z
7 -1/2-x,-1/2-y,-z
8 -1/2+x,-1/2-y,z
_cell_length_a 32.8029(17)
_cell_length_b 35.0128(18)
_cell_length_c 11.4791(5)
_cell_angle_alpha 90
_cell_angle_beta 110.1980(9)
_cell_angle_gamma 90
_cell_formula_units_Z 4
loop_
_atom_type_symbol
_atom_type_radius_bond
C 0.68
H 0.23
N 0.68
Na 1.66
O 0.68
Sm 1.98
Zn 1.22
loop_
_atom_site_label
_atom_site_type_symbol
_atom_site_fract_x
_atom_site_fract_y
_atom_site_fract_z
Sm1 Sm 0.205378(8) 0.00000 0.78887(2)
Sm2 Sm 0.262709(8) 0.00000 1.23385(2)
Zn1 Zn -0.036691(13) -0.262435(12) 0.70667(3)
O1 O -0.22499(8) -0.45778(7) 0.8663(2)
O2 O -0.26200(8) -0.45845(7) 0.6657(2)
O3 O -0.23592(8) -0.06826(7) 0.8132(2)
O4 O 0.18264(12) 0.00000 1.1204(3)
O5 O -0.23257(8) -0.04177(7) 0.6424(2)
O6 O 0.18803(8) -0.45916(7) 0.8477(2)
O7 O 0.17544(9) -0.45790(8) 0.6465(2)
O8 O 0.15603(11) 0.00000 0.9108(3)
O9 O 0.22663(11) 0.00000 1.0108(3)
O10 O 0.14574(8) -0.04216(7) 0.6677(2)
O11 O 0.19120(8) -0.06840(7) 0.8365(2)
O12 O -0.01460(14) -0.25576(11) 0.8975(3)
N1 N -0.03915(10) -0.32105(9) 0.6923(3)
N2 N -0.03991(10) -0.20423(9) 0.6730(2)
N3 N 0.02179(10) -0.26346(8) 0.6761(2)
N4 N -0.10296(10) -0.26224(8) 0.6718(2)
N5 N 0.18625(17) 0.00000 1.0140(4)
C1 C -0.23118(12) -0.44593(10) 0.7563(3)
C2 C -0.22374(12) -0.06936(11) 0.7181(3)
C3 C -0.20164(12) -0.41626(10) 0.7358(3)
C4 C -0.19875(12) -0.10250(11) 0.6995(3)
C5 C -0.12853(12) -0.29346(11) 0.6674(3)
C6 C 0.16662(12) -0.44660(11) 0.7391(3)
C7 C 0.12785(12) -0.10380(11) 0.7240(3)
C8 C -0.00486(12) -0.34469(10) 0.7002(3)
C9 C 0.15709(12) -0.06982(11) 0.7439(3)
C10 C 0.13174(12) -0.41807(11) 0.7230(3)
C11 C -0.07233(12) -0.34393(10) 0.7015(3)
C12 C -0.14507(12) -0.36071(11) 0.7025(3)
C13 C 0.04602(12) -0.23240(11) 0.6699(3)
C14 C -0.00430(12) -0.18146(11) 0.6884(3)
C15 C 0.06748(12) -0.36291(11) 0.6979(3)
C16 C -0.18722(14) -0.13206(11) 0.7864(3)
H1 H -0.19740 -0.13190 0.85440
C17 C -0.07228(13) -0.18085(11) 0.6794(3)
C18 C 0.06937(12) -0.16435(11) 0.6956(3)
C19 C -0.14560(13) -0.16245(11) 0.6741(3)
C20 C -0.11389(12) -0.33147(11) 0.6883(3)
C21 C -0.05734(13) -0.38308(11) 0.7186(3)
H2 H -0.07350 -0.40450 0.72900
C22 C 0.04530(12) -0.29515(11) 0.6686(3)
C23 C 0.03418(12) -0.33282(11) 0.6872(3)
C24 C -0.05648(13) -0.14216(11) 0.7024(3)
H3 H -0.07260 -0.12040 0.71070
C25 C -0.12895(12) -0.23080(11) 0.6586(3)
C26 C 0.08441(13) -0.28305(12) 0.6484(4)
H4 H 0.10580 -0.29930 0.63640
C27 C -0.01470(13) -0.14265(11) 0.7098(3)
H5 H 0.00440 -0.12140 0.72600
C28 C -0.11453(13) -0.19248(11) 0.6686(3)
C29 C 0.08507(13) -0.24515(12) 0.6498(4)
H6 H 0.10710 -0.22930 0.63960
C30 C -0.20376(14) -0.40554(13) 0.6189(3)
H7 H -0.22480 -0.41690 0.54850
C31 C -0.16094(14) -0.16167(12) 0.7740(4)
H8 H -0.15320 -0.18160 0.83380
C32 C -0.01667(13) -0.38374(11) 0.7172(3)
H9 H 0.00110 -0.40570 0.72570
C33 C 0.09147(13) -0.10674(12) 0.6195(3)
H10 H 0.08620 -0.08800 0.55600
C34 C 0.03571(12) -0.19421(11) 0.6840(3)
C35 C -0.17300(14) -0.24296(12) 0.6389(4)
H11 H -0.19760 -0.22690 0.62460
C36 C 0.06252(14) -0.13627(12) 0.6051(3)
H12 H 0.03750 -0.13750 0.53220
C37 C -0.18494(14) -0.10352(11) 0.5978(3)
H13 H -0.19330 -0.08390 0.53700
C38 C -0.17125(17) -0.39819(16) 0.8366(4)
H14 H -0.16930 -0.40490 0.91860
C39 C -0.17247(13) -0.28126(12) 0.6448(4)
H15 H -0.19670 -0.29740 0.63580
C40 C 0.10766(15) -0.16268(13) 0.7974(4)
H16 H 0.11410 -0.18230 0.85820
C41 C -0.14421(17) -0.37087(16) 0.8186(4)
H17 H -0.12420 -0.35850 0.88890
C42 C -0.17575(14) -0.37847(12) 0.6025(3)
H18 H -0.17750 -0.37180 0.52070
C43 C 0.13641(14) -0.13276(13) 0.8111(4)
H19 H 0.16240 -0.13210 0.88130
C44 C -0.15874(13) -0.13348(12) 0.5857(3)
H20 H -0.14960 -0.13420 0.51560
C45 C 0.11124(15) -0.40097(14) 0.6116(4)
H21 H 0.11870 -0.40790 0.54150
C46 C 0.07953(16) -0.37350(14) 0.5994(4)
H22 H 0.06580 -0.36180 0.52100
C47 C 0.08730(17) -0.38165(16) 0.8103(4)
H23 H 0.07880 -0.37570 0.87930
C48 C 0.00000 -0.2644(2) 1.00000
C49 C 0.11923(17) -0.40875(16) 0.8230(4)
H24 H 0.13260 -0.42100 0.90070
Na1 Na -0.25077(5) -0.07734(4) 0.98946(11)
Na2 Na -0.17572(7) -0.50000 1.00371(17)
Na3 Na -0.23190(8) 0.00000 0.49452(16)
O13 O -0.31197(15) 0.00000 0.4454(3)
H25 H -0.32380 -0.02140 0.46310
O14 O -0.25817(13) -0.14026(10) 0.9964(3)
O15 O -0.15589(18) 0.00000 0.5484(6)
H26 H -0.15550 -0.02140 0.59230
O16 O -0.1098(3) -0.50000 1.0111(9)
H27 H -0.09360 -0.50000 1.09220
H28 H -0.09370 -0.50000 0.96140
O12A O 0.01460(14) -0.25576(11) 1.1025(3)
Zn1A Zn 0.036691(13) -0.262435(12) 1.29333(3)
O1A O 0.22499(8) -0.45778(7) 1.1337(2)
O2A O 0.26200(8) -0.45845(7) 1.3343(2)
O3A O 0.23592(8) -0.06826(7) 1.1868(2)
O5A O 0.23257(8) -0.04177(7) 1.3576(2)
O6A O -0.18803(8) -0.45916(7) 1.1523(2)
O7A O -0.17544(9) -0.45790(8) 1.3535(2)
O10A O -0.14574(8) -0.04216(7) 1.3323(2)
O11A O -0.19120(8) -0.06840(7) 1.1635(2)
N1A N 0.03915(10) -0.32105(9) 1.3077(3)
N2A N 0.03991(10) -0.20423(9) 1.3270(2)
N3A N -0.02179(10) -0.26346(8) 1.3239(2)
N4A N 0.10296(10) -0.26224(8) 1.3282(2)
C1A C 0.23118(12) -0.44593(10) 1.2437(3)
C2A C 0.22374(12) -0.06936(11) 1.2819(3)
C3A C 0.20164(12) -0.41626(10) 1.2642(3)
C4A C 0.19875(12) -0.10250(11) 1.3005(3)
C5A C 0.12853(12) -0.29346(11) 1.3326(3)
C6A C -0.16662(12) -0.44660(11) 1.2609(3)
C7A C -0.12785(12) -0.10380(11) 1.2760(3)
C8A C 0.00486(12) -0.34469(10) 1.2998(3)
C9A C -0.15709(12) -0.06982(11) 1.2561(3)
C10A C -0.13174(12) -0.41807(11) 1.2770(3)
C11A C 0.07233(12) -0.34393(10) 1.2985(3)
C12A C 0.14507(12) -0.36071(11) 1.2975(3)
C13A C -0.04602(12) -0.23240(11) 1.3301(3)
C14A C 0.00430(12) -0.18146(11) 1.3116(3)
C15A C -0.06748(12) -0.36291(11) 1.3021(3)
C16A C 0.18722(14) -0.13206(11) 1.2136(3)
H1A H 0.19740 -0.13190 1.14560
C17A C 0.07228(13) -0.18085(11) 1.3206(3)
C18A C -0.06937(12) -0.16435(11) 1.3044(3)
C19A C 0.14560(13) -0.16245(11) 1.3259(3)
C20A C 0.11389(12) -0.33147(11) 1.3117(3)
C21A C 0.05734(13) -0.38308(11) 1.2814(3)
H2A H 0.07350 -0.40450 1.27100
C22A C -0.04530(12) -0.29515(11) 1.3314(3)
C23A C -0.03418(12) -0.33282(11) 1.3128(3)
C24A C 0.05648(13) -0.14216(11) 1.2976(3)
H3A H 0.07260 -0.12040 1.28930
C25A C 0.12895(12) -0.23080(11) 1.3414(3)
C26A C -0.08441(13) -0.28305(12) 1.3516(4)
H4A H -0.10580 -0.29930 1.36360
C27A C 0.01470(13) -0.14265(11) 1.2902(3)
H5A H -0.00440 -0.12140 1.27400
C28A C 0.11453(13) -0.19248(11) 1.3314(3)
C29A C -0.08507(13) -0.24515(12) 1.3502(4)
H6A H -0.10710 -0.22930 1.36040
C30A C 0.20376(14) -0.40554(13) 1.3811(3)
H7A H 0.22480 -0.41690 1.45150
C31A C 0.16094(14) -0.16167(12) 1.2260(4)
H8A H 0.15320 -0.18160 1.16620
C32A C 0.01667(13) -0.38374(11) 1.2828(3)
H9A H -0.00110 -0.40570 1.27430
C33A C -0.09147(13) -0.10674(12) 1.3805(3)
H10A H -0.08620 -0.08800 1.44400
C34A C -0.03571(12) -0.19421(11) 1.3160(3)
C35A C 0.17300(14) -0.24296(12) 1.3611(4)
H11A H 0.19760 -0.22690 1.37540
C36A C -0.06252(14) -0.13627(12) 1.3949(3)
H12A H -0.03750 -0.13750 1.46780
C37A C 0.18494(14) -0.10352(11) 1.4022(3)
H13A H 0.19330 -0.08390 1.46300
C38A C 0.17125(17) -0.39819(16) 1.1634(4)
H14A H 0.16930 -0.40490 1.08140
C39A C 0.17247(13) -0.28126(12) 1.3552(4)
H15A H 0.19670 -0.29740 1.36420
C40A C -0.10766(15) -0.16268(13) 1.2026(4)
H16A H -0.11410 -0.18230 1.14180
C41A C 0.14421(17) -0.37087(16) 1.1814(4)
H17A H 0.12420 -0.35850 1.11110
C42A C 0.17575(14) -0.37847(12) 1.3975(3)
H18A H 0.17750 -0.37180 1.47930
C43A C -0.13641(14) -0.13276(13) 1.1889(4)
H19A H -0.16240 -0.13210 1.11870
C44A C 0.15874(13) -0.13348(12) 1.4143(3)
H20A H 0.14960 -0.13420 1.48440
C45A C -0.11124(15) -0.40097(14) 1.3884(4)
H21A H -0.11870 -0.40790 1.45850
C46A C -0.07953(16) -0.37350(14) 1.4006(4)
H22A H -0.06580 -0.36180 1.47900
C47A C -0.08730(17) -0.38165(16) 1.1897(4)
H23A H -0.07880 -0.37570 1.12070
C49A C -0.11923(17) -0.40875(16) 1.1770(4)
H24A H -0.13260 -0.42100 1.09930
Sm1A Sm -0.205378(8) 0.00000 1.21113(2)
Sm1B Sm -0.294622(8) -0.50000 0.78887(2)
Sm1C Sm 0.294622(8) -0.50000 1.21113(2)
Sm2A Sm -0.262709(8) 0.00000 0.76615(2)
Sm2B Sm -0.237291(8) -0.50000 1.23385(2)
Sm2C Sm 0.237291(8) -0.50000 0.76615(2)
O1B O 0.27501(8) 0.04222(7) 0.8663(2)
O1G O 0.27501(8) -0.04222(7) 0.8663(2)
O2B O 0.23800(8) 0.04155(7) 0.6657(2)
O2G O 0.23800(8) -0.04155(7) 0.6657(2)
O3D O 0.23592(8) 0.06826(7) 1.1868(2)
O5D O 0.23257(8) 0.04177(7) 1.3576(2)
O6C O 0.31197(8) 0.04084(7) 1.1523(2)
O6F O 0.31197(8) -0.04084(7) 1.1523(2)
O7C O 0.32456(9) 0.04210(8) 1.3535(2)
O7F O 0.32456(9) -0.04210(8) 1.3535(2)
O10E O 0.14574(8) 0.04216(7) 0.6677(2)
O11E O 0.19120(8) 0.06840(7) 0.8365(2)
H25E H -0.32380 0.02140 0.46310
H26E H -0.15550 0.02140 0.59230
#END
