
#######################################################################
#
#                 Cambridge Crystallographic Data Centre
#                                CCDC
#
#######################################################################
#
# If this CIF has been generated from an entry in the Cambridge
# Structural Database, then it will include bibliographic, chemical,
# crystal, experimental, refinement or atomic coordinate data resulting
# from the CCDC's data processing and validation procedures.
#
#######################################################################

data_CSD_CIF_DOMGAP
_audit_creation_date 2014-09-23
_audit_creation_method CSD-ConQuest-V1
_database_code_CSD DOMGAP
_database_code_depnum_ccdc_archive 'CCDC 1014719'
_chemical_formula_sum 'C104 H74 Gd2 N11 Na4 O28 Zn2'
_chemical_formula_moiety
;
(C97 H48 Gd2 N9 O21 Zn2 4-)n,5n(H2 O1),4n(Na1 1+),n(C4 H9 N1 O1),n(C3 H7 N1 
O1)
;
_journal_coden_Cambridge 182
_journal_volume 50
_journal_year 2014
_journal_page_first 13612
_journal_name_full 'Chem.Commun. '
loop_
_publ_author_name
"G.Nandi"
"I.Goldberg"
_chemical_name_systematic
;
catena-(Tetra-sodium 
bis(\m~5~-5,10,15,20-tetrakis(4-carboxylatophenyl)porphyrinato)-(\m~2~-carbon 
dioxide)-(\m~2~-nitrato)-di-gadolinium-di-zinc dimethylacetamide 
dimethylformamide solvate pentahydrate)
;
_cell_volume  12381.854
_exptl_crystal_colour 'red'
_exptl_crystal_density_diffrn 1.233
_exptl_crystal_description 'prism'
_diffrn_ambient_temperature 110
_refine_special_details
;
The SQUEEZE/PLATON program has been used to model some disordered solvent 
(dimethylformamide, dimethylacetamide and water).
;
#These two values have been output from a single CSD field.
_refine_ls_R_factor_gt 0.0326
_refine_ls_wR_factor_gt 0.0326
_symmetry_cell_setting monoclinic
_symmetry_space_group_name_H-M 'C 2/m'
_symmetry_Int_Tables_number 12
loop_
_symmetry_equiv_pos_site_id
_symmetry_equiv_pos_as_xyz
1 x,y,z
2 -x,y,-z
3 1/2+x,1/2+y,z
4 1/2-x,1/2+y,-z
5 -x,-y,-z
6 x,-y,z
7 -1/2-x,-1/2-y,-z
8 -1/2+x,-1/2-y,z
_cell_length_a 32.9116(9)
_cell_length_b 34.7726(9)
_cell_length_c 11.5106(3)
_cell_angle_alpha 90
_cell_angle_beta 109.958(2)
_cell_angle_gamma 90
_cell_formula_units_Z 4
loop_
_atom_type_symbol
_atom_type_radius_bond
C 0.68
H 0.23
Gd 1.96
N 0.68
Na 1.66
O 0.68
Zn 1.22
loop_
_atom_site_label
_atom_site_type_symbol
_atom_site_fract_x
_atom_site_fract_y
_atom_site_fract_z
Gd1 Gd 0.207680(5) 0.00000 0.793156(16)
Gd2 Gd 0.263052(5) 0.00000 1.232439(16)
Zn1 Zn -0.036038(9) -0.261577(8) 0.70641(3)
O1 O -0.26048(6) -0.45865(5) 0.66902(17)
O2 O -0.22326(6) -0.45777(5) 0.86859(17)
O3 O 0.22880(8) 0.00000 1.0122(2)
O4 O 0.17596(6) -0.45816(6) 0.64657(18)
O5 O 0.18470(8) 0.00000 1.1204(2)
O6 O -0.23442(6) -0.04144(5) 0.64115(17)
O7 O 0.15816(8) 0.00000 0.9119(2)
O8 O 0.19310(6) -0.06861(5) 0.83912(17)
O9 O -0.23639(6) -0.06834(5) 0.81197(17)
O10 O 0.18782(6) -0.45887(5) 0.84682(17)
O11 O 0.14907(6) -0.04165(5) 0.67022(18)
N1 N -0.03960(7) -0.20302(6) 0.6716(2)
N2 N -0.10204(7) -0.26166(6) 0.6708(2)
N3 N 0.02178(7) -0.26247(6) 0.6739(2)
N4 N -0.03854(7) -0.32067(6) 0.6911(2)
C1 C -0.22966(8) -0.44588(7) 0.7595(2)
C2 C -0.19998(8) -0.41630(7) 0.7378(2)
C3 C 0.16718(8) -0.44664(7) 0.7386(2)
C4 C -0.22488(8) -0.06885(7) 0.7181(2)
C5 C 0.15939(8) -0.06945(7) 0.7456(3)
N5 N 0.18855(11) 0.00000 1.0155(3)
C6 C 0.13205(8) -0.41768(7) 0.7223(2)
C7 C -0.19884(9) -0.10183(8) 0.6989(3)
C8 C -0.00441(9) -0.17993(7) 0.6854(3)
C9 C 0.12941(8) -0.10319(8) 0.7243(3)
C10 C -0.11296(8) -0.33127(7) 0.6872(2)
C11 C -0.07222(9) -0.17942(7) 0.6765(3)
C12 C 0.03443(8) -0.33233(8) 0.6849(3)
C13 C -0.12750(8) -0.29313(8) 0.6662(3)
C14 C 0.04495(8) -0.29436(8) 0.6656(3)
C15 C -0.11399(9) -0.19148(8) 0.6661(3)
C16 C 0.06821(8) -0.36239(7) 0.6965(3)
C17 C -0.14389(8) -0.36080(7) 0.7022(3)
C18 C -0.20301(10) -0.40545(9) 0.6207(3)
H1 H -0.22430 -0.41670 0.55120
C19 C -0.07111(8) -0.34376(7) 0.7008(3)
C20 C -0.00436(8) -0.34431(7) 0.6988(2)
C21 C 0.09204(9) -0.10369(8) 0.6232(3)
H2 H 0.08650 -0.08370 0.56370
C22 C 0.03549(8) -0.19263(8) 0.6804(3)
C23 C 0.06937(9) -0.16288(8) 0.6929(3)
C24 C -0.18719(11) -0.13139(9) 0.7844(3)
H3 H -0.19720 -0.13140 0.85250
C25 C -0.12798(9) -0.23004(8) 0.6571(3)
C26 C -0.05667(9) -0.38321(8) 0.7167(3)
H4 H -0.07300 -0.40480 0.72580
C27 C -0.18484(9) -0.10249(8) 0.5976(3)
H5 H -0.19350 -0.08270 0.53710
C28 C -0.17489(10) -0.37791(10) 0.6038(3)
H6 H -0.17720 -0.37070 0.52210
C29 C 0.04590(8) -0.23121(8) 0.6662(3)
C30 C 0.08406(9) -0.28248(9) 0.6433(3)
H7 H 0.10520 -0.29890 0.63040
C31 C -0.14527(9) -0.16125(8) 0.6725(3)
C32 C -0.16082(11) -0.16103(9) 0.7709(3)
H8 H -0.15330 -0.18140 0.82950
C33 C -0.05669(10) -0.14004(8) 0.6964(3)
H9 H -0.07280 -0.11810 0.70340
C34 C -0.01558(9) -0.38366(8) 0.7163(3)
H10 H 0.00250 -0.40560 0.72570
C35 C 0.08445(9) -0.24376(9) 0.6444(3)
H11 H 0.10610 -0.22770 0.63300
C36 C 0.1380(1) -0.13357(9) 0.8077(3)
H12 H 0.16430 -0.13400 0.87610
C37 C -0.01514(9) -0.14062(8) 0.7030(3)
H13 H 0.00370 -0.11910 0.71670
C38 C -0.17187(10) -0.24221(9) 0.6381(3)
H14 H -0.19630 -0.22600 0.62400
C39 C -0.15826(9) -0.13200(8) 0.5849(3)
H15 H -0.14880 -0.13220 0.51560
C40 C 0.06237(9) -0.13327(9) 0.6077(3)
H16 H 0.03670 -0.13320 0.53730
C41 C 0.11113(13) -0.40124(12) 0.6106(3)
H17 H 0.11800 -0.40890 0.54030
C42 C -0.17001(14) -0.39847(14) 0.8367(3)
H18 H -0.16830 -0.40500 0.91830
C43 C 0.10841(10) -0.16328(9) 0.7915(3)
H19 H 0.11480 -0.18410 0.84830
C44 C -0.14222(13) -0.37102(14) 0.8188(3)
H20 H -0.12170 -0.35910 0.88850
C45 C -0.17150(9) -0.28097(9) 0.6444(3)
H21 H -0.19560 -0.29720 0.63610
O12 O -0.00373(19) -0.2579(2) 0.8970(6)
C46 C 0.07959(10) -0.3733(3) 0.5984(3)
H22 H 0.06580 -0.36160 0.52020
C47 C 0.11984(14) -0.40808(14) 0.8218(3)
H23 H 0.13280 -0.42050 0.89920
C48 C 0.08840(15) -0.38003(15) 0.8082(4)
H24 H 0.08070 -0.37290 0.87770
C49 C 0.00000 -0.26286(15) 1.00000
Na1 Na -0.25183(3) -0.07780(3) 0.98761(9)
Na2 Na -0.23424(5) 0.00000 0.49117(14)
Na3 Na -0.17558(5) -0.50000 1.00719(15)
O13 O -0.31514(11) 0.00000 0.4422(3)
H25 H -0.32320 -0.02130 0.48130
O14 O -0.15757(12) 0.00000 0.5319(4)
H26 H -0.15360 -0.01830 0.58250
O15 O -0.2600(1) -0.14124(7) 0.9933(3)
O16 O -0.10897(10) -0.50000 1.0089(3)
H27 H -0.09530 -0.50000 1.09610
H28 H -0.08720 -0.50000 0.97180
O17? O -0.02260(18) -0.2583(2) 0.8978(6)
O12A O 0.00373(19) -0.2579(2) 1.1030(6)
Zn1A Zn 0.036038(9) -0.261577(8) 1.29359(3)
O1A O 0.26048(6) -0.45865(5) 1.33098(17)
O2A O 0.22326(6) -0.45777(5) 1.13141(17)
O4A O -0.17596(6) -0.45816(6) 1.35343(18)
O6A O 0.23442(6) -0.04144(5) 1.35885(17)
O8A O -0.19310(6) -0.06861(5) 1.16088(17)
O9A O 0.23639(6) -0.06834(5) 1.18803(17)
O10A O -0.18782(6) -0.45887(5) 1.15318(17)
O11A O -0.14907(6) -0.04165(5) 1.32978(18)
N1A N 0.03960(7) -0.20302(6) 1.3284(2)
N2A N 0.10204(7) -0.26166(6) 1.3292(2)
N3A N -0.02178(7) -0.26247(6) 1.3261(2)
N4A N 0.03854(7) -0.32067(6) 1.3089(2)
C1A C 0.22966(8) -0.44588(7) 1.2405(2)
C2A C 0.19998(8) -0.41630(7) 1.2622(2)
C3A C -0.16718(8) -0.44664(7) 1.2614(2)
C4A C 0.22488(8) -0.06885(7) 1.2819(2)
C5A C -0.15939(8) -0.06945(7) 1.2544(3)
C6A C -0.13205(8) -0.41768(7) 1.2777(2)
C7A C 0.19884(9) -0.10183(8) 1.3011(3)
C8A C 0.00441(9) -0.17993(7) 1.3146(3)
C9A C -0.12941(8) -0.10319(8) 1.2757(3)
C10A C 0.11296(8) -0.33127(7) 1.3128(2)
C11A C 0.07222(9) -0.17942(7) 1.3235(3)
C12A C -0.03443(8) -0.33233(8) 1.3151(3)
C13A C 0.12750(8) -0.29313(8) 1.3338(3)
C14A C -0.04495(8) -0.29436(8) 1.3344(3)
C15A C 0.11399(9) -0.19148(8) 1.3339(3)
C16A C -0.06821(8) -0.36239(7) 1.3035(3)
C17A C 0.14389(8) -0.36080(7) 1.2978(3)
C18A C 0.20301(10) -0.40545(9) 1.3793(3)
H1A H 0.22430 -0.41670 1.44880
C19A C 0.07111(8) -0.34376(7) 1.2992(3)
C20A C 0.00436(8) -0.34431(7) 1.3012(2)
C21A C -0.09204(9) -0.10369(8) 1.3768(3)
H2A H -0.08650 -0.08370 1.43630
C22A C -0.03549(8) -0.19263(8) 1.3196(3)
C23A C -0.06937(9) -0.16288(8) 1.3071(3)
C24A C 0.18719(11) -0.13139(9) 1.2156(3)
H3A H 0.19720 -0.13140 1.14750
C25A C 0.12798(9) -0.23004(8) 1.3429(3)
C26A C 0.05667(9) -0.38321(8) 1.2833(3)
H4A H 0.07300 -0.40480 1.27420
C27A C 0.18484(9) -0.10249(8) 1.4024(3)
H5A H 0.19350 -0.08270 1.46290
C28A C 0.17489(10) -0.37791(10) 1.3962(3)
H6A H 0.17720 -0.37070 1.47790
C29A C -0.04590(8) -0.23121(8) 1.3338(3)
C30A C -0.08406(9) -0.28248(9) 1.3567(3)
H7A H -0.10520 -0.29890 1.36960
C31A C 0.14527(9) -0.16125(8) 1.3275(3)
C32A C 0.16082(11) -0.16103(9) 1.2291(3)
H8A H 0.15330 -0.18140 1.17050
C33A C 0.05669(10) -0.14004(8) 1.3036(3)
H9A H 0.07280 -0.11810 1.29660
C34A C 0.01558(9) -0.38366(8) 1.2837(3)
H10A H -0.00250 -0.40560 1.27430
C35A C -0.08445(9) -0.24376(9) 1.3556(3)
H11A H -0.10610 -0.22770 1.36700
C36A C -0.1380(1) -0.13357(9) 1.1923(3)
H12A H -0.16430 -0.13400 1.12390
C37A C 0.01514(9) -0.14062(8) 1.2970(3)
H13A H -0.00370 -0.11910 1.28330
C38A C 0.17187(10) -0.24221(9) 1.3619(3)
H14A H 0.19630 -0.22600 1.37600
C39A C 0.15826(9) -0.13200(8) 1.4151(3)
H15A H 0.14880 -0.13220 1.48440
C40A C -0.06237(9) -0.13327(9) 1.3923(3)
H16A H -0.03670 -0.13320 1.46270
C41A C -0.11113(13) -0.40124(12) 1.3894(3)
H17A H -0.11800 -0.40890 1.45970
C42A C 0.17001(14) -0.39847(14) 1.1633(3)
H18A H 0.16830 -0.40500 1.08170
C43A C -0.10841(10) -0.16328(9) 1.2085(3)
H19A H -0.11480 -0.18410 1.15170
C44A C 0.14222(13) -0.37102(14) 1.1812(3)
H20A H 0.12170 -0.35910 1.11150
C45A C 0.17150(9) -0.28097(9) 1.3556(3)
H21A H 0.19560 -0.29720 1.36390
C46A C -0.07959(10) -0.3733(3) 1.4016(3)
H22A H -0.06580 -0.36160 1.47980
C47A C -0.11984(14) -0.40808(14) 1.1782(3)
H23A H -0.13280 -0.42050 1.10080
C48A C -0.08840(15) -0.38003(15) 1.1918(4)
H24A H -0.08070 -0.37290 1.12230
Gd1A Gd -0.207680(5) 0.00000 1.206844(16)
Gd1B Gd -0.292320(5) -0.50000 0.793156(16)
Gd1C Gd 0.292320(5) -0.50000 1.206844(16)
Gd2A Gd -0.263052(5) 0.00000 0.767561(16)
Gd2B Gd -0.236948(5) -0.50000 1.232439(16)
Gd2C Gd 0.236948(5) -0.50000 0.767561(16)
O1B O 0.23952(6) 0.04135(5) 0.66902(17)
O1G O 0.23952(6) -0.04135(5) 0.66902(17)
O2B O 0.27674(6) 0.04223(5) 0.86859(17)
O2G O 0.27674(6) -0.04223(5) 0.86859(17)
O4C O 0.32404(6) 0.04184(6) 1.35343(18)
O4F O 0.32404(6) -0.04184(6) 1.35343(18)
O6D O 0.23442(6) 0.04144(5) 1.35885(17)
O8E O 0.19310(6) 0.06861(5) 0.83912(17)
O9D O 0.23639(6) 0.06834(5) 1.18803(17)
O10C O 0.31218(6) 0.04113(5) 1.15318(17)
O10F O 0.31218(6) -0.04113(5) 1.15318(17)
O11E O 0.14907(6) 0.04165(5) 0.67022(18)
H25E H -0.32320 0.02130 0.48130
H26E H -0.15360 0.01830 0.58250
#END
