
#######################################################################
#
#                 Cambridge Crystallographic Data Centre
#                                CCDC
#
#######################################################################
#
# If this CIF has been generated from an entry in the Cambridge
# Structural Database, then it will include bibliographic, chemical,
# crystal, experimental, refinement or atomic coordinate data resulting
# from the CCDC's data processing and validation procedures.
#
#######################################################################

data_CSD_CIF_DONKUO
_audit_creation_date 2014-09-24
_audit_creation_method CSD-ConQuest-V1
_database_code_CSD DONKUO
_database_code_depnum_ccdc_archive 'CCDC 1011129'
_chemical_formula_sum 'C53 H84 Mn3 N2 O39'
_chemical_formula_moiety
;
(C51 H60 Mn3 N1 O31 1-)n,8n(H2 O1),n(C2 H8 N1 1+)
;
_journal_coden_Cambridge 1350
_journal_volume 16
_journal_year 2014
_journal_page_first 9939
_journal_name_full 'CrystEngComm '
loop_
_publ_author_name
"Hang Zhang"
"Wei Jiang"
"Jin Yang"
"Ying-Ying Liu"
"Shuyan Song"
"Jian-Fang Ma"
_chemical_name_systematic
;
catena-[dimethylammonium 
(\m-((6,10,12,16,18,22-hexakis(carboxylatomethoxy)-24-(carboxymethoxy)-2,8,14,
20-tetramethylpentacyclo[19.3.1.1^3,7^.1^9,13^.1^15,19^]octacosa-1(25),3(28),4
,6,9(27),10,12,15(26),16,18,21,23-dodecaen-4-yl)oxy)acetate)-hexaaqua-(N,N-dim
ethylformamide)-tri-manganese octahydrate]
;
_chemical_name_common
;
catena-[dimethylammonium 
(mu-2,8,14,20-tetramethyl-4,6,10,12,16,18,22-heptakis(carboxylatomethoxy)-24-(
carboxymethoxy)calix(4)arene)-hexaaqua-(N,N-dimethylformamide)-tri-manganese 
octahydrate]
;
_cell_volume   3267.305
_exptl_crystal_colour 'colorless'
_exptl_crystal_density_diffrn 1.562
_exptl_crystal_description 'block'
_diffrn_ambient_temperature 293
#These two values have been output from a single CSD field.
_refine_ls_R_factor_gt 0.0903
_refine_ls_wR_factor_gt 0.0903
_symmetry_cell_setting triclinic
_symmetry_space_group_name_H-M 'P -1'
_symmetry_Int_Tables_number 2
loop_
_symmetry_equiv_pos_site_id
_symmetry_equiv_pos_as_xyz
1 x,y,z
2 -x,-y,-z
_cell_length_a 12.3029(13)
_cell_length_b 17.4336(19)
_cell_length_c 17.4920(18)
_cell_angle_alpha 67.67(1)
_cell_angle_beta 76.200(9)
_cell_angle_gamma 71.884(9)
_cell_formula_units_Z 2
loop_
_atom_type_symbol
_atom_type_radius_bond
C 0.68
H 0.23
Mn 1.61
N 0.68
O 0.68
loop_
_atom_site_label
_atom_site_type_symbol
_atom_site_fract_x
_atom_site_fract_y
_atom_site_fract_z
Mn1 Mn 0.86946(7) 0.20046(7) -0.35449(5)
Mn2 Mn -0.14298(8) 0.43505(7) 0.47037(6)
Mn3 Mn 0.29049(9) 0.09092(8) 0.56076(7)
C1 C 0.0517(5) 0.5416(4) 0.2652(4)
H1 H 0.02700 0.57320 0.30140
C2 C 0.1634(5) 0.5310(4) 0.2250(4)
C3 C 0.2018(4) 0.4850(4) 0.1708(3)
C4 C 0.1240(4) 0.4500(4) 0.1596(3)
H2 H 0.14900 0.41830 0.12350
C5 C 0.0111(5) 0.4582(4) 0.1978(3)
C6 C -0.0234(5) 0.5050(4) 0.2514(3)
C7 C 0.2049(6) 0.6322(4) 0.2684(4)
H3 H 0.13270 0.66830 0.24830
H4 H 0.26080 0.66680 0.24770
C8 C 0.1861(5) 0.6037(5) 0.3631(4)
C9 C -0.2008(5) 0.5947(5) 0.2878(4)
H5 H -0.27900 0.59890 0.28160
H6 H -0.16990 0.63490 0.23790
C10 C -0.2055(6) 0.6210(5) 0.3616(4)
C11 C 0.3231(5) 0.4760(4) 0.1241(4)
H7 H 0.37240 0.47650 0.16030
C12 C 0.3278(5) 0.5543(4) 0.0454(4)
H8 H 0.29730 0.60540 0.06020
H9 H 0.28270 0.55510 0.00720
H10 H 0.40650 0.55160 0.01950
C13 C 0.3684(4) 0.3916(4) 0.1093(4)
C14 C 0.3855(5) 0.3170(5) 0.1766(4)
C15 C 0.4195(5) 0.2374(4) 0.1672(4)
H11 H 0.42830 0.18810 0.21380
C16 C 0.4406(5) 0.2314(4) 0.0874(4)
C17 C 0.4269(4) 0.3050(4) 0.0176(3)
C18 C 0.3916(4) 0.3826(4) 0.0309(3)
H12 H 0.38270 0.43210 -0.01540
C19 C 0.4426(6) 0.0848(5) 0.1378(4)
H13 H 0.43540 0.04570 0.11320
H14 H 0.36730 0.10490 0.16640
C20 C 0.5255(7) 0.0370(5) 0.2009(4)
C21 C 0.3091(6) 0.2736(5) 0.3201(4)
H15 H 0.25760 0.25740 0.29810
H16 H 0.26190 0.30630 0.35570
C22 C 0.3837(6) 0.1948(5) 0.3714(4)
C23 C 0.4516(5) 0.2944(4) -0.0668(4)
H17 H 0.52740 0.25420 -0.06920
C24 C 0.4609(6) 0.3768(5) -0.1386(4)
H18 H 0.47640 0.36620 -0.19060
H19 H 0.52260 0.39680 -0.13370
H20 H 0.38970 0.41940 -0.13670
C25 C 0.3664(5) 0.2546(4) -0.0793(3)
C26 C 0.2566(4) 0.2576(4) -0.0348(3)
H21 H 0.23490 0.28360 0.00590
C27 C 0.1774(4) 0.2235(4) -0.0480(3)
C28 C 0.2111(5) 0.1866(4) -0.1095(4)
C29 C 0.3216(5) 0.1795(4) -0.1530(4)
H22 H 0.34420 0.15160 -0.19230
C30 C 0.3970(5) 0.2131(4) -0.1382(4)
C31 C 0.5314(5) 0.1975(5) -0.2571(4)
H23 H 0.47970 0.24270 -0.29410
H24 H 0.51950 0.14310 -0.25150
C32 C 0.6534(5) 0.2005(5) -0.2927(4)
C33 C 0.1359(6) 0.1637(5) -0.2085(4)
H25 H 0.19560 0.11740 -0.22200
H26 H 0.15580 0.21700 -0.24390
C34 C 0.0223(6) 0.1634(5) -0.2262(5)
C35 C 0.0554(4) 0.2311(4) -0.0018(3)
H27 H 0.03670 0.17640 0.01100
C36 C -0.0289(5) 0.2989(5) -0.0587(4)
H28 H -0.01830 0.28690 -0.10950
H29 H -0.01540 0.35400 -0.07110
H30 H -0.10650 0.29870 -0.03140
C37 C 0.0427(4) 0.2447(4) 0.0805(3)
C38 C 0.0781(5) 0.1753(4) 0.1510(3)
C39 C 0.0673(5) 0.1862(4) 0.2263(4)
H31 H 0.09290 0.14010 0.27230
C40 C 0.0172(5) 0.2675(4) 0.2329(4)
C41 C -0.0194(4) 0.3381(4) 0.1655(3)
C42 C -0.0042(4) 0.3240(4) 0.0908(3)
H32 H -0.02680 0.37080 0.04440
C43 C -0.0734(4) 0.4239(4) 0.1779(3)
H33 H -0.13280 0.41480 0.22680
C44 C -0.1342(5) 0.4917(4) 0.1055(4)
H34 H -0.18830 0.46980 0.09330
H35 H -0.07810 0.50600 0.05720
H36 H -0.17440 0.54190 0.12040
C45 C 0.0063(6) 0.2169(5) 0.3824(3)
H37 H 0.08620 0.18990 0.39130
H38 H -0.02880 0.17410 0.38260
C46 C -0.0585(5) 0.2546(5) 0.4514(4)
C47 C 0.1485(5) 0.0254(4) 0.2089(4)
H39 H 0.19210 0.03660 0.24130
H40 H 0.19780 -0.02120 0.18980
C48 C 0.0470(6) -0.0032(5) 0.2646(4)
C49 C -0.3839(8) 0.4157(7) 0.4705(6)
H41 H -0.36750 0.36640 0.51610
C50 C -0.5516(9) 0.3714(9) 0.4641(9)
H42 H -0.61130 0.39500 0.42900
H43 H -0.58560 0.36690 0.52060
H44 H -0.51000 0.31570 0.46140
C51 C -0.4982(9) 0.4996(9) 0.3638(7)
H45 H -0.56660 0.50100 0.34560
H46 H -0.43440 0.49680 0.32010
H47 H -0.50980 0.55050 0.37710
N1 N -0.4740(6) 0.4262(6) 0.4361(5)
O1 O 0.4760(4) 0.1556(3) 0.0733(3)
O2 O 0.6228(4) 0.0474(4) 0.1854(3)
O3 O 0.4851(5) -0.0123(4) 0.2667(4)
H48 H 0.53400 -0.03640 0.29850
O4 O 0.3715(4) 0.3265(3) 0.2529(3)
O5 O 0.3283(5) 0.1466(4) 0.4304(3)
O6 O 0.5078(3) 0.2081(3) -0.1785(3)
O7 O 0.6823(4) 0.2091(4) -0.3693(3)
O8 O 0.7247(3) 0.1936(3) -0.2489(3)
O9 O 0.1322(3) 0.1543(3) -0.1244(2)
O10 O 0.0088(4) 0.1956(4) -0.3017(3)
O11 O -0.0459(5) 0.1322(5) -0.1699(3)
O12 O 0.1240(4) 0.0983(3) 0.1389(2)
O13 O 0.0705(4) -0.0653(3) 0.3310(3)
O14 O -0.0520(4) 0.0341(4) 0.2460(4)
O15 O 0.0003(4) 0.2843(3) 0.3060(3)
O16 O -0.0541(4) 0.2031(3) 0.5233(3)
O17 O -0.1121(4) 0.3306(3) 0.4311(3)
O18 O -0.1349(3) 0.5125(3) 0.2931(3)
O19 O -0.1515(4) 0.5676(3) 0.4203(3)
O20 O -0.2645(4) 0.6934(4) 0.3592(3)
O21 O 0.2436(4) 0.5654(3) 0.2345(3)
O22 O 0.1875(5) 0.5304(3) 0.4062(3)
O23 O 0.1688(4) 0.6609(3) 0.3945(3)
O24 O -0.3192(4) 0.4634(4) 0.4493(3)
O25 O 0.4891(4) 0.1802(4) 0.3548(3)
O26 O 0.2479(4) 0.0214(4) 0.6907(3)
O27 O 0.1905(5) 0.2150(4) 0.5728(3)
O28 O 0.1398(4) 0.0615(4) 0.5481(3)
O29 O 0.3926(5) -0.0325(4) 0.5431(4)
O30 O 0.4388(6) 0.1076(6) 0.5912(4)
O31 O 0.0443(4) 0.4048(4) 0.4701(3)
C52 C 0.6477(14) 0.3395(13) 0.1796(13)
H49 H 0.58800 0.38310 0.19640
H50 H 0.62770 0.33220 0.13330
H51 H 0.71940 0.35620 0.16320
C53 C 0.7419(19) 0.1889(19) 0.247(4)
H52 H 0.73500 0.14500 0.30070
H53 H 0.81630 0.20090 0.23600
H54 H 0.73370 0.16980 0.20480
N2 N 0.6593(8) 0.2599(8) 0.2484(6)
O32 O 0.7109(11) 0.2990(15) 0.3563(11)
O33 O 0.0636(18) -0.0359(13) -0.0802(9)
O34 O 0.1472(12) -0.0537(9) 0.4727(7)
O35 O 0.6340(11) 0.1775(8) -0.4916(6)
O36 O 0.2752(7) 0.0441(6) 0.3573(5)
O37 O 0.227(2) -0.0874(16) -0.0061(19)
O38 O 0.2787(13) -0.0434(10) 0.0237(9)
O39 O 0.2491(12) -0.1858(13) 0.0439(19)
Mn1* Mn -0.13054(7) 0.20046(7) -0.35449(5)
Mn1** Mn -0.13054(7) 0.20046(7) 0.64551(5)
Mn1A Mn 0.13054(7) -0.20046(7) 0.35449(5)
Mn1A* Mn 0.13054(7) 0.79954(7) 0.35449(5)
Mn2A Mn 0.14298(8) 0.56495(7) 0.52963(6)
O10* O 1.0088(4) 0.1956(4) -0.3017(3)
O13A O 0.9295(4) 0.0653(3) -0.3310(3)
O16* O 0.9459(4) 0.2031(3) -0.4767(3)
O22A O -0.1875(5) 0.4696(3) 0.5938(3)
O23A O -0.1688(4) 0.3391(3) 0.6055(3)
O23A* O 0.8312(4) 0.3391(3) -0.3945(3)
#END
