
#######################################################################
#
#                 Cambridge Crystallographic Data Centre
#                                CCDC
#
#######################################################################
#
# If this CIF has been generated from an entry in the Cambridge
# Structural Database, then it will include bibliographic, chemical,
# crystal, experimental, refinement or atomic coordinate data resulting
# from the CCDC's data processing and validation procedures.
#
#######################################################################

data_CSD_CIF_DONKEY
_audit_creation_date 2014-09-24
_audit_creation_method CSD-ConQuest-V1
_database_code_CSD DONKEY
_database_code_depnum_ccdc_archive 'CCDC 1011126'
_chemical_formula_sum 'C52 H68 N2 O30 Zn3'
_chemical_formula_moiety
;
(C48 H44 O26 Zn3 2-)n,2n(C2 H8 N1 1+),4n(H2 O1)
;
_journal_coden_Cambridge 1350
_journal_volume 16
_journal_year 2014
_journal_page_first 9939
_journal_name_full 'CrystEngComm '
loop_
_publ_author_name
"Hang Zhang"
"Wei Jiang"
"Jin Yang"
"Ying-Ying Liu"
"Shuyan Song"
"Jian-Fang Ma"
_chemical_name_systematic
;
catena-[bis(dimethylammonium) 
(\m-2,2'-((6,12,16,18,22,24-hexakis(carboxylatomethoxy)-2,8,14,20-tetramethylp
entacyclo[19.3.1.1^3,7^.1^9,13^.1^15,19^]octacosa-1(25),3(28),4,6,9(27),10,12,
15(26),16,18,21,23-dodecaene-4,10-diyl)bis(oxy))diacetate)-diaqua-tri-zinc 
tetrahydrate]
;
_chemical_name_common
;
catena-[bis(dimethylammonium) 
(mu-2,8,14,20-tetramethyl-4,6,10,12,16,18,22,24-octakis(carboxylatomethoxy)cal
ix(4)arene)-diaqua-tri-zinc tetrahydrate]
;
_cell_volume   3126.665
_exptl_crystal_colour 'colorless'
_exptl_crystal_density_diffrn 1.48
_exptl_crystal_description 'block'
_diffrn_ambient_temperature 293
#These two values have been output from a single CSD field.
_refine_ls_R_factor_gt 0.0775
_refine_ls_wR_factor_gt 0.0775
_symmetry_cell_setting triclinic
_symmetry_space_group_name_H-M 'P -1'
_symmetry_Int_Tables_number 2
loop_
_symmetry_equiv_pos_site_id
_symmetry_equiv_pos_as_xyz
1 x,y,z
2 -x,-y,-z
_cell_length_a 12.1230(6)
_cell_length_b 16.8510(8)
_cell_length_c 17.7160(8)
_cell_angle_alpha 106.672(4)
_cell_angle_beta 109.300(4)
_cell_angle_gamma 99.890(4)
_cell_formula_units_Z 2
loop_
_atom_type_symbol
_atom_type_radius_bond
C 0.68
H 0.23
N 0.68
O 0.68
Zn 1.22
loop_
_atom_site_label
_atom_site_type_symbol
_atom_site_fract_x
_atom_site_fract_y
_atom_site_fract_z
Zn1 Zn 0.42577(6) 0.30279(4) 0.20654(5)
Zn2 Zn -0.67189(7) -0.25833(5) -0.05890(5)
Zn3 Zn -0.29059(7) 0.33708(5) 0.36415(5)
C1 C 0.0016(6) -0.0896(4) 0.2178(4)
H1 H 0.07830 -0.08060 0.25940
C2 C -0.0253(6) -0.0191(4) 0.1982(4)
C3 C -0.1388(7) -0.0346(4) 0.1362(4)
C4 C -0.2234(7) -0.1171(4) 0.0956(4)
H2 H -0.30010 -0.12670 0.05370
C5 C -0.1921(6) -0.1833(4) 0.1183(4)
C6 C -0.0787(5) -0.1719(3) 0.1789(4)
C7 C -0.2826(11) 0.0363(8) 0.0888(10)
H3 H -0.31330 0.03020 0.13160
H4 H -0.33470 -0.01010 0.03410
C8 C -0.2815(16) 0.1268(10) 0.0808(9)
C9 C -0.3946(6) -0.2770(5) 0.0391(4)
H5 H -0.41530 -0.22830 0.07010
H6 H -0.44170 -0.32910 0.04020
C10 C -0.4321(7) -0.2838(4) -0.0527(4)
C11 C -0.0476(5) -0.2491(4) 0.1989(4)
H7 H -0.06820 -0.29510 0.14360
C12 C 0.0871(6) -0.2313(5) 0.2514(5)
H8 H 0.10120 -0.28240 0.26140
H9 H 0.11210 -0.18470 0.30550
H10 H 0.13350 -0.21540 0.22060
C13 C -0.1810(5) -0.2367(3) 0.2842(4)
H11 H -0.17210 -0.17980 0.28690
C14 C -0.1248(5) -0.2851(3) 0.2415(4)
C15 C -0.1409(5) -0.3694(4) 0.2365(4)
C16 C -0.2100(6) -0.4045(4) 0.2739(4)
H12 H -0.22120 -0.46210 0.26910
C17 C -0.2618(5) -0.3531(3) 0.3181(4)
C18 C -0.2501(5) -0.2682(3) 0.3232(4)
C19 C -0.0795(7) -0.4973(4) 0.1954(5)
H13 H -0.06430 -0.49350 0.25380
H14 H -0.01020 -0.50950 0.18370
C20 C -0.1929(6) -0.5721(4) 0.1342(4)
C21 C -0.3285(6) -0.4617(4) 0.3701(4)
H15 H -0.34140 -0.45830 0.42200
H16 H -0.24840 -0.46940 0.37880
C22 C -0.4229(6) -0.5391(4) 0.2969(4)
C23 C -0.3116(6) -0.2135(4) 0.3706(4)
H17 H -0.39370 -0.25120 0.35370
C24 C -0.2457(7) -0.1887(4) 0.4684(4)
H18 H -0.28590 -0.15480 0.49740
H19 H -0.16220 -0.15550 0.48750
H20 H -0.24780 -0.24040 0.48130
C25 C -0.2498(5) -0.0534(3) 0.3935(4)
H21 H -0.18300 -0.04530 0.44290
C26 C -0.3296(5) -0.1370(3) 0.3452(4)
C27 C -0.4274(5) -0.1465(3) 0.2728(4)
C28 C -0.4426(5) -0.0781(4) 0.2472(4)
H22 H -0.50730 -0.08670 0.19640
C29 C -0.3615(6) 0.0030(4) 0.2970(4)
C30 C -0.2643(5) 0.0174(3) 0.3725(4)
C31 C -0.6341(6) -0.2338(5) 0.1923(5)
H23 H -0.64550 -0.18080 0.22420
H24 H -0.67970 -0.28120 0.20080
C32 C -0.6869(7) -0.2478(5) 0.0977(5)
C33 C -0.4787(6) 0.0766(4) 0.2194(5)
H25 H -0.54580 0.05280 0.23230
H26 H -0.49440 0.04330 0.16030
C34 C -0.4652(6) 0.1713(4) 0.2324(4)
C35 C -0.1837(6) 0.1090(4) 0.4275(4)
H27 H -0.23870 0.14420 0.43470
C36 C -0.1015(8) 0.1186(4) 0.5173(4)
H28 H -0.14970 0.09360 0.54280
H29 H -0.06170 0.17890 0.55190
H30 H -0.04090 0.08930 0.51400
C37 C -0.0622(5) 0.0971(4) 0.3367(4)
H31 H -0.08010 0.03830 0.32750
C38 C -0.1096(5) 0.1479(3) 0.3865(4)
C39 C -0.0831(5) 0.2342(4) 0.3975(4)
C40 C -0.0086(6) 0.2696(4) 0.3645(5)
H32 H 0.01050 0.32870 0.37510
C41 C 0.0379(6) 0.2176(4) 0.3158(5)
C42 C 0.0106(6) 0.1290(4) 0.2997(4)
C43 C -0.0517(7) 0.3591(4) 0.5181(5)
H33 H 0.02670 0.37410 0.51430
H34 H -0.03970 0.34170 0.56720
C44 C -0.0982(6) 0.4371(4) 0.5311(4)
C45 C 0.1728(14) 0.3355(6) 0.3174(12)
H35 H 0.20640 0.35490 0.37970
H36 H 0.11780 0.36850 0.29970
C46 C 0.2703(17) 0.3481(9) 0.2879(15)
C47 C 0.0585(6) 0.0711(4) 0.2439(5)
H37 H 0.06150 0.09450 0.19970
C48 C 0.1908(7) 0.0777(4) 0.2982(6)
H38 H 0.23930 0.13740 0.32510
H39 H 0.22410 0.04560 0.26160
H40 H 0.19150 0.05410 0.34160
O1 O -0.1643(5) 0.0332(3) 0.1130(3)
O2 O -0.2078(11) 0.1712(5) 0.0805(6)
O3 O -0.3859(12) 0.1345(8) 0.0619(10)
O4 O -0.2708(4) -0.2664(3) 0.0824(3)
O5 O -0.5379(5) -0.2858(3) -0.0939(3)
O6 O -0.3557(4) -0.2908(3) -0.0856(3)
O7 O -0.0863(5) -0.4166(3) 0.1902(3)
O8 O -0.2746(6) -0.5630(3) 0.0786(4)
O9 O -0.1912(4) -0.6419(3) 0.1459(3)
O10 O -0.3299(4) -0.3829(3) 0.3578(3)
O11 O -0.4951(5) -0.5319(3) 0.2349(4)
O12 O -0.4252(4) -0.6111(3) 0.3034(3)
O13 O -0.5090(4) -0.2280(2) 0.2266(3)
O14 O -0.7966(7) -0.2766(10) 0.0608(6)
O15 O -0.6184(5) -0.2371(3) 0.0625(3)
O16 O -0.3689(4) 0.0743(3) 0.2754(4)
O17 O -0.5630(4) 0.1865(3) 0.1999(3)
O18 O -0.3618(4) 0.2238(3) 0.2691(3)
O19 O -0.1364(4) 0.2879(2) 0.4410(3)
O20 O -0.0367(5) 0.4995(3) 0.5982(3)
O21 O -0.1926(5) 0.4356(3) 0.4745(3)
O22 O 0.1114(5) 0.2489(3) 0.2815(4)
O23 O 0.368(2) 0.4055(19) 0.3483(17)
O24 O 0.2856(5) 0.3022(3) 0.2363(4)
O25 O -0.1836(5) 0.3888(3) 0.3104(3)
O26 O -0.4010(7) 0.2912(5) 0.4210(5)
C49 C 0.006(4) 0.1399(18) 0.0337(19)
H41 H 0.00170 0.09250 0.05350
H42 H 0.06710 0.14230 0.01030
H43 H -0.07180 0.13170 -0.00990
C50 C 0.0489(15) 0.2768(19) 0.0698(17)
H44 H 0.07260 0.32890 0.11900
H45 H -0.02650 0.27280 0.02610
H46 H 0.11150 0.27790 0.04790
N1 N 0.0333(18) 0.2070(15) 0.0933(12)
C51 C -0.5401(14) -0.4185(9) 0.1374(13)
H47 H -0.45670 -0.38880 0.15150
H48 H -0.54310 -0.44290 0.17970
H49 H -0.58730 -0.37820 0.13680
C52 C -0.7037(18) -0.5391(8) 0.0548(12)
H50 H -0.74510 -0.59100 0.00420
H51 H -0.75760 -0.50380 0.05810
H52 H -0.67990 -0.55420 0.10500
N2 N -0.592(3) -0.489(2) 0.0504(15)
O27 O -0.819(5) 0.070(3) 0.082(4)
O28 O -0.927(2) -0.4269(14) 0.0686(17)
O29 O -0.526(3) -0.108(5) 0.542(3)
O30 O -0.473(4) -0.002(4) 0.538(3)
Zn1* Zn -0.57423(6) -0.69721(4) 0.20654(5)
Zn1** Zn -0.57423(6) 0.30279(4) 0.20654(5)
Zn1A Zn -0.42577(6) -0.30279(4) -0.20654(5)
Zn2A Zn -0.32811(7) -0.74167(5) 0.05890(5)
Zn2A* Zn -0.32811(7) 0.25833(5) 0.05890(5)
Zn3* Zn -0.29059(7) -0.66292(5) 0.36415(5)
O2A O -0.7922(11) -0.1712(5) -0.0805(6)
O3A O -0.6141(12) -0.1345(8) -0.0619(10)
O6A O 0.3557(4) 0.2908(3) 0.0856(3)
O9A O -0.8088(4) -0.3581(3) -0.1459(3)
O12* O -0.4252(4) 0.3889(3) 0.3034(3)
O12** O 0.5748(4) 0.3889(3) 0.3034(3)
O17* O 0.4370(4) 0.1865(3) 0.1999(3)
O30A O -0.527(4) 0.002(4) 0.462(3)
#END
