
#######################################################################
#
#                 Cambridge Crystallographic Data Centre
#                                CCDC
#
#######################################################################
#
# If this CIF has been generated from an entry in the Cambridge
# Structural Database, then it will include bibliographic, chemical,
# crystal, experimental, refinement or atomic coordinate data resulting
# from the CCDC's data processing and validation procedures.
#
#######################################################################

data_CSD_CIF_DONXOW
_audit_creation_date 2019-08-12
_audit_creation_method CSD-ConQuest-V1
_database_code_CSD DONXOW
_database_code_depnum_ccdc_archive 'CCDC 1936742'
_chemical_formula_sum 'C12 H12 Mn2 N2 O13 S2'
_chemical_formula_moiety
;
(C2 H2 Mn2 O13 S2 2-)n,C10 H10 N2 2+
;
_journal_coden_Cambridge 222
_journal_volume 48
_journal_year 2019
_journal_page_first 13130
_journal_name_full 'Dalton Trans. '
loop_
_publ_author_name
"Lindong Luan"
"Ying Zhang"
"Hongmei Zeng"
"Guohong Zou"
"Yong Dai"
"Xiaoying Zhou"
"Zhien Lin"
_chemical_name_systematic
;
catena-[4,4'-bipyridin-1-ium (\m-oxalato)-bis(\m-sulfato)-aqua-di-manganese]
;
_cell_volume   7039.006
_exptl_crystal_colour 'yellow'
_exptl_crystal_density_diffrn 2.137
_exptl_crystal_description 'block'
_diffrn_ambient_temperature 292.1
#These two values have been output from a single CSD field.
_refine_ls_R_factor_gt 0.0401
_refine_ls_wR_factor_gt 0.0401
_symmetry_cell_setting tetragonal
_symmetry_space_group_name_H-M 'I 41 c d'
_symmetry_Int_Tables_number 110
loop_
_symmetry_equiv_pos_site_id
_symmetry_equiv_pos_as_xyz
1 x,y,z
2 1/2-x,1/2-y,1/2+z
3 -y,1/2+x,1/4+z
4 1/2+y,-x,3/4+z
5 x,-y,1/2+z
6 1/2-x,1/2+y,z
7 -y,1/2-x,3/4+z
8 1/2+y,x,1/4+z
9 1/2+x,1/2+y,1/2+z
10 -x,-y,z
11 1/2-y,x,3/4+z
12 y,1/2-x,1/4+z
13 1/2+x,1/2-y,z
14 -x,y,1/2+z
15 1/2-y,-x,1/4+z
16 y,1/2+x,3/4+z
_cell_length_a 23.10844(15)
_cell_length_b 23.10844(15)
_cell_length_c 13.18166(15)
_cell_angle_alpha 90
_cell_angle_beta 90
_cell_angle_gamma 90
_cell_formula_units_Z 16
loop_
_atom_type_symbol
_atom_type_radius_bond
C 0.68
H 0.23
Mn 1.61
N 0.68
O 0.68
S 1.02
loop_
_atom_site_label
_atom_site_type_symbol
_atom_site_fract_x
_atom_site_fract_y
_atom_site_fract_z
Mn1 Mn 0.64971(3) 0.52822(3) 0.73065(8)
Mn2 Mn 0.49323(3) 0.60340(3) 0.47539(7)
S1 S 0.60800(4) 0.49364(5) 0.97642(13)
S2 S 0.54294(5) 0.62273(5) 0.72583(12)
O1 O 0.64256(19) 0.5167(2) 0.8937(3)
O2 O 0.64817(17) 0.47547(17) 1.0583(3)
O3 O 0.57376(18) 0.44416(18) 0.9411(3)
O4 O 0.5692(2) 0.53834(19) 1.0162(4)
O5 O 0.60503(15) 0.60966(15) 0.7213(4)
O6 O 0.5134(2) 0.6004(2) 0.6361(3)
O7 O 0.51737(19) 0.5938(2) 0.8145(4)
O8 O 0.53596(15) 0.68570(16) 0.7329(4)
O9 O 0.42758(16) 0.67406(16) 0.4933(4)
O10 O 0.41949(15) 0.77028(15) 0.4897(4)
O11 O 0.54187(16) 0.68351(15) 0.4603(4)
O12 O 0.53497(16) 0.77951(16) 0.4702(4)
O13 O 0.5793(2) 0.4695(2) 0.7246(5)
H1 H 0.56990 0.46400 0.66300
H2 H 0.55080 0.48390 0.75650
C1 C 0.4472(2) 0.7238(2) 0.4861(5)
C2 C 0.5146(2) 0.7292(2) 0.4711(5)
C3 C 0.6014(3) 0.2288(4) 0.7460(6)
H3 H 0.58020 0.19450 0.74610
C4 C 0.6609(3) 0.2267(3) 0.7531(6)
H4 H 0.67990 0.19130 0.75830
C5 C 0.6919(2) 0.2778(3) 0.7525(4)
C6 C 0.6612(3) 0.3292(3) 0.7432(7)
H5 H 0.68100 0.36420 0.74140
C7 C 0.6026(3) 0.3289(3) 0.7367(8)
H6 H 0.58240 0.36350 0.73070
C8 C 0.8445(3) 0.3325(3) 0.7677(6)
H7 H 0.86410 0.36770 0.76700
C9 C 0.7856(3) 0.3307(3) 0.7594(5)
H8 H 0.76520 0.36520 0.75260
C10 C 0.7556(2) 0.2789(2) 0.7609(5)
C11 C 0.7887(3) 0.2285(3) 0.7710(6)
H9 H 0.77040 0.19260 0.77150
C12 C 0.8465(3) 0.2313(4) 0.7800(6)
H10 H 0.86810 0.19770 0.78840
N1 N 0.5741(2) 0.2790(3) 0.7390(5)
H11 H 0.53690 0.27930 0.73580
N2 N 0.8731(2) 0.2829(3) 0.7768(5)
H12 H 0.91020 0.28400 0.78080
Mn1D Mn 0.64971(3) 0.47178(3) 1.23065(8)
Mn1F Mn 0.47178(3) 0.85029(3) 0.48065(8)
Mn2D Mn 0.49323(3) 0.39660(3) 0.97539(7)
Mn2M Mn 0.50677(3) 0.60340(3) 0.97539(7)
O2D O 0.64817(17) 0.52453(17) 0.5583(3)
O3D O 0.57376(18) 0.55584(18) 0.4411(3)
O4M O 0.4308(2) 0.53834(19) 0.5162(4)
O7M O 0.48263(19) 0.5938(2) 0.3145(4)
O10N O 0.72972(15) 0.58051(15) 0.7397(4)
O12N O 0.72049(16) 0.46503(16) 0.7202(4)
#END
