
#######################################################################
#
#                 Cambridge Crystallographic Data Centre
#                                CCDC
#
#######################################################################
#
# If this CIF has been generated from an entry in the Cambridge
# Structural Database, then it will include bibliographic, chemical,
# crystal, experimental, refinement or atomic coordinate data resulting
# from the CCDC's data processing and validation procedures.
#
#######################################################################

data_CSD_CIF_DONXUC
_audit_creation_date 2019-08-12
_audit_creation_method CSD-ConQuest-V1
_database_code_CSD DONXUC
_database_code_depnum_ccdc_archive 'CCDC 1936743'
_chemical_formula_sum 'C14 H48 In6 N4 O56 P10'
_chemical_formula_moiety
;
(C6 H12 In6 O52 P10 4-)n,2(C4 H14 N2 2+),4(H2 O1)
;
_journal_coden_Cambridge 222
_journal_volume 48
_journal_year 2019
_journal_page_first 13130
_journal_name_full 'Dalton Trans. '
loop_
_publ_author_name
"Lindong Luan"
"Ying Zhang"
"Hongmei Zeng"
"Guohong Zou"
"Yong Dai"
"Xiaoying Zhou"
"Zhien Lin"
_chemical_name_systematic
;

;
_cell_volume   1586.123
_exptl_crystal_colour 'colorless'
_exptl_crystal_density_diffrn 2.309
_exptl_special_details
;
There appear to be some issues with the structure. Full curation of this 
structure is expected in future data updates
;
_exptl_crystal_description 'block'
_diffrn_ambient_temperature 293
_refine_special_details
;
The SQUEEZE/PLATON program has been used to model some disorder; The 
MASK/OLEX2 program has been used to model some disorder.
;
#These two values have been output from a single CSD field.
_refine_ls_R_factor_gt 0.0245
_refine_ls_wR_factor_gt 0.0245
_symmetry_cell_setting triclinic
_symmetry_space_group_name_H-M 'P -1'
_symmetry_Int_Tables_number 2
loop_
_symmetry_equiv_pos_site_id
_symmetry_equiv_pos_as_xyz
1 x,y,z
2 -x,-y,-z
_cell_length_a 10.7933(3)
_cell_length_b 11.9038(3)
_cell_length_c 13.2892(3)
_cell_angle_alpha 107.688(2)
_cell_angle_beta 95.217(2)
_cell_angle_gamma 99.513(2)
_cell_formula_units_Z 1
loop_
_atom_type_symbol
_atom_type_radius_bond
C 0.68
H 0.23
In 1.42
N 0.68
O 0.68
P 1.05
loop_
_atom_site_label
_atom_site_type_symbol
_atom_site_fract_x
_atom_site_fract_y
_atom_site_fract_z
In1 In 0.76236(2) 0.48672(2) 0.48538(2)
In2 In 0.92770(2) 0.78591(2) 0.82084(2)
In3 In 0.76283(2) 0.49611(2) 0.98530(2)
P1 P 0.72043(7) 0.53512(7) 0.73902(6)
P2 P 0.70277(7) 0.43016(7) 0.21170(6)
P3 P 0.95833(7) 0.29905(7) 0.41046(6)
P4 P 0.96435(7) 0.30147(7) 0.97891(6)
P5 P 0.76818(9) 0.94138(8) 0.68750(7)
O1 O 0.7883(2) 0.4859(2) 0.64405(16)
O2 O 0.7591(2) 0.4789(2) 0.82282(16)
O3 O 0.7504(2) 0.67217(19) 0.78268(17)
O4 O 0.57558(19) 0.4918(2) 0.69817(17)
H1 H 0.53620 0.53130 0.74090
O5 O 0.7502(2) 0.4973(2) 0.32889(16)
O6 O 0.7738(2) 0.5046(2) 0.15052(16)
O7 O 0.5614(2) 0.4053(2) 0.18057(17)
O8 O 0.7379(2) 0.3018(2) 0.1793(2)
H2 H 0.81450 0.30890 0.19610
O9 O 0.8330(2) 0.32718(19) 0.44281(16)
O10 O 1.0705(2) 0.3819(2) 0.49050(17)
O11 O 0.9684(2) 0.29694(19) 0.29671(16)
O12 O 0.9523(2) 0.16736(19) 0.41608(18)
H3 H 1.00540 0.13690 0.38280
O13 O 0.8512(2) 0.3495(2) 0.94777(17)
O14 O 0.9846(2) 0.31385(19) 1.09641(16)
O15 O 1.0848(2) 0.3577(2) 0.94531(18)
O16 O 0.9386(2) 0.16401(19) 0.91287(17)
H4 H 0.87020 0.14520 0.87360
O17 O 0.8750(2) 0.8851(2) 0.71787(17)
O18 O 0.7479(2) 1.0503(2) 0.7705(2)
O19 O 0.6402(3) 0.8493(2) 0.6572(3)
H5 H 0.65260 0.78160 0.62840
O20 O 0.8036(3) 0.9686(3) 0.5840(2)
H6 H 0.75030 1.00100 0.56260
O21 O 0.56852(19) 0.37476(19) 0.45228(16)
O22 O 0.36762(18) 0.38250(18) 0.47327(16)
O23 O 0.8536(2) 0.89855(19) 0.95562(16)
O24 O 0.9130(2) 1.05976(18) 1.10143(16)
O25 O 0.5714(2) 0.37849(19) 0.94412(17)
O26 O 0.37039(19) 0.37965(19) 0.96944(17)
C1 C 0.4829(3) 0.4306(3) 0.4788(2)
C2 C 0.9336(3) 0.9882(3) 1.0167(2)
C3 C 0.4829(3) 0.4305(3) 0.9754(2)
C4 C 1.1040(4) 0.2203(3) 0.6460(3)
H7 H 1.13600 0.27110 0.60540
H8 H 1.08520 0.13770 0.59850
C5 C 0.9827(3) 0.2528(3) 0.6808(3)
H9 H 0.91420 0.21530 0.62130
H10 H 0.96310 0.22050 0.73770
C6 C 1.1835(4) 0.1342(4) 0.7814(3)
H11 H 1.09870 0.12530 0.79860
H12 H 1.24330 0.15320 0.84520
H13 H 1.19330 0.06040 0.73070
C7 C 1.3334(4) 0.2396(4) 0.6971(3)
H14 H 1.33260 0.16750 0.63930
H15 H 1.39820 0.24770 0.75480
H16 H 1.35070 0.30800 0.67290
N1 N 1.2068(3) 0.2325(3) 0.7349(2)
H17 H 1.20920 0.30840 0.79160
N2 N 0.9886(3) 0.3850(3) 0.7192(3)
H18 H 1.00360 0.41470 0.66660
H19 H 1.05070 0.41990 0.77430
H20 H 0.91480 0.39930 0.73970
O27 O 0.6345(5) 0.2173(4) 0.7048(4)
H21 H 0.67830 0.18720 0.74230
H22 H 0.64440 0.29270 0.73620
O28 O 0.6506(8) 0.0787(6) 0.5054(5)
H23 H 0.61250 0.13650 0.52790
H24 H 0.66420 0.07930 0.44350
O21A O 0.43148(19) 0.62524(19) 0.54772(16)
O22A O 0.63238(18) 0.61750(18) 0.52673(16)
C1A C 0.5171(3) 0.5694(3) 0.5212(2)
O23A O 1.1464(2) 1.10145(19) 1.04438(16)
O24A O 1.0870(2) 0.94024(18) 0.89857(16)
C2A C 1.0664(3) 1.0118(3) 0.9833(2)
O25A O 0.4286(2) 0.62151(19) 1.05588(17)
O26A O 0.62961(19) 0.62035(19) 1.03056(17)
C3A C 0.5171(3) 0.5695(3) 1.0246(2)
In1A In 0.23764(2) 0.51328(2) 0.51462(2)
In2A In 0.07230(2) 0.21409(2) 0.17916(2)
In3A In 0.23717(2) 0.50389(2) 0.01470(2)
P1A P 0.27957(7) 0.46488(7) 0.26098(6)
P2A P 0.29723(7) 0.56984(7) 0.78830(6)
P3A P 0.04167(7) 0.70095(7) 0.58954(6)
P4A P 0.03565(7) 0.69853(7) 0.02109(6)
P5A P 0.23182(9) 0.05862(8) 0.31250(7)
O1A O 0.2117(2) 0.5141(2) 0.35595(16)
O2A O 0.2409(2) 0.5211(2) 0.17718(16)
O3A O 0.2496(2) 0.32783(19) 0.21732(17)
O4A O 0.42442(19) 0.5082(2) 0.30183(17)
H1A H 0.46380 0.46870 0.25910
O5A O 0.2498(2) 0.5027(2) 0.67111(16)
O6A O 0.2262(2) 0.4954(2) 0.84948(16)
O7A O 0.4386(2) 0.5947(2) 0.81943(17)
O8A O 0.2621(2) 0.6982(2) 0.8207(2)
H2A H 0.18550 0.69110 0.80390
O9A O 0.1670(2) 0.67282(19) 0.55719(16)
O10A O -0.0705(2) 0.6181(2) 0.50950(17)
O11A O 0.0316(2) 0.70306(19) 0.70329(16)
O12A O 0.0477(2) 0.83264(19) 0.58392(18)
H3A H -0.00540 0.86310 0.61720
O13A O 0.1488(2) 0.6505(2) 0.05223(17)
O14A O 0.0154(2) 0.68615(19) -0.09641(16)
O15A O -0.0848(2) 0.6423(2) 0.05469(18)
O16A O 0.0614(2) 0.83599(19) 0.08713(17)
H4A H 0.12980 0.85480 0.12640
O17A O 0.1250(2) 0.1149(2) 0.28213(17)
O18A O 0.2521(2) -0.0503(2) 0.2295(2)
O19A O 0.3598(3) 0.1507(2) 0.3428(3)
H5A H 0.34740 0.21840 0.37160
O20A O 0.1964(3) 0.0314(3) 0.4160(2)
H6A H 0.24970 -0.00100 0.43740
In1* In -0.23764(2) 0.48672(2) 0.48538(2)
In1A* In 1.23764(2) 0.51328(2) 0.51462(2)
In2* In -0.07230(2) 0.78591(2) -0.17916(2)
In2** In -0.07230(2) 0.78591(2) 0.82084(2)
In2A* In 1.07230(2) 0.21409(2) 0.17916(2)
In2A** In 1.07230(2) 0.21409(2) 1.17916(2)
In2A*** In 1.07230(2) 1.21409(2) 1.17916(2)
In3* In -0.23717(2) 0.49611(2) -0.01470(2)
In3** In 0.76283(2) 0.49611(2) -0.01470(2)
In3A* In 0.23717(2) 0.50389(2) 1.01470(2)
In3A** In 1.23717(2) 0.50389(2) 1.01470(2)
O6* O 0.7738(2) 0.5046(2) 1.15052(16)
O6A* O 0.2262(2) 0.4954(2) -0.15052(16)
O10* O 0.0705(2) 0.3819(2) 0.49050(17)
O10A* O 0.9295(2) 0.6181(2) 0.50950(17)
O11* O -0.0316(2) 0.29694(19) 0.29671(16)
O11A* O 1.0316(2) 0.70306(19) 0.70329(16)
O14* O -0.0154(2) 0.31385(19) 0.09641(16)
O14A* O 1.0154(2) 0.68615(19) 0.90359(16)
O15* O 0.0848(2) 0.3577(2) -0.05469(18)
O15A* O 0.9152(2) 0.6423(2) 1.05469(18)
O23A* O 0.1464(2) 0.10145(19) 0.04438(16)
O24* O -0.0870(2) 0.05976(18) 0.10143(16)
O25A* O 0.4286(2) 0.62151(19) 0.05588(17)
O26* O 0.37039(19) 0.37965(19) -0.03056(17)
#END
