
#######################################################################
#
#                 Cambridge Crystallographic Data Centre
#                                CCDC
#
#######################################################################
#
# If this CIF has been generated from an entry in the Cambridge
# Structural Database, then it will include bibliographic, chemical,
# crystal, experimental, refinement or atomic coordinate data resulting
# from the CCDC's data processing and validation procedures.
#
#######################################################################

data_CSD_CIF_DOQKAW
_audit_creation_date 2009-07-13
_audit_creation_method CSD-ConQuest-V1
_database_code_CSD DOQKAW
_database_code_depnum_ccdc_archive 'CCDC 700746'
_chemical_formula_sum 'C52 H44 Cd5 N14 O16'
_chemical_formula_moiety
;
(C48 H28 Cd5 N12 O16 2-)n,2n(C2 H8 N1 1+)
;
_journal_coden_Cambridge 182
_journal_year 2009
_journal_page_first 410
_journal_name_full 'Chem.Commun. '
loop_
_publ_author_name
"Xin-Long Wang"
"Chao Qin"
"Ya-Qian Lan"
"Kui-Zhan Shao"
"Zhong-Min Su"
"En-Bo Wang"
_chemical_name_systematic
;
catena-[bis(Dimethylammonium) 
bis(\m~4~-benzene-1,4-dicarboxylato)-bis(\m~3~-benzene-1,4-dicarboxylato)-bis(
\m~3~-benzotriazolato)-bis(\m~2~-1,2,4-triazolato)-penta-cadmium(ii) unknown 
solvate]
;
_cell_volume   6531.549
_exptl_crystal_colour 'colorless'
_exptl_crystal_density_diffrn 1.712
_exptl_crystal_description 'block'
_diffrn_ambient_temperature 298
_refine_special_details
;
A cation is disordered over two sites with occupancies 0.750:0.250. 
Disordered solvent was removed using SQUEEZE/PLATON.
;
#These two values have been output from a single CSD field.
_refine_ls_R_factor_gt 0.0456
_refine_ls_wR_factor_gt 0.0456
_symmetry_cell_setting monoclinic
_symmetry_space_group_name_H-M 'C 2/c'
_symmetry_Int_Tables_number 15
loop_
_symmetry_equiv_pos_site_id
_symmetry_equiv_pos_as_xyz
1 x,y,z
2 -x,y,1/2-z
3 1/2+x,1/2+y,z
4 1/2-x,1/2+y,1/2-z
5 -x,-y,-z
6 x,-y,-1/2+z
7 -1/2-x,-1/2-y,-z
8 -1/2+x,-1/2-y,-1/2+z
_cell_length_a 18.349(5)
_cell_length_b 20.616(5)
_cell_length_c 17.669(5)
_cell_angle_alpha 90
_cell_angle_beta 102.256(5)
_cell_angle_gamma 90
_cell_formula_units_Z 4
loop_
_atom_type_symbol
_atom_type_radius_bond
C 0.68
H 0.23
Cd 1.59
N 0.68
O 0.70
loop_
_atom_site_label
_atom_site_type_symbol
_atom_site_fract_x
_atom_site_fract_y
_atom_site_fract_z
Cd1 Cd 0.00000 -0.45711(3) 0.25000
Cd2 Cd 0.18511(2) -0.41007(2) 0.20087(3)
Cd3 Cd 0.25277(3) -0.51869(2) 0.07250(3)
C1 C -0.0939(4) -0.1739(3) 0.1162(4)
C2 C -0.1136(4) -0.2375(3) 0.1215(4)
H1 H -0.16360 -0.24910 0.11290
C3 C -0.0587(4) -0.2844(3) 0.1397(4)
H2 H -0.07210 -0.32780 0.14080
C4 C 0.0163(4) -0.2672(3) 0.1563(4)
C5 C 0.0358(4) -0.2031(3) 0.1533(4)
H3 H 0.08570 -0.19100 0.16600
C6 C -0.0192(4) -0.1561(3) 0.1314(4)
H4 H -0.00590 -0.11300 0.12690
C7 C -0.1521(4) -0.1217(4) 0.0973(4)
C8 C 0.0745(4) -0.3187(3) 0.1792(4)
C9 C 0.4610(3) -0.3767(3) 0.2440(5)
H5 H 0.43530 -0.33760 0.24120
C10 C 0.4223(3) -0.4346(3) 0.2362(4)
C11 C 0.4613(3) -0.4918(3) 0.2422(4)
H6 H 0.43560 -0.53100 0.23580
C12 C 0.3382(4) -0.4331(4) 0.2220(4)
C13 C 0.2505(4) -0.3149(3) 0.0219(3)
C14 C 0.1900(4) -0.2761(3) 0.0235(4)
H7 H 0.14870 -0.29350 0.03890
C15 C 0.3104(4) -0.2882(3) -0.0026(4)
H8 H 0.35150 -0.31390 -0.00500
C16 C 0.2498(4) -0.3855(3) 0.0440(4)
C17 C 0.2252(4) -0.4383(3) 0.3896(4)
H9 H 0.27530 -0.42810 0.39460
C18 C 0.1242(4) -0.4676(3) 0.4146(4)
H10 H 0.08850 -0.48260 0.44070
C19 C 0.0423(4) -0.5850(3) 0.1431(4)
C20 C 0.0987(4) -0.5987(3) 0.1030(4)
C21 C 0.0986(5) -0.6557(4) 0.0613(4)
H11 H 0.13520 -0.66440 0.03350
C22 C 0.0423(6) -0.6986(4) 0.0630(5)
H12 H 0.04080 -0.73730 0.03560
C23 C -0.0130(5) -0.6863(4) 0.1042(5)
H13 H -0.04930 -0.71770 0.10420
C24 C -0.0164(4) -0.6296(4) 0.1451(4)
H14 H -0.05400 -0.62120 0.17180
N1 N 0.1088(3) -0.4524(2) 0.3410(3)
N2 N 0.1756(3) -0.4334(2) 0.3240(3)
N3 N 0.1960(3) -0.4597(3) 0.4489(3)
N4 N 0.0570(3) -0.5271(2) 0.1772(3)
N5 N 0.1212(3) -0.5060(2) 0.1586(3)
N6 N 0.1465(3) -0.5474(2) 0.1142(3)
O1 O 0.1358(3) -0.0694(2) 0.4292(3)
O2 O 0.2144(3) -0.1326(2) 0.3886(3)
O3 O 0.1421(3) -0.3017(2) 0.1920(3)
O4 O 0.0542(2) -0.3764(2) 0.1830(2)
O5 O 0.3018(2) -0.4848(2) 0.2032(2)
O6 O 0.3071(2) -0.3798(2) 0.2327(3)
O7 O 0.3024(3) -0.4211(2) 0.0344(3)
O8 O 0.1961(3) -0.40687(19) 0.0712(2)
N7 N 0.7431(8) -0.6953(7) 0.2474(8)
H15 H 0.74300 -0.69290 0.29820
H16 H 0.70720 -0.72350 0.22560
C25 C 0.7262(10) -0.6326(8) 0.2129(10)
H17 H 0.67870 -0.61830 0.22120
H18 H 0.72460 -0.63520 0.15840
H19 H 0.76410 -0.60230 0.23630
C26 C 0.8109(8) -0.7183(8) 0.2385(10)
H20 H 0.81980 -0.76020 0.26240
H21 H 0.84950 -0.68890 0.26260
H22 H 0.81100 -0.72190 0.18440
C27? C 0.663(2) -0.584(2) 0.180(3)
C28? C 0.800(2) -0.632(2) 0.193(3)
H23? H 0.65500 -0.53880 0.18970
H24? H 0.63610 -0.61020 0.20900
H25? H 0.64560 -0.59230 0.12540
H26? H 0.84350 -0.60470 0.20890
H27? H 0.79590 -0.64450 0.14030
H28? H 0.80520 -0.66950 0.22560
H29? H 0.74030 -0.60370 0.25160
H30? H 0.75520 -0.55710 0.19790
N8? N 0.737(2) -0.5975(18) 0.201(3)
Cd2A Cd -0.18511(2) -0.41007(2) 0.29913(3)
Cd2A* Cd 0.81489(2) -0.41007(2) 0.29913(3)
Cd2F Cd 0.31489(2) -0.08993(2) -0.20087(3)
Cd3E Cd 0.25277(3) -0.48131(2) 0.57250(3)
Cd3D Cd -0.25277(3) -0.48131(2) -0.07250(3)
Cd3A Cd -0.25277(3) -0.51869(2) 0.42750(3)
Cd3A* Cd 0.74723(3) -0.51869(2) 0.42750(3)
Cd3C Cd 0.24723(3) -0.01869(2) 0.42750(3)
Cd3B Cd -0.24723(3) -0.01869(2) 0.07250(3)
Cd3F Cd 0.24723(3) 0.01869(2) -0.07250(3)
C1A C 0.0939(4) -0.1739(3) 0.3838(4)
C2A C 0.1136(4) -0.2375(3) 0.3785(4)
H1A H 0.16360 -0.24910 0.38710
C3A C 0.0587(4) -0.2844(3) 0.3603(4)
H2A H 0.07210 -0.32780 0.35920
C4A C -0.0163(4) -0.2672(3) 0.3437(4)
C5A C -0.0358(4) -0.2031(3) 0.3467(4)
H3A H -0.08570 -0.19100 0.33400
C6A C 0.0192(4) -0.1561(3) 0.3686(4)
H4A H 0.00590 -0.11300 0.37310
C7A C 0.1521(4) -0.1217(4) 0.4027(4)
C8A C -0.0745(4) -0.3187(3) 0.3208(4)
C9A C 0.5390(3) -0.3767(3) 0.2560(5)
H5A H 0.56470 -0.33760 0.25880
C10A C 0.5777(3) -0.4346(3) 0.2638(4)
C11A C 0.5387(3) -0.4918(3) 0.2578(4)
H6A H 0.56440 -0.53100 0.26420
C12A C 0.6618(4) -0.4331(4) 0.2780(4)
C13F C 0.2495(4) -0.1851(3) -0.0219(3)
C14F C 0.3100(4) -0.2239(3) -0.0235(4)
H7F H 0.35130 -0.20650 -0.03890
C15F C 0.1896(4) -0.2118(3) 0.0026(4)
H8F H 0.14850 -0.18610 0.00500
C16F C 0.2502(4) -0.1145(3) -0.0440(4)
C17A C -0.2252(4) -0.4383(3) 0.1104(4)
H9A H -0.27530 -0.42810 0.10540
C18A C -0.1242(4) -0.4676(3) 0.0854(4)
H10A H -0.08850 -0.48260 0.05930
C19A C -0.0423(4) -0.5850(3) 0.3569(4)
C20A C -0.0987(4) -0.5987(3) 0.3970(4)
C21A C -0.0986(5) -0.6557(4) 0.4387(4)
H11A H -0.13520 -0.66440 0.46650
C22A C -0.0423(6) -0.6986(4) 0.4370(5)
H12A H -0.04080 -0.73730 0.46440
C23A C 0.0130(5) -0.6863(4) 0.3958(5)
H13A H 0.04930 -0.71770 0.39580
C24A C 0.0164(4) -0.6296(4) 0.3549(4)
H14A H 0.05400 -0.62120 0.32820
N1A N -0.1088(3) -0.4524(2) 0.1590(3)
N2A N -0.1756(3) -0.4334(2) 0.1760(3)
N3E N 0.1960(3) -0.5403(3) -0.0511(3)
N3A N -0.1960(3) -0.4597(3) 0.0511(3)
N3D N -0.1960(3) -0.5403(3) 0.5511(3)
N4A N -0.0570(3) -0.5271(2) 0.3228(3)
N5A N -0.1212(3) -0.5060(2) 0.3414(3)
N6A N -0.1465(3) -0.5474(2) 0.3858(3)
O1C O 0.3642(3) -0.5694(2) 0.0708(3)
O1B O -0.3642(3) -0.5694(2) 0.4292(3)
O1A O -0.1358(3) -0.0694(2) 0.0708(3)
O2C O 0.2856(3) -0.6326(2) 0.1114(3)
O2B O -0.2856(3) -0.6326(2) 0.3886(3)
O2A O -0.2144(3) -0.1326(2) 0.1114(3)
O3A O -0.1421(3) -0.3017(2) 0.3080(3)
O4A O -0.0542(2) -0.3764(2) 0.3170(2)
O5A O -0.3018(2) -0.4848(2) 0.2968(2)
O5A* O 0.6982(2) -0.4848(2) 0.2968(2)
O6A O -0.3071(2) -0.3798(2) 0.2673(3)
O6A* O 0.6929(2) -0.3798(2) 0.2673(3)
O7A O -0.3024(3) -0.4211(2) 0.4656(3)
O7F O 0.1976(3) -0.0789(2) -0.0344(3)
O8A O -0.1961(3) -0.40687(19) 0.4288(2)
O8F O 0.3039(3) -0.09313(19) -0.0712(2)
#END
