
#######################################################################
#
#                 Cambridge Crystallographic Data Centre
#                                CCDC
#
#######################################################################
#
# If this CIF has been generated from an entry in the Cambridge
# Structural Database, then it will include bibliographic, chemical,
# crystal, experimental, refinement or atomic coordinate data resulting
# from the CCDC's data processing and validation procedures.
#
#######################################################################

data_CSD_CIF_DOQQOR
_audit_creation_date 2014-09-26
_audit_creation_method CSD-ConQuest-V1
_database_code_CSD DOQQOR
_database_code_depnum_ccdc_archive 'CCDC 1026412'
_chemical_formula_sum 'C11 H6 Br4 N2 O5 U1'
_chemical_formula_moiety
;
(C6 H2 Br2 N1 O5 U1 1-)n,C5 H4 Br2 N1 1+
;
_journal_coden_Cambridge 1078
_journal_year 2014
_journal_name_full 'CSD Communication(Private Communication) '
loop_
_publ_author_name
"Lei Mei"
"Weiqun Shi"
"Zhifang Chai"
_chemical_name_systematic
;
catena-(3,5-dibromopyridinium 
(\m-3,5-dibromoisonicotinato)-(\m-oxo)-dioxo-uranium)
;
_cell_volume   3593.007
_exptl_crystal_colour 'yellow'
_exptl_crystal_density_diffrn 2.972
_diffrn_ambient_temperature 293
#These two values have been output from a single CSD field.
_refine_ls_R_factor_gt 0.0285
_refine_ls_wR_factor_gt 0.0285
_symmetry_cell_setting orthorhombic
_symmetry_space_group_name_H-M 'I b c a'
_symmetry_Int_Tables_number 73
loop_
_symmetry_equiv_pos_site_id
_symmetry_equiv_pos_as_xyz
1 x,y,z
2 -x,1/2-y,z
3 x,-y,1/2-z
4 -x,1/2+y,1/2-z
5 1/2+x,1/2+y,1/2+z
6 1/2-x,-y,1/2+z
7 1/2+x,1/2-y,-z
8 1/2-x,y,-z
9 -x,-y,-z
10 x,-1/2+y,-z
11 -x,y,-1/2+z
12 x,-1/2-y,-1/2+z
13 -1/2-x,-1/2-y,-1/2-z
14 -1/2+x,y,-1/2-z
15 -1/2-x,-1/2+y,z
16 -1/2+x,-y,z
_cell_length_a 8.3785(3)
_cell_length_b 19.4370(8)
_cell_length_c 22.0629(10)
_cell_angle_alpha 90
_cell_angle_beta 90
_cell_angle_gamma 90
_cell_formula_units_Z 8
loop_
_atom_type_symbol
_atom_type_radius_bond
C 0.68
H 0.23
Br 1.21
N 0.68
O 0.68
U 1.96
loop_
_atom_site_label
_atom_site_type_symbol
_atom_site_fract_x
_atom_site_fract_y
_atom_site_fract_z
U1 U 0.75000 0.777201(15) 0.50000
Br1 Br 0.63767(11) 0.49232(4) 0.62162(4)
C1 C 0.7097(7) 0.6089(3) 0.5497(3)
H1 H 0.68300 0.63320 0.58460
C2 C 0.7063(8) 0.5381(3) 0.5512(3)
C3 C 0.75000 0.5005(5) 0.50000
O1 O 0.8191(6) 0.7756(2) 0.5754(2)
O2 O 0.50000 0.75000 0.5354(3)
N1 N 0.75000 0.6436(4) 0.50000
O3 O 0.6298(6) 0.3921(2) 0.4806(3)
C4 C 0.75000 0.4229(5) 0.50000
Br2 Br 0.35728(17) 0.61727(8) 0.78989(6)
C5 C 0.50000 0.75000 0.7831(6)
H2 H 0.50000 0.75000 0.82520
C6 C 0.4393(10) 0.6973(5) 0.6895(4)
H3 H 0.39470 0.66090 0.66800
C7 C 0.4399(10) 0.6944(5) 0.7508(4)
N2 N 0.50000 0.75000 0.6587(4)
H4 H 0.50000 0.75000 0.61970
Br1G Br 0.86233(11) 0.49232(4) 0.37838(4)
C1G C 0.7903(7) 0.6089(3) 0.4503(3)
H1G H 0.81700 0.63320 0.41540
C2G C 0.7937(8) 0.5381(3) 0.4488(3)
O3G O 0.8702(6) 0.3921(2) 0.5194(3)
O1G O 0.6809(6) 0.7756(2) 0.4246(2)
U1A U 0.25000 0.722799(15) 0.50000
U1I U 0.75000 0.277201(15) 0.50000
O2F O 1.00000 0.75000 0.4646(3)
O3I O 0.6298(6) 0.8921(2) 0.5194(3)
O3N O 0.8702(6) 0.8921(2) 0.4806(3)
Br2A Br 0.64272(17) 0.88273(8) 0.78989(6)
C6A C 0.5607(10) 0.8027(5) 0.6895(4)
H3A H 0.60530 0.83910 0.66800
C7A C 0.5601(10) 0.8056(5) 0.7508(4)
#END
