
#######################################################################
#
#                 Cambridge Crystallographic Data Centre
#                                CCDC
#
#######################################################################
#
# If this CIF has been generated from an entry in the Cambridge
# Structural Database, then it will include bibliographic, chemical,
# crystal, experimental, refinement or atomic coordinate data resulting
# from the CCDC's data processing and validation procedures.
#
#######################################################################

data_CSD_CIF_DOQQIL
_audit_creation_date 2014-09-26
_audit_creation_method CSD-ConQuest-V1
_database_code_CSD DOQQIL
_database_code_depnum_ccdc_archive 'CCDC 1026411'
_chemical_formula_sum 'C11 H6 Cl4 N2 O5 U1'
_chemical_formula_moiety
;
(C6 H2 Cl2 N1 O5 U1 1-)n,C5 H4 Cl2 N1 1+
;
_journal_coden_Cambridge 1078
_journal_year 2014
_journal_name_full 'CSD Communication(Private Communication) '
loop_
_publ_author_name
"Lei Mei"
"Weiqun Shi"
"Zhifang Chai"
_chemical_name_systematic
;
catena-(3,5-dichloropyridinium 
(\m-3,5-dichloroisonicotinato)-(\m-oxo)-dioxo-uranium)
;
_cell_volume   3501.452
_exptl_crystal_colour 'brown'
_exptl_crystal_density_diffrn 2.375
_exptl_crystal_description 'block'
_diffrn_ambient_temperature 293
#These two values have been output from a single CSD field.
_refine_ls_R_factor_gt 0.0445
_refine_ls_wR_factor_gt 0.0445
_symmetry_cell_setting orthorhombic
_symmetry_space_group_name_H-M 'I b c a'
_symmetry_Int_Tables_number 73
loop_
_symmetry_equiv_pos_site_id
_symmetry_equiv_pos_as_xyz
1 x,y,z
2 -x,1/2-y,z
3 x,-y,1/2-z
4 1/2-x,y,-z
5 1/2+x,1/2+y,1/2+z
6 1/2-x,-y,1/2+z
7 1/2+x,1/2-y,-z
8 -x,1/2+y,1/2-z
9 -x,-y,-z
10 x,-1/2+y,-z
11 -x,y,-1/2+z
12 -1/2+x,-y,z
13 -1/2-x,-1/2-y,-1/2-z
14 -1/2+x,y,-1/2-z
15 -1/2-x,-1/2+y,z
16 x,-1/2-y,-1/2+z
_cell_length_a 8.2621(6)
_cell_length_b 19.3780(15)
_cell_length_c 21.87(2)
_cell_angle_alpha 90
_cell_angle_beta 90
_cell_angle_gamma 90
_cell_formula_units_Z 8
loop_
_atom_type_symbol
_atom_type_radius_bond
C 0.68
H 0.23
Cl 0.99
N 0.68
O 0.68
U 1.96
loop_
_atom_site_label
_atom_site_type_symbol
_atom_site_fract_x
_atom_site_fract_y
_atom_site_fract_z
U1 U 0.50000 0.25000 0.52894(2)
Cl1 Cl 0.4160(6) 0.36893(19) 0.7479(2)
C1 C 0.50000 0.25000 0.7488(8)
C2 C 0.50000 0.25000 0.6781(9)
O1 O 0.3758(11) 0.2319(6) 0.6436(4)
C3 C 0.4666(16) 0.3021(7) 0.7904(6)
O2 O 0.4263(11) 0.3254(4) 0.5276(4)
O3 O 0.75000 0.2870(5) 0.50000
N1 N 0.50000 0.25000 0.8968(7)
C4 C 0.4693(14) 0.3004(6) 0.8605(6)
H1 H 0.44510 0.34210 0.87950
N2 N 0.75000 0.4108(8) 0.50000
H2 H 0.75000 0.36650 0.50000
Cl2 Cl 0.6330(7) 0.5413(2) 0.6345(3)
C5 C 0.701(2) 0.5048(8) 0.5560(11)
C6 C 0.700(2) 0.4408(8) 0.5537(11)
H3 H 0.66720 0.41430 0.58690
C7 C 0.75000 0.5363(12) 0.50000
H4 H 0.75000 0.586(13) 0.50000
Cl1A Cl 0.5840(6) 0.13107(19) 0.7479(2)
O1A O 0.6242(11) 0.2681(6) 0.6436(4)
C3A C 0.5334(16) 0.1979(7) 0.7904(6)
C4A C 0.5307(14) 0.1996(6) 0.8605(6)
H1A H 0.55490 0.15790 0.87950
O2A O 0.5737(11) 0.1746(4) 0.5276(4)
U1C U 1.00000 0.25000 0.47106(2)
U1J U 0.50000 0.25000 1.02894(2)
O3A O 0.25000 0.2130(5) 0.50000
N1J N 0.50000 0.25000 0.3968(7)
Cl2C Cl 0.8670(7) 0.5413(2) 0.3655(3)
C5C C 0.799(2) 0.5048(8) 0.4440(11)
C6C C 0.800(2) 0.4408(8) 0.4463(11)
H3C H 0.83280 0.41430 0.41310
#END
