
#######################################################################
#
#                 Cambridge Crystallographic Data Centre
#                                CCDC
#
#######################################################################
#
# If this CIF has been generated from an entry in the Cambridge
# Structural Database, then it will include bibliographic, chemical,
# crystal, experimental, refinement or atomic coordinate data resulting
# from the CCDC's data processing and validation procedures.
#
#######################################################################

data_CSD_CIF_DOQRUY
_audit_creation_date 2014-09-26
_audit_creation_method CSD-ConQuest-V1
_database_code_CSD DOQRUY
_database_code_depnum_ccdc_archive 'CCDC 1011888'
_chemical_formula_sum 'C58 H45 Co3 N2 Na5 O28'
_chemical_formula_moiety
;
(C8 H15 N2 1+)n,5n(Na1 1+),n(C48 H18 Co3 O24 6-),2n(C1 H4 O1),2n(H2 O1)
;
_journal_coden_Cambridge 222
_journal_volume 43
_journal_year 2014
_journal_page_first 16515
_journal_name_full 'Dalton Trans. '
loop_
_publ_author_name
"Wen-Xian Chen"
"Li Tan"
"Qiu-Ping Liu"
"Gen-Rong Qiang"
"Gui-Lin Zhuang"
_chemical_name_systematic
;
catena-[(1-Butyl-3-methyl-1H-imidazol-3-ium) penta-sodium 
tris(\m-biphenyl-2,2',4,4'-tetracarboxylato)-tri-cobalt(ii) methanol solvate 
dihydrate]
;
_cell_volume  23448.171
_exptl_crystal_density_diffrn 1.708
_diffrn_ambient_temperature 173
_refine_special_details
;
The structure is disordered.

;
#These two values have been output from a single CSD field.
_refine_ls_R_factor_gt 0.0792
_refine_ls_wR_factor_gt 0.0792
_symmetry_cell_setting orthorhombic
_symmetry_space_group_name_H-M 'F d d d'
_symmetry_Int_Tables_number 70
loop_
_symmetry_equiv_pos_site_id
_symmetry_equiv_pos_as_xyz
1 x,y,z
2 3/4-x,3/4-y,z
3 3/4-x,y,3/4-z
4 x,3/4-y,3/4-z
5 x,1/2+y,1/2+z
6 3/4-x,1/4-y,1/2+z
7 3/4-x,1/2+y,1/4-z
8 x,1/4-y,1/4-z
9 1/2+x,y,1/2+z
10 1/4-x,3/4-y,1/2+z
11 1/4-x,y,1/4-z
12 1/2+x,3/4-y,1/4-z
13 1/2+x,1/2+y,z
14 1/4-x,1/4-y,z
15 1/4-x,1/2+y,3/4-z
16 1/2+x,1/4-y,3/4-z
17 -x,-y,-z
18 -3/4+x,-3/4+y,-z
19 -3/4+x,-y,-3/4+z
20 -x,-3/4+y,-3/4+z
21 -x,-1/2-y,-1/2-z
22 -3/4+x,-1/4+y,-1/2-z
23 -3/4+x,-1/2-y,-1/4+z
24 -x,-1/4+y,-1/4+z
25 -1/2-x,-y,-1/2-z
26 -1/4+x,-3/4+y,-1/2-z
27 -1/4+x,-y,-1/4+z
28 -1/2-x,-3/4+y,-1/4+z
29 -1/2-x,-1/2-y,-z
30 -1/4+x,-1/4+y,-z
31 -1/4+x,-1/2-y,-3/4+z
32 -1/2-x,-1/4+y,-3/4+z
_cell_length_a 25.655(5)
_cell_length_b 28.561(6)
_cell_length_c 32.001(6)
_cell_angle_alpha 90
_cell_angle_beta 90
_cell_angle_gamma 90
_cell_formula_units_Z 16
loop_
_atom_type_symbol
_atom_type_radius_bond
C 0.68
H 0.23
Co 1.26
N 0.68
Na 1.66
O 0.68
loop_
_atom_site_label
_atom_site_type_symbol
_atom_site_fract_x
_atom_site_fract_y
_atom_site_fract_z
Co1 Co 0.75733(3) 0.12975(2) -0.21550(2)
O1 O 0.7408(2) 0.18995(15) -0.19183(15)
O2 O 0.83279(16) 0.12327(13) -0.21014(12)
O3 O 0.71721(14) 0.13578(13) -0.26812(12)
O4 O 0.75781(15) -0.06591(13) -0.30369(12)
C1 C 0.7279(2) 0.20099(19) -0.1556(2)
C2 C 0.8690(2) 0.1455(2) -0.22929(19)
C3 C 0.72003(19) 0.10719(19) -0.29901(17)
O5 O 0.7144(2) 0.17374(16) -0.12778(16)
C4 C 0.7303(2) 0.25289(19) -0.14623(18)
O6 O 0.91509(17) 0.14546(19) -0.21778(17)
C5 C 0.8529(2) 0.17307(18) -0.26702(16)
O7 O 0.68347(18) 0.09996(17) -0.32255(17)
C6 C 0.7701(2) 0.07948(17) -0.30285(15)
O8 O 0.84385(15) -0.07427(13) -0.29619(14)
C7 C 0.7540(2) 0.28311(19) -0.17447(17)
C8 C 0.7090(3) 0.2718(2) -0.1108(2)
C9 C 0.8268(2) 0.15232(18) -0.30032(17)
C10 C 0.8636(2) 0.2215(2) -0.26714(18)
C11 C 0.8194(2) 0.10018(17) -0.30169(16)
C12 C 0.76533(19) 0.03107(18) -0.30379(16)
O9 O 0.83065(18) 0.32669(14) -0.32363(13)
O10 O 0.7911(5) 0.3510(2) -0.2324(2)
O11 O 0.8889(2) 0.31537(16) -0.27272(16)
H1 H 0.76780 0.27100 -0.19980
C13 C 0.75789(19) 0.33110(18) -0.16627(16)
C14 C 0.7117(3) 0.3190(2) -0.1025(2)
H2 H 0.69200 0.25180 -0.09140
C15 C 0.8110(2) 0.1804(2) -0.33345(16)
H3 H 0.88240 0.23510 -0.24460
C16 C 0.8467(2) 0.24934(19) -0.30019(16)
C17 C 0.8632(2) 0.07145(19) -0.30341(18)
H4 H 0.73170 0.01730 -0.30470
C18 C 0.80936(19) 0.00249(17) -0.30348(16)
C19 C 0.7366(2) 0.34931(19) -0.12987(17)
C20 C 0.7909(3) 0.3592(2) -0.1964(2)
H5 H 0.69630 0.33100 -0.07780
C21 C 0.8201(2) 0.22800(18) -0.33354(16)
H6 H 0.79370 0.16650 -0.35650
C22 C 0.8551(3) 0.3012(2) -0.29894(18)
C23 C 0.8585(2) 0.02301(18) -0.30362(17)
H7 H 0.89680 0.08520 -0.30450
C24 C 0.8044(2) -0.05019(18) -0.30106(16)
O12 O 0.8217(3) 0.3870(4) -0.1825(3)
H8 H 0.80830 0.24650 -0.35630
H9 H 0.88890 0.00390 -0.30390
Co2 Co 0.87500 0.37500 -0.24309(3)
Na1 Na 0.62500 0.12500 -0.25534(10)
Na2 Na 0.62500 0.12500 -0.13579(6)
Na3 Na 0.73839(7) 0.15061(9) -0.05076(7)
Na4 Na 0.62500 0.12500 -0.37500
Na5 Na 0.87500 0.37500 -0.12500
O13 O 0.8812(5) 0.4690(7) -0.1137(3)
C25 C 0.9084(5) 0.4880(4) -0.0813(4)
H10 H 0.90590 0.52220 -0.08250
H11 H 0.94510 0.47850 -0.08330
H12 H 0.89380 0.47680 -0.05480
O14 O 0.87500 0.5432(4) -0.12500
N1 N 0.6270(4) 0.4428(4) 0.1094(3)
N2 N 0.6805(4) 0.4679(3) 0.0635(3)
C26 C 0.6300(5) 0.4611(4) 0.0753(4)
H13 H 0.60070 0.46980 0.05880
C27 C 0.6991(5) 0.4890(5) 0.0272(4)
H14 H 0.73720 0.48880 0.02750
H15 H 0.68660 0.52140 0.02590
H16 H 0.68640 0.47170 0.00280
C28 C 0.5451(4) 0.4573(6) 0.1517(4)
H17 H 0.51110 0.46730 0.14390
C29 C 0.5765(3) 0.4304(3) 0.1295(2)
H18 H 0.56910 0.39600 0.13140
O1C O 0.7408(2) 0.56005(15) -0.05817(15)
C1C C 0.7279(2) 0.54901(19) -0.0944(2)
O5C O 0.7144(2) 0.57626(16) -0.12222(16)
C4C C 0.7303(2) 0.49711(19) -0.10377(18)
C7C C 0.7540(2) 0.46689(19) -0.07553(17)
C8C C 0.7090(3) 0.4782(2) -0.1392(2)
O10C O 0.7911(5) 0.3990(2) -0.0176(2)
H1C H 0.76780 0.47900 -0.05020
C13C C 0.75789(19) 0.41890(18) -0.08373(16)
C14C C 0.7117(3) 0.4310(2) -0.1475(2)
H2C H 0.69200 0.49820 -0.15860
C19C C 0.7366(2) 0.40069(19) -0.12013(17)
C20C C 0.7909(3) 0.3908(2) -0.0536(2)
H5C H 0.69630 0.41900 -0.17220
O12C O 0.8217(3) 0.3630(4) -0.0675(3)
Co1A Co 0.99267(3) 0.62025(2) -0.21550(2)
O2A O 0.91721(16) 0.62673(13) -0.21014(12)
O3A O 1.03279(14) 0.61422(13) -0.26812(12)
O4A O 0.99219(15) 0.81591(13) -0.30369(12)
C2A C 0.8810(2) 0.6045(2) -0.22929(19)
C3A C 1.02997(19) 0.64281(19) -0.29901(17)
O6A O 0.83491(17) 0.60454(19) -0.21778(17)
C5A C 0.8971(2) 0.57693(18) -0.26702(16)
O7A O 1.06653(18) 0.65004(17) -0.32255(17)
C6A C 0.9799(2) 0.67052(17) -0.30285(15)
O8A O 0.90615(15) 0.82427(13) -0.29619(14)
C9A C 0.9232(2) 0.59768(18) -0.30032(17)
C10A C 0.8864(2) 0.5285(2) -0.26714(18)
C11A C 0.9306(2) 0.64982(17) -0.30169(16)
C12A C 0.98467(19) 0.71893(18) -0.30379(16)
O9A O 0.91935(18) 0.42331(14) -0.32363(13)
O11A O 0.8611(2) 0.43463(16) -0.27272(16)
C15A C 0.9390(2) 0.5696(2) -0.33345(16)
H3A H 0.86760 0.51490 -0.24460
C16A C 0.9033(2) 0.50066(19) -0.30019(16)
C17A C 0.8868(2) 0.67855(19) -0.30341(18)
H4A H 1.01830 0.73270 -0.30470
C18A C 0.94064(19) 0.74751(17) -0.30348(16)
C21A C 0.9299(2) 0.52200(18) -0.33354(16)
H6A H 0.95630 0.58350 -0.35650
C22A C 0.8949(3) 0.4488(2) -0.29894(18)
C23A C 0.8915(2) 0.72699(18) -0.30362(17)
H7A H 0.85320 0.66480 -0.30450
C24A C 0.9456(2) 0.80019(18) -0.30106(16)
H8A H 0.94170 0.50350 -0.35630
H9A H 0.86110 0.74610 -0.30390
Co1C Co 0.75733(3) 0.62025(2) -0.03450(2)
Co1U Co 1.00733(3) 0.87975(2) -0.28450(2)
Co1X Co 0.74267(3) -0.12975(2) -0.28450(2)
O1A O 1.0092(2) 0.56005(15) -0.19183(15)
O4U O 1.00781(15) 0.68409(13) -0.19631(12)
O4X O 0.74219(15) 0.06591(13) -0.19631(12)
O10A O 0.9589(5) 0.3990(2) -0.2324(2)
O12A O 0.9283(3) 0.3630(4) -0.1825(3)
Co2B Co 0.87500 0.37500 -0.00691(3)
N1J N 0.6230(4) 0.4428(4) 0.1406(3)
N2J N 0.5695(4) 0.4679(3) 0.1865(3)
C26J C 0.6200(5) 0.4611(4) 0.1747(4)
H13J H 0.64930 0.46980 0.19120
C27J C 0.5509(5) 0.4890(5) 0.2228(4)
H14J H 0.51280 0.48880 0.22250
H15J H 0.56340 0.52140 0.22410
H16J H 0.56360 0.47170 0.24720
C28J C 0.7049(4) 0.4573(6) 0.0983(4)
H17J H 0.73890 0.46730 0.10610
C29J C 0.6735(3) 0.4304(3) 0.1205(2)
H18J H 0.68090 0.39600 0.11860
#END
