
#######################################################################
#
#                 Cambridge Crystallographic Data Centre
#                                CCDC
#
#######################################################################
#
# If this CIF has been generated from an entry in the Cambridge
# Structural Database, then it will include bibliographic, chemical,
# crystal, experimental, refinement or atomic coordinate data resulting
# from the CCDC's data processing and validation procedures.
#
#######################################################################

data_CSD_CIF_DOQSAF
_audit_creation_date 2014-09-26
_audit_creation_method CSD-ConQuest-V1
_database_code_CSD DOQSAF
_database_code_depnum_ccdc_archive 'CCDC 1011889'
_chemical_formula_sum 'C26 H24 Mn2 N2 O10'
_chemical_formula_moiety
;
(C18 H9 Mn2 O10 1-)n,n(C8 H15 N2 1+)
;
_journal_coden_Cambridge 222
_journal_volume 43
_journal_year 2014
_journal_page_first 16515
_journal_name_full 'Dalton Trans. '
loop_
_publ_author_name
"Wen-Xian Chen"
"Li Tan"
"Qiu-Ping Liu"
"Gen-Rong Qiang"
"Gui-Lin Zhuang"
_chemical_name_systematic
;
catena-(1-n-Butyl-3-methylimidazolium 
(\m~7~-biphenyl-2,2',4,4'-tetracarboxylato)-(\m~2~-acetato-O,O')-di-manganese)

;
_cell_volume   6177.496
_exptl_crystal_density_diffrn 1.065
_diffrn_ambient_temperature 173
_refine_special_details
;
The cation was taken into account using SQUEEZE/PLATON.

;
#These two values have been output from a single CSD field.
_refine_ls_R_factor_gt 0.0757
_refine_ls_wR_factor_gt 0.0757
_symmetry_cell_setting monoclinic
_symmetry_space_group_name_H-M 'C 2/c'
_symmetry_Int_Tables_number 15
loop_
_symmetry_equiv_pos_site_id
_symmetry_equiv_pos_as_xyz
1 x,y,z
2 -x,y,1/2-z
3 1/2+x,1/2+y,z
4 1/2-x,1/2+y,1/2-z
5 -x,-y,-z
6 x,-y,-1/2+z
7 -1/2-x,-1/2-y,-z
8 -1/2+x,-1/2-y,-1/2+z
_cell_length_a 30.577(6)
_cell_length_b 13.818(3)
_cell_length_c 16.241(3)
_cell_angle_alpha 90
_cell_angle_beta 115.81(3)
_cell_angle_gamma 90
_cell_formula_units_Z 8
loop_
_atom_type_symbol
_atom_type_radius_bond
C 0.68
H 0.23
Mn 1.61
O 0.68
loop_
_atom_site_label
_atom_site_type_symbol
_atom_site_fract_x
_atom_site_fract_y
_atom_site_fract_z
Mn1 Mn 1.15163(3) 0.44344(7) 1.48858(5)
Mn2 Mn 1.14793(3) 0.47027(8) 1.71392(5)
O1 O 0.85698(11) 0.4385(3) 1.4019(2)
O2 O 0.88067(12) 0.4244(3) 1.2271(2)
O3 O 1.08098(12) 0.4085(3) 1.6234(2)
O4 O 0.90749(13) 0.4485(3) 1.5474(2)
C1 C 0.89744(17) 0.4170(5) 1.4701(3)
O5 O 1.15479(15) 0.6337(4) 1.3169(3)
C2 C 0.92220(16) 0.2925(4) 1.3817(3)
O6 O 0.71669(12) 0.1129(4) 1.0933(3)
O7 O 1.19211(14) 0.5459(4) 1.4414(3)
C3 C 0.98278(16) 0.3795(4) 1.5080(3)
H1 H 0.99090 0.42070 1.55950
O8 O 1.10195(13) 0.3502(4) 1.5182(3)
C4 C 1.01965(17) 0.3420(4) 1.4899(3)
C5 C 0.87124(16) 0.2555(4) 1.3280(3)
C6 C 0.86062(18) 0.3473(5) 1.1847(3)
O9 O 0.85133(16) 0.3316(3) 1.1032(2)
C7 C 0.78139(17) 0.1656(4) 1.2303(3)
C8 C 0.80089(16) 0.2248(4) 1.1853(3)
H2 H 0.78410 0.23250 1.12090
C9 C 1.07130(18) 0.3680(5) 1.5485(4)
C10 C 0.93370(16) 0.3584(4) 1.4526(3)
C11 C 0.80687(18) 0.1515(5) 1.3227(3)
H3 H 0.79350 0.11330 1.35470
C12 C 0.84460(16) 0.2727(4) 1.2334(3)
C13 C 0.85211(18) 0.1931(5) 1.3691(3)
H4 H 0.87070 0.17780 1.43190
C14 C 0.95912(18) 0.2524(4) 1.3643(3)
H5 H 0.95100 0.20780 1.31530
C15 C 1.00752(17) 0.2760(5) 1.4171(3)
H6 H 1.03220 0.24790 1.40430
O10 O 0.71172(16) 0.0854(5) 1.2248(3)
C16 C 0.73220(18) 0.1206(5) 1.1768(4)
C17 C 1.1756(2) 0.6190(7) 1.4030(5)
C18 C 1.1779(5) 0.7132(8) 1.4569(6)
H7 H 1.19400 0.69970 1.52270
H8 H 1.14490 0.73680 1.44020
H9 H 1.19630 0.76260 1.44200
Mn1A Mn 0.84837(3) 0.44344(7) 1.01142(5)
Mn1D Mn 0.84837(3) 0.55656(7) 1.51142(5)
Mn1G Mn 0.65163(3) 0.05656(7) 0.98858(5)
Mn2D Mn 0.85207(3) 0.52973(8) 1.28608(5)
Mn2E Mn 1.14793(3) 0.52973(8) 1.21392(5)
Mn2G Mn 0.64793(3) 0.02973(8) 1.21392(5)
O1D O 1.14302(11) 0.5615(3) 1.5981(2)
O2D O 1.11933(12) 0.5756(3) 1.7729(2)
O4D O 1.09251(13) 0.5515(3) 1.4526(2)
O5E O 1.15479(15) 0.3663(4) 1.8169(3)
O6G O 1.21669(12) 0.3871(4) 1.5933(3)
O9A O 1.14867(16) 0.3316(3) 1.3968(2)
O10G O 1.21172(16) 0.4146(5) 1.7248(3)
#END
