
#######################################################################
#
#                 Cambridge Crystallographic Data Centre
#                                CCDC
#
#######################################################################
#
# If this CIF has been generated from an entry in the Cambridge
# Structural Database, then it will include bibliographic, chemical,
# crystal, experimental, refinement or atomic coordinate data resulting
# from the CCDC's data processing and validation procedures.
#
#######################################################################

data_CSD_CIF_DOTDIA
_audit_creation_date 2009-07-13
_audit_creation_method CSD-ConQuest-V1
_database_code_CSD DOTDIA
_database_code_depnum_ccdc_archive 'CCDC 682006'
_chemical_formula_sum 'C29 H22 Au1 Cl2 Cu1 F10 N4'
_chemical_formula_moiety
;
(C16 H20 Cu1 N4 1+)n,n(C12 Au1 F10 1-),n(C1 H2 Cl2)
;
_journal_coden_Cambridge 1310
_journal_volume 2
_journal_year 2008
_journal_page_first 73
_journal_name_full 'The Open Inorganic Chemistry Journal '
loop_
_publ_author_name
"E.J.Fernandez"
"A.Laguna"
"J.M.Lopez-de-Luzuriaga"
"M.Monge"
"M.Montiel"
"M.E.Olmos"
"M.Rodriguez-Castillo"
_chemical_name_systematic
;
catena-(bis(\m~2~-1,4-cyclohexanedicarbonitrile)-copper(i) 
bis(1,2,3,4,5-pentafluorobenzene)-gold(i) dichloromethane solvate)
;
_cell_volume   6691.401
_exptl_crystal_colour 'colorless'
_exptl_crystal_density_diffrn 1.882
_exptl_special_details
;
luminescent

;
_exptl_crystal_description 'prism'
_exptl_crystal_preparation 'dichloromethane'
_diffrn_ambient_temperature 173
#These two values have been output from a single CSD field.
_refine_ls_R_factor_gt 0.0456
_refine_ls_wR_factor_gt 0.0456
_symmetry_cell_setting monoclinic
_symmetry_space_group_name_H-M 'C 2/c'
_symmetry_Int_Tables_number 15
loop_
_symmetry_equiv_pos_site_id
_symmetry_equiv_pos_as_xyz
1 x,y,z
2 -x,y,1/2-z
3 1/2+x,1/2+y,z
4 1/2-x,1/2+y,1/2-z
5 -x,-y,-z
6 x,-y,-1/2+z
7 -1/2-x,-1/2-y,-z
8 -1/2+x,-1/2-y,-1/2+z
_cell_length_a 31.9080(4)
_cell_length_b 9.7803(2)
_cell_length_c 25.3001(4)
_cell_angle_alpha 90
_cell_angle_beta 122.0585(11)
_cell_angle_gamma 90
_cell_formula_units_Z 8
loop_
_atom_type_symbol
_atom_type_radius_bond
C 0.68
H 0.23
Au 1.36
Cl 0.99
Cu 1.32
F 0.64
N 0.68
loop_
_atom_site_label
_atom_site_type_symbol
_atom_site_fract_x
_atom_site_fract_y
_atom_site_fract_z
Au1 Au 0.133370(7) 0.37554(2) 0.370272(9)
Cu1 Cu 0.14809(2) 0.36144(6) 0.12324(3)
C1 C 0.16079(18) 0.5707(5) 0.3933(2)
C2 C 0.16601(17) 0.6587(5) 0.3551(2)
C3 C 0.18294(18) 0.7912(5) 0.3710(2)
C4 C 0.1950(2) 0.8425(5) 0.4277(2)
C5 C 0.18978(19) 0.7582(5) 0.4676(2)
C6 C 0.1733(2) 0.6258(5) 0.4505(2)
F1 F 0.15527(11) 0.6154(3) 0.29801(14)
F2 F 0.18820(14) 0.8715(3) 0.33125(16)
F3 F 0.21167(13) 0.9707(3) 0.44444(16)
F4 F 0.20164(12) 0.8080(3) 0.52399(14)
F5 F 0.16998(12) 0.5495(3) 0.49277(14)
C7 C 0.10530(18) 0.1812(5) 0.3503(2)
C8 C 0.10009(16) 0.1037(5) 0.3920(2)
C9 C 0.08229(18) -0.0279(5) 0.3811(2)
C10 C 0.0685(2) -0.0882(5) 0.3258(2)
C11 C 0.07256(19) -0.0181(5) 0.2819(2)
C12 C 0.09143(19) 0.1128(5) 0.2953(2)
F6 F 0.11240(13) 0.1602(3) 0.44770(14)
F7 F 0.07934(14) -0.0981(3) 0.42501(16)
F8 F 0.05190(13) -0.2184(3) 0.31502(15)
F9 F 0.05926(14) -0.0779(3) 0.22733(15)
F10 F 0.09667(13) 0.1737(3) 0.25098(14)
N1 N 0.09477(17) 0.3690(5) 0.0314(2)
C13 C 0.0708(2) 0.3941(5) -0.0202(3)
C14 C 0.03981(18) 0.4302(5) -0.0869(2)
H1 H 0.05840 0.40720 -0.10660
C15 C 0.0299(2) 0.5833(5) -0.0941(2)
H2 H 0.06110 0.63230 -0.07440
H3 H 0.01280 0.60930 -0.07340
C16 C -0.0016(2) 0.6230(6) -0.1633(3)
H4 H -0.00960 0.71950 -0.16670
H5 H 0.01740 0.60800 -0.18260
C17 C -0.04933(19) 0.5405(5) -0.1982(2)
H6 H -0.06500 0.55980 -0.24280
C18 C -0.0390(2) 0.3861(5) -0.1885(2)
H7 H -0.07020 0.33710 -0.20820
H8 H -0.02150 0.35790 -0.20840
C19 C -0.00862(19) 0.3489(5) -0.1202(2)
H9 H -0.00130 0.25180 -0.11590
H10 H -0.02740 0.36830 -0.10090
C20 C -0.08377(19) 0.5795(5) -0.1797(2)
N2 N -0.11058(17) 0.6068(4) -0.1643(2)
N3 N 0.18370(17) 0.1835(4) 0.1406(2)
C21 C 0.2038(2) 0.0875(5) 0.1405(2)
C22 C 0.23197(19) -0.0312(5) 0.1393(2)
H11 H 0.26010 0.00420 0.13790
C23 C 0.2004(2) -0.1167(5) 0.0807(2)
H12 H 0.18680 -0.05890 0.04410
H13 H 0.17320 -0.15780 0.08180
C24 C 0.2326(2) -0.2287(5) 0.0775(2)
H14 H 0.21220 -0.28620 0.04150
H15 H 0.25760 -0.18660 0.07210
C25 C 0.25783(19) -0.3172(5) 0.1360(2)
H16 H 0.28280 -0.37270 0.13450
C26 C 0.28464(19) -0.2315(5) 0.1954(2)
H17 H 0.29600 -0.29110 0.23110
H18 H 0.31360 -0.19010 0.19870
C27 C 0.2525(2) -0.1192(5) 0.1976(2)
H19 H 0.22560 -0.15950 0.19950
H20 H 0.27200 -0.06330 0.23450
C28 C 0.2222(2) -0.4123(5) 0.1370(2)
N4 N 0.19471(17) -0.4869(4) 0.13667(19)
C29 C 0.0724(3) 1.0484(8) 0.0999(5)
H21 H 0.07530 1.08260 0.06590
H22 H 0.09180 1.10790 0.13540
Cl1 Cl 0.09709(12) 0.8883(2) 0.1187(2)
Cl2 Cl 0.01121(9) 1.0580(2) 0.07809(11)
Cu1D Cu -0.14809(2) 0.63856(6) -0.12324(3)
Cu1* Cu 0.14809(2) -0.63856(6) 0.12324(3)
N2D N 0.11058(17) 0.3932(4) 0.1643(2)
N4* N 0.19471(17) 0.5131(4) 0.13667(19)
#END
