
#######################################################################
#
#                 Cambridge Crystallographic Data Centre
#                                CCDC
#
#######################################################################
#
# If this CIF has been generated from an entry in the Cambridge
# Structural Database, then it will include bibliographic, chemical,
# crystal, experimental, refinement or atomic coordinate data resulting
# from the CCDC's data processing and validation procedures.
#
#######################################################################

data_CSD_CIF_DOTVEP
_audit_creation_date 2015-03-02
_audit_creation_method CSD-ConQuest-V1
_database_code_CSD DOTVEP
_database_code_depnum_ccdc_archive 'CCDC 1017407'
_chemical_formula_sum 'C80 H64 Co3 F24 N2 O16'
_chemical_formula_moiety
;
(C68 H32 Co3 F24 O16 2-)n,2(C6 H16 N1 1+)
;
_journal_coden_Cambridge 9
_journal_volume 53
_journal_year 2014
_journal_page_first 12885
_journal_name_full 'Inorg.Chem. '
loop_
_publ_author_name
"M.C.Bernini"
"J.R.de Paz"
"N.Snejko"
"R.Saez-Puche"
"E.Gutierrez-Puebla"
"Maria Angeles Monge"
_chemical_name_systematic
;
catena-[tetrakis(\m-4,4'-(1,1,1,3,3,3-hexafluoropropane-2,2-diyl)dibenzoato)-t
ri-cobalt]
;
_cell_volume   2111.743
_exptl_crystal_colour 'violet'
_exptl_crystal_density_diffrn 1.527
_exptl_special_details
;
Magnetic properties
P-1 polymorph

;
_exptl_crystal_description 'prismatic'
_exptl_crystal_preparation 'hydrothermal'
_diffrn_ambient_temperature 296
#These two values have been output from a single CSD field.
_refine_ls_R_factor_gt 0.065
_refine_ls_wR_factor_gt 0.065
_symmetry_cell_setting triclinic
_symmetry_space_group_name_H-M 'P -1'
_symmetry_Int_Tables_number 2
loop_
_symmetry_equiv_pos_site_id
_symmetry_equiv_pos_as_xyz
1 x,y,z
2 -x,-y,-z
_cell_length_a 12.7610(4)
_cell_length_b 13.2384(4)
_cell_length_c 13.7262(5)
_cell_angle_alpha 83.886(2)
_cell_angle_beta 89.474(2)
_cell_angle_gamma 66.422(1)
_cell_formula_units_Z 1
loop_
_atom_type_symbol
_atom_type_radius_bond
C 0.68
H 0.23
Co 1.26
F 0.64
N 0.68
O 0.68
loop_
_atom_site_label
_atom_site_type_symbol
_atom_site_fract_x
_atom_site_fract_y
_atom_site_fract_z
Co1 Co 1.00000 0.50000 0.50000
F1 F 0.6223(4) 0.2518(3) 0.1553(3)
F2 F 0.7580(4) 0.1186(3) 0.0969(3)
F3 F 0.5241(3) 0.1976(3) 0.3135(4)
F4 F 0.5657(3) 0.0258(3) 0.3045(4)
F5 F 0.6379(3) 0.0738(3) 0.4221(4)
F6 F 0.5937(3) 0.1113(3) 0.1213(4)
C1 C 0.7960(4) 0.2970(4) 0.3788(4)
H1 H 0.76350 0.35520 0.41680
C2 C 0.8943(4) 0.1195(4) 0.2737(4)
H2 H 0.92900 0.05780 0.23990
C3 C 0.9549(4) 0.1806(4) 0.2958(3)
H3 H 1.02940 0.16080 0.27520
C4 C 0.8540(4) -0.0928(4) 0.3520(3)
H4 H 0.85090 -0.05330 0.40480
C5 C 0.7938(4) -0.0983(4) 0.1904(4)
H5 H 0.74820 -0.06370 0.13410
O1 O 0.9379(3) 0.4015(3) 0.4335(2)
C6 C 0.8662(4) -0.2104(4) 0.1960(3)
H6 H 0.87020 -0.24950 0.14270
C7 C 0.9232(4) -0.2049(3) 0.3592(3)
H7 H 0.96390 -0.24080 0.41750
O2 O 1.0488(3) 0.3354(3) 0.3086(2)
C8 C 0.6094(5) 0.0959(5) 0.3263(7)
C9 C 0.9698(4) 0.3411(3) 0.3667(3)
C10 C 0.9066(4) 0.2705(4) 0.3481(3)
C11 C 0.7892(4) -0.0387(4) 0.2671(3)
C12 C 0.7821(4) 0.1491(4) 0.3012(3)
C13 C 0.7136(4) 0.0870(4) 0.2647(4)
C14 C 0.7334(4) 0.2400(4) 0.3546(4)
H8 H 0.65820 0.26160 0.37370
C15 C 0.6736(6) 0.1414(4) 0.1562(6)
O3 O 1.0433(2) -0.4391(2) 0.3671(2)
C16 C 1.0116(4) -0.3821(4) 0.2867(3)
O4 O 1.0493(3) -0.4273(3) 0.2093(2)
C17 C 0.9318(4) -0.2636(3) 0.2796(3)
Co2 Co 1.85342(6) -0.41800(5) 0.71491(5)
F7 F 1.5625(4) 0.2510(3) 0.8674(3)
F8 F 1.7334(4) 0.2413(3) 0.8681(3)
F9 F 1.7961(3) 0.1247(4) 0.5976(4)
O5 O 1.7698(4) -0.2991(3) 0.9773(3)
F10 F 1.7814(3) 0.2757(3) 0.6544(4)
F11 F 1.6051(4) 0.3645(3) 0.7702(3)
F12 F 1.8728(3) 0.1182(3) 0.7379(4)
C18 C 1.4711(4) 0.2029(4) 0.6828(3)
H9 H 1.47520 0.15610 0.73960
C19 C 1.5555(4) 0.2969(4) 0.5742(4)
H10 H 1.61620 0.31670 0.55810
O6 O 1.1666(2) 0.3759(3) 0.5142(2)
O7 O 1.2712(3) 0.3771(3) 0.3835(2)
C20 C 1.7135(4) -0.1254(4) 0.7463(3)
H11 H 1.70930 -0.17400 0.70400
C21 C 1.6902(4) -0.0152(4) 0.7106(3)
H12 H 1.67070 0.00860 0.64450
C22 C 1.7429(4) -0.1620(4) 0.8441(3)
C23 C 1.7798(5) 0.1746(6) 0.6796(7)
C24 C 1.2580(4) 0.3605(4) 0.4740(3)
C25 C 1.5646(4) 0.2265(4) 0.6583(3)
C26 C 1.3653(4) 0.3148(4) 0.5385(3)
C27 C 1.7277(5) 0.0202(4) 0.8700(4)
H13 H 1.73460 0.06770 0.91250
C28 C 1.3709(4) 0.2473(4) 0.6248(3)
H14 H 1.30820 0.23190 0.64350
C29 C 1.7492(5) -0.0880(4) 0.9045(4)
H15 H 1.76850 -0.11170 0.97060
C30 C 1.6422(7) 0.2593(5) 0.8100(6)
C31 C 1.6708(4) 0.1791(4) 0.7295(4)
C32 C 1.4589(4) 0.3386(4) 0.5136(4)
H16 H 1.45650 0.38290 0.45560
C33 C 1.6957(4) 0.0588(4) 0.7720(3)
O8 O 1.7741(3) -0.3499(3) 0.8298(2)
C34 C 1.7654(4) -0.2786(4) 0.8861(4)
C35 C 0.5946(5) 0.5597(6) -0.0681(5)
H17 H 0.55130 0.57730 -0.01010
H18 H 0.55440 0.53650 -0.11370
H19 H 0.60460 0.62420 -0.09770
C36 C 0.7285(6) 0.4915(6) 0.1328(5)
H20 H 0.75770 0.41480 0.16180
H21 H 0.64590 0.51840 0.12650
C37 C 0.7083(5) 0.4688(5) -0.0417(4)
H22 H 0.75250 0.45320 -0.10020
H23 H 0.69780 0.40220 -0.01660
N1 N 0.7749(4) 0.4963(4) 0.0344(3)
C38 C 0.9008(5) 0.4237(5) 0.0289(4)
H24 H 0.92720 0.44420 -0.03360
H25 H 0.94220 0.43960 0.08000
C39 C 0.9312(6) 0.3007(6) 0.0395(6)
H26 H 0.90010 0.28010 0.09850
H27 H 1.01300 0.26150 0.04280
H28 H 0.90010 0.28210 -0.01590
C40 C 0.7588(7) 0.5582(6) 0.1995(5)
H29 H 0.84060 0.53200 0.20590
H30 H 0.72840 0.55070 0.26280
H31 H 0.72710 0.63480 0.17280
H32 H 0.769(4) 0.570(4) 0.013(3)
F1A F 1.3777(4) -0.2518(3) 0.8447(3)
F2A F 1.2420(4) -0.1186(3) 0.9031(3)
F3A F 1.4759(3) -0.1976(3) 0.6865(4)
F4A F 1.4343(3) -0.0258(3) 0.6955(4)
F5A F 1.3621(3) -0.0738(3) 0.5779(4)
F6A F 1.4063(3) -0.1113(3) 0.8787(4)
C1A C 1.2040(4) -0.2970(4) 0.6212(4)
H1A H 1.23650 -0.35520 0.58320
C2A C 1.1057(4) -0.1195(4) 0.7263(4)
H2A H 1.07100 -0.05780 0.76010
C3A C 1.0451(4) -0.1806(4) 0.7042(3)
H3A H 0.97060 -0.16080 0.72480
C4A C 1.1460(4) 0.0928(4) 0.6480(3)
H4A H 1.14910 0.05330 0.59520
C5A C 1.2062(4) 0.0983(4) 0.8096(4)
H5A H 1.25180 0.06370 0.86590
O1A O 1.0621(3) -0.4015(3) 0.5665(2)
C6A C 1.1338(4) 0.2104(4) 0.8040(3)
H6A H 1.12980 0.24950 0.85730
C7A C 1.0768(4) 0.2049(3) 0.6408(3)
H7A H 1.03610 0.24080 0.58250
O2A O 0.9512(3) -0.3354(3) 0.6914(2)
C8A C 1.3906(5) -0.0959(5) 0.6737(7)
C9A C 1.0302(4) -0.3411(3) 0.6333(3)
C10A C 1.0934(4) -0.2705(4) 0.6519(3)
C11A C 1.2108(4) 0.0387(4) 0.7329(3)
C12A C 1.2179(4) -0.1491(4) 0.6988(3)
C13A C 1.2864(4) -0.0870(4) 0.7353(4)
C14A C 1.2666(4) -0.2400(4) 0.6454(4)
H8A H 1.34180 -0.26160 0.62630
C15A C 1.3264(6) -0.1414(4) 0.8438(6)
O3A O 0.9567(2) 0.4391(2) 0.6329(2)
C16A C 0.9884(4) 0.3821(4) 0.7133(3)
O4A O 0.9507(3) 0.4273(3) 0.7907(2)
C17A C 1.0682(4) 0.2636(3) 0.7204(3)
Co2A Co 0.14658(6) 1.41800(5) 0.28509(5)
F7A F 0.4375(4) 0.7490(3) 0.1326(3)
F8A F 0.2666(4) 0.7587(3) 0.1319(3)
F9A F 0.2039(3) 0.8753(4) 0.4024(4)
O5A O 0.2302(4) 1.2991(3) 0.0227(3)
F10A F 0.2186(3) 0.7243(3) 0.3456(4)
F11A F 0.3949(4) 0.6355(3) 0.2298(3)
F12A F 0.1272(3) 0.8818(3) 0.2621(4)
C18A C 0.5289(4) 0.7971(4) 0.3172(3)
H9A H 0.52480 0.84390 0.26040
C19A C 0.4445(4) 0.7031(4) 0.4258(4)
H10A H 0.38380 0.68330 0.44190
O6A O 0.8334(2) 0.6241(3) 0.4858(2)
O7A O 0.7288(3) 0.6229(3) 0.6165(2)
C20A C 0.2865(4) 1.1254(4) 0.2537(3)
H11A H 0.29070 1.17400 0.29600
C21A C 0.3098(4) 1.0152(4) 0.2894(3)
H12A H 0.32930 0.99140 0.35550
C22A C 0.2571(4) 1.1620(4) 0.1559(3)
C23A C 0.2202(5) 0.8254(6) 0.3204(7)
C24A C 0.7420(4) 0.6395(4) 0.5260(3)
C25A C 0.4354(4) 0.7735(4) 0.3417(3)
C26A C 0.6347(4) 0.6852(4) 0.4615(3)
C27A C 0.2723(5) 0.9798(4) 0.1300(4)
H13A H 0.26540 0.93230 0.08750
C28A C 0.6291(4) 0.7527(4) 0.3752(3)
H14A H 0.69180 0.76810 0.35650
C29A C 0.2508(5) 1.0880(4) 0.0955(4)
H15A H 0.23150 1.11170 0.02940
C30A C 0.3578(7) 0.7407(5) 0.1900(6)
C31A C 0.3292(4) 0.8209(4) 0.2705(4)
C32A C 0.5411(4) 0.6614(4) 0.4864(4)
H16A H 0.54350 0.61710 0.54440
C33A C 0.3043(4) 0.9412(4) 0.2280(3)
O8A O 0.2259(3) 1.3499(3) 0.1702(2)
C34A C 0.2346(4) 1.2786(4) 0.1139(4)
Co1* Co 1.00000 -0.50000 0.50000
O1A* O 1.0621(3) 0.5985(3) 0.5665(2)
O2* O 0.0488(3) 1.3354(3) 0.3086(2)
O2A* O 1.9512(3) -0.3354(3) 0.6914(2)
O3* O 0.0433(2) 1.5609(2) 0.3671(2)
O3** O 1.0433(2) 0.5609(2) 0.3671(2)
O3A* O 1.9567(2) -0.5609(2) 0.6329(2)
O4* O 0.0493(3) 1.5727(3) 0.2093(2)
O4A* O 1.9507(3) -0.5727(3) 0.7907(2)
Co2* Co 0.85342(6) -0.41800(5) 0.71491(5)
Co2** Co 0.85342(6) 0.58200(5) 0.71491(5)
Co2A* Co 1.14658(6) -0.58200(5) 0.28509(5)
Co2A** Co 1.14658(6) 0.41800(5) 0.28509(5)
O7* O 0.2712(3) 1.3771(3) 0.3835(2)
O7A* O 1.7288(3) -0.3771(3) 0.6165(2)
#END
