
#######################################################################
#
#                 Cambridge Crystallographic Data Centre
#                                CCDC
#
#######################################################################
#
# If this CIF has been generated from an entry in the Cambridge
# Structural Database, then it will include bibliographic, chemical,
# crystal, experimental, refinement or atomic coordinate data resulting
# from the CCDC's data processing and validation procedures.
#
#######################################################################

data_CSD_CIF_DOWFUS
_audit_creation_date 2015-03-02
_audit_creation_method CSD-ConQuest-V1
_database_code_CSD DOWFUS
_database_code_depnum_ccdc_archive 'CCDC 1009818'
_chemical_formula_sum 'C24 H60 Co6 O54'
_chemical_formula_moiety
;
(C24 H40 Co5 O44 2-)n,n(H12 Co1 O6 2+),4n(H2 O1)
;
_journal_coden_Cambridge 1147
_journal_volume 14
_journal_year 2014
_journal_page_first 6282
_journal_name_full 'Cryst.Growth Des. '
loop_
_publ_author_name
"W.Clegg"
"J.M.Holcroft"
_chemical_name_systematic
;
catena-[hexaaqua-cobalt bis(\m-mellitato)-icosaaqua-penta-cobalt tetrahydrate]
;
_cell_volume   1260.583
_exptl_crystal_colour 'pink'
_exptl_crystal_density_diffrn 2.063
_exptl_crystal_description 'plate'
_exptl_crystal_preparation 'water'
_diffrn_ambient_temperature 150
#These two values have been output from a single CSD field.
_refine_ls_R_factor_gt 0.0498
_refine_ls_wR_factor_gt 0.0498
_symmetry_cell_setting triclinic
_symmetry_space_group_name_H-M 'P -1'
_symmetry_Int_Tables_number 2
loop_
_symmetry_equiv_pos_site_id
_symmetry_equiv_pos_as_xyz
1 x,y,z
2 -x,-y,-z
_cell_length_a 8.7373(7)
_cell_length_b 9.7058(6)
_cell_length_c 15.3909(14)
_cell_angle_alpha 84.254(6)
_cell_angle_beta 81.361(7)
_cell_angle_gamma 78.367(6)
_cell_formula_units_Z 1
loop_
_atom_type_symbol
_atom_type_radius_bond
C 0.68
H 0.23
Co 1.26
O 0.68
loop_
_atom_site_label
_atom_site_type_symbol
_atom_site_fract_x
_atom_site_fract_y
_atom_site_fract_z
Co1 Co 0.77505(11) 0.24847(10) -0.10639(7)
O1 O 0.6548(5) 0.2414(4) 0.0184(3)
O2 O 0.5648(6) 0.2068(5) -0.1409(3)
O3 O 0.8576(6) 0.0274(5) -0.0808(4)
O4 O 0.9896(5) 0.2821(5) -0.0713(3)
O5 O 0.8855(5) 0.2278(4) -0.2340(3)
O6 O 0.6988(4) 0.4664(4) -0.1294(3)
C1 C 0.7027(7) 0.2374(5) 0.0927(4)
H1 H 0.548(7) 0.171(6) -0.187(3)
H2 H 0.498(6) 0.283(4) -0.131(4)
H3 H 0.934(6) 0.053(7) -0.061(4)
H4 H 0.825(8) -0.039(6) -0.047(4)
H5 H 1.060(6) 0.209(4) -0.084(3)
H6 H 0.995(7) 0.308(6) -0.020(2)
H7 H 0.855(6) 0.300(4) -0.268(3)
H8 H 0.9867(18) 0.205(6) -0.241(4)
C2 C 0.5795(7) 0.2163(6) 0.1701(4)
O7 O 0.8376(4) 0.2467(4) 0.1043(3)
C3 C 0.4523(7) 0.3260(6) 0.1902(4)
C4 C 0.5903(7) 0.0856(6) 0.2185(4)
Co2 Co 0.94773(11) 0.32136(10) 0.20019(7)
C5 C 0.3359(6) 0.3038(6) 0.2619(4)
C6 C 0.4409(7) 0.4697(6) 0.1403(4)
C7 C 0.4724(7) 0.0657(6) 0.2889(4)
C8 C 0.7350(7) -0.0286(6) 0.2006(4)
O8 O 0.7670(5) 0.3141(5) 0.3050(3)
O9 O 0.8360(5) 0.5275(4) 0.1692(3)
O10 O 1.1232(5) 0.3460(4) 0.0946(3)
O11 O 1.0423(6) 0.1128(4) 0.2320(3)
O12 O 1.0643(5) 0.4134(4) 0.2820(3)
C9 C 0.3476(7) 0.1741(6) 0.3106(4)
C10 C 0.2028(7) 0.4230(6) 0.2902(4)
O13 O 0.5610(5) 0.5177(4) 0.1178(3)
C11 C 0.4812(7) -0.0758(6) 0.3425(4)
O14 O 0.7681(5) -0.0701(4) 0.1244(3)
O15 O 0.8144(5) -0.0709(4) 0.2633(3)
H9 H 0.696(6) 0.382(4) 0.325(4)
H10 H 0.763(7) 0.238(3) 0.338(3)
H11 H 0.740(3) 0.536(6) 0.159(4)
H12 H 0.840(6) 0.574(6) 0.213(3)
H13 H 1.162(6) 0.419(4) 0.101(4)
H14 H 1.196(5) 0.281(4) 0.072(4)
H15 H 1.079(7) 0.077(5) 0.280(2)
H16 H 1.072(7) 0.056(5) 0.191(2)
C12 C 0.2269(7) 0.1603(6) 0.3908(4)
O16 O 0.2367(5) 0.5223(4) 0.3249(3)
O17 O 0.4571(5) -0.0707(4) 0.4241(3)
O18 O 0.5141(5) -0.1849(4) 0.3014(3)
O19 O 0.2188(5) 0.2390(4) 0.4513(3)
O20 O 0.1381(5) 0.0712(4) 0.3901(3)
Co3 Co 0.00000 0.00000 0.50000
O21 O -0.0585(5) 0.1969(4) 0.5490(3)
O22 O -0.2047(5) 0.0458(5) 0.4254(3)
H17 H 0.032(3) 0.221(5) 0.545(4)
H18 H -0.132(4) 0.271(3) 0.554(4)
H19 H -0.289(5) 0.041(6) 0.462(3)
H20 H -0.197(6) -0.010(5) 0.384(3)
Co4 Co 0.50000 0.50000 0.50000
O23 O 0.2488(5) 0.5433(5) 0.5028(3)
H21 H 0.232(8) 0.482(5) 0.546(2)
H22 H 0.228(8) 0.516(6) 0.455(2)
O24 O 0.4984(5) 0.2994(4) 0.4729(3)
H23 H 0.521(6) 0.230(4) 0.511(3)
H24 H 0.415(5) 0.293(6) 0.452(4)
O25 O 0.4785(5) 0.4532(4) 0.6388(3)
H25 H 0.555(5) 0.472(5) 0.662(4)
H26 H 0.473(7) 0.365(2) 0.650(4)
O26 O 0.6415(6) -0.1419(6) -0.0192(3)
H27 H 0.660(7) -0.132(8) 0.0331(18)
H28 H 0.556(5) -0.175(7) -0.016(4)
O27 O 0.1460(6) 0.3682(5) 0.6341(3)
H29 H 0.214(7) 0.306(5) 0.659(4)
H30 H 0.114(7) 0.439(4) 0.666(3)
O6A O 0.3012(4) 0.5336(4) 0.1294(3)
O12* O 0.0643(5) 0.4134(4) 0.2820(3)
Co1A Co 0.22495(11) 0.75153(10) 0.10639(7)
Co2* Co -0.05227(11) 0.32136(10) 0.20019(7)
O20A O -0.1381(5) -0.0712(4) 0.6099(3)
O21A O 0.0585(5) -0.1969(4) 0.4510(3)
O22A O 0.2047(5) -0.0458(5) 0.5746(3)
C12A C -0.2269(7) -0.1603(6) 0.6092(4)
H17A H -0.032(3) -0.221(5) 0.455(4)
H18A H 0.132(4) -0.271(3) 0.446(4)
H19A H 0.289(5) -0.041(6) 0.538(3)
H20A H 0.197(6) 0.010(5) 0.616(3)
C9A C -0.3476(7) -0.1741(6) 0.6894(4)
O19A O -0.2188(5) -0.2390(4) 0.5487(3)
C5A C -0.3359(6) -0.3038(6) 0.7381(4)
C7A C -0.4724(7) -0.0657(6) 0.7111(4)
C3A C -0.4523(7) -0.3260(6) 0.8098(4)
C10A C -0.2028(7) -0.4230(6) 0.7098(4)
C4A C -0.5903(7) -0.0856(6) 0.7815(4)
C11A C -0.4812(7) 0.0758(6) 0.6575(4)
C2A C -0.5795(7) -0.2163(6) 0.8299(4)
C6A C -0.4409(7) -0.4697(6) 0.8597(4)
O16A O -0.2367(5) -0.5223(4) 0.6751(3)
O12A O -0.0643(5) -0.4134(4) 0.7180(3)
C8A C -0.7350(7) 0.0286(6) 0.7994(4)
O17A O -0.4571(5) 0.0707(4) 0.5759(3)
O18A O -0.5141(5) 0.1849(4) 0.6986(3)
C1A C -0.7027(7) -0.2374(5) 0.9073(4)
O13A O -0.5610(5) -0.5177(4) 0.8822(3)
O6* O -0.3012(4) -0.5336(4) 0.8706(3)
Co2A Co 0.05227(11) -0.32136(10) 0.79981(7)
O14A O -0.7681(5) 0.0701(4) 0.8756(3)
O15A O -0.8144(5) 0.0709(4) 0.7367(3)
O1A O -0.6548(5) -0.2414(4) 0.9816(3)
O7A O -0.8376(4) -0.2467(4) 0.8957(3)
Co1* Co -0.22495(11) -0.75153(10) 0.89361(7)
Co1A* Co -0.77505(11) -0.24847(10) 1.10639(7)
Co2A* Co -0.94773(11) -0.32136(10) 0.79981(7)
O2A O -0.5648(6) -0.2068(5) 1.1409(3)
O3A O -0.8576(6) -0.0274(5) 1.0808(4)
O4A O -0.9896(5) -0.2821(5) 1.0713(3)
O5A O -0.8855(5) -0.2278(4) 1.2340(3)
O6A* O -0.6988(4) -0.4664(4) 1.1294(3)
O8A O -0.7670(5) -0.3141(5) 0.6950(3)
O9A O -0.8360(5) -0.5275(4) 0.8308(3)
O10A O -1.1232(5) -0.3460(4) 0.9054(3)
O11A O -1.0423(6) -0.1128(4) 0.7680(3)
O12A* O -1.0643(5) -0.4134(4) 0.7180(3)
H1A H -0.548(7) -0.171(6) 1.187(3)
H2A H -0.498(6) -0.283(4) 1.131(4)
H3A H -0.934(6) -0.053(7) 1.061(4)
H4A H -0.825(8) 0.039(6) 1.047(4)
H5A H -1.060(6) -0.209(4) 1.084(3)
H6A H -0.995(7) -0.308(6) 1.020(2)
H7A H -0.855(6) -0.300(4) 1.268(3)
H8A H -0.9867(18) -0.205(6) 1.241(4)
H9A H -0.696(6) -0.382(4) 0.675(4)
H10A H -0.763(7) -0.238(3) 0.662(3)
H11A H -0.740(3) -0.536(6) 0.841(4)
H12A H -0.840(6) -0.574(6) 0.787(3)
H13A H -1.162(6) -0.419(4) 0.899(4)
H14A H -1.196(5) -0.281(4) 0.928(4)
H15A H -1.079(7) -0.077(5) 0.720(2)
H16A H -1.072(7) -0.056(5) 0.809(2)
O23A O 0.7512(5) 0.4567(5) 0.4972(3)
H21A H 0.768(8) 0.518(5) 0.454(2)
H22A H 0.772(8) 0.484(6) 0.545(2)
O24A O 0.5016(5) 0.7006(4) 0.5271(3)
H23A H 0.479(6) 0.770(4) 0.489(3)
H24A H 0.585(5) 0.707(6) 0.548(4)
O25A O 0.5215(5) 0.5468(4) 0.3612(3)
H25A H 0.445(5) 0.528(5) 0.338(4)
H26A H 0.527(7) 0.635(2) 0.350(4)
#END
