
#######################################################################
#
#                 Cambridge Crystallographic Data Centre
#                                CCDC
#
#######################################################################
#
# If this CIF has been generated from an entry in the Cambridge
# Structural Database, then it will include bibliographic, chemical,
# crystal, experimental, refinement or atomic coordinate data resulting
# from the CCDC's data processing and validation procedures.
#
#######################################################################

data_CSD_CIF_DOWNAG
_audit_creation_date 2015-03-02
_audit_creation_method CSD-ConQuest-V1
_database_code_CSD DOWNAG
_database_code_depnum_ccdc_archive 'CCDC 970132'
_chemical_formula_sum 'C10 H12 Cu1 Mo4 N3 O13'
_chemical_formula_moiety
;
(C10 H8 Cu1 Mo4 N2 O13 1-)n,n(H4 N1 1+)
;
_journal_coden_Cambridge 222
_journal_volume 44
_journal_year 2015
_journal_page_first 6089
_journal_name_full 'Dalton Trans. '
loop_
_publ_author_name
"M.Najafi"
"A.Abbasi"
"M.Masteri-Farahani"
"Jan Janczak"
_chemical_name_systematic
;
catena-(Ammonium 
(\m~5~-oxo)-bis(\m~3~-oxo)-(\m~2~-4,4'-bipyridine)-tetrakis(\m~2~-oxo)-hexaoxo
-copper-tetra-molybdenum)
;
_cell_volume    950.962
_exptl_crystal_colour 'colorless'
_exptl_crystal_density_diffrn 2.786
_exptl_crystal_description 'parallelepiped'
_diffrn_ambient_temperature 295
_refine_special_details
;
The copper atom is present at half-occupancy.

;
#These two values have been output from a single CSD field.
_refine_ls_R_factor_gt 0.035
_refine_ls_wR_factor_gt 0.035
_symmetry_cell_setting triclinic
_symmetry_space_group_name_H-M 'P -1'
_symmetry_Int_Tables_number 2
loop_
_symmetry_equiv_pos_site_id
_symmetry_equiv_pos_as_xyz
1 x,y,z
2 -x,-y,-z
_cell_length_a 7.7964(5)
_cell_length_b 10.4432(5)
_cell_length_c 13.0463(10)
_cell_angle_alpha 100.635(5)
_cell_angle_beta 100.924(6)
_cell_angle_gamma 108.981(5)
_cell_formula_units_Z 2
loop_
_atom_type_symbol
_atom_type_radius_bond
C 0.68
H 0.23
Cu 1.32
Mo 1.54
N 0.68
O 0.68
loop_
_atom_site_label
_atom_site_type_symbol
_atom_site_fract_x
_atom_site_fract_y
_atom_site_fract_z
Cu1 Cu 0.2989(2) -0.16891(16) 0.06509(11)
N1 N 0.3251(8) -0.0022(8) 0.0546(4)
C1 C 0.2152(12) 0.0156(11) -0.0268(6)
H1 H 0.14090 -0.06290 -0.08390
C2 C 0.2025(11) 0.1392(12) -0.0334(6)
H2 H 0.12340 0.14470 -0.09400
C3 C 0.3104(9) 0.2613(10) 0.0527(5)
C4 C 0.4306(10) 0.2439(11) 0.1383(5)
H3 H 0.50780 0.32040 0.19630
C5 C 0.4334(10) 0.1142(12) 0.1358(5)
H4 H 0.51470 0.10470 0.19350
C6 C 0.2960(8) 0.3964(10) 0.0519(5)
C7 C 0.2213(10) 0.4278(10) -0.0438(5)
H5 H 0.17350 0.35900 -0.10940
C8 C 0.2193(9) 0.5576(10) -0.0401(5)
H6 H 0.17070 0.57620 -0.10410
N2 N 0.2847(8) 0.6607(8) 0.0523(5)
C9 C 0.3463(12) 0.6290(12) 0.1447(6)
H7 H 0.38340 0.69770 0.20970
C10 C 0.3570(11) 0.5030(13) 0.1479(6)
H8 H 0.40460 0.48760 0.21350
Mo1 Mo -0.04417(6) -0.24177(4) 0.67092(3)
Mo2 Mo 0.22505(5) 0.03354(4) 0.58778(3)
Mo3 Mo -0.08866(6) -0.29418(4) 0.41004(3)
Mo4 Mo 0.18650(5) -0.02013(4) 0.33246(3)
O1 O -0.0990(4) -0.1091(3) 0.5373(2)
O2 O 0.2022(4) -0.1046(3) 0.4579(2)
O3 O 0.2316(4) -0.0713(3) 0.6775(2)
O4 O 0.0170(4) -0.3240(3) 0.5440(3)
O5 O -0.2768(5) -0.3521(4) 0.6371(3)
O6 O -0.0643(5) -0.0763(3) 0.7484(2)
O7 O 0.0682(6) -0.2906(4) 0.7725(3)
O8 O 0.4496(4) 0.1487(3) 0.6132(3)
O9 O 0.1215(4) 0.1547(3) 0.6688(2)
O10 O -0.3205(5) -0.3992(4) 0.3859(3)
O11 O -0.0026(5) -0.3849(4) 0.3251(3)
O12 O 0.4125(4) 0.0965(4) 0.3698(3)
O13 O 0.1751(5) -0.1512(4) 0.2289(3)
N3 N 0.6413(7) 0.3628(5) 0.5088(4)
H9 H 0.564(7) 0.314(6) 0.540(5)
H10 H 0.554(7) 0.374(7) 0.463(4)
H11 H 0.694(9) 0.4535(12) 0.535(5)
H12 H 0.719(7) 0.330(7) 0.484(5)
Cu1* Cu 0.2989(2) 0.83109(16) 0.06509(11)
N2* N 0.2847(8) -0.3393(8) 0.0523(5)
Mo2A Mo -0.22505(5) -0.03354(4) 0.41222(3)
Mo3A Mo 0.08866(6) 0.29418(4) 0.58996(3)
Mo4A Mo -0.18650(5) 0.02013(4) 0.66754(3)
O1A O 0.0990(4) 0.1091(3) 0.4627(2)
O6A O 0.0643(5) 0.0763(3) 0.2516(2)
O9A O -0.1215(4) -0.1547(3) 0.3312(2)
#END
