
#######################################################################
#
#                 Cambridge Crystallographic Data Centre
#                                CCDC
#
#######################################################################
#
# If this CIF has been generated from an entry in the Cambridge
# Structural Database, then it will include bibliographic, chemical,
# crystal, experimental, refinement or atomic coordinate data resulting
# from the CCDC's data processing and validation procedures.
#
#######################################################################

data_CSD_CIF_DOYHUW
_audit_creation_date 2015-03-03
_audit_creation_method CSD-ConQuest-V1
_database_code_CSD DOYHUW
_database_code_depnum_ccdc_archive 'CCDC 1032831'
_chemical_formula_sum 'C56 H60 N4 O30 Zn4'
_chemical_formula_moiety
;
(C48 H20 O26 Zn4 4-)n,4(C2 H8 N1 1+),4(H2 O1)
;
_journal_coden_Cambridge 1147
_journal_volume 15
_journal_year 2015
_journal_page_first 1481
_journal_name_full 'Cryst.Growth Des. '
loop_
_publ_author_name
"Xiuyan Wan"
"Feilong Jiang"
"Lian Chen"
"Mingyan Wu"
"Mingjian Zhang"
"Jie Pan"
"Kongzhao Su"
"Yan Yang"
"Maochun Hong"
_chemical_name_systematic
;
catena-[tetrakis(diethylammonium) 
bis(\m-1,1':4',1''-terphenyl-2',3,3'',5,5',5''-hexacarboxylato)-tetra-zinc 
tetrahydrate]
;
_cell_volume   4212.155
_exptl_crystal_colour 'colorless'
_exptl_crystal_description 'block'
_diffrn_ambient_temperature 173
_refine_special_details
;
The SQUEEZE/PLATON program has been used to model some disorder.

;
#These two values have been output from a single CSD field.
_refine_ls_R_factor_gt 0.0575
_refine_ls_wR_factor_gt 0.0575
_symmetry_cell_setting triclinic
_symmetry_space_group_name_H-M 'P -1'
_symmetry_Int_Tables_number 2
loop_
_symmetry_equiv_pos_site_id
_symmetry_equiv_pos_as_xyz
1 x,y,z
2 -x,-y,-z
_cell_length_a 9.5137(3)
_cell_length_b 16.1134(4)
_cell_length_c 27.5845(7)
_cell_angle_alpha 91.802(2)
_cell_angle_beta 91.489(2)
_cell_angle_gamma 94.441(2)
_cell_formula_units_Z 2
loop_
_atom_type_symbol
_atom_type_radius_bond
C 0.68
H 0.23
O 0.68
Zn 1.22
loop_
_atom_site_label
_atom_site_type_symbol
_atom_site_fract_x
_atom_site_fract_y
_atom_site_fract_z
Zn1 Zn 0.97161(5) 1.01331(3) 0.15163(2)
Zn2 Zn 0.37893(5) 0.46171(3) 0.03075(2)
Zn3 Zn 0.12525(5) 1.04650(3) 0.47407(2)
Zn4 Zn 0.52723(5) 0.53236(3) 0.34459(2)
O1 O 0.4043(3) 0.59245(15) 0.30059(9)
O2 O 0.3014(3) 0.09479(15) 0.44689(9)
O3 O 0.5758(3) 0.63457(15) 0.01718(9)
O4 O 0.9463(3) 0.09313(16) 0.20771(10)
O5 O 1.2019(3) 0.41608(15) 0.05759(9)
O6 O 0.5432(3) 0.42824(16) 0.07127(9)
O7 O 0.4099(3) 0.57762(15) 0.06478(10)
O8 O 0.1036(3) 0.94803(17) 0.19152(10)
O9 O 0.5494(3) 0.42708(15) 0.30686(9)
O10 O 0.6968(3) 0.39143(16) 0.36534(9)
O11 O 0.8422(3) 0.14432(16) 0.14463(9)
O12 O 0.7154(3) 0.48034(16) 0.02428(9)
O13 O 0.2605(3) 0.20671(16) 0.40403(10)
O14 O -0.0926(4) 0.87055(19) 0.46977(11)
O15 O 0.41472(11) 0.49200(7) 0.40214(4)
H1 H 0.47050 0.47740 0.42560
H2 H 0.35710 0.44870 0.39370
O16 O 0.78377(16) 0.02565(9) 0.47753(6)
O17 O 0.79182(13) 0.94879(6) 0.14784(4)
O18 O 0.95853(16) 0.09179(9) 0.43989(6)
O19 O 1.12139(13) 1.03816(7) 0.10511(4)
H3 H 1.20270 1.01370 0.10330
H4 H 1.12000 1.07590 0.08200
O20 O -0.33693(10) 0.61560(7) 0.38321(4)
O21 O 0.23804(11) 0.90137(7) 0.13301(4)
O22 O 0.83805(12) 0.90373(6) 0.07329(4)
C1 C 0.08975(12) 0.81644(6) 0.36212(4)
H5 H 0.16320 0.86000 0.36390
C2 C 0.8152(4) 0.2098(2) 0.22308(12)
O23 O -0.2681(3) 0.58713(19) 0.30955(11)
C3 C 0.8702(4) 0.1462(2) 0.18901(13)
C4 C 0.1609(4) 0.8249(2) 0.25139(14)
H6 H 0.08670 0.85980 0.25730
O24 O 0.3307(3) 0.67635(19) 0.3589(1)
C5 C 0.8321(4) 0.0752(2) 0.44802(12)
C6 C 0.7313(4) 0.3438(2) 0.24281(13)
H7 H 0.71630 0.39890 0.23370
C7 C 0.6438(4) 0.3832(2) 0.32376(14)
C8 C 0.7794(4) 0.1855(2) 0.26944(13)
H8 H 0.79680 0.13080 0.27870
C9 C 0.8341(4) 0.32450(19) 0.16145(12)
C10 C 0.3379(4) 0.1535(2) 0.41934(12)
C11 C 0.7272(4) 0.1191(2) 0.41875(12)
O25 O 1.2499(3) 0.32219(18) 0.11322(10)
C12 C 0.5874(4) 0.1154(2) 0.43110(12)
H9 H 0.55700 0.08330 0.45780
O26 O 0.0789(4) 0.9403(2) 0.43218(13)
C13 C 0.3003(4) 0.7151(2) 0.27762(13)
C14 C 0.7192(4) 0.2374(2) 0.30268(13)
C15 C 0.2369(4) 0.8359(2) 0.20964(13)
C16 C 1.1693(4) 0.3662(2) 0.09127(13)
C17 C 0.9728(4) 0.3243(2) 0.14692(12)
H10 H 1.03890 0.29730 0.16600
C18 C 0.7906(3) 0.2909(2) 0.20932(12)
C19 C 0.3463(4) 0.7838(2) 0.20119(13)
C20 C 0.3477(4) 0.6569(2) 0.31564(13)
C21 C 0.5100(4) 0.7122(2) 0.08613(13)
C22 C 0.0869(4) 0.7558(2) 0.32519(13)
C23 C 0.6709(4) 0.43961(19) 0.05946(12)
C24 C 0.7696(4) 0.1620(2) 0.37761(12)
H11 H 0.86530 0.16350 0.36840
C25 C 0.6931(4) 0.3193(2) 0.28908(13)
C26 C 0.7647(5) 0.9019(2) 0.11010(14)
C27 C 1.0165(4) 0.3633(2) 0.10474(13)
C28 C 0.7771(4) 0.3994(2) 0.08987(12)
C29 C 0.4899(4) 0.1580(2) 0.40495(13)
C30 C 0.1878(4) 0.7655(2) 0.28502(13)
C31 C 0.9173(4) 0.4018(2) 0.07677(12)
H12 H 0.94600 0.42990 0.04850
C32 C 0.6734(4) 0.2026(2) 0.35002(13)
C33 C -0.1245(4) 0.7511(2) 0.39337(13)
H13 H -0.19710 0.74970 0.41640
C34 C 0.4210(4) 0.7178(2) 0.12460(13)
H14 H 0.34830 0.67500 0.12880
C35 C 0.6202(4) 0.7739(2) 0.08004(13)
H15 H 0.68160 0.76980 0.05360
C36 C 0.7349(4) 0.3606(2) 0.13267(12)
H16 H 0.63920 0.35910 0.14190
C37 C 0.4967(4) 0.6353(2) 0.05344(13)
C38 C -0.0089(4) 0.8815(2) 0.43612(13)
C39 C -0.0155(4) 0.8136(2) 0.39679(13)
C40 C 0.3763(4) 0.7251(2) 0.23553(13)
H17 H 0.45140 0.69080 0.22990
C41 C 0.6384(4) 0.8416(2) 0.11338(14)
C42 C 0.5450(4) 0.8468(2) 0.15170(14)
H18 H 0.55630 0.89300 0.17410
C43 C 0.5339(4) 0.2030(2) 0.36475(13)
H19 H 0.46900 0.23380 0.34750
C44 C -0.0208(4) 0.6934(2) 0.32265(14)
H20 H -0.02210 0.65160 0.29750
C45 C -0.2507(4) 0.6263(2) 0.34867(15)
C46 C -0.1274(4) 0.6905(2) 0.35615(14)
C47 C 0.4368(4) 0.7859(2) 0.15751(14)
C48 C 0.1916(4) 0.8994(2) 0.17470(14)
Zn1* Zn -0.02839(5) 1.01331(3) 0.15163(2)
Zn1** Zn 0.97161(5) 0.01331(3) 0.15163(2)
Zn2* Zn 1.37893(5) 0.46171(3) 0.03075(2)
Zn2A Zn 0.62107(5) 0.53829(3) -0.03075(2)
Zn3* Zn 0.12525(5) 0.04650(3) 0.47407(2)
Zn3** Zn 1.12525(5) 0.04650(3) 0.47407(2)
Zn3A Zn -0.12525(5) 0.95350(3) 0.52593(2)
Zn3A* Zn 0.87475(5) -0.04650(3) 0.52593(2)
Zn4* Zn -0.47277(5) 0.53236(3) 0.34459(2)
O2* O 0.3014(3) 1.09479(15) 0.44689(9)
O3A O 0.4242(3) 0.36543(15) -0.01718(9)
O4* O 0.9463(3) 1.09313(16) 0.20771(10)
O5* O 0.2019(3) 0.41608(15) 0.05759(9)
O8* O 1.1036(3) 0.94803(17) 0.19152(10)
O11* O 0.8422(3) 1.14432(16) 0.14463(9)
O12A O 0.2846(3) 0.51966(16) -0.02428(9)
O14A O 0.0926(4) 1.12945(19) 0.53023(11)
O16A O 0.21623(16) 0.97435(9) 0.52247(6)
O18* O -0.04147(16) 1.09179(9) 0.43989(6)
O20* O 0.66307(10) 0.61560(7) 0.38321(4)
O23* O 0.7319(3) 0.58713(19) 0.30955(11)
#END
