
#######################################################################
#
#                 Cambridge Crystallographic Data Centre
#                                CCDC
#
#######################################################################
#
# If this CIF has been generated from an entry in the Cambridge
# Structural Database, then it will include bibliographic, chemical,
# crystal, experimental, refinement or atomic coordinate data resulting
# from the CCDC's data processing and validation procedures.
#
#######################################################################

data_CSD_CIF_DOYHOQ
_audit_creation_date 2015-03-03
_audit_creation_method CSD-ConQuest-V1
_database_code_CSD DOYHOQ
_database_code_depnum_ccdc_archive 'CCDC 1032830'
_chemical_formula_sum 'C84 H78 N4 O42 Zn6'
_chemical_formula_moiety
;
(C72 H30 O38 Zn6 4-)n,2(C2 H6 O1),2(H2 O1),4(C2 H8 N1 1+)
;
_journal_coden_Cambridge 1147
_journal_volume 15
_journal_year 2015
_journal_page_first 1481
_journal_name_full 'Cryst.Growth Des. '
loop_
_publ_author_name
"Xiuyan Wan"
"Feilong Jiang"
"Lian Chen"
"Mingyan Wu"
"Mingjian Zhang"
"Jie Pan"
"Kongzhao Su"
"Yan Yang"
"Maochun Hong"
_chemical_name_systematic
;
catena-[tetrakis(diethylammonium) 
bis(\m-1,1':4',1''-terphenyl-2',3,3'',5,5',5''-hexacarboxylato)-(\m-2',5'-dica
rboxy-1,1':4',1''-terphenyl-3,3'',5,5''-tetracarboxylato)-hexa-zinc ethanol 
solvate unknown solvate dihydrate]
;
_cell_volume   3123.626
_exptl_crystal_colour 'colorless'
_exptl_crystal_description 'prism'
_diffrn_ambient_temperature 100
_refine_special_details
;
The SQUEEZE/PLATON program has been used to model some disorder.

;
#These two values have been output from a single CSD field.
_refine_ls_R_factor_gt 0.0918
_refine_ls_wR_factor_gt 0.0918
_symmetry_cell_setting triclinic
_symmetry_space_group_name_H-M 'P -1'
_symmetry_Int_Tables_number 2
loop_
_symmetry_equiv_pos_site_id
_symmetry_equiv_pos_as_xyz
1 x,y,z
2 -x,-y,-z
_cell_length_a 12.4752(7)
_cell_length_b 15.3763(9)
_cell_length_c 17.9551(12)
_cell_angle_alpha 69.517(6)
_cell_angle_beta 75.565(5)
_cell_angle_gamma 86.284(5)
_cell_formula_units_Z 1
loop_
_atom_type_symbol
_atom_type_radius_bond
C 0.68
H 0.23
O 0.68
Zn 1.22
loop_
_atom_site_label
_atom_site_type_symbol
_atom_site_fract_x
_atom_site_fract_y
_atom_site_fract_z
Zn1 Zn 1.00627(4) 0.23868(4) 0.34808(4)
Zn2 Zn 1.12737(4) 0.41399(4) 0.16799(4)
Zn3 Zn 0.82217(5) 0.96157(4) 0.18856(4)
O1 O 0.1701(2) 1.2466(2) 0.3007(2)
O2 O 0.2570(2) 1.3401(2) 0.17599(19)
O3 O 1.0123(3) 1.3327(3) 0.1683(3)
O4 O 0.8614(3) 1.4966(3) -0.0604(2)
O5 O -0.0187(3) 0.8458(2) 0.5432(2)
O6 O 0.9211(3) 1.2200(2) 0.2763(2)
O7 O 0.6994(3) 1.0458(2) 0.1705(2)
O8 O 0.1583(4) 0.8422(3) 0.5404(3)
O9 O 0.7305(3) 1.4331(3) -0.0882(2)
O10 O 0.7862(3) 0.8278(2) 0.2244(3)
O11 O 0.6408(3) 0.9694(3) 0.3034(2)
O12 O -0.1062(3) 0.9815(3) 0.2660(3)
O13 O 0.9525(3) 0.3601(2) 0.3569(3)
O14 O 1.0620(3) 0.4690(3) 0.2512(3)
C1 C 0.3486(3) 1.2047(3) 0.2397(3)
C2 C 0.2027(4) 0.9934(3) 0.3928(3)
H1 H 0.25480 0.98100 0.42560
O15 O 0.9106(5) 0.9983(4) 0.0724(4)
O16 O 0.9688(4) 0.8029(3) 0.2088(3)
C3 C 0.8421(3) 1.2818(3) 0.1616(3)
C4 C 0.2283(4) 1.0589(3) 0.3145(3)
C5 C 0.3370(3) 1.1093(3) 0.2797(2)
C6 C 0.6591(3) 1.2443(3) 0.1592(3)
C7 C 0.7449(3) 1.2295(3) 0.1987(3)
H2 H 0.73660 1.18330 0.25150
C8 C 0.4534(3) 1.2468(3) 0.2008(3)
H3 H 0.45980 1.31220 0.17360
C9 C 0.0536(4) 1.0194(4) 0.2953(3)
C10 C 0.5483(3) 1.1944(3) 0.2012(3)
C11 C 0.9314(4) 1.2761(3) 0.2052(3)
C12 C 0.1004(4) 0.9450(3) 0.4239(3)
C13 C 0.4326(4) 1.0567(3) 0.2811(3)
H4 H 0.42570 0.99160 0.30950
C14 C 0.5377(4) 1.0970(3) 0.2422(3)
C15 C 0.9756(5) 0.4433(4) 0.3084(4)
C16 C 0.2501(3) 1.2665(3) 0.2395(3)
C17 C 0.6310(3) 1.0334(3) 0.2395(3)
C18 C 0.6743(3) 1.3088(3) 0.0813(3)
H5 H 0.61600 1.31770 0.05420
C19 C 0.8560(4) 1.3490(3) 0.0827(3)
H6 H 0.92220 1.38590 0.05790
C20 C 0.0279(4) 0.9582(3) 0.3757(3)
H7 H -0.04120 0.92510 0.39720
C21 C 0.7718(4) 1.3616(3) 0.0408(3)
C22 C 0.0784(5) 0.8737(3) 0.5083(3)
C23 C 0.8958(4) 0.5173(4) 0.3209(4)
C24 C 0.1537(4) 1.0710(3) 0.2644(3)
H8 H 0.17120 1.11400 0.20990
C25 C 0.7865(4) 1.4342(4) -0.0422(3)
C26 C 0.5052(4) 0.5647(4) 0.4249(4)
C27 C -0.0176(4) 1.0285(5) 0.2369(4)
C28 C 0.9203(4) 0.6095(4) 0.2733(4)
H9 H 0.98980 0.62730 0.23500
C29 C 0.8420(4) 0.6757(4) 0.2823(4)
C30 C 0.6035(4) 0.5296(4) 0.4431(3)
C31 C 0.7387(4) 0.6502(4) 0.3347(3)
H10 H 0.68490 0.69630 0.33750
C32 C 0.7914(5) 0.4900(4) 0.3773(4)
H11 H 0.77530 0.42670 0.41040
C33 C 0.7119(4) 0.5581(4) 0.3835(4)
C34 C 0.8703(5) 0.7769(4) 0.2333(4)
C35 C 0.4036(5) 0.5370(4) 0.4794(4)
H12 H 0.33800 0.56350 0.46400
O17 O 0.0169(5) 1.0777(5) 0.1638(3)
O18 O 0.5221(8) 0.6270(7) 0.2821(6)
O19 O 0.4292(10) 0.7169(8) 0.3499(8)
C36 C 0.4827(8) 0.6419(7) 0.3491(6)
O10A O 0.2138(3) 0.1722(2) 0.7756(3)
O13A O 0.0475(3) 0.6399(2) 0.6431(3)
O14A O -0.0620(3) 0.5310(3) 0.7488(3)
O16A O 0.0312(4) 0.1971(3) 0.7912(3)
C15A C 0.0244(5) 0.5567(4) 0.6916(4)
C23A C 0.1042(4) 0.4827(4) 0.6791(4)
C26A C 0.4948(4) 0.4353(4) 0.5751(4)
C28A C 0.0797(4) 0.3905(4) 0.7267(4)
H9A H 0.01020 0.37270 0.76500
C29A C 0.1580(4) 0.3243(4) 0.7177(4)
C30A C 0.3965(4) 0.4704(4) 0.5569(3)
C31A C 0.2613(4) 0.3498(4) 0.6653(3)
H10A H 0.31510 0.30370 0.66250
C32A C 0.2086(5) 0.5100(4) 0.6227(4)
H11A H 0.22470 0.57330 0.58960
C33A C 0.2881(4) 0.4419(4) 0.6165(4)
C34A C 0.1297(5) 0.2231(4) 0.7667(4)
C35A C 0.5964(5) 0.4630(4) 0.5206(4)
H12A H 0.66200 0.43650 0.53600
O18A O 0.4779(8) 0.3730(7) 0.7179(6)
O19A O 0.5708(10) 0.2831(8) 0.6501(8)
C36A C 0.5173(8) 0.3581(7) 0.6509(6)
Zn1A Zn -0.00627(4) 0.76132(4) 0.65192(4)
Zn2A Zn -0.12737(4) 0.58601(4) 0.83201(4)
Zn3A Zn 0.17783(5) 0.03843(4) 0.81144(4)
O1A O 0.8299(2) -0.2466(2) 0.6993(2)
O2A O 0.7430(2) -0.3401(2) 0.82401(19)
O3A O -0.0123(3) -0.3327(3) 0.8317(3)
O4A O 0.1386(3) -0.4966(3) 1.0604(2)
O5A O 1.0187(3) 0.1542(2) 0.4568(2)
O6A O 0.0789(3) -0.2200(2) 0.7237(2)
O7A O 0.3006(3) -0.0458(2) 0.8295(2)
O8A O 0.8417(4) 0.1578(3) 0.4596(3)
O9A O 0.2695(3) -0.4331(3) 1.0882(2)
O11A O 0.3592(3) 0.0306(3) 0.6966(2)
O12A O 1.1062(3) 0.0185(3) 0.7340(3)
C1A C 0.6514(3) -0.2047(3) 0.7603(3)
C2A C 0.7973(4) 0.0066(3) 0.6072(3)
H1A H 0.74520 0.01900 0.57440
O15A O 0.0894(5) 0.0017(4) 0.9276(4)
C3A C 0.1579(3) -0.2818(3) 0.8384(3)
C4A C 0.7717(4) -0.0589(3) 0.6855(3)
C5A C 0.6630(3) -0.1093(3) 0.7203(2)
C6A C 0.3409(3) -0.2443(3) 0.8408(3)
C7A C 0.2551(3) -0.2295(3) 0.8013(3)
H2A H 0.26340 -0.18330 0.74850
C8A C 0.5466(3) -0.2468(3) 0.7992(3)
H3A H 0.54020 -0.31220 0.82640
C9A C 0.9464(4) -0.0194(4) 0.7047(3)
C10A C 0.4517(3) -0.1944(3) 0.7988(3)
C11A C 0.0686(4) -0.2761(3) 0.7948(3)
C12A C 0.8996(4) 0.0550(3) 0.5761(3)
C13A C 0.5674(4) -0.0567(3) 0.7189(3)
H4A H 0.57430 0.00840 0.69050
C14A C 0.4623(4) -0.0970(3) 0.7578(3)
C16A C 0.7499(3) -0.2665(3) 0.7605(3)
C17A C 0.3690(3) -0.0334(3) 0.7605(3)
C18A C 0.3257(3) -0.3088(3) 0.9187(3)
H5A H 0.38400 -0.31770 0.94580
C19A C 0.1440(4) -0.3490(3) 0.9173(3)
H6A H 0.07780 -0.38590 0.94210
C20A C 0.9721(4) 0.0418(3) 0.6243(3)
H7A H 1.04120 0.07490 0.60280
C21A C 0.2282(4) -0.3616(3) 0.9592(3)
C22A C 0.9216(5) 0.1263(3) 0.4917(3)
C24A C 0.8463(4) -0.0710(3) 0.7356(3)
H8A H 0.82880 -0.11400 0.79010
C25A C 0.2135(4) -0.4342(4) 1.0422(3)
C27A C 1.0176(4) -0.0285(5) 0.7631(4)
O17A O 0.9831(5) -0.0777(5) 0.8362(3)
Zn1* Zn 0.00627(4) 1.23868(4) 0.34808(4)
Zn1** Zn 1.00627(4) 1.23868(4) 0.34808(4)
Zn1A* Zn -0.00627(4) -0.23868(4) 0.65192(4)
Zn1A** Zn 0.99373(4) -0.23868(4) 0.65192(4)
Zn2* Zn 0.12737(4) -0.58601(4) 1.16799(4)
Zn2** Zn 0.12737(4) 1.41399(4) 0.16799(4)
Zn2*** Zn 1.12737(4) 1.41399(4) 0.16799(4)
Zn2A* Zn -0.12737(4) -0.41399(4) 0.83201(4)
Zn2A** Zn 0.87263(4) -0.41399(4) 0.83201(4)
Zn2A*** Zn 0.87263(4) 1.58601(4) -0.16799(4)
Zn3* Zn -0.17783(5) 0.96157(4) 0.18856(4)
Zn3A* Zn 1.17783(5) 0.03843(4) 0.81144(4)
O1* O 1.1701(2) 0.2466(2) 0.3007(2)
O1A* O -0.1701(2) 0.7534(2) 0.6993(2)
O2* O 1.2570(2) 0.3401(2) 0.17599(19)
O2A* O -0.2570(2) 0.6599(2) 0.82401(19)
O3* O 1.0123(3) 0.3327(3) 0.1683(3)
O3A* O -0.0123(3) 0.6673(3) 0.8317(3)
O4* O -0.1386(3) 0.4966(3) 0.9396(2)
O4A* O 1.1386(3) 0.5034(3) 0.0604(2)
O6* O 0.9211(3) 0.2200(2) 0.2763(2)
O6A* O 0.0789(3) 0.7800(2) 0.7237(2)
O12* O 0.8938(3) 0.9815(3) 0.2660(3)
O12A* O 0.1062(3) 0.0185(3) 0.7340(3)
#END
