
#######################################################################
#
#                 Cambridge Crystallographic Data Centre
#                                CCDC
#
#######################################################################
#
# If this CIF has been generated from an entry in the Cambridge
# Structural Database, then it will include bibliographic, chemical,
# crystal, experimental, refinement or atomic coordinate data resulting
# from the CCDC's data processing and validation procedures.
#
#######################################################################

data_CSD_CIF_DOZHIM
_audit_creation_date 2019-12-10
_audit_creation_method CSD-ConQuest-V1
_database_code_CSD DOZHIM
_database_code_depnum_ccdc_archive 'CCDC 1912680'
_chemical_formula_sum 'C40 H60 Cu4 N16 O28 V10'
_chemical_formula_moiety
;
(O26 V10 4-)n,4n(C10 H14 Cu1 N4 1+),2n(H2 O1)
;
_journal_coden_Cambridge 1048
_journal_volume 22
_journal_year 2020
_journal_page_first 248
_journal_name_full 'Green Chemistry '
loop_
_publ_author_name
"Hong-Rui Tian"
"Yi-Wei Liu"
"Zhong Zhang"
"Shu-Mei Liu"
"Tian-Yi Dang"
"Xiao-Hui Li"
"Xiu-Wei Sun"
"Ying Lu"
"Shu-Xia Liu"
_chemical_name_systematic
;
catena-[tetrakis(\m-1-[4-(1H-imidazol-1-yl)butyl]-1H-imidazole)-copper(i) 
hexadecakis(\m-oxido)-decakis(oxido)-octa-vanadium(v)-di-vanadium(iv) 
dihydrate]
;
_cell_volume   6811.641
_exptl_crystal_colour 'dark black'
_exptl_crystal_density_diffrn 1.927
_exptl_crystal_description 'plate'
_diffrn_ambient_temperature 294.9
_refine_special_details
;
C11A,C13A,C14A,C15A,C16A,C17A,C18B,C19B,C20A,Cu3,N5A,N6A,N7A,N8A and 
C11,C13,C14,C15,C16,C17,C18A,C19A,C20,Cu2,N5,N6,N7,N8 disordered over two 
sites with occupancies 0.501:0.499.
;
#These two values have been output from a single CSD field.
_refine_ls_R_factor_gt 0.0455
_refine_ls_wR_factor_gt 0.0455
_symmetry_cell_setting monoclinic
_symmetry_space_group_name_H-M 'C 2/c'
_symmetry_Int_Tables_number 15
loop_
_symmetry_equiv_pos_site_id
_symmetry_equiv_pos_as_xyz
1 x,y,z
2 -x,y,1/2-z
3 1/2+x,1/2+y,z
4 1/2-x,1/2+y,1/2-z
5 -x,-y,-z
6 x,-y,-1/2+z
7 -1/2-x,-1/2-y,-z
8 -1/2+x,-1/2-y,-1/2+z
_cell_length_a 22.7662(11)
_cell_length_b 12.1453(5)
_cell_length_c 24.9282(11)
_cell_angle_alpha 90
_cell_angle_beta 98.796(2)
_cell_angle_gamma 90
_cell_formula_units_Z 4
loop_
_atom_type_symbol
_atom_type_radius_bond
C 0.68
H 0.23
Cu 1.32
N 0.68
O 0.68
V 1.53
loop_
_atom_site_label
_atom_site_type_symbol
_atom_site_fract_x
_atom_site_fract_y
_atom_site_fract_z
Cu1 Cu 1.01212(3) 0.30180(5) 0.81209(3)
N1 N 0.59342(15) -0.1907(3) 0.81037(15)
N2 N 0.68081(17) -0.1134(3) 0.81371(17)
N3 N 0.93311(16) 0.3037(3) 0.82427(16)
N4 N 0.84765(17) 0.2470(3) 0.84326(18)
C1 C 0.7251(2) -0.0246(5) 0.8149(2)
H1 H 0.74800 -0.03580 0.78560
H2 H 0.70470 0.04540 0.80890
C2 C 0.7658(3) -0.0204(5) 0.8667(2)
H3 H 0.78080 -0.09370 0.87610
H4 H 0.74420 0.00460 0.89510
C3 C 0.8407(2) 0.3551(4) 0.8288(2)
H5 H 0.80620 0.39690 0.82710
C4 C 0.8183(3) 0.0578(5) 0.8631(3)
H6 H 0.84700 0.05060 0.89600
H7 H 0.83770 0.03590 0.83280
C5 C 0.8001(3) 0.1740(5) 0.8563(4)
H8 H 0.76640 0.17910 0.82740
H9 H 0.78730 0.19960 0.88950
C6 C 0.6240(2) -0.0974(4) 0.81769(19)
H10 H 0.60770 -0.02960 0.82470
C7 C 0.6333(2) -0.2694(4) 0.8009(2)
H11 H 0.62450 -0.34320 0.79370
C8 C 0.9038(2) 0.2193(4) 0.8401(2)
H12 H 0.92000 0.14980 0.84790
C9 C 0.8942(2) 0.3895(4) 0.81742(19)
H13 H 0.90280 0.46020 0.80670
C10 C 0.6877(2) -0.2232(4) 0.8034(2)
H14 H 0.72280 -0.25880 0.79910
V1 V 0.88508(3) -0.27207(6) 0.82154(3)
V2 V 0.98670(4) -0.10543(7) 0.88193(3)
V3 V 0.90345(3) -0.26750(6) 0.63400(3)
V4 V 1.00000 -0.00375(8) 0.75000
V5 V 0.85091(3) -0.10737(6) 0.71841(3)
V6 V 1.00000 -0.37315(8) 0.75000
O1 O 0.99245(17) -0.0459(4) 0.82311(16)
O2 O 0.98151(19) -0.0125(3) 0.92656(18)
O3 O 1.05245(15) -0.1855(3) 0.90540(13)
O4 O 0.92165(15) -0.1888(3) 0.87582(14)
O5 O 0.91787(15) -0.0478(3) 0.73248(15)
O6 O 0.83592(14) -0.1901(3) 0.77430(14)
O7 O 0.87012(18) -0.3619(3) 0.59623(17)
O8 O 0.94700(16) -0.3271(4) 0.68600(15)
O9 O 0.84709(14) -0.1876(3) 0.65778(13)
O10 O 0.93578(15) -0.3349(3) 0.78977(14)
O11 O 0.84669(17) -0.3632(3) 0.84728(16)
O12 O 0.80096(14) -0.0136(3) 0.70779(14)
O13 O 1.00000 0.1262(4) 0.75000
O14 O 1.00000 -0.5035(4) 0.75000
Cu2 Cu 1.37612(9) -0.0298(4) 0.93537(13)
C11 C 1.0595(3) 0.4405(5) 0.9384(2)
H15 H 1.09780 0.45900 0.93280
C12 C 1.2150(6) -0.0488(14) 0.9827(6)
H16 H 1.18760 -0.06890 1.00500
N5 N 1.2968(5) -0.0168(13) 0.9474(5)
C13 C 1.2530(5) 0.0323(12) 0.9174(5)
H17 H 1.25570 0.07730 0.88770
C14 C 1.2739(6) -0.0684(14) 0.9877(5)
H18 H 1.29550 -0.11110 1.01470
N6 N 1.2074(6) 0.0087(10) 0.9355(5)
C15 C 1.1451(6) 0.0575(11) 0.9150(5)
H19 H 1.11330 0.00350 0.91100
H20 H 1.14340 0.10220 0.88250
C16 C 1.1506(6) 0.1267(9) 0.9694(5)
H21 H 1.14160 0.08440 1.00020
H22 H 1.18840 0.16420 0.97840
C17 C 1.1026(6) 0.1986(11) 0.9461(5)
H23 H 1.06800 0.15470 0.93220
H24 H 1.11450 0.23930 0.91610
C18 C 1.0867(7) 0.2781(12) 0.9882(5)
H25 H 1.07180 0.23760 1.01680
H26 H 1.12200 0.31790 1.00420
N7 N 1.0419(6) 0.3559(10) 0.9639(5)
C19 C 0.9838(9) 0.3586(15) 0.9660(8)
H27 H 0.96400 0.30700 0.98420
C20 C 1.0022(7) 0.5005(12) 0.9205(7)
H28 H 0.99760 0.56510 0.90020
N8 N 0.9578(5) 0.4432(10) 0.9392(5)
O15 O 1.0910(2) 0.8661(5) 1.01861(18)
H29 H 1.07320 0.84200 0.98850
H30 H 1.08900 0.93600 1.01890
Cu3? Cu 1.39196(10) -0.1040(3) 0.95121(9)
N9? N 1.3105(5) -0.0888(10) 0.9543(4)
C21? C 1.2750(8) -0.0186(14) 0.9285(6)
H31? H 1.28400 0.02920 0.90180
N10? N 1.2183(7) -0.0261(13) 0.9478(7)
C22? C 1.2238(7) -0.1053(13) 0.9819(6)
H32? H 1.19360 -0.13150 0.99980
C23? C 1.2792(6) -0.1452(13) 0.9884(5)
H33? H 1.29400 -0.20150 1.01200
N11? N 0.9720(6) 0.3929(12) 0.9531(6)
H34? H 1.09020 0.47530 0.92430
C24? C 1.0062(8) 0.4577(11) 0.9242(7)
H35? H 0.99090 0.50770 0.89740
N12? N 1.0673(5) 0.3555(10) 0.9817(5)
C25? C 1.1213(6) 0.3022(11) 1.0112(6)
H36? H 1.11100 0.26360 1.04250
H37? H 1.15010 0.35870 1.02430
C26? C 1.1716(9) 0.0424(12) 0.9266(6)
H38? H 1.14620 -0.00850 0.90380
H39? H 1.19020 0.08650 0.90140
C27? C 1.1172(8) 0.1389(17) 0.9456(8)
H40? H 1.09370 0.16990 0.91340
H41? H 1.09060 0.10170 0.96660
C28? C 1.1491(8) 0.2233(16) 0.9771(8)
H42? H 1.16810 0.26730 0.95220
H43? H 1.18080 0.18710 1.00110
C29? C 1.0102(7) 0.3306(11) 0.9859(6)
H44? H 0.99900 0.27670 1.00880
Cu1B Cu 0.51212(3) -0.19820(5) 0.81209(3)
N1B N 1.09342(15) 0.3093(3) 0.81037(15)
V1A V 1.11492(3) -0.27207(6) 0.67846(3)
V2A V 1.01330(4) -0.10543(7) 0.61807(3)
V3A V 1.09655(3) -0.26750(6) 0.86600(3)
V5A V 1.14909(3) -0.10737(6) 0.78159(3)
O1A O 1.00755(17) -0.0459(4) 0.67689(16)
O2A O 1.01849(19) -0.0125(3) 0.57344(18)
O3A O 0.94755(15) -0.1855(3) 0.59460(13)
O4A O 1.07835(15) -0.1888(3) 0.62418(14)
O5A O 1.08213(15) -0.0478(3) 0.76752(15)
O6A O 1.16408(14) -0.1901(3) 0.72570(14)
O7A O 1.12988(18) -0.3619(3) 0.90377(17)
O8A O 1.05300(16) -0.3271(4) 0.81400(15)
O9A O 1.15291(14) -0.1876(3) 0.84222(13)
O10A O 1.06422(15) -0.3349(3) 0.71023(14)
O11A O 1.15331(17) -0.3632(3) 0.65272(16)
O12A O 1.19904(14) -0.0136(3) 0.79221(14)
Cu2B Cu 0.87612(9) 0.4702(4) 0.93537(13)
N8B N 1.4578(5) -0.0568(10) 0.9392(5)
#END
