
#######################################################################
#
#                 Cambridge Crystallographic Data Centre
#                                CCDC
#
#######################################################################
#
# If this CIF has been generated from an entry in the Cambridge
# Structural Database, then it will include bibliographic, chemical,
# crystal, experimental, refinement or atomic coordinate data resulting
# from the CCDC's data processing and validation procedures.
#
#######################################################################

data_CSD_CIF_DUBBEI
_audit_creation_date 2009-10-09
_audit_creation_method CSD-ConQuest-V1
_database_code_CSD DUBBEI
_database_code_depnum_ccdc_archive 'CCDC 695763'
_chemical_formula_sum 'C42 H84 Er6 N8 O70 P4'
_chemical_formula_moiety
;
(C22 H8 Er6 O60 P4 8-)n,2n(C10 H28 N4 4+),10n(H2 O1)
;
_journal_coden_Cambridge 9
_journal_volume 48
_journal_year 2009
_journal_page_first 1519
_journal_name_full 'Inorg.Chem. '
loop_
_publ_author_name
"Chih-Min Wang"
"Yi-Ying Wu"
"Chia-Hung Hou"
"Chii-Chang Chen"
"Kwang-Hwa Lii"
_chemical_name_systematic
;
catena-(bis(1,4-bis(3-Ammoniopropyl)piperazine-1,4-diium) 
tetrakis(\m~2~-dihydrogen 
phosphato-O,O')-nonakis(\m~2~-oxalato-O,O',O'',O''')-bis(\m~2~-oxalato-O,O')-h
exa-erbium decahydrate)
;
_cell_volume   3915.737
_exptl_crystal_colour 'pink'
_exptl_crystal_density_diffrn 2.501
_exptl_special_details
;
photoluminescent; magnetic properties
isostructural with the Tm, Yb and Lu analogues
;
_exptl_crystal_description 'block'
_diffrn_ambient_temperature 293
_refine_special_details
;
A N atom from the ammonium cation is disordered equally over two sites.

;
#These two values have been output from a single CSD field.
_refine_ls_R_factor_gt 0.0327
_refine_ls_wR_factor_gt 0.0327
_symmetry_cell_setting monoclinic
_symmetry_space_group_name_H-M 'P 21/c'
_symmetry_Int_Tables_number 14
loop_
_symmetry_equiv_pos_site_id
_symmetry_equiv_pos_as_xyz
1 x,y,z
2 -x,1/2+y,1/2-z
3 -x,-y,-z
4 x,-1/2-y,-1/2+z
_cell_length_a 8.5146(2)
_cell_length_b 16.2049(5)
_cell_length_c 28.5470(8)
_cell_angle_alpha 90
_cell_angle_beta 96.212(2)
_cell_angle_gamma 90
_cell_formula_units_Z 2
loop_
_atom_type_symbol
_atom_type_radius_bond
C 0.68
H 0.23
Er 1.85
N 0.68
O 0.68
P 1.05
loop_
_atom_site_label
_atom_site_type_symbol
_atom_site_fract_x
_atom_site_fract_y
_atom_site_fract_z
Er1 Er -0.17895(3) -0.712362(16) 0.332102(8)
Er2 Er 0.19001(3) -0.826660(15) 0.171270(8)
Er3 Er 0.45121(3) -0.808470(15) 0.496080(8)
P1 P 0.08046(16) -0.73130(9) 0.43704(5)
P2 P -0.43343(17) -0.74857(10) 0.22542(5)
O1 O -0.0681(4) -0.7387(3) 0.46420(13)
H1 H -0.06620 -0.72650 0.49790
O2 O 0.1379(5) -0.6383(2) 0.44180(15)
H2 H 0.10430 -0.59920 0.41830
O3 O 0.2117(4) -0.7853(2) 0.45876(14)
O4 O 0.0264(4) -0.7498(2) 0.38637(13)
O5 O 0.1191(4) -0.7134(2) 0.21684(13)
O6 O 0.0596(4) -0.8714(2) 0.23651(13)
O7 O -0.0270(4) -0.6720(2) 0.27293(14)
O8 O -0.0736(4) -0.8300(2) 0.29583(13)
O9 O -0.4217(4) -0.8617(2) 0.43204(14)
O10 O -0.4798(4) -0.7016(2) 0.44675(13)
O11 O -0.2941(5) -0.8262(2) 0.37027(13)
O12 O -0.3317(4) -0.6675(2) 0.39001(13)
O13 O -0.0461(4) -0.5859(2) 0.36399(14)
O14 O -0.3037(4) -0.5885(2) 0.30136(13)
O15 O -0.0461(4) -0.4470(2) 0.36119(14)
O16 O -0.3158(4) -0.4517(2) 0.30417(14)
O17 O -0.5747(4) -0.8021(2) 0.21318(14)
O18 O -0.3795(4) -0.7453(3) 0.27651(13)
O19 O -0.2883(5) -0.7752(3) 0.19963(14)
H3 H -0.32960 -0.76680 0.16840
O20 O -0.4777(5) -0.6579(3) 0.20731(15)
H4 H -0.58670 -0.66180 0.19250
O21 O 0.3757(4) -0.8095(2) 0.03549(13)
O22 O 0.3415(4) -0.6548(2) 0.06522(13)
O23 O 0.3073(4) -0.8577(2) 0.10391(13)
O24 O 0.2776(4) -0.7034(2) 0.13407(13)
O25 O -0.3506(5) -0.7509(3) 0.10901(14)
O26 O -0.0411(4) -0.7829(2) 0.13072(14)
O27 O -0.3132(4) -0.7401(2) 0.03360(14)
O28 O -0.0061(5) -0.7788(3) 0.05475(15)
O29 O 0.6144(4) -0.9226(2) 0.52869(14)
O30 O 0.6632(4) -1.0569(2) 0.52280(13)
N1 N 0.3463(6) -0.5811(4) 0.28425(18)
H5 H 0.31510 -0.55630 0.25820
H6 H 0.30380 -0.62760 0.29150
H7 H 0.42760 -0.56210 0.27920
N2 N 0.4096(6) -0.5114(3) 0.45376(17)
H8 H 0.40290 -0.56570 0.44890
N3 N 0.0504(5) -0.0199(3) 0.45446(16)
H9 H 0.16930 -0.01060 0.46770
N4 N 0.223(2) -0.021(2) 0.2937(12)
C1 C 0.0342(6) -0.7264(3) 0.24899(19)
C2 C 0.0027(7) -0.8169(3) 0.2616(2)
C3 C -0.3668(6) -0.8093(3) 0.4043(2)
C4 C -0.3954(6) -0.7180(3) 0.41467(19)
C5 C -0.2519(6) -0.5197(4) 0.3161(2)
C6 C -0.1029(6) -0.5172(4) 0.3499(2)
C7 C 0.3326(6) -0.8006(3) 0.07550(19)
C8 C 0.3157(6) -0.7120(3) 0.09308(19)
C9 C -0.0881(7) -0.7746(4) 0.0877(2)
C10 C -0.2668(6) -0.7538(4) 0.0763(2)
C11 C 0.5792(6) -0.9927(3) 0.51475(19)
C12 C 0.3112(7) -0.5153(4) 0.3190(2)
H10 H 0.19800 -0.50710 0.31790
H11 H 0.35920 -0.46350 0.31120
C13 C 0.3782(7) -0.5431(4) 0.3681(2)
H12 H 0.33030 -0.59530 0.37520
H13 H 0.49100 -0.55200 0.36850
C14 C 0.3489(7) -0.4807(4) 0.4056(2)
H14 H 0.40100 -0.42920 0.39940
H15 H 0.23640 -0.47000 0.40440
C15 C 0.5881(6) -0.5142(4) 0.4606(2)
H16 H 0.62570 -0.55120 0.43750
H17 H 0.62980 -0.45960 0.45550
C16 C 0.3525(7) -0.4566(4) 0.4906(2)
H18 H 0.38870 -0.40070 0.48630
H19 H 0.23790 -0.45610 0.48710
C17 C 0.1302(9) -0.0663(5) 0.3295(3)
C18 C 0.1071(8) -0.0076(4) 0.3708(2)
H20 H 0.20720 0.01640 0.38340
H21 H 0.03470 0.03660 0.36040
C19 C 0.0400(7) -0.0599(4) 0.4074(2)
H22 H -0.06990 -0.07180 0.39690
H23 H 0.09650 -0.11200 0.41010
C20 C -0.0656(7) 0.0467(4) 0.4590(2)
H24 H -0.17190 0.02460 0.45370
H25 H -0.05430 0.08900 0.43560
C21 C 0.0392(7) -0.0842(4) 0.4922(2)
H26 H 0.11760 -0.12680 0.48920
H27 H -0.06430 -0.10980 0.48780
O31 O 0.2947(6) 0.2598(3) 0.33104(16)
O32 O -0.2396(6) 0.0135(3) 0.29811(19)
O33 O 0.5775(7) -0.0132(3) 0.37570(17)
O34 O 0.4083(6) 0.1005(4) 0.30052(19)
O35 O 0.0451(9) -0.5378(6) 0.5372(3)
N5? N -0.147(2) 0.022(2) 0.7138(12)
Er1* Er -1.17895(3) -0.712362(16) 0.332102(8)
Er1A Er 0.17895(3) -1.212362(16) 0.167898(8)
Er1** Er 0.82105(3) -0.712362(16) 0.332102(8)
Er1A* Er 0.17895(3) -0.212362(16) 0.167898(8)
Er2A Er -0.19001(3) -0.326660(15) 0.328730(8)
Er2* Er -0.80999(3) -0.826660(15) 0.171270(8)
Er2C Er 0.19001(3) -0.673340(15) 0.671270(8)
Er2C* Er 1.19001(3) -0.673340(15) 0.671270(8)
Er3* Er -0.54879(3) -0.808470(15) 0.496080(8)
Er3C Er 0.45121(3) -0.691530(15) -0.003920(8)
Er3C* Er -0.54879(3) -0.691530(15) -0.003920(8)
Er3B Er 0.54879(3) -1.191530(15) 0.503920(8)
P1* P -0.91954(16) -0.73130(9) 0.43704(5)
P2* P 0.56657(17) -0.74857(10) 0.22542(5)
O1* O -1.0681(4) -0.7387(3) 0.46420(13)
H1* H -1.06620 -0.72650 0.49790
O2* O -0.8621(5) -0.6383(2) 0.44180(15)
H2* H -0.89570 -0.59920 0.41830
O3* O -0.7883(4) -0.7853(2) 0.45876(14)
O4* O -0.9736(4) -0.7498(2) 0.38637(13)
O5A O -0.1191(4) -0.2134(2) 0.28316(13)
O6A O -0.0596(4) -0.3714(2) 0.26349(13)
O7A O 0.0270(4) -0.1720(2) 0.22707(14)
O7* O -1.0270(4) -0.6720(2) 0.27293(14)
O8A O 0.0736(4) -0.3300(2) 0.20417(13)
O8* O -1.0736(4) -0.8300(2) 0.29583(13)
O9* O 0.5783(4) -0.8617(2) 0.43204(14)
O10* O 0.5202(4) -0.7016(2) 0.44675(13)
O11* O 0.7059(5) -0.8262(2) 0.37027(13)
O11** O -1.2941(5) -0.8262(2) 0.37027(13)
O12* O 0.6683(4) -0.6675(2) 0.39001(13)
O12** O -1.3317(4) -0.6675(2) 0.39001(13)
O13A O 0.0461(4) -1.0859(2) 0.13601(14)
O13* O -1.0461(4) -0.5859(2) 0.36399(14)
O14A O 0.3037(4) -1.0885(2) 0.19864(13)
O14* O -1.3037(4) -0.5885(2) 0.30136(13)
O15A O 0.0461(4) -0.9470(2) 0.13881(14)
O16A O 0.3158(4) -0.9517(2) 0.19583(14)
O17* O 0.4253(4) -0.8021(2) 0.21318(14)
O17A O -0.4253(4) -0.3021(2) 0.28682(14)
O18* O 0.6205(4) -0.7453(3) 0.27651(13)
O18** O -1.3795(4) -0.7453(3) 0.27651(13)
O19* O 0.7117(5) -0.7752(3) 0.19963(14)
H3* H 0.67040 -0.76680 0.16840
O20* O 0.5223(5) -0.6579(3) 0.20731(15)
H4* H 0.41330 -0.66180 0.19250
O21C O 0.3757(4) -0.6905(2) 0.53549(13)
O21C* O -0.6243(4) -0.6905(2) 0.53549(13)
O22C O 0.3415(4) -0.8452(2) 0.56522(13)
O22C* O -0.6585(4) -0.8452(2) 0.56522(13)
O23C O 0.3073(4) -0.6423(2) 0.60391(13)
O23A O -0.3073(4) -0.3577(2) 0.39609(13)
O24C O 0.2776(4) -0.7966(2) 0.63407(13)
O24A O -0.2776(4) -0.2034(2) 0.36593(13)
O25C O 0.6494(5) -0.7491(3) 0.60901(14)
O26C O 0.9589(4) -0.7171(2) 0.63072(14)
O26A O 0.0411(4) -0.2829(2) 0.36928(14)
O27C O 0.6868(4) -0.7599(2) 0.53360(14)
O27C* O -0.3132(4) -0.7599(2) 0.53360(14)
O28C O 0.9939(5) -0.7212(3) 0.55475(15)
O29B O 0.3856(4) -1.0774(2) 0.47131(14)
O29* O -0.3856(4) -0.9226(2) 0.52869(14)
O30B O 0.3368(4) -0.9431(2) 0.47720(13)
O30B* O -0.6632(4) -0.9431(2) 0.47720(13)
N1B N 0.6537(6) -0.4189(4) 0.71575(18)
H5B H 0.68490 -0.44370 0.74180
H6B H 0.69620 -0.37240 0.70850
H7B H 0.57240 -0.43790 0.72080
N2B N 0.5904(6) -0.4886(3) 0.54624(17)
H8B H 0.59710 -0.43430 0.55110
N3B N -0.0504(5) 0.0199(3) 0.54554(16)
H9B H -0.16930 0.01060 0.53230
N4B N -0.223(2) 0.021(2) 0.7063(12)
C1A C -0.0342(6) -0.2264(3) 0.25101(19)
C2A C -0.0027(7) -0.3169(3) 0.2384(2)
C3* C 0.6332(6) -0.8093(3) 0.4043(2)
C4* C 0.6046(6) -0.7180(3) 0.41467(19)
C5A C 0.2519(6) -1.0197(4) 0.1839(2)
C6A C 0.1029(6) -1.0172(4) 0.1501(2)
C7C C 0.3326(6) -0.6994(3) 0.57550(19)
C8C C 0.3157(6) -0.7880(3) 0.59308(19)
C9C C 0.9119(7) -0.7254(4) 0.5877(2)
C10C C 0.7332(6) -0.7462(4) 0.5763(2)
C11B C 0.4208(6) -1.0073(3) 0.48525(19)
C12B C 0.6888(7) -0.4847(4) 0.6810(2)
H10B H 0.80200 -0.49290 0.68210
H11B H 0.64080 -0.53650 0.68880
C13B C 0.6218(7) -0.4569(4) 0.6319(2)
H12B H 0.66970 -0.40470 0.62480
H13B H 0.50900 -0.44800 0.63150
C14B C 0.6511(7) -0.5193(4) 0.5944(2)
H14B H 0.59900 -0.57080 0.60060
H15B H 0.76360 -0.53000 0.59560
C15B C 0.4119(6) -0.4858(4) 0.5394(2)
H16B H 0.37430 -0.44880 0.56250
H17B H 0.37020 -0.54040 0.54450
C16B C 0.6475(7) -0.5434(4) 0.5094(2)
H18B H 0.61130 -0.59930 0.51370
H19B H 0.76210 -0.54390 0.51290
C17B C -0.1302(9) 0.0663(5) 0.6705(3)
C18B C -0.1071(8) 0.0076(4) 0.6292(2)
H20B H -0.20720 -0.01640 0.61660
H21B H -0.03470 -0.03660 0.63960
C19B C -0.0400(7) 0.0599(4) 0.5926(2)
H22B H 0.06990 0.07180 0.60310
H23B H -0.09650 0.11200 0.58990
C20B C 0.0656(7) -0.0467(4) 0.5410(2)
H24B H 0.17190 -0.02460 0.54630
H25B H 0.05430 -0.08900 0.56440
C21B C -0.0392(7) 0.0842(4) 0.5078(2)
H26B H -0.11760 0.12680 0.51080
H27B H 0.06430 0.10980 0.51220
#END
