
#######################################################################
#
#                 Cambridge Crystallographic Data Centre
#                                CCDC
#
#######################################################################
#
# If this CIF has been generated from an entry in the Cambridge
# Structural Database, then it will include bibliographic, chemical,
# crystal, experimental, refinement or atomic coordinate data resulting
# from the CCDC's data processing and validation procedures.
#
#######################################################################

data_CSD_CIF_DUCGUE
_audit_creation_date 2009-10-09
_audit_creation_method CSD-ConQuest-V1
_database_code_CSD DUCGUE
_database_code_depnum_ccdc_archive 'CCDC 692090'
_chemical_formula_sum 'C56 H56 Cu4 Mo8 N16 O26'
_chemical_formula_moiety
;
(C28 H28 Cu2 Mo8 N8 O26 2-)n,2n(C14 H14 Cu1 N4 1+)
;
_journal_coden_Cambridge 9
_journal_volume 48
_journal_year 2009
_journal_page_first 5861
_journal_name_full 'Inorg.Chem. '
loop_
_publ_author_name
"Bao-xia Dong"
"Qiang Xu"
_chemical_name_systematic
;
catena-(bis((\m~2~-1,4-bis(Imidazol-1-ylmethyl)benzene-N,N')-copper(i)) 
\d-bis(\m~3~-oxo)-bis(\m~2~-1,4-bis(imidazol-1-ylmethyl)benzene-N,N')-tetradec
akis(\m~2~-oxo)-decaoxo-di-copper(i)-octa-molybdenum(vi))
;
_cell_volume   3601.540
_exptl_crystal_colour 'brown'
_exptl_crystal_density_diffrn 2.217
_exptl_special_details
;
luminescent
isostructural with the Ag analogue

;
_exptl_crystal_description 'block'
_diffrn_ambient_temperature 293
#These two values have been output from a single CSD field.
_refine_ls_R_factor_gt 0.0319
_refine_ls_wR_factor_gt 0.0319
_symmetry_cell_setting monoclinic
_symmetry_space_group_name_H-M 'P 21/n'
_symmetry_Int_Tables_number 14
loop_
_symmetry_equiv_pos_site_id
_symmetry_equiv_pos_as_xyz
1 x,y,z
2 1/2-x,1/2+y,1/2-z
3 -x,-y,-z
4 -1/2+x,-1/2-y,-1/2+z
_cell_length_a 12.740(3)
_cell_length_b 22.950(5)
_cell_length_c 13.030(3)
_cell_angle_alpha 90
_cell_angle_beta 109.03(3)
_cell_angle_gamma 90
_cell_formula_units_Z 2
loop_
_atom_type_symbol
_atom_type_radius_bond
C 0.68
H 0.23
Cu 1.59
Mo 1.29
N 0.68
O 0.76
loop_
_atom_site_label
_atom_site_type_symbol
_atom_site_fract_x
_atom_site_fract_y
_atom_site_fract_z
Mo1 Mo 0.82575(3) 0.105305(14) -0.09192(3)
Mo2 Mo 1.00012(3) 0.109963(15) 0.15918(3)
Mo3 Mo 0.90324(3) -0.042440(14) 0.04751(3)
Mo4 Mo 0.79413(4) -0.009150(18) -0.28132(4)
Cu1 Cu 0.81040(7) -0.02049(3) 0.31606(7)
Cu2 Cu 0.64567(4) 0.23220(3) -0.18879(4)
N1 N 0.6723(4) 0.0157(2) 0.2457(5)
N2 N 0.5298(3) 0.05261(17) 0.1195(4)
N3 N 0.4349(3) 0.36913(16) 0.0636(3)
N4 N 0.5679(4) 0.43447(18) 0.1033(4)
N5 N 0.5728(3) 0.19553(16) -0.3235(3)
N6 N 0.4987(3) 0.18572(16) -0.5000(3)
N7 N 0.7870(3) 0.28122(16) -0.8767(3)
N8 N 0.7137(3) 0.26749(16) -1.0522(3)
O1 O 1.0874(4) 0.16452(15) 0.2208(3)
O2 O 1.1299(2) 0.07516(13) 0.0821(3)
O3 O 0.9131(3) 0.03627(13) 0.0383(2)
O4 O 0.8050(3) 0.15719(14) -0.1884(3)
O5 O 0.7185(3) 0.11389(15) -0.0427(3)
O6 O 0.8021(3) -0.05843(15) 0.1016(3)
O7 O 0.7626(3) 0.03585(13) -0.1778(3)
O8 O 0.8874(4) 0.11665(19) 0.2011(3)
O9 O 0.9723(2) 0.07213(14) -0.1362(2)
O10 O 1.0680(3) 0.04397(13) 0.2519(3)
O11 O 0.9413(2) 0.14440(11) 0.0189(2)
O12 O 0.7795(4) 0.0337(2) -0.3905(4)
O13 O 0.6949(3) -0.06045(18) -0.3188(4)
C1 C 0.6399(4) 0.0443(2) 0.1539(5)
H1 H 0.68710 0.05720 0.11730
C2 C 0.5800(7) 0.0058(3) 0.2735(8)
H2 H 0.57800 -0.01380 0.33520
C3 C 0.4931(6) 0.0289(3) 0.1983(8)
H3 H 0.42030 0.02900 0.19880
C4 C 0.4646(4) 0.0828(3) 0.0205(6)
H4 H 0.39550 0.06190 -0.01170
H5 H 0.50510 0.08200 -0.03080
C5 C 0.4382(4) 0.1459(2) 0.0390(4)
C6 C 0.4952(4) 0.1897(2) 0.0104(4)
H6 H 0.54990 0.18040 -0.01980
C7 C 0.4737(4) 0.2477(2) 0.0252(4)
H7 H 0.51530 0.27660 0.00670
C8 C 0.3908(3) 0.2630(2) 0.0674(4)
C9 C 0.3336(4) 0.2185(2) 0.0983(4)
H8 H 0.27900 0.22780 0.12850
C10 C 0.3564(4) 0.1601(2) 0.0851(4)
H9 H 0.31770 0.13080 0.10670
C11 C 0.3575(4) 0.3254(2) 0.0782(4)
H10 H 0.28510 0.33240 0.02490
H11 H 0.35040 0.33050 0.14950
C12 C 0.5113(4) 0.39730(19) 0.1425(4)
H12 H 0.52340 0.39160 0.21610
C13 C 0.4425(5) 0.3900(2) -0.0326(4)
H13 H 0.39970 0.37860 -0.10220
C14 C 0.5227(5) 0.4293(2) -0.0067(5)
H14 H 0.54520 0.45050 -0.05670
C15 C 0.5214(5) 0.1312(2) -0.4575(5)
H15 H 0.50830 0.09630 -0.49590
C16 C 0.5664(4) 0.1376(2) -0.3490(5)
H16 H 0.58940 0.10730 -0.29940
C17 C 0.5316(3) 0.2231(2) -0.4170(3)
H17 H 0.52620 0.26350 -0.42420
C18 C 0.4584(4) 0.2023(2) -0.6150(4)
H18 H 0.41920 0.16980 -0.65810
H19 H 0.40690 0.23460 -0.62520
C19 C 0.5540(4) 0.2198(2) -0.6525(4)
C20 C 0.5895(4) 0.2771(2) -0.6463(4)
H20 H 0.55230 0.30560 -0.62080
C21 C 0.6800(4) 0.2925(2) -0.6777(4)
H21 H 0.70440 0.33100 -0.67100
C22 C 0.7340(4) 0.2508(2) -0.7192(3)
C23 C 0.6983(4) 0.1939(2) -0.7268(4)
H22 H 0.73410 0.16570 -0.75470
C24 C 0.6093(4) 0.1781(2) -0.6931(4)
H23 H 0.58650 0.13940 -0.69780
C25 C 0.8280(4) 0.2673(2) -0.7603(4)
H24 H 0.88040 0.23530 -0.74780
H25 H 0.86690 0.30080 -0.72020
C26 C 0.7641(4) 0.3348(2) -0.9228(4)
H26 H 0.77740 0.37040 -0.88670
C27 C 0.7188(4) 0.3266(2) -1.0301(4)
H27 H 0.69460 0.35600 -1.08150
C28 C 0.7560(3) 0.2419(2) -0.9569(3)
H28 H 0.76330 0.20180 -0.94670
Mo1B Mo 1.17425(3) -0.105305(14) 0.09192(3)
Mo2B Mo 0.99988(3) -0.109963(15) -0.15918(3)
Mo3B Mo 1.09676(3) 0.042440(14) -0.04751(3)
Mo4B Mo 1.20587(4) 0.009150(18) 0.28132(4)
Cu1A Cu 0.68960(7) 0.47951(3) 0.18394(7)
Cu2* Cu 0.64567(4) 0.23220(3) -1.18879(4)
Cu2C Cu 1.14567(4) 0.26780(3) 0.31121(4)
Cu2A Cu 0.85433(4) -0.26780(3) -0.31121(4)
Cu2C* Cu 1.14567(4) 0.26780(3) -0.68879(4)
Cu2B Cu 1.35433(4) -0.23220(3) 0.18879(4)
N4A N 0.9321(4) -0.06553(18) 0.3967(4)
N5C N 1.0728(3) 0.30447(16) 0.1765(3)
N6C N 0.9987(3) 0.31428(16) 0.0000(3)
N7C N 1.2870(3) 0.21878(16) -0.3767(3)
N8* N 0.7137(3) 0.26749(16) -0.0522(3)
N8C N 1.2137(3) 0.23251(16) 0.4478(3)
N8C* N 1.2137(3) 0.23251(16) -0.5522(3)
O1C O 0.5874(4) 0.33548(15) -0.2792(3)
O1B O 0.9126(4) -0.16452(15) -0.2208(3)
O2B O 0.8701(2) -0.07516(13) -0.0821(3)
O3B O 1.0869(3) -0.03627(13) -0.0383(2)
O4B O 1.1950(3) -0.15719(14) 0.1884(3)
O4C O 1.3050(3) 0.34281(14) 0.3116(3)
O5B O 1.2815(3) -0.11389(15) 0.0427(3)
O6B O 1.1979(3) 0.05843(15) -0.1016(3)
O7B O 1.2374(3) -0.03585(13) 0.1778(3)
O8B O 1.1126(4) -0.11665(19) -0.2011(3)
O9B O 1.0277(2) -0.07213(14) 0.1362(2)
O10B O 0.9320(3) -0.04397(13) -0.2519(3)
O11B O 1.0587(2) -0.14440(11) -0.0189(2)
O12B O 1.2205(4) -0.0337(2) 0.3905(4)
O13B O 1.3051(3) 0.06045(18) 0.3188(4)
C15C C 1.0214(5) 0.3688(2) 0.0425(5)
H15C H 1.00830 0.40370 0.00410
C16C C 1.0664(4) 0.3624(2) 0.1510(5)
H16C H 1.08940 0.39270 0.20060
C17C C 1.0316(3) 0.2769(2) 0.0830(3)
H17C H 1.02620 0.23650 0.07580
C18C C 0.9584(4) 0.2977(2) -0.1150(4)
H18C H 0.91920 0.33020 -0.15810
H19C H 0.90690 0.26540 -0.12520
C19C C 1.0540(4) 0.2802(2) -0.1525(4)
C20C C 1.0895(4) 0.2229(2) -0.1463(4)
H20C H 1.05230 0.19440 -0.12080
C21C C 1.1800(4) 0.2075(2) -0.1777(4)
H21C H 1.20440 0.16900 -0.17100
C22C C 1.2340(4) 0.2492(2) -0.2192(3)
C23C C 1.1983(4) 0.3061(2) -0.2268(4)
H22C H 1.23410 0.33430 -0.25470
C24C C 1.1093(4) 0.3219(2) -0.1931(4)
H23C H 1.08650 0.36060 -0.19780
C25C C 1.3280(4) 0.2327(2) -0.2603(4)
H24C H 1.38040 0.26470 -0.24780
H25C H 1.36690 0.19920 -0.22020
C26C C 1.2641(4) 0.1652(2) -0.4228(4)
H26C H 1.27740 0.12960 -0.38670
C27C C 1.2188(4) 0.1734(2) -0.5301(4)
H27C H 1.19460 0.14400 -0.58150
C28C C 1.2560(3) 0.2581(2) -0.4569(3)
H28C H 1.26330 0.29820 -0.44670
#END
