
#######################################################################
#
#                 Cambridge Crystallographic Data Centre
#                                CCDC
#
#######################################################################
#
# If this CIF has been generated from an entry in the Cambridge
# Structural Database, then it will include bibliographic, chemical,
# crystal, experimental, refinement or atomic coordinate data resulting
# from the CCDC's data processing and validation procedures.
#
#######################################################################

data_CSD_CIF_DUCGOY
_audit_creation_date 2009-10-09
_audit_creation_method CSD-ConQuest-V1
_database_code_CSD DUCGOY
_database_code_depnum_ccdc_archive 'CCDC 692089'
_chemical_formula_sum 'C24 H24 Ag4 Mo8 N12 O26'
_chemical_formula_moiety
;
(Ag1 Mo8 O26 3-)n,n(C24 H24 Ag3 N12 3+)
;
_journal_coden_Cambridge 9
_journal_volume 48
_journal_year 2009
_journal_page_first 5861
_journal_name_full 'Inorg.Chem. '
loop_
_publ_author_name
"Bao-xia Dong"
"Qiang Xu"
_chemical_name_systematic
;
catena-(bis(\m~3~-1,4-bis(1,2,4-Triazol-1-ylmethyl)benzene-N,N',N'')-tri-silve
r(i) 
\b-bis(\m~5~-oxo)-tetrakis(\m~3~-oxo)-tetradecakis(\m~2~-oxo)-hexaoxo-octa-mol
ybdenum(vi)-silver(i))
;
_cell_volume   1110.131
_exptl_crystal_colour 'colorless'
_exptl_crystal_density_diffrn 3.135
_exptl_special_details
;
luminescent

;
_exptl_crystal_description 'block'
_diffrn_ambient_temperature 293
_refine_special_details
;
The Ag atom coordinated to the octamolybdate anion is disordered by symmetry.

;
#These two values have been output from a single CSD field.
_refine_ls_R_factor_gt 0.0273
_refine_ls_wR_factor_gt 0.0273
_symmetry_cell_setting triclinic
_symmetry_space_group_name_H-M 'P -1'
_symmetry_Int_Tables_number 2
loop_
_symmetry_equiv_pos_site_id
_symmetry_equiv_pos_as_xyz
1 x,y,z
2 -x,-y,-z
_cell_length_a 9.2800(19)
_cell_length_b 10.750(2)
_cell_length_c 11.890(2)
_cell_angle_alpha 77.91(3)
_cell_angle_beta 74.46(3)
_cell_angle_gamma 80.58(3)
_cell_formula_units_Z 1
loop_
_atom_type_symbol
_atom_type_radius_bond
C 0.68
H 0.23
Ag 1.49
Mo 1.27
N 0.68
O 0.86
loop_
_atom_site_label
_atom_site_type_symbol
_atom_site_fract_x
_atom_site_fract_y
_atom_site_fract_z
Mo1 Mo 0.57207(6) 0.98129(6) 0.12749(5)
Mo2 Mo 0.27431(7) 1.19999(6) 0.06445(5)
Mo3 Mo 0.64301(7) 1.22672(6) -0.07799(6)
Mo4 Mo 0.80068(7) 1.04476(7) -0.27633(5)
Ag1 Ag -0.36350(7) 0.64468(9) 0.71786(7)
Ag2 Ag -1.00000 0.50000 1.00000
Ag3 Ag 1.008(3) 0.992(3) -0.008(3)
N1 N -0.6045(7) 0.6547(6) 0.7788(5)
N2 N -0.8342(7) 0.6071(6) 0.8766(5)
N3 N -0.7088(7) 0.7409(6) 0.7347(5)
N4 N 0.1298(7) 0.4306(7) 0.3306(6)
C1 C 0.0059(10) 0.3831(9) 0.3981(8)
H1 H 0.00750 0.30370 0.44750
N5 N -0.0684(7) 0.5610(6) 0.3122(5)
O1 O 0.5903(6) 1.3873(5) -0.0923(5)
O2 O 0.5171(5) 1.1651(4) 0.0840(4)
O3 O 0.7441(6) 0.9823(5) 0.1517(4)
O4 O 0.5866(5) 0.8086(4) 0.0974(4)
O5 O 0.6446(5) 1.0104(4) -0.0651(4)
O6 O 0.4472(6) 0.9636(5) 0.2667(4)
O7 O 0.2205(6) 1.1351(5) 0.2289(4)
O8 O 0.9630(6) 1.0395(6) -0.2337(5)
O9 O 0.8115(6) 1.2050(6) -0.0405(5)
O10 O 0.7099(6) 1.2084(5) -0.2402(4)
O11 O 0.2677(6) 1.3594(5) 0.0675(5)
O12 O 0.1138(5) 1.1879(5) 0.0236(4)
O13 O 0.8479(7) 1.0694(7) -0.4259(5)
C2 C -0.6872(9) 0.5741(7) 0.8636(6)
H2 H -0.64600 0.50260 0.90860
C3 C -0.8460(8) 0.7119(8) 0.7941(6)
H3 H -0.93590 0.75730 0.78060
C4 C -0.6636(9) 0.8437(7) 0.6364(6)
H4 H -0.74860 0.87950 0.60240
H5 H -0.63400 0.91100 0.66550
C5 C -0.5348(8) 0.7973(7) 0.5418(6)
C6 C -0.3967(9) 0.8445(7) 0.5169(6)
H6 H -0.371(9) 0.901(7) 0.567(7)
C7 C -0.2764(9) 0.8034(7) 0.4294(7)
C8 C -0.2980(9) 0.7128(8) 0.3670(6)
C9 C -0.4342(10) 0.6669(8) 0.3924(7)
H7 H -0.44760 0.60730 0.35060
C10 C -0.5521(9) 0.7090(8) 0.4801(7)
H8 H -0.65(1) 0.684(8) 0.490(7)
C11 C -0.1696(11) 0.6699(9) 0.2690(7)
H9 H -0.21080 0.64590 0.21070
H10 H -0.11190 0.74110 0.22990
C12 C 0.0770(9) 0.5409(9) 0.2777(9)
H11 H 0.13650 0.59800 0.22200
N6 N -0.1182(9) 0.4567(8) 0.3896(7)
H12 H -0.185(8) 0.829(7) 0.409(6)
Mo1A Mo 0.42793(6) 1.01871(6) -0.12749(5)
Mo1A* Mo 1.42793(6) 1.01871(6) -0.12749(5)
Mo2A Mo 0.72569(7) 0.80001(6) -0.06445(5)
Mo2* Mo 1.27431(7) 1.19999(6) 0.06445(5)
Mo3A Mo 0.35699(7) 0.77328(6) 0.07799(6)
Mo3A* Mo 1.35699(7) 0.77328(6) 0.07799(6)
Mo4A Mo 0.19932(7) 0.95524(7) 0.27633(5)
Ag1A Ag -1.63650(7) 0.35532(9) 1.28214(7)
Ag1A* Ag 0.36350(7) 0.35532(9) 0.28214(7)
Ag1* Ag -2.36350(7) 0.64468(9) 1.71786(7)
Ag3A Ag 0.992(3) 1.008(3) 0.008(3)
Ag3* Ag 0.008(3) 0.992(3) -0.008(3)
Ag3A* Ag -0.008(3) 1.008(3) 0.008(3)
N1A N -1.3955(7) 0.3453(6) 1.2212(5)
N2A N -1.1658(7) 0.3929(6) 1.1234(5)
N3A N -1.2912(7) 0.2591(6) 1.2653(5)
N4A N -2.1298(7) 0.5694(7) 1.6694(6)
N4A* N -0.1298(7) 0.5694(7) 0.6694(6)
N4* N -1.8702(7) 0.4306(7) 1.3306(6)
C1A C -2.0059(10) 0.6169(9) 1.6019(8)
H1A H -2.00750 0.69630 1.55250
N5A N -1.9316(7) 0.4390(6) 1.6878(5)
O1A O 0.4097(6) 0.6127(5) 0.0923(5)
O2A O 0.4829(5) 0.8349(4) -0.0840(4)
O3A O 1.2559(6) 1.0177(5) -0.1517(4)
O3A* O 0.2559(6) 1.0177(5) -0.1517(4)
O4A O 0.4134(5) 1.1914(4) -0.0974(4)
O5A O 0.3554(5) 0.9896(4) 0.0651(4)
O6A O 0.5528(6) 1.0364(5) -0.2667(4)
O7A O 0.7795(6) 0.8649(5) -0.2289(4)
O8A O 0.0370(6) 0.9605(6) 0.2337(5)
O8A* O 1.0370(6) 0.9605(6) 0.2337(5)
O9A O 1.1885(6) 0.7950(6) 0.0405(5)
O9A* O 0.1885(6) 0.7950(6) 0.0405(5)
O10A O 0.2901(6) 0.7916(5) 0.2402(4)
O11A O 0.7323(6) 0.6406(5) -0.0675(5)
O12* O 1.1138(5) 1.1879(5) 0.0236(4)
O12A O 0.8862(5) 0.8121(5) -0.0236(4)
O13A O 0.1521(7) 0.9306(7) 0.4259(5)
C2A C -1.3128(9) 0.4259(7) 1.1364(6)
H2A H -1.35400 0.49740 1.09140
C3A C -1.1540(8) 0.2881(8) 1.2059(6)
H3A H -1.06410 0.24270 1.21940
C4A C -1.3364(9) 0.1563(7) 1.3636(6)
H4A H -1.25140 0.12050 1.39760
H5A H -1.36600 0.08900 1.33450
C5A C -1.4652(8) 0.2027(7) 1.4582(6)
C6A C -1.6033(9) 0.1555(7) 1.4831(6)
H6A H -1.629(9) 0.099(7) 1.433(7)
C7A C -1.7236(9) 0.1966(7) 1.5706(7)
C8A C -1.7020(9) 0.2872(8) 1.6330(6)
C9A C -1.5658(10) 0.3331(8) 1.6076(7)
H7A H -1.55240 0.39270 1.64940
C10A C -1.4479(9) 0.2910(8) 1.5199(7)
H8A H -1.35(1) 0.316(8) 1.510(7)
C11A C -1.8304(11) 0.3301(9) 1.7310(7)
H9A H -1.78920 0.35410 1.78930
H10A H -1.88810 0.25890 1.77010
C12A C -2.0770(9) 0.4591(9) 1.7223(9)
H11A H -2.13650 0.40200 1.77800
N6A N -1.8818(9) 0.5433(8) 1.6104(7)
H12A H -1.815(8) 0.171(7) 1.591(6)
#END
