
#######################################################################
#
#                 Cambridge Crystallographic Data Centre
#                                CCDC
#
#######################################################################
#
# If this CIF has been generated from an entry in the Cambridge
# Structural Database, then it will include bibliographic, chemical,
# crystal, experimental, refinement or atomic coordinate data resulting
# from the CCDC's data processing and validation procedures.
#
#######################################################################

data_CSD_CIF_DUCGIS
_audit_creation_date 2009-10-09
_audit_creation_method CSD-ConQuest-V1
_database_code_CSD DUCGIS
_database_code_depnum_ccdc_archive 'CCDC 692088'
_chemical_formula_sum 'C96 H100 Cu8 Mo16 N48 O54'
_chemical_formula_moiety
;
(C24 H24 Cu2 Mo8 N12 O26 2-)n,n(C24 H24 Cu2 Mo8 N12 O26 2-),2n(C24 H24 Cu2 
N12 2+),2n(H2 O1)
;
_journal_coden_Cambridge 9
_journal_volume 48
_journal_year 2009
_journal_page_first 5861
_journal_name_full 'Inorg.Chem. '
loop_
_publ_author_name
"Bao-xia Dong"
"Qiang Xu"
_chemical_name_systematic
;
catena-(bis(bis(\m~2~-1,4-bis(1,2,4-Triazol-1-ylmethyl)benzene-N,N')-di-copper
(i)) 
\b-bis(\m~5~-oxo)-tetrakis(\m~3~-oxo)-bis(\m~2~-1,4-bis(1,2,4-triazol-1-ylmeth
yl)benzene-N,N')-octakis(\m~2~-oxo)-dodecaoxo-di-copper(i)-octa-molybdenum(vi)
 
\g-bis(\m~4~-oxo)-hexakis(\m~3~-oxo)-bis(\m~2~-1,4-bis(1,2,4-triazol-1-ylmethy
l)benzene-N,N')-tetrakis(\m~2~-oxo)-tetradecaoxo-di-copper(i)-octa-molybdenum(
vi) dihydrate)
;
_cell_volume   3489.561
_exptl_crystal_colour 'brown'
_exptl_crystal_density_diffrn 2.298
_exptl_special_details
;
luminescent

;
_exptl_crystal_description 'block'
_diffrn_ambient_temperature 293
#These two values have been output from a single CSD field.
_refine_ls_R_factor_gt 0.0583
_refine_ls_wR_factor_gt 0.0583
_symmetry_cell_setting triclinic
_symmetry_space_group_name_H-M 'P -1'
_symmetry_Int_Tables_number 2
loop_
_symmetry_equiv_pos_site_id
_symmetry_equiv_pos_as_xyz
1 x,y,z
2 -x,-y,-z
_cell_length_a 11.900(2)
_cell_length_b 13.700(3)
_cell_length_c 23.640(5)
_cell_angle_alpha 104.36(3)
_cell_angle_beta 91.70(3)
_cell_angle_gamma 109.63(3)
_cell_formula_units_Z 1
loop_
_atom_type_symbol
_atom_type_radius_bond
C 0.68
H 0.23
Cu 1.56
Mo 1.37
N 0.68
O 0.68
loop_
_atom_site_label
_atom_site_type_symbol
_atom_site_fract_x
_atom_site_fract_y
_atom_site_fract_z
Mo1 Mo 0.15243(8) 0.51323(7) 0.51554(4)
Mo2 Mo 0.06736(9) 0.53781(8) 0.65490(4)
Mo3 Mo -0.01524(9) 0.30429(7) 0.41535(4)
Mo4 Mo 0.10444(9) 0.67100(7) 0.44721(4)
Mo5 Mo 0.31682(8) 0.06576(7) 1.11482(4)
Mo6 Mo 0.28597(8) -0.18578(7) 1.00110(4)
Mo7 Mo 0.55142(8) -0.00149(7) 1.06776(4)
Mo8 Mo 0.54516(9) 0.26153(7) 1.09287(4)
Cu1 Cu 0.43338(19) 0.51152(12) 0.57320(9)
Cu2 Cu 0.09896(19) -0.02785(11) 0.92110(8)
Cu3 Cu 0.17597(15) 0.29207(14) 0.27684(9)
Cu4 Cu 0.50000 0.50000 1.00000
Cu5 Cu 1.00000 0.00000 0.50000
O1 O 0.2743(7) 0.5124(7) 0.4797(4)
O2 O 0.3016(10) 0.7970(8) 0.7735(4)
O3 O 0.2032(6) 0.5297(6) 0.5888(3)
O4 O 0.0269(6) 0.4902(5) 0.4423(3)
O5 O 0.0185(7) 0.3858(6) 0.6178(3)
O6 O 0.0588(7) 0.3600(5) 0.4979(3)
O7 O 0.1113(8) 0.3139(7) 0.3830(4)
O8 O 0.1592(7) 0.6584(5) 0.5252(3)
O9 O -0.0589(8) 0.5401(8) 0.6857(4)
O10 O 0.2267(8) 0.6632(7) 0.4145(4)
O11 O 0.1151(7) 0.6779(6) 0.6421(3)
O12 O -0.0812(9) 0.1719(7) 0.4089(4)
O13 O 0.1188(8) 0.8020(7) 0.4651(4)
O14 O 0.1717(9) 0.5571(8) 0.7111(4)
O15 O 0.5663(7) -0.0769(6) 1.1140(3)
O16 O 0.3051(6) -0.0520(6) 0.9497(3)
O17 O 0.5291(6) 0.1178(5) 1.1184(3)
O18 O 0.3017(7) -0.2704(6) 1.0394(4)
O19 O 0.5245(7) 0.3297(6) 1.0448(4)
O20 O 0.4772(6) -0.1069(5) 0.9933(3)
O21 O 0.3010(6) -0.2582(5) 0.9247(3)
O22 O 0.3694(7) 0.1929(6) 1.0944(4)
O23 O 0.5791(9) 0.3508(7) 1.1594(4)
O24 O 0.1660(8) 0.0220(7) 1.0962(4)
O25 O 0.3365(8) 0.0839(7) 1.1886(4)
O26 O 0.1392(7) -0.2020(6) 0.9980(4)
O27 O 0.3536(6) -0.0528(6) 1.0683(3)
N1 N 0.3854(11) 0.3631(8) 0.5439(5)
N2 N 0.2682(11) 0.1898(8) 0.5206(5)
N3 N 0.3880(11) 0.2007(8) 0.5215(4)
N4 N 0.5026(10) -0.3409(8) 0.6105(5)
N5 N 0.6381(11) -0.1779(9) 0.6435(6)
N6 N 0.5315(9) -0.1790(8) 0.6587(5)
N7 N 0.1564(10) 0.1216(7) 0.9491(4)
N8 N 0.2711(9) 0.2922(7) 0.9854(5)
N9 N 0.1575(8) 0.2833(7) 0.9745(4)
N10 N 0.0174(9) 0.8255(7) 0.8882(4)
N11 N -0.1281(10) 0.6676(9) 0.8654(6)
N12 N -0.0267(9) 0.6556(7) 0.8463(4)
N13 N 0.0541(8) 0.1566(7) 0.2516(4)
N14 N -0.1138(8) 0.0232(7) 0.2279(4)
N15 N -0.0304(9) -0.0158(8) 0.2064(5)
N16 N -0.6839(9) -0.5876(7) 0.2881(4)
N17 N -0.5468(8) -0.4245(8) 0.3303(5)
N18 N -0.4989(8) -0.4838(7) 0.2902(4)
N19 N 0.5484(10) 0.4480(9) 0.9272(5)
N20 N 0.5753(8) 0.3408(6) 0.8505(4)
N21 N 0.6148(9) 0.4394(7) 0.8398(5)
N22 N 0.9827(11) 0.0406(9) 0.5788(5)
N23 N 0.9864(8) 0.1346(8) 0.6676(4)
N24 N 0.9289(12) 0.0336(9) 0.6682(5)
C1 C 0.2726(14) 0.2908(11) 0.5364(7)
H1 H 0.20500 0.30990 0.54190
C2 C 0.4556(13) 0.3038(11) 0.5350(6)
H2 H 0.53910 0.33090 0.53790
C3 C 0.4267(19) 0.1101(14) 0.5069(6)
H3 H 0.50340 0.13140 0.49160
H4 H 0.36920 0.05350 0.47580
C4 C 0.4398(14) 0.0653(9) 0.5578(6)
C5 C 0.5476(14) 0.1065(9) 0.5923(6)
H5 H 0.60530 0.16810 0.58710
C6 C 0.5766(14) 0.0611(9) 0.6350(7)
H6 H 0.65310 0.08780 0.65580
C7 C 0.4862(12) -0.0251(9) 0.6448(5)
C8 C 0.3721(12) -0.0645(10) 0.6107(6)
H7 H 0.31000 -0.12120 0.61780
C9 C 0.3535(12) -0.0212(10) 0.5689(6)
H8 H 0.27890 -0.05050 0.54600
C10 C 0.5108(13) -0.0818(9) 0.6887(5)
H9 H 0.58080 -0.03380 0.71640
H10 H 0.44270 -0.10000 0.71060
C11 C 0.4486(14) -0.2785(10) 0.6371(7)
H11 H 0.36690 -0.29870 0.64070
C12 C 0.6163(15) -0.2777(12) 0.6131(7)
H12 H 0.67440 -0.30190 0.59540
C13 C 0.0872(11) 0.1833(9) 0.9530(6)
H13 H 0.00450 0.15870 0.94240
C14 C 0.2701(11) 0.1942(8) 0.9671(5)
H14 H 0.33870 0.17590 0.96640
C15 C 0.1219(12) 0.3796(9) 0.9929(6)
H15 H 0.18860 0.43820 1.01840
H16 H 0.05510 0.36320 1.01590
C16 C 0.0866(10) 0.4162(8) 0.9438(5)
C17 C -0.034(1) 0.4041(8) 0.9328(5)
H17 H -0.09060 0.36820 0.95400
C18 C 0.1660(12) 0.4671(9) 0.9102(6)
H18 H 0.24620 0.47430 0.91670
C19 C 0.1344(12) 0.5065(9) 0.8690(5)
H19 H 0.19080 0.53860 0.84660
C20 C 0.0140(12) 0.4990(8) 0.8599(5)
C21 C -0.0699(10) 0.4453(8) 0.8904(5)
H20 H -0.15030 0.43670 0.88290
C22 C -0.0241(15) 0.5520(9) 0.8165(6)
H21 H -0.10330 0.50620 0.79610
H22 H 0.03170 0.55970 0.78750
C23 C -0.0966(12) 0.7679(10) 0.8898(6)
H23 H -0.14980 0.79890 0.90760
C24 C 0.0587(11) 0.7503(9) 0.8602(5)
H24 H 0.13730 0.76320 0.85170
C25 C 0.0665(12) 0.0653(10) 0.2213(6)
H25 H 0.14050 0.06150 0.21180
C26 C -0.0628(10) 0.1276(9) 0.2556(6)
H26 H -0.10230 0.17230 0.27450
C27 C -0.2395(11) -0.0422(10) 0.2182(7)
H27 H -0.28320 -0.00130 0.24120
H28 H -0.26870 -0.05800 0.17700
C28 C -0.2658(9) -0.1460(9) 0.2342(5)
C29 C -0.2833(11) -0.2385(9) 0.1936(6)
H29 H -0.27230 -0.23860 0.15490
C30 C -0.3188(10) -0.3370(9) 0.2095(6)
H30 H -0.33290 -0.40130 0.18070
C31 C -0.3326(10) -0.3387(8) 0.2661(5)
C32 C -0.3177(10) -0.2425(9) 0.3076(5)
H31 H -0.33340 -0.24300 0.34590
C33 C -0.280(1) -0.1461(10) 0.2930(5)
H32 H -0.26400 -0.08150 0.32190
C34 C -0.3711(10) -0.4418(9) 0.2834(6)
H33 H -0.32430 -0.43030 0.32040
H34 H -0.35290 -0.49570 0.25390
C35 C -0.5808(12) -0.5787(9) 0.2653(6)
H35 H -0.56870 -0.63220 0.23590
C36 C -0.6567(12) -0.4911(10) 0.3274(6)
H36 H -0.71200 -0.47290 0.35080
C37 C 0.5389(10) 0.3475(10) 0.9012(6)
H37 H 0.50980 0.29010 0.91760
C38 C 0.5977(13) 0.5008(10) 0.8864(6)
H38 H 0.61690 0.57460 0.89230
C39 C 0.5671(10) 0.2445(9) 0.8041(6)
H39 H 0.51550 0.23920 0.77000
H40 H 0.52960 0.18140 0.81780
C40 C 0.6859(10) 0.2437(8) 0.7856(5)
C41 C 0.7465(12) 0.1909(9) 0.8087(5)
H41 H 0.71630 0.15870 0.83800
C42 C 0.8520(11) 0.1854(10) 0.7887(5)
H42 H 0.89280 0.14970 0.80500
C43 C 0.8984(10) 0.2313(8) 0.7452(5)
C44 C 0.8382(10) 0.2852(8) 0.7224(5)
H43 H 0.86950 0.31830 0.69360
C45 C 0.7314(10) 0.2907(9) 0.7418(5)
H44 H 0.69030 0.32610 0.72550
C46 C 1.0128(10) 0.2206(11) 0.7223(6)
H45 H 1.06210 0.28820 0.71560
H46 H 1.05820 0.20550 0.75170
C47 C 1.0225(11) 0.1386(11) 0.6163(5)
H47 H 1.06940 0.20100 0.60720
C48 C 0.9277(17) -0.0210(12) 0.6140(7)
H48 H 0.89230 -0.09570 0.60080
Mo1A Mo -0.15243(8) 0.48677(7) 0.48446(4)
Mo2A Mo -0.06736(9) 0.46219(8) 0.34510(4)
Mo3A Mo 0.01524(9) 0.69571(7) 0.58465(4)
Mo4A Mo -0.10444(9) 0.32900(7) 0.55279(4)
Mo5A Mo 0.68318(8) -0.06576(7) 0.88518(4)
Mo6A Mo 0.71403(8) 0.18578(7) 0.99890(4)
Mo7A Mo 0.44858(8) 0.00149(7) 0.93224(4)
Mo8A Mo 0.45484(9) -0.26153(7) 0.90713(4)
Cu1* Cu 0.43338(19) 1.51152(12) 0.57320(9)
Cu1** Cu 0.43338(19) -0.48848(12) 0.57320(9)
Cu2A Cu 0.90104(19) 0.02785(11) 1.07890(8)
Cu2* Cu 0.09896(19) 0.97215(11) 0.92110(8)
Cu2** Cu 0.09896(19) -1.02785(11) 0.92110(8)
Cu3A Cu -0.17597(15) 0.70793(14) 0.72316(9)
Cu3* Cu -0.82403(15) -0.70793(14) 0.27684(9)
Cu3** Cu 1.17597(15) 1.29207(14) 0.27684(9)
Cu4* Cu 1.50000 -0.50000 0.00000
O1A O -0.2743(7) 0.4876(7) 0.5203(4)
O3A O -0.2032(6) 0.4703(6) 0.4112(3)
O4A O -0.0269(6) 0.5098(5) 0.5577(3)
O5A O -0.0185(7) 0.6142(6) 0.3822(3)
O6A O -0.0588(7) 0.6400(5) 0.5021(3)
O7A O -0.1113(8) 0.6861(7) 0.6170(4)
O8A O -0.1592(7) 0.3416(5) 0.4748(3)
O9A O 0.0589(8) 0.4599(8) 0.3143(4)
O10A O -0.2267(8) 0.3368(7) 0.5855(4)
O11A O -0.1151(7) 0.3221(6) 0.3579(3)
O12A O 0.0812(9) 0.8281(7) 0.5911(4)
O13A O -0.1188(8) 0.1980(7) 0.5349(4)
O14A O -0.1717(9) 0.4429(8) 0.2889(4)
O15A O 0.4337(7) 0.0769(6) 0.8860(3)
O16A O 0.6949(6) 0.0520(6) 1.0503(3)
O17A O 0.4709(6) -0.1178(5) 0.8816(3)
O18A O 0.6983(7) 0.2704(6) 0.9606(4)
O19A O 0.4755(7) -0.3297(6) 0.9552(4)
O20A O 0.5228(6) 0.1069(5) 1.0067(3)
O21A O 0.6990(6) 0.2582(5) 1.0753(3)
O22A O 0.6306(7) -0.1929(6) 0.9056(4)
O23A O 0.4209(9) -0.3508(7) 0.8406(4)
O24A O 0.8340(8) -0.0220(7) 0.9038(4)
O25A O 0.6635(8) -0.0839(7) 0.8114(4)
O26A O 0.8608(7) 0.2020(6) 1.0020(4)
O27A O 0.6464(6) 0.0528(6) 0.9317(3)
N1* N 0.3854(11) 1.3631(8) 0.5439(5)
N2* N 0.2682(11) 1.1898(8) 0.5206(5)
N3* N 0.3880(11) 1.2007(8) 0.5215(4)
N4* N 0.5026(10) 0.6591(8) 0.6105(5)
N4** N 0.5026(10) 1.6591(8) 0.6105(5)
N5* N 0.6381(11) 0.8221(9) 0.6435(6)
N6* N 0.5315(9) 0.8210(8) 0.6587(5)
N7* N 0.1564(10) -0.8784(7) 0.9491(4)
N7A N 0.8436(10) -0.1216(7) 1.0509(4)
N8* N 0.2711(9) -0.7078(7) 0.9854(5)
N9* N 0.1575(8) -0.7167(7) 0.9745(4)
N10* N 0.0174(9) -0.1745(7) 0.8882(4)
N10A N 0.9826(9) 0.1745(7) 1.1118(4)
N11* N -0.1281(10) -0.3324(9) 0.8654(6)
N12* N -0.0267(9) -0.3444(7) 0.8463(4)
N13* N 1.0541(8) 1.1566(7) 0.2516(4)
N13A N -0.0541(8) 0.8434(7) 0.7484(4)
N14* N 0.8862(8) 1.0232(7) 0.2279(4)
N15* N 0.9696(9) 0.9842(8) 0.2064(5)
N16* N 0.3161(9) 0.4124(7) 0.2881(4)
N16A N -0.3161(9) 0.5876(7) 0.7119(4)
N17* N 0.4532(8) 0.5755(8) 0.3303(5)
N18* N 0.5011(8) 0.5162(7) 0.2902(4)
N19A N 1.4516(10) -0.4480(9) 0.0728(5)
N19A* N 0.4516(10) 0.5520(9) 1.0728(5)
N20A N 1.4247(8) -0.3408(6) 0.1495(4)
N21A N 1.3852(9) -0.4394(7) 0.1602(5)
N22A N 1.0173(11) -0.0406(9) 0.4212(5)
N23A N 1.0136(8) -0.1346(8) 0.3324(4)
N24A N 1.0711(12) -0.0336(9) 0.3318(5)
C1* C 0.2726(14) 1.2908(11) 0.5364(7)
H1* H 0.20500 1.30990 0.54190
C2* C 0.4556(13) 1.3038(11) 0.5350(6)
H2* H 0.53910 1.33090 0.53790
C3* C 0.4267(19) 1.1101(14) 0.5069(6)
H3* H 0.50340 1.13140 0.49160
H4* H 0.36920 1.05350 0.47580
C4* C 0.4398(14) 1.0653(9) 0.5578(6)
C5* C 0.5476(14) 1.1065(9) 0.5923(6)
H5* H 0.60530 1.16810 0.58710
C6* C 0.5766(14) 1.0611(9) 0.6350(7)
H6* H 0.65310 1.08780 0.65580
C7* C 0.4862(12) 0.9749(9) 0.6448(5)
C8* C 0.3721(12) 0.9355(10) 0.6107(6)
H7* H 0.31000 0.87880 0.61780
C9* C 0.3535(12) 0.9788(10) 0.5689(6)
H8* H 0.27890 0.94950 0.54600
C10* C 0.5108(13) 0.9182(9) 0.6887(5)
H9* H 0.58080 0.96620 0.71640
H10* H 0.44270 0.90000 0.71060
C11* C 0.4486(14) 0.7215(10) 0.6371(7)
H11* H 0.36690 0.70130 0.64070
C12* C 0.6163(15) 0.7223(12) 0.6131(7)
H12* H 0.67440 0.69810 0.59540
C13* C 0.0872(11) -0.8167(9) 0.9530(6)
H13* H 0.00450 -0.84130 0.94240
C14* C 0.2701(11) -0.8058(8) 0.9671(5)
H14* H 0.33870 -0.82410 0.96640
C15* C 0.1219(12) -0.6204(9) 0.9929(6)
H15* H 0.18860 -0.56180 1.01840
H16* H 0.05510 -0.63680 1.01590
C16* C 0.0866(10) -0.5838(8) 0.9438(5)
C17* C -0.034(1) -0.5959(8) 0.9328(5)
H17* H -0.09060 -0.63180 0.95400
C18* C 0.1660(12) -0.5329(9) 0.9102(6)
H18* H 0.24620 -0.52570 0.91670
C19* C 0.1344(12) -0.4935(9) 0.8690(5)
H19* H 0.19080 -0.46140 0.84660
C20* C 0.0140(12) -0.5010(8) 0.8599(5)
C21* C -0.0699(10) -0.5547(8) 0.8904(5)
H20* H -0.15030 -0.56330 0.88290
C22* C -0.0241(15) -0.4480(9) 0.8165(6)
H21* H -0.10330 -0.49380 0.79610
H22* H 0.03170 -0.44030 0.78750
C23* C -0.0966(12) -0.2321(10) 0.8898(6)
H23* H -0.14980 -0.20110 0.90760
C24* C 0.0587(11) -0.2497(9) 0.8602(5)
H24* H 0.13730 -0.23680 0.85170
C25* C 1.0665(12) 1.0653(10) 0.2213(6)
H25* H 1.14050 1.06150 0.21180
C26* C 0.9372(10) 1.1276(9) 0.2556(6)
H26* H 0.89770 1.17230 0.27450
C27* C 0.7605(11) 0.9578(10) 0.2182(7)
H27* H 0.71680 0.99870 0.24120
H28* H 0.73130 0.94200 0.17700
C28* C 0.7342(9) 0.8540(9) 0.2342(5)
C29* C 0.7167(11) 0.7615(9) 0.1936(6)
H29* H 0.72770 0.76140 0.15490
C30* C 0.6812(10) 0.6630(9) 0.2095(6)
H30* H 0.66710 0.59870 0.18070
C31* C 0.6674(10) 0.6613(8) 0.2661(5)
C32* C 0.6823(10) 0.7575(9) 0.3076(5)
H31* H 0.66660 0.75700 0.34590
C33* C 0.720(1) 0.8539(10) 0.2930(5)
H32* H 0.73600 0.91850 0.32190
C34* C 0.6289(10) 0.5582(9) 0.2834(6)
H33* H 0.67570 0.56970 0.32040
H34* H 0.64710 0.50430 0.25390
C35* C 0.4192(12) 0.4213(9) 0.2653(6)
H35* H 0.43130 0.36780 0.23590
C36* C 0.3433(12) 0.5089(10) 0.3274(6)
H36* H 0.28800 0.52710 0.35080
C37A C 1.4611(10) -0.3475(10) 0.0988(6)
H37A H 1.49020 -0.29010 0.08240
C38A C 1.4023(13) -0.5008(10) 0.1136(6)
H38A H 1.38310 -0.57460 0.10770
C39A C 1.4329(10) -0.2445(9) 0.1959(6)
H39A H 1.48450 -0.23920 0.23000
H40A H 1.47040 -0.18140 0.18220
C40A C 1.3141(10) -0.2437(8) 0.2144(5)
C41A C 1.2535(12) -0.1909(9) 0.1913(5)
H41A H 1.28370 -0.15870 0.16200
C42A C 1.1480(11) -0.1854(10) 0.2113(5)
H42A H 1.10720 -0.14970 0.19500
C43A C 1.1016(10) -0.2313(8) 0.2548(5)
C44A C 1.1618(10) -0.2852(8) 0.2776(5)
H43A H 1.13050 -0.31830 0.30640
C45A C 1.2686(10) -0.2907(9) 0.2582(5)
H44A H 1.30970 -0.32610 0.27450
C46A C 0.9872(10) -0.2206(11) 0.2777(6)
H45A H 0.93790 -0.28820 0.28440
H46A H 0.94180 -0.20550 0.24830
C47A C 0.9775(11) -0.1386(11) 0.3837(5)
H47A H 0.93060 -0.20100 0.39280
C48A C 1.0723(17) 0.0210(12) 0.3860(7)
H48A H 1.10770 0.09570 0.39920
#END
