
#######################################################################
#
#                 Cambridge Crystallographic Data Centre
#                                CCDC
#
#######################################################################
#
# If this CIF has been generated from an entry in the Cambridge
# Structural Database, then it will include bibliographic, chemical,
# crystal, experimental, refinement or atomic coordinate data resulting
# from the CCDC's data processing and validation procedures.
#
#######################################################################

data_CSD_CIF_DUCHAL
_audit_creation_date 2009-10-09
_audit_creation_method CSD-ConQuest-V1
_database_code_CSD DUCHAL
_database_code_depnum_ccdc_archive 'CCDC 692091'
_chemical_formula_sum 'C56 H56 Ag4 Mo8 N16 O26'
_chemical_formula_moiety
;
(C28 H28 Ag2 Mo8 N8 O26 2-)n,2n(C14 H14 Ag1 N4 1+)
;
_journal_coden_Cambridge 9
_journal_volume 48
_journal_year 2009
_journal_page_first 5861
_journal_name_full 'Inorg.Chem. '
loop_
_publ_author_name
"Bao-xia Dong"
"Qiang Xu"
_chemical_name_systematic
;
catena-(bis((\m~2~-1,4-bis(Imidazol-1-ylmethyl)benzene-N,N')-silver(i)) 
\d-bis(\m~3~-oxo)-bis(\m~2~-1,4-bis(imidazol-1-ylmethyl)benzene-N,N')-tetradec
akis(\m~2~-oxo)-decaoxo-octa-molybdenum(vi)-di-silver(i))
;
_cell_volume   3688.824
_exptl_crystal_colour 'colorless'
_exptl_crystal_density_diffrn 2.312
_exptl_special_details
;
luminescent
isostructural with the Cu analogue

;
_exptl_crystal_description 'block'
_diffrn_ambient_temperature 293
#These two values have been output from a single CSD field.
_refine_ls_R_factor_gt 0.0591
_refine_ls_wR_factor_gt 0.0591
_symmetry_cell_setting monoclinic
_symmetry_space_group_name_H-M 'P 21/n'
_symmetry_Int_Tables_number 14
loop_
_symmetry_equiv_pos_site_id
_symmetry_equiv_pos_as_xyz
1 x,y,z
2 1/2-x,1/2+y,1/2-z
3 -x,-y,-z
4 -1/2+x,-1/2-y,-1/2+z
_cell_length_a 12.700(3)
_cell_length_b 23.150(5)
_cell_length_c 13.200(3)
_cell_angle_alpha 90
_cell_angle_beta 108.10(3)
_cell_angle_gamma 90
_cell_formula_units_Z 2
loop_
_atom_type_symbol
_atom_type_radius_bond
C 0.68
H 0.23
Ag 1.70
Mo 1.36
N 0.68
O 0.68
loop_
_atom_site_label
_atom_site_type_symbol
_atom_site_fract_x
_atom_site_fract_y
_atom_site_fract_z
Mo1 Mo -0.17718(8) 0.10398(4) -0.09457(9)
Mo2 Mo -0.19587(11) -0.01271(6) -0.26294(13)
Mo3 Mo 0.09772(8) 0.03908(4) -0.05190(9)
Mo4 Mo -0.00193(9) 0.11307(5) 0.15074(9)
Ag1 Ag 0.14243(8) 0.26992(5) 0.29995(8)
Ag2 Ag 0.32047(12) 0.51516(6) -0.18293(13)
C1 C 0.0211(10) 0.2821(6) 0.0618(10)
H1 H 0.01270 0.24220 0.05750
C2 C 0.0656(12) 0.3678(6) 0.1221(13)
H2 H 0.09490 0.39840 0.16770
C3 C 0.0163(12) 0.3723(6) 0.0166(12)
H3 H 0.00280 0.40620 -0.02330
C4 C -0.0508(11) 0.2974(6) -0.1327(11)
H4 H -0.08980 0.32860 -0.17790
H5 H -0.10220 0.26560 -0.13890
C5 C 0.0451(11) 0.2780(6) -0.1687(11)
C6 C 0.1031(11) 0.3173(6) -0.2054(11)
H6 H 0.08220 0.35590 -0.20950
C7 C 0.1942(10) 0.3008(7) -0.2377(11)
H7 H 0.23240 0.32830 -0.26410
C8 C 0.2266(10) 0.2438(6) -0.2301(10)
C9 C 0.1670(11) 0.2045(6) -0.1883(11)
H8 H 0.18910 0.16600 -0.17930
C10 C 0.0765(12) 0.2221(6) -0.1604(12)
H9 H 0.03630 0.19510 -0.13540
C11 C 0.3241(11) 0.2263(7) -0.2676(11)
H10 H 0.37720 0.25770 -0.25520
H11 H 0.36080 0.19290 -0.22790
C12 C 0.2575(10) 0.2522(6) -0.4590(12)
H12 H 0.26860 0.29170 -0.44760
C13 C 0.2602(13) 0.1606(6) -0.4310(14)
H13 H 0.27200 0.12470 -0.39760
C14 C 0.2180(11) 0.1691(6) -0.5349(13)
H14 H 0.19480 0.14030 -0.58610
C15 C 0.5137(11) 0.6040(6) -0.1279(13)
H15 H 0.50680 0.60910 -0.19960
C16 C 0.4906(13) 0.5734(6) 0.0145(13)
H16 H 0.46340 0.55370 0.06250
C17 C 0.5731(14) 0.6127(7) 0.0419(12)
H17 H 0.61410 0.62390 0.11040
C18 C 0.6590(11) 0.6784(7) -0.0636(13)
H18 H 0.67000 0.67370 -0.13270
H19 H 0.73040 0.67310 -0.00980
C19 C 0.6205(10) 0.7387(6) -0.0555(10)
C20 C 0.6795(10) 0.7840(6) -0.0827(11)
H20 H 0.73750 0.77580 -0.10950
C21 C 0.6527(10) 0.8396(6) -0.0704(12)
H21 H 0.69220 0.86910 -0.08970
C22 C 0.5657(11) 0.8538(6) -0.0288(12)
C23 C 0.5114(10) 0.8088(6) -0.0032(11)
H22 H 0.45500 0.81620 0.02620
C24 C 0.5366(11) 0.7522(6) -0.0190(12)
H23 H 0.49400 0.72270 -0.00390
C25 C 0.5374(12) 0.9140(6) -0.0065(14)
H24 H 0.49370 0.91310 0.04210
H25 H 0.60500 0.93520 0.02760
C26 C 0.3646(12) 0.9488(6) -0.1434(14)
H26 H 0.31550 0.93500 -0.10940
C27 C 0.4292(18) 0.9906(8) -0.258(2)
H27 H 0.43420 1.01030 -0.31790
C28 C 0.5130(18) 0.9711(8) -0.179(2)
H28 H 0.58730 0.97550 -0.17330
N1 N 0.0662(8) 0.3108(5) 0.1523(8)
N2 N -0.0102(8) 0.3172(5) -0.0211(8)
N3 N 0.2839(8) 0.2129(5) -0.3803(9)
N4 N 0.2139(9) 0.2288(5) -0.5549(9)
N5 N 0.4531(9) 0.5668(5) -0.0926(10)
N6 N 0.5839(9) 0.6325(5) -0.0507(9)
N7 N 0.4748(10) 0.9434(5) -0.1050(13)
N8 N 0.3341(11) 0.9765(6) -0.2366(14)
O1 O -0.2096(10) 0.0288(5) -0.3685(11)
O2 O 0.0631(7) 0.0490(4) 0.2453(7)
O3 O -0.0586(6) 0.1430(3) 0.0104(6)
O4 O 0.1258(7) 0.0699(4) 0.0749(7)
O5 O -0.1097(10) 0.1255(6) 0.1956(9)
O6 O -0.1927(7) 0.1509(4) -0.1967(7)
O7 O -0.2392(7) 0.0343(4) -0.1687(8)
O8 O 0.1959(7) 0.0587(4) -0.1065(8)
O9 O 0.0894(10) 0.1655(4) 0.2036(9)
O10 O -0.2944(9) -0.0636(5) -0.2993(9)
O11 O -0.0297(8) 0.0626(4) -0.1367(8)
O12 O 0.1001(7) -0.0380(4) -0.0416(7)
O13 O -0.2844(7) 0.1193(4) -0.0488(9)
Mo1B Mo 0.17718(8) -0.10398(4) 0.09457(9)
Mo2B Mo 0.19587(11) 0.01271(6) 0.26294(13)
Mo3B Mo -0.09772(8) -0.03908(4) 0.05190(9)
Mo4B Mo 0.00193(9) -0.11307(5) -0.15074(9)
Ag1C Ag -0.35757(8) 0.23008(5) -0.20005(8)
Ag1B Ag -0.14243(8) -0.26992(5) -0.29995(8)
Ag1A Ag 0.35757(8) -0.23008(5) 0.20005(8)
Ag1* Ag 0.14243(8) 0.26992(5) -0.70005(8)
Ag1C* Ag -0.35757(8) 0.23008(5) -1.20005(8)
Ag2A Ag 0.17953(12) 1.01516(6) -0.31707(13)
C1C C -0.4789(10) 0.2179(6) -0.4382(10)
H1C H -0.48730 0.25780 -0.44250
C2C C -0.4344(12) 0.1322(6) -0.3779(13)
H2C H -0.40510 0.10160 -0.33230
C3C C -0.4837(12) 0.1277(6) -0.4834(12)
H3C H -0.49720 0.09380 -0.52330
C4C C -0.5508(11) 0.2026(6) -0.6327(11)
H4C H -0.58980 0.17140 -0.67790
H5C H -0.60220 0.23440 -0.63890
C5C C -0.4549(11) 0.2220(6) -0.6687(11)
C6C C -0.3969(11) 0.1827(6) -0.7054(11)
H6C H -0.41780 0.14410 -0.70950
C7C C -0.3058(10) 0.1992(7) -0.7377(11)
H7C H -0.26760 0.17170 -0.76410
C8C C -0.2734(10) 0.2562(6) -0.7301(10)
C9C C -0.3330(11) 0.2955(6) -0.6883(11)
H8C H -0.31090 0.33400 -0.67930
C10C C -0.4235(12) 0.2779(6) -0.6604(12)
H9C H -0.46370 0.30490 -0.63540
C11C C -0.1759(11) 0.2737(7) -0.7676(11)
H10C H -0.12280 0.24230 -0.75520
H11C H -0.13920 0.30710 -0.72790
C12C C -0.2425(10) 0.2478(6) -0.9590(12)
H12C H -0.23140 0.20830 -0.94760
C13C C -0.2398(13) 0.3394(6) -0.9310(14)
H13C H -0.22800 0.37530 -0.89760
C14C C -0.2820(11) 0.3309(6) -1.0349(13)
H14C H -0.30520 0.35970 -1.08610
N1C N -0.4338(8) 0.1892(5) -0.3477(8)
N2C N -0.5102(8) 0.1828(5) -0.5211(8)
N3C N -0.2161(8) 0.2871(5) -0.8803(9)
N4* N 0.2139(9) 0.2288(5) 0.4451(9)
N4C N -0.2861(9) 0.2712(5) -0.0549(9)
N4C* N -0.2861(9) 0.2712(5) -1.0549(9)
N8A N 0.1659(11) 0.4765(6) -0.2634(14)
O1B O 0.2096(10) -0.0288(5) 0.3685(11)
O2B O -0.0631(7) -0.0490(4) -0.2453(7)
O3B O 0.0586(6) -0.1430(3) -0.0104(6)
O4B O -0.1258(7) -0.0699(4) -0.0749(7)
O5B O 0.1097(10) -0.1255(6) -0.1956(9)
O6C O 0.3073(7) 0.3491(4) 0.3033(7)
O6B O 0.1927(7) -0.1509(4) 0.1967(7)
O7B O 0.2392(7) -0.0343(4) 0.1687(8)
O8B O -0.1959(7) -0.0587(4) 0.1065(8)
O9C O -0.4106(10) 0.3345(4) -0.2964(9)
O9B O -0.0894(10) -0.1655(4) -0.2036(9)
O10B O 0.2944(9) 0.0636(5) 0.2993(9)
O11B O 0.0297(8) -0.0626(4) 0.1367(8)
O12B O -0.1001(7) 0.0380(4) 0.0416(7)
O13B O 0.2844(7) -0.1193(4) 0.0488(9)
#END
