
#######################################################################
#
#                 Cambridge Crystallographic Data Centre
#                                CCDC
#
#######################################################################
#
# If this CIF has been generated from an entry in the Cambridge
# Structural Database, then it will include bibliographic, chemical,
# crystal, experimental, refinement or atomic coordinate data resulting
# from the CCDC's data processing and validation procedures.
#
#######################################################################

data_CSD_CIF_DUDHAO
_audit_creation_date 2019-12-11
_audit_creation_method CSD-ConQuest-V1
_database_code_CSD DUDHAO
_database_code_depnum_ccdc_archive 'CCDC 1971376'
_chemical_formula_sum 'C48 H50 N3 O19 Y3'
_chemical_formula_moiety
;
(C42 H26 O19 Y3 3-)n,3(C2 H8 N1 1+)
;
_journal_coden_Cambridge 1078
_journal_year 2019
_journal_name_full 'CSD Communication(Private Communication) '
loop_
_publ_author_name
"N.Panagiotou"
"Kasiani Evangelou"
"A.Psalti"
"N.Varnava"
"G.K.Angeli"
"P.N.Trikalitis"
"J.C.Plakatouras"
"T.Lazarides"
"A.J.Tasiopoulos"
_chemical_name_systematic
;
catena-[tris(dimethylammonium) 
tris(\m-4,4'-oxydibenzoato)-bis(\m-oxo)-bis(\m-hydroxo)-tri-yttrium(iii) 
unknown solvate]
;
_cell_volume  16388.815
_exptl_crystal_colour 'colorless'
_exptl_crystal_description 'plate'
_diffrn_ambient_temperature 104.8
_refine_special_details
;
Disordered cation and solvent molecules were not modelled and the disordered 
density was taken into account using the SQUEEZE/PLATON procedure.
;
#These two values have been output from a single CSD field.
_refine_ls_R_factor_gt 0.088
_refine_ls_wR_factor_gt 0.088
_symmetry_cell_setting rhombohedral
_symmetry_space_group_name_H-M 'R -3'
_symmetry_Int_Tables_number 148
loop_
_symmetry_equiv_pos_site_id
_symmetry_equiv_pos_as_xyz
1 x,y,z
2 -y,x-y,z
3 -x+y,-x,z
4 2/3+x,1/3+y,1/3+z
5 2/3-y,1/3+x-y,1/3+z
6 2/3-x+y,1/3-x,1/3+z
7 1/3+x,2/3+y,2/3+z
8 1/3-y,2/3+x-y,2/3+z
9 1/3-x+y,2/3-x,2/3+z
10 -x,-y,-z
11 y,-x+y,-z
12 x-y,x,-z
13 -2/3-x,-1/3-y,-1/3-z
14 -2/3+y,-1/3-x+y,-1/3-z
15 -2/3+x-y,-1/3+x,-1/3-z
16 -1/3-x,-2/3-y,-2/3-z
17 -1/3+y,-2/3-x+y,-2/3-z
18 -1/3+x-y,-2/3+x,-2/3-z
_cell_length_a 27.755(2)
_cell_length_b 27.755(2)
_cell_length_c 24.566(4)
_cell_angle_alpha 90
_cell_angle_beta 90
_cell_angle_gamma 120
_cell_formula_units_Z 6
loop_
_atom_type_symbol
_atom_type_radius_bond
C 0.68
H 0.23
O 0.68
Y 1.90
loop_
_atom_site_label
_atom_site_type_symbol
_atom_site_fract_x
_atom_site_fract_y
_atom_site_fract_z
C1 C 0.4602(3) 0.6031(3) 0.1676(3)
C2 C 0.5020(3) 0.5834(3) 0.1664(3)
C3 C 0.5051(4) 0.5540(4) 0.2107(4)
H1 H 0.48298 0.54788 0.24119
C4 C 0.5359(3) 0.5935(4) 0.1212(3)
H2 H 0.53423 0.61375 0.09181
C5 C 0.5424(4) 0.5335(5) 0.2087(4)
H3 H 0.54428 0.51258 0.23735
C6 C 0.5720(4) 0.5732(5) 0.1207(4)
H4 H 0.59426 0.57893 0.09037
C7 C 0.5755(4) 0.5444(5) 0.1646(3)
C8 C 0.6201(4) 0.5012(4) 0.1211(3)
C9 C 0.6737(4) 0.5155(5) 0.1069(4)
H5 H 0.70394 0.54279 0.12615
C10 C 0.5759(4) 0.4622(4) 0.0936(3)
H6 H 0.54018 0.45361 0.10366
C11 C 0.6818(4) 0.4877(4) 0.0624(4)
H7 H 0.71764 0.49664 0.05233
C12 C 0.5836(3) 0.4344(4) 0.0496(3)
H8 H 0.55300 0.40698 0.03086
C13 C 0.6372(3) 0.4479(3) 0.0342(3)
C14 C 0.6448(4) 0.4189(3) -0.0122(3)
O1 O 0.33333 0.66667 0.2530(3)
O2 O 0.27039(16) 0.58696(17) 0.19594(19)
O3 O 0.69511(19) 0.43852(26) -0.03025(19)
O4 O 0.60251(28) 0.3769(2) -0.03124(19)
O5 O 0.6147(3) 0.5271(4) 0.1663(2)
O6 O 0.42574(18) 0.58624(19) 0.20625(18)
O7 O 0.4651(2) 0.6365(2) 0.12920(19)
Y1 Y 0.35104(2) 0.59602(2) 0.23120(2)
C1A C 0.3969(3) 0.8571(3) 0.1676(3)
C2A C 0.4166(3) 0.9186(3) 0.1664(3)
C3A C 0.4460(4) 0.9511(4) 0.2107(4)
H1A H 0.45212 0.93510 0.24119
C4A C 0.4065(3) 0.9424(4) 0.1212(3)
H2A H 0.38625 0.92048 0.09181
C5A C 0.4665(4) 1.0089(5) 0.2087(4)
H3A H 0.48742 1.03171 0.23735
C6A C 0.4268(4) 0.9988(5) 0.1207(4)
H4A H 0.42107 1.01533 0.09037
C7A C 0.4556(4) 1.0311(5) 0.1646(3)
C8A C 0.4988(4) 1.1189(4) 0.1211(3)
C9A C 0.4845(4) 1.1582(5) 0.1069(4)
H5A H 0.45721 1.16115 0.12615
C10A C 0.5378(4) 1.1137(4) 0.0936(3)
H6A H 0.54639 1.08658 0.10366
C11A C 0.5123(4) 1.1941(4) 0.0624(4)
H7A H 0.50336 1.22100 0.05233
C12A C 0.5656(3) 1.1492(4) 0.0496(3)
H8A H 0.59302 1.14602 0.03086
C13A C 0.5521(3) 1.1893(3) 0.0342(3)
C14A C 0.5811(4) 1.2259(3) -0.0122(3)
O2A O 0.41304(16) 0.68343(17) 0.19594(19)
O3A O 0.56148(19) 1.25659(26) -0.03025(19)
O4A O 0.62310(28) 1.22561(20) -0.03124(19)
O5A O 0.4729(3) 1.0876(4) 0.1663(2)
O6A O 0.41376(18) 0.83950(19) 0.20625(18)
O7A O 0.3635(2) 0.8286(2) 0.12920(19)
Y1A Y 0.40398(2) 0.75502(2) 0.23120(2)
C1B C 0.1429(3) 0.5398(3) 0.1676(3)
C2B C 0.0814(3) 0.4980(3) 0.1664(3)
C3B C 0.0489(4) 0.4949(4) 0.2107(4)
H1B H 0.06490 0.51702 0.24119
C4B C 0.0576(3) 0.4641(4) 0.1212(3)
H2B H 0.07952 0.46577 0.09181
C5B C -0.0089(4) 0.4576(5) 0.2087(4)
H3B H -0.03170 0.45572 0.23735
C6B C 0.0012(4) 0.4280(5) 0.1207(4)
H4B H -0.01533 0.40574 0.09037
C7B C -0.0311(4) 0.4245(5) 0.1646(3)
C8B C -0.1189(4) 0.3799(4) 0.1211(3)
C9B C -0.1582(4) 0.3263(5) 0.1069(4)
H5B H -0.16115 0.29606 0.12615
C10B C -0.1137(4) 0.4241(4) 0.0936(3)
H6B H -0.08658 0.45982 0.10366
C11B C -0.1941(4) 0.3182(4) 0.0624(4)
H7B H -0.22100 0.28236 0.05233
C12B C -0.1492(3) 0.4164(4) 0.0496(3)
H8B H -0.14602 0.44700 0.03086
C13B C -0.1893(3) 0.3628(3) 0.0342(3)
C14B C -0.2259(4) 0.3552(3) -0.0122(3)
O2B O 0.31657(16) 0.72961(17) 0.19594(19)
O3B O -0.25659(19) 0.30489(26) -0.03025(19)
O4B O -0.22561(28) 0.39749(20) -0.03124(19)
O5B O -0.0876(3) 0.3853(4) 0.1663(2)
O6B O 0.16050(18) 0.57426(19) 0.20625(18)
O7B O 0.1714(2) 0.5349(2) 0.12920(19)
Y1B Y 0.24498(2) 0.64896(2) 0.23120(2)
O2O O 0.396277(160) 0.746373(170) 0.137393(190)
O2P O 0.253627(160) 0.649903(170) 0.137393(190)
O2Q O 0.350097(160) 0.603723(170) 0.137393(190)
O3C O 0.361777(190) 0.771853(260) 0.303083(190)
O3D O 0.228147(190) 0.589923(260) 0.303083(190)
O3E O 0.410077(190) 0.638223(260) 0.303083(190)
O4C O 0.269177(280) 0.710233(200) 0.302093(190)
O4D O 0.289767(280) 0.558943(200) 0.302093(190)
O4E O 0.441057(280) 0.730823(200) 0.302093(190)
O7O O 0.201567(200) 0.696833(200) 0.204133(190)
O7P O 0.303167(200) 0.504733(200) 0.204133(190)
O7Q O 0.495267(200) 0.798433(200) 0.204133(190)
Y1F Y -0.315627(20) 0.262687(20) -0.102133(20)
Y1F* Y 0.684373(20) 1.262687(20) -0.102133(20)
Y1G Y -0.262687(20) 0.421687(20) -0.102133(20)
Y1G* Y 0.737313(20) 0.421687(20) -0.102133(20)
Y1H Y 0.578313(20) 0.315627(20) -0.102133(20)
Y1H* Y 0.578313(20) 1.315627(20) -0.102133(20)
Y1O Y 0.315627(20) 0.737313(20) 0.102133(20)
Y1P Y 0.262687(20) 0.578313(20) 0.102133(20)
Y1Q Y 0.421687(20) 0.684373(20) 0.102133(20)
#END
