
#######################################################################
#
#                 Cambridge Crystallographic Data Centre
#                                CCDC
#
#######################################################################
#
# If this CIF has been generated from an entry in the Cambridge
# Structural Database, then it will include bibliographic, chemical,
# crystal, experimental, refinement or atomic coordinate data resulting
# from the CCDC's data processing and validation procedures.
#
#######################################################################

data_CSD_CIF_DUDHES
_audit_creation_date 2019-12-11
_audit_creation_method CSD-ConQuest-V1
_database_code_CSD DUDHES
_database_code_depnum_ccdc_archive 'CCDC 1971377'
_chemical_formula_sum 'C48 H50 Ho3 N3 O19'
_chemical_formula_moiety
;
(C42 H26 Ho3 O19 3-)n,3(C2 H8 N1 1+)
;
_journal_coden_Cambridge 1078
_journal_year 2019
_journal_name_full 'CSD Communication(Private Communication) '
loop_
_publ_author_name
"N.Panagiotou"
"Kasiani Evangelou"
"A.Psalti"
"N.Varnava"
"G.K.Angeli"
"P.N.Trikalitis"
"J.C.Plakatouras"
"T.Lazarides"
"A.J.Tasiopoulos"
_chemical_name_systematic
;
catena-[tris(dimethylammonium) 
tris(\m-4,4'-oxydibenzoato)-bis(\m-oxo)-bis(\m-hydroxo)-tri-holmium(iii) 
unknown solvate]
;
_cell_volume  16445.201
_exptl_crystal_colour 'pink'
_exptl_crystal_description 'plate'
_diffrn_ambient_temperature 109
_refine_special_details
;
Disordered solvent molecules were not modelled and the disordered density was 
taken into account using the SQUEEZE/PLATON procedure.
;
#These two values have been output from a single CSD field.
_refine_ls_R_factor_gt 0.0602
_refine_ls_wR_factor_gt 0.0602
_symmetry_cell_setting rhombohedral
_symmetry_space_group_name_H-M 'R -3'
_symmetry_Int_Tables_number 148
loop_
_symmetry_equiv_pos_site_id
_symmetry_equiv_pos_as_xyz
1 x,y,z
2 -y,x-y,z
3 -x+y,-x,z
4 2/3+x,1/3+y,1/3+z
5 2/3-y,1/3+x-y,1/3+z
6 2/3-x+y,1/3-x,1/3+z
7 1/3+x,2/3+y,2/3+z
8 1/3-y,2/3+x-y,2/3+z
9 1/3-x+y,2/3-x,2/3+z
10 -x,-y,-z
11 y,-x+y,-z
12 x-y,x,-z
13 -2/3-x,-1/3-y,-1/3-z
14 -2/3+y,-1/3-x+y,-1/3-z
15 -2/3+x-y,-1/3+x,-1/3-z
16 -1/3-x,-2/3-y,-2/3-z
17 -1/3+y,-2/3-x+y,-2/3-z
18 -1/3+x-y,-2/3+x,-2/3-z
_cell_length_a 27.7647(11)
_cell_length_b 27.7647(11)
_cell_length_c 24.6333(13)
_cell_angle_alpha 90
_cell_angle_beta 90
_cell_angle_gamma 120
_cell_formula_units_Z 6
loop_
_atom_type_symbol
_atom_type_radius_bond
C 0.68
H 0.23
Ho 1.92
N 0.68
O 0.68
loop_
_atom_site_label
_atom_site_type_symbol
_atom_site_fract_x
_atom_site_fract_y
_atom_site_fract_z
C1 C 0.4406(2) 0.6885(2) 0.3207(2)
C2 C 0.4778(2) 0.6966(2) 0.3680(2)
C3 C 0.4731(3) 0.6508(3) 0.3959(3)
H1 H 0.44718 0.61487 0.38508
C4 C 0.5180(2) 0.7488(3) 0.3821(3)
H2 H 0.52226 0.77901 0.36188
C5 C 0.5078(3) 0.6596(3) 0.4401(3)
H3 H 0.50440 0.62947 0.45974
C6 C 0.5538(2) 0.7580(3) 0.4275(3)
H4 H 0.58062 0.79378 0.43762
C7 C 0.5474(2) 0.7134(3) 0.4549(3)
C8 C 0.6359(2) 0.7573(3) 0.4976(3)
C9 C 0.6677(3) 0.7597(3) 0.4540(3)
H5 H 0.65157 0.73630 0.42436
C10 C 0.6585(2) 0.7921(3) 0.5438(3)
H6 H 0.63642 0.79101 0.57270
C11 C 0.7246(2) 0.7979(3) 0.4547(3)
H7 H 0.74688 0.80082 0.42527
C12 C 0.7155(2) 0.8277(3) 0.5431(3)
H8 H 0.73245 0.84984 0.57339
C13 C 0.74766(19) 0.8315(2) 0.5000(2)
C14 C 0.80959(19) 0.8727(2) 0.5006(2)
O1 O 0.33333 0.66667 0.2546(2)
O2 O 0.26942(11) 0.58652(12) 0.19597(13)
O3 O 0.40993(14) 0.63846(16) 0.30398(15)
O4 O 0.44176(14) 0.73127(16) 0.30173(15)
O5 O 0.57866(17) 0.7176(2) 0.49999(19)
O6 O 0.83836(14) 0.86829(21) 0.46282(16)
O7 O 0.82751(21) 0.90782(14) 0.53888(15)
Ho1 Ho 0.35098(2) 0.59651(2) 0.23110(2)
C15 C 0.4363(4) 0.4600(4) 0.0432(5)
H9 H 0.45798 0.49770 0.03087
H10 H 0.43607 0.43528 0.01578
H11 H 0.45235 0.45531 0.07593
C16 C 0.3779(3) 0.4920(3) 0.0863(3)
H12 H 0.38571 0.48893 0.12372
H13 H 0.34133 0.48725 0.08323
H14 H 0.40480 0.52794 0.07272
N1 N 0.3809(6) 0.4475(5) 0.0537(7)
H15 H 0.36305 0.41544 0.07155
H16 H 0.36344 0.44327 0.02219
C1A C 0.3115(2) 0.7521(2) 0.3207(2)
C2A C 0.3034(2) 0.7812(2) 0.3680(2)
C3A C 0.3492(3) 0.8223(3) 0.3959(3)
H1A H 0.38513 0.83231 0.38508
C4A C 0.2512(2) 0.7692(3) 0.3821(3)
H2A H 0.22099 0.74325 0.36188
C5A C 0.3404(3) 0.8482(3) 0.4401(3)
H3A H 0.37053 0.87493 0.45974
C6A C 0.2420(2) 0.7958(3) 0.4275(3)
H4A H 0.20622 0.78685 0.43762
C7A C 0.2866(2) 0.8340(3) 0.4549(3)
C8A C 0.2427(2) 0.8786(3) 0.4976(3)
C9A C 0.2403(3) 0.9080(3) 0.4540(3)
H5A H 0.26370 0.91527 0.42436
C10A C 0.2079(2) 0.8664(3) 0.5438(3)
H6A H 0.20899 0.84540 0.57270
C11A C 0.2021(2) 0.9267(3) 0.4547(3)
H7A H 0.19918 0.94606 0.42527
C12A C 0.1723(2) 0.8878(3) 0.5431(3)
H8A H 0.15016 0.88261 0.57339
C13A C 0.16850(19) 0.91616(20) 0.5000(2)
C14A C 0.12730(19) 0.93689(20) 0.5006(2)
O2A O 0.41348(11) 0.68290(12) 0.19597(13)
O3A O 0.36154(14) 0.77147(16) 0.30398(15)
O4A O 0.26873(14) 0.71049(16) 0.30173(15)
O5A O 0.28240(17) 0.86106(20) 0.49999(19)
O6A O 0.13171(14) 0.97007(21) 0.46282(16)
O7A O 0.09218(21) 0.91969(14) 0.53888(15)
Ho1A Ho 0.40349(2) 0.75447(2) 0.23110(2)
C1B C 0.2479(2) 0.5594(2) 0.3207(2)
C2B C 0.2188(2) 0.5222(2) 0.3680(2)
C3B C 0.1777(3) 0.5269(3) 0.3959(3)
H1B H 0.16769 0.55282 0.38508
C4B C 0.2308(2) 0.4820(3) 0.3821(3)
H2B H 0.25675 0.47774 0.36188
C5B C 0.1518(3) 0.4922(3) 0.4401(3)
H3B H 0.12507 0.49560 0.45974
C6B C 0.2042(2) 0.4462(3) 0.4275(3)
H4B H 0.21315 0.41938 0.43762
C7B C 0.1660(2) 0.4526(3) 0.4549(3)
C8B C 0.1214(2) 0.3641(3) 0.4976(3)
C9B C 0.0920(3) 0.3323(3) 0.4540(3)
H5B H 0.08473 0.34843 0.42436
C10B C 0.1336(2) 0.3415(3) 0.5438(3)
H6B H 0.15460 0.36358 0.57270
C11B C 0.0733(2) 0.2754(3) 0.4547(3)
H7B H 0.05394 0.25312 0.42527
C12B C 0.1122(2) 0.2845(3) 0.5431(3)
H8B H 0.11739 0.26755 0.57339
C13B C 0.08384(19) 0.25234(20) 0.5000(2)
C14B C 0.06311(19) 0.19041(20) 0.5006(2)
O2B O 0.31710(11) 0.73058(12) 0.19597(13)
O3B O 0.22853(14) 0.59007(16) 0.30398(15)
O4B O 0.28951(14) 0.55824(16) 0.30173(15)
O5B O 0.13894(17) 0.42134(20) 0.49999(19)
O6B O 0.02993(14) 0.16164(21) 0.46282(16)
O7B O 0.08031(21) 0.17249(14) 0.53888(15)
Ho1B Ho 0.24553(2) 0.64902(2) 0.23110(2)
O2O O 0.397247(110) 0.746813(120) 0.137363(130)
O2P O 0.253187(110) 0.650433(120) 0.137363(130)
O2Q O 0.349567(110) 0.602753(120) 0.137363(130)
O6L O 0.494973(140) 0.798377(210) 0.203847(160)
O6M O 0.201623(140) 0.696597(210) 0.203847(160)
O6N O 0.303403(140) 0.505027(210) 0.203847(160)
O7F O 0.160843(210) 0.574487(140) 0.205547(150)
O7G O 0.425513(210) 0.586357(140) 0.205547(150)
O7H O 0.413643(210) 0.839157(140) 0.205547(150)
Ho1C Ho 0.017647(20) 0.929843(20) 0.564433(20)
Ho1D Ho 0.070157(20) 0.087803(20) 0.564433(20)
Ho1E Ho 0.912197(20) 0.982353(20) 0.564433(20)
Ho1O Ho 0.315687(20) 0.736823(20) 0.102233(20)
Ho1P Ho 0.263177(20) 0.578863(20) 0.102233(20)
Ho1Q Ho 0.421137(20) 0.684313(20) 0.102233(20)
Ho1L Ho -0.017647(20) 0.070157(20) 0.435567(20)
Ho1M Ho 0.929843(20) 0.912197(20) 0.435567(20)
Ho1N Ho 0.087803(20) 1.017647(20) 0.435567(20)
#END
