
#######################################################################
#
#                 Cambridge Crystallographic Data Centre
#                                CCDC
#
#######################################################################
#
# If this CIF has been generated from an entry in the Cambridge
# Structural Database, then it will include bibliographic, chemical,
# crystal, experimental, refinement or atomic coordinate data resulting
# from the CCDC's data processing and validation procedures.
#
#######################################################################

data_CSD_CIF_DUDKEU
_audit_creation_date 2015-03-04
_audit_creation_method CSD-ConQuest-V1
_database_code_CSD DUDKEU
_database_code_depnum_ccdc_archive 'CCDC 1013695'
_chemical_formula_sum 'C39 H35 Co6 N5 O31'
_chemical_formula_moiety
;
(C37 H25 Co6 N4 O30 1-)n,C2 H8 N1 1+,H2 O1
;
_journal_coden_Cambridge 9
_journal_volume 54
_journal_year 2015
_journal_page_first 586
_journal_name_full 'Inorg.Chem. '
loop_
_publ_author_name
"Shaowei Zhang"
"Jiangong Ma"
"Xiaoping Zhang"
"Eryue Duan"
"Peng Cheng"
_chemical_name_systematic
;
catena-[dimethylammonium 
bis(\m-5,5'-diazene-1,2-diyldiisophthalato)-pentakis(formic 
acid)-hexa-cobalt(ii) monohydrate]
;
_cell_volume   5163.900
_exptl_crystal_colour 'red'
_exptl_crystal_density_diffrn 1.827
_exptl_crystal_description 'Block'
_diffrn_ambient_temperature 128.2
_refine_special_details
;
C20,C21,N3,C22 disordered over two configurations with occupancies 
0.50,0.25,0.50,0.25.
;
#These two values have been output from a single CSD field.
_refine_ls_R_factor_gt 0.0573
_refine_ls_wR_factor_gt 0.0573
_symmetry_cell_setting orthorhombic
_symmetry_space_group_name_H-M 'P n n a'
_symmetry_Int_Tables_number 52
loop_
_symmetry_equiv_pos_site_id
_symmetry_equiv_pos_as_xyz
1 x,y,z
2 1/2-x,-y,z
3 x,1/2-y,1/2-z
4 1/2-x,1/2+y,1/2-z
5 -x,-y,-z
6 -1/2+x,y,-z
7 -x,-1/2+y,-1/2+z
8 -1/2+x,-1/2-y,-1/2+z
_cell_length_a 24.2784(9)
_cell_length_b 13.3684(4)
_cell_length_c 15.9103(6)
_cell_angle_alpha 90
_cell_angle_beta 90
_cell_angle_gamma 90
_cell_formula_units_Z 4
loop_
_atom_type_symbol
_atom_type_radius_bond
C 0.68
H 0.23
Co 1.26
N 0.68
O 0.68
loop_
_atom_site_label
_atom_site_type_symbol
_atom_site_fract_x
_atom_site_fract_y
_atom_site_fract_z
Co1 Co 0.55092(3) 0.35477(5) 0.38927(4)
Co2 Co 0.38720(3) 0.06075(5) 0.61349(4)
Co3 Co 0.46217(3) 0.24586(5) 0.50505(4)
O1 O 0.91919(15) 0.1793(3) 0.9123(2)
O2 O 0.83465(15) 0.0519(3) 0.4956(2)
O3 O 0.50969(15) 0.1697(3) 0.5927(2)
O4 O 0.91794(14) 0.1103(3) 0.5106(2)
O5 O 0.60647(16) 0.3012(3) 0.3051(3)
O6 O 0.41334(15) 0.3126(3) 0.5936(2)
O7 O 0.51870(14) 0.1265(3) 0.9846(2)
O8 O 0.52362(15) 0.2031(3) 0.4211(2)
O9 O 0.58938(16) 0.0892(3) 0.4028(3)
O10 O 0.45597(15) 0.0884(3) 0.6854(2)
O11 O 0.98275(14) 0.1332(3) 0.8172(2)
C1 C 0.7921(2) 0.1217(4) 0.7431(3)
O12 O 0.60737(15) 0.1373(3) 1.0097(2)
N1 N 0.73736(17) 0.1235(3) 0.7752(3)
O13 O 0.35381(17) 0.1976(3) 0.6429(3)
N2 N 0.70026(17) 0.1259(3) 0.7201(3)
C2 C 0.5373(2) 0.1228(4) 0.8088(3)
H1 H 0.50100 0.12160 0.82780
C3 C 0.8708(2) 0.0886(4) 0.5416(3)
C4 C 0.5422(2) 0.1140(4) 0.4235(3)
H2 H 0.51860 0.06400 0.44220
C5 C 0.5841(3) 0.25000 0.25000
H3 H 0.54580 0.25000 0.25000
O14 O 0.57666(17) 0.4961(3) 0.3522(3)
H4 H 0.60870 0.49270 0.33010
H5 H 0.57790 0.53490 0.39490
C6 C 0.6456(2) 0.1246(4) 0.7533(3)
C7 C 0.8337(2) 0.1343(4) 0.8015(3)
H6 H 0.82490 0.14350 0.85780
C8 C 0.8889(2) 0.1331(4) 0.7764(3)
C9 C 0.8046(2) 0.1053(4) 0.6586(3)
H7 H 0.77660 0.09430 0.61980
C10 C 0.9014(2) 0.1183(4) 0.6921(3)
H8 H 0.93800 0.11690 0.67480
C11 C 0.8595(2) 0.1055(4) 0.6332(3)
C12 C 0.5479(2) 0.1246(4) 0.7234(3)
C13 C 0.6343(2) 0.1219(4) 0.8392(3)
H9 H 0.66300 0.11950 0.87800
C14 C 0.5684(2) 0.1290(4) 0.9581(3)
C15 C 0.6027(2) 0.1272(4) 0.6956(3)
H10 H 0.61030 0.13080 0.63840
C16 C 0.5802(2) 0.1228(4) 0.8664(3)
O15 O 0.3412(3) 0.0040(5) 0.7098(3)
H11 H 0.34550 -0.06770 0.72160
H12 H 0.30100 0.00950 0.70430
C17 C 0.9338(2) 0.1496(4) 0.8403(3)
C18 C 0.5008(2) 0.1283(4) 0.6622(3)
C19 C 0.3736(2) 0.2830(5) 0.6383(4)
H13 H 0.35710 0.33130 0.67200
C20 C 0.7078(5) 0.1832(9) 0.4964(7)
H14 H 0.74500 0.15960 0.49020
H15 H 0.68410 0.12800 0.50990
H16 H 0.70640 0.23180 0.54080
N3 N 0.6909(5) 0.2262(13) 0.4231(7)
H17 H 0.66290 0.20300 0.39630
C21 C 0.7199(16) 0.309(2) 0.392(2)
H18 H 0.73830 0.34160 0.43800
H19 H 0.69470 0.35430 0.36620
H20 H 0.74660 0.28660 0.35190
O16 O 0.25000 0.00000 0.7637(17)
O17 O 0.6760(14) 0.577(3) 0.4951(15)
H21? H 0.65750 0.24680 0.41780
C22? C 0.7282(15) 0.237(3) 0.3564(19)
H22? H 0.76460 0.24700 0.37830
H23? H 0.71780 0.29270 0.32240
H24? H 0.72780 0.17690 0.32280
O5B O 0.60647(16) 0.1988(3) 0.1949(3)
Co1B Co 0.55092(3) 0.14523(5) 0.11073(4)
Co2B Co 0.38720(3) 0.43925(5) -0.11349(4)
Co3B Co 0.46217(3) 0.25414(5) -0.00505(4)
O1B O 0.91919(15) 0.3207(3) -0.4123(2)
O2B O 0.83465(15) 0.4481(3) 0.0044(2)
O3B O 0.50969(15) 0.3303(3) -0.0927(2)
O4B O 0.91794(14) 0.3897(3) -0.0106(2)
O6B O 0.41334(15) 0.1874(3) -0.0936(2)
O7B O 0.51870(14) 0.3735(3) -0.4846(2)
O8B O 0.52362(15) 0.2969(3) 0.0789(2)
O9B O 0.58938(16) 0.4108(3) 0.0972(3)
O10B O 0.45597(15) 0.4116(3) -0.1854(2)
O11B O 0.98275(14) 0.3668(3) -0.3172(2)
C1B C 0.7921(2) 0.3783(4) -0.2431(3)
O12B O 0.60737(15) 0.3627(3) -0.5097(2)
N1B N 0.73736(17) 0.3765(3) -0.2752(3)
O13B O 0.35381(17) 0.3024(3) -0.1429(3)
N2B N 0.70026(17) 0.3741(3) -0.2201(3)
C2B C 0.5373(2) 0.3772(4) -0.3088(3)
H1B H 0.50100 0.37840 -0.32780
C3B C 0.8708(2) 0.4114(4) -0.0416(3)
C4B C 0.5422(2) 0.3860(4) 0.0765(3)
H2B H 0.51860 0.43600 0.05780
O14B O 0.57666(17) 0.0039(3) 0.1478(3)
H4B H 0.60870 0.00730 0.16990
H5B H 0.57790 -0.03490 0.10510
C6B C 0.6456(2) 0.3754(4) -0.2533(3)
C7B C 0.8337(2) 0.3657(4) -0.3015(3)
H6B H 0.82490 0.35650 -0.35780
C8B C 0.8889(2) 0.3669(4) -0.2764(3)
C9B C 0.8046(2) 0.3947(4) -0.1586(3)
H7B H 0.77660 0.40570 -0.11980
C10B C 0.9014(2) 0.3817(4) -0.1921(3)
H8B H 0.93800 0.38310 -0.17480
C11B C 0.8595(2) 0.3945(4) -0.1332(3)
C12B C 0.5479(2) 0.3754(4) -0.2234(3)
C13B C 0.6343(2) 0.3781(4) -0.3392(3)
H9B H 0.66300 0.38050 -0.37800
C14B C 0.5684(2) 0.3710(4) -0.4581(3)
C15B C 0.6027(2) 0.3728(4) -0.1956(3)
H10B H 0.61030 0.36920 -0.13840
C16B C 0.5802(2) 0.3772(4) -0.3664(3)
O15B O 0.3412(3) 0.4960(5) -0.2098(3)
H11B H 0.34550 0.56770 -0.22160
H12B H 0.30100 0.49050 -0.20430
C17B C 0.9338(2) 0.3504(4) -0.3403(3)
C18B C 0.5008(2) 0.3717(4) -0.1622(3)
C19B C 0.3736(2) 0.2170(5) -0.1383(4)
H13B H 0.35710 0.16870 -0.17200
Co1* Co 0.55092(3) 0.35477(5) -0.61073(4)
Co1B* Co 0.55092(3) 0.14523(5) 1.11073(4)
Co1E Co 1.05092(3) 0.35477(5) -0.38927(4)
Co1G Co 1.05092(3) 0.14523(5) 0.88927(4)
Co2D Co 0.61280(3) -0.06075(5) 0.38651(4)
Co2E Co 0.88720(3) 0.06075(5) 0.38651(4)
Co2F Co 0.61280(3) 0.56075(5) 0.11349(4)
Co2G Co 0.88720(3) 0.43925(5) 0.11349(4)
Co3* Co 0.46217(3) 0.24586(5) -0.49495(4)
Co3B* Co 0.46217(3) 0.25414(5) 0.99495(4)
Co3E Co 0.96217(3) 0.24586(5) -0.50505(4)
Co3E* Co 0.96217(3) 0.24586(5) 0.49495(4)
Co3G Co 0.96217(3) 0.25414(5) 0.00505(4)
Co3G* Co 0.96217(3) 0.25414(5) 1.00505(4)
O1E O 0.41919(15) 0.1793(3) 0.0877(2)
O1G O 0.41919(15) 0.3207(3) 0.4123(2)
O2E O 0.33465(15) 0.0519(3) 0.5044(2)
O2G O 0.33465(15) 0.4481(3) -0.0044(2)
O4E O 0.41794(14) 0.1103(3) 0.4894(2)
O4G O 0.41794(14) 0.3897(3) 0.0106(2)
O7* O 0.51870(14) 0.1265(3) -0.0154(2)
O7B* O 0.51870(14) 0.3735(3) 0.5154(2)
O9D O 0.41062(16) -0.0892(3) 0.5972(3)
O9F O 0.41062(16) 0.5892(3) -0.0972(3)
O11E O 0.48275(14) 0.1332(3) 0.1828(2)
O11G O 0.48275(14) 0.3668(3) 0.3172(2)
O12* O 0.60737(15) 0.1373(3) 0.0097(2)
O12B* O 0.60737(15) 0.3627(3) 0.4903(2)
#END
