
#######################################################################
#
#                 Cambridge Crystallographic Data Centre
#                                CCDC
#
#######################################################################
#
# If this CIF has been generated from an entry in the Cambridge
# Structural Database, then it will include bibliographic, chemical,
# crystal, experimental, refinement or atomic coordinate data resulting
# from the CCDC's data processing and validation procedures.
#
#######################################################################

data_CSD_CIF_DUDVUV
_audit_creation_date 2015-03-05
_audit_creation_method CSD-ConQuest-V1
_database_code_CSD DUDVUV
_database_code_depnum_ccdc_archive 'CCDC 898424'
_chemical_formula_sum 'C136 H167 N11 O54 Zn6'
_chemical_formula_moiety
;
(C105 H82 O42 Zn6 2-)n,9n(C3 H7 N1 O1),3n(H2 O1),2n(C2 H8 N1 1+)
;
_journal_coden_Cambridge 182
_journal_volume 51
_journal_year 2015
_journal_page_first 8446
_journal_name_full 'Chem.Commun. '
loop_
_publ_author_name
"Fei-Yan Yi"
"Hai-Long Jiang"
"Zhong-Ming Sun"
_chemical_name_systematic
;
catena-[bis(dimethylammonium) (\m-carbon 
dioxide)-bis(\m-1,1,1,5,5,5-hexa(4-(carboxylatophenyl)oxamethyl)-3-oxapentane)
-bis(\m-hydroxo)-hexa-zinc N,N-dimethylformamide solvate trihydrate]
;
_cell_volume  10032.931
_exptl_crystal_colour 'colorless'
_exptl_crystal_density_diffrn 1.063
_exptl_crystal_description 'prism'
_diffrn_ambient_temperature 273
_refine_special_details
;
Disordered cations and solvent molecules were not modelled and the disordered 
density was taken into account using the SQUEEZE/PLATON procedure.
;
#These two values have been output from a single CSD field.
_refine_ls_R_factor_gt 0.0538
_refine_ls_wR_factor_gt 0.0538
_symmetry_cell_setting orthorhombic
_symmetry_space_group_name_H-M 'P m n a'
_symmetry_Int_Tables_number 53
loop_
_symmetry_equiv_pos_site_id
_symmetry_equiv_pos_as_xyz
1 x,y,z
2 1/2-x,-y,1/2+z
3 1/2-x,y,1/2-z
4 x,-y,-z
5 -x,-y,-z
6 -1/2+x,y,-1/2-z
7 -1/2+x,-y,-1/2+z
8 -x,y,z
_cell_length_a 19.7928(16)
_cell_length_b 17.7591(14)
_cell_length_c 28.543(2)
_cell_angle_alpha 90
_cell_angle_beta 90
_cell_angle_gamma 90
_cell_formula_units_Z 2
loop_
_atom_type_symbol
_atom_type_radius_bond
C 0.68
H 0.23
O 0.68
Zn 1.22
loop_
_atom_site_label
_atom_site_type_symbol
_atom_site_fract_x
_atom_site_fract_y
_atom_site_fract_z
Zn1 Zn 0.00000 0.33891(3) 0.539922(17)
Zn2 Zn 0.09291(2) 0.22091(2) 0.597931(12)
O1 O 0.00000 0.22965(15) 0.57196(10)
O2 O 0.00000 0.4385(2) 0.50686(14)
O3 O 0.13735(14) 0.60469(13) 0.75551(8)
O4 O 0.18202(13) 0.76344(12) 0.85557(8)
O5 O 0.16119(12) 0.83362(12) 0.74639(9)
O6 O 0.00000 0.71020(17) 0.79394(10)
O7 O 0.07122(15) 0.38417(14) 0.58764(9)
O8 O 0.10901(16) 0.30468(15) 0.64029(9)
O9 O 0.42154(14) 0.69587(14) 0.99646(7)
O10 O 0.35491(14) 0.77027(14) 1.03972(8)
O11 O 0.1934(4) 1.1176(3) 0.6161(2)
O12 O 0.0954(3) 1.1322(3) 0.6382(3)
C1 C 0.00000 0.50000 0.50000
C2 C 0.11919(17) 0.72608(17) 0.78883(11)
C3 C 0.12014(18) 0.68121(17) 0.74440(11)
H1 H 0.07610 0.68300 0.72950
H2 H 0.15310 0.70210 0.72290
C4 C 0.18433(17) 0.71711(18) 0.81504(11)
H3 H 0.19050 0.66490 0.82400
H4 H 0.22200 0.73180 0.79530
C5 C 0.10714(18) 0.80874(18) 0.77547(12)
H5 H 0.06460 0.81350 0.75890
H6 H 0.10490 0.83950 0.80350
C6 C 0.06081(17) 0.70190(17) 0.81962(11)
H7 H 0.06650 0.64980 0.82900
H8 H 0.05930 0.73280 0.84760
C7 C 0.1288(2) 0.55167(19) 0.72136(12)
C8 C 0.09806(18) 0.5643(2) 0.67847(11)
H9 H 0.08360 0.61240 0.67030
C9 C 0.08912(19) 0.5044(2) 0.64798(12)
H10 H 0.06860 0.51270 0.61910
C10 C 0.1097(2) 0.4335(2) 0.65940(12)
C11 C 0.1414(2) 0.4224(2) 0.70150(14)
H11 H 0.15600 0.37420 0.70920
C12 C 0.1523(2) 0.4799(2) 0.73266(14)
H12 H 0.17500 0.47130 0.76070
C13 C 0.0950(2) 0.3697(2) 0.62657(14)
C14 C 0.2305(2) 0.7540(2) 0.88898(12)
C15 C 0.2856(2) 0.7075(2) 0.88580(12)
H13 H 0.29270 0.67970 0.85860
C16 C 0.3306(2) 0.7017(2) 0.92240(13)
H14 H 0.36770 0.67000 0.91940
C17 C 0.3219(2) 0.7415(2) 0.96329(12)
C18 C 0.2665(2) 0.7887(2) 0.96600(13)
H15 H 0.25990 0.81680 0.99310
C19 C 0.2211(2) 0.7956(2) 0.93016(14)
H16 H 0.18410 0.82760 0.93310
C20 C 0.3703(2) 0.7361(2) 1.00263(13)
C21 C 0.1527(2) 0.8995(2) 0.72310(15)
C22 C 0.2026(3) 0.9171(2) 0.69129(16)
H17 H 0.23870 0.88420 0.68720
C23 C 0.1999(3) 0.9821(3) 0.66564(18)
H18 H 0.23550 0.99390 0.64570
C24 C 0.1482(4) 1.0282(3) 0.6686(2)
C25 C 0.0977(3) 1.0122(3) 0.7017(3)
H19 H 0.06130 1.04500 0.70470
C26 C 0.1008(2) 0.9475(2) 0.7304(2)
H20 H 0.06850 0.93840 0.75330
C27 C 0.1415(6) 1.1022(5) 0.6365(3)
O2C O 0.00000 0.5615(2) 0.49314(14)
O3G O -0.13735(14) 0.60469(13) 0.75551(8)
O4G O -0.18202(13) 0.76344(12) 0.85557(8)
O5G O -0.16119(12) 0.83362(12) 0.74639(9)
O7G O -0.07122(15) 0.38417(14) 0.58764(9)
O8G O -0.10901(16) 0.30468(15) 0.64029(9)
O9G O -0.42154(14) 0.69587(14) 0.99646(7)
O10G O -0.35491(14) 0.77027(14) 1.03972(8)
O11G O -0.1934(4) 1.1176(3) 0.6161(2)
O12G O -0.0954(3) 1.1322(3) 0.6382(3)
C2G C -0.11919(17) 0.72608(17) 0.78883(11)
C3G C -0.12014(18) 0.68121(17) 0.74440(11)
H1G H -0.07610 0.68300 0.72950
H2G H -0.15310 0.70210 0.72290
C4G C -0.18433(17) 0.71711(18) 0.81504(11)
H3G H -0.19050 0.66490 0.82400
H4G H -0.22200 0.73180 0.79530
C5G C -0.10714(18) 0.80874(18) 0.77547(12)
H5G H -0.06460 0.81350 0.75890
H6G H -0.10490 0.83950 0.80350
C6G C -0.06081(17) 0.70190(17) 0.81962(11)
H7G H -0.06650 0.64980 0.82900
H8G H -0.05930 0.73280 0.84760
C7G C -0.1288(2) 0.55167(19) 0.72136(12)
C8G C -0.09806(18) 0.5643(2) 0.67847(11)
H9G H -0.08360 0.61240 0.67030
C9G C -0.08912(19) 0.5044(2) 0.64798(12)
H10G H -0.06860 0.51270 0.61910
C10G C -0.1097(2) 0.4335(2) 0.65940(12)
C11G C -0.1414(2) 0.4224(2) 0.70150(14)
H11G H -0.15600 0.37420 0.70920
C12G C -0.1523(2) 0.4799(2) 0.73266(14)
H12G H -0.17500 0.47130 0.76070
C13G C -0.0950(2) 0.3697(2) 0.62657(14)
C14G C -0.2305(2) 0.7540(2) 0.88898(12)
C15G C -0.2856(2) 0.7075(2) 0.88580(12)
H13G H -0.29270 0.67970 0.85860
C16G C -0.3306(2) 0.7017(2) 0.92240(13)
H14G H -0.36770 0.67000 0.91940
C17G C -0.3219(2) 0.7415(2) 0.96329(12)
C18G C -0.2665(2) 0.7887(2) 0.96600(13)
H15G H -0.25990 0.81680 0.99310
C19G C -0.2211(2) 0.7956(2) 0.93016(14)
H16G H -0.18410 0.82760 0.93310
C20G C -0.3703(2) 0.7361(2) 1.00263(13)
C21G C -0.1527(2) 0.8995(2) 0.72310(15)
C22G C -0.2026(3) 0.9171(2) 0.69129(16)
H17G H -0.23870 0.88420 0.68720
C23G C -0.1999(3) 0.9821(3) 0.66564(18)
H18G H -0.23550 0.99390 0.64570
C24G C -0.1482(4) 1.0282(3) 0.6686(2)
C25G C -0.0977(3) 1.0122(3) 0.7017(3)
H19G H -0.06130 1.04500 0.70470
C26G C -0.1008(2) 0.9475(2) 0.7304(2)
H20G H -0.06850 0.93840 0.75330
C27G C -0.1415(6) 1.1022(5) 0.6365(3)
Zn1C Zn 0.00000 0.66109(3) 0.460078(17)
Zn2C Zn 0.09291(2) 0.77909(2) 0.402069(12)
O1C O 0.00000 0.77035(15) 0.42804(10)
O3C O 0.13735(14) 0.39531(13) 0.24449(8)
O4C O 0.18202(13) 0.23656(12) 0.14443(8)
O5C O 0.16119(12) 0.16638(12) 0.25361(9)
O6C O 0.00000 0.28980(17) 0.20606(10)
O7C O 0.07122(15) 0.61583(14) 0.41236(9)
O8C O 0.10901(16) 0.69532(15) 0.35971(9)
O9C O 0.42154(14) 0.30413(14) 0.00354(7)
O10C O 0.35491(14) 0.22973(14) -0.03972(8)
O11C O 0.1934(4) -0.1176(3) 0.3839(2)
O12C O 0.0954(3) -0.1322(3) 0.3618(3)
C2C C 0.11919(17) 0.27392(17) 0.21117(11)
C3C C 0.12014(18) 0.31879(17) 0.25560(11)
H1C H 0.07610 0.31700 0.27050
H2C H 0.15310 0.29790 0.27710
C4C C 0.18433(17) 0.28289(18) 0.18496(11)
H3C H 0.19050 0.33510 0.17600
H4C H 0.22200 0.26820 0.20470
C5C C 0.10714(18) 0.19126(18) 0.22453(12)
H5C H 0.06460 0.18650 0.24110
H6C H 0.10490 0.16050 0.19650
C6C C 0.06081(17) 0.29810(17) 0.18038(11)
H7C H 0.06650 0.35020 0.17100
H8C H 0.05930 0.26720 0.15240
C7C C 0.1288(2) 0.44833(19) 0.27864(12)
C8C C 0.09806(18) 0.4357(2) 0.32153(11)
H9C H 0.08360 0.38760 0.32970
C9C C 0.08912(19) 0.4956(2) 0.35202(12)
H10C H 0.06860 0.48730 0.38090
C10C C 0.1097(2) 0.5665(2) 0.34060(12)
C11C C 0.1414(2) 0.5776(2) 0.29850(14)
H11C H 0.15600 0.62580 0.29080
C12C C 0.1523(2) 0.5201(2) 0.26734(14)
H12C H 0.17500 0.52870 0.23930
C13C C 0.0950(2) 0.6303(2) 0.37343(14)
C14C C 0.2305(2) 0.2460(2) 0.11102(12)
C15C C 0.2856(2) 0.2925(2) 0.11420(12)
H13C H 0.29270 0.32030 0.14140
C16C C 0.3306(2) 0.2983(2) 0.07760(13)
H14C H 0.36770 0.33000 0.08060
C17C C 0.3219(2) 0.2585(2) 0.03671(12)
C18C C 0.2665(2) 0.2113(2) 0.03400(13)
H15C H 0.25990 0.18320 0.00690
C19C C 0.2211(2) 0.2044(2) 0.06984(14)
H16C H 0.18410 0.17240 0.06690
C20C C 0.3703(2) 0.2639(2) -0.00263(13)
C21C C 0.1527(2) 0.1005(2) 0.27690(15)
C22C C 0.2026(3) 0.0829(2) 0.30871(16)
H17C H 0.23870 0.11580 0.31280
C23C C 0.1999(3) 0.0179(3) 0.33436(18)
H18C H 0.23550 0.00610 0.35430
C24C C 0.1482(4) -0.0282(3) 0.3314(2)
C25C C 0.0977(3) -0.0122(3) 0.2983(3)
H19C H 0.06130 -0.04500 0.29530
C26C C 0.1008(2) 0.0525(2) 0.2696(2)
H20C H 0.06850 0.06160 0.24670
C27C C 0.1415(6) -0.1022(5) 0.3635(3)
O3D O -0.13735(14) 0.39531(13) 0.24449(8)
O4D O -0.18202(13) 0.23656(12) 0.14443(8)
O5D O -0.16119(12) 0.16638(12) 0.25361(9)
O7D O -0.07122(15) 0.61583(14) 0.41236(9)
O8D O -0.10901(16) 0.69532(15) 0.35971(9)
O9D O -0.42154(14) 0.30413(14) 0.00354(7)
O10D O -0.35491(14) 0.22973(14) -0.03972(8)
O11D O -0.1934(4) -0.1176(3) 0.3839(2)
O12D O -0.0954(3) -0.1322(3) 0.3618(3)
C2D C -0.11919(17) 0.27392(17) 0.21117(11)
C3D C -0.12014(18) 0.31879(17) 0.25560(11)
H1D H -0.07610 0.31700 0.27050
H2D H -0.15310 0.29790 0.27710
C4D C -0.18433(17) 0.28289(18) 0.18496(11)
H3D H -0.19050 0.33510 0.17600
H4D H -0.22200 0.26820 0.20470
C5D C -0.10714(18) 0.19126(18) 0.22453(12)
H5D H -0.06460 0.18650 0.24110
H6D H -0.10490 0.16050 0.19650
C6D C -0.06081(17) 0.29810(17) 0.18038(11)
H7D H -0.06650 0.35020 0.17100
H8D H -0.05930 0.26720 0.15240
C7D C -0.1288(2) 0.44833(19) 0.27864(12)
C8D C -0.09806(18) 0.4357(2) 0.32153(11)
H9D H -0.08360 0.38760 0.32970
C9D C -0.08912(19) 0.4956(2) 0.35202(12)
H10D H -0.06860 0.48730 0.38090
C10D C -0.1097(2) 0.5665(2) 0.34060(12)
C11D C -0.1414(2) 0.5776(2) 0.29850(14)
H11D H -0.15600 0.62580 0.29080
C12D C -0.1523(2) 0.5201(2) 0.26734(14)
H12D H -0.17500 0.52870 0.23930
C13D C -0.0950(2) 0.6303(2) 0.37343(14)
C14D C -0.2305(2) 0.2460(2) 0.11102(12)
C15D C -0.2856(2) 0.2925(2) 0.11420(12)
H13D H -0.29270 0.32030 0.14140
C16D C -0.3306(2) 0.2983(2) 0.07760(13)
H14D H -0.36770 0.33000 0.08060
C17D C -0.3219(2) 0.2585(2) 0.03671(12)
C18D C -0.2665(2) 0.2113(2) 0.03400(13)
H15D H -0.25990 0.18320 0.00690
C19D C -0.2211(2) 0.2044(2) 0.06984(14)
H16D H -0.18410 0.17240 0.06690
C20D C -0.3703(2) 0.2639(2) -0.00263(13)
C21D C -0.1527(2) 0.1005(2) 0.27690(15)
C22D C -0.2026(3) 0.0829(2) 0.30871(16)
H17D H -0.23870 0.11580 0.31280
C23D C -0.1999(3) 0.0179(3) 0.33436(18)
H18D H -0.23550 0.00610 0.35430
C24D C -0.1482(4) -0.0282(3) 0.3314(2)
C25D C -0.0977(3) -0.0122(3) 0.2983(3)
H19D H -0.06130 -0.04500 0.29530
C26D C -0.1008(2) 0.0525(2) 0.2696(2)
H20D H -0.06850 0.06160 0.24670
C27D C -0.1415(6) -0.1022(5) 0.3635(3)
Zn2D Zn -0.09291(2) 0.77909(2) 0.402069(12)
Zn2G Zn -0.09291(2) 0.22091(2) 0.597931(12)
Zn1A Zn -0.50000 0.66109(3) 1.039922(17)
Zn1A* Zn 0.50000 0.66109(3) 1.039922(17)
Zn1B Zn -0.50000 0.33891(3) -0.039922(17)
Zn1B* Zn 0.50000 0.33891(3) -0.039922(17)
Zn2* Zn 0.09291(2) 1.22091(2) 0.597931(12)
Zn2A Zn 0.40709(2) 0.77909(2) 1.097931(12)
Zn2B Zn 0.40709(2) 0.22091(2) -0.097931(12)
Zn2C* Zn 0.09291(2) -0.22091(2) 0.402069(12)
Zn2D* Zn -0.09291(2) -0.22091(2) 0.402069(12)
Zn2E Zn -0.40709(2) 0.22091(2) -0.097931(12)
Zn2F Zn -0.40709(2) 0.77909(2) 1.097931(12)
Zn2G* Zn -0.09291(2) 1.22091(2) 0.597931(12)
O9A O 0.07846(14) 0.30413(14) 0.49646(7)
O9B O 0.07846(14) 0.69587(14) 0.50354(7)
O9E O -0.07846(14) 0.69587(14) 0.50354(7)
O9F O -0.07846(14) 0.30413(14) 0.49646(7)
O10A O 0.14509(14) 0.22973(14) 0.53972(8)
O10B O 0.14509(14) 0.77027(14) 0.46028(8)
O10E O -0.14509(14) 0.77027(14) 0.46028(8)
O10F O -0.14509(14) 0.22973(14) 0.53972(8)
O12* O 0.0954(3) 0.1322(3) 0.6382(3)
O12C* O 0.0954(3) 0.8678(3) 0.3618(3)
O12D* O -0.0954(3) 0.8678(3) 0.3618(3)
O12G* O -0.0954(3) 0.1322(3) 0.6382(3)
#END
