
#######################################################################
#
#                 Cambridge Crystallographic Data Centre
#                                CCDC
#
#######################################################################
#
# If this CIF has been generated from an entry in the Cambridge
# Structural Database, then it will include bibliographic, chemical,
# crystal, experimental, refinement or atomic coordinate data resulting
# from the CCDC's data processing and validation procedures.
#
#######################################################################

data_CSD_CIF_DUDWOQ
_audit_creation_date 2015-03-05
_audit_creation_method CSD-ConQuest-V1
_database_code_CSD DUDWOQ
_database_code_depnum_ccdc_archive 'CCDC 1042692'
_chemical_formula_sum 'C46 H34 Fe1 Li1 O13 S32'
_chemical_formula_moiety
;
(C6 H2 Fe1 Li1 O13 4-)n,4n(C10 H8 S8 1+)
;
_journal_coden_Cambridge 222
_journal_volume 44
_journal_year 2015
_journal_page_first 6219
_journal_name_full 'Dalton Trans. '
loop_
_publ_author_name
"L.Martin"
"Hendrik Engelkamp"
"H.Akutsu"
"S.Nakatsuji"
"J.Yamada"
"P.Horton"
"M.B.Hursthouse"
_chemical_name_systematic
;
catena-[tetrakis(bis(ethylenedithio)tetrathiafulvane radical) 
bis(\m-oxalato)-aqua-(oxalato)-iron-lithium unknown solvate]
;
_cell_volume   7170.366
_exptl_crystal_colour 'dark brown'
_exptl_crystal_density_diffrn 1.745
_exptl_crystal_description 'cut blade'
_diffrn_ambient_temperature 120
_diffrn_special_details
;
twin

;
_refine_special_details
;
C19,C20 and C119,C120 disordered over two sites with occupancies 0.58:0.42; 
C29,C30 and C129,C130 disordered over two sites with occupancies 0.80:0.20; 
Disordered solvent molecules were not modelled and the disordered density was 
taken into account using the SQUEEZE/PLATON procedure.
;
#These two values have been output from a single CSD field.
_refine_ls_R_factor_gt 0.1031
_refine_ls_wR_factor_gt 0.1031
_symmetry_cell_setting monoclinic
_symmetry_space_group_name_H-M 'P 21/n'
_symmetry_Int_Tables_number 14
loop_
_symmetry_equiv_pos_site_id
_symmetry_equiv_pos_as_xyz
1 x,y,z
2 1/2-x,1/2+y,1/2-z
3 -x,-y,-z
4 -1/2+x,-1/2-y,-1/2+z
_cell_length_a 8.7086(5)
_cell_length_b 37.248(2)
_cell_length_c 22.1051(14)
_cell_angle_alpha 90
_cell_angle_beta 90.193(3)
_cell_angle_gamma 90
_cell_formula_units_Z 4
loop_
_atom_type_symbol
_atom_type_radius_bond
C 0.68
H 0.23
Fe 1.52
Li 1.28
O 0.68
S 1.02
loop_
_atom_site_label
_atom_site_type_symbol
_atom_site_fract_x
_atom_site_fract_y
_atom_site_fract_z
Li1 Li 0.376(2) 0.7499(6) 0.8666(5)
Fe1 Fe -0.1274(2) 0.75027(4) 0.72824(6)
C1 C 0.1440(13) 0.7326(3) 0.7879(5)
C2 C 0.0928(13) 0.7689(3) 0.8165(5)
O1 O 0.0664(9) 0.72264(18) 0.7421(3)
O2 O -0.0256(10) 0.78197(19) 0.7926(3)
O3 O 0.1698(9) 0.7813(2) 0.8569(4)
O4 O 0.2552(10) 0.7163(2) 0.8101(4)
C3 C -0.1659(14) 0.7334(3) 0.6060(5)
C4 C -0.0719(14) 0.7698(3) 0.6079(5)
O5 O -0.1969(9) 0.72068(19) 0.6579(3)
O6 O -0.0542(9) 0.7811(2) 0.6618(3)
O7 O -0.0261(11) 0.7847(2) 0.5617(4)
O8 O -0.2035(12) 0.7198(2) 0.5572(4)
C5 C 0.6510(13) 0.7308(3) 0.8117(5)
C6 C 0.5969(12) 0.7667(3) 0.7853(4)
O9 O 0.7712(9) 0.71748(18) 0.7896(3)
O10 O 0.6781(9) 0.77712(18) 0.7399(3)
O11 O 0.4859(10) 0.7822(2) 0.8057(4)
O12 O 0.5741(9) 0.7176(2) 0.8535(4)
O13 O 0.3928(13) 0.7492(3) 0.9515(3)
H1 H 0.31880 0.74950 0.97650
H2 H 0.47390 0.75110 0.97280
C7 C 0.5650(15) 0.3524(3) 0.5252(5)
H3 H 0.45620 0.35140 0.51210
H4 H 0.62120 0.33350 0.50310
C8 C 0.5732(13) 0.3446(3) 0.5911(5)
H5 H 0.67990 0.34860 0.60520
H6 H 0.54910 0.31890 0.59750
C9 C 0.4932(12) 0.4136(2) 0.6122(5)
C10 C 0.5712(13) 0.4232(3) 0.5621(5)
C11 C 0.5218(13) 0.4828(3) 0.6173(5)
C12 C 0.5172(12) 0.5180(3) 0.6359(5)
C13 C 0.5563(12) 0.5865(2) 0.6447(4)
C14 C 0.4804(12) 0.5762(3) 0.6946(4)
C15 C 0.4668(14) 0.6479(2) 0.7325(5)
H7 H 0.38320 0.65710 0.70630
H8 H 0.47170 0.66340 0.76880
C16 C 0.6146(14) 0.6507(3) 0.6994(5)
H9 H 0.69620 0.63900 0.72360
H10 H 0.64200 0.67640 0.69520
S1 S 0.6443(4) 0.39594(7) 0.50450(13)
S2 S 0.4471(4) 0.37084(7) 0.63669(12)
S3 S 0.4360(3) 0.44916(7) 0.65920(12)
S4 S 0.6040(3) 0.46897(6) 0.54960(12)
S5 S 0.6018(3) 0.55201(7) 0.59313(11)
S6 S 0.4382(3) 0.53126(7) 0.70302(12)
S7 S 0.4205(3) 0.60275(7) 0.75573(12)
S8 S 0.6094(3) 0.63011(7) 0.62379(12)
C17 C 0.3227(15) 0.6568(3) 0.9206(5)
H11 H 0.43160 0.65510 0.90810
H12 H 0.29080 0.68220 0.91700
C18 C 0.3092(14) 0.6453(3) 0.9855(5)
H13 H 0.19920 0.64290 0.99590
H14 H 0.35360 0.66420 1.01180
C19 C 0.3291(13) 0.5761(3) 0.9446(5)
C20 C 0.2528(13) 0.5856(3) 0.8940(5)
C21 C 0.2788(14) 0.5169(3) 0.8881(5)
C22 C 0.2749(14) 0.4823(3) 0.8693(5)
C23 C 0.2458(15) 0.4232(3) 0.8070(5)
C24 C 0.3186(15) 0.4139(3) 0.8584(5)
C25 C 0.3726(17) 0.3521(4) 0.8006(6)
H15 H 0.44520 0.36580 0.77500
H16 H 0.41020 0.32710 0.80260
C26 C 0.219(2) 0.3520(3) 0.7696(7)
H17 H 0.13850 0.34360 0.79770
H18 H 0.22110 0.33580 0.73410
S9 S 0.2049(4) 0.62929(7) 0.86931(13)
S10 S 0.4052(4) 0.60335(7) 1.00076(13)
S11 S 0.3621(4) 0.53038(7) 0.95473(13)
S12 S 0.1873(3) 0.55107(7) 0.84672(13)
S13 S 0.1904(4) 0.46875(7) 0.80100(13)
S14 S 0.3606(4) 0.44786(7) 0.90990(13)
S15 S 0.3802(4) 0.37094(7) 0.87705(13)
S16 S 0.1812(4) 0.39776(7) 0.74606(13)
C27? C 0.269(4) 0.3410(8) 0.8324(12)
H19? H 0.31060 0.31640 0.83470
H20? H 0.16080 0.34070 0.84630
C28? C 0.279(4) 0.3553(7) 0.7688(13)
H21? H 0.23980 0.33620 0.74170
H22? H 0.38920 0.35830 0.75960
C29 C 0.7940(15) 0.6472(3) 0.9800(5)
H23 H 0.68370 0.64310 0.98820
H24 H 0.82980 0.66670 1.00710
C30 C 0.8129(14) 0.6591(3) 0.9145(5)
H25 H 0.92350 0.65900 0.90430
H26 H 0.77550 0.68410 0.91050
C31 C 0.7591(13) 0.5887(3) 0.8881(5)
C32 C 0.8302(13) 0.5786(3) 0.9392(5)
C33 C 0.7805(13) 0.5193(3) 0.8855(5)
C34 C 0.7842(13) 0.4846(3) 0.8677(5)
C35 C 0.8389(13) 0.4174(3) 0.8570(5)
C36 C 0.7610(13) 0.4257(3) 0.8059(5)
C37 C 0.7759(18) 0.3554(3) 0.7669(6)
H27 H 0.71250 0.33690 0.74660
H28 H 0.88240 0.35270 0.75210
C38 C 0.7745(13) 0.3484(3) 0.8339(5)
H29 H 0.79710 0.32270 0.84100
H30 H 0.67010 0.35320 0.84950
S17 S 0.8989(4) 0.60701(7) 0.99678(13)
S18 S 0.7111(4) 0.63109(7) 0.86111(13)
S19 S 0.6892(3) 0.55282(7) 0.84337(13)
S20 S 0.8570(4) 0.53345(7) 0.95401(12)
S21 S 0.8658(4) 0.45068(7) 0.91076(12)
S22 S 0.6958(3) 0.47027(7) 0.80060(12)
S23 S 0.7051(4) 0.39958(7) 0.74482(13)
S24 S 0.9080(4) 0.37456(7) 0.87556(13)
C39? C 0.717(5) 0.3535(7) 0.772(2)
H31? H 0.63050 0.34790 0.79990
H32? H 0.71610 0.33620 0.73850
C40? C 0.868(4) 0.3523(9) 0.8059(12)
H33? H 0.94620 0.36090 0.77690
H34? H 0.89030 0.32660 0.81290
C41 C 0.0659(16) 0.3400(3) 0.5732(6)
H35 H 0.17390 0.33550 0.58520
H36 H 0.01190 0.31660 0.57370
C42 C 0.0646(16) 0.3537(3) 0.5106(5)
H37 H -0.04290 0.35910 0.49910
H38 H 0.10180 0.33450 0.48350
C43 C 0.1057(13) 0.4208(3) 0.5529(5)
C44 C 0.0240(12) 0.4115(2) 0.6029(5)
C45 C 0.0454(13) 0.4804(3) 0.6080(5)
C46 C 0.0473(12) 0.5150(3) 0.6271(5)
C47 C 0.0155(13) 0.5729(3) 0.6894(5)
C48 C 0.0998(14) 0.5824(3) 0.6406(5)
C49 C 0.0291(13) 0.6513(3) 0.6612(5)
H39 H 0.05210 0.67700 0.65420
H40 H -0.07270 0.64630 0.64300
C50 C 0.0191(14) 0.6448(2) 0.7300(5)
H41 H -0.05230 0.66250 0.74780
H42 H 0.12160 0.64880 0.74820
S25 S -0.0197(3) 0.36847(7) 0.62911(13)
S26 S 0.1786(4) 0.39330(7) 0.49778(13)
S27 S 0.1290(4) 0.46712(7) 0.54043(13)
S28 S -0.0502(3) 0.44669(7) 0.64766(13)
S29 S -0.0512(4) 0.52878(7) 0.69264(13)
S30 S 0.1301(3) 0.54953(7) 0.58579(12)
S31 S 0.1670(3) 0.62551(7) 0.62342(13)
S32 S -0.0467(3) 0.59941(7) 0.74967(12)
Fe1* Fe 0.8726(2) 0.75027(4) 0.72824(6)
O9* O -0.2288(9) 0.71748(18) 0.7896(3)
O10* O -0.3219(9) 0.77712(18) 0.7399(3)
#END
