
#######################################################################
#
#                 Cambridge Crystallographic Data Centre
#                                CCDC
#
#######################################################################
#
# If this CIF has been generated from an entry in the Cambridge
# Structural Database, then it will include bibliographic, chemical,
# crystal, experimental, refinement or atomic coordinate data resulting
# from the CCDC's data processing and validation procedures.
#
#######################################################################

data_CSD_CIF_DUDWUW
_audit_creation_date 2015-03-05
_audit_creation_method CSD-ConQuest-V1
_database_code_CSD DUDWUW
_database_code_depnum_ccdc_archive 'CCDC 1042694'
_chemical_formula_sum 'C38 H30 Cr1 Li1 O13 S24'
_chemical_formula_moiety
;
(C6 Cr1 Li1 O12 3-)n,3n(C10 H8 S8 1+),n(C2 H6 O1)
;
_journal_coden_Cambridge 222
_journal_volume 44
_journal_year 2015
_journal_page_first 6219
_journal_name_full 'Dalton Trans. '
loop_
_publ_author_name
"L.Martin"
"Hendrik Engelkamp"
"H.Akutsu"
"S.Nakatsuji"
"J.Yamada"
"P.Horton"
"M.B.Hursthouse"
_chemical_name_systematic
;
catena-[tris(bis(ethylenedithio)tetrathiafulvane radical) 
tris(\m-oxalato)-chromium-lithium ethanol solvate]
;
_cell_volume   2746.251
_exptl_crystal_colour 'black'
_exptl_crystal_density_diffrn 1.842
_exptl_crystal_description 'plate'
_diffrn_ambient_temperature 296
_refine_special_details
;
C19,C20,O7 disordered by symmetry over two configurations with occupancy 0.5; 
Cr1,Li1 disordered by symmetry over two configurations with occupancy 0.5.
;
#These two values have been output from a single CSD field.
_refine_ls_R_factor_gt 0.0973
_refine_ls_wR_factor_gt 0.0973
_symmetry_cell_setting monoclinic
_symmetry_space_group_name_H-M 'P 21/c'
_symmetry_Int_Tables_number 14
loop_
_symmetry_equiv_pos_site_id
_symmetry_equiv_pos_as_xyz
1 x,y,z
2 -x,1/2+y,1/2-z
3 -x,-y,-z
4 x,-1/2-y,-1/2+z
_cell_length_a 18.1981
_cell_length_b 14.951
_cell_length_c 10.1086
_cell_angle_alpha 90
_cell_angle_beta 93.127
_cell_angle_gamma 90
_cell_formula_units_Z 2
loop_
_atom_type_symbol
_atom_type_radius_bond
C 0.68
H 0.23
Cr 1.39
Li 1.28
O 0.68
S 1.02
loop_
_atom_site_label
_atom_site_type_symbol
_atom_site_fract_x
_atom_site_fract_y
_atom_site_fract_z
O1 O 0.5540(4) -0.2693(5) 0.1150(8)
O2 O 0.4293(4) -0.1841(5) 0.1606(7)
O3 O 0.5612(4) -0.3173(5) 0.3268(8)
O4 O 0.4385(4) -0.2307(5) 0.3728(8)
O5 O 0.5596(4) -0.0764(5) 0.0788(7)
O6 O 0.5612(3) 0.0732(5) 0.0822(6)
C1 C 0.5318(6) -0.2752(7) 0.2294(10)
C2 C 0.4596(6) -0.2255(7) 0.2591(11)
C3 C 0.5345(5) -0.0004(7) 0.0474(9)
Li1 Li 0.49686(16) -0.1789(2) -0.0057(3)
S1 S 0.21898(15) 0.1269(3) 0.7522(3)
S2 S 0.28199(14) 0.1797(2) 0.4382(3)
S3 S 0.07349(15) 0.1277(3) 0.6134(3)
S4 S 0.12451(14) 0.1693(3) 0.3531(3)
S5 S -0.09394(15) 0.1273(3) 0.4950(3)
S6 S -0.04448(15) 0.1671(3) 0.2323(3)
S7 S -0.25254(15) 0.1237(3) 0.4143(3)
S8 S -0.19071(15) 0.1742(2) 0.0990(3)
C4 C 0.3107(6) 0.1558(13) 0.7047(12)
C5 C 0.3315(6) 0.1306(11) 0.5787(12)
C6 C 0.1689(5) 0.1413(8) 0.6028(10)
C7 C 0.1916(5) 0.1603(8) 0.4805(10)
C8 C 0.0507(5) 0.1479(8) 0.4484(10)
C9 C -0.0215(5) 0.1475(8) 0.3961(10)
C10 C -0.1624(5) 0.1384(8) 0.3686(10)
C11 C -0.1393(5) 0.1582(8) 0.2459(10)
C12 C -0.2987(7) 0.1173(16) 0.2574(14)
C13 C -0.2815(6) 0.1669(13) 0.1498(14)
H1 H 0.31594 0.22022 0.71180
H2 H 0.34571 0.12954 0.76935
H3 H 0.32676 0.06614 0.57152
H4 H 0.38321 0.14484 0.57275
H5 H -0.29606 0.05515 0.23037
H6 H -0.35014 0.12927 0.27121
H7 H -0.29781 0.22757 0.16568
H8 H -0.31155 0.14454 0.07479
S9 S 0.21786(17) -0.1093(2) 0.2439(3)
S10 S 0.25488(18) 0.0934(2) 0.0854(3)
S11 S 0.06740(16) -0.0828(2) 0.1367(3)
S12 S 0.09767(16) 0.0857(2) -0.0023(3)
C14 C 0.2967(6) -0.0357(8) 0.2731(12)
C15 C 0.3191(6) 0.0100(8) 0.1552(12)
C16 C 0.1568(6) -0.0406(7) 0.1511(10)
C17 C 0.1714(6) 0.0359(8) 0.0875(10)
C18 C 0.0333(6) 0.0001(8) 0.0281(10)
H9 H 0.28489 0.00868 0.33861
H10 H 0.33788 -0.07064 0.30973
H11 H 0.32717 -0.03451 0.08773
H12 H 0.36593 0.03920 0.17631
O7 O 0.5819(10) 0.0816(12) 0.4632(18)
C19 C 0.5055(15) -0.012(2) 0.586(3)
C20 C 0.5229(15) 0.019(2) 0.450(2)
H13 H 0.61829 0.05705 0.49827
H14 H 0.49256 0.03795 0.63885
H15 H 0.54787 -0.04169 0.62707
H16 H 0.46505 -0.05369 0.57925
H17 H 0.53696 -0.03133 0.39608
H18 H 0.47998 0.04718 0.40646
Cr1? Cr 0.49686(16) -0.1789(2) -0.0057(3)
O5B O 0.4404(4) 0.0764(5) -0.0788(7)
O6B O 0.4388(3) -0.0732(5) -0.0822(6)
C3B C 0.4655(5) 0.0004(7) -0.0474(9)
O1B O 0.4460(4) 0.2693(5) -0.1150(8)
O2B O 0.5707(4) 0.1841(5) -0.1606(7)
O3B O 0.4388(4) 0.3173(5) -0.3268(8)
O4B O 0.5615(4) 0.2307(5) -0.3728(8)
C1B C 0.4682(6) 0.2752(7) -0.2294(10)
C2B C 0.5404(6) 0.2255(7) -0.2591(11)
Li1B Li 0.50314(16) 0.1789(2) 0.0057(3)
O3A O 0.4388(4) 0.1827(5) 0.1732(8)
O3C O 0.5612(4) -0.1827(5) -0.1732(8)
O4A O 0.5615(4) 0.2693(5) 0.1272(8)
O4C O 0.4385(4) -0.2693(5) -0.1272(8)
Li1A Li 0.50314(16) 0.3211(2) -0.4943(3)
Li1C Li 0.49686(16) -0.3211(2) 0.4943(3)
S9B S -0.21786(17) 0.1093(2) -0.2439(3)
S10B S -0.25488(18) -0.0934(2) -0.0854(3)
S11B S -0.06740(16) 0.0828(2) -0.1367(3)
S12B S -0.09767(16) -0.0857(2) 0.0023(3)
C14B C -0.2967(6) 0.0357(8) -0.2731(12)
C15B C -0.3191(6) -0.0100(8) -0.1552(12)
C16B C -0.1568(6) 0.0406(7) -0.1511(10)
C17B C -0.1714(6) -0.0359(8) -0.0875(10)
C18B C -0.0333(6) -0.0001(8) -0.0281(10)
H9B H -0.28489 -0.00868 -0.33861
H10B H -0.33788 0.07064 -0.30973
H11B H -0.32717 0.03451 -0.08773
H12B H -0.36593 -0.03920 -0.17631
O7B O 0.4181(10) -0.0816(12) 0.5368(18)
C19B C 0.4945(15) 0.012(2) 0.414(3)
C20B C 0.4771(15) -0.019(2) 0.550(2)
H13B H 0.38171 -0.05705 0.50173
H14B H 0.50744 -0.03795 0.36115
H15B H 0.45213 0.04169 0.37293
H16B H 0.53495 0.05369 0.42075
H17B H 0.46304 0.03133 0.60392
H18B H 0.52002 -0.04718 0.59354
#END
