
#######################################################################
#
#                 Cambridge Crystallographic Data Centre
#                                CCDC
#
#######################################################################
#
# If this CIF has been generated from an entry in the Cambridge
# Structural Database, then it will include bibliographic, chemical,
# crystal, experimental, refinement or atomic coordinate data resulting
# from the CCDC's data processing and validation procedures.
#
#######################################################################

data_CSD_CIF_DUGJIB
_audit_creation_date 2019-12-13
_audit_creation_method CSD-ConQuest-V1
_database_code_CSD DUGJIB
_database_code_depnum_ccdc_archive 'CCDC 1870479'
_chemical_formula_sum 'C20 H12 N2 O10 U1'
_chemical_formula_moiety
;
(C10 H2 O10 U1 2-)n,C10 H10 N2 2+
;
_journal_coden_Cambridge 1295
_journal_volume 111
_journal_year 2020
_journal_page_first 107628
_journal_name_full 'Inorg.Chem.Commun. '
loop_
_publ_author_name
"Yong Dai"
"Hui-Min Chai"
"Rui-Xin Zhang"
"Jun-An Min"
"Zhao Wang"
"Meng Zhang"
"Yu Zhang"
"Jing Feng"
"Chi Zhang"
"Juan Wang"
_chemical_name_systematic
;
catena-(4,4'-bipyridinium (\m-benzene-1,2,4,5-tetracarboxylato)-dioxo-uranium)
;
_cell_volume    450.710
_exptl_crystal_density_diffrn 2.499
_exptl_crystal_description 'block'
_diffrn_ambient_temperature 173
#These two values have been output from a single CSD field.
_refine_ls_R_factor_gt 0.0242
_refine_ls_wR_factor_gt 0.0242
_symmetry_cell_setting triclinic
_symmetry_space_group_name_H-M 'P -1'
_symmetry_Int_Tables_number 2
loop_
_symmetry_equiv_pos_site_id
_symmetry_equiv_pos_as_xyz
1 x,y,z
2 -x,-y,-z
_cell_length_a 7.1802(4)
_cell_length_b 7.1899(4)
_cell_length_c 9.1634(5)
_cell_angle_alpha 88.785(2)
_cell_angle_beta 78.454(2)
_cell_angle_gamma 76.599(2)
_cell_formula_units_Z 1
loop_
_atom_type_symbol
_atom_type_radius_bond
C 0.68
H 0.23
N 0.68
O 0.68
U 1.96
loop_
_atom_site_label
_atom_site_type_symbol
_atom_site_fract_x
_atom_site_fract_y
_atom_site_fract_z
C1 C 0.4897(6) -0.1168(6) 0.1226(5)
C2 C 0.4357(6) 0.0825(6) 0.1458(5)
C3 C 0.4493(7) 0.1957(7) 0.0213(5)
H1 H 0.41590 0.33090 0.03460
C4 C 0.4881(7) -0.2489(7) 0.2496(5)
C5 C 0.3611(7) 0.1863(6) 0.2959(5)
O1 O 0.2402(5) 0.5552(4) 0.5442(3)
O2 O 0.5209(6) -0.4267(5) 0.2275(4)
O3 O 0.4571(5) -0.1822(4) 0.3815(3)
O4 O 0.4915(4) 0.2446(4) 0.3458(3)
O5 O 0.1858(5) 0.2164(5) 0.3515(3)
U1 U 0.50000 0.50000 0.50000
C6 C -0.0256(8) 0.3233(7) 0.7729(5)
H2 H -0.07000 0.45730 0.76340
C7 C -0.0513(8) 0.2424(7) 0.9094(6)
H3 H -0.11330 0.32170 0.99520
C8 C 0.0119(6) 0.0451(7) 0.9257(5)
C9 C 0.1000(7) -0.0626(7) 0.7971(5)
H4 H 0.14360 -0.19730 0.80260
C10 C 0.1254(7) 0.0228(7) 0.6607(5)
H5 H 0.18720 -0.05310 0.57310
N1 N 0.0641(6) 0.2096(6) 0.6515(5)
H6 H 0.088(8) 0.242(8) 0.565(6)
C1A C 0.5103(6) 0.1168(6) -0.1226(5)
C2A C 0.5643(6) -0.0825(6) -0.1458(5)
C3A C 0.5507(7) -0.1957(7) -0.0213(5)
H1A H 0.58410 -0.33090 -0.03460
C4A C 0.5119(7) 0.2489(7) -0.2496(5)
C5A C 0.6389(7) -0.1863(6) -0.2959(5)
O2A O 0.4791(6) 0.4267(5) -0.2275(4)
O3A O 0.5429(5) 0.1822(4) -0.3815(3)
O4A O 0.5085(4) -0.2446(4) -0.3458(3)
O5A O 0.8142(5) -0.2164(5) -0.3515(3)
O1A O 0.7598(5) 0.4448(4) 0.4558(3)
O2* O 0.5209(6) 0.5733(5) 0.2275(4)
O2A* O 0.4791(6) 0.4267(5) 0.7725(4)
O3* O 0.4571(5) 0.8178(4) 0.3815(3)
O3A* O 0.5429(5) 0.1822(4) 0.6185(3)
O4A* O 0.5085(4) 0.7554(4) 0.6542(3)
U1* U 0.50000 -0.50000 -0.50000
U1** U 0.50000 -0.50000 0.50000
U1*** U 0.50000 0.50000 -0.50000
C6A C 0.0256(8) -0.3233(7) 1.2271(5)
H2A H 0.07000 -0.45730 1.23660
C7A C 0.0513(8) -0.2424(7) 1.0906(6)
H3A H 0.11330 -0.32170 1.00480
C8A C -0.0119(6) -0.0451(7) 1.0743(5)
C9A C -0.1000(7) 0.0626(7) 1.2029(5)
H4A H -0.14360 0.19730 1.19740
C10A C -0.1254(7) -0.0228(7) 1.3393(5)
H5A H -0.18720 0.05310 1.42690
N1A N -0.0641(6) -0.2096(6) 1.3485(5)
H6A H -0.088(8) -0.242(8) 1.435(6)
#END
