
#######################################################################
#
#                 Cambridge Crystallographic Data Centre
#                                CCDC
#
#######################################################################
#
# If this CIF has been generated from an entry in the Cambridge
# Structural Database, then it will include bibliographic, chemical,
# crystal, experimental, refinement or atomic coordinate data resulting
# from the CCDC's data processing and validation procedures.
#
#######################################################################

data_CSD_CIF_DUJQUW01
_audit_creation_date 2020-06-24
_audit_creation_method CSD-ConQuest-V1
_database_code_CSD DUJQUW01
_database_code_depnum_ccdc_archive 'CCDC 1963550'
_chemical_formula_sum 'C4 H8 N1 O10 Sc1'
_chemical_formula_moiety
;
(C4 O8 Sc1 1-)n,n(H4 N1 1+),2n(H2 O1)
;
_journal_coden_Cambridge 1048
_journal_volume 22
_journal_year 2020
_journal_page_first 4364
_journal_name_full 'Green Chemistry '
loop_
_publ_author_name
"I.Huskic"
"M.Arhangelskis"
"T.Friscic"
_chemical_name_systematic
;
catena-(ammonium bis(\m-oxalato)-scandium dihydrate)
;
_cell_volume    790.819
_exptl_crystal_colour 'colorless'
_exptl_special_details
;
powder data

;
_exptl_crystal_preparation 'accelerated ageing'
_diffrn_ambient_temperature 293
#These two values have been output from a single CSD field.
_refine_ls_R_factor_gt 0.051
_refine_ls_wR_factor_gt 0.051
_symmetry_cell_setting hexagonal
_symmetry_space_group_name_H-M 'P 62 2 2'
_symmetry_Int_Tables_number 180
loop_
_symmetry_equiv_pos_site_id
_symmetry_equiv_pos_as_xyz
1 x,y,z
2 -x,-y,z
3 -x+y,-x,1/3+z
4 -x+y,y,-z
5 -y,-x,2/3-z
6 -y,x-y,2/3+z
7 y,-x+y,2/3+z
8 y,x,2/3-z
9 x-y,-y,-z
10 x-y,x,1/3+z
11 -x,-x+y,1/3-z
12 x,x-y,1/3-z
_cell_length_a 9.0093(2)
_cell_length_b 9.0093(2)
_cell_length_c 11.2503(4)
_cell_angle_alpha 90
_cell_angle_beta 90
_cell_angle_gamma 120
_cell_formula_units_Z 3
loop_
_atom_type_symbol
_atom_type_radius_bond
C 0.68
N 0.68
O 0.68
Sc 1.70
loop_
_atom_site_label
_atom_site_type_symbol
_atom_site_fract_x
_atom_site_fract_y
_atom_site_fract_z
O1 O -0.6575(4) -0.9286(4) -0.8969(3)
O2 O -0.3167(5) -0.5563(4) -0.7748(3)
C1 C -0.5941(10) -0.7971(5) -0.83333
C2 C -0.3953(12) -0.6976(6) -0.83333
Sc1 Sc -0.50000 -1.00000 -1.00000
O3 O 0.00000 -0.7591(7) 0.16667
N1 N 0.00000 0.00000 -0.66667
O1K O -0.6575(4) -0.7289(4) -0.769767(300)
O2K O -0.3167(5) -0.7604(4) -0.891867(300)
O1C O -0.2711(4) -0.9286(4) -1.1031(3)
O2C O -0.2396(5) -0.5563(4) -1.2252(3)
C1C C -0.203(1) -0.7971(5) -1.16667
C2C C -0.3023(12) -0.6976(6) -1.16667
O1E O -0.0714(4) -0.7289(4) -1.230233(300)
O2E O -0.4437(5) -0.7604(4) -1.108133(300)
O1A O -0.3425(4) -1.0714(4) -0.8969(3)
O1H O -0.7289(4) -1.0714(4) -1.1031(3)
O2F O -0.5563(5) -1.2396(4) -1.108133(300)
O2J O -0.6833(5) -1.2396(4) -0.891867(300)
Sc1B Sc -0.50000 -0.50000 -0.66667
Sc1D Sc 0.00000 -0.50000 -1.33333
#END
