
#######################################################################
#
#                 Cambridge Crystallographic Data Centre
#                                CCDC
#
#######################################################################
#
# If this CIF has been generated from an entry in the Cambridge
# Structural Database, then it will include bibliographic, chemical,
# crystal, experimental, refinement or atomic coordinate data resulting
# from the CCDC's data processing and validation procedures.
#
#######################################################################

data_CSD_CIF_DUMJAY
_audit_creation_date 2015-07-17
_audit_creation_method CSD-ConQuest-V1
_database_code_CSD DUMJAY
_database_code_depnum_ccdc_archive 'CCDC 1412135'
_chemical_formula_sum 'C15 H15 Cd1 N11'
_chemical_formula_moiety
;
(C9 H15 N2 1+)n,n(C6 Cd1 N9 1-)
;
_journal_coeditor_code "yo3009"
_journal_coden_Cambridge 1777
_journal_volume 71
_journal_year 2015
_journal_page_first 717
_journal_name_full 'Acta Crystallogr.,Sect.C:Cryst.Struct.Chem. '
loop_
_publ_author_name
"H.-T.Wang"
"L.Zhou"
"X.-L.Wang"
_chemical_name_systematic
;
catena-(1-Ethyl-4-(dimethylamino)pyridinium tris(\m~2~-dicyanamido)-cadmium)
;
_cell_volume   1954.601
_exptl_crystal_colour 'colorless'
_exptl_crystal_density_diffrn 1.569
_exptl_crystal_description 'block'
_diffrn_ambient_temperature 293
#These two values have been output from a single CSD field.
_refine_ls_R_factor_gt 0.0448
_refine_ls_wR_factor_gt 0.0448
_symmetry_cell_setting orthorhombic
_symmetry_space_group_name_H-M 'P b c m'
_symmetry_Int_Tables_number 57
loop_
_symmetry_equiv_pos_site_id
_symmetry_equiv_pos_as_xyz
1 x,y,z
2 -x,-y,1/2+z
3 -x,1/2+y,1/2-z
4 x,1/2-y,-z
5 -x,-y,-z
6 x,y,-1/2-z
7 x,-1/2-y,-1/2+z
8 -x,-1/2+y,z
_cell_length_a 7.7042(15)
_cell_length_b 14.457(3)
_cell_length_c 17.549(4)
_cell_angle_alpha 90
_cell_angle_beta 90
_cell_angle_gamma 90
_cell_formula_units_Z 4
loop_
_atom_type_symbol
_atom_type_radius_bond
C 0.68
H 0.23
Cd 1.44
N 0.68
loop_
_atom_site_label
_atom_site_type_symbol
_atom_site_fract_x
_atom_site_fract_y
_atom_site_fract_z
N1 N 0.4868(6) 0.1538(5) 0.5628(4)
Cd1 Cd 1.00000 0.00000 0.50000
C1 C 0.8972(5) 0.0452(3) 0.3147(2)
N2 N 0.8310(8) 0.0675(7) 0.25000
C2 C 0.6357(6) 0.1231(3) 0.5438(3)
N3 N 0.2099(5) 0.1165(3) 0.5082(2)
N4 N 0.7743(5) 0.1009(3) 0.5357(2)
N5 N 0.9464(5) 0.0313(3) 0.37423(19)
C3 C 0.3433(5) 0.1308(3) 0.5305(3)
N6 N -0.0430(6) 0.1777(3) 0.75000
N7 N 0.3536(6) 0.3695(3) 0.75000
C4 C -0.2009(8) 0.1208(4) 0.75000
H1 H -0.20110 0.08130 0.79470
C5 C 0.2322(7) 0.3040(4) 0.75000
C6 C 0.1607(6) 0.2682(3) 0.6814(2)
H2 H 0.20640 0.28650 0.63480
C7 C 0.0266(5) 0.2076(3) 0.6834(2)
H3 H -0.01900 0.18580 0.63770
C8 C 0.4247(6) 0.4055(3) 0.8219(2)
H4 H 0.33150 0.42690 0.85370
H5 H 0.50230 0.45580 0.81140
H6 H 0.48670 0.35710 0.84780
C9 C -0.3625(10) 0.1798(5) 0.75000
H7 H -0.46320 0.14070 0.75000
H8 H -0.36350 0.21820 0.70530
H9? H -0.20110 0.08130 0.79470
H10? H -0.36350 0.21820 0.70530
C1E C 0.8972(5) 0.0452(3) 0.1853(2)
N5E N 0.9464(5) 0.0313(3) 0.12577(19)
N1D N 0.5132(6) -0.1538(5) 0.4372(4)
C2D C 0.3643(6) -0.1231(3) 0.4562(3)
N3D N 0.7901(5) -0.1165(3) 0.4918(2)
N4D N 0.2257(5) -0.1009(3) 0.4643(2)
C3D C 0.6567(5) -0.1308(3) 0.4695(3)
Cd1* Cd 0.00000 0.00000 0.50000
Cd1A Cd 1.00000 0.00000 0.00000
N3* N 1.2099(5) 0.1165(3) 0.5082(2)
N4D* N 1.2257(5) -0.1009(3) 0.4643(2)
N5D N 1.0536(5) -0.0313(3) 0.62577(19)
H1E H -0.20110 0.08130 0.70530
H8E H -0.36350 0.21820 0.79470
C6E C 0.1607(6) 0.2682(3) 0.8186(2)
H2E H 0.20640 0.28650 0.86520
C7E C 0.0266(5) 0.2076(3) 0.8166(2)
H3E H -0.01900 0.18580 0.86230
C8E C 0.4247(6) 0.4055(3) 0.6781(2)
H4E H 0.33150 0.42690 0.64630
H5E H 0.50230 0.45580 0.68860
H6E H 0.48670 0.35710 0.65220
#END
