
#######################################################################
#
#                 Cambridge Crystallographic Data Centre
#                                CCDC
#
#######################################################################
#
# If this CIF has been generated from an entry in the Cambridge
# Structural Database, then it will include bibliographic, chemical,
# crystal, experimental, refinement or atomic coordinate data resulting
# from the CCDC's data processing and validation procedures.
#
#######################################################################

data_CSD_CIF_DUNCIB
_audit_creation_date 2020-05-14
_audit_creation_method CSD-ConQuest-V1
_database_code_CSD DUNCIB
_database_code_depnum_ccdc_archive 'CCDC 1987445'
_chemical_formula_sum 'C44 H40 Cd1 N2 O7'
_chemical_formula_moiety
;
(C42 H30 Cd1 N1 O6 1-)n,C2 H8 N1 1+,H2 O1
;
_journal_coden_Cambridge 119
_journal_volume 1217
_journal_year 2020
_journal_page_first 128411
_journal_name_full 'J.Mol.Struct. '
loop_
_publ_author_name
"Meiyu Xu"
"Guangming Liang"
"Shuang Wang"
"Xueli Ma"
"Guangyuan Liang"
"Qingling Ni"
_chemical_name_systematic
;
catena-[dimethylammonium 
(\m-4',4'',4'''-[nitrilotris(methylene)]tri([1,1'-biphenyl]-2-carboxylato))-ca
dmium(ii) monohydrate]
;
_cell_volume   3934.425
_exptl_crystal_colour 'colorless'
_exptl_crystal_density_diffrn 1.386
_exptl_crystal_description 'block'
_diffrn_ambient_temperature 293.1
#These two values have been output from a single CSD field.
_refine_ls_R_factor_gt 0.0484
_refine_ls_wR_factor_gt 0.0484
_symmetry_cell_setting monoclinic
_symmetry_space_group_name_H-M 'P 21/n'
_symmetry_Int_Tables_number 14
loop_
_symmetry_equiv_pos_site_id
_symmetry_equiv_pos_as_xyz
1 x,y,z
2 1/2-x,1/2+y,1/2-z
3 -x,-y,-z
4 -1/2+x,-1/2-y,-1/2+z
_cell_length_a 14.0084(4)
_cell_length_b 12.3736(3)
_cell_length_c 22.6997(7)
_cell_angle_alpha 90
_cell_angle_beta 90.595(3)
_cell_angle_gamma 90
_cell_formula_units_Z 4
loop_
_atom_type_symbol
_atom_type_radius_bond
C 0.68
H 0.23
Cd 1.44
N 0.68
O 0.68
loop_
_atom_site_label
_atom_site_type_symbol
_atom_site_fract_x
_atom_site_fract_y
_atom_site_fract_z
Cd1 Cd 0.94644(2) -0.09871(2) 0.43568(2)
O1 O 0.92506(17) 0.07355(18) 0.38595(10)
O2 O 0.99311(18) -0.0619(2) 0.34082(11)
O3 O 0.1897(2) 0.1895(2) 0.59695(11)
O4 O 0.10664(17) 0.2790(2) 0.53115(13)
O5 O 0.41772(14) 0.34525(17) 0.02424(9)
O6 O 0.37981(16) 0.51896(17) 0.01439(9)
N1 N 0.42923(16) 0.1274(2) 0.27928(10)
C1 C 0.1771(3) 0.2696(3) 0.56434(16)
C2 C 0.2509(2) 0.3587(3) 0.56638(14)
C3 C 0.2540(3) 0.4208(3) 0.61720(16)
H1 H 0.21330 0.40470 0.64810
C4 C 0.3170(3) 0.5062(3) 0.62247(18)
H2 H 0.31850 0.54740 0.65680
C5 C 0.3769(3) 0.5301(3) 0.5774(2)
H3 H 0.41860 0.58830 0.58070
C6 C 0.3757(2) 0.4682(3) 0.52683(18)
H4 H 0.41750 0.48480 0.49660
C7 C 0.3128(2) 0.3806(2) 0.51996(15)
C8 C 0.3168(2) 0.3153(2) 0.46499(14)
C9 C 0.3003(2) 0.2049(3) 0.46512(14)
H5 H 0.28500 0.17100 0.50040
C10 C 0.3059(2) 0.1440(3) 0.41445(15)
H6 H 0.29440 0.07000 0.41630
C11 C 0.3280(2) 0.1901(3) 0.36122(13)
C12 C 0.3458(2) 0.3004(3) 0.36026(15)
H7 H 0.36180 0.33370 0.32500
C13 C 0.3401(2) 0.3608(3) 0.41092(16)
H8 H 0.35220 0.43460 0.40900
C14 C 0.3346(2) 0.1228(3) 0.30586(14)
H9 H 0.31960 0.04820 0.31520
H10 H 0.28750 0.14820 0.27750
C15 C 0.4280(2) 0.0748(3) 0.22144(13)
H11 H 0.40310 0.00210 0.22560
H12 H 0.49290 0.06930 0.20730
C16 C 0.3686(2) 0.1347(3) 0.17674(13)
C17 C 0.3668(2) 0.2468(3) 0.17628(13)
H13 H 0.40090 0.28500 0.20480
C18 C 0.3152(2) 0.3024(2) 0.13404(13)
H14 H 0.31350 0.37750 0.13520
C19 C 0.2663(2) 0.1367(3) 0.09061(14)
H15 H 0.23330 0.09830 0.06170
C20 C 0.3159(2) 0.0815(3) 0.13409(15)
H16 H 0.31370 0.00640 0.13460
C21 C 0.2652(2) 0.2480(2) 0.08952(13)
C22 C 0.2123(2) 0.3079(2) 0.04267(12)
C23 C 0.1164(2) 0.2851(3) 0.03249(15)
H17 H 0.08740 0.22990 0.05360
C24 C 0.0632(2) 0.3430(4) -0.00850(18)
H18 H -0.00090 0.32660 -0.01470
C25 C 0.1048(3) 0.4240(3) -0.03976(17)
H19 H 0.06850 0.46380 -0.06660
C26 C 0.2000(2) 0.4474(3) -0.03194(14)
H20 H 0.22840 0.50140 -0.05430
C27 C 0.25424(19) 0.3902(2) 0.00962(12)
C28 C 0.3577(2) 0.4202(2) 0.01638(12)
C29 C 0.5001(2) 0.0784(3) 0.31856(14)
H21 H 0.48840 0.00120 0.32030
H22 H 0.49160 0.10740 0.35790
C30 C 0.6019(2) 0.0969(2) 0.30041(13)
C31 C 0.6675(2) 0.0143(2) 0.30287(14)
H23 H 0.64730 -0.05440 0.31360
C32 C 0.7627(2) 0.0304(2) 0.28982(13)
H24 H 0.80510 -0.02740 0.29190
C33 C 0.7955(2) 0.1317(2) 0.27376(13)
C34 C 0.7291(2) 0.2153(3) 0.27156(15)
H25 H 0.74910 0.28430 0.26110
C35 C 0.6343(2) 0.1980(3) 0.28456(16)
H26 H 0.59150 0.25540 0.28260
C36 C 0.8967(2) 0.1494(2) 0.25725(13)
C37 C 0.9173(3) 0.2144(3) 0.20857(15)
H27 H 0.86750 0.24810 0.18830
C38 C 1.0095(3) 0.2295(3) 0.18999(17)
H28 H 1.02140 0.27470 0.15820
C39 C 1.0836(3) 0.1787(4) 0.2180(2)
H29 H 1.14590 0.18830 0.20500
C40 C 1.0654(3) 0.1132(3) 0.26557(18)
H30 H 1.11580 0.07770 0.28420
C41 C 0.9740(2) 0.0991(2) 0.28630(14)
C42 C 0.9623(2) 0.0327(3) 0.34125(15)
N2 N 0.5266(3) 0.7826(3) 0.07332(16)
H31 H 0.54010 0.71320 0.07950
H32 H 0.50960 0.78890 0.03560
C43 C 0.6127(5) 0.8420(5) 0.0816(4)
H33 H 0.62230 0.88880 0.04840
H34 H 0.66550 0.79280 0.08500
H35 H 0.60850 0.88450 0.11680
C44 C 0.4444(5) 0.8102(5) 0.1082(3)
H36 H 0.42060 0.87960 0.09620
H37 H 0.46250 0.81260 0.14910
H38 H 0.39560 0.75670 0.10240
O7 O 0.4804(16) 0.0692(13) 0.0330(8)
H39 H 0.53700 0.09370 0.03420
H40 H 0.44270 0.12300 0.03120
Cd1A Cd 0.55356(2) 0.40129(2) 0.06432(2)
Cd1B Cd 0.05356(2) 0.09871(2) 0.56432(2)
Cd1C Cd 0.44644(2) 0.59871(2) -0.06432(2)
O3B O 0.8103(2) -0.1895(2) 0.40305(11)
O4B O 0.89336(17) -0.2790(2) 0.46885(13)
O5A O 1.08228(14) -0.15475(17) 0.47576(9)
O6C O 0.87981(16) -0.01896(17) 0.51439(9)
#END
