
#######################################################################
#
#                 Cambridge Crystallographic Data Centre
#                                CCDC
#
#######################################################################
#
# If this CIF has been generated from an entry in the Cambridge
# Structural Database, then it will include bibliographic, chemical,
# crystal, experimental, refinement or atomic coordinate data resulting
# from the CCDC's data processing and validation procedures.
#
#######################################################################

data_CSD_CIF_DUNXUH
_audit_creation_date 2015-07-21
_audit_creation_method CSD-ConQuest-V1
_database_code_CSD DUNXUH
_database_code_depnum_ccdc_archive 'CCDC 1414022'
_chemical_formula_sum 'C14 H14 N2 O7 S1 Zn1'
_chemical_formula_moiety
;
C6 H11 N2 1+,n(C8 H3 O7 S1 Zn1 1-)
;
_journal_coden_Cambridge 1078
_journal_year 2015
_journal_name_full 'CSD Communication(Private Communication) '
loop_
_publ_author_name
"Yuan-bo Tong"
_chemical_name_systematic
;
catena-[(1-ethyl-3-methyl-1H-imidazol-3-ium) 
(\m-5-sulfonatobenzene-1,3-dicarboxylate)-zinc]
;
_cell_volume   1680.691
_exptl_crystal_colour 'white'
_exptl_crystal_density_diffrn 1.659
_exptl_crystal_description 'granular'
_diffrn_ambient_temperature 293
#These two values have been output from a single CSD field.
_refine_ls_R_factor_gt 0.0304
_refine_ls_wR_factor_gt 0.0304
_symmetry_cell_setting monoclinic
_symmetry_space_group_name_H-M 'P 21/c'
_symmetry_Int_Tables_number 14
loop_
_symmetry_equiv_pos_site_id
_symmetry_equiv_pos_as_xyz
1 x,y,z
2 -x,1/2+y,1/2-z
3 -x,-y,-z
4 x,-1/2-y,-1/2+z
_cell_length_a 11.2574(9)
_cell_length_b 12.0034(11)
_cell_length_c 16.143(1)
_cell_angle_alpha 90
_cell_angle_beta 129.603(4)
_cell_angle_gamma 90
_cell_formula_units_Z 4
loop_
_atom_type_symbol
_atom_type_radius_bond
C 0.68
H 0.23
N 0.68
O 0.68
S 1.02
Zn 1.22
loop_
_atom_site_label
_atom_site_type_symbol
_atom_site_fract_x
_atom_site_fract_y
_atom_site_fract_z
C1 C 0.1420(2) 0.89041(17) 0.76816(16)
C2 C 0.0838(2) 0.80260(17) 0.69689(16)
H1 H -0.01910 0.78200 0.65650
C3 C 0.1800(2) 0.74518(16) 0.68588(15)
C4 C 0.1181(2) 0.64849(16) 0.61027(15)
C5 C 0.3335(2) 0.77748(17) 0.74547(15)
H2 H 0.39750 0.73940 0.73740
C6 C 0.3912(2) 0.86603(17) 0.81660(15)
C7 C 0.2955(2) 0.92231(17) 0.82860(16)
H3 H 0.33380 0.98120 0.87690
C8 C 0.5556(2) 0.90125(19) 0.87888(16)
O1 O 0.07007(17) 0.92702(13) 0.88853(12)
O2 O -0.13332(19) 0.9337(2) 0.69765(15)
O3 O 0.0576(3) 1.08097(15) 0.78813(19)
O4 O 0.21474(16) 0.57865(12) 0.62666(11)
O5 O -0.02462(15) 0.64410(12) 0.53598(11)
O6 O 0.63941(16) 0.85323(15) 0.86534(14)
O7 O 0.6064(2) 0.98057(16) 0.94384(15)
S1 S 0.02264(6) 0.96556(5) 0.78470(4)
Zn1 Zn 0.17802(2) 1.02579(2) 1.01875(2)
C9 C 0.3097(6) 0.2315(4) 0.7930(4)
H4 H 0.26410 0.21270 0.82510
H5 H 0.34030 0.16460 0.77850
H6 H 0.23580 0.27090 0.72690
C10 C 0.6744(5) 0.3591(4) 1.0014(3)
H7 H 0.77600 0.36150 1.06480
C11 C 0.5825(6) 0.2699(3) 0.9584(4)
H8 H 0.60910 0.19840 0.98700
C12 C 0.7731(8) 0.5628(5) 0.9384(5)
H9 H 0.85680 0.51790 0.99560
H10 H 0.80780 0.63800 0.94620
H11 H 0.73700 0.53350 0.87060
C13 C 0.6430(5) 0.5611(3) 0.9430(3)
H12 H 0.67840 0.59280 1.01070
H13 H 0.55820 0.60630 0.88520
C14 C 0.4508(4) 0.4088(3) 0.8526(3)
H14 H 0.37080 0.45120 0.79520
N1 N 0.4438(4) 0.3015(2) 0.8661(3)
N2 N 0.5889(4) 0.4464(2) 0.9332(2)
O4C O 0.21474(16) 0.92135(12) 1.12666(11)
O5A O 0.02462(15) 1.14410(12) 0.96402(11)
O6B O 0.36059(16) 1.14677(15) 1.13466(14)
O7B O 0.3936(2) 1.01943(16) 1.05616(15)
Zn1A Zn -0.17802(2) 0.52579(2) 0.48125(2)
Zn1B Zn 0.82198(2) 0.97421(2) 0.98125(2)
Zn1C Zn 0.17802(2) 0.47421(2) 0.51875(2)
#END
