
#######################################################################
#
#                 Cambridge Crystallographic Data Centre
#                                CCDC
#
#######################################################################
#
# If this CIF has been generated from an entry in the Cambridge
# Structural Database, then it will include bibliographic, chemical,
# crystal, experimental, refinement or atomic coordinate data resulting
# from the CCDC's data processing and validation procedures.
#
#######################################################################

data_CSD_CIF_DUNXUH13
_audit_creation_date 2015-10-15
_audit_creation_method CSD-ConQuest-V1
_database_code_CSD DUNXUH13
_database_code_depnum_ccdc_archive 'CCDC 1431327'
_chemical_formula_sum 'C14 H14 N2 O7 S1 Zn1'
_chemical_formula_moiety
;
(C8 H3 O7 S1 Zn1 1-)n,C6 H11 N2 1+
;
_journal_coden_Cambridge 1078
_journal_year 2015
_journal_name_full 'CSD Communication(Private Communication) '
loop_
_publ_author_name
"Yuan-Bo Tong"
_chemical_name_systematic
;
catena-[1-Ethyl-3-methylimidazolium 
(\m-3,5-dicarboxylatobenzenesulfonato)-zinc]
;
_cell_volume   1663.011
_exptl_crystal_colour 'white'
_exptl_crystal_density_diffrn 1.676
_exptl_crystal_description 'granular'
_diffrn_ambient_temperature 200
#These two values have been output from a single CSD field.
_refine_ls_R_factor_gt 0.0254
_refine_ls_wR_factor_gt 0.0254
_symmetry_cell_setting monoclinic
_symmetry_space_group_name_H-M 'P 21/c'
_symmetry_Int_Tables_number 14
loop_
_symmetry_equiv_pos_site_id
_symmetry_equiv_pos_as_xyz
1 x,y,z
2 -x,1/2+y,1/2-z
3 -x,-y,-z
4 x,-1/2-y,-1/2+z
_cell_length_a 11.2499(6)
_cell_length_b 11.7888(6)
_cell_length_c 16.2271(6)
_cell_angle_alpha 90
_cell_angle_beta 129.399(2)
_cell_angle_gamma 90
_cell_formula_units_Z 4
loop_
_atom_type_symbol
_atom_type_radius_bond
C 0.68
H 0.23
N 0.68
O 0.68
S 1.02
Zn 1.22
loop_
_atom_site_label
_atom_site_type_symbol
_atom_site_fract_x
_atom_site_fract_y
_atom_site_fract_z
C1 C 0.14176(19) 0.89649(15) 0.76824(14)
C2 C 0.08292(19) 0.80827(15) 0.69581(14)
H1 H -0.02250 0.78800 0.65400
C3 C 0.17924(19) 0.74918(15) 0.68447(13)
C4 C 0.11732(19) 0.65186(15) 0.60859(13)
C5 C 0.33305(19) 0.78057(15) 0.74481(13)
H2 H 0.39850 0.74090 0.73670
C6 C 0.39113(19) 0.86987(15) 0.81698(14)
C7 C 0.2959(2) 0.92767(15) 0.82970(14)
H3 H 0.33560 0.98780 0.87980
C8 C 0.55614(19) 0.90437(17) 0.88058(14)
O1 O 0.06394(15) 0.92905(12) 0.88594(10)
O2 O -0.13431(16) 0.94440(17) 0.69572(12)
O3 O 0.0625(2) 1.09001(13) 0.79374(16)
O4 O 0.21382(14) 0.57968(11) 0.62553(10)
O5 O -0.02512(13) 0.64863(11) 0.53378(10)
O6 O 0.64131(15) 0.85239(12) 0.86892(12)
O7 O 0.60675(16) 0.98594(14) 0.94495(12)
S1 S 0.02222(5) 0.97259(4) 0.78504(4)
Zn1 Zn 0.17668(2) 1.02649(2) 1.01745(2)
C9 C 0.2960(4) 0.2396(3) 0.7809(3)
H4 H 0.22220 0.28440 0.71650
H5 H 0.24870 0.21620 0.81220
H6 H 0.32570 0.17220 0.76240
C10 C 0.6631(4) 0.3601(2) 0.9990(2)
H7 H 0.76460 0.36020 1.06550
C11 C 0.5674(4) 0.2713(2) 0.9530(2)
H8 H 0.58850 0.19650 0.98080
C12 C 0.7861(5) 0.5605(3) 0.9456(3)
H9 H 0.86790 0.51380 1.00560
H10 H 0.82500 0.63740 0.95300
H11 H 0.75270 0.52720 0.87860
C13 C 0.6510(3) 0.5655(2) 0.9451(2)
H12 H 0.68510 0.59860 1.01320
H13 H 0.57020 0.61530 0.88640
C14 C 0.4476(3) 0.4171(2) 0.84691(18)
H14 H 0.37160 0.46330 0.78810
N1 N 0.4327(3) 0.30817(17) 0.85804(17)
N2 N 0.5861(3) 0.45133(17) 0.93142(15)
O4C O 0.21382(14) 0.92032(11) 1.12553(10)
O5A O 0.02512(13) 1.14863(11) 0.96622(10)
O6B O 0.35869(15) 1.14761(12) 1.13108(12)
O7B O 0.39325(16) 1.01406(14) 1.05505(12)
Zn1A Zn -0.17668(2) 0.52649(2) 0.48255(2)
Zn1B Zn 0.82332(2) 0.97351(2) 0.98255(2)
Zn1C Zn 0.17668(2) 0.47351(2) 0.51745(2)
#END
