
#######################################################################
#
#                 Cambridge Crystallographic Data Centre
#                                CCDC
#
#######################################################################
#
# If this CIF has been generated from an entry in the Cambridge
# Structural Database, then it will include bibliographic, chemical,
# crystal, experimental, refinement or atomic coordinate data resulting
# from the CCDC's data processing and validation procedures.
#
#######################################################################

data_CSD_CIF_DUPJAB
_audit_creation_date 2015-07-22
_audit_creation_method CSD-ConQuest-V1
_database_code_CSD DUPJAB
_database_code_depnum_ccdc_archive 'CCDC 1047491'
_chemical_formula_sum 'C110 H150 Cd12 N32 O62'
_chemical_formula_moiety
;
(C88 H64 Cd12 N24 O42 2-)n,6n(C3 H7 N1 O1),14n(H2 O1),2n(C2 H8 N1 1+)
;
_journal_coden_Cambridge 1147
_journal_volume 15
_journal_year 2015
_journal_page_first 3847
_journal_name_full 'Cryst.Growth Des. '
loop_
_publ_author_name
"Yuan Chen"
"Ziyin Li"
"Qing Liu"
"Yangcan Shen"
"Xiuzhen Wu"
"Dandan Xu"
"Xiuling Ma"
"Lihua Wang"
"Qian-Huo Chen"
"Zhangjing Zhang"
"Shengchang Xiang"
_chemical_name_systematic
;
catena-[bis(dimethylammonium) 
nonakis(\m-terephthalato)-octakis(\m-1,2,4-triazolato)-hexaaqua-dodeca-cadmium
;
_chemical_name_common
;
FJU-12
;
_cell_volume  20113.263
_exptl_crystal_colour 'colorless'
_exptl_crystal_description 'plate'
_diffrn_ambient_temperature 100.0
_refine_special_details
;
Disordered dimethylammonium ions and N,N-dimethylformamide and water solvent 
molecules were not modelled and the disordered density was taken into account 
using the SQUEEZE/PLATON procedure.
;
#These two values have been output from a single CSD field.
_refine_ls_R_factor_gt 0.0616
_refine_ls_wR_factor_gt 0.0616
_symmetry_cell_setting orthorhombic
_symmetry_space_group_name_H-M 'C c c m'
_symmetry_Int_Tables_number 66
loop_
_symmetry_equiv_pos_site_id
_symmetry_equiv_pos_as_xyz
1 x,y,z
2 -x,-y,z
3 x,-y,1/2-z
4 -x,y,1/2-z
5 1/2+x,1/2+y,z
6 1/2-x,1/2-y,z
7 1/2+x,1/2-y,1/2-z
8 1/2-x,1/2+y,1/2-z
9 -x,-y,-z
10 x,y,-z
11 -x,y,-1/2+z
12 x,-y,-1/2+z
13 -1/2-x,-1/2-y,-z
14 -1/2+x,-1/2+y,-z
15 -1/2-x,-1/2+y,-1/2+z
16 -1/2+x,-1/2-y,-1/2+z
_cell_length_a 20.7471(5)
_cell_length_b 26.2764(6)
_cell_length_c 36.8943(5)
_cell_angle_alpha 90
_cell_angle_beta 90
_cell_angle_gamma 90
_cell_formula_units_Z 4
loop_
_atom_type_symbol
_atom_type_radius_bond
C 0.68
H 0.23
Cd 1.44
N 0.68
O 0.68
loop_
_atom_site_label
_atom_site_type_symbol
_atom_site_fract_x
_atom_site_fract_y
_atom_site_fract_z
Cd1 Cd 0.23151(2) 0.00000 0.25000
Cd2 Cd 0.20251(2) -0.06060(2) 0.15126(2)
Cd3 Cd 0.07923(3) 0.16344(2) 0.15047(2)
Cd4 Cd 0.00000 0.19109(4) 0.25000
O1 O 0.0983(2) 0.19111(17) 0.21922(12)
O2 O 0.2680(2) 0.42155(19) 0.27900(13)
N1 N 0.1269(3) 0.0931(2) 0.16985(15)
O3 O 0.2265(3) 0.3821(2) 0.32668(14)
N2 N -0.1179(3) 0.1122(2) 0.16836(16)
N3 N 0.1621(3) 0.0124(2) 0.17207(14)
O4 O 0.3327(2) 0.0120(2) 0.22122(15)
C1 C 0.1336(3) 0.0475(3) 0.15237(16)
H1 H 0.11930 0.04190 0.12880
O5 O 0.1467(3) -0.0390(2) 0.09523(13)
N4 N 0.1753(2) 0.0357(2) 0.20465(13)
C2 C 0.1534(4) 0.2697(3) 0.22714(19)
N5 N -0.0209(3) 0.1476(3) 0.16843(17)
O6 O 0.3027(3) -0.0094(3) 0.14774(19)
H2 H 0.29480 0.02570 0.14630
H3 H 0.32840 -0.01710 0.12750
C3 C 0.3587(5) 0.00000 0.25000
C4 C 0.4331(4) 0.00000 0.25000
C5 C 0.4666(3) -0.0002(4) 0.2175(2)
H4 H 0.44420 -0.00060 0.19570
C6 C 0.1535(3) 0.0826(3) 0.20192(16)
H5 H 0.15640 0.10630 0.22060
O7 O 0.0525(3) 0.1179(2) 0.09460(13)
O8 O 0.1309(4) 0.2317(3) 0.17069(16)
C7 C -0.0636(4) 0.1204(3) 0.1506(2)
H6 H -0.05610 0.10800 0.12740
O9 O 0.2289(3) -0.0901(3) 0.09450(15)
C8 C 0.1868(4) -0.0654(3) 0.07849(19)
O10 O 0.0970(6) 0.1889(4) 0.0948(2)
C9 C 0.1835(4) -0.0680(3) 0.0380(2)
C10 C 0.1260(4) 0.2287(3) 0.2047(2)
N6 N -0.0499(3) 0.1587(3) 0.20103(18)
C11 C 0.1997(4) 0.3526(3) 0.2327(2)
H7 H 0.21410 0.38250 0.22190
C12 C 0.1840(4) 0.3029(3) 0.2850(2)
H8 H 0.18630 0.29910 0.31010
C13 C 0.1731(5) 0.3146(3) 0.2115(2)
H9 H 0.16860 0.31940 0.18660
C14 C 0.1592(4) 0.2640(3) 0.2639(2)
H10 H 0.14630 0.23370 0.27480
C15 C 0.2049(3) 0.3466(3) 0.26933(17)
C16 C 0.0475(4) 0.1121(3) 0.01893(19)
H11 H 0.02830 0.08530 0.03140
C17 C 0.1343(4) -0.0417(4) 0.0189(2)
H12 H 0.10220 -0.02460 0.03150
C18 C 0.2276(5) -0.0962(4) 0.0191(2)
H13 H 0.25790 -0.11550 0.03160
C19 C 0.0755(6) 0.1511(5) 0.0378(3)
C20 C 0.2339(3) 0.3865(3) 0.29311(19)
C21 C -0.1066(4) 0.1372(3) 0.1997(2)
H14 H -0.13640 0.13900 0.21860
C22 C 0.0775(5) 0.1512(5) 0.0786(2)
C23 C 0.1063(9) 0.1882(7) 0.0199(5)
H15 H 0.12760 0.21380 0.03250
O11 O 0.00000 0.2762(7) 0.25000
O4A O 0.6673(2) -0.0120(2) 0.22122(15)
C3A C 0.6413(5) 0.00000 0.25000
C4A C 0.5669(4) 0.00000 0.25000
C5A C 0.5334(3) 0.0002(4) 0.2175(2)
H4A H 0.55580 0.00060 0.19570
O4B O 0.3327(2) -0.0120(2) 0.27878(15)
C5B C 0.4666(3) 0.0002(4) 0.2825(2)
H4B H 0.44420 0.00060 0.30430
O4C O 0.6673(2) 0.0120(2) 0.27878(15)
C5C C 0.5334(3) -0.0002(4) 0.2825(2)
H4C H 0.55580 -0.00060 0.30430
O5I O 0.1467(3) -0.0390(2) -0.09523(13)
O9I O 0.2289(3) -0.0901(3) -0.09450(15)
C8I C 0.1868(4) -0.0654(3) -0.07849(19)
C9I C 0.1835(4) -0.0680(3) -0.0380(2)
C17I C 0.1343(4) -0.0417(4) -0.0189(2)
H12I H 0.10220 -0.02460 -0.03150
C18I C 0.2276(5) -0.0962(4) -0.0191(2)
H13I H 0.25790 -0.11550 -0.03160
O7I O 0.0525(3) 0.1179(2) -0.09460(13)
O10I O 0.0970(6) 0.1889(4) -0.0948(2)
C16I C 0.0475(4) 0.1121(3) -0.01893(19)
H11I H 0.02830 0.08530 -0.03140
C19I C 0.0755(6) 0.1511(5) -0.0378(3)
C22I C 0.0775(5) 0.1512(5) -0.0786(2)
C23I C 0.1063(9) 0.1882(7) -0.0199(5)
H15I H 0.12760 0.21380 -0.03250
Cd1A Cd -0.23151(2) 0.00000 0.25000
Cd2A Cd -0.20251(2) 0.06060(2) 0.15126(2)
Cd3A Cd -0.07923(3) -0.16344(2) 0.15047(2)
Cd4A Cd 0.00000 -0.19109(4) 0.25000
O1A O -0.0983(2) -0.19111(17) 0.21922(12)
O2A O -0.2680(2) -0.42155(19) 0.27900(13)
N1A N -0.1269(3) -0.0931(2) 0.16985(15)
O3A O -0.2265(3) -0.3821(2) 0.32668(14)
N2A N 0.1179(3) -0.1122(2) 0.16836(16)
N3A N -0.1621(3) -0.0124(2) 0.17207(14)
C1A C -0.1336(3) -0.0475(3) 0.15237(16)
H1A H -0.11930 -0.04190 0.12880
O5A O -0.1467(3) 0.0390(2) 0.09523(13)
N4A N -0.1753(2) -0.0357(2) 0.20465(13)
C2A C -0.1534(4) -0.2697(3) 0.22714(19)
N5A N 0.0209(3) -0.1476(3) 0.16843(17)
O6A O -0.3027(3) 0.0094(3) 0.14774(19)
H2A H -0.29480 -0.02570 0.14630
H3A H -0.32840 0.01710 0.12750
C6A C -0.1535(3) -0.0826(3) 0.20192(16)
H5A H -0.15640 -0.10630 0.22060
O7A O -0.0525(3) -0.1179(2) 0.09460(13)
O8A O -0.1309(4) -0.2317(3) 0.17069(16)
C7A C 0.0636(4) -0.1204(3) 0.1506(2)
H6A H 0.05610 -0.10800 0.12740
O9A O -0.2289(3) 0.0901(3) 0.09450(15)
C8A C -0.1868(4) 0.0654(3) 0.07849(19)
O10A O -0.0970(6) -0.1889(4) 0.0948(2)
C9A C -0.1835(4) 0.0680(3) 0.0380(2)
C10A C -0.1260(4) -0.2287(3) 0.2047(2)
N6A N 0.0499(3) -0.1587(3) 0.20103(18)
C11A C -0.1997(4) -0.3526(3) 0.2327(2)
H7A H -0.21410 -0.38250 0.22190
C12A C -0.1840(4) -0.3029(3) 0.2850(2)
H8A H -0.18630 -0.29910 0.31010
C13A C -0.1731(5) -0.3146(3) 0.2115(2)
H9A H -0.16860 -0.31940 0.18660
C14A C -0.1592(4) -0.2640(3) 0.2639(2)
H10A H -0.14630 -0.23370 0.27480
C15A C -0.2049(3) -0.3466(3) 0.26933(17)
C16A C -0.0475(4) -0.1121(3) 0.01893(19)
H11A H -0.02830 -0.08530 0.03140
C17A C -0.1343(4) 0.0417(4) 0.0189(2)
H12A H -0.10220 0.02460 0.03150
C18A C -0.2276(5) 0.0962(4) 0.0191(2)
H13A H -0.25790 0.11550 0.03160
C19A C -0.0755(6) -0.1511(5) 0.0378(3)
C20A C -0.2339(3) -0.3865(3) 0.29311(19)
C21A C 0.1066(4) -0.1372(3) 0.1997(2)
H14A H 0.13640 -0.13900 0.21860
C22A C -0.0775(5) -0.1512(5) 0.0786(2)
C23A C -0.1063(9) -0.1882(7) 0.0199(5)
H15A H -0.12760 -0.21380 0.03250
O11A O 0.00000 -0.2762(7) 0.25000
O5H O -0.1467(3) 0.0390(2) -0.09523(13)
O9H O -0.2289(3) 0.0901(3) -0.09450(15)
C8H C -0.1868(4) 0.0654(3) -0.07849(19)
C9H C -0.1835(4) 0.0680(3) -0.0380(2)
C17H C -0.1343(4) 0.0417(4) -0.0189(2)
H12H H -0.10220 0.02460 -0.03150
C18H C -0.2276(5) 0.0962(4) -0.0191(2)
H13H H -0.25790 0.11550 -0.03160
O7H O -0.0525(3) -0.1179(2) -0.09460(13)
O10H O -0.0970(6) -0.1889(4) -0.0948(2)
C16H C -0.0475(4) -0.1121(3) -0.01893(19)
H11H H -0.02830 -0.08530 -0.03140
C19H C -0.0755(6) -0.1511(5) -0.0378(3)
C22H C -0.0775(5) -0.1512(5) -0.0786(2)
C23H C -0.1063(9) -0.1882(7) -0.0199(5)
H15H H -0.12760 -0.21380 -0.03250
Cd2B Cd 0.20251(2) 0.06060(2) 0.34874(2)
Cd3B Cd 0.07923(3) -0.16344(2) 0.34953(2)
O1B O 0.0983(2) -0.19111(17) 0.28078(12)
O2B O 0.2680(2) -0.42155(19) 0.22100(13)
N1B N 0.1269(3) -0.0931(2) 0.33015(15)
O3B O 0.2265(3) -0.3821(2) 0.17332(14)
N2B N -0.1179(3) -0.1122(2) 0.33164(16)
N3B N 0.1621(3) -0.0124(2) 0.32793(14)
C1B C 0.1336(3) -0.0475(3) 0.34763(16)
H1B H 0.11930 -0.04190 0.37120
N4B N 0.1753(2) -0.0357(2) 0.29535(13)
C2B C 0.1534(4) -0.2697(3) 0.27286(19)
N5B N -0.0209(3) -0.1476(3) 0.33157(17)
O6B O 0.3027(3) 0.0094(3) 0.35226(19)
H2B H 0.29480 -0.02570 0.35370
H3B H 0.32840 0.01710 0.37250
C6B C 0.1535(3) -0.0826(3) 0.29808(16)
H5B H 0.15640 -0.10630 0.27940
O8B O 0.1309(4) -0.2317(3) 0.32931(16)
C7B C -0.0636(4) -0.1204(3) 0.3494(2)
H6B H -0.05610 -0.10800 0.37260
C10B C 0.1260(4) -0.2287(3) 0.2953(2)
N6B N -0.0499(3) -0.1587(3) 0.29897(18)
C11B C 0.1997(4) -0.3526(3) 0.2673(2)
H7B H 0.21410 -0.38250 0.27810
C12B C 0.1840(4) -0.3029(3) 0.2150(2)
H8B H 0.18630 -0.29910 0.18990
C13B C 0.1731(5) -0.3146(3) 0.2885(2)
H9B H 0.16860 -0.31940 0.31340
C14B C 0.1592(4) -0.2640(3) 0.2361(2)
H10B H 0.14630 -0.23370 0.22520
C15B C 0.2049(3) -0.3466(3) 0.23067(17)
C20B C 0.2339(3) -0.3865(3) 0.20689(19)
C21B C -0.1066(4) -0.1372(3) 0.3003(2)
H14B H -0.13640 -0.13900 0.28140
Cd2C Cd -0.20251(2) -0.06060(2) 0.34874(2)
Cd3C Cd -0.07923(3) 0.16344(2) 0.34953(2)
O1C O -0.0983(2) 0.19111(17) 0.28078(12)
O2C O -0.2680(2) 0.42155(19) 0.22100(13)
N1C N -0.1269(3) 0.0931(2) 0.33015(15)
O3C O -0.2265(3) 0.3821(2) 0.17332(14)
N2C N 0.1179(3) 0.1122(2) 0.33164(16)
N3C N -0.1621(3) 0.0124(2) 0.32793(14)
C1C C -0.1336(3) 0.0475(3) 0.34763(16)
H1C H -0.11930 0.04190 0.37120
N4C N -0.1753(2) 0.0357(2) 0.29535(13)
C2C C -0.1534(4) 0.2697(3) 0.27286(19)
N5C N 0.0209(3) 0.1476(3) 0.33157(17)
O6C O -0.3027(3) -0.0094(3) 0.35226(19)
H2C H -0.29480 0.02570 0.35370
H3C H -0.32840 -0.01710 0.37250
C6C C -0.1535(3) 0.0826(3) 0.29808(16)
H5C H -0.15640 0.10630 0.27940
O8C O -0.1309(4) 0.2317(3) 0.32931(16)
C7C C 0.0636(4) 0.1204(3) 0.3494(2)
H6C H 0.05610 0.10800 0.37260
C10C C -0.1260(4) 0.2287(3) 0.2953(2)
N6C N 0.0499(3) 0.1587(3) 0.29897(18)
C11C C -0.1997(4) 0.3526(3) 0.2673(2)
H7C H -0.21410 0.38250 0.27810
C12C C -0.1840(4) 0.3029(3) 0.2150(2)
H8C H -0.18630 0.29910 0.18990
C13C C -0.1731(5) 0.3146(3) 0.2885(2)
H9C H -0.16860 0.31940 0.31340
C14C C -0.1592(4) 0.2640(3) 0.2361(2)
H10C H -0.14630 0.23370 0.22520
C15C C -0.2049(3) 0.3466(3) 0.23067(17)
C20C C -0.2339(3) 0.3865(3) 0.20689(19)
C21C C 0.1066(4) 0.1372(3) 0.3003(2)
H14C H 0.13640 0.13900 0.28140
Cd1A* Cd 0.76849(2) 0.00000 0.25000
Cd1D Cd -0.26849(2) -0.50000 0.25000
Cd1D* Cd -0.26849(2) 0.50000 0.25000
Cd1E Cd 0.26849(2) -0.50000 0.25000
Cd1E* Cd 0.26849(2) 0.50000 0.25000
Cd2D Cd -0.29749(2) 0.43940(2) 0.15126(2)
Cd2E Cd 0.29749(2) -0.43940(2) 0.15126(2)
Cd2F Cd -0.29749(2) -0.43940(2) 0.34874(2)
Cd2G Cd 0.29749(2) 0.43940(2) 0.34874(2)
Cd2H Cd -0.20251(2) 0.06060(2) -0.15126(2)
Cd2I Cd 0.20251(2) -0.06060(2) -0.15126(2)
Cd3H Cd -0.07923(3) -0.16344(2) -0.15047(2)
Cd3I Cd 0.07923(3) 0.16344(2) -0.15047(2)
O2D O -0.2320(2) -0.07845(19) 0.27900(13)
O2E O 0.2320(2) 0.07845(19) 0.27900(13)
O2F O -0.2320(2) 0.07845(19) 0.22100(13)
O2G O 0.2320(2) -0.07845(19) 0.22100(13)
O3D O -0.2735(3) -0.1179(2) 0.32668(14)
O3E O 0.2735(3) 0.1179(2) 0.32668(14)
O3F O -0.2735(3) 0.1179(2) 0.17332(14)
O3G O 0.2735(3) -0.1179(2) 0.17332(14)
O4A* O -0.3327(2) -0.0120(2) 0.22122(15)
O4C* O -0.3327(2) 0.0120(2) 0.27878(15)
O5B O 0.1467(3) 0.0390(2) 0.40477(13)
O5C O -0.1467(3) -0.0390(2) 0.40477(13)
O7B O 0.0525(3) -0.1179(2) 0.40540(13)
O7C O -0.0525(3) 0.1179(2) 0.40540(13)
O9B O 0.2289(3) 0.0901(3) 0.40550(15)
O9C O -0.2289(3) -0.0901(3) 0.40550(15)
O10B O 0.0970(6) -0.1889(4) 0.4052(2)
O10C O -0.0970(6) 0.1889(4) 0.4052(2)
#END
