
#######################################################################
#
#                 Cambridge Crystallographic Data Centre
#                                CCDC
#
#######################################################################
#
# If this CIF has been generated from an entry in the Cambridge
# Structural Database, then it will include bibliographic, chemical,
# crystal, experimental, refinement or atomic coordinate data resulting
# from the CCDC's data processing and validation procedures.
#
#######################################################################

data_CSD_CIF_DUPWOC
_audit_creation_date 2015-07-22
_audit_creation_method CSD-ConQuest-V1
_database_code_CSD DUPWOC
_database_code_depnum_ccdc_archive 'CCDC 1017642'
_chemical_formula_sum 'C24 H44 N4 O18 S3 Zn2'
_chemical_formula_moiety
;
(C10 H8 N2 O12 S3 Zn2 2-)n,2(C7 H18 N1 O3 1+)
;
_journal_coden_Cambridge 598
_journal_volume 47
_journal_year 2015
_journal_page_first 141
_journal_name_full 'Polymer Journal(Tokyo) '
loop_
_publ_author_name
"Wenqian Chen"
"S.Horike"
"M.Inukai"
"S.Kitagawa"
_chemical_name_systematic
;
catena-[bis(2-hydroxy-N,N-bis(2-hydroxyethyl)-N-methylethanaminium) 
(\m-4,4'-bipyridine)-tris(\m-sulfato)-di-zinc]
;
_cell_volume   3425.558
_exptl_crystal_colour 'colorless'
_exptl_crystal_density_diffrn 1.752
_exptl_crystal_description 'plate'
_diffrn_ambient_temperature 173
#These two values have been output from a single CSD field.
_refine_ls_R_factor_gt 0.0927
_refine_ls_wR_factor_gt 0.0927
_symmetry_cell_setting monoclinic
_symmetry_space_group_name_H-M 'P 21/c'
_symmetry_Int_Tables_number 14
loop_
_symmetry_equiv_pos_site_id
_symmetry_equiv_pos_as_xyz
1 x,y,z
2 -x,1/2+y,1/2-z
3 -x,-y,-z
4 x,-1/2-y,-1/2+z
_cell_length_a 15.179(3)
_cell_length_b 12.950(3)
_cell_length_c 17.480(4)
_cell_angle_alpha 90
_cell_angle_beta 94.47(3)
_cell_angle_gamma 90
_cell_formula_units_Z 4
loop_
_atom_type_symbol
_atom_type_radius_bond
C 0.68
H 0.23
N 0.68
O 0.68
S 1.02
Zn 1.22
loop_
_atom_site_label
_atom_site_type_symbol
_atom_site_fract_x
_atom_site_fract_y
_atom_site_fract_z
Zn1 Zn 0.24395(6) 0.36165(6) 0.08210(5)
O1 O 0.2010(4) 0.3603(4) 0.1840(3)
Zn2 Zn 0.24724(6) 0.32163(7) 0.40627(5)
O2 O 0.4619(4) 0.1302(4) 0.4943(3)
S1 S 0.40323(12) 0.21672(15) 0.50471(11)
O3 O 0.2874(4) 0.3500(4) 0.3051(3)
S2 S 0.24183(13) 0.42448(14) 0.24942(10)
O4 O 0.0222(3) 0.3085(4) 0.4872(3)
S3 S 0.08881(12) 0.23160(14) 0.47178(10)
N1 N 0.2440(4) 0.5074(5) 0.0445(3)
O5 O 0.3308(3) 0.2143(4) 0.4412(3)
O6 O 0.1292(4) 0.2584(4) 0.3991(3)
O7 O 0.0512(4) 0.1285(4) 0.4657(3)
O8 O 0.3592(4) 0.2033(5) 0.5786(3)
O9 O 0.1605(3) 0.2384(4) 0.5350(3)
N2 N 0.2494(4) 1.0425(5) -0.0374(4)
O10 O 0.1733(4) 0.4802(4) 0.2857(3)
O11 O 0.3095(4) 0.4912(4) 0.2206(3)
O12 O 0.4492(4) 0.3148(4) 0.5065(4)
C1 C 0.3216(5) 0.5592(6) 0.0436(5)
H1 H 0.37520 0.52120 0.05000
C2 C 0.1691(5) 0.5626(5) 0.0352(4)
H2 H 0.11440 0.52740 0.03740
C3 C 0.1676(5) 0.6682(6) 0.0227(4)
H3 H 0.11300 0.70380 0.01460
C4 C 0.3257(5) 0.6643(6) 0.0338(5)
H4 H 0.38140 0.69800 0.03480
C5 C 0.3280(5) 0.8862(6) -0.0057(6)
H5 H 0.38290 0.85100 0.00100
C6 C 0.2501(5) 0.8353(5) 0.0062(4)
C7 C 0.3249(6) 0.9889(6) -0.0276(5)
H6 H 0.37870 1.02280 -0.03610
C8 C 0.2474(5) 0.7217(6) 0.0222(4)
C9 C 0.1726(5) 0.8939(6) 0.0010(5)
H7 H 0.11840 0.86350 0.01310
C10 C 0.1746(5) 0.9964(6) -0.0220(5)
H8 H 0.12110 1.03460 -0.02700
O13 O 0.0506(4) 0.0894(4) 0.1275(3)
H9 H 0.06090 0.11740 0.08580
O14 O -0.0929(4) 0.4952(5) 0.1525(3)
H10 H -0.08380 0.53450 0.11570
N3 N -0.0896(4) 0.2738(5) 0.2308(4)
C11 C -0.0610(5) 0.1984(6) 0.1726(5)
H11 H -0.07280 0.22890 0.12090
H12 H -0.09760 0.13540 0.17480
O15 O -0.2837(5) 0.2069(5) 0.2782(4)
H13 H -0.27110 0.14560 0.29030
C12 C 0.0355(5) 0.1675(6) 0.1829(5)
H14 H 0.07360 0.22820 0.17530
H15 H 0.04980 0.14060 0.23550
C13 C -0.0179(6) 0.4309(7) 0.1690(5)
H16 H 0.03580 0.47410 0.17700
H17 H -0.01060 0.38430 0.12510
C14 C -0.1848(5) 0.3096(6) 0.2073(5)
H18 H -0.20100 0.36280 0.24440
H19 H -0.18490 0.34340 0.15650
C15 C -0.0295(5) 0.3677(6) 0.2403(5)
H20 H -0.05290 0.41370 0.27920
H21 H 0.02960 0.34400 0.26110
C16 C -0.2559(6) 0.2281(6) 0.2026(5)
H22 H -0.30710 0.25220 0.16870
H23 H -0.23310 0.16400 0.18040
C17 C -0.0886(6) 0.2212(6) 0.3079(5)
H24 H -0.12390 0.15780 0.30300
H25 H -0.11380 0.26760 0.34480
H26 H -0.02770 0.20410 0.32590
C18 C 0.7520(7) 0.5983(8) 0.2611(6)
H27 H 0.73550 0.66420 0.28490
H28 H 0.80190 0.61190 0.22930
N4 N 0.5867(5) 0.5702(6) 0.2456(4)
C19 C 0.5879(7) 0.5287(10) 0.3230(6)
H29 H 0.62370 0.57550 0.35780
H30 H 0.61850 0.46120 0.32380
O16 O 0.7788(4) 0.5232(5) 0.3211(4)
H31 H 0.81160 0.55220 0.35560
O17 O 0.4528(9) 0.6115(10) 0.3623(8)
H32 H 0.42220 0.60910 0.40030
O18 O 0.5835(6) 0.3783(7) 0.1227(5)
H33 H 0.55660 0.38680 0.07940
C20 C 0.4996(8) 0.5135(11) 0.3555(7)
H34 H 0.46290 0.46630 0.32180
H35 H 0.50870 0.48100 0.40680
C21 C 0.5288(8) 0.4065(9) 0.1793(6)
H36 H 0.55270 0.37690 0.22890
H37 H 0.46960 0.37620 0.16690
C22 C 0.6770(6) 0.5580(9) 0.2132(6)
H38 H 0.68720 0.48370 0.20420
H39 H 0.67500 0.59320 0.16280
C23 C 0.5191(6) 0.5234(7) 0.1887(5)
H40 H 0.52370 0.55670 0.13820
H41 H 0.45940 0.53830 0.20520
C24 C 0.5659(8) 0.6852(8) 0.2444(8)
H42 H 0.50730 0.69650 0.26290
H43 H 0.56650 0.71130 0.19180
H44 H 0.61040 0.72190 0.27770
Zn1C Zn 0.24395(6) 0.13835(6) 0.58210(5)
Zn2C Zn 0.24724(6) 1.17837(7) -0.09373(5)
O8C O 0.3592(4) 0.2967(5) 0.0786(3)
O9C O 0.1605(3) 0.2616(4) 0.0350(3)
N2C N 0.2494(4) 0.4575(5) 0.4626(4)
#END
