
#######################################################################
#
#                 Cambridge Crystallographic Data Centre
#                                CCDC
#
#######################################################################
#
# If this CIF has been generated from an entry in the Cambridge
# Structural Database, then it will include bibliographic, chemical,
# crystal, experimental, refinement or atomic coordinate data resulting
# from the CCDC's data processing and validation procedures.
#
#######################################################################

data_CSD_CIF_DUPYEV
_audit_creation_date 2020-05-16
_audit_creation_method CSD-ConQuest-V1
_database_code_CSD DUPYEV
_database_code_depnum_ccdc_archive 'CCDC 1938750'
_chemical_formula_sum 'C36 H44 Br2 Co2 Mo1 N14 S6'
_chemical_formula_moiety
;
(C21 H22 Co1 Mo1 N10 S6 1-)n,C15 H22 Br2 Co1 N4 1+
;
_journal_coden_Cambridge 9
_journal_volume 59
_journal_year 2020
_journal_page_first 7603
_journal_name_full 'Inorg.Chem. '
loop_
_publ_author_name
"M.Mousavi"
"C.Duhayon"
"K.Bretosh"
"V.Bereau"
"J.-P.Sutter"
_chemical_name_systematic
;
catena-[(2,12-dimethyl-3,7,11,17-tetraazabicyclo[11.3.1]heptadeca-1(17),2,11,1
3,15-pentaene)-dibromo-cobalt(iii) 
bis(\m-thiocyanato)-(2,12-dimethyl-3,7,11,17-tetraazabicyclo[11.3.1]heptadeca-
1(17),2,11,13,15-pentaene)-tetrakis(isothiocyanato)-molybdenum(iii)-cobalt(ii)
 unknown solvate]
;
_cell_volume   5002.486
_exptl_crystal_colour 'black'
_exptl_crystal_density_diffrn 1.645
_exptl_crystal_description 'block'
_diffrn_ambient_temperature 180
_refine_special_details
;
Disordered solvent molecules were not modelled and the disordered density was 
taken into account using the SQUEEZE/PLATON procedure.
;
#These two values have been output from a single CSD field.
_refine_ls_R_factor_gt 0.0757
_refine_ls_wR_factor_gt 0.0757
_symmetry_cell_setting monoclinic
_symmetry_space_group_name_H-M 'P 21/c'
_symmetry_Int_Tables_number 14
loop_
_symmetry_equiv_pos_site_id
_symmetry_equiv_pos_as_xyz
1 x,y,z
2 -x,1/2+y,1/2-z
3 -x,-y,-z
4 x,-1/2-y,-1/2+z
_cell_length_a 14.6700(4)
_cell_length_b 28.7210(6)
_cell_length_c 12.4729(3)
_cell_angle_alpha 90
_cell_angle_beta 107.844(2)
_cell_angle_gamma 90
_cell_formula_units_Z 4
loop_
_atom_type_symbol
_atom_type_radius_bond
C 0.68
H 0.23
Br 1.21
Co 1.26
Mo 1.54
N 0.68
S 1.02
loop_
_atom_site_label
_atom_site_type_symbol
_atom_site_fract_x
_atom_site_fract_y
_atom_site_fract_z
C1 C 0.2521(5) 0.6233(3) -0.1121(6)
C2 C 0.0818(5) 0.6152(3) -0.6574(6)
C3 C 0.3176(7) 0.5355(4) -0.3736(7)
C4 C 0.3139(6) 0.6961(3) -0.3858(6)
C5 C -0.0121(7) 0.6873(3) -0.3892(7)
C6 C -0.0104(6) 0.5417(3) -0.3824(6)
C7 C 0.1978(6) 0.5288(3) 0.1228(7)
C8 C 0.2691(6) 0.5461(4) 0.2355(7)
C9 C 0.3268(6) 0.6100(4) 0.3495(7)
C10 C 0.3490(7) 0.6610(4) 0.3423(8)
C11 C 0.2654(7) 0.6921(4) 0.3026(7)
C12 C 0.1425(8) 0.7241(3) 0.1386(8)
C13 C 0.1095(7) 0.7253(3) 0.0102(8)
C14 C 0.0401(7) 0.6877(3) -0.0471(8)
C15 C 0.0379(6) 0.6052(3) -0.0799(7)
C16 C 0.0862(6) 0.5608(4) -0.0321(6)
C17 C 0.0655(7) 0.5154(3) -0.0833(8)
C18 C 0.1163(8) 0.4787(4) -0.0230(9)
C19 C 0.1837(7) 0.4842(3) 0.0845(9)
C20 C 0.3269(7) 0.5116(4) 0.3136(8)
C21 C -0.0471(6) 0.6083(3) -0.1770(7)
N1 N 0.2102(5) 0.6174(3) -0.2068(5)
N2 N 0.1119(4) 0.6140(3) -0.5600(5)
N3 N 0.2600(5) 0.5636(2) -0.3815(5)
N4 N 0.2584(5) 0.6666(2) -0.3905(5)
N5 N 0.0538(5) 0.6647(2) -0.3864(6)
N6 N 0.0561(5) 0.5648(2) -0.3795(5)
N7 N 0.1509(5) 0.5654(3) 0.0665(6)
N8 N 0.2690(5) 0.5896(3) 0.2488(6)
N9 N 0.2168(6) 0.6878(3) 0.1818(6)
N10 N 0.0785(5) 0.6407(3) -0.0133(6)
S1 S 0.31346(15) 0.62949(8) 0.01866(15)
S2 S 0.03808(14) 0.61811(9) -0.79389(14)
S3 S 0.3965(2) 0.49425(13) -0.3597(3)
S4 S 0.38862(19) 0.73792(9) -0.3797(2)
S5 S -0.1049(3) 0.71844(15) -0.3934(3)
S6 S -0.10027(18) 0.50857(9) -0.38305(19)
Mo1 Mo 0.15890(4) 0.61446(2) -0.38455(5)
Co1 Co 0.17836(7) 0.62424(3) 0.12320(8)
H1 H 0.29470 0.60650 0.40660
H2 H 0.38730 0.59330 0.37380
H3 H 0.38950 0.67200 0.41500
H4 H 0.38390 0.66370 0.28770
H5 H 0.28670 0.72390 0.31840
H6 H 0.22010 0.68460 0.34300
H7 H 0.16870 0.75430 0.16690
H8 H 0.08790 0.71720 0.16520
H9 H 0.07860 0.75510 -0.01300
H10 H 0.16550 0.72270 -0.01540
H11 H 0.02500 0.69080 -0.12780
H12 H -0.01850 0.69130 -0.02720
H13 H 0.01910 0.51180 -0.15280
H14 H 0.10510 0.44890 -0.05570
H15 H 0.21700 0.45930 0.12640
H16 H 0.38760 0.52570 0.35690
H17 H 0.33770 0.48500 0.26990
H18 H 0.29130 0.50160 0.36390
H19 H -0.05960 0.64040 -0.19670
H20 H -0.03720 0.59150 -0.23880
H21 H -0.09980 0.59490 -0.15760
H22 H 0.26090 0.69500 0.15250
C22 C 0.5886(7) 0.9205(4) 0.4741(8)
C23 C 0.5439(5) 0.8765(4) 0.4241(7)
C24 C 0.5330(8) 0.7942(4) 0.4424(9)
C25 C 0.5996(9) 0.7543(4) 0.4844(11)
C26 C 0.6441(8) 0.7502(4) 0.6101(11)
C27 C 0.7766(8) 0.7762(4) 0.7729(9)
C28 C 0.8638(7) 0.8062(4) 0.8077(8)
C29 C 0.8450(7) 0.8555(4) 0.8363(7)
C30 C 0.7786(6) 0.9251(3) 0.7359(8)
C31 C 0.7085(6) 0.9449(3) 0.6376(8)
C32 C 0.6921(8) 0.9920(4) 0.6063(11)
C33 C 0.6246(8) 1.0011(4) 0.5046(11)
C34 C 0.5715(8) 0.9662(5) 0.4374(10)
C35 C 0.4636(7) 0.8782(6) 0.3152(9)
C36 C 0.8448(8) 0.9556(4) 0.8215(11)
N11 N 0.6580(5) 0.9118(2) 0.5735(6)
N12 N 0.5763(5) 0.8404(3) 0.4773(6)
N13 N 0.7196(6) 0.7849(3) 0.6523(7)
N14 N 0.7809(5) 0.8802(3) 0.7414(6)
Co2 Co 0.68259(8) 0.85030(4) 0.61339(9)
Br1 Br 0.57553(10) 0.85032(6) 0.72142(11)
Br2 Br 0.79040(9) 0.85031(5) 0.50281(11)
H23 H 0.50950 0.79350 0.36090
H24 H 0.47960 0.79040 0.47180
H25 H 0.65150 0.75830 0.45190
H26 H 0.56600 0.72550 0.45720
H27 H 0.59470 0.75600 0.64580
H28 H 0.67020 0.71920 0.62900
H29 H 0.73640 0.78390 0.81970
H30 H 0.79440 0.74370 0.78300
H31 H 0.90990 0.79210 0.87300
H32 H 0.89070 0.80730 0.74550
H33 H 0.90490 0.87270 0.86240
H34 H 0.81560 0.85460 0.89610
H35 H 0.72610 1.01540 0.65280
H36 H 0.61450 1.03180 0.48060
H37 H 0.52580 0.97290 0.36880
H38 H 0.41810 0.85420 0.31540
H39 H 0.48830 0.87400 0.25310
H40 H 0.43340 0.90830 0.31020
H41 H 0.84670 0.94400 0.89650
H42 H 0.90870 0.95430 0.81230
H43 H 0.81990 0.98750 0.81130
H44 H 0.75970 0.77890 0.61640
S2* S 0.03808(14) 0.61811(9) 0.20611(14)
Co1* Co 0.17836(7) 0.62424(3) -0.87680(8)
#END
