
#######################################################################
#
#                 Cambridge Crystallographic Data Centre
#                                CCDC
#
#######################################################################
#
# If this CIF has been generated from an entry in the Cambridge
# Structural Database, then it will include bibliographic, chemical,
# crystal, experimental, refinement or atomic coordinate data resulting
# from the CCDC's data processing and validation procedures.
#
#######################################################################

data_CSD_CIF_DUQCUQ
_audit_creation_date 2020-05-17
_audit_creation_method CSD-ConQuest-V1
_database_code_CSD DUQCUQ
_database_code_depnum_ccdc_archive 'CCDC 1951449'
_chemical_formula_sum 'C42 H62 Co4 Mo12 N14 Na3 O69 P8'
_chemical_formula_moiety
;
(C24 H39 Co4 Mo12 N8 O65 P8 3-)n,1.5(C12 H10 N4),4(H2 O1),3(Na1 1+)
;
_journal_coden_Cambridge 1831
_journal_year 2020
_journal_page_first 125518
_journal_name_full 'Chem.Eng.Journal '
loop_
_publ_author_name
"Jing Du"
"Yuanyuan Ma"
"Xing Xin"
"Hu Na"
"Yingnan Zhao"
"Huaqiao Tan"
"Zhangang Han"
"Yangguang Li"
"Zhenhui Kang"
_chemical_name_systematic
;
catena-[tri-sodium octakis(\m-hydrogen 
phosphato)-tridecakis(\m-oxo)-pentakis(\m-hydroxo)-bis(\m-1,1'-(1,4-phenylene)
bis(1H-imidazole))-dodecaoxo-triaqua-tetra-cobalt(ii)-dodeca-molybdenum(v) 
1,1'-(1,4-phenylene)bis(1H-imidazole) tetrahydrate]
;
_cell_volume   9413.680
_exptl_crystal_colour 'violet'
_exptl_crystal_density_diffrn 2.519
_exptl_crystal_description 'block'
_diffrn_ambient_temperature 296.1
_refine_special_details
;
C13,C14,C15,C16,C17,C18,C19,C20,C21,C22,C23,C24,N5,N6,N7,N8,O23A,O30,O32,P4 
and C25,C26,C27,C28,C30,C31,N10,N9,O23B,O29,O2W,O31,P4B disordered over two 
sites with occupancies 0.5:0.5; O1W and O4W disordered over two sites with 
occupancies 0.5:0.5.
;
#These two values have been output from a single CSD field.
_refine_ls_R_factor_gt 0.0567
_refine_ls_wR_factor_gt 0.0567
_symmetry_cell_setting monoclinic
_symmetry_space_group_name_H-M 'I 2/a'
_symmetry_Int_Tables_number 15
loop_
_symmetry_equiv_pos_site_id
_symmetry_equiv_pos_as_xyz
1 x,y,z
2 1/2-x,y,-z
3 1/2+x,1/2+y,1/2+z
4 -x,1/2+y,1/2-z
5 -x,-y,-z
6 -1/2+x,-y,z
7 -1/2-x,-1/2-y,-1/2-z
8 x,-1/2-y,-1/2+z
_cell_length_a 26.3345(12)
_cell_length_b 13.8611(8)
_cell_length_c 26.9899(12)
_cell_angle_alpha 90
_cell_angle_beta 107.155(5)
_cell_angle_gamma 90
_cell_formula_units_Z 4
loop_
_atom_type_symbol
_atom_type_radius_bond
C 0.68
H 0.23
Co 1.26
Mo 1.54
N 0.68
Na 1.66
O 0.68
P 1.05
loop_
_atom_site_label
_atom_site_type_symbol
_atom_site_fract_x
_atom_site_fract_y
_atom_site_fract_z
Mo1 Mo 0.63648(3) 0.23586(5) 0.80984(3)
Mo2 Mo 0.68752(3) 0.07411(5) 0.82277(3)
Mo3 Mo 0.82541(3) 0.07613(6) 0.85391(3)
Mo4 Mo 0.87553(3) 0.23822(6) 0.86339(3)
Mo5 Mo 0.70427(3) 0.45355(6) 0.82379(3)
Mo6 Mo 0.80694(3) 0.45657(6) 0.84556(3)
Co1 Co 0.75000 0.25000 0.75000
P1 P 0.61647(9) 0.40776(18) 0.88771(9)
P2 P 0.76053(9) 0.25689(17) 0.89555(8)
O1 O 0.6899(2) 0.1859(4) 0.7780(2)
O2 O 0.8155(2) 0.1877(4) 0.8062(2)
O3 O 0.7524(2) 0.3880(4) 0.7906(2)
O4 O 0.6509(2) 0.1414(4) 0.8649(2)
O5 O 0.6010(2) 0.3162(5) 0.8543(2)
O6 O 0.8705(2) 0.1426(5) 0.9134(2)
O7 O 0.7538(2) 0.0231(4) 0.8029(2)
O8 O 0.6419(3) 0.0033(5) 0.7830(3)
O9 O 0.6443(2) 0.3674(5) 0.7758(2)
O10 O 0.7595(3) 0.4900(5) 0.8860(3)
O11 O 0.8620(2) 0.3703(5) 0.8235(2)
O12 O 0.7588(2) 0.1530(4) 0.8750(2)
O13 O 0.9176(3) 0.3191(6) 0.9259(2)
O14 O 0.8083(2) 0.3091(5) 0.8859(2)
O15 O 0.6475(3) 0.3766(6) 0.9436(3)
O16 O 0.8101(3) -0.0191(5) 0.9063(3)
P3 P 0.92124(13) 0.4280(3) 0.93698(11)
O17 O 0.5789(2) 0.2014(5) 0.7669(2)
O18 O 0.8660(3) 0.0038(5) 0.8330(3)
O19 O 0.7092(2) 0.3080(4) 0.8631(2)
O20 O 0.9275(3) 0.2067(6) 0.8433(3)
O21 O 0.8144(3) 0.5584(6) 0.8150(3)
O22 O 0.6511(3) 0.4743(5) 0.8658(3)
O23 O 0.5668(3) 0.4603(5) 0.8888(2)
O24 O 0.7633(3) 0.2570(6) 0.9519(2)
O25 O 0.6887(3) 0.5548(5) 0.7885(3)
P4 P 0.7602(2) -0.0839(4) 0.9036(2)
O26 O 0.8680(3) 0.4791(6) 0.9112(3)
O27 O 0.7100(3) -0.0228(5) 0.8828(3)
O28 O 0.9370(5) 0.4447(10) 0.9944(4)
O29 O 0.9640(3) 0.4708(8) 0.9139(3)
Co2 Co 0.96800(7) 0.4792(2) 1.05872(7)
Co3 Co 0.79204(10) 0.2931(2) 1.02202(10)
O30 O 0.75000 0.4386(11) 1.00000
O31 O 0.7630(7) -0.1074(14) 0.9598(7)
N1 N 0.9317(6) -0.3693(13) 1.0372(6)
C1 C 0.9572(8) -0.2887(12) 1.0461(7)
H1 H 0.99402 -0.28592 1.05956
C2 C 0.8775(8) -0.2417(16) 1.0212(10)
H2 H 0.84682 -0.20455 1.01496
N2 N 1.0050(6) 0.1694(13) 1.0596(7)
N3 N 0.9278(6) -0.2110(12) 1.0349(7)
C3 C 0.9752(9) 0.2480(15) 1.0519(10)
H3 H 0.93842 0.24739 1.03840
C4 C 0.8809(8) -0.3387(16) 1.0185(9)
H4 H 0.85190 -0.37935 1.00544
C5 C 0.9974(6) -0.0926(19) 1.0718(7)
H5 H 1.01927 -0.14225 1.08910
C6 C 0.9463(6) -0.1140(12) 1.0411(7)
C7 C 0.9146(8) -0.0404(16) 1.0147(8)
H6 H 0.88030 -0.05343 0.99383
C8 C 1.0560(8) 0.2008(18) 1.0801(9)
H7 H 1.08645 0.16294 1.08848
C9 C 1.0161(10) -0.0009(18) 1.0771(10)
H8 H 1.05041 0.01173 1.09808
C10 C 0.9843(8) 0.0743(17) 1.0513(8)
C11 C 1.0538(12) 0.298(2) 1.0859(12)
H9 H 1.08258 0.33765 1.10173
N4 N 1.0039(7) 0.3283(14) 1.0654(7)
C12 C 0.9339(7) 0.0532(17) 1.0193(8)
H10 H 0.91274 0.10243 1.00063
O32 O 0.7600(6) -0.1795(10) 0.8765(7)
H11 H 0.779(5) -0.174(3) 0.856(5)
O33 O 0.8319(6) 0.1910(15) 1.0387(6)
Na1 Na 0.9612(3) 0.4679(6) 0.8089(3)
N5 N 0.9555(3) 0.8152(6) 0.7997(3)
C13 C 0.9824(4) 0.9071(7) 0.8068(4)
C14 C 0.9785(4) 0.7275(7) 0.8086(4)
H12 H 1.01484 0.71586 0.82158
C15 C 1.0318(4) 0.9146(9) 0.8438(5)
H13 H 1.04741 0.86134 0.86333
C16 C 1.0571(4) 1.0030(8) 0.8508(5)
H14 H 1.09026 1.00930 0.87533
N6 N 0.9413(4) 0.6611(7) 0.7959(4)
C17 C 1.0340(4) 1.0814(7) 0.8222(4)
C18 C 0.9594(4) 0.9860(7) 0.7779(4)
H15 H 0.92633 0.98043 0.75327
C19 C 0.9854(4) 1.0730(7) 0.7856(4)
H16 H 0.97002 1.12637 0.76602
C20 C 0.9014(4) 0.8021(8) 0.7819(4)
H17 H 0.87570 0.85030 0.77359
C21 C 0.8926(4) 0.7071(8) 0.7790(5)
H18 H 0.85961 0.67713 0.76748
N7 N 1.0600(3) 1.1733(6) 0.8314(3)
C22 C 1.0359(5) 1.2617(7) 0.8251(5)
H19 H 0.99958 1.27338 0.81198
C23 C 1.1133(4) 1.1865(8) 0.8499(5)
H20 H 1.13908 1.13840 0.85704
N8 N 1.1222(4) 1.2829(7) 0.8559(4)
C24 C 1.0735(4) 1.3274(8) 0.8411(4)
H21 H 1.06784 1.39354 0.84222
Na2 Na 1.2246(6) 1.3348(11) 0.9133(6)
O34 O 0.7358(11) -0.188(2) 0.7833(11)
O35 O 0.8203(13) 0.506(3) 0.9816(11)
H22 H 0.79106 0.52622 0.98494
H23 H 0.83785 0.47769 1.00945
P5? P 0.7633(2) -0.0423(5) 0.9265(2)
O36? O 0.7646(7) 0.0086(16) 0.9770(5)
O37? O 0.7656(7) -0.1498(14) 0.9387(8)
C25? C 1.0220(9) 0.0855(12) 1.0238(7)
C26? C 1.0961(7) 0.1785(15) 1.0802(8)
H24? H 1.12029 0.12785 1.08842
C27? C 1.0275(9) 0.0010(12) 1.0518(8)
H25? H 1.04562 0.00105 1.08707
N9? N 1.0457(6) 0.1682(11) 1.0502(7)
C28? C 1.1080(8) 0.2681(14) 1.0969(9)
H26? H 1.14049 0.29420 1.11578
C29? C 1.0223(8) 0.2518(13) 1.0530(9)
H27? H 0.98636 0.26644 1.03939
N10? N 1.0606(7) 0.3103(17) 1.0790(9)
H28? H 1.05539 0.37026 1.08400
C30? C 0.9939(8) 0.0834(14) 0.9722(7)
H29? H 0.98908 0.14029 0.95306
O38? O 0.9000(12) 0.220(2) 1.0195(10)
H30? H 0.93025 0.23691 1.03909
H31? H 0.89072 0.25756 0.99343
O39? O 0.8153(8) 0.1458(12) 1.0348(6)
O40? O 0.7725(12) -0.1872(19) 0.7875(14)
Mo1A Mo 0.86352(3) 0.23586(5) 1.19016(3)
Mo2A Mo 0.81248(3) 0.07411(5) 1.17723(3)
Mo3A Mo 0.67459(3) 0.07613(6) 1.14609(3)
Mo4A Mo 0.62447(3) 0.23822(6) 1.13661(3)
Mo5A Mo 0.79573(3) 0.45355(6) 1.17621(3)
Mo6A Mo 0.69306(3) 0.45657(6) 1.15444(3)
P1A P 0.88353(9) 0.40776(18) 1.11229(9)
P2A P 0.73947(9) 0.25689(17) 1.10445(8)
O1A O 0.8101(2) 0.1859(4) 1.2220(2)
O2A O 0.6845(2) 0.1877(4) 1.1938(2)
O3A O 0.7476(2) 0.3880(4) 1.2094(2)
O4A O 0.8491(2) 0.1414(4) 1.1351(2)
O5A O 0.8990(2) 0.3162(5) 1.1457(2)
O6A O 0.6295(2) 0.1426(5) 1.0866(2)
O7A O 0.7462(2) 0.0231(4) 1.1971(2)
O8A O 0.8581(3) 0.0033(5) 1.2170(3)
O9A O 0.8557(2) 0.3674(5) 1.2242(2)
O10A O 0.7405(3) 0.4900(5) 1.1140(3)
O11A O 0.6380(2) 0.3703(5) 1.1765(2)
O12A O 0.7412(2) 0.1530(4) 1.1250(2)
O13A O 0.5824(3) 0.3191(6) 1.0741(2)
O14A O 0.6917(2) 0.3091(5) 1.1141(2)
O15A O 0.8525(3) 0.3766(6) 1.0564(3)
O16A O 0.6899(3) -0.0191(5) 1.0937(3)
P3A P 0.57876(13) 0.4280(3) 1.06302(11)
O17A O 0.9211(2) 0.2014(5) 1.2331(2)
O18A O 0.6340(3) 0.0038(5) 1.1670(3)
O19A O 0.7908(2) 0.3080(4) 1.1369(2)
O20A O 0.5725(3) 0.2067(6) 1.1567(3)
O21A O 0.6856(3) 0.5584(6) 1.1850(3)
O22A O 0.8489(3) 0.4743(5) 1.1342(3)
O23A O 0.9332(3) 0.4603(5) 1.1112(2)
O24A O 0.7367(3) 0.2570(6) 1.0481(2)
O25A O 0.8113(3) 0.5548(5) 1.2115(3)
P4A P 0.7398(2) -0.0839(4) 1.0964(2)
O26A O 0.6320(3) 0.4791(6) 1.0888(3)
O27A O 0.7900(3) -0.0228(5) 1.1172(3)
O28A O 0.5630(5) 0.4447(10) 1.0056(4)
O29A O 0.5360(3) 0.4708(8) 1.0861(3)
Co2A Co 0.53200(7) 0.4792(2) 0.94128(7)
Co3A Co 0.70796(10) 0.2931(2) 0.97798(10)
O31A O 0.7370(7) -0.1074(14) 1.0402(7)
N1A N 0.5683(6) -0.3693(13) 0.9628(6)
C1A C 0.5428(8) -0.2887(12) 0.9539(7)
H1A H 0.50598 -0.28592 0.94044
C2A C 0.6225(8) -0.2417(16) 0.9788(10)
H2A H 0.65318 -0.20455 0.98504
N2A N 0.4950(6) 0.1694(13) 0.9404(7)
N3A N 0.5722(6) -0.2110(12) 0.9651(7)
C3A C 0.5248(9) 0.2480(15) 0.9481(10)
H3A H 0.56158 0.24739 0.96160
C4A C 0.6191(8) -0.3387(16) 0.9815(9)
H4A H 0.64810 -0.37935 0.99456
C5A C 0.5026(6) -0.0926(19) 0.9282(7)
H5A H 0.48073 -0.14225 0.91090
C6A C 0.5537(6) -0.1140(12) 0.9589(7)
C7A C 0.5854(8) -0.0404(16) 0.9853(8)
H6A H 0.61970 -0.05343 1.00617
C8A C 0.4440(8) 0.2008(18) 0.9199(9)
H7A H 0.41355 0.16294 0.91152
C9A C 0.4839(10) -0.0009(18) 0.9229(10)
H8A H 0.44959 0.01173 0.90192
C10A C 0.5157(8) 0.0743(17) 0.9487(8)
C11A C 0.4462(12) 0.298(2) 0.9141(12)
H9A H 0.41742 0.33765 0.89827
N4A N 0.4961(7) 0.3283(14) 0.9346(7)
C12A C 0.5661(7) 0.0532(17) 0.9807(8)
H10A H 0.58726 0.10243 0.99937
O32A O 0.7400(6) -0.1795(10) 1.1235(7)
H11A H 0.721(5) -0.174(3) 1.144(5)
O33A O 0.6681(6) 0.1910(15) 0.9613(6)
Co1A Co 0.75000 0.25000 1.25000
O1F O 0.8101(2) 0.3141(4) 0.7220(2)
O2F O 0.6845(2) 0.3123(4) 0.6938(2)
O3F O 0.7476(2) 0.1120(4) 0.7094(2)
O29D O 1.0360(3) 0.5292(8) 1.0861(3)
O29E O 0.4640(3) 0.5292(8) 0.9139(3)
Co2* Co 0.96800(7) -0.5208(2) 1.05872(7)
Co2A* Co 0.53200(7) -0.5208(2) 0.94128(7)
Co2D Co 1.03200(7) 0.5208(2) 0.94128(7)
Co2E Co 0.46800(7) 0.5208(2) 1.05872(7)
N1* N 0.9317(6) 0.6307(13) 1.0372(6)
N1A* N 0.5683(6) 0.6307(13) 0.9628(6)
#END
