
#######################################################################
#
#                 Cambridge Crystallographic Data Centre
#                                CCDC
#
#######################################################################
#
# If this CIF has been generated from an entry in the Cambridge
# Structural Database, then it will include bibliographic, chemical,
# crystal, experimental, refinement or atomic coordinate data resulting
# from the CCDC's data processing and validation procedures.
#
#######################################################################

data_CSD_CIF_DUQKIM
_audit_creation_date 2020-05-17
_audit_creation_method CSD-ConQuest-V1
_database_code_CSD DUQKIM
_database_code_depnum_ccdc_archive 'CCDC 2004307'
_chemical_formula_sum 'C6.75 H9.75 N1.25 O8.25 Sc1'
_chemical_formula_moiety
;
(C4 O8 Sc1 1-)n,n(C2 H8 N1 1+),0.25n(C3 H7 N1 O1)
;
_journal_coden_Cambridge 1078
_journal_year 2020
_journal_name_full 'CSD Communication(Private Communication) '
loop_
_publ_author_name
"T.Stein"
"F.Hoffmann"
"M.Froba"
_chemical_name_systematic
;
catena-(dimethylammonium bis(\m-oxalato)-scandium(iii) dimethylformamide 
unknown solvate)
;
_cell_volume   1072.342
_exptl_crystal_colour 'colorless'
_exptl_crystal_description 'irregular'
_exptl_crystal_preparation 'side-product of solvothermal MOF synthesis attempt; DMF/THF/H2O, HCl (aq), 85 C, 14 days;'
_diffrn_ambient_temperature 99.9
_diffrn_special_details
;
twin

;
_refine_special_details
;
The SQUEEZE/PLATON program was used to model the cations, the 
dimethylformamide solvent and some unidentified solvent in the pores of the 
structure.
;
#These two values have been output from a single CSD field.
_refine_ls_R_factor_gt 0.0434
_refine_ls_wR_factor_gt 0.0434
_symmetry_cell_setting monoclinic
_symmetry_space_group_name_H-M 'I 2/a'
_symmetry_Int_Tables_number 15
loop_
_symmetry_equiv_pos_site_id
_symmetry_equiv_pos_as_xyz
1 x,y,z
2 1/2-x,y,-z
3 1/2+x,1/2+y,1/2+z
4 -x,1/2+y,1/2-z
5 -x,-y,-z
6 -1/2+x,-y,z
7 -1/2-x,-1/2-y,-1/2-z
8 x,-1/2-y,-1/2+z
_cell_length_a 8.1898(8)
_cell_length_b 16.5549(13)
_cell_length_c 8.2132(10)
_cell_angle_alpha 90
_cell_angle_beta 105.637(11)
_cell_angle_gamma 90
_cell_formula_units_Z 4
loop_
_atom_type_symbol
_atom_type_radius_bond
C 0.68
O 0.68
Sc 1.70
loop_
_atom_site_label
_atom_site_type_symbol
_atom_site_fract_x
_atom_site_fract_y
_atom_site_fract_z
Sc1 Sc 0.75000 0.62431(6) 0.50000
O1 O 0.4973(4) 0.58095(16) 0.3658(4)
O2 O 0.3049(3) 0.48451(16) 0.3563(4)
O3 O 0.6034(4) 0.76902(17) 0.8622(4)
O4 O 0.6167(4) 0.66879(17) 0.6839(4)
C1 C 0.4435(5) 0.5184(2) 0.4193(6)
C2 C 0.6688(6) 0.7322(3) 0.7627(6)
O1D O 0.5027(4) 0.41905(16) 0.6342(4)
O2D O 0.6951(3) 0.51549(16) 0.6437(4)
C1D C 0.5565(5) 0.4816(2) 0.5807(6)
O3F O 0.8966(4) 0.73098(17) 0.6378(4)
O4F O 0.8833(4) 0.83121(17) 0.8161(4)
C2F C 0.8312(6) 0.7678(3) 0.7373(6)
Sc1D Sc 0.25000 0.37569(6) 0.50000
Sc1F Sc 0.75000 0.87569(6) 1.00000
O1A O 1.0027(4) 0.58095(16) 0.6342(4)
O2E O 0.8049(3) 0.51549(16) 0.3563(4)
O3G O 0.6034(4) 0.73098(17) 0.3622(4)
O4A O 0.8833(4) 0.66879(17) 0.3161(4)
#END
