
#######################################################################
#
#                 Cambridge Crystallographic Data Centre
#                                CCDC
#
#######################################################################
#
# If this CIF has been generated from an entry in the Cambridge
# Structural Database, then it will include bibliographic, chemical,
# crystal, experimental, refinement or atomic coordinate data resulting
# from the CCDC's data processing and validation procedures.
#
#######################################################################

data_CSD_CIF_DUQLIN
_audit_creation_date 2020-05-18
_audit_creation_method CSD-ConQuest-V1
_database_code_CSD DUQLIN
_database_code_depnum_ccdc_archive 'CCDC 1982855'
_chemical_formula_sum 'C24 H28 Ag5 I7 Mn1 N4 O2 S2'
_chemical_formula_moiety
;
(C24 H28 Mn1 N4 O2 S2 2+)n,n(Ag5 I7 2-)
;
_journal_coden_Cambridge 155
_journal_volume 510
_journal_year 2020
_journal_page_first 119762
_journal_name_full 'Inorg.Chim.Acta '
loop_
_publ_author_name
"Wei Zheng"
"Yan Gao"
"NianNian Chen"
"Bing Wu"
"Dingxian Jia"
"Shengxian Zhao"
_chemical_name_systematic
;
catena-(bis(2,2'-bipyridine)-bis(dimethyl sulfoxide)-manganese(ii) 
heptakis(\m-iodo)-penta-silver)
;
_cell_volume   4515.049
_exptl_crystal_colour 'yellow'
_exptl_crystal_density_diffrn 2.87
_exptl_crystal_description 'block'
_diffrn_ambient_temperature 293
_diffrn_special_details
;
twin

;
_refine_special_details
;
C21A,C22A,S1A and C21B,C22B,S1B disordered over two sites with occupancies 
0.5:0.5; C23A,C24A and C23B,C24B disordered over two sites with occupancies 
0.5:0.5.
;
#These two values have been output from a single CSD field.
_refine_ls_R_factor_gt 0.0654
_refine_ls_wR_factor_gt 0.0654
_symmetry_cell_setting orthorhombic
_symmetry_space_group_name_H-M 'P 21 21 21'
_symmetry_Int_Tables_number 19
loop_
_symmetry_equiv_pos_site_id
_symmetry_equiv_pos_as_xyz
1 x,y,z
2 1/2+x,1/2-y,-z
3 -x,1/2+y,1/2-z
4 1/2-x,-y,1/2+z
_cell_length_a 13.739(3)
_cell_length_b 14.248(3)
_cell_length_c 23.065(4)
_cell_angle_alpha 90
_cell_angle_beta 90
_cell_angle_gamma 90
_cell_formula_units_Z 4
loop_
_atom_type_symbol
_atom_type_radius_bond
C 0.68
H 0.23
Ag 1.45
I 1.40
Mn 1.61
N 0.68
O 0.68
S 1.02
loop_
_atom_site_label
_atom_site_type_symbol
_atom_site_fract_x
_atom_site_fract_y
_atom_site_fract_z
Ag1 Ag 0.49527(16) 0.03528(12) 0.74465(8)
Ag2 Ag 0.63310(18) 0.16936(17) 0.6616(1)
Ag3 Ag 0.37948(19) 0.16304(18) 0.64974(11)
Ag4 Ag 0.38257(19) 0.37260(18) 0.69285(11)
Ag5 Ag 0.63813(18) 0.38160(17) 0.70096(11)
I1 I 0.50267(14) 0.24035(8) 0.75741(6)
I2 I 0.67782(11) -0.01958(11) 0.70237(7)
I3 I 0.31533(11) -0.01255(12) 0.69522(7)
I4 I 0.48622(13) -0.00852(10) 0.86935(6)
I5 I 0.51786(12) 0.14822(10) 0.56282(7)
I6 I 0.22742(14) 0.29011(14) 0.63567(9)
I7 I 0.79733(13) 0.28548(14) 0.66074(8)
Mn1 Mn 0.5147(3) 0.6447(2) 0.40577(13)
N1 N 0.4322(13) 0.5243(14) 0.4434(8)
N2 N 0.6274(12) 0.5495(12) 0.4483(8)
N3 N 0.5103(14) 0.7365(11) 0.4845(6)
N4 N 0.6185(13) 0.7648(13) 0.3898(8)
O1 O 0.5376(15) 0.5927(12) 0.3197(6)
O2 O 0.3826(12) 0.7134(13) 0.3810(9)
S1 S 0.5455(11) 0.5237(12) 0.2710(7)
S2 S 0.3503(9) 0.8031(7) 0.3591(7)
C1 C 0.3413(19) 0.5134(18) 0.4363(11)
H1 H 0.30750 0.55880 0.41540
C2 C 0.291(2) 0.439(2) 0.4573(13)
H2 H 0.22370 0.43740 0.45410
C3 C 0.336(2) 0.373(2) 0.4811(13)
H3 H 0.30090 0.32320 0.49620
C4 C 0.441(2) 0.374(2) 0.4855(12)
H4 H 0.47710 0.32410 0.49980
C5 C 0.4807(17) 0.4546(14) 0.4667(9)
C6 C 0.589(2) 0.4694(17) 0.4692(10)
C7 C 0.653(2) 0.405(2) 0.4986(12)
H5 H 0.62860 0.35130 0.51630
C8 C 0.747(2) 0.424(2) 0.5001(11)
H6 H 0.78820 0.37930 0.51620
C9 C 0.785(2) 0.504(2) 0.4793(11)
H7 H 0.85110 0.51730 0.48320
C10 C 0.7228(19) 0.563(2) 0.4523(11)
H8 H 0.74850 0.61750 0.43560
C11 C 0.457(2) 0.7163(17) 0.5324(10)
H9 H 0.42380 0.65960 0.53370
C12 C 0.451(2) 0.776(2) 0.5794(11)
H10 H 0.41130 0.76060 0.61080
C13 C 0.502(3) 0.858(2) 0.5795(12)
H11 H 0.50130 0.89840 0.61130
C14 C 0.558(2) 0.8802(19) 0.5286(14)
H12 H 0.58910 0.93770 0.52540
C15 C 0.5638(15) 0.8161(15) 0.4847(9)
C16 C 0.6208(16) 0.8314(15) 0.4307(10)
C17 C 0.674(2) 0.9101(17) 0.4221(12)
H13 H 0.67240 0.95910 0.44870
C18 C 0.732(2) 0.916(2) 0.3701(14)
H14 H 0.77270 0.96680 0.36430
C19 C 0.727(2) 0.848(2) 0.3304(15)
H15 H 0.76270 0.85290 0.29610
C20 C 0.6706(19) 0.7733(18) 0.3408(10)
H16 H 0.66730 0.72580 0.31330
C21 C 0.456(3) 0.573(3) 0.226(2)
C22 C 0.472(4) 0.432(3) 0.302(2)
C23 C 0.314(5) 0.801(7) 0.2856(14)
C24 C 0.232(3) 0.795(6) 0.391(2)
S3? S 0.4619(10) 0.5274(12) 0.2892(7)
C25? C 0.470(4) 0.534(4) 0.2142(12)
C26? C 0.524(4) 0.418(3) 0.299(2)
C27? C 0.248(5) 0.787(6) 0.315(4)
C28? C 0.319(5) 0.906(4) 0.396(4)
Ag4B Ag 0.61743(19) -0.12740(18) 0.80715(11)
Ag5B Ag 0.36187(18) -0.11840(17) 0.79904(11)
I2B I 0.32218(11) 0.48042(11) 0.79763(7)
I3B I 0.68467(11) 0.48745(12) 0.80478(7)
I4B I 0.51378(13) 0.49148(10) 0.63065(6)
#END
