
#######################################################################
#
#                 Cambridge Crystallographic Data Centre
#                                CCDC
#
#######################################################################
#
# If this CIF has been generated from an entry in the Cambridge
# Structural Database, then it will include bibliographic, chemical,
# crystal, experimental, refinement or atomic coordinate data resulting
# from the CCDC's data processing and validation procedures.
#
#######################################################################

data_CSD_CIF_DUQMEK
_audit_creation_date 2020-05-18
_audit_creation_method CSD-ConQuest-V1
_database_code_CSD DUQMEK
_database_code_depnum_ccdc_archive 'CCDC 1982859'
_chemical_formula_sum 'C54 H88 Ag10 I14 N14 O12 Zn2'
_chemical_formula_moiety
;
(C42 H60 N10 O8 Zn2 4+)n,2n(Ag5 I7 2-),4n(C3 H7 N1 O1)
;
_journal_coden_Cambridge 155
_journal_volume 510
_journal_year 2020
_journal_page_first 119762
_journal_name_full 'Inorg.Chim.Acta '
loop_
_publ_author_name
"Wei Zheng"
"Yan Gao"
"NianNian Chen"
"Bing Wu"
"Dingxian Jia"
"Shengxian Zhao"
_chemical_name_systematic
;
catena-((\m-4,4'-bipyridine)-tetra-aqua-bis(4,4'-bipyridine)-tetrakis(dimethyl
formamide)-di-zinc(ii) bis(heptakis(\m-iodo)-penta-silver(i)) 
dimethylformamide solvate)
;
_cell_volume   5143.426
_exptl_crystal_colour 'colorless'
_exptl_crystal_density_diffrn 2.655
_diffrn_ambient_temperature 296
_refine_special_details
;
Some of the solvent molecules are disordered.

;
#These two values have been output from a single CSD field.
_refine_ls_R_factor_gt 0.0698
_refine_ls_wR_factor_gt 0.0698
_symmetry_cell_setting monoclinic
_symmetry_space_group_name_H-M 'P 21/n'
_symmetry_Int_Tables_number 14
loop_
_symmetry_equiv_pos_site_id
_symmetry_equiv_pos_as_xyz
1 x,y,z
2 1/2-x,1/2+y,1/2-z
3 -x,-y,-z
4 -1/2+x,-1/2-y,-1/2+z
_cell_length_a 8.3291(7)
_cell_length_b 39.064(3)
_cell_length_c 16.2174(15)
_cell_angle_alpha 90
_cell_angle_beta 102.901(2)
_cell_angle_gamma 90
_cell_formula_units_Z 2
loop_
_atom_type_symbol
_atom_type_radius_bond
C 0.68
H 0.23
Ag 1.45
I 1.40
N 0.68
O 0.68
Zn 1.22
loop_
_atom_site_label
_atom_site_type_symbol
_atom_site_fract_x
_atom_site_fract_y
_atom_site_fract_z
Ag1 Ag 1.14630(15) 0.91224(4) 0.78190(9)
Ag2 Ag 0.75866(16) 0.91337(4) 0.77926(8)
Ag3 Ag 0.78440(17) 0.82805(4) 0.79670(9)
Ag4 Ag 0.47178(14) 0.87331(3) 0.81575(8)
Ag5 Ag 0.17224(17) 0.83013(4) 0.80362(10)
I1 I 0.96174(14) 0.97111(3) 0.79363(8)
I2 I 0.91069(12) 0.86741(3) 0.66925(6)
I3 I 1.41834(12) 0.93187(3) 0.70817(7)
I4 I 0.78339(11) 0.87500(3) 0.93167(6)
I5 I 0.44550(12) 0.80884(3) 0.73037(6)
I6 I 0.26930(12) 0.87806(3) 0.93876(6)
I7 I 0.00493(14) 0.77376(3) 0.84738(8)
Zn1 Zn 0.7986(2) 0.88200(4) 0.29642(10)
N1 N 0.7056(14) 0.8401(3) 0.2165(7)
N2 N 0.5531(16) 0.7009(3) -0.0696(8)
N3 N 0.8727(16) 0.9259(3) 0.3737(7)
N4 N 0.993(3) 0.9370(4) 0.1069(12)
N5 N 0.5318(16) 0.8511(3) 0.4750(7)
O1 O 0.8999(17) 0.9050(3) 0.2029(7)
O2 O 0.7194(13) 0.8563(3) 0.3941(6)
O3 O 0.5535(19) 0.9064(3) 0.2556(9)
H1 H 0.47060 0.88880 0.23870
H2 H 0.55350 0.92150 0.20820
O4 O 1.0292(12) 0.8594(2) 0.3406(6)
H3 H 1.01710 0.83920 0.35390
H4 H 1.08130 0.85940 0.30180
C1 C 0.6316(17) 0.8446(3) 0.1338(8)
H5 H 0.60480 0.86680 0.11460
C2 C 0.5941(18) 0.8180(4) 0.0768(9)
H6 H 0.54490 0.82250 0.02060
C3 C 0.6289(18) 0.7850(4) 0.1028(8)
C4 C 0.7022(17) 0.7798(4) 0.1877(8)
H7 H 0.72930 0.75780 0.20790
C5 C 0.7350(18) 0.8078(3) 0.2427(9)
H8 H 0.77920 0.80370 0.29980
C6 C 0.5962(16) 0.7563(3) 0.0448(8)
C7 C 0.6169(19) 0.7603(3) -0.0391(9)
H9 H 0.64750 0.78130 -0.05740
C8 C 0.591(2) 0.7326(4) -0.0935(9)
H10 H 0.60070 0.73590 -0.14910
C9 C 0.556(2) 0.7233(4) 0.0665(10)
H11 H 0.54260 0.71910 0.12110
C10 C 0.535(2) 0.6967(4) 0.0088(8)
H12 H 0.50650 0.67520 0.02560
C11 C 0.844(2) 0.9578(4) 0.3441(9)
H13 H 0.78860 0.96040 0.28790
C12 C 0.890(2) 0.9873(4) 0.3915(9)
H14 H 0.86340 1.00870 0.36740
C13 C 0.9756(18) 0.9846(3) 0.4736(9)
C14 C 1.007(2) 0.9516(4) 0.5047(10)
H15 H 1.06350 0.94840 0.56050
C15 C 0.958(2) 0.9236(4) 0.4543(9)
H16 H 0.98430 0.90190 0.47720
C16 C 0.881(3) 0.9217(5) 0.1419(14)
H17 H 0.77260 0.92480 0.11340
C17 C 1.165(3) 0.9361(10) 0.154(2)
H18 H 1.18710 0.95580 0.19000
H19 H 1.23620 0.93610 0.11510
H20 H 1.18320 0.91570 0.18790
C18 C 0.959(3) 0.9560(5) 0.0336(12)
H21 H 0.95750 0.94120 -0.01390
H22 H 1.04310 0.97310 0.03610
H23 H 0.85410 0.96690 0.02760
C19 C 0.621(2) 0.8688(4) 0.4345(10)
H24 H 0.61240 0.89250 0.43550
C20 C 0.420(3) 0.8673(6) 0.5212(11)
H25 H 0.46630 0.86580 0.58080
H26 H 0.31570 0.85570 0.50810
H27 H 0.40510 0.89090 0.50500
C21 C 0.549(3) 0.8151(5) 0.4846(16)
H28 H 0.46310 0.80400 0.44390
H29 H 0.54010 0.80880 0.54060
H30 H 0.65410 0.80820 0.47570
N6 N 0.1900(18) 0.8063(4) 0.1578(10)
O5 O 0.2907(19) 0.8495(5) 0.2525(9)
C22 C 0.294(3) 0.8199(7) 0.2272(14)
H31 H 0.37510 0.80550 0.25790
C23 C 0.060(2) 0.8266(5) 0.1070(13)
H32 H -0.04330 0.82060 0.12040
H33 H 0.05400 0.82210 0.04810
H34 H 0.08180 0.85040 0.11860
C24 C 0.208(3) 0.7716(5) 0.1328(17)
H35 H 0.23030 0.77120 0.07730
H36 H 0.10750 0.75930 0.13210
H37 H 0.29690 0.76100 0.17220
C25? C 1.158(3) 0.9204(12) 0.123(3)
H38? H 1.20640 0.92070 0.18210
H39? H 1.22710 0.93270 0.09280
H40? H 1.14590 0.89720 0.10290
O6? O 0.567(4) 0.9688(13) 0.506(3)
N7? N 0.380(4) 0.9730(12) 0.370(2)
C26? C 0.449(5) 0.9834(12) 0.449(3)
C27? C 0.452(6) 0.9803(16) 0.301(3)
C28? C 0.262(5) 0.9451(13) 0.359(3)
O7? O 0.536(5) 0.9542(9) 0.143(2)
N8? N 0.547(6) 0.9907(13) 0.033(2)
C29? C 0.565(7) 0.9837(11) 0.116(2)
C30? C 0.467(4) 0.9723(8) -0.0330(18)
Ag1* Ag 0.14630(15) 0.91224(4) 0.78190(9)
Ag2* Ag 1.75866(16) 0.91337(4) 0.77926(8)
Ag3* Ag -0.21560(17) 0.82805(4) 0.79670(9)
Ag4* Ag 1.47178(14) 0.87331(3) 0.81575(8)
Ag5* Ag 1.17224(17) 0.83013(4) 0.80362(10)
I2* I -0.08931(12) 0.86741(3) 0.66925(6)
I3* I 0.41834(12) 0.93187(3) 0.70817(7)
I6* I 1.26930(12) 0.87806(3) 0.93876(6)
I7* I 1.00493(14) 0.77376(3) 0.84738(8)
N3B N 1.1273(16) 1.0741(3) 0.6263(7)
C11B C 1.156(2) 1.0422(4) 0.6559(9)
H13B H 1.21140 1.03960 0.71210
C12B C 1.110(2) 1.0127(4) 0.6085(9)
H14B H 1.13660 0.99130 0.63260
C13B C 1.0244(18) 1.0154(3) 0.5264(9)
C14B C 0.993(2) 1.0484(4) 0.4953(10)
H15B H 0.93650 1.05160 0.43950
C15B C 1.042(2) 1.0764(4) 0.5457(9)
H16B H 1.01570 1.09810 0.52280
Zn1B Zn 1.2014(2) 1.11800(4) 0.70358(10)
N1B N 1.2944(14) 1.1599(3) 0.7835(7)
N2B N 1.4469(16) 1.2991(3) 1.0696(8)
N4B N 1.007(3) 1.0630(4) 0.8931(12)
N5B N 1.4682(16) 1.1489(3) 0.5250(7)
O1B O 1.1001(17) 1.0950(3) 0.7971(7)
O2B O 1.2806(13) 1.1437(3) 0.6059(6)
O3B O 1.4465(19) 1.0936(3) 0.7444(9)
H1B H 1.52940 1.11120 0.76130
H2B H 1.44650 1.07850 0.79180
O4B O 0.9708(12) 1.1406(2) 0.6594(6)
H3B H 0.98290 1.16080 0.64610
H4B H 0.91870 1.14060 0.69820
C1B C 1.3684(17) 1.1554(3) 0.8662(8)
H5B H 1.39520 1.13320 0.88540
C2B C 1.4059(18) 1.1820(4) 0.9232(9)
H6B H 1.45510 1.17750 0.97940
C3B C 1.3711(18) 1.2150(4) 0.8972(8)
C4B C 1.2978(17) 1.2202(4) 0.8123(8)
H7B H 1.27070 1.24220 0.79210
C5B C 1.2650(18) 1.1922(3) 0.7573(9)
H8B H 1.22080 1.19630 0.70020
C6B C 1.4038(16) 1.2437(3) 0.9552(8)
C7B C 1.3831(19) 1.2397(3) 1.0391(9)
H9B H 1.35250 1.21870 1.05740
C8B C 1.409(2) 1.2674(4) 1.0935(9)
H10B H 1.39930 1.26410 1.14910
C9B C 1.444(2) 1.2767(4) 0.9335(10)
H11B H 1.45740 1.28090 0.87890
C10B C 1.465(2) 1.3033(4) 0.9912(8)
H12B H 1.49350 1.32480 0.97440
C16B C 1.119(3) 1.0783(5) 0.8581(14)
H17B H 1.22740 1.07520 0.88660
C17B C 0.835(3) 1.0639(10) 0.846(2)
H18B H 0.81290 1.04420 0.81000
H19B H 0.76380 1.06390 0.88490
H20B H 0.81680 1.08430 0.81210
C18B C 1.041(3) 1.0440(5) 0.9664(12)
H21B H 1.04250 1.05880 1.01390
H22B H 0.95690 1.02690 0.96390
H23B H 1.14590 1.03310 0.97240
C19B C 1.379(2) 1.1312(4) 0.5655(10)
H24B H 1.38760 1.10750 0.56450
C20B C 1.580(3) 1.1327(6) 0.4788(11)
H25B H 1.53370 1.13420 0.41920
H26B H 1.68430 1.14430 0.49190
H27B H 1.59490 1.10910 0.49500
C21B C 1.451(3) 1.1849(5) 0.5154(16)
H28B H 1.53690 1.19600 0.55610
H29B H 1.45990 1.19120 0.45940
H30B H 1.34590 1.19180 0.52430
#END
