
#######################################################################
#
#                 Cambridge Crystallographic Data Centre
#                                CCDC
#
#######################################################################
#
# If this CIF has been generated from an entry in the Cambridge
# Structural Database, then it will include bibliographic, chemical,
# crystal, experimental, refinement or atomic coordinate data resulting
# from the CCDC's data processing and validation procedures.
#
#######################################################################

data_CSD_CIF_DUQSAK
_audit_creation_date 2010-12-02
_audit_creation_method CSD-ConQuest-V1
_database_code_CSD DUQSAK
_database_code_depnum_ccdc_archive 'CCDC 749747'
_chemical_formula_sum 'C84 H92 Cd2 N4 O22'
_chemical_formula_moiety
;
(C6 H16 N2 2+)2n,4n(C2 H6 O1),2n(H2 O1),n(C64 H32 Cd2 O16 4-)
;
_journal_coden_Cambridge 1350
_journal_volume 12
_journal_year 2010
_journal_page_first 1833
_journal_name_full 'CrystEngComm '
loop_
_publ_author_name
"Chun-Sen Liu"
"Jun-Jie Wang"
"Ze Chang"
"Li-Fen Yan"
"Xian-He Bu"
_chemical_name_systematic
;
catena-(bis(1,5-Diazoniacyclo-octane) 
(\m~2~-anthracene-9,10-dicarboxylato-O,O',O'',O''')-bis(\m~2~-anthracene-9,10-
dicarboxylato-O,O',O'')-(\m~2~-anthracene-9,10-dicarboxylato-O,O')-di-cadmium 
ethanol solvate dihydrate)
;
_cell_volume   7898.760
_exptl_crystal_colour 'yellow'
_exptl_crystal_density_diffrn 1.458
_exptl_crystal_description 'block'
_diffrn_ambient_temperature 294
_refine_special_details
;
The carbon atoms of one of the ethanol solvent molecules are disordered over 
two sites with occupancies 0.540:0.460.
;
#These two values have been output from a single CSD field.
_refine_ls_R_factor_gt 0.0647
_refine_ls_wR_factor_gt 0.0647
_symmetry_cell_setting orthorhombic
_symmetry_space_group_name_H-M 'P b c a'
_symmetry_Int_Tables_number 61
loop_
_symmetry_equiv_pos_site_id
_symmetry_equiv_pos_as_xyz
1 x,y,z
2 1/2-x,-y,1/2+z
3 1/2+x,1/2-y,-z
4 -x,1/2+y,1/2-z
5 -x,-y,-z
6 -1/2+x,y,-1/2-z
7 -1/2-x,-1/2+y,z
8 x,-1/2-y,-1/2+z
_cell_length_a 18.560(2)
_cell_length_b 20.499(2)
_cell_length_c 20.761(3)
_cell_angle_alpha 90
_cell_angle_beta 90
_cell_angle_gamma 90
_cell_formula_units_Z 4
loop_
_atom_type_symbol
_atom_type_radius_bond
C 0.68
H 0.23
Cd 1.51
N 0.68
O 0.68
loop_
_atom_site_label
_atom_site_type_symbol
_atom_site_fract_x
_atom_site_fract_y
_atom_site_fract_z
Cd1 Cd 0.619518(18) 0.029885(17) 0.750063(16)
O1 O 0.72243(19) 0.09773(16) 0.75424(17)
O2 O 0.61723(18) 0.1471(2) 0.74819(18)
O3 O 0.8976(2) 0.40035(19) 0.7374(2)
O4 O 0.7962(2) 0.44921(18) 0.76030(19)
O5 O 0.6239(2) 0.0309(2) 0.86632(19)
O6 O 0.5207(2) 0.0086(2) 0.82206(17)
O7 O 0.53356(19) 0.02455(17) 0.67139(16)
O8 O 0.6402(2) 0.0268(2) 0.62649(19)
O9 O 0.7359(3) 0.0565(3) 0.9463(2)
H1 H 0.746(5) 0.031(3) 0.978(3)
H2 H 0.6929(19) 0.056(4) 0.931(4)
O10 O 0.7520(3) 0.0260(4) 0.5438(3)
H3 H 0.712(3) 0.025(6) 0.565(5)
O11 O 0.5406(3) 0.2656(2) 0.7369(3)
H4 H 0.57000 0.23410 0.74100
C1 C 0.6853(3) 0.1481(2) 0.7518(2)
C2 C 0.7222(3) 0.2135(2) 0.7509(2)
C3 C 0.7239(3) 0.2505(2) 0.6940(2)
C4 C 0.6938(3) 0.2263(3) 0.6349(3)
H5 H 0.67420 0.18460 0.63330
C5 C 0.6939(3) 0.2645(3) 0.5812(3)
H6 H 0.67480 0.24820 0.54300
C6 C 0.7229(3) 0.3288(3) 0.5826(3)
H7 H 0.71990 0.35510 0.54630
C7 C 0.7545(3) 0.3515(3) 0.6367(2)
H8 H 0.77400 0.39330 0.63680
C8 C 0.7586(3) 0.3126(2) 0.6938(2)
C9 C 0.7935(3) 0.3347(2) 0.7500(2)
C10 C 0.7906(3) 0.2980(2) 0.8071(2)
C11 C 0.8227(3) 0.3215(3) 0.8657(2)
H9 H 0.84690 0.36130 0.86590
C12 C 0.8180(3) 0.2861(3) 0.9205(3)
H10 H 0.83790 0.30200 0.95850
C13 C 0.7826(3) 0.2247(3) 0.9202(3)
H11 H 0.78090 0.20020 0.95780
C14 C 0.7516(3) 0.2012(3) 0.8665(2)
H12 H 0.72800 0.16110 0.86780
C15 C 0.7542(3) 0.2366(2) 0.8081(2)
C16 C 0.8326(3) 0.3993(3) 0.7489(2)
C17 C 0.5588(3) 0.0168(3) 0.8701(2)
C18 C 0.5266(3) 0.0080(3) 0.9369(2)
C19 C 0.5011(3) -0.0534(3) 0.9562(2)
C20 C 0.5011(3) -0.1088(3) 0.9146(3)
H13 H 0.51790 -0.10410 0.87270
C21 C 0.4776(3) -0.1676(3) 0.9339(3)
H14 H 0.47670 -0.20240 0.90520
C22 C 0.4542(3) -0.1764(3) 0.9984(3)
H15 H 0.44000 -0.21760 1.01220
C23 C 0.4521(3) -0.1254(3) 1.0405(3)
H16 H 0.43590 -0.13200 1.08240
C24 C 0.5254(3) 0.0621(3) 0.9791(2)
C25 C 0.5739(3) 0.0220(2) 0.6232(2)
C26 C 0.5368(3) 0.0111(3) 0.5588(2)
C27 C 0.5409(3) -0.0506(2) 0.5289(2)
C28 C 0.5801(3) -0.1033(3) 0.5569(2)
H17 H 0.60410 -0.09700 0.59580
C29 C 0.5828(3) -0.1624(3) 0.5275(3)
H18 H 0.60800 -0.19640 0.54680
C30 C 0.5476(3) -0.1730(3) 0.4678(3)
H19 H 0.55140 -0.21340 0.44770
C31 C 0.5087(3) -0.1250(3) 0.4399(2)
H20 H 0.48480 -0.13310 0.40130
C32 C 0.4965(3) 0.0617(2) 0.5311(2)
C33 C 0.8143(6) 0.0346(6) 0.5804(5)
H21 H 0.80530 0.01750 0.62330
H22 H 0.85240 0.00850 0.56150
C34 C 0.8391(7) 0.0982(5) 0.5865(9)
H23 H 0.84070 0.11830 0.54480
H24 H 0.88650 0.09780 0.60490
H25 H 0.80720 0.12230 0.61400
C35 C 0.4724(6) 0.2414(6) 0.7316(10)
H26 H 0.47200 0.21280 0.69440
H27 H 0.44110 0.27790 0.72150
C36 C 0.4353(11) 0.2022(13) 0.7897(14)
H28 H 0.46950 0.17240 0.80810
H29 H 0.39460 0.17830 0.77370
H30 H 0.41960 0.23240 0.82210
N1 N 0.8051(3) 0.9824(3) 0.8571(2)
H31 H 0.77630 0.96490 0.82680
H32 H 0.77740 1.00770 0.88250
N2 N 0.9446(3) 0.9002(3) 0.7630(2)
H33 H 0.94640 0.86060 0.74440
H34 H 0.98480 0.92180 0.75140
C37 C 0.8364(4) 0.9269(3) 0.8981(3)
H35 H 0.86950 0.94600 0.92900
H36 H 0.79720 0.90760 0.92240
C38 C 0.8754(4) 0.8727(4) 0.8637(4)
H37 H 0.88380 0.83760 0.89410
H38 H 0.84420 0.85590 0.83010
C39 C 0.9460(4) 0.8912(3) 0.8338(3)
H39 H 0.96250 0.93150 0.85340
H40 H 0.98110 0.85770 0.84400
C40 C 0.8738(3) 1.0075(4) 0.7544(3)
H41 H 0.83440 1.02550 0.72930
H42 H 0.91730 1.02970 0.74070
C41 C 0.8814(3) 0.9359(4) 0.7361(3)
H43 H 0.83810 0.91330 0.74970
H44 H 0.88360 0.93300 0.68950
C42 C 0.8606(3) 1.0252(4) 0.8242(3)
H45 H 0.90570 1.02200 0.84750
H46 H 0.84470 1.07020 0.82640
C43? C 0.4627(15) 0.2316(14) 0.7801(16)
C44? C 0.4403(8) 0.1853(8) 0.7272(8)
H47? H 0.47640 0.20900 0.81930
H48? H 0.42620 0.26410 0.78940
H49? H 0.48080 0.15930 0.71440
H50? H 0.42330 0.20990 0.69080
H51? H 0.40250 0.15750 0.74260
Cd1F Cd 0.880482(18) -0.470115(17) 0.750063(16)
Cd1F* Cd 0.880482(18) 0.529885(17) 0.750063(16)
Cd1D Cd 0.380482(18) -0.029885(17) 1.249937(16)
Cd1D* Cd 0.380482(18) -0.029885(17) 0.249937(16)
O1F O 0.77757(19) -0.40227(16) 0.75424(17)
O2F O 0.88277(18) -0.3529(2) 0.74819(18)
O3F O 0.6024(2) -0.09965(19) 0.7374(2)
O4F O 0.7038(2) -0.05079(18) 0.76030(19)
O4* O 0.7962(2) -0.55079(18) 0.76030(19)
O5D O 0.3761(2) -0.0309(2) 1.13368(19)
O5F O 0.8761(2) -0.4691(2) 0.86632(19)
O6D O 0.4793(2) -0.0086(2) 1.17794(17)
O6F O 0.9793(2) -0.4914(2) 0.82206(17)
O7D O 0.46644(19) -0.02455(17) 0.32861(16)
O7F O 0.96644(19) -0.47545(17) 0.67139(16)
O8D O 0.3598(2) -0.0268(2) 0.37351(19)
C1F C 0.8147(3) -0.3519(2) 0.7518(2)
C2F C 0.7778(3) -0.2865(2) 0.7509(2)
C3F C 0.7761(3) -0.2495(2) 0.6940(2)
C4F C 0.8062(3) -0.2737(3) 0.6349(3)
H5F H 0.82580 -0.31540 0.63330
C5F C 0.8061(3) -0.2355(3) 0.5812(3)
H6F H 0.82520 -0.25180 0.54300
C6F C 0.7771(3) -0.1712(3) 0.5826(3)
H7F H 0.78010 -0.14490 0.54630
C7F C 0.7455(3) -0.1485(3) 0.6367(2)
H8F H 0.72600 -0.10670 0.63680
C8F C 0.7414(3) -0.1874(2) 0.6938(2)
C9F C 0.7065(3) -0.1653(2) 0.7500(2)
C10F C 0.7094(3) -0.2020(2) 0.8071(2)
C11F C 0.6773(3) -0.1785(3) 0.8657(2)
H9F H 0.65310 -0.13870 0.86590
C12F C 0.6820(3) -0.2139(3) 0.9205(3)
H10F H 0.66210 -0.19800 0.95850
C13F C 0.7174(3) -0.2753(3) 0.9202(3)
H11F H 0.71910 -0.29980 0.95780
C14F C 0.7484(3) -0.2988(3) 0.8665(2)
H12F H 0.77200 -0.33890 0.86780
C15F C 0.7458(3) -0.2634(2) 0.8081(2)
C16F C 0.6674(3) -0.1007(3) 0.7489(2)
C17D C 0.4412(3) -0.0168(3) 1.1299(2)
C18D C 0.4734(3) -0.0080(3) 1.0631(2)
C19D C 0.4989(3) 0.0534(3) 1.0438(2)
C20D C 0.4989(3) 0.1088(3) 1.0854(3)
H13D H 0.48210 0.10410 1.12730
C21D C 0.5224(3) 0.1676(3) 1.0661(3)
H14D H 0.52330 0.20240 1.09480
C22D C 0.5458(3) 0.1764(3) 1.0016(3)
H15D H 0.56000 0.21760 0.98780
C23D C 0.5479(3) 0.1254(3) 0.9595(3)
H16D H 0.56410 0.13200 0.91760
C24D C 0.4746(3) -0.0621(3) 1.0209(2)
C25D C 0.4261(3) -0.0220(2) 0.3768(2)
C26D C 0.4632(3) -0.0111(3) 0.4412(2)
C27D C 0.4591(3) 0.0506(2) 0.4711(2)
C28D C 0.4199(3) 0.1033(3) 0.4431(2)
H17D H 0.39590 0.09700 0.40420
C29D C 0.4172(3) 0.1624(3) 0.4725(3)
H18D H 0.39200 0.19640 0.45320
C30D C 0.4524(3) 0.1730(3) 0.5322(3)
H19D H 0.44860 0.21340 0.55230
C31D C 0.4913(3) 0.1250(3) 0.5601(2)
H20D H 0.51520 0.13310 0.59870
C32D C 0.5035(3) -0.0617(2) 0.4689(2)
#END
