
#######################################################################
#
#                 Cambridge Crystallographic Data Centre
#                                CCDC
#
#######################################################################
#
# If this CIF has been generated from an entry in the Cambridge
# Structural Database, then it will include bibliographic, chemical,
# crystal, experimental, refinement or atomic coordinate data resulting
# from the CCDC's data processing and validation procedures.
#
#######################################################################

data_CSD_CIF_DUQYEU
_audit_creation_date 2010-12-02
_audit_creation_method CSD-ConQuest-V1
_database_code_CSD DUQYEU
_database_code_depnum_ccdc_archive 'CCDC 788204'
_chemical_formula_sum 'C12 H32 Dy2 N2 O24'
_chemical_formula_moiety
;
(C2 H8 N1 1+)2n,n(C8 H4 Dy2 O18 2-),6n(H2 O1)
;
_journal_coeditor_code "IUCr WM2367"
_journal_coden_Cambridge 1370
_journal_volume 66
_journal_year 2010
_journal_page_first m901
_journal_name_full 'Acta Crystallogr.,Sect.E:Struct.Rep.Online '
loop_
_publ_author_name
"Su-Fang Ye"
"Hong Lin"
_chemical_name_systematic
;
catena-(bis(Dimethylammonium) 
tetrakis(\m~2~-oxalato)-diaqua-di-dysprosium(iii) hexahydrate)
;
_cell_volume   1347.774
_exptl_crystal_colour 'colorless'
_exptl_crystal_density_diffrn 2.251
_exptl_crystal_description 'block'
_diffrn_ambient_temperature 296
#These two values have been output from a single CSD field.
_refine_ls_R_factor_gt 0.0193
_refine_ls_wR_factor_gt 0.0193
_symmetry_cell_setting monoclinic
_symmetry_space_group_name_H-M 'P 21/c'
_symmetry_Int_Tables_number 14
loop_
_symmetry_equiv_pos_site_id
_symmetry_equiv_pos_as_xyz
1 x,y,z
2 -x,1/2+y,1/2-z
3 -x,-y,-z
4 x,-1/2-y,-1/2+z
_cell_length_a 9.6239(2)
_cell_length_b 11.6030(2)
_cell_length_c 14.3050(2)
_cell_angle_alpha 90
_cell_angle_beta 122.463(1)
_cell_angle_gamma 90
_cell_formula_units_Z 2
loop_
_atom_type_symbol
_atom_type_radius_bond
C 0.68
H 0.23
Dy 1.92
N 0.68
O 0.68
loop_
_atom_site_label
_atom_site_type_symbol
_atom_site_fract_x
_atom_site_fract_y
_atom_site_fract_z
Dy1 Dy 0.117659(15) -0.013113(10) -0.167676(10)
O1 O 0.2048(2) -0.21224(15) -0.15624(17)
O2 O 0.1053(3) -0.02065(19) -0.34320(18)
H1 H 0.036(4) -0.061(2) -0.396(2)
H2 H 0.106(4) 0.0401(18) -0.375(2)
O3 O -0.1030(2) -0.13712(15) -0.29291(17)
O4 O -0.1939(2) -0.31830(15) -0.32907(16)
O5 O 0.1169(2) -0.39375(16) -0.20338(18)
O6 O 0.3400(3) -0.01122(16) 0.02214(18)
O7 O 0.0192(3) -0.11779(16) -0.06741(17)
O8 O -0.0381(3) -0.11134(17) 0.06433(18)
O9 O 0.6106(3) 0.01101(15) 0.14319(17)
C1 C 0.0965(3) -0.2872(2) -0.2069(2)
C2 C -0.0829(3) -0.2435(2) -0.2832(2)
C3 C 0.4856(4) -0.0001(2) 0.0483(2)
C4 C -0.0055(3) -0.0664(2) -0.0010(2)
N1 N 0.4246(4) -0.1300(3) -0.3049(3)
H3 H 0.393(5) -0.098(3) -0.263(3)
H4 H 0.378(5) -0.095(3) -0.368(3)
C5 C 0.3567(6) -0.2468(4) -0.3333(4)
H5 H 0.23870 -0.24310 -0.37210
H6 H 0.39840 -0.29100 -0.26670
H7 H 0.38820 -0.28270 -0.37960
C6 C 0.6030(5) -0.1251(5) -0.2451(4)
H8 H 0.63840 -0.04640 -0.22790
H9 H 0.63960 -0.15720 -0.29010
H10 H 0.64900 -0.16860 -0.17770
O10 O 0.5505(4) -0.2809(3) -0.0349(3)
H11 H 0.489(5) -0.291(5) -0.009(3)
H12 H 0.624(4) -0.238(4) 0.016(3)
O11 O -0.1188(4) -0.1547(2) -0.5332(3)
H13 H -0.090(5) -0.222(2) -0.529(4)
H14 H -0.209(3) -0.155(3) -0.543(4)
O12 O 0.6648(5) -0.5050(3) -0.0068(3)
H15 H 0.694(6) -0.530(4) 0.056(3)
H16 H 0.596(5) -0.456(4) -0.020(4)
Dy1A Dy -0.117659(15) 0.486887(10) -0.332324(10)
Dy1A* Dy -0.117659(15) -0.513113(10) -0.332324(10)
Dy1B Dy -0.117659(15) 0.013113(10) 0.167676(10)
Dy1B* Dy 0.882341(15) 0.013113(10) 0.167676(10)
O1A O -0.2048(2) 0.28776(15) -0.34376(17)
O2A O -0.1053(3) 0.47935(19) -0.15680(18)
H1A H -0.036(4) 0.439(2) -0.104(2)
H2A H -0.106(4) 0.5401(18) -0.125(2)
O3A O 0.1030(2) 0.36288(15) -0.20709(17)
O4A O 0.1939(2) 0.18170(15) -0.17093(16)
O4* O -0.1939(2) 0.68170(15) -0.32907(16)
O5A O -0.1169(2) 0.10625(16) -0.29662(18)
O5* O 0.1169(2) 0.60625(16) -0.20338(18)
O6B O 0.6600(3) 0.01122(16) -0.02214(18)
O6A O -0.3400(3) 0.48878(16) -0.52214(18)
O7B O -0.0192(3) 0.11779(16) 0.06741(17)
O7A O -0.0192(3) 0.38221(16) -0.43259(17)
O8B O 0.0381(3) 0.11134(17) -0.06433(18)
O8C O -0.0381(3) 0.61134(17) -0.43567(18)
O9B O 0.3894(3) -0.01101(15) -0.14319(17)
O9C O -0.3894(3) 0.48899(15) -0.35681(17)
C1A C -0.0965(3) 0.2128(2) -0.2931(2)
C2A C 0.0829(3) 0.2565(2) -0.2168(2)
C3B C 0.5144(4) 0.0001(2) -0.0483(2)
C4B C 0.0055(3) 0.0664(2) 0.0010(2)
#END
