
#######################################################################
#
#                 Cambridge Crystallographic Data Centre
#                                CCDC
#
#######################################################################
#
# If this CIF has been generated from an entry in the Cambridge
# Structural Database, then it will include bibliographic, chemical,
# crystal, experimental, refinement or atomic coordinate data resulting
# from the CCDC's data processing and validation procedures.
#
#######################################################################

data_CSD_CIF_DUQYEU01
_audit_creation_date 2016-06-07
_audit_creation_method CSD-ConQuest-V1
_database_code_CSD DUQYEU01
_database_code_depnum_ccdc_archive 'CCDC 1483096'
_chemical_formula_sum 'C12 H32 Dy2 N2 O24'
_chemical_formula_moiety
;
2(C2 H8 N1 1+),n(C8 H4 Dy2 O18 2-),6(H2 O1)
;
_journal_coden_Cambridge 1078
_journal_year 2016
_journal_name_full 'CSD Communication(Private Communication) '
loop_
_publ_author_name
"Li Rui"
_chemical_name_systematic
;
catena-[bis(Dimethylammonium) tetrakis(\m-oxalato)-diaqua-di-dysprosium 
hexahydrate]
;
_cell_volume   1347.068
_exptl_crystal_colour 'colorless'
_exptl_crystal_density_diffrn 2.252
_exptl_crystal_description 'block'
_diffrn_ambient_temperature 293
#These two values have been output from a single CSD field.
_refine_ls_R_factor_gt 0.0289
_refine_ls_wR_factor_gt 0.0289
_symmetry_cell_setting monoclinic
_symmetry_space_group_name_H-M 'P 21/c'
_symmetry_Int_Tables_number 14
loop_
_symmetry_equiv_pos_site_id
_symmetry_equiv_pos_as_xyz
1 x,y,z
2 -x,1/2+y,1/2-z
3 -x,-y,-z
4 x,-1/2-y,-1/2+z
_cell_length_a 9.6191(3)
_cell_length_b 11.6023(5)
_cell_length_c 14.3044(4)
_cell_angle_alpha 90
_cell_angle_beta 122.456(2)
_cell_angle_gamma 90
_cell_formula_units_Z 2
loop_
_atom_type_symbol
_atom_type_radius_bond
C 0.68
H 0.23
Dy 1.92
N 0.68
O 0.68
loop_
_atom_site_label
_atom_site_type_symbol
_atom_site_fract_x
_atom_site_fract_y
_atom_site_fract_z
Dy1 Dy 0.38234(2) -0.48702(2) -0.332400(17)
O1 O 0.6032(4) -0.3630(3) -0.2068(3)
O2 O 0.3840(4) -0.1063(3) -0.2965(3)
O3 O 0.2952(4) -0.2883(3) -0.3434(3)
O4 O 0.4800(4) -0.3823(3) -0.4330(3)
O5 O 0.6933(3) -0.1820(3) -0.1714(2)
O6 O 0.3953(5) -0.4801(3) -0.1570(3)
H1 H 0.43120 -0.41930 -0.10980
H2 H 0.36530 -0.53790 -0.12850
O7 O 0.5383(4) -0.3887(3) -0.5639(3)
O8 O 0.1111(4) -0.4895(3) -0.3565(3)
O9 O -0.1608(4) -0.5114(3) -0.4783(3)
C1 C 0.5834(5) -0.2571(4) -0.2166(4)
C2 C 0.5056(4) -0.4342(4) -0.4991(3)
C3 C 0.4034(5) -0.2132(4) -0.2931(4)
C4 C -0.0155(6) -0.5002(4) -0.4528(4)
N1 N 0.0754(5) -0.3695(5) -0.1948(4)
H3 H 0.10920 -0.40370 -0.23570
H4 H 0.11640 -0.41030 -0.13180
C5 C -0.1041(7) -0.3747(8) -0.2556(6)
H5 H -0.14950 -0.33650 -0.32570
H6 H -0.14200 -0.33730 -0.21340
H7 H -0.13890 -0.45380 -0.26780
C6 C 0.1452(10) -0.2525(8) -0.1662(6)
H8 H 0.10400 -0.20830 -0.23280
H9 H 0.26310 -0.25680 -0.12730
H10 H 0.11390 -0.21600 -0.11990
O10 O 0.8389(8) -0.5052(4) 0.0072(5)
H11 H 0.73490 -0.51220 -0.03400
H12 H 0.88100 -0.51320 -0.03160
O11 O 0.6185(5) -0.3451(4) 0.0330(4)
H13 H 0.62430 -0.27710 0.05690
H14 H 0.70310 -0.35860 0.03010
O12 O -0.0513(6) -0.2186(5) -0.4653(4)
H15 H 0.051(4) -0.237(10) -0.435(7)
H16 H -0.106(7) -0.257(6) -0.526(4)
O4B O 0.5200(4) -0.6177(3) -0.5670(3)
O7B O 0.4617(4) -0.6113(3) -0.4361(3)
C2B C 0.4944(4) -0.5658(4) -0.5009(3)
O8B O -0.1111(4) -0.5105(3) -0.6435(3)
O9B O 0.1608(4) -0.4886(3) -0.5217(3)
C4B C 0.0155(6) -0.4998(4) -0.5472(4)
Dy1B Dy -0.38234(2) -0.51298(2) -0.667600(17)
O1B O -0.6032(4) -0.6370(3) -0.7932(3)
O2B O -0.3840(4) -0.8937(3) -0.7035(3)
O3B O -0.2952(4) -0.7117(3) -0.6566(3)
O5B O -0.6933(3) -0.8180(3) -0.8286(2)
O6B O -0.3953(5) -0.5199(3) -0.8430(3)
H1B H -0.43120 -0.58070 -0.89020
H2B H -0.36530 -0.46210 -0.87150
C1B C -0.5834(5) -0.7429(4) -0.7834(4)
C3B C -0.4034(5) -0.7868(4) -0.7069(4)
Dy1A Dy 0.61766(2) 0.01298(2) -0.167600(17)
Dy1B* Dy 0.61766(2) -0.51298(2) -0.667600(17)
Dy1C Dy -0.61766(2) -1.01298(2) -0.832400(17)
O2A O 0.6160(4) -0.6063(3) -0.2035(3)
O2C O -0.6160(4) -0.3937(3) -0.7965(3)
O4B* O -0.4800(4) -0.6177(3) -0.5670(3)
O5A O 0.3067(3) -0.6820(3) -0.3286(2)
O5C O -0.3067(3) -0.3180(3) -0.6714(2)
O7* O -0.4617(4) -0.3887(3) -0.5639(3)
#END
