
#######################################################################
#
#                 Cambridge Crystallographic Data Centre
#                                CCDC
#
#######################################################################
#
# If this CIF has been generated from an entry in the Cambridge
# Structural Database, then it will include bibliographic, chemical,
# crystal, experimental, refinement or atomic coordinate data resulting
# from the CCDC's data processing and validation procedures.
#
#######################################################################

data_CSD_CIF_DUVXUP
_audit_creation_date 2015-11-19
_audit_creation_method CSD-ConQuest-V1
_database_code_CSD DUVXUP
_database_code_depnum_ccdc_archive 'CCDC 1052564'
_chemical_formula_sum 'C40 H70 N8 Na2 Ni1 O24 S4'
_chemical_formula_moiety
;
(C6 H22 N2 Ni1 O6 2+)n,n(C28 H34 N4 Na2 O16 S4 2-),2n(C3 H7 N1 O1)
;
_journal_coden_Cambridge 893
_journal_volume 225
_journal_year 2016
_journal_page_first 586
_journal_name_full 'Sens.Actuators,B '
loop_
_publ_author_name
"D.Rambabu"
"C.P.Pradeep"
"A.Dhir"
_chemical_name_systematic
;
catena-[Tetra-aqua-bis(N,N-dimethylformamide)-nickel(ii) 
(\m~4~-pyrene-1,3,6,8-tetrasulfonato)-tetrakis(\m~2~-N,N-dimethylformamide)-di
-sodium N,N-dimethylformamide solvate]
;
_cell_volume   5765.551
_exptl_crystal_colour 'yellow'
_exptl_crystal_density_diffrn 1.475
_diffrn_ambient_temperature 150
#These two values have been output from a single CSD field.
_refine_ls_R_factor_gt 0.0673
_refine_ls_wR_factor_gt 0.0673
_symmetry_cell_setting monoclinic
_symmetry_space_group_name_H-M 'I 2/c'
_symmetry_Int_Tables_number 15
loop_
_symmetry_equiv_pos_site_id
_symmetry_equiv_pos_as_xyz
1 x,y,z
2 -x,y,1/2-z
3 1/2+x,1/2+y,1/2+z
4 1/2-x,1/2+y,-z
5 -x,-y,-z
6 x,-y,-1/2+z
7 -1/2-x,-1/2-y,-1/2-z
8 -1/2+x,-1/2-y,z
_cell_length_a 25.4766(7)
_cell_length_b 7.1710(3)
_cell_length_c 31.5592(10)
_cell_angle_alpha 90
_cell_angle_beta 90.310(3)
_cell_angle_gamma 90
_cell_formula_units_Z 4
loop_
_atom_type_symbol
_atom_type_radius_bond
C 0.68
H 0.23
N 0.68
Na 1.66
Ni 1.24
O 0.68
S 1.02
loop_
_atom_site_label
_atom_site_type_symbol
_atom_site_fract_x
_atom_site_fract_y
_atom_site_fract_z
Ni1 Ni 0.50000 0.54006(13) 0.25000
O1 O 0.50000 0.8217(8) 0.25000
O2 O 0.50000 0.2591(7) 0.25000
O3 O 0.55649(15) 0.5364(5) 0.29831(10)
N1 N 0.58961(17) 0.5220(6) 0.36490(12)
O4 O 0.56334(18) 0.5387(6) 0.20787(12)
H1 H 0.56360 0.63980 0.19170
H2 H 0.56180 0.44120 0.19080
C1 C 0.5805(2) 0.5262(7) 0.40998(15)
H3 H 0.61340 0.51430 0.42480
H4 H 0.55790 0.42480 0.41770
H5 H 0.56430 0.64220 0.41750
C2 C 0.5515(2) 0.5359(6) 0.33717(14)
H6 H 0.51760 0.54630 0.34770
C3 C 0.6436(3) 0.5006(18) 0.3526(2)
H7 H 0.66530 0.49320 0.37740
H8 H 0.65400 0.60590 0.33580
H9 H 0.64730 0.38860 0.33620
H10 H 0.492(3) 0.21(1) 0.230(2)
H11 H 0.507(3) 0.867(11) 0.271(2)
S1 S 0.47503(4) 1.04222(13) 0.35390(3)
S2 S 0.66383(3) 1.01841(15) 0.43401(3)
Na1 Na 0.74965(5) 0.7787(2) 0.50463(5)
O5 O 0.51559(12) 1.0443(5) 0.32133(9)
O6 O 0.44633(12) 1.2166(4) 0.35596(9)
O7 O 0.68173(10) 0.8562(4) 0.45733(9)
O8 O 0.67979(10) 1.1934(4) 0.4533(1)
O9 O 0.44160(12) 0.8801(4) 0.35091(8)
O10 O 0.67445(12) 1.0064(6) 0.38916(10)
O11 O 0.69771(11) 0.5178(4) 0.53176(10)
O12 O 0.77285(11) 0.5397(4) 0.45158(10)
C4 C 0.59379(14) 1.0160(5) 0.43858(12)
C5 C 0.48306(14) 1.0141(5) 0.44177(11)
C6 C 0.51001(14) 1.0242(5) 0.40287(11)
N2 N 0.78538(15) 0.5284(6) 0.38007(12)
C7 C 0.51317(14) 1.0053(5) 0.47994(11)
C8 C 0.56928(14) 1.0076(5) 0.47856(11)
N3 N 0.61145(14) 0.4893(5) 0.54728(14)
C9 C 0.42691(14) 1.0117(5) 0.44468(11)
H12 H 0.40700 1.01860 0.41990
C10 C 0.56436(15) 1.0246(5) 0.40160(12)
H13 H 0.58130 1.03060 0.37560
C11 C 0.40202(14) 0.9997(5) 0.48236(12)
H14 H 0.36550 0.99620 0.48290
C12 C 0.77128(16) 0.6114(6) 0.41610(14)
H15 H 0.75930 0.73360 0.41430
C13 C 0.8035(2) 0.3350(8) 0.38013(18)
H16 H 0.81210 0.29820 0.35180
H17 H 0.77630 0.25570 0.39080
H18 H 0.83410 0.32420 0.39780
C14 C 0.7855(3) 0.6276(9) 0.34048(17)
H19 H 0.79680 0.54560 0.31830
H20 H 0.80910 0.73170 0.34240
H21 H 0.75070 0.67190 0.33430
C15 C 0.55767(19) 0.5000(8) 0.5320(3)
H22 H 0.53410 0.47350 0.55490
H23 H 0.55250 0.41060 0.50970
H24 H 0.55090 0.62310 0.52130
C16 C 0.6192(2) 0.4465(7) 0.59108(17)
H25 H 0.58570 0.42860 0.60440
H26 H 0.63740 0.54760 0.60470
H27 H 0.63960 0.33460 0.59370
C17 C 0.65121(16) 0.5205(6) 0.52150(15)
H28 H 0.64330 0.54640 0.49330
N4 N 0.6695(2) 1.0527(9) 0.26829(19)
C18 C 0.7162(3) 1.0903(13) 0.2903(3)
H29 H 0.72830 1.21310 0.28330
H30 H 0.74240 1.00040 0.28260
H31 H 0.71000 1.08300 0.32030
C19 C 0.6456(4) 1.1916(16) 0.2458(3)
H32 H 0.61320 1.16580 0.23340
C20 C 0.6447(5) 0.885(2) 0.2719(4)
H33 H 0.66610 0.80130 0.28830
H34 H 0.63880 0.83340 0.24420
H35 H 0.61160 0.90240 0.28580
O13 O 0.6654(3) 1.3603(11) 0.2404(2)
H11A H 0.493(3) 0.867(11) 0.229(2)
H10A H 0.508(3) 0.21(1) 0.270(2)
O3A O 0.44351(15) 0.5364(5) 0.20169(10)
N1A N 0.41039(17) 0.5220(6) 0.13510(12)
O4A O 0.43666(18) 0.5387(6) 0.29213(12)
H1A H 0.43640 0.63980 0.30830
H2A H 0.43820 0.44120 0.30920
C1A C 0.4195(2) 0.5262(7) 0.09002(15)
H3A H 0.38660 0.51430 0.07520
H4A H 0.44210 0.42480 0.08230
H5A H 0.43570 0.64220 0.08250
C2A C 0.4485(2) 0.5359(6) 0.16283(14)
H6A H 0.48240 0.54630 0.15230
C3A C 0.3564(3) 0.5006(18) 0.1474(2)
H7A H 0.33470 0.49320 0.12260
H8A H 0.34600 0.60590 0.16420
H9A H 0.35270 0.38860 0.16380
S1D S 0.52497(4) 0.95778(13) 0.64610(3)
S2D S 0.33617(3) 0.98159(15) 0.56599(3)
O5D O 0.48441(12) 0.9557(5) 0.67867(9)
O6D O 0.55367(12) 0.7834(4) 0.64404(9)
O7D O 0.31827(10) 1.1438(4) 0.54267(9)
O9D O 0.55840(12) 1.1199(4) 0.64909(8)
O10D O 0.32555(12) 0.9936(6) 0.61084(10)
C4D C 0.40621(14) 0.9840(5) 0.56142(12)
C5D C 0.51694(14) 0.9859(5) 0.55823(11)
C6D C 0.48999(14) 0.9758(5) 0.59713(11)
C7D C 0.48683(14) 0.9947(5) 0.52006(11)
C8D C 0.43072(14) 0.9924(5) 0.52144(11)
C9D C 0.57309(14) 0.9883(5) 0.55532(11)
H12D H 0.59300 0.98140 0.58010
C10D C 0.43564(15) 0.9754(5) 0.59840(12)
H13D H 0.41870 0.96940 0.62440
C11D C 0.59798(14) 1.0003(5) 0.51764(12)
H14D H 0.63450 1.00380 0.51710
O8D O 0.32021(10) 0.8066(4) 0.5467(1)
Na1D Na 0.25035(5) 1.2213(2) 0.49537(5)
O11D O 0.30229(11) 1.4822(4) 0.46824(10)
O12D O 0.22715(11) 1.4603(4) 0.54842(10)
N2D N 0.21462(15) 1.4716(6) 0.61993(12)
N3D N 0.38855(14) 1.5107(5) 0.45272(14)
C12D C 0.22872(16) 1.3886(6) 0.58390(14)
H15D H 0.24070 1.26640 0.58570
C13D C 0.1965(2) 1.6650(8) 0.61987(18)
H16D H 0.18790 1.70180 0.64820
H17D H 0.22370 1.74430 0.60920
H18D H 0.16590 1.67580 0.60220
C14D C 0.2145(3) 1.3724(9) 0.65952(17)
H19D H 0.20320 1.45440 0.68170
H20D H 0.19090 1.26830 0.65760
H21D H 0.24930 1.32810 0.66570
C15D C 0.44233(19) 1.5000(8) 0.4680(3)
H22D H 0.46590 1.52650 0.44510
H23D H 0.44750 1.58940 0.49030
H24D H 0.44910 1.37690 0.47870
C16D C 0.3808(2) 1.5535(7) 0.40892(17)
H25D H 0.41430 1.57140 0.39560
H26D H 0.36260 1.45240 0.39530
H27D H 0.36040 1.66540 0.40630
C17D C 0.34879(16) 1.4795(6) 0.47850(15)
H28D H 0.35670 1.45360 0.50670
Na1C Na 0.75035(5) 0.2787(2) 0.49537(5)
Na1C* Na 0.75035(5) 1.2787(2) 0.49537(5)
Na1G Na 0.24965(5) 0.7213(2) 0.50463(5)
Na1G* Na 0.24965(5) 1.7213(2) 0.50463(5)
O8C O 0.82021(10) 0.6934(4) 0.5467(1)
O8G O 0.17979(10) 1.3066(4) 0.4533(1)
O11C O 0.80229(11) 1.0178(4) 0.46824(10)
O11G O 0.19771(11) 0.9822(4) 0.53176(10)
O12C O 0.72715(11) 1.0397(4) 0.54842(10)
O12G O 0.27285(11) 0.9603(4) 0.45158(10)
#END
