
#######################################################################
#
#                 Cambridge Crystallographic Data Centre
#                                CCDC
#
#######################################################################
#
# If this CIF has been generated from an entry in the Cambridge
# Structural Database, then it will include bibliographic, chemical,
# crystal, experimental, refinement or atomic coordinate data resulting
# from the CCDC's data processing and validation procedures.
#
#######################################################################

data_CSD_CIF_DUWRIY
_audit_creation_date 2015-11-19
_audit_creation_method CSD-ConQuest-V1
_database_code_CSD DUWRIY
_database_code_depnum_ccdc_archive 'CCDC 1431030'
_chemical_formula_sum 'C12 H24 Mg2 N2 O18 P2'
_chemical_formula_moiety
;
(C4 H4 Mg2 O16 P2 2-)n,2n(C4 H10 N1 O1 1+)
;
_journal_coden_Cambridge 1350
_journal_volume 17
_journal_year 2015
_journal_page_first 9296
_journal_name_full 'CrystEngComm '
loop_
_publ_author_name
"Wei Zhang"
"Maoping Kang"
"Meng Yang"
"Daibing Luo"
"Zhien Lin"
_chemical_name_systematic
;
catena-(bis(Morpholinium) bis(\m~2~-dihydrogen 
phosphato)-bis(\m~2~-oxalato)-di-magnesium)
;
_cell_volume   1064.555
_exptl_crystal_colour 'colorless'
_exptl_crystal_density_diffrn 1.856
_diffrn_ambient_temperature 292.1
#These two values have been output from a single CSD field.
_refine_ls_R_factor_gt 0.042
_refine_ls_wR_factor_gt 0.042
_symmetry_cell_setting monoclinic
_symmetry_space_group_name_H-M 'P 21/n'
_symmetry_Int_Tables_number 14
loop_
_symmetry_equiv_pos_site_id
_symmetry_equiv_pos_as_xyz
1 x,y,z
2 1/2-x,1/2+y,1/2-z
3 -x,-y,-z
4 -1/2+x,-1/2-y,-1/2+z
_cell_length_a 9.3755(2)
_cell_length_b 7.4746(1)
_cell_length_c 15.4310(2)
_cell_angle_alpha 90
_cell_angle_beta 100.119(2)
_cell_angle_gamma 90
_cell_formula_units_Z 2
loop_
_atom_type_symbol
_atom_type_radius_bond
C 0.68
H 0.23
Mg 1.41
N 0.68
O 0.68
P 1.05
loop_
_atom_site_label
_atom_site_type_symbol
_atom_site_fract_x
_atom_site_fract_y
_atom_site_fract_z
Mg1 Mg 0.78015(8) 0.46719(9) 0.59849(4)
P1 P 0.65247(6) 0.59715(7) 0.77434(4)
O1 O 0.74348(19) 0.6146(2) 0.70399(10)
O2 O 0.7154(2) 0.4526(2) 0.84425(11)
H1 H 0.72710 0.35830 0.81920
O3 O 0.63442(18) 0.7639(2) 0.82407(11)
O4 O 0.5016(2) 0.5246(3) 0.72507(12)
H2 H 0.43940 0.54330 0.75530
O5 O 0.63731(17) 0.6579(2) 0.52095(10)
O6 O 0.41185(17) 0.6855(2) 0.44644(10)
O7 O 0.96788(17) 0.6176(2) 0.59181(10)
O8 O 1.14943(18) 0.6404(2) 0.51497(11)
C1 C 0.5143(2) 0.5995(3) 0.49047(14)
C2 C 1.0348(2) 0.5757(3) 0.53153(13)
O9 O 0.2609(2) 0.6194(3) 0.79495(12)
N1 N 0.1810(3) 0.4925(3) 0.95321(14)
H3 H 0.12840 0.58130 0.96960
H4 H 0.18590 0.40580 0.99310
C3 C 0.3203(3) 0.6961(4) 0.87798(18)
H5 H 0.25990 0.79480 0.89050
H6 H 0.41630 0.74250 0.87610
C4 C 0.3292(3) 0.5582(4) 0.94935(17)
H7 H 0.38980 0.45940 0.93720
H8 H 0.37190 0.61040 1.00550
C5 C 0.1154(3) 0.5631(4) 0.79584(19)
H9 H 0.07390 0.51500 0.73860
H10 H 0.05780 0.66560 0.80700
C6 C 0.1092(3) 0.4228(4) 0.86535(18)
H11 H 0.00910 0.39290 0.86710
H12 H 0.15810 0.31510 0.85120
O5B O 0.36269(17) 0.3421(2) 0.47905(10)
O6B O 0.58815(17) 0.3145(2) 0.55356(10)
C1B C 0.4857(2) 0.4005(3) 0.50953(14)
O7B O 1.03212(17) 0.3824(2) 0.40819(10)
O8B O 0.85057(18) 0.3596(2) 0.48503(11)
C2B C 0.9652(2) 0.4243(3) 0.46847(13)
Mg1B Mg 0.21985(8) 0.53281(9) 0.40151(4)
P1B P 0.34753(6) 0.40285(7) 0.22566(4)
O1B O 0.25652(19) 0.3854(2) 0.29601(10)
O2B O 0.2846(2) 0.5474(2) 0.15575(11)
H1B H 0.27290 0.64170 0.18080
O3B O 0.36558(18) 0.2361(2) 0.17593(11)
O4B O 0.4984(2) 0.4754(3) 0.27493(12)
H2B H 0.56060 0.45670 0.24470
Mg1A Mg 0.71985(8) 0.96719(9) 0.90151(4)
Mg1B* Mg 1.21985(8) 0.53281(9) 0.40151(4)
Mg1C Mg 0.28015(8) 0.03281(9) 0.09849(4)
O3A O 0.86558(18) 0.2639(2) 0.67593(11)
O3C O 0.13442(18) 0.7361(2) 0.32407(11)
O7B* O 0.03212(17) 0.3824(2) 0.40819(10)
O8* O 0.14943(18) 0.6404(2) 0.51497(11)
#END
