
#######################################################################
#
#                 Cambridge Crystallographic Data Centre
#                                CCDC
#
#######################################################################
#
# If this CIF has been generated from an entry in the Cambridge
# Structural Database, then it will include bibliographic, chemical,
# crystal, experimental, refinement or atomic coordinate data resulting
# from the CCDC's data processing and validation procedures.
#
#######################################################################

data_CSD_CIF_DUWROE
_audit_creation_date 2015-11-19
_audit_creation_method CSD-ConQuest-V1
_database_code_CSD DUWROE
_database_code_depnum_ccdc_archive 'CCDC 1431031'
_chemical_formula_sum 'C18 H38 Mg4 N3 O30 P3'
_chemical_formula_moiety
;
(C8 H6 Mg4 O28 P3 3-)n,n(C10 H28 N3 3+),2n(H2 O1)
;
_journal_coden_Cambridge 1350
_journal_volume 17
_journal_year 2015
_journal_page_first 9296
_journal_name_full 'CrystEngComm '
loop_
_publ_author_name
"Wei Zhang"
"Maoping Kang"
"Meng Yang"
"Daibing Luo"
"Zhien Lin"
_chemical_name_systematic
;
catena-(N'-(3-(Dimethylammonio)propyl)-N,N-dimethylpropane-1,3-diaminium 
bis(\m~3~-oxalato)-tris(dihydrogen 
phosphato)-bis(\m~2~-oxalato)-tetra-magnesium dihydrate)
;
_cell_volume   3603.125
_exptl_crystal_colour 'colorless'
_exptl_crystal_density_diffrn 1.782
_exptl_crystal_description 'block'
_diffrn_ambient_temperature 293.1
_refine_special_details
;
OW1 and OW1A disordered over two sites with occupancies 0.642:0.358.

;
#These two values have been output from a single CSD field.
_refine_ls_R_factor_gt 0.0486
_refine_ls_wR_factor_gt 0.0486
_symmetry_cell_setting monoclinic
_symmetry_space_group_name_H-M 'C 2/c'
_symmetry_Int_Tables_number 15
loop_
_symmetry_equiv_pos_site_id
_symmetry_equiv_pos_as_xyz
1 x,y,z
2 -x,y,1/2-z
3 1/2+x,1/2+y,z
4 1/2-x,1/2+y,1/2-z
5 -x,-y,-z
6 x,-y,-1/2+z
7 -1/2-x,-1/2-y,-z
8 -1/2+x,-1/2-y,-1/2+z
_cell_length_a 15.1014(2)
_cell_length_b 10.96857(17)
_cell_length_c 22.3338(4)
_cell_angle_alpha 90
_cell_angle_beta 103.0993(15)
_cell_angle_gamma 90
_cell_formula_units_Z 4
loop_
_atom_type_symbol
_atom_type_radius_bond
C 0.68
H 0.23
Mg 1.41
N 0.68
O 0.68
P 1.05
loop_
_atom_site_label
_atom_site_type_symbol
_atom_site_fract_x
_atom_site_fract_y
_atom_site_fract_z
Mg1 Mg 0.48037(5) 0.52588(7) 0.56888(3)
Mg2 Mg 0.35481(5) -0.02081(7) 0.62141(3)
P1 P 0.38217(4) 0.26051(5) 0.57263(3)
P2 P 0.50000 -0.09715(8) 0.75000
O1 O 0.45352(12) 0.35575(16) 0.59081(8)
O2 O 0.39567(13) 0.15167(17) 0.61322(10)
O3 O 0.28861(14) 0.3205(2) 0.57308(10)
H1 H 0.24800 0.28330 0.54950
O4 O 0.37244(14) 0.2218(2) 0.50333(9)
H2 H 0.42130 0.23100 0.49380
O5 O 0.44018(14) -0.02183(18) 0.70376(9)
O6 O 0.44789(18) -0.1829(2) 0.78617(12)
H3 H 0.43480 -0.24660 0.76700
O7 O 0.49868(12) 0.71672(16) 0.55183(8)
O8 O 0.44511(12) 0.89928(16) 0.57289(8)
O9 O 0.38947(12) 0.60680(16) 0.61245(9)
O10 O 0.32852(12) 0.78565(16) 0.62815(8)
O11 O 0.58832(11) 0.49040(16) 0.52357(7)
O12 O 0.74054(11) 0.48181(18) 0.54412(8)
O13 O 0.59438(11) 0.52987(16) 0.64161(8)
O14 O 0.74560(11) 0.51379(18) 0.66293(8)
C1 C 0.44854(15) 0.7868(2) 0.57483(10)
C2 C 0.38303(15) 0.7204(2) 0.60843(11)
C3 C 0.66698(16) 0.4941(2) 0.55839(11)
C4 C 0.66945(16) 0.5152(2) 0.62757(11)
O15 O 0.3672(4) -0.3842(4) 0.73882(16)
O16? O 0.4332(14) -0.4085(9) 0.7466(5)
C5 C 0.7022(4) -0.0190(4) 0.66687(18)
H4 H 0.72570 -0.00780 0.71020
H5 H 0.74440 -0.06650 0.65030
H6 H 0.64490 -0.06070 0.66010
C6 C 0.6633(2) 0.0846(4) 0.56855(15)
H7 H 0.60660 0.04150 0.55770
H8 H 0.70960 0.03880 0.55530
H9 H 0.65690 0.16300 0.54890
C7 C 0.62038(18) 0.1751(3) 0.65745(13)
H10 H 0.56600 0.12630 0.65450
H11 H 0.60440 0.24440 0.63020
C8 C 0.65164(17) 0.2211(3) 0.72284(13)
H12 H 0.70580 0.27070 0.72630
H13 H 0.66680 0.15250 0.75070
C9 C 0.57713(18) 0.2963(2) 0.74056(13)
H14 H 0.60240 0.34070 0.77810
H15 H 0.55460 0.35560 0.70850
N1 N 0.68946(15) 0.1009(2) 0.63624(10)
H16 H 0.74750 0.14470 0.64650
N2 N 0.50000 0.2199(3) 0.75000
H17 H 0.51890 0.17220 0.78260
H18? H 0.51890 0.17220 0.78260
O5A O 0.55982(14) -0.02183(18) 0.79624(9)
O6A O 0.55211(18) -0.1829(2) 0.71383(12)
H3A H 0.56520 -0.24660 0.73300
Mg1A Mg 0.51963(5) 0.52588(7) 0.93112(3)
Mg2A Mg 0.64519(5) -0.02081(7) 0.87859(3)
P1A P 0.61783(4) 0.26051(5) 0.92737(3)
O1A O 0.54648(12) 0.35575(16) 0.90919(8)
O2A O 0.60433(13) 0.15167(17) 0.88678(10)
O3A O 0.71139(14) 0.3205(2) 0.92692(10)
H1A H 0.75200 0.28330 0.95050
O4A O 0.62756(14) 0.2218(2) 0.99667(9)
H2A H 0.57870 0.23100 1.00620
O7A O 0.50132(12) 0.71672(16) 0.94817(8)
O8A O 0.55489(12) 0.89928(16) 0.92711(8)
O9A O 0.61053(12) 0.60680(16) 0.88755(9)
O10A O 0.67148(12) 0.78565(16) 0.87185(8)
O11A O 0.41168(11) 0.49040(16) 0.97643(7)
O12A O 0.25946(11) 0.48181(18) 0.95588(8)
O13A O 0.40562(11) 0.52987(16) 0.85839(8)
O14A O 0.25440(11) 0.51379(18) 0.83707(8)
C1A C 0.55146(15) 0.7868(2) 0.92517(10)
C2A C 0.61697(15) 0.7204(2) 0.89157(11)
C3A C 0.33302(16) 0.4941(2) 0.94161(11)
C4A C 0.33055(16) 0.5152(2) 0.87243(11)
Mg1D Mg 0.51963(5) 0.47412(7) 0.43112(3)
Mg1E Mg 0.48037(5) 0.47412(7) 1.06888(3)
Mg2* Mg 0.35481(5) 0.97919(7) 0.62141(3)
Mg2A* Mg 0.64519(5) 0.97919(7) 0.87859(3)
Mg2B Mg 0.85481(5) 0.47919(7) 0.62141(3)
Mg2C Mg 0.14519(5) 0.47919(7) 0.87859(3)
O8* O 0.44511(12) -0.10072(16) 0.57289(8)
O8A* O 0.55489(12) -0.10072(16) 0.92711(8)
O10* O 0.32852(12) -0.21435(16) 0.62815(8)
O10A* O 0.67148(12) -0.21435(16) 0.87185(8)
O11D O 0.41168(11) 0.50960(16) 0.47643(7)
O11E O 0.58832(11) 0.50960(16) 1.02357(7)
O12B O 0.24054(11) -0.01819(18) 0.54412(8)
O12C O 0.75946(11) -0.01819(18) 0.95588(8)
O14B O 0.24560(11) 0.01379(18) 0.66293(8)
O14C O 0.75440(11) 0.01379(18) 0.83707(8)
H17A H 0.48110 0.17220 0.71740
C5A C 0.2978(4) -0.0190(4) 0.83313(18)
H4A H 0.27430 -0.00780 0.78980
H5A H 0.25560 -0.06650 0.84970
H6A H 0.35510 -0.06070 0.83990
C6A C 0.3367(2) 0.0846(4) 0.93145(15)
H7A H 0.39340 0.04150 0.94230
H8A H 0.29040 0.03880 0.94470
H9A H 0.34310 0.16300 0.95110
C7A C 0.37962(18) 0.1751(3) 0.84255(13)
H10A H 0.43400 0.12630 0.84550
H11A H 0.39560 0.24440 0.86980
C8A C 0.34836(17) 0.2211(3) 0.77716(13)
H12A H 0.29420 0.27070 0.77370
H13A H 0.33320 0.15250 0.74930
C9A C 0.42287(18) 0.2963(2) 0.75944(13)
H14A H 0.39760 0.34070 0.72190
H15A H 0.44540 0.35560 0.79150
N1A N 0.31054(15) 0.1009(2) 0.86376(10)
H16A H 0.25250 0.14470 0.85350
#END
