
#######################################################################
#
#                 Cambridge Crystallographic Data Centre
#                                CCDC
#
#######################################################################
#
# If this CIF has been generated from an entry in the Cambridge
# Structural Database, then it will include bibliographic, chemical,
# crystal, experimental, refinement or atomic coordinate data resulting
# from the CCDC's data processing and validation procedures.
#
#######################################################################

data_CSD_CIF_DUWRAQ
_audit_creation_date 2015-11-19
_audit_creation_method CSD-ConQuest-V1
_database_code_CSD DUWRAQ
_database_code_depnum_ccdc_archive 'CCDC 1431028'
_chemical_formula_sum 'C10 H20 Mg4 N2 O22 P2'
_chemical_formula_moiety
;
(C6 H6 Mg4 O22 P2 2-)n,n(C4 H14 N2 2+)
;
_journal_coden_Cambridge 1350
_journal_volume 17
_journal_year 2015
_journal_page_first 9296
_journal_name_full 'CrystEngComm '
loop_
_publ_author_name
"Wei Zhang"
"Maoping Kang"
"Meng Yang"
"Daibing Luo"
"Zhien Lin"
_chemical_name_systematic
;
catena-(Butane-1,4-diammonium bis(\m~4~-hydrogen 
phosphato)-(\m~4~-oxalato)-bis(\m~2~-oxalato)-diaqua-tetra-magnesium)
;
_cell_volume    554.043
_exptl_crystal_colour 'colorless'
_exptl_crystal_density_diffrn 2.036
_diffrn_ambient_temperature 293
#These two values have been output from a single CSD field.
_refine_ls_R_factor_gt 0.0416
_refine_ls_wR_factor_gt 0.0416
_symmetry_cell_setting triclinic
_symmetry_space_group_name_H-M 'P -1'
_symmetry_Int_Tables_number 2
loop_
_symmetry_equiv_pos_site_id
_symmetry_equiv_pos_as_xyz
1 x,y,z
2 -x,-y,-z
_cell_length_a 7.6627(3)
_cell_length_b 7.8432(3)
_cell_length_c 9.7695(3)
_cell_angle_alpha 72.092(3)
_cell_angle_beta 83.275(3)
_cell_angle_gamma 84.998(3)
_cell_formula_units_Z 1
loop_
_atom_type_symbol
_atom_type_radius_bond
C 0.68
H 0.23
Mg 1.41
N 0.68
O 0.68
P 1.05
loop_
_atom_site_label
_atom_site_type_symbol
_atom_site_fract_x
_atom_site_fract_y
_atom_site_fract_z
Mg1 Mg 0.37231(10) 0.01672(10) 0.73755(8)
Mg2 Mg 0.30514(10) 0.71166(10) 0.37331(8)
P1 P 0.41507(7) 0.28097(7) 0.40778(6)
O1 O 0.4899(2) 0.1951(2) 0.55436(17)
O2 O 0.4168(2) 0.4821(2) 0.36079(18)
O3 O 0.5093(2) 0.2049(2) 0.29263(18)
O4 O 0.2147(2) 0.2331(2) 0.4301(2)
H1 H 0.20460 0.14910 0.39870
O5 O 0.1306(2) -0.0704(2) 0.70125(19)
O6 O -0.1442(2) 0.0387(2) 0.6569(2)
O7 O 0.1892(2) 0.2197(2) 0.7690(2)
O8 O -0.0766(2) 0.3394(2) 0.7074(2)
O9 O 0.5576(2) 0.1356(2) 0.82543(18)
O10 O 0.6583(2) 0.1227(3) 1.03469(18)
O11 O 0.1692(2) 0.6431(3) 0.5824(2)
H2 H 0.07430 0.59130 0.58300
H3 H 0.14140 0.73810 0.60840
C1 C 0.0059(3) 0.0447(3) 0.6922(3)
C2 C 0.0421(3) 0.2179(3) 0.7267(3)
C3 C 0.5645(3) 0.0752(3) 0.9606(2)
N1 N -0.3216(3) -0.4746(3) 1.1294(2)
H4 H -0.43370 -0.43390 1.13320
H5 H -0.26100 -0.42290 1.17670
H6 H -0.31530 -0.59300 1.17010
C4 C -0.0509(5) -0.4191(5) 0.9596(4)
H7 H -0.00990 -0.39220 0.85780
H8 H -0.02460 -0.31880 0.99070
C5 C -0.2460(4) -0.4309(5) 0.9752(3)
H9 H -0.27480 -0.52260 0.93520
H10 H -0.29910 -0.31730 0.92030
O9A O 0.4424(2) -0.1356(2) 1.17457(18)
O10A O 0.3417(2) -0.1227(3) 0.96531(18)
C3A C 0.4355(3) -0.0752(3) 1.0394(2)
Mg1A Mg -0.37231(10) 0.98328(10) 0.26245(8)
Mg2A Mg -0.30514(10) 0.28834(10) 0.62669(8)
P1A P -0.41507(7) 0.71903(7) 0.59222(6)
O1A O -0.4899(2) 0.8049(2) 0.44564(17)
O2A O -0.4168(2) 0.5179(2) 0.63921(18)
O3A O -0.5093(2) 0.7951(2) 0.70737(18)
O4A O -0.2147(2) 0.7669(2) 0.5699(2)
H1A H -0.20460 0.85090 0.60130
O5A O -0.1306(2) 1.0704(2) 0.29875(19)
O6A O 0.1442(2) 0.9613(2) 0.3431(2)
O7A O -0.1892(2) 0.7803(2) 0.2310(2)
O8A O 0.0766(2) 0.6606(2) 0.2926(2)
O11A O -0.1692(2) 0.3569(3) 0.4176(2)
H2A H -0.07430 0.40870 0.41700
H3A H -0.14140 0.26190 0.39160
C1A C -0.0059(3) 0.9553(3) 0.3078(3)
C2A C -0.0421(3) 0.7821(3) 0.2733(3)
Mg1* Mg -0.62769(10) 1.01672(10) 0.73755(8)
Mg1A* Mg 0.62769(10) -0.01672(10) 0.26245(8)
Mg1A** Mg 0.62769(10) -0.01672(10) 1.26245(8)
Mg2* Mg -0.69486(10) 0.71166(10) 0.37331(8)
Mg2** Mg 0.30514(10) -0.28834(10) 1.37331(8)
Mg2A* Mg 0.69486(10) 0.28834(10) 0.62669(8)
O1* O -0.5101(2) 0.1951(2) 0.55436(17)
O1A* O 0.5101(2) 0.8049(2) 0.44564(17)
O3* O -0.4907(2) 1.2049(2) 0.29263(18)
O3A* O 0.4907(2) -0.2049(2) 0.70737(18)
O9* O -0.4424(2) 0.1356(2) 0.82543(18)
O9A* O -0.5576(2) 0.8644(2) 0.17457(18)
O9A** O 0.4424(2) 0.8644(2) 0.17457(18)
O10* O -0.3417(2) 1.1227(3) 0.03469(18)
N1A N 0.3216(3) -0.5254(3) 0.8706(2)
H4A H 0.43370 -0.56610 0.86680
H5A H 0.26100 -0.57710 0.82330
H6A H 0.31530 -0.40700 0.82990
C4A C 0.0509(5) -0.5809(5) 1.0404(4)
H7A H 0.00990 -0.60780 1.14220
H8A H 0.02460 -0.68120 1.00930
C5A C 0.2460(4) -0.5691(5) 1.0248(3)
H9A H 0.27480 -0.47740 1.06480
H10A H 0.29910 -0.68270 1.07970
#END
