
#######################################################################
#
#                 Cambridge Crystallographic Data Centre
#                                CCDC
#
#######################################################################
#
# If this CIF has been generated from an entry in the Cambridge
# Structural Database, then it will include bibliographic, chemical,
# crystal, experimental, refinement or atomic coordinate data resulting
# from the CCDC's data processing and validation procedures.
#
#######################################################################

data_CSD_CIF_DUWRUK
_audit_creation_date 2015-11-19
_audit_creation_method CSD-ConQuest-V1
_database_code_CSD DUWRUK
_database_code_depnum_ccdc_archive 'CCDC 1431032'
_chemical_formula_sum 'C16 H33 Mg4 N4 O30 P3'
_chemical_formula_moiety
;
(C8 H5 Mg4 O28 P3 4-)n,2n(C4 H12 N2 2+),2n(H2 O1)
;
_journal_coden_Cambridge 1350
_journal_volume 17
_journal_year 2015
_journal_page_first 9296
_journal_name_full 'CrystEngComm '
loop_
_publ_author_name
"Wei Zhang"
"Maoping Kang"
"Meng Yang"
"Daibing Luo"
"Zhien Lin"
_chemical_name_systematic
;
catena-(bis(Piperazinedi-ium) bis(\m~3~-oxalato)-(\m~2~-dihydrogen 
phosphato)-bis(\m~2~-oxalato)-tetra-magnesium dihydrate)
;
_cell_volume    842.900
_exptl_crystal_colour 'colorless'
_exptl_crystal_density_diffrn 1.875
_diffrn_ambient_temperature 293.1
#These two values have been output from a single CSD field.
_refine_ls_R_factor_gt 0.0473
_refine_ls_wR_factor_gt 0.0473
_symmetry_cell_setting triclinic
_symmetry_space_group_name_H-M 'P 1'
_symmetry_Int_Tables_number 1
loop_
_symmetry_equiv_pos_site_id
_symmetry_equiv_pos_as_xyz
1 x,y,z
_cell_length_a 7.7738(3)
_cell_length_b 9.4840(3)
_cell_length_c 11.9243(5)
_cell_angle_alpha 78.102(3)
_cell_angle_beta 78.574(4)
_cell_angle_gamma 86.183(3)
_cell_formula_units_Z 1
loop_
_atom_type_symbol
_atom_type_radius_bond
C 0.68
H 0.23
Mg 1.41
N 0.68
O 0.68
P 1.05
loop_
_atom_site_label
_atom_site_type_symbol
_atom_site_fract_x
_atom_site_fract_y
_atom_site_fract_z
Mg1 Mg 0.9966(2) 0.58361(19) 0.18645(15)
Mg2 Mg 0.3151(2) 0.4764(2) -0.00331(15)
Mg3 Mg 0.1255(2) 0.0262(2) 0.39627(15)
Mg4 Mg 0.2159(2) 0.0451(2) 0.77128(15)
P1 P 0.61886(16) 0.50132(15) 0.15414(11)
P2 P 0.43332(17) 0.14659(15) 0.49998(12)
P3 P -0.05459(16) -0.11586(16) 0.67153(12)
O1 O 0.5202(5) 0.5270(5) 0.0549(4)
O2 O 0.8025(5) 0.5513(5) 0.1141(4)
O3 O 0.5295(5) 0.5944(5) 0.2480(4)
H1 H 0.42340 0.58190 0.26380
O4 O 0.6097(7) 0.3419(5) 0.2175(4)
H2 H 0.54660 0.33570 0.28210
O5 O 0.3588(5) 0.0473(5) 0.4394(4)
O6 O 0.3298(6) 0.1530(5) 0.6180(4)
O7 O 0.4735(6) 0.2953(5) 0.4262(4)
O8 O 0.6221(6) 0.0735(5) 0.5218(4)
H3 H 0.69450 0.13660 0.50930
O9 O 0.0321(6) -0.1054(5) 0.5471(4)
O10 O -0.0119(5) 0.0016(5) 0.7275(4)
O11 O -0.2604(5) -0.1251(5) 0.6882(4)
H4 H -0.30190 -0.04600 0.66280
O12 O -0.0049(6) -0.2650(5) 0.7421(4)
H5 H -0.09460 -0.30610 0.77850
O13 O 0.8790(5) 0.7712(4) 0.2359(4)
O14 O 0.9273(5) 0.9542(5) 0.3163(4)
O15 O 1.1880(5) 0.6549(5) 0.2657(4)
O16 O 1.2530(5) 0.8474(4) 0.3279(3)
O17 O 0.1603(5) 0.4057(4) 0.1580(3)
O18 O 0.1995(5) 0.1729(5) 0.2357(4)
O19 O -0.0832(5) 0.4341(5) 0.3430(4)
O20 O -0.0394(5) 0.2036(5) 0.4245(4)
O21 O 0.3505(5) -0.1493(4) 0.7526(3)
O22 O 0.3913(5) -0.3749(5) 0.8416(3)
O23 O 0.1270(5) -0.1012(5) 0.9440(4)
O24 O 0.1572(5) -0.3343(5) 1.0264(3)
O25 O 0.0778(5) 0.2177(5) 0.8367(4)
O26 O 0.1182(5) 0.3997(5) 0.9224(4)
O27 O 0.3987(5) 0.1178(5) 0.8549(4)
O28 O 0.4407(5) 0.2953(5) 0.9423(4)
C1 C 0.9686(7) 0.8411(6) 0.2810(5)
C2 C 1.1537(7) 0.7756(6) 0.2930(4)
C3 C 0.1308(7) 0.2935(7) 0.2374(5)
C4 C -0.0125(7) 0.3132(6) 0.3455(5)
C5 C 0.3222(7) -0.2522(6) 0.8364(5)
C6 C 0.1886(7) -0.2248(6) 0.9460(5)
C7 C 0.1650(7) 0.2884(7) 0.8828(5)
C8 C 0.3521(7) 0.2274(6) 0.8940(4)
O29 O 0.8167(19) 0.2979(11) -0.3126(12)
H6 H 0.79590 0.32120 -0.24600
H7 H 0.90440 0.34370 -0.35520
O30 O -0.1944(6) -0.4828(6) 0.8520(4)
H8 H -0.28800 -0.46390 0.89760
H9 H -0.12370 -0.53190 0.89180
N1 N 0.5982(10) 0.7301(8) -0.5222(6)
H10 H 0.65230 0.81190 -0.52830
H11 H 0.59330 0.71890 -0.59380
N2 N 0.4321(14) 0.4774(9) -0.3788(7)
H12 H 0.43700 0.48750 -0.30690
H13 H 0.37830 0.39570 -0.37350
C9 C 0.4170(8) 0.7381(7) -0.4533(5)
H14 H 0.42250 0.75850 -0.37770
H15 H 0.35130 0.81640 -0.49340
C10 C 0.3278(10) 0.605(1) -0.4374(7)
H16 H 0.31270 0.58910 -0.51260
H17 H 0.21230 0.61170 -0.38950
C11 C 0.6993(10) 0.6066(9) -0.4641(7)
H18 H 0.81490 0.59950 -0.51190
H19 H 0.71440 0.62390 -0.38930
C12 C 0.6094(9) 0.4708(7) -0.4464(5)
H20 H 0.60390 0.44920 -0.52160
H21 H 0.67600 0.39350 -0.40600
N3 N 0.7365(7) 0.0640(9) -0.0549(6)
H22 H 0.65270 0.12470 -0.07870
H23 H 0.83150 0.07590 -0.11120
N4 N 0.5753(6) -0.0844(6) 0.1694(4)
H24 H 0.66340 -0.14430 0.18700
H25 H 0.48430 -0.10230 0.22820
C13 C 0.678(1) -0.084(1) -0.0357(6)
H26 H 0.77360 -0.15080 -0.01820
H27 H 0.64530 -0.10080 -0.10610
C14 C 0.5264(9) -0.1104(8) 0.0618(6)
H28 H 0.48980 -0.20900 0.07380
H29 H 0.42880 -0.04670 0.04310
C15 C 0.7791(9) 0.1001(8) 0.0542(8)
H30 H 0.88230 0.04460 0.07350
H31 H 0.80530 0.20150 0.04000
C16 C 0.6294(8) 0.0675(8) 0.1541(6)
H32 H 0.53110 0.13290 0.13980
H33 H 0.66360 0.08160 0.22480
Mg1* Mg -0.0034(2) -0.41639(19) 1.18645(15)
Mg1** Mg -0.0034(2) 0.58361(19) 0.18645(15)
Mg2* Mg 0.3151(2) -0.5236(2) 0.99669(15)
Mg2** Mg 0.3151(2) 0.4764(2) 0.99669(15)
Mg3* Mg 1.1255(2) 1.0262(2) 0.39627(15)
O14* O -0.0727(5) -0.0458(5) 0.3163(4)
O16* O 0.2530(5) -0.1526(4) 0.3279(3)
O17* O 1.1603(5) 0.4057(4) 0.1580(3)
O19* O 0.9168(5) 0.4341(5) 0.3430(4)
O22* O 0.3913(5) 0.6251(5) -0.1584(3)
O24* O 0.1572(5) 0.6657(5) 0.0264(3)
O24** O 1.1572(5) 0.6657(5) 0.0264(3)
O26* O 0.1182(5) 0.3997(5) -0.0776(4)
O28* O 0.4407(5) 0.2953(5) -0.0577(4)
#END
