
#######################################################################
#
#                 Cambridge Crystallographic Data Centre
#                                CCDC
#
#######################################################################
#
# If this CIF has been generated from an entry in the Cambridge
# Structural Database, then it will include bibliographic, chemical,
# crystal, experimental, refinement or atomic coordinate data resulting
# from the CCDC's data processing and validation procedures.
#
#######################################################################

data_CSD_CIF_DUWREU
_audit_creation_date 2015-11-19
_audit_creation_method CSD-ConQuest-V1
_database_code_CSD DUWREU
_database_code_depnum_ccdc_archive 'CCDC 1431029'
_chemical_formula_sum 'C8 H18 Mg2 N2 O16 P2'
_chemical_formula_moiety
;
(C4 H4 Mg2 O16 P2 2-)n,n(C4 H14 N2 2+)
;
_journal_coden_Cambridge 1350
_journal_volume 17
_journal_year 2015
_journal_page_first 9296
_journal_name_full 'CrystEngComm '
loop_
_publ_author_name
"Wei Zhang"
"Maoping Kang"
"Meng Yang"
"Daibing Luo"
"Zhien Lin"
_chemical_name_systematic
;
catena-(Butane-1,4-diammonium bis(\m~2~-dihydrogen 
phosphato)-bis(\m~2~-oxalato)-di-magnesium)
;
_cell_volume   1786.745
_exptl_crystal_colour 'colorless'
_exptl_crystal_density_diffrn 1.891
_exptl_crystal_description 'block'
_diffrn_ambient_temperature 293
_refine_special_details
;
C5 and C5' disordered over two sites with occupancies 0.580:0.420.

;
#These two values have been output from a single CSD field.
_refine_ls_R_factor_gt 0.0539
_refine_ls_wR_factor_gt 0.0539
_symmetry_cell_setting orthorhombic
_symmetry_space_group_name_H-M 'P c c n'
_symmetry_Int_Tables_number 56
loop_
_symmetry_equiv_pos_site_id
_symmetry_equiv_pos_as_xyz
1 x,y,z
2 1/2-x,1/2-y,z
3 -x,1/2+y,1/2-z
4 1/2+x,-y,1/2-z
5 -x,-y,-z
6 -1/2+x,-1/2+y,-z
7 x,-1/2-y,-1/2+z
8 -1/2-x,y,-1/2+z
_cell_length_a 8.23203(11)
_cell_length_b 16.34232(15)
_cell_length_c 13.28134(15)
_cell_angle_alpha 90
_cell_angle_beta 90
_cell_angle_gamma 90
_cell_formula_units_Z 4
loop_
_atom_type_symbol
_atom_type_radius_bond
C 0.68
H 0.23
Mg 1.41
N 0.68
O 0.68
P 1.05
loop_
_atom_site_label
_atom_site_type_symbol
_atom_site_fract_x
_atom_site_fract_y
_atom_site_fract_z
Mg1 Mg 0.79894(12) 0.58229(6) 0.63166(7)
P1 P 0.93283(9) 0.43414(4) 0.77734(5)
O1 O 0.8631(3) 0.51606(14) 0.75269(18)
O2 O 1.0561(3) 0.43500(14) 0.85987(18)
O3 O 1.0090(3) 0.39595(15) 0.67865(16)
H1 H 1.09310 0.37170 0.69300
O4 O 0.7938(3) 0.37207(15) 0.8018(2)
H2 H 0.73470 0.39130 0.84560
O5 O 0.7906(3) 0.49525(14) 0.51554(16)
O6 O 0.9536(3) 0.42332(13) 0.41374(17)
O7 O 0.7687(3) 0.68207(13) 0.53270(16)
O8 O 0.7182(3) 0.81663(13) 0.73321(16)
C1 C 0.9252(4) 0.47666(17) 0.4794(2)
C2 C 0.75000 0.75000 0.5742(3)
C3 C 0.75000 0.75000 0.6917(3)
C4 C 0.4208(8) 0.6979(4) 0.3964(4)
H3 H 0.34140 0.69130 0.34300
H4 H 0.50750 0.73180 0.36970
C5 C 0.3396(10) 0.7456(6) 0.4812(7)
H5 H 0.37030 0.71980 0.54420
H6 H 0.38590 0.80010 0.48160
N1 N 0.4898(5) 0.61664(19) 0.4178(3)
H7 H 0.53540 0.59670 0.36230
H8 H 0.41120 0.58310 0.43820
H9 H 0.56460 0.62100 0.46590
H10? H 0.50120 0.74010 0.40870
H11? H 0.38700 0.70120 0.32650
C6? C 0.2897(14) 0.7084(9) 0.4589(11)
H12? H 0.32410 0.69630 0.52710
H13? H 0.20800 0.66820 0.44070
O5D O 1.2094(3) 0.50475(14) 0.48446(16)
O6D O 1.0464(3) 0.57668(13) 0.58626(17)
C1D C 1.0748(4) 0.52334(17) 0.5206(2)
O7A O 0.7313(3) 0.81793(13) 0.53270(16)
O8A O 0.7818(3) 0.68337(13) 0.73321(16)
Mg1A Mg 0.70106(12) 0.91771(6) 0.63166(7)
P1A P 0.56717(9) 1.06586(4) 0.77734(5)
O1A O 0.6369(3) 0.98394(14) 0.75269(18)
O2A O 0.4439(3) 1.06500(14) 0.85987(18)
O3A O 0.4910(3) 1.10405(15) 0.67865(16)
H1A H 0.40690 1.12830 0.69300
O4A O 0.7062(3) 1.12793(15) 0.8018(2)
H2A H 0.76530 1.10870 0.84560
Mg1B Mg 0.20106(12) 1.08229(6) 0.86834(7)
Mg1C Mg 1.29894(12) 0.41771(6) 0.86834(7)
Mg1D Mg 1.20106(12) 0.41771(6) 0.36834(7)
O2B O 0.9439(3) 0.93500(14) 0.64013(18)
O2C O 0.5561(3) 0.56500(14) 0.64013(18)
O5A O 0.7094(3) 1.00475(14) 0.51554(16)
O6E O 0.4536(3) 0.92332(13) 0.58626(17)
C4A C 0.0792(8) 0.8021(4) 0.3964(4)
H3A H 0.15860 0.80870 0.34300
H4A H -0.00750 0.76820 0.36970
C5A C 0.1604(10) 0.7544(6) 0.4812(7)
H5A H 0.12970 0.78020 0.54420
H6A H 0.11410 0.69990 0.48160
N1A N 0.0102(5) 0.88336(19) 0.4178(3)
H7A H -0.03540 0.90330 0.36230
H8A H 0.08880 0.91690 0.43820
H9A H -0.06460 0.87900 0.46590
#END
