
#######################################################################
#
#                 Cambridge Crystallographic Data Centre
#                                CCDC
#
#######################################################################
#
# If this CIF has been generated from an entry in the Cambridge
# Structural Database, then it will include bibliographic, chemical,
# crystal, experimental, refinement or atomic coordinate data resulting
# from the CCDC's data processing and validation procedures.
#
#######################################################################

data_CSD_CIF_DUWSAR
_audit_creation_date 2015-11-19
_audit_creation_method CSD-ConQuest-V1
_database_code_CSD DUWSAR
_database_code_depnum_ccdc_archive 'CCDC 1431033'
_chemical_formula_sum 'C20 H58 Mg4 N6 O38 P4'
_chemical_formula_moiety
;
(C8 H10 Mg4 O34 P4 6-)n,2n(C6 H20 N3 3+),4n(H2 O1)
;
_journal_coden_Cambridge 1350
_journal_volume 17
_journal_year 2015
_journal_page_first 9296
_journal_name_full 'CrystEngComm '
loop_
_publ_author_name
"Wei Zhang"
"Maoping Kang"
"Meng Yang"
"Daibing Luo"
"Zhien Lin"
_chemical_name_systematic
;
catena-(bis(Dipropylenetriammonium) bis(\m~2~-hydrogen 
phosphato)-tetrakis(\m~2~-oxalato)-diaqua-bis(dihydrogen 
phosphato)-tetra-magnesium tetrahydrate)
;
_cell_volume   1163.067
_exptl_crystal_colour 'colorless'
_exptl_crystal_density_diffrn 1.73
_diffrn_ambient_temperature 292.8
_refine_special_details
;
OW3 and OW3' disordered over two sites with occupancies 0.68:0.32.

;
#These two values have been output from a single CSD field.
_refine_ls_R_factor_gt 0.0462
_refine_ls_wR_factor_gt 0.0462
_symmetry_cell_setting triclinic
_symmetry_space_group_name_H-M 'P -1'
_symmetry_Int_Tables_number 2
loop_
_symmetry_equiv_pos_site_id
_symmetry_equiv_pos_as_xyz
1 x,y,z
2 -x,-y,-z
_cell_length_a 9.3254(2)
_cell_length_b 9.4280(3)
_cell_length_c 14.3060(4)
_cell_angle_alpha 96.449(2)
_cell_angle_beta 103.879(2)
_cell_angle_gamma 104.350(2)
_cell_formula_units_Z 1
loop_
_atom_type_symbol
_atom_type_radius_bond
C 0.68
H 0.23
Mg 1.41
N 0.68
O 0.68
P 1.05
loop_
_atom_site_label
_atom_site_type_symbol
_atom_site_fract_x
_atom_site_fract_y
_atom_site_fract_z
Mg1 Mg 0.20695(8) 0.48237(8) 0.89214(5)
Mg2 Mg 0.16084(8) 0.29821(7) 0.53675(5)
P1 P 0.33949(6) 0.59343(6) 0.71123(3)
P2 P 0.38416(7) 0.14903(6) 0.43207(4)
O1 O 0.25911(19) 0.59703(18) 0.79062(11)
O2 O 0.31249(19) 0.44102(18) 0.65459(12)
O3 O 0.51454(19) 0.66767(19) 0.75113(13)
O4 O 0.27001(18) 0.69471(18) 0.64198(11)
H1 H 0.33180 0.73040 0.61270
O5 O 0.3398(2) 0.26533(19) 0.48894(13)
O6 O 0.3302(3) 0.1485(3) 0.32177(14)
H2 H 0.39170 0.21470 0.30710
O7 O 0.2926(2) -0.0098(2) 0.44178(18)
H3 H 0.35250 -0.04990 0.47250
O8 O 0.5564(2) 0.1715(2) 0.46475(15)
O9 O 0.05086(19) 0.60278(19) 0.91350(12)
O10 O -0.11317(19) 0.62010(19) 1.00228(12)
O11 O 0.39429(18) 0.62770(18) 1.00460(11)
O12 O 0.63122(17) 0.63904(17) 1.09309(11)
O13 O -0.00395(18) 0.12868(17) 0.42257(11)
O14 O -0.12577(17) -0.11447(16) 0.39272(11)
O15 O 0.12749(17) 0.44567(17) 0.44259(11)
O16 O 0.01410(17) 0.62725(17) 0.42108(11)
O17 O 0.0529(2) 0.3117(2) 0.78648(12)
H4 H -0.02270 0.24770 0.79400
H5 H 0.03120 0.32050 0.72740
C1 C -0.0182(2) 0.5655(2) 0.97538(15)
C2 C 0.5064(2) 0.5775(2) 1.02772(14)
C3 C -0.0378(2) 0.0046(2) 0.44620(14)
C4 C 0.0411(2) 0.5224(2) 0.46020(14)
O18 O 0.1631(3) -0.0907(2) 0.17567(18)
H6 H 0.14320 -0.04890 0.12590
H7 H 0.19040 -0.01690 0.22770
O19 O 0.2315(10) 0.1589(5) 1.0806(6)
O20? O 0.1938(12) 0.200(2) 1.1233(18)
N1 N 0.6254(2) 0.4529(2) 0.63152(15)
H8 H 0.68370 0.48970 0.59400
H9 H 0.54000 0.38540 0.59430
H10 H 0.60040 0.52630 0.66270
N2 N 0.3742(2) 0.1318(2) 0.77014(13)
H11 H 0.37920 0.20740 0.81530
H12 H 0.27910 0.10220 0.73000
N3 N 0.0697(3) -0.2061(3) 0.76699(18)
H13 H -0.03170 -0.22260 0.74450
H14 H 0.11250 -0.19380 0.71810
H15 H 0.08940 -0.28360 0.79230
C5 C 0.7125(3) 0.3818(3) 0.70432(19)
H16 H 0.80640 0.45520 0.74410
H17 H 0.74120 0.30300 0.67020
C6 C 0.6177(3) 0.3181(3) 0.76954(17)
H18 H 0.68240 0.28840 0.82310
H19 H 0.57780 0.39370 0.79710
C7 C 0.4855(3) 0.1853(3) 0.71290(17)
H20 H 0.43100 0.21160 0.65370
H21 H 0.52620 0.10490 0.69370
C8 C 0.4043(3) 0.0071(3) 0.8192(2)
H22 H 0.51210 0.03420 0.85600
H23 H 0.38460 -0.08000 0.76980
C9 C 0.3066(4) -0.0314(3) 0.8873(2)
H24 H 0.32910 -0.11580 0.91430
H25 H 0.33790 0.05190 0.94130
C10 C 0.1354(4) -0.0682(3) 0.8449(3)
H26 H 0.11130 0.01510 0.81710
H27 H 0.08630 -0.08170 0.89710
O9A O -0.05086(19) 0.39722(19) 1.08650(12)
O10A O 0.11317(19) 0.37990(19) 0.99772(12)
C1A C 0.0182(2) 0.4345(2) 1.02462(15)
O11A O 0.60571(18) 0.37230(18) 0.99540(11)
O12A O 0.36878(17) 0.36096(17) 0.90691(11)
C2A C 0.4936(2) 0.4225(2) 0.97228(14)
O13A O 0.00395(18) -0.12868(17) 0.57743(11)
O14A O 0.12577(17) 0.11447(16) 0.60728(11)
C3A C 0.0378(2) -0.0046(2) 0.55380(14)
O15A O -0.12749(17) 0.55433(17) 0.55741(11)
O16A O -0.01410(17) 0.37275(17) 0.57892(11)
C4A C -0.0411(2) 0.4776(2) 0.53980(14)
Mg1A Mg -0.20695(8) -0.48237(8) 0.10786(5)
Mg2A Mg -0.16084(8) -0.29821(7) 0.46325(5)
P1A P -0.33949(6) -0.59343(6) 0.28877(3)
P2A P -0.38416(7) -0.14903(6) 0.56793(4)
O1A O -0.25911(19) -0.59703(18) 0.20938(11)
O2A O -0.31249(19) -0.44102(18) 0.34541(12)
O3A O -0.51454(19) -0.66767(19) 0.24887(13)
O4A O -0.27001(18) -0.69471(18) 0.35802(11)
H1A H -0.33180 -0.73040 0.38730
O5A O -0.3398(2) -0.26533(19) 0.51106(13)
O6A O -0.3302(3) -0.1485(3) 0.67823(14)
H2A H -0.39170 -0.21470 0.69290
O7A O -0.2926(2) 0.0098(2) 0.55822(18)
H3A H -0.35250 0.04990 0.52750
O8A O -0.5564(2) -0.1715(2) 0.53525(15)
O17A O -0.0529(2) -0.3117(2) 0.21352(12)
H4A H 0.02270 -0.24770 0.20600
H5A H -0.03120 -0.32050 0.27260
Mg1A* Mg -0.20695(8) 0.51763(8) 1.10786(5)
Mg1A** Mg 0.79305(8) 0.51763(8) 1.10786(5)
Mg2A* Mg -0.16084(8) 0.70179(7) 0.46325(5)
O9A* O -0.05086(19) -0.60278(19) 0.08650(12)
O10* O -0.11317(19) -0.37990(19) 0.00228(12)
O11A* O -0.39429(18) -0.62770(18) -0.00460(11)
O12* O -0.36878(17) -0.36096(17) 0.09309(11)
O15A* O -0.12749(17) -0.44567(17) 0.55741(11)
O16* O 0.01410(17) -0.37275(17) 0.42108(11)
#END
