
#######################################################################
#
#                 Cambridge Crystallographic Data Centre
#                                CCDC
#
#######################################################################
#
# If this CIF has been generated from an entry in the Cambridge
# Structural Database, then it will include bibliographic, chemical,
# crystal, experimental, refinement or atomic coordinate data resulting
# from the CCDC's data processing and validation procedures.
#
#######################################################################

data_CSD_CIF_DUXXEC
_audit_creation_date 2020-09-10
_audit_creation_method CSD-ConQuest-V1
_database_code_CSD DUXXEC
_database_code_depnum_ccdc_archive 'CCDC 1914467'
_chemical_formula_sum 'C36 H45 Cl13 Eu2 Hg4 N6 O20'
_chemical_formula_moiety
;
(C18 H18 Eu1 N3 O8 2+)2n,Cl5 Hg2 1-,2(Cl4 Hg1 2-),3(H2 O1),H3 O1 1+
;
_journal_coden_Cambridge 208
_journal_volume 292
_journal_year 2020
_journal_page_first 121700
_journal_name_full 'J.Solid State Chem. '
loop_
_publ_author_name
"Wen-Tong Chen"
_chemical_name_systematic
;
catena-[bis(tris(\m-pyridine-4-carboxylato)-dioxonium-europium(iii)) oxonium 
bis(tetrachloro-mercury(ii)) tris(\m-chloro)-dichloro-di-mercury(ii)]
;
_cell_volume   6094.956
_exptl_crystal_colour 'yellow'
_exptl_crystal_density_diffrn 2.669
_exptl_crystal_description 'block'
_diffrn_ambient_temperature 293
#These two values have been output from a single CSD field.
_refine_ls_R_factor_gt 0.0582
_refine_ls_wR_factor_gt 0.0582
_symmetry_cell_setting monoclinic
_symmetry_space_group_name_H-M 'C 2/c'
_symmetry_Int_Tables_number 15
loop_
_symmetry_equiv_pos_site_id
_symmetry_equiv_pos_as_xyz
1 x,y,z
2 -x,y,1/2-z
3 1/2+x,1/2+y,z
4 1/2-x,1/2+y,1/2-z
5 -x,-y,-z
6 x,-y,-1/2+z
7 -1/2-x,-1/2-y,-z
8 -1/2+x,-1/2-y,-1/2+z
_cell_length_a 24.2425(5)
_cell_length_b 20.7964(4)
_cell_length_c 15.3532(3)
_cell_angle_alpha 90
_cell_angle_beta 128.055(2)
_cell_angle_gamma 90
_cell_formula_units_Z 4
loop_
_atom_type_symbol
_atom_type_radius_bond
C 0.68
H 0.23
Cl 0.99
Eu 1.98
Hg 1.32
N 0.68
O 0.68
loop_
_atom_site_label
_atom_site_type_symbol
_atom_site_fract_x
_atom_site_fract_y
_atom_site_fract_z
Eu1 Eu 0.381165(9) 0.756132(12) 0.616808(16)
O1 O 0.32595(15) 0.64873(17) 0.5363(3)
H1 H 0.31550 0.64550 0.47450
O2 O 0.31770(16) 0.85843(19) 0.5577(3)
H2 H 0.27680 0.85200 0.53170
O3 O 0.18390(18) 0.7391(2) 0.5793(3)
O4 O 0.29285(16) 0.7514(2) 0.6383(3)
O5 O 0.42782(17) 0.6788(2) 0.7589(3)
O6 O 0.54033(17) 0.6966(2) 0.8954(3)
O7 O 0.43807(19) 0.8161(2) 0.7854(3)
O8 O 0.55318(16) 0.8373(2) 0.8948(3)
N1 N 0.4705(3) 0.5520(3) 1.0655(4)
C1 C 0.4148(3) 0.5550(4) 0.9588(6)
H3 H 0.37430 0.53220 0.93300
C2 C 0.4176(2) 0.5925(3) 0.8861(4)
H4 H 0.37910 0.59530 0.81170
C3 C 0.4800(2) 0.6259(3) 0.9277(4)
C4 C 0.5348(3) 0.6184(4) 1.0361(4)
H5 H 0.57730 0.63820 1.06450
C5 C 0.5290(4) 0.5820(4) 1.1053(5)
H6 H 0.56670 0.57880 1.18010
N2 N 0.4724(3) 0.9525(4) 1.0742(5)
C6 C 0.4191(6) 0.9385(7) 0.9848(10)
H7 H 0.37640 0.95220 0.96590
C7 C 0.4196(3) 0.9004(4) 0.9050(5)
H8 H 0.37860 0.88830 0.83670
C8 C 0.4842(2) 0.8839(3) 0.9379(4)
C9 C 0.5425(4) 0.9026(4) 1.0414(5)
H9 H 0.58760 0.89120 1.06840
C10 C 0.5293(4) 0.9410(4) 1.1058(6)
H10 H 0.56710 0.95690 1.17420
N3 N 0.3231(3) 0.6988(4) 0.9789(5)
C11 C 0.4827(2) 0.6698(3) 0.8531(4)
C12 C 0.2541(3) 0.6908(4) 0.8965(5)
H11 H 0.22460 0.67630 0.91180
C13 C 0.2270(3) 0.7048(3) 0.7859(4)
H12 H 0.17990 0.69890 0.72710
C14 C 0.2737(2) 0.7279(3) 0.7688(4)
C15 C 0.3438(3) 0.7361(4) 0.8596(4)
H13 H 0.37510 0.75130 0.84840
C16 C 0.3681(4) 0.7221(5) 0.9657(6)
H14 H 0.41470 0.72900 1.02600
C17 C 0.2467(2) 0.7405(2) 0.6513(4)
C18 C 0.4922(2) 0.8418(3) 0.8658(4)
Hg1 Hg 0.217385(11) 0.974136(14) -0.074812(18)
Cl1 Cl 0.19963(9) 0.86402(9) -0.15005(12)
Cl2 Cl 0.26480(7) 1.04422(10) -0.14393(12)
Cl3 Cl 0.27507(8) 0.97706(9) 0.12368(12)
Cl4 Cl 0.09450(6) 1.01822(7) -0.16386(10)
Hg2 Hg 0.48500(2) 0.78915(3) 1.27054(4)
Cl5 Cl 0.50000 0.6739(3) 1.25000
Cl6 Cl 0.46450(15) 0.76406(17) 1.4052(3)
Cl7 Cl 0.39356(11) 0.85015(16) 1.1295(3)
O9 O 0.0790(2) 0.5250(3) 0.3276(4)
O10 O 0.2212(3) 0.8941(4) 0.6679(4)
Eu1A Eu 0.618835(9) 0.756132(12) 0.883192(16)
Eu1F Eu 0.118835(9) 0.743868(12) 0.383192(16)
O3F O 0.31610(18) 0.7609(2) 0.4207(3)
O6A O 0.45967(17) 0.6966(2) 0.6046(3)
O8A O 0.44682(16) 0.8373(2) 0.6052(3)
Hg2A Hg 0.51500(2) 0.78915(3) 1.22946(4)
Cl6A Cl 0.53550(15) 0.76406(17) 1.0948(3)
Cl7A Cl 0.60644(11) 0.85015(16) 1.3705(3)
#END
