
#######################################################################
#
#                 Cambridge Crystallographic Data Centre
#                                CCDC
#
#######################################################################
#
# If this CIF has been generated from an entry in the Cambridge
# Structural Database, then it will include bibliographic, chemical,
# crystal, experimental, refinement or atomic coordinate data resulting
# from the CCDC's data processing and validation procedures.
#
#######################################################################

data_CSD_CIF_DUYBIL
_audit_creation_date 2020-09-10
_audit_creation_method CSD-ConQuest-V1
_database_code_CSD DUYBIL
_database_code_depnum_ccdc_archive 'CCDC 1527269'
_chemical_formula_sum 'C52 H68 Cd3 N4 O27'
_chemical_formula_moiety
;
(C48 H32 Cd3 N2 O17 2-)n,10(H2 O1),2(C2 H8 N1 1+)
;
_journal_coden_Cambridge 155
_journal_volume 514
_journal_year 2021
_journal_page_first 119986
_journal_name_full 'Inorg.Chim.Acta '
loop_
_publ_author_name
"Rui-Ning Li"
"Xiao-Hai Guo"
"Zhe-Yang Wang"
"Heping Jiang"
"Lindong Luan"
"Ming-Xing Li"
"Xiang He"
_chemical_name_systematic
;
catena-[bis(dimethylammonium) 
bis(\m-5-{bis[(4-(carboxylato)phenyl)methyl]amino}benzene-1,3-dicarboxylato)-a
qua-tri-cadmium(ii) decahydrate]
;
_cell_volume   3200.815
_exptl_crystal_colour 'colorless'
_exptl_crystal_description 'block'
_diffrn_ambient_temperature 296.1
_refine_special_details
;
Disordered cations (dimethylammonium) and solvent molecules (water) were not 
modelled and the disordered density was taken into account using the 
MASK/OLEX2 procedure.
;
#These two values have been output from a single CSD field.
_refine_ls_R_factor_gt 0.0485
_refine_ls_wR_factor_gt 0.0485
_symmetry_cell_setting triclinic
_symmetry_space_group_name_H-M 'P -1'
_symmetry_Int_Tables_number 2
loop_
_symmetry_equiv_pos_site_id
_symmetry_equiv_pos_as_xyz
1 x,y,z
2 -x,-y,-z
_cell_length_a 14.887(13)
_cell_length_b 15.966(14)
_cell_length_c 16.171(14)
_cell_angle_alpha 100.906(10)
_cell_angle_beta 108.511(10)
_cell_angle_gamma 110.885(10)
_cell_formula_units_Z 2
loop_
_atom_type_symbol
_atom_type_radius_bond
C 0.68
H 0.23
Cd 1.44
N 0.68
O 0.68
loop_
_atom_site_label
_atom_site_type_symbol
_atom_site_fract_x
_atom_site_fract_y
_atom_site_fract_z
Cd1 Cd 1.12874(3) 0.30597(2) 0.76490(2)
Cd2 Cd 1.28980(3) 0.56399(2) 0.76404(3)
Cd3 Cd 0.20337(4) 0.32539(3) 0.58151(3)
C1 C 1.0603(4) 0.4286(3) 0.6398(3)
C2 C 0.9482(4) 0.3967(3) 0.5772(3)
C3 C 0.9162(4) 0.4629(3) 0.5520(3)
H1 H 0.96309 0.52749 0.57813
C4 C 0.8142(4) 0.4324(3) 0.4877(3)
C5 C 0.7858(4) 0.5062(4) 0.4569(4)
C6 C 0.7414(4) 0.3371(3) 0.4516(3)
H2 H 0.67299 0.31766 0.40824
C7 C 0.8763(4) 0.3000(3) 0.5414(3)
H3 H 0.89826 0.25562 0.55816
C8 C 0.7712(3) 0.2701(3) 0.4805(3)
C9 C 0.7192(4) 0.1109(3) 0.4957(4)
H4 H 0.65406 0.06830 0.49623
H5 H 0.76904 0.14824 0.55977
C10 C 0.7642(4) 0.0502(3) 0.4534(4)
C11 C 0.8137(6) 0.0087(5) 0.5051(4)
H6 H 0.82583 0.02233 0.56723
C12 C 0.8471(6) -0.0547(4) 0.4657(5)
H7 H 0.88318 -0.08076 0.50241
C13 C 0.8262(4) -0.0777(3) 0.3736(4)
C14 C 0.8518(4) -0.1535(4) 0.3298(5)
C15 C 0.7816(5) -0.0312(4) 0.3230(4)
H8 H 0.77152 -0.04289 0.26134
C16 C 0.7522(5) 0.0321(4) 0.3624(4)
H9 H 0.72340 0.06358 0.32735
C17 C 0.5917(4) 0.1401(4) 0.3798(4)
H10 H 0.56122 0.07118 0.35447
H11 H 0.59574 0.16434 0.32973
C18 C 0.5167(4) 0.1666(4) 0.4134(4)
C19 C 0.4205(5) 0.1485(5) 0.3499(5)
H12 H 0.39893 0.11786 0.28721
C20 C 0.3541(6) 0.1768(6) 0.3807(6)
H13 H 0.28908 0.16560 0.33684
C21 C 0.3797(7) 0.2180(6) 0.4680(6)
C22 C 0.3135(7) 0.2580(7) 0.5057(8)
C23 C 0.4732(6) 0.2331(6) 0.5325(6)
H14 H 0.49099 0.26109 0.59493
C24 C 0.5447(6) 0.2072(5) 0.5068(5)
H15 H 0.60867 0.21721 0.55144
C25 C 0.3930(4) 0.4366(3) 0.7977(4)
C26 C 0.4758(3) 0.4117(3) 0.8537(3)
C27 C 0.5633(3) 0.4815(3) 0.9326(3)
H16 H 0.57367 0.54443 0.94784
C28 C 0.6341(3) 0.4575(3) 0.9874(3)
C29 C 0.7246(4) 0.5313(3) 1.0757(3)
C30 C 0.6213(4) 0.3633(3) 0.9634(3)
H17 H 0.66934 0.34752 1.00168
C31 C 0.5367(4) 0.2936(3) 0.8824(3)
C32 C 0.4622(3) 0.3190(3) 0.8288(3)
H18 H 0.40334 0.27283 0.77608
C33 C 0.5789(5) 0.1690(3) 0.9231(4)
H19 H 0.58293 0.19970 0.98290
H20 H 0.65060 0.19058 0.92774
C34 C 0.5293(4) 0.0627(3) 0.9012(3)
C35 C 0.4207(5) 0.0128(4) 0.8814(4)
H21 H 0.37966 0.04503 0.88256
C36 C 0.3775(6) -0.0846(4) 0.8606(4)
H22 H 0.30648 -0.11673 0.84873
C37 C 0.4301(6) -0.1352(3) 0.8563(4)
C38 C 0.3795(7) -0.2413(4) 0.8282(4)
C39 C 0.5365(7) -0.0875(4) 0.8757(4)
H23 H 0.57551 -0.12163 0.87445
C40 C 0.5862(6) 0.0122(4) 0.8973(4)
H24 H 0.65723 0.04339 0.90883
C41 C 0.5125(4) 0.1599(3) 0.7605(3)
H25 H 0.47258 0.18306 0.71890
H26 H 0.47354 0.09092 0.73851
C42 C 0.6195(4) 0.1867(4) 0.7564(4)
C43 C 0.6880(5) 0.2807(4) 0.7729(5)
H27 H 0.66622 0.32796 0.78352
C44 C 0.7872(5) 0.3055(5) 0.7738(5)
H28 H 0.83097 0.36850 0.78408
C45 C 0.8212(4) 0.2366(5) 0.7593(4)
C46 C 0.7554(5) 0.1437(5) 0.7413(5)
H29 H 0.77727 0.09657 0.72995
C47 C 0.6552(5) 0.1200(4) 0.7401(5)
H30 H 0.61100 0.05651 0.72768
C48 C 0.9320(5) 0.2629(6) 0.7641(5)
N1 N 0.5201(3) 0.1982(3) 0.8536(3)
N2 N 0.6973(3) 0.1754(3) 0.4494(3)
O1 O 1.1188(3) 0.5162(2) 0.6817(3)
O2 O 1.0954(3) 0.3672(2) 0.6476(2)
O3 O 0.8428(3) 0.5923(3) 0.5077(3)
O4 O 0.7082(3) 0.4810(3) 0.3810(3)
O5 O 0.2249(6) 0.2346(6) 0.4459(7)
O6 O 0.3458(7) 0.3028(6) 0.5850(6)
O7 O 0.3045(3) 0.3720(3) 0.7426(3)
O8 O 0.4197(3) 0.5237(3) 0.8147(3)
O9 O 0.7524(3) 0.6180(2) 1.0851(2)
O10 O 0.7714(3) 0.5053(2) 1.1388(2)
O11 O 0.2908(6) -0.2847(4) 0.8198(5)
O12 O 0.4249(6) -0.2856(3) 0.8095(5)
O13 O 0.9564(4) 0.2003(5) 0.7399(5)
O14 O 0.9950(4) 0.3484(5) 0.7916(4)
O15 O 0.8837(3) -0.1978(3) 0.3762(3)
O16 O 0.8359(4) -0.1710(3) 0.2456(3)
O17 O 0.0173(7) 0.2042(6) 0.4462(7)
O18 O 0.0165(8) 0.2266(6) 0.1951(5)
O19 O 0.8937(8) 0.8672(6) 0.0225(5)
O20 O -0.0938(12) 0.2626(10) 0.3106(10)
Cd1* Cd 0.12874(3) 0.30597(2) 0.76490(2)
Cd1A Cd 0.87126(3) -0.30597(2) 0.23510(2)
Cd1A* Cd 0.87126(3) 0.69403(2) 1.23510(2)
Cd2* Cd 0.28980(3) -0.43601(2) 0.76404(3)
Cd2** Cd 0.28980(3) 0.56399(2) 0.76404(3)
Cd2A Cd 0.71020(3) 0.43601(2) 0.23596(3)
Cd2A* Cd 0.71020(3) 0.43601(2) 1.23596(3)
Cd3* Cd 1.20337(4) 0.32539(3) 0.58151(3)
Cd3A Cd 0.79663(4) -0.32539(3) 0.41849(3)
Cd3A* Cd 0.79663(4) 0.67461(3) 0.41849(3)
O2* O 0.0954(3) 0.3672(2) 0.6476(2)
O3A O 0.1572(3) 0.4077(3) 0.4923(3)
O4A O 0.2918(3) 0.5190(3) 0.6190(3)
O4A* O 1.2918(3) 0.5190(3) 0.6190(3)
O7* O 1.3045(3) 0.3720(3) 0.7426(3)
O8* O 1.4197(3) 0.5237(3) 0.8147(3)
O9A O 1.2476(3) 0.3820(2) 0.9149(2)
O10A O 1.2286(3) 0.4947(2) 0.8612(2)
O11* O 1.2908(6) 0.7153(4) 0.8198(5)
O12* O 1.4249(6) 0.7144(3) 0.8095(5)
O15A O 0.1163(3) 0.1978(3) 0.6238(3)
O15A* O 1.1163(3) 0.1978(3) 0.6238(3)
O16A O 1.1641(4) 0.1710(3) 0.7544(3)
#END
