
#######################################################################
#
#                 Cambridge Crystallographic Data Centre
#                                CCDC
#
#######################################################################
#
# If this CIF has been generated from an entry in the Cambridge
# Structural Database, then it will include bibliographic, chemical,
# crystal, experimental, refinement or atomic coordinate data resulting
# from the CCDC's data processing and validation procedures.
#
#######################################################################

data_CSD_CIF_DUYBEG
_audit_creation_date 2015-11-20
_audit_creation_method CSD-ConQuest-V1
_database_code_CSD DUYBEG
_database_code_depnum_ccdc_archive 'CCDC 1404647'
_chemical_formula_sum 'C60 H48 Ag6 I11 K1 Mn2 N12'
_chemical_formula_moiety
;
2(C30 H24 Mn1 N6 2+),n(Ag6 I11 5-),K1 1+
;
_journal_coden_Cambridge 9
_journal_volume 54
_journal_year 2015
_journal_page_first 10593
_journal_name_full 'Inorg.Chem. '
loop_
_publ_author_name
"Xiao-Wu Lei"
"Cheng-Yang Yue"
"Jian-Qiang Zhao"
"Yong-Fang Han"
"Jiang-Tao Yang"
"Rong-Rong Meng"
"Chuan-Sheng Gao"
"Hao Ding"
"Chun-Yan Wang"
"Wan-Dong Chen"
"Mao-Chun Hong"
_chemical_name_systematic
;
catena-[bis(tris(2,2'-bipyridine)-manganese) potassium 
undecakis(\m-iodo)-hexa-silver]
;
_cell_volume   5911.121
_exptl_crystal_colour 'orange'
_exptl_crystal_density_diffrn 2.637
_exptl_crystal_description 'block'
_diffrn_ambient_temperature 296
#These two values have been output from a single CSD field.
_refine_ls_R_factor_gt 0.0275
_refine_ls_wR_factor_gt 0.0275
_symmetry_cell_setting rhombohedral
_symmetry_space_group_name_H-M 'R -3'
_symmetry_Int_Tables_number 148
loop_
_symmetry_equiv_pos_site_id
_symmetry_equiv_pos_as_xyz
1 x,y,z
2 -y,x-y,z
3 -x+y,-x,z
4 2/3+x,1/3+y,1/3+z
5 2/3-y,1/3+x-y,1/3+z
6 2/3-x+y,1/3-x,1/3+z
7 1/3+x,2/3+y,2/3+z
8 1/3-y,2/3+x-y,2/3+z
9 1/3-x+y,2/3-x,2/3+z
10 -x,-y,-z
11 y,-x+y,-z
12 x-y,x,-z
13 -2/3-x,-1/3-y,-1/3-z
14 -2/3+y,-1/3-x+y,-1/3-z
15 -2/3+x-y,-1/3+x,-1/3-z
16 -1/3-x,-2/3-y,-2/3-z
17 -1/3+y,-2/3-x+y,-2/3-z
18 -1/3+x-y,-2/3+x,-2/3-z
_cell_length_a 14.7159(8)
_cell_length_b 14.7159(8)
_cell_length_c 31.5185(17)
_cell_angle_alpha 90
_cell_angle_beta 90
_cell_angle_gamma 120
_cell_formula_units_Z 3
loop_
_atom_type_symbol
_atom_type_radius_bond
C 0.68
H 0.23
Ag 1.45
I 1.40
K 2.03
Mn 1.61
N 0.68
loop_
_atom_site_label
_atom_site_type_symbol
_atom_site_fract_x
_atom_site_fract_y
_atom_site_fract_z
I1 I 0.66670 -0.66670 0.538385(14)
I2 I 0.79231(3) -0.45532(3) 0.413082(11)
Ag1 Ag 0.80424(3) -0.61339(3) 0.462280(12)
I3 I 1.00000 -0.50000 0.50000
K1 K 0.66670 -0.66670 0.33330
Mn1 Mn 0.33330 -0.33330 0.28558(3)
N1 N 0.2382(3) -0.2771(3) 0.25022(10)
N2 N 0.3472(3) -0.1959(4) 0.32146(11)
C1 C 0.2452(3) -0.1870(3) 0.26393(13)
C2 C 0.1767(4) -0.3254(4) 0.21650(14)
H1 H 0.17030 -0.38840 0.20730
C3 C 0.3053(3) -0.1429(4) 0.30351(14)
C4 C 0.1231(4) -0.2851(5) 0.19514(17)
H2 H 0.07960 -0.32150 0.17240
C5 C 0.1341(5) -0.1925(6) 0.2074(2)
H3 H 0.10020 -0.16320 0.19270
C6 C 0.3991(4) -0.1616(6) 0.35814(14)
H4 H 0.42790 -0.19920 0.37020
C7 C 0.3164(5) -0.0533(6) 0.3228(2)
H5 H 0.28770 -0.01600 0.31040
C8 C 0.1959(5) -0.1417(4) 0.24193(18)
H6 H 0.20470 -0.07730 0.25050
C9 C 0.4120(5) -0.0751(8) 0.37859(18)
H7 H 0.44820 -0.05390 0.40420
C10 C 0.3702(6) -0.0204(9) 0.3605(2)
H8 H 0.37800 0.03950 0.37370
I2A I 0.45532(3) -0.75237(3) 0.413082(11)
Ag1A Ag 0.61339(3) -0.58237(3) 0.462280(12)
I3A I 0.50000 -0.50000 0.50000
I2B I 0.75237(3) -0.79231(3) 0.413082(11)
Ag1B Ag 0.58237(3) -0.80424(3) 0.462280(12)
I3B I 0.50000 -1.00000 0.50000
I1I I 1.33330 -0.33330 0.461615(14)
I2I I 1.20769(3) -0.54468(3) 0.586918(11)
Ag1I Ag 1.19576(3) -0.38661(3) 0.537720(12)
I2J I 0.54468(3) -0.24763(3) 0.586918(11)
Ag1J Ag 0.38661(3) -0.41763(3) 0.537720(12)
I2K I 0.24763(3) -0.20769(3) 0.586918(11)
Ag1K Ag 0.41763(3) -0.19576(3) 0.537720(12)
I1I* I 0.33330 -0.33330 0.461615(14)
I2I* I 0.20769(3) -0.54468(3) 0.586918(11)
I2K* I 1.24763(3) -0.20769(3) 0.586918(11)
Ag1I* Ag 0.19576(3) -0.38661(3) 0.537720(12)
Ag1J* Ag 1.38661(3) -0.41763(3) 0.537720(12)
Ag1K* Ag 0.41763(3) -1.19576(3) 0.537720(12)
Ag1K** Ag 1.41763(3) -0.19576(3) 0.537720(12)
I3B* I 0.50000 0.00000 0.50000
N1A N 0.2771(3) -0.4847(3) 0.25022(10)
N2A N 0.1959(3) -0.4569(4) 0.32146(11)
C1A C 0.1870(3) -0.5678(3) 0.26393(13)
C2A C 0.3254(4) -0.4979(4) 0.21650(14)
H1A H 0.38840 -0.44130 0.20730
C3A C 0.1429(3) -0.5518(4) 0.30351(14)
C4A C 0.2851(4) -0.5918(5) 0.19514(17)
H2A H 0.32150 -0.59890 0.17240
C5A C 0.1925(5) -0.6734(6) 0.2074(2)
H3A H 0.16320 -0.73660 0.19270
C6A C 0.1616(4) -0.4393(6) 0.35814(14)
H4A H 0.19920 -0.37290 0.37020
C7A C 0.0533(5) -0.6303(6) 0.3228(2)
H5A H 0.01600 -0.69630 0.31040
C8A C 0.1417(5) -0.6624(4) 0.24193(18)
H6A H 0.07730 -0.71800 0.25050
C9A C 0.0751(5) -0.5129(8) 0.37859(18)
H7A H 0.05390 -0.49790 0.40420
C10A C 0.0204(6) -0.6094(9) 0.3605(2)
H8A H -0.03950 -0.66150 0.37370
N1B N 0.4847(3) -0.2382(3) 0.25022(10)
N2B N 0.4569(3) -0.3472(4) 0.32146(11)
C1B C 0.5678(3) -0.2452(3) 0.26393(13)
C2B C 0.4979(4) -0.1767(4) 0.21650(14)
H1B H 0.44130 -0.17030 0.20730
C3B C 0.5518(3) -0.3053(4) 0.30351(14)
C4B C 0.5918(4) -0.1231(5) 0.19514(17)
H2B H 0.59890 -0.07960 0.17240
C5B C 0.6734(5) -0.1341(6) 0.2074(2)
H3B H 0.73660 -0.10020 0.19270
C6B C 0.4393(4) -0.3991(6) 0.35814(14)
H4B H 0.37290 -0.42790 0.37020
C7B C 0.6303(5) -0.3164(6) 0.3228(2)
H5B H 0.69630 -0.28770 0.31040
C8B C 0.6624(5) -0.1959(4) 0.24193(18)
H6B H 0.71800 -0.20470 0.25050
C9B C 0.5129(5) -0.4120(8) 0.37859(18)
H7B H 0.49790 -0.44820 0.40420
C10B C 0.6094(6) -0.3702(9) 0.3605(2)
H8B H 0.66150 -0.37800 0.37370
#END
