
#######################################################################
#
#                 Cambridge Crystallographic Data Centre
#                                CCDC
#
#######################################################################
#
# If this CIF has been generated from an entry in the Cambridge
# Structural Database, then it will include bibliographic, chemical,
# crystal, experimental, refinement or atomic coordinate data resulting
# from the CCDC's data processing and validation procedures.
#
#######################################################################

data_CSD_CIF_DUYCOQ
_audit_creation_date 2010-12-02
_audit_creation_method CSD-ConQuest-V1
_database_code_CSD DUYCOQ
_database_code_depnum_ccdc_archive 'CCDC 738786'
_chemical_formula_sum 'C58 H50 Cu5 N8 O18'
_chemical_formula_moiety
;
(C10 H10 Cu1 N2 O1 1+)2n,n(C38 H25 Cu3 N4 O13 1-),n(H1 O1 1-),2n(H2 O1)
;
_journal_coden_Cambridge 1350
_journal_volume 12
_journal_year 2010
_journal_page_first 1391
_journal_name_full 'CrystEngComm '
loop_
_publ_author_name
"M.A.Nadeem"
"M.Bhadhade"
"R.Bircher"
"J.A.Stride"
_chemical_name_systematic
;
catena-(bis((\m~2~-4,4'-bipyridyl)-aqua-copper(i)) 
(\m~3~-benzene-1,2,3-tricarboxylato)-(\m~2~-3-carboxybenzene-1,2-dicarboxylato
)-bis(\m~2~-4,4'-bipyridyl)-aqua-copper(ii)-di-copper(i) hydroxide dihydrate)
;
_cell_volume   5482.658
_exptl_crystal_colour 'green'
_exptl_crystal_density_diffrn 1.773
_exptl_crystal_description 'prisms'
_diffrn_ambient_temperature 150
#These two values have been output from a single CSD field.
_refine_ls_R_factor_gt 0.0304
_refine_ls_wR_factor_gt 0.0304
_symmetry_cell_setting monoclinic
_symmetry_space_group_name_H-M 'P 21/n'
_symmetry_Int_Tables_number 14
loop_
_symmetry_equiv_pos_site_id
_symmetry_equiv_pos_as_xyz
1 x,y,z
2 1/2-x,1/2+y,1/2-z
3 -x,-y,-z
4 -1/2+x,-1/2-y,-1/2+z
_cell_length_a 15.9264(5)
_cell_length_b 18.2649(6)
_cell_length_c 19.6173(6)
_cell_angle_alpha 90
_cell_angle_beta 106.103(1)
_cell_angle_gamma 90
_cell_formula_units_Z 4
loop_
_atom_type_symbol
_atom_type_radius_bond
C 0.50
H 0.16
Cu 1.65
N 0.68
O 0.78
loop_
_atom_site_label
_atom_site_type_symbol
_atom_site_fract_x
_atom_site_fract_y
_atom_site_fract_z
Cu1 Cu 1.12757(2) 0.301301(19) 0.976130(17)
N1 N 1.21717(14) 0.28363(11) 1.06195(11)
N2 N 1.54145(15) 0.21351(12) 1.38725(12)
C1 C 1.27120(19) 0.33657(15) 1.09753(15)
H1 H 1.26440 0.38480 1.07850
C2 C 1.33491(19) 0.32460(15) 1.15910(15)
H2 H 1.37100 0.36400 1.18150
C3 C 1.34756(16) 0.25512(13) 1.18943(13)
C4 C 1.29332(18) 0.20019(13) 1.15125(14)
H3 H 1.30020 0.15120 1.16820
C5 C 1.23041(18) 0.21606(14) 1.08972(14)
H4 H 1.19440 0.17740 1.06550
C6 C 1.41419(16) 0.24050(13) 1.25761(13)
C7 C 1.45082(18) 0.29671(14) 1.30435(14)
H5 H 1.43250 0.34580 1.29300
C8 C 1.51324(18) 0.28173(14) 1.36688(14)
H6 H 1.53770 0.32140 1.39720
C9 C 1.50514(19) 0.15947(15) 1.34269(15)
H7 H 1.52310 0.11070 1.35610
C10 C 1.44393(19) 0.17009(15) 1.27922(15)
H8 H 1.42150 0.12940 1.24960
O1 O 1.10053(17) 0.43051(12) 0.98561(12)
H9 H 1.141(2) 0.4514(16) 0.9945(16)
H10 H 1.067(2) 0.459(2) 0.963(2)
Cu2 Cu -0.02696(2) 0.290198(17) 0.561047(17)
N3 N -0.12622(14) 0.27012(11) 0.48273(11)
N4 N -0.44117(14) 0.22461(12) 0.14939(11)
C11 C -0.13781(18) 0.20456(13) 0.44967(15)
H11 H -0.10150 0.16480 0.47100
C12 C -0.20024(18) 0.19317(14) 0.38623(14)
H12 H -0.20640 0.14610 0.36480
C13 C -0.25457(15) 0.25058(13) 0.35322(13)
C14 C -0.24422(16) 0.31715(14) 0.38965(13)
H13 H -0.28120 0.35730 0.37070
C15 C -0.18038(17) 0.32447(13) 0.45297(14)
H14 H -0.17450 0.37030 0.47670
C16 C -0.31861(16) 0.24190(13) 0.28288(13)
C17 C -0.33880(19) 0.17353(15) 0.25115(14)
H15 H -0.31100 0.13100 0.27490
C18 C -0.39829(19) 0.16701(15) 0.18607(15)
H16 H -0.41000 0.11960 0.16570
C19 C -0.42142(18) 0.29104(13) 0.17941(14)
H17 H -0.44990 0.33270 0.15440
C20 C -0.36254(17) 0.30143(13) 0.24404(14)
H18 H -0.35130 0.34950 0.26280
O2 O 0.00251(14) 0.40095(11) 0.52785(10)
H19 H -0.031(3) 0.422(2) 0.485(2)
H20 H 0.0467(19) 0.4228(15) 0.5442(15)
Cu3 Cu 0.85822(2) 0.201224(16) 0.204334(16)
Cu4 Cu 1.07088(2) 0.219670(18) 0.164690(16)
Cu5 Cu 0.945977(18) -0.009559(15) 0.137503(15)
N5 N 0.77363(13) 0.22404(11) 0.11689(11)
N6 N 0.44656(14) 0.28677(11) -0.20787(11)
C21 C 0.74393(16) 0.17093(13) 0.06852(12)
H21 H 0.76750 0.12300 0.07810
C22 C 0.68103(16) 0.18331(13) 0.00602(13)
H22 H 0.66200 0.14400 -0.02630
C23 C 0.64434(15) 0.25265(13) -0.01111(13)
C24 C 0.67583(17) 0.30772(14) 0.03920(13)
H23 H 0.65360 0.35620 0.03070
C25 C 0.73891(18) 0.29141(13) 0.10086(14)
H24 H 0.75920 0.32970 0.13410
C26 C 0.57596(16) 0.26547(13) -0.07829(13)
C27 C 0.52341(17) 0.20818(13) -0.11398(14)
H25 H 0.53120 0.16020 -0.09440
C28 C 0.46118(17) 0.22031(14) -0.17640(14)
H26 H 0.42640 0.18020 -0.19890
C29 C 0.49612(17) 0.34268(13) -0.17343(13)
H27 H 0.48680 0.39010 -0.19410
C30 C 0.55924(16) 0.33438(13) -0.11007(13)
H28 H 0.59170 0.37570 -0.08770
N7 N 0.98510(13) 0.22852(11) 0.07703(11)
N8 N 0.65395(14) 0.26414(11) -0.24717(11)
C31 C 0.96059(16) 0.17089(13) 0.03336(13)
H29 H 0.98850 0.12510 0.04710
C32 C 0.89705(16) 0.17528(13) -0.03016(13)
H30 H 0.88240 0.13330 -0.05960
C33 C 0.85421(16) 0.24093(13) -0.05138(13)
C34 C 0.87976(18) 0.30103(13) -0.00556(14)
H31 H 0.85270 0.34730 -0.01810
C35 C 0.94317(18) 0.29291(13) 0.05659(15)
H32 H 0.95880 0.33410 0.08710
C36 C 0.78556(16) 0.24840(13) -0.11851(13)
C37 C 0.74137(17) 0.18795(14) -0.15567(14)
H33 H 0.75540 0.13990 -0.13750
C38 C 0.67786(19) 0.19824(14) -0.21828(15)
H34 H 0.64920 0.15630 -0.24260
C39 C 0.69660(18) 0.32229(14) -0.21121(14)
H35 H 0.68120 0.36980 -0.23020
C40 C 0.76029(18) 0.31612(14) -0.14942(14)
H36 H 0.78830 0.35910 -0.12670
O3 O 0.90171(13) 0.03869(11) 0.41997(10)
O4 O 0.94220(12) -0.02355(10) 0.33718(9)
O5 O 0.85106(11) 0.08032(9) 0.20942(9)
O6 O 0.8449(1) -0.03412(9) 0.17066(8)
O7 O 0.66014(12) 0.02849(10) 0.10011(9)
O8 O 0.57165(11) -0.0633(1) 0.10996(10)
C41 C 0.78986(17) -0.00422(12) 0.32248(13)
C42 C 0.75895(16) -0.00385(12) 0.24773(13)
C43 C 0.67202(16) -0.02023(12) 0.21468(13)
C44 C 0.61532(17) -0.03548(13) 0.25648(14)
H37 H 0.55620 -0.04800 0.23410
C45 C 0.64415(18) -0.03247(14) 0.32940(14)
H38 H 0.60460 -0.04110 0.35700
C46 C 0.73125(18) -0.01678(13) 0.36249(15)
H39 H 0.75110 -0.01460 0.41280
C47 C 0.88503(17) 0.00532(13) 0.36289(13)
C48 C 0.82227(15) 0.01666(12) 0.20558(12)
C49 C 0.63217(16) -0.01862(13) 0.13445(13)
O9 O 1.32288(12) 0.01714(11) 0.31698(10)
O10 O 1.18411(12) -0.01235(10) 0.27165(9)
O11 O 1.09510(11) 0.09453(9) 0.15911(9)
O12 O 1.05447(11) -0.01450(9) 0.11047(9)
O13 O 1.11573(11) 0.09315(9) -0.01470(9)
O14 O 1.12780(11) -0.02247(9) -0.04736(9)
C50 C 1.27099(16) 0.00597(12) 0.19179(13)
C51 C 1.20179(15) 0.01816(11) 0.13079(13)
C52 C 1.21788(15) 0.01534(12) 0.06393(12)
C53 C 1.30217(16) 0.00113(12) 0.05876(13)
H40 H 1.31240 -0.00200 0.01340
C54 C 1.37087(16) -0.00842(13) 0.11931(14)
H41 H 1.42840 -0.01640 0.11570
C55 C 1.35480(16) -0.00615(12) 0.18517(13)
H42 H 1.40190 -0.01300 0.22670
C56 C 1.25736(16) 0.00306(12) 0.26573(13)
C57 C 1.11055(15) 0.03540(13) 0.13485(12)
C58 C 1.14716(15) 0.03114(13) -0.00369(12)
O15 O 1.01509(13) -0.03421(11) 0.2333(1)
H43 H 1.070(2) -0.0247(18) 0.2503(18)
H44 H 0.990(3) -0.030(2) 0.262(2)
O16 O 0.73008(15) 0.97793(11) 0.55705(12)
H45 H 0.798(3) 0.9861(19) 0.575(2)
H46 H 0.721(3) 0.985(2) 0.592(2)
O17 O 0.47661(14) 0.96878(13) 0.40495(12)
H47 H 0.437(4) 0.947(4) 0.368(4)
O18 O 0.10545(16) 0.98058(15) 0.44241(14)
H48 H 0.097(3) 0.972(2) 0.482(3)
H49 H 0.060(3) 0.976(3) 0.414(3)
Cu1C Cu 1.62757(2) 0.198699(19) 1.476130(17)
N2C N 1.04145(15) 0.28649(12) 0.88725(12)
Cu2C Cu -0.52696(2) 0.209802(17) 0.061047(17)
N4C N 0.05883(14) 0.27539(12) 0.64939(11)
Cu3C Cu 0.35822(2) 0.298776(16) -0.295666(16)
Cu4C Cu 0.57088(2) 0.280330(18) -0.335310(16)
Cu5B Cu 1.054023(18) 0.009559(15) -0.137503(15)
N6C N 0.94656(14) 0.21323(11) 0.29213(11)
N8C N 1.15395(14) 0.23586(11) 0.25283(11)
O13B O 0.88427(11) -0.09315(9) 0.01470(9)
O14B O 0.87220(11) 0.02247(9) 0.04736(9)
#END
