
#######################################################################
#
#                 Cambridge Crystallographic Data Centre
#                                CCDC
#
#######################################################################
#
# If this CIF has been generated from an entry in the Cambridge
# Structural Database, then it will include bibliographic, chemical,
# crystal, experimental, refinement or atomic coordinate data resulting
# from the CCDC's data processing and validation procedures.
#
#######################################################################

data_CSD_CIF_DUYFIO
_audit_creation_date 2015-11-20
_audit_creation_method CSD-ConQuest-V1
_database_code_CSD DUYFIO
_database_code_depnum_ccdc_archive 'CCDC 1404659'
_chemical_formula_sum 'C60 H48 Ag6 I11 K1 N12 Zn2'
_chemical_formula_moiety
;
(C30 H24 N6 Zn1 2+)2n,n(Ag6 I11 K1 4-)
;
_journal_coden_Cambridge 9
_journal_volume 54
_journal_year 2015
_journal_page_first 10593
_journal_name_full 'Inorg.Chem. '
loop_
_publ_author_name
"Xiao-Wu Lei"
"Cheng-Yang Yue"
"Jian-Qiang Zhao"
"Yong-Fang Han"
"Jiang-Tao Yang"
"Rong-Rong Meng"
"Chuan-Sheng Gao"
"Hao Ding"
"Chun-Yan Wang"
"Wan-Dong Chen"
"Mao-Chun Hong"
_chemical_name_systematic
;
catena-[bis(tris(2,2'-bipyridine)-zinc) 
undecakis(\m-iodo)-potassium-hexa-silver]
;
_cell_volume   5860.752
_exptl_crystal_colour 'orange'
_exptl_crystal_density_diffrn 2.678
_exptl_crystal_description 'block'
_diffrn_ambient_temperature 296
#These two values have been output from a single CSD field.
_refine_ls_R_factor_gt 0.0295
_refine_ls_wR_factor_gt 0.0295
_symmetry_cell_setting rhombohedral
_symmetry_space_group_name_H-M 'R -3'
_symmetry_Int_Tables_number 148
loop_
_symmetry_equiv_pos_site_id
_symmetry_equiv_pos_as_xyz
1 x,y,z
2 -y,x-y,z
3 -x+y,-x,z
4 2/3+x,1/3+y,1/3+z
5 2/3-y,1/3+x-y,1/3+z
6 2/3-x+y,1/3-x,1/3+z
7 1/3+x,2/3+y,2/3+z
8 1/3-y,2/3+x-y,2/3+z
9 1/3-x+y,2/3-x,2/3+z
10 -x,-y,-z
11 y,-x+y,-z
12 x-y,x,-z
13 -2/3-x,-1/3-y,-1/3-z
14 -2/3+y,-1/3-x+y,-1/3-z
15 -2/3+x-y,-1/3+x,-1/3-z
16 -1/3-x,-2/3-y,-2/3-z
17 -1/3+y,-2/3-x+y,-2/3-z
18 -1/3+x-y,-2/3+x,-2/3-z
_cell_length_a 14.6293(18)
_cell_length_b 14.6293(18)
_cell_length_c 31.621(4)
_cell_angle_alpha 90
_cell_angle_beta 90
_cell_angle_gamma 120
_cell_formula_units_Z 3
loop_
_atom_type_symbol
_atom_type_radius_bond
C 0.68
H 0.23
Ag 1.45
I 1.40
K 2.03
N 0.68
Zn 1.22
loop_
_atom_site_label
_atom_site_type_symbol
_atom_site_fract_x
_atom_site_fract_y
_atom_site_fract_z
I1 I 0.66670 0.33330 0.038844(14)
I2 I 0.75406(3) 0.54810(3) -0.085490(11)
Ag1 Ag 0.58264(3) 0.38619(3) -0.037330(13)
I3 I 0.50000 0.50000 0.00000
K1 K 0.66670 0.33330 -0.16670
Zn1 Zn 0.00000 0.00000 0.11932(2)
N1 N -0.0919(3) -0.1456(3) 0.08421(10)
N2 N 0.0204(4) -0.1142(3) 0.15462(10)
C1 C -0.0228(3) -0.2111(3) 0.13751(13)
C2 C -0.0840(3) -0.2282(3) 0.09816(13)
C3 C -0.1540(4) -0.1593(4) 0.05089(14)
H1 H -0.16060 -0.10250 0.04170
C4 C -0.2088(4) -0.2541(4) 0.02950(16)
H2 H -0.25250 -0.26140 0.00680
C5 C -0.1342(5) -0.3245(4) 0.07678(18)
H3 H -0.12500 -0.38000 0.08560
C6 C 0.0735(6) -0.0947(4) 0.19105(14)
H4 H 0.10300 -0.02750 0.20270
C7 C 0.0862(8) -0.1696(6) 0.21200(17)
H5 H 0.12350 -0.15380 0.23730
C8 C -0.0120(5) -0.2894(4) 0.1573(2)
H6 H -0.04150 -0.35630 0.14540
C9 C -0.1970(5) -0.3368(4) 0.04259(18)
H7 H -0.23150 -0.40100 0.02840
C10 C 0.0425(8) -0.2681(6) 0.1947(2)
H8 H 0.04970 -0.32060 0.20820
I2A I 0.45190(3) 0.20596(3) -0.085490(11)
Ag1A Ag 0.61381(3) 0.19645(3) -0.037330(13)
I3A I 0.50000 0.00000 0.00000
I2B I 0.79404(3) 0.24594(3) -0.085490(11)
Ag1B Ag 0.80355(3) 0.41736(3) -0.037330(13)
I3B I 1.00000 0.50000 0.00000
I1I I 0.33330 0.66670 -0.038844(14)
I2I I 0.24594(3) 0.45190(3) 0.085490(11)
Ag1I Ag 0.41736(3) 0.61381(3) 0.037330(13)
I2J I 0.54810(3) 0.79404(3) 0.085490(11)
Ag1J Ag 0.38619(3) 0.80355(3) 0.037330(13)
I2K I 0.20596(3) 0.75406(3) 0.085490(11)
Ag1K Ag 0.19645(3) 0.58264(3) 0.037330(13)
I2L I 0.579273(30) 0.118567(30) -0.247843(11)
I2M I 0.881433(30) 0.460707(30) -0.247843(11)
I2N I 0.539293(30) 0.420727(30) -0.247843(11)
Ag1J* Ag 0.38619(3) -0.19645(3) 0.037330(13)
Ag1K* Ag 1.19645(3) 0.58264(3) 0.037330(13)
I3A* I 0.50000 1.00000 0.00000
I3B* I 0.00000 0.50000 0.00000
K1C K 0.33337 0.66663 0.16663
N1A N 0.1456(3) 0.0537(3) 0.08421(10)
N2A N 0.1142(4) 0.1346(3) 0.15462(10)
C1A C 0.2111(3) 0.1883(3) 0.13751(13)
C2A C 0.2282(3) 0.1442(3) 0.09816(13)
C3A C 0.1593(4) 0.0053(4) 0.05089(14)
H1A H 0.10250 -0.05810 0.04170
C4A C 0.2541(4) 0.0453(4) 0.02950(16)
H2A H 0.26140 0.00890 0.00680
C5A C 0.3245(5) 0.1903(4) 0.07678(18)
H3A H 0.38000 0.25500 0.08560
C6A C 0.0947(6) 0.1682(4) 0.19105(14)
H4A H 0.02750 0.13050 0.20270
C7A C 0.1696(8) 0.2558(6) 0.21200(17)
H5A H 0.15380 0.27730 0.23730
C8A C 0.2894(5) 0.2774(4) 0.1573(2)
H6A H 0.35630 0.31480 0.14540
C9A C 0.3368(5) 0.1398(4) 0.04259(18)
H7A H 0.40100 0.16950 0.02840
C10A C 0.2681(8) 0.3106(6) 0.1947(2)
H8A H 0.32060 0.37030 0.20820
N1B N -0.0537(3) 0.0919(3) 0.08421(10)
N2B N -0.1346(4) -0.0204(3) 0.15462(10)
C1B C -0.1883(3) 0.0228(3) 0.13751(13)
C2B C -0.1442(3) 0.0840(3) 0.09816(13)
C3B C -0.0053(4) 0.1540(4) 0.05089(14)
H1B H 0.05810 0.16060 0.04170
C4B C -0.0453(4) 0.2088(4) 0.02950(16)
H2B H -0.00890 0.25250 0.00680
C5B C -0.1903(5) 0.1342(4) 0.07678(18)
H3B H -0.25500 0.12500 0.08560
C6B C -0.1682(6) -0.0735(4) 0.19105(14)
H4B H -0.13050 -0.10300 0.20270
C7B C -0.2558(8) -0.0862(6) 0.21200(17)
H5B H -0.27730 -0.12350 0.23730
C8B C -0.2774(5) 0.0120(4) 0.1573(2)
H6B H -0.31480 0.04150 0.14540
C9B C -0.1398(5) 0.1970(4) 0.04259(18)
H7B H -0.16950 0.23150 0.02840
C10B C -0.3106(8) -0.0425(6) 0.1947(2)
H8B H -0.37030 -0.04970 0.20820
#END
