
#######################################################################
#
#                 Cambridge Crystallographic Data Centre
#                                CCDC
#
#######################################################################
#
# If this CIF has been generated from an entry in the Cambridge
# Structural Database, then it will include bibliographic, chemical,
# crystal, experimental, refinement or atomic coordinate data resulting
# from the CCDC's data processing and validation procedures.
#
#######################################################################

data_CSD_CIF_DUYJOZ
_audit_creation_date 2020-09-10
_audit_creation_method CSD-ConQuest-V1
_database_code_CSD DUYJOZ
_database_code_depnum_ccdc_archive 'CCDC 1894345'
_chemical_formula_sum 'C12 H86 Co2 N12 O84 Sb2 W20'
_chemical_formula_moiety
;
(C4 H22 Co2 N4 O72 Sb2 W20 8-)n,4(C2 H10 N2 2+),12(H2 O1)
;
_journal_coden_Cambridge 211
_journal_year 2020
_journal_page_first 1
_journal_name_full 'J.Coord.Chem. '
loop_
_publ_author_name
"Jia-Qi Niu"
"Qing Zhao"
"Xing Xin"
"Ya-Qi Zhang"
"Na Hu"
"Yuan-Yuan Ma"
"Zhan-Gang Han"
_chemical_name_systematic
;
catena-[tetrakis(ethane-1,2-bis(aminium)) 
dopentacontakis(\m-oxo)-bis(2-aminoethan-1-aminium)-diaqua-octadecaoxo-di-anti
mony-di-cobalt-icosa-tungsten dodecahydrate]
;
_cell_volume   4305.318
_exptl_crystal_colour 'yellow'
_exptl_crystal_density_diffrn 4.46
_exptl_crystal_description 'block'
_diffrn_ambient_temperature 296
#These two values have been output from a single CSD field.
_refine_ls_R_factor_gt 0.0364
_refine_ls_wR_factor_gt 0.0364
_symmetry_cell_setting monoclinic
_symmetry_space_group_name_H-M 'P 21/n'
_symmetry_Int_Tables_number 14
loop_
_symmetry_equiv_pos_site_id
_symmetry_equiv_pos_as_xyz
1 x,y,z
2 1/2-x,1/2+y,1/2-z
3 -x,-y,-z
4 -1/2+x,-1/2-y,-1/2+z
_cell_length_a 13.2483(6)
_cell_length_b 18.2721(8)
_cell_length_c 17.7852(8)
_cell_angle_alpha 90
_cell_angle_beta 90.178(1)
_cell_angle_gamma 90
_cell_formula_units_Z 2
loop_
_atom_type_symbol
_atom_type_radius_bond
C 0.68
H 0.23
Co 1.26
N 0.68
O 0.68
Sb 1.39
W 1.62
loop_
_atom_site_label
_atom_site_type_symbol
_atom_site_fract_x
_atom_site_fract_y
_atom_site_fract_z
W1 W 0.46381(4) 0.86702(3) 0.02839(3)
W2 W 0.29795(4) 0.92595(4) -0.22577(3)
W3 W 0.38726(4) 1.25556(3) 0.05863(3)
W4 W 0.37391(5) 0.76517(3) -0.11487(3)
W5 W 0.19509(4) 1.11940(3) 0.10745(3)
W6 W 0.28887(4) 1.21455(3) 0.24832(3)
W7 W 0.25004(4) 1.03260(3) 0.26799(3)
W8 W 0.51179(5) 1.01172(4) 0.32898(3)
W9 W 0.44471(4) 0.80670(3) -0.31046(3)
W10 W 0.28708(5) 1.02062(4) -0.04979(4)
Sb1 Sb 0.54582(7) 0.93633(5) -0.14234(5)
Co1 Co 0.38845(15) 0.86511(11) 0.23342(11)
O1 O 0.1793(7) 1.1983(5) 0.1753(5)
O2 O 0.4218(8) 0.8590(6) 0.1208(5)
O3 O 0.4110(8) 1.2089(6) 0.3004(6)
O4 O 0.2311(8) 1.1389(6) 0.3037(6)
O5 O 0.3716(8) 1.0391(6) 0.3279(6)
O6 O 0.2646(7) 1.0435(6) 0.0569(5)
O7 O 0.3411(8) 0.9857(6) -0.3073(6)
O8 O 0.3551(7) 1.2577(5) 0.1652(6)
O9 O 0.3381(8) 0.9908(6) -0.1510(6)
O10 O 0.5771(7) 0.9215(6) 0.0382(5)
O11 O 0.2800(7) 1.1860(6) 0.0519(5)
O12 O 0.4466(8) 1.2236(6) -0.0311(5)
O13 O 0.4670(7) 0.9077(5) -0.2343(5)
O14 O 0.2962(8) 0.9564(6) 0.2176(6)
O15 O 0.6689(7) 0.8911(5) -0.1878(5)
O16 O 0.2808(9) 0.7010(6) -0.1180(6)
O17 O 0.5337(8) 1.1137(6) 0.3758(6)
O18 O 0.5142(8) 1.2983(5) 0.0876(6)
O19 O 0.3641(7) 0.7930(6) -0.0136(6)
O20 O 0.3035(7) 0.8488(6) -0.1502(6)
O21 O 0.2330(8) 1.2900(6) 0.2905(5)
O22 O 0.1669(9) 0.9947(7) 0.3311(6)
O23 O 0.4919(8) 0.9429(6) 0.2609(6)
O24 O 0.4163(9) 0.7384(7) -0.3736(6)
O25 O 0.3387(9) 0.8646(7) 0.3469(6)
H1 H 0.36750 0.82340 0.37260
H2 H 0.26650 0.86110 0.34790
O26 O 0.3842(8) 0.9379(6) -0.0088(6)
O27 O 0.0840(8) 1.1257(6) 0.0590(6)
O28 O 0.5098(7) 0.8436(5) -0.0895(5)
O29 O 0.3098(8) 0.8429(6) -0.2939(6)
O30 O 0.4287(8) 0.7582(6) -0.2160(6)
O31 O 0.1531(7) 1.0558(6) 0.1868(5)
O32 O 0.5176(9) 0.9649(7) 0.4124(6)
O33 O 0.2237(9) 1.0997(7) -0.0875(6)
O34 O 0.3277(9) 1.3327(6) 0.0283(6)
O35 O 0.1813(8) 0.9563(7) -0.0537(7)
O36 O 0.1702(8) 0.9390(7) -0.2303(6)
C1 C 0.5901(14) 0.7849(13) 0.2775(11)
H3 H 0.61900 0.73670 0.28540
H4 H 0.59080 0.81010 0.32550
C2 C 0.6571(16) 0.8272(13) 0.2222(11)
H5 H 0.62050 0.86940 0.20350
H6 H 0.71690 0.84450 0.24830
N1 N 0.4857(11) 0.7763(9) 0.2531(9)
H7 H 0.45530 0.74790 0.28760
H8 H 0.48730 0.75020 0.21020
N2 N 0.6877(13) 0.7806(10) 0.1580(9)
H9 H 0.72750 0.74470 0.17450
H10 H 0.72100 0.80760 0.12460
H11 H 0.63310 0.76140 0.13640
C3 C 0.777(2) 0.4336(15) 0.0135(15)
H12 H 0.71220 0.41570 -0.00360
H13 H 0.78060 0.42430 0.06710
C4 C 0.776(3) 0.5127(16) 0.0041(16)
H14 H 0.75230 0.52650 -0.04560
H15 H 0.84170 0.53400 0.01320
N3 N 0.854(2) 0.3877(16) -0.0215(13)
H16 H 0.87050 0.40650 -0.06590
H17 H 0.82910 0.34280 -0.02800
H18 H 0.90790 0.38570 0.00800
N4 N 0.7033(19) 0.5334(15) 0.0624(12)
H19 H 0.73550 0.53720 0.10620
H20 H 0.65410 0.50260 0.06650
H21 H 0.67900 0.57690 0.04920
C5 C 0.9765(19) 0.072(3) 0.9109(15)
H22 H 0.95060 0.04210 0.95130
H23 H 1.02470 0.10640 0.93230
N5 N 1.0266(15) 0.027(2) 0.8573(12)
H24 H 0.98100 0.00540 0.82770
H25 H 1.06200 -0.00740 0.88140
H26 H 1.06790 0.05390 0.82960
N6 N 0.8173(16) 0.127(2) 0.9195(13)
H27 H 0.76900 0.09390 0.91090
H28 H 0.79430 0.17120 0.90850
H29 H 0.83540 0.12510 0.96770
C6 C 0.895(2) 0.112(3) 0.8775(17)
H30 H 0.92200 0.15800 0.85890
H31 H 0.87170 0.08450 0.83420
O37 O 0.532(3) 0.457(2) 0.090(5)
O38 O 0.567(2) 0.1975(16) 0.5306(16)
O39 O 0.897(2) 0.8450(12) 0.5745(13)
O40 O 0.570(2) 0.6381(18) 0.1446(18)
O41 O 0.537(5) 0.4017(17) 0.223(2)
O42 O 0.878(5) 0.241(4) 0.011(4)
O43 O 0.903(4) 0.189(3) 0.079(3)
W1B W 0.53619(4) 1.13298(3) -0.02839(3)
W2B W 0.70205(4) 1.07405(4) 0.22577(3)
W3B W 0.61274(4) 0.74444(3) -0.05863(3)
W4B W 0.62609(5) 1.23483(3) 0.11487(3)
W5B W 0.80491(4) 0.88060(3) -0.10745(3)
W6B W 0.71113(4) 0.78545(3) -0.24832(3)
W7B W 0.74996(4) 0.96740(3) -0.26799(3)
W8B W 0.48821(5) 0.98828(4) -0.32898(3)
W10B W 0.71292(5) 0.97938(4) 0.04979(4)
Sb1B Sb 0.45418(7) 1.06367(5) 0.14234(5)
Co1B Co 0.61155(15) 1.13489(11) -0.23342(11)
O1B O 0.8207(7) 0.8017(5) -0.1753(5)
O2B O 0.5782(8) 1.1410(6) -0.1208(5)
O4B O 0.7689(8) 0.8611(6) -0.3037(6)
O5B O 0.6284(8) 0.9609(6) -0.3279(6)
O6B O 0.7354(7) 0.9565(6) -0.0569(5)
O7B O 0.6589(8) 1.0143(6) 0.3073(6)
O8B O 0.6449(7) 0.7423(5) -0.1652(6)
O9B O 0.6619(8) 1.0092(6) 0.1510(6)
O10B O 0.4229(7) 1.0785(6) -0.0382(5)
O11B O 0.7200(7) 0.8140(6) -0.0519(5)
O12B O 0.5534(8) 0.7764(6) 0.0311(5)
O13B O 0.5330(7) 1.0923(5) 0.2343(5)
O14B O 0.7038(8) 1.0436(6) -0.2176(6)
O15B O 0.3311(7) 1.1089(5) 0.1878(5)
O16B O 0.7192(9) 1.2990(6) 0.1180(6)
O17B O 0.4663(8) 0.8863(6) -0.3758(6)
O18B O 0.4858(8) 0.7017(5) -0.0876(6)
O19B O 0.6359(7) 1.2070(6) 0.0136(6)
O20B O 0.6965(7) 1.1512(6) 0.1502(6)
O21B O 0.7670(8) 0.7100(6) -0.2905(5)
O22B O 0.8331(9) 1.0053(7) -0.3311(6)
O23B O 0.5081(8) 1.0571(6) -0.2609(6)
O25B O 0.6613(9) 1.1354(7) -0.3469(6)
H1B H 0.63250 1.17660 -0.37260
H2B H 0.73350 1.13890 -0.34790
O26B O 0.6158(8) 1.0621(6) 0.0088(6)
O27B O 0.9160(8) 0.8743(6) -0.0590(6)
O28B O 0.4902(7) 1.1564(5) 0.0895(5)
O29B O 0.6902(8) 1.1571(6) 0.2939(6)
O30B O 0.5713(8) 1.2418(6) 0.2160(6)
O31B O 0.8469(7) 0.9442(6) -0.1868(5)
O32B O 0.4824(9) 1.0351(7) -0.4124(6)
O33B O 0.7763(9) 0.9003(7) 0.0875(6)
O34B O 0.6723(9) 0.6673(6) -0.0283(6)
O35B O 0.8187(8) 1.0437(7) 0.0537(7)
O36B O 0.8298(8) 1.0610(7) 0.2303(6)
C1B C 0.4099(14) 1.2151(13) -0.2775(11)
H3B H 0.38100 1.26330 -0.28540
H4B H 0.40920 1.18990 -0.32550
C2B C 0.3429(16) 1.1728(13) -0.2222(11)
H5B H 0.37950 1.13060 -0.20350
H6B H 0.28310 1.15550 -0.24830
N1B N 0.5143(11) 1.2237(9) -0.2531(9)
H7B H 0.54470 1.25210 -0.28760
H8B H 0.51270 1.24980 -0.21020
N2B N 0.3123(13) 1.2194(10) -0.1580(9)
H9B H 0.27250 1.25530 -0.17450
H10B H 0.27900 1.19240 -0.12460
H11B H 0.36690 1.23860 -0.13640
W9B W 0.55529(4) 1.19330(3) 0.31046(3)
O3B O 0.5890(8) 0.7911(6) -0.3004(6)
O24B O 0.5837(9) 1.2616(7) 0.3736(6)
Co1A Co 0.11155(15) 1.36511(11) 0.26658(11)
Co1C Co 0.88845(15) 0.63489(11) -0.26658(11)
O21A O 0.2670(8) 0.7900(6) 0.2095(5)
O21C O 0.7330(8) 1.2100(6) -0.2095(5)
#END
