
#######################################################################
#
#                 Cambridge Crystallographic Data Centre
#                                CCDC
#
#######################################################################
#
# If this CIF has been generated from an entry in the Cambridge
# Structural Database, then it will include bibliographic, chemical,
# crystal, experimental, refinement or atomic coordinate data resulting
# from the CCDC's data processing and validation procedures.
#
#######################################################################

data_CSD_CIF_DUYJIT
_audit_creation_date 2020-09-10
_audit_creation_method CSD-ConQuest-V1
_database_code_CSD DUYJIT
_database_code_depnum_ccdc_archive 'CCDC 1894344'
_chemical_formula_sum 'C12 H86 N12 Ni2 O84 Sb2 W20'
_chemical_formula_moiety
;
(C4 H22 N4 Ni2 O72 Sb2 W20 8-)n,4(C2 H10 N2 2+),12(H2 O1)
;
_journal_coden_Cambridge 211
_journal_year 2020
_journal_page_first 1
_journal_name_full 'J.Coord.Chem. '
loop_
_publ_author_name
"Jia-Qi Niu"
"Qing Zhao"
"Xing Xin"
"Ya-Qi Zhang"
"Na Hu"
"Yuan-Yuan Ma"
"Zhan-Gang Han"
_chemical_name_systematic
;
catena-[tetrakis(ethane-1,2-bis(aminium)) 
dopentacontakis(\m-oxo)-bis(2-aminoethan-1-aminium)-diaqua-octadecaoxo-di-anti
mony-di-nickel-icosa-tungsten dodecahydrate]
;
_cell_volume   4295.906
_exptl_crystal_colour 'green'
_exptl_crystal_description 'block'
_diffrn_ambient_temperature 296
#These two values have been output from a single CSD field.
_refine_ls_R_factor_gt 0.0393
_refine_ls_wR_factor_gt 0.0393
_symmetry_cell_setting monoclinic
_symmetry_space_group_name_H-M 'P 21/n'
_symmetry_Int_Tables_number 14
loop_
_symmetry_equiv_pos_site_id
_symmetry_equiv_pos_as_xyz
1 x,y,z
2 1/2-x,1/2+y,1/2-z
3 -x,-y,-z
4 -1/2+x,-1/2-y,-1/2+z
_cell_length_a 13.2392(14)
_cell_length_b 18.2379(19)
_cell_length_c 17.7919(19)
_cell_angle_alpha 90
_cell_angle_beta 90.250(2)
_cell_angle_gamma 90
_cell_formula_units_Z 2
loop_
_atom_type_symbol
_atom_type_radius_bond
C 0.68
H 0.23
N 0.68
Ni 1.24
O 0.68
Sb 1.39
W 1.62
loop_
_atom_site_label
_atom_site_type_symbol
_atom_site_fract_x
_atom_site_fract_y
_atom_site_fract_z
W1 W 0.53568(5) 0.86785(4) 0.52879(4)
W2 W 0.70163(5) 0.92579(4) 0.27510(4)
W3 W 0.61330(5) 1.25527(4) 0.55872(4)
W4 W 0.62543(5) 0.76509(4) 0.38595(4)
W5 W 0.80572(5) 1.11876(4) 0.60843(4)
W6 W 0.71275(5) 1.21427(4) 0.74895(4)
W7 W 0.75087(5) 1.03166(4) 0.76853(4)
W8 W 0.51063(5) 0.98874(4) 0.17184(4)
W9 W 0.55388(5) 0.80671(4) 0.18978(4)
W10 W 0.71472(6) 1.02052(4) 0.45034(4)
Sb1 Sb 0.45365(8) 0.93663(6) 0.35783(6)
Ni1 Ni 0.61131(16) 0.86479(12) 0.73320(12)
O1 O 0.7735(8) 1.1384(6) 0.8048(6)
O2 O 0.5774(8) 0.8608(6) 0.6210(6)
O3 O 0.7041(8) 0.9551(6) 0.7176(6)
O4 O 0.6304(9) 1.0390(7) 0.8289(6)
O5 O 0.4107(9) 0.7912(6) 0.1984(6)
O6 O 0.6561(9) 0.9860(6) 0.1943(7)
O7 O 0.8223(8) 1.1980(6) 0.6758(7)
O8 O 0.7364(8) 1.0425(6) 0.5576(6)
O9 O 0.6888(8) 0.8419(6) 0.2053(6)
O10 O 0.5564(9) 1.2233(7) 0.4694(6)
O11 O 0.6599(9) 0.9909(6) 0.3491(6)
O12 O 0.5327(8) 0.9076(6) 0.2669(6)
O13 O 0.6462(8) 1.2591(6) 0.6659(6)
O14 O 0.6167(8) 0.9383(6) 0.4903(6)
O15 O 0.6357(8) 0.7953(7) 0.4858(6)
O16 O 0.7197(8) 1.1842(6) 0.5526(6)
O17 O 0.6957(8) 0.8483(6) 0.3513(6)
O18 O 0.3293(8) 0.8914(6) 0.3113(6)
O19 O 0.4220(8) 0.9219(6) 0.5382(6)
O20 O 0.5836(9) 0.7379(7) 0.1275(7)
O21 O 0.7703(8) 1.2899(6) 0.7911(6)
O22 O 0.9156(9) 1.1245(7) 0.5608(7)
O23 O 0.7196(9) 0.7000(7) 0.3838(7)
O24 O 0.4870(9) 1.2978(6) 0.5895(7)
O25 O 0.5166(10) 1.0367(7) 0.0876(7)
O26 O 0.6754(10) 1.3329(7) 0.5288(7)
O27 O 0.8471(8) 1.0549(6) 0.6887(6)
O28 O 0.8352(9) 0.9945(7) 0.8315(7)
O29 O 0.5709(9) 0.7579(6) 0.2845(6)
O30 O 0.4894(8) 0.8434(6) 0.4102(6)
O31 O 0.7742(10) 1.0976(7) 0.4126(7)
O32 O 0.5326(9) 0.8864(7) 0.1250(7)
O33 O 0.8288(9) 0.9389(7) 0.2692(7)
O34 O 0.8171(9) 0.9558(7) 0.4483(7)
O35 O 0.4917(9) 1.0576(6) 0.2403(6)
O36 O 0.6595(11) 0.8644(8) 0.8464(7)
C1 C 0.4108(12) 0.7888(15) 0.7787(12)
H1 H 0.41590 0.81830 0.82400
H2 H 0.38020 0.74240 0.79230
C2 C 0.3425(14) 0.8279(11) 0.7227(10)
H3 H 0.28200 0.84420 0.74830
H4 H 0.37710 0.87100 0.70400
N1 N 0.5144(10) 0.7749(8) 0.7493(9)
H5 H 0.50800 0.75160 0.70500
H6 H 0.54530 0.74360 0.78110
N2 N 0.3124(12) 0.7806(9) 0.6572(9)
H7 H 0.36630 0.77180 0.62880
H8 H 0.26560 0.80360 0.62990
H9 H 0.28750 0.73830 0.67400
C3 C 0.5240(17) 0.4279(13) 0.9141(13)
H10 H 0.55570 0.45830 0.95220
H11 H 0.47490 0.39620 0.93830
C4 C 0.6013(18) 0.3834(14) 0.8741(14)
H12 H 0.57260 0.33620 0.86070
H13 H 0.62010 0.40820 0.82790
N3 N 0.4732(14) 0.4750(12) 0.8551(11)
H14 H 0.50350 0.46840 0.81100
H15 H 0.47790 0.52200 0.86830
H16 H 0.40840 0.46250 0.85110
N4 N 0.6910(18) 0.372(2) 0.9201(16)
H17 H 0.71770 0.41540 0.93220
H18 H 0.73590 0.34600 0.89450
H19 H 0.67420 0.34820 0.96180
C5 C 0.7249(18) -0.0073(13) 0.0049(13)
H20 H 0.74920 -0.01920 -0.04500
H21 H 0.65540 -0.02360 0.00940
C6 C 0.7331(18) 0.0692(13) 0.0191(14)
H22 H 0.79630 0.08790 -0.00040
H23 H 0.73100 0.07870 0.07270
N5 N 0.7881(14) -0.0407(11) 0.0623(11)
H24 H 0.81160 -0.00610 0.09300
H25 H 0.83960 -0.06370 0.04060
H26 H 0.75180 -0.07280 0.08850
N6 N 0.6470(18) 0.1050(15) -0.0189(10)
H27 H 0.64690 0.09300 -0.06740
H28 H 0.65250 0.15340 -0.01430
H29 H 0.58960 0.09010 0.00200
O37 O 0.971(2) 0.0512(16) 0.096(2)
O38 O 0.035(2) 0.9044(18) 0.7797(18)
O39 O 0.569(2) 0.7973(13) 0.9637(15)
O40 O 0.895(2) 0.1533(13) 0.9269(14)
O41 O 0.930(2) 0.8608(15) 0.1477(18)
O42 O 0.625(3) 0.227(2) 0.993(2)
W1B W 0.46432(5) 1.13215(4) 0.47121(4)
W2B W 0.29837(5) 1.07421(4) 0.72490(4)
W3B W 0.38670(5) 0.74473(4) 0.44128(4)
W4B W 0.37457(5) 1.23491(4) 0.61405(4)
W5B W 0.19428(5) 0.88124(4) 0.39157(4)
W6B W 0.28725(5) 0.78573(4) 0.25105(4)
W7B W 0.24913(5) 0.96834(4) 0.23147(4)
W8B W 0.48937(5) 1.01126(4) 0.82816(4)
W9B W 0.44612(5) 1.19329(4) 0.81022(4)
W10B W 0.28528(6) 0.97948(4) 0.54966(4)
Sb1B Sb 0.54635(8) 1.06337(6) 0.64217(6)
Ni1B Ni 0.38869(16) 1.13521(12) 0.26680(12)
O1B O 0.2265(8) 0.8616(6) 0.1952(6)
O2B O 0.4226(8) 1.1392(6) 0.3790(6)
O3B O 0.2959(8) 1.0449(6) 0.2824(6)
O4B O 0.3696(9) 0.9610(7) 0.1711(6)
O5B O 0.5893(9) 1.2088(6) 0.8016(6)
O6B O 0.3439(9) 1.0140(6) 0.8057(7)
O7B O 0.1777(8) 0.8020(6) 0.3242(7)
O8B O 0.2636(8) 0.9575(6) 0.4424(6)
O9B O 0.3112(8) 1.1581(6) 0.7947(6)
O10B O 0.4436(9) 0.7767(7) 0.5306(6)
O11B O 0.3401(9) 1.0091(6) 0.6509(6)
O12B O 0.4673(8) 1.0924(6) 0.7331(6)
O13B O 0.3538(8) 0.7409(6) 0.3341(6)
O14B O 0.3833(8) 1.0617(6) 0.5097(6)
O15B O 0.3643(8) 1.2047(7) 0.5142(6)
O16B O 0.2803(8) 0.8158(6) 0.4474(6)
O17B O 0.3043(8) 1.1517(6) 0.6487(6)
O18B O 0.6707(8) 1.1086(6) 0.6887(6)
O20B O 0.4164(9) 1.2621(7) 0.8725(7)
O21B O 0.2297(8) 0.7101(6) 0.2089(6)
O22B O 0.0844(9) 0.8755(7) 0.4392(7)
O23B O 0.2804(9) 1.3000(7) 0.6162(7)
O25B O 0.4834(10) 0.9633(7) 0.9124(7)
O26B O 0.3246(10) 0.6671(7) 0.4712(7)
O27B O 0.1529(8) 0.9451(6) 0.3113(6)
O28B O 0.1648(9) 1.0055(7) 0.1685(7)
O29B O 0.4291(9) 1.2421(6) 0.7155(6)
O31B O 0.2258(10) 0.9024(7) 0.5874(7)
O32B O 0.4674(9) 1.1136(7) 0.8750(7)
O33B O 0.1712(9) 1.0611(7) 0.7308(7)
O34B O 0.1829(9) 1.0442(7) 0.5517(7)
O36B O 0.3405(11) 1.1356(8) 0.1536(7)
C1B C 0.5892(12) 1.2112(15) 0.2213(12)
H1B H 0.58410 1.18170 0.17600
H2B H 0.61980 1.25760 0.20770
C2B C 0.6575(14) 1.1721(11) 0.2773(10)
H3B H 0.71800 1.15580 0.25170
H4B H 0.62290 1.12900 0.29600
N1B N 0.4856(10) 1.2251(8) 0.2507(9)
H5B H 0.49200 1.24840 0.29500
H6B H 0.45470 1.25640 0.21890
N2B N 0.6876(12) 1.2194(9) 0.3428(9)
H7B H 0.63370 1.22820 0.37120
H8B H 0.73440 1.19640 0.37010
H9B H 0.71250 1.26170 0.32600
O19B O 0.5780(8) 1.0781(6) 0.4618(6)
O24B O 0.5130(9) 0.7022(6) 0.4105(7)
O30B O 0.5106(8) 1.1566(6) 0.5898(6)
O35B O 0.5083(9) 0.9424(6) 0.7597(6)
Ni1A Ni 0.88869(16) 1.36479(12) 0.76680(12)
Ni1C Ni 0.11131(16) 0.63521(12) 0.23320(12)
O21A O 0.7297(8) 0.7899(6) 0.7089(6)
O21C O 0.2703(8) 1.2101(6) 0.2911(6)
#END
