
#######################################################################
#
#                 Cambridge Crystallographic Data Centre
#                                CCDC
#
#######################################################################
#
# If this CIF has been generated from an entry in the Cambridge
# Structural Database, then it will include bibliographic, chemical,
# crystal, experimental, refinement or atomic coordinate data resulting
# from the CCDC's data processing and validation procedures.
#
#######################################################################

data_CSD_CIF_DUYJUF
_audit_creation_date 2020-09-10
_audit_creation_method CSD-ConQuest-V1
_database_code_CSD DUYJUF
_database_code_depnum_ccdc_archive 'CCDC 1894346'
_chemical_formula_sum 'C12 H86 Mn2 N12 O84 Sb2 W20'
_chemical_formula_moiety
;
(C4 H22 Mn2 N4 O72 Sb2 W20 8-)n,4(C2 H10 N2 2+),12(H2 O1)
;
_journal_coden_Cambridge 211
_journal_year 2020
_journal_page_first 1
_journal_name_full 'J.Coord.Chem. '
loop_
_publ_author_name
"Jia-Qi Niu"
"Qing Zhao"
"Xing Xin"
"Ya-Qi Zhang"
"Na Hu"
"Yuan-Yuan Ma"
"Zhan-Gang Han"
_chemical_name_systematic
;
catena-[tetrakis(ethane-1,2-bis(aminium)) 
dopentacontakis(\m-oxo)-bis(2-aminoethan-1-aminium)-diaqua-octadecaoxo-di-anti
mony-di-manganese-icosa-tungsten dodecahydrate]
;
_cell_volume   4305.318
_exptl_crystal_colour 'purple'
_exptl_crystal_description 'block'
_diffrn_ambient_temperature 296
#These two values have been output from a single CSD field.
_refine_ls_R_factor_gt 0.0307
_refine_ls_wR_factor_gt 0.0307
_symmetry_cell_setting monoclinic
_symmetry_space_group_name_H-M 'P 21/n'
_symmetry_Int_Tables_number 14
loop_
_symmetry_equiv_pos_site_id
_symmetry_equiv_pos_as_xyz
1 x,y,z
2 1/2-x,1/2+y,1/2-z
3 -x,-y,-z
4 -1/2+x,-1/2-y,-1/2+z
_cell_length_a 13.2483(6)
_cell_length_b 18.2721(8)
_cell_length_c 17.7852(8)
_cell_angle_alpha 90
_cell_angle_beta 90.178(1)
_cell_angle_gamma 90
_cell_formula_units_Z 2
loop_
_atom_type_symbol
_atom_type_radius_bond
C 0.68
H 0.23
Mn 1.61
N 0.68
O 0.68
Sb 1.39
W 1.62
loop_
_atom_site_label
_atom_site_type_symbol
_atom_site_fract_x
_atom_site_fract_y
_atom_site_fract_z
W1 W 0.46305(3) 0.86884(2) 0.02762(2)
W2 W 0.29543(4) 0.92483(2) -0.22521(2)
W3 W 0.38990(4) 1.25659(2) 0.05725(2)
W4 W 0.37027(4) 0.76480(2) -0.11312(2)
W5 W 0.19523(4) 1.12232(2) 0.10696(2)
W6 W 0.29200(4) 1.21671(2) 0.24710(2)
W7 W 0.24986(4) 1.03613(2) 0.26835(2)
W8 W 0.51316(4) 1.01526(2) 0.33010(2)
W9 W 0.44127(4) 0.80439(2) -0.30882(2)
W10 W 0.28306(4) 1.02156(2) -0.05083(2)
Sb1 Sb 0.54464(6) 0.93542(3) -0.14284(3)
Mn1 Mn 0.38928(14) 0.86602(8) 0.23587(9)
O1 O 0.1809(6) 1.2019(4) 0.1742(4)
O2 O 0.4191(6) 0.8596(4) 0.1204(4)
O3 O 0.4130(6) 1.2100(4) 0.3006(4)
O4 O 0.2297(6) 1.1417(4) 0.3030(4)
O5 O 0.3715(6) 1.0416(4) 0.3281(4)
O6 O 0.2639(6) 1.0453(4) 0.0551(4)
O7 O 0.3388(6) 0.9830(4) -0.3073(4)
O8 O 0.3594(6) 1.2604(4) 0.1642(4)
O9 O 0.3379(6) 0.9896(4) -0.1499(4)
O10 O 0.5773(6) 0.9220(4) 0.0387(4)
O11 O 0.2825(6) 1.1879(4) 0.0507(4)
O12 O 0.4489(6) 1.2235(4) -0.0317(4)
O13 O 0.4655(5) 0.9062(4) -0.2338(4)
O14 O 0.2964(7) 0.9605(4) 0.2175(4)
O15 O 0.6676(6) 0.8892(3) -0.1875(4)
O16 O 0.2764(7) 0.6993(4) -0.1161(4)
O17 O 0.5359(6) 1.1168(4) 0.3745(4)
O18 O 0.5168(6) 1.2990(3) 0.0871(4)
O19 O 0.3605(6) 0.7946(4) -0.0127(4)
O20 O 0.3013(6) 0.8481(4) -0.1495(4)
O21 O 0.2384(6) 1.2928(4) 0.2891(4)
O22 O 0.1650(7) 0.9982(5) 0.3312(4)
O23 O 0.4956(6) 0.9471(4) 0.2610(4)
O24 O 0.4141(6) 0.7356(4) -0.3714(4)
O25 O 0.3395(9) 0.8654(5) 0.3545(5)
H1 H 0.36830 0.82410 0.38020
H2 H 0.26720 0.86190 0.35550
O26 O 0.3817(6) 0.9396(4) -0.0094(4)
O27 O 0.0813(6) 1.1290(4) 0.0592(4)
O28 O 0.5089(5) 0.8432(3) -0.0891(4)
O29 O 0.3064(6) 0.8414(4) -0.2939(4)
O30 O 0.4252(6) 0.7566(4) -0.2147(4)
O31 O 0.1530(6) 1.0583(4) 0.1864(4)
O32 O 0.5185(8) 0.9683(5) 0.4146(4)
O33 O 0.2262(6) 1.0992(4) -0.0892(4)
O34 O 0.3290(7) 1.3352(4) 0.0268(4)
O35 O 0.1808(6) 0.9595(4) -0.0533(4)
O36 O 0.1667(6) 0.9393(4) -0.2305(4)
C1 C 0.5950(11) 0.7797(8) 0.2768(8)
H3 H 0.62500 0.73190 0.28450
H4 H 0.59560 0.80510 0.32470
C2 C 0.6591(11) 0.8219(8) 0.2220(7)
H5 H 0.62270 0.86550 0.20660
H6 H 0.72030 0.83750 0.24730
N1 N 0.4917(8) 0.7703(5) 0.2527(6)
H7 H 0.46220 0.74110 0.28610
H8 H 0.49320 0.74590 0.20940
N2 N 0.6867(8) 0.7800(6) 0.1544(5)
H9 H 0.72200 0.74060 0.16790
H10 H 0.72390 0.80790 0.12430
H11 H 0.63100 0.76610 0.13030
C3 C 0.8881(15) 0.1122(9) -0.1191(10)
H12 H 0.91360 0.15260 -0.14900
H13 H 0.85050 0.08040 -0.15270
C4 C 0.9763(12) 0.0704(8) -0.0887(8)
H14 H 1.02630 0.10450 -0.06970
H15 H 0.95410 0.04020 -0.04700
N3 N 1.0227(10) 0.0235(7) -0.1463(6)
H16 H 0.97510 -0.00310 -0.16880
H17 H 1.06750 -0.00610 -0.12470
H18 H 1.05350 0.05130 -0.18030
N4 N 0.8231(14) 0.1396(10) -0.0674(10)
H19 H 0.76550 0.15190 -0.08990
H20 H 0.85020 0.17900 -0.04590
H21 H 0.81110 0.10580 -0.03250
O37 O 0.558(2) 0.6317(14) 0.1448(14)
O38 O 0.5656(19) 0.1981(11) 0.526(1)
O39 O 0.897(2) 0.8443(9) 0.5769(12)
O40 O 0.5055(15) 0.4082(9) 0.2064(11)
N5 N 0.7676(19) 0.5061(12) 0.0019(11)
H22 H 0.78710 0.46040 0.01140
H23 H 0.82150 0.53500 -0.00080
H24 H 0.73420 0.50740 -0.04160
C5 C 0.703(2) 0.5310(15) 0.0611(15)
H25 H 0.66960 0.57690 0.04990
H26 H 0.73630 0.53320 0.10970
C6 C 0.635(2) 0.4655(17) 0.052(2)
H27 H 0.63260 0.45560 -0.00130
H28 H 0.67160 0.42490 0.07470
N6 N 0.529(2) 0.4593(16) 0.0798(17)
H29 H 0.52630 0.42780 0.11790
H30 H 0.48930 0.44340 0.04260
H31 H 0.50730 0.50290 0.09520
C7? C 0.858(3) 0.3932(15) -0.0221(19)
H32? H 0.91800 0.41380 0.00050
H33? H 0.85970 0.40620 -0.07490
N7? N 0.783(3) 0.4302(19) 0.0046(19)
H34? H 0.72800 0.42170 -0.02250
H35? H 0.79720 0.47790 0.00390
H36? H 0.77320 0.41580 0.05180
N8? N 0.893(3) 0.2393(16) 0.0170(19)
H37? H 0.95680 0.23810 0.03330
H38? H 0.88330 0.20330 -0.01590
H39? H 0.85160 0.23370 0.05570
C8? C 0.871(4) 0.3116(15) -0.019(2)
H40? H 0.80850 0.29840 -0.04390
H41? H 0.92100 0.30730 -0.05920
W1B W 0.53695(3) 1.13116(2) -0.02762(2)
W2B W 0.70457(4) 1.07517(2) 0.22521(2)
W3B W 0.61010(4) 0.74341(2) -0.05725(2)
W4B W 0.62973(4) 1.23520(2) 0.11312(2)
W5B W 0.80477(4) 0.87768(2) -0.10696(2)
W6B W 0.70800(4) 0.78329(2) -0.24710(2)
W7B W 0.75014(4) 0.96387(2) -0.26835(2)
W8B W 0.48684(4) 0.98474(2) -0.33010(2)
W10B W 0.71694(4) 0.97844(2) 0.05083(2)
Sb1B Sb 0.45536(6) 1.06458(3) 0.14284(3)
Mn1B Mn 0.61072(14) 1.13398(8) -0.23587(9)
O1B O 0.8191(6) 0.7981(4) -0.1742(4)
O2B O 0.5809(6) 1.1404(4) -0.1204(4)
O4B O 0.7703(6) 0.8583(4) -0.3030(4)
O5B O 0.6285(6) 0.9584(4) -0.3281(4)
O6B O 0.7361(6) 0.9547(4) -0.0551(4)
O7B O 0.6612(6) 1.0170(4) 0.3073(4)
O8B O 0.6406(6) 0.7396(4) -0.1642(4)
O9B O 0.6621(6) 1.0104(4) 0.1499(4)
O10B O 0.4227(6) 1.0780(4) -0.0387(4)
O11B O 0.7175(6) 0.8121(4) -0.0507(4)
O12B O 0.5511(6) 0.7765(4) 0.0317(4)
O13B O 0.5345(5) 1.0938(4) 0.2338(4)
O14B O 0.7036(7) 1.0395(4) -0.2175(4)
O15B O 0.3324(6) 1.1108(3) 0.1875(4)
O16B O 0.7236(7) 1.3007(4) 0.1161(4)
O18B O 0.4832(6) 0.7010(3) -0.0871(4)
O19B O 0.6395(6) 1.2054(4) 0.0127(4)
O20B O 0.6987(6) 1.1519(4) 0.1495(4)
O21B O 0.7616(6) 0.7072(4) -0.2891(4)
O22B O 0.8350(7) 1.0018(5) -0.3312(4)
O23B O 0.5044(6) 1.0529(4) -0.2610(4)
O25B O 0.6605(9) 1.1346(5) -0.3545(5)
H1B H 0.63170 1.17590 -0.38020
H2B H 0.73280 1.13810 -0.35550
O26B O 0.6183(6) 1.0604(4) 0.0094(4)
O27B O 0.9187(6) 0.8710(4) -0.0592(4)
O28B O 0.4911(5) 1.1568(3) 0.0891(4)
O29B O 0.6936(6) 1.1586(4) 0.2939(4)
O30B O 0.5748(6) 1.2434(4) 0.2147(4)
O31B O 0.8470(6) 0.9417(4) -0.1864(4)
O32B O 0.4815(8) 1.0317(5) -0.4146(4)
O33B O 0.7738(6) 0.9008(4) 0.0892(4)
O34B O 0.6710(7) 0.6648(4) -0.0268(4)
O35B O 0.8192(6) 1.0405(4) 0.0533(4)
O36B O 0.8333(6) 1.0607(4) 0.2305(4)
C1B C 0.4050(11) 1.2203(8) -0.2768(8)
H3B H 0.37500 1.26810 -0.28450
H4B H 0.40440 1.19490 -0.32470
C2B C 0.3409(11) 1.1781(8) -0.2220(7)
H5B H 0.37730 1.13450 -0.20660
H6B H 0.27970 1.16250 -0.24730
N1B N 0.5083(8) 1.2297(5) -0.2527(6)
H7B H 0.53780 1.25890 -0.28610
H8B H 0.50680 1.25410 -0.20940
N2B N 0.3133(8) 1.2200(6) -0.1544(5)
H9B H 0.27800 1.25940 -0.16790
H10B H 0.27610 1.19210 -0.12430
H11B H 0.36900 1.23390 -0.13030
O17B O 0.4641(6) 0.8832(4) -0.3745(4)
W9B W 0.55873(4) 1.19561(2) 0.30882(2)
O3B O 0.5870(6) 0.7900(4) -0.3006(4)
O24B O 0.5859(6) 1.2644(4) 0.3714(4)
Mn1A Mn 0.11072(14) 1.36602(8) 0.26413(9)
Mn1C Mn 0.88928(14) 0.63398(8) -0.26413(9)
O21A O 0.2616(6) 0.7928(4) 0.2109(4)
O21C O 0.7384(6) 1.2072(4) -0.2109(4)
#END
