
#######################################################################
#
#                 Cambridge Crystallographic Data Centre
#                                CCDC
#
#######################################################################
#
# If this CIF has been generated from an entry in the Cambridge
# Structural Database, then it will include bibliographic, chemical,
# crystal, experimental, refinement or atomic coordinate data resulting
# from the CCDC's data processing and validation procedures.
#
#######################################################################

data_CSD_CIF_DUYTEZ
_audit_creation_date 2020-09-10
_audit_creation_method CSD-ConQuest-V1
_database_code_CSD DUYTEZ
_database_code_depnum_ccdc_archive 'CCDC 1835485'
_chemical_formula_sum 'C25 H18 Ce1 N2 O11'
_chemical_formula_moiety
;
0.5(C18 H16 N4 2+),n(C16 H10 Ce1 O11 1-)
;
_journal_coden_Cambridge 222
_journal_volume 49
_journal_year 2020
_journal_page_first 13003
_journal_name_full 'Dalton Trans. '
loop_
_publ_author_name
"Yi Du"
"Huayong Yang"
"Ruijuan Liu"
"Caiyun Shao"
"Lirong Yang"
_chemical_name_systematic
;
catena-[hemikis(1,1'-(biphenyl-4,4'-diyl)di(1H-imidazol-3-ium)) 
(\m-2,3',4',6-tetracarboxylato-1,1'-oxydibenzene)-diaqua-cerium(iii)]
;
_cell_volume   2442.608
_exptl_crystal_colour 'colorless'
_exptl_crystal_density_diffrn 1.802
_exptl_special_details
;
Isostructural with the La, Pr, Nd, Sm and Eu analogues.
!

;
_exptl_crystal_description 'block'
_diffrn_ambient_temperature 296.1
#These two values have been output from a single CSD field.
_refine_ls_R_factor_gt 0.028
_refine_ls_wR_factor_gt 0.028
_symmetry_cell_setting monoclinic
_symmetry_space_group_name_H-M 'P 21/c'
_symmetry_Int_Tables_number 14
loop_
_symmetry_equiv_pos_site_id
_symmetry_equiv_pos_as_xyz
1 x,y,z
2 -x,1/2+y,1/2-z
3 -x,-y,-z
4 x,-1/2-y,-1/2+z
_cell_length_a 16.2883(10)
_cell_length_b 8.5827(5)
_cell_length_c 19.2359(12)
_cell_angle_alpha 90
_cell_angle_beta 114.7250(9)
_cell_angle_gamma 90
_cell_formula_units_Z 4
loop_
_atom_type_symbol
_atom_type_radius_bond
C 0.68
H 0.23
Ce 2.04
N 0.68
O 0.68
loop_
_atom_site_label
_atom_site_type_symbol
_atom_site_fract_x
_atom_site_fract_y
_atom_site_fract_z
Ce1 Ce 0.13445(2) 1.08935(2) 0.53701(2)
O1 O 0.23437(14) 1.1959(2) 0.67517(11)
O2 O 0.09103(14) 1.1419(3) 0.64566(11)
O3 O 0.11268(17) 0.8745(3) 0.43735(13)
O4 O 0.09616(17) 1.3837(2) 0.53692(13)
O5 O 0.22678(13) 0.8740(2) 0.61166(11)
O6 O 0.03400(12) 0.8648(2) 0.54965(10)
O7 O 0.06168(13) 1.1892(2) 0.39995(11)
O8 O 0.26934(13) 1.1546(3) 0.52479(11)
H1 H 0.13130 0.79304 0.46464
H2 H 0.05547 0.86532 0.41674
H3 H 0.07940 1.47745 0.52486
H4 H 0.10390 1.37594 0.58331
C1 C 0.30060(19) 1.1663(3) 0.47450(15)
C2 C 0.25362(18) 1.2791(3) 0.41057(14)
O9 O 0.36840(15) 1.0949(3) 0.47794(12)
C3 C 0.2253(2) 1.4208(3) 0.42785(17)
C4 C 0.23607(17) 1.2488(3) 0.33455(14)
C5 C 0.1825(2) 1.5304(4) 0.37255(19)
H5 H 0.23572 1.44189 0.47827
O10 O 0.26557(12) 1.1088(2) 0.31663(10)
C6 C 0.19070(19) 1.3560(3) 0.27745(15)
C7 C 0.1641(2) 1.4968(4) 0.29752(18)
H6 H 0.16614 1.62615 0.38559
C8 C 0.20168(18) 1.0113(3) 0.26503(14)
C9 C 0.1713(2) 1.3333(3) 0.19450(15)
H7 H 0.13341 1.56937 0.25960
C10 C 0.11675(19) 0.9891(3) 0.26342(15)
C11 C 0.22802(19) 0.9323(3) 0.21497(15)
C12 C 0.0581(2) 0.8871(3) 0.21009(16)
H8 H 0.09951 1.04162 0.29747
C13 C 0.16864(18) 0.8317(3) 0.16079(15)
H9 H 0.28588 0.94670 0.21769
C14 C 0.08261(18) 0.8074(3) 0.15827(15)
H10 H 0.00093 0.87117 0.20865
C15 C 0.19756(18) 0.7638(3) 0.10221(16)
C16 C 0.01495(18) 0.7037(3) 0.10045(14)
O11 O 0.19200(17) 0.8512(3) 0.04870(12)
N1 N 0.44856(17) 0.9764(3) 0.61818(15)
H11 H 0.41706 1.00306 0.57139
N2 N 0.49016(17) 0.9408(3) 0.73919(14)
C17 C 0.4245(2) 0.9954(4) 0.67480(18)
H12 H 0.37061 1.03971 0.67080
C18 C 0.5318(2) 0.9073(4) 0.64564(18)
H13 H 0.56414 0.88143 0.61731
C19 C 0.5582(2) 0.8835(4) 0.72087(18)
H14 H 0.61192 0.83735 0.75431
C20 C 0.4929(2) 0.9547(4) 0.81459(18)
C21 C 0.5654(2) 1.0236(5) 0.87147(19)
H15 H 0.61372 1.05802 0.86169
C22 C 0.5675(2) 1.0425(5) 0.94376(19)
H16 H 0.61695 1.09168 0.98155
C23 C 0.4985(2) 0.9905(5) 0.96098(18)
C24 C 0.4252(3) 0.9238(7) 0.9017(3)
H17 H 0.37654 0.88981 0.91097
C25 C 0.4218(3) 0.9058(6) 0.8287(2)
H18 H 0.37154 0.86088 0.78998
O6B O -0.03400(12) 1.1352(2) 0.45035(10)
O1C O 0.23437(14) 1.3041(2) 0.17517(11)
O2C O 0.09103(14) 1.3581(3) 0.14566(11)
Ce1C Ce 0.13445(2) 1.41065(2) 0.03701(2)
Ce1A Ce -0.13445(2) 0.58935(2) -0.03701(2)
O5C O 0.22678(13) 0.6260(2) 0.11166(11)
O6C O 0.03400(12) 0.6352(2) 0.04965(10)
O7A O -0.06168(13) 0.6892(2) 0.10005(11)
Ce1C* Ce 0.13445(2) 0.41065(2) 0.03701(2)
N1B N 0.55144(17) 1.0236(3) 1.38182(15)
H11B H 0.58294 0.99694 1.42861
N2B N 0.50984(17) 1.0592(3) 1.26081(14)
C17B C 0.5755(2) 1.0046(4) 1.32520(18)
H12B H 0.62939 0.96029 1.32920
C18B C 0.4682(2) 1.0927(4) 1.35436(18)
H13B H 0.43586 1.11857 1.38269
C19B C 0.4418(2) 1.1165(4) 1.27913(18)
H14B H 0.38808 1.16265 1.24569
C20B C 0.5071(2) 1.0453(4) 1.18541(18)
C21B C 0.4346(2) 0.9764(5) 1.12853(19)
H15B H 0.38628 0.94198 1.13831
C22B C 0.4325(2) 0.9575(5) 1.05624(19)
H16B H 0.38305 0.90832 1.01845
C23B C 0.5015(2) 1.0095(5) 1.03902(18)
C24B C 0.5748(3) 1.0762(7) 1.0983(3)
H17B H 0.62346 1.11019 1.08903
C25B C 0.5782(3) 1.0942(6) 1.1713(2)
H18B H 0.62846 1.13912 1.21002
#END
