
#######################################################################
#
#                 Cambridge Crystallographic Data Centre
#                                CCDC
#
#######################################################################
#
# If this CIF has been generated from an entry in the Cambridge
# Structural Database, then it will include bibliographic, chemical,
# crystal, experimental, refinement or atomic coordinate data resulting
# from the CCDC's data processing and validation procedures.
#
#######################################################################

data_CSD_CIF_DUYTID
_audit_creation_date 2020-09-10
_audit_creation_method CSD-ConQuest-V1
_database_code_CSD DUYTID
_database_code_depnum_ccdc_archive 'CCDC 1818344'
_chemical_formula_sum 'C25 H18 N2 O11 Sm1'
_chemical_formula_moiety
;
0.5(C18 H16 N4 2+),n(C16 H10 O11 Sm1 1-)
;
_journal_coden_Cambridge 222
_journal_volume 49
_journal_year 2020
_journal_page_first 13003
_journal_name_full 'Dalton Trans. '
loop_
_publ_author_name
"Yi Du"
"Huayong Yang"
"Ruijuan Liu"
"Caiyun Shao"
"Lirong Yang"
_chemical_name_systematic
;
catena-[hemikis(1,1'-(biphenyl-4,4'-diyl)di(1H-imidazol-3-ium)) 
(\m-2,3',4',6-tetracarboxylato-1,1'-oxydibenzene)-diaqua-samarium(iii)]
;
_cell_volume   2422.935
_exptl_crystal_colour 'colorless'
_exptl_crystal_density_diffrn 1.844
_exptl_special_details
;
Isostructural with the La, Ce, Pr, Nd and Eu analogues.

;
_exptl_crystal_description 'block'
_diffrn_ambient_temperature 296.1
#These two values have been output from a single CSD field.
_refine_ls_R_factor_gt 0.0323
_refine_ls_wR_factor_gt 0.0323
_symmetry_cell_setting monoclinic
_symmetry_space_group_name_H-M 'P 21/c'
_symmetry_Int_Tables_number 14
loop_
_symmetry_equiv_pos_site_id
_symmetry_equiv_pos_as_xyz
1 x,y,z
2 -x,1/2+y,1/2-z
3 -x,-y,-z
4 x,-1/2-y,-1/2+z
_cell_length_a 16.2397(14)
_cell_length_b 8.5555(7)
_cell_length_c 19.2033(17)
_cell_angle_alpha 90
_cell_angle_beta 114.7534(12)
_cell_angle_gamma 90
_cell_formula_units_Z 4
loop_
_atom_type_symbol
_atom_type_radius_bond
C 0.68
H 0.23
N 0.68
O 0.68
Sm 1.98
loop_
_atom_site_label
_atom_site_type_symbol
_atom_site_fract_x
_atom_site_fract_y
_atom_site_fract_z
Sm1 Sm 0.13339(2) 0.58780(2) 1.03632(2)
O1 O 0.09158(16) 0.8660(3) 0.64329(12)
O2 O 0.23503(16) 0.8084(3) 0.67310(13)
O3 O 0.26484(15) 0.6104(2) 0.81487(12)
O4 O 0.36440(19) 0.5922(3) 0.97631(16)
O5 O 0.26438(16) 0.6528(3) 1.02281(12)
O6 O 0.03188(15) 0.1359(3) 0.54647(11)
O7 O -0.06413(15) 0.1912(3) 0.59673(13)
O8 O 0.22392(15) 0.1230(3) 0.60866(13)
O9 O 0.1928(2) 0.3514(3) 0.54703(14)
O10 O 0.1001(2) 0.8764(3) 1.03929(15)
H1 H 0.06109 0.90265 1.05593
H2 H 0.12109 0.95959 1.02876
O11 O 0.1135(2) 0.3797(3) 0.93842(15)
H3 H 0.06299 0.33206 0.92815
H4 H 0.10739 0.42748 0.89761
C1 C 0.1715(2) 0.8396(4) 0.69260(17)
C2 C 0.1906(2) 0.8599(4) 0.77548(16)
C3 C 0.1641(3) 1.0022(4) 0.7959(2)
H5 H 0.13440 1.07618 0.75819
C4 C 0.1815(3) 1.0338(4) 0.8712(2)
H6 H 0.16471 1.12941 0.88440
C5 C 0.2239(3) 0.9226(4) 0.9270(2)
H7 H 0.23436 0.94344 0.97759
C6 C 0.2512(2) 0.7803(3) 0.90898(16)
C7 C 0.23541(19) 0.7506(3) 0.83296(16)
C8 C 0.2968(2) 0.6649(4) 0.97320(17)
C9 C 0.0130(2) 0.2040(3) 0.59747(16)
C10 C 0.0812(2) 0.3079(3) 0.65592(16)
C11 C 0.0562(2) 0.3879(4) 0.70785(19)
H8 H -0.00102 0.37120 0.70655
C12 C 0.1149(2) 0.4910(4) 0.76094(18)
H9 H 0.09734 0.54466 0.79463
C13 C 0.2003(2) 0.5126(3) 0.76288(16)
C14 C 0.2276(2) 0.4322(3) 0.71325(18)
H10 H 0.28603 0.44550 0.71671
C15 C 0.1677(2) 0.3317(3) 0.65844(16)
C16 C 0.1962(2) 0.2627(3) 0.59983(18)
N1 N 0.4893(2) 0.4382(4) 0.23792(17)
N2 N 0.4465(2) 0.4741(4) 0.11685(16)
H11 H 0.41440 0.49989 0.06991
C17 C 0.4925(3) 0.4535(5) 0.3136(2)
C18 C 0.4210(4) 0.4046(7) 0.3278(3)
H12 H 0.37064 0.35877 0.28918
C19 C 0.4246(4) 0.4243(8) 0.4015(3)
H13 H 0.37540 0.39223 0.41087
C20 C 0.4981(3) 0.4893(6) 0.4603(2)
C21 C 0.5684(3) 0.5405(6) 0.4435(2)
H14 H 0.61831 0.58857 0.48158
C22 C 0.5662(3) 0.5218(6) 0.3712(2)
H15 H 0.61478 0.55555 0.36149
C23 C 0.5575(3) 0.3822(4) 0.2197(2)
H16 H 0.61166 0.33664 0.25320
C24 C 0.5303(3) 0.4064(4) 0.1435(2)
H17 H 0.56255 0.38152 0.11480
C25 C 0.4224(2) 0.4940(5) 0.1735(2)
H18 H 0.36850 0.53886 0.16973
Sm1A Sm -0.13339(2) 0.08780(2) 0.46368(2)
Sm1C Sm 0.13339(2) -0.08780(2) 0.53632(2)
Sm1C* Sm 0.13339(2) 0.91220(2) 0.53632(2)
O1C O 0.09158(16) 0.6340(3) 1.14329(12)
O2C O 0.23503(16) 0.6916(3) 1.17310(13)
O6A O -0.03188(15) 0.6359(3) 0.95353(11)
O6C O 0.03188(15) 0.3641(3) 1.04647(11)
O7A O 0.06413(15) 0.6912(3) 0.90327(13)
O8C O 0.22392(15) 0.3770(3) 1.10866(13)
N1B N 0.5107(2) 0.5618(4) 0.76208(17)
N2B N 0.5535(2) 0.5259(4) 0.88315(16)
H11B H 0.58560 0.50011 0.93009
C17B C 0.5075(3) 0.5465(5) 0.6864(2)
C18B C 0.5790(4) 0.5954(7) 0.6722(3)
H12B H 0.62936 0.64123 0.71082
C19B C 0.5754(4) 0.5757(8) 0.5985(3)
H13B H 0.62460 0.60777 0.58913
C20B C 0.5019(3) 0.5107(6) 0.5397(2)
C21B C 0.4316(3) 0.4595(6) 0.5565(2)
H14B H 0.38169 0.41143 0.51842
C22B C 0.4338(3) 0.4782(6) 0.6288(2)
H15B H 0.38522 0.44445 0.63851
C23B C 0.4425(3) 0.6178(4) 0.7803(2)
H16B H 0.38834 0.66336 0.74680
C24B C 0.4697(3) 0.5936(4) 0.8565(2)
H17B H 0.43745 0.61848 0.88520
C25B C 0.5776(2) 0.5060(5) 0.8265(2)
H18B H 0.63150 0.46114 0.83027
#END
