
#######################################################################
#
#                 Cambridge Crystallographic Data Centre
#                                CCDC
#
#######################################################################
#
# If this CIF has been generated from an entry in the Cambridge
# Structural Database, then it will include bibliographic, chemical,
# crystal, experimental, refinement or atomic coordinate data resulting
# from the CCDC's data processing and validation procedures.
#
#######################################################################

data_CSD_CIF_DUYTOJ
_audit_creation_date 2020-09-10
_audit_creation_method CSD-ConQuest-V1
_database_code_CSD DUYTOJ
_database_code_depnum_ccdc_archive 'CCDC 1835486'
_chemical_formula_sum 'C25 H18 N2 Nd1 O11'
_chemical_formula_moiety
;
0.5(C18 H16 N4 2+),n(C16 H10 Nd1 O11 1-)
;
_journal_coden_Cambridge 222
_journal_volume 49
_journal_year 2020
_journal_page_first 13003
_journal_name_full 'Dalton Trans. '
loop_
_publ_author_name
"Yi Du"
"Huayong Yang"
"Ruijuan Liu"
"Caiyun Shao"
"Lirong Yang"
_chemical_name_systematic
;
catena-[hemikis(1,1'-(biphenyl-4,4'-diyl)di(1H-imidazol-3-ium)) 
(\m-2,3',4',6-tetracarboxylato-1,1'-oxydibenzene)-diaqua-neodymium(iii)]
;
_cell_volume   2430.889
_exptl_crystal_colour 'colorless'
_exptl_crystal_density_diffrn 1.822
_exptl_special_details
;
Isostructural with the La, Ce, Pr, Sm and Eu analogues.

;
_exptl_crystal_description 'block'
_diffrn_ambient_temperature 296.1
#These two values have been output from a single CSD field.
_refine_ls_R_factor_gt 0.0257
_refine_ls_wR_factor_gt 0.0257
_symmetry_cell_setting monoclinic
_symmetry_space_group_name_H-M 'P 21/c'
_symmetry_Int_Tables_number 14
loop_
_symmetry_equiv_pos_site_id
_symmetry_equiv_pos_as_xyz
1 x,y,z
2 -x,1/2+y,1/2-z
3 -x,-y,-z
4 x,-1/2-y,-1/2+z
_cell_length_a 16.2535(18)
_cell_length_b 8.5688(9)
_cell_length_c 19.213(2)
_cell_angle_alpha 90
_cell_angle_beta 114.7074(16)
_cell_angle_gamma 90
_cell_formula_units_Z 4
loop_
_atom_type_symbol
_atom_type_radius_bond
C 0.68
H 0.23
N 0.68
Nd 2.01
O 0.68
loop_
_atom_site_label
_atom_site_type_symbol
_atom_site_fract_x
_atom_site_fract_y
_atom_site_fract_z
Nd1 Nd 0.63377(2) 0.58829(2) 0.03666(2)
O1 O 0.59093(12) 0.6383(2) 0.14437(10)
O2 O 0.73439(12) 0.6936(2) 0.17364(10)
O3 O 0.61274(15) 0.3782(2) -0.06202(11)
O4 O 0.59828(16) 0.8796(2) 0.03830(12)
O5 O 0.76677(12) 0.6543(2) 0.02363(10)
O6 O 0.56305(12) 0.6896(2) -0.09822(10)
O7 O 0.53293(11) 0.3648(2) 0.04808(9)
O8 O 0.72502(12) 0.3747(2) 0.10978(10)
H1 H 0.55856 0.35738 -0.09288
H2 H 0.64021 0.29211 -0.04609
H3 H 0.57688 0.89156 0.07146
H4 H 0.62434 0.96417 0.03603
C1 C 0.79898(17) 0.6656(3) -0.02623(13)
C2 C 0.75236(16) 0.7796(3) -0.09035(13)
O9 O 0.86622(14) 0.5932(3) -0.02281(11)
C3 C 0.73551(15) 0.7498(3) -0.16649(12)
C4 C 0.72445(19) 0.9221(3) -0.07251(15)
C5 C 0.69050(17) 0.8586(3) -0.22356(13)
O10 O 0.76531(11) 0.60983(19) -0.18437(9)
C6 C 0.6821(2) 1.0324(3) -0.12823(17)
H5 H 0.73459 0.94302 -0.02208
C7 C 0.6643(2) 0.9995(3) -0.20333(16)
C8 C 0.67152(17) 0.8366(3) -0.30645(13)
C9 C 0.70097(16) 0.5120(3) -0.23606(12)
H6 H 0.66576 1.12836 -0.11522
H7 H 0.63416 1.07286 -0.24114
C10 C 0.72766(17) 0.4326(3) -0.28603(14)
C11 C 0.61590(17) 0.4900(3) -0.23798(14)
C12 C 0.66768(16) 0.3323(3) -0.34051(13)
H8 H 0.78577 0.44645 -0.28311
H9 H 0.59862 0.54329 -0.20407
C13 C 0.55671(18) 0.3877(3) -0.29098(15)
C14 C 0.58189(16) 0.3076(3) -0.34309(13)
C15 C 0.69655(16) 0.2640(3) -0.39931(14)
H10 H 0.49953 0.37154 -0.29223
C16 C 0.51322(16) 0.2039(3) -0.40096(13)
O11 O 0.69164(15) 0.3513(2) -0.45276(11)
C17 C 0.07645(19) 0.9947(4) 0.32579(16)
H11 H 0.13029 1.03933 0.32948
C18 C -0.03104(19) 0.9062(4) 0.35542(17)
H12 H -0.06333 0.88009 0.38389
C19 C -0.05773(19) 0.8834(3) 0.27980(16)
H13 H -0.11179 0.83817 0.24617
C20 C 0.0072(2) 0.9531(4) 0.18575(16)
C21 C -0.0659(2) 1.0233(5) 0.12876(17)
H14 H -0.11400 1.05857 0.13870
C22 C -0.0678(2) 1.0414(5) 0.05668(17)
H15 H -0.11745 1.09013 0.01870
C23 C 0.0014(2) 0.9896(4) 0.03957(16)
C24 C 0.0752(3) 0.9230(6) 0.0982(2)
H16 H 0.12404 0.88999 0.08874
C25 C 0.0782(3) 0.9040(6) 0.1715(2)
H17 H 0.12836 0.85811 0.21018
N1 N 0.05260(16) 0.9751(3) 0.38263(13)
H18 H 0.08443 1.00144 0.42949
N2 N 0.01027(16) 0.9397(3) 0.26171(13)
O7B O 0.46707(11) 0.6352(2) -0.04808(9)
O1C O 0.59093(12) 0.8617(2) -0.35563(10)
O2C O 0.73439(12) 0.8064(2) -0.32636(10)
Nd1C Nd 0.63377(2) 0.91171(2) -0.46334(2)
O8C O 0.72502(12) 0.1253(2) -0.39022(10)
O7C O 0.53293(11) 0.1352(2) -0.45192(9)
O6A O 0.43695(12) 0.1896(2) -0.40178(10)
Nd1C* Nd 0.63377(2) -0.08829(2) -0.46334(2)
Nd1A Nd 0.36623(2) 0.08829(2) -0.53666(2)
C17B C -0.07645(19) 1.0053(4) -0.32579(16)
H11B H -0.13029 0.96067 -0.32948
C18B C 0.03104(19) 1.0938(4) -0.35542(17)
H12B H 0.06333 1.11991 -0.38389
C19B C 0.05773(19) 1.1166(3) -0.27980(16)
H13B H 0.11179 1.16183 -0.24617
C20B C -0.0072(2) 1.0469(4) -0.18575(16)
C21B C 0.0659(2) 0.9767(5) -0.12876(17)
H14B H 0.11400 0.94143 -0.13870
C22B C 0.0678(2) 0.9586(5) -0.05668(17)
H15B H 0.11745 0.90987 -0.01870
C23B C -0.0014(2) 1.0104(4) -0.03957(16)
C24B C -0.0752(3) 1.0770(6) -0.0982(2)
H16B H -0.12404 1.11001 -0.08874
C25B C -0.0782(3) 1.0960(6) -0.1715(2)
H17B H -0.12836 1.14189 -0.21018
N1B N -0.05260(16) 1.0249(3) -0.38263(13)
H18B H -0.08443 0.99856 -0.42949
N2B N -0.01027(16) 1.0603(3) -0.26171(13)
#END
