
#######################################################################
#
#                 Cambridge Crystallographic Data Centre
#                                CCDC
#
#######################################################################
#
# If this CIF has been generated from an entry in the Cambridge
# Structural Database, then it will include bibliographic, chemical,
# crystal, experimental, refinement or atomic coordinate data resulting
# from the CCDC's data processing and validation procedures.
#
#######################################################################

data_CSD_CIF_DUYVAX
_audit_creation_date 2020-09-10
_audit_creation_method CSD-ConQuest-V1
_database_code_CSD DUYVAX
_database_code_depnum_ccdc_archive 'CCDC 1835488'
_chemical_formula_sum 'C25 H18 Eu1 N2 O11'
_chemical_formula_moiety
;
0.5(C18 H16 N4 2+),n(C16 H10 Eu1 O11 1-)
;
_journal_coden_Cambridge 222
_journal_volume 49
_journal_year 2020
_journal_page_first 13003
_journal_name_full 'Dalton Trans. '
loop_
_publ_author_name
"Yi Du"
"Huayong Yang"
"Ruijuan Liu"
"Caiyun Shao"
"Lirong Yang"
_chemical_name_systematic
;
catena-[hemikis(1,1'-(biphenyl-4,4'-diyl)di(1H-imidazol-3-ium)) 
(\m-2,3',4',6-tetracarboxylato-1,1'-oxydibenzene)-diaqua-europium(iii)]
;
_cell_volume   2409.429
_exptl_crystal_colour 'colorless'
_exptl_crystal_density_diffrn 1.859
_exptl_special_details
;
Isostructural with the La, Ce, Pr, Nd and Sm analogues.

;
_exptl_crystal_description 'block'
_diffrn_ambient_temperature 296.1
#These two values have been output from a single CSD field.
_refine_ls_R_factor_gt 0.06
_refine_ls_wR_factor_gt 0.06
_symmetry_cell_setting monoclinic
_symmetry_space_group_name_H-M 'P 21/c'
_symmetry_Int_Tables_number 14
loop_
_symmetry_equiv_pos_site_id
_symmetry_equiv_pos_as_xyz
1 x,y,z
2 -x,1/2+y,1/2-z
3 -x,-y,-z
4 x,-1/2-y,-1/2+z
_cell_length_a 16.213(3)
_cell_length_b 8.5404(14)
_cell_length_c 19.151(4)
_cell_angle_alpha 90
_cell_angle_beta 114.685(3)
_cell_angle_gamma 90
_cell_formula_units_Z 4
loop_
_atom_type_symbol
_atom_type_radius_bond
C 0.68
H 0.23
Eu 1.98
N 0.68
O 0.68
loop_
_atom_site_label
_atom_site_type_symbol
_atom_site_fract_x
_atom_site_fract_y
_atom_site_fract_z
Eu1 Eu 0.13320(3) 0.58745(5) 0.03610(2)
O1 O 0.2346(4) 0.6892(7) 0.1717(3)
O2 O 0.0921(4) 0.6336(7) 0.1431(4)
O3 O 0.1034(4) 0.8758(7) 0.0407(4)
O4 O 0.1130(4) 0.3811(7) -0.0614(3)
O5 O 0.2626(4) 0.6514(7) 0.0218(3)
O6 O 0.0313(4) 0.3640(7) 0.0451(3)
O7 O 0.0641(4) 0.6910(7) -0.0959(3)
O8 O 0.2225(4) 0.3776(6) 0.1082(3)
H1 H 0.09303 0.89491 0.08036
H2 H 0.05361 0.90124 0.00265
H3 H 0.05442 0.36411 -0.09159
H4 H 0.13120 0.28802 -0.03893
C1 C 0.2960(6) 0.6613(11) -0.0271(5)
O9 O 0.3637(4) 0.5909(9) -0.0237(3)
C2 C 0.2510(6) 0.7786(11) -0.0910(4)
C3 C 0.2347(5) 0.7506(11) -0.1677(5)
C4 C 0.2228(6) 0.9228(12) -0.0740(5)
C5 C 0.1904(6) 0.862(1) -0.2249(5)
O10 O 0.2640(4) 0.6103(7) -0.1860(3)
H5 H 0.23238 0.94308 -0.02344
C6 C 0.1819(7) 1.0348(11) -0.1281(5)
C7 C 0.1724(6) 0.8402(10) -0.3077(5)
C8 C 0.1658(6) 1.0016(10) -0.2037(5)
C9 C 0.1996(6) 0.5143(10) -0.2382(5)
H6 H 0.16528 1.13070 -0.11485
H7 H 0.13746 1.07677 -0.24132
C10 C 0.2265(5) 0.4318(10) -0.2877(5)
C11 C 0.1145(6) 0.4924(10) -0.2397(5)
H8 H 0.28488 0.44433 -0.28456
C12 C 0.1666(5) 0.3315(10) -0.3414(5)
C13 C 0.0552(6) 0.3866(10) -0.2940(5)
H9 H 0.09682 0.54585 -0.20585
C14 C 0.1961(6) 0.2622(11) -0.4006(5)
C15 C 0.0806(5) 0.3068(9) -0.3449(4)
H10 H -0.00237 0.37007 -0.29581
O11 O 0.1929(5) 0.3503(7) -0.4537(4)
C16 C 0.0131(6) 0.2058(10) -0.4025(5)
N1 N 0.4475(5) 0.4749(9) 0.1173(5)
H11 H 0.41593 0.50233 0.07036
N2 N 0.4886(5) 0.4388(10) 0.2378(4)
C17 C 0.4227(6) 0.4956(12) 0.1743(5)
H12 H 0.36900 0.54149 0.17064
C18 C 0.5299(6) 0.4040(13) 0.1436(5)
H13 H 0.56144 0.37622 0.11456
C19 C 0.5576(6) 0.3814(12) 0.2198(5)
H14 H 0.61196 0.33646 0.25349
C20 C 0.4923(4) 0.4533(9) 0.3137(3)
C21 C 0.4209(4) 0.4002(10) 0.3295(3)
H15 H 0.37097 0.35245 0.29113
C22 C 0.4240(4) 0.4186(10) 0.4027(4)
H16 H 0.37622 0.38305 0.41329
C23 C 0.4986(5) 0.490(1) 0.4601(3)
C24 C 0.5701(4) 0.5431(9) 0.4443(3)
H17 H 0.61996 0.59089 0.48267
C25 C 0.5669(4) 0.5248(9) 0.3711(4)
H18 H 0.61472 0.56029 0.36051
O6B O -0.0313(4) 0.6360(7) -0.0451(3)
O2C O 0.0921(4) 0.8664(7) -0.3569(4)
O1C O 0.2346(4) 0.8108(7) -0.3283(3)
Eu1C Eu 0.13320(3) 0.91255(5) -0.46390(2)
O8C O 0.2225(4) 0.1224(6) -0.3918(3)
Eu1C* Eu 0.13320(3) -0.08745(5) -0.46390(2)
O6C O 0.0313(4) 0.1360(7) -0.4549(3)
O7A O -0.0641(4) 0.1910(7) -0.4041(3)
Eu1A Eu -0.13320(3) 0.08745(5) -0.53610(2)
N1B N 0.5525(5) 0.5251(9) 0.8827(5)
H11B H 0.58407 0.49767 0.92963
N2B N 0.5114(5) 0.5612(10) 0.7622(4)
C17B C 0.5773(6) 0.5044(12) 0.8257(5)
H12B H 0.63100 0.45851 0.82936
C18B C 0.4701(6) 0.5960(13) 0.8564(5)
H13B H 0.43856 0.62378 0.88544
C19B C 0.4424(6) 0.6186(12) 0.7802(5)
H14B H 0.38804 0.66353 0.74651
C20B C 0.5077(4) 0.5467(9) 0.6863(3)
C21B C 0.5791(4) 0.5998(10) 0.6705(3)
H15B H 0.62903 0.64755 0.70887
C22B C 0.5760(4) 0.5814(10) 0.5973(4)
H16B H 0.62378 0.61695 0.58671
C23B C 0.5014(5) 0.510(1) 0.5399(3)
C24B C 0.4299(4) 0.4569(9) 0.5557(3)
H17B H 0.38004 0.40911 0.51733
C25B C 0.4331(4) 0.4752(9) 0.6289(4)
H18B H 0.38528 0.43971 0.63949
#END
