
#######################################################################
#
#                 Cambridge Crystallographic Data Centre
#                                CCDC
#
#######################################################################
#
# If this CIF has been generated from an entry in the Cambridge
# Structural Database, then it will include bibliographic, chemical,
# crystal, experimental, refinement or atomic coordinate data resulting
# from the CCDC's data processing and validation procedures.
#
#######################################################################

data_CSD_CIF_DUZXEE
_audit_creation_date 2020-09-11
_audit_creation_method CSD-ConQuest-V1
_database_code_CSD DUZXEE
_database_code_depnum_ccdc_archive 'CCDC 2026564'
_chemical_formula_sum 'C32 H108 In8 N12 O84 P16'
_chemical_formula_moiety
;
(C8 H20 In8 O80 P16 12-)n,4(C6 H20 N3 3+),4(H2 O1)
;
_journal_coden_Cambridge 208
_journal_volume 292
_journal_year 2020
_journal_page_first 121709
_journal_name_full 'J.Solid State Chem. '
loop_
_publ_author_name
"Ying Zhang"
"Heping Jiang"
"Lindong Luan"
"Hongmei Zeng"
"Guohong Zou"
"Zhien Lin"
_chemical_name_systematic
;
catena-[tetrakis(N^1^-(3-azaniumylpropyl)propane-1,3-bis(aminium)) 
tetrakis(\m-dihydrogen phosphato)-dodecakis(\m-hydrogen 
phosphato)-tetrakis(\m-oxalato)-octa-indium tetrahydrate]
;
_cell_volume   4847.297
_exptl_crystal_colour 'colorless'
_exptl_crystal_density_diffrn 2.343
_exptl_crystal_description 'plate'
_diffrn_ambient_temperature 293
_refine_special_details
;
C15' and C15 disordered over two sites with occupancies 0.538:0.462.

;
#These two values have been output from a single CSD field.
_refine_ls_R_factor_gt 0.0334
_refine_ls_wR_factor_gt 0.0334
_symmetry_cell_setting monoclinic
_symmetry_space_group_name_H-M 'P 21/c'
_symmetry_Int_Tables_number 14
loop_
_symmetry_equiv_pos_site_id
_symmetry_equiv_pos_as_xyz
1 x,y,z
2 -x,1/2+y,1/2-z
3 -x,-y,-z
4 x,-1/2-y,-1/2+z
_cell_length_a 14.6275(2)
_cell_length_b 20.8096(3)
_cell_length_c 17.1995(3)
_cell_angle_alpha 90
_cell_angle_beta 112.2001(18)
_cell_angle_gamma 90
_cell_formula_units_Z 2
loop_
_atom_type_symbol
_atom_type_radius_bond
C 0.68
H 0.23
In 1.42
N 0.68
O 0.68
P 1.05
loop_
_atom_site_label
_atom_site_type_symbol
_atom_site_fract_x
_atom_site_fract_y
_atom_site_fract_z
In1 In 0.24265(2) 0.36762(2) 0.27419(2)
In2 In 0.49718(2) 0.13600(2) 0.51890(2)
In3 In 0.74219(2) 0.13653(2) 0.27140(2)
In4 In 0.99717(2) 0.36434(2) 0.52538(2)
P1 P 0.07697(7) 0.24534(5) 0.18380(6)
P2 P 0.34409(7) 0.25610(5) 0.41962(6)
P3 P 0.40738(7) 0.11745(5) 0.67578(6)
P4 P 0.66449(7) 0.22295(5) 0.67960(6)
P5 P 0.65390(7) 0.09878(5) 0.42106(6)
P6 P 0.83388(7) 0.24803(5) 0.42472(6)
P7 P 0.88494(7) 0.39292(5) 0.66330(6)
P8 P 1.17098(7) 0.39235(5) 0.44180(6)
O1 O 0.1389(2) 0.30507(14) 0.19256(16)
O2 O 0.0847(2) 0.20416(14) 0.11333(17)
O3 O 0.1053(2) 0.20873(16) 0.26620(17)
O4 O -0.0338(2) 0.26494(15) 0.16087(17)
H1 H -0.06060 0.27000 0.10990
O5 O 0.3420(2) 0.29861(14) 0.34715(17)
O6 O 0.4117(2) 0.19995(14) 0.42548(17)
O7 O 0.3796(2) 0.29140(16) 0.50368(18)
H2 H 0.34300 0.32200 0.50070
O8 O 0.2380(2) 0.23154(16) 0.40471(18)
H3 H 0.20570 0.22910 0.35410
O9 O 0.4072(2) 0.13678(14) 0.59071(17)
O10 O 0.31315(19) 0.14082(14) 0.68380(16)
O11 O 0.4242(2) 0.04590(14) 0.69204(18)
H4 H 0.48290 0.03920 0.71950
O12 O 0.4933(2) 0.15266(15) 0.74867(17)
H5 H 0.54260 0.15420 0.73690
O13 O 0.5912(2) 0.20754(14) 0.59217(16)
O14 O 0.64321(19) 0.29041(13) 0.70298(17)
O15 O 0.6645(2) 0.17217(14) 0.74329(17)
O16 O 0.7717(2) 0.22177(14) 0.6774(2)
H6 H 0.78920 0.25860 0.67310
O17 O 0.5848(2) 0.14000(14) 0.44578(18)
O18 O 0.6459(2) 0.12096(14) 0.33439(16)
O19 O 0.6348(2) 0.02731(14) 0.42523(18)
O20 O 0.7623(2) 0.10647(15) 0.48540(19)
H7 H 0.77860 0.14430 0.48790
O21 O 0.8364(2) 0.20126(14) 0.35792(17)
O22 O 0.9071(2) 0.30157(14) 0.43181(16)
O23 O 0.8490(2) 0.21642(15) 0.50770(16)
O24 O 0.7262(2) 0.27878(16) 0.39495(18)
H8 H 0.70960 0.29140 0.34640
O25 O 0.8933(2) 0.36931(13) 0.58283(17)
O26 O 0.8113(2) 0.34807(13) 0.68217(17)
O27 O 0.8515(2) 0.46156(13) 0.65959(18)
O28 O 0.9865(2) 0.39038(15) 0.73876(18)
H9 H 1.01160 0.35490 0.74050
O29 O 1.1002(2) 0.35140(14) 0.46639(19)
O30 O 1.1603(2) 0.37414(14) 0.35274(17)
O31 O 1.2773(2) 0.38435(17) 0.5038(2)
O32 O 1.1436(3) 0.46329(14) 0.4471(2)
H10 H 1.15570 0.48430 0.41180
O33 O 0.57630(19) 0.04892(13) 0.58135(15)
O34 O 0.58707(19) -0.05572(13) 0.56133(16)
O35 O 0.65973(19) 0.05777(13) 0.18609(16)
O36 O 0.67022(19) -0.04762(13) 0.16734(16)
O37 O 0.82822(19) 0.05172(13) 0.32670(15)
O38 O 0.83878(19) -0.05286(13) 0.30627(16)
O39 O 1.06873(19) 0.45348(13) 0.58786(16)
O40 O 1.0773(2) 0.55815(13) 0.56544(16)
C1 C 0.5470(3) -0.00200(19) 0.5412(2)
C2 C 0.7003(3) 0.00386(18) 0.2056(2)
C3 C 0.7982(3) 0.00061(19) 0.2866(2)
C4 C 1.0426(3) 0.50286(19) 0.5444(2)
O41 O 0.2013(5) 0.0670(4) 0.2853(4)
O42 O 0.7024(4) 0.4605(2) 0.2703(4)
C5 C 0.5802(4) 0.3761(2) 0.4751(3)
H11 H 0.52630 0.36190 0.42480
H12 H 0.55210 0.39340 0.51350
C6 C 0.6375(3) 0.4274(2) 0.4527(3)
H13 H 0.67130 0.40880 0.41920
H14 H 0.68710 0.44450 0.50370
C7 C 0.5718(4) 0.4819(2) 0.4039(3)
H15 H 0.51760 0.46450 0.35620
H16 H 0.54420 0.50410 0.43960
C8 C 0.5692(3) 0.5818(2) 0.3224(3)
H17 H 0.54140 0.60690 0.35560
H18 H 0.51520 0.56480 0.27430
C9 C 0.6336(4) 0.6244(3) 0.2927(3)
H19 H 0.70180 0.61930 0.33080
H20 H 0.62890 0.60960 0.23780
C10 C 0.6085(4) 0.6945(2) 0.2866(3)
H21 H 0.59860 0.70740 0.33710
H22 H 0.66390 0.71880 0.28420
N1 N 0.6454(3) 0.32007(19) 0.5152(2)
H23 H 0.67020 0.30380 0.47950
H24 H 0.61020 0.29010 0.52830
H25 H 0.69440 0.33310 0.56160
N2 N 0.6286(3) 0.52775(18) 0.3740(2)
H26 H 0.65610 0.50640 0.34360
H27 H 0.67710 0.54400 0.41840
N3 N 0.5193(3) 0.71111(18) 0.2129(2)
H28 H 0.52830 0.70040 0.16620
H29 H 0.50820 0.75320 0.21290
H30 H 0.46770 0.68980 0.21530
C11 C 0.9144(4) -0.1695(3) 0.5056(3)
H31 H 0.96440 -0.19820 0.54220
H32 H 0.93790 -0.15350 0.46350
C12 C 0.9036(5) -0.1146(3) 0.5557(4)
H33 H 0.88820 -0.13220 0.60160
H34 H 0.96790 -0.09440 0.58070
C13 C 0.8344(5) -0.0652(3) 0.5187(5)
H35 H 0.76960 -0.08450 0.49200
H36 H 0.85110 -0.04510 0.47490
C14 C 0.9197(8) 0.0174(4) 0.6249(5)
H37 H 0.95730 0.01650 0.58900
H38 H 0.95340 -0.01150 0.67110
C15 C 0.9355(8) 0.0841(5) 0.6633(6)
H39 H 0.99810 0.10080 0.66480
H40 H 0.88370 0.11230 0.62810
C16 C 0.9357(7) 0.0844(4) 0.7454(4)
H41 H 0.99010 0.05780 0.78040
H42 H 0.87510 0.06420 0.74350
N4 N 0.8228(3) -0.20699(18) 0.4627(2)
H43 H 0.77940 -0.18290 0.42310
H44 H 0.79720 -0.21880 0.49990
H45 H 0.83690 -0.24180 0.43920
N5 N 0.8279(5) -0.0138(3) 0.5774(3)
H46 H 0.78500 0.01580 0.54780
H47 H 0.80400 -0.03120 0.61310
N6 N 0.9440(3) 0.1479(2) 0.7868(2)
H48 H 0.91750 0.17800 0.74810
H49 H 1.00740 0.15700 0.81540
H50 H 0.91220 0.14690 0.82190
H51? H 0.94760 0.03970 0.58950
H52? H 0.96800 -0.01180 0.66250
C17? C 0.8699(11) 0.0697(8) 0.6778(8)
H53? H 0.84470 0.10790 0.64420
H54? H 0.81580 0.04900 0.68760
H55? H 0.99770 0.07760 0.73840
H56? H 0.93300 0.05270 0.78580
O33B O 0.42370(19) -0.04892(13) 0.41865(15)
O34B O 0.41293(19) 0.05572(13) 0.43867(16)
C1B C 0.4530(3) 0.00200(19) 0.4588(2)
O39B O 0.93127(19) 0.54652(13) 0.41214(16)
O40B O 0.9227(2) 0.44185(13) 0.43456(16)
C4B C 0.9574(3) 0.49714(19) 0.4556(2)
In1B In 0.75735(2) -0.36762(2) 0.72581(2)
In2B In 0.50282(2) -0.13600(2) 0.48110(2)
In3B In 0.25781(2) -0.13653(2) 0.72860(2)
In4B In 0.00283(2) -0.36434(2) 0.47462(2)
P1B P 0.92303(7) -0.24534(5) 0.81620(6)
P2B P 0.65591(7) -0.25610(5) 0.58038(6)
P3B P 0.59262(7) -0.11745(5) 0.32422(6)
P4B P 0.33551(7) -0.22295(5) 0.32040(6)
P5B P 0.34610(7) -0.09878(5) 0.57894(6)
P6B P 0.16612(7) -0.24803(5) 0.57528(6)
P7B P 0.11506(7) -0.39292(5) 0.33670(6)
P8B P -0.17098(7) -0.39235(5) 0.55820(6)
O1B O 0.8611(2) -0.30507(14) 0.80744(16)
O2B O 0.9153(2) -0.20416(14) 0.88667(17)
O3B O 0.8947(2) -0.20873(16) 0.73380(17)
O4B O 1.0338(2) -0.26494(15) 0.83913(17)
H1B H 1.06060 -0.27000 0.89010
O5B O 0.6580(2) -0.29861(14) 0.65285(17)
O6B O 0.5883(2) -0.19995(14) 0.57452(17)
O7B O 0.6204(2) -0.29140(16) 0.49632(18)
H2B H 0.65700 -0.32200 0.49930
O8B O 0.7620(2) -0.23154(16) 0.59529(18)
H3B H 0.79430 -0.22910 0.64590
O9B O 0.5928(2) -0.13678(14) 0.40929(17)
O10B O 0.68685(19) -0.14082(14) 0.31620(16)
O11B O 0.5758(2) -0.04590(14) 0.30796(18)
H4B H 0.51710 -0.03920 0.28050
O12B O 0.5067(2) -0.15266(15) 0.25133(17)
H5B H 0.45740 -0.15420 0.26310
O13B O 0.4088(2) -0.20754(14) 0.40783(16)
O14B O 0.35679(19) -0.29041(13) 0.29702(17)
O15B O 0.3355(2) -0.17217(14) 0.25671(17)
O16B O 0.2283(2) -0.22177(14) 0.3226(2)
H6B H 0.21080 -0.25860 0.32690
O17B O 0.4152(2) -0.14000(14) 0.55422(18)
O18B O 0.3541(2) -0.12096(14) 0.66561(16)
O19B O 0.3652(2) -0.02731(14) 0.57477(18)
O20B O 0.2377(2) -0.10647(15) 0.51460(19)
H7B H 0.22140 -0.14430 0.51210
O21B O 0.1636(2) -0.20126(14) 0.64208(17)
O22B O 0.0929(2) -0.30157(14) 0.56819(16)
O23B O 0.1510(2) -0.21642(15) 0.49230(16)
O24B O 0.2738(2) -0.27878(16) 0.60505(18)
H8B H 0.29040 -0.29140 0.65360
O25B O 0.1067(2) -0.36931(13) 0.41717(17)
O26B O 0.1887(2) -0.34807(13) 0.31783(17)
O27B O 0.1485(2) -0.46156(13) 0.34041(18)
O28B O 0.0135(2) -0.39038(15) 0.26124(18)
H9B H -0.01160 -0.35490 0.25950
O29B O -0.1002(2) -0.35140(14) 0.53361(19)
O30B O -0.1603(2) -0.37414(14) 0.64726(17)
O31B O -0.2773(2) -0.38435(17) 0.4962(2)
O32B O -0.1436(3) -0.46329(14) 0.5529(2)
H10B H -0.15570 -0.48430 0.58820
O35B O 0.34027(19) -0.05777(13) 0.81391(16)
O36B O 0.32978(19) 0.04762(13) 0.83266(16)
O37B O 0.17178(19) -0.05172(13) 0.67330(15)
O38B O 0.16122(19) 0.05286(13) 0.69373(16)
C2B C 0.2997(3) -0.00386(18) 0.7944(2)
C3B C 0.2018(3) -0.00061(19) 0.7134(2)
In1* In 1.24265(2) 0.36762(2) 0.27419(2)
In1A In 0.75735(2) -0.13238(2) 0.22581(2)
In1B* In -0.24265(2) -0.36762(2) 0.72581(2)
In1C In 0.24265(2) 0.13238(2) 0.77419(2)
In3A In 0.25781(2) -0.36347(2) 0.22860(2)
In3C In 0.74219(2) 0.36347(2) 0.77140(2)
In4A In 1.00283(2) -0.13566(2) 0.97462(2)
In4B* In 1.00283(2) 0.63566(2) 0.47462(2)
In4C In -0.00283(2) 0.13566(2) 0.02538(2)
O2A O -0.0847(2) -0.29584(14) 0.38667(17)
O2C O 1.0847(2) 0.29584(14) 0.61333(17)
O10A O 0.68685(19) -0.35918(14) 0.81620(16)
O10C O 0.31315(19) 0.35918(14) 0.18380(16)
O14A O 0.35679(19) -0.20959(13) 0.79702(17)
O14C O 0.64321(19) 0.20959(13) 0.20298(17)
O26A O 0.1887(2) -0.15193(13) 0.81783(17)
O26C O 0.8113(2) 0.15193(13) 0.18217(17)
O30* O 0.1603(2) 0.37414(14) 0.35274(17)
O30B* O 0.8397(2) -0.37414(14) 0.64726(17)
O36A O 0.32978(19) 0.45238(13) 0.33266(16)
O36C O 0.67022(19) -0.45238(13) 0.66734(16)
O38A O 0.16122(19) 0.44714(13) 0.19373(16)
O38C O 0.83878(19) -0.44714(13) 0.80627(16)
O39B* O -0.06873(19) -0.45348(13) 0.41214(16)
O40* O 0.0773(2) -0.44185(13) 0.56544(16)
#END
