
#######################################################################
#
#                 Cambridge Crystallographic Data Centre
#                                CCDC
#
#######################################################################
#
# If this CIF has been generated from an entry in the Cambridge
# Structural Database, then it will include bibliographic, chemical,
# crystal, experimental, refinement or atomic coordinate data resulting
# from the CCDC's data processing and validation procedures.
#
#######################################################################

data_CSD_CIF_DUZXOO
_audit_creation_date 2020-09-11
_audit_creation_method CSD-ConQuest-V1
_database_code_CSD DUZXOO
_database_code_depnum_ccdc_archive 'CCDC 1978846'
_chemical_formula_sum 'C54 H39 Cu6 Mo12 N10 O62 P1'
_chemical_formula_moiety
;
(C54 H36 Cu6 Mo12 N10 O61 P1 1-)n,H3 O1 1+
;
_journal_coden_Cambridge 702
_journal_volume 36
_journal_year 2020
_journal_page_first 1613
_journal_name_full 'Wuji Huaxue Xuebao(Chin.)(Chin.J.Inorg.Chem.) '
loop_
_publ_author_name
"Yang-Zheng Cao"
"Hao Xu"
"Wei Pan"
"Xiang-Hua Zeng"
"Jun-Yong Zhang"
"Hai-Yang Guo"
"Jin-Sheng Liao"
"Sui-Jun Liu"
"Jing-Li Xie"
_chemical_name_systematic
;
catena-[oxonium 
(\m~12~-phosphato)-(\m-nitrato)-hexakis(\m-pyridine-2-carboxylato)-heptacosaki
s(\m-oxido)-tris(pyridine-2-carboxylato)-nonaoxo-hexa-copper-dodeca-molybdenum
]
;
_cell_volume  12808.570
_exptl_crystal_colour 'blue'
_exptl_crystal_density_diffrn 2.629
_exptl_crystal_description 'block'
_diffrn_ambient_temperature 293
#These two values have been output from a single CSD field.
_refine_ls_R_factor_gt 0.0487
_refine_ls_wR_factor_gt 0.0487
_symmetry_cell_setting rhombohedral
_symmetry_space_group_name_H-M 'R 3 c'
_symmetry_Int_Tables_number 161
loop_
_symmetry_equiv_pos_site_id
_symmetry_equiv_pos_as_xyz
1 x,y,z
2 -y,x-y,z
3 -x+y,-x,z
4 -y,-x,1/2+z
5 -x+y,y,1/2+z
6 x,x-y,1/2+z
7 2/3+x,1/3+y,1/3+z
8 2/3-y,1/3+x-y,1/3+z
9 2/3-x+y,1/3-x,1/3+z
10 2/3-y,1/3-x,5/6+z
11 2/3-x+y,1/3+y,5/6+z
12 2/3+x,1/3+x-y,5/6+z
13 1/3+x,2/3+y,2/3+z
14 1/3-y,2/3+x-y,2/3+z
15 1/3-x+y,2/3-x,2/3+z
16 1/3-y,2/3-x,1/6+z
17 1/3-x+y,2/3+y,1/6+z
18 1/3+x,2/3+x-y,1/6+z
_cell_length_a 16.7919(12)
_cell_length_b 16.7919(12)
_cell_length_c 52.453(19)
_cell_angle_alpha 90
_cell_angle_beta 90
_cell_angle_gamma 120
_cell_formula_units_Z 6
loop_
_atom_type_symbol
_atom_type_radius_bond
C 0.68
H 0.23
Cu 1.32
Mo 1.54
N 0.68
O 0.68
P 1.05
loop_
_atom_site_label
_atom_site_type_symbol
_atom_site_fract_x
_atom_site_fract_y
_atom_site_fract_z
Mo1 Mo 0.79040(11) 1.00389(11) 0.55411(3)
Mo2 Mo 0.85358(11) 0.91549(11) 0.50444(3)
Mo3 Mo 0.78110(11) 0.79592(10) 0.56017(3)
Mo4 Mo 0.94269(12) 0.86378(12) 0.61397(3)
P1 P 1.00000 1.00000 0.5582(2)
O1 O 0.8872(8) 1.1184(8) 0.5506(2)
O2 O 0.9523(9) 0.8968(9) 0.5001(3)
O3 O 0.8021(7) 0.8875(8) 0.4763(3)
O4 O 0.7830(8) 0.9675(7) 0.5208(2)
O5 O 0.7793(8) 0.8102(8) 0.5228(2)
O6 O 0.7000(8) 1.0192(8) 0.5565(3)
O7 O 0.7287(8) 0.8703(7) 0.5625(2)
O8 O 0.6889(8) 0.6892(9) 0.5626(3)
O9 O 0.8346(9) 0.8227(9) 0.5918(2)
O10 O 0.9011(10) 0.7833(11) 0.6367(3)
O11 O 1.0543(8) 0.9494(8) 0.6266(3)
O12 O 0.9872(8) 0.8181(9) 0.5904(3)
O13 O 1.00000 1.00000 0.5874(4)
O14 O 1.0490(7) 0.9503(7) 0.5490(2)
Cu1 Cu 0.72527(16) 0.75551(16) 0.44543(5)
Cu2 Cu 0.48293(16) 0.87019(17) 0.44789(5)
O15 O 0.8211(10) 0.8215(11) 0.4202(3)
O16 O 0.9588(9) 0.8464(11) 0.4088(3)
O17 O 0.6376(8) 0.6904(9) 0.4721(3)
O18 O 0.5192(8) 0.5960(9) 0.4461(2)
O19 O 0.6509(9) 0.7866(9) 0.4243(3)
O20 O 0.5830(9) 0.8426(9) 0.4497(3)
O21 O 0.3314(15) 0.7389(13) 0.4493(4)
N1 N 0.8100(9) 0.7162(9) 0.4580(3)
N2 N 0.4080(11) 0.5249(10) 0.4839(3)
N3 N 0.4886(11) 0.8509(10) 0.4117(3)
N4 N 0.33330 0.66670 0.4506(6)
C1 C 0.8023(13) 0.6627(17) 0.4775(5)
H1 H 0.74750 0.63410 0.48670
C2 C 0.8723(18) 0.6485(17) 0.4845(6)
H2 H 0.86670 0.61520 0.49930
C3 C 0.9490(14) 0.6815(16) 0.4706(6)
H3 H 0.99470 0.66780 0.47470
C4 C 0.9584(16) 0.7352(15) 0.4503(4)
H4 H 1.01210 0.76120 0.44070
C5 C 0.8872(11) 0.7514(12) 0.4439(4)
C6 C 0.8903(14) 0.8090(14) 0.4228(4)
C7 C 0.3469(12) 0.4814(14) 0.5023(5)
H5 H 0.28720 0.43650 0.49810
C8 C 0.3724(19) 0.5033(14) 0.5280(4)
H6 H 0.32980 0.47240 0.54090
C9 C 0.4564(16) 0.5675(14) 0.5338(4)
H7 H 0.47180 0.58440 0.55080
C10 C 0.5213(15) 0.6095(14) 0.5154(4)
H8 H 0.58200 0.65170 0.51940
C11 C 0.4927(12) 0.5866(11) 0.4897(4)
C12 C 0.5561(13) 0.6292(13) 0.4676(4)
C13 C 0.4396(16) 0.8613(15) 0.3934(5)
H9 H 0.40340 0.88720 0.39720
C14 C 0.4421(18) 0.8343(18) 0.3689(5)
H10 H 0.40580 0.83770 0.35600
C15 C 0.5029(16) 0.8012(17) 0.3643(5)
H11 H 0.50750 0.78330 0.34780
C16 C 0.5548(14) 0.7942(14) 0.3828(4)
H12 H 0.59620 0.77390 0.37960
C17 C 0.5424(12) 0.8189(12) 0.4061(4)
C18 C 0.5963(12) 0.8164(12) 0.4285(4)
O22 O 1.00000 1.00000 0.3897(5)
Mo1A Mo 0.99611(11) 0.78651(11) 0.55411(3)
Mo2A Mo 1.08451(11) 0.93809(11) 0.50444(3)
Mo3A Mo 1.20408(11) 0.98518(10) 0.56017(3)
Mo4A Mo 1.13622(12) 1.07891(12) 0.61397(3)
O1A O 0.8816(8) 0.7688(8) 0.5506(2)
O2A O 1.1032(9) 1.0555(9) 0.5001(3)
O4A O 1.0325(8) 0.8155(7) 0.5208(2)
O5A O 1.1898(8) 0.9691(8) 0.5228(2)
O6A O 0.9808(8) 0.6808(8) 0.5565(3)
O7A O 1.1297(8) 0.8584(7) 0.5625(2)
O8A O 1.3108(8) 0.9997(9) 0.5626(3)
O9A O 1.1773(9) 1.0119(9) 0.5918(2)
O10A O 1.2167(10) 1.1178(11) 0.6367(3)
O11A O 1.0506(8) 1.1049(8) 0.6266(3)
O12A O 1.1819(8) 1.1691(9) 0.5904(3)
O14A O 1.0497(7) 1.0987(7) 0.5490(2)
Mo1B Mo 1.21349(11) 1.20960(11) 0.55411(3)
Mo2B Mo 1.06191(11) 1.14642(11) 0.50444(3)
Mo3B Mo 1.01482(11) 1.2189(1) 0.56017(3)
Mo4B Mo 0.92109(12) 1.05731(12) 0.61397(3)
O1B O 1.2312(8) 1.1128(8) 0.5506(2)
O2B O 0.9445(9) 1.0477(9) 0.5001(3)
O4B O 1.1845(8) 1.2170(7) 0.5208(2)
O5B O 1.0309(8) 1.2207(8) 0.5228(2)
O6B O 1.3192(8) 1.3000(8) 0.5565(3)
O7B O 1.1416(8) 1.2713(7) 0.5625(2)
O8B O 1.0003(8) 1.3111(9) 0.5626(3)
O9B O 0.9881(9) 1.1654(9) 0.5918(2)
O10B O 0.8822(10) 1.0989(11) 0.6367(3)
O11B O 0.8951(8) 0.9457(8) 0.6266(3)
O12B O 0.8309(8) 1.0128(9) 0.5904(3)
O14B O 0.9013(7) 0.9510(7) 0.5490(2)
Cu1A Cu 0.24449(16) 0.96976(16) 0.44543(5)
Cu2A Cu 0.12981(16) 0.61274(17) 0.44789(5)
O15A O 0.1785(10) 0.9996(11) 0.4202(3)
O16A O 0.1536(9) 1.1124(11) 0.4088(3)
O17A O 0.3096(8) 0.9472(9) 0.4721(3)
O18A O 0.4040(8) 0.9232(9) 0.4461(2)
O19A O 0.2134(9) 0.8643(9) 0.4243(3)
O20A O 0.1574(9) 0.7404(9) 0.4497(3)
O21A O 0.2611(15) 0.5925(13) 0.4493(4)
N1A N 0.2838(9) 1.0938(9) 0.4580(3)
N2A N 0.4751(11) 0.8831(10) 0.4839(3)
N3A N 0.1491(11) 0.6377(10) 0.4117(3)
C1A C 0.3373(13) 1.1396(17) 0.4775(5)
H1A H 0.36590 1.11340 0.48670
C2A C 0.3515(18) 1.2238(17) 0.4845(6)
H2A H 0.38480 1.25150 0.49930
C3A C 0.3185(14) 1.2675(16) 0.4706(6)
H3A H 0.33220 1.32690 0.47470
C4A C 0.2648(16) 1.2232(15) 0.4503(4)
H4A H 0.23880 1.25090 0.44070
C5A C 0.2486(11) 1.1358(12) 0.4439(4)
C6A C 0.1910(14) 1.0813(14) 0.4228(4)
C7A C 0.5186(12) 0.8655(14) 0.5023(5)
H5A H 0.56350 0.85070 0.49810
C8A C 0.4967(19) 0.8691(14) 0.5280(4)
H6A H 0.52760 0.85740 0.54090
C9A C 0.4325(16) 0.8889(14) 0.5338(4)
H7A H 0.41560 0.88740 0.55080
C10A C 0.3905(15) 0.9118(14) 0.5154(4)
H8A H 0.34830 0.93030 0.51940
C11A C 0.4134(12) 0.9061(11) 0.4897(4)
C12A C 0.3708(13) 0.9269(13) 0.4676(4)
C13A C 0.1387(16) 0.5783(15) 0.3934(5)
H9A H 0.11280 0.51620 0.39720
C14A C 0.1657(18) 0.6078(18) 0.3689(5)
H10A H 0.16230 0.56810 0.35600
C15A C 0.1988(16) 0.7017(17) 0.3643(5)
H11A H 0.21670 0.72420 0.34780
C16A C 0.2058(14) 0.7606(14) 0.3828(4)
H12A H 0.22610 0.82230 0.37960
C17A C 0.1811(12) 0.7235(12) 0.4061(4)
C18A C 0.1836(12) 0.7799(12) 0.4285(4)
Cu1B Cu 0.03024(16) 0.27473(16) 0.44543(5)
Cu2B Cu 0.38726(16) 0.51707(17) 0.44789(5)
O15B O 0.0004(10) 0.1789(11) 0.4202(3)
O16B O -0.1124(9) 0.0412(11) 0.4088(3)
O17B O 0.0528(8) 0.3624(9) 0.4721(3)
O18B O 0.0768(8) 0.4808(9) 0.4461(2)
O19B O 0.1357(9) 0.3491(9) 0.4243(3)
O20B O 0.2596(9) 0.4170(9) 0.4497(3)
O21B O 0.4075(15) 0.6686(13) 0.4493(4)
N1B N -0.0938(9) 0.1900(9) 0.4580(3)
N2B N 0.1169(11) 0.592(1) 0.4839(3)
N3B N 0.3623(11) 0.5114(10) 0.4117(3)
C1B C -0.1396(13) 0.1977(17) 0.4775(5)
H1B H -0.11340 0.25250 0.48670
C2B C -0.2238(18) 0.1277(17) 0.4845(6)
H2B H -0.25150 0.13330 0.49930
C3B C -0.2675(14) 0.0510(16) 0.4706(6)
H3B H -0.32690 0.00530 0.47470
C4B C -0.2232(16) 0.0416(15) 0.4503(4)
H4B H -0.25090 -0.01210 0.44070
C5B C -0.1358(11) 0.1128(12) 0.4439(4)
C6B C -0.0813(14) 0.1097(14) 0.4228(4)
C7B C 0.1345(12) 0.6531(14) 0.5023(5)
H5B H 0.14930 0.71280 0.49810
C8B C 0.1309(19) 0.6276(14) 0.5280(4)
H6B H 0.14260 0.67020 0.54090
C9B C 0.1111(16) 0.5436(14) 0.5338(4)
H7B H 0.11260 0.52820 0.55080
C10B C 0.0882(15) 0.4787(14) 0.5154(4)
H8B H 0.06970 0.41800 0.51940
C11B C 0.0939(12) 0.5073(11) 0.4897(4)
C12B C 0.0731(13) 0.4439(13) 0.4676(4)
C13B C 0.4217(16) 0.5604(15) 0.3934(5)
H9B H 0.48380 0.59660 0.39720
C14B C 0.3922(18) 0.5579(18) 0.3689(5)
H10B H 0.43190 0.59420 0.35600
C15B C 0.2983(16) 0.4971(17) 0.3643(5)
H11B H 0.27580 0.49250 0.34780
C16B C 0.2394(14) 0.4452(14) 0.3828(4)
H12B H 0.17770 0.40380 0.37960
C17B C 0.2765(12) 0.4576(12) 0.4061(4)
C18B C 0.2201(12) 0.4037(12) 0.4285(4)
O3A O 0.1125(7) 0.9146(8) 0.4763(3)
O3B O 0.0854(7) 0.1979(8) 0.4763(3)
Mo2A* Mo 0.08451(11) 0.93809(11) 0.50444(3)
Mo2B* Mo 0.06191(11) 0.14642(11) 0.50444(3)
O3A* O 1.1125(7) 0.9146(8) 0.4763(3)
O3B* O 1.0854(7) 1.1979(8) 0.4763(3)
#END
