
#######################################################################
#
#                 Cambridge Crystallographic Data Centre
#                                CCDC
#
#######################################################################
#
# If this CIF has been generated from an entry in the Cambridge
# Structural Database, then it will include bibliographic, chemical,
# crystal, experimental, refinement or atomic coordinate data resulting
# from the CCDC's data processing and validation procedures.
#
#######################################################################

data_CSD_CIF_EBEVAK
_audit_creation_date 2011-12-12
_audit_creation_method CSD-ConQuest-V1
_database_code_CSD EBEVAK
_database_code_depnum_ccdc_archive 'CCDC 825084'
_chemical_formula_sum 'C87 H99 Cd3 N7 O32'
_chemical_formula_moiety
;
(C64 H38 Cd2 N2 O12 2-)n,2n(C10 H8 N2),n(C3 H7 N1 O1),19n(H2 O1),n(Cd1 2+)
;
_journal_coden_Cambridge 1350
_journal_volume 13
_journal_year 2011
_journal_page_first 5825
_journal_name_full 'CrystEngComm '
loop_
_publ_author_name
"Hua Xiang"
"Wen-Yang Gao"
"Di-Chang Zhong"
"Long Jiang"
"Tong-Bu Lu"
_chemical_name_systematic
;
catena-(Cadmium 
bis(\m~3~-1,3,5-tris(4-carboxylatophenyl)benzene)-(\m~2~-4,4'-bipyridine)-di-c
admium(ii) 4,4'-bipyridine dimethylformamide solvate nonadecahydrate)
;
_cell_volume   7982.771
_exptl_crystal_colour 'yellow'
_exptl_crystal_density_diffrn 1.741
_exptl_crystal_description 'block'
_diffrn_ambient_temperature 173
_refine_special_details
;
The SQUEEZE/PLATON program has been used to model some disorder.

;
#These two values have been output from a single CSD field.
_refine_ls_R_factor_gt 0.0506
_refine_ls_wR_factor_gt 0.0506
_symmetry_cell_setting monoclinic
_symmetry_space_group_name_H-M 'P 21/c'
_symmetry_Int_Tables_number 14
loop_
_symmetry_equiv_pos_site_id
_symmetry_equiv_pos_as_xyz
1 x,y,z
2 -x,1/2+y,1/2-z
3 -x,-y,-z
4 x,-1/2-y,-1/2+z
_cell_length_a 16.8416(6)
_cell_length_b 29.9444(9)
_cell_length_c 15.9876(5)
_cell_angle_alpha 90
_cell_angle_beta 98.076(1)
_cell_angle_gamma 90
_cell_formula_units_Z 4
loop_
_atom_type_symbol
_atom_type_radius_bond
C 0.68
H 0.23
Cd 1.44
N 0.68
O 0.68
loop_
_atom_site_label
_atom_site_type_symbol
_atom_site_fract_x
_atom_site_fract_y
_atom_site_fract_z
C1 C 0.2915(3) 0.33377(11) -0.1286(2)
C2 C 0.2543(2) 0.35719(12) -0.2083(2)
C3 C 0.1775(3) 0.37329(16) -0.2160(2)
H1 H 0.14610 0.36870 -0.17180
C4 C 0.1456(3) 0.39627(17) -0.2882(3)
H2 H 0.09340 0.40880 -0.29100
C5 C 0.1866(3) 0.40151(12) -0.3552(2)
C6 C 0.2602(4) 0.3826(2) -0.3493(3)
H3 H 0.28850 0.38380 -0.39670
C7 C 0.2959(4) 0.3614(2) -0.2750(3)
H4 H 0.34900 0.35010 -0.27130
C8 C 0.1117(3) 0.68820(13) -0.5168(2)
C9 C 0.1183(3) 0.63792(12) -0.5206(2)
C10 C 0.1781(3) 0.61520(13) -0.4681(2)
H5 H 0.21830 0.63170 -0.43350
C11 C 0.1799(3) 0.56922(12) -0.4655(2)
H6 H 0.22060 0.55460 -0.42820
C12 C 0.1229(2) 0.54362(12) -0.5170(2)
C13 C 0.0637(3) 0.56690(12) -0.5719(2)
H7 H 0.02510 0.55070 -0.60890
C14 C 0.0615(3) 0.61307(13) -0.5719(2)
H8 H 0.02030 0.62810 -0.60790
C15 C -0.0391(3) 0.32198(12) -0.8807(2)
C16 C -0.0046(3) 0.34743(12) -0.8030(2)
C17 C 0.0592(3) 0.37661(16) -0.8055(2)
H9 H 0.08190 0.37980 -0.85630
C18 C 0.0905(3) 0.40125(16) -0.7344(3)
H10 H 0.13300 0.42180 -0.73760
C19 C 0.0595(3) 0.39579(11) -0.6590(2)
C20 C -0.0010(3) 0.36572(14) -0.6555(2)
H11 H -0.02020 0.36060 -0.60310
C21 C -0.0353(3) 0.34237(14) -0.7270(2)
H12 H -0.07950 0.32300 -0.72400
C22 C 0.1522(2) 0.42493(12) -0.4349(2)
C23 C 0.1522(2) 0.47138(12) -0.4392(2)
H13 H 0.17230 0.48810 -0.39030
C24 C 0.1232(2) 0.49385(12) -0.5138(2)
C25 C 0.0948(2) 0.46860(11) -0.5858(2)
H14 H 0.07630 0.48340 -0.63750
C26 C 0.0932(2) 0.42210(12) -0.5825(2)
C27 C 0.1214(2) 0.40023(12) -0.5062(2)
H15 H 0.11940 0.36860 -0.50320
C28 C 0.5609(3) -0.14994(14) 0.3747(2)
C29 C 0.5193(3) -0.12533(12) 0.2998(2)
C30 C 0.5568(3) -0.08954(13) 0.2650(2)
H16 H 0.60800 -0.07970 0.29120
C31 C 0.5199(3) -0.06814(13) 0.1923(2)
H17 H 0.54580 -0.04360 0.16980
C32 C 0.4451(3) -0.08247(12) 0.1521(2)
C33 C 0.4082(3) -0.11814(13) 0.1878(3)
H18 H 0.35690 -0.12810 0.16210
C34 C 0.4450(3) -0.13923(14) 0.2600(3)
H19 H 0.41900 -0.16360 0.28260
C35 C 0.1926(3) -0.16596(15) -0.3615(3)
C36 C 0.2309(3) -0.13997(14) -0.2871(3)
C37 C 0.2012(3) -0.09793(15) -0.2694(3)
H20 H 0.15660 -0.08580 -0.30520
C38 C 0.2371(3) -0.07328(15) -0.1987(3)
H21 H 0.21750 -0.04440 -0.18820
C39 C 0.3010(3) -0.09105(13) -0.1444(2)
C40 C 0.3224(4) -0.13409(17) -0.1575(4)
H22 H 0.36190 -0.14800 -0.11760
C41 C 0.2883(4) -0.15796(17) -0.2273(4)
H23 H 0.30520 -0.18790 -0.23410
C42 C 0.3672(3) 0.20122(13) -0.0232(2)
C43 C 0.3735(2) 0.15122(12) -0.0230(2)
C44 C 0.3116(3) 0.12598(12) -0.0694(2)
H24 H 0.26910 0.14060 -0.10410
C45 C 0.3129(2) 0.07991(12) -0.0643(2)
H25 H 0.27100 0.06310 -0.09560
C46 C 0.3749(2) 0.05764(11) -0.0136(2)
C47 C 0.4364(3) 0.08284(12) 0.0303(2)
H26 H 0.47950 0.06820 0.06430
C48 C 0.4357(3) 0.12877(12) 0.0250(2)
H27 H 0.47880 0.14530 0.05500
C49 C 0.4067(3) -0.06041(12) 0.0731(2)
C50 C 0.3720(2) -0.08526(12) 0.0042(2)
H28 H 0.37100 -0.11690 0.00820
C51 C 0.3385(2) -0.06457(12) -0.0712(2)
C52 C 0.3413(2) -0.01819(12) -0.0755(2)
H29 H 0.32010 -0.00390 -0.12680
C53 C 0.3738(2) 0.00771(12) -0.0081(2)
C54 C 0.4080(2) -0.01345(12) 0.0662(2)
H30 H 0.43240 0.00400 0.11250
C55 C 0.2714(4) 0.2929(2) 0.1821(3)
H31 H 0.31170 0.31470 0.19820
C56 C 0.2145(4) 0.2846(2) 0.2365(3)
H32 H 0.21620 0.30130 0.28730
C57 C 0.1580(3) 0.25354(12) 0.2175(2)
C58 C 0.1553(3) 0.23194(17) 0.1420(3)
H33 H 0.11420 0.21080 0.12450
C59 C 0.2137(3) 0.24148(17) 0.0909(3)
H34 H 0.21240 0.22530 0.03960
C60 C 0.0526(3) 0.24918(16) 0.4108(2)
H35 H 0.06400 0.25650 0.46900
C61 C 0.1117(3) 0.25585(15) 0.3602(2)
H36 H 0.16240 0.26750 0.38390
C62 C 0.0970(3) 0.24545(12) 0.2745(2)
C63 C 0.0212(3) 0.22789(14) 0.2444(2)
H37 H 0.00820 0.21990 0.18660
C64 C -0.0343(3) 0.22221(14) 0.2990(2)
H38 H -0.08530 0.21020 0.27760
Cd1 Cd 0.357057(18) 0.290605(8) 0.011872(15)
Cd2 Cd 0.107280(18) 0.777445(8) -0.479437(16)
N1 N 0.2717(2) 0.2720(1) 0.10981(19)
N2 N -0.0192(2) 0.23297(11) 0.38156(18)
O1 O 0.24812(17) 0.32493(9) -0.07247(15)
O2 O 0.36427(18) 0.32293(9) -0.11989(15)
O3 O 0.1709(2) 0.71022(8) -0.4826(2)
O4 O 0.0468(2) 0.70650(8) -0.54498(17)
O5 O 0.00240(19) 0.31627(9) -0.93895(16)
O6 O -0.1097(2) 0.30703(9) -0.88577(16)
O7 O 0.6259(2) -0.13531(10) 0.41320(17)
O8 O 0.5319(2) -0.18645(11) 0.3957(2)
O9 O 0.2146(2) -0.20552(12) -0.3710(2)
O10 O 0.1357(2) -0.14877(10) -0.4114(2)
O11 O 0.3075(2) 0.22030(8) -0.06090(17)
O12 O 0.4251(2) 0.22315(9) 0.0199(2)
Cd1A Cd 0.642943(18) -0.209395(8) 0.488128(15)
Cd2B Cd -0.107280(18) 0.222555(8) 0.479437(16)
Cd2A Cd -0.107280(18) 0.277445(8) -1.020563(16)
Cd2* Cd 0.107280(18) -0.222555(8) -0.479437(16)
N2B N 0.0192(2) 0.76703(11) -0.38156(18)
O5A O -0.00240(19) 0.81627(9) -0.56105(16)
O6A O 0.1097(2) 0.80703(9) -0.61423(16)
O7A O 0.3741(2) 0.36469(10) 0.08680(17)
O8A O 0.4681(2) 0.31355(11) 0.1043(2)
O9* O 0.2146(2) 0.79448(12) -0.3710(2)
O10* O 0.1357(2) 0.85123(10) -0.4114(2)
#END
