
#######################################################################
#
#                 Cambridge Crystallographic Data Centre
#                                CCDC
#
#######################################################################
#
# If this CIF has been generated from an entry in the Cambridge
# Structural Database, then it will include bibliographic, chemical,
# crystal, experimental, refinement or atomic coordinate data resulting
# from the CCDC's data processing and validation procedures.
#
#######################################################################

data_CSD_CIF_EBIBOJ
_audit_creation_date 2016-11-30
_audit_creation_method CSD-ConQuest-V1
_database_code_CSD EBIBOJ
_database_code_depnum_ccdc_archive 'CCDC 1508177'
_chemical_formula_sum 'C18 H30 N2 O22 Tb2'
_chemical_formula_moiety
;
C10 H26 N2 O4 2+,(C8 H4 O18 Tb2 2-)n
;
_journal_coden_Cambridge 222
_journal_volume 46
_journal_year 2017
_journal_page_first 116
_journal_name_full 'Dalton Trans. '
loop_
_publ_author_name
"M.N.Akhtar"
"Yan-Cong Chen"
"M.A.AlDamen"
"Ming-Liang Tong"
_chemical_name_systematic
;
catena-[N^1^,N^1^,N^2^,N^2^-tetrakis(2-hydroxyethyl)ethane-1,2-diaminium 
tetrakis(\m-oxalato)-diaqua-di-terbium(iii)]
;
_cell_volume   1338.885
_exptl_crystal_colour 'colorless'
_exptl_crystal_density_diffrn 2.342
_exptl_crystal_description 'block'
_diffrn_ambient_temperature 120
#These two values have been output from a single CSD field.
_refine_ls_R_factor_gt 0.0185
_refine_ls_wR_factor_gt 0.0185
_symmetry_cell_setting monoclinic
_symmetry_space_group_name_H-M 'P 21/c'
_symmetry_Int_Tables_number 14
loop_
_symmetry_equiv_pos_site_id
_symmetry_equiv_pos_as_xyz
1 x,y,z
2 -x,1/2+y,1/2-z
3 -x,-y,-z
4 x,-1/2-y,-1/2+z
_cell_length_a 10.2803(3)
_cell_length_b 11.7237(4)
_cell_length_c 11.4883(4)
_cell_angle_alpha 90
_cell_angle_beta 104.765(1)
_cell_angle_gamma 90
_cell_formula_units_Z 2
loop_
_atom_type_symbol
_atom_type_radius_bond
C 0.68
H 0.23
N 0.68
O 0.68
Tb 1.94
loop_
_atom_site_label
_atom_site_type_symbol
_atom_site_fract_x
_atom_site_fract_y
_atom_site_fract_z
Tb1 Tb 0.24702(2) 0.65141(2) -0.01772(2)
O1 O 0.6615(2) 0.5398(2) -0.0072(2)
O2 O 0.4862(2) 0.64847(19) 0.0056(2)
O3 O 0.0832(2) 0.6084(2) 0.0938(2)
O4 O 0.3055(2) 0.68227(19) 0.3756(2)
O5 O 0.2631(2) 0.8905(2) 0.2818(2)
O6 O 0.2664(2) 0.82098(19) 0.1008(2)
O7 O 0.3487(2) 0.6194(2) 0.2038(2)
O8 O -0.0797(2) 0.4898(2) 0.1161(2)
O9 O 0.0449(2) 0.7530(2) -0.1199(2)
H1 H 0.05640 0.82930 -0.11120
H2 H -0.02520 0.73330 -0.08990
C1 C 0.5423(3) 0.5547(3) -0.0005(3)
C2 C 0.0015(3) 0.5290(3) 0.0606(3)
C3 C 0.2768(3) 0.8126(3) 0.2121(3)
C4 C 0.3127(3) 0.6928(3) 0.2681(3)
O10 O 0.2179(3) 0.2246(2) 0.5864(3)
H3 H 0.24420 0.16310 0.56260
O11 O 0.0213(2) 0.5172(2) 0.3546(2)
H4 H -0.01410 0.51950 0.28020
N1 N 0.3147(3) 0.4608(3) 0.4808(3)
H5 H 0.28470 0.54220 0.47220
C5 C 0.2187(3) 0.3946(3) 0.3824(3)
H6 H 0.24450 0.31300 0.38940
H7 H 0.22730 0.42220 0.30320
C6 C 0.3083(4) 0.4213(3) 0.6090(4)
H8 H 0.37520 0.46590 0.66910
H9 H 0.21830 0.44070 0.61950
C7 C 0.3335(4) 0.2974(4) 0.6367(4)
H10 H 0.40980 0.27220 0.60510
H11 H 0.36010 0.28730 0.72520
C8 C 0.4534(3) 0.4576(3) 0.4596(3)
H12 H 0.44750 0.47590 0.37430
H13 H 0.49100 0.37980 0.47590
C9 C 0.0733(4) 0.4056(3) 0.3872(3)
H14 H 0.01810 0.34920 0.33180
H15 H 0.06640 0.38800 0.46970
O1B O 0.3385(2) 0.4602(2) 0.0072(2)
O2B O 0.5138(2) 0.35153(19) -0.0056(2)
C1B C 0.4577(3) 0.4453(3) 0.0005(3)
O3B O -0.0832(2) 0.3916(2) -0.0938(2)
O8B O 0.0797(2) 0.5102(2) -0.1161(2)
C2B C -0.0015(3) 0.4710(3) -0.0606(3)
Tb1B Tb -0.24702(2) 0.34859(2) 0.01772(2)
O4B O -0.3055(2) 0.31773(19) -0.3756(2)
O5B O -0.2631(2) 0.1095(2) -0.2818(2)
O6B O -0.2664(2) 0.17902(19) -0.1008(2)
O7B O -0.3487(2) 0.3806(2) -0.2038(2)
O9B O -0.0449(2) 0.2470(2) 0.1199(2)
H1B H -0.05640 0.17070 0.11120
H2B H 0.02520 0.26670 0.08990
C3B C -0.2768(3) 0.1874(3) -0.2121(3)
C4B C -0.3127(3) 0.3072(3) -0.2681(3)
Tb1A Tb -0.24702(2) 0.15141(2) -0.48228(2)
Tb1B* Tb 0.75298(2) 0.34859(2) 0.01772(2)
Tb1C Tb 0.24702(2) 0.84859(2) 0.48228(2)
O1* O -0.3385(2) 0.5398(2) -0.0072(2)
O2B* O -0.4862(2) 0.35153(19) -0.0056(2)
O4A O -0.3055(2) 0.18227(19) 0.1244(2)
O4C O 0.3055(2) 0.81773(19) -0.1244(2)
O5A O -0.2631(2) 0.3905(2) 0.2182(2)
O5C O 0.2631(2) 0.6095(2) -0.2182(2)
O10B O 0.7821(3) 0.7754(2) 0.4136(3)
H3B H 0.75580 0.83690 0.43740
O11B O 0.9787(2) 0.4828(2) 0.6454(2)
H4B H 1.01410 0.48050 0.71980
N1B N 0.6853(3) 0.5392(3) 0.5192(3)
H5B H 0.71530 0.45780 0.52780
C5B C 0.7813(3) 0.6054(3) 0.6176(3)
H6B H 0.75550 0.68700 0.61060
H7B H 0.77270 0.57780 0.69680
C6B C 0.6917(4) 0.5787(3) 0.3910(4)
H8B H 0.62480 0.53410 0.33090
H9B H 0.78170 0.55930 0.38050
C7B C 0.6665(4) 0.7026(4) 0.3633(4)
H10B H 0.59020 0.72780 0.39490
H11B H 0.63990 0.71270 0.27480
C8B C 0.5466(3) 0.5424(3) 0.5404(3)
H12B H 0.55250 0.52410 0.62570
H13B H 0.50900 0.62020 0.52410
C9B C 0.9267(4) 0.5944(3) 0.6128(3)
H14B H 0.98190 0.65080 0.66820
H15B H 0.93360 0.61200 0.53030
#END
