
#######################################################################
#
#                 Cambridge Crystallographic Data Centre
#                                CCDC
#
#######################################################################
#
# If this CIF has been generated from an entry in the Cambridge
# Structural Database, then it will include bibliographic, chemical,
# crystal, experimental, refinement or atomic coordinate data resulting
# from the CCDC's data processing and validation procedures.
#
#######################################################################

data_CSD_CIF_EBIKOR
_audit_creation_date 2011-12-12
_audit_creation_method CSD-ConQuest-V1
_database_code_CSD EBIKOR
_database_code_depnum_ccdc_archive 'CCDC 827208'
_chemical_formula_sum 'C18 H30 Cu1 Gd2 N2 O30'
_chemical_formula_moiety
;
(C18 H10 Gd2 N2 O20 2-)n,n(H12 Cu1 O6 2+),4n(H2 O1)
;
_journal_coden_Cambridge 1350
_journal_volume 13
_journal_year 2011
_journal_page_first 6027
_journal_name_full 'CrystEngComm '
loop_
_publ_author_name
"Lian-Xu Shi"
"Xuan Xu"
"Chuan-De Wu"
_chemical_name_systematic
;
catena-(bis(\m~4~-pyridine-2,3,5,6-tetracarboxylato)-tetraaqua-di-gadolinium(i
ii) hexaaqua-copper tetrahydrate)
;
_cell_volume    782.886
_exptl_crystal_colour 'blue'
_exptl_crystal_density_diffrn 2.402
_exptl_crystal_description 'block'
_diffrn_ambient_temperature 296
#These two values have been output from a single CSD field.
_refine_ls_R_factor_gt 0.0457
_refine_ls_wR_factor_gt 0.0457
_symmetry_cell_setting triclinic
_symmetry_space_group_name_H-M 'P -1'
_symmetry_Int_Tables_number 2
loop_
_symmetry_equiv_pos_site_id
_symmetry_equiv_pos_as_xyz
1 x,y,z
2 -x,-y,-z
_cell_length_a 8.6552(10)
_cell_length_b 9.2760(11)
_cell_length_c 10.6950(11)
_cell_angle_alpha 93.603(6)
_cell_angle_beta 101.819(6)
_cell_angle_gamma 109.742(6)
_cell_formula_units_Z 1
loop_
_atom_type_symbol
_atom_type_radius_bond
C 0.68
H 0.23
Cu 1.32
Gd 1.96
N 0.68
O 0.68
loop_
_atom_site_label
_atom_site_type_symbol
_atom_site_fract_x
_atom_site_fract_y
_atom_site_fract_z
Gd1 Gd 0.28741(5) 0.83912(5) 0.35525(4)
Cu1 Cu -0.50000 0.50000 0.00000
O1 O -0.3244(7) 1.2800(7) 0.4493(5)
O2 O -0.2330(8) 1.3986(8) 0.2898(6)
O3 O 0.0498(13) 1.3639(8) 0.1507(7)
O4 O 0.1216(8) 1.5808(7) 0.2787(6)
O5 O 0.3876(7) 1.0626(6) 0.5277(5)
O6 O 0.4971(8) 1.2813(7) 0.6585(6)
O7 O 0.1940(8) 1.0687(8) 0.7432(6)
O8 O -0.0621(7) 1.0813(7) 0.7317(5)
O9 O 0.4143(9) 1.0719(7) 0.2678(6)
H1 H 0.46500 1.15090 0.31940
H2 H 0.45100 1.07210 0.20280
O10 O 0.2655(11) 0.7884(8) 0.1267(7)
H3 H 0.31430 0.85990 0.09100
H4 H 0.23340 0.69340 0.11600
O11 O -0.2216(11) 0.4920(9) 0.0239(7)
H5 H -0.21760 0.54850 -0.03250
H6 H -0.14280 0.49820 0.08490
O12 O -0.5991(12) 0.2718(9) -0.0297(7)
H7 H -0.60770 0.22940 -0.10330
H8 H -0.52160 0.24500 0.01720
O13 O -0.5102(10) 0.5165(9) -0.1860(7)
H9 H -0.51820 0.43890 -0.23180
H10 H -0.59970 0.52710 -0.21800
O14 O 0.3412(15) 0.9102(11) -0.0921(9)
H11 H 0.24970 0.92750 -0.11060
H12 H 0.31090 0.81690 -0.11690
O15 O -0.8579(17) 0.1231(11) 0.0733(8)
H13 H -0.91740 0.15760 0.10660
H14 H -0.75970 0.17950 0.10430
N1 N -0.0503(8) 1.2244(7) 0.5305(6)
C1 C -0.0518(10) 1.3042(9) 0.4298(7)
C2 C 0.0841(10) 1.3517(9) 0.3708(8)
C3 C 0.2206(11) 1.3106(9) 0.4201(8)
H15 H 0.31260 1.33890 0.38270
C4 C 0.2253(10) 1.2279(9) 0.5244(7)
C5 C 0.0851(10) 1.1898(9) 0.5777(8)
C6 C -0.2178(10) 1.3313(9) 0.3858(8)
C7 C 0.0858(10) 1.4404(10) 0.2573(8)
C8 C 0.3747(10) 1.1845(10) 0.5754(8)
C9 C 0.0728(11) 1.105(1) 0.6948(8)
Gd1A Gd -0.28741(5) 1.16088(5) 0.64475(4)
Gd1* Gd -0.71259(5) 0.83912(5) 0.35525(4)
Gd1** Gd 0.28741(5) 1.83912(5) 0.35525(4)
Gd1A* Gd -0.28741(5) 0.16088(5) 0.64475(4)
Gd1A** Gd 0.71259(5) 1.16088(5) 0.64475(4)
O1A O 0.3244(7) 0.7200(7) 0.5507(5)
O2A O 0.2330(8) 0.6014(8) 0.7102(6)
O3A O -0.0498(13) 0.6361(8) 0.8493(7)
O4A O -0.1216(8) 0.4192(7) 0.7213(6)
O4* O 0.1216(8) 0.5808(7) 0.2787(6)
O4A* O -0.1216(8) 1.4192(7) 0.7213(6)
O5A O -0.3876(7) 0.9374(6) 0.4723(5)
O5* O -0.6124(7) 1.0626(6) 0.5277(5)
O5A* O 0.6124(7) 0.9374(6) 0.4723(5)
O6A O -0.4971(8) 0.7187(7) 0.3415(6)
O6* O -0.5029(8) 1.2813(7) 0.6585(6)
O6A* O 0.5029(8) 0.7187(7) 0.3415(6)
O7A O -0.1940(8) 0.9313(8) 0.2568(6)
O8A O 0.0621(7) 0.9187(7) 0.2683(5)
O9A O -0.4143(9) 0.9281(7) 0.7322(6)
H1A H -0.46500 0.84910 0.68060
H2A H -0.45100 0.92790 0.79720
O10A O -0.2655(11) 1.2116(8) 0.8733(7)
H3A H -0.31430 1.14010 0.90900
H4A H -0.23340 1.30660 0.88400
O11A O -0.7784(11) 0.5080(9) -0.0239(7)
H5A H -0.78240 0.45150 0.03250
H6A H -0.85720 0.50180 -0.08490
O12A O -0.4009(12) 0.7282(9) 0.0297(7)
H7A H -0.39230 0.77060 0.10330
H8A H -0.47840 0.75500 -0.01720
O13A O -0.4898(10) 0.4835(9) 0.1860(7)
H9A H -0.48180 0.56110 0.23180
H10A H -0.40030 0.47290 0.21800
N1A N 0.0503(8) 0.7756(7) 0.4695(6)
C1A C 0.0518(10) 0.6958(9) 0.5702(7)
C2A C -0.0841(10) 0.6483(9) 0.6292(8)
C3A C -0.2206(11) 0.6894(9) 0.5799(8)
H15A H -0.31260 0.66110 0.61730
C4A C -0.2253(10) 0.7721(9) 0.4756(7)
C5A C -0.0851(10) 0.8102(9) 0.4223(8)
C6A C 0.2178(10) 0.6687(9) 0.6142(8)
C7A C -0.0858(10) 0.5596(10) 0.7427(8)
C8A C -0.3747(10) 0.8155(10) 0.4246(8)
C9A C -0.0728(11) 0.895(1) 0.3052(8)
#END
