
#######################################################################
#
#                 Cambridge Crystallographic Data Centre
#                                CCDC
#
#######################################################################
#
# If this CIF has been generated from an entry in the Cambridge
# Structural Database, then it will include bibliographic, chemical,
# crystal, experimental, refinement or atomic coordinate data resulting
# from the CCDC's data processing and validation procedures.
#
#######################################################################

data_CSD_CIF_EBIKEH
_audit_creation_date 2011-12-12
_audit_creation_method CSD-ConQuest-V1
_database_code_CSD EBIKEH
_database_code_depnum_ccdc_archive 'CCDC 827206'
_chemical_formula_sum 'C9 H10 Gd1 N1 O12'
_chemical_formula_moiety
;
(C9 H5 Gd1 N1 O10 1-)n,n(H2 O1),n(H3 O1 1+)
;
_journal_coden_Cambridge 1350
_journal_volume 13
_journal_year 2011
_journal_page_first 6027
_journal_name_full 'CrystEngComm '
loop_
_publ_author_name
"Lian-Xu Shi"
"Xuan Xu"
"Chuan-De Wu"
_chemical_name_systematic
;
catena-(oxonium 
(\m~4~-pyridine-2,3,5,6-tetracarboxylato)-diaqua-gadolinium(iii) monohydrate)
;
_cell_volume    679.057
_exptl_crystal_colour 'colorless'
_exptl_crystal_density_diffrn 2.355
_exptl_crystal_description 'block'
_diffrn_ambient_temperature 293
#These two values have been output from a single CSD field.
_refine_ls_R_factor_gt 0.0845
_refine_ls_wR_factor_gt 0.0845
_symmetry_cell_setting triclinic
_symmetry_space_group_name_H-M 'P -1'
_symmetry_Int_Tables_number 2
loop_
_symmetry_equiv_pos_site_id
_symmetry_equiv_pos_as_xyz
1 x,y,z
2 -x,-y,-z
_cell_length_a 8.720(1)
_cell_length_b 8.9690(12)
_cell_length_c 9.4220(12)
_cell_angle_alpha 77.951(11)
_cell_angle_beta 80.69(1)
_cell_angle_gamma 71.308(11)
_cell_formula_units_Z 2
loop_
_atom_type_symbol
_atom_type_radius_bond
C 0.68
H 0.23
Gd 1.96
N 0.68
O 0.68
loop_
_atom_site_label
_atom_site_type_symbol
_atom_site_fract_x
_atom_site_fract_y
_atom_site_fract_z
Gd1 Gd 0.35480(9) 0.66438(9) 0.83314(8)
O1 O 1.1601(14) 0.5969(14) 0.7299(12)
O2 O 0.9160(14) 0.5736(16) 0.7203(13)
O3 O 0.6283(13) 0.5594(13) 0.9713(12)
O4 O 0.5751(14) 0.7908(14) 0.8229(12)
O5 O 0.7736(14) 1.0663(12) 1.2640(12)
O6 O 0.8442(16) 0.8281(14) 1.4026(13)
O7 O 1.1425(14) 0.9057(15) 1.2279(13)
O8 O 1.3079(13) 0.7879(13) 1.0492(12)
O9 O 0.5176(15) 0.4233(14) 0.7416(13)
H1 H 0.57340 0.44950 0.66730
H2 H 0.55580 0.35730 0.81150
O10 O 0.4502(16) 0.7262(15) 0.5778(14)
H3 H 0.54890 0.71490 0.56230
H4 H 0.42550 0.65980 0.54570
O11 O 0.7378(14) 0.5063(16) 0.5353(13)
H5 H 0.79130 0.50910 0.59800
H6 H 0.75360 0.49250 0.45030
O12 O 0.2987(16) 1.0094(14) 0.3910(12)
H7 H 0.34990 1.05600 0.32600
H8 H 0.26040 0.97420 0.33590
H9 H 0.34180 0.98480 0.46690
N1 N 1.0656(16) 0.7299(15) 0.9597(14)
C1 C 0.9518(18) 0.6940(18) 0.9070(17)
C2 C 0.7905(18) 0.7289(17) 0.9721(16)
C3 C 0.7555(19) 0.8004(19) 1.0939(18)
H10 H 0.65010 0.82400 1.14030
C4 C 0.874(2) 0.8380(18) 1.1491(18)
C5 C 1.030(2) 0.8001(18) 1.0773(17)
C6 C 1.011(2) 0.6125(19) 0.7710(19)
C7 C 0.6613(18) 0.690(2) 0.9143(17)
C8 C 0.8302(18) 0.9199(19) 1.2799(17)
C9 C 1.1679(19) 0.8382(19) 1.1242(17)
Gd1* Gd 1.35480(9) 0.66438(9) 0.83314(8)
Gd1A Gd 0.64520(9) 0.33562(9) 1.16686(8)
Gd1A* Gd 0.64520(9) 1.33562(9) 1.16686(8)
O1* O 0.1601(14) 0.5969(14) 0.7299(12)
O3A O 0.3717(13) 0.4406(13) 1.0287(12)
O5A O 0.2264(14) 0.9337(12) 0.7360(12)
O8* O 0.3079(13) 0.7879(13) 1.0492(12)
N1* N 0.0656(16) 0.7299(15) 0.9597(14)
#END
