
#######################################################################
#
#                 Cambridge Crystallographic Data Centre
#                                CCDC
#
#######################################################################
#
# If this CIF has been generated from an entry in the Cambridge
# Structural Database, then it will include bibliographic, chemical,
# crystal, experimental, refinement or atomic coordinate data resulting
# from the CCDC's data processing and validation procedures.
#
#######################################################################

data_CSD_CIF_EBIKUX
_audit_creation_date 2011-12-12
_audit_creation_method CSD-ConQuest-V1
_database_code_CSD EBIKUX
_database_code_depnum_ccdc_archive 'CCDC 827209'
_chemical_formula_sum 'C18 H28 Co1 Gd2 N2 O29'
_chemical_formula_moiety
;
(C18 H10 Gd2 N2 O20 2-)n,n(H12 Co1 O6 2+),3n(H2 O1)
;
_journal_coden_Cambridge 1350
_journal_volume 13
_journal_year 2011
_journal_page_first 6027
_journal_name_full 'CrystEngComm '
loop_
_publ_author_name
"Lian-Xu Shi"
"Xuan Xu"
"Chuan-De Wu"
_chemical_name_systematic
;
catena-(bis(\m~4~-pyridine-2,3,5,6-tetracarboxylato)-tetraaqua-di-gadolinium(i
ii) hexaaqua-cobalt trihydrate)
;
_cell_volume    777.961
_exptl_crystal_colour 'pink'
_exptl_crystal_density_diffrn 2.369
_exptl_crystal_description 'block'
_diffrn_ambient_temperature 296
_refine_special_details
;
OW2 disordered by symmetry over two sites with occupancy 0.50.

;
#These two values have been output from a single CSD field.
_refine_ls_R_factor_gt 0.025
_refine_ls_wR_factor_gt 0.025
_symmetry_cell_setting triclinic
_symmetry_space_group_name_H-M 'P -1'
_symmetry_Int_Tables_number 2
loop_
_symmetry_equiv_pos_site_id
_symmetry_equiv_pos_as_xyz
1 x,y,z
2 -x,-y,-z
_cell_length_a 8.7113(3)
_cell_length_b 9.1913(4)
_cell_length_c 10.5321(4)
_cell_angle_alpha 86.054(2)
_cell_angle_beta 77.189(2)
_cell_angle_gamma 71.101(2)
_cell_formula_units_Z 1
loop_
_atom_type_symbol
_atom_type_radius_bond
C 0.68
H 0.23
Co 1.26
Gd 1.86
N 0.68
O 0.68
loop_
_atom_site_label
_atom_site_type_symbol
_atom_site_fract_x
_atom_site_fract_y
_atom_site_fract_z
Gd1 Gd 0.78572(2) 0.13028(2) 0.145297(18)
Co1 Co 0.00000 0.50000 0.50000
O1 O 0.8180(4) 0.2771(3) -0.0543(3)
O2 O 0.7166(4) 0.4228(4) -0.2123(3)
O3 O 0.3659(4) 0.6210(4) -0.2043(3)
O4 O 0.4188(5) 0.4341(4) -0.3454(3)
O5 O -0.0014(4) 0.2503(4) 0.1710(3)
O6 O 0.1077(4) 0.0580(3) 0.0334(3)
O7 O 0.5612(4) 0.0370(4) 0.2382(3)
O8 O 0.3071(6) 0.0255(6) 0.2548(5)
O9 O 0.7499(5) 0.1458(4) 0.3833(3)
H1 H 0.82180 0.11380 0.42560
H2 H 0.65710 0.15710 0.42720
O10 O 0.9199(4) -0.1160(4) 0.2312(3)
H3 H 0.99260 -0.17800 0.18010
H4 H 0.90460 -0.16590 0.29810
O11 O -0.0166(4) 0.5066(4) 0.6986(3)
H5 H -0.02060 0.58360 0.73520
H6 H -0.09990 0.48660 0.73670
O12 O 0.2146(4) 0.5671(4) 0.4837(3)
H7 H 0.26100 0.57610 0.40810
H8 H 0.28570 0.53030 0.52660
O13 O 0.1352(5) 0.2635(4) 0.5082(4)
H9 H 0.23350 0.23440 0.51210
H10 H 0.12830 0.20640 0.45470
O14 O 0.4478(5) 0.1684(4) 0.5509(3)
H11 H 0.45220 0.09110 0.59540
H12 H 0.44310 0.24010 0.59520
O15? O 0.0661(10) 0.0197(10) 0.4445(7)
N1 N 0.5436(4) 0.2107(4) 0.0327(3)
C1 C 0.5423(5) 0.3072(5) -0.0676(4)
C2 C 0.4039(5) 0.3704(5) -0.1236(4)
C3 C 0.2645(5) 0.3249(5) -0.0703(4)
H13 H 0.17010 0.36250 -0.10530
C4 C 0.2654(5) 0.2251(5) 0.0337(4)
C5 C 0.4081(5) 0.1715(5) 0.0856(4)
C6 C 0.7042(5) 0.3397(5) -0.1163(4)
C7 C 0.3988(5) 0.4832(5) -0.2342(4)
C8 C 0.1166(5) 0.1729(5) 0.0856(4)
C9 C 0.4235(6) 0.0687(6) 0.2024(4)
Gd1A Gd 0.21428(2) 0.86972(2) -0.145297(18)
Gd1* Gd -0.21428(2) 0.13028(2) 0.145297(18)
Gd1A* Gd 0.21428(2) -0.13028(2) -0.145297(18)
Gd1A** Gd 1.21428(2) 0.86972(2) -0.145297(18)
Gd1** Gd 0.78572(2) 1.13028(2) 0.145297(18)
O1A O 0.1820(4) 0.7229(3) 0.0543(3)
O2A O 0.2834(4) 0.5772(4) 0.2123(3)
O3A O 0.6341(4) 0.3790(4) 0.2043(3)
O4A O 0.5812(5) 0.5659(4) 0.3454(3)
O5A O 1.0014(4) 0.7497(4) -0.1710(3)
O5* O 0.9986(4) 0.2503(4) 0.1710(3)
O5A* O 0.0014(4) 0.7497(4) -0.1710(3)
O6A O 0.8923(4) 0.9420(3) -0.0334(3)
O6* O 1.1077(4) 0.0580(3) 0.0334(3)
O6A* O 0.8923(4) -0.0580(3) -0.0334(3)
O6A** O -0.1077(4) 0.9420(3) -0.0334(3)
O6** O 0.1077(4) 1.0580(3) 0.0334(3)
O7A O 0.4388(4) 0.9630(4) -0.2382(3)
O8A O 0.6929(6) 0.9745(6) -0.2548(5)
O9A O 0.2501(5) 0.8542(4) -0.3833(3)
H1A H 0.17820 0.88620 -0.42560
H2A H 0.34290 0.84290 -0.42720
O10A O 0.0801(4) 1.1160(4) -0.2312(3)
H3A H 0.00740 1.17800 -0.18010
H4A H 0.09540 1.16590 -0.29810
O11A O 0.0166(4) 0.4934(4) 0.3014(3)
H5A H 0.02060 0.41640 0.26480
H6A H 0.09990 0.51340 0.26330
O12A O -0.2146(4) 0.4329(4) 0.5163(3)
H7A H -0.26100 0.42390 0.59190
H8A H -0.28570 0.46970 0.47340
O13A O -0.1352(5) 0.7365(4) 0.4918(4)
H9A H -0.23350 0.76560 0.48790
H10A H -0.12830 0.79360 0.54530
N1A N 0.4564(4) 0.7893(4) -0.0327(3)
C1A C 0.4577(5) 0.6928(5) 0.0676(4)
C2A C 0.5961(5) 0.6296(5) 0.1236(4)
C3A C 0.7355(5) 0.6751(5) 0.0703(4)
H13A H 0.82990 0.63750 0.10530
C4A C 0.7346(5) 0.7749(5) -0.0337(4)
C5A C 0.5919(5) 0.8285(5) -0.0856(4)
C6A C 0.2958(5) 0.6603(5) 0.1163(4)
C7A C 0.6012(5) 0.5168(5) 0.2342(4)
C8A C 0.8834(5) 0.8271(5) -0.0856(4)
C9A C 0.5765(6) 0.9313(6) -0.2024(4)
#END
