
#######################################################################
#
#                 Cambridge Crystallographic Data Centre
#                                CCDC
#
#######################################################################
#
# If this CIF has been generated from an entry in the Cambridge
# Structural Database, then it will include bibliographic, chemical,
# crystal, experimental, refinement or atomic coordinate data resulting
# from the CCDC's data processing and validation procedures.
#
#######################################################################

data_CSD_CIF_EBIMEJ
_audit_creation_date 2011-12-12
_audit_creation_method CSD-ConQuest-V1
_database_code_CSD EBIMEJ
_database_code_depnum_ccdc_archive 'CCDC 810535'
_chemical_formula_sum 'C22 H30 Co2 N2 O13'
_chemical_formula_moiety
;
(C17 H11 Co2 O10 1-)n,n(C2 H8 N1 1+),n(C3 H7 N1 O1),2n(H2 O1)
;
_journal_coden_Cambridge 1350
_journal_volume 13
_journal_year 2011
_journal_page_first 6057
_journal_name_full 'CrystEngComm '
loop_
_publ_author_name
"Shengqun Su"
"Chao Qin"
"Shuyan Song"
"Zhiyong Guo"
"Ruiping Deng"
"Wan Chen"
"Xuezhi Song"
"Song Wang"
"Guanghua Li"
"Hongjie Zhang"
_chemical_name_systematic
;
catena-((\m~7~-5,5'-methanediyldibenzene-1,3-dicarboxylato)-(\m~3~-hydroxo)-aq
ua-di-cobalt dimethylammonium N,N-dimethylformamide solvate dihydrate)
;
_cell_volume   2506.259
_exptl_crystal_colour 'purple'
_exptl_crystal_density_diffrn 1.718
_exptl_crystal_description 'block'
_diffrn_ambient_temperature 185
#These two values have been output from a single CSD field.
_refine_ls_R_factor_gt 0.0376
_refine_ls_wR_factor_gt 0.0376
_symmetry_cell_setting monoclinic
_symmetry_space_group_name_H-M 'P 21/n'
_symmetry_Int_Tables_number 14
loop_
_symmetry_equiv_pos_site_id
_symmetry_equiv_pos_as_xyz
1 x,y,z
2 1/2-x,1/2+y,1/2-z
3 -x,-y,-z
4 -1/2+x,-1/2-y,-1/2+z
_cell_length_a 11.0660(5)
_cell_length_b 13.8214(6)
_cell_length_c 16.8387(7)
_cell_angle_alpha 90
_cell_angle_beta 103.310(1)
_cell_angle_gamma 90
_cell_formula_units_Z 4
loop_
_atom_type_symbol
_atom_type_radius_bond
C 0.68
H 0.23
Co 1.26
N 0.68
O 0.68
loop_
_atom_site_label
_atom_site_type_symbol
_atom_site_fract_x
_atom_site_fract_y
_atom_site_fract_z
Co1 Co 0.05672(4) 0.08925(3) 0.17407(2)
Co2 Co 0.14177(4) -0.00273(3) -0.00506(2)
C1 C -0.3264(3) 0.0580(2) 0.20162(18)
C2 C -0.4487(3) 0.0502(2) 0.15661(17)
H1 H -0.46520 0.03840 0.09950
C3 C -0.5461(3) 0.0596(2) 0.19516(17)
C4 C -0.5218(3) 0.0744(2) 0.27912(17)
H2 H -0.58890 0.08120 0.30520
C5 C -0.3998(3) 0.0791(2) 0.32538(17)
C6 C -0.3033(3) 0.0718(2) 0.28600(18)
H3 H -0.22000 0.07630 0.31680
C7 C -0.3761(3) 0.0907(2) 0.41671(18)
C8 C -0.3464(3) -0.0028(2) 0.46507(17)
C9 C -0.3965(3) -0.0917(2) 0.43588(17)
H4 H -0.45130 -0.09540 0.38350
C10 C -0.3675(3) -0.1759(2) 0.48260(17)
C11 C -0.2900(3) -0.1695(2) 0.56021(17)
H5 H -0.27030 -0.22620 0.59260
C12 C -0.2412(3) -0.0809(2) 0.59054(17)
C13 C -0.2687(3) 0.0017(2) 0.54308(18)
H6 H -0.23440 0.06210 0.56390
C14 C -0.2207(3) 0.0468(2) 0.15981(17)
C15 C -0.6788(3) 0.0527(2) 0.14716(17)
C16 C -0.4161(3) -0.2747(2) 0.45330(17)
C17 C -0.1613(3) -0.0751(2) 0.67564(17)
C18 C -0.0861(4) 0.3117(3) 0.2916(3)
H7 H -0.07280 0.31730 0.23620
H8 H -0.14020 0.36430 0.30150
H9 H -0.12520 0.24930 0.29750
C19 C 0.0242(4) 0.3103(3) 0.4366(2)
H10 H 0.10690 0.31520 0.47300
H11 H -0.01300 0.24790 0.44500
H12 H -0.02850 0.36280 0.44860
C20 C 0.4080(4) 0.2767(3) 0.1304(3)
C21 C 0.5461(4) 0.3249(3) 0.2594(3)
H13 H 0.62830 0.35450 0.27700
H14 H 0.54650 0.26090 0.28450
H15 H 0.48410 0.36600 0.27610
C22 C 0.6070(6) 0.3429(5) 0.1288(4)
H16 H 0.67900 0.36950 0.16780
H17 H 0.57270 0.39210 0.08800
H18 H 0.63270 0.28640 0.10170
N1 N 0.0347(3) 0.3179(2) 0.35140(17)
H19 H 0.08550 0.26910 0.34100
H20 H 0.07180 0.37590 0.34450
N2 N 0.5151(3) 0.3149(3) 0.1709(2)
O1 O -0.11675(19) 0.07870(16) 0.19762(12)
O2 O -0.2449(2) 0.00517(16) 0.09159(13)
O3 O -0.69945(19) -0.00572(15) 0.08752(12)
O4 O -0.75649(19) 0.10505(15) 0.17039(12)
O5 O -0.50855(19) -0.28061(15) 0.39259(12)
O6 O -0.3616(2) -0.34440(15) 0.49286(12)
O7 O -0.11548(19) -0.15402(14) 0.70965(12)
O8 O -0.1438(2) 0.00384(15) 0.71296(12)
O9 O 0.03072(19) -0.00722(17) 0.08246(12)
O10 O 0.1540(2) 0.15584(17) -0.00773(14)
O11 O 0.3733(3) 0.2645(2) 0.05654(19)
O12 O 0.3265(3) -0.1398(2) 0.26734(18)
H21 H -0.443(3) 0.123(3) 0.435(2)
H22 H -0.308(3) 0.135(2) 0.4365(18)
H23 H 0.225(4) 0.183(3) 0.005(2)
H24 H 0.120(4) 0.176(3) 0.024(3)
H25 H 0.354(4) 0.256(3) 0.169(3)
H26 H 0.038(3) -0.059(3) 0.098(2)
Co1* Co -0.94328(4) 0.08925(3) 0.17407(2)
Co1A Co -0.55672(4) -0.41075(3) 0.32593(2)
Co1B Co -0.05672(4) -0.08925(3) 0.82593(2)
Co2B Co -0.14177(4) 0.00273(3) 0.00506(2)
Co2* Co -0.85823(4) -0.00273(3) -0.00506(2)
Co2C Co -0.35823(4) -0.49727(3) 0.49494(2)
O2B O 0.2449(2) -0.00517(16) -0.09159(13)
O3* O 0.30055(19) -0.00572(15) 0.08752(12)
O4* O 0.24351(19) 0.10505(15) 0.17039(12)
O5A O 0.00855(19) 0.21939(15) 0.10741(12)
O6C O 0.1384(2) -0.15560(15) -0.00714(12)
O7B O 0.11548(19) 0.15402(14) 0.29035(12)
O8B O 0.1438(2) -0.00384(15) 0.28704(12)
O9B O -0.03072(19) 0.00722(17) -0.08246(12)
H26B H -0.038(3) 0.059(3) -0.098(2)
#END
