
#######################################################################
#
#                 Cambridge Crystallographic Data Centre
#                                CCDC
#
#######################################################################
#
# If this CIF has been generated from an entry in the Cambridge
# Structural Database, then it will include bibliographic, chemical,
# crystal, experimental, refinement or atomic coordinate data resulting
# from the CCDC's data processing and validation procedures.
#
#######################################################################

data_CSD_CIF_EBIMOT
_audit_creation_date 2011-12-12
_audit_creation_method CSD-ConQuest-V1
_database_code_CSD EBIMOT
_database_code_depnum_ccdc_archive 'CCDC 810537'
_chemical_formula_sum 'C41 H48 Mg3 N3 O21'
_chemical_formula_moiety
;
(C37 H24 Mg3 N1 O17 2-)n,2n(C2 H8 N1 1+),4n(H2 O1)
;
_journal_coden_Cambridge 1350
_journal_volume 13
_journal_year 2011
_journal_page_first 6057
_journal_name_full 'CrystEngComm '
loop_
_publ_author_name
"Shengqun Su"
"Chao Qin"
"Shuyan Song"
"Zhiyong Guo"
"Ruiping Deng"
"Wan Chen"
"Xuezhi Song"
"Song Wang"
"Guanghua Li"
"Hongjie Zhang"
_chemical_name_systematic
;
catena-(bis(\m~7~-5,5'-methanediyldibenzene-1,3-dicarboxylato)-(N,N-dimethylfo
rmamide)-tri-magnesium bis(dimethylammonium) tetrahydrate)
;
_cell_volume   4310.799
_exptl_crystal_colour 'colorless'
_exptl_crystal_description 'block'
_diffrn_ambient_temperature 185
_refine_special_details
;
The structure is disordered.

;
#These two values have been output from a single CSD field.
_refine_ls_R_factor_gt 0.073
_refine_ls_wR_factor_gt 0.073
_symmetry_cell_setting orthorhombic
_symmetry_space_group_name_H-M 'P c a 21'
_symmetry_Int_Tables_number 29
loop_
_symmetry_equiv_pos_site_id
_symmetry_equiv_pos_as_xyz
1 x,y,z
2 -x,-y,1/2+z
3 1/2+x,-y,z
4 1/2-x,y,1/2+z
_cell_length_a 10.7810(5)
_cell_length_b 15.8837(7)
_cell_length_c 25.1737(11)
_cell_angle_alpha 90
_cell_angle_beta 90
_cell_angle_gamma 90
_cell_formula_units_Z 4
loop_
_atom_type_symbol
_atom_type_radius_bond
C 0.68
H 0.23
Mg 1.36
N 0.68
O 0.68
loop_
_atom_site_label
_atom_site_type_symbol
_atom_site_fract_x
_atom_site_fract_y
_atom_site_fract_z
Mg1 Mg 0.29454(17) 0.17574(11) -0.28175(7)
Mg2 Mg 0.43367(17) 0.24978(12) -0.39740(7)
Mg3 Mg 0.07241(16) -0.32989(12) -0.51669(7)
C1 C 0.3260(5) 0.0132(4) -0.4007(2)
C2 C 0.2484(5) -0.0571(4) -0.4048(2)
H1 H 0.18840 -0.06780 -0.37800
C3 C 0.2588(5) -0.1116(3) -0.4481(2)
C4 C 0.3452(5) -0.0937(3) -0.4879(2)
H2 H 0.35070 -0.12960 -0.51790
C5 C 0.4245(5) -0.0234(3) -0.4843(2)
C6 C 0.4153(5) 0.0274(3) -0.4393(2)
H3 H 0.47150 0.07290 -0.43500
C7 C 0.5045(5) 0.0037(4) -0.5294(2)
H4 H 0.55120 0.05400 -0.51760
H5 H 0.44900 0.02210 -0.55850
C8 C 0.5967(5) -0.0571(4) -0.5527(2)
C9 C 0.6021(5) -0.0667(4) -0.6079(2)
H6 H 0.54280 -0.03930 -0.62980
C10 C 0.6945(5) -0.1167(4) -0.6309(2)
C11 C 0.7769(5) -0.1605(4) -0.5988(2)
H7 H 0.83910 -0.19470 -0.61460
C12 C 0.7691(5) -0.1546(4) -0.5443(2)
C13 C 0.6786(5) -0.1035(4) -0.5217(2)
H8 H 0.67270 -0.10010 -0.48410
C14 C 0.3123(5) 0.0732(3) -0.3565(2)
C15 C 0.1735(5) -0.1859(3) -0.4524(2)
C16 C 0.7010(5) -0.1263(4) -0.6898(2)
C17 C 0.8581(5) -0.2043(3) -0.5106(2)
C18 C 0.0460(5) 0.5168(4) -0.3895(2)
C19 C 0.1219(5) 0.4474(4) -0.3854(2)
H9 H 0.18450 0.43820 -0.41130
C20 C 0.1078(5) 0.3913(3) -0.3442(2)
C21 C 0.0217(5) 0.4063(4) -0.3042(2)
H10 H 0.01430 0.36860 -0.27510
C22 C -0.0534(5) 0.4771(3) -0.3074(2)
C23 C -0.0442(5) 0.5301(3) -0.3508(2)
H11 H -0.09990 0.57610 -0.35430
C24 C -0.1385(5) 0.5013(4) -0.2607(2)
H12 H -0.19480 0.54670 -0.27260
H13 H -0.08630 0.52460 -0.23180
C25 C -0.2160(5) 0.4313(4) -0.2380(2)
C26 C -0.2059(5) 0.4065(4) -0.1856(2)
H14 H -0.14410 0.43130 -0.16360
C27 C -0.2854(5) 0.3455(4) -0.1642(2)
C28 C -0.3770(5) 0.3102(4) -0.1952(2)
H15 H -0.43350 0.27110 -0.18010
C29 C -0.3871(5) 0.3321(4) -0.2493(2)
C30 C -0.3069(5) 0.3932(3) -0.2699(2)
H16 H -0.31420 0.40930 -0.30610
C31 C 0.0599(5) 0.5774(4) -0.4355(2)
C32 C 0.1908(5) 0.3138(3) -0.3409(2)
C33 C -0.2695(5) 0.3188(4) -0.1072(2)
C34 C -0.4811(5) 0.2909(3) -0.2836(2)
C35 C -0.1736(8) -0.4048(6) -0.5636(3)
H17 H -0.23250 -0.41620 -0.53640
C36 C -0.1275(7) -0.3707(6) -0.6569(3)
H18 H -0.04210 -0.37870 -0.64450
H19 H -0.14530 -0.41070 -0.68550
H20 H -0.13770 -0.31310 -0.67010
C37 C -0.3441(7) -0.3747(6) -0.6224(3)
H21 H -0.39140 -0.38780 -0.59020
H22 H -0.36020 -0.31640 -0.63300
H23 H -0.36950 -0.41280 -0.65110
O1 O 0.3770(3) 0.1398(2) -0.35436(14)
O2 O 0.2335(4) 0.0606(3) -0.31924(15)
O3 O 0.0870(3) -0.1879(2) -0.41941(15)
O4 O 0.1938(4) -0.2398(2) -0.48741(15)
O5 O 0.6194(4) -0.0949(3) -0.71923(16)
O6 O 0.7897(4) -0.1678(3) -0.70888(15)
O7 O 0.9513(4) -0.2355(3) -0.53358(15)
O8 O 0.8344(4) -0.2114(3) -0.46214(14)
O9 O -0.0090(3) 0.6422(2) -0.43803(13)
O10 O 0.1369(3) 0.5628(2) -0.47140(14)
O11 O 0.2779(3) 0.3100(3) -0.37276(16)
O12 O 0.1650(4) 0.2584(3) -0.30610(15)
O13 O -0.1778(4) 0.3456(3) -0.08214(16)
O14 O -0.3513(4) 0.2703(3) -0.08849(17)
H24 H -0.33430 0.25890 -0.05670
O15 O -0.5763(4) 0.2620(3) -0.26160(15)
O16 O -0.4603(4) 0.2887(3) -0.33275(14)
O17 O -0.0604(5) -0.4085(4) -0.5525(2)
N1 N -0.2146(6) -0.3853(4) -0.6121(3)
C38 C -0.4249(7) 0.4089(5) -0.0029(3)
H25 H -0.34150 0.43300 -0.00570
H26 H -0.47430 0.44230 0.02210
H27 H -0.46470 0.40960 -0.03790
C39 C -0.5306(7) 0.2782(5) 0.0242(4)
H28 H -0.51340 0.22120 0.03740
H29 H -0.57570 0.27460 -0.00950
H30 H -0.58100 0.30860 0.05030
N2 N -0.4163(5) 0.3218(4) 0.0162(3)
O18 O -0.3044(6) 0.3046(5) 0.1203(3)
O19 O 0.6317(13) 0.1476(9) -0.6024(5)
O20 O 0.3648(15) -0.0548(11) -0.7352(6)
O21 O 0.8008(18) 0.1021(14) -0.6273(8)
O22 O 1.062(4) -0.103(3) -0.7782(19)
O23? O 0.571(2) 0.1578(15) -0.6368(9)
O24? O 1.067(3) -0.097(2) -0.7195(14)
O25? O 1.038(3) -0.1587(19) -0.7425(11)
O26? O 0.297(3) -0.095(2) -0.7311(13)
Mg1A Mg 0.70546(17) -0.17574(11) -0.78175(7)
Mg1* Mg -0.70546(17) 0.17574(11) -0.28175(7)
Mg2B Mg -0.06633(17) -0.24978(12) -0.39740(7)
Mg2B* Mg 0.93367(17) -0.24978(12) -0.39740(7)
Mg2B** Mg -0.06633(17) 0.75022(12) -0.39740(7)
Mg2* Mg -0.56633(17) 0.24978(12) -0.39740(7)
Mg3* Mg 1.07241(16) -0.32989(12) -0.51669(7)
Mg3** Mg 0.07241(16) 0.67011(12) -0.51669(7)
Mg3A Mg -0.07241(16) 0.32989(12) -0.01669(7)
O3B O 0.5870(3) 0.1879(2) -0.41941(15)
O5A O 0.3806(4) 0.0949(3) -0.21923(16)
O6A O 0.2103(4) 0.1678(3) -0.20888(15)
O7* O -0.0487(4) -0.2355(3) -0.53358(15)
O8B O 0.3344(4) 0.2114(3) -0.46214(14)
O9B O 0.4910(3) 0.3578(2) -0.43803(13)
O9* O -0.0090(3) -0.3578(2) -0.43803(13)
O10* O 0.1369(3) -0.4372(2) -0.47140(14)
O13A O 0.1778(4) -0.3456(3) -0.58214(16)
O15* O 0.4237(4) 0.2620(3) -0.26160(15)
O16* O 0.5397(4) 0.2887(3) -0.33275(14)
#END
