
#######################################################################
#
#                 Cambridge Crystallographic Data Centre
#                                CCDC
#
#######################################################################
#
# If this CIF has been generated from an entry in the Cambridge
# Structural Database, then it will include bibliographic, chemical,
# crystal, experimental, refinement or atomic coordinate data resulting
# from the CCDC's data processing and validation procedures.
#
#######################################################################

data_CSD_CIF_EBIMIN
_audit_creation_date 2011-12-12
_audit_creation_method CSD-ConQuest-V1
_database_code_CSD EBIMIN
_database_code_depnum_ccdc_archive 'CCDC 810536'
_chemical_formula_sum 'C44 H46 Mn3 N4 O18'
_chemical_formula_moiety
;
(C34 H16 Mn3 O16 2-)n,2n(C2 H8 N1 1+),2n(C3 H7 N1 O1)
;
_journal_coden_Cambridge 1350
_journal_volume 13
_journal_year 2011
_journal_page_first 6057
_journal_name_full 'CrystEngComm '
loop_
_publ_author_name
"Shengqun Su"
"Chao Qin"
"Shuyan Song"
"Zhiyong Guo"
"Ruiping Deng"
"Wan Chen"
"Xuezhi Song"
"Song Wang"
"Guanghua Li"
"Hongjie Zhang"
_chemical_name_systematic
;
catena-(bis(\m~7~-5,5'-methanediyldibenzene-1,3-dicarboxylato)-tri-manganese 
bis(dimethylammonium) N,N-dimethylformamide solvate)
;
_cell_volume   4483.034
_exptl_crystal_colour 'colorless'
_exptl_crystal_density_diffrn 1.606
_exptl_crystal_description 'block'
_diffrn_ambient_temperature 185
_refine_special_details
;
C20 and C20' and C20' disordered over three sites with occupancies 
0.25:0.25:0.25; Long C=O bond at O9.
;
#These two values have been output from a single CSD field.
_refine_ls_R_factor_gt 0.0657
_refine_ls_wR_factor_gt 0.0657
_symmetry_cell_setting orthorhombic
_symmetry_space_group_name_H-M 'P b c a'
_symmetry_Int_Tables_number 61
loop_
_symmetry_equiv_pos_site_id
_symmetry_equiv_pos_as_xyz
1 x,y,z
2 1/2-x,-y,1/2+z
3 -x,1/2+y,1/2-z
4 1/2+x,1/2-y,-z
5 -x,-y,-z
6 -1/2+x,y,-1/2-z
7 x,-1/2-y,-1/2+z
8 -1/2-x,-1/2+y,z
_cell_length_a 16.2417(11)
_cell_length_b 10.7616(7)
_cell_length_c 25.6486(17)
_cell_angle_alpha 90
_cell_angle_beta 90
_cell_angle_gamma 90
_cell_formula_units_Z 4
loop_
_atom_type_symbol
_atom_type_radius_bond
C 0.68
H 0.23
Mn 1.48
N 0.68
O 0.68
loop_
_atom_site_label
_atom_site_type_symbol
_atom_site_fract_x
_atom_site_fract_y
_atom_site_fract_z
Mn1 Mn 0.06817(4) 0.34777(6) 0.38048(3)
Mn2 Mn 0.00000 0.50000 0.50000
C1 C 0.2341(3) 0.3950(4) 0.49978(17)
C2 C 0.3035(3) 0.3205(4) 0.50461(18)
H1 H 0.31420 0.25700 0.47980
C3 C 0.3575(3) 0.3396(4) 0.54635(18)
C4 C 0.3390(3) 0.4279(4) 0.58400(18)
H2 H 0.37500 0.43880 0.61280
C5 C 0.2687(3) 0.5005(4) 0.58020(17)
C6 C 0.2183(3) 0.4868(4) 0.53659(17)
H3 H 0.17260 0.54080 0.53190
C7 C 0.2395(3) 0.5849(4) 0.62357(17)
H4 H 0.21240 0.53280 0.65040
H5 H 0.19720 0.64130 0.60910
C8 C 0.3046(3) 0.6636(4) 0.65044(18)
C9 C 0.3503(3) 0.7507(4) 0.62256(17)
H6 H 0.34390 0.75650 0.58580
C10 C 0.4051(3) 0.8293(4) 0.64796(17)
C11 C 0.4164(3) 0.8184(5) 0.70217(18)
H7 H 0.45310 0.87250 0.72000
C12 C 0.3735(3) 0.7282(4) 0.72909(17)
C13 C 0.3173(3) 0.6537(4) 0.70357(18)
H8 H 0.28660 0.59430 0.72290
C14 C 0.1741(3) 0.3753(4) 0.45610(17)
C15 C 0.4326(3) 0.2577(4) 0.55123(17)
C16 C 0.4529(3) 0.9246(4) 0.61705(18)
C17 C 0.3891(3) 0.7066(5) 0.78657(18)
O1 O 0.11018(19) 0.4438(3) 0.45348(12)
O2 O 0.1862(2) 0.2929(3) 0.42255(13)
O3 O 0.4406(2) 0.1724(3) 0.51900(14)
O4 O 0.4822(2) 0.2808(3) 0.58811(14)
O5 O 0.4561(2) 0.9091(3) 0.56875(13)
O6 O 0.4863(2) 1.0120(3) 0.64209(14)
O7 O 0.4349(2) 0.7795(3) 0.81156(13)
O8 O 0.3574(3) 0.6146(4) 0.80836(14)
C18 C 0.6647(8) 0.4881(11) 0.6164(6)
H9 H 0.68110 0.43560 0.64580
H10 H 0.69370 0.56780 0.61840
H11 H 0.67870 0.44640 0.58360
C19 C 0.5355(8) 0.5914(10) 0.5774(5)
H12 H 0.47620 0.60300 0.58240
H13 H 0.54550 0.55250 0.54350
H14 H 0.56310 0.67230 0.57870
N1 N 0.5677(5) 0.5118(9) 0.6186(4)
H15 H 0.54130 0.43630 0.61700
H16 H 0.55510 0.54710 0.65030
C20 C 0.608(2) 0.618(3) 0.7714(14)
C21 C 0.6292(8) 0.8437(11) 0.7858(5)
C22 C 0.6469(9) 0.7933(14) 0.6878(6)
N2 N 0.6199(5) 0.7554(8) 0.7435(3)
O9 O 0.5640(7) 0.5758(8) 0.7151(4)
C23? C 0.588(3) 0.898(4) 0.7809(15)
C24? C 0.5869(7) 0.6435(9) 0.7552(4)
Mn1C Mn -0.43183(4) 0.15223(6) 0.61952(3)
Mn1C* Mn 0.56817(4) 0.15223(6) 0.61952(3)
Mn1C** Mn 0.56817(4) 1.15223(6) 0.61952(3)
Mn1A Mn 0.43183(4) 0.65223(6) 0.88048(3)
Mn1* Mn 0.06817(4) -0.65223(6) 0.38048(3)
Mn1B Mn -0.06817(4) -0.15223(6) 0.11952(3)
Mn2C Mn 0.50000 0.00000 0.50000
Mn2C* Mn 0.50000 1.00000 0.50000
Mn2C** Mn -0.50000 0.00000 0.50000
Mn2* Mn 0.00000 -0.50000 0.50000
C1C C -0.2659(3) 0.1050(4) 0.50022(17)
C2C C -0.1965(3) 0.1795(4) 0.49539(18)
H1C H -0.18580 0.24300 0.52020
C3C C -0.1425(3) 0.1604(4) 0.45365(18)
C4C C -0.1610(3) 0.0721(4) 0.41600(18)
H2C H -0.12500 0.06120 0.38720
C5C C -0.2313(3) -0.0005(4) 0.41980(17)
C6C C -0.2817(3) 0.0132(4) 0.46341(17)
H3C H -0.32740 -0.04080 0.46810
C7C C -0.2605(3) -0.0849(4) 0.37643(17)
H4C H -0.28760 -0.03280 0.34960
H5C H -0.30280 -0.14130 0.39090
C8C C -0.1954(3) -0.1636(4) 0.34956(18)
C9C C -0.1497(3) -0.2507(4) 0.37744(17)
H6C H -0.15610 -0.25650 0.41420
C10C C -0.0949(3) -0.3293(4) 0.35204(17)
C11C C -0.0836(3) -0.3184(5) 0.29783(18)
H7C H -0.04690 -0.37250 0.28000
C12C C -0.1265(3) -0.2282(4) 0.27091(17)
C13C C -0.1827(3) -0.1537(4) 0.29643(18)
H8C H -0.21340 -0.09430 0.27710
C14C C -0.3259(3) 0.1247(4) 0.54390(17)
C15C C -0.0674(3) 0.2423(4) 0.44877(17)
C16C C -0.0471(3) -0.4246(4) 0.38295(18)
C17C C -0.1109(3) -0.2066(5) 0.21343(18)
O1C O -0.38982(19) 0.0562(3) 0.54652(12)
O1D O -0.11018(19) 0.5562(3) 0.54652(12)
O2C O -0.3138(2) 0.2071(3) 0.57745(13)
O3C O -0.0594(2) 0.3276(3) 0.48100(14)
O3G O 0.0594(2) 0.6724(3) 0.51900(14)
O4C O -0.0178(2) 0.2192(3) 0.41189(14)
O4* O -0.5178(2) 0.2808(3) 0.58811(14)
O5C O -0.0439(2) -0.4091(3) 0.43125(13)
O5C* O -0.0439(2) 0.5909(3) 0.43125(13)
O5G O 0.0439(2) 0.4091(3) 0.56875(13)
O6C O -0.0137(2) -0.5120(3) 0.35791(14)
O6C* O -0.0137(2) 0.4880(3) 0.35791(14)
O6* O -0.5137(2) 0.0120(3) 0.64209(14)
O7C O -0.0651(2) -0.2795(3) 0.18844(13)
O7A O 0.0651(2) 0.2205(3) 0.31156(13)
O7B O -0.4349(2) 0.2795(3) 0.68844(13)
O8C O -0.1426(3) -0.1146(4) 0.19164(14)
O8A O 0.1426(3) 0.3854(4) 0.30836(14)
O8B O -0.3574(3) 0.1146(4) 0.69164(14)
#END
