
#######################################################################
#
#                 Cambridge Crystallographic Data Centre
#                                CCDC
#
#######################################################################
#
# If this CIF has been generated from an entry in the Cambridge
# Structural Database, then it will include bibliographic, chemical,
# crystal, experimental, refinement or atomic coordinate data resulting
# from the CCDC's data processing and validation procedures.
#
#######################################################################

data_CSD_CIF_EBUGAM
_audit_creation_date 2016-12-01
_audit_creation_method CSD-ConQuest-V1
_database_code_CSD EBUGAM
_database_code_depnum_ccdc_archive 'CCDC 1434554'
_chemical_formula_sum 'C48 H58 Co3.5 N8 O45 W12'
_chemical_formula_moiety
;
(C12 H16 Co2 N2 O42 W12 3-)n,n(C36 H36 Co1 N6 2+),0.5n(H12 Co1 O6 2+)
;
_journal_coden_Cambridge 211
_journal_volume 70
_journal_year 2017
_journal_page_first 60
_journal_name_full 'J.Coord.Chem. '
loop_
_publ_author_name
"Xiaoxing Zhang"
"Tingting Lu"
"Xinxin Xu"
"Yi Wang"
_chemical_name_systematic
;
catena-(hemikis(hexa-aqua-cobalt) tris(5,5'-dimethyl-2,2'-bipyridine)-cobalt 
triacontakis(\m-oxo)-diaqua-(5,5'-dimethyl-2,2'-bipyridine)-diaqua-decaoxo-di-
cobalt-dodeca-tungsten)
;
_cell_volume   8204.411
_exptl_crystal_colour 'green'
_exptl_crystal_density_diffrn 3.141
_exptl_crystal_description 'block'
_diffrn_ambient_temperature 293
#These two values have been output from a single CSD field.
_refine_ls_R_factor_gt 0.0597
_refine_ls_wR_factor_gt 0.0597
_symmetry_cell_setting monoclinic
_symmetry_space_group_name_H-M 'P 21/n'
_symmetry_Int_Tables_number 14
loop_
_symmetry_equiv_pos_site_id
_symmetry_equiv_pos_as_xyz
1 x,y,z
2 1/2-x,1/2+y,1/2-z
3 -x,-y,-z
4 -1/2+x,-1/2-y,-1/2+z
_cell_length_a 17.6382(16)
_cell_length_b 18.6265(17)
_cell_length_c 26.011(2)
_cell_angle_alpha 90
_cell_angle_beta 106.245(2)
_cell_angle_gamma 90
_cell_formula_units_Z 4
loop_
_atom_type_symbol
_atom_type_radius_bond
C 0.68
H 0.23
Co 1.26
N 0.68
O 0.68
W 1.62
loop_
_atom_site_label
_atom_site_type_symbol
_atom_site_fract_x
_atom_site_fract_y
_atom_site_fract_z
W1 W 0.25192(4) 0.37666(4) 0.86869(3)
Co1 Co 0.11732(14) 0.24247(12) 0.86401(10)
N1 N 0.4988(9) 0.5109(8) 0.9097(7)
C1 C 0.5592(13) 0.4688(11) 0.9144(9)
H1 H 0.55340 0.43200 0.88940
W2 W 0.08832(5) 0.38252(4) 0.77056(3)
Co2 Co 0.39232(15) 0.51046(13) 0.84809(11)
O1 O 0.1605(9) 0.0315(8) 0.9998(7)
C2 C 0.6320(12) 0.4734(12) 0.9533(9)
W3 W -0.00877(4) 0.37966(4) 0.88097(3)
O2 O -0.0859(8) 0.0393(7) 0.8598(6)
C3 C 0.6396(12) 0.5250(13) 0.9883(8)
H2 H 0.68680 0.52990 1.01520
W4 W 0.30100(5) 0.21912(4) 0.95872(3)
O3 O 0.0722(8) 0.0815(7) 0.8964(6)
C4 C 0.5773(13) 0.5733(12) 0.9861(9)
H3 H 0.58300 0.60960 1.01140
W5 W 0.22463(5) 0.26273(4) 0.76865(3)
O4 O 0.0589(7) 0.0712(7) 0.6999(5)
C5 C 0.5057(13) 0.5656(11) 0.9446(8)
W6 W 0.00980(5) 0.23955(4) 0.95920(4)
O5 O 0.1002(8) 0.1698(7) 0.9757(6)
C6 C 0.4411(12) 0.6153(10) 0.9370(9)
W7 W 0.15250(4) 0.35482(4) 0.97714(3)
O6 O 0.3091(8) 0.0447(6) 0.8396(6)
C7 C 0.4391(14) 0.6756(13) 0.9684(12)
H4 H 0.48290 0.69010 0.99560
W8 W -0.06852(5) 0.24674(4) 0.76980(3)
O7 O 0.2711(8) 0.2458(8) 0.7221(6)
C8 C 0.3701(16) 0.7119(14) 0.9573(13)
H5 H 0.36670 0.74940 0.98030
W9 W 0.24715(5) 0.10377(4) 0.85997(3)
O8 O -0.0007(7) 0.0643(7) 0.7874(6)
C9 C 0.3089(14) 0.6996(13) 0.9182(8)
W10 W 0.05893(5) 0.13085(4) 0.75212(4)
O9 O 0.3887(8) 0.2345(7) 1.0087(6)
C10 C 0.3121(11) 0.6413(11) 0.8872(9)
H6 H 0.26840 0.62950 0.85900
W11 W 0.16220(5) 0.10174(4) 0.95665(4)
O10 O -0.0800(7) 0.4454(7) 0.8698(6)
N2 N 0.3786(11) 0.600(1) 0.8970(8)
C11 C 0.6996(13) 0.4178(13) 0.9564(10)
H7 H 0.74440 0.42970 0.98580
H8 H 0.71450 0.41910 0.92360
H9 H 0.68130 0.37050 0.96150
W12 W -0.02636(5) 0.10583(4) 0.84748(4)
O11 O -0.0362(9) 0.2133(8) 1.0056(6)
C12 C 0.2293(19) 0.7441(14) 0.9073(11)
H10 H 0.23620 0.78290 0.93240
H11 H 0.18770 0.71320 0.91120
H12 H 0.21570 0.76300 0.87150
O12 O 0.1954(8) 0.4145(7) 1.0265(5)
O13 O 0.0495(8) 0.4553(7) 0.7287(6)
O14 O 0.2247(9) 0.0482(7) 0.9136(6)
O15 O -0.0343(7) 0.1831(7) 0.7191(5)
O16 O -0.1556(8) 0.2720(7) 0.7256(6)
O17 O 0.0879(8) 0.3046(7) 1.0096(6)
O18 O 0.0755(7) 0.2946(7) 0.9123(6)
O19 O 0.1945(7) 0.1769(6) 0.9034(5)
O20 O 0.3288(7) 0.4412(6) 0.8820(5)
O21 O 0.1532(8) 0.0906(7) 0.8088(6)
O22 O -0.1081(8) 0.1657(6) 0.7990(6)
O23 O -0.0333(7) 0.1778(7) 0.9028(5)
O24 O 0.2285(8) 0.2848(7) 0.9831(5)
O25 O 0.2609(7) 0.1878(6) 0.8179(5)
O26 O 0.0357(7) 0.1893(6) 0.8168(5)
O27 O -0.0526(7) 0.3199(6) 0.9298(5)
O28 O 0.0656(7) 0.4186(6) 0.9413(5)
O29 O 0.0087(7) 0.3140(7) 0.7530(5)
O30 O 0.0464(7) 0.4040(6) 0.8319(5)
O31 O 0.3010(7) 0.2953(7) 0.9090(5)
O32 O 0.3364(7) 0.1498(7) 0.9175(5)
O33 O 0.1835(7) 0.4352(7) 0.8128(5)
O34 O 0.2939(7) 0.3323(6) 0.8090(5)
O35 O 0.2612(8) 0.1410(8) 0.9973(6)
O36 O 0.1645(7) 0.3061(6) 0.8256(4)
O37 O 0.1519(7) 0.3388(6) 0.7304(5)
O38 O -0.0619(7) 0.3079(6) 0.8272(5)
O39 O 0.1296(7) 0.2018(6) 0.7440(5)
O40 O 0.2008(7) 0.3927(7) 0.9190(5)
O41 O 0.2831(7) 0.5268(7) 0.7877(5)
O42 O 0.4199(9) 0.4169(7) 0.8115(7)
Co3 Co -0.0942(2) 0.71156(17) 0.78836(13)
N3 N -0.0481(15) 0.7856(14) 0.8254(11)
N4 N -0.1607(13) 0.7175(11) 0.8366(9)
N5 N -0.1721(14) 0.7688(9) 0.7351(8)
N6 N -0.1514(9) 0.6333(11) 0.7471(7)
N7 N -0.0161(10) 0.6509(9) 0.8326(7)
N8 N -0.0253(11) 0.7078(9) 0.7416(7)
C13 C 0.0188(16) 0.8190(15) 0.8260(11)
H13 H 0.04700 0.80070 0.80360
C14 C 0.0538(19) 0.8845(17) 0.8597(14)
C15 C 0.0174(17) 0.9013(15) 0.8929(12)
H14 H 0.04020 0.93610 0.91810
C16 C -0.056(2) 0.8718(18) 0.8952(17)
H15 H -0.08260 0.89300 0.91730
C17 C -0.0862(18) 0.8157(12) 0.8669(8)
C18 C -0.1548(19) 0.7707(13) 0.8620(12)
C19 C -0.202(2) 0.7950(19) 0.8949(12)
H16 H -0.19530 0.83850 0.91310
C20 C -0.267(3) 0.738(2) 0.8959(15)
H17 H -0.30060 0.74530 0.91700
C21 C -0.2721(18) 0.6781(16) 0.8655(11)
C22 C -0.2153(19) 0.675(2) 0.8401(12)
H18 H -0.21640 0.63310 0.82090
C23 C 0.127(2) 0.901(2) 0.8486(18)
H19 H 0.15090 0.94190 0.86980
H20 H 0.11720 0.91260 0.81130
H21 H 0.16180 0.86080 0.85740
C24 C -0.3326(18) 0.617(2) 0.8676(14)
H22 H -0.32830 0.57880 0.84350
H23 H -0.38520 0.63560 0.85720
H24 H -0.32090 0.59800 0.90330
C25 C -0.176(2) 0.8407(14) 0.7358(12)
H25 H -0.14530 0.86710 0.76450
C26 C -0.2310(16) 0.8767(14) 0.6882(13)
C27 C -0.2706(16) 0.8363(13) 0.6496(13)
H26 H -0.30050 0.85820 0.61840
C28 C -0.2708(14) 0.7634(15) 0.6524(12)
H27 H -0.30540 0.73720 0.62530
C29 C -0.2160(14) 0.7248(16) 0.6986(10)
C30 C -0.2099(14) 0.6547(14) 0.6999(11)
C31 C -0.2486(13) 0.6046(15) 0.6631(11)
H28 H -0.28730 0.61920 0.63270
C32 C -0.2301(13) 0.5317(12) 0.6712(9)
H29 H -0.25470 0.49820 0.64530
C33 C -0.1755(14) 0.5092(14) 0.7176(9)
C34 C -0.1352(14) 0.5638(13) 0.7543(9)
H30 H -0.09600 0.54960 0.78470
C35 C -0.214(3) 0.963(2) 0.7016(18)
H31 H -0.24750 0.99110 0.67320
H32 H -0.15980 0.97350 0.70460
H33 H -0.22540 0.97430 0.73470
C36 C -0.1524(14) 0.4363(14) 0.7254(11)
H34 H -0.18540 0.40780 0.69710
H35 H -0.15800 0.42010 0.75920
H36 H -0.09840 0.43150 0.72510
C37 C -0.0337(13) 0.7392(11) 0.6950(11)
H37 H -0.07240 0.77440 0.68560
C38 C 0.0095(13) 0.7254(12) 0.6577(9)
C39 C 0.0655(13) 0.6695(14) 0.6743(10)
H38 H 0.09470 0.65420 0.65160
C40 C 0.0777(15) 0.6359(14) 0.7262(9)
H39 H 0.11730 0.60190 0.73840
C41 C 0.0313(11) 0.6547(9) 0.7556(7)
C42 C 0.0410(12) 0.6251(12) 0.8103(8)
C43 C 0.0977(11) 0.5796(9) 0.8365(8)
H40 H 0.13360 0.56150 0.81950
C44 C 0.1033(12) 0.5588(11) 0.8908(9)
H41 H 0.14050 0.52510 0.90830
C45 C 0.0525(13) 0.5895(10) 0.9165(9)
C46 C -0.0049(14) 0.6375(13) 0.8856(9)
H42 H -0.03720 0.66150 0.90270
C47 C -0.0013(14) 0.7587(13) 0.6079(11)
H43 H 0.03530 0.73900 0.59040
H44 H 0.00770 0.80940 0.61290
H45 H -0.05430 0.75060 0.58610
C48 C 0.0660(15) 0.5792(12) 0.9738(9)
H46 H 0.10730 0.54460 0.98650
H47 H 0.01840 0.56220 0.98060
H48 H 0.08120 0.62400 0.99200
Co4 Co 0.50000 0.00000 1.00000
O43 O 0.3725(18) -0.0168(17) 0.9894(13)
O44 O 0.4743(14) 0.0748(13) 0.939(1)
O45 O 0.4843(14) -0.0725(13) 0.9497(10)
Co2A Co 0.10768(15) 0.01046(13) 0.65191(11)
O4A O 0.4411(7) 0.5712(7) 0.8001(5)
O43B O 0.6275(18) 0.0168(17) 1.0106(13)
O44B O 0.5257(14) -0.0748(13) 1.061(1)
O45B O 0.5157(14) 0.0725(13) 1.0503(10)
#END
