
#######################################################################
#
#                 Cambridge Crystallographic Data Centre
#                                CCDC
#
#######################################################################
#
# If this CIF has been generated from an entry in the Cambridge
# Structural Database, then it will include bibliographic, chemical,
# crystal, experimental, refinement or atomic coordinate data resulting
# from the CCDC's data processing and validation procedures.
#
#######################################################################

data_CSD_CIF_EBUQOH
_audit_creation_date 2001-10-02
_audit_creation_method CSD-ConQuest-V1
_database_code_CSD EBUQOH
_database_code_depnum_ccdc_archive 'CCDC 162146'
_chemical_formula_sum 'C142 H145 N10 Na5 O38 Zn2'
_chemical_formula_moiety
;
(C24 H32 Na1 O8 1+)n,n(C106 H65 N10 Na4 O18 Zn2 1-),12n(C1 H4 O1)
;
_journal_coden_Cambridge 440
_journal_volume 25
_journal_year 2001
_journal_page_first 899
_journal_name_full 'New J.Chem. '
loop_
_publ_author_name
"Y.Diskin-Posner"
"I.Goldberg"
_chemical_name_systematic
;
catena-((Dibenzo(b,n)-24-crown-8)-sodium 
(\m~9~-4-(5,10,15-tris(4-carboxyphenyl)-20-porphyrinato)benzoato)-(\m~9~-4,4'-
(5,15-bis(4-carboxyphenyl)-10,20-porphyrinato)dibenzoato)-bis(\m~2~-hydroxo)-b
is(pyridine-N)-tetra-sodium-di-zinc(ii) methanol solvate)
;
_cell_volume  14201.772
_exptl_crystal_colour 'dark blue'
_exptl_crystal_density_diffrn 1.331
_exptl_special_details
;
slightly air-sensitive
The authors state that the Na cations within the tetrameric cluster are 
placed close to each other at distances of 3.092, 3.106 and 3.133 A
;
_exptl_crystal_description 'prisms'
_diffrn_ambient_temperature 110
_refine_special_details
;
The methanol solvent molecules are disordered and have not been modelled. The 
disordered density was taken into account using the SQUEEZE/PLATON procedure.
;
#These two values have been output from a single CSD field.
_refine_ls_R_factor_gt 0.0821
_refine_ls_wR_factor_gt 0.0821
_symmetry_cell_setting monoclinic
_symmetry_space_group_name_H-M 'P 2/c'
_symmetry_Int_Tables_number 13
loop_
_symmetry_equiv_pos_site_id
_symmetry_equiv_pos_as_xyz
1 x,y,z
2 x,-y,1/2+z
3 -x,-y,-z
4 -x,y,-1/2-z
_cell_length_a 30.7150(5)
_cell_length_b 13.7960(3)
_cell_length_c 33.5550(8)
_cell_angle_alpha 90
_cell_angle_beta 92.7990(6)
_cell_angle_gamma 90
_cell_formula_units_Z 4
loop_
_atom_type_symbol
_atom_type_radius_bond
C 0.60
H 0.23
N 0.68
Na 1.50
O 0.76
Zn 1.45
loop_
_atom_site_label
_atom_site_type_symbol
_atom_site_fract_x
_atom_site_fract_y
_atom_site_fract_z
N1 N 0.01261(10) 0.1983(2) 0.09308(9)
N2 N 0.06803(10) 0.2353(2) 0.02712(9)
N3 N 0.00372(10) 0.1447(2) -0.02715(9)
N4 N -0.05263(10) 0.11239(19) 0.03889(9)
C1 C -0.07486(12) 0.1085(2) 0.07265(11)
C2 C -0.05956(13) 0.1382(3) 0.11021(12)
C3 C -0.01805(13) 0.1783(3) 0.11976(12)
C4 C -0.00284(14) 0.2063(3) 0.15929(13)
H1 H -0.01770 0.19870 0.18260
C5 C 0.03715(14) 0.2459(3) 0.15615(13)
H2 H 0.05490 0.27130 0.17680
C6 C 0.04729(13) 0.2412(3) 0.11346(12)
C7 C 0.08490(13) 0.2781(3) 0.09775(12)
C8 C 0.09480(12) 0.2749(2) 0.05759(12)
C9 C 0.13427(13) 0.3062(3) 0.04151(12)
H3 H 0.15740 0.33580 0.05560
C10 C 0.13236(13) 0.2853(2) 0.00163(12)
H4 H 0.15380 0.29780 -0.01630
C11 C 0.09106(12) 0.2405(2) -0.00706(11)
C12 C 0.07618(12) 0.2073(2) -0.04462(12)
C13 C 0.03551(12) 0.1599(3) -0.05317(12)
C14 C 0.02167(13) 0.1200(3) -0.09190(12)
H5 H 0.03750 0.12000 -0.11480
C15 C -0.01862(13) 0.0831(3) -0.08797(12)
H6 H -0.03570 0.05220 -0.10780
C16 C -0.03024(12) 0.1000(2) -0.04803(12)
C17 C -0.06980(12) 0.0751(2) -0.03212(11)
C18 C -0.08007(13) 0.0796(2) 0.00816(12)
C19 C -0.12108(13) 0.0529(3) 0.02406(12)
H7 H -0.14510 0.02760 0.00970
C20 C -0.11833(13) 0.0712(3) 0.06335(12)
H8 H -0.14010 0.06170 0.08120
C21 C -0.09122(13) 0.1314(3) 0.14328(11)
C22 C -0.10602(14) 0.0421(3) 0.15574(13)
H9 H -0.09360 -0.01440 0.14630
C23 C -0.13875(13) 0.0365(3) 0.18174(13)
H10 H -0.14900 -0.02420 0.18890
C24 C -0.15729(13) 0.1190(3) 0.19783(12)
C25 C -0.14146(13) 0.2081(3) 0.18640(12)
H11 H -0.15280 0.26440 0.19700
C26 C -0.10910(14) 0.2144(3) 0.15941(12)
H12 H -0.09910 0.27500 0.15190
C27 C -0.19409(13) 0.1122(3) 0.22597(12)
O1 O -0.20921(9) 0.18812(19) 0.23961(9)
O2 O -0.20752(10) 0.0280(2) 0.23333(9)
C28 C 0.11762(13) 0.3289(3) 0.12489(12)
C29 C 0.14065(13) 0.2783(3) 0.15550(12)
H13 H 0.13600 0.21200 0.15820
C30 C 0.16978(13) 0.3239(3) 0.18153(12)
H14 H 0.18490 0.28840 0.20130
C31 C 0.17673(14) 0.4220(3) 0.17845(12)
C32 C 0.15441(15) 0.4742(3) 0.14838(14)
H15 H 0.15930 0.54040 0.14560
C33 C 0.12493(15) 0.4270(3) 0.12258(13)
H16 H 0.10960 0.46280 0.10310
C34 C 0.20709(13) 0.4780(3) 0.20694(13)
O3 O 0.21045(11) 0.56527(19) 0.20509(9)
O4 O 0.22779(10) 0.42421(19) 0.23337(9)
C35 C 0.10446(12) 0.2237(2) -0.07938(12)
C36 C 0.14358(13) 0.1762(3) -0.08167(12)
H17 H 0.15240 0.13290 -0.06160
C37 C 0.16996(12) 0.1917(2) -0.11314(12)
H18 H 0.19590 0.15740 -0.11450
C38 C 0.15836(12) 0.2573(2) -0.14240(12)
C39 C 0.11859(13) 0.3038(3) -0.14023(13)
H19 H 0.10950 0.34670 -0.16030
C40 C 0.09262(14) 0.2880(3) -0.10929(12)
H20 H 0.06640 0.32120 -0.10830
C41 C 0.18658(13) 0.2772(3) -0.17668(13)
O5 O 0.22284(9) 0.23398(18) -0.17857(8)
O6 O 0.17399(9) 0.3375(2) -0.20295(9)
C42 C -0.10559(13) 0.0425(3) -0.06158(12)
C43 C -0.12583(13) -0.0474(3) -0.05706(13)
H21 H -0.11630 -0.08860 -0.03650
C44 C -0.15962(13) -0.0751(3) -0.08262(12)
H22 H -0.17310 -0.13470 -0.07900
C45 C -0.17400(13) -0.0162(3) -0.11363(13)
C46 C -0.15393(14) 0.0734(3) -0.11831(13)
H23 H -0.16320 0.11370 -0.13930
C47 C -0.12057(14) 0.1027(3) -0.09223(12)
H24 H -0.10800 0.16340 -0.09520
C48 C -0.21095(13) -0.0482(3) -0.14191(13)
O7 O -0.22930(9) -0.1282(2) -0.13140(9)
O8 O -0.22221(11) -0.0006(2) -0.17188(10)
Zn1 Zn 0.003917(14) 0.19102(3) 0.031695(13)
N5 N -0.02595(11) 0.3311(2) 0.02272(11)
C49 C -0.02945(17) 0.3969(3) 0.05134(18)
H25 H -0.01970 0.38180 0.07730
C50 C -0.0474(2) 0.4874(3) 0.0434(2)
H26 H -0.04930 0.53360 0.06340
C51 C -0.0618(2) 0.5061(5) 0.0058(3)
H27 H -0.07450 0.56610 0.00010
C52 C -0.0588(3) 0.4423(4) -0.0238(3)
H28 H -0.06850 0.45680 -0.04980
C53 C -0.04093(16) 0.3550(3) -0.01380(19)
H29 H -0.03900 0.30890 -0.03390
C54 C -0.43913(10) -0.5078(2) 0.50421(13)
H30 H -0.42710 -0.56820 0.51030
C55 C -0.44255(13) -0.4762(3) 0.46484(13)
H31 H -0.43280 -0.51550 0.44460
C56 C -0.46051(14) -0.3860(3) 0.45574(12)
H32 H -0.46280 -0.36490 0.42940
N6 N -0.47506(11) -0.3272(2) 0.48602(15)
C57 C -0.47164(13) -0.3588(3) 0.52539(13)
H33 H -0.48140 -0.31950 0.54560
C58 C -0.45368(13) -0.4491(3) 0.53448(12)
H34 H -0.45140 -0.47020 0.56080
N7 N -0.50847(12) -0.2268(3) 0.41038(11)
N8 N -0.44438(11) -0.1307(3) 0.46334(11)
N9 N -0.50552(11) -0.1403(3) 0.52631(10)
N10 N -0.56690(11) -0.2459(3) 0.47478(10)
C59 C -0.59209(14) -0.2927(3) 0.44530(13)
C60 C -0.58070(15) -0.3029(3) 0.40654(13)
C61 C -0.54265(16) -0.2699(4) 0.38968(14)
C62 C -0.53232(16) -0.2790(4) 0.34849(15)
H35 H -0.55010 -0.30640 0.32830
C63 C -0.49286(17) -0.2414(4) 0.34426(15)
H36 H -0.47840 -0.23600 0.32070
C64 C -0.47696(16) -0.2103(4) 0.38354(14)
C65 C -0.43464(16) -0.1733(3) 0.39315(14)
C66 C -0.41976(14) -0.1410(3) 0.43063(14)
C67 C -0.37504(15) -0.1152(3) 0.44189(14)
H37 H -0.35150 -0.11760 0.42550
C68 C -0.37360(14) -0.0872(3) 0.48037(13)
H38 H -0.34910 -0.06610 0.49530
C69 C -0.41740(14) -0.0957(3) 0.49430(14)
C70 C -0.43146(13) -0.0721(3) 0.53205(13)
C71 C -0.47224(15) -0.0879(3) 0.54586(13)
C72 C -0.48811(14) -0.0578(3) 0.58367(13)
H39 H -0.47310 -0.01930 0.60250
C73 C -0.52821(14) -0.0948(3) 0.58709(13)
H40 H -0.54590 -0.08720 0.60860
C74 C -0.53844(13) -0.1475(3) 0.55184(12)
C75 C -0.57749(13) -0.2003(3) 0.54430(12)
C76 C -0.59010(14) -0.2461(3) 0.50838(14)
C77 C -0.63072(15) -0.2969(4) 0.50061(14)
H41 H -0.65210 -0.30790 0.51880
C78 C -0.63200(15) -0.3254(4) 0.46204(13)
H42 H -0.65440 -0.35970 0.44870
C79 C -0.61283(14) -0.3592(3) 0.37806(12)
C80 C -0.6105(2) -0.4569(4) 0.3759(2)
H43 H -0.58980 -0.49050 0.39160
C81 C -0.6398(2) -0.5079(4) 0.34951(17)
H44 H -0.63830 -0.57520 0.34860
C82 C -0.66904(14) -0.4632(3) 0.32621(13)
C83 C -0.6714(2) -0.3639(4) 0.3304(2)
H45 H -0.69210 -0.32920 0.31500
C84 C -0.6441(2) -0.3162(4) 0.3564(2)
H46 H -0.64760 -0.24970 0.35920
C85 C -0.69867(14) -0.5216(3) 0.29919(12)
O9 O -0.69561(10) -0.60747(19) 0.29627(8)
O10 O -0.72785(10) -0.4706(2) 0.27909(10)
C86 C -0.40378(15) -0.1701(3) 0.36097(14)
C87 C -0.38764(15) -0.0835(3) 0.34748(14)
H47 H -0.39750 -0.02640 0.35870
C88 C -0.35740(15) -0.0770(3) 0.31801(14)
H48 H -0.34780 -0.01700 0.30940
C89 C -0.34202(15) -0.1616(3) 0.30186(13)
C90 C -0.35773(17) -0.2486(3) 0.31439(16)
H49 H -0.34820 -0.30560 0.30280
C91 C -0.38739(18) -0.2536(4) 0.34377(16)
H50 H -0.39670 -0.31400 0.35230
C92 C -0.30795(14) -0.1560(3) 0.27047(13)
O11 O -0.29193(10) -0.23113(19) 0.25759(9)
O12 O -0.29753(11) -0.0718(2) 0.26001(10)
C93 C -0.39705(14) -0.0281(3) 0.56032(13)
C94 C -0.38778(14) -0.0681(3) 0.59731(14)
H51 H -0.40360 -0.12140 0.60550
C95 C -0.35582(15) -0.0304(3) 0.62199(14)
H52 H -0.35000 -0.05870 0.64680
C96 C -0.33188(14) 0.0489(3) 0.61113(13)
C97 C -0.34156(15) 0.0920(3) 0.57471(13)
H53 H -0.32590 0.14610 0.56720
C98 C -0.37419(15) 0.0556(3) 0.54943(14)
H54 H -0.38110 0.08610 0.52520
C99 C -0.29589(15) 0.0873(3) 0.63793(14)
O13 O -0.27723(10) 0.1672(2) 0.62498(9)
O14 O -0.28387(11) 0.0472(2) 0.66885(10)
C100 C -0.60639(13) -0.2121(3) 0.57827(12)
C101 C -0.63690(14) -0.1455(3) 0.58719(12)
H55 H -0.64090 -0.09180 0.57060
C102 C -0.66236(14) -0.1540(3) 0.61979(12)
H56 H -0.68290 -0.10650 0.62470
C103 C -0.65757(12) -0.2321(3) 0.64499(12)
C104 C -0.62719(18) -0.2995(4) 0.63491(15)
H57 H -0.62370 -0.35480 0.65060
C105 C -0.60197(18) -0.2891(4) 0.60305(16)
H58 H -0.58120 -0.33600 0.59820
C106 C -0.68422(13) -0.2443(3) 0.68087(12)
O15 O -0.71676(8) -0.18899(18) 0.68460(8)
O16 O -0.67413(11) -0.3062(2) 0.70665(10)
Zn2 Zn -0.503010(17) -0.20141(4) 0.470630(15)
Na1 Na -0.26280(5) 0.06717(10) 0.27386(5)
Na2 Na -0.26927(5) 0.28325(10) 0.24821(5)
Na3 Na 0.75040(6) 0.37056(12) 0.04075(6)
O17 O 0.76631(11) 0.1982(2) 0.07118(10)
C107 C 0.76458(16) 0.1257(4) 0.04395(18)
C108 C 0.75981(19) 0.0273(4) 0.0545(2)
H59 H 0.75890 0.00850 0.08100
C109 C 0.7565(2) -0.0398(5) 0.0241(3)
H60 H 0.75070 -0.10390 0.03060
C110 C 0.7613(2) -0.0178(5) -0.0132(3)
H61 H 0.76180 -0.06650 -0.03230
C111 C 0.7657(2) 0.0805(5) -0.0246(2)
H62 H 0.76670 0.09670 -0.05140
C112 C 0.76861(18) 0.1536(4) 0.00477(19)
O18 O 0.77363(14) 0.2510(2) -0.00499(11)
C113 C 0.8160(3) 0.2816(6) -0.0194(3)
H63 H 0.82800 0.23220 -0.03640
H64 H 0.81330 0.34170 -0.03430
C114 C 0.8422(2) 0.2940(4) 0.0154(4)
H65 H 0.87240 0.30180 0.00870
H66 H 0.84020 0.23730 0.03230
O19 O 0.82795(12) 0.3786(2) 0.03636(15)
C115 C 0.8472(2) 0.3921(5) 0.0752(3)
H67 H 0.87850 0.40020 0.07380
H68 H 0.84190 0.33570 0.09150
C116 C 0.8273(3) 0.4822(6) 0.0937(3)
H69 H 0.83980 0.49250 0.12050
H70 H 0.83300 0.53910 0.07780
O20 O 0.78271(17) 0.4659(3) 0.09467(12)
C117 C 0.7547(3) 0.5596(5) 0.0978(3)
H71 H 0.72500 0.54230 0.10340
H72 H 0.76640 0.59950 0.11960
C118 C 0.7550(3) 0.6120(5) 0.0620(3)
H73 H 0.73740 0.67000 0.06400
H74 H 0.78460 0.63150 0.05690
O21 O 0.73871(11) 0.5556(2) 0.03128(15)
C119 C 0.74172(18) 0.5931(5) -0.0083(2)
C120 C 0.74648(19) 0.6917(4) -0.0135(3)
H75 H 0.74790 0.73380 0.00820
C121 C 0.7490(2) 0.7242(4) -0.0505(3)
H76 H 0.75350 0.78990 -0.05510
C122 C 0.7450(2) 0.6606(4) -0.0820(3)
H77 H 0.74640 0.68500 -0.10770
C123 C 0.7391(2) 0.5637(5) -0.0772(3)
H78 H 0.73650 0.52200 -0.09900
C124 C 0.7371(2) 0.5290(4) -0.0377(3)
O22 O 0.73300(15) 0.4311(3) -0.02661(15)
C125 C 0.7041(4) 0.3841(6) -0.0488(3)
H79 H 0.71230 0.31670 -0.05180
H80 H 0.70010 0.41350 -0.07500
C126 C 0.6678(3) 0.3927(7) -0.0280(4)
H81 H 0.64270 0.37000 -0.04410
H82 H 0.66310 0.46020 -0.02140
O23 O 0.67237(19) 0.3373(4) 0.0074(2)
C127 C 0.6628(3) 0.3304(5) 0.0400(3)
H83 H 0.63150 0.33360 0.03440
H84 H 0.67030 0.39630 0.04770
C128 C 0.6607(2) 0.2908(6) 0.0819(4)
H85 H 0.65880 0.22070 0.08250
H86 H 0.63720 0.31920 0.09630
O24 O 0.7049(2) 0.3278(3) 0.09606(18)
C129 C 0.7305(3) 0.2802(5) 0.1222(2)
H87 H 0.71480 0.27150 0.14630
H88 H 0.75560 0.32050 0.12900
C130 C 0.7472(2) 0.1799(4) 0.10929(19)
H89 H 0.76880 0.15490 0.12860
H90 H 0.72330 0.13390 0.10630
O25 O -0.30567(11) 0.1384(2) 0.21902(10)
H91 H -0.34290 0.14600 0.21990
Na4 Na -0.24065(5) -0.11195(11) 0.22113(5)
Na5 Na 0.23433(6) 0.67206(11) 0.25465(5)
O26 O -0.19482(13) -0.1809(2) 0.2733(1)
H92 H -0.15640 -0.17550 0.27530
Na2C Na 0.26927(5) 0.28325(10) 0.25179(5)
Na4B Na 0.24065(5) 0.11195(11) -0.22113(5)
Na5A Na 0.23433(6) 0.32794(11) -0.24535(5)
Na1A Na -0.26280(5) -0.06717(10) -0.22614(5)
Na2C* Na -0.73073(5) -0.71675(10) 0.25179(5)
Na5* Na -0.76567(6) -0.32794(11) 0.25465(5)
Na5C Na -0.23433(6) -0.32794(11) 0.24535(5)
Na4A Na -0.24065(5) 0.11195(11) 0.72113(5)
Na1B Na -0.73720(5) -0.06717(10) 0.72614(5)
Na2B Na -0.73073(5) -0.28325(10) 0.75179(5)
O8A O -0.22221(11) 0.0006(2) 0.32812(10)
O15B O -0.28324(8) 0.18899(18) 0.31540(8)
O4C O -0.22779(10) 0.42421(19) 0.26663(9)
O9C O -0.30439(10) 0.39253(19) 0.20373(8)
O16B O -0.32587(11) 0.3062(2) 0.29335(10)
O5B O -0.22284(9) -0.23398(18) 0.17857(8)
O14A O -0.28387(11) -0.0472(2) 0.16885(10)
O6A O 0.17399(9) 0.6625(2) 0.29705(9)
O10* O 0.27215(10) 0.5294(2) 0.27909(10)
O11C O 0.29193(10) 0.76887(19) 0.24241(9)
Na4C Na 0.24065(5) 0.88805(11) 0.27887(5)
O26C O 0.19482(13) 0.8191(2) 0.2267(1)
H92C H 0.15640 0.82450 0.22470
#END
