
#######################################################################
#
#                 Cambridge Crystallographic Data Centre
#                                CCDC
#
#######################################################################
#
# If this CIF has been generated from an entry in the Cambridge
# Structural Database, then it will include bibliographic, chemical,
# crystal, experimental, refinement or atomic coordinate data resulting
# from the CCDC's data processing and validation procedures.
#
#######################################################################

data_CSD_CIF_ECATUY
_audit_creation_date 2006-05-29
_audit_creation_method CSD-ConQuest-V1
_database_code_CSD ECATUY
_database_code_depnum_ccdc_archive 'CCDC 266330'
_chemical_formula_sum 'C32 H60 Cu5 N4 O43 S9'
_chemical_formula_moiety
;
(C8 H12 Cu1 N4 O3 2+)n,n(C24 H16 Cu4 O24 S9 2-),16n(H2 O1)
;
_journal_coden_Cambridge 1290
_journal_year 2006
_journal_page_first 526
_journal_name_full 'Eur.J.Inorg.Chem. '
loop_
_publ_author_name
"Mingyan Wu"
"Daqiang Yuan"
"Lei Han"
"Benlai Wu"
"Yanqing Xu"
"Maochun Hong"
_chemical_name_systematic
;
catena-((\m~4~-5,11,17,23-Tetrasulfato-25,26,27,28-tetraoxy-2,7,13,19-tetrathi
acalix(4)arene)-(\m~4~-sulfato)-tetra-aqua-tetra-copper 
(2,2'-bipyrazine)-triaqua-copper hexadecahydrate)
;
_cell_volume   6355.901
_exptl_crystal_colour 'orange'
_exptl_crystal_density_diffrn 1.861
_exptl_crystal_description 'prism'
_diffrn_ambient_temperature 173
_refine_special_details
;
Water molecules are disordered with occupancies 0.44:0.56, 0.582:0.418 and 
0.58:0.42.
;
#These two values have been output from a single CSD field.
_refine_ls_R_factor_gt 0.0659
_refine_ls_wR_factor_gt 0.0659
_symmetry_cell_setting monoclinic
_symmetry_space_group_name_H-M 'P 21/c'
_symmetry_Int_Tables_number 14
loop_
_symmetry_equiv_pos_site_id
_symmetry_equiv_pos_as_xyz
1 x,y,z
2 -x,1/2+y,1/2-z
3 -x,-y,-z
4 x,-1/2-y,-1/2+z
_cell_length_a 14.981(3)
_cell_length_b 18.407(4)
_cell_length_c 23.447(5)
_cell_angle_alpha 90
_cell_angle_beta 100.571(2)
_cell_angle_gamma 90
_cell_formula_units_Z 4
loop_
_atom_type_symbol
_atom_type_radius_bond
C 0.68
H 0.23
Cu 1.40
N 0.68
O 0.68
S 1.02
loop_
_atom_site_label
_atom_site_type_symbol
_atom_site_fract_x
_atom_site_fract_y
_atom_site_fract_z
Cu1 Cu 0.18989(4) -0.56121(3) 0.16835(2)
Cu2 Cu 0.16960(4) -0.36532(3) 0.18859(2)
Cu3 Cu 0.16329(4) -0.36634(3) 0.32510(2)
Cu4 Cu 0.19951(4) -0.56332(3) 0.32809(2)
Cu5 Cu -0.35858(4) -0.57087(4) 0.27092(3)
S1 S -0.21626(8) -0.48400(7) -0.02274(5)
S2 S -0.28573(8) -0.25559(7) 0.18268(5)
S3 S -0.17977(8) -0.49425(7) 0.47250(5)
S4 S -0.22925(8) -0.71796(6) 0.22173(5)
S5 S 0.07577(8) -0.61514(6) 0.36309(5)
S6 S 0.00917(8) -0.31849(6) 0.35117(5)
S7 S 0.03907(8) -0.32496(6) 0.12053(5)
S8 S 0.05531(8) -0.62230(6) 0.12576(5)
S9 S 0.31857(8) -0.46978(6) 0.25677(5)
O1 O -0.2264(3) -0.5589(2) -0.04170(16)
O2 O -0.2873(2) -0.4618(2) 0.00851(15)
O3 O -0.2077(2) -0.4335(2) -0.06892(14)
O4 O -0.2833(3) -0.1858(2) 0.15109(19)
O5 O -0.3189(3) -0.2441(2) 0.23677(19)
O6 O -0.3310(3) -0.3104(3) 0.1457(2)
O7 O -0.2656(2) -0.5026(2) 0.43149(16)
O8 O -0.1788(3) -0.4275(2) 0.50637(15)
O9 O -0.1565(3) -0.5582(2) 0.50845(15)
O10 O -0.2983(2) -0.66379(19) 0.20289(15)
O11 O -0.2342(2) -0.74955(18) 0.27779(14)
O12 O -0.2305(2) -0.77236(18) 0.17526(14)
O13 O 0.1386(2) -0.59067(18) 0.25159(13)
O14 O 0.1052(2) -0.46106(17) 0.33035(13)
O15 O 0.0953(2) -0.35102(18) 0.24604(13)
O16 O 0.1179(2) -0.47294(17) 0.15541(13)
O17 O 0.2667(2) -0.6483(2) 0.17527(16)
O18 O 0.2672(3) -0.5445(3) 0.40599(16)
O19 O 0.2365(3) -0.3792(2) 0.40224(15)
O20 O 0.2567(2) -0.35815(19) 0.13707(14)
O21 O 0.2993(2) -0.50330(18) 0.19857(14)
O22 O 0.3064(2) -0.52397(19) 0.30129(15)
O23 O 0.2529(2) -0.40953(19) 0.25820(14)
O24 O 0.4105(2) -0.4424(2) 0.26825(16)
O25 O -0.4159(3) -0.4832(3) 0.31897(18)
O26 O -0.4505(3) -0.6425(3) 0.2856(2)
O27 O -0.2714(3) -0.5966(2) 0.34223(15)
O28? O -0.371(2) -0.3353(12) 0.014(2)
O29 O -0.3759(9) -0.3237(7) -0.0327(10)
O30? O -0.3925(14) -0.2367(12) -0.0561(9)
O31 O 0.2435(5) -0.7507(3) 0.0945(3)
O32 O 0.2591(4) -0.2206(2) 0.09244(18)
O33 O 0.4173(5) -0.2116(6) 0.0502(3)
O34 O 0.4873(10) -0.3150(9) 0.095(1)
O35 O 0.5338(4) -0.1286(4) 0.1266(3)
O36 O 0.5012(17) -0.3750(13) 0.1734(11)
O37 O 0.4360(11) -0.2859(9) 0.2255(8)
O38 O 0.4368(8) -0.1867(6) 0.4008(4)
O39? O 0.4653(15) -0.2525(13) 0.353(1)
O40 O 0.3847(10) -0.1206(7) 0.4973(6)
O41 O 0.4085(8) -0.3345(7) 0.4300(5)
O42? O 0.3608(10) -0.2908(9) 0.4394(6)
O43? O 0.4419(6) -0.5170(6) 0.4416(4)
O44 O -0.0986(4) -0.2727(3) 0.4992(2)
O45 O -0.4187(5) -0.4143(4) 0.4502(3)
O46 O -0.3534(11) -0.3081(7) 0.5255(5)
O47 O -0.1023(4) -0.7059(3) 0.4974(2)
O48 O -0.2149(4) -0.7998(3) 0.5491(3)
N1 N -0.4313(3) -0.5447(3) 0.19351(19)
N2 N -0.2637(3) -0.5133(2) 0.23913(17)
N3 N -0.5151(4) -0.5003(7) 0.0839(3)
N4 N -0.1367(3) -0.4642(2) 0.17578(19)
C1 C 0.0435(3) -0.4749(2) 0.11507(18)
C2 C 0.0037(3) -0.5411(2) 0.09431(19)
C3 C -0.0739(3) -0.5449(3) 0.05173(18)
H1 H -0.09920 -0.59060 0.03890
C4 C -0.1143(3) -0.4803(3) 0.02791(19)
C5 C -0.0763(3) -0.4138(3) 0.04766(18)
H2 H -0.10320 -0.36990 0.03140
C6 C 0.0004(3) -0.4112(2) 0.09097(18)
C7 C 0.0103(3) -0.3276(2) 0.23283(19)
C8 C -0.0297(3) -0.3145(2) 0.17458(19)
C9 C -0.1190(3) -0.2923(2) 0.15935(19)
H3 H -0.14490 -0.28380 0.11980
C10 C -0.1710(3) -0.2824(3) 0.2027(2)
C11 C -0.1313(3) -0.2925(3) 0.2608(2)
H4 H -0.16610 -0.28370 0.29010
C12 C -0.0427(3) -0.3150(2) 0.27616(19)
C13 C 0.0407(3) -0.4676(2) 0.36072(18)
C14 C -0.0133(3) -0.4080(2) 0.37355(18)
C15 C -0.0791(3) -0.4169(3) 0.40753(19)
H5 H -0.11430 -0.37640 0.41530
C16 C -0.0940(3) -0.4846(3) 0.43033(19)
C17 C -0.0458(3) -0.5446(3) 0.41712(19)
H6 H -0.05670 -0.59110 0.43190
C18 C 0.0185(3) -0.5359(2) 0.38213(19)
C19 C 0.0555(3) -0.6166(2) 0.24433(19)
C20 C 0.0124(3) -0.6317(2) 0.29196(18)
C21 C -0.0730(3) -0.6612(3) 0.2855(2)
H7 H -0.09890 -0.67160 0.31870
C22 C -0.1217(3) -0.6757(2) 0.2302(2)
C23 C -0.0829(3) -0.6608(2) 0.18152(19)
H8 H -0.11630 -0.67020 0.14370
C24 C 0.0042(3) -0.6323(2) 0.18841(19)
C25 C -0.5187(4) -0.5587(4) 0.1740(3)
H9 H -0.55310 -0.58460 0.19760
C26 C -0.5594(5) -0.5352(7) 0.1192(3)
H10 H -0.62220 -0.54470 0.10640
C27 C -0.4263(5) -0.4872(7) 0.1032(3)
H11 H -0.39240 -0.46240 0.07880
C28 C -0.3829(4) -0.5089(4) 0.1579(3)
C29 C -0.2884(4) -0.4966(3) 0.1825(2)
C30 C -0.2247(4) -0.4718(3) 0.1517(2)
H12 H -0.24360 -0.45950 0.11200
C31 C -0.1144(4) -0.4802(3) 0.2318(2)
H13 H -0.05280 -0.47540 0.25040
C32 C -0.1775(3) -0.5037(2) 0.26388(18)
H14 H -0.15900 -0.51300 0.30420
O49 O -0.3120(3) -0.3646(2) 0.32617(18)
O50 O 0.4301(3) -0.4743(2) 0.39983(18)
Cu1B Cu -0.18989(4) -0.43879(3) -0.16835(2)
Cu2A Cu -0.16960(4) -0.86532(3) 0.31141(2)
Cu3A Cu -0.16329(4) -0.86634(3) 0.17490(2)
O3B O 0.2077(2) -0.5665(2) 0.06892(14)
O11A O 0.2342(2) -0.24955(18) 0.22221(14)
O12A O 0.2305(2) -0.27236(18) 0.32474(14)
#END
