
#######################################################################
#
#                 Cambridge Crystallographic Data Centre
#                                CCDC
#
#######################################################################
#
# If this CIF has been generated from an entry in the Cambridge
# Structural Database, then it will include bibliographic, chemical,
# crystal, experimental, refinement or atomic coordinate data resulting
# from the CCDC's data processing and validation procedures.
#
#######################################################################

data_CSD_CIF_ECAVAG
_audit_creation_date 2006-05-29
_audit_creation_method CSD-ConQuest-V1
_database_code_CSD ECAVAG
_database_code_depnum_ccdc_archive 'CCDC 266331'
_chemical_formula_sum 'C32 H51.5 Co5 N4 O38.75 S9'
_chemical_formula_moiety
;
(C8 H14 Co1 N4 O4 2+)n,n(C24 H16 Co4 O24 S9 2-),10.75n(H2 O1)
;
_journal_coden_Cambridge 1290
_journal_year 2006
_journal_page_first 526
_journal_name_full 'Eur.J.Inorg.Chem. '
loop_
_publ_author_name
"Mingyan Wu"
"Daqiang Yuan"
"Lei Han"
"Benlai Wu"
"Yanqing Xu"
"Maochun Hong"
_chemical_name_systematic
;
catena-((2,2'-Bipyrazine)-tetraaqua-cobalt 
(\m~8~-5,11,17,23-tetrasulfato-25,26,27,28-tetraoxy-2,7,13,19-tetrathiacalix(4
)arene)-(\m~4~-sulfato)-tetra-aqua-tetra-cobalt hydrate)
;
_cell_volume  12542.593
_exptl_crystal_colour 'red'
_exptl_crystal_density_diffrn 1.796
_exptl_crystal_description 'Prism'
_diffrn_ambient_temperature 173
_refine_special_details
;
The structure appears to be disordered.

;
#These two values have been output from a single CSD field.
_refine_ls_R_factor_gt 0.0546
_refine_ls_wR_factor_gt 0.0546
_symmetry_cell_setting monoclinic
_symmetry_space_group_name_H-M 'C 2/c'
_symmetry_Int_Tables_number 15
loop_
_symmetry_equiv_pos_site_id
_symmetry_equiv_pos_as_xyz
1 x,y,z
2 1/2+x,1/2+y,z
3 -x,y,1/2-z
4 1/2-x,1/2+y,1/2-z
5 -x,-y,-z
6 -1/2-x,-1/2-y,-z
7 x,-y,-1/2+z
8 -1/2+x,-1/2-y,-1/2+z
_cell_length_a 22.764(4)
_cell_length_b 18.334(4)
_cell_length_c 30.170(6)
_cell_angle_alpha 90
_cell_angle_beta 95.057(7)
_cell_angle_gamma 90
_cell_formula_units_Z 8
loop_
_atom_type_symbol
_atom_type_radius_bond
C 0.68
H 0.23
Co 1.33
N 0.68
O 0.68
S 1.02
loop_
_atom_site_label
_atom_site_type_symbol
_atom_site_fract_x
_atom_site_fract_y
_atom_site_fract_z
Co1 Co 0.31865(2) -0.53100(3) 0.343880(16)
Co2 Co 0.30233(2) -0.32772(3) 0.343260(16)
Co3 Co 0.14584(2) -0.35821(3) 0.334830(16)
Co4 Co 0.15822(2) -0.53343(3) 0.331700(16)
S1 S 0.36189(4) -0.57436(5) 0.27811(3)
S2 S 0.33617(4) -0.27492(5) 0.27636(3)
S3 S 0.09336(4) -0.30041(5) 0.26753(3)
S4 S 0.11777(4) -0.59545(5) 0.26369(3)
S5 S 0.23758(5) -0.65384(5) 0.12146(3)
S6 S 0.47428(4) -0.40371(6) 0.16212(3)
S7 S 0.19667(4) -0.21165(5) 0.12274(3)
S8 S -0.03393(4) -0.46112(5) 0.13832(3)
S9 S 0.24094(4) -0.43907(5) 0.40732(3)
O1 O 0.52366(12) -0.35729(19) 0.1775(1)
O2 O 0.49133(14) -0.4766(2) 0.15006(11)
O3 O 0.43632(14) -0.3676(2) 0.12698(10)
O4 O 0.25472(13) -0.21688(17) 0.10584(9)
O5 O 0.17549(13) -0.13635(15) 0.12351(9)
O6 O 0.15404(14) -0.25997(17) 0.09985(10)
O7 O -0.00306(13) -0.47143(18) 0.09893(10)
O8 O -0.06620(11) -0.39210(15) 0.13799(9)
O9 O -0.07098(12) -0.52423(16) 0.14689(10)
O10 O 0.20831(15) -0.72500(16) 0.12010(9)
O11 O 0.20435(16) -0.60026(17) 0.09443(10)
O12 O 0.29872(15) -0.65826(17) 0.11086(10)
O13 O 0.23953(11) -0.55841(14) 0.30905(8)
O14 O 0.14203(11) -0.44440(14) 0.29292(8)
O15 O 0.21971(11) -0.31312(14) 0.31007(9)
O16 O 0.32272(12) -0.42788(14) 0.31183(9)
O17 O 0.16084(13) -0.61832(17) 0.37485(10)
O18 O 0.14135(13) -0.28272(17) 0.38321(10)
O19 O 0.38703(13) -0.32264(18) 0.37472(11)
O20 O 0.39947(13) -0.51321(19) 0.37809(10)
O21 O 0.18864(12) -0.44408(15) 0.37359(9)
O22 O 0.27846(12) -0.50367(15) 0.40109(9)
O23 O 0.27227(12) -0.37111(15) 0.39964(9)
O24 O 0.22172(13) -0.44042(16) 0.45203(9)
C1 C 0.35511(16) -0.4241(2) 0.27759(12)
C2 C 0.38012(16) -0.4861(2) 0.25859(13)
C3 C 0.41730(16) -0.4814(2) 0.22448(13)
H1 H 0.43410 -0.52420 0.21320
C4 C 0.42964(17) -0.4135(2) 0.20700(13)
C5 C 0.40372(16) -0.3512(2) 0.22306(13)
H2 H 0.41150 -0.30490 0.21070
C6 C 0.36671(16) -0.3564(2) 0.25695(12)
C7 C 0.21487(16) -0.28933(19) 0.26842(12)
C8 C 0.26538(16) -0.2715(2) 0.24586(12)
C9 C 0.26093(17) -0.2485(2) 0.20197(12)
H3 H 0.29560 -0.23790 0.18780
C10 C 0.20591(18) -0.2410(2) 0.17857(13)
C11 C 0.15554(17) -0.2556(2) 0.20007(12)
H4 H 0.11770 -0.24920 0.18460
C12 C 0.15990(16) -0.2792(2) 0.24374(12)
C13 C 0.10266(15) -0.4477(2) 0.25788(12)
C14 C 0.07600(15) -0.3843(2) 0.23968(12)
C15 C 0.03531(16) -0.3880(2) 0.20271(12)
H5 H 0.01830 -0.34460 0.19010
C16 C 0.01938(16) -0.4552(2) 0.18415(12)
C17 C 0.04429(16) -0.5194(2) 0.20207(13)
H6 H 0.03300 -0.56530 0.18950
C18 C 0.08587(16) -0.5152(2) 0.23850(12)
C19 C 0.23990(17) -0.5796(2) 0.26697(12)
C20 C 0.18679(17) -0.5955(2) 0.24031(13)
C21 C 0.18718(17) -0.6157(2) 0.19628(12)
H7 H 0.15090 -0.62390 0.17890
C22 C 0.24009(17) -0.6242(2) 0.17715(12)
C23 C 0.29346(18) -0.6122(2) 0.20242(13)
H8 H 0.32980 -0.61940 0.18980
C24 C 0.29301(17) -0.5894(2) 0.24648(13)
Co5 Co 0.28930(2) -0.42406(3) 0.040830(18)
O25 O 0.27946(16) -0.53814(18) 0.03314(10)
O26 O 0.31688(14) -0.41587(18) -0.02328(10)
O27 O 0.37494(15) -0.4491(2) 0.06420(12)
O28 O 0.30683(17) -0.31462(18) 0.04945(12)
N1 N 0.25061(16) -0.4261(2) 0.10264(12)
N2 N 0.19773(16) -0.4144(2) 0.02081(12)
C25 C 0.2779(2) -0.4296(2) 0.14340(14)
H9 H 0.31980 -0.42940 0.14700
C26 C 0.2466(2) -0.4334(2) 0.18083(14)
H10 H 0.26780 -0.43610 0.20940
N3 N 0.18797(19) -0.4334(2) 0.17810(12)
C27 C 0.1610(2) -0.4297(3) 0.13730(16)
H11 H 0.11910 -0.42960 0.13390
C28 C 0.1911(2) -0.4260(3) 0.09935(14)
C29 C 0.1616(2) -0.4206(3) 0.05348(16)
C30 C 0.0999(3) -0.4186(4) 0.0441(3)
H12 H 0.07520 -0.41790 0.06790
N4 N 0.0758(2) -0.4178(6) 0.00237(19)
C31 C 0.1121(3) -0.4145(5) -0.02997(19)
H13 H 0.09600 -0.41480 -0.06010
C32 C 0.1730(2) -0.4106(3) -0.02054(15)
H14 H 0.19740 -0.40500 -0.04430
O29 O -0.0059(4) -0.7055(5) 0.2955(3)
O30 O -0.0506(6) -0.6776(6) 0.3632(7)
O31 O 0.0695(2) -0.7102(3) 0.3694(2)
O32 O 0.1383(2) -0.3352(3) 0.46831(15)
O33 O 0.1968(3) -0.2311(4) 0.51991(16)
O34 O 0.4557(6) -0.4783(11) 0.5113(5)
O35 O 0.4055(5) -0.3577(5) 0.4709(5)
O36 O 0.5001(4) -0.2687(6) 0.5035(5)
O37 O 0.3777(2) -0.2662(5) -0.0094(2)
O38 O 0.4301(4) -0.4161(7) -0.0435(3)
O39 O 0.3975(4) -0.5893(5) 0.0775(5)
O40 O 0.4372(13) -0.6167(12) 0.1442(7)
O41 O 0.0142(10) -0.2595(12) 0.1181(9)
O42 O -0.0384(17) -0.380(2) 0.0095(13)
O43 O -0.0775(12) -0.4123(10) -0.0890(16)
O44? O 0.4227(5) -0.4984(7) 0.4662(3)
Co1C Co 0.18135(2) -0.03100(3) 0.156120(16)
Co2C Co 0.19767(2) -0.82772(3) 0.156740(16)
Co3B Co -0.14584(2) -0.35821(3) 0.165170(16)
Co4B Co -0.15822(2) -0.53343(3) 0.168300(16)
O5C O 0.32451(13) -0.63635(15) 0.37649(9)
O8B O 0.06620(11) -0.39210(15) 0.36201(9)
O9B O 0.07098(12) -0.52423(16) 0.35311(10)
O10C O 0.29169(15) -0.22500(16) 0.37990(9)
#END
