
#######################################################################
#
#                 Cambridge Crystallographic Data Centre
#                                CCDC
#
#######################################################################
#
# If this CIF has been generated from an entry in the Cambridge
# Structural Database, then it will include bibliographic, chemical,
# crystal, experimental, refinement or atomic coordinate data resulting
# from the CCDC's data processing and validation procedures.
#
#######################################################################

data_CSD_CIF_ECAVUA
_audit_creation_date 2006-05-29
_audit_creation_method CSD-ConQuest-V1
_database_code_CSD ECAVUA
_database_code_depnum_ccdc_archive 'CCDC 278774'
_chemical_formula_sum 'C30 H25 Cu2 Mo12 N6 O39 P1'
_chemical_formula_moiety
;
(C10 H9 N2 1+)n,n(C20 H16 Cu2 N4),n(Mo12 O39 P1 1-)
;
_journal_coden_Cambridge 29
_journal_volume 632
_journal_year 2006
_journal_page_first 330
_journal_name_full 'Z.Anorg.Allg.Chem. '
loop_
_publ_author_name
"Quan-Zheng Zhang"
"Can-Zhong Lu"
_chemical_name_systematic
;
catena-(Hydrogen 4,4'-bipyridine bis((\m~2~-4,4'-bipyridine)-copper(i)) 
(\m~10~-phosphato)-pentacosakis(\m~2~-oxo)-decaoxo-di-molybdenum(v)-deca-molyb
denum(vi))
;
_cell_volume   1339.744
_exptl_crystal_colour 'brown'
_exptl_crystal_density_diffrn 2.978
_exptl_crystal_description 'prism'
_diffrn_ambient_temperature 293
_refine_special_details
;
The phosphate ligand is equally disordered over two sites.

;
#These two values have been output from a single CSD field.
_refine_ls_R_factor_gt 0.0781
_refine_ls_wR_factor_gt 0.0781
_symmetry_cell_setting triclinic
_symmetry_space_group_name_H-M 'P -1'
_symmetry_Int_Tables_number 2
loop_
_symmetry_equiv_pos_site_id
_symmetry_equiv_pos_as_xyz
1 x,y,z
2 -x,-y,-z
_cell_length_a 10.7871(6)
_cell_length_b 10.9016(6)
_cell_length_c 12.7897(7)
_cell_angle_alpha 96.850(1)
_cell_angle_beta 110.085(1)
_cell_angle_gamma 103.580(1)
_cell_formula_units_Z 1
loop_
_atom_type_symbol
_atom_type_radius_bond
C 0.68
H 0.23
Cu 1.52
Mo 1.39
N 0.68
O 0.68
P 1.05
loop_
_atom_site_label
_atom_site_type_symbol
_atom_site_fract_x
_atom_site_fract_y
_atom_site_fract_z
Cu1 Cu -0.1179(3) -0.0326(2) 0.6847(3)
Mo1 Mo 0.61519(17) -0.27960(14) 1.02717(13)
Mo2 Mo 0.55760(17) -0.02690(16) 0.74188(13)
Mo3 Mo 0.67903(16) 0.28777(14) 1.21576(13)
Mo4 Mo 0.71465(17) 0.27236(14) 0.94892(14)
Mo5 Mo 0.76718(18) -0.00478(18) 1.25394(14)
Mo6 Mo 0.8245(2) 0.0022(2) 1.00056(17)
P1 P 0.50000 0.00000 1.00000
N1 N -0.1061(17) 0.1414(15) 0.6828(15)
N2 N -0.1299(17) -0.2126(14) 0.6741(14)
N3 N 0.5489(17) -0.2950(15) 1.3198(13)
C1 C -0.033(2) 0.2396(18) 0.7754(19)
H1 H 0.01660 0.21930 0.84300
C2 C -0.026(2) 0.367(2) 0.7766(19)
H2 H 0.02770 0.43050 0.84300
C3 C -0.1010(18) 0.4020(14) 0.6766(15)
C4 C -0.173(2) 0.3044(16) 0.5807(18)
H3 H -0.21980 0.32400 0.51210
C5 C -0.176(2) 0.1765(18) 0.5843(18)
H4 H -0.22640 0.11270 0.51800
C6 C -0.1059(19) 0.5380(16) 0.6769(17)
C7 C -0.124(2) 0.6095(17) 0.7650(18)
H5 H -0.12470 0.57540 0.82810
C8 C -0.140(2) -0.2695(16) 0.7599(19)
H6 H -0.15850 -0.22600 0.81720
C9 C -0.1144(19) -0.2802(16) 0.5881(16)
H7 H -0.11000 -0.24280 0.52730
C10 C -0.105(2) 0.5953(19) 0.5867(16)
H8 H -0.09700 0.54970 0.52410
C11 C 0.5085(16) -0.4551(15) 1.4587(15)
C12 C 0.518(2) -0.3278(19) 1.4878(19)
H9 H 0.50510 -0.29620 1.55270
C13 C 0.548(3) -0.247(2) 1.4189(16)
H10 H 0.56810 -0.15760 1.44260
C14 C 0.539(3) -0.4164(19) 1.290(2)
H11 H 0.54970 -0.44550 1.22300
C15 C 0.514(2) -0.503(2) 1.3570(17)
H12 H 0.50130 -0.59060 1.33280
O1 O 0.624(2) -0.057(2) 1.0529(19)
O2? O 0.568(2) 0.060(2) 1.1276(19)
O3? O 0.550(2) 0.140(2) 1.0249(18)
O4 O 0.603(3) 0.051(2) 0.944(2)
O5 O 0.867(2) 0.0202(16) 1.1602(14)
O6 O 0.8134(17) 0.4059(16) 0.9328(13)
O7 O 1.00000 0.00000 1.00000
O8 O 0.643(2) 0.1665(15) 0.8112(14)
O9 O 0.7236(18) -0.0421(15) 0.8391(14)
O10 O 0.7779(18) 0.1761(17) 1.275(2)
O11 O 0.748(2) -0.1868(18) 0.9932(15)
O12 O 0.8453(18) 0.1747(15) 1.0045(13)
O13 O 0.7574(14) 0.4205(15) 1.3203(12)
O14 O 0.692(2) -0.1824(19) 1.1824(17)
O15 O 0.5792(17) -0.0314(12) 0.6198(12)
O16 O 0.6121(16) -0.0239(16) 1.2992(19)
O17 O 0.4560(16) -0.1935(15) 0.7254(18)
O18 O 0.4459(15) -0.3210(17) 1.0713(12)
O19 O 0.8871(14) -0.0059(13) 1.3771(11)
O20 O 0.7576(15) 0.3208(17) 1.1147(11)
O21 O 0.4813(15) -0.3306(14) 0.8763(11)
O22 O 0.6603(19) -0.4135(17) 1.0477(13)
Cu1* Cu -0.1179(3) 0.9674(2) 0.6847(3)
Cu1** Cu -0.1179(3) -1.0326(2) 0.6847(3)
Mo1A Mo 0.38481(17) 0.27960(14) 0.97283(13)
Mo2A Mo 0.44240(17) 0.02690(16) 1.25812(13)
Mo3A Mo 0.32097(16) -0.28777(14) 0.78424(13)
Mo4A Mo 0.28535(17) -0.27236(14) 1.05108(14)
Mo5A Mo 0.23282(18) 0.00478(18) 0.74606(14)
Mo6A Mo 0.1755(2) -0.0022(2) 0.99944(17)
Mo6A* Mo 1.1755(2) -0.0022(2) 0.99944(17)
N1* N -0.1061(17) 1.1414(15) 0.6828(15)
N1** N -0.1061(17) -0.8586(15) 0.6828(15)
N2* N -0.1299(17) 0.7874(14) 0.6741(14)
N3A N 0.4511(17) -0.7050(15) 1.6802(13)
C1* C -0.033(2) -0.7604(18) 0.7754(19)
H1* H 0.01660 -0.78070 0.84300
C2* C -0.026(2) -0.633(2) 0.7766(19)
H2* H 0.02770 -0.56950 0.84300
C3* C -0.1010(18) -0.5980(14) 0.6766(15)
C4* C -0.173(2) -0.6956(16) 0.5807(18)
H3* H -0.21980 -0.67600 0.51210
C5* C -0.176(2) -0.8235(18) 0.5843(18)
H4* H -0.22640 -0.88730 0.51800
C6* C -0.1059(19) -0.4620(16) 0.6769(17)
C7* C -0.124(2) -0.3905(17) 0.7650(18)
H5* H -0.12470 -0.42460 0.82810
C8* C -0.140(2) 0.7305(16) 0.7599(19)
H6* H -0.15850 0.77400 0.81720
C9* C -0.1144(19) 0.7198(16) 0.5881(16)
H7* H -0.11000 0.75720 0.52730
C10* C -0.105(2) -0.4047(19) 0.5867(16)
H8* H -0.09700 -0.45030 0.52410
C11A C 0.4915(16) -0.5449(15) 1.5413(15)
C12A C 0.482(2) -0.6722(19) 1.5122(19)
H9A H 0.49490 -0.70380 1.44730
C13A C 0.452(3) -0.753(2) 1.5811(16)
H10A H 0.43190 -0.84240 1.55740
C14A C 0.461(3) -0.5836(19) 1.710(2)
H11A H 0.45030 -0.55450 1.77700
C15A C 0.486(2) -0.497(2) 1.6430(17)
H12A H 0.49870 -0.40940 1.66720
O1A O 0.376(2) 0.057(2) 0.9471(19)
O4A O 0.397(3) -0.051(2) 1.056(2)
O5A O 0.133(2) -0.0202(16) 0.8398(14)
O6A O 0.1866(17) -0.4059(16) 1.0672(13)
O7* O 0.00000 0.00000 1.00000
O8A O 0.357(2) -0.1665(15) 1.1888(14)
O9A O 0.2764(18) 0.0421(15) 1.1609(14)
O10A O 0.2221(18) -0.1761(17) 0.725(2)
O11A O 0.252(2) 0.1868(18) 1.0068(15)
O12A O 0.1547(18) -0.1747(15) 0.9955(13)
O13A O 0.2426(14) -0.4205(15) 0.6797(12)
O14A O 0.308(2) 0.1824(19) 0.8176(17)
O15A O 0.4208(17) 0.0314(12) 1.3802(12)
O16A O 0.3879(16) 0.0239(16) 0.7008(19)
O17A O 0.5440(16) 0.1935(15) 1.2746(18)
O18A O 0.5541(15) 0.3210(17) 0.9287(12)
O19A O 0.1129(14) 0.0059(13) 0.6229(11)
O20A O 0.2424(15) -0.3208(17) 0.8853(11)
O21A O 0.5187(15) 0.3306(14) 1.1237(11)
O22A O 0.3397(19) 0.4135(17) 0.9523(13)
#END
