
#######################################################################
#
#                 Cambridge Crystallographic Data Centre
#                                CCDC
#
#######################################################################
#
# If this CIF has been generated from an entry in the Cambridge
# Structural Database, then it will include bibliographic, chemical,
# crystal, experimental, refinement or atomic coordinate data resulting
# from the CCDC's data processing and validation procedures.
#
#######################################################################

data_CSD_CIF_ECEFIC
_audit_creation_date 2006-05-29
_audit_creation_method CSD-ConQuest-V1
_database_code_CSD ECEFIC
_database_code_depnum_ccdc_archive 'CCDC 285623'
_chemical_formula_sum 'C20 H46 B1 Cu3 K1 N4 O54 W12'
_chemical_formula_moiety
;
(K1 1+)n,2n(H1 1+),n(C20 H34 B1 Cu3 N4 O49 W12 3-),5n(H2 O1)
;
_journal_coden_Cambridge 179
_journal_volume 45
_journal_year 2006
_journal_page_first 904
_journal_name_full 'Angew.Chem.,Int.Ed. '
loop_
_publ_author_name
"Hai-Yan An"
"En-Bo Wang"
"Dong-Rong Xiao"
"Yang-Guang Li"
"Zhong-Min Su"
"Lin Xu"
_chemical_name_systematic
;
catena-(Potassium dihydrogen 
(\m~12~-borato)-tetrakis(\m~2~-D-prolyl)-hexacosakis(\m~2~-oxo)-decaoxo-aqua-t
ri-copper(ii)-dodeca-tungsten pentahydrate)
;
_cell_volume  15021.430
_exptl_crystal_colour 'blue'
_exptl_crystal_density_diffrn 3.231
_exptl_special_details
;
Absolute configuration

;
_exptl_crystal_description 'block'
_diffrn_ambient_temperature 150
_refine_special_details
;
One proline group is disordered over two sites.

;
#These two values have been output from a single CSD field.
_refine_ls_R_factor_gt 0.0288
_refine_ls_wR_factor_gt 0.0288
loop_
_citation_database_id_CSD
_citation_special_details
EDADAP "is a stereoisomer of this entry"
_symmetry_cell_setting tetragonal
_symmetry_space_group_name_H-M 'P 43 21 2'
_symmetry_Int_Tables_number 96
loop_
_symmetry_equiv_pos_site_id
_symmetry_equiv_pos_as_xyz
1 x,y,z
2 -x,-y,1/2+z
3 1/2-y,1/2+x,3/4+z
4 1/2+y,1/2-x,1/4+z
5 1/2-x,1/2+y,3/4-z
6 1/2+x,1/2-y,1/4-z
7 y,x,-z
8 -y,-x,1/2-z
_cell_length_a 23.944(3)
_cell_length_b 23.944(3)
_cell_length_c 26.201(5)
_cell_angle_alpha 90
_cell_angle_beta 90
_cell_angle_gamma 90
_cell_formula_units_Z 8
loop_
_atom_type_symbol
_atom_type_radius_bond
C 0.68
H 0.23
B 0.83
Cu 1.52
K 1.33
N 0.68
O 0.68
W 1.37
loop_
_atom_site_label
_atom_site_type_symbol
_atom_site_fract_x
_atom_site_fract_y
_atom_site_fract_z
B1 B -0.2420(6) 0.2052(6) 0.5022(5)
W1 W -0.35475(2) 0.15166(2) 0.56934(2)
W2 W -0.38142(2) 0.23842(2) 0.47258(2)
W3 W -0.26632(3) 0.29161(2) 0.39540(2)
W4 W -0.15829(2) 0.30824(2) 0.55789(2)
W5 W -0.28657(2) 0.34235(2) 0.52557(2)
W6 W -0.26425(3) 0.25870(3) 0.62509(2)
W7 W -0.10790(2) 0.16652(2) 0.53245(2)
W8 W -0.21122(3) 0.11775(3) 0.60359(2)
W9 W -0.33526(2) 0.11128(2) 0.44987(2)
W10 W -0.19266(2) 0.07108(2) 0.48539(2)
W11 W -0.13584(2) 0.26162(2) 0.42660(2)
W12 W -0.21722(2) 0.16381(3) 0.37672(2)
K1 K -0.50696(18) 0.05112(17) 0.40508(13)
Cu1 Cu -0.65836(7) -0.00564(7) 0.39080(6)
Cu2 Cu -0.49840(7) -0.03033(7) 0.28140(6)
Cu3 Cu -0.37399(7) -0.04716(7) 0.42219(6)
O1 O -0.3021(3) 0.1848(3) 0.4987(3)
O2 O -0.2046(3) 0.1617(4) 0.5213(3)
O3 O -0.2382(3) 0.2573(3) 0.5363(3)
O4 O -0.2231(3) 0.2242(3) 0.4467(3)
O5 O -0.2708(4) 0.0712(3) 0.4753(3)
O6 O -0.2233(4) 0.1897(4) 0.6287(3)
O7 O -0.3343(4) 0.2619(4) 0.4174(3)
O8 O -0.2542(4) 0.2302(4) 0.3519(3)
O9 O -0.3248(4) 0.2146(4) 0.6049(3)
O10 O -0.1428(3) 0.3048(3) 0.4869(3)
O11 O -0.3890(3) 0.1676(4) 0.4392(3)
O12 O -0.1056(4) 0.2035(4) 0.4683(3)
O13 O -0.4051(4) 0.2021(4) 0.5341(3)
O14 O -0.1864(4) 0.1111(4) 0.4204(3)
O15 O -0.1170(3) 0.0962(3) 0.4999(3)
O16 O -0.1942(3) 0.2952(4) 0.6208(3)
O17 O -0.2022(3) 0.0572(4) 0.5568(3)
O18 O -0.2890(4) 0.1397(4) 0.3988(3)
O19 O -0.3674(4) 0.0993(4) 0.5163(3)
O20 O -0.1243(4) 0.2369(4) 0.5615(3)
O21 O -0.2664(4) 0.3365(4) 0.4568(3)
O22 O -0.2973(4) 0.3242(4) 0.5968(3)
O23 O -0.2127(4) 0.3648(4) 0.5432(3)
O24 O -0.1501(4) 0.2047(4) 0.3761(3)
O25 O -0.1875(4) 0.3083(4) 0.3917(3)
O26 O -0.2902(4) 0.1128(4) 0.5889(3)
O27 O -0.3506(4) 0.2971(4) 0.5114(3)
O28 O -0.0370(4) 0.1642(4) 0.5452(4)
O29 O -0.3674(4) 0.0594(3) 0.4169(3)
O30 O -0.6523(4) -0.1045(4) 0.4220(3)
O31 O -0.2091(5) 0.0793(5) 0.6566(4)
O32 O -0.4018(4) 0.1272(4) 0.6133(4)
O33 O -0.3167(4) 0.4069(4) 0.5269(4)
O34 O -0.1776(4) 0.0049(4) 0.4649(4)
O35 O -0.2106(4) 0.1292(4) 0.3204(4)
O36 O -0.2811(4) 0.2703(4) 0.6877(4)
O37 O -0.1350(4) 0.1320(4) 0.5949(3)
O38 O -0.0747(4) 0.2863(4) 0.4027(3)
O39 O -0.4428(4) 0.2672(4) 0.4555(4)
O40 O -0.2874(4) 0.3400(4) 0.3520(3)
O41 O -0.6091(4) 0.0063(4) 0.4502(4)
O42 O -0.5957(4) -0.0201(4) 0.3442(4)
O43 O -0.5759(4) -0.0226(4) 0.2614(4)
O44 O -0.6107(4) 0.0092(4) 0.5343(4)
O45 O -0.4525(4) -0.0110(4) 0.5515(3)
O46 O -0.4211(4) -0.0417(4) 0.2775(4)
O47 O -0.4221(4) -0.0405(4) 0.3616(3)
O48 O -0.4339(4) -0.0221(4) 0.4690(3)
N1 N -0.7053(5) -0.0145(5) 0.3290(4)
H1 H -0.71980 0.02060 0.32180
N2 N -0.7173(5) 0.0149(5) 0.4397(4)
H2 H -0.74630 -0.01050 0.43560
N3 N -0.3120(4) -0.0653(4) 0.3720(4)
H3 H -0.30090 -0.10210 0.37680
N4 N -0.3254(4) -0.0450(4) 0.4849(4)
H4 H -0.30200 -0.01420 0.48210
C1 C -0.6094(6) -0.0224(6) 0.2960(6)
C2 C -0.6671(6) -0.0297(6) 0.2839(5)
H5 H -0.67710 -0.00660 0.25340
C3 C -0.6819(8) -0.0916(8) 0.2740(7)
H6 H -0.66150 -0.11650 0.29770
H7 H -0.67310 -0.10250 0.23850
C4 C -0.7488(7) -0.0938(7) 0.2845(6)
H8 H -0.76990 -0.08020 0.25450
H9 H -0.76110 -0.13220 0.29280
C5 C -0.7561(7) -0.0558(7) 0.3291(6)
H10 H -0.75690 -0.07760 0.36120
H11 H -0.79160 -0.03490 0.32610
C6 C -0.6341(6) 0.0085(5) 0.4928(6)
C7 C -0.6981(6) 0.0104(6) 0.4912(5)
H12 H -0.71400 -0.02390 0.50760
C8 C -0.7160(9) 0.0627(8) 0.5210(7)
H13 H -0.75310 0.05790 0.53710
H14 H -0.68820 0.07290 0.54740
H15? H -0.73470 0.05190 0.55320
H16? H -0.68320 0.08620 0.52930
C9 C -0.7416(9) 0.0726(8) 0.4328(7)
H17 H -0.78290 0.07180 0.43390
H18 H -0.72950 0.08940 0.40000
H19? H -0.77560 0.07170 0.41140
H20? H -0.71380 0.09750 0.41640
C10 C -0.718(3) 0.1049(14) 0.4783(11)
H21 H -0.67970 0.11900 0.47060
H22? H -0.74190 0.13690 0.48730
C11? C -0.7550(13) 0.0936(13) 0.4869(8)
H23 H -0.74880 0.13440 0.48950
H24? H -0.79430 0.08540 0.49590
C12 C -0.3969(6) -0.0458(5) 0.3201(5)
C13 C -0.3336(6) -0.0588(5) 0.3205(5)
H25 H -0.32710 -0.09440 0.30140
C14 C -0.2966(7) -0.0120(7) 0.2962(6)
H26 H -0.28970 -0.01950 0.25960
H27 H -0.31450 0.02510 0.29980
C15 C -0.2500(7) -0.0145(8) 0.3225(6)
H28 H -0.23070 0.02200 0.32130
H29 H -0.22500 -0.04310 0.30770
C16 C -0.2636(6) -0.0292(6) 0.3762(5)
H30 H -0.23210 -0.04900 0.39260
H31 H -0.27250 0.00470 0.39630
C17 C -0.4201(6) -0.0218(6) 0.5150(6)
C18 C -0.3619(6) -0.0362(6) 0.5296(5)
H32 H -0.34610 -0.00560 0.55110
C19 C -0.3578(6) -0.0929(6) 0.5594(6)
H33 H -0.36630 -0.08770 0.59610
H34 H -0.38350 -0.12120 0.54500
C20 C -0.2974(8) -0.1096(8) 0.5516(7)
H35 H -0.29160 -0.14980 0.55850
H36 H -0.27210 -0.08740 0.57340
C21 C -0.2890(7) -0.0959(6) 0.4944(6)
H37 H -0.24930 -0.08750 0.48710
H38 H -0.30100 -0.12760 0.47280
O49 O -0.4096(5) -0.1362(4) 0.4389(4)
O50 O -0.5131(4) 0.1676(5) 0.4014(4)
O51 O -0.5326(15) -0.1058(16) 0.4162(13)
O52? O -0.5248(11) -0.1348(12) 0.3991(10)
O53 O -0.7481(9) 0.0225(9) 0.6532(8)
O54 O -0.0453(13) 0.1245(13) 0.3950(11)
O55 O 0.0171(13) 0.0099(13) 0.6159(12)
O56 O -0.3586(15) 0.3977(14) 0.6555(12)
O57 O -0.0083(16) -0.0391(17) 0.5500(15)
O58 O -0.1029(13) 0.2305(14) 0.2790(11)
O59 O -0.055(3) 0.097(3) 0.280(2)
W4F W -0.69176(2) -0.15829(2) 0.44211(2)
Cu2C Cu -0.53033(7) -0.00160(7) 0.53140(6)
O30F O -0.1045(4) 0.3477(4) 0.5780(3)
O44B O -0.5092(4) -0.1107(4) 0.2843(4)
O45B O -0.4890(4) 0.0475(4) 0.3015(3)
#END
