
#######################################################################
#
#                 Cambridge Crystallographic Data Centre
#                                CCDC
#
#######################################################################
#
# If this CIF has been generated from an entry in the Cambridge
# Structural Database, then it will include bibliographic, chemical,
# crystal, experimental, refinement or atomic coordinate data resulting
# from the CCDC's data processing and validation procedures.
#
#######################################################################

data_CSD_CIF_ECEPEH
_audit_creation_date 2002-01-23
_audit_creation_method CSD-ConQuest-V1
_database_code_CSD ECEPEH
_database_code_depnum_ccdc_archive 'CCDC 167197'
_database_code_depnum_ccdc_journal 1003/5914
_chemical_formula_sum 'C56 H92 Co5 N8 Na6 O66'
_chemical_formula_moiety
;
(C14 H6 Co1 N2 O8 2-)2n,n(H12 Co1 O6 2+),n(C28 H24 Co2 N4 Na2 O22 2-),n(H36 
Na4 O18 4+),4n(H2 O1)
;
_journal_coden_Cambridge 1003
_journal_volume 30
_journal_year 2000
_journal_page_first 509
_journal_name_full 'J.Chem.Cryst. '
loop_
_publ_author_name
"L.C.Nathan"
"T.D.Mai"
_chemical_name_systematic
;
catena-(bis(bis(Pyridine-2,6-dicarboxylato-N,O,O')-cobalt(ii)) 
hexa-aqua-cobalt 
bis(bis(\m~2~-pyridine-2,6-dicarboxylato-N,O,O',O'')-cobalt(ii)-tri-aqua-sodiu
m) hexakis(\m~2~-aqua)-dodeca-aqua-tetra-sodium tetrahydrate)
;
_cell_volume   4586.450
_exptl_crystal_colour 'violet'
_exptl_crystal_density_diffrn 1.713
_exptl_crystal_description 'parallelepiped'
_exptl_crystal_preparation 'acetone/water'
_diffrn_ambient_temperature 183
#These two values have been output from a single CSD field.
_refine_ls_R_factor_gt 0.0408
_refine_ls_wR_factor_gt 0.0408
_symmetry_cell_setting monoclinic
_symmetry_space_group_name_H-M 'P 21/n'
_symmetry_Int_Tables_number 14
loop_
_symmetry_equiv_pos_site_id
_symmetry_equiv_pos_as_xyz
1 x,y,z
2 1/2+x,1/2-y,1/2+z
3 -x,-y,-z
4 -1/2-x,-1/2+y,-1/2-z
_cell_length_a 13.3629(11)
_cell_length_b 8.4374(11)
_cell_length_c 40.689(3)
_cell_angle_alpha 90
_cell_angle_beta 91.288(5)
_cell_angle_gamma 90
_cell_formula_units_Z 2
loop_
_atom_type_symbol
_atom_type_radius_bond
C 0.68
H 0.23
Co 1.33
N 0.68
Na 1.93
O 0.68
loop_
_atom_site_label
_atom_site_type_symbol
_atom_site_fract_x
_atom_site_fract_y
_atom_site_fract_z
Co1 Co 0.97374(3) 0.49198(5) 0.114188(9)
N1 N 1.1217(2) 0.5179(3) 0.10598(6)
N2 N 0.8315(2) 0.4375(3) 0.12616(6)
O1 O 1.02037(14) 0.6786(2) 0.14764(5)
O2 O 1.1577(2) 0.7851(3) 0.17109(5)
O3 O 0.9967(2) 0.3530(3) 0.07161(5)
O4 O 1.1120(2) 0.2684(3) 0.03693(6)
O5 O 0.88297(14) 0.6335(3) 0.08106(5)
O6 O 0.7265(2) 0.6631(3) 0.06167(5)
O7 O 0.99087(15) 0.3287(3) 0.15594(5)
O8 O 0.9027(2) 0.1750(3) 0.18939(6)
C1 C 1.1148(2) 0.6975(3) 0.15067(7)
C2 C 1.1772(2) 0.6061(3) 0.12661(7)
C3 C 1.2804(2) 0.6097(4) 0.12416(8)
H1 H 1.3204(2) 0.6694(4) 0.13926(8)
C4 C 1.3239(2) 0.5240(4) 0.09913(8)
H2 H 1.3946(2) 0.5242(4) 0.09707(8)
C5 C 1.2649(2) 0.4382(4) 0.07719(8)
H3 H 1.2937(2) 0.3820(4) 0.05952(8)
C6 C 1.1627(2) 0.4367(3) 0.08170(7)
C7 C 1.0857(2) 0.3444(4) 0.06118(7)
C8 C 0.7896(2) 0.6080(3) 0.08124(7)
C9 C 0.7556(2) 0.5009(3) 0.10870(7)
C10 C 0.6572(2) 0.4692(4) 0.11666(8)
H4 H 0.6033(2) 0.5115(4) 0.10382(8)
C11 C 0.6391(2) 0.3747(4) 0.14366(8)
H5 H 0.5723(2) 0.3547(4) 0.14997(8)
C12 C 0.7184(2) 0.3088(4) 0.16159(7)
H6 H 0.7070(2) 0.2436(4) 0.18017(7)
C13 C 0.8148(2) 0.3413(3) 0.15152(7)
C14 C 0.9097(2) 0.2750(4) 0.16723(7)
Co2 Co 0.47084(3) 0.00617(4) 0.110414(9)
N3 N 0.6193(2) -0.0361(3) 0.11669(6)
N4 N 0.3206(2) 0.0381(3) 0.10767(6)
O9 O 0.47778(15) -0.1714(3) 0.14878(5)
O10 O 0.5842(2) -0.3078(3) 0.18079(5)
O11 O 0.53976(15) 0.1579(3) 0.07466(5)
O12 O 0.6868(2) 0.2016(3) 0.05069(5)
O13 O 0.42256(15) -0.1453(3) 0.06995(5)
O14 O 0.2885(2) -0.1977(3) 0.03776(5)
O15 O 0.44214(14) 0.1741(3) 0.14880(5)
O16 O 0.3188(2) 0.2986(3) 0.17481(5)
C15 C 0.5643(2) -0.2110(3) 0.15852(7)
C16 C 0.6503(2) -0.1344(3) 0.14059(7)
C17 C 0.7518(2) -0.1591(4) 0.14663(7)
H7 H 0.7740(2) -0.2271(4) 0.16393(7)
C18 C 0.8201(2) -0.0829(4) 0.12695(7)
H8 H 0.8899(2) -0.0979(4) 0.13077(7)
C19 C 0.7865(2) 0.0154(3) 0.10162(8)
H9 H 0.8323(2) 0.0666(3) 0.08758(8)
C20 C 0.6844(2) 0.0364(3) 0.09747(7)
C21 C 0.6339(2) 0.1408(4) 0.07198(7)
C22 C 0.3305(2) -0.1357(3) 0.06185(7)
C23 C 0.2668(2) -0.0408(3) 0.08525(7)
C24 C 0.1636(2) -0.0382(4) 0.08484(8)
H10 H 0.1257(2) -0.0937(4) 0.06851(8)
C25 C 0.1170(2) 0.0484(4) 0.10912(7)
H11 H 0.0460(2) 0.0510(4) 0.10979(7)
C26 C 0.1735(2) 0.1311(3) 0.13240(7)
H12 H 0.1422(2) 0.1914(3) 0.14899(7)
C27 C 0.2769(2) 0.1235(3) 0.13082(7)
C28 C 0.3502(2) 0.2066(3) 0.15368(7)
Na1 Na 0.79713(9) 0.11344(15) 0.00987(3)
O17 O 0.7383(2) -0.1580(3) 0.00346(5)
H13 H 0.7841(2) -0.1942(3) -0.00858(5)
H14 H 0.7405(2) -0.1932(3) 0.02304(5)
O18 O 0.9424(2) 0.0403(3) 0.03453(6)
H15 H 0.9917(2) 0.1039(3) 0.03618(6)
H16 H 0.9735(2) -0.0466(3) 0.03213(6)
O19 O 0.8706(2) 0.3762(3) 0.01601(5)
H17 H 0.8238(2) 0.4437(3) 0.01770(5)
H18 H 0.9024(2) 0.3820(3) 0.03430(5)
Co3 Co 0.50000 0.50000 0.00000
O20 O 0.52901(15) 0.6046(3) 0.04646(5)
H19 H 0.59074(15) 0.6200(3) 0.05085(5)
H20 H 0.49983(15) 0.6853(3) 0.05426(5)
O21 O 0.64494(15) 0.4169(2) 0.00386(5)
H21 H 0.65635(15) 0.3478(2) -0.01078(5)
H22 H 0.65108(15) 0.3543(2) 0.02015(5)
O22 O 0.4418(2) 0.3009(3) 0.02312(5)
H23 H 0.4681(2) 0.2605(3) 0.04040(5)
H24 H 0.3977(2) 0.2461(3) 0.01290(5)
Na2 Na 0.4849(1) 0.31608(15) 0.24975(3)
Na3 Na 0.36234(9) 0.70617(14) 0.24825(3)
O23 O 0.4333(2) 0.5138(2) 0.21091(5)
H25 H 0.4692(2) 0.5753(2) 0.19955(5)
H26 H 0.4041(2) 0.4444(2) 0.19899(5)
O24 O 0.4272(2) 0.5101(2) 0.28783(5)
H27 H 0.4751(2) 0.5635(2) 0.29639(5)
H28 H 0.4078(2) 0.4504(2) 0.30325(5)
O25 O 0.5509(2) 0.1204(3) 0.28873(5)
H29 H 0.5334(2) 0.1427(3) 0.30814(5)
H30 H 0.6126(2) 0.1438(3) 0.28768(5)
O26 O 0.5484(2) 0.1381(3) 0.20978(5)
H31 H 0.5462(2) 0.0422(3) 0.21615(5)
H32 H 0.5240(2) 0.1587(3) 0.19078(5)
O27 O 0.3189(2) 0.1484(3) 0.24949(5)
H33 H 0.3341(2) 0.1052(3) 0.23140(5)
H34 H 0.3320(2) 0.0889(3) 0.26589(5)
O28 O 0.6607(2) 0.4497(3) 0.26394(6)
H35 H 0.6987(2) 0.3744(3) 0.27026(6)
H36 H 0.6590(2) 0.5050(3) 0.28139(6)
O29 O 0.3344(2) 0.8841(3) 0.20167(5)
H37 H 0.2804(2) 0.8442(3) 0.19396(5)
H38 H 0.3785(2) 0.8651(3) 0.18744(5)
O30 O 0.5259(2) 0.8480(3) 0.24696(6)
H39 H 0.5215(2) 0.9083(3) 0.26361(6)
H40 H 0.5681(2) 0.7771(3) 0.24195(6)
O31 O 0.3513(2) 0.8928(3) 0.29438(5)
H41 H 0.4015(2) 0.8852(3) 0.30749(5)
H42 H 0.3039(2) 0.8466(3) 0.30412(5)
O32 O -0.0223(2) 0.2597(3) -0.03717(6)
H43 H -0.0343(2) 0.3161(3) -0.02041(6)
H44 H 0.0207(2) 0.3107(3) -0.04803(6)
O33 O 0.7442(2) -0.3390(3) 0.22163(6)
H45 H 0.7179(2) -0.3954(3) 0.23643(6)
H46 H 0.6998(2) -0.3363(3) 0.20637(6)
O20B O 0.47099(15) 0.3954(3) -0.04646(5)
H19B H 0.40926(15) 0.3800(3) -0.05085(5)
H20B H 0.50017(15) 0.3147(3) -0.05426(5)
O21B O 0.35506(15) 0.5831(2) -0.00386(5)
H21B H 0.34365(15) 0.6522(2) 0.01078(5)
H22B H 0.34892(15) 0.6457(2) -0.02015(5)
O22B O 0.5582(2) 0.6991(3) -0.02312(5)
H23B H 0.5319(2) 0.7395(3) -0.04040(5)
H24B H 0.6023(2) 0.7539(3) -0.01290(5)
Na1B Na 0.20287(9) -0.11344(15) -0.00987(3)
N4B N 0.6794(2) -0.0381(3) -0.10767(6)
O13B O 0.57744(15) 0.1453(3) -0.06995(5)
O14B O 0.7115(2) 0.1977(3) -0.03776(5)
O15B O 0.55786(14) -0.1741(3) -0.14880(5)
O16B O 0.6812(2) -0.2986(3) -0.17481(5)
C22B C 0.6695(2) 0.1357(3) -0.06185(7)
C23B C 0.7332(2) 0.0408(3) -0.08525(7)
C24B C 0.8364(2) 0.0382(4) -0.08484(8)
H10B H 0.8743(2) 0.0937(4) -0.06851(8)
C25B C 0.8830(2) -0.0484(4) -0.10912(7)
H11B H 0.9540(2) -0.0510(4) -0.10979(7)
C26B C 0.8265(2) -0.1311(3) -0.13240(7)
H12B H 0.8578(2) -0.1914(3) -0.14899(7)
C27B C 0.7231(2) -0.1235(3) -0.13082(7)
C28B C 0.6498(2) -0.2066(3) -0.15368(7)
N3B N 0.3807(2) 0.0361(3) -0.11669(6)
O9B O 0.52222(15) 0.1714(3) -0.14878(5)
O10B O 0.4158(2) 0.3078(3) -0.18079(5)
O11B O 0.46024(15) -0.1579(3) -0.07466(5)
O12B O 0.3132(2) -0.2016(3) -0.05069(5)
C15B C 0.4357(2) 0.2110(3) -0.15852(7)
C16B C 0.3497(2) 0.1344(3) -0.14059(7)
C17B C 0.2482(2) 0.1591(4) -0.14663(7)
H7B H 0.2260(2) 0.2271(4) -0.16393(7)
C18B C 0.1799(2) 0.0829(4) -0.12695(7)
H8B H 0.1101(2) 0.0979(4) -0.13077(7)
C19B C 0.2135(2) -0.0154(3) -0.10162(8)
H9B H 0.1677(2) -0.0666(3) -0.08758(8)
C20B C 0.3156(2) -0.0364(3) -0.09747(7)
C21B C 0.3661(2) -0.1408(4) -0.07198(7)
O17B O 0.2617(2) 0.1580(3) -0.00346(5)
H13B H 0.2159(2) 0.1942(3) 0.00858(5)
H14B H 0.2595(2) 0.1932(3) -0.02304(5)
O18B O 0.0576(2) -0.0403(3) -0.03453(6)
H15B H 0.0083(2) -0.1039(3) -0.03618(6)
H16B H 0.0265(2) 0.0466(3) -0.03213(6)
O19B O 0.1294(2) -0.3762(3) -0.01601(5)
H17B H 0.1762(2) -0.4437(3) -0.01770(5)
H18B H 0.0976(2) -0.3820(3) -0.03430(5)
Co2B Co 0.52916(3) -0.00617(4) -0.110414(9)
Na3C Na 0.13766(9) 0.20617(14) 0.25175(3)
O27C O 0.1811(2) 0.6484(3) 0.25051(5)
H33C H 0.1659(2) 0.6052(3) 0.26860(5)
H34C H 0.1680(2) 0.5889(3) 0.23411(5)
Na2C Na 0.0151(1) 0.81608(15) 0.25025(3)
Na2C* Na 0.0151(1) -0.18392(15) 0.25025(3)
O23C O 0.0667(2) 0.0138(2) 0.28909(5)
O24C O 0.0728(2) 0.0101(2) 0.21217(5)
O29C O 0.1656(2) 0.3841(3) 0.29833(5)
O30C O -0.0259(2) 0.3480(3) 0.25304(6)
O31C O 0.1487(2) 0.3928(3) 0.20562(5)
Na3C* Na 0.13766(9) 1.20617(14) 0.25175(3)
O23C* O 0.0667(2) 1.0138(2) 0.28909(5)
H26C H 0.0959(2) 0.9444(2) 0.30101(5)
O24C* O 0.0728(2) 1.0101(2) 0.21217(5)
O25C O -0.0509(2) 0.6204(3) 0.21127(5)
O26C O -0.0484(2) 0.6381(3) 0.29022(5)
O28C O -0.1607(2) 0.9497(3) 0.23606(6)
H26C* H 0.0959(2) -0.0556(2) 0.30101(5)
H25C H 0.0308(2) 0.0753(2) 0.30045(5)
H27C H 0.0249(2) 0.0635(2) 0.20361(5)
H28C H 0.0922(2) -0.0496(2) 0.19675(5)
H37C H 0.2196(2) 0.3442(3) 0.30604(5)
H38C H 0.1215(2) 0.3651(3) 0.31256(5)
H39C H -0.0215(2) 0.4083(3) 0.23639(6)
H40C H -0.0681(2) 0.2771(3) 0.25805(6)
H41C H 0.0985(2) 0.3852(3) 0.19251(5)
H42C H 0.1961(2) 0.3466(3) 0.19588(5)
H25C* H 0.0308(2) 1.0753(2) 0.30045(5)
H27C* H 0.0249(2) 1.0635(2) 0.20361(5)
H28C* H 0.0922(2) 0.9504(2) 0.19675(5)
H29C H -0.0334(2) 0.6427(3) 0.19186(5)
H30C H -0.1126(2) 0.6438(3) 0.21232(5)
H31C H -0.0462(2) 0.5422(3) 0.28385(5)
H32C H -0.0240(2) 0.6587(3) 0.30922(5)
H35C H -0.1987(2) 0.8744(3) 0.22974(6)
H36C H -0.1590(2) 1.0050(3) 0.21861(6)
#END
