
#######################################################################
#
#                 Cambridge Crystallographic Data Centre
#                                CCDC
#
#######################################################################
#
# If this CIF has been generated from an entry in the Cambridge
# Structural Database, then it will include bibliographic, chemical,
# crystal, experimental, refinement or atomic coordinate data resulting
# from the CCDC's data processing and validation procedures.
#
#######################################################################

data_CSD_CIF_ECEZOB
_audit_creation_date 2002-01-23
_audit_creation_method CSD-ConQuest-V1
_database_code_CSD ECEZOB
_chemical_formula_sum 'C4 H9 Na1 O11 U2'
_chemical_formula_moiety
;
(Na1 1+)n,n(C4 H9 O11 U2 1-)
;
_journal_coden_Cambridge 233
_journal_volume 46
_journal_year 2001
_journal_page_first 629
_journal_name_full 'Zh.Neorg.Khim.(Russ.)(Russ.J.Inorg.Chem.) '
loop_
_publ_author_name
"N.Yu.Anisimova"
"Yu.E.Gorbunova"
"Yu.N.Mikhailov"
"N.A.Chumaevskii"
_chemical_name_systematic
;
catena-(Sodium bis((\m~2~-hydroxo)-(\m~2~-acetato)-hydroxy-dioxo-uranium))
;
_cell_volume   1404.493
_exptl_crystal_colour 'light yellow'
_exptl_crystal_density_diffrn 3.46
_diffrn_ambient_temperature ?
_diffrn_special_details
;
The study was carried out at room temperature,in the range 283-303K

;
#These two values have been output from a single CSD field.
_refine_ls_R_factor_gt 0.034
_refine_ls_wR_factor_gt 0.034
_symmetry_cell_setting orthorhombic
_symmetry_space_group_name_H-M 'P n c 2'
_symmetry_Int_Tables_number 30
loop_
_symmetry_equiv_pos_site_id
_symmetry_equiv_pos_as_xyz
1 x,y,z
2 -x,-y,z
3 -x,1/2+y,1/2+z
4 x,1/2-y,1/2+z
_cell_length_a 7.166(2)
_cell_length_b 11.983(3)
_cell_length_c 16.356(3)
_cell_angle_alpha 90
_cell_angle_beta 90
_cell_angle_gamma 90
_cell_formula_units_Z 4
loop_
_atom_type_symbol
_atom_type_radius_bond
C 0.68
H 0.23
Na 0.97
O 0.69
U 1.44
loop_
_atom_site_label
_atom_site_type_symbol
_atom_site_fract_x
_atom_site_fract_y
_atom_site_fract_z
U1 U 0.2594(4) 0.2410(3) 0.50000
U2 U 0.2555(4) 0.2309(1) 0.7581(1)
Na1 Na -0.213(4) 0.096(1) 0.615(1)
O1 O 0.217(3) 0.029(1) 0.753(2)
O2 O 0.222(3) 0.410(2) 0.700(2)
O3 O 0.165(2) 0.183(1) 0.627(2)
O4 O 0.262(5) 0.036(2) 0.487(1)
O5 O 0.498(4) 0.220(2) 0.530(2)
O6 O 0.272(5) 0.418(2) 0.565(2)
O7 O 0.010(3) 0.224(2) 0.787(1)
O8 O 0.348(3) 0.349(2) 0.389(2)
O9 O 0.494(6) 0.246(3) 0.730(2)
O10 O 0.284(4) 0.125(2) 0.372(1)
O11 O 0.028(4) 0.262(3) 0.477(2)
C1 C 0.272(5) 0.034(2) 0.409(2)
C2 C 0.235(5) -0.079(2) 0.364(1)
C3 C 0.233(4) 0.462(2) 0.631(3)
C4 C 0.280(5) 0.585(2) 0.626(3)
H1 H 0.32200 0.59400 0.67800
H2 H 0.10700 0.01400 0.75400
H3 H 0.29100 0.61500 0.57300
H4 H 0.34800 -0.10400 0.33800
H5 H 0.19600 -0.13400 0.40300
H6 H 0.14000 -0.07000 0.32400
H7 H 0.15500 0.61300 0.63800
O8C O 0.348(3) 0.151(2) 0.889(2)
O10C O 0.284(4) 0.375(2) 0.872(1)
U2C U 0.2555(4) 0.2691(1) 0.2581(1)
#END
