
#######################################################################
#
#                 Cambridge Crystallographic Data Centre
#                                CCDC
#
#######################################################################
#
# If this CIF has been generated from an entry in the Cambridge
# Structural Database, then it will include bibliographic, chemical,
# crystal, experimental, refinement or atomic coordinate data resulting
# from the CCDC's data processing and validation procedures.
#
#######################################################################

data_CSD_CIF_ECOTAS
_audit_creation_date 2006-05-29
_audit_creation_method CSD-ConQuest-V1
_database_code_CSD ECOTAS
_database_code_depnum_ccdc_archive 'CCDC 601492'
_chemical_formula_sum 'C2 H4 Cs4 Fe2 O20 P4'
_chemical_formula_moiety
;
(Cs1 1+)4n,n(C2 H4 Fe2 O20 P4 4-)
;
_journal_coden_Cambridge 9
_journal_volume 45
_journal_year 2006
_journal_page_first 1891
_journal_name_full 'Inorg.Chem. '
loop_
_publ_author_name
"Chyi-Yang Sheu"
"Shang-Fan Lee"
"Kwang-Hwa Lii"
_chemical_name_systematic
;
catena-(tetrakis(cesium) tetrakis(\m~2~-hydrogen 
phosphato-O,O')-(\m~2~-oxalato-O,O',O'',O''')-di-iron(iii))
;
_cell_volume   1024.006
_exptl_crystal_colour 'pale green'
_exptl_crystal_density_diffrn 3.617
_exptl_crystal_description 'taper-like'
_diffrn_ambient_temperature 294
#These two values have been output from a single CSD field.
_refine_ls_R_factor_gt 0.0264
_refine_ls_wR_factor_gt 0.0264
_symmetry_cell_setting monoclinic
_symmetry_space_group_name_H-M 'P 21/c'
_symmetry_Int_Tables_number 14
loop_
_symmetry_equiv_pos_site_id
_symmetry_equiv_pos_as_xyz
1 x,y,z
2 -x,1/2+y,1/2-z
3 -x,-y,-z
4 x,-1/2-y,-1/2+z
_cell_length_a 8.5085(4)
_cell_length_b 12.7251(6)
_cell_length_c 9.8961(4)
_cell_angle_alpha 90
_cell_angle_beta 107.117(1)
_cell_angle_gamma 90
_cell_formula_units_Z 2
loop_
_atom_type_symbol
_atom_type_radius_bond
C 0.68
Cs 1.67
Fe 1.34
O 0.68
P 1.05
loop_
_atom_site_label
_atom_site_type_symbol
_atom_site_fract_x
_atom_site_fract_y
_atom_site_fract_z
Cs1 Cs 0.46523(3) 0.158358(19) 0.28018(3)
Cs2 Cs 0.03419(3) 0.14103(2) 0.41108(3)
Fe1 Fe 0.27455(6) 0.61827(4) 0.50390(5)
P1 P 0.66875(10) 0.57375(7) 0.69290(9)
P2 P 0.24334(10) 0.64991(6) 0.82564(9)
O1 O 0.5109(3) 0.6055(2) 0.5805(3)
O2 O 0.7244(3) 0.4628(2) 0.6678(3)
O3 O 0.6535(3) 0.5821(2) 0.8412(3)
O4 O 0.8011(3) 0.6559(2) 0.6765(3)
O5 O 0.2488(3) 0.6841(2) 0.6787(3)
O6 O 0.2834(4) 0.7465(2) 0.9211(3)
O7 O 0.0826(3) 0.6001(2) 0.8256(3)
O8 O 0.3804(3) 0.5669(2) 0.8892(3)
O9 O 0.0114(3) 0.6214(2) 0.4214(3)
O10 O -0.2076(3) 0.5226(2) 0.4172(3)
C1 C -0.0569(4) 0.5416(3) 0.4531(3)
Fe1B Fe 0.72545(6) 0.38173(4) 0.49610(5)
Fe1C Fe 0.27455(6) 0.88173(4) 1.00390(5)
Fe1B* Fe -0.27455(6) 0.38173(4) 0.49610(5)
Fe1C* Fe 0.27455(6) 0.88173(4) 0.00390(5)
P1B P 0.33125(10) 0.42625(7) 0.30710(9)
P2C P 0.24334(10) 0.85009(6) 0.32564(9)
O1B O 0.4891(3) 0.3945(2) 0.4195(3)
O2B O 0.2756(3) 0.5372(2) 0.3322(3)
O3B O 0.3465(3) 0.4179(2) 0.1588(3)
O4B O 0.1989(3) 0.3441(2) 0.3235(3)
O5C O 0.2488(3) 0.8159(2) 0.1787(3)
O5B O 0.7512(3) 0.3159(2) 0.3213(3)
O6C O 0.2834(4) 0.7535(2) 0.4211(3)
O6A O 0.7166(4) 0.2465(2) 0.5789(3)
O7C O 0.0826(3) 0.8999(2) 0.3256(3)
O8C O 0.3804(3) 0.9331(2) 0.3892(3)
O9B O -0.0114(3) 0.3786(2) 0.5786(3)
O9B* O 0.9886(3) 0.3786(2) 0.5786(3)
O10B O 0.2076(3) 0.4774(2) 0.5828(3)
O10* O 0.7924(3) 0.5226(2) 0.4172(3)
C1B C 0.0569(4) 0.4584(3) 0.5469(3)
#END
