
#######################################################################
#
#                 Cambridge Crystallographic Data Centre
#                                CCDC
#
#######################################################################
#
# If this CIF has been generated from an entry in the Cambridge
# Structural Database, then it will include bibliographic, chemical,
# crystal, experimental, refinement or atomic coordinate data resulting
# from the CCDC's data processing and validation procedures.
#
#######################################################################

data_CSD_CIF_ECUHES
_audit_creation_date 2017-10-16
_audit_creation_method CSD-ConQuest-V1
_database_code_CSD ECUHES
_database_code_depnum_ccdc_archive 'CCDC 1562673'
_chemical_formula_sum 'C70 H74 N12 O14 S2 Zn2'
_chemical_formula_moiety
;
C18 H24 N4 2+,n(C52 H50 N8 O14 S2 Zn2 2-)
;
_journal_coden_Cambridge 580
_journal_volume 139
_journal_year 2018
_journal_page_first 73
_journal_name_full 'Polyhedron '
loop_
_publ_author_name
"F.Semerci"
_chemical_name_systematic
;
catena-[(1,1'-(1,4-phenylenebis(methylene))bis(2-ethyl-1H-imidazol-3-ium)) 
bis(\m-1,1'-[1,4-phenylenebis(methylene)]bis(2-ethyl-1H-imidazole))-bis(\m-5-s
ulfonatobenzene-1,3-dicarboxylato)-di-zinc(ii)]
;
_cell_volume   1751.568
_exptl_crystal_colour 'colorless'
_exptl_crystal_density_diffrn 1.422
_exptl_special_details
;
Luminescent

;
_exptl_crystal_description 'block'
_diffrn_ambient_temperature 293
#These two values have been output from a single CSD field.
_refine_ls_R_factor_gt 0.1265
_refine_ls_wR_factor_gt 0.1265
_symmetry_cell_setting triclinic
_symmetry_space_group_name_H-M 'P -1'
_symmetry_Int_Tables_number 2
loop_
_symmetry_equiv_pos_site_id
_symmetry_equiv_pos_as_xyz
1 x,y,z
2 -x,-y,-z
_cell_length_a 8.816
_cell_length_b 8.843
_cell_length_c 23.994
_cell_angle_alpha 95.75
_cell_angle_beta 90.69
_cell_angle_gamma 109.57
_cell_formula_units_Z 1
loop_
_atom_type_symbol
_atom_type_radius_bond
C 0.68
H 0.23
N 0.68
O 0.68
S 1.02
Zn 1.22
loop_
_atom_site_label
_atom_site_type_symbol
_atom_site_fract_x
_atom_site_fract_y
_atom_site_fract_z
Zn1 Zn 0.47052(10) 0.18406(10) 0.29828(4)
S1 S 0.9060(3) 0.6444(3) 0.08119(9)
O1 O 0.7766(7) 0.4167(7) 0.3242(2)
O2 O 0.6221(6) 0.3089(7) 0.2467(2)
C1 C 0.7439(9) 0.4136(8) 0.2744(3)
N1 N 0.5517(7) 0.0568(7) 0.3486(3)
N2 N 0.4060(8) 0.3463(7) 0.3492(3)
C2 C 0.8509(8) 0.5423(7) 0.2415(3)
C3 C 0.9658(8) 0.6771(8) 0.2705(3)
H1 H 0.97300 0.68750 0.30950
N3 N 0.6936(9) -0.0698(9) 0.3868(3)
N4 N 0.2762(9) 0.4996(8) 0.3873(3)
C4 C 0.6723(9) -0.0012(9) 0.3415(3)
C5 C 0.8337(9) 0.5307(8) 0.1835(3)
H2 H 0.75450 0.44320 0.16380
C6 C 0.4943(10) 0.0228(10) 0.4010(3)
H3 H 0.40960 0.04890 0.41710
C7 C 0.9361(10) 0.6512(9) 0.1552(3)
C8 C 0.0742(11) 0.5426(11) 0.4502(4)
C9 C 0.2837(9) 0.4008(9) 0.3422(3)
C10 C 0.1822(12) 0.3662(12) 0.2883(4)
H4 H 0.15910 0.25400 0.27370
H5 H 0.08040 0.38150 0.29620
C11 C 0.9112(11) -0.0741(11) 0.4497(4)
C12 C 0.4781(10) 0.4132(10) 0.4005(4)
H6 H 0.56660 0.39540 0.41630
C13 C 0.8160(12) -0.1480(12) 0.3966(4)
H7 H 0.76240 -0.26260 0.39850
H8 H 0.88740 -0.13540 0.36570
C14 C 0.7583(11) 0.0013(12) 0.2883(4)
H9 H 0.86130 -0.01170 0.29580
H10 H 0.77890 0.10510 0.27430
C15 C 0.5822(12) -0.0548(12) 0.4247(4)
H11 H 0.56990 -0.09120 0.46000
C16 C -0.0593(11) 0.4102(13) 0.4490(4)
H12 H -0.10100 0.34890 0.41500
C17 C 0.1600(13) 0.5862(13) 0.3969(4)
H13 H 0.08190 0.55750 0.36540
H14 H 0.21650 0.70180 0.39990
C18 C 0.4008(13) 0.5101(12) 0.4248(4)
H15 H 0.42640 0.57120 0.45960
C19 C 0.8652(11) -0.1364(12) 0.5004(4)
H16 H 0.77570 -0.22910 0.50100
C20 C 0.1363(12) 0.6360(12) 0.5008(4)
H17 H 0.22740 0.72790 0.50180
C21 C 1.0484(12) 0.0613(13) 0.4501(4)
H18 H 1.08280 0.10240 0.41650
O3 O 0.8493(16) 0.4791(11) 0.0616(3)
O4 O 0.7866(16) 0.7205(15) 0.0732(4)
O5 O 1.0552(13) 0.7369(14) 0.0627(3)
C22 C 0.2597(17) 0.469(2) 0.2454(5)
H19 H 0.18400 0.45290 0.21450
H20 H 0.35060 0.44070 0.23260
H21 H 0.29530 0.57980 0.26110
C23 C 0.6605(17) -0.1326(18) 0.2438(5)
H22 H 0.72200 -0.13170 0.21100
H23 H 0.56210 -0.11530 0.23410
H24 H 0.63600 -0.23520 0.25810
C24 C 1.0691(8) 0.7955(8) 0.2421(3)
C25 C 1.1895(8) 0.9373(8) 0.2754(3)
C26 C 1.0551(9) 0.7825(9) 0.1844(3)
H25 H 1.12490 0.86120 0.16500
O6 O 1.3010(6) 1.0298(6) 0.2479(2)
O7 O 1.1793(8) 0.9619(8) 0.3266(3)
N5 N 0.7073(15) 0.7426(16) -0.0789(4)
C27 C 0.4677(18) 1.0165(19) -0.0554(8)
H26 H 0.44690 1.03020 -0.09230
C28 C 0.5659(18) 0.921(2) -0.0428(7)
C29 C 0.5931(19) 0.915(2) 0.0127(8)
H27 H 0.65960 0.85790 0.02210
C30 C 0.643(3) 0.853(3) -0.0877(10)
N6 N 0.826(3) 0.5786(19) -0.0614(5)
H28 H 0.90640 0.54630 -0.05590
C31 C 0.838(3) 0.719(2) -0.0688(6)
C32 C 1.047(2) 0.864(2) -0.1332(8)
H29 H 0.97100 0.88330 -0.15790
H30 H 1.06260 0.76440 -0.14630
H31 H 1.14840 0.95110 -0.13230
C33 C 0.981(3) 0.854(2) -0.0710(6)
H32 H 1.06300 0.84570 -0.04540
H33 H 0.95930 0.95240 -0.05880
C34 C 0.658(4) 0.477(2) -0.0633(8)
H34 H 0.61280 0.36800 -0.05860
C35 C 0.588(4) 0.581(3) -0.0734(9)
H35 H 0.47700 0.55670 -0.07680
H36? H 0.64610 0.88890 -0.12300
N1A N 1.4483(7) -0.0568(7) 0.6514(3)
N3A N 1.3064(9) 0.0698(9) 0.6132(3)
C4A C 1.3277(9) 0.0012(9) 0.6585(3)
C6A C 1.5057(10) -0.0228(10) 0.5990(3)
H3A H 1.59040 -0.04890 0.58290
C11A C 1.0888(11) 0.0741(11) 0.5503(4)
C13A C 1.1840(12) 0.1480(12) 0.6034(4)
H7A H 1.23760 0.26260 0.60150
H8A H 1.11260 0.13540 0.63430
C14A C 1.2417(11) -0.0013(12) 0.7117(4)
H9A H 1.13870 0.01170 0.70420
H10A H 1.22110 -0.10510 0.72570
C15A C 1.4178(12) 0.0548(12) 0.5753(4)
H11A H 1.43010 0.09120 0.54000
C19A C 1.1348(11) 0.1364(12) 0.4996(4)
H16A H 1.22430 0.22910 0.49900
C21A C 0.9516(12) -0.0613(13) 0.5499(4)
H18A H 0.91720 -0.10240 0.58350
C23A C 1.3395(17) 0.1326(18) 0.7562(5)
H22A H 1.27800 0.13170 0.78900
H23A H 1.43790 0.11530 0.76590
H24A H 1.36400 0.23520 0.74190
N2A N -0.4060(8) 0.6537(7) 0.6508(3)
N4A N -0.2762(9) 0.5004(8) 0.6127(3)
C8A C -0.0742(11) 0.4574(11) 0.5498(4)
C9A C -0.2837(9) 0.5992(9) 0.6578(3)
C10A C -0.1822(12) 0.6338(12) 0.7117(4)
H4A H -0.15910 0.74600 0.72630
H5A H -0.08040 0.61850 0.70380
C12A C -0.4781(10) 0.5868(10) 0.5995(4)
H6A H -0.56660 0.60460 0.58370
C16A C 0.0593(11) 0.5898(13) 0.5510(4)
H12A H 0.10100 0.65110 0.58500
C17A C -0.1600(13) 0.4138(13) 0.6031(4)
H13A H -0.08190 0.44250 0.63460
H14A H -0.21650 0.29820 0.60010
C18A C -0.4008(13) 0.4899(12) 0.5752(4)
H15A H -0.42640 0.42880 0.54040
C20A C -0.1363(12) 0.3640(12) 0.4992(4)
H17A H -0.22740 0.27210 0.49820
C22A C -0.2597(17) 0.531(2) 0.7546(5)
H19A H -0.18400 0.54710 0.78550
H20A H -0.35060 0.55930 0.76740
H21A H -0.29530 0.42020 0.73890
Zn1A Zn -0.47052(10) 0.81594(10) 0.70172(4)
S1A S -0.9060(3) 0.3556(3) 0.91881(9)
O1A O -0.7766(7) 0.5833(7) 0.6758(2)
O2A O -0.6221(6) 0.6911(7) 0.7533(2)
C1A C -0.7439(9) 0.5864(8) 0.7256(3)
C2A C -0.8509(8) 0.4577(7) 0.7585(3)
C3A C -0.9658(8) 0.3229(8) 0.7295(3)
H1A H -0.97300 0.31250 0.69050
C5A C -0.8337(9) 0.4693(8) 0.8165(3)
H2A H -0.75450 0.55680 0.83620
C7A C -0.9361(10) 0.3488(9) 0.8448(3)
O3A O -0.8493(16) 0.5209(11) 0.9384(3)
O4A O -0.7866(16) 0.2795(15) 0.9268(4)
O5A O -1.0552(13) 0.2631(14) 0.9373(3)
C24A C -1.0691(8) 0.2045(8) 0.7579(3)
C25A C -1.1895(8) 0.0627(8) 0.7246(3)
C26A C -1.0551(9) 0.2175(9) 0.8156(3)
H25A H -1.12490 0.13880 0.83500
O6A O -1.3010(6) -0.0298(6) 0.7521(2)
O7A O -1.1793(8) 0.0381(8) 0.6734(3)
Zn1* Zn 1.47052(10) 1.18406(10) 0.29828(4)
Zn1A* Zn -1.47052(10) -0.18406(10) 0.70172(4)
Zn1A** Zn 1.52948(10) -0.18406(10) 0.70172(4)
N1A* N -0.5517(7) 0.9432(7) 0.6514(3)
O6* O 0.3010(6) 0.0298(6) 0.2479(2)
O6A* O -0.3010(6) 0.9702(6) 0.7521(2)
N5A N 0.2927(15) 1.2574(16) 0.0789(4)
C27A C 0.5323(18) 0.9835(19) 0.0554(8)
H26A H 0.55310 0.96980 0.09230
C28A C 0.4341(18) 1.079(2) 0.0428(7)
C29A C 0.4069(19) 1.085(2) -0.0127(8)
H27A H 0.34040 1.14210 -0.02210
C30A C 0.357(3) 1.147(3) 0.0877(10)
N6A N 0.174(3) 1.4214(19) 0.0614(5)
H28A H 0.09360 1.45370 0.05590
C31A C 0.162(3) 1.281(2) 0.0688(6)
C32A C -0.047(2) 1.136(2) 0.1332(8)
H29A H 0.02900 1.11670 0.15790
H30A H -0.06260 1.23560 0.14630
H31A H -0.14840 1.04890 0.13230
C33A C 0.019(3) 1.146(2) 0.0710(6)
H32A H -0.06300 1.15430 0.04540
H33A H 0.04070 1.04760 0.05880
C34A C 0.342(4) 1.523(2) 0.0633(8)
H34A H 0.38720 1.63200 0.05860
C35A C 0.412(4) 1.419(3) 0.0734(9)
H35A H 0.52300 1.44330 0.07680
#END
