
#######################################################################
#
#                 Cambridge Crystallographic Data Centre
#                                CCDC
#
#######################################################################
#
# If this CIF has been generated from an entry in the Cambridge
# Structural Database, then it will include bibliographic, chemical,
# crystal, experimental, refinement or atomic coordinate data resulting
# from the CCDC's data processing and validation procedures.
#
#######################################################################

data_CSD_CIF_ECULUL
_audit_creation_date 2013-04-25
_audit_creation_method CSD-ConQuest-V1
_database_code_CSD ECULUL
_database_code_depnum_ccdc_archive 'CCDC 869844'
_chemical_formula_sum 'C22 H31 Cl1.5 Co1 Cr1 N4 O14.5'
_chemical_formula_moiety
;
(C7 H11 N2 1+)2n,n(C6 H2 Cl1 Co1 Cr1 O13 2-),0.5n(Cl1),n(C2 H6 O1),0.5n(H2 O1)
;
_journal_coden_Cambridge 9
_journal_volume 51
_journal_year 2012
_journal_page_first 11582
_journal_name_full 'Inorg.Chem. '
loop_
_publ_author_name
"E.Pardo"
"C.Train"
"K.Boubekeur"
"G.Gontard"
"J.Cano"
"F.Lloret"
"K.Nakatani"
"M.Verdaguer"
_chemical_name_systematic
;
catena-(bis(4-N,N-dimethylaminopyridinium) 
bis(\m~2~-oxalato)-aqua-chloro-(oxalato)-chromium-cobalt chloride ethanol 
solvate hemihydrate)
;
_cell_volume   3159.856
_exptl_crystal_colour 'purple'
_exptl_crystal_density_diffrn 1.566
_exptl_crystal_description 'block'
_diffrn_ambient_temperature 200
_refine_special_details
;
O16A and O16B disordered over two sites with occupancies 0.60:0.40; 
C14A,C15A,C16A,C17A,C18A,C19A,C20A,N3A,N4A and 
C14B,C15B,C16B,C17B,C18B,C19B,C20B,N3B,N4B disordered over two sites with 
occupancies 0.50:0.50.
;
#These two values have been output from a single CSD field.
_refine_ls_R_factor_gt 0.0543
_refine_ls_wR_factor_gt 0.0543
_symmetry_cell_setting monoclinic
_symmetry_space_group_name_H-M 'P 21/c'
_symmetry_Int_Tables_number 14
loop_
_symmetry_equiv_pos_site_id
_symmetry_equiv_pos_as_xyz
1 x,y,z
2 -x,1/2+y,1/2-z
3 -x,-y,-z
4 x,-1/2-y,-1/2+z
_cell_length_a 10.7446(17)
_cell_length_b 14.9493(15)
_cell_length_c 21.948(3)
_cell_angle_alpha 90
_cell_angle_beta 116.322(9)
_cell_angle_gamma 90
_cell_formula_units_Z 4
loop_
_atom_type_symbol
_atom_type_radius_bond
C 0.68
H 0.23
Cl 0.99
Co 1.26
Cr 1.39
N 0.68
O 0.68
loop_
_atom_site_label
_atom_site_type_symbol
_atom_site_fract_x
_atom_site_fract_y
_atom_site_fract_z
Co1 Co 1.25845(5) 0.65414(3) 0.32308(2)
Cr1 Cr 0.74958(6) 0.79251(4) 0.16831(3)
Cl1 Cl 1.50000 0.50000 0.50000
Cl2 Cl 1.3945(4) 0.7517(3) 0.2922(2)
O1 O 0.8961(3) 0.79871(17) 0.26505(12)
O2 O 0.8804(3) 0.70443(17) 0.15953(12)
O3 O 1.1139(3) 0.74897(18) 0.32911(12)
O4 O 1.0902(3) 0.64263(18) 0.22261(12)
O5 O 0.8396(3) 0.89550(18) 0.14546(12)
O6 O 0.6362(3) 0.88953(18) 0.18248(13)
O7 O 0.8429(3) 1.04663(17) 0.15072(13)
O8 O 0.6315(3) 1.03975(18) 0.18720(14)
O9 O 0.6109(3) 0.77109(18) 0.07350(13)
O10 O 0.6417(3) 0.69997(19) 0.18827(13)
O11 O 0.4131(3) 0.6956(2) 0.01379(14)
O12 O 0.4366(4) 0.6288(2) 0.13671(17)
O13 O 1.3983(3) 0.6713(2) 0.42163(14)
H1 H 1.42680 0.61120 0.45250
H2 H 1.40020 0.71340 0.44650
O14 O 0.6935(8) 0.4305(8) 0.2295(3)
H3 H 0.70780 0.43210 0.26940
O15 O 0.5654(6) 0.5378(4) 0.2655(3)
N1 N 1.1610(4) 0.6345(2) 0.03316(19)
H4 H 1.24960 0.63940 0.05630
N2 N 0.7377(4) 0.5998(4) -0.0790(2)
N3 N 0.7000(8) 0.8285(5) -0.1090(4)
H5 H 0.61630 0.81810 -0.13880
N4 N 1.106(2) 0.8828(17) 0.0355(13)
C1 C 1.0039(4) 0.7520(2) 0.27569(17)
C2 C 0.9924(4) 0.6940(2) 0.21453(17)
C3 C 0.7965(4) 0.9714(3) 0.15515(17)
C4 C 0.6767(4) 0.9684(3) 0.17669(18)
C5 C 0.5123(4) 0.7176(3) 0.0674(2)
C6 C 0.5273(5) 0.6779(3) 0.1355(2)
C7 C 1.1017(5) 0.6404(3) -0.0354(2)
H6 H 1.15760 0.65210 -0.05680
C8 C 0.9631(5) 0.6298(3) -0.0739(2)
H7 H 0.92590 0.63360 -0.12100
C9 C 0.8739(4) 0.6128(3) -0.0426(2)
C10 C 0.9412(5) 0.6106(3) 0.0304(2)
H8 H 0.88880 0.60200 0.05410
C11 C 1.0808(6) 0.6209(3) 0.0650(2)
H9 H 1.12230 0.61850 0.11220
C12 C 0.6772(7) 0.5964(7) -0.1546(3)
H10 H 0.69930 0.65060 -0.17110
H11 H 0.57820 0.59010 -0.17330
H12 H 0.71510 0.54620 -0.16800
C13 C 0.6444(6) 0.5876(5) -0.0465(4)
H13 H 0.65020 0.52690 -0.03120
H14 H 0.55060 0.60060 -0.07870
H15 H 0.67180 0.62730 -0.00830
C14 C 0.8005(10) 0.8426(6) -0.1290(4)
H16 H 0.77810 0.83820 -0.17500
C15 C 0.9330(13) 0.8628(8) -0.0844(6)
H17 H 0.99820 0.87450 -0.10050
C16 C 0.975(2) 0.8664(11) -0.0107(9)
C17 C 0.8704(14) 0.8524(10) 0.0083(6)
H18 H 0.88880 0.85680 0.05380
C18 C 0.7300(14) 0.8306(10) -0.0433(8)
H19 H 0.66090 0.81810 -0.03000
C19 C 1.216(2) 0.898(2) 0.0130(16)
H20 H 1.23090 0.84440 -0.00670
H21 H 1.30100 0.91500 0.05140
H22 H 1.18790 0.94540 -0.02010
C20 C 1.1403(15) 0.8884(10) 0.1037(6)
H23 H 1.07020 0.92170 0.10970
H24 H 1.22820 0.91800 0.12700
H25 H 1.14640 0.82930 0.12190
C21 C 0.8086(7) 0.4749(5) 0.2223(4)
H26 H 0.82100 0.53510 0.24050
H27 H 0.89420 0.44200 0.24720
C22 C 0.7757(11) 0.4775(5) 0.1523(4)
H28 H 0.72790 0.42360 0.13070
H29 H 0.85960 0.48260 0.14720
H30 H 0.71720 0.52810 0.13150
C23? C 1.2935(12) 0.8926(8) 0.0645(6)
C24? C 1.171(2) 0.8960(11) 0.010(1)
C25? C 1.056(3) 0.8750(14) 0.0196(13)
C26? C 1.0712(15) 0.8440(9) 0.0838(6)
C27? C 1.1948(14) 0.8433(10) 0.1332(6)
C28? C 0.8979(19) 0.8977(12) -0.1048(7)
C29? C 0.7961(18) 0.8548(11) -0.0261(10)
H31? H 1.37220 0.90940 0.05990
H32? H 1.16300 0.91190 -0.03260
H33? H 0.99510 0.82490 0.08990
H34? H 1.20650 0.82620 0.17620
H35? H 0.91740 0.96010 -0.10640
H36? H 0.80240 0.88610 -0.13520
H37? H 0.95660 0.86290 -0.11830
H38? H 0.79710 0.79360 -0.01260
H39? H 0.71500 0.86530 -0.06810
H40? H 0.79460 0.89350 0.00850
H41? H 1.38970 0.86430 0.15860
N5? N 1.3085(11) 0.8665(7) 0.1248(5)
N6? N 0.924(2) 0.8735(13) -0.0355(8)
O16? O 0.5654(10) 0.8457(7) -0.2068(5)
Co1A Co 0.74155(5) 1.15414(3) 0.17692(2)
O7A O 1.1571(3) 0.54663(17) 0.34928(13)
O8A O 1.3685(3) 0.53975(18) 0.31280(14)
#END
