
#######################################################################
#
#                 Cambridge Crystallographic Data Centre
#                                CCDC
#
#######################################################################
#
# If this CIF has been generated from an entry in the Cambridge
# Structural Database, then it will include bibliographic, chemical,
# crystal, experimental, refinement or atomic coordinate data resulting
# from the CCDC's data processing and validation procedures.
#
#######################################################################

data_CSD_CIF_ECULOF
_audit_creation_date 2013-04-25
_audit_creation_method CSD-ConQuest-V1
_database_code_CSD ECULOF
_database_code_depnum_ccdc_archive 'CCDC 869843'
_chemical_formula_sum 'C44 H64 Cl2 Cr2 Mn2 N8 O30'
_chemical_formula_moiety
;
(C7 H11 N2 1+)4n,n(C6 H2 Cl1 Cr1 Mn1 O13 2-),n(C6 H4 Cr1 Mn1 O14 1-),n(Cl1 
1-),2n(C2 H6 O1),n(H2 O1)
;
_journal_coden_Cambridge 9
_journal_volume 51
_journal_year 2012
_journal_page_first 11582
_journal_name_full 'Inorg.Chem. '
loop_
_publ_author_name
"E.Pardo"
"C.Train"
"K.Boubekeur"
"G.Gontard"
"J.Cano"
"F.Lloret"
"K.Nakatani"
"M.Verdaguer"
_chemical_name_systematic
;
catena-(tetrakis(4-N,N-dimethylaminopyridinium) 
bis(\m~2~-oxalato)-aqua-chloro-(oxalato)-chromium-manganese 
bis(\m~2~-oxalato)-diaqua-(oxalato)-chromium-manganese chloride ethanol 
solvate monohydrate)
;
_cell_volume   6334.363
_exptl_crystal_colour 'purple'
_exptl_crystal_density_diffrn 1.541
_exptl_crystal_description 'block'
_diffrn_ambient_temperature 200
#These two values have been output from a single CSD field.
_refine_ls_R_factor_gt 0.0609
_refine_ls_wR_factor_gt 0.0609
_symmetry_cell_setting monoclinic
_symmetry_space_group_name_H-M 'P 21/c'
_symmetry_Int_Tables_number 14
loop_
_symmetry_equiv_pos_site_id
_symmetry_equiv_pos_as_xyz
1 x,y,z
2 -x,1/2+y,1/2-z
3 -x,-y,-z
4 x,-1/2-y,-1/2+z
_cell_length_a 21.239(4)
_cell_length_b 15.109(2)
_cell_length_c 21.809(3)
_cell_angle_alpha 90
_cell_angle_beta 115.163(9)
_cell_angle_gamma 90
_cell_formula_units_Z 4
loop_
_atom_type_symbol
_atom_type_radius_bond
C 0.68
H 0.23
Cl 0.99
Cr 1.39
Mn 1.61
N 0.68
O 0.68
loop_
_atom_site_label
_atom_site_type_symbol
_atom_site_fract_x
_atom_site_fract_y
_atom_site_fract_z
Mn1 Mn 1.13563(3) 0.14461(4) 0.82093(3)
Mn2 Mn 0.36875(3) -0.34464(4) 0.67540(2)
Cr1 Cr 0.87368(3) 0.28167(4) 0.66834(3)
Cr2 Cr 0.63138(3) -0.21106(4) 0.83035(3)
Cl1 Cl 0.25062(5) -0.49983(7) 0.49710(5)
Cl2 Cl 0.29806(6) -0.24510(8) 0.71039(6)
O1 O 0.94695(13) 0.28584(16) 0.76418(11)
O2 O 0.93992(13) 0.19695(16) 0.65707(11)
O3 O 1.05588(13) 0.23646(16) 0.82645(11)
O4 O 1.04560(14) 0.13661(17) 0.71679(12)
O5 O 1.08186(12) -0.11485(16) 0.85386(12)
O6 O 1.18488(13) -0.12442(17) 0.81636(13)
O7 O 1.08166(12) 0.03413(16) 0.84872(12)
O8 O 1.18888(14) 0.02387(17) 0.80962(13)
O9 O 0.80470(13) 0.26308(17) 0.57396(11)
O10 O 0.82080(13) 0.18651(17) 0.68779(12)
O11 O 0.70714(15) 0.1867(2) 0.51469(13)
O12 O 0.72112(15) 0.11053(19) 0.63650(14)
O13 O 1.18653(17) 0.2258(2) 0.77338(15)
H1 H 1.16940 0.27950 0.76930
H2 H 1.18320 0.20460 0.72800
O14 O 1.20774(14) 0.17500(18) 0.92186(12)
H3 H 1.20890 0.21420 0.94980
H4 H 1.22220 0.12300 0.94530
O15 O 0.56674(13) -0.30102(16) 0.83902(11)
O16 O 0.55881(13) -0.20653(17) 0.73389(12)
O17 O 0.45804(13) -0.35356(17) 0.77992(12)
O18 O 0.45085(13) -0.25638(17) 0.67052(12)
O19 O 0.41766(12) -0.61268(16) 0.64609(12)
O20 O 0.31411(12) -0.61156(16) 0.68317(12)
O21 O 0.42194(12) -0.46290(16) 0.64894(12)
O22 O 0.31414(13) -0.46323(16) 0.68613(13)
O23 O 0.70015(13) -0.23173(17) 0.92447(12)
O24 O 0.69129(14) -0.29443(18) 0.80887(13)
O25 O 0.80579(15) -0.2920(2) 0.98229(14)
O26 O 0.80592(17) -0.3304(2) 0.85458(16)
O27 O 0.30520(15) -0.32775(19) 0.57085(12)
H5 H 0.28900 -0.37420 0.54670
H6 H 0.30270 -0.27860 0.54680
O28 O 0.8486(2) -0.1036(2) 0.7306(2)
H7 H 0.82530 -0.06920 0.74150
O29 O 0.3582(5) 0.0244(6) 0.6186(5)
H8 H 0.37170 0.07410 0.63350
O30 O 0.78680(15) 0.02742(19) 0.76491(14)
H9 H 0.75100 0.02610 0.78060
H10 H 0.75780 0.06390 0.72440
N1 N 1.06524(19) 0.1485(2) 0.52232(19)
H11 H 1.10850 0.16220 0.54400
N2 N 0.86043(19) 0.0714(3) 0.4183(2)
N3 N 0.85341(19) 0.3231(3) 0.3874(2)
H12 H 0.81270 0.30890 0.35750
N4 N 1.04955(18) 0.3887(2) 0.53154(17)
N5 N 0.41784(18) -0.1233(2) 0.46720(17)
H13 H 0.37320 -0.12280 0.44560
N6 N 0.6320(2) -0.1170(3) 0.5733(2)
N7 N 0.6498(2) 0.1447(3) 1.1225(2)
H14 H 0.69040 0.14930 1.15550
N8 N 0.4542(2) 0.1251(3) 0.9634(2)
C1 C 1.00121(18) 0.2407(2) 0.77357(16)
C2 C 0.99602(18) 0.1854(2) 0.71093(16)
C3 C 1.10450(17) -0.0399(2) 0.84403(16)
C4 C 1.16538(17) -0.0458(2) 0.82173(16)
C5 C 0.75705(19) 0.2068(2) 0.56793(17)
C6 C 0.76520(19) 0.1631(2) 0.63554(18)
C7 C 0.50853(17) -0.3081(2) 0.78590(16)
C8 C 0.50469(17) -0.2522(2) 0.72403(16)
C9 C 0.39739(16) -0.5355(2) 0.65449(16)
C10 C 0.33637(18) -0.5356(2) 0.67586(16)
C11 C 0.7546(2) -0.2748(2) 0.92880(19)
C12 C 0.7523(2) -0.3035(3) 0.8587(2)
C13 C 1.0354(2) 0.1502(3) 0.4546(2)
H15 H 1.06140 0.16840 0.43170
C14 C 0.9676(2) 0.1256(3) 0.41828(19)
H16 H 0.94810 0.12680 0.37120
C15 C 0.9263(2) 0.0980(3) 0.45238(19)
C16 C 0.9603(2) 0.1012(3) 0.52457(19)
H17 H 0.93580 0.08650 0.54970
C17 C 1.0283(2) 0.1257(3) 0.5570(2)
H18 H 1.04970 0.12660 0.60410
C18 C 0.8299(3) 0.0603(4) 0.3432(3)
H19 H 0.82480 0.11720 0.32210
H20 H 0.78510 0.03250 0.32800
H21 H 0.86010 0.02400 0.33120
C19 C 0.8170(3) 0.0490(5) 0.4547(4)
H22 H 0.83990 0.00410 0.48790
H23 H 0.77260 0.02760 0.42290
H24 H 0.81070 0.10090 0.47680
C20 C 0.9027(2) 0.3504(3) 0.3675(2)
H25 H 0.89180 0.35370 0.32150
C21 C 0.9681(2) 0.3732(3) 0.4138(2)
H26 H 1.00110 0.39220 0.39920
C22 C 0.9857(2) 0.3676(2) 0.48498(19)
C23 C 0.9311(2) 0.3387(3) 0.5023(2)
H27 H 0.93960 0.33430 0.54770
C24 C 0.8680(2) 0.3180(3) 0.4543(2)
H28 H 0.83350 0.29960 0.46700
C25 C 1.1051(2) 0.4162(4) 0.5127(3)
H29 H 1.11500 0.36910 0.48850
H30 H 1.14630 0.42980 0.55290
H31 H 1.09060 0.46770 0.48430
C26 C 1.0681(3) 0.3805(4) 0.6050(2)
H32 H 1.03070 0.40310 0.61420
H33 H 1.10960 0.41380 0.63020
H34 H 1.07580 0.31940 0.61800
C27 C 0.4576(2) -0.1067(3) 0.4341(2)
H35 H 0.43610 -0.09690 0.38760
C28 C 0.5287(2) -0.1037(3) 0.4668(2)
H36 H 0.55500 -0.09170 0.44280
C29 C 0.5622(2) -0.1192(3) 0.5382(2)
C30 C 0.5180(2) -0.1392(3) 0.57043(19)
H37 H 0.53730 -0.15120 0.61660
C31 C 0.4479(2) -0.1408(3) 0.5343(2)
H38 H 0.42000 -0.15430 0.55620
C32 C 0.6783(3) -0.0996(5) 0.5395(4)
H39 H 0.66810 -0.14090 0.50310
H40 H 0.72590 -0.10620 0.57170
H41 H 0.67080 -0.04040 0.52190
C33 C 0.6639(3) -0.1321(5) 0.6467(3)
H42 H 0.64660 -0.08920 0.66820
H43 H 0.71350 -0.12660 0.66390
H44 H 0.65240 -0.19050 0.65600
C34 C 0.6433(3) 0.1141(3) 1.0633(3)
H45 H 0.68310 0.09630 1.05890
C35 C 0.5801(3) 0.1074(3) 1.0081(2)
H46 H 0.57730 0.08780 0.96660
C36 C 0.5185(2) 0.1314(3) 1.0158(2)
C37 C 0.5276(3) 0.1632(3) 1.0799(2)
H47 H 0.48910 0.18010 1.08700
C38 C 0.5925(3) 0.1692(4) 1.1313(3)
H48 H 0.59780 0.19040 1.17330
C39 C 0.4442(3) 0.0974(4) 0.8958(2)
H49 H 0.47750 0.12680 0.88380
H50 H 0.39800 0.11260 0.86370
H51 H 0.45050 0.03450 0.89530
C40 C 0.3905(3) 0.1449(4) 0.9715(3)
H52 H 0.38480 0.10220 1.00130
H53 H 0.35120 0.14250 0.92810
H54 H 0.39390 0.20310 0.99040
C41 C 0.9067(3) -0.0542(4) 0.7243(3)
H55 H 0.91520 0.00080 0.74950
H56 H 0.94890 -0.08930 0.74320
C42 C 0.8887(5) -0.0358(5) 0.6544(4)
H57 H 0.87350 -0.08920 0.62850
H58 H 0.92870 -0.01290 0.64990
H59 H 0.85200 0.00730 0.63810
C43 C 0.3968(7) -0.0378(6) 0.6655(6)
H60 H 0.44370 -0.03960 0.66850
H61 H 0.37610 -0.09590 0.65170
C44 C 0.3990(4) -0.0147(5) 0.7324(3)
H62 H 0.41070 0.04680 0.74170
H63 H 0.43350 -0.05020 0.76690
H64 H 0.35430 -0.02550 0.73200
Cr1A Cr 1.12632(3) -0.21833(4) 0.83166(3)
Cr2A Cr 0.36862(3) -0.71106(4) 0.66965(3)
O5A O 0.91814(12) 0.38515(16) 0.64614(12)
O6A O 0.81512(13) 0.37558(17) 0.68364(13)
O19A O 0.58234(12) -0.11268(16) 0.85391(12)
O20A O 0.68589(12) -0.11156(16) 0.81683(12)
#END
