
#######################################################################
#
#                 Cambridge Crystallographic Data Centre
#                                CCDC
#
#######################################################################
#
# If this CIF has been generated from an entry in the Cambridge
# Structural Database, then it will include bibliographic, chemical,
# crystal, experimental, refinement or atomic coordinate data resulting
# from the CCDC's data processing and validation procedures.
#
#######################################################################

data_CSD_CIF_ECUMEW
_audit_creation_date 2013-04-25
_audit_creation_method CSD-ConQuest-V1
_database_code_CSD ECUMEW
_database_code_depnum_ccdc_archive 'CCDC 869846'
_chemical_formula_sum 'C80 H88 Cr2 Mn1 N8 O30'
_chemical_formula_moiety
;
(C17 H21 N2 O1 1+)4n,n(C12 H2 Cr2 Mn1 O25 4-),n(H2 O1)
;
_journal_coden_Cambridge 9
_journal_volume 51
_journal_year 2012
_journal_page_first 11582
_journal_name_full 'Inorg.Chem. '
loop_
_publ_author_name
"E.Pardo"
"C.Train"
"K.Boubekeur"
"G.Gontard"
"J.Cano"
"F.Lloret"
"K.Nakatani"
"M.Verdaguer"
_chemical_name_systematic
;
catena-(tetrakis(4-(2-(4-(Dimethylamino)phenyl)vinyl)-1-(2-hydroxyethyl)pyridi
nium) tris(\m~2~-oxalato)-aqua-tris(oxalato)-di-chromium-manganese 
monohydrate)
;
_cell_volume   2075.447
_exptl_crystal_colour 'dark red'
_exptl_crystal_density_diffrn 1.441
_exptl_crystal_description 'plate-like'
_diffrn_ambient_temperature 200
_refine_special_details
;
O1DA and O1DB disordered over two sites with occupancies 0.50:0.50.

;
#These two values have been output from a single CSD field.
_refine_ls_R_factor_gt 0.0529
_refine_ls_wR_factor_gt 0.0529
_symmetry_cell_setting triclinic
_symmetry_space_group_name_H-M 'P 1'
_symmetry_Int_Tables_number 1
loop_
_symmetry_equiv_pos_site_id
_symmetry_equiv_pos_as_xyz
1 x,y,z
_cell_length_a 10.524(1)
_cell_length_b 12.813(1)
_cell_length_c 15.440(2)
_cell_angle_alpha 91.666(12)
_cell_angle_beta 94.199(7)
_cell_angle_gamma 90.373(10)
_cell_formula_units_Z 1
loop_
_atom_type_symbol
_atom_type_radius_bond
C 0.68
H 0.23
Cr 1.39
Mn 1.61
N 0.68
O 0.68
loop_
_atom_site_label
_atom_site_type_symbol
_atom_site_fract_x
_atom_site_fract_y
_atom_site_fract_z
Mn1 Mn 0.15472(4) 0.49421(4) 0.33706(3)
Cr1 Cr 0.19943(4) 0.10965(4) 0.49513(3)
Cr2 Cr 0.60533(4) 0.47986(4) 0.17845(3)
C1 C 0.2058(3) 0.2680(3) 0.3738(2)
C2 C 0.1307(3) 0.3124(3) 0.4510(2)
O1 O 0.2176(2) 0.32445(17) 0.31051(14)
O2 O 0.09857(19) 0.40682(17) 0.45069(14)
O3 O 0.24610(19) 0.17372(18) 0.38328(14)
O4 O 0.10759(19) 0.24632(17) 0.50922(14)
C3 C 0.8588(3) 0.4909(3) 0.2454(2)
C4 C 0.8081(3) 0.6063(3) 0.24741(19)
O5 O 0.9694(2) 0.47064(19) 0.27187(15)
O6 O 0.8780(2) 0.67979(17) 0.27669(15)
O7 O 0.77522(18) 0.42196(17) 0.21507(14)
O8 O 0.69042(18) 0.61491(17) 0.21696(15)
C5 C 0.4291(3) 0.4957(2) 0.3066(2)
C6 C 0.3589(3) 0.5276(2) 0.2198(2)
O9 O 0.37088(18) 0.49959(18) 0.37481(14)
O10 O 0.24161(19) 0.54044(18) 0.21818(15)
O11 O 0.54587(18) 0.46656(17) 0.30057(14)
O12 O 0.42936(18) 0.53815(18) 0.15675(14)
O13 O 0.09450(19) 0.64184(17) 0.38577(15)
H1 H 0.02800 0.67190 0.35680
H2 H 0.13950 0.69980 0.41050
C7 C 0.2092(3) -0.1007(3) 0.4509(2)
C8 C 0.0713(3) -0.0658(3) 0.4197(2)
O14 O 0.28724(19) -0.02419(17) 0.47022(15)
O15 O 0.05197(19) 0.03391(18) 0.43358(14)
O16 O 0.2373(2) -0.19484(18) 0.45502(17)
O17 O -0.0047(2) -0.12977(19) 0.38367(16)
C9 C 0.3624(3) 0.1371(3) 0.6419(2)
C10 C 0.2585(3) 0.0563(3) 0.6637(2)
O18 O 0.34994(19) 0.17033(17) 0.56345(14)
O19 O 0.15950(19) 0.05393(17) 0.60721(14)
O20 O 0.4485(2) 0.1632(2) 0.69713(15)
O21 O 0.2737(2) 0.0042(2) 0.72897(16)
C11 C 0.5542(3) 0.3178(3) 0.0556(2)
C12 C 0.6124(3) 0.4097(3) 0.0059(2)
O22 O 0.54380(18) 0.33849(17) 0.13836(14)
O23 O 0.6454(2) 0.49156(19) 0.05717(15)
O24 O 0.5239(2) 0.2337(2) 0.01781(16)
O25 O 0.6237(2) 0.4012(2) -0.07263(17)
N1 N -0.2660(2) -0.7083(2) -0.40042(18)
N2 N 0.2086(3) -0.2104(2) 0.11162(19)
O26 O -0.3283(2) -0.6816(2) -0.59012(17)
H3 H -0.36540 -0.63630 -0.62080
C13 C -0.1539(3) -0.6670(3) -0.4208(2)
H4 H -0.12240 -0.68490 -0.47540
C14 C -0.0841(3) -0.5995(3) -0.3645(2)
H5 H -0.00560 -0.57210 -0.38080
C15 C -0.1281(3) -0.5702(3) -0.2818(2)
C16 C -0.2454(3) -0.6148(3) -0.2624(2)
H6 H -0.27940 -0.59830 -0.20840
C17 C -0.3113(3) -0.6824(3) -0.3216(2)
H7 H -0.39000 -0.71160 -0.30720
C18 C -0.3397(3) -0.7810(3) -0.4631(2)
H8 H -0.39880 -0.82300 -0.43090
H9 H -0.27980 -0.82970 -0.48940
C19 C -0.4158(3) -0.7256(3) -0.5350(2)
H10 H -0.47350 -0.77570 -0.56870
H11 H -0.46800 -0.66990 -0.51000
C20 C -0.0520(3) -0.4996(3) -0.2226(2)
H12 H 0.02660 -0.47540 -0.24150
C21 C -0.0834(3) -0.4652(3) -0.1428(2)
H13 H -0.16360 -0.48800 -0.12560
C22 C -0.0084(3) -0.3972(3) -0.0802(2)
C23 C 0.1150(3) -0.3599(3) -0.0943(2)
H14 H 0.15000 -0.37660 -0.14790
C24 C 0.1868(3) -0.2995(3) -0.0318(2)
H15 H 0.26920 -0.27600 -0.04410
C25 C 0.1402(3) -0.2723(3) 0.0495(2)
C26 C 0.0147(3) -0.3101(3) 0.0644(2)
H16 H -0.02030 -0.29430 0.11820
C27 C -0.0557(3) -0.3696(3) 0.0009(2)
H17 H -0.13860 -0.39260 0.01240
C28 C 0.3419(3) -0.1842(3) 0.0995(3)
H18 H 0.39380 -0.24730 0.10480
H19 H 0.37300 -0.13210 0.14390
H20 H 0.34800 -0.15570 0.04170
C29 C 0.1627(3) -0.1895(3) 0.1987(2)
H21 H 0.07780 -0.15840 0.19260
H22 H 0.22160 -0.14120 0.23190
H23 H 0.15810 -0.25520 0.22940
N3 N 0.2008(2) 0.1048(2) 0.07207(17)
N4 N -0.2649(2) -0.3845(2) -0.45162(18)
O27 O 0.3330(2) 0.05033(19) 0.24748(16)
H24 H 0.30540 0.08090 0.29110
C30 C 0.2481(3) 0.0805(3) -0.0053(2)
H25 H 0.32760 0.10980 -0.01800
C31 C 0.1837(3) 0.0141(3) -0.0666(2)
H26 H 0.21960 -0.00140 -0.12010
C32 C 0.0657(3) -0.0303(3) -0.0501(2)
C33 C 0.0218(3) -0.0045(3) 0.0320(2)
H27 H -0.05650 -0.03390 0.04700
C34 C 0.0881(3) 0.0614(3) 0.0909(2)
H28 H 0.05490 0.07690 0.14530
C35 C 0.2706(3) 0.1779(3) 0.1372(2)
H29 H 0.20930 0.20740 0.17680
H30 H 0.30650 0.23650 0.10620
C36 C 0.3769(3) 0.1257(3) 0.1903(2)
H31 H 0.43420 0.09110 0.15050
H32 H 0.42740 0.17980 0.22500
C37 C -0.0116(3) -0.0981(3) -0.1119(2)
H33 H -0.08950 -0.12420 -0.09320
C38 C 0.0176(3) -0.1267(3) -0.1928(2)
H34 H 0.09570 -0.10010 -0.21050
C39 C -0.0567(3) -0.1941(3) -0.2570(2)
C40 C -0.0075(3) -0.2211(3) -0.3368(2)
H35 H 0.07380 -0.19410 -0.34820
C41 C -0.0719(3) -0.2853(3) -0.4001(2)
H36 H -0.03300 -0.30330 -0.45210
C42 C -0.1954(3) -0.3239(3) -0.3871(2)
C43 C -0.2478(3) -0.2976(3) -0.3069(2)
H37 H -0.32970 -0.32350 -0.29590
C44 C -0.1795(3) -0.2340(3) -0.2439(2)
H38 H -0.21670 -0.21720 -0.19110
C45 C -0.2034(3) -0.4194(3) -0.5301(2)
H39 H -0.17190 -0.35860 -0.55920
H40 H -0.26550 -0.45780 -0.56960
H41 H -0.13200 -0.46520 -0.51360
C46 C -0.3897(3) -0.4282(3) -0.4359(2)
H42 H -0.38000 -0.47770 -0.38860
H43 H -0.42610 -0.46450 -0.48880
H44 H -0.44650 -0.37180 -0.41970
N5 N -0.3747(3) -0.1520(2) -0.5202(2)
N6 N 0.1001(3) 0.3489(3) -0.0081(2)
O28 O -0.4531(2) -0.0662(2) -0.6843(2)
H45 H -0.51250 -0.02990 -0.70640
C47 C -0.4495(3) -0.1307(3) -0.4544(3)
H46 H -0.53340 -0.15910 -0.45740
C48 C -0.4076(3) -0.0691(3) -0.3831(3)
H47 H -0.46300 -0.05560 -0.33830
C49 C -0.2839(4) -0.0261(3) -0.3760(3)
C50 C -0.2093(3) -0.0489(3) -0.4458(3)
H48 H -0.12580 -0.02020 -0.44520
C51 C -0.2552(4) -0.1122(3) -0.5156(3)
H49 H -0.20150 -0.12800 -0.56100
C52 C -0.4205(5) -0.2190(4) -0.5979(3)
H50 H -0.34540 -0.24720 -0.62550
H51 H -0.46910 -0.27890 -0.57780
C53 C -0.5016(5) -0.1647(4) -0.6642(3)
H52 H -0.51070 -0.20910 -0.71790
H53 H -0.58750 -0.15560 -0.64300
C54 C -0.2426(4) 0.0414(3) -0.2971(3)
H54 H -0.29990 0.05020 -0.25280
C55 C -0.1329(4) 0.0878(3) -0.2871(3)
H55 H -0.07910 0.07760 -0.33330
C56 C -0.0787(4) 0.1561(3) -0.2118(3)
C57 C -0.1424(4) 0.1787(3) -0.1344(3)
H56 H -0.22490 0.15030 -0.12890
C58 C -0.0844(4) 0.2423(3) -0.0664(3)
H57 H -0.12760 0.25550 -0.01540
C59 C 0.0394(3) 0.2871(3) -0.0738(3)
C60 C 0.0978(4) 0.2638(3) -0.1518(3)
H58 H 0.17960 0.29270 -0.15910
C61 C 0.0406(4) 0.2008(3) -0.2175(3)
H59 H 0.08430 0.18760 -0.26840
C62 C 0.0347(4) 0.3789(4) 0.0694(3)
H60 H -0.04290 0.41710 0.05200
H61 H 0.09110 0.42350 0.10810
H62 H 0.01230 0.31600 0.09970
C63 C 0.2219(4) 0.3984(4) -0.0194(3)
H63 H 0.28700 0.34470 -0.02480
H64 H 0.24590 0.44450 0.03100
H65 H 0.21510 0.43940 -0.07210
N7 N -0.2505(2) 0.0362(2) 0.20767(18)
N8 N -0.6770(3) -0.4569(3) -0.3241(2)
O29 O -0.0954(5) 0.2207(4) 0.2055(3)
H66 H -0.11450 0.28420 0.20780
C64 C -0.3094(3) 0.0704(3) 0.1329(2)
H67 H -0.32910 0.14240 0.12800
C65 C -0.3418(3) 0.0010(3) 0.0626(2)
H68 H -0.38090 0.02700 0.01030
C66 C -0.3172(3) -0.1072(3) 0.0685(2)
C67 C -0.2495(3) -0.1374(3) 0.1466(2)
H69 H -0.22500 -0.20820 0.15270
C68 C -0.2182(3) -0.0663(3) 0.2143(2)
H70 H -0.17360 -0.08920 0.26590
C69 C -0.2297(3) 0.1119(3) 0.2850(2)
H71 H -0.30520 0.15730 0.28780
H72 H -0.22120 0.07210 0.33910
C70 C -0.1116(4) 0.1796(4) 0.2796(3)
H73 H -0.11400 0.23690 0.32390
H74 H -0.03610 0.13670 0.29570
C71 C -0.3604(3) -0.1866(3) 0.0029(2)
H75 H -0.33490 -0.25660 0.01220
C72 C -0.4348(3) -0.1672(3) -0.0705(2)
H76 H -0.45190 -0.09590 -0.08170
C73 C -0.4917(3) -0.2443(3) -0.1347(2)
C74 C -0.5711(3) -0.2088(3) -0.2052(2)
H77 H -0.58400 -0.13590 -0.21070
C75 C -0.6317(3) -0.2780(3) -0.2677(2)
H78 H -0.68410 -0.25070 -0.31430
C76 C -0.6164(3) -0.3878(3) -0.2628(2)
C77 C -0.5367(3) -0.4241(3) -0.1915(2)
H79 H -0.52390 -0.49690 -0.18570
C78 C -0.4770(3) -0.3541(3) -0.1302(2)
H80 H -0.42440 -0.38110 -0.08360
C79 C -0.7461(4) -0.4166(3) -0.4021(3)
H81 H -0.81900 -0.37550 -0.38520
H82 H -0.77650 -0.47520 -0.44050
H83 H -0.68900 -0.37230 -0.43270
C80 C -0.6657(2) -0.57016(18) -0.3181(3)
H84 H -0.57840 -0.59080 -0.32800
H85 H -0.72500 -0.60440 -0.36210
H86 H -0.68620 -0.59110 -0.26010
O30 O 0.5066(2) 0.09405(18) -0.12814(17)
H87 H 0.57320 0.10850 -0.16310
H88 H 0.52760 0.12760 -0.07750
H89? H 0.01890 0.10650 0.32120
O31? O -0.0060(4) 0.1302(5) 0.2727(3)
Mn1* Mn 1.15472(4) 0.49421(4) 0.33706(3)
O5* O -0.0306(2) 0.47064(19) 0.27187(15)
#END
