
#######################################################################
#
#                 Cambridge Crystallographic Data Centre
#                                CCDC
#
#######################################################################
#
# If this CIF has been generated from an entry in the Cambridge
# Structural Database, then it will include bibliographic, chemical,
# crystal, experimental, refinement or atomic coordinate data resulting
# from the CCDC's data processing and validation procedures.
#
#######################################################################

data_CSD_CIF_EDADAP
_audit_creation_date 2006-05-29
_audit_creation_method CSD-ConQuest-V1
_database_code_CSD EDADAP
_database_code_depnum_ccdc_archive 'CCDC 285624'
_chemical_formula_sum 'C20 H46 B1 Cu3 K1 N4 O54 W12'
_chemical_formula_moiety
;
(K1 1+)n,2n(H1 1+),n(C20 H34 B1 Cu3 N4 O49 W12 3-),5n(H2 O1)
;
_journal_coden_Cambridge 179
_journal_volume 45
_journal_year 2006
_journal_page_first 904
_journal_name_full 'Angew.Chem.,Int.Ed. '
loop_
_publ_author_name
"Hai-Yan An"
"En-Bo Wang"
"Dong-Rong Xiao"
"Yang-Guang Li"
"Zhong-Min Su"
"Lin Xu"
_chemical_name_systematic
;
catena-(Potassium dihydrogen 
(\m~12~-borato)-tetrakis(\m~2~-L-prolyl)-hexacosakis(\m~2~-oxo)-decaoxo-aqua-t
ri-copper(ii)-dodeca-tungsten pentahydrate)
;
_cell_volume  14918.544
_exptl_crystal_colour 'blue'
_exptl_crystal_density_diffrn 3.253
_exptl_special_details
;
Absolute configuration

;
_exptl_crystal_description 'block'
_diffrn_ambient_temperature 293
_refine_special_details
;
A C atom from a proline ring is disordered over two sites with occupancies 
0.65:0.35. A number of water molecules are also disordered.
;
#These two values have been output from a single CSD field.
_refine_ls_R_factor_gt 0.0401
_refine_ls_wR_factor_gt 0.0401
loop_
_citation_database_id_CSD
_citation_special_details
ECEFIC "is a stereoisomer of this entry"
_symmetry_cell_setting tetragonal
_symmetry_space_group_name_H-M 'P 41 21 2'
_symmetry_Int_Tables_number 92
loop_
_symmetry_equiv_pos_site_id
_symmetry_equiv_pos_as_xyz
1 x,y,z
2 -x,-y,1/2+z
3 1/2-y,1/2+x,1/4+z
4 1/2+y,1/2-x,3/4+z
5 1/2-x,1/2+y,1/4-z
6 1/2+x,1/2-y,3/4-z
7 y,x,-z
8 -y,-x,1/2-z
_cell_length_a 23.897(3)
_cell_length_b 23.897(3)
_cell_length_c 26.124(5)
_cell_angle_alpha 90
_cell_angle_beta 90
_cell_angle_gamma 90
_cell_formula_units_Z 8
loop_
_atom_type_symbol
_atom_type_radius_bond
C 0.73
H 0.23
B 0.83
Cu 1.52
K 1.33
N 0.68
O 0.68
W 1.37
loop_
_atom_site_label
_atom_site_type_symbol
_atom_site_fract_x
_atom_site_fract_y
_atom_site_fract_z
B1 B -0.2951(10) 0.2591(9) 0.0020(9)
W1 W -0.26221(4) 0.11972(4) -0.02697(4)
W2 W -0.38963(4) 0.16564(4) -0.04972(3)
W3 W -0.43024(4) 0.30845(4) -0.01430(4)
W4 W -0.23961(4) 0.36549(4) -0.07374(3)
W5 W -0.33757(4) 0.28387(4) -0.12326(3)
W6 W -0.20967(4) 0.23475(4) -0.10488(4)
W7 W -0.19269(4) 0.34357(4) 0.05768(3)
W8 W -0.15815(4) 0.21513(4) 0.02549(4)
W9 W -0.34902(4) 0.14669(4) 0.06992(3)
W10 W -0.24169(4) 0.23755(4) 0.12538(4)
W11 W -0.33487(4) 0.39381(4) 0.03221(4)
W12 W -0.38296(4) 0.29051(4) 0.10402(4)
O1 O -0.3150(5) 0.2001(5) 0.0000(5)
O2 O -0.2441(5) 0.2636(5) 0.0365(5)
O3 O -0.2771(5) 0.2784(5) -0.0530(4)
O4 O -0.3401(5) 0.2974(5) 0.0210(5)
O5 O -0.3338(6) 0.1105(5) -0.0598(5)
O6 O -0.2650(5) 0.3769(5) 0.0610(5)
O7 O -0.1353(5) 0.2890(6) 0.0431(5)
O8 O -0.1640(5) 0.2348(5) -0.0435(5)
O9 O -0.2701(5) 0.2459(5) -0.1493(4)
O10 O -0.2971(6) 0.3949(5) -0.0330(5)
O11 O -0.4043(5) 0.3841(5) -0.0002(5)
O12 O -0.4021(5) 0.1333(5) 0.0169(5)
O13 O -0.2051(5) 0.3086(5) 0.1210(5)
O14 O -0.3616(5) 0.2124(5) -0.1001(5)
O15 O -0.3906(5) 0.3145(6) -0.0788(5)
O16 O -0.2971(5) 0.0966(5) 0.0344(5)
O17 O -0.2856(6) 0.1762(5) 0.1047(5)
O18 O -0.3864(5) 0.2126(5) 0.0898(4)
O19 O -0.3113(6) 0.2782(5) 0.1285(5)
O20 O -0.1963(5) 0.3590(5) -0.0139(5)
O21 O -0.1934(6) 0.3142(5) -0.1099(5)
O22 O -0.1755(5) 0.2048(6) 0.0967(5)
O23 O -0.2389(5) 0.1661(5) -0.0825(5)
O24 O -0.4286(5) 0.2303(5) -0.0258(5)
O25 O -0.4438(5) 0.2992(5) 0.0575(5)
O26 O -0.2030(5) 0.1500(5) 0.0116(5)
O27 O -0.3686(5) 0.3672(5) 0.0953(5)
O28 O -0.6020(6) -0.1530(5) -0.0779(5)
O29 O -0.3733(6) 0.2903(7) -0.1804(6)
O30 O -0.1604(6) 0.2141(6) -0.1477(5)
O31 O -0.2312(7) 0.2197(7) 0.1881(6)
O32 O -0.2155(6) 0.4278(5) -0.0986(5)
O33 O -0.2976(5) 0.3523(5) -0.1236(5)
O34 O -0.4964(5) 0.3242(6) -0.0353(5)
O35 O -0.3719(7) 0.0988(5) 0.1145(5)
O36 O -0.2348(6) 0.0584(6) -0.0443(6)
O37 O -0.0940(5) 0.1855(6) 0.0270(6)
O38 O -0.4226(7) 0.2910(7) 0.1570(6)
O39 O -0.4430(5) 0.1331(6) -0.0838(5)
O40 O -0.3384(6) 0.4644(6) 0.0443(6)
K1 K -0.4934(3) 0.0516(3) 0.1558(2)
Cu1 Cu -0.50435(11) -0.15879(11) -0.10842(10)
Cu2 Cu -0.53051(11) 0.00130(11) -0.2181(1)
Cu3 Cu -0.54776(11) 0.12589(11) -0.07743(10)
O41 O -0.4933(6) -0.1087(6) -0.0498(5)
O42 O -0.5185(6) -0.0960(6) -0.1545(6)
O43 O -0.5224(5) -0.0758(6) -0.2382(5)
O44 O -0.4891(6) -0.1111(6) 0.0362(5)
O45 O -0.5106(6) 0.0474(5) 0.0522(5)
O46 O -0.5413(6) 0.0793(6) -0.2235(5)
O47 O -0.5404(5) 0.0772(6) -0.1379(5)
O48 O -0.5224(6) 0.0649(6) -0.0307(5)
N1 N -0.4817(7) -0.2180(7) -0.0590(6)
H1 H -0.50790 -0.21330 -0.08120
C1 C -0.4887(9) -0.1351(9) -0.009(1)
C2 C -0.4862(9) -0.1987(9) -0.0089(9)
H2 H -0.52150 -0.21270 0.00530
C3 C -0.4394(4) -0.2188(4) 0.0254(4)
H3 H -0.43110 -0.19240 0.05270
H4 H -0.44690 -0.25540 0.03980
H5? H -0.45330 -0.23590 0.05660
H6? H -0.41430 -0.18830 0.03420
C4 C -0.4276(4) -0.2480(4) -0.0719(4)
H7 H -0.40960 -0.23430 -0.10270
H8 H -0.43050 -0.28850 -0.07250
H9? H -0.40100 -0.22260 -0.08750
H10? H -0.43310 -0.28010 -0.09410
C5 C -0.3965(4) -0.2203(4) -0.0124(4)
H11 H -0.36610 -0.24420 -0.00110
H12 H -0.38180 -0.18300 -0.01810
C6? C -0.4073(4) -0.2672(4) -0.0140(4)
H13? H -0.36690 -0.26550 -0.01080
H14? H -0.41970 -0.30490 -0.00620
N2 N -0.5103(4) -0.2078(4) -0.1697(4)
H15 H -0.47590 -0.22220 -0.17660
C7 C -0.5208(4) -0.1106(4) -0.2043(4)
C8 C -0.5272(4) -0.1706(4) -0.2133(4)
H16 H -0.50590 -0.18110 -0.24390
C9 C -0.5914(10) -0.1863(10) -0.2218(10)
H17 H -0.61500 -0.16820 -0.19650
H18 H -0.60390 -0.17560 -0.25570
C10 C -0.5920(9) -0.2498(10) -0.2151(9)
H19 H -0.62930 -0.26360 -0.20750
H20 H -0.57760 -0.26880 -0.24520
C11 C -0.5535(10) -0.2561(10) -0.1703(9)
H21 H -0.53420 -0.29170 -0.17240
H22 H -0.57500 -0.25560 -0.13880
N3 N -0.5651(7) 0.1870(7) -0.1283(6)
H23 H -0.60150 0.19740 -0.12440
C12 C -0.5458(9) 0.1032(8) -0.1801(9)
C13 C -0.5572(8) 0.1682(8) -0.1793(8)
H24 H -0.59210 0.17490 -0.19800
C14 C -0.5128(9) 0.2030(9) -0.2034(8)
H25 H -0.47620 0.18580 -0.20000
H26 H -0.52050 0.20990 -0.23930
C15 C -0.5168(10) 0.2504(11) -0.1752(9)
H27 H -0.54580 0.27430 -0.18930
H28 H -0.48160 0.27060 -0.17640
C16 C -0.5295(10) 0.2374(10) -0.1254(9)
H29 H -0.54950 0.26790 -0.10920
H30 H -0.49580 0.22980 -0.10600
N4 N -0.5443(6) 0.1749(6) -0.0139(6)
H31 H -0.52320 0.17560 -0.04060
C17 C -0.5197(9) 0.0796(9) 0.0157(10)
C18 C -0.5359(9) 0.1406(9) 0.0313(9)
H32 H -0.50630 0.15680 0.05270
C19 C -0.5934(9) 0.1446(9) 0.0597(9)
H33 H -0.61980 0.11770 0.04590
H34 H -0.58880 0.13750 0.09600
C20 C -0.6128(11) 0.2014(10) 0.0510(9)
H35 H -0.59380 0.22810 0.07290
H36 H -0.65290 0.20470 0.05580
C21 C -0.5960(9) 0.2089(9) -0.0061(8)
H37 H -0.62570 0.19580 -0.02840
H38 H -0.58870 0.24800 -0.01350
O49 O -0.6375(7) 0.0887(7) -0.0602(6)
O50 O -0.4879(6) 0.1688(7) 0.1516(6)
O51 O -0.4766(17) -0.1428(17) 0.1506(15)
O52? O -0.4704(13) -0.1121(15) 0.1642(12)
O53 O -0.4757(13) -0.2480(13) 0.1527(12)
O54 O -0.4879(17) 0.5161(17) 0.1185(17)
O55 O -0.527(4) 0.495(4) 0.051(4)
O56 O -0.3732(16) 0.4586(16) -0.1066(15)
O57 O -0.116(3) 0.126(3) 0.160(3)
O58? O -0.088(2) 0.154(2) 0.152(2)
O59 O -0.394(2) 0.254(2) -0.2768(19)
O60? O 0.0872(19) 0.188(2) 0.0314(17)
O61 O -0.342(4) 0.496(4) -0.200(4)
O62? O -0.330(3) 0.506(3) -0.165(3)
O63 O -0.089(3) 0.092(3) -0.113(3)
O64? O -0.579(3) 0.449(3) 0.088(3)
W7F W -0.65643(4) -0.19269(4) -0.05768(3)
O28F O -0.1530(6) 0.3980(5) 0.0779(5)
Cu2B Cu -0.50130(11) -0.03051(11) 0.0319(1)
O44C O -0.6111(6) -0.0109(6) -0.2138(5)
O45C O -0.4526(6) 0.0106(5) -0.1978(5)
#END
