
#######################################################################
#
#                 Cambridge Crystallographic Data Centre
#                                CCDC
#
#######################################################################
#
# If this CIF has been generated from an entry in the Cambridge
# Structural Database, then it will include bibliographic, chemical,
# crystal, experimental, refinement or atomic coordinate data resulting
# from the CCDC's data processing and validation procedures.
#
#######################################################################

data_CSD_CIF_EDASUA
_audit_creation_date 2017-10-16
_audit_creation_method CSD-ConQuest-V1
_database_code_CSD EDASUA
_database_code_depnum_ccdc_archive 'CCDC 1537511'
_chemical_formula_sum 'C36 H49 Cu6 I7 K1 N13 O6 P2'
_chemical_formula_moiety
;
(C30 H30 Cu6 I7 N12 O2 P2 1-)n,K1 1+,2(C2 H6 O1),2(H2 O1),C2 H3 N1
;
_journal_coden_Cambridge 1096
_journal_volume 29
_journal_year 2017
_journal_page_first 8093
_journal_name_full 'Chem.Mater. '
loop_
_publ_author_name
"Muxin Yu"
"Lian Chen"
"Feilong Jiang"
"Kang Zhou"
"Caiping Liu"
"Cai Sun"
"Xingjun Li"
"Yan Yang"
"Maochun Hong"
_chemical_name_systematic
;
catena-[potassium heptakis(\m-iodo)-bis(\m-N,N',N''-tripyridin-3-ylphosphoric 
triamide)-hexa-copper(i) ethanol acetonitrile solvate]
;
_cell_volume   8792.080
_exptl_crystal_colour 'colorless'
_exptl_crystal_description 'block'
_diffrn_ambient_temperature 100.0
#These two values have been output from a single CSD field.
_refine_ls_R_factor_gt 0.0471
_refine_ls_wR_factor_gt 0.0471
_symmetry_cell_setting rhombohedral
_symmetry_space_group_name_H-M 'R -3 c'
_symmetry_Int_Tables_number 167
loop_
_symmetry_equiv_pos_site_id
_symmetry_equiv_pos_as_xyz
1 x,y,z
2 -y,x-y,z
3 -x+y,-x,z
4 x-y,-y,1/2-z
5 -x,-x+y,1/2-z
6 y,x,1/2-z
7 2/3+x,1/3+y,1/3+z
8 2/3-y,1/3+x-y,1/3+z
9 2/3-x+y,1/3-x,1/3+z
10 2/3+x-y,1/3-y,5/6-z
11 2/3-x,1/3-x+y,5/6-z
12 2/3+y,1/3+x,5/6-z
13 1/3+x,2/3+y,2/3+z
14 1/3-y,2/3+x-y,2/3+z
15 1/3-x+y,2/3-x,2/3+z
16 1/3+x-y,2/3-y,1/6-z
17 1/3-x,2/3-x+y,1/6-z
18 1/3+y,2/3+x,1/6-z
19 -x,-y,-z
20 y,-x+y,-z
21 x-y,x,-z
22 -x+y,y,-1/2+z
23 x,x-y,-1/2+z
24 -y,-x,-1/2+z
25 -2/3-x,-1/3-y,-1/3-z
26 -2/3+y,-1/3-x+y,-1/3-z
27 -2/3+x-y,-1/3+x,-1/3-z
28 -2/3-x+y,-1/3+y,-5/6+z
29 -2/3+x,-1/3+x-y,-5/6+z
30 -2/3-y,-1/3-x,-5/6+z
31 -1/3-x,-2/3-y,-2/3-z
32 -1/3+y,-2/3-x+y,-2/3-z
33 -1/3+x-y,-2/3+x,-2/3-z
34 -1/3-x+y,-2/3+y,-1/6+z
35 -1/3+x,-2/3+x-y,-1/6+z
36 -1/3-y,-2/3-x,-1/6+z
_cell_length_a 14.3646(8)
_cell_length_b 14.3646(8)
_cell_length_c 49.201(3)
_cell_angle_alpha 90
_cell_angle_beta 90
_cell_angle_gamma 120
_cell_formula_units_Z 6
loop_
_atom_type_symbol
_atom_type_radius_bond
C 0.68
H 0.23
Cu 1.32
I 1.40
K 2.03
N 0.68
O 0.68
P 1.05
loop_
_atom_site_label
_atom_site_type_symbol
_atom_site_fract_x
_atom_site_fract_y
_atom_site_fract_z
I1 I 1.00000 1.00000 0.50000
I2 I 0.84457(4) 0.79708(4) 0.572079(10)
Cu1 Cu 0.87668(10) 0.97108(10) 0.54788(3)
C1 C 0.5446(6) 0.8214(6) 0.52368(18)
N1 N 0.7340(6) 0.9397(6) 0.53063(15)
C2 C 0.6414(6) 0.8512(6) 0.53677(15)
H1 H 0.64160 0.80620 0.55090
C3 C 0.5440(8) 0.8859(8) 0.5031(2)
H2 H 0.48020 0.86650 0.49310
C4 C 0.7322(8) 1.0050(8) 0.5110(2)
H3 H 0.79660 1.06950 0.50670
P1 P 0.33330 0.66670 0.51769(7)
O1 O 0.33330 0.66670 0.4878(2)
N2 N 0.4544(5) 0.7241(5) 0.53126(13)
H4 H 0.46350 0.68950 0.54480
C5 C 0.6394(8) 0.9803(9) 0.4972(3)
H5 H 0.64040 1.02780 0.48360
K1 K 0.33330 0.66670 0.4373(2)
C1A C 0.1786(6) 0.7232(6) 0.52368(18)
N1A N 0.0603(6) 0.7943(6) 0.53063(15)
C2A C 0.1488(6) 0.7902(6) 0.53677(15)
H1A H 0.19380 0.83540 0.55090
C3A C 0.1141(8) 0.6581(8) 0.5031(2)
H2A H 0.13350 0.61370 0.49310
C4A C -0.0050(8) 0.7272(8) 0.5110(2)
H3A H -0.06950 0.72710 0.50670
N2A N 0.2759(5) 0.7303(5) 0.53126(13)
H4A H 0.31050 0.77400 0.54480
C5A C 0.0197(8) 0.6591(9) 0.4972(3)
H5A H -0.02780 0.61260 0.48360
C1B C 0.2768(6) 0.4554(6) 0.52368(18)
N1B N 0.2057(6) 0.2660(6) 0.53063(15)
C2B C 0.2098(6) 0.3586(6) 0.53677(15)
H1B H 0.16460 0.35840 0.55090
C3B C 0.3419(8) 0.4560(8) 0.5031(2)
H2B H 0.38630 0.51980 0.49310
C4B C 0.2728(8) 0.2678(8) 0.5110(2)
H3B H 0.27290 0.20340 0.50670
N2B N 0.2697(5) 0.5456(5) 0.53126(13)
H4B H 0.22600 0.53650 0.54480
C5B C 0.3409(8) 0.3606(9) 0.4972(3)
H5B H 0.38740 0.35960 0.48360
I2A I 0.20292(4) 1.04749(4) 0.572079(10)
Cu1A Cu 0.02892(10) 0.9056(1) 0.54788(3)
I2B I -0.04749(4) 0.15543(4) 0.572079(10)
Cu1B Cu 0.0944(1) 0.12332(10) 0.54788(3)
I2R I 1.15543(4) 1.20292(4) 0.427921(10)
Cu1R Cu 1.12332(10) 1.02892(10) 0.45212(3)
C1R C 1.4554(6) 1.1786(6) 0.47632(18)
N1R N 1.2660(6) 1.0603(6) 0.46937(15)
C2R C 1.3586(6) 1.1488(6) 0.46323(15)
H1R H 1.35840 1.19380 0.44910
C3R C 1.4560(8) 1.1141(8) 0.4969(2)
H2R H 1.51980 1.13350 0.50690
C4R C 1.2678(8) 0.9950(8) 0.4890(2)
H3R H 1.20340 0.93050 0.49330
P1R P 1.66670 1.33330 0.48231(7)
O1R O 1.66670 1.33330 0.5122(2)
N2R N 1.5456(5) 1.2759(5) 0.46874(13)
H4R H 1.53650 1.31050 0.45520
C5R C 1.3606(8) 1.0197(9) 0.5028(3)
H5R H 1.35960 0.97220 0.51640
C1S C 1.8214(6) 1.2768(6) 0.47632(18)
N1S N 1.9397(6) 1.2057(6) 0.46937(15)
C2S C 1.8512(6) 1.2098(6) 0.46323(15)
H1S H 1.80620 1.16460 0.44910
C3S C 1.8859(8) 1.3419(8) 0.4969(2)
H2S H 1.86650 1.38630 0.50690
C4S C 2.0050(8) 1.2728(8) 0.4890(2)
H3S H 2.06950 1.27290 0.49330
N2S N 1.7241(5) 1.2697(5) 0.46874(13)
H4S H 1.68950 1.22600 0.45520
C5S C 1.9803(8) 1.3409(9) 0.5028(3)
H5S H 2.02780 1.38740 0.51640
C1T C 1.7232(6) 1.5446(6) 0.47632(18)
N1T N 1.7943(6) 1.7340(6) 0.46937(15)
C2T C 1.7902(6) 1.6414(6) 0.46323(15)
H1T H 1.83540 1.64160 0.44910
C3T C 1.6581(8) 1.5440(8) 0.4969(2)
H2T H 1.61370 1.48020 0.50690
C4T C 1.7272(8) 1.7322(8) 0.4890(2)
H3T H 1.72710 1.79660 0.49330
N2T N 1.7303(5) 1.4544(5) 0.46874(13)
H4T H 1.77400 1.46350 0.45520
C5T C 1.6591(8) 1.6394(9) 0.5028(3)
H5T H 1.61260 1.64040 0.51640
I2S I 0.79708(4) 0.95251(4) 0.427921(10)
Cu1S Cu 0.97108(10) 1.0944(1) 0.45212(3)
I2T I 1.04749(4) 0.84457(4) 0.427921(10)
Cu1T Cu 0.9056(1) 0.87668(10) 0.45212(3)
I1* I 0.00000 0.00000 0.50000
I1** I 0.00000 1.00000 0.50000
I2* I -0.15543(4) 0.79708(4) 0.572079(10)
I2A* I 0.20292(4) 0.04749(4) 0.572079(10)
I2B* I 0.95251(4) 1.15543(4) 0.572079(10)
Cu1* Cu -0.12332(10) -0.02892(10) 0.54788(3)
Cu1A* Cu 1.02892(10) 0.9056(1) 0.54788(3)
Cu1B* Cu 0.0944(1) 1.12332(10) 0.54788(3)
Cu1B** Cu 1.0944(1) 1.12332(10) 0.54788(3)
Cu1S* Cu 1.97108(10) 1.0944(1) 0.45212(3)
Cu1T* Cu 1.9056(1) 1.87668(10) 0.45212(3)
N1S* N 0.9397(6) 1.2057(6) 0.46937(15)
N1T* N 0.7943(6) 0.7340(6) 0.46937(15)
#END
