
#######################################################################
#
#                 Cambridge Crystallographic Data Centre
#                                CCDC
#
#######################################################################
#
# If this CIF has been generated from an entry in the Cambridge
# Structural Database, then it will include bibliographic, chemical,
# crystal, experimental, refinement or atomic coordinate data resulting
# from the CCDC's data processing and validation procedures.
#
#######################################################################

data_CSD_CIF_EDEDUN01
_audit_creation_date 2007-09-06
_audit_creation_method CSD-ConQuest-V1
_database_code_CSD EDEDUN01
_database_code_depnum_ccdc_archive 'CCDC 618797'
_chemical_formula_sum 'C52 H48 Cu1 N12 P2'
_chemical_formula_moiety
;
(C8 Cu1 N12 2-)n,2n(C22 H24 P1 1+)
;
_journal_coden_Cambridge 580
_journal_volume 26
_journal_year 2007
_journal_page_first 2264
_journal_name_full 'Polyhedron '
loop_
_publ_author_name
"J.A.Schlueter"
"J.L.Manson"
"K.A.Hyzer"
"U.Geiser"
_chemical_name_systematic
;
catena-(n-Butyltriphenylphosphonium 
bis(\m~2~-dicyanamide-N,N')-bis(dicyanamide-N)-copper(ii))
;
_chemical_melting_point 382.15
_cell_volume   2386.522
_exptl_crystal_colour 'green blue'
_exptl_crystal_density_diffrn 1.345
_exptl_special_details
;
magnetic properties

;
_exptl_crystal_description 'rod'
_diffrn_ambient_temperature 150
#These two values have been output from a single CSD field.
_refine_ls_R_factor_gt 0.034
_refine_ls_wR_factor_gt 0.034
_symmetry_cell_setting monoclinic
_symmetry_space_group_name_H-M 'P 21/n'
_symmetry_Int_Tables_number 14
loop_
_symmetry_equiv_pos_site_id
_symmetry_equiv_pos_as_xyz
1 x,y,z
2 1/2-x,1/2+y,1/2-z
3 -x,-y,-z
4 -1/2+x,-1/2-y,-1/2+z
_cell_length_a 15.466(10)
_cell_length_b 7.460(5)
_cell_length_c 21.153(14)
_cell_angle_alpha 90
_cell_angle_beta 102.079(10)
_cell_angle_gamma 90
_cell_formula_units_Z 2
loop_
_atom_type_symbol
_atom_type_radius_bond
C 0.68
H 0.23
Cu 1.52
N 0.68
P 1.05
loop_
_atom_site_label
_atom_site_type_symbol
_atom_site_fract_x
_atom_site_fract_y
_atom_site_fract_z
Cu1 Cu 1.00000 1.00000 0.00000
C1 C 0.88357(11) 1.0140(2) 0.10282(8)
C2 C 0.76722(12) 1.0838(2) 0.14925(9)
N1 N 0.92832(10) 1.01780(19) 0.06616(7)
N2 N 0.70261(13) 1.1502(3) 0.15489(10)
N3 N 0.84009(10) 0.9943(2) 0.14875(8)
C3 C 1.12652(11) 1.6504(2) 0.06924(8)
C4 C 1.10406(11) 1.3516(2) 0.04976(9)
N4 N 1.06657(9) 1.22069(19) 0.03429(7)
N5 N 1.1081(1) 1.7991(2) 0.07144(8)
N6 N 1.15629(12) 1.4860(2) 0.06893(12)
P1 P 0.48180(3) 0.31880(5) 0.181686(19)
C5 C 0.40907(10) 0.4654(2) 0.21307(7)
C6 C 0.40644(11) 0.4650(2) 0.27862(8)
H1 H 0.44030 0.38040 0.30700
C7 C 0.35394(11) 0.5892(2) 0.30210(8)
H2 H 0.35210 0.58960 0.34670
C8 C 0.30419(11) 0.7125(2) 0.26062(9)
H3 H 0.26860 0.79720 0.27710
C9 C 0.30601(11) 0.7131(2) 0.19523(8)
H4 H 0.27140 0.79710 0.16690
C10 C 0.35853(11) 0.5906(2) 0.17158(8)
H5 H 0.36030 0.59130 0.12700
C11 C 0.55405(11) 0.4597(2) 0.14691(8)
C12 C 0.56034(12) 0.4471(3) 0.08254(9)
H6 H 0.52420 0.36470 0.05450
C13 C 0.61987(13) 0.5558(3) 0.05926(9)
H7 H 0.62460 0.54710 0.01530
C14 C 0.67156(13) 0.6750(3) 0.09944(10)
H8 H 0.71150 0.74980 0.08310
C15 C 0.66620(15) 0.6875(3) 0.16359(10)
H9 H 0.70320 0.76880 0.19150
C16 C 0.60652(13) 0.5809(3) 0.18740(9)
H10 H 0.60170 0.59110 0.23130
C17 C 0.42292(10) 0.1705(2) 0.12078(7)
C18 C 0.33165(11) 0.1794(2) 0.09797(8)
H11 H 0.29800 0.26950 0.11350
C19 C 0.29006(12) 0.0558(3) 0.05244(8)
H12 H 0.22790 0.06140 0.03680
C20 C 0.33906(13) -0.0753(3) 0.02980(8)
H13 H 0.31040 -0.15940 -0.00140
C21 C 0.42984(13) -0.0847(2) 0.05235(9)
H14 H 0.46300 -0.17520 0.03660
C22 C 0.47228(12) 0.0369(2) 0.09767(9)
H15 H 0.53450 0.03010 0.11310
C23 C 0.54641(11) 0.1840(2) 0.24466(8)
H16 H 0.59670 0.13220 0.22860
H17 H 0.57120 0.26260 0.28170
C24 C 0.49545(13) 0.0309(2) 0.26872(9)
H18 H 0.46920 -0.04710 0.23180
H19 H 0.44660 0.08150 0.28680
C25 C 0.55568(14) -0.0818(2) 0.32066(9)
H20 H 0.52240 -0.18840 0.33010
H21 H 0.60660 -0.12470 0.30320
C26 C 0.59020(15) 0.0169(3) 0.38293(10)
H22 H 0.62870 -0.06270 0.41330
H23 H 0.54040 0.05560 0.40170
H24 H 0.62390 0.12200 0.37430
Cu1* Cu 1.00000 2.00000 0.00000
Cu1** Cu 1.00000 0.00000 0.00000
C1B C 1.11643(11) 0.9860(2) -0.10282(8)
C2B C 1.23278(12) 0.9162(2) -0.14925(9)
N1B N 1.07168(10) 0.98220(19) -0.06616(7)
N2B N 1.29739(13) 0.8498(3) -0.15489(10)
N3B N 1.15991(10) 1.0057(2) -0.14875(8)
C3B C 0.87348(11) 0.3496(2) -0.06924(8)
C4B C 0.89594(11) 0.6484(2) -0.04976(9)
N4B N 0.93343(9) 0.77931(19) -0.03429(7)
N5B N 0.8919(1) 0.2009(2) -0.07144(8)
N5* N 1.1081(1) 0.7991(2) 0.07144(8)
N5B* N 0.8919(1) 1.2009(2) -0.07144(8)
N6B N 0.84371(12) 0.5140(2) -0.06893(12)
#END
