
#######################################################################
#
#                 Cambridge Crystallographic Data Centre
#                                CCDC
#
#######################################################################
#
# If this CIF has been generated from an entry in the Cambridge
# Structural Database, then it will include bibliographic, chemical,
# crystal, experimental, refinement or atomic coordinate data resulting
# from the CCDC's data processing and validation procedures.
#
#######################################################################

data_CSD_CIF_EDEDUN
_audit_creation_date 2007-09-06
_audit_creation_method CSD-ConQuest-V1
_database_code_CSD EDEDUN
_database_code_depnum_ccdc_archive 'CCDC 618796'
_chemical_formula_sum 'C52 H48 Cu1 N12 P2'
_chemical_formula_moiety
;
(C8 Cu1 N12 2-)n,2n(C22 H24 P1 1+)
;
_journal_coden_Cambridge 580
_journal_volume 26
_journal_year 2007
_journal_page_first 2264
_journal_name_full 'Polyhedron '
loop_
_publ_author_name
"J.A.Schlueter"
"J.L.Manson"
"K.A.Hyzer"
"U.Geiser"
_chemical_name_systematic
;
catena-(n-Butyltriphenylphosphonium 
bis(\m~2~-dicyanamide-N,N')-bis(dicyanamide-N)-copper(ii))
;
_chemical_melting_point 382.15
_cell_volume   2433.951
_exptl_crystal_colour 'green blue'
_exptl_crystal_density_diffrn 1.319
_exptl_special_details
;
magnetic properties

;
_exptl_crystal_description 'rod'
_diffrn_ambient_temperature 298
#These two values have been output from a single CSD field.
_refine_ls_R_factor_gt 0.038
_refine_ls_wR_factor_gt 0.038
_symmetry_cell_setting monoclinic
_symmetry_space_group_name_H-M 'P 21/n'
_symmetry_Int_Tables_number 14
loop_
_symmetry_equiv_pos_site_id
_symmetry_equiv_pos_as_xyz
1 x,y,z
2 1/2-x,1/2+y,1/2-z
3 -x,-y,-z
4 -1/2+x,-1/2-y,-1/2+z
_cell_length_a 15.541(2)
_cell_length_b 7.5256(10)
_cell_length_c 21.261(3)
_cell_angle_alpha 90
_cell_angle_beta 101.810(6)
_cell_angle_gamma 90
_cell_formula_units_Z 2
loop_
_atom_type_symbol
_atom_type_radius_bond
C 0.68
H 0.23
Cu 1.52
N 0.68
P 1.05
loop_
_atom_site_label
_atom_site_type_symbol
_atom_site_fract_x
_atom_site_fract_y
_atom_site_fract_z
Cu1 Cu 1.00000 1.00000 0.00000
C1 C 0.88497(13) 1.0102(2) 0.10255(9)
C2 C 0.76873(14) 1.0756(3) 0.14843(10)
N1 N 0.93050(12) 1.0144(2) 0.06698(9)
N2 N 0.70502(16) 1.1381(4) 0.15473(14)
N3 N 0.84097(13) 0.9903(3) 0.14769(10)
C3 C 1.10403(13) 1.3449(3) 0.04938(10)
C4 C 1.12655(13) 1.6416(3) 0.06727(10)
N4 N 1.06800(11) 1.2151(2) 0.03485(8)
N5 N 1.10961(13) 1.7872(2) 0.06907(10)
N6 N 1.15463(15) 1.4784(3) 0.06749(15)
P1 P 0.48254(3) 0.31326(6) 0.18176(2)
C5 C 0.40975(12) 0.4584(2) 0.21304(8)
C6 C 0.40687(13) 0.4578(3) 0.27772(9)
H1 H 0.44000 0.37600 0.30530
C7 C 0.35424(14) 0.5802(3) 0.30105(10)
H2 H 0.35200 0.58020 0.34440
C8 C 0.30528(15) 0.7017(3) 0.26020(11)
H3 H 0.27050 0.78380 0.27620
C9 C 0.30765(14) 0.7020(3) 0.19568(10)
H4 H 0.27390 0.78320 0.16810
C10 C 0.36001(13) 0.5821(3) 0.17227(9)
H5 H 0.36220 0.58360 0.12890
C11 C 0.55461(12) 0.4521(3) 0.14696(9)
C12 C 0.56029(15) 0.4410(3) 0.08287(10)
H6 H 0.52480 0.36180 0.05560
C13 C 0.61954(17) 0.5492(4) 0.05968(12)
H7 H 0.62410 0.54100 0.01680
C14 C 0.67030(17) 0.6655(4) 0.09881(13)
H8 H 0.70900 0.73820 0.08260
C15 C 0.6654(2) 0.6778(4) 0.16232(13)
H9 H 0.70130 0.75710 0.18930
C16 C 0.60656(17) 0.5712(3) 0.18603(11)
H10 H 0.60240 0.58080 0.22890
C17 C 0.42391(12) 0.1664(2) 0.12155(8)
C18 C 0.33372(13) 0.1751(3) 0.09916(9)
H11 H 0.30090 0.26220 0.11460
C19 C 0.29253(15) 0.0543(3) 0.05387(10)
H12 H 0.23210 0.06070 0.03860
C20 C 0.34042(16) -0.0746(3) 0.03147(10)
H13 H 0.31240 -0.15590 0.00110
C21 C 0.42958(16) -0.0847(3) 0.05355(11)
H14 H 0.46160 -0.17290 0.03800
C22 C 0.47214(14) 0.0336(3) 0.09834(10)
H15 H 0.53260 0.02560 0.11320
C23 C 0.54652(13) 0.1803(2) 0.24413(9)
H16 H 0.59560 0.13020 0.22830
H17 H 0.57060 0.25700 0.28010
C24 C 0.49661(17) 0.0290(3) 0.26844(11)
H18 H 0.47080 -0.04650 0.23260
H19 H 0.44910 0.07830 0.28630
C25 C 0.55589(19) -0.0830(3) 0.31955(12)
H20 H 0.52320 -0.18660 0.32830
H21 H 0.60530 -0.12470 0.30220
C26 C 0.5901(2) 0.0088(4) 0.38055(13)
H22 H 0.62720 -0.07050 0.40940
H23 H 0.54190 0.04600 0.39940
H24 H 0.62340 0.11090 0.37270
Cu1* Cu 1.00000 2.00000 0.00000
Cu1** Cu 1.00000 0.00000 0.00000
C1B C 1.11503(13) 0.9898(2) -0.10255(9)
C2B C 1.23127(14) 0.9244(3) -0.14843(10)
N1B N 1.06950(12) 0.9856(2) -0.06698(9)
N2B N 1.29498(16) 0.8619(4) -0.15473(14)
N3B N 1.15903(13) 1.0097(3) -0.14769(10)
C3B C 0.89597(13) 0.6551(3) -0.04938(10)
C4B C 0.87345(13) 0.3584(3) -0.06727(10)
N4B N 0.93200(11) 0.7849(2) -0.03485(8)
N5B N 0.89039(13) 0.2128(2) -0.06907(10)
N5* N 1.10961(13) 0.7872(2) 0.06907(10)
N5B* N 0.89039(13) 1.2128(2) -0.06907(10)
N6B N 0.84537(15) 0.5216(3) -0.06749(15)
#END
