
#######################################################################
#
#                 Cambridge Crystallographic Data Centre
#                                CCDC
#
#######################################################################
#
# If this CIF has been generated from an entry in the Cambridge
# Structural Database, then it will include bibliographic, chemical,
# crystal, experimental, refinement or atomic coordinate data resulting
# from the CCDC's data processing and validation procedures.
#
#######################################################################

data_CSD_CIF_EDINIO
_audit_creation_date 2002-04-09
_audit_creation_method CSD-ConQuest-V1
_database_code_CSD EDINIO
_chemical_formula_sum 'C3 H4 Cu1 Na1 O5 P1'
_chemical_formula_moiety
;
(Na1 1+)n,n(C3 H4 Cu1 O5 P1 1-)
;
_journal_coden_Cambridge 9
_journal_volume 40
_journal_year 2001
_journal_page_first 723
_journal_name_full 'Inorg.Chem. '
loop_
_publ_author_name
"M.Riou-Cavellec"
"M.Sanselme"
"N.Guillou"
"G.Ferey"
_chemical_name_systematic
;
catena-[Sodium (\m~5~-carboxyethylphosphonato)-copper(ii)]
;
_chemical_name_common
;
MIL-39
;
_cell_volume    290.493
_exptl_crystal_colour 'blue'
_exptl_special_details
;
powder data

;
_diffrn_ambient_temperature ?
_diffrn_special_details
;
The study was carried out at room temperature,in the range 283-303K

;
#These two values have been output from a single CSD field.
_refine_ls_R_factor_gt 0.034
_refine_ls_wR_factor_gt 0.034
_symmetry_cell_setting monoclinic
_symmetry_space_group_name_H-M 'P 21/m'
_symmetry_Int_Tables_number 11
loop_
_symmetry_equiv_pos_site_id
_symmetry_equiv_pos_as_xyz
1 x,y,z
2 -x,1/2+y,-z
3 -x,-y,-z
4 x,-1/2-y,z
_cell_length_a 8.808(1)
_cell_length_b 6.4149(8)
_cell_length_c 5.3418(8)
_cell_angle_alpha 90
_cell_angle_beta 105.75(1)
_cell_angle_gamma 90
_cell_formula_units_Z 2
loop_
_atom_type_symbol
_atom_type_radius_bond
C 0.68
Cu 1.32
Na 0.68
O 0.80
P 1.05
loop_
_atom_site_label
_atom_site_type_symbol
_atom_site_fract_x
_atom_site_fract_y
_atom_site_fract_z
Cu1 Cu 0.8267(3) 0.25000 0.5240(4)
P1 P 0.1855(6) 0.25000 -0.4055(8)
Na1 Na 0.00000 0.00000 0.00000
O1 O 0.636(1) 0.25000 0.225(2)
O2 O 0.7993(9) 0.25000 -0.021(2)
O3 O 0.1777(6) 0.0613(7) -0.579(1)
O4 O 0.0546(8) 0.25000 -0.269(1)
C1 C 0.3584(9) 0.25000 -0.125(2)
C2 C 0.511(1) 0.25000 -0.234(2)
C3 C 0.666(2) 0.25000 0.001(3)
O3C O 0.1777(6) 0.4387(7) -0.579(1)
O2* O 0.7993(9) 0.25000 0.979(2)
O3A O 0.8223(6) 0.5613(7) 0.579(1)
O3B O 0.8223(6) -0.0613(7) 0.579(1)
O4* O 1.0546(8) 0.25000 0.731(1)
Cu1* Cu 0.8267(3) 0.25000 -0.4760(4)
Cu1A Cu 0.1733(3) -0.25000 -0.5240(4)
Cu1** Cu -0.1733(3) 0.25000 -0.4760(4)
Cu1A* Cu 0.1733(3) 0.75000 -0.5240(4)
#END
