
#######################################################################
#
#                 Cambridge Crystallographic Data Centre
#                                CCDC
#
#######################################################################
#
# If this CIF has been generated from an entry in the Cambridge
# Structural Database, then it will include bibliographic, chemical,
# crystal, experimental, refinement or atomic coordinate data resulting
# from the CCDC's data processing and validation procedures.
#
#######################################################################

data_CSD_CIF_EDOVAV
_audit_creation_date 2007-09-06
_audit_creation_method CSD-ConQuest-V1
_database_code_CSD EDOVAV
_database_code_depnum_ccdc_archive 'CCDC 651607'
_chemical_formula_sum 'C37.5 H61 Cl12 Mn1 N11 Nb6 O6'
_chemical_formula_moiety
;
(C4 H12 N1 1+)3n,n(C24 H18 Cl12 Mn1 N8 Nb6 O4 3-),1.5n(C1 H4 O1),0.5n(H2 O1)
;
_journal_coden_Cambridge 1096
_journal_volume 19
_journal_year 2007
_journal_page_first 2238
_journal_name_full 'Chem.Mater. '
loop_
_publ_author_name
"Huajun Zhou"
"K.C.Strates"
"M.A.Munoz"
"K.J.Little"
"D.M.Pajerowski"
"M.W.Meisel"
"D.R.Talham"
"A.Lachgar"
_chemical_name_systematic
;
catena-(tris(tetramethylammonium) 
dodecakis(\m~2~-chloro)-bis(\m~2~-cyano)-tetracyano-(N,N'-ethylenebis(5-methox
ysalicylidene)iminato)-manganese(iii)-hexa-niobium methanol solvate 
hemihydrate)
;
_cell_volume   6784.314
_exptl_crystal_density_diffrn 1.762
_exptl_special_details
;
magnetic properties

;
_exptl_crystal_description 'rhomboid'
_diffrn_ambient_temperature 293
_refine_special_details
;
A methanol O atom is disordered over two sites.

;
#These two values have been output from a single CSD field.
_refine_ls_R_factor_gt 0.0592
_refine_ls_wR_factor_gt 0.0592
_symmetry_cell_setting monoclinic
_symmetry_space_group_name_H-M 'P 21/c'
_symmetry_Int_Tables_number 14
loop_
_symmetry_equiv_pos_site_id
_symmetry_equiv_pos_as_xyz
1 x,y,z
2 -x,1/2+y,1/2-z
3 -x,-y,-z
4 x,-1/2-y,-1/2+z
_cell_length_a 11.791(2)
_cell_length_b 23.168(5)
_cell_length_c 25.506(5)
_cell_angle_alpha 90
_cell_angle_beta 103.17(3)
_cell_angle_gamma 90
_cell_formula_units_Z 4
loop_
_atom_type_symbol
_atom_type_radius_bond
C 0.68
H 0.23
Cl 0.99
Mn 1.35
N 0.68
Nb 1.48
O 0.68
loop_
_atom_site_label
_atom_site_type_symbol
_atom_site_fract_x
_atom_site_fract_y
_atom_site_fract_z
Nb1 Nb 0.22784(6) 0.30029(3) 0.50050(2)
Nb2 Nb 0.36741(6) 0.19751(3) 0.49213(3)
Nb3 Nb 0.21654(6) 0.17261(3) 0.38619(2)
Nb4 Nb 0.32962(6) 0.28539(3) 0.40703(2)
Nb5 Nb 0.07698(6) 0.27515(3) 0.39478(3)
Nb6 Nb 0.11443(6) 0.18723(3) 0.47976(3)
Mn1 Mn 0.21713(10) 0.41313(5) 0.68851(4)
Cl1 Cl 0.39902(17) 0.26638(8) 0.56767(7)
Cl2 Cl 0.35549(18) 0.36981(8) 0.46796(8)
Cl3 Cl 0.10124(18) 0.25418(9) 0.55315(8)
Cl4 Cl 0.05946(18) 0.35802(8) 0.45310(8)
Cl5 Cl 0.38364(19) 0.11390(8) 0.43366(8)
Cl6 Cl 0.26668(19) 0.13449(8) 0.54437(8)
Cl7 Cl 0.51895(17) 0.24800(9) 0.45775(8)
Cl8 Cl 0.04510(17) 0.20723(9) 0.31928(7)
Cl9 Cl 0.17811(18) 0.33903(8) 0.34271(8)
Cl10 Cl 0.09003(19) 0.10266(8) 0.41880(8)
Cl11 Cl 0.34466(17) 0.21834(8) 0.33445(7)
Cl12 Cl -0.07480(17) 0.22447(9) 0.42924(8)
C1 C 0.2294(7) 0.3693(3) 0.5642(3)
C2 C 0.5236(9) 0.1536(4) 0.5458(4)
C3 C 0.2111(7) 0.3922(3) 0.8180(3)
C4 C 0.4424(8) 0.3379(4) 0.3645(4)
C5 C -0.0825(8) 0.3155(4) 0.3401(4)
C6 C 0.0019(9) 0.1321(4) 0.5202(4)
C7 C -0.0164(7) 0.4592(3) 0.6506(3)
C8 C 0.4405(8) 0.3546(4) 0.7244(3)
H1 H 0.48330 0.32100 0.73420
C9 C -0.2589(8) 0.4482(4) 0.6161(3)
C10 C 0.1592(7) 0.2916(3) 0.6980(3)
H2 H 0.16000 0.28610 0.73580
H3 H 0.11480 0.26030 0.67780
C11 C 0.5035(7) 0.4084(3) 0.7333(3)
C12 C 0.6271(8) 0.4064(4) 0.7532(3)
H4 H 0.66310 0.37100 0.76300
C13 C -0.0881(7) 0.5075(3) 0.6371(3)
H5 H -0.05450 0.54400 0.63960
C14 C -0.1928(7) 0.3996(3) 0.6280(3)
H6 H -0.22810 0.36350 0.62460
C15 C -0.0699(7) 0.4042(3) 0.6456(3)
C16 C 0.2801(7) 0.2908(3) 0.6902(3)
H7 H 0.27990 0.28160 0.65310
H8 H 0.32560 0.26180 0.71320
C17 C -0.0067(7) 0.3521(3) 0.6617(3)
H9 H -0.05020 0.31830 0.65920
C18 C 0.4502(8) 0.4622(3) 0.7199(3)
C19 C 0.8711(9) 0.4057(5) 0.7818(5)
H10 H 0.95270 0.41330 0.79460
H11 H 0.84450 0.38140 0.80700
H12 H 0.85830 0.38660 0.74750
C20 C 0.6372(8) 0.5073(4) 0.7450(4)
H13 H 0.68150 0.54090 0.74950
C21 C -0.4363(8) 0.3942(5) 0.5997(4)
H14 H -0.51860 0.39910 0.58620
H15 H -0.40750 0.36630 0.57810
H16 H -0.42130 0.38110 0.63630
C22 C 0.6929(8) 0.4550(4) 0.7580(4)
C23 C -0.2068(8) 0.5024(4) 0.6202(4)
H17 H -0.25250 0.53520 0.61150
C24 C 0.5207(8) 0.5115(4) 0.7259(4)
H18 H 0.48700 0.54750 0.71670
C25 C 0.743(2) 0.2560(12) 0.6006(11)
O1 O 0.7994(19) 0.2430(9) 0.5673(9)
C26 C 0.631(4) 0.258(2) 0.280(2)
O2 O 0.650(3) 0.2264(13) 0.3248(13)
O3? O 0.572(4) 0.3045(18) 0.2525(17)
C27 C 0.360(3) 0.3461(12) 0.2208(12)
O4 O 0.454(3) 0.3530(13) 0.1865(12)
O5 O 0.0976(4) 0.4673(2) 0.6683(2)
O6 O 0.3349(4) 0.4684(2) 0.70029(19)
O7 O -0.3790(5) 0.4480(3) 0.5974(3)
O8 O 0.8098(6) 0.4574(3) 0.7761(3)
O9 O 0.165(2) 0.1306(12) 0.6672(11)
N1 N 0.2268(6) 0.3999(3) 0.5984(3)
N2 N 0.5998(9) 0.1294(5) 0.5730(4)
N3 N 0.2110(6) 0.4162(3) 0.7796(3)
N4 N 0.5000(8) 0.3603(4) 0.3411(4)
N5 N -0.1629(9) 0.3320(4) 0.3116(4)
N6 N -0.0545(9) 0.1034(4) 0.5406(4)
N7 N 0.1043(6) 0.3472(2) 0.6794(2)
N8 N 0.3311(6) 0.3486(3) 0.7042(2)
N9 N 0.7383(6) 0.4375(3) 0.4474(3)
C28 C 0.7627(10) 0.4315(5) 0.3933(4)
H19 H 0.69740 0.41360 0.36940
H20 H 0.83080 0.40810 0.39560
H21 H 0.77580 0.46900 0.37970
C29 C 0.7295(11) 0.3782(5) 0.4685(5)
H22 H 0.70980 0.38040 0.50300
H23 H 0.80280 0.35870 0.47230
H24 H 0.67010 0.35710 0.44390
C30 C 0.8377(10) 0.4693(5) 0.4824(5)
H25 H 0.82790 0.47000 0.51870
H26 H 0.83950 0.50820 0.46950
H27 H 0.90940 0.45030 0.48140
C31 C 0.6301(9) 0.4690(5) 0.4441(6)
H28 H 0.61920 0.47590 0.47970
H29 H 0.56610 0.44670 0.42410
H30 H 0.63370 0.50520 0.42630
N10 N -0.2999(7) 0.0405(3) 0.4290(3)
C32 C -0.3109(12) 0.0296(5) 0.4854(5)
H31 H -0.24410 0.04510 0.51020
H32 H -0.31550 -0.01120 0.49110
H33 H -0.38010 0.04800 0.49100
C33 C -0.3969(10) 0.0128(5) 0.3899(5)
H34 H -0.39920 0.02720 0.35440
H35 H -0.46920 0.02140 0.39960
H36 H -0.38530 -0.02820 0.39050
C34 C -0.3023(11) 0.1044(4) 0.4201(5)
H37 H -0.29530 0.11240 0.38410
H38 H -0.23860 0.12190 0.44530
H39 H -0.37450 0.11970 0.42540
C35 C -0.1875(9) 0.0162(5) 0.4224(5)
H40 H -0.18370 0.01860 0.38530
H41 H -0.18180 -0.02340 0.43360
H42 H -0.12430 0.03780 0.44410
N11 N -0.1378(12) 0.4228(4) 0.1896(4)
C36 C -0.0423(12) 0.4422(6) 0.2344(5)
H43 H 0.02420 0.45250 0.22050
H44 H -0.02170 0.41160 0.26020
H45 H -0.06750 0.47520 0.25140
C37 C -0.1230(13) 0.3642(6) 0.1777(6)
H46 H -0.04560 0.35840 0.17260
H47 H -0.17870 0.35380 0.14540
H48 H -0.13460 0.34060 0.20700
C38 C -0.1444(13) 0.4591(7) 0.1429(6)
H49 H -0.06880 0.46180 0.13500
H50 H -0.17040 0.49690 0.15010
H51 H -0.19830 0.44270 0.11260
C39 C -0.2530(14) 0.4296(7) 0.2108(7)
H52 H -0.31870 0.41820 0.18310
H53 H -0.26180 0.46920 0.22020
H54 H -0.24830 0.40570 0.24190
Nb3C Nb 0.21654(6) 0.32739(3) 0.88619(2)
C3C C 0.2111(7) 0.1078(3) 0.3180(3)
#END
