
#######################################################################
#
#                 Cambridge Crystallographic Data Centre
#                                CCDC
#
#######################################################################
#
# If this CIF has been generated from an entry in the Cambridge
# Structural Database, then it will include bibliographic, chemical,
# crystal, experimental, refinement or atomic coordinate data resulting
# from the CCDC's data processing and validation procedures.
#
#######################################################################

data_CSD_CIF_EFEKOQ
_audit_creation_date 2008-11-20
_audit_creation_method CSD-ConQuest-V1
_database_code_CSD EFEKOQ
_database_code_depnum_ccdc_archive 'CCDC 679003'
_chemical_formula_sum 'C26 H16 Mn1 N9 S8 Se8'
_chemical_formula_moiety
;
(C10 H8 S4 Se4)n,n(C6 Mn1 N9 1-),n(C10 H8 S4 Se4 1+)
;
_journal_coden_Cambridge 4
_journal_volume 130
_journal_year 2008
_journal_page_first 7238
_journal_name_full 'J.Am.Chem.Soc. '
loop_
_publ_author_name
"N.D.Kushch"
"E.B.Yagubskii"
"M.V.Kartsovnik"
"L.I.Buravov"
"A.D.Dubrovskii"
"A.N.Chekhlov"
"W.Biberacher"
_chemical_name_systematic
;
catena-(bis(bis(Ethylenedithio)tetraselenafulvalenium) 
tris(\m~2~-dicyanamido)-manganese(ii))
;
_cell_volume   1985.145
_exptl_crystal_density_diffrn 2.338
_exptl_special_details
;
magnetic properties

;
_exptl_crystal_preparation '1,1,2-trichloroethane/ethanol'
_diffrn_ambient_temperature 293
_refine_special_details
;
A section of the ethylenedithio ring is disordered over two sites with 
occupancies of 0.801:0.199. A dicyanamide ligand is equally disordered over 
two sites by symmetry.
;
#These two values have been output from a single CSD field.
_refine_ls_R_factor_gt 0.0392
_refine_ls_wR_factor_gt 0.0392
_symmetry_cell_setting monoclinic
_symmetry_space_group_name_H-M 'P 21/c'
_symmetry_Int_Tables_number 14
loop_
_symmetry_equiv_pos_site_id
_symmetry_equiv_pos_as_xyz
1 x,y,z
2 -x,1/2+y,1/2-z
3 -x,-y,-z
4 x,-1/2-y,-1/2+z
_cell_length_a 19.507(4)
_cell_length_b 8.412(1)
_cell_length_c 12.104(2)
_cell_angle_alpha 90
_cell_angle_beta 91.85(2)
_cell_angle_gamma 90
_cell_formula_units_Z 2
loop_
_atom_type_symbol
_atom_type_radius_bond
C 0.70
H 0.23
Mn 1.35
N 0.83
S 1.02
Se 1.22
loop_
_atom_site_label
_atom_site_type_symbol
_atom_site_fract_x
_atom_site_fract_y
_atom_site_fract_z
Se1 Se 0.40481(2) 0.05089(5) 0.24770(3)
Se2 Se 0.37051(2) 0.27627(5) 0.44865(3)
Se3 Se 0.57307(2) 0.05170(5) 0.33292(3)
Se4 Se 0.53631(2) 0.27413(5) 0.53423(3)
S1 S 0.26058(6) 0.0676(2) 0.14948(9)
S2 S 0.22097(5) 0.31567(14) 0.37017(8)
S3 S 0.72710(5) 0.09487(15) 0.37676(9)
S4 S 0.68526(5) 0.32274(14) 0.60291(9)
C1 C 0.4381(2) 0.1650(4) 0.3718(3)
C2 C 0.5047(2) 0.1663(5) 0.4055(3)
C3 C 0.3151(2) 0.1340(4) 0.2568(3)
C4 C 0.2999(2) 0.2332(4) 0.3406(3)
C5 C 0.6460(2) 0.1472(5) 0.4179(3)
C6 C 0.6298(2) 0.2380(4) 0.5045(3)
C7 C 0.1878(2) 0.1969(5) 0.1620(3)
H1 H 0.2001(2) 0.3027(5) 0.1376(3)
H2 H 0.1507(2) 0.1589(5) 0.1138(3)
C8 C 0.1632(2) 0.2063(5) 0.2787(3)
H3 H 0.1580(2) 0.0994(5) 0.3072(3)
H4 H 0.1186(2) 0.2569(5) 0.2778(3)
C9 C 0.7714(3) 0.0955(6) 0.5089(4)
H5 H 0.7510(3) 0.0159(6) 0.5556(4)
H6 H 0.8188(3) 0.0658(6) 0.4990(4)
C10 C 0.7695(2) 0.2537(6) 0.5664(4)
H7 H 0.7897(2) 0.3326(6) 0.5190(4)
H8 H 0.7980(2) 0.2471(6) 0.6334(4)
C11? C 0.7841(4) 0.1708(23) 0.4817(10)
H9? H 0.8246(4) 0.1037(23) 0.4854(10)
H10? H 0.7987(4) 0.2760(23) 0.4596(10)
C12? C 0.7562(7) 0.1823(20) 0.5959(8)
H11? H 0.7927(7) 0.2152(20) 0.6472(8)
H12? H 0.7407(7) 0.0781(20) 0.6185(8)
Mn1 Mn 0.00000 0.00000 0.00000
N1 N -0.0829(2) 0.1002(5) -0.1083(4)
C13 C -0.0962(2) 0.2126(6) -0.1569(4)
N2 N -0.1156(2) 0.3479(6) -0.1996(4)
C14 C -0.0855(2) 0.4054(6) -0.2847(4)
N3 N -0.0639(2) 0.4702(5) -0.3582(4)
N4 N 0.0365(11) 0.2611(15) 0.0402(19)
C15 C 0.0006(5) 0.3684(11) 0.0414(9)
N5 N -0.0425(5) 0.4838(9) 0.0596(8)
C16 C 0.0375(5) 0.3770(9) -0.0135(8)
N6 N 0.0344(10) 0.2461(13) 0.0111(19)
Mn1C Mn 0.00000 0.50000 -0.50000
Mn1* Mn 0.00000 1.00000 0.00000
Mn1C* Mn 0.00000 -0.50000 0.50000
N1B N 0.0829(2) -0.1002(5) 0.1083(4)
C13B C 0.0962(2) -0.2126(6) 0.1569(4)
N2B N 0.1156(2) -0.3479(6) 0.1996(4)
C14B C 0.0855(2) -0.4054(6) 0.2847(4)
N3B N 0.0639(2) -0.4702(5) 0.3582(4)
N3C N -0.0639(2) 0.0298(5) 0.1418(4)
N3A N 0.0639(2) -0.0298(5) -0.1418(4)
N4B N -0.0365(11) 0.7389(15) -0.0402(19)
N4B* N -0.0365(11) -0.2611(15) -0.0402(19)
C15B C -0.0006(5) 0.6316(11) -0.0414(9)
N5B N 0.0425(5) 0.5162(9) -0.0596(8)
C16B C -0.0375(5) 0.6230(9) 0.0135(8)
N6B N -0.0344(10) 0.7539(13) -0.0111(19)
N6B* N -0.0344(10) -0.2461(13) -0.0111(19)
#END
