
#######################################################################
#
#                 Cambridge Crystallographic Data Centre
#                                CCDC
#
#######################################################################
#
# If this CIF has been generated from an entry in the Cambridge
# Structural Database, then it will include bibliographic, chemical,
# crystal, experimental, refinement or atomic coordinate data resulting
# from the CCDC's data processing and validation procedures.
#
#######################################################################

data_CSD_CIF_EGILIQ
_audit_creation_date 2009-04-10
_audit_creation_method CSD-ConQuest-V1
_database_code_CSD EGILIQ
_database_code_depnum_ccdc_archive 'CCDC 707034'
_chemical_formula_sum 'C46 H117 Mn8 N16 O50.5'
_chemical_formula_moiety
;
(C16 H40 Mn2 N8 O2 3+)2n,n(C14 Mn4 O28 6-),18.5n(H2 O1)
;
_journal_coden_Cambridge 9
_journal_volume 47
_journal_year 2008
_journal_page_first 8306
_journal_name_full 'Inorg.Chem. '
loop_
_publ_author_name
"J.P.Hill"
"H.Palza"
"S.Alam"
"K.Ariga"
"A.L.Schumacher"
"F.D'Souza"
"C.E.Anson"
"A.K.Powell"
_chemical_name_systematic
;
catena-(bis(bis(\m~2~-oxo)-bis(1,4,7,10-tetra-azacyclododecane)-manganese(iii)
-manganese(iv)) pentakis(\m~2~-oxalato)-bis(oxalato)-tetra-manganese(ii) 
hydrate)
;
_cell_volume   2114.866
_exptl_crystal_colour 'dark green'
_exptl_crystal_density_diffrn 1.682
_exptl_crystal_description 'parallelepiped'
_diffrn_ambient_temperature 200
_refine_special_details
;
The structure is disordered.

;
#These two values have been output from a single CSD field.
_refine_ls_R_factor_gt 0.0498
_refine_ls_wR_factor_gt 0.0498
_symmetry_cell_setting triclinic
_symmetry_space_group_name_H-M 'P -1'
_symmetry_Int_Tables_number 2
loop_
_symmetry_equiv_pos_site_id
_symmetry_equiv_pos_as_xyz
1 x,y,z
2 -x,-y,-z
_cell_length_a 9.5442(11)
_cell_length_b 10.3758(10)
_cell_length_c 21.851(2)
_cell_angle_alpha 83.720(12)
_cell_angle_beta 80.106(13)
_cell_angle_gamma 85.457(13)
_cell_formula_units_Z 1
loop_
_atom_type_symbol
_atom_type_radius_bond
C 0.68
H 0.23
Mn 1.13
N 0.68
O 0.68
loop_
_atom_site_label
_atom_site_type_symbol
_atom_site_fract_x
_atom_site_fract_y
_atom_site_fract_z
Mn1 Mn 0.39997(9) 0.50219(8) 0.12938(3)
Mn2 Mn 0.29660(9) 0.98554(8) 0.23081(3)
O1 O 0.3536(4) 0.5865(4) 0.03813(14)
C1 C 0.4352(5) 0.5457(5) -0.0067(2)
O2 O 0.4237(4) 0.5730(4) -0.06318(14)
O3 O 0.2364(4) 0.6249(4) 0.17723(15)
O4 O 0.1896(4) 0.8266(4) 0.20382(16)
C2 C 0.2722(6) 0.7346(5) 0.1845(2)
C3 C 0.4316(6) 0.7596(6) 0.1681(2)
O5 O 0.5123(4) 0.6704(4) 0.14448(16)
O6 O 0.4673(4) 0.8668(4) 0.17829(15)
O7 O 0.4559(4) 0.3566(3) 0.20193(14)
O8 O 0.4186(4) 0.1514(4) 0.24100(15)
C4 C 0.3969(6) 0.2513(5) 0.2053(2)
C5 C 0.2888(6) 0.2432(6) 0.1617(2)
O9 O 0.2623(4) 0.3444(4) 0.12842(16)
O10 O 0.2349(4) 0.1361(4) 0.16329(15)
O11 O 0.1023(4) 1.0055(4) 0.29913(15)
O12 O -0.0039(4) 0.8881(4) 0.38398(16)
C6 C 0.1034(6) 0.9255(5) 0.3469(2)
C7 C 0.2498(7) 0.8658(6) 0.3586(2)
O13 O 0.3522(4) 0.8843(4) 0.31514(16)
O14 O 0.2563(5) 0.8029(5) 0.40974(17)
Mn3 Mn 0.91337(9) 0.93501(8) 0.04613(3)
O15 O 1.0962(4) 0.9782(4) 0.02993(15)
N1 N 0.7011(5) 0.8936(4) 0.05736(18)
H1 H 0.67610 0.84910 0.09540
C8 C 0.6921(6) 0.8091(6) 0.0084(2)
H2 H 0.71800 0.85520 -0.03260
H3 H 0.59580 0.78200 0.01210
C9 C 0.7937(6) 0.6930(6) 0.0169(2)
H4 H 0.75560 0.63700 0.05350
H5 H 0.80510 0.64380 -0.01910
N2 N 0.9342(5) 0.7358(4) 0.02445(18)
H6 H 0.99610 0.72960 -0.01190
C10 C 0.9951(6) 0.6583(6) 0.0756(3)
H7 H 1.09670 0.66870 0.07030
H8 H 0.98060 0.56700 0.07490
C11 C 0.9226(7) 0.7042(6) 0.1368(2)
H9 H 0.82220 0.68760 0.14380
H10 H 0.96530 0.65860 0.17080
N3 N 0.9401(5) 0.8436(5) 0.13358(18)
H11 H 1.03250 0.85180 0.13710
C12 C 0.8517(7) 0.9128(7) 0.1846(2)
H12 H 0.75390 0.88830 0.19090
H13 H 0.88860 0.89110 0.22330
C13 C 0.8589(7) 1.0545(7) 0.1647(2)
H14 H 0.79650 1.10350 0.19500
H15 H 0.95540 1.07970 0.16270
N4 N 0.8150(5) 1.0840(5) 0.10300(19)
H16 H 0.84870 1.16150 0.08560
C14 C 0.6589(6) 1.0912(6) 0.1054(3)
H17 H 0.62400 1.18140 0.10000
H18 H 0.61360 1.05380 0.14590
C15 C 0.6206(7) 1.0199(6) 0.0556(2)
H19 H 0.51910 1.00800 0.06310
H20 H 0.64520 1.06840 0.01510
Mn4 Mn 0.02386(12) 0.43430(9) 0.44874(4)
O16 O -0.1217(5) 0.5244(4) 0.49363(17)
N5 N 0.2018(7) 0.3396(5) 0.4029(2)
H21 H 0.26200 0.34060 0.43090
C16 C 0.2860(16) 0.4080(13) 0.3474(6)
H22 H 0.38660 0.38330 0.34590
H23 H 0.25740 0.38500 0.30970
C17 C 0.2605(14) 0.5467(12) 0.3517(5)
H24 H 0.32090 0.57390 0.37870
N6 N 0.1148(12) 0.582(1) 0.3755(4)
H25 H 0.11160 0.65850 0.39260
C18 C 0.0188(15) 0.5986(13) 0.3269(6)
H26 H 0.06550 0.55830 0.29000
H27 H 0.00040 0.69030 0.31480
C19 C -0.1230(19) 0.5358(15) 0.3527(7)
H28 H -0.17450 0.53080 0.31850
H29 H -0.18060 0.59100 0.38170
N7 N -0.1032(8) 0.3970(6) 0.3866(2)
H30 H -0.04960 0.34690 0.35860
C20 C -0.2146(11) 0.3180(9) 0.4226(4)
H31 H -0.27900 0.29610 0.39600
H32 H -0.26900 0.36440 0.45600
C21 C -0.1391(9) 0.1983(7) 0.4486(3)
H33 H -0.20630 0.14730 0.47790
H34 H -0.09770 0.14580 0.41510
N8 N -0.0266(6) 0.2347(5) 0.4802(2)
H35 H -0.05830 0.22820 0.52210
C22 C 0.1077(8) 0.1559(7) 0.4678(3)
H36 H 0.08800 0.06530 0.46900
H37 H 0.16470 0.16380 0.49970
C23 C 0.1887(9) 0.1999(6) 0.4051(3)
H38 H 0.28240 0.15500 0.39900
H39 H 0.13840 0.18110 0.37240
O17 O 0.8545(8) 0.3578(6) 0.0781(4)
O18 O 0.9102(6) 0.2139(5) 0.2893(2)
O19 O 0.9509(8) 0.3969(6) 0.1865(3)
O20 O 0.664(2) 0.497(2) 0.2452(8)
O21 O 0.7216(9) 0.8934(10) 0.3603(4)
O22 O 0.6092(11) 0.7318(11) 0.3013(5)
O23 O 0.5839(17) 0.5858(19) 0.5181(7)
O24 O 0.6371(18) 0.1221(16) 0.3198(8)
O25 O 0.512(1) 0.8056(10) 0.4542(4)
O26 O 0.485(3) 0.635(3) 0.4368(11)
H40? H 0.27860 0.35330 0.42040
H41? H 0.28650 0.59240 0.31060
C24? C 0.2186(15) 0.4052(12) 0.3358(5)
H42? H 0.31370 0.38530 0.31370
H43? H 0.15030 0.37380 0.31360
C25? C 0.1928(17) 0.5511(15) 0.3388(7)
H44? H 0.26080 0.58170 0.36130
H45? H 0.20650 0.59490 0.29680
N9? N 0.0452(12) 0.5825(11) 0.3708(5)
H46? H 0.04140 0.66170 0.38550
C26? C -0.0558(19) 0.5840(16) 0.3313(7)
H47? H -0.01310 0.54350 0.29400
H48? H -0.08510 0.67330 0.31870
C27? C -0.1868(18) 0.5120(15) 0.3635(7)
H49? H -0.24330 0.55710 0.39690
H50? H -0.24650 0.49220 0.33440
H51? H -0.05340 0.35560 0.35430
O27? O 0.881(4) 0.355(4) 0.0976(14)
O28? O 1.036(2) 0.2740(19) 0.2740(8)
O29? O 0.790(2) 0.3726(19) 0.2183(8)
O30? O 0.649(6) 0.635(7) 0.248(2)
O31? O 0.728(2) 0.970(2) 0.3669(9)
O32? O 0.608(3) 0.785(3) 0.3370(14)
O33? O 0.536(4) 0.765(5) 0.5490(18)
O34? O 0.572(4) 0.679(5) 0.518(2)
O35? O 0.549(3) 0.659(3) 0.5691(11)
O36? O 0.611(2) 0.169(2) 0.3242(9)
O37? O 0.643(3) 0.186(3) 0.3039(11)
O38? O 0.514(4) 0.988(3) 0.4714(12)
Mn1A Mn 0.60003(9) 0.49781(8) -0.12938(3)
Mn1* Mn 0.39997(9) 1.50219(8) 0.12938(3)
Mn2* Mn 0.29660(9) -0.01446(8) 0.23081(3)
Mn2A Mn 0.70340(9) 0.01446(8) -0.23081(3)
O1A O 0.6464(4) 0.4135(4) -0.03813(14)
C1A C 0.5648(5) 0.4543(5) 0.0067(2)
O2A O 0.5763(4) 0.4270(4) 0.06318(14)
O3A O 0.7636(4) 0.3751(4) -0.17723(15)
O4A O 0.8104(4) 0.1734(4) -0.20382(16)
O4* O 0.1896(4) -0.1734(4) 0.20382(16)
C2A C 0.7278(6) 0.2654(5) -0.1845(2)
C3A C 0.5684(6) 0.2404(6) -0.1681(2)
O5A O 0.4877(4) 0.3296(4) -0.14448(16)
O6A O 0.5327(4) 0.1332(4) -0.17829(15)
O6* O 0.4673(4) -0.1332(4) 0.17829(15)
O7* O 0.4559(4) 1.3566(3) 0.20193(14)
O7A O 0.5441(4) 0.6434(3) -0.20193(14)
O8* O 0.4186(4) 1.1514(4) 0.24100(15)
C4* C 0.3969(6) 1.2513(5) 0.2053(2)
C5* C 0.2888(6) 1.2432(6) 0.1617(2)
O9* O 0.2623(4) 1.3444(4) 0.12842(16)
O9A O 0.7377(4) 0.6556(4) -0.12842(16)
O10* O 0.2349(4) 1.1361(4) 0.16329(15)
O11* O 0.1023(4) 0.0055(4) 0.29913(15)
O12* O -0.0039(4) -0.1119(4) 0.38398(16)
C6* C 0.1034(6) -0.0745(5) 0.3469(2)
C7* C 0.2498(7) -0.1342(6) 0.3586(2)
O13* O 0.3522(4) -0.1157(4) 0.31514(16)
O14* O 0.2563(5) -0.1971(5) 0.40974(17)
Mn3A Mn 1.08663(9) 1.06499(8) -0.04613(3)
O15A O 0.9038(4) 1.0218(4) -0.02993(15)
N1A N 1.2989(5) 1.1064(4) -0.05736(18)
H1A H 1.32390 1.15090 -0.09540
C8A C 1.3079(6) 1.1909(6) -0.0084(2)
H2A H 1.28200 1.14480 0.03260
H3A H 1.40420 1.21800 -0.01210
C9A C 1.2063(6) 1.3070(6) -0.0169(2)
H4A H 1.24440 1.36300 -0.05350
H5A H 1.19490 1.35620 0.01910
N2A N 1.0658(5) 1.2642(4) -0.02445(18)
H6A H 1.00390 1.27040 0.01190
C10A C 1.0049(6) 1.3417(6) -0.0756(3)
H7A H 0.90330 1.33130 -0.07030
H8A H 1.01940 1.43300 -0.07490
C11A C 1.0774(7) 1.2958(6) -0.1368(2)
H9A H 1.17780 1.31240 -0.14380
H10A H 1.03470 1.34140 -0.17080
N3A N 1.0599(5) 1.1564(5) -0.13358(18)
H11A H 0.96750 1.14820 -0.13710
C12A C 1.1483(7) 1.0872(7) -0.1846(2)
H12A H 1.24610 1.11170 -0.19090
H13A H 1.11140 1.10890 -0.22330
C13A C 1.1411(7) 0.9455(7) -0.1647(2)
H14A H 1.20350 0.89650 -0.19500
H15A H 1.04460 0.92030 -0.16270
N4A N 1.1850(5) 0.9160(5) -0.10300(19)
H16A H 1.15130 0.83850 -0.08560
C14A C 1.3411(6) 0.9088(6) -0.1054(3)
H17A H 1.37600 0.81860 -0.10000
H18A H 1.38640 0.94620 -0.14590
C15A C 1.3794(7) 0.9801(6) -0.0556(2)
H19A H 1.48090 0.99200 -0.06310
H20A H 1.35480 0.93160 -0.01510
Mn4A Mn -0.02386(12) 0.56570(9) 0.55126(4)
O16A O 0.1217(5) 0.4756(4) 0.50637(17)
N5A N -0.2018(7) 0.6604(5) 0.5971(2)
H21A H -0.26200 0.65940 0.56910
C16A C -0.2860(16) 0.5920(13) 0.6526(6)
H22A H -0.38660 0.61670 0.65410
H23A H -0.25740 0.61500 0.69030
C17A C -0.2605(14) 0.4533(12) 0.6483(5)
H24A H -0.32090 0.42610 0.62130
N6A N -0.1148(12) 0.418(1) 0.6245(4)
H25A H -0.11160 0.34150 0.60740
C18A C -0.0188(15) 0.4014(13) 0.6731(6)
H26A H -0.06550 0.44170 0.71000
H27A H -0.00040 0.30970 0.68520
C19A C 0.1230(19) 0.4642(15) 0.6473(7)
H28A H 0.17450 0.46920 0.68150
H29A H 0.18060 0.40900 0.61830
N7A N 0.1032(8) 0.6030(6) 0.6134(2)
H30A H 0.04960 0.65310 0.64140
C20A C 0.2146(11) 0.6820(9) 0.5774(4)
H31A H 0.27900 0.70390 0.60400
H32A H 0.26900 0.63560 0.54400
C21A C 0.1391(9) 0.8017(7) 0.5514(3)
H33A H 0.20630 0.85270 0.52210
H34A H 0.09770 0.85420 0.58490
N8A N 0.0266(6) 0.7653(5) 0.5198(2)
H35A H 0.05830 0.77180 0.47790
C22A C -0.1077(8) 0.8441(7) 0.5322(3)
H36A H -0.08800 0.93470 0.53100
H37A H -0.16470 0.83620 0.50030
C23A C -0.1887(9) 0.8001(6) 0.5949(3)
H38A H -0.28240 0.84500 0.60100
H39A H -0.13840 0.81890 0.62760
#END
