
#######################################################################
#
#                 Cambridge Crystallographic Data Centre
#                                CCDC
#
#######################################################################
#
# If this CIF has been generated from an entry in the Cambridge
# Structural Database, then it will include bibliographic, chemical,
# crystal, experimental, refinement or atomic coordinate data resulting
# from the CCDC's data processing and validation procedures.
#
#######################################################################

data_CSD_CIF_EGIPAL
_audit_creation_date 2002-12-11
_audit_creation_method CSD-ConQuest-V1
_database_code_CSD EGIPAL
_database_code_depnum_ccdc_archive 'CCDC 191753'
_chemical_formula_sum 'C74 H102 N2 Nd2 O50 S8'
_chemical_formula_moiety
;
(C18 H38 N2 O6 2+)n,n(C56 H56 Nd2 O40 S8 2-),4n(H2 O1)
;
_journal_coden_Cambridge 182
_journal_year 2002
_journal_page_first 2216
_journal_name_full 'Chem.Commun. '
loop_
_publ_author_name
"S.J.Dalgarno"
"C.L.Raston"
_chemical_name_systematic
;
catena-(1,10-Diazonia-4,7,13,16,21,24-hexaoxabicyclo(8.8.8)pentacosane 
bis(\m~4~-25,26,27,28-tetrahydroxy-5,11,17,23-tetra-sulfonatocalix(4)arene)-oc
taaqua-di-neodymium(iii) tetrahydrate)
;
_chemical_name_common
;
catena-[dihydrogen (2,2,2-cryptand) 
bis(mu!4$-25,26,27,28-tetrahydroxy-5,11,17,23-tetra-sulfonatocalix(4)arene)-oc
taaqua-di-neodymium(iii) tetrahydrate]
;
_cell_volume   4657.605
_exptl_crystal_colour 'colorless'
_exptl_crystal_density_diffrn 1.686
_exptl_special_details
;
isostructural with the cerium, samarium and europium analogues

;
_exptl_crystal_description 'plate'
_diffrn_ambient_temperature 150
_refine_special_details
;
The cryptand cation is disordered.

;
#These two values have been output from a single CSD field.
_refine_ls_R_factor_gt 0.0686
_refine_ls_wR_factor_gt 0.0686
_symmetry_cell_setting tetragonal
_symmetry_space_group_name_H-M 'P 4/n n c'
_symmetry_Int_Tables_number 126
loop_
_symmetry_equiv_pos_site_id
_symmetry_equiv_pos_as_xyz
1 x,y,z
2 1/2-y,x,z
3 y,1/2-x,z
4 y,x,1/2-z
5 1/2-x,1/2-y,z
6 x,1/2-y,1/2-z
7 1/2-x,y,1/2-z
8 1/2-y,1/2-x,1/2-z
9 -x,-y,-z
10 -1/2+y,-x,-z
11 -y,-1/2+x,-z
12 -y,-x,-1/2+z
13 -1/2+x,-1/2+y,-z
14 -x,-1/2+y,-1/2+z
15 -1/2+x,-y,-1/2+z
16 -1/2+y,-1/2+x,-1/2+z
_cell_length_a 11.9026(17)
_cell_length_b 11.9026(17)
_cell_length_c 32.876(7)
_cell_angle_alpha 90
_cell_angle_beta 90
_cell_angle_gamma 90
_cell_formula_units_Z 2
loop_
_atom_type_symbol
_atom_type_radius_bond
C 0.68
H 0.23
N 0.68
Nd 1.81
O 0.68
S 1.02
loop_
_atom_site_label
_atom_site_type_symbol
_atom_site_fract_x
_atom_site_fract_y
_atom_site_fract_z
C1 C -0.281(8) 0.027(6) -0.2675(16)
C2 C -0.323(3) -0.047(2) -0.3338(6)
H1 H -0.28890 0.02410 -0.34300
H2 H -0.40550 -0.04400 -0.33800
C3 C -0.276(4) -0.138(3) -0.3530(6)
H3 H -0.20360 -0.10800 -0.36270
H4 H -0.32310 -0.14520 -0.37780
O1 O -0.2952(18) -0.0712(16) -0.2912(5)
N1 N -0.25000 -0.25000 -0.3443(9)
H5 H -0.25000 -0.25000 -0.31230
C4 C 0.0379(5) -0.1568(5) -0.47480(19)
H6 H 0.02630 -0.16090 -0.50460
H7 H 0.11600 -0.13130 -0.47000
C5 C -0.0429(5) -0.0695(5) -0.45710(19)
C6 C -0.0107(5) 0.0008(5) -0.4251(2)
H8 H 0.06180 -0.00780 -0.41350
O2 O 0.3431(4) -0.6068(4) -0.29935(14)
C7 C -0.0814(5) 0.0819(5) -0.41014(19)
O3 O 0.0829(4) 0.1923(4) -0.37856(14)
C8 C -0.1905(5) 0.0913(5) -0.42538(19)
H9 H -0.24060 0.14460 -0.41380
O4 O -0.0557(4) 0.1132(4) -0.33319(15)
C9 C 0.0242(5) -0.2738(5) -0.4570(2)
O5 O -0.1030(4) 0.2746(4) -0.37511(16)
C10 C -0.1503(5) -0.0526(5) -0.47343(19)
O6 O -0.1822(4) -0.1108(4) -0.50801(12)
H10 H -0.13000 -0.15410 -0.51510
S1 S -0.03777(15) 0.17311(14) -0.37124(5)
Nd1 Nd 0.25000 -0.75000 -0.34187(2)
O7 O -0.054(1) 0.25000 -0.25000
O8 O -0.287(4) 0.184(4) -0.3024(13)
C11? C -0.343(6) 0.009(6) -0.2582(19)
C1F C -0.219(8) 0.027(6) -0.2325(16)
O1F O -0.2048(18) -0.0712(16) -0.2088(5)
C2F C -0.177(3) -0.047(2) -0.1662(6)
H1F H -0.21110 0.02410 -0.15700
H2F H -0.09450 -0.04400 -0.16200
C3F C -0.224(4) -0.138(3) -0.1470(6)
H3F H -0.29640 -0.10800 -0.13730
H4F H -0.17690 -0.14520 -0.12220
N1C N -0.25000 -0.25000 -0.1557(9)
C3G C -0.362(4) -0.224(3) -0.1470(6)
C2G C -0.453(3) -0.177(2) -0.1662(6)
H1G H -0.52410 -0.21110 -0.15700
H2G H -0.45600 -0.09450 -0.16200
O1G O -0.4288(18) -0.2048(16) -0.2088(5)
C1G C -0.527(8) -0.219(6) -0.2325(16)
C1A C -0.527(8) -0.281(6) -0.2675(16)
O1A O -0.4288(18) -0.2952(16) -0.2912(5)
C2A C -0.453(3) -0.323(2) -0.3338(6)
H1A H -0.52410 -0.28890 -0.34300
H2A H -0.45600 -0.40550 -0.33800
C3A C -0.362(4) -0.276(3) -0.3530(6)
H3A H -0.39200 -0.20360 -0.36270
H4A H -0.35480 -0.32310 -0.37780
C3B C -0.138(4) -0.224(3) -0.3530(6)
C2B C -0.047(3) -0.177(2) -0.3338(6)
H1B H 0.02410 -0.21110 -0.34300
H2B H -0.04400 -0.09450 -0.33800
O1B O -0.0712(18) -0.2048(16) -0.2912(5)
C1B C 0.027(8) -0.219(6) -0.2675(16)
C1C C 0.027(8) -0.281(6) -0.2325(16)
O1C O -0.0712(18) -0.2952(16) -0.2088(5)
C2C C -0.047(3) -0.323(2) -0.1662(6)
H1C H 0.02410 -0.28890 -0.15700
H2C H -0.04400 -0.40550 -0.16200
C3C C -0.138(4) -0.276(3) -0.1470(6)
H3C H -0.10800 -0.20360 -0.13730
H4C H -0.14520 -0.32310 -0.12220
C3E C -0.276(4) -0.362(3) -0.1470(6)
C2E C -0.323(3) -0.453(2) -0.1662(6)
H1E H -0.28890 -0.52410 -0.15700
H2E H -0.40550 -0.45600 -0.16200
O1E O -0.2952(18) -0.4288(16) -0.2088(5)
C1E C -0.281(8) -0.527(6) -0.2325(16)
C1D C -0.219(8) -0.527(6) -0.2675(16)
O1D O -0.2048(18) -0.4288(16) -0.2912(5)
C2D C -0.177(3) -0.453(2) -0.3338(6)
H1D H -0.21110 -0.52410 -0.34300
H2D H -0.09450 -0.45600 -0.33800
C3D C -0.224(4) -0.362(3) -0.3530(6)
H3D H -0.29640 -0.39200 -0.36270
H4D H -0.17690 -0.35480 -0.37780
H3E H -0.20360 -0.39200 -0.13730
H4E H -0.32310 -0.35480 -0.12220
H5C H -0.25000 -0.25000 -0.18770
H3B H -0.10800 -0.29640 -0.36270
H4B H -0.14520 -0.17690 -0.37780
H3G H -0.39200 -0.29640 -0.13730
H4G H -0.35480 -0.17690 -0.12220
C9A C -0.2262(5) 0.0242(5) -0.4570(2)
C4A C -0.3432(5) 0.0379(5) -0.47480(19)
H6A H -0.33910 0.02630 -0.50460
H7A H -0.36870 0.11600 -0.47000
C5A C -0.4305(5) -0.0429(5) -0.45710(19)
C6A C -0.5008(5) -0.0107(5) -0.4251(2)
H8A H -0.49220 0.06180 -0.41350
C7A C -0.5819(5) -0.0814(5) -0.41014(19)
C8A C -0.5913(5) -0.1905(5) -0.42538(19)
H9A H -0.64460 -0.24060 -0.41380
C9D C -0.5242(5) -0.2262(5) -0.4570(2)
C4D C -0.5379(5) -0.3432(5) -0.47480(19)
H6D H -0.52630 -0.33910 -0.50460
H7D H -0.61600 -0.36870 -0.47000
C5D C -0.4571(5) -0.4305(5) -0.45710(19)
C6D C -0.4893(5) -0.5008(5) -0.4251(2)
H8D H -0.56180 -0.49220 -0.41350
C7D C -0.4186(5) -0.5819(5) -0.41014(19)
C8D C -0.3095(5) -0.5913(5) -0.42538(19)
H9D H -0.25940 -0.64460 -0.41380
C9B C -0.2738(5) -0.5242(5) -0.4570(2)
C4B C -0.1568(5) -0.5379(5) -0.47480(19)
H6B H -0.16090 -0.52630 -0.50460
H7B H -0.13130 -0.61600 -0.47000
C5B C -0.0695(5) -0.4571(5) -0.45710(19)
C6B C 0.0008(5) -0.4893(5) -0.4251(2)
H8B H -0.00780 -0.56180 -0.41350
C7B C 0.0819(5) -0.4186(5) -0.41014(19)
C8B C 0.0913(5) -0.3095(5) -0.42538(19)
H9B H 0.14460 -0.25940 -0.41380
C10B C -0.0526(5) -0.3497(5) -0.47343(19)
O6B O -0.1108(4) -0.3178(4) -0.50801(12)
H10B H -0.15410 -0.37000 -0.51510
S1B S 0.17311(15) -0.46223(14) -0.37124(5)
O3B O 0.1923(4) -0.5829(4) -0.37856(14)
Nd1* Nd 0.25000 0.25000 -0.34187(2)
O2B O 0.3932(4) -0.8431(4) -0.29935(14)
O2A O 0.1068(4) -0.6569(4) -0.29935(14)
O2D O 0.1569(4) -0.8932(4) -0.29935(14)
O3D O 0.4171(4) -0.6923(4) -0.37856(14)
O3* O 0.0829(4) -0.8077(4) -0.37856(14)
O3A O 0.3077(4) -0.9171(4) -0.37856(14)
S1A S 0.32689(15) -1.03777(14) -0.37124(5)
C7A* C 0.4181(5) -1.0814(5) -0.41014(19)
C6A* C 0.4992(5) -1.0107(5) -0.4251(2)
C8A* C 0.4087(5) -1.1905(5) -0.42538(19)
O4A O 0.3868(4) -1.0557(4) -0.33319(15)
O5A O 0.2254(4) -1.1030(4) -0.37511(16)
O4B O 0.1132(4) -0.4443(4) -0.33319(15)
O5B O 0.2746(4) -0.3970(4) -0.37511(16)
C10D C -0.3497(5) -0.4474(5) -0.47343(19)
O6D O -0.3178(4) -0.3892(4) -0.50801(12)
H10D H -0.37000 -0.34590 -0.51510
S1D S -0.46223(15) -0.67311(14) -0.37124(5)
C10A C -0.4474(5) -0.1503(5) -0.47343(19)
O6A O -0.3892(4) -0.1822(4) -0.50801(12)
H10A H -0.34590 -0.13000 -0.51510
S1A* S -0.67311(15) -0.03777(14) -0.37124(5)
C5A* C 0.5695(5) -1.0429(5) -0.45710(19)
H8A* H 0.50780 -0.93820 -0.41350
H9A* H 0.35540 -1.24060 -0.41380
C9D* C 0.4758(5) -1.2262(5) -0.4570(2)
O3D* O -0.5829(4) -0.6923(4) -0.37856(14)
O4D O -0.4443(4) -0.6132(4) -0.33319(15)
O5D O -0.3970(4) -0.7746(4) -0.37511(16)
O3A* O -0.6923(4) 0.0829(4) -0.37856(14)
O4A* O -0.6132(4) -0.0557(4) -0.33319(15)
O5A* O -0.7746(4) -0.1030(4) -0.37511(16)
C4A* C 0.6568(5) -0.9621(5) -0.47480(19)
C10A* C 0.5526(5) -1.1503(5) -0.47343(19)
C4D* C 0.4621(5) -1.3432(5) -0.47480(19)
Nd1** Nd -0.75000 -0.75000 -0.34187(2)
Nd1*** Nd -0.75000 0.25000 -0.34187(2)
H6A* H 0.66090 -0.97370 -0.50460
H7A* H 0.63130 -0.88400 -0.47000
C9A* C 0.7738(5) -0.9758(5) -0.4570(2)
O6A* O 0.6108(4) -1.1822(4) -0.50801(12)
H6D* H 0.47370 -1.33910 -0.50460
H7D* H 0.38400 -1.36870 -0.47000
C5D* C 0.5429(5) -1.4305(5) -0.45710(19)
C8* C 0.8095(5) -0.9087(5) -0.42538(19)
C10* C 0.8497(5) -1.0526(5) -0.47343(19)
H10A* H 0.65410 -1.13000 -0.51510
C6D* C 0.5107(5) -1.5008(5) -0.4251(2)
C10D* C 0.6503(5) -1.4474(5) -0.47343(19)
C7* C 0.9186(5) -0.9181(5) -0.41014(19)
H9* H 0.75940 -0.85540 -0.41380
C5* C 0.9571(5) -1.0695(5) -0.45710(19)
O6* O 0.8178(4) -1.1108(4) -0.50801(12)
H8D* H 0.43820 -1.49220 -0.41350
C7D* C 0.5814(5) -1.5819(5) -0.41014(19)
C9B* C 0.7262(5) -1.5242(5) -0.4570(2)
O6D* O 0.6822(4) -1.3892(4) -0.50801(12)
C6* C 0.9893(5) -0.9992(5) -0.4251(2)
S1* S 0.96223(15) -0.82689(14) -0.37124(5)
C4* C 1.0379(5) -1.1568(5) -0.47480(19)
H10* H 0.87000 -1.15410 -0.51510
C8D* C 0.6905(5) -1.5913(5) -0.42538(19)
S1D* S 0.53777(15) -1.67311(14) -0.37124(5)
C4B* C 0.8432(5) -1.5379(5) -0.47480(19)
H10D* H 0.63000 -1.34590 -0.51510
H8* H 1.06180 -1.00780 -0.41350
O3** O 1.0829(4) -0.8077(4) -0.37856(14)
O4* O 0.9443(4) -0.8868(4) -0.33319(15)
O5* O 0.8970(4) -0.7254(4) -0.37511(16)
H6* H 1.02630 -1.16090 -0.50460
H7* H 1.11600 -1.13130 -0.47000
C9* C 1.0242(5) -1.2738(5) -0.4570(2)
H9D* H 0.74060 -1.64460 -0.41380
O3D** O 0.4171(4) -1.6923(4) -0.37856(14)
O4D* O 0.5557(4) -1.6132(4) -0.33319(15)
O5D* O 0.6030(4) -1.7746(4) -0.37511(16)
H6B* H 0.83910 -1.52630 -0.50460
H7B* H 0.86870 -1.61600 -0.47000
C5B* C 0.9305(5) -1.4571(5) -0.45710(19)
Nd1**** Nd 1.25000 -0.75000 -0.34187(2)
Nd1***** Nd 0.25000 -1.75000 -0.34187(2)
C8B* C 1.0913(5) -1.3095(5) -0.42538(19)
C10B* C 0.9474(5) -1.3497(5) -0.47343(19)
C6B* C 1.0008(5) -1.4893(5) -0.4251(2)
C7B* C 1.0819(5) -1.4186(5) -0.41014(19)
H9B* H 1.14460 -1.25940 -0.41380
O6B* O 0.8892(4) -1.3178(4) -0.50801(12)
H8B* H 0.99220 -1.56180 -0.41350
S1B* S 1.17311(15) -1.46223(14) -0.37124(5)
H10B* H 0.84590 -1.37000 -0.51510
O3B* O 1.1923(4) -1.5829(4) -0.37856(14)
O4B* O 1.1132(4) -1.4443(4) -0.33319(15)
O5B* O 1.2746(4) -1.3970(4) -0.37511(16)
Nd1****** Nd 1.25000 -1.75000 -0.34187(2)
O2A* O 1.1068(4) -1.6569(4) -0.29935(14)
O2D* O 1.1569(4) -1.8932(4) -0.29935(14)
O2* O 1.3431(4) -1.6068(4) -0.29935(14)
O2B* O 1.3932(4) -1.8431(4) -0.29935(14)
O3*** O 1.0829(4) -1.8077(4) -0.37856(14)
O3A** O 1.3077(4) -1.9171(4) -0.37856(14)
O3D*** O 1.4171(4) -1.6923(4) -0.37856(14)
#END
