
#######################################################################
#
#                 Cambridge Crystallographic Data Centre
#                                CCDC
#
#######################################################################
#
# If this CIF has been generated from an entry in the Cambridge
# Structural Database, then it will include bibliographic, chemical,
# crystal, experimental, refinement or atomic coordinate data resulting
# from the CCDC's data processing and validation procedures.
#
#######################################################################

data_CSD_CIF_EGOYUV
_audit_creation_date 2009-04-10
_audit_creation_method CSD-ConQuest-V1
_database_code_CSD EGOYUV
_database_code_depnum_ccdc_archive 'CCDC 681306'
_chemical_formula_sum 'C41 H44 N8 Ni3 O14'
_chemical_formula_moiety
;
(C9 H17 N2 1+)n,n(C32 H27 N6 Ni3 O14 1-)
;
_journal_coden_Cambridge 208
_journal_volume 181
_journal_year 2008
_journal_page_first 3185
_journal_name_full 'J.Solid State Chem. '
loop_
_publ_author_name
"Ling Xu"
"Eun-Young Choi"
"Young-Uk Kwon"
_chemical_name_systematic
;
catena-((3-Methyl-1-pentyl-1H-imidazol-3-ium) 
bis(\m~4~-1,3,5-benzenetricarboxylato)-(\m~2~-acetato)-tris(1-methyl-1H-imidaz
ole)-tri-nickel(ii))
;
_cell_volume   4592.017
_exptl_crystal_colour 'green'
_exptl_crystal_density_diffrn 1.516
_exptl_crystal_description 'block'
_diffrn_ambient_temperature 173
#These two values have been output from a single CSD field.
_refine_ls_R_factor_gt 0.0558
_refine_ls_wR_factor_gt 0.0558
_symmetry_cell_setting monoclinic
_symmetry_space_group_name_H-M 'P 21/n'
_symmetry_Int_Tables_number 14
loop_
_symmetry_equiv_pos_site_id
_symmetry_equiv_pos_as_xyz
1 x,y,z
2 1/2-x,1/2+y,1/2-z
3 -x,-y,-z
4 -1/2+x,-1/2-y,-1/2+z
_cell_length_a 10.109(2)
_cell_length_b 15.178(3)
_cell_length_c 29.970(6)
_cell_angle_alpha 90
_cell_angle_beta 93.026(4)
_cell_angle_gamma 90
_cell_formula_units_Z 4
loop_
_atom_type_symbol
_atom_type_radius_bond
C 0.68
H 0.23
N 0.68
Ni 1.34
O 0.68
loop_
_atom_site_label
_atom_site_type_symbol
_atom_site_fract_x
_atom_site_fract_y
_atom_site_fract_z
Ni1 Ni 0.073473(17) 1.135949(10) -0.280598(6)
Ni2 Ni 0.771033(18) 1.088498(11) -0.066865(6)
Ni3 Ni 0.636808(17) 1.620602(11) -0.126516(6)
C1 C 0.36856(13) 1.24356(8) -0.20891(4)
C2 C 0.44504(13) 1.19069(8) -0.17928(4)
H1 H 0.42680 1.12950 -0.17730
C3 C 0.54761(14) 1.22746(9) -0.15271(4)
C4 C 0.57226(14) 1.31755(8) -0.15524(5)
H2 H 0.64160 1.34290 -0.13690
C5 C 0.49604(14) 1.37088(9) -0.18447(5)
C6 C 0.39485(14) 1.33369(9) -0.21131(5)
H3 H 0.34320 1.36970 -0.23140
C7 C 0.25725(13) 1.20452(9) -0.23709(4)
C8 C 0.63461(14) 1.17240(9) -0.12135(4)
C9 C 0.52121(14) 1.46858(9) -0.18533(5)
O1 O 0.18335(10) 1.25387(6) -0.26223(3)
O2 O 0.23482(10) 1.12263(6) -0.23536(3)
O3 O 0.74156(10) 1.20483(6) -0.10524(3)
O4 O 0.59986(10) 1.09460(6) -0.11130(3)
O5 O 0.58481(11) 1.50089(7) -0.15198(4)
O6 O 0.47693(10) 1.50915(6) -0.21963(3)
C10 C 0.26736(13) 1.18555(9) -0.39725(4)
C11 C 0.39678(13) 1.16431(9) -0.38349(4)
H4 H 0.41340 1.12640 -0.35860
C12 C 0.50174(13) 1.19828(9) -0.40603(4)
C13 C 0.47777(14) 1.25234(9) -0.44341(4)
H5 H 0.54980 1.27600 -0.45860
C14 C 0.34801(14) 1.27138(9) -0.45822(4)
C15 C 0.24334(14) 1.23807(9) -0.43506(5)
H6 H 0.15480 1.25120 -0.44510
C16 C 0.15369(13) 1.15466(9) -0.37150(4)
C17 C 0.64135(13) 1.17573(9) -0.39030(4)
C18 C 0.31836(14) 1.32675(9) -0.49900(5)
O7 O 0.18314(9) 1.12098(7) -0.33358(3)
O8 O 0.03982(9) 1.16699(7) -0.38906(3)
O9 O 0.73585(10) 1.22365(7) -0.40093(3)
O10 O 0.66102(9) 1.10696(6) -0.36656(3)
O11 O 0.19931(10) 1.33718(7) -0.51283(3)
O12 O 0.4110(1) 1.36278(6) -0.51839(3)
N1 N 0.72659(14) 0.88299(10) 0.02169(5)
C19 C 0.79952(16) 0.93900(11) -0.00077(6)
H7 H 0.89040 0.95090 0.00640
N2 N 0.73033(13) 0.97568(8) -0.03401(4)
C20 C 0.60375(17) 0.93969(11) -0.03240(6)
H8 H 0.53040 0.95320 -0.05240
C21 C 0.60230(18) 0.88292(12) 0.00186(6)
H9 H 0.52880 0.84920 0.01060
C22 C 0.7701(3) 0.83347(17) 0.06152(8)
H10 H 0.86380 0.84590 0.06900
H11 H 0.75850 0.77030 0.05580
H12 H 0.71730 0.85100 0.08650
N3 N 1.03523(16) 0.95651(10) -0.14630(5)
C23 C 0.9505(2) 0.96024(12) -0.11330(6)
H13 H 0.92970 0.91200 -0.09470
N4 N 0.90029(13) 1.04004(8) -0.11027(4)
C24 C 0.95268(17) 1.0875(1) -0.14361(5)
H14 H 0.93200 1.14730 -0.15030
C25 C 1.03742(18) 1.03816(11) -0.16559(5)
H15 H 1.08860 1.05610 -0.18970
C26 C 1.1090(3) 0.87930(15) -0.16043(8)
H16 H 1.08990 0.82910 -0.14120
H17 H 1.20410 0.89210 -0.15800
H18 H 1.08230 0.86500 -0.19150
N5 N 0.65349(15) 1.56330(12) -0.06361(5)
C27 C 0.7100(3) 1.4977(2) -0.04394(9)
H19 H 0.76230 1.45940 -0.06080
C28 C 0.6994(3) 1.48178(17) -0.00334(8)
H20 H 0.72460 1.43050 0.01320
N6 N 0.6398(3) 1.56060(17) 0.01169(8)
C29 C 0.6147(3) 1.61087(19) -0.02466(7)
H21 H 0.57750 1.66840 -0.02470
C30 C 0.6055(4) 1.5836(3) 0.05822(10)
H22 H 0.56780 1.64310 0.05850
H23 H 0.68570 1.58150 0.07810
H24 H 0.54060 1.54130 0.06850
N7 N 0.91112(17) 1.41977(9) -0.30556(5)
C31 C 0.96953(19) 1.39478(12) -0.26754(6)
H25 H 1.04340 1.35630 -0.26400
N8 N 0.9072(2) 1.43279(11) -0.23520(6)
C32 C 0.8050(2) 1.48189(13) -0.25426(9)
H26 H 0.74140 1.51450 -0.23890
C33 C 0.8116(2) 1.47543(13) -0.29701(9)
H27 H 0.75590 1.50490 -0.31880
C34 C 0.9497(3) 1.39006(16) -0.34921(8)
H28 H 1.02500 1.34970 -0.34540
H29 H 0.97490 1.44100 -0.36700
H30 H 0.87500 1.35950 -0.36460
C35 C 0.9070(4) 1.4138(2) -0.18639(11)
H31 H 0.88380 1.46800 -0.17020
H32 H 0.83900 1.36870 -0.18090
C36 C 1.0250(5) 1.3851(3) -0.17106(14)
H33 H 1.08910 1.43420 -0.17270
H34 H 1.05380 1.33790 -0.19120
C37 C 1.0331(3) 1.34516(19) -0.11728(9)
H35 H 0.96140 1.30180 -0.11340
H36 H 1.11930 1.31570 -0.11060
C38 C 1.0194(5) 1.4140(3) -0.08994(14)
H37 H 0.93540 1.44530 -0.09770
H38 H 1.09360 1.45580 -0.09280
C39 C 1.0191(4) 1.3773(2) -0.04007(10)
H39 H 1.00360 1.42600 -0.01950
H40 H 1.10480 1.34990 -0.03200
H41 H 0.94860 1.33340 -0.03800
C40 C -0.29321(16) 1.22769(12) -0.27355(6)
H42 H -0.31930 1.23190 -0.24260
H43 H -0.35300 1.18720 -0.29020
H44 H -0.29840 1.28610 -0.28750
C41 C -0.15356(14) 1.19381(9) -0.27415(5)
O13 O -0.08551(10) 1.17766(7) -0.23927(3)
O14 O -0.09993(9) 1.18385(6) -0.31185(3)
Ni1A Ni 0.426527(17) 1.635949(10) -0.219402(6)
Ni2C Ni 0.271033(18) 1.411502(11) -0.566865(6)
Ni3A Ni -0.136808(17) 1.120602(11) -0.373484(6)
Ni3A* Ni 0.863192(17) 1.120602(11) -0.373484(6)
O6A O 0.02307(10) 1.00915(6) -0.28037(3)
O8A O 0.46018(9) 1.66699(7) -0.11094(3)
O9A O 0.76415(10) 1.72365(7) -0.09907(3)
O10A O 0.83898(9) 1.60696(6) -0.13344(3)
O11C O 0.69931(10) 1.16282(7) -0.01283(3)
O12C O 0.9110(1) 1.13722(6) -0.01839(3)
O14A O 0.59993(9) 1.68385(6) -0.18815(3)
#END
