
#######################################################################
#
#                 Cambridge Crystallographic Data Centre
#                                CCDC
#
#######################################################################
#
# If this CIF has been generated from an entry in the Cambridge
# Structural Database, then it will include bibliographic, chemical,
# crystal, experimental, refinement or atomic coordinate data resulting
# from the CCDC's data processing and validation procedures.
#
#######################################################################

data_CSD_CIF_EGUBUE
_audit_creation_date 2009-04-10
_audit_creation_method CSD-ConQuest-V1
_database_code_CSD EGUBUE
_database_code_depnum_ccdc_archive 'CCDC 685482'
_chemical_formula_sum 'C8 H57 Cu2 N4 O51.5 V10'
_chemical_formula_moiety
;
(C8 H24 Cu2 N4 O8 4+)n,2n(H3 O1 1+),n(O28 V10 6-),13.5n(H2 O1)
;
_journal_coden_Cambridge 1133
_journal_volume 19
_journal_year 2008
_journal_page_first 531
_journal_name_full 'J.Cluster Sci. '
loop_
_publ_author_name
"Li Wang"
"Xiu-ping Sun"
"Mei-ling Liu"
"Yue-qiang Gao"
"Wen Gu Xin Liu"
_chemical_name_systematic
;
catena-(bis(\m~2~-pyrazine)-octa-aqua-di-copper(ii) bis(oxonium) 
bis(\m~6~-oxo)-tetrakis(\m~3~-oxo)-tetradecakis(\m~2~-oxo)-octaoxo-deca-vanadi
um hydrate)
;
_cell_volume   4865.481
_exptl_crystal_colour 'colorless'
_exptl_crystal_density_diffrn 2.28
_exptl_crystal_description 'prism'
_diffrn_ambient_temperature 113
_refine_special_details
;
Several water molecules are disordered equally over two sites.

;
#These two values have been output from a single CSD field.
_refine_ls_R_factor_gt 0.0435
_refine_ls_wR_factor_gt 0.0435
_symmetry_cell_setting monoclinic
_symmetry_space_group_name_H-M 'C 2/c'
_symmetry_Int_Tables_number 15
loop_
_symmetry_equiv_pos_site_id
_symmetry_equiv_pos_as_xyz
1 x,y,z
2 1/2+x,1/2+y,z
3 -x,y,1/2-z
4 1/2-x,1/2+y,1/2-z
5 -x,-y,-z
6 -1/2-x,-1/2-y,-z
7 x,-y,-1/2+z
8 -1/2+x,-1/2-y,-1/2+z
_cell_length_a 20.247(4)
_cell_length_b 13.756(3)
_cell_length_c 17.471(3)
_cell_angle_alpha 90
_cell_angle_beta 90.823(1)
_cell_angle_gamma 90
_cell_formula_units_Z 4
loop_
_atom_type_symbol
_atom_type_radius_bond
C 0.68
H 0.23
Cu 1.52
N 0.68
O 0.68
V 1.31
loop_
_atom_site_label
_atom_site_type_symbol
_atom_site_fract_x
_atom_site_fract_y
_atom_site_fract_z
Cu1 Cu 1.00000 0.00867(4) 0.25000
Cu2 Cu 1.00000 0.50834(4) 0.25000
C1 C 1.02173(19) 0.3088(3) 0.1899(2)
H1 H 1.03770 0.34260 0.14650
C2 C 1.02136(19) 0.2078(3) 0.1898(2)
H2 H 1.03660 0.17390 0.14610
C3 C 0.95236(19) -0.2927(3) 0.2141(2)
H3 H 0.91770 -0.32670 0.18830
C4 C 0.9526(2) -0.1919(3) 0.2137(2)
H4 H 0.91840 -0.15810 0.18710
N1 N 1.00000 0.3595(3) 0.25000
N2 N 1.00000 0.1573(3) 0.25000
N3 N 1.00000 -0.3428(3) 0.25000
N4 N 1.00000 -0.1411(3) 0.25000
V1 V 0.11103(3) 0.88560(5) 0.02576(4)
V2 V 0.19069(3) 0.75583(5) 0.14078(4)
V3 V 0.25960(3) 0.86750(5) 0.00175(3)
V4 V 0.15730(3) 0.76603(5) -0.11533(4)
V5 V 0.09172(3) 0.66594(5) 0.02341(4)
O1 O 0.06537(14) 0.9804(2) 0.03557(16)
O2 O 0.14027(13) 0.8638(2) 0.12607(15)
O3 O 0.20040(13) 0.9518(2) 0.01331(15)
O4 O 0.11337(13) 0.8732(2) -0.08113(15)
O5 O 0.05257(13) 0.7845(2) 0.03223(16)
O6 O 0.20251(15) 0.7527(2) 0.23152(16)
O7 O 0.33113(13) 0.9290(2) -0.00833(15)
O8 O 0.14616(14) 0.7693(2) -0.20638(16)
O9 O 0.03212(15) 0.5900(2) 0.03031(17)
O10 O 0.27091(13) 0.83413(19) 0.10971(14)
O11 O 0.25736(13) 0.65715(19) 0.10681(14)
O12 O 0.09792(13) 0.6779(2) -0.08364(15)
O13 O 0.12449(13) 0.6693(2) 0.12446(15)
O14 O 0.18578(13) 0.76105(19) 0.01064(14)
O15 O 0.96845(14) 0.00325(19) 0.14245(15)
O16 O 1.11024(15) 0.0145(2) 0.21508(18)
O17 O 0.94554(15) 0.5051(2) 0.13298(16)
O18 O 1.08883(14) 0.5076(2) 0.20226(16)
O19 O 0.21272(18) 0.0088(3) 0.8178(2)
O20 O 0.2458(3) 0.7211(5) 0.3843(3)
O21 O 0.9152(3) 0.7919(5) 0.0047(5)
O22 O 0.1931(4) 0.1597(5) 0.9126(5)
O23? O 0.1985(4) 0.6386(5) 0.3845(5)
O24? O 0.2543(5) 0.6526(7) 0.4677(6)
O25? O 0.8295(6) 0.6291(7) 0.9721(6)
O26 O 0.8784(7) 0.6203(8) 0.9619(6)
O27 O 0.1632(5) 0.1557(9) 0.1245(7)
O28? O 0.2960(12) 0.8144(17) 0.3573(13)
O29 O 0.19636(18) 0.4816(3) 0.2947(2)
O30? O 0.2141(10) 0.1379(16) 0.1435(12)
O31? O 0.321(2) 0.852(4) 0.324(3)
Cu2* Cu 1.00000 -0.49166(4) 0.25000
C1B C 0.97827(19) 0.3088(3) 0.3101(2)
H1B H 0.96230 0.34260 0.35350
C2B C 0.97864(19) 0.2078(3) 0.3102(2)
H2B H 0.96340 0.17390 0.35390
C3B C 1.04764(19) -0.2927(3) 0.2859(2)
H3B H 1.08230 -0.32670 0.31170
C4B C 1.0474(2) -0.1919(3) 0.2863(2)
H4B H 1.08160 -0.15810 0.31290
N3* N 1.00000 0.6572(3) 0.25000
V1E V 0.38897(3) 0.61440(5) -0.02576(4)
V2E V 0.30931(3) 0.74417(5) -0.14078(4)
V3E V 0.24040(3) 0.63250(5) -0.00175(3)
V4E V 0.34270(3) 0.73397(5) 0.11533(4)
V5E V 0.40828(3) 0.83406(5) -0.02341(4)
O1E O 0.43463(14) 0.5196(2) -0.03557(16)
O2E O 0.35973(13) 0.6362(2) -0.12607(15)
O3E O 0.29960(13) 0.5482(2) -0.01331(15)
O4E O 0.38663(13) 0.6268(2) 0.08113(15)
O5E O 0.44743(13) 0.7155(2) -0.03223(16)
O6E O 0.29749(15) 0.7473(2) -0.23152(16)
O7E O 0.16887(13) 0.5710(2) 0.00833(15)
O8E O 0.35384(14) 0.7307(2) 0.20638(16)
O9E O 0.46788(15) 0.9100(2) -0.03031(17)
O10E O 0.22909(13) 0.66587(19) -0.10971(14)
O11E O 0.24264(13) 0.84285(19) -0.10681(14)
O12E O 0.40208(13) 0.8221(2) 0.08364(15)
O13E O 0.37551(13) 0.8307(2) -0.12446(15)
O14E O 0.31422(13) 0.73895(19) -0.01064(14)
O15B O 1.03155(14) 0.00325(19) 0.35755(15)
O16B O 0.88976(15) 0.0145(2) 0.28492(18)
O17B O 1.05446(15) 0.5051(2) 0.36702(16)
O18B O 0.91117(14) 0.5076(2) 0.29774(16)
#END
