
#######################################################################
#
#                 Cambridge Crystallographic Data Centre
#                                CCDC
#
#######################################################################
#
# If this CIF has been generated from an entry in the Cambridge
# Structural Database, then it will include bibliographic, chemical,
# crystal, experimental, refinement or atomic coordinate data resulting
# from the CCDC's data processing and validation procedures.
#
#######################################################################

data_CSD_CIF_EGUBIS
_audit_creation_date 2009-04-10
_audit_creation_method CSD-ConQuest-V1
_database_code_CSD EGUBIS
_database_code_depnum_ccdc_archive 'CCDC 641434'
_chemical_formula_sum 'C8 H49 N4 Ni2 O47.5 V10'
_chemical_formula_moiety
;
(C8 H24 N4 Ni2 O8 4+)n,2n(H3 O1 1+),n(O28 V10 6-),9.5n(H2 O1)
;
_journal_coden_Cambridge 1133
_journal_volume 19
_journal_year 2008
_journal_page_first 531
_journal_name_full 'J.Cluster Sci. '
loop_
_publ_author_name
"Li Wang"
"Xiu-ping Sun"
"Mei-ling Liu"
"Yue-qiang Gao"
"Wen Gu Xin Liu"
_chemical_name_systematic
;
catena-(bis(\m~2~-pyrazine)-octa-aqua-di-nickel(ii) bis(oxonium) 
bis(\m~6~-oxo)-tetrakis(\m~3~-oxo)-tetradecakis(\m~2~-oxo)-octaoxo-deca-vanadi
um hydrate)
;
_cell_volume   1220.913
_exptl_crystal_colour 'colorless'
_exptl_crystal_density_diffrn 2.16
_exptl_special_details
;
magnetic properties

;
_exptl_crystal_description 'Prism'
_diffrn_ambient_temperature 113
_refine_special_details
;
One water molecule is disordered over two sites with occupancies 0.75:0.25; 
another five water molecules are disordered equally over two sites.
;
#These two values have been output from a single CSD field.
_refine_ls_R_factor_gt 0.1086
_refine_ls_wR_factor_gt 0.1086
_symmetry_cell_setting triclinic
_symmetry_space_group_name_H-M 'P -1'
_symmetry_Int_Tables_number 2
loop_
_symmetry_equiv_pos_site_id
_symmetry_equiv_pos_as_xyz
1 x,y,z
2 -x,-y,-z
_cell_length_a 11.142(14)
_cell_length_b 11.179(14)
_cell_length_c 12.098(16)
_cell_angle_alpha 110.445(12)
_cell_angle_beta 111.355(7)
_cell_angle_gamma 101.361(12)
_cell_formula_units_Z 1
loop_
_atom_type_symbol
_atom_type_radius_bond
C 0.68
H 0.23
N 0.68
Ni 1.50
O 0.68
V 1.29
loop_
_atom_site_label
_atom_site_type_symbol
_atom_site_fract_x
_atom_site_fract_y
_atom_site_fract_z
V1 V 0.9248(2) 0.7075(2) 0.6226(2)
V2 V 1.1072(2) 0.6037(2) 0.4803(2)
V3 V 0.7783(2) 0.5157(2) 0.3160(2)
V4 V 1.2451(2) 0.7908(2) 0.7813(3)
V5 V 1.0530(3) 0.5969(3) 0.8219(2)
Ni1 Ni 0.24763(17) 0.24808(17) 0.99701(17)
N1 N 0.4010(13) 0.3986(12) 1.0033(12)
N2 N 0.0991(11) 0.0991(12) 0.9963(12)
C1 C 0.482(2) 0.368(2) 0.954(2)
H1 H 0.47080 0.27430 0.91460
C2 C 0.410(2) 0.535(2) 1.049(2)
H2 H 0.34840 0.56340 1.07990
C3 C -0.0380(14) 0.0416(15) 0.9053(15)
H3 H -0.06820 0.06620 0.83510
C4 C 0.1360(15) 0.0518(14) 1.0890(14)
H4 H 0.23130 0.08350 1.15140
O1 O 0.8212(10) 0.7893(10) 0.6018(10)
O2 O 0.9235(10) 0.6744(10) 0.7575(10)
O3 O 1.0969(10) 0.8456(9) 0.7262(9)
O4 O 0.9559(9) 0.6726(9) 0.4607(9)
O5 O 1.2367(9) 0.7548(9) 0.6005(10)
O6 O 0.7973(9) 0.5163(9) 0.4876(9)
O7 O 1.0638(9) 0.5839(9) 0.6306(9)
O8 O 1.1061(10) 0.584(1) 0.3343(10)
O9 O 0.6739(10) 0.5968(10) 0.2964(10)
O10 O 0.6647(9) 0.3349(9) 0.2254(9)
O11 O 0.8371(10) 0.5112(10) 0.1931(10)
O12 O 1.3744(11) 0.9389(10) 0.8757(11)
O13 O 1.1994(11) 0.758(1) 0.9004(10)
O14 O 1.0319(13) 0.5909(13) 0.9456(11)
O15 O 0.3951(9) 0.1746(10) 1.0769(10)
O16 O 0.2968(10) 0.3826(10) 1.1925(10)
O17 O 0.1006(10) 0.3219(10) 0.9136(10)
O18 O 0.1981(10) 0.1158(9) 0.8030(9)
O19 O 0.4916(12) 0.6096(17) 0.5914(14)
O20 O 0.0140(13) 0.8930(11) 0.4125(11)
O21 O 0.350(4) 0.869(4) 0.179(2)
O22 O 0.434(5) 0.906(4) 0.369(4)
O23? O 0.336(6) 0.664(5) 0.288(5)
O24? O 0.554(10) 0.886(9) 0.616(10)
O25 O 0.567(4) 0.759(4) 0.473(4)
O26 O 0.263(4) 0.976(4) 0.419(4)
O27 O 0.267(9) 0.686(8) 0.240(8)
O28 O 0.353(6) 0.126(6) 0.633(6)
O29? O 0.464(7) 0.894(7) 0.567(7)
O30 O 0.542(12) 0.958(12) 0.269(12)
O31? O 0.541(7) 0.834(7) 0.550(7)
V1A V 1.0752(2) 0.2925(2) 0.3774(2)
V2A V 0.8928(2) 0.3963(2) 0.5197(2)
V3A V 1.2217(2) 0.4843(2) 0.6840(2)
V4A V 0.7549(2) 0.2092(2) 0.2187(3)
V5A V 0.9470(3) 0.4031(3) 0.1781(2)
Ni1A Ni 0.75237(17) 0.75192(17) 1.00299(17)
Ni1A* Ni -0.24763(17) -0.24808(17) 1.00299(17)
N1A N 0.5990(13) 0.6014(12) 0.9967(12)
N2A N -0.0991(11) -0.0991(12) 1.0037(12)
N2A* N 0.9009(11) 0.9009(12) 1.0037(12)
C1A C 0.518(2) 0.632(2) 1.046(2)
H1A H 0.52920 0.72570 1.08540
C2A C 0.590(2) 0.465(2) 0.951(2)
H2A H 0.65160 0.43660 0.92010
C3A C 0.0380(14) -0.0416(15) 1.0947(15)
H3A H 0.06820 -0.06620 1.16490
C4A C -0.1360(15) -0.0518(14) 0.9110(14)
H4A H -0.23130 -0.08350 0.84860
O1A O 1.1788(10) 0.2107(10) 0.3982(10)
O2A O 1.0765(10) 0.3256(10) 0.2425(10)
O3A O 0.9031(10) 0.1544(9) 0.2738(9)
O4A O 1.0441(9) 0.3274(9) 0.5393(9)
O5A O 0.7633(9) 0.2452(9) 0.3995(10)
O6A O 1.2027(9) 0.4837(9) 0.5124(9)
O7A O 0.9362(9) 0.4161(9) 0.3694(9)
O8A O 0.8939(10) 0.416(1) 0.6657(10)
O9A O 1.3261(10) 0.4032(10) 0.7036(10)
O10A O 1.3353(9) 0.6651(9) 0.7746(9)
O11A O 1.1629(10) 0.4888(10) 0.8069(10)
O12A O 0.6256(11) 0.0611(10) 0.1243(11)
O13A O 0.8006(11) 0.242(1) 0.0996(10)
O14A O 0.9681(13) 0.4091(13) 0.0544(11)
O15A O 0.6049(9) 0.8254(10) 0.9231(10)
O16A O 0.7032(10) 0.6174(10) 0.8075(10)
O17A O 0.8994(10) 0.6781(10) 1.0864(10)
O18A O 0.8019(10) 0.8842(9) 1.1970(9)
#END
