
#######################################################################
#
#                 Cambridge Crystallographic Data Centre
#                                CCDC
#
#######################################################################
#
# If this CIF has been generated from an entry in the Cambridge
# Structural Database, then it will include bibliographic, chemical,
# crystal, experimental, refinement or atomic coordinate data resulting
# from the CCDC's data processing and validation procedures.
#
#######################################################################

data_CSD_CIF_EHABUN
_audit_creation_date 2019-05-17
_audit_creation_method CSD-ConQuest-V1
_database_code_CSD EHABUN
_database_code_depnum_ccdc_archive 'CCDC 1522518'
_chemical_formula_sum 'C29 H23 Co3 K2 N13 O15'
_chemical_formula_moiety
;
(C27 H15 Co3 K2 N12 O15 1-)n,n(C2 H8 N1 1+)
;
_journal_coden_Cambridge 772
_journal_year 2019
_journal_page_first 1900426
_journal_name_full 'Small '
loop_
_publ_author_name
"Na Li"
"Ze Chang"
"Hongliang Huang"
"Rui Feng"
"Wei-Wei He"
"Ming Zhong"
"D.G.Madden"
"M.J.Zaworotko"
"Xian-He Bu"
_chemical_name_systematic
;
catena-(dimethylammonium 
tris(\m-5-(3,5-dicarboxylatophenyl)tetrazolato)-tris(\m-aqua)-tri-cobalt-di-po
tassium unknown solvate)
;
_chemical_name_common
;
NKU-521
;
_cell_volume   3419.419
_exptl_crystal_colour 'purple'
_exptl_crystal_description 'rectangle'
_diffrn_ambient_temperature 113
_refine_special_details
;
The SQUEEZE/PLATON program was used to model the disordered cation and some 
solvent.
;
#These two values have been output from a single CSD field.
_refine_ls_R_factor_gt 0.1081
_refine_ls_wR_factor_gt 0.1081
_symmetry_cell_setting hexagonal
_symmetry_space_group_name_H-M 'P 63/m'
_symmetry_Int_Tables_number 176
loop_
_symmetry_equiv_pos_site_id
_symmetry_equiv_pos_as_xyz
1 x,y,z
2 -y,x-y,z
3 -x+y,-x,z
4 -x,-y,1/2+z
5 y,-x+y,1/2+z
6 x-y,x,1/2+z
7 -x,-y,-z
8 y,-x+y,-z
9 x-y,x,-z
10 x,y,-1/2-z
11 -y,x-y,-1/2-z
12 -x+y,-x,-1/2-z
_cell_length_a 19.670(5)
_cell_length_b 19.670(5)
_cell_length_c 10.205(5)
_cell_angle_alpha 90
_cell_angle_beta 90
_cell_angle_gamma 120
_cell_formula_units_Z 2
loop_
_atom_type_symbol
_atom_type_radius_bond
C 0.68
H 0.23
Co 1.26
K 2.03
N 0.68
O 0.68
loop_
_atom_site_label
_atom_site_type_symbol
_atom_site_fract_x
_atom_site_fract_y
_atom_site_fract_z
C1 C 0.5357(4) 0.9221(5) 0.6325(12)
C2 C 0.5112(8) 0.8810(7) 0.75000
H1 H 0.47889 0.82671 0.75000
C3 C 0.5867(5) 1.0067(4) 0.6406(10)
H2 H 0.60552 1.03441 0.56267
C4 C 0.6077(6) 1.0462(8) 0.75000
C5 C 0.6557(7) 1.1328(10) 0.75000
C6 C 0.5106(5) 0.8810(5) 0.4976(13)
Co1 Co 0.49036(9) 0.84809(8) 0.25000
K1 K 0.33333 0.66667 0.5128(5)
N1 N 0.6831(5) 1.2516(7) 0.75000
N2 N 0.7475(5) 1.2528(7) 0.75000
N3 N 0.7328(6) 1.1775(8) 0.75000
N4 N 0.6226(5) 1.1770(5) 0.75000
O1 O 0.5458(3) 0.9182(4) 0.3989(9)
O2 O 0.4568(4) 0.8104(3) 0.5024(9)
O3 O 0.2476(15) 0.5650(16) 0.75000
H3 H 0.19285 0.55123 0.75000
H4 H 0.25037 0.51710 0.75000
C1I C 0.5357(4) 0.9221(5) 0.8675(12)
C3I C 0.5867(5) 1.0067(4) 0.8594(10)
H2I H 0.60552 1.03441 0.93733
C6I C 0.5106(5) 0.8810(5) 1.0024(13)
O1I O 0.5458(3) 0.9182(4) 1.1011(9)
O2I O 0.4568(4) 0.8104(3) 0.9976(9)
C1A C 0.0779(4) 0.6136(5) 0.6325(12)
C2A C 0.1190(8) 0.6302(7) 0.75000
H1A H 0.17329 0.65218 0.75000
C3A C -0.0067(5) 0.5800(4) 0.6406(10)
H2A H -0.03441 0.57111 0.56267
C4A C -0.0462(6) 0.5615(8) 0.75000
C5A C -0.1328(7) 0.5229(10) 0.75000
C6A C 0.1190(5) 0.6296(5) 0.4976(13)
Co1A Co 0.15191(9) 0.64227(8) 0.25000
N1A N -0.2516(5) 0.4315(7) 0.75000
N2A N -0.2528(5) 0.4947(7) 0.75000
N3A N -0.1775(6) 0.5553(8) 0.75000
N4A N -0.1770(5) 0.4456(5) 0.75000
O1A O 0.0818(3) 0.6276(4) 0.3989(9)
O2A O 0.1896(4) 0.6464(3) 0.5024(9)
O3A O 0.4350(15) 0.6826(16) 0.75000
H3A H 0.44877 0.64163 0.75000
H4A H 0.48290 0.73327 0.75000
C1J C 0.0779(4) 0.6136(5) 0.8675(12)
C3J C -0.0067(5) 0.5800(4) 0.8594(10)
H2J H -0.03441 0.57111 0.93733
C6J C 0.1190(5) 0.6296(5) 1.0024(13)
O1J O 0.0818(3) 0.6276(4) 1.1011(9)
O2J O 0.1896(4) 0.6464(3) 0.9976(9)
C1B C 0.3864(4) 0.4643(5) 0.6325(12)
C2B C 0.3698(8) 0.4888(7) 0.75000
H1B H 0.34782 0.52111 0.75000
C3B C 0.4200(5) 0.4133(4) 0.6406(10)
H2B H 0.42889 0.39448 0.56267
C4B C 0.4385(6) 0.3923(8) 0.75000
C5B C 0.4771(7) 0.3443(10) 0.75000
C6B C 0.3704(5) 0.4894(5) 0.4976(13)
Co1B Co 0.35773(9) 0.50964(8) 0.25000
N1B N 0.5685(5) 0.3169(7) 0.75000
N2B N 0.5053(5) 0.2525(7) 0.75000
N3B N 0.4447(6) 0.2672(8) 0.75000
N4B N 0.5544(5) 0.3774(5) 0.75000
O1B O 0.3724(3) 0.4542(4) 0.3989(9)
O2B O 0.3536(4) 0.5432(3) 0.5024(9)
O3B O 0.3174(15) 0.7524(16) 0.75000
H3B H 0.35837 0.80715 0.75000
H4B H 0.26673 0.74963 0.75000
C1K C 0.3864(4) 0.4643(5) 0.8675(12)
C3K C 0.4200(5) 0.4133(4) 0.8594(10)
H2K H 0.42889 0.39448 0.93733
C6K C 0.3704(5) 0.4894(5) 1.0024(13)
O1K O 0.3724(3) 0.4542(4) 1.1011(9)
O2K O 0.3536(4) 0.5432(3) 0.9976(9)
K1F K 0.66667 0.33333 0.4872(5)
Co1* Co 0.49036(9) 0.84809(8) 1.25000
Co1A* Co 0.15191(9) 0.64227(8) 1.25000
Co1B* Co 0.35773(9) 0.50964(8) 1.25000
Co1C Co 0.50964(9) 0.15191(8) 0.75000
Co1C* Co 0.50964(9) 1.15191(8) 0.75000
Co1D Co -0.15191(9) 0.35773(8) 0.75000
Co1D* Co 0.84809(9) 1.35773(8) 0.75000
Co1E Co -0.35773(9) 0.49036(8) 0.75000
Co1E* Co 0.64227(9) 0.49036(8) 0.75000
K1C K -0.33333 0.33333 1.0128(5)
K1C* K 0.66667 0.33333 1.0128(5)
K1C** K 0.66667 1.33333 1.0128(5)
K1F* K -0.33333 0.33333 0.4872(5)
K1F** K 0.66667 1.33333 0.4872(5)
K1I K 0.33333 0.66667 0.9872(5)
N1* N 0.6831(5) 0.2516(7) 0.75000
N1A* N 0.7484(5) 0.4315(7) 0.75000
N1C N 0.3169(5) 0.7484(7) 0.25000
N1D N 0.2516(5) 0.5685(7) 0.25000
N1E N 0.4315(5) 0.6831(7) 0.25000
N2C N 0.2525(5) 0.7472(7) 0.25000
N2D N 0.2528(5) 0.5053(7) 0.25000
N2E N 0.4947(5) 0.7475(7) 0.25000
N4C N 0.3774(5) 0.8230(5) 0.25000
N4D N 0.1770(5) 0.5544(5) 0.25000
N4E N 0.4456(5) 0.6226(5) 0.25000
O1I* O 0.5458(3) 0.9182(4) 0.1011(9)
O1J* O 0.0818(3) 0.6276(4) 0.1011(9)
O1K* O 0.3724(3) 0.4542(4) 0.1011(9)
O2F O 0.5432(4) 0.1896(3) 0.4976(9)
O2G O 0.8104(4) 0.3536(3) 0.4976(9)
O2H O 0.6464(4) 0.4568(3) 0.4976(9)
O3C O 0.7524(15) 0.4350(16) 0.25000
O3D O 0.5650(15) 0.3174(16) 0.25000
O3E O 0.6826(15) 0.2476(16) 0.25000
#END
