
#######################################################################
#
#                 Cambridge Crystallographic Data Centre
#                                CCDC
#
#######################################################################
#
# If this CIF has been generated from an entry in the Cambridge
# Structural Database, then it will include bibliographic, chemical,
# crystal, experimental, refinement or atomic coordinate data resulting
# from the CCDC's data processing and validation procedures.
#
#######################################################################

data_CSD_CIF_EHAFUR
_audit_creation_date 2019-05-17
_audit_creation_method CSD-ConQuest-V1
_database_code_CSD EHAFUR
_database_code_depnum_ccdc_archive 'CCDC 1848724'
_chemical_formula_sum 'C176 H152 N52 O36 Zn13'
_chemical_formula_moiety
;
(C168 H120 N48 O36 Zn13 4-)n,4(C2 H8 N1 1+)
;
_journal_coden_Cambridge 182
_journal_volume 55
_journal_year 2019
_journal_page_first 6527
_journal_name_full 'Chem.Commun. '
loop_
_publ_author_name
"Xiao-Ning Wang"
"Jiang-Li Li"
"Yu-Meng Zhao"
"Jiandong Pang"
"Bao Li"
"Tian-Le Zhang"
"Hong-Cai Zhou"
_chemical_name_systematic
;
catena-[tetrakis(dimethylammonium) 
tris(\m-4,4',4'',4'''-(porphyrin-21,23-diyl-5,10,15,20-tetrayl)tetrabenzoato)-
dodecakis(\m-2H-1,2,3-triazolyl)-dodecakis(aqua)-trideca-zinc(ii) unknown 
solvate]
;
_chemical_name_common
;
catena-[tetrakis(dimethylammonium) 
tris(mu-meso-tetra(4-carboxylatophenyl)porphyrinato)-dodecakis(mu-2H-1,2,3-tri
azolyl)-dodecakis(aqua)-trideca-zinc(ii) unknown solvate]
;
_cell_volume   9647.016
_exptl_crystal_colour 'violet'
_exptl_crystal_density_diffrn 0.729
_exptl_crystal_description 'block'
_diffrn_ambient_temperature 100.0
_refine_special_details
;
The SQUEEZE/PLATON program has been used to model some disordered cations and 
solvent molecules.
;
#These two values have been output from a single CSD field.
_refine_ls_R_factor_gt 0.1128
_refine_ls_wR_factor_gt 0.1128
_symmetry_cell_setting triclinic
_symmetry_space_group_name_H-M 'P -1'
_symmetry_Int_Tables_number 2
loop_
_symmetry_equiv_pos_site_id
_symmetry_equiv_pos_as_xyz
1 x,y,z
2 -x,-y,-z
_cell_length_a 19.0940(16)
_cell_length_b 24.290(2)
_cell_length_c 24.738(2)
_cell_angle_alpha 61.042(5)
_cell_angle_beta 73.947(6)
_cell_angle_gamma 82.746(6)
_cell_formula_units_Z 1
loop_
_atom_type_symbol
_atom_type_radius_bond
C 0.68
H 0.23
N 0.68
O 0.68
Zn 1.22
loop_
_atom_site_label
_atom_site_type_symbol
_atom_site_fract_x
_atom_site_fract_y
_atom_site_fract_z
Zn1 Zn 0.49483(4) 0.51129(3) 1.24704(4)
Zn2 Zn 0.46181(4) 0.60899(4) 1.08382(4)
Zn3 Zn 0.52484(5) 0.61527(4) 1.31193(5)
Zn4 Zn 0.65885(5) 0.41838(4) 1.23333(5)
Zn5 Zn 0.33386(5) 0.41130(4) 1.35350(5)
Zn6 Zn 0.00000 1.00000 1.00000
Zn7 Zn 1.07559(5) 0.00878(4) 1.30482(6)
N1 N 0.4924(3) 0.6107(2) 1.1988(3)
N2 N 0.4963(3) 0.4096(2) 1.2968(2)
N3 N 0.5619(3) 0.5091(2) 1.1606(3)
O1 O 1.4613(2) 0.32243(18) 0.9914(2)
N4 N 0.4283(3) 0.5101(2) 1.3348(2)
N5 N 0.4428(3) 0.5438(2) 1.3591(3)
N6 N 0.5466(3) 0.5412(2) 1.1037(3)
N7 N 0.3969(3) 0.5072(2) 1.2203(3)
O2 O 0.4430(2) 0.5755(2) 1.0214(2)
H1 H 0.46760 0.54110 1.02720
H2 H 0.46150 0.60230 0.98160
N8 N 0.4385(3) 0.3722(2) 1.3334(2)
N9 N 0.5929(3) 0.5133(3) 1.2749(3)
O3 O 1.4481(3) -0.31699(19) 1.3210(3)
O4 O 0.5446(2) 0.5900(2) 1.4032(2)
H3 H 0.53360 0.55010 1.42980
H4 H 0.51420 0.61020 1.42100
O5 O 1.4410(3) 0.3518(2) 1.0676(3)
O6 O 0.3792(3) 0.6746(2) 1.0586(2)
N10 N 0.3745(3) 0.4695(3) 1.3782(3)
N11 N 1.0736(3) -0.0867(2) 1.3510(3)
N12 N 0.4815(3) 0.6458(2) 1.1402(3)
N13 N 0.3836(3) 0.5424(2) 1.1616(3)
O7 O 0.3936(3) 1.3165(2) 0.7307(3)
N14 N 0.3379(3) 0.4707(3) 1.2587(3)
N15 N 0.6040(3) 0.5496(2) 1.2992(3)
N16 N 1.0753(3) 0.1034(2) 1.2476(3)
N17 N 0.9639(3) 0.0074(2) 1.3282(3)
C1 C 0.4857(4) 0.7060(3) 1.1316(6)
H5 H 0.47730 0.74290 1.09520
O8 O 0.3370(3) 1.3393(3) 0.6529(3)
N18 N 0.5552(3) 0.3741(2) 1.2926(3)
N19 N 0.6185(3) 0.4721(2) 1.1563(3)
O9 O 0.3284(3) 0.6483(3) 1.0026(3)
O10 O 0.7154(4) 0.3400(3) 1.2774(4)
C2 C 0.8461(3) -0.0245(3) 1.3770(4)
H6 H 0.80480 -0.05150 1.40230
C3 C 1.2658(4) 0.1720(3) 1.1599(4)
N20 N 0.5038(3) 0.6478(3) 1.2187(3)
C4 C 0.5388(5) 0.3163(4) 1.3247(4)
H7 H 0.57060 0.28190 1.32870
O11 O 0.2244(3) 0.4482(3) 1.3756(3)
H8 H 0.19500 0.43870 1.41310
H9 H 0.20040 0.47570 1.34850
C5 C 0.8843(5) -0.1572(4) 1.4408(5)
C6 C 1.1355(4) 0.1422(3) 1.2108(4)
C7 C 1.0177(4) 0.1418(3) 1.2421(5)
C8 C 1.3737(4) 0.2665(3) 1.0847(3)
C9 C 0.2250(4) 1.0284(4) 0.8974(4)
H10 H 0.26610 1.05430 0.86850
N21 N 1.1855(3) 0.0079(2) 1.2663(3)
N22 N 0.6549(3) 0.4781(2) 1.2708(3)
C10 C 1.3043(4) 0.0390(3) 1.2173(4)
H11 H 1.34560 0.06590 1.19190
C11 C 1.2643(4) -0.1571(3) 1.3339(4)
C12 C 1.3659(4) -0.2528(3) 1.3543(4)
C13 C 0.8854(4) 0.1718(4) 1.2651(5)
O12 O 0.7008(3) 0.3402(3) 1.1919(4)
C14 C 0.8450(4) 0.0395(4) 1.3439(4)
H12 H 0.80300 0.06530 1.34110
O13 O 0.7710(3) 0.4600(3) 1.1738(3)
H13 H 0.81240 0.43960 1.16790
H14 H 0.78370 0.50070 1.15090
C15 C 1.1336(4) -0.1263(4) 1.3550(5)
C16 C 0.4643(5) 0.3133(3) 1.3530(4)
H15 H 0.43650 0.27590 1.38160
O14 O 0.7014(4) -0.3312(3) 1.5397(4)
C17 C 0.7818(4) 0.2660(4) 1.2485(6)
C18 C 1.3060(4) -0.0233(3) 1.2505(4)
H16 H 1.34790 -0.04930 1.25410
C19 C 0.3512(4) 0.4788(4) 1.4296(4)
H17 H 0.31420 0.45660 1.46720
C20 C 0.2233(4) 0.9655(4) 0.9280(4)
H18 H 0.26260 0.93850 0.92390
C21 C 0.9187(4) 0.0604(3) 1.3142(4)
C22 C 1.0145(4) -0.1254(3) 1.3866(5)
C23 C 1.2076(3) 0.1214(3) 1.2012(4)
C24 C 0.9420(4) 0.1213(3) 1.2759(4)
O15 O 1.4314(3) -0.3363(3) 1.4187(3)
C25 C 0.1826(5) 0.8310(4) 1.0091(6)
C26 C 1.4189(4) -0.3050(4) 1.3671(4)
C27 C 0.5024(5) 0.7064(4) 1.1783(4)
H19 H 0.51160 0.74180 1.18210
N23 N 0.1079(3) 0.9980(3) 0.9590(4)
C28 C 1.2285(4) 0.0596(3) 1.2263(4)
C29 C 1.0364(5) -0.1897(3) 1.4151(5)
H20 H 1.00570 -0.22540 1.44410
C30 C 1.3592(4) 0.2266(3) 1.0650(4)
H21 H 1.38590 0.23170 1.02420
C31 C 1.2062(4) -0.1060(3) 1.3215(4)
N24 N 0.0032(3) 1.0953(3) 0.9544(4)
C32 C 0.7260(5) 0.3190(4) 1.2411(6)
C33 C 0.2911(4) 1.2554(3) 0.7577(5)
C34 C 1.3456(4) -0.2208(4) 1.2975(4)
H22 H 1.36680 -0.23270 1.26510
C35 C 1.2295(4) -0.0436(3) 1.2803(4)
O16 O 0.7202(4) -0.3296(3) 1.6236(4)
C36 C 1.2967(4) -0.1733(3) 1.2855(4)
H23 H 1.28490 -0.15160 1.24540
C37 C 0.9207(4) -0.0440(3) 1.3671(4)
C38 C 0.3925(5) 0.5268(4) 1.4152(4)
H24 H 0.38720 0.54650 1.44120
C39 C 1.0386(4) 0.2055(3) 1.2012(5)
H25 H 1.00740 0.24090 1.19040
C40 C 0.1895(4) 1.1616(4) 0.8455(6)
C41 C 0.2934(5) 1.2211(4) 0.8181(5)
H26 H 0.33160 1.22910 0.83120
C42 C 0.2817(4) 0.7357(3) 1.0202(4)
C43 C 0.6985(5) 0.4938(4) 1.2944(5)
H27 H 0.74490 0.47580 1.29920
C44 C 0.5965(5) 0.5237(4) 1.0648(4)
H28 H 0.60110 0.54000 1.02040
C45 C 0.7840(5) -0.2529(4) 1.5221(6)
C46 C 1.4297(4) 0.3180(3) 1.0452(4)
C47 C 1.3075(4) 0.1793(3) 1.1012(4)
H29 H 1.30050 0.15170 1.08610
C48 C 0.0620(4) 1.1330(3) 0.9140(6)
C49 C 0.3159(4) 0.5278(4) 1.1676(5)
H30 H 0.29130 0.54700 1.13440
C50 C 1.2786(4) 0.2126(4) 1.1815(4)
H31 H 1.25060 0.20780 1.22190
C51 C 0.6379(4) 0.4806(3) 1.0980(4)
H32 H 0.67600 0.45900 1.08210
C52 C 0.1520(4) 1.0497(4) 0.9167(5)
C53 C 0.9420(4) -0.1055(3) 1.3946(4)
C54 C 0.6702(5) 0.5368(4) 1.3102(5)
H33 H 0.69270 0.55600 1.32680
O17 O 1.0901(4) 0.0156(4) 1.3917(4)
H34 H 1.08470 -0.01530 1.43250
H35 H 1.10270 0.05020 1.39210
C55 C 0.1249(4) 0.8846(4) 1.0060(5)
C56 C 1.1090(4) -0.1895(3) 1.3928(5)
H36 H 1.13880 -0.22570 1.40090
C57 C 1.3306(4) 0.2591(4) 1.1456(4)
H37 H 1.33820 0.28650 1.16090
C58 C 0.1317(4) 1.1118(3) 0.8929(5)
C59 C 0.2436(5) 1.1747(4) 0.8627(5)
H38 H 0.24720 1.15180 0.90570
C60 C 1.1115(4) 0.2059(3) 1.1808(5)
H39 H 1.14160 0.24190 1.15170
C61 C 0.7333(5) -0.3104(5) 1.5707(9)
C62 C 0.2878(4) 0.4832(4) 1.2255(4)
H40 H 0.24130 0.46380 1.24080
C63 C 0.1500(4) 0.9459(4) 0.9689(5)
C64 C 0.2836(4) 0.7724(4) 1.0444(5)
H41 H 0.32080 0.76530 1.06580
C65 C 0.1759(6) 0.7942(5) 0.9790(6)
H42 H 0.14010 0.80160 0.95610
C66 C 0.2340(5) 0.8225(4) 1.0413(5)
H43 H 0.23660 0.84800 1.06010
O18 O 0.0357(8) 1.0020(8) 1.0844(6)
H44 H 0.01310 0.98190 1.13040
H45 H 0.07670 1.02550 1.07930
C67 C 0.3360(5) 0.6811(4) 1.0290(5)
C68 C 0.2361(5) 1.2435(4) 0.7346(6)
H46 H 0.23450 1.26450 0.69100
C69 C 0.8501(7) -0.1828(5) 1.4175(6)
H47 H 0.85890 -0.16590 1.37260
C70 C 0.8093(6) 0.2456(5) 1.2093(7)
H48 H 0.79240 0.26450 1.17150
C71 C 1.3273(6) -0.2382(4) 1.4018(4)
H49 H 1.33360 -0.26210 1.44390
C72 C 0.2267(5) 0.7477(4) 0.9872(5)
H50 H 0.22510 0.72110 0.96930
C73 C 0.3446(5) 1.3073(4) 0.7104(6)
C74 C 1.2814(4) -0.1903(4) 1.3878(5)
H51 H 1.25900 -0.17930 1.42070
C75 C 0.8584(6) 0.1911(5) 1.3091(6)
H52 H 0.87600 0.17330 1.34640
C76 C 0.0410(5) 1.1972(4) 0.9009(8)
H53 H 0.07350 1.23200 0.88060
C77 C 0.8170(7) -0.2264(6) 1.5411(7)
H54 H 0.80810 -0.24280 1.58590
C78 C 0.1827(5) 1.1956(5) 0.7856(7)
H55 H 0.14120 1.18830 0.77560
C79 C 0.8063(7) 0.2356(5) 1.3008(7)
H56 H 0.78610 0.24580 1.33450
C80 C 0.8033(6) -0.2322(5) 1.4565(6)
H57 H 0.78390 -0.25260 1.43920
C81 C 0.8609(5) 0.1992(5) 1.2141(7)
H58 H 0.87800 0.18770 1.18100
C82 C 0.8643(7) -0.1763(5) 1.5037(6)
H59 H 0.88230 -0.15580 1.52170
C83 C -0.0536(4) 1.1342(4) 0.9616(6)
C84 C -0.0289(5) 1.1993(4) 0.9212(8)
H60 H -0.05820 1.23590 0.91160
O6A O -0.3792(3) 1.3254(2) 0.9414(2)
O7A O -0.3936(3) 0.6835(2) 1.2693(3)
O8A O -0.3370(3) 0.6607(3) 1.3471(3)
O9A O -0.3284(3) 1.3517(3) 0.9974(3)
C9A C -0.2250(4) 0.9716(4) 1.1026(4)
H10A H -0.26610 0.94570 1.13150
C20A C -0.2233(4) 1.0345(4) 1.0720(4)
H18A H -0.26260 1.06150 1.07610
C25A C -0.1826(5) 1.1690(4) 0.9909(6)
N23A N -0.1079(3) 1.0020(3) 1.0410(4)
N24A N -0.0032(3) 0.9047(3) 1.0456(4)
C33A C -0.2911(4) 0.7446(3) 1.2423(5)
C40A C -0.1895(4) 0.8384(4) 1.1545(6)
C41A C -0.2934(5) 0.7789(4) 1.1819(5)
H26A H -0.33160 0.77090 1.16880
C42A C -0.2817(4) 1.2643(3) 0.9798(4)
C48A C -0.0620(4) 0.8670(3) 1.0860(6)
C52A C -0.1520(4) 0.9503(4) 1.0833(5)
C55A C -0.1249(4) 1.1154(4) 0.9940(5)
C58A C -0.1317(4) 0.8882(3) 1.1071(5)
C59A C -0.2436(5) 0.8253(4) 1.1373(5)
H38A H -0.24720 0.84820 1.09430
C63A C -0.1500(4) 1.0541(4) 1.0311(5)
C64A C -0.2836(4) 1.2276(4) 0.9556(5)
H41A H -0.32080 1.23470 0.93420
C65A C -0.1759(6) 1.2058(5) 1.0210(6)
H42A H -0.14010 1.19840 1.04390
C66A C -0.2340(5) 1.1775(4) 0.9587(5)
H43A H -0.23660 1.15200 0.93990
C67A C -0.3360(5) 1.3189(4) 0.9710(5)
C68A C -0.2361(5) 0.7565(4) 1.2654(6)
H46A H -0.23450 0.73550 1.30900
C72A C -0.2267(5) 1.2523(4) 1.0128(5)
H50A H -0.22510 1.27890 1.03070
C73A C -0.3446(5) 0.6927(4) 1.2896(6)
C76A C -0.0410(5) 0.8028(4) 1.0991(8)
H53A H -0.07350 0.76800 1.11940
C78A C -0.1827(5) 0.8044(5) 1.2144(7)
H55A H -0.14120 0.81170 1.22440
C83A C 0.0536(4) 0.8658(4) 1.0384(6)
C84A C 0.0289(5) 0.8007(4) 1.0788(8)
H60A H 0.05820 0.76410 1.08840
Zn1A Zn -0.49483(4) 1.48871(3) 0.75296(4)
Zn2A Zn -0.46181(4) 1.39101(4) 0.91618(4)
Zn3A Zn -0.52484(5) 1.38473(4) 0.68807(5)
Zn4A Zn -0.65885(5) 1.58162(4) 0.76667(5)
Zn5A Zn -0.33386(5) 1.58870(4) 0.64650(5)
Zn7A Zn -1.07559(5) 1.99122(4) 0.69518(6)
N1A N -0.4924(3) 1.3893(2) 0.8012(3)
N2A N -0.4963(3) 1.5904(2) 0.7032(2)
N3A N -0.5619(3) 1.4909(2) 0.8394(3)
O1A O -1.4613(2) 1.67757(18) 1.0086(2)
N4A N -0.4283(3) 1.4899(2) 0.6652(2)
N5A N -0.4428(3) 1.4562(2) 0.6409(3)
N6A N -0.5466(3) 1.4588(2) 0.8963(3)
N7A N -0.3969(3) 1.4928(2) 0.7797(3)
O2A O -0.4430(2) 1.4245(2) 0.9786(2)
H1A H -0.46760 1.45890 0.97280
H2A H -0.46150 1.39770 1.01840
N8A N -0.4385(3) 1.6278(2) 0.6666(2)
N9A N -0.5929(3) 1.4867(3) 0.7251(3)
O3A O -1.4481(3) 2.31699(19) 0.6790(3)
O4A O -0.5446(2) 1.4100(2) 0.5968(2)
H3A H -0.53360 1.44990 0.57020
H4A H -0.51420 1.38980 0.57900
O5A O -1.4410(3) 1.6482(2) 0.9324(3)
N10A N -0.3745(3) 1.5305(3) 0.6218(3)
N11A N -1.0736(3) 2.0867(2) 0.6490(3)
N12A N -0.4815(3) 1.3542(2) 0.8598(3)
N13A N -0.3836(3) 1.4576(2) 0.8384(3)
N14A N -0.3379(3) 1.5293(3) 0.7413(3)
N15A N -0.6040(3) 1.4504(2) 0.7008(3)
N16A N -1.0753(3) 1.8966(2) 0.7524(3)
N17A N -0.9639(3) 1.9926(2) 0.6718(3)
C1A C -0.4857(4) 1.2940(3) 0.8684(6)
H5A H -0.47730 1.25710 0.90480
N18A N -0.5552(3) 1.6259(2) 0.7074(3)
N19A N -0.6185(3) 1.5279(2) 0.8437(3)
O10A O -0.7154(4) 1.6600(3) 0.7226(4)
C2A C -0.8461(3) 2.0245(3) 0.6230(4)
H6A H -0.80480 2.05150 0.59770
C3A C -1.2658(4) 1.8280(3) 0.8401(4)
N20A N -0.5038(3) 1.3522(3) 0.7813(3)
C4A C -0.5388(5) 1.6837(4) 0.6753(4)
H7A H -0.57060 1.71810 0.67130
O11A O -0.2244(3) 1.5518(3) 0.6244(3)
H8A H -0.19500 1.56130 0.58690
H9A H -0.20040 1.52430 0.65150
C5A C -0.8843(5) 2.1572(4) 0.5592(5)
C6A C -1.1355(4) 1.8578(3) 0.7892(4)
C7A C -1.0177(4) 1.8582(3) 0.7579(5)
C8A C -1.3737(4) 1.7335(3) 0.9153(3)
N21A N -1.1855(3) 1.9921(2) 0.7337(3)
N22A N -0.6549(3) 1.5219(2) 0.7292(3)
C10A C -1.3043(4) 1.9610(3) 0.7827(4)
H11A H -1.34560 1.93410 0.80810
C11A C -1.2643(4) 2.1571(3) 0.6661(4)
C12A C -1.3659(4) 2.2528(3) 0.6457(4)
C13A C -0.8854(4) 1.8282(4) 0.7349(5)
O12A O -0.7008(3) 1.6598(3) 0.8081(4)
C14A C -0.8450(4) 1.9605(4) 0.6561(4)
H12A H -0.80300 1.93470 0.65890
O13A O -0.7710(3) 1.5400(3) 0.8262(3)
H13A H -0.81240 1.56040 0.83210
H14A H -0.78370 1.49930 0.84910
C15A C -1.1336(4) 2.1263(4) 0.6450(5)
C16A C -0.4643(5) 1.6867(3) 0.6470(4)
H15A H -0.43650 1.72410 0.61840
O14A O -0.7014(4) 2.3312(3) 0.4603(4)
C17A C -0.7818(4) 1.7340(4) 0.7515(6)
C18A C -1.3060(4) 2.0233(3) 0.7495(4)
H16A H -1.34790 2.04930 0.74590
C19A C -0.3512(4) 1.5212(4) 0.5704(4)
H17A H -0.31420 1.54340 0.53280
C21A C -0.9187(4) 1.9396(3) 0.6858(4)
C22A C -1.0145(4) 2.1254(3) 0.6134(5)
C23A C -1.2076(3) 1.8786(3) 0.7988(4)
C24A C -0.9420(4) 1.8787(3) 0.7241(4)
O15A O -1.4314(3) 2.3363(3) 0.5813(3)
C26A C -1.4189(4) 2.3050(4) 0.6329(4)
C27A C -0.5024(5) 1.2936(4) 0.8217(4)
H19A H -0.51160 1.25820 0.81790
C28A C -1.2285(4) 1.9404(3) 0.7737(4)
C29A C -1.0364(5) 2.1897(3) 0.5849(5)
H20A H -1.00570 2.22540 0.55590
C30A C -1.3592(4) 1.7734(3) 0.9350(4)
H21A H -1.38590 1.76830 0.97580
C31A C -1.2062(4) 2.1060(3) 0.6785(4)
C32A C -0.7260(5) 1.6810(4) 0.7589(6)
C34A C -1.3456(4) 2.2208(4) 0.7025(4)
H22A H -1.36680 2.23270 0.73490
C35A C -1.2295(4) 2.0436(3) 0.7197(4)
O16A O -0.7202(4) 2.3296(3) 0.3764(4)
C36A C -1.2967(4) 2.1733(3) 0.7145(4)
H23A H -1.28490 2.15160 0.75460
C37A C -0.9207(4) 2.0440(3) 0.6329(4)
C38A C -0.3925(5) 1.4732(4) 0.5848(4)
H24A H -0.38720 1.45350 0.55880
C39A C -1.0386(4) 1.7945(3) 0.7988(5)
H25A H -1.00740 1.75910 0.80960
C43A C -0.6985(5) 1.5062(4) 0.7056(5)
H27A H -0.74490 1.52420 0.70080
C44A C -0.5965(5) 1.4763(4) 0.9352(4)
H28A H -0.60110 1.46000 0.97960
C45A C -0.7840(5) 2.2529(4) 0.4779(6)
C46A C -1.4297(4) 1.6820(3) 0.9548(4)
C47A C -1.3075(4) 1.8207(3) 0.8988(4)
H29A H -1.30050 1.84830 0.91390
C49A C -0.3159(4) 1.4722(4) 0.8324(5)
H30A H -0.29130 1.45300 0.86560
C50A C -1.2786(4) 1.7874(4) 0.8185(4)
H31A H -1.25060 1.79220 0.77810
C51A C -0.6379(4) 1.5194(3) 0.9020(4)
H32A H -0.67600 1.54100 0.91790
C53A C -0.9420(4) 2.1055(3) 0.6054(4)
C54A C -0.6702(5) 1.4632(4) 0.6898(5)
H33A H -0.69270 1.44400 0.67320
O17A O -1.0901(4) 1.9844(4) 0.6083(4)
H34A H -1.08470 2.01530 0.56750
H35A H -1.10270 1.94980 0.60790
C56A C -1.1090(4) 2.1895(3) 0.6072(5)
H36A H -1.13880 2.22570 0.59910
C57A C -1.3306(4) 1.7409(4) 0.8544(4)
H37A H -1.33820 1.71350 0.83910
C60A C -1.1115(4) 1.7941(3) 0.8192(5)
H39A H -1.14160 1.75810 0.84830
C61A C -0.7333(5) 2.3104(5) 0.4293(9)
C62A C -0.2878(4) 1.5168(4) 0.7745(4)
H40A H -0.24130 1.53620 0.75920
O18A O -0.0357(8) 0.9980(8) 0.9156(6)
H44A H -0.01310 1.01810 0.86960
H45A H -0.07670 0.97450 0.92070
C69A C -0.8501(7) 2.1828(5) 0.5825(6)
H47A H -0.85890 2.16590 0.62740
C70A C -0.8093(6) 1.7544(5) 0.7907(7)
H48A H -0.79240 1.73550 0.82850
C71A C -1.3273(6) 2.2382(4) 0.5982(4)
H49A H -1.33360 2.26210 0.55610
C74A C -1.2814(4) 2.1903(4) 0.6122(5)
H51A H -1.25900 2.17930 0.57930
C75A C -0.8584(6) 1.8089(5) 0.6909(6)
H52A H -0.87600 1.82670 0.65360
C77A C -0.8170(7) 2.2264(6) 0.4589(7)
H54A H -0.80810 2.24280 0.41410
C79A C -0.8063(7) 1.7644(5) 0.6992(7)
H56A H -0.78610 1.75420 0.66550
C80A C -0.8033(6) 2.2322(5) 0.5435(6)
H57A H -0.78390 2.25260 0.56080
C81A C -0.8609(5) 1.8008(5) 0.7859(7)
H58A H -0.87800 1.81230 0.81900
C82A C -0.8643(7) 2.1763(5) 0.4963(6)
H59A H -0.88230 2.15580 0.47830
Zn2* Zn -1.53819(4) 1.60899(4) 1.08382(4)
Zn2A* Zn 1.53819(4) 0.39101(4) 0.91618(4)
Zn3* Zn -0.47516(5) 0.61527(4) 1.31193(5)
Zn3** Zn 1.52484(5) -0.38473(4) 1.31193(5)
Zn3A* Zn -1.52484(5) 2.38473(4) 0.68807(5)
Zn3A** Zn 0.47516(5) 1.38473(4) 0.68807(5)
Zn5* Zn -0.66614(5) 2.41130(4) 0.35350(5)
Zn5A* Zn 0.66614(5) -0.41130(4) 1.64650(5)
O1* O -0.5387(2) 1.32243(18) 0.9914(2)
O1A* O 0.5387(2) 0.67757(18) 1.0086(2)
O3* O 0.4481(3) 0.68301(19) 1.3210(3)
O3A* O -0.4481(3) 1.31699(19) 0.6790(3)
O7* O -0.6064(3) 1.3165(2) 0.7307(3)
O7A* O 0.6064(3) 0.6835(2) 1.2693(3)
O14* O -0.2986(4) 1.6688(3) 0.5397(4)
O14A* O 0.2986(4) 0.3312(3) 1.4603(4)
O16* O -0.2798(4) 1.6704(3) 0.6236(4)
O16A* O 0.2798(4) 0.3296(3) 1.3764(4)
#END
