
#######################################################################
#
#                 Cambridge Crystallographic Data Centre
#                                CCDC
#
#######################################################################
#
# If this CIF has been generated from an entry in the Cambridge
# Structural Database, then it will include bibliographic, chemical,
# crystal, experimental, refinement or atomic coordinate data resulting
# from the CCDC's data processing and validation procedures.
#
#######################################################################

data_CSD_CIF_EHAFOL
_audit_creation_date 2019-05-17
_audit_creation_method CSD-ConQuest-V1
_database_code_CSD EHAFOL
_database_code_depnum_ccdc_archive 'CCDC 1848723'
_chemical_formula_sum 'C166 H126 N28 O28 Zn9'
_chemical_formula_moiety
;
(C154 H84 N22 O28 Zn9 6-)n,6(C2 H7 N1 1+)
;
_journal_coden_Cambridge 182
_journal_volume 55
_journal_year 2019
_journal_page_first 6527
_journal_name_full 'Chem.Commun. '
loop_
_publ_author_name
"Xiao-Ning Wang"
"Jiang-Li Li"
"Yu-Meng Zhao"
"Jiandong Pang"
"Bao Li"
"Tian-Le Zhang"
"Hong-Cai Zhou"
_chemical_name_systematic
;
catena-[hexakis(dimethylammonium) 
tris(\m-4,4',4'',4'''-(porphyrin-21,23-diyl-5,10,15,20-tetrayl)tetrabenzoato)-
 bis(aqua)-bis(\m-6-aminopurin-9-yl)-bis(\m-oxido)-nona-zinc(ii) unknown 
solvate]
;
_chemical_name_common
;
catena-[hexakis(dimethylammonium) 
tris(mu-meso-tetra(4-carboxylatophenyl)porphyrinato)-bis(aqua)-bis(mu-adenine)
-bis(mu-oxido)-nona-zinc(ii) unknown solvate]
;
_cell_volume  21050.725
_exptl_crystal_colour 'violet'
_exptl_crystal_description 'block'
_diffrn_ambient_temperature 293
_refine_special_details
;
The SQUEEZE/PLATON program has been used to model some disordered cations and 
solvent molecules.
;
#These two values have been output from a single CSD field.
_refine_ls_R_factor_gt 0.0897
_refine_ls_wR_factor_gt 0.0897
_symmetry_cell_setting triclinic
_symmetry_space_group_name_H-M 'P -1'
_symmetry_Int_Tables_number 2
loop_
_symmetry_equiv_pos_site_id
_symmetry_equiv_pos_as_xyz
1 x,y,z
2 -x,-y,-z
_cell_length_a 25.4598(13)
_cell_length_b 26.2974(14)
_cell_length_c 31.8554(17)
_cell_angle_alpha 90.284(3)
_cell_angle_beta 92.982(3)
_cell_angle_gamma 98.728(3)
_cell_formula_units_Z 2
loop_
_atom_type_symbol
_atom_type_radius_bond
C 0.68
H 0.23
N 0.68
O 0.68
Zn 1.22
loop_
_atom_site_label
_atom_site_type_symbol
_atom_site_fract_x
_atom_site_fract_y
_atom_site_fract_z
Zn1 Zn 0.89506(2) 1.13181(2) 0.82260(2)
Zn2 Zn 0.71246(6) 0.78518(5) 0.48409(4)
Zn3 Zn 0.95762(2) 1.55271(2) 0.94627(2)
Zn4 Zn 1.02198(2) 1.99485(2) 1.04408(2)
Zn5 Zn 0.38529(2) 0.62114(2) 0.82060(2)
Zn6 Zn 0.50610(2) 1.48094(2) 1.04341(2)
Zn7 Zn 0.43374(3) 1.07052(3) 0.87563(4)
Zn8 Zn 0.44101(3) 0.57470(3) 0.73671(2)
Zn9 Zn 0.93744(3) 1.07585(3) 0.73729(2)
O1 O 1.00569(13) 1.92088(11) 1.02231(12)
O2 O 0.48449(15) 1.44092(13) 0.94579(12)
O3 O 0.58455(12) 1.49031(14) 1.02932(13)
O4 O 0.05788(13) 1.00878(15) 0.94908(12)
O5 O 0.40642(14) 0.69530(13) 0.82847(11)
O6 O 0.38612(13) 0.60913(11) 0.75919(10)
O7 O 0.92472(13) 1.20288(12) 0.83784(12)
O8 O 0.09235(12) 1.00415(14) 1.01484(13)
O9 O 0.57314(13) 1.51807(15) 0.96329(12)
O10 O 0.90290(12) 1.12868(13) 0.76076(10)
O11 O 0.97441(14) 1.92649(12) 0.95652(13)
O12 O 0.49370(16) 1.41431(13) 1.01083(13)
O13 O 0.90253(13) 1.17399(12) 0.90158(12)
O14 O 0.81898(13) 1.11447(14) 0.83062(12)
O15 O 0.59874(19) 0.48402(18) 0.29299(15)
O16 O 0.3698(3) 0.71218(15) 0.76598(18)
O17 O 0.4955(2) 0.6167(2) 0.70697(17)
O18 O 1.00311(19) 0.8847(2) 0.29123(16)
O19 O 0.8954(3) 1.0241(2) 0.7028(2)
O20 O 0.79558(18) 1.1432(3) 0.7693(2)
O21 O 0.8619(3) 1.0849(3) 0.6664(3)
O22 O 0.4278(3) 0.6416(3) 0.66924(19)
O23 O 0.9754(3) 0.9579(3) 0.2948(2)
O24 O 0.5216(2) 0.5065(3) 0.3023(2)
N1 N 0.90901(12) 1.59960(13) 0.97132(13)
N2 N 0.38799(14) 1.11433(13) 0.90828(14)
N3 N 1.01916(12) 1.61368(12) 0.95027(12)
N4 N 0.49508(13) 1.13055(14) 0.87968(14)
N5 N 0.37687(14) 1.00765(13) 0.88060(13)
N6 N 0.93167(14) 1.07608(13) 0.84724(14)
N7 N 0.48393(14) 1.02394(13) 0.85417(13)
N8 N 0.90107(12) 1.48897(12) 0.95633(12)
N9 N 1.01202(13) 1.50400(13) 0.93718(11)
N10 N 0.95655(14) 1.02172(14) 0.89655(14)
N11 N 0.43877(13) 0.58043(13) 0.84704(14)
N12 N 0.48490(13) 0.54513(14) 0.89798(13)
N13 N 0.48701(16) 0.55680(18) 0.78702(14)
N14 N 0.5610(2) 0.5132(3) 0.80797(19)
N15 N 0.9539(2) 1.02835(16) 0.78585(16)
N16 N 0.5814(2) 0.4934(2) 0.87646(17)
H1 H 0.60700 0.47810 0.86890
H2 H 0.57470 0.49490 0.90260
C1 C 0.9858(4) 0.9593(3) 0.8435(3)
N17 N 0.9995(4) 0.9247(3) 0.8700(2)
H3 H 1.01070 0.89770 0.86070
H4 H 0.99730 0.92910 0.89660
C2 C 1.14854(17) 1.57589(17) 0.91620(17)
C3 C 1.01361(15) 1.66342(15) 0.95509(15)
C4 C 0.25359(17) 1.03983(18) 0.92983(19)
C5 C 0.97098(15) 1.73897(16) 0.97382(17)
C6 C 0.32674(16) 1.00685(17) 0.89636(17)
C7 C 0.85672(16) 1.58515(17) 0.98020(16)
C8 C 0.33638(17) 1.09860(17) 0.91883(17)
C9 C 0.40002(17) 1.16442(16) 0.91761(16)
C10 C 1.06557(16) 1.51736(16) 0.93315(15)
C11 C 0.90374(15) 1.44057(15) 0.94516(15)
C12 C 0.49380(17) 1.17942(17) 0.89415(18)
C13 C 0.94678(18) 1.36668(16) 0.92274(17)
O25 O 0.4024(2) 1.0924(2) 0.80929(17)
H5 H 0.37560 1.10720 0.80320
H6 H 0.41500 1.08720 0.78570
C14 C 0.92089(15) 1.65101(15) 0.97833(16)
C15 C 0.35514(19) 1.18295(17) 0.93430(19)
H7 H 0.35340 1.21640 0.94310
C16 C 1.00177(16) 1.45169(16) 0.93502(16)
C17 C 0.77020(17) 1.52956(16) 0.98287(18)
C18 C 0.98055(15) 1.84576(15) 0.98257(16)
C19 C 0.32966(19) 0.92584(18) 0.8754(2)
H8 H 0.32170 0.89060 0.87010
C20 C 0.37847(19) 0.95861(18) 0.86632(19)
C21 C 0.53630(17) 1.03819(17) 0.84475(18)
C22 C 0.62115(17) 1.09645(17) 0.83627(18)
C23 C 0.45612(17) 1.25054(18) 0.92815(18)
C24 C 0.81789(18) 1.44122(16) 0.95604(18)
H9 H 0.78150 1.43220 0.95890
C25 C 0.4160(2) 0.88630(17) 0.83651(19)
C26 C 0.29807(19) 0.95523(18) 0.8928(2)
H10 H 0.26370 0.94440 0.90100
C27 C 0.54419(18) 1.21069(18) 0.89057(19)
H11 H 0.55300 1.24520 0.89820
C28 C 0.47785(19) 0.55791(17) 0.82904(17)
C29 C 1.07054(16) 1.61299(16) 0.93836(16)
C30 C 0.84922(15) 1.49173(16) 0.96429(16)
C31 C 0.47451(17) 1.35172(17) 0.95652(17)
C32 C 0.44522(15) 0.57179(16) 0.88711(15)
H12 H 0.42390 0.58330 0.90680
C33 C 0.30811(17) 1.04880(17) 0.91394(16)
C34 C 1.09092(17) 1.47256(16) 0.93121(16)
H13 H 1.12720 1.47160 0.93040
C35 C 1.09601(17) 1.66590(16) 0.93444(16)
H14 H 1.13040 1.67620 0.92610
C36 C 1.25176(19) 1.59246(18) 0.88869(19)
C37 C 0.47146(18) 0.97260(17) 0.84386(18)
C38 C 0.09518(19) 1.01063(16) 0.97552(19)
C39 C 0.54491(18) 1.13022(17) 0.86686(18)
C40 C 0.85128(17) 1.41020(16) 0.94354(17)
H15 H 0.84250 1.37580 0.93540
C41 C 0.31537(19) 1.14159(17) 0.93479(19)
H16 H 0.28120 1.14160 0.94380
C42 C 0.82875(16) 1.53578(15) 0.97612(16)
C43 C 0.55623(19) 0.99470(19) 0.82657(19)
H17 H 0.59010 0.99460 0.81700
C44 C 0.69382(15) 1.49606(17) 1.02096(16)
H18 H 0.67930 1.47800 1.04370
C45 C 0.93708(17) 1.06498(18) 0.88764(17)
H19 H 0.92780 1.08620 0.90860
C46 C 0.51712(19) 0.95516(18) 0.82618(19)
H20 H 0.51870 0.92210 0.81630
C47 C 1.06232(15) 1.69722(16) 0.94467(16)
H21 H 1.06830 1.73300 0.94510
C48 C 0.95122(16) 1.42132(16) 0.93591(15)
C49 C 0.4012(2) 0.78185(19) 0.8136(2)
C50 C 0.66032(15) 1.51477(17) 0.99172(16)
C51 C 0.57662(18) 1.18112(18) 0.8741(2)
H22 H 0.61220 1.19100 0.86840
C52 C 1.09221(15) 1.56855(16) 0.93084(16)
C53 C 1.05104(17) 1.43126(16) 0.93084(16)
H23 H 1.05480 1.39680 0.92840
C54 C 0.44956(18) 1.19546(17) 0.91198(18)
C55 C 0.93041(17) 1.26409(16) 0.89348(16)
C56 C 0.96855(16) 1.68172(16) 0.96941(17)
C57 C 0.15059(17) 1.02034(17) 0.96102(19)
C58 C 0.9504(2) 1.0357(2) 0.82742(19)
C59 C 0.72771(18) 1.11413(19) 0.8150(2)
C60 C 0.91901(18) 1.20948(17) 0.87788(17)
C61 C 0.83646(17) 1.62946(17) 0.99490(18)
H24 H 0.80240 1.62980 1.00400
C62 C 0.87430(18) 1.66993(17) 0.99348(19)
H25 H 0.87160 1.70370 1.00070
C63 C 0.56457(18) 1.08753(18) 0.85001(19)
C64 C 0.42248(18) 0.94172(17) 0.84969(17)
C65 C 0.6028(4) 0.6458(3) 0.4696(2)
H26 H 0.58740 0.61630 0.45470
C66 C 0.9691(2) 1.82210(18) 0.94452(19)
H27 H 0.96420 1.84170 0.92080
C67 C 0.92237(19) 1.32681(18) 0.94698(18)
H28 H 0.91110 1.33450 0.97330
C68 C 0.48592(16) 1.40739(16) 0.9736(2)
C69 C 0.91440(19) 1.27670(16) 0.93340(17)
H29 H 0.89840 1.25090 0.95050
C70 C 0.50626(19) 0.5372(2) 0.85978(17)
C71 C 0.9637(2) 1.35251(18) 0.88416(18)
H30 H 0.98120 1.37810 0.86760
C72 C 0.20814(19) 1.0278(2) 0.90209(19)
H31 H 0.21180 1.02580 0.87330
C73 C 0.9558(2) 1.30264(17) 0.86924(18)
H32 H 0.96750 1.29500 0.84310
N18 N 0.7775(2) 0.8424(2) 0.48445(18)
C74 C 0.73591(17) 1.5487(2) 0.95320(18)
H33 H 0.74960 1.56640 0.93000
C75 C 0.19532(18) 1.0309(2) 0.98723(19)
H34 H 0.19150 1.03150 1.01610
C76 C 1.16021(18) 1.55501(18) 0.87898(19)
H35 H 1.13330 1.53490 0.86280
C77 C 0.98866(17) 1.90246(19) 0.98855(18)
C78 C 0.68216(18) 1.5411(2) 0.9584(2)
H36 H 0.65990 1.55440 0.93860
C79 C 0.9827(2) 1.76172(17) 1.01349(18)
H37 H 0.98670 1.74190 1.03720
C80 C 0.1578(2) 1.0188(2) 0.9183(2)
H38 H 0.12800 1.01170 0.89980
C81 C 1.24133(17) 1.61308(18) 0.92676(17)
H39 H 1.26870 1.63270 0.94290
C82 C 1.19080(17) 1.60477(17) 0.94095(17)
H40 H 1.18420 1.61810 0.96690
C83 C 0.4717(2) 1.34218(19) 0.9136(2)
H41 H 0.47580 1.36890 0.89450
C84 C 1.21060(19) 1.5631(2) 0.86519(19)
H42 H 1.21740 1.54870 0.83970
C85 C 0.7297(3) 0.7204(3) 0.3628(2)
H43 H 0.71690 0.69880 0.34020
N19 N 0.6569(2) 0.7223(2) 0.48732(18)
C86 C 0.9658(2) 1.00290(18) 0.85738(17)
C87 C 0.7141(2) 1.0929(3) 0.8520(2)
H44 H 0.74040 1.08450 0.87100
C88 C 0.7259(3) 0.8431(3) 0.5674(2)
C89 C 0.9647(3) 1.76865(19) 0.94045(19)
H45 H 0.95720 1.75340 0.91400
C90 C 0.6880(2) 1.1288(4) 0.7884(3)
H46 H 0.69560 1.14530 0.76320
C91 C 0.74867(18) 1.50322(18) 1.01763(18)
H47 H 0.77060 1.49080 1.03810
C92 C 0.6008(2) 1.50719(17) 0.99401(19)
C93 C 0.24612(19) 1.0407(2) 0.9726(2)
H48 H 0.27540 1.04780 0.99150
C94 C 0.5523(2) 0.5146(2) 0.8479(2)
C95 C 0.4582(3) 1.2615(2) 0.9691(2)
H49 H 0.45340 1.23500 0.98850
C96 C 0.3871(3) 0.8691(2) 0.8006(2)
H50 H 0.37270 0.89250 0.78340
C97 C 0.4304(3) 0.8002(2) 0.8477(2)
H51 H 0.44590 0.77740 0.86490
C98 C 0.6493(4) 0.5617(3) 0.3497(3)
H52 H 0.66880 0.53550 0.34390
C99 C 0.5987(4) 0.5596(3) 0.3347(3)
C100 C 0.4620(2) 1.2893(2) 0.8997(2)
H53 H 0.45980 1.28150 0.87110
C101 C 0.9882(2) 1.8155(2) 1.0166(2)
H54 H 0.99740 1.83120 1.04270
C102 C 0.6356(2) 1.1175(4) 0.8016(3)
H55 H 0.60870 1.12610 0.78340
N20 N 0.6996(2) 0.8034(2) 0.54502(17)
C103 C 0.8470(4) 0.9466(3) 0.6508(3)
H56 H 0.86650 0.93740 0.67430
C104 C 0.3913(2) 0.7262(2) 0.8021(2)
C105 C 0.5309(3) 0.5332(3) 0.7808(2)
H57 H 0.54020 0.53150 0.75300
C106 C 0.6432(4) 0.6401(3) 0.3868(2)
C107 C 0.6429(3) 0.6837(3) 0.4563(2)
C108 C 0.8109(3) 0.8522(3) 0.4538(2)
C109 C 1.30727(19) 1.60442(19) 0.8733(2)
C110 C 0.7088(3) 0.7192(3) 0.4045(3)
C111 C 0.6606(3) 0.8053(4) 0.6090(3)
H58 H 0.63930 0.79590 0.63140
C112 C 0.7850(2) 1.1254(2) 0.8027(2)
C113 C 0.4966(5) 0.6952(4) 0.6114(4)
H59 H 0.46090 0.69860 0.60730
C114 C 0.8222(5) 0.9099(4) 0.6191(4)
H60 H 0.82730 0.87580 0.62220
C115 C 0.5911(3) 0.6596(3) 0.5073(3)
H61 H 0.56520 0.64160 0.52340
C116 C 0.4384(3) 0.8518(2) 0.8584(2)
H62 H 0.46050 0.86280 0.88200
C117 C 0.8510(3) 0.8978(3) 0.4686(3)
H63 H 0.87930 0.91310 0.45340
C118 C 0.4675(3) 1.3123(2) 0.9830(2)
H64 H 0.46890 1.31920 1.01180
C119 C 0.5866(4) 0.7128(3) 0.5881(3)
C120 C 0.5138(3) 0.6697(3) 0.6454(3)
C121 C 0.7879(5) 0.9694(4) 0.5803(3)
H65 H 0.76970 0.97900 0.55630
C122 C 0.5708(4) 0.5120(3) 0.3070(2)
C123 C 0.9726(4) 0.9859(3) 0.7776(3)
H66 H 0.97410 0.97870 0.74910
C124 C 0.6615(2) 1.0834(3) 0.8618(2)
H67 H 0.65310 1.06730 0.88700
C125 C 0.8390(3) 0.9965(3) 0.6430(3)
C126 C 0.7003(4) 0.8488(3) 0.6064(3)
H68 H 0.70850 0.87570 0.62590
C127 C 0.8086(3) 0.8299(3) 0.4144(2)
C128 C 0.3788(3) 0.8175(2) 0.7891(2)
H69 H 0.35810 0.80670 0.76490
C129 C 0.8091(4) 1.0086(4) 0.6092(4)
H70 H 0.80260 1.04210 0.60530
C130 C 0.9713(4) 0.9120(3) 0.3012(3)
C131 C 0.8887(4) 0.8196(4) 0.3735(3)
H71 H 0.88900 0.78710 0.38470
C132 C 0.5336(4) 0.7161(4) 0.5828(3)
H72 H 0.52170 0.73280 0.55930
C133 C 0.7696(4) 0.7575(4) 0.3634(3)
H73 H 0.79280 0.76510 0.34190
C134 C 0.7915(4) 0.9218(4) 0.5842(3)
N21 N 0.7338(2) 0.7609(2) 0.42657(19)
C135 C 0.8503(4) 0.8989(5) 0.3673(3)
H74 H 0.82350 0.91780 0.37340
N22 N 0.9895(4) 0.9517(3) 0.8026(2)
C136 C 0.8494(4) 0.8482(4) 0.3843(3)
C137 C 0.8668(4) 1.0378(4) 0.6758(3)
C138 C 0.6030(4) 0.6876(4) 0.6222(4)
H75 H 0.63890 0.68480 0.62590
C139 C 0.4786(3) 0.6393(3) 0.6794(3)
C140 C 0.5886(4) 0.6349(4) 0.3728(4)
H76 H 0.56820 0.65930 0.38130
C141 C 0.7926(3) 0.8763(3) 0.5174(2)
C142 C 0.6661(3) 0.6823(3) 0.4173(2)
C143 C 0.7720(3) 0.7850(3) 0.4029(2)
C144 C 0.6249(3) 0.7074(3) 0.5198(2)
C145 C 0.6718(4) 0.6043(3) 0.3740(3)
H77 H 0.70790 0.60820 0.38180
C146 C 0.9271(3) 0.8392(3) 0.3464(3)
H78 H 0.95310 0.81990 0.33920
C147 C 0.6602(3) 0.7781(3) 0.5682(2)
C148 C 0.8403(3) 0.9120(3) 0.5048(3)
H79 H 0.85870 0.93960 0.52050
C149 C 0.6254(3) 0.7329(3) 0.5570(2)
C150 C 0.7682(3) 0.8811(3) 0.5548(2)
C151 C 0.8896(4) 0.9196(4) 0.3425(3)
H80 H 0.89170 0.95380 0.33450
C152 C 0.5652(3) 0.5947(4) 0.3470(3)
H81 H 0.52940 0.59080 0.33820
C153 C 0.9266(3) 0.8909(3) 0.3290(3)
O26 O 1.34512(13) 1.62228(13) 0.89788(12)
O27 O 1.31091(13) 1.59592(13) 0.83367(14)
C154 C 0.5676(3) 0.6651(4) 0.6527(3)
H82 H 0.57970 0.64830 0.67610
O28 O 0.93485(13) 1.56493(13) 0.88098(12)
H83 H 0.91420 1.58530 0.87120
H84 H 0.94460 1.55050 0.85920
Zn4* Zn 0.02198(2) 0.99485(2) 1.04408(2)
Zn4A Zn -0.02198(2) 1.00515(2) 0.95592(2)
Zn4A* Zn 0.97802(2) 1.00515(2) 0.95592(2)
Zn4A** Zn 0.97802(2) 2.00515(2) 0.95592(2)
Zn5* Zn 1.38529(2) 1.62114(2) 0.82060(2)
Zn6A Zn 0.49390(2) 0.51906(2) 0.95659(2)
Zn6A* Zn 0.49390(2) 1.51906(2) 0.95659(2)
Zn8A Zn 0.55899(3) 0.42530(3) 0.26329(2)
Zn9A Zn 1.06256(3) 0.92415(3) 0.26271(2)
O2A O 0.51551(15) 1.55908(13) 1.05421(12)
O4A O 0.94212(13) 1.99122(15) 1.05092(12)
O8* O 1.09235(12) 2.00415(14) 1.01484(13)
O9A O 0.42686(13) 1.48193(15) 1.03671(12)
O11A O 1.02559(14) 2.07351(12) 1.04348(13)
O15A O 0.40126(19) 0.51598(18) 0.70701(15)
O18A O 0.99689(19) 1.1153(2) 0.70877(16)
N10A N 1.04345(14) 1.97828(14) 1.10345(14)
N12A N 0.51510(13) 1.45487(14) 1.10202(13)
O27* O 0.31091(13) 0.59592(13) 0.83367(14)
#END
