
#######################################################################
#
#                 Cambridge Crystallographic Data Centre
#                                CCDC
#
#######################################################################
#
# If this CIF has been generated from an entry in the Cambridge
# Structural Database, then it will include bibliographic, chemical,
# crystal, experimental, refinement or atomic coordinate data resulting
# from the CCDC's data processing and validation procedures.
#
#######################################################################

data_CSD_CIF_EHAGEA
_audit_creation_date 2009-04-10
_audit_creation_method CSD-ConQuest-V1
_database_code_CSD EHAGEA
_database_code_depnum_ccdc_archive 'CCDC 724186'
_chemical_formula_sum 'C10 H22 Al1 N2 Na1 O12'
_chemical_formula_moiety
;
(C2 H8 N1 1+)2n,n(C6 H6 Al1 Na1 O12 2-)
;
_journal_coeditor_code "IUCr EM3021"
_journal_coden_Cambridge 591
_journal_volume 65
_journal_year 2009
_journal_page_first m75
_journal_name_full 'Acta Crystallogr.,Sect.C:Cryst.Struct.Commun. '
loop_
_publ_author_name
"A.Plutecka"
"U.Rychlewska"
_chemical_name_systematic
;
catena-(bis(Dimethylammonium) 
hexakis(\m~2~-formato-O,O')-aluminium(iii)-sodium(i))
;
_cell_volume   1353.030
_exptl_crystal_colour 'colorless'
_exptl_crystal_density_diffrn 1.518
_exptl_crystal_description 'prismatic'
_diffrn_ambient_temperature 296.0
_refine_special_details
;
The cation is disordered.

;
#These two values have been output from a single CSD field.
_refine_ls_R_factor_gt 0.0338
_refine_ls_wR_factor_gt 0.0338
_symmetry_cell_setting rhombohedral
_symmetry_space_group_name_H-M 'R -3'
_symmetry_Int_Tables_number 148
loop_
_symmetry_equiv_pos_site_id
_symmetry_equiv_pos_as_xyz
1 x,y,z
2 -y,x-y,z
3 -x+y,-x,z
4 2/3+x,1/3+y,1/3+z
5 2/3-y,1/3+x-y,1/3+z
6 2/3-x+y,1/3-x,1/3+z
7 1/3+x,2/3+y,2/3+z
8 1/3-y,2/3+x-y,2/3+z
9 1/3-x+y,2/3-x,2/3+z
10 -x,-y,-z
11 y,-x+y,-z
12 x-y,x,-z
13 -2/3-x,-1/3-y,-1/3-z
14 -2/3+y,-1/3-x+y,-1/3-z
15 -2/3+x-y,-1/3+x,-1/3-z
16 -1/3-x,-2/3-y,-2/3-z
17 -1/3+y,-2/3-x+y,-2/3-z
18 -1/3+x-y,-2/3+x,-2/3-z
_cell_length_a 8.251(1)
_cell_length_b 8.251(1)
_cell_length_c 22.949(3)
_cell_angle_alpha 90
_cell_angle_beta 90
_cell_angle_gamma 120
_cell_formula_units_Z 3
loop_
_atom_type_symbol
_atom_type_radius_bond
C 0.68
H 0.23
Al 1.35
N 0.68
Na 1.37
O 0.68
loop_
_atom_site_label
_atom_site_type_symbol
_atom_site_fract_x
_atom_site_fract_y
_atom_site_fract_z
N1 N 0.5874(9) 0.2473(9) 0.0742(3)
H1 H 0.46870 0.22440 0.07400
H2 H 0.58140 0.13530 0.07400
C1 C 0.66670 0.33330 0.1288(2)
H3 H 0.56710 0.20550 0.12950
H4 H 0.59930 0.25210 0.16070
H5 H 0.66150 0.44650 0.13280
C2 C 0.66670 0.33330 0.0219(2)
H6 H 0.57600 0.20220 0.02140
H7 H 0.64900 0.43840 0.01530
H8 H 0.60420 0.24400 -0.00870
Al1 Al -0.66670 -0.33340 0.16670
Na1 Na 0.00000 0.00000 0.00000
O1 O -0.4831(2) -0.1389(2) 0.11946(7)
C3 C -0.3459(3) -0.1299(3) 0.09229(10)
H9 H -0.76340 -0.09450 0.09900
O2 O -0.2373(3) -0.0015(3) 0.06147(9)
N1A N 0.7527(9) 0.3401(9) 0.0742(3)
N1B N 0.6599(9) 0.4126(9) 0.0742(3)
H1B H 0.75570 0.53130 0.07400
H1A H 0.77560 0.24430 0.07400
H2B H 0.55390 0.41860 0.07400
H2A H 0.86470 0.44610 0.07400
H3B H 0.63840 0.43290 0.12950
H3A H 0.79450 0.36160 0.12950
H4A H 0.74790 0.34720 0.16070
H4B H 0.65280 0.40070 0.16070
H5B H 0.78500 0.33850 0.13280
H5A H 0.55350 0.21500 0.13280
H6B H 0.62620 0.42400 0.02140
H6A H 0.79780 0.37380 0.02140
H7A H 0.56160 0.21060 0.01530
H7B H 0.78940 0.35100 0.01530
H8B H 0.63980 0.39580 -0.00870
H8A H 0.75600 0.36020 -0.00870
Na1* Na -1.00000 0.00000 0.00000
Na1** Na -1.00000 -1.00000 0.00000
Na1C Na -1.33333 -0.66667 0.33333
Na1C* Na -0.33333 -0.66667 0.33333
Na1C** Na -0.33333 0.33333 0.33333
O1A O -0.8611(2) -0.3442(2) 0.11946(7)
O1B O -0.6558(2) -0.5169(2) 0.11946(7)
O1P O -0.472233(200) -0.322467(200) 0.213873(70)
O1Q O -0.677533(200) -0.149767(200) 0.213873(70)
O1O O -0.850233(200) -0.527767(200) 0.213873(70)
C3A C -0.8701(3) -0.2160(3) 0.09229(10)
C3B C -0.7840(3) -0.6541(3) 0.09229(10)
C3O C -0.987433(300) -0.536767(300) 0.241043(100)
C3P C -0.463233(300) -0.450667(300) 0.241043(100)
C3Q C -0.549333(300) -0.012567(300) 0.241043(100)
H9B H -0.33110 -0.23660 0.09900
H9A H -0.90550 -0.66890 0.09900
H9Q H -1.00223 -0.43007 0.23433
H9O H -0.56993 -0.57217 0.23433
H9P H -0.42783 0.00223 0.23433
O2B O 0.2358(3) 0.2373(3) 0.06147(9)
O2A O -0.9985(3) -0.2358(3) 0.06147(9)
O2A* O 0.0015(3) -0.2358(3) 0.06147(9)
O2K O -0.2358(3) -0.2373(3) -0.06147(9)
O2I O 0.2373(3) 0.0015(3) -0.06147(9)
O2J O -0.0015(3) 0.2358(3) -0.06147(9)
O2B* O -0.7642(3) -0.7627(3) 0.06147(9)
O2O O -1.096033(300) -0.665167(300) 0.271863(90)
O2P O -0.334833(300) -0.430867(300) 0.271863(90)
O2Q O -0.569133(300) 0.096033(300) 0.271863(90)
#END
