
#######################################################################
#
#                 Cambridge Crystallographic Data Centre
#                                CCDC
#
#######################################################################
#
# If this CIF has been generated from an entry in the Cambridge
# Structural Database, then it will include bibliographic, chemical,
# crystal, experimental, refinement or atomic coordinate data resulting
# from the CCDC's data processing and validation procedures.
#
#######################################################################

data_CSD_CIF_EHAQIN
_audit_creation_date 2002-12-11
_audit_creation_method CSD-ConQuest-V1
_database_code_CSD EHAQIN
_database_code_depnum_ccdc_archive 'CCDC 182906'
_chemical_formula_sum 'C40 H88 Ge9 Hg1 K2 N8 O12'
_chemical_formula_moiety
;
(C18 H36 K1 N2 O6 1+)2n,n(Ge9 Hg1 2-),2n(C2 H8 N2)
;
_journal_coden_Cambridge 179
_journal_volume 41
_journal_year 2002
_journal_page_first 3213
_journal_name_full 'Angew.Chem.,Int.Ed. '
loop_
_publ_author_name
"A.Nienhaus"
"R.Hauptmann"
"T.F.Fassler"
_chemical_name_systematic
;
catena-[bis((4,7,13,16,21,24-Hexaoxa-1,10-diazabicyclo[8.8.8]hexacosane)-potas
sium) (\m~2~-nido-nonagermate)-mercury ethylenediamine solvate]
;
_chemical_name_common
;
catena-[bis((2,2,2-Cryptand)-potassium) (mu!2$-nido-nonagermate)-mercury 
ethylenediamine solvate]
;
_cell_volume   6339.985
_exptl_crystal_colour 'brown red'
_exptl_crystal_density_diffrn 1.891
_exptl_special_details
;
the temperature of study is quoted as 150 K in the paper but 293 K in the cif

;
_exptl_crystal_description 'column'
_diffrn_ambient_temperature 293
#These two values have been output from a single CSD field.
_refine_ls_R_factor_gt 0.0608
_refine_ls_wR_factor_gt 0.0608
_symmetry_cell_setting monoclinic
_symmetry_space_group_name_H-M 'P 21/c'
_symmetry_Int_Tables_number 14
loop_
_symmetry_equiv_pos_site_id
_symmetry_equiv_pos_as_xyz
1 x,y,z
2 -x,1/2+y,1/2-z
3 -x,-y,-z
4 x,-1/2-y,-1/2+z
_cell_length_a 24.994(5)
_cell_length_b 16.242(3)
_cell_length_c 16.062(3)
_cell_angle_alpha 90
_cell_angle_beta 103.51(3)
_cell_angle_gamma 90
_cell_formula_units_Z 4
loop_
_atom_type_symbol
_atom_type_radius_bond
C 0.68
H 0.23
Ge 1.26
Hg 1.38
K 1.96
N 0.68
O 0.68
loop_
_atom_site_label
_atom_site_type_symbol
_atom_site_fract_x
_atom_site_fract_y
_atom_site_fract_z
Hg1 Hg 0.242490(13) -0.22631(2) -0.963480(18)
Ge1 Ge 0.15809(3) -0.25121(6) -0.74448(6)
Ge2 Ge 0.32339(4) -0.22031(6) -0.68568(5)
Ge3 Ge 0.24330(4) -0.26285(6) -0.62112(5)
Ge4 Ge 0.23722(3) -0.19457(5) -0.80655(5)
Ge5 Ge 0.30835(3) -0.32115(6) -0.80959(5)
Ge6 Ge 0.18988(3) -0.34416(6) -0.85151(5)
Ge7 Ge 0.31142(3) -0.37628(6) -0.64670(5)
Ge8 Ge 0.19821(3) -0.39894(6) -0.68656(6)
Ge9 Ge 0.26009(4) -0.45414(6) -0.78263(6)
K1 K 0.39087(6) -0.68022(10) -0.34095(10)
O1 O 0.4877(2) -0.7610(4) -0.3565(3)
O2 O 0.47162(19) -0.5970(3) -0.4172(3)
O3 O 0.2994(2) -0.6231(3) -0.4688(3)
O4 O 0.3202(2) -0.7931(3) -0.4481(3)
O5 O 0.3804(2) -0.7437(3) -0.1741(3)
O6 O 0.3853(2) -0.5730(3) -0.2072(3)
N1 N 0.4027(2) -0.8626(4) -0.3034(4)
N2 N 0.3796(2) -0.5003(4) -0.3787(4)
C1 C 0.4605(3) -0.8847(5) -0.2961(5)
H1 H 0.46350 -0.94420 -0.29740
H2 H 0.48200 -0.86610 -0.24090
C2 C 0.4853(3) -0.8490(5) -0.3655(5)
H3 H 0.52210 -0.87090 -0.36050
H4 H 0.46300 -0.86380 -0.42140
C3 C 0.5185(3) -0.7253(6) -0.4122(5)
H5 H 0.49930 -0.73340 -0.47150
H6 H 0.55440 -0.75100 -0.40320
C4 C 0.5246(3) -0.6357(5) -0.3926(5)
H7 H 0.53990 -0.62780 -0.33190
H8 H 0.54950 -0.61120 -0.42370
C5 C 0.4757(3) -0.5114(5) -0.3963(5)
H9 H 0.50160 -0.48510 -0.42430
H10 H 0.48900 -0.50470 -0.33500
C6 C 0.4200(3) -0.4718(5) -0.4253(5)
H11 H 0.42410 -0.41270 -0.41840
H12 H 0.40600 -0.48300 -0.48580
C7 C 0.3238(3) -0.4835(5) -0.4297(5)
H13 H 0.32260 -0.42820 -0.45280
H14 H 0.29830 -0.48580 -0.39260
C8 C 0.3054(3) -0.5427(5) -0.5017(5)
H15 H 0.27050 -0.52470 -0.53740
H16 H 0.33210 -0.54420 -0.53670
C9 C 0.2803(3) -0.6807(5) -0.5364(5)
H17 H 0.30790 -0.68800 -0.56950
H18 H 0.24690 -0.66050 -0.57440
C10 C 0.2695(3) -0.7613(5) -0.4972(5)
H19 H 0.24400 -0.75310 -0.46070
H20 H 0.25320 -0.80010 -0.54190
C11 C 0.3118(3) -0.8692(5) -0.4082(5)
H21 H 0.28900 -0.90550 -0.44970
H22 H 0.29310 -0.85920 -0.36250
C12 C 0.3669(3) -0.9087(5) -0.3724(5)
H23 H 0.36090 -0.96310 -0.35140
H24 H 0.38560 -0.91540 -0.41850
C13 C 0.3874(3) -0.8814(5) -0.2223(5)
H25 H 0.40140 -0.93560 -0.20300
H26 H 0.34760 -0.88350 -0.23270
C14 C 0.4087(3) -0.8203(5) -0.1522(5)
H27 H 0.40250 -0.84060 -0.09840
H28 H 0.44790 -0.81250 -0.14550
C15 C 0.3978(3) -0.6840(5) -0.1077(5)
H29 H 0.43720 -0.67560 -0.09750
H30 H 0.38950 -0.70350 -0.05500
C16 C 0.3684(4) -0.6049(5) -0.1341(5)
H31 H 0.32900 -0.61400 -0.14830
H32 H 0.37710 -0.56560 -0.08740
C17 C 0.3622(3) -0.4934(5) -0.2309(5)
H33 H 0.36770 -0.45840 -0.18070
H34 H 0.32290 -0.49840 -0.25470
C18 C 0.3892(3) -0.4548(5) -0.2964(5)
H35 H 0.37550 -0.39910 -0.30770
H36 H 0.42850 -0.45150 -0.27230
K2 K -0.07149(6) -0.19474(11) -0.0840(1)
O7 O -0.0410(2) -0.0631(4) -0.1727(4)
O8 O 0.0408(3) -0.1526(4) -0.0573(4)
O9 O -0.0414(3) -0.2676(4) 0.0794(4)
O10 O -0.0964(3) -0.1116(4) 0.0499(4)
O11 O -0.1823(2) -0.2221(4) -0.1717(3)
O12 O -0.1008(2) -0.3441(4) -0.1654(4)
N3 N -0.1460(3) -0.0528(5) -0.1243(5)
N4 N 0.0110(3) -0.3314(5) -0.0529(5)
C19 C -0.1299(4) -0.0031(6) -0.1917(7)
H37 H -0.14940 0.04910 -0.19690
H38 H -0.14140 -0.03170 -0.24600
C20 C -0.0692(4) 0.0135(6) -0.1747(7)
H39 H -0.06130 0.04830 -0.21950
H40 H -0.05690 0.04180 -0.12040
C21 C 0.0168(4) -0.0491(9) -0.1610(9)
H41 H 0.02920 -0.00960 -0.11520
H42 H 0.02430 -0.02660 -0.21310
C22 C 0.0466(4) -0.1279(9) -0.1393(7)
H43 H 0.03140 -0.16950 -0.18150
H44 H 0.08520 -0.12080 -0.13880
C23 C 0.0795(5) -0.2141(7) -0.0207(8)
H45 H 0.08180 -0.21670 0.04040
H46 H 0.11540 -0.19850 -0.02860
C24 C 0.0654(4) -0.2975(7) -0.0583(9)
H47 H 0.06670 -0.29550 -0.11810
H48 H 0.09370 -0.33560 -0.02980
C25 C 0.0114(6) -0.3701(8) 0.0302(7)
H49 H 0.04500 -0.40190 0.04790
H50 H -0.01920 -0.40840 0.02220
C26 C 0.0076(5) -0.3126(9) 0.1004(6)
H51 H 0.00910 -0.34360 0.15250
H52 H 0.03870 -0.27520 0.11070
C27 C -0.0477(6) -0.2121(8) 0.1464(6)
H53 H -0.01690 -0.17410 0.15910
H54 H -0.04770 -0.24320 0.19800
C28 C -0.1000(7) -0.1653(9) 0.1198(7)
H55 H -0.13060 -0.20310 0.10190
H56 H -0.10620 -0.13320 0.16760
C29 C -0.1435(5) -0.0573(8) 0.0290(7)
H57 H -0.14440 -0.02240 0.07770
H58 H -0.17710 -0.08950 0.01550
C30 C -0.1398(5) -0.0052(7) -0.0461(7)
H59 H -0.16830 0.03670 -0.05440
H60 H -0.10450 0.02260 -0.03410
C31 C -0.2036(4) -0.0797(7) -0.1559(8)
H61 H -0.22510 -0.03400 -0.18500
H62 H -0.21850 -0.09430 -0.10720
C32 C -0.2102(4) -0.1525(8) -0.2165(7)
H63 H -0.24900 -0.16510 -0.23770
H64 H -0.19490 -0.13930 -0.26510
C33 C -0.1910(4) -0.2936(7) -0.2239(6)
H65 H -0.18050 -0.28280 -0.27740
H66 H -0.22960 -0.30840 -0.23710
C34 C -0.1574(4) -0.3629(7) -0.1781(7)
H67 H -0.16640 -0.37170 -0.12320
H68 H -0.16570 -0.41300 -0.21140
C35 C -0.0683(4) -0.4147(6) -0.1361(8)
H69 H -0.07650 -0.45790 -0.17880
H70 H -0.07670 -0.43500 -0.08380
C36 C -0.0077(4) -0.3917(6) -0.1193(7)
H71 H 0.01390 -0.44140 -0.10430
H72 H -0.00040 -0.37090 -0.17220
N5 N 0.3854(6) -1.0891(9) -0.4907(9)
H73 H 0.36150 -1.11350 -0.46850
H74 H 0.37530 -1.06620 -0.54010
N6 N 0.4461(5) -1.2195(8) -0.3690(8)
H75 H 0.43580 -1.24120 -0.41910
H76 H 0.45220 -1.25030 -0.32420
C37 C 0.4402(7) -1.0869(11) -0.4467(10)
H77 H 0.45150 -1.02980 -0.43830
H78 H 0.46220 -1.11220 -0.48220
C38 C 0.4531(5) -1.1296(8) -0.3600(8)
H79 H 0.49070 -1.11730 -0.33030
H80 H 0.42890 -1.10840 -0.32580
N7 N -0.2382(6) 0.0175(10) -0.3974(9)
H81 H -0.24460 -0.03390 -0.39120
H82 H -0.25930 0.05420 -0.38340
N8 N -0.1486(9) -0.1087(14) -0.4166(13)
H83 H -0.16730 -0.12620 -0.38160
H84 H -0.12550 -0.14090 -0.43250
C39 C -0.1935(7) 0.0416(11) -0.4305(11)
H85 H -0.20880 0.07560 -0.48000
H86 H -0.17160 0.07800 -0.38810
C40 C -0.1574(8) -0.0093(13) -0.4550(13)
H87 H -0.12160 0.01720 -0.44010
H88 H -0.16780 -0.01270 -0.51700
Hg1C Hg 0.242490(13) -0.27369(2) -0.463480(18)
Ge3C Ge 0.24330(4) -0.23715(6) -1.12112(5)
#END
