
#######################################################################
#
#                 Cambridge Crystallographic Data Centre
#                                CCDC
#
#######################################################################
#
# If this CIF has been generated from an entry in the Cambridge
# Structural Database, then it will include bibliographic, chemical,
# crystal, experimental, refinement or atomic coordinate data resulting
# from the CCDC's data processing and validation procedures.
#
#######################################################################

data_CSD_CIF_EHAXIU
_audit_creation_date 2002-12-11
_audit_creation_method CSD-ConQuest-V1
_database_code_CSD EHAXIU
_database_code_depnum_ccdc_archive 'CCDC 172008'
_chemical_formula_sum 'C10 H16 La2 N6 O18'
_chemical_formula_moiety
;
(C1 H6 N3 1+)2n,n(C8 H4 La2 O18 2-)
;
_journal_coden_Cambridge 971
_journal_volume 4
_journal_year 2002
_journal_page_first 1199
_journal_name_full 'Solid State Sciences '
loop_
_publ_author_name
"F.Fourcade-Cavillou"
"J.-C.Trombe"
_chemical_name_systematic
;
catena-[bis(Guanidinium) tetrakis(\m~2~-oxalato)-diaqua-di-lanthanum]
;
_cell_volume   1101.496
_exptl_crystal_colour 'colorless'
_exptl_crystal_density_diffrn 2.37
_exptl_crystal_description 'parallelepiped'
_diffrn_ambient_temperature 293
#These two values have been output from a single CSD field.
_refine_ls_R_factor_gt 0.0436
_refine_ls_wR_factor_gt 0.0436
_symmetry_cell_setting monoclinic
_symmetry_space_group_name_H-M 'P 21/c'
_symmetry_Int_Tables_number 14
loop_
_symmetry_equiv_pos_site_id
_symmetry_equiv_pos_as_xyz
1 x,y,z
2 x,1/2-y,1/2+z
3 -x,-y,-z
4 -x,-1/2+y,-1/2-z
_cell_length_a 6.6180(4)
_cell_length_b 12.6360(6)
_cell_length_c 13.1900(4)
_cell_angle_alpha 90
_cell_angle_beta 93.007(4)
_cell_angle_gamma 90
_cell_formula_units_Z 2
loop_
_atom_type_symbol
_atom_type_radius_bond
C 0.68
H 0.23
La 1.87
N 0.68
O 0.68
loop_
_atom_site_label
_atom_site_type_symbol
_atom_site_fract_x
_atom_site_fract_y
_atom_site_fract_z
La1 La 0.63028(4) 0.24966(3) 0.512840(18)
O1 O 0.3752(6) 0.3946(3) 0.5549(3)
O2 O 0.2741(6) 0.5615(3) 0.5299(3)
O3 O 0.7349(6) 0.0569(3) 0.5320(3)
O4 O 0.6420(6) -0.1126(3) 0.5343(3)
O5 O 0.4357(6) 0.3026(4) 0.3417(3)
O6 O 0.4416(6) 0.3063(4) 0.1732(3)
O7 O 0.7870(7) 0.1977(4) 0.3507(3)
O8 O 0.7854(7) 0.1979(4) 0.1816(3)
O9 O 1.0200(6) 0.2508(4) 0.5211(3)
N1 N 0.9388(9) 0.5736(5) 0.6600(4)
N2 N 0.8870(9) 0.5390(5) 0.8251(4)
N3 N 1.1513(8) 0.4601(5) 0.7480(4)
C1 C 0.3986(8) 0.4870(4) 0.5239(4)
C2 C 0.6075(8) -0.0159(4) 0.5191(4)
C3 C 0.5099(9) 0.2825(5) 0.2597(4)
C4 C 0.7151(9) 0.2204(5) 0.2652(4)
C5 C 0.9911(9) 0.5245(5) 0.7449(4)
H1 H 1.10890 0.23060 0.46310
H2 H 1.10170 0.27150 0.58230
H3 H 0.81780 0.62110 0.66190
H4 H 1.03600 0.59970 0.61720
H5 H 0.78050 0.59220 0.81960
H6 H 0.90310 0.48960 0.87700
H7 H 1.17730 0.41510 0.80610
H8 H 1.21390 0.44900 0.68750
C1B C 0.6014(8) 0.5130(4) 0.4761(4)
O1B O 0.6248(6) 0.6054(3) 0.4451(3)
O2B O 0.7259(6) 0.4385(3) 0.4701(3)
C2B C 0.3925(8) 0.0159(4) 0.4809(4)
O3B O 0.2651(6) -0.0569(3) 0.4680(3)
O4B O 0.3580(6) 0.1126(3) 0.4657(3)
O5A O 0.4357(6) 0.1974(4) 0.8417(3)
O6A O 0.4416(6) 0.1937(4) 0.6732(3)
O7A O 0.7870(7) 0.3023(4) 0.8507(3)
O8A O 0.7854(7) 0.3021(4) 0.6816(3)
C3A C 0.5099(9) 0.2175(5) 0.7597(4)
C4A C 0.7151(9) 0.2796(5) 0.7652(4)
La1B La 0.36972(4) 0.75034(3) 0.487160(18)
O9B O -0.0200(6) 0.7492(4) 0.4789(3)
H1B H -0.10890 0.76940 0.53690
H2B H -0.10170 0.72850 0.41770
La1B* La 0.36972(4) -0.24966(3) 0.487160(18)
La1A La 0.63028(4) 0.25034(3) 0.012840(18)
La1A* La 0.63028(4) 0.25034(3) 1.012840(18)
O3B* O 0.2651(6) 0.9431(3) 0.4680(3)
O4* O 0.6420(6) 0.8874(3) 0.5343(3)
O5B O 0.5643(6) 0.6974(4) 0.6583(3)
O6C O 0.5584(6) 0.8063(4) 0.3268(3)
O7B O 0.2130(7) 0.8023(4) 0.6493(3)
O8C O 0.2146(7) 0.6979(4) 0.3184(3)
#END
