
#######################################################################
#
#                 Cambridge Crystallographic Data Centre
#                                CCDC
#
#######################################################################
#
# If this CIF has been generated from an entry in the Cambridge
# Structural Database, then it will include bibliographic, chemical,
# crystal, experimental, refinement or atomic coordinate data resulting
# from the CCDC's data processing and validation procedures.
#
#######################################################################

data_CSD_CIF_EHAXOA
_audit_creation_date 2002-12-11
_audit_creation_method CSD-ConQuest-V1
_database_code_CSD EHAXOA
_database_code_depnum_ccdc_archive 'CCDC 172009'
_chemical_formula_sum 'C9 H14 N4 Nd2 O18'
_chemical_formula_moiety
;
(H4 N1 1+)n,n(C1 H6 N3 1+),n(C8 H4 Nd2 O18 2-)
;
_journal_coden_Cambridge 971
_journal_volume 4
_journal_year 2002
_journal_page_first 1199
_journal_name_full 'Solid State Sciences '
loop_
_publ_author_name
"F.Fourcade-Cavillou"
"J.-C.Trombe"
_chemical_name_systematic
;
catena-[Ammonium guanidinium tetrakis(\m~2~-oxalato)-diaqua-di-neodymium]
;
_cell_volume   1977.346
_exptl_crystal_colour 'pale violet'
_exptl_crystal_density_diffrn 2.535
_exptl_crystal_description 'parallelepiped'
_diffrn_ambient_temperature 293
#These two values have been output from a single CSD field.
_refine_ls_R_factor_gt 0.0192
_refine_ls_wR_factor_gt 0.0192
_symmetry_cell_setting orthorhombic
_symmetry_space_group_name_H-M 'P b c m'
_symmetry_Int_Tables_number 57
loop_
_symmetry_equiv_pos_site_id
_symmetry_equiv_pos_as_xyz
1 x,y,z
2 x,y,1/2-z
3 -x,1/2+y,z
4 x,1/2-y,1/2+z
5 -x,-y,-z
6 -x,-y,-1/2+z
7 x,-1/2-y,-z
8 -x,-1/2+y,-1/2-z
_cell_length_a 6.4298(7)
_cell_length_b 12.2972(10)
_cell_length_c 25.008(3)
_cell_angle_alpha 90
_cell_angle_beta 90
_cell_angle_gamma 90
_cell_formula_units_Z 4
loop_
_atom_type_symbol
_atom_type_radius_bond
C 0.68
H 0.23
N 0.68
Nd 1.81
O 0.68
loop_
_atom_site_label
_atom_site_type_symbol
_atom_site_fract_x
_atom_site_fract_y
_atom_site_fract_z
Nd1 Nd 0.36048(2) 0.466757(13) 0.120852(6)
O1 O 0.6449(3) 0.60163(18) 0.09758(10)
O2 O 0.7425(3) 0.77562(17) 0.09719(10)
O3 O 0.3816(3) 0.82795(19) 0.14829(9)
O4 O 0.2665(4) 0.66075(19) 0.13256(10)
O5 O 0.1866(4) 0.4148(2) 0.20503(9)
O6 O 0.5387(4) 0.5281(2) 0.20534(9)
O7 O 0.5781(4) 0.39929(19) 0.04458(9)
O8 O 0.7258(4) 0.4529(2) -0.03150(9)
O9 O -0.0195(4) 0.4587(2) 0.10737(12)
N1 N 0.1678(6) 0.7507(4) 0.25000
N2 N -0.0876(5) 0.6586(3) 0.20463(12)
N3 N 0.0343(8) 0.75000 0.00000
C1 C 0.6167(4) 0.7009(2) 0.10643(13)
C2 C 0.4021(5) 0.7326(3) 0.13127(12)
C3 C 0.2600(7) 0.4383(4) 0.25000
C4 C 0.4648(7) 0.5044(4) 0.25000
C5 C 0.5877(5) 0.4573(2) 0.00394(13)
C6 C -0.0038(7) 0.6886(4) 0.25000
H1 H -0.09440 0.52360 0.10210
H2 H -0.09520 0.40610 0.12760
H3 H 0.22250 0.77290 0.28530
H4 H -0.20530 0.61200 0.20680
H5 H 0.01680 0.66100 0.17590
H6 H -0.05190 0.76740 0.03210
H7 H 0.14990 0.69160 -0.00020
O5A O 0.1866(4) 0.4148(2) 0.29497(9)
O6A O 0.5387(4) 0.5281(2) 0.29466(9)
C5D C 0.4123(5) 0.5427(2) -0.00394(13)
O7D O 0.4219(4) 0.60071(19) -0.04458(9)
O8D O 0.2742(4) 0.5471(2) 0.03150(9)
N2A N -0.0876(5) 0.6586(3) 0.29537(12)
H4A H -0.20530 0.61200 0.29320
H5A H 0.01680 0.66100 0.32410
H3A H 0.22250 0.77290 0.21470
H6F H -0.05190 0.73260 -0.03210
H7F H 0.14990 0.80840 0.00020
O1B O 0.3551(3) 0.10163(18) 0.09758(10)
O2B O 0.2575(3) 0.27562(17) 0.09719(10)
O3B O 0.6184(3) 0.32795(19) 0.14829(9)
O4B O 0.7335(4) 0.16075(19) 0.13256(10)
C1B C 0.3833(4) 0.2009(2) 0.10643(13)
C2B C 0.5979(5) 0.2326(3) 0.13127(12)
Nd1B Nd 0.63952(2) -0.033243(13) 0.120852(6)
O9B O 1.0195(4) -0.0413(2) 0.10737(12)
H1B H 1.09440 0.02360 0.10210
H2B H 1.09520 -0.09390 0.12760
Nd1B* Nd 0.63952(2) 0.966757(13) 0.120852(6)
Nd1D Nd 0.63952(2) 0.533243(13) -0.120852(6)
Nd1A Nd 0.36048(2) 0.466757(13) 0.379148(6)
O2* O 0.7425(3) -0.22438(17) 0.09719(10)
O3* O 0.3816(3) -0.17205(19) 0.14829(9)
O5B O 0.8134(4) -0.0852(2) 0.20503(9)
O6B O 0.4613(4) 0.0281(2) 0.20534(9)
O7B O 0.4219(4) -0.10071(19) 0.04458(9)
O8F O 0.7258(4) 0.0471(2) 0.03150(9)
#END
