
#######################################################################
#
#                 Cambridge Crystallographic Data Centre
#                                CCDC
#
#######################################################################
#
# If this CIF has been generated from an entry in the Cambridge
# Structural Database, then it will include bibliographic, chemical,
# crystal, experimental, refinement or atomic coordinate data resulting
# from the CCDC's data processing and validation procedures.
#
#######################################################################

data_CSD_CIF_EHENOV
_audit_creation_date 2011-07-18
_audit_creation_method CSD-ConQuest-V1
_database_code_CSD EHENOV
_database_code_depnum_ccdc_archive 'CCDC 785385'
_chemical_formula_sum 'C30 H34 Co2 N6 O41 Si1 W11'
_chemical_formula_moiety
;
(C20 H22 Co2 N4 O41 Si1 W11 2-)n,2n(C5 H6 N1 1+)
;
_journal_coden_Cambridge 1133
_journal_volume 21
_journal_year 2010
_journal_page_first 857
_journal_name_full 'J.Cluster Sci. '
loop_
_publ_author_name
"Haijuan Wang"
"Wansheng You"
"Bifang Meng"
"Xianfeng Sun"
"Hongwei Cheng"
"Wenjuan Shan"
_chemical_name_systematic
;
catena-(bis(Pyridinium) 
(\m~12~-silicato)-heptacosakis(\m~2~-oxo)-diaqua-nonaoxo-bis(4-(4'-pyridinio)p
yridine)-di-cobalt-undeca-tungsten)
;
_cell_volume   1357.717
_exptl_crystal_colour 'red'
_exptl_crystal_density_diffrn 4.029
_exptl_crystal_description 'block'
_diffrn_ambient_temperature 293
_refine_special_details
;
The Co of the Keggin is disordered by symmetry in two positions in the 
cluster. The silicate group is disordered by symmetry. The Co site of the 
Keggin is a mixed Co:W site, with equal occupancies.
;
#These two values have been output from a single CSD field.
_refine_ls_R_factor_gt 0.0834
_refine_ls_wR_factor_gt 0.0834
_symmetry_cell_setting triclinic
_symmetry_space_group_name_H-M 'P -1'
_symmetry_Int_Tables_number 2
loop_
_symmetry_equiv_pos_site_id
_symmetry_equiv_pos_as_xyz
1 x,y,z
2 -x,-y,-z
_cell_length_a 10.693(3)
_cell_length_b 11.863(7)
_cell_length_c 12.551(4)
_cell_angle_alpha 101.095(5)
_cell_angle_beta 114.135(4)
_cell_angle_gamma 101.227(5)
_cell_formula_units_Z 1
loop_
_atom_type_symbol
_atom_type_radius_bond
C 0.68
H 0.23
Co 1.26
N 0.68
O 0.68
Si 1.20
W 1.36
loop_
_atom_site_label
_atom_site_type_symbol
_atom_site_fract_x
_atom_site_fract_y
_atom_site_fract_z
C1 C 1.175(4) 0.401(5) 0.709(3)
H1 H 1.18220 0.34990 0.64720
C2 C 1.233(3) 0.392(3) 0.817(3)
H2 H 1.28340 0.33610 0.82770
C3 C 1.230(4) 0.453(3) 0.917(3)
C4 C 1.151(6) 0.535(4) 0.890(4)
H3 H 1.13990 0.58480 0.95090
C5 C 1.091(4) 0.537(4) 0.774(4)
H4 H 1.03210 0.58670 0.75550
C6 C 0.968(6) 0.139(5) 0.112(5)
H5 H 1.04100 0.16080 0.09060
C7 C 0.852(6) 0.173(5) 0.071(5)
H6 H 0.84070 0.21650 0.01510
C8 C 1.248(5) 0.480(4) 1.126(3)
H7 H 1.16240 0.50060 1.09740
C9 C 0.749(5) 0.147(4) 0.105(4)
H8 H 0.67310 0.18030 0.08080
C10 C 1.300(5) 0.448(4) 1.047(3)
C11 C 0.867(4) 0.029(3) 0.207(3)
H9 H 0.86940 -0.03290 0.24240
C12 C 1.411(4) 0.407(4) 1.086(3)
H10 H 1.44400 0.38050 1.03060
C13 C 1.481(4) 0.400(4) 1.204(4)
H11 H 1.56020 0.37120 1.22840
C14 C 0.975(4) 0.071(3) 0.186(3)
H12 H 1.05990 0.05260 0.22490
C15 C 1.312(4) 0.485(4) 1.242(3)
H13 H 1.28150 0.51660 1.29740
O1 O 0.692(3) 0.236(3) 0.794(3)
O2 O 1.040(3) 0.346(2) 0.426(2)
O3 O 0.812(2) 0.388(2) 0.4728(19)
O4 O 0.803(4) 0.280(3) 0.649(3)
O5 O 0.499(3) -0.266(2) 0.117(3)
O6 O 0.330(2) 0.114(2) 0.098(2)
O7 O 0.584(4) -0.089(4) 0.449(3)
O8 O 0.324(3) 0.379(2) 0.475(2)
O9 O 0.898(4) 0.091(3) 0.669(3)
O10 O 0.978(3) 0.271(2) 0.884(3)
O11 O 0.782(3) 0.044(2) 0.809(3)
O12 O 1.00000 0.00000 0.50000
O13 O 0.697(3) -0.093(3) 0.326(3)
O14 O 0.207(3) 0.145(3) 0.461(3)
O15 O 0.816(4) 0.157(3) 0.463(3)
O16 O 0.463(2) -0.047(2) 0.190(2)
O17 O 0.571(3) 0.325(3) 0.506(3)
O18 O 0.576(3) 0.180(3) 0.318(3)
O19 O 0.327(3) 0.182(3) 0.323(3)
O20 O 0.666(5) 0.093(4) 0.547(4)
O21 O 0.461(4) 0.276(3) 0.656(3)
O22 O 0.488(5) 0.110(5) 0.439(5)
O23 O 0.421(4) -0.053(3) 0.358(3)
N1 N 1.106(3) 0.478(2) 0.683(2)
N2 N 1.431(4) 0.437(3) 1.278(3)
N3 N 0.756(4) 0.071(3) 0.179(3)
Si1 Si 0.50000 0.00000 0.50000
W1 W 0.37599(13) 0.25280(12) 0.48365(13)
W2 W 0.82930(14) 0.18306(12) 0.75660(12)
W3? W 0.8270(2) 0.0000(3) 0.4977(2)
W4 W 0.50584(13) -0.17876(12) 0.24300(12)
W5 W 0.71152(15) 0.25824(12) 0.48128(13)
W6 W 0.38161(13) 0.07593(11) 0.22478(11)
Co1 Co 0.8270(2) 0.0000(3) 0.4977(2)
Co2 Co 1.00000 0.50000 0.50000
C1A C 0.825(4) 0.599(5) 0.291(3)
H1A H 0.81780 0.65010 0.35280
C2A C 0.767(3) 0.608(3) 0.183(3)
H2A H 0.71660 0.66390 0.17230
C3A C 0.770(4) 0.547(3) 0.083(3)
C4A C 0.849(6) 0.465(4) 0.110(4)
H3A H 0.86010 0.41520 0.04910
C5A C 0.909(4) 0.463(4) 0.226(4)
H4A H 0.96790 0.41330 0.24450
C8A C 0.752(5) 0.520(4) -0.126(3)
H7A H 0.83760 0.49940 -0.09740
C10A C 0.700(5) 0.552(4) -0.047(3)
C12A C 0.589(4) 0.593(4) -0.086(3)
H10A H 0.55600 0.61950 -0.03060
C13A C 0.519(4) 0.600(4) -0.204(4)
H11A H 0.43980 0.62880 -0.22840
C15A C 0.688(4) 0.515(4) -0.242(3)
H13A H 0.71850 0.48340 -0.29740
O1A O 0.308(3) -0.236(3) 0.206(3)
O1A* O 1.308(3) 0.764(3) 0.206(3)
O1* O 1.692(3) 1.236(3) 0.794(3)
O1A** O 1.308(3) -0.236(3) 0.206(3)
O1** O 1.692(3) 0.236(3) 0.794(3)
O2A O 0.960(3) 0.654(2) 0.574(2)
O2* O 0.040(3) -0.654(2) 0.426(2)
O2A* O -0.040(3) -0.346(2) 0.574(2)
O3A O 1.188(2) 0.612(2) 0.5272(19)
O3A* O 0.188(2) -0.388(2) 0.5272(19)
O3A** O 1.188(2) -0.388(2) 0.5272(19)
O3* O -0.188(2) -0.612(2) 0.4728(19)
O4A O 1.197(4) 0.720(3) 0.351(3)
O4A* O 0.197(4) -0.280(3) 0.351(3)
O4* O 1.803(4) 1.280(3) 0.649(3)
O4A** O 1.197(4) -0.280(3) 0.351(3)
O5A O 0.501(3) 0.266(2) 0.883(3)
O5* O 1.499(3) 0.734(2) 0.117(3)
O5A* O 1.501(3) 1.266(2) 0.883(3)
O5A** O 1.501(3) 0.266(2) 0.883(3)
O6A O 1.670(2) 0.886(2) 0.902(2)
O6A* O 0.670(2) -0.114(2) 0.902(2)
O6* O 1.330(2) 1.114(2) 0.098(2)
O7A O 0.416(4) 0.089(4) 0.551(3)
O7* O 1.584(4) 0.911(4) 0.449(3)
O7A* O 1.416(4) 1.089(4) 0.551(3)
O7A** O 1.416(4) 0.089(4) 0.551(3)
O8A O 1.676(3) 0.621(2) 0.525(2)
O8A* O 0.676(3) -0.379(2) 0.525(2)
O8* O 1.324(3) 0.379(2) 0.475(2)
O8** O 1.324(3) 1.379(2) 0.475(2)
O9A O 1.102(4) 0.909(3) 0.331(3)
O9A* O 0.102(4) -0.091(3) 0.331(3)
O9A** O 1.102(4) -0.091(3) 0.331(3)
O9* O 1.898(4) 1.091(3) 0.669(3)
O9** O -0.102(4) 0.091(3) 0.669(3)
O9*** O 0.898(4) 1.091(3) 0.669(3)
O10A O 1.022(3) 0.729(2) 0.116(3)
O10A* O 0.022(3) -0.271(2) 0.116(3)
O10* O 1.978(3) 1.271(2) 0.884(3)
O10A** O 1.022(3) -0.271(2) 0.116(3)
O11A O 0.218(3) -0.044(2) 0.191(3)
O11A* O 1.218(3) 0.956(2) 0.191(3)
O11* O 1.782(3) 1.044(2) 0.809(3)
O11A** O 1.218(3) -0.044(2) 0.191(3)
O12* O 0.00000 0.00000 0.50000
O12** O 1.00000 1.00000 0.50000
O12*** O 2.00000 1.00000 0.50000
O13A O 0.303(3) 0.093(3) 0.674(3)
O13A* O 1.303(3) 0.093(3) 0.674(3)
O13A** O 1.303(3) 1.093(3) 0.674(3)
O13* O 1.697(3) 0.907(3) 0.326(3)
O13** O -0.303(3) -0.093(3) 0.326(3)
O13*** O 0.697(3) 0.907(3) 0.326(3)
O14A O 0.793(3) -0.145(3) 0.539(3)
O14A* O 1.793(3) 0.855(3) 0.539(3)
O14* O 1.207(3) 0.145(3) 0.461(3)
O14** O 1.207(3) 1.145(3) 0.461(3)
O14A** O -0.207(3) -0.145(3) 0.539(3)
O14A*** O 0.793(3) 0.855(3) 0.539(3)
O15A O 1.184(4) 0.843(3) 0.537(3)
O15A* O 0.184(4) -0.157(3) 0.537(3)
O15A** O 1.184(4) -0.157(3) 0.537(3)
O15* O 1.816(4) 1.157(3) 0.463(3)
O15** O -0.184(4) 0.157(3) 0.463(3)
O15*** O 0.816(4) 1.157(3) 0.463(3)
O16A O 0.537(2) 0.047(2) 0.810(2)
O16A* O 1.537(2) 1.047(2) 0.810(2)
O16* O 1.463(2) 0.953(2) 0.190(2)
O16A** O 1.537(2) 0.047(2) 0.810(2)
O17A O 1.429(3) 0.675(3) 0.494(3)
O17A* O 0.429(3) -0.325(3) 0.494(3)
O17* O 1.571(3) 0.325(3) 0.506(3)
O17A** O 1.429(3) -0.325(3) 0.494(3)
O17** O 1.571(3) 1.325(3) 0.506(3)
O18A O 1.424(3) 0.820(3) 0.682(3)
O18A* O 0.424(3) -0.180(3) 0.682(3)
O18* O 1.576(3) 1.180(3) 0.318(3)
O18A** O 1.424(3) -0.180(3) 0.682(3)
O19A O 1.673(3) 0.818(3) 0.677(3)
O19A* O 0.673(3) -0.182(3) 0.677(3)
O19* O 1.327(3) 1.182(3) 0.323(3)
O19** O 1.327(3) 0.182(3) 0.323(3)
O20A O 0.334(5) -0.093(4) 0.453(4)
O20A* O 1.334(5) 0.907(4) 0.453(4)
O20* O 1.666(5) 1.093(4) 0.547(4)
O20A** O 1.334(5) -0.093(4) 0.453(4)
O21A O 0.539(4) -0.276(3) 0.344(3)
O21A* O 1.539(4) 0.724(3) 0.344(3)
O21* O 1.461(4) 1.276(3) 0.656(3)
O21** O 1.461(4) 0.276(3) 0.656(3)
O22A O 0.512(5) -0.110(5) 0.561(5)
O22A* O 1.512(5) 0.890(5) 0.561(5)
O22* O 1.488(5) 1.110(5) 0.439(5)
O22** O 1.488(5) 0.110(5) 0.439(5)
O23A O 0.579(4) 0.053(3) 0.642(3)
O23* O 1.421(4) 0.947(3) 0.358(3)
O23A* O 1.579(4) 1.053(3) 0.642(3)
O23A** O 1.579(4) 0.053(3) 0.642(3)
N1A N 0.894(3) 0.522(2) 0.317(2)
N1* N 0.106(3) -0.522(2) 0.683(2)
N1A* N -0.106(3) -0.478(2) 0.317(2)
N2A N 0.569(4) 0.563(3) -0.278(3)
Si1* Si 1.50000 1.00000 0.50000
W1A W 1.62401(13) 0.74720(12) 0.51635(13)
W1A* W 0.62401(13) -0.25280(12) 0.51635(13)
W1* W 1.37599(13) 0.25280(12) 0.48365(13)
W1** W 1.37599(13) 1.25280(12) 0.48365(13)
W1A** W -0.37599(13) -0.25280(12) 0.51635(13)
W2A W 1.17070(14) 0.81694(12) 0.24340(12)
W2A* W 0.17070(14) -0.18306(12) 0.24340(12)
W2* W 1.82930(14) 1.18306(12) 0.75660(12)
W2A** W 1.17070(14) -0.18306(12) 0.24340(12)
W2** W -0.17070(14) 0.18306(12) 0.75660(12)
W4A W 0.49416(13) 0.17876(12) 0.75700(12)
W4* W 1.50584(13) 0.82124(12) 0.24300(12)
W4A* W 1.49416(13) 1.17876(12) 0.75700(12)
W4A** W 1.49416(13) 0.17876(12) 0.75700(12)
W4** W -0.49416(13) -0.17876(12) 0.24300(12)
W5A W 1.28848(15) 0.74176(12) 0.51872(13)
W5A* W 0.28848(15) -0.25824(12) 0.51872(13)
W5A** W 1.28848(15) -0.25824(12) 0.51872(13)
W5* W 1.71152(15) 1.25824(12) 0.48128(13)
W5** W -0.28848(15) 0.25824(12) 0.48128(13)
W6A W 1.61839(13) 0.92407(11) 0.77522(11)
W6A* W 0.61839(13) -0.07593(11) 0.77522(11)
W6* W 1.38161(13) 1.07593(11) 0.22478(11)
Co1A Co 0.1730(2) 0.0000(3) 0.5023(2)
Co1A* Co 1.1730(2) 0.0000(3) 0.5023(2)
Co1A** Co 1.1730(2) 1.0000(3) 0.5023(2)
Co1* Co 1.8270(2) 1.0000(3) 0.4977(2)
Co1** Co -0.1730(2) 0.0000(3) 0.4977(2)
Co1*** Co 0.8270(2) 1.0000(3) 0.4977(2)
Co1A*** Co 2.1730(2) 1.0000(3) 0.5023(2)
Co2* Co 0.00000 -0.50000 0.50000
#END
