
#######################################################################
#
#                 Cambridge Crystallographic Data Centre
#                                CCDC
#
#######################################################################
#
# If this CIF has been generated from an entry in the Cambridge
# Structural Database, then it will include bibliographic, chemical,
# crystal, experimental, refinement or atomic coordinate data resulting
# from the CCDC's data processing and validation procedures.
#
#######################################################################

data_CSD_CIF_EHIHUB
_audit_creation_date 2020-12-16
_audit_creation_method CSD-ConQuest-V1
_database_code_CSD EHIHUB
_database_code_depnum_ccdc_archive 'CCDC 1966754'
_chemical_formula_sum 'C89 H212 Co24 Mo24 N19 O248 P43'
_chemical_formula_moiety
;
(C34 H119 Co24 Mo24 N6 O231 P42 3-)n,C7 H10 N1 1+,C5 H6 N1 1+,7(C5 H5 
N1),2(C3 H5 N2 1+),C2 H6 O1,H2 O4 P1 1-,12(H2 O1)
;
_journal_coden_Cambridge 1220
_journal_volume 27
_journal_year 2020
_journal_page_first 1301
_journal_name_full 'Chem.-Eur.J. '
loop_
_publ_author_name
"Run-Kun Kang"
"Ya-Yu Dong"
"Jia-Peng Cao"
"Xi-Ming Luo"
"Ze-Yu Du"
"Dunru Zhu"
"Yan Xu"
_chemical_name_systematic
;
catena-[bis(1H-imidazol-3-ium) 1-ethyl-pyridin-1-ium pyridinium 
tetrakis(\m-phosphato)-docosakis(\m-hydrogen 
phosphato)-pentadecakis(\m-dihydrogen 
phosphato)-pentacosakis(\m-oxido)-(\m-hydroxido)-tetrakis(\m-aqua)-bis(ethanol
)-(dihydrogen 
phosphato)-hepta-aqua-tetracosaoxo-hexakis(pyridine)-tetracosa-cobalt(ii)-tetr
acosa-molybdenum(v) (dihydrogen phosphate)  pyridine ethanol unknown solvate 
dodecahydrate]
;
_cell_volume  15832.181
_exptl_crystal_colour 'red'
_exptl_crystal_density_diffrn 2.216
_exptl_special_details
;
The anion H atoms have not been located and have been placed arbitrarily in 
the 2D diagram
;
_exptl_crystal_description 'parallelepiped'
_diffrn_ambient_temperature 296
_refine_special_details
;
Disordered solvent molecules were not modelled and the disordered density was 
taken into account using the SQUEEZE/PLATON procedure.
;
#These two values have been output from a single CSD field.
_refine_ls_R_factor_gt 0.0538
_refine_ls_wR_factor_gt 0.0538
_symmetry_cell_setting triclinic
_symmetry_space_group_name_H-M 'P -1'
_symmetry_Int_Tables_number 2
loop_
_symmetry_equiv_pos_site_id
_symmetry_equiv_pos_as_xyz
1 x,y,z
2 -x,-y,-z
_cell_length_a 22.623(7)
_cell_length_b 24.247(7)
_cell_length_c 33.11(1)
_cell_angle_alpha 73.433(4)
_cell_angle_beta 73.596(4)
_cell_angle_gamma 68.099(3)
_cell_formula_units_Z 2
loop_
_atom_type_symbol
_atom_type_radius_bond
C 0.68
H 0.23
Co 1.26
Mo 1.54
N 0.68
O 0.68
P 1.05
loop_
_atom_site_label
_atom_site_type_symbol
_atom_site_fract_x
_atom_site_fract_y
_atom_site_fract_z
Mo1 Mo 0.55704(4) 0.80157(3) -0.10194(2)
Mo2 Mo 1.21820(3) 0.28925(3) -0.10135(2)
Mo3 Mo 0.41054(3) 0.79794(3) -0.22789(2)
Mo4 Mo 1.14062(4) 0.78155(3) -0.36422(2)
Mo5 Mo 1.03944(3) 0.19469(3) -0.17268(2)
Mo6 Mo 0.43890(3) 0.81738(3) -0.10599(2)
Mo7 Mo 0.74174(3) 0.36269(3) -0.16633(2)
Mo8 Mo 1.21002(3) 0.18268(3) -0.06279(2)
Mo9 Mo 0.76959(3) 0.45292(3) -0.00938(2)
Mo10 Mo 0.52058(3) 0.76887(3) -0.28190(2)
Mo11 Mo 1.32610(4) 0.40097(3) -0.30062(2)
Mo12 Mo 1.09282(3) 0.11611(3) -0.11065(2)
Mo13 Mo 1.16789(4) 0.28699(3) -0.37354(2)
Mo14 Mo 1.15553(4) 0.68714(3) -0.30213(2)
Mo15 Mo 0.74338(4) 0.97051(3) -0.20085(2)
Mo16 Mo 0.64628(3) 0.39328(3) -0.10354(2)
Mo17 Mo 0.97118(4) 0.71168(3) -0.45189(2)
Mo18 Mo 0.78319(3) 0.55768(3) -0.05033(2)
Mo19 Mo 0.72579(3) 0.92183(3) -0.38006(2)
Mo20 Mo 1.39554(3) 0.34636(3) -0.36355(2)
Mo21 Mo 1.28850(4) 0.26988(3) -0.41201(2)
Mo22 Mo 0.71577(4) 1.03327(3) -0.38304(2)
Mo23 Mo 0.72961(4) 1.06407(3) -0.26331(3)
Mo24 Mo 1.09378(4) 0.69775(3) -0.47845(2)
Co1 Co 1.27785(5) 0.18541(5) -0.29950(4)
Co2 Co 1.01667(6) 0.83062(5) -0.42243(4)
Co3 Co 1.07125(6) 0.54656(5) -0.45515(4)
Co4 Co 1.21925(5) 0.13827(5) -0.20691(4)
Co5 Co 1.29863(5) 0.18002(5) -0.17650(4)
Co6 Co 0.49876(5) 0.63528(5) -0.19234(4)
Co7 Co 1.28481(6) 0.49321(5) -0.40707(4)
Co8 Co 1.20104(6) 0.43097(5) -0.44384(4)
Co9 Co 0.95098(5) 0.23542(5) -0.06406(4)
Co10 Co 0.80059(5) 0.33365(5) -0.06195(4)
Co11 Co 0.60775(5) 0.50558(5) -0.20524(4)
Co12 Co 1.20312(6) 0.63669(5) -0.40916(4)
Co13 Co 0.63901(5) 0.53668(5) -0.07151(4)
Co14 Co 0.52950(5) 0.65713(5) -0.10465(4)
Co15 Co 0.57297(5) 0.99624(5) -0.30986(4)
Co16 Co 0.57932(6) 1.02049(5) -0.23081(4)
Co17 Co 0.49256(6) 0.93997(5) -0.18360(4)
Co18 Co 1.35557(5) 0.23052(5) -0.26988(4)
Co19 Co 0.88788(5) 0.93756(5) -0.38562(4)
Co20 Co 1.01764(6) 0.82980(5) -0.26838(4)
Co21 Co 0.48083(5) 0.92383(5) -0.26306(4)
Co22 Co 0.89482(6) 0.95414(5) -0.28964(4)
Co23 Co 0.94457(5) 0.43414(5) -0.04014(4)
Co24 Co 1.04519(6) 0.29343(5) -0.03718(4)
P1 P 1.11929(11) 0.20686(10) -0.27457(7)
P2 P 1.31284(10) 0.31759(10) -0.20020(7)
P3 P 1.00338(10) 0.74736(10) -0.32239(7)
P4 P 0.38811(10) 0.71897(10) -0.12876(7)
P5 P 0.88945(10) 0.32036(10) 0.00569(7)
P6 P 0.52422(10) 0.52704(10) -0.10937(7)
P7 P 1.14553(10) 0.24040(9) -0.15101(7)
P8 P 0.59908(11) 0.87017(10) -0.34106(7)
P9 P 0.60833(11) 1.11999(10) -0.31648(8)
P10 P 0.86778(10) 0.83078(10) -0.41490(7)
P11 P 1.21342(11) 0.5675(1) -0.48477(7)
P12 P 0.86583(10) 0.44487(10) -0.10652(7)
P13 P 1.24976(11) 0.06678(10) -0.10997(7)
P14 P 1.07360(11) 0.1491(1) -0.01634(7)
P15 P 0.71265(10) 0.50482(10) -0.15963(7)
P16 P 1.06227(10) 0.60976(10) -0.38295(7)
P17 P 1.24490(11) 0.55004(10) -0.31853(7)
P18 P 1.24792(10) 0.32735(10) -0.32270(7)
P19 P 1.26035(11) 0.05323(10) -0.27499(7)
P20 P 0.88815(10) 0.27798(10) -0.14972(7)
P21 P 0.61632(11) 0.91856(10) -0.14236(7)
P22 P 0.92805(11) 0.58296(10) -0.07857(7)
P23 P 0.54419(10) 0.80474(9) -0.19921(7)
P24 P 1.35493(11) 0.37998(10) -0.45810(7)
P25 P 1.02483(11) 0.9165(1) -0.36438(7)
P26 P 0.82762(11) 1.06885(10) -0.35890(8)
P27 P 0.59429(12) 0.62571(10) -0.28754(7)
P28 P 0.64563(10) 0.41559(10) -0.00781(7)
P29 P 0.35839(11) 0.91524(10) -0.18051(7)
P30 P 1.05400(14) 0.69284(12) -0.20621(8)
P31 P 0.67007(12) 0.66493(11) -0.10708(9)
P32 P 0.71145(10) 0.94371(10) -0.28304(7)
P33 P 1.41647(11) 0.20336(10) -0.36559(7)
P34 P 0.90927(12) 0.59941(12) -0.43931(8)
P35 P 0.74374(15) 0.43546(14) -0.26908(9)
P36 P 1.17615(12) 0.77902(12) -0.46634(8)
P37 P 0.99371(13) 0.90228(12) -0.52393(8)
P38 P 0.45551(12) 1.14839(11) -0.20739(8)
P39 P 1.10638(11) 0.40265(11) -0.06391(8)
P40 P 0.45016(11) 1.01649(11) -0.34938(8)
P41 P 0.89149(13) 0.88020(15) -0.19080(8)
P42 P 1.05931(12) 0.40862(12) -0.41356(8)
O1 O 0.9573(3) 0.2725(3) -0.17511(17)
O2 O 1.0150(3) 0.1866(2) -0.10988(16)
O3 O 0.7912(3) 0.9614(2) -0.38857(17)
O4 O 1.3319(3) 0.4261(3) -0.36328(18)
O5 O 0.6441(3) 1.1090(3) -0.36161(19)
O6 O 1.0773(3) 0.1086(3) -0.04544(17)
O7 O 0.5147(3) 1.0918(3) -0.2040(2)
O8 O 1.3015(3) 0.3216(2) -0.36456(17)
O9 O 1.1497(3) 0.2629(2) -0.05690(17)
O10 O 0.5116(3) 0.7437(2) -0.09701(17)
O11 O 0.4910(3) 0.8714(2) -0.12772(17)
O12 O 0.8797(3) 0.2826(3) -0.10307(18)
O13 O 1.3202(3) 0.2581(2) -0.21179(17)
O14 O 1.1577(3) 0.3783(2) -0.10048(18)
O15 O 1.2643(3) 0.2089(2) -0.11747(17)
O16 O 0.5895(3) 0.7816(2) -0.16697(17)
O17 O 0.4043(3) 0.8310(3) -0.05630(19)
O18 O 1.2388(3) 0.5686(3) -0.44703(18)
O19 O 1.1278(3) 0.8053(3) -0.42785(18)
O20 O 0.3343(3) 0.6883(3) -0.10313(18)
O21 O 1.1448(3) 0.1892(2) -0.10926(17)
O22 O 0.6538(3) 0.4216(2) -0.16589(17)
O23 O 0.6188(3) 0.3886(3) 0.03810(17)
O24 O 1.0258(3) 0.7538(3) -0.44402(18)
O25 O 1.2635(3) 0.3289(3) -0.15928(18)
O26 O 1.0264(3) 0.2128(2) -0.02702(18)
O27 O 0.9499(3) 0.7305(3) -0.33322(18)
O28 O 0.8060(3) 0.9951(3) -0.25158(18)
O29 O 0.6655(3) 1.0279(3) -0.22321(18)
O30 O 0.9883(3) 0.9080(3) -0.39345(19)
O31 O 0.8216(3) 0.4121(2) -0.07141(17)
O32 O 1.1690(3) 0.6938(2) -0.36432(17)
O33 O 0.8721(3) 1.0028(3) -0.34968(19)
O34 O 0.6769(3) 0.4812(3) -0.11399(18)
O35 O 1.1820(3) 0.3379(3) -0.33306(17)
O36 O 0.5305(3) 0.5468(2) -0.15832(17)
O37 O 1.1736(3) 0.6316(3) -0.50300(17)
O38 O 1.0275(3) 0.7615(3) -0.21316(19)
O39 O 1.4379(3) 0.2577(3) -0.37026(18)
O40 O 0.7212(3) 0.3987(2) -0.01470(18)
O41 O 0.4502(3) 0.5371(3) -0.08858(18)
O42 O 0.6189(3) 0.3349(3) -0.09565(19)
O43 O 1.3108(3) 0.1573(2) -0.23885(17)
O44 O 1.0666(3) 0.2312(3) -0.23731(18)
O45 O 0.4537(3) 0.6693(2) -0.13412(17)
O46 O 1.0393(3) 0.7789(2) -0.36359(17)
O47 O 0.3875(3) 0.7616(3) -0.10287(18)
O48 O 0.3608(3) 0.8010(3) -0.25814(18)
O49 O 1.2725(3) 0.0985(3) -0.15502(17)
O50 O 0.6528(3) 0.9896(3) -0.35916(18)
O51 O 0.3682(3) 0.7520(2) -0.17159(17)
O52 O 1.3843(3) 0.4236(3) -0.29464(19)
O53 O 0.5399(3) 0.8714(2) -0.21939(17)
O54 O 1.1839(3) 0.5928(3) -0.29612(18)
O55 O 0.7206(3) 0.5200(2) -0.04867(17)
O56 O 1.1277(3) 0.1380(2) -0.17163(17)
O57 O 0.9257(3) 0.8859(3) -0.23774(18)
O58 O 0.8961(3) 0.7621(2) -0.41249(18)
O59 O 0.6384(3) 0.9546(2) -0.26801(17)
O60 O 0.5005(3) 1.0421(3) -0.3450(2)
O61 O 0.8332(3) 0.5136(2) -0.11072(17)
O62 O 1.2437(3) 0.5581(3) -0.36565(18)
O63 O 1.1526(3) 0.2955(2) -0.14138(17)
O64 O 0.7385(3) 0.3577(2) -0.10559(17)
O65 O 1.0490(3) 0.1166(3) 0.03032(19)
O66 O 0.8776(3) 0.2906(3) -0.02482(18)
O67 O 0.7145(3) 0.9318(3) -0.43010(19)
O68 O 1.1849(3) 0.0586(3) -0.10504(19)
O69 O 1.2116(3) 0.3402(3) -0.41846(17)
O70 O 0.8445(3) 0.4818(2) -0.02524(18)
O71 O 0.9139(3) 0.8564(3) -0.40649(18)
O72 O 1.2027(3) 0.2160(2) -0.18599(18)
O73 O 0.6210(3) 0.8520(2) -0.12766(19)
O74 O 0.8415(3) 0.3316(3) -0.17455(17)
O75 O 0.7327(3) 0.2973(3) -0.16594(19)
O76 O 0.8559(3) 0.5963(3) -0.0756(2)
O77 O 0.8186(3) 0.8929(3) -0.18463(19)
O78 O 1.0289(3) 0.9828(3) -0.3795(2)
O79 O 1.1136(3) 0.2575(3) -0.31419(18)
O80 O 0.7425(3) 0.8979(2) -0.31314(17)
O81 O 1.3007(3) 0.0002(2) -0.10071(19)
O82 O 0.5616(3) 0.9171(2) -0.31272(17)
O83 O 1.1738(3) 0.5238(2) -0.47237(18)
O84 O 0.8027(3) 0.8421(3) -0.38342(18)
O85 O 0.5780(3) 0.6509(3) -0.17567(18)
O86 O 1.2934(3) 0.3731(3) -0.23563(18)
O87 O 0.8718(3) 0.8888(2) -0.31682(18)
O88 O 1.2520(3) 0.0956(3) -0.07482(18)
O89 O 0.7292(3) 0.4707(3) 0.03814(19)
O90 O 1.0472(3) 0.3819(2) -0.05361(18)
O91 O 1.3380(3) 0.3242(3) -0.45674(17)
O92 O 0.8287(3) 0.3709(3) 0.01923(17)
O93 O 0.7588(3) 0.3826(3) -0.23295(19)
O94 O 0.9943(3) 0.6546(3) -0.38649(17)
O95 O 0.5566(3) 0.4589(2) -0.09693(18)
O96 O 1.1167(3) 0.6699(3) -0.23631(19)
O97 O 1.0452(3) 0.6437(3) -0.47166(18)
O98 O 1.1048(3) 0.7733(3) -0.30322(17)
O99 O 1.0827(3) 0.3598(3) -0.37582(18)
O100 O 1.2940(3) 0.4330(3) -0.44807(19)
O101 O 0.2920(3) 0.9662(3) -0.17276(18)
O102 O 0.4641(3) 0.8470(2) -0.26544(18)
O103 O 1.3783(3) 0.1859(2) -0.32123(18)
O104 O 0.4119(3) 0.9421(2) -0.20633(18)
O105 O 0.6224(3) 0.6274(2) -0.08918(19)
O106 O 1.3718(3) 0.3144(3) -0.30211(18)
O107 O 1.0014(3) 0.3062(3) -0.09375(18)
O108 O 1.3055(3) -0.0128(3) -0.2806(2)
O109 O 1.0642(3) 0.0606(3) -0.10772(19)
O110 O 0.5740(3) 0.7638(2) -0.23233(17)
O111 O 1.4653(3) 0.3589(3) -0.3679(2)
O112 O 0.6334(3) 0.3864(3) -0.03870(18)
O113 O 0.9021(3) 0.2699(3) 0.04763(19)
O114 O 1.0752(3) 0.5497(3) -0.39393(17)
O115 O 0.3677(3) 0.8854(3) -0.13434(18)
O116 O 0.7803(3) 1.0762(3) -0.38561(19)
O117 O 0.6126(3) 0.4841(3) -0.01689(18)
O118 O 1.2493(3) 0.2275(3) -0.35758(18)
O119 O 0.5957(3) 0.6885(3) -0.28857(19)
O120 O 1.2419(3) 0.3823(2) -0.30636(17)
O121 O 0.7048(3) 1.0632(3) -0.4337(2)
O122 O 1.0947(3) 0.8740(3) -0.36841(19)
O123 O 0.7448(3) 0.5504(3) -0.15588(19)
O124 O 0.7913(3) 1.0928(3) -0.31789(18)
O125 O 0.5670(3) 0.5956(2) -0.24235(17)
O126 O 0.6716(3) 0.8620(3) -0.35113(19)
O127 O 0.5728(3) 0.9533(3) -0.17571(18)
O128 O 1.0026(3) 0.1507(3) -0.1812(2)
O129 O 0.3509(3) 0.8730(3) -0.20306(18)
O130 O 1.2511(3) 0.0576(3) -0.22775(19)
O131 O 0.6657(3) 0.5423(2) -0.18958(18)
O132 O 0.5496(3) 0.5633(2) -0.09144(17)
O133 O 0.5747(3) 1.0736(3) -0.29276(18)
O134 O 1.0299(3) 0.8741(3) -0.4867(2)
O135 O 1.0719(3) 0.5939(3) -0.33502(18)
O136 O 1.3923(3) 0.3983(3) -0.50516(19)
O137 O 1.2528(3) 0.4849(3) -0.29413(18)
O138 O 0.7244(3) 1.0054(2) -0.30773(19)
O139 O 0.8538(3) 0.8636(3) -0.46093(19)
O140 O 0.6528(3) 1.1254(3) -0.29218(19)
O141 O 1.1124(3) 0.6413(3) -0.41240(18)
O142 O 1.4828(3) 0.1522(3) -0.37525(19)
O143 O 1.1011(3) 0.4497(3) -0.43424(19)
O144 O 0.6410(3) 0.7248(2) -0.09249(18)
O145 O 0.8706(3) 1.1103(3) -0.3851(2)
O146 O 1.2444(3) 0.7718(3) -0.4667(2)
O147 O 1.2577(3) 0.1666(3) -0.02752(18)
O148 O 1.3813(3) 0.3121(3) -0.1931(2)
O149 O 0.4750(3) 0.8004(2) -0.17660(17)
O150 O 0.4781(3) 0.7204(2) -0.23203(16)
O151 O 1.3787(3) 0.2146(3) -0.40066(19)
O152 O 0.5429(3) 0.8116(3) -0.05171(19)
O153 O 0.4893(3) 0.7694(3) -0.32332(18)
O154 O 0.9481(3) 0.3424(2) -0.01265(18)
O155 O 0.8715(3) 0.2186(3) -0.1471(2)
O156 O 0.6765(3) 0.4806(3) -0.2590(2)
O157 O 1.2920(3) 0.2307(3) -0.44749(19)
O158 O 1.3062(3) 0.5636(3) -0.3154(2)
O159 O 1.1400(3) 0.1519(3) -0.01722(17)
O160 O 1.0804(3) 0.2610(2) -0.16554(18)
O161 O 1.2135(3) 0.7906(3) -0.3708(2)
O162 O 0.5054(3) 0.9956(2) -0.24734(18)
O163 O 1.0530(3) 0.6878(2) -0.30375(18)
O164 O 0.7446(3) 0.9164(3) -0.24385(19)
O165 O 1.1048(3) 0.1531(3) -0.2834(2)
O166 O 0.4452(3) 1.1774(3) -0.2534(2)
O167 O 0.9747(3) 0.5518(3) -0.4356(3)
O168 O 0.9685(3) 0.7887(2) -0.29056(18)
O169 O 0.7944(5) 0.4708(5) -0.2772(4)
O170 O 1.4030(3) 0.3655(3) -0.42976(18)
O171 O 1.2937(3) 0.0991(3) -0.30495(19)
O172 O 0.9109(3) 0.6614(3) -0.4389(2)
O173 O 1.0647(4) 0.2761(4) 0.0257(2)
N1 N 0.5412(4) 0.4705(4) -0.2153(2)
O174 O 1.1681(3) 0.7184(3) -0.4643(2)
O175 O 0.9904(3) 0.9083(3) -0.31756(19)
O176 O 1.1871(3) 0.1839(3) -0.26366(17)
O177 O 0.4253(3) 0.9803(3) -0.3062(2)
O178 O 1.2737(3) 0.5492(3) -0.52222(19)
O179 O 0.8754(3) 0.4263(3) -0.15039(17)
O180 O 0.9492(3) 0.7527(3) -0.4983(2)
O181 O 0.6855(3) 0.9206(3) -0.15866(19)
O182 O 0.5548(3) 1.1842(3) -0.3218(2)
O183 O 0.5852(4) 0.9476(3) -0.1018(2)
H1 H 0.586(2) 0.9792(11) -0.0967(12)
O184 O 0.3910(3) 1.0715(3) -0.36439(19)
O185 O 1.2660(3) 0.2693(2) -0.28862(17)
O186 O 0.7497(3) 0.5926(3) -0.0079(2)
O187 O 0.6827(3) 0.6814(3) -0.1578(2)
O188 O 0.9654(3) 0.5151(3) -0.0720(2)
O189 O 0.8859(4) 0.6006(4) -0.4790(3)
O190 O 0.5591(4) 0.6268(3) -0.3207(2)
O191 O 0.7305(3) 1.1145(3) -0.2375(2)
O192 O 0.6669(3) 0.5878(3) -0.3005(2)
O193 O 0.5739(3) 0.8917(3) -0.38408(19)
O194 O 0.9338(3) 0.4225(2) -0.09680(17)
O195 O 1.1931(3) 0.4657(3) -0.38381(19)
O196 O 0.7354(3) 0.6292(3) -0.0938(2)
O197 O 0.5910(3) 0.8082(3) -0.31940(19)
O198 O 0.7653(2) 0.4500(2) -0.17631(17)
O199 O 1.2265(3) 0.6869(3) -0.2964(2)
O200 O 1.2677(3) 0.2917(3) -0.07201(19)
O201 O 1.1490(3) 0.2504(3) -0.4019(2)
O202 O 0.3959(3) 1.1332(3) -0.1768(2)
O203 O 1.0255(3) 0.9447(3) -0.5584(2)
O204 O 1.0831(3) 0.4730(3) -0.0744(2)
O205 O 0.9391(3) 0.6116(3) -0.0475(2)
O206 O 0.7447(3) 1.0053(3) -0.1641(2)
O207 O 0.9214(3) 0.9321(3) -0.5075(2)
O208 O 1.1970(3) 0.0591(3) -0.2864(2)
O209 O 1.1384(3) 0.3817(4) -0.0239(2)
O210 O 1.0924(3) 0.7401(3) -0.5281(2)
O211 O 0.4757(3) 0.9808(3) -0.3855(2)
N2 N 0.9220(3) 0.1569(3) -0.0325(2)
N3 N 0.7661(4) 0.2614(3) -0.0298(2)
O212 O 0.8584(4) 0.5827(4) -0.3985(3)
O213 O 1.2901(3) 0.6574(3) -0.4292(2)
O214 O 0.4770(3) 0.6506(3) -0.04018(19)
O215 O 1.2179(3) 0.4117(3) -0.5047(2)
O216 O 0.4293(3) 1.0089(3) -0.1500(2)
O217 O 0.4645(4) 1.1980(4) -0.1900(3)
H2 H 0.5043(19) 1.196(5) -0.1966(15)
O218 O 1.1532(3) 0.8258(3) -0.5078(2)
N4 N 1.3723(4) 0.5155(4) -0.4322(3)
N5 N 0.4184(4) 0.6238(3) -0.2044(2)
O219 O 0.9537(3) 0.6137(3) -0.1255(2)
O220 O 0.9180(5) 0.8128(4) -0.1683(3)
O221 O 0.9970(4) 0.8521(4) -0.5477(3)
O222 O 0.9896(3) 0.4483(4) -0.3949(3)
O223 O 1.0031(4) 0.6697(4) -0.2166(3)
O224 O 0.9273(4) 1.0202(4) -0.2785(3)
C1 C 0.9127(5) 0.1391(5) 0.0108(3)
H3 H 0.90860 0.16578 0.02758
N6 N 1.0847(5) 0.8656(4) -0.2581(3)
O225 O 0.9043(5) 0.9203(5) -0.1682(3)
C2 C 0.7543(5) 0.2461(5) 0.0135(3)
H4 H 0.75602 0.27212 0.02875
O226 O 1.0568(4) 0.6640(3) -0.1596(2)
C3 C 0.9187(6) 0.0610(5) -0.0345(5)
H5 H 0.92067 0.03441 -0.05063
O227 O 1.0508(5) 0.3817(4) -0.4476(2)
C4 C 0.9241(5) 0.1170(5) -0.0543(3)
H6 H 0.92941 0.12799 -0.08412
C5 C 0.7395(5) 0.1936(5) 0.0366(4)
H7 H 0.73135 0.18464 0.06651
O228 O 0.7513(5) 0.4132(5) -0.3084(3)
C6 C 0.7623(5) 0.2239(5) -0.0511(4)
H8 H 0.76974 0.23413 -0.08099
C7 C 0.3825(5) 0.5927(5) -0.1747(3)
H9 H 0.39378 0.57589 -0.14782
C8 C 0.5069(5) 0.4980(5) -0.2466(4)
H10 H 0.51699 0.53040 -0.26675
C9 C 0.4007(5) 0.6490(5) -0.2417(3)
H11 H 0.42496 0.67166 -0.26224
C10 C 1.0790(9) 0.9249(7) -0.2668(5)
H12 H 1.03941 0.95301 -0.27227
C11 C 0.9102(6) 0.0441(5) 0.0097(4)
H13 H 0.90551 0.00648 0.02414
C12 C 0.9092(6) 0.0825(6) 0.0301(4)
H14 H 0.90580 0.07082 0.05973
C13 C 1.4082(6) 0.5141(6) -0.4051(5)
H15 H 1.39733 0.49694 -0.37616
C14 C 0.4563(7) 0.4805(6) -0.2505(5)
H16 H 0.43155 0.50232 -0.27152
C15 C 0.4448(7) 0.4298(7) -0.2220(5)
H17 H 0.41356 0.41535 -0.22453
C16 C 1.1476(6) 0.8268(7) -0.2535(5)
H18 H 1.15463 0.78528 -0.24823
C17 C 1.3923(7) 0.5365(6) -0.4738(4)
H19 H 1.37039 0.53571 -0.49347
C18 C 0.4798(8) 0.4011(8) -0.1901(5)
H20 H 0.47113 0.36784 -0.17024
C19 C 0.7477(6) 0.1701(6) -0.0307(5)
H21 H 0.74501 0.14553 -0.04673
C20 C 1.4416(9) 0.5584(9) -0.4887(7)
H22 H 1.45225 0.57346 -0.51805
C21 C 0.7375(6) 0.1545(6) 0.0130(5)
H23 H 0.72918 0.11823 0.02714
C22 C 0.5279(7) 0.4210(6) -0.1871(4)
H24 H 0.55181 0.40040 -0.16556
C23 C 1.1887(10) 0.9062(9) -0.2637(6)
H25 H 1.22321 0.91964 -0.26573
C24 C 1.1989(8) 0.8445(8) -0.2561(5)
H26 H 1.23944 0.81635 -0.25287
C25 C 0.3478(6) 0.6439(6) -0.2526(4)
H27 H 0.33737 0.66220 -0.27960
C26 C 1.1298(10) 0.9476(9) -0.2681(6)
H28 H 1.12255 0.98895 -0.27188
C27 C 0.3296(6) 0.5843(6) -0.1817(4)
H29 H 0.30605 0.56173 -0.16048
C28 C 0.3125(7) 0.6115(7) -0.2226(5)
H30 H 0.27698 0.60705 -0.22865
C29 C 1.4784(9) 0.5594(10) -0.4611(6)
H31 H 1.51318 0.57459 -0.47168
C30 C 1.4612(8) 0.5372(9) -0.4182(7)
H32 H 1.48332 0.53729 -0.39838
C31 C 0.9699(7) 0.2690(8) 0.1000(4)
H33 H 0.96803 0.23922 0.12626
H34 H 0.96471 0.30697 0.10633
H35 H 0.93577 0.27398 0.08614
C32 C 0.8648(12) 1.0470(13) -0.2009(9)
H36 H 0.87559 1.05175 -0.17633
H37 H 0.83447 1.08431 -0.21240
H38 H 0.84573 1.01514 -0.19255
C33 C 1.0344(8) 0.2482(8) 0.0709(5)
H39 H 1.03726 0.20840 0.06828
H40 H 1.06575 0.24088 0.08816
C34 C 0.9257(14) 1.0312(16) -0.2347(7)
H41 H 0.95561 0.99483 -0.22106
H42 H 0.94446 1.06338 -0.24074
O229 O 0.9504(3) 0.4425(3) 0.0191(2)
O230 O 0.8985(3) 0.9937(3) -0.44595(19)
O231 O 1.0704(4) 0.5404(4) -0.5168(2)
P43 P 0.3249(2) 0.46645(17) 0.39349(10)
O232 O 0.3117(4) 0.4578(4) 0.4418(2)
O233 O 0.2886(6) 0.4255(5) 0.3835(3)
O234 O 0.3951(5) 0.4415(5) 0.3731(3)
H43 H 0.41003 0.44752 0.34567
O235 O 0.2921(8) 0.5300(6) 0.3740(4)
H44 H 0.307(5) 0.551(7) 0.351(3)
O236 O -0.3435(5) 1.3347(5) 0.3664(3)
O237 O 0.5574(9) 1.3105(10) 0.3556(7)
O238 O 0.5696(6) 1.2670(5) -0.0128(3)
O239 O 0.8774(13) -0.8289(12) -0.2118(9)
O240 O 0.4766(9) 1.9405(7) 0.1176(6)
O241 O 0.5724(9) 0.0504(9) -0.4512(6)
O242 O 0.2263(10) 1.1094(7) 0.6048(6)
O243 O 0.5970(8) 0.8775(11) 0.0810(7)
O244 O 0.3195(13) 1.1850(13) 0.2534(9)
O245 O 0.9899(11) 1.1146(11) -0.2635(7)
O246 O 0.847(1) 0.4759(9) -0.3887(8)
O247 O -0.2584(10) 1.2570(11) 0.5825(7)
N7 N -0.1087(4) 1.5893(4) 0.1860(3)
C35 C -0.1365(5) 1.5693(6) 0.2252(4)
H45 H -0.17466 1.59478 0.23857
C36 C -0.0554(6) 1.5518(7) 0.1664(4)
H46 H -0.03624 1.56503 0.13821
C37 C -0.1109(7) 1.5133(7) 0.2461(4)
H47 H -0.13049 1.49998 0.27414
C38 C -0.0570(9) 1.4761(7) 0.2268(6)
H48 H -0.03871 1.43693 0.24140
C39 C -0.0296(8) 1.4952(8) 0.1870(6)
H49 H 0.00761 1.46919 0.17327
N8 N 1.0647(5) 0.3949(4) -0.2896(3)
H50 H 1.10118 0.37485 -0.30337
C40 C 1.0321(8) 0.4514(7) -0.3087(5)
H51 H 1.05038 0.46806 -0.33619
C41 C 1.0411(7) 0.3701(5) -0.2504(4)
H52 H 1.06460 0.33183 -0.23726
C42 C 0.9857(8) 0.3991(7) -0.2304(4)
H53 H 0.96747 0.38127 -0.20333
C43 C 0.9528(8) 0.4579(10) -0.2499(6)
H54 H 0.91399 0.47927 -0.23427
C44 C 0.9737(8) 0.4846(7) -0.2890(5)
H55 H 0.95042 0.52300 -0.30202
O248 O 0.5410(6) 0.5796(5) 0.0276(4)
C45 C 0.5800(15) 0.6136(14) 0.0337(10)
H56 H 0.55346 0.65600 0.03088
H57 H 0.61695 0.61123 0.00990
C46 C 0.6065(17) 0.5958(16) 0.0753(12)
H58 H 0.63022 0.62208 0.07386
H59 H 0.57090 0.59958 0.09950
H60 H 0.63479 0.55454 0.07839
N9 N 0.1627(5) 1.5650(5) -0.1473(3)
C47 C 0.2344(6) 1.4802(6) -0.1759(5)
H61 H 0.25220 1.45986 -0.19871
C48 C 0.2276(6) 1.4852(5) -0.1045(4)
H62 H 0.23974 1.46795 -0.07790
C49 C 0.1877(6) 1.5366(6) -0.1799(5)
H63 H 0.17369 1.55487 -0.20581
C50 C 0.1844(6) 1.5401(6) -0.1113(4)
H64 H 0.16864 1.56201 -0.08942
C51 C 0.2535(6) 1.4552(6) -0.1372(4)
H65 H 0.28470 1.41710 -0.13343
C52 C 0.3487(11) 0.2801(9) -0.5774(7)
H66 H 0.38973 0.28316 -0.58115
N10 N 0.2944(11) 0.2931(9) -0.5437(7)
C53 C 0.2386(11) 0.2774(10) -0.5278(8)
H67 H 0.20844 0.28835 -0.50337
C54 C 0.2333(11) 0.2451(10) -0.5515(7)
H68 H 0.20332 0.22409 -0.54034
C55 C 0.3235(11) 0.2608(10) -0.6042(8)
H69 H 0.34517 0.26158 -0.63266
C56 C 0.2695(11) 0.241(1) -0.5915(8)
H70 H 0.25857 0.22533 -0.60989
C57 C -0.4167(19) 1.3812(15) 0.6897(11)
H71 H -0.41633 1.41348 0.66635
C58 C -0.4544(18) 1.3434(18) 0.7029(13)
H72 H -0.49195 1.35817 0.69165
C59 C -0.3794(18) 1.3571(17) 0.7215(13)
H73 H -0.36830 1.38540 0.72913
C60 C -0.4454(19) 1.2867(19) 0.7304(13)
H74 H -0.47858 1.26951 0.73885
N11 N -0.3861(19) 1.2545(15) 0.7458(12)
C61 C -0.3556(19) 1.2968(18) 0.7441(13)
H75 H -0.32064 1.28520 0.75750
N12 N 0.4410(13) 1.8231(13) 0.1528(9)
C62 C 0.4068(15) 1.7711(15) 0.1139(11)
H76 H 0.41512 1.74215 0.09795
C63 C 0.3333(15) 1.8553(14) 0.1462(10)
H77 H 0.29184 1.88350 0.14910
C64 C 0.3446(15) 1.8081(14) 0.1273(11)
H78 H 0.30937 1.80051 0.12342
C65 C 0.4572(15) 1.7806(15) 0.1262(11)
H79 H 0.50050 1.75908 0.11697
C66 C 0.3798(15) 1.8635(15) 0.1612(11)
H80 H 0.37038 1.89418 0.17587
C67 C 0.2538(12) 1.3517(12) 0.2641(9)
H81 H 0.27308 1.37482 0.24020
C68 C 0.1974(13) 1.3834(12) 0.2898(9)
H82 H 0.18285 1.42522 0.28755
C69 C 0.2476(12) 1.2547(10) 0.2971(9)
H83 H 0.26219 1.21287 0.29937
C70 C 0.2839(12) 1.2889(11) 0.2709(9)
H84 H 0.32678 1.27164 0.25798
C71 C 0.1667(12) 1.3449(11) 0.3183(9)
H85 H 0.12910 1.36136 0.33724
N13 N 0.1881(11) 1.2830(11) 0.3207(8)
N14 N 0.6855(14) 0.9992(12) -0.0352(11)
C72 C 0.6145(18) 1.0443(16) 0.0237(11)
H86 H 0.60054 1.03492 0.05327
C73 C 0.6770(17) 1.0124(15) 0.0052(10)
H87 H 0.71164 1.00029 0.01904
C74 C 0.5732(17) 1.0890(16) -0.0005(12)
H88 H 0.53702 1.11914 0.01008
C75 C 0.8094(15) 0.9801(14) -0.0664(11)
H89 H 0.84701 0.95121 -0.07953
H90 H 0.80159 1.01885 -0.08574
H91 H 0.81684 0.98363 -0.04024
C76 C 0.6406(18) 1.0369(17) -0.0597(9)
H92 H 0.64264 1.03133 -0.08680
C77 C 0.5926(17) 1.0831(16) -0.0424(12)
H93 H 0.57033 1.11471 -0.06174
C78 C 0.7513(14) 0.9589(14) -0.0566(11)
H94 H 0.76115 0.91905 -0.03799
H95 H 0.74596 0.95412 -0.08330
N15 N 0.8039(8) 0.7437(8) -0.0378(6)
H96 H 0.83537 0.71983 -0.02513
C79 C 0.7527(10) 0.7296(9) -0.0311(7)
H97 H 0.73661 0.70328 -0.00792
N16 N 0.7615(12) 0.8071(10) -0.0858(8)
H98 H 0.75220 0.83590 -0.10753
C80 C 0.7274(11) 0.7631(11) -0.0666(8)
H99 H 0.69509 0.75861 -0.07635
C81 C 0.8096(9) 0.7979(10) -0.0657(9)
H100 H 0.83717 0.82006 -0.06913
N17 N 0.794(1) 0.7942(8) -0.2096(7)
H101 H 0.78183 0.83156 -0.22261
N18 N 0.8551(10) 0.7016(9) -0.1924(8)
H102 H 0.88529 0.66709 -0.19234
C82 C 0.8565(11) 0.7561(12) -0.2225(8)
H103 H 0.88991 0.76426 -0.24474
C83 C 0.7968(12) 0.7135(11) -0.1631(7)
H104 H 0.78766 0.68647 -0.13780
C84 C 0.7523(9) 0.7717(11) -0.1762(8)
H105 H 0.70841 0.78895 -0.16538
C85 C 1.1784(12) 0.9061(14) -0.1561(10)
H106 H 1.21913 0.90600 -0.15518
C86 C 1.0597(11) 0.9290(14) -0.1548(10)
H107 H 1.01652 0.93047 -0.14922
C87 C 1.1372(14) 0.9620(12) -0.1701(10)
H108 H 1.15690 0.99216 -0.18035
N19 N 1.1041(14) 0.8732(11) -0.1449(9)
C88 C 1.1700(14) 0.8507(12) -0.1433(10)
H109 H 1.19812 0.81165 -0.13600
C89 C 1.0719(14) 0.9829(11) -0.1722(10)
H110 H 1.04502 1.02141 -0.18214
Co5* Co 0.29863(5) 1.18002(5) -0.17650(4)
Co18* Co 0.35557(5) 1.23052(5) -0.26988(4)
O166* O 1.4452(3) 0.1774(3) -0.2534(2)
O202* O 1.3959(3) 0.1332(3) -0.1768(2)
#END
