
#######################################################################
#
#                 Cambridge Crystallographic Data Centre
#                                CCDC
#
#######################################################################
#
# If this CIF has been generated from an entry in the Cambridge
# Structural Database, then it will include bibliographic, chemical,
# crystal, experimental, refinement or atomic coordinate data resulting
# from the CCDC's data processing and validation procedures.
#
#######################################################################

data_CSD_CIF_EHIWOK
_audit_creation_date 2020-12-17
_audit_creation_method CSD-ConQuest-V1
_database_code_CSD EHIWOK
_database_code_depnum_ccdc_archive 'CCDC 2019927'
_chemical_formula_sum 'C90 H72 In3 N5 O24'
_chemical_formula_moiety
;
(C84 H48 In3 N2 O24 3-)n,3n(C2 H8 N1 1+)
;
_journal_coden_Cambridge 9
_journal_volume 60
_journal_year 2020
_journal_page_first 167
_journal_name_full 'Inorg.Chem. '
loop_
_publ_author_name
"Yu-Hui Luo"
"A-Di Xie"
"Ming-Gai Hu"
"Ji Wu"
"Dong-En Zhang"
"Ya-Qian Lan"
_chemical_name_systematic
;
catena-(tris(dimethylammonium) 
bis(\m-4',4'',4'''-nitrilotris([1,1'-biphenyl]-4-carboxylato))-tris(\m-oxalato
)-tri-indium unknown solvate)
;
_chemical_name_common
;
JOU-12
;
_cell_volume  69995.654
_exptl_crystal_colour 'red'
_exptl_crystal_description 'block'
_diffrn_ambient_temperature 296
_refine_special_details
;
The SQUEEZE/PLATON program was used to model some disorder.

;
#These two values have been output from a single CSD field.
_refine_ls_R_factor_gt 0.0759
_refine_ls_wR_factor_gt 0.0759
_symmetry_cell_setting cubic
_symmetry_space_group_name_H-M 'P a -3'
_symmetry_Int_Tables_number 205
loop_
_symmetry_equiv_pos_site_id
_symmetry_equiv_pos_as_xyz
1 x,y,z
2 1/2-x,-y,1/2+z
3 -x,1/2+y,1/2-z
4 1/2+x,1/2-y,-z
5 z,x,y
6 1/2+z,1/2-x,-y
7 1/2-z,-x,1/2+y
8 -z,1/2+x,1/2-y
9 y,z,x
10 -y,1/2+z,1/2-x
11 1/2+y,1/2-z,-x
12 1/2-y,-z,1/2+x
13 -x,-y,-z
14 -1/2+x,y,-1/2-z
15 x,-1/2-y,-1/2+z
16 -1/2-x,-1/2+y,z
17 -z,-x,-y
18 -1/2-z,-1/2+x,y
19 -1/2+z,x,-1/2-y
20 z,-1/2-x,-1/2+y
21 -y,-z,-x
22 y,-1/2-z,-1/2+x
23 -1/2-y,-1/2+z,x
24 -1/2+y,z,-1/2-x
_cell_length_a 41.212(3)
_cell_length_b 41.212(3)
_cell_length_c 41.212(3)
_cell_angle_alpha 90
_cell_angle_beta 90
_cell_angle_gamma 90
_cell_formula_units_Z 8
loop_
_atom_type_symbol
_atom_type_radius_bond
C 0.68
H 0.23
In 1.42
N 0.68
O 0.68
loop_
_atom_site_label
_atom_site_type_symbol
_atom_site_fract_x
_atom_site_fract_y
_atom_site_fract_z
In1 In 0.61170(3) 0.53064(3) 0.07697(3)
C1 C 0.6633(8) 0.4918(7) 0.0964(7)
C2 C 0.8254(3) 0.3737(3) 0.1400(5)
C3 C 0.8182(4) 0.3823(4) 0.1081(4)
H1 H 0.83155 0.37535 0.09130
C4 C 0.7912(4) 0.4013(4) 0.1015(3)
H2 H 0.78641 0.40711 0.08023
C5 C 0.7713(3) 0.4117(3) 0.1267(5)
C6 C 0.7785(4) 0.4031(4) 0.1585(4)
H3 H 0.76514 0.41003 0.17534
C7 C 0.8055(4) 0.3841(4) 0.1651(3)
H4 H 0.81028 0.37827 0.18641
C8 C 0.6496(4) 0.6138(3) 0.1238(4)
C9 C 0.6715(4) 0.6340(4) 0.1080(3)
H5 H 0.67759 0.62959 0.08670
C10 C 0.6842(3) 0.6609(4) 0.1239(4)
H6 H 0.69883 0.67439 0.11335
C11 C 0.6751(4) 0.6675(3) 0.1557(4)
C12 C 0.6532(4) 0.6473(4) 0.1715(3)
H7 H 0.64706 0.65170 0.19279
C13 C 0.6404(3) 0.6204(4) 0.1556(4)
H8 H 0.62581 0.60689 0.16615
C14 C 0.7439(3) 0.4325(3) 0.1175(5)
C15 C 0.7428(3) 0.4509(4) 0.0892(4)
H9 H 0.76003 0.45036 0.07473
C16 C 0.7158(5) 0.4701(3) 0.0827(3)
H10 H 0.71506 0.48240 0.06377
C17 C 0.6900(3) 0.4709(3) 0.1044(5)
C18 C 0.6912(3) 0.4526(4) 0.1326(4)
H11 H 0.67388 0.45312 0.14716
C19 C 0.7181(5) 0.4334(3) 0.1392(3)
H12 H 0.71885 0.42108 0.15812
C20 C 0.6377(7) 0.5865(7) 0.1073(7)
C21 C 0.7137(3) 0.7472(3) 0.2081(4)
C22 C 0.7031(4) 0.7202(4) 0.2253(3)
H13 H 0.70435 0.71994 0.24779
C23 C 0.6907(3) 0.6935(3) 0.2088(4)
H14 H 0.68359 0.67545 0.22025
C24 C 0.6888(3) 0.6939(3) 0.1751(4)
C25 C 0.6994(4) 0.7209(4) 0.1579(3)
H15 H 0.69822 0.72116 0.13538
C26 C 0.7119(3) 0.7476(3) 0.1744(4)
H16 H 0.71898 0.76565 0.16292
C27 C 0.5591(6) 0.4867(7) 0.1051(6)
C28 C 0.5722(6) 0.4729(7) 0.0741(6)
N1 N 0.8529(4) 0.3529(4) 0.1471(4)
N2 N 0.7237(4) 0.7763(4) 0.2237(4)
O1 O 0.6583(4) 0.5063(4) 0.0718(4)
O2 O 0.6379(4) 0.4934(4) 0.1146(4)
O3 O 0.6182(4) 0.5665(3) 0.1151(4)
O4 O 0.6425(4) 0.5793(3) 0.0782(4)
O5 O 0.5706(3) 0.5158(3) 0.1091(2)
O6 O 0.5382(3) 0.4755(3) 0.1215(3)
O7 O 0.5922(3) 0.4841(3) 0.0570(3)
O8 O 0.5611(3) 0.4422(3) 0.0726(2)
C1G C 0.9036(8) 0.1633(7) 0.0082(7)
C2G C 0.8600(3) 0.3254(3) 0.1263(5)
C3G C 0.8919(4) 0.3182(4) 0.1177(4)
H1G H 0.90870 0.33155 0.12465
C4G C 0.8985(4) 0.2912(4) 0.0987(3)
H2G H 0.91977 0.28641 0.09289
C5G C 0.8733(3) 0.2713(3) 0.0883(5)
C6G C 0.8415(4) 0.2785(4) 0.0969(4)
H3G H 0.82466 0.26514 0.08997
C7G C 0.8349(4) 0.3055(4) 0.1159(3)
H4G H 0.81359 0.31028 0.12173
C14G C 0.8825(3) 0.2439(3) 0.0675(5)
C15G C 0.9108(3) 0.2428(4) 0.0491(4)
H9G H 0.92527 0.26003 0.04964
C16G C 0.9173(5) 0.2158(3) 0.0299(3)
H10G H 0.93622 0.21506 0.01760
C17G C 0.8956(3) 0.1900(3) 0.0291(5)
C18G C 0.8674(3) 0.1912(4) 0.0474(4)
H11G H 0.85284 0.17388 0.04688
C19G C 0.8608(5) 0.2181(3) 0.0666(3)
H12G H 0.84188 0.21885 0.07892
O1G O 0.9282(4) 0.1583(4) -0.0063(4)
O2G O 0.8854(4) 0.1379(4) 0.0066(4)
C1J C 0.9918(8) 0.4036(7) 0.3367(7)
C2J C 0.8737(3) 0.3600(3) 0.1746(5)
C3J C 0.8823(4) 0.3919(4) 0.1818(4)
H1J H 0.87535 0.40870 0.16845
C4J C 0.9013(4) 0.3985(4) 0.2088(3)
H2J H 0.90711 0.41977 0.21359
C5J C 0.9117(3) 0.3733(3) 0.2287(5)
C6J C 0.9031(4) 0.3415(4) 0.2215(4)
H3J H 0.91003 0.32466 0.23486
C7J C 0.8841(4) 0.3349(4) 0.1945(3)
H4J H 0.87827 0.31359 0.18972
C14J C 0.9325(3) 0.3825(3) 0.2561(5)
C15J C 0.9509(3) 0.4108(4) 0.2572(4)
H9J H 0.95036 0.42527 0.23997
C16J C 0.9701(5) 0.4173(3) 0.2842(3)
H10J H 0.98240 0.43622 0.28494
C17J C 0.9709(3) 0.3956(3) 0.3100(5)
C18J C 0.9526(3) 0.3674(4) 0.3088(4)
H11J H 0.95312 0.35284 0.32612
C19J C 0.9334(5) 0.3608(3) 0.2819(3)
H12J H 0.92108 0.34188 0.28115
O1J O 1.0063(4) 0.4282(4) 0.3417(4)
O2J O 0.9934(4) 0.3854(4) 0.3621(4)
C8E C 0.6238(4) 0.8504(3) 0.3862(4)
C9E C 0.6080(4) 0.8285(4) 0.3660(3)
H5E H 0.58670 0.82241 0.37041
C10E C 0.6239(3) 0.8158(4) 0.3391(4)
H6E H 0.61335 0.80117 0.32561
C11E C 0.6557(4) 0.8249(3) 0.3325(4)
C12E C 0.6715(4) 0.8468(4) 0.3527(3)
H7E H 0.69279 0.85294 0.34830
C13E C 0.6556(3) 0.8596(4) 0.3796(4)
H8E H 0.66615 0.87419 0.39311
C20E C 0.6073(7) 0.8623(7) 0.4135(7)
C21E C 0.7081(3) 0.7863(3) 0.2528(4)
C22E C 0.7253(4) 0.7969(4) 0.2798(3)
H13E H 0.74779 0.79565 0.28006
C23E C 0.7088(3) 0.8093(3) 0.3065(4)
H14E H 0.72025 0.81641 0.32455
C24E C 0.6751(3) 0.8112(3) 0.3061(4)
C25E C 0.6579(4) 0.8006(4) 0.2791(3)
H15E H 0.63538 0.80178 0.27884
C26E C 0.6744(3) 0.7881(3) 0.2524(4)
H16E H 0.66292 0.78102 0.23435
O3E O 0.6151(4) 0.8818(3) 0.4335(4)
O4E O 0.5782(4) 0.8575(3) 0.4207(4)
C8K C 0.8862(4) 0.8762(3) 0.1496(4)
C9K C 0.8660(4) 0.8920(4) 0.1715(3)
H5K H 0.87041 0.91330 0.17759
C10K C 0.8391(3) 0.8761(4) 0.1842(4)
H6K H 0.82561 0.88665 0.19883
C11K C 0.8325(4) 0.8443(3) 0.1751(4)
C12K C 0.8527(4) 0.8285(4) 0.1532(3)
H7K H 0.84830 0.80721 0.14706
C13K C 0.8796(3) 0.8444(4) 0.1404(4)
H8K H 0.89311 0.83385 0.12581
C20K C 0.9135(7) 0.8927(7) 0.1377(7)
C21K C 0.7528(3) 0.7919(3) 0.2137(4)
C22K C 0.7798(4) 0.7747(4) 0.2031(3)
H13K H 0.78006 0.75221 0.20435
C23K C 0.8065(3) 0.7912(3) 0.1907(4)
H14K H 0.82455 0.77975 0.18359
C24K C 0.8061(3) 0.8249(3) 0.1888(4)
C25K C 0.7791(4) 0.8421(4) 0.1994(3)
H15K H 0.77884 0.86462 0.19822
C26K C 0.7524(3) 0.8256(3) 0.2119(4)
H16K H 0.73435 0.83708 0.21898
O3K O 0.9335(4) 0.8849(3) 0.1182(4)
O4K O 0.9207(4) 0.9218(3) 0.1425(4)
In1E In 0.57697(3) 0.88830(3) 0.46936(3)
C27E C 0.6051(6) 0.9409(7) 0.5133(6)
C28E C 0.5741(6) 0.9278(7) 0.5271(6)
O5E O 0.6091(3) 0.9294(3) 0.4842(2)
O6E O 0.6215(3) 0.9618(3) 0.5245(3)
O7E O 0.5570(3) 0.9078(3) 0.5159(3)
O8E O 0.5726(3) 0.9389(3) 0.5578(2)
In1K In 0.96936(3) 0.92303(3) 0.11170(3)
C27K C 1.0133(6) 0.8949(7) 0.0591(6)
C28K C 1.0271(6) 0.9259(7) 0.0722(6)
O5K O 0.9842(3) 0.8909(3) 0.0706(2)
O6K O 1.0245(3) 0.8785(3) 0.0382(3)
O7K O 1.0159(3) 0.9430(3) 0.0922(3)
O8K O 1.0578(3) 0.9274(3) 0.0611(2)
In1G In 0.92303(3) 0.11170(3) -0.03064(3)
In1J In 1.03064(3) 0.42303(3) 0.38830(3)
In1N In 0.61170(3) 0.96936(3) 0.57697(3)
In1S In 1.07697(3) 0.88830(3) 0.03064(3)
In1U In 0.53064(3) 0.42303(3) 0.11170(3)
O1E O 0.5718(4) 0.8417(4) 0.4937(4)
O1K O 0.9937(4) 0.9282(4) 0.1583(4)
O2E O 0.6146(4) 0.8621(4) 0.5066(4)
O2K O 1.0066(4) 0.8854(4) 0.1379(4)
O6O O 0.9618(3) 0.9755(3) 0.1215(3)
O6R O 0.6215(3) 0.5382(3) 0.0245(3)
O6T O 0.5245(3) 0.8785(3) 0.4618(3)
O8O O 0.9389(3) 0.9422(3) 0.0726(2)
O8R O 0.5726(3) 0.5611(3) 0.0578(2)
O8T O 0.5578(3) 0.9274(3) 0.4389(2)
#END
