
#######################################################################
#
#                 Cambridge Crystallographic Data Centre
#                                CCDC
#
#######################################################################
#
# If this CIF has been generated from an entry in the Cambridge
# Structural Database, then it will include bibliographic, chemical,
# crystal, experimental, refinement or atomic coordinate data resulting
# from the CCDC's data processing and validation procedures.
#
#######################################################################

data_CSD_CIF_EHIWIE
_audit_creation_date 2020-12-17
_audit_creation_method CSD-ConQuest-V1
_database_code_CSD EHIWIE
_database_code_depnum_ccdc_archive 'CCDC 2019926'
_chemical_formula_sum 'C54 H48 In3 N5 O24'
_chemical_formula_moiety
;
(C48 H24 In3 N2 O24 3-)n,3n(C2 H8 N1 1+)
;
_journal_coden_Cambridge 9
_journal_volume 60
_journal_year 2020
_journal_page_first 167
_journal_name_full 'Inorg.Chem. '
loop_
_publ_author_name
"Yu-Hui Luo"
"A-Di Xie"
"Ming-Gai Hu"
"Ji Wu"
"Dong-En Zhang"
"Ya-Qian Lan"
_chemical_name_systematic
;
catena-(tris(dimethylammonium) 
bis(\m-4,4',4''-nitrilotribenzoato)-tris(\m-oxalato)-tri-indium unknown 
solvate)
;
_chemical_name_common
;
JOU-11
;
_cell_volume  27957.173
_exptl_crystal_colour 'yellow'
_exptl_crystal_description 'block'
_diffrn_ambient_temperature 291
_refine_special_details
;
The SQUEEZE/PLATON program was used to model the disordered cations and some 
solvent.
;
#These two values have been output from a single CSD field.
_refine_ls_R_factor_gt 0.0585
_refine_ls_wR_factor_gt 0.0585
_symmetry_cell_setting cubic
_symmetry_space_group_name_H-M 'P a -3'
_symmetry_Int_Tables_number 205
loop_
_symmetry_equiv_pos_site_id
_symmetry_equiv_pos_as_xyz
1 x,y,z
2 1/2-x,-y,1/2+z
3 -x,1/2+y,1/2-z
4 1/2+x,1/2-y,-z
5 z,x,y
6 1/2+z,1/2-x,-y
7 1/2-z,-x,1/2+y
8 -z,1/2+x,1/2-y
9 y,z,x
10 -y,1/2+z,1/2-x
11 1/2+y,1/2-z,-x
12 1/2-y,-z,1/2+x
13 -x,-y,-z
14 -1/2+x,y,-1/2-z
15 x,-1/2-y,-1/2+z
16 -1/2-x,-1/2+y,z
17 -z,-x,-y
18 -1/2-z,-1/2+x,y
19 -1/2+z,x,-1/2-y
20 z,-1/2-x,-1/2+y
21 -y,-z,-x
22 y,-1/2-z,-1/2+x
23 -1/2-y,-1/2+z,x
24 -1/2+y,z,-1/2-x
_cell_length_a 30.3504(9)
_cell_length_b 30.3504(9)
_cell_length_c 30.3504(9)
_cell_angle_alpha 90
_cell_angle_beta 90
_cell_angle_gamma 90
_cell_formula_units_Z 8
loop_
_atom_type_symbol
_atom_type_radius_bond
C 0.68
H 0.23
In 1.42
N 0.68
O 0.68
loop_
_atom_site_label
_atom_site_type_symbol
_atom_site_fract_x
_atom_site_fract_y
_atom_site_fract_z
In1 In 0.39612(4) 0.65215(4) 0.46324(4)
C1 C 0.4824(7) 0.6428(7) 0.4167(7)
C2 C 0.4570(7) 0.6017(7) 0.4015(7)
C3 C 0.3721(10) 0.7183(9) 0.5186(9)
C4 C 0.3656(8) 0.7578(7) 0.5489(7)
C5 C 0.3281(7) 0.7683(7) 0.5686(7)
H1 H 0.30253 0.75277 0.56200
C6 C 0.3271(7) 0.7998(8) 0.5968(7)
H2 H 0.30062 0.80502 0.61132
C7 C 0.3621(7) 0.8263(6) 0.6070(6)
C8 C 0.4028(7) 0.8144(7) 0.5904(6)
H3 H 0.42833 0.82925 0.59858
C9 C 0.4042(6) 0.7780(6) 0.5599(6)
H4 H 0.43083 0.76849 0.54800
C10 C 0.3585(10) 0.6861(9) 0.3888(8)
C11 C 0.3316(8) 0.7017(6) 0.3493(7)
C12 C 0.3536(7) 0.7168(7) 0.3123(8)
H5 H 0.38420 0.71723 0.31146
C13 C 0.3295(7) 0.7310(6) 0.2770(7)
H6 H 0.34370 0.74229 0.25231
C14 C 0.2833(7) 0.7285(6) 0.2778(6)
C15 C 0.2631(7) 0.7129(6) 0.3149(8)
H7 H 0.23251 0.71189 0.31585
C16 C 0.2875(8) 0.6983(6) 0.3523(7)
H8 H 0.27369 0.68710 0.37728
N1 N 0.3610(5) 0.8610(5) 0.6390(5)
N2 N 0.2582(4) 0.7418(4) 0.2418(4)
O1 O 0.4668(3) 0.6662(4) 0.4483(4)
O2 O 0.5183(4) 0.6510(3) 0.3993(4)
O3 O 0.4212(4) 0.5970(3) 0.4213(3)
O4 O 0.4752(4) 0.5774(4) 0.3770(4)
O5 O 0.4045(5) 0.7133(4) 0.4951(4)
O6 O 0.3435(5) 0.6903(5) 0.5178(5)
O7 O 0.4001(6) 0.6912(6) 0.3906(6)
O8 O 0.3400(5) 0.6677(5) 0.4186(5)
C3G C 0.4814(10) 0.8721(9) 0.7817(9)
C4G C 0.4511(8) 0.8656(7) 0.7422(7)
C5G C 0.4314(7) 0.8281(7) 0.7317(7)
H1G H 0.43800 0.80253 0.74723
C6G C 0.4032(7) 0.8271(8) 0.7002(7)
H2G H 0.38868 0.80062 0.69498
C7G C 0.3930(7) 0.8621(6) 0.6737(6)
C8G C 0.4096(7) 0.9028(7) 0.6856(6)
H3G H 0.40142 0.92833 0.67075
C9G C 0.4401(6) 0.9042(6) 0.7220(6)
H4G H 0.45200 0.93083 0.73151
O5G O 0.5049(5) 0.9045(4) 0.7867(4)
O6G O 0.4822(5) 0.8435(5) 0.8097(5)
C3J C 0.2183(10) 0.9814(9) 0.6279(9)
C4J C 0.2578(8) 0.9511(7) 0.6344(7)
C5J C 0.2683(7) 0.9314(7) 0.6719(7)
H1J H 0.25277 0.93800 0.69747
C6J C 0.2998(7) 0.9032(8) 0.6729(7)
H2J H 0.30502 0.88868 0.69938
C7J C 0.3263(7) 0.8930(6) 0.6379(6)
C8J C 0.3144(7) 0.9096(7) 0.5972(6)
H3J H 0.32925 0.90142 0.57167
C9J C 0.2780(6) 0.9401(6) 0.5958(6)
H4J H 0.26849 0.95200 0.56917
O5J O 0.2133(5) 1.0049(4) 0.5955(4)
O6J O 0.1903(5) 0.9822(5) 0.6565(5)
C10F C 0.1112(10) 0.6415(9) 0.1861(8)
C11F C 0.1507(8) 0.6684(6) 0.2017(7)
C12F C 0.1877(7) 0.6464(7) 0.2168(8)
H5F H 0.18854 0.61580 0.21723
C13F C 0.2230(7) 0.6705(6) 0.2310(7)
H6F H 0.24769 0.65630 0.24229
C14F C 0.2222(7) 0.7167(6) 0.2285(6)
C15F C 0.1851(7) 0.7369(6) 0.2129(8)
H7F H 0.18415 0.76749 0.21189
C16F C 0.1477(8) 0.7125(6) 0.1983(7)
H8F H 0.12272 0.72631 0.18710
O7F O 0.1094(6) 0.5999(6) 0.1912(6)
O8F O 0.0814(5) 0.6600(5) 0.1677(5)
C10I C 0.3139(10) 0.8888(9) 0.1415(8)
C11I C 0.2983(8) 0.8493(6) 0.1684(7)
C12I C 0.2832(7) 0.8123(7) 0.1464(8)
H5I H 0.28277 0.81146 0.11580
C13I C 0.2690(7) 0.7770(6) 0.1705(7)
H6I H 0.25771 0.75231 0.15630
C14I C 0.2715(7) 0.7778(6) 0.2167(6)
C15I C 0.2871(7) 0.8149(6) 0.2369(8)
H7I H 0.28811 0.81585 0.26749
C16I C 0.3017(8) 0.8523(6) 0.2125(7)
H8I H 0.31290 0.87728 0.22631
O7I O 0.3088(6) 0.8906(6) 0.0999(6)
O8I O 0.3323(5) 0.9186(5) 0.1600(5)
In1F In 0.03676(4) 0.60388(4) 0.15215(4)
C1F C 0.0833(7) 0.5176(7) 0.1428(7)
C2F C 0.0985(7) 0.5430(7) 0.1017(7)
O1F O 0.0517(3) 0.5332(4) 0.1662(4)
O2F O 0.1007(4) 0.4817(3) 0.1510(4)
O3F O 0.0787(4) 0.5788(3) 0.0970(3)
O4F O 0.1230(4) 0.5248(4) 0.0774(4)
In1I In 0.34785(4) 0.96324(4) 0.10388(4)
C1I C 0.3572(7) 0.9167(7) 0.0176(7)
C2I C 0.3983(7) 0.9015(7) 0.0430(7)
O1I O 0.3338(3) 0.9483(4) 0.0332(4)
O2I O 0.3490(4) 0.8993(3) -0.0183(4)
O3I O 0.4030(4) 0.9213(3) 0.0788(3)
O4I O 0.4226(4) 0.8770(4) 0.0248(4)
In1G In 0.53676(4) 0.89612(4) 0.84785(4)
In1J In 0.15215(4) 1.03676(4) 0.60388(4)
In1N In 0.39612(4) 0.84785(4) -0.03676(4)
In1P In 0.53676(4) 0.60388(4) 0.34785(4)
In1W In 0.15215(4) 0.46324(4) 0.10388(4)
O2M O 0.0183(4) 0.6510(3) 0.1007(4)
O2S O 0.3993(4) 0.9817(3) 0.1510(4)
O2T O 0.3490(4) 0.6007(3) 0.4817(4)
O4M O -0.0248(4) 0.5774(4) 0.1230(4)
O4S O 0.3770(4) 1.0248(4) 0.0774(4)
O4T O 0.4226(4) 0.6230(4) 0.5248(4)
O5F O 0.0049(5) 0.5955(4) 0.2133(4)
O5I O 0.2867(5) 0.9951(4) 0.0955(4)
O6F O -0.0178(5) 0.6565(5) 0.1903(5)
O6I O 0.3097(5) 1.0178(5) 0.1565(5)
#END
