
#######################################################################
#
#                 Cambridge Crystallographic Data Centre
#                                CCDC
#
#######################################################################
#
# If this CIF has been generated from an entry in the Cambridge
# Structural Database, then it will include bibliographic, chemical,
# crystal, experimental, refinement or atomic coordinate data resulting
# from the CCDC's data processing and validation procedures.
#
#######################################################################

data_CSD_CIF_EHODAH
_audit_creation_date 2011-02-15
_audit_creation_method CSD-ConQuest-V1
_database_code_CSD EHODAH
_database_code_depnum_ccdc_archive 'CCDC 790093'
_chemical_formula_sum 'C132 H150 Ag12 Cu6 N24 O57 S12'
_chemical_formula_moiety
;
(C112 H76 Ag12 Cu4 N20 O28 S12 4-)n,2n(C10 H14 Cu1 N2 O3 2+),23n(H2 O1)
;
_journal_coden_Cambridge 182
_journal_volume 47
_journal_year 2011
_journal_page_first 746
_journal_name_full 'Chem.Commun. '
loop_
_publ_author_name
"Di Sun"
"Dan-Feng Wang"
"Xi-Guang Han"
"Na Zhang"
"Rong-Bon Huang"
"Lan-Sun Zheng"
_chemical_name_systematic
;
catena-[bis(Triaqua-(2,2'-bipyridyl)-copper(ii)) 
octakis(\m~4~-2-mercaptonicotinato)-tetrakis(\m~3~-2-mercaptonicotinato)-tetra
kis(2,2'-bipyridine)-tetraaqua-tetra-copper(ii)-dodeca-silver(i) 
tricosahydrate]
;
_cell_volume   4208.635
_exptl_crystal_colour 'blue'
_exptl_crystal_density_diffrn 1.991
_exptl_crystal_description 'block'
_diffrn_ambient_temperature 173
_refine_special_details
;
One water molecule is disordered by symmetry.

;
#These two values have been output from a single CSD field.
_refine_ls_R_factor_gt 0.0771
_refine_ls_wR_factor_gt 0.0771
_symmetry_cell_setting triclinic
_symmetry_space_group_name_H-M 'P -1'
_symmetry_Int_Tables_number 2
loop_
_symmetry_equiv_pos_site_id
_symmetry_equiv_pos_as_xyz
1 x,y,z
2 -x,-y,-z
_cell_length_a 12.8443(4)
_cell_length_b 15.9047(6)
_cell_length_c 21.8952(8)
_cell_angle_alpha 103.901(1)
_cell_angle_beta 93.249(1)
_cell_angle_gamma 102.625(1)
_cell_formula_units_Z 1
loop_
_atom_type_symbol
_atom_type_radius_bond
C 0.68
H 0.23
Ag 1.50
Cu 1.32
N 0.68
O 0.68
S 1.02
loop_
_atom_site_label
_atom_site_type_symbol
_atom_site_fract_x
_atom_site_fract_y
_atom_site_fract_z
Ag1 Ag 0.51991(7) -0.08111(6) 0.06612(4)
Ag2 Ag 0.66786(7) 0.06946(6) 0.03928(4)
Ag3 Ag 0.41540(7) 0.07173(6) 0.08316(5)
Ag4 Ag 0.02358(7) -0.06858(6) -0.42018(5)
Ag5 Ag -0.08033(8) 0.07771(6) -0.42097(5)
Ag6 Ag 0.18731(8) 0.06434(6) -0.45641(5)
Cu1 Cu -0.07946(13) -0.54969(10) -0.27241(7)
Cu2 Cu 0.75015(12) 0.35290(9) 0.39455(7)
Cu3 Cu 0.74630(13) -0.38045(9) 0.09299(7)
S1 S 0.3247(2) -0.14979(18) 0.04501(14)
S2 S 0.6003(2) 0.12607(18) 0.14122(13)
S3 S 0.6379(2) -0.14981(18) -0.00535(13)
S4 S -0.1174(2) 0.15460(19) -0.50195(14)
S5 S 0.1719(2) 0.13200(19) -0.54842(14)
S6 S 0.1040(2) 0.14541(19) -0.36599(14)
C1 C 0.2286(10) 0.0310(8) 0.1709(6)
H1 H 0.24490 0.09430 0.18450
C2 C 0.1512(9) -0.0183(9) 0.1991(6)
H2 H 0.11250 0.01090 0.22980
C3 C 0.1319(10) -0.1097(8) 0.1818(6)
H3 H 0.08240 -0.14410 0.20230
C4 C 0.1845(9) -0.1519(8) 0.1344(6)
C5 C 0.2589(8) -0.0972(6) 0.1062(5)
C6 C 0.1591(11) -0.2516(9) 0.1135(7)
C7 C 0.9042(9) 0.0357(9) 0.0604(6)
H4 H 0.92390 0.09910 0.07150
C8 C 0.9828(10) -0.010(1) 0.0672(7)
H5 H 1.05530 0.02120 0.08130
C9 C 0.9534(10) -0.1013(10) 0.0531(6)
H6 H 1.00560 -0.13390 0.05840
C10 C 0.8479(10) -0.1463(8) 0.0311(6)
C11 C 0.7720(8) -0.0954(7) 0.0240(5)
C12 C 0.8102(11) -0.2458(9) 0.0216(6)
C13 C 0.5847(9) -0.0801(7) 0.2130(6)
H7 H 0.56560 -0.14300 0.19610
C14 C 0.6172(9) -0.0473(7) 0.2768(6)
H8 H 0.62230 -0.08570 0.30350
C15 C 0.6426(8) 0.0459(7) 0.3005(5)
H9 H 0.66650 0.07170 0.34420
C16 C 0.6333(8) 0.1007(7) 0.2609(5)
C17 C 0.6034(8) 0.0596(7) 0.1960(5)
C18 C 0.6495(10) 0.1998(7) 0.2918(5)
C19 C 0.4069(9) -0.0019(8) -0.4388(5)
H10 H 0.43800 0.06010 -0.42220
C20 C 0.474(1) -0.0609(8) -0.4453(5)
H11 H -0.54930 0.03960 -0.56620
C21 C 0.4283(10) -0.1503(8) -0.4685(6)
H12 H -0.47170 0.19210 -0.52850
C22 C 0.3195(9) -0.1797(7) -0.4874(5)
C23 C -0.2572(9) 0.1176(7) -0.5220(5)
C24 C 0.2678(10) -0.2774(9) -0.5211(6)
C25 C -0.2743(10) 0.0510(9) -0.3345(6)
H13 H -0.26070 0.11410 -0.32560
C26 C -0.3482(11) 0.0079(10) -0.3031(6)
H14 H -0.38440 0.04010 -0.27250
C27 C -0.3689(10) -0.0848(10) -0.3173(7)
H15 H -0.42010 -0.11660 -0.29620
C28 C -0.3150(9) -0.1316(8) -0.3624(6)
C29 C -0.2418(9) -0.0800(9) -0.3930(6)
C30 C -0.3399(12) -0.2335(11) -0.3772(11)
C31 C 0.1094(9) -0.0370(7) -0.2728(5)
H16 H 0.09180 -0.10040 -0.28340
C32 C 0.1480(9) 0.0074(7) -0.2119(5)
H17 H -0.16090 0.02350 -0.81880
C33 C 0.1682(9) 0.1010(8) -0.1961(5)
H18 H -0.19500 -0.13420 -0.84620
C34 C 0.1500(8) 0.1449(7) -0.2407(5)
C35 C 0.1141(8) 0.0928(7) -0.3043(5)
C36 C -0.1573(9) -0.2423(7) -0.7789(5)
C37 C 0.1464(14) -0.5747(13) -0.2833(9)
H19 H 0.11350 -0.63640 -0.29960
C38 C 0.2577(15) -0.5477(15) -0.2748(9)
H20 H 0.30070 -0.59000 -0.28190
C39 C 0.3044(15) -0.4556(17) -0.2551(10)
H21? H 0.38030 -0.43410 -0.24950
C40 C 0.2400(13) -0.3978(13) -0.2442(7)
H22 H 0.27040 -0.33530 -0.23300
C41 C 0.1301(12) -0.4299(10) -0.2494(6)
C42 C 0.0557(13) -0.3720(9) -0.2363(6)
C43 C 0.0866(16) -0.2775(12) -0.2135(7)
H23 H 0.16030 -0.24670 -0.20600
C44 C 0.0069(19) -0.2315(12) -0.2024(8)
H24 H 0.02640 -0.16830 -0.18740
C45 C -0.0973(17) -0.274(1) -0.2122(8)
H25 H -0.15190 -0.24220 -0.20480
C46 C -0.1220(15) -0.3660(9) -0.2336(8)
H26 H -0.19570 -0.39650 -0.23970
C47 C 0.9540(11) 0.2940(9) 0.3816(6)
H27 H 0.90850 0.23550 0.36930
C48 C 1.0637(11) 0.3031(10) 0.3855(7)
H28 H 1.09400 0.25270 0.37630
C49 C 1.1279(11) 0.3897(10) 0.4035(6)
H29 H 1.20380 0.39880 0.40660
C50 C 1.0845(9) 0.4604(8) 0.4164(6)
H30 H 1.12910 0.51920 0.42850
C51 C 0.9729(9) 0.4467(7) 0.4120(5)
C52 C 0.9144(9) 0.5174(8) 0.4251(5)
C53 C 0.9651(10) 0.6074(8) 0.4396(6)
H31 H 1.04090 0.62670 0.44150
C54 C 0.8995(11) 0.6699(8) 0.4516(7)
H32 H 0.93110 0.73210 0.46150
C55 C 0.7916(11) 0.6399(9) 0.4488(8)
H33 H 0.74680 0.68070 0.45710
C56 C 0.7476(11) 0.5485(8) 0.4336(7)
H34 H 0.67210 0.52830 0.43240
C57 C 0.7511(11) -0.5714(8) 0.0905(7)
H35 H 0.82700 -0.55200 0.09360
C58 C 0.7075(12) -0.6592(9) 0.0864(7)
H36 H 0.75210 -0.69900 0.08840
C59 C 0.5985(12) -0.6883(8) 0.0793(6)
H37 H 0.56570 -0.74920 0.07530
C60 C 0.5369(10) -0.6283(8) 0.0779(6)
H38 H 0.46080 -0.64770 0.07270
C61 C 0.586(1) -0.5390(7) 0.0841(6)
C62 C 0.5269(10) -0.4689(8) 0.0820(5)
C63 C 0.4159(10) -0.4852(9) 0.0793(6)
H39 H 0.37310 -0.54330 0.07620
C64 C 0.3686(12) -0.4119(11) 0.0813(8)
H40 H 0.29300 -0.42010 0.08040
C65 C 0.4314(12) -0.3303(10) 0.0846(8)
H41 H 0.40050 -0.28100 0.08560
C66 C 0.5406(13) -0.3199(9) 0.0865(7)
H42 H 0.58450 -0.26250 0.08900
N1 N 0.5783(7) -0.0286(6) 0.1728(4)
N2 N 0.8023(8) -0.0057(6) 0.0391(5)
N3 N 0.2800(8) -0.0079(6) 0.1256(4)
N4 N 0.3005(8) -0.0290(6) -0.4552(4)
N5 N -0.2199(7) 0.0089(7) -0.3771(5)
N6 N 0.0943(7) 0.0033(6) -0.3194(4)
N7 N 0.0845(9) -0.5189(9) -0.2700(5)
N8 N -0.0502(10) -0.4149(7) -0.2463(5)
N9 N 0.9090(7) 0.3625(6) 0.3942(4)
N10 N 0.8058(8) 0.4873(6) 0.4207(5)
N11 N 0.6930(8) -0.5111(6) 0.0904(5)
N12 N 0.5879(9) -0.3881(6) 0.0848(5)
O1 O 0.1883(8) -0.2918(6) 0.1504(6)
O2 O 0.4416(17) 0.5075(10) 0.2393(8)
H43 H 0.40850 0.46880 0.20610
H44 H 0.46720 0.55600 0.22960
O3 O 0.1035(10) -0.2870(7) 0.0618(5)
O4 O 1.3800(14) 0.4421(10) 0.3458(9)
H45 H 1.36430 0.38540 0.33750
H46 H 1.39790 0.45720 0.31240
O5 O 0.7225(7) 0.2311(5) 0.3387(4)
O6 O 1.405(2) 0.5472(17) 0.4587(12)
H47 H 1.39440 0.51200 0.42180
H48 H 1.45350 0.59300 0.45900
O7 O 0.5906(7) 0.2398(5) 0.2711(4)
O8 O 1.4398(16) 0.3123(13) 0.545(1)
H49 H 1.41080 0.28830 0.50720
H50 H 1.41940 0.27650 0.56760
O9 O 0.8122(16) -0.2986(8) -0.0282(6)
O10 O 0.596(3) -0.228(2) 0.3710(16)
H51 H 0.53850 -0.21110 0.37760
H52 H 0.59090 -0.25610 0.33230
O11 O 0.7766(9) -0.2677(6) 0.0686(5)
O12 O 0.5502(11) -0.3172(10) 0.2436(7)
H53 H 0.60140 -0.29990 0.22310
H54 H 0.49830 -0.29480 0.23550
O13 O 0.2498(9) -0.3339(6) -0.4911(4)
O14 O 0.6538(12) 0.2745(10) -0.2443(6)
H55 H 0.70920 0.27000 -0.22340
H56 H 0.64950 0.24350 -0.28220
O15 O 0.4129(18) -0.1951(16) 0.3688(11)
H57 H 0.41720 -0.13930 0.37790
H58 H 0.37410 -0.21910 0.39320
O16 O -0.2465(9) 0.2942(6) -0.4202(4)
O17 O 0.8996(8) -0.3817(7) 0.1012(6)
H59 H 0.92960 -0.36130 0.07240
H60 H 0.92940 -0.34950 0.13740
O18 O -0.3788(11) -0.2736(8) -0.4329(8)
O19 O 0.3224(10) 0.3507(9) 0.1536(6)
H61 H 0.33860 0.30900 0.16740
H62 H 0.28440 0.32790 0.11800
O20 O -0.3246(11) -0.2632(9) -0.3301(7)
O21 O -0.0693(7) -0.2668(5) -0.7752(4)
O22 O 0.915(2) 0.4653(11) -0.0086(9)
H63? H 0.98020 0.49320 -0.00210
H64 H 0.90940 0.41020 -0.02520
O23 O -0.2454(7) -0.2937(5) -0.8052(4)
O24 O 0.9235(12) 0.2517(10) 0.0578(7)
H65 H 0.91390 0.26210 0.02190
H66 H 0.98430 0.28260 0.07690
O25 O 0.5966(9) 0.3563(8) 0.3918(7)
H67 H 0.56880 0.32260 0.35570
H68 H 0.56230 0.33240 0.41790
O26 O -0.1032(9) -0.6847(6) -0.2974(5)
H69 H -0.10000 -0.70260 -0.33700
H70 H -0.05500 -0.69940 -0.27690
O27 O 1.3911(9) 0.2360(7) 0.2113(5)
H71 H 1.35930 0.24400 0.24450
H72 H 1.45540 0.23550 0.22220
O28 O -0.0852(10) -0.5514(7) -0.1725(5)
H73 H -0.11790 -0.51290 -0.15460
H74 H -0.11800 -0.60300 -0.17040
O29 O -0.2345(8) -0.5694(7) -0.3071(6)
H75 H -0.24520 -0.52110 -0.31340
H76 H -0.24820 -0.60990 -0.34180
Ag1A Ag 0.48009(7) 0.08111(6) -0.06612(4)
Ag2A Ag 0.33214(7) -0.06946(6) -0.03928(4)
Ag3A Ag 0.58460(7) -0.07173(6) -0.08316(5)
Ag4A Ag -0.02358(7) 0.06858(6) -0.57982(5)
Ag5A Ag 0.08033(8) -0.07771(6) -0.57903(5)
Ag6A Ag -0.18731(8) -0.06434(6) -0.54359(5)
Cu2A Cu 0.24985(12) -0.35290(9) -0.39455(7)
Cu2* Cu -0.24985(12) 0.35290(9) -0.60545(7)
Cu3* Cu -0.25370(13) -0.38045(9) -0.90701(7)
Cu3A Cu 0.25370(13) 0.38045(9) -0.09299(7)
S1A S 0.6753(2) 0.14979(18) -0.04501(14)
S2A S 0.3997(2) -0.12607(18) -0.14122(13)
S3A S 0.3621(2) 0.14981(18) 0.00535(13)
S4A S 0.1174(2) -0.15460(19) -0.49805(14)
S5A S -0.1719(2) -0.13200(19) -0.45158(14)
S6A S -0.1040(2) -0.14541(19) -0.63401(14)
C1A C 0.7714(10) -0.0310(8) -0.1709(6)
H1A H 0.75510 -0.09430 -0.18450
C2A C 0.8488(9) 0.0183(9) -0.1991(6)
H2A H 0.88750 -0.01090 -0.22980
C3A C 0.8681(10) 0.1097(8) -0.1818(6)
H3A H 0.91760 0.14410 -0.20230
C4A C 0.8155(9) 0.1519(8) -0.1344(6)
C5A C 0.7411(8) 0.0972(6) -0.1062(5)
C6A C 0.8409(11) 0.2516(9) -0.1135(7)
C7A C 0.0958(9) -0.0357(9) -0.0604(6)
H4A H 0.07610 -0.09910 -0.07150
C8A C 0.0172(10) 0.010(1) -0.0672(7)
H5A H -0.05530 -0.02120 -0.08130
C9A C 0.0466(10) 0.1013(10) -0.0531(6)
H6A H -0.00560 0.13390 -0.05840
C10A C 0.1521(10) 0.1463(8) -0.0311(6)
C11A C 0.2280(8) 0.0954(7) -0.0240(5)
C12A C 0.1898(11) 0.2458(9) -0.0216(6)
C13A C 0.4153(9) 0.0801(7) -0.2130(6)
H7A H 0.43440 0.14300 -0.19610
C14A C 0.3828(9) 0.0473(7) -0.2768(6)
H8A H 0.37770 0.08570 -0.30350
C15A C 0.3574(8) -0.0459(7) -0.3005(5)
H9A H 0.33350 -0.07170 -0.34420
C16A C 0.3667(8) -0.1007(7) -0.2609(5)
C17A C 0.3966(8) -0.0596(7) -0.1960(5)
C18A C 0.3505(10) -0.1998(7) -0.2918(5)
C19A C -0.4069(9) 0.0019(8) -0.5612(5)
H10A H -0.43800 -0.06010 -0.57780
C20A C -0.474(1) 0.0609(8) -0.5547(5)
H11A H 0.54930 -0.03960 -0.43380
C21A C -0.4283(10) 0.1503(8) -0.5315(6)
H12A H 0.47170 -0.19210 -0.47150
C22A C -0.3195(9) 0.1797(7) -0.5126(5)
C23A C 0.2572(9) -0.1176(7) -0.4780(5)
C24A C -0.2678(10) 0.2774(9) -0.4789(6)
C25A C 0.2743(10) -0.0510(9) -0.6655(6)
H13A H 0.26070 -0.11410 -0.67440
C26A C 0.3482(11) -0.0079(10) -0.6969(6)
H14A H 0.38440 -0.04010 -0.72750
C27A C 0.3689(10) 0.0848(10) -0.6827(7)
H15A H 0.42010 0.11660 -0.70380
C28A C 0.3150(9) 0.1316(8) -0.6376(6)
C29A C 0.2418(9) 0.0800(9) -0.6070(6)
C30A C 0.3399(12) 0.2335(11) -0.6228(11)
C31A C -0.1094(9) 0.0370(7) -0.7272(5)
H16A H -0.09180 0.10040 -0.71660
C32A C -0.1480(9) -0.0074(7) -0.7881(5)
H17A H 0.16090 -0.02350 -0.18120
C33A C -0.1682(9) -0.1010(8) -0.8039(5)
H18A H 0.19500 0.13420 -0.15380
C34A C -0.1500(8) -0.1449(7) -0.7593(5)
C35A C -0.1141(8) -0.0928(7) -0.6957(5)
C36A C 0.1573(9) 0.2423(7) -0.2211(5)
C47A C 0.0460(11) -0.2940(9) -0.3816(6)
H27A H 0.09150 -0.23550 -0.36930
C48A C -0.0637(11) -0.3031(10) -0.3855(7)
H28A H -0.09400 -0.25270 -0.37630
C49A C -0.1279(11) -0.3897(10) -0.4035(6)
H29A H -0.20380 -0.39880 -0.40660
C50A C -0.0845(9) -0.4604(8) -0.4164(6)
H30A H -0.12910 -0.51920 -0.42850
C51A C 0.0271(9) -0.4467(7) -0.4120(5)
C52A C 0.0856(9) -0.5174(8) -0.4251(5)
C53A C 0.0349(10) -0.6074(8) -0.4396(6)
H31A H -0.04090 -0.62670 -0.44150
C54A C 0.1005(11) -0.6699(8) -0.4516(7)
H32A H 0.06890 -0.73210 -0.46150
C55A C 0.2084(11) -0.6399(9) -0.4488(8)
H33A H 0.25320 -0.68070 -0.45710
C56A C 0.2524(11) -0.5485(8) -0.4336(7)
H34A H 0.32790 -0.52830 -0.43240
C57A C 0.2489(11) 0.5714(8) -0.0905(7)
H35A H 0.17300 0.55200 -0.09360
C58A C 0.2925(12) 0.6592(9) -0.0864(7)
H36A H 0.24790 0.69900 -0.08840
C59A C 0.4015(12) 0.6883(8) -0.0793(6)
H37A H 0.43430 0.74920 -0.07530
C60A C 0.4631(10) 0.6283(8) -0.0779(6)
H38A H 0.53920 0.64770 -0.07270
C61A C 0.414(1) 0.5390(7) -0.0841(6)
C62A C 0.4731(10) 0.4689(8) -0.0820(5)
C63A C 0.5841(10) 0.4852(9) -0.0793(6)
H39A H 0.62690 0.54330 -0.07620
C64A C 0.6314(12) 0.4119(11) -0.0813(8)
H40A H 0.70700 0.42010 -0.08040
C65A C 0.5686(12) 0.3303(10) -0.0846(8)
H41A H 0.59950 0.28100 -0.08560
C66A C 0.4594(13) 0.3199(9) -0.0865(7)
H42A H 0.41550 0.26250 -0.08900
N1A N 0.4217(7) 0.0286(6) -0.1728(4)
N2A N 0.1977(8) 0.0057(6) -0.0391(5)
N3A N 0.7200(8) 0.0079(6) -0.1256(4)
N4A N -0.3005(8) 0.0290(6) -0.5448(4)
N5A N 0.2199(7) -0.0089(7) -0.6229(5)
N6A N -0.0943(7) -0.0033(6) -0.6806(4)
N9A N 0.0910(7) -0.3625(6) -0.3942(4)
N10A N 0.1942(8) -0.4873(6) -0.4207(5)
N11A N 0.3070(8) 0.5111(6) -0.0904(5)
N12A N 0.4121(9) 0.3881(6) -0.0848(5)
O1A O 0.8117(8) 0.2918(6) -0.1504(6)
O3A O 0.8965(10) 0.2870(7) -0.0618(5)
O5A O 0.2775(7) -0.2311(5) -0.3387(4)
O7A O 0.4094(7) -0.2398(5) -0.2711(4)
O9A O 0.1878(16) 0.2986(8) 0.0282(6)
O11A O 0.2234(9) 0.2677(6) -0.0686(5)
O13A O 0.7502(9) 0.3339(6) 0.4911(4)
O13A* O -0.2498(9) 0.3339(6) -0.5089(4)
O16A O 0.2465(9) -0.2942(6) -0.5798(4)
O17A O 0.1004(8) 0.3817(7) -0.1012(6)
H59A H 0.07040 0.36130 -0.07240
H60A H 0.07060 0.34950 -0.13740
O18A O 0.3788(11) 0.2736(8) -0.5671(8)
O20A O 0.3246(11) 0.2632(9) -0.6699(7)
O21A O 0.0693(7) 0.2668(5) -0.2248(4)
O23* O 0.7546(7) -0.2937(5) 0.1948(4)
O23A O 0.2454(7) 0.2937(5) -0.1948(4)
O25A O 0.4034(9) -0.3563(8) -0.3918(7)
H67A H 0.43120 -0.32260 -0.35570
H68A H 0.43770 -0.33240 -0.41790
#END
