
#######################################################################
#
#                 Cambridge Crystallographic Data Centre
#                                CCDC
#
#######################################################################
#
# If this CIF has been generated from an entry in the Cambridge
# Structural Database, then it will include bibliographic, chemical,
# crystal, experimental, refinement or atomic coordinate data resulting
# from the CCDC's data processing and validation procedures.
#
#######################################################################

data_CSD_CIF_EHOSID
_audit_creation_date 2003-09-30
_audit_creation_method CSD-ConQuest-V1
_database_code_CSD EHOSID
_database_code_depnum_ccdc_archive 'CCDC 203714'
_chemical_formula_sum 'C8 H28 Gd1 Mo2 N1 O26'
_chemical_formula_moiety
;
(H4 N1 1+)n,n(C8 H16 Gd1 Mo2 O22 1-),4n(H2 O1)
;
_journal_coden_Cambridge 182
_journal_year 2003
_journal_page_first 1284
_journal_name_full 'Chem.Commun. '
loop_
_publ_author_name
"Chuan-De Wu"
"Can-Zhong Lu"
"Xiang Lin"
"Ding-Ming Wu"
"Shao-Fang Lu"
"Hong-Hui Zhuang"
"Jin-Shun Huang"
_chemical_name_systematic
;
catena-(Ammonium 
bis(\m~3~-L-tartrato-O,O',O'',O''',O'''')-hexa-aqua-tetraoxo-gadolinium(iii)-d
i-molybdenum(vi) tetrahydrate)
;
_cell_volume   3782.177
_exptl_crystal_colour 'colorless'
_exptl_crystal_density_diffrn 2.38
_exptl_special_details
;
Isostructural with the hydroxonium, europium, samarium, holmium, ytterbium 
and yttrium analogues
;
_exptl_crystal_description 'prism'
_diffrn_ambient_temperature 293
#These two values have been output from a single CSD field.
_refine_ls_R_factor_gt 0.0257
_refine_ls_wR_factor_gt 0.0257
_symmetry_cell_setting hexagonal
_symmetry_space_group_name_H-M 'P 65 2 2'
_symmetry_Int_Tables_number 179
loop_
_symmetry_equiv_pos_site_id
_symmetry_equiv_pos_as_xyz
1 x,y,z
2 -y,x-y,-1/3+z
3 -x+y,-x,1/3+z
4 -x,-y,1/2+z
5 y,-x+y,1/6+z
6 x-y,x,-1/6+z
7 y,x,-1/3-z
8 x-y,-y,-z
9 -x,-x+y,1/3-z
10 -y,-x,1/6-z
11 -x+y,y,1/2-z
12 x,x-y,-1/6-z
_cell_length_a 15.2980(2)
_cell_length_b 15.2980(2)
_cell_length_c 18.6613(3)
_cell_angle_alpha 90
_cell_angle_beta 90
_cell_angle_gamma 120
_cell_formula_units_Z 6
loop_
_atom_type_symbol
_atom_type_radius_bond
C 0.68
H 0.23
Gd 1.79
Mo 1.41
N 0.68
O 0.68
loop_
_atom_site_label
_atom_site_type_symbol
_atom_site_fract_x
_atom_site_fract_y
_atom_site_fract_z
Gd1 Gd 0.272424(15) -0.45515(3) 0.25000
Mo1 Mo 0.12684(4) -0.72043(4) -0.02144(2)
O1 O 0.1708(3) -0.6062(4) 0.0655(2)
O2 O 0.2967(3) -0.5036(3) 0.1360(2)
O3 O 0.2707(3) -0.6675(3) -0.00734(18)
O4 O 0.2979(3) -0.7123(3) 0.13849(19)
O5 O 0.5035(3) -0.6212(4) 0.0174(2)
O6 O 0.4194(3) -0.7599(3) 0.0827(2)
O7 O 0.0709(4) -0.8157(4) 0.0393(2)
O8 O 0.1242(4) -0.7803(4) -0.0985(2)
O9 O 0.4453(4) -0.3955(5) 0.2752(3)
H1 H 0.48050 -0.34550 0.25070
H2 H 0.46270 -0.42750 0.30780
O10 O 0.2916(6) -0.5982(5) 0.2675(3)
H3 H 0.33720 -0.59360 0.24180
H4 H 0.25130 -0.64670 0.29860
O11 O 0.3655(5) -0.3086(4) 0.1735(3)
H5 H 0.40850 -0.31420 0.15100
H6 H 0.34910 -0.25970 0.17330
O12 O 0.5625(7) -0.5028(7) -0.0998(4)
O13 O 0.716(2) -0.1422(10) 0.41670
O14 O 0.6280(13) -0.2984(14) 0.3773(7)
O15 O 0.0329(11) -0.9836(6) -0.08330
N1 N 0.2197(5) -0.7803(5) 0.33330
C1 C 0.2599(5) -0.5661(4) 0.0850(3)
C2 C 0.3272(5) -0.5945(5) 0.0452(3)
H7 H 0.38100 -0.53440 0.02160
C3 C 0.3745(5) -0.6353(5) 0.0979(3)
H8 H 0.41840 -0.58050 0.13050
C4 C 0.4381(5) -0.6748(6) 0.0618(3)
O1J O 0.2230(3) -0.6062(4) 0.4345(2)
O2J O 0.1997(3) -0.5036(3) 0.3640(2)
O3J O 0.0618(3) -0.6675(3) 0.50734(18)
O4J O -0.0102(3) -0.7123(3) 0.36151(19)
O5J O -0.1247(3) -0.6212(4) 0.4826(2)
O6J O -0.1793(3) -0.7599(3) 0.4173(2)
C1J C 0.1740(5) -0.5661(4) 0.4150(3)
C2J C 0.0783(5) -0.5945(5) 0.4548(3)
H7J H 0.08460 -0.53440 0.47840
C3J C -0.0098(5) -0.6353(5) 0.4021(3)
H8J H 0.00110 -0.58050 0.36950
C4J C -0.1129(5) -0.6748(6) 0.4382(3)
O9J O 0.1592(4) -0.3955(5) 0.2248(3)
H1J H 0.17400 -0.34550 0.24930
H2J H 0.10980 -0.42750 0.19220
O10J O 0.1102(6) -0.5982(5) 0.2325(3)
H3J H 0.06920 -0.59360 0.25820
H4J H 0.10200 -0.64670 0.20140
O11J O 0.3259(5) -0.3086(4) 0.3265(3)
H5J H 0.27730 -0.31420 0.34900
H6J H 0.39120 -0.25970 0.32670
Mo1J Mo 0.15273(4) -0.72043(4) 0.52144(2)
O7J O 0.1134(4) -0.8157(4) 0.4607(2)
O8J O 0.0955(4) -0.7803(4) 0.5985(2)
O4E O 0.0102(3) -0.7021(3) -0.028177(190)
O6E O 0.1793(3) -0.5806(3) -0.083967(200)
Mo1D Mo 0.27957(4) -0.84727(4) 0.145227(20)
Mo1H Mo -0.12684(4) -0.84727(4) 0.354773(20)
O4F O 0.2877(3) -0.7021(3) 0.528177(190)
O6F O 0.2401(3) -0.5806(3) 0.583967(200)
#END
