
#######################################################################
#
#                 Cambridge Crystallographic Data Centre
#                                CCDC
#
#######################################################################
#
# If this CIF has been generated from an entry in the Cambridge
# Structural Database, then it will include bibliographic, chemical,
# crystal, experimental, refinement or atomic coordinate data resulting
# from the CCDC's data processing and validation procedures.
#
#######################################################################

data_CSD_CIF_EHUWAH
_audit_creation_date 2016-03-21
_audit_creation_method CSD-ConQuest-V1
_database_code_CSD EHUWAH
_database_code_depnum_ccdc_archive 'CCDC 1438005; not CCDC 1437934 as published'
_chemical_formula_sum 'C32 H52 Cr1 Mn1 N1 O20.5'
_chemical_formula_moiety
;
(C20 H36 O6)n,0.5n(C7 H12 N2 2+),n(C7 H4 Cr1 Mn1 O13 1-),1.5n(C1 H4 O1)
;
_journal_coden_Cambridge 7
_journal_volume 89
_journal_year 2016
_journal_page_first 354
_journal_name_full 'Bull.Chem.Soc.Jpn. '
loop_
_publ_author_name
"M.Yoshitake"
"K.Kubo"
"Toru Endo"
"S.Noro"
"T.Akutagawa"
"T.Nakamura"
_chemical_name_systematic
;
catena-[(Icosahydrodibenzo[b,k][1,4,7,10,13,16]hexaoxacyclooctadecine) 
hemikis(2,5-diammoniotoluene) clathrate 
bis(\m~2~-oxalato-O,O':O'',O''')-(\m~2~-oxalato-O,O':O'')-methanol-chromium(ii
i)-manganese(ii) methanol solvate]
;
_cell_volume   8342.459
_exptl_crystal_colour 'black'
_exptl_crystal_density_diffrn 1.398
_exptl_special_details
;
Magnetic properties

;
_exptl_crystal_description 'Block'
_diffrn_ambient_temperature 173
_refine_special_details
;
The 2,5-diammoniotoluene cation is disordered by symmetry.

;
#These two values have been output from a single CSD field.
_refine_ls_R_factor_gt 0.0481
_refine_ls_wR_factor_gt 0.0481
_symmetry_cell_setting monoclinic
_symmetry_space_group_name_H-M 'C 2/c'
_symmetry_Int_Tables_number 15
loop_
_symmetry_equiv_pos_site_id
_symmetry_equiv_pos_as_xyz
1 x,y,z
2 -x,y,1/2-z
3 1/2+x,1/2+y,z
4 1/2-x,1/2+y,1/2-z
5 -x,-y,-z
6 x,-y,-1/2+z
7 -1/2-x,-1/2-y,-z
8 -1/2+x,-1/2-y,-1/2+z
_cell_length_a 32.105(4)
_cell_length_b 16.869(2)
_cell_length_c 17.768(2)
_cell_angle_alpha 90
_cell_angle_beta 119.894(3)
_cell_angle_gamma 90
_cell_formula_units_Z 8
loop_
_atom_type_symbol
_atom_type_radius_bond
C 0.68
H 0.23
Cr 1.39
Mn 1.61
N 0.68
O 0.68
loop_
_atom_site_label
_atom_site_type_symbol
_atom_site_fract_x
_atom_site_fract_y
_atom_site_fract_z
O1 O 0.15095(7) 0.02116(12) 0.32800(14)
O2 O 0.19584(7) 0.17103(12) 0.39106(14)
O3 O 0.13448(7) 0.29664(12) 0.37742(14)
O4 O 0.11036(10) 0.25922(14) 0.50205(14)
O5 O 0.12623(8) 0.09505(14) 0.54517(13)
O6 O 0.10851(8) -0.03532(12) 0.42229(14)
C1 C 0.21297(13) 0.1124(2) 0.3559(3)
H1 H 0.24810 0.11820 0.38090
H2 H 0.19750 0.11920 0.29220
C2 C 0.09764(13) 0.3994(2) 0.5258(2)
H3 H 0.10220 0.38520 0.58350
H4 H 0.11170 0.45270 0.53040
C3 C 0.13782(11) -0.08847(19) 0.4056(2)
H5 H 0.17170 -0.08580 0.45480
C4 C 0.13606(11) -0.06052(18) 0.3225(2)
H6 H 0.15850 -0.09430 0.31250
C5 C 0.20174(11) 0.0326(2) 0.3765(3)
H7 H 0.21810 -0.00870 0.36100
H8 H 0.21320 0.02850 0.43940
C6 C 0.12017(14) -0.1742(2) 0.3937(2)
H9 H 0.12000 -0.19190 0.44670
H10 H 0.14250 -0.20870 0.38540
C7 C 0.18504(11) 0.30689(19) 0.4119(2)
H11 H 0.20250 0.29690 0.47520
H12 H 0.19190 0.36180 0.40170
C8 C 0.06116(12) 0.3574(2) 0.3442(2)
H13 H 0.04700 0.30460 0.34120
H14 H 0.05630 0.37030 0.28600
C9 C 0.08642(12) -0.0681(2) 0.2445(2)
H15 H 0.08710 -0.05170 0.19160
H16 H 0.06400 -0.03260 0.25140
C10 C 0.11387(12) 0.3554(2) 0.4087(2)
H17 H 0.12780 0.40820 0.40790
C11 C 0.12417(12) 0.3396(2) 0.5007(2)
H18 H 0.15950 0.34500 0.54150
C12 C 0.20084(12) 0.24974(19) 0.3675(2)
H19 H 0.18100 0.25640 0.30380
H20 H 0.23480 0.25990 0.38460
C13 C 0.04410(13) 0.4023(2) 0.4602(2)
H21 H 0.02920 0.35080 0.45970
H22 H 0.02870 0.44390 0.47730
C14 C 0.06871(15) -0.1539(2) 0.2344(3)
H23 H 0.03560 -0.15740 0.18450
H24 H 0.08950 -0.18860 0.22210
C15 C 0.15452(16) 0.1556(3) 0.6048(2)
H25 H 0.18310 0.16630 0.59910
H26 H 0.16570 0.13750 0.66490
C16 C 0.11477(17) -0.0422(2) 0.5074(3)
H27 H 0.12710 -0.09590 0.53030
H28 H 0.08320 -0.03630 0.50390
C17 C 0.03595(13) 0.4199(2) 0.3706(2)
H29 H 0.04870 0.47320 0.37000
H30 H 0.00110 0.41980 0.32840
C18 C 0.06926(15) -0.1824(2) 0.3149(3)
H31 H 0.05910 -0.23860 0.30770
H32 H 0.04640 -0.15090 0.32460
C19 C 0.14826(15) 0.0175(3) 0.5684(2)
H33 H 0.15620 0.00430 0.62840
H34 H 0.17840 0.01750 0.56610
C20 C 0.12634(18) 0.2290(2) 0.5881(2)
H35 H 0.09810 0.21830 0.59490
H36 H 0.14630 0.26960 0.63140
O7 O 0.42103(8) 0.09594(17) 0.17787(14)
O8 O 0.36457(7) 0.10608(12) 0.21623(11)
O9 O 0.29750(7) 0.12865(11) 0.05508(11)
O10 O 0.21566(7) 0.50591(11) 0.34926(11)
O11 O 0.20145(7) 0.60479(11) 0.22325(11)
O12 O 0.22614(7) 0.14692(11) 0.11320(12)
O13 O 0.30268(6) 0.23826(11) 0.18218(11)
O14 O 0.25821(6) 0.34436(11) 0.16899(12)
O15 O 0.18084(6) 0.24643(11) 0.11633(13)
O16 O 0.35021(8) 0.11240(13) 0.00859(12)
O17 O 0.19786(7) 0.50379(11) 0.13866(11)
O18 O 0.20730(7) 0.40187(11) 0.26548(11)
O19 O 0.11076(7) 0.38108(14) 0.10443(13)
C21 C 0.26362(9) 0.27291(15) 0.16222(15)
C22 C 0.21913(9) 0.21807(16) 0.12727(16)
C23 C 0.20219(9) 0.53164(16) 0.20689(16)
C24 C 0.20924(9) 0.47340(16) 0.28015(16)
C25 C 0.33924(11) 0.11642(16) 0.06605(17)
C26 C 0.09129(13) 0.4035(3) 0.1566(2)
H37 H 0.11290 0.38670 0.21660
H38 H 0.05990 0.37820 0.13500
H39 H 0.08750 0.46120 0.15480
C27 C 0.37972(11) 0.10490(18) 0.16147(17)
Mn1 Mn 0.18352(2) 0.37603(2) 0.12772(2)
Cr1 Cr 0.29559(2) 0.12217(3) 0.16377(3)
O20 O 0.04742(9) 0.37276(19) -0.06091(15)
C28 C -0.00125(14) 0.3589(3) -0.1192(3)
O21 O 0.0931(3) 0.1776(4) 0.1186(5)
C29 C 0.0491(3) 0.1960(6) 0.0387(7)
C30 C 0.04842(9) 0.13608(16) 0.30751(16)
C31 C 0.01643(10) 0.1358(2) 0.33749(18)
H40 H 0.02820 0.13450 0.39830
C32 C 0.03315(10) 0.1373(2) 0.21975(19)
C33 C 0.0683(2) 0.1618(5) 0.1856(4)
H41 H 0.08670 0.20870 0.21720
H42 H 0.04950 0.17400 0.12350
H43 H 0.09030 0.11800 0.19490
N1 N 0.10022(7) 0.13687(14) 0.36970(14)
H44 H 0.11530 0.10140 0.35270
H45 H 0.10540 0.12350 0.42330
H46 H 0.11210 0.18630 0.37160
O10C O 0.28434(7) 0.00591(11) 0.15074(11)
O11C O 0.29855(7) 0.10479(11) 0.27675(11)
O16F O 0.14979(8) 0.38760(13) -0.00859(12)
Mn1F Mn 0.31648(2) 0.12397(2) -0.12772(2)
Cr1C Cr 0.20441(2) 0.62217(3) 0.33623(3)
C30A C -0.04842(9) 0.13608(16) 0.19249(16)
C31A C -0.01643(10) 0.1358(2) 0.16251(18)
H40A H -0.02820 0.13450 0.10170
C32A C -0.03315(10) 0.1373(2) 0.28025(19)
C33A C -0.0683(2) 0.1618(5) 0.3144(4)
H41A H -0.08670 0.20870 0.28280
H42A H -0.04950 0.17400 0.37650
H43A H -0.09030 0.11800 0.30510
N1A N -0.10022(7) 0.13687(14) 0.13030(14)
H44A H -0.11530 0.10140 0.14730
H45A H -0.10540 0.12350 0.07670
H46A H -0.11210 0.18630 0.12840
#END
