
#######################################################################
#
#                 Cambridge Crystallographic Data Centre
#                                CCDC
#
#######################################################################
#
# If this CIF has been generated from an entry in the Cambridge
# Structural Database, then it will include bibliographic, chemical,
# crystal, experimental, refinement or atomic coordinate data resulting
# from the CCDC's data processing and validation procedures.
#
#######################################################################

data_CSD_CIF_EJEFOQ
_audit_creation_date 2016-03-21
_audit_creation_method CSD-ConQuest-V1
_database_code_CSD EJEFOQ
_database_code_depnum_ccdc_archive 'CCDC 988043'
_chemical_formula_sum 'C5 H58 Co3 N5 O51 Si1 W9'
_chemical_formula_moiety
;
(C2 H15 Co3 N2 O37 Si1 W9 3-)n,1.5(C2 H10 N2 2+),14(H2 O1)
;
_journal_coden_Cambridge 1350
_journal_volume 18
_journal_year 2016
_journal_page_first 2712
_journal_name_full 'CrystEngComm '
loop_
_publ_author_name
"Yu Zhu"
"Wei-Hui Fang"
"Qi Wei"
"Guo-Yu Yang"
_chemical_name_systematic
;
catena-[sesquikis(ethane-1,2-diaminium) 
(\m~12~-orthosilicato)-bis(\m~3~-oxido)-docosakis(\m~2~-oxido)-(2-aminoethan-1
-aminium)-triaqua-hexaoxo-tri-cobalt-nona-tungsten tetradecahydrate]
;
_cell_volume   2022.342
_exptl_crystal_colour 'red'
_exptl_crystal_density_diffrn 4.437
_exptl_crystal_description 'Prism'
_diffrn_ambient_temperature 293
_refine_special_details
;
Some water molecules have not been modelled.

;
#These two values have been output from a single CSD field.
_refine_ls_R_factor_gt 0.0454
_refine_ls_wR_factor_gt 0.0454
_symmetry_cell_setting triclinic
_symmetry_space_group_name_H-M 'P -1'
_symmetry_Int_Tables_number 2
loop_
_symmetry_equiv_pos_site_id
_symmetry_equiv_pos_as_xyz
1 x,y,z
2 -x,-y,-z
_cell_length_a 11.9641(3)
_cell_length_b 12.0257(4)
_cell_length_c 16.0944(5)
_cell_angle_alpha 102.457(3)
_cell_angle_beta 96.489(3)
_cell_angle_gamma 113.464(3)
_cell_formula_units_Z 2
loop_
_atom_type_symbol
_atom_type_radius_bond
C 0.68
H 0.23
Co 1.26
N 0.68
O 0.68
Si 1.20
W 1.62
loop_
_atom_site_label
_atom_site_type_symbol
_atom_site_fract_x
_atom_site_fract_y
_atom_site_fract_z
W1 W 0.37971(4) 0.54401(5) 0.15607(3)
W2 W 0.11834(4) 0.69080(5) 0.33217(3)
W3 W 0.30783(4) 0.51825(5) 0.35327(3)
W4 W 0.52204(4) 0.86429(5) 0.12351(3)
W5 W 0.57464(4) 1.12123(5) 0.28987(3)
W6 W 0.60797(4) 0.64608(5) 0.33983(3)
W7 W 0.18667(4) 0.71889(5) 0.13444(3)
W8 W 0.24433(4) 0.97593(5) 0.30308(3)
W9 W 0.74781(4) 0.96220(5) 0.30753(3)
Co1 Co 0.35782(14) 0.93753(15) 0.50502(10)
Co2 Co 0.52050(14) 0.79152(16) 0.51818(11)
Co3 Co -0.21022(15) 0.45319(16) 0.31026(11)
Si1 Si 0.4376(3) 0.8245(3) 0.3279(2)
O1 O 0.2488(7) 0.5966(8) 0.1372(5)
O2 O 0.2969(7) 0.8103(7) 0.2898(5)
O3 O 0.4365(7) 0.6837(8) 0.3034(5)
O4 O 0.5475(7) 1.0359(8) 0.1606(5)
O5 O 0.4779(7) 0.8874(8) 0.4328(5)
O6 O 0.3470(7) 0.8206(8) 0.1123(5)
O7 O 0.3454(8) 0.4290(8) 0.0595(6)
O8 O 0.0935(8) 0.6645(9) 0.0330(5)
O9 O 0.6957(7) 0.7872(8) 0.2961(5)
O10 O 0.7411(7) 1.0008(8) 0.4181(5)
O11 O 0.9053(7) 1.0126(8) 0.3099(5)
O12 O 0.7330(7) 1.1171(8) 0.2962(5)
O13 O 0.5351(7) 0.9123(8) 0.2790(5)
O14 O -0.0337(7) 0.6045(8) 0.3423(6)
O15 O 0.3275(7) 1.0305(8) 0.4159(6)
O16 O 0.0779(7) 0.6458(8) 0.1992(5)
O17 O 0.1782(7) 0.8752(8) 0.1754(5)
O18 O 0.4822(8) 0.6962(8) 0.1290(6)
O19 O 0.3972(7) 1.0551(8) 0.2648(6)
O20 O 0.4674(7) 0.5097(8) 0.3583(6)
O21 O 0.7175(7) 0.5857(9) 0.3486(6)
O22 O 0.5310(7) 0.5496(8) 0.2106(5)
O23 O 0.1057(7) 0.8460(8) 0.3220(5)
O24 O 0.6888(7) 0.9104(8) 0.1754(5)
O25 O 0.1802(7) 0.5664(8) 0.3159(5)
O26 O 0.1836(8) 1.0844(9) 0.2989(6)
O27 O 0.2232(8) 0.3755(8) 0.3708(6)
O28 O 0.2889(7) 0.4470(8) 0.2230(5)
O29 O 0.6351(7) 0.7468(8) 0.4453(5)
O30 O 0.5848(7) 1.1408(8) 0.4043(5)
O31 O 0.2020(7) 0.7700(9) 0.4395(6)
O32 O 0.3623(7) 0.6285(8) 0.4586(5)
O33 O 0.6204(7) 1.2740(8) 0.2830(6)
O34 O 0.5315(8) 0.8507(9) 0.0164(6)
N1 N -0.2870(12) 0.4329(12) 0.1777(7)
H1 H -0.36570 0.38460 0.15870
N2 N -0.2792(9) 0.6699(11) 0.1213(7)
H2 H -0.35350 0.61160 0.09750
H3 H -0.26480 0.74820 0.13220
C1 C -0.2238(16) 0.4900(17) 0.118(1)
H4 H -0.27890 0.45210 0.06050
H5 H -0.15170 0.47240 0.11500
C2 C -0.1791(12) 0.6366(16) 0.1431(10)
H6 H -0.14350 0.67210 0.20530
H7 H -0.11410 0.67320 0.11290
O35 O -0.1135(8) 0.3399(9) 0.2797(7)
O36 O -0.1819(8) 0.4451(9) 0.4373(6)
O37 O 0.5714(8) 0.7074(8) 0.6062(6)
N3 N 0.1149(10) 0.1893(11) 0.1714(8)
H8 H 0.16430 0.22700 0.22210
H9 H 0.03900 0.17970 0.16420
N4 N 0.3108(11) 0.0501(12) 0.0912(8)
H10 H 0.24670 -0.01890 0.06230
H11 H 0.38320 0.05060 0.10160
C3 C 0.1603(17) 0.140(2) 0.0965(12)
H12 H 0.15050 0.17900 0.05090
H13 H 0.11010 0.04970 0.07320
C4 C 0.2967(13) 0.1678(16) 0.1231(11)
H14 H 0.34770 0.23210 0.09830
H15 H 0.32440 0.19930 0.18620
N5 N 0.1001(11) 0.1427(14) 0.4668(8)
H16 H 0.12580 0.10370 0.42790
H17 H 0.12430 0.22290 0.47710
C5 C 0.0152(13) 0.0726(15) 0.5155(9)
H18 H -0.06170 0.08210 0.50610
H19 H 0.05330 0.10670 0.57740
O38 O 0.0006(9) 0.6767(11) 0.5436(7)
O39 O 0.9507(11) 0.9026(12) 0.1491(8)
O40 O 0.8563(9) 0.0672(10) 0.0907(7)
O41 O 0.0121(8) 0.3651(9) 0.1455(6)
O42 O 0.7104(9) 0.1888(10) 0.0783(6)
Co1A Co 0.64218(14) 1.06247(15) 0.49498(10)
Co2A Co 0.47950(14) 1.20848(16) 0.48182(11)
Co3* Co 0.78978(15) 0.45319(16) 0.31026(11)
Co3** Co 0.78978(15) 1.45319(16) 0.31026(11)
O5A O 0.5221(7) 1.1126(8) 0.5672(5)
O10A O 0.2589(7) 0.9992(8) 0.5819(5)
O15A O 0.6725(7) 0.9695(8) 0.5841(6)
O21* O -0.2825(7) 0.5857(9) 0.3486(6)
O30A O 0.4152(7) 0.8592(8) 0.5957(5)
O33* O -0.3796(7) 0.2740(8) 0.2830(6)
N5A N -0.1001(11) -0.1427(14) 0.5332(8)
H16A H -0.12580 -0.10370 0.57210
H17A H -0.12430 -0.22290 0.52290
C5A C -0.0152(13) -0.0726(15) 0.4845(9)
H18A H 0.06170 -0.08210 0.49390
H19A H -0.05330 -0.10670 0.42260
#END
