
#######################################################################
#
#                 Cambridge Crystallographic Data Centre
#                                CCDC
#
#######################################################################
#
# If this CIF has been generated from an entry in the Cambridge
# Structural Database, then it will include bibliographic, chemical,
# crystal, experimental, refinement or atomic coordinate data resulting
# from the CCDC's data processing and validation procedures.
#
#######################################################################

data_CSD_CIF_EJEKOU01
_audit_creation_date 2011-03-04
_audit_creation_method CSD-ConQuest-V1
_database_code_CSD EJEKOU01
_database_code_depnum_ccdc_archive 'CCDC 794766'
_chemical_formula_sum 'C31 H32 Cl4 Co3 N10 O3'
_chemical_formula_moiety
;
(C3 H8 N1 O1 1+)n,n(C2 H8 N1 1+),n(C26 H16 Cl4 Co3 N8 O2 2-)
;
_journal_coden_Cambridge 182
_journal_volume 47
_journal_year 2011
_journal_page_first 926
_journal_name_full 'Chem.Commun. '
loop_
_publ_author_name
"Jian-Bin Lin"
"Wei Xue"
"Jie-Peng Zhang"
"Xiao-Ming Chen"
_chemical_name_systematic
;
catena-(dimethylammonium N,N-dimethyl(oxo)methanaminium 
bis(\m~3~-3-(2-phenol)-5-(4-pyridyl)-1,2,4-triazole)-tetrachloro-tricobalt)
;
_cell_volume   4424.591
_exptl_crystal_colour 'blue'
_exptl_crystal_density_diffrn 1.368
_exptl_crystal_description 'block'
_diffrn_ambient_temperature 293
_refine_special_details
;
C1A,C2A,C3A,N1A,O1A disordered by symmetry over two sites with occupancy 
;
#These two values have been output from a single CSD field.
_refine_ls_R_factor_gt 0.0715
_refine_ls_wR_factor_gt 0.0715
_symmetry_cell_setting monoclinic
_symmetry_space_group_name_H-M 'C 2/c'
_symmetry_Int_Tables_number 15
loop_
_symmetry_equiv_pos_site_id
_symmetry_equiv_pos_as_xyz
1 x,y,z
2 -x,y,1/2-z
3 1/2+x,1/2+y,z
4 1/2-x,1/2+y,1/2-z
5 -x,-y,-z
6 x,-y,-1/2+z
7 -1/2-x,-1/2-y,-z
8 -1/2+x,-1/2-y,-1/2+z
_cell_length_a 20.787(2)
_cell_length_b 15.4366(18)
_cell_length_c 13.7906(15)
_cell_angle_alpha 90
_cell_angle_beta 90.899(2)
_cell_angle_gamma 90
_cell_formula_units_Z 4
loop_
_atom_type_symbol
_atom_type_radius_bond
C 0.68
H 0.23
Cl 0.99
Co 1.26
N 0.68
O 0.68
loop_
_atom_site_label
_atom_site_type_symbol
_atom_site_fract_x
_atom_site_fract_y
_atom_site_fract_z
Co1 Co 0.25000 0.25000 0.50000
Co2 Co 0.16030(5) 0.38257(6) 0.63218(7)
Cl1 Cl 0.10805(11) 0.34161(16) 0.76680(16)
Cl2 Cl 0.12615(12) 0.51363(13) 0.5797(2)
O1 O 0.1568(2) 0.2958(3) 0.5275(3)
N1 N 0.2105(3) 0.1756(3) 0.3943(4)
N2 N 0.2446(3) 0.1171(4) 0.3414(4)
N3 N 0.1401(3) 0.0998(4) 0.3054(5)
N4 N 0.2345(3) -0.1426(3) 0.1032(5)
C1 C 0.1001(3) 0.2720(4) 0.4884(5)
C2 C 0.0433(4) 0.3085(5) 0.5213(6)
H1 H 0.04560 0.34900 0.57110
C3 C -0.0157(4) 0.2873(6) 0.4834(7)
H2 H -0.05240 0.31310 0.50790
C4 C -0.0211(4) 0.2280(7) 0.4090(7)
H3 H -0.06120 0.21310 0.38330
C5 C 0.0330(4) 0.1919(6) 0.3744(7)
H4 H 0.02940 0.15200 0.32400
C6 C 0.0945(4) 0.2122(5) 0.4113(5)
C7 C 0.1485(4) 0.1645(5) 0.3701(5)
C8 C 0.2004(4) 0.0720(5) 0.2903(6)
C9 C 0.2141(4) -0.0006(5) 0.2252(6)
C10 C 0.2732(4) -0.0209(5) 0.1929(7)
H5 H 0.30860 0.01250 0.21090
C11 C 0.2805(4) -0.0927(5) 0.1322(7)
H6 H 0.32170 -0.10530 0.11120
C12 C 0.1766(4) -0.1218(6) 0.1349(8)
H7 H 0.14200 -0.15590 0.11510
C13 C 0.1648(5) -0.0532(6) 0.1951(8)
H8 H 0.12320 -0.04310 0.21600
N5 N 0.50000 -0.0009(7) 0.25000
H9 H 0.47190 0.03380 0.28020
C14 C 0.4658(7) -0.0451(8) 0.1788(10)
H10 H 0.44500 -0.00480 0.13540
H11 H 0.49490 -0.08080 0.14310
H12 H 0.43390 -0.08080 0.20860
N6 N 0.7648(13) 0.2412(17) 0.4748(18)
H13? H 0.72200 0.24420 0.48780
C15 C 0.7920(15) 0.3087(15) 0.538(2)
H14 H 0.79090 0.29000 0.60390
H15 H 0.83580 0.31960 0.51980
H16? H 0.76730 0.36090 0.53010
C16 C 0.7682(17) 0.282(2) 0.376(2)
H17 H 0.75220 0.24180 0.32800
H18 H 0.74250 0.33360 0.37420
H19 H 0.81210 0.29630 0.36220
O2 O 0.8132(19) 0.1408(17) 0.550(3)
C17 C 0.777(2) 0.1594(15) 0.487(3)
H20? H 0.75850 0.11750 0.44680
Co1C Co 0.25000 -0.25000 0.00000
Co1C* Co 0.25000 0.75000 1.00000
Co2F Co 0.33970(5) 0.11743(6) 0.36782(7)
Cl1F Cl 0.39195(11) 0.15839(16) 0.23320(16)
Cl2F Cl 0.37385(12) -0.01363(13) 0.4203(2)
O1F O 0.3432(2) 0.2042(3) 0.4725(3)
N1F N 0.2895(3) 0.3244(3) 0.6057(4)
N2F N 0.2554(3) 0.3829(4) 0.6586(4)
N3F N 0.3599(3) 0.4002(4) 0.6946(5)
N4F N 0.2655(3) 0.6426(3) 0.8968(5)
N4C N 0.2655(3) 0.3574(3) 0.3968(5)
N4E N 0.2345(3) 0.1426(3) 0.6032(5)
C1F C 0.3999(3) 0.2280(4) 0.5116(5)
C2F C 0.4567(4) 0.1915(5) 0.4787(6)
H1F H 0.45440 0.15100 0.42890
C3F C 0.5157(4) 0.2127(6) 0.5166(7)
H2F H 0.55240 0.18690 0.49210
C4F C 0.5211(4) 0.2720(7) 0.5910(7)
H3F H 0.56120 0.28690 0.61670
C5F C 0.4670(4) 0.3081(6) 0.6256(7)
H4F H 0.47060 0.34800 0.67600
C6F C 0.4055(4) 0.2878(5) 0.5887(5)
C7F C 0.3515(4) 0.3355(5) 0.6299(5)
C8F C 0.2996(4) 0.4280(5) 0.7097(6)
C9F C 0.2859(4) 0.5006(5) 0.7748(6)
C10F C 0.2268(4) 0.5209(5) 0.8071(7)
H5F H 0.19140 0.48750 0.78910
C11F C 0.2195(4) 0.5927(5) 0.8678(7)
H6F H 0.17830 0.60530 0.88880
C12F C 0.3234(4) 0.6218(6) 0.8651(8)
H7F H 0.35800 0.65590 0.88490
C13F C 0.3352(5) 0.5532(6) 0.8049(8)
H8F H 0.37680 0.54310 0.78400
H9A H 0.52810 0.03380 0.21980
C14A C 0.5342(7) -0.0451(8) 0.3212(10)
H10A H 0.55500 -0.00480 0.36460
H11A H 0.50510 -0.08080 0.35690
H12A H 0.56610 -0.08080 0.29140
N6F N 0.7352(13) 0.2588(17) 0.5252(18)
C15F C 0.7080(15) 0.1913(15) 0.462(2)
H14F H 0.70910 0.21000 0.39610
H15F H 0.66420 0.18040 0.48020
C16F C 0.7318(17) 0.218(2) 0.624(2)
H17F H 0.74780 0.25820 0.67200
H18F H 0.75750 0.16640 0.62580
H19F H 0.68790 0.20370 0.63780
O2F O 0.6868(19) 0.3592(17) 0.450(3)
C17F C 0.723(2) 0.3406(15) 0.513(3)
#END
