
#######################################################################
#
#                 Cambridge Crystallographic Data Centre
#                                CCDC
#
#######################################################################
#
# If this CIF has been generated from an entry in the Cambridge
# Structural Database, then it will include bibliographic, chemical,
# crystal, experimental, refinement or atomic coordinate data resulting
# from the CCDC's data processing and validation procedures.
#
#######################################################################

data_CSD_CIF_EJEKOU
_audit_creation_date 2011-03-04
_audit_creation_method CSD-ConQuest-V1
_database_code_CSD EJEKOU
_database_code_depnum_ccdc_archive 'CCDC 794765'
_chemical_formula_sum 'C31 H32 Cl4 Co3 N10 O3'
_chemical_formula_moiety
;
(C26 H16 Cl4 Co3 N8 O2 2-)n,n(C3 H8 N1 O1 1+),n(C2 H8 N1 1+)
;
_journal_coden_Cambridge 182
_journal_volume 47
_journal_year 2011
_journal_page_first 926
_journal_name_full 'Chem.Commun. '
loop_
_publ_author_name
"Jian-Bin Lin"
"Wei Xue"
"Jie-Peng Zhang"
"Xiao-Ming Chen"
_chemical_name_systematic
;
catena-(dimethylammonium N,N-dimethyl(oxo)methanaminium 
bis(\m~3~-3-(2-phenol)-5-(4-pyridyl)-1,2,4-triazole)-tetrachloro-tricobalt)
;
_cell_volume   4356.518
_exptl_crystal_colour 'blue'
_exptl_crystal_density_diffrn 1.389
_exptl_crystal_description 'block'
_diffrn_ambient_temperature 120
_refine_special_details
;
C1A,C2A,C3A,N1A,O1A disordered by symmetry over two sites with occupancy 
;
#These two values have been output from a single CSD field.
_refine_ls_R_factor_gt 0.0614
_refine_ls_wR_factor_gt 0.0614
_symmetry_cell_setting monoclinic
_symmetry_space_group_name_H-M 'C 2/c'
_symmetry_Int_Tables_number 15
loop_
_symmetry_equiv_pos_site_id
_symmetry_equiv_pos_as_xyz
1 x,y,z
2 -x,y,1/2-z
3 1/2+x,1/2+y,z
4 1/2-x,1/2+y,1/2-z
5 -x,-y,-z
6 x,-y,-1/2+z
7 -1/2-x,-1/2-y,-z
8 -1/2+x,-1/2-y,-1/2+z
_cell_length_a 20.545(5)
_cell_length_b 15.456(4)
_cell_length_c 13.721(4)
_cell_angle_alpha 90
_cell_angle_beta 90.865(4)
_cell_angle_gamma 90
_cell_formula_units_Z 4
loop_
_atom_type_symbol
_atom_type_radius_bond
C 0.68
H 0.23
Cl 0.99
Co 1.26
N 0.68
O 0.68
loop_
_atom_site_label
_atom_site_type_symbol
_atom_site_fract_x
_atom_site_fract_y
_atom_site_fract_z
Co1 Co 0.25000 1.25000 2.00000
Co2 Co 0.16021(3) 1.11685(5) 2.13351(5)
Cl1 Cl 0.10635(8) 1.15759(11) 2.26863(11)
Cl2 Cl 0.12743(9) 0.9851(1) 2.08012(14)
O1 O 0.15604(16) 1.2033(2) 2.0283(2)
N1 N 0.2092(2) 1.3228(3) 1.8929(3)
N2 N 0.2435(2) 1.3824(3) 1.8404(3)
N3 N 0.1376(2) 1.3990(3) 1.8033(4)
N4 N 0.2336(2) 1.6427(3) 1.6021(3)
C1 C 0.0984(3) 1.2263(3) 1.9884(4)
C2 C 0.0407(3) 1.1894(4) 2.0232(4)
H1 H 0.04370 1.14890 2.07520
C3 C -0.0204(3) 1.2094(5) 1.9851(5)
H2 H -0.05830 1.18290 2.01040
C4 C -0.0252(3) 1.2686(5) 1.9099(5)
H3 H -0.06660 1.28250 1.88250
C5 C 0.0293(3) 1.3069(5) 1.8750(5)
H4 H 0.02500 1.34870 1.82460
C6 C 0.0921(3) 1.2866(4) 1.9112(4)
C7 C 0.1469(3) 1.3354(4) 1.8697(4)
C8 C 0.1984(3) 1.4267(4) 1.7891(4)
C9 C 0.2128(3) 1.4998(4) 1.7236(4)
C10 C 0.2733(3) 1.5189(4) 1.6895(5)
H5 H 0.30940 1.48310 1.70610
C11 C 0.2816(3) 1.5909(4) 1.6307(5)
H6 H 0.32440 1.60390 1.60960
C12 C 0.1749(3) 1.6243(5) 1.6348(6)
H7 H 0.13980 1.66130 1.61670
C13 C 0.1618(3) 1.5539(5) 1.6942(6)
H8 H 0.11870 1.54260 1.71460
N5 N 0.00000 1.0049(5) 1.75000
H9 H 0.02810 0.97020 1.71890
C14 C -0.0359(4) 1.0479(7) 1.6791(8)
H10 H -0.05710 1.00710 1.63660
H11 H -0.06800 1.08360 1.70950
H12 H -0.00710 1.08360 1.64200
N6 N -0.2621(6) 0.7646(8) 1.4659(9)
H13 H -0.23450 0.77650 1.51860
C15 C -0.2249(8) 0.7735(10) 1.3747(11)
H14 H -0.21160 0.83390 1.36640
H15 H -0.18610 0.73650 1.37820
H16 H -0.25230 0.75580 1.31910
C16 C -0.2777(9) 0.6713(8) 1.4661(15)
H17 H -0.30260 0.65720 1.52440
H18 H -0.30360 0.65700 1.40780
H19 H -0.23720 0.63770 1.46630
C17 C -0.3155(8) 0.8167(10) 1.4714(15)
H20 H -0.35890 0.79740 1.47990
O2 O -0.2006(9) 0.6104(9) 1.5361(14)
Co1C Co 0.25000 1.75000 1.50000
Co1C* Co 0.25000 0.75000 2.50000
Co2F Co 0.33979(3) 1.38315(5) 1.86649(5)
Cl1F Cl 0.39365(8) 1.34241(11) 1.73137(11)
Cl2F Cl 0.37257(9) 1.5149(1) 1.91988(14)
O1F O 0.34396(16) 1.2967(2) 1.9717(2)
N1F N 0.2908(2) 1.1772(3) 2.1071(3)
N2F N 0.2565(2) 1.1176(3) 2.1596(3)
N3F N 0.3624(2) 1.1010(3) 2.1967(4)
N4F N 0.2664(2) 0.8573(3) 2.3979(3)
N4C N 0.2664(2) 1.1427(3) 1.8979(3)
N4E N 0.2336(2) 1.3573(3) 2.1021(3)
C1F C 0.4016(3) 1.2737(3) 2.0116(4)
C2F C 0.4593(3) 1.3106(4) 1.9768(4)
H1F H 0.45630 1.35110 1.92480
C3F C 0.5204(3) 1.2906(5) 2.0149(5)
H2F H 0.55830 1.31710 1.98960
C4F C 0.5252(3) 1.2314(5) 2.0901(5)
H3F H 0.56660 1.21750 2.11750
C5F C 0.4707(3) 1.1931(5) 2.1250(5)
H4F H 0.47500 1.15130 2.17540
C6F C 0.4079(3) 1.2134(4) 2.0888(4)
C7F C 0.3531(3) 1.1646(4) 2.1303(4)
C8F C 0.3016(3) 1.0733(4) 2.2109(4)
C9F C 0.2872(3) 1.0002(4) 2.2764(4)
C10F C 0.2267(3) 0.9811(4) 2.3105(5)
H5F H 0.19060 1.01690 2.29390
C11F C 0.2184(3) 0.9091(4) 2.3693(5)
H6F H 0.17560 0.89610 2.39040
C12F C 0.3251(3) 0.8757(5) 2.3652(6)
H7F H 0.36020 0.83870 2.38330
C13F C 0.3382(3) 0.9461(5) 2.3058(6)
H8F H 0.38130 0.95740 2.28540
H9A H -0.02810 0.97020 1.78110
C14A C 0.0359(4) 1.0479(7) 1.8209(8)
H10A H 0.05710 1.00710 1.86340
H11A H 0.06800 1.08360 1.79050
H12A H 0.00710 1.08360 1.85800
N6F N -0.2379(6) 0.7354(8) 1.5341(9)
H13F H -0.26550 0.72350 1.48140
C15F C -0.2751(8) 0.7265(10) 1.6253(11)
H14F H -0.28840 0.66610 1.63360
H15F H -0.31390 0.76350 1.62180
H16F H -0.24770 0.74420 1.68090
C16F C -0.2223(9) 0.8287(8) 1.5339(15)
H17F H -0.19740 0.84280 1.47560
H18F H -0.19640 0.84300 1.59220
H19F H -0.26280 0.86230 1.53370
C17F C -0.1845(8) 0.6833(10) 1.5286(15)
H20F H -0.14110 0.70260 1.52010
O2F O -0.2994(9) 0.8896(9) 1.4639(14)
#END
