
#######################################################################
#
#                 Cambridge Crystallographic Data Centre
#                                CCDC
#
#######################################################################
#
# If this CIF has been generated from an entry in the Cambridge
# Structural Database, then it will include bibliographic, chemical,
# crystal, experimental, refinement or atomic coordinate data resulting
# from the CCDC's data processing and validation procedures.
#
#######################################################################

data_CSD_CIF_EJEMUD
_audit_creation_date 2016-03-22
_audit_creation_method CSD-ConQuest-V1
_database_code_CSD EJEMUD
_database_code_depnum_ccdc_archive 'CCDC 941097'
_chemical_formula_sum 'C18 H96 Co8 N18 O78 Si2 W18'
_chemical_formula_moiety
;
(C14 H64 Co8 N14 O72 Si2 W18 4-)n,6(H2 O1),2(C2 H10 N2 2+)
;
_journal_coden_Cambridge 1350
_journal_volume 18
_journal_year 2016
_journal_page_first 2712
_journal_name_full 'CrystEngComm '
loop_
_publ_author_name
"Yu Zhu"
"Wei-Hui Fang"
"Qi Wei"
"Guo-Yu Yang"
_chemical_name_systematic
;
catena-[bis(ethane-1,2-diammonium) 
bis(\m~12~-orthosilicato)-dodecakis(\m~3~-oxido)-(\m~2~-ethane-1,2-diamine)-do
triacontakis(\m~2~-oxido)-hexakis(ethane-1,2-diamine)-tetra-aqua-hexadecaoxo-o
cta-cobalt-octadeca-tungsten hexahydrate]
;
_cell_volume   2435.112
_exptl_crystal_colour 'red'
_exptl_crystal_density_diffrn 3.746
_exptl_crystal_description 'Prism'
_diffrn_ambient_temperature 293
_refine_special_details
;
The cation and some solvent molecules have not been modelled.

;
#These two values have been output from a single CSD field.
_refine_ls_R_factor_gt 0.0444
_refine_ls_wR_factor_gt 0.0444
_symmetry_cell_setting triclinic
_symmetry_space_group_name_H-M 'P -1'
_symmetry_Int_Tables_number 2
loop_
_symmetry_equiv_pos_site_id
_symmetry_equiv_pos_as_xyz
1 x,y,z
2 -x,-y,-z
_cell_length_a 12.7068(18)
_cell_length_b 13.1565(16)
_cell_length_c 17.082(3)
_cell_angle_alpha 73.022(4)
_cell_angle_beta 83.299(5)
_cell_angle_gamma 63.090(4)
_cell_formula_units_Z 1
loop_
_atom_type_symbol
_atom_type_radius_bond
C 0.68
H 0.23
Co 1.26
N 0.68
O 0.68
Si 1.20
W 1.62
loop_
_atom_site_label
_atom_site_type_symbol
_atom_site_fract_x
_atom_site_fract_y
_atom_site_fract_z
W1 W -0.39435(5) 0.61295(5) 0.15240(3)
W2 W -0.61814(5) 1.17934(5) 0.21155(3)
W3 W -0.70558(5) 0.76602(5) 0.20179(3)
W4 W -0.33296(5) 1.04305(5) 0.16670(3)
W5 W -0.42991(5) 0.94273(5) 0.35624(3)
W6 W -0.62922(5) 0.79805(5) 0.37336(3)
W7 W -0.21272(5) 0.73857(5) 0.13549(3)
W8 W -0.81335(5) 1.03644(5) 0.22981(3)
W9 W -0.31045(5) 0.63930(5) 0.32494(3)
Si1 Si -0.5135(3) 0.9001(3) 0.1762(2)
Co1 Co -0.71546(16) 1.00388(17) 0.03131(11)
Co2 Co -0.55001(16) 1.12664(17) 0.01289(11)
Co3 Co -0.63677(18) 0.72681(18) 0.60668(12)
Co4 Co -0.15861(19) 0.8017(2) 0.29857(13)
O1 O -0.3864(9) 0.9325(10) 0.4501(6)
O2 O -0.6969(10) 1.321(1) 0.2247(7)
O3 O -0.2304(10) 0.5351(9) 0.4107(6)
O4 O -0.222(1) 1.0886(10) 0.1475(7)
O5 O -0.3240(9) 0.7859(9) 0.3439(6)
O6 O -0.4692(9) 0.6863(9) 0.3598(6)
O7 O -0.5470(9) 0.8905(9) 0.3827(6)
O8 O -0.7662(8) 0.9394(9) 0.3485(6)
O9 O -0.6806(8) 0.7201(9) 0.3262(6)
O10 O -0.3117(8) 0.9824(9) 0.2898(6)
O11 O -0.6250(8) 0.8821(9) 0.2290(5)
O12 O -0.5394(9) 1.1006(8) 0.3237(6)
O13 O -0.6465(9) 0.7408(10) 0.4772(6)
O14 O -0.7256(10) 1.1155(9) 0.2501(6)
O15 O -0.2336(8) 0.8713(9) 0.1760(6)
O16 O -0.5466(8) 0.9602(9) 0.0784(6)
O17 O -0.4589(9) 1.1781(9) 0.1858(6)
O18 O -0.1858(8) 0.6558(9) 0.2559(6)
O19 O -0.7986(9) 1.0812(10) 0.1231(6)
O20 O -0.3828(9) 1.0664(8) 0.0651(6)
O21 O -0.3212(9) 0.5450(9) 0.2678(6)
O22 O -0.8376(9) 0.9032(9) 0.2246(6)
O23 O -0.6364(8) 1.1989(9) 0.1065(6)
O24 O -0.2938(8) 0.8395(8) 0.0412(6)
O25 O -0.4827(8) 0.9861(8) 0.2137(6)
O26 O -0.7018(8) 0.8411(9) 0.0984(6)
O27 O -0.0661(9) 0.6924(10) 0.1077(7)
O28 O -0.7794(10) 0.6833(11) 0.2013(6)
O29 O -0.5439(9) 0.6506(9) 0.2024(6)
O30 O -0.4489(9) 0.7168(9) 0.0554(6)
O31 O -0.3999(8) 0.7707(8) 0.1904(6)
O32 O -0.9547(9) 1.1314(10) 0.2465(7)
O33 O -0.3629(11) 0.4792(9) 0.1354(6)
O34 O -0.2372(9) 0.6113(8) 0.1273(6)
N1 N -0.7938(13) 0.7066(13) 0.6182(9)
H1 H -0.80100 0.64290 0.64200
N2 N -0.7619(13) 0.9076(13) 0.5905(10)
H2 H -0.74650 0.96770 0.57550
N3 N -0.5077(11) 0.5517(12) 0.6203(9)
H3 H -0.51890 0.49060 0.64560
N4 N -0.4848(13) 0.7601(13) 0.5789(7)
H4 H -0.48620 0.82890 0.56620
N5 N 0.0125(14) 0.6563(17) 0.3071(12)
H5 H 0.04280 0.62470 0.26740
N6 N -0.1197(13) 0.7703(17) 0.4237(10)
H6 H -0.16880 0.80360 0.45780
N7 N -0.8846(10) 1.0560(11) -0.0153(7)
H7 H -0.91880 1.12060 -0.05320
C1 C -0.8851(16) 0.8182(19) 0.5792(16)
H8 H -0.96130 0.81770 0.59180
H9 H -0.87580 0.83480 0.52030
C2 C -0.8782(19) 0.911(2) 0.6094(15)
H10 H -0.93900 0.98860 0.58280
H11 H -0.89020 0.89610 0.66800
C3 C -0.3944(16) 0.545(2) 0.5813(15)
H12 H -0.32920 0.47260 0.60970
H13 H -0.39530 0.54460 0.52480
C4 C -0.3780(17) 0.6484(18) 0.5847(15)
H14 H -0.33720 0.62770 0.63570
H15 H -0.32660 0.66210 0.54050
C5 C 0.0721(17) 0.6162(18) 0.3823(11)
H16 H 0.14620 0.62210 0.37240
H17 H 0.09070 0.53320 0.40560
C6 C 0.0051(13) 0.6820(17) 0.4429(12)
H18 H 0.04760 0.72270 0.45280
H19 H 0.00660 0.62430 0.49390
C7 C -0.9409(8) 0.9781(15) 0.0194(9)
H20 H -0.95080 0.97080 0.07770
H21 H -0.88970 0.90000 0.01260
O35 O -0.6249(13) 0.7077(12) 0.7377(7)
O36 O -0.0547(12) 0.9089(13) 0.2622(9)
O37 O -0.2415(14) 0.3982(14) 0.0307(10)
O38 O -0.2205(13) 0.8857(16) 0.5697(9)
N7A N -1.1154(10) 0.9440(11) 0.0153(7)
H7A H -1.08120 0.87940 0.05320
C7A C -1.0591(8) 1.0219(15) -0.0194(9)
H20A H -1.04920 1.02920 -0.07770
H21A H -1.11030 1.10000 -0.01260
W1A W -1.60565(5) 1.38705(5) -0.15240(3)
W2A W -1.38186(5) 0.82066(5) -0.21155(3)
W3A W -1.29442(5) 1.23398(5) -0.20179(3)
W4A W -1.66704(5) 0.95695(5) -0.16670(3)
W5A W -1.57009(5) 1.05727(5) -0.35624(3)
W6A W -1.37078(5) 1.20195(5) -0.37336(3)
W7A W -1.78728(5) 1.26143(5) -0.13549(3)
W8A W -1.18665(5) 0.96356(5) -0.22981(3)
W9A W -1.68955(5) 1.36070(5) -0.32494(3)
Si1A Si -1.4865(3) 1.0999(3) -0.1762(2)
Co1A Co -1.28454(16) 0.99612(17) -0.03131(11)
Co2A Co -1.44999(16) 0.87336(17) -0.01289(11)
Co3A Co -1.36323(18) 1.27319(18) -0.60668(12)
Co4A Co -1.84139(19) 1.1983(2) -0.29857(13)
O1A O -1.6136(9) 1.0675(10) -0.4501(6)
O2A O -1.3031(10) 0.679(1) -0.2247(7)
O3A O -1.7696(10) 1.4649(9) -0.4107(6)
O4A O -1.778(1) 0.9114(10) -0.1475(7)
O5A O -1.6760(9) 1.2141(9) -0.3439(6)
O6A O -1.5308(9) 1.3137(9) -0.3598(6)
O7A O -1.4530(9) 1.1095(9) -0.3827(6)
O8A O -1.2338(8) 1.0606(9) -0.3485(6)
O9A O -1.3194(8) 1.2799(9) -0.3262(6)
O10A O -1.6883(8) 1.0176(9) -0.2898(6)
O11A O -1.3750(8) 1.1179(9) -0.2290(5)
O12A O -1.4606(9) 0.8994(8) -0.3237(6)
O13A O -1.3535(9) 1.2592(10) -0.4772(6)
O14A O -1.2744(10) 0.8845(9) -0.2501(6)
O15A O -1.7664(8) 1.1287(9) -0.1760(6)
O16A O -1.4534(8) 1.0398(9) -0.0784(6)
O17A O -1.5411(9) 0.8219(9) -0.1858(6)
O18A O -1.8142(8) 1.3442(9) -0.2559(6)
O19A O -1.2014(9) 0.9188(10) -0.1231(6)
O20A O -1.6172(9) 0.9336(8) -0.0651(6)
O21A O -1.6788(9) 1.4550(9) -0.2678(6)
O22A O -1.1624(9) 1.0968(9) -0.2246(6)
O23A O -1.3636(8) 0.8011(9) -0.1065(6)
O24A O -1.7062(8) 1.1605(8) -0.0412(6)
O25A O -1.5173(8) 1.0139(8) -0.2137(6)
O26A O -1.2982(8) 1.1589(9) -0.0984(6)
O27A O -1.9339(9) 1.3076(10) -0.1077(7)
O28A O -1.2206(10) 1.3167(11) -0.2013(6)
O29A O -1.4561(9) 1.3494(9) -0.2024(6)
O30A O -1.5511(9) 1.2832(9) -0.0554(6)
O31A O -1.6001(8) 1.2293(8) -0.1904(6)
O32A O -1.0453(9) 0.8686(10) -0.2465(7)
O33A O -1.6371(11) 1.5208(9) -0.1354(6)
O34A O -1.7628(9) 1.3887(8) -0.1273(6)
N1A N -1.2062(13) 1.2934(13) -0.6182(9)
H1A H -1.19900 1.35710 -0.64200
N2A N -1.2381(13) 1.0924(13) -0.5905(10)
H2A H -1.25350 1.03230 -0.57550
N3A N -1.4923(11) 1.4483(12) -0.6203(9)
H3A H -1.48110 1.50940 -0.64560
N4A N -1.5152(13) 1.2399(13) -0.5789(7)
H4A H -1.51380 1.17110 -0.56620
N5A N -2.0125(14) 1.3437(17) -0.3071(12)
H5A H -2.04280 1.37530 -0.26740
N6A N -1.8803(13) 1.2297(17) -0.4237(10)
H6A H -1.83120 1.19640 -0.45780
C1A C -1.1149(16) 1.1818(19) -0.5792(16)
H8A H -1.03870 1.18230 -0.59180
H9A H -1.12420 1.16520 -0.52030
C2A C -1.1218(19) 1.089(2) -0.6094(15)
H10A H -1.06100 1.01140 -0.58280
H11A H -1.10980 1.10390 -0.66800
C3A C -1.6056(16) 1.455(2) -0.5813(15)
H12A H -1.67080 1.52740 -0.60970
H13A H -1.60470 1.45540 -0.52480
C4A C -1.6220(17) 1.3516(18) -0.5847(15)
H14A H -1.66280 1.37230 -0.63570
H15A H -1.67340 1.33790 -0.54050
C5A C -2.0721(17) 1.3838(18) -0.3823(11)
H16A H -2.14620 1.37790 -0.37240
H17A H -2.09070 1.46680 -0.40560
C6A C -2.0051(13) 1.3180(17) -0.4429(12)
H18A H -2.04760 1.27730 -0.45280
H19A H -2.00660 1.37570 -0.49390
O35A O -1.3751(13) 1.2923(12) -0.7377(7)
O36A O -1.9453(12) 1.0911(13) -0.2622(9)
Co1* Co -1.71546(16) 1.00388(17) 0.03131(11)
Co1A* Co -0.28454(16) 0.99612(17) -0.03131(11)
Co2* Co -1.55001(16) 1.12664(17) 0.01289(11)
Co2A* Co -0.44999(16) 0.87336(17) -0.01289(11)
O16* O -1.5466(8) 0.9602(9) 0.0784(6)
O16A* O -0.4534(8) 1.0398(9) -0.0784(6)
O20* O -1.3828(9) 1.0664(8) 0.0651(6)
O20A* O -0.6172(9) 0.9336(8) -0.0651(6)
O24* O -1.2938(8) 0.8395(8) 0.0412(6)
O24A* O -0.7062(8) 1.1605(8) -0.0412(6)
O30* O -1.4489(9) 0.7168(9) 0.0554(6)
O30A* O -0.5511(9) 1.2832(9) -0.0554(6)
#END
