
#######################################################################
#
#                 Cambridge Crystallographic Data Centre
#                                CCDC
#
#######################################################################
#
# If this CIF has been generated from an entry in the Cambridge
# Structural Database, then it will include bibliographic, chemical,
# crystal, experimental, refinement or atomic coordinate data resulting
# from the CCDC's data processing and validation procedures.
#
#######################################################################

data_CSD_CIF_EJEROD
_audit_creation_date 2020-12-19
_audit_creation_method CSD-ConQuest-V1
_database_code_CSD EJEROD
_database_code_depnum_ccdc_archive 'CCDC 2033401'
_chemical_formula_sum 'C28 H52 Cu4 K2 N6 O28'
_chemical_formula_moiety
;
(C28 H36 Cu4 N6 O20 2-)n,8(H2 O1),2(K1 1+)
;
_journal_coden_Cambridge 580
_journal_volume 195
_journal_year 2021
_journal_page_first 114970
_journal_name_full 'Polyhedron '
loop_
_publ_author_name
"Xi Chen"
"Xin Dong"
"Zhao-Hui Zhou"
_chemical_name_systematic
;
catena-[di-potassium 
bis(\m-2,2',2'',2''',2''''-(ethane-1,2-diylnitrilo)pentaacetato)-tetra-copper 
octahydrate]
;
_cell_volume   4362.787
_exptl_crystal_colour 'blue'
_exptl_crystal_density_diffrn 1.908
_exptl_crystal_description 'block'
_diffrn_ambient_temperature 193
_refine_special_details
;
O2wa and O11 disordered over two sites with occupancies 0.61:0.39.

;
#These two values have been output from a single CSD field.
_refine_ls_R_factor_gt 0.0621
_refine_ls_wR_factor_gt 0.0621
_symmetry_cell_setting monoclinic
_symmetry_space_group_name_H-M 'P 21/c'
_symmetry_Int_Tables_number 14
loop_
_symmetry_equiv_pos_site_id
_symmetry_equiv_pos_as_xyz
1 x,y,z
2 -x,1/2+y,1/2-z
3 -x,-y,-z
4 x,-1/2-y,-1/2+z
_cell_length_a 22.6805(14)
_cell_length_b 9.6138(6)
_cell_length_c 21.0181(14)
_cell_angle_alpha 90
_cell_angle_beta 107.830(6)
_cell_angle_gamma 90
_cell_formula_units_Z 4
loop_
_atom_type_symbol
_atom_type_radius_bond
C 0.68
H 0.23
Cu 1.32
K 2.03
N 0.68
O 0.68
loop_
_atom_site_label
_atom_site_type_symbol
_atom_site_fract_x
_atom_site_fract_y
_atom_site_fract_z
Cu1 Cu 0.00550(3) 0.50556(8) 0.31197(3)
Cu2 Cu 0.21745(3) 0.82676(8) 0.26842(3)
Cu3 Cu 0.54287(3) 0.89848(8) 0.72188(3)
Cu4 Cu 0.35784(3) 1.06351(9) 0.53704(4)
O1 O -0.09490(19) 0.4357(5) 0.27543(19)
O2 O -0.17776(18) 0.4408(4) 0.3112(2)
O3 O -0.00294(19) 0.6890(4) 0.2575(2)
O4 O -0.03486(19) 0.9106(4) 0.2566(2)
O5 O 0.0215(2) 0.3511(5) 0.3802(2)
O6 O 0.0844(2) 0.2747(5) 0.4767(2)
O7 O 0.19086(19) 0.6516(4) 0.2238(2)
O8 O 0.2078(2) 0.4235(5) 0.2395(2)
O9 O 0.24519(19) 0.9840(4) 0.3284(2)
O10 O 0.3118(2) 1.0358(5) 0.4266(2)
O11 O 0.4288(2) 0.9542(5) 0.5331(2)
O12 O 0.46432(19) 0.9614(5) 0.6437(2)
O13 O 0.50471(19) 0.7015(5) 0.7481(2)
O14 O 0.47803(19) 0.4886(4) 0.7051(2)
O15 O 0.5975(2) 1.0676(5) 0.6948(2)
O16 O 0.68540(19) 1.1818(4) 0.7421(2)
O17 O 0.6048(2) 0.7421(5) 0.9762(2)
O18 O 0.6360(3) 0.9533(6) 1.0166(3)
O19 O 0.6907(2) 0.4124(5) 0.9422(2)
O20 O 0.7896(2) 0.3561(6) 0.9604(3)
N1 N -0.0350(2) 0.6262(5) 0.3690(2)
N2 N 0.0958(2) 0.5830(5) 0.3828(2)
N3 N 0.2455(2) 0.7115(5) 0.3528(2)
N4 N 0.5544(2) 0.7773(5) 0.6470(2)
N5 N 0.6363(2) 0.8354(5) 0.7779(2)
N6 N 0.7108(2) 0.6830(6) 0.9523(2)
C1 C -0.0859(3) 0.5446(7) 0.3804(3)
H1 H -0.0688(3) 0.4756(7) 0.4163(3)
H2 H -0.1140(3) 0.6073(7) 0.3950(3)
C2 C -0.1220(3) 0.4702(6) 0.3165(3)
C3 C -0.0589(3) 0.7563(7) 0.3314(3)
H3 H -0.1042(3) 0.7478(7) 0.3105(3)
H4 H -0.0512(3) 0.8353(7) 0.3631(3)
C4 C -0.0292(3) 0.7868(6) 0.2778(3)
C5 C 0.0153(3) 0.6580(7) 0.4322(3)
H5 H 0.0022(3) 0.7363(7) 0.4554(3)
H6 H 0.0223(3) 0.5759(7) 0.4620(3)
C6 C 0.0753(3) 0.6961(6) 0.4187(3)
H7 H 0.1078(3) 0.7144(6) 0.4615(3)
H8 H 0.0691(3) 0.7822(6) 0.3916(3)
C7 C 0.1211(3) 0.4615(7) 0.4260(3)
H9 H 0.1524(3) 0.4150(7) 0.4093(3)
H10 H 0.1423(3) 0.4949(7) 0.4719(3)
C8 C 0.0724(3) 0.3557(7) 0.4289(3)
C9 C 0.1372(3) 0.6315(7) 0.3455(3)
H11 H 0.1456(3) 0.5528(7) 0.3191(3)
H12 H 0.1155(3) 0.7043(7) 0.3136(3)
C10 C 0.1993(3) 0.6905(7) 0.3893(3)
H13 H 0.2170(3) 0.6262(7) 0.4271(3)
H14 H 0.1917(3) 0.7807(7) 0.4080(3)
C11 C 0.2625(3) 0.5771(6) 0.3279(3)
H15 H 0.3052(3) 0.5828(6) 0.3251(3)
H16 H 0.2612(3) 0.5016(6) 0.3595(3)
C12 C 0.2172(3) 0.5446(7) 0.2586(3)
C13 C 0.2983(3) 0.7936(6) 0.3957(3)
H17 H 0.3051(3) 0.7698(6) 0.4432(3)
H18 H 0.3364(3) 0.7707(6) 0.3844(3)
C14 C 0.2843(3) 0.9492(7) 0.3849(3)
C15 C 0.5270(3) 0.8557(7) 0.5852(3)
H19 H 0.5570(3) 0.9260(7) 0.5796(3)
H20 H 0.5175(3) 0.7917(7) 0.5464(3)
C16 C 0.4687(3) 0.9266(6) 0.5875(3)
C17 C 0.5222(3) 0.6414(6) 0.6445(3)
H21 H 0.4860(3) 0.6391(6) 0.6037(3)
H22 H 0.5508(3) 0.5664(6) 0.6406(3)
C18 C 0.5000(3) 0.6102(7) 0.7046(3)
C19 C 0.6226(3) 0.7573(7) 0.6618(3)
H23 H 0.6307(3) 0.6793(7) 0.6349(3)
H24 H 0.6414(3) 0.8425(7) 0.6500(3)
C20 C 0.6509(3) 0.7260(7) 0.7354(3)
H25 H 0.6964(3) 0.7183(7) 0.7459(3)
H26 H 0.6351(3) 0.6355(7) 0.7457(3)
C21 C 0.6761(3) 0.9594(7) 0.7850(3)
H27 H 0.6841(3) 0.9964(7) 0.8308(3)
H28 H 0.7164(3) 0.9299(7) 0.7804(3)
C22 C 0.6508(3) 1.0776(7) 0.7356(3)
C23 C 0.6397(3) 0.7803(7) 0.8447(3)
H29 H 0.6300(3) 0.8559(7) 0.8719(3)
H30 H 0.6083(3) 0.7064(7) 0.8397(3)
C24 C 0.7041(3) 0.7208(7) 0.8813(3)
H31 H 0.7361(3) 0.7904(7) 0.8806(3)
H32 H 0.7113(3) 0.6369(7) 0.8573(3)
C25 C 0.7104(3) 0.8072(7) 0.9937(3)
H33 H 0.7378(3) 0.7909(7) 1.0398(3)
H34 H 0.7267(3) 0.8881(7) 0.9753(3)
C26 C 0.6456(4) 0.8391(8) 0.9955(3)
C27 C 0.7666(3) 0.5919(7) 0.9774(3)
H35 H 0.7991(3) 0.6223(7) 0.9579(3)
H36 H 0.7834(3) 0.5995(7) 1.0266(3)
C28 C 0.7488(3) 0.4422(8) 0.9578(3)
K1 K -0.05970(8) 1.13811(18) 0.33360(8)
K2 K 0.51475(7) 0.26694(17) 0.63787(8)
O21 O 0.0371(3) 0.0179(6) 0.4392(3)
H37 H 0.0507(3) 0.0969(6) 0.4638(3)
H38 H 0.0690(3) -0.0020(6) 0.4224(3)
O22 O -0.0962(3) 0.1180(9) 0.4375(3)
H39 H -0.1329(3) 0.1205(9) 0.4474(3)
H40 H -0.0681(3) 0.0952(9) 0.4780(3)
O23 O 0.5623(10) 1.350(4) 0.5411(6)
H41 H 0.5908(10) 1.423(4) 0.5365(6)
H42 H 0.5284(10) 1.364(4) 0.4995(6)
O24 O 0.6138(2) 1.4041(5) 0.7562(3)
H43 H 0.6511(2) 1.3546(5) 0.7666(3)
H44 H 0.6035(2) 1.3976(5) 0.7961(3)
O25 O 0.1157(3) 0.0221(6) 0.3606(2)
H45 H 0.1256(3) 0.1071(6) 0.3539(2)
H46 H 0.1071(3) -0.0173(6) 0.3216(2)
O26 O 0.6278(3) 0.1576(6) 0.9079(4)
H47 H 0.6344(3) 0.0994(6) 0.9410(4)
H48 H 0.6427(3) 0.2387(6) 0.9231(4)
O27 O -0.2199(3) 0.4271(6) 0.4283(3)
H49 H -0.216(4) 0.3381(18) 0.436(4)
H50 H -0.209(4) 0.440(7) 0.392(3)
O28 O 0.1930(3) 0.2424(6) 0.3375(3)
H51 H 0.212(4) 0.166(4) 0.333(4)
H52 H 0.196(4) 0.295(6) 0.305(3)
O29? O 0.5317(15) 1.4155(19) 0.5335(8)
H53? H 0.570(4) 1.462(15) 0.546(3)
H54? H 0.504(5) 1.489(11) 0.520(6)
Cu1A Cu -0.00550(3) 1.00556(8) 0.18803(3)
Cu2A Cu -0.21745(3) 0.32676(8) 0.23158(3)
Cu2B Cu 0.78255(3) 1.17324(8) 0.73158(3)
Cu3A Cu 0.45713(3) 0.39848(8) 0.77812(3)
Cu4A Cu 0.64216(3) 0.56351(9) 0.96296(4)
O2A O 0.17776(18) 0.9408(4) 0.1888(2)
O4A O 0.03486(19) 0.4106(4) 0.2434(2)
O14A O 0.52197(19) 0.9886(4) 0.7949(2)
O16B O 0.31460(19) 0.8182(4) 0.2579(2)
O17A O 0.3952(2) 1.2421(5) 0.5238(2)
O19A O 0.3093(2) 0.9124(5) 0.5578(2)
N6A N 0.2892(2) 1.1830(6) 0.5477(2)
#END
