
#######################################################################
#
#                 Cambridge Crystallographic Data Centre
#                                CCDC
#
#######################################################################
#
# If this CIF has been generated from an entry in the Cambridge
# Structural Database, then it will include bibliographic, chemical,
# crystal, experimental, refinement or atomic coordinate data resulting
# from the CCDC's data processing and validation procedures.
#
#######################################################################

data_CSD_CIF_EJIKAL
_audit_creation_date 2016-03-22
_audit_creation_method CSD-ConQuest-V1
_database_code_CSD EJIKAL
_database_code_depnum_ccdc_archive 'CCDC 1446527'
_chemical_formula_sum 'C21 H56 N3 Na3 O84 P2 W18'
_chemical_formula_moiety
;
(C14 H30 N2 Na3 O73 P2 W18 1-)n,n(C7 H8 N1 O2 1+),9n(H2 O1)
;
_journal_coden_Cambridge 119
_journal_volume 1116
_journal_year 2016
_journal_page_first 218
_journal_name_full 'J.Mol.Struct. '
loop_
_publ_author_name
"F.Hmida"
"B.Ayed"
"A.Haddad"
_chemical_name_systematic
;
catena-[bis(\m-phosphato)-(\m-3-carboxyanilinium)-(\m-aqua)-tritetracontakis(\
m-oxo)-(3-carboxyanilinium)-hexaaqua-undeca(oxo)-tri-sodium-octadeca-tungsten 
3-carboxyanilinium nonahydrate]
;
_cell_volume   4053.273
_exptl_crystal_colour 'colorless'
_exptl_crystal_density_diffrn 4.134
_exptl_special_details
;
Air-sensitive

;
_exptl_crystal_description 'prism'
_exptl_crystal_preparation 'water'
_diffrn_ambient_temperature 293
#These two values have been output from a single CSD field.
_refine_ls_R_factor_gt 0.0643
_refine_ls_wR_factor_gt 0.0643
_symmetry_cell_setting triclinic
_symmetry_space_group_name_H-M 'P -1'
_symmetry_Int_Tables_number 2
loop_
_symmetry_equiv_pos_site_id
_symmetry_equiv_pos_as_xyz
1 x,y,z
2 -x,-y,-z
_cell_length_a 14.063
_cell_length_b 17.009
_cell_length_c 17.868
_cell_angle_alpha 79.88
_cell_angle_beta 77.14
_cell_angle_gamma 79.25
_cell_formula_units_Z 2
loop_
_atom_type_symbol
_atom_type_radius_bond
C 0.68
H 0.23
N 0.68
Na 1.66
O 0.68
P 1.05
W 1.62
loop_
_atom_site_label
_atom_site_type_symbol
_atom_site_fract_x
_atom_site_fract_y
_atom_site_fract_z
W1 W 0.94176(5) 0.35016(4) 0.29157(4)
W2 W 0.57066(6) 0.29921(5) 0.54019(4)
W3 W 0.93967(5) 0.14946(4) 0.32728(4)
W4 W 0.49026(5) 0.19851(4) 0.40165(4)
W5 W 0.78004(6) 0.36848(5) -0.06115(4)
W6 W 0.48648(5) 0.19900(4) 0.19288(4)
W7 W 0.93406(5) 0.14790(4) 0.11881(4)
W8 W 0.48863(5) 0.41837(4) 0.15484(4)
W9 W 0.78582(6) 0.37196(4) 0.48572(4)
W10 W 0.78512(6) 0.17008(4) 0.52131(4)
W11 W 0.77670(6) 0.16826(4) -0.02605(4)
W12 W 0.56209(6) 0.29911(5) -0.00806(4)
W13 W 0.70767(5) 0.49001(4) 0.30933(4)
W14 W 0.93820(5) 0.34825(4) 0.08316(4)
W15 W 0.70470(6) 0.07072(4) 0.38220(4)
W16 W 0.49271(5) 0.41775(4) 0.36476(4)
W17 W 0.69898(6) 0.06970(4) 0.17459(4)
W18 W 0.70473(5) 0.48895(4) 0.10028(4)
P1 P 0.7130(3) 0.2801(3) 0.3521(3)
P2 P 0.7088(3) 0.2793(3) 0.1319(2)
O1 O 1.0391(10) 0.3999(8) 0.2833(8)
O2 O 0.8359(10) 0.4357(7) 0.2775(7)
O3 O 1.0061(10) 0.2426(8) 0.3131(8)
O4 O 0.9567(10) 0.3375(8) 0.1858(8)
O5 O 0.8913(9) 0.3506(8) 0.4012(8)
O6 O 0.8201(9) 0.2662(7) 0.3096(7)
O7 O 0.4808(11) 0.3114(9) 0.6207(8)
O8 O 0.6588(10) 0.2088(7) 0.5794(7)
O9 O 0.5233(9) 0.2291(8) 0.4880(8)
O10 O 0.6591(11) 0.3681(8) 0.5516(8)
O11 O 0.5259(10) 0.3827(7) 0.4624(7)
O12 O 0.7151(10) 0.2812(7) 0.4382(7)
O13 O 1.0350(11) 0.0738(8) 0.3402(9)
O14 O 0.8351(9) 0.0920(7) 0.3375(7)
O15 O 0.9567(10) 0.1568(8) 0.2189(8)
O16 O 0.8911(9) 0.1641(8) 0.4325(8)
O17 O 0.3751(10) 0.1768(8) 0.4438(7)
O18 O 0.4891(10) 0.1812(8) 0.3001(7)
O19 O 0.5667(10) 0.0955(7) 0.4204(7)
O20 O 0.4677(10) 0.3124(7) 0.3671(8)
O21 O 0.6585(9) 0.2107(7) 0.3492(7)
O22 O 0.8299(11) 0.4251(9) -0.1443(7)
O23 O 0.8192(10) 0.2635(8) -0.0908(7)
O24 O 0.7228(9) 0.4485(8) 0.0043(7)
O25 O 0.8869(10) 0.3473(8) -0.0078(8)
O26 O 0.6508(10) 0.3648(8) -0.0764(8)
O27 O 0.7082(9) 0.2778(8) 0.0436(7)
O28 O 0.3695(10) 0.1811(9) 0.1972(9)
O29 O 0.4658(10) 0.3121(7) 0.1970(8)
O30 O 0.5616(10) 0.0938(7) 0.1815(7)
O31 O 0.5179(10) 0.2288(8) 0.0813(7)
O32 O 0.6537(9) 0.2126(7) 0.1785(7)
O33 O 1.0299(11) 0.0742(8) 0.0951(8)
O34 O 0.8308(9) 0.0903(8) 0.1669(7)
O35 O 0.8813(10) 0.1607(9) 0.0272(8)
O36 O 1.0019(9) 0.2402(8) 0.0765(8)
O37 O 0.8165(9) 0.2644(8) 0.1400(7)
O38 O 0.3701(10) 0.4640(9) 0.1536(8)
O39 O 0.4935(10) 0.4362(8) 0.2556(9)
O40 O 0.5642(9) 0.5035(8) 0.1111(7)
O41 O 0.5197(9) 0.3804(7) 0.0555(8)
O42 O 0.6569(10) 0.3624(8) 0.1512(8)
O43 O 0.833(1) 0.4284(9) 0.5326(8)
O44 O 0.7269(9) 0.4500(7) 0.4136(7)
O45 O 0.8289(10) 0.2674(8) 0.5368(8)
O46 O 0.8331(11) 0.0965(9) 0.5902(8)
O47 O 0.8199(11) 0.0973(9) -0.0871(9)
O48 O 0.6487(11) 0.2056(8) -0.0476(8)
O49 O 0.7157(10) 0.1047(8) 0.0658(7)
O50 O 0.4699(11) 0.3083(9) -0.0568(9)
O51 O 0.7298(11) 0.5857(9) 0.3036(8)
O52 O 0.6842(10) 0.4985(8) 0.2091(8)
O53 O 0.568(1) 0.5046(8) 0.3466(8)
O54 O 0.6606(9) 0.3615(8) 0.3241(8)
O55 O 1.0345(10) 0.3985(8) 0.0386(8)
O56 O 0.8341(10) 0.4326(8) 0.1055(8)
O57 O 0.7209(12) -0.0297(8) 0.4161(8)
O58 O 0.6812(10) 0.0672(8) 0.2847(8)
O59 O 0.7257(9) 0.1076(8) 0.4722(7)
O60 O 0.3782(10) 0.4695(8) 0.3932(8)
O61 O 0.7157(10) -0.0310(8) 0.1698(8)
O62 O 0.7274(10) 0.5834(8) 0.0645(9)
Na1 Na 0.8007(6) 0.5567(5) 0.7787(5)
Na2 Na 0.7892(7) 0.5578(6) 0.5825(5)
O63 O 0.7307(13) 0.6490(9) 0.6785(9)
O64 O 0.9506(14) 0.577(2) 0.5445(14)
O65 O 0.7932(15) 0.6223(15) 0.8848(12)
C1 C 0.5989(16) 0.3274(14) 0.7569(13)
C2 C 0.6712(15) 0.3774(12) 0.7361(11)
H1 H 0.65510 0.43330 0.73290
C3 C 0.7729(16) 0.3380(13) 0.7199(15)
C4 C 0.7916(15) 0.2556(12) 0.7253(14)
H2 H 0.85630 0.23000 0.71200
C5 C 0.7151(19) 0.2087(12) 0.7507(17)
H3 H 0.72970 0.15260 0.75830
C6 C 0.6201(19) 0.2454(13) 0.7639(15)
H4 H 0.56930 0.21450 0.77780
C7 C 0.8487(17) 0.3904(12) 0.6990(13)
N1 N 0.4965(15) 0.3664(12) 0.7740(11)
H5 H 0.49450 0.41970 0.76810
H6 H 0.46940 0.34900 0.82260
H7 H 0.46320 0.35430 0.74170
O66 O 0.8336(12) 0.4633(9) 0.6896(8)
O67 O 0.9362(12) 0.3493(10) 0.6831(11)
H8 H 0.97730 0.38010 0.67180
H9 H 0.98140 0.61590 0.49530
H10 H 0.75630 0.68870 0.67870
Na3 Na 1.1969(7) 0.0312(6) 0.1189(6)
O68 O 1.1346(15) -0.0325(12) 0.2389(12)
C8 C 1.3407(19) 0.0168(13) 0.3717(14)
C9 C 1.3422(18) 0.0082(12) 0.2950(12)
H11 H 1.28840 0.03100 0.27200
C10 C 1.4222(16) -0.0333(13) 0.2550(14)
C11 C 1.5024(19) -0.0664(12) 0.2889(14)
H12 H 1.55630 -0.09770 0.26210
C12 C 1.5021(17) -0.0527(12) 0.3638(16)
H13 H 1.55860 -0.07140 0.38450
C13 C 1.4210(18) -0.0127(12) 0.4077(11)
H14 H 1.41960 -0.00560 0.45830
C14 C 1.4229(18) -0.0360(17) 0.1726(15)
N2 N 1.2539(16) 0.0605(13) 0.4160(13)
H15 H 1.26390 0.06130 0.46330
H16 H 1.20200 0.03610 0.41950
H17 H 1.24250 0.11100 0.39230
O69 O 1.5008(13) -0.0887(10) 0.1394(10)
H18 H 1.49790 -0.08840 0.09400
O70 O 1.3628(16) -0.0014(14) 0.1392(10)
O71 O 0.7470(16) 0.6155(17) 0.4576(11)
H19 H 0.72330 0.64100 0.48560
O72 O 1.1891(17) 0.1636(16) 0.1500(17)
H20 H 1.14320 0.18350 0.19030
H21 H 1.21810 0.17990 0.09870
O73 O 1.2918(17) 0.0621(14) -0.0116(13)
H22 H 1.32490 0.04580 -0.05730
O74 O 0.3661(16) 0.2536(13) 0.7758(12)
H23 H 0.32110 0.22530 0.80890
H24 H 0.34120 0.28280 0.82540
O75 O 0.0721(15) 0.4461(13) 0.6350(16)
H25 H 0.13960 0.42780 0.61980
O76 O 0.2015(16) 0.2036(15) 0.3221(15)
H26 H 0.13880 0.22350 0.29360
H27 H 0.16780 0.22260 0.37330
O77 O 0.0592(15) 0.0540(13) 0.5226(11)
H28 H 0.04030 0.11650 0.49250
O78 O 0.5074(18) 0.0820(12) 0.0064(13)
H29 H 0.53530 0.11090 0.03680
O79 O 0.9568(19) -0.4432(14) 0.149(2)
O80 O 0.2887(19) 0.2299(15) 0.9792(19)
O81 O 0.324(2) 0.2266(15) 0.6136(19)
O82 O 0.949(2) -0.244(2) 0.5079(15)
C15 C 0.8675(16) -0.2326(16) 0.1547(14)
C16 C 0.872(2) -0.2320(19) 0.2287(18)
H30 H 0.85070 -0.27240 0.26760
C17 C 0.911(2) -0.1690(16) 0.245(2)
C18 C 0.944(2) -0.1117(18) 0.1791(18)
H31 H 0.97280 -0.07000 0.18740
C19 C 0.935(2) -0.1144(18) 0.1072(17)
H32 H 0.95170 -0.07290 0.06750
C20 C 0.8997(19) -0.1834(18) 0.0918(19)
H33 H 0.89960 -0.19250 0.04200
C21 C 0.922(2) -0.160(2) 0.321(2)
N3 N 0.8256(18) -0.3043(16) 0.1394(16)
H34 H 0.80650 -0.33480 0.18420
H35 H 0.87200 -0.33370 0.10870
H36 H 0.77410 -0.28580 0.11660
O83 O 0.974(2) -0.1160(19) 0.3330(13)
O84 O 0.8804(16) -0.2108(14) 0.3744(14)
H37 H 0.88940 -0.20410 0.41650
O1A O 0.9609(10) 0.6001(8) 0.7167(8)
O22* O 0.8299(11) 0.4251(9) 0.8557(7)
O38A O 0.6299(10) 0.5360(9) 0.8464(8)
O47A O 1.1801(11) -0.0973(9) 0.0871(9)
O60A O 0.6218(10) 0.5305(8) 0.6068(8)
Na1* Na 0.8007(6) 0.5567(5) -0.2213(5)
Na1A Na 0.1993(6) 0.4433(5) 0.2213(5)
Na1A* Na 1.1993(6) 0.4433(5) 0.2213(5)
Na2A Na 0.2108(7) 0.4422(6) 0.4175(5)
Na3A Na 0.8031(7) -0.0312(6) -0.1189(6)
#END
