
#######################################################################
#
#                 Cambridge Crystallographic Data Centre
#                                CCDC
#
#######################################################################
#
# If this CIF has been generated from an entry in the Cambridge
# Structural Database, then it will include bibliographic, chemical,
# crystal, experimental, refinement or atomic coordinate data resulting
# from the CCDC's data processing and validation procedures.
#
#######################################################################

data_CSD_CIF_EJIPUL
_audit_creation_date 2020-12-21
_audit_creation_method CSD-ConQuest-V1
_database_code_CSD EJIPUL
_database_code_depnum_ccdc_archive 'CCDC 1955567'
_chemical_formula_sum 'C138 H95 N1 O47 Ti4 Zn5'
_chemical_formula_moiety
;
(C138 H85 O44 Ti4 Zn5 1-)n,3(H2 O1),H4 N1 1+
;
_journal_coden_Cambridge 1147
_journal_volume 20
_journal_year 2020
_journal_page_first 29
_journal_name_full 'Cryst.Growth Des. '
loop_
_publ_author_name
"Guang-Hui Chen"
"Hai-Zhen Li"
"Yan-Ping He"
"Shu-Hua Zhang"
"Xiaofeng Yi"
"Fu-Pei Liang"
"Lei Zhang"
"Jian Zhang"
_chemical_name_systematic
;
catena-[ammonium 
\D-hexakis(\m-4,4'-methylenebis(3-oxidonaphthalene-2-carboxylato))-tris(\m-hyd
roxido)-penta-aqua-tetra-titanium(iv)-penta-zinc(ii) unknown solvate 
trihydrate]
;
_cell_volume  16526.619
_exptl_crystal_colour 'red'
_exptl_crystal_description 'dodecahedron'
_diffrn_ambient_temperature 100
_refine_special_details
;
Disordered cation (ammonium) and solvent molecules were not modelled and the 
disordered density was taken into account using the SQUEEZE/PLATON procedure.
;
#These two values have been output from a single CSD field.
_refine_ls_R_factor_gt 0.0898
_refine_ls_wR_factor_gt 0.0898
_symmetry_cell_setting cubic
_symmetry_space_group_name_H-M 'P 21 3'
_symmetry_Int_Tables_number 198
loop_
_symmetry_equiv_pos_site_id
_symmetry_equiv_pos_as_xyz
1 x,y,z
2 1/2-x,-y,1/2+z
3 1/2+x,1/2-y,-z
4 z,x,y
5 -x,1/2+y,1/2-z
6 1/2+z,1/2-x,-y
7 1/2-z,-x,1/2+y
8 -z,1/2+x,1/2-y
9 y,z,x
10 -y,1/2+z,1/2-x
11 1/2-y,-z,1/2+x
12 1/2+y,1/2-z,-x
_cell_length_a 25.4719(3)
_cell_length_b 25.4719(3)
_cell_length_c 25.4719(3)
_cell_angle_alpha 90
_cell_angle_beta 90
_cell_angle_gamma 90
_cell_formula_units_Z 4
loop_
_atom_type_symbol
_atom_type_radius_bond
C 0.68
H 0.23
O 0.68
Ti 1.60
Zn 1.22
loop_
_atom_site_label
_atom_site_type_symbol
_atom_site_fract_x
_atom_site_fract_y
_atom_site_fract_z
Zn1 Zn 0.62950(11) 0.62950(11) 0.62950(11)
Zn2 Zn 0.19981(11) 0.66908(13) 0.35084(12)
Zn3 Zn 0.24946(17) 0.75054(17) 0.25054(17)
Ti1 Ti 0.52514(13) 0.75450(13) 0.69073(13)
Ti2 Ti 0.19746(14) 0.69746(14) 0.80254(14)
O1 O 0.4931(4) 0.7622(5) 0.6255(5)
O2 O 0.5908(4) 0.7814(5) 0.6550(5)
O3 O 0.2529(5) 0.7484(5) 0.4245(4)
O4 O 0.3198(4) 0.7816(5) 0.4938(4)
O5 O 0.6428(5) 0.8207(5) 0.5968(5)
O6 O 0.5665(5) 0.5999(5) 0.6640(5)
O7 O 0.5555(5) 0.6846(5) 0.6753(5)
O8 O 0.4711(4) 0.7174(4) 0.7219(4)
O9 O 0.2008(6) 0.6850(6) 0.8813(6)
O10 O 0.2681(5) 0.6729(6) 0.3859(6)
O11 O 0.2697(5) 0.6930(5) 0.8045(5)
C1 C 0.5039(8) 0.7870(7) 0.5792(7)
C2 C 0.5999(8) 0.8018(8) 0.6094(8)
C3 C 0.2826(8) 0.7083(10) 0.4186(8)
C4 C 0.4629(6) 0.7928(7) 0.5462(7)
C5 C 0.4850(8) 0.6240(8) 0.7031(8)
C6 C 0.4102(7) 0.7714(7) 0.5548(7)
H1 H 0.38550 0.80040 0.55300
H2 H 0.40890 0.75780 0.59040
C7 C 0.3708(8) 0.7002(7) 0.7669(7)
H3 H 0.38830 0.73330 0.76020
H4 H 0.33740 0.70040 0.74860
C8 C 0.5390(8) 0.6385(10) 0.6800(7)
C9 C 0.3613(8) 0.6942(7) 0.8252(9)
C10 C 0.5559(7) 0.8059(7) 0.5688(8)
C11 C 0.3907(7) 0.7296(8) 0.5194(7)
C12 C 0.3450(8) 0.7385(8) 0.4896(7)
C13 C 0.4742(7) 0.8250(9) 0.4971(8)
C14 C 0.4546(8) 0.6674(9) 0.7238(8)
O12 O 0.2311(7) 0.6730(9) 0.9617(7)
C15 C 0.3052(10) 0.6908(8) 0.8415(9)
C16 C 0.3341(8) 0.5889(8) 0.7615(8)
H5 H 0.31070 0.61480 0.77220
C17 C 0.4569(8) 0.6635(8) 0.5474(8)
H6 H 0.46920 0.68800 0.57140
C18 C 0.3270(8) 0.7000(8) 0.4493(8)
C19 C 0.4334(8) 0.8380(9) 0.4627(8)
H7 H 0.39990 0.82510 0.46910
C20 C 0.5652(7) 0.8307(8) 0.5238(8)
H8 H 0.59910 0.84270 0.51730
C21 C 0.4049(8) 0.6547(7) 0.7462(8)
O13 O 0.1981(6) 0.7086(7) 0.2901(6)
C22 C 0.4174(8) 0.6779(8) 0.5165(8)
C23 C 0.3886(7) 0.6034(8) 0.7466(8)
C24 C 0.4188(8) 0.5624(9) 0.7265(8)
C25 C 0.2952(9) 0.6838(8) 0.8979(9)
C26 C 0.3349(12) 0.6811(10) 0.9320(9)
H9 H 0.32710 0.67650 0.96740
C27 C 0.5263(7) 0.8396(9) 0.4858(9)
C28 C 0.4697(10) 0.5753(7) 0.7053(8)
H10 H 0.49170 0.54880 0.69310
O14 O 0.6744(6) 0.6744(6) 0.6744(6)
C29 C 0.3975(10) 0.6416(10) 0.4768(10)
C30 C 0.4416(8) 0.8693(10) 0.4195(9)
H11 H 0.41360 0.88210 0.39980
C31 C 0.3181(9) 0.5371(9) 0.7596(10)
H12 H 0.28410 0.52820 0.76910
C32 C 0.3880(6) 0.6848(6) 0.9171(5)
C33 C 0.4256(7) 0.6813(6) 0.9554(5)
H13 H 0.41580 0.67520 0.99010
C34 C 0.4774(7) 0.6868(6) 0.9427(6)
H14 H 0.50300 0.68440 0.96860
C35 C 0.4917(6) 0.6958(6) 0.8917(6)
H15 H 0.52700 0.69960 0.88310
C36 C 0.4543(5) 0.6994(5) 0.8535(6)
H16 H 0.46400 0.70550 0.81890
C37 C 0.4024(5) 0.6939(6) 0.8662(5)
O15 O 0.2060(9) 0.5915(9) 0.3333(9)
H17 H 0.18600 0.56420 0.35620
H18 H 0.24220 0.57370 0.33770
C38 C 0.5363(10) 0.8674(12) 0.4388(11)
H19 H 0.57070 0.87610 0.43000
C39 C 0.3551(10) 0.6557(11) 0.4415(11)
H20 H 0.34720 0.63410 0.41320
C40 C 0.2384(12) 0.6801(9) 0.9136(13)
C41 C 0.4023(11) 0.5089(8) 0.727(1)
H21 H 0.42470 0.48220 0.71630
C42 C 0.4958(9) 0.8817(11) 0.4057(9)
H22 H 0.50310 0.89920 0.37460
C43 C 0.3529(10) 0.4983(9) 0.7433(10)
H23 H 0.34180 0.46350 0.74380
C44 C 0.4803(10) 0.6162(10) 0.5466(10)
H24 H 0.50420 0.60680 0.57250
C45 C 0.4251(13) 0.5963(13) 0.4739(13)
H25 H 0.41480 0.57240 0.44830
C46 C 0.4679(19) 0.582(2) 0.5060(19)
H26 H 0.48670 0.55110 0.50040
O16 O 0.2883(9) 0.7117(9) 0.2117(9)
O17 O 0.2775(10) 0.5609(10) 0.2448(10)
H27? H 0.22470 0.82360 0.26500
H28? H 0.18120 0.76670 0.27340
H29? H 0.70070 0.65680 0.68960
H30? H 0.65720 0.68680 0.70290
Zn2C Zn 0.35084(11) 0.19981(13) 0.66908(12)
Ti1C Ti 0.69073(13) 0.52514(13) 0.75450(13)
O1C O 0.6255(4) 0.4931(5) 0.7622(5)
O2C O 0.6550(4) 0.5908(5) 0.7814(5)
O3C O 0.4245(5) 0.2529(5) 0.7484(4)
O4C O 0.4938(4) 0.3198(5) 0.7816(4)
O5C O 0.5968(5) 0.6428(5) 0.8207(5)
O6C O 0.6640(5) 0.5665(5) 0.5999(5)
O7C O 0.6753(5) 0.5555(5) 0.6846(5)
O8C O 0.7219(4) 0.4711(4) 0.7174(4)
O9C O 0.8813(6) 0.2008(6) 0.6850(6)
O10C O 0.3859(5) 0.2681(6) 0.6729(6)
O11C O 0.8045(5) 0.2697(5) 0.6930(5)
C1C C 0.5792(8) 0.5039(7) 0.7870(7)
C2C C 0.6094(8) 0.5999(8) 0.8018(8)
C3C C 0.4186(8) 0.2826(10) 0.7083(8)
C4C C 0.5462(6) 0.4629(7) 0.7928(7)
C5C C 0.7031(8) 0.4850(8) 0.6240(8)
C6C C 0.5548(7) 0.4102(7) 0.7714(7)
H1C H 0.55300 0.38550 0.80040
H2C H 0.59040 0.40890 0.75780
C7C C 0.7669(8) 0.3708(7) 0.7002(7)
H3C H 0.76020 0.38830 0.73330
H4C H 0.74860 0.33740 0.70040
C8C C 0.6800(8) 0.539(1) 0.6385(7)
C9C C 0.8252(8) 0.3613(7) 0.6942(9)
C10C C 0.5688(7) 0.5559(7) 0.8059(8)
C11C C 0.5194(7) 0.3907(8) 0.7296(7)
C12C C 0.4896(8) 0.3450(8) 0.7385(7)
C13C C 0.4971(7) 0.4742(9) 0.8250(8)
C14C C 0.7238(8) 0.4546(9) 0.6674(8)
O12C O 0.9617(7) 0.2311(9) 0.6730(7)
C15C C 0.8415(10) 0.3052(8) 0.6908(9)
C16C C 0.7615(8) 0.3341(8) 0.5889(8)
H5C H 0.77220 0.31070 0.61480
C17C C 0.5474(8) 0.4569(8) 0.6635(8)
H6C H 0.57140 0.46920 0.68800
C18C C 0.4493(8) 0.3270(8) 0.7000(8)
C19C C 0.4627(8) 0.4334(9) 0.8380(8)
H7C H 0.46910 0.39990 0.82510
C20C C 0.5238(7) 0.5652(8) 0.8307(8)
H8C H 0.51730 0.59910 0.84270
C21C C 0.7462(8) 0.4049(7) 0.6547(8)
O13C O 0.2901(6) 0.1981(7) 0.7086(6)
C22C C 0.5165(8) 0.4174(8) 0.6779(8)
C23C C 0.7466(7) 0.3886(8) 0.6034(8)
C24C C 0.7265(8) 0.4188(9) 0.5624(8)
C25C C 0.8979(9) 0.2952(8) 0.6838(9)
C26C C 0.9320(12) 0.3349(10) 0.6811(9)
H9C H 0.96740 0.32710 0.67650
C27C C 0.4858(7) 0.5263(9) 0.8396(9)
C28C C 0.7053(10) 0.4697(7) 0.5753(8)
H10C H 0.69310 0.49170 0.54880
C29C C 0.4768(10) 0.3975(10) 0.6416(10)
C30C C 0.4195(8) 0.4416(10) 0.8693(9)
H11C H 0.39980 0.41360 0.88210
C31C C 0.7596(9) 0.3181(9) 0.5371(10)
H12C H 0.76910 0.28410 0.52820
C32C C 0.9171(6) 0.3880(6) 0.6848(5)
C33C C 0.9554(7) 0.4256(6) 0.6813(5)
H13C H 0.99010 0.41580 0.67520
C34C C 0.9427(7) 0.4774(6) 0.6868(6)
H14C H 0.96860 0.50300 0.68440
C35C C 0.8917(6) 0.4917(6) 0.6958(6)
H15C H 0.88310 0.52700 0.69960
C36C C 0.8535(5) 0.4543(5) 0.6994(6)
H16C H 0.81890 0.46400 0.70550
C37C C 0.8662(5) 0.4024(6) 0.6939(5)
O15C O 0.3333(9) 0.2060(9) 0.5915(9)
H17C H 0.35620 0.18600 0.56420
H18C H 0.33770 0.24220 0.57370
C38C C 0.4388(10) 0.5363(12) 0.8674(11)
H19C H 0.43000 0.57070 0.87610
C39C C 0.4415(10) 0.3551(11) 0.6557(11)
H20C H 0.41320 0.34720 0.63410
C40C C 0.9136(12) 0.2384(9) 0.6801(13)
C41C C 0.7270(11) 0.4023(8) 0.5089(10)
H21C H 0.71630 0.42470 0.48220
C42C C 0.4057(9) 0.4958(11) 0.8817(9)
H22C H 0.37460 0.50310 0.89920
C43C C 0.7433(10) 0.3529(9) 0.4983(10)
H23C H 0.74380 0.34180 0.46350
C44C C 0.5466(10) 0.4803(10) 0.6162(10)
H24C H 0.57250 0.50420 0.60680
C45C C 0.4739(13) 0.4251(13) 0.5963(13)
H25C H 0.44830 0.41480 0.57240
C46C C 0.5060(19) 0.4679(20) 0.5820(19)
H26C H 0.50040 0.48670 0.55110
Zn2H Zn 0.66908(11) 0.35084(13) 0.19981(12)
Ti1H Ti 0.75450(13) 0.69073(13) 0.52514(13)
O1H O 0.7622(4) 0.6255(5) 0.4931(5)
O2H O 0.7814(4) 0.6550(5) 0.5908(5)
O3H O 0.7484(5) 0.4245(5) 0.2529(4)
O4H O 0.7816(4) 0.4938(5) 0.3198(4)
O5H O 0.8207(5) 0.5968(5) 0.6428(5)
O6H O 0.5999(5) 0.6640(5) 0.5665(5)
O7H O 0.6846(5) 0.6753(5) 0.5555(5)
O8H O 0.7174(4) 0.7219(4) 0.4711(4)
O9H O 0.6850(6) 0.8813(6) 0.2008(6)
O10H O 0.6729(5) 0.3859(6) 0.2681(6)
O11H O 0.6930(5) 0.8045(5) 0.2697(5)
C1H C 0.7870(8) 0.5792(7) 0.5039(7)
C2H C 0.8018(8) 0.6094(8) 0.5999(8)
C3H C 0.7083(8) 0.4186(10) 0.2826(8)
C4H C 0.7928(6) 0.5462(7) 0.4629(7)
C5H C 0.6240(8) 0.7031(8) 0.4850(8)
C6H C 0.7714(7) 0.5548(7) 0.4102(7)
H1H H 0.80040 0.55300 0.38550
H2H H 0.75780 0.59040 0.40890
C7H C 0.7002(8) 0.7669(7) 0.3708(7)
H3H H 0.73330 0.76020 0.38830
H4H H 0.70040 0.74860 0.33740
C8H C 0.6385(8) 0.680(1) 0.5390(7)
C9H C 0.6942(8) 0.8252(7) 0.3613(9)
C10H C 0.8059(7) 0.5688(7) 0.5559(8)
C11H C 0.7296(7) 0.5194(8) 0.3907(7)
C12H C 0.7385(8) 0.4896(8) 0.3450(7)
C13H C 0.8250(7) 0.4971(9) 0.4742(8)
C14H C 0.6674(8) 0.7238(9) 0.4546(8)
O12H O 0.6730(7) 0.9617(9) 0.2311(7)
C15H C 0.6908(10) 0.8415(8) 0.3052(9)
C16H C 0.5889(8) 0.7615(8) 0.3341(8)
H5H H 0.61480 0.77220 0.31070
C17H C 0.6635(8) 0.5474(8) 0.4569(8)
H6H H 0.68800 0.57140 0.46920
C18H C 0.7000(8) 0.4493(8) 0.3270(8)
C19H C 0.8380(8) 0.4627(9) 0.4334(8)
H7H H 0.82510 0.46910 0.39990
C20H C 0.8307(7) 0.5238(8) 0.5652(8)
H8H H 0.84270 0.51730 0.59910
C21H C 0.6547(8) 0.7462(7) 0.4049(8)
O13H O 0.7086(6) 0.2901(7) 0.1981(6)
C22H C 0.6779(8) 0.5165(8) 0.4174(8)
C23H C 0.6034(7) 0.7466(8) 0.3886(8)
C24H C 0.5624(8) 0.7265(9) 0.4188(8)
C25H C 0.6838(9) 0.8979(8) 0.2952(9)
C26H C 0.6811(12) 0.932(1) 0.3349(9)
H9H H 0.67650 0.96740 0.32710
C27H C 0.8396(7) 0.4858(9) 0.5263(9)
C28H C 0.5753(10) 0.7053(7) 0.4697(8)
H10H H 0.54880 0.69310 0.49170
C29H C 0.6416(10) 0.4768(10) 0.3975(10)
C30H C 0.8693(8) 0.4195(10) 0.4416(9)
H11H H 0.88210 0.39980 0.41360
C31H C 0.5371(9) 0.7596(9) 0.3181(10)
H12H H 0.52820 0.76910 0.28410
C32H C 0.6848(6) 0.9171(6) 0.3880(5)
C33H C 0.6813(7) 0.9554(6) 0.4256(5)
H13H H 0.67520 0.99010 0.41580
C34H C 0.6868(7) 0.9427(6) 0.4774(6)
H14H H 0.68440 0.96860 0.50300
C35H C 0.6958(6) 0.8917(6) 0.4917(6)
H15H H 0.69960 0.88310 0.52700
C36H C 0.6994(5) 0.8535(5) 0.4543(6)
H16H H 0.70550 0.81890 0.46400
C37H C 0.6939(5) 0.8662(6) 0.4024(5)
O15H O 0.5915(9) 0.3333(9) 0.2060(9)
H17H H 0.56420 0.35620 0.18600
H18H H 0.57370 0.33770 0.24220
C38H C 0.8674(10) 0.4388(12) 0.5363(11)
H19H H 0.87610 0.43000 0.57070
C39H C 0.6557(10) 0.4415(11) 0.3551(11)
H20H H 0.63410 0.41320 0.34720
C40H C 0.6801(12) 0.9136(9) 0.2384(13)
C41H C 0.5089(11) 0.7270(8) 0.4023(10)
H21H H 0.48220 0.71630 0.42470
C42H C 0.8817(9) 0.4057(11) 0.4958(9)
H22H H 0.89920 0.37460 0.50310
C43H C 0.4983(10) 0.7433(9) 0.3529(10)
H23H H 0.46350 0.74380 0.34180
C44H C 0.6162(10) 0.5466(10) 0.4803(10)
H24H H 0.60680 0.57250 0.50420
C45H C 0.5963(13) 0.4739(13) 0.4251(13)
H25H H 0.57240 0.44830 0.41480
C46H C 0.5820(19) 0.506(2) 0.4679(19)
H26H H 0.55110 0.50040 0.48670
Zn2B Zn 0.69981(11) 0.83092(13) 0.64916(12)
Zn2G Zn 0.64916(11) 0.69981(13) 0.83092(12)
Zn2J Zn 0.83092(11) 0.64916(13) 0.69981(12)
Zn3A Zn 0.25054(17) 0.24946(17) 0.75054(17)
Zn3D Zn 0.75054(17) 0.25054(17) 0.24946(17)
Ti1D Ti 0.47486(13) 0.25450(13) 0.80927(13)
Ti1F Ti 0.80927(13) 0.47486(13) 0.25450(13)
Ti1K Ti 0.25450(13) 0.80927(13) 0.47486(13)
Ti2B Ti 0.69746(14) 0.80254(14) 0.19746(14)
Ti2C Ti 0.80254(14) 0.19746(14) 0.69746(14)
O3B O 0.7529(5) 0.7516(5) 0.5755(4)
O3G O 0.5755(5) 0.7529(5) 0.7516(4)
O3J O 0.7516(5) 0.5755(5) 0.7529(4)
O4B O 0.8198(4) 0.7184(5) 0.5062(4)
O4G O 0.5062(4) 0.8198(5) 0.7184(4)
O4J O 0.7184(4) 0.5062(5) 0.8198(4)
O5B O 0.1428(5) 0.6793(5) 0.4032(5)
O5G O 0.4032(5) 0.1428(5) 0.6793(5)
O5J O 0.6793(5) 0.4032(5) 0.1428(5)
O9G O 0.1187(6) 0.7008(6) 0.8150(6)
O9K O 0.1850(6) 0.6187(6) 0.7992(6)
O11G O 0.1955(5) 0.7697(5) 0.8070(5)
O11K O 0.1930(5) 0.6955(5) 0.7303(5)
O13F O 0.2099(6) 0.8019(7) 0.2086(6)
O13I O 0.2914(6) 0.7901(7) 0.3019(6)
#END
