
#######################################################################
#
#                 Cambridge Crystallographic Data Centre
#                                CCDC
#
#######################################################################
#
# If this CIF has been generated from an entry in the Cambridge
# Structural Database, then it will include bibliographic, chemical,
# crystal, experimental, refinement or atomic coordinate data resulting
# from the CCDC's data processing and validation procedures.
#
#######################################################################

data_CSD_CIF_EJIQIZ
_audit_creation_date 2016-03-22
_audit_creation_method CSD-ConQuest-V1
_database_code_CSD EJIQIZ
_database_code_depnum_ccdc_archive 'CCDC 1046524'
_chemical_formula_sum 'C54.5 H40.5 N4.5 O16 Zn3'
_chemical_formula_moiety
;
(C51 H28 N3 O13 Zn3 1-)n,n(H3 O1 1+),1.5n(H2 O1),0.5n(C3 H7 N1 O1),n(C2 H3 N1)
;
_journal_coden_Cambridge 1490
_journal_volume 7
_journal_year 2016
_journal_page_first 11087
_journal_name_full 'Nat.Commun. '
loop_
_publ_author_name
"Huajun He"
"En Ma"
"Yuanjing Cui"
"Jiancan Yu"
"Yu Yang"
"Tao Song"
"Chuan-De Wu"
"Xueyuan Chen"
"Banglin Chen"
"Guodong Qian"
_chemical_name_systematic
;
catena-(Oxonium 
tris(\m~5~-7-(4-carboxylatophenyl)quinoline-3-carboxylato)-(\m~3~-hydroxo)-tri
-zinc acetonitrile dimethylformamide solvate sesquihydrate)
;
_chemical_name_common
;
ZJU-68
;
_cell_volume   2403.909
_exptl_crystal_colour 'colorless'
_exptl_special_details
;
According to the paper, there are two protons associated with the structure. 
We have assigned one of these to the hydroxo of the anion and the other to an 
oxonium cation
;
_exptl_crystal_description 'block'
_diffrn_ambient_temperature 296
_refine_special_details
;
The SQUEEZE/PLATON program was used to model the cation and solvent 
;
#These two values have been output from a single CSD field.
_refine_ls_R_factor_gt 0.0567
_refine_ls_wR_factor_gt 0.0567
_symmetry_cell_setting hexagonal
_symmetry_space_group_name_H-M 'P -3'
_symmetry_Int_Tables_number 147
loop_
_symmetry_equiv_pos_site_id
_symmetry_equiv_pos_as_xyz
1 x,y,z
2 -y,x-y,z
3 -x+y,-x,z
4 -x,-y,-z
5 y,-x+y,-z
6 x-y,x,-z
_cell_length_a 13.0500(2)
_cell_length_b 13.0500(2)
_cell_length_c 16.2992(7)
_cell_angle_alpha 90
_cell_angle_beta 90
_cell_angle_gamma 120
_cell_formula_units_Z 2
loop_
_atom_type_symbol
_atom_type_radius_bond
C 0.68
H 0.23
N 0.68
O 0.68
Zn 1.22
loop_
_atom_site_label
_atom_site_type_symbol
_atom_site_fract_x
_atom_site_fract_y
_atom_site_fract_z
Zn1 Zn 0.62473(7) 0.15379(7) 0.17710(5)
O1 O 0.4778(4) 0.1100(4) 0.0937(3)
O2 O 0.4805(5) 0.2803(5) 0.0734(3)
O3 O 0.4296(4) 0.2328(4) -0.7404(3)
O4 O 0.5311(4) 0.1365(4) -0.7212(3)
O5 O 0.66670 0.33330 0.1804(5)
N1 N 0.4160(5) 0.0268(5) -0.1565(3)
C1 C 0.4689(7) 0.1827(7) 0.0507(4)
C2 C 0.4413(6) 0.1577(6) -0.0409(4)
C3 C 0.4294(7) 0.2349(7) -0.0918(4)
H1 H 0.43070 0.30150 -0.07020
C4 C 0.4153(7) 0.2132(6) -0.1765(4)
C5 C 0.4052(7) 0.2901(7) -0.2323(4)
H2 H 0.40310 0.35590 -0.21260
C6 C 0.3982(8) 0.2699(7) -0.3148(4)
H3 H 0.39010 0.32120 -0.35020
C7 C 0.4032(6) 0.1726(6) -0.3470(4)
C8 C 0.4103(6) 0.0921(6) -0.2939(4)
H4 H 0.41400 0.02780 -0.31510
C9 C 0.4120(6) 0.1085(6) -0.2076(4)
C10 C 0.4286(6) 0.0524(6) -0.0757(4)
H5 H 0.42900 -0.00310 -0.04020
C11 C 0.4117(7) 0.1639(6) -0.4373(4)
C12 C 0.3450(7) 0.1921(7) -0.4895(4)
H6 H 0.28940 0.20930 -0.46790
C13 C 0.3612(6) 0.1945(6) -0.5729(4)
H7 H 0.31660 0.21380 -0.60740
C14 C 0.4440(6) 0.1682(6) -0.6063(4)
C15 C 0.5092(6) 0.1397(6) -0.5541(4)
H8 H 0.56560 0.12340 -0.57570
C16 C 0.4922(7) 0.1349(6) -0.4718(4)
H9 H 0.53460 0.11210 -0.43780
C17 C 0.4695(6) 0.1789(6) -0.6970(4)
Zn1A Zn 0.84621(7) 0.47094(7) 0.17710(5)
O1A O 0.8900(4) 0.3678(4) 0.0937(3)
O2A O 0.7197(5) 0.2002(5) 0.0734(3)
O3A O 0.7672(4) 0.1968(4) -0.7404(3)
O4A O 0.8635(4) 0.3946(4) -0.7212(3)
N1A N 0.9732(5) 0.3892(5) -0.1565(3)
C1A C 0.8173(7) 0.2862(7) 0.0507(4)
C2A C 0.8423(6) 0.2836(6) -0.0409(4)
C3A C 0.7651(7) 0.1945(7) -0.0918(4)
H1A H 0.69850 0.12920 -0.07020
C4A C 0.7868(7) 0.2021(6) -0.1765(4)
C5A C 0.7099(7) 0.1151(7) -0.2323(4)
H2A H 0.64410 0.04720 -0.21260
C6A C 0.7301(8) 0.1283(7) -0.3148(4)
H3A H 0.67880 0.06890 -0.35020
C7A C 0.8274(6) 0.2306(6) -0.3470(4)
C8A C 0.9079(6) 0.3182(6) -0.2939(4)
H4A H 0.97220 0.38620 -0.31510
C9A C 0.8915(6) 0.3035(6) -0.2076(4)
C10A C 0.9476(6) 0.3762(6) -0.0757(4)
H5A H 1.00310 0.43210 -0.04020
C11A C 0.8361(7) 0.2478(6) -0.4373(4)
C12A C 0.8079(7) 0.1529(7) -0.4895(4)
H6A H 0.79070 0.08010 -0.46790
C13A C 0.8055(6) 0.1667(6) -0.5729(4)
H7A H 0.78620 0.10280 -0.60740
C14A C 0.8318(6) 0.2758(6) -0.6063(4)
C15A C 0.8603(6) 0.3695(6) -0.5541(4)
H8A H 0.87660 0.44220 -0.57570
C16A C 0.8651(7) 0.3573(6) -0.4718(4)
H9A H 0.88790 0.42250 -0.43780
C17A C 0.8211(6) 0.2906(6) -0.6970(4)
Zn1B Zn 0.52906(7) 0.37527(7) 0.17710(5)
O1B O 0.6322(4) 0.5222(4) 0.0937(3)
O2B O 0.7998(5) 0.5195(5) 0.0734(3)
O3B O 0.8032(4) 0.5704(4) -0.7404(3)
O4B O 0.6054(4) 0.4689(4) -0.7212(3)
N1B N 0.6108(5) 0.5840(5) -0.1565(3)
C1B C 0.7138(7) 0.5311(7) 0.0507(4)
C2B C 0.7164(6) 0.5587(6) -0.0409(4)
C3B C 0.8055(7) 0.5706(7) -0.0918(4)
H1B H 0.87080 0.56930 -0.07020
C4B C 0.7979(7) 0.5847(6) -0.1765(4)
C5B C 0.8849(7) 0.5948(7) -0.2323(4)
H2B H 0.95280 0.59690 -0.21260
C6B C 0.8717(8) 0.6018(7) -0.3148(4)
H3B H 0.93110 0.60990 -0.35020
C7B C 0.7694(6) 0.5968(6) -0.3470(4)
C8B C 0.6818(6) 0.5897(6) -0.2939(4)
H4B H 0.61380 0.58600 -0.31510
C9B C 0.6965(6) 0.5880(6) -0.2076(4)
C10B C 0.6238(6) 0.5714(6) -0.0757(4)
H5B H 0.56790 0.57100 -0.04020
C11B C 0.7522(7) 0.5883(6) -0.4373(4)
C12B C 0.8471(7) 0.6550(7) -0.4895(4)
H6B H 0.91990 0.71060 -0.46790
C13B C 0.8333(6) 0.6388(6) -0.5729(4)
H7B H 0.89720 0.68340 -0.60740
C14B C 0.7242(6) 0.5560(6) -0.6063(4)
C15B C 0.6305(6) 0.4908(6) -0.5541(4)
H8B H 0.55780 0.43440 -0.57570
C16B C 0.6427(7) 0.5078(6) -0.4718(4)
H9B H 0.57750 0.46540 -0.43780
C17B C 0.7094(6) 0.5305(6) -0.6970(4)
Zn1* Zn 0.62473(7) 0.15379(7) -0.82290(5)
Zn1A* Zn 0.84621(7) 0.47094(7) -0.82290(5)
Zn1B* Zn 0.52906(7) 0.37527(7) -0.82290(5)
Zn1C Zn 0.37527(7) -0.15379(7) -0.17710(5)
Zn1D Zn 1.15379(7) 0.52906(7) -0.17710(5)
Zn1E Zn 0.47094(7) 0.62473(7) -0.17710(5)
O3* O 0.4296(4) 0.2328(4) 0.2596(3)
O3A* O 0.7672(4) 0.1968(4) 0.2596(3)
O3B* O 0.8032(4) 0.5704(4) 0.2596(3)
O4* O 0.5311(4) 0.1365(4) 0.2788(3)
O4A* O 0.8635(4) 0.3946(4) 0.2788(3)
O4B* O 0.6054(4) 0.4689(4) 0.2788(3)
N1C N 0.5840(5) -0.0268(5) 0.1565(3)
N1D N 1.0268(5) 0.6108(5) 0.1565(3)
N1E N 0.3892(5) 0.4160(5) 0.1565(3)
#END
