
#######################################################################
#
#                 Cambridge Crystallographic Data Centre
#                                CCDC
#
#######################################################################
#
# If this CIF has been generated from an entry in the Cambridge
# Structural Database, then it will include bibliographic, chemical,
# crystal, experimental, refinement or atomic coordinate data resulting
# from the CCDC's data processing and validation procedures.
#
#######################################################################

data_CSD_CIF_EJIQAS
_audit_creation_date 2020-12-21
_audit_creation_method CSD-ConQuest-V1
_database_code_CSD EJIQAS
_database_code_depnum_ccdc_archive 'CCDC 1955568'
_chemical_formula_sum 'C147 H110 N4 O47 Ti4 Zn5'
_chemical_formula_moiety
;
(C138 H85 O44 Ti4 Zn5 1-)n,3(C3 H7 N1 O1),H4 N1 1+
;
_journal_coden_Cambridge 1147
_journal_volume 20
_journal_year 2020
_journal_page_first 29
_journal_name_full 'Cryst.Growth Des. '
loop_
_publ_author_name
"Guang-Hui Chen"
"Hai-Zhen Li"
"Yan-Ping He"
"Shu-Hua Zhang"
"Xiaofeng Yi"
"Fu-Pei Liang"
"Lei Zhang"
"Jian Zhang"
_chemical_name_systematic
;
catena-[ammonium 
\L-hexakis(\m-4,4'-methylenebis(3-oxidonaphthalene-2-carboxylato))-tris(\m-hyd
roxido)-penta-aqua-tetra-titanium(iv)-penta-zinc(ii) N,N-dimethylformamide 
unknown solvate]
;
_cell_volume  16729.486
_exptl_crystal_colour 'red'
_exptl_crystal_description 'block'
_diffrn_ambient_temperature 100
_diffrn_special_details
;
twin

;
_refine_special_details
;
Disordered cation (ammonium) and solvent molecules were not modelled and the 
disordered density was taken into account using the SQUEEZE/PLATON procedure.
;
#These two values have been output from a single CSD field.
_refine_ls_R_factor_gt 0.0754
_refine_ls_wR_factor_gt 0.0754
_symmetry_cell_setting cubic
_symmetry_space_group_name_H-M 'P 21 3'
_symmetry_Int_Tables_number 198
loop_
_symmetry_equiv_pos_site_id
_symmetry_equiv_pos_as_xyz
1 x,y,z
2 1/2-x,-y,1/2+z
3 -x,1/2+y,1/2-z
4 1/2+x,1/2-y,-z
5 z,x,y
6 1/2+z,1/2-x,-y
7 1/2-z,-x,1/2+y
8 -z,1/2+x,1/2-y
9 y,z,x
10 -y,1/2+z,1/2-x
11 1/2+y,1/2-z,-x
12 1/2-y,-z,1/2+x
_cell_length_a 25.5757(1)
_cell_length_b 25.5757(1)
_cell_length_c 25.5757(1)
_cell_angle_alpha 90
_cell_angle_beta 90
_cell_angle_gamma 90
_cell_formula_units_Z 4
loop_
_atom_type_symbol
_atom_type_radius_bond
C 0.68
H 0.23
N 0.68
O 0.68
Ti 1.60
Zn 1.22
loop_
_atom_site_label
_atom_site_type_symbol
_atom_site_fract_x
_atom_site_fract_y
_atom_site_fract_z
Zn1 Zn 0.11938(5) 0.38062(5) 0.61938(5)
Ti1 Ti 0.22476(5) 0.43972(5) 0.49440(5)
Zn2 Zn 0.54985(5) 0.10214(6) 0.57929(7)
Ti2 Ti 0.55007(5) 0.55007(5) 0.55007(5)
Zn3 Zn 0.50270(11) 0.00270(11) 0.49730(11)
O1 O 0.25614(19) 0.37483(19) 0.4860(2)
O2 O 0.4301(2) 0.2435(2) 0.4661(2)
O3 O 0.1945(2) 0.4246(2) 0.56522(19)
O4 O 0.2783(2) 0.47088(19) 0.53129(18)
O5 O 0.4965(2) 0.1735(2) 0.5013(2)
O6 O 0.4781(2) 0.5549(2) 0.5523(2)
O7 O 0.1592(2) 0.4029(2) 0.4677(2)
O8 O 0.1075(2) 0.3455(2) 0.4309(3)
O9 O 0.1836(2) 0.4142(2) 0.6492(2)
O10 O 0.5479(2) 0.6288(2) 0.5605(3)
O11 O 0.4807(3) 0.1347(3) 0.5754(3)
C1 C 0.2463(3) 0.3306(3) 0.4615(3)
C2 C 0.3606(3) 0.4978(3) 0.6457(3)
C3 C 0.3575(3) 0.2665(3) 0.5188(3)
C4 C 0.4023(3) 0.2366(3) 0.5098(3)
C5 C 0.2627(3) 0.4550(3) 0.6222(3)
C6 C 0.3312(3) 0.2605(3) 0.5671(3)
C7 C 0.2866(3) 0.2942(3) 0.4542(3)
C8 C 0.3400(3) 0.3056(3) 0.4776(3)
H1 H 0.36569 0.30615 0.44967
H2 H 0.33935 0.34021 0.49319
C9 C 0.1949(3) 0.3192(3) 0.4426(3)
C10 C 0.4409(3) 0.5910(3) 0.5557(3)
C11 C 0.1850(3) 0.2738(3) 0.4190(3)
H3 H 0.15075 0.26591 0.40954
O12 O 0.5203(4) 0.7095(3) 0.5702(5)
C12 C 0.2116(3) 0.4302(3) 0.6120(3)
C13 C 0.3438(3) 0.4963(3) 0.5929(3)
C14 C 0.2944(3) 0.6030(4) 0.5502(3)
H4 H 0.28396 0.56875 0.54408
C15 C 0.2250(3) 0.2373(3) 0.4080(4)
C16 C 0.3766(3) 0.5180(3) 0.5484(3)
H5 H 0.35818 0.51213 0.51579
H6 H 0.40920 0.49866 0.54682
C17 C 0.1508(3) 0.3572(3) 0.4482(3)
C18 C 0.3451(4) 0.2199(3) 0.6022(3)
C19 C 0.4118(3) 0.5154(4) 0.6587(3)
H7 H 0.43454 0.52648 0.63257
C20 C 0.2760(3) 0.2480(3) 0.4241(3)
C21 C 0.3890(3) 0.5760(3) 0.5533(3)
C22 C 0.4677(4) 0.1659(4) 0.5394(4)
C23 C 0.2900(3) 0.2958(3) 0.5823(3)
H8 H 0.28022 0.32329 0.56069
C24 C 0.2952(3) 0.4742(3) 0.5818(3)
C25 C 0.3286(4) 0.4797(3) 0.6854(3)
C26 C 0.2778(4) 0.4579(3) 0.6731(3)
H9 H 0.25584 0.44605 0.69961
C27 C 0.4185(4) 0.1965(3) 0.5473(3)
C28 C 0.3160(4) 0.2127(4) 0.4101(4)
H10 H 0.35009 0.21940 0.42080
C29 C 0.2578(4) 0.6410(4) 0.5544(4)
H11 H 0.22261 0.63210 0.55195
C30 C 0.3637(4) 0.6677(4) 0.5607(4)
C31 C 0.3495(4) 0.6146(3) 0.5551(3)
C32 C 0.4551(4) 0.6447(3) 0.5590(4)
C33 C 0.3878(4) 0.1884(4) 0.5903(4)
H12 H 0.39576 0.16072 0.61252
C34 C 0.2536(4) 0.1574(4) 0.3701(5)
H13 H 0.24562 0.12527 0.35510
C35 C 0.2763(4) 0.2450(4) 0.6631(4)
H14 H 0.25757 0.23967 0.69385
C36 C 0.2655(3) 0.2880(4) 0.6292(4)
H15 H 0.24033 0.31214 0.63953
C37 C 0.2147(4) 0.1903(4) 0.3800(4)
H16 H 0.18095 0.18269 0.36883
C38 C 0.3060(4) 0.1686(5) 0.3810(5)
H17 H 0.33292 0.14722 0.36908
C39 C 0.3450(5) 0.4816(4) 0.7384(4)
H18 H 0.32274 0.47081 0.76504
C40 C 0.3215(5) 0.7068(4) 0.5647(5)
H19 H 0.33019 0.74189 0.56886
C41 C 0.3163(4) 0.2115(4) 0.6477(4)
H20 H 0.32409 0.18258 0.66841
C42 C 0.4279(4) 0.5159(4) 0.7110(4)
H21 H 0.46133 0.52721 0.71965
C43 C 0.2718(4) 0.6934(4) 0.5624(5)
H22 H 0.24597 0.71868 0.56618
C44 C 0.5117(4) 0.6625(4) 0.5659(5)
C45 C 0.4147(5) 0.6819(3) 0.5632(5)
H23 H 0.42320 0.71697 0.56768
C46 C 0.3941(4) 0.4995(4) 0.7497(4)
H24 H 0.40493 0.50072 0.78433
O13 O 0.5437(6) 0.0866(6) 0.6585(4)
O14 O 0.5556(6) 0.0393(4) 0.5416(6)
O15 O 0.0761(5) 0.4239(5) 0.5761(5)
O16 O 0.4570(5) -0.0430(5) 0.5430(5)
N1 N 0.4122(7) 0.3366(7) 0.6608(7)
O17 O 0.4307(5) 0.2597(4) 0.7046(5)
C47 C 0.4299(5) 0.2898(5) 0.6638(8)
H25 H 0.44372 0.27580 0.63316
C48 C 0.4139(5) 0.3672(5) 0.6124(6)
H26 H 0.43308 0.34820 0.58630
H27 H 0.43079 0.40005 0.61891
H28 H 0.37891 0.37327 0.60024
C49 C 0.3812(8) 0.3548(8) 0.7049(8)
H29 H 0.37127 0.32552 0.72613
H30 H 0.35038 0.37208 0.69218
H31 H 0.40146 0.37886 0.72538
Ti1D Ti 0.49440(5) 0.22476(5) 0.43972(5)
Zn2D Zn 0.57929(5) 0.54985(6) 0.10214(7)
O1D O 0.48600(19) 0.25614(19) 0.37483(20)
O2D O 0.4661(2) 0.4301(2) 0.2435(2)
O3D O 0.56522(20) 0.1945(2) 0.42460(19)
O4D O 0.53129(20) 0.27830(19) 0.47088(18)
O5D O 0.5013(2) 0.4965(2) 0.1735(2)
O6D O 0.5523(2) 0.4781(2) 0.5549(2)
O7D O 0.4677(2) 0.1592(2) 0.4029(2)
O8D O 0.4309(2) 0.1075(2) 0.3455(3)
O9D O 0.6492(2) 0.1836(2) 0.4142(2)
O10D O 0.5605(2) 0.5479(2) 0.6288(3)
O11D O 0.5754(3) 0.4807(3) 0.1347(3)
C1D C 0.4615(3) 0.2463(3) 0.3306(3)
C2D C 0.6457(3) 0.3606(3) 0.4978(3)
C3D C 0.5188(3) 0.3575(3) 0.2665(3)
C4D C 0.5098(3) 0.4023(3) 0.2366(3)
C5D C 0.6222(3) 0.2627(3) 0.4550(3)
C6D C 0.5671(3) 0.3312(3) 0.2605(3)
C7D C 0.4542(3) 0.2866(3) 0.2942(3)
C8D C 0.4776(3) 0.3400(3) 0.3056(3)
H1D H 0.44967 0.36569 0.30615
H2D H 0.49319 0.33935 0.34021
C9D C 0.4426(3) 0.1949(3) 0.3192(3)
C10D C 0.5557(3) 0.4409(3) 0.5910(3)
C11D C 0.4190(3) 0.1850(3) 0.2738(3)
H3D H 0.40954 0.15075 0.26591
O12D O 0.5702(4) 0.5203(3) 0.7095(5)
C12D C 0.6120(3) 0.2116(3) 0.4302(3)
C13D C 0.5929(3) 0.3438(3) 0.4963(3)
C14D C 0.5502(3) 0.2944(4) 0.6030(3)
H4D H 0.54408 0.28396 0.56875
C15D C 0.4080(3) 0.2250(3) 0.2373(4)
C16D C 0.5484(3) 0.3766(3) 0.5180(3)
H5D H 0.51579 0.35818 0.51213
H6D H 0.54682 0.40920 0.49866
C17D C 0.4482(3) 0.1508(3) 0.3572(3)
C18D C 0.6022(4) 0.3451(3) 0.2199(3)
C19D C 0.6587(3) 0.4118(4) 0.5154(3)
H7D H 0.63257 0.43454 0.52648
C20D C 0.4241(3) 0.2760(3) 0.2480(3)
C21D C 0.5533(3) 0.3890(3) 0.5760(3)
C22D C 0.5394(4) 0.4677(4) 0.1659(4)
C23D C 0.5823(3) 0.2900(3) 0.2958(3)
H8D H 0.56069 0.28022 0.32329
C24D C 0.5818(3) 0.2952(3) 0.4742(3)
C25D C 0.6854(4) 0.3286(3) 0.4797(3)
C26D C 0.6731(4) 0.2778(3) 0.4579(3)
H9D H 0.69961 0.25584 0.44605
C27D C 0.5473(4) 0.4185(3) 0.1965(3)
C28D C 0.4101(4) 0.3160(4) 0.2127(4)
H10D H 0.42080 0.35009 0.21940
C29D C 0.5544(4) 0.2578(4) 0.6410(4)
H11D H 0.55195 0.22261 0.63210
C30D C 0.5607(4) 0.3637(4) 0.6677(4)
C31D C 0.5551(4) 0.3495(3) 0.6146(3)
C32D C 0.5590(4) 0.4551(3) 0.6447(4)
C33D C 0.5903(4) 0.3878(4) 0.1884(4)
H12D H 0.61252 0.39576 0.16072
C34D C 0.3701(4) 0.2536(4) 0.1574(5)
H13D H 0.35510 0.24562 0.12527
C35D C 0.6631(4) 0.2763(4) 0.2450(4)
H14D H 0.69385 0.25757 0.23967
C36D C 0.6292(3) 0.2655(4) 0.2880(4)
H15D H 0.63953 0.24033 0.31214
C37D C 0.3800(4) 0.2147(4) 0.1903(4)
H16D H 0.36883 0.18095 0.18269
C38D C 0.3810(4) 0.3060(5) 0.1686(5)
H17D H 0.36908 0.33292 0.14722
C39D C 0.7384(5) 0.3450(4) 0.4816(4)
H18D H 0.76504 0.32274 0.47081
C40D C 0.5647(5) 0.3215(4) 0.7068(5)
H19D H 0.56886 0.33019 0.74189
C41D C 0.6477(4) 0.3163(4) 0.2115(4)
H20D H 0.66841 0.32409 0.18258
C42D C 0.7110(4) 0.4279(4) 0.5159(4)
H21D H 0.71965 0.46133 0.52721
C43D C 0.5624(4) 0.2718(4) 0.6934(5)
H22D H 0.56618 0.24597 0.71868
C44D C 0.5659(4) 0.5117(4) 0.6625(5)
C45D C 0.5632(5) 0.4147(3) 0.6819(5)
H23D H 0.56768 0.42320 0.71697
C46D C 0.7497(4) 0.3941(4) 0.4995(4)
H24D H 0.78433 0.40493 0.50072
O13D O 0.6585(6) 0.5437(6) 0.0866(4)
O14D O 0.5416(6) 0.5556(4) 0.0393(6)
Ti1H Ti 0.43972(5) 0.49440(5) 0.22476(5)
Zn2H Zn 0.10214(5) 0.57929(6) 0.54985(7)
O1H O 0.37483(19) 0.48600(19) 0.25614(20)
O2H O 0.2435(2) 0.4661(2) 0.4301(2)
O3H O 0.4246(2) 0.56522(20) 0.19450(19)
O4H O 0.47088(20) 0.53129(19) 0.27830(18)
O5H O 0.1735(2) 0.5013(2) 0.4965(2)
O6H O 0.5549(2) 0.5523(2) 0.4781(2)
O7H O 0.4029(2) 0.4677(2) 0.1592(2)
O8H O 0.3455(2) 0.4309(2) 0.1075(3)
O9H O 0.4142(2) 0.6492(2) 0.1836(2)
O10H O 0.6288(2) 0.5605(2) 0.5479(3)
O11H O 0.1347(3) 0.5754(3) 0.4807(3)
C1H C 0.3306(3) 0.4615(3) 0.2463(3)
C2H C 0.4978(3) 0.6457(3) 0.3606(3)
C3H C 0.2665(3) 0.5188(3) 0.3575(3)
C4H C 0.2366(3) 0.5098(3) 0.4023(3)
C5H C 0.4550(3) 0.6222(3) 0.2627(3)
C6H C 0.2605(3) 0.5671(3) 0.3312(3)
C7H C 0.2942(3) 0.4542(3) 0.2866(3)
C8H C 0.3056(3) 0.4776(3) 0.3400(3)
H1H H 0.30615 0.44967 0.36569
H2H H 0.34021 0.49319 0.33935
C9H C 0.3192(3) 0.4426(3) 0.1949(3)
C10H C 0.5910(3) 0.5557(3) 0.4409(3)
C11H C 0.2738(3) 0.4190(3) 0.1850(3)
H3H H 0.26591 0.40954 0.15075
O12H O 0.7095(4) 0.5702(3) 0.5203(5)
C12H C 0.4302(3) 0.6120(3) 0.2116(3)
C13H C 0.4963(3) 0.5929(3) 0.3438(3)
C14H C 0.6030(3) 0.5502(4) 0.2944(3)
H4H H 0.56875 0.54408 0.28396
C15H C 0.2373(3) 0.4080(3) 0.2250(4)
C16H C 0.5180(3) 0.5484(3) 0.3766(3)
H5H H 0.51213 0.51579 0.35818
H6H H 0.49866 0.54682 0.40920
C17H C 0.3572(3) 0.4482(3) 0.1508(3)
C18H C 0.2199(4) 0.6022(3) 0.3451(3)
C19H C 0.5154(3) 0.6587(4) 0.4118(3)
H7H H 0.52648 0.63257 0.43454
C20H C 0.2480(3) 0.4241(3) 0.2760(3)
C21H C 0.5760(3) 0.5533(3) 0.3890(3)
C22H C 0.1659(4) 0.5394(4) 0.4677(4)
C23H C 0.2958(3) 0.5823(3) 0.2900(3)
H8H H 0.32329 0.56069 0.28022
C24H C 0.4742(3) 0.5818(3) 0.2952(3)
C25H C 0.4797(4) 0.6854(3) 0.3286(3)
C26H C 0.4579(4) 0.6731(3) 0.2778(3)
H9H H 0.44605 0.69961 0.25584
C27H C 0.1965(4) 0.5473(3) 0.4185(3)
C28H C 0.2127(4) 0.4101(4) 0.3160(4)
H10H H 0.21940 0.42080 0.35009
C29H C 0.6410(4) 0.5544(4) 0.2578(4)
H11H H 0.63210 0.55195 0.22261
C30H C 0.6677(4) 0.5607(4) 0.3637(4)
C31H C 0.6146(4) 0.5551(3) 0.3495(3)
C32H C 0.6447(4) 0.5590(3) 0.4551(4)
C33H C 0.1884(4) 0.5903(4) 0.3878(4)
H12H H 0.16072 0.61252 0.39576
C34H C 0.1574(4) 0.3701(4) 0.2536(5)
H13H H 0.12527 0.35510 0.24562
C35H C 0.2450(4) 0.6631(4) 0.2763(4)
H14H H 0.23967 0.69385 0.25757
C36H C 0.2880(3) 0.6292(4) 0.2655(4)
H15H H 0.31214 0.63953 0.24033
C37H C 0.1903(4) 0.3800(4) 0.2147(4)
H16H H 0.18269 0.36883 0.18095
C38H C 0.1686(4) 0.3810(5) 0.3060(5)
H17H H 0.14722 0.36908 0.33292
C39H C 0.4816(5) 0.7384(4) 0.3450(4)
H18H H 0.47081 0.76504 0.32274
C40H C 0.7068(5) 0.5647(4) 0.3215(5)
H19H H 0.74189 0.56886 0.33019
C41H C 0.2115(4) 0.6477(4) 0.3163(4)
H20H H 0.18258 0.66841 0.32409
C42H C 0.5159(4) 0.7110(4) 0.4279(4)
H21H H 0.52721 0.71965 0.46133
C43H C 0.6934(4) 0.5624(4) 0.2718(5)
H22H H 0.71868 0.56618 0.24597
C44H C 0.6625(4) 0.5659(4) 0.5117(5)
C45H C 0.6819(5) 0.5632(3) 0.4147(5)
H23H H 0.71697 0.56768 0.42320
C46H C 0.4995(4) 0.7497(4) 0.3941(4)
H24H H 0.50072 0.78433 0.40493
O13H O 0.0866(6) 0.6585(6) 0.5437(4)
O14H O 0.0393(6) 0.5416(4) 0.5556(6)
Zn1A Zn 0.38062(5) 0.61938(5) 0.11938(5)
Zn1C Zn 0.61938(5) 0.11938(5) 0.38062(5)
Zn2C Zn 0.04985(5) 0.39786(6) 0.42071(7)
Zn2G Zn 0.42071(5) 0.04985(6) 0.39786(7)
Zn2K Zn 0.39786(5) 0.42071(6) 0.04985(7)
Zn3B Zn 0.49730(11) 0.50270(11) 0.00270(11)
Zn3C Zn 0.00270(11) 0.49730(11) 0.50270(11)
O8C O 0.6075(2) 0.1545(2) 0.5691(3)
O8G O 0.5691(2) 0.6075(2) 0.1545(3)
O8K O 0.1545(2) 0.5691(2) 0.6075(3)
O9E O 0.1492(2) 0.3164(2) 0.5858(2)
O9K O 0.0858(2) 0.3508(2) 0.6836(2)
O14G O 0.4584(6) 0.0556(4) 0.4607(6)
O14J O 0.5393(6) -0.0416(4) 0.4444(6)
#END
