
#######################################################################
#
#                 Cambridge Crystallographic Data Centre
#                                CCDC
#
#######################################################################
#
# If this CIF has been generated from an entry in the Cambridge
# Structural Database, then it will include bibliographic, chemical,
# crystal, experimental, refinement or atomic coordinate data resulting
# from the CCDC's data processing and validation procedures.
#
#######################################################################

data_CSD_CIF_EKABOI
_audit_creation_date 2011-02-28
_audit_creation_method CSD-ConQuest-V1
_database_code_CSD EKABOI
_database_code_depnum_ccdc_archive 'CCDC 693072'
_chemical_formula_sum 'C6 H16 K2 O24 U4'
_chemical_formula_moiety
;
(K1 1+)2n,n(C6 H12 O22 U4 2-),2n(H2 O1)
;
_journal_coden_Cambridge 41
_journal_volume 54
_journal_year 2009
_journal_page_first 483
_journal_name_full 'Kristallografiya(Russ.)(Crystallogr.Rep.) '
loop_
_publ_author_name
"L.B.Serezhkina"
"A.V.Vologzhanina"
"N.A.Neklyudova"
"V.N.Serezhkin"
_chemical_name_systematic
;
catena-(Di-potassium 
bis(\m~3~-oxo)-bis(\m~2~-acetato)-bis(\m~2~-hydroxo)-(\m~2~-oxalato)-diaqua-oc
taoxo-tetra-uranium dihydrate)
;
_cell_volume    628.329
_exptl_crystal_colour 'yellow'
_exptl_crystal_density_diffrn 3.971
_exptl_crystal_description 'prism'
_diffrn_ambient_temperature 100
#These two values have been output from a single CSD field.
_refine_ls_R_factor_gt 0.0323
_refine_ls_wR_factor_gt 0.0323
_symmetry_cell_setting triclinic
_symmetry_space_group_name_H-M 'P -1'
_symmetry_Int_Tables_number 2
loop_
_symmetry_equiv_pos_site_id
_symmetry_equiv_pos_as_xyz
1 x,y,z
2 -x,-y,-z
_cell_length_a 7.6777(6)
_cell_length_b 7.9149(7)
_cell_length_c 10.8729(9)
_cell_angle_alpha 72.379(3)
_cell_angle_beta 86.430(2)
_cell_angle_gamma 87.635(2)
_cell_formula_units_Z 1
loop_
_atom_type_symbol
_atom_type_radius_bond
C 0.68
H 0.23
K 1.33
O 0.68
U 1.46
loop_
_atom_site_label
_atom_site_type_symbol
_atom_site_fract_x
_atom_site_fract_y
_atom_site_fract_z
U1 U 0.26761(3) 0.24021(4) 0.28352(3)
U2 U 0.33078(3) 0.42069(4) -0.07788(3)
K1 K 0.2838(2) 0.0049(3) -0.2093(2)
O1 O 0.1430(8) 0.4264(8) 0.3011(6)
O2 O 0.3824(7) 0.0456(8) 0.2710(6)
O3 O 0.4986(8) 0.2788(9) 0.4066(6)
O4 O 0.1937(7) 0.0961(8) 0.5175(5)
O5 O 0.0057(7) -0.0705(8) 0.6671(5)
O6 O 0.1437(7) 0.2483(7) 0.0911(5)
H1 H 0.03790 0.28360 0.09410
O7 O 0.1967(7) 0.6159(8) -0.0868(6)
O8 O 0.4544(7) 0.2215(8) -0.0764(6)
O9 O 0.0852(7) 0.2929(7) -0.1680(5)
H2 H 0.03140 0.33210 -0.23740
H3 H 0.00180 0.30300 -0.11530
O10 O 0.6584(9) 0.5076(10) 0.3051(6)
O11 O 0.4308(6) 0.4123(7) 0.1180(5)
O12 O 0.1835(7) -0.0871(8) 0.0501(6)
H4 H 0.14740 -0.01480 0.09060
H5 H 0.23560 -0.15440 0.11430
C1 C 0.6218(11) 0.3773(11) 0.3998(8)
C2 C 0.0577(9) 0.0067(10) 0.5530(7)
C3 C 0.7275(12) 0.3510(13) 0.5168(9)
H6 H 0.85070 0.37290 0.48920
H7 H 0.71540 0.22910 0.57360
H8 H 0.68520 0.43400 0.56360
U1A U -0.26761(3) -0.24021(4) 0.71648(3)
U1A* U 0.73239(3) 0.75979(4) -0.28352(3)
U2A U 0.66922(3) 0.57931(4) 0.07788(3)
O1A O 0.8570(8) 0.5736(8) -0.3011(6)
O2A O 0.6176(7) 0.9544(8) -0.2710(6)
O3A O 0.5014(8) 0.7212(9) -0.4066(6)
O4A O -0.1937(7) -0.0961(8) 0.4825(5)
O4A* O 0.8063(7) 0.9039(8) -0.5175(5)
O5A O -0.0057(7) 0.0705(8) 0.3329(5)
O5* O 1.0057(7) 0.9295(8) -0.3329(5)
O6A O 0.8563(7) 0.7517(7) -0.0911(5)
H1A H 0.96210 0.71640 -0.09410
O7A O 0.8033(7) 0.3841(8) 0.0868(6)
O8A O 0.5456(7) 0.7785(8) 0.0764(6)
O9A O 0.9148(7) 0.7071(7) 0.1680(5)
H2A H 0.96860 0.66790 0.23740
H3A H 0.99820 0.69700 0.11530
O10A O 0.3416(9) 0.4924(10) -0.3051(6)
O11A O 0.5692(6) 0.5877(7) -0.1180(5)
C1A C 0.3782(11) 0.6227(11) -0.3998(8)
C2A C -0.0577(9) -0.0067(10) 0.4470(7)
C3A C 0.2725(12) 0.6490(13) -0.5168(9)
H6A H 0.14930 0.62710 -0.48920
H7A H 0.28460 0.77090 -0.57360
H8A H 0.31480 0.56600 -0.56360
#END
