
#######################################################################
#
#                 Cambridge Crystallographic Data Centre
#                                CCDC
#
#######################################################################
#
# If this CIF has been generated from an entry in the Cambridge
# Structural Database, then it will include bibliographic, chemical,
# crystal, experimental, refinement or atomic coordinate data resulting
# from the CCDC's data processing and validation procedures.
#
#######################################################################

data_CSD_CIF_EKAQOZ
_audit_creation_date 2021-01-20
_audit_creation_method CSD-ConQuest-V1
_database_code_CSD EKAQOZ
_database_code_depnum_ccdc_archive 'CCDC 2053049'
_chemical_formula_sum 'C49 H57 F2 In1 N2 O14'
_chemical_formula_moiety
;
(C40 H30 F2 In1 O11 1-)n,C5 H11 N1 O1,2(H2 O1),C4 H12 N1 1+
;
_journal_coden_Cambridge 208
_journal_volume 296
_journal_year 2021
_journal_page_first 121990
_journal_name_full 'J.Solid State Chem. '
loop_
_publ_author_name
"Di-Ming Chen"
"Yin-Ping Zheng"
"Shao-Ming Fang"
_chemical_name_systematic
;
catena-[(diethylammonium) 
(\m-4,4',4''-[(2,4,6-trimethylbenzene-1,3,5-triyl)tris(methyleneoxy)]tribenzoa
to)-(2,3-difluorobenzoato)-indium(iii) N,N-diethylformamide solvate 
dihydrate]
;
_cell_volume  13793.407
_exptl_crystal_colour 'yellow'
_exptl_crystal_description 'block'
_diffrn_ambient_temperature 293
_refine_special_details
;
Disordered solvent molecules (water / N,N-diethylformamide) were not modelled 
and the disordered density was taken into account using the SQUEEZE/PLATON 
procedure.
;
#These two values have been output from a single CSD field.
_refine_ls_R_factor_gt 0.0535
_refine_ls_wR_factor_gt 0.0535
_symmetry_cell_setting monoclinic
_symmetry_space_group_name_H-M 'C 2/c'
_symmetry_Int_Tables_number 15
loop_
_symmetry_equiv_pos_site_id
_symmetry_equiv_pos_as_xyz
1 x,y,z
2 -x,y,1/2-z
3 1/2+x,1/2+y,z
4 1/2-x,1/2+y,1/2-z
5 -x,-y,-z
6 x,-y,-1/2+z
7 -1/2-x,-1/2-y,-z
8 -1/2+x,-1/2-y,-1/2+z
_cell_length_a 12.9184(3)
_cell_length_b 35.3319(11)
_cell_length_c 30.2209(6)
_cell_angle_alpha 90
_cell_angle_beta 90.418(2)
_cell_angle_gamma 90
_cell_formula_units_Z 8
loop_
_atom_type_symbol
_atom_type_radius_bond
C 0.68
H 0.23
F 0.64
In 1.42
O 0.68
loop_
_atom_site_label
_atom_site_type_symbol
_atom_site_fract_x
_atom_site_fract_y
_atom_site_fract_z
In1 In -0.10517(2) 0.43946(2) 0.62729(2)
O1 O 0.3761(2) 0.56381(9) 0.52439(10)
O2 O 0.91193(18) 0.56902(8) 0.20276(8)
O3 O 0.05873(18) 0.46471(8) 0.63420(8)
O4 O 0.3495(2) 0.89538(8) 0.57509(8)
O5 O -0.02261(19) 0.46784(9) 0.57062(8)
O6 O 0.47901(19) 0.88388(8) 0.62033(9)
O7 O -0.2422(2) 0.47345(10) 0.59981(10)
O8 O 0.7726(2) 0.58784(10) 0.16877(8)
O9 O 0.6387(2) 0.62852(11) 0.36368(9)
O10 O -0.1507(2) 0.49927(9) 0.65187(10)
O11 O 0.4747(3) 0.73158(9) 0.50729(11)
C1 C 0.1421(2) 0.49727(11) 0.57532(11)
C2 C 0.2977(3) 0.54173(12) 0.53874(12)
C3 C 0.0562(2) 0.47555(10) 0.59492(11)
C4 C 0.3575(3) 0.58554(13) 0.48511(12)
H1 H 0.29468 0.60031 0.48810
H2 H 0.34988 0.56895 0.45973
C5 C 0.45022(15) 0.61152(6) 0.47913(7)
C6 C 0.52405(17) 0.60358(6) 0.44721(7)
C7 C 0.60477(15) 0.62878(7) 0.43993(7)
C8 C 0.61168(15) 0.66192(6) 0.46457(8)
C9 C 0.53785(17) 0.66986(6) 0.49648(7)
C10 C 0.45712(14) 0.64466(6) 0.50377(6)
C11 C 0.7888(3) 0.60330(13) 0.32559(12)
H3 H 0.82607 0.60084 0.35187
C12 C 0.6892(3) 0.61738(13) 0.32606(12)
C13 C 0.6776(3) 0.61099(16) 0.24768(13)
H4 H 0.64028 0.61394 0.22148
C14 C 0.2321(3) 0.50415(12) 0.59877(12)
H5 H 0.24043 0.49402 0.62697
C15 C 0.7776(2) 0.59624(11) 0.24670(11)
C16 C 0.4204(3) 0.87397(10) 0.58897(11)
C17 C 0.1323(3) 0.51282(14) 0.53316(12)
H6 H 0.07240 0.50798 0.51685
C18 C 0.8329(2) 0.59283(12) 0.28582(11)
H7 H 0.90019 0.58345 0.28542
C19 C -0.2221(3) 0.50127(14) 0.62458(14)
C20 C 0.8229(2) 0.58383(11) 0.20391(12)
C21 C 0.3104(3) 0.52604(13) 0.58073(13)
H8 H 0.37126 0.53021 0.59663
C22 C 0.5470(3) 0.70468(12) 0.52461(15)
H9 H 0.53111 0.69881 0.55517
H10 H 0.61683 0.71472 0.52336
C23 C 0.6852(3) 0.61944(16) 0.40527(12)
H11 H 0.74740 0.63431 0.41000
H12 H 0.70328 0.59281 0.40647
C24 C 0.6344(3) 0.62111(16) 0.28699(13)
H13 H 0.56731 0.63062 0.28745
C25 C 0.4658(3) 0.76579(12) 0.52917(14)
C26 C 0.2073(3) 0.53488(14) 0.51494(12)
H14 H 0.19811 0.54521 0.48688
C27 C 0.4370(3) 0.83620(12) 0.56845(12)
C28 C -0.2835(3) 0.53611(10) 0.61928(13)
C29 C -0.3462(3) 0.53894(14) 0.58186(14)
H15 H -0.35017 0.51889 0.56197
C30 C -0.4030(3) 0.57173(18) 0.5741(2)
H16 H -0.44491 0.57363 0.54910
C31 C -0.3970(5) 0.60170(14) 0.6039(3)
H17 H -0.43500 0.62364 0.59870
C32 C -0.3343(5) 0.59887(13) 0.6413(2)
C33 C -0.2776(4) 0.56607(13) 0.64900(14)
C34 C 0.5302(3) 0.77685(13) 0.56330(15)
H18 H 0.58298 0.76112 0.57343
C35 C 0.5137(3) 0.81309(12) 0.58263(14)
H19 H 0.55671 0.82104 0.60561
C36 C 0.3772(3) 0.65330(15) 0.53905(14)
H20 H 0.34112 0.67619 0.53150
H21 H 0.41128 0.65638 0.56715
H22 H 0.32866 0.63278 0.54077
F1 F -0.2235(7) 0.56440(18) 0.68447(19)
C37 C 0.6924(4) 0.69141(17) 0.4525(2)
H23 H 0.76022 0.68179 0.45925
H24 H 0.68051 0.71408 0.46924
H25 H 0.68748 0.69697 0.42149
C38 C 0.3724(4) 0.82366(15) 0.53384(19)
H26 H 0.31948 0.83922 0.52343
C39 C 0.5175(5) 0.56605(16) 0.4209(2)
H27 H 0.53486 0.54527 0.43999
H28 H 0.56512 0.56686 0.39665
H29 H 0.44837 0.56275 0.40961
C40 C 0.3870(5) 0.78814(16) 0.51503(19)
H30 H 0.34265 0.77973 0.49274
F2 F -0.3345(12) 0.6254(3) 0.6686(4)
In1B In 0.39483(2) 0.93946(2) 0.62729(2)
In1E In 0.89483(2) 0.56054(2) 0.12729(2)
O2E O -0.08807(18) 0.43098(8) 0.70276(8)
O4B O -0.1505(2) 0.39538(8) 0.57509(8)
O6B O -0.02099(19) 0.38388(8) 0.62033(9)
O8E O -0.2274(2) 0.41216(10) 0.66877(8)
#END
