
#######################################################################
#
#                 Cambridge Crystallographic Data Centre
#                                CCDC
#
#######################################################################
#
# If this CIF has been generated from an entry in the Cambridge
# Structural Database, then it will include bibliographic, chemical,
# crystal, experimental, refinement or atomic coordinate data resulting
# from the CCDC's data processing and validation procedures.
#
#######################################################################

data_CSD_CIF_EKAVOC
_audit_creation_date 2011-05-12
_audit_creation_method CSD-ConQuest-V1
_database_code_CSD EKAVOC
_database_code_depnum_ccdc_archive 'CCDC 705356'
_chemical_formula_sum 'C20 H80 As2 Ce1 K2 N12 Na7 O97 W22'
_chemical_formula_moiety
;
(C7 H15 N4 1+)n,7n(Na1 1+),n(C13 H33 As2 Ce1 K2 N8 O81 W22 8-),16n(H2 O1)
;
_journal_coden_Cambridge 155
_journal_volume 362
_journal_year 2009
_journal_page_first 5043
_journal_name_full 'Inorg.Chim.Acta '
loop_
_publ_author_name
"Wei-Lin Chen"
"Bao-Wang Chen"
"Yang-Guang Li"
"Yong-Hui Wang"
"En-Bo Wang"
_chemical_name_systematic
;
catena-[(1-Methyl-1,3,5,7-tetra-aza-adamantan-1-ium) hepta-sodium 
(\m~12~-arsenato)-(\m~11~-arsenato)-tris(\m~3~-oxo)-henipentacontakis(\m~2~-ox
o)-(1-methyl-1,3,5,7-tetra-aza-adamantan-1-ium-3-yl)-(1,3,5,7-tetra-aza-adaman
tan-1-yl)-triaqua-hexadeca-oxo-cerium(iii)-di-potassium(i)-docosa-tungsten(vi)
 hexadecahydrate]
;
_cell_volume  11936.273
_exptl_crystal_colour 'yellow'
_exptl_crystal_density_diffrn 3.681
_exptl_special_details
;
The bonding of the sodium cations is not discussed in the paper, and the 
locations of some sodium cations and lattice water molecules could not be 
located from the diffraction data. Therefore to simplify the 2D 
representation the sodium are shown as isolated cations in the CSD entry
;
_exptl_crystal_description 'block'
_diffrn_ambient_temperature 293
_refine_special_details
;
The SQUEEZE/PLATON procedure was used to model two sodium cations and eight 
lattice water molecules per unit, from a solvent accessible void of 1536 A$3! 
per cell. The cation/solvent stoichiometry was based on TG and elemental 
analysis.
;
#These two values have been output from a single CSD field.
_refine_ls_R_factor_gt 0.0863
_refine_ls_wR_factor_gt 0.0863
_symmetry_cell_setting monoclinic
_symmetry_space_group_name_H-M 'P 21/c'
_symmetry_Int_Tables_number 14
loop_
_symmetry_equiv_pos_site_id
_symmetry_equiv_pos_as_xyz
1 x,y,z
2 -x,1/2+y,1/2-z
3 -x,-y,-z
4 x,-1/2-y,-1/2+z
_cell_length_a 25.529(5)
_cell_length_b 19.783(4)
_cell_length_c 26.696(5)
_cell_angle_alpha 90
_cell_angle_beta 117.71(3)
_cell_angle_gamma 90
_cell_formula_units_Z 4
loop_
_atom_type_symbol
_atom_type_radius_bond
C 0.68
H 0.23
As 1.21
Ce 2.04
K 1.99
N 0.68
Na 0.21
O 0.81
W 1.25
loop_
_atom_site_label
_atom_site_type_symbol
_atom_site_fract_x
_atom_site_fract_y
_atom_site_fract_z
W1 W 0.09415(6) -0.46036(6) 0.24318(5)
W2 W 0.00907(6) -0.32422(7) 0.23371(5)
W3 W 0.13960(6) -0.25337(6) 0.35724(5)
W4 W 0.02329(6) -0.37418(7) 0.11820(5)
W5 W 0.23389(7) -0.44039(7) 0.23231(5)
W6 W 0.22711(7) -0.38588(7) 0.36322(5)
W7 W 0.16407(7) -0.34593(7) 0.11295(5)
W8 W 0.42564(6) -0.00185(7) 0.22265(6)
W9 W 0.22777(7) 0.18705(8) 0.28560(7)
W10 W 0.41535(7) 0.23895(8) 0.27594(7)
W11 W 0.06452(8) -0.14840(8) 0.22487(7)
W12 W 0.47677(7) 0.07555(8) 0.35060(6)
W13 W 0.26430(9) 0.0066(1) 0.11766(7)
W14 W 0.36520(7) 0.15915(9) 0.14881(7)
W15 W 0.37241(7) 0.17471(9) 0.38383(7)
W16 W 0.26963(8) 0.24938(8) 0.17809(8)
W17 W 0.28314(10) -0.27717(10) 0.22848(8)
W18 W 0.06884(9) -0.19557(9) 0.10613(7)
W19 W 0.28067(10) 0.03457(12) 0.35061(8)
W20 W 0.26762(10) -0.22114(10) 0.35103(8)
W21 W 0.17035(10) 0.09554(10) 0.14596(9)
W22 W 0.38282(11) -0.06331(12) 0.31734(10)
Ce1 Ce 0.20477(8) -0.09096(8) 0.21087(7)
As1 As 0.14594(13) -0.29380(15) 0.23095(11)
As2 As 0.32124(14) 0.09158(15) 0.24715(12)
O1 O 0.2678(14) -0.0009(16) 0.3988(11)
O2 O 0.2314(11) 0.3236(11) 0.1447(10)
O3 O 0.4683(12) 0.3005(13) 0.3032(11)
O4 O 0.1199(11) -0.1329(10) 0.1223(8)
O5 O 0.1222(9) -0.2256(10) 0.4074(7)
O6 O -0.0542(9) -0.3192(9) 0.2425(7)
O7 O 0.1238(12) -0.2647(13) 0.1013(10)
O8 O 0.2920(12) -0.3786(13) 0.2413(10)
O9 O 0.3273(13) -0.1867(13) 0.400(1)
O10 O 0.0340(8) -0.4192(9) 0.2551(7)
O11 O 0.2351(11) -0.1599(12) 0.2998(9)
O12 O 0.1225(11) -0.2155(12) 0.2037(9)
O13 O 0.2460(11) -0.2041(12) 0.2057(10)
O14 O 0.0429(8) -0.4586(9) 0.1651(7)
O15 O 0.1785(8) -0.3344(9) 0.3913(7)
O16 O 0.1906(10) -0.3293(11) 0.2084(8)
O17 O 0.2512(9) -0.4183(10) 0.3097(7)
O18 O 0.1186(10) -0.0899(10) 0.2283(8)
O19 O 0.2176(11) -0.2094(11) 0.3872(9)
O20 O 0.0862(9) -0.3465(9) 0.2125(7)
O21 O 0.1936(11) 0.0615(12) 0.0928(9)
O22 O 0.3111(10) -0.0754(11) 0.2627(9)
O23 O 0.3398(9) 0.1647(10) 0.2231(7)
O24 O 0.2808(11) -0.3172(12) 0.3872(9)
O25 O 0.0205(11) -0.1806(11) 0.0381(9)
O26 O 0.0137(10) -0.0994(10) 0.2330(8)
O27 O 0.0923(10) -0.3863(10) 0.1100(8)
O28 O 0.1599(9) -0.4641(9) 0.2264(7)
O29 O 0.2642(11) 0.0534(11) 0.1963(9)
O30 O 0.4176(15) 0.2210(14) 0.209(1)
O31 O -0.0247(9) -0.3536(9) 0.1575(7)
O32 O 0.3477(12) -0.0159(11) 0.1682(8)
O33 O 0.1520(9) 0.019(1) 0.1641(7)
O34 O 0.3038(10) 0.1175(11) 0.2971(9)
O35 O 0.2376(12) -0.0038(13) 0.2904(10)
O36 O 0.1511(9) -0.4283(9) 0.3141(7)
O37 O 0.026(1) -0.2852(11) 0.1083(8)
O38 O 0.1075(10) -0.1829(11) 0.2991(9)
O39 O 0.1852(10) 0.1366(12) 0.2168(10)
O40 O 0.431(1) 0.1149(11) 0.3860(8)
O41 O 0.0303(10) -0.1532(10) 0.1434(9)
O42 O 0.1968(9) -0.431(1) 0.1523(7)
O43 O 0.1842(10) -0.2904(11) 0.3014(8)
O44 O 0.4647(11) -0.0410(13) 0.1927(10)
O45 O -0.0312(11) -0.4054(11) 0.0532(9)
O46 O 0.4869(10) 0.0357(11) 0.2900(8)
O47 O 0.1028(11) 0.1289(12) 0.1034(10)
O48 O 0.3035(12) 0.0997(12) 0.1199(9)
O49 O 0.2356(12) -0.0593(13) 0.1359(10)
O50 O 0.0727(10) -0.3055(10) 0.3095(8)
O51 O 0.3794(12) 0.0394(14) 0.2739(10)
O52 O 0.0189(9) -0.2398(10) 0.2181(7)
O53 O 0.293(1) -0.2687(11) 0.3023(9)
O54 O 0.0862(10) -0.5428(10) 0.2577(8)
O55 O 0.2554(10) -0.4444(10) 0.4142(8)
O56 O 0.3999(13) -0.1345(15) 0.3515(11)
O57 O 0.3505(13) -0.2579(13) 0.2343(10)
O58 O 0.4578(12) -0.0131(13) 0.3678(9)
O59 O 0.2420(11) -0.3084(12) 0.1467(9)
O60 O 0.4155(10) 0.0878(11) 0.1908(9)
O61 O 0.4610(11) 0.1600(11) 0.3088(9)
O62 O 0.3458(11) 0.2930(12) 0.231(1)
O63 O 0.3416(12) 0.1054(12) 0.4034(9)
O64 O 0.4078(12) 0.2168(14) 0.444(1)
O65 O 0.2614(11) -0.0194(12) 0.0546(9)
O66 O 0.2168(11) 0.1841(12) 0.1436(10)
O67 O 0.2244(11) 0.1083(12) 0.3317(9)
O68 O 0.5460(11) 0.0849(12) 0.3997(9)
O69 O 0.2689(12) -0.5186(11) 0.2421(9)
O70 O 0.3072(12) 0.2364(13) 0.131(1)
O71 O 0.4234(12) -0.0720(12) 0.2692(10)
O72 O 0.2978(11) 0.2201(12) 0.3521(9)
O73 O 0.1758(9) 0.2399(11) 0.2890(9)
O74 O 0.3883(11) 0.2283(12) 0.3310(9)
O75 O 0.3862(10) 0.1715(12) 0.0976(9)
O76 O 0.1526(11) -0.3631(11) 0.0467(8)
O77 O 0.2557(13) 0.2423(13) 0.2419(12)
O78 O 0.3481(12) -0.0086(13) 0.3567(10)
K1 K -0.0958(4) -0.1746(4) 0.2057(3)
K2 K 0.5354(5) 0.2946(5) 0.2390(5)
Na1 Na 0.1564(9) 0.1501(12) 0.3932(8)
Na2 Na -0.4584(12) 0.1500(14) 0.2493(11)
Na3 Na -0.3142(16) -0.1346(14) 0.1952(12)
Na4 Na -0.0996(13) 0.7753(14) 0.1021(11)
Na5 Na -0.0999(8) 0.5533(9) 0.2628(7)
N1 N 0.0062(15) -0.1161(16) 0.4182(12)
N2 N -0.0980(16) -0.1314(15) 0.3929(10)
N3 N -0.0348(13) -0.2302(13) 0.4178(10)
N4 N -0.0630(11) -0.1703(12) 0.3272(9)
N5 N 0.6223(13) 0.2940(14) 0.3678(11)
N6 N 0.7178(15) 0.3055(17) 0.4433(12)
N7 N 0.6587(18) 0.2046(19) 0.4399(14)
N8 N 0.635(2) 0.315(3) 0.459(2)
N9 N -0.0098(13) 1.0525(14) 0.1171(11)
N10 N -0.1019(11) 0.9916(12) 0.0800(9)
N11 N -0.0441(12) 0.9914(11) 0.0316(10)
N12 N -0.0906(11) 1.0940(12) 0.0312(9)
C1 C -0.0098(16) -0.1321(18) 0.3572(12)
H1 H -0.01370 -0.08990 0.33730
H2 H 0.02270 -0.15710 0.35670
C2 C -0.043(2) -0.089(2) 0.4205(18)
H3 H -0.05170 -0.04460 0.40220
H4 H -0.03360 -0.08160 0.45980
C3 C 0.0222(17) -0.1864(18) 0.4463(14)
H5 H 0.03540 -0.18270 0.48670
H6 H 0.05370 -0.20670 0.44070
C4 C -0.109(2) -0.138(2) 0.3372(18)
H7 H -0.11580 -0.09290 0.32070
H8 H -0.14530 -0.16320 0.31700
C5 C -0.0796(19) -0.198(2) 0.4252(16)
H9 H -0.06590 -0.19000 0.46520
H10 H -0.11370 -0.22810 0.41190
C6 C -0.0514(16) -0.2361(15) 0.3578(12)
H11 H -0.01990 -0.25930 0.35410
H12 H -0.08660 -0.26390 0.33980
C7 C 0.6779(18) 0.314(2) 0.3830(14)
H13 H 0.67730 0.36170 0.37340
H14 H 0.69320 0.28900 0.36150
C8 C 0.624(2) 0.218(2) 0.3805(19)
H15 H 0.58390 0.20190 0.36790
H16 H 0.64050 0.19380 0.35960
C9 C 0.700(2) 0.345(3) 0.480(2)
H17 H 0.69900 0.39300 0.47310
H18 H 0.72480 0.33560 0.51980
C10 C 0.639(3) 0.245(3) 0.469(2)
H19 H 0.66470 0.23880 0.50920
H20 H 0.59980 0.22970 0.46150
C11 C 0.603(2) 0.332(2) 0.4016(17)
H21 H 0.60730 0.38010 0.39690
H22 H 0.56090 0.32350 0.38890
C12 C 0.710(2) 0.222(3) 0.447(2)
H23 H 0.71750 0.20020 0.41840
H24 H 0.73980 0.20620 0.48370
C13 C -0.0822(14) 0.9479(14) 0.0448(11)
H25 H -0.06070 0.90850 0.06610
H26 H -0.11610 0.93280 0.01040
C14 C -0.0506(15) 1.0163(16) 0.1310(12)
H27 H -0.06400 1.04610 0.15170
H28 H -0.03030 0.97840 0.15540
C15 C -0.0397(18) 1.1120(19) 0.0883(15)
H29 H -0.01230 1.14160 0.08320
H30 H -0.05470 1.13590 0.11080
C16 C 0.0079(14) 1.0075(15) 0.0807(11)
H31 H 0.03520 1.03130 0.07110
H32 H 0.02700 0.96670 0.10120
C17 C -0.1321(14) 1.0565(15) 0.0464(12)
H33 H -0.16760 1.04450 0.01220
H34 H -0.14350 1.08530 0.06910
C18 C -0.0705(14) 1.0488(14) 0.0020(11)
H35 H -0.10390 1.03600 -0.03360
H36 H -0.04250 1.07260 -0.00680
O79 O 0.0967(15) 0.0328(17) 0.3409(13)
O80 O 0.435(4) 0.388(4) 0.173(3)
O81 O -0.371(3) 0.064(3) 0.301(2)
O82 O -0.1061(19) 0.794(2) 0.0014(16)
O83 O -0.193(3) 0.821(3) -0.012(2)
O84 O 0.540(2) 0.891(3) 0.433(2)
O85 O 0.1864(19) 0.458(2) 0.0917(16)
O86 O 0.447(4) 1.028(4) 0.487(3)
O87 O 0.322(4) 1.043(4) 0.007(3)
O88 O 0.427(2) 0.729(3) 0.398(2)
O89 O 0.382(2) 0.914(3) 0.484(2)
O90 O 0.468(3) 0.832(3) 0.487(3)
O91 O 0.219(3) 0.609(3) -0.017(2)
O92 O -0.389(3) -0.071(3) 0.232(3)
O93 O 0.1674(16) 0.9280(17) 0.3759(14)
O94 O -0.217(4) -0.104(4) 0.184(3)
O95 O 0.199(5) 0.465(5) -0.009(4)
C19 C 0.068(2) -0.070(2) 0.4458(19)
H37 H 0.05960 -0.02580 0.42930
H38 H 0.09710 -0.09160 0.43810
H39 H 0.08260 -0.06660 0.48600
C20 C -0.1455(17) 0.9563(19) 0.0896(14)
H40 H -0.12880 0.91500 0.10970
H41 H -0.17900 0.94610 0.05400
H42 H -0.15780 0.98410 0.11170
O96 O 0.482(3) 0.273(3) 0.121(2)
O54A O -0.0862(10) -0.0428(10) 0.2423(8)
O57A O 0.6495(13) 0.2421(13) 0.2657(10)
O71A O 0.5766(12) 0.4280(12) 0.2308(10)
O73A O -0.1758(9) -0.2601(11) 0.2110(9)
K1A K 0.0958(4) -0.6746(4) 0.2943(3)
K1A* K 0.0958(4) 0.3254(4) 0.2943(3)
K2A K 0.4646(5) -0.2054(5) 0.2610(5)
#END
