
#######################################################################
#
#                 Cambridge Crystallographic Data Centre
#                                CCDC
#
#######################################################################
#
# If this CIF has been generated from an entry in the Cambridge
# Structural Database, then it will include bibliographic, chemical,
# crystal, experimental, refinement or atomic coordinate data resulting
# from the CCDC's data processing and validation procedures.
#
#######################################################################

data_CSD_CIF_EKUBES
_audit_creation_date 2011-03-25
_audit_creation_method CSD-ConQuest-V1
_database_code_CSD EKUBES
_database_code_depnum_ccdc_archive 'CCDC 756189'
_chemical_formula_sum 'C27 H32 Co2 N4 O14'
_chemical_formula_moiety
;
(C13 H22 Co1 N2 O4 2+)n,n(C14 H6 Co1 N2 O8 2-),2n(H2 O1)
;
_journal_coden_Cambridge 155
_journal_volume 365
_journal_year 2011
_journal_page_first 454
_journal_name_full 'Inorg.Chim.Acta '
loop_
_publ_author_name
"L.F.Marques"
"M.V.Marinho"
"N.L.Speziali"
"L.do C.Visentin"
"F.C.Machado"
_chemical_name_systematic
;
catena-((\m~2~-1,3-bis(4-pyridyl)propane)-tetraaqua-cobalt(ii) 
bis(pyridine-2,6-dicarboxylato)-cobalt(ii) dihydrate)
;
_cell_volume   1582.602
_exptl_crystal_colour 'orange'
_exptl_crystal_density_diffrn 1.583
_exptl_crystal_description 'block'
_diffrn_ambient_temperature 295
#These two values have been output from a single CSD field.
_refine_ls_R_factor_gt 0.0402
_refine_ls_wR_factor_gt 0.0402
_symmetry_cell_setting monoclinic
_symmetry_space_group_name_H-M 'P 2/c'
_symmetry_Int_Tables_number 13
loop_
_symmetry_equiv_pos_site_id
_symmetry_equiv_pos_as_xyz
1 x,y,z
2 -x,y,1/2-z
3 -x,-y,-z
4 x,-y,-1/2+z
_cell_length_a 9.764(2)
_cell_length_b 8.9979(18)
_cell_length_c 18.269(4)
_cell_angle_alpha 90
_cell_angle_beta 99.59(3)
_cell_angle_gamma 90
_cell_formula_units_Z 2
loop_
_atom_type_symbol
_atom_type_radius_bond
C 0.68
H 0.23
Co 1.26
N 0.68
O 0.68
loop_
_atom_site_label
_atom_site_type_symbol
_atom_site_fract_x
_atom_site_fract_y
_atom_site_fract_z
O1 O 0.4957(2) -0.0304(2) 0.6570(1)
O2 O 0.3768(2) -0.0736(2) 0.54228(10)
O3 O 0.3334(2) 0.4211(3) 0.42299(12)
O4 O 0.5177(2) 0.2860(2) 0.54030(12)
O5 O 0.2035(2) 0.4076(2) 0.81280(11)
O6 O 0.7236(3) -0.1179(3) 0.59161(17)
O7 O 0.40036(19) 0.2804(2) 0.81264(10)
C1 C 0.2770(3) 0.3189(3) 0.78499(14)
H1 H 0.291(4) 0.474(5) 0.388(2)
H2 H 0.704(5) -0.081(6) 0.553(3)
H3 H 0.310(4) 0.338(5) 0.417(2)
H4 H 0.670(5) -0.096(5) 0.617(2)
H5 H 0.548(4) 0.279(5) 0.586(2)
H6 H 0.548(4) 0.226(5) 0.516(2)
Co1 Co 0.50000 0.12260(6) 0.75000
Co2 Co 0.50000 0.50000 0.50000
N1 N 0.3078(2) 0.1514(2) 0.68836(11)
N2 N 0.6512(3) 0.4398(3) 0.42391(12)
C2 C 0.2760(3) 0.0809(3) 0.62340(14)
C3 C 0.1485(3) 0.1022(4) 0.57894(16)
H7 H 0.12620 0.05260 0.53390
C4 C 0.0544(3) 0.1991(4) 0.60288(16)
H8 H -0.03290 0.21300 0.57440
C5 C 0.0909(3) 0.2752(4) 0.66923(15)
H9 H 0.03010 0.34270 0.68520
C6 C 0.2198(3) 0.2481(3) 0.71106(14)
C7 C 0.8738(3) 0.3378(4) 0.41146(18)
H10 H 0.96570 0.32140 0.43300
C8 C 0.8265(3) 0.2906(3) 0.33949(16)
C9 C 0.6921(3) 0.3274(4) 0.31038(16)
H11 H 0.65630 0.30200 0.26160
C10 C 0.6090(3) 0.4023(4) 0.35307(16)
H12 H 0.51910 0.42760 0.33110
C11 C 0.3922(3) -0.0171(3) 0.60549(15)
C12 C 0.9167(3) 0.2014(4) 0.29582(17)
H13 H 0.85820 0.13430 0.26280
H14 H 0.98070 0.14150 0.33000
C13 C 1.00000 0.2976(5) 0.25000
H15 H 1.06290 0.36090 0.28290
C14 C 0.7844(3) 0.4096(4) 0.45141(17)
H16 H 0.81860 0.43840 0.49990
O1A O 0.5043(2) -0.0304(2) 0.8430(1)
O2A O 0.6232(2) -0.0736(2) 0.95772(10)
O3B O 0.6666(2) 0.5789(3) 0.57701(12)
O4B O 0.4823(2) 0.7140(2) 0.45970(12)
O5A O 0.7965(2) 0.4076(2) 0.68720(11)
O7A O 0.59964(19) 0.2804(2) 0.68736(10)
C1A C 0.7230(3) 0.3189(3) 0.71501(14)
H1B H 0.709(4) 0.526(5) 0.612(2)
H3B H 0.690(4) 0.662(5) 0.583(2)
H5B H 0.452(4) 0.721(5) 0.414(2)
H6B H 0.452(4) 0.774(5) 0.484(2)
Co2A Co 1.50000 0.50000 0.00000
N1A N 0.6922(2) 0.1514(2) 0.81164(11)
N2A N 1.3488(3) 0.4398(3) 0.07609(12)
N2B N 0.3488(3) 0.5602(3) 0.57609(12)
C2A C 0.7240(3) 0.0809(3) 0.87660(14)
C3A C 0.8515(3) 0.1022(4) 0.92106(16)
H7A H 0.87380 0.05260 0.96610
C4A C 0.9456(3) 0.1991(4) 0.89712(16)
H8A H 1.03290 0.21300 0.92560
C5A C 0.9091(3) 0.2752(4) 0.83077(15)
H9A H 0.96990 0.34270 0.81480
C6A C 0.7802(3) 0.2481(3) 0.78894(14)
C7A C 1.1262(3) 0.3378(4) 0.08854(18)
H10A H 1.03430 0.32140 0.06700
C8A C 1.1735(3) 0.2906(3) 0.16051(16)
C9A C 1.3079(3) 0.3274(4) 0.18962(16)
H11A H 1.34370 0.30200 0.23840
C10A C 1.3910(3) 0.4023(4) 0.14693(16)
H12A H 1.48090 0.42760 0.16890
C11A C 0.6078(3) -0.0171(3) 0.89451(15)
C12A C 1.0833(3) 0.2014(4) 0.20418(17)
H13A H 1.14180 0.13430 0.23720
H14A H 1.01930 0.14150 0.17000
H15A H 0.93710 0.36090 0.21710
C14A C 1.2156(3) 0.4096(4) 0.04859(17)
H16A H 1.18140 0.43840 0.00010
#END
