
#######################################################################
#
#                 Cambridge Crystallographic Data Centre
#                                CCDC
#
#######################################################################
#
# If this CIF has been generated from an entry in the Cambridge
# Structural Database, then it will include bibliographic, chemical,
# crystal, experimental, refinement or atomic coordinate data resulting
# from the CCDC's data processing and validation procedures.
#
#######################################################################

data_CSD_CIF_EKUKUS
_audit_creation_date 2016-04-25
_audit_creation_method CSD-ConQuest-V1
_database_code_CSD EKUKUS
_database_code_depnum_ccdc_archive 'CCDC 1419480'
_chemical_formula_sum 'C50 H41 As1 Co1 N11 W1'
_chemical_formula_moiety
;
(C26 H21 Co1 N11 W1 1-)n,n(C24 H20 As1 1+)
;
_journal_coden_Cambridge 1540
_journal_volume 6
_journal_year 2016
_journal_page_first 24372
_journal_name_full 'Scientific Reports '
loop_
_publ_author_name
"Rong-Min Wei"
"Fan Cao"
"Jing Li"
"Li Yang"
"Yuan Han"
"Xiu-Ling Zhang"
"Zaichao Zhang"
"Xin-Yi Wang"
"You Song"
_chemical_name_systematic
;
catena-(Tetraphenylarsonium 
tris(\m~2~-cyano)-pentacyano-tris(3-methylpyridine)-cobalt-tungsten)
;
_cell_volume   2311.767
_exptl_crystal_colour 'red'
_exptl_crystal_density_diffrn 1.6
_exptl_crystal_description 'strip'
_diffrn_ambient_temperature 296
#These two values have been output from a single CSD field.
_refine_ls_R_factor_gt 0.0712
_refine_ls_wR_factor_gt 0.0712
_symmetry_cell_setting triclinic
_symmetry_space_group_name_H-M 'P -1'
_symmetry_Int_Tables_number 2
loop_
_symmetry_equiv_pos_site_id
_symmetry_equiv_pos_as_xyz
1 x,y,z
2 -x,-y,-z
_cell_length_a 10.560(4)
_cell_length_b 13.036(4)
_cell_length_c 18.803(6)
_cell_angle_alpha 84.554(5)
_cell_angle_beta 74.188(5)
_cell_angle_gamma 68.166(5)
_cell_formula_units_Z 2
loop_
_atom_type_symbol
_atom_type_radius_bond
C 0.68
H 0.23
As 1.21
Co 1.26
N 0.68
W 1.62
loop_
_atom_site_label
_atom_site_type_symbol
_atom_site_fract_x
_atom_site_fract_y
_atom_site_fract_z
N1 N 0.5218(15) 0.9925(14) 0.3689(8)
N2 N 1.1017(17) 1.0384(14) 0.3623(8)
C1 C 0.790(2) 0.9738(14) 0.4553(9)
C2 C 1.0070(15) 1.0122(12) 0.3558(8)
C3 C 0.745(2) 1.1294(16) 0.3555(11)
C4 C 0.8403(19) 1.031(2) 0.2311(11)
C5 C 1.059(2) 0.8725(15) 0.2572(10)
C6 C 0.832(2) 0.8289(19) 0.2786(13)
C7 C 0.6367(18) 0.9771(14) 0.3602(9)
C8 C 0.962(3) 0.803(3) 0.3885(13)
C9 C 0.681(3) 0.7687(19) 0.5748(14)
H1 H 0.60650 0.82170 0.55930
C10 C 0.721(3) 0.658(2) 0.5543(16)
H2 H 0.67510 0.63640 0.52650
C11 C 0.839(3) 0.5811(19) 0.5791(15)
H3 H 0.87230 0.50720 0.56530
C12 C 0.901(3) 0.6118(19) 0.6208(13)
C13 C 0.858(3) 0.7227(19) 0.6362(11)
H4 H 0.90810 0.74450 0.66150
C14 C 1.022(3) 0.527(2) 0.6423(19)
H5 H 1.10420 0.51050 0.60120
H6 H 1.00180 0.46070 0.65660
H7 H 1.03980 0.55340 0.68310
C15 C 0.7107(19) 0.9664(17) 0.7974(10)
H8 H 0.79030 0.98330 0.77420
C16 C 0.6806(19) 0.9508(16) 0.875(1)
C17 C 0.558(2) 0.9292(18) 0.9084(10)
H9 H 0.53450 0.91770 0.95910
C18 C 0.475(2) 0.925(2) 0.8666(10)
H10 H 0.39110 0.91280 0.88870
C19 C 0.513(2) 0.9386(19) 0.7908(11)
H11 H 0.45470 0.93420 0.76280
C20 C 0.779(3) 0.960(2) 0.9173(12)
H12 H 0.85550 0.89040 0.91520
H13 H 0.72810 0.97890 0.96790
H14 H 0.81540 1.01620 0.89560
N3 N 0.6325(17) 1.1549(12) 0.6365(10)
C21 C 0.4969(17) 1.2172(17) 0.6760(11)
H15 H 0.44800 1.18540 0.71470
C22 C 0.4345(19) 1.3272(17) 0.6578(15)
H16 H 0.34380 1.36890 0.68430
C23 C 0.508(3) 1.3747(14) 0.6001(17)
H17 H 0.46590 1.44830 0.58790
C24 C 0.643(3) 1.3124(19) 0.5605(12)
C25 C 0.7056(18) 1.2025(17) 0.5787(10)
H18 H 0.79630 1.16070 0.55220
C26 C 0.733(4) 1.358(3) 0.495(2)
H19 H 0.68230 1.43530 0.48860
H20 H 0.75280 1.31840 0.45070
H21 H 0.82060 1.34990 0.50580
Co1 Co 0.6904(2) 0.97549(19) 0.63365(11)
N4 N 0.7485(15) 0.9870(13) 0.5177(8)
N5 N 0.6312(16) 0.9580(14) 0.7563(7)
N6 N 0.7469(18) 0.8019(14) 0.6167(9)
N7 N 0.690(2) 1.2225(15) 0.3643(13)
N8 N 0.820(2) 1.0724(19) 0.1755(9)
N9 N 1.1659(18) 0.8306(17) 0.2163(11)
N10 N 0.822(2) 0.763(2) 0.2473(15)
N11 N 1.017(4) 0.718(2) 0.4129(17)
W1 W 0.85981(7) 0.95414(6) 0.33601(4)
As1 As 0.20517(18) 0.46825(15) 1.0961(1)
C27 C 0.148(2) 0.6138(16) 1.0547(10)
C28 C 0.061(2) 0.7014(18) 1.0970(11)
H22 H 0.02400 0.69300 1.14710
C29 C 0.027(2) 0.8087(19) 1.0643(13)
H23 H -0.04160 0.86930 1.09190
C30 C 0.092(2) 0.8228(18) 0.9936(11)
H24 H 0.07660 0.89350 0.97420
C31 C 0.183(3) 0.7317(17) 0.9505(12)
H25 H 0.22680 0.74240 0.90180
C32 C 0.212(2) 0.6225(16) 0.9777(10)
H26 H 0.26820 0.56080 0.94770
C33 C 0.3192(19) 0.3628(14) 1.0158(10)
C34 C 0.458(2) 0.344(2) 0.9908(13)
H27 H 0.50060 0.37460 1.01590
C35 C 0.538(3) 0.280(2) 0.9283(16)
H28 H 0.63390 0.26830 0.91150
C36 C 0.476(3) 0.235(2) 0.8909(14)
H29 H 0.52950 0.19260 0.84850
C37 C 0.334(3) 0.2533(18) 0.9170(13)
H30 H 0.29060 0.22290 0.89240
C38 C 0.256(2) 0.3170(18) 0.9800(11)
H31 H 0.16070 0.32870 0.99810
C39 C 0.046(2) 0.4297(17) 1.1454(10)
C40 C -0.095(2) 0.5040(19) 1.1553(13)
H32 H -0.11350 0.57560 1.13730
C41 C -0.202(2) 0.472(2) 1.1904(14)
H33 H -0.29490 0.51880 1.19460
C42 C -0.170(3) 0.364(2) 1.2213(14)
H34 H -0.24300 0.34240 1.24980
C43 C -0.037(3) 0.2943(19) 1.2094(14)
H35 H -0.01780 0.22280 1.22760
C44 C 0.069(2) 0.3239(17) 1.1727(12)
H36 H 0.16090 0.27300 1.16490
C45 C 0.309(2) 0.4595(18) 1.1672(11)
C46 C 0.286(3) 0.554(2) 1.2049(14)
H37 H 0.22650 0.62230 1.19270
C47 C 0.351(3) 0.548(3) 1.2595(15)
H38 H 0.33360 0.61050 1.28600
C48 C 0.448(3) 0.442(3) 1.2752(14)
H39 H 0.49600 0.43580 1.31090
C49 C 0.468(3) 0.349(2) 1.2369(16)
H40 H 0.52950 0.28080 1.24720
C50 C 0.398(3) 0.358(2) 1.1839(14)
H41 H 0.41010 0.29480 1.15920
N1A N 0.4782(15) 1.0075(14) 0.6311(8)
N2A N 0.8983(17) 0.9616(14) 0.6377(8)
Co1A Co 0.3096(2) 1.02451(19) 0.36635(11)
Co1A* Co 1.3096(2) 1.02451(19) 0.36635(11)
#END
