
#######################################################################
#
#                 Cambridge Crystallographic Data Centre
#                                CCDC
#
#######################################################################
#
# If this CIF has been generated from an entry in the Cambridge
# Structural Database, then it will include bibliographic, chemical,
# crystal, experimental, refinement or atomic coordinate data resulting
# from the CCDC's data processing and validation procedures.
#
#######################################################################

data_CSD_CIF_EKUKOM
_audit_creation_date 2016-04-25
_audit_creation_method CSD-ConQuest-V1
_database_code_CSD EKUKOM
_database_code_depnum_ccdc_archive 'CCDC 1419479'
_chemical_formula_sum 'C50 H42.2 Co1 N11 O0.6 P1 W1'
_chemical_formula_moiety
;
(C26 H21 Co1 N11 W1 1-)n,n(C24 H20 P1 1+),0.6n(H2 O1)
;
_journal_coden_Cambridge 1540
_journal_volume 6
_journal_year 2016
_journal_page_first 24372
_journal_name_full 'Scientific Reports '
loop_
_publ_author_name
"Rong-Min Wei"
"Fan Cao"
"Jing Li"
"Li Yang"
"Yuan Han"
"Xiu-Ling Zhang"
"Zaichao Zhang"
"Xin-Yi Wang"
"You Song"
_chemical_name_systematic
;
catena-(Tetraphenylphosphonium 
tris(\m~2~-cyano-C,N)-pentacyano-tris(3-methylpyridine)-cobalt-tungsten 
hydrate)
;
_cell_volume   2241.486
_exptl_crystal_colour 'red'
_exptl_crystal_description 'strip'
_diffrn_ambient_temperature 123
_refine_special_details
;
One of the ligands represented as 3-methylpyridine is a mixed 
3-methylpyridine/aqua ligand with occupancies 0.7:0.3.
;
#These two values have been output from a single CSD field.
_refine_ls_R_factor_gt 0.0442
_refine_ls_wR_factor_gt 0.0442
_symmetry_cell_setting triclinic
_symmetry_space_group_name_H-M 'P -1'
_symmetry_Int_Tables_number 2
loop_
_symmetry_equiv_pos_site_id
_symmetry_equiv_pos_as_xyz
1 x,y,z
2 -x,-y,-z
_cell_length_a 10.5166(6)
_cell_length_b 12.8081(7)
_cell_length_c 18.5932(10)
_cell_angle_alpha 84.308(2)
_cell_angle_beta 74.162(2)
_cell_angle_gamma 68.484(1)
_cell_formula_units_Z 2
loop_
_atom_type_symbol
_atom_type_radius_bond
C 0.68
H 0.23
Co 1.26
N 0.68
O 0.68
P 1.05
W 1.62
loop_
_atom_site_label
_atom_site_type_symbol
_atom_site_fract_x
_atom_site_fract_y
_atom_site_fract_z
C1 C 1.1367(9) -0.0259(7) 0.3599(4)
C2 C 1.5157(8) 0.0082(7) 0.3542(4)
C3 C 1.2870(8) -0.0220(7) 0.4542(5)
C4 C 1.5595(9) -0.1318(7) 0.2547(5)
C5 C 1.3361(8) 0.0320(7) 0.2276(5)
C6 C 1.2478(9) 0.1326(8) 0.3535(5)
C7 C 1.3300(9) -0.1748(9) 0.2755(6)
C8 C 1.4500(12) -0.2023(9) 0.3894(5)
C9 C 0.7918(8) 0.0290(7) 0.1998(4)
H1 H 0.70800 0.01430 0.22390
C10 C 0.8198(9) 0.0458(7) 0.1227(4)
C11 C 0.9422(9) 0.0676(7) 0.0889(5)
H2 H 0.96350 0.08230 0.03680
C12 C 1.0331(9) 0.0683(7) 0.1293(5)
H3 H 1.11890 0.08040 0.10600
N1 N 0.8747(7) 0.0322(6) 0.2421(4)
C13 C 0.9940(8) 0.0503(7) 0.2065(4)
H4 H 1.05570 0.05110 0.23530
C14 C 0.7177(10) 0.0404(8) 0.0797(5)
H5 H 0.76340 0.03550 0.02600
H6 H 0.63260 0.10820 0.08990
H7 H 0.69150 -0.02580 0.09550
Co1 Co 0.81069(11) 0.01838(9) 0.36545(6)
N2 N 1.0197(7) -0.0114(6) 0.3681(4)
N3 N 1.6042(7) 0.0334(6) 0.3617(4)
N4 N 1.2505(7) -0.0103(6) 0.5175(4)
N5 N 1.6648(7) -0.1732(6) 0.2121(4)
N6 N 1.3249(8) 0.0718(7) 0.1709(4)
N7 N 1.1875(8) 0.2263(7) 0.3630(4)
N8 N 1.3115(9) -0.2373(9) 0.2448(6)
N9 N 1.5033(15) -0.2847(9) 0.4160(6)
W1 W 1.35843(3) -0.04865(3) 0.334521(18)
N10 N 0.7580(7) 0.1944(6) 0.3787(4)
C15 C 0.6466(9) 0.2718(7) 0.3591(5)
H8 H 0.59660 0.24800 0.33250
C16 C 0.6001(11) 0.3869(8) 0.3761(6)
C17 C 0.6745(11) 0.4196(9) 0.4156(6)
H9 H 0.64680 0.49670 0.42710
C18 C 0.7872(11) 0.3426(9) 0.4384(6)
H10 H 0.83770 0.36460 0.46560
C19 C 0.8234(10) 0.2318(8) 0.4199(6)
H11 H 0.89900 0.17750 0.43680
C20 C 0.4758(13) 0.4702(10) 0.3525(7)
H12 H 0.43800 0.43140 0.32550
H13 H 0.50550 0.52640 0.31970
H14 H 0.40260 0.50730 0.39680
N11 N 0.8665(16) -0.1638(13) 0.3680(7)
C21 C 0.7965(14) -0.2121(10) 0.4245(7)
H15 H 0.70480 -0.16580 0.45080
C22 C 0.8446(16) -0.3232(11) 0.4485(8)
C23 C 0.9798(15) -0.3912(13) 0.4075(8)
H16 H 1.01570 -0.46870 0.41910
C24 C 1.0592(17) -0.3475(12) 0.3518(9)
H17 H 1.15260 -0.39210 0.32640
C25 C 0.9990(13) -0.2344(10) 0.3328(8)
H18 H 1.05390 -0.20460 0.29280
C26 C 0.7630(17) -0.3668(13) 0.5123(8)
H19 H 0.74960 -0.43220 0.49670
H20 H 0.67060 -0.30860 0.53160
H21 H 0.81370 -0.38910 0.55160
O1? O 0.856(4) -0.147(3) 0.3458(15)
H22? H 0.81220 -0.17670 0.38220
H23? H 0.94400 -0.18510 0.33600
O2? O 1.085(3) -0.325(2) 0.3051(15)
O3? O 0.755(5) -0.298(4) 0.436(2)
C27 C 0.6601(8) 0.6023(6) 0.0556(4)
C28 C 0.5655(8) 0.6958(7) 0.0993(5)
H24 H 0.52280 0.68580 0.15030
C29 C 0.5338(9) 0.8022(7) 0.0693(5)
H25 H 0.47020 0.86510 0.09950
C30 C 0.5948(9) 0.8171(7) -0.0050(5)
H26 H 0.57350 0.89040 -0.02580
C31 C 0.6866(9) 0.7256(7) -0.0488(5)
H27 H 0.72730 0.73620 -0.10000
C32 C 0.7198(9) 0.6190(7) -0.0191(5)
H28 H 0.78380 0.55670 -0.04980
C33 C 0.8109(8) 0.4562(7) 0.1621(4)
C34 C 0.7949(9) 0.5510(7) 0.1980(5)
H29 H 0.73520 0.62260 0.18560
C35 C 0.8666(10) 0.5415(8) 0.2525(5)
H30 H 0.85550 0.60710 0.27700
C36 C 0.9537(10) 0.4382(8) 0.2717(5)
H31 H 1.00300 0.43260 0.30860
C37 C 0.9677(10) 0.3440(8) 0.2364(5)
H32 H 1.02460 0.27250 0.25050
C38 C 0.8995(10) 0.3516(8) 0.1801(5)
H33 H 0.91340 0.28610 0.15450
C39 C 0.8162(9) 0.3658(7) 0.0218(4)
C40 C 0.7504(9) 0.3204(7) -0.0152(5)
H34 H 0.65270 0.33200 0.00370
C41 C 0.8297(10) 0.2566(7) -0.0812(5)
H35 H 0.78610 0.22580 -0.10770
C42 C 0.9739(11) 0.2403(8) -0.1063(5)
H36 H 1.02790 0.19940 -0.15120
C43 C 1.0394(10) 0.2822(8) -0.0672(5)
H37 H 1.13830 0.26690 -0.08390
C44 C 0.9612(9) 0.3461(7) -0.0045(5)
H38 H 1.00560 0.37710 0.02130
C45 C 0.5588(8) 0.4274(7) 0.1425(4)
C46 C 0.4215(9) 0.5003(8) 0.1488(5)
H39 H 0.40410 0.57230 0.12610
C47 C 0.3077(9) 0.4679(8) 0.1887(5)
H40 H 0.21350 0.51920 0.19500
C48 C 0.3325(9) 0.3629(8) 0.2185(5)
H41 H 0.25550 0.34130 0.24580
C49 C 0.4660(11) 0.2898(8) 0.2093(6)
H42 H 0.48190 0.21570 0.22820
C50 C 0.5816(10) 0.3209(8) 0.1725(5)
H43 H 0.67520 0.26920 0.16820
P1 P 0.7105(2) 0.46427(18) 0.09631(12)
Co1* Co 1.81069(11) 0.01838(9) 0.36545(6)
Co1A Co 1.18931(11) -0.01838(9) 0.63455(6)
N3* N 0.6042(7) 0.0334(6) 0.3617(4)
N4A N 0.7495(7) 0.0103(6) 0.4825(4)
#END
