
#######################################################################
#
#                 Cambridge Crystallographic Data Centre
#                                CCDC
#
#######################################################################
#
# If this CIF has been generated from an entry in the Cambridge
# Structural Database, then it will include bibliographic, chemical,
# crystal, experimental, refinement or atomic coordinate data resulting
# from the CCDC's data processing and validation procedures.
#
#######################################################################

data_CSD_CIF_ELAWIZ
_audit_creation_date 2016-04-25
_audit_creation_method CSD-ConQuest-V1
_database_code_CSD ELAWIZ
_database_code_depnum_ccdc_archive 'CCDC 1441663'
_chemical_formula_sum 'C51.6 H74.8 Cu5 N11.2 O14.8 S2.8'
_chemical_formula_moiety
;
(C28 H24 Cu5 N8 O14 S2 2-)n,2(C8 H20 N1 1+),1.2(C5 H5 N1),0.8(C2 H6 O1 S1)
;
_journal_coden_Cambridge 1220
_journal_volume 22
_journal_year 2016
_journal_page_first 6482
_journal_name_full 'Chem.-Eur.J. '
loop_
_publ_author_name
"C.Atzeri"
"L.Marchio"
"Chun Y.Chow"
"J.W.Kampf"
"V.L.Pecoraro"
"M.Tegoni"
_chemical_name_systematic
;
catena-[bis(tetraethylammonium) 
tetrakis(\m-N,3-dioxidopyridine-4-carboximidato)-bis(dimethyl 
sulfoxide)-penta-copper pyridine dimethyl sulfoxide solvate]
;
_cell_volume   3006.036
_exptl_crystal_colour 'green'
_exptl_crystal_density_diffrn 1.654
_exptl_special_details
;
The coordinated dimethyl sulfoxide is partial ocupancy with a pyidine ligand, 
giving a formula in the paper of 
{(NEt4)2[Cu5L4](DMSO)1.4(Py)0.6}(DMSO)0.4(Py)0.6}n
;
_exptl_crystal_description 'plate'
_diffrn_ambient_temperature 85
_refine_special_details
;
The structure is disordered.

;
#These two values have been output from a single CSD field.
_refine_ls_R_factor_gt 0.0605
_refine_ls_wR_factor_gt 0.0605
_symmetry_cell_setting monoclinic
_symmetry_space_group_name_H-M 'P 21/c'
_symmetry_Int_Tables_number 14
loop_
_symmetry_equiv_pos_site_id
_symmetry_equiv_pos_as_xyz
1 x,y,z
2 -x,1/2+y,1/2-z
3 -x,-y,-z
4 x,-1/2-y,-1/2+z
_cell_length_a 15.9549(3)
_cell_length_b 11.5822(2)
_cell_length_c 16.8627(12)
_cell_angle_alpha 90
_cell_angle_beta 105.274(7)
_cell_angle_gamma 90
_cell_formula_units_Z 2
loop_
_atom_type_symbol
_atom_type_radius_bond
C 0.68
H 0.23
Cu 1.32
N 0.68
O 0.68
S 1.02
loop_
_atom_site_label
_atom_site_type_symbol
_atom_site_fract_x
_atom_site_fract_y
_atom_site_fract_z
Cu1 Cu 0.20164(3) 0.06379(5) 0.49829(3)
Cu2 Cu -0.07275(4) 0.18554(5) 0.35266(3)
Cu3 Cu 0.00000 0.00000 0.50000
O1 O -0.05731(18) 0.3174(3) 0.28937(18)
O2 O 0.20063(19) -0.1916(3) 0.67268(18)
O3 O 0.19667(18) 0.2095(3) 0.43587(18)
N1 N 0.0512(2) 0.1701(3) 0.4003(2)
O4 O 0.07854(19) 0.0738(3) 0.45112(19)
O5 O 0.09197(17) -0.1002(3) 0.55288(17)
O6 O 0.31915(19) 0.0761(3) 0.5607(2)
N2 N 0.1775(2) -0.0593(3) 0.5685(2)
N3 N 0.0834(2) 0.5270(3) 0.2351(2)
C1 C 0.0170(3) 0.3680(4) 0.2920(2)
C2 C 0.1003(3) 0.3352(3) 0.3409(2)
C3 C 0.1179(2) 0.2335(4) 0.3953(2)
C4 C 0.1616(3) 0.4948(4) 0.2827(3)
H1 H 0.21150 0.53780 0.28000
C5 C 0.1718(3) 0.4019(4) 0.3350(3)
H2 H 0.22810 0.38260 0.36780
C6 C 0.3597(3) 0.0072(4) 0.6207(3)
N4 N 0.5016(3) -0.0366(5) 0.7135(3)
C7 C 0.0146(3) 0.4650(4) 0.2400(2)
H3 H -0.04050 0.48760 0.20600
C8 C 0.3759(3) -0.1414(5) 0.7231(3)
H4 H 0.35190 -0.19930 0.75050
C9 C 0.2286(3) -0.1130(4) 0.6322(2)
C10 C 0.3215(3) -0.0813(4) 0.6566(3)
C11 C 0.4505(3) 0.0237(5) 0.6530(3)
H5 H 0.47680 0.08330 0.62930
C12 C 0.4633(3) -0.1173(6) 0.7488(3)
H6 H 0.49810 -0.15980 0.79370
S1 S 0.25203(11) -0.14484(14) 0.36523(9)
O7 O 0.2220(4) -0.0243(4) 0.3781(3)
C13 C 0.1782(7) -0.2407(9) 0.3965(6)
H7 H 0.17260 -0.21750 0.45080
H8 H 0.20070 -0.31980 0.39930
H9 H 0.12120 -0.23710 0.35650
C14 C 0.3472(8) -0.1761(12) 0.4490(7)
H10 H 0.39510 -0.12530 0.44500
H11 H 0.36440 -0.25680 0.44560
H12 H 0.33360 -0.16300 0.50160
N5 N 0.2018(3) 0.4231(3) 0.6333(3)
C15 C 0.1093(4) 0.5652(4) 0.5307(3)
H13 H 0.08530 0.57750 0.47150
H14 H 0.14550 0.63140 0.55450
H15 H 0.06160 0.55720 0.55700
C16 C 0.1639(4) 0.4564(5) 0.5447(3)
H16 H 0.12760 0.39160 0.51640
H17 H 0.21220 0.46650 0.51860
C17 C 0.3042(4) 0.2725(5) 0.7168(4)
H18 H 0.33650 0.20260 0.71060
H19 H 0.26030 0.25350 0.74600
H20 H 0.34440 0.33020 0.74830
C18 C 0.2599(4) 0.3208(5) 0.6327(4)
H21 H 0.30510 0.34360 0.60520
H22 H 0.22480 0.25870 0.59930
C19 C 0.1310(4) 0.3936(7) 0.6730(4)
H23 H 0.15750 0.38070 0.73240
H24 H 0.09160 0.46090 0.66780
C20 C 0.0780(5) 0.2901(9) 0.6388(6)
H25 H 0.05470 0.29910 0.57930
H26 H 0.02980 0.28240 0.66450
H27 H 0.11450 0.22100 0.65030
C21 C 0.2544(6) 0.5243(6) 0.6777(5)
H28 H 0.28320 0.50040 0.73470
H29 H 0.21410 0.58810 0.68060
C22 C 0.3234(5) 0.5699(7) 0.6384(7)
H30 H 0.29590 0.59400 0.58180
H31 H 0.36600 0.50900 0.63820
H32 H 0.35280 0.63620 0.67000
C23 C 0.4337(11) 0.2983(11) 0.4386(11)
H33 H 0.45530 0.22330 0.43270
C24 C 0.3976(11) 0.3221(12) 0.5033(9)
H34 H 0.39450 0.26330 0.54170
N6 N 0.3660(11) 0.4320(13) 0.5119(9)
C25 C 0.3706(11) 0.518(1) 0.4558(10)
H35 H 0.34900 0.59310 0.46170
C26 C 0.4067(11) 0.4943(12) 0.3910(9)
H36 H 0.40980 0.55310 0.35270
C27 C 0.4383(11) 0.3844(14) 0.3824(9)
H37 H 0.46300 0.36820 0.33820
N7? N 0.2463(11) -0.0728(18) 0.4177(12)
C28? C 0.1929(13) -0.165(2) 0.3964(11)
H38? H 0.13220 -0.15090 0.38480
C29? C 0.2165(19) -0.272(3) 0.3901(17)
H39? H 0.17280 -0.33030 0.37590
C30? C 0.3004(15) -0.3041(17) 0.4028(13)
H40? H 0.31790 -0.38230 0.40130
C31? C 0.362(2) -0.208(4) 0.419(2)
H41? H 0.42130 -0.21930 0.41960
C32? C 0.3346(17) -0.111(3) 0.433(2)
H42? H 0.37770 -0.05510 0.45610
N8? N 0.3001(11) 0.4326(15) 0.4999(11)
C33? C 0.3364(12) 0.5175(12) 0.4609(12)
H43? H 0.31580 0.59470 0.45890
C34? C 0.4026(13) 0.4893(15) 0.4249(13)
H44? H 0.42740 0.54730 0.39830
C35? C 0.4327(12) 0.3764(17) 0.4278(14)
H45? H 0.47800 0.35710 0.40320
C36? C 0.3964(14) 0.2915(13) 0.4668(14)
H46? H 0.41700 0.21430 0.46880
C37? C 0.3302(13) 0.3196(13) 0.5029(12)
H47? H 0.30540 0.26170 0.52950
S2? S 0.4524(8) 0.3583(11) 0.4751(8)
C38? C 0.402(3) 0.222(2) 0.439(3)
H48? H 0.44500 0.17150 0.42340
H49? H 0.38190 0.18460 0.48260
H50? H 0.35300 0.23450 0.39090
O8? O 0.3832(19) 0.422(2) 0.495(2)
C39? C 0.475(3) 0.399(4) 0.383(2)
H51? H 0.52280 0.35080 0.37420
H52? H 0.42340 0.38750 0.33720
H53? H 0.49250 0.48000 0.38590
C40? C 0.4104(12) 0.1784(12) 0.4300(12)
H54? H 0.45500 0.17030 0.40000
H55? H 0.35340 0.15940 0.39330
H56? H 0.42330 0.12570 0.47710
S3? S 0.4094(6) 0.3282(7) 0.4665(5)
C41? C 0.4887(10) 0.3434(15) 0.3931(9)
H57? H 0.47810 0.41750 0.36400
H58? H 0.47770 0.28020 0.35300
H59? H 0.54920 0.34000 0.42610
O9? O 0.4684(13) 0.3384(19) 0.5448(10)
Cu1B Cu -0.20164(3) -0.06379(5) 0.50171(3)
Cu2B Cu 0.07275(4) -0.18554(5) 0.64734(3)
O1B O 0.05731(18) -0.3174(3) 0.71063(18)
O2B O -0.20063(19) 0.1916(3) 0.32732(18)
O3B O -0.19667(18) -0.2095(3) 0.56413(18)
N1B N -0.0512(2) -0.1701(3) 0.5997(2)
O4B O -0.07854(19) -0.0738(3) 0.54888(19)
O5B O -0.09197(17) 0.1002(3) 0.44712(17)
O6B O -0.31915(19) -0.0761(3) 0.4393(2)
N2B N -0.1775(2) 0.0593(3) 0.4315(2)
N3B N -0.0834(2) -0.5270(3) 0.7649(2)
C1B C -0.0170(3) -0.3680(4) 0.7080(2)
C2B C -0.1003(3) -0.3352(3) 0.6591(2)
C3B C -0.1179(2) -0.2335(4) 0.6047(2)
C4B C -0.1616(3) -0.4948(4) 0.7173(3)
H1B H -0.21150 -0.53780 0.72000
C5B C -0.1718(3) -0.4019(4) 0.6650(3)
H2B H -0.22810 -0.38260 0.63220
C6B C -0.3597(3) -0.0072(4) 0.3793(3)
N4B N -0.5016(3) 0.0366(5) 0.2865(3)
C7B C -0.0146(3) -0.4650(4) 0.7600(2)
H3B H 0.04050 -0.48760 0.79400
C8B C -0.3759(3) 0.1414(5) 0.2769(3)
H4B H -0.35190 0.19930 0.24950
C9B C -0.2286(3) 0.1130(4) 0.3678(2)
C10B C -0.3215(3) 0.0813(4) 0.3434(3)
C11B C -0.4505(3) -0.0237(5) 0.3470(3)
H5B H -0.47680 -0.08330 0.37070
C12B C -0.4633(3) 0.1173(6) 0.2512(3)
H6B H -0.49810 0.15980 0.20630
S1B S -0.25203(11) 0.14484(14) 0.63477(9)
O7B O -0.2220(4) 0.0243(4) 0.6219(3)
C13B C -0.1782(7) 0.2407(9) 0.6035(6)
H7B H -0.17260 0.21750 0.54920
H8B H -0.20070 0.31980 0.60070
H9B H -0.12120 0.23710 0.64350
C14B C -0.3472(8) 0.1761(12) 0.5510(7)
H10B H -0.39510 0.12530 0.55500
H11B H -0.36440 0.25680 0.55440
H12B H -0.33360 0.16300 0.49840
Cu2A Cu 0.07275(4) 0.68554(5) 0.14734(3)
Cu2C Cu -0.07275(4) -0.68554(5) 0.85266(3)
N3A N -0.0834(2) 0.0270(3) 0.2649(2)
N3C N 0.0834(2) -0.0270(3) 0.7351(2)
#END
