
#######################################################################
#
#                 Cambridge Crystallographic Data Centre
#                                CCDC
#
#######################################################################
#
# If this CIF has been generated from an entry in the Cambridge
# Structural Database, then it will include bibliographic, chemical,
# crystal, experimental, refinement or atomic coordinate data resulting
# from the CCDC's data processing and validation procedures.
#
#######################################################################

data_CSD_CIF_ELEFAD
_audit_creation_date 2011-05-12
_audit_creation_method CSD-ConQuest-V1
_database_code_CSD ELEFAD
_database_code_depnum_ccdc_archive 'CCDC 734789'
_chemical_formula_sum 'C36 H34 Cu1 N12 O47 Si1 W12'
_chemical_formula_moiety
;
(C36 H28 Cu1 N12 O4 4+)n,n(O40 Si1 W12 4-),3n(H2 O1)
;
_journal_coden_Cambridge 971
_journal_volume 13
_journal_year 2011
_journal_page_first 344
_journal_name_full 'Solid State Sciences '
loop_
_publ_author_name
"Xiuli Wang"
"Hailiang Hu"
"Baokuan Chen"
"Hongyan Lin"
"Aixiang Tian"
"Jin Li"
_chemical_name_systematic
;
catena-((\m~2~-2,5-bis(4-pyridyl)-1,3,4-oxadiazole)-aqua-bis(2-(4-pyridinio)-5
-(4-pyridyl)-1,3,4-oxadiazole)-copper(ii) 
(\m~12~-silicato)-tetracosakis(\m~2~-oxo)-dodecaoxo-dodeca-tungsten 
trihydrate)
;
_cell_volume   6842.932
_exptl_crystal_density_diffrn 3.64
_diffrn_ambient_temperature 150
_refine_special_details
;
O1,O2,O3,O4 disordered by symmetry over two sites with occupancy 0.50.

;
#These two values have been output from a single CSD field.
_refine_ls_R_factor_gt 0.063
_refine_ls_wR_factor_gt 0.063
_symmetry_cell_setting monoclinic
_symmetry_space_group_name_H-M 'C 2/c'
_symmetry_Int_Tables_number 15
loop_
_symmetry_equiv_pos_site_id
_symmetry_equiv_pos_as_xyz
1 x,y,z
2 -x,y,1/2-z
3 1/2+x,1/2+y,z
4 1/2-x,1/2+y,1/2-z
5 -x,-y,-z
6 x,-y,-1/2+z
7 -1/2-x,-1/2-y,-z
8 -1/2+x,-1/2-y,-1/2+z
_cell_length_a 26.529
_cell_length_b 20.292
_cell_length_c 14.004
_cell_angle_alpha 90
_cell_angle_beta 114.81
_cell_angle_gamma 90
_cell_formula_units_Z 4
loop_
_atom_type_symbol
_atom_type_radius_bond
C 0.68
H 0.23
Cu 1.32
N 0.68
O 0.68
Si 1.20
W 1.36
loop_
_atom_site_label
_atom_site_type_symbol
_atom_site_fract_x
_atom_site_fract_y
_atom_site_fract_z
Cu1 Cu 1.00000 0.15902(18) 0.75000
Si1 Si 0.75000 0.25000 0.00000
W1 W 0.83553(4) 0.12513(5) 0.16957(7)
W2 W 0.80438(4) 0.12340(5) -0.10210(8)
W3 W 0.69979(5) 0.08873(4) -0.01594(8)
W4 W 0.85322(4) 0.28577(5) -0.08998(9)
W5 W 0.71667(4) 0.24546(5) -0.27046(7)
W6 W 0.61360(4) 0.21192(5) -0.18155(7)
N1 N 1.0812(7) 0.1453(9) 0.8489(11)
N2 N 1.0207(7) 0.1510(9) 0.6274(12)
N3 N 1.3978(13) -0.0724(15) 1.418(2)
H1 H 1.41470 -0.10100 1.46900
N4 N 1.2923(9) 0.1421(11) 1.0704(17)
N5 N 1.3356(7) 0.1155(12) 1.1512(19)
N6 N 1.0067(9) 0.0256(9) 0.3057(14)
C1 C 1.176(1) 0.1726(12) 0.9127(18)
H2 H 1.20370 0.19980 0.90650
C2 C 1.1227(9) 0.1797(12) 0.8457(18)
H3 H 1.11410 0.21180 0.79180
C3 C 1.0962(10) 0.0972(11) 0.9263(17)
H4 H 1.06770 0.07000 0.92900
C4 C 1.1474(10) 0.0867(11) 0.9962(16)
H5 H 1.15460 0.05370 1.04850
C5 C 1.1912(10) 0.1237(12) 0.994(2)
C6 C 1.2461(10) 0.1156(11) 1.0607(16)
C7 C 1.3144(8) 0.0714(11) 1.1959(19)
C8 C 1.3439(11) 0.0240(15) 1.2749(19)
C9 C 1.3139(12) -0.0189(14) 1.3080(18)
H6 H 1.27480 -0.01530 1.28360
C10 C 1.3429(16) -0.0658(14) 1.376(2)
H7 H 1.32250 -0.09710 1.39590
C11 C 1.429(2) -0.031(2) 1.378(4)
H8 H 1.46650 -0.03880 1.39170
C12 C 1.4008(14) 0.0195(17) 1.321(3)
H9 H 1.42140 0.05520 1.31150
C13 C 0.9990(11) 0.1743(13) 0.448(2)
H10 H 0.98480 0.20490 0.39120
C14 C 1.0005(10) 0.1900(11) 0.5443(18)
H11 H 0.98610 0.23160 0.55180
C15 C 1.0446(8) 0.0939(11) 0.6179(13)
H12 H 1.06300 0.06780 0.67920
C16 C 1.0438(11) 0.0709(13) 0.5225(18)
H13 H 1.05930 0.02950 0.51770
C17 C 1.0187(11) 0.1129(12) 0.4339(18)
C18 C 1.0106(9) 0.0894(12) 0.3309(17)
O1 O 0.7701(10) 0.1721(13) 0.020(2)
O2 O 0.5927(17) 0.176(2) 0.431(3)
O3 O 0.7042(12) 0.2659(14) -0.110(2)
O4 O 0.5030(17) 0.142(2) -0.011(3)
O5 O 0.8059(10) 0.2947(13) 0.026(2)
O6 O 0.7277(13) 0.2688(16) 0.091(2)
O7 O 0.7667(9) 0.0837(12) 0.1088(17)
O8 O 0.8097(9) 0.1694(10) 0.2586(17)
O9 O 0.8852(8) 0.1953(10) 0.1913(17)
O10 O 0.8442(10) 0.1083(13) 0.0435(19)
O11 O 0.8523(9) 0.1923(10) -0.0958(18)
O12 O 0.8997(13) 0.2817(14) 0.061(2)
O13 O 0.6532(10) 0.2091(12) -0.269(2)
O14 O 0.7898(9) 0.2865(11) -0.215(2)
O15 O 0.6710(12) 0.1306(13) 0.070(2)
O16 O 0.7419(10) 0.0837(13) -0.0942(18)
O17 O 0.7527(10) 0.1624(11) -0.232(2)
O18 O 0.6454(12) 0.1273(13) -0.1335(19)
O19 O 0.8773(9) 0.0670(11) 0.2473(18)
O20 O 0.8293(9) 0.0625(10) -0.1508(16)
O21 O 0.6752(8) 0.0115(8) -0.0272(13)
O22 O 0.9021(7) 0.3004(9) -0.1333(14)
O23 O 0.7029(10) 0.2425(10) -0.3968(16)
O24 O 0.5504(8) 0.1927(10) -0.2688(17)
O25 O 1.2574(5) 0.0701(7) 1.1442(12)
O26 O 1.00000 0.1309(10) 0.25000
O27 O 1.00000 0.2679(12) 0.75000
Cu1* Cu 1.00000 0.15902(18) -0.25000
W1F W 0.66447(4) 0.37487(5) -0.16957(7)
W2F W 0.69562(4) 0.37660(5) 0.10210(8)
W3F W 0.80021(5) 0.41127(4) 0.01594(8)
W4F W 0.64678(4) 0.21423(5) 0.08998(9)
W5F W 0.78333(4) 0.25454(5) 0.27046(7)
W6F W 0.88640(4) 0.28808(5) 0.18155(7)
N1A N 0.9188(7) 0.1453(9) 0.6511(11)
N2A N 0.9793(7) 0.1510(9) -0.1274(12)
N2A* N 0.9793(7) 0.1510(9) 0.8726(12)
N3A N 0.6022(13) -0.0724(15) 0.082(2)
H1A H 0.58530 -0.10100 0.03100
N4A N 0.7077(9) 0.1421(11) 0.4296(17)
N5A N 0.6644(7) 0.1155(12) 0.3488(19)
N6A N 0.9933(9) 0.0256(9) 0.1943(14)
C1A C 0.824(1) 0.1726(12) 0.5873(18)
H2A H 0.79630 0.19980 0.59350
C2A C 0.8773(9) 0.1797(12) 0.6543(18)
H3A H 0.88590 0.21180 0.70820
C3A C 0.9038(10) 0.0972(11) 0.5737(17)
H4A H 0.93230 0.07000 0.57100
C4A C 0.8526(10) 0.0867(11) 0.5038(16)
H5A H 0.84540 0.05370 0.45150
C5A C 0.8088(10) 0.1237(12) 0.506(2)
C6A C 0.7539(10) 0.1156(11) 0.4393(16)
C7A C 0.6856(8) 0.0714(11) 0.3041(19)
C8A C 0.6561(11) 0.0240(15) 0.2251(19)
C9A C 0.6861(12) -0.0189(14) 0.1920(18)
H6A H 0.72520 -0.01530 0.21640
C10A C 0.6571(16) -0.0658(14) 0.124(2)
H7A H 0.67750 -0.09710 0.10410
C11A C 0.571(2) -0.031(2) 0.122(4)
H8A H 0.53350 -0.03880 0.10830
C12A C 0.5992(14) 0.0195(17) 0.179(3)
H9A H 0.57860 0.05520 0.18850
C13A C 1.0010(11) 0.1743(13) 0.052(2)
H10A H 1.01520 0.20490 0.10880
C14A C 0.9995(10) 0.1900(11) -0.0443(18)
H11A H 1.01390 0.23160 -0.05180
C15A C 0.9554(8) 0.0939(11) -0.1179(13)
H12A H 0.93700 0.06780 -0.17920
C16A C 0.9562(11) 0.0709(13) -0.0225(18)
H13A H 0.94070 0.02950 -0.01770
C17A C 0.9813(11) 0.1129(12) 0.0661(18)
C18A C 0.9894(9) 0.0894(12) 0.1691(17)
O1F O 0.7299(10) 0.3279(13) -0.020(2)
O3F O 0.7958(12) 0.2341(14) 0.110(2)
O5F O 0.6941(10) 0.2053(13) -0.026(2)
O6F O 0.7723(13) 0.2312(16) -0.091(2)
O7F O 0.7333(9) 0.4163(12) -0.1088(17)
O8F O 0.6903(9) 0.3306(10) -0.2586(17)
O9F O 0.6148(8) 0.3047(10) -0.1913(17)
O10F O 0.6558(10) 0.3917(13) -0.0435(19)
O11F O 0.6477(9) 0.3077(10) 0.0958(18)
O12F O 0.6003(13) 0.2183(14) -0.061(2)
O13F O 0.8468(10) 0.2909(12) 0.269(2)
O14F O 0.7102(9) 0.2135(11) 0.215(2)
O15F O 0.8290(12) 0.3694(13) -0.070(2)
O16F O 0.7581(10) 0.4163(13) 0.0942(18)
O17F O 0.7473(10) 0.3376(11) 0.232(2)
O18F O 0.8546(12) 0.3727(13) 0.1335(19)
O19F O 0.6227(9) 0.4330(11) -0.2473(18)
O20F O 0.6707(9) 0.4375(10) 0.1508(16)
O21F O 0.8248(8) 0.4885(8) 0.0272(13)
O22F O 0.5979(7) 0.1996(9) 0.1333(14)
O23F O 0.7971(10) 0.2575(10) 0.3968(16)
O24F O 0.9496(8) 0.3073(10) 0.2688(17)
O25A O 0.7426(5) 0.0701(7) 0.3558(12)
#END
