
#######################################################################
#
#                 Cambridge Crystallographic Data Centre
#                                CCDC
#
#######################################################################
#
# If this CIF has been generated from an entry in the Cambridge
# Structural Database, then it will include bibliographic, chemical,
# crystal, experimental, refinement or atomic coordinate data resulting
# from the CCDC's data processing and validation procedures.
#
#######################################################################

data_CSD_CIF_ELEFOR
_audit_creation_date 2011-05-12
_audit_creation_method CSD-ConQuest-V1
_database_code_CSD ELEFOR
_database_code_depnum_ccdc_archive 'CCDC 764818'
_chemical_formula_sum 'C24 H46 Cu3 Mo5 N8 O29 P2'
_chemical_formula_moiety
;
(H2 Mo5 O23 P2 4-)n,n(C20 H16 Cu2 N4 2+),n(C4 H16 Cu1 N4 2+),6n(H2 O1)
;
_journal_coden_Cambridge 971
_journal_volume 13
_journal_year 2011
_journal_page_first 417
_journal_name_full 'Solid State Sciences '
loop_
_publ_author_name
"Zhanhua Su"
"Zhifeng Zhao"
"Baibin Zhou"
"Qinghai Cai"
"Qun Wang"
_chemical_name_systematic
;
catena-(bis(\m~2~-4,4'-bipyridine)-di-copper(i) 
bis(ethylenediamine)-copper(ii) bis(\m~5~-hydrogen 
phosphato)-pentakis(\m~2~-oxo)-decaoxo-penta-molybdenum hexahydrate)
;
_cell_volume   2316.239
_exptl_crystal_colour 'green'
_exptl_crystal_density_diffrn 2.356
_exptl_crystal_description 'block'
_diffrn_ambient_temperature 273
#These two values have been output from a single CSD field.
_refine_ls_R_factor_gt 0.0364
_refine_ls_wR_factor_gt 0.0364
_symmetry_cell_setting monoclinic
_symmetry_space_group_name_H-M 'P 2/c'
_symmetry_Int_Tables_number 13
loop_
_symmetry_equiv_pos_site_id
_symmetry_equiv_pos_as_xyz
1 x,y,z
2 -x,y,1/2-z
3 -x,-y,-z
4 x,-y,-1/2+z
_cell_length_a 15.6251(6)
_cell_length_b 10.8492(4)
_cell_length_c 14.7939(6)
_cell_angle_alpha 90
_cell_angle_beta 112.543(1)
_cell_angle_gamma 90
_cell_formula_units_Z 2
loop_
_atom_type_symbol
_atom_type_radius_bond
C 0.68
H 0.23
Cu 1.32
Mo 1.40
N 0.68
O 0.68
P 1.05
loop_
_atom_site_label
_atom_site_type_symbol
_atom_site_fract_x
_atom_site_fract_y
_atom_site_fract_z
Cu1 Cu 0.51477(9) -0.18499(6) 0.63106(6)
C1 C 0.4405(4) 0.0511(5) 0.6093(5)
H1 H 0.38610 0.00690 0.59680
C2 C 0.4355(3) 0.1789(4) 0.6071(4)
H2 H 0.37920 0.21850 0.59400
C3 C 0.5149(3) 0.2465(4) 0.6244(3)
C4 C 0.5956(3) 0.1805(5) 0.6438(4)
H3 H 0.65120 0.22160 0.65620
C5 C 0.5935(4) 0.0539(5) 0.6447(5)
H4 H 0.64880 0.01180 0.65760
C6 C 0.5132(3) 0.3826(4) 0.6259(3)
C7 C 0.4341(4) 0.4495(4) 0.5751(4)
H5 H 0.37930 0.40870 0.53870
C8 C 0.4361(4) 0.5764(5) 0.5781(5)
H6 H 0.38190 0.61930 0.54300
C9 C 0.5899(4) 0.4508(5) 0.6787(4)
H7 H 0.64460 0.41060 0.71620
C10 C 0.5874(5) 0.5782(5) 0.6773(5)
H8 H 0.64150 0.62140 0.71200
N1 N 0.5181(4) -0.0114(4) 0.6283(3)
N2 N 0.5121(4) 0.6401(4) 0.6290(3)
Cu2 Cu 1.00000 0.50000 0.50000
C11 C 1.1732(3) 0.3948(4) 0.6247(4)
H9 H 1.21850 0.33030 0.63230
H10 H 1.17370 0.41460 0.68890
C12 C 1.1973(3) 0.5075(4) 0.5798(4)
H11 H 1.25330 0.54530 0.62590
H12 H 1.20780 0.48490 0.52150
N3 N 1.1190(2) 0.5947(3) 0.5546(3)
H13 H 1.12180 0.64940 0.51010
H14 H 1.12210 0.63640 0.60840
N4 N 1.0809(3) 0.3524(3) 0.5604(3)
H15 H 1.05550 0.30780 0.59490
H16 H 1.08540 0.30410 0.51290
Mo1 Mo 1.00000 0.62649(4) 0.75000
Mo2 Mo 1.19213(2) 0.80713(3) 0.83605(2)
Mo3 Mo 1.12486(3) 1.10516(3) 0.82611(3)
P1 P 1.01027(7) 0.89639(9) 0.62769(7)
O1 O 1.08838(18) 0.9281(2) 0.72574(19)
O2 O 1.0540(2) 0.8498(3) 0.5554(2)
O3 O 0.9523(2) 1.0108(2) 0.58668(19)
O4 O 0.95036(18) 0.7904(2) 0.63931(18)
O5 O 0.9679(2) 0.5296(3) 0.6519(2)
O6 O 0.88318(18) 0.6789(2) 0.74984(19)
O7 O 1.2399(2) 0.7244(3) 0.9406(2)
O8 O 1.2763(2) 0.8121(3) 0.7890(2)
O9 O 1.20527(19) 0.9702(3) 0.8909(2)
O10 O 1.1772(2) 1.1580(3) 0.7517(2)
O11 O 1.1567(2) 1.2118(3) 0.9183(2)
O12 O 1.00000 1.1482(4) 0.75000
O13 O 0.7626(3) 0.0588(6) 0.8952(3)
O14 O 0.6834(3) 0.7979(4) 0.8913(3)
O15 O 0.7625(5) 0.4365(7) 0.6248(5)
Cu1* Cu 0.51477(9) -1.18499(6) 0.63106(6)
Cu1** Cu 0.51477(9) 0.81501(6) 0.63106(6)
C1* C 0.4405(4) -0.9489(5) 0.6093(5)
H1* H 0.38610 -0.99310 0.59680
C2* C 0.4355(3) -0.8211(4) 0.6071(4)
H2* H 0.37920 -0.78150 0.59400
C3* C 0.5149(3) -0.7535(4) 0.6244(3)
C4* C 0.5956(3) -0.8195(5) 0.6438(4)
H3* H 0.65120 -0.77840 0.65620
C5* C 0.5935(4) -0.9461(5) 0.6447(5)
H4* H 0.64880 -0.98820 0.65760
C6* C 0.5132(3) -0.6174(4) 0.6259(3)
C7* C 0.4341(4) -0.5505(4) 0.5751(4)
H5* H 0.37930 -0.59130 0.53870
C8* C 0.4361(4) -0.4236(5) 0.5781(5)
H6* H 0.38190 -0.38070 0.54300
C9* C 0.5899(4) -0.5492(5) 0.6787(4)
H7* H 0.64460 -0.58940 0.71620
C10* C 0.5874(5) -0.4218(5) 0.6773(5)
H8* H 0.64150 -0.37860 0.71200
N1* N 0.5181(4) -1.0114(4) 0.6283(3)
N2* N 0.5121(4) -0.3599(4) 0.6290(3)
N2** N 0.5121(4) -1.3599(4) 0.6290(3)
C11B C 0.8268(3) 0.6052(4) 0.3753(4)
H9B H 0.78150 0.66970 0.36770
H10B H 0.82630 0.58540 0.31110
C12B C 0.8027(3) 0.4925(4) 0.4202(4)
H11B H 0.74670 0.45470 0.37410
H12B H 0.79220 0.51510 0.47850
N3B N 0.8810(2) 0.4053(3) 0.4454(3)
H13B H 0.87820 0.35060 0.48990
H14B H 0.87790 0.36360 0.39160
N4B N 0.9191(3) 0.6476(3) 0.4396(3)
H15B H 0.94450 0.69220 0.40510
H16B H 0.91460 0.69590 0.48710
Mo2A Mo 0.80787(2) 0.80713(3) 0.66395(2)
Mo3A Mo 0.87514(3) 1.10516(3) 0.67389(3)
P1A P 0.98973(7) 0.89639(9) 0.87231(7)
O1A O 0.91162(18) 0.9281(2) 0.77426(19)
O2A O 0.9460(2) 0.8498(3) 0.9446(2)
O3A O 1.0477(2) 1.0108(2) 0.91332(19)
O4A O 1.04964(18) 0.7904(2) 0.86069(18)
O5A O 1.0321(2) 0.5296(3) 0.8481(2)
O6A O 1.11682(18) 0.6789(2) 0.75016(19)
O7A O 0.7601(2) 0.7244(3) 0.5594(2)
O8A O 0.7237(2) 0.8121(3) 0.7110(2)
O9A O 0.79473(19) 0.9702(3) 0.6091(2)
O10A O 0.8228(2) 1.1580(3) 0.7483(2)
O11A O 0.8433(2) 1.2118(3) 0.5817(2)
#END
