
#######################################################################
#
#                 Cambridge Crystallographic Data Centre
#                                CCDC
#
#######################################################################
#
# If this CIF has been generated from an entry in the Cambridge
# Structural Database, then it will include bibliographic, chemical,
# crystal, experimental, refinement or atomic coordinate data resulting
# from the CCDC's data processing and validation procedures.
#
#######################################################################

data_CSD_CIF_ELEFUX
_audit_creation_date 2011-05-12
_audit_creation_method CSD-ConQuest-V1
_database_code_CSD ELEFUX
_database_code_depnum_ccdc_archive 'CCDC 764820'
_chemical_formula_sum 'C40 H46 Cu4 Mo5 N8 O29 P2'
_chemical_formula_moiety
;
(H2 Mo5 O23 P2 4-)n,n(C30 H24 Cu3 N6 3+),6n(H2 O1),0.5n(C20 H16 Cu2 N4 2+)
;
_journal_coden_Cambridge 971
_journal_volume 13
_journal_year 2011
_journal_page_first 417
_journal_name_full 'Solid State Sciences '
loop_
_publ_author_name
"Zhanhua Su"
"Zhifeng Zhao"
"Baibin Zhou"
"Qinghai Cai"
"Qun Wang"
_chemical_name_systematic
;
catena-(tris(\m~2~-4,4'-bipyridine)-tri-copper(i) 
hemikis(bis(\m~2~-4,4'-bipyridine)-di-copper(i)) bis(\m~5~-hydrogen 
phosphato)-pentakis(\m~2~-oxo)-decaoxo-penta-molybdenum hexahydrate)
;
_cell_volume  11211.971
_exptl_crystal_colour 'yellow'
_exptl_crystal_density_diffrn 2.25
_exptl_crystal_description 'block'
_diffrn_ambient_temperature 273
_refine_special_details
;
A water molecule is disordered by symmetry.

;
#These two values have been output from a single CSD field.
_refine_ls_R_factor_gt 0.0315
_refine_ls_wR_factor_gt 0.0315
_symmetry_cell_setting monoclinic
_symmetry_space_group_name_H-M 'C 2/c'
_symmetry_Int_Tables_number 15
loop_
_symmetry_equiv_pos_site_id
_symmetry_equiv_pos_as_xyz
1 x,y,z
2 -x,y,1/2-z
3 1/2+x,1/2+y,z
4 1/2-x,1/2+y,1/2-z
5 -x,-y,-z
6 x,-y,-1/2+z
7 -1/2-x,-1/2-y,-z
8 -1/2+x,-1/2-y,-1/2+z
_cell_length_a 22.873(2)
_cell_length_b 21.427(2)
_cell_length_c 24.504(2)
_cell_angle_alpha 90
_cell_angle_beta 110.997(1)
_cell_angle_gamma 90
_cell_formula_units_Z 8
loop_
_atom_type_symbol
_atom_type_radius_bond
C 0.68
H 0.23
Cu 1.32
Mo 1.33
N 0.68
O 0.68
P 1.05
loop_
_atom_site_label
_atom_site_type_symbol
_atom_site_fract_x
_atom_site_fract_y
_atom_site_fract_z
Mo1 Mo 0.771594(12) -0.132010(13) 0.877303(12)
Mo2 Mo 0.807072(12) -0.021420(13) 0.982317(11)
Mo3 Mo 0.746263(13) 0.117768(14) 0.923896(12)
Mo4 Mo 0.687393(13) 0.101553(13) 0.775517(12)
Mo5 Mo 0.722063(13) -0.041701(13) 0.739416(12)
Cu1 Cu 0.72742(2) 0.17445(3) 1.07131(3)
Cu2 Cu 0.224155(19) 0.17141(3) 0.96373(3)
Cu3 Cu 1.234540(19) 0.20002(3) 1.25513(2)
Cu4 Cu 0.74869(2) -0.04710(3) 1.12585(2)
P1 P 0.82531(3) 0.02175(4) 0.85578(3)
P2 P 0.66910(3) -0.01839(4) 0.86019(4)
O1 O 0.84761(11) -0.15430(12) 0.89173(11)
O2 O 0.73473(11) -0.20179(11) 0.87274(12)
O3 O 0.74723(10) -0.1079(1) 0.79699(10)
O4 O 0.78098(10) -0.10531(11) 0.95622(10)
O5 O 0.88461(10) -0.03263(12) 1.02019(11)
O6 O 0.77526(10) -0.01853(13) 1.03588(10)
O7 O 0.81517(10) 0.06766(11) 0.97119(9)
O8 O 0.70571(12) 0.13080(13) 0.96974(12)
O9 O 0.78487(12) 0.18651(12) 0.92694(12)
O10 O 0.68017(11) 0.12360(11) 0.8499(1)
O11 O 0.71953(12) 0.16810(12) 0.76074(12)
O12 O 0.60939(11) 0.10837(12) 0.73364(11)
O13 O 0.71417(10) 0.04712(11) 0.72665(9)
O14 O 0.75505(12) -0.06417(13) 0.69006(11)
O15 O 0.64540(11) -0.06268(12) 0.70428(11)
O16 O 0.67738(10) -0.08781(10) 0.86328(10)
O17 O 0.81249(9) -0.02831(10) 0.89552(9)
O18 O 0.78567(10) 0.08018(10) 0.85228(9)
O19 O 0.81519(10) -0.00679(11) 0.79737(9)
O20 O 0.68179(10) 0.00629(10) 0.80662(9)
O21 O 0.89674(10) 0.04048(12) 0.88342(11)
O22 O 0.71078(9) 0.01437(10) 0.91640(9)
O23 O 0.59962(10) -0.00254(13) 0.85288(12)
O24 O 0.9530(4) 0.6269(4) 0.2006(4)
O25? O 0.9864(15) 0.3632(5) 0.2261(12)
O26 O 0.0185(4) 0.5548(6) 0.1918(4)
O27 O 0.4368(2) 0.8858(2) 0.1182(3)
O28 O 0.56930(13) 0.61132(15) 0.52262(13)
O29 O 0.53681(16) 0.4180(2) 0.57102(18)
C1 C 0.91439(16) 0.12665(19) 1.12359(18)
H1 H 0.93680 0.09200 1.11920
C2 C 0.85001(17) 0.1261(2) 1.10075(18)
H2 H 0.82970 0.09040 1.08160
C3 C 0.90999(15) 0.22876(18) 1.15817(17)
H3 H 0.92920 0.26480 1.17750
C4 C 0.84571(16) 0.22492(19) 1.13447(18)
H4 H 0.82230 0.25860 1.13910
C5 C 0.61323(16) 0.14076(18) 1.08197(16)
H5 H 0.63860 0.11550 1.11200
C6 C 0.54936(15) 0.13954(17) 1.06921(16)
H6 H 0.53260 0.11440 1.09080
C7 C 0.51017(14) 0.17606(16) 1.02395(14)
C8 C 0.53886(16) 0.2146(2) 0.99520(17)
H7 H 0.51480 0.24090 0.96550
C9 C 0.60301(17) 0.2134(2) 1.01108(18)
H8 H 0.62140 0.23950 0.99150
C10 C 0.44123(14) 0.17565(15) 1.00887(15)
C11 C 0.41465(16) 0.15178(19) 1.04685(17)
H9 H 0.44020 0.13570 1.08280
C12 C 0.35063(16) 0.1516(2) 1.03197(18)
H10 H 0.33390 0.13500 1.05830
C13 C 0.33694(16) 0.19807(18) 0.94452(18)
H11 H 0.31030 0.21440 0.90920
C14 C 0.40052(16) 0.19959(18) 0.95613(17)
H12 H 0.41600 0.21640 0.92900
C15 C 0.09443(15) 0.17228(17) 0.94985(16)
H13 H 0.10760 0.15340 0.98640
C16 C 0.03171(14) 0.18544(16) 0.92239(15)
H14 H 0.00340 0.17460 0.94020
C17 C 0.01048(14) 0.21499(15) 0.86810(14)
C18 C 0.05489(16) 0.2266(2) 0.84310(17)
H15 H 0.04290 0.24430 0.80600
C19 C 0.11673(16) 0.2119(2) 0.87298(19)
H16 H 0.14570 0.22080 0.85540
C20 C -0.05593(14) 0.23435(15) 0.83942(14)
C21 C -0.10304(14) 0.20964(16) 0.85606(15)
H17 H -0.09400 0.17880 0.88460
C22 C -0.16358(14) 0.23124(17) 0.82982(15)
H18 H -0.19450 0.21460 0.84180
C23 C -0.13494(14) 0.29858(16) 0.77116(15)
H19 H -0.14570 0.32840 0.74160
C24 C -0.07302(14) 0.28044(16) 0.79612(14)
H20 H -0.04280 0.29880 0.78410
C25 C 1.11011(16) 0.24058(18) 1.20200(18)
H21 H 1.12980 0.27840 1.20120
C26 C 1.04593(15) 0.23786(18) 1.17828(17)
H22 H 1.02300 0.27350 1.16220
C27 C 1.01518(14) 0.18190(17) 1.17829(15)
C28 C 1.05211(15) 0.13057(18) 1.20262(18)
H23 H 1.03360 0.09200 1.20300
C29 C 1.11649(15) 0.13680(18) 1.22632(18)
H24 H 1.14050 0.10190 1.24290
C30 C 0.94582(14) 0.17867(16) 1.15309(15)
C31 C 0.85854(16) -0.08333(18) 1.22546(16)
H25 H 0.83020 -0.09500 1.24300
C32 C 0.92189(15) -0.08730(18) 1.25772(15)
H26 H 0.93520 -0.10110 1.29620
C33 C 0.96600(14) -0.07088(16) 1.23311(13)
C34 C 0.94257(16) -0.0519(2) 1.17544(15)
H27 H 0.96980 -0.04190 1.15630
C35 C 0.87904(18) -0.0479(2) 1.14647(17)
H28 H 0.86460 -0.03350 1.10810
C36 C 0.61511(16) -0.0489(2) 1.10084(16)
H29 H 0.62640 -0.06880 1.13680
C37 C 0.55222(16) -0.03736(19) 1.07040(16)
H30 H 0.52250 -0.04980 1.08600
C38 C 0.53340(13) -0.00744(16) 1.01677(14)
C39 C 0.58091(17) 0.0095(2) 0.99682(18)
H31 H 0.57090 0.02980 0.96110
C40 C 0.64274(17) -0.0036(2) 1.02934(19)
H32 H 0.67330 0.00830 1.01460
N1 N 0.81534(13) 0.17498(16) 1.10508(14)
N2 N 0.64004(12) 0.17653(16) 1.05324(13)
N3 N 0.31163(12) 0.17422(15) 0.98144(14)
N4 N 0.13723(12) 0.18567(14) 0.92581(14)
N5 N -0.17995(12) 0.27488(14) 0.78796(13)
N6 N 1.14569(12) 0.19079(15) 1.22641(14)
N7 N 0.83636(13) -0.06340(15) 1.17022(13)
N8 N 0.66075(13) -0.03265(15) 1.08098(13)
Cu3G Cu -0.265460(19) 0.29998(3) 0.75513(2)
Cu4A Cu 1.25131(2) -0.04710(3) 1.37415(2)
Cu4D Cu 0.25131(2) 0.04710(3) 0.87415(2)
C31A C 1.14146(16) -0.08333(18) 1.27454(16)
H25A H 1.16980 -0.09500 1.25700
C32A C 1.07811(15) -0.08730(18) 1.24228(15)
H26A H 1.06480 -0.10110 1.20380
C33A C 1.03400(14) -0.07088(16) 1.26689(13)
C34A C 1.05743(16) -0.0519(2) 1.32456(15)
H27A H 1.03020 -0.04190 1.34370
C35A C 1.12096(18) -0.0479(2) 1.35353(17)
H28A H 1.13540 -0.03350 1.39190
C36D C 0.38489(16) 0.0489(2) 0.89916(16)
H29D H 0.37360 0.06880 0.86320
C37D C 0.44778(16) 0.03736(19) 0.92960(16)
H30D H 0.47750 0.04980 0.91400
C38D C 0.46660(13) 0.00744(16) 0.98323(14)
C39D C 0.41909(17) -0.0095(2) 1.00318(18)
H31D H 0.42910 -0.02980 1.03890
C40D C 0.35726(17) 0.0036(2) 0.97066(19)
H32D H 0.32670 -0.00830 0.98540
N5G N 1.32005(12) 0.22512(14) 1.28796(13)
N7A N 1.16364(13) -0.06340(15) 1.32978(13)
N8D N 0.33925(13) 0.03265(15) 0.91902(13)
N8A N 1.33925(13) -0.03265(15) 1.41902(13)
#END
