
#######################################################################
#
#                 Cambridge Crystallographic Data Centre
#                                CCDC
#
#######################################################################
#
# If this CIF has been generated from an entry in the Cambridge
# Structural Database, then it will include bibliographic, chemical,
# crystal, experimental, refinement or atomic coordinate data resulting
# from the CCDC's data processing and validation procedures.
#
#######################################################################

data_CSD_CIF_ELISUP
_audit_creation_date 2016-04-27
_audit_creation_method CSD-ConQuest-V1
_database_code_CSD ELISUP
_database_code_depnum_ccdc_archive 'CCDC 1423619'
_chemical_formula_sum 'C18 H18 N4 O19 U4'
_chemical_formula_moiety
;
(H4 N1 1+)n,n(C18 H12 N3 O18 U4 1-),n(H2 O1)
;
_journal_coden_Cambridge 580
_journal_volume 113
_journal_year 2016
_journal_page_first 88
_journal_name_full 'Polyhedron '
loop_
_publ_author_name
"N.D.Shepherd"
"Yingjie Zhang"
"I.Karatchevtseva"
"J.R.Price"
"Linggen Kong"
"N.Scales"
"G.R.Lumpkin"
_chemical_name_systematic
;
catena-[ammonium 
tetrakis(\m-oxido)-octakis(oxo)-tris(\m-pyridine-2-carboxylato)-tetra-uranium 
monohydrate]
;
_cell_volume   2839.089
_exptl_crystal_colour 'yellow'
_exptl_crystal_density_diffrn 3.604
_exptl_crystal_description 'prism'
_diffrn_ambient_temperature 100
_diffrn_radiation_probe x-ray
_diffrn_source synchrotron
#These two values have been output from a single CSD field.
_refine_ls_R_factor_gt 0.0802
_refine_ls_wR_factor_gt 0.0802
_symmetry_cell_setting monoclinic
_symmetry_space_group_name_H-M 'P 21/n'
_symmetry_Int_Tables_number 14
loop_
_symmetry_equiv_pos_site_id
_symmetry_equiv_pos_as_xyz
1 x,y,z
2 1/2-x,1/2+y,1/2-z
3 -x,-y,-z
4 -1/2+x,-1/2-y,-1/2+z
_cell_length_a 7.3200(15)
_cell_length_b 16.272(3)
_cell_length_c 23.960(5)
_cell_angle_alpha 90
_cell_angle_beta 95.84(3)
_cell_angle_gamma 90
_cell_formula_units_Z 4
loop_
_atom_type_symbol
_atom_type_radius_bond
C 0.68
H 0.23
N 0.68
O 0.68
U 1.96
loop_
_atom_site_label
_atom_site_type_symbol
_atom_site_fract_x
_atom_site_fract_y
_atom_site_fract_z
U1 U 0.28386(9) 0.68030(4) 0.10223(2)
U2 U 0.32219(9) 0.78951(4) 0.24345(3)
U3 U 0.27914(9) 0.51055(4) 0.22196(3)
U4 U 0.22336(9) 0.43359(4) 0.37662(3)
O1 O 0.0789(19) 0.7704(8) 0.2376(5)
O2 O 0.527(2) 0.6782(7) 0.0917(5)
O3 O 0.0430(19) 0.6783(7) 0.1091(5)
O4 O 0.5676(19) 0.8022(7) 0.2530(5)
O5 O 0.5189(19) 0.4873(7) 0.2357(5)
O6 O 0.0450(18) 0.5385(8) 0.2083(5)
O7 O 0.4719(18) 0.4268(7) 0.3859(5)
O8 O -0.0252(18) 0.4443(7) 0.3733(5)
O9 O 0.3035(18) 0.5314(7) 0.1191(5)
O10 O 0.3879(17) 0.4072(7) 0.0885(5)
O11 O 0.3538(19) 0.6989(7) 0.3216(5)
O12 O 0.2733(17) 0.5650(7) 0.3231(5)
O13 O 0.3661(17) 0.6518(6) 0.2009(4)
O14 O 0.2559(18) 0.2615(7) 0.4788(5)
O15 O 0.3144(18) 0.8010(6) 0.1442(5)
O16 O 0.2163(18) 0.3812(7) 0.1822(5)
O17 O 0.224(2) 0.3963(7) 0.4739(5)
O18 O 0.2143(17) 0.4189(7) 0.2858(5)
N1 N 0.211(2) 0.5816(9) 0.0152(6)
N2 N 0.236(2) 0.5722(8) 0.4318(6)
N3 N 0.188(2) 0.3342(10) 0.6779(6)
C1 C 0.330(2) 0.4779(9) 0.0806(7)
C2 C 0.272(2) 0.5046(10) 0.0219(7)
C3 C 0.277(2) 0.451(1) -0.0239(7)
H1 H 0.32830 0.39750 -0.01880
C4 C 0.207(3) 0.4775(11) -0.0762(7)
H2 H 0.20590 0.44180 -0.10770
C5 C 0.137(3) 0.5565(11) -0.0828(8)
H3 H 0.08880 0.57600 -0.11870
C6 C 0.141(2) 0.6058(10) -0.0363(7)
H4 H 0.09060 0.65960 -0.04060
C7 C 0.308(2) 0.6369(10) 0.3464(7)
C8 C 0.288(2) 0.6438(10) 0.4070(7)
C9 C 0.311(2) 0.7159(10) 0.4347(7)
H5 H 0.34760 0.76330 0.41540
C10 C 0.283(2) 0.7217(11) 0.4904(7)
H6 H 0.30260 0.77190 0.51030
C11 C 0.225(2) 0.6517(10) 0.5166(7)
H7 H 0.19370 0.65370 0.55420
C12 C 0.213(3) 0.5798(11) 0.4871(7)
H8 H 0.18610 0.53130 0.50680
C13 C 0.232(2) 0.3298(10) 0.5015(7)
C14 C 0.218(2) 0.3334(11) 0.5614(7)
C15 C 0.148(3) 0.2633(11) 0.5890(7)
H9 H 0.11020 0.21490 0.56890
C16 C 0.140(3) 0.2696(12) 0.6466(7)
H10 H 0.09600 0.22310 0.66510
C17 C 0.250(3) 0.3994(12) 0.6517(7)
H11 H 0.28460 0.44680 0.67350
C18 C 0.266(2) 0.4021(11) 0.5944(7)
H12 H 0.31040 0.45030 0.57790
N4 N 0.7453(18) 0.6552(9) 0.2088(5)
O19 O 0.785(3) 0.8135(15) 0.168(1)
U1A U 0.21614(9) 0.18030(4) 0.39777(2)
U2A U 0.17781(9) 0.28951(4) 0.25655(3)
U4A U 0.27664(9) 0.93359(4) 0.12338(3)
O14A O 0.2441(18) 0.7615(7) 0.0212(5)
O15A O 0.1856(18) 0.3010(6) 0.3558(5)
O16A O 0.2837(18) 0.8812(7) 0.3178(5)
O18A O 0.2857(17) 0.9189(7) 0.2142(5)
#END
