
#######################################################################
#
#                 Cambridge Crystallographic Data Centre
#                                CCDC
#
#######################################################################
#
# If this CIF has been generated from an entry in the Cambridge
# Structural Database, then it will include bibliographic, chemical,
# crystal, experimental, refinement or atomic coordinate data resulting
# from the CCDC's data processing and validation procedures.
#
#######################################################################

data_CSD_CIF_ELISOJ
_audit_creation_date 2016-04-27
_audit_creation_method CSD-ConQuest-V1
_database_code_CSD ELISOJ
_database_code_depnum_ccdc_archive 'CCDC 1423618'
_chemical_formula_sum 'C6 H8 N2 O8 U2'
_chemical_formula_moiety
;
(C6 H4 N1 O8 U2 1-)n,n(H4 N1 1+)
;
_journal_coden_Cambridge 580
_journal_volume 113
_journal_year 2016
_journal_page_first 88
_journal_name_full 'Polyhedron '
loop_
_publ_author_name
"N.D.Shepherd"
"Yingjie Zhang"
"I.Karatchevtseva"
"J.R.Price"
"Linggen Kong"
"N.Scales"
"G.R.Lumpkin"
_chemical_name_systematic
;
catena-[ammonium 
tetrakis(oxo)-bis(\m-oxido)-(\m-pyridine-2-carboxylato)-di-uranium]
;
_cell_volume   1143.047
_exptl_crystal_colour 'yellow'
_exptl_crystal_density_diffrn 4.115
_exptl_crystal_description 'prism'
_diffrn_ambient_temperature 100
_diffrn_radiation_probe x-ray
_diffrn_source synchrotron
#These two values have been output from a single CSD field.
_refine_ls_R_factor_gt 0.0339
_refine_ls_wR_factor_gt 0.0339
_symmetry_cell_setting orthorhombic
_symmetry_space_group_name_H-M 'P n m a'
_symmetry_Int_Tables_number 62
loop_
_symmetry_equiv_pos_site_id
_symmetry_equiv_pos_as_xyz
1 x,y,z
2 1/2-x,-y,1/2+z
3 1/2+x,1/2-y,1/2-z
4 -x,1/2+y,-z
5 -x,-y,-z
6 -1/2+x,y,-1/2-z
7 -1/2-x,-1/2+y,-1/2+z
8 x,-1/2-y,z
_cell_length_a 6.7910(14)
_cell_length_b 6.9550(14)
_cell_length_c 24.201(5)
_cell_angle_alpha 90
_cell_angle_beta 90
_cell_angle_gamma 90
_cell_formula_units_Z 4
loop_
_atom_type_symbol
_atom_type_radius_bond
C 0.68
H 0.23
N 0.68
O 0.68
U 1.96
loop_
_atom_site_label
_atom_site_type_symbol
_atom_site_fract_x
_atom_site_fract_y
_atom_site_fract_z
U1 U 0.61429(6) 0.25000 0.27925(2)
U2 U 0.13619(6) 0.25000 0.37515(2)
O1 O 0.6140(9) 0.5133(10) 0.2824(2)
O2 O 0.1347(9) -0.0084(10) 0.3806(2)
O3 O 0.2983(12) 0.25000 0.2984(3)
O4 O 0.8205(11) 0.25000 0.4291(3)
O5 O 0.5358(12) 0.25000 0.3816(3)
O6 O 0.9247(14) 0.25000 0.3067(4)
N1 N 0.3197(14) 0.25000 0.4709(4)
C1 C 0.6408(17) 0.25000 0.4231(4)
C2 C 0.5152(17) 0.25000 0.4783(4)
C3 C 0.6075(17) 0.25000 0.5303(4)
H1 H 0.74690 0.25000 0.53380
C4 C 0.4847(17) 0.25000 0.5767(4)
H2 H 0.53980 0.25000 0.61280
C5 C 0.2824(17) 0.25000 0.5697(5)
H3 H 0.19700 0.25000 0.60080
C6 C 0.2051(17) 0.25000 0.5155(4)
H4 H 0.06630 0.25000 0.51070
N2 N 0.9515(16) 0.75000 0.2994(4)
O1G O 0.6140(9) -0.0133(10) 0.2824(2)
O2G O 0.1347(9) 0.5084(10) 0.3806(2)
U1B U 0.11429(6) 0.25000 0.22075(2)
U1B* U 1.11429(6) 0.25000 0.22075(2)
U2* U 1.13619(6) 0.25000 0.37515(2)
O3B O 0.7983(12) 0.25000 0.2016(3)
O4* O -0.1795(11) 0.25000 0.4291(3)
O6* O -0.0753(14) 0.25000 0.3067(4)
O6B O 0.4247(14) 0.25000 0.1933(4)
#END
