
#######################################################################
#
#                 Cambridge Crystallographic Data Centre
#                                CCDC
#
#######################################################################
#
# If this CIF has been generated from an entry in the Cambridge
# Structural Database, then it will include bibliographic, chemical,
# crystal, experimental, refinement or atomic coordinate data resulting
# from the CCDC's data processing and validation procedures.
#
#######################################################################

data_CSD_CIF_ELISID
_audit_creation_date 2016-04-27
_audit_creation_method CSD-ConQuest-V1
_database_code_CSD ELISID
_database_code_depnum_ccdc_archive 'CCDC 998973'
_chemical_formula_sum 'C12 H12 N3 O13 U3'
_chemical_formula_moiety
;
(H4 N1 1+)n,n(C12 H8 N2 O13 U3 1-)
;
_journal_coden_Cambridge 580
_journal_volume 113
_journal_year 2016
_journal_page_first 88
_journal_name_full 'Polyhedron '
loop_
_publ_author_name
"N.D.Shepherd"
"Yingjie Zhang"
"I.Karatchevtseva"
"J.R.Price"
"Linggen Kong"
"N.Scales"
"G.R.Lumpkin"
_chemical_name_systematic
;
catena-[ammonium 
bis(\m-pyridine-2-carboxylato)-tris(\m-oxido)-hexakis(oxo)-tris-uranium]
;
_cell_volume   1982.888
_exptl_crystal_colour 'yellow'
_exptl_crystal_density_diffrn 3.753
_exptl_crystal_description 'prism'
_diffrn_ambient_temperature 100
_diffrn_radiation_probe x-ray
_diffrn_source synchrotron
#These two values have been output from a single CSD field.
_refine_ls_R_factor_gt 0.04
_refine_ls_wR_factor_gt 0.04
_symmetry_cell_setting monoclinic
_symmetry_space_group_name_H-M 'P 21/c'
_symmetry_Int_Tables_number 14
loop_
_symmetry_equiv_pos_site_id
_symmetry_equiv_pos_as_xyz
1 x,y,z
2 -x,1/2+y,1/2-z
3 -x,-y,-z
4 x,-1/2-y,-1/2+z
_cell_length_a 7.1900(14)
_cell_length_b 20.007(4)
_cell_length_c 13.807(3)
_cell_angle_alpha 90
_cell_angle_beta 93.28(3)
_cell_angle_gamma 90
_cell_formula_units_Z 4
loop_
_atom_type_symbol
_atom_type_radius_bond
C 0.68
H 0.23
N 0.68
O 0.68
U 1.96
loop_
_atom_site_label
_atom_site_type_symbol
_atom_site_fract_x
_atom_site_fract_y
_atom_site_fract_z
U1 U 0.25732(9) 0.67761(3) 0.62076(4)
U2 U 0.23700(9) 0.78205(3) 0.85841(4)
U3 U 0.23346(8) 0.85786(3) 0.59292(4)
O1 O 0.2247(15) 0.5893(5) 0.9295(7)
O2 O 0.5037(14) 0.6833(5) 0.6352(7)
O3 O 0.4869(16) 0.7764(5) 0.8600(8)
O4 O 0.4883(13) 0.8568(5) 0.5964(7)
O5 O 0.2363(15) 0.6575(5) 0.8045(7)
O6 O 0.0129(15) 0.6636(5) 0.6136(8)
O7 O -0.0112(15) 0.7857(5) 0.8565(8)
O8 O -0.0154(14) 0.8638(5) 0.5830(8)
O9 O 0.2233(15) 0.7732(5) 0.6959(8)
O10 O 0.2325(15) 0.7637(5) 0.5080(8)
O11 O 0.2780(15) 0.6317(5) 0.4708(8)
O12 O 0.1382(15) 0.9684(5) 0.8755(8)
O13 O 0.2194(15) 0.8929(5) 0.7676(7)
N1 N 0.2912(18) 0.5564(7) 0.6811(9)
N2 N 0.2601(18) 0.9853(7) 0.6312(9)
C1 C 0.325(2) 0.5084(8) 0.6218(12)
H1 H 0.36000 0.51940 0.55840
C2 C 0.311(2) 1.0320(8) 0.5703(12)
H2 H 0.34340 1.01870 0.50740
C3 C 0.314(2) 0.4403(8) 0.6476(11)
H3 H 0.33790 0.40600 0.60250
C4 C 0.318(2) 1.0989(8) 0.5935(12)
H4 H 0.35130 1.13060 0.54630
C5 C 0.266(2) 0.4251(8) 0.7404(12)
H5 H 0.25130 0.37990 0.75980
C6 C 0.276(2) 1.1208(8) 0.6874(12)
H6 H 0.28120 1.16660 0.70560
C7 C 0.239(2) 0.4763(8) 0.8038(12)
H7 H 0.20830 0.46660 0.86840
C8 C 0.229(2) 1.0724(8) 0.7491(12)
H8 H 0.19450 1.08480 0.81210
C9 C 0.255(2) 0.5418(8) 0.7748(11)
C10 C 0.228(2) 1.0065(8) 0.7245(11)
C11 C 0.235(2) 0.6041(8) 0.8394(11)
C12 C 0.190(2) 0.9526(8) 0.7937(11)
N3 N 0.7555(16) 0.7576(5) 0.5173(9)
H9 H 0.893(4) 0.7632(15) 0.536(8)
H10 H 0.689(6) 0.8025(8) 0.536(4)
H11 H 0.735(17) 0.7516(13) 0.4446(14)
H12 H 0.699(6) 0.7210(9) 0.554(4)
U2C U 0.23700(9) 0.71795(3) 0.35841(4)
U3C U 0.23346(8) 0.64214(3) 1.09292(4)
O1C O 0.2247(15) 0.9107(5) 0.4295(7)
O10C O 0.2325(15) 0.7363(5) 1.0080(8)
O11C O 0.2780(15) 0.8683(5) 0.9708(8)
#END
