
#######################################################################
#
#                 Cambridge Crystallographic Data Centre
#                                CCDC
#
#######################################################################
#
# If this CIF has been generated from an entry in the Cambridge
# Structural Database, then it will include bibliographic, chemical,
# crystal, experimental, refinement or atomic coordinate data resulting
# from the CCDC's data processing and validation procedures.
#
#######################################################################

data_CSD_CIF_ELOTEF
_audit_creation_date 2011-03-04
_audit_creation_method CSD-ConQuest-V1
_database_code_CSD ELOTEF
_database_code_depnum_ccdc_archive 'CCDC 705833'
_chemical_formula_sum 'C30 H48 In1 K3 N6 O12 S6'
_chemical_formula_moiety
;
(C18 H24 In1 K2 N6 O6 S6 1-)n,n(C12 H24 K1 O6 1+)
;
_journal_coden_Cambridge 367
_journal_volume 35
_journal_year 2009
_journal_page_first 576
_journal_name_full 'Koord.Khim.(Russ.)(Coord.Chem.) '
loop_
_publ_author_name
"A.B.Ilyukhin"
"S.P.Petrosyants"
_chemical_name_systematic
;
catena-((\m~3~-thiocyanato)-pentakis(\m~2~-thiocyanato)-(18-crown-6)-indium(ii
i)-di-potassium (18-crown-6)-potassium)
;
_cell_volume   2522.241
_exptl_crystal_colour 'light rose'
_exptl_crystal_density_diffrn 1.461
_diffrn_ambient_temperature 295
#These two values have been output from a single CSD field.
_refine_ls_R_factor_gt 0.0403
_refine_ls_wR_factor_gt 0.0403
_symmetry_cell_setting monoclinic
_symmetry_space_group_name_H-M 'P 21/m'
_symmetry_Int_Tables_number 11
loop_
_symmetry_equiv_pos_site_id
_symmetry_equiv_pos_as_xyz
1 x,y,z
2 -x,1/2+y,-z
3 -x,-y,-z
4 x,-1/2-y,z
_cell_length_a 10.8889(9)
_cell_length_b 14.9077(13)
_cell_length_c 15.8645(13)
_cell_angle_alpha 90
_cell_angle_beta 101.6463(13)
_cell_angle_gamma 90
_cell_formula_units_Z 2
loop_
_atom_type_symbol
_atom_type_radius_bond
C 0.68
H 0.23
In 1.42
K 2.03
N 0.68
O 0.68
S 1.02
loop_
_atom_site_label
_atom_site_type_symbol
_atom_site_fract_x
_atom_site_fract_y
_atom_site_fract_z
In1 In -0.367892(18) 0.25000 0.750521(16)
K1 K -0.49526(10) 0.25000 1.11864(8)
K2 K -0.74173(9) 0.25000 0.43921(6)
K3 K 0.11878(9) 0.25000 0.74837(7)
S1 S -0.07910(12) 0.25000 0.56063(10)
S2 S 0.00910(9) 0.41527(9) 0.84952(12)
S3 S -0.75501(7) 0.10264(8) 0.63411(7)
S4 S -0.67159(11) 0.25000 0.92782(8)
O1 O -0.7436(4) 0.25000 1.1362(2)
O2 O -0.6119(3) 0.40981(15) 1.14932(15)
O3 O -0.3816(3) 0.41070(16) 1.09447(15)
O4 O -0.2423(4) 0.25000 1.0980(3)
O5 O -0.9966(3) 0.25000 0.3719(2)
O6 O -0.8685(3) 0.40928(19) 0.36633(17)
O7 O -0.6132(3) 0.41113(17) 0.41465(18)
O8 O -0.4937(4) 0.25000 0.3891(4)
N1 N -0.2821(3) 0.25000 0.6384(2)
N2 N -0.2310(2) 0.35136(15) 0.80661(18)
N3 N -0.5079(2) 0.14971(16) 0.69296(18)
N4 N -0.4553(3) 0.25000 0.8629(2)
C1 C -0.1956(3) 0.25000 0.6080(2)
C2 C -0.1307(2) 0.37627(17) 0.8250(2)
C3 C -0.6106(2) 0.13079(17) 0.66881(17)
C4 C -0.5460(3) 0.25000 0.8886(2)
C5 C -0.7862(5) 0.3289(4) 1.1695(4)
H1 H -0.75200 0.33320 1.23070
H2 H -0.87690 0.32830 1.16080
C6 C -0.7448(6) 0.4058(4) 1.1245(4)
H3 H -0.76970 0.39800 1.06270
H4 H -0.78200 0.46080 1.14040
C7 C -0.5659(7) 0.4851(3) 1.1133(3)
H5 H -0.59860 0.53930 1.13450
H6 H -0.59270 0.48380 1.05110
C8 C -0.4293(6) 0.4849(3) 1.1366(3)
H7 H -0.39660 0.54090 1.11910
H8 H -0.40260 0.47920 1.19850
C9 C -0.2533(5) 0.4105(4) 1.1037(4)
H9 H -0.21420 0.40750 1.16430
H10 H -0.22610 0.46530 1.08010
C10 C -0.2141(4) 0.3300(5) 1.0568(3)
H11 H -0.25850 0.33030 0.99730
H12 H -0.12480 0.33280 1.05760
C11 C -1.0567(4) 0.3285(5) 0.3363(4)
H13 H -1.14310 0.32830 0.34340
H14 H -1.05660 0.33060 0.27520
C12 C -0.9906(6) 0.4092(4) 0.3798(4)
H15 H -1.03350 0.46340 0.35620
H16 H -0.99010 0.40730 0.44100
C13 C -0.8027(6) 0.4879(3) 0.3984(3)
H17 H -0.79380 0.49080 0.46040
H18 H -0.84880 0.54050 0.37360
C14 C -0.6791(6) 0.4864(3) 0.3759(3)
H19 H -0.68790 0.48330 0.31390
H20 H -0.63360 0.54080 0.39610
C15 C -0.4935(5) 0.4064(4) 0.3929(4)
H21 H -0.50220 0.40440 0.33090
H22 H -0.44460 0.45900 0.41430
C16 C -0.4332(4) 0.3293(4) 0.4297(4)
H23 H -0.43440 0.32810 0.49060
H24 H -0.34640 0.33020 0.42350
C10C C -0.2141(4) 0.1700(5) 1.0568(3)
C9C C -0.2533(5) 0.0895(4) 1.1037(4)
O3C O -0.3816(3) 0.08930(16) 1.09447(15)
C8C C -0.4293(6) 0.0151(3) 1.1366(3)
C7C C -0.5659(7) 0.0149(3) 1.1133(3)
O2C O -0.6119(3) 0.09019(15) 1.14932(15)
C6C C -0.7448(6) 0.0942(4) 1.1245(4)
C5C C -0.7862(5) 0.1711(4) 1.1695(4)
H1C H -0.75200 0.16680 1.23070
H2C H -0.87690 0.17170 1.16080
H3C H -0.76970 0.10200 1.06270
H4C H -0.78200 0.03920 1.14040
H5C H -0.59860 -0.03930 1.13450
H6C H -0.59270 0.01620 1.05110
H7C H -0.39660 -0.04090 1.11910
H8C H -0.40260 0.02080 1.19850
H9C H -0.21420 0.09250 1.16430
H10C H -0.22610 0.03470 1.08010
H11C H -0.25850 0.16970 0.99730
H12C H -0.12480 0.16720 1.05760
C16C C -0.4332(4) 0.1707(4) 0.4297(4)
C15C C -0.4935(5) 0.0936(4) 0.3929(4)
O7C O -0.6132(3) 0.08887(17) 0.41465(18)
C14C C -0.6791(6) 0.0136(3) 0.3759(3)
C13C C -0.8027(6) 0.0121(3) 0.3984(3)
O6C O -0.8685(3) 0.09072(19) 0.36633(17)
C12C C -0.9906(6) 0.0908(4) 0.3798(4)
C11C C -1.0567(4) 0.1715(5) 0.3363(4)
H13C H -1.14310 0.17170 0.34340
H14C H -1.05660 0.16940 0.27520
H15C H -1.03350 0.03660 0.35620
H16C H -0.99010 0.09270 0.44100
H17C H -0.79380 0.00920 0.46040
H18C H -0.84880 -0.04050 0.37360
H19C H -0.68790 0.01670 0.31390
H20C H -0.63360 -0.04080 0.39610
H21C H -0.50220 0.09560 0.33090
H22C H -0.44460 0.04100 0.41430
H23C H -0.43440 0.17190 0.49060
H24C H -0.34640 0.16980 0.42350
S2C S 0.00910(9) 0.08473(9) 0.84952(12)
N2C N -0.2310(2) 0.14864(15) 0.80661(18)
C2C C -0.1307(2) 0.12373(17) 0.8250(2)
S3C S -0.75501(7) 0.39736(8) 0.63411(7)
N3C N -0.5079(2) 0.35029(16) 0.69296(18)
C3C C -0.6106(2) 0.36921(17) 0.66881(17)
S3* S 0.24499(7) 0.10264(8) 0.63411(7)
S4* S 0.32841(11) 0.25000 0.92782(8)
S3C* S 0.24499(7) 0.39736(8) 0.63411(7)
K3* K -0.88122(9) 0.25000 0.74837(7)
#END
