
#######################################################################
#
#                 Cambridge Crystallographic Data Centre
#                                CCDC
#
#######################################################################
#
# If this CIF has been generated from an entry in the Cambridge
# Structural Database, then it will include bibliographic, chemical,
# crystal, experimental, refinement or atomic coordinate data resulting
# from the CCDC's data processing and validation procedures.
#
#######################################################################

data_CSD_CIF_ELUQIM01
_audit_creation_date 2011-06-07
_audit_creation_method CSD-ConQuest-V1
_database_code_CSD ELUQIM01
_database_code_depnum_ccdc_archive 'CCDC 777310'
_chemical_formula_sum 'C3 H7 N1 O6 Zn1'
_chemical_formula_moiety
;
(C3 H3 O6 Zn1 1-)n,n(H4 N1 1+)
;
_journal_coden_Cambridge 4
_journal_volume 132
_journal_year 2010
_journal_page_first 9588
_journal_name_full 'J.Am.Chem.Soc. '
loop_
_publ_author_name
"Guan-Cheng Xu"
"Xiao-Ming Ma"
"Li Zhang"
"Zhe-Ming Wang"
"Song Gao"
_chemical_name_systematic
;
catena-[Ammonium tris(\m~2~-formato)-zinc]
;
_cell_volume    377.941
_exptl_crystal_colour 'colorless'
_exptl_crystal_density_diffrn 1.92
_exptl_special_details
;
high-temperature polymorph
undergoes a phase transition at about 190 K

;
_exptl_crystal_description 'hexagonal block'
_diffrn_ambient_temperature 290
_refine_special_details
;
Ammonium H atoms are disordered by symmetry.

;
#These two values have been output from a single CSD field.
_refine_ls_R_factor_gt 0.0191
_refine_ls_wR_factor_gt 0.0191
_symmetry_cell_setting hexagonal
_symmetry_space_group_name_H-M 'P 63 2 2'
_symmetry_Int_Tables_number 182
loop_
_symmetry_equiv_pos_site_id
_symmetry_equiv_pos_as_xyz
1 x,y,z
2 -y,x-y,z
3 -x+y,-x,z
4 -x,-y,1/2+z
5 y,-x+y,1/2+z
6 x-y,x,1/2+z
7 y,x,-z
8 x-y,-y,-z
9 -x,-x+y,-z
10 -y,-x,1/2-z
11 -x+y,y,1/2-z
12 x,x-y,1/2-z
_cell_length_a 7.3084(2)
_cell_length_b 7.3084(2)
_cell_length_c 8.1705(3)
_cell_angle_alpha 90
_cell_angle_beta 90
_cell_angle_gamma 120
_cell_formula_units_Z 2
loop_
_atom_type_symbol
_atom_type_radius_bond
C 0.68
H 0.23
N 0.68
O 0.68
Zn 1.22
loop_
_atom_site_label
_atom_site_type_symbol
_atom_site_fract_x
_atom_site_fract_y
_atom_site_fract_z
Zn1 Zn 1.33330 0.66670 0.25000
O1 O 1.11017(29) 0.69445(24) 0.39488(13)
C1 C 1.00000 0.5623(4) 0.50000
H1 H 1.00000 0.430(4) 0.50000
N1 N 1.00000 0.00000 0.75000
H2? H 0.977(6) 0.109(5) 0.826(3)
Zn1D Zn 0.66670 0.33340 0.75000
Zn1E Zn 1.66660 0.33330 0.75000
Zn1C Zn 1.66670 1.33330 0.75000
O1H O 0.88983(29) 0.58428(24) 0.60512(13)
O1A O 1.30555(29) 0.41572(24) 0.39488(13)
O1G O 1.41572(29) 0.30555(24) 0.60512(13)
O1B O 1.58428(29) 0.88983(24) 0.39488(13)
O1F O 1.69445(29) 1.11017(24) 0.60512(13)
O1I O 1.30555(29) 0.88983(24) 0.10512(13)
O1J O 1.58428(29) 0.69445(24) 0.10512(13)
O1K O 1.11017(29) 0.41572(24) 0.10512(13)
C1A C 1.43770 0.4377(4) 0.50000
C1B C 1.56230 1.0000(4) 0.50000
H1A H 1.57000 0.570(4) 0.50000
H1B H 1.43000 1.000(4) 0.50000
#END
