
#######################################################################
#
#                 Cambridge Crystallographic Data Centre
#                                CCDC
#
#######################################################################
#
# If this CIF has been generated from an entry in the Cambridge
# Structural Database, then it will include bibliographic, chemical,
# crystal, experimental, refinement or atomic coordinate data resulting
# from the CCDC's data processing and validation procedures.
#
#######################################################################

data_CSD_CIF_ELUQIM
_audit_creation_date 2011-06-07
_audit_creation_method CSD-ConQuest-V1
_database_code_CSD ELUQIM
_database_code_depnum_ccdc_archive 'CCDC 777309'
_chemical_formula_sum 'C3 H7 N1 O6 Zn1'
_chemical_formula_moiety
;
(C3 H3 O6 Zn1 1-)n,n(H4 N1 1+)
;
_journal_coden_Cambridge 4
_journal_volume 132
_journal_year 2010
_journal_page_first 9588
_journal_name_full 'J.Am.Chem.Soc. '
loop_
_publ_author_name
"Guan-Cheng Xu"
"Xiao-Ming Ma"
"Li Zhang"
"Zhe-Ming Wang"
"Song Gao"
_chemical_name_systematic
;
catena-[Ammonium tris(\m~2~-formato)-zinc]
;
_cell_volume   1126.176
_exptl_crystal_colour 'colorless'
_exptl_crystal_density_diffrn 1.933
_exptl_special_details
;
low-temperature polymorph
undergoes a phase transition at about 190 K

;
_exptl_crystal_description 'hexagonal bipyramid'
_diffrn_ambient_temperature 110
#These two values have been output from a single CSD field.
_refine_ls_R_factor_gt 0.0306
_refine_ls_wR_factor_gt 0.0306
_symmetry_cell_setting hexagonal
_symmetry_space_group_name_H-M 'P 63'
_symmetry_Int_Tables_number 173
loop_
_symmetry_equiv_pos_site_id
_symmetry_equiv_pos_as_xyz
1 x,y,z
2 -y,x-y,z
3 -x+y,-x,z
4 -x,-y,1/2+z
5 y,-x+y,1/2+z
6 x-y,x,1/2+z
_cell_length_a 12.5919(3)
_cell_length_b 12.5919(3)
_cell_length_c 8.2015(2)
_cell_angle_alpha 90
_cell_angle_beta 90
_cell_angle_gamma 120
_cell_formula_units_Z 6
loop_
_atom_type_symbol
_atom_type_radius_bond
C 0.68
H 0.23
N 0.68
O 0.68
Zn 1.22
loop_
_atom_site_label
_atom_site_type_symbol
_atom_site_fract_x
_atom_site_fract_y
_atom_site_fract_z
Zn1 Zn 0.33522(3) 0.33146(3) 0.58625(15)
O1 O 0.42572(18) 0.26472(18) 0.4420(3)
O2 O 0.42814(17) 0.15518(19) 0.2301(3)
O3 O 0.39868(18) 0.48889(18) 0.4403(2)
O4 O 0.50569(18) 0.60248(17) 0.2288(2)
O5 O 0.17527(17) 0.23515(17) 0.4458(3)
O6 O 0.06942(18) 0.24422(17) 0.2344(2)
C1 C 0.3744(3) 0.1868(3) 0.3308(4)
H1 H 0.28770 0.14870 0.32240
C2 C 0.4729(3) 0.5141(3) 0.3245(4)
H2 H 0.50660 0.46220 0.30850
C3 C 0.1407(3) 0.2923(3) 0.3529(4)
H3 H 0.17040 0.37670 0.37420
N1 N 0.66670 0.33330 0.5424(9)
H4 H 0.5932(19) 0.310(3) 0.497(3)
H5 H 0.66670 0.33330 0.651(3)
N2 N 0.33330 0.66670 0.5405(8)
H6 H 0.360(3) 0.619(3) 0.496(3)
H7 H 0.33330 0.66670 0.650(3)
N3 N 0.00000 0.00000 0.1346(10)
H8 H 0.027(3) 0.0777(16) 0.166(3)
H9 H 0.00000 0.00000 0.021(2)
Zn1C Zn 0.66478(3) 0.66854(3) 0.08625(15)
Zn1D Zn 0.33146(3) -0.00376(3) 0.08625(15)
Zn1E Zn 0.00376(3) 0.33522(3) 0.08625(15)
O2E O 0.27296(17) 0.42814(19) 0.7301(3)
O4C O 0.49431(18) 0.39752(17) 0.7288(2)
O6D O 0.24422(18) 0.17480(17) 0.7344(2)
H4A H 0.6900(19) 0.2832(30) 0.497(3)
H4B H 0.7168(19) 0.4068(30) 0.497(3)
H6A H 0.381(3) 0.741(3) 0.496(3)
H6B H 0.259(3) 0.640(3) 0.496(3)
H8A H -0.0777(30) -0.0507(16) 0.166(3)
H8B H 0.0507(30) -0.0270(16) 0.166(3)
#END
