
#######################################################################
#
#                 Cambridge Crystallographic Data Centre
#                                CCDC
#
#######################################################################
#
# If this CIF has been generated from an entry in the Cambridge
# Structural Database, then it will include bibliographic, chemical,
# crystal, experimental, refinement or atomic coordinate data resulting
# from the CCDC's data processing and validation procedures.
#
#######################################################################

data_CSD_CIF_EMARER
_audit_creation_date 2016-05-23
_audit_creation_method CSD-ConQuest-V1
_database_code_CSD EMARER
_database_code_depnum_ccdc_archive 'CCDC 1479525'
_chemical_formula_sum 'C24 H64 Ca2 N16 O24'
_chemical_formula_moiety
;
(C20 H24 Ca2 N4 O16 4-)n,4n(C1 H6 N3 1+),8n(H2 O1)
;
_journal_coden_Cambridge 1078
_journal_year 2016
_journal_name_full 'CSD Communication(Private Communication) '
loop_
_publ_author_name
"U.Florke"
"R.Meier"
_chemical_name_systematic
;
catena-(tetrakis(guanidinium) 
bis(\m-2,2',2'',2'''-(ethane-1,2-diylbis(nitrilo))tetra-acetato)-di-calcium 
octahydrate)
;
_cell_volume   4624.026
_exptl_crystal_colour 'colorless'
_exptl_crystal_density_diffrn 1.495
_exptl_crystal_description 'prism'
_diffrn_ambient_temperature 120
#These two values have been output from a single CSD field.
_refine_ls_R_factor_gt 0.0453
_refine_ls_wR_factor_gt 0.0453
_symmetry_cell_setting orthorhombic
_symmetry_space_group_name_H-M 'P n a 21'
_symmetry_Int_Tables_number 33
loop_
_symmetry_equiv_pos_site_id
_symmetry_equiv_pos_as_xyz
1 x,y,z
2 -x,-y,1/2+z
3 1/2+x,1/2-y,z
4 1/2-x,1/2+y,1/2+z
_cell_length_a 8.8246(7)
_cell_length_b 20.7210(16)
_cell_length_c 25.288(2)
_cell_angle_alpha 90
_cell_angle_beta 90
_cell_angle_gamma 90
_cell_formula_units_Z 4
loop_
_atom_type_symbol
_atom_type_radius_bond
C 0.68
H 0.23
Ca 1.76
N 0.68
O 0.68
loop_
_atom_site_label
_atom_site_type_symbol
_atom_site_fract_x
_atom_site_fract_y
_atom_site_fract_z
Ca1 Ca 0.72362(6) 0.37646(3) 0.00439(2)
Ca2 Ca 1.21900(6) 0.62526(3) -0.00644(2)
O1 O 0.7591(3) 0.35389(12) 0.09664(9)
O2 O 0.6789(3) 0.35254(12) 0.18013(9)
O3 O 0.7547(3) 0.39896(11) -0.08891(9)
O4 O 0.6728(2) 0.39047(11) -0.17192(8)
O5 O 0.6110(2) 0.47944(10) 0.03080(8)
O6 O 0.6117(2) 0.27433(10) -0.02087(8)
O7 O 0.4397(3) 0.19619(11) -0.01218(9)
O8 O 0.9441(3) 0.44537(11) 0.01882(9)
O9 O 1.1142(2) 0.52443(10) 0.02355(9)
O10 O 1.2540(3) 0.59510(11) -0.09834(9)
O11 O 1.1733(3) 0.58351(11) -0.18122(8)
O12 O 1.2441(3) 0.65487(11) 0.08518(8)
O13 O 1.1500(2) 0.68405(11) 0.16346(8)
O14 O 1.1031(3) 0.72542(10) -0.03615(8)
O15 O 0.9354(3) 0.80529(11) -0.02855(9)
O16 O 0.4429(3) 0.55869(10) 0.01877(9)
N1 N 0.4694(3) 0.34628(13) 0.05796(10)
N2 N 0.4708(3) 0.40661(13) -0.04892(10)
N3 N 0.9680(3) 0.58948(12) -0.05957(10)
N4 N 0.9583(3) 0.65588(12) 0.04376(10)
C1 C 0.6567(4) 0.35616(15) 0.13075(12)
C2 C 0.4936(4) 0.36625(17) 0.11323(12)
H1 H 0.42550 0.34110 0.13650
H2 H 0.46700 0.41240 0.11700
C3 C 0.4542(4) 0.27561(16) 0.05583(12)
H3 H 0.34700 0.26400 0.06230
H4 H 0.51560 0.25640 0.08460
C4 C 0.3371(4) 0.37886(15) 0.03489(13)
H5 H 0.33730 0.42470 0.04600
H6 H 0.24370 0.35860 0.04880
C5 C 0.3348(4) 0.37571(15) -0.02487(12)
H7 H 0.33010 0.33000 -0.03610
H8 H 0.24250 0.39760 -0.03810
C6 C 0.4898(4) 0.38567(17) -0.10312(12)
H9 H 0.42150 0.41110 -0.12610
H10 H 0.45970 0.33980 -0.10600
C7 C 0.6526(4) 0.39314(15) -0.12292(12)
C8 C 0.4592(4) 0.47692(15) -0.04679(12)
H11 H 0.35280 0.48930 -0.05400
H12 H 0.52250 0.49540 -0.07540
C9 C 0.5041(4) 0.24663(15) 0.00318(13)
C10 C 1.0083(4) 0.49469(16) 0.00079(13)
C11 C 0.9595(4) 0.51907(15) -0.05277(12)
H13 H 1.02380 0.49850 -0.08000
H14 H 0.85370 0.50520 -0.05910
C12 C 1.1529(4) 0.59287(15) -0.13238(12)
C13 C 0.9908(4) 0.60513(17) -0.11497(12)
H15 H 0.96560 0.65110 -0.12090
H16 H 0.92130 0.57880 -0.13680
C14 C 0.8292(4) 0.62066(16) -0.03823(13)
H17 H 0.73880 0.59710 -0.05120
H18 H 0.82320 0.66550 -0.05150
C15 C 0.8279(4) 0.62131(15) 0.02152(13)
H19 H 0.73340 0.64200 0.03400
H20 H 0.82850 0.57630 0.03470
C16 C 0.9811(4) 0.63962(17) 0.09991(12)
H21 H 0.97080 0.59240 0.10490
H22 H 0.90300 0.66130 0.12170
C17 C 1.1370(4) 0.66113(14) 0.11741(12)
C18 C 0.9946(4) 0.75384(15) -0.01327(12)
C19 C 0.9382(4) 0.72620(15) 0.03838(12)
H23 H 0.99220 0.74780 0.06780
H24 H 0.82910 0.73640 0.04200
C20 C 0.5069(4) 0.50674(15) 0.00496(13)
C21 C 1.1430(4) 0.45370(17) 0.15221(13)
N5 N 1.1734(3) 0.43372(14) 0.20108(11)
H25 H 1.24500 0.45280 0.21960
H26 H 1.12200 0.40150 0.21490
N6 N 1.0369(3) 0.42390(14) 0.12438(11)
H27 H 1.01730 0.43630 0.09180
H28 H 0.98590 0.39170 0.13850
N7 N 1.2199(3) 0.50196(13) 0.13155(11)
H29 H 1.20100 0.51460 0.09900
H30 H 1.29030 0.52150 0.15030
C22 C 1.6356(4) 0.57380(17) 0.15105(13)
N8 N 1.6717(3) 0.60000(14) 0.19715(11)
H31 H 1.62630 0.63550 0.20770
H32 H 1.74120 0.58190 0.21720
N9 N 1.5315(3) 0.60096(14) 0.12096(11)
H33 H 1.50680 0.58330 0.09050
H34 H 1.48660 0.63670 0.13140
N10 N 1.7031(3) 0.52001(13) 0.13543(11)
H35 H 1.67850 0.50240 0.10500
H36 H 1.77260 0.50190 0.15550
C23 C 1.1340(4) 0.30743(15) -0.14511(12)
N11 N 1.0108(3) 0.32678(14) -0.11973(11)
H37 H 0.95040 0.35550 -0.13430
H38 H 0.98940 0.31090 -0.08830
N12 N 1.2238(3) 0.26452(13) -0.12203(10)
H39 H 1.30670 0.25140 -0.13810
H40 H 1.20060 0.24920 -0.09060
N13 N 1.1684(3) 0.33038(14) -0.19199(11)
H41 H 1.10920 0.35920 -0.20710
H42 H 1.25070 0.31700 -0.20830
C24 C 1.6357(4) 0.68714(17) -0.15919(12)
N14 N 1.6706(3) 0.66398(15) -0.20629(11)
H43 H 1.62370 0.62950 -0.21840
H44 H 1.74070 0.68300 -0.22550
N15 N 1.7098(3) 0.73851(14) -0.14044(11)
H45 H 1.68850 0.75350 -0.10870
H46 H 1.77980 0.75740 -0.15980
N16 N 1.5311(3) 0.65946(14) -0.12971(11)
H47 H 1.48330 0.62500 -0.14130
H48 H 1.50910 0.67540 -0.09840
O17 O 1.4422(3) 0.71645(11) 0.18554(9)
H49 H 1.463(5) 0.7528(9) 0.1739(15)
O18 O 1.5320(2) 0.69970(13) 0.28733(9)
H50 H 1.503(5) 0.7080(19) 0.2560(7)
H51 H 1.472(4) 0.6695(14) 0.2936(16)
O19 O 0.3822(3) 0.52507(13) 0.24027(10)
H52 H 0.448(4) 0.4972(15) 0.2494(16)
H53 H 0.369(5) 0.5491(16) 0.2668(10)
O20 O 1.1162(3) 0.48637(12) -0.25921(10)
H54 H 1.124(5) 0.5080(17) -0.2314(10)
H55 H 1.042(3) 0.4628(16) -0.2515(16)
O21 O 0.9105(3) 0.38645(12) -0.24356(9)
H56 H 0.847(3) 0.383(2) -0.2190(11)
H57 H 0.868(4) 0.3707(19) -0.2705(10)
O22 O 0.6227(3) 0.25643(12) 0.25647(11)
H58 H 0.557(4) 0.2284(15) 0.2490(17)
H59 H 0.627(5) 0.2813(16) 0.2303(11)
O23 O 0.5684(3) 0.42514(12) 0.26208(9)
H60 H 0.599(5) 0.4048(19) 0.2355(11)
H61 H 0.640(3) 0.423(2) 0.2837(13)
O24 O 0.9385(3) 0.34538(12) 0.23589(10)
H62 H 0.859(3) 0.346(2) 0.2174(14)
H63 H 0.922(5) 0.3600(19) 0.2665(8)
Ca1B Ca 0.22362(6) 0.12354(3) 0.00439(2)
Ca2* Ca 0.21900(6) 0.62526(3) -0.00644(2)
Ca2B Ca 0.71900(6) 0.87474(3) -0.00644(2)
O7B O 0.9397(3) 0.30381(11) -0.01218(9)
O15B O 1.4354(3) 0.69471(11) -0.02855(9)
O16* O 1.4429(3) 0.55869(10) 0.01877(9)
#END
