
#######################################################################
#
#                 Cambridge Crystallographic Data Centre
#                                CCDC
#
#######################################################################
#
# If this CIF has been generated from an entry in the Cambridge
# Structural Database, then it will include bibliographic, chemical,
# crystal, experimental, refinement or atomic coordinate data resulting
# from the CCDC's data processing and validation procedures.
#
#######################################################################

data_CSD_CIF_EMECUV
_audit_creation_date 2011-06-07
_audit_creation_method CSD-ConQuest-V1
_database_code_CSD EMECUV
_database_code_depnum_ccdc_archive 'CCDC 729848'
_chemical_formula_sum 'C24 H40 N4 O14 S1 Zn1'
_chemical_formula_moiety
;
(C16 H8 O10 Zn1 2-)n,4n(C2 H8 N1 1+),n(O4 S1 2-)
;
_journal_coden_Cambridge 1003
_journal_volume 41
_journal_year 2011
_journal_page_first 537
_journal_name_full 'J.Chem.Cryst. '
loop_
_publ_author_name
"Hyungphil Chun"
_chemical_name_systematic
;
catena-(bis(\m~2~-3-Carboxy-5-hydroxybenzoato)-zinc 
tetrakis(dimethylammonium) sulfate unknown solvate)
;
_cell_volume   4476.280
_exptl_crystal_colour 'colorless'
_exptl_crystal_density_diffrn 1.048
_exptl_crystal_description 'block'
_diffrn_ambient_temperature 153
_refine_special_details
;
The SQUEEZE/PLATON program has been used to model extensively disordered 
extra-framework solvent molecules.
;
#These two values have been output from a single CSD field.
_refine_ls_R_factor_gt 0.0409
_refine_ls_wR_factor_gt 0.0409
_symmetry_cell_setting orthorhombic
_symmetry_space_group_name_H-M 'P 21 21 21'
_symmetry_Int_Tables_number 19
loop_
_symmetry_equiv_pos_site_id
_symmetry_equiv_pos_as_xyz
1 x,y,z
2 1/2-x,-y,1/2+z
3 -x,1/2+y,1/2-z
4 1/2+x,1/2-y,-z
_cell_length_a 14.0354(19)
_cell_length_b 14.1131(19)
_cell_length_c 22.598(3)
_cell_angle_alpha 90
_cell_angle_beta 90
_cell_angle_gamma 90
_cell_formula_units_Z 4
loop_
_atom_type_symbol
_atom_type_radius_bond
C 0.68
H 0.23
N 0.68
O 0.68
S 1.02
Zn 1.22
loop_
_atom_site_label
_atom_site_type_symbol
_atom_site_fract_x
_atom_site_fract_y
_atom_site_fract_z
Zn1 Zn 0.755308(15) 0.498546(19) 0.245693(9)
O1 O 0.84360(11) 0.57331(12) 0.29506(7)
O2 O 0.92245(13) 0.63722(14) 0.21930(7)
O3 O 0.68771(11) 0.42806(13) 0.31104(7)
O4 O 0.63054(14) 0.37255(16) 0.22686(8)
O5 O 0.31677(12) 0.07859(13) 0.30920(7)
O6 O 0.37169(14) 0.13983(16) 0.22477(8)
O7 O 1.14986(12) 0.89802(13) 0.27374(7)
O8 O 1.19646(12) 0.91360(13) 0.36716(7)
O9 O 1.03926(15) 0.64456(16) 0.47428(7)
H1 H 1.01170 0.59180 0.47640
O10 O 0.51661(13) 0.24077(14) 0.46736(7)
H2 H 0.46970 0.21150 0.48140
S1 S 0.35475(4) 0.05698(4) 0.51616(2)
O11 O 0.36101(12) 0.16116(12) 0.51284(7)
O12 O 0.29099(12) 0.01973(14) 0.47017(7)
O13 O 0.45035(11) 0.01667(13) 0.50760(7)
O14 O 0.31795(12) 0.03114(13) 0.57543(7)
C1 C 0.90990(17) 0.62177(18) 0.27269(11)
C2 C 0.97648(16) 0.66674(18) 0.31741(10)
C3 C 0.97763(17) 0.63265(19) 0.37543(11)
H3 H 0.93900 0.58010 0.38620
C4 C 1.03618(19) 0.6765(2) 0.41768(10)
C5 C 1.09061(18) 0.7534(2) 0.40193(10)
H4 H 1.12890 0.78390 0.43090
C6 C 1.09027(17) 0.78708(19) 0.34419(10)
C7 C 1.03411(17) 0.74325(18) 0.30173(10)
H5 H 1.03490 0.76530 0.26200
C8 C 0.63199(18) 0.37469(18) 0.28212(11)
C9 C 0.56827(16) 0.30838(18) 0.31556(10)
C10 C 0.57210(16) 0.30345(18) 0.37652(10)
H6 H 0.61700 0.34080 0.39760
C11 C 0.50973(16) 0.24328(18) 0.40747(10)
C12 C 0.37232(17) 0.13313(19) 0.27941(11)
C13 C 0.44112(16) 0.19407(18) 0.31451(10)
C14 C 0.50155(15) 0.25365(18) 0.28455(11)
H7 H 0.49810 0.25780 0.24260
C15 C 0.44516(16) 0.18821(18) 0.37623(10)
H8 H 0.40360 0.14650 0.39680
C16 C 1.15045(16) 0.87201(18) 0.32847(10)
N1 N 0.87985(16) 0.34025(18) 0.34341(9)
H9 H 0.84530 0.38210 0.36610
H10 H 0.86830 0.35430 0.30430
N2 N 0.39810(15) -0.09444(17) 0.39154(9)
H11 H 0.37340 -0.05370 0.41940
H12 H 0.36460 -0.08590 0.35700
N3 N 0.15602(15) 0.11045(17) 0.39430(8)
H13 H 0.20520 0.06830 0.39970
H14 H 0.13950 0.10910 0.35490
N4 N 0.69078(17) 0.6062(2) 0.39233(9)
H15 H 0.73380 0.55720 0.39390
H16 H 0.68110 0.62090 0.35310
C17 C 0.9838(2) 0.3540(3) 0.35592(13)
H17 H 0.99800 0.33260 0.39620
H18 H 0.99990 0.42130 0.35220
H19 H 1.02150 0.31720 0.32760
C18 C 0.8465(3) 0.2437(2) 0.35559(13)
H20 H 0.88590 0.19830 0.33370
H21 H 0.77990 0.23740 0.34310
H22 H 0.85150 0.23080 0.39810
C19 C 0.49940(18) -0.0703(2) 0.38117(11)
H23 H 0.53530 -0.07800 0.41810
H24 H 0.50420 -0.00450 0.36770
H25 H 0.52580 -0.11260 0.35090
C20 C 0.3848(2) -0.1926(2) 0.41201(13)
H26 H 0.41220 -0.23640 0.38290
H27 H 0.31670 -0.20570 0.41650
H28 H 0.41690 -0.20110 0.45020
C21 C 0.1896(2) 0.2062(2) 0.40929(13)
H29 H 0.13520 0.24960 0.41090
H30 H 0.23460 0.22790 0.37900
H31 H 0.22140 0.20490 0.44790
C22 C 0.0736(2) 0.0794(3) 0.42996(13)
H32 H 0.07820 0.10650 0.46980
H33 H 0.07330 0.01010 0.43260
H34 H 0.01450 0.10090 0.41110
C23 C 0.5996(3) 0.5743(3) 0.41836(17)
H35 H 0.60880 0.56020 0.46040
H36 H 0.57770 0.51710 0.39780
H37 H 0.55170 0.62450 0.41400
C24 C 0.7306(3) 0.6865(3) 0.4213(2)
H38 H 0.68900 0.74150 0.41540
H39 H 0.79370 0.70000 0.40470
H40 H 0.73660 0.67340 0.46370
Zn1B Zn 0.244692(15) -0.001454(19) 0.254307(9)
Zn1B* Zn 1.244692(15) 0.998546(19) 0.254307(9)
O5B O 0.68323(12) 0.57859(13) 0.19080(7)
O7B O 0.85014(12) 0.39802(13) 0.22626(7)
#END
