
#######################################################################
#
#                 Cambridge Crystallographic Data Centre
#                                CCDC
#
#######################################################################
#
# If this CIF has been generated from an entry in the Cambridge
# Structural Database, then it will include bibliographic, chemical,
# crystal, experimental, refinement or atomic coordinate data resulting
# from the CCDC's data processing and validation procedures.
#
#######################################################################

data_CSD_CIF_EMIHAK
_audit_creation_date 2011-04-19
_audit_creation_method CSD-ConQuest-V1
_database_code_CSD EMIHAK
_database_code_depnum_ccdc_archive 'CCDC 795465'
_chemical_formula_sum 'C54 H86 In10 N12 S16'
_chemical_formula_moiety
;
(C18 H18 In10 N4 S16 4-)n,4n(C9 H17 N2 1+)
;
_journal_coden_Cambridge 179
_journal_volume 50
_journal_year 2011
_journal_page_first 2536
_journal_name_full 'Angew.Chem.,Int.Ed. '
loop_
_publ_author_name
"Tao Wu"
"R.Khazhakyan"
"Le Wang"
"Xianhui Bu"
"Shou-Tian Zheng"
"V.Chau"
"Pingyun Feng"
_chemical_name_systematic
;
catena-(tetrakis(\m~3~-sulfido)-bis(\m~2~-5,6-dimethylbenzimidazolyl)-dodecaki
s(\m~2~-sulfido)-deca-indium tetrakis(1,8-diazabicyclo[5.4.0]undec-7-enium))
;
_cell_volume  17461.831
_exptl_special_details
;
The authors report that the negatively charged frameworks are balanced by 
lithium cations and protonated DBU molecules but it is not clear which 
cations are present in each individual framework
;
_diffrn_ambient_temperature 150
_refine_special_details
;
The organic template cations could not be fully located owing to serious 
disorder. Some of the cation N atoms have been refined as C atoms.
;
#These two values have been output from a single CSD field.
_refine_ls_R_factor_gt 0.0571
_refine_ls_wR_factor_gt 0.0571
_symmetry_cell_setting orthorhombic
_symmetry_space_group_name_H-M 'P b c a'
_symmetry_Int_Tables_number 61
loop_
_symmetry_equiv_pos_site_id
_symmetry_equiv_pos_as_xyz
1 x,y,z
2 1/2-x,-y,1/2+z
3 -x,1/2+y,1/2-z
4 1/2+x,1/2-y,-z
5 -x,-y,-z
6 -1/2+x,y,-1/2-z
7 x,-1/2-y,-1/2+z
8 -1/2-x,-1/2+y,z
_cell_length_a 22.5220(3)
_cell_length_b 22.4835(4)
_cell_length_c 34.4841(5)
_cell_angle_alpha 90
_cell_angle_beta 90
_cell_angle_gamma 90
_cell_formula_units_Z 8
loop_
_atom_type_symbol
_atom_type_radius_bond
C 0.68
H 0.23
In 1.42
N 0.68
S 1.02
loop_
_atom_site_label
_atom_site_type_symbol
_atom_site_fract_x
_atom_site_fract_y
_atom_site_fract_z
N1 N 0.7335(16) 0.9420(17) 0.1871(12)
C1 C 0.742(3) 1.008(3) 0.1722(17)
C2 C 0.709(3) 1.059(3) 0.199(2)
C3 C 0.6999(19) 1.039(2) 0.2422(13)
C4 C 0.7115(12) 0.9746(13) 0.2521(9)
C5 C 0.6995(17) 0.9584(17) 0.2928(11)
C6 C 0.748(2) 0.940(2) 0.3179(14)
C7 C 0.757(2) 0.871(3) 0.3126(16)
C8 C 0.785(2) 0.8640(19) 0.2698(14)
C9 C 0.733(2) 0.869(2) 0.2446(14)
C10 C 0.7238(16) 0.9269(18) 0.2276(12)
N2 N 0.8660(13) 0.0790(13) 0.3048(8)
C11 C 0.9039(17) 0.0162(18) 0.2979(11)
C12 C 0.8896(15) 0.0015(16) 0.2498(10)
C13 C 0.9013(10) 0.0443(12) 0.2241(7)
C14 C 0.8970(13) 0.1003(14) 0.2346(9)
C15 C 0.9138(15) 0.1452(15) 0.2041(10)
C16 C 0.8637(16) 0.1780(16) 0.1949(10)
C17 C 0.8532(16) 0.2325(17) 0.2212(11)
C18 C 0.8353(16) 0.2096(16) 0.2597(11)
C19 C 0.888(2) 0.178(2) 0.2796(12)
C20 C 0.882(1) 0.1165(11) 0.2704(7)
In1 In 0.45382(5) 0.47877(5) 0.15901(3)
In2 In 0.59711(5) 0.42688(5) 0.11528(3)
In3 In 0.51672(4) 0.34259(5) 0.20648(3)
In4 In 0.43519(5) 0.34232(5) 0.09974(3)
In5 In 0.72788(5) 0.35454(6) 0.06955(3)
In6 In 0.66824(4) 0.27368(5) 0.15702(3)
In7 In 0.58662(5) 0.27439(5) 0.05099(3)
In8 In 0.58858(5) 0.19972(5) 0.23675(3)
In9 In 0.50810(5) 0.18972(5) 0.14220(3)
In10 In 0.43832(5) 0.20020(5) 0.04408(3)
S1 S 0.5469(2) 0.51708(19) 0.13303(14)
S2 S 0.4650(2) 0.4331(2) 0.22247(12)
S3 S 0.38390(18) 0.4328(2) 0.11552(13)
S4 S 0.6901(2) 0.4519(2) 0.08455(15)
S5 S 0.61467(16) 0.36772(17) 0.17547(11)
S6 S 0.53398(17) 0.36780(19) 0.06965(11)
S7 S 0.5362(2) 0.2842(2) 0.26369(12)
S8 S 0.45448(16) 0.28389(18) 0.16005(11)
S9 S 0.37750(19) 0.2882(2) 0.05268(13)
S10 S 0.76114(18) 0.3021(2) 0.12747(14)
S11 S 0.6799(2) 0.2970(3) 0.01988(13)
S12 S 0.68880(18) 0.2168(2) 0.21448(13)
S13 S 0.60569(17) 0.21487(18) 0.11123(11)
S14 S 0.5292(2) 0.2141(2) 0.00773(13)
S15 S 0.5299(2) 0.13059(19) 0.19855(12)
S16 S 0.4412(2) 0.1368(2) 0.10046(12)
N3 N 0.4095(5) 0.5613(6) 0.1760(4)
N4 N 0.3958(6) 0.6426(6) 0.2131(4)
N5 N 0.8110(5) 0.3692(6) 0.0390(4)
N6 N 0.8868(5) 0.3487(6) -0.0009(4)
C21 C 0.4255(7) 0.5921(7) 0.2066(4)
H1 H 0.45660 0.57920 0.22330
C22 C 0.3642(7) 0.5958(7) 0.1602(4)
C23 C 0.3267(8) 0.5858(8) 0.1271(5)
H2 H 0.33090 0.55110 0.11160
C24 C 0.2856(8) 0.6269(9) 0.1187(5)
C25 C 0.2754(8) 0.6768(8) 0.1427(6)
C26 C 0.3123(8) 0.6851(7) 0.1746(5)
H3 H 0.30710 0.71920 0.19050
C27 C 0.3567(7) 0.6444(7) 0.1835(4)
C28 C 0.2448(11) 0.6194(11) 0.0828(6)
H4 H 0.26860 0.60630 0.06060
H5 H 0.22580 0.65750 0.07680
H6 H 0.21420 0.58960 0.08840
C29 C 0.2285(11) 0.7216(10) 0.1321(8)
H7 H 0.23780 0.73880 0.10670
H8 H 0.22750 0.75320 0.15160
H9 H 0.18970 0.70190 0.13100
C30 C 0.8311(7) 0.3375(7) 0.0098(4)
H10 H 0.80740 0.30840 -0.00290
C31 C 0.8589(8) 0.4035(9) 0.0484(5)
C32 C 0.8635(11) 0.4503(12) 0.0754(8)
H11 H 0.83000 0.46290 0.08990
C33 C 0.9177(14) 0.4772(18) 0.0801(12)
C34 C 0.9656(11) 0.4609(14) 0.0563(9)
C35 C 0.9594(9) 0.4170(9) 0.0289(7)
H12 H 0.99200 0.40570 0.01310
C36 C 0.9064(7) 0.3906(8) 0.0249(5)
C37 C 1.0283(12) 0.483(3) 0.070(2)
H13 H 1.03790 0.52080 0.05790
H14 H 1.05840 0.45320 0.06370
H15 H 1.02760 0.48840 0.09870
C38 C 0.927(2) 0.530(3) 0.1092(17)
H16 H 0.96680 0.52760 0.12020
H17 H 0.89740 0.52680 0.13010
H18 H 0.92180 0.56760 0.09560
In8B In 0.41142(5) 0.69972(5) 0.26325(3)
In10C In 0.93832(5) 0.29980(5) -0.04408(3)
N4B N 0.6042(6) 0.1426(6) 0.2869(4)
N6C N 0.3868(5) 0.1513(6) 0.0009(4)
#END
