
#######################################################################
#
#                 Cambridge Crystallographic Data Centre
#                                CCDC
#
#######################################################################
#
# If this CIF has been generated from an entry in the Cambridge
# Structural Database, then it will include bibliographic, chemical,
# crystal, experimental, refinement or atomic coordinate data resulting
# from the CCDC's data processing and validation procedures.
#
#######################################################################

data_CSD_CIF_EMIWOO
_audit_creation_date 2016-05-24
_audit_creation_method CSD-ConQuest-V1
_database_code_CSD EMIWOO
_database_code_depnum_ccdc_archive 'CCDC 1449811'
_chemical_formula_sum 'C60 H44 N12 Ni2 S17 Sb10'
_chemical_formula_moiety
;
(C30 H22 N6 Ni1 2+)2n,n(S17 Sb10 4-)
;
_journal_coden_Cambridge 1147
_journal_volume 16
_journal_year 2016
_journal_page_first 3802
_journal_name_full 'Cryst.Growth Des. '
loop_
_publ_author_name
"C.Anderer"
"C.Nather"
"Wolfgang Bensch"
_chemical_name_systematic
;
catena-[bis(bis(2,2':6',2''-terpyridine)-nickel(ii)) 
(\m~3~-sulfido)-pentadecakis(\m~2~-sulfido)-sulfido-deca-antimony]
;
_cell_volume   3886.565
_exptl_crystal_colour 'red'
_exptl_crystal_density_diffrn 2.404
_exptl_crystal_description 'platelets'
_diffrn_ambient_temperature 170
#These two values have been output from a single CSD field.
_refine_ls_R_factor_gt 0.029
_refine_ls_wR_factor_gt 0.029
_symmetry_cell_setting triclinic
_symmetry_space_group_name_H-M 'P -1'
_symmetry_Int_Tables_number 2
loop_
_symmetry_equiv_pos_site_id
_symmetry_equiv_pos_as_xyz
1 x,y,z
2 -x,-y,-z
_cell_length_a 8.7758(2)
_cell_length_b 17.2616(4)
_cell_length_c 25.7541(7)
_cell_angle_alpha 90.479(2)
_cell_angle_beta 93.050(2)
_cell_angle_gamma 93.889(2)
_cell_formula_units_Z 2
loop_
_atom_type_symbol
_atom_type_radius_bond
C 0.68
H 0.23
N 0.68
Ni 1.24
S 1.02
Sb 1.39
loop_
_atom_site_label
_atom_site_type_symbol
_atom_site_fract_x
_atom_site_fract_y
_atom_site_fract_z
Sb1 Sb -0.51143(3) -0.01942(2) 0.17087(2)
Sb2 Sb -0.14118(3) -0.06886(2) 0.22855(2)
Sb3 Sb 0.15038(3) 0.07579(2) 0.27233(2)
Sb4 Sb 0.51881(3) 0.02484(2) 0.33089(2)
Sb5 Sb 0.41310(3) 0.22488(2) 0.35118(2)
Sb6 Sb 0.50973(3) 0.42054(2) 0.34195(2)
Sb7 Sb 0.49491(3) 0.58376(2) 0.15658(2)
Sb8 Sb 0.59328(3) 0.77985(2) 0.15061(2)
Sb9 Sb 0.79552(3) 0.47386(2) 0.22108(2)
Sb10 Sb 0.18037(3) 0.53309(2) 0.27745(2)
S1 S -0.57308(12) -0.13095(5) 0.10830(4)
S2 S -0.45707(10) -0.10333(5) 0.24161(4)
S3 S -0.23452(10) 0.00618(5) 0.15526(4)
S4 S -0.12809(11) 0.02782(7) 0.29641(4)
S5 S 0.13630(11) -0.02050(7) 0.20423(4)
S6 S 0.24136(10) -0.00069(5) 0.34531(4)
S7 S 0.46689(10) 0.10797(5) 0.25964(4)
S8 S 0.57781(12) 0.13565(5) 0.39445(4)
S9 S 0.57024(11) 0.30555(5) 0.29298(4)
S10 S 0.46644(12) 0.32484(5) 0.41827(4)
S11 S 0.53287(11) 0.49768(5) 0.24834(4)
S12 S 0.44215(11) 0.69705(5) 0.20940(4)
S13 S 0.53013(12) 0.68177(5) 0.08251(4)
S14 S 0.7770(1) 0.58811(5) 0.16541(4)
S15 S 0.91131(11) 0.51701(6) 0.30545(4)
S16 S 0.23188(10) 0.41330(5) 0.32680(4)
S17 S 0.11759(11) 0.50088(6) 0.19015(4)
Ni1 Ni -0.00006(5) 0.25403(2) 0.05429(2)
N1 N -0.2237(3) 0.21208(16) 0.06990(13)
N2 N 0.0028(3) 0.26437(16) 0.13141(12)
N3 N 0.2245(3) 0.30159(15) 0.07227(12)
C1 C -0.3361(4) 0.1877(2) 0.03529(18)
H1 H -0.31690 0.18820 -0.00070
C2 C -0.4801(5) 0.1617(2) 0.0504(2)
H2 H -0.55810 0.14400 0.02530
C3 C -0.5077(5) 0.1619(2) 0.1024(2)
H3 H -0.60540 0.14420 0.11350
C4 C -0.3940(4) 0.1878(2) 0.13861(19)
H4 H -0.41230 0.18910 0.17460
C5 C -0.2509(4) 0.21193(19) 0.12093(16)
C6 C -0.1223(4) 0.24041(19) 0.15624(15)
C7 C -0.1221(5) 0.2461(2) 0.21025(17)
H5 H -0.20920 0.22850 0.22840
C8 C 0.0086(6) 0.2781(2) 0.23666(17)
H6 H 0.01010 0.28370 0.27340
C9 C 0.1361(5) 0.3020(2) 0.21120(15)
H7 H 0.22590 0.32340 0.22970
C10 C 0.1302(4) 0.29391(19) 0.15739(14)
C11 C 0.2555(4) 0.31796(19) 0.12347(14)
C12 C 0.3933(4) 0.3545(2) 0.14216(16)
H8 H 0.41220 0.36570 0.17820
C13 C 0.5032(4) 0.3742(2) 0.10661(18)
H9 H 0.59850 0.39980 0.11810
C14 C 0.4727(4) 0.3562(2) 0.05457(16)
H10 H 0.54730 0.36840 0.02990
C15 C 0.3313(4) 0.32021(19) 0.03881(15)
H11 H 0.31010 0.30840 0.00290
N4 N -0.0822(3) 0.36152(16) 0.02912(13)
N5 N -0.0038(3) 0.24295(16) -0.02306(12)
N6 N 0.0725(3) 0.13985(15) 0.04463(12)
C16 C -0.1169(4) 0.4212(2) 0.05896(17)
H12 H -0.09600 0.41920 0.09550
C17 C -0.1825(4) 0.4860(2) 0.03818(19)
H13 H -0.20770 0.52710 0.06020
C18 C -0.2102(5) 0.4895(2) -0.01478(19)
H14 H -0.25490 0.53320 -0.02980
C19 C -0.1722(4) 0.4287(2) -0.04589(17)
H15 H -0.18880 0.43060 -0.08260
C20 C -0.1098(4) 0.36526(19) -0.02284(15)
C21 C -0.0683(4) 0.29696(19) -0.05267(15)
C22 C -0.0973(4) 0.2846(2) -0.10594(15)
H16 H -0.14310 0.32260 -0.12700
C23 C -0.0573(5) 0.2155(2) -0.12734(16)
H17 H -0.07980 0.20480 -0.16330
C24 C 0.0152(4) 0.1617(2) -0.09683(16)
H18 H 0.04750 0.11540 -0.11170
C25 C 0.0393(4) 0.17716(19) -0.04421(15)
C26 C 0.0987(4) 0.12261(19) -0.00577(15)
C27 C 0.1715(4) 0.0567(2) -0.01927(16)
H19 H 0.19360 0.04710 -0.05440
C28 C 0.2113(4) 0.0053(2) 0.01956(17)
H20 H 0.26280 -0.03960 0.01150
C29 C 0.1751(4) 0.0202(2) 0.07005(16)
H21 H 0.19600 -0.01570 0.09680
C30 C 0.1079(4) 0.0885(2) 0.08107(15)
H22 H 0.08600 0.09920 0.11600
Ni2 Ni 0.99759(5) 0.74705(2) 0.44288(2)
N7 N 0.9260(3) 0.86073(15) 0.45412(12)
N8 N 1.0024(3) 0.75569(16) 0.52039(12)
N9 N 1.0792(3) 0.63860(16) 0.46624(12)
C31 C 0.8928(4) 0.91353(19) 0.41851(15)
H23 H 0.91540 0.90400 0.38350
C32 C 0.8269(4) 0.9817(2) 0.43042(16)
H24 H 0.80740 1.01870 0.40420
C33 C 0.7900(4) 0.9948(2) 0.48105(18)
H25 H 0.73940 1.03970 0.48970
C34 C 0.8272(4) 0.9419(2) 0.51920(16)
H26 H 0.80390 0.95030 0.55430
C35 C 0.8995(4) 0.87642(19) 0.50479(15)
C36 C 0.9574(4) 0.82046(19) 0.54232(15)
C37 C 0.9780(5) 0.8335(2) 0.59559(16)
H27 H 0.94440 0.87890 0.61130
C38 C 1.0494(5) 0.7781(2) 0.62507(16)
H28 H 1.06920 0.78680 0.66130
C39 C 1.0920(5) 0.7105(2) 0.60268(16)
H29 H 1.13810 0.67210 0.62320
C40 C 1.0655(4) 0.70027(19) 0.54917(14)
C41 C 1.1088(4) 0.63386(19) 0.51821(16)
C42 C 1.1735(4) 0.5696(2) 0.53998(18)
H30 H 1.19190 0.56650 0.57660
C43 C 1.2109(5) 0.5100(2) 0.5076(2)
H31 H 1.25810 0.46640 0.52170
C44 C 1.1795(4) 0.5143(2) 0.45505(18)
H32 H 1.20210 0.47350 0.43240
C45 C 1.1137(4) 0.5800(2) 0.43568(17)
H33 H 1.09230 0.58330 0.39920
N10 N 0.7721(3) 0.70022(15) 0.42501(12)
N11 N 0.9921(3) 0.73946(15) 0.36551(12)
N12 N 1.2209(3) 0.78865(16) 0.42681(13)
C46 C 0.6664(4) 0.67992(19) 0.45843(15)
H34 H 0.68890 0.69030 0.49440
C47 C 0.5250(4) 0.6443(2) 0.44294(16)
H35 H 0.45200 0.63050 0.46780
C48 C 0.4920(4) 0.6293(2) 0.39083(17)
H36 H 0.39630 0.60410 0.37940
C49 C 0.5999(4) 0.6512(2) 0.35497(16)
H37 H 0.57910 0.64200 0.31880
C50 C 0.7391(4) 0.68680(18) 0.37379(14)
C51 C 0.8623(4) 0.71188(19) 0.33951(15)
C52 C 0.8548(5) 0.7054(2) 0.28585(15)
H38 H 0.76360 0.68560 0.26740
C53 C 0.9828(5) 0.7285(2) 0.25978(17)
H39 H 0.98000 0.72420 0.22290
C54 C 1.1159(5) 0.7580(2) 0.28662(16)
H40 H 1.20390 0.77440 0.26860
C55 C 1.1170(4) 0.76279(19) 0.34047(15)
C56 C 1.2473(4) 0.79028(19) 0.37548(16)
C57 C 1.3896(4) 0.8145(2) 0.35802(19)
H41 H 1.40730 0.81370 0.32200
C58 C 1.5047(5) 0.8397(2) 0.3940(2)
H42 H 1.60210 0.85780 0.38280
C59 C 1.4784(5) 0.8387(2) 0.4466(2)
H43 H 1.55690 0.85560 0.47170
C60 C 1.3339(4) 0.8124(2) 0.46157(18)
H44 H 1.31490 0.81130 0.49750
Sb8* Sb -0.40672(3) -0.22015(2) 0.15061(2)
Sb10* Sb 1.18037(3) 0.53309(2) 0.27745(2)
S1* S 0.42692(12) 0.86905(5) 0.10830(4)
S15* S -0.08869(11) 0.51701(6) 0.30545(4)
#END
