
#######################################################################
#
#                 Cambridge Crystallographic Data Centre
#                                CCDC
#
#######################################################################
#
# If this CIF has been generated from an entry in the Cambridge
# Structural Database, then it will include bibliographic, chemical,
# crystal, experimental, refinement or atomic coordinate data resulting
# from the CCDC's data processing and validation procedures.
#
#######################################################################

data_CSD_CIF_EMIWEE
_audit_creation_date 2016-05-24
_audit_creation_method CSD-ConQuest-V1
_database_code_CSD EMIWEE
_database_code_depnum_ccdc_archive 'CCDC 1449809'
_chemical_formula_sum 'C30 H22.5 N6 Ni1 O0.25 S7 Sb4'
_chemical_formula_moiety
;
(C30 H22 N6 Ni1 2+)n,n(S7 Sb4 2-),0.25n(H2 O1)
;
_journal_coden_Cambridge 1147
_journal_volume 16
_journal_year 2016
_journal_page_first 3802
_journal_name_full 'Cryst.Growth Des. '
loop_
_publ_author_name
"C.Anderer"
"C.Nather"
"Wolfgang Bensch"
_chemical_name_systematic
;
catena-[bis(2,2':6',2''-terpyridine)-nickel 
heptakis(\m~2~-sulfido)-tetra-antimony hydrate]
;
_cell_volume   1864.886
_exptl_crystal_colour 'red'
_exptl_crystal_density_diffrn 2.21
_exptl_crystal_description 'blocks'
_diffrn_ambient_temperature 170
#These two values have been output from a single CSD field.
_refine_ls_R_factor_gt 0.0496
_refine_ls_wR_factor_gt 0.0496
_symmetry_cell_setting triclinic
_symmetry_space_group_name_H-M 'P -1'
_symmetry_Int_Tables_number 2
loop_
_symmetry_equiv_pos_site_id
_symmetry_equiv_pos_as_xyz
1 x,y,z
2 -x,-y,-z
_cell_length_a 9.0835(3)
_cell_length_b 12.0910(5)
_cell_length_c 17.0690(7)
_cell_angle_alpha 90.452(3)
_cell_angle_beta 95.189(3)
_cell_angle_gamma 92.625(3)
_cell_formula_units_Z 2
loop_
_atom_type_symbol
_atom_type_radius_bond
C 0.68
H 0.23
N 0.68
Ni 1.24
O 0.68
S 1.02
Sb 1.39
loop_
_atom_site_label
_atom_site_type_symbol
_atom_site_fract_x
_atom_site_fract_y
_atom_site_fract_z
Sb1 Sb 0.99645(5) 0.87125(4) 0.55901(3)
Sb2 Sb 1.18336(4) 0.85192(3) 0.75594(2)
Sb3 Sb 1.00510(4) 0.81774(3) 0.94264(2)
Sb4 Sb 1.30672(4) 1.00395(3) 1.01104(2)
S1 S 1.18024(17) 0.96362(17) 0.48833(9)
S2 S 0.99078(14) 0.96004(12) 0.68827(8)
S3 S 1.2121(3) 0.75102(15) 0.63748(11)
S4 S 1.03607(18) 0.71011(13) 0.82197(9)
S5 S 1.05705(15) 0.99726(12) 0.89580(8)
S6 S 1.25235(14) 0.80451(11) 1.01252(8)
S7 S 1.45269(15) 1.03046(11) 0.90118(8)
Ni1 Ni 0.51344(6) 0.40754(5) 0.74185(4)
N1 N 0.5974(4) 0.4682(4) 0.6381(2)
N2 N 0.5266(4) 0.5696(3) 0.7631(2)
N3 N 0.4386(4) 0.4162(3) 0.8539(2)
C1 C 0.6272(5) 0.4108(5) 0.5749(3)
H1 H 0.60000 0.33400 0.57200
C2 C 0.6956(6) 0.4579(6) 0.5133(3)
H2 H 0.71670 0.41440 0.46950
C3 C 0.7324(7) 0.5704(6) 0.5174(4)
H3 H 0.77940 0.60540 0.47610
C4 C 0.7004(6) 0.6310(5) 0.5818(3)
H4 H 0.72470 0.70830 0.58500
C5 C 0.6328(5) 0.5790(4) 0.6419(3)
C6 C 0.5936(5) 0.6367(4) 0.7133(3)
C7 C 0.6236(6) 0.7475(5) 0.7316(3)
H5 H 0.67810 0.79360 0.69860
C8 C 0.5721(6) 0.7892(4) 0.7992(3)
H6 H 0.58740 0.86580 0.81170
C9 C 0.4984(5) 0.7205(4) 0.8489(3)
H7 H 0.46180 0.74920 0.89490
C10 C 0.4793(5) 0.6089(4) 0.8297(3)
C11 C 0.4154(5) 0.5205(4) 0.8776(3)
C12 C 0.3408(5) 0.5402(5) 0.9428(3)
H8 H 0.32110 0.61380 0.95710
C13 C 0.2950(5) 0.4527(5) 0.9871(3)
H9 H 0.24380 0.46510 1.03220
C14 C 0.3245(5) 0.3462(5) 0.9648(3)
H10 H 0.29690 0.28460 0.99530
C15 C 0.3949(5) 0.3312(4) 0.8973(3)
H11 H 0.41300 0.25800 0.88120
N4 N 0.7291(4) 0.3633(4) 0.7829(3)
N5 N 0.5031(4) 0.2457(3) 0.7194(2)
N6 N 0.2922(4) 0.3826(3) 0.6925(2)
C16 C 0.8388(5) 0.4294(4) 0.8163(3)
H12 H 0.82260 0.50590 0.82260
C17 C 0.9768(5) 0.3902(5) 0.8422(3)
H13 H 1.05330 0.43910 0.86590
C18 C 0.9996(5) 0.2805(5) 0.8329(3)
H14 H 1.09210 0.25180 0.85090
C19 C 0.8864(5) 0.2100(5) 0.7967(3)
H15 H 0.90070 0.13350 0.78880
C20 C 0.7529(5) 0.2556(4) 0.7728(3)
C21 C 0.6249(5) 0.1884(4) 0.7335(3)
C22 C 0.6278(6) 0.0787(5) 0.7103(4)
H16 H 0.71470 0.03830 0.72000
C23 C 0.4986(6) 0.0295(5) 0.6721(4)
H17 H 0.49730 -0.04560 0.65500
C24 C 0.3718(6) 0.0892(4) 0.6587(3)
H18 H 0.28350 0.05570 0.63320
C25 C 0.3774(5) 0.1990(4) 0.6835(3)
C26 C 0.2550(5) 0.2755(4) 0.6714(3)
C27 C 0.1141(5) 0.2424(5) 0.6399(3)
H19 H 0.09010 0.16690 0.62630
C28 C 0.0082(5) 0.3217(5) 0.6284(3)
H20 H -0.08870 0.30140 0.60570
C29 C 0.0454(5) 0.4300(5) 0.6504(3)
H21 H -0.02600 0.48500 0.64380
C30 C 0.1888(5) 0.4577(5) 0.6825(3)
H22 H 0.21400 0.53240 0.69780
O1 O 0.488(3) 0.8217(16) 0.5265(12)
Sb1A Sb 1.00355(5) 1.12875(4) 0.44099(3)
Sb4A Sb 1.69328(4) 0.99605(3) 0.98896(2)
S1A S 0.81976(17) 1.03638(17) 0.51167(9)
S7A S 1.54731(15) 0.96954(11) 1.09882(8)
#END
