
#######################################################################
#
#                 Cambridge Crystallographic Data Centre
#                                CCDC
#
#######################################################################
#
# If this CIF has been generated from an entry in the Cambridge
# Structural Database, then it will include bibliographic, chemical,
# crystal, experimental, refinement or atomic coordinate data resulting
# from the CCDC's data processing and validation procedures.
#
#######################################################################

data_CSD_CIF_EMIWAA01
_audit_creation_date 2016-05-24
_audit_creation_method CSD-ConQuest-V1
_database_code_CSD EMIWAA01
_database_code_depnum_ccdc_archive 'CCDC 1449810'
_chemical_formula_sum 'C30 H24 N6 Ni1 O1 S7 Sb4'
_chemical_formula_moiety
;
(C30 H22 N6 Ni1 2+)n,n(S7 Sb4 2-),n(H2 O1)
;
_journal_coden_Cambridge 1147
_journal_volume 16
_journal_year 2016
_journal_page_first 3802
_journal_name_full 'Cryst.Growth Des. '
loop_
_publ_author_name
"C.Anderer"
"C.Nather"
"Wolfgang Bensch"
_chemical_name_systematic
;
catena-[bis(2,2':6',2''-terpyridine)-nickel 
heptakis(\m~2~-sulfido)-tetra-antimony monohydrate]
;
_cell_volume   3760.469
_exptl_crystal_colour 'red'
_exptl_crystal_density_diffrn 2.216
_exptl_special_details
;
monoclinic P21/c polymorph

;
_exptl_crystal_description 'needles'
_diffrn_ambient_temperature 170
#These two values have been output from a single CSD field.
_refine_ls_R_factor_gt 0.0389
_refine_ls_wR_factor_gt 0.0389
_symmetry_cell_setting monoclinic
_symmetry_space_group_name_H-M 'P 21/c'
_symmetry_Int_Tables_number 14
loop_
_symmetry_equiv_pos_site_id
_symmetry_equiv_pos_as_xyz
1 x,y,z
2 -x,1/2+y,1/2-z
3 -x,-y,-z
4 x,-1/2-y,-1/2+z
_cell_length_a 8.9126(2)
_cell_length_b 24.4930(9)
_cell_length_c 17.2309(5)
_cell_angle_alpha 90
_cell_angle_beta 91.303(2)
_cell_angle_gamma 90
_cell_formula_units_Z 4
loop_
_atom_type_symbol
_atom_type_radius_bond
C 0.68
H 0.23
N 0.68
Ni 1.24
O 0.68
S 1.02
Sb 1.39
loop_
_atom_site_label
_atom_site_type_symbol
_atom_site_fract_x
_atom_site_fract_y
_atom_site_fract_z
Sb1 Sb -0.04165(6) 0.44202(2) 0.93834(3)
S1 S 0.16801(19) 0.46607(7) 1.02192(10)
S2 S 0.1267(3) 0.35132(8) 0.88281(11)
S3 S 0.0201(2) 0.48431(6) 0.81572(9)
Sb2 Sb 0.18774(6) 0.40881(2) 0.77701(3)
S4 S 0.0342(2) 0.37318(6) 0.67229(9)
Sb3 Sb 0.02557(4) 0.46789(2) 0.60772(2)
S5 S -0.24815(17) 0.45823(6) 0.61556(9)
S6 S 0.06128(17) 0.43008(6) 0.48123(9)
Sb4 Sb -0.34841(5) 0.53824(2) 0.54894(2)
S7 S 0.38461(18) 0.49105(6) 0.58258(9)
Ni1 Ni 0.46964(8) 0.70067(3) 0.76645(4)
N1 N 0.2596(5) 0.69069(19) 0.8196(3)
N2 N 0.4814(5) 0.62333(18) 0.7978(3)
N3 N 0.6843(5) 0.67931(18) 0.7296(3)
C1 C 0.1519(7) 0.7275(2) 0.8296(3)
H1 H 0.16660 0.76340 0.81030
C2 C 0.0200(7) 0.7159(3) 0.8667(4)
H2 H -0.05310 0.74350 0.87410
C3 C -0.0036(7) 0.6636(2) 0.8927(4)
H3 H -0.09400 0.65440 0.91780
C4 C 0.1060(7) 0.6244(2) 0.8817(4)
H4 H 0.09090 0.58790 0.89820
C5 C 0.2383(7) 0.6394(2) 0.8463(3)
C6 C 0.3651(7) 0.6015(2) 0.8360(4)
C7 C 0.3742(8) 0.5476(2) 0.8621(4)
H5 H 0.29480 0.53180 0.89040
C8 C 0.5014(8) 0.5177(2) 0.8460(4)
H6 H 0.50900 0.48090 0.86340
C9 C 0.6163(8) 0.5401(2) 0.8054(4)
H7 H 0.70230 0.51910 0.79340
C10 C 0.6045(7) 0.5945(2) 0.7820(3)
C11 C 0.7205(7) 0.6261(2) 0.7418(3)
C12 C 0.8557(7) 0.6049(2) 0.7191(4)
H8 H 0.87920 0.56760 0.72840
C13 C 0.9568(7) 0.6384(3) 0.6827(4)
H9 H 1.04950 0.62430 0.66530
C14 C 0.9206(7) 0.6928(3) 0.6719(4)
H10 H 0.98970 0.71700 0.64860
C15 C 0.7837(7) 0.7115(2) 0.6952(4)
H11 H 0.75870 0.74880 0.68660
N4 N 0.3750(6) 0.69133(19) 0.6539(3)
N5 N 0.4418(6) 0.77782(19) 0.7347(3)
N6 N 0.5568(6) 0.74126(18) 0.8654(3)
C16 C 0.3519(7) 0.6450(2) 0.6145(4)
H12 H 0.38180 0.61160 0.63810
C17 C 0.2877(7) 0.6434(3) 0.5421(4)
H13 H 0.27280 0.60950 0.51620
C18 C 0.2442(8) 0.6921(3) 0.5068(4)
H14 H 0.19790 0.69220 0.45660
C19 C 0.2701(8) 0.7407(3) 0.5469(4)
H15 H 0.24340 0.77460 0.52360
C20 C 0.3344(7) 0.7394(2) 0.6201(3)
C21 C 0.3661(7) 0.7884(2) 0.6692(4)
C22 C 0.3173(8) 0.8404(3) 0.6521(4)
H16 H 0.26340 0.84810 0.60520
C23 C 0.3497(8) 0.8816(3) 0.7058(4)
H17 H 0.31410 0.91760 0.69630
C24 C 0.4330(8) 0.8706(2) 0.7729(4)
H18 H 0.45970 0.89880 0.80840
C25 C 0.4765(7) 0.8166(2) 0.7867(4)
C26 C 0.5522(7) 0.7967(2) 0.8571(4)
C27 C 0.6171(8) 0.8304(2) 0.9142(4)
H19 H 0.61660 0.86890 0.90780
C28 C 0.6818(8) 0.8073(3) 0.9797(4)
H20 H 0.72680 0.82970 1.01880
C29 C 0.6805(8) 0.7514(3) 0.9880(4)
H21 H 0.72230 0.73480 1.03340
C30 C 0.6177(7) 0.7200(3) 0.9296(4)
H22 H 0.61800 0.68140 0.93540
O1 O 0.5382(10) 0.8957(3) 0.5326(5)
S1B S -0.16801(19) 0.53393(7) 0.97808(10)
Sb1B Sb 0.04165(6) 0.55798(2) 1.06166(3)
Sb4B Sb 0.34841(5) 0.46176(2) 0.45106(2)
S5B S 0.24815(17) 0.54177(6) 0.38444(9)
S7B S 0.61539(18) 0.50895(6) 0.41742(9)
Sb4* Sb 0.65159(5) 0.53824(2) 0.54894(2)
#END
