
#######################################################################
#
#                 Cambridge Crystallographic Data Centre
#                                CCDC
#
#######################################################################
#
# If this CIF has been generated from an entry in the Cambridge
# Structural Database, then it will include bibliographic, chemical,
# crystal, experimental, refinement or atomic coordinate data resulting
# from the CCDC's data processing and validation procedures.
#
#######################################################################

data_CSD_CIF_EMIWAA
_audit_creation_date 2016-05-24
_audit_creation_method CSD-ConQuest-V1
_database_code_CSD EMIWAA
_database_code_depnum_ccdc_archive 'CCDC 1449808'
_chemical_formula_sum 'C30 H24 N6 Ni1 O1 S7 Sb4'
_chemical_formula_moiety
;
(C30 H22 N6 Ni1 2+)n,n(S7 Sb4 2-),n(H2 O1)
;
_journal_coden_Cambridge 1147
_journal_volume 16
_journal_year 2016
_journal_page_first 3802
_journal_name_full 'Cryst.Growth Des. '
loop_
_publ_author_name
"C.Anderer"
"C.Nather"
"Wolfgang Bensch"
_chemical_name_systematic
;
catena-[bis(2,2':6',2''-terpyridine)-nickel 
heptakis(\m~2~-sulfido)-tetra-antimony monohydrate]
;
_cell_volume   1886.837
_exptl_crystal_colour 'red'
_exptl_crystal_density_diffrn 2.208
_exptl_special_details
;
triclinic P-1 polymorph

;
_exptl_crystal_description 'blocks'
_diffrn_ambient_temperature 200
#These two values have been output from a single CSD field.
_refine_ls_R_factor_gt 0.0363
_refine_ls_wR_factor_gt 0.0363
_symmetry_cell_setting triclinic
_symmetry_space_group_name_H-M 'P -1'
_symmetry_Int_Tables_number 2
loop_
_symmetry_equiv_pos_site_id
_symmetry_equiv_pos_as_xyz
1 x,y,z
2 -x,-y,-z
_cell_length_a 9.1035(6)
_cell_length_b 12.2017(10)
_cell_length_c 17.0842(12)
_cell_angle_alpha 90.415(9)
_cell_angle_beta 95.502(9)
_cell_angle_gamma 92.619(9)
_cell_formula_units_Z 2
loop_
_atom_type_symbol
_atom_type_radius_bond
C 0.68
H 0.23
N 0.68
Ni 1.24
O 0.68
S 1.02
Sb 1.39
loop_
_atom_site_label
_atom_site_type_symbol
_atom_site_fract_x
_atom_site_fract_y
_atom_site_fract_z
Sb1 Sb 0.99346(4) 0.87070(3) 0.55960(2)
Sb2 Sb 1.17689(3) 0.85163(2) 0.75759(2)
Sb3 Sb 1.00320(3) 0.82020(3) 0.94487(2)
Sb4 Sb 1.30771(3) 1.00351(2) 1.01198(2)
S1 S 1.17953(15) 0.96066(13) 0.48990(7)
S2 S 0.98746(13) 0.96069(9) 0.68860(6)
S3 S 1.1996(2) 0.74814(12) 0.63854(8)
S4 S 1.02822(16) 0.71215(10) 0.82363(7)
S5 S 1.05564(13) 0.99734(9) 0.89613(6)
S6 S 1.25284(12) 0.80534(9) 1.01240(6)
S7 S 1.45055(13) 1.03082(9) 0.90113(6)
Ni1 Ni 0.51218(5) 0.40733(4) 0.74200(3)
N1 N 0.5941(4) 0.4673(3) 0.63813(18)
N2 N 0.5251(4) 0.5689(3) 0.76267(18)
N3 N 0.4383(4) 0.4166(3) 0.85494(18)
C1 C 0.6241(5) 0.4093(4) 0.5750(2)
H1 H 0.59680 0.33320 0.57220
C2 C 0.6932(5) 0.4561(4) 0.5136(3)
H2 H 0.71380 0.41290 0.46980
C3 C 0.7317(6) 0.5674(4) 0.5177(3)
H3 H 0.78010 0.60160 0.47680
C4 C 0.6991(5) 0.6282(4) 0.5819(3)
H4 H 0.72340 0.70470 0.58500
C5 C 0.6305(4) 0.5766(3) 0.6416(2)
C6 C 0.5908(4) 0.6348(3) 0.7128(2)
C7 C 0.6166(5) 0.7460(4) 0.7300(3)
H5 H 0.66750 0.79240 0.69620
C8 C 0.5663(6) 0.7872(4) 0.7977(3)
H6 H 0.58180 0.86310 0.81020
C9 C 0.4930(5) 0.7186(3) 0.8477(2)
H7 H 0.45530 0.74720 0.89320
C10 C 0.4767(4) 0.6079(3) 0.8294(2)
C11 C 0.4142(4) 0.5202(3) 0.8780(2)
C12 C 0.3399(5) 0.5410(4) 0.9436(2)
H8 H 0.32070 0.61400 0.95780
C13 C 0.2944(5) 0.4530(4) 0.9881(3)
H9 H 0.24320 0.46490 1.03310
C14 C 0.3249(5) 0.3474(4) 0.9657(3)
H10 H 0.29740 0.28610 0.99600
C15 C 0.3961(5) 0.3327(3) 0.8985(2)
H11 H 0.41560 0.26030 0.88280
N4 N 0.7283(4) 0.3639(3) 0.78299(19)
N5 N 0.5020(4) 0.2468(3) 0.72033(18)
N6 N 0.2907(4) 0.3818(3) 0.69286(19)
C16 C 0.8391(5) 0.4299(4) 0.8161(2)
H12 H 0.82310 0.50580 0.82210
C17 C 0.9757(5) 0.3917(4) 0.8417(2)
H13 H 1.05200 0.44040 0.86520
C18 C 0.9997(5) 0.2815(4) 0.8327(3)
H14 H 1.09250 0.25340 0.85050
C19 C 0.8864(5) 0.2122(4) 0.7973(2)
H15 H 0.90070 0.13640 0.78990
C20 C 0.7528(4) 0.2564(3) 0.7733(2)
C21 C 0.6240(4) 0.1899(3) 0.7354(2)
C22 C 0.6242(5) 0.0793(3) 0.7132(3)
H16 H 0.71060 0.03880 0.72320
C23 C 0.4961(5) 0.0304(4) 0.6764(3)
H17 H 0.49450 -0.04450 0.66060
C24 C 0.3695(5) 0.0891(3) 0.6623(3)
H18 H 0.28080 0.05520 0.63760
C25 C 0.3758(4) 0.1991(3) 0.6852(2)
C26 C 0.2531(4) 0.2754(3) 0.6721(2)
C27 C 0.1130(5) 0.2424(4) 0.6401(2)
H19 H 0.08950 0.16760 0.62640
C28 C 0.0068(5) 0.3208(4) 0.6281(3)
H20 H -0.09010 0.30040 0.60550
C29 C 0.0443(5) 0.4287(4) 0.6496(3)
H21 H -0.02640 0.48350 0.64230
C30 C 0.1872(5) 0.4554(4) 0.6821(2)
H22 H 0.21230 0.52950 0.69740
O1 O 0.5042(10) 0.8283(6) 0.5256(5)
H23 H 0.42430 0.81270 0.54470
Sb1A Sb 1.00654(4) 1.12930(3) 0.44040(2)
Sb4A Sb 1.69229(3) 0.99649(2) 0.98802(2)
S1A S 0.82047(15) 1.03934(13) 0.51010(7)
S7A S 1.54945(13) 0.96918(9) 1.09887(6)
#END
