
#######################################################################
#
#                 Cambridge Crystallographic Data Centre
#                                CCDC
#
#######################################################################
#
# If this CIF has been generated from an entry in the Cambridge
# Structural Database, then it will include bibliographic, chemical,
# crystal, experimental, refinement or atomic coordinate data resulting
# from the CCDC's data processing and validation procedures.
#
#######################################################################

data_CSD_CIF_EMIYAD
_audit_creation_date 2021-02-26
_audit_creation_method CSD-ConQuest-V1
_database_code_CSD EMIYAD
_database_code_depnum_ccdc_archive 'CCDC 1998302'
_chemical_formula_sum 'C24 H36 Cu2 Mo8 N12 O36'
_chemical_formula_moiety
;
(C24 H24 Cu2 N12 O4 4+)n,Mo8 O26 4-,6(H2 O1)
;
_journal_coden_Cambridge 1350
_journal_volume 23
_journal_year 2021
_journal_page_first 2113
_journal_name_full 'CrystEngComm '
loop_
_publ_author_name
"Xiu-Li Wang"
"Zi-Wei Cui"
"Hong-Yan Lin"
"Zhi-Han Chang"
_chemical_name_systematic
;
catena-[bis(\m-N,N'-(ethane-1,2-diyl)bis(pyrazine-2-carboxamide))-di-copper(ii
) dodecakis(\m-oxido)-tetradecaoxo-octa-molybdenum(vi) hexahydrate]
;
_cell_volume   5061.406
_exptl_crystal_colour 'green'
_exptl_crystal_density_diffrn 2.571
_exptl_crystal_description 'block'
_diffrn_ambient_temperature 296.1
#These two values have been output from a single CSD field.
_refine_ls_R_factor_gt 0.0393
_refine_ls_wR_factor_gt 0.0393
_symmetry_cell_setting monoclinic
_symmetry_space_group_name_H-M 'C 2/c'
_symmetry_Int_Tables_number 15
loop_
_symmetry_equiv_pos_site_id
_symmetry_equiv_pos_as_xyz
1 x,y,z
2 -x,y,1/2-z
3 1/2+x,1/2+y,z
4 1/2-x,1/2+y,1/2-z
5 -x,-y,-z
6 x,-y,-1/2+z
7 -1/2-x,-1/2-y,-z
8 -1/2+x,-1/2-y,-1/2+z
_cell_length_a 16.8962(13)
_cell_length_b 15.3037(13)
_cell_length_c 19.8840(15)
_cell_angle_alpha 90
_cell_angle_beta 100.126(2)
_cell_angle_gamma 90
_cell_formula_units_Z 4
loop_
_atom_type_symbol
_atom_type_radius_bond
C 0.68
H 0.23
Cu 1.32
Mo 1.54
N 0.68
O 0.68
loop_
_atom_site_label
_atom_site_type_symbol
_atom_site_fract_x
_atom_site_fract_y
_atom_site_fract_z
Mo1 Mo 0.17321(3) 0.28544(3) 0.54800(2)
Mo2 Mo 0.11469(3) 0.21749(3) 0.39535(2)
Mo3 Mo 0.27989(3) 0.43205(3) 0.49150(2)
Mo4 Mo 0.22454(3) 0.36499(3) 0.33402(2)
O1 O 0.2616(2) 0.3658(2) 0.57331(16)
O2 O 0.1285(2) 0.1856(2) 0.49405(16)
O3 O 0.2990(2) 0.4289(2) 0.40047(17)
O4 O 0.1650(2) 0.2592(2) 0.32345(17)
O5 O 0.1766(2) 0.2374(2) 0.62794(17)
O6 O 0.2116(2) 0.3095(2) 0.45122(16)
O7 O 0.0746(2) 0.1233(2) 0.35863(17)
O8 O 0.0926(2) 0.3519(2) 0.53861(18)
O9 O 0.3599(2) 0.4946(2) 0.52890(18)
O10 O 0.2630(3) 0.3745(3) 0.26125(19)
O11 O 0.0348(2) 0.2850(2) 0.3919(2)
O12 O 0.1985(2) 0.4989(3) 0.4830(2)
O13 O 0.1480(3) 0.4376(2) 0.3248(2)
Cu1 Cu 0.50000 0.50000 0.50000
Cu2 Cu 0.00000 0.68742(6) 0.25000
O14 O 0.4427(2) 0.5585(2) 0.42059(17)
O15 O 0.1281(3) 0.6745(3) 0.2816(2)
N1 N 0.4977(3) 0.4005(3) 0.4348(2)
N2 N 0.4953(3) 0.2838(3) 0.3285(2)
N3 N 0.4004(3) 0.5453(3) 0.3073(2)
H1 H 0.39166 0.51182 0.27205
N4 N 0.0291(3) 0.5907(3) 0.1845(3)
C1 C 0.4581(3) 0.3609(3) 0.3188(3)
H2 H 0.42909 0.37464 0.27594
C2 C 0.4319(3) 0.5133(3) 0.3662(3)
C3 C 0.4618(3) 0.4205(3) 0.3713(2)
C4 C 0.5325(3) 0.3238(3) 0.4456(3)
H3 H 0.55759 0.30854 0.48942
N5 N 0.2374(3) 0.6094(3) 0.2544(3)
H4 H 0.25648 0.57351 0.22805
C5 C 0.5323(3) 0.2653(3) 0.3920(3)
H5 H 0.55851 0.21193 0.40065
C6 C 0.1595(4) 0.6216(4) 0.2461(3)
C7 C 0.1076(3) 0.5693(4) 0.1929(3)
N6 N 0.0820(4) 0.4578(4) 0.1090(3)
C8 C 0.1324(4) 0.5017(4) 0.1548(3)
H6 H 0.18663 0.48690 0.16200
C9 C 0.3793(4) 0.6384(4) 0.3001(3)
H7 H 0.38745 0.65867 0.25554
H8 H 0.41489 0.67154 0.33445
C10 C 0.2925(4) 0.6555(4) 0.3076(3)
H9 H 0.28416 0.63584 0.35223
H10 H 0.28167 0.71771 0.30427
C11 C -0.0220(4) 0.5479(4) 0.1389(3)
H11 H -0.07638 0.56213 0.13215
C12 C 0.0045(5) 0.4811(5) 0.1003(4)
H12 H -0.03258 0.45220 0.06771
O16 O 0.3544(4) 0.4714(4) 0.1798(2)
H13 H 0.33869 0.42608 0.15647
H14 H 0.37475 0.50371 0.15248
O17 O 0.1466(5) 0.3317(4) 0.0254(4)
O18 O 0.2996(5) 0.3241(6) 0.1145(4)
H15 H 0.25278 0.32184 0.12444
H16 H 0.29177 0.32001 0.07111
Mo1F Mo 0.32679(3) 0.21456(3) 0.45200(2)
Mo2F Mo 0.38531(3) 0.28251(3) 0.60465(2)
Mo3F Mo 0.22011(3) 0.06795(3) 0.50850(2)
Mo4F Mo 0.27546(3) 0.13501(3) 0.66598(2)
O1F O 0.2384(2) 0.1342(2) 0.42669(16)
O2F O 0.3715(2) 0.3144(2) 0.50595(16)
O3F O 0.2010(2) 0.0711(2) 0.59953(17)
O4F O 0.3350(2) 0.2408(2) 0.67655(17)
O5F O 0.3234(2) 0.2626(2) 0.37206(17)
O6F O 0.2884(2) 0.1905(2) 0.54878(16)
O7F O 0.4254(2) 0.3767(2) 0.64137(17)
O8F O 0.4074(2) 0.1481(2) 0.46139(18)
O9F O 0.1401(2) 0.0054(2) 0.47110(18)
O10F O 0.2370(3) 0.1255(3) 0.73875(19)
O11F O 0.4652(2) 0.2150(2) 0.6081(2)
O12F O 0.3015(2) 0.0011(3) 0.5170(2)
O13F O 0.3520(3) 0.0624(2) 0.6752(2)
O14A O -0.4427(2) 0.5585(2) 0.07941(17)
O15A O -0.1281(3) 0.6745(3) 0.2184(2)
N1A N -0.4977(3) 0.4005(3) 0.0652(2)
N2A N -0.4953(3) 0.2838(3) 0.1715(2)
N3A N -0.4004(3) 0.5453(3) 0.1927(2)
H1A H -0.39166 0.51182 0.22795
N4A N -0.0291(3) 0.5907(3) 0.3155(3)
C1A C -0.4581(3) 0.3609(3) 0.1812(3)
H2A H -0.42909 0.37464 0.22406
C2A C -0.4319(3) 0.5133(3) 0.1338(3)
C3A C -0.4618(3) 0.4205(3) 0.1287(2)
C4A C -0.5325(3) 0.3238(3) 0.0544(3)
H3A H -0.55759 0.30854 0.01058
N5A N -0.2374(3) 0.6094(3) 0.2456(3)
H4A H -0.25648 0.57351 0.27195
C5A C -0.5323(3) 0.2653(3) 0.1080(3)
H5A H -0.55851 0.21193 0.09935
C6A C -0.1595(4) 0.6216(4) 0.2539(3)
C7A C -0.1076(3) 0.5693(4) 0.3071(3)
N6A N -0.0820(4) 0.4578(4) 0.3910(3)
C8A C -0.1324(4) 0.5017(4) 0.3452(3)
H6A H -0.18663 0.48690 0.33800
C9A C -0.3793(4) 0.6384(4) 0.1999(3)
H7A H -0.38745 0.65867 0.24446
H8A H -0.41489 0.67154 0.16555
C10A C -0.2925(4) 0.6555(4) 0.1924(3)
H9A H -0.28416 0.63584 0.14777
H10A H -0.28167 0.71771 0.19573
C11A C 0.0220(4) 0.5479(4) 0.3611(3)
H11A H 0.07638 0.56213 0.36785
C12A C -0.0045(5) 0.4811(5) 0.3997(4)
H12A H 0.03258 0.45220 0.43229
Cu1A Cu -0.50000 0.50000 0.00000
Cu2B Cu -0.50000 0.18742(6) 0.25000
Cu2B* Cu 0.50000 0.18742(6) 0.25000
O14D O 0.5573(2) 0.4415(2) 0.57941(17)
N1D N 0.5023(3) 0.5995(3) 0.5652(2)
N2B N -0.0047(3) 0.7838(3) 0.3285(2)
N2C N 0.0047(3) 0.7838(3) 0.1715(2)
#END
