
#######################################################################
#
#                 Cambridge Crystallographic Data Centre
#                                CCDC
#
#######################################################################
#
# If this CIF has been generated from an entry in the Cambridge
# Structural Database, then it will include bibliographic, chemical,
# crystal, experimental, refinement or atomic coordinate data resulting
# from the CCDC's data processing and validation procedures.
#
#######################################################################

data_CSD_CIF_EMIYIL
_audit_creation_date 2021-02-26
_audit_creation_method CSD-ConQuest-V1
_database_code_CSD EMIYIL
_database_code_depnum_ccdc_archive 'CCDC 2047060'
_chemical_formula_sum 'C15 H32 Cu2 Mo8 N6 O35'
_chemical_formula_moiety
;
(C15 H18 Cu2 N6 O2 4+)n,Mo8 O26 4-,7(H2 O1)
;
_journal_coden_Cambridge 1350
_journal_volume 23
_journal_year 2021
_journal_page_first 2113
_journal_name_full 'CrystEngComm '
loop_
_publ_author_name
"Xiu-Li Wang"
"Zi-Wei Cui"
"Hong-Yan Lin"
"Zhi-Han Chang"
_chemical_name_systematic
;
catena-[[\m-N,N'-(propane-1,3-diyl)bis(5-methylpyrazine-2-carboxamide)]-di-cop
per(ii) dodecakis(\m-oxido)-tetradecaoxo-octa-molybdenum(vi) heptahydrate]
;
_cell_volume   4044.012
_exptl_crystal_colour 'green'
_exptl_crystal_description 'block'
_diffrn_ambient_temperature 273.1
#These two values have been output from a single CSD field.
_refine_ls_R_factor_gt 0.0325
_refine_ls_wR_factor_gt 0.0325
_symmetry_cell_setting monoclinic
_symmetry_space_group_name_H-M 'P 21/c'
_symmetry_Int_Tables_number 14
loop_
_symmetry_equiv_pos_site_id
_symmetry_equiv_pos_as_xyz
1 x,y,z
2 -x,1/2+y,1/2-z
3 -x,-y,-z
4 x,-1/2-y,-1/2+z
_cell_length_a 17.631(2)
_cell_length_b 11.0860(13)
_cell_length_c 21.185(3)
_cell_angle_alpha 90
_cell_angle_beta 102.410(2)
_cell_angle_gamma 90
_cell_formula_units_Z 4
loop_
_atom_type_symbol
_atom_type_radius_bond
C 0.68
H 0.23
Cu 1.32
Mo 1.54
N 0.68
O 0.68
loop_
_atom_site_label
_atom_site_type_symbol
_atom_site_fract_x
_atom_site_fract_y
_atom_site_fract_z
Mo1 Mo 0.84291(2) 0.13816(3) 0.39519(2)
Mo2 Mo 0.87942(2) 0.39678(3) 0.49526(2)
Mo3 Mo 0.70549(2) 0.36329(3) 0.41345(2)
Mo4 Mo 0.76456(2) 0.35472(3) 0.27927(2)
Mo5 Mo 0.94137(2) 0.39190(3) 0.36184(2)
Mo6 Mo 0.78328(2) 0.14090(3) 0.52862(2)
Mo7 Mo 0.66682(2) 0.10457(3) 0.31653(2)
Mo8 Mo 0.60183(2) 0.11887(3) 0.45087(2)
O1 O 0.77238(16) 0.3447(2) 0.49894(13)
O2 O 0.67728(16) 0.3150(3) 0.32362(14)
O3 O 0.87221(16) 0.3437(3) 0.28220(14)
O4 O 0.87088(16) 0.1803(2) 0.48579(14)
O5 O 0.77519(16) 0.1553(2) 0.31061(14)
O6 O 0.67645(17) 0.1600(3) 0.52762(15)
O7 O 0.92828(16) 0.1910(3) 0.37491(14)
O8 O 0.73169(16) 0.1532(2) 0.41922(14)
O9 O 0.81776(16) 0.3472(2) 0.39154(13)
O10 O 0.96358(16) 0.3755(3) 0.45465(14)
O11 O 0.86141(18) 0.5475(3) 0.48889(16)
O12 O 0.92394(17) 0.3730(3) 0.57423(14)
O13 O 0.92105(18) 0.5430(3) 0.35611(15)
O14 O 0.82589(18) 0.1845(3) 0.60505(15)
O15 O 1.03062(18) 0.3773(3) 0.34582(16)
O16 O 0.62007(17) 0.1224(3) 0.23884(15)
O17 O 0.62020(17) 0.3160(3) 0.43495(15)
O18 O 0.58276(17) 0.1273(3) 0.35831(15)
O19 O 0.69574(18) 0.5153(3) 0.40653(15)
O20 O 0.75048(18) 0.5074(3) 0.28011(16)
O21 O 0.85307(17) -0.0139(3) 0.39679(15)
O22 O 0.72564(18) 0.3114(3) 0.20299(15)
O23 O 0.68246(19) -0.0470(3) 0.32491(17)
O24 O 0.7943(2) -0.0121(3) 0.52825(16)
O25 O 0.51430(19) 0.1463(3) 0.46769(17)
O26 O 0.6129(2) -0.0337(3) 0.45744(17)
Cu1 Cu 0.09217(3) 0.35785(5) 0.18968(3)
Cu2 Cu 0.58191(3) 0.64732(5) 0.34578(3)
O27 O 0.17192(17) 0.4257(3) 0.26037(15)
O28 O 0.50702(18) 0.5710(3) 0.39121(15)
N1 N 0.0298(2) 0.4936(3) 0.21430(17)
N2 N -0.0366(2) 0.6975(3) 0.25526(18)
N3 N 0.1951(2) 0.5710(3) 0.33706(18)
H1 H 0.17409 0.62414 0.35745
N4 N 0.5469(2) 0.5111(3) 0.28377(17)
N5 N 0.4257(2) 0.4128(3) 0.38918(18)
H2 H 0.41300 0.34284 0.37266
N6 N 0.4906(2) 0.3063(3) 0.21343(18)
C1 C 0.1507(3) 0.5175(4) 0.2876(2)
C2 C 0.0704(2) 0.5640(4) 0.2616(2)
C3 C 0.4780(3) 0.4744(4) 0.3664(2)
C4 C 0.5366(2) 0.3837(4) 0.1910(2)
C5 C -0.0771(3) 0.6267(4) 0.2085(2)
C6 C -0.0422(3) 0.5257(4) 0.1879(2)
H3 H -0.07054 0.47933 0.15435
C7 C 0.5005(2) 0.4329(4) 0.3062(2)
C8 C 0.0371(2) 0.6667(4) 0.2808(2)
H4 H 0.06663 0.71580 0.31242
C9 C 0.4755(3) 0.3335(4) 0.2713(2)
H5 H 0.44535 0.27919 0.28869
C10 C 0.5650(3) 0.4860(4) 0.2273(2)
H6 H 0.59775 0.53826 0.21146
C11 C 0.5567(3) 0.3590(4) 0.1272(2)
H7 H 0.56855 0.27496 0.12428
H8 H 0.60099 0.40644 0.12326
H9 H 0.51338 0.37978 0.09305
C12 C 0.2983(3) 0.4572(5) 0.4134(2)
H10 H 0.28030 0.37801 0.39746
H11 H 0.27241 0.47852 0.44789
C13 C -0.1591(3) 0.6592(4) 0.1773(3)
H12 H -0.18901 0.66765 0.20995
H13 H -0.18119 0.59685 0.14761
H14 H -0.15948 0.73407 0.15447
C14 C 0.3874(3) 0.4536(5) 0.4403(2)
H15 H 0.40600 0.53325 0.45491
H16 H 0.39942 0.39883 0.47678
C15 C 0.2783(3) 0.5469(5) 0.3603(3)
H17 H 0.30407 0.62229 0.37490
H18 H 0.29916 0.51870 0.32407
O29 O 0.66321(18) 0.7009(3) 0.30045(16)
H19 H 0.65117 0.77114 0.27590
H20 H 0.67120 0.64868 0.26803
O30 O 0.01514(18) 0.3292(3) 0.10836(16)
H21 H 0.03740 0.33326 0.07648
H22 H -0.00111 0.25672 0.10766
O31 O 0.16693(18) 0.2445(3) 0.16573(16)
H23 H 0.14445 0.17714 0.15543
H24 H 0.17939 0.26864 0.13132
O32 O 0.6268(2) 0.7381(3) 0.42391(16)
H25 H 0.60441 0.80622 0.42301
H26 H 0.67379 0.75512 0.42356
O33 O 0.7821(2) 0.7629(3) 0.44896(19)
H27 H 0.80501 0.70087 0.46755
H28 H 0.80535 0.82200 0.47031
O34 O 0.3628(3) 0.1601(4) 0.3872(3)
O35 O 0.0525(3) 0.3633(7) -0.0069(2)
H29 H 0.07342 0.41954 -0.02457
H30 H 0.02682 0.31760 -0.03592
Cu1A Cu -0.09217(3) 0.85785(5) 0.31032(3)
Cu2A Cu 0.41809(3) 0.14732(5) 0.15422(3)
N2A N 0.0366(2) 0.1975(3) 0.24474(18)
N6A N 0.5094(2) 0.8063(3) 0.28657(18)
#END
