
#######################################################################
#
#                 Cambridge Crystallographic Data Centre
#                                CCDC
#
#######################################################################
#
# If this CIF has been generated from an entry in the Cambridge
# Structural Database, then it will include bibliographic, chemical,
# crystal, experimental, refinement or atomic coordinate data resulting
# from the CCDC's data processing and validation procedures.
#
#######################################################################

data_CSD_CIF_EMOJOI
_audit_creation_date 2021-02-26
_audit_creation_method CSD-ConQuest-V1
_database_code_CSD EMOJOI
_database_code_depnum_ccdc_archive 'CCDC 2047061'
_chemical_formula_sum 'C16 H34 Cu1 Mo8 N6 O34'
_chemical_formula_moiety
;
(C16 H24 Cu1 N6 O4 2+)n,H2 Mo8 O26 2-,4(H2 O1)
;
_journal_coden_Cambridge 1350
_journal_volume 23
_journal_year 2021
_journal_page_first 2113
_journal_name_full 'CrystEngComm '
loop_
_publ_author_name
"Xiu-Li Wang"
"Zi-Wei Cui"
"Hong-Yan Lin"
"Zhi-Han Chang"
_chemical_name_systematic
;
catena-[[\m-N,N'-(butane-1,4-diyl)bis(5-methylpyrazine-2-carboxamide)]-diaqua-
copper(ii) 
decakis(\m-oxido)-bis(\m-hydroxido)-tetradecaoxo-octa-molybdenum(vi) 
tetrahydrate]
;
_cell_volume   1031.106
_exptl_crystal_colour 'green'
_exptl_crystal_density_diffrn 2.711
_exptl_special_details
;
Two additional hydrogen atoms have been included in the authors formula for 
charge balance, these have been added arbitrarily to the 2D diagram
;
_exptl_crystal_description 'block'
_diffrn_ambient_temperature 273.1
#These two values have been output from a single CSD field.
_refine_ls_R_factor_gt 0.0299
_refine_ls_wR_factor_gt 0.0299
_symmetry_cell_setting triclinic
_symmetry_space_group_name_H-M 'P -1'
_symmetry_Int_Tables_number 2
loop_
_symmetry_equiv_pos_site_id
_symmetry_equiv_pos_as_xyz
1 x,y,z
2 -x,-y,-z
_cell_length_a 8.5646(4)
_cell_length_b 10.2203(5)
_cell_length_c 12.2734(6)
_cell_angle_alpha 104.382(1)
_cell_angle_beta 92.503(1)
_cell_angle_gamma 96.492(1)
_cell_formula_units_Z 1
loop_
_atom_type_symbol
_atom_type_radius_bond
C 0.68
H 0.23
Cu 1.32
Mo 1.54
N 0.68
O 0.68
loop_
_atom_site_label
_atom_site_type_symbol
_atom_site_fract_x
_atom_site_fract_y
_atom_site_fract_z
Mo1 Mo 0.62064(3) 0.42093(3) 0.39201(3)
Mo2 Mo 0.79283(4) 0.59621(3) 0.62999(3)
Mo3 Mo 0.58863(4) 0.40347(3) 0.75939(3)
Mo4 Mo 0.41242(4) 0.22943(3) 0.51934(3)
O1 O 0.4303(3) 0.2923(2) 0.3784(2)
O2 O 0.7417(3) 0.5948(3) 0.4699(2)
O3 O 0.5786(3) 0.4351(2) 0.5685(2)
O4 O 0.4112(3) 0.2806(3) 0.6790(2)
O5 O 0.7594(3) 0.3140(3) 0.3786(2)
O6 O 0.5952(3) 0.4540(3) 0.2599(2)
O7 O 0.7163(3) 0.5725(3) 0.7682(2)
O8 O 0.5673(3) 0.1381(3) 0.5038(2)
O9 O 0.9250(3) 0.4823(3) 0.6091(2)
O10 O 0.5505(3) 0.4185(3) 0.8968(2)
O11 O 0.9021(3) 0.7532(3) 0.6746(3)
O12 O 0.2489(3) 0.1133(3) 0.4828(3)
O13 O 0.7297(3) 0.2971(3) 0.7354(3)
Cu1 Cu 1.00000 1.00000 1.00000
O14 O 0.9535(3) 0.8445(3) 1.0664(3)
N1 N 0.7845(4) 0.9365(3) 0.9273(3)
N2 N 0.4668(4) 0.8527(3) 0.8750(3)
N3 N 0.7782(4) 0.6617(4) 1.0582(3)
H1 H 0.68412 0.62166 1.03670
O15 O 1.1240(4) 0.8550(5) 0.8569(3)
H2 H 1.08307 0.80733 0.79302
H3 H 1.21832 0.83672 0.85904
C1 C 0.7126(4) 0.8320(4) 0.9627(3)
C2 C 0.5520(4) 0.7919(4) 0.9365(3)
H4 H 0.50276 0.72092 0.96256
C3 C 0.8202(5) 0.7764(4) 1.0329(3)
C4 C 0.5414(5) 0.9507(4) 0.8344(3)
C5 C 0.7031(5) 0.9931(4) 0.8630(3)
H5 H 0.75328 1.06272 0.83564
C6 C 0.9481(5) 0.4783(5) 1.0426(4)
H6 H 1.00898 0.43348 1.08761
H7 H 0.86113 0.41242 1.00242
C7 C 0.4496(5) 1.0155(5) 0.7611(4)
H8 H 0.36625 0.94986 0.71799
H9 H 0.51789 1.04786 0.71077
H10 H 0.40539 1.09066 0.80718
C8 C 0.8819(5) 0.5962(5) 1.1213(4)
H11 H 0.82293 0.56249 1.17659
H12 H 0.96815 0.66296 1.16134
O16 O 0.9133(5) 0.1849(5) 0.5372(4)
H13 H 0.81649 0.15267 0.52429
H14 H 0.94575 0.18241 0.47236
O17 O 0.9534(11) -0.0425(8) 0.3220(4)
H15 H 1.01127 -0.08693 0.35348
H16 H 0.98383 -0.05383 0.25564
Mo1A Mo 0.37936(3) 0.57907(3) 0.60799(3)
Mo2A Mo 0.20717(4) 0.40379(3) 0.37001(3)
Mo3A Mo 0.41137(4) 0.59653(3) 0.24061(3)
Mo4A Mo 0.58758(4) 0.77057(3) 0.48066(3)
O1A O 0.5697(3) 0.7077(2) 0.6216(2)
O2A O 0.2583(3) 0.4052(3) 0.5301(2)
O3A O 0.4214(3) 0.5649(2) 0.4315(2)
O4A O 0.5888(3) 0.7194(3) 0.3210(2)
O5A O 0.2406(3) 0.6860(3) 0.6214(2)
O6A O 0.4048(3) 0.5460(3) 0.7401(2)
O7A O 0.2837(3) 0.4275(3) 0.2318(2)
O8A O 0.4327(3) 0.8619(3) 0.4962(2)
O9A O 0.0750(3) 0.5177(3) 0.3909(2)
O10A O 0.4495(3) 0.5815(3) 0.1032(2)
O11A O 0.0979(3) 0.2468(3) 0.3254(3)
O12A O 0.7511(3) 0.8867(3) 0.5172(3)
O13A O 0.2703(3) 0.7029(3) 0.2646(3)
O14A O 1.0465(3) 0.1555(3) 0.9336(3)
N1A N 1.2155(4) 0.0635(3) 1.0727(3)
N2A N 1.5332(4) 0.1473(3) 1.1250(3)
N3A N 1.2218(4) 0.3383(4) 0.9418(3)
H1A H 1.31588 0.37834 0.96330
C1A C 1.2874(4) 0.1680(4) 1.0373(3)
C2A C 1.4480(4) 0.2081(4) 1.0635(3)
H4A H 1.49724 0.27908 1.03744
C3A C 1.1798(5) 0.2236(4) 0.9671(3)
C4A C 1.4586(5) 0.0493(4) 1.1656(3)
C5A C 1.2969(5) 0.0069(4) 1.1370(3)
H5A H 1.24672 -0.06272 1.16436
C6A C 1.0519(5) 0.5217(5) 0.9574(4)
H6A H 0.99102 0.56652 0.91239
H7A H 1.13887 0.58758 0.99758
C7A C 1.5504(5) -0.0155(5) 1.2389(4)
H8A H 1.63375 0.05014 1.28201
H9A H 1.48211 -0.04786 1.28923
H10A H 1.59461 -0.09066 1.19282
C8A C 1.1181(5) 0.4038(5) 0.8787(4)
H11A H 1.17707 0.43751 0.82341
H12A H 1.03185 0.33704 0.83866
O15A O 0.8760(4) 1.1450(5) 1.1431(3)
H2A H 0.91693 1.19267 1.20698
H3A H 0.78168 1.16328 1.14096
Cu1* Cu 1.00000 0.00000 1.00000
O14A* O 1.0465(3) 1.1555(3) 0.9336(3)
N1A* N 1.2155(4) 1.0635(3) 1.0727(3)
#END
