
#######################################################################
#
#                 Cambridge Crystallographic Data Centre
#                                CCDC
#
#######################################################################
#
# If this CIF has been generated from an entry in the Cambridge
# Structural Database, then it will include bibliographic, chemical,
# crystal, experimental, refinement or atomic coordinate data resulting
# from the CCDC's data processing and validation procedures.
#
#######################################################################

data_CSD_CIF_EMUTUD
_audit_creation_date 2016-05-25
_audit_creation_method CSD-ConQuest-V1
_database_code_CSD EMUTUD
_database_code_depnum_ccdc_archive 'CCDC 996484'
_chemical_formula_sum 'C38 H34 Br2 Eu2 N4 O12'
_chemical_formula_moiety
;
(C26 H12 Br2 Eu2 O12 2-)n,2(C6 H11 N2 1+)
;
_journal_coden_Cambridge 29
_journal_volume 640
_journal_year 2014
_journal_page_first 2472
_journal_name_full 'Z.Anorg.Allg.Chem. '
loop_
_publ_author_name
"Ming-Jun Gao"
"Yu-Ling Wang"
"Hai-Yan Cao"
"Qing-Yan Liu"
"Li-Li Chen"
_chemical_name_systematic
;
catena-[bis(1-ethyl-3-methyl-1H-imidazol-3-ium) 
bis(\m-naphthalene-1,4-dicarboxylato)-(\m-oxalato)-dibromo-di-europium]
;
_cell_volume   2033.183
_exptl_crystal_colour 'brown'
_exptl_crystal_density_diffrn 1.964
_exptl_crystal_description 'block'
_diffrn_ambient_temperature 296
#These two values have been output from a single CSD field.
_refine_ls_R_factor_gt 0.0507
_refine_ls_wR_factor_gt 0.0507
_symmetry_cell_setting monoclinic
_symmetry_space_group_name_H-M 'P 21/c'
_symmetry_Int_Tables_number 14
loop_
_symmetry_equiv_pos_site_id
_symmetry_equiv_pos_as_xyz
1 x,y,z
2 -x,1/2+y,1/2-z
3 -x,-y,-z
4 x,-1/2-y,-1/2+z
_cell_length_a 9.9325(8)
_cell_length_b 12.7089(11)
_cell_length_c 16.2027(14)
_cell_angle_alpha 90
_cell_angle_beta 96.236(5)
_cell_angle_gamma 90
_cell_formula_units_Z 2
loop_
_atom_type_symbol
_atom_type_radius_bond
C 0.68
H 0.23
Br 1.21
Eu 1.98
N 0.68
O 0.68
loop_
_atom_site_label
_atom_site_type_symbol
_atom_site_fract_x
_atom_site_fract_y
_atom_site_fract_z
Eu1 Eu 0.30590(3) 0.04326(3) -0.00501(2)
Br1 Br 0.2194(3) 0.25498(17) -0.0165(2)
O1 O 0.4136(6) 0.0441(5) 0.1326(3)
O2 O 0.6372(5) 0.0228(5) 0.1337(3)
O3 O 0.7333(6) 0.3581(5) 0.4770(4)
O4 O 0.5136(6) 0.3764(4) 0.4731(3)
O5 O 0.0956(5) -0.0009(5) -0.0841(3)
O6 O -0.1228(5) -0.0381(5) -0.0794(3)
C1 C 0.5544(7) 0.1070(6) 0.2492(4)
C2 C 0.4577(8) 0.1769(8) 0.2650(5)
H1 H 0.37720 0.17990 0.22990
C3 C 0.4773(8) 0.2461(8) 0.3346(5)
H2 H 0.40920 0.29300 0.34480
C4 C 0.5947(7) 0.2440(6) 0.3863(4)
C5 C 0.6961(7) 0.1663(6) 0.3746(4)
C6 C 0.8173(8) 0.1552(7) 0.4291(5)
H3 H 0.83400 0.20150 0.47340
C7 C 0.9099(10) 0.0788(8) 0.4184(6)
H4 H 0.99060 0.07540 0.45320
C8 C 0.8821(11) 0.0048(9) 0.3539(7)
H5 H 0.94210 -0.05040 0.34890
C9 C 0.7701(10) 0.0128(7) 0.2993(6)
H6 H 0.75540 -0.03560 0.25630
C10 C 0.6743(7) 0.0943(6) 0.3068(4)
C11 C 0.5335(7) 0.0516(6) 0.1661(4)
C12 C 0.6149(7) 0.3291(6) 0.4505(4)
C13 C -0.0074(7) -0.0115(6) -0.0471(4)
C14 C 0.8296(13) 0.2539(9) 0.1738(7)
H7 H 0.81730 0.20470 0.13110
C15 C 0.9168(13) 0.3431(9) 0.2805(7)
H8 H 0.97740 0.36570 0.32480
C16 C 0.7950(14) 0.3852(10) 0.2558(7)
H9 H 0.75480 0.44190 0.27990
C17 C 0.6085(19) 0.3493(16) 0.1402(10)
H10 H 0.58510 0.29020 0.10350
H11 H 0.53980 0.35460 0.17820
C18 C 0.608(2) 0.4450(16) 0.0912(12)
H12 H 0.52010 0.45440 0.06080
H13 H 0.67500 0.43990 0.05300
H14 H 0.62800 0.50410 0.12730
C19 C 1.0537(15) 0.1935(13) 0.2312(10)
H15 H 1.03890 0.13920 0.19000
H16 H 1.07030 0.16200 0.28520
H17 H 1.13060 0.23500 0.22040
N1 N 0.7419(11) 0.3288(8) 0.1884(6)
N2 N 0.9349(10) 0.2601(7) 0.2281(6)
O5B O -0.0956(5) 0.0009(5) 0.0841(3)
O6B O 0.1228(5) 0.0381(5) 0.0794(3)
C13B C 0.0074(7) 0.0115(6) 0.0471(4)
Eu1B Eu -0.30590(3) -0.04326(3) 0.00501(2)
Br1B Br -0.2194(3) -0.25498(17) 0.0165(2)
O1B O -0.4136(6) -0.0441(5) -0.1326(3)
O2B O -0.6372(5) -0.0228(5) -0.1337(3)
O3B O -0.7333(6) -0.3581(5) -0.4770(4)
O4B O -0.5136(6) -0.3764(4) -0.4731(3)
C1B C -0.5544(7) -0.1070(6) -0.2492(4)
C2B C -0.4577(8) -0.1769(8) -0.2650(5)
H1B H -0.37720 -0.17990 -0.22990
C3B C -0.4773(8) -0.2461(8) -0.3346(5)
H2B H -0.40920 -0.29300 -0.34480
C4B C -0.5947(7) -0.2440(6) -0.3863(4)
C5B C -0.6961(7) -0.1663(6) -0.3746(4)
C6B C -0.8173(8) -0.1552(7) -0.4291(5)
H3B H -0.83400 -0.20150 -0.47340
C7B C -0.9099(10) -0.0788(8) -0.4184(6)
H4B H -0.99060 -0.07540 -0.45320
C8B C -0.8821(11) -0.0048(9) -0.3539(7)
H5B H -0.94210 0.05040 -0.34890
C9B C -0.7701(10) -0.0128(7) -0.2993(6)
H6B H -0.75540 0.03560 -0.25630
C10B C -0.6743(7) -0.0943(6) -0.3068(4)
C11B C -0.5335(7) -0.0516(6) -0.1661(4)
C12B C -0.6149(7) -0.3291(6) -0.4505(4)
Eu1* Eu -0.69410(3) 0.04326(3) -0.00501(2)
Eu1A Eu -0.30590(3) -0.45674(3) -0.49499(2)
Eu1A* Eu 0.69410(3) 0.54326(3) 0.50501(2)
Eu1B* Eu 0.69410(3) -0.04326(3) 0.00501(2)
Eu1C Eu -0.69410(3) -0.54326(3) -0.50501(2)
Eu1C* Eu 0.30590(3) 0.45674(3) 0.49499(2)
O2* O -0.3628(5) 0.0228(5) 0.1337(3)
O2B* O 0.3628(5) -0.0228(5) -0.1337(3)
O3A O 0.2667(6) -0.1419(5) 0.0230(4)
O3C O -0.2667(6) 0.1419(5) -0.0230(4)
O4A O -0.5136(6) -0.1236(4) 0.0269(3)
O4A* O 0.4864(6) -0.1236(4) 0.0269(3)
O4C O -0.4864(6) 0.1236(4) -0.0269(3)
O4C* O 0.5136(6) 0.1236(4) -0.0269(3)
#END
