
#######################################################################
#
#                 Cambridge Crystallographic Data Centre
#                                CCDC
#
#######################################################################
#
# If this CIF has been generated from an entry in the Cambridge
# Structural Database, then it will include bibliographic, chemical,
# crystal, experimental, refinement or atomic coordinate data resulting
# from the CCDC's data processing and validation procedures.
#
#######################################################################

data_CSD_CIF_ENATUJ
_audit_creation_date 2011-06-16
_audit_creation_method CSD-ConQuest-V1
_database_code_CSD ENATUJ
_database_code_depnum_ccdc_archive 'CCDC 818855'
_chemical_formula_sum 'C46.5 H72.5 Ga3 N4.5 O38.5'
_chemical_formula_moiety
;
(C2 H8 N1 1+)3n,n(C36 H12 Ga3 O24 3-),1.5n(C3 H7 N1 O1),13n(H2 O1)
;
_journal_coden_Cambridge 9
_journal_volume 50
_journal_year 2011
_journal_page_first 208
_journal_name_full 'Inorg.Chem. '
loop_
_publ_author_name
"D.Banerjee"
"Sun Jin Kim"
"Haohan Wu"
"Wenqian Xu"
"L.A.Borkowski"
"Jing Li"
"J.B.Praise"
_chemical_name_systematic
;
catena-[tris(Dimethylammonium) 
tetrakis(\m~3~-benzene-1,3,5-tricarboxylato-O,O',O'')-tri-gallium(ii) 
dimethylformamide solvate tridecahydrate]
;
_chemical_name_common
;
GaMOF-1
;
_cell_volume   7953.411
_exptl_crystal_colour 'colorless'
_exptl_crystal_description 'block'
_diffrn_ambient_temperature 100
_diffrn_radiation_probe x-ray
_diffrn_source synchrotron
_refine_special_details
;
Disordered cations and solvent molecules were not modelled and the disordered 
density was taken into account using the SQUEEZE/PLATON procedure. The 
authors calculate void space of 5056 A$3! (63.6%) per unit cell. The chemical 
formula was determined using thermogravimetric analysis (TGA) and 
differential scanning calorimetry (DSC).
;
#These two values have been output from a single CSD field.
_refine_ls_R_factor_gt 0.0263
_refine_ls_wR_factor_gt 0.0263
_symmetry_cell_setting cubic
_symmetry_space_group_name_H-M 'I -4 3 d'
_symmetry_Int_Tables_number 220
loop_
_symmetry_equiv_pos_site_id
_symmetry_equiv_pos_as_xyz
1 x,y,z
2 1/2-x,-y,1/2+z
3 -x,1/2+y,1/2-z
4 1/2+x,1/2-y,-z
5 z,x,y
6 1/2+z,1/2-x,-y
7 1/2-z,-x,1/2+y
8 -z,1/2+x,1/2-y
9 y,z,x
10 -y,1/2+z,1/2-x
11 1/2+y,1/2-z,-x
12 1/2-y,-z,1/2+x
13 1/4+y,1/4+x,1/4+z
14 1/4-y,3/4-x,3/4+z
15 3/4+y,1/4-x,3/4-z
16 3/4-y,3/4+x,1/4-z
17 1/4+x,1/4+z,1/4+y
18 3/4-x,3/4+z,1/4-y
19 1/4-x,3/4-z,3/4+y
20 3/4+x,1/4-z,3/4-y
21 1/4+z,1/4+y,1/4+x
22 3/4+z,1/4-y,3/4-x
23 3/4-z,3/4+y,1/4-x
24 1/4-z,3/4-y,3/4+x
25 1/2+x,1/2+y,1/2+z
26 -x,1/2-y,z
27 1/2-x,y,-z
28 x,-y,1/2-z
29 1/2+z,1/2+x,1/2+y
30 z,-x,1/2-y
31 -z,1/2-x,y
32 1/2-z,x,-y
33 1/2+y,1/2+z,1/2+x
34 1/2-y,z,-x
35 y,-z,1/2-x
36 -y,1/2-z,x
37 3/4+y,3/4+x,3/4+z
38 3/4-y,1/4-x,1/4+z
39 1/4+y,3/4-x,1/4-z
40 1/4-y,1/4+x,3/4-z
41 3/4+x,3/4+z,3/4+y
42 1/4-x,1/4+z,3/4-y
43 3/4-x,1/4-z,1/4+y
44 1/4+x,3/4-z,1/4-y
45 3/4+z,3/4+y,3/4+x
46 1/4+z,3/4-y,1/4-x
47 1/4-z,1/4+y,3/4-x
48 3/4-z,1/4-y,1/4+x
_cell_length_a 19.9611(9)
_cell_length_b 19.9611(9)
_cell_length_c 19.9611(9)
_cell_angle_alpha 90
_cell_angle_beta 90
_cell_angle_gamma 90
_cell_formula_units_Z 4
loop_
_atom_type_symbol
_atom_type_radius_bond
C 0.68
H 0.23
Ga 1.22
O 0.68
loop_
_atom_site_label
_atom_site_type_symbol
_atom_site_fract_x
_atom_site_fract_y
_atom_site_fract_z
Ga1 Ga 0.00000 0.25000 0.87500
O1 O -0.07424(7) 0.22045(6) 0.82988(6)
O2 O -0.06528(8) 0.30906(8) 0.76444(8)
C1 C -0.09339(10) 0.25805(11) 0.77962(10)
C2 C -0.15385(9) 0.23246(9) 0.74350(11)
C3 C -0.17593(9) 0.26677(9) 0.68839(9)
H1 H -0.15320 0.30590 0.67370
Ga1I Ga -0.25000 0.37500 0.50000
Ga1F Ga -0.37500 0.00000 0.75000
Ga1G Ga 0.12500 0.50000 1.25000
Ga1J Ga -0.25000 0.62500 1.00000
Ga1K Ga 0.25000 0.12500 0.50000
Ga1E Ga 0.37500 0.50000 0.75000
Ga1D Ga -0.12500 0.00000 1.25000
Ga1H Ga 0.25000 -0.12500 1.00000
O1I O -0.22045(7) 0.32988(6) 0.57424(6)
O1F O -0.32988(7) 0.07424(6) 0.72045(6)
O1N O -0.02955(7) 0.32424(6) 0.92012(6)
O1T O 0.07988(7) 0.47045(6) 1.17576(6)
O1Q O -0.17576(7) 0.57988(6) 1.02955(6)
O1Y O 0.07424(7) 0.27955(6) 0.82988(6)
O1HA O 0.22045(7) 0.17012(6) 0.57424(6)
O1BA O 0.32988(7) 0.42576(6) 0.72045(6)
O1MA O 0.02955(7) 0.17576(6) 0.92012(6)
O1UA O -0.07988(7) 0.02955(6) 1.17576(6)
O1QA O 0.17576(7) -0.07988(6) 1.02955(6)
O1S O -0.32424(7) 0.42012(6) 0.52955(6)
O1FA O -0.27955(7) 0.32988(6) 0.42576(6)
O1PA O -0.17576(7) 0.42012(6) 0.47045(6)
O1U O -0.42012(7) 0.02955(6) 0.82424(6)
O1EA O -0.32988(7) -0.07424(6) 0.77955(6)
O1RA O -0.42012(7) -0.02955(6) 0.67576(6)
O2I O -0.30906(8) 0.26444(8) 0.56528(8)
O2F O -0.26444(8) 0.06528(8) 0.80906(8)
O2N O 0.05906(8) 0.31528(8) 0.98556(8)
O2T O 0.01444(8) 0.55906(8) 1.18472(8)
O2Q O -0.18472(8) 0.51444(8) 0.94094(8)
O2Y O 0.06528(8) 0.19094(8) 0.76444(8)
O2HA O 0.30906(8) 0.23556(8) 0.56528(8)
O2BA O 0.26444(8) 0.43472(8) 0.80906(8)
O2MA O -0.05906(8) 0.18472(8) 0.98556(8)
O2UA O -0.01444(8) -0.05906(8) 1.18472(8)
O2QA O 0.18472(8) -0.01444(8) 0.94094(8)
C1I C -0.25805(10) 0.27962(11) 0.59339(10)
C1F C -0.27962(10) 0.09339(11) 0.75805(10)
C1N C 0.00805(10) 0.34339(11) 0.97038(10)
C1T C 0.02962(10) 0.50805(11) 1.15661(10)
C1Q C -0.15661(10) 0.52962(11) 0.99195(10)
C1Y C 0.09339(10) 0.24195(11) 0.77962(10)
C1HA C 0.25805(10) 0.22038(11) 0.59339(10)
C1BA C 0.27962(10) 0.40661(11) 0.75805(10)
C1MA C -0.00805(10) 0.15661(11) 0.97038(10)
C1UA C -0.02962(10) -0.00805(11) 1.15661(10)
C1QA C 0.15661(10) -0.02962(11) 0.99195(10)
C2I C -0.23246(9) 0.24350(9) 0.65385(11)
C2F C -0.24350(9) 0.15385(9) 0.73246(11)
C2N C -0.01754(9) 0.40385(9) 1.00650(11)
C2T C -0.00650(9) 0.48246(9) 1.09615(11)
C2Q C -0.09615(9) 0.49350(9) 1.01754(11)
C2Y C 0.15385(9) 0.26754(9) 0.74350(11)
C2HA C 0.23246(9) 0.25650(9) 0.65385(11)
C2BA C 0.24350(9) 0.34615(9) 0.73246(11)
C2MA C 0.01754(9) 0.09615(9) 1.00650(11)
C2UA C 0.00650(9) 0.01754(9) 1.09615(11)
C2QA C 0.09615(9) 0.00650(9) 1.01754(11)
C3I C -0.26677(9) 0.18839(9) 0.67593(9)
C3F C -0.18839(9) 0.17593(9) 0.76677(9)
C3N C 0.01677(9) 0.42593(9) 1.06161(9)
C3T C -0.06161(9) 0.51677(9) 1.07407(9)
C3Q C -0.07407(9) 0.43839(9) 0.98323(9)
C3Y C 0.17593(9) 0.23323(9) 0.68839(9)
C3HA C 0.26677(9) 0.31161(9) 0.67593(9)
C3BA C 0.18839(9) 0.32407(9) 0.76677(9)
C3MA C -0.01677(9) 0.07407(9) 1.06161(9)
C3UA C 0.06161(9) -0.01677(9) 1.07407(9)
C3QA C 0.07407(9) 0.06161(9) 0.98323(9)
H1F H -0.17370 0.15320 0.80590
H1I H -0.30590 0.17370 0.65320
H1N H 0.05590 0.40320 1.07630
H1Q H -0.09680 0.42370 0.94410
H1T H -0.07630 0.55590 1.09680
H1Y H 0.15320 0.19410 0.67370
H1BA H 0.17370 0.34680 0.80590
H1HA H 0.30590 0.32630 0.65320
H1MA H -0.05590 0.09680 1.07630
H1QA H 0.09680 0.07630 0.94410
H1UA H 0.07630 -0.05590 1.09680
#END
