
#######################################################################
#
#                 Cambridge Crystallographic Data Centre
#                                CCDC
#
#######################################################################
#
# If this CIF has been generated from an entry in the Cambridge
# Structural Database, then it will include bibliographic, chemical,
# crystal, experimental, refinement or atomic coordinate data resulting
# from the CCDC's data processing and validation procedures.
#
#######################################################################

data_CSD_CIF_ENECIM
_audit_creation_date 2021-03-01
_audit_creation_method CSD-ConQuest-V1
_database_code_CSD ENECIM
_database_code_depnum_ccdc_archive 'CCDC 2003487'
_chemical_formula_sum 'C76 H72 N4 O20 Zn2'
_chemical_formula_moiety
;
(C64 H34 O16 Zn2 2-)n,2(C4 H9 N1 O1),2(C2 H8 N1 1+),2(H2 O1)
;
_journal_coden_Cambridge 82
_journal_volume 61
_journal_year 2020
_journal_page_first 1957
_journal_name_full 'Zh.Strukt.Khim.(Russ.)(J.Struct.Chem.) '
loop_
_publ_author_name
"A.A.Sapianik"
"E.R.Dudko"
"D.G.Samsonenko"
"V.P.Fedin"
_chemical_name_systematic
;
catena-[bis(dimethylammonium) 
bis(\m-anthracene-9,10-dicarboxylato)-bis(\m-10-carboxyanthracene-9-carboxylat
o)-di-zinc N,N-dimethylacetamide solvate dihydrate]
;
_cell_volume   3433.867
_exptl_crystal_colour 'yellowish'
_exptl_crystal_density_diffrn 1.443
_exptl_crystal_description 'block'
_diffrn_ambient_temperature 100
_diffrn_radiation_probe x-ray
_diffrn_source synchrotron
#These two values have been output from a single CSD field.
_refine_ls_R_factor_gt 0.0644
_refine_ls_wR_factor_gt 0.0644
_symmetry_cell_setting monoclinic
_symmetry_space_group_name_H-M 'P 21/n'
_symmetry_Int_Tables_number 14
loop_
_symmetry_equiv_pos_site_id
_symmetry_equiv_pos_as_xyz
1 x,y,z
2 1/2-x,1/2+y,1/2-z
3 -x,-y,-z
4 -1/2+x,-1/2-y,-1/2+z
_cell_length_a 9.4860(17)
_cell_length_b 22.0840(7)
_cell_length_c 16.3990(7)
_cell_angle_alpha 90
_cell_angle_beta 91.716(5)
_cell_angle_gamma 90
_cell_formula_units_Z 2
loop_
_atom_type_symbol
_atom_type_radius_bond
C 0.68
H 0.23
N 0.68
O 0.68
Zn 1.22
loop_
_atom_site_label
_atom_site_type_symbol
_atom_site_fract_x
_atom_site_fract_y
_atom_site_fract_z
Zn1 Zn 0.25042(3) 0.38534(2) 0.75106(2)
O1 O 0.0984(2) 0.4187(1) 0.81823(13)
O2 O 0.2973(3) 0.4607(1) 0.86596(15)
C1 C 0.1688(3) 0.45170(13) 0.86944(19)
C2 C 0.0838(3) 0.47766(12) 0.93742(18)
C3 C 0.0888(3) 0.44890(12) 1.01405(18)
C4 C 0.1759(3) 0.39711(13) 1.0309(2)
H1 H 0.23287 0.38128 0.98922
C5 C 0.1783(4) 0.37029(14) 1.1055(2)
H2 H 0.23805 0.33647 1.11580
C6 C 0.0919(4) 0.39253(14) 1.1683(2)
H3 H 0.09339 0.37290 1.21985
C7 C 0.0071(3) 0.44152(14) 1.15549(19)
H4 H -0.04938 0.45597 1.19825
C8 C 0.0023(3) 0.47154(12) 1.07761(18)
O3 O 0.3930(2) 0.42603(9) 0.68456(13)
O4 O 0.1994(3) 0.47263(11) 0.63690(16)
C9 C 0.3251(3) 0.46026(13) 0.63249(18)
C10 C 0.4126(3) 0.48193(12) 0.56342(18)
C11 C 0.4083(3) 0.44964(12) 0.48944(19)
C12 C 0.3167(4) 0.39869(14) 0.4762(2)
H5 H 0.25750 0.38575 0.51858
C13 C 0.3136(4) 0.36862(14) 0.4036(2)
H6 H 0.25136 0.33531 0.39567
C14 C 0.4026(4) 0.38652(14) 0.3394(2)
H7 H 0.39985 0.36507 0.28920
C15 C 0.4919(4) 0.43456(14) 0.3503(2)
H8 H 0.55161 0.44598 0.30738
C16 C 0.4971(3) 0.46808(13) 0.42520(18)
O5 O 0.1711(2) 0.33556(10) 0.66140(13)
O6 O -0.0070(3) 0.29420(14) 0.72388(18)
H9 H 0.012(6) 0.292(2) 0.7758(9)
O7 O -0.1739(2) 0.17596(10) 0.32894(14)
O8 O 0.0582(3) 0.17364(12) 0.30930(17)
C17 C 0.0613(3) 0.30411(13) 0.66284(19)
C18 C 0.0240(3) 0.27412(12) 0.58222(18)
C19 C -0.0193(3) 0.30956(12) 0.51463(19)
C20 C -0.0401(4) 0.37385(13) 0.5217(2)
H10 H -0.02089 0.39342 0.57240
C21 C -0.0872(4) 0.40687(13) 0.4563(2)
H11 H -0.10237 0.44916 0.46196
C22 C -0.1136(4) 0.37851(15) 0.3795(2)
H12 H -0.14632 0.40216 0.33443
C23 C -0.0929(3) 0.31784(14) 0.36969(19)
H13 H -0.10978 0.29981 0.31772
C24 C -0.0458(3) 0.28122(12) 0.43712(19)
C25 C -0.0252(3) 0.21847(12) 0.42942(19)
C26 C 0.0171(3) 0.18294(12) 0.49696(19)
C27 C 0.0396(4) 0.11886(13) 0.4896(2)
H14 H 0.01971 0.09942 0.43888
C28 C 0.0889(4) 0.08559(14) 0.5542(2)
H15 H 0.10496 0.04340 0.54804
C29 C 0.1165(4) 0.11378(15) 0.6307(2)
H16 H 0.15217 0.09025 0.67523
C30 C 0.0926(3) 0.17396(14) 0.6415(2)
H17 H 0.10957 0.19165 0.69366
C31 C 0.0418(3) 0.21119(12) 0.57463(18)
C32 C -0.0482(3) 0.18758(12) 0.34805(19)
N1 N 0.6547(4) 0.43899(14) 0.7574(2)
H18 H 0.57884 0.44467 0.72293
H19 H 0.64700 0.40143 0.77960
C33 C 0.6501(5) 0.48376(18) 0.8224(3)
H20 H 0.56081 0.48005 0.85056
H21 H 0.65753 0.52447 0.79917
H22 H 0.72887 0.47690 0.86137
C34 C 0.7831(5) 0.4411(2) 0.7099(3)
H23 H 0.78179 0.40791 0.67029
H24 H 0.86588 0.43706 0.74670
H25 H 0.78751 0.47991 0.68100
O9 O -0.2643(3) 0.23574(16) 0.7430(2)
H26 H -0.317(4) 0.2618(14) 0.765(3)
H27 H -0.193(3) 0.2549(16) 0.725(3)
O10 O 0.0761(4) 0.25898(19) 0.8923(2)
C35 C -0.0101(4) 0.26993(17) 0.9522(3)
C36 C -0.1253(5) 0.3138(2) 0.9390(3)
H28 H -0.12780 0.34165 0.98545
H29 H -0.21532 0.29221 0.93364
H30 H -0.10945 0.33685 0.88898
N2 N 0.0073(3) 0.24216(14) 1.0209(2)
C37 C -0.0786(5) 0.2535(2) 1.0940(3)
H31 H -0.01592 0.25907 1.14196
H32 H -0.14092 0.21889 1.10274
H33 H -0.13553 0.29012 1.08519
C38 C 0.1137(5) 0.1947(2) 1.0372(3)
H34 H 0.09045 0.17261 1.08686
H35 H 0.20699 0.21334 1.04445
H36 H 0.11455 0.16648 0.99104
O1B O -0.0984(2) 0.5813(1) 1.18177(13)
O2B O -0.2973(3) 0.5393(1) 1.13404(15)
C1B C -0.1688(3) 0.54830(13) 1.13056(19)
C2B C -0.0838(3) 0.52234(12) 1.06258(18)
C3B C -0.0888(3) 0.55110(12) 0.98595(18)
C4B C -0.1759(3) 0.60289(13) 0.9691(2)
H1B H -0.23287 0.61872 1.01078
C5B C -0.1783(4) 0.62971(14) 0.8945(2)
H2B H -0.23805 0.66353 0.88420
C6B C -0.0919(4) 0.60747(14) 0.8317(2)
H3B H -0.09339 0.62710 0.78015
C7B C -0.0071(3) 0.55848(14) 0.84451(19)
H4B H 0.04938 0.54402 0.80175
C8B C -0.0023(3) 0.52846(12) 0.92239(18)
O3B O 0.6070(2) 0.57397(9) 0.31544(13)
O4B O 0.8006(3) 0.52737(11) 0.36310(16)
C9B C 0.6749(3) 0.53974(13) 0.36751(18)
C10B C 0.5874(3) 0.51807(12) 0.43658(18)
C11B C 0.5917(3) 0.55036(12) 0.51056(19)
C12B C 0.6833(4) 0.60131(14) 0.5238(2)
H5B H 0.74250 0.61425 0.48142
C13B C 0.6864(4) 0.63138(14) 0.5964(2)
H6B H 0.74864 0.66469 0.60433
C14B C 0.5974(4) 0.61348(14) 0.6606(2)
H7B H 0.60015 0.63493 0.71080
C15B C 0.5081(4) 0.56544(14) 0.6497(2)
H8B H 0.44839 0.55402 0.69262
C16B C 0.5029(3) 0.53192(13) 0.57480(18)
Zn1B Zn -0.25042(3) 0.61466(2) 1.24894(2)
O5B O -0.1711(2) 0.66444(10) 1.33860(13)
O6B O 0.0070(3) 0.70580(14) 1.27612(18)
H9B H -0.012(6) 0.708(2) 1.2242(9)
O7B O 0.1739(2) 0.82404(10) 1.67106(14)
O8B O -0.0582(3) 0.82636(12) 1.69070(17)
C17B C -0.0613(3) 0.69589(13) 1.33716(19)
C18B C -0.0240(3) 0.72588(12) 1.41778(18)
C19B C 0.0193(3) 0.69044(12) 1.48537(19)
C20B C 0.0401(4) 0.62615(13) 1.4783(2)
H10B H 0.02089 0.60658 1.42760
C21B C 0.0872(4) 0.59313(13) 1.5437(2)
H11B H 0.10237 0.55084 1.53804
C22B C 0.1136(4) 0.62149(15) 1.6205(2)
H12B H 0.14632 0.59784 1.66557
C23B C 0.0929(3) 0.68216(14) 1.63031(19)
H13B H 0.10978 0.70019 1.68228
C24B C 0.0458(3) 0.71878(12) 1.56288(19)
C25B C 0.0252(3) 0.78153(12) 1.57058(19)
C26B C -0.0171(3) 0.81706(12) 1.50304(19)
C27B C -0.0396(4) 0.88114(13) 1.5104(2)
H14B H -0.01971 0.90058 1.56112
C28B C -0.0889(4) 0.91441(14) 1.4458(2)
H15B H -0.10496 0.95660 1.45196
C29B C -0.1165(4) 0.88622(15) 1.3693(2)
H16B H -0.15217 0.90975 1.32477
C30B C -0.0926(3) 0.82604(14) 1.3585(2)
H17B H -0.10957 0.80834 1.30634
C31B C -0.0418(3) 0.78881(12) 1.42537(18)
C32B C 0.0482(3) 0.81242(12) 1.65195(19)
Zn1A Zn 0.24958(3) 0.88534(2) 1.74894(2)
Zn1B* Zn 0.74958(3) 0.61466(2) 0.24894(2)
Zn1C Zn -0.24958(3) 0.11466(2) 0.25106(2)
O3B* O -0.3930(2) 0.57397(9) 1.31544(13)
O7A O -0.3261(2) 0.67596(10) 1.17106(14)
O7C O 0.3261(2) 0.32404(10) 0.82894(14)
#END
