
#######################################################################
#
#                 Cambridge Crystallographic Data Centre
#                                CCDC
#
#######################################################################
#
# If this CIF has been generated from an entry in the Cambridge
# Structural Database, then it will include bibliographic, chemical,
# crystal, experimental, refinement or atomic coordinate data resulting
# from the CCDC's data processing and validation procedures.
#
#######################################################################

data_CSD_CIF_ENEQOF
_audit_creation_date 2016-05-27
_audit_creation_method CSD-ConQuest-V1
_database_code_CSD ENEQOF
_database_code_depnum_ccdc_archive 'CCDC 1443254'
_chemical_formula_sum 'C102 H102 Cu4 N24 O88 W20'
_chemical_formula_moiety
;
(C90 H80 Cu4 N18 O22 8+)n,2n(O32 W10 4-),6n(C2 H3 N1),2n(H2 O1)
;
_journal_coden_Cambridge 1500
_journal_volume 6
_journal_year 2016
_journal_page_first 51936
_journal_name_full 'RSC Advances '
loop_
_publ_author_name
"Dongying Shi"
"Le Zeng"
"Zheng Ming"
"Cheng He"
"Changgong Meng"
"Chunying Duan"
_chemical_name_systematic
;
catena-[nonakis(\m~2~-4,4'-Bipyridine-N,N'-dioxide)-tetra-aqua-tetra-copper 
bis(bis(\m~5~-oxo)-icosakis(\m~2~-oxo)-deca-oxo-deca-tungsten) acetonitrile 
solvate dihydrate]
;
_cell_volume   3717.528
_exptl_crystal_colour 'orange'
_exptl_crystal_density_diffrn 3.128
_exptl_crystal_description 'block'
_diffrn_ambient_temperature 180
#These two values have been output from a single CSD field.
_refine_ls_R_factor_gt 0.0762
_refine_ls_wR_factor_gt 0.0762
_symmetry_cell_setting triclinic
_symmetry_space_group_name_H-M 'P -1'
_symmetry_Int_Tables_number 2
loop_
_symmetry_equiv_pos_site_id
_symmetry_equiv_pos_as_xyz
1 x,y,z
2 -x,-y,-z
_cell_length_a 12.8423(8)
_cell_length_b 12.9467(8)
_cell_length_c 23.9678(14)
_cell_angle_alpha 81.481(1)
_cell_angle_beta 86.357(1)
_cell_angle_gamma 70.630(1)
_cell_formula_units_Z 1
loop_
_atom_type_symbol
_atom_type_radius_bond
C 0.68
H 0.23
Cu 1.32
N 0.68
O 0.68
W 1.62
loop_
_atom_site_label
_atom_site_type_symbol
_atom_site_fract_x
_atom_site_fract_y
_atom_site_fract_z
W1 W 0.17943(5) 0.05207(5) 0.43281(3)
W2 W 0.14177(5) 0.07806(5) 0.56660(3)
W3 W 0.08007(5) -0.19044(5) 0.58977(3)
W4 W 0.11785(5) -0.21770(5) 0.45633(3)
W5 W -0.07374(5) -0.29901(5) 0.52861(3)
O1 O 0.1064(8) -0.0547(8) 0.5747(4)
O2 O 0.1446(8) -0.0778(8) 0.4462(4)
O3 O 0.2260(9) 0.0512(9) 0.6223(4)
O4 O 0.1816(8) -0.2424(8) 0.5291(4)
O5 O -0.0306(8) -0.1389(8) 0.5125(4)
O6 O 0.0282(9) -0.3136(8) 0.5867(4)
O7 O 0.0585(9) -0.3323(9) 0.4793(5)
O8 O 0.2432(9) 0.0240(9) 0.5063(4)
O9 O 0.2244(9) -0.2870(9) 0.4158(4)
O10 O 0.0608(9) 0.1180(8) 0.3794(4)
O11 O 0.1495(9) 0.2238(8) 0.5393(4)
O12 O -0.0023(8) 0.1510(8) 0.5967(4)
O13 O 0.1844(9) 0.2049(9) 0.4307(4)
O14 O 0.2934(9) 0.0155(10) 0.3907(5)
O15 O -0.104(1) -0.4194(9) 0.5391(5)
O16 O 0.1587(10) -0.2489(9) 0.6486(5)
W6 W 0.82628(5) 0.46234(6) 0.07808(3)
W7 W 1.15355(6) 0.58086(6) 0.05362(3)
W8 W 0.89476(6) 0.72814(6) 0.03813(3)
W9 W 0.91740(6) 0.20778(6) 0.04637(3)
W10 W 1.08582(6) 0.31653(6) 0.09318(3)
O17 O 1.1152(10) 0.4506(10) 0.0690(5)
O18 O 0.8624(9) 0.5881(9) 0.0575(5)
O19 O 0.8223(9) 0.7433(10) -0.0312(4)
O20 O 1.0174(9) 0.6612(9) 0.0871(5)
O21 O 0.7549(9) 0.4798(9) 0.0082(5)
O22 O 0.7189(10) 0.5061(10) 0.1243(5)
O23 O 1.1735(10) 0.2674(10) 0.1486(5)
O24 O 0.8171(10) 0.3087(10) 0.0874(5)
O25 O 1.2452(10) 0.5565(11) 0.1056(5)
O26 O 0.9511(9) 0.3976(10) 0.1267(5)
O27 O 0.8351(10) 0.2764(10) -0.0197(5)
O28 O 0.9653(9) 0.3638(9) 0.0209(5)
O29 O 0.7933(10) 0.8032(10) 0.0799(5)
O30 O 1.0293(9) 0.1937(9) 0.0983(5)
O31 O 0.9582(10) 0.8349(9) 0.0068(5)
O32 O 0.8819(12) 0.0905(11) 0.0643(6)
Cu1 Cu 0.47522(16) 0.23555(18) 1.73107(8)
Cu2 Cu 0.52839(16) 0.23397(19) 1.22880(8)
O33 O 0.3805(9) 0.3566(10) 1.7689(5)
O34 O 0.580(1) 0.1175(10) 1.6944(5)
O35 O 1.3342(10) -0.2002(12) 1.8161(5)
O36 O 0.4677(9) 0.3639(10) 1.1739(4)
O37 O 0.5705(10) 0.1844(12) 0.7959(5)
O38 O 0.5941(9) 0.1089(10) 1.2859(4)
O39 O 0.3969(9) 0.3019(10) 1.6608(5)
O40 O 0.4673(13) 0.1128(12) 1.1856(5)
C1 C 0.2026(15) 0.3702(16) 1.7973(7)
H1 H 0.23040 0.31070 1.82660
C2 C 0.0898(13) 0.4245(14) 1.7932(7)
H2 H 0.04120 0.40470 1.82100
C3 C 0.0474(13) 0.5075(15) 1.7489(7)
C4 C 0.1226(14) 0.5350(14) 1.7112(7)
H3 H 0.09670 0.59290 1.68090
C5 C 0.2342(13) 0.4807(14) 1.7163(7)
H4 H 0.28450 0.49900 1.68900
C6 C -0.2611(16) 0.5735(17) 1.7636(7)
H5 H -0.31230 0.54150 1.78290
C7 C -0.1504(14) 0.5211(15) 1.7704(7)
H6 H -0.12600 0.45340 1.79500
C8 C -0.0729(14) 0.5630(15) 1.7427(6)
C9 C -0.1143(15) 0.6658(15) 1.7083(7)
H7 H -0.06470 0.70140 1.69050
C10 C -0.2251(13) 0.7142(14) 1.7005(7)
H8 H -0.25120 0.77940 1.67430
C11 C 0.7145(15) -0.0203(15) 1.7430(7)
H9 H 0.66240 -0.05730 1.75450
C12 C 0.8256(15) -0.0692(17) 1.7591(7)
H10 H 0.84830 -0.13770 1.78320
C13 C 0.9021(13) -0.0161(14) 1.7392(6)
C14 C 0.8637(14) 0.0840(16) 1.7059(8)
H11 H 0.91340 0.12200 1.69110
C15 C 0.7546(14) 0.1287(17) 1.6939(8)
H12 H 0.72910 0.19930 1.67180
C16 C 1.1916(16) -0.049(2) 1.7780(11)
H13 H 1.23510 -0.00330 1.78040
C17 C 1.0869(15) -0.0040(18) 1.7597(11)
H14 H 1.05840 0.07360 1.74870
C18 C 1.0203(14) -0.0665(15) 1.7566(7)
C19 C 1.0684(14) -0.1792(15) 1.7706(7)
H15 H 1.02630 -0.22640 1.76820
C20 C 1.1761(14) -0.2244(17) 1.7881(8)
H16 H 1.20870 -0.30220 1.79670
C21 C 0.5594(15) 0.3650(14) 1.0873(7)
H17 H 0.61410 0.38570 1.10340
C22 C 0.5671(13) 0.3510(15) 1.0318(7)
H18 H 0.62680 0.36280 1.00930
C23 C 0.4906(14) 0.3204(13) 1.0083(6)
C24 C 0.4003(13) 0.3118(14) 1.0414(6)
H19 H 0.34200 0.29670 1.02530
C25 C 0.3953(14) 0.3250(14) 1.0966(7)
H20 H 0.33450 0.31670 1.11930
C26 C 0.4599(15) 0.2113(15) 0.8755(8)
H21 H 0.41610 0.17360 0.86240
C27 C 0.4373(15) 0.2468(16) 0.9273(6)
H22 H 0.37520 0.23750 0.94850
C28 C 0.5019(13) 0.2953(16) 0.9493(8)
C29 C 0.5808(16) 0.322(2) 0.9119(8)
H23 H 0.62290 0.36350 0.92330
C30 C 0.5970(18) 0.291(2) 0.8604(8)
H24 H 0.64850 0.31260 0.83530
C31 C 0.5042(14) 0.0819(15) 1.3703(7)
H25 H 0.47350 0.03580 1.35430
C32 C 0.4807(12) 0.1020(14) 1.4261(7)
H26 H 0.43190 0.07070 1.44820
C33 C 0.5285(13) 0.1678(13) 1.4497(7)
C34 C 0.5980(14) 0.2124(15) 1.4156(7)
H27 H 0.63220 0.25710 1.43040
C35 C 0.6184(13) 0.1927(14) 1.3604(7)
H28 H 0.66580 0.22410 1.33710
C36 C 0.5274(12) 0.2751(13) 1.5866(6)
H29 H 0.57040 0.30720 1.60480
C37 C 0.5591(14) 0.2423(13) 1.5341(6)
H30 H 0.62450 0.25150 1.51660
C38 C 0.4985(12) 0.1971(13) 1.5073(6)
C39 C 0.4041(13) 0.1824(14) 1.5348(7)
H31 H 0.36040 0.15020 1.51730
C40 C 0.3751(13) 0.2149(14) 1.5870(7)
H32 H 0.31130 0.20400 1.60580
C41 C 0.573(2) 0.0655(17) 1.1070(9)
H33 H 0.63380 0.07590 1.12370
C42 C 0.5845(19) 0.0351(16) 1.0553(8)
H34 H 0.65350 0.02310 1.03600
C43 C 0.4942(19) 0.0199(17) 1.0282(7)
C44 C 0.396(2) 0.0351(18) 1.0605(8)
H35 H 0.33410 0.02590 1.04470
C45 C 0.388(2) 0.0620(18) 1.1122(9)
H36 H 0.32140 0.06790 1.13360
N1 N 0.2716(10) 0.4011(11) 1.7603(5)
N2 N -0.2982(12) 0.6714(13) 1.7293(6)
N3 N 0.6832(11) 0.0777(12) 1.7118(5)
N4 N 1.2339(11) -0.1580(13) 1.7927(6)
N5 N 0.4744(11) 0.3495(11) 1.1195(5)
N6 N 0.5415(12) 0.2287(14) 0.8435(6)
N7 N 0.5711(10) 0.1296(11) 1.3399(5)
N8 N 0.4349(11) 0.2615(11) 1.6122(5)
N9 N 0.4745(16) 0.0816(15) 1.1357(7)
O41 O 0.3658(12) 0.1199(12) 1.7593(7)
H37 H 0.29900 0.15480 1.75050
H38 H 0.38980 0.06250 1.74280
O42 O 0.5919(14) 0.3936(19) 1.2608(8)
H39 H 0.64600 0.40100 1.24020
H40 H 0.53840 0.45410 1.25710
O43 O -0.4022(9) 0.7188(10) 1.7188(5)
C46 C 0.914(4) 0.111(3) 1.878(2)
H41 H 0.98970 0.05850 1.87740
H42 H 0.86170 0.07070 1.87670
H43 H 0.90170 0.14560 1.91220
C47 C 0.899(4) 0.193(3) 1.829(2)
N10 N 0.880(3) 0.253(2) 1.7959(17)
N11 N 0.160(2) 0.223(2) 0.7046(9)
C48 C 0.091(3) 0.294(3) 0.6779(12)
C49 C 0.008(3) 0.375(2) 0.6410(12)
H44 H -0.03830 0.43290 0.66250
H45 H -0.03850 0.33880 0.62610
H46 H 0.04460 0.40760 0.60970
C50 C 0.229(2) -0.5205(18) 0.5541(10)
H47 H 0.21530 -0.53700 0.51720
H48 H 0.16730 -0.45810 0.56470
H49 H 0.23720 -0.58540 0.58240
C51 C 0.342(4) -0.489(3) 0.551(2)
N12 N 0.424(2) -0.4668(19) 0.5477(14)
O44 O 0.704(4) 0.525(4) 1.6108(19)
H50 H 0.74330 0.53950 1.63390
H51 H 0.65730 0.58440 1.59610
O45 O 0.788(3) 0.048(4) 1.9710(18)
H52 H 0.82850 -0.00970 1.99070
H53 H 0.76530 0.10040 1.99110
W1A W -0.17943(5) -0.05207(5) 0.56719(3)
W2A W -0.14177(5) -0.07806(5) 0.43340(3)
W3A W -0.08007(5) 0.19044(5) 0.41023(3)
W4A W -0.11785(5) 0.21770(5) 0.54367(3)
W5A W 0.07374(5) 0.29901(5) 0.47139(3)
O1A O -0.1064(8) 0.0547(8) 0.4253(4)
O2A O -0.1446(8) 0.0778(8) 0.5538(4)
O3A O -0.2260(9) -0.0512(9) 0.3777(4)
O4A O -0.1816(8) 0.2424(8) 0.4709(4)
O5A O 0.0306(8) 0.1389(8) 0.4875(4)
O6A O -0.0282(9) 0.3136(8) 0.4133(4)
O7A O -0.0585(9) 0.3323(9) 0.5207(5)
O8A O -0.2432(9) -0.0240(9) 0.4937(4)
O9A O -0.2244(9) 0.2870(9) 0.5842(4)
O10A O -0.0608(9) -0.1180(8) 0.6206(4)
O11A O -0.1495(9) -0.2238(8) 0.4607(4)
O12A O 0.0023(8) -0.1510(8) 0.4033(4)
O13A O -0.1844(9) -0.2049(9) 0.5693(4)
O14A O -0.2934(9) -0.0155(10) 0.6093(5)
O15A O 0.104(1) 0.4194(9) 0.4609(5)
O16A O -0.1587(10) 0.2489(9) 0.3514(5)
W6A W 1.17372(5) 0.53766(6) -0.07808(3)
W7A W 0.84645(6) 0.41914(6) -0.05362(3)
W8A W 1.10524(6) 0.27186(6) -0.03813(3)
W9A W 1.08260(6) 0.79222(6) -0.04637(3)
W10A W 0.91418(6) 0.68347(6) -0.09318(3)
O17A O 0.8848(10) 0.5494(10) -0.0690(5)
O18A O 1.1376(9) 0.4119(9) -0.0575(5)
O19A O 1.1777(9) 0.2567(10) 0.0312(4)
O20A O 0.9826(9) 0.3388(9) -0.0871(5)
O21A O 1.2451(9) 0.5202(9) -0.0082(5)
O22A O 1.2811(10) 0.4939(10) -0.1243(5)
O23A O 0.8265(10) 0.7326(10) -0.1486(5)
O24A O 1.1829(10) 0.6913(10) -0.0874(5)
O25A O 0.7548(10) 0.4435(11) -0.1056(5)
O26A O 1.0489(9) 0.6024(10) -0.1267(5)
O27A O 1.1649(10) 0.7236(10) 0.0197(5)
O28A O 1.0347(9) 0.6362(9) -0.0209(5)
O29A O 1.2067(10) 0.1968(10) -0.0799(5)
O30A O 0.9707(9) 0.8063(9) -0.0983(5)
O31A O 1.0418(10) 0.1651(9) -0.0068(5)
O32A O 1.1181(12) 0.9095(11) -0.0643(6)
O40A O 0.5327(13) -0.1128(12) 0.8144(5)
C41A C 0.427(2) -0.0655(17) 0.8930(9)
H33A H 0.36620 -0.07590 0.87630
C42A C 0.4155(19) -0.0351(16) 0.9447(8)
H34A H 0.34650 -0.02310 0.96400
C43A C 0.5058(19) -0.0199(17) 0.9718(7)
C44A C 0.604(2) -0.0351(18) 0.9395(8)
H35A H 0.66590 -0.02590 0.95530
C45A C 0.612(2) -0.0620(18) 0.8878(9)
H36A H 0.67860 -0.06790 0.86640
N9A N 0.5255(16) -0.0816(15) 0.8643(7)
Cu1A Cu -0.47522(16) 0.76445(18) 1.26893(8)
Cu2A Cu -0.52839(16) 0.76603(19) 1.77120(8)
O33A O -0.3805(9) 0.6434(10) 1.2311(5)
O34A O -0.580(1) 0.8825(10) 1.3056(5)
O35A O -1.3342(10) 1.2002(12) 1.1839(5)
O36A O -0.4677(9) 0.6361(10) 1.8261(4)
O37A O -0.5705(10) 0.8156(12) 2.2041(5)
O38A O -0.5941(9) 0.8911(10) 1.7141(4)
O39A O -0.3969(9) 0.6981(10) 1.3392(5)
C1A C -0.2026(15) 0.6298(16) 1.2027(7)
H1A H -0.23040 0.68930 1.17340
C2A C -0.0898(13) 0.5755(14) 1.2068(7)
H2A H -0.04120 0.59530 1.17900
C3A C -0.0474(13) 0.4925(15) 1.2511(7)
C4A C -0.1226(14) 0.4650(14) 1.2888(7)
H3A H -0.09670 0.40710 1.31910
C5A C -0.2342(13) 0.5193(14) 1.2837(7)
H4A H -0.28450 0.50100 1.31100
C6A C 0.2611(16) 0.4265(17) 1.2364(7)
H5A H 0.31230 0.45850 1.21710
C7A C 0.1504(14) 0.4789(15) 1.2296(7)
H6A H 0.12600 0.54660 1.20500
C8A C 0.0729(14) 0.4370(15) 1.2573(6)
C9A C 0.1143(15) 0.3342(15) 1.2917(7)
H7A H 0.06470 0.29860 1.30950
C10A C 0.2251(13) 0.2858(14) 1.2995(7)
H8A H 0.25120 0.22060 1.32570
C11A C -0.7145(15) 1.0203(15) 1.2570(7)
H9A H -0.66240 1.05730 1.24550
C12A C -0.8256(15) 1.0692(17) 1.2409(7)
H10A H -0.84830 1.13770 1.21680
C13A C -0.9021(13) 1.0161(14) 1.2608(6)
C14A C -0.8637(14) 0.9160(16) 1.2941(8)
H11A H -0.91340 0.87800 1.30890
C15A C -0.7546(14) 0.8713(17) 1.3061(8)
H12A H -0.72910 0.80070 1.32820
C16A C -1.1916(16) 1.049(2) 1.2220(11)
H13A H -1.23510 1.00330 1.21960
C17A C -1.0869(15) 1.0040(18) 1.2403(11)
H14A H -1.05840 0.92640 1.25130
C18A C -1.0203(14) 1.0665(15) 1.2434(7)
C19A C -1.0684(14) 1.1792(15) 1.2294(7)
H15A H -1.02630 1.22640 1.23180
C20A C -1.1761(14) 1.2244(17) 1.2119(8)
H16A H -1.20870 1.30220 1.20330
C21A C -0.5594(15) 0.6350(14) 1.9127(7)
H17A H -0.61410 0.61430 1.89660
C22A C -0.5671(13) 0.6490(15) 1.9682(7)
H18A H -0.62680 0.63720 1.99070
C23A C -0.4906(14) 0.6796(13) 1.9917(6)
C24A C -0.4003(13) 0.6882(14) 1.9586(6)
H19A H -0.34200 0.70330 1.97470
C25A C -0.3953(14) 0.6750(14) 1.9034(7)
H20A H -0.33450 0.68330 1.88070
C26A C -0.4599(15) 0.7887(15) 2.1245(8)
H21A H -0.41610 0.82640 2.13760
C27A C -0.4373(15) 0.7532(16) 2.0727(6)
H22A H -0.37520 0.76250 2.05150
C28A C -0.5019(13) 0.7047(16) 2.0507(8)
C29A C -0.5808(16) 0.678(2) 2.0881(8)
H23A H -0.62290 0.63650 2.07670
C30A C -0.5970(18) 0.709(2) 2.1396(8)
H24A H -0.64850 0.68740 2.16470
C31A C -0.5042(14) 0.9181(15) 1.6297(7)
H25A H -0.47350 0.96420 1.64570
C32A C -0.4807(12) 0.8980(14) 1.5739(7)
H26A H -0.43190 0.92930 1.55180
C33A C -0.5285(13) 0.8322(13) 1.5503(7)
C34A C -0.5980(14) 0.7876(15) 1.5844(7)
H27A H -0.63220 0.74290 1.56960
C35A C -0.6184(13) 0.8073(14) 1.6396(7)
H28A H -0.66580 0.77590 1.66290
C36A C -0.5274(12) 0.7249(13) 1.4134(6)
H29A H -0.57040 0.69280 1.39520
C37A C -0.5591(14) 0.7577(13) 1.4659(6)
H30A H -0.62450 0.74850 1.48340
C38A C -0.4985(12) 0.8029(13) 1.4927(6)
C39A C -0.4041(13) 0.8176(14) 1.4652(7)
H31A H -0.36040 0.84980 1.48270
C40A C -0.3751(13) 0.7851(14) 1.4130(7)
H32A H -0.31130 0.79600 1.39420
N1A N -0.2716(10) 0.5989(11) 1.2397(5)
N2A N 0.2982(12) 0.3286(13) 1.2707(6)
N3A N -0.6832(11) 0.9223(12) 1.2882(5)
N4A N -1.2339(11) 1.1580(13) 1.2073(6)
N5A N -0.4744(11) 0.6505(11) 1.8805(5)
N6A N -0.5415(12) 0.7713(14) 2.1565(6)
N7A N -0.5711(10) 0.8704(11) 1.6601(5)
N8A N -0.4349(11) 0.7385(11) 1.3878(5)
O41A O -0.3658(12) 0.8801(12) 1.2407(7)
H37A H -0.29900 0.84520 1.24950
H38A H -0.38980 0.93750 1.25720
O42A O -0.5919(14) 0.6064(19) 1.7392(8)
H39A H -0.64600 0.59900 1.75980
H40A H -0.53840 0.54590 1.74290
O43A O 0.4022(9) 0.2812(10) 1.2812(5)
Cu1* Cu 0.47522(16) 0.23555(18) 0.73107(8)
Cu1A* Cu -0.47522(16) 0.76445(18) 2.26893(8)
Cu2* Cu -1.47161(16) 1.23397(19) 1.22880(8)
Cu2A* Cu 0.47161(16) -0.23397(19) 0.77120(8)
Cu2A** Cu 1.47161(16) -0.23397(19) 1.77120(8)
O35* O -0.6658(10) 0.7998(12) 1.8161(5)
O35A* O 0.6658(10) 0.2002(12) 1.1839(5)
O37* O 0.5705(10) 0.1844(12) 1.7959(5)
O37A* O -0.5705(10) 0.8156(12) 1.2041(5)
O40A* O -0.4673(13) 0.8872(12) 1.8144(5)
#END
