
#######################################################################
#
#                 Cambridge Crystallographic Data Centre
#                                CCDC
#
#######################################################################
#
# If this CIF has been generated from an entry in the Cambridge
# Structural Database, then it will include bibliographic, chemical,
# crystal, experimental, refinement or atomic coordinate data resulting
# from the CCDC's data processing and validation procedures.
#
#######################################################################

data_CSD_CIF_ENEQUL
_audit_creation_date 2016-05-27
_audit_creation_method CSD-ConQuest-V1
_database_code_CSD ENEQUL
_database_code_depnum_ccdc_archive 'CCDC 1443256'
_chemical_formula_sum 'C100 H102 Cu4 N20 O88 W20'
_chemical_formula_moiety
;
(C90 H80 Cu4 N18 O22 8+)n,2n(O32 W10 4-),2n(C5 H9 N1),2n(H2 O1)
;
_journal_coden_Cambridge 1500
_journal_volume 6
_journal_year 2016
_journal_page_first 51936
_journal_name_full 'RSC Advances '
loop_
_publ_author_name
"Dongying Shi"
"Le Zeng"
"Zheng Ming"
"Cheng He"
"Changgong Meng"
"Chunying Duan"
_chemical_name_systematic
;
catena-[nonakis(\m~2~-4,4'-Bipyridine-N,N'-dioxide)-tetra-aqua-tetra-copper 
bis(bis(\m~5~-oxo)-icosakis(\m~2~-oxo)-deca-oxo-deca-tungsten) valeronitrile 
solvate dihydrate]
;
_cell_volume   3993.936
_exptl_crystal_colour 'orange'
_exptl_crystal_density_diffrn 2.878
_exptl_crystal_description 'block'
_diffrn_ambient_temperature 150
_refine_special_details
;
The structure is disordered.

;
#These two values have been output from a single CSD field.
_refine_ls_R_factor_gt 0.0746
_refine_ls_wR_factor_gt 0.0746
_symmetry_cell_setting triclinic
_symmetry_space_group_name_H-M 'P -1'
_symmetry_Int_Tables_number 2
loop_
_symmetry_equiv_pos_site_id
_symmetry_equiv_pos_as_xyz
1 x,y,z
2 -x,-y,-z
_cell_length_a 13.0242(7)
_cell_length_b 13.7795(8)
_cell_length_c 23.9552(14)
_cell_angle_alpha 81.259(3)
_cell_angle_beta 86.490(3)
_cell_angle_gamma 70.046(2)
_cell_formula_units_Z 1
loop_
_atom_type_symbol
_atom_type_radius_bond
C 0.68
H 0.23
Cu 1.32
N 0.68
O 0.68
W 1.62
loop_
_atom_site_label
_atom_site_type_symbol
_atom_site_fract_x
_atom_site_fract_y
_atom_site_fract_z
W1 W -0.83131(4) 0.05781(4) -0.56804(2)
O1 O -0.8562(6) -0.0664(6) -0.5543(3)
O2 O -0.7686(7) 0.0347(7) -0.4953(4)
O3 O -0.9490(7) 0.1162(7) -0.6206(4)
O4 O -0.8337(7) 0.2038(7) -0.5718(4)
O5 O -0.7181(7) 0.0274(8) -0.6115(4)
O6 O -0.9780(6) 0.1327(6) -0.5128(3)
W2 W -0.87338(4) -0.20454(4) -0.54337(2)
W3 W -0.86721(4) 0.08166(4) -0.43429(2)
W4 W -1.09101(4) 0.18047(4) -0.59048(2)
W5 W -0.94682(5) 0.29059(4) -0.53006(3)
O7 O -0.8098(7) -0.2219(6) -0.4708(4)
O8 O -0.9205(7) -0.3181(7) -0.5207(4)
O9 O -0.7655(8) -0.2622(7) -0.5833(4)
O10 O -0.9903(7) -0.1446(7) -0.5972(4)
O11 O -0.8921(6) -0.0475(7) -0.4253(3)
O12 O -0.7863(7) 0.0620(7) -0.3798(4)
O13 O -0.8680(7) 0.2227(7) -0.4617(4)
O14 O -1.0499(7) 0.3014(7) -0.5886(4)
O15 O -1.1690(8) 0.2329(8) -0.6485(5)
O16 O -0.9289(8) 0.4057(8) -0.5418(4)
W6 W -0.82546(5) -0.46458(4) -0.07744(2)
W7 W -1.16073(5) -0.56938(4) -0.05520(2)
W8 W -0.90228(5) -0.70951(4) -0.04169(3)
W9 W -0.91608(5) -0.22691(4) -0.04313(3)
W10 W -1.08415(5) -0.32541(4) -0.09077(3)
O17 O -1.1164(7) -0.4460(7) -0.0702(4)
O18 O -0.8693(7) -0.5797(7) -0.0592(4)
O19 O -0.8271(7) -0.7344(7) 0.0273(4)
O20 O -1.0231(7) -0.6436(7) -0.0898(4)
O21 O -0.7530(7) -0.4913(7) -0.0071(4)
O22 O -0.7237(8) -0.5076(7) -0.1242(4)
O23 O -1.1725(9) -0.2696(8) -0.1470(5)
O24 O -0.8125(7) -0.3251(7) -0.0839(4)
O25 O -1.2531(8) -0.5398(7) -0.1062(4)
O26 O -0.9504(7) -0.4007(6) -0.1250(4)
O27 O -0.8282(8) -0.2997(7) 0.0232(4)
O28 O -0.9639(7) -0.3732(6) -0.0191(4)
O29 O -0.8074(8) -0.7801(8) -0.0859(5)
O30 O -1.0266(8) -0.2109(7) -0.0952(4)
O31 O -0.9634(8) -0.8101(7) -0.0137(5)
O32 O -0.8814(8) -0.1224(8) -0.0595(4)
Cu1 Cu -0.47330(15) -0.23236(16) -0.73448(8)
Cu2 Cu -0.52201(14) -0.22384(14) -0.23570(7)
O33 O -0.3799(10) -0.3450(9) -0.7719(4)
O34 O -0.5642(8) -0.1147(7) -0.7006(4)
O35 O -1.3290(12) 0.2331(13) -0.7895(7)
O36 O -0.4718(8) -0.3472(7) -0.1778(4)
O37 O -0.5686(12) -0.1838(11) 0.1991(5)
O38 O -0.5815(8) -0.1016(8) -0.2924(4)
O39 O -0.3871(9) -0.2838(8) -0.6667(4)
C1 C -0.2008(15) -0.3737(13) -0.7969(7)
H1 H -0.22440 -0.31660 -0.82630
C2 C -0.0915(12) -0.4305(13) -0.7926(7)
H2 H -0.04100 -0.41570 -0.81990
C3 C -0.0550(15) -0.5120(11) -0.7464(7)
C4 C -0.1296(15) -0.5285(14) -0.7080(8)
H3 H -0.10760 -0.57770 -0.67490
C5 C -0.2426(16) -0.4702(14) -0.7183(7)
H4 H -0.29650 -0.48550 -0.69350
C6 C 0.2475(15) -0.6144(14) -0.7676(7)
H5 H 0.30180 -0.59280 -0.78890
C7 C 0.1408(14) -0.5518(13) -0.7739(7)
H6 H 0.12210 -0.49100 -0.80110
C8 C 0.0596(14) -0.5760(11) -0.7409(6)
C9 C 0.0902(16) -0.6669(12) -0.7044(8)
H7 H 0.03730 -0.68930 -0.68220
C10 C 0.2028(17) -0.7269(13) -0.7004(7)
H8 H 0.22480 -0.78690 -0.67260
C11 C -0.6967(11) 0.0171(11) -0.7496(7)
H9 H -0.64180 0.04410 -0.76580
C12 C -0.8107(15) 0.0743(13) -0.7624(7)
H10 H -0.83130 0.13970 -0.78600
C13 C -0.8902(13) 0.0317(11) -0.7393(6)
C14 C -0.8499(13) -0.0661(11) -0.7016(6)
H11 H -0.89920 -0.09920 -0.68430
C15 C -0.7421(12) -0.1095(11) -0.6914(6)
H12 H -0.71760 -0.17110 -0.66490
C16 C -1.1890(14) 0.0843(18) -0.7447(9)
H13 H -1.23950 0.05040 -0.73060
C17 C -1.0799(16) 0.0352(16) -0.7363(11)
H14 H -1.05500 -0.03560 -0.71940
C18 C -1.0069(12) 0.0828(12) -0.7510(7)
C19 C -1.0473(13) 0.1862(14) -0.7758(6)
H15 H -0.99890 0.22470 -0.78510
C20 C -1.1564(19) 0.2330(15) -0.7870(8)
H16 H -1.18260 0.30330 -0.80480
C21 C -0.5656(11) -0.3468(11) -0.0929(6)
H17 H -0.62110 -0.36320 -0.10940
C22 C -0.5703(12) -0.3361(12) -0.0378(6)
H18 H -0.63000 -0.34650 -0.01600
C23 C -0.4918(11) -0.3104(12) -0.0103(5)
C24 C -0.4044(11) -0.3012(11) -0.0447(6)
H19 H -0.34650 -0.28660 -0.02940
C25 C -0.4016(12) -0.3135(11) -0.1023(6)
H20 H -0.34210 -0.30700 -0.12570
C26 C -0.4637(14) -0.2026(12) 0.1199(6)
H21 H -0.42290 -0.16470 0.13240
C27 C -0.4465(13) -0.2317(12) 0.0677(7)
H22 H -0.39480 -0.21180 0.04320
C28 C -0.5025(12) -0.2900(12) 0.0493(7)
C29 C -0.5768(14) -0.3186(13) 0.0870(7)
H23 H -0.61940 -0.35590 0.07560
C30 C -0.5874(17) -0.2936(15) 0.1380(7)
H24 H -0.62990 -0.32150 0.16520
C31 C -0.4861(12) -0.0833(12) -0.3763(6)
H25 H -0.45020 -0.04570 -0.35950
C32 C -0.4619(12) -0.1032(11) -0.4309(6)
H26 H -0.40580 -0.08210 -0.45060
C33 C -0.5158(12) -0.1525(12) -0.4584(7)
C34 C -0.6008(12) -0.1734(14) -0.4261(7)
H27 H -0.64760 -0.19990 -0.44330
C35 C -0.6191(11) -0.1575(12) -0.3713(6)
H28 H -0.67560 -0.17590 -0.35020
C36 C -0.5157(13) -0.2543(12) -0.5936(6)
H29 H -0.55770 -0.28350 -0.61250
C37 C -0.5484(11) -0.2244(11) -0.5423(6)
H30 H -0.61230 -0.23420 -0.52480
C38 C -0.4873(11) -0.1784(10) -0.5147(6)
C39 C -0.3915(11) -0.1723(12) -0.5418(7)
H31 H -0.34460 -0.14670 -0.52410
C40 C -0.3647(12) -0.2033(11) -0.5942(7)
H32 H -0.30140 -0.19550 -0.61340
N1 N -0.2736(11) -0.3953(9) -0.7620(5)
N2 N 0.2784(13) -0.7036(13) -0.7333(7)
N3 N -0.6697(10) -0.0713(8) -0.7160(5)
N4 N -1.2248(13) 0.1826(14) -0.7737(7)
N5 N -0.4828(9) -0.3341(9) -0.1235(5)
N6 N -0.5384(13) -0.2278(12) 0.1531(6)
N7 N -0.5593(9) -0.1169(9) -0.3476(5)
N8 N -0.4255(9) -0.2432(9) -0.6175(5)
O40 O 0.3749(13) -0.7707(12) -0.7333(7)
O41 O -0.506(2) -0.3460(19) -0.2931(8)
H33 H -0.46790 -0.33470 -0.32190
H34 H -0.56820 -0.34340 -0.30360
O42 O -0.5221(8) -0.1125(11) -0.1804(5)
O43 O -0.3762(17) -0.1195(15) -0.7682(10)
H35 H -0.33370 -0.14410 -0.79480
H36 H -0.33750 -0.11550 -0.74190
N9 N -0.4770(5) -0.0800(9) -0.1345(3)
C41 C -0.3908(6) -0.0700(11) -0.1098(4)
H37 H -0.32410 -0.08360 -0.13060
C42 C -0.3924(5) -0.0422(12) -0.0581(4)
H38 H -0.32950 -0.03820 -0.04170
C43 C -0.4906(5) -0.0205(12) -0.0312(4)
C44 C -0.5807(6) -0.0300(13) -0.0514(3)
H39 H -0.64440 -0.02620 -0.02900
C45 C -0.5730(6) -0.0453(15) -0.1062(4)
H40 H -0.63870 -0.03080 -0.12610
O44 O -1.261(3) 0.355(3) -0.2396(17)
N10 N 0.3413(19) 0.3926(17) 1.3914(11)
C46 C 0.317(3) 0.423(3) 1.4280(12)
C47 C 0.2760(19) 0.4461(18) 1.4806(10)
H41 H 0.27240 0.38250 1.50500
H42 H 0.20170 0.49860 1.47750
C48 C 0.356(2) 0.4896(18) 1.5053(7)
H43 H 0.42980 0.43600 1.50810
H44 H 0.36110 0.55120 1.47950
C49 C 0.3195(15) 0.5194(12) 1.5617(6)
H45 H 0.24690 0.57460 1.55760
H46 H 0.30930 0.45820 1.58570
C50 C 0.3897(17) 0.5567(16) 1.5921(11)
H47 H 0.35580 0.57430 1.62860
H48 H 0.39920 0.61880 1.56970
H49 H 0.46110 0.50200 1.59840
O45 O 0.4675(19) -0.4983(14) 0.7797(10)
O46 O -0.998(4) 0.379(3) -0.3579(18)
N11? N -0.6318(10) -0.0381(14) -0.1873(9)
C51? C -0.6419(11) 0.0431(16) -0.2288(11)
H50? H -0.58320 0.05070 -0.25260
C52? C -0.7449(12) 0.1122(16) -0.2328(11)
H51? H -0.75710 0.17110 -0.26110
C53? C -0.8326(13) 0.1064(16) -0.2006(11)
C54? C -0.8060(13) 0.0258(18) -0.1577(11)
H52? H -0.86220 0.02260 -0.13110
C55? C -0.7086(15) -0.0501(19) -0.1490(11)
H53? H -0.69520 -0.10630 -0.11890
N12? N -1.1564(12) 0.293(3) -0.2293(6)
C56? C -1.1276(11) 0.244(3) -0.1762(7)
H54? H -1.17980 0.24750 -0.14640
C57? C -1.0202(13) 0.191(3) -0.1683(6)
H55? H -0.99520 0.16620 -0.13060
C58? C -0.9462(14) 0.171(3) -0.2108(7)
C59? C -0.9793(12) 0.234(3) -0.2607(8)
H56? H -0.92530 0.23720 -0.28870
C60? C -1.0850(14) 0.292(3) -0.2728(8)
H57? H -1.10720 0.32820 -0.30930
O47? O -0.569(2) -0.3590(14) -0.6993(10)
W1A W -1.16869(4) -0.05781(4) -0.43196(2)
O1A O -1.1438(6) 0.0664(6) -0.4457(3)
O2A O -1.2314(7) -0.0347(7) -0.5047(4)
O3A O -1.0510(7) -0.1162(7) -0.3794(4)
O4A O -1.1663(7) -0.2038(7) -0.4282(4)
O5A O -1.2819(7) -0.0274(8) -0.3885(4)
O6A O -1.0220(6) -0.1327(6) -0.4872(3)
W2A W -1.12662(4) 0.20454(4) -0.45663(2)
W3A W -1.13279(4) -0.08166(4) -0.56571(2)
W4A W -0.90899(4) -0.18047(4) -0.40952(2)
W5A W -1.05318(5) -0.29059(4) -0.46994(3)
O7A O -1.1902(7) 0.2219(6) -0.5292(4)
O8A O -1.0795(7) 0.3181(7) -0.4793(4)
O9A O -1.2345(8) 0.2622(7) -0.4167(4)
O10A O -1.0097(7) 0.1446(7) -0.4028(4)
O11A O -1.1079(6) 0.0475(7) -0.5747(3)
O12A O -1.2137(7) -0.0620(7) -0.6202(4)
O13A O -1.1320(7) -0.2227(7) -0.5383(4)
O14A O -0.9501(7) -0.3014(7) -0.4114(4)
O15A O -0.8310(8) -0.2329(8) -0.3515(5)
O16A O -1.0711(8) -0.4057(8) -0.4582(4)
W6A W -1.17454(5) -0.53542(4) 0.07744(2)
W7A W -0.83927(5) -0.43062(4) 0.05520(2)
W8A W -1.09772(5) -0.29049(4) 0.04169(3)
W9A W -1.08392(5) -0.77309(4) 0.04313(3)
W10A W -0.91585(5) -0.67459(4) 0.09077(3)
O17A O -0.8836(7) -0.5540(7) 0.0702(4)
O18A O -1.1307(7) -0.4203(7) 0.0592(4)
O19A O -1.1729(7) -0.2656(7) -0.0273(4)
O20A O -0.9769(7) -0.3564(7) 0.0898(4)
O21A O -1.2470(7) -0.5087(7) 0.0071(4)
O22A O -1.2763(8) -0.4924(7) 0.1242(4)
O23A O -0.8275(9) -0.7304(8) 0.1470(5)
O24A O -1.1875(7) -0.6749(7) 0.0839(4)
O25A O -0.7469(8) -0.4602(7) 0.1062(4)
O26A O -1.0496(7) -0.5993(6) 0.1250(4)
O27A O -1.1718(8) -0.7003(7) -0.0232(4)
O28A O -1.0361(7) -0.6268(6) 0.0191(4)
O29A O -1.1926(8) -0.2199(8) 0.0859(5)
O30A O -0.9734(8) -0.7891(7) 0.0952(4)
O31A O -1.0366(8) -0.1899(7) 0.0137(5)
O32A O -1.1186(8) -0.8776(8) 0.0595(4)
O42A O -0.4779(8) 0.1125(11) 0.1804(5)
N9A N -0.5230(5) 0.0800(9) 0.1345(3)
C41A C -0.6092(6) 0.0700(11) 0.1098(4)
H37A H -0.67590 0.08360 0.13060
C42A C -0.6076(5) 0.0422(12) 0.0581(4)
H38A H -0.67050 0.03820 0.04170
C43A C -0.5094(5) 0.0205(12) 0.0312(4)
C44A C -0.4193(6) 0.0300(13) 0.0514(3)
H39A H -0.35560 0.02620 0.02900
C45A C -0.4270(6) 0.0453(15) 0.1062(4)
H40A H -0.36130 0.03080 0.12610
Cu1A Cu -1.52670(15) 0.23236(16) -0.26552(8)
Cu2A Cu -1.47799(14) 0.22384(14) -0.76430(7)
O33A O -1.6201(10) 0.3450(9) -0.2281(4)
O34A O -1.4358(8) 0.1147(7) -0.2994(4)
O35A O -0.6710(12) -0.2331(13) -0.2105(7)
O36A O -1.5282(8) 0.3472(7) -0.8222(4)
O37A O -1.4314(12) 0.1838(11) -1.1991(5)
O38A O -1.4185(8) 0.1016(8) -0.7076(4)
O39A O -1.6129(9) 0.2838(8) -0.3333(4)
C1A C -1.7992(15) 0.3737(13) -0.2031(7)
H1A H -1.77560 0.31660 -0.17370
C2A C -1.9085(12) 0.4305(13) -0.2074(7)
H2A H -1.95900 0.41570 -0.18010
C3A C -1.9450(15) 0.5120(11) -0.2536(7)
C4A C -1.8704(15) 0.5285(14) -0.2920(8)
H3A H -1.89240 0.57770 -0.32510
C5A C -1.7574(16) 0.4702(14) -0.2817(7)
H4A H -1.70350 0.48550 -0.30650
C6A C -2.2475(15) 0.6144(14) -0.2324(7)
H5A H -2.30180 0.59280 -0.21110
C7A C -2.1408(14) 0.5518(13) -0.2261(7)
H6A H -2.12210 0.49100 -0.19890
C8A C -2.0596(14) 0.5760(11) -0.2591(6)
C9A C -2.0902(16) 0.6669(12) -0.2956(8)
H7A H -2.03730 0.68930 -0.31780
C10A C -2.2028(17) 0.7269(13) -0.2996(7)
H8A H -2.22480 0.78690 -0.32740
C11A C -1.3033(11) -0.0171(11) -0.2504(7)
H9A H -1.35820 -0.04410 -0.23420
C12A C -1.1893(15) -0.0743(13) -0.2376(7)
H10A H -1.16870 -0.13970 -0.21400
C13A C -1.1098(13) -0.0317(11) -0.2607(6)
C14A C -1.1501(13) 0.0661(11) -0.2984(6)
H11A H -1.10080 0.09920 -0.31570
C15A C -1.2579(12) 0.1095(11) -0.3086(6)
H12A H -1.28240 0.17110 -0.33510
C16A C -0.8110(14) -0.0843(18) -0.2553(9)
H13A H -0.76050 -0.05040 -0.26940
C17A C -0.9201(16) -0.0352(16) -0.2637(11)
H14A H -0.94500 0.03560 -0.28060
C18A C -0.9931(12) -0.0828(12) -0.2490(7)
C19A C -0.9527(13) -0.1862(14) -0.2242(6)
H15A H -1.00110 -0.22470 -0.21490
C20A C -0.8436(19) -0.2330(15) -0.2130(8)
H16A H -0.81740 -0.30330 -0.19520
C21A C -1.4344(11) 0.3468(11) -0.9071(6)
H17A H -1.37890 0.36320 -0.89060
C22A C -1.4297(12) 0.3361(12) -0.9622(6)
H18A H -1.37000 0.34650 -0.98400
C23A C -1.5082(11) 0.3104(12) -0.9897(5)
C24A C -1.5956(11) 0.3012(11) -0.9553(6)
H19A H -1.65350 0.28660 -0.97060
C25A C -1.5984(12) 0.3135(11) -0.8977(6)
H20A H -1.65790 0.30700 -0.87430
C26A C -1.5363(14) 0.2026(12) -1.1199(6)
H21A H -1.57710 0.16470 -1.13240
C27A C -1.5535(13) 0.2317(12) -1.0677(7)
H22A H -1.60520 0.21180 -1.04320
C28A C -1.4975(12) 0.2900(12) -1.0493(7)
C29A C -1.4232(14) 0.3186(13) -1.0870(7)
H23A H -1.38060 0.35590 -1.07560
C30A C -1.4126(17) 0.2936(15) -1.1380(7)
H24A H -1.37010 0.32150 -1.16520
C31A C -1.5139(12) 0.0833(12) -0.6237(6)
H25A H -1.54980 0.04570 -0.64050
C32A C -1.5381(12) 0.1032(11) -0.5691(6)
H26A H -1.59420 0.08210 -0.54940
C33A C -1.4842(12) 0.1525(12) -0.5416(7)
C34A C -1.3992(12) 0.1734(14) -0.5739(7)
H27A H -1.35240 0.19990 -0.55670
C35A C -1.3809(11) 0.1575(12) -0.6287(6)
H28A H -1.32440 0.17590 -0.64980
C36A C -1.4843(13) 0.2543(12) -0.4064(6)
H29A H -1.44230 0.28350 -0.38750
C37A C -1.4516(11) 0.2244(11) -0.4577(6)
H30A H -1.38770 0.23420 -0.47520
C38A C -1.5127(11) 0.1784(10) -0.4853(6)
C39A C -1.6085(11) 0.1723(12) -0.4582(7)
H31A H -1.65540 0.14670 -0.47590
C40A C -1.6353(12) 0.2033(11) -0.4058(7)
H32A H -1.69860 0.19550 -0.38660
N1A N -1.7264(11) 0.3953(9) -0.2380(5)
N2A N -2.2784(13) 0.7036(13) -0.2667(7)
N3A N -1.3303(10) 0.0713(8) -0.2840(5)
N4A N -0.7752(13) -0.1826(14) -0.2263(7)
N5A N -1.5172(9) 0.3341(9) -0.8765(5)
N6A N -1.4616(13) 0.2278(12) -1.1531(6)
N7A N -1.4407(9) 0.1169(9) -0.6524(5)
N8A N -1.5745(9) 0.2432(9) -0.3825(5)
O40A O -2.3749(13) 0.7707(12) -0.2667(7)
O41A O -1.494(2) 0.3460(19) -0.7069(8)
H33A H -1.53210 0.33470 -0.67810
H34A H -1.43180 0.34340 -0.69640
O43A O -1.6238(17) 0.1195(15) -0.2318(10)
H35A H -1.66630 0.14410 -0.20520
H36A H -1.66250 0.11550 -0.25810
Cu1* Cu -0.47330(15) -0.23236(16) 0.26552(8)
Cu1A* Cu -1.52670(15) 0.23236(16) -1.26552(8)
Cu2* Cu -2.52201(14) 0.77616(14) -0.23570(7)
Cu2A* Cu -0.47799(14) 0.22384(14) 0.23570(7)
Cu2A** Cu 0.52201(14) -0.77616(14) -0.76430(7)
O37* O -0.5686(12) -0.1838(11) -0.8009(5)
O37A* O -1.4314(12) 0.1838(11) -0.1991(5)
O40* O -1.6251(13) 0.2293(12) -0.7333(7)
O40A* O -0.3749(13) -0.2293(12) -0.2667(7)
O42A* O -1.4779(8) 0.1125(11) -0.8196(5)
#END
