
#######################################################################
#
#                 Cambridge Crystallographic Data Centre
#                                CCDC
#
#######################################################################
#
# If this CIF has been generated from an entry in the Cambridge
# Structural Database, then it will include bibliographic, chemical,
# crystal, experimental, refinement or atomic coordinate data resulting
# from the CCDC's data processing and validation procedures.
#
#######################################################################

data_CSD_CIF_ENESOH
_audit_creation_date 2016-05-27
_audit_creation_method CSD-ConQuest-V1
_database_code_CSD ENESOH
_database_code_depnum_ccdc_archive 'CCDC 1456563'
_chemical_formula_sum 'C32 H78 Cu2 Mo16 N24 O77'
_chemical_formula_moiety
;
(C32 H34 Cu2 N24 O5 4+)n,2n(H2 Mo8 O26 2-),20n(H2 O1)
;
_journal_coden_Cambridge 1350
_journal_volume 18
_journal_year 2016
_journal_page_first 5101
_journal_name_full 'CrystEngComm '
loop_
_publ_author_name
"Xiu-Li Wang"
"Xing Rong"
"Dan-Na Liu"
"Hong-Yan Lin"
"Guo-Cheng Liu"
"Xiang Wang"
"Ge Song"
_chemical_name_systematic
;
catena-[tetrakis(\m~2~-N-(pyridin-3-yl)-2-(1H-tetrazol-1-yl)acetamide)-aqua-di
-copper 
bis(bis(\m~5~-oxo)-tetrakis(\m~3~-oxo)-bis(\m~2~-hydroxo)-tetrakis(\m~2~-oxo)-
tetradeca-oxo-octa-molybdenum) icosahydrate]
;
_cell_volume  19615.886
_exptl_crystal_colour 'green'
_exptl_special_details
;
The anion H atoms have not been located and have been placed arbitrarily in 
the 2D diagram
;
_exptl_crystal_description 'block'
_diffrn_ambient_temperature 296
_refine_special_details
;
Disordered solvent water molecules were not modelled and the disordered 
density was taken into account using the SQUEEZE/PLATON procedure.
;
#These two values have been output from a single CSD field.
_refine_ls_R_factor_gt 0.0561
_refine_ls_wR_factor_gt 0.0561
_symmetry_cell_setting orthorhombic
_symmetry_space_group_name_H-M 'C m c a'
_symmetry_Int_Tables_number 64
loop_
_symmetry_equiv_pos_site_id
_symmetry_equiv_pos_as_xyz
1 x,y,z
2 -x,1/2-y,1/2+z
3 x,-y,-z
4 1/2-x,y,1/2-z
5 1/2+x,1/2+y,z
6 1/2-x,-y,1/2+z
7 1/2+x,1/2-y,-z
8 -x,1/2+y,1/2-z
9 -x,-y,-z
10 x,-1/2+y,-1/2-z
11 -x,y,z
12 -1/2+x,-y,-1/2+z
13 -1/2-x,-1/2-y,-z
14 -1/2+x,y,-1/2-z
15 -1/2-x,-1/2+y,z
16 x,-1/2-y,-1/2+z
_cell_length_a 26.9829(10)
_cell_length_b 37.6059(15)
_cell_length_c 19.3314(7)
_cell_angle_alpha 90
_cell_angle_beta 90
_cell_angle_gamma 90
_cell_formula_units_Z 8
loop_
_atom_type_symbol
_atom_type_radius_bond
C 0.68
H 0.23
Cu 1.32
Mo 1.54
N 0.68
O 0.68
loop_
_atom_site_label
_atom_site_type_symbol
_atom_site_fract_x
_atom_site_fract_y
_atom_site_fract_z
Mo1 Mo 0.50000 0.27520(2) 0.65190(4)
Mo2 Mo 0.41413(2) 0.274622(15) 0.78955(3)
Mo3 Mo 0.50000 0.21471(2) 0.79409(4)
Mo4 Mo 0.50000 0.33646(2) 0.78524(4)
Mo5 Mo 0.41484(2) 0.215503(16) 0.65602(3)
Mo6 Mo 0.50000 0.15408(2) 0.65866(4)
O1 O 0.50000 0.26977(17) 0.7747(4)
O2 O 0.50000 0.32059(18) 0.6714(3)
O3 O 0.35292(19) 0.27502(15) 0.7703(3)
O4 O 0.50000 0.16932(17) 0.7724(3)
O5 O 0.41790(18) 0.21525(14) 0.5676(3)
O6 O 0.41706(19) 0.27264(14) 0.8768(3)
O7 O 0.50000 0.2744(2) 0.5631(4)
O8 O 0.50000 0.33811(19) 0.8732(4)
O9 O 0.50000 0.15457(19) 0.5689(4)
O10 O 0.50000 0.1098(2) 0.6799(4)
O11 O 0.56776(19) 0.16732(13) 0.6736(3)
O12 O 0.43026(18) 0.22302(12) 0.7737(2)
O13 O 0.35293(18) 0.21323(14) 0.6746(3)
O14 O 0.50000 0.37962(16) 0.7586(4)
O15 O 0.50000 0.21856(17) 0.6707(3)
O16 O 0.50000 0.2151(2) 0.8819(4)
O17 O 0.43192(19) 0.32194(12) 0.7713(3)
O18 O 0.42988(18) 0.26655(12) 0.6721(2)
Cu1 Cu 0.50000 0.48616(3) 0.80491(7)
C1 C 0.3114(3) 0.29916(18) 0.5829(4)
H1 H 0.28300 0.29980 0.61020
N1 N 0.3124(2) 0.27791(15) 0.5273(3)
O19 O 0.6664(2) 0.62715(15) 0.9011(3)
O20 O 0.50000 0.48494(19) 0.9260(4)
Cu2 Cu 0.25000 0.25000 0.50000
C2 C 0.3527(3) 0.27782(19) 0.4886(4)
H2 H 0.35350 0.26310 0.45000
N2 N 0.5552(2) 0.52302(16) 0.8067(3)
O21 O 0.4071(2) 0.38188(16) 0.6489(3)
C3 C 0.3938(3) 0.2987(2) 0.5031(4)
H3 H 0.42150 0.29800 0.47440
N3 N 0.4479(2) 0.44699(15) 0.8030(3)
C4 C 0.3932(3) 0.3207(2) 0.5606(4)
H4 H 0.42000 0.33520 0.57130
N4 N 0.3454(2) 0.34075(17) 0.6620(3)
H5 H 0.32180 0.33440 0.68920
N5 N 0.3925(3) 0.40752(17) 0.7811(4)
C5 C 0.3517(3) 0.32038(19) 0.6009(4)
C6 C 0.3730(3) 0.36943(18) 0.6821(4)
N6 N 0.4101(2) 0.40051(17) 0.8449(3)
N7 N 0.4438(2) 0.42391(17) 0.8576(3)
C7 C 0.3535(3) 0.3854(2) 0.7493(5)
H6 H 0.32440 0.39980 0.73990
H7 H 0.34400 0.36650 0.78090
N8 N 0.6016(2) 0.59027(17) 0.9257(4)
H8 H 0.58060 0.58530 0.95770
C8 C 0.4160(3) 0.43647(19) 0.7563(4)
H9 H 0.41040 0.44710 0.71360
N9 N 0.6524(2) 0.66588(15) 1.0201(3)
C9 C 0.5630(3) 0.54420(19) 0.8620(4)
H10 H 0.54100 0.54240 0.89890
N10 N 0.6769(3) 0.68938(17) 0.9823(4)
C10 C 0.5892(4) 0.5249(2) 0.7555(5)
H11 H 0.58470 0.51070 0.71650
N11 N 0.7054(2) 0.70855(15) 1.0243(3)
C11 C 0.6300(4) 0.5467(3) 0.7585(5)
H12 H 0.65330 0.54650 0.72300
N12 N 0.6952(2) 0.69639(18) 1.0903(3)
C12 C 0.6363(4) 0.5691(2) 0.8145(5)
H13 H 0.66340 0.58440 0.81680
C13 C 0.6152(3) 0.6401(2) 1.0008(4)
H14 H 0.58430 0.65230 0.99060
H15 H 0.60930 0.62410 1.03930
C14 C 0.6637(2) 0.67121(17) 1.0873(3)
H16 H 0.65080 0.65870 1.12470
C15 C 0.6316(3) 0.61856(19) 0.9370(4)
C16 C 0.6015(3) 0.56836(19) 0.8674(4)
O22 O 0.24610(19) 0.42459(12) 1.0494(3)
Mo7 Mo 0.24739(2) 0.409816(16) 0.93425(3)
O23 O 0.2463(2) 0.52995(14) 0.8420(3)
O24 O 0.39495(19) 0.47018(14) 0.9541(3)
O25 O 0.31623(17) 0.52198(12) 0.9497(2)
Mo8 Mo 0.24706(2) 0.530466(15) 0.92925(3)
O26 O 0.17673(18) 0.52177(13) 0.9492(3)
Mo9 Mo 0.33348(2) 0.470705(15) 0.93363(3)
O27 O 0.0995(2) 0.47036(17) 0.9503(4)
O28 O 0.1637(2) 0.47171(16) 0.8437(3)
Mo10 Mo 0.16110(2) 0.471072(17) 0.93166(4)
O29 O 0.2447(2) 0.36641(13) 0.9573(3)
O30 O 0.24605(17) 0.47408(13) 0.9468(3)
O31 O 0.17879(19) 0.42310(13) 0.9501(3)
O32 O 0.2471(2) 0.41015(16) 0.8458(3)
O33 O 0.31498(19) 0.42264(13) 0.9505(3)
O34 O 0.3311(2) 0.47166(14) 0.8456(3)
Mo2J Mo 0.58587(2) 0.274622(15) 0.78955(3)
Mo5J Mo 0.58516(2) 0.215503(16) 0.65602(3)
O3J O 0.64708(19) 0.27502(15) 0.7703(3)
O5J O 0.58210(18) 0.21525(14) 0.5676(3)
O6J O 0.58294(19) 0.27264(14) 0.8768(3)
O11J O 0.43224(19) 0.16732(13) 0.6736(3)
O12J O 0.56974(18) 0.22302(12) 0.7737(2)
O13J O 0.64707(18) 0.21323(14) 0.6746(3)
O17J O 0.56808(19) 0.32194(12) 0.7713(3)
O18J O 0.57012(18) 0.26655(12) 0.6721(2)
C1J C 0.6886(3) 0.29916(18) 0.5829(4)
H1J H 0.71700 0.29980 0.61020
N1J N 0.6876(2) 0.27791(15) 0.5273(3)
O19J O 0.3336(2) 0.62715(15) 0.9011(3)
C2J C 0.6473(3) 0.27782(19) 0.4886(4)
H2J H 0.64650 0.26310 0.45000
N2J N 0.4448(2) 0.52302(16) 0.8067(3)
O21J O 0.5929(2) 0.38188(16) 0.6489(3)
C3J C 0.6062(3) 0.2987(2) 0.5031(4)
H3J H 0.57850 0.29800 0.47440
N3J N 0.5521(2) 0.44699(15) 0.8030(3)
C4J C 0.6068(3) 0.3207(2) 0.5606(4)
H4J H 0.58000 0.33520 0.57130
N4J N 0.6546(2) 0.34075(17) 0.6620(3)
H5J H 0.67820 0.33440 0.68920
N5J N 0.6075(3) 0.40752(17) 0.7811(4)
C5J C 0.6483(3) 0.32038(19) 0.6009(4)
C6J C 0.6270(3) 0.36943(18) 0.6821(4)
N6J N 0.5899(2) 0.40051(17) 0.8449(3)
N7J N 0.5562(2) 0.42391(17) 0.8576(3)
C7J C 0.6465(3) 0.3854(2) 0.7493(5)
H6J H 0.67560 0.39980 0.73990
H7J H 0.65600 0.36650 0.78090
N8J N 0.3984(2) 0.59027(17) 0.9257(4)
H8J H 0.41940 0.58530 0.95770
C8J C 0.5840(3) 0.43647(19) 0.7563(4)
H9J H 0.58960 0.44710 0.71360
N9J N 0.3476(2) 0.66588(15) 1.0201(3)
C9J C 0.4370(3) 0.54420(19) 0.8620(4)
H10J H 0.45900 0.54240 0.89890
N10J N 0.3231(3) 0.68938(17) 0.9823(4)
C10J C 0.4108(4) 0.5249(2) 0.7555(5)
H11J H 0.41530 0.51070 0.71650
N11J N 0.2946(2) 0.70855(15) 1.0243(3)
C11J C 0.3700(4) 0.5467(3) 0.7585(5)
H12J H 0.34670 0.54650 0.72300
N12J N 0.3048(2) 0.69639(18) 1.0903(3)
C12J C 0.3637(4) 0.5691(2) 0.8145(5)
H13J H 0.33660 0.58440 0.81680
C13J C 0.3848(3) 0.6401(2) 1.0008(4)
H14J H 0.41570 0.65230 0.99060
H15J H 0.39070 0.62410 1.03930
C14J C 0.3363(2) 0.67121(17) 1.0873(3)
H16J H 0.34920 0.65870 1.12470
C15J C 0.3684(3) 0.61856(19) 0.9370(4)
C16J C 0.3985(3) 0.56836(19) 0.8674(4)
N1L N 0.1876(2) 0.22209(15) 0.4727(3)
Cu2E Cu 0.25000 0.75000 1.00000
Cu2F Cu 0.75000 0.25000 0.50000
Cu2G Cu 0.75000 0.75000 1.00000
N11G N 0.2946(2) 0.20855(15) 0.4757(3)
N11K N 0.2054(2) 0.29145(15) 0.5243(3)
O22B O 0.24610(19) 0.57541(12) 0.9506(3)
Mo7B Mo 0.24739(2) 0.590184(16) 1.06575(3)
O23B O 0.2463(2) 0.47005(14) 1.1580(3)
O24B O 0.39495(19) 0.52982(14) 1.0459(3)
O25B O 0.31623(17) 0.47802(12) 1.0503(2)
Mo8B Mo 0.24706(2) 0.469534(15) 1.07075(3)
O26B O 0.17673(18) 0.47823(13) 1.0508(3)
Mo9B Mo 0.33348(2) 0.529295(15) 1.06637(3)
O27B O 0.0995(2) 0.52964(17) 1.0497(4)
O28B O 0.1637(2) 0.52829(16) 1.1563(3)
Mo10B Mo 0.16110(2) 0.528928(17) 1.06834(4)
O29B O 0.2447(2) 0.63359(13) 1.0427(3)
O30B O 0.24605(17) 0.52592(13) 1.0532(3)
O31B O 0.17879(19) 0.57690(13) 1.0499(3)
O32B O 0.2471(2) 0.58985(16) 1.1542(3)
O33B O 0.31498(19) 0.57736(13) 1.0495(3)
O34B O 0.3311(2) 0.52834(14) 1.1544(3)
#END
