
#######################################################################
#
#                 Cambridge Crystallographic Data Centre
#                                CCDC
#
#######################################################################
#
# If this CIF has been generated from an entry in the Cambridge
# Structural Database, then it will include bibliographic, chemical,
# crystal, experimental, refinement or atomic coordinate data resulting
# from the CCDC's data processing and validation procedures.
#
#######################################################################

data_CSD_CIF_ENESUN
_audit_creation_date 2016-05-27
_audit_creation_method CSD-ConQuest-V1
_database_code_CSD ENESUN
_database_code_depnum_ccdc_archive 'CCDC 1456564'
_chemical_formula_sum 'C32 H88 Co2 Mo16 N24 O82'
_chemical_formula_moiety
;
(C32 H40 Co2 N24 O8 4+)n,2n(H2 Mo8 O26 2-),22n(H2 O1)
;
_journal_coden_Cambridge 1350
_journal_volume 18
_journal_year 2016
_journal_page_first 5101
_journal_name_full 'CrystEngComm '
loop_
_publ_author_name
"Xiu-Li Wang"
"Xing Rong"
"Dan-Na Liu"
"Hong-Yan Lin"
"Guo-Cheng Liu"
"Xiang Wang"
"Ge Song"
_chemical_name_systematic
;
catena-[tetrakis(\m~2~-N-(pyridin-3-yl)-2-(1H-tetrazol-1-yl)acetamide)-tetra-a
qua-di-cobalt 
bis(bis(\m~5~-oxo)-tetrakis(\m~3~-oxo)-bis(\m~2~-hydroxo)-tetrakis(\m~2~-oxo)-
tetradeca-oxo-octa-molybdenum) docosahydrate]
;
_cell_volume  19811.988
_exptl_crystal_colour 'pink'
_exptl_special_details
;
The anion H atoms have not been located and have been placed arbitrarily in 
the 2D diagram
;
_exptl_crystal_description 'block'
_diffrn_ambient_temperature 296
_refine_special_details
;
Disordered solvent water molecules were not modelled and the disordered 
density was taken into account using the SQUEEZE/PLATON procedure.
;
#These two values have been output from a single CSD field.
_refine_ls_R_factor_gt 0.0475
_refine_ls_wR_factor_gt 0.0475
_symmetry_cell_setting orthorhombic
_symmetry_space_group_name_H-M 'C m c a'
_symmetry_Int_Tables_number 64
loop_
_symmetry_equiv_pos_site_id
_symmetry_equiv_pos_as_xyz
1 x,y,z
2 -x,1/2-y,1/2+z
3 x,-y,-z
4 1/2-x,y,1/2-z
5 1/2+x,1/2+y,z
6 1/2-x,-y,1/2+z
7 1/2+x,1/2-y,-z
8 -x,1/2+y,1/2-z
9 -x,-y,-z
10 x,-1/2+y,-1/2-z
11 -x,y,z
12 -1/2+x,-y,-1/2+z
13 -1/2-x,-1/2-y,-z
14 -1/2+x,y,-1/2-z
15 -1/2-x,-1/2+y,z
16 x,-1/2-y,-1/2+z
_cell_length_a 27.0900(13)
_cell_length_b 38.2760(13)
_cell_length_c 19.1070(8)
_cell_angle_alpha 90
_cell_angle_beta 90
_cell_angle_gamma 90
_cell_formula_units_Z 8
loop_
_atom_type_symbol
_atom_type_radius_bond
C 0.68
H 0.23
Co 1.26
Mo 1.54
N 0.68
O 0.68
loop_
_atom_site_label
_atom_site_type_symbol
_atom_site_fract_x
_atom_site_fract_y
_atom_site_fract_z
Mo1 Mo 0.50000 0.775117(18) 0.35048(3)
Mo2 Mo 0.585605(19) 0.775901(13) 0.21198(3)
Mo3 Mo 0.50000 0.716949(18) 0.20480(3)
Mo4 Mo 0.584675(19) 0.716365(13) 0.34415(3)
Mo5 Mo 0.50000 0.655824(19) 0.33908(4)
Mo6 Mo 0.50000 0.836847(18) 0.21791(4)
O1 O 0.50000 0.77335(16) 0.4392(3)
O2 O 0.50000 0.81984(14) 0.3319(3)
O3 O 0.58070(17) 0.71524(12) 0.4335(2)
O4 O 0.50000 0.87860(14) 0.2449(3)
O5 O 0.64688(16) 0.77601(12) 0.2318(2)
O6 O 0.64637(16) 0.71441(11) 0.3260(2)
O7 O 0.43268(16) 0.82231(10) 0.2317(2)
O8 O 0.58274(17) 0.77493(12) 0.1233(2)
O9 O 0.50000 0.65558(17) 0.4300(3)
O10 O 0.50000 0.67229(15) 0.2244(3)
O11 O 0.50000 0.71852(16) 0.1161(3)
O12 O 0.50000 0.61344(16) 0.3154(4)
O13 O 0.50000 0.71980(14) 0.3294(3)
O14 O 0.56743(16) 0.66895(10) 0.3236(2)
O15 O 0.56959(15) 0.7248(1) 0.2253(2)
O16 O 0.56954(15) 0.76626(10) 0.3302(2)
O17 O 0.50000 0.77106(14) 0.2261(3)
O18 O 0.50000 0.83879(16) 0.1290(3)
Co1 Co 0.50000 0.48789(3) 0.30238(6)
O19 O 0.50000 0.4852(2) 0.1908(4)
O20 O 0.4078(2) 0.38308(13) 0.1472(3)
N1 N 0.44646(19) 0.44708(13) 0.3021(3)
C1 C 0.3143(3) 0.30066(17) 0.0801(3)
H1 H 0.28600 0.30120 0.10780
Co2 Co 0.75000 0.75000 0.50000
O21 O 0.50000 0.48636(16) 0.4155(3)
O22 O 0.66551(19) 0.62922(13) 0.4041(3)
C2 C 0.3530(2) 0.32250(17) 0.0987(4)
N2 N 0.4440(2) 0.42373(14) 0.3563(3)
N3 N 0.4112(2) 0.40021(15) 0.3430(3)
C3 C 0.3561(3) 0.27858(18) -0.0131(4)
H2 H 0.35770 0.26350 -0.05110
O23 O 0.7432(3) 0.7740(2) 0.6048(3)
N4 N 0.3917(2) 0.40796(14) 0.2807(3)
C4 C 0.3965(3) 0.29964(19) 0.0012(4)
H3 H 0.42440 0.29860 -0.02700
N5 N 0.3461(2) 0.34317(15) 0.1590(3)
H4 H 0.32180 0.33750 0.18570
N6 N 0.3145(2) 0.27911(13) 0.0262(3)
N7 N 0.5589(2) 0.52519(13) 0.3062(3)
N8 N 0.6008(2) 0.59258(14) 0.4264(3)
H5 H 0.57830 0.58810 0.45700
N9 N 0.65068(19) 0.66594(12) 0.5244(3)
C5 C 0.3950(3) 0.32200(19) 0.0572(4)
H6 H 0.42160 0.33650 0.06720
N10 N 0.6642(2) 0.66921(13) 0.5925(3)
C6 C 0.3731(2) 0.37058(16) 0.1791(4)
N11 N 0.69647(19) 0.69456(14) 0.5949(3)
C7 C 0.3540(3) 0.38557(18) 0.2480(4)
H7 H 0.32440 0.39910 0.23930
H8 H 0.34550 0.36660 0.27950
N12 N 0.70351(19) 0.70790(13) 0.5301(3)
C8 C 0.4138(2) 0.43663(16) 0.2559(3)
H9 H 0.40720 0.44730 0.21320
C9 C 0.5937(3) 0.52672(18) 0.2570(4)
H10 H 0.59040 0.51260 0.21770
C10 C 0.6345(3) 0.5481(2) 0.2616(4)
H11 H 0.65880 0.54720 0.22730
C11 C 0.6392(3) 0.5708(2) 0.3168(4)
H12 H 0.66590 0.58600 0.31970
C12 C 0.5643(2) 0.54687(16) 0.3611(3)
H13 H 0.54080 0.54610 0.39650
C13 C 0.6034(2) 0.57051(16) 0.3678(3)
C14 C 0.6304(2) 0.62007(15) 0.4386(3)
C15 C 0.6139(2) 0.64068(15) 0.5042(3)
H14 H 0.58300 0.65260 0.49450
H15 H 0.60820 0.62450 0.54260
C16 C 0.6747(2) 0.68991(15) 0.4873(3)
H16 H 0.67170 0.69340 0.43940
O24 O 0.68185(15) 0.52109(10) 0.4492(2)
O25 O 0.60328(16) 0.47073(11) 0.4541(2)
O26 O 0.68278(16) 0.42388(10) 0.4514(2)
Mo7 Mo 0.66461(2) 0.470886(13) 0.43369(3)
O27 O 0.75042(19) 0.41045(12) 0.3459(2)
Mo8 Mo 0.75032(2) 0.410782(14) 0.43540(3)
O28 O 0.75308(19) 0.36827(11) 0.4599(2)
Mo9 Mo 0.750758(19) 0.470359(13) 0.57202(3)
O29 O 0.81809(17) 0.42407(11) 0.4505(3)
Mo10 Mo 0.83618(2) 0.471109(15) 0.43200(3)
O30 O 0.8336(2) 0.47138(13) 0.3430(3)
O31 O 0.89762(19) 0.47045(15) 0.4518(3)
O32 O 0.82050(16) 0.52133(11) 0.4483(2)
O33 O 0.75140(16) 0.42619(11) 0.5509(2)
O34 O 0.75111(19) 0.47091(12) 0.6606(2)
O35 O 0.66737(18) 0.47178(12) 0.3449(2)
O36 O 0.75142(15) 0.47418(11) 0.4472(2)
Mo2J Mo 0.414395(19) 0.775901(13) 0.21198(3)
Mo4J Mo 0.415325(19) 0.716365(13) 0.34415(3)
O3J O 0.41930(17) 0.71524(12) 0.4335(2)
O5J O 0.35312(16) 0.77601(12) 0.2318(2)
O6J O 0.35363(16) 0.71441(11) 0.3260(2)
O7J O 0.56732(16) 0.82231(10) 0.2317(2)
O8J O 0.41726(17) 0.77493(12) 0.1233(2)
O14J O 0.43257(16) 0.66895(10) 0.3236(2)
O15J O 0.43041(15) 0.7248(1) 0.2253(2)
O16J O 0.43046(15) 0.76626(10) 0.3302(2)
O20J O 0.5922(2) 0.38308(13) 0.1472(3)
N1J N 0.55354(19) 0.44708(13) 0.3021(3)
C1J C 0.6857(3) 0.30066(17) 0.0801(3)
H1J H 0.71400 0.30120 0.10780
O22J O 0.33449(19) 0.62922(13) 0.4041(3)
C2J C 0.6470(2) 0.32250(17) 0.0987(4)
N2J N 0.5560(2) 0.42373(14) 0.3563(3)
N3J N 0.5888(2) 0.40021(15) 0.3430(3)
C3J C 0.6439(3) 0.27858(18) -0.0131(4)
H2J H 0.64230 0.26350 -0.05110
N4J N 0.6083(2) 0.40796(14) 0.2807(3)
C4J C 0.6035(3) 0.29964(19) 0.0012(4)
H3J H 0.57560 0.29860 -0.02700
N5J N 0.6539(2) 0.34317(15) 0.1590(3)
H4J H 0.67820 0.33750 0.18570
N6J N 0.6855(2) 0.27911(13) 0.0262(3)
N7J N 0.4411(2) 0.52519(13) 0.3062(3)
N8J N 0.3992(2) 0.59258(14) 0.4264(3)
H5J H 0.42170 0.58810 0.45700
N9J N 0.34932(19) 0.66594(12) 0.5244(3)
C5J C 0.6050(3) 0.32200(19) 0.0572(4)
H6J H 0.57840 0.33650 0.06720
N10J N 0.3358(2) 0.66921(13) 0.5925(3)
C6J C 0.6269(2) 0.37058(16) 0.1791(4)
N11J N 0.30353(19) 0.69456(14) 0.5949(3)
C7J C 0.6460(3) 0.38557(18) 0.2480(4)
H7J H 0.67560 0.39910 0.23930
H8J H 0.65450 0.36660 0.27950
N12J N 0.29649(19) 0.70790(13) 0.5301(3)
C8J C 0.5862(2) 0.43663(16) 0.2559(3)
H9J H 0.59280 0.44730 0.21320
C9J C 0.4063(3) 0.52672(18) 0.2570(4)
H10J H 0.40960 0.51260 0.21770
C10J C 0.3655(3) 0.5481(2) 0.2616(4)
H11J H 0.34120 0.54720 0.22730
C11J C 0.3608(3) 0.5708(2) 0.3168(4)
H12J H 0.33410 0.58600 0.31970
C12J C 0.4357(2) 0.54687(16) 0.3611(3)
H13J H 0.45920 0.54610 0.39650
C13J C 0.3966(2) 0.57051(16) 0.3678(3)
C14J C 0.3696(2) 0.62007(15) 0.4386(3)
C15J C 0.3861(2) 0.64068(15) 0.5042(3)
H14J H 0.41700 0.65260 0.49450
H15J H 0.39180 0.62450 0.54260
C16J C 0.3253(2) 0.68991(15) 0.4873(3)
H16J H 0.32830 0.69340 0.43940
O23L O 0.7568(3) 0.7260(2) 0.3952(3)
Co2E Co 0.75000 0.25000 0.00000
Co2F Co 0.25000 0.75000 0.50000
Co2G Co 0.25000 0.25000 0.00000
N6G N 0.6855(2) 0.77911(13) 0.4738(3)
N6K N 0.8145(2) 0.72089(13) 0.5262(3)
N12L N 0.79649(19) 0.79210(13) 0.4699(3)
O24B O 0.68185(15) 0.47891(10) 0.5508(2)
O25B O 0.60328(16) 0.52927(11) 0.5459(2)
O26B O 0.68278(16) 0.57612(10) 0.5486(2)
Mo7B Mo 0.66461(2) 0.529114(13) 0.56631(3)
O27B O 0.75042(19) 0.58955(12) 0.6541(2)
Mo8B Mo 0.75032(2) 0.589218(14) 0.56460(3)
O28B O 0.75308(19) 0.63173(11) 0.5401(2)
Mo9B Mo 0.750758(19) 0.529641(13) 0.42798(3)
O29B O 0.81809(17) 0.57593(11) 0.5495(3)
Mo10B Mo 0.83618(2) 0.528891(15) 0.56800(3)
O30B O 0.8336(2) 0.52862(13) 0.6570(3)
O31B O 0.89762(19) 0.52955(15) 0.5482(3)
O32B O 0.82050(16) 0.47867(11) 0.5517(2)
O33B O 0.75140(16) 0.57381(11) 0.4491(2)
O34B O 0.75111(19) 0.52909(12) 0.3394(2)
O35B O 0.66737(18) 0.52822(12) 0.6551(2)
O36B O 0.75142(15) 0.52582(11) 0.5528(2)
#END
