
#######################################################################
#
#                 Cambridge Crystallographic Data Centre
#                                CCDC
#
#######################################################################
#
# If this CIF has been generated from an entry in the Cambridge
# Structural Database, then it will include bibliographic, chemical,
# crystal, experimental, refinement or atomic coordinate data resulting
# from the CCDC's data processing and validation procedures.
#
#######################################################################

data_CSD_CIF_ENUMIL
_audit_creation_date 2016-06-23
_audit_creation_method CSD-ConQuest-V1
_database_code_CSD ENUMIL
_database_code_depnum_ccdc_archive 'CCDC 1023471'
_chemical_formula_sum 'C28 H36 F36 Mg2 N8 O26 S12'
_chemical_formula_moiety
;
(C12 F36 Mg2 N6 O24 S12 2-)n,2(C8 H18 N1 O1 1+)
;
_journal_coden_Cambridge 983
_journal_volume 119
_journal_year 2015
_journal_page_first 5878
_journal_name_full 'J.Phys.Chem.C '
loop_
_publ_author_name
"G.A.Giffin"
"J.Tannert"
"Sangsik Jeong"
"W.Uhl"
"S.Passerini"
_chemical_name_systematic
;
catena-[bis(\m-bis((trifluoromethyl)sulfonyl)azanido)-tetrakis(bis((trifluorom
ethyl)sulfonyl)azanido)-di-magnesium 
bis(1-(2-methoxyethyl)-1-methylpyrrolidinium)]
;
_cell_volume   1765.861
_exptl_crystal_colour 'colorless'
_exptl_crystal_density_diffrn 1.898
_exptl_special_details
;
Air-sensitive, Moisture-sensitive, Hygroscopic

;
_exptl_crystal_description 'block'
_exptl_crystal_preparation 'From the Melt'
_diffrn_ambient_temperature 153
_diffrn_special_details
;
twin

;
_refine_special_details
;
C81,C82,C83,C84,C85,C86,C87,C89 and C81A,C82A,C83A,C84A,C85A,C86A,C87A,C89A 
disordered over two sites with occupancies 0.768:0.232.
;
#These two values have been output from a single CSD field.
_refine_ls_R_factor_gt 0.0334
_refine_ls_wR_factor_gt 0.0334
_symmetry_cell_setting triclinic
_symmetry_space_group_name_H-M 'P 1'
_symmetry_Int_Tables_number 1
loop_
_symmetry_equiv_pos_site_id
_symmetry_equiv_pos_as_xyz
1 x,y,z
_cell_length_a 11.4359(2)
_cell_length_b 12.0538(2)
_cell_length_c 13.8956(2)
_cell_angle_alpha 69.152(1)
_cell_angle_beta 82.960(1)
_cell_angle_gamma 81.651(1)
_cell_formula_units_Z 1
loop_
_atom_type_symbol
_atom_type_radius_bond
C 0.68
H 0.23
F 0.64
Mg 1.41
N 0.68
O 0.68
S 1.02
loop_
_atom_site_label
_atom_site_type_symbol
_atom_site_fract_x
_atom_site_fract_y
_atom_site_fract_z
Mg1 Mg -0.16368(5) 0.99415(5) 0.00665(5)
S1 S -0.18487(4) 0.79352(4) -0.09843(4)
O1 O -0.14710(13) 0.83971(13) -0.02546(12)
O2 O -0.09645(18) 0.72759(19) -0.14447(17)
C1 C -0.2831(3) 0.6833(2) -0.0163(2)
F1 F -0.2186(2) 0.59342(15) 0.04738(15)
F2 F -0.3358(3) 0.6415(2) -0.07473(19)
F3 F -0.36450(17) 0.72940(18) 0.03788(16)
N1 N -0.26486(16) 0.88427(16) -0.18157(14)
S2 S -0.30887(4) 1.01750(4) -0.19263(3)
O3 O -0.26962(12) 1.05694(12) -0.11570(11)
O4 O -0.29694(15) 1.09403(15) -0.29734(12)
C2 C -0.46932(19) 1.0156(2) -0.1613(2)
F4 F -0.49257(15) 0.94187(18) -0.06690(15)
F5 F -0.51544(16) 0.9815(2) -0.22722(19)
F6 F -0.51734(13) 1.12421(15) -0.16755(16)
S3 S -0.36204(5) 0.97869(5) 0.19674(4)
O5 O -0.30650(13) 0.94599(13) 0.10937(12)
O6 O -0.3395(2) 0.8992(2) 0.29768(15)
C3 C -0.5196(2) 0.9771(3) 0.1839(3)
F7 F -0.53535(17) 0.8684(2) 0.1906(2)
F8 F -0.55040(16) 1.0521(2) 0.09336(19)
F9 F -0.5862(2) 1.0034(3) 0.2585(2)
N2 N -0.3535(2) 1.11124(19) 0.18690(16)
S4 S -0.28177(4) 1.20329(4) 0.10021(4)
O7 O -0.20127(13) 1.15280(13) 0.03316(12)
O8 O -0.23420(17) 1.27753(19) 0.14207(17)
C4 C -0.3912(2) 1.3034(2) 0.0133(2)
F10 F -0.43630(16) 1.24656(17) -0.03606(15)
F11 F -0.47669(19) 1.3474(2) 0.0657(2)
F12 F -0.3384(2) 1.39228(16) -0.05620(18)
S5 S 0.02771(4) 0.81368(4) 0.16160(3)
O9 O -0.05845(13) 0.91796(13) 0.12857(11)
O10 O 0.07499(14) 0.75856(14) 0.08810(11)
C5 C 0.15101(18) 0.87554(18) 0.19013(17)
F13 F 0.19945(15) 0.94582(15) 0.10209(13)
F14 F 0.11377(14) 0.94079(14) 0.24943(12)
F15 F 0.23108(13) 0.79009(14) 0.23682(14)
N3 N -0.01293(17) 0.73134(15) 0.27274(12)
S6 S -0.02790(4) 0.59589(4) 0.30696(3)
O11 O 0.01225(17) 0.53520(15) 0.23605(13)
O12 O 0.00647(13) 0.53884(14) 0.41155(11)
C6 C -0.18918(19) 0.5966(2) 0.32407(18)
F16 F -0.23514(13) 0.64202(16) 0.39564(12)
F17 F -0.23493(14) 0.66102(17) 0.23619(13)
F18 F -0.21608(16) 0.48616(16) 0.35324(19)
Mg2 Mg 0.16145(5) 0.47316(5) 0.48073(5)
S7 S 0.33286(5) 0.49321(5) 0.26809(4)
O13 O 0.18532(14) 0.31796(14) 0.44768(13)
O14 O 0.1941(2) 0.1998(2) 0.3355(2)
C7 C 0.4879(2) 0.4935(2) 0.2910(2)
F19 F 0.50943(14) 0.42575(18) 0.38547(14)
F20 F 0.50672(17) 0.60357(18) 0.27631(19)
F21 F 0.56039(15) 0.4550(2) 0.22552(17)
N4 N 0.3239(2) 0.3587(2) 0.28458(18)
S8 S 0.25367(5) 0.26896(6) 0.37407(5)
O15 O 0.26602(13) 0.53487(14) 0.34663(11)
O16 O 0.3220(2) 0.5678(2) 0.16263(14)
C8 C 0.3686(3) 0.1617(3) 0.4507(3)
F22 F 0.41840(19) 0.21085(17) 0.50376(17)
F23 F 0.3191(3) 0.06996(18) 0.5153(2)
F24 F 0.4514(2) 0.1264(3) 0.3905(2)
S9 S 0.20850(4) 0.66953(4) 0.58024(4)
O17 O 0.15682(13) 0.63038(12) 0.50930(12)
O18 O 0.13168(19) 0.73911(17) 0.63106(15)
C9 C 0.3121(3) 0.7723(2) 0.4939(2)
F25 F 0.3783(2) 0.80480(17) 0.54810(17)
F26 F 0.24801(19) 0.86927(14) 0.43598(15)
F27 F 0.37960(16) 0.72204(17) 0.43411(14)
N5 N 0.28649(17) 0.57050(15) 0.65975(13)
S10 S 0.33378(4) 0.44230(4) 0.65646(3)
O19 O 0.30815(12) 0.42200(12) 0.56464(11)
O20 O 0.31095(16) 0.35275(14) 0.75377(12)
C10 C 0.49561(19) 0.4446(2) 0.64082(19)
F28 F 0.54563(13) 0.34204(15) 0.63408(15)
F29 F 0.53166(15) 0.45915(18) 0.72188(15)
F30 F 0.52722(13) 0.53188(16) 0.55742(14)
S11 S -0.02045(4) 0.31294(4) 0.65811(3)
O21 O -0.05345(15) 0.25990(13) 0.59039(11)
O22 O 0.06082(13) 0.40312(13) 0.61613(11)
C11 C -0.15557(18) 0.3952(2) 0.69495(17)
F31 F -0.23130(13) 0.31947(16) 0.75084(13)
F32 F -0.13181(14) 0.45925(15) 0.74839(13)
F33 F -0.20414(14) 0.46832(15) 0.61020(13)
N6 N 0.01837(17) 0.22981(15) 0.76693(13)
S12 S 0.02471(4) 0.09083(4) 0.81053(3)
O23 O -0.01867(16) 0.03237(14) 0.75161(12)
O24 O -0.01389(12) 0.05489(14) 0.91911(10)
C12 C 0.1846(2) 0.0483(3) 0.8109(2)
F34 F 0.2064(2) -0.0679(2) 0.8463(2)
F35 F 0.23192(14) 0.0904(2) 0.87031(14)
F36 F 0.23396(16) 0.0920(3) 0.71686(15)
N7 N 0.87365(16) 1.00400(16) 0.46629(13)
C13 C 0.74888(19) 1.0673(2) 0.46281(19)
H1 H 0.70710 1.04270 0.53000
H2 H 0.70550 1.05070 0.41550
C14 C 0.7652(2) 1.2002(2) 0.4261(2)
H3 H 0.75960 1.22720 0.48390
H4 H 0.70570 1.24670 0.38050
C15 C 0.8893(2) 1.2123(2) 0.36924(18)
H5 H 0.88470 1.26640 0.29940
H6 H 0.93940 1.24100 0.40380
C16 C 0.9364(2) 1.0868(2) 0.37151(16)
H7 H 0.91900 1.07490 0.31030
H8 H 1.02060 1.07320 0.37640
C17 C 0.9280(2) 0.9977(2) 0.56156(17)
H9 H 0.88210 0.95270 0.62180
H10 H 0.92880 1.07700 0.56210
H11 H 1.00760 0.95940 0.56160
C18 C 0.8826(2) 0.8820(2) 0.4575(2)
H12 H 0.96440 0.85720 0.44260
H13 H 0.84020 0.88780 0.40010
C19 C 0.8350(2) 0.7864(2) 0.5529(2)
H14 H 0.84460 0.71120 0.54210
H15 H 0.87740 0.77770 0.61110
O25 O 0.7139(2) 0.82177(19) 0.57149(17)
C20 C 0.6594(3) 0.7348(3) 0.6534(3)
H16 H 0.65690 0.66600 0.63450
H17 H 0.58010 0.76620 0.66880
H18 H 0.70360 0.71250 0.71310
N8 N 0.12186(15) 0.43572(16) 0.98948(14)
O26 O 0.31714(17) 0.58392(18) 0.90689(15)
C21 C 0.0362(3) 0.3683(3) 1.0759(3)
H19 H -0.04440 0.39390 1.05870
H20 H 0.04570 0.37950 1.13940
C22 C 0.0729(9) 0.2312(8) 1.0846(9)
H21 H 0.05110 0.17720 1.15210
H22 H 0.03770 0.21230 1.03380
C23 C 0.2020(6) 0.2286(5) 1.0642(5)
H23 H 0.22970 0.18030 1.02230
H24 H 0.23900 0.19390 1.12820
C24 C 0.2352(6) 0.3536(4) 1.0093(6)
H25 H 0.28200 0.37520 1.05140
H26 H 0.28050 0.35860 0.94530
C25 C 0.0822(3) 0.4574(3) 0.8869(3)
H27 H 0.01010 0.51060 0.87740
H28 H 0.06850 0.38310 0.88180
H29 H 0.14210 0.49280 0.83470
C26 C 0.1305(3) 0.5546(2) 1.0035(2)
H30 H 0.05160 0.59310 1.00930
H31 H 0.16490 0.53800 1.06750
C27 C 0.2014(4) 0.6402(4) 0.9190(4)
H32 H 0.16380 0.66460 0.85550
H33 H 0.20560 0.71000 0.93590
C28 C 0.3930(5) 0.6683(5) 0.8431(4)
H34 H 0.39290 0.73030 0.87150
H35 H 0.36560 0.70250 0.77500
H36 H 0.47210 0.62940 0.83960
C29? C 0.0381(11) 0.3447(11) 0.9738(11)
H37? H -0.04360 0.37730 0.96920
H38? H 0.06580 0.32140 0.91500
C30? C 0.0577(19) 0.2507(19) 1.068(2)
H39? H 0.01460 0.18380 1.07960
H40? H 0.04820 0.27550 1.12720
C31? C 0.1921(16) 0.2342(14) 1.0233(15)
H41? H 0.23670 0.16950 1.07210
H42? H 0.19590 0.21830 0.96000
C32? C 0.242(3) 0.358(3) 1.004(3)
H43? H 0.27880 0.35720 1.06250
H44? H 0.29560 0.38000 0.94320
C33? C 0.0751(12) 0.4728(11) 1.0721(8)
H45? H 0.00260 0.52400 1.05440
H46? H 0.13100 0.51560 1.08700
H47? H 0.05950 0.40430 1.13190
C34? C 0.1291(11) 0.5326(11) 0.8830(8)
H48? H 0.05060 0.56540 0.86290
H49? H 0.16810 0.49830 0.83330
C35? C 0.1979(15) 0.6325(14) 0.8841(11)
H50? H 0.19740 0.69530 0.81800
H51? H 0.16090 0.66530 0.93540
C36? C 0.388(2) 0.670(2) 0.897(2)
H52? H 0.46930 0.64100 0.88460
H53? H 0.37930 0.68800 0.95980
H54? H 0.36570 0.74050 0.84060
Mg1* Mg -0.16368(5) -0.00585(5) 1.00665(5)
O24* O -0.01389(12) 1.05489(14) -0.08089(10)
#END
