
#######################################################################
#
#                 Cambridge Crystallographic Data Centre
#                                CCDC
#
#######################################################################
#
# If this CIF has been generated from an entry in the Cambridge
# Structural Database, then it will include bibliographic, chemical,
# crystal, experimental, refinement or atomic coordinate data resulting
# from the CCDC's data processing and validation procedures.
#
#######################################################################

data_CSD_CIF_EPABAB
_audit_creation_date 2021-03-25
_audit_creation_method CSD-ConQuest-V1
_database_code_CSD EPABAB
_database_code_depnum_ccdc_archive 'CCDC 2058012'
_chemical_formula_sum 'C44 H66 Ag6 Cd2 N14 O22 S6'
_chemical_formula_moiety
;
(C40 H34 Ag6 Cd1 N10 O12 S6 2-)n,n(C4 H16 Cd1 N4 O2 2+),8n(H2 O1)
;
_journal_coden_Cambridge 440
_journal_volume 45
_journal_year 2021
_journal_page_first 6503
_journal_name_full 'New J.Chem. '
loop_
_publ_author_name
"A.Sarkar"
"A.K.Jana"
"S.Natarajan"
_chemical_name_systematic
;
catena-(diaqua-bis(ethane-1,2-diamine)-cadmium(ii) 
hexakis(\m-2-mercaptonicotinato)-bis(2-ammonioethylamine)-cadmium-hexa-silver 
octahydrate)
;
_cell_volume   1728.749
_exptl_crystal_colour 'colorless'
_exptl_crystal_density_diffrn 2.101
_exptl_crystal_description 'block'
_diffrn_ambient_temperature 120
#These two values have been output from a single CSD field.
_refine_ls_R_factor_gt 0.0348
_refine_ls_wR_factor_gt 0.0348
_symmetry_cell_setting triclinic
_symmetry_space_group_name_H-M 'P -1'
_symmetry_Int_Tables_number 2
loop_
_symmetry_equiv_pos_site_id
_symmetry_equiv_pos_as_xyz
1 x,y,z
2 -x,-y,-z
_cell_length_a 12.5557(5)
_cell_length_b 12.7795(7)
_cell_length_c 12.8750(7)
_cell_angle_alpha 61.256(6)
_cell_angle_beta 72.894(4)
_cell_angle_gamma 84.428(4)
_cell_formula_units_Z 1
loop_
_atom_type_symbol
_atom_type_radius_bond
C 0.68
H 0.23
Ag 1.45
Cd 1.44
N 0.68
O 0.68
S 1.02
loop_
_atom_site_label
_atom_site_type_symbol
_atom_site_fract_x
_atom_site_fract_y
_atom_site_fract_z
Cd1 Cd 1.00000 0.00000 0.00000
Ag1 Ag 0.59336(3) 0.38013(3) -0.07718(3)
Ag2 Ag 0.40921(3) 0.30640(4) 0.15780(4)
Ag3 Ag 0.58215(3) 0.45354(3) 0.14919(3)
S1 S 0.32931(9) 0.34104(10) -0.01024(11)
S2 S 0.68519(10) 0.30534(10) 0.09022(11)
S3 S 0.31627(10) 0.42812(11) 0.25918(11)
O1 O 0.1462(3) 0.0843(3) 0.0243(3)
O2 O 0.1722(3) 0.2716(3) -0.1300(3)
O3 O 0.8478(3) 0.0374(4) 0.1294(4)
O4 O 0.8723(3) 0.1369(4) 0.2234(4)
O5 O 0.1296(3) 0.4348(4) 0.5521(3)
O6 O 0.1388(4) 0.2656(4) 0.5443(4)
N1 N 0.5076(3) 0.2452(4) -0.1006(4)
N2 N 0.5098(3) 0.1514(4) 0.2527(4)
N3 N 0.4893(3) 0.4015(4) 0.3506(4)
N4 N 1.0104(3) -0.1710(4) 0.1722(4)
H1 H 0.95283 -0.20852 0.23308
N5 N 1.0930(4) -0.3344(4) 0.3987(4)
H2 H 1.09846 -0.40732 0.45819
H3 H 1.13536 -0.28226 0.39842
H4 H 1.02222 -0.31442 0.41229
C1 C 0.3949(4) 0.2447(4) -0.0702(4)
C2 C 0.3311(4) 0.1680(4) -0.0799(4)
C3 C 0.3859(4) 0.0851(4) -0.1152(5)
H5 H 0.34519 0.02978 -0.11783
C4 C 0.5006(4) 0.0855(5) -0.1462(5)
H6 H 0.53859 0.03157 -0.17118
C5 C 0.5579(4) 0.1680(5) -0.1393(5)
H7 H 0.63547 0.16989 -0.16282
C6 C 0.2060(4) 0.1757(4) -0.0595(4)
C7 C 0.6225(4) 0.1643(4) 0.2098(4)
C8 C 0.6896(4) 0.0691(4) 0.2575(4)
C9 C 0.6389(4) -0.0394(4) 0.3546(5)
H8 H 0.68204 -0.10355 0.38851
C10 C 0.5238(5) -0.0515(5) 0.4005(5)
H9 H 0.48840 -0.12318 0.46611
C11 C 0.4632(5) 0.0451(5) 0.3469(5)
H10 H 0.38577 0.03651 0.37720
C12 C 0.8139(4) 0.0823(4) 0.1996(5)
C13 C 0.3768(4) 0.3956(4) 0.3787(4)
C14 C 0.3092(4) 0.3672(4) 0.4978(4)
C15 C 0.3602(5) 0.3482(5) 0.5866(5)
H11 H 0.31689 0.33235 0.66538
C16 C 0.4752(5) 0.3528(5) 0.5591(5)
H12 H 0.51044 0.33840 0.61859
C17 C 0.5362(4) 0.3796(5) 0.4393(5)
H13 H 0.61369 0.38241 0.41987
C18 C 0.1829(4) 0.3549(5) 0.5319(4)
C19 C 1.1247(4) -0.2119(5) 0.1702(5)
H14 H 1.16836 -0.15325 0.17010
H15 H 1.15841 -0.21548 0.09393
C20 C 1.1309(5) -0.3329(5) 0.2778(5)
H16 H 1.08550 -0.39136 0.27971
H17 H 1.20747 -0.35668 0.26476
Cd2 Cd 0.00000 0.50000 0.00000
O7 O 0.0201(3) 0.6776(3) 0.0067(4)
N6 N 0.0870(4) 0.4093(5) 0.1572(4)
H18 H 0.15781 0.40941 0.14705
N7 N -0.1470(4) 0.4518(4) 0.1783(4)
H19 H -0.21678 0.44878 0.18431
C21 C 0.0002(5) 0.3512(6) 0.2776(5)
H20 H 0.03125 0.33857 0.34322
H21 H -0.02332 0.27385 0.29274
C22 C -0.0994(4) 0.4275(5) 0.2789(5)
H22 H -0.15579 0.38675 0.35759
H23 H -0.07684 0.50246 0.27017
O8 O 0.7660(8) 0.1399(12) 0.4296(9)
O9 O 0.7930(8) 0.1522(8) 0.6205(8)
O10 O 0.0966(9) 0.0730(8) 0.2610(7)
O11 O 0.1781(8) 0.1132(6) 0.4278(9)
Ag1A Ag 0.40664(3) -0.38013(3) 0.07718(3)
Ag2A Ag 0.59079(3) -0.30640(4) -0.15780(4)
Ag3A Ag 0.41785(3) -0.45354(3) -0.14919(3)
S1A S 0.67069(9) -0.34104(10) 0.01024(11)
S2A S 0.31481(10) -0.30534(10) -0.09022(11)
S3A S 0.68373(10) -0.42812(11) -0.25918(11)
O1A O 0.8538(3) -0.0843(3) -0.0243(3)
O2A O 0.8278(3) -0.2716(3) 0.1300(3)
O3A O 0.1522(3) -0.0374(4) -0.1294(4)
O4A O 0.1277(3) -0.1369(4) -0.2234(4)
O5A O 0.8704(3) -0.4348(4) -0.5521(3)
O6A O 0.8612(4) -0.2656(4) -0.5443(4)
N1A N 0.4924(3) -0.2452(4) 0.1006(4)
N2A N 0.4902(3) -0.1514(4) -0.2527(4)
N3A N 0.5107(3) -0.4015(4) -0.3506(4)
C1A C 0.6051(4) -0.2447(4) 0.0702(4)
C2A C 0.6689(4) -0.1680(4) 0.0799(4)
C3A C 0.6141(4) -0.0851(4) 0.1152(5)
H5A H 0.65481 -0.02978 0.11783
C4A C 0.4994(4) -0.0855(5) 0.1462(5)
H6A H 0.46141 -0.03157 0.17118
C5A C 0.4421(4) -0.1680(5) 0.1393(5)
H7A H 0.36453 -0.16989 0.16282
C6A C 0.7940(4) -0.1757(4) 0.0595(4)
C7A C 0.3775(4) -0.1643(4) -0.2098(4)
C8A C 0.3104(4) -0.0691(4) -0.2575(4)
C9A C 0.3611(4) 0.0394(4) -0.3546(5)
H8A H 0.31796 0.10355 -0.38851
C10A C 0.4762(5) 0.0515(5) -0.4005(5)
H9A H 0.51160 0.12318 -0.46611
C11A C 0.5368(5) -0.0451(5) -0.3469(5)
H10A H 0.61423 -0.03651 -0.37720
C12A C 0.1861(4) -0.0823(4) -0.1996(5)
C13A C 0.6232(4) -0.3956(4) -0.3787(4)
C14A C 0.6908(4) -0.3672(4) -0.4978(4)
C15A C 0.6398(5) -0.3482(5) -0.5866(5)
H11A H 0.68311 -0.33235 -0.66538
C16A C 0.5248(5) -0.3528(5) -0.5591(5)
H12A H 0.48956 -0.33840 -0.61859
C17A C 0.4638(4) -0.3796(5) -0.4393(5)
H13A H 0.38631 -0.38241 -0.41987
C18A C 0.8171(4) -0.3549(5) -0.5319(4)
N4A N 0.9896(3) 0.1710(4) -0.1722(4)
H1A H 1.04717 0.20852 -0.23308
N5A N 0.9070(4) 0.3344(4) -0.3987(4)
H2A H 0.90154 0.40732 -0.45819
H3A H 0.86464 0.28226 -0.39842
H4A H 0.97778 0.31442 -0.41229
C19A C 0.8753(4) 0.2119(5) -0.1702(5)
H14A H 0.83164 0.15325 -0.17010
H15A H 0.84159 0.21548 -0.09393
C20A C 0.8691(5) 0.3329(5) -0.2778(5)
H16A H 0.91450 0.39136 -0.27971
H17A H 0.79253 0.35668 -0.26476
Cd1* Cd 0.00000 0.00000 0.00000
Ag1* Ag 0.59336(3) -0.61987(3) -0.07718(3)
Ag1A* Ag 0.40664(3) 0.61987(3) 0.07718(3)
Ag3* Ag 0.58215(3) -0.54646(3) 0.14919(3)
Ag3A* Ag 0.41785(3) 0.54646(3) -0.14919(3)
S1* S 0.32931(9) -0.65896(10) -0.01024(11)
S1A* S 0.67069(9) 0.65896(10) 0.01024(11)
S3* S 0.31627(10) -0.57188(11) 0.25918(11)
S3A* S 0.68373(10) 0.57188(11) -0.25918(11)
O1* O 1.1462(3) 0.0843(3) 0.0243(3)
O3A* O 1.1522(3) -0.0374(4) -0.1294(4)
O7A O -0.0201(3) 0.3224(3) -0.0067(4)
N6A N -0.0870(4) 0.5907(5) -0.1572(4)
H18A H -0.15781 0.59059 -0.14705
N7A N 0.1470(4) 0.5482(4) -0.1783(4)
H19A H 0.21678 0.55122 -0.18431
C21A C -0.0002(5) 0.6488(6) -0.2776(5)
H20A H -0.03125 0.66143 -0.34322
H21A H 0.02332 0.72615 -0.29274
C22A C 0.0994(4) 0.5725(5) -0.2789(5)
H22A H 0.15579 0.61325 -0.35759
H23A H 0.07684 0.49754 -0.27017
#END
