
#######################################################################
#
#                 Cambridge Crystallographic Data Centre
#                                CCDC
#
#######################################################################
#
# If this CIF has been generated from an entry in the Cambridge
# Structural Database, then it will include bibliographic, chemical,
# crystal, experimental, refinement or atomic coordinate data resulting
# from the CCDC's data processing and validation procedures.
#
#######################################################################

data_CSD_CIF_EPABEF
_audit_creation_date 2021-03-25
_audit_creation_method CSD-ConQuest-V1
_database_code_CSD EPABEF
_database_code_depnum_ccdc_archive 'CCDC 2058013'
_chemical_formula_sum 'C42 H64 Ag6 Cd1 N12 O22 S6'
_chemical_formula_moiety
;
(C40 H34 Ag6 Cd1 N10 O12 S6 2-)n,n(C2 H10 N2 2+),10n(H2 O1)
;
_journal_coden_Cambridge 440
_journal_volume 45
_journal_year 2021
_journal_page_first 6503
_journal_name_full 'New J.Chem. '
loop_
_publ_author_name
"A.Sarkar"
"A.K.Jana"
"S.Natarajan"
_chemical_name_systematic
;
catena-(ethane-1,2-diammonium 
hexakis(\m-2-mercaptonicotinato)-bis(2-ammonioethylamine)-cadmium-hexa-silver 
decahydrate)
;
_cell_volume   1603.299
_exptl_crystal_colour 'colorless'
_exptl_crystal_density_diffrn 2.093
_exptl_crystal_description 'block'
_diffrn_ambient_temperature 293
#These two values have been output from a single CSD field.
_refine_ls_R_factor_gt 0.0301
_refine_ls_wR_factor_gt 0.0301
_symmetry_cell_setting triclinic
_symmetry_space_group_name_H-M 'P -1'
_symmetry_Int_Tables_number 2
loop_
_symmetry_equiv_pos_site_id
_symmetry_equiv_pos_as_xyz
1 x,y,z
2 -x,-y,-z
_cell_length_a 11.8171(11)
_cell_length_b 12.2377(10)
_cell_length_c 12.5376(11)
_cell_angle_alpha 65.730(4)
_cell_angle_beta 81.992(5)
_cell_angle_gamma 76.182(4)
_cell_formula_units_Z 1
loop_
_atom_type_symbol
_atom_type_radius_bond
C 0.68
H 0.23
Ag 1.45
Cd 1.44
N 0.68
O 0.68
S 1.02
loop_
_atom_site_label
_atom_site_type_symbol
_atom_site_fract_x
_atom_site_fract_y
_atom_site_fract_z
Cd1 Cd 0.00000 0.00000 0.00000
Ag1 Ag 0.40534(3) -0.35081(3) 0.07333(3)
Ag2 Ag 0.37658(3) -0.46888(3) -0.15399(3)
Ag3 Ag 0.55369(4) -0.32418(4) -0.13628(4)
S1 S 0.27682(9) -0.2997(1) -0.08951(9)
O1 O 0.0364(4) -0.0601(6) -0.1620(4)
N1 N 0.0896(4) -0.1941(4) 0.1105(3)
H1 H 0.11105 -0.24397 0.07581
N2 N 0.4174(3) -0.1612(4) -0.2447(3)
C1 C 0.3058(4) -0.1684(4) -0.2121(4)
C2 C 0.3554(5) 0.0291(5) -0.4023(5)
H2 H 0.37459 0.09656 -0.46579
C3 C 0.2137(4) -0.0787(4) -0.2727(4)
C4 C 0.4401(5) -0.0636(5) -0.3387(4)
H3 H 0.51767 -0.05884 -0.36171
C5 C 0.2411(5) 0.0200(5) -0.3699(4)
H4 H 0.18175 0.08048 -0.41347
C6 C 0.0891(4) -0.0906(5) -0.2374(4)
C7 C 0.1145(5) -0.2426(5) 0.2342(5)
H5 H 0.14708 -0.18509 0.24947
H6 H 0.17117 -0.31902 0.25435
O2 O 0.0458(5) -0.1401(8) -0.2843(6)
C8 C 0.0046(5) -0.2635(6) 0.3070(4)
H7 H -0.02795 -0.32008 0.29031
H8 H -0.05159 -0.18672 0.28609
N3 N 0.0241(4) -0.3136(4) 0.4342(3)
H9 H -0.04324 -0.32482 0.47462
H10 H 0.07460 -0.38484 0.45402
H11 H 0.05269 -0.26126 0.45012
N4 N 0.4866(3) -0.2168(3) 0.1020(3)
N5 N 0.4534(3) -0.4061(4) -0.3407(3)
C9 C 0.6629(4) -0.1471(4) 0.0919(4)
C10 C 0.6026(4) -0.2248(4) 0.0761(3)
C11 C 0.5693(4) -0.4128(4) -0.3567(4)
C12 C 0.4290(4) -0.1326(4) 0.1431(4)
H12 H 0.34933 -0.12781 0.16091
C13 C 0.4387(6) -0.3297(7) -0.5470(5)
H13 H 0.39213 -0.30224 -0.61059
C14 C 0.3896(5) -0.3629(6) -0.4342(5)
H14 H 0.30904 -0.35475 -0.42330
C15 C 0.5992(4) -0.0601(4) 0.1324(4)
H15 H 0.63640 -0.00550 0.14111
C16 C 0.7920(4) -0.1495(4) 0.0657(4)
C17 C 0.6250(4) -0.3798(4) -0.4671(4)
C18 C 0.4818(4) -0.0530(5) 0.1601(4)
H16 H 0.43944 0.00399 0.18939
C19 C 0.7546(4) -0.3904(5) -0.4848(4)
C20 C 0.5563(5) -0.3378(6) -0.5636(5)
H17 H 0.59075 -0.31557 -0.63891
O3 O 0.8609(3) -0.2498(3) 0.0871(3)
O4 O 0.8198(3) -0.0466(3) 0.0259(4)
O5 O 0.7992(3) -0.3188(4) -0.4632(4)
O6 O 0.8107(4) -0.4701(5) -0.5200(4)
S2 S 0.67120(9) -0.33255(10) 0.01571(10)
S3 S 0.65303(9) -0.46688(10) -0.23195(9)
O7 O 0.8386(5) -0.4806(4) -0.7344(4)
N6 N 0.9549(5) -0.3353(5) -0.0940(5)
H18 H 0.99433 -0.27494 -0.12408
H19 H 0.92746 -0.34463 -0.15168
H20 H 0.89567 -0.31721 -0.04781
C21 C 1.0326(5) -0.4493(6) -0.0253(6)
H21 H 1.06336 -0.43919 0.03713
H22 H 1.09773 -0.46884 -0.07517
O8 O 0.0981(7) -0.1520(6) 0.4964(5)
O9 O 0.1982(6) 0.0055(9) 0.2812(10)
O10 O 1.0683(7) -0.5751(13) -0.7475(8)
O11 O 0.2507(12) 0.1878(11) 0.3124(9)
Ag1A Ag -0.40534(3) 0.35081(3) -0.07333(3)
Ag2A Ag -0.37658(3) 0.46888(3) 0.15399(3)
Ag3A Ag -0.55369(4) 0.32418(4) 0.13628(4)
S1A S -0.27682(9) 0.2997(1) 0.08951(9)
O1A O -0.0364(4) 0.0601(6) 0.1620(4)
N1A N -0.0896(4) 0.1941(4) -0.1105(3)
H1A H -0.11105 0.24397 -0.07581
N2A N -0.4174(3) 0.1612(4) 0.2447(3)
C1A C -0.3058(4) 0.1684(4) 0.2121(4)
C2A C -0.3554(5) -0.0291(5) 0.4023(5)
H2A H -0.37459 -0.09656 0.46579
C3A C -0.2137(4) 0.0787(4) 0.2727(4)
C4A C -0.4401(5) 0.0636(5) 0.3387(4)
H3A H -0.51767 0.05884 0.36171
C5A C -0.2411(5) -0.0200(5) 0.3699(4)
H4A H -0.18175 -0.08048 0.41347
C6A C -0.0891(4) 0.0906(5) 0.2374(4)
C7A C -0.1145(5) 0.2426(5) -0.2342(5)
H5A H -0.14708 0.18509 -0.24947
H6A H -0.17117 0.31902 -0.25435
O2A O -0.0458(5) 0.1401(8) 0.2843(6)
C8A C -0.0046(5) 0.2635(6) -0.3070(4)
H7A H 0.02795 0.32008 -0.29031
H8A H 0.05159 0.18672 -0.28609
N3A N -0.0241(4) 0.3136(4) -0.4342(3)
H9A H 0.04324 0.32482 -0.47462
H10A H -0.07460 0.38484 -0.45402
H11A H -0.05269 0.26126 -0.45012
N4A N -0.4866(3) 0.2168(3) -0.1020(3)
N5A N -0.4534(3) 0.4061(4) 0.3407(3)
C9A C -0.6629(4) 0.1471(4) -0.0919(4)
C10A C -0.6026(4) 0.2248(4) -0.0761(3)
C11A C -0.5693(4) 0.4128(4) 0.3567(4)
C12A C -0.4290(4) 0.1326(4) -0.1431(4)
H12A H -0.34933 0.12781 -0.16091
C13A C -0.4387(6) 0.3297(7) 0.5470(5)
H13A H -0.39213 0.30224 0.61059
C14A C -0.3896(5) 0.3629(6) 0.4342(5)
H14A H -0.30904 0.35475 0.42330
C15A C -0.5992(4) 0.0601(4) -0.1324(4)
H15A H -0.63640 0.00550 -0.14111
C16A C -0.7920(4) 0.1495(4) -0.0657(4)
C17A C -0.6250(4) 0.3798(4) 0.4671(4)
C18A C -0.4818(4) 0.0530(5) -0.1601(4)
H16A H -0.43944 -0.00399 -0.18939
C19A C -0.7546(4) 0.3904(5) 0.4848(4)
C20A C -0.5563(5) 0.3378(6) 0.5636(5)
H17A H -0.59075 0.31557 0.63891
O3A O -0.8609(3) 0.2498(3) -0.0871(3)
O4A O -0.8198(3) 0.0466(3) -0.0259(4)
O5A O -0.7992(3) 0.3188(4) 0.4632(4)
O6A O -0.8107(4) 0.4701(5) 0.5200(4)
S2A S -0.67120(9) 0.33255(10) -0.01571(10)
S3A S -0.65303(9) 0.46688(10) 0.23195(9)
Cd1* Cd -1.00000 0.00000 0.00000
Cd1** Cd 1.00000 0.00000 0.00000
Ag1* Ag -0.59466(3) 0.64919(3) 0.07333(3)
Ag1A* Ag 0.59466(3) -0.64919(3) -0.07333(3)
Ag2* Ag -0.62342(3) 0.53112(3) -0.15399(3)
Ag2A* Ag 0.62342(3) -0.53112(3) 0.15399(3)
O4* O -0.1802(3) -0.0466(3) 0.0259(4)
O4A* O 0.1802(3) 0.0466(3) -0.0259(4)
S2* S -0.32880(9) 0.66745(10) 0.01571(10)
S2A* S 0.32880(9) -0.66745(10) -0.01571(10)
S3* S -0.34697(9) 0.53312(10) -0.23195(9)
S3A* S 0.34697(9) -0.53312(10) 0.23195(9)
N6A N 1.0451(5) -0.6647(5) 0.0940(5)
H18A H 1.00567 -0.72506 0.12408
H19A H 1.07254 -0.65537 0.15168
H20A H 1.10433 -0.68279 0.04781
C21A C 0.9674(5) -0.5507(6) 0.0253(6)
H21A H 0.93664 -0.56081 -0.03713
H22A H 0.90227 -0.53116 0.07517
#END
