
#######################################################################
#
#                 Cambridge Crystallographic Data Centre
#                                CCDC
#
#######################################################################
#
# If this CIF has been generated from an entry in the Cambridge
# Structural Database, then it will include bibliographic, chemical,
# crystal, experimental, refinement or atomic coordinate data resulting
# from the CCDC's data processing and validation procedures.
#
#######################################################################

data_CSD_CIF_EPABIJ
_audit_creation_date 2021-03-25
_audit_creation_method CSD-ConQuest-V1
_database_code_CSD EPABIJ
_database_code_depnum_ccdc_archive 'CCDC 2058014'
_chemical_formula_sum 'C42 H64 Cd1 Cu6 N12 O22 S6'
_chemical_formula_moiety
;
(C40 H34 Cd1 Cu6 N10 O12 S6 2-)n,n(C2 H10 N2 2+),10n(H2 O1)
;
_journal_coden_Cambridge 440
_journal_volume 45
_journal_year 2021
_journal_page_first 6503
_journal_name_full 'New J.Chem. '
loop_
_publ_author_name
"A.Sarkar"
"A.K.Jana"
"S.Natarajan"
_chemical_name_systematic
;
catena-(ethane-1,2-diammonium 
hexakis(\m-2-mercaptonicotinato)-bis(2-ammonioethylamine)-cadmium-hexa-copper 
decahydrate)
;
_cell_volume   1507.520
_exptl_crystal_colour 'light yellow'
_exptl_crystal_density_diffrn 1.933
_exptl_crystal_description 'block'
_diffrn_ambient_temperature 120
#These two values have been output from a single CSD field.
_refine_ls_R_factor_gt 0.0426
_refine_ls_wR_factor_gt 0.0426
_symmetry_cell_setting triclinic
_symmetry_space_group_name_H-M 'P -1'
_symmetry_Int_Tables_number 2
loop_
_symmetry_equiv_pos_site_id
_symmetry_equiv_pos_as_xyz
1 x,y,z
2 -x,-y,-z
_cell_length_a 11.6027(5)
_cell_length_b 12.0784(4)
_cell_length_c 12.2986(5)
_cell_angle_alpha 64.612(4)
_cell_angle_beta 82.183(4)
_cell_angle_gamma 75.630(4)
_cell_formula_units_Z 1
loop_
_atom_type_symbol
_atom_type_radius_bond
C 0.68
H 0.23
Cd 1.44
Cu 1.32
N 0.68
O 0.68
S 1.02
loop_
_atom_site_label
_atom_site_type_symbol
_atom_site_fract_x
_atom_site_fract_y
_atom_site_fract_z
Cu1 Cu 0.87801(4) 1.03391(4) 0.85486(4)
Cu2 Cu 1.08775(4) 0.85399(4) 0.93008(4)
S1 S 1.20554(7) 0.81094(7) 1.08210(7)
S2 S 1.13866(7) 1.03087(7) 0.79092(7)
S3 S 0.83266(7) 0.85018(7) 0.98600(7)
C1 C 0.9015(3) 0.7377(3) 0.9273(3)
C2 C 0.9116(3) 0.5701(3) 0.8674(3)
H1 H 0.87585 0.51438 0.85733
C3 C 1.0310(3) 0.5668(3) 0.8386(3)
H2 H 1.07592 0.51104 0.80740
N1 N 0.9355(3) 1.0922(3) 0.6809(3)
C4 C 1.0541(3) 1.0850(3) 0.6625(3)
C5 C 0.8433(3) 0.6560(3) 0.9118(3)
C6 C 1.0822(3) 0.6493(3) 0.8575(3)
H3 H 1.16306 0.64670 0.83973
Cd1 Cd 0.50000 0.50000 1.00000
Cu3 Cu 0.94904(4) 0.82839(4) 1.12913(4)
N2 N 0.4108(3) 0.7033(3) 0.8917(2)
H4 H 0.38972 0.75338 0.92714
N3 N 1.0203(3) 0.7324(3) 0.9002(2)
O1 O 1.4615(2) 0.5401(3) 1.1774(2)
N4 N 1.0614(3) 0.6704(3) 1.2350(2)
O2 O 1.2955(3) 1.0305(3) 0.4824(2)
O3 O 1.4310(3) 0.6572(3) 1.2817(2)
O4 O 1.2894(2) 1.1744(3) 0.5520(2)
C7 C 0.8668(3) 1.1383(3) 0.5849(3)
H5 H 0.78484 1.14685 0.59775
C8 C 1.0344(3) 0.5680(3) 1.3296(3)
H6 H 0.95480 0.56469 1.35031
C9 C 1.3970(3) 0.5925(3) 1.2399(3)
C10 C 1.1077(3) 1.1183(3) 0.5463(3)
C11 C 1.2413(3) 1.1066(3) 0.5263(3)
C12 C 1.2694(3) 0.5782(3) 1.2704(3)
C13 C 1.1768(3) 0.6747(3) 1.2061(3)
C14 C 1.0356(4) 1.1609(4) 0.4486(3)
H7 H 1.06900 1.18085 0.37118
O5 O 0.6391(2) 0.7549(2) 0.9229(2)
O6 O 0.6870(2) 0.5472(2) 0.9766(2)
C15 C 0.3877(3) 0.7521(3) 0.7616(3)
H8 H 0.32925 0.83059 0.73717
H9 H 0.35655 0.69255 0.74680
C16 C 0.7124(3) 0.6533(3) 0.9401(3)
C17 C 1.1212(4) 0.4686(3) 1.3963(3)
H10 H 1.10026 0.39900 1.46007
C18 C 0.5033(3) 0.7727(3) 0.6895(3)
H11 H 0.53401 0.83244 0.70447
H12 H 0.56179 0.69423 0.71499
C19 C 1.2397(4) 0.4739(3) 1.3670(3)
H13 H 1.29920 0.40817 1.41151
N5 N 0.4840(3) 0.8208(3) 0.5584(3)
H14 H 0.55253 0.83237 0.51743
H15 H 0.45679 0.76543 0.54465
H16 H 0.43109 0.89333 0.53491
C20 C 0.9126(4) 1.1733(4) 0.4683(3)
H17 H 0.86254 1.20454 0.40402
O7 O 1.3083(3) 0.4996(3) 0.7186(3)
O8 O 0.6531(3) 0.9805(3) 0.7358(3)
O9 O 0.4104(4) 0.6511(3) 0.5111(3)
O10 O 1.2738(5) 1.2811(5) 0.7124(4)
C21 C 0.4696(4) 0.9435(4) 1.0278(4)
H18 H 0.38789 0.97084 1.05103
H19 H 0.46808 0.91186 0.96775
N6 N 0.5262(9) 0.8499(7) 1.1255(8)
H20 H 0.48854 0.78657 1.15488
H21 H 0.60082 0.82341 1.10424
H22 H 0.52651 0.87807 1.18142
O11 O 0.4205(10) 1.0226(12) 0.7675(13)
Cu1A Cu 0.12199(4) -0.03391(4) 1.14514(4)
Cu2A Cu -0.08775(4) 0.14601(4) 1.06992(4)
S1A S -0.20554(7) 0.18906(7) 0.91790(7)
S2A S -0.13866(7) -0.03087(7) 1.20908(7)
S3A S 0.16734(7) 0.14982(7) 1.01400(7)
C1A C 0.0985(3) 0.2623(3) 1.0727(3)
C2A C 0.0884(3) 0.4299(3) 1.1326(3)
H1A H 0.12415 0.48562 1.14267
C3A C -0.0310(3) 0.4332(3) 1.1614(3)
H2A H -0.07592 0.48896 1.19260
N1A N 0.0645(3) -0.0922(3) 1.3191(3)
C4A C -0.0541(3) -0.0850(3) 1.3375(3)
C5A C 0.1567(3) 0.3440(3) 1.0882(3)
C6A C -0.0822(3) 0.3507(3) 1.1425(3)
H3A H -0.16306 0.35330 1.16027
Cu3A Cu 0.05096(4) 0.17161(4) 0.87087(4)
N2A N 0.5892(3) 0.2967(3) 1.1083(2)
H4A H 0.61028 0.24662 1.07286
N3A N -0.0203(3) 0.2676(3) 1.0998(2)
O1A O -0.4615(2) 0.4599(3) 0.8226(2)
N4A N -0.0614(3) 0.3296(3) 0.7650(2)
O2A O -0.2955(3) -0.0305(3) 1.5176(2)
O3A O -0.4310(3) 0.3428(3) 0.7183(2)
O4A O -0.2894(2) -0.1744(3) 1.4480(2)
C7A C 0.1332(3) -0.1383(3) 1.4151(3)
H5A H 0.21516 -0.14685 1.40225
C8A C -0.0344(3) 0.4320(3) 0.6704(3)
H6A H 0.04520 0.43531 0.64969
C9A C -0.3970(3) 0.4075(3) 0.7601(3)
C10A C -0.1077(3) -0.1183(3) 1.4537(3)
C11A C -0.2413(3) -0.1066(3) 1.4737(3)
C12A C -0.2694(3) 0.4218(3) 0.7296(3)
C13A C -0.1768(3) 0.3253(3) 0.7939(3)
C14A C -0.0356(4) -0.1609(4) 1.5514(3)
H7A H -0.06900 -0.18085 1.62882
O5A O 0.3609(2) 0.2451(2) 1.0771(2)
O6A O 0.3130(2) 0.4528(2) 1.0234(2)
C15A C 0.6123(3) 0.2479(3) 1.2384(3)
H8A H 0.67075 0.16941 1.26283
H9A H 0.64345 0.30745 1.25320
C16A C 0.2876(3) 0.3467(3) 1.0599(3)
C17A C -0.1212(4) 0.5314(3) 0.6037(3)
H10A H -0.10026 0.60100 0.53993
C18A C 0.4967(3) 0.2273(3) 1.3105(3)
H11A H 0.46599 0.16756 1.29553
H12A H 0.43821 0.30577 1.28501
C19A C -0.2397(4) 0.5261(3) 0.6330(3)
H13A H -0.29920 0.59183 0.58849
N5A N 0.5160(3) 0.1792(3) 1.4416(3)
H14A H 0.44747 0.16763 1.48257
H15A H 0.54321 0.23457 1.45535
H16A H 0.56891 0.10667 1.46509
C20A C 0.0874(4) -0.1733(4) 1.5317(3)
H17A H 0.13746 -0.20454 1.59598
Cu1* Cu -0.12199(4) 0.03391(4) 0.85486(4)
Cu1A* Cu 1.12199(4) 0.96609(4) 1.14514(4)
S1* S 0.20554(7) -0.18906(7) 1.08210(7)
S1A* S 0.79446(7) 1.18906(7) 0.91790(7)
S2* S 0.13866(7) 0.03087(7) 0.79092(7)
S2A* S 0.86134(7) 0.96913(7) 1.20908(7)
Cd1* Cd -0.50000 0.50000 1.00000
Cd1** Cd 1.50000 0.50000 1.00000
Cu3* Cu -0.05096(4) -0.17161(4) 1.12913(4)
Cu3A* Cu 1.05096(4) 1.17161(4) 0.87087(4)
O1* O 0.4615(2) 0.5401(3) 1.1774(2)
O1A* O 0.5385(2) 0.4599(3) 0.8226(2)
C21A C 0.5304(4) 1.0565(4) 0.9722(4)
H18A H 0.61211 1.02916 0.94897
H19A H 0.53192 1.08814 1.03225
N6A N 0.4738(9) 1.1501(7) 0.8745(8)
H20A H 0.51146 1.21343 0.84512
H21A H 0.39918 1.17659 0.89576
H22A H 0.47349 1.12193 0.81858
#END
