
#######################################################################
#
#                 Cambridge Crystallographic Data Centre
#                                CCDC
#
#######################################################################
#
# If this CIF has been generated from an entry in the Cambridge
# Structural Database, then it will include bibliographic, chemical,
# crystal, experimental, refinement or atomic coordinate data resulting
# from the CCDC's data processing and validation procedures.
#
#######################################################################

data_CSD_CIF_EPELET
_audit_creation_date 2021-03-26
_audit_creation_method CSD-ConQuest-V1
_database_code_CSD EPELET
_database_code_depnum_ccdc_archive 'CCDC 1999968'
_chemical_formula_sum 'C36 H30 Ag4 N12 O13 S4'
_chemical_formula_moiety
;
(C16 H12 Ag2 N8 O12 S4 2-)n,2n(C10 H8 Ag1 N2 1+),n(H2 O1)
;
_journal_coden_Cambridge 82
_journal_volume 62
_journal_year 2021
_journal_page_first 300
_journal_name_full 'Zh.Strukt.Khim.(Russ.)(J.Struct.Chem.) '
loop_
_publ_author_name
"Y.-J.Liang"
"G.Feng"
"X.Zhang"
"J.-X.Li"
"Y.Jiang"
_chemical_name_systematic
;
catena-(bis((\m-4,4'-bipyridine)-silver) 
bis(\m-pyrazine-2-sulfonate)-bis(pyrazine-2-sulfonate)-di-silver monohydrate)
;
_cell_volume   2155.976
_diffrn_ambient_temperature 293
#These two values have been output from a single CSD field.
_refine_ls_R_factor_gt 0.114
_refine_ls_wR_factor_gt 0.114
_symmetry_cell_setting triclinic
_symmetry_space_group_name_H-M 'P -1'
_symmetry_Int_Tables_number 2
loop_
_symmetry_equiv_pos_site_id
_symmetry_equiv_pos_as_xyz
1 x,y,z
2 -x,-y,-z
_cell_length_a 11.3851(3)
_cell_length_b 13.5140(8)
_cell_length_c 14.5767(6)
_cell_angle_alpha 74.044(5)
_cell_angle_beta 89.772(3)
_cell_angle_gamma 88.950(3)
_cell_formula_units_Z 2
loop_
_atom_type_symbol
_atom_type_radius_bond
C 0.68
H 0.23
Ag 1.45
N 0.68
O 0.68
S 1.02
loop_
_atom_site_label
_atom_site_type_symbol
_atom_site_fract_x
_atom_site_fract_y
_atom_site_fract_z
Ag1 Ag 0.63070(11) 0.99734(11) -0.08907(10)
Ag2 Ag 0.13013(11) 1.02501(11) -0.41389(10)
S1 S 0.7664(4) 1.2096(3) -0.0550(3)
S2 S 0.7721(4) 0.7963(3) -0.1707(3)
S3 S 0.2662(4) 1.2220(3) -0.3443(4)
S4 S 0.2520(3) 0.8000(3) -0.4378(3)
O1 O 0.6560(13) 1.1893(11) -0.0901(13)
O2 O 0.8507(15) 1.2413(12) -0.1307(11)
O3 O 0.7603(16) 1.2739(12) 0.0070(12)
O4 O 0.6564(14) 0.8098(11) -0.1366(15)
O5 O 0.7756(14) 0.7340(11) -0.2364(11)
O6 O 0.8580(15) 0.7673(11) -0.0951(11)
O7 O 0.1486(12) 1.2056(10) -0.3726(11)
O8 O 0.2743(12) 1.2919(10) -0.2842(11)
O9 O 0.3456(12) 1.2447(10) -0.4256(10)
O10 O 0.1329(12) 0.8273(10) -0.4144(12)
O11 O 0.2546(12) 0.7316(11) -0.4943(10)
O12 O 0.3276(13) 0.7696(10) -0.3543(10)
N1 N 0.7757(11) 1.0028(9) 0.0142(8)
N2 N 0.9750(13) 1.0018(12) 0.1246(10)
N3 N 0.7632(11) 1.0042(9) -0.2251(8)
N4 N 0.9476(16) 1.0177(10) -0.3472(9)
N5 N 0.4579(10) 1.0057(11) -0.1583(9)
N6 N 0.2675(10) 1.0148(9) -0.2798(9)
N7 N 0.2721(10) 1.0058(9) -0.5135(8)
N8 N 0.4729(12) 0.9845(12) -0.6179(10)
C1 C 0.8272(13) 1.0893(12) 0.0146(10)
C2 C 0.9237(14) 1.0915(14) 0.0696(12)
H1 H 0.95510 1.15440 0.06980
C3 C 0.9228(15) 0.9176(15) 0.1220(11)
H2 H 0.95300 0.85530 0.15960
C4 C 0.8251(15) 0.9151(12) 0.0666(12)
H3 H 0.79370 0.85230 0.06590
C5 C 0.8187(12) 0.9195(12) -0.2373(11)
C6 C 0.9155(13) 0.9267(12) -0.2977(11)
H4 H 0.95600 0.86790 -0.30240
C7 C 0.9029(12) 1.0998(13) -0.3348(11)
H5 H 0.93360 1.16340 -0.36650
C8 C 0.8072(15) 1.0942(11) -0.2732(11)
H6 H 0.77350 1.15470 -0.26570
C9 C 0.3133(14) 0.9268(14) -0.2270(13)
H7 H 0.28150 0.86550 -0.23190
C10 C 0.4044(15) 0.9220(15) -0.1661(11)
H8 H 0.43020 0.85800 -0.12870
C11 C 0.4129(13) 1.0975(12) -0.2109(11)
H9 H 0.44500 1.15840 -0.20550
C12 C 0.3196(13) 1.1009(12) -0.2724(11)
C13 C 0.3194(12) 0.9142(11) -0.5111(11)
C14 C 0.4173(13) 0.9035(15) -0.5646(12)
H10 H 0.44460 0.83780 -0.56320
C15 C 0.4243(15) 1.0773(12) -0.6203(11)
H11 H 0.45670 1.13620 -0.66040
C16 C 0.3319(14) 1.0873(12) -0.5672(11)
H12 H 0.30710 1.15320 -0.56690
Ag3 Ag 0.22359(11) 0.49254(14) 0.12615(11)
N9 N 0.4123(12) 0.4898(12) 0.1282(11)
N10 N 1.0354(10) 0.4875(10) 0.1304(9)
C17 C 0.4748(15) 0.4071(15) 0.1263(16)
H13 H 0.43610 0.34720 0.12580
C18 C 0.5975(15) 0.4071(13) 0.1250(14)
H14 H 0.63810 0.34820 0.12060
C19 C 0.6601(12) 0.4915(11) 0.1300(9)
C20 C 0.5911(14) 0.5778(13) 0.1357(14)
H15 H 0.62750 0.63690 0.14130
C21 C 0.4735(15) 0.5748(15) 0.1331(16)
H16 H 0.43090 0.63360 0.13470
C22 C 0.7876(12) 0.4917(11) 0.1326(9)
C23 C 0.8531(13) 0.4045(12) 0.1742(13)
H17 H 0.81540 0.34360 0.20380
C24 C 0.9764(14) 0.4065(13) 0.1723(15)
H18 H 1.01790 0.34650 0.20260
C25 C 0.9721(15) 0.5756(13) 0.0882(14)
H19 H 1.01260 0.63550 0.06010
C26 C 0.8536(14) 0.5789(14) 0.0859(13)
H20 H 0.81470 0.63940 0.05330
Ag4 Ag 0.73249(10) 0.49302(12) 0.37872(10)
N11 N 0.5445(10) 0.4896(10) 0.3778(9)
N12 N -0.0766(10) 0.4878(11) 0.3787(9)
C27 C 0.4793(16) 0.5792(14) 0.3791(16)
H21 H 0.51850 0.63930 0.37800
C28 C 0.3605(13) 0.5785(14) 0.3820(14)
H22 H 0.31990 0.63580 0.39020
C29 C 0.2964(12) 0.4937(10) 0.3728(9)
C30 C 0.3634(12) 0.4058(11) 0.3692(12)
H23 H 0.32650 0.34590 0.36640
C31 C 0.4834(14) 0.4103(12) 0.3700(14)
H24 H 0.52540 0.35250 0.36450
C32 C 0.1654(12) 0.4927(11) 0.3751(10)
C33 C 0.1025(13) 0.5810(12) 0.3296(12)
H25 H 0.14000 0.64100 0.29700
C34 C -0.0202(14) 0.5758(13) 0.3346(14)
H26 H -0.06460 0.63470 0.30680
C35 C -0.0138(16) 0.4070(13) 0.4207(14)
H27 H -0.05180 0.34740 0.45350
C36 C 0.1066(14) 0.4063(13) 0.4184(13)
H28 H 0.14820 0.34590 0.44680
O13 O 0.574(6) 0.812(3) 0.036(3)
H29 H 0.511(9) 0.828(19) 0.005(13)
H30 H 0.623(12) 0.789(19) 0.002(12)
Ag2* Ag 1.13013(11) 1.02501(11) -0.41389(10)
N4* N -0.0524(16) 1.0177(10) -0.3472(9)
Ag3* Ag 1.22359(11) 0.49254(14) 0.12615(11)
N10* N 0.0354(10) 0.4875(10) 0.1304(9)
Ag4* Ag -0.26751(10) 0.49302(12) 0.37872(10)
N12* N 0.9234(10) 0.4878(11) 0.3787(9)
#END
