
#######################################################################
#
#                 Cambridge Crystallographic Data Centre
#                                CCDC
#
#######################################################################
#
# If this CIF has been generated from an entry in the Cambridge
# Structural Database, then it will include bibliographic, chemical,
# crystal, experimental, refinement or atomic coordinate data resulting
# from the CCDC's data processing and validation procedures.
#
#######################################################################

data_CSD_CIF_EPUTAL
_audit_creation_date 2011-06-24
_audit_creation_method CSD-ConQuest-V1
_database_code_CSD EPUTAL
_database_code_depnum_ccdc_archive 'CCDC 789151'
_chemical_formula_sum 'C16 H18 Ag10 N24 O40 Si1 W12'
_chemical_formula_moiety
;
(C16 H18 Ag10 N24 4+)n,n(O40 Si1 W12 4-)
;
_journal_coden_Cambridge 182
_journal_volume 47
_journal_year 2011
_journal_page_first 4150
_journal_name_full 'Chem.Commun. '
loop_
_publ_author_name
"Xiaofei Kuang"
"Xiao-Yuan Wu"
"Jian Zhang"
"Can-Zhong Lu"
_chemical_name_systematic
;
catena-(hexakis(\m~3~-1,2,4-Triazolato)-bis(1,2,4-triazole-N)-deca-silver 
(\m~12~-silicato)-tetracosakis(\m~2~-oxo)-dodecaoxo-dodeca-tungsten)
;
_cell_volume   3126.514
_exptl_crystal_density_diffrn 4.78
_diffrn_ambient_temperature 293
_refine_special_details
;
The silicate moiety of the anion is disordered by symmetry.

;
#These two values have been output from a single CSD field.
_refine_ls_R_factor_gt 0.0951
_refine_ls_wR_factor_gt 0.0951
_symmetry_cell_setting monoclinic
_symmetry_space_group_name_H-M 'P 21/c'
_symmetry_Int_Tables_number 14
loop_
_symmetry_equiv_pos_site_id
_symmetry_equiv_pos_as_xyz
1 x,y,z
2 -x,1/2+y,1/2-z
3 -x,-y,-z
4 x,-1/2-y,-1/2+z
_cell_length_a 10.5031(4)
_cell_length_b 24.5448(8)
_cell_length_c 12.4659(5)
_cell_angle_alpha 90
_cell_angle_beta 103.374(2)
_cell_angle_gamma 90
_cell_formula_units_Z 2
loop_
_atom_type_symbol
_atom_type_radius_bond
C 0.68
H 0.23
Ag 1.40
N 0.68
O 0.68
Si 1.20
W 1.36
loop_
_atom_site_label
_atom_site_type_symbol
_atom_site_fract_x
_atom_site_fract_y
_atom_site_fract_z
Si1 Si 0.00000 -0.50000 -0.50000
W1 W -0.16150(16) -0.39791(6) -0.38099(14)
W2 W -0.17863(12) -0.57991(5) -0.71849(11)
W3 W -0.09782(17) -0.37783(5) -0.64377(12)
W4 W 0.23983(12) -0.40795(5) -0.54693(11)
W5 W 0.04868(14) -0.48276(6) -0.76836(11)
W6 W -0.33623(13) -0.47290(6) -0.60803(11)
Ag1 Ag 0.9803(3) -0.72851(13) -1.7791(3)
Ag2 Ag 0.6559(3) -0.76263(14) -1.4225(3)
Ag3 Ag 0.4066(3) -0.63515(12) -1.0983(3)
Ag4 Ag 0.7084(3) -0.90203(11) -1.5540(3)
Ag5 Ag 0.4485(3) -0.86040(12) -1.3085(3)
O1 O -0.124(6) -0.451(2) -0.526(5)
O2 O -0.005(6) -0.531(2) -0.619(5)
O3 O 0.131(6) -0.471(2) -0.455(5)
O4 O -0.039(6) -0.542(2) -0.415(5)
O5 O -0.149(3) -0.4521(13) -0.271(4)
O6 O -0.300(3) -0.4327(14) -0.476(3)
O7 O -0.236(3) -0.3482(11) -0.329(2)
O8 O 0.017(4) -0.3815(17) -0.311(5)
O9 O -0.129(3) -0.3582(19) -0.504(3)
O10 O -0.099(3) -0.5300(14) -0.799(4)
O11 O -0.223(3) -0.6120(12) -0.597(2)
O12 O -0.268(3) -0.6187(12) -0.826(3)
O13 O -0.310(3) -0.5232(11) -0.714(2)
O14 O -0.064(3) -0.4220(16) -0.757(3)
O15 O 0.077(3) -0.3631(16) -0.596(3)
O16 O -0.266(3) -0.4154(17) -0.679(3)
O17 O -0.142(3) -0.3202(11) -0.712(2)
O18 O 0.344(3) -0.3603(13) -0.567(3)
O19 O 0.344(3) -0.4629(15) -0.485(3)
O20 O 0.196(3) -0.4433(15) -0.684(3)
O21 O 0.072(3) -0.4723(12) -0.897(2)
O22 O -0.493(3) -0.4615(13) -0.659(2)
N1 N 1.073(4) -0.6943(13) -1.895(3)
N2 N 1.052(4) -0.6433(17) -1.934(3)
H1 H 0.99730 -0.62050 -1.91730
C1 C 1.128(4) -0.6342(15) -2.003(3)
H2 H 1.13120 -0.60170 -2.04080
N3 N 1.199(4) -0.6771(17) -2.010(3)
C2 C 1.160(4) -0.714(2) -1.947(4)
H3 H 1.18980 -0.74930 -1.93940
N4 N 0.763(3) -0.7777(12) -1.541(2)
N5 N 0.777(2) -0.8243(11) -1.590(2)
C3 C 0.849(3) -0.8184(13) -1.665(3)
H4 H 0.87240 -0.84610 -1.70710
N6 N 0.883(3) -0.7647(13) -1.668(3)
C4 C 0.830(3) -0.7430(16) -1.590(4)
H5 H 0.83920 -0.70630 -1.57060
N7 N 0.538(2) -0.7420(11) -1.308(2)
N8 N 0.488(3) -0.7811(11) -1.250(3)
C5 C 0.432(3) -0.7532(16) -1.181(3)
H6 H 0.38800 -0.76860 -1.13140
N9 N 0.450(4) -0.6982(14) -1.193(3)
C6 C 0.511(3) -0.6949(15) -1.278(3)
H7 H 0.52970 -0.66260 -1.31020
N10 N 0.621(3) -1.0671(11) -1.492(2)
N11 N 0.606(2) -1.0677(10) -1.604(2)
C7 C 0.630(3) -1.0186(12) -1.636(3)
H8 H 0.62680 -1.00870 -1.70810
N12 N 0.660(3) -0.9845(11) -1.549(2)
C8 C 0.648(3) -1.0158(14) -1.466(3)
H9 H 0.65760 -1.00260 -1.39470
W1B W 0.16150(16) -0.60209(6) -0.61901(14)
W2B W 0.17863(12) -0.42009(5) -0.28151(11)
W3B W 0.09782(17) -0.62217(5) -0.35623(12)
W4B W -0.23983(12) -0.59205(5) -0.45307(11)
W5B W -0.04868(14) -0.51724(6) -0.23164(11)
W6B W 0.33623(13) -0.52710(6) -0.39197(11)
Ag1A Ag 0.0197(3) -1.22851(13) -0.7209(3)
Ag2A Ag 0.3441(3) -1.26263(14) -1.0775(3)
Ag3A Ag 0.5934(3) -1.13515(12) -1.4017(3)
Ag4A Ag 0.2916(3) -0.40203(11) -0.9460(3)
Ag4A* Ag 0.2916(3) -1.40203(11) -0.9460(3)
Ag5B Ag 0.5515(3) -1.13960(12) -1.6915(3)
Ag5C Ag 0.4485(3) -0.63960(12) -0.8085(3)
Ag5A Ag 0.5515(3) -1.36040(12) -1.1915(3)
O1B O 0.124(6) -0.549(2) -0.474(5)
O2B O 0.005(6) -0.469(2) -0.381(5)
O3B O -0.131(6) -0.529(2) -0.545(5)
O4B O 0.039(6) -0.458(2) -0.585(5)
O5B O 0.149(3) -0.5479(13) -0.729(4)
O6B O 0.300(3) -0.5673(14) -0.524(3)
O7B O 0.236(3) -0.6518(11) -0.671(2)
O8B O -0.017(4) -0.6185(17) -0.689(5)
O9B O 0.129(3) -0.6418(19) -0.496(3)
O10B O 0.099(3) -0.4700(14) -0.201(4)
O11B O 0.223(3) -0.3880(12) -0.403(2)
O12B O 0.268(3) -0.3813(12) -0.174(3)
O13B O 0.310(3) -0.4768(11) -0.286(2)
O14B O 0.064(3) -0.5780(16) -0.243(3)
O15B O -0.077(3) -0.6369(16) -0.404(3)
O16B O 0.266(3) -0.5846(17) -0.321(3)
O17B O 0.142(3) -0.6798(11) -0.288(2)
O18B O -0.344(3) -0.6397(13) -0.433(3)
O19B O -0.344(3) -0.5371(15) -0.515(3)
O20B O -0.196(3) -0.5567(15) -0.316(3)
O21B O -0.072(3) -0.5277(12) -0.103(2)
O22B O 0.493(3) -0.5385(13) -0.341(2)
N1A N -0.073(4) -1.1943(13) -0.605(3)
N2A N -0.052(4) -1.1433(17) -0.566(3)
H1A H 0.00270 -1.12050 -0.58270
C1A C -0.128(4) -1.1342(15) -0.497(3)
H2A H -0.13120 -1.10170 -0.45920
N3A N -0.199(4) -1.1771(17) -0.490(3)
C2A C -0.160(4) -1.214(2) -0.553(4)
H3A H -0.18980 -1.24930 -0.56060
N4A N 0.237(3) -1.2777(12) -0.959(2)
N5A N 0.223(2) -1.3243(11) -0.910(2)
N5A* N 0.223(2) -0.3243(11) -0.910(2)
C3A C 0.151(3) -1.3184(13) -0.835(3)
H4A H 0.12760 -1.34610 -0.79290
N6A N 0.117(3) -1.2647(13) -0.832(3)
C4A C 0.170(3) -1.2430(16) -0.910(4)
H5A H 0.16080 -1.20630 -0.92940
N7A N 0.462(2) -1.2420(11) -1.192(2)
N8A N 0.512(3) -1.2811(11) -1.250(3)
N8B N 0.512(3) -1.2189(11) -1.750(3)
C5A C 0.568(3) -1.2532(16) -1.319(3)
H6A H 0.61200 -1.26860 -1.36860
N9A N 0.550(4) -1.1982(14) -1.307(3)
C6A C 0.489(3) -1.1949(15) -1.222(3)
H7A H 0.47030 -1.16260 -1.18980
N10A N 0.379(3) -0.5671(11) -1.008(2)
N11A N 0.394(2) -0.5677(10) -0.896(2)
N11B N 0.394(2) -0.9323(10) -1.396(2)
C7A C 0.370(3) -0.5186(12) -0.864(3)
H8A H 0.37320 -0.50870 -0.79190
N12A N 0.340(3) -0.4845(11) -0.951(2)
C8A C 0.352(3) -0.5158(14) -1.034(3)
H9A H 0.34240 -0.50260 -1.10530
#END
