
#######################################################################
#
#                 Cambridge Crystallographic Data Centre
#                                CCDC
#
#######################################################################
#
# If this CIF has been generated from an entry in the Cambridge
# Structural Database, then it will include bibliographic, chemical,
# crystal, experimental, refinement or atomic coordinate data resulting
# from the CCDC's data processing and validation procedures.
#
#######################################################################

data_CSD_CIF_EQICAK04
_audit_creation_date 2015-08-17
_audit_creation_method CSD-ConQuest-V1
_database_code_CSD EQICAK04
_database_code_depnum_ccdc_archive 'CCDC 974498'
_chemical_formula_sum 'C24 H16 Cl4 Fe2 O8 S16'
_chemical_formula_moiety
;
2(C10 H8 S8 1+),(C4 Cl4 Fe2 O8 2-)n
;
_journal_coden_Cambridge 1078
_journal_year 2015
_journal_name_full 'CSD Communication(Private Communication) '
loop_
_publ_author_name
"Bin Zhang"
_chemical_name_systematic
;
catena-[bis(2-(5,6-dihydro[1,3]dithiolo[4,5-b][1,4]dithiin-2-ylidene)-5,6-dihy
dro[1,3]dithiolo[4,5-b][1,4]dithiinium) bis(\m-oxalato)-tetrachloro-di-iron]
;
_cell_volume   2039.534
_exptl_crystal_colour 'black'
_exptl_crystal_density_diffrn 1.952
_exptl_crystal_description 'plate'
_diffrn_ambient_temperature 293
#These two values have been output from a single CSD field.
_refine_ls_R_factor_gt 0.0592
_refine_ls_wR_factor_gt 0.0592
_symmetry_cell_setting triclinic
_symmetry_space_group_name_H-M 'P -1'
_symmetry_Int_Tables_number 2
loop_
_symmetry_equiv_pos_site_id
_symmetry_equiv_pos_as_xyz
1 x,y,z
2 -x,-y,-z
_cell_length_a 8.6991(8)
_cell_length_b 11.6213(11)
_cell_length_c 20.9805(17)
_cell_angle_alpha 80.327(7)
_cell_angle_beta 85.431(7)
_cell_angle_gamma 77.539(8)
_cell_formula_units_Z 2
loop_
_atom_type_symbol
_atom_type_radius_bond
C 0.68
H 0.23
Cl 0.99
Fe 1.52
O 0.68
S 1.02
loop_
_atom_site_label
_atom_site_type_symbol
_atom_site_fract_x
_atom_site_fract_y
_atom_site_fract_z
Fe1 Fe 0.96461(11) 0.14047(8) 0.18171(4)
Fe2 Fe 0.39877(11) 0.28799(8) 0.30495(4)
Cl1 Cl 1.1136(2) -0.04001(14) 0.17103(9)
Cl2 Cl 0.8700(2) 0.19637(13) 0.08204(7)
Cl3 Cl 0.2543(2) 0.46300(14) 0.32464(8)
Cl4 Cl 0.5145(2) 0.22456(15) 0.40091(7)
O1 O 0.7767(5) 0.0746(3) 0.22616(19)
O2 O 0.8189(5) 0.2971(3) 0.21039(19)
O3 O 0.5805(5) 0.3555(3) 0.2569(2)
O4 O 0.5386(5) 0.1320(3) 0.27214(19)
O5 O 0.0465(5) 0.1271(4) 0.27725(19)
O6 O 0.1336(5) 0.2400(4) 0.16326(18)
O7 O 0.2232(5) 0.1944(3) 0.32521(17)
O8 O 0.3055(5) 0.3095(3) 0.21185(18)
C1 C 0.6660(7) 0.1504(5) 0.2457(2)
C2 C 0.6908(7) 0.2805(5) 0.2372(2)
C3 C 0.1503(7) 0.1860(5) 0.2770(3)
C4 C 0.2035(7) 0.2508(5) 0.2112(3)
S1 S 0.15000(18) 1.10174(12) -0.03017(7)
S2 S 0.37684(19) 1.09445(13) -0.13956(7)
S3 S 0.34801(18) 0.85366(12) 0.03997(7)
S4 S 0.57453(19) 0.84526(12) -0.07048(7)
S5 S -0.06295(19) 1.32315(13) -0.08733(8)
S6 S 0.2079(2) 1.3087(2) -0.21951(9)
S7 S 0.4831(2) 0.61756(16) 0.10858(9)
S8 S 0.7573(2) 0.60494(14) -0.02488(9)
C5 C 0.3226(7) 1.0295(5) -0.0641(3)
C6 C 0.4096(6) 0.9226(4) -0.0336(3)
C7 C 0.1102(7) 1.2172(5) -0.0947(3)
C8 C 0.2160(7) 1.2117(5) -0.1463(3)
C9 C 0.4914(7) 0.7225(5) 0.0394(3)
C10 C 0.5970(7) 0.7194(5) -0.0113(3)
C11 C -0.0836(10) 1.3975(9) -0.1693(4)
H1 H -0.16870 1.37070 -0.18570
H2 H -0.12220 1.48140 -0.16650
C12 C 0.0224(14) 1.3939(16) -0.2130(5)
H3 H 0.03860 1.47510 -0.22240
H4 H -0.02900 1.38250 -0.25020
C13 C 0.6208(10) 0.4913(7) 0.0854(5)
H5 H 0.64720 0.43410 0.12420
H6 H 0.56760 0.45420 0.05800
C14 C 0.7657(9) 0.5117(6) 0.0520(4)
H7 H 0.83030 0.43460 0.04630
H8 H 0.82070 0.54560 0.08030
S9 S 1.0739(2) -0.29748(12) 0.57090(7)
S10 S 1.1420(2) -0.40651(14) 0.45408(7)
S11 S 1.3505(2) -0.52142(13) 0.64089(7)
S12 S 1.3806(2) -0.62021(12) 0.52079(7)
S13 S 0.8262(3) -0.09637(17) 0.51141(10)
S14 S 0.9121(3) -0.23300(19) 0.37500(9)
S15 S 1.5917(2) -0.71949(16) 0.70696(9)
S16 S 1.6219(2) -0.83157(14) 0.56403(8)
C15 C 1.1816(7) -0.4122(5) 0.5336(3)
C16 C 1.2915(8) -0.5060(5) 0.5637(3)
C17 C 0.9622(7) -0.2283(5) 0.5050(3)
C18 C 0.9950(8) -0.2785(5) 0.4505(3)
C19 C 1.4881(7) -0.6544(5) 0.6386(3)
C20 C 1.5020(7) -0.6996(5) 0.5820(3)
C21 C 0.8462(12) -0.0254(7) 0.4288(5)
H9 H 0.78280 0.05490 0.42480
H10 H 0.95520 -0.01870 0.41970
C22 C 0.8015(11) -0.0843(8) 0.3799(4)
H11 H 0.81150 -0.03540 0.33810
H12 H 0.69110 -0.08790 0.38780
C23 C 1.6009(11) -0.8716(6) 0.6991(4)
H13 H 1.64970 -0.92220 0.73680
H14 H 1.49430 -0.88410 0.69890
C24 C 1.6881(11) -0.9093(7) 0.6410(3)
H15 H 1.68760 -0.99310 0.64210
H16 H 1.79690 -0.90330 0.64360
Fe1* Fe -0.03539(11) 0.14047(8) 0.18171(4)
O5* O 1.0465(5) 0.1271(4) 0.27725(19)
O6* O 1.1336(5) 0.2400(4) 0.16326(18)
#END
