
#######################################################################
#
#                 Cambridge Crystallographic Data Centre
#                                CCDC
#
#######################################################################
#
# If this CIF has been generated from an entry in the Cambridge
# Structural Database, then it will include bibliographic, chemical,
# crystal, experimental, refinement or atomic coordinate data resulting
# from the CCDC's data processing and validation procedures.
#
#######################################################################

data_CSD_CIF_EQICAK02
_audit_creation_date 2016-06-27
_audit_creation_method CSD-ConQuest-V1
_database_code_CSD EQICAK02
_database_code_depnum_ccdc_archive 'CCDC 972917'
_chemical_formula_sum 'C24 H16 Cl4 Fe2 O8 S16'
_chemical_formula_moiety
;
(C10 H8 S8 1+)2n,n(C4 Cl4 Fe2 O8 2-)
;
_journal_coden_Cambridge 222
_journal_volume 45
_journal_year 2016
_journal_page_first 16561
_journal_name_full 'Dalton Trans. '
loop_
_publ_author_name
"B.Zhang"
"Y.Zhang"
"Z.Wang"
"D.Yang"
"Z.Gao"
"D.Wang"
"Y.Guo"
"D.Zhu"
"T.Mori"
_chemical_name_systematic
;
catena-[bis(2-(5,6-dihydro[1,3]dithiolo[4,5-b][1,4]dithiin-2-ylidene)-5,6-dihy
dro[1,3]dithiolo[4,5-b][1,4]dithiin-1-ium) 
bis(\m-oxalato)-tetrachloro-di-iron(iii)]
;
_cell_volume    995.637
_exptl_crystal_colour 'black'
_exptl_crystal_density_diffrn 1.999
_exptl_crystal_description 'rod'
_diffrn_ambient_temperature 170
#These two values have been output from a single CSD field.
_refine_ls_R_factor_gt 0.0354
_refine_ls_wR_factor_gt 0.0354
_symmetry_cell_setting triclinic
_symmetry_space_group_name_H-M 'P -1'
_symmetry_Int_Tables_number 2
loop_
_symmetry_equiv_pos_site_id
_symmetry_equiv_pos_as_xyz
1 x,y,z
2 -x,-y,-z
_cell_length_a 8.896(2)
_cell_length_b 11.401(3)
_cell_length_c 11.427(3)
_cell_angle_alpha 112.062(2)
_cell_angle_beta 103.775(2)
_cell_angle_gamma 100.328(4)
_cell_formula_units_Z 1
loop_
_atom_type_symbol
_atom_type_radius_bond
C 0.68
H 0.23
Cl 0.99
Fe 1.52
O 0.68
S 1.02
loop_
_atom_site_label
_atom_site_type_symbol
_atom_site_fract_x
_atom_site_fract_y
_atom_site_fract_z
Fe1 Fe 0.67710(4) 0.37559(3) 0.35496(3)
Cl1 Cl 0.70967(8) 0.17183(6) 0.30202(6)
Cl2 Cl 0.52208(8) 0.33783(7) 0.14945(6)
O1 O 0.6478(2) 0.56649(17) 0.44758(17)
O2 O 0.8465(2) 0.44092(17) 0.55190(17)
O3 O 1.1150(2) 0.53221(18) 0.66103(17)
O4 O 0.5035(2) 0.66502(17) 0.56978(17)
C1 C 0.5443(3) 0.5673(2) 0.5051(2)
C2 C 0.9885(3) 0.4926(2) 0.5619(2)
S1 S 0.65499(7) 0.05410(6) -0.07901(6)
S2 S 0.94174(7) 0.28455(6) 0.05165(6)
S3 S 0.82414(7) -0.08056(6) 0.09120(6)
S4 S 1.11107(7) 0.15200(6) 0.23224(6)
S5 S 0.46053(7) 0.16059(6) -0.23916(6)
S6 S 0.80816(10) 0.43535(8) -0.08441(10)
S7 S 0.92662(8) -0.21915(7) 0.24955(7)
S8 S 1.27315(8) 0.06309(7) 0.42669(7)
C3 C 0.8491(3) 0.1301(2) 0.0332(2)
C4 C 0.9240(3) 0.0718(2) 0.1080(2)
C5 C 0.6447(3) 0.1828(2) -0.1244(2)
C6 C 0.7796(3) 0.2898(3) -0.0644(3)
C7 C 0.9712(3) -0.0764(2) 0.2251(2)
C8 C 1.1042(3) 0.0308(2) 0.2913(2)
C9 C 0.4798(3) 0.3294(3) -0.2164(3)
H1 H 0.38720 0.32910 -0.28480
H2 H 0.47380 0.38220 -0.12720
C10 C 0.6357(3) 0.3956(3) -0.2268(3)
H3 H 0.62750 0.47790 -0.23480
H4 H 0.65130 0.33590 -0.30900
C11 C 1.0761(3) -0.1664(3) 0.4114(3)
H5 H 1.04410 -0.10370 0.48120
H6 H 1.07800 -0.24450 0.42980
C12 C 1.2453(3) -0.0999(3) 0.4207(3)
H7 H 1.26970 -0.15710 0.34230
H8 H 1.32440 -0.09300 0.50210
O1A O 0.3522(2) 0.43351(17) 0.55242(17)
C1A C 0.4557(3) 0.4327(2) 0.4949(2)
O4A O 0.4965(2) 0.33498(17) 0.43022(17)
O2A O 1.1535(2) 0.55908(17) 0.44810(17)
C2A C 1.0115(3) 0.5074(2) 0.4381(2)
O3A O 0.8850(2) 0.46779(18) 0.33897(17)
Fe1A Fe 0.32290(4) 0.62441(3) 0.64504(3)
Cl1A Cl 0.29033(8) 0.82817(6) 0.69798(6)
Cl2A Cl 0.47792(8) 0.66217(7) 0.85055(6)
Fe1A* Fe 1.32290(4) 0.62441(3) 0.64504(3)
O2A* O 0.1535(2) 0.55908(17) 0.44810(17)
O3* O 0.1150(2) 0.53221(18) 0.66103(17)
#END
