
#######################################################################
#
#                 Cambridge Crystallographic Data Centre
#                                CCDC
#
#######################################################################
#
# If this CIF has been generated from an entry in the Cambridge
# Structural Database, then it will include bibliographic, chemical,
# crystal, experimental, refinement or atomic coordinate data resulting
# from the CCDC's data processing and validation procedures.
#
#######################################################################

data_CSD_CIF_EQICAK07
_audit_creation_date 2017-04-11
_audit_creation_method CSD-ConQuest-V1
_database_code_CSD EQICAK07
_database_code_depnum_ccdc_archive 'CCDC 1543505'
_chemical_formula_sum 'C48 H32 Cl8 Fe4 O16 S32'
_chemical_formula_moiety
;
(C8 Cl8 Fe4 O16 4-)n,4(C10 H8 S8 1+)
;
_journal_coden_Cambridge 1078
_journal_year 2017
_journal_name_full 'CSD Communication(Private Communication) '
loop_
_publ_author_name
"Bin Zhang"
_chemical_name_systematic
;
catena-[tetrakis(2-(5,6-dihydro-2H-[1,3]dithiolo[4,5-b][1,4]dithiin-2-ylidene)
-5,6-dihydro-2H-[1,3]dithiolo[4,5-b][1,4]dithiin-1-ium) 
tetrakis(\m-oxalato)-octachloro-tetra-iron]
;
_cell_volume   2052.904
_exptl_crystal_colour 'black'
_exptl_crystal_density_diffrn 1.939
_exptl_special_details
;
Organic Solid Laboratory, BNLMS, CMS & Institute of Chemistry, Chinese 
Academy of Sciences, Beijing, 100190, P. R. China
;
_exptl_crystal_description 'needle'
_diffrn_ambient_temperature 100
#These two values have been output from a single CSD field.
_refine_ls_R_factor_gt 0.049
_refine_ls_wR_factor_gt 0.049
_symmetry_cell_setting triclinic
_symmetry_space_group_name_H-M 'P -1'
_symmetry_Int_Tables_number 2
loop_
_symmetry_equiv_pos_site_id
_symmetry_equiv_pos_as_xyz
1 x,y,z
2 -x,-y,-z
_cell_length_a 12.182(2)
_cell_length_b 13.352(3)
_cell_length_c 16.978(3)
_cell_angle_alpha 106.479(12)
_cell_angle_beta 106.821(14)
_cell_angle_gamma 117.151(10)
_cell_formula_units_Z 1
loop_
_atom_type_symbol
_atom_type_radius_bond
C 0.68
H 0.23
Cl 0.99
Fe 1.52
O 0.68
S 1.02
loop_
_atom_site_label
_atom_site_type_symbol
_atom_site_fract_x
_atom_site_fract_y
_atom_site_fract_z
Fe1 Fe -0.00730(5) -0.13106(5) 0.33894(4)
Fe2 Fe 0.05641(6) 0.17121(5) 0.16891(4)
Cl1 Cl 0.14353(10) -0.16704(9) 0.30603(7)
Cl2 Cl -0.17091(10) -0.33010(9) 0.30868(7)
Cl3 Cl 0.25397(11) 0.35751(10) 0.20681(7)
Cl4 Cl -0.08023(11) 0.23388(9) 0.19429(7)
O1 O -0.1113(3) -0.1435(2) 0.21316(17)
O2 O 0.1261(3) 0.0641(2) 0.36968(17)
O3 O -0.0973(3) -0.0204(2) 0.14341(17)
O4 O 0.1476(3) 0.1822(2) 0.29558(18)
O5 O 0.1009(3) -0.0554(2) 0.48229(17)
O6 O 0.1180(3) 0.0605(2) 0.61751(17)
O7 O -0.0631(3) 0.0923(2) 0.02470(17)
O8 O -0.1293(3) -0.0620(2) -0.11416(18)
C1 C -0.0543(4) -0.0392(3) 0.2105(2)
C2 C 0.0857(4) 0.0795(3) 0.3005(3)
C3 C 0.0637(4) 0.0017(3) 0.5295(2)
C4 C -0.0554(4) 0.0091(4) -0.0261(3)
S1 S -0.17864(10) 0.42366(9) 0.34551(7)
S2 S -0.09563(10) 0.27609(8) 0.41232(7)
S3 S 0.1357(1) 0.61801(9) 0.38662(6)
S4 S 0.22214(10) 0.47072(9) 0.44907(7)
S5 S -0.47875(11) 0.25833(10) 0.29291(7)
S6 S -0.38217(11) 0.07521(9) 0.36893(7)
S7 S 0.41317(10) 0.81101(9) 0.41391(7)
S8 S 0.51855(11) 0.63377(10) 0.48840(8)
C5 C -0.0447(4) 0.4092(3) 0.3961(3)
C6 C 0.0912(4) 0.4925(3) 0.4118(2)
C7 C -0.3138(4) 0.2851(3) 0.3373(3)
C8 C -0.2735(4) 0.2167(3) 0.3679(3)
C9 C 0.3112(4) 0.6729(3) 0.4214(2)
C10 C 0.3523(4) 0.6048(3) 0.4516(3)
C11 C -0.5865(4) 0.1182(4) 0.3023(3)
H1 H -0.57290 0.14720 0.36700
H2 H -0.68750 0.07500 0.25830
C12 C -0.5516(4) 0.0209(4) 0.2804(3)
H3 H -0.55280 0.00090 0.21920
H4 H -0.62670 -0.06000 0.27340
C13 C 0.5846(4) 0.8378(4) 0.4522(3)
H5 H 0.63540 0.88780 0.42590
H6 H 0.64100 0.89070 0.52180
C14 C 0.5764(4) 0.7152(4) 0.4232(3)
H7 H 0.67080 0.73640 0.43480
H8 H 0.50930 0.65630 0.35490
S9 S -0.24702(9) 0.22188(8) -0.02786(6)
S10 S -0.15472(9) 0.45572(8) 0.13184(6)
S11 S 0.07462(10) 0.36474(8) 0.00329(6)
S12 S 0.15865(9) 0.59604(8) 0.16185(6)
S13 S -0.54919(10) 0.07415(9) -0.07329(7)
S14 S -0.43136(10) 0.35391(9) 0.12399(7)
S15 S 0.36534(10) 0.47051(9) 0.03137(7)
S16 S 0.45629(10) 0.75340(9) 0.21049(6)
C15 C -0.1121(4) 0.3797(3) 0.0580(2)
C16 C 0.0242(4) 0.4400(3) 0.0702(2)
C17 C 0.2526(4) 0.4954(3) 0.0647(3)
C18 C 0.2911(4) 0.6032(3) 0.1372(3)
C19 C -0.3770(4) 0.2183(3) -0.0014(3)
C20 C -0.3344(4) 0.3256(3) 0.0736(3)
C21 C 0.5285(4) 0.5901(4) 0.1433(3)
H9 H 0.51700 0.56780 0.19260
H10 H 0.60590 0.58690 0.13800
C22 C 0.5702(4) 0.7251(4) 0.1734(3)
H11 H 0.56750 0.74260 0.12020
H12 H 0.66880 0.78650 0.22610
C23 C -0.6108(4) 0.0850(3) 0.0130(3)
H13 H -0.70870 0.00740 -0.01610
H14 H -0.55000 0.08650 0.06730
C24 C -0.6083(4) 0.2045(3) 0.0481(3)
H15 H -0.66150 0.19610 0.08310
H16 H -0.65780 0.20910 -0.00700
O5A O -0.1009(3) 0.0554(2) 0.51771(17)
C3A C -0.0637(4) -0.0017(3) 0.4705(2)
O6A O -0.1180(3) -0.0605(2) 0.38249(17)
O7A O 0.0631(3) -0.0923(2) -0.02470(17)
C4A C 0.0554(4) -0.0091(4) 0.0261(3)
O8A O 0.1293(3) 0.0620(2) 0.11416(18)
Fe1A Fe 0.00730(5) 0.13106(5) -0.33894(4)
Fe2A Fe -0.05641(6) -0.17121(5) -0.16891(4)
Cl1A Cl -0.14353(10) 0.16704(9) -0.30603(7)
Cl2A Cl 0.17091(10) 0.33010(9) -0.30868(7)
Cl3A Cl -0.25397(11) -0.35751(10) -0.20681(7)
Cl4A Cl 0.08023(11) -0.23388(9) -0.19429(7)
O1A O 0.1113(3) 0.1435(2) -0.21316(17)
O2A O -0.1261(3) -0.0641(2) -0.36968(17)
O3A O 0.0973(3) 0.0204(2) -0.14341(17)
O4A O -0.1476(3) -0.1822(2) -0.29558(18)
C1A C 0.0543(4) 0.0392(3) -0.2105(2)
C2A C -0.0857(4) -0.0795(3) -0.3005(3)
Fe1A* Fe 0.00730(5) 0.13106(5) 0.66106(4)
O5A* O -0.1009(3) 0.0554(2) -0.48229(17)
O6* O 0.1180(3) 0.0605(2) -0.38249(17)
#END
