
#######################################################################
#
#                 Cambridge Crystallographic Data Centre
#                                CCDC
#
#######################################################################
#
# If this CIF has been generated from an entry in the Cambridge
# Structural Database, then it will include bibliographic, chemical,
# crystal, experimental, refinement or atomic coordinate data resulting
# from the CCDC's data processing and validation procedures.
#
#######################################################################

data_CSD_CIF_EQICAK08
_audit_creation_date 2017-04-11
_audit_creation_method CSD-ConQuest-V1
_database_code_CSD EQICAK08
_database_code_depnum_ccdc_archive 'CCDC 1543506'
_chemical_formula_sum 'C48 H32 Cl8 Fe4 O16 S32'
_chemical_formula_moiety
;
(C8 Cl8 Fe4 O16 4-)n,4(C10 H8 S8 1+)
;
_journal_coden_Cambridge 1078
_journal_year 2017
_journal_name_full 'CSD Communication(Private Communication) '
loop_
_publ_author_name
"Bin Zhang"
_chemical_name_systematic
;
catena-[tetrakis(2-(5,6-dihydro-2H-[1,3]dithiolo[4,5-b][1,4]dithiin-2-ylidene)
-5,6-dihydro-2H-[1,3]dithiolo[4,5-b][1,4]dithiin-1-ium) 
tetrakis(\m-oxalato)-octachloro-tetra-iron]
;
_cell_volume   2061.322
_exptl_crystal_colour 'black'
_exptl_crystal_density_diffrn 1.932
_exptl_special_details
;
Organic Solid Laboratory, BNLMS, CMS & Institute of Chemistry, Chinese 
Academy of Sciences, Beijing, 100190, P. R. China
;
_exptl_crystal_description 'needle'
_diffrn_ambient_temperature 293
#These two values have been output from a single CSD field.
_refine_ls_R_factor_gt 0.0562
_refine_ls_wR_factor_gt 0.0562
_symmetry_cell_setting triclinic
_symmetry_space_group_name_H-M 'P -1'
_symmetry_Int_Tables_number 2
loop_
_symmetry_equiv_pos_site_id
_symmetry_equiv_pos_as_xyz
1 x,y,z
2 -x,-y,-z
_cell_length_a 12.168(2)
_cell_length_b 13.286(2)
_cell_length_c 14.822(3)
_cell_angle_alpha 101.211(1)
_cell_angle_beta 94.619(2)
_cell_angle_gamma 116.681(2)
_cell_formula_units_Z 1
loop_
_atom_type_symbol
_atom_type_radius_bond
C 0.68
H 0.23
Cl 0.99
Fe 1.52
O 0.68
S 1.02
loop_
_atom_site_label
_atom_site_type_symbol
_atom_site_fract_x
_atom_site_fract_y
_atom_site_fract_z
Fe1 Fe 0.11288(5) 0.00092(5) 0.16851(4)
Fe2 Fe 0.34934(5) 0.46866(4) 0.33893(4)
Cl1 Cl 0.27278(13) -0.03848(11) 0.19503(8)
Cl2 Cl -0.04514(14) -0.1464(1) 0.20622(10)
Cl3 Cl 0.48115(11) 0.63619(9) 0.30776(9)
Cl4 Cl 0.16765(10) 0.47322(11) 0.30374(9)
O1 O 0.2409(3) 0.1666(2) 0.14369(17)
O2 O 0.1461(3) 0.1149(2) 0.29318(17)
O3 O 0.3316(2) 0.3571(2) 0.21548(17)
O4 O 0.2457(2) 0.3041(2) 0.36836(16)
O5 O 0.0909(2) -0.0642(2) 0.02665(18)
O6 O 0.0139(3) -0.0551(2) -0.11189(18)
O7 O 0.5029(2) 0.4421(2) 0.38564(17)
O8 O 0.6205(2) 0.4659(2) 0.51961(17)
C1 C 0.2673(3) 0.2506(3) 0.2110(2)
C2 C 0.2155(3) 0.2211(3) 0.2992(2)
C3 C 0.0300(3) -0.0346(3) -0.0249(2)
C4 C 0.5358(3) 0.4730(3) 0.4725(2)
S1 S 0.71179(9) 0.32227(9) -0.13030(7)
S2 S 0.77775(10) 0.24728(9) 0.02827(7)
S3 S 0.99097(9) 0.43001(9) -0.16156(7)
S4 S 1.06656(9) 0.35801(9) -0.00417(7)
S5 S 0.44696(10) 0.23419(10) -0.11976(8)
S6 S 0.52418(11) 0.15057(10) 0.07539(8)
S7 S 1.23773(10) 0.53825(10) -0.21052(7)
S8 S 1.32655(10) 0.43831(11) -0.03097(8)
C5 C 0.8269(4) 0.3186(3) -0.0570(2)
C6 C 0.9492(4) 0.3656(3) -0.0708(3)
C7 C 0.5921(4) 0.2530(3) -0.0720(3)
C8 C 0.6238(4) 0.2200(3) 0.0031(3)
C9 C 1.1472(3) 0.4626(3) -0.1372(2)
C10 C 1.1816(4) 0.4277(3) -0.0657(3)
C11 C 0.3448(4) 0.1575(4) -0.0468(3)
H1 H 0.34570 0.21430 0.00590
H2 H 0.25980 0.11330 -0.08270
C12 C 0.3797(4) 0.0753(4) -0.0099(3)
H3 H 0.38790 0.02390 -0.06190
H4 H 0.31270 0.02750 0.01860
C13 C 1.3794(6) 0.5329(7) -0.1816(5)
H5 H 1.40480 0.51470 -0.24040
H6 H 1.44210 0.61160 -0.14830
C14 C 1.3895(7) 0.4638(9) -0.1327(5)
H7 H 1.47860 0.49100 -0.11490
H8 H 1.35560 0.38770 -0.17660
S9 S 0.77272(11) 0.02017(9) -0.45055(9)
S10 S 0.74744(10) 0.22861(8) -0.38778(7)
S11 S 0.49487(10) -0.13570(9) -0.41125(8)
S12 S 0.47834(10) 0.07756(9) -0.34540(8)
S13 S 1.02633(13) 0.14428(11) -0.49229(12)
S14 S 0.99339(11) 0.39286(9) -0.41693(9)
S15 S 0.25635(13) -0.29130(11) -0.36628(10)
S16 S 0.23453(12) -0.03374(11) -0.29036(10)
C15 C 0.6795(4) 0.0793(3) -0.4118(3)
C16 C 0.5608(4) 0.0129(3) -0.3950(3)
C17 C 0.8971(4) 0.1514(4) -0.4532(3)
C18 C 0.8868(4) 0.2483(3) -0.4243(3)
C19 C 0.3625(4) -0.1497(3) -0.3659(3)
C20 C 0.3547(4) -0.0515(4) -0.3357(3)
C21 C 1.1466(4) 0.2869(5) -0.4286(4)
H9 H 1.14860 0.29420 -0.36200
H10 H 1.22710 0.29600 -0.44110
C22 C 1.1270(4) 0.3820(4) -0.4539(3)
H11 H 1.11670 0.36960 -0.52140
H12 H 1.20180 0.45580 -0.42610
C23 C 0.1604(6) -0.2620(6) -0.2931(7)
H13 H 0.08280 -0.33450 -0.30550
H14 H 0.20070 -0.24810 -0.22940
C24 C 0.1267(7) -0.1781(6) -0.2912(7)
H15 H 0.08950 -0.17290 -0.23610
H16 H 0.06010 -0.20650 -0.34510
O5A O -0.0909(2) 0.0642(2) -0.02665(18)
C3A C -0.0300(3) 0.0346(3) 0.0249(2)
O6A O -0.0139(3) 0.0551(2) 0.11189(18)
O7A O 0.4971(2) 0.5579(2) 0.61436(17)
C4A C 0.4642(3) 0.5270(3) 0.5275(2)
O8A O 0.3795(2) 0.5341(2) 0.48039(17)
Fe1A Fe -0.11288(5) -0.00092(5) -0.16851(4)
Fe2A Fe -0.34934(5) -0.46866(4) -0.33893(4)
Cl1A Cl -0.27278(13) 0.03848(11) -0.19503(8)
Cl2A Cl 0.04514(14) 0.1464(1) -0.20622(10)
Cl3A Cl -0.48115(11) -0.63619(9) -0.30776(9)
Cl4A Cl -0.16765(10) -0.47322(11) -0.30374(9)
O1A O -0.2409(3) -0.1666(2) -0.14369(17)
O2A O -0.1461(3) -0.1149(2) -0.29318(17)
O3A O -0.3316(2) -0.3571(2) -0.21548(17)
O4A O -0.2457(2) -0.3041(2) -0.36836(16)
C1A C -0.2673(3) -0.2506(3) -0.2110(2)
C2A C -0.2155(3) -0.2211(3) -0.2992(2)
Fe2A* Fe 0.65066(5) 0.53134(4) 0.66107(4)
O7A* O -0.5029(2) -0.4421(2) -0.38564(17)
O8* O -0.3795(2) -0.5341(2) -0.48039(17)
#END
