
#######################################################################
#
#                 Cambridge Crystallographic Data Centre
#                                CCDC
#
#######################################################################
#
# If this CIF has been generated from an entry in the Cambridge
# Structural Database, then it will include bibliographic, chemical,
# crystal, experimental, refinement or atomic coordinate data resulting
# from the CCDC's data processing and validation procedures.
#
#######################################################################

data_CSD_CIF_EQICAK06
_audit_creation_date 2015-08-17
_audit_creation_method CSD-ConQuest-V1
_database_code_CSD EQICAK06
_database_code_depnum_ccdc_archive 'CCDC 1419264'
_chemical_formula_sum 'C24 H16 Cl4 Fe2 O8 S16'
_chemical_formula_moiety
;
2(C10 H8 S8 1+),(C4 Cl4 Fe2 O8 2-)n
;
_journal_coden_Cambridge 1078
_journal_year 2015
_journal_name_full 'CSD Communication(Private Communication) '
loop_
_publ_author_name
"Bin Zhang"
_chemical_name_systematic
;
catena-[bis(2-(5,6-dihydro[1,3]dithiolo[4,5-b][1,4]dithiin-2-ylidene)-5,6-dihy
dro[1,3]dithiolo[4,5-b][1,4]dithiinium) bis(\m-oxalato)-tetrachloro-di-iron]
;
_cell_volume   1004.495
_exptl_crystal_colour 'black'
_exptl_crystal_density_diffrn 1.982
_exptl_crystal_description 'needle'
_diffrn_ambient_temperature 220
#These two values have been output from a single CSD field.
_refine_ls_R_factor_gt 0.0695
_refine_ls_wR_factor_gt 0.0695
_symmetry_cell_setting triclinic
_symmetry_space_group_name_H-M 'P -1'
_symmetry_Int_Tables_number 2
loop_
_symmetry_equiv_pos_site_id
_symmetry_equiv_pos_as_xyz
1 x,y,z
2 -x,-y,-z
_cell_length_a 8.8679(11)
_cell_length_b 11.4460(15)
_cell_length_c 11.4884(16)
_cell_angle_alpha 111.829(13)
_cell_angle_beta 103.874(12)
_cell_angle_gamma 100.119(11)
_cell_formula_units_Z 1
loop_
_atom_type_symbol
_atom_type_radius_bond
C 0.68
H 0.23
Cl 0.99
Fe 1.52
O 0.68
S 1.02
loop_
_atom_site_label
_atom_site_type_symbol
_atom_site_fract_x
_atom_site_fract_y
_atom_site_fract_z
Fe1 Fe 0.67666(13) 0.37535(9) 0.35546(10)
Cl1 Cl 0.7096(2) 0.17286(15) 0.30315(16)
Cl2 Cl 0.5216(2) 0.33759(17) 0.15108(17)
O1 O 0.6477(6) 0.5649(4) 0.4471(4)
O2 O 0.8472(6) 0.4396(4) 0.5512(4)
O3 O 1.1146(6) 0.5322(4) 0.6608(4)
O4 O 0.5045(6) 0.6634(4) 0.5680(5)
C1 C 0.5451(8) 0.5665(6) 0.5055(6)
C2 C 0.9889(8) 0.4915(6) 0.5610(6)
S1 S 0.65540(18) 0.05533(14) -0.07830(14)
S2 S 0.9419(2) 0.28408(14) 0.05229(16)
S3 S 0.82402(19) -0.07912(14) 0.09228(14)
S4 S 1.1112(2) 0.15091(14) 0.23186(14)
S5 S 0.46247(19) 0.16180(15) -0.23865(15)
S6 S 0.8074(3) 0.4344(2) -0.0838(3)
S7 S 0.9268(2) -0.21725(18) 0.25080(19)
S8 S 1.2730(2) 0.06186(16) 0.42547(16)
C3 C 0.8485(7) 0.1299(5) 0.0340(6)
C4 C 0.9257(8) 0.0724(6) 0.1091(6)
C5 C 0.6449(8) 0.1822(6) -0.1248(6)
C6 C 0.7800(9) 0.2889(6) -0.0630(7)
C7 C 0.9698(8) -0.0756(6) 0.2259(6)
C8 C 1.1048(8) 0.0301(6) 0.2907(6)
C9 C 0.4816(9) 0.3294(6) -0.2170(8)
H1 H 0.39050 0.32880 -0.28530
H2 H 0.47320 0.38070 -0.13020
C10 C 0.6364(8) 0.3966(7) -0.2248(7)
H3 H 0.62750 0.47820 -0.23140
H4 H 0.65340 0.33970 -0.30550
C11 C 1.0771(9) -0.1654(7) 0.4112(7)
H5 H 1.04460 -0.10450 0.47980
H6 H 1.07970 -0.24250 0.42900
C12 C 1.2444(8) -0.0992(6) 0.4212(7)
H7 H 1.27020 -0.15560 0.34510
H8 H 1.32220 -0.09200 0.50200
O1A O 0.3523(6) 0.4351(4) 0.5529(4)
C1A C 0.4549(8) 0.4335(6) 0.4945(6)
O4A O 0.4955(6) 0.3366(4) 0.4320(5)
O2A O 1.1528(6) 0.5604(4) 0.4488(4)
C2A C 1.0111(8) 0.5085(6) 0.4390(6)
O3A O 0.8854(6) 0.4678(4) 0.3392(4)
Fe1A Fe 0.32334(13) 0.62465(9) 0.64454(10)
Cl1A Cl 0.2904(2) 0.82714(15) 0.69685(16)
Cl2A Cl 0.4784(2) 0.66241(17) 0.84892(17)
Fe1A* Fe 1.32334(13) 0.62465(9) 0.64454(10)
O2A* O 0.1528(6) 0.5604(4) 0.4488(4)
O3* O 0.1146(6) 0.5322(4) 0.6608(4)
#END
