
#######################################################################
#
#                 Cambridge Crystallographic Data Centre
#                                CCDC
#
#######################################################################
#
# If this CIF has been generated from an entry in the Cambridge
# Structural Database, then it will include bibliographic, chemical,
# crystal, experimental, refinement or atomic coordinate data resulting
# from the CCDC's data processing and validation procedures.
#
#######################################################################

data_CSD_CIF_EQICAK03
_audit_creation_date 2015-08-17
_audit_creation_method CSD-ConQuest-V1
_database_code_CSD EQICAK03
_database_code_depnum_ccdc_archive 'CCDC 1419262'
_chemical_formula_sum 'C24 H16 Cl4 Fe2 O8 S16'
_chemical_formula_moiety
;
2(C10 H8 S8 1+),n(C4 Cl4 Fe2 O8 2-)
;
_journal_coden_Cambridge 1078
_journal_year 2015
_journal_name_full 'CSD Communication(Private Communication) '
loop_
_publ_author_name
"Bin Zhang"
_chemical_name_systematic
;
catena-[bis(2-(5,6-dihydro[1,3]dithiolo[4,5-b][1,4]dithiin-2-ylidene)-5,6-dihy
dro[1,3]dithiolo[4,5-b][1,4]dithiinium) bis(\m-oxalato)-tetrachloro-di-iron]
;
_cell_volume    996.306
_exptl_crystal_density_diffrn 1.998
_diffrn_ambient_temperature 100
#These two values have been output from a single CSD field.
_refine_ls_R_factor_gt 0.0836
_refine_ls_wR_factor_gt 0.0836
_symmetry_cell_setting triclinic
_symmetry_space_group_name_H-M 'P -1'
_symmetry_Int_Tables_number 2
loop_
_symmetry_equiv_pos_site_id
_symmetry_equiv_pos_as_xyz
1 x,y,z
2 -x,-y,-z
_cell_length_a 8.8870(18)
_cell_length_b 11.402(2)
_cell_length_c 11.422(2)
_cell_angle_alpha 111.97(3)
_cell_angle_beta 103.70(3)
_cell_angle_gamma 100.22(3)
_cell_formula_units_Z 1
loop_
_atom_type_symbol
_atom_type_radius_bond
C 0.68
H 0.23
Cl 0.99
Fe 1.52
O 0.68
S 1.02
loop_
_atom_site_label
_atom_site_type_symbol
_atom_site_fract_x
_atom_site_fract_y
_atom_site_fract_z
Fe1 Fe 0.67643(15) 0.37490(13) 0.35343(12)
Cl1 Cl 0.7090(3) 0.1704(2) 0.3006(2)
Cl2 Cl 0.5225(3) 0.3375(2) 0.1473(2)
O1 O 0.6466(8) 0.5654(6) 0.4473(6)
O2 O 0.8457(8) 0.4413(7) 0.5514(6)
O3 O 1.1131(7) 0.5318(6) 0.6614(6)
O4 O 0.5053(8) 0.6658(6) 0.5705(6)
C1 C 0.5464(10) 0.5669(10) 0.5049(9)
C2 C 0.9889(11) 0.4927(8) 0.5621(8)
S1 S 0.6552(3) 0.0536(2) -0.0793(2)
S2 S 0.9424(3) 0.2840(2) 0.0511(2)
S3 S 0.8243(3) -0.0811(2) 0.0913(2)
S4 S 1.1116(3) 0.1511(2) 0.2322(2)
S5 S 0.4601(3) 0.1604(2) -0.2400(2)
S6 S 0.8077(3) 0.4370(3) -0.0841(3)
S7 S 0.9271(3) -0.2203(2) 0.2506(2)
S8 S 1.2748(3) 0.0627(2) 0.4273(2)
C3 C 0.8498(10) 0.1283(9) 0.0318(8)
C4 C 0.9241(11) 0.0697(9) 0.1082(9)
C5 C 0.6449(11) 0.1816(9) -0.1268(8)
C6 C 0.7792(11) 0.2892(9) -0.0662(9)
C7 C 0.9732(10) -0.0770(9) 0.2268(9)
C8 C 1.1047(11) 0.0307(9) 0.2916(9)
C9 C 0.4791(11) 0.3308(9) -0.2163(10)
H1 H 0.38650 0.33110 -0.28430
H2 H 0.47320 0.38320 -0.12700
C10 C 0.6358(11) 0.3965(9) -0.2271(10)
H3 H 0.62750 0.47840 -0.23620
H4 H 0.65190 0.33630 -0.30870
C11 C 1.0781(12) -0.1656(10) 0.4142(10)
H5 H 1.04600 -0.10220 0.48330
H6 H 1.08010 -0.24280 0.43400
C12 C 1.2464(11) -0.1004(9) 0.4227(9)
H7 H 1.27070 -0.15810 0.34440
H8 H 1.32540 -0.09340 0.50410
O1A O 0.3534(8) 0.4346(6) 0.5527(6)
C1A C 0.4536(10) 0.4331(10) 0.4951(9)
O4A O 0.4947(8) 0.3342(6) 0.4295(6)
O2A O 1.1543(8) 0.5587(7) 0.4486(6)
C2A C 1.0111(11) 0.5073(8) 0.4379(8)
O3A O 0.8869(7) 0.4682(6) 0.3386(6)
Fe1A Fe 0.32357(15) 0.62510(13) 0.64657(12)
Cl1A Cl 0.2910(3) 0.8296(2) 0.6994(2)
Cl2A Cl 0.4775(3) 0.6625(2) 0.8527(2)
Fe1A* Fe 1.32357(15) 0.62510(13) 0.64657(12)
O2A* O 0.1543(8) 0.5587(7) 0.4486(6)
O3* O 0.1131(7) 0.5318(6) 0.6614(6)
#END
