
#######################################################################
#
#                 Cambridge Crystallographic Data Centre
#                                CCDC
#
#######################################################################
#
# If this CIF has been generated from an entry in the Cambridge
# Structural Database, then it will include bibliographic, chemical,
# crystal, experimental, refinement or atomic coordinate data resulting
# from the CCDC's data processing and validation procedures.
#
#######################################################################

data_CSD_CIF_EQIXAD
_audit_creation_date 2004-05-05
_audit_creation_method CSD-ConQuest-V1
_database_code_CSD EQIXAD
_database_code_depnum_ccdc_archive 'CCDC 184058'
_chemical_formula_sum 'C86 H159 As4 Co2 Mo12 N9 O69 S16'
_chemical_formula_moiety
;
(C72 H120 Co4 N8 O16 S12 8+)0.5n,n(C24 H24 As4 Mo12 N4 O46 4-),0.5n(C12 H10 
N2),10n(C2 H6 O1 S1),5n(H2 O1)
;
_journal_coden_Cambridge 222
_journal_year 2003
_journal_page_first 4678
_journal_name_full 'Dalton Trans. '
loop_
_publ_author_name
"B.J.S.Johnson"
"S.A.Geers"
"W.W.Brennessel"
"V.G.Young Junior"
"A.Stein"
_chemical_name_systematic
;
catena-[hemikis(tetrakis(\m~2~-4,4'-Bipyridylethene)-dodecakis(dimethylsulfoxi
de-O)-tetra-aqua-tetra-cobalt(ii)) 
tetrakis(\m~6~-4-aminophenylarsenato)-tetrakis(\m~3~-oxo)-hexakis(\m~2~-oxo)-t
etracosaoxo-deca-domolybdenum dimethylsulfoxide 4,4'-bipyridylethene solvate 
pentahydrate]
;
_cell_volume   6411.090
_exptl_crystal_colour 'pink'
_exptl_crystal_description 'flat block'
_diffrn_ambient_temperature 173
_refine_special_details
;
The SQUEEZE programme has been used to model the electron density associated 
with all but one of the DMSO solvent molecules; the liganded DMSO molecules 
are reported as disordered.
;
#These two values have been output from a single CSD field.
_refine_ls_R_factor_gt 0.0523
_refine_ls_wR_factor_gt 0.0523
_symmetry_cell_setting triclinic
_symmetry_space_group_name_H-M 'P -1'
_symmetry_Int_Tables_number 2
loop_
_symmetry_equiv_pos_site_id
_symmetry_equiv_pos_as_xyz
1 x,y,z
2 -x,-y,-z
_cell_length_a 15.5503(8)
_cell_length_b 16.3975(9)
_cell_length_c 25.675(1)
_cell_angle_alpha 86.469(1)
_cell_angle_beta 83.772(1)
_cell_angle_gamma 80.423(1)
_cell_formula_units_Z 2
loop_
_atom_type_symbol
_atom_type_radius_bond
C 0.68
H 0.23
As 1.21
Co 1.33
Mo 1.39
N 0.68
O 0.68
S 1.02
loop_
_atom_site_label
_atom_site_type_symbol
_atom_site_fract_x
_atom_site_fract_y
_atom_site_fract_z
Mo1 Mo 0.73854(5) 0.77685(5) 0.39965(3)
O1 O 0.7304(3) 0.8713(4) 0.3322(2)
O2 O 0.7670(3) 0.6924(4) 0.3270(2)
O3 O 0.8607(4) 0.7800(4) 0.3905(2)
O4 O 0.6244(3) 0.7750(4) 0.3687(2)
O5 O 0.7340(4) 0.6892(4) 0.4375(2)
O6 O 0.7033(4) 0.8520(4) 0.4432(2)
Mo2 Mo 0.57827(5) 0.88219(5) 0.33008(3)
As1 As 0.80419(6) 0.93278(6) 0.30842(4)
Mo3 Mo 0.62610(5) 0.67378(5) 0.32583(3)
As2 As 0.86118(6) 0.64207(6) 0.29715(4)
Mo4 Mo 0.97391(5) 0.78196(5) 0.35866(3)
O7 O 0.6318(4) 0.7887(4) 0.2684(2)
O8 O 0.5941(4) 0.9607(4) 0.2745(2)
O9 O 0.5638(4) 0.9429(4) 0.3818(2)
O10 O 0.4747(4) 0.8656(4) 0.3252(3)
O11 O 0.7803(3) 0.9688(4) 0.2481(2)
O12 O 0.9081(3) 0.8794(4) 0.3024(2)
C1 C 0.7982(6) 1.0193(6) 0.3537(4)
O13 O 0.6706(4) 0.6117(4) 0.2668(2)
O14 O 0.6383(4) 0.6018(4) 0.3764(2)
O15 O 0.5165(4) 0.6860(4) 0.3209(2)
O16 O 0.8467(4) 0.6243(4) 0.2347(2)
O17 O 0.9405(3) 0.7020(4) 0.2955(2)
C2 C 0.8942(6) 0.5416(6) 0.3346(3)
O18 O 1.0603(3) 0.7914(4) 0.2929(2)
O19 O 1.0293(4) 0.6937(4) 0.3859(2)
O20 O 1.0037(4) 0.8580(4) 0.3912(2)
As3 As 0.64037(6) 0.80164(6) 0.20285(4)
Mo5 Mo 0.64711(5) 1.01789(5) 0.21776(3)
Mo6 Mo 0.86106(5) 1.02860(5) 0.18089(3)
Mo7 Mo 1.03533(5) 0.90216(5) 0.25236(3)
C3 C 0.7244(7) 1.0465(7) 0.3876(4)
C4 C 0.8703(6) 1.0618(6) 0.3527(4)
Mo8 Mo 0.73211(5) 0.58122(5) 0.20201(3)
Mo9 Mo 0.94502(5) 0.59389(5) 0.16169(3)
Mo10 Mo 1.07246(5) 0.69401(5) 0.24603(3)
C5 C 0.9677(6) 0.4855(6) 0.3156(4)
C6 C 0.8481(6) 0.5198(6) 0.3813(3)
O21 O 0.7120(3) 0.7212(3) 0.1778(2)
O22 O 0.6813(3) 0.8899(4) 0.1834(2)
C7 C 0.5274(6) 0.8095(6) 0.1791(4)
O23 O 0.7417(4) 1.0239(3) 0.1569(2)
O24 O 0.5626(4) 1.0420(4) 0.1805(2)
O25 O 0.6500(4) 1.1094(4) 0.2449(3)
O26 O 0.8639(3) 0.8995(3) 0.1512(2)
O27 O 0.9586(4) 0.9814(4) 0.2143(2)
O28 O 0.8315(4) 1.1195(4) 0.2108(2)
O29 O 0.9075(4) 1.0585(4) 0.1206(2)
O30 O 0.9890(4) 0.8048(3) 0.2066(2)
O31 O 1.1290(4) 0.8937(4) 0.2117(2)
O32 O 1.0583(4) 0.9622(4) 0.2998(2)
H1 H 0.67600 1.01750 0.39050
C8 C 0.7201(7) 1.1150(7) 0.4172(4)
C9 C 0.8656(7) 1.1292(7) 0.3835(5)
H2 H 0.92240 1.04410 0.33070
O33 O 0.8217(4) 0.6016(4) 0.1401(2)
O34 O 0.7756(4) 0.4818(4) 0.2157(2)
O35 O 0.6483(4) 0.5715(4) 0.1666(2)
O36 O 0.8910(3) 0.7292(3) 0.1479(2)
O37 O 0.9991(4) 0.5921(4) 0.1008(2)
O38 O 0.9585(4) 0.4918(4) 0.1801(2)
O39 O 1.0253(4) 0.6319(4) 0.2007(2)
O40 O 1.1152(4) 0.6188(4) 0.2884(2)
O41 O 1.1629(4) 0.7179(4) 0.2083(2)
H3 H 0.99940 0.49760 0.28310
C10 C 0.9945(6) 0.4123(6) 0.3441(4)
C11 C 0.8744(6) 0.4470(6) 0.4089(4)
H4 H 0.79720 0.55590 0.39450
Mo11 Mo 0.78537(6) 0.70666(5) 0.09671(3)
Mo12 Mo 0.74382(5) 0.93498(5) 0.10464(3)
C12 C 0.4572(6) 0.7897(6) 0.2122(4)
C13 C 0.5157(7) 0.8347(7) 0.1283(4)
As4 As 0.94073(6) 0.81329(6) 0.15079(4)
H5 H 0.66830 1.13360 0.43920
C14 C 0.7919(7) 1.1571(7) 0.4148(4)
H6 H 0.91510 1.15650 0.38280
H7 H 1.04550 0.37570 0.33160
C15 C 0.9472(7) 0.3927(6) 0.3906(4)
H8 H 0.84200 0.43400 0.44100
O42 O 0.7606(4) 0.8229(4) 0.0890(2)
O43 O 0.8632(4) 0.6856(4) 0.0459(2)
O44 O 0.6958(4) 0.6793(4) 0.0745(2)
O45 O 0.6438(4) 0.9694(4) 0.0831(2)
O46 O 0.8100(4) 0.9739(4) 0.0568(2)
H9 H 0.46450 0.77130 0.24760
C16 C 0.3761(6) 0.7969(7) 0.1933(4)
C17 C 0.4353(7) 0.8436(7) 0.1089(4)
H10 H 0.56480 0.84650 0.10550
C18 C 1.0253(6) 0.8170(6) 0.0924(4)
N1 N 0.7873(6) 1.2258(6) 0.4433(4)
N2 N 0.9744(5) 0.3198(5) 0.4187(3)
H11 H 0.32750 0.78420 0.21620
C19 C 0.3641(6) 0.8219(7) 0.1423(4)
H12 H 0.42820 0.86390 0.07390
C20 C 1.0161(6) 0.8836(6) 0.0557(4)
C21 C 1.0931(6) 0.7529(6) 0.0828(4)
H13 H 0.83240 1.25230 0.44140
H14 H 0.73920 1.24350 0.46350
H15 H 0.94510 0.30780 0.44860
H16 H 1.02100 0.28560 0.40650
N3 N 0.2842(5) 0.8283(6) 0.1234(3)
H17 H 0.96780 0.92710 0.06100
C22 C 1.0763(7) 0.8877(6) 0.0114(4)
C23 C 1.1524(6) 0.7577(7) 0.0380(4)
H18 H 1.09970 0.70580 0.10640
H19 H 0.23880 0.81620 0.14420
H20 H 0.27820 0.84450 0.09050
H21 H 1.07030 0.93450 -0.01250
C24 C 1.1438(6) 0.8239(6) 0.0028(4)
H22 H 1.19990 0.71370 0.03180
N4 N 1.2044(5) 0.8276(5) -0.0403(3)
H23 H 1.19960 0.87110 -0.06220
H24 H 1.24800 0.78640 -0.04580
Co1 Co 0.24745(9) 0.23009(10) 0.16043(6)
O47 O 0.2865(4) 0.3307(5) 0.1947(3)
O48 O 0.2867(5) 0.1569(5) 0.2243(3)
S1 S 0.3726(3) 0.0955(3) 0.22290(18)
C25 C 0.4062(9) 0.0948(10) 0.2843(4)
H25 H 0.42610 0.14720 0.28900
H26 H 0.45460 0.04890 0.28830
H27 H 0.35730 0.08770 0.31070
C26 C 0.3432(14) -0.0007(8) 0.2295(9)
H28 H 0.32070 -0.01290 0.19710
H29 H 0.29750 -0.00230 0.25880
H30 H 0.39440 -0.04200 0.23620
O49 O 0.2214(5) 0.1319(5) 0.1214(3)
S2 S 0.1294(2) 0.1316(2) 0.10433(13)
C27 C 0.1240(9) 0.0272(5) 0.1016(5)
H31 H 0.11920 0.00230 0.13720
H32 H 0.17720 -0.00040 0.08180
H33 H 0.07260 0.02080 0.08420
C28 C 0.1341(10) 0.1577(11) 0.0378(4)
H34 H 0.13770 0.21680 0.03210
H35 H 0.08130 0.14620 0.02390
H36 H 0.18590 0.12500 0.01960
O50 O 0.3722(7) 0.2132(7) 0.1210(4)
S3 S 0.4209(5) 0.1676(5) 0.0756(3)
C29 C 0.4308(13) 0.0611(7) 0.0781(8)
H37 H 0.47220 0.03760 0.10340
H38 H 0.45250 0.04040 0.04340
H39 H 0.37350 0.04490 0.08910
C30 C 0.3568(12) 0.1958(14) 0.0260(7)
H40 H 0.34740 0.25620 0.02080
H41 H 0.30020 0.17700 0.03490
H42 H 0.38570 0.17050 -0.00620
O51 O 0.2020(6) 0.3054(7) 0.0984(4)
S4 S 0.1678(4) 0.3975(4) 0.0933(3)
C31 C 0.0686(9) 0.4013(15) 0.0667(8)
H43 H 0.02380 0.38820 0.09440
H44 H 0.07580 0.36090 0.03940
H45 H 0.05050 0.45700 0.05150
C32 C 0.2515(11) 0.4216(14) 0.0479(7)
H46 H 0.30500 0.41940 0.06530
H47 H 0.23480 0.47750 0.03260
H48 H 0.26230 0.38170 0.02010
N5 N 0.1240(5) 0.2429(5) 0.2053(3)
C33 C 0.0920(6) 0.1740(6) 0.2267(4)
H49 H 0.12950 0.12200 0.22510
C34 C 0.0079(6) 0.1769(6) 0.2504(3)
H50 H -0.01140 0.12690 0.26370
C35 C -0.0507(6) 0.2528(6) 0.2555(3)
C36 C -0.0158(6) 0.3216(6) 0.2341(4)
H51 H -0.05080 0.37480 0.23610
C37 C 0.0688(6) 0.3139(6) 0.2099(4)
H52 H 0.08900 0.36290 0.19560
C38 C -0.4142(6) 0.2871(6) 0.3358(4)
H53 H -0.44640 0.24260 0.33610
C39 C -0.3286(6) 0.2730(6) 0.3177(4)
H54 H -0.30240 0.22020 0.30550
C40 C -0.2796(5) 0.3353(6) 0.3170(3)
C41 C -0.3223(6) 0.4123(6) 0.3342(4)
H55 H -0.29110 0.45760 0.33380
C42 C -0.4091(6) 0.4215(6) 0.3517(4)
H56 H -0.43680 0.47430 0.36310
C43 C -0.1393(6) 0.2585(6) 0.2787(4)
H57 H -0.16500 0.20950 0.28200
C44 C -0.1874(6) 0.3272(6) 0.2958(4)
H58 H -0.16020 0.37520 0.29430
N6 N -0.4580(5) 0.3613(5) 0.3539(3)
Co2 Co -0.59402(8) 0.38327(8) 0.37851(5)
O52 O -0.6192(4) 0.3235(4) 0.3132(2)
O53 O -0.5713(4) 0.4527(4) 0.4412(2)
S5 S -0.63305(15) 0.53512(15) 0.45161(10)
C45 C -0.6443(6) 0.5433(7) 0.5203(4)
H59 H -0.68050 0.50330 0.53670
H60 H -0.67240 0.59940 0.52910
H61 H -0.58630 0.53160 0.53330
C46 C -0.5665(6) 0.6128(6) 0.4333(4)
H62 H -0.55410 0.61620 0.39510
H63 H -0.51120 0.59860 0.44940
H64 H -0.59740 0.66640 0.44550
O54 O -0.5983(4) 0.4990(4) 0.3356(2)
S6 S -0.6301(2) 0.5279(2) 0.28339(13)
C47 C -0.6792(9) 0.6300(6) 0.2932(6)
H65 H -0.73380 0.63080 0.31630
H66 H -0.69210 0.65790 0.25940
H67 H -0.63930 0.65880 0.30940
C48 C -0.5378(7) 0.5449(10) 0.2425(5)
H68 H -0.50270 0.49160 0.23290
H69 H -0.50270 0.57630 0.26070
H70 H -0.55580 0.57630 0.21070
N7 N -0.5751(5) 0.2693(5) 0.4258(3)
C49 C -0.5334(7) 0.2611(7) 0.4685(5)
H71 H -0.51970 0.31030 0.48090
C50 C -0.5079(7) 0.1898(7) 0.4965(5)
H72 H -0.47960 0.19030 0.52740
C51 C -0.5245(6) 0.1152(6) 0.4784(4)
C52 C -0.5668(7) 0.1234(7) 0.4339(4)
H73 H -0.57870 0.07510 0.41930
C53 C -0.5924(7) 0.1993(7) 0.4097(5)
H74 H -0.62420 0.20160 0.37990
C54 C -0.4943(7) 0.0373(6) 0.5063(4)
H75 H -0.46370 0.04010 0.53610
N8 N -0.7302(4) 0.4077(4) 0.4028(3)
C55 C -0.7887(6) 0.4611(6) 0.3780(4)
H76 H -0.77350 0.47570 0.34220
C56 C -0.8691(6) 0.4963(6) 0.4010(4)
H77 H -0.90620 0.53580 0.38150
C57 C -0.8960(6) 0.4750(6) 0.4513(4)
C58 C -0.8382(6) 0.4155(6) 0.4782(4)
H78 H -0.85460 0.39690 0.51300
C59 C -0.7583(6) 0.3853(6) 0.4531(4)
H79 H -0.71970 0.34610 0.47180
C60 C -0.9829(5) 0.5107(6) 0.4771(3)
H80 H -1.01680 0.55360 0.45800
S7 S 0.2270(2) 0.8558(2) 0.41890(16)
O55 O 0.2715(5) 0.7747(5) 0.4409(4)
C61 C 0.2397(8) 0.8471(10) 0.3487(5)
H81 H 0.20140 0.80990 0.33910
H82 H 0.30080 0.82480 0.33720
H83 H 0.22390 0.90190 0.33170
C62 C 0.3020(8) 0.9258(9) 0.4209(6)
H84 H 0.30470 0.93900 0.45730
H85 H 0.28260 0.97670 0.40050
H86 H 0.36030 0.90030 0.40600
N9 N 0.1772(6) 0.1622(6) 0.3933(4)
C63 C 0.1776(8) 0.1674(8) 0.4452(6)
H87 H 0.21370 0.20260 0.45680
C64 C 0.1297(8) 0.1256(8) 0.4825(5)
H88 H 0.13010 0.13460 0.51870
C65 C 0.0796(7) 0.0687(7) 0.4665(5)
C66 C 0.0827(7) 0.0607(7) 0.4120(5)
H89 H 0.05130 0.02250 0.39910
C67 C 0.1312(7) 0.1079(8) 0.3763(4)
H90 H 0.13160 0.10170 0.33980
C68 C 0.0275(7) 0.0243(7) 0.5052(4)
H91 H 0.03350 0.03090 0.54110
O56 O 0.2229(4) 0.2751(4) 0.3124(3)
H92 H 0.23790 0.23430 0.33340
H93 H 0.22980 0.25910 0.28120
O57 O 0.1346(5) 0.6789(5) 0.4717(3)
H94 H 0.11400 0.65140 0.49790
H95 H 0.13050 0.72920 0.47940
O58 O 0.6696(6) 1.0907(6) -0.0059(4)
H96 H 0.70350 1.10830 -0.03080
H97 H 0.66170 1.05630 0.01960
O59 O 0.1923(7) 0.4745(7) 0.2156(5)
H98 H 0.21970 0.43210 0.20000
H99 H 0.20950 0.51770 0.20100
O60 O 0.2678(11) 0.5854(10) 0.1452(7)
H100 H 0.25880 0.54500 0.12840
H101 H 0.24140 0.58350 0.17590
N7A N -0.4249(5) -0.2693(5) 0.5742(3)
C49A C -0.4666(7) -0.2611(7) 0.5315(5)
H71A H -0.48030 -0.31030 0.51910
C50A C -0.4921(7) -0.1898(7) 0.5035(5)
H72A H -0.52040 -0.19030 0.47260
C51A C -0.4755(6) -0.1152(6) 0.5216(4)
C52A C -0.4332(7) -0.1234(7) 0.5661(4)
H73A H -0.42130 -0.07510 0.58070
C53A C -0.4076(7) -0.1993(7) 0.5903(5)
H74A H -0.37580 -0.20160 0.62010
C54A C -0.5057(7) -0.0373(6) 0.4937(4)
H75A H -0.53630 -0.04010 0.46390
N8A N -1.2698(4) 0.5923(4) 0.5972(3)
C55A C -1.2113(6) 0.5389(6) 0.6220(4)
H76A H -1.22650 0.52430 0.65780
C56A C -1.1309(6) 0.5037(6) 0.5990(4)
H77A H -1.09380 0.46420 0.61850
C57A C -1.1040(6) 0.5250(6) 0.5487(4)
C58A C -1.1618(6) 0.5845(6) 0.5218(4)
H78A H -1.14540 0.60310 0.48700
C59A C -1.2417(6) 0.6147(6) 0.5469(4)
H79A H -1.28030 0.65390 0.52820
C60A C -1.0171(5) 0.4893(6) 0.5229(3)
H80A H -0.98320 0.44640 0.54200
Co1A Co -2.24745(9) 0.76991(10) 0.83957(6)
O47A O -2.2865(4) 0.6693(5) 0.8053(3)
O48A O -2.2867(5) 0.8431(5) 0.7757(3)
S1A S -2.3726(3) 0.9045(3) 0.77710(18)
C25A C -2.4062(9) 0.9052(10) 0.7157(4)
H25A H -2.42610 0.85280 0.71100
H26A H -2.45460 0.95110 0.71170
H27A H -2.35730 0.91230 0.68930
C26A C -2.3432(14) 1.0007(8) 0.7705(9)
H28A H -2.32070 1.01290 0.80290
H29A H -2.29750 1.00230 0.74120
H30A H -2.39440 1.04200 0.76380
O49A O -2.2214(5) 0.8681(5) 0.8786(3)
S2A S -2.1294(2) 0.8684(2) 0.89567(13)
C27A C -2.1240(9) 0.9728(5) 0.8984(5)
H31A H -2.11920 0.99770 0.86280
H32A H -2.17720 1.00040 0.91820
H33A H -2.07260 0.97920 0.91580
C28A C -2.1341(10) 0.8423(11) 0.9622(4)
H34A H -2.13770 0.78320 0.96790
H35A H -2.08130 0.85380 0.97610
H36A H -2.18590 0.87500 0.98040
O50A O -2.3722(7) 0.7868(7) 0.8790(4)
S3A S -2.4209(5) 0.8324(5) 0.9244(3)
C29A C -2.4308(13) 0.9389(7) 0.9219(8)
H37A H -2.47220 0.96240 0.89660
H38A H -2.45250 0.95960 0.95660
H39A H -2.37350 0.95510 0.91090
C30A C -2.3568(12) 0.8042(14) 0.9740(7)
H40A H -2.34740 0.74380 0.97920
H41A H -2.30020 0.82300 0.96510
H42A H -2.38570 0.82950 1.00620
O51A O -2.2020(6) 0.6946(7) 0.9016(4)
S4A S -2.1678(4) 0.6025(4) 0.9067(3)
C31A C -2.0686(9) 0.5987(15) 0.9333(8)
H43A H -2.02380 0.61180 0.90560
H44A H -2.07580 0.63910 0.96060
H45A H -2.05050 0.54300 0.94850
C32A C -2.2515(11) 0.5784(14) 0.9521(7)
H46A H -2.30500 0.58060 0.93470
H47A H -2.23480 0.52250 0.96740
H48A H -2.26230 0.61830 0.97990
N5A N -2.1240(5) 0.7571(5) 0.7947(3)
C33A C -2.0920(6) 0.8260(6) 0.7733(4)
H49A H -2.12950 0.87800 0.77490
C34A C -2.0079(6) 0.8231(6) 0.7496(3)
H50A H -1.98860 0.87310 0.73630
C35A C -1.9493(6) 0.7472(6) 0.7445(3)
C36A C -1.9842(6) 0.6784(6) 0.7659(4)
H51A H -1.94920 0.62520 0.76390
C37A C -2.0688(6) 0.6861(6) 0.7901(4)
H52A H -2.08900 0.63710 0.80440
C38A C -1.5858(6) 0.7129(6) 0.6642(4)
H53A H -1.55360 0.75740 0.66390
C39A C -1.6714(6) 0.7270(6) 0.6823(4)
H54A H -1.69760 0.77980 0.69450
C40A C -1.7204(5) 0.6647(6) 0.6830(3)
C41A C -1.6777(6) 0.5877(6) 0.6658(4)
H55A H -1.70890 0.54240 0.66620
C42A C -1.5909(6) 0.5785(6) 0.6483(4)
H56A H -1.56320 0.52570 0.63690
C43A C -1.8607(6) 0.7415(6) 0.7213(4)
H57A H -1.83500 0.79050 0.71800
C44A C -1.8126(6) 0.6728(6) 0.7042(4)
H58A H -1.83980 0.62480 0.70570
N6A N -1.5420(5) 0.6387(5) 0.6461(3)
Co2A Co -1.40598(8) 0.61673(8) 0.62149(5)
O52A O -1.3808(4) 0.6765(4) 0.6868(2)
O53A O -1.4287(4) 0.5473(4) 0.5588(2)
S5A S -1.36695(15) 0.46488(15) 0.54839(10)
C45A C -1.3557(6) 0.4567(7) 0.4797(4)
H59A H -1.31950 0.49670 0.46330
H60A H -1.32760 0.40060 0.47090
H61A H -1.41370 0.46840 0.46670
C46A C -1.4335(6) 0.3872(6) 0.5667(4)
H62A H -1.44590 0.38380 0.60490
H63A H -1.48880 0.40140 0.55060
H64A H -1.40260 0.33360 0.55450
O54A O -1.4017(4) 0.5010(4) 0.6644(2)
S6A S -1.3699(2) 0.4721(2) 0.71661(13)
C47A C -1.3208(9) 0.3700(6) 0.7068(6)
H65A H -1.26620 0.36920 0.68370
H66A H -1.30790 0.34210 0.74060
H67A H -1.36070 0.34120 0.69060
C48A C -1.4622(7) 0.4551(10) 0.7575(5)
H68A H -1.49730 0.50840 0.76710
H69A H -1.49730 0.42370 0.73930
H70A H -1.44420 0.42370 0.78930
Co2A* Co -0.40598(8) -0.38327(8) 0.62149(5)
N7A* N -1.4249(5) 0.7307(5) 0.5742(3)
N9A N -0.1772(6) -0.1622(6) 0.6067(4)
C63A C -0.1776(8) -0.1674(8) 0.5548(6)
H87A H -0.21370 -0.20260 0.54320
C64A C -0.1297(8) -0.1256(8) 0.5175(5)
H88A H -0.13010 -0.13460 0.48130
C65A C -0.0796(7) -0.0687(7) 0.5335(5)
C66A C -0.0827(7) -0.0607(7) 0.5880(5)
H89A H -0.05130 -0.02250 0.60090
C67A C -0.1312(7) -0.1079(8) 0.6237(4)
H90A H -0.13160 -0.10170 0.66020
C68A C -0.0275(7) -0.0243(7) 0.4948(4)
H91A H -0.03350 -0.03090 0.45890
#END
