
#######################################################################
#
#                 Cambridge Crystallographic Data Centre
#                                CCDC
#
#######################################################################
#
# If this CIF has been generated from an entry in the Cambridge
# Structural Database, then it will include bibliographic, chemical,
# crystal, experimental, refinement or atomic coordinate data resulting
# from the CCDC's data processing and validation procedures.
#
#######################################################################

data_CSD_CIF_EQUMUA
_audit_creation_date 2016-07-29
_audit_creation_method CSD-ConQuest-V1
_database_code_CSD EQUMUA
_database_code_depnum_ccdc_archive 'CCDC 860713'
_chemical_formula_sum 'C30 H42 In1 N3 O13 S2'
_chemical_formula_moiety
;
(C18 H6 In1 O8 1-)n,C2 H8 N1 1+,2(C3 H7 N1 O1),2(C2 H6 O1 S1),H2 O1
;
_journal_coden_Cambridge 1147
_journal_volume 16
_journal_year 2016
_journal_page_first 5554
_journal_name_full 'Cryst.Growth Des. '
loop_
_publ_author_name
"Bing Zheng"
"Xiaodong Sun"
"Guanghua Li"
"A.J.Cairns"
"V.Ch Kravtsov"
"Qisheng Huo"
"Yunling Liu"
"M.Eddaoudi"
_chemical_name_systematic
;
catena-[dimethylammonium (\m-5,5'-ethyne-1,2-diyldiisophthalato)-indium 
N,N-dimethylformamide dimethyl sulfoxide solvate monohydrate]
;
_cell_volume   2309.850
_exptl_crystal_colour 'yellow'
_exptl_crystal_density_diffrn 1.196
_exptl_crystal_description 'octahedral'
_diffrn_ambient_temperature 296
_refine_special_details
;
Disordered cation and  solvent molecules were not modelled and the disordered 
density was taken into account using the SQUEEZE/PLATON procedure.
;
#These two values have been output from a single CSD field.
_refine_ls_R_factor_gt 0.0667
_refine_ls_wR_factor_gt 0.0667
_symmetry_cell_setting tetragonal
_symmetry_space_group_name_H-M 'P 42/m m c'
_symmetry_Int_Tables_number 131
loop_
_symmetry_equiv_pos_site_id
_symmetry_equiv_pos_as_xyz
1 x,y,z
2 -x,-y,z
3 -y,x,1/2+z
4 y,-x,1/2+z
5 -x,y,-z
6 x,-y,-z
7 y,x,1/2-z
8 -y,-x,1/2-z
9 -x,-y,-z
10 x,y,-z
11 y,-x,-1/2-z
12 -y,x,-1/2-z
13 x,-y,z
14 -x,y,z
15 -y,-x,-1/2+z
16 y,x,-1/2+z
_cell_length_a 9.9798(2)
_cell_length_b 9.9798(2)
_cell_length_c 23.1921(8)
_cell_angle_alpha 90
_cell_angle_beta 90
_cell_angle_gamma 90
_cell_formula_units_Z 2
loop_
_atom_type_symbol
_atom_type_radius_bond
C 0.68
H 0.23
In 1.42
O 0.68
loop_
_atom_site_label
_atom_site_type_symbol
_atom_site_fract_x
_atom_site_fract_y
_atom_site_fract_z
In1 In 0.00000 0.00000 0.25000
O1 O 0.00000 0.2412(10) 0.2603(3)
O2 O 0.00000 0.1426(5) 0.1795(3)
C1 C 0.00000 0.2474(9) 0.2078(5)
C2 C 0.00000 0.50000 0.2072(6)
H1 H 0.00000 0.50000 0.24730
C3 C 0.00000 0.3806(7) 0.1776(4)
C4 C 0.00000 0.3806(8) 0.1178(4)
H2 H 0.00000 0.29940 0.09810
C5 C 0.00000 0.50000 0.0865(6)
C6 C 0.00000 0.50000 0.0264(6)
O1A O 0.00000 0.7588(10) 0.2603(3)
O2A O 0.00000 0.8574(5) 0.1795(3)
C1A C 0.00000 0.7526(9) 0.2078(5)
C3A C 0.00000 0.6194(7) 0.1776(4)
C4A C 0.00000 0.6194(8) 0.1178(4)
H2A H 0.00000 0.70060 0.09810
O1D O 0.00000 0.2412(10) -0.2603(3)
O2D O 0.00000 0.1426(5) -0.1795(3)
C1D C 0.00000 0.2474(9) -0.2078(5)
C2D C 0.00000 0.50000 -0.2072(6)
H1D H 0.00000 0.50000 -0.24730
C3D C 0.00000 0.3806(7) -0.1776(4)
C4D C 0.00000 0.3806(8) -0.1178(4)
H2D H 0.00000 0.29940 -0.09810
C5D C 0.00000 0.50000 -0.0865(6)
C6D C 0.00000 0.50000 -0.0264(6)
O1E O 0.00000 0.7588(10) -0.2603(3)
O2E O 0.00000 0.8574(5) -0.1795(3)
C1E C 0.00000 0.7526(9) -0.2078(5)
C3E C 0.00000 0.6194(7) -0.1776(4)
C4E C 0.00000 0.6194(8) -0.1178(4)
H2E H 0.00000 0.70060 -0.09810
In1* In 0.00000 1.00000 0.25000
In1B In 0.00000 0.00000 -0.25000
In1B* In 0.00000 1.00000 -0.25000
O1A* O 0.00000 -0.2412(10) 0.2603(3)
O1F O 0.24120 0.000(1) 0.2397(3)
O1G O -0.24120 0.000(1) 0.2397(3)
O2A* O 0.00000 -0.1426(5) 0.1795(3)
O2F O 0.14260 0.0000(5) 0.3205(3)
O2G O -0.14260 0.0000(5) 0.3205(3)
#END
