
#######################################################################
#
#                 Cambridge Crystallographic Data Centre
#                                CCDC
#
#######################################################################
#
# If this CIF has been generated from an entry in the Cambridge
# Structural Database, then it will include bibliographic, chemical,
# crystal, experimental, refinement or atomic coordinate data resulting
# from the CCDC's data processing and validation procedures.
#
#######################################################################

data_CSD_CIF_EQUNAH
_audit_creation_date 2016-07-29
_audit_creation_method CSD-ConQuest-V1
_database_code_CSD EQUNAH
_database_code_depnum_ccdc_archive 'CCDC 860714'
_chemical_formula_sum 'C46 H42 In2 N4 O18'
_chemical_formula_moiety
;
(C36 H12 In2 O16 2-)n,2(C2 H8 N1 1+),2(C3 H7 N1 O1)
;
_journal_coden_Cambridge 1147
_journal_volume 16
_journal_year 2016
_journal_page_first 5554
_journal_name_full 'Cryst.Growth Des. '
loop_
_publ_author_name
"Bing Zheng"
"Xiaodong Sun"
"Guanghua Li"
"A.J.Cairns"
"V.Ch Kravtsov"
"Qisheng Huo"
"Yunling Liu"
"M.Eddaoudi"
_chemical_name_systematic
;
catena-[bis(dimethylammonium) 
bis(\m-5,5'-ethyne-1,2-diyldiisophthalato)-di-indium N,N-dimethylformamide 
solvate]
;
_cell_volume   9073.956
_exptl_crystal_colour 'colorless'
_exptl_crystal_density_diffrn 0.855
_exptl_crystal_description 'block'
_diffrn_ambient_temperature 293
_refine_special_details
;
Disordered cation and solvent molecules were not modelled and the disordered 
density was taken into account using the SQUEEZE/PLATON procedure.
;
#These two values have been output from a single CSD field.
_refine_ls_R_factor_gt 0.0879
_refine_ls_wR_factor_gt 0.0879
_symmetry_cell_setting orthorhombic
_symmetry_space_group_name_H-M 'P b a m'
_symmetry_Int_Tables_number 55
loop_
_symmetry_equiv_pos_site_id
_symmetry_equiv_pos_as_xyz
1 x,y,z
2 -x,-y,z
3 1/2-x,1/2+y,-z
4 1/2+x,1/2-y,-z
5 -x,-y,-z
6 x,y,-z
7 -1/2+x,-1/2-y,z
8 -1/2-x,-1/2+y,z
_cell_length_a 25.161(5)
_cell_length_b 35.988(7)
_cell_length_c 10.021(2)
_cell_angle_alpha 90
_cell_angle_beta 90
_cell_angle_gamma 90
_cell_formula_units_Z 4
loop_
_atom_type_symbol
_atom_type_radius_bond
C 0.68
H 0.23
In 1.42
O 0.68
loop_
_atom_site_label
_atom_site_type_symbol
_atom_site_fract_x
_atom_site_fract_y
_atom_site_fract_z
In1 In 0.70870(3) 0.050305(17) 1.00000
In2 In 0.62331(2) 0.311904(16) 1.00000
O1 O 0.6276(3) 0.07400(19) 1.00000
O2 O 0.6893(3) 0.1152(2) 1.00000
O3 O 0.2504(3) 0.00882(19) 1.00000
O4 O 0.3359(3) 0.00319(19) 1.00000
O5 O 0.7706(3) 0.06653(18) 0.8579(5)
O6 O 0.6998(3) 0.0475(2) 0.7586(6)
O7 O 0.5570(3) 0.2668(2) 1.00000
O8 O 0.6400(3) 0.25075(19) 1.00000
O9 O 0.2140(3) 0.18344(19) 1.00000
O10 O 0.1666(3) 0.1327(2) 1.00000
O11 O 1.1311(3) 0.19168(17) 0.7576(6)
O12 O 1.0686(2) 0.16172(18) 0.8571(5)
C1 C 0.6153(4) 0.1747(3) 1.00000
H1 H 0.65110 0.18130 1.00000
C2 C 0.6004(4) 0.1369(3) 1.00000
C3 C 0.5480(4) 0.1272(3) 1.00000
H2 H 0.53840 0.10220 1.00000
C4 C 0.5083(5) 0.1550(3) 1.00000
C5 C 0.5226(5) 0.1917(3) 1.00000
H3 H 0.49660 0.21000 1.00000
C6 C 0.5770(5) 0.2017(3) 1.00000
C7 C 0.6421(5) 0.1071(3) 1.00000
C8 C 0.5922(5) 0.2423(3) 1.00000
C9 C 0.4525(5) 0.1448(3) 1.00000
C10 C 0.4088(5) 0.1348(3) 1.00000
C11 C 0.2547(4) 0.0858(3) 1.00000
H4 H 0.22130 0.07480 1.00000
C12 C 0.2604(4) 0.1258(3) 1.00000
C13 C 0.3113(4) 0.1414(3) 1.00000
H5 H 0.31550 0.16700 1.00000
C14 C 0.3554(4) 0.1184(3) 1.00000
C15 C 0.3505(4) 0.0806(3) 1.00000
H6 H 0.38070 0.06570 1.00000
C16 C 0.2999(4) 0.0646(3) 1.00000
C17 C 0.2942(4) 0.0230(3) 1.00000
C18 C 0.2113(4) 0.1489(3) 1.00000
C19 C 0.7450(5) 0.0596(3) 0.50000
H7 H 0.71120 0.04920 0.50000
C20 C 0.7707(4) 0.0676(2) 0.6199(7)
C21 C 0.8201(4) 0.0831(3) 0.6199(7)
H8 H 0.83630 0.08860 0.70100
C22 C 0.8475(5) 0.0909(4) 0.50000
C23 C 0.7447(4) 0.0602(2) 0.7534(8)
C24 C 0.8980(6) 0.1062(4) 0.50000
C25 C 0.9415(6) 0.1197(5) 0.50000
C26 C 0.9932(5) 0.1382(4) 0.50000
C27 C 1.0181(4) 0.1470(3) 0.6191(7)
H9 H 1.00170 0.14120 0.69960
C28 C 1.0669(3) 0.1643(2) 0.6197(7)
C29 C 1.0905(5) 0.1735(3) 0.50000
H10 H 1.12280 0.18610 0.50000
C30 C 1.0909(4) 0.1737(2) 0.7511(8)
O5E O 0.7706(3) 0.06653(18) 0.1421(5)
O6E O 0.6998(3) 0.0475(2) 0.2414(6)
O11E O 1.1311(3) 0.19168(17) 0.2424(6)
O12E O 1.0686(2) 0.16172(18) 0.1429(5)
C20E C 0.7707(4) 0.0676(2) 0.3801(7)
C21E C 0.8201(4) 0.0831(3) 0.3801(7)
H8E H 0.83630 0.08860 0.29900
C23E C 0.7447(4) 0.0602(2) 0.2466(8)
C27E C 1.0181(4) 0.1470(3) 0.3809(7)
H9E H 1.00170 0.14120 0.30040
C28E C 1.0669(3) 0.1643(2) 0.3803(7)
C30E C 1.0909(4) 0.1737(2) 0.2489(8)
In1* In 0.70870(3) 0.050305(17) 0.00000
In1A In 0.29130(3) -0.050305(17) 1.00000
In2C In 0.12331(2) 0.188096(16) 1.00000
In2C* In 1.12331(2) 0.188096(16) 0.00000
In2C** In 1.12331(2) 0.188096(16) 1.00000
O3A O 0.7496(3) -0.00882(19) 1.00000
O4A O 0.6641(3) -0.00319(19) 1.00000
O5E* O 0.7706(3) 0.06653(18) 1.1421(5)
O6E* O 0.6998(3) 0.0475(2) 1.2414(6)
O9C O 0.7140(3) 0.31656(19) 1.00000
O10C O 0.6666(3) 0.3673(2) 1.00000
O11C O 0.6311(3) 0.30832(17) 1.2424(6)
O11F O 0.6311(3) 0.30832(17) 0.7576(6)
O12C O 0.5686(2) 0.33828(18) 1.1429(5)
O12F O 0.5686(2) 0.33828(18) 0.8571(5)
#END
