
#######################################################################
#
#                 Cambridge Crystallographic Data Centre
#                                CCDC
#
#######################################################################
#
# If this CIF has been generated from an entry in the Cambridge
# Structural Database, then it will include bibliographic, chemical,
# crystal, experimental, refinement or atomic coordinate data resulting
# from the CCDC's data processing and validation procedures.
#
#######################################################################

data_CSD_CIF_EQUNIP
_audit_creation_date 2016-07-29
_audit_creation_method CSD-ConQuest-V1
_database_code_CSD EQUNIP
_database_code_depnum_ccdc_archive 'CCDC 860716'
_chemical_formula_sum 'C160 H171 In9 N22 O74'
_chemical_formula_moiety
;
(C108 H48 In9 O56 1-)n,C2 H8 N1 1+,8(C3 H7 N1 O1),13(C2 H3 N1),10(H2 O1)
;
_journal_coden_Cambridge 1147
_journal_volume 16
_journal_year 2016
_journal_page_first 5554
_journal_name_full 'Cryst.Growth Des. '
loop_
_publ_author_name
"Bing Zheng"
"Xiaodong Sun"
"Guanghua Li"
"A.J.Cairns"
"V.Ch Kravtsov"
"Qisheng Huo"
"Yunling Liu"
"M.Eddaoudi"
_chemical_name_systematic
;
catena-[dimethylammonium 
hexakis(\m-5,5'-ethyne-1,2-diyldiisophthalato)-bis(\m-oxido)-hexa-aqua-nona-in
dium acetonitrile N,N-dimethylformamide solvate decahydrate]
;
_cell_volume  17878.975
_exptl_crystal_colour 'brown'
_exptl_crystal_density_diffrn 0.909
_exptl_crystal_description 'BLOCK'
_diffrn_ambient_temperature 296
_refine_special_details
;
Disordered cation and solvent molecules were not modelled and the disordered 
density was taken into account using the SQUEEZE/PLATON procedure.
;
#These two values have been output from a single CSD field.
_refine_ls_R_factor_gt 0.0952
_refine_ls_wR_factor_gt 0.0952
_symmetry_cell_setting rhombohedral
_symmetry_space_group_name_H-M 'R 3 2'
_symmetry_Int_Tables_number 155
loop_
_symmetry_equiv_pos_site_id
_symmetry_equiv_pos_as_xyz
1 x,y,z
2 -y,x-y,z
3 -x+y,-x,z
4 y,x,-z
5 -x,-x+y,-z
6 x-y,-y,-z
7 2/3+x,1/3+y,1/3+z
8 2/3-y,1/3+x-y,1/3+z
9 2/3-x+y,1/3-x,1/3+z
10 2/3+y,1/3+x,1/3-z
11 2/3-x,1/3-x+y,1/3-z
12 2/3+x-y,1/3-y,1/3-z
13 1/3+x,2/3+y,2/3+z
14 1/3-y,2/3+x-y,2/3+z
15 1/3-x+y,2/3-x,2/3+z
16 1/3+y,2/3+x,2/3-z
17 1/3-x,2/3-x+y,2/3-z
18 1/3+x-y,2/3-y,2/3-z
_cell_length_a 22.1811(12)
_cell_length_b 22.1811(12)
_cell_length_c 41.961(5)
_cell_angle_alpha 90
_cell_angle_beta 90
_cell_angle_gamma 120
_cell_formula_units_Z 3
loop_
_atom_type_symbol
_atom_type_radius_bond
C 0.68
H 0.23
In 1.42
O 0.68
loop_
_atom_site_label
_atom_site_type_symbol
_atom_site_fract_x
_atom_site_fract_y
_atom_site_fract_z
In1 In 0.622777(13) 0.227979(14) -0.000386(7)
In2 In 0.33330 0.331813(13) 0.16670
O1 O 0.54259(15) 0.21172(15) 0.03441(8)
O2 O 0.33134(15) -0.21101(14) 0.03479(8)
O3 O 0.22841(16) -0.31082(19) 0.03771(10)
O4 O 0.53760(15) 0.30843(17) 0.03591(9)
O5 O 0.58041(15) 0.11957(19) 0.00033(10)
O6 O 0.66670 0.33330 0.00009(11)
O7 O 0.40406(12) 0.32523(12) 0.12930(6)
O8 O 0.30061(11) 0.23277(12) 0.13570(6)
O9 O 0.07523(18) -0.32621(17) 0.12863(10)
O10 O 0.08682(17) -0.23057(16) 0.14886(9)
C1 C 0.2731(2) -0.2464(2) 0.04497(11)
C2 C 0.1988(2) -0.1461(2) 0.10944(12)
H1 H 0.18450 -0.12370 0.12370
C3 C 0.2552(2) -0.1076(2) 0.08853(13)
C4 C 0.1647(2) -0.2195(2) 0.10811(11)
C5 C 0.1884(2) -0.2534(2) 0.08718(11)
H2 H 0.16580 -0.30170 0.08640
C6 C 0.2466(2) -0.2132(2) 0.06747(10)
C7 C 0.2798(2) -0.1413(2) 0.06879(13)
H3 H 0.31910 -0.11500 0.05630
C8 C 0.45845(17) 0.2108(2) 0.06620(9)
C9 C 0.5195(2) 0.24537(19) 0.04411(10)
C10 C 0.4201(3) 0.1401(2) 0.06689(13)
H4 H 0.43270 0.11480 0.05350
C11 C 0.2937(2) -0.0305(2) 0.08915(14)
C12 C 0.3224(3) 0.0297(2) 0.08855(13)
C13 C 0.3622(2) 0.1039(2) 0.08695(13)
C14 C 0.4372(2) 0.2506(2) 0.08364(13)
H5 H 0.46030 0.29870 0.08150
C15 C 0.3802(2) 0.2165(2) 0.10462(12)
C16 C 0.3405(2) 0.1436(2) 0.10513(10)
H6 H 0.30010 0.12140 0.11730
C17 C 0.36459(18) 0.2612(2) 0.12675(9)
C18 C 0.1064(2) -0.2594(2) 0.12999(15)
In1A In -0.227979(13) 0.394798(14) -0.000386(7)
In2A In -0.33181 0.001487(13) 0.16670
O1A O -0.21172(15) 0.33087(15) 0.03441(8)
O2A O 0.21101(15) 0.54235(14) 0.03479(8)
O3A O 0.31082(16) 0.53923(19) 0.03771(10)
O4A O -0.30843(15) 0.22917(17) 0.03591(9)
O5A O -0.11957(15) 0.46084(19) 0.00033(10)
O6* O -0.33330 0.33330 0.00009(11)
O7A O -0.32523(12) 0.07883(12) 0.12930(6)
O8A O -0.23277(11) 0.06784(12) 0.13570(6)
O9A O 0.32621(18) 0.40144(17) 0.12863(10)
O10A O 0.23057(17) 0.31739(16) 0.14886(9)
C1A C 0.2464(2) 0.5195(2) 0.04497(11)
C2A C 0.1461(2) 0.3449(2) 0.10944(12)
H1A H 0.12370 0.30820 0.12370
C3A C 0.1076(2) 0.3628(2) 0.08853(13)
C4A C 0.2195(2) 0.3842(2) 0.10811(11)
C5A C 0.2534(2) 0.4418(2) 0.08718(11)
H2A H 0.30170 0.46750 0.08640
C6A C 0.2132(2) 0.4598(2) 0.06747(10)
C7A C 0.1413(2) 0.4211(2) 0.06879(13)
H3A H 0.11500 0.43410 0.05630
C8A C -0.21080(17) 0.24765(20) 0.06620(9)
C9A C -0.24537(20) 0.27413(19) 0.04411(10)
C10A C -0.1401(3) 0.2800(2) 0.06689(13)
H4A H -0.11480 0.31790 0.05350
C11A C 0.0305(2) 0.3242(2) 0.08915(14)
C12A C -0.0297(3) 0.2927(2) 0.08855(13)
C13A C -0.1039(2) 0.2583(2) 0.08695(13)
C14A C -0.2506(2) 0.1866(2) 0.08364(13)
H5A H -0.29870 0.16160 0.08150
C15A C -0.2165(2) 0.1637(2) 0.10462(12)
C16A C -0.1436(2) 0.1969(2) 0.10513(10)
H6A H -0.12140 0.17870 0.11730
C17A C -0.26120(18) 0.10339(20) 0.12675(9)
C18A C 0.2594(2) 0.3658(2) 0.12999(15)
In1B In -0.394798(13) -0.622777(14) -0.000386(7)
In2B In -0.00149 -0.333300(13) 0.16670
O1B O -0.33087(15) -0.54259(15) 0.03441(8)
O2B O -0.54235(15) -0.33134(14) 0.03479(8)
O3B O -0.53923(16) -0.22841(19) 0.03771(10)
O4B O -0.22917(15) -0.53760(17) 0.03591(9)
O5B O -0.46084(15) -0.58041(19) 0.00033(10)
O7B O -0.07883(12) -0.40406(12) 0.12930(6)
O8B O -0.06784(11) -0.30061(12) 0.13570(6)
O9B O -0.40144(18) -0.07523(17) 0.12863(10)
O10B O -0.31739(17) -0.08682(16) 0.14886(9)
C1B C -0.5195(2) -0.2731(2) 0.04497(11)
C2B C -0.3449(2) -0.1988(2) 0.10944(12)
H1B H -0.30820 -0.18450 0.12370
C3B C -0.3628(2) -0.2552(2) 0.08853(13)
C4B C -0.3842(2) -0.1647(2) 0.10811(11)
C5B C -0.4418(2) -0.1884(2) 0.08718(11)
H2B H -0.46750 -0.16580 0.08640
C6B C -0.4598(2) -0.2466(2) 0.06747(10)
C7B C -0.4211(2) -0.2798(2) 0.06879(13)
H3B H -0.43410 -0.31910 0.05630
C8B C -0.24765(17) -0.45845(20) 0.06620(9)
C9B C -0.27413(20) -0.51950(19) 0.04411(10)
C10B C -0.2800(3) -0.4201(2) 0.06689(13)
H4B H -0.31790 -0.43270 0.05350
C11B C -0.3242(2) -0.2937(2) 0.08915(14)
C12B C -0.2927(3) -0.3224(2) 0.08855(13)
C13B C -0.2583(2) -0.3622(2) 0.08695(13)
C14B C -0.1866(2) -0.4372(2) 0.08364(13)
H5B H -0.16160 -0.46030 0.08150
C15B C -0.1637(2) -0.3802(2) 0.10462(12)
C16B C -0.1969(2) -0.3405(2) 0.10513(10)
H6B H -0.17870 -0.30010 0.11730
C17B C -0.10339(18) -0.36459(20) 0.12675(9)
C18B C -0.3658(2) -0.1064(2) 0.12999(15)
In1C In 0.227979(13) 0.622777(14) 0.000386(7)
O1C O 0.21172(15) 0.54259(15) -0.03441(8)
O2C O -0.21101(15) 0.33134(14) -0.03479(8)
O3C O -0.31082(16) 0.22841(19) -0.03771(10)
O4C O 0.30843(15) 0.53760(17) -0.03591(9)
O5C O 0.11957(15) 0.58041(19) -0.00033(10)
O7C O 0.32523(12) 0.40406(12) -0.12930(6)
O8C O 0.23277(11) 0.30061(12) -0.13570(6)
O9C O -0.32621(18) 0.07523(17) -0.12863(10)
O10C O -0.23057(17) 0.08682(16) -0.14886(9)
C1C C -0.2464(2) 0.2731(2) -0.04497(11)
C2C C -0.1461(2) 0.1988(2) -0.10944(12)
H1C H -0.12370 0.18450 -0.12370
C3C C -0.1076(2) 0.2552(2) -0.08853(13)
C4C C -0.2195(2) 0.1647(2) -0.10811(11)
C5C C -0.2534(2) 0.1884(2) -0.08718(11)
H2C H -0.30170 0.16580 -0.08640
C6C C -0.2132(2) 0.2466(2) -0.06747(10)
C7C C -0.1413(2) 0.2798(2) -0.06879(13)
H3C H -0.11500 0.31910 -0.05630
C8C C 0.21080(17) 0.45845(20) -0.06620(9)
C9C C 0.24537(20) 0.51950(19) -0.04411(10)
C10C C 0.1401(3) 0.4201(2) -0.06689(13)
H4C H 0.11480 0.43270 -0.05350
C11C C -0.0305(2) 0.2937(2) -0.08915(14)
C12C C 0.0297(3) 0.3224(2) -0.08855(13)
C13C C 0.1039(2) 0.3622(2) -0.08695(13)
C14C C 0.2506(2) 0.4372(2) -0.08364(13)
H5C H 0.29870 0.46030 -0.08150
C15C C 0.2165(2) 0.3802(2) -0.10462(12)
C16C C 0.1436(2) 0.3405(2) -0.10513(10)
H6C H 0.12140 0.30010 -0.11730
C17C C 0.26120(18) 0.36459(20) -0.12675(9)
C18C C -0.2594(2) 0.1064(2) -0.12999(15)
In1E In 0.394798(13) -0.227979(14) 0.000386(7)
O1E O 0.33087(15) -0.21172(15) -0.03441(8)
O2E O 0.54235(15) 0.21101(14) -0.03479(8)
O3E O 0.53923(16) 0.31082(19) -0.03771(10)
O4E O 0.22917(15) -0.30843(17) -0.03591(9)
O5E O 0.46084(15) -0.11957(19) -0.00033(10)
O7E O 0.07883(12) -0.32523(12) -0.12930(6)
O8E O 0.06784(11) -0.23277(12) -0.13570(6)
O9E O 0.40144(18) 0.32621(17) -0.12863(10)
O10E O 0.31739(17) 0.23057(16) -0.14886(9)
C1E C 0.5195(2) 0.2464(2) -0.04497(11)
C2E C 0.3449(2) 0.1461(2) -0.10944(12)
H1E H 0.30820 0.12370 -0.12370
C3E C 0.3628(2) 0.1076(2) -0.08853(13)
C4E C 0.3842(2) 0.2195(2) -0.10811(11)
C5E C 0.4418(2) 0.2534(2) -0.08718(11)
H2E H 0.46750 0.30170 -0.08640
C6E C 0.4598(2) 0.2132(2) -0.06747(10)
C7E C 0.4211(2) 0.1413(2) -0.06879(13)
H3E H 0.43410 0.11500 -0.05630
C8E C 0.24765(17) -0.2108(2) -0.06620(9)
C9E C 0.27413(20) -0.24537(19) -0.04411(10)
C10E C 0.2800(3) -0.1401(2) -0.06689(13)
H4E H 0.31790 -0.11480 -0.05350
C11E C 0.3242(2) 0.0305(2) -0.08915(14)
C12E C 0.2927(3) -0.0297(2) -0.08855(13)
C13E C 0.2583(2) -0.1039(2) -0.08695(13)
C14E C 0.1866(2) -0.2506(2) -0.08364(13)
H5E H 0.16160 -0.29870 -0.08150
C15E C 0.1637(2) -0.2165(2) -0.10462(12)
C16E C 0.1969(2) -0.1436(2) -0.10513(10)
H6E H 0.17870 -0.12140 -0.11730
C17E C 0.10339(18) -0.2612(2) -0.12675(9)
C18E C 0.3658(2) 0.2594(2) -0.12999(15)
In1D In -0.622777(13) -0.394798(14) 0.000386(7)
O1D O -0.54259(15) -0.33087(15) -0.03441(8)
O2D O -0.33134(15) -0.54235(14) -0.03479(8)
O3D O -0.22841(16) -0.53923(19) -0.03771(10)
O4D O -0.53760(15) -0.22917(17) -0.03591(9)
O5D O -0.58041(15) -0.46084(19) -0.00033(10)
O7D O -0.40406(12) -0.07883(12) -0.12930(6)
O8D O -0.30061(11) -0.06784(12) -0.13570(6)
O9D O -0.07523(18) -0.40144(17) -0.12863(10)
O10D O -0.08682(17) -0.31739(16) -0.14886(9)
C1D C -0.2731(2) -0.5195(2) -0.04497(11)
C2D C -0.1988(2) -0.3449(2) -0.10944(12)
H1D H -0.18450 -0.30820 -0.12370
C3D C -0.2552(2) -0.3628(2) -0.08853(13)
C4D C -0.1647(2) -0.3842(2) -0.10811(11)
C5D C -0.1884(2) -0.4418(2) -0.08718(11)
H2D H -0.16580 -0.46750 -0.08640
C6D C -0.2466(2) -0.4598(2) -0.06747(10)
C7D C -0.2798(2) -0.4211(2) -0.06879(13)
H3D H -0.31910 -0.43410 -0.05630
C8D C -0.45845(17) -0.24765(20) -0.06620(9)
C9D C -0.5195(2) -0.27413(19) -0.04411(10)
C10D C -0.4201(3) -0.2800(2) -0.06689(13)
H4D H -0.43270 -0.31790 -0.05350
C11D C -0.2937(2) -0.3242(2) -0.08915(14)
C12D C -0.3224(3) -0.2927(2) -0.08855(13)
C13D C -0.3622(2) -0.2583(2) -0.08695(13)
C14D C -0.4372(2) -0.1866(2) -0.08364(13)
H5D H -0.46030 -0.16160 -0.08150
C15D C -0.3802(2) -0.1637(2) -0.10462(12)
C16D C -0.3405(2) -0.1969(2) -0.10513(10)
H6D H -0.30010 -0.17870 -0.11730
C17D C -0.36459(18) -0.10339(20) -0.12675(9)
C18D C -0.1064(2) -0.3658(2) -0.12999(15)
In1* In -0.377223(13) 0.227979(14) -0.000386(7)
In1A* In -0.227979(13) -0.605202(14) -0.000386(7)
In1A** In 0.772021(13) 0.394798(14) -0.000386(7)
In1B* In -0.394798(13) 0.377223(14) -0.000386(7)
In1B** In 0.605202(13) 0.377223(14) -0.000386(7)
In1C* In 0.227979(13) -0.377223(14) 0.000386(7)
In1D* In 0.377223(13) 0.605202(14) 0.000386(7)
In1E* In -0.605202(13) -0.227979(14) 0.000386(7)
In2C In 0.33181 0.333300(13) -0.16670
In2D In -0.33330 -0.001487(13) -0.16670
In2E In 0.00149 -0.331813(13) -0.16670
O3* O 0.22841(16) 0.68918(19) 0.03771(10)
O3A* O -0.68918(16) -0.46077(19) 0.03771(10)
O3B* O 0.46077(16) -0.22841(19) 0.03771(10)
O3C* O 0.68918(16) 0.22841(19) -0.03771(10)
O3D* O -0.22841(16) 0.46077(19) -0.03771(10)
O3E* O -0.46077(16) -0.68918(19) -0.03771(10)
O4* O -0.46240(15) -0.69157(17) 0.03591(9)
O4A* O 0.69157(15) 0.22917(17) 0.03591(9)
O4B* O -0.22917(15) 0.46240(17) 0.03591(9)
O4C* O -0.69157(15) -0.46240(17) -0.03591(9)
O4D* O 0.46240(15) -0.22917(17) -0.03591(9)
O4E* O 0.22917(15) 0.69157(17) -0.03591(9)
O6** O -0.33330 -0.66670 0.00009(11)
O6C O -0.66670 -0.33330 -0.00009(11)
O6C* O 0.33330 -0.33330 -0.00009(11)
O6C** O 0.33330 0.66670 -0.00009(11)
O7I O -0.008103(120) -0.262607(120) 0.204033(60)
O7J O 0.262607(120) 0.254503(120) 0.204033(60)
O7K O -0.254503(120) 0.008103(120) 0.204033(60)
O8I O -0.100563(110) -0.366057(120) 0.197633(60)
O8J O 0.366057(110) 0.265493(120) 0.197633(60)
O8K O -0.265493(110) 0.100563(120) 0.197633(60)
O9I O 0.340457(180) 0.408563(170) 0.204703(100)
O9J O -0.408563(180) -0.068107(170) 0.204703(100)
O9K O 0.068107(180) -0.340457(170) 0.204703(100)
O10I O 0.436097(170) 0.420153(160) 0.184473(90)
O10J O -0.420153(170) 0.015943(160) 0.184473(90)
O10K O -0.015943(170) -0.436097(160) 0.184473(90)
#END
