
#######################################################################
#
#                 Cambridge Crystallographic Data Centre
#                                CCDC
#
#######################################################################
#
# If this CIF has been generated from an entry in the Cambridge
# Structural Database, then it will include bibliographic, chemical,
# crystal, experimental, refinement or atomic coordinate data resulting
# from the CCDC's data processing and validation procedures.
#
#######################################################################

data_CSD_CIF_ERABII
_audit_creation_date 2004-05-06
_audit_creation_method CSD-ConQuest-V1
_database_code_CSD ERABII
_database_code_depnum_ccdc_archive 'CCDC 229289'
_chemical_formula_sum 'C2 H9 Fe1 N1 O7 P2'
_chemical_formula_moiety
;
(C2 H5 Fe1 O7 P2 1-)n,n(H4 N1 1+)
;
_journal_coden_Cambridge 1096
_journal_volume 15
_journal_year 2003
_journal_page_first 3233
_journal_name_full 'Chem.Mater. '
loop_
_publ_author_name
"Ping Yin"
"Song Gao"
"Li-Min Zheng"
"Xin-Quan Xin"
_chemical_name_systematic
;
catena-(Ammonium (\m~3~-1-hydroxyethylidenediphosphonato)-iron(ii))
;
_cell_volume    402.722
_exptl_crystal_colour 'colorless'
_exptl_crystal_density_diffrn 2.283
_exptl_special_details
;
isomorphous with the cobalt analogue

;
_exptl_crystal_description 'needle'
_exptl_crystal_preparation 'from the melt'
_diffrn_ambient_temperature 293
#These two values have been output from a single CSD field.
_refine_ls_R_factor_gt 0.0398
_refine_ls_wR_factor_gt 0.0398
_symmetry_cell_setting triclinic
_symmetry_space_group_name_H-M 'P -1'
_symmetry_Int_Tables_number 2
loop_
_symmetry_equiv_pos_site_id
_symmetry_equiv_pos_as_xyz
1 x,y,z
2 -x,-y,-z
_cell_length_a 5.5191(12)
_cell_length_b 7.7183(16)
_cell_length_c 10.051(2)
_cell_angle_alpha 71.551(4)
_cell_angle_beta 82.552(4)
_cell_angle_gamma 87.627(4)
_cell_formula_units_Z 2
loop_
_atom_type_symbol
_atom_type_radius_bond
C 0.68
H 0.23
Fe 1.34
N 0.68
O 0.68
P 1.05
loop_
_atom_site_label
_atom_site_type_symbol
_atom_site_fract_x
_atom_site_fract_y
_atom_site_fract_z
Fe1 Fe 0.31835(8) 0.35983(6) 0.63172(5)
P1 P 0.77931(15) 0.13747(11) 0.74928(8)
P2 P 0.77526(14) 0.53851(10) 0.70991(8)
O1 O 0.5966(4) 0.1562(3) 0.6446(2)
O2 O 1.0449(4) 0.1540(3) 0.6889(3)
O3 O 0.7350(5) -0.0502(3) 0.8708(2)
H1 H 0.728(7) -0.141(6) 0.837(4)
O4 O 0.6211(4) 0.5535(3) 0.5895(2)
O5 O 1.0476(4) 0.5348(3) 0.6666(3)
O6 O 0.7022(4) 0.6835(3) 0.7789(3)
O7 O 0.4259(4) 0.3096(3) 0.8570(2)
H2 H 0.394(8) 0.238(6) 0.924(5)
C1 C 0.7959(6) 0.2826(5) 0.9751(3)
H3 H 0.75040 0.16380 1.03900
H4 H 0.73230 0.37420 1.01630
H5 H 0.97080 0.29180 0.95730
C2 C 0.6921(6) 0.3113(4) 0.8372(3)
N1 N 1.2890(6) 0.8487(4) 0.6382(4)
H6 H 1.430(8) 0.814(5) 0.682(4)
H7 H 1.333(8) 0.861(5) 0.543(5)
H8 H 1.177(8) 0.730(5) 0.674(4)
H9 H 1.231(8) 0.942(6) 0.647(5)
O2* O 0.0449(4) 0.1540(3) 0.6889(3)
O4A O 0.3789(4) 0.4465(3) 0.4105(2)
O5* O 0.0476(4) 0.5348(3) 0.6666(3)
Fe1* Fe 1.31835(8) 0.35983(6) 0.63172(5)
Fe1A Fe 0.68165(8) 0.64017(6) 0.36828(5)
#END
