
#######################################################################
#
#                 Cambridge Crystallographic Data Centre
#                                CCDC
#
#######################################################################
#
# If this CIF has been generated from an entry in the Cambridge
# Structural Database, then it will include bibliographic, chemical,
# crystal, experimental, refinement or atomic coordinate data resulting
# from the CCDC's data processing and validation procedures.
#
#######################################################################

data_CSD_CIF_ERABEE
_audit_creation_date 2004-05-06
_audit_creation_method CSD-ConQuest-V1
_database_code_CSD ERABEE
_database_code_depnum_ccdc_archive 'CCDC 229288'
_chemical_formula_sum 'C2 H9 Co1 N1 O7 P2'
_chemical_formula_moiety
;
(C2 H5 Co1 O7 P2 1-)n,n(H4 N1 1+)
;
_journal_coden_Cambridge 1096
_journal_volume 15
_journal_year 2003
_journal_page_first 3233
_journal_name_full 'Chem.Mater. '
loop_
_publ_author_name
"Ping Yin"
"Song Gao"
"Li-Min Zheng"
"Xin-Quan Xin"
_chemical_name_systematic
;
catena-(Ammonium (\m~3~-1-hydroxyethylidenediphosphonato)-cobalt(ii))
;
_cell_volume    394.820
_exptl_crystal_colour 'purple red'
_exptl_crystal_density_diffrn 2.355
_exptl_special_details
;
isomorphous with the iron analogue

;
_exptl_crystal_description 'needle'
_exptl_crystal_preparation 'from the melt'
_diffrn_ambient_temperature 293
#These two values have been output from a single CSD field.
_refine_ls_R_factor_gt 0.0353
_refine_ls_wR_factor_gt 0.0353
_symmetry_cell_setting triclinic
_symmetry_space_group_name_H-M 'P -1'
_symmetry_Int_Tables_number 2
loop_
_symmetry_equiv_pos_site_id
_symmetry_equiv_pos_as_xyz
1 x,y,z
2 -x,-y,-z
_cell_length_a 5.4635(13)
_cell_length_b 7.7205(18)
_cell_length_c 9.976(2)
_cell_angle_alpha 71.198(4)
_cell_angle_beta 82.385(4)
_cell_angle_gamma 87.920(5)
_cell_formula_units_Z 2
loop_
_atom_type_symbol
_atom_type_radius_bond
C 0.68
H 0.23
Co 1.33
N 0.68
O 0.68
P 1.05
loop_
_atom_site_label
_atom_site_type_symbol
_atom_site_fract_x
_atom_site_fract_y
_atom_site_fract_z
Co1 Co 0.32661(8) 0.36145(7) 0.63245(5)
P1 P 0.78609(17) 0.14085(13) 0.74886(10)
P2 P 0.78276(17) 0.54148(12) 0.70721(10)
O1 O 0.6050(4) 0.1608(3) 0.6428(2)
O2 O 1.0554(4) 0.1573(3) 0.6897(3)
O3 O 0.7378(5) -0.0477(3) 0.8726(3)
H1 H 0.729(7) -0.117(6) 0.837(4)
O4 O 0.6250(4) 0.5562(3) 0.5872(2)
O5 O 1.0579(4) 0.5370(3) 0.6630(3)
O6 O 0.7126(4) 0.6866(3) 0.7765(3)
O7 O 0.4257(4) 0.3119(3) 0.8538(3)
H2 H 0.374(6) 0.216(3) 0.929(2)
C1 C 0.7947(6) 0.2857(5) 0.9772(4)
H3 H 0.74860 0.16590 1.04130
H4 H 0.72630 0.37620 1.01830
H5 H 0.97140 0.29700 0.96100
C2 C 0.6965(6) 0.3142(5) 0.8365(4)
N1 N 1.2946(6) 0.8523(5) 0.6397(4)
H6 H 1.434(7) 0.824(5) 0.691(4)
H7 H 1.324(7) 0.861(5) 0.555(4)
H8 H 1.168(7) 0.760(5) 0.660(4)
H9 H 1.221(6) 0.968(5) 0.650(4)
O2* O 0.0554(4) 0.1573(3) 0.6897(3)
O4A O 0.3750(4) 0.4438(3) 0.4128(2)
O5* O 0.0579(4) 0.5370(3) 0.6630(3)
Co1* Co 1.32661(8) 0.36145(7) 0.63245(5)
Co1A Co 0.67339(8) 0.63855(7) 0.36755(5)
#END
