
#######################################################################
#
#                 Cambridge Crystallographic Data Centre
#                                CCDC
#
#######################################################################
#
# If this CIF has been generated from an entry in the Cambridge
# Structural Database, then it will include bibliographic, chemical,
# crystal, experimental, refinement or atomic coordinate data resulting
# from the CCDC's data processing and validation procedures.
#
#######################################################################

data_CSD_CIF_ERAPAQ
_audit_creation_date 2016-07-29
_audit_creation_method CSD-ConQuest-V1
_database_code_CSD ERAPAQ
_database_code_depnum_ccdc_archive 'CCDC 1470026'
_chemical_formula_sum 'C36 H44 Co3 N6 O22'
_chemical_formula_moiety
;
(C24 H18 Co3 N2 O20 2-)n,2n(C6 H11 N2 1+),2n(H2 O1)
;
_journal_coden_Cambridge 1500
_journal_volume 6
_journal_year 2016
_journal_page_first 71952
_journal_name_full 'RSC Advances '
loop_
_publ_author_name
"Wen-Xian Chen"
"Yi-Fen Gao"
"Pei-Yuan Gao"
"Qiu-Ping Liu"
"Gui-Lin Zhuang"
_chemical_name_systematic
;
catena-[bis(1-ethyl-3-methyl-1H-imidazol-3-ium) 
tetrakis(\m-acetato)-bis(\m-5-nitroisophthalato)-tri-cobalt dihydrate]
;
_cell_volume   2268.538
_exptl_crystal_colour 'purple'
_exptl_crystal_density_diffrn 1.595
_exptl_crystal_description 'block'
_diffrn_ambient_temperature 173
#These two values have been output from a single CSD field.
_refine_ls_R_factor_gt 0.0373
_refine_ls_wR_factor_gt 0.0373
_symmetry_cell_setting monoclinic
_symmetry_space_group_name_H-M 'P 21/n'
_symmetry_Int_Tables_number 14
loop_
_symmetry_equiv_pos_site_id
_symmetry_equiv_pos_as_xyz
1 x,y,z
2 1/2-x,1/2+y,1/2-z
3 -x,-y,-z
4 -1/2+x,-1/2-y,-1/2+z
_cell_length_a 7.9839(16)
_cell_length_b 20.911(4)
_cell_length_c 13.594(3)
_cell_angle_alpha 90
_cell_angle_beta 91.70(3)
_cell_angle_gamma 90
_cell_formula_units_Z 2
loop_
_atom_type_symbol
_atom_type_radius_bond
C 0.68
H 0.23
Co 1.26
N 0.68
O 0.68
loop_
_atom_site_label
_atom_site_type_symbol
_atom_site_fract_x
_atom_site_fract_y
_atom_site_fract_z
Co1 Co -0.50000 0.00000 1.00000
Co2 Co -0.50565(4) 0.165022(14) 1.01753(2)
O1 O -0.3686(2) -0.14733(8) 1.11028(13)
O2 O -0.4011(3) -0.04127(8) 1.12868(13)
O3 O -0.0073(2) -0.23361(9) 1.50377(13)
O4 O -0.1027(3) -0.27541(8) 1.36514(13)
O5 O -0.2777(7) 0.04913(15) 1.4539(3)
O6 O -0.1601(4) -0.00573(11) 1.56737(16)
O7 O -0.7324(2) -0.03909(8) 1.02287(15)
O8 O -0.7298(2) -0.14635(9) 1.02811(16)
O9 O -0.5544(2) 0.07904(7) 1.08706(13)
O10 O -0.7293(3) 0.15541(9) 1.11668(16)
C1 C -0.2793(3) -0.09988(11) 1.25959(18)
C2 C -0.2088(3) -0.15728(11) 1.29238(18)
H1 H -0.20640 -0.19280 1.24880
C3 C -0.1421(3) -0.16368(11) 1.38689(18)
C4 C -0.1426(4) -0.11179(12) 1.45117(19)
H2 H -0.09640 -0.11510 1.51620
C5 C -0.2128(4) -0.05521(12) 1.4169(2)
C6 C -0.2813(4) -0.04783(12) 1.3229(2)
H3 H -0.32840 -0.00820 1.30220
C7 C -0.3559(3) -0.09522(11) 1.15742(18)
C8 C -0.0778(3) -0.22814(11) 1.42066(18)
C9 C -0.7986(3) -0.09187(12) 1.0383(2)
C10 C -0.9767(4) -0.09167(15) 1.0723(3)
H4 H -1.01630 -0.04750 1.07740
H5 H -0.98120 -0.11240 1.13680
H6 H -1.04830 -0.11500 1.02480
C11 C -0.6830(3) 0.09951(12) 1.13173(19)
C12 C -0.7685(5) 0.05661(16) 1.2023(3)
H7 H -0.86360 0.07920 1.23020
H8 H -0.68920 0.04430 1.25540
H9 H -0.80890 0.01820 1.16770
N1 N -0.2185(5) -0.00043(12) 1.4847(2)
C13 C -0.3625(4) 0.19495(15) 0.7012(2)
H10 H -0.32230 0.17840 0.76260
C14 C -0.3283(4) 0.17238(15) 0.6126(3)
H11 H -0.25950 0.13660 0.59900
C15 C -0.4942(3) 0.25509(13) 0.5921(2)
H12 H -0.56220 0.28760 0.56290
C16 C -0.5257(5) 0.28896(17) 0.7646(2)
H13 H -0.59790 0.32210 0.73500
H14 H -0.42950 0.30910 0.79860
H15 H -0.58940 0.26410 0.81180
C17 C -0.3964(4) 0.20679(18) 0.4361(2)
H16 H -0.34230 0.24630 0.41270
H17 H -0.32280 0.17040 0.42010
C18 C -0.5575(6) 0.1988(3) 0.3836(3)
H18 H -0.53950 0.19660 0.31260
H19 H -0.63030 0.23520 0.39760
H20 H -0.61080 0.15920 0.40510
N2 N -0.4665(3) 0.24658(11) 0.68746(17)
N3 N -0.4111(3) 0.21052(11) 0.54394(18)
O11 O -0.7401(13) 0.4101(4) 0.7051(7)
Co2B Co -0.49435(4) -0.165022(14) 0.98247(2)
O1B O -0.6314(2) 0.14733(8) 0.88972(13)
O2B O -0.5989(3) 0.04127(8) 0.87132(13)
O3B O -0.9927(2) 0.23361(9) 0.49623(13)
O4B O -0.8973(3) 0.27541(8) 0.63486(13)
O5B O -0.7223(7) -0.04913(15) 0.5461(3)
O6B O -0.8399(4) 0.00573(11) 0.43263(16)
O7B O -0.2676(2) 0.03909(8) 0.97713(15)
O8B O -0.2702(2) 0.14635(9) 0.97189(16)
O9B O -0.4456(2) -0.07904(7) 0.91294(13)
O10B O -0.2707(3) -0.15541(9) 0.88332(16)
C1B C -0.7207(3) 0.09988(11) 0.74041(18)
C2B C -0.7912(3) 0.15728(11) 0.70762(18)
H1B H -0.79360 0.19280 0.75120
C3B C -0.8579(3) 0.16368(11) 0.61311(18)
C4B C -0.8574(4) 0.11179(12) 0.54883(19)
H2B H -0.90360 0.11510 0.48380
C5B C -0.7872(4) 0.05521(12) 0.5831(2)
C6B C -0.7187(4) 0.04783(12) 0.6771(2)
H3B H -0.67160 0.00820 0.69780
C7B C -0.6441(3) 0.09522(11) 0.84258(18)
C8B C -0.9222(3) 0.22814(11) 0.57934(18)
C9B C -0.2014(3) 0.09187(12) 0.9617(2)
C10B C -0.0233(4) 0.09167(15) 0.9277(3)
H4B H 0.01630 0.04750 0.92260
H5B H -0.01880 0.11240 0.86320
H6B H 0.04830 0.11500 0.97520
C11B C -0.3170(3) -0.09951(12) 0.86827(19)
C12B C -0.2315(5) -0.05661(16) 0.7977(3)
H7B H -0.13640 -0.07920 0.76980
H8B H -0.31080 -0.04430 0.74460
H9B H -0.19110 -0.01820 0.83230
N1B N -0.7815(5) 0.00043(12) 0.5153(2)
Co2A Co 0.00565(4) -0.334978(14) 1.48247(2)
Co2C Co -1.00565(4) 0.334978(14) 0.51753(2)
O3A O -0.4927(2) 0.26639(9) 0.99623(13)
O3C O -0.5073(2) -0.26639(9) 1.00377(13)
O4A O -0.3973(3) 0.22459(8) 1.13486(13)
O4C O -0.6027(3) -0.22459(8) 0.86514(13)
#END
