
#######################################################################
#
#                 Cambridge Crystallographic Data Centre
#                                CCDC
#
#######################################################################
#
# If this CIF has been generated from an entry in the Cambridge
# Structural Database, then it will include bibliographic, chemical,
# crystal, experimental, refinement or atomic coordinate data resulting
# from the CCDC's data processing and validation procedures.
#
#######################################################################

data_CSD_CIF_ERAPEU
_audit_creation_date 2016-07-29
_audit_creation_method CSD-ConQuest-V1
_database_code_CSD ERAPEU
_database_code_depnum_ccdc_archive 'CCDC 1470027'
_chemical_formula_sum 'C28 H30 Co1 N4 O9'
_chemical_formula_moiety
;
(C16 H6 Co1 O8 2-)n,2n(C6 H11 N2 1+),n(H2 O1)
;
_journal_coden_Cambridge 1500
_journal_volume 6
_journal_year 2016
_journal_page_first 71952
_journal_name_full 'RSC Advances '
loop_
_publ_author_name
"Wen-Xian Chen"
"Yi-Fen Gao"
"Pei-Yuan Gao"
"Qiu-Ping Liu"
"Gui-Lin Zhuang"
_chemical_name_systematic
;
catena-[bis(1-ethyl-3-methyl-1H-imidazol-3-ium) 
(\m-[1,1'-biphenyl]-2,2',4,4'-tetracarboxylato)-cobalt monohydrate]
;
_cell_volume   2915.166
_exptl_crystal_colour 'blue'
_exptl_crystal_density_diffrn 1.425
_exptl_crystal_description 'plate'
_diffrn_ambient_temperature 173
#These two values have been output from a single CSD field.
_refine_ls_R_factor_gt 0.0896
_refine_ls_wR_factor_gt 0.0896
_symmetry_cell_setting monoclinic
_symmetry_space_group_name_H-M 'P 21/n'
_symmetry_Int_Tables_number 14
loop_
_symmetry_equiv_pos_site_id
_symmetry_equiv_pos_as_xyz
1 x,y,z
2 1/2-x,1/2+y,1/2-z
3 -x,-y,-z
4 -1/2+x,-1/2-y,-1/2+z
_cell_length_a 10.1130(7)
_cell_length_b 26.6767(9)
_cell_length_c 10.9905(5)
_cell_angle_alpha 90
_cell_angle_beta 100.523(5)
_cell_angle_gamma 90
_cell_formula_units_Z 4
loop_
_atom_type_symbol
_atom_type_radius_bond
C 0.68
H 0.23
Co 1.26
N 0.68
O 0.68
loop_
_atom_site_label
_atom_site_type_symbol
_atom_site_fract_x
_atom_site_fract_y
_atom_site_fract_z
Co1 Co 0.47502(6) -0.144716(18) 1.54449(5)
O1 O 0.3295(3) 0.14044(9) 1.4581(3)
O2 O 0.1579(4) 0.09145(13) 1.4780(4)
O3 O 0.4599(5) -0.10335(11) 1.2958(3)
O4 O 0.3963(3) -0.08179(10) 1.4712(3)
O5 O 0.5836(3) 0.14107(10) 1.2928(3)
O6 O 0.5906(4) 0.15527(14) 1.0975(3)
O7 O 0.2506(4) 0.30892(11) 1.0417(4)
O8 O 0.0403(4) 0.28516(11) 1.0143(3)
C1 C 0.3244(5) 0.07775(14) 1.2304(4)
C2 C 0.3069(4) 0.06302(13) 1.3484(4)
C3 C 0.3366(4) 0.01476(14) 1.3904(4)
H1 H 0.32510 0.00590 1.46970
C4 C 0.3830(5) -0.02040(14) 1.3166(4)
C5 C 0.3998(6) -0.00587(16) 1.1969(4)
H2 H 0.43270 -0.02880 1.14600
C6 C 0.3673(5) 0.04278(15) 1.1545(4)
H3 H 0.37490 0.05150 1.07420
C7 C 0.2860(5) 0.12967(15) 1.1817(4)
C8 C 0.3808(5) 0.16379(14) 1.1589(4)
C9 C 0.3385(5) 0.21084(14) 1.1127(4)
H4 H 0.40260 0.23400 1.09840
C10 C 0.2048(5) 0.22405(14) 1.0876(4)
C11 C 0.1108(5) 0.18934(16) 1.1076(4)
H5 H 0.02000 0.19750 1.08960
C12 C 0.1499(5) 0.14207(15) 1.1545(4)
H6 H 0.08540 0.11880 1.16760
C13 C 0.2599(5) 0.10133(16) 1.4349(4)
C14 C 0.4144(5) -0.07245(15) 1.3641(4)
C15 C 0.5296(5) 0.15250(15) 1.1849(4)
C16 C 0.1682(5) 0.27627(17) 1.0451(4)
C17 C 0.0635(8) -0.0230(3) 0.6505(10)
H7 H -0.02290 -0.03060 0.60940
C18 C 0.2330(9) 0.0194(4) 0.7418(10)
H8 H 0.28450 0.04600 0.77900
C19 C 0.2829(10) -0.0262(4) 0.7146(18)
H9 H 0.37230 -0.03640 0.72840
C20 C 0.0269(16) 0.0710(5) 0.7087(11)
H10 H 0.08400 0.10010 0.70640
H11 H -0.05460 0.07350 0.64690
C21 C 0.002(2) 0.0578(11) 0.8388(14)
H12 H -0.04850 0.08410 0.86830
H13 H 0.08690 0.05400 0.89400
H14 H -0.04730 0.02690 0.83550
C22 C 0.147(2) -0.1056(4) 0.606(2)
H15 H 0.23070 -0.12340 0.61640
H16 H 0.10940 -0.10280 0.51980
H17 H 0.08550 -0.12350 0.64760
N1 N 0.1017(7) 0.0199(3) 0.7077(7)
N2 N 0.1708(10) -0.0537(3) 0.6620(13)
C23 C 1.5207(7) 0.2135(2) 0.7954(5)
H18 H 1.53800 0.18270 0.76190
C24 C 1.5520(8) 0.2834(2) 0.8910(5)
H19 H 1.59680 0.30960 0.93700
C25 C 1.4104(8) 0.2809(3) 0.8428(7)
H20 H 1.34370 0.30430 0.84910
C26 C 1.2739(9) 0.2194(4) 0.7163(9)
H21 H 1.24230 0.24620 0.65880
H22 H 1.29470 0.19140 0.66650
C27 C 1.1616(10) 0.2042(5) 0.7672(11)
H23 H 1.08900 0.19530 0.70160
H24 H 1.13390 0.23130 0.81430
H25 H 1.18560 0.17580 0.82010
C28 C 1.7418(9) 0.2287(3) 0.8846(7)
H26 H 1.75280 0.19620 0.85030
H27 H 1.77200 0.22770 0.97260
H28 H 1.79380 0.25280 0.84880
N3 N 1.3991(7) 0.2358(2) 0.7857(5)
N4 N 1.6067(7) 0.24219(19) 0.8586(5)
O9 O 0.4091(5) 0.10634(16) 0.8917(4)
H29 H 0.40960 0.14270 0.89440
H30 H 0.50180 0.09510 0.91150
Co1A Co 0.02498(6) 0.355284(18) 0.95551(5)
Co1B Co 0.52498(6) 0.144716(18) 1.45551(5)
O1B O 0.6705(3) -0.14044(9) 1.5419(3)
O5B O 0.4164(3) -0.14107(10) 1.7072(3)
O8A O 0.4597(4) -0.21484(11) 1.4857(3)
#END
