
#######################################################################
#
#                 Cambridge Crystallographic Data Centre
#                                CCDC
#
#######################################################################
#
# If this CIF has been generated from an entry in the Cambridge
# Structural Database, then it will include bibliographic, chemical,
# crystal, experimental, refinement or atomic coordinate data resulting
# from the CCDC's data processing and validation procedures.
#
#######################################################################

data_CSD_CIF_ERARUL
_audit_creation_date 2011-08-02
_audit_creation_method CSD-ConQuest-V1
_database_code_CSD ERARUL
_database_code_depnum_ccdc_archive 'CCDC 802477'
_chemical_formula_sum 'C30 H24 N4 O16 P2 Zn2'
_chemical_formula_moiety
;
(C10 H6 O16 P2 Zn2 2-)n,2n(C10 H9 N2 1+)
;
_journal_coden_Cambridge 179
_journal_volume 50
_journal_year 2011
_journal_page_first 5319
_journal_name_full 'Angew.Chem.,Int.Ed. '
loop_
_publ_author_name
"Shu-Hao Huang"
"Sue-Lein Wang"
_chemical_name_systematic
;
catena-(bis(4-(pyridin-4-yl)pyridinium) 
(\m~4~-1,2,4,5-benzenetetracarboxylato)-bis(\m~2~-dihydrogen 
phosphato)-di-zinc(ii))
;
_cell_volume   3316.593
_exptl_crystal_colour 'colorless'
_exptl_crystal_density_diffrn 1.781
_exptl_crystal_description 'tabular'
_diffrn_ambient_temperature 296
#These two values have been output from a single CSD field.
_refine_ls_R_factor_gt 0.0224
_refine_ls_wR_factor_gt 0.0224
_symmetry_cell_setting monoclinic
_symmetry_space_group_name_H-M 'C 2/c'
_symmetry_Int_Tables_number 15
loop_
_symmetry_equiv_pos_site_id
_symmetry_equiv_pos_as_xyz
1 x,y,z
2 -x,y,1/2-z
3 1/2+x,1/2+y,z
4 1/2-x,1/2+y,1/2-z
5 -x,-y,-z
6 x,-y,-1/2+z
7 -1/2-x,-1/2-y,-z
8 -1/2+x,-1/2-y,-1/2+z
_cell_length_a 25.2825(7)
_cell_length_b 7.8499(2)
_cell_length_c 18.6461(6)
_cell_angle_alpha 90
_cell_angle_beta 116.333(1)
_cell_angle_gamma 90
_cell_formula_units_Z 4
loop_
_atom_type_symbol
_atom_type_radius_bond
C 0.68
H 0.23
N 0.68
O 0.68
P 1.05
Zn 1.22
loop_
_atom_site_label
_atom_site_type_symbol
_atom_site_fract_x
_atom_site_fract_y
_atom_site_fract_z
Zn1 Zn 0.337337(7) 1.81779(2) 0.613259(9)
P1 P 0.211330(15) 1.69822(4) 0.57030(2)
O1 O 0.26449(4) 1.80614(13) 0.62243(6)
O2 O 0.17247(4) 1.77177(13) 0.48886(6)
O3 O 0.17433(5) 1.67262(14) 0.61740(6)
O4 O 0.23349(4) 1.51850(13) 0.55791(6)
O5 O 0.39536(4) 1.66384(13) 0.69246(6)
O6 O 0.34295(4) 1.42565(13) 0.63998(6)
O7 O 0.37990(4) 1.03168(13) 0.62673(6)
O8 O 0.36561(4) 1.10075(14) 0.73346(6)
C1 C 0.50000 1.4888(2) 0.75000
C2 C 0.44622(6) 1.40201(17) 0.71876(8)
C3 C 0.44638(6) 1.22404(18) 0.71930(8)
C4 C 0.50000 1.1364(3) 0.75000
C5 C 0.38980(6) 1.50333(18) 0.68093(8)
C6 C 0.39174(6) 1.11453(17) 0.69097(8)
C7 C 0.21770(6) 1.15053(19) 0.57833(9)
C8 C 0.15734(6) 1.17353(18) 0.53926(9)
C9 C 0.12728(6) 1.22625(19) 0.58242(9)
C10 C 0.15951(7) 1.2595(2) 0.66417(9)
C11 C 0.21980(7) 1.2350(2) 0.70042(9)
C12 C 0.06194(6) 1.2456(2) 0.54173(9)
C13 C 0.03355(7) 1.3067(2) 0.46343(9)
C14 C -0.02765(7) 1.3197(2) 0.42697(9)
C15 C -0.03353(7) 1.2174(2) 0.53878(10)
C16 C 0.02753(7) 1.2010(2) 0.58026(10)
N1 N 0.24705(5) 1.17976(15) 0.65716(8)
N2 N -0.06082(6) 1.27523(19) 0.46356(8)
H1 H 0.50000 1.61070 0.75000
H2 H 0.50000 1.01290 0.75000
H3 H 0.23800 1.11130 0.55010
H4 H 0.13840 1.15250 0.48720
H5 H 0.13880 1.30110 0.69450
H6 H 0.24190 1.25590 0.75460
H7 H 0.05650 1.34400 0.43840
H8 H -0.04950 1.35650 0.37150
H9 H -0.05830 1.19130 0.56340
H10 H 0.04390 1.16530 0.63360
H11 H 0.28540 1.15660 0.67970
H12 H 0.13510 1.69090 0.58920
H13 H 0.27220 1.49860 0.58850
Zn1F Zn 0.162663(7) 1.68221(2) 0.386741(9)
Zn1* Zn 0.337337(7) 0.81779(2) 0.613259(9)
Zn1A Zn 0.662663(7) 0.81779(2) 0.886741(9)
Zn1A* Zn 0.662663(7) 1.81779(2) 0.886741(9)
P1F P 0.288670(15) 1.80178(4) 0.42970(2)
O1F O 0.23551(4) 1.69386(13) 0.37757(6)
O2F O 0.32753(4) 1.72823(13) 0.51114(6)
O3F O 0.32567(5) 1.82738(14) 0.38260(6)
O4F O 0.26651(4) 1.98150(13) 0.44209(6)
O5A O 0.60464(4) 1.66384(13) 0.80754(6)
O5F O 0.10464(4) 1.83616(13) 0.30754(6)
O6A O 0.65705(4) 1.42565(13) 0.86002(6)
O7A O 0.62010(4) 1.03168(13) 0.87327(6)
O7* O 0.37990(4) 2.03168(13) 0.62673(6)
O7F O 0.12010(4) 1.46832(13) 0.37327(6)
O8A O 0.63439(4) 1.10075(14) 0.76654(6)
C2A C 0.55378(6) 1.40201(17) 0.78124(8)
C3A C 0.55362(6) 1.22404(18) 0.78070(8)
C5A C 0.61020(6) 1.50333(18) 0.81907(8)
C6A C 0.60826(6) 1.11453(17) 0.80903(8)
H12F H 0.36490 1.80910 0.41080
H13F H 0.22780 2.00140 0.41150
#END
