
#######################################################################
#
#                 Cambridge Crystallographic Data Centre
#                                CCDC
#
#######################################################################
#
# If this CIF has been generated from an entry in the Cambridge
# Structural Database, then it will include bibliographic, chemical,
# crystal, experimental, refinement or atomic coordinate data resulting
# from the CCDC's data processing and validation procedures.
#
#######################################################################

data_CSD_CIF_ERAXEC
_audit_creation_date 2016-07-29
_audit_creation_method CSD-ConQuest-V1
_database_code_CSD ERAXEC
_database_code_depnum_ccdc_archive 'CCDC 1470024'
_chemical_formula_sum 'C28 H28 Co1 N6 O12'
_chemical_formula_moiety
;
(C16 H6 Co1 N2 O12 2-)n,2(C6 H11 N2 1+)
;
_journal_coden_Cambridge 1500
_journal_volume 6
_journal_year 2016
_journal_page_first 71952
_journal_name_full 'RSC Advances '
loop_
_publ_author_name
"Wen-Xian Chen"
"Yi-Fen Gao"
"Pei-Yuan Gao"
"Qiu-Ping Liu"
"Gui-Lin Zhuang"
_chemical_name_systematic
;
catena-[bis(1-ethyl-3-methyl-1H-imidazol-3-ium) 
bis(\m-5-nitrobenzene-1,3-dicarboxylato)-cobalt(ii)]
;
_cell_volume   3036.163
_exptl_crystal_colour 'blue'
_exptl_crystal_density_diffrn 1.53
_exptl_crystal_description 'block'
_diffrn_ambient_temperature 173
#These two values have been output from a single CSD field.
_refine_ls_R_factor_gt 0.0507
_refine_ls_wR_factor_gt 0.0507
_symmetry_cell_setting monoclinic
_symmetry_space_group_name_H-M 'P 21/c'
_symmetry_Int_Tables_number 14
loop_
_symmetry_equiv_pos_site_id
_symmetry_equiv_pos_as_xyz
1 x,y,z
2 -x,1/2+y,1/2-z
3 -x,-y,-z
4 x,-1/2-y,-1/2+z
_cell_length_a 14.5649(3)
_cell_length_b 14.1256(4)
_cell_length_c 15.1659(5)
_cell_angle_alpha 90
_cell_angle_beta 103.328(3)
_cell_angle_gamma 90
_cell_formula_units_Z 4
loop_
_atom_type_symbol
_atom_type_radius_bond
C 0.68
H 0.23
Co 1.26
N 0.68
O 0.68
loop_
_atom_site_label
_atom_site_type_symbol
_atom_site_fract_x
_atom_site_fract_y
_atom_site_fract_z
Co1 Co -0.246282(17) -0.48883(2) 0.51786(2)
O1 O -0.33986(9) -0.39415(11) 0.53034(12)
O2 O -0.2581(1) -0.25932(12) 0.54361(13)
O3 O -0.66651(9) -0.40550(11) 0.49447(11)
O4 O -0.75373(10) -0.28476(13) 0.52272(14)
O5 O -0.43146(12) 0.02658(12) 0.60621(13)
O6 O -0.57122(12) 0.01181(12) 0.63029(13)
O7 O -0.17589(10) -0.55015(15) 0.73343(12)
O8 O -0.13167(10) -0.49465(13) 0.61304(13)
O9 O 0.17983(10) -0.52679(12) 0.57906(11)
O10 O 0.30236(10) -0.54689(14) 0.69541(13)
O11 O 0.23085(15) -0.51954(19) 0.99917(15)
O12 O 0.09155(13) -0.56292(15) 1.01229(13)
C1 C -0.42021(13) -0.25524(15) 0.54788(14)
C2 C -0.50465(13) -0.30463(15) 0.53136(14)
H1 H -0.50490 -0.36820 0.51520
C3 C -0.58909(13) -0.26251(15) 0.53803(14)
C4 C -0.58860(14) -0.16793(16) 0.56343(15)
H2 H -0.64380 -0.13790 0.56900
C5 C -0.50373(15) -0.11986(15) 0.58014(14)
C6 C -0.42079(14) -0.16093(16) 0.57086(15)
H3 H -0.36570 -0.12540 0.58000
C7 C -0.33051(14) -0.30490(16) 0.54006(15)
C8 C -0.67856(14) -0.32024(17) 0.51691(15)
C9 C -0.01258(14) -0.53269(15) 0.73825(15)
C10 C 0.05340(14) -0.53089(15) 0.68508(15)
H4 H 0.03270 -0.52620 0.62250
C11 C 0.14861(13) -0.53585(15) 0.72298(16)
C12 C 0.18035(15) -0.53799(16) 0.81560(16)
H5 H 0.24460 -0.53860 0.84240
C13 C 0.11401(15) -0.53916(16) 0.86802(16)
C14 C 0.01782(15) -0.53776(16) 0.83140(16)
H6 H -0.02500 -0.54020 0.86830
C15 C -0.11782(14) -0.52539(16) 0.69143(16)
C16 C 0.21963(13) -0.53733(15) 0.66144(16)
N1 N -0.50271(14) -0.02026(14) 0.60748(14)
N2 N 0.14845(16) -0.54018(17) 0.96728(15)
C17 C -0.2282(2) 0.2061(2) 0.7024(3)
H7 H -0.18050 0.15910 0.72320
H8 H -0.20200 0.26800 0.71740
H9 H -0.25060 0.20100 0.63790
C18 C -0.30332(17) 0.19176(19) 0.7442(2)
H10 H -0.27940 0.19480 0.80930
H11 H -0.32830 0.12860 0.72940
C19 C -0.37231(14) 0.35246(17) 0.70264(15)
H12 H -0.31570 0.38430 0.70620
C20 C -0.47501(14) 0.24080(17) 0.70673(16)
H13 H -0.50110 0.18190 0.71340
C21 C -0.52236(14) 0.32232(16) 0.68456(15)
H14 H -0.58740 0.33040 0.67320
C22 C -0.47877(17) 0.48875(16) 0.65352(18)
H15 H -0.42100 0.52310 0.65760
H16 H -0.51430 0.51780 0.69230
H17 H -0.51510 0.48980 0.59210
N3 N -0.38126(12) 0.26090(13) 0.71763(13)
N4 N -0.45724(11) 0.39099(13) 0.68185(12)
C23 C 0.2714(2) 0.3286(4) 1.1999(3)
H18 H 0.31740 0.34560 1.25370
H19 H 0.26060 0.38150 1.15890
H20 H 0.29410 0.27580 1.17120
C24 C 0.1956(3) 0.3065(4) 1.2204(4)
H21 H 0.17800 0.36040 1.25260
H22 H 0.21100 0.25570 1.26440
C25 C 0.0249(2) 0.2833(2) 1.1709(2)
H23 H 0.00670 0.30460 1.22240
C26 C 0.11460(17) 0.24157(18) 1.08007(18)
H24 H 0.16610 0.23050 1.05500
C27 C -0.0328(2) 0.2517(2) 1.0952(3)
H25 H -0.09840 0.25030 1.08230
C28 C -0.0149(2) 0.1853(3) 0.9500(3)
H26 H -0.08220 0.17900 0.93940
H27 H 0.01260 0.12450 0.94430
H28 H 0.00040 0.22810 0.90640
N5 N 0.02265(14) 0.22255(16) 1.04209(18)
N6 N 0.1157(2) 0.27909(18) 1.1600(2)
Co1B Co -0.753718(17) -0.51117(2) 0.48214(2)
Co1B* Co 0.246282(17) -0.51117(2) 0.48214(2)
O3B O -0.33349(9) -0.59450(11) 0.50553(11)
O9B O -0.17983(10) -0.47321(12) 0.42094(11)
#END
