
#######################################################################
#
#                 Cambridge Crystallographic Data Centre
#                                CCDC
#
#######################################################################
#
# If this CIF has been generated from an entry in the Cambridge
# Structural Database, then it will include bibliographic, chemical,
# crystal, experimental, refinement or atomic coordinate data resulting
# from the CCDC's data processing and validation procedures.
#
#######################################################################

data_CSD_CIF_ERISIK
_audit_creation_date 2021-04-25
_audit_creation_method CSD-ConQuest-V1
_database_code_CSD ERISIK
_database_code_depnum_ccdc_archive 'CCDC 2062074'
_chemical_formula_sum 'C19 H57 K2 N3 O50 P1 Tb1 W11'
_chemical_formula_moiety
;
(C7 H17 K2 O48 P1 Tb1 W11 3-)n,3(C4 H12 N1 1+),2(H2 O1)
;
_journal_coden_Cambridge 1295
_journal_volume 129
_journal_year 2021
_journal_page_first 108621
_journal_name_full 'Inorg.Chem.Commun. '
loop_
_publ_author_name
"Ke Wang"
"Shuo Feng"
"Pengtao Ma"
_chemical_name_systematic
;
catena-[tris(tetramethylammonium) 
(\m~12~-phosphato)-octacosakis(\m-oxido)-(\m-4-hydroxybenzoato)-hexa-aqua-hept
aoxo-di-potassium-terbium-undeca-tungsten dihydrate]
;
_cell_volume   3255.500
_exptl_crystal_colour 'colorless'
_exptl_crystal_density_diffrn 3.471
_exptl_crystal_description 'block'
_diffrn_ambient_temperature 150.0
#These two values have been output from a single CSD field.
_refine_ls_R_factor_gt 0.0806
_refine_ls_wR_factor_gt 0.0806
_symmetry_cell_setting triclinic
_symmetry_space_group_name_H-M 'P -1'
_symmetry_Int_Tables_number 2
loop_
_symmetry_equiv_pos_site_id
_symmetry_equiv_pos_as_xyz
1 x,y,z
2 -x,-y,-z
_cell_length_a 12.831(2)
_cell_length_b 13.474(2)
_cell_length_c 19.803(4)
_cell_angle_alpha 84.292(9)
_cell_angle_beta 79.370(8)
_cell_angle_gamma 75.707(8)
_cell_formula_units_Z 2
loop_
_atom_type_symbol
_atom_type_radius_bond
C 0.68
H 0.23
K 2.03
N 0.68
O 0.68
P 1.05
Tb 1.94
W 1.62
loop_
_atom_site_label
_atom_site_type_symbol
_atom_site_fract_x
_atom_site_fract_y
_atom_site_fract_z
W1 W 0.46937(6) 0.85086(6) 0.17103(4)
W2 W 0.76789(6) 0.99363(6) 0.21538(4)
W3 W 0.51237(6) 0.93918(7) 0.31790(5)
W4 W 0.46343(6) 0.70092(7) 0.32547(5)
W5 W 0.77081(7) 0.83602(7) 0.38331(5)
W6 W 0.72312(7) 0.59484(7) 0.39275(5)
W7 W 0.96422(6) 0.64278(6) 0.30321(5)
W8 W 0.67258(6) 0.49130(6) 0.23811(5)
W9 W 0.91295(6) 0.54007(6) 0.15093(5)
W10 W 0.96111(6) 0.80410(5) 0.13688(4)
W11 W 0.67554(6) 0.64519(6) 0.08646(4)
K1 K 1.0520(5) 0.3005(6) 0.0282(4)
K2 K 0.7945(8) 0.4462(8) 0.5761(5)
C1 C 0.6977(15) 0.8562(15) -0.0866(10)
C2 C 0.683(2) 0.8138(19) -0.1454(12)
C3 C 0.772(2) 0.7518(18) -0.1897(12)
H1 H 0.84210 0.73789 -0.17730
C4 C 0.762(3) 0.713(3) -0.2459(18)
H2 H 0.82406 0.66932 -0.27053
C5 C 0.664(3) 0.736(3) -0.270(2)
C6 C 0.573(2) 0.787(2) -0.2239(15)
H3 H 0.50128 0.79073 -0.23219
C7 C 0.585(2) 0.8301(18) -0.1699(14)
H4 H 0.52326 0.87522 -0.14619
Tb1 Tb 0.71905(7) 0.92936(7) 0.04052(5)
P1 P 0.7216(3) 0.7457(3) 0.2341(2)
O1 O 0.3560(11) 0.8873(11) 0.1315(8)
O2 O 0.7846(12) 1.1060(11) 0.2346(8)
O3 O 0.4350(11) 1.0401(13) 0.3631(8)
O4 O 0.3588(13) 0.6585(13) 0.3766(8)
O5 O 0.7801(14) 0.9055(13) 0.4511(9)
O6 O 0.7038(12) 0.5144(13) 0.4633(9)
O7 O 1.0959(11) 0.5907(13) 0.3189(9)
O8 O 0.6420(13) 0.3734(12) 0.2548(9)
O9 O 1.0234(10) 0.4547(11) 0.1129(9)
O10 O 1.0962(10) 0.7993(11) 0.1074(8)
O11 O 0.6382(13) 0.6157(13) 0.0167(10)
O12 O 0.8979(10) 0.8568(10) 0.0632(7)
O13 O 0.6415(11) 0.5256(10) 0.1503(8)
O14 O 0.7321(11) 1.0210(11) 0.1328(8)
O15 O 0.7305(11) 0.7147(13) 0.4371(8)
O16 O 0.4361(11) 0.9440(11) 0.2435(8)
O17 O 0.6201(11) 0.8842(13) 0.3745(7)
O18 O 0.4407(11) 0.8340(12) 0.3593(7)
O19 O 0.8779(11) 0.5670(12) 0.3709(8)
O20 O 0.5434(11) 0.5830(11) 0.2760(8)
O21 O 0.6207(10) 0.9938(10) 0.2595(8)
O22 O 0.5793(10) 0.6610(11) 0.3811(7)
O23 O 0.8238(10) 0.4514(10) 0.1995(8)
O24 O 0.9511(8) 0.6665(9) 0.1222(6)
O25 O 0.4029(10) 0.7629(11) 0.2498(7)
O26 O 0.7248(12) 0.5130(12) 0.3212(10)
O27 O 0.8254(10) 0.5595(10) 0.0809(7)
O28 O 0.9159(11) 0.7477(12) 0.3692(7)
O29 O 0.7271(10) 0.7541(11) 0.0595(9)
O30 O 0.5635(11) 0.9121(10) 0.1182(7)
O31 O 0.8027(10) 0.9169(11) 0.3063(8)
O32 O 0.9181(11) 0.9325(11) 0.1817(9)
O33 O 0.9486(10) 0.5556(11) 0.2369(8)
O34 O 0.9833(10) 0.7372(10) 0.2312(8)
O35 O 0.5428(10) 0.720(1) 0.1357(7)
O36 O 0.5967(9) 0.7922(9) 0.2535(6)
O37 O 0.7707(10) 0.7166(10) 0.2995(7)
O38 O 0.7403(9) 0.6487(9) 0.1963(6)
O39 O 0.7742(9) 0.8266(9) 0.1903(8)
O40 O 0.7927(12) 0.8504(14) -0.0734(8)
O41 O 0.6153(12) 0.8974(12) -0.0460(9)
O42 O 0.647(3) 0.698(2) -0.3258(14)
H5 H 0.58691 0.73043 -0.33620
O43 O 0.8369(13) 1.0391(14) -0.0210(11)
O44 O 0.5999(11) 1.0967(11) 0.0127(9)
O45 O 0.9646(15) 0.0928(15) 0.0745(13)
O46 O 0.8352(16) 0.3573(17) 0.0423(14)
O47 O 0.800(3) 0.651(3) 0.5633(19)
O48 O 0.927(5) 0.264(5) 0.536(3)
N1 N 0.3282(13) 0.5517(15) 0.1238(12)
C8 C 0.355(2) 0.622(3) 0.0606(16)
H6 H 0.38537 0.58135 0.02033
H7 H 0.40892 0.65834 0.06909
H8 H 0.28869 0.67265 0.05214
C9 C 0.224(2) 0.524(2) 0.1209(16)
H9 H 0.18444 0.57351 0.08935
H10 H 0.18033 0.52646 0.16699
H11 H 0.23982 0.45518 0.10453
C10 C 0.413(2) 0.4567(19) 0.128(2)
H12 H 0.41303 0.41353 0.09061
H13 H 0.39716 0.41982 0.17227
H14 H 0.48391 0.47311 0.12300
C11 C 0.308(3) 0.611(3) 0.183(2)
H15 H 0.37709 0.61986 0.19216
H16 H 0.27253 0.57476 0.22238
H17 H 0.26010 0.67786 0.17383
N2 N 0.611(2) 0.2113(17) 0.4398(13)
C12 C 0.562(5) 0.324(4) 0.434(3)
H18 H 0.61137 0.35648 0.39986
H19 H 0.55265 0.35281 0.47842
H20 H 0.49156 0.33567 0.41853
C13 C 0.538(4) 0.157(3) 0.474(2)
H21 H 0.49464 0.19345 0.51385
H22 H 0.57745 0.08892 0.48897
H23 H 0.48924 0.14941 0.44276
C14 C 0.698(4) 0.179(4) 0.483(3)
H24 H 0.67924 0.22125 0.52316
H25 H 0.76740 0.18715 0.45617
H26 H 0.70388 0.10664 0.49911
C15 C 0.652(3) 0.183(3) 0.3658(18)
H27 H 0.59461 0.16510 0.34681
H28 H 0.71554 0.12476 0.36404
H29 H 0.67387 0.24203 0.33855
N3 N 0.8902(17) 0.0208(19) 0.6962(12)
C16 C 1.000(3) -0.015(4) 0.669(2)
H30 H 1.01935 -0.08987 0.67288
H31 H 1.01399 0.00952 0.62099
H32 H 1.04480 0.01131 0.69550
C17 C 0.815(4) -0.031(4) 0.673(3)
H33 H 0.73972 -0.00137 0.69416
H34 H 0.82101 -0.02192 0.62265
H35 H 0.83385 -0.10458 0.68626
C18 C 0.878(4) -0.018(4) 0.7698(17)
H36 H 0.80150 0.00452 0.79163
H37 H 0.89927 -0.09321 0.77237
H38 H 0.92436 0.00893 0.79372
C19 C 0.855(4) 0.128(3) 0.693(3)
H39 H 0.77715 0.14797 0.71301
H40 H 0.89671 0.15702 0.72001
H41 H 0.86590 0.15523 0.64550
O49 O 0.923(2) 0.238(2) 0.2062(18)
O50 O 0.673(2) 0.249(2) 0.1034(19)
K1A K 0.9480(5) 0.6995(6) -0.0282(4)
K2A K 0.2055(8) 0.5538(8) 0.4239(5)
K2A* K 1.2055(8) 0.5538(8) 0.4239(5)
O4A O 0.6412(13) 0.3415(13) 0.6234(8)
O7A O 0.9041(11) 0.4093(13) 0.6811(9)
O12A O 1.1021(10) 0.1432(10) -0.0632(7)
O24A O 1.0489(8) 0.3335(9) -0.1222(6)
O27A O 1.1746(10) 0.4405(10) -0.0809(7)
O29A O 1.2729(10) 0.2459(11) -0.0595(9)
O40A O 1.2073(12) 0.1496(14) 0.0734(8)
#END
