
#######################################################################
#
#                 Cambridge Crystallographic Data Centre
#                                CCDC
#
#######################################################################
#
# If this CIF has been generated from an entry in the Cambridge
# Structural Database, then it will include bibliographic, chemical,
# crystal, experimental, refinement or atomic coordinate data resulting
# from the CCDC's data processing and validation procedures.
#
#######################################################################

data_CSD_CIF_ESATUO
_audit_creation_date 2011-08-02
_audit_creation_method CSD-ConQuest-V1
_database_code_CSD ESATUO
_database_code_depnum_ccdc_archive 'CCDC 783377'
_chemical_formula_sum 'C32 H28 Ag2 N8 O7'
_chemical_formula_moiety
;
(C22 H14 Ag1 N4 O4 1-)n,n(C10 H8 Ag1 N4 1+),3n(H2 O1)
;
_journal_coden_Cambridge 222
_journal_volume 40
_journal_year 2011
_journal_page_first 4527
_journal_name_full 'Dalton Trans. '
loop_
_publ_author_name
"Shao-Ming Fang"
"Min Hu"
"Qiang Zhang"
"Miao Du"
"Chun-Sen Liu"
_chemical_name_systematic
;
catena-((\m~2~-trans-4,4'-Azobis(pyridine))-silver(i) 
(\m~2~-trans-4,4'-azobis(pyridine))-(naphthalene-2,3-dicarboxylato)-silver(i) 
trihydrate)
;
_cell_volume   1581.720
_exptl_crystal_colour 'yellow'
_exptl_crystal_density_diffrn 1.79
_exptl_crystal_description 'block'
_diffrn_ambient_temperature 294
#These two values have been output from a single CSD field.
_refine_ls_R_factor_gt 0.0324
_refine_ls_wR_factor_gt 0.0324
_symmetry_cell_setting triclinic
_symmetry_space_group_name_H-M 'P -1'
_symmetry_Int_Tables_number 2
loop_
_symmetry_equiv_pos_site_id
_symmetry_equiv_pos_as_xyz
1 x,y,z
2 -x,-y,-z
_cell_length_a 9.8037(6)
_cell_length_b 12.9170(7)
_cell_length_c 13.5314(7)
_cell_angle_alpha 87.233(4)
_cell_angle_beta 79.209(5)
_cell_angle_gamma 70.022(5)
_cell_formula_units_Z 2
loop_
_atom_type_symbol
_atom_type_radius_bond
C 0.68
H 0.23
Ag 1.48
N 0.68
O 0.68
loop_
_atom_site_label
_atom_site_type_symbol
_atom_site_fract_x
_atom_site_fract_y
_atom_site_fract_z
Ag1 Ag -0.07317(3) 0.98413(2) 0.40136(2)
Ag2 Ag 1.08834(3) -0.02775(2) 0.12830(3)
C1 C -0.3911(4) 1.1542(3) 0.4177(3)
H1 H -0.41790 1.09200 0.43310
C2 C -0.5013(4) 1.2560(3) 0.4203(3)
H2 H -0.60030 1.26220 0.43670
C3 C -0.4612(4) 1.3469(3) 0.3982(3)
C4 C -0.6620(4) 1.6304(3) 0.3689(3)
C5 C -0.8057(4) 1.6339(3) 0.3735(3)
H3 H -0.82930 1.56970 0.37820
C6 C -0.6280(4) 1.7260(3) 0.3601(3)
H4 H -0.53140 1.72450 0.35480
C7 C -0.3128(4) 1.3360(3) 0.3745(3)
H5 H -0.28370 1.39730 0.35950
C8 C -0.2102(4) 1.2319(3) 0.3738(3)
H6 H -0.11050 1.22390 0.35870
C9 C 0.9537(4) 0.2227(3) 0.1118(3)
H7 H 1.05300 0.21560 0.10260
C10 C 0.7763(4) 0.1420(3) 0.1406(3)
H8 H 0.74990 0.07920 0.15140
C11 C 0.6667(4) 0.2434(3) 0.1404(3)
H9 H 0.56810 0.24850 0.15050
C12 C 0.8524(4) 0.3265(3) 0.1101(3)
H10 H 0.88130 0.38820 0.09920
C13 C 0.7048(4) 0.3356(3) 0.1252(3)
C14 C 0.4993(4) 0.6211(3) 0.1102(3)
C15 C 0.3556(4) 0.6244(2) 0.1203(3)
H11 H 0.33230 0.56010 0.12440
C16 C 0.5308(4) 0.7172(3) 0.1044(3)
H12 H 0.62770 0.71560 0.09770
C17 C -0.3977(4) 0.9031(3) 0.7796(3)
C18 C -0.2725(3) 0.7930(2) 0.7509(3)
C19 C -0.2476(3) 0.7113(2) 0.8210(3)
H13 H -0.30700 0.72460 0.88450
C20 C -0.1344(4) 0.6072(3) 0.8001(3)
C21 C -0.1019(4) 0.5261(3) 0.8742(3)
H14 H -0.15760 0.53890 0.93880
C22 C 0.0107(4) 0.4291(3) 0.8510(4)
H15 H 0.03050 0.37550 0.89970
C23 C 0.0965(4) 0.4095(3) 0.7551(4)
H16 H 0.17440 0.34330 0.74100
C24 C 0.0685(4) 0.4856(3) 0.6812(3)
H17 H 0.12580 0.47120 0.61710
C25 C -0.0490(4) 0.5870(2) 0.7036(3)
C26 C -0.0797(3) 0.6714(2) 0.6304(3)
H18 H -0.02570 0.65760 0.56530
C27 C -0.1868(3) 0.7722(2) 0.6539(3)
C28 C -0.1926(4) 0.8595(3) 0.5721(3)
C29 C 0.2467(4) 0.7276(3) 0.1240(3)
H19 H 0.14900 0.73120 0.13060
C30 C -0.9128(4) 1.7360(3) 0.3708(3)
H20 H -1.00940 1.73900 0.37290
C31 C -0.7454(4) 1.8256(3) 0.3596(3)
H21 H -0.72500 1.89110 0.35500
C32 C 0.4158(4) 0.8165(2) 0.1085(3)
H22 H 0.43660 0.88180 0.10420
N1 N -0.2474(3) 1.1417(2) 0.3940(2)
N2 N -0.8854(3) 1.8305(2) 0.3655(2)
N3 N 0.9183(3) 0.1316(2) 0.1259(2)
N4 N 0.2755(3) 0.8212(2) 0.1185(2)
N5 N 0.6230(3) 0.5194(2) 0.1056(2)
N6 N 0.5844(3) 0.4391(2) 0.1283(2)
N7 N -0.5401(3) 1.5296(2) 0.3695(2)
N8 N -0.5801(3) 1.4502(2) 0.3990(2)
O1 O -0.1268(3) 0.92406(18) 0.5827(2)
O2 O -0.2466(3) 0.8510(2) 0.4986(2)
O3 O -0.4372(3) 0.96376(18) 0.71078(19)
O4 O -0.4526(3) 0.92003(17) 0.8710(2)
O5 O 0.9017(2) -0.14019(16) 0.1450(2)
H23 H 0.84030 -0.13250 0.10610
H24 H 0.84420 -0.15660 0.19350
O6 O 0.6978(2) 0.92934(17) 0.01915(18)
H25 H 0.62030 0.97020 0.05680
H26 H 0.65630 0.92330 -0.02910
O7 O 0.6840(3) 0.86147(19) 0.30908(19)
H27 H 0.67580 0.85860 0.37270
H28 H 0.61210 0.92200 0.31570
Ag1* Ag -1.07317(3) 1.98413(2) 0.40136(2)
Ag2* Ag 0.08834(3) 0.97225(2) 0.12830(3)
N2* N 0.1146(3) 0.8305(2) 0.3655(2)
N4* N 1.2755(3) -0.1788(2) 0.1185(2)
#END
