
#######################################################################
#
#                 Cambridge Crystallographic Data Centre
#                                CCDC
#
#######################################################################
#
# If this CIF has been generated from an entry in the Cambridge
# Structural Database, then it will include bibliographic, chemical,
# crystal, experimental, refinement or atomic coordinate data resulting
# from the CCDC's data processing and validation procedures.
#
#######################################################################

data_CSD_CIF_ESECOW
_audit_creation_date 2016-08-04
_audit_creation_method CSD-ConQuest-V1
_database_code_CSD ESECOW
_database_code_depnum_ccdc_archive 'CCDC 1047575'
_chemical_formula_sum 'C168 H146 Co7 N12 O44'
_chemical_formula_moiety
;
(C168 H134 Co6 N12 O38 2-)n,H12 Co1 O6 2+
;
_journal_coden_Cambridge 1851
_journal_volume 3
_journal_year 2016
_journal_page_first 1500283
_journal_name_full 'Adv. Sci. '
loop_
_publ_author_name
"Dan Tian"
"Jian Xu"
"Zhaojun Xie"
"Zhao-Quan Yao"
"Deng-Lin Fu"
"Zhen Zhou"
"Xian-He Bu"
_chemical_name_systematic
;
catena-[hexa-aqua-cobalt(ii) 
bis(\m-2,4,6-tris(pyridin-4-yl)-1,3,5-triazine)-tetrakis(\m-3,3',3''-[(2,4,6-t
rimethylbenzene-1,3,5-triyl)tris(methyleneoxy)]tribenzoato)-bis(\m-hydroxo)-he
xa-cobalt(ii) unknown solvate]
;
_cell_volume  20550.560
_exptl_crystal_colour 'red'
_exptl_crystal_density_diffrn 1.09
_exptl_crystal_description 'block'
_diffrn_ambient_temperature 113
_refine_special_details
;
The structure is disordered.  The SQUEEZE/PLATON program has been used to 
model some disorder.
;
#These two values have been output from a single CSD field.
_refine_ls_R_factor_gt 0.1342
_refine_ls_wR_factor_gt 0.1342
_symmetry_cell_setting cubic
_symmetry_space_group_name_H-M 'P a -3'
_symmetry_Int_Tables_number 205
loop_
_symmetry_equiv_pos_site_id
_symmetry_equiv_pos_as_xyz
1 x,y,z
2 1/2-x,-y,1/2+z
3 -x,1/2+y,1/2-z
4 1/2+x,1/2-y,-z
5 z,x,y
6 1/2+z,1/2-x,-y
7 1/2-z,-x,1/2+y
8 -z,1/2+x,1/2-y
9 y,z,x
10 -y,1/2+z,1/2-x
11 1/2+y,1/2-z,-x
12 1/2-y,-z,1/2+x
13 -x,-y,-z
14 -1/2+x,y,-1/2-z
15 x,-1/2-y,-1/2+z
16 -1/2-x,-1/2+y,z
17 -z,-x,-y
18 -1/2-z,-1/2+x,y
19 -1/2+z,x,-1/2-y
20 z,-1/2-x,-1/2+y
21 -y,-z,-x
22 y,-1/2-z,-1/2+x
23 -1/2-y,-1/2+z,x
24 -1/2+y,z,-1/2-x
_cell_length_a 27.391(3)
_cell_length_b 27.391(3)
_cell_length_c 27.391(3)
_cell_angle_alpha 90
_cell_angle_beta 90
_cell_angle_gamma 90
_cell_formula_units_Z 4
loop_
_atom_type_symbol
_atom_type_radius_bond
C 0.68
H 0.23
Co 1.26
N 0.68
O 0.68
loop_
_atom_site_label
_atom_site_type_symbol
_atom_site_fract_x
_atom_site_fract_y
_atom_site_fract_z
C1 C 0.4587(2) 0.5120(2) 0.0929(2)
C2 C 0.4482(3) 0.4734(3) 0.1306(3)
H1 H 0.41340 0.46900 0.13250
H2 H 0.45890 0.48550 0.16170
C3 C 0.3947(3) 0.4735(3) 0.0403(4)
H3 H 0.38050 0.47850 0.00860
H4 H 0.40970 0.44180 0.04150
H5 H 0.36970 0.47550 0.06480
O1 O 0.4425(11) 0.3287(12) 0.3072(8)
O2 O 0.3797(6) 0.3734(7) 0.2752(8)
O3 O 0.4699(7) 0.4252(4) 0.1216(7)
C4 C 0.4521(5) 0.3466(7) 0.2292(6)
C5 C 0.4469(6) 0.3856(5) 0.1972(9)
H6 H 0.42460 0.41160 0.20480
C6 C 0.4740(8) 0.3871(5) 0.1543(8)
C7 C 0.5062(7) 0.3494(8) 0.1434(5)
H7 H 0.52490 0.35040 0.11380
C8 C 0.5114(7) 0.3104(6) 0.1754(6)
H8 H 0.53370 0.28440 0.16790
C9 C 0.4843(6) 0.3090(5) 0.2183(5)
H9 H 0.48790 0.28200 0.24040
C10 C 0.4200(5) 0.3512(7) 0.2737(7)
Co1 Co 0.38243(3) 0.43363(3) 0.32966(3)
N1 N 0.38233(18) 0.48720(19) 0.27447(18)
N2 N 0.34077(16) 0.58804(15) 0.12593(16)
C11 C 0.3484(3) 0.4825(3) 0.2377(2)
H10 H 0.32700 0.45520 0.23740
C12 C 0.3452(2) 0.5183(2) 0.1997(2)
H11 H 0.32020 0.51680 0.17580
C13 C 0.3800(2) 0.5550(2) 0.1990(2)
C14 C 0.4152(2) 0.5575(2) 0.2346(2)
H12 H 0.43910 0.58270 0.23380
C15 C 0.4157(3) 0.5234(3) 0.2717(3)
H13 H 0.44030 0.52540 0.29600
C16 C 0.37860(19) 0.5916(2) 0.15843(19)
O4 O 0.3795(2) 0.3795(2) 0.3795(2)
O5 O 0.46033(17) 0.43744(16) 0.32654(17)
O6 O 0.49143(17) 0.38096(18) 0.37747(16)
O7 O 0.64306(16) 0.32038(16) 0.28364(18)
C17 C 0.4932(2) 0.4071(2) 0.3391(2)
C18 C 0.5372(2) 0.4019(2) 0.3062(3)
C19 C 0.5701(2) 0.3633(2) 0.3121(2)
H14 H 0.56540 0.34040 0.33780
C20 C 0.6082(2) 0.3582(2) 0.2819(2)
C21 C 0.6155(3) 0.3896(3) 0.2431(3)
H15 H 0.64280 0.38580 0.22210
C22 C 0.5817(3) 0.4268(3) 0.2357(3)
H16 H 0.58630 0.44850 0.20900
C23 C 0.5426(3) 0.4335(3) 0.2650(3)
H17 H 0.51930 0.45830 0.25840
C24 C 0.6301(3) 0.2793(3) 0.3152(3)
H18 H 0.59680 0.26760 0.30750
H19 H 0.63100 0.28930 0.34990
C25 C 0.6681(2) 0.2384(2) 0.3054(2)
C26 C 0.6611(2) 0.2072(2) 0.2665(2)
C27 C 0.6197(2) 0.2166(3) 0.2313(3)
H20 H 0.61960 0.19140 0.20600
H21 H 0.62400 0.24880 0.21620
H22 H 0.58860 0.21590 0.24910
C28 C 0.43278(18) 0.5119(2) 0.0492(2)
Co2 Co 0.50000 0.00000 1.00000
O8 O 0.4541(3) 0.0459(3) 0.9541(3)
O9? O 0.4301(7) 0.3148(6) 0.3038(8)
O10? O 0.388(1) 0.3811(14) 0.2730(15)
C29? C 0.4198(6) 0.3479(7) 0.2739(6)
O11? O 0.4364(12) 0.3268(12) 0.300(1)
O12? O 0.3878(11) 0.3841(12) 0.2772(13)
C30? C 0.4568(4) 0.3625(5) 0.2239(4)
C31? C 0.4528(4) 0.4050(4) 0.1964(5)
H23? H 0.43030 0.43000 0.20620
C32? C 0.4813(5) 0.4112(4) 0.1549(4)
C33? C 0.5139(5) 0.3749(5) 0.1409(4)
H24? H 0.53360 0.37920 0.11220
C34? C 0.5179(5) 0.3324(5) 0.1683(5)
H25? H 0.54040 0.30730 0.15860
C35? C 0.4894(5) 0.3262(4) 0.2098(5)
H26? H 0.49220 0.29680 0.22880
C36? C 0.4249(7) 0.3584(7) 0.2686(5)
C37? C 0.4422(6) 0.3798(5) 0.1923(9)
H27? H 0.41460 0.40130 0.19470
C38? C 0.4715(8) 0.3809(5) 0.1509(7)
C39? C 0.5115(7) 0.3498(7) 0.1473(5)
H28? H 0.53180 0.35060 0.11870
C40? C 0.5221(7) 0.3176(7) 0.1851(6)
H29? H 0.54970 0.29620 0.18260
C41? C 0.4927(7) 0.3165(5) 0.2264(5)
H30? H 0.50000 0.29430 0.25250
O13? O 0.4792(7) 0.4535(5) 0.1252(5)
O14? O 0.4560(7) 0.4146(4) 0.1174(6)
C42? C 0.4516(4) 0.4669(3) 0.0848(3)
H31? H 0.45680 0.44190 0.06080
H32? H 0.41880 0.46280 0.09640
C43? C 0.5156(3) 0.5124(3) 0.1211(3)
H33? H 0.54340 0.53300 0.11590
H34? H 0.50210 0.51880 0.15280
H35? H 0.52540 0.47880 0.11910
C44? C 0.4257(4) 0.4587(3) 0.1216(3)
H36? H 0.39180 0.44960 0.12040
H37? H 0.43150 0.47350 0.15280
C45? C 0.5222(3) 0.5478(4) 0.1484(3)
H38? H 0.54480 0.57460 0.14860
H39? H 0.49980 0.55130 0.17510
H40? H 0.53980 0.51770 0.15180
C46? C 0.50334(18) 0.5828(2) 0.0662(2)
C47? C 0.49397(19) 0.5474(2) 0.10133(19)
C48? C 0.4774(2) 0.5827(2) 0.0225(2)
C49? C 0.44216(19) 0.5472(2) 0.01406(19)
C1F C 0.4071(2) 0.5413(2) 0.0120(2)
C2F C 0.3694(3) 0.5518(3) -0.0266(3)
H1F H 0.36750 0.58660 -0.03100
H2F H 0.33830 0.54110 -0.01450
C3F C 0.4597(3) 0.6053(3) -0.0265(4)
H3F H 0.49140 0.61950 -0.02150
H4F H 0.45850 0.59030 -0.05820
H5F H 0.43520 0.63030 -0.02450
O1F O 0.1928(11) 0.5575(12) -0.1713(8)
O2F O 0.2248(6) 0.6203(7) -0.1266(8)
O3F O 0.3784(7) 0.5301(4) -0.0748(7)
C4F C 0.2708(5) 0.5479(7) -0.1534(6)
C5F C 0.3028(6) 0.5531(5) -0.1144(9)
H6F H 0.29520 0.57540 -0.08840
C6F C 0.3457(8) 0.5260(5) -0.1129(8)
C7F C 0.3566(7) 0.4938(8) -0.1506(5)
H7F H 0.38620 0.47510 -0.14960
C8F C 0.3246(7) 0.4886(6) -0.1896(6)
H8F H 0.33210 0.46630 -0.21560
C9F C 0.2817(6) 0.5157(5) -0.1910(5)
H9F H 0.25960 0.51210 -0.21800
C10F C 0.2263(5) 0.5800(7) -0.1488(7)
C28F C 0.45080(18) 0.56722(20) 0.0119(2)
C1I C 0.4880(2) 0.5929(2) 0.0413(2)
C2I C 0.5266(3) 0.6306(3) 0.0518(3)
H1I H 0.53100 0.63250 0.08660
H2I H 0.51450 0.66170 0.04110
C3I C 0.5265(3) 0.5403(3) 0.1053(4)
H3I H 0.52150 0.50860 0.11950
H4I H 0.55820 0.54150 0.09030
H5I H 0.52450 0.56480 0.13030
O1I O 0.6713(11) 0.8072(12) 0.0575(8)
O2I O 0.6266(6) 0.7752(7) 0.1203(8)
O3I O 0.5748(7) 0.6216(4) 0.0301(7)
C4I C 0.6534(5) 0.7292(7) 0.0479(6)
C5I C 0.6144(6) 0.6972(5) 0.0531(9)
H6I H 0.58840 0.70480 0.07540
C6I C 0.6129(8) 0.6543(5) 0.0260(8)
C7I C 0.6506(7) 0.6434(8) -0.0062(5)
H7I H 0.64960 0.61380 -0.02490
C8I C 0.6896(7) 0.6754(6) -0.0114(6)
H8I H 0.71560 0.66790 -0.03370
C9I C 0.6910(6) 0.7183(5) 0.0157(5)
H9I H 0.71800 0.74040 0.01210
C10I C 0.6488(5) 0.7737(7) 0.0800(7)
C28I C 0.48810(18) 0.5492(2) 0.06722(20)
N1F N 0.22553(18) 0.61767(19) -0.01280(18)
N2F N 0.37407(16) 0.65923(15) 0.08804(16)
C11F C 0.2623(3) 0.6516(3) -0.0175(2)
H10F H 0.26260 0.67300 -0.04480
C12F C 0.3003(2) 0.6548(2) 0.0183(2)
H11F H 0.32420 0.67980 0.01680
C13F C 0.3010(2) 0.6200(2) 0.0550(2)
C14F C 0.2654(2) 0.5848(2) 0.0575(2)
H12F H 0.26620 0.56090 0.08270
C15F C 0.2283(3) 0.5843(3) 0.0234(3)
H13F H 0.20400 0.55970 0.02540
C16F C 0.34157(19) 0.6214(2) 0.09160(19)
N1I N 0.51280(18) 0.77447(19) 0.11767(18)
N2I N 0.41196(16) 0.62593(15) 0.15923(16)
C11I C 0.5175(3) 0.7377(3) 0.1516(2)
H10I H 0.54480 0.73740 0.17300
C12I C 0.4817(2) 0.6997(2) 0.1548(2)
H11I H 0.48320 0.67580 0.17980
C13I C 0.4450(2) 0.6990(2) 0.1200(2)
C14I C 0.4425(2) 0.7346(2) 0.0848(2)
H12I H 0.41730 0.73380 0.06090
C15I C 0.4766(3) 0.7717(3) 0.0843(3)
H13I H 0.47460 0.79600 0.05970
C16I C 0.40840(19) 0.65843(20) 0.12140(19)
O5G O 0.67346(17) -0.03967(16) 0.06256(17)
O6G O 0.62253(17) -0.00857(18) 0.11904(16)
O7G O 0.71636(16) 0.14306(16) 0.17962(18)
C17G C 0.6609(2) -0.0068(2) 0.0929(2)
C18G C 0.6938(2) 0.0372(2) 0.0981(3)
C19G C 0.6879(2) 0.0701(2) 0.1367(2)
H14G H 0.66220 0.06540 0.15960
C20G C 0.7181(2) 0.1082(2) 0.1418(2)
C21G C 0.7569(3) 0.1155(3) 0.1104(3)
H15G H 0.77790 0.14280 0.11420
C22G C 0.7643(3) 0.0817(3) 0.0732(3)
H16G H 0.79100 0.08630 0.05150
C23G C 0.7350(3) 0.0426(3) 0.0665(3)
H17G H 0.74160 0.01930 0.04170
C24G C 0.6848(3) 0.1301(3) 0.2207(3)
H18G H 0.69250 0.09680 0.23240
H19G H 0.65010 0.13100 0.21070
C25G C 0.6946(2) 0.1681(2) 0.2616(2)
C26G C 0.7335(2) 0.1611(2) 0.2928(2)
C27G C 0.7687(2) 0.1197(3) 0.2834(3)
H20G H 0.79400 0.11960 0.30860
H21G H 0.78380 0.12400 0.25120
H22G H 0.75090 0.08860 0.28410
O5J O 0.93744(17) 0.17346(16) 0.53967(17)
O6J O 0.88096(17) 0.12253(18) 0.50857(16)
O7J O 0.82038(16) 0.21636(16) 0.35694(18)
C17J C 0.9071(2) 0.1609(2) 0.5068(2)
C18J C 0.9019(2) 0.1938(2) 0.4628(3)
C19J C 0.8633(2) 0.1879(2) 0.4299(2)
H14J H 0.84040 0.16220 0.43460
C20J C 0.8582(2) 0.2181(2) 0.3918(2)
C21J C 0.8896(3) 0.2569(3) 0.3845(3)
H15J H 0.88580 0.27790 0.35720
C22J C 0.9268(3) 0.2643(3) 0.4183(3)
H16J H 0.94850 0.29100 0.41370
C23J C 0.9335(3) 0.2350(3) 0.4574(3)
H17J H 0.95830 0.24160 0.48070
C24J C 0.7793(3) 0.1848(3) 0.3699(3)
H18J H 0.76760 0.19250 0.40320
H19J H 0.78930 0.15010 0.36900
C25J C 0.7384(2) 0.1946(2) 0.3319(2)
C26J C 0.7072(2) 0.2335(2) 0.3389(2)
C27J C 0.7166(2) 0.2687(3) 0.3803(3)
H20J H 0.69140 0.29400 0.38040
H21J H 0.74880 0.28380 0.37600
H22J H 0.71590 0.25090 0.41140
Co1D Co 0.32966(3) 0.38243(3) 0.43363(3)
Co1H Co 0.43363(3) 0.32966(3) 0.38243(3)
O1D O 0.3072(11) 0.4425(12) 0.3287(8)
O1H O 0.3287(11) 0.3072(12) 0.4425(8)
O2D O 0.2752(6) 0.3797(7) 0.3734(8)
O2H O 0.3734(6) 0.2752(7) 0.3797(8)
Co1A Co 0.11757(3) 0.56637(3) -0.17034(3)
Co1B Co 0.61757(3) -0.06637(3) 0.17034(3)
Co1E Co 0.82966(3) 0.11757(3) 0.56637(3)
Co1F Co 0.17034(3) 0.61757(3) -0.06637(3)
Co1G Co 0.67034(3) -0.11757(3) 0.06637(3)
Co1G* Co 0.67034(3) 0.88243(3) 0.06637(3)
Co1I Co 0.56637(3) 0.82966(3) 0.11757(3)
Co1J Co 0.93363(3) 0.17034(3) 0.61757(3)
N1D N 0.27447(18) 0.38233(19) 0.48720(18)
N1H N 0.48720(18) 0.27447(19) 0.38233(18)
O5D O 0.32654(17) 0.46033(16) 0.43744(17)
O5H O 0.43744(17) 0.32654(16) 0.46033(17)
O6D O 0.37747(17) 0.49143(18) 0.38096(16)
O6H O 0.38096(17) 0.37747(18) 0.49143(16)
C1G C 0.9071(2) 0.9587(2) -0.0120(2)
C2G C 0.8694(3) 0.9482(3) 0.0266(3)
C28G C 0.95080(18) 0.93278(20) -0.0119(2)
C28C C 0.93278(18) 0.9881(2) -0.0492(2)
H1G H 0.86750 0.91340 0.03100
H2G H 0.83830 0.95890 0.01450
O3G O 0.8784(7) 0.9699(4) 0.0748(7)
C3G C 0.9597(3) 0.8947(3) 0.0265(4)
H3G H 0.99140 0.88050 0.02150
H4G H 0.95850 0.90970 0.05820
H5G H 0.93520 0.86970 0.02450
O1G O 0.6928(11) 0.9425(12) 0.1713(8)
C10G C 0.7263(5) 0.9200(7) 0.1488(7)
Co1B* Co 0.61757(3) 0.93363(3) 0.17034(3)
O2G O 0.7248(6) 0.8797(7) 0.1266(8)
C6G C 0.8457(8) 0.9740(5) 0.1129(8)
C4G C 0.7708(5) 0.9521(7) 0.1534(6)
C5G C 0.8028(6) 0.9469(5) 0.1144(9)
C9G C 0.7817(6) 0.9843(5) 0.1910(5)
H6G H 0.79520 0.92460 0.08840
C7G C 0.8566(7) 1.0062(8) 0.1506(5)
H7G H 0.88620 1.02490 0.14960
C8G C 0.8246(7) 1.0114(6) 0.1896(6)
H8G H 0.83210 1.03370 0.21560
H9G H 0.75960 0.98790 0.21800
N1G N 0.72553(18) 0.88233(19) 0.01280(18)
O4B O 0.6205(2) 0.8795(2) 0.1205(2)
O5G* O 0.67346(17) 0.96033(16) 0.06256(17)
O6I O 0.61904(17) 0.87747(18) 0.00857(16)
C11G C 0.7623(3) 0.8484(3) 0.0175(2)
C15G C 0.7283(3) 0.9157(3) -0.0234(3)
N2G N 0.87407(16) 0.84077(15) -0.08804(16)
C16G C 0.84157(19) 0.8786(2) -0.09160(19)
C16K C 0.90840(19) 0.84157(20) -0.12140(19)
H10G H 0.76260 0.82700 0.04480
C12G C 0.8003(2) 0.8452(2) -0.0183(2)
H11G H 0.82420 0.82020 -0.01680
C13G C 0.8010(2) 0.8800(2) -0.0550(2)
C14G C 0.7654(2) 0.9152(2) -0.0575(2)
H12G H 0.76620 0.93910 -0.08270
H13G H 0.70400 0.94030 -0.02540
N2C N 0.84077(16) 0.91196(15) -0.12593(16)
C17G* C 0.6609(2) 0.9932(2) 0.0929(2)
O6G* O 0.62253(17) 0.99143(18) 0.11904(16)
O7G* O 0.71636(16) 1.14306(16) 0.17962(18)
C20G* C 0.7181(2) 1.1082(2) 0.1418(2)
C24G* C 0.6848(3) 1.1301(3) 0.2207(3)
C18G* C 0.6938(2) 1.0372(2) 0.0981(3)
C19G* C 0.6879(2) 1.0701(2) 0.1367(2)
C23G* C 0.7350(3) 1.0426(3) 0.0665(3)
H14G* H 0.66220 1.06540 0.15960
C21G* C 0.7569(3) 1.1155(3) 0.1104(3)
H15G* H 0.77790 1.14280 0.11420
C22G* C 0.7643(3) 1.0817(3) 0.0732(3)
H16G* H 0.79100 1.08630 0.05150
H17G* H 0.74160 1.01930 0.04170
H18G* H 0.69250 1.09680 0.23240
H19G* H 0.65010 1.13100 0.21070
C25G* C 0.6946(2) 1.1681(2) 0.2616(2)
C26G* C 0.7335(2) 1.1611(2) 0.2928(2)
C26* C 0.6611(2) 1.2072(2) 0.2665(2)
C27G* C 0.7687(2) 1.1197(3) 0.2834(3)
C25J* C 0.7384(2) 1.1946(2) 0.3319(2)
H20G* H 0.79400 1.11960 0.30860
H21G* H 0.78380 1.12400 0.25120
H22G* H 0.75090 1.08860 0.28410
C1K C 0.9880(2) 0.9071(2) -0.0413(2)
C2K C 1.0266(3) 0.8694(3) -0.0518(3)
C28K C 0.98810(18) 0.9508(2) -0.06722(20)
H1K H 1.03100 0.86750 -0.08660
H2K H 1.01450 0.83830 -0.04110
O3K O 1.0748(7) 0.8784(4) -0.0301(7)
C3K C 1.0265(3) 0.9597(3) -0.1053(4)
H3K H 1.02150 0.99140 -0.11950
H4K H 1.05820 0.95850 -0.09030
H5K H 1.02450 0.93520 -0.13030
O1K O 1.1713(11) 0.6928(12) -0.0575(8)
C10K C 1.1488(5) 0.7263(7) -0.0800(7)
Co1F* Co 1.17034(3) 0.61757(3) -0.06637(3)
O2K O 1.1266(6) 0.7248(7) -0.1203(8)
Co1K Co 1.06637(3) 0.67034(3) -0.11757(3)
C6K C 1.1129(8) 0.8457(5) -0.0260(8)
C4K C 1.1534(5) 0.7708(7) -0.0479(6)
C5K C 1.1144(6) 0.8028(5) -0.0531(9)
C9K C 1.1910(6) 0.7817(5) -0.0157(5)
H6K H 1.08840 0.79520 -0.07540
C7K C 1.1506(7) 0.8566(8) 0.0062(5)
H7K H 1.14960 0.88620 0.02490
C8K C 1.1896(7) 0.8246(6) 0.0114(6)
H8K H 1.21560 0.83210 0.03370
H9K H 1.21800 0.75960 -0.01210
C1C C 0.9587(2) 0.9880(2) -0.0929(2)
C2C C 0.9482(3) 1.0266(3) -0.1306(3)
H1C H 0.91340 1.03100 -0.13250
H2C H 0.95890 1.01450 -0.16170
O3C O 0.9699(7) 1.0748(4) -0.1216(7)
C3C C 0.8947(3) 1.0265(3) -0.0403(4)
H3C H 0.88050 1.02150 -0.00860
H4C H 0.90970 1.05820 -0.04150
H5C H 0.86970 1.02450 -0.06480
O1C O 0.9425(11) 1.1713(12) -0.3072(8)
C10C C 0.9200(5) 1.1488(7) -0.2737(7)
Co1J* Co 0.93363(3) 1.17034(3) -0.38243(3)
O2C O 0.8797(6) 1.1266(7) -0.2752(8)
Co1C Co 0.88243(3) 1.06637(3) -0.32966(3)
C6C C 0.9740(8) 1.1129(5) -0.1543(8)
C4C C 0.9521(5) 1.1534(7) -0.2292(6)
C5C C 0.9469(6) 1.1144(5) -0.1972(9)
C9C C 0.9843(6) 1.1910(5) -0.2183(5)
H6C H 0.92460 1.08840 -0.20480
C7C C 1.0062(7) 1.1506(8) -0.1434(5)
H7C H 1.02490 1.14960 -0.11380
C8C C 1.0114(7) 1.1896(6) -0.1754(6)
H8C H 1.03370 1.21560 -0.16790
H9C H 0.98790 1.21800 -0.24040
N1K N 1.01280(18) 0.72553(19) -0.11767(18)
C11K C 1.0175(3) 0.7623(3) -0.1516(2)
C15K C 0.9766(3) 0.7283(3) -0.0843(3)
N2K N 0.91196(16) 0.87407(15) -0.15923(16)
C16C C 0.87860(19) 0.9084(2) -0.15843(19)
H10K H 1.04480 0.76260 -0.17300
C12K C 0.9817(2) 0.8003(2) -0.1548(2)
H11K H 0.98320 0.82420 -0.17980
C13K C 0.9450(2) 0.8010(2) -0.1200(2)
C14K C 0.9425(2) 0.7654(2) -0.0848(2)
H12K H 0.91730 0.76620 -0.06090
H13K H 0.97460 0.70400 -0.05970
N1C N 0.88233(18) 1.01280(19) -0.27447(18)
C11C C 0.8484(3) 1.0175(3) -0.2377(2)
C15C C 0.9157(3) 0.9766(3) -0.2717(3)
H10C H 0.82700 1.04480 -0.23740
C12C C 0.8452(2) 0.9817(2) -0.1997(2)
H11C H 0.82020 0.98320 -0.17580
C13C C 0.8800(2) 0.9450(2) -0.1990(2)
C14C C 0.9152(2) 0.9425(2) -0.2346(2)
H12C H 0.93910 0.91730 -0.23380
H13C H 0.94030 0.97460 -0.29600
O5J* O 0.93744(17) 1.17346(16) 0.53967(17)
C17J* C 0.9071(2) 1.1609(2) 0.5068(2)
Co1J** Co 0.93363(3) 1.17034(3) 0.61757(3)
O6J* O 0.88096(17) 1.12253(18) 0.50857(16)
Co1E* Co 0.82966(3) 1.11757(3) 0.56637(3)
O7J* O 0.82038(16) 1.21636(16) 0.35694(18)
C20J* C 0.8582(2) 1.2181(2) 0.3918(2)
C24J* C 0.7793(3) 1.1848(3) 0.3699(3)
C18J* C 0.9019(2) 1.1938(2) 0.4628(3)
C19J* C 0.8633(2) 1.1879(2) 0.4299(2)
C23J* C 0.9335(3) 1.2350(3) 0.4574(3)
H14J* H 0.84040 1.16220 0.43460
C21J* C 0.8896(3) 1.2569(3) 0.3845(3)
H15J* H 0.88580 1.27790 0.35720
C22J* C 0.9268(3) 1.2643(3) 0.4183(3)
H16J* H 0.94850 1.29100 0.41370
H17J* H 0.95830 1.24160 0.48070
H18J* H 0.76760 1.19250 0.40320
H19J* H 0.78930 1.15010 0.36900
C26J* C 0.7072(2) 1.2335(2) 0.3389(2)
C27J* C 0.7166(2) 1.2687(3) 0.3803(3)
C25* C 0.6681(2) 1.2384(2) 0.3054(2)
H20J* H 0.69140 1.29400 0.38040
H21J* H 0.74880 1.28380 0.37600
H22J* H 0.71590 1.25090 0.41140
O5* O 0.46033(17) 1.43744(16) 0.32654(17)
C17* C 0.4932(2) 1.4071(2) 0.3391(2)
Co1* Co 0.38243(3) 1.43363(3) 0.32966(3)
O6* O 0.49143(17) 1.38096(18) 0.37747(16)
Co1H* Co 0.43363(3) 1.32966(3) 0.38243(3)
O7* O 0.64306(16) 1.32038(16) 0.28364(18)
C20* C 0.6082(2) 1.3582(2) 0.2819(2)
C24* C 0.6301(3) 1.2793(3) 0.3152(3)
C18* C 0.5372(2) 1.4019(2) 0.3062(3)
C19* C 0.5701(2) 1.3633(2) 0.3121(2)
C23* C 0.5426(3) 1.4335(3) 0.2650(3)
H14* H 0.56540 1.34040 0.33780
C21* C 0.6155(3) 1.3896(3) 0.2431(3)
H15* H 0.64280 1.38580 0.22210
C22* C 0.5817(3) 1.4268(3) 0.2357(3)
H16* H 0.58630 1.44850 0.20900
H17* H 0.51930 1.45830 0.25840
H18* H 0.59680 1.26760 0.30750
H19* H 0.63100 1.28930 0.34990
C27* C 0.6197(2) 1.2166(3) 0.2313(3)
H20* H 0.61960 1.19140 0.20600
H21* H 0.62400 1.24880 0.21620
H22* H 0.58860 1.21590 0.24910
O1B O 0.5575(11) 0.8287(12) 0.1928(8)
O5I O 0.56256(17) 0.82654(16) 0.03967(17)
O6B O 0.50857(17) 0.88096(18) 0.12253(16)
O2B O 0.6203(6) 0.8734(7) 0.2248(8)
N1B N 0.61767(18) 0.98720(19) 0.22553(18)
O5B O 0.53967(17) 0.93744(16) 0.17346(17)
O8L O 0.5459(3) -0.0459(3) 1.0459(3)
#END
