
#######################################################################
#
#                 Cambridge Crystallographic Data Centre
#                                CCDC
#
#######################################################################
#
# If this CIF has been generated from an entry in the Cambridge
# Structural Database, then it will include bibliographic, chemical,
# crystal, experimental, refinement or atomic coordinate data resulting
# from the CCDC's data processing and validation procedures.
#
#######################################################################

data_CSD_CIF_ESEDIQ
_audit_creation_date 2011-07-22
_audit_creation_method CSD-ConQuest-V1
_database_code_CSD ESEDIQ
_database_code_depnum_ccdc_archive 'CCDC 797584'
_chemical_formula_sum 'C86 H70 N10 O22 Zn2'
_chemical_formula_moiety
;
(C38 H34 N10 4+)n,n(C48 H24 O16 Zn2 4-),6n(H2 O1)
;
_journal_coden_Cambridge 182
_journal_volume 47
_journal_year 2011
_journal_page_first 5973
_journal_name_full 'Chem.Commun. '
loop_
_publ_author_name
"Han-Yuan Gong"
"B.M.Rambo"
"Won Cho"
"V.M.Lynch"
"Moonhyun Oh"
"J.L.Sessler"
_chemical_name_systematic
;
catena-[(2)-(6,12,25,31,42,47-Hexaaza-3,15,22,34-tetraazonianonacyclo[34.2.2.2
^17,20^.1^3,6^.1^7,11^.1^12,15^.1^22,25^.1^26,30^.1^31,34^]octatetraconta-1(38
),3(48),4,7(47),8,10,13,15(46),17,19,22(43),23,26(42),27,29,32,34(41),36,39,44
-icosaene)-(tetrakis(\m~2~-2,6-naphthalenedicarboxylato)-di-zinc(ii))-rotaxane
 hexahydrate]
;
_cell_volume   3929.723
_exptl_crystal_colour 'colorless'
_exptl_crystal_density_diffrn 1.449
_exptl_crystal_description 'plate'
_diffrn_ambient_temperature 223
#These two values have been output from a single CSD field.
_refine_ls_R_factor_gt 0.0622
_refine_ls_wR_factor_gt 0.0622
_symmetry_cell_setting monoclinic
_symmetry_space_group_name_H-M 'P 21/c'
_symmetry_Int_Tables_number 14
loop_
_symmetry_equiv_pos_site_id
_symmetry_equiv_pos_as_xyz
1 x,y,z
2 -x,1/2+y,1/2-z
3 -x,-y,-z
4 x,-1/2-y,-1/2+z
_cell_length_a 10.195(2)
_cell_length_b 21.342(4)
_cell_length_c 18.533(4)
_cell_angle_alpha 90
_cell_angle_beta 102.96(3)
_cell_angle_gamma 90
_cell_formula_units_Z 2
loop_
_atom_type_symbol
_atom_type_radius_bond
C 0.68
H 0.23
N 0.68
O 0.68
Zn 1.22
loop_
_atom_site_label
_atom_site_type_symbol
_atom_site_fract_x
_atom_site_fract_y
_atom_site_fract_z
Zn1 Zn 0.34843(6) 0.65082(3) 0.78606(3)
O1 O 0.3568(5) 0.5290(3) 0.8837(3)
O2 O 0.4597(5) 0.4198(2) 0.9591(3)
O3 O 0.2387(4) 0.61577(18) 0.8498(2)
O4 O 0.0743(6) 0.4650(3) 0.5648(4)
O5 O 0.186(1) 0.4614(5) 0.7494(6)
O6 O 1.1306(4) 0.7304(2) 1.2948(2)
O7 O 0.0632(10) 0.8855(4) 0.8578(5)
O8 O 1.2300(4) 0.78911(19) 1.2222(2)
O9 O 0.2275(4) 0.5591(2) 0.6601(2)
O10 O 0.4247(4) 0.60080(17) 0.71744(19)
O11 O 0.6162(4) 0.72447(19) 0.7815(2)
O12 O 0.4987(4) 0.68466(19) 0.8594(2)
N1 N 0.8569(5) 0.6199(2) 0.7117(2)
N2 N 0.7194(4) 0.6418(2) 0.6079(2)
N3 N 0.6033(4) 0.6487(2) 0.4860(2)
N4 N 0.5046(5) 0.6510(2) 0.3604(2)
N5 N 0.4458(6) 0.6358(2) 0.2425(3)
C1 C 0.9054(6) 0.6081(3) 0.7921(3)
H1 H 0.87840 0.64220 0.82020
H2 H 1.00290 0.60550 0.80450
C2 C 0.7388(6) 0.6450(2) 0.6819(3)
H3 H 0.67900 0.66200 0.70780
C3 C 0.9156(6) 0.5996(3) 0.6557(3)
H4 H 0.99920 0.58040 0.66180
C4 C 0.8306(5) 0.6125(3) 0.5907(3)
H5 H 0.84350 0.60370 0.54360
C5 C 0.6042(6) 0.6639(3) 0.5554(3)
C6 C 0.5047(6) 0.6984(3) 0.5778(3)
H6 H 0.50930 0.70730 0.62740
C7 C 0.3982(6) 0.7189(3) 0.5224(4)
H7 H 0.32990 0.74270 0.53460
C8 C 0.3932(6) 0.7041(3) 0.4494(4)
H8 H 0.32210 0.71710 0.41160
C9 C 0.4985(6) 0.6690(3) 0.4347(3)
C10 C 0.4061(7) 0.6595(3) 0.3000(3)
H9 H 0.32380 0.67880 0.29860
C11 C 0.6105(6) 0.6204(3) 0.3403(3)
H10 H 0.69170 0.60870 0.37120
C12 C 0.5717(7) 0.6111(3) 0.2666(4)
H11 H 0.62210 0.59130 0.23720
C13 C 0.3568(7) 0.6264(3) 0.1675(3)
H12 H 0.41050 0.62400 0.13050
H13 H 0.29490 0.66140 0.15520
C14 C 0.2788(6) 0.5657(3) 0.1686(3)
C15 C 0.3265(6) 0.5100(3) 0.1458(3)
H14 H 0.39980 0.51020 0.12370
C16 C 0.2642(6) 0.4540(3) 0.1562(3)
H15 H 0.29670 0.41650 0.14140
C17 C 0.8455(6) 0.5468(3) 0.8116(3)
C18 C 0.8959(6) 0.4906(3) 0.7906(3)
H16 H 0.97110 0.49060 0.77000
C19 C 0.1662(6) 0.5647(3) 0.1992(3)
H17 H 0.13240 0.60210 0.21310
C20 C 0.2635(6) 0.5657(3) 0.8868(3)
C21 C 0.1006(6) 0.6000(3) 0.9635(3)
H18 H 0.12250 0.64130 0.95560
C22 C 0.1667(5) 0.5502(3) 0.9350(3)
C23 C 0.1348(5) 0.4897(3) 0.9468(3)
H19 H 0.18060 0.45740 0.92950
C24 C 0.0324(5) 0.4752(2) 0.9855(3)
C25 C 0.0048(6) 0.5871(3) 1.0025(3)
H20 H -0.03680 0.62000 1.02160
C26 C 1.1342(6) 0.7545(3) 1.2341(3)
C27 C 0.3505(6) 0.5681(3) 0.6667(3)
C28 C 0.3637(5) 0.5376(2) 0.5386(3)
H21 H 0.27690 0.55310 0.52200
C29 C 0.4228(5) 0.5390(2) 0.6127(3)
C30 C 0.5532(5) 0.5147(2) 0.6388(3)
H22 H 0.59260 0.51620 0.68920
C31 C 0.6232(6) 0.4885(2) 0.5905(3)
H23 H 0.70820 0.47140 0.60830
C32 C 0.4349(5) 0.5122(2) 0.4860(3)
C33 C 0.6024(5) 0.7097(2) 0.8442(3)
C34 C 0.7169(5) 0.7219(2) 0.9107(3)
C35 C 0.7058(5) 0.7028(2) 0.9799(3)
H24 H 0.62890 0.68160 0.98540
C36 C 0.8112(5) 0.7150(2) 1.0437(3)
C37 C 0.8037(5) 0.6956(3) 1.1154(3)
H25 H 0.72790 0.67400 1.12180
C38 C 0.9052(5) 0.7077(3) 1.1756(3)
H26 H 0.89830 0.69430 1.22240
C39 C 1.0216(5) 0.7409(2) 1.1667(3)
C40 C 1.0312(5) 0.7603(2) 1.0983(3)
H27 H 1.10730 0.78230 1.09310
C41 C 0.9271(5) 0.7478(2) 1.0339(3)
C42 C 0.9362(6) 0.7674(3) 0.9618(3)
H28 H 1.01190 0.78900 0.95530
C43 C 0.8337(6) 0.7544(3) 0.9021(3)
H29 H 0.84080 0.76710 0.85510
Zn1B Zn -0.34843(6) 0.34918(3) 1.21394(3)
Zn1C Zn 1.34843(6) 0.84918(3) 1.28606(3)
Zn1B* Zn 0.65157(6) 0.34918(3) 0.21394(3)
Zn1C* Zn -0.65157(6) 0.84918(3) 0.28606(3)
O1B O -0.3568(5) 0.4710(3) 1.1163(3)
O3B O -0.2387(4) 0.38423(18) 1.1502(2)
O6C O 0.1306(4) 0.7696(2) 0.7948(2)
O8C O 0.2300(4) 0.71089(19) 0.7222(2)
O8A O -0.2300(4) 0.28911(19) 1.2778(2)
O9B O 0.7725(4) 0.4409(2) 0.3399(2)
O10B O 0.5753(4) 0.39920(17) 0.28256(19)
O10B* O -0.4247(4) 0.39920(17) 1.28256(19)
O11C O -0.3838(4) 0.77553(19) 0.2815(2)
O12C O -0.5013(4) 0.81534(19) 0.3594(2)
O12B O -0.4987(4) 0.31534(19) 1.1406(2)
N1B N 0.1431(5) 0.3801(2) 0.2883(2)
N2B N 0.2806(4) 0.3582(2) 0.3921(2)
N3B N 0.3967(4) 0.3513(2) 0.5140(2)
N4B N 0.4954(5) 0.3490(2) 0.6396(2)
N5B N 0.5542(6) 0.3642(2) 0.7575(3)
C1B C 0.0946(6) 0.3919(3) 0.2079(3)
H1B H 0.12160 0.35780 0.17980
H2B H -0.00290 0.39450 0.19550
C2B C 0.2612(6) 0.3550(2) 0.3181(3)
H3B H 0.32100 0.33800 0.29220
C3B C 0.0844(6) 0.4004(3) 0.3443(3)
H4B H 0.00080 0.41960 0.33820
C4B C 0.1694(5) 0.3875(3) 0.4093(3)
H5B H 0.15650 0.39630 0.45640
C5B C 0.3958(6) 0.3361(3) 0.4446(3)
C6B C 0.4953(6) 0.3016(3) 0.4222(3)
H6B H 0.49070 0.29270 0.37260
C7B C 0.6018(6) 0.2811(3) 0.4776(4)
H7B H 0.67010 0.25730 0.46540
C8B C 0.6068(6) 0.2959(3) 0.5506(4)
H8B H 0.67790 0.28290 0.58840
C9B C 0.5015(6) 0.3310(3) 0.5653(3)
C10B C 0.5939(7) 0.3405(3) 0.7000(3)
H9B H 0.67620 0.32120 0.70140
C11B C 0.3895(6) 0.3796(3) 0.6597(3)
H10B H 0.30830 0.39130 0.62880
C12B C 0.4283(7) 0.3889(3) 0.7334(4)
H11B H 0.37790 0.40870 0.76280
C13B C 0.6432(7) 0.3736(3) 0.8325(3)
H12B H 0.58950 0.37600 0.86950
H13B H 0.70510 0.33860 0.84480
C14B C 0.7212(6) 0.4343(3) 0.8314(3)
C15B C 0.6735(6) 0.4900(3) 0.8542(3)
H14B H 0.60020 0.48980 0.87630
C16B C 0.7358(6) 0.5460(3) 0.8438(3)
H15B H 0.70330 0.58350 0.85860
C17B C 0.1545(6) 0.4532(3) 0.1884(3)
C18B C 0.1041(6) 0.5094(3) 0.2094(3)
H16B H 0.02890 0.50940 0.23000
C19B C 0.8338(6) 0.4353(3) 0.8008(3)
H17B H 0.86760 0.39790 0.78690
C20B C -0.2635(6) 0.4343(3) 1.1132(3)
C21B C -0.1006(6) 0.4000(3) 1.0365(3)
H18B H -0.12250 0.35870 1.04440
C22B C -0.1667(5) 0.4498(3) 1.0650(3)
C23B C -0.1348(5) 0.5103(3) 1.0532(3)
H19B H -0.18060 0.54260 1.07050
C24B C -0.0324(5) 0.5248(2) 1.0145(3)
C25B C -0.0048(6) 0.4129(3) 0.9975(3)
H20B H 0.03680 0.38000 0.97840
C26C C 0.1342(6) 0.7455(3) 0.7341(3)
C27B C 0.6495(6) 0.4319(3) 0.3333(3)
C28B C 0.6363(5) 0.4624(2) 0.4614(3)
H21B H 0.72310 0.44690 0.47800
C29B C 0.5772(5) 0.4610(2) 0.3873(3)
C30B C 0.4468(5) 0.4853(2) 0.3612(3)
H22B H 0.40740 0.48380 0.31080
C31B C 0.3768(6) 0.5115(2) 0.4095(3)
H23B H 0.29180 0.52860 0.39170
C32B C 0.5651(5) 0.4878(2) 0.5140(3)
C33C C -0.3976(5) 0.7903(2) 0.3442(3)
C34C C -0.2831(5) 0.7781(2) 0.4107(3)
C35C C -0.2942(5) 0.7972(2) 0.4799(3)
H24C H -0.37110 0.81840 0.48540
C36C C -0.1888(5) 0.7850(2) 0.5437(3)
C37C C -0.1963(5) 0.8044(3) 0.6154(3)
H25C H -0.27210 0.82600 0.62180
C38C C -0.0948(5) 0.7923(3) 0.6756(3)
H26C H -0.10170 0.80570 0.72240
C39C C 0.0216(5) 0.7591(2) 0.6667(3)
C40C C 0.0312(5) 0.7397(2) 0.5983(3)
H27C H 0.10730 0.71770 0.59310
C41C C -0.0729(5) 0.7522(2) 0.5339(3)
C42C C -0.0638(6) 0.7326(3) 0.4618(3)
H28C H 0.01190 0.71100 0.45530
C43C C -0.1663(6) 0.7456(3) 0.4021(3)
H29C H -0.15920 0.73290 0.35510
#END
