
#######################################################################
#
#                 Cambridge Crystallographic Data Centre
#                                CCDC
#
#######################################################################
#
# If this CIF has been generated from an entry in the Cambridge
# Structural Database, then it will include bibliographic, chemical,
# crystal, experimental, refinement or atomic coordinate data resulting
# from the CCDC's data processing and validation procedures.
#
#######################################################################

data_CSD_CIF_ESIGES
_audit_creation_date 2004-06-04
_audit_creation_method CSD-ConQuest-V1
_database_code_CSD ESIGES
_database_code_depnum_ccdc_archive 'CCDC 232616'
_chemical_formula_sum 'C21 H22 N2 O12 P2 Zn2'
_chemical_formula_moiety
;
(C13 H16 N2 2+)n,n(C8 H6 O12 P2 Zn2 2-)
;
_journal_coden_Cambridge 4
_journal_volume 126
_journal_year 2004
_journal_page_first 1320
_journal_name_full 'J.Am.Chem.Soc. '
loop_
_publ_author_name
"Yueh-Chun Liao"
"Fen-Ling Liao"
"Wei-Kuo Chang"
"Sue-Lein Wang"
_chemical_name_systematic
;
catena-(4,4'-Trimethylenedipyridinium 
bis(\m~3~-hydrogenphosphato)-(\m~2~-1,4-benzenedicarboxylato)-di-zinc)
;
_cell_volume   2505.893
_exptl_crystal_colour 'brown'
_exptl_crystal_density_diffrn 1.821
_exptl_special_details
;
blue photoluminescent

;
_exptl_crystal_description 'lamellar'
_diffrn_ambient_temperature 293
_diffrn_special_details
;
non-merohedrally twinned crystal with twin component contributions of 0.33

;
#These two values have been output from a single CSD field.
_refine_ls_R_factor_gt 0.0766
_refine_ls_wR_factor_gt 0.0766
_symmetry_cell_setting monoclinic
_symmetry_space_group_name_H-M 'P 21/c'
_symmetry_Int_Tables_number 14
loop_
_symmetry_equiv_pos_site_id
_symmetry_equiv_pos_as_xyz
1 x,y,z
2 x,1/2-y,1/2+z
3 -x,-y,-z
4 -x,-1/2+y,-1/2-z
_cell_length_a 27.581(4)
_cell_length_b 9.1114(15)
_cell_length_c 9.9791(16)
_cell_angle_alpha 90
_cell_angle_beta 92.213(3)
_cell_angle_gamma 90
_cell_formula_units_Z 4
loop_
_atom_type_symbol
_atom_type_radius_bond
C 0.68
H 0.23
N 0.68
O 0.68
P 1.05
Zn 1.45
loop_
_atom_site_label
_atom_site_type_symbol
_atom_site_fract_x
_atom_site_fract_y
_atom_site_fract_z
Zn1 Zn -0.049483(17) 1.17781(5) -0.59622(5)
Zn2 Zn -0.451597(18) 1.17815(6) -0.58807(5)
P1 P -0.02656(4) 1.08033(12) -0.30462(11)
P2 P -0.47661(4) 1.07746(14) -0.30108(12)
O1 O -0.03257(12) 1.2031(3) -0.4062(3)
O2 O -0.02173(11) 1.1431(3) -0.1613(3)
O3 O 0.01629(12) 0.9848(4) -0.3285(4)
O4 O -0.07366(13) 0.9809(4) -0.3126(4)
O5 O -0.46721(12) 1.1974(3) -0.4024(3)
O6 O -0.52421(12) 0.9981(4) -0.3266(4)
O7 O -0.47678(12) 1.1379(4) -0.1591(3)
O8 O -0.43518(13) 0.9596(4) -0.3111(4)
O9 O -0.11830(11) 1.1325(4) -0.6196(4)
O10 O -0.38192(12) 1.1657(4) -0.6160(4)
O11 O -0.14311(14) 1.3054(5) -0.7639(5)
O12 O -0.35651(13) 1.0408(5) -0.4341(5)
N1 N 0.42831(18) 1.4100(8) -0.5628(6)
N2 N 0.06760(14) 1.3818(5) -0.5432(5)
C1 C -0.15033(17) 1.2044(6) -0.6842(5)
C2 C -0.20194(15) 1.1645(5) -0.6534(5)
C3 C -0.23998(17) 1.2320(7) -0.7279(6)
C4 C -0.28757(17) 1.2088(6) -0.6947(6)
C5 C -0.29798(16) 1.1191(6) -0.5859(5)
C6 C -0.26042(18) 1.0456(6) -0.5178(6)
C7 C -0.21258(18) 1.0700(6) -0.5502(5)
C8 C -0.34958(17) 1.1056(6) -0.5402(6)
C9 C 0.4230(2) 1.2996(10) -0.4822(9)
C10 C 0.3804(2) 1.2823(8) -0.4172(6)
C11 C 0.34340(18) 1.3815(6) -0.4348(6)
C12 C 0.3507(2) 1.4971(7) -0.5210(7)
C13 C 0.3936(3) 1.5094(9) -0.5851(8)
C14 C 0.29774(18) 1.3663(8) -0.3567(7)
C15 C 0.2509(2) 1.3809(7) -0.4395(7)
C16 C 0.20729(19) 1.3599(8) -0.3503(7)
C17 C 0.08013(18) 1.2646(6) -0.4689(6)
C18 C 0.12536(17) 1.2562(6) -0.4101(7)
C19 C 0.15832(16) 1.3668(6) -0.4238(5)
C20 C 0.14504(18) 1.4882(6) -0.5039(6)
C21 C 0.09841(19) 1.4938(6) -0.5622(6)
H1 H 0.45750 1.41730 -0.60220
H2 H 0.03720 1.39210 -0.58910
H3 H -0.23380 1.31040 -0.81540
H4 H -0.32890 1.25760 -0.72000
H5 H -0.09870 1.03490 -0.29880
H6 H -0.26970 0.98360 -0.43760
H7 H -0.17940 1.02400 -0.48260
H8 H -0.41130 0.99760 -0.35280
H9 H 0.45120 1.26570 -0.48220
H10 H 0.37610 1.19760 -0.35880
H11 H 0.32740 1.59070 -0.50760
H12 H 0.39550 1.59880 -0.62690
H13 H 0.29920 1.28550 -0.31370
H14 H 0.29810 1.44640 -0.28940
H15 H 0.24130 1.48040 -0.48870
H16 H 0.25020 1.30110 -0.50560
H17 H 0.21000 1.28110 -0.31480
H18 H 0.20870 1.43710 -0.27990
H19 H 0.05820 1.18390 -0.45560
H20 H 0.13620 1.18150 -0.37610
H21 H 0.16830 1.56650 -0.51820
H22 H 0.08700 1.56610 -0.61140
O2A O -0.02173(11) 1.3569(3) -0.6613(3)
O3B O -0.01629(12) 1.0152(4) -0.6715(4)
O6B O -0.47579(12) 1.0019(4) -0.6734(4)
O7A O -0.47678(12) 1.3621(4) -0.6591(3)
Zn1A Zn -0.049483(17) 1.32219(5) -0.09622(5)
Zn1B Zn 0.049483(17) 0.82219(5) -0.40378(5)
Zn2B Zn -0.548403(18) 0.82185(6) -0.41193(5)
Zn2A Zn -0.451597(18) 1.32185(6) -0.08807(5)
#END
