
#######################################################################
#
#                 Cambridge Crystallographic Data Centre
#                                CCDC
#
#######################################################################
#
# If this CIF has been generated from an entry in the Cambridge
# Structural Database, then it will include bibliographic, chemical,
# crystal, experimental, refinement or atomic coordinate data resulting
# from the CCDC's data processing and validation procedures.
#
#######################################################################

data_CSD_CIF_ESIGES02
_audit_creation_date 2011-09-07
_audit_creation_method CSD-ConQuest-V1
_database_code_CSD ESIGES02
_database_code_depnum_ccdc_archive 'CCDC 823953'
_chemical_formula_sum 'C21 H22 N2 O12 P2 Zn2'
_chemical_formula_moiety
;
(C8 H6 O12 P2 Zn2 2-)n,n(C13 H16 N2 2+)
;
_journal_coden_Cambridge 1048
_journal_volume 13
_journal_year 2011
_journal_page_first 2000
_journal_name_full 'Green Chemistry '
loop_
_publ_author_name
"Yu-Ting Huang"
"Yu-Lun Lai"
"Chia-Her Lin"
"Sue-Lein Wang"
_chemical_name_systematic
;
catena-(4,4'-Trimethylenedipyridinium bis(\m~3~-hydrogen 
phosphato)-(\m~2~-1,4-benzenedicarboxylato)-di-zinc)
;
_cell_volume   2515.726
_exptl_crystal_colour 'brown'
_exptl_crystal_density_diffrn 1.814
_exptl_crystal_description 'block'
_diffrn_ambient_temperature 295
#These two values have been output from a single CSD field.
_refine_ls_R_factor_gt 0.0513
_refine_ls_wR_factor_gt 0.0513
_symmetry_cell_setting monoclinic
_symmetry_space_group_name_H-M 'P 21/c'
_symmetry_Int_Tables_number 14
loop_
_symmetry_equiv_pos_site_id
_symmetry_equiv_pos_as_xyz
1 x,y,z
2 -x,1/2+y,1/2-z
3 -x,-y,-z
4 x,-1/2-y,-1/2+z
_cell_length_a 27.6213(12)
_cell_length_b 9.1189(4)
_cell_length_c 9.9954(5)
_cell_angle_alpha 90
_cell_angle_beta 92.211(1)
_cell_angle_gamma 90
_cell_formula_units_Z 4
loop_
_atom_type_symbol
_atom_type_radius_bond
C 0.68
H 0.23
N 0.68
O 0.68
P 1.05
Zn 1.22
loop_
_atom_site_label
_atom_site_type_symbol
_atom_site_fract_x
_atom_site_fract_y
_atom_site_fract_z
Zn1 Zn 0.049544(16) 0.32200(5) 0.09595(5)
Zn2 Zn 0.451647(17) 0.32169(6) 0.08788(5)
P1 P 0.02663(4) 0.41946(12) -0.19539(11)
P2 P 0.47664(4) 0.42296(14) -0.19868(11)
O1 O 0.03338(12) 0.2971(3) -0.0949(3)
O2 O 0.02171(11) 0.3572(4) -0.3379(3)
O3 O -0.01638(12) 0.5148(4) -0.1718(3)
O4 O 0.07394(13) 0.5189(4) -0.1868(4)
O5 O 0.46738(12) 0.3029(4) -0.0988(3)
O6 O 0.52475(12) 0.5010(4) -0.1737(4)
O7 O 0.43551(13) 0.5414(4) -0.1887(4)
O8 O 0.47657(12) 0.3626(4) -0.3407(3)
O9 O 0.11821(11) 0.3668(4) 0.1196(4)
O10 O 0.14355(13) 0.1944(5) 0.2643(4)
O11 O 0.35655(14) 0.4599(6) -0.0658(5)
O12 O 0.38197(12) 0.3340(4) 0.1155(4)
C1 C 0.20219(16) 0.3348(6) 0.1545(5)
C2 C 0.24007(18) 0.2662(7) 0.2268(6)
C3 C 0.21277(17) 0.4294(6) 0.0513(5)
C4 C 0.28789(17) 0.2906(7) 0.1932(6)
C5 C 0.26060(17) 0.4527(6) 0.0181(5)
C6 C 0.29827(15) 0.3807(6) 0.0869(5)
C7 C 0.34974(17) 0.3944(6) 0.0394(5)
C8 C 0.08036(18) 0.7356(6) 0.5313(6)
C9 C 0.12569(18) 0.7445(6) 0.5912(6)
C10 C 0.15859(16) 0.6329(6) 0.5754(5)
C11 C 0.0987(2) 0.5058(6) 0.4385(6)
C12 C 0.14487(19) 0.5141(6) 0.4963(6)
C13 C 0.20727(19) 0.6385(8) 0.6490(6)
C14 C 0.25075(18) 0.6183(7) 0.5602(6)
C15 C 0.29784(18) 0.6339(8) 0.6418(6)
C16 C 0.34330(17) 0.6186(6) 0.5645(5)
C17 C 0.3810(2) 0.7174(8) 0.5845(7)
C18 C 0.3504(2) 0.5027(7) 0.4778(7)
C19 C 0.4226(2) 0.7011(11) 0.5188(7)
C20 C 0.3933(3) 0.4872(9) 0.4130(8)
C21 C 0.15037(16) 0.2953(6) 0.1840(5)
N1 N 0.06783(14) 0.6173(5) 0.4566(4)
N2 N 0.42837(18) 0.5892(8) 0.4371(6)
H1 H 0.08040 0.42110 0.38440
H2 H 0.26880 0.52190 -0.06260
H3 H 0.16790 0.43860 0.48240
H4 H 0.05640 0.81220 0.51990
H5 H 0.32850 0.42930 0.48040
H6 H 0.18950 0.48960 0.00420
H7 H 0.24840 0.53250 0.49100
H8 H 0.23360 0.21170 0.29890
H9 H 0.21160 0.74420 0.69380
H10 H 0.31480 0.23320 0.24050
H11 H 0.36950 0.82580 0.58350
H12 H 0.29990 0.71400 0.69840
H13 H 0.45690 0.72450 0.52050
H14 H 0.21210 0.57240 0.72290
H15 H 0.30040 0.54860 0.72100
H16 H 0.12940 0.82830 0.64920
H17 H 0.25210 0.70880 0.49430
H18 H 0.03890 0.61520 0.41480
H19 H 0.45410 0.57960 0.36940
H20 H 0.09900 0.45090 -0.17610
H21 H 0.42030 0.53130 -0.12260
Zn1C Zn 0.049544(16) 0.17800(5) -0.40405(5)
Zn1B Zn -0.049544(16) 0.67800(5) -0.09595(5)
Zn2B Zn 0.548353(17) 0.67831(6) -0.08788(5)
Zn2C Zn 0.451647(17) 0.17831(6) -0.41212(5)
O2C O 0.02171(11) 0.1428(4) 0.1621(3)
O3B O 0.01638(12) 0.4852(4) 0.1718(3)
O6B O 0.47525(12) 0.4990(4) 0.1737(4)
O8C O 0.47657(12) 0.1374(4) 0.1593(3)
#END
