
#######################################################################
#
#                 Cambridge Crystallographic Data Centre
#                                CCDC
#
#######################################################################
#
# If this CIF has been generated from an entry in the Cambridge
# Structural Database, then it will include bibliographic, chemical,
# crystal, experimental, refinement or atomic coordinate data resulting
# from the CCDC's data processing and validation procedures.
#
#######################################################################

data_CSD_CIF_ESIGES01
_audit_creation_date 2011-09-07
_audit_creation_method CSD-ConQuest-V1
_database_code_CSD ESIGES01
_database_code_depnum_ccdc_archive 'CCDC 804562'
_chemical_formula_sum 'C21 H22 N2 O12 P2 Zn2'
_chemical_formula_moiety
;
(C8 H6 O12 P2 Zn2 2-)n,n(C13 H16 N2 2+)
;
_journal_coden_Cambridge 1048
_journal_volume 13
_journal_year 2011
_journal_page_first 2000
_journal_name_full 'Green Chemistry '
loop_
_publ_author_name
"Yu-Ting Huang"
"Yu-Lun Lai"
"Chia-Her Lin"
"Sue-Lein Wang"
_chemical_name_systematic
;
catena-(4,4'-Trimethylenedipyridinium bis(\m~3~-hydrogen 
phosphato)-(\m~2~-1,4-benzenedicarboxylato)-di-zinc)
;
_cell_volume   2521.571
_exptl_crystal_colour 'colorless'
_exptl_crystal_density_diffrn 1.81
_exptl_crystal_description 'lamellar'
_diffrn_ambient_temperature 295
#These two values have been output from a single CSD field.
_refine_ls_R_factor_gt 0.0537
_refine_ls_wR_factor_gt 0.0537
_symmetry_cell_setting orthorhombic
_symmetry_space_group_name_H-M 'P n a 21'
_symmetry_Int_Tables_number 33
loop_
_symmetry_equiv_pos_site_id
_symmetry_equiv_pos_as_xyz
1 x,y,z
2 -x,-y,1/2+z
3 1/2+x,1/2-y,z
4 1/2-x,1/2+y,1/2+z
_cell_length_a 9.9740(5)
_cell_length_b 9.1804(5)
_cell_length_c 27.5385(17)
_cell_angle_alpha 90
_cell_angle_beta 90
_cell_angle_gamma 90
_cell_formula_units_Z 4
loop_
_atom_type_symbol
_atom_type_radius_bond
C 0.68
H 0.23
N 0.68
O 0.68
P 1.05
Zn 1.22
loop_
_atom_site_label
_atom_site_type_symbol
_atom_site_fract_x
_atom_site_fract_y
_atom_site_fract_z
Zn1 Zn 0.62128(7) 0.32750(7) 0.05796(2)
Zn2 Zn 0.43416(7) 0.67979(7) -0.03946(2)
P1 P 0.72228(16) 0.57882(18) -0.01527(6)
P2 P 0.32699(15) 0.41845(19) 0.03494(6)
O1 O 0.6216(4) 0.6998(4) -0.02519(16)
O2 O 0.6992(4) 0.5025(4) 0.03279(15)
O3 O 0.8648(4) 0.6338(5) -0.01594(16)
O4 O 0.7069(4) 0.4594(5) -0.05581(16)
H1 H 0.66470 0.49330 -0.07880
O5 O 0.4383(4) 0.3056(4) 0.04014(19)
O6 O 0.1914(4) 0.3513(4) 0.02861(15)
O7 O 0.3496(5) 0.5213(5) -0.00686(18)
O8 O 0.3247(5) 0.5130(5) 0.08314(17)
H2 H 0.31260 0.45950 0.10660
O9 O 0.6323(5) 0.3605(5) 0.12794(17)
O10 O 0.6059(5) 0.3450(6) 0.39213(18)
O11 O 0.7798(6) 0.1966(6) 0.1526(2)
O12 O 0.4238(6) 0.4585(6) 0.36508(18)
N1 N 0.5250(6) 0.1131(7) -0.4226(2)
H3 H 0.55800 0.10710 -0.45140
N2 N 0.5725(8) 0.1047(10) -0.0614(3)
H4 H 0.61280 0.10070 -0.03380
C1 C 0.6955(7) 0.2953(8) 0.1601(2)
C2 C 0.6632(7) 0.3349(8) 0.2121(2)
C3 C 0.7297(8) 0.2706(8) 0.2501(3)
H5 H 0.80040 0.20760 0.24350
C4 C 0.6947(8) 0.2966(8) 0.2974(3)
H6 H 0.74450 0.25580 0.32260
C5 C 0.5859(7) 0.3834(8) 0.3077(2)
C6 C 0.5184(7) 0.4519(8) 0.2698(2)
H7 H 0.44700 0.51390 0.27650
C7 C 0.5576(6) 0.4279(8) 0.2227(2)
H8 H 0.51260 0.47460 0.19750
C8 C 0.5339(7) 0.3989(8) 0.3589(2)
C9 C 0.5448(8) 0.0018(9) -0.3914(3)
H9 H 0.59510 -0.07880 -0.40080
C10 C 0.4916(7) 0.0082(8) -0.3468(3)
H10 H 0.50530 -0.06820 -0.32520
C11 C 0.4138(7) 0.1315(9) -0.3322(3)
C12 C 0.4008(7) 0.2407(9) -0.3655(3)
H11 H 0.35280 0.32410 -0.35740
C13 C 0.4576(8) 0.2292(8) -0.4107(3)
H12 H 0.44790 0.30470 -0.43290
C14 C 0.3467(9) 0.1347(10) -0.2835(3)
H13 H 0.28040 0.05760 -0.28240
H14 H 0.29960 0.22660 -0.28010
C15 C 0.4399(8) 0.1172(8) -0.2408(3)
H15 H 0.50750 0.19310 -0.24150
H16 H 0.48500 0.02380 -0.24280
C16 C 0.3607(9) 0.1262(9) -0.1930(3)
H17 H 0.31070 0.21690 -0.19300
H18 H 0.29590 0.04750 -0.19270
C17 C 0.4389(8) 0.1191(8) -0.1474(3)
C18 C 0.5262(9) 0.0035(10) -0.1366(3)
H19 H 0.53830 -0.07040 -0.15930
C19 C 0.5939(9) -0.0028(11) -0.0936(4)
H20 H 0.65270 -0.07880 -0.08680
C20 C 0.4931(11) 0.2150(14) -0.0700(4)
H21 H 0.48360 0.28880 -0.04710
C21 C 0.4248(9) 0.2215(11) -0.1125(3)
H22 H 0.36640 0.29880 -0.11790
Zn1B Zn 0.12128(7) 0.17250(7) 0.05796(2)
Zn2A Zn 0.56584(7) 0.32021(7) 0.46054(2)
Zn2B Zn 0.93416(7) 0.82021(7) -0.03946(2)
O3B O 0.3648(4) 0.8662(5) -0.01594(16)
O6B O 0.6914(4) 0.1487(4) 0.02861(15)
O10A O 0.3941(5) 0.6550(6) -0.10787(18)
#END
