
#######################################################################
#
#                 Cambridge Crystallographic Data Centre
#                                CCDC
#
#######################################################################
#
# If this CIF has been generated from an entry in the Cambridge
# Structural Database, then it will include bibliographic, chemical,
# crystal, experimental, refinement or atomic coordinate data resulting
# from the CCDC's data processing and validation procedures.
#
#######################################################################

data_CSD_CIF_ESIPON
_audit_creation_date 2016-08-04
_audit_creation_method CSD-ConQuest-V1
_database_code_CSD ESIPON
_database_code_depnum_ccdc_archive 'CCDC 1485054'
_chemical_formula_sum 'C32 H46 Fe2 Na2 O9 S8'
_chemical_formula_moiety
;
C24 H16 Fe2 S8 2-,n(C8 H28 Na2 O8 2+),H2 O1
;
_journal_coden_Cambridge 1147
_journal_volume 16
_journal_year 2016
_journal_page_first 5466
_journal_name_full 'Cryst.Growth Des. '
loop_
_publ_author_name
"O.Castillo"
"E.Delgado"
"D.Hernandez"
"E.Hernandez"
"A.Martin"
"I.Martin"
"F.Zamora"
_chemical_name_systematic
;
catena-[tetrakis(\m-aqua)-diaqua-bis(tetrahydrofuran)-di-sodium 
tetrakis(\m-benzene-1,2-dithiolato)-di-iron monohydrate]
;
_cell_volume   2091.238
_exptl_crystal_colour 'dark purple'
_exptl_crystal_density_diffrn 1.57
_exptl_crystal_description 'prismatic'
_diffrn_ambient_temperature 110
#These two values have been output from a single CSD field.
_refine_ls_R_factor_gt 0.0278
_refine_ls_wR_factor_gt 0.0278
_symmetry_cell_setting triclinic
_symmetry_space_group_name_H-M 'P -1'
_symmetry_Int_Tables_number 2
loop_
_symmetry_equiv_pos_site_id
_symmetry_equiv_pos_as_xyz
1 x,y,z
2 -x,-y,-z
_cell_length_a 10.9902(5)
_cell_length_b 13.5451(6)
_cell_length_c 14.4191(6)
_cell_angle_alpha 88.739(2)
_cell_angle_beta 77.110(2)
_cell_angle_gamma 88.337(2)
_cell_formula_units_Z 2
loop_
_atom_type_symbol
_atom_type_radius_bond
C 0.68
H 0.23
Fe 1.52
Na 1.66
O 0.68
S 1.02
loop_
_atom_site_label
_atom_site_type_symbol
_atom_site_fract_x
_atom_site_fract_y
_atom_site_fract_z
C1 C 0.3430(2) 0.75525(16) 0.90296(15)
C2 C 0.2648(2) 0.83728(17) 0.92966(15)
H1 H 0.19480 0.83210 0.98160
C3 C 0.2886(2) 0.92647(17) 0.88086(16)
H2 H 0.23550 0.98240 0.90000
C4 C 0.3899(2) 0.93422(17) 0.80407(16)
H3 H 0.40430 0.99470 0.76930
C5 C 0.4695(2) 0.85399(16) 0.77827(15)
H4 H 0.53950 0.85970 0.72630
C6 C 0.4479(2) 0.76436(16) 0.82820(15)
C7 C 0.4515(2) 0.31073(16) 0.93665(15)
C8 C 0.4142(2) 0.21916(17) 0.97772(16)
H5 H 0.34980 0.21580 1.03390
C9 C 0.4708(2) 0.13338(17) 0.93677(18)
H6 H 0.44470 0.07090 0.96400
C10 C 0.5472(2) 0.31671(16) 0.85516(15)
C11 C 0.6045(2) 0.22984(17) 0.81540(16)
H7 H 0.67050 0.23280 0.76030
C12 C 0.5661(2) 0.13922(18) 0.85562(18)
H8 H 0.60530 0.08040 0.82740
Fe1 Fe 0.48134(3) 0.54447(2) 0.90520(2)
S1 S 0.31083(5) 0.63863(4) 0.95906(4)
S2 S 0.55016(5) 0.66211(4) 0.79889(4)
S3 S 0.59499(5) 0.43387(4) 0.80700(4)
S4 S 0.37975(5) 0.42055(4) 0.98929(4)
C13 C 0.8538(2) 0.83417(16) 0.28943(15)
C14 C 0.7905(2) 0.81668(17) 0.21733(16)
H9 H 0.70360 0.83180 0.22730
C15 C 0.8535(2) 0.77766(18) 0.13211(17)
H10 H 0.80990 0.76570 0.08360
C16 C 0.9807(2) 0.75566(18) 0.11680(17)
H11 H 1.02380 0.72860 0.05800
C17 C 1.0446(2) 0.77316(17) 0.18698(15)
H12 H 1.13170 0.75870 0.17590
C18 C 0.9818(2) 0.81192(16) 0.27402(15)
C19 C 0.9785(2) 0.92181(16) 0.68698(15)
C20 C 1.0408(2) 0.93224(17) 0.76056(16)
H13 H 1.12950 0.93220 0.74740
C21 C 0.9723(2) 0.94257(18) 0.85266(16)
H14 H 1.01390 0.95210 0.90280
C22 C 0.8431(2) 0.93906(18) 0.87241(16)
H15 H 0.79660 0.94510 0.93610
C23 C 0.7816(2) 0.92680(16) 0.79981(16)
H16 H 0.69320 0.92260 0.81400
C24 C 0.8487(2) 0.92056(15) 0.70572(15)
Fe2 Fe 0.92108(3) 0.91227(2) 0.47861(2)
S5 S 0.77391(5) 0.87927(4) 0.40053(4)
S6 S 1.06122(5) 0.83235(4) 0.36569(4)
S7 S 1.06357(5) 0.91152(4) 0.56764(4)
S8 S 0.77195(5) 0.91640(4) 0.61064(4)
C25 C 0.3829(2) 0.76543(17) 0.57646(16)
H17 H 0.41960 0.74960 0.63190
H18 H 0.29080 0.76310 0.59690
C26 C 0.4226(2) 0.86598(17) 0.53519(17)
H19 H 0.50860 0.87990 0.54080
H20 H 0.36500 0.91880 0.56690
C27 C 0.4154(2) 0.85652(18) 0.43157(18)
H21 H 0.32920 0.86950 0.42330
H22 H 0.47250 0.90250 0.39000
C28 C 0.4556(3) 0.75071(18) 0.41055(17)
H23 H 0.40910 0.72300 0.36610
H24 H 0.54600 0.74630 0.38100
C29 C 1.0419(2) 0.48325(19) 0.16046(16)
H25 H 1.12880 0.50300 0.15730
H26 H 0.98990 0.54330 0.15560
C30 C 1.0368(2) 0.41204(18) 0.08225(17)
H27 H 1.10330 0.42510 0.02490
H28 H 0.95470 0.41640 0.06470
C31 C 1.0571(3) 0.3122(2) 0.12659(19)
H29 H 0.99360 0.26530 0.11720
H30 H 1.14100 0.28440 0.09770
C32 C 1.0453(3) 0.3303(2) 0.23051(19)
H31 H 0.98970 0.28150 0.26950
H32 H 1.12810 0.32480 0.24680
Na1 Na 0.61507(8) 0.58744(6) 0.48814(6)
Na2 Na 0.94483(8) 0.50820(6) 0.39663(6)
O1 O 0.42917(14) 0.69654(11) 0.50029(10)
O2 O 0.99325(15) 0.42902(11) 0.24752(10)
O3 O 0.75387(15) 0.44488(12) 0.49714(12)
O4 O 0.78477(17) 0.60869(14) 0.34702(13)
O5 O 0.52259(16) 0.49498(13) 0.38295(11)
O6 O 0.70654(16) 0.68327(13) 0.58443(12)
O7 O 1.13812(16) 0.59584(13) 0.34561(12)
O8 O 1.04981(16) 0.38370(12) 0.47228(12)
H33 H 0.672(2) 0.6775(19) 0.6403(19)
H34 H 0.717(2) 0.737(2) 0.5795(18)
H35 H 1.126(2) 0.653(2) 0.3518(18)
H36 H 1.194(2) 0.5845(19) 0.3026(18)
H37 H 0.776(2) 0.4343(19) 0.5448(18)
H38 H 0.709(2) 0.404(2) 0.4938(18)
H39 H 0.796(2) 0.659(2) 0.3304(18)
H40 H 0.768(2) 0.575(2) 0.3053(18)
H41 H 0.489(2) 0.5197(19) 0.3453(18)
H42 H 0.575(3) 0.465(2) 0.3528(18)
H43 H 1.119(3) 0.3669(19) 0.4495(18)
H44 H 1.017(2) 0.336(2) 0.4913(18)
O9 O 0.73817(18) 0.43906(16) 0.25022(13)
H45 H 0.806(3) 0.427(2) 0.2507(18)
H46 H 0.721(2) 0.4223(19) 0.2008(19)
C1A C 0.6570(2) 0.24475(16) 1.09704(15)
C2A C 0.7352(2) 0.16272(17) 1.07034(15)
H1A H 0.80520 0.16790 1.01840
C3A C 0.7114(2) 0.07353(17) 1.11914(16)
H2A H 0.76450 0.01760 1.10000
C4A C 0.6101(2) 0.06578(17) 1.19593(16)
H3A H 0.59570 0.00530 1.23070
C5A C 0.5305(2) 0.14601(16) 1.22173(15)
H4A H 0.46050 0.14030 1.27370
C6A C 0.5521(2) 0.23564(16) 1.17180(15)
C7A C 0.5485(2) 0.68927(16) 1.06335(15)
C8A C 0.5858(2) 0.78084(17) 1.02228(16)
H5A H 0.65020 0.78420 0.96610
C9A C 0.5292(2) 0.86662(17) 1.06323(18)
H6A H 0.55530 0.92910 1.03600
C10A C 0.4528(2) 0.68329(16) 1.14484(15)
C11A C 0.3955(2) 0.77016(17) 1.18460(16)
H7A H 0.32950 0.76720 1.23970
C12A C 0.4339(2) 0.86078(18) 1.14438(18)
H8A H 0.39470 0.91960 1.17260
Fe1A Fe 0.51866(3) 0.45553(2) 1.09480(2)
S1A S 0.68917(5) 0.36137(4) 1.04094(4)
S2A S 0.44984(5) 0.33789(4) 1.20111(4)
S3A S 0.40501(5) 0.56613(4) 1.19300(4)
S4A S 0.62025(5) 0.57945(4) 1.01071(4)
C13A C 1.1462(2) 1.16583(16) 0.71057(15)
C14A C 1.2095(2) 1.18332(17) 0.78267(16)
H9A H 1.29640 1.16820 0.77270
C15A C 1.1465(2) 1.22234(18) 0.86789(17)
H10A H 1.19010 1.23430 0.91640
C16A C 1.0193(2) 1.24434(18) 0.88320(17)
H11A H 0.97620 1.27140 0.94200
C17A C 0.9554(2) 1.22684(17) 0.81302(15)
H12A H 0.86830 1.24130 0.82410
C18A C 1.0182(2) 1.18808(16) 0.72598(15)
C19A C 1.0215(2) 1.07819(16) 0.31302(15)
C20A C 0.9592(2) 1.06776(17) 0.23944(16)
H13A H 0.87050 1.06780 0.25260
C21A C 1.0277(2) 1.05743(18) 0.14734(16)
H14A H 0.98610 1.04790 0.09720
C22A C 1.1569(2) 1.06094(18) 0.12759(16)
H15A H 1.20340 1.05490 0.06390
C23A C 1.2184(2) 1.07320(16) 0.20019(16)
H16A H 1.30680 1.07740 0.18600
C24A C 1.1513(2) 1.07944(15) 0.29428(15)
Fe2A Fe 1.07892(3) 1.08773(2) 0.52139(2)
S5A S 1.22609(5) 1.12073(4) 0.59947(4)
S6A S 0.93878(5) 1.16765(4) 0.63431(4)
S7A S 0.93643(5) 1.08848(4) 0.43236(4)
S8A S 1.22805(5) 1.08360(4) 0.38936(4)
Na1A Na 0.38493(8) 0.41256(6) 0.51186(6)
Na2A Na 1.05517(8) 0.49180(6) 0.60337(6)
O5A O 0.47741(16) 0.50502(13) 0.61705(11)
O8A O 0.95019(16) 0.61630(12) 0.52772(12)
#END
