
#######################################################################
#
#                 Cambridge Crystallographic Data Centre
#                                CCDC
#
#######################################################################
#
# If this CIF has been generated from an entry in the Cambridge
# Structural Database, then it will include bibliographic, chemical,
# crystal, experimental, refinement or atomic coordinate data resulting
# from the CCDC's data processing and validation procedures.
#
#######################################################################

data_CSD_CIF_ETECAJ
_audit_creation_date 2016-08-30
_audit_creation_method CSD-ConQuest-V1
_database_code_CSD ETECAJ
_database_code_depnum_ccdc_archive 'CCDC 1455696'
_chemical_formula_sum 'C24 H34 Bi4 N4 O40'
_chemical_formula_moiety
;
(C18 H6 Bi4 O38 4-)n,2n(C3 H12 N2 2+),2n(H2 O1)
;
_journal_coden_Cambridge 9
_journal_volume 55
_journal_year 2016
_journal_page_first 7817
_journal_name_full 'Inorg.Chem. '
loop_
_publ_author_name
"Furong Guo"
"ChengChen"
"Kangcai Wang"
"Qinghua Zhang"
"ZhienLin"
_chemical_name_systematic
;
catena-(bis(propane-1,2-diammonium) heptakis(\m-oxalato)-diaqua-bis(hydrogen 
oxalato)-tetra-bismuth dihydrate)
;
_cell_volume   2146.767
_exptl_crystal_colour 'colorless'
_exptl_crystal_density_diffrn 2.869
_exptl_crystal_description 'block'
_diffrn_ambient_temperature 293
#These two values have been output from a single CSD field.
_refine_ls_R_factor_gt 0.0301
_refine_ls_wR_factor_gt 0.0301
_symmetry_cell_setting monoclinic
_symmetry_space_group_name_H-M 'P 21/c'
_symmetry_Int_Tables_number 14
loop_
_symmetry_equiv_pos_site_id
_symmetry_equiv_pos_as_xyz
1 x,y,z
2 -x,1/2+y,1/2-z
3 -x,-y,-z
4 x,-1/2-y,-1/2+z
_cell_length_a 15.2321(4)
_cell_length_b 11.4820(2)
_cell_length_c 13.4913(4)
_cell_angle_alpha 90
_cell_angle_beta 114.520(4)
_cell_angle_gamma 90
_cell_formula_units_Z 2
loop_
_atom_type_symbol
_atom_type_radius_bond
C 0.68
H 0.23
Bi 1.48
N 0.68
O 0.68
loop_
_atom_site_label
_atom_site_type_symbol
_atom_site_fract_x
_atom_site_fract_y
_atom_site_fract_z
Bi1 Bi 0.99498(2) 0.49949(2) 0.83174(2)
Bi2 Bi 0.57574(2) 0.52979(2) 0.82574(2)
O1 O 1.0053(4) 0.7066(3) 0.8791(4)
O2 O 1.0193(3) 0.8824(4) 0.8202(3)
O3 O 0.9706(4) 0.6182(4) 0.6811(3)
O4 O 0.9950(4) 0.7915(4) 0.6261(4)
O5 O 0.9034(4) 0.5114(4) 0.9451(4)
O6 O 0.7538(4) 0.5178(5) 0.9365(4)
O7 O 0.8312(4) 0.4759(4) 0.7278(4)
O8 O 0.6856(4) 0.4490(5) 0.7256(4)
O9 O 0.4778(3) 0.4119(4) 0.6770(3)
O10 O 0.4571(4) 0.2307(4) 0.6151(4)
O11 O 0.5976(3) 0.3341(4) 0.8768(4)
O12 O 0.5603(3) 0.1524(4) 0.8170(4)
O13 O 0.4401(4) 0.4941(4) 0.8583(4)
O14 O 0.3818(3) 0.4729(4) 0.9834(4)
O15 O 0.7399(4) 0.7078(4) 0.5450(4)
O16 O 0.8110(4) 0.8030(5) 0.7020(4)
O17 O 0.5776(4) 0.6977(5) 0.5808(4)
H1 H 0.57800 0.72560 0.52500
O18 O 0.6702(4) 0.7123(5) 0.7555(4)
O19 O 1.1620(5) 0.5410(6) 0.8365(5)
H2 H 1.20240 0.47820 0.85790
H3 H 1.19200 0.59870 0.88470
C1 C 1.0072(5) 0.7753(5) 0.8090(5)
C2 C 0.9890(5) 0.7242(5) 0.6953(5)
C3 C 0.8120(5) 0.5052(5) 0.8960(6)
C4 C 0.7720(5) 0.4724(5) 0.7728(6)
C5 C 0.4898(5) 0.3042(6) 0.6882(5)
C6 C 0.5528(5) 0.2589(5) 0.8029(5)
C7 C 0.4495(5) 0.4907(5) 0.9549(5)
C8 C 0.7465(5) 0.7467(6) 0.6339(6)
C9 C 0.6594(5) 0.7181(6) 0.6617(6)
O20 O 0.7184(6) 0.2546(6) 0.5843(5)
H4 H 0.71520 0.27980 0.64200
H5 H 0.66400 0.22660 0.54210
C10 C 0.1336(6) 0.4577(6) 0.5665(6)
H6 H 0.09400 0.47870 0.49140
H7 H 0.09770 0.47730 0.60910
C11 C 0.2229(6) 0.5289(6) 0.6060(7)
H8 H 0.26670 0.50030 0.67810
C12 C 0.1986(6) 0.6525(6) 0.6166(7)
H9 H 0.15820 0.68290 0.54600
H10 H 0.25690 0.69750 0.64770
H11 H 0.16500 0.65690 0.66300
N1 N 0.1500(4) 0.3287(5) 0.5726(5)
H12 H 0.09340 0.29210 0.54480
H13 H 0.18260 0.30760 0.64180
H14 H 0.18380 0.30980 0.53470
N2 N 0.2744(5) 0.5221(5) 0.5310(5)
H15 H 0.28320 0.44780 0.51870
H16 H 0.33130 0.55750 0.56210
H17 H 0.23880 0.55700 0.46810
O13B O 0.5599(4) 0.5059(4) 1.1417(4)
O14B O 0.6182(3) 0.5271(4) 1.0166(4)
C7B C 0.5505(5) 0.5093(5) 1.0451(5)
Bi1B Bi 0.00502(2) 0.50051(2) 1.16826(2)
Bi2B Bi 0.42426(2) 0.47021(2) 1.17426(2)
O1B O -0.0053(4) 0.2934(3) 1.1209(4)
O2B O -0.0193(3) 0.1176(4) 1.1798(3)
O3B O 0.0294(4) 0.3818(4) 1.3189(3)
O4B O 0.0050(4) 0.2085(4) 1.3739(4)
O5B O 0.0966(4) 0.4886(4) 1.0549(4)
O6B O 0.2462(4) 0.4822(5) 1.0635(4)
O7B O 0.1688(4) 0.5241(4) 1.2722(4)
O8B O 0.3144(4) 0.5510(5) 1.2744(4)
O9B O 0.5222(3) 0.5881(4) 1.3230(3)
O10B O 0.5429(4) 0.7693(4) 1.3849(4)
O11B O 0.4024(3) 0.6659(4) 1.1232(4)
O12B O 0.4397(3) 0.8476(4) 1.1830(4)
O15B O 0.2601(4) 0.2922(4) 1.4550(4)
O16B O 0.1890(4) 0.1970(5) 1.2980(4)
O17B O 0.4224(4) 0.3023(5) 1.4192(4)
H1B H 0.42200 0.27440 1.47500
O18B O 0.3298(4) 0.2877(5) 1.2445(4)
O19B O -0.1620(5) 0.4590(6) 1.1635(5)
H2B H -0.20240 0.52180 1.14210
H3B H -0.19200 0.40130 1.11530
C1B C -0.0072(5) 0.2247(5) 1.1910(5)
C2B C 0.0110(5) 0.2758(5) 1.3047(5)
C3B C 0.1880(5) 0.4948(5) 1.1040(6)
C4B C 0.2280(5) 0.5276(5) 1.2272(6)
C5B C 0.5102(5) 0.6958(6) 1.3118(5)
C6B C 0.4472(5) 0.7411(5) 1.1971(5)
C8B C 0.2535(5) 0.2533(6) 1.3661(6)
C9B C 0.3406(5) 0.2819(6) 1.3383(6)
Bi1* Bi -0.00502(2) 0.49949(2) 0.83174(2)
Bi1A Bi 1.00502(2) 0.99949(2) 0.66826(2)
Bi1B* Bi 1.00502(2) 0.50051(2) 1.16826(2)
Bi1C Bi -0.00502(2) 0.00051(2) 1.33174(2)
Bi2A Bi 0.42426(2) 0.02979(2) 0.67426(2)
Bi2C Bi 0.57574(2) 0.97021(2) 1.32574(2)
O2A O 0.9807(3) 0.3824(4) 0.6798(3)
O2C O 0.0193(3) 0.6176(4) 1.3202(3)
O4A O 1.0050(4) 0.2915(4) 0.8739(4)
O4C O -0.0050(4) 0.7085(4) 1.1261(4)
O5* O -0.0966(4) 0.5114(4) 0.9451(4)
O5B* O 1.0966(4) 0.4886(4) 1.0549(4)
O10A O 0.5429(4) 0.7307(4) 0.8849(4)
O10C O 0.4571(4) 0.2693(4) 1.1151(4)
O12A O 0.4397(3) 0.6524(4) 0.6830(4)
O12C O 0.5603(3) 0.3476(4) 1.3170(4)
#END
