
#######################################################################
#
#                 Cambridge Crystallographic Data Centre
#                                CCDC
#
#######################################################################
#
# If this CIF has been generated from an entry in the Cambridge
# Structural Database, then it will include bibliographic, chemical,
# crystal, experimental, refinement or atomic coordinate data resulting
# from the CCDC's data processing and validation procedures.
#
#######################################################################

data_CSD_CIF_ETEDAK
_audit_creation_date 2016-08-30
_audit_creation_method CSD-ConQuest-V1
_database_code_CSD ETEDAK
_database_code_depnum_ccdc_archive 'CCDC 1455693'
_chemical_formula_sum 'C32 H64 Mn2 N4 O16'
_chemical_formula_moiety
;
(C6 Mn2 O12 2-)n,4(C6 H16 N1 1+),C2 O4 2-
;
_journal_coden_Cambridge 9
_journal_volume 55
_journal_year 2016
_journal_page_first 7817
_journal_name_full 'Inorg.Chem. '
loop_
_publ_author_name
"Furong Guo"
"ChengChen"
"Kangcai Wang"
"Qinghua Zhang"
"ZhienLin"
_chemical_name_systematic
;
catena-(tetrakis(di-isopropylammonium) tris(\m-oxalato)-di-manganese oxalate)
;
_cell_volume   2139.449
_exptl_crystal_colour 'light pink'
_exptl_crystal_density_diffrn 1.352
_exptl_crystal_description 'block'
_diffrn_ambient_temperature 293
#These two values have been output from a single CSD field.
_refine_ls_R_factor_gt 0.0523
_refine_ls_wR_factor_gt 0.0523
_symmetry_cell_setting monoclinic
_symmetry_space_group_name_H-M 'P 21/c'
_symmetry_Int_Tables_number 14
loop_
_symmetry_equiv_pos_site_id
_symmetry_equiv_pos_as_xyz
1 x,y,z
2 -x,1/2+y,1/2-z
3 -x,-y,-z
4 x,-1/2-y,-1/2+z
_cell_length_a 13.3554(2)
_cell_length_b 15.6931(2)
_cell_length_c 10.45393(15)
_cell_angle_alpha 90
_cell_angle_beta 102.4552(15)
_cell_angle_gamma 90
_cell_formula_units_Z 2
loop_
_atom_type_symbol
_atom_type_radius_bond
C 0.68
H 0.23
Mn 1.61
N 0.68
O 0.68
loop_
_atom_site_label
_atom_site_type_symbol
_atom_site_fract_x
_atom_site_fract_y
_atom_site_fract_z
Mn1 Mn 0.03447(3) 0.68022(2) 0.00098(4)
O1 O -0.04052(15) 0.77239(13) 0.10032(18)
O2 O -0.05171(16) 0.81273(13) 0.3011(2)
O3 O 0.13113(15) 0.68534(12) 0.20219(19)
O4 O 0.12616(15) 0.73566(13) 0.40092(18)
O5 O -0.07308(15) 0.58199(12) 0.0441(2)
O6 O -0.10572(14) 0.44325(12) 0.02858(19)
C1 C -0.00980(19) 0.77573(15) 0.2212(2)
C2 C 0.09212(18) 0.72775(16) 0.2812(2)
C3 C -0.05148(18) 0.50729(16) 0.0210(2)
O7 O 0.38397(16) 0.5145(2) 0.0479(3)
O8 O 0.54238(16) 0.5297(2) 0.1631(2)
C4 C 0.4794(2) 0.5129(3) 0.0623(3)
N1 N -0.25030(16) 0.54728(14) 0.1876(2)
H1 H -0.31690 0.53810 0.15710
H2 H -0.21790 0.52970 0.12640
C5 C -0.2759(4) 0.6752(3) 0.3169(5)
H3 H -0.34740 0.66150 0.30420
H4 H -0.26740 0.73600 0.32170
H5 H -0.23920 0.64990 0.39690
C6 C -0.2345(3) 0.6411(2) 0.2033(3)
H6 H -0.16070 0.65250 0.22060
C7 C -0.2836(4) 0.6828(3) 0.0763(5)
H7 H -0.25220 0.66190 0.00800
H8 H -0.27440 0.74340 0.08420
H9 H -0.35550 0.66970 0.05540
C8 C -0.2463(4) 0.4027(3) 0.2685(5)
H10 H -0.31930 0.39950 0.23770
H11 H -0.22580 0.36650 0.34360
H12 H -0.21320 0.38430 0.20040
C9 C -0.2162(2) 0.4925(2) 0.3055(3)
H13 H -0.25280 0.51070 0.37260
C10 C -0.1031(3) 0.5011(4) 0.3610(4)
H14 H -0.06600 0.48750 0.29450
H15 H -0.08310 0.46280 0.43350
H16 H -0.08790 0.55860 0.39020
N2 N 0.31581(18) 0.57812(16) 0.2554(2)
H17 H 0.33010 0.55420 0.18430
H18 H 0.25840 0.60820 0.23060
C11 C 0.1969(4) 0.4710(4) 0.3012(6)
H19 H 0.14500 0.51210 0.30740
H20 H 0.18920 0.42190 0.35310
H21 H 0.19010 0.45410 0.21140
C12 C 0.2988(3) 0.5088(3) 0.3496(4)
H22 H 0.30150 0.53400 0.43600
C13 C 0.3824(5) 0.4429(4) 0.3604(9)
H23 H 0.38580 0.42320 0.27450
H24 H 0.36780 0.39570 0.41190
H25 H 0.44700 0.46780 0.40180
C14 C 0.3881(4) 0.6778(4) 0.4396(6)
H26 H 0.32800 0.71320 0.42190
H27 H 0.44720 0.71200 0.47480
H28 H 0.38050 0.63460 0.50180
C15 C 0.4013(3) 0.6367(2) 0.3155(4)
H29 H 0.46560 0.60430 0.33350
C16 C 0.4073(4) 0.7034(3) 0.2138(7)
H30 H 0.41810 0.67630 0.13560
H31 H 0.46320 0.74150 0.24690
H32 H 0.34430 0.73510 0.19420
O5B O 0.07308(15) 0.41801(12) -0.0441(2)
O6B O 0.10572(14) 0.55675(12) -0.02858(19)
C3B C 0.05148(18) 0.49271(16) -0.0210(2)
Mn1B Mn -0.03447(3) 0.31978(2) -0.00098(4)
O1B O 0.04052(15) 0.22761(13) -0.10032(18)
O2B O 0.05171(16) 0.18727(13) -0.3011(2)
O3B O -0.13113(15) 0.31466(12) -0.20219(19)
O4B O -0.12616(15) 0.26434(13) -0.40092(18)
C1B C 0.00980(19) 0.22427(15) -0.2212(2)
C2B C -0.09212(18) 0.27225(16) -0.2812(2)
Mn1A Mn -0.03447(3) 0.18022(2) -0.50098(4)
Mn1C Mn 0.03447(3) 0.81978(2) 0.50098(4)
O2A O 0.05171(16) 0.31273(13) 0.1989(2)
O2C O -0.05171(16) 0.68727(13) -0.1989(2)
O4A O -0.12616(15) 0.23566(13) 0.09908(18)
O4C O 0.12616(15) 0.76434(13) -0.09908(18)
O7B O 0.61603(16) 0.4855(2) -0.0479(3)
O8B O 0.45762(16) 0.4703(2) -0.1631(2)
C4B C 0.5206(2) 0.4871(3) -0.0623(3)
#END
