
#######################################################################
#
#                 Cambridge Crystallographic Data Centre
#                                CCDC
#
#######################################################################
#
# If this CIF has been generated from an entry in the Cambridge
# Structural Database, then it will include bibliographic, chemical,
# crystal, experimental, refinement or atomic coordinate data resulting
# from the CCDC's data processing and validation procedures.
#
#######################################################################

data_CSD_CIF_ETELEX
_audit_creation_date 2021-05-24
_audit_creation_method CSD-ConQuest-V1
_database_code_CSD ETELEX
_database_code_depnum_ccdc_archive 'CCDC 2071285'
_chemical_formula_sum 'C38 H54 N4 O20.5 Tm3'
_chemical_formula_moiety
;
C2 H8 N1 1+,n(C24 H16 O16 Tm3 1-),3(C4 H9 N1 O1),1.5(H2 O1)
;
_journal_coden_Cambridge 182
_journal_volume 57
_journal_year 2021
_journal_page_first 6121
_journal_name_full 'Chem.Commun. '
loop_
_publ_author_name
"P.Rafael Donnarumma"
"S.Frojmovic"
"P.Marino"
"H.A.Bicalho"
"H.M.Titi"
"A.J.Howarth"
_chemical_name_systematic
;
catena-[dimethylammonium 
tris(\m-benzene-1,4-dicarboxylato)-tetrakis(\m-hydroxo)-tri-thulium(iii) 
N,N-dimethylacetamide solvate sesquihydrate]
;
_cell_volume   9602.885
_exptl_crystal_colour 'colorless'
_exptl_crystal_description 'octahedron'
_exptl_crystal_preparation 'dimethylacetamide'
_diffrn_ambient_temperature 253
_refine_special_details
;
The SQUEEZE/PLATON program has been used to model some disordered cation and 
solvent molecules.
;
#These two values have been output from a single CSD field.
_refine_ls_R_factor_gt 0.0369
_refine_ls_wR_factor_gt 0.0369
_symmetry_cell_setting cubic
_symmetry_space_group_name_H-M 'F m -3 m'
_symmetry_Int_Tables_number 225
loop_
_symmetry_equiv_pos_site_id
_symmetry_equiv_pos_as_xyz
1 x,y,z
2 -x,-y,z
3 -x,y,-z
4 x,-y,-z
5 z,x,y
6 z,-x,-y
7 -z,-x,y
8 -z,x,-y
9 y,z,x
10 -y,z,-x
11 y,-z,-x
12 -y,-z,x
13 y,x,-z
14 -y,-x,-z
15 y,-x,z
16 -y,x,z
17 x,z,-y
18 -x,z,y
19 -x,-z,-y
20 x,-z,y
21 z,y,-x
22 z,-y,x
23 -z,y,x
24 -z,-y,-x
25 x,1/2+y,1/2+z
26 -x,1/2-y,1/2+z
27 -x,1/2+y,1/2-z
28 x,1/2-y,1/2-z
29 z,1/2+x,1/2+y
30 z,1/2-x,1/2-y
31 -z,1/2-x,1/2+y
32 -z,1/2+x,1/2-y
33 y,1/2+z,1/2+x
34 -y,1/2+z,1/2-x
35 y,1/2-z,1/2-x
36 -y,1/2-z,1/2+x
37 y,1/2+x,1/2-z
38 -y,1/2-x,1/2-z
39 y,1/2-x,1/2+z
40 -y,1/2+x,1/2+z
41 x,1/2+z,1/2-y
42 -x,1/2+z,1/2+y
43 -x,1/2-z,1/2-y
44 x,1/2-z,1/2+y
45 z,1/2+y,1/2-x
46 z,1/2-y,1/2+x
47 -z,1/2+y,1/2+x
48 -z,1/2-y,1/2-x
49 1/2+x,y,1/2+z
50 1/2-x,-y,1/2+z
51 1/2-x,y,1/2-z
52 1/2+x,-y,1/2-z
53 1/2+z,x,1/2+y
54 1/2+z,-x,1/2-y
55 1/2-z,-x,1/2+y
56 1/2-z,x,1/2-y
57 1/2+y,z,1/2+x
58 1/2-y,z,1/2-x
59 1/2+y,-z,1/2-x
60 1/2-y,-z,1/2+x
61 1/2+y,x,1/2-z
62 1/2-y,-x,1/2-z
63 1/2+y,-x,1/2+z
64 1/2-y,x,1/2+z
65 1/2+x,z,1/2-y
66 1/2-x,z,1/2+y
67 1/2-x,-z,1/2-y
68 1/2+x,-z,1/2+y
69 1/2+z,y,1/2-x
70 1/2+z,-y,1/2+x
71 1/2-z,y,1/2+x
72 1/2-z,-y,1/2-x
73 1/2+x,1/2+y,z
74 1/2-x,1/2-y,z
75 1/2-x,1/2+y,-z
76 1/2+x,1/2-y,-z
77 1/2+z,1/2+x,y
78 1/2+z,1/2-x,-y
79 1/2-z,1/2-x,y
80 1/2-z,1/2+x,-y
81 1/2+y,1/2+z,x
82 1/2-y,1/2+z,-x
83 1/2+y,1/2-z,-x
84 1/2-y,1/2-z,x
85 1/2+y,1/2+x,-z
86 1/2-y,1/2-x,-z
87 1/2+y,1/2-x,z
88 1/2-y,1/2+x,z
89 1/2+x,1/2+z,-y
90 1/2-x,1/2+z,y
91 1/2-x,1/2-z,-y
92 1/2+x,1/2-z,y
93 1/2+z,1/2+y,-x
94 1/2+z,1/2-y,x
95 1/2-z,1/2+y,x
96 1/2-z,1/2-y,-x
97 -x,-y,-z
98 x,y,-z
99 x,-y,z
100 -x,y,z
101 -z,-x,-y
102 -z,x,y
103 z,x,-y
104 z,-x,y
105 -y,-z,-x
106 y,-z,x
107 -y,z,x
108 y,z,-x
109 -y,-x,z
110 y,x,z
111 -y,x,-z
112 y,-x,-z
113 -x,-z,y
114 x,-z,-y
115 x,z,y
116 -x,z,-y
117 -z,-y,x
118 -z,y,-x
119 z,-y,-x
120 z,y,x
121 -x,-1/2-y,-1/2-z
122 x,-1/2+y,-1/2-z
123 x,-1/2-y,-1/2+z
124 -x,-1/2+y,-1/2+z
125 -z,-1/2-x,-1/2-y
126 -z,-1/2+x,-1/2+y
127 z,-1/2+x,-1/2-y
128 z,-1/2-x,-1/2+y
129 -y,-1/2-z,-1/2-x
130 y,-1/2-z,-1/2+x
131 -y,-1/2+z,-1/2+x
132 y,-1/2+z,-1/2-x
133 -y,-1/2-x,-1/2+z
134 y,-1/2+x,-1/2+z
135 -y,-1/2+x,-1/2-z
136 y,-1/2-x,-1/2-z
137 -x,-1/2-z,-1/2+y
138 x,-1/2-z,-1/2-y
139 x,-1/2+z,-1/2+y
140 -x,-1/2+z,-1/2-y
141 -z,-1/2-y,-1/2+x
142 -z,-1/2+y,-1/2-x
143 z,-1/2-y,-1/2-x
144 z,-1/2+y,-1/2+x
145 -1/2-x,-y,-1/2-z
146 -1/2+x,y,-1/2-z
147 -1/2+x,-y,-1/2+z
148 -1/2-x,y,-1/2+z
149 -1/2-z,-x,-1/2-y
150 -1/2-z,x,-1/2+y
151 -1/2+z,x,-1/2-y
152 -1/2+z,-x,-1/2+y
153 -1/2-y,-z,-1/2-x
154 -1/2+y,-z,-1/2+x
155 -1/2-y,z,-1/2+x
156 -1/2+y,z,-1/2-x
157 -1/2-y,-x,-1/2+z
158 -1/2+y,x,-1/2+z
159 -1/2-y,x,-1/2-z
160 -1/2+y,-x,-1/2-z
161 -1/2-x,-z,-1/2+y
162 -1/2+x,-z,-1/2-y
163 -1/2+x,z,-1/2+y
164 -1/2-x,z,-1/2-y
165 -1/2-z,-y,-1/2+x
166 -1/2-z,y,-1/2-x
167 -1/2+z,-y,-1/2-x
168 -1/2+z,y,-1/2+x
169 -1/2-x,-1/2-y,-z
170 -1/2+x,-1/2+y,-z
171 -1/2+x,-1/2-y,z
172 -1/2-x,-1/2+y,z
173 -1/2-z,-1/2-x,-y
174 -1/2-z,-1/2+x,y
175 -1/2+z,-1/2+x,-y
176 -1/2+z,-1/2-x,y
177 -1/2-y,-1/2-z,-x
178 -1/2+y,-1/2-z,x
179 -1/2-y,-1/2+z,x
180 -1/2+y,-1/2+z,-x
181 -1/2-y,-1/2-x,z
182 -1/2+y,-1/2+x,z
183 -1/2-y,-1/2+x,-z
184 -1/2+y,-1/2-x,-z
185 -1/2-x,-1/2-z,y
186 -1/2+x,-1/2-z,-y
187 -1/2+x,-1/2+z,y
188 -1/2-x,-1/2+z,-y
189 -1/2-z,-1/2-y,x
190 -1/2-z,-1/2+y,-x
191 -1/2+z,-1/2-y,-x
192 -1/2+z,-1/2+y,x
_cell_length_a 21.2553(16)
_cell_length_b 21.2553(16)
_cell_length_c 21.2553(16)
_cell_angle_alpha 90
_cell_angle_beta 90
_cell_angle_gamma 90
_cell_formula_units_Z 8
loop_
_atom_type_symbol
_atom_type_radius_bond
C 0.68
H 0.23
O 0.68
Tm 1.90
loop_
_atom_site_label
_atom_site_type_symbol
_atom_site_fract_x
_atom_site_fract_y
_atom_site_fract_z
Tm1 Tm 0.37277(3) 0.50000 0.50000
O1 O 0.44085(17) 0.55915(17) 0.55915(17)
O2 O 0.3263(3) 0.4036(2) 0.50000
C1 C 0.3465(4) 0.3465(4) 0.50000
C2 C 0.2964(4) 0.2964(4) 0.50000
C3 C 0.3127(6) 0.2336(5) 0.50000
H1 H 0.35539 0.22201 0.50000
O2L O 0.4036(3) 0.3263(2) 0.50000
C3L C 0.2336(6) 0.3127(5) 0.50000
H1L H 0.22201 0.35539 0.50000
O2GC O 0.0964(3) 0.1737(2) 0.50000
C1UB C 0.1535(4) 0.1535(4) 0.50000
C2UB C 0.2036(4) 0.2036(4) 0.50000
C3GC C 0.2664(6) 0.1873(5) 0.50000
H1GC H 0.27799 0.14461 0.50000
O2UB O 0.1737(3) 0.0964(2) 0.50000
C3UB C 0.1873(6) 0.2664(5) 0.50000
H1UB H 0.14461 0.27799 0.50000
O1C O 0.44085(17) 0.44085(17) 0.44085(17)
O2C O 0.3263(3) 0.5964(2) 0.50000
C1C C 0.3465(4) 0.6535(4) 0.50000
C2C C 0.2964(4) 0.7036(4) 0.50000
C3C C 0.3127(6) 0.7664(5) 0.50000
H1C H 0.35539 0.77799 0.50000
O2N O 0.4036(3) 0.6737(2) 0.50000
C3N C 0.2336(6) 0.6873(5) 0.50000
H1N H 0.22201 0.64461 0.50000
O2IC O 0.0964(3) 0.8263(2) 0.50000
C1VB C 0.1535(4) 0.8465(4) 0.50000
C2VB C 0.2036(4) 0.7964(4) 0.50000
C3IC C 0.2664(6) 0.8127(5) 0.50000
H1IC H 0.27799 0.85539 0.50000
O2VB O 0.1737(3) 0.9036(2) 0.50000
C3VB C 0.1873(6) 0.7336(5) 0.50000
H1VB H 0.14461 0.72201 0.50000
Tm1D Tm 0.50000(3) 0.37277 0.50000
O1A O 0.55915(17) 0.44085(17) 0.55915(17)
O2D O 0.5000(3) 0.3263(2) 0.40360
C1D C 0.5000(4) 0.3465(4) 0.34650
C2D C 0.5000(4) 0.2964(4) 0.29640
C3D C 0.5000(6) 0.3127(5) 0.23360
H1D H 0.50000 0.35539 0.22201
O2V O 0.5000(3) 0.4036(2) 0.32630
C3V C 0.5000(6) 0.2336(5) 0.31270
H1V H 0.50000 0.22201 0.35539
O2UA O 0.5000(3) 0.0964(2) 0.17370
C1CA C 0.5000(4) 0.1535(4) 0.15350
C2CA C 0.5000(4) 0.2036(4) 0.20360
C3UA C 0.5000(6) 0.2664(5) 0.18730
H1UA H 0.50000 0.27799 0.14461
O2CA O 0.5000(3) 0.1737(2) 0.09640
C3CA C 0.5000(6) 0.1873(5) 0.26640
H1CA H 0.50000 0.14461 0.27799
Tm1E Tm 0.50000(3) 0.62723 0.50000
O1B O 0.55915(17) 0.55915(17) 0.44085(17)
Tm1A Tm 0.62723(3) 0.50000 0.50000
Tm1H Tm 0.50000(3) 0.50000 0.37277
Tm1I Tm 0.50000(3) 0.50000 0.62723
Tm1CA Tm 0.50000(3) 0.12723 0.00000
Tm1GA Tm 0.50000(3) 0.00000 0.12723
Tm1UB Tm 0.12723(3) 0.00000 0.50000
Tm1UB* Tm 0.12723(3) 1.00000 0.50000
Tm1XB Tm 0.00000(3) 0.87277 0.50000
Tm1YB Tm 0.00000(3) 0.12723 0.50000
O1L O 0.55915(17) 0.44085(17) 0.44085(17)
O1M O 0.44085(17) 0.55915(17) 0.44085(17)
O1N O 0.55915(17) 0.55915(17) 0.55915(17)
O1O O 0.44085(17) 0.44085(17) 0.55915(17)
O2E O 0.5000(3) 0.6737(2) 0.59640
O2F O 0.5000(3) 0.6737(2) 0.40360
O2G O 0.5000(3) 0.3263(2) 0.59640
O2M O 0.5964(3) 0.6737(2) 0.50000
O2O O 0.5964(3) 0.3263(2) 0.50000
O2P O 0.3263(3) 0.5000(2) 0.59640
O2S O 0.3263(3) 0.5000(2) 0.40360
#END
