
#######################################################################
#
#                 Cambridge Crystallographic Data Centre
#                                CCDC
#
#######################################################################
#
# If this CIF has been generated from an entry in the Cambridge
# Structural Database, then it will include bibliographic, chemical,
# crystal, experimental, refinement or atomic coordinate data resulting
# from the CCDC's data processing and validation procedures.
#
#######################################################################

data_CSD_CIF_ETESUS
_audit_creation_date 2011-08-30
_audit_creation_method CSD-ConQuest-V1
_database_code_CSD ETESUS
_database_code_depnum_ccdc_archive 'CCDC 763122'
_chemical_formula_sum 'C20 H24 Cd2 Cl4 N2 O4'
_chemical_formula_moiety
;
(C16 H8 Cd2 Cl4 O4 2-)n,2n(C2 H8 N1 1+)
;
_journal_coden_Cambridge 1350
_journal_volume 13
_journal_year 2011
_journal_page_first 5152
_journal_name_full 'CrystEngComm '
loop_
_publ_author_name
"Jun-Jie Wang"
"Tong-Liang Hu"
"Xian-He Bu"
_chemical_name_systematic
;
catena-((\m~4~-anthracene-1,5-dicarboxylato)-tetrakis(\m~2~-chloro)-di-cadmium
 bis(dimethylammonium))
;
_cell_volume    638.519
_exptl_crystal_colour 'colorless'
_exptl_crystal_density_diffrn 1.88
_exptl_crystal_description 'prism'
_diffrn_ambient_temperature 293
#These two values have been output from a single CSD field.
_refine_ls_R_factor_gt 0.0304
_refine_ls_wR_factor_gt 0.0304
_symmetry_cell_setting triclinic
_symmetry_space_group_name_H-M 'P -1'
_symmetry_Int_Tables_number 2
loop_
_symmetry_equiv_pos_site_id
_symmetry_equiv_pos_as_xyz
1 x,y,z
2 -x,-y,-z
_cell_length_a 7.2223(14)
_cell_length_b 8.2583(17)
_cell_length_c 11.575(2)
_cell_angle_alpha 104.61(3)
_cell_angle_beta 101.05(3)
_cell_angle_gamma 99.64(3)
_cell_formula_units_Z 1
loop_
_atom_type_symbol
_atom_type_radius_bond
C 0.68
H 0.23
Cd 1.44
Cl 0.99
N 0.68
O 0.68
loop_
_atom_site_label
_atom_site_type_symbol
_atom_site_fract_x
_atom_site_fract_y
_atom_site_fract_z
Cd1 Cd 0.00000 0.00000 1.00000
Cd2 Cd 0.50000 0.00000 1.00000
Cl1 Cl 0.17674(10) -0.2181(1) 0.89479(8)
Cl2 Cl 0.32828(10) 0.12816(10) 1.17193(7)
O1 O 0.0897(3) 0.1782(3) 0.88470(19)
O2 O 0.4020(3) 0.1854(3) 0.8889(2)
N1 N 0.7197(4) 0.2573(4) 0.7840(3)
H1 H 0.62050 0.22920 0.81720
H2 H 0.81360 0.20650 0.81040
C1 C 0.2368(4) 0.2021(4) 0.8429(3)
C2 C 0.2106(4) 0.2519(4) 0.7257(3)
C3 C 0.2832(4) 0.4143(4) 0.7247(3)
H3 H 0.35240 0.49950 0.80080
C4 C 0.2567(5) 0.4604(4) 0.6134(3)
H4 H 0.30910 0.57590 0.61470
C5 C 0.1583(5) 0.3416(4) 0.5057(3)
H5 H 0.14340 0.37350 0.43090
C6 C 0.0783(4) 0.1691(4) 0.5014(3)
C7 C 0.1052(4) 0.1219(4) 0.6126(3)
C8 C -0.0272(4) 0.0467(4) 0.3911(3)
H6 H -0.04600 0.07790 0.31860
C9 C 0.6525(7) 0.1874(8) 0.6487(4)
H7 H 0.53710 0.22400 0.62080
H8 H 0.62530 0.06420 0.62580
H9 H 0.75160 0.22860 0.61160
C10 C 0.7934(6) 0.4418(5) 0.8290(6)
H10 H 0.91550 0.47110 0.80930
H11 H 0.81070 0.47940 0.91670
H12 H 0.70290 0.49710 0.79090
Cd1* Cd 0.00000 0.00000 0.00000
Cd2* Cd -0.50000 0.00000 0.00000
Cd2** Cd -0.50000 0.00000 1.00000
Cl1A Cl -0.17674(10) 0.2181(1) 1.10521(8)
Cl1A* Cl 0.82326(10) 0.2181(1) 1.10521(8)
Cl2A Cl -0.32828(10) -0.12816(10) 0.82807(7)
Cl2A* Cl 0.67172(10) -0.12816(10) 0.82807(7)
O1A O -0.0897(3) -0.1782(3) 0.11530(19)
O1A* O -0.0897(3) -0.1782(3) 1.11530(19)
O2A O -0.4020(3) -0.1854(3) 0.1111(2)
O2A* O 0.5980(3) -0.1854(3) 1.1111(2)
C1A C -0.2368(4) -0.2021(4) 0.1571(3)
C2A C -0.2106(4) -0.2519(4) 0.2743(3)
C3A C -0.2832(4) -0.4143(4) 0.2753(3)
H3A H -0.35240 -0.49950 0.19920
C4A C -0.2567(5) -0.4604(4) 0.3866(3)
H4A H -0.30910 -0.57590 0.38530
C5A C -0.1583(5) -0.3416(4) 0.4943(3)
H5A H -0.14340 -0.37350 0.56910
C6A C -0.0783(4) -0.1691(4) 0.4986(3)
C7A C -0.1052(4) -0.1219(4) 0.3874(3)
C8A C 0.0272(4) -0.0467(4) 0.6089(3)
H6A H 0.04600 -0.07790 0.68140
#END
