
#######################################################################
#
#                 Cambridge Crystallographic Data Centre
#                                CCDC
#
#######################################################################
#
# If this CIF has been generated from an entry in the Cambridge
# Structural Database, then it will include bibliographic, chemical,
# crystal, experimental, refinement or atomic coordinate data resulting
# from the CCDC's data processing and validation procedures.
#
#######################################################################

data_CSD_CIF_ETETAB
_audit_creation_date 2021-05-24
_audit_creation_method CSD-ConQuest-V1
_database_code_CSD ETETAB
_database_code_depnum_ccdc_archive 'CCDC 2078907'
_chemical_formula_sum 'C80 H92 Co5 N2 O48'
_chemical_formula_moiety
;
(C76 H68 Co5 O44 2-)n,2n(C2 H8 N1 1+),4n(H2 O1)
;
_journal_coden_Cambridge 1546
_journal_volume 11
_journal_year 2021
_journal_page_first 574
_journal_name_full 'Crystals '
loop_
_publ_author_name
"Bing-Bing Lu"
"Xue Han"
"Cheng-Jie Feng"
"Duo Wang"
"Fei Ye"
_chemical_name_systematic
;
catena-(bis(dimethylammonium) 
(\m-2,8,14,20-tetrakis(4-(carboxylatomethoxy)phenyl)-4,6,10,12,16,18,22,24-oct
akis(carboxylatomethoxy)calix[4]arene)-octa-aqua-penta-cobalt tetrahydrate)
;
_cell_volume   2297.851
_exptl_crystal_colour 'pink'
_exptl_crystal_density_diffrn 1.55
_exptl_crystal_description 'stick'
_diffrn_ambient_temperature 298
_refine_special_details
;
The SQUEEZE/PLATON program was used to model the disordered cations and 
unbound water molecules.
;
#These two values have been output from a single CSD field.
_refine_ls_R_factor_gt 0.0847
_refine_ls_wR_factor_gt 0.0847
_symmetry_cell_setting triclinic
_symmetry_space_group_name_H-M 'P -1'
_symmetry_Int_Tables_number 2
loop_
_symmetry_equiv_pos_site_id
_symmetry_equiv_pos_as_xyz
1 x,y,z
2 -x,-y,-z
_cell_length_a 10.5320(6)
_cell_length_b 13.2619(7)
_cell_length_c 18.1118(10)
_cell_angle_alpha 70.883(5)
_cell_angle_beta 74.056(5)
_cell_angle_gamma 85.860(4)
_cell_formula_units_Z 1
loop_
_atom_type_symbol
_atom_type_radius_bond
C 0.68
H 0.23
Co 1.26
O 0.68
loop_
_atom_site_label
_atom_site_type_symbol
_atom_site_fract_x
_atom_site_fract_y
_atom_site_fract_z
Co1 Co -1.00000 1.00000 -0.50000
Co2 Co -0.07679(8) 0.30871(6) 0.25708(5)
Co3 Co -0.87020(9) 0.56314(7) 0.43011(5)
C1 C -0.1519(7) 0.6539(5) 0.4412(4)
C2 C -0.0987(6) 0.7617(5) 0.3835(4)
H1 H -0.06650 0.80010 0.41220
H2 H -0.02490 0.75240 0.34060
C3 C -0.2192(6) 0.8055(4) 0.2826(3)
C4 C -0.3238(7) 0.8604(5) 0.2556(4)
H3 H -0.37220 0.90630 0.28160
C5 C -0.3565(6) 0.8472(5) 0.1904(3)
H4 H -0.42900 0.88190 0.17430
C6 C -0.2821(5) 0.7828(4) 0.1489(3)
C7 C -0.1780(6) 0.7307(5) 0.1760(3)
H5 H -0.12700 0.68680 0.14890
C8 C -0.1468(6) 0.7416(5) 0.2427(3)
H6 H -0.07610 0.70490 0.25990
C9 C -0.3170(5) 0.7619(4) 0.0789(3)
H7 H -0.26220 0.70300 0.06760
C10 C -0.2876(5) 0.8567(4) 0.0002(3)
C11 C -0.2600(4) 0.9596(4) -0.0048(3)
H8 H -0.25690 0.97210 0.04240
C12 C -0.2366(5) 1.0454(4) -0.0764(3)
C13 C -0.2437(5) 1.0256(4) -0.1457(3)
C14 C -0.2726(5) 0.9244(4) -0.1441(3)
H9 H -0.27840 0.91240 -0.19090
C15 C -0.2930(5) 0.8406(4) -0.0707(3)
C16 C -0.2523(6) 1.1023(4) -0.2830(3)
H10 H -0.34360 1.07790 -0.26660
H11 H -0.19750 1.04920 -0.30220
C17 C -0.2355(6) 1.2074(5) -0.3519(3)
C18 C -0.3300(6) 0.7160(5) -0.1336(3)
H12 H -0.38670 0.76890 -0.15910
H13 H -0.37320 0.64680 -0.11640
C19 C -0.1995(7) 0.7162(5) -0.1969(4)
C20 C -0.4613(5) 0.7243(4) 0.1036(3)
C21 C -0.5599(5) 0.7933(4) 0.0847(3)
H14 H -0.53630 0.86400 0.05420
C22 C -0.6904(5) 0.7645(4) 0.1079(3)
C23 C -0.7245(5) 0.6590(4) 0.1554(3)
C24 C -0.6277(6) 0.5866(4) 0.1769(3)
H15 H -0.65090 0.51660 0.20930
C25 C -0.4969(5) 0.6202(4) 0.1494(3)
C26 C -0.4160(7) 0.4548(5) 0.2214(4)
H16 H -0.46460 0.41060 0.20480
H17 H -0.46840 0.46060 0.27300
C27 C -0.2842(8) 0.4043(5) 0.2303(5)
C28 C -0.9048(6) 0.5294(5) 0.2077(3)
H18 H -0.83390 0.48560 0.18860
H19 H -0.97490 0.52650 0.18310
C29 C -0.9555(6) 0.4803(5) 0.2957(4)
C30 C -0.7951(5) 0.8413(4) 0.0808(3)
H20 H -0.87930 0.81830 0.12190
C31 C -0.8116(5) 0.8377(4) 0.0004(3)
C32 C -0.7106(6) 0.8123(5) -0.0577(3)
H21 H -0.62880 0.79410 -0.04730
C33 C -0.7288(6) 0.8136(5) -0.1306(3)
H22 H -0.65960 0.79590 -0.16870
C34 C -0.8485(6) 0.8407(4) -0.1472(3)
C35 C -0.9493(6) 0.8684(5) -0.0914(3)
H23 H -1.02990 0.88930 -0.10270
C36 C -0.9301(5) 0.8650(5) -0.0183(3)
H24 H -1.00000 0.88180 0.01970
C37 C -0.9198(7) 0.9289(4) -0.2642(3)
H25 H -0.86410 0.99100 -0.27820
H26 H -1.00550 0.94030 -0.23100
C38 C -0.9355(6) 0.9142(5) -0.3405(3)
O1 O -0.2716(6) 0.6339(5) 0.4553(4)
O2 O -0.0719(4) 0.5907(3) 0.4753(2)
O3 O -0.9557(5) 1.1664(3) -0.5390(3)
O4 O -0.1982(4) 0.8233(3) 0.3487(2)
O5 O -0.7983(5) 0.9720(4) -0.5404(3)
O6 O -0.2183(4) 1.1109(3) -0.2154(2)
O7 O -0.6809(5) 0.5087(4) 0.3955(3)
O8 O -0.2663(5) 1.2021(4) -0.4134(2)
O9 O -0.8240(5) 0.6120(4) 0.5189(2)
O10 O -0.1969(4) 1.2870(3) -0.3433(2)
O11 O -0.3188(4) 0.7373(3) -0.0644(2)
O12 O -0.2092(6) 0.7306(5) -0.2652(3)
O13 O -0.0981(4) 0.6971(3) -0.1744(3)
O14 O -0.3931(4) 0.5536(3) 0.1647(3)
O15 O -0.1805(5) 0.4293(5) 0.1787(3)
O16 O -0.2897(5) 0.3325(4) 0.2964(4)
O17 O -0.8575(4) 0.6343(3) 0.1788(2)
O18 O -1.0307(4) 0.4000(3) 0.3205(2)
O19 O -0.9231(5) 0.5229(4) 0.3408(3)
O20 O -0.8628(4) 0.8377(3) -0.2208(2)
O21 O -0.9138(4) 0.8251(3) -0.3501(2)
O22 O -0.9736(5) 0.9937(3) -0.3889(2)
C1A C -0.8481(7) 1.3461(5) -0.4412(4)
C2A C -0.9013(6) 1.2383(5) -0.3835(4)
H1A H -0.93350 1.19990 -0.41220
H2A H -0.97510 1.24760 -0.34060
C3A C -0.7808(6) 1.1945(4) -0.2826(3)
C4A C -0.6762(7) 1.1396(5) -0.2556(4)
H3A H -0.62780 1.09370 -0.28160
C5A C -0.6435(6) 1.1528(5) -0.1904(3)
H4A H -0.57100 1.11810 -0.17430
C6A C -0.7179(5) 1.2172(4) -0.1489(3)
C7A C -0.8220(6) 1.2693(5) -0.1760(3)
H5A H -0.87300 1.31320 -0.14890
C8A C -0.8532(6) 1.2584(5) -0.2427(3)
H6A H -0.92390 1.29510 -0.25990
C9A C -0.6830(5) 1.2381(4) -0.0789(3)
H7A H -0.73780 1.29700 -0.06760
C10A C -0.7124(5) 1.1433(4) -0.0002(3)
C11A C -0.7400(4) 1.0404(4) 0.0048(3)
H8A H -0.74310 1.02790 -0.04240
C12A C -0.7634(5) 0.9546(4) 0.0764(3)
C13A C -0.7563(5) 0.9744(4) 0.1457(3)
C14A C -0.7274(5) 1.0756(4) 0.1441(3)
H9A H -0.72160 1.08760 0.19090
C15A C -0.7070(5) 1.1594(4) 0.0707(3)
C16A C -0.7477(6) 0.8977(4) 0.2830(3)
H10A H -0.65640 0.92210 0.26660
H11A H -0.80250 0.95080 0.30220
C17A C -0.7645(6) 0.7926(5) 0.3519(3)
C18A C -0.6700(6) 1.2840(5) 0.1336(3)
H12A H -0.61330 1.23110 0.15910
H13A H -0.62680 1.35320 0.11640
C19A C -0.8005(7) 1.2838(5) 0.1969(4)
C20A C -0.5387(5) 1.2757(4) -0.1036(3)
C21A C -0.4401(5) 1.2067(4) -0.0847(3)
H14A H -0.46370 1.13600 -0.05420
C22A C -0.3096(5) 1.2355(4) -0.1079(3)
C23A C -0.2755(5) 1.3410(4) -0.1554(3)
C24A C -0.3723(6) 1.4134(4) -0.1769(3)
H15A H -0.34910 1.48340 -0.20930
C25A C -0.5031(5) 1.3798(4) -0.1494(3)
C26A C -0.5840(7) 1.5452(5) -0.2214(4)
H16A H -0.53540 1.58940 -0.20480
H17A H -0.53160 1.53940 -0.27300
C27A C -0.7158(8) 1.5957(5) -0.2303(5)
C28A C -0.0952(6) 1.4706(5) -0.2077(3)
H18A H -0.16610 1.51440 -0.18860
H19A H -0.02510 1.47350 -0.18310
C29A C -0.0445(6) 1.5197(5) -0.2957(4)
C30A C -0.2049(5) 1.1587(4) -0.0808(3)
H20A H -0.12070 1.18170 -0.12190
C31A C -0.1884(5) 1.1623(4) -0.0004(3)
C32A C -0.2894(6) 1.1877(5) 0.0577(3)
H21A H -0.37120 1.20590 0.04730
C33A C -0.2712(6) 1.1864(5) 0.1306(3)
H22A H -0.34040 1.20410 0.16870
C34A C -0.1515(6) 1.1593(4) 0.1472(3)
C35A C -0.0507(6) 1.1316(5) 0.0914(3)
H23A H 0.02990 1.11070 0.10270
C36A C -0.0699(5) 1.1350(5) 0.0183(3)
H24A H 0.00000 1.11820 -0.01970
C37A C -0.0802(7) 1.0711(4) 0.2642(3)
H25A H -0.13590 1.00900 0.27820
H26A H 0.00550 1.05970 0.23100
C38A C -0.0645(6) 1.0858(5) 0.3405(3)
O1A O -0.7284(6) 1.3661(5) -0.4553(4)
O2A O -0.9281(4) 1.4093(3) -0.4753(2)
O4A O -0.8018(4) 1.1767(3) -0.3487(2)
O6A O -0.7817(4) 0.8891(3) 0.2154(2)
O8A O -0.7337(5) 0.7979(4) 0.4134(2)
O10A O -0.8031(4) 0.7130(3) 0.3433(2)
O11A O -0.6812(4) 1.2627(3) 0.0644(2)
O12A O -0.7908(6) 1.2694(5) 0.2652(3)
O13A O -0.9019(4) 1.3029(3) 0.1744(3)
O14A O -0.6069(4) 1.4464(3) -0.1647(3)
O15A O -0.8195(5) 1.5707(5) -0.1787(3)
O16A O -0.7103(5) 1.6675(4) -0.2964(4)
O17A O -0.1425(4) 1.3657(3) -0.1788(2)
O18A O 0.0307(4) 1.6000(3) -0.3205(2)
O19A O -0.0769(5) 1.4771(4) -0.3408(3)
O20A O -0.1372(4) 1.1623(3) 0.2208(2)
O21A O -0.0862(4) 1.1749(3) 0.3501(2)
O22A O -0.0264(5) 1.0063(3) 0.3889(2)
O3A O -1.0443(5) 0.8336(3) -0.4610(3)
O5A O -1.2017(5) 1.0280(4) -0.4596(3)
Co3A Co -0.12980(9) 0.43686(7) 0.56989(5)
O7A O -0.3191(5) 0.4913(4) 0.6045(3)
O9A O -0.1760(5) 0.3880(4) 0.4811(2)
Co2A Co 0.07679(8) 0.69129(6) -0.25708(5)
Co1* Co 0.00000 1.00000 0.50000
Co2* Co -1.07679(8) 0.30871(6) 0.25708(5)
Co2** Co -1.07679(8) 1.30871(6) 0.25708(5)
Co2*** Co -0.07679(8) 1.30871(6) 0.25708(5)
Co2A* Co -0.92321(8) 0.69129(6) -0.25708(5)
Co2A** Co -0.92321(8) 1.69129(6) -0.25708(5)
Co2A*** Co 0.07679(8) 1.69129(6) -0.25708(5)
Co3* Co -0.87020(9) 1.56314(7) -0.56989(5)
Co3** Co 0.12980(9) 0.56314(7) 0.43011(5)
Co3A* Co -1.12980(9) 1.43686(7) -0.43011(5)
Co3A** Co -0.12980(9) 1.43686(7) -0.43011(5)
O2* O -1.0719(4) 0.5907(3) 0.4753(2)
O2A* O -0.9281(4) 0.4093(3) 0.5247(2)
O2A** O 0.0719(4) 0.4093(3) 0.5247(2)
O10* O -0.1969(4) 0.2870(3) 0.6567(2)
O13A* O 0.0981(4) 0.3029(3) 0.1744(3)
O15A* O 0.1805(5) 0.5707(5) -0.1787(3)
O16A* O 0.2897(5) 0.6675(4) -0.2964(4)
O18* O -0.0307(4) 0.4000(3) 0.3205(2)
O18A* O 0.0307(4) 0.6000(3) -0.3205(2)
O19A* O -0.0769(5) 0.4771(4) 0.6592(3)
O20* O 0.1372(4) 0.8377(3) -0.2208(2)
O20A* O -0.1372(4) 0.1623(3) 0.2208(2)
O21* O 0.0862(4) 0.8251(3) -0.3501(2)
O21A* O -0.0862(4) 0.1749(3) 0.3501(2)
O22A* O -1.0264(5) 1.0063(3) -0.6111(2)
#END
