
#######################################################################
#
#                 Cambridge Crystallographic Data Centre
#                                CCDC
#
#######################################################################
#
# If this CIF has been generated from an entry in the Cambridge
# Structural Database, then it will include bibliographic, chemical,
# crystal, experimental, refinement or atomic coordinate data resulting
# from the CCDC's data processing and validation procedures.
#
#######################################################################

data_CSD_CIF_ETIFEV
_audit_creation_date 2021-05-24
_audit_creation_method CSD-ConQuest-V1
_database_code_CSD ETIFEV
_database_code_depnum_ccdc_archive 'CCDC 2046318'
_chemical_formula_sum 'C18 H32 N4 O19 U2'
_chemical_formula_moiety
;
C6 H14 N2 2+,2n(C6 H6 N1 O8 U1 1-),3(H2 O1)
;
_journal_coden_Cambridge 960
_journal_volume 100
_journal_year 2021
_journal_page_first 89
_journal_name_full 'J.Inclusion Phenom.Macrocyclic Chem. '
loop_
_publ_author_name
"Y.Atoini"
"J.Harrowfield"
"Yang Kim"
"P.Thuery"
_chemical_name_systematic
;
catena-[1,4-diazabicyclo[2.2.2]octane 
(\m-nitrilotriacetato)-bis(oxido)-uranium(vi) trihydrate]
;
_cell_volume   2888.814
_exptl_crystal_colour 'intense yellow'
_exptl_crystal_density_diffrn 2.473
_exptl_crystal_description 'platelet'
_diffrn_ambient_temperature 100
_refine_special_details
;
The structure is disordered.

;
#These two values have been output from a single CSD field.
_refine_ls_R_factor_gt 0.0299
_refine_ls_wR_factor_gt 0.0299
_symmetry_cell_setting orthorhombic
_symmetry_space_group_name_H-M 'P b c n'
_symmetry_Int_Tables_number 60
loop_
_symmetry_equiv_pos_site_id
_symmetry_equiv_pos_as_xyz
1 x,y,z
2 1/2-x,1/2-y,1/2+z
3 -x,y,1/2-z
4 1/2+x,1/2-y,-z
5 -x,-y,-z
6 -1/2+x,-1/2+y,-1/2-z
7 x,-y,-1/2+z
8 -1/2-x,-1/2+y,z
_cell_length_a 19.5372(6)
_cell_length_b 13.2256(4)
_cell_length_c 11.1800(3)
_cell_angle_alpha 90
_cell_angle_beta 90
_cell_angle_gamma 90
_cell_formula_units_Z 4
loop_
_atom_type_symbol
_atom_type_radius_bond
C 0.68
H 0.23
N 0.68
O 0.68
U 1.96
loop_
_atom_site_label
_atom_site_type_symbol
_atom_site_fract_x
_atom_site_fract_y
_atom_site_fract_z
U1 U 0.72615(2) 0.63402(2) 0.79362(2)
O1 O 0.7723(2) 0.6121(3) 0.6596(4)
O2 O 0.6792(2) 0.6621(3) 0.9253(4)
O3 O 0.7844(2) 0.7924(3) 0.8087(4)
O4 O 0.7864(2) 0.9590(3) 0.8281(4)
O5 O 0.6254(2) 0.5970(3) 0.6921(4)
O6 O 0.5217(2) 0.6336(4) 0.6215(4)
O7 O 0.6771(2) 0.9015(3) 0.4051(4)
O8 O 0.6100(3) 0.9495(4) 0.5547(4)
N1 N 0.6605(3) 0.7910(4) 0.7071(5)
C1 C 0.6787(3) 0.8800(5) 0.7821(6)
H1 H 0.65304 0.87780 0.85840
H2 H 0.66649 0.94321 0.73977
C2 C 0.7552(3) 0.8778(5) 0.8069(6)
C3 C 0.5869(3) 0.7664(5) 0.7113(6)
H3 H 0.56116 0.81351 0.65928
H4 H 0.56973 0.77418 0.79415
C4 C 0.5757(3) 0.6583(5) 0.6694(6)
C5 C 0.6846(3) 0.8051(5) 0.5831(6)
H5 H 0.67554 0.74190 0.53845
H6 H 0.73484 0.81467 0.58526
C6 C 0.6533(3) 0.8934(5) 0.5121(6)
O9 O 0.5220(6) 0.0423(8) 0.7167(10)
O10 O 0.5280(5) 0.0689(8) 0.4221(10)
O11 O 0.5858(7) 0.1657(11) 0.5429(13)
N2 N 0.50000 0.2426(7) 0.75000
H7 H 0.49702 0.17152 0.76678
N3 N 0.5179(5) 0.4307(8) 0.6940(9)
H8 H 0.51973 0.50185 0.67705
C7 C 0.5336(8) 0.2937(10) 0.8447(10)
H9 H 0.58136 0.27541 0.83859
H10 H 0.51716 0.27307 0.92254
C8 C 0.5344(8) 0.4067(11) 0.8175(10)
H11 H 0.49826 0.43157 0.86861
H12 H 0.57650 0.44067 0.83821
C9 C 0.5546(7) 0.2656(10) 0.6441(11)
H13 H 0.53850 0.23495 0.57086
H14 H 0.59708 0.23320 0.66587
C10 C 0.5677(6) 0.3800(9) 0.6169(11)
H15 H 0.61374 0.39774 0.64000
H16 H 0.56120 0.39613 0.53324
C11 C 0.4414(5) 0.2835(10) 0.6980(14)
H17 H 0.41415 0.28580 0.77015
H18 H 0.41808 0.24260 0.63928
C12 C 0.4501(6) 0.394(1) 0.6650(13)
H19 H 0.44385 0.39369 0.57910
H20 H 0.41670 0.43920 0.69908
U1A U 0.77385(2) 0.86598(2) 0.29362(2)
U1G U 0.77385(2) 1.13402(2) 0.79362(2)
O4G O 0.7136(2) 0.4590(3) 0.8281(4)
O7A O 0.8229(2) 0.5985(3) 0.9051(4)
H7B H 0.50298 0.17152 0.73322
N3B N 0.4821(5) 0.4307(8) 0.8060(9)
H8B H 0.48027 0.50185 0.82295
C7B C 0.4664(8) 0.2937(10) 0.6553(10)
H9B H 0.41864 0.27541 0.66141
H10B H 0.48284 0.27307 0.57746
C8B C 0.4656(8) 0.4067(11) 0.6825(10)
H11B H 0.50174 0.43157 0.63139
H12B H 0.42350 0.44067 0.66179
C9B C 0.4454(7) 0.2656(10) 0.8559(11)
H13B H 0.46150 0.23495 0.92914
H14B H 0.40292 0.23320 0.83413
C10B C 0.4323(6) 0.3800(9) 0.8831(11)
H15B H 0.38626 0.39774 0.86000
H16B H 0.43880 0.39613 0.96676
C11B C 0.5586(5) 0.2835(10) 0.8020(14)
H17B H 0.58585 0.28580 0.72985
H18B H 0.58192 0.24260 0.86072
C12B C 0.5499(6) 0.394(1) 0.8350(13)
H19B H 0.55615 0.39369 0.92090
H20B H 0.58330 0.43920 0.80092
#END
