
#######################################################################
#
#                 Cambridge Crystallographic Data Centre
#                                CCDC
#
#######################################################################
#
# If this CIF has been generated from an entry in the Cambridge
# Structural Database, then it will include bibliographic, chemical,
# crystal, experimental, refinement or atomic coordinate data resulting
# from the CCDC's data processing and validation procedures.
#
#######################################################################

data_CSD_CIF_ETIKOK
_audit_creation_date 2021-05-24
_audit_creation_method CSD-ConQuest-V1
_database_code_CSD ETIKOK
_database_code_depnum_ccdc_archive 'CCDC 2055977'
_chemical_formula_sum 'C72 H109 N21 O24 Pb4'
_chemical_formula_moiety
;
(C63 H81 N18 O18 Pb4 1-)n,n(H3 O1 1+),3n(C3 H7 N1 O1),2n(H2 O1)
;
_journal_coden_Cambridge 9
_journal_volume 60
_journal_year 2021
_journal_page_first 7887
_journal_name_full 'Inorg.Chem. '
loop_
_publ_author_name
"Shuang Yu"
"Kai Yue Zhang"
"Jin Xiao Li"
"Yao Xiao"
"Li Xian Sun"
"Feng Ying Bai"
"Yong Heng Xing"
_chemical_name_systematic
;
catena-(oxonium 
tris(\m-1,1',1''-(1,3,5-triazine-2,4,6-triyl)tris(piperidine-4-carboxylato))-t
etra-lead dimethylformamide solvate dihydrate)
;
_cell_volume   4515.917
_exptl_crystal_colour 'colorless'
_exptl_crystal_description 'block'
_diffrn_ambient_temperature 296.1
_refine_special_details
;
The SQUEEZE/PLATON program was used to model the cation and solvent 
;
#These two values have been output from a single CSD field.
_refine_ls_R_factor_gt 0.0435
_refine_ls_wR_factor_gt 0.0435
_symmetry_cell_setting triclinic
_symmetry_space_group_name_H-M 'P -1'
_symmetry_Int_Tables_number 2
loop_
_symmetry_equiv_pos_site_id
_symmetry_equiv_pos_as_xyz
1 x,y,z
2 -x,-y,-z
_cell_length_a 16.2132(8)
_cell_length_b 18.0795(9)
_cell_length_c 18.3043(9)
_cell_angle_alpha 110.720(1)
_cell_angle_beta 113.298(1)
_cell_angle_gamma 91.837(1)
_cell_formula_units_Z 2
loop_
_atom_type_symbol
_atom_type_radius_bond
C 0.68
H 0.23
N 0.68
O 0.68
Pb 1.46
loop_
_atom_site_label
_atom_site_type_symbol
_atom_site_fract_x
_atom_site_fract_y
_atom_site_fract_z
Pb1 Pb 0.14829(2) 0.31629(2) 0.09780(2)
Pb2 Pb 1.02570(2) 0.60585(2) 0.08996(2)
Pb3 Pb 0.87265(2) 0.94151(2) 0.90876(2)
Pb4 Pb -0.06807(2) 1.15173(2) 0.87384(2)
O1 O 0.0743(5) 0.5375(4) 0.9228(5)
O2 O 0.0513(4) 0.6593(4) 0.9852(4)
O3 O 0.0330(3) 1.0449(3) 0.9263(3)
O4 O 0.0228(3) 1.0744(3) 0.8161(3)
O5 O 0.2337(5) 0.3694(5) 0.2538(5)
O6 O 0.1363(5) 0.4472(4) 0.2275(5)
O7 O 0.2394(4) 0.4210(3) 0.0974(4)
O8 O 0.1137(3) 0.4669(3) 0.0561(4)
O9 O 0.7092(4) 0.7269(3) 0.9009(4)
O10 O 0.7849(3) 0.8207(3) 0.8923(4)
O11 O 0.7752(4) 0.8846(3) 0.7506(3)
O12 O 0.8327(3) 1.0119(3) 0.7972(3)
O13 O 0.7477(3) 1.0007(3) 0.9201(3)
O14 O 0.8427(3) 1.1165(3) 0.9707(3)
O15 O 0.1380(5) 0.8549(4) 0.2668(3)
O16 O 0.1499(3) 0.7328(3) 0.1961(3)
O17 O 0.9150(5) 0.6537(4) 0.1507(5)
O18 O 0.9384(3) 0.7244(3) 0.0831(3)
N1 N 0.1957(5) 0.6649(5) 0.7821(4)
N2 N 0.2168(5) 0.6285(4) 0.6574(4)
N3 N 0.2470(5) 0.5949(4) 0.5381(4)
N4 N 0.3399(4) 0.7053(4) 0.6592(4)
N5 N 0.3165(4) 0.7417(4) 0.7869(4)
N6 N 0.4337(4) 0.8143(4) 0.7844(4)
N7 N 0.2954(4) 0.8649(4) 0.5389(4)
N8 N 0.3943(4) 0.9732(3) 0.6619(3)
N9 N 0.2664(4) 0.9013(3) 0.6584(3)
N10 N 0.3706(4) 1.0076(3) 0.7902(3)
N11 N 0.2500(4) 0.9324(4) 0.7839(4)
N12 N 0.4862(4) 1.0837(4) 0.7878(4)
N13 N 0.6929(4) 0.7787(3) 0.2086(3)
N14 N 0.5596(3) 0.7220(3) 0.2029(3)
N15 N 0.5398(3) 0.7656(3) 0.3335(3)
N16 N 0.6781(3) 0.8192(3) 0.3358(3)
N17 N 0.4293(3) 0.6713(3) 0.2043(3)
N18 N 0.6562(3) 0.8582(3) 0.4594(3)
C1 C 0.0684(6) 0.6086(5) 0.9285(6)
C2 C 0.0947(6) 0.6356(5) 0.8710(5)
H1 H 0.05101 0.66884 0.85253
C3 C 0.0886(7) 0.5714(6) 0.7887(6)
H2 H 0.13268 0.53778 0.80295
H3 H 0.02783 0.53734 0.75634
C4 C 0.1072(7) 0.6082(7) 0.7337(6)
H4 H 0.10708 0.56578 0.68317
H5 H 0.05872 0.63639 0.71368
C5 C 0.2079(7) 0.7258(6) 0.8649(6)
H6 H 0.16797 0.76350 0.85454
H7 H 0.27065 0.75579 0.89657
C6 C 0.1871(6) 0.6899(5) 0.9182(5)
H8 H 0.19024 0.73282 0.96990
H9 H 0.23346 0.65926 0.93651
C7 C 0.2445(5) 0.6793(5) 0.7406(5)
C8 C 0.2700(5) 0.6456(5) 0.6223(5)
C9 C 0.3605(4) 0.7519(4) 0.7422(5)
C10 C 0.1916(7) 0.5162(6) 0.5036(6)
H10 H 0.14080 0.52144 0.51915
H11 H 0.22813 0.48336 0.53025
C11 C 0.1538(7) 0.4730(6) 0.4056(6)
H12 H 0.10942 0.50091 0.37811
H13 H 0.12267 0.41849 0.38729
C12 C 0.2301(7) 0.4701(5) 0.3765(5)
H14 H 0.27494 0.44269 0.40547
C13 C 0.2761(7) 0.5570(6) 0.4080(5)
H15 H 0.32443 0.55839 0.38966
H16 H 0.23159 0.58583 0.38238
C14 C 0.3161(6) 0.5981(6) 0.5060(5)
H17 H 0.36449 0.57207 0.53131
H18 H 0.34310 0.65402 0.52453
C15 C 0.1949(6) 0.4251(6) 0.2804(6)
C16 C 0.1991(5) 0.4755(4) 0.0857(4)
C17 C 0.2563(4) 0.5575(4) 0.1136(4)
H19 H 0.21516 0.59117 0.09197
C18 C 0.3276(4) 0.5506(4) 0.0770(4)
H20 H 0.36579 0.51380 0.09387
H21 H 0.29648 0.52869 0.01413
C19 C 0.3867(5) 0.6317(4) 0.1101(4)
H22 H 0.43420 0.62503 0.09002
H23 H 0.34957 0.66585 0.08628
C20 C 0.3632(4) 0.6792(4) 0.2418(4)
H24 H 0.32444 0.71559 0.22480
H25 H 0.39603 0.70234 0.30463
C21 C 0.3041(4) 0.5982(4) 0.2118(4)
H26 H 0.25864 0.60568 0.23441
H27 H 0.34203 0.56386 0.23450
C22 C 0.5124(4) 0.7219(3) 0.2488(4)
C23 C 0.6416(4) 0.7731(4) 0.2507(4)
C24 C 0.6229(4) 0.8131(4) 0.3736(3)
C25 C 0.7770(5) 0.8384(4) 0.2508(5)
H28 H 0.79559 0.86276 0.31283
H29 H 0.76680 0.88072 0.22907
C26 C 0.8525(5) 0.7984(4) 0.2328(4)
H30 H 0.86813 0.76138 0.26153
H31 H 0.90691 0.83938 0.25691
C27 C 0.8229(4) 0.7520(4) 0.1352(4)
H32 H 0.81580 0.79039 0.10752
C28 C 0.7317(5) 0.6937(4) 0.0947(4)
H33 H 0.71037 0.66844 0.03235
H34 H 0.74046 0.65156 0.11670
C29 C 0.6600(5) 0.7364(5) 0.1149(4)
H35 H 0.64640 0.77482 0.08791
H36 H 0.60406 0.69745 0.09139
C30 C 0.8968(5) 0.7062(5) 0.1230(5)
C31 C 0.7429(5) 0.9168(4) 0.5058(4)
H37 H 0.73105 0.96908 0.50601
H38 H 0.78154 0.89991 0.47626
C32 C 0.7919(4) 0.9235(4) 0.5983(4)
H39 H 0.84680 0.96542 0.62935
H40 H 0.81045 0.87294 0.59790
C33 C 0.7306(4) 0.9435(4) 0.6458(3)
H41 H 0.71732 0.99695 0.65021
C34 C 0.6404(5) 0.8829(5) 0.5937(4)
H42 H 0.65131 0.83035 0.59315
H43 H 0.59977 0.89921 0.62107
C35 C 0.5948(4) 0.8769(5) 0.5013(4)
H44 H 0.53970 0.83510 0.46848
H45 H 0.57701 0.92767 0.50136
C36 C 0.7832(4) 0.9478(4) 0.7372(4)
C37 C 0.4896(5) 0.8282(5) 0.7426(5)
H46 H 0.50707 0.88571 0.75968
H47 H 0.45388 0.80359 0.68007
C38 C 0.5750(5) 0.7929(4) 0.7676(4)
H48 H 0.61267 0.80527 0.74180
H49 H 0.55780 0.73462 0.74562
C39 C 0.6302(4) 0.8279(4) 0.8670(4)
H50 H 0.65119 0.88594 0.88678
C40 C 0.5683(4) 0.8169(5) 0.9083(5)
H51 H 0.60208 0.84361 0.97086
H52 H 0.55093 0.75986 0.89353
C41 C 0.4823(5) 0.8509(5) 0.8787(5)
H53 H 0.44292 0.83964 0.90351
H54 H 0.49866 0.90900 0.89854
C42 C 0.7139(5) 0.7906(4) 0.8889(4)
C43 C 0.7635(4) 1.0731(4) 0.9312(4)
C44 C 0.6812(4) 1.1079(4) 0.8935(4)
H55 H 0.70228 1.16545 0.91036
C45 C 0.6371(4) 1.0661(4) 0.7937(4)
H56 H 0.68078 1.07667 0.77286
H57 H 0.62234 1.00819 0.77624
C46 C 0.5508(4) 1.0949(4) 0.7523(5)
H58 H 0.56599 1.15150 0.76396
H59 H 0.52262 1.06454 0.68992
C47 C 0.5235(5) 1.1281(4) 0.8816(5)
H60 H 0.47789 1.11954 0.90118
H61 H 0.53846 1.18543 0.89609
C48 C 0.6099(4) 1.0996(4) 0.9275(4)
H62 H 0.59364 1.04367 0.91758
H63 H 0.63605 1.13160 0.98948
C49 C 0.4150(4) 1.0188(4) 0.7451(4)
C50 C 0.3206(5) 0.9147(4) 0.6232(4)
C51 C 0.2972(4) 0.9478(4) 0.7424(4)
C52 C 0.3568(5) 0.8603(5) 0.4976(4)
H64 H 0.38420 0.81323 0.49643
H65 H 0.40561 0.90780 0.53105
C53 C 0.3050(5) 0.8548(4) 0.4062(4)
H66 H 0.34599 0.84691 0.37842
H67 H 0.28579 0.90548 0.40848
C54 C 0.2214(5) 0.7867(4) 0.3515(4)
H68 H 0.24182 0.73508 0.34141
C55 C 0.1623(5) 0.7919(4) 0.4008(4)
H69 H 0.13501 0.83922 0.40417
H70 H 0.11311 0.74473 0.36915
C56 C 0.2182(5) 0.7968(5) 0.4913(4)
H71 H 0.17985 0.80297 0.52165
H72 H 0.24062 0.74718 0.48821
C57 C 0.1656(5) 0.7904(4) 0.2652(4)
C58 C 0.1592(5) 0.8800(5) 0.7387(5)
H73 H 0.15921 0.83939 0.76195
H74 H 0.14326 0.85277 0.67739
C59 C 0.0887(4) 0.9323(4) 0.7515(4)
H75 H 0.08513 0.96965 0.72375
H76 H 0.02861 0.89794 0.72451
C60 C 0.1162(4) 0.9792(4) 0.8478(4)
H77 H 0.11342 0.94030 0.87328
C61 C 0.2131(4) 1.0284(4) 0.8950(4)
H78 H 0.23073 1.05227 0.95685
H79 H 0.21548 1.07185 0.87595
C62 C 0.2800(5) 0.9752(5) 0.8769(4)
H80 H 0.34052 1.00845 0.90284
H81 H 0.28400 0.93650 0.90319
C63 C 0.0520(4) 1.0358(4) 0.8633(4)
Pb1A Pb 0.85171(2) 0.68371(2) -0.09780(2)
Pb1A* Pb 0.85171(2) 0.68371(2) 0.90220(2)
Pb2* Pb 0.02570(2) 0.60585(2) 0.08996(2)
Pb2** Pb 0.02570(2) 0.60585(2) 1.08996(2)
Pb2A Pb -0.02570(2) 0.39415(2) -0.08996(2)
Pb2A* Pb -0.02570(2) 0.39415(2) 0.91004(2)
Pb3A Pb 0.12735(2) 1.05849(2) 1.09124(2)
Pb4* Pb 0.93193(2) 1.15173(2) 0.87384(2)
Pb4A Pb 0.06807(2) 0.84827(2) 0.12616(2)
Pb4A* Pb 1.06807(2) 0.84827(2) 0.12616(2)
O1A O 0.9257(5) 0.4625(4) 0.0772(5)
O2* O 1.0513(4) 0.6593(4) -0.0148(4)
O3A O 0.9670(3) 0.9551(3) 1.0737(3)
O8* O 1.1137(3) 0.4669(3) 0.0561(4)
O8A O 0.8863(3) 0.5331(3) -0.0561(4)
O9A O 0.2908(4) 0.2731(3) 0.0991(4)
O10A O 0.2151(3) 0.1793(3) 0.1077(4)
O12* O -0.1673(3) 1.0119(3) 0.7972(3)
O14* O -0.1573(3) 1.1165(3) 0.9707(3)
O15A O -0.1380(5) 1.1451(4) 0.7332(3)
O16* O 1.1499(3) 0.7328(3) 0.1961(3)
O16A O -0.1499(3) 1.2672(3) 0.8039(3)
O18A O 0.0616(3) 0.2756(3) -0.0831(3)
O18A* O 0.0616(3) 1.2756(3) 0.9169(3)
#END
