
#######################################################################
#
#                 Cambridge Crystallographic Data Centre
#                                CCDC
#
#######################################################################
#
# If this CIF has been generated from an entry in the Cambridge
# Structural Database, then it will include bibliographic, chemical,
# crystal, experimental, refinement or atomic coordinate data resulting
# from the CCDC's data processing and validation procedures.
#
#######################################################################

data_CSD_CIF_ETOWOC01
_audit_creation_date 2021-05-25
_audit_creation_method CSD-ConQuest-V1
_database_code_CSD ETOWOC01
_database_code_depnum_ccdc_archive 'CCDC 1967433'
_chemical_formula_sum 'C46 H39 Fe1 N20 O2 W1'
_chemical_formula_moiety
;
(C32 H20 Fe1 N16 W1 1-)n,C12 H11 N4 1+,2(C1 H4 O1)
;
_journal_coden_Cambridge 1441
_journal_volume 13
_journal_year 2021
_journal_page_first 698
_journal_name_full 'Nature Chemistry '
loop_
_publ_author_name
"Liang Zhao"
"Yin-Shan Meng"
"Qiang Liu"
"O.Sato"
"Quan Shi"
"H.Oshio"
"Tao Liu"
_chemical_name_systematic
;
catena-[1-[4-(1H-imidazol-1-yl)phenyl]-1H-imidazol-3-ium 
bis(\m-1,1'-(1,4-phenylene)di(1H-imidazole))-bis(\m-cyano)-hexacyano-iron(ii)-
tungsten(v) methanol solvate]
;
_cell_volume   4565.503
_exptl_crystal_colour 'brown'
_exptl_crystal_density_diffrn 1.665
_exptl_crystal_description 'block'
_diffrn_ambient_temperature 200
#These two values have been output from a single CSD field.
_refine_ls_R_factor_gt 0.0258
_refine_ls_wR_factor_gt 0.0258
_symmetry_cell_setting monoclinic
_symmetry_space_group_name_H-M 'C 2/c'
_symmetry_Int_Tables_number 15
loop_
_symmetry_equiv_pos_site_id
_symmetry_equiv_pos_as_xyz
1 x,y,z
2 -x,y,1/2-z
3 1/2+x,1/2+y,z
4 1/2-x,1/2+y,1/2-z
5 -x,-y,-z
6 x,-y,-1/2+z
7 -1/2-x,-1/2-y,-z
8 -1/2+x,-1/2-y,-1/2+z
_cell_length_a 21.3535(8)
_cell_length_b 11.6042(4)
_cell_length_c 19.2572(6)
_cell_angle_alpha 90
_cell_angle_beta 106.907(1)
_cell_angle_gamma 90
_cell_formula_units_Z 4
loop_
_atom_type_symbol
_atom_type_radius_bond
C 0.68
H 0.23
Fe 1.52
N 0.68
O 0.68
W 1.62
loop_
_atom_site_label
_atom_site_type_symbol
_atom_site_fract_x
_atom_site_fract_y
_atom_site_fract_z
W1 W 0.50000 0.70985(2) 0.75000
Fe1 Fe 0.50000 0.50000 0.50000
N1 N 0.48723(11) 0.5698(2) 0.59765(12)
N2 N 0.62013(15) 0.8470(3) 0.87021(15)
N3 N 0.42836(15) 0.8673(2) 0.84833(15)
N4 N 0.37032(14) 0.5431(3) 0.73228(16)
N5 N 0.54130(11) 0.3435(2) 0.55791(12)
N6 N 0.61024(12) 0.2361(2) 0.63978(13)
N7 N 0.80171(11) 0.0928(2) 0.89181(12)
N8 N 0.89819(11) 0.0598(2) 0.97050(13)
C1 C 0.48831(13) 0.6169(2) 0.65010(14)
C2 C 0.57811(15) 0.7998(3) 0.82922(16)
C3 C 0.45179(15) 0.8162(2) 0.81166(15)
C4 C 0.41459(14) 0.6021(3) 0.73873(15)
C5 C 0.58516(13) 0.3421(3) 0.62266(15)
H1 H 0.59709 0.40635 0.65248
C6 C 0.53802(16) 0.2320(3) 0.53255(17)
H2 H 0.51119 0.20699 0.48792
C7 C 0.57986(16) 0.1643(3) 0.58252(17)
H3 H 0.58671 0.08563 0.57900
C8 C 0.65905(13) 0.2024(2) 0.70473(15)
C9 C 0.65624(14) 0.0931(3) 0.73184(17)
H4 H 0.62260 0.04335 0.70842
C10 C 0.70345(14) 0.0577(3) 0.79384(16)
H5 H 0.70168 -0.01597 0.81225
C11 C 0.75306(13) 0.1318(3) 0.82817(15)
C12 C 0.75631(14) 0.2424(3) 0.80158(16)
H6 H 0.78988 0.29218 0.82521
C13 C 0.70879(15) 0.2775(3) 0.73930(16)
H7 H 0.71033 0.35115 0.72083
C14 C 0.86639(13) 0.1179(2) 0.91184(15)
H8 H 0.88592 0.16947 0.88749
C15 C 0.79174(15) 0.0132(3) 0.94084(17)
H9 H 0.75231 -0.02089 0.94078
C16 C 0.85109(14) -0.0049(3) 0.98892(16)
H10 H 0.85910 -0.05398 1.02874
O1 O 0.2470(2) 0.5350(5) 0.6115(2)
H11 H 0.28101 0.53034 0.64492
C17 C 0.2440(3) 0.6495(7) 0.5754(4)
H12 H 0.21198 0.64703 0.52860
H13 H 0.28610 0.66749 0.56958
H14 H 0.23206 0.70755 0.60467
N9 N 0.18758(14) 0.2771(3) 0.46875(17)
N10 N 0.09458(12) 0.3051(2) 0.38581(14)
C18 C 0.14890(15) 0.2391(3) 0.40633(19)
H15 H 0.15772 0.17648 0.38051
C19 C 0.15738(18) 0.3691(4) 0.48939(19)
H16 H 0.17368 0.41167 0.53173
C20 C 0.09993(17) 0.3880(3) 0.43823(18)
H17 H 0.06983 0.44586 0.43839
C21 C 0.04546(14) 0.3008(3) 0.31703(17)
C22 C 0.02289(16) 0.4040(3) 0.28369(19)
H18 H 0.03844 0.47326 0.30650
C23 C 0.02272(16) 0.1972(3) 0.28402(18)
H19 H 0.03779 0.12800 0.30725
H20? H 0.22504 0.24902 0.49215
N1A N 0.51277(11) 0.5698(2) 0.90235(12)
N2A N 0.37987(15) 0.8470(3) 0.62979(15)
N3A N 0.57164(15) 0.8673(2) 0.65167(15)
N4A N 0.62968(14) 0.5431(3) 0.76772(16)
C1A C 0.51169(13) 0.6169(2) 0.84990(14)
C2A C 0.42189(15) 0.7998(3) 0.67078(16)
C3A C 0.54821(15) 0.8162(2) 0.68834(15)
C4A C 0.58541(14) 0.6021(3) 0.76127(15)
N5D N 0.45870(11) 0.6565(2) 0.44209(12)
N6D N 0.38976(12) 0.7639(2) 0.36022(13)
N7D N 0.19829(11) 0.9072(2) 0.10819(12)
N8D N 0.10181(11) 0.9402(2) 0.02950(13)
C5D C 0.41484(13) 0.6579(3) 0.37734(15)
H1D H 0.40291 0.59365 0.34752
C6D C 0.46198(16) 0.7680(3) 0.46745(17)
H2D H 0.48881 0.79301 0.51208
C7D C 0.42014(16) 0.8357(3) 0.41748(17)
H3D H 0.41329 0.91437 0.42100
C8D C 0.34095(13) 0.7976(2) 0.29527(15)
C9D C 0.34376(14) 0.9069(3) 0.26816(17)
H4D H 0.37740 0.95665 0.29158
C10D C 0.29655(14) 0.9423(3) 0.20616(16)
H5D H 0.29832 1.01597 0.18775
C11D C 0.24694(13) 0.8682(3) 0.17183(15)
C12D C 0.24369(14) 0.7576(3) 0.19842(16)
H6D H 0.21012 0.70782 0.17479
C13D C 0.29121(15) 0.7225(3) 0.26070(16)
H7D H 0.28967 0.64885 0.27917
C14D C 0.13361(13) 0.8821(2) 0.08816(15)
H8D H 0.11408 0.83053 0.11251
C15D C 0.20826(15) 0.9868(3) 0.05916(17)
H9D H 0.24769 1.02089 0.05922
C16D C 0.14891(14) 1.0049(3) 0.01108(16)
H10D H 0.14090 1.05398 -0.02874
Fe1A Fe 0.50000 0.50000 1.00000
Fe1C Fe 0.00000 1.00000 0.00000
Fe1C* Fe 1.00000 0.00000 1.00000
N1D N 0.51277(11) 0.4302(2) 0.40235(12)
N8C N 0.60181(11) 0.5598(2) 0.52950(13)
N8G N 0.39819(11) 0.4402(2) 0.47050(13)
N9A N -0.18758(14) 0.2771(3) 0.03125(17)
N10A N -0.09458(12) 0.3051(2) 0.11419(14)
C18A C -0.14890(15) 0.2391(3) 0.09367(19)
H15A H -0.15772 0.17648 0.11949
C19A C -0.15738(18) 0.3691(4) 0.01061(19)
H16A H -0.17368 0.41167 -0.03173
C20A C -0.09993(17) 0.3880(3) 0.06177(18)
H17A H -0.06983 0.44586 0.06161
C21A C -0.04546(14) 0.3008(3) 0.18297(17)
C22A C -0.02289(16) 0.4040(3) 0.21631(19)
H18A H -0.03844 0.47326 0.19350
C23A C -0.02272(16) 0.1972(3) 0.21598(18)
H19A H -0.03779 0.12800 0.19275
#END
