
#######################################################################
#
#                 Cambridge Crystallographic Data Centre
#                                CCDC
#
#######################################################################
#
# If this CIF has been generated from an entry in the Cambridge
# Structural Database, then it will include bibliographic, chemical,
# crystal, experimental, refinement or atomic coordinate data resulting
# from the CCDC's data processing and validation procedures.
#
#######################################################################

data_CSD_CIF_ETOWOC
_audit_creation_date 2021-05-25
_audit_creation_method CSD-ConQuest-V1
_database_code_CSD ETOWOC
_database_code_depnum_ccdc_archive 'CCDC 1967426'
_chemical_formula_sum 'C46 H39 Fe1 N20 O2 W1'
_chemical_formula_moiety
;
(C32 H20 Fe1 N16 W1 1-)n,C12 H11 N4 1+,2(C1 H4 O1)
;
_journal_coden_Cambridge 1441
_journal_volume 13
_journal_year 2021
_journal_page_first 698
_journal_name_full 'Nature Chemistry '
loop_
_publ_author_name
"Liang Zhao"
"Yin-Shan Meng"
"Qiang Liu"
"O.Sato"
"Quan Shi"
"H.Oshio"
"Tao Liu"
_chemical_name_systematic
;
catena-[1-[4-(1H-imidazol-1-yl)phenyl]-1H-imidazol-3-ium 
bis(\m-1,1'-(1,4-phenylene)bis(1H-imidazole))-bis(\m-cyano)-hexacyano-iron(ii)
-tungsten(v) methanol solvate]
;
_cell_volume   4454.928
_exptl_crystal_colour 'brown'
_exptl_crystal_density_diffrn 1.705
_exptl_crystal_description 'block'
_diffrn_ambient_temperature 28
#These two values have been output from a single CSD field.
_refine_ls_R_factor_gt 0.0475
_refine_ls_wR_factor_gt 0.0475
_symmetry_cell_setting monoclinic
_symmetry_space_group_name_H-M 'C 2/c'
_symmetry_Int_Tables_number 15
loop_
_symmetry_equiv_pos_site_id
_symmetry_equiv_pos_as_xyz
1 x,y,z
2 -x,y,1/2-z
3 1/2+x,1/2+y,z
4 1/2-x,1/2+y,1/2-z
5 -x,-y,-z
6 x,-y,-1/2+z
7 -1/2-x,-1/2-y,-z
8 -1/2+x,-1/2-y,-1/2+z
_cell_length_a 21.197(3)
_cell_length_b 11.4973(19)
_cell_length_c 19.052(3)
_cell_angle_alpha 90
_cell_angle_beta 106.369(5)
_cell_angle_gamma 90
_cell_formula_units_Z 4
loop_
_atom_type_symbol
_atom_type_radius_bond
C 0.68
H 0.23
Fe 1.52
N 0.68
O 0.68
W 1.62
loop_
_atom_site_label
_atom_site_type_symbol
_atom_site_fract_x
_atom_site_fract_y
_atom_site_fract_z
W1 W 0.50000 0.71156(2) 0.75000
Fe1 Fe 0.50000 0.50000 0.50000
N1 N 0.4878(2) 0.5704(4) 0.5965(2)
N2 N 0.3679(2) 0.5472(4) 0.7326(3)
N3 N 0.6203(2) 0.8478(4) 0.8718(3)
N4 N 0.5715(2) 0.8708(4) 0.6492(2)
N5 N 0.4580(2) 0.6543(4) 0.4418(2)
N6 N 0.3886(2) 0.7624(4) 0.3591(2)
N7 N 0.1972(2) 0.9058(4) 0.1054(2)
N8 N 0.1006(2) 0.9399(4) 0.0274(2)
C1 C 0.4891(2) 0.6160(4) 0.6496(3)
C2 C 0.4135(2) 0.6049(4) 0.7393(3)
C3 C 0.5780(2) 0.8017(4) 0.8300(3)
C4 C 0.5483(2) 0.8190(4) 0.6869(3)
C5 C 0.4142(2) 0.6552(4) 0.3773(3)
H1 H 0.40234 0.58994 0.34772
C6 C 0.4615(3) 0.7676(4) 0.4673(3)
H2 H 0.48817 0.79313 0.51217
C7 C 0.4197(3) 0.8357(5) 0.4164(3)
H3 H 0.41331 0.91532 0.41943
C8 C 0.3402(2) 0.7952(4) 0.2938(3)
C9 C 0.3435(2) 0.9064(4) 0.2660(3)
H4 H 0.37712 0.95690 0.28945
C10 C 0.2961(2) 0.9414(4) 0.2030(3)
H5 H 0.29822 1.01509 0.18367
C11 C 0.2457(2) 0.8661(4) 0.1691(3)
C12 C 0.2426(2) 0.7548(4) 0.1964(3)
H6 H 0.20905 0.70421 0.17282
C13 C 0.2901(2) 0.7200(4) 0.2592(3)
H7 H 0.28830 0.64592 0.27807
C14 C 0.1324(2) 0.8813(4) 0.0858(3)
H8 H 0.11273 0.82927 0.11051
C15 C 0.2074(2) 0.9860(4) 0.0560(3)
H9 H 0.24730 1.01944 0.05567
C16 C 0.1485(2) 1.0062(4) 0.0086(3)
H10 H 0.14067 1.05685 -0.03098
O1 O 0.2438(3) 0.5426(5) 0.6123(3)
H11 H 0.27733 0.53955 0.64657
C17 C 0.2415(4) 0.6549(7) 0.5736(4)
H12 H 0.20859 0.65126 0.52723
H13 H 0.28357 0.67021 0.56602
H14 H 0.23075 0.71613 0.60258
N9 N 0.1879(2) 0.2770(4) 0.4693(3)
N10 N 0.0941(2) 0.3037(4) 0.3868(2)
C18 C 0.1487(2) 0.2384(5) 0.4071(3)
H15 H 0.15765 0.17508 0.38098
C19 C 0.1570(3) 0.3712(5) 0.4905(3)
H16 H 0.17338 0.41507 0.53279
C20 C 0.0992(3) 0.3887(4) 0.4395(3)
H17 H 0.06865 0.44667 0.43959
C21 C 0.0455(2) 0.2999(4) 0.3183(3)
C22 C 0.0223(2) 0.4048(4) 0.2837(3)
H18 H 0.03730 0.47492 0.30671
C23 C 0.0224(2) 0.1949(4) 0.2847(3)
H19 H 0.03686 0.12498 0.30833
H20? H 0.22559 0.24879 0.49242
N1A N 0.5122(2) 0.5704(4) 0.9035(2)
N2A N 0.6321(2) 0.5472(4) 0.7674(3)
N3A N 0.3797(2) 0.8478(4) 0.6282(3)
N4A N 0.4285(2) 0.8708(4) 0.8508(2)
C1A C 0.5109(2) 0.6160(4) 0.8504(3)
C2A C 0.5865(2) 0.6049(4) 0.7607(3)
C3A C 0.4220(2) 0.8017(4) 0.6700(3)
C4A C 0.4517(2) 0.8190(4) 0.8131(3)
N5D N 0.5420(2) 0.3457(4) 0.5582(2)
N6D N 0.6114(2) 0.2376(4) 0.6409(2)
N7D N 0.8028(2) 0.0942(4) 0.8946(2)
N8D N 0.8994(2) 0.0601(4) 0.9726(2)
C5D C 0.5858(2) 0.3448(4) 0.6227(3)
H1D H 0.59766 0.41006 0.65228
C6D C 0.5385(3) 0.2324(4) 0.5327(3)
H2D H 0.51183 0.20687 0.48783
C7D C 0.5803(3) 0.1643(5) 0.5836(3)
H3D H 0.58669 0.08468 0.58057
C8D C 0.6598(2) 0.2048(4) 0.7062(3)
C9D C 0.6565(2) 0.0936(4) 0.7340(3)
H4D H 0.62288 0.04310 0.71056
C10D C 0.7039(2) 0.0586(4) 0.7970(3)
H5D H 0.70178 -0.01509 0.81633
C11D C 0.7543(2) 0.1339(4) 0.8309(3)
C12D C 0.7574(2) 0.2452(4) 0.8036(3)
H6D H 0.79095 0.29579 0.82718
C13D C 0.7099(2) 0.2800(4) 0.7408(3)
H7D H 0.71170 0.35408 0.72193
C14D C 0.8676(2) 0.1187(4) 0.9142(3)
H8D H 0.88727 0.17073 0.88949
C15D C 0.7926(2) 0.0140(4) 0.9440(3)
H9D H 0.75270 -0.01944 0.94433
C16D C 0.8515(2) -0.0062(4) 0.9914(3)
H10D H 0.85933 -0.05685 1.03098
Fe1A Fe 0.50000 0.50000 1.00000
Fe1C Fe 0.00000 1.00000 0.00000
Fe1C* Fe 1.00000 0.00000 1.00000
N1D N 0.5122(2) 0.4296(4) 0.4035(2)
N8C N 0.3994(2) 0.4399(4) 0.4726(2)
N8G N 0.6006(2) 0.5601(4) 0.5274(2)
N9A N -0.1879(2) 0.2770(4) 0.0307(3)
N10A N -0.0941(2) 0.3037(4) 0.1132(2)
C18A C -0.1487(2) 0.2384(5) 0.0929(3)
H15A H -0.15765 0.17508 0.11902
C19A C -0.1570(3) 0.3712(5) 0.0095(3)
H16A H -0.17338 0.41507 -0.03279
C20A C -0.0992(3) 0.3887(4) 0.0605(3)
H17A H -0.06865 0.44667 0.06041
C21A C -0.0455(2) 0.2999(4) 0.1817(3)
C22A C -0.0223(2) 0.4048(4) 0.2163(3)
H18A H -0.03730 0.47492 0.19329
C23A C -0.0224(2) 0.1949(4) 0.2153(3)
H19A H -0.03686 0.12498 0.19167
#END
