
#######################################################################
#
#                 Cambridge Crystallographic Data Centre
#                                CCDC
#
#######################################################################
#
# If this CIF has been generated from an entry in the Cambridge
# Structural Database, then it will include bibliographic, chemical,
# crystal, experimental, refinement or atomic coordinate data resulting
# from the CCDC's data processing and validation procedures.
#
#######################################################################

data_CSD_CIF_ETUJUA
_audit_creation_date 2016-09-01
_audit_creation_method CSD-ConQuest-V1
_database_code_CSD ETUJUA
_database_code_depnum_ccdc_archive 'CCDC 1502069'
_chemical_formula_sum 'C24 H26 Cu4 I4 N4 Na1 Nd1 O13'
_chemical_formula_moiety
;
Na1 1+,n(C24 H20 Cu4 I4 N4 Nd1 O10 1-),3(H2 O1)
;
_journal_coden_Cambridge 1078
_journal_year 2016
_journal_name_full 'CSD Communication(Private Communication) '
loop_
_publ_author_name
"Hu Yue-Qiao"
_chemical_name_systematic
;
catena-[sodium 
tetrakis(\m-iodo)-tetrakis(\m-isonicotinato)-diaqua-tetra-copper(i)-neodymium(
iii) trihydrate]
;
_cell_volume  14141.163
_exptl_crystal_colour 'yellow'
_exptl_crystal_density_diffrn 1.403
_exptl_special_details
;
We calculate 43% void space in the structure

;
_exptl_crystal_description 'block'
_diffrn_ambient_temperature 150
_refine_special_details
;
Na2 disordered by symmetry over two configurations with occupancy 0.50; O1W 
and O1W' disordered over two sites with occupancies 0.50:0.50.
;
#These two values have been output from a single CSD field.
_refine_ls_R_factor_gt 0.0853
_refine_ls_wR_factor_gt 0.0853
_symmetry_cell_setting orthorhombic
_symmetry_space_group_name_H-M 'C 2 2 21'
_symmetry_Int_Tables_number 20
loop_
_symmetry_equiv_pos_site_id
_symmetry_equiv_pos_as_xyz
1 x,y,z
2 -x,-y,1/2+z
3 x,-y,-z
4 -x,y,1/2-z
5 1/2+x,1/2+y,z
6 1/2-x,1/2-y,1/2+z
7 1/2+x,1/2-y,-z
8 1/2-x,1/2+y,1/2-z
_cell_length_a 17.889(2)
_cell_length_b 31.835(4)
_cell_length_c 24.831(3)
_cell_angle_alpha 90
_cell_angle_beta 90
_cell_angle_gamma 90
_cell_formula_units_Z 8
loop_
_atom_type_symbol
_atom_type_radius_bond
C 0.68
H 0.23
Cu 1.32
I 1.40
N 0.68
Na 1.66
Nd 2.01
O 0.68
loop_
_atom_site_label
_atom_site_type_symbol
_atom_site_fract_x
_atom_site_fract_y
_atom_site_fract_z
Nd1 Nd 0.68555(6) -0.10695(3) -0.45493(6)
I1 I 0.20926(7) -0.01846(4) -0.33508(8)
I2 I 0.30618(8) 0.11143(5) -0.32733(8)
I3 I 0.18472(8) 0.07032(4) -0.47942(7)
I4 I 0.05507(7) 0.09470(4) -0.32693(7)
Cu1 Cu 0.26790(13) 0.05164(9) -0.39377(15)
Cu2 Cu 0.18508(17) 0.05902(9) -0.30492(13)
Cu3 Cu 0.12662(13) 0.03364(8) -0.39386(15)
Cu4 Cu 0.17187(15) 0.11162(7) -0.38624(14)
O1 O 0.7664(8) -0.1142(5) -0.5366(8)
O2 O 0.6792(7) -0.0652(4) -0.5427(6)
O3 O 0.7726(7) -0.0450(4) -0.4535(7)
O4 O 0.8221(8) -0.1021(5) -0.4238(8)
O5 O 0.6177(6) -0.0370(4) -0.4422(7)
O6 O 0.5472(8) -0.0930(4) -0.4487(8)
O7 O 0.7379(9) -0.1786(5) -0.4510(9)
O8 O 0.6307(9) -0.1699(5) -0.4063(9)
O9 O 0.6894(14) -0.0943(8) -0.3597(9)
H1 H 0.73030 -0.08220 -0.35160
H2 H 0.65290 -0.07860 -0.35100
O10 O 0.6183(12) -0.1515(7) -0.5243(12)
H3 H 0.64350 -0.15210 -0.55330
H4 H 0.57550 -0.14100 -0.53050
N1 N 0.8046(7) -0.0599(4) -0.7252(5)
C1 C 0.8354(7) -0.0932(4) -0.6967(6)
H5 H 0.87160 -0.11080 -0.71330
C2 C 0.8134(8) -0.1009(4) -0.6439(6)
H6 H 0.83450 -0.12360 -0.62450
C3 C 0.7604(7) -0.0751(5) -0.6196(5)
C4 C 0.7295(7) -0.0418(4) -0.6481(6)
H7 H 0.69340 -0.02420 -0.63150
C5 C 0.7516(7) -0.0341(4) -0.7009(6)
H8 H 0.73050 -0.01140 -0.72030
N2 N 1.0357(5) 0.0013(3) -0.4158(6)
C6 C 0.9717(6) 0.0233(3) -0.4305(7)
H9 H 0.97410 0.05280 -0.43590
C7 C 0.9044(5) 0.0022(3) -0.4372(7)
H10 H 0.86070 0.01720 -0.44730
C8 C 0.9010(5) -0.0410(3) -0.4293(7)
C9 C 0.9649(6) -0.0630(3) -0.4147(7)
H11 H 0.96260 -0.09260 -0.40920
C10 C 1.0323(5) -0.0419(3) -0.4079(6)
H12 H 1.07600 -0.05690 -0.39790
N3 N 0.3601(4) 0.0212(4) -0.4168(5)
C11 C 0.4305(5) 0.0387(3) -0.4093(5)
H13 H 0.43510 0.06710 -0.39800
C12 C 0.4942(4) 0.0147(3) -0.4183(5)
H14 H 0.54230 0.02670 -0.41310
C13 C 0.4875(5) -0.0268(3) -0.4349(6)
C14 C 0.4171(6) -0.0444(3) -0.4424(6)
H15 H 0.41250 -0.07280 -0.45370
C15 C 0.3534(4) -0.0204(4) -0.4334(6)
H16 H 0.30530 -0.03230 -0.43850
N4 N 0.6670(7) -0.3270(3) -0.4052(7)
C16 C 0.7236(8) -0.3102(4) -0.4369(7)
H17 H 0.75880 -0.32820 -0.45370
C17 C 0.7287(8) -0.2670(4) -0.4439(8)
H18 H 0.76740 -0.25550 -0.46550
C18 C 0.6772(9) -0.2405(3) -0.4192(9)
C19 C 0.6205(9) -0.2574(4) -0.3875(8)
H19 H 0.58530 -0.23930 -0.37070
C20 C 0.6154(7) -0.3006(4) -0.3805(7)
H20 H 0.57670 -0.31210 -0.35880
C21 C 0.7354(11) -0.0858(6) -0.5666(14)
C22 C 0.8266(10) -0.0661(7) -0.4350(9)
C23 C 0.5552(10) -0.0560(7) -0.4412(9)
C24 C 0.6844(16) -0.1924(7) -0.4240(14)
Na1 Na 0.6928(5) 0.00000 -0.50000
Na2 Na 0.4913(16) -0.1504(7) -0.3855(12)
O11 O 0.557(4) 0.134(2) 0.622(3)
O12 O 0.50000 0.014(3) 0.75000
O13 O 0.00000 0.024(3) 0.25000
O14 O 0.409(4) 0.152(2) 0.524(3)
O15? O 0.558(3) 0.1328(16) 0.668(2)
Cu2A Cu 0.81492(17) -0.05902(9) -0.80492(13)
Cu3* Cu 1.12662(13) 0.03364(8) -0.39386(15)
Cu4D Cu 0.67187(15) -0.38838(7) -0.38624(14)
N1A N 0.1954(7) 0.0599(4) -0.2252(5)
N2* N 0.0357(5) 0.0013(3) -0.4158(6)
N4D N 0.1670(7) 0.1730(3) -0.4052(7)
#END
