
#######################################################################
#
#                 Cambridge Crystallographic Data Centre
#                                CCDC
#
#######################################################################
#
# If this CIF has been generated from an entry in the Cambridge
# Structural Database, then it will include bibliographic, chemical,
# crystal, experimental, refinement or atomic coordinate data resulting
# from the CCDC's data processing and validation procedures.
#
#######################################################################

data_CSD_CIF_ETUMEM
_audit_creation_date 2011-08-15
_audit_creation_method CSD-ConQuest-V1
_database_code_CSD ETUMEM
_database_code_depnum_ccdc_archive 'CCDC 834224'
_chemical_formula_sum 'C26 H36 N12 O23 S2 Zn3'
_chemical_formula_moiety
;
(C26 H18 N12 O14 S2 Zn2 2-)n,n(H12 O6 Zn1 2+),3n(H2 O1)
;
_journal_coeditor_code "IUCr BR2168"
_journal_coden_Cambridge 1370
_journal_volume 67
_journal_year 2011
_journal_page_first m950
_journal_name_full 'Acta Crystallogr.,Sect.E:Struct.Rep.Online '
loop_
_publ_author_name
"Shang-Yuan Liu"
"Li Tian"
_chemical_name_systematic
;
catena-(Hexa-aqua-zinc 
bis(\m~2~-bis(1,2,4-triazol-1-yl)methane)-bis(\m~2~-5-sulfonatobenzene-1,3-dic
arboxylato)-di-zinc trihydrate)
;
_cell_volume   1997.877
_exptl_crystal_colour 'colorless'
_exptl_crystal_density_diffrn 1.9
_exptl_crystal_description 'block'
_diffrn_ambient_temperature 293
#These two values have been output from a single CSD field.
_refine_ls_R_factor_gt 0.0485
_refine_ls_wR_factor_gt 0.0485
_symmetry_cell_setting monoclinic
_symmetry_space_group_name_H-M 'P 21/c'
_symmetry_Int_Tables_number 14
loop_
_symmetry_equiv_pos_site_id
_symmetry_equiv_pos_as_xyz
1 x,y,z
2 -x,1/2+y,1/2-z
3 -x,-y,-z
4 x,-1/2-y,-1/2+z
_cell_length_a 10.2611(3)
_cell_length_b 16.9967(4)
_cell_length_c 11.4808(3)
_cell_angle_alpha 90
_cell_angle_beta 93.812(2)
_cell_angle_gamma 90
_cell_formula_units_Z 2
loop_
_atom_type_symbol
_atom_type_radius_bond
C 0.68
H 0.23
N 0.68
O 0.68
S 1.02
Zn 1.55
loop_
_atom_site_label
_atom_site_type_symbol
_atom_site_fract_x
_atom_site_fract_y
_atom_site_fract_z
Zn1 Zn -0.05241(5) -0.55461(3) -0.34476(5)
Zn2 Zn 0.50000 -0.50000 0.00000
C1 C -0.1029(5) -0.4156(3) -0.1941(5)
H1 H -0.16890 -0.44170 -0.15800
C2 C 0.0432(6) -0.3843(3) -0.3041(5)
H2 H 0.10130 -0.38710 -0.36280
C3 C -0.0915(6) -0.2937(3) -0.0690(4)
H3 H -0.07260 -0.23940 -0.08770
H4 H -0.18410 -0.29800 -0.05820
C4 C -0.0526(5) -0.3616(3) 0.1245(5)
H5 H -0.13550 -0.38280 0.13010
C5 C 0.1439(5) -0.3288(3) 0.1562(5)
H6 H 0.22700 -0.32390 0.19300
C6 C -0.6730(5) -0.5953(3) -0.4411(4)
C7 C -0.6825(5) -0.6457(3) -0.5376(4)
H7 H -0.76380 -0.66200 -0.56920
C8 C -0.5697(5) -0.6711(3) -0.5856(4)
C9 C -0.4483(5) -0.6463(3) -0.5416(4)
H8 H -0.37350 -0.66360 -0.57530
C10 C -0.4386(5) -0.5955(3) -0.4469(4)
C11 C -0.5488(5) -0.5714(3) -0.3965(4)
H9 H -0.54130 -0.53860 -0.33150
C12 C -0.7919(5) -0.5686(3) -0.3829(5)
C13 C -0.3060(5) -0.5704(3) -0.3949(4)
N1 N -0.0406(4) -0.4437(2) -0.2815(4)
N2 N -0.0580(4) -0.3444(2) -0.1649(4)
N3 N 0.0351(5) -0.3232(3) -0.2364(4)
N4 N -0.0173(4) -0.3161(2) 0.0379(4)
N5 N 0.1097(5) -0.2951(3) 0.0573(4)
N6 N 0.0471(4) -0.3722(2) 0.2015(4)
O1 O -0.9043(3) -0.5865(2) -0.4342(3)
O2 O -0.7810(3) -0.5338(2) -0.2874(3)
O3 O -0.2964(3) -0.5336(2) -0.3006(3)
O4 O -0.2056(3) -0.5882(2) -0.4489(3)
O5 O -0.6748(4) -0.8003(2) -0.6651(4)
O6 O -0.6336(4) -0.6976(2) -0.8042(4)
O7 O -0.4543(4) -0.7723(2) -0.7130(4)
O8 O 0.3948(5) -0.4282(3) 0.1028(5)
H10 H 0.38920 -0.42390 0.17730
H11 H 0.38610 -0.38080 0.07610
O9 O 0.6329(5) -0.4069(3) -0.0187(5)
H12 H 0.60460 -0.37390 -0.07220
H13 H 0.65110 -0.37840 0.04250
O10 O 0.3976(5) -0.4554(3) -0.1461(5)
H14 H 0.37210 -0.49290 -0.19190
H15 H 0.32840 -0.43120 -0.12550
O11 O 0.3350(5) -0.3076(3) -0.0994(4)
H16 H 0.38590 -0.26780 -0.10320
H17 H 0.25770 -0.28840 -0.09430
O12 O 0.133(2) -0.4698(11) -0.0390(18)
S1 S -0.58365(13) -0.74059(8) -0.70152(12)
Zn1B Zn 0.05241(5) -0.44539(3) 0.34476(5)
Zn1* Zn -1.05241(5) -0.55461(3) -0.34476(5)
Zn1B* Zn 1.05241(5) -0.44539(3) 0.34476(5)
C1B C 0.1029(5) -0.5844(3) 0.1941(5)
H1B H 0.16890 -0.55830 0.15800
C2B C -0.0432(6) -0.6157(3) 0.3041(5)
H2B H -0.10130 -0.61290 0.36280
C3B C 0.0915(6) -0.7063(3) 0.0690(4)
H3B H 0.07260 -0.76060 0.08770
H4B H 0.18410 -0.70200 0.05820
C4B C 0.0526(5) -0.6384(3) -0.1245(5)
H5B H 0.13550 -0.61720 -0.13010
C5B C -0.1439(5) -0.6712(3) -0.1562(5)
H6B H -0.22700 -0.67610 -0.19300
C6B C 0.6730(5) -0.4047(3) 0.4411(4)
C7B C 0.6825(5) -0.3543(3) 0.5376(4)
H7B H 0.76380 -0.33800 0.56920
C8B C 0.5697(5) -0.3289(3) 0.5856(4)
C9B C 0.4483(5) -0.3537(3) 0.5416(4)
H8B H 0.37350 -0.33640 0.57530
C10B C 0.4386(5) -0.4045(3) 0.4469(4)
C11B C 0.5488(5) -0.4286(3) 0.3965(4)
H9B H 0.54130 -0.46140 0.33150
C12B C 0.7919(5) -0.4314(3) 0.3829(5)
C13B C 0.3060(5) -0.4296(3) 0.3949(4)
N1B N 0.0406(4) -0.5563(2) 0.2815(4)
N2B N 0.0580(4) -0.6556(2) 0.1649(4)
N3B N -0.0351(5) -0.6768(3) 0.2364(4)
N4B N 0.0173(4) -0.6839(2) -0.0379(4)
N5B N -0.1097(5) -0.7049(3) -0.0573(4)
N6B N -0.0471(4) -0.6278(2) -0.2015(4)
O1* O 0.0957(3) -0.5865(2) -0.4342(3)
O1B O -0.0957(3) -0.4135(2) 0.4342(3)
O1B* O 0.9043(3) -0.4135(2) 0.4342(3)
O2B O 0.7810(3) -0.4662(2) 0.2874(3)
O3B O 0.2964(3) -0.4664(2) 0.3006(3)
O4B O 0.2056(3) -0.4118(2) 0.4489(3)
O5B O 0.6748(4) -0.1997(2) 0.6651(4)
O6B O 0.6336(4) -0.3024(2) 0.8042(4)
O7B O 0.4543(4) -0.2277(2) 0.7130(4)
O8B O 0.6052(5) -0.5718(3) -0.1028(5)
H10B H 0.61080 -0.57610 -0.17730
H11B H 0.61390 -0.61920 -0.07610
O9B O 0.3671(5) -0.5931(3) 0.0187(5)
H12B H 0.39540 -0.62610 0.07220
H13B H 0.34890 -0.62160 -0.04250
O10B O 0.6024(5) -0.5446(3) 0.1461(5)
H14B H 0.62790 -0.50710 0.19190
H15B H 0.67160 -0.56880 0.12550
S1B S 0.58365(13) -0.25941(8) 0.70152(12)
#END
