
#######################################################################
#
#                 Cambridge Crystallographic Data Centre
#                                CCDC
#
#######################################################################
#
# If this CIF has been generated from an entry in the Cambridge
# Structural Database, then it will include bibliographic, chemical,
# crystal, experimental, refinement or atomic coordinate data resulting
# from the CCDC's data processing and validation procedures.
#
#######################################################################

data_CSD_CIF_EVODAW
_audit_creation_date 2016-09-29
_audit_creation_method CSD-ConQuest-V1
_database_code_CSD EVODAW
_database_code_depnum_ccdc_archive 'CCDC 1487041'
_chemical_formula_sum 'C8 H16 In1 N1 O12'
_chemical_formula_moiety
;
(C8 H8 In1 O10 1-)n,n(H4 N1 1+),2n(H2 O1)
;
_journal_coden_Cambridge 580
_journal_volume 127
_journal_year 2017
_journal_page_first 420
_journal_name_full 'Polyhedron '
loop_
_publ_author_name
"E.Halevas"
"E.Chatzigeorgiou"
"S.Hadjispyrou"
"A.G.Hatzidimitriou"
"V.Psycharis"
"A.Salifoglou"
_chemical_name_systematic
;
catena-[ammonium bis(\m-3-carboxylato-2-hydroxypropanoato)-indium dihydrate]
;
_cell_volume   1417.044
_exptl_crystal_colour 'colorless'
_exptl_crystal_density_diffrn 2.03
_exptl_crystal_description 'bar'
_diffrn_ambient_temperature 295
#These two values have been output from a single CSD field.
_refine_ls_R_factor_gt 0.0399
_refine_ls_wR_factor_gt 0.0399
_symmetry_cell_setting monoclinic
_symmetry_space_group_name_H-M 'P 21/c'
_symmetry_Int_Tables_number 14
loop_
_symmetry_equiv_pos_site_id
_symmetry_equiv_pos_as_xyz
1 x,y,z
2 -x,1/2+y,1/2-z
3 -x,-y,-z
4 x,-1/2-y,-1/2+z
_cell_length_a 9.5034(11)
_cell_length_b 18.645(2)
_cell_length_c 8.1222(10)
_cell_angle_alpha 90
_cell_angle_beta 100.062(3)
_cell_angle_gamma 90
_cell_formula_units_Z 4
loop_
_atom_type_symbol
_atom_type_radius_bond
C 0.68
H 0.23
In 1.42
N 0.68
O 0.68
loop_
_atom_site_label
_atom_site_type_symbol
_atom_site_fract_x
_atom_site_fract_y
_atom_site_fract_z
In1 In 0.19634(2) 0.470998(12) 0.30504(3)
O1 O 0.2643(3) 0.37508(13) 0.4573(3)
O2 O 0.2951(4) 0.32324(14) 0.7080(4)
O3 O 0.2243(2) 0.50252(13) 0.5736(3)
O4 O 0.5910(2) 0.53287(16) 0.7485(3)
O5 O 0.5696(3) 0.41802(17) 0.6857(4)
O6 O 0.0207(2) 0.56896(13) -0.2978(3)
O7 O 0.1843(3) 0.65027(16) -0.1983(4)
O8 O -0.1584(2) 0.61085(12) -0.1035(3)
O9 O 0.1411(3) 0.54612(13) 0.0834(3)
O10 O 0.0957(3) 0.58279(13) 0.3211(3)
C1 C 0.2741(4) 0.37631(18) 0.6149(4)
C2 C 0.2593(3) 0.44807(17) 0.6995(4)
C3 C 0.3917(3) 0.4703(2) 0.8223(4)
C4 C 0.5263(3) 0.4735(2) 0.7448(4)
C5 C 0.0668(4) 0.62165(19) -0.2033(4)
C6 C -0.0335(3) 0.65436(17) -0.0950(4)
C7 C 0.0360(4) 0.66298(18) 0.0880(4)
C8 C 0.0945(4) 0.5936(2) 0.1685(5)
H1 H 0.18080 0.44420 0.76050
H2 H 0.40710 0.43620 0.91270
H3 H 0.37340 0.51770 0.86380
H4 H -0.06290 0.70140 -0.14050
H5 H -0.03400 0.68160 0.14990
H6 H 0.11280 0.69660 0.09780
H7 H -0.23240 0.63410 -0.11850
H8 H 0.16290 0.52940 0.59860
O11 O 0.3939(4) 0.69443(17) 0.0695(5)
H9 H 0.40620 0.66650 0.15010
H10 H 0.32430 0.68400 -0.00400
O12 O 0.3636(3) 0.30281(15) 0.0997(5)
H11 H 0.33440 0.26210 0.11350
H12 H 0.37650 0.30140 0.00300
H13 H 0.40450 0.70300 0.58970
H14 H 0.39870 0.63110 0.51750
H15 H 0.33270 0.64540 0.66280
H16 H 0.48690 0.64500 0.67890
N1 N 0.4059(4) 0.65608(19) 0.6117(5)
In1B In -0.19634(2) 0.529002(12) -0.30504(3)
In1B* In 0.80366(2) 0.529002(12) 0.69496(3)
O4B O 0.4090(2) 0.46713(16) 0.2515(3)
O6B O -0.0207(2) 0.43104(13) 0.2978(3)
O8B O 0.1584(2) 0.38915(12) 0.1035(3)
#END
