
#######################################################################
#
#                 Cambridge Crystallographic Data Centre
#                                CCDC
#
#######################################################################
#
# If this CIF has been generated from an entry in the Cambridge
# Structural Database, then it will include bibliographic, chemical,
# crystal, experimental, refinement or atomic coordinate data resulting
# from the CCDC's data processing and validation procedures.
#
#######################################################################

data_CSD_CIF_EWAVII
_audit_creation_date 2011-11-29
_audit_creation_method CSD-ConQuest-V1
_database_code_CSD EWAVII
_database_code_depnum_ccdc_archive 'CCDC 840160'
_chemical_formula_sum 'C58 H136 Ge16 K4 N10 O24 Sb2'
_chemical_formula_moiety
;
(Ge16 Sb2 4-)n,n(C42 H96 K3 N6 O18 3+),n(C16 H40 K1 N4 O6 1+)
;
_journal_coden_Cambridge 4
_journal_volume 133
_journal_year 2011
_journal_page_first 6560
_journal_name_full 'J.Am.Chem.Soc. '
loop_
_publ_author_name
"M.M.Gillett-Kunnath"
"A.G.Oliver"
"S.C.Sevov"
_chemical_name_systematic
;
catena-(tris(\m~2~-Ethylenediamine)-tris(18-crown-6)-tri-potassium 
(18-crown-6)-bis(ethylenediamine)-potassium bi-(antimony-octa-germanium))
;
_cell_volume   5197.247
_exptl_crystal_colour 'red'
_exptl_crystal_density_diffrn 1.864
_exptl_crystal_description 'block'
_diffrn_ambient_temperature 100
#These two values have been output from a single CSD field.
_refine_ls_R_factor_gt 0.0557
_refine_ls_wR_factor_gt 0.0557
_symmetry_cell_setting monoclinic
_symmetry_space_group_name_H-M 'P 21/c'
_symmetry_Int_Tables_number 14
loop_
_symmetry_equiv_pos_site_id
_symmetry_equiv_pos_as_xyz
1 x,y,z
2 -x,1/2+y,1/2-z
3 -x,-y,-z
4 x,-1/2-y,-1/2+z
_cell_length_a 14.8186(6)
_cell_length_b 21.0218(8)
_cell_length_c 22.1137(9)
_cell_angle_alpha 90
_cell_angle_beta 131.022(2)
_cell_angle_gamma 90
_cell_formula_units_Z 2
loop_
_atom_type_symbol
_atom_type_radius_bond
C 0.68
H 0.23
Ge 1.20
K 2.03
N 0.68
O 0.68
Sb 1.39
loop_
_atom_site_label
_atom_site_type_symbol
_atom_site_fract_x
_atom_site_fract_y
_atom_site_fract_z
Ge1 Ge 0.42864(8) 0.46614(4) 0.44005(5)
Ge2 Ge 0.55054(8) 0.37693(5) 0.44026(5)
Ge3 Ge 0.46894(9) 0.48439(5) 0.34324(5)
Sb1 Sb 0.17198(5) 0.38269(3) 0.28075(3)
Ge4 Ge 0.35447(8) 0.30682(4) 0.32083(5)
Ge5 Ge 0.26684(8) 0.42493(4) 0.21522(5)
Ge6 Ge 0.25524(8) 0.50428(4) 0.29971(5)
Ge7 Ge 0.36828(8) 0.35212(4) 0.43587(5)
Ge8 Ge 0.47343(8) 0.37297(5) 0.29618(5)
K1 K 1.00000 0.00000 1.00000
O1 O 0.9889(5) -0.0627(3) 0.8819(3)
O2 O 0.8338(5) -0.1006(3) 0.9109(3)
O3 O 0.8194(5) -0.0160(3) 1.0036(3)
C1 C 0.9262(8) -0.1218(4) 0.8555(5)
H1 H 0.97490 -0.15460 0.89760
H2 H 0.90960 -0.13640 0.80650
C2 C 0.8098(8) -0.1115(5) 0.8382(5)
H3 H 0.76700 -0.07450 0.80210
H4 H 0.75800 -0.14940 0.81090
C3 C 0.7249(8) -0.0879(4) 0.8957(5)
H5 H 0.67160 -0.12550 0.87060
H6 H 0.68250 -0.05140 0.85860
C4 C 0.7554(8) -0.0733(4) 0.9726(5)
H7 H 0.68130 -0.06960 0.96420
H8 H 0.80430 -0.10820 1.01130
C5 C 0.8377(9) 0.0059(5) 1.0718(6)
H9 H 0.88800 -0.02490 1.11620
H10 H 0.75970 0.00920 1.05860
C6 C 1.1030(8) -0.0690(4) 0.9026(5)
H11 H 1.15320 -0.10010 0.94670
H12 H 1.09180 -0.08440 0.85580
K2 K 0.90456(18) 0.3091(1) 0.86376(10)
O4 O 1.1070(5) 0.2771(3) 0.8774(3)
O5 O 0.8816(5) 0.3021(3) 0.7265(3)
O6 O 0.6762(5) 0.2898(3) 0.7128(3)
O7 O 0.6970(6) 0.3032(3) 0.8488(4)
O8 O 0.9291(6) 0.2711(3) 0.9976(3)
O9 O 1.1331(6) 0.2968(3) 1.0133(3)
C7 C 1.0923(8) 0.2957(4) 0.8095(5)
H13 H 1.15790 0.27790 0.81350
H14 H 1.09460 0.34260 0.80710
C8 C 0.9742(8) 0.2710(4) 0.7357(5)
H15 H 0.96600 0.27900 0.68810
H16 H 0.96920 0.22460 0.74040
C9 C 0.7672(7) 0.2817(4) 0.6565(5)
H17 H 0.76050 0.23500 0.65850
H18 H 0.75710 0.29190 0.60870
C10 C 0.6725(7) 0.3136(4) 0.6504(4)
H19 H 0.68550 0.36010 0.65600
H20 H 0.59320 0.30480 0.59740
C11 C 0.5858(7) 0.3168(4) 0.7094(5)
H21 H 0.50650 0.30990 0.65570
H22 H 0.59890 0.36320 0.71940
C12 C 0.5905(9) 0.2857(5) 0.7716(6)
H23 H 0.52030 0.29880 0.76510
H24 H 0.58780 0.23890 0.76540
C13 C 0.7153(9) 0.2663(5) 0.9099(6)
H25 H 0.72250 0.22070 0.90240
H26 H 0.64640 0.27130 0.90740
C14 C 0.8286(10) 0.2888(5) 0.9903(6)
H27 H 0.82640 0.33560 0.99450
H28 H 0.83580 0.26910 1.03400
C15 C 1.0382(10) 0.2969(5) 1.0681(5)
H29 H 1.04870 0.28450 1.11560
H30 H 1.03520 0.34400 1.06480
C16 C 1.1412(9) 0.2731(4) 1.0770(5)
H31 H 1.21720 0.28730 1.12910
H32 H 1.14060 0.22600 1.07620
C17 C 1.2264(8) 0.2731(4) 1.0174(5)
H33 H 1.22190 0.22610 1.01380
H34 H 1.30460 0.28510 1.06940
C18 C 1.2162(8) 0.2996(5) 0.9506(6)
H35 H 1.21630 0.34670 0.95200
H36 H 1.28460 0.28550 0.95570
K3 K 0.50000 1.00000 0.50000
O10 O 0.5114(5) 0.8729(3) 0.4783(3)
O11 O 0.4983(5) 0.9603(3) 0.3758(3)
O12 O 0.5458(5) 1.0886(3) 0.4257(3)
C19 C 0.4716(8) 0.8312(4) 0.5075(5)
H37 H 0.50160 0.78770 0.51310
H38 H 0.38310 0.82990 0.46910
C20 C 0.4728(8) 0.8557(4) 0.4030(5)
H39 H 0.38530 0.86180 0.36130
H40 H 0.49070 0.81030 0.40350
C21 C 0.5336(8) 0.8949(4) 0.3844(5)
H41 H 0.62140 0.89110 0.42800
H42 H 0.51250 0.87990 0.33410
C22 C 0.5627(8) 1.0007(4) 0.3646(5)
H43 H 0.55050 0.98710 0.31690
H44 H 0.64920 0.99850 0.41190
C23 C 0.5185(8) 1.0669(4) 0.3537(5)
H45 H 0.55670 1.09530 0.34040
H46 H 0.43090 1.06820 0.30860
C24 C 0.5175(8) 0.8549(4) 0.5873(5)
H47 H 0.60420 0.86390 0.62260
H48 H 0.50490 0.82230 0.61340
N1 N 0.8249(7) 0.0991(4) 0.9034(4)
H49 H 0.75950 0.08930 0.89810
H50 H 0.85660 0.13610 0.93260
N2 N 0.9575(6) 0.1744(3) 0.8773(4)
H51 H 1.02230 0.17230 0.88030
H52 H 0.98580 0.16320 0.92730
C25 C 0.7809(7) 0.1132(4) 0.8240(5)
H53 H 0.73250 0.15260 0.80390
H54 H 0.72890 0.07800 0.78710
C26 C 0.8817(8) 0.1214(4) 0.8259(5)
H55 H 0.92980 0.08190 0.84590
H56 H 0.85020 0.12920 0.77080
N3 N 0.9002(10) 0.4357(4) 0.9244(5)
H57 H 0.89130 0.46120 0.88700
H58 H 0.82430 0.43350 0.90700
C27 C 0.9497(14) 0.4829(8) 0.9873(11)
H59 H 0.88570 0.51390 0.96860
H60 H 0.97040 0.46100 1.03460
N4 N 0.7464(11) 0.9921(7) 0.6507(8)
H61 H 0.74660 1.00090 0.69160
H62 H 0.77130 0.95060 0.65730
N5 N 0.9276(12) 0.9590(7) 0.6386(10)
H63 H 0.94550 0.93920 0.68040
H64 H 0.95180 0.94360 0.61440
C28 C 0.8310(14) 1.0310(8) 0.6605(10)
H65 H 0.87000 1.06420 0.69920
C29 C 0.8563(10) 1.0186(6) 0.6091(7)
H66 H 0.90230 1.05420 0.61150
H67 H 0.78110 1.01340 0.55290
Ge1B Ge 0.57136(8) 0.53386(4) 0.55995(5)
Ge2B Ge 0.44946(8) 0.62307(5) 0.55974(5)
Ge3B Ge 0.53106(9) 0.51561(5) 0.65676(5)
Sb1B Sb 0.82802(5) 0.61731(3) 0.71925(3)
Ge4B Ge 0.64553(8) 0.69318(4) 0.67917(5)
Ge5B Ge 0.73316(8) 0.57507(4) 0.78478(5)
Ge6B Ge 0.74476(8) 0.49572(4) 0.70029(5)
Ge7B Ge 0.63172(8) 0.64788(4) 0.56413(5)
Ge8B Ge 0.52657(8) 0.62703(5) 0.70382(5)
O1B O 1.0111(5) 0.0627(3) 1.1181(3)
O2B O 1.1662(5) 0.1006(3) 1.0891(3)
O3B O 1.1806(5) 0.0160(3) 0.9964(3)
C1B C 1.0738(8) 0.1218(4) 1.1445(5)
H1B H 1.02510 0.15460 1.10240
H2B H 1.09040 0.13640 1.19350
C2B C 1.1902(8) 0.1115(5) 1.1618(5)
H3B H 1.23300 0.07450 1.19790
H4B H 1.24200 0.14940 1.18910
C3B C 1.2751(8) 0.0879(4) 1.1043(5)
H5B H 1.32840 0.12550 1.12940
H6B H 1.31750 0.05140 1.14140
C4B C 1.2446(8) 0.0733(4) 1.0274(5)
H7B H 1.31870 0.06960 1.03580
H8B H 1.19570 0.10820 0.98870
C5B C 1.1623(9) -0.0059(5) 0.9282(6)
H9B H 1.11200 0.02490 0.88380
H10B H 1.24030 -0.00920 0.94140
C6B C 0.8970(8) 0.0690(4) 1.0974(5)
H11B H 0.84680 0.10010 1.05330
H12B H 0.90820 0.08440 1.14420
K2B K 1.09544(18) -0.3091(1) 1.13624(10)
K2B* K 1.09544(18) 0.6909(1) 1.13624(10)
O4B O 0.8930(5) -0.2771(3) 1.1226(3)
O5B O 1.1184(5) -0.3021(3) 1.2735(3)
O6B O 1.3238(5) -0.2898(3) 1.2872(3)
O7B O 1.3030(6) -0.3032(3) 1.1512(4)
O8B O 1.0709(6) -0.2711(3) 1.0024(3)
O9B O 0.8669(6) -0.2968(3) 0.9867(3)
C7B C 0.9077(8) -0.2957(4) 1.1905(5)
H13B H 0.84210 -0.27790 1.18650
H14B H 0.90540 -0.34260 1.19290
C8B C 1.0258(8) -0.2710(4) 1.2643(5)
H15B H 1.03400 -0.27900 1.31190
H16B H 1.03080 -0.22460 1.25960
C9B C 1.2328(7) -0.2817(4) 1.3435(5)
H17B H 1.23950 -0.23500 1.34150
H18B H 1.24290 -0.29190 1.39130
C10B C 1.3275(7) -0.3136(4) 1.3496(4)
H19B H 1.31450 -0.36010 1.34400
H20B H 1.40680 -0.30480 1.40260
C11B C 1.4142(7) -0.3168(4) 1.2906(5)
H21B H 1.49350 -0.30990 1.34430
H22B H 1.40110 -0.36320 1.28060
C12B C 1.4095(9) -0.2857(5) 1.2284(6)
H23B H 1.47970 -0.29880 1.23490
H24B H 1.41220 -0.23890 1.23460
C13B C 1.2847(9) -0.2663(5) 1.0901(6)
H25B H 1.27750 -0.22070 1.09760
H26B H 1.35360 -0.27130 1.09260
C14B C 1.1714(10) -0.2888(5) 1.0097(6)
H27B H 1.17360 -0.33560 1.00550
H28B H 1.16420 -0.26910 0.96600
C15B C 0.9618(10) -0.2969(5) 0.9319(5)
H29B H 0.95130 -0.28450 0.88440
H30B H 0.96480 -0.34400 0.93520
C16B C 0.8588(9) -0.2731(4) 0.9230(5)
H31B H 0.78280 -0.28730 0.87090
H32B H 0.85940 -0.22600 0.92380
C17B C 0.7736(8) -0.2731(4) 0.9826(5)
H33B H 0.77810 -0.22610 0.98620
H34B H 0.69540 -0.28510 0.93060
C18B C 0.7838(8) -0.2996(5) 1.0494(6)
H35B H 0.78370 -0.34670 1.04800
H36B H 0.71540 -0.28550 1.04430
O10B O 0.4886(5) 1.1271(3) 0.5217(3)
O11B O 0.5017(5) 1.0397(3) 0.6242(3)
O12B O 0.4542(5) 0.9114(3) 0.5743(3)
C19B C 0.5284(8) 1.1688(4) 0.4925(5)
H37B H 0.49840 1.21230 0.48690
H38B H 0.61690 1.17010 0.53090
C20B C 0.5272(8) 1.1443(4) 0.5970(5)
H39B H 0.61470 1.13820 0.63870
H40B H 0.50930 1.18970 0.59650
C21B C 0.4664(8) 1.1051(4) 0.6156(5)
H41B H 0.37860 1.10890 0.57200
H42B H 0.48750 1.12010 0.66590
C22B C 0.4373(8) 0.9993(4) 0.6354(5)
H43B H 0.44950 1.01290 0.68310
H44B H 0.35080 1.00150 0.58810
C23B C 0.4815(8) 0.9331(4) 0.6463(5)
H45B H 0.44330 0.90470 0.65960
H46B H 0.56910 0.93180 0.69140
C24B C 0.4825(8) 1.1451(4) 0.4127(5)
H47B H 0.39580 1.13610 0.37740
H48B H 0.49510 1.17770 0.38660
N1B N 1.1751(7) -0.0991(4) 1.0966(4)
H49B H 1.24050 -0.08930 1.10190
H50B H 1.14340 -0.13610 1.06740
N2B N 1.0425(6) -0.1744(3) 1.1227(4)
H51B H 0.97770 -0.17230 1.11970
H52B H 1.01420 -0.16320 1.07270
C25B C 1.2191(7) -0.1132(4) 1.1760(5)
H53B H 1.26750 -0.15260 1.19610
H54B H 1.27110 -0.07800 1.21290
C26B C 1.1183(8) -0.1214(4) 1.1741(5)
H55B H 1.07020 -0.08190 1.15410
H56B H 1.14980 -0.12920 1.22920
N3B N 1.0998(10) 0.5643(4) 1.0756(5)
N3B* N 1.0998(10) -0.4357(4) 1.0756(5)
H57B H 1.10870 0.53880 1.11300
H57B* H 1.10870 -0.46120 1.11300
H58B H 1.17570 0.56650 1.09300
H58B* H 1.17570 -0.43350 1.09300
C27B C 1.0503(14) 0.5171(8) 1.0127(11)
H59B H 1.11430 0.48610 1.03140
H60B H 1.02960 0.53900 0.96540
N4B N 0.2536(11) 1.0079(7) 0.3493(8)
H61B H 0.25340 0.99910 0.30840
H62B H 0.22870 1.04940 0.34270
N5B N 0.0724(12) 1.0410(7) 0.3614(10)
H63B H 0.05450 1.06080 0.31960
H64B H 0.04820 1.05640 0.38560
C28B C 0.1690(14) 0.9690(8) 0.3395(10)
H65B H 0.13000 0.93580 0.30080
C29B C 0.1437(10) 0.9814(6) 0.3909(7)
H66B H 0.09770 0.94580 0.38850
H67B H 0.21890 0.98660 0.44710
#END
