
#######################################################################
#
#                 Cambridge Crystallographic Data Centre
#                                CCDC
#
#######################################################################
#
# If this CIF has been generated from an entry in the Cambridge
# Structural Database, then it will include bibliographic, chemical,
# crystal, experimental, refinement or atomic coordinate data resulting
# from the CCDC's data processing and validation procedures.
#
#######################################################################

data_CSD_CIF_EWAWAB
_audit_creation_date 2011-11-29
_audit_creation_method CSD-ConQuest-V1
_database_code_CSD EWAWAB
_database_code_depnum_ccdc_archive 'CCDC 840163'
_chemical_formula_sum 'C58 H136 Bi2 Ge16 K4 N10 O24'
_chemical_formula_moiety
;
(Bi2 Ge16 4-)n,n(C42 H96 K3 N6 O18 3+),n(C16 H40 K1 N4 O6 1+)
;
_journal_coden_Cambridge 4
_journal_volume 133
_journal_year 2011
_journal_page_first 6560
_journal_name_full 'J.Am.Chem.Soc. '
loop_
_publ_author_name
"M.M.Gillett-Kunnath"
"A.G.Oliver"
"S.C.Sevov"
_chemical_name_systematic
;
catena-(tris(\m~2~-Ethylenediamine)-tris(18-crown-6)-tri-potassium 
(18-crown-6)-bis(ethylenediamine)-potassium bi-(bismuth-octa-germanium))
;
_cell_volume   5815.429
_exptl_crystal_colour 'purple'
_exptl_crystal_density_diffrn 1.767
_exptl_crystal_description 'rod'
_diffrn_ambient_temperature 100
#These two values have been output from a single CSD field.
_refine_ls_R_factor_gt 0.0617
_refine_ls_wR_factor_gt 0.0617
_symmetry_cell_setting monoclinic
_symmetry_space_group_name_H-M 'P 21/n'
_symmetry_Int_Tables_number 14
loop_
_symmetry_equiv_pos_site_id
_symmetry_equiv_pos_as_xyz
1 x,y,z
2 1/2-x,1/2+y,1/2-z
3 -x,-y,-z
4 -1/2+x,-1/2-y,-1/2+z
_cell_length_a 15.347(3)
_cell_length_b 21.923(5)
_cell_length_c 17.287(3)
_cell_angle_alpha 90
_cell_angle_beta 90.963(11)
_cell_angle_gamma 90
_cell_formula_units_Z 2
loop_
_atom_type_symbol
_atom_type_radius_bond
C 0.68
H 0.23
Bi 1.48
Ge 1.28
K 2.06
N 0.74
O 0.68
loop_
_atom_site_label
_atom_site_type_symbol
_atom_site_fract_x
_atom_site_fract_y
_atom_site_fract_z
Ge1 Ge 0.51136(9) 0.03368(7) 0.44020(8)
Ge2 Ge 0.38912(9) 0.12271(8) 0.44115(8)
Ge3 Ge 0.37313(9) 0.01528(7) 0.34387(9)
Bi1 Bi 0.61324(4) 0.11723(3) 0.28036(4)
Ge4 Ge 0.46445(9) 0.19226(7) 0.32119(9)
Ge5 Ge 0.44583(9) 0.07499(7) 0.21624(8)
Ge6 Ge 0.54168(9) -0.00585(7) 0.29978(9)
Ge7 Ge 0.56577(9) 0.14811(7) 0.43790(9)
Ge8 Ge 0.32027(9) 0.12627(8) 0.29775(9)
K1 K 0.50000 0.50000 0.00000
O1 O 0.6840(6) 0.5146(5) 0.0039(6)
O2 O 0.6067(6) 0.4352(5) 0.1170(6)
O3 O 0.4231(6) 0.3991(5) 0.0882(6)
C1 C 0.7341(9) 0.4935(8) 0.0721(9)
H1 H 0.72770 0.52280 0.11520
H2 H 0.79670 0.49050 0.05960
C2 C 0.6993(9) 0.4305(8) 0.0959(9)
H3 H 0.70530 0.40150 0.05240
H4 H 0.73380 0.41470 0.14050
C3 C 0.5699(9) 0.3778(8) 0.1413(10)
H5 H 0.60170 0.36250 0.18760
H6 H 0.57520 0.34720 0.09950
C4 C 0.4709(10) 0.3880(8) 0.1605(9)
H7 H 0.44730 0.35150 0.18660
H8 H 0.46470 0.42340 0.19560
C5 C 0.3288(9) 0.4126(8) 0.1014(10)
H9 H 0.32380 0.44760 0.13720
H10 H 0.30090 0.37680 0.12560
C6 C 0.7181(9) 0.5726(8) -0.0257(10)
H11 H 0.70840 0.60550 0.01230
H12 H 0.78150 0.56900 -0.03420
K2 K 0.5430(2) 0.80745(17) 0.13676(19)
O4 O 0.7317(6) 0.7764(5) 0.1256(6)
O5 O 0.6560(6) 0.8011(4) 0.2746(6)
O6 O 0.4640(6) 0.7891(4) 0.2850(5)
O7 O 0.3499(6) 0.8041(5) 0.1487(6)
O8 O 0.4334(7) 0.7713(5) 0.0011(6)
O9 O 0.6245(7) 0.7972(5) -0.0118(6)
C7 C 0.7831(9) 0.7944(7) 0.1936(9)
H13 H 0.78760 0.83940 0.19610
H14 H 0.84270 0.77740 0.19050
C8 C 0.7389(8) 0.7705(7) 0.2654(9)
H15 H 0.72950 0.72600 0.26060
H16 H 0.77660 0.77800 0.31150
C9 C 0.6100(9) 0.7808(7) 0.3444(8)
H17 H 0.64510 0.79100 0.39120
H18 H 0.60180 0.73600 0.34290
C10 C 0.5218(9) 0.8124(7) 0.3476(8)
H19 H 0.49500 0.80460 0.39840
H20 H 0.52950 0.85700 0.34170
C11 C 0.3762(9) 0.8164(7) 0.2893(9)
H21 H 0.37920 0.86090 0.27990
H22 H 0.35160 0.80960 0.34120
C12 C 0.3181(9) 0.7851(8) 0.2261(10)
H23 H 0.32170 0.74020 0.23140
H24 H 0.25660 0.79760 0.23190
C13 C 0.3094(10) 0.7672(8) 0.0862(11)
H25 H 0.24520 0.77130 0.08770
H26 H 0.32440 0.72370 0.09360
C14 C 0.342(1) 0.7890(9) 0.0087(11)
H27 H 0.30660 0.77060 -0.03370
H28 H 0.33650 0.83390 0.00510
C15 C 0.4736(13) 0.7973(9) -0.0679(11)
H29 H 0.47360 0.84230 -0.06400
H30 H 0.43870 0.78580 -0.11430
C16 C 0.5667(13) 0.7747(9) -0.0767(9)
H31 H 0.56710 0.72950 -0.07720
H32 H 0.58970 0.78910 -0.12660
C17 C 0.7136(11) 0.7720(8) -0.0151(10)
H33 H 0.73980 0.78220 -0.06540
H34 H 0.71170 0.72710 -0.01020
C18 C 0.7697(10) 0.7996(8) 0.0521(10)
H35 H 0.83120 0.78650 0.04790
H36 H 0.76740 0.84470 0.05050
K3 K 0.00000 0.00000 1.00000
O10 O -0.1197(6) 0.0876(4) 0.9240(5)
O11 O 0.0326(5) 0.1275(4) 1.0199(5)
O12 O 0.1207(6) 0.0403(4) 1.1260(5)
C19 C -0.1636(10) 0.0662(7) 0.8526(8)
H37 H -0.12230 0.06720 0.80920
H38 H -0.21330 0.09330 0.83960
C20 C -0.0717(9) 0.1451(6) 0.9127(8)
H39 H -0.11080 0.17600 0.88880
H40 H -0.02230 0.13820 0.87760
C21 C -0.0365(10) 0.1689(7) 0.9933(9)
H41 H -0.01320 0.21080 0.98800
H42 H -0.08420 0.16980 1.03110
C22 C 0.0693(9) 0.1458(7) 1.0966(8)
H43 H 0.02410 0.14180 1.13650
H44 H 0.08820 0.18890 1.09490
C23 C 0.1460(9) 0.1055(7) 1.1172(8)
H45 H 0.19010 0.10890 1.07630
H46 H 0.17300 0.12000 1.16630
C24 C -0.1961(10) 0.0011(7) 0.8644(10)
H47 H -0.23200 -0.01180 0.81920
H48 H -0.23280 -0.00080 0.91090
N1 N 0.4220(8) 0.5975(6) 0.0966(7)
H49 H 0.42370 0.63290 0.06820
H50 H 0.36410 0.58780 0.10220
N2 N 0.5808(8) 0.6742(6) 0.1229(7)
H51 H 0.55840 0.66370 0.07500
H52 H 0.64040 0.67230 0.11840
C25 C 0.4580(9) 0.6126(8) 0.1769(10)
H53 H 0.44250 0.57970 0.21340
H54 H 0.43170 0.65110 0.19530
C26 C 0.5583(9) 0.6195(7) 0.1748(8)
H55 H 0.58190 0.62620 0.22780
H56 H 0.58480 0.58180 0.15400
N3 N 0.4762(13) 0.9346(9) 0.0806(11)
H57 H 0.42220 0.93380 0.10290
H58 H 0.50900 0.95870 0.11360
C27 C 0.4537(17) 0.9908(16) 0.006(2)
H59 H 0.42710 0.97250 -0.04160
H60 H 0.41710 1.02490 0.02400
N4 N 0.0966(10) 0.0127(10) 0.8506(12)
H61 H 0.05720 0.00720 0.81060
H62 H 0.11660 0.05210 0.84750
N5 N 0.2906(15) 0.0432(10) 0.8585(16)
H63 H 0.33910 0.05340 0.89250
H64 H 0.25310 0.07490 0.86250
C28 C 0.2507(14) -0.0154(11) 0.8911(13)
H65 H 0.29340 -0.04930 0.89050
H66 H 0.23130 -0.00910 0.94480
C29 C 0.1728(15) -0.0294(13) 0.8373(14)
H67 H 0.19120 -0.02550 0.78290
H68 H 0.15400 -0.07210 0.84560
Ge1B Ge 0.48864(9) -0.03368(7) 0.55980(8)
Ge2B Ge 0.61088(9) -0.12271(8) 0.55885(8)
Ge3B Ge 0.62687(9) -0.01528(7) 0.65613(9)
Bi1B Bi 0.38676(4) -0.11723(3) 0.71964(4)
Ge4B Ge 0.53555(9) -0.19226(7) 0.67881(9)
Ge5B Ge 0.55417(9) -0.07499(7) 0.78376(8)
Ge6B Ge 0.45832(9) 0.00585(7) 0.70022(9)
Ge7B Ge 0.43423(9) -0.14811(7) 0.56210(9)
Ge8B Ge 0.67973(9) -0.12627(8) 0.70225(9)
O1B O 0.3160(6) 0.4854(5) -0.0039(6)
O2B O 0.3933(6) 0.5648(5) -0.1170(6)
O3B O 0.5769(6) 0.6009(5) -0.0882(6)
C1B C 0.2659(9) 0.5065(8) -0.0721(9)
H1B H 0.27230 0.47720 -0.11520
H2B H 0.20330 0.50950 -0.05960
C2B C 0.3007(9) 0.5695(8) -0.0959(9)
H3B H 0.29470 0.59850 -0.05240
H4B H 0.26620 0.58530 -0.14050
C3B C 0.4301(9) 0.6222(8) -0.1413(10)
H5B H 0.39830 0.63750 -0.18760
H6B H 0.42480 0.65280 -0.09950
C4B C 0.5291(10) 0.6120(8) -0.1605(9)
H7B H 0.55270 0.64850 -0.18660
H8B H 0.53530 0.57660 -0.19560
C5B C 0.6712(9) 0.5874(8) -0.1014(10)
H9B H 0.67620 0.55240 -0.13720
H10B H 0.69910 0.62320 -0.12560
C6B C 0.2819(9) 0.4274(8) 0.0257(10)
H11B H 0.29160 0.39450 -0.01230
H12B H 0.21850 0.43100 0.03420
K2B K 0.4570(2) 0.19255(17) -0.13676(19)
K2B* K 0.4570(2) 1.19255(17) -0.13676(19)
O4B O 0.2683(6) 0.2236(5) -0.1256(6)
O5B O 0.3440(6) 0.1989(4) -0.2746(6)
O6B O 0.5360(6) 0.2109(4) -0.2850(5)
O7B O 0.6501(6) 0.1959(5) -0.1487(6)
O8B O 0.5666(7) 0.2287(5) -0.0011(6)
O9B O 0.3755(7) 0.2028(5) 0.0118(6)
C7B C 0.2169(9) 0.2056(7) -0.1936(9)
H13B H 0.21240 0.16060 -0.19610
H14B H 0.15730 0.22260 -0.19050
C8B C 0.2611(8) 0.2295(7) -0.2654(9)
H15B H 0.27050 0.27400 -0.26060
H16B H 0.22340 0.22200 -0.31150
C9B C 0.3900(9) 0.2192(7) -0.3444(8)
H17B H 0.35490 0.20900 -0.39120
H18B H 0.39820 0.26400 -0.34290
C10B C 0.4782(9) 0.1876(7) -0.3476(8)
H19B H 0.50500 0.19540 -0.39840
H20B H 0.47050 0.14300 -0.34170
C11B C 0.6238(9) 0.1836(7) -0.2893(9)
H21B H 0.62080 0.13910 -0.27990
H22B H 0.64840 0.19040 -0.34120
C12B C 0.6819(9) 0.2149(8) -0.2261(10)
H23B H 0.67830 0.25980 -0.23140
H24B H 0.74340 0.20240 -0.23190
C13B C 0.6906(10) 0.2328(8) -0.0862(11)
H25B H 0.75480 0.22870 -0.08770
H26B H 0.67560 0.27630 -0.09360
C14B C 0.658(1) 0.2110(9) -0.0087(11)
H27B H 0.69340 0.22940 0.03370
H28B H 0.66350 0.16610 -0.00510
C15B C 0.5264(13) 0.2027(9) 0.0679(11)
H29B H 0.52640 0.15770 0.06400
H30B H 0.56130 0.21420 0.11430
C16B C 0.4333(13) 0.2253(9) 0.0767(9)
H31B H 0.43290 0.27050 0.07720
H32B H 0.41030 0.21090 0.12660
C17B C 0.2864(11) 0.2280(8) 0.0151(10)
H33B H 0.26020 0.21780 0.06540
H34B H 0.28830 0.27290 0.01020
C18B C 0.2303(10) 0.2004(8) -0.0521(10)
H35B H 0.16880 0.21350 -0.04790
H36B H 0.23260 0.15530 -0.05050
O10B O 0.1197(6) -0.0876(4) 1.0760(5)
O11B O -0.0326(5) -0.1275(4) 0.9801(5)
O12B O -0.1207(6) -0.0403(4) 0.8740(5)
C19B C 0.1636(10) -0.0662(7) 1.1474(8)
H37B H 0.12230 -0.06720 1.19080
H38B H 0.21330 -0.09330 1.16040
C20B C 0.0717(9) -0.1451(6) 1.0873(8)
H39B H 0.11080 -0.17600 1.11120
H40B H 0.02230 -0.13820 1.12240
C21B C 0.0365(10) -0.1689(7) 1.0067(9)
H41B H 0.01320 -0.21080 1.01200
H42B H 0.08420 -0.16980 0.96890
C22B C -0.0693(9) -0.1458(7) 0.9034(8)
H43B H -0.02410 -0.14180 0.86350
H44B H -0.08820 -0.18890 0.90510
C23B C -0.1460(9) -0.1055(7) 0.8828(8)
H45B H -0.19010 -0.10890 0.92370
H46B H -0.17300 -0.12000 0.83370
C24B C 0.1961(10) -0.0011(7) 1.1356(10)
H47B H 0.23200 0.01180 1.18080
H48B H 0.23280 0.00080 1.08910
N1B N 0.5780(8) 0.4025(6) -0.0966(7)
H49B H 0.57630 0.36710 -0.06820
H50B H 0.63590 0.41220 -0.10220
N2B N 0.4192(8) 0.3258(6) -0.1229(7)
H51B H 0.44160 0.33630 -0.07500
H52B H 0.35960 0.32770 -0.11840
C25B C 0.5420(9) 0.3874(8) -0.1769(10)
H53B H 0.55750 0.42030 -0.21340
H54B H 0.56830 0.34890 -0.19530
C26B C 0.4417(9) 0.3805(7) -0.1748(8)
H55B H 0.41810 0.37380 -0.22780
H56B H 0.41520 0.41820 -0.15400
N3B N 0.5238(13) 1.0654(9) -0.0806(11)
N3B* N 0.5238(13) 0.0654(9) -0.0806(11)
H57B H 0.57780 1.06620 -0.10290
H57B* H 0.57780 0.06620 -0.10290
H58B H 0.49100 1.04130 -0.11360
H58B* H 0.49100 0.04130 -0.11360
C27B C 0.5463(17) 1.0092(16) -0.006(2)
H59B H 0.57290 1.02750 0.04160
H60B H 0.58290 0.97510 -0.02400
N4B N -0.0966(10) -0.0127(10) 1.1494(12)
H61B H -0.05720 -0.00720 1.18940
H62B H -0.11660 -0.05210 1.15250
N5B N -0.2906(15) -0.0432(10) 1.1415(16)
H63B H -0.33910 -0.05340 1.10750
H64B H -0.25310 -0.07490 1.13750
C28B C -0.2507(14) 0.0154(11) 1.1089(13)
H65B H -0.29340 0.04930 1.10950
H66B H -0.23130 0.00910 1.05520
C29B C -0.1728(15) 0.0294(13) 1.1627(14)
H67B H -0.19120 0.02550 1.21710
H68B H -0.15400 0.07210 1.15440
#END
