
#######################################################################
#
#                 Cambridge Crystallographic Data Centre
#                                CCDC
#
#######################################################################
#
# If this CIF has been generated from an entry in the Cambridge
# Structural Database, then it will include bibliographic, chemical,
# crystal, experimental, refinement or atomic coordinate data resulting
# from the CCDC's data processing and validation procedures.
#
#######################################################################

data_CSD_CIF_EWECUE
_audit_creation_date 2004-08-11
_audit_creation_method CSD-ConQuest-V1
_database_code_CSD EWECUE
_database_code_depnum_ccdc_archive 'CCDC 212321'
_chemical_formula_sum 'C36 H26 Co1 N6 O27 V10'
_chemical_formula_moiety
;
(C36 H24 Co1 N6 2+)n,n(O26 V10 2-),n(H2 O1)
;
_journal_coden_Cambridge 208
_journal_volume 177
_journal_year 2004
_journal_page_first 946
_journal_name_full 'J.Solid State Chem. '
loop_
_publ_author_name
"Ying Lu"
"Enbo Wang"
"Jiutong Chen"
"Yanfei Qi"
"Changwen Hu"
"Lin Xu"
"Jun Peng"
_chemical_name_systematic
;
catena-(tris(1,10-Phenanthroline)-cobalt icosahexaoxodecavanadate monohydrate)
;
_cell_volume   9360.078
_exptl_crystal_colour 'black red'
_exptl_crystal_density_diffrn 2.19
_exptl_crystal_description 'platelet'
_diffrn_ambient_temperature 293
#These two values have been output from a single CSD field.
_refine_ls_R_factor_gt 0.0285
_refine_ls_wR_factor_gt 0.0285
_symmetry_cell_setting orthorhombic
_symmetry_space_group_name_H-M 'C c c a'
_symmetry_Int_Tables_number 68
loop_
_symmetry_equiv_pos_site_id
_symmetry_equiv_pos_as_xyz
1 x,y,z
2 1/2+x,1/2+y,z
3 1/2-x,-y,z
4 -x,y,1/2-z
5 1/2+x,-y,1/2-z
6 -x,1/2-y,z
7 1/2-x,1/2+y,1/2-z
8 x,1/2-y,1/2-z
9 -x,-y,-z
10 -1/2-x,-1/2-y,-z
11 -1/2+x,y,-z
12 x,-y,-1/2+z
13 -1/2-x,y,-1/2+z
14 x,-1/2+y,-z
15 -1/2+x,-1/2-y,-1/2+z
16 -x,-1/2+y,-1/2+z
_cell_length_a 13.447(3)
_cell_length_b 29.936(6)
_cell_length_c 23.252(5)
_cell_angle_alpha 90
_cell_angle_beta 90
_cell_angle_gamma 90
_cell_formula_units_Z 8
loop_
_atom_type_symbol
_atom_type_radius_bond
C 0.68
H 0.23
Co 1.33
N 0.68
O 0.68
V 1.28
loop_
_atom_site_label
_atom_site_type_symbol
_atom_site_fract_x
_atom_site_fract_y
_atom_site_fract_z
Co1 Co 0.50000 0.61950(3) 0.75000
N1 N 0.4419(3) 0.57141(14) 0.70540(18)
N2 N 0.3795(3) 0.62035(13) 0.79607(18)
N3 N 0.4323(3) 0.66430(13) 0.70399(18)
C1 C 0.3820(3) 0.57305(18) 0.6600(2)
H1 H 0.35820 0.60060 0.64760
C2 C 0.3541(4) 0.53444(19) 0.6306(3)
H2 H 0.31420 0.53670 0.59800
C3 C 0.3849(4) 0.4933(2) 0.6491(3)
H3 H 0.36780 0.46780 0.62850
C4 C 0.4424(4) 0.48981(18) 0.6992(3)
C5 C 0.4694(3) 0.53035(17) 0.7251(2)
C6 C 0.4733(4) 0.44900(19) 0.7256(3)
H4 H 0.45620 0.42190 0.70870
C7 C 0.3562(3) 0.59703(17) 0.8427(2)
H5 H 0.40510 0.57990 0.86050
C8 C 0.2597(4) 0.59745(18) 0.8659(3)
H6 H 0.24480 0.58030 0.89800
C9 C 0.1874(4) 0.62338(18) 0.8407(3)
H7 H 0.12350 0.62380 0.85600
C10 C 0.2097(3) 0.64878(18) 0.7927(2)
C11 C 0.3073(3) 0.64623(16) 0.7714(2)
C12 C 0.1404(4) 0.6769(2) 0.7627(3)
H8 H 0.07580 0.67960 0.77660
C13 C 0.4615(4) 0.68493(17) 0.6559(2)
H9 H 0.52660 0.68150 0.64310
C14 C 0.3955(4) 0.71178(18) 0.6244(3)
H10 H 0.41750 0.72580 0.59100
C15 C 0.2990(4) 0.71769(18) 0.6420(3)
H11 H 0.25580 0.73550 0.62080
C16 C 0.2664(4) 0.69660(18) 0.6923(2)
C17 C 0.3358(3) 0.67011(17) 0.7214(2)
C18 C 0.1667(4) 0.6993(2) 0.7151(3)
H12 H 0.11980 0.71690 0.69640
V1 V 0.49657(5) 0.69457(3) 0.44400(4)
V2 V 0.63571(5) 0.61339(3) 0.45450(4)
V3 V 0.73282(5) 0.69198(3) 0.51764(4)
V4 V 0.62561(6) 0.50352(3) 0.52127(4)
V5 V 0.39046(5) 0.61533(3) 0.49657(4)
O1 O 0.50000 0.50000 0.50000
O2 O 0.4886(2) 0.70211(11) 0.37639(16)
O3 O 0.6706(2) 0.60488(13) 0.38960(18)
O4 O 0.6330(4) 0.51277(15) 0.5882(2)
O5 O 0.75000 0.75000 0.50000
O6 O 0.4403(3) 0.61683(13) 0.55874(16)
O7 O 0.75000 0.50000 0.4910(2)
O8 O 0.6222(2) 0.56322(12) 0.4880(2)
O9 O 0.6826(2) 0.69095(13) 0.57978(17)
O10 O 0.6275(2) 0.68146(11) 0.46294(17)
O11 O 0.3734(2) 0.56092(11) 0.47804(17)
O12 O 0.7538(2) 0.62983(10) 0.49406(17)
O13 O 0.3738(2) 0.68130(11) 0.47248(16)
O14 O 0.50000 0.75000 0.4738(2)
O15 O 0.4981(2) 0.62732(10) 0.44625(15)
O16 O 0.25000 0.50000 0.2934(6)
C5C C 0.5306(3) 0.53035(17) 0.7749(2)
N1C N 0.5581(3) 0.57141(14) 0.79460(18)
C1C C 0.6180(3) 0.57305(18) 0.8400(2)
H1C H 0.64180 0.60060 0.85240
C2C C 0.6459(4) 0.53444(19) 0.8694(3)
H2C H 0.68580 0.53670 0.90200
C3C C 0.6151(4) 0.4933(2) 0.8509(3)
H3C H 0.63220 0.46780 0.87150
C4C C 0.5576(4) 0.48981(18) 0.8008(3)
C6C C 0.5267(4) 0.44900(19) 0.7744(3)
H4C H 0.54380 0.42190 0.79130
N2C N 0.6205(3) 0.62035(13) 0.70393(18)
N3C N 0.5677(3) 0.66430(13) 0.79601(18)
C7C C 0.6438(3) 0.59703(17) 0.6573(2)
H5C H 0.59490 0.57990 0.63950
C8C C 0.7403(4) 0.59745(18) 0.6341(3)
H6C H 0.75520 0.58030 0.60200
C9C C 0.8126(4) 0.62338(18) 0.6593(3)
H7C H 0.87650 0.62380 0.64400
C10C C 0.7903(3) 0.64878(18) 0.7073(2)
C11C C 0.6927(3) 0.64623(16) 0.7286(2)
C12C C 0.8596(4) 0.6769(2) 0.7373(3)
H8C H 0.92420 0.67960 0.72340
C13C C 0.5385(4) 0.68493(17) 0.8441(2)
H9C H 0.47340 0.68150 0.85690
C14C C 0.6045(4) 0.71178(18) 0.8756(3)
H10C H 0.58250 0.72580 0.90900
C15C C 0.7010(4) 0.71769(18) 0.8580(3)
H11C H 0.74420 0.73550 0.87920
C16C C 0.7336(4) 0.69660(18) 0.8077(2)
C17C C 0.6642(3) 0.67011(17) 0.7786(2)
C18C C 0.8333(4) 0.6993(2) 0.7849(3)
H12C H 0.88020 0.71690 0.80360
V1E V 0.50343(5) 0.80543(3) 0.44400(4)
V3J V 0.23282(5) 0.69198(3) 0.48236(4)
O13J O 0.8738(2) 0.68130(11) 0.52752(16)
O12J O 0.2538(2) 0.62983(10) 0.50594(17)
O2E O 0.5114(2) 0.79789(11) 0.37639(16)
O10E O 0.3725(2) 0.81854(11) 0.46294(17)
O15E O 0.5019(2) 0.87268(10) 0.44625(15)
O9J O 0.1826(2) 0.69095(13) 0.42022(17)
V2E V 0.36429(5) 0.88661(3) 0.45450(4)
V4H V 0.37439(6) 0.49648(3) 0.47873(4)
V5J V 0.89046(5) 0.61533(3) 0.50343(4)
O11H O 0.6266(2) 0.43908(11) 0.52196(17)
O3E O 0.3294(2) 0.89512(13) 0.38960(18)
O8E O 0.3778(2) 0.93678(12) 0.4880(2)
O4H O 0.3670(4) 0.48723(15) 0.4118(2)
O6J O 0.9403(3) 0.61683(13) 0.44126(16)
V3I V 0.76718(5) 0.80802(3) 0.48236(4)
V4B V 0.87439(6) 0.49648(3) 0.52127(4)
O13E O 0.6262(2) 0.81870(11) 0.47248(16)
O5J O 0.25000 0.75000 0.50000
O10J O 0.1275(2) 0.68146(11) 0.53706(17)
V1J V 0.99657(5) 0.69457(3) 0.55600(4)
V2J V 0.13571(5) 0.61339(3) 0.54550(4)
V3E V 0.26718(5) 0.80802(3) 0.51764(4)
V5E V 0.60954(5) 0.88467(3) 0.49657(4)
O12E O 0.2462(2) 0.87017(10) 0.49406(17)
O7J O 0.25000 0.50000 0.5090(2)
O8H O 0.3778(2) 0.43678(12) 0.5120(2)
O11J O 0.8734(2) 0.56092(11) 0.52196(17)
O15J O 0.9981(2) 0.62732(10) 0.55375(15)
#END
