
#######################################################################
#
#                 Cambridge Crystallographic Data Centre
#                                CCDC
#
#######################################################################
#
# If this CIF has been generated from an entry in the Cambridge
# Structural Database, then it will include bibliographic, chemical,
# crystal, experimental, refinement or atomic coordinate data resulting
# from the CCDC's data processing and validation procedures.
#
#######################################################################

data_CSD_CIF_EWIQUZ
_audit_creation_date 2021-06-25
_audit_creation_method CSD-ConQuest-V1
_database_code_CSD EWIQUZ
_database_code_depnum_ccdc_archive 'CCDC 2075816'
_chemical_formula_sum 'C60 H43 N9 O18 S3 U2 Zn1'
_chemical_formula_moiety
;
(C36 H24 N6 Zn1 2+)n,n(C18 H6 O16 S3 U2 2-),3n(C2 H3 N1),2n(H2 O1)
;
_journal_coden_Cambridge 9
_journal_volume 60
_journal_year 2021
_journal_page_first 9074
_journal_name_full 'Inorg.Chem. '
loop_
_publ_author_name
"P.Thuery"
"J.Harrowfield"
_chemical_name_systematic
;
catena-(tris(1,10-phenanthroline)-zinc 
tris(\m-thiophene-2,5-dicarboxylato)-tetraoxo-di-uranium acetonitrile solvate 
dihydrate)
;
_cell_volume   6106.674
_exptl_crystal_colour 'intense yellow'
_exptl_crystal_density_diffrn 1.975
_exptl_crystal_description 'irregular'
_diffrn_ambient_temperature 100
#These two values have been output from a single CSD field.
_refine_ls_R_factor_gt 0.0151
_refine_ls_wR_factor_gt 0.0151
_symmetry_cell_setting monoclinic
_symmetry_space_group_name_H-M 'P 21/c'
_symmetry_Int_Tables_number 14
loop_
_symmetry_equiv_pos_site_id
_symmetry_equiv_pos_as_xyz
1 x,y,z
2 -x,1/2+y,1/2-z
3 -x,-y,-z
4 x,-1/2-y,-1/2+z
_cell_length_a 18.3336(5)
_cell_length_b 18.4172(5)
_cell_length_c 19.7929(5)
_cell_angle_alpha 90
_cell_angle_beta 113.9722(10)
_cell_angle_gamma 90
_cell_formula_units_Z 4
loop_
_atom_type_symbol
_atom_type_radius_bond
C 0.68
H 0.23
N 0.68
O 0.68
S 1.02
U 1.96
Zn 1.22
loop_
_atom_site_label
_atom_site_type_symbol
_atom_site_fract_x
_atom_site_fract_y
_atom_site_fract_z
U1 U 0.04326(2) 0.42919(2) 0.63260(2)
U2 U 0.39732(2) 0.46550(2) 0.31864(2)
S1 S 0.19073(2) 0.45155(2) 0.45065(2)
S2 S -0.02321(2) 0.67580(2) 0.73879(2)
S3 S 0.51246(2) 0.21446(2) 0.26507(2)
O1 O -0.05426(7) 0.41311(7) 0.56490(7)
O2 O 0.14033(7) 0.44367(7) 0.70302(7)
O3 O 0.32676(8) 0.45869(7) 0.22570(7)
O4 O 0.46774(8) 0.47411(7) 0.41147(7)
O5 O 0.09579(8) 0.34421(6) 0.56649(7)
O6 O 0.10413(8) 0.46128(6) 0.54786(7)
O7 O 0.28727(7) 0.48581(7) 0.36059(7)
O8 O 0.32501(8) 0.37315(7) 0.35556(7)
O9 O 0.03374(8) 0.55897(6) 0.60230(6)
O10 O -0.00283(8) 0.52722(6) 0.69140(7)
O11 O 0.00064(8) 0.88572(6) 0.77173(7)
O12 O -0.05167(7) 0.80293(6) 0.81938(7)
O13 O 0.43924(8) 0.33914(6) 0.30976(7)
O14 O 0.50733(8) 0.42617(6) 0.28569(8)
O15 O 0.54292(8) 0.06713(6) 0.22241(8)
O16 O 0.63683(7) 0.09613(6) 0.18471(7)
C1 C 0.16077(10) 0.38072(9) 0.48975(9)
C2 C 0.18516(10) 0.31460(9) 0.47484(9)
H1 H 0.17327 0.26958 0.49151
C3 C 0.23008(11) 0.32138(9) 0.43175(10)
H2 H 0.25245 0.28143 0.41644
C4 C 0.2377(1) 0.39242(9) 0.41452(9)
C5 C 0.1173(1) 0.39604(9) 0.53662(9)
C6 C 0.28455(10) 0.41856(9) 0.37412(9)
C7 C 0.00560(9) 0.65272(8) 0.66945(8)
C8 C 0.02484(10) 0.71185(9) 0.63788(9)
H3 H 0.04118 0.70905 0.59814
C9 C 0.01743(10) 0.77737(9) 0.67152(9)
H4 H 0.02878 0.82392 0.65747
C10 C -0.00813(10) 0.76591(8) 0.72697(9)
C11 C 0.01171(10) 0.57570(8) 0.65312(8)
C12 C -0.02047(10) 0.82079(8) 0.77511(9)
C13 C 0.5366(1) 0.30442(8) 0.26567(9)
C14 C 0.59487(10) 0.31566(9) 0.23975(10)
H5 H 0.61632 0.36196 0.23694
C15 C 0.61899(10) 0.25018(9) 0.21782(9)
H6 H 0.65826 0.24737 0.19807
C16 C 0.57922(10) 0.19108(8) 0.22833(9)
C17 C 0.4929(1) 0.35928(9) 0.28875(9)
C18 C 0.58711(10) 0.11443(9) 0.21102(9)
Zn1 Zn 0.24606(2) 0.48976(2) 0.97793(2)
N1 N 0.11579(8) 0.47823(7) 0.92812(7)
N2 N 0.22448(8) 0.40709(7) 1.04609(7)
N3 N 0.27460(8) 0.41105(8) 0.91222(8)
N4 N 0.37372(8) 0.48102(8) 1.03538(8)
N5 N 0.23478(8) 0.57947(8) 0.90281(8)
N6 N 0.23759(8) 0.58401(8) 1.04059(7)
C19 C 0.0630(1) 0.51136(9) 0.86909(9)
H7 H 0.08213 0.54030 0.84001
C20 C -0.01966(10) 0.50579(9) 0.84746(9)
H8 H -0.05545 0.53052 0.80472
C21 C -0.04816(10) 0.46419(9) 0.88880(9)
H9 H -0.10398 0.46063 0.87558
C22 C 0.00609(10) 0.42658(9) 0.95124(9)
C23 C 0.08809(10) 0.43540(8) 0.96871(8)
C24 C 0.14548(10) 0.39608(8) 1.03026(8)
C25 C 0.11918(10) 0.34723(9) 1.06993(9)
C26 C 0.03529(11) 0.33915(10) 1.05080(9)
H10 H 0.01738 0.30615 1.07769
C27 C -0.01863(10) 0.37825(9) 0.99462(9)
H11 H -0.07384 0.37350 0.98384
C28 C 0.17752(11) 0.30684(9) 1.12730(9)
H12 H 0.16225 0.27346 1.15578
C29 C 0.25638(11) 0.31662(10) 1.14114(10)
H13 H 0.29643 0.28909 1.17855
C30 C 0.27756(11) 0.36779(9) 1.09946(9)
H14 H 0.33254 0.37444 1.11013
C31 C 0.22517(10) 0.37672(9) 0.85212(9)
H15 H 0.16989 0.38805 0.83329
C32 C 0.25104(11) 0.3243(1) 0.81512(10)
H16 H 0.21388 0.30126 0.77189
C33 C 0.33067(11) 0.30677(9) 0.84219(10)
H17 H 0.34909 0.27112 0.81813
C34 C 0.38483(10) 0.34222(9) 0.90607(9)
C35 C 0.35383(10) 0.39429(9) 0.93940(9)
C36 C 0.40635(10) 0.43134(9) 1.00511(9)
C37 C 0.48841(10) 0.41451(10) 1.03605(10)
C38 C 0.51817(11) 0.36139(10) 1.00085(10)
H18 H 0.57350 0.35009 1.02147
C39 C 0.46848(11) 0.32684(10) 0.93837(10)
H19 H 0.48965 0.29196 0.91585
C40 C 0.53671(11) 0.45129(11) 1.10149(10)
H20 H 0.59246 0.44198 1.12412
C41 C 0.50323(11) 0.50044(11) 1.1324(1)
H21 H 0.53519 0.52482 1.17694
C42 C 0.42103(10) 0.51424(10) 1.09731(9)
H22 H 0.39824 0.54877 1.11872
C43 C 0.23221(10) 0.57654(10) 0.83459(9)
H23 H 0.24406 0.53176 0.81744
C44 C 0.21276(11) 0.63675(11) 0.78692(10)
H24 H 0.21219 0.63273 0.73886
C45 C 0.19459(10) 0.70145(11) 0.81081(10)
H25 H 0.18138 0.74272 0.77931
C46 C 0.19557(10) 0.70650(9) 0.88226(9)
C47 C 0.21675(9) 0.64350(9) 0.92645(9)
C48 C 0.21929(9) 0.64635(9) 1.00023(9)
C49 C 0.20245(10) 0.71204(9) 1.02726(9)
C50 C 0.17880(11) 0.77462(10) 0.97993(10)
H26 H 0.16558 0.81846 0.99765
C51 C 0.17518(11) 0.77166(10) 0.9103(1)
H27 H 0.15889 0.81338 0.87954
C52 C 0.20912(10) 0.71305(10) 1.10082(10)
H28 H 0.20016 0.75673 1.12182
C53 C 0.22873(10) 0.65017(9) 1.14183(9)
H29 H 0.23340 0.64990 1.19142
C54 C 0.24177(10) 0.58630(9) 1.10941(9)
H30 H 0.25410 0.54289 1.13778
O17 O 0.19487(12) 0.60471(9) 0.60842(10)
H31 H 0.1512(10) 0.5841(16) 0.5860(18)
H32 H 0.2279(13) 0.5740(13) 0.6341(16)
O18 O 0.16701(9) 0.59998(8) 0.27802(8)
H33 H 0.2015(10) 0.5702(11) 0.3032(12)
H34 H 0.1246(8) 0.5895(13) 0.2816(14)
N7 N 0.62192(13) 0.26997(14) 0.46811(16)
C55 C 0.63793(12) 0.32983(14) 0.47366(14)
C56 C 0.66005(16) 0.40603(15) 0.47969(19)
H35 H 0.70530 0.41245 0.46591
H36 H 0.67515 0.42234 0.53073
H37 H 0.61461 0.43473 0.44648
N8 N 0.60182(13) 0.75424(13) 0.42219(12)
C57 C 0.57081(14) 0.71264(13) 0.44456(12)
C58 C 0.53172(15) 0.65994(13) 0.47304(12)
H38 H 0.54107 0.61097 0.45889
H39 H 0.47422 0.66970 0.45243
H40 H 0.55343 0.66353 0.52707
N9 N 0.68931(15) 0.49569(14) 0.27586(14)
C59 C 0.67251(18) 0.5360(2) 0.30871(17)
C60 C 0.6478(3) 0.5889(2) 0.3544(2)
H41 H 0.58939 0.59153 0.33450
H42 H 0.66944 0.63711 0.35246
H43 H 0.66853 0.57219 0.40585
U1A U -0.04326(2) 0.92919(2) 0.86740(2)
U2A U 0.60268(2) -0.03450(2) 0.18136(2)
O11A O -0.00064(8) 0.38572(6) 0.72827(7)
O12A O 0.05167(7) 0.30293(6) 0.68062(7)
O15A O 0.45708(8) 0.56713(6) 0.27759(8)
O16A O 0.36317(7) 0.59613(6) 0.31529(7)
#END
