
#######################################################################
#
#                 Cambridge Crystallographic Data Centre
#                                CCDC
#
#######################################################################
#
# If this CIF has been generated from an entry in the Cambridge
# Structural Database, then it will include bibliographic, chemical,
# crystal, experimental, refinement or atomic coordinate data resulting
# from the CCDC's data processing and validation procedures.
#
#######################################################################

data_CSD_CIF_EWIQOT
_audit_creation_date 2021-06-25
_audit_creation_method CSD-ConQuest-V1
_database_code_CSD EWIQOT
_database_code_depnum_ccdc_archive 'CCDC 2075815'
_chemical_formula_sum 'C28 H44 Cu1 N4 O12 S2 U1'
_chemical_formula_moiety
;
(C16 H38 Cu1 N4 O1 2+)n,n(C12 H4 O10 S2 U1 2-),n(H2 O1)
;
_journal_coden_Cambridge 9
_journal_volume 60
_journal_year 2021
_journal_page_first 9074
_journal_name_full 'Inorg.Chem. '
loop_
_publ_author_name
"P.Thuery"
"J.Harrowfield"
_chemical_name_systematic
;
catena-(aqua-((R,S)-5,5,7,12,12,14-hexamethyl-1,4,8,11-tetra-azacyclotetradeca
ne)-copper(ii) bis(\m-thiophene-2,5-dicarboxylato)-dioxo-uranium monohydrate)
;
_cell_volume   3478.151
_exptl_crystal_colour 'intense purple'
_exptl_crystal_density_diffrn 1.899
_exptl_crystal_description 'irregular'
_diffrn_ambient_temperature 100
_diffrn_special_details
;
twin

;
#These two values have been output from a single CSD field.
_refine_ls_R_factor_gt 0.0169
_refine_ls_wR_factor_gt 0.0169
_symmetry_cell_setting monoclinic
_symmetry_space_group_name_H-M 'C c'
_symmetry_Int_Tables_number 9
loop_
_symmetry_equiv_pos_site_id
_symmetry_equiv_pos_as_xyz
1 x,y,z
2 x,-y,1/2+z
3 1/2+x,1/2+y,z
4 1/2+x,1/2-y,1/2+z
_cell_length_a 19.8821(6)
_cell_length_b 9.7129(3)
_cell_length_c 18.0419(4)
_cell_angle_alpha 90
_cell_angle_beta 93.3551(11)
_cell_angle_gamma 90
_cell_formula_units_Z 4
loop_
_atom_type_symbol
_atom_type_radius_bond
C 0.68
H 0.23
Cu 1.32
N 0.68
O 0.68
S 1.02
U 1.96
loop_
_atom_site_label
_atom_site_type_symbol
_atom_site_fract_x
_atom_site_fract_y
_atom_site_fract_z
U1 U 0.59313(2) 0.70999(2) 0.25154(2)
S1 S 0.54628(5) 0.41206(9) 0.49359(5)
S2 S 0.73850(4) 0.97038(9) 0.51889(5)
O1 O 0.53644(13) 0.8293(3) 0.28943(14)
O2 O 0.64972(14) 0.5873(3) 0.21643(15)
O3 O 0.59482(13) 0.5777(3) 0.36892(14)
O4 O 0.51019(15) 0.5355(3) 0.28777(15)
O5 O 0.52348(14) 0.3239(3) 0.64571(14)
O6 O 0.45092(16) 0.1548(3) 0.61265(18)
O7 O 0.67778(13) 0.8071(3) 0.32773(14)
O8 O 0.77362(15) 0.7809(3) 0.39705(16)
O9 O 0.62784(14) 1.1232(3) 0.67078(15)
O10 O 0.73965(14) 1.1231(3) 0.65991(16)
C1 C 0.50428(19) 0.4434(4) 0.40929(19)
C2 C 0.4405(2) 0.3882(4) 0.4053(2)
H1 H 0.40947 0.39720 0.36349
C3 C 0.42641(19) 0.3166(4) 0.4709(2)
H2 H 0.38501 0.27086 0.47789
C4 C 0.47899(18) 0.3203(3) 0.5231(2)
C5 C 0.53780(19) 0.5219(4) 0.3519(2)
C6 C 0.48397(19) 0.2590(4) 0.5994(2)
C7 C 0.68743(18) 0.9147(4) 0.44460(19)
C8 C 0.62136(19) 0.9482(4) 0.4521(2)
H3 H 0.58610 0.92672 0.41611
C9 C 0.6113(2) 1.0185(4) 0.5192(2)
H4 H 0.56862 1.04932 0.53362
C10 C 0.67040(19) 1.0370(4) 0.5611(2)
C11 C 0.7157(2) 0.8293(5) 0.3866(2)
C12 C 0.68113(19) 1.1004(4) 0.6363(2)
Cu1 Cu 0.35377(2) -0.02108(4) 0.69748(2)
O11 O 0.31127(15) -0.2112(3) 0.75434(15)
H5 H 0.303(2) -0.223(5) 0.7987(9)
H6 H 0.285(2) -0.262(4) 0.7283(19)
N1 N 0.44183(15) -0.0443(3) 0.75640(17)
H7 H 0.4687(19) 0.024(3) 0.742(2)
N2 N 0.32732(16) 0.1065(3) 0.78142(18)
H8 H 0.2949(16) 0.060(4) 0.804(2)
N3 N 0.26730(15) 0.0187(3) 0.63525(17)
H9 H 0.2383(18) -0.040(4) 0.656(2)
N4 N 0.38516(16) -0.1172(3) 0.60507(16)
H10 H 0.403(2) -0.045(3) 0.582(2)
C13 C 0.4253(2) -0.0204(4) 0.8340(2)
H11 H 0.46713 -0.01305 0.86627
H12 H 0.39829 -0.09796 0.85180
C14 C 0.3856(2) 0.1119(4) 0.8365(2)
H13 H 0.36943 0.12513 0.88692
H14 H 0.41490 0.19074 0.82540
C15 C 0.2965(2) 0.2447(4) 0.7606(2)
C16 C 0.2314(2) 0.2156(4) 0.7129(2)
H15 H 0.20449 0.14877 0.74015
H16 H 0.20520 0.30224 0.70909
C17 C 0.23752(19) 0.1603(4) 0.6344(2)
H17 H 0.26826 0.22285 0.60820
C18 C 0.3456(2) 0.3311(4) 0.7180(3)
H18 H 0.36161 0.27702 0.67670
H19 H 0.38399 0.35785 0.75141
H20 H 0.32260 0.41395 0.69850
C19 C 0.2775(2) 0.3237(5) 0.8302(3)
H21 H 0.25377 0.40862 0.81537
H22 H 0.31846 0.34652 0.86059
H23 H 0.24812 0.26616 0.85913
C20 C 0.1682(2) 0.1627(4) 0.5920(2)
H24 H 0.17324 0.13747 0.54001
H25 H 0.14893 0.25544 0.59430
H26 H 0.13813 0.09686 0.61455
C21 C 0.2765(2) -0.0306(4) 0.5585(2)
H27 H 0.29572 0.04415 0.52899
H28 H 0.23227 -0.05653 0.53440
C22 C 0.32294(19) -0.1532(4) 0.5604(2)
H29 H 0.30076 -0.23309 0.58275
H30 H 0.33397 -0.17825 0.50932
C23 C 0.4396(2) -0.2259(4) 0.6069(2)
C24 C 0.49705(19) -0.1804(4) 0.6619(2)
H31 H 0.53498 -0.24530 0.65754
H32 H 0.51270 -0.08883 0.64602
C25 C 0.48249(19) -0.1706(4) 0.7439(2)
H33 H 0.45563 -0.25298 0.75738
C26 C 0.4116(2) -0.3652(4) 0.6293(2)
H34 H 0.38440 -0.35334 0.67247
H35 H 0.44892 -0.42832 0.64199
H36 H 0.38339 -0.40323 0.58788
C27 C 0.4677(2) -0.2370(4) 0.5294(2)
H37 H 0.43272 -0.27306 0.49413
H38 H 0.50655 -0.29923 0.53166
H39 H 0.48174 -0.14562 0.51322
C28 C 0.5494(2) -0.1719(4) 0.7906(2)
H40 H 0.57664 -0.09246 0.77728
H41 H 0.57389 -0.25697 0.78091
H42 H 0.54055 -0.16697 0.84338
O12 O 0.73512(17) 0.4974(3) 0.38758(19)
H43 H 0.6935(10) 0.511(5) 0.375(3)
H44 H 0.751(2) 0.577(3) 0.396(3)
U1A U 0.59313(2) 0.29001(2) 0.75154(2)
U1A* U 0.59313(2) 1.29001(2) 0.75154(2)
O5A O 0.52348(14) 0.6761(3) 0.14571(14)
O9A O 0.62784(14) 0.8768(3) 0.17078(15)
#END
