
#######################################################################
#
#                 Cambridge Crystallographic Data Centre
#                                CCDC
#
#######################################################################
#
# If this CIF has been generated from an entry in the Cambridge
# Structural Database, then it will include bibliographic, chemical,
# crystal, experimental, refinement or atomic coordinate data resulting
# from the CCDC's data processing and validation procedures.
#
#######################################################################

data_CSD_CIF_EWIRAG
_audit_creation_date 2021-06-25
_audit_creation_method CSD-ConQuest-V1
_database_code_CSD EWIRAG
_database_code_depnum_ccdc_archive 'CCDC 2075817'
_chemical_formula_sum 'C66 H50 O18 P2 S3 U2'
_chemical_formula_moiety
;
(C18 H6 O16 S3 U2 2-)n,2n(C24 H20 P1 1+),2n(H2 O1)
;
_journal_coden_Cambridge 9
_journal_volume 60
_journal_year 2021
_journal_page_first 9074
_journal_name_full 'Inorg.Chem. '
loop_
_publ_author_name
"P.Thuery"
"J.Harrowfield"
_chemical_name_systematic
;
catena-(bis(tetraphenylphosphonium) 
tris(\m-thiophene-2,5-dicarboxylato)-tetraoxo-di-uranium dihydrate)
;
_cell_volume  12849.591
_exptl_crystal_colour 'pale yellow'
_exptl_crystal_density_diffrn 1.825
_exptl_crystal_description 'parallelepiped'
_diffrn_ambient_temperature 100
#These two values have been output from a single CSD field.
_refine_ls_R_factor_gt 0.0413
_refine_ls_wR_factor_gt 0.0413
_symmetry_cell_setting orthorhombic
_symmetry_space_group_name_H-M 'P b c a'
_symmetry_Int_Tables_number 61
loop_
_symmetry_equiv_pos_site_id
_symmetry_equiv_pos_as_xyz
1 x,y,z
2 1/2-x,-y,1/2+z
3 1/2+x,1/2-y,-z
4 -x,1/2+y,1/2-z
5 -x,-y,-z
6 -1/2+x,y,-1/2-z
7 -1/2-x,-1/2+y,z
8 x,-1/2-y,-1/2+z
_cell_length_a 17.8772(4)
_cell_length_b 18.2236(5)
_cell_length_c 39.4417(10)
_cell_angle_alpha 90
_cell_angle_beta 90
_cell_angle_gamma 90
_cell_formula_units_Z 8
loop_
_atom_type_symbol
_atom_type_radius_bond
C 0.68
H 0.23
O 0.68
P 1.05
S 1.02
U 1.96
loop_
_atom_site_label
_atom_site_type_symbol
_atom_site_fract_x
_atom_site_fract_y
_atom_site_fract_z
U1 U 0.59396(2) 0.88767(2) 0.80524(2)
U2 U 1.09267(2) 0.94182(2) 0.94637(2)
S1 S 0.82657(9) 0.91263(9) 0.89361(5)
S2 S 0.50421(10) 0.63381(9) 0.75282(4)
S3 S 1.24963(10) 0.69267(9) 0.94434(5)
O1 O 0.5218(3) 0.8913(3) 0.83577(12)
O2 O 0.6660(3) 0.8833(3) 0.77485(11)
O3 O 1.0916(3) 0.9537(3) 0.99083(12)
O4 O 1.0949(3) 0.9310(3) 0.90217(11)
O5 O 0.6631(3) 0.9841(2) 0.83537(12)
O6 O 0.6948(3) 0.8711(2) 0.84786(12)
O7 O 0.9892(2) 1.0290(2) 0.93374(11)
O8 O 0.9586(3) 0.9128(2) 0.94027(13)
O9 O 0.6116(2) 0.7550(2) 0.81899(11)
O10 O 0.5356(3) 0.7825(2) 0.77726(11)
O11 O 0.4953(3) 0.4202(2) 0.74116(12)
O12 O 0.4387(3) 0.5109(2) 0.71473(12)
O13 O 1.0654(2) 0.8085(2) 0.95235(13)
O14 O 1.1841(2) 0.8404(2) 0.95017(13)
O15 O 1.2745(3) 0.4791(3) 0.94221(17)
O16 O 1.3579(3) 0.5672(2) 0.93992(13)
C1 C 0.7674(4) 0.9690(4) 0.87143(17)
C2 C 0.7864(4) 1.0417(4) 0.87483(17)
H1 H 0.76014 1.08077 0.86426
C3 C 0.8492(3) 1.0514(4) 0.89574(17)
H2 H 0.86949 1.09812 0.90116
C4 C 0.8779(4) 0.9871(4) 0.90745(17)
C5 C 0.7052(4) 0.9398(4) 0.85058(16)
C6 C 0.9442(4) 0.9767(4) 0.92885(17)
C7 C 0.5615(4) 0.6568(3) 0.78640(15)
C8 C 0.5878(4) 0.5960(4) 0.80255(19)
H3 H 0.61758 0.59776 0.82247
C9 C 0.5666(4) 0.5319(4) 0.78693(17)
H4 H 0.58322 0.48488 0.79414
C10 C 0.5190(4) 0.5420(3) 0.75992(17)
C11 C 0.5692(4) 0.7341(4) 0.79532(17)
C12 C 0.4828(4) 0.4880(4) 0.73753(17)
C13 C 1.1563(4) 0.7144(4) 0.94625(19)
C14 C 1.1116(5) 0.6517(5) 0.9426(2)
H5 H 1.05850 0.65260 0.94183
C15 C 1.1541(4) 0.5882(4) 0.9402(3)
H6 H 1.13316 0.54044 0.93837
C16 C 1.2294(4) 0.6017(4) 0.9409(2)
C17 C 1.1343(4) 0.7918(4) 0.94996(18)
C18 C 1.2904(4) 0.5466(4) 0.9404(2)
P1 P 0.34581(10) 0.65665(10) 0.55365(5)
C19 C 0.2553(4) 0.6952(3) 0.56195(16)
C20 C 0.2038(4) 0.6987(4) 0.53536(18)
H7 H 0.21777 0.68318 0.51326
C21 C 0.1318(4) 0.7249(4) 0.54139(18)
H8 H 0.09562 0.72535 0.52373
C22 C 0.1134(4) 0.7504(4) 0.57361(18)
H9 H 0.06469 0.76920 0.57770
C23 C 0.1645(4) 0.7489(4) 0.59952(18)
H10 H 0.15093 0.76641 0.62136
C24 C 0.2366(4) 0.7216(3) 0.59384(17)
H11 H 0.27245 0.72116 0.61163
C25 C 0.4042(4) 0.6675(4) 0.59036(17)
C26 C 0.4481(4) 0.7310(4) 0.59422(18)
H12 H 0.44987 0.76688 0.57677
C27 C 0.4889(4) 0.7405(4) 0.62383(19)
H13 H 0.51878 0.78320 0.62652
C28 C 0.4867(4) 0.6893(4) 0.64925(19)
H14 H 0.51471 0.69701 0.66941
C29 C 0.4434(4) 0.6258(4) 0.64568(19)
H15 H 0.44219 0.59012 0.66323
C30 C 0.4022(4) 0.6155(4) 0.61617(18)
H16 H 0.37254 0.57257 0.61360
C31 C 0.3362(4) 0.5603(4) 0.54430(19)
C32 C 0.2678(4) 0.5322(4) 0.53430(19)
H17 H 0.22515 0.56314 0.53297
C33 C 0.2621(5) 0.4575(4) 0.5262(2)
H18 H 0.21526 0.43744 0.51947
C34 C 0.3234(6) 0.4139(5) 0.5278(3)
H19 H 0.31907 0.36333 0.52226
C35 C 0.3915(6) 0.4412(5) 0.5374(3)
H20 H 0.43387 0.40972 0.53829
C36 C 0.3989(5) 0.5152(4) 0.5459(2)
H21 H 0.44599 0.53441 0.55273
C37 C 0.3825(4) 0.7051(4) 0.51794(18)
C38 C 0.4069(4) 0.6683(4) 0.48894(19)
H22 H 0.40411 0.61633 0.48753
C39 C 0.4351(5) 0.7092(5) 0.4623(2)
H23 H 0.45238 0.68495 0.44244
C40 C 0.4385(4) 0.7857(5) 0.4642(2)
H24 H 0.45724 0.81329 0.44562
C41 C 0.4149(4) 0.8208(4) 0.49290(19)
H25 H 0.41862 0.87272 0.49445
C42 C 0.3860(4) 0.7815(4) 0.51938(19)
H26 H 0.36822 0.80642 0.53892
P2 P 0.72034(10) 0.17776(10) 0.70481(4)
C43 C 0.6434(4) 0.1682(4) 0.67583(17)
C44 C 0.6062(4) 0.2303(4) 0.66402(17)
H27 H 0.61959 0.27755 0.67218
C45 C 0.5492(4) 0.2227(4) 0.64014(16)
H28 H 0.52310 0.26470 0.63209
C46 C 0.5308(4) 0.1530(4) 0.62818(18)
H29 H 0.49279 0.14777 0.61151
C47 C 0.5667(4) 0.0926(4) 0.64012(18)
H30 H 0.55291 0.04536 0.63201
C48 C 0.6231(4) 0.0990(4) 0.66400(18)
H31 H 0.64785 0.05650 0.67225
C49 C 0.6917(4) 0.2071(4) 0.74630(18)
C50 C 0.7334(4) 0.1876(5) 0.77458(18)
H32 H 0.77213 0.15217 0.77275
C51 C 0.7179(4) 0.2207(5) 0.8058(2)
H33 H 0.74610 0.20750 0.82531
C52 C 0.6619(4) 0.2723(5) 0.80841(19)
H34 H 0.65210 0.29504 0.82962
C53 C 0.6196(4) 0.2912(4) 0.78018(19)
H35 H 0.58064 0.32637 0.78223
C54 C 0.6339(4) 0.2593(4) 0.74932(18)
H36 H 0.60492 0.27229 0.73005
C55 C 0.7698(4) 0.0924(4) 0.70663(18)
C56 C 0.7451(4) 0.0347(4) 0.7270(2)
H37 H 0.70381 0.04137 0.74185
C57 C 0.7817(4) -0.0331(5) 0.7253(2)
H38 H 0.76520 -0.07277 0.73903
C58 C 0.8421(4) -0.0425(5) 0.7036(2)
H39 H 0.86680 -0.08858 0.70259
C59 C 0.8666(4) 0.0146(5) 0.6834(2)
H40 H 0.90738 0.00776 0.66825
C60 C 0.8307(4) 0.0820(5) 0.6855(2)
H41 H 0.84830 0.12184 0.67210
C61 C 0.7817(4) 0.2466(4) 0.68870(17)
C62 C 0.8340(4) 0.2771(4) 0.71079(19)
H42 H 0.83698 0.26022 0.73354
C63 C 0.8819(4) 0.3323(4) 0.69962(19)
H43 H 0.91792 0.35282 0.71457
C64 C 0.8765(4) 0.3567(4) 0.66682(19)
H44 H 0.90839 0.39506 0.65925
C65 C 0.8257(5) 0.3265(5) 0.6448(2)
H45 H 0.82259 0.34425 0.62219
C66 C 0.7788(4) 0.2701(5) 0.65541(19)
H46 H 0.74502 0.24785 0.63990
O17 O 0.4651(6) 0.9331(5) 0.9071(2)
O18 O 0.3220(5) 0.8835(5) 0.9072(2)
U1C U 0.40604(2) 0.38767(2) 0.69476(2)
U2F U 1.40733(2) 0.44182(2) 0.94637(2)
O11C O 0.5047(3) 0.9202(2) 0.75884(12)
O12C O 0.5613(3) 1.0109(2) 0.78527(12)
O15F O 1.2255(3) 0.9791(3) 0.94221(17)
O16F O 1.1421(3) 1.0672(2) 0.93992(13)
#END
