
#######################################################################
#
#                 Cambridge Crystallographic Data Centre
#                                CCDC
#
#######################################################################
#
# If this CIF has been generated from an entry in the Cambridge
# Structural Database, then it will include bibliographic, chemical,
# crystal, experimental, refinement or atomic coordinate data resulting
# from the CCDC's data processing and validation procedures.
#
#######################################################################

data_CSD_CIF_EWUGIN
_audit_creation_date 2011-10-18
_audit_creation_method CSD-ConQuest-V1
_database_code_CSD EWUGIN
_database_code_depnum_ccdc_archive 'CCDC 771495'
_chemical_formula_sum 'C128 H108 F20 Fe4 O6 P2 Pt2 Tl2'
_chemical_formula_moiety
;
(C19 H18 P1 1+)2n,n(C72 H36 F20 Fe4 Pt2 Tl2 2-),6n(C3 H6 O1)
;
_journal_coden_Cambridge 9
_journal_volume 49
_journal_year 2010
_journal_page_first 11606
_journal_name_full 'Inorg.Chem. '
loop_
_publ_author_name
"A.Diez"
"J.Fernandez"
"E.Lalinde"
"M.T.Moreno"
"S.Sanchez"
_chemical_name_systematic
;
catena-(bis(Methyl(triphenyl)phosphonium) 
tetrakis(\m~2~-ferrocenylethynyl)-bis((\m~2~-pentafluorobenzene)-(pentafluorop
henyl))-di-thallium-di-platinum acetone solvate)
;
_cell_volume   2889.432
_exptl_crystal_colour 'pale orange'
_exptl_crystal_density_diffrn 1.843
_exptl_crystal_description 'block'
_diffrn_ambient_temperature 173
#These two values have been output from a single CSD field.
_refine_ls_R_factor_gt 0.0452
_refine_ls_wR_factor_gt 0.0452
_symmetry_cell_setting triclinic
_symmetry_space_group_name_H-M 'P -1'
_symmetry_Int_Tables_number 2
loop_
_symmetry_equiv_pos_site_id
_symmetry_equiv_pos_as_xyz
1 x,y,z
2 -x,-y,-z
_cell_length_a 11.688
_cell_length_b 16.063
_cell_length_c 17.105
_cell_angle_alpha 75.19
_cell_angle_beta 70.36
_cell_angle_gamma 76.96
_cell_formula_units_Z 1
loop_
_atom_type_symbol
_atom_type_radius_bond
C 0.68
H 0.23
F 0.78
Fe 1.52
O 0.68
P 1.05
Pt 1.36
Tl 2.00
loop_
_atom_site_label
_atom_site_type_symbol
_atom_site_fract_x
_atom_site_fract_y
_atom_site_fract_z
C1 C 0.5967(6) 0.3777(4) 0.4998(4)
C2 C 0.6647(6) 0.3092(4) 0.4962(4)
C3 C 0.7434(6) 0.2271(4) 0.4972(4)
C4 C 0.8677(6) 0.2090(4) 0.4998(4)
H1 H 0.91390 0.25000 0.49800
C5 C 0.9089(7) 0.1178(4) 0.5057(5)
H2 H 0.98580 0.08870 0.50960
C6 C 0.8124(6) 0.0794(4) 0.5045(4)
H3 H 0.81470 0.02050 0.50710
C7 C 0.7113(6) 0.1460(4) 0.4985(4)
H4 H 0.63630 0.13810 0.49580
C8 C 0.8537(9) 0.2571(6) 0.2896(5)
H5 H 0.80910 0.31300 0.28690
C9 C 0.9775(9) 0.2321(7) 0.2934(5)
H6 H 1.02810 0.26930 0.29340
C10 C 1.0094(8) 0.1420(7) 0.2973(6)
H7 H 1.08440 0.10880 0.30070
C11 C 0.9074(8) 0.1106(6) 0.2952(5)
H8 H 0.90390 0.05290 0.29650
C12 C 0.8124(9) 0.1808(7) 0.2907(5)
H9 H 0.73500 0.17760 0.28880
C13 C 0.9119(5) 0.6227(4) 0.4763(4)
C14 C 0.8524(6) 0.6924(4) 0.4595(4)
C15 C 0.7841(6) 0.7760(4) 0.4398(4)
C16 C 0.6602(6) 0.7948(4) 0.4326(4)
H10 H 0.61140 0.75390 0.43830
C17 C 0.6267(6) 0.8871(4) 0.4152(4)
H11 H 0.55190 0.91670 0.40760
C18 C 0.7261(6) 0.9267(4) 0.4114(4)
H12 H 0.72810 0.98610 0.40100
C19 C 0.8213(6) 0.8589(4) 0.4264(4)
H13 H 0.89720 0.86680 0.42750
C20 C 0.6654(7) 0.7671(4) 0.6402(4)
H14 H 0.70630 0.71020 0.64800
C21 C 0.5452(7) 0.7922(4) 0.6329(4)
H15 H 0.49330 0.75500 0.63500
C22 C 0.5174(6) 0.8850(4) 0.6219(4)
H16 H 0.44400 0.91900 0.61560
C23 C 0.6220(7) 0.9163(4) 0.6222(4)
H17 H 0.62900 0.97430 0.61610
C24 C 0.7139(7) 0.8429(5) 0.6336(4)
H18 H 0.79160 0.84450 0.63620
C25 C 0.5255(5) 0.5149(4) 0.3711(4)
C26 C 0.5879(6) 0.5765(4) 0.3100(4)
C27 C 0.6121(7) 0.5827(4) 0.2243(4)
C28 C 0.5726(7) 0.5243(4) 0.1967(4)
C29 C 0.5091(7) 0.4621(4) 0.2538(4)
C30 C 0.4841(6) 0.4600(4) 0.3388(4)
C31 C 0.8927(5) 0.4846(4) 0.6248(4)
C32 C 0.8195(6) 0.4197(4) 0.6643(4)
C33 C 0.7508(6) 0.4074(5) 0.7471(5)
C34 C 0.7499(7) 0.4619(5) 0.7967(5)
C35 C 0.8204(8) 0.5275(5) 0.7614(5)
C36 C 0.8896(7) 0.5374(4) 0.6778(5)
C37 C 0.6963(7) 0.0318(5) 0.1985(4)
H19 H 0.73510 -0.02440 0.22080
H20 H 0.63820 0.05730 0.24420
H21 H 0.75760 0.06880 0.16780
C38 C 0.5455(6) 0.1261(4) 0.0890(4)
C39 C 0.4723(7) 0.1774(4) 0.1461(5)
H22 H 0.46090 0.15650 0.20370
C40 C 0.4153(8) 0.2601(5) 0.1181(6)
H23 H 0.36550 0.29480 0.15640
C41 C 0.4340(8) 0.2901(5) 0.0314(6)
H24 H 0.39610 0.34540 0.01210
C42 C 0.5072(7) 0.2397(5) -0.0261(5)
H25 H 0.51960 0.26100 -0.08370
C43 C 0.5628(7) 0.1566(5) 0.0025(4)
H26 H 0.61130 0.12150 -0.03590
C44 C 0.7259(6) -0.0282(4) 0.0440(4)
C45 C 0.8300(7) 0.0106(5) -0.0052(4)
H27 H 0.84210 0.06160 0.00500
C46 C 0.9156(7) -0.0289(6) -0.0700(5)
H28 H 0.98540 -0.00410 -0.10300
C47 C 0.8970(8) -0.1043(6) -0.0852(5)
H29 H 0.95470 -0.13020 -0.12820
C48 C 0.7957(9) -0.1409(6) -0.0382(5)
H30 H 0.78440 -0.19170 -0.04940
C49 C 0.7077(7) -0.1036(5) 0.0272(4)
H31 H 0.63790 -0.12900 0.05900
C50 C 0.5025(6) -0.0478(4) 0.1870(4)
C51 C 0.5321(7) -0.1269(4) 0.2396(4)
H32 H 0.61200 -0.14460 0.24310
C52 C 0.4429(7) -0.1784(4) 0.2859(4)
H33 H 0.46270 -0.23060 0.32090
C53 C 0.3246(7) -0.1529(5) 0.2808(5)
H34 H 0.26460 -0.18770 0.31290
C54 C 0.2947(7) -0.0759(5) 0.2282(5)
H35 H 0.21490 -0.05910 0.22440
C55 C 0.3838(6) -0.0236(4) 0.1810(4)
H36 H 0.36380 0.02790 0.14510
C56 C 0.8700(18) 0.2840(12) -0.0333(12)
H37 H 0.93210 0.31560 -0.03560
H38 H 0.81840 0.32000 -0.06630
H39 H 0.90850 0.23220 -0.05580
C57 C 0.8035(10) 0.2627(6) 0.0453(7)
C58 C 0.7206(10) 0.3306(7) 0.0881(7)
H40 H 0.67570 0.30470 0.14400
H41 H 0.66410 0.36110 0.05670
H42 H 0.76740 0.37070 0.09170
C59 C -0.0832(18) 0.4832(11) 0.1465(14)
H43 H -0.11330 0.54450 0.13550
H44 H -0.06320 0.46760 0.19890
H45 H -0.14540 0.45100 0.15010
C60 C 0.0617(17) 0.3718(11) 0.0597(14)
H46 H 0.12750 0.37140 0.00770
H47 H -0.00790 0.35370 0.05450
H48 H 0.08830 0.33240 0.10510
C61 C 1.0385(7) 0.8004(5) 0.2495(6)
H49 H 1.11460 0.78620 0.20760
H50 H 1.03860 0.76280 0.30300
H51 H 1.02930 0.85990 0.25450
C62 C 0.9333(7) 0.7885(5) 0.2234(5)
C63 C 0.9102(8) 0.6968(5) 0.2393(5)
H52 H 0.88030 0.67560 0.29920
H53 H 0.98550 0.66070 0.21600
H54 H 0.85020 0.69540 0.21300
F1 F 0.6331(3) 0.6348(2) 0.3330(2)
F2 F 0.6730(4) 0.6456(3) 0.1675(3)
F3 F 0.5956(5) 0.5288(3) 0.1132(3)
F4 F 0.4693(4) 0.4050(2) 0.2276(2)
F5 F 0.4149(3) 0.3994(2) 0.3931(2)
F6 F 0.8100(3) 0.3645(2) 0.6186(2)
F7 F 0.6811(4) 0.3424(3) 0.7817(3)
F8 F 0.6821(5) 0.4529(4) 0.8789(3)
F9 F 0.8193(5) 0.5851(4) 0.8086(3)
F10 F 0.9598(4) 0.6028(2) 0.6487(3)
P1 P 0.61787(16) 0.02009(11) 0.12865(10)
Fe1 Fe 0.86044(9) 0.17004(6) 0.39729(6)
Fe2 Fe 0.66755(8) 0.84802(5) 0.52709(6)
Pt1 Pt 0.50000 0.50000 0.50000
Pt2 Pt 1.00000 0.50000 0.50000
Tl1 Tl 0.77382(2) 0.498572(16) 0.454238(18)
O1 O 0.8176(8) 0.1888(5) 0.0800(7)
O2 O 0.0994(15) 0.5172(10) 0.0375(12)
O3 O 0.8704(6) 0.8497(4) 0.1933(4)
C64 C 0.026(2) 0.4627(14) 0.0781(17)
C1A C 0.4033(6) 0.6223(4) 0.5002(4)
C2A C 0.3353(6) 0.6908(4) 0.5038(4)
C3A C 0.2566(6) 0.7729(4) 0.5028(4)
C4A C 0.1323(6) 0.7910(4) 0.5002(4)
H1A H 0.08610 0.75000 0.50200
C5A C 0.0911(7) 0.8822(4) 0.4943(5)
H2A H 0.01420 0.91130 0.49040
C6A C 0.1876(6) 0.9206(4) 0.4955(4)
H3A H 0.18530 0.97950 0.49290
C7A C 0.2887(6) 0.8540(4) 0.5015(4)
H4A H 0.36370 0.86190 0.50420
C8A C 0.1463(9) 0.7429(6) 0.7104(5)
H5A H 0.19090 0.68700 0.71310
C9A C 0.0225(9) 0.7679(7) 0.7066(5)
H6A H -0.02810 0.73070 0.70660
C10A C -0.0094(8) 0.8580(7) 0.7027(6)
H7A H -0.08440 0.89120 0.69930
C11A C 0.0926(8) 0.8894(6) 0.7048(5)
H8A H 0.09610 0.94710 0.70350
C12A C 0.1876(9) 0.8192(7) 0.7093(5)
H9A H 0.26500 0.82240 0.71120
C13A C 0.0881(5) 0.3773(4) 0.5237(4)
C13A* C 1.0881(5) 0.3773(4) 0.5237(4)
C14A C 0.1476(6) 0.3076(4) 0.5405(4)
C15A C 0.2159(6) 0.2240(4) 0.5602(4)
C16A C 0.3398(6) 0.2052(4) 0.5674(4)
H10A H 0.38860 0.24610 0.56170
C17A C 0.3733(6) 0.1129(4) 0.5848(4)
H11A H 0.44810 0.08330 0.59240
C18A C 0.2739(6) 0.0733(4) 0.5886(4)
H12A H 0.27190 0.01390 0.59900
C19A C 0.1787(6) 0.1411(4) 0.5736(4)
H13A H 0.10280 0.13320 0.57250
C20A C 0.3346(7) 0.2329(4) 0.3598(4)
H14A H 0.29370 0.28980 0.35200
C21A C 0.4548(7) 0.2078(4) 0.3671(4)
H15A H 0.50670 0.24500 0.36500
C22A C 0.4826(6) 0.1150(4) 0.3781(4)
H16A H 0.55600 0.08100 0.38440
C23A C 0.3780(7) 0.0837(4) 0.3778(4)
H17A H 0.37100 0.02570 0.38390
C24A C 0.2861(7) 0.1571(5) 0.3664(4)
H18A H 0.20840 0.15550 0.36380
C25A C 0.4745(5) 0.4851(4) 0.6289(4)
C26A C 0.4121(6) 0.4235(4) 0.6900(4)
C27A C 0.3879(7) 0.4173(4) 0.7757(4)
C28A C 0.4274(7) 0.4757(4) 0.8033(4)
C29A C 0.4909(7) 0.5379(4) 0.7462(4)
C30A C 0.5159(6) 0.5400(4) 0.6612(4)
C31A C 0.1073(5) 0.5154(4) 0.3752(4)
C31A* C 1.1073(5) 0.5154(4) 0.3752(4)
C32A C 0.1805(6) 0.5803(4) 0.3357(4)
C33A C 0.2492(6) 0.5926(5) 0.2529(5)
C34A C 0.2501(7) 0.5381(5) 0.2033(5)
C35A C 0.1796(8) 0.4725(5) 0.2386(5)
C36A C 0.1104(7) 0.4626(4) 0.3222(5)
F1A F 0.3669(3) 0.3652(2) 0.6670(2)
F2A F 0.3270(4) 0.3544(3) 0.8325(3)
F3A F 0.4044(5) 0.4712(3) 0.8868(3)
F4A F 0.5307(4) 0.5950(2) 0.7724(2)
F5A F 0.5851(3) 0.6006(2) 0.6069(2)
F6A F 0.1900(3) 0.6355(2) 0.3814(2)
F7A F 0.3189(4) 0.6576(3) 0.2183(3)
F8A F 0.3179(5) 0.5471(4) 0.1211(3)
F9A F 0.1807(5) 0.4149(4) 0.1914(3)
F10A F 0.0402(4) 0.3972(2) 0.3513(3)
Fe1A Fe 0.13956(9) 0.82996(6) 0.60271(6)
Fe2A Fe 0.33245(8) 0.15198(5) 0.47291(6)
Pt2* Pt 0.00000 0.50000 0.50000
Tl1A Tl 0.22618(2) 0.501428(16) 0.545762(18)
Tl1A* Tl 1.22618(2) 0.501428(16) 0.545762(18)
#END
