
#######################################################################
#
#                 Cambridge Crystallographic Data Centre
#                                CCDC
#
#######################################################################
#
# If this CIF has been generated from an entry in the Cambridge
# Structural Database, then it will include bibliographic, chemical,
# crystal, experimental, refinement or atomic coordinate data resulting
# from the CCDC's data processing and validation procedures.
#
#######################################################################

data_CSD_CIF_EWUGEJ
_audit_creation_date 2011-10-18
_audit_creation_method CSD-ConQuest-V1
_database_code_CSD EWUGEJ
_database_code_depnum_ccdc_archive 'CCDC 771494'
_chemical_formula_sum 'C113 H78 Cl6 F20 Fe4 P2 Pt2 Tl2'
_chemical_formula_moiety
;
(C19 H18 P1 1+)2n,n(C72 H36 F20 Fe4 Pt2 Tl2 2-),3n(C1 H2 Cl2)
;
_journal_coden_Cambridge 9
_journal_volume 49
_journal_year 2010
_journal_page_first 11606
_journal_name_full 'Inorg.Chem. '
loop_
_publ_author_name
"A.Diez"
"J.Fernandez"
"E.Lalinde"
"M.T.Moreno"
"S.Sanchez"
_chemical_name_systematic
;
catena-(bis(Methyl(triphenyl)phosphonium) 
bis(\m~3~-pentafluorophenyl)-tetrakis(ferrocenylethynyl)-bis(pentafluorophenyl
)-tetra-iron-di-platinum-di-thallium dichloromethane solvate)
;
_cell_volume   2788.649
_exptl_crystal_colour 'garnet'
_exptl_crystal_density_diffrn 1.854
_exptl_crystal_description 'needle'
_diffrn_ambient_temperature 173
#These two values have been output from a single CSD field.
_refine_ls_R_factor_gt 0.0406
_refine_ls_wR_factor_gt 0.0406
_symmetry_cell_setting triclinic
_symmetry_space_group_name_H-M 'P -1'
_symmetry_Int_Tables_number 2
loop_
_symmetry_equiv_pos_site_id
_symmetry_equiv_pos_as_xyz
1 x,y,z
2 -x,-y,-z
_cell_length_a 11.5763(3)
_cell_length_b 15.0440(7)
_cell_length_c 16.6926(8)
_cell_angle_alpha 76.909(1)
_cell_angle_beta 87.142(3)
_cell_angle_gamma 80.036(2)
_cell_formula_units_Z 1
loop_
_atom_type_symbol
_atom_type_radius_bond
C 0.68
H 0.23
Cl 0.99
F 0.64
Fe 1.52
P 1.05
Pt 1.36
Tl 1.90
loop_
_atom_site_label
_atom_site_type_symbol
_atom_site_fract_x
_atom_site_fract_y
_atom_site_fract_z
C1 C 0.2022(5) 0.0691(4) 0.8983(4)
C2 C 0.1647(5) 0.0999(4) 0.8294(4)
C3 C 0.1189(6) 0.1371(5) 0.7480(4)
C4 C 0.1878(6) 0.1664(5) 0.6751(4)
H1 H 0.27020 0.16550 0.67290
C5 C 0.1098(7) 0.1971(6) 0.6072(4)
H2 H 0.13060 0.22140 0.55180
C6 C -0.0048(7) 0.1850(6) 0.6372(4)
H3 H -0.07340 0.19920 0.60470
C7 C -0.0002(6) 0.1483(5) 0.7231(4)
H4 H -0.06480 0.13370 0.75810
C8 C 0.1609(8) -0.0714(5) 0.7228(5)
H5 H 0.18700 -0.09090 0.77810
C9 C 0.2330(7) -0.0492(6) 0.6528(5)
H6 H 0.31560 -0.05150 0.65280
C10 C 0.1594(6) -0.0225(6) 0.5818(5)
H7 H 0.18380 -0.00340 0.52630
C11 C 0.0431(7) -0.0301(6) 0.6103(4)
H8 H -0.02410 -0.01730 0.57660
C12 C 0.0437(8) -0.0599(6) 0.6971(5)
H9 H -0.02260 -0.07020 0.73170
C13 C 0.2946(5) -0.0320(4) 1.1348(4)
C14 C 0.3269(6) -0.0474(4) 1.2050(4)
C15 C 0.3693(5) -0.0628(4) 1.2871(4)
C16 C 0.4862(6) -0.0575(5) 1.3085(4)
H10 H 0.54880 -0.04520 1.27090
C17 C 0.4921(6) -0.0739(5) 1.3960(4)
H11 H 0.55910 -0.07440 1.42680
C18 C 0.3807(6) -0.0892(5) 1.4283(4)
H12 H 0.35990 -0.10260 1.48510
C19 C 0.3056(6) -0.0813(5) 1.3625(4)
H13 H 0.22500 -0.08740 1.36760
C20 C 0.3005(11) 0.1578(6) 1.2739(6)
H14 H 0.27380 0.16150 1.22020
C21 C 0.4172(9) 0.1631(6) 1.2970(6)
H15 H 0.48210 0.17240 1.26090
C22 C 0.4169(8) 0.1523(6) 1.3805(5)
H16 H 0.48320 0.15100 1.41240
C23 C 0.3084(7) 0.1437(6) 1.4107(5)
H17 H 0.28710 0.13710 1.46720
C24 C 0.2328(8) 0.1457(6) 1.3496(7)
H18 H 0.15220 0.14020 1.35570
C25 C 0.2155(5) 0.1459(4) 1.0419(4)
C26 C 0.2921(5) 0.2084(5) 1.0257(4)
C27 C 0.2729(6) 0.2939(5) 1.0464(4)
C28 C 0.1709(6) 0.3223(5) 1.0853(4)
C29 C 0.0893(6) 0.2631(5) 1.1026(4)
C30 C 0.1132(5) 0.1778(5) 1.0810(4)
C31 C 0.2761(5) -0.1191(4) 0.9937(4)
C32 C 0.2244(5) -0.1903(4) 1.0406(4)
C33 C 0.2360(6) -0.2775(5) 1.0262(4)
C34 C 0.3029(7) -0.2983(5) 0.9615(5)
C35 C 0.3588(6) -0.2326(5) 0.9135(4)
C36 C 0.3444(5) -0.1453(5) 0.9295(4)
C37 C 0.5103(7) 0.7502(5) 0.1927(4)
H19 H 0.43910 0.76110 0.22570
H20 H 0.48880 0.75310 0.13600
H21 H 0.55840 0.79770 0.19300
C38 C 0.6283(7) 0.6308(5) 0.3390(4)
C39 C 0.5580(7) 0.6834(6) 0.3877(5)
H22 H 0.48950 0.72420 0.36560
C40 C 0.5888(9) 0.6758(7) 0.4687(5)
H23 H 0.54030 0.71120 0.50170
C41 C 0.6871(9) 0.6185(8) 0.5015(6)
H24 H 0.70720 0.61510 0.55670
C42 C 0.7588(9) 0.5643(8) 0.4546(6)
H25 H 0.82600 0.52280 0.47820
C43 C 0.7304(8) 0.5721(6) 0.3719(5)
H26 H 0.78020 0.53780 0.33870
C44 C 0.5077(6) 0.5514(5) 0.2295(4)
C45 C 0.4552(6) 0.5546(6) 0.1546(5)
H27 H 0.46060 0.60480 0.10910
C46 C 0.3960(7) 0.4855(6) 0.1467(6)
H28 H 0.36050 0.48800 0.09600
C47 C 0.3879(7) 0.4119(6) 0.2130(5)
H29 H 0.34650 0.36430 0.20760
C48 C 0.4400(7) 0.4079(6) 0.2865(5)
H30 H 0.43590 0.35700 0.33150
C49 C 0.4982(7) 0.4782(6) 0.2945(5)
H31 H 0.53210 0.47600 0.34570
C50 C 0.7256(6) 0.6185(5) 0.1782(4)
C51 C 0.7590(6) 0.5360(5) 0.1518(5)
H32 H 0.70810 0.49140 0.16020
C52 C 0.8672(6) 0.5195(5) 0.1134(5)
H33 H 0.89080 0.46350 0.09530
C53 C 0.9399(6) 0.5845(5) 0.1016(5)
H34 H 1.01350 0.57310 0.07480
C54 C 0.9081(6) 0.6666(5) 0.1282(4)
H35 H 0.95960 0.71070 0.12030
C55 C 0.8018(6) 0.6827(5) 0.1657(4)
H36 H 0.77910 0.73890 0.18370
C56 C 0.8548(17) 0.3871(10) 0.7079(10)
H37 H 0.82020 0.39280 0.76240
H38 H 0.92120 0.33500 0.71750
C57 C 0.172(3) 0.7326(18) 0.6317(13)
H39 H 0.16330 0.80030 0.62630
H40 H 0.09320 0.71640 0.62870
F1 F 0.3965(3) 0.1882(3) 0.9867(3)
F2 F 0.3539(4) 0.3503(3) 1.0272(3)
F3 F 0.1485(4) 0.4055(3) 1.1039(3)
F4 F -0.0128(4) 0.2886(3) 1.1397(3)
F5 F 0.0284(3) 0.1243(3) 1.1031(3)
F6 F 0.1520(3) -0.1750(3) 1.1054(2)
F7 F 0.1808(4) -0.3429(3) 1.0752(3)
F8 F 0.3163(5) -0.3849(3) 0.9475(3)
F9 F 0.4265(5) -0.2541(3) 0.8503(3)
F10 F 0.4035(3) -0.0846(3) 0.8783(2)
Fe1 Fe 0.10660(8) 0.06130(7) 0.66236(5)
Fe2 Fe 0.37002(8) 0.03921(7) 1.35117(5)
P1 P 0.59219(16) 0.63811(12) 0.23523(11)
Pt1 Pt 0.248695(18) 0.014946(17) 1.016174(14)
Tl1 Tl 0.00000 0.00000 1.00000
Tl2 Tl 0.50000 0.00000 1.00000
Cl1 Cl 0.7539(5) 0.3595(5) 0.6541(4)
Cl2 Cl 0.9073(8) 0.4820(7) 0.6676(5)
Cl3 Cl 0.2630(6) 0.6986(4) 0.5538(4)
Cl4 Cl 0.2323(9) 0.6788(6) 0.7173(5)
C1A C -0.2022(5) -0.0691(4) 1.1017(4)
C2A C -0.1647(5) -0.0999(4) 1.1706(4)
C3A C -0.1189(6) -0.1371(5) 1.2520(4)
C4A C -0.1878(6) -0.1664(5) 1.3249(4)
H1A H -0.27020 -0.16550 1.32710
C5A C -0.1098(7) -0.1971(6) 1.3928(4)
H2A H -0.13060 -0.22140 1.44820
C6A C 0.0048(7) -0.1850(6) 1.3628(4)
H3A H 0.07340 -0.19920 1.39530
C7A C 0.0002(6) -0.1483(5) 1.2769(4)
H4A H 0.06480 -0.13370 1.24190
C8A C -0.1609(8) 0.0714(5) 1.2772(5)
H5A H -0.18700 0.09090 1.22190
C9A C -0.2330(7) 0.0492(6) 1.3472(5)
H6A H -0.31560 0.05150 1.34720
C10A C -0.1594(6) 0.0225(6) 1.4182(5)
H7A H -0.18380 0.00340 1.47370
C11A C -0.0431(7) 0.0301(6) 1.3897(4)
H8A H 0.02410 0.01730 1.42340
C12A C -0.0437(8) 0.0599(6) 1.3029(5)
H9A H 0.02260 0.07020 1.26830
C13A C -0.2946(5) 0.0320(4) 0.8652(4)
C14A C -0.3269(6) 0.0474(4) 0.7950(4)
C15A C -0.3693(5) 0.0628(4) 0.7129(4)
C16A C -0.4862(6) 0.0575(5) 0.6915(4)
H10A H -0.54880 0.04520 0.72910
C17A C -0.4921(6) 0.0739(5) 0.6040(4)
H11A H -0.55910 0.07440 0.57320
C18A C -0.3807(6) 0.0892(5) 0.5717(4)
H12A H -0.35990 0.10260 0.51490
C19A C -0.3056(6) 0.0813(5) 0.6375(4)
H13A H -0.22500 0.08740 0.63240
C20A C -0.3005(11) -0.1578(6) 0.7261(6)
H14A H -0.27380 -0.16150 0.77980
C21A C -0.4172(9) -0.1631(6) 0.7030(6)
H15A H -0.48210 -0.17240 0.73910
C22A C -0.4169(8) -0.1523(6) 0.6195(5)
H16A H -0.48320 -0.15100 0.58760
C23A C -0.3084(7) -0.1437(6) 0.5893(5)
H17A H -0.28710 -0.13710 0.53280
C24A C -0.2328(8) -0.1457(6) 0.6504(7)
H18A H -0.15220 -0.14020 0.64430
C25A C -0.2155(5) -0.1459(4) 0.9581(4)
C26A C -0.2921(5) -0.2084(5) 0.9743(4)
C27A C -0.2729(6) -0.2939(5) 0.9536(4)
C28A C -0.1709(6) -0.3223(5) 0.9147(4)
C29A C -0.0893(6) -0.2631(5) 0.8974(4)
C30A C -0.1132(5) -0.1778(5) 0.9190(4)
C31A C -0.2761(5) 0.1191(4) 1.0063(4)
C32A C -0.2244(5) 0.1903(4) 0.9594(4)
C33A C -0.2360(6) 0.2775(5) 0.9738(4)
C34A C -0.3029(7) 0.2983(5) 1.0385(5)
C35A C -0.3588(6) 0.2326(5) 1.0865(4)
C36A C -0.3444(5) 0.1453(5) 1.0705(4)
F1A F -0.3965(3) -0.1882(3) 1.0133(3)
F1A* F 0.6035(3) -0.1882(3) 1.0133(3)
F2A F -0.3539(4) -0.3503(3) 0.9728(3)
F3A F -0.1485(4) -0.4055(3) 0.8961(3)
F4A F 0.0128(4) -0.2886(3) 0.8603(3)
F5A F -0.0284(3) -0.1243(3) 0.8969(3)
F6A F -0.1520(3) 0.1750(3) 0.8946(2)
F7A F -0.1808(4) 0.3429(3) 0.9248(3)
F8A F -0.3163(5) 0.3849(3) 1.0525(3)
F9A F -0.4265(5) 0.2541(3) 1.1497(3)
F10A F -0.4035(3) 0.0846(3) 1.1217(2)
Fe1A Fe -0.10660(8) -0.06130(7) 1.33764(5)
Fe2A Fe -0.37002(8) -0.03921(7) 0.64883(5)
Pt1A Pt -0.248695(18) -0.014946(17) 0.983826(14)
Pt1A* Pt 0.751305(18) -0.014946(17) 0.983826(14)
Tl2* Tl -0.50000 0.00000 1.00000
#END
