
#######################################################################
#
#                 Cambridge Crystallographic Data Centre
#                                CCDC
#
#######################################################################
#
# If this CIF has been generated from an entry in the Cambridge
# Structural Database, then it will include bibliographic, chemical,
# crystal, experimental, refinement or atomic coordinate data resulting
# from the CCDC's data processing and validation procedures.
#
#######################################################################

data_CSD_CIF_EWUKEO
_audit_creation_date 2016-10-04
_audit_creation_method CSD-ConQuest-V1
_database_code_CSD EWUKEO
_database_code_depnum_ccdc_archive 'CCDC 1478452'
_chemical_formula_sum 'C148 H184 Co3 N20 O88 Zn15'
_chemical_formula_moiety
;
(C144 H156 Co3 N18 O84 Zn15 6-)n,2(C2 H8 N1 1+),4(H3 O1 1+)
;
_journal_coden_Cambridge 9
_journal_volume 55
_journal_year 2016
_journal_page_first 9250
_journal_name_full 'Inorg.Chem. '
loop_
_publ_author_name
"A.Pariyar"
"H.Asl"
"A.Choudhury"
_chemical_name_systematic
;
catena-[bis(dimethylammonium) tetrakis(oxonium) 
hexakis(\m-oxido)-decakis(\m-benzene-1,3,5-tricarboxylato)-octadecakis(N,N-dim
ethylformamide)-tri-cobalt-pentadeca-zinc]
;
_chemical_name_common
;
MST-2 (Co-Zn)
;
_cell_volume   5262.241
_exptl_crystal_colour 'pink'
_exptl_crystal_density_diffrn 1.517
_exptl_crystal_description 'rod'
_diffrn_ambient_temperature 230
_diffrn_special_details
;
twin

;
_refine_special_details
;
The structure is disordered.

;
#These two values have been output from a single CSD field.
_refine_ls_R_factor_gt 0.0893
_refine_ls_wR_factor_gt 0.0893
_symmetry_cell_setting hexagonal
_symmetry_space_group_name_H-M 'P 63 c m'
_symmetry_Int_Tables_number 185
loop_
_symmetry_equiv_pos_site_id
_symmetry_equiv_pos_as_xyz
1 x,y,z
2 -y,x-y,z
3 -x+y,-x,z
4 -x,-y,1/2+z
5 y,-x+y,1/2+z
6 x-y,x,1/2+z
7 -y,-x,1/2+z
8 -x+y,y,1/2+z
9 x,x-y,1/2+z
10 y,x,z
11 x-y,-y,z
12 -x,-x+y,z
_cell_length_a 18.389(5)
_cell_length_b 18.389(5)
_cell_length_c 17.969(5)
_cell_angle_alpha 90
_cell_angle_beta 90
_cell_angle_gamma 120
_cell_formula_units_Z 1
loop_
_atom_type_symbol
_atom_type_radius_bond
C 0.68
H 0.23
Co 1.26
N 0.68
O 0.68
Zn 1.22
loop_
_atom_site_label
_atom_site_type_symbol
_atom_site_fract_x
_atom_site_fract_y
_atom_site_fract_z
Zn1 Zn 0.75691(12) 0.65858(11) 0.33316(13)
O1 O 0.6571(7) 0.6571(7) 0.2921(8)
O2 O 0.7877(9) 0.7186(9) 0.4293(6)
O3 O 0.7603(8) 0.5568(7) 0.3499(8)
O4 O 0.8799(17) 0.7290(9) 0.7669(6)
Co1 Co 0.65066(15) 0.65066(15) 0.17540(17)
C1 C 0.7602(12) 0.7602(12) 0.4604(10)
C2 C 0.6917(14) 0.5037(14) 0.3707(14)
O5 O 0.6337(10) 0.6337(10) 0.0619(9)
O6 O 0.6154(15) 0.5264(10) 0.1841(9)
O7 O 0.9070(19) 0.6844(10) 0.6627(7)
C3 C 0.7780(12) 0.7780(12) 0.5394(10)
O8 O 0.6311(11) 0.5130(11) 0.3809(11)
C4 C 0.6775(13) 0.4132(13) 0.3770(15)
C5 C 0.6812(19) 0.6812(19) 0.0135(13)
C6 C 0.579(2) 0.4631(18) 0.148(2)
C7 C 0.8221(11) 0.7463(11) 0.5776(8)
C8 C 0.7474(13) 0.4010(15) 0.3772(16)
H1 H 0.73000 0.73000 0.02910
N1 N 0.6686(17) 0.6686(17) -0.0573(12)
H2 H 0.57890 0.48250 0.09980
N2 N 0.541(2) 0.3874(17) 0.1417(17)
H3 H 0.84430 0.71760 0.55130
C9 C 0.8335(11) 0.7566(11) 0.6540(8)
H4 H 0.80210 0.44750 0.37750
C10 C 0.733(3) 0.733(3) -0.104(2)
C11 C 0.596(2) 0.596(2) -0.088(2)
C12 C 0.492(3) 0.338(3) 0.078(2)
C13 C 0.490(4) 0.338(3) 0.201(2)
C14 C 0.8037(14) 0.8037(14) 0.6921(12)
C15 C 0.8770(17) 0.7218(12) 0.6968(8)
H5 H 0.71830 0.71830 -0.15590
H6 H 0.73670 0.78640 -0.09370
H7 H 0.59860 0.59860 -0.14180
H8 H 0.59510 0.54530 -0.07120
H9 H 0.46920 0.27840 0.08900
H10 H 0.44590 0.34820 0.06950
H11 H 0.52710 0.35280 0.03450
H12 H 0.46390 0.27890 0.18800
H13 H 0.52350 0.34870 0.24550
H14 H 0.44620 0.35190 0.21020
H15 H 0.81520 0.81530 0.74300
C16 C 1.071(3) 1.071(3) 0.845(13)
N3 N 1.00000 1.00000 0.810(13)
C17 C 1.00000 1.00000 0.730(13)
O9 O 1.00000 1.00000 0.933(12)
O10 O 1.108(16) 1.00000 0.954(16)
H16? H 0.73670 0.78640 -0.09370
H17? H 0.59510 0.54530 -0.07120
Zn2? Zn 0.65066(15) 0.65066(15) 0.17540(17)
O2I O 0.7186(9) 0.7877(9) 0.4293(6)
C7I C 0.7463(11) 0.8221(11) 0.5776(8)
H3I H 0.71760 0.84430 0.55130
C9I C 0.7566(11) 0.8335(11) 0.6540(8)
C15I C 0.7218(17) 0.8770(12) 0.6968(8)
O4I O 0.7290(17) 0.8799(9) 0.7669(6)
O7I O 0.6844(19) 0.907(1) 0.6627(7)
O3A O 0.4432(8) 0.2035(7) 0.3499(8)
C2A C 0.4963(14) 0.1880(14) 0.3707(14)
O8A O 0.4870(11) 0.1181(11) 0.3809(11)
C4A C 0.5868(13) 0.2643(13) 0.3770(15)
C8A C 0.5990(13) 0.3464(15) 0.3772(16)
H4A H 0.55250 0.35460 0.37750
O3B O 0.7965(8) 0.2397(7) 0.3499(8)
C2B C 0.8120(14) 0.3083(14) 0.3707(14)
O8B O 0.8819(11) 0.3689(11) 0.3809(11)
C4B C 0.7357(13) 0.3225(13) 0.3770(15)
C8B C 0.6536(13) 0.2526(15) 0.3772(16)
H4B H 0.64540 0.19790 0.37750
H6I H 0.78640 0.73670 -0.09370
H8I H 0.54530 0.59510 -0.07120
Zn1A Zn 0.34142(12) 0.09833(11) 0.33316(13)
O1A O 0.3429(7) 0.0000(7) 0.2921(8)
O2A O 0.2814(9) 0.0691(9) 0.4293(6)
O4A O 0.2710(17) 0.1509(9) 0.7669(6)
Co1A Co 0.34934(15) 0.00000(15) 0.17540(17)
C1A C 0.2398(12) 0.0000(12) 0.4604(10)
O5A O 0.3663(10) 0.000(1) 0.0619(9)
O6A O 0.4736(15) 0.089(1) 0.1841(9)
O7A O 0.3156(19) 0.2226(10) 0.6627(7)
C3A C 0.2220(12) 0.0000(12) 0.5394(10)
C5A C 0.3188(19) 0.0000(19) 0.0135(13)
C6A C 0.5369(20) 0.1159(18) 0.148(2)
C7A C 0.2537(11) 0.0758(11) 0.5776(8)
H1A H 0.27000 0.00000 0.02910
N1A N 0.3314(17) 0.0000(17) -0.0573(12)
H2A H 0.51750 0.09640 0.09980
N2A N 0.6126(20) 0.1536(17) 0.1417(17)
H3A H 0.28240 0.12670 0.55130
C9A C 0.2434(11) 0.0769(11) 0.6540(8)
C10A C 0.267(3) 0.000(3) -0.104(2)
C11A C 0.404(2) 0.000(2) -0.088(2)
C12A C 0.662(3) 0.154(3) 0.078(2)
C13A C 0.662(4) 0.152(3) 0.201(2)
C14A C 0.1963(14) 0.0000(14) 0.6921(12)
C15A C 0.2782(17) 0.1552(12) 0.6968(8)
H5A H 0.28170 0.00000 -0.15590
H6A H 0.21360 -0.04970 -0.09370
H7A H 0.40140 0.00000 -0.14180
H8A H 0.45470 0.04980 -0.07120
H9A H 0.72160 0.19080 0.08900
H10A H 0.65180 0.09770 0.06950
H11A H 0.64720 0.17430 0.03450
H12A H 0.72110 0.18500 0.18800
H13A H 0.65130 0.17480 0.24550
H14A H 0.64810 0.09430 0.21020
H15A H 0.18470 -0.00010 0.74300
O2K O 0.2123(9) -0.0691(9) 0.4293(6)
C7K C 0.1779(11) -0.0758(11) 0.5776(8)
H3K H 0.15570 -0.12670 0.55130
C9K C 0.1665(11) -0.0769(11) 0.6540(8)
C15K C 0.1230(17) -0.1552(12) 0.6968(8)
O4K O 0.1201(17) -0.1509(9) 0.7669(6)
O7K O 0.0930(19) -0.2226(10) 0.6627(7)
H6K H 0.26330 0.04970 -0.09370
H8K H 0.40490 -0.04980 -0.07120
Zn1B Zn 0.90167(12) 0.24309(11) 0.33316(13)
O1B O 1.0000(7) 0.3429(7) 0.2921(8)
O2B O 0.9309(9) 0.2123(9) 0.4293(6)
O4B O 0.8491(17) 0.1201(9) 0.7669(6)
Co1B Co 1.00000(15) 0.34934(15) 0.17540(17)
C1B C 1.0000(12) 0.2398(12) 0.4604(10)
O5B O 1.000(1) 0.3663(10) 0.0619(9)
O6B O 0.9110(15) 0.3846(10) 0.1841(9)
O7B O 0.7774(19) 0.093(1) 0.6627(7)
C3B C 1.0000(12) 0.2220(12) 0.5394(10)
C5B C 1.0000(19) 0.3188(19) 0.0135(13)
C6B C 0.8841(20) 0.4210(18) 0.148(2)
C7B C 0.9242(11) 0.1779(11) 0.5776(8)
H1B H 1.00000 0.27000 0.02910
N1B N 1.0000(17) 0.3314(17) -0.0573(12)
H2B H 0.90360 0.42110 0.09980
N2B N 0.8464(20) 0.4590(17) 0.1417(17)
H3B H 0.87330 0.15570 0.55130
C9B C 0.9231(11) 0.1665(11) 0.6540(8)
C10B C 1.000(3) 0.267(3) -0.104(2)
C11B C 1.000(2) 0.404(2) -0.088(2)
C12B C 0.846(3) 0.508(3) 0.078(2)
C13B C 0.848(4) 0.510(3) 0.201(2)
C14B C 1.0000(14) 0.1963(14) 0.6921(12)
C15B C 0.8448(17) 0.1230(12) 0.6968(8)
H5B H 1.00000 0.28170 -0.15590
H6B H 1.04970 0.26330 -0.09370
H7B H 1.00000 0.40140 -0.14180
H8B H 0.95020 0.40490 -0.07120
H9B H 0.80920 0.53080 0.08900
H10B H 0.90230 0.55410 0.06950
H11B H 0.82570 0.47290 0.03450
H12B H 0.81500 0.53610 0.18800
H13B H 0.82520 0.47650 0.24550
H14B H 0.90570 0.55380 0.21020
H15B H 1.00010 0.18480 0.74300
O2J O 1.0691(9) 0.2814(9) 0.4293(6)
C7J C 1.0758(11) 0.2537(11) 0.5776(8)
H3J H 1.12670 0.28240 0.55130
C9J C 1.0769(11) 0.2434(11) 0.6540(8)
C15J C 1.1552(17) 0.2782(12) 0.6968(8)
O4J O 1.1509(17) 0.2710(9) 0.7669(6)
O7J O 1.2226(19) 0.3156(10) 0.6627(7)
H6J H 0.95030 0.21360 -0.09370
H8J H 1.04980 0.45470 -0.07120
Zn1C Zn 1.24309(12) 0.34142(11) 0.83316(13)
Zn1D Zn 0.65858(12) 0.90167(11) 0.83316(13)
Zn1E Zn 0.09833(12) -0.24309(11) 0.83316(13)
Zn1F Zn 0.34142(12) 0.24309(11) 0.83316(13)
Zn1G Zn 0.90167(12) 0.65858(11) 0.83316(13)
Zn1H Zn 0.75691(12) 0.09833(11) 0.83316(13)
Zn1I Zn 0.65858(12) 0.75691(11) 0.33316(13)
Zn1J Zn 1.09833(12) 0.34142(11) 0.33316(13)
Zn1K Zn 0.24309(12) -0.09833(11) 0.33316(13)
O4F O 0.2710(17) 0.1201(9) 0.2669(6)
O4G O 0.8491(17) 0.7290(9) 0.2669(6)
O4H O 0.8799(17) 0.1509(9) 0.2669(6)
Co1C Co 0.34934(15) 0.34934(15) 0.67540(17)
Co1C* Co 1.34934(15) 0.34934(15) 0.67540(17)
Co1D Co 0.65066(15) 0.00000(15) 0.67540(17)
Co1D* Co 0.65066(15) 1.00000(15) 0.67540(17)
Co1E Co 0.00000(15) -0.34934(15) 0.67540(17)
Co1E* Co 1.00000(15) 0.65066(15) 0.67540(17)
O6I O 0.5264(15) 0.6154(10) 0.1841(9)
O6J O 1.0890(15) 0.4736(10) 0.1841(9)
O6K O 0.3846(15) -0.089(1) 0.1841(9)
O7C O 1.0930(19) 0.3156(10) 0.1627(7)
O7D O 0.6844(19) 0.7774(10) 0.1627(7)
O7E O 0.2226(19) -0.093(1) 0.1627(7)
O7F O 0.3156(19) 0.093(1) 0.1627(7)
O7G O 0.7774(19) 0.6844(10) 0.1627(7)
O7H O 0.9070(19) 0.2226(10) 0.1627(7)
Zn1E* Zn 0.09833(12) -0.24309(11) -0.16684(13)
O1E O 0.0000(7) -0.3429(7) -0.2079(8)
O2E O 0.0691(9) -0.2123(9) -0.0707(6)
O3E O 0.2035(8) -0.2397(7) -0.1501(8)
O4K* O 0.1201(17) -0.1509(9) -0.2331(6)
Co1E** Co 0.00000(15) -0.34934(15) -0.32460(17)
Zn1G* Zn -0.09833(12) -0.34142(11) -0.16684(13)
C1E C 0.0000(12) -0.2398(12) -0.0396(10)
C2E C 0.1880(14) -0.3083(14) -0.1293(14)
O4E O 0.1509(17) -0.1201(9) 0.2669(6)
C15E C 0.1552(17) -0.1230(12) 0.1968(8)
O5E O 0.000(1) -0.3663(10) -0.4381(9)
O6E O 0.0890(15) -0.3846(10) -0.3159(9)
O6G O -0.0890(15) -0.4736(10) -0.3159(9)
O7* O -0.0930(19) -0.3156(10) -0.3373(7)
O7K* O 0.0930(19) -0.2226(10) -0.3373(7)
C3E C 0.0000(12) -0.2220(12) 0.0394(10)
O2G O -0.0691(9) -0.2814(9) -0.0707(6)
O8E O 0.1181(11) -0.3689(11) -0.1191(11)
C4E C 0.2643(13) -0.3225(13) -0.1230(15)
C5E C 0.0000(19) -0.3188(19) -0.4865(13)
C6E C 0.1159(20) -0.4210(18) -0.352(2)
C7E C 0.0758(11) -0.1779(11) 0.0776(8)
C7G C -0.0758(11) -0.2537(11) 0.0776(8)
C8E C 0.3464(13) -0.2526(15) -0.1228(16)
C8C C 0.2526(13) -0.4010(15) -0.1228(16)
H1E H 0.00000 -0.27000 -0.47090
N1E N 0.0000(17) -0.3314(17) -0.5573(12)
H2E H 0.09640 -0.42110 -0.40020
N2E N 0.1536(20) -0.4590(17) -0.3583(17)
H3E H 0.12670 -0.15570 0.05130
C9E C 0.0769(11) -0.1665(11) 0.1540(8)
H4E H 0.35460 -0.19790 -0.12250
C4D C 0.4132(13) -0.2643(13) -0.1230(15)
C10E C 0.000(3) -0.267(3) -0.604(2)
C11E C 0.000(2) -0.404(2) -0.588(2)
C12E C 0.154(3) -0.508(3) -0.422(2)
C13E C 0.152(4) -0.510(3) -0.299(2)
C14E C 0.0000(14) -0.1963(14) 0.1921(12)
H5E H 0.00000 -0.28170 -0.65590
H6E H -0.04970 -0.26330 -0.59370
H6G H 0.04970 -0.21360 -0.59370
H7E H 0.00000 -0.40140 -0.64180
H8E H 0.04980 -0.40490 -0.57120
H8G H -0.04980 -0.45470 -0.57120
H9E H 0.19080 -0.53080 -0.41100
H10E H 0.09770 -0.55410 -0.43050
H11E H 0.17430 -0.47290 -0.46550
H12E H 0.18500 -0.53610 -0.31200
H13E H 0.17480 -0.47650 -0.25450
H14E H 0.09430 -0.55380 -0.28980
H15E H -0.00010 -0.18480 0.24300
C9G C -0.0769(11) -0.2434(11) 0.1540(8)
H3G H -0.12670 -0.28240 0.05130
C15G C -0.1552(17) -0.2782(12) 0.1968(8)
O4G* O -0.1509(17) -0.2710(9) 0.2669(6)
O7G* O -0.2226(19) -0.3156(10) 0.1627(7)
Zn1* Zn -0.24309(12) -0.34142(11) 0.33316(13)
Co1* Co -0.34934(15) -0.34934(15) 0.17540(17)
O3C O 0.2397(8) -0.5568(7) -0.1501(8)
C2C C 0.3083(14) -0.5037(14) -0.1293(14)
Zn1C* Zn 0.24309(12) -0.65858(11) -0.16684(13)
O8C O 0.3689(11) -0.5130(11) -0.1191(11)
C4C C 0.3225(13) -0.4132(13) -0.1230(15)
C8D C 0.4010(13) -0.3464(15) -0.1228(16)
H4C H 0.19790 -0.44750 -0.12250
O3D O 0.5568(8) -0.2035(7) -0.1501(8)
C2D C 0.5037(14) -0.1880(14) -0.1293(14)
Zn1D* Zn 0.65858(12) -0.09833(11) -0.16684(13)
O8D O 0.5130(11) -0.1181(11) -0.1191(11)
H4D H 0.44750 -0.35460 -0.12250
O1C O 0.3429(7) -0.6571(7) -0.2079(8)
O2C O 0.2123(9) -0.7186(9) -0.0707(6)
O4J* O 0.1509(17) -0.7290(9) -0.2331(6)
Co1C** Co 0.34934(15) -0.65066(15) -0.32460(17)
Zn1F* Zn 0.34142(12) -0.75691(11) -0.16684(13)
C1C C 0.2398(12) -0.7602(12) -0.0396(10)
O4C O 0.1201(17) -0.7290(9) 0.2669(6)
C15C C 0.1230(17) -0.7218(12) 0.1968(8)
Zn1J* Zn 0.09833(12) -0.65858(11) 0.33316(13)
O5C O 0.3663(10) -0.6337(10) -0.4381(9)
O6C O 0.3846(15) -0.5264(10) -0.3159(9)
O6F O 0.4736(15) -0.6154(10) -0.3159(9)
O7A* O 0.3156(19) -0.7774(10) -0.3373(7)
O7J* O 0.2226(19) -0.6844(10) -0.3373(7)
C3C C 0.2220(12) -0.7780(12) 0.0394(10)
O2F O 0.2814(9) -0.7877(9) -0.0707(6)
C5C C 0.3188(19) -0.6812(19) -0.4865(13)
C6C C 0.421(2) -0.4631(18) -0.352(2)
O7C* O 0.0930(19) -0.6844(10) 0.1627(7)
Co1B* Co 0.00000(15) -0.65066(15) 0.17540(17)
C7C C 0.1779(11) -0.7463(11) 0.0776(8)
C7F C 0.2537(11) -0.8221(11) 0.0776(8)
H1C H 0.27000 -0.73000 -0.47090
N1C N 0.3314(17) -0.6686(17) -0.5573(12)
H2C H 0.42110 -0.48250 -0.40020
N2C N 0.459(2) -0.3874(17) -0.3583(17)
H3C H 0.15570 -0.71760 0.05130
C9C C 0.1665(11) -0.7566(11) 0.1540(8)
C10C C 0.267(3) -0.733(3) -0.604(2)
C11C C 0.404(2) -0.596(2) -0.588(2)
C12C C 0.508(3) -0.338(3) -0.422(2)
C13C C 0.510(4) -0.338(3) -0.299(2)
C14C C 0.1963(14) -0.8037(14) 0.1921(12)
H5C H 0.28170 -0.71830 -0.65590
H6C H 0.26330 -0.78640 -0.59370
H6F H 0.21360 -0.73670 -0.59370
H7C H 0.40140 -0.59860 -0.64180
H8C H 0.40490 -0.54530 -0.57120
H8F H 0.45470 -0.59510 -0.57120
H9C H 0.53080 -0.27840 -0.41100
H10C H 0.55410 -0.34820 -0.43050
H11C H 0.47290 -0.35280 -0.46550
H12C H 0.53610 -0.27890 -0.31200
H13C H 0.47650 -0.34870 -0.25450
H14C H 0.55380 -0.35190 -0.28980
H15C H 0.18480 -0.81530 0.24300
C9F C 0.2434(11) -0.8335(11) 0.1540(8)
H3F H 0.28240 -0.84430 0.05130
C15F C 0.2782(17) -0.8770(12) 0.1968(8)
O4F* O 0.2710(17) -0.8799(9) 0.2669(6)
O7F* O 0.3156(19) -0.907(1) 0.1627(7)
Zn1A* Zn 0.34142(12) -0.90167(11) 0.33316(13)
Co1A* Co 0.34934(15) -1.00000(15) 0.17540(17)
O1D O 0.6571(7) 0.0000(7) -0.2079(8)
O2D O 0.7186(9) -0.0691(9) -0.0707(6)
O4I* O 0.7290(17) -0.1201(9) -0.2331(6)
Co1D** Co 0.65066(15) 0.00000(15) -0.32460(17)
Zn1H* Zn 0.75691(12) 0.09833(11) -0.16684(13)
C1D C 0.7602(12) 0.0000(12) -0.0396(10)
O4D O 0.7290(17) -0.1509(9) 0.2669(6)
C15D C 0.7218(17) -0.1552(12) 0.1968(8)
Zn1I* Zn 0.65858(12) -0.24309(11) 0.33316(13)
O5D O 0.6337(10) 0.000(1) -0.4381(9)
O6D O 0.5264(15) -0.089(1) -0.3159(9)
O6H O 0.6154(15) 0.089(1) -0.3159(9)
O7B* O 0.7774(19) 0.093(1) -0.3373(7)
O7I* O 0.6844(19) -0.093(1) -0.3373(7)
C3D C 0.7780(12) 0.0000(12) 0.0394(10)
O2H O 0.7877(9) 0.0691(9) -0.0707(6)
C5D C 0.6812(19) 0.0000(19) -0.4865(13)
C6D C 0.4631(20) -0.1159(18) -0.352(2)
O7D* O 0.6844(19) -0.2226(10) 0.1627(7)
Co1** Co 0.65066(15) -0.34934(15) 0.17540(17)
C7D C 0.7463(11) -0.0758(11) 0.0776(8)
C7H C 0.8221(11) 0.0758(11) 0.0776(8)
H1D H 0.73000 0.00000 -0.47090
N1D N 0.6686(17) 0.0000(17) -0.5573(12)
H2D H 0.48250 -0.09640 -0.40020
N2D N 0.3874(20) -0.1536(17) -0.3583(17)
H3D H 0.71760 -0.12670 0.05130
C9D C 0.7566(11) -0.0769(11) 0.1540(8)
C10D C 0.733(3) 0.000(3) -0.604(2)
C11D C 0.596(2) 0.000(2) -0.588(2)
C12D C 0.338(3) -0.154(3) -0.422(2)
C13D C 0.338(4) -0.152(3) -0.299(2)
C14D C 0.8037(14) 0.0000(14) 0.1921(12)
H5D H 0.71830 0.00000 -0.65590
H6D H 0.78640 0.04970 -0.59370
H6H H 0.73670 -0.04970 -0.59370
H7D H 0.59860 0.00000 -0.64180
H8D H 0.54530 -0.04980 -0.57120
H8H H 0.59510 0.04980 -0.57120
H9D H 0.27840 -0.19080 -0.41100
H10D H 0.34820 -0.09770 -0.43050
H11D H 0.35280 -0.17430 -0.46550
H12D H 0.27890 -0.18500 -0.31200
H13D H 0.34870 -0.17480 -0.25450
H14D H 0.35190 -0.09430 -0.28980
H15D H 0.81530 0.00010 0.24300
C9H C 0.8335(11) 0.0769(11) 0.1540(8)
H3H H 0.84430 0.12670 0.05130
C15H C 0.8770(17) 0.1552(12) 0.1968(8)
O1* O -0.3429(7) -0.3429(7) 0.2921(8)
O2* O -0.2123(9) -0.2814(9) 0.4293(6)
O3* O -0.2397(8) -0.4432(7) 0.3499(8)
Zn1I** Zn -0.34142(12) -0.24309(11) 0.33316(13)
C1* C -0.2398(12) -0.2398(12) 0.4604(10)
C2* C -0.3083(14) -0.4963(14) 0.3707(14)
O4* O -0.1201(17) -0.2710(9) 0.7669(6)
C15* C -0.1230(17) -0.2782(12) 0.6968(8)
Zn1G** Zn -0.09833(12) -0.34142(11) 0.83316(13)
O5* O -0.3663(10) -0.3663(10) 0.0619(9)
O6* O -0.3846(15) -0.4736(10) 0.1841(9)
O6I* O -0.4736(15) -0.3846(10) 0.1841(9)
O7D** O -0.3156(19) -0.2226(10) 0.1627(7)
C3* C -0.2220(12) -0.2220(12) 0.5394(10)
O2I* O -0.2814(9) -0.2123(9) 0.4293(6)
O8* O -0.3689(11) -0.4870(11) 0.3809(11)
C4* C -0.3225(13) -0.5868(13) 0.3770(15)
C5* C -0.3188(19) -0.3188(19) 0.0135(13)
C6* C -0.421(2) -0.5369(18) 0.148(2)
O7** O -0.0930(19) -0.3156(10) 0.6627(7)
C7* C -0.1779(11) -0.2537(11) 0.5776(8)
C7I* C -0.2537(11) -0.1779(11) 0.5776(8)
C8* C -0.2526(13) -0.5990(15) 0.3772(16)
C8A* C -0.4010(13) -0.6536(15) 0.3772(16)
H1* H -0.27000 -0.27000 0.02910
N1* N -0.3314(17) -0.3314(17) -0.0573(12)
H2* H -0.42110 -0.51750 0.09980
N2* N -0.459(2) -0.6126(17) 0.1417(17)
H3* H -0.15570 -0.28240 0.55130
C9* C -0.1665(11) -0.2434(11) 0.6540(8)
H4* H -0.19790 -0.55250 0.37750
C4B* C -0.2643(13) -0.6775(13) 0.3770(15)
C10* C -0.267(3) -0.267(3) -0.104(2)
C11* C -0.404(2) -0.404(2) -0.088(2)
C12* C -0.508(3) -0.662(3) 0.078(2)
C13* C -0.510(4) -0.662(3) 0.201(2)
C14* C -0.1963(14) -0.1963(14) 0.6921(12)
H5* H -0.28170 -0.28170 -0.15590
H6* H -0.26330 -0.21360 -0.09370
H6I* H -0.21360 -0.26330 -0.09370
H7* H -0.40140 -0.40140 -0.14180
H8* H -0.40490 -0.45470 -0.07120
H8I* H -0.45470 -0.40490 -0.07120
H9* H -0.53080 -0.72160 0.08900
H10* H -0.55410 -0.65180 0.06950
H11* H -0.47290 -0.64720 0.03450
H12* H -0.53610 -0.72110 0.18800
H13* H -0.47650 -0.65130 0.24550
H14* H -0.55380 -0.64810 0.21020
H15* H -0.18480 -0.18470 0.74300
C9I* C -0.2434(11) -0.1665(11) 0.6540(8)
H3I* H -0.28240 -0.15570 0.55130
C15I* C -0.2782(17) -0.1230(12) 0.6968(8)
O4I** O -0.2710(17) -0.1201(9) 0.7669(6)
O7I** O -0.3156(19) -0.093(1) 0.6627(7)
Zn1D** Zn -0.34142(12) -0.09833(11) 0.83316(13)
Co1D*** Co -0.34934(15) 0.00000(15) 0.67540(17)
O3A* O -0.5568(8) -0.7965(7) 0.3499(8)
C2A* C -0.5037(14) -0.8120(14) 0.3707(14)
Zn1A** Zn -0.65858(12) -0.90167(11) 0.33316(13)
O8A* O -0.5130(11) -0.8819(11) 0.3809(11)
C4A* C -0.4132(13) -0.7357(13) 0.3770(15)
C8B* C -0.3464(13) -0.7474(15) 0.3772(16)
H4A* H -0.44750 -0.64540 0.37750
O3B* O -0.2035(8) -0.7603(7) 0.3499(8)
C2B* C -0.1880(14) -0.6917(14) 0.3707(14)
Zn1B* Zn -0.09833(12) -0.75691(11) 0.33316(13)
O8B* O -0.1181(11) -0.6311(11) 0.3809(11)
H4B* H -0.35460 -0.80210 0.37750
O1A* O -0.6571(7) -1.0000(7) 0.2921(8)
O2A* O -0.7186(9) -0.9309(9) 0.4293(6)
O4F** O -0.7290(17) -0.8799(9) 0.2669(6)
Co1A** Co -0.65066(15) -1.00000(15) 0.17540(17)
Zn1K* Zn -0.75691(12) -1.09833(11) 0.33316(13)
C1A* C -0.7602(12) -1.0000(12) 0.4604(10)
O4A* O -0.7290(17) -0.8491(9) 0.7669(6)
C15A* C -0.7218(17) -0.8448(12) 0.6968(8)
Zn1F** Zn -0.65858(12) -0.75691(11) 0.83316(13)
O5A* O -0.6337(10) -1.000(1) 0.0619(9)
O6A* O -0.5264(15) -0.911(1) 0.1841(9)
O6K* O -0.6154(15) -1.089(1) 0.1841(9)
O7E* O -0.7774(19) -1.093(1) 0.1627(7)
O7F** O -0.6844(19) -0.907(1) 0.1627(7)
C3A* C -0.7780(12) -1.0000(12) 0.5394(10)
O2K* O -0.7877(9) -1.0691(9) 0.4293(6)
C5A* C -0.6812(19) -1.0000(19) 0.0135(13)
C6A* C -0.4631(20) -0.8841(18) 0.148(2)
O7A** O -0.6844(19) -0.7774(10) 0.6627(7)
Co1C*** Co -0.65066(15) -0.65066(15) 0.67540(17)
C7A* C -0.7463(11) -0.9242(11) 0.5776(8)
C7K* C -0.8221(11) -1.0758(11) 0.5776(8)
H1A* H -0.73000 -1.00000 0.02910
N1A* N -0.6686(17) -1.0000(17) -0.0573(12)
H2A* H -0.48250 -0.90360 0.09980
N2A* N -0.3874(20) -0.8464(17) 0.1417(17)
H3A* H -0.71760 -0.87330 0.55130
C9A* C -0.7566(11) -0.9231(11) 0.6540(8)
C10A* C -0.733(3) -1.000(3) -0.104(2)
C11A* C -0.596(2) -1.000(2) -0.088(2)
C12A* C -0.338(3) -0.846(3) 0.078(2)
C13A* C -0.338(4) -0.848(3) 0.201(2)
C14A* C -0.8037(14) -1.0000(14) 0.6921(12)
H5A* H -0.71830 -1.00000 -0.15590
H6A* H -0.78640 -1.04970 -0.09370
H6K* H -0.73670 -0.95030 -0.09370
H7A* H -0.59860 -1.00000 -0.14180
H8A* H -0.54530 -0.95020 -0.07120
H8K* H -0.59510 -1.04980 -0.07120
H9A* H -0.27840 -0.80920 0.08900
H10A* H -0.34820 -0.90230 0.06950
H11A* H -0.35280 -0.82570 0.03450
H12A* H -0.27890 -0.81500 0.18800
H13A* H -0.34870 -0.82520 0.24550
H14A* H -0.35190 -0.90570 0.21020
H15A* H -0.81530 -1.00010 0.74300
C9K* C -0.8335(11) -1.0769(11) 0.6540(8)
H3K* H -0.84430 -1.12670 0.55130
C15K* C -0.8770(17) -1.1552(12) 0.6968(8)
O4K** O -0.8799(17) -1.1509(9) 0.7669(6)
O7K** O -0.9070(19) -1.2226(10) 0.6627(7)
Zn1E** Zn -0.90167(12) -1.24309(11) 0.83316(13)
Co1E*** Co -1.00000(15) -1.34934(15) 0.67540(17)
O1B* O 0.0000(7) -0.6571(7) 0.2921(8)
O2B* O -0.0691(9) -0.7877(9) 0.4293(6)
O4H* O -0.1201(17) -0.8491(9) 0.2669(6)
C1B* C 0.0000(12) -0.7602(12) 0.4604(10)
O4B* O -0.1509(17) -0.8799(9) 0.7669(6)
C15B* C -0.1552(17) -0.8770(12) 0.6968(8)
Zn1H** Zn -0.24309(12) -0.90167(11) 0.83316(13)
O5B* O 0.000(1) -0.6337(10) 0.0619(9)
O6B* O -0.0890(15) -0.6154(10) 0.1841(9)
O6J* O 0.0890(15) -0.5264(10) 0.1841(9)
O7H* O -0.0930(19) -0.7774(10) 0.1627(7)
C3B* C 0.0000(12) -0.7780(12) 0.5394(10)
O2J* O 0.0691(9) -0.7186(9) 0.4293(6)
C5B* C 0.0000(19) -0.6812(19) 0.0135(13)
C6B* C -0.1159(20) -0.5790(18) 0.148(2)
O7B** O -0.2226(19) -0.907(1) 0.6627(7)
Co1D**** Co -0.34934(15) -1.00000(15) 0.67540(17)
C7B* C -0.0758(11) -0.8221(11) 0.5776(8)
C7J* C 0.0758(11) -0.7463(11) 0.5776(8)
H1B* H 0.00000 -0.73000 0.02910
N1B* N 0.0000(17) -0.6686(17) -0.0573(12)
H2B* H -0.09640 -0.57890 0.09980
N2B* N -0.1536(20) -0.5410(17) 0.1417(17)
H3B* H -0.12670 -0.84430 0.55130
C9B* C -0.0769(11) -0.8335(11) 0.6540(8)
C10B* C 0.000(3) -0.733(3) -0.104(2)
C11B* C 0.000(2) -0.596(2) -0.088(2)
C12B* C -0.154(3) -0.492(3) 0.078(2)
C13B* C -0.152(4) -0.490(3) 0.201(2)
C14B* C 0.0000(14) -0.8037(14) 0.6921(12)
H5B* H 0.00000 -0.71830 -0.15590
H6B* H 0.04970 -0.73670 -0.09370
H6J* H -0.04970 -0.78640 -0.09370
H7B* H 0.00000 -0.59860 -0.14180
H8B* H -0.04980 -0.59510 -0.07120
H8J* H 0.04980 -0.54530 -0.07120
H9B* H -0.19080 -0.46920 0.08900
H10B* H -0.09770 -0.44590 0.06950
H11B* H -0.17430 -0.52710 0.03450
H12B* H -0.18500 -0.46390 0.18800
H13B* H -0.17480 -0.52350 0.24550
H14B* H -0.09430 -0.44620 0.21020
H15B* H 0.00010 -0.81520 0.74300
C9J* C 0.0769(11) -0.7566(11) 0.6540(8)
H3J* H 0.12670 -0.71760 0.55130
C15J* C 0.1552(17) -0.7218(12) 0.6968(8)
O4J** O 0.1509(17) -0.7290(9) 0.7669(6)
O7J** O 0.2226(19) -0.6844(10) 0.6627(7)
Zn1C** Zn 0.24309(12) -0.65858(11) 0.83316(13)
Co1C**** Co 0.34934(15) -0.65066(15) 0.67540(17)
Zn1E*** Zn -0.90167(12) -1.24309(11) -0.16684(13)
O1E* O -1.0000(7) -1.3429(7) -0.2079(8)
O2E* O -0.9309(9) -1.2123(9) -0.0707(6)
O3E* O -0.7965(8) -1.2397(7) -0.1501(8)
O4K*** O -0.8799(17) -1.1509(9) -0.2331(6)
Co1E**** Co -1.00000(15) -1.34934(15) -0.32460(17)
Zn1G*** Zn -1.09833(12) -1.34142(11) -0.16684(13)
C1E* C -1.0000(12) -1.2398(12) -0.0396(10)
C2E* C -0.8120(14) -1.3083(14) -0.1293(14)
O4E* O -0.8491(17) -1.1201(9) 0.2669(6)
C15E* C -0.8448(17) -1.1230(12) 0.1968(8)
O5E* O -1.000(1) -1.3663(10) -0.4381(9)
O6E* O -0.9110(15) -1.3846(10) -0.3159(9)
O6G* O -1.0890(15) -1.4736(10) -0.3159(9)
O7*** O -1.0930(19) -1.3156(10) -0.3373(7)
O7K*** O -0.9070(19) -1.2226(10) -0.3373(7)
C3E* C -1.0000(12) -1.2220(12) 0.0394(10)
O2G* O -1.0691(9) -1.2814(9) -0.0707(6)
O8E* O -0.8819(11) -1.3689(11) -0.1191(11)
C4E* C -0.7357(13) -1.3225(13) -0.1230(15)
C5E* C -1.0000(19) -1.3188(19) -0.4865(13)
C6E* C -0.8841(20) -1.4210(18) -0.352(2)
C7E* C -0.9242(11) -1.1779(11) 0.0776(8)
C7G* C -1.0758(11) -1.2537(11) 0.0776(8)
C8E* C -0.6536(13) -1.2526(15) -0.1228(16)
C8C* C -0.7474(13) -1.4010(15) -0.1228(16)
H1E* H -1.00000 -1.27000 -0.47090
N1E* N -1.0000(17) -1.3314(17) -0.5573(12)
H2E* H -0.90360 -1.42110 -0.40020
N2E* N -0.8464(20) -1.4590(17) -0.3583(17)
H3E* H -0.87330 -1.15570 0.05130
C9E* C -0.9231(11) -1.1665(11) 0.1540(8)
H4E* H -0.64540 -1.19790 -0.12250
C4D* C -0.5868(13) -1.2643(13) -0.1230(15)
C10E* C -1.000(3) -1.267(3) -0.604(2)
C11E* C -1.000(2) -1.404(2) -0.588(2)
C12E* C -0.846(3) -1.508(3) -0.422(2)
C13E* C -0.848(4) -1.510(3) -0.299(2)
C14E* C -1.0000(14) -1.1963(14) 0.1921(12)
H5E* H -1.00000 -1.28170 -0.65590
H6E* H -1.04970 -1.26330 -0.59370
H6G* H -0.95030 -1.21360 -0.59370
H7E* H -1.00000 -1.40140 -0.64180
H8E* H -0.95020 -1.40490 -0.57120
H8G* H -1.04980 -1.45470 -0.57120
H9E* H -0.80920 -1.53080 -0.41100
H10E* H -0.90230 -1.55410 -0.43050
H11E* H -0.82570 -1.47290 -0.46550
H12E* H -0.81500 -1.53610 -0.31200
H13E* H -0.82520 -1.47650 -0.25450
H14E* H -0.90570 -1.55380 -0.28980
H15E* H -1.00010 -1.18480 0.24300
C9G* C -1.0769(11) -1.2434(11) 0.1540(8)
H3G* H -1.12670 -1.28240 0.05130
C15G* C -1.1552(17) -1.2782(12) 0.1968(8)
O4G** O -1.1509(17) -1.2710(9) 0.2669(6)
O7G** O -1.2226(19) -1.3156(10) 0.1627(7)
Zn1** Zn -1.24309(12) -1.34142(11) 0.33316(13)
Co1*** Co -1.34934(15) -1.34934(15) 0.17540(17)
O3C* O -0.7603(8) -1.5568(7) -0.1501(8)
C2C* C -0.6917(14) -1.5037(14) -0.1293(14)
Zn1C*** Zn -0.75691(12) -1.65858(11) -0.16684(13)
O8C* O -0.6311(11) -1.5130(11) -0.1191(11)
C4C* C -0.6775(13) -1.4132(13) -0.1230(15)
C8D* C -0.5990(13) -1.3464(15) -0.1228(16)
H4C* H -0.80210 -1.44750 -0.12250
O3D* O -0.4432(8) -1.2035(7) -0.1501(8)
C2D* C -0.4963(14) -1.1880(14) -0.1293(14)
Zn1D*** Zn -0.34142(12) -1.09833(11) -0.16684(13)
O8D* O -0.4870(11) -1.1181(11) -0.1191(11)
H4D* H -0.55250 -1.35460 -0.12250
O1C* O -0.6571(7) -1.6571(7) -0.2079(8)
O2C* O -0.7877(9) -1.7186(9) -0.0707(6)
O4J*** O -0.8491(17) -1.7290(9) -0.2331(6)
Co1C***** Co -0.65066(15) -1.65066(15) -0.32460(17)
Zn1F*** Zn -0.65858(12) -1.75691(11) -0.16684(13)
C1C* C -0.7602(12) -1.7602(12) -0.0396(10)
O4C* O -0.8799(17) -1.7290(9) 0.2669(6)
C15C* C -0.8770(17) -1.7218(12) 0.1968(8)
Zn1J** Zn -0.90167(12) -1.65858(11) 0.33316(13)
O5C* O -0.6337(10) -1.6337(10) -0.4381(9)
O6C* O -0.6154(15) -1.5264(10) -0.3159(9)
O6F* O -0.5264(15) -1.6154(10) -0.3159(9)
O7A*** O -0.6844(19) -1.7774(10) -0.3373(7)
O7J*** O -0.7774(19) -1.6844(10) -0.3373(7)
C3C* C -0.7780(12) -1.7780(12) 0.0394(10)
O2F* O -0.7186(9) -1.7877(9) -0.0707(6)
C5C* C -0.6812(19) -1.6812(19) -0.4865(13)
C6C* C -0.579(2) -1.4631(18) -0.352(2)
O7C** O -0.9070(19) -1.6844(10) 0.1627(7)
Co1B** Co -1.00000(15) -1.65066(15) 0.17540(17)
C7C* C -0.8221(11) -1.7463(11) 0.0776(8)
C7F* C -0.7463(11) -1.8221(11) 0.0776(8)
H1C* H -0.73000 -1.73000 -0.47090
N1C* N -0.6686(17) -1.6686(17) -0.5573(12)
H2C* H -0.57890 -1.48250 -0.40020
N2C* N -0.541(2) -1.3874(17) -0.3583(17)
H3C* H -0.84430 -1.71760 0.05130
C9C* C -0.8335(11) -1.7566(11) 0.1540(8)
C10C* C -0.733(3) -1.733(3) -0.604(2)
C11C* C -0.596(2) -1.596(2) -0.588(2)
C12C* C -0.492(3) -1.338(3) -0.422(2)
C13C* C -0.490(4) -1.338(3) -0.299(2)
C14C* C -0.8037(14) -1.8037(14) 0.1921(12)
H5C* H -0.71830 -1.71830 -0.65590
H6C* H -0.73670 -1.78640 -0.59370
H6F* H -0.78640 -1.73670 -0.59370
H7C* H -0.59860 -1.59860 -0.64180
H8C* H -0.59510 -1.54530 -0.57120
H8F* H -0.54530 -1.59510 -0.57120
H9C* H -0.46920 -1.27840 -0.41100
H10C* H -0.44590 -1.34820 -0.43050
H11C* H -0.52710 -1.35280 -0.46550
H12C* H -0.46390 -1.27890 -0.31200
H13C* H -0.52350 -1.34870 -0.25450
H14C* H -0.44620 -1.35190 -0.28980
H15C* H -0.81520 -1.81530 0.24300
C9F* C -0.7566(11) -1.8335(11) 0.1540(8)
H3F* H -0.71760 -1.84430 0.05130
C15F* C -0.7218(17) -1.8770(12) 0.1968(8)
O4F*** O -0.7290(17) -1.8799(9) 0.2669(6)
O7F*** O -0.6844(19) -1.907(1) 0.1627(7)
Zn1A*** Zn -0.65858(12) -1.90167(11) 0.33316(13)
Co1A*** Co -0.65066(15) -2.00000(15) 0.17540(17)
O1D* O -0.3429(7) -1.0000(7) -0.2079(8)
O2D* O -0.2814(9) -1.0691(9) -0.0707(6)
O4I*** O -0.2710(17) -1.1201(9) -0.2331(6)
Co1D***** Co -0.34934(15) -1.00000(15) -0.32460(17)
Zn1H*** Zn -0.24309(12) -0.90167(11) -0.16684(13)
C1D* C -0.2398(12) -1.0000(12) -0.0396(10)
O4D* O -0.2710(17) -1.1509(9) 0.2669(6)
C15D* C -0.2782(17) -1.1552(12) 0.1968(8)
Zn1I*** Zn -0.34142(12) -1.24309(11) 0.33316(13)
O5D* O -0.3663(10) -1.000(1) -0.4381(9)
O6D* O -0.4736(15) -1.089(1) -0.3159(9)
O6H* O -0.3846(15) -0.911(1) -0.3159(9)
O7B*** O -0.2226(19) -0.907(1) -0.3373(7)
O7I*** O -0.3156(19) -1.093(1) -0.3373(7)
C3D* C -0.2220(12) -1.0000(12) 0.0394(10)
O2H* O -0.2123(9) -0.9309(9) -0.0707(6)
C5D* C -0.3188(19) -1.0000(19) -0.4865(13)
C6D* C -0.5369(20) -1.1159(18) -0.352(2)
O7D*** O -0.3156(19) -1.2226(10) 0.1627(7)
Co1**** Co -0.34934(15) -1.34934(15) 0.17540(17)
C7D* C -0.2537(11) -1.0758(11) 0.0776(8)
C7H* C -0.1779(11) -0.9242(11) 0.0776(8)
H1D* H -0.27000 -1.00000 -0.47090
N1D* N -0.3314(17) -1.0000(17) -0.5573(12)
H2D* H -0.51750 -1.09640 -0.40020
N2D* N -0.6126(20) -1.1536(17) -0.3583(17)
H3D* H -0.28240 -1.12670 0.05130
C9D* C -0.2434(11) -1.0769(11) 0.1540(8)
C10D* C -0.267(3) -1.000(3) -0.604(2)
C11D* C -0.404(2) -1.000(2) -0.588(2)
C12D* C -0.662(3) -1.154(3) -0.422(2)
C13D* C -0.662(4) -1.152(3) -0.299(2)
C14D* C -0.1963(14) -1.0000(14) 0.1921(12)
H5D* H -0.28170 -1.00000 -0.65590
H6D* H -0.21360 -0.95030 -0.59370
H6H* H -0.26330 -1.04970 -0.59370
H7D* H -0.40140 -1.00000 -0.64180
H8D* H -0.45470 -1.04980 -0.57120
H8H* H -0.40490 -0.95020 -0.57120
H9D* H -0.72160 -1.19080 -0.41100
H10D* H -0.65180 -1.09770 -0.43050
H11D* H -0.64720 -1.17430 -0.46550
H12D* H -0.72110 -1.18500 -0.31200
H13D* H -0.65130 -1.17480 -0.25450
H14D* H -0.64810 -1.09430 -0.28980
H15D* H -0.18470 -0.99990 0.24300
C9H* C -0.1665(11) -0.9231(11) 0.1540(8)
H3H* H -0.15570 -0.87330 0.05130
C15H* C -0.1230(17) -0.8448(12) 0.1968(8)
C16A C 0.929(3) 1.000(3) 0.845(13)
C16B C 1.000(3) 0.929(3) 0.845(13)
#END
