
#######################################################################
#
#                 Cambridge Crystallographic Data Centre
#                                CCDC
#
#######################################################################
#
# If this CIF has been generated from an entry in the Cambridge
# Structural Database, then it will include bibliographic, chemical,
# crystal, experimental, refinement or atomic coordinate data resulting
# from the CCDC's data processing and validation procedures.
#
#######################################################################

data_CSD_CIF_EWULEO
_audit_creation_date 2011-10-03
_audit_creation_method CSD-ConQuest-V1
_database_code_CSD EWULEO
_database_code_depnum_ccdc_archive 'CCDC 779863'
_chemical_formula_sum 'C65 H70 Cu4 N10 O40 Si1 W12'
_chemical_formula_moiety
;
(C39 H42 Cu2 N6 2+)n,n(C26 H28 Cu2 N4 2+),n(O40 Si1 W12 4-)
;
_journal_coden_Cambridge 1290
_journal_year 2011
_journal_page_first 3082
_journal_name_full 'Eur.J.Inorg.Chem. '
loop_
_publ_author_name
"Zhangang Han"
"Yanna Wang"
"Xuejun Song"
"Xueliang Zhai"
"Changwen Hu"
_chemical_name_systematic
;
catena-[tris(\m~2~-1,3-bis(4-Pyridyl)propane-N,N')-di-copper(i) 
bis(\m~2~-1,3-bis(4-pyridyl)propane-N,N')-di-copper(i) 
(\m~12~-silicato)-tetracosakis(\m~2~-oxo)-dodeca-oxo-dodeca-tungsten]
;
_cell_volume   4485.508
_exptl_crystal_colour 'yellow'
_exptl_crystal_density_diffrn 3.05
_exptl_crystal_description 'block'
_diffrn_ambient_temperature 273
#These two values have been output from a single CSD field.
_refine_ls_R_factor_gt 0.0368
_refine_ls_wR_factor_gt 0.0368
_symmetry_cell_setting monoclinic
_symmetry_space_group_name_H-M 'P 21'
_symmetry_Int_Tables_number 4
loop_
_symmetry_equiv_pos_site_id
_symmetry_equiv_pos_as_xyz
1 x,y,z
2 -x,1/2+y,-z
_cell_length_a 14.0574(13)
_cell_length_b 23.305(2)
_cell_length_c 15.2152(14)
_cell_angle_alpha 90
_cell_angle_beta 115.859(1)
_cell_angle_gamma 90
_cell_formula_units_Z 2
loop_
_atom_type_symbol
_atom_type_radius_bond
C 0.68
H 0.23
Cu 1.32
N 0.68
O 0.68
Si 1.20
W 1.41
loop_
_atom_site_label
_atom_site_type_symbol
_atom_site_fract_x
_atom_site_fract_y
_atom_site_fract_z
W1 W -0.59614(4) -0.38893(2) 0.44554(4)
W2 W -0.79717(4) -0.44731(2) 0.21175(4)
W3 W -0.39534(4) -0.43712(2) 0.40360(4)
W4 W -0.79847(4) -0.29272(2) 0.26734(4)
W5 W -0.77976(4) -0.41665(2) 0.00443(4)
W6 W -0.41042(4) -0.29715(2) 0.44961(4)
W7 W -0.39361(4) -0.26377(2) 0.21878(4)
W8 W -0.79217(4) -0.26206(2) 0.05365(4)
W9 W -0.57300(4) -0.31721(3) 0.00604(4)
W10 W -0.59591(4) -0.50033(2) 0.17417(4)
W11 W -0.38980(4) -0.40438(2) 0.16758(4)
W12 W -0.61286(4) -0.20464(2) 0.26307(4)
Cu1 Cu -0.0715(2) -0.36596(12) 0.21814(17)
Cu2 Cu 0.00340(19) -0.58118(12) 1.5097(2)
Cu3 Cu -0.58733(17) -0.36786(9) 0.71168(17)
Cu4 Cu -0.09967(19) -0.20155(11) 0.29418(17)
Si1 Si -0.5944(2) -0.35243(15) 0.2222(3)
O1 O -0.6721(6) -0.2980(4) 0.2076(6)
O2 O -0.5243(6) -0.3653(4) 0.3382(6)
O3 O -0.5155(6) -0.3389(4) 0.1725(6)
O4 O -0.6670(6) -0.4092(4) 0.1705(6)
O5 O -0.7125(7) -0.5100(4) 0.2077(7)
O6 O -0.5656(8) -0.5703(4) 0.1645(8)
O7 O -0.3580(7) -0.4168(4) 0.3022(7)
O8 O -0.3659(6) -0.2850(4) 0.3480(7)
O9 O -0.5912(8) -0.1344(4) 0.2972(8)
O10 O -0.4617(7) -0.3743(4) 0.0397(6)
O11 O -0.5078(7) -0.2197(4) 0.2181(7)
O12 O -0.8834(8) -0.2279(5) -0.0460(8)
O13 O -0.7180(7) -0.1972(4) 0.1301(7)
O14 O -0.4956(7) -0.4607(4) 0.1429(7)
O15 O -0.8237(7) -0.3398(4) 0.0190(7)
O16 O -0.5178(7) -0.2425(4) 0.3813(6)
O17 O -0.8673(8) -0.4331(5) -0.1126(6)
O18 O -0.6295(7) -0.4039(5) 0.5395(7)
O19 O -0.4932(7) -0.3297(4) 0.5086(7)
O20 O -0.8591(6) -0.4440(4) 0.0751(6)
O21 O -0.8966(7) -0.2781(4) 0.3018(8)
O22 O -0.5953(8) -0.3026(5) -0.1111(7)
O23 O -0.8942(7) -0.4834(4) 0.2289(7)
O24 O -0.7258(6) -0.2210(4) 0.2997(6)
O25 O -0.6917(7) -0.4351(4) 0.3446(6)
O26 O -0.6997(7) -0.4862(4) 0.0411(6)
O27 O -0.3017(7) -0.4867(4) 0.4658(7)
O28 O -0.3205(7) -0.3313(4) 0.2079(7)
O29 O -0.4671(7) -0.2622(4) 0.0760(7)
O30 O -0.3200(8) -0.2574(4) 0.5424(7)
O31 O -0.2989(7) -0.2124(5) 0.2389(8)
O32 O -0.3337(7) -0.3691(4) 0.4742(7)
O33 O -0.5037(6) -0.4838(4) 0.3051(7)
O34 O -0.6704(7) -0.3803(4) -0.0139(7)
O35 O -0.4828(6) -0.4404(4) 0.4747(6)
O36 O -0.6939(6) -0.3276(4) 0.3805(6)
O37 O -0.2921(7) -0.4416(5) 0.1567(8)
O38 O -0.6768(6) -0.2714(4) 0.0199(6)
O39 O -0.8647(6) -0.2660(4) 0.1347(6)
O40 O -0.8359(6) -0.3698(4) 0.2177(7)
C1 C -0.0661(13) -0.3364(7) 0.0355(13)
H1 H -0.00240 -0.35620 0.05990
C2 C -0.0983(12) -0.3108(8) -0.0510(12)
H2 H -0.05830 -0.31410 -0.08580
C3 C -0.1939(12) -0.2782(8) -0.0907(14)
C4 C -0.2543(13) -0.2805(9) -0.0378(14)
H3 H -0.32210 -0.26510 -0.06420
C5 C -0.2138(15) -0.3050(8) 0.0513(14)
H4 H -0.25130 -0.30100 0.08840
C6 C -0.2270(14) -0.2477(9) -0.1864(13)
H5 H -0.22150 -0.27440 -0.23300
H6 H -0.30080 -0.23710 -0.21060
C7 C -0.1659(16) -0.1962(9) -0.1832(15)
H7 H -0.18450 -0.18480 -0.25000
H8 H -0.09180 -0.20680 -0.15400
C8 C -0.1771(18) -0.1438(9) -0.1293(15)
H9 H -0.12860 -0.11470 -0.13130
H10 H -0.24810 -0.12880 -0.16560
C9 C -0.1582(14) -0.1506(8) -0.0257(14)
C10 C -0.0648(13) -0.1732(7) 0.0432(13)
H11 H -0.01080 -0.18080 0.02500
C11 C -0.0476(14) -0.1849(8) 0.1372(13)
H12 H 0.01790 -0.19900 0.18090
C12 C -0.2296(15) -0.1383(9) 0.0113(15)
H13 H -0.29300 -0.12040 -0.02870
C13 C -0.2096(16) -0.1517(10) 0.1056(14)
H14 H -0.26070 -0.14260 0.12660
C14 C -0.0929(14) -0.3893(12) 0.3904(15)
H15 H -0.16400 -0.38280 0.34990
C15 C -0.0619(16) -0.3986(12) 0.4923(14)
H16 H -0.11220 -0.40120 0.51650
C16 C 0.0435(13) -0.4034(8) 0.5532(12)
C17 C 0.1113(14) -0.4022(9) 0.5082(13)
H17 H 0.18360 -0.40600 0.54690
C18 C 0.0779(13) -0.3959(9) 0.4138(11)
H18 H 0.12830 -0.39580 0.38970
C19 C 0.0793(17) -0.4056(10) 0.6620(14)
H19 H 0.12250 -0.43960 0.68720
H20 H 0.01720 -0.41010 0.67390
C20 C 0.1431(17) -0.3528(11) 0.7219(19)
H21 H 0.18050 -0.36320 0.79030
H22 H 0.19500 -0.34160 0.69910
C21 C 0.0701(17) -0.3032(11) 0.7109(14)
H23 H 0.01050 -0.31720 0.72080
H24 H 0.10750 -0.27550 0.76210
C22 C 0.0286(14) -0.2729(8) 0.6140(12)
C23 C -0.0791(13) -0.2646(10) 0.5583(15)
H25 H -0.12760 -0.27570 0.58150
C24 C -0.1116(13) -0.240(1) 0.4694(15)
H26 H -0.18330 -0.23150 0.43590
C25 C 0.0933(13) -0.2556(8) 0.5714(13)
H27 H 0.16620 -0.25970 0.60550
C26 C 0.0521(13) -0.2335(9) 0.4832(13)
H28 H 0.09950 -0.22170 0.45920
C27 C -0.6323(13) -0.4545(7) 0.8229(11)
H29 H -0.66970 -0.42700 0.83920
C28 C -0.5996(13) -0.5033(7) 0.8804(11)
H30 H -0.61390 -0.50660 0.93440
C29 C -0.5475(14) -0.5463(8) 0.8600(13)
C30 C -0.5297(17) -0.5364(8) 0.7785(13)
H31 H -0.49370 -0.56410 0.76090
C31 C -0.5612(14) -0.4899(9) 0.7250(14)
H32 H -0.54800 -0.48690 0.67040
C32 C -0.5044(16) -0.5964(8) 0.9260(13)
H33 H -0.48830 -0.62660 0.89070
H34 H -0.55850 -0.61080 0.94360
C33 C -0.4047(14) -0.5835(8) 1.0198(14)
H35 H -0.34910 -0.57090 1.00270
H36 H -0.41940 -0.55230 1.05420
C34 C -0.3662(16) -0.6345(8) 1.0867(14)
H37 H -0.34310 -0.66420 1.05570
H38 H -0.42380 -0.64980 1.09850
C35 C -0.2734(16) -0.6177(8) 1.1853(14)
C36 C -0.2874(14) -0.5815(10) 1.2504(14)
H39 H -0.35320 -0.56450 1.23180
C37 C -0.2111(14) -0.5698(10) 1.3386(14)
H40 H -0.22640 -0.54600 1.37990
C38 C -0.1739(16) -0.6397(9) 1.2149(15)
H41 H -0.15880 -0.66310 1.17310
C39 C -0.0980(17) -0.6275(10) 1.3044(16)
H42 H -0.03220 -0.64450 1.32300
C40 C -0.6558(11) -0.2721(7) 0.5790(11)
H43 H -0.70050 -0.29800 0.53310
C41 C -0.6441(11) -0.2168(7) 0.5491(11)
H44 H -0.68210 -0.20670 0.48380
C42 C -0.5797(11) -0.1778(7) 0.6119(11)
C43 C -0.5294(14) -0.1931(8) 0.7096(13)
H45 H -0.48780 -0.16710 0.75710
C44 C -0.5435(12) -0.2488(8) 0.7340(11)
H46 H -0.50750 -0.25920 0.79930
C45 C -0.5568(16) -0.1188(8) 0.5801(17)
H47 H -0.54570 -0.09040 0.63020
H48 H -0.61560 -0.10660 0.52010
C46 C -0.4474(14) -0.1263(9) 0.5632(16)
H49 H -0.38630 -0.13140 0.62550
H50 H -0.45370 -0.15970 0.52300
C47 C -0.4356(15) -0.0771(10) 0.5175(19)
H51 H -0.43290 -0.04350 0.55600
H52 H -0.49470 -0.07310 0.45350
C48 C -0.3301(17) -0.0836(11) 0.5077(18)
C49 C -0.2404(15) -0.0595(12) 0.5816(18)
H53 H -0.24220 -0.04370 0.63700
C50 C -0.1485(15) -0.060(1) 0.5699(18)
H54 H -0.08800 -0.04380 0.61870
C51 C -0.3199(14) -0.1114(10) 0.4347(14)
H55 H -0.37470 -0.13370 0.39040
C52 C -0.2239(13) -0.1057(9) 0.4274(14)
H56 H -0.22030 -0.11990 0.37180
C53 C -0.3702(12) -0.4070(8) 0.8734(13)
H57 H -0.40700 -0.40450 0.91130
C54 C -0.2752(13) -0.4341(8) 0.9128(13)
H58 H -0.24920 -0.44910 0.97560
C55 C -0.2146(11) -0.4396(7) 0.8574(12)
C56 C -0.2634(14) -0.4159(10) 0.7649(14)
H59 H -0.23070 -0.41910 0.72350
C57 C -0.3586(16) -0.3877(9) 0.7323(14)
H60 H -0.38580 -0.37060 0.67100
C58 C -0.1075(17) -0.4660(9) 0.8989(18)
H61 H -0.06300 -0.44570 0.95840
H62 H -0.07750 -0.46040 0.85290
C59 C -0.1030(16) -0.5328(14) 0.9234(18)
H63 H -0.03010 -0.54560 0.95370
H64 H -0.13300 -0.53930 0.96920
C60 C -0.1618(19) -0.5654(11) 0.8348(17)
H65 H -0.23170 -0.54850 0.80150
H66 H -0.17090 -0.60410 0.85330
C61 C -0.1128(17) -0.5694(9) 0.7598(16)
C62 C -0.0139(16) -0.5512(9) 0.7724(16)
H67 H 0.03250 -0.53650 0.83280
C63 C 0.0173(16) -0.5540(9) 0.7017(16)
H68 H 0.08380 -0.53980 0.71400
C64 C -0.1760(15) -0.5915(9) 0.6671(15)
H69 H -0.24400 -0.60430 0.65200
C65 C -0.1373(16) -0.5942(10) 0.5984(15)
H70 H -0.17990 -0.60960 0.53730
N1 N -0.1219(11) -0.3352(6) 0.0908(10)
N2 N -0.1225(11) -0.1767(6) 0.1678(10)
N3 N -0.0233(11) -0.3895(7) 0.3495(9)
N4 N -0.0503(9) -0.2263(6) 0.4242(10)
N5 N -0.6134(11) -0.4445(6) 0.7454(9)
N6 N -0.1105(11) -0.5914(8) 1.3710(12)
N7 N -0.6039(9) -0.2884(6) 0.6721(9)
N8 N -0.1421(12) -0.0822(7) 0.4924(11)
N9 N -0.4145(10) -0.3839(8) 0.7853(11)
N10 N -0.0409(13) -0.5755(7) 0.6161(14)
Cu2A Cu -0.00340(19) -0.08118(12) 0.4903(2)
Cu2* Cu 0.00340(19) -0.58118(12) 0.5097(2)
N8A N 0.1421(12) -0.5822(7) 1.5076(11)
N10* N -0.0409(13) -0.5755(7) 1.6161(14)
#END
