
#######################################################################
#
#                 Cambridge Crystallographic Data Centre
#                                CCDC
#
#######################################################################
#
# If this CIF has been generated from an entry in the Cambridge
# Structural Database, then it will include bibliographic, chemical,
# crystal, experimental, refinement or atomic coordinate data resulting
# from the CCDC's data processing and validation procedures.
#
#######################################################################

data_CSD_CIF_EWUYIG
_audit_creation_date 2016-10-04
_audit_creation_method CSD-ConQuest-V1
_database_code_CSD EWUYIG
_database_code_depnum_ccdc_archive 'CCDC 1039319'
_chemical_formula_sum 'C16 H16 N2 O14 Zn2'
_chemical_formula_moiety
;
(C6 O12 Zn2 2-)n,2n(C5 H6 N1 1+),2n(H2 O1)
;
_journal_coden_Cambridge 9
_journal_volume 55
_journal_year 2016
_journal_page_first 8267
_journal_name_full 'Inorg.Chem. '
loop_
_publ_author_name
"T.Yamada"
"T.Nankawa"
_chemical_name_systematic
;
catena-(bis(pyridinium) tris(\m-oxalato)-di-zinc dihydrate)
;
_cell_volume   1103.227
_exptl_crystal_colour 'colorless'
_exptl_crystal_density_diffrn 1.779
_exptl_special_details
;
, Proton conductivity

;
_exptl_crystal_description 'Prism'
_diffrn_ambient_temperature 143
_refine_special_details
;
The cation is disordered by symmetry.

;
#These two values have been output from a single CSD field.
_refine_ls_R_factor_gt 0.0283
_refine_ls_wR_factor_gt 0.0283
_symmetry_cell_setting monoclinic
_symmetry_space_group_name_H-M 'C 2/m'
_symmetry_Int_Tables_number 12
loop_
_symmetry_equiv_pos_site_id
_symmetry_equiv_pos_as_xyz
1 x,y,z
2 -x,y,-z
3 1/2+x,1/2+y,z
4 1/2-x,1/2+y,-z
5 -x,-y,-z
6 x,-y,z
7 -1/2-x,-1/2-y,-z
8 -1/2+x,-1/2-y,z
_cell_length_a 9.4238(15)
_cell_length_b 16.1699(16)
_cell_length_c 7.5876(11)
_cell_angle_alpha 90
_cell_angle_beta 107.413(5)
_cell_angle_gamma 90
_cell_formula_units_Z 2
loop_
_atom_type_symbol
_atom_type_radius_bond
C 0.68
H 0.23
N 0.68
O 0.68
Zn 1.22
loop_
_atom_site_label
_atom_site_type_symbol
_atom_site_fract_x
_atom_site_fract_y
_atom_site_fract_z
Zn1 Zn 0.00000 0.33387(2) 0.00000
O1 O 0.07164(15) 0.24682(8) -0.15899(18)
O2 O -0.03652(17) 0.43117(9) 0.15919(19)
C1 C 0.2071(2) 0.22885(11) -0.0935(2)
C2 C -0.0216(3) 0.50000 0.0919(3)
O3 O 0.27784(16) 0.18053(9) -0.1630(2)
N1 N -0.2324(3) 0.45648(19) 0.4353(3)
H1 H -0.14990 0.42930 0.48910
C3 C -0.3548(3) 0.41608(17) 0.3556(4)
H2 H -0.35450 0.35730 0.35590
C4 C -0.4827(3) 0.45768(16) 0.2720(4)
H3 H -0.57150 0.42810 0.21390
O4 O 0.00000 0.32570(17) 0.50000
H4 H 0.013(5) 0.289(2) 0.587(5)
O1F O 0.42836(15) 0.25318(8) 0.15899(18)
C1F C 0.2929(2) 0.27115(11) 0.0935(2)
O3F O 0.22216(16) 0.31947(9) 0.1630(2)
O2A O 0.03652(17) 0.43117(9) -0.15919(19)
C2A C 0.0216(3) 0.50000 -0.0919(3)
O2D O 0.03652(17) 0.56883(9) -0.15919(19)
O2E O -0.03652(17) 0.56883(9) 0.15919(19)
O1A O -0.07164(15) 0.24682(8) 0.15899(18)
C1A C -0.2071(2) 0.22885(11) 0.0935(2)
O3A O -0.27784(16) 0.18053(9) 0.1630(2)
O1G O -0.42836(15) 0.25318(8) -0.15899(18)
C1G C -0.2929(2) 0.27115(11) -0.0935(2)
O3G O -0.22216(16) 0.31947(9) -0.1630(2)
Zn1D Zn 0.00000 0.66613(2) 0.00000
Zn1F Zn -0.50000 0.16613(2) 0.00000
Zn1F* Zn 0.50000 0.16613(2) 0.00000
O1D O -0.07164(15) 0.75318(8) 0.15899(18)
O1E O 0.07164(15) 0.75318(8) -0.15899(18)
O3B O -0.22216(16) 0.68053(9) -0.1630(2)
O3C O 0.22216(16) 0.68053(9) 0.1630(2)
N1E N -0.2324(3) 0.54352(19) 0.4353(3)
H1E H -0.14990 0.57070 0.48910
C3E C -0.3548(3) 0.58392(17) 0.3556(4)
H2E H -0.35450 0.64270 0.35590
C4E C -0.4827(3) 0.54232(16) 0.2720(4)
H3E H -0.57150 0.57190 0.21390
H4A H -0.013(5) 0.289(2) 0.413(5)
#END
