
#######################################################################
#
#                 Cambridge Crystallographic Data Centre
#                                CCDC
#
#######################################################################
#
# If this CIF has been generated from an entry in the Cambridge
# Structural Database, then it will include bibliographic, chemical,
# crystal, experimental, refinement or atomic coordinate data resulting
# from the CCDC's data processing and validation procedures.
#
#######################################################################

data_CSD_CIF_EXABUC
_audit_creation_date 2016-10-04
_audit_creation_method CSD-ConQuest-V1
_database_code_CSD EXABUC
_database_code_depnum_ccdc_archive 'CCDC 1030608'
_chemical_formula_sum 'C16 H12 N2 O12 Zn2'
_chemical_formula_moiety
;
(C6 O12 Zn2 2-)n,2(C5 H6 N1 1+)
;
_journal_coden_Cambridge 9
_journal_volume 55
_journal_year 2016
_journal_page_first 8267
_journal_name_full 'Inorg.Chem. '
loop_
_publ_author_name
"T.Yamada"
"T.Nankawa"
_chemical_name_systematic
;
catena-[bis(pyridinium) tris(\m-oxalato)-di-zinc]
;
_cell_volume   2073.040
_exptl_crystal_colour 'colorless'
_exptl_crystal_density_diffrn 1.778
_exptl_special_details
;
Proton Conductivity

;
_exptl_crystal_description 'Prism'
_diffrn_ambient_temperature 143
#These two values have been output from a single CSD field.
_refine_ls_R_factor_gt 0.1121
_refine_ls_wR_factor_gt 0.1121
_symmetry_cell_setting monoclinic
_symmetry_space_group_name_H-M 'C 2/c'
_symmetry_Int_Tables_number 15
loop_
_symmetry_equiv_pos_site_id
_symmetry_equiv_pos_as_xyz
1 x,y,z
2 -x,y,1/2-z
3 1/2+x,1/2+y,z
4 1/2-x,1/2+y,1/2-z
5 -x,-y,-z
6 x,-y,-1/2+z
7 -1/2-x,-1/2-y,-z
8 -1/2+x,-1/2-y,-1/2+z
_cell_length_a 15.06(3)
_cell_length_b 15.76(3)
_cell_length_c 9.879(19)
_cell_angle_alpha 90
_cell_angle_beta 117.856(17)
_cell_angle_gamma 90
_cell_formula_units_Z 4
loop_
_atom_type_symbol
_atom_type_radius_bond
C 0.68
H 0.23
N 0.68
O 0.68
Zn 1.22
loop_
_atom_site_label
_atom_site_type_symbol
_atom_site_fract_x
_atom_site_fract_y
_atom_site_fract_z
Zn1 Zn 0.76631(11) 0.42396(7) 0.51155(14)
O1 O 0.6827(6) 0.4243(4) 0.6354(8)
O2 O 0.8577(6) 0.5692(4) 0.8987(9)
O3 O 0.6865(6) 0.4845(4) 0.8455(9)
O4 O 0.6690(5) 0.3267(4) 0.3761(7)
O5 O 0.8532(6) 0.5094(4) 0.6880(9)
O6 O 0.6471(6) 0.1859(4) 0.3751(8)
C1 C 0.6957(8) 0.2543(6) 0.4252(11)
C2 C 0.8190(9) 0.5202(6) 0.7822(13)
C3 C 0.7203(9) 0.4716(6) 0.7508(12)
C4 C 0.8802(9) 0.7929(8) 0.5903(14)
H1 H 0.84360 0.82180 0.63270
N1 N 0.9849(8) 0.7161(8) 0.4781(12)
H2 H 1.01950 0.69020 0.43900
C5 C 0.983(1) 0.7990(8) 0.4713(15)
H3 H 1.01830 0.82940 0.42830
C6 C 0.8808(9) 0.7046(7) 0.5962(15)
H4 H 0.84430 0.67350 0.63630
C7 C 0.9395(10) 0.6652(8) 0.5385(17)
H5 H 0.94720 0.60530 0.54140
C8 C 0.9267(9) 0.8408(7) 0.5303(14)
H6 H 0.92150 0.90090 0.52800
O4F O 0.8310(5) 0.1733(4) 0.6239(7)
C1F C 0.8043(8) 0.2457(6) 0.5748(11)
O6F O 0.8529(6) 0.3141(4) 0.6249(8)
Zn1F Zn 0.73369(11) 0.07604(7) 0.48845(14)
O1F O 0.8173(6) 0.0757(4) 0.3646(8)
O2F O 0.6423(6) -0.0692(4) 0.1013(9)
O3F O 0.8135(6) 0.0155(4) 0.1545(9)
O5F O 0.6468(6) -0.0094(4) 0.3120(9)
C2F C 0.6810(9) -0.0202(6) 0.2178(13)
C3F C 0.7797(9) 0.0284(6) 0.2492(12)
Zn1C Zn 0.73369(11) -0.07604(7) -0.01155(14)
Zn1E Zn 0.76631(11) 0.57604(7) 1.01155(14)
O2C O 0.6423(6) 0.0692(4) 0.6013(9)
O2E O 0.8577(6) 0.4308(4) 0.3987(9)
O3C O 0.8135(6) -0.0155(4) 0.6545(9)
O3E O 0.6865(6) 0.5155(4) 0.3455(9)
#END
