
#######################################################################
#
#                 Cambridge Crystallographic Data Centre
#                                CCDC
#
#######################################################################
#
# If this CIF has been generated from an entry in the Cambridge
# Structural Database, then it will include bibliographic, chemical,
# crystal, experimental, refinement or atomic coordinate data resulting
# from the CCDC's data processing and validation procedures.
#
#######################################################################

data_CSD_CIF_EXALOF
_audit_creation_date 2011-10-03
_audit_creation_method CSD-ConQuest-V1
_database_code_CSD EXALOF
_database_code_depnum_ccdc_archive 'CCDC 800190'
_chemical_formula_sum 'C61 H53 N10 O16 Yb1'
_chemical_formula_moiety
;
(C56 H38 N8 O13 Yb1 1-)n,n(C3 H7 N1 O1),n(C2 H3 N1),n(H2 O1),n(H3 O1 1+)
;
_journal_coden_Cambridge 1147
_journal_volume 11
_journal_year 2011
_journal_page_first 3479
_journal_name_full 'Cryst.Growth Des. '
loop_
_publ_author_name
"Lei-Lei Liu"
"Zhi-Gang Ren"
"Lian-Wen Zhu"
"Hui-Fang Wang"
"Wen-Yan Yan"
"Jian-Ping Lang"
_chemical_name_systematic
;
catena-(oxonium 
(\m~4~-5,11,17,23-tetrakis((3-carboxyphenyl)azo)-25,26,27,28-tetrahydroxycalix
(4)arene)-aqua-ytterbium(iii) acetonitrile N,N-dimethylformamide solvate 
monohydrate)
;
_cell_volume   6268.767
_exptl_crystal_colour 'orange'
_exptl_crystal_density_diffrn 1.421
_exptl_crystal_description 'block'
_diffrn_ambient_temperature 223
#These two values have been output from a single CSD field.
_refine_ls_R_factor_gt 0.0771
_refine_ls_wR_factor_gt 0.0771
_symmetry_cell_setting tetragonal
_symmetry_space_group_name_H-M 'I 4/m'
_symmetry_Int_Tables_number 87
loop_
_symmetry_equiv_pos_site_id
_symmetry_equiv_pos_as_xyz
1 x,y,z
2 -x,-y,z
3 -y,x,z
4 y,-x,z
5 1/2+x,1/2+y,1/2+z
6 1/2-x,1/2-y,1/2+z
7 1/2-y,1/2+x,1/2+z
8 1/2+y,1/2-x,1/2+z
9 -x,-y,-z
10 x,y,-z
11 y,-x,-z
12 -y,x,-z
13 -1/2-x,-1/2-y,-1/2-z
14 -1/2+x,-1/2+y,-1/2-z
15 -1/2+y,-1/2-x,-1/2-z
16 -1/2-y,-1/2+x,-1/2-z
_cell_length_a 11.3086(16)
_cell_length_b 11.3086(16)
_cell_length_c 49.019(10)
_cell_angle_alpha 90
_cell_angle_beta 90
_cell_angle_gamma 90
_cell_formula_units_Z 4
loop_
_atom_type_symbol
_atom_type_radius_bond
C 0.68
H 0.23
N 0.68
O 0.68
Yb 1.57
loop_
_atom_site_label
_atom_site_type_symbol
_atom_site_fract_x
_atom_site_fract_y
_atom_site_fract_z
Yb1 Yb 1.00000 1.00000 0.932096(13)
C1 C 1.1121(7) 0.2050(7) 0.77331(15)
C2 C 1.2220(7) 0.1813(7) 0.78448(16)
C3 C 1.2525(8) 0.2415(7) 0.80812(18)
H1 H 1.32600 0.22610 0.81630
C4 C 1.1767(8) 0.3246(8) 0.82005(17)
C5 C 1.0654(7) 0.3451(7) 0.80800(17)
H2 H 1.01330 0.39970 0.81600
C6 C 1.0318(7) 0.2867(7) 0.78481(15)
C7 C 1.1754(9) 0.5082(9) 0.87911(18)
C8 C 1.2475(10) 0.4497(10) 0.8976(2)
H3 H 1.28420 0.37800 0.89290
C9 C 1.2648(11) 0.4997(10) 0.9237(2)
H4 H 1.31310 0.46140 0.93650
C10 C 1.2102(10) 0.6056(9) 0.93015(18)
H5 H 1.22160 0.63870 0.94750
C11 C 1.1394(8) 0.6633(8) 0.91150(18)
C12 C 1.1228(8) 0.6140(8) 0.88619(18)
H6 H 1.07460 0.65310 0.87340
C13 C 1.0842(9) 0.7782(9) 0.91882(19)
C14 C 1.3058(7) 0.0905(7) 0.77296(15)
H7 H 1.38720 0.11540 0.77660
H8 H 1.29560 0.08690 0.75310
N1 N 1.2136(7) 0.3770(7) 0.84501(15)
N2 N 1.1493(7) 0.4620(7) 0.85247(15)
O1 O 1.0759(5) 0.1499(5) 0.74986(11)
H9 H 1.12840 0.10400 0.74460
O2 O 1.1036(6) 0.8254(6) 0.94203(12)
O3 O 1.0162(6) 0.8285(6) 0.90187(12)
O4 O 1.00000 1.00000 0.9793(3)
C15 C 1.00000 0.00000 0.6786(5)
C16 C 1.00000 0.00000 0.6487(5)
N3 N 1.00000 0.00000 0.7011(5)
O5 O 1.00000 1.00000 0.8589(3)
O6 O 1.392(4) 0.345(4) 1.00000
H10 H 1.33450 0.39360 1.00000
H11 H 1.39800 0.27050 1.00000
H12 H 1.44350 0.40040 1.00000
N4 N 1.326(6) -0.057(4) 1.00000
O7 O 1.262(4) 0.170(4) 1.00000
C17 C 1.312(7) 0.073(4) 1.00000
C18 C 1.351(4) -0.111(4) 0.9729(6)
Yb1* Yb 0.00000 0.00000 0.932096(13)
Yb1** Yb 1.00000 -1.00000 0.932096(13)
Yb1*** Yb 2.00000 0.00000 0.932096(13)
C1B C 0.7950(7) 0.1121(7) 0.77331(15)
C1A C 0.8879(7) -0.2050(7) 0.77331(15)
C1C C 1.2050(7) -0.1121(7) 0.77331(15)
C2B C 0.8187(7) 0.2220(7) 0.78448(16)
C2A C 0.7780(7) -0.1813(7) 0.78448(16)
C2C C 1.1813(7) -0.2220(7) 0.78448(16)
C3B C 0.7585(8) 0.2525(7) 0.80812(18)
C3A C 0.7475(8) -0.2415(7) 0.80812(18)
C3C C 1.2415(8) -0.2525(7) 0.80812(18)
H1B H 0.77390 0.32600 0.81630
H1A H 0.67400 -0.22610 0.81630
H1C H 1.22610 -0.32600 0.81630
C4B C 0.6754(8) 0.1767(8) 0.82005(17)
C4A C 0.8233(8) -0.3246(8) 0.82005(17)
C4C C 1.3246(8) -0.1767(8) 0.82005(17)
C5B C 0.6549(7) 0.0654(7) 0.80800(17)
C5A C 0.9346(7) -0.3451(7) 0.80800(17)
C5C C 1.3451(7) -0.0654(7) 0.80800(17)
H2B H 0.60030 0.01330 0.81600
H2A H 0.98670 -0.39970 0.81600
H2C H 1.39970 -0.01330 0.81600
C6B C 0.7133(7) 0.0318(7) 0.78481(15)
C6A C 0.9682(7) -0.2867(7) 0.78481(15)
C6C C 1.2867(7) -0.0318(7) 0.78481(15)
C7B C 0.4918(9) 0.1754(9) 0.87911(18)
C7A C 0.8246(9) -0.5082(9) 0.87911(18)
C7C C 1.5082(9) -0.1754(9) 0.87911(18)
C8B C 0.5503(10) 0.2475(10) 0.8976(2)
C8A C 0.7525(10) -0.4497(10) 0.8976(2)
C8C C 1.4497(10) -0.2475(10) 0.8976(2)
H3B H 0.62200 0.28420 0.89290
H3A H 0.71580 -0.37800 0.89290
H3C H 1.37800 -0.28420 0.89290
C9B C 0.5003(11) 0.2648(10) 0.9237(2)
C9A C 0.7352(11) -0.4997(10) 0.9237(2)
C9C C 1.4997(11) -0.2648(10) 0.9237(2)
H4B H 0.53860 0.31310 0.93650
H4A H 0.68690 -0.46140 0.93650
H4C H 1.46140 -0.31310 0.93650
C10B C 0.3944(10) 0.2102(9) 0.93015(18)
C10A C 0.7898(10) -0.6056(9) 0.93015(18)
C10C C 1.6056(10) -0.2102(9) 0.93015(18)
H5B H 0.36130 0.22160 0.94750
H5A H 0.77840 -0.63870 0.94750
H5C H 1.63870 -0.22160 0.94750
C11B C 0.3367(8) 0.1394(8) 0.91150(18)
C11A C 0.8606(8) -0.6633(8) 0.91150(18)
C11C C 1.6633(8) -0.1394(8) 0.91150(18)
C12B C 0.3860(8) 0.1228(8) 0.88619(18)
C12A C 0.8772(8) -0.6140(8) 0.88619(18)
C12C C 1.6140(8) -0.1228(8) 0.88619(18)
H6B H 0.34690 0.07460 0.87340
H6A H 0.92540 -0.65310 0.87340
H6C H 1.65310 -0.07460 0.87340
C13B C 0.2218(9) 0.0842(9) 0.91882(19)
C13A C 0.9158(9) -0.7782(9) 0.91882(19)
C13C C 1.7782(9) -0.0842(9) 0.91882(19)
C14B C 0.9095(7) 0.3058(7) 0.77296(15)
C14A C 0.6942(7) -0.0905(7) 0.77296(15)
C14C C 1.0905(7) -0.3058(7) 0.77296(15)
H7C H 1.11540 -0.38720 0.77660
H7A H 0.61280 -0.11540 0.77660
H7B H 0.88460 0.38720 0.77660
H8C H 1.08690 -0.29560 0.75310
H8A H 0.70440 -0.08690 0.75310
H8B H 0.91310 0.29560 0.75310
N1B N 0.6230(7) 0.2136(7) 0.84501(15)
N1A N 0.7864(7) -0.3770(7) 0.84501(15)
N1C N 1.3770(7) -0.2136(7) 0.84501(15)
N2B N 0.5380(7) 0.1493(7) 0.85247(15)
N2A N 0.8507(7) -0.4620(7) 0.85247(15)
N2C N 1.4620(7) -0.1493(7) 0.85247(15)
O1C O 1.1499(5) -0.0759(5) 0.74986(11)
O1A O 0.9241(5) -0.1499(5) 0.74986(11)
O1B O 0.8501(5) 0.0759(5) 0.74986(11)
H9C H 1.10400 -0.12840 0.74460
H9A H 0.87160 -0.10400 0.74460
H9B H 0.89600 0.12840 0.74460
O2B O 0.1746(6) 0.1036(6) 0.94203(12)
O2A O 0.8964(6) -0.8254(6) 0.94203(12)
O2C O 1.8254(6) -0.1036(6) 0.94203(12)
O2A* O 0.8964(6) 1.1746(6) 0.94203(12)
O2B* O 1.1746(6) 1.1036(6) 0.94203(12)
O2C* O 0.8254(6) 0.8964(6) 0.94203(12)
O3B O 0.1715(6) 0.0162(6) 0.90187(12)
O3A O 0.9838(6) -0.8285(6) 0.90187(12)
O3C O 1.8285(6) -0.0162(6) 0.90187(12)
O3A* O 0.9838(6) 1.1715(6) 0.90187(12)
O3B* O 1.1715(6) 1.0162(6) 0.90187(12)
O3C* O 0.8285(6) 0.9838(6) 0.90187(12)
C18I C 1.351(4) -0.111(4) 1.0271(6)
#END
