
#######################################################################
#
#                 Cambridge Crystallographic Data Centre
#                                CCDC
#
#######################################################################
#
# If this CIF has been generated from an entry in the Cambridge
# Structural Database, then it will include bibliographic, chemical,
# crystal, experimental, refinement or atomic coordinate data resulting
# from the CCDC's data processing and validation procedures.
#
#######################################################################

data_CSD_CIF_EXAMIA
_audit_creation_date 2011-10-03
_audit_creation_method CSD-ConQuest-V1
_database_code_CSD EXAMIA
_database_code_depnum_ccdc_archive 'CCDC 812805'
_chemical_formula_sum 'C61 H53 N10 Nd1 O16'
_chemical_formula_moiety
;
(C56 H38 N8 Nd1 O13 1-)n,n(C3 H7 N1 O1),n(C2 H3 N1),n(H2 O1),n(H3 O1 1+)
;
_journal_coden_Cambridge 1147
_journal_volume 11
_journal_year 2011
_journal_page_first 3479
_journal_name_full 'Cryst.Growth Des. '
loop_
_publ_author_name
"Lei-Lei Liu"
"Zhi-Gang Ren"
"Lian-Wen Zhu"
"Hui-Fang Wang"
"Wen-Yan Yan"
"Jian-Ping Lang"
_chemical_name_systematic
;
catena-(oxonium 
(\m~4~-5,11,17,23-tetrakis((3-carboxyphenyl)azo)-25,26,27,28-tetrahydroxycalix
(4)arene)-aqua-neodymium(iii) acetonitrile N,N-dimethylformamide solvate 
monohydrate)
;
_cell_volume   6385.970
_exptl_crystal_colour 'orange'
_exptl_crystal_density_diffrn 1.365
_exptl_crystal_description 'block'
_diffrn_ambient_temperature 223
#These two values have been output from a single CSD field.
_refine_ls_R_factor_gt 0.0932
_refine_ls_wR_factor_gt 0.0932
_symmetry_cell_setting tetragonal
_symmetry_space_group_name_H-M 'I 4/m'
_symmetry_Int_Tables_number 87
loop_
_symmetry_equiv_pos_site_id
_symmetry_equiv_pos_as_xyz
1 x,y,z
2 -x,-y,z
3 -y,x,z
4 y,-x,z
5 1/2+x,1/2+y,1/2+z
6 1/2-x,1/2-y,1/2+z
7 1/2-y,1/2+x,1/2+z
8 1/2+y,1/2-x,1/2+z
9 -x,-y,-z
10 x,y,-z
11 y,-x,-z
12 -y,x,-z
13 -1/2-x,-1/2-y,-1/2-z
14 -1/2+x,-1/2+y,-1/2-z
15 -1/2+y,-1/2-x,-1/2-z
16 -1/2-y,-1/2+x,-1/2-z
_cell_length_a 11.2863(16)
_cell_length_b 11.2863(16)
_cell_length_c 50.133(10)
_cell_angle_alpha 90
_cell_angle_beta 90
_cell_angle_gamma 90
_cell_formula_units_Z 4
loop_
_atom_type_symbol
_atom_type_radius_bond
C 0.68
H 0.23
N 0.68
Nd 1.71
O 0.68
loop_
_atom_site_label
_atom_site_type_symbol
_atom_site_fract_x
_atom_site_fract_y
_atom_site_fract_z
Nd1 Nd 1.00000 1.00000 0.931477(16)
C1 C 1.1131(6) 0.2052(6) 0.77277(13)
C2 C 1.2237(7) 0.1801(7) 0.78434(15)
C3 C 1.2551(7) 0.2398(7) 0.80730(15)
H1 H 1.32940 0.22560 0.81520
C4 C 1.1780(7) 0.3206(7) 0.81886(15)
C5 C 1.0689(7) 0.3446(7) 0.80726(14)
H2 H 1.01810 0.40060 0.81510
C6 C 1.0347(6) 0.2873(6) 0.78437(13)
C7 C 1.1772(8) 0.4988(8) 0.87786(16)
C8 C 1.2426(10) 0.4364(10) 0.8965(2)
H3 H 1.27850 0.36410 0.89180
C9 C 1.2550(12) 0.4811(11) 0.9222(2)
H4 H 1.29840 0.43850 0.93500
C10 C 1.2034(10) 0.5884(9) 0.92894(19)
H5 H 1.21380 0.61920 0.94620
C11 C 1.1357(8) 0.6517(8) 0.91014(16)
C12 C 1.1226(7) 0.6050(7) 0.88495(16)
H6 H 1.07610 0.64530 0.87230
C13 C 1.0812(8) 0.7673(8) 0.91786(17)
C14 C 1.3084(6) 0.0870(6) 0.77254(15)
H7 H 1.29720 0.08340 0.75320
H8 H 1.39040 0.11100 0.77600
N1 N 1.2146(6) 0.3718(7) 0.84416(14)
N2 N 1.1525(6) 0.4579(6) 0.85139(13)
O1 O 1.0773(5) 0.1520(5) 0.74967(10)
H9 H 1.12970 0.10610 0.74440
O2 O 1.1006(6) 0.8079(6) 0.94128(12)
O3 O 1.0166(6) 0.8197(5) 0.90124(11)
O4 O 1.00000 1.00000 0.9787(3)
C15 C 1.00000 0.00000 0.6801(3)
C16 C 1.00000 0.00000 0.6511(4)
N3 N 1.00000 0.00000 0.7029(4)
O5 O 1.00000 1.00000 0.8595(2)
O6 O 1.433(5) 0.361(5) 1.00000
H10 H 1.37520 0.40950 1.00000
H11 H 1.43860 0.28640 1.00000
H12 H 1.48420 0.41630 1.00000
O7 O 1.744(5) -0.173(6) 1.00000
N4 N 1.692(5) 0.020(6) 1.00000
C17 C 1.662(7) -0.104(5) 1.00000
C18 C 1.676(4) 0.092(4) 1.0242(7)
Nd1* Nd 0.00000 0.00000 0.931477(16)
Nd1** Nd 1.00000 -1.00000 0.931477(16)
Nd1*** Nd 2.00000 0.00000 0.931477(16)
C1B C 0.7948(6) 0.1131(6) 0.77277(13)
C1A C 0.8869(6) -0.2052(6) 0.77277(13)
C1C C 1.2052(6) -0.1131(6) 0.77277(13)
C2B C 0.8199(7) 0.2237(7) 0.78434(15)
C2A C 0.7763(7) -0.1801(7) 0.78434(15)
C2C C 1.1801(7) -0.2237(7) 0.78434(15)
C3B C 0.7602(7) 0.2551(7) 0.80730(15)
C3A C 0.7449(7) -0.2398(7) 0.80730(15)
C3C C 1.2398(7) -0.2551(7) 0.80730(15)
H1B H 0.77440 0.32940 0.81520
H1A H 0.67060 -0.22560 0.81520
H1C H 1.22560 -0.32940 0.81520
C4B C 0.6794(7) 0.1780(7) 0.81886(15)
C4A C 0.8220(7) -0.3206(7) 0.81886(15)
C4C C 1.3206(7) -0.1780(7) 0.81886(15)
C5B C 0.6554(7) 0.0689(7) 0.80726(14)
C5A C 0.9311(7) -0.3446(7) 0.80726(14)
C5C C 1.3446(7) -0.0689(7) 0.80726(14)
H2B H 0.59940 0.01810 0.81510
H2A H 0.98190 -0.40060 0.81510
H2C H 1.40060 -0.01810 0.81510
C6B C 0.7127(6) 0.0347(6) 0.78437(13)
C6A C 0.9653(6) -0.2873(6) 0.78437(13)
C6C C 1.2873(6) -0.0347(6) 0.78437(13)
C7B C 0.5012(8) 0.1772(8) 0.87786(16)
C7A C 0.8228(8) -0.4988(8) 0.87786(16)
C7C C 1.4988(8) -0.1772(8) 0.87786(16)
C8B C 0.5636(10) 0.2426(10) 0.8965(2)
C8A C 0.7574(10) -0.4364(10) 0.8965(2)
C8C C 1.4364(10) -0.2426(10) 0.8965(2)
H3B H 0.63590 0.27850 0.89180
H3A H 0.72150 -0.36410 0.89180
H3C H 1.36410 -0.27850 0.89180
C9B C 0.5189(12) 0.2550(11) 0.9222(2)
C9A C 0.7450(12) -0.4811(11) 0.9222(2)
C9C C 1.4811(12) -0.2550(11) 0.9222(2)
H4B H 0.56150 0.29840 0.93500
H4A H 0.70160 -0.43850 0.93500
H4C H 1.43850 -0.29840 0.93500
C10B C 0.4116(10) 0.2034(9) 0.92894(19)
C10A C 0.7966(10) -0.5884(9) 0.92894(19)
C10C C 1.5884(10) -0.2034(9) 0.92894(19)
H5B H 0.38080 0.21380 0.94620
H5A H 0.78620 -0.61920 0.94620
H5C H 1.61920 -0.21380 0.94620
C11B C 0.3483(8) 0.1357(8) 0.91014(16)
C11A C 0.8643(8) -0.6517(8) 0.91014(16)
C11C C 1.6517(8) -0.1357(8) 0.91014(16)
C12B C 0.3950(7) 0.1226(7) 0.88495(16)
C12A C 0.8774(7) -0.6050(7) 0.88495(16)
C12C C 1.6050(7) -0.1226(7) 0.88495(16)
H6B H 0.35470 0.07610 0.87230
H6A H 0.92390 -0.64530 0.87230
H6C H 1.64530 -0.07610 0.87230
C13B C 0.2327(8) 0.0812(8) 0.91786(17)
C13A C 0.9188(8) -0.7673(8) 0.91786(17)
C13C C 1.7673(8) -0.0812(8) 0.91786(17)
C14B C 0.9130(6) 0.3084(6) 0.77254(15)
C14A C 0.6916(6) -0.0870(6) 0.77254(15)
C14C C 1.0870(6) -0.3084(6) 0.77254(15)
H7C H 1.08340 -0.29720 0.75320
H7A H 0.70280 -0.08340 0.75320
H7B H 0.91660 0.29720 0.75320
H8C H 1.11100 -0.39040 0.77600
H8A H 0.60960 -0.11100 0.77600
H8B H 0.88900 0.39040 0.77600
N1B N 0.6282(6) 0.2146(7) 0.84416(14)
N1A N 0.7854(6) -0.3718(7) 0.84416(14)
N1C N 1.3718(6) -0.2146(7) 0.84416(14)
N2B N 0.5421(6) 0.1525(6) 0.85139(13)
N2A N 0.8475(6) -0.4579(6) 0.85139(13)
N2C N 1.4579(6) -0.1525(6) 0.85139(13)
O1C O 1.1520(5) -0.0773(5) 0.74967(10)
O1A O 0.9227(5) -0.1520(5) 0.74967(10)
O1B O 0.8480(5) 0.0773(5) 0.74967(10)
H9C H 1.10610 -0.12970 0.74440
H9A H 0.87030 -0.10610 0.74440
H9B H 0.89390 0.12970 0.74440
O2B O 0.1921(6) 0.1006(6) 0.94128(12)
O2A O 0.8994(6) -0.8079(6) 0.94128(12)
O2C O 1.8079(6) -0.1006(6) 0.94128(12)
O2A* O 0.8994(6) 1.1921(6) 0.94128(12)
O2B* O 1.1921(6) 1.1006(6) 0.94128(12)
O2C* O 0.8079(6) 0.8994(6) 0.94128(12)
O3B O 0.1803(6) 0.0166(5) 0.90124(11)
O3A O 0.9834(6) -0.8197(5) 0.90124(11)
O3C O 1.8197(6) -0.0166(5) 0.90124(11)
O3A* O 0.9834(6) 1.1803(5) 0.90124(11)
O3B* O 1.1803(6) 1.0166(5) 0.90124(11)
O3C* O 0.8197(6) 0.9834(5) 0.90124(11)
C18I C 1.676(4) 0.092(4) 0.9758(7)
#END
