
#######################################################################
#
#                 Cambridge Crystallographic Data Centre
#                                CCDC
#
#######################################################################
#
# If this CIF has been generated from an entry in the Cambridge
# Structural Database, then it will include bibliographic, chemical,
# crystal, experimental, refinement or atomic coordinate data resulting
# from the CCDC's data processing and validation procedures.
#
#######################################################################

data_CSD_CIF_EXAMOG
_audit_creation_date 2011-10-03
_audit_creation_method CSD-ConQuest-V1
_database_code_CSD EXAMOG
_database_code_depnum_ccdc_archive 'CCDC 812806'
_chemical_formula_sum 'C61 H53 Eu1 N10 O16'
_chemical_formula_moiety
;
(C56 H38 Eu1 N8 O13 1-)n,n(C3 H7 N1 O1),n(C2 H3 N1),n(H2 O1),n(H3 O1 1+)
;
_journal_coden_Cambridge 1147
_journal_volume 11
_journal_year 2011
_journal_page_first 3479
_journal_name_full 'Cryst.Growth Des. '
loop_
_publ_author_name
"Lei-Lei Liu"
"Zhi-Gang Ren"
"Lian-Wen Zhu"
"Hui-Fang Wang"
"Wen-Yan Yan"
"Jian-Ping Lang"
_chemical_name_systematic
;
catena-(oxonium 
(\m~4~-5,11,17,23-tetrakis((3-carboxyphenyl)azo)-25,26,27,28-tetrahydroxycalix
(4)arene)-aqua-europium(iii) acetonitrile N,N-dimethylformamide solvate 
monohydrate)
;
_cell_volume   6334.212
_exptl_crystal_colour 'orange'
_exptl_crystal_density_diffrn 1.384
_exptl_crystal_description 'block'
_diffrn_ambient_temperature 223
#These two values have been output from a single CSD field.
_refine_ls_R_factor_gt 0.0793
_refine_ls_wR_factor_gt 0.0793
_symmetry_cell_setting tetragonal
_symmetry_space_group_name_H-M 'I 4/m'
_symmetry_Int_Tables_number 87
loop_
_symmetry_equiv_pos_site_id
_symmetry_equiv_pos_as_xyz
1 x,y,z
2 -x,-y,z
3 -y,x,z
4 y,-x,z
5 1/2+x,1/2+y,1/2+z
6 1/2-x,1/2-y,1/2+z
7 1/2-y,1/2+x,1/2+z
8 1/2+y,1/2-x,1/2+z
9 -x,-y,-z
10 x,y,-z
11 y,-x,-z
12 -y,x,-z
13 -1/2-x,-1/2-y,-1/2-z
14 -1/2+x,-1/2+y,-1/2-z
15 -1/2+y,-1/2-x,-1/2-z
16 -1/2-y,-1/2+x,-1/2-z
_cell_length_a 11.2815(16)
_cell_length_b 11.2815(16)
_cell_length_c 49.769(10)
_cell_angle_alpha 90
_cell_angle_beta 90
_cell_angle_gamma 90
_cell_formula_units_Z 4
loop_
_atom_type_symbol
_atom_type_radius_bond
C 0.68
H 0.23
Eu 1.98
N 0.68
O 0.68
loop_
_atom_site_label
_atom_site_type_symbol
_atom_site_fract_x
_atom_site_fract_y
_atom_site_fract_z
Eu1 Eu 1.00000 0.00000 0.931700(13)
C1 C 0.8873(6) 0.7951(6) 0.77280(13)
C2 C 0.7770(6) 0.8189(6) 0.78422(13)
C3 C 0.7460(6) 0.7592(7) 0.80765(16)
H1 H 0.67220 0.77450 0.81570
C4 C 0.8222(7) 0.6774(7) 0.81944(15)
C5 C 0.9333(6) 0.6552(6) 0.80761(14)
H2 H 0.98550 0.60050 0.81550
C6 C 0.9654(6) 0.7130(6) 0.78463(13)
C7 C 0.8242(8) 0.4975(8) 0.87846(16)
C8 C 0.7543(10) 0.5587(9) 0.89677(19)
H3 H 0.71540 0.62890 0.89170
C9 C 0.7427(11) 0.5139(10) 0.9229(2)
H4 H 0.69970 0.55670 0.93580
C10 C 0.7945(9) 0.4067(8) 0.92972(16)
H5 H 0.78340 0.37500 0.94700
C11 C 0.8639(7) 0.3452(7) 0.91071(16)
C12 C 0.8768(7) 0.3924(7) 0.88585(17)
H6 H 0.92350 0.35190 0.87320
C13 C 0.9189(8) 0.2283(7) 0.91841(16)
C14 C 1.0889(6) 0.6921(6) 0.77279(14)
H7 H 1.11340 0.61040 0.77660
H8 H 1.08540 0.70180 0.75320
N1 N 0.7863(6) 0.6270(6) 0.84461(13)
N2 N 0.8489(6) 0.5404(6) 0.85175(13)
O1 O 0.9233(4) 0.8493(5) 0.74974(9)
H9 H 0.87070 0.89520 0.74450
O2 O 0.8981(6) 0.1862(5) 0.94175(11)
O3 O 0.9844(5) 0.1772(5) 0.90158(10)
O4 O 1.00000 0.00000 0.9787(2)
C15 C 1.00000 0.00000 0.6799(4)
C16 C 1.00000 0.00000 0.6507(4)
N3 N 1.00000 0.00000 0.7027(4)
O5 O 1.00000 1.00000 0.8590(2)
O6 O 1.355(5) 0.579(4) 1.00000
H10 H 1.40320 0.63640 1.00000
H11 H 1.28010 0.57290 1.00000
H12 H 1.41000 0.52740 1.00000
O7 O 0.822(5) 0.251(4) 1.00000
N4 N 1.031(6) 0.306(6) 1.00000
C17 C 0.903(5) 0.322(7) 1.00000
C18 C 1.096(4) 0.330(5) 0.9748(9)
Eu1* Eu 0.00000 1.00000 0.931700(13)
Eu1** Eu 1.00000 2.00000 0.931700(13)
Eu1*** Eu 2.00000 1.00000 0.931700(13)
C1B C 1.2049(6) 0.8873(6) 0.77280(13)
C1C C 0.7951(6) 1.1127(6) 0.77280(13)
C1A C 1.1127(6) 1.2049(6) 0.77280(13)
C2B C 1.1811(6) 0.7770(6) 0.78422(13)
C2C C 0.8189(6) 1.2230(6) 0.78422(13)
C2A C 1.2230(6) 1.1811(6) 0.78422(13)
C3B C 1.2408(6) 0.7460(7) 0.80765(16)
C3C C 0.7592(6) 1.2540(7) 0.80765(16)
C3A C 1.2540(6) 1.2408(7) 0.80765(16)
H1B H 1.22550 0.67220 0.81570
H1C H 0.77450 1.32780 0.81570
H1A H 1.32780 1.22550 0.81570
C4B C 1.3226(7) 0.8222(7) 0.81944(15)
C4C C 0.6774(7) 1.1778(7) 0.81944(15)
C4A C 1.1778(7) 1.3226(7) 0.81944(15)
C5B C 1.3448(6) 0.9333(6) 0.80761(14)
C5C C 0.6552(6) 1.0667(6) 0.80761(14)
C5A C 1.0667(6) 1.3448(6) 0.80761(14)
H2B H 1.39950 0.98550 0.81550
H2C H 0.60050 1.01450 0.81550
H2A H 1.01450 1.39950 0.81550
C6B C 1.2870(6) 0.9654(6) 0.78463(13)
C6C C 0.7130(6) 1.0346(6) 0.78463(13)
C6A C 1.0346(6) 1.2870(6) 0.78463(13)
C7B C 1.5025(8) 0.8242(8) 0.87846(16)
C7C C 0.4975(8) 1.1758(8) 0.87846(16)
C7A C 1.1758(8) 1.5025(8) 0.87846(16)
C8B C 1.4413(10) 0.7543(9) 0.89677(19)
C8C C 0.5587(10) 1.2457(9) 0.89677(19)
C8A C 1.2457(10) 1.4413(9) 0.89677(19)
H3B H 1.37110 0.71540 0.89170
H3C H 0.62890 1.28460 0.89170
H3A H 1.28460 1.37110 0.89170
C9B C 1.4861(11) 0.7427(10) 0.9229(2)
C9C C 0.5139(11) 1.2573(10) 0.9229(2)
C9A C 1.2573(11) 1.4861(10) 0.9229(2)
H4B H 1.44330 0.69970 0.93580
H4C H 0.55670 1.30030 0.93580
H4A H 1.30030 1.44330 0.93580
C10B C 1.5933(9) 0.7945(8) 0.92972(16)
C10C C 0.4067(9) 1.2055(8) 0.92972(16)
C10A C 1.2055(9) 1.5933(8) 0.92972(16)
H5B H 1.62500 0.78340 0.94700
H5C H 0.37500 1.21660 0.94700
H5A H 1.21660 1.62500 0.94700
C11B C 1.6548(7) 0.8639(7) 0.91071(16)
C11C C 0.3452(7) 1.1361(7) 0.91071(16)
C11A C 1.1361(7) 1.6548(7) 0.91071(16)
C12B C 1.6076(7) 0.8768(7) 0.88585(17)
C12C C 0.3924(7) 1.1232(7) 0.88585(17)
C12A C 1.1232(7) 1.6076(7) 0.88585(17)
H6B H 1.64810 0.92350 0.87320
H6C H 0.35190 1.07650 0.87320
H6A H 1.07650 1.64810 0.87320
C13B C 1.7717(8) 0.9189(7) 0.91841(16)
C13C C 0.2283(8) 1.0811(7) 0.91841(16)
C13A C 1.0811(8) 1.7717(7) 0.91841(16)
C14B C 1.3079(6) 1.0889(6) 0.77279(14)
C14C C 0.6921(6) 0.9111(6) 0.77279(14)
C14A C 0.9111(6) 1.3079(6) 0.77279(14)
H7B H 1.38960 1.11340 0.77660
H7C H 0.61040 0.88660 0.77660
H7A H 0.88660 1.38960 0.77660
H8B H 1.29820 1.08540 0.75320
H8C H 0.70180 0.91460 0.75320
H8A H 0.91460 1.29820 0.75320
N1B N 1.3730(6) 0.7863(6) 0.84461(13)
N1C N 0.6270(6) 1.2137(6) 0.84461(13)
N1A N 1.2137(6) 1.3730(6) 0.84461(13)
N2B N 1.4596(6) 0.8489(6) 0.85175(13)
N2C N 0.5404(6) 1.1511(6) 0.85175(13)
N2A N 1.1511(6) 1.4596(6) 0.85175(13)
O1B O 1.1507(4) 0.9233(5) 0.74974(9)
O1C O 0.8493(4) 1.0767(5) 0.74974(9)
O1A O 1.0767(4) 1.1507(5) 0.74974(9)
H9B H 1.10480 0.87070 0.74450
H9C H 0.89520 1.12930 0.74450
H9A H 1.12930 1.10480 0.74450
O2B O 1.8138(6) 0.8981(5) 0.94175(11)
O2C O 0.1862(6) 1.1019(5) 0.94175(11)
O2A O 1.1019(6) 1.8138(5) 0.94175(11)
O2B* O 0.8138(6) -0.1019(5) 0.94175(11)
O2A* O 1.1019(6) -0.1862(5) 0.94175(11)
O2C* O 1.1862(6) 0.1019(5) 0.94175(11)
O3B O 1.8228(5) 0.9844(5) 0.90158(10)
O3C O 0.1772(5) 1.0156(5) 0.90158(10)
O3A O 1.0156(5) 1.8228(5) 0.90158(10)
O3B* O 0.8228(5) -0.0156(5) 0.90158(10)
O3A* O 1.0156(5) -0.1772(5) 0.90158(10)
O3C* O 1.1772(5) 0.0156(5) 0.90158(10)
C18I C 1.096(4) 0.330(5) 1.0252(9)
#END
