
#######################################################################
#
#                 Cambridge Crystallographic Data Centre
#                                CCDC
#
#######################################################################
#
# If this CIF has been generated from an entry in the Cambridge
# Structural Database, then it will include bibliographic, chemical,
# crystal, experimental, refinement or atomic coordinate data resulting
# from the CCDC's data processing and validation procedures.
#
#######################################################################

data_CSD_CIF_EXAMAT
_audit_creation_date 2016-10-04
_audit_creation_method CSD-ConQuest-V1
_database_code_CSD EXAMAT
_database_code_depnum_ccdc_archive 'CCDC 1482251'
_chemical_formula_sum 'C39 H53 Cd1 N7 O12'
_chemical_formula_moiety
;
2(C2 H8 N1 1+),n(C26 H14 Cd1 N2 O8 2-),3(C3 H7 N1 O1),H2 O1
;
_journal_coden_Cambridge 9
_journal_volume 55
_journal_year 2016
_journal_page_first 8871
_journal_name_full 'Inorg.Chem. '
loop_
_publ_author_name
"Bo Liu"
"Hui-Fang Zhou"
"Lei Hou"
"Jian-Ping Wang"
"Yao-Yu Wang"
"Zhonghua Zhu"
_chemical_name_systematic
;
catena-[bis(Dimethylammonium) 
bis(\m-2-(4-carboxylatophenyl)isonicotinato)-cadmium(ii) 
N,N-dimethylformamide solvate monohydrate]
;
_cell_volume   6484.482
_exptl_crystal_colour 'colorless'
_exptl_crystal_description 'block'
_diffrn_ambient_temperature 296
_refine_special_details
;
The SQUEEZE/PLATON program has been used to model some disorder.

;
#These two values have been output from a single CSD field.
_refine_ls_R_factor_gt 0.0725
_refine_ls_wR_factor_gt 0.0725
_symmetry_cell_setting hexagonal
_symmetry_space_group_name_H-M 'P 61 2 2'
_symmetry_Int_Tables_number 178
loop_
_symmetry_equiv_pos_site_id
_symmetry_equiv_pos_as_xyz
1 x,y,z
2 -y,x-y,1/3+z
3 -x+y,-x,2/3+z
4 -x,-y,1/2+z
5 y,-x+y,5/6+z
6 x-y,x,1/6+z
7 y,x,1/3-z
8 x-y,-y,-z
9 -x,-x+y,2/3-z
10 -y,-x,5/6-z
11 -x+y,y,1/2-z
12 x,x-y,1/6-z
_cell_length_a 18.6345(19)
_cell_length_b 18.6345(19)
_cell_length_c 21.563(4)
_cell_angle_alpha 90
_cell_angle_beta 90
_cell_angle_gamma 120
_cell_formula_units_Z 6
loop_
_atom_type_symbol
_atom_type_radius_bond
C 0.68
H 0.23
Cd 1.44
N 0.68
O 0.68
loop_
_atom_site_label
_atom_site_type_symbol
_atom_site_fract_x
_atom_site_fract_y
_atom_site_fract_z
Cd1 Cd 0.77262(2) 0.54524(5) 0.25000
O1 O 0.7629(5) 0.6439(6) 0.3038(2)
C1 C 0.7039(7) 0.6000(9) 0.3420(4)
O2 O 0.6646(6) 0.5269(6) 0.3397(3)
C2 C 0.6873(3) 0.6499(4) 0.3902(2)
C3 C 0.6249(3) 0.6098(3) 0.43399(18)
H1 H 0.59370 0.55230 0.43450
C4 C 0.6091(2) 0.6558(3) 0.47702(16)
N1 N 0.6557(4) 0.7418(3) 0.4763(3)
C5 C 0.7182(4) 0.7819(3) 0.4325(3)
H2 H 0.74940 0.83940 0.43210
C6 C 0.7339(3) 0.7359(4) 0.3895(2)
H3 H 0.77570 0.76270 0.36020
C7 C 0.4191(3) 0.5426(4) 0.6161(2)
C8 C 0.5012(3) 0.5298(3) 0.5374(2)
H4 H 0.51340 0.49520 0.51430
C9 C 0.5436(5) 0.6167(6) 0.5245(3)
C10 C 0.4566(6) 0.6286(6) 0.6014(4)
H5 H 0.43990 0.66190 0.62150
C11 C 0.5193(7) 0.6622(6) 0.5559(4)
H6 H 0.54470 0.71860 0.54750
O3 O 0.3147(4) 0.4323(4) 0.6720(3)
C12 C 0.3536(4) 0.5083(6) 0.6638(3)
C13 C 0.4442(4) 0.4978(5) 0.5821(4)
H7 H 0.42030 0.44150 0.59050
O4 O 0.3367(3) 0.5552(3) 0.6926(2)
N2 N 0.2756(13) 0.5323(12) 0.4789(11)
H8 H 0.28820 0.52580 0.51800
H9 H 0.32300 0.55750 0.45690
C14 C 0.2381(11) 0.5832(10) 0.4791(12)
H10 H 0.17990 0.54950 0.47060
H11 H 0.26350 0.62520 0.44780
H12 H 0.24570 0.60890 0.51900
C15 C 0.221(2) 0.4522(14) 0.4522(16)
H13 H 0.24600 0.41840 0.45390
H14 H 0.20940 0.45890 0.40970
H15 H 0.16950 0.42590 0.47510
O1J O 0.8810(5) 0.6439(6) 0.1962(2)
C1J C 0.8961(7) 0.6000(9) 0.1580(4)
O2J O 0.8623(6) 0.5269(6) 0.1603(3)
C2J C 0.9626(3) 0.6499(4) 0.1098(2)
C3J C 0.9849(3) 0.6098(3) 0.06601(18)
H1J H 0.95860 0.55230 0.06550
C4J C 1.0467(2) 0.6558(3) 0.02298(16)
N1J N 1.0861(4) 0.7418(3) 0.0237(3)
C5J C 1.0637(4) 0.7819(3) 0.0675(3)
H2J H 1.09000 0.83940 0.06790
C6J C 1.0020(3) 0.7359(4) 0.1105(2)
H3J H 0.98700 0.76270 0.13980
C7J C 1.1235(3) 0.5426(4) -0.1161(2)
C8J C 1.0286(3) 0.5298(3) -0.0374(2)
H4J H 0.98180 0.49520 -0.01430
C9J C 1.0731(5) 0.6167(6) -0.0245(3)
C10J C 1.1720(6) 0.6286(6) -0.1014(4)
H5J H 1.22200 0.66190 -0.12150
C11J C 1.1429(7) 0.6622(6) -0.0559(4)
H6J H 1.17390 0.71860 -0.04750
O3J O 1.1176(4) 0.4323(4) -0.1720(3)
C12J C 1.1547(4) 0.5083(6) -0.1638(3)
C13J C 1.0536(4) 0.4978(5) -0.0821(4)
H7J H 1.02120 0.44150 -0.09050
O4J O 1.2185(3) 0.5552(3) -0.1926(2)
Cd1C Cd 0.22738(2) 0.45476(5) 0.75000
Cd1C* Cd 1.22738(2) 0.45476(5) -0.25000
O3C O 0.6853(4) 0.5677(4) 0.1720(3)
O3G O 0.8824(4) 0.5677(4) 0.3280(3)
O4C O 0.6633(3) 0.4448(3) 0.1926(2)
O4G O 0.7815(3) 0.4448(3) 0.3074(2)
#END
