
#######################################################################
#
#                 Cambridge Crystallographic Data Centre
#                                CCDC
#
#######################################################################
#
# If this CIF has been generated from an entry in the Cambridge
# Structural Database, then it will include bibliographic, chemical,
# crystal, experimental, refinement or atomic coordinate data resulting
# from the CCDC's data processing and validation procedures.
#
#######################################################################

data_CSD_CIF_EXAYOS
_audit_creation_date 2011-09-15
_audit_creation_method CSD-ConQuest-V1
_database_code_CSD EXAYOS
_database_code_depnum_ccdc_archive 'CCDC 782603'
_chemical_formula_sum 'C6 H50 B1 Ce2 K1 N1 O63 W11'
_chemical_formula_moiety
;
(C6 H24 B1 Ce2 N1 O50 W11 1-)n,n(K1 1+),13n(H2 O1)
;
_journal_coden_Cambridge 9
_journal_volume 49
_journal_year 2010
_journal_page_first 11403
_journal_name_full 'Inorg.Chem. '
loop_
_publ_author_name
"Haiyan An"
"Zhengbo Han"
"Tieqi Xu"
_chemical_name_systematic
;
catena-(potassium 
(\m~11~-borato)-heptacosakis(\m~2~-oxo)-(\m~2~-hydroxo)-(pyridinium-4-carboxyl
ato)-nona-aqua-heptaoxo-di-cerium-undeca-tungsten tridecahydrate)
;
_cell_volume   6229.332
_exptl_crystal_colour 'yellow'
_exptl_crystal_density_diffrn 3.73
_exptl_crystal_description 'diamondoid'
_diffrn_ambient_temperature 293
_refine_special_details
;
K1A,K1A,OW12,OW12 and K1,K1,OW11,OW11 disordered over two sites with 
occupancies 0.528:0.472; OW14,OW15 and OW13,OW16 disordered over two sites 
with occupancies 0.50:0.50.
;
#These two values have been output from a single CSD field.
_refine_ls_R_factor_gt 0.0531
_refine_ls_wR_factor_gt 0.0531
_symmetry_cell_setting monoclinic
_symmetry_space_group_name_H-M 'P 21/c'
_symmetry_Int_Tables_number 14
loop_
_symmetry_equiv_pos_site_id
_symmetry_equiv_pos_as_xyz
1 x,y,z
2 -x,1/2+y,1/2-z
3 -x,-y,-z
4 x,-1/2-y,-1/2+z
_cell_length_a 18.675(4)
_cell_length_b 17.471(4)
_cell_length_c 22.460(3)
_cell_angle_alpha 90
_cell_angle_beta 121.781(12)
_cell_angle_gamma 90
_cell_formula_units_Z 4
loop_
_atom_type_symbol
_atom_type_radius_bond
C 0.68
H 0.23
B 0.83
Ce 2.04
K 0.74
N 0.68
O 0.68
W 1.42
loop_
_atom_site_label
_atom_site_type_symbol
_atom_site_fract_x
_atom_site_fract_y
_atom_site_fract_z
W1 W 0.39741(4) -0.47828(4) -0.12285(4)
W2 W 0.17327(5) -0.59183(4) -0.41837(4)
W3 W 0.05192(4) -0.57775(4) -0.35191(4)
W4 W 0.39846(5) -0.63984(5) -0.30353(4)
W5 W 0.14757(5) -0.59636(5) -0.15799(4)
W6 W 0.32252(5) -0.44784(4) -0.29545(4)
W7 W 0.47370(5) -0.66185(4) -0.12989(4)
W8 W 0.12441(5) -0.74867(4) -0.36156(4)
W9 W 0.19551(5) -0.43122(4) -0.23424(4)
W10 W 0.21614(5) -0.77001(4) -0.16865(4)
W11 W 0.34663(5) -0.79303(4) -0.24665(4)
Ce1 Ce 0.61685(6) -0.35500(6) -0.00613(5)
Ce2 Ce 0.16754(7) -0.52973(6) -0.59970(5)
B1 B 0.2649(11) -0.6116(10) -0.2459(9)
O1 O 0.2880(7) -0.5272(6) -0.2299(6)
O2 O 0.1877(7) -0.6254(6) -0.3161(5)
O3 O 0.3394(7) -0.6565(6) -0.2369(6)
O4 O 0.2473(7) -0.6422(7) -0.1893(6)
O5 O 0.3648(9) -0.8870(8) -0.2544(7)
O6 O 0.5789(9) -0.6711(8) -0.0690(8)
O7 O 0.0655(8) -0.8266(7) -0.4082(6)
O8 O 0.3450(9) -0.3820(8) -0.3400(7)
O9 O 0.4230(8) -0.6743(7) -0.0832(7)
O10 O 0.1398(8) -0.7633(7) -0.2741(6)
O11 O 0.4776(8) -0.4186(7) -0.0597(6)
O12 O 0.4005(7) -0.4236(7) -0.2044(6)
O13 O 0.0716(8) -0.5578(7) -0.4282(6)
O14 O 0.1807(8) -0.6412(7) -0.6613(6)
O15 O 0.1744(7) -0.4995(7) -0.1793(6)
O16 O 0.0746(7) -0.6027(7) -0.2653(6)
O17 O 0.3828(8) -0.7494(7) -0.3046(6)
O18 O 0.4505(8) -0.7639(7) -0.1657(6)
O19 O 0.2367(7) -0.6029(7) -0.0715(6)
O20 O 0.0318(7) -0.6797(7) -0.3828(6)
O21 O 0.1285(8) -0.6951(7) -0.4342(6)
O22 O 0.4462(8) -0.6427(8) -0.3518(7)
O23 O 0.2958(8) -0.7982(7) -0.1928(6)
O24 O 0.3875(7) -0.5321(7) -0.2960(6)
O25 O 0.1410(8) -0.3524(8) -0.2342(7)
O26 O 0.2825(7) -0.6350(6) -0.3808(6)
O27 O 0.0515(8) -0.4552(7) -0.6081(6)
O28 O 0.4611(7) -0.5531(7) -0.1343(6)
O29 O 0.2391(8) -0.3912(6) -0.2884(6)
O30 O 0.2275(7) -0.5002(7) -0.3758(6)
O31 O 0.0674(7) -0.5719(8) -0.1453(7)
O32 O 0.1121(7) -0.4829(7) -0.3134(6)
O33 O 0.2946(7) -0.7484(7) -0.0809(6)
O34 O 0.1329(8) -0.7065(7) -0.1691(6)
O35 O 0.2331(8) -0.7844(7) -0.3266(6)
O36 O 0.3033(7) -0.4087(7) -0.1525(6)
O37 O 0.1488(8) -0.5733(7) -0.5041(6)
O38 O 0.3702(7) -0.5370(7) -0.0737(6)
O39 O 0.4904(7) -0.6451(7) -0.2144(6)
O40 O 0.2928(11) -0.5102(11) -0.6018(11)
O41 O 0.3187(16) -0.4193(16) -0.6506(14)
C1 C 0.337(2) -0.480(2) -0.6165(18)
C2 C 0.4174(15) -0.5220(14) -0.5994(12)
C3 C 0.4735(15) -0.4920(15) -0.6167(14)
H1 H 0.46200 -0.44600 -0.64100
C4 C 0.5459(17) -0.5320(15) -0.5971(14)
H2 H 0.58250 -0.51380 -0.61020
C5 C 0.5146(16) -0.6253(15) -0.5452(13)
H3 H 0.52950 -0.67170 -0.52120
C6 C 0.4390(15) -0.5907(13) -0.5633(11)
H4 H 0.40320 -0.61330 -0.55140
N1 N 0.5642(14) -0.5937(15) -0.5613(13)
H5 H 0.61200 -0.61500 -0.54740
O42 O 0.6457(12) -0.4729(10) -0.0529(8)
O43 O 0.547(1) -0.3466(8) -0.1400(7)
O44 O 0.5282(9) -0.2307(8) -0.0532(7)
O45 O 0.7088(8) -0.2916(8) -0.0464(7)
O46 O 0.1751(11) -0.3921(10) -0.6391(10)
O47 O 0.2437(10) -0.4418(9) -0.4944(8)
O48 O 0.0654(12) -0.5171(10) -0.7330(8)
O49 O 0.2853(9) -0.6206(8) -0.5100(6)
O50 O 0.0435(9) -0.6275(9) -0.6384(8)
K1 K -0.0634(5) -0.9000(5) -0.5130(4)
O51 O 0.1174(11) -0.7271(9) -0.0429(8)
O52 O 0.023(3) -0.987(3) -0.417(3)
O53 O -0.160(2) -0.894(2) -0.620(2)
O54 O -0.112(5) -0.758(4) -0.550(4)
O55 O 0.268(4) -0.212(4) -0.256(3)
O56 O 0.153(3) -0.207(3) -0.021(3)
O57 O 0.3553(15) -0.2506(12) -0.1082(13)
O58 O -0.181(3) -0.466(2) -0.207(2)
O59 O 0.3066(18) -0.2041(16) -0.0052(16)
O60 O 0.363(2) -0.2242(18) -0.3118(18)
O61 O 0.0021(17) -0.3518(16) -0.2044(16)
O62 O 0.0532(16) -0.2116(14) -0.2302(14)
O63 O 0.0528(12) -0.381(1) -0.4359(9)
O64 O 0.2746(14) -0.4054(11) -0.0346(10)
O65 O 0.4077(15) -0.0141(12) -0.3114(11)
K2? K -0.0148(5) -1.1120(5) -0.4524(4)
O66? O -0.0721(13) -1.0251(11) -0.5594(10)
O67? O -0.173(4) -1.048(3) -0.527(3)
O68? O -0.122(3) -0.880(3) -0.433(3)
W3B W -0.05192(4) -0.42225(4) -0.64809(4)
W10C W 0.21614(5) -0.72999(4) -0.66865(4)
Ce1B Ce 0.38315(6) -0.64500(6) 0.00613(5)
O9B O 0.5770(8) -0.3257(7) 0.0832(7)
O14C O 0.1807(8) -0.8588(7) -0.1613(6)
O19B O 0.7633(7) -0.3971(7) 0.0715(6)
O27B O -0.0515(8) -0.5448(7) -0.3919(6)
O33B O 0.7054(7) -0.2516(7) 0.0809(6)
O38B O 0.6298(7) -0.4630(7) 0.0737(6)
#END
