
#######################################################################
#
#                 Cambridge Crystallographic Data Centre
#                                CCDC
#
#######################################################################
#
# If this CIF has been generated from an entry in the Cambridge
# Structural Database, then it will include bibliographic, chemical,
# crystal, experimental, refinement or atomic coordinate data resulting
# from the CCDC's data processing and validation procedures.
#
#######################################################################

data_CSD_CIF_EXAZAF
_audit_creation_date 2011-09-15
_audit_creation_method CSD-ConQuest-V1
_database_code_CSD EXAZAF
_database_code_depnum_ccdc_archive 'CCDC 782606'
_chemical_formula_sum 'C6 H51 B1 K1 N1 Nd2 O63.5 W11'
_chemical_formula_moiety
;
(C6 H24 B1 N1 Nd2 O50 W11 1-)n,n(K1 1+),13.5n(H2 O1)
;
_journal_coden_Cambridge 9
_journal_volume 49
_journal_year 2010
_journal_page_first 11403
_journal_name_full 'Inorg.Chem. '
loop_
_publ_author_name
"Haiyan An"
"Zhengbo Han"
"Tieqi Xu"
_chemical_name_systematic
;
catena-(potassium 
(\m~11~-borato)-heptacosakis(\m~2~-oxo)-(\m~2~-hydroxo)-(pyridinium-4-carboxyl
ato)-nona-aqua-heptaoxo-di-neodymium-undeca-tungsten hydrate)
;
_cell_volume   6146.540
_exptl_crystal_colour 'yellow'
_exptl_crystal_density_diffrn 3.799
_exptl_crystal_description 'diamondoid'
_diffrn_ambient_temperature 293
_refine_special_details
;
OW10,OW11,OW12,OW13 disordered by symmetry over two sites with occupancy 
;
#These two values have been output from a single CSD field.
_refine_ls_R_factor_gt 0.0492
_refine_ls_wR_factor_gt 0.0492
_symmetry_cell_setting monoclinic
_symmetry_space_group_name_H-M 'P 21/c'
_symmetry_Int_Tables_number 14
loop_
_symmetry_equiv_pos_site_id
_symmetry_equiv_pos_as_xyz
1 x,y,z
2 -x,1/2+y,1/2-z
3 -x,-y,-z
4 x,-1/2-y,-1/2+z
_cell_length_a 18.6153(4)
_cell_length_b 17.3568(4)
_cell_length_c 22.3946(4)
_cell_angle_alpha 90
_cell_angle_beta 121.846(1)
_cell_angle_gamma 90
_cell_formula_units_Z 4
loop_
_atom_type_symbol
_atom_type_radius_bond
C 0.68
H 0.23
B 0.83
K 0.43
N 0.68
Nd 2.01
O 0.68
W 1.41
loop_
_atom_site_label
_atom_site_type_symbol
_atom_site_fract_x
_atom_site_fract_y
_atom_site_fract_z
W1 W -0.89795(3) -1.02264(3) -1.37775(3)
W2 W -0.55106(3) -0.92323(3) -1.14796(3)
W3 W -0.97349(4) -0.83772(3) -1.37097(3)
W4 W -0.67260(4) -0.90805(3) -1.08155(3)
W5 W -0.82314(4) -1.05258(3) -1.20456(3)
W6 W -0.89840(4) -0.85896(4) -1.19686(3)
W7 W -0.62308(4) -0.75098(3) -1.13882(3)
W8 W -0.69564(4) -1.07060(3) -1.26546(3)
W9 W -0.71536(4) -0.73063(3) -1.33211(3)
W10 W -0.84582(4) -0.70570(3) -1.25397(3)
W11 W -0.64738(4) -0.90531(4) -1.34238(3)
Nd1 Nd -1.11765(5) -1.14421(4) -1.49430(4)
Nd2 Nd -0.33264(5) -1.03117(5) -1.09884(4)
B1 B -0.7666(10) -0.8883(9) -1.2548(7)
O1 O -0.7488(6) -0.8583(5) -1.3113(4)
O2 O -0.8386(6) -0.8429(5) -1.2633(4)
O3 O -0.6866(6) -0.8744(6) -1.1846(4)
O4 O -0.7875(6) -0.9716(5) -1.2699(4)
O5 O -0.5679(7) -0.9301(7) -1.3560(6)
O6 O -0.6746(6) -1.0031(6) -1.3217(5)
O7 O -0.4478(6) -0.9570(6) -1.1072(5)
O8 O -0.6275(6) -0.8045(5) -1.0657(5)
O9 O -0.3514(6) -1.0728(6) -1.0025(5)
O10 O -0.8452(7) -1.1176(6) -1.1590(6)
O11 O -0.9457(7) -0.8576(6) -1.1486(5)
O12 O -0.9228(7) -0.8261(6) -1.4179(5)
O13 O -0.8641(7) -0.6115(6) -1.2473(6)
O14 O -0.5627(7) -0.6711(7) -1.0928(6)
O15 O -0.6114(6) -1.0183(5) -1.1854(5)
O16 O -0.7275(6) -1.0013(6) -1.1240(5)
O17 O -0.9501(6) -0.7337(5) -1.3335(5)
O18 O -0.7938(6) -0.7526(6) -1.4200(5)
O19 O -0.6425(7) -1.1516(6) -1.2650(6)
O20 O -0.7804(6) -0.8630(5) -1.1181(5)
O21 O -0.7387(6) -1.1098(6) -1.2103(5)
O22 O -0.8866(6) -0.9670(6) -1.2040(5)
O23 O -0.9778(6) -1.0827(6) -1.4404(5)
O24 O -0.9916(6) -0.8546(6) -1.2871(5)
O25 O -0.5740(6) -0.8996(6) -1.2354(5)
O26 O -0.7950(6) -0.7008(5) -1.3076(5)
O27 O -0.8032(6) -1.0919(5) -1.3476(5)
O28 O -0.9021(6) -1.0772(6) -1.2960(5)
O29 O -0.7327(6) -0.7162(6) -1.1728(5)
O30 O -0.7373(6) -0.8978(6) -1.4283(5)
O31 O -0.5712(6) -0.9430(6) -1.0719(5)
O32 O -0.5296(6) -0.8194(6) -1.1169(5)
O33 O -0.6319(6) -0.7949(6) -1.3321(5)
O34 O -0.8716(6) -0.9642(5) -1.4271(5)
O35 O -0.9629(6) -0.9480(5) -1.3670(5)
O36 O -0.6398(6) -0.7371(6) -1.2265(5)
O37 O -0.8843(7) -0.7476(6) -1.1962(5)
O38 O -1.0789(7) -0.8273(7) -1.4329(6)
O39 O -0.3207(7) -1.1421(7) -1.1582(5)
O40 O -0.2055(10) -1.0129(10) -1.0988(9)
O41 O -0.1786(16) -0.9206(16) -1.1456(14)
C1 C -0.1690(17) -0.9852(14) -1.1217(14)
C2 C -0.0822(12) -1.0237(12) -1.0992(10)
C3 C -0.0270(13) -0.9892(13) -1.1154(12)
H1 H -0.03870 -0.94120 -1.13690
C4 C 0.0420(16) -1.0271(13) -1.0994(14)
H2 H 0.07700 -1.00660 -1.11340
C5 C 0.0132(15) -1.1237(14) -1.0451(12)
H3 H 0.03100 -1.16850 -1.01820
C6 C -0.0606(12) -1.0938(13) -1.0625(10)
H4 H -0.09640 -1.11790 -1.05100
N1 N 0.0639(11) -1.0918(11) -1.0647(10)
H5 H 0.11020 -1.11440 -1.05450
O42 O -1.1446(10) -1.0262(8) -1.4477(7)
O43 O -1.0486(8) -1.1531(8) -1.3623(5)
O44 O -1.0321(7) -1.2670(7) -1.4492(6)
O45 O -1.2085(8) -1.2074(7) -1.4558(5)
O46 O -0.2558(8) -0.9441(7) -0.9936(6)
O47 O -0.4562(7) -1.1280(7) -1.1386(6)
O48 O -0.2163(8) -1.1211(7) -1.0098(5)
O49 O -0.4327(11) -1.0163(9) -1.2302(7)
O50 O -0.3243(9) -0.8959(8) -1.1370(8)
K1 K -0.4400(3) -0.5971(3) -0.9885(3)
O51 O -0.5721(12) -0.5254(11) -1.0576(9)
O52 O -0.6631(16) -0.3894(15) -1.1259(13)
O53 O -0.379(3) -0.619(3) -1.069(3)
O54 O -0.5165(5) -0.6111(5) -0.9524(4)
O55 O 0.4920(15) -0.1483(14) -0.2983(13)
O56 O 0.1408(12) -0.2471(11) -0.3915(12)
O57 O 0.0940(13) -0.4858(11) -0.1886(10)
O58 O 0.2267(11) -0.0933(10) -0.4658(9)
O59 O 0.4462(11) -0.122(1) -0.0654(9)
O60 O 0.143(2) -0.277(2) -0.178(2)
O61 O -0.3828(10) -0.2262(9) -0.5427(8)
O62 O 0.347(3) -0.204(3) 0.019(3)
O63 O 0.315(3) -0.533(3) -0.210(2)
O64 O 0.248(4) -0.275(3) -0.227(3)
O65 O 0.4444(18) -0.2919(16) -0.2681(16)
O66 O 0.1948(16) -0.2961(14) -0.4926(14)
O67? O -0.535(3) -0.510(3) -1.082(2)
O68? O -0.6280(12) -0.4348(11) -1.0828(10)
W4B W -0.32740(4) -1.09195(3) -0.91845(3)
W9A W -0.28464(4) -1.23063(3) -1.16789(3)
Nd1B Nd -0.88235(5) -0.85579(4) -1.50570(4)
O9B O -0.6486(6) -0.9272(6) -0.9975(5)
O12B O -1.0772(7) -1.1739(6) -1.5821(5)
O18B O -1.2062(6) -1.2474(6) -1.5800(5)
O30B O -1.2627(6) -1.1022(6) -1.5717(5)
O34B O -1.1284(6) -1.0358(5) -1.5729(5)
O39A O -0.6793(7) -0.6421(7) -1.3418(5)
#END
