
#######################################################################
#
#                 Cambridge Crystallographic Data Centre
#                                CCDC
#
#######################################################################
#
# If this CIF has been generated from an entry in the Cambridge
# Structural Database, then it will include bibliographic, chemical,
# crystal, experimental, refinement or atomic coordinate data resulting
# from the CCDC's data processing and validation procedures.
#
#######################################################################

data_CSD_CIF_EXECUG
_audit_creation_date 2011-09-15
_audit_creation_method CSD-ConQuest-V1
_database_code_CSD EXECUG
_database_code_depnum_ccdc_archive 'CCDC 840939'
_chemical_formula_sum 'C4 H9 O16 P2 Rb1 U2'
_chemical_formula_moiety
;
(C4 H7 O15 P2 U2 1-)n,n(Rb1 1+),n(H2 O1)
;
_journal_coden_Cambridge 9
_journal_volume 48
_journal_year 2009
_journal_page_first 11079
_journal_name_full 'Inorg.Chem. '
loop_
_publ_author_name
"A.N.Alsobrook"
"T.E.Albrecht-Schmitt"
_chemical_name_systematic
;
catena-(rubidium 
(\m~4~-phosphonatoacetato)-(\m~3~-(carboxymethyl)phosphonato)-tetraoxo-aqua-di
-uranium monohydrate)
;
_chemical_name_common
;
RbUPAA
;
_cell_volume    812.619
_exptl_crystal_colour 'yellow'
_exptl_crystal_density_diffrn 3.811
_exptl_crystal_description 'platelet'
_diffrn_ambient_temperature 193
#These two values have been output from a single CSD field.
_refine_ls_R_factor_gt 0.0454
_refine_ls_wR_factor_gt 0.0454
_symmetry_cell_setting triclinic
_symmetry_space_group_name_H-M 'P -1'
_symmetry_Int_Tables_number 2
loop_
_symmetry_equiv_pos_site_id
_symmetry_equiv_pos_as_xyz
1 x,y,z
2 -x,-y,-z
_cell_length_a 8.0934(18)
_cell_length_b 8.3792(19)
_cell_length_c 12.321(3)
_cell_angle_alpha 79.791(4)
_cell_angle_beta 81.808(4)
_cell_angle_gamma 85.365(4)
_cell_formula_units_Z 2
loop_
_atom_type_symbol
_atom_type_radius_bond
C 0.68
H 0.23
O 0.68
P 1.05
Rb 1.70
U 1.49
loop_
_atom_site_label
_atom_site_type_symbol
_atom_site_fract_x
_atom_site_fract_y
_atom_site_fract_z
U1 U -0.63902(6) -0.28710(6) 0.14224(4)
U2 U -0.21637(6) -0.27134(5) -0.40206(4)
Rb1 Rb -0.15822(18) -0.35222(18) 0.24434(12)
P1 P 0.1081(4) -0.1352(4) -0.6276(3)
P2 P -0.5154(4) -0.3061(4) -0.1538(3)
O1 O -0.5311(12) -0.2417(11) -0.0446(7)
O2 O -0.5499(11) -0.4873(11) -0.1364(8)
O3 O -0.0386(11) -0.3900(11) -0.3528(7)
O4 O -0.7991(11) -0.3942(11) 0.1068(7)
O5 O -0.3453(12) -0.2732(13) -0.2240(8)
O6 O 0.1495(11) -0.1768(11) -0.7457(7)
O7 O -0.1786(12) -0.3242(12) 0.0031(9)
O8 O 0.1084(13) 0.0431(12) -0.6264(8)
O9 O 0.2700(12) -0.5222(11) -0.4856(8)
O10 O 0.3490(12) -0.4499(11) -0.6645(7)
O11 O -0.0561(12) -0.2050(12) -0.5738(8)
O12 O -0.4816(11) -0.1802(10) 0.1808(8)
O13 O -0.3940(12) -0.1584(11) -0.4534(8)
O14 O -0.7625(13) -0.0250(12) 0.0500(8)
C1 C 0.2780(17) -0.2384(16) -0.5537(12)
H1 H 0.38280 -0.18310 -0.58260
H2 H 0.25170 -0.23200 -0.47360
C2 C -0.6725(18) -0.1944(18) -0.2335(13)
H3 H -0.63830 -0.08210 -0.26150
H4 H -0.68020 -0.24660 -0.29860
C3 C 0.3019(19) -0.4088(18) -0.5676(12)
C4 C -0.8440(19) -0.189(2) -0.1632(12)
O15 O -0.9044(13) -0.0640(13) -0.1333(9)
O16 O -0.9147(14) -0.3286(14) -0.1435(9)
H5 H -0.99960 -0.32460 -0.09590
U1A U -0.36098(6) -0.71290(6) -0.14224(4)
U1* U 0.36098(6) -0.28710(6) -0.85776(4)
U2A U 0.21637(6) 0.27134(5) -0.59794(4)
U2A* U 0.21637(6) -0.72866(5) -0.59794(4)
O2A O -0.4501(11) -0.5127(11) 0.1364(8)
O6* O -0.8505(11) -0.1768(11) 0.2543(7)
O8A O -0.1084(13) -0.0431(12) -0.3736(8)
O9A O -0.2700(12) -0.4778(11) -0.5144(8)
O10* O -0.6510(12) -0.4499(11) 0.3355(7)
#END
