
#######################################################################
#
#                 Cambridge Crystallographic Data Centre
#                                CCDC
#
#######################################################################
#
# If this CIF has been generated from an entry in the Cambridge
# Structural Database, then it will include bibliographic, chemical,
# crystal, experimental, refinement or atomic coordinate data resulting
# from the CCDC's data processing and validation procedures.
#
#######################################################################

data_CSD_CIF_EXECOA
_audit_creation_date 2011-09-15
_audit_creation_method CSD-ConQuest-V1
_database_code_CSD EXECOA
_database_code_depnum_ccdc_archive 'CCDC 840938'
_chemical_formula_sum 'C4 H9 K1 O16 P2 U2'
_chemical_formula_moiety
;
(C4 H7 O15 P2 U2 1-)n,n(K1 1+),n(H2 O1)
;
_journal_coden_Cambridge 9
_journal_volume 48
_journal_year 2009
_journal_page_first 11079
_journal_name_full 'Inorg.Chem. '
loop_
_publ_author_name
"A.N.Alsobrook"
"T.E.Albrecht-Schmitt"
_chemical_name_systematic
;
catena-(potassium 
(\m~4~-phosphonatoacetato)-(\m~3~-(carboxymethyl)phosphonato)-tetraoxo-aqua-di
-uranium monohydrate)
;
_chemical_name_common
;
KUPAA
;
_cell_volume    793.969
_exptl_crystal_colour 'yellow'
_exptl_crystal_density_diffrn 3.707
_exptl_crystal_description 'tablet'
_diffrn_ambient_temperature 193
#These two values have been output from a single CSD field.
_refine_ls_R_factor_gt 0.0339
_refine_ls_wR_factor_gt 0.0339
_symmetry_cell_setting triclinic
_symmetry_space_group_name_H-M 'P -1'
_symmetry_Int_Tables_number 2
loop_
_symmetry_equiv_pos_site_id
_symmetry_equiv_pos_as_xyz
1 x,y,z
2 -x,-y,-z
_cell_length_a 7.9819(5)
_cell_length_b 8.3498(5)
_cell_length_c 12.1983(7)
_cell_angle_alpha 80.143(1)
_cell_angle_beta 83.068(1)
_cell_angle_gamma 85.789(1)
_cell_formula_units_Z 2
loop_
_atom_type_symbol
_atom_type_radius_bond
C 0.68
H 0.23
K 1.53
O 0.68
P 1.05
U 1.48
loop_
_atom_site_label
_atom_site_type_symbol
_atom_site_fract_x
_atom_site_fract_y
_atom_site_fract_z
U1 U 1.21666(4) 0.77267(4) 0.90252(3)
U2 U 1.63693(4) 0.78718(4) 0.35636(3)
K1 K 1.8489(3) 0.1410(3) 0.7462(2)
P1 P 1.5151(3) 0.8054(3) 0.6540(2)
P2 P 1.1046(3) 0.3644(3) 0.8715(2)
O1 O 1.5272(9) 0.7435(9) 0.5427(6)
O2 O 1.3452(9) 0.7726(8) 0.7238(6)
O3 O 1.5505(9) 0.9870(8) 0.6400(6)
O4 O 1.907(1) 0.5664(10) 0.6340(7)
O5 O 1.9149(9) 0.8326(9) 0.6420(6)
H1 H 1.99770 0.82890 0.59280
O6 O 1.1018(9) 0.5453(9) 0.8715(6)
O7 O 1.1461(9) 0.3222(9) 0.7538(6)
O8 O 0.9388(9) 0.2909(8) 0.9257(6)
O9 O 1.2713(9) -0.0204(9) 1.0180(6)
O10 O 1.3494(9) 0.0533(8) 0.8381(6)
O11 O 1.3965(10) 0.6606(9) 0.9525(7)
O12 O 1.0363(9) 0.8897(9) 0.8550(6)
O13 O 1.4741(9) 0.6831(8) 0.3155(6)
O14 O 1.7603(10) 0.5214(9) 0.4487(7)
O15 O 1.8265(9) 0.1746(8) 0.5115(7)
C1 C 1.6758(13) 0.6953(12) 0.7341(8)
H2 H 1.68320 0.74610 0.80090
H3 H 1.64400 0.58160 0.76020
O16 O 1.8000(9) 0.8925(9) 0.3952(6)
C2 C 1.8482(14) 0.6958(13) 0.6640(9)
C3 C 1.2789(13) 0.2649(13) 0.9482(8)
H4 H 1.38420 0.32090 0.91910
H5 H 1.25350 0.27390 1.02840
C4 C 1.3039(13) 0.0920(12) 0.9362(9)
U1A U 0.78334(4) 0.22733(4) 1.09748(3)
U1* U 1.21666(4) -0.22733(4) 0.90252(3)
U2A U 1.36307(4) 1.21282(4) 0.64364(3)
U2A* U 1.36307(4) 0.21282(4) 0.64364(3)
O3A O 1.4495(9) 1.0130(8) 0.3600(6)
O7A O 1.8539(9) 0.6778(9) 0.2462(6)
O8A O 1.0612(9) 0.7091(8) 1.0743(6)
O9* O 1.2713(9) 0.9796(9) 1.0180(6)
O10A O 1.6506(9) 0.9467(8) 0.1619(6)
#END
