
#######################################################################
#
#                 Cambridge Crystallographic Data Centre
#                                CCDC
#
#######################################################################
#
# If this CIF has been generated from an entry in the Cambridge
# Structural Database, then it will include bibliographic, chemical,
# crystal, experimental, refinement or atomic coordinate data resulting
# from the CCDC's data processing and validation procedures.
#
#######################################################################

data_CSD_CIF_EXEHAR
_audit_creation_date 2011-10-03
_audit_creation_method CSD-ConQuest-V1
_database_code_CSD EXEHAR
_database_code_depnum_ccdc_archive 'CCDC 810695'
_chemical_formula_sum 'C29 H25 Cd3 N1 Na2 O22'
_chemical_formula_moiety
;
(C27 H15 Cd3 Na2 O21 1-)n,n(H2 O1),n(C2 H8 N1 1+)
;
_journal_coden_Cambridge 1147
_journal_volume 11
_journal_year 2011
_journal_page_first 3529
_journal_name_full 'Cryst.Growth Des. '
loop_
_publ_author_name
"Ying Fu"
"Jie Su"
"Zhibo Zou"
"Sihai Yang"
"Guobao Li"
"Fuhui Liao"
"Jianhua Lin"
_chemical_name_systematic
;
catena-((\m~7~-benzene-1,3,5-tricarboxylato)-bis(\m~6~-benzene-1,3,5-tricarbox
ylato)-(\m~2~-aqua)-diaqua-tri-cadmium-di-sodium dimethylammonium 
;
_cell_volume   3286.971
_exptl_crystal_colour 'colorless'
_exptl_crystal_density_diffrn 2.269
_exptl_crystal_description 'block'
_diffrn_ambient_temperature 293
#These two values have been output from a single CSD field.
_refine_ls_R_factor_gt 0.0425
_refine_ls_wR_factor_gt 0.0425
_symmetry_cell_setting monoclinic
_symmetry_space_group_name_H-M 'C c'
_symmetry_Int_Tables_number 9
loop_
_symmetry_equiv_pos_site_id
_symmetry_equiv_pos_as_xyz
1 x,y,z
2 x,-y,1/2+z
3 1/2+x,1/2+y,z
4 1/2+x,1/2-y,1/2+z
_cell_length_a 14.644(3)
_cell_length_b 13.655(3)
_cell_length_c 17.683(4)
_cell_angle_alpha 90
_cell_angle_beta 111.63(3)
_cell_angle_gamma 90
_cell_formula_units_Z 4
loop_
_atom_type_symbol
_atom_type_radius_bond
C 0.68
H 0.23
Cd 1.38
N 0.68
Na 1.53
O 0.85
loop_
_atom_site_label
_atom_site_type_symbol
_atom_site_fract_x
_atom_site_fract_y
_atom_site_fract_z
Cd1 Cd -0.00577(5) 0.12543(5) 0.44565(4)
Cd2 Cd -0.21683(5) 0.47475(5) 0.07541(4)
Cd3 Cd 0.27874(5) 0.74102(5) 0.57629(4)
Na1 Na 0.0386(3) 0.1676(3) 0.6437(3)
Na2 Na 0.6555(4) 0.4498(4) 0.8488(3)
O1 O -0.3257(6) 0.6145(6) 0.0679(5)
O2 O -0.3723(6) 0.5140(6) -0.0365(5)
O3 O 0.1097(7) 0.2469(7) 0.4496(6)
O4 O 0.1475(7) 0.1657(7) 0.5649(5)
O5 O -0.5849(7) 0.8616(6) 0.0779(5)
O6 O 0.4903(6) 0.4184(6) 0.8145(5)
O7 O 0.3762(6) 0.3163(7) 0.8216(5)
O8 O -0.5893(6) 0.6788(7) -0.3047(5)
O9 O -0.0660(7) 0.5276(7) 0.2041(5)
O10 O 0.1665(7) 0.6058(7) 0.5844(5)
O11 O 0.4801(6) 0.5406(6) 0.5528(5)
O12 O -0.1928(6) 0.4447(6) 0.2087(4)
O13 O 0.3562(7) 0.5126(7) 0.4390(5)
O14 O -0.7042(6) 0.8976(6) -0.0378(5)
O15 O -0.0854(7) 0.2454(5) 0.5059(5)
O16 O 0.1815(6) 0.6527(6) 0.4707(5)
O17 O -0.1525(7) 0.3729(6) 0.5397(6)
O18 O -0.7069(7) 0.7705(8) -0.2944(5)
C1 C 0.0633(7) 0.5292(7) 0.4616(6)
C2 C -0.6261(7) 0.8510(7) 0.0025(6)
C3 C 0.3640(8) 0.3694(7) 0.6891(6)
C4 C 0.2751(8) 0.3741(7) 0.5203(6)
H1 H 0.24320 0.37780 0.46420
C5 C 0.4134(7) 0.3678(6) 0.7805(6)
C6 C -0.6300(8) 0.7223(7) -0.2630(6)
C7 C 0.3997(7) 0.4332(7) 0.6443(6)
H2 H 0.45280 0.47380 0.67120
C8 C -0.0585(7) 0.4749(7) 0.3340(6)
C9 C -0.0516(6) 0.4036(6) 0.4614(6)
C10 C -0.1078(8) 0.4833(6) 0.2427(6)
C11 C -0.5067(7) 0.7205(7) -0.0022(6)
H3 H -0.47950 0.72110 0.05430
C12 C -0.5876(7) 0.7186(6) -0.1714(6)
C13 C -0.3841(7) 0.5919(7) -0.0023(6)
C14 C -0.5084(7) 0.6549(7) -0.1301(6)
H4 H -0.48400 0.61260 -0.15930
C15 C -0.5839(8) 0.7815(7) -0.0423(6)
C16 C 0.2875(8) 0.3055(7) 0.6496(6)
H5 H 0.26610 0.26130 0.67950
C17 C 0.3565(7) 0.4361(7) 0.5603(6)
C18 C -0.4679(7) 0.6561(6) -0.0463(6)
C19 C 0.2427(7) 0.3079(7) 0.5647(6)
C20 C 0.3972(9) 0.5007(7) 0.5129(7)
C21 C -0.6236(8) 0.7796(7) -0.1273(6)
H6 H -0.67580 0.82090 -0.15480
C22 C 0.0250(8) 0.4626(7) 0.5037(6)
H7 H 0.05220 0.45930 0.56020
C23 C 0.1624(7) 0.2363(8) 0.5235(6)
C24 C -0.0987(7) 0.3341(7) 0.5047(6)
C25 C -0.0939(6) 0.4083(6) 0.3768(6)
H8 H -0.14590 0.36700 0.34870
C26 C 0.0212(7) 0.5345(7) 0.3772(6)
H9 H 0.04620 0.57820 0.34940
C27 C 0.1412(8) 0.5994(7) 0.5090(6)
O19 O 0.1558(7) 0.0996(7) 0.7683(6)
H10 H 0.21060 0.08340 0.77060
H11 H 0.15900 0.15460 0.78780
O20 O 0.0638(8) 0.3320(7) 0.6803(6)
H12 H 0.11100 0.32380 0.72290
H13 H 0.03700 0.38490 0.67950
O21 O 0.6493(11) 0.3929(8) 0.7250(7)
H14 H 0.62060 0.41310 0.67860
H15 H 0.67300 0.33840 0.72550
O22 O -0.2998(6) 0.2129(7) 0.3305(6)
H16 H -0.34200 0.21400 0.35070
H17 H -0.24620 0.21140 0.36800
N1 N 0.1118(8) 0.5890(11) 0.7168(7)
H18 H 0.06070 0.54720 0.70120
H19 H 0.12100 0.60880 0.67160
C28 C 0.1958(11) 0.5375(13) 0.7655(11)
H20 H 0.25100 0.58130 0.78390
H21 H 0.20890 0.48560 0.73430
H22 H 0.18510 0.51040 0.81160
C29 C 0.0828(19) 0.6805(14) 0.7562(13)
H23 H 0.14020 0.71950 0.78330
H24 H 0.05520 0.65930 0.79500
H25 H 0.03530 0.71880 0.71470
Cd1C Cd 0.49423(5) 0.37457(5) 0.94565(4)
Cd1B Cd 0.49423(5) 0.62543(5) 0.44565(4)
Cd2B Cd -0.71683(5) 0.97475(5) 0.07541(4)
Cd2A Cd -0.21683(5) 0.52525(5) 0.57541(4)
Cd3C Cd -0.22126(5) 0.75898(5) 0.07629(4)
Cd3* Cd -0.72126(5) 0.74102(5) -0.42371(4)
Cd3B Cd -0.22126(5) 0.24102(5) 0.57629(4)
Na1B Na -0.4614(3) 0.6676(3) -0.3563(3)
Na1B* Na 0.5386(3) 0.6676(3) 0.6437(3)
Na2* Na -0.3445(4) 0.4498(4) -0.1512(3)
Na2B Na -0.8445(4) 0.9498(4) -0.1512(3)
Na2B* Na 0.1555(4) -0.0502(4) 0.8488(3)
O1C O 0.1743(6) 0.8855(6) 0.5679(5)
O2* O 0.6277(6) 0.5140(6) 0.9635(5)
O5B O -0.0849(7) 0.3616(6) 0.0779(5)
O6C O -0.0097(6) 0.0816(6) 0.3145(5)
O7C O -0.1238(6) 0.1837(7) 0.3216(5)
O8* O 0.4107(6) 0.6788(7) 0.6953(5)
O8B O -0.0893(6) 0.1788(7) 0.6953(5)
O11B O -0.0199(6) 0.0406(6) 0.5528(5)
O13B O -0.1438(7) 0.0126(7) 0.4390(5)
O14B O -0.2042(6) 0.3976(6) -0.0378(5)
O14B* O 0.7958(6) 0.3976(6) 0.9622(5)
O17A O -0.1525(7) 0.6271(6) 0.0397(6)
O17B O 0.3475(7) 0.8729(6) 0.5397(6)
O18* O 0.2931(7) 0.7705(8) 0.7056(5)
O19B O 0.6558(7) 0.5996(7) 0.7683(6)
H10B H 0.71060 0.58340 0.77060
H11B H 0.65900 0.65460 0.78780
#END
