
#######################################################################
#
#                 Cambridge Crystallographic Data Centre
#                                CCDC
#
#######################################################################
#
# If this CIF has been generated from an entry in the Cambridge
# Structural Database, then it will include bibliographic, chemical,
# crystal, experimental, refinement or atomic coordinate data resulting
# from the CCDC's data processing and validation procedures.
#
#######################################################################

data_CSD_CIF_EXEHEV01
_audit_creation_date 2011-11-07
_audit_creation_method CSD-ConQuest-V1
_database_code_CSD EXEHEV01
_database_code_depnum_ccdc_archive 'CCDC 782391'
_chemical_formula_sum 'C20 H38 N4 O23 S3 Zn3'
_chemical_formula_moiety
;
(C10 H12 N2 O10 S2 Zn1 2-)n,n(C10 H14 N2 O7 S1 Zn1),n(H12 O6 Zn1 2+)
;
_journal_coden_Cambridge 923
_journal_volume 41
_journal_year 2011
_journal_page_first 785
_journal_name_full 'Synth.React.Inorg.,Met.-Org.,Nano-Met.Chem. '
loop_
_publ_author_name
"Kaiyue Zhu"
"Yongchao Gao"
"Gang Li"
_chemical_name_systematic
;
catena-(Hexa-aqua-zinc(ii) 
(\m~2~-4,4'-bipyridine)-diaqua-bis(sulfato-O)-zinc(ii) 
(\m~2~-4,4'-bipyridine)-triaqua-(sulfato-O)-zinc(ii))
;
_cell_volume    856.827
_exptl_crystal_colour 'colorless'
_exptl_crystal_density_diffrn 1.928
_exptl_crystal_description 'block'
_diffrn_ambient_temperature 296
#These two values have been output from a single CSD field.
_refine_ls_R_factor_gt 0.0234
_refine_ls_wR_factor_gt 0.0234
_symmetry_cell_setting triclinic
_symmetry_space_group_name_H-M 'P 1'
_symmetry_Int_Tables_number 1
loop_
_symmetry_equiv_pos_site_id
_symmetry_equiv_pos_as_xyz
1 x,y,z
_cell_length_a 7.3071(5)
_cell_length_b 11.1867(7)
_cell_length_c 11.4495(7)
_cell_angle_alpha 72.436(3)
_cell_angle_beta 73.911(3)
_cell_angle_gamma 83.398(3)
_cell_formula_units_Z 1
loop_
_atom_type_symbol
_atom_type_radius_bond
C 0.68
H 0.23
N 0.68
O 0.68
S 1.02
Zn 1.22
loop_
_atom_site_label
_atom_site_type_symbol
_atom_site_fract_x
_atom_site_fract_y
_atom_site_fract_z
Zn1 Zn 0.83803(5) 0.83005(3) 0.31670(3)
S1 S 0.39072(11) 0.92329(8) 0.36461(8)
O1 O 0.5944(3) 0.9381(2) 0.3466(3)
O2 O 0.2797(4) 0.9583(3) 0.4772(2)
O3 O 0.3343(4) 1.0056(2) 0.2524(2)
O4 O 0.3573(4) 0.7912(2) 0.3799(3)
O5 O 0.6806(4) 0.6543(2) 0.3850(2)
H1 H 0.56210 0.67070 0.40960
H2 H 0.69620 0.59840 0.45110
O6 O 1.0991(3) 0.7228(2) 0.2901(3)
H3 H 1.17910 0.75090 0.31600
H4 H 1.10970 0.64370 0.30270
O7 O 0.9822(4) 0.9952(2) 0.2403(3)
H5 H 0.90870 1.05430 0.21110
H6 H 1.09520 1.00300 0.24300
N1 N 0.8485(4) 0.8230(3) 0.5064(3)
N2 N 0.8236(4) 0.8314(3) 1.1307(3)
C1 C 0.8185(6) 0.9288(3) 0.5400(4)
H7 H 0.79990 1.00280 0.47950
C2 C 0.8134(6) 0.9356(3) 0.6587(3)
H8 H 0.79380 1.01290 0.67570
C3 C 0.8372(5) 0.8279(3) 0.7538(3)
C4 C 0.8658(6) 0.7156(4) 0.7183(4)
H9 H 0.88130 0.63950 0.77720
C5 C 0.8707(6) 0.7186(4) 0.5975(4)
H10 H 0.89090 0.64290 0.57700
C6 C 0.7924(6) 0.9362(4) 1.0432(4)
H11 H 0.76580 1.01080 1.06570
C7 C 0.7980(6) 0.9388(4) 0.9206(4)
H12 H 0.77880 1.01460 0.86260
C8 C 0.8317(5) 0.8299(3) 0.8835(3)
C9 C 0.8595(5) 0.7204(3) 0.9759(3)
H13 H 0.88090 0.64390 0.95700
C10 C 0.8552(5) 0.7258(3) 1.0958(4)
H14 H 0.87550 0.65150 1.15550
Zn2 Zn 0.33479(5) 0.32342(3) 0.84937(3)
S2 S 0.74475(11) 0.32833(7) 0.61192(7)
S3 S -0.07614(11) 0.33861(8) 1.07345(7)
O8 O 0.7709(3) 0.2466(2) 0.5288(2)
O9 O 0.8454(4) 0.4453(2) 0.5404(2)
O10 O 0.8233(3) 0.2640(3) 0.7206(2)
O11 O 0.5381(3) 0.3584(2) 0.6564(2)
O12 O 0.1307(3) 0.3031(2) 1.0339(2)
O13 O -0.1414(4) 0.4140(3) 0.9626(3)
O14 O -0.1842(4) 0.2241(3) 1.1358(3)
O15 O -0.1027(4) 0.4131(3) 1.1628(2)
O16 O 0.1062(3) 0.3848(2) 0.7548(2)
H15 H 0.01330 0.41500 0.80200
H16 H 0.03220 0.34100 0.73990
O17 O 0.5584(3) 0.2562(2) 0.9396(2)
H17 H 0.66420 0.26180 0.88380
H18 H 0.61580 0.28230 0.98190
N3 N 0.3116(4) 0.1404(3) 0.8507(3)
N4 N 0.3629(4) -0.4910(3) 0.8401(3)
C11 C 0.3164(6) 0.1105(3) 0.7460(3)
H19 H 0.31320 0.17530 0.67300
C12 C 0.3260(6) -0.0109(3) 0.7395(4)
H20 H 0.33150 -0.02720 0.66360
C13 C 0.3271(5) -0.1091(3) 0.8485(3)
C14 C 0.3139(6) -0.0774(3) 0.9583(4)
H21 H 0.30860 -0.14000 1.03400
C15 C 0.3087(5) 0.0466(3) 0.9556(3)
H22 H 0.30290 0.06580 1.03010
C16 C 0.3398(5) -0.3963(3) 0.7401(3)
H23 H 0.32980 -0.41500 0.66830
C17 C 0.3302(6) -0.2724(3) 0.7393(4)
H24 H 0.31420 -0.20940 0.66790
C18 C 0.3444(5) -0.2414(3) 0.8443(3)
C19 C 0.3777(6) -0.3397(3) 0.9459(4)
H25 H 0.39490 -0.32350 1.01710
C20 C 0.3848(6) -0.4612(3) 0.9392(4)
H26 H 0.40620 -0.52600 1.00780
Zn3 Zn 0.32898(5) 0.33679(4) 0.34694(4)
O18 O 0.5125(4) 0.4901(3) 0.2294(3)
H27 H 0.62700 0.46240 0.21140
H28 H 0.51900 0.54290 0.26810
O19 O 0.3114(4) 0.4318(3) 0.4883(2)
H29 H 0.37160 0.38840 0.54160
H30 H 0.21270 0.41850 0.55030
O20 O 0.1640(4) 0.1941(2) 0.4771(3)
H31 H 0.19140 0.12750 0.45380
H32 H 0.04450 0.18540 0.49540
O21 O 0.3512(4) 0.2624(2) 0.1977(2)
H33 H 0.34800 0.18290 0.22520
H34 H 0.24780 0.26520 0.17640
O22 O 0.5644(4) 0.2264(3) 0.3762(3)
H35 H 0.61830 0.25430 0.41920
H36 H 0.64680 0.20400 0.31730
O23 O 0.0922(3) 0.4543(2) 0.3126(2)
H37 H 0.02190 0.41730 0.28730
H38 H 0.01010 0.45910 0.38030
Zn1* Zn 0.83803(5) 0.83005(3) 1.31670(3)
N2* N 0.8236(4) 0.8314(3) 0.1307(3)
Zn2* Zn 0.33479(5) -0.67658(3) 0.84937(3)
N4* N 0.3629(4) 0.5090(3) 0.8401(3)
#END
