
#######################################################################
#
#                 Cambridge Crystallographic Data Centre
#                                CCDC
#
#######################################################################
#
# If this CIF has been generated from an entry in the Cambridge
# Structural Database, then it will include bibliographic, chemical,
# crystal, experimental, refinement or atomic coordinate data resulting
# from the CCDC's data processing and validation procedures.
#
#######################################################################

data_CSD_CIF_EXEHEV02
_audit_creation_date 2014-08-08
_audit_creation_method CSD-ConQuest-V1
_database_code_CSD EXEHEV02
_database_code_depnum_ccdc_archive 'CCDC 966885'
_chemical_formula_sum 'C20 H38 N4 O23 S3 Zn3'
_chemical_formula_moiety
;
(C10 H12 N2 O10 S2 Zn1 2-)n,n(C10 H14 N2 O7 S1 Zn1),n(H12 O6 Zn1 2+)
;
_journal_coden_Cambridge 910
_journal_volume 24
_journal_year 2014
_journal_page_first 450
_journal_name_full 'J.Inorg.Organomet.Polym.Mater. '
loop_
_publ_author_name
"Xue-Ting Xu"
"Feng-Ying Bai"
"Wei Zou"
"Yong-Heng Xing"
_chemical_name_systematic
;
catena-((\m~2~-4,4'-bipyridyl)-triaqua-(sulfato)-zinc(ii) hexa-aqua-zinc(ii) 
(\m~2~-4,4'-bipyridyl)-diaqua-disulfato-zinc(ii))
;
_cell_volume    857.342
_exptl_crystal_colour 'colorless'
_exptl_crystal_density_diffrn 1.927
_exptl_crystal_description 'block'
_diffrn_ambient_temperature 293
#These two values have been output from a single CSD field.
_refine_ls_R_factor_gt 0.024
_refine_ls_wR_factor_gt 0.024
_symmetry_cell_setting triclinic
_symmetry_space_group_name_H-M 'P 1'
_symmetry_Int_Tables_number 1
loop_
_symmetry_equiv_pos_site_id
_symmetry_equiv_pos_as_xyz
1 x,y,z
_cell_length_a 7.3145(15)
_cell_length_b 11.194(2)
_cell_length_c 11.442(2)
_cell_angle_alpha 72.48(3)
_cell_angle_beta 73.78(3)
_cell_angle_gamma 83.39(3)
_cell_formula_units_Z 1
loop_
_atom_type_symbol
_atom_type_radius_bond
C 0.68
H 0.23
N 0.68
O 0.68
S 1.02
Zn 1.22
loop_
_atom_site_label
_atom_site_type_symbol
_atom_site_fract_x
_atom_site_fract_y
_atom_site_fract_z
Zn1 Zn 0.26660(6) 0.49460(4) 0.10360(4)
O1 O 0.2484(4) 0.5894(3) 0.2454(2)
H1 H 0.31050 0.54920 0.29480
H2 H 0.13850 0.58660 0.28960
O2 O 0.5014(4) 0.3840(3) 0.1327(3)
H3 H 0.56460 0.38990 0.17960
H4 H 0.57820 0.38660 0.06440
O3 O 0.1013(4) 0.3511(2) 0.2339(2)
H5 H -0.01120 0.37450 0.24700
H6 H 0.11370 0.29100 0.20500
O4 O 0.2890(4) 0.4201(2) -0.0455(2)
H7 H 0.30690 0.34390 -0.02210
H8 H 0.19050 0.43640 -0.06900
O5 O 0.0292(3) 0.6121(2) 0.0696(2)
H9 H -0.05020 0.60900 0.13710
H10 H -0.02440 0.60110 0.01980
O6 O 0.4489(4) 0.6480(3) -0.0143(3)
H11 H 0.56340 0.63090 -0.02480
H12 H 0.42200 0.68460 0.04080
Zn2 Zn 0.27207(5) 0.48132(3) 0.60603(3)
S1 S -0.13899(11) 0.49665(7) 0.83008(7)
S2 S 0.68192(11) 0.48626(7) 0.36867(7)
O7 O 0.4750(3) 0.5165(2) 0.4130(2)
O8 O 0.7607(4) 0.4213(3) 0.4774(2)
O9 O 0.7820(4) 0.6034(2) 0.2966(2)
O10 O 0.7083(4) 0.4044(2) 0.2854(2)
O11 O 0.0425(4) 0.5432(2) 0.5116(2)
H13 H -0.02850 0.57980 0.56000
H14 H 0.01380 0.48540 0.49080
O12 O 0.4972(4) 0.4138(2) 0.6959(2)
H15 H 0.48570 0.43120 0.76240
H16 H 0.58080 0.40490 0.63400
O13 O 0.0677(3) 0.4612(2) 0.7906(2)
O14 O -0.2040(4) 0.5714(3) 0.7192(3)
O15 O -0.1651(4) 0.5712(3) 0.9197(2)
O16 O -0.2481(4) 0.3825(3) 0.8928(3)
N1 N 0.2481(4) 0.2985(2) 0.6077(3)
N2 N 0.3007(4) -0.3328(2) 0.5966(3)
C1 C 0.2785(6) -0.2384(3) 0.4967(3)
H17 H 0.27040 -0.25730 0.42450
C2 C 0.2671(6) -0.1136(3) 0.4958(3)
H18 H 0.24910 -0.05080 0.42490
C3 C 0.2827(5) -0.0833(3) 0.6007(3)
C4 C 0.3150(6) -0.1817(3) 0.7028(3)
H19 H 0.33120 -0.16560 0.77430
C5 C 0.3226(6) -0.3035(3) 0.6957(3)
H20 H 0.34420 -0.36830 0.76420
C6 C 0.2525(6) 0.2689(3) 0.5025(3)
H21 H 0.24850 0.33330 0.42950
C7 C 0.2628(7) 0.1468(3) 0.4973(3)
H22 H 0.26950 0.13000 0.42140
C8 C 0.2630(5) 0.0495(3) 0.6055(3)
C9 C 0.2517(6) 0.0801(3) 0.7158(3)
H23 H 0.24880 0.01750 0.79120
C10 C 0.2447(6) 0.2048(3) 0.7126(3)
H24 H 0.23720 0.22430 0.78730
Zn3 Zn 0.77545(5) 0.98779(3) 0.07362(3)
S3 S 0.32821(11) 1.08110(8) 0.12147(7)
O17 O 0.5308(4) 1.0959(2) 0.1039(3)
O18 O 0.2716(4) 1.1632(3) 0.0092(2)
O19 O 0.2178(4) 1.1161(3) 0.2342(2)
O20 O 0.2942(4) 0.9492(2) 0.1367(3)
O21 O 0.9190(4) 1.1531(2) -0.0035(2)
H25 H 0.98760 1.15690 0.04090
H26 H 0.87000 1.22070 -0.03440
O22 O 0.6182(4) 0.8122(2) 0.1422(2)
H27 H 0.51000 0.84320 0.14800
H28 H 0.64110 0.75920 0.20420
O23 O 1.0358(4) 0.8808(2) 0.0465(2)
H29 H 1.03300 0.82100 0.10940
H30 H 1.12510 0.92490 0.03440
N3 N 0.7851(4) 0.9808(3) 0.2634(3)
N4 N 0.7607(4) 0.9896(3) 0.8878(2)
C11 C 0.8093(6) 0.8769(3) 0.3535(4)
H31 H 0.83120 0.80140 0.33270
C12 C 0.8040(6) 0.8744(3) 0.4752(4)
H32 H 0.81940 0.79860 0.53440
C13 C 0.7754(5) 0.9857(3) 0.5097(3)
C14 C 0.7506(6) 1.0941(3) 0.4161(3)
H33 H 0.73060 1.17110 0.43370
C15 C 0.7555(6) 1.0873(3) 0.2973(3)
H34 H 0.73730 1.16130 0.23680
C16 C 0.7312(6) 1.0944(3) 0.8000(3)
H35 H 0.70710 1.16920 0.82220
C17 C 0.7350(6) 1.0969(3) 0.6773(3)
H36 H 0.71480 1.17250 0.61940
C18 C 0.7688(5) 0.9873(3) 0.6405(3)
C19 C 0.7969(5) 0.8790(3) 0.7327(3)
H37 H 0.81860 0.80250 0.71380
C20 C 0.7926(5) 0.8838(3) 0.8526(3)
H38 H 0.81310 0.80950 0.91210
Zn2* Zn 0.27207(5) -0.51868(3) 0.60603(3)
N2* N 0.3007(4) 0.6672(2) 0.5966(3)
Zn3* Zn 0.77545(5) 0.98779(3) 1.07362(3)
N4* N 0.7607(4) 0.9896(3) -0.1122(2)
#END
