
#######################################################################
#
#                 Cambridge Crystallographic Data Centre
#                                CCDC
#
#######################################################################
#
# If this CIF has been generated from an entry in the Cambridge
# Structural Database, then it will include bibliographic, chemical,
# crystal, experimental, refinement or atomic coordinate data resulting
# from the CCDC's data processing and validation procedures.
#
#######################################################################

data_CSD_CIF_EXEHEV
_audit_creation_date 2011-10-02
_audit_creation_method CSD-ConQuest-V1
_database_code_CSD EXEHEV
_database_code_depnum_ccdc_archive 'CCDC 841471'
_chemical_formula_sum 'C20 H38 N4 O23 S3 Zn3'
_chemical_formula_moiety
;
(C10 H12 N2 O10 S2 Zn1 2-)n,n(C10 H14 N2 O7 S1 Zn1),n(H12 O6 Zn1 2+)
;
_journal_coden_Cambridge 1147
_journal_volume 11
_journal_year 2011
_journal_page_first 3536
_journal_name_full 'Cryst.Growth Des. '
loop_
_publ_author_name
"L.Croitor"
"E.B.Coropceanu"
"A.V.Siminel"
"V.Ch.Kravtsov"
"M.S.Fonari"
_chemical_name_systematic
;
catena-((\m~2~-4,4'-bipyridyl)-triaqua-(sulfato)-zinc(ii) 
(\m~2~-4,4'-bipyridyl)-diaqua-disulfato-zinc(ii) hexaaqua-zinc(ii))
;
_cell_volume    856.445
_exptl_crystal_colour 'brown'
_exptl_crystal_density_diffrn 1.929
_exptl_crystal_description 'needle'
_diffrn_ambient_temperature 293
#These two values have been output from a single CSD field.
_refine_ls_R_factor_gt 0.0258
_refine_ls_wR_factor_gt 0.0258
_symmetry_cell_setting triclinic
_symmetry_space_group_name_H-M 'P 1'
_symmetry_Int_Tables_number 1
loop_
_symmetry_equiv_pos_site_id
_symmetry_equiv_pos_as_xyz
1 x,y,z
_cell_length_a 7.3067(4)
_cell_length_b 11.1954(6)
_cell_length_c 11.4438(6)
_cell_angle_alpha 72.426(4)
_cell_angle_beta 73.791(4)
_cell_angle_gamma 83.348(4)
_cell_formula_units_Z 1
loop_
_atom_type_symbol
_atom_type_radius_bond
C 0.68
H 0.23
N 0.68
O 0.68
S 1.02
Zn 1.22
loop_
_atom_site_label
_atom_site_type_symbol
_atom_site_fract_x
_atom_site_fract_y
_atom_site_fract_z
Zn1 Zn 0.34118(7) 0.40119(5) 0.77517(5)
S1 S -0.06984(15) 0.41634(10) 0.99919(11)
S2 S 0.75096(15) 0.40622(10) 0.53763(10)
C1 C 0.3906(8) 0.6166(4) 0.8654(5)
H1 H 0.41070 0.55180 0.93450
C2 C 0.3848(8) 0.7378(4) 0.8717(5)
H2 H 0.40350 0.75410 0.94250
C3 C 0.3503(6) 0.8365(4) 0.7698(5)
C4 C 0.3360(7) 0.8058(4) 0.6649(5)
H3 H 0.31890 0.86850 0.59350
C5 C 0.3471(7) 0.6815(4) 0.6663(5)
H4 H 0.33890 0.66280 0.59420
C6 C 0.3324(6) 0.9686(4) 0.7735(4)
C7 C 0.3204(8) 1.0006(5) 0.8837(5)
H5 H 0.31500 0.93790 0.95940
C8 C 0.3163(7) 1.1244(4) 0.8817(5)
H6 H 0.31200 1.14340 0.95620
C9 C 0.3228(8) 1.1879(5) 0.6710(5)
H7 H 0.31850 1.25230 0.59800
C10 C 0.3331(8) 1.0670(5) 0.6653(5)
H8 H 0.34060 1.05080 0.58900
N1 N 0.3691(5) 0.5869(3) 0.7657(4)
N2 N 0.3185(5) 1.2185(3) 0.7759(4)
O1 O 0.1371(4) 0.3813(3) 0.9592(3)
O2 O -0.1352(5) 0.4904(4) 0.8893(4)
O3 O -0.0968(5) 0.4912(3) 1.0884(3)
O4 O -0.1792(5) 0.3019(3) 1.0619(4)
O5 O 0.5440(4) 0.4363(3) 0.5823(3)
O6 O 0.8298(5) 0.3419(3) 0.6462(3)
O7 O 0.7778(5) 0.3251(3) 0.4540(3)
O8 O 0.8498(5) 0.5229(3) 0.4666(3)
O9 O 0.5648(5) 0.3329(3) 0.8654(4)
H9 H 0.669(8) 0.352(5) 0.795(5)
H10 H 0.575(8) 0.373(6) 0.902(6)
O10 O 0.1110(5) 0.4626(3) 0.6807(4)
H11 H 0.030(8) 0.428(5) 0.648(5)
H12 H 0.042(8) 0.495(5) 0.728(6)
Zn2 Zn 0.84424(7) 0.90758(5) 0.24262(5)
S3 S 0.39650(15) 1.0011(1) 0.29053(11)
C11 C 0.8777(8) 0.7964(5) 0.5233(5)
H13 H 0.90000 0.72080 0.50260
C12 C 0.8717(8) 0.7943(5) 0.6453(5)
H14 H 0.88660 0.71880 0.70500
C13 C 0.8434(7) 0.9051(4) 0.6785(4)
C14 C 0.8207(8) 1.0135(4) 0.5848(5)
H15 H 0.80340 1.09070 0.60210
C15 C 0.8239(8) 1.0072(5) 0.4659(5)
H16 H 0.80440 1.08110 0.40550
C16 C 0.8377(7) 0.9075(4) 0.8091(4)
C17 C 0.8653(7) 0.7980(4) 0.9021(5)
H17 H 0.88670 0.72160 0.88320
C18 C 0.8610(7) 0.8027(4) 1.0213(5)
H18 H 0.88170 0.72830 1.08080
C19 C 0.7994(8) 1.0138(5) 0.9686(5)
H19 H 0.77390 1.08840 0.99090
C20 C 0.8053(8) 1.0166(5) 0.8461(5)
H20 H 0.78730 1.09250 0.78790
N3 N 0.8535(6) 0.9006(4) 0.4328(4)
N4 N 0.8287(5) 0.9087(4) 1.0567(3)
O11 O 0.5998(5) 1.0155(3) 0.2724(4)
O12 O 0.3408(5) 1.0830(3) 0.1780(3)
O13 O 0.3634(5) 0.8688(3) 0.3059(4)
O14 O 0.2858(5) 1.0362(3) 0.4030(3)
O15 O 0.9876(5) 1.0729(3) 0.1664(4)
H21 H 0.933(8) 1.142(5) 0.140(6)
H22 H 1.099(8) 1.075(6) 0.180(6)
O16 O 1.1048(5) 0.7997(4) 0.2164(4)
H23 H 1.110(8) 0.723(5) 0.221(6)
H24 H 1.177(8) 0.819(5) 0.247(6)
O17 O 0.6868(5) 0.7322(3) 0.3115(4)
H25 H 0.588(8) 0.746(6) 0.316(6)
H26 H 0.716(8) 0.669(5) 0.379(6)
Zn3 Zn 0.33556(7) 0.41435(5) 0.27283(5)
O18 O 0.0972(5) 0.5323(3) 0.2390(4)
H27 H 0.057(8) 0.522(5) 0.190(5)
H28 H 0.016(7) 0.525(5) 0.315(5)
O19 O 0.5698(5) 0.3048(4) 0.3027(4)
H29 H 0.643(8) 0.320(6) 0.354(6)
H30 H 0.633(9) 0.288(6) 0.245(6)
O20 O 0.3565(5) 0.3401(4) 0.1237(3)
H31 H 0.269(8) 0.364(5) 0.082(6)
H32 H 0.379(8) 0.256(5) 0.138(6)
O21 O 0.3177(6) 0.5092(4) 0.4141(4)
H33 H 0.389(8) 0.487(5) 0.470(6)
H34 H 0.220(7) 0.510(6) 0.463(6)
O22 O 0.5185(6) 0.5683(4) 0.1547(4)
H35 H 0.502(9) 0.623(6) 0.201(6)
H36 H 0.641(8) 0.548(6) 0.139(6)
O23 O 0.1691(5) 0.2720(3) 0.4026(4)
H37 H 0.199(8) 0.197(5) 0.400(6)
H38 H 0.059(8) 0.278(5) 0.437(6)
Zn1* Zn 0.34118(7) 1.40119(5) 0.77517(5)
N2* N 0.3185(5) 0.2185(3) 0.7759(4)
Zn2* Zn 0.84424(7) 0.90758(5) 1.24262(5)
N4* N 0.8287(5) 0.9087(4) 0.0567(3)
#END
