
#######################################################################
#
#                 Cambridge Crystallographic Data Centre
#                                CCDC
#
#######################################################################
#
# If this CIF has been generated from an entry in the Cambridge
# Structural Database, then it will include bibliographic, chemical,
# crystal, experimental, refinement or atomic coordinate data resulting
# from the CCDC's data processing and validation procedures.
#
#######################################################################

data_CSD_CIF_EXIDOF
_audit_creation_date 2011-10-03
_audit_creation_method CSD-ConQuest-V1
_database_code_CSD EXIDOF
_database_code_depnum_ccdc_archive 'CCDC 841533'
_chemical_formula_sum 'C45 H32 Co2 N4 O20'
_chemical_formula_moiety
;
(C20 H4 Co2 O16 4-)n,n(C25 H28 N4 O4 4+)
;
_journal_coden_Cambridge 1147
_journal_volume 11
_journal_year 2011
_journal_page_first 3609
_journal_name_full 'Cryst.Growth Des. '
loop_
_publ_author_name
"Jiao Guo"
"Jian-Fang Ma"
"Bo Liu"
"Wei-Qiu Kan"
"Jin Yang"
_chemical_name_systematic
;
catena-(tetrakis((pyridinium-4-yloxy)methyl)methane 
bis(\m~4~-benzene-1,2,4,5-tetracarboxylato)-di-cobalt(ii))
;
_cell_volume   7926.394
_exptl_crystal_colour 'purple'
_exptl_crystal_density_diffrn 1.767
_exptl_crystal_description 'needle'
_diffrn_ambient_temperature 293
_refine_special_details
;
The structure is disordered.

;
#These two values have been output from a single CSD field.
_refine_ls_R_factor_gt 0.0365
_refine_ls_wR_factor_gt 0.0365
_symmetry_cell_setting tetragonal
_symmetry_space_group_name_H-M 'I 41/a c d'
_symmetry_Int_Tables_number 142
loop_
_symmetry_equiv_pos_site_id
_symmetry_equiv_pos_as_xyz
1 x,y,z
2 -x,1/2-y,z
3 x,-y,1/2-z
4 1/2-x,y,-z
5 1/4-y,1/4-x,1/4-z
6 3/4+y,1/4+x,1/4-z
7 1/4+y,1/4-x,3/4+z
8 1/4-y,3/4+x,1/4+z
9 1/2+x,1/2+y,1/2+z
10 1/2-x,-y,1/2+z
11 1/2+x,1/2-y,-z
12 -x,1/2+y,1/2-z
13 3/4-y,3/4-x,3/4-z
14 1/4+y,3/4+x,3/4-z
15 3/4+y,3/4-x,1/4+z
16 3/4-y,1/4+x,3/4+z
17 -x,-y,-z
18 x,-1/2+y,-z
19 -x,y,-1/2+z
20 -1/2+x,-y,z
21 -1/4+y,-1/4+x,-1/4+z
22 -3/4-y,-1/4-x,-1/4+z
23 -1/4-y,-1/4+x,-3/4-z
24 -1/4+y,-3/4-x,-1/4-z
25 -1/2-x,-1/2-y,-1/2-z
26 -1/2+x,y,-1/2-z
27 -1/2-x,-1/2+y,z
28 x,-1/2-y,-1/2+z
29 -3/4+y,-3/4+x,-3/4+z
30 -1/4-y,-3/4-x,-3/4+z
31 -3/4-y,-3/4+x,-1/4-z
32 -3/4+y,-1/4-x,-3/4-z
_cell_length_a 16.272(5)
_cell_length_b 16.272(5)
_cell_length_c 29.936(5)
_cell_angle_alpha 90
_cell_angle_beta 90
_cell_angle_gamma 90
_cell_formula_units_Z 8
loop_
_atom_type_symbol
_atom_type_radius_bond
C 0.68
H 0.23
Co 1.26
N 0.68
O 0.68
loop_
_atom_site_label
_atom_site_type_symbol
_atom_site_fract_x
_atom_site_fract_y
_atom_site_fract_z
Co1 Co 0.72069(2) -0.47069(2) 0.12500
O1 O 0.66026(13) -0.80416(12) 0.10176(7)
O2 O 0.75592(11) -0.65486(11) 0.11925(6)
O3 O 0.7239(1) -0.54866(12) 0.07592(6)
C1 C 0.75000 -0.8020(2) 0.00000
H1 H 0.75000 -0.85920 0.00000
C2 C 0.74363(15) -0.67564(15) 0.04069(9)
N1 N 1.16919(18) -0.21633(18) -0.31098(10)
O4 O 0.77859(10) -0.86975(12) 0.08884(6)
C3 C 0.74044(15) -0.62424(16) 0.08271(9)
C4 C 1.1195(2) -0.2783(2) -0.30060(13)
H2 H 1.10130 -0.31360 -0.32300
C5 C 0.74192(15) -0.76174(15) 0.04072(8)
C6 C 1.00000 -0.25000 -0.12500
C7 C 0.75000 -0.6351(2) 0.00000
H3 H 0.75000 -0.57800 0.00000
C8 C 0.72460(18) -0.81441(15) 0.08144(9)
C9 C 1.1196(2) -0.2375(2) -0.22472(12)
C10 C 1.0948(2) -0.2907(2) -0.25775(14)
H4 H 1.06110 -0.33500 -0.25080
C11 C 1.1935(2) -0.1644(2) -0.28035(14)
H5 H 1.22710 -0.12080 -0.28850
C12 C 1.1707(2) -0.1726(2) -0.23649(13)
H6 H 1.18900 -0.13550 -0.21510
O5? O 1.0249(3) -0.3320(3) -0.06220(16)
O6 O 1.1104(3) -0.2228(3) -0.18000(16)
C13 C 1.0706(4) -0.2145(4) -0.1519(2)
C14? C 1.0691(4) -0.2888(4) -0.1568(3)
Co1C Co 0.77931(2) -0.47069(2) -0.12500
Co1Z Co 0.77931(2) -0.97069(2) 0.12500
Co1Q Co 0.72069(2) -0.97069(2) -0.12500
Co1Z* Co 0.77931(2) 0.02931(2) 0.12500
Co1Q* Co 0.72069(2) 0.02931(2) -0.12500
O1C O 0.83974(13) -0.80416(12) -0.10176(7)
O1Z O 0.83974(13) -0.30416(12) 0.10176(7)
O1Q O 0.66026(13) -0.30416(12) -0.10176(7)
O2C O 0.74408(11) -0.65486(11) -0.11925(6)
O2Z O 0.74408(11) -0.15486(11) 0.11925(6)
O2Q O 0.75592(11) -0.15486(11) -0.11925(6)
O3C O 0.7761(1) -0.54866(12) -0.07592(6)
O3Z O 0.7761(1) -0.04866(12) 0.07592(6)
O3Q O 0.7239(1) -0.04866(12) -0.07592(6)
O3D O 0.79866(10) -0.47390(12) 0.17408(6)
O3F O 0.70134(10) -0.47390(12) -0.17408(6)
C1Q C 0.75000 -0.3020(2) 0.00000
H1Q H 0.75000 -0.35920 0.00000
C2C C 0.75637(15) -0.67564(15) -0.04069(9)
C2Z C 0.75637(15) -0.17564(15) 0.04069(9)
C2Q C 0.74363(15) -0.17564(15) -0.04069(9)
N1L N 0.96633(18) -0.41919(18) 0.06098(10)
N1M N 1.03367(18) -0.08081(18) 0.06098(10)
N1A N 0.83081(18) -0.28367(18) -0.31098(10)
O4C O 0.72141(10) -0.86975(12) -0.08884(6)
O4Z O 0.72141(10) -0.36975(12) 0.08884(6)
O4Q O 0.77859(10) -0.36975(12) -0.08884(6)
O4V O 0.61975(10) -0.47141(12) 0.16116(6)
O4T O 0.88025(10) -0.47141(12) -0.16116(6)
C3C C 0.75956(15) -0.62424(16) -0.08271(9)
C3Z C 0.75956(15) -0.12424(16) 0.08271(9)
C3Q C 0.74044(15) -0.12424(16) -0.08271(9)
C4L C 1.0283(2) -0.3695(2) 0.05060(13)
C4M C 0.9717(2) -0.1305(2) 0.05060(13)
C4A C 0.8805(2) -0.2217(2) -0.30060(13)
H2L H 1.06360 -0.35130 0.07300
H2M H 0.93640 -0.14870 0.07300
H2A H 0.89870 -0.18640 -0.32300
C5C C 0.75808(15) -0.76174(15) -0.04072(8)
C5Z C 0.75808(15) -0.26174(15) 0.04072(8)
C5Q C 0.74192(15) -0.26174(15) -0.04072(8)
C7Q C 0.75000 -0.1351(2) 0.00000
H3Q H 0.75000 -0.07800 0.00000
C8C C 0.77540(18) -0.81441(15) -0.08144(9)
C8Z C 0.77540(18) -0.31441(15) 0.08144(9)
C8Q C 0.72460(18) -0.31441(15) -0.08144(9)
C9L C 0.9875(2) -0.3696(2) -0.02528(12)
C9M C 1.0125(2) -0.1304(2) -0.02528(12)
C9A C 0.8804(2) -0.2625(2) -0.22472(12)
C10L C 1.0407(2) -0.3448(2) 0.00775(14)
C10M C 0.9593(2) -0.1552(2) 0.00775(14)
C10A C 0.9052(2) -0.2093(2) -0.25775(14)
H4L H 1.08500 -0.31110 0.00080
H4M H 0.91500 -0.18890 0.00080
H4A H 0.93890 -0.16500 -0.25080
C11L C 0.9144(2) -0.4435(2) 0.03035(14)
C11M C 1.0856(2) -0.0565(2) 0.03035(14)
C11A C 0.8065(2) -0.3356(2) -0.28035(14)
H5L H 0.87080 -0.47710 0.03850
H5M H 1.12920 -0.02290 0.03850
H5A H 0.77290 -0.37920 -0.28850
C12L C 0.9226(2) -0.4207(2) -0.01351(13)
C12M C 1.0774(2) -0.0793(2) -0.01351(13)
C12A C 0.8293(2) -0.3274(2) -0.23649(13)
H6L H 0.88550 -0.43900 -0.03490
H6M H 1.11450 -0.06100 -0.03490
H6A H 0.81100 -0.36450 -0.21510
O6L O 0.9728(3) -0.3604(3) -0.07000(16)
O6M O 1.0272(3) -0.1396(3) -0.07000(16)
O6A O 0.8896(3) -0.2772(3) -0.18000(16)
C13L C 0.9645(4) -0.3206(4) -0.0981(2)
C13M C 1.0355(4) -0.1794(4) -0.0981(2)
C13A C 0.9294(4) -0.2855(4) -0.1519(2)
#END
