
#######################################################################
#
#                 Cambridge Crystallographic Data Centre
#                                CCDC
#
#######################################################################
#
# If this CIF has been generated from an entry in the Cambridge
# Structural Database, then it will include bibliographic, chemical,
# crystal, experimental, refinement or atomic coordinate data resulting
# from the CCDC's data processing and validation procedures.
#
#######################################################################

data_CSD_CIF_EXIDUL
_audit_creation_date 2011-10-03
_audit_creation_method CSD-ConQuest-V1
_database_code_CSD EXIDUL
_database_code_depnum_ccdc_archive 'CCDC 841534'
_chemical_formula_sum 'C52 H54 Cd1 N4 O29'
_chemical_formula_moiety
;
(C18 H7 Cd1 O12 3-)n,n(C25 H28 N4 O4 4+),n(C9 H5 O6 1-),7n(H2 O1)
;
_journal_coden_Cambridge 1147
_journal_volume 11
_journal_year 2011
_journal_page_first 3609
_journal_name_full 'Cryst.Growth Des. '
loop_
_publ_author_name
"Jiao Guo"
"Jian-Fang Ma"
"Bo Liu"
"Wei-Qiu Kan"
"Jin Yang"
_chemical_name_systematic
;
catena-(tetrakis((pyridinium-4-yloxy)methyl)methane 
(\m~2~-benzene-1,3,5-tricarboxylato)-(\m~2~-5-carboxybenzene-1,3-dicarboxylato
)-cadmium 3,5-dicarboxybenzoate heptahydrate)
;
_cell_volume   5784.772
_exptl_crystal_colour 'colorless'
_exptl_crystal_density_diffrn 1.487
_exptl_crystal_description 'block'
_diffrn_ambient_temperature 293
_refine_special_details
;
O21 and O21' disordered over two sites with occupancies 0.80:0.20; C31 and 
C31' disordered over two sites with occupancies 0.70:0.30.
;
#These two values have been output from a single CSD field.
_refine_ls_R_factor_gt 0.0841
_refine_ls_wR_factor_gt 0.0841
_symmetry_cell_setting monoclinic
_symmetry_space_group_name_H-M 'P 21/n'
_symmetry_Int_Tables_number 14
loop_
_symmetry_equiv_pos_site_id
_symmetry_equiv_pos_as_xyz
1 x,y,z
2 1/2-x,1/2+y,1/2-z
3 -x,-y,-z
4 -1/2+x,-1/2-y,-1/2+z
_cell_length_a 14.8271(7)
_cell_length_b 14.2870(7)
_cell_length_c 27.5557(14)
_cell_angle_alpha 90
_cell_angle_beta 97.689(5)
_cell_angle_gamma 90
_cell_formula_units_Z 4
loop_
_atom_type_symbol
_atom_type_radius_bond
C 0.68
H 0.23
Cd 1.49
N 0.68
O 0.68
loop_
_atom_site_label
_atom_site_type_symbol
_atom_site_fract_x
_atom_site_fract_y
_atom_site_fract_z
C1 C -0.1005(6) 1.0681(8) 0.7853(4)
C2 C -0.1594(5) 1.1342(6) 0.8100(3)
C3 C -0.1527(6) 1.1378(6) 0.8605(4)
H1 H -0.10930 1.10150 0.87940
C4 C -0.2098(6) 1.1948(6) 0.8832(3)
C5 C -0.2746(6) 1.2461(6) 0.8551(3)
H2 H -0.31460 1.28250 0.87030
C6 C -0.2822(6) 1.2451(6) 0.8046(3)
C7 C -0.2247(6) 1.1887(6) 0.7825(3)
H3 H -0.22960 1.18700 0.74850
C8 C -0.2032(7) 1.1976(8) 0.9382(4)
C9 C -0.3536(6) 1.3049(7) 0.7762(4)
C10 C 0.3746(6) 1.2841(6) 0.7178(4)
C11 C 0.3093(5) 1.2142(6) 0.6913(3)
C12 C 0.2972(5) 1.2165(6) 0.6410(3)
H4 H 0.33450 1.25450 0.62490
C13 C 0.2302(6) 1.1630(6) 0.6137(3)
C14 C 0.1764(5) 1.1047(6) 0.6379(3)
H5 H 0.13070 1.06940 0.62020
C15 C 0.1906(5) 1.0990(5) 0.6880(3)
C16 C 0.2557(5) 1.1544(6) 0.7147(3)
H6 H 0.26360 1.15150 0.74870
C17 C 0.2123(7) 1.1730(8) 0.5596(4)
C18 C 0.1318(6) 1.0379(6) 0.7142(4)
C19 C -0.2603(8) 0.9032(9) 0.8562(4)
C20 C -0.3321(6) 0.9669(7) 0.8709(4)
C21 C -0.3323(6) 0.9864(7) 0.9202(4)
H7 H -0.28820 0.95970 0.94320
C22 C -0.3984(6) 1.0460(7) 0.9361(4)
C23 C -0.4624(6) 1.0843(7) 0.9004(3)
H8 H -0.50680 1.12370 0.90990
C24 C -0.4627(6) 1.0659(7) 0.8514(4)
C25 C -0.3958(6) 1.0067(7) 0.8359(4)
H9 H -0.39470 0.99480 0.80280
C26 C -0.3953(7) 1.0668(8) 0.9896(4)
C27 C -0.5264(8) 1.1089(9) 0.8131(5)
C28 C 0.1322(6) 1.3342(6) 0.8322(3)
C29 C 0.1539(10) 1.3592(11) 0.7778(6)
H10 H 0.14740 1.42610 0.77220
H11 H 0.21600 1.34180 0.77460
C30 C 0.0378(10) 1.3614(11) 0.8357(6)
H12 H -0.00300 1.32710 0.81150
H13 H 0.02280 1.34550 0.86790
C31 C 0.1952(11) 1.3882(11) 0.8724(6)
C32 C 0.1362(10) 1.2230(9) 0.8420(5)
H14 H 0.09510 1.19100 0.81710
H15 H 0.19740 1.20010 0.84060
C33 C 0.1032(12) 1.3441(13) 0.6972(5)
C34 C 0.0407(10) 1.2927(10) 0.6691(5)
H16 H 0.00640 1.24880 0.68360
C35 C 0.0275(10) 1.3040(11) 0.6213(5)
H17 H -0.01620 1.26820 0.60230
C36 C 0.1393(8) 1.4194(10) 0.6259(5)
H18 H 0.17240 1.46270 0.61020
C37 C 0.1544(9) 1.4089(11) 0.6765(6)
H19 H 0.19780 1.44470 0.69570
C38 C -0.0549(9) 1.4993(9) 0.8313(4)
C39 C -0.1359(9) 1.4512(11) 0.8277(6)
H20 H -0.13900 1.38710 0.82190
C40 C -0.2105(12) 1.5019(16) 0.8328(8)
H21 H -0.26660 1.47240 0.83170
C41 C -0.1225(19) 1.6440(15) 0.8404(8)
H22 H -0.12110 1.70870 0.84440
C42 C -0.0421(11) 1.5947(10) 0.8353(6)
H23 H 0.01390 1.62350 0.83470
C43 C 0.3511(8) 1.3667(7) 0.9054(5)
C44 C 0.4337(9) 1.3428(8) 0.8920(4)
H24 H 0.43780 1.32870 0.85940
C45 C 0.5074(9) 1.3393(9) 0.9245(7)
H25 H 0.56250 1.32070 0.91490
C46 C 0.4284(11) 1.3915(10) 0.9856(4)
H26 H 0.42790 1.40830 1.01820
C47 C 0.3489(8) 1.3974(9) 0.9527(5)
H27 H 0.29570 1.42150 0.96230
C48 C 0.1196(7) 1.1225(8) 0.9049(5)
C49 C 0.1413(7) 1.0402(8) 0.8855(4)
H28 H 0.15250 1.03600 0.85320
C50 C 0.1459(8) 0.9659(9) 0.9142(6)
H29 H 0.16060 0.90850 0.90140
C51 C 0.1095(9) 1.0477(13) 0.9801(5)
H30 H 0.09970 1.04900 1.01270
C52 C 0.1017(9) 1.1271(10) 0.9535(6)
H31 H 0.08490 1.18310 0.96690
N1 N 0.0755(8) 1.3652(9) 0.6001(4)
H32 H 0.06600 1.37090 0.56880
N2 N -0.2045(12) 1.5949(15) 0.8394(6)
H33 H -0.25300 1.62560 0.84320
N3 N 0.5031(7) 1.3625(8) 0.9711(5)
H34 H 0.55140 1.35810 0.99210
N4 N 0.1305(7) 0.9696(8) 0.9605(5)
H35 H 0.13450 0.91940 0.97780
O1 O -0.0486(4) 1.0146(5) 0.8119(3)
O2 O -0.1056(5) 1.0682(6) 0.7401(3)
O3 O 0.5610(6) 0.5534(7) 0.8938(3)
O4 O -0.1423(5) 1.1541(5) 0.9635(2)
O5 O -0.3566(6) 0.8370(7) 1.0229(4)
O6 O -0.2628(5) 1.2481(6) 0.9548(3)
O7 O -0.0171(6) 0.8259(8) 0.8886(4)
O8 O -0.4089(4) 1.3466(5) 0.7999(2)
O9 O -0.2837(8) 1.4623(8) 0.9387(4)
O10 O -0.3621(4) 1.3083(5) 0.7326(2)
O11 O -0.2698(10) 0.7415(9) 0.9571(5)
O12 O 0.4202(4) 1.3335(4) 0.6934(2)
O13 O -0.3559(9) 1.6888(9) 0.8351(6)
O14 O 0.3745(4) 1.2920(4) 0.7641(3)
O15 O -0.0195(8) 1.2910(11) 1.0366(5)
O16 O 0.2610(5) 1.2368(6) 0.5433(3)
H36 H 0.24900 1.23990 0.51340
O17 O 0.1495(11) 1.3954(13) 1.0220(8)
O18 O 0.1553(5) 1.1280(5) 0.5343(2)
O19 O 0.0628(4) 0.9998(4) 0.6885(2)
O20 O 0.1464(4) 1.0287(5) 0.7594(3)
O21 O -0.2060(6) 0.8628(7) 0.8844(3)
O22 O -0.2675(5) 0.9048(6) 0.8106(3)
H37 H -0.22910 0.87020 0.80130
O23 O -0.3387(5) 1.0249(6) 1.0201(3)
O24 O -0.4517(5) 1.1266(6) 1.0018(3)
O25 O -0.5857(5) 1.1639(6) 0.8289(3)
H38 H -0.61940 1.18540 0.80550
O26 O -0.5245(6) 1.0945(7) 0.7695(3)
O27 O 0.1012(6) 1.3169(7) 0.7474(4)
O28 O 0.0268(8) 1.4528(6) 0.8281(4)
O29 O 0.2860(6) 1.3609(7) 0.8678(4)
O30 O 0.1136(6) 1.2068(8) 0.8837(4)
Cd1 Cd 0.00401(4) 0.93078(4) 0.75209(3)
C53? C 0.236(2) 1.339(2) 0.8415(11)
O31? O 0.235(3) 1.366(2) 0.8931(13)
O8A O -0.0911(4) 0.8466(5) 0.7001(2)
O12A O 0.0798(4) 0.8335(4) 0.8066(2)
Cd1A Cd -0.50401(4) 1.43078(4) 0.74791(3)
Cd1A* Cd 0.49599(4) 1.43078(4) 0.74791(3)
#END
