
#######################################################################
#
#                 Cambridge Crystallographic Data Centre
#                                CCDC
#
#######################################################################
#
# If this CIF has been generated from an entry in the Cambridge
# Structural Database, then it will include bibliographic, chemical,
# crystal, experimental, refinement or atomic coordinate data resulting
# from the CCDC's data processing and validation procedures.
#
#######################################################################

data_CSD_CIF_EXIRAH
_audit_creation_date 2021-07-20
_audit_creation_method CSD-ConQuest-V1
_database_code_CSD EXIRAH
_database_code_depnum_ccdc_archive 'CCDC 2007677'
_chemical_formula_sum 'C22 H26 Ag4 N10 O44 Si1 W12'
_chemical_formula_moiety
;
(C11 H9 Ag2 N5 2+)2n,4(H2 O1),O40 Si1 W12 4-
;
_journal_coden_Cambridge 1046
_journal_volume 391
_journal_year 2021
_journal_page_first 138930
_journal_name_full 'Electrochimica Acta '
loop_
_publ_author_name
"Yanping Zheng"
"Wanli Zhou"
"Xuekun Liu"
"Gang Yuan"
"Jun Peng"
_chemical_name_systematic
;
catena-[bis((\m-3,5-di(1H-imidazol-1-yl)pyridine)-di-silver(i)) 
(\m-silicato)-tetracosakis(\m-oxo)-dodecaoxo-dodeca-tungsten tetrahydrate]
;
_cell_volume   1394.226
_exptl_crystal_colour 'colorless'
_exptl_crystal_density_diffrn 4.526
_exptl_crystal_description 'block'
_diffrn_ambient_temperature 293
_refine_special_details
;
O1W and O1W' disordered over two sites with occupancies 0.5:0.5.

;
#These two values have been output from a single CSD field.
_refine_ls_R_factor_gt 0.0396
_refine_ls_wR_factor_gt 0.0396
_symmetry_cell_setting triclinic
_symmetry_space_group_name_H-M 'P -1'
_symmetry_Int_Tables_number 2
loop_
_symmetry_equiv_pos_site_id
_symmetry_equiv_pos_as_xyz
1 x,y,z
2 -x,-y,-z
_cell_length_a 9.890(5)
_cell_length_b 13.021(5)
_cell_length_c 13.415(5)
_cell_angle_alpha 104.710(5)
_cell_angle_beta 108.820(5)
_cell_angle_gamma 110.507(5)
_cell_formula_units_Z 1
loop_
_atom_type_symbol
_atom_type_radius_bond
C 0.68
H 0.23
Ag 1.45
N 0.68
O 0.68
Si 1.20
W 1.62
loop_
_atom_site_label
_atom_site_type_symbol
_atom_site_fract_x
_atom_site_fract_y
_atom_site_fract_z
W1 W 0.95144(7) 0.57733(5) 0.75151(4)
W2 W 1.28676(7) 0.77489(4) 0.73742(4)
W3 W 0.89564(7) 0.73130(4) 0.57438(5)
W4 W 0.66438(7) 0.30142(4) 0.51427(5)
W5 W 0.94380(7) 0.65292(4) 0.32174(5)
W6 W 0.60923(7) 0.45593(5) 0.33731(5)
Si1 Si 1.00000 0.50000 0.50000
O1 O 0.9366(13) 0.6138(11) 0.8747(9)
O2 O 1.4186(13) 0.9039(7) 0.8526(8)
O3 O 0.8516(13) 0.8430(8) 0.6099(10)
O4 O 0.5082(13) 0.2056(8) 0.5238(10)
O5 O 0.9172(14) 0.7256(8) 0.2379(9)
O6 O 0.4264(13) 0.4322(10) 0.2563(9)
O7 O 1.1639(12) 0.7006(11) 0.8046(12)
O8 O 0.881(2) 0.6869(16) 0.7024(17)
O9 O 0.867(3) 0.6429(19) 0.6569(19)
O10 O 1.1242(13) 0.8170(11) 0.6722(11)
O11 O 0.6474(19) 0.2032(12) 0.376(1)
O12 O 1.0232(18) 0.6075(12) 0.6055(12)
O13 O 1.0687(19) 0.5524(12) 0.4172(13)
O14 O 0.6927(17) 0.601(1) 0.4648(11)
O15 O 0.5733(17) 0.3763(11) 0.4322(10)
O16 O 0.6091(19) 0.3192(11) 0.2451(10)
O17 O 0.704(2) 0.5603(14) 0.2620(15)
O18 O 0.750(2) 0.5310(15) 0.2881(15)
O19 O 0.897(2) 0.5656(13) 0.4532(13)
O20 O 0.8096(19) 0.4004(13) 0.4295(13)
O21 O 0.9622(15) 0.528(1) 0.2295(11)
O22 O 1.1727(14) 0.7334(8) 0.4058(10)
O23 O 0.7496(15) 0.4388(10) 0.6505(11)
O24 O 0.9427(17) 0.7497(11) 0.4521(11)
Ag1 Ag 0.76972(15) 0.63235(9) 0.98809(10)
Ag2 Ag 0.7446(2) 1.00815(12) 0.56355(12)
C1 C 0.8457(19) 0.9015(13) 1.1068(12)
H1 H 0.86950 0.90080 1.17950
C2 C 0.845(2) 0.9941(13) 1.0816(13)
H2 H 0.86940 1.06900 1.13250
C3 C 0.7814(17) 0.8440(11) 0.9268(12)
H3 H 0.75440 0.79890 0.85090
C4 C 0.7694(16) 1.0226(11) 0.8987(11)
C5 C 0.7398(17) 1.1160(12) 0.9424(14)
H4 H 0.73880 1.13700 1.01370
C6 C 0.7120(19) 1.1760(12) 0.8735(13)
C7 C 0.7114(19) 1.1456(12) 0.7717(13)
H5 H 0.68990 1.18860 0.72840
C8 C 0.7646(17) 0.9919(11) 0.7910(12)
H6 H 0.77840 0.92570 0.76130
C9 C 0.581(2) 1.2758(14) 0.9686(14)
H7 H 0.51830 1.21310 0.98160
C10 C 0.593(2) 1.3844(13) 0.9978(12)
H8 H 0.53790 1.41030 1.03440
C11 C 0.7459(18) 1.3818(11) 0.9146(11)
H9 H 0.81630 1.40400 0.88270
N1 N 0.8056(15) 0.8053(9) 1.0068(10)
N2 N 0.7989(14) 0.9560(9) 0.964(1)
N3 N 0.7405(15) 1.0546(10) 0.7273(10)
N4 N 0.6791(16) 1.2733(10) 0.9148(10)
N5 N 0.6980(16) 1.4545(10) 0.9665(10)
O25 O 0.805(4) 0.983(2) 0.420(3)
O26 O 0.5990(19) 0.7487(12) 0.2965(13)
O27? O 0.693(4) 0.9836(19) 0.384(2)
W1A W 1.04856(7) 0.42267(5) 0.24849(4)
W2A W 0.71324(7) 0.22511(4) 0.26258(4)
W3A W 1.10436(7) 0.26870(4) 0.42562(5)
W4A W 1.33562(7) 0.69858(4) 0.48573(5)
W5A W 1.05620(7) 0.34708(4) 0.67826(5)
W6A W 1.39077(7) 0.54407(5) 0.66269(5)
O1A O 1.0634(13) 0.3862(11) 0.1253(9)
O2A O 0.5814(13) 0.0961(7) 0.1474(8)
O3A O 1.1484(13) 0.1570(8) 0.3901(10)
O4A O 1.4918(13) 0.7944(8) 0.4762(10)
O5A O 1.0828(14) 0.2744(8) 0.7621(9)
O6A O 1.5736(13) 0.5678(10) 0.7437(9)
O7A O 0.8361(12) 0.2994(11) 0.1954(12)
O8A O 1.119(2) 0.3131(16) 0.2976(17)
O9A O 1.133(3) 0.3571(19) 0.3431(19)
O10A O 0.8758(13) 0.1830(11) 0.3278(11)
O12A O 0.9768(18) 0.3925(12) 0.3945(12)
O13A O 0.9313(19) 0.4476(12) 0.5828(13)
O14A O 1.3073(17) 0.399(1) 0.5352(11)
O15A O 1.4267(17) 0.6237(11) 0.5678(10)
O16A O 1.3909(19) 0.6808(11) 0.7549(10)
O17A O 1.296(2) 0.4397(14) 0.7380(15)
O18A O 1.250(2) 0.4690(15) 0.7119(15)
O19A O 1.103(2) 0.4344(13) 0.5468(13)
O20A O 1.1904(19) 0.5996(13) 0.5705(13)
O21A O 1.0378(15) 0.472(1) 0.7705(11)
O22A O 0.8273(14) 0.2666(8) 0.5942(10)
O23A O 1.2504(15) 0.5612(10) 0.3495(11)
O24A O 1.0573(17) 0.2503(11) 0.5479(11)
O11A O 1.3526(19) 0.7968(12) 0.624(1)
Ag1* Ag 0.76972(15) 1.63235(9) 0.98809(10)
N5* N 0.6980(16) 0.4545(10) 0.9665(10)
#END
