
#######################################################################
#
#                 Cambridge Crystallographic Data Centre
#                                CCDC
#
#######################################################################
#
# If this CIF has been generated from an entry in the Cambridge
# Structural Database, then it will include bibliographic, chemical,
# crystal, experimental, refinement or atomic coordinate data resulting
# from the CCDC's data processing and validation procedures.
#
#######################################################################

data_CSD_CIF_EXOCEC
_audit_creation_date 2021-07-20
_audit_creation_method CSD-ConQuest-V1
_database_code_CSD EXOCEC
_database_code_depnum_ccdc_archive 'CCDC 2054773'
_chemical_formula_sum 'C21 H39 N18 O64 P2 W18 Zn1'
_chemical_formula_moiety
;
H2 O62 P2 W18 4-,n(C21 H37 N18 O2 Zn1 4+)
;
_journal_coden_Cambridge 1295
_journal_volume 130
_journal_year 2021
_journal_page_first 108673
_journal_name_full 'Inorg.Chem.Commun. '
loop_
_publ_author_name
"Fu-Hong Liu"
"Xiao Li"
"Jia-Qi Chi"
"Zhong-Min Su"
_chemical_name_systematic
;
catena-[(\m-1-[3-(4H-1,2,4-triazol-4-yl)propyl]-1H-1,2,4-triazole)-bis(1-[3-(4
H-1,2,4-triazol-4-yl)propyl]-1H-1,2,4-triazol-4-ium)-diaqua-zinc(ii) 
bis(\m-phosphtao)-bis(\m-hydroxo)-dopentacosakis(\m-oxo)-octadeca-tungsten 
unknown solvate]
;
_cell_volume   8661.504
_exptl_crystal_colour 'green'
_exptl_crystal_description 'block'
_diffrn_ambient_temperature 296.1
_refine_special_details
;
Disordered solvent molecules were not modelled and the disordered density was 
taken into account using the SQUEEZE/PLATON procedure.
;
#These two values have been output from a single CSD field.
_refine_ls_R_factor_gt 0.0619
_refine_ls_wR_factor_gt 0.0619
_symmetry_cell_setting monoclinic
_symmetry_space_group_name_H-M 'P 21/n'
_symmetry_Int_Tables_number 14
loop_
_symmetry_equiv_pos_site_id
_symmetry_equiv_pos_as_xyz
1 x,y,z
2 1/2-x,1/2+y,1/2-z
3 -x,-y,-z
4 -1/2+x,-1/2-y,-1/2+z
_cell_length_a 13.275(2)
_cell_length_b 25.376(5)
_cell_length_c 25.721(5)
_cell_angle_alpha 90
_cell_angle_beta 91.517(3)
_cell_angle_gamma 90
_cell_formula_units_Z 4
loop_
_atom_type_symbol
_atom_type_radius_bond
C 0.68
H 0.23
N 0.68
O 0.68
P 1.05
W 1.62
Zn 1.22
loop_
_atom_site_label
_atom_site_type_symbol
_atom_site_fract_x
_atom_site_fract_y
_atom_site_fract_z
W1 W 0.58354(8) 0.75776(5) 0.74984(4)
W2 W 0.71084(8) 0.66596(5) 0.68457(4)
W3 W 0.46997(8) 0.80419(5) 0.62483(4)
W4 W 0.18420(8) 0.67952(5) 0.65895(4)
W5 W 0.68569(8) 0.57492(5) 0.79839(4)
W6 W 0.57481(9) 0.57132(5) 0.60100(4)
W7 W 0.30865(8) 0.76705(5) 0.73377(4)
W8 W 0.55568(8) 0.66593(5) 0.86320(4)
W9 W 0.59490(9) 0.71019(5) 0.56015(4)
W10 W 0.55119(8) 0.47984(5) 0.71463(4)
W11 W 0.28024(8) 0.67368(5) 0.84584(4)
W12 W 0.34129(9) 0.71806(5) 0.54827(4)
W13 W 0.15846(8) 0.58571(5) 0.77017(4)
W14 W 0.30032(9) 0.48576(5) 0.69927(4)
W15 W 0.32313(9) 0.57862(5) 0.58804(4)
W16 W 0.39593(9) 0.56269(6) 0.92011(4)
W17 W 0.53062(9) 0.47060(6) 0.85716(4)
W18 W 0.27796(9) 0.47475(6) 0.84173(4)
P1 P 0.4473(5) 0.6727(3) 0.6662(2)
P2 P 0.4216(5) 0.5749(3) 0.7849(2)
O1 O 0.2106(12) 0.5399(8) 0.7198(6)
O2 O 0.5506(13) 0.5179(7) 0.6524(6)
O3 O 0.4602(12) 0.7115(7) 0.6191(6)
O4 O 0.6438(12) 0.5282(8) 0.7435(6)
O5 O 0.6762(12) 0.7037(7) 0.6229(6)
O6 O 0.6749(12) 0.6247(8) 0.8522(7)
O7 O 0.5749(12) 0.7832(7) 0.5791(6)
O8 O 0.5067(12) 0.6105(8) 0.9029(6)
O9 O 0.3633(12) 0.7980(7) 0.6735(6)
O10 O 0.4467(12) 0.6165(7) 0.6448(6)
O11 O 0.5408(12) 0.6812(7) 0.7030(6)
O12 O 0.7074(12) 0.7304(7) 0.7234(6)
O13 O 0.5805(12) 0.6372(7) 0.5627(6)
O14 O 0.4500(13) 0.5544(7) 0.5662(6)
O15 O 0.6257(12) 0.5233(8) 0.8422(6)
O16 O 0.1930(12) 0.7455(8) 0.6960(6)
O17 O 0.5189(12) 0.6056(7) 0.7960(6)
O18 O 0.4290(12) 0.5404(7) 0.7361(6)
O19 O 0.3421(13) 0.6420(7) 0.5505(6)
O20 O 0.2439(12) 0.7140(7) 0.5999(6)
O21 O 0.2747(12) 0.7193(7) 0.7907(6)
O22 O 0.6620(12) 0.6061(8) 0.6504(7)
O23 O 0.4205(12) 0.6888(8) 0.8531(6)
O24 O 0.3491(12) 0.6872(7) 0.6919(6)
O25 O 0.4091(12) 0.5374(8) 0.8318(6)
O26 O 0.4968(12) 0.5075(8) 0.9168(6)
O27 O 0.4750(13) 0.7162(7) 0.5196(6)
O28 O 0.3973(13) 0.4378(8) 0.8574(7)
O29 O 0.3271(13) 0.5249(7) 0.6402(6)
O30 O 0.3301(12) 0.6121(7) 0.7845(6)
O31 O 0.1627(12) 0.6367(8) 0.8241(6)
O32 O 0.0649(13) 0.6845(8) 0.6365(7)
O33 O 0.7060(12) 0.6287(8) 0.7489(6)
O34 O 0.3091(12) 0.6151(8) 0.8923(6)
O35 O 0.2654(13) 0.8231(8) 0.7611(6)
O36 O 0.3744(12) 0.7891(7) 0.5699(6)
O37 O 0.8070(13) 0.5567(8) 0.8082(7)
O38 O 0.5335(13) 0.4561(8) 0.7850(6)
O39 O 0.2331(12) 0.6158(8) 0.6275(6)
O40 O 0.1959(12) 0.5319(8) 0.8204(6)
O41 O 0.2949(13) 0.4621(8) 0.7695(6)
O42 O 0.4233(13) 0.4488(8) 0.6935(7)
O43 O 0.2909(12) 0.5102(8) 0.9076(6)
O44 O 0.1638(12) 0.6422(7) 0.7201(6)
O45 O 0.2218(14) 0.4416(8) 0.6723(7)
O46 O 0.8389(12) 0.6630(8) 0.6764(7)
O47 O 0.5912(12) 0.7117(7) 0.8069(6)
O48 O 0.4416(12) 0.7636(8) 0.7604(6)
O49 O 0.6830(13) 0.7202(8) 0.5137(7)
O50 O 0.5556(12) 0.7897(7) 0.6827(6)
O51 O 0.6277(14) 0.4299(8) 0.6974(7)
O52 O 0.4805(12) 0.8717(7) 0.6190(7)
O53 O 0.6040(14) 0.4204(8) 0.8807(7)
O54 O 0.3863(13) 0.5728(8) 0.9865(6)
O55 O 0.2331(13) 0.7147(8) 0.8915(7)
O56 O 0.1910(14) 0.4290(8) 0.8579(7)
O57 O 0.0307(13) 0.5727(8) 0.7662(7)
O58 O 0.6606(14) 0.5390(8) 0.5636(7)
O59 O 0.2711(13) 0.7332(8) 0.4934(6)
O60 O 0.2448(13) 0.5461(8) 0.5447(6)
O61 O 0.6310(13) 0.8122(9) 0.7784(6)
O62 O 0.5985(13) 0.7035(8) 0.9118(8)
Zn1 Zn 0.9365(3) 0.64333(18) 0.45005(15)
O63 O 0.9325(16) 0.6887(12) 0.3714(8)
H1 H 0.92554 0.72147 0.37729
H2 H 0.87970 0.68017 0.35400
O64 O 0.9290(16) 0.5708(10) 0.4031(9)
H3 H 0.87871 0.57233 0.38191
H4 H 0.91613 0.54478 0.42274
C1 C 0.6301(12) 0.6494(8) 0.3913(7)
N1 N 0.6175(11) 0.6118(7) 0.4316(7)
C2 C 0.7119(14) 0.6050(8) 0.4579(6)
N2 N 0.783(1) 0.6384(9) 0.4339(7)
N3 N 0.7324(14) 0.6658(8) 0.3928(7)
N4 N 0.9168(19) 0.5418(8) 0.5119(6)
N5 N 0.9288(14) 0.5972(8) 0.5159(6)
C3 C 0.9486(16) 0.6098(7) 0.5690(7)
N6 N 0.9487(16) 0.5621(9) 0.5978(5)
C4 C 0.9291(19) 0.5200(6) 0.5626(8)
N7 N 1.0082(16) 0.7826(9) 0.5381(9)
C5 C 0.9156(16) 0.7986(7) 0.5141(9)
N8 N 0.8799(13) 0.7566(9) 0.4822(8)
N9 N 0.9504(15) 0.7146(7) 0.4865(8)
C6 C 1.0297(13) 0.7307(9) 0.5210(9)
N10 N 0.9281(14) 0.4576(10) 0.7189(8)
N11 N 0.9340(17) 0.4673(10) 0.7732(9)
C7 C 1.0154(17) 0.4372(11) 0.7945(7)
H5 H 1.03601 0.43625 0.82936
N12 N 1.0597(15) 0.4090(9) 0.7533(9)
H6 H 1.11039 0.38798 0.75620
C8 C 1.0058(17) 0.4216(10) 0.7066(7)
H7 H 1.01902 0.40854 0.67365
N13 N 1.280(3) 0.9778(13) 0.4563(14)
H8 H 1.28876 1.00289 0.43435
C9 C 1.190(2) 0.9487(16) 0.4622(14)
H9 H 1.12979 0.95328 0.44311
N14 N 1.207(3) 0.9112(12) 0.5025(14)
N15 N 1.307(3) 0.9172(15) 0.5215(13)
C10 C 1.353(2) 0.9584(16) 0.4929(16)
H10 H 1.41843 0.97054 0.49734
C11 C 0.436(2) 0.6165(13) 0.4273(12)
H11 H 0.43271 0.64309 0.45436
H12 H 0.43710 0.63445 0.39406
C12 C 0.529(2) 0.5848(13) 0.4348(11)
H13 H 0.52792 0.54879 0.44139
C13 C 0.344(2) 0.5831(13) 0.4290(12)
H14 H 0.34386 0.55924 0.39950
H15 H 0.34752 0.56189 0.46033
N16 N 0.2422(12) 0.6552(8) 0.3952(7)
C14 C 0.1417(14) 0.6733(7) 0.4001(7)
H16 H 0.11275 0.70198 0.38290
N17 N 0.093(1) 0.6398(8) 0.4359(7)
C15 C 0.1635(13) 0.6011(7) 0.4531(6)
H17 H 0.15145 0.57420 0.47673
N18 N 0.2558(11) 0.6106(7) 0.4280(7)
C16 C 0.961(2) 0.5566(15) 0.6516(12)
H18 H 0.97726 0.59070 0.66655
H19 H 1.01771 0.53331 0.65885
C17 C 0.851(3) 0.4759(17) 0.6781(14)
H20 H 0.78281 0.46819 0.68849
H21 H 0.86256 0.45989 0.64459
C18 C 1.071(3) 0.809(2) 0.572(2)
H22 H 1.05764 0.80947 0.60702
C19 C 1.155(4) 0.837(2) 0.553(2)
H23 H 1.19511 0.81496 0.53105
H24 H 1.19696 0.85031 0.58164
C20 C 1.109(4) 0.881(2) 0.5233(19)
H25 H 1.06919 0.90323 0.54529
H26 H 1.06673 0.86773 0.49472
C21 C 0.871(3) 0.5352(17) 0.6771(14)
H27 H 0.81227 0.55166 0.66058
H28 H 0.87348 0.54723 0.71292
Zn1* Zn -0.0635(3) 0.64333(18) 0.45005(15)
N17* N 1.093(1) 0.6398(8) 0.4359(7)
#END
