
#######################################################################
#
#                 Cambridge Crystallographic Data Centre
#                                CCDC
#
#######################################################################
#
# If this CIF has been generated from an entry in the Cambridge
# Structural Database, then it will include bibliographic, chemical,
# crystal, experimental, refinement or atomic coordinate data resulting
# from the CCDC's data processing and validation procedures.
#
#######################################################################

data_CSD_CIF_EXOFIJ
_audit_creation_date 2021-07-20
_audit_creation_method CSD-ConQuest-V1
_database_code_CSD EXOFIJ
_database_code_depnum_ccdc_archive 'CCDC 1526098'
_chemical_formula_sum 'C10 H21 N2 O6.5 P2 Zn1'
_chemical_formula_moiety
;
(C8 H8 O6 P2 Zn1 2-)n,2(C1 H6 N1 1+),0.5(H2 O1)
;
_journal_coden_Cambridge 1122
_journal_volume 35
_journal_year 2017
_journal_page_first 1411
_journal_name_full 'Chin.J.Chem. '
loop_
_publ_author_name
"Li Zhang"
"Lei Liu"
"Jinxiang Dong"
_chemical_name_systematic
;
catena-[bis(methylammonium) 
(\m-[1,4-phenylenebis(methylene)]bis(phosphonate))-zinc hemihydrate]
;
_cell_volume   1538.524
_exptl_crystal_colour 'colorless'
_exptl_crystal_density_diffrn 1.729
_exptl_crystal_description 'plate'
_diffrn_ambient_temperature 298.1
#These two values have been output from a single CSD field.
_refine_ls_R_factor_gt 0.0777
_refine_ls_wR_factor_gt 0.0777
_symmetry_cell_setting monoclinic
_symmetry_space_group_name_H-M 'C 2/c'
_symmetry_Int_Tables_number 15
loop_
_symmetry_equiv_pos_site_id
_symmetry_equiv_pos_as_xyz
1 x,y,z
2 -x,y,1/2-z
3 1/2+x,1/2+y,z
4 1/2-x,1/2+y,1/2-z
5 -x,-y,-z
6 x,-y,-1/2+z
7 -1/2-x,-1/2-y,-z
8 -1/2+x,-1/2-y,-1/2+z
_cell_length_a 22.6876(19)
_cell_length_b 8.7376(7)
_cell_length_c 8.1673(9)
_cell_angle_alpha 90
_cell_angle_beta 108.146(2)
_cell_angle_gamma 90
_cell_formula_units_Z 4
loop_
_atom_type_symbol
_atom_type_radius_bond
C 0.68
H 0.23
N 0.68
O 0.68
P 1.05
Zn 1.22
loop_
_atom_site_label
_atom_site_type_symbol
_atom_site_fract_x
_atom_site_fract_y
_atom_site_fract_z
Zn1 Zn 0.50000 0.54383(15) -0.75000
P1 P 0.4230(1) 0.7017(3) -0.5110(3)
O1 O 0.4691(3) 0.6876(7) -0.6131(8)
O2 O 0.4292(3) 0.5743(7) -0.3838(8)
O3 O 0.4294(3) 0.8574(7) -0.4297(8)
C1 C 0.3458(4) 0.6902(12) -0.6609(11)
H1 H 0.34160 0.76550 -0.75100
H2 H 0.34000 0.58990 -0.71440
C2 C 0.2952(4) 0.7165(12) -0.5802(11)
C3 C 0.2747(5) 0.8647(14) -0.5678(14)
H3 H 0.29150 0.94470 -0.61400
C4 C 0.2299(4) 0.8974(13) -0.4881(13)
H4 H 0.21730 0.99800 -0.48220
O4 O 0.50000 1.049(4) -0.25000
H5 H 0.47480 1.11250 -0.22250
N1 N 0.4296(4) 0.8657(9) -0.0918(10)
H6 H 0.43310 0.87120 -0.19720
H7 H 0.46310 0.82060 -0.02140
H8 H 0.42610 0.95970 -0.05370
C5 C 0.3754(5) 0.7781(13) -0.0969(14)
H9 H 0.36340 0.80060 0.00330
H10 H 0.38460 0.67090 -0.09870
H11 H 0.34220 0.80410 -0.19860
P1F P 0.0770(1) 0.7983(3) -0.4890(3)
O1F O 0.0309(3) 0.8124(7) -0.3869(8)
O2F O 0.0708(3) 0.9257(7) -0.6162(8)
O3F O 0.0706(3) 0.6426(7) -0.5703(8)
C1F C 0.1542(4) 0.8098(12) -0.3391(11)
H1F H 0.15840 0.73450 -0.24900
H2F H 0.16000 0.91010 -0.28560
C2F C 0.2048(4) 0.7835(12) -0.4198(11)
C3F C 0.2253(5) 0.6353(14) -0.4322(14)
H3F H 0.20850 0.55530 -0.38600
C4F C 0.2701(4) 0.6026(13) -0.5119(13)
H4F H 0.28270 0.50200 -0.51780
Zn1B Zn 0.00000 1.04383(15) -0.75000
Zn1D Zn 0.50000 0.45617(15) -0.25000
Zn1F Zn 0.00000 0.95617(15) -0.25000
O1A O 0.5309(3) 0.6876(7) -0.8869(8)
O2D O 0.5708(3) 0.4257(7) -0.6162(8)
O2E O 0.4292(3) 0.4257(7) -0.8838(8)
H5A H 0.52520 1.11250 -0.27750
#END
