
#######################################################################
#
#                 Cambridge Crystallographic Data Centre
#                                CCDC
#
#######################################################################
#
# If this CIF has been generated from an entry in the Cambridge
# Structural Database, then it will include bibliographic, chemical,
# crystal, experimental, refinement or atomic coordinate data resulting
# from the CCDC's data processing and validation procedures.
#
#######################################################################

data_CSD_CIF_EXUJAL
_audit_creation_date 2021-07-20
_audit_creation_method CSD-ConQuest-V1
_database_code_CSD EXUJAL
_database_code_depnum_ccdc_archive 'CCDC 1545406'
_chemical_formula_sum 'C20 H36 N4 O18 U2'
_chemical_formula_moiety
;
(C4 N2 O18 U2 2-)n,2(C8 H18 N1 1+)
;
_journal_coden_Cambridge 1240
_journal_volume 327
_journal_year 2021
_journal_page_first 1375
_journal_name_full 'J.Radioanalytical Nucl.Chem. '
loop_
_publ_author_name
"Yin Su"
"Yaxuan Zou"
"Xueling Qiao"
"Jiangang He"
_chemical_name_systematic
;
catena-[bis(cyclohexyldimethylammonium) 
bis(\m-oxalato)-bis(nitrato)-tetrakis(oxido)-di-uranium(vi)]
;
_cell_volume   1557.479
_exptl_crystal_colour 'yellow'
_exptl_crystal_density_diffrn 2.338
_exptl_special_details
;
, Luminescent
Light-sensitive

;
_exptl_crystal_description 'block'
_diffrn_ambient_temperature 293
#These two values have been output from a single CSD field.
_refine_ls_R_factor_gt 0.0357
_refine_ls_wR_factor_gt 0.0357
_symmetry_cell_setting monoclinic
_symmetry_space_group_name_H-M 'P 21/c'
_symmetry_Int_Tables_number 14
loop_
_symmetry_equiv_pos_site_id
_symmetry_equiv_pos_as_xyz
1 x,y,z
2 -x,1/2+y,1/2-z
3 -x,-y,-z
4 x,-1/2-y,-1/2+z
_cell_length_a 11.3688(6)
_cell_length_b 11.0238(5)
_cell_length_c 13.4478(8)
_cell_angle_alpha 90
_cell_angle_beta 112.465(6)
_cell_angle_gamma 90
_cell_formula_units_Z 2
loop_
_atom_type_symbol
_atom_type_radius_bond
C 0.68
H 0.23
N 0.68
O 0.68
U 1.96
loop_
_atom_site_label
_atom_site_type_symbol
_atom_site_fract_x
_atom_site_fract_y
_atom_site_fract_z
U1 U 0.21829(2) 0.61032(2) 0.42968(2)
O1 O 0.4425(5) 0.6438(4) 0.4531(4)
O2 O 0.0023(5) 0.6327(5) 0.4323(5)
N1 N 0.1624(7) 0.8337(5) 0.2961(5)
O3 O -0.1400(5) 0.5637(4) 0.4965(4)
O4 O 0.6390(4) 0.5668(4) 0.5043(4)
O5 O 0.1366(7) 0.9196(5) 0.2354(5)
O6 O 0.2706(5) 0.7849(5) 0.3321(4)
C1 C 0.5236(6) 0.5599(6) 0.4870(5)
O7 O 0.0841(5) 0.7889(5) 0.3326(5)
C2 C -0.0397(6) 0.5561(6) 0.4799(5)
O8 O 0.2663(5) 0.6855(5) 0.5539(4)
O9 O 0.1676(5) 0.5368(4) 0.3052(4)
C3 C 0.3135(8) 0.1401(7) 0.5442(6)
H1 H 0.38740 0.17660 0.53510
N2 N 0.1935(7) 0.1956(6) 0.4578(5)
H2 H 0.18850 0.27940 0.48030
C4 C 0.3216(10) 0.1719(8) 0.6548(6)
H3 H 0.25120 0.13500 0.66770
H4 H 0.31580 0.25920 0.66110
C5 C 0.3217(8) 0.0039(6) 0.5311(6)
H5 H 0.31700 -0.01490 0.45920
H6 H 0.25170 -0.03630 0.54200
C6 C 0.4478(10) -0.0389(8) 0.6143(7)
H7 H 0.45400 -0.12620 0.60820
H8 H 0.51660 -0.00230 0.59880
C7 C 0.4468(11) 0.1266(8) 0.7376(7)
H9 H 0.44940 0.14330 0.80920
H10 H 0.51650 0.17020 0.72900
C8 C 0.2069(10) 0.2035(8) 0.3510(6)
H11 H 0.28600 0.24230 0.36030
H12 H 0.13760 0.24980 0.30170
H13 H 0.20570 0.12330 0.32280
C9 C 0.0713(10) 0.1371(8) 0.4462(8)
H14 H 0.07030 0.05510 0.42190
H15 H 0.00190 0.18130 0.39470
H16 H 0.06260 0.13710 0.51440
C10 C 0.4644(11) -0.0086(9) 0.7264(7)
H17 H 0.54890 -0.03260 0.77510
H18 H 0.40270 -0.05320 0.74570
O1B O 0.5575(5) 0.3562(4) 0.5469(4)
C1B C 0.4764(6) 0.4401(6) 0.5130(5)
O4B O 0.3610(4) 0.4332(4) 0.4957(4)
O2B O -0.0023(5) 0.3673(5) 0.5677(5)
C2B C 0.0397(6) 0.4439(6) 0.5201(5)
O3B O 0.1400(5) 0.4363(4) 0.5035(4)
U1B U -0.21829(2) 0.38968(2) 0.57032(2)
N1B N -0.1624(7) 0.1663(5) 0.7039(5)
O5B O -0.1366(7) 0.0804(5) 0.7646(5)
O6B O -0.2706(5) 0.2151(5) 0.6679(4)
O7B O -0.0841(5) 0.2111(5) 0.6674(5)
O8B O -0.2663(5) 0.3145(5) 0.4461(4)
O9B O -0.1676(5) 0.4632(4) 0.6948(4)
U1B* U 0.78171(2) 0.38968(2) 0.57032(2)
O1B* O -0.4425(5) 0.3562(4) 0.5469(4)
O4* O -0.3610(4) 0.5668(4) 0.5043(4)
#END
