
#######################################################################
#
#                 Cambridge Crystallographic Data Centre
#                                CCDC
#
#######################################################################
#
# If this CIF has been generated from an entry in the Cambridge
# Structural Database, then it will include bibliographic, chemical,
# crystal, experimental, refinement or atomic coordinate data resulting
# from the CCDC's data processing and validation procedures.
#
#######################################################################

data_CSD_CIF_EXUYEC
_audit_creation_date 2011-10-27
_audit_creation_method CSD-ConQuest-V1
_database_code_CSD EXUYEC
_database_code_depnum_ccdc_archive 'CCDC 813950'
_chemical_formula_sum 'C70 H66 Mg3 N8 O20'
_chemical_formula_moiety
;
(C56 H40 Mg3 N4 O18 2-)n,2n(C7 H11 N2 1+),2n(H2 O1)
;
_journal_coden_Cambridge 1295
_journal_volume 14
_journal_year 2011
_journal_page_first 1132
_journal_name_full 'Inorg.Chem.Commun. '
loop_
_publ_author_name
"Zhao-Feng Wu"
"Bing Hu"
"Mei-Ling Feng"
"Xiao-Ying Huang"
"Yu-Bao Zhao"
_chemical_name_systematic
;
catena-(bis(3-allyl-1-methylimidazolium) 
bis(\m~4~-naphthalene-1,4-dicarboxylato)-bis(\m~2~-naphthalene-1,4-dicarboxyla
to)-bis(\m~2~-aqua)-bis(1-methylimidazole)-tri-magnesium dihydrate)
;
_cell_volume   3424.645
_exptl_crystal_colour 'brown'
_exptl_crystal_density_diffrn 1.37
_exptl_crystal_description 'block'
_diffrn_ambient_temperature 293
_refine_special_details
;
C33,C34,C35 and C33B,C34B,C35B disordered over two sites with occupancies 
0.872:0.128.
;
#These two values have been output from a single CSD field.
_refine_ls_R_factor_gt 0.0402
_refine_ls_wR_factor_gt 0.0402
_symmetry_cell_setting monoclinic
_symmetry_space_group_name_H-M 'P 21/n'
_symmetry_Int_Tables_number 14
loop_
_symmetry_equiv_pos_site_id
_symmetry_equiv_pos_as_xyz
1 x,y,z
2 1/2-x,1/2+y,1/2-z
3 -x,-y,-z
4 -1/2+x,-1/2-y,-1/2+z
_cell_length_a 15.5337(3)
_cell_length_b 13.9515(2)
_cell_length_c 17.4752(4)
_cell_angle_alpha 90
_cell_angle_beta 115.275(3)
_cell_angle_gamma 90
_cell_formula_units_Z 2
loop_
_atom_type_symbol
_atom_type_radius_bond
C 0.68
H 0.23
Mg 1.41
N 0.68
O 0.68
loop_
_atom_site_label
_atom_site_type_symbol
_atom_site_fract_x
_atom_site_fract_y
_atom_site_fract_z
Mg1 Mg 0.76774(3) 0.48722(4) 0.50434(3)
Mg2 Mg 1.00000 0.50000 0.50000
O1 O 0.78756(8) 0.38102(9) 0.43265(9)
O2 O 0.93603(8) 0.37318(8) 0.44535(7)
O3 O 0.60358(7) 0.07897(8) 0.09521(7)
O4 O 0.74100(8) 0.08352(10) 0.08454(8)
O5 O 0.76806(9) 0.38695(11) 0.58889(9)
O6 O 0.91645(9) 0.33819(11) 0.65622(10)
O7 O 0.59528(9) 0.11795(12) 0.81771(10)
O8 O 0.74055(9) 0.09379(10) 0.91839(9)
O9 O 0.92385(7) 0.49704(7) 0.57481(6)
H1 H 0.93030 0.54090 0.60960
H2 H 0.93280 0.44580 0.60030
N1 N 0.61483(9) 0.47344(10) 0.44353(9)
N2 N 0.46346(10) 0.50606(12) 0.36802(11)
C1 C 0.85107(11) 0.34599(11) 0.41627(10)
C2 C 0.82058(10) 0.26753(11) 0.35052(10)
C3 C 0.84721(12) 0.27553(12) 0.28573(11)
H3 H 0.89320 0.32020 0.28930
C4 C 0.80576(12) 0.21693(13) 0.21387(11)
H4 H 0.82490 0.22340 0.17050
C5 C 0.73773(10) 0.15039(11) 0.20623(10)
C6 C 0.71379(10) 0.13419(11) 0.27557(10)
C7 C 0.65146(12) 0.05985(12) 0.27599(11)
H5 H 0.62200 0.02150 0.22830
C8 C 0.63426(14) 0.04392(15) 0.34466(12)
H6 H 0.59330 -0.00520 0.34370
C9 C 0.67785(15) 0.10098(16) 0.41734(13)
H7 H 0.66630 0.08880 0.46440
C10 C 0.73655(13) 0.17362(14) 0.41936(11)
H8 H 0.76410 0.21150 0.46760
C11 C 0.75661(11) 0.19271(12) 0.34927(10)
C12 C 0.68988(11) 0.09881(11) 0.12224(10)
C13 C 0.83195(12) 0.33976(13) 0.64457(11)
C14 C 0.80045(12) 0.28306(13) 0.70128(11)
C15 C 0.73698(15) 0.20999(15) 0.66830(12)
H9 H 0.71830 0.19190 0.61220
C16 C 0.69956(15) 0.16175(15) 0.71745(12)
H10 H 0.65600 0.11240 0.69330
C17 C 0.72547(12) 0.18541(13) 0.80013(11)
C18 C 0.79216(12) 0.26039(13) 0.83744(11)
C19 C 0.82163(15) 0.28971(16) 0.92234(13)
H11 H 0.79840 0.25790 0.95650
C20 C 0.8838(2) 0.3642(2) 0.95479(15)
H12 H 0.90290 0.38240 1.01090
C21 C 0.9190(2) 0.41331(19) 0.90421(16)
H13 H 0.96030 0.46470 0.92670
C22 C 0.89341(16) 0.38686(16) 0.82350(14)
H14 H 0.91800 0.41970 0.79100
C23 C 0.82972(12) 0.30990(13) 0.78713(11)
C24 C 0.68361(13) 0.12838(14) 0.84952(12)
C25 C 0.55987(13) 0.40562(14) 0.45833(13)
H15 H 0.58340 0.35370 0.49480
C26 C 0.46684(13) 0.42503(16) 0.41236(14)
H16 H 0.41530 0.39000 0.41120
C27 C 0.55384(12) 0.53271(14) 0.38907(12)
H17 H 0.57110 0.58670 0.36760
C28 C 0.37749(15) 0.5557(2) 0.31043(16)
H18 H 0.39470 0.61360 0.29070
H19 H 0.33910 0.57120 0.33960
H20 H 0.34200 0.51500 0.26310
N3 N 0.57882(11) 0.34826(12) 0.20009(12)
N4 N 0.59412(13) 0.34324(13) 0.08309(13)
C29 C 0.63398(17) 0.42399(18) 0.20035(19)
H21 H 0.66030 0.46930 0.24320
C30 C 0.64346(18) 0.42157(18) 0.1286(2)
H22 H 0.67750 0.46510 0.11190
C31 C 0.55635(14) 0.30004(15) 0.12833(14)
H23 H 0.51970 0.24460 0.11270
C32 C 0.55113(17) 0.32502(18) 0.26725(16)
H24 H 0.49520 0.36080 0.25950
H25 H 0.60200 0.34110 0.32090
H26 H 0.53780 0.25770 0.26580
C33 C 0.5900(8) 0.3117(3) 0.0002(4)
H27 H 0.65380 0.29750 0.00660
H28 H 0.55270 0.25340 -0.01760
C34 C 0.5480(3) 0.3846(3) -0.0644(2)
H29 H 0.48440 0.40010 -0.08040
C35 C 0.5928(4) 0.4298(4) -0.1013(4)
H30 H 0.65650 0.41610 -0.08690
H31 H 0.56130 0.47580 -0.14230
O10 O 0.4767(2) 0.2041(3) 0.6663(2)
H32 H 0.51660 0.18690 0.71280
C36? C 0.585(6) 0.294(3) 0.004(3)
C37? C 0.625(2) 0.3589(19) -0.0371(16)
C38? C 0.565(3) 0.367(3) -0.1168(18)
H33? H 0.62010 0.23420 0.01790
H34? H 0.51900 0.28090 -0.03220
H35? H 0.68330 0.38990 -0.01130
H36? H 0.50800 0.33320 -0.13760
H37? H 0.57990 0.40590 -0.15260
Mg1B Mg 1.23226(3) 0.51278(4) 0.49566(3)
Mg1A Mg 0.73226(3) -0.01278(4) -0.00434(3)
Mg1A* Mg 0.73226(3) -0.01278(4) 0.99566(3)
Mg1C Mg 1.26774(3) 1.01278(4) 0.00434(3)
Mg1C* Mg 1.26774(3) 1.01278(4) 1.00434(3)
Mg2A Mg 0.50000 0.00000 0.00000
Mg2A* Mg 1.50000 1.00000 1.00000
O1B O 1.21244(8) 0.61898(9) 0.56735(9)
O2B O 1.06397(8) 0.62682(8) 0.55465(7)
O3B O 1.39642(7) 0.92103(8) 0.90479(7)
O3A O 0.89642(7) 0.57897(8) 0.40479(7)
O3C O 1.10358(7) 0.42103(8) 0.59521(7)
O4B O 1.25900(8) 0.91648(10) 0.91546(8)
O4A O 0.75900(8) 0.58352(10) 0.41546(8)
O4C O 1.24100(8) 0.41648(10) 0.58454(8)
O5B O 1.23194(9) 0.61305(11) 0.41111(9)
O6B O 1.08355(9) 0.66181(11) 0.34378(10)
O7B O 1.40472(9) 0.88205(12) 0.18229(10)
O8B O 1.25945(9) 0.90621(10) 0.08161(9)
O8A O 0.75945(9) 0.59379(10) 0.58161(9)
O8C O 1.24055(9) 0.40621(10) 0.41839(9)
O9B O 1.07615(7) 0.50296(7) 0.42519(6)
H1B H 1.06970 0.45910 0.39040
H2B H 1.06720 0.55420 0.39970
N1B N 1.38517(9) 0.52656(10) 0.55647(9)
N2B N 1.53654(10) 0.49394(12) 0.63198(11)
C1B C 1.14893(11) 0.65401(11) 0.58373(10)
C2B C 1.17942(10) 0.73247(11) 0.64948(10)
C3B C 1.15279(12) 0.72447(12) 0.71427(11)
H3B H 1.10680 0.67980 0.71070
C4B C 1.19424(12) 0.78307(13) 0.78613(11)
H4B H 1.17510 0.77660 0.82950
C5B C 1.26227(10) 0.84961(11) 0.79377(10)
C6B C 1.28621(10) 0.86581(11) 0.72443(10)
C7B C 1.34854(12) 0.94015(12) 0.72401(11)
H5B H 1.37800 0.97850 0.77170
C8B C 1.36574(14) 0.95608(15) 0.65534(12)
H6B H 1.40670 1.00520 0.65630
C9B C 1.32215(15) 0.89902(16) 0.58266(13)
H7B H 1.33370 0.91120 0.53560
C10B C 1.26345(13) 0.82638(14) 0.58064(11)
H8B H 1.23590 0.78850 0.53240
C11B C 1.24339(11) 0.80729(12) 0.65073(10)
C12B C 1.31012(11) 0.90119(11) 0.87776(10)
C13B C 1.16805(12) 0.66024(13) 0.35543(11)
C14B C 1.19955(12) 0.71694(13) 0.29872(11)
C15B C 1.26302(15) 0.79001(15) 0.33170(12)
H9B H 1.28170 0.80810 0.38780
C16B C 1.30044(15) 0.83825(15) 0.28255(12)
H10B H 1.34400 0.88760 0.30670
C17B C 1.27453(12) 0.81459(13) 0.19987(11)
C18B C 1.20784(12) 0.73961(13) 0.16256(11)
C19B C 1.17837(15) 0.71029(16) 0.07766(13)
H11B H 1.20160 0.74210 0.04350
C20B C 1.1162(2) 0.6358(2) 0.04521(15)
H12B H 1.09710 0.61760 -0.01090
C21B C 1.0810(2) 0.58669(19) 0.09579(16)
H13B H 1.03970 0.53530 0.07330
C22B C 1.10659(16) 0.61314(16) 0.17650(14)
H14B H 1.08200 0.58030 0.20900
C23B C 1.17028(12) 0.69010(13) 0.21287(11)
C24B C 1.31639(13) 0.87162(14) 0.15048(12)
C25B C 1.44013(13) 0.59438(14) 0.54167(13)
H15B H 1.41660 0.64630 0.50520
C26B C 1.53316(13) 0.57497(16) 0.58764(14)
H16B H 1.58470 0.61000 0.58880
C27B C 1.44616(12) 0.46729(14) 0.61093(12)
H17B H 1.42890 0.41330 0.63240
C28B C 1.62251(15) 0.4443(2) 0.68957(16)
H18B H 1.60530 0.38640 0.70930
H19B H 1.66090 0.42880 0.66040
H20B H 1.65800 0.48500 0.73690
#END
