
#######################################################################
#
#                 Cambridge Crystallographic Data Centre
#                                CCDC
#
#######################################################################
#
# If this CIF has been generated from an entry in the Cambridge
# Structural Database, then it will include bibliographic, chemical,
# crystal, experimental, refinement or atomic coordinate data resulting
# from the CCDC's data processing and validation procedures.
#
#######################################################################

data_CSD_CIF_EYAFUH03
_audit_creation_date 2016-10-28
_audit_creation_method CSD-ConQuest-V1
_database_code_CSD EYAFUH03
_database_code_depnum_ccdc_archive 'CCDC 908610'
_chemical_formula_sum 'C38 H80 Cu4 N6 O32'
_chemical_formula_moiety
;
6(C4 H12 N1 1+),n(C14 Cu4 O28 6-),4(H2 O1)
;
_journal_coden_Cambridge 1078
_journal_year 2016
_journal_name_full 'CSD Communication(Private Communication) '
loop_
_publ_author_name
"Zhang Bin"
_chemical_name_systematic
;
catena-[hexakis(diethylammonium) 
pentakis(\m-oxalato)-bis(oxalato)-tetra-copper(ii) tetrahydrate]
;
_cell_volume   1548.644
_exptl_crystal_colour 'blue'
_exptl_crystal_density_diffrn 1.487
_exptl_crystal_description 'block'
_diffrn_ambient_temperature 180
#These two values have been output from a single CSD field.
_refine_ls_R_factor_gt 0.0361
_refine_ls_wR_factor_gt 0.0361
_symmetry_cell_setting triclinic
_symmetry_space_group_name_H-M 'P -1'
_symmetry_Int_Tables_number 2
loop_
_symmetry_equiv_pos_site_id
_symmetry_equiv_pos_as_xyz
1 x,y,z
2 -x,-y,-z
_cell_length_a 9.1705(2)
_cell_length_b 13.4229(3)
_cell_length_c 14.2702(5)
_cell_angle_alpha 113.960(1)
_cell_angle_beta 92.380(1)
_cell_angle_gamma 102.744(2)
_cell_formula_units_Z 1
loop_
_atom_type_symbol
_atom_type_radius_bond
C 0.68
H 0.23
Cu 1.32
N 0.68
O 0.68
loop_
_atom_site_label
_atom_site_type_symbol
_atom_site_fract_x
_atom_site_fract_y
_atom_site_fract_z
Cu1 Cu 0.32932(3) 0.29715(2) -0.00600(2)
Cu2 Cu 0.21833(3) 0.42991(2) 0.37749(2)
O1 O 0.19241(19) 0.37595(15) 0.08501(12)
O2 O 0.3257(2) 0.22806(15) 0.11931(13)
O3 O 0.15232(19) 0.44149(15) 0.24929(12)
O4 O 0.2698(2) 0.29370(14) 0.28144(13)
O5 O 0.15809(18) 0.17455(14) -0.10011(13)
O6 O 0.1178(2) 0.00504(16) -0.23361(15)
O7 O 0.45271(18) 0.20556(14) -0.09410(13)
O8 O 0.4203(2) 0.04388(17) -0.23454(18)
O9 O 0.16207(18) 0.56835(14) 0.46676(13)
O10 O 0.01066(18) 0.64138(14) 0.57853(13)
O11 O 0.31874(18) 0.42104(15) 0.49841(12)
O12 O 0.53046(18) 0.46711(15) 0.60428(13)
O13 O 0.50549(19) 0.42546(14) 0.07626(12)
O14 O 0.65018(18) 0.59132(14) 0.09746(12)
C1 C 0.2012(2) 0.3772(2) 0.17348(18)
C2 C 0.2739(3) 0.2912(2) 0.19128(18)
C3 C 0.1999(3) 0.0944(2) -0.16797(19)
C4 C 0.3729(3) 0.1147(2) -0.1661(2)
C5 C 0.0489(3) 0.55980(19) 0.51316(17)
C6 C 0.4568(3) 0.4680(2) 0.52949(17)
C7 C 0.5454(3) 0.5047(2) 0.04987(17)
O15 O 0.8187(2) -0.11212(19) -0.34039(19)
H1 H 0.790(7) -0.165(6) -0.315(5)
H2 H 0.885(8) -0.068(6) -0.286(5)
O16 O 0.7111(3) 0.07681(19) -0.2705(2)
H3 H 0.597(8) 0.062(5) -0.269(5)
H4 H 0.745(8) 0.012(6) -0.281(5)
N1 N 0.8616(3) 0.2098(2) -0.0719(2)
H5 H 0.81090 0.16190 -0.13630
H6 H 0.96050 0.20910 -0.07230
C8 C 0.8490(3) 0.3272(3) -0.0485(3)
H7 H 0.74120 0.32780 -0.05190
H8 H 0.90050 0.37950 0.02250
C9 C 0.9187(4) 0.3661(3) -0.1242(3)
H9 H 0.90950 0.44260 -0.10780
H10 H 1.02580 0.36650 -0.12010
H11 H 0.86670 0.31490 -0.19440
C10 C 0.8009(4) 0.1688(4) 0.0033(4)
H12 H 0.85710 0.21980 0.07340
H13 H 0.69350 0.17020 0.00470
C11 C 0.8127(7) 0.0548(5) -0.0226(6)
H14 H 0.77140 0.03000 0.02890
H15 H 0.75560 0.00390 -0.09150
H16 H 0.91910 0.05350 -0.02280
N2 N 0.7419(3) 0.1710(2) 0.3774(2)
H17 H 0.74680 0.10520 0.32470
H18 H 0.83210 0.22220 0.38940
C12 C 0.6191(4) 0.2131(4) 0.3412(5)
H19 H 0.51880 0.16060 0.33040
H20 H 0.61800 0.28850 0.39430
C13 C 0.6511(6) 0.2202(5) 0.2415(6)
H21 H 0.57290 0.24720 0.21730
H22 H 0.75010 0.27270 0.25290
H23 H 0.65120 0.14520 0.18910
C14 C 0.7240(9) 0.1515(4) 0.4699(4)
H24 H 0.62260 0.10100 0.46050
H25 H 0.73050 0.22420 0.52990
C15 C 0.8416(10) 0.0995(6) 0.4926(4)
H26 H 0.82540 0.08790 0.55530
H27 H 0.83420 0.02680 0.43410
H28 H 0.94220 0.15000 0.50350
N3 N -0.3277(2) 0.64537(18) 0.30888(16)
H29 H -0.38910 0.59730 0.32960
H30 H -0.34930 0.61590 0.23860
C16 C -0.3710(7) 0.7556(3) 0.3527(3)
H31 H -0.35840 0.78620 0.42930
H32 H -0.30340 0.81080 0.33380
C17 C -0.5302(8) 0.7395(6) 0.3121(5)
H33 H -0.55630 0.81200 0.34140
H34 H -0.54220 0.71020 0.23640
H35 H -0.59710 0.68570 0.33170
C18 C -0.1715(4) 0.6445(4) 0.3343(3)
H36 H -0.14430 0.67590 0.41050
H37 H -0.10190 0.69240 0.30890
C19 C -0.1552(6) 0.5286(6) 0.2862(4)
H38 H -0.05060 0.52880 0.30350
H39 H -0.22330 0.48150 0.31210
H40 H -0.18100 0.49800 0.21070
O9A O -0.16207(18) 0.43165(14) 0.53324(13)
C5A C -0.0489(3) 0.44020(19) 0.48684(17)
O10A O -0.01066(18) 0.35862(14) 0.42147(13)
O11A O 0.68126(18) 0.57896(15) 0.50159(12)
C6A C 0.5432(3) 0.5320(2) 0.47051(17)
O12A O 0.46954(18) 0.53289(15) 0.39572(13)
O13A O 0.49451(19) 0.57454(14) -0.07626(12)
C7A C 0.4546(3) 0.4953(2) -0.04987(17)
O14A O 0.34982(18) 0.40868(14) -0.09746(12)
Cu1A Cu -0.32932(3) 0.70285(2) 1.00600(2)
Cu2A Cu -0.21833(3) 0.57009(2) 0.62251(2)
O1A O -0.19241(19) 0.62405(15) 0.91499(12)
O2A O -0.3257(2) 0.77194(15) 0.88069(13)
O3A O -0.15232(19) 0.55851(15) 0.75071(12)
O4A O -0.2698(2) 0.70630(14) 0.71856(13)
O5A O -0.15809(18) 0.82545(14) 1.10011(13)
O6A O -0.1178(2) 0.99496(16) 1.23361(15)
O7A O -0.45271(18) 0.79444(14) 1.09410(13)
O8A O -0.4203(2) 0.95612(17) 1.23454(18)
C1A C -0.2012(2) 0.6228(2) 0.82652(18)
C2A C -0.2739(3) 0.7088(2) 0.80872(18)
C3A C -0.1999(3) 0.9056(2) 1.16797(19)
C4A C -0.3729(3) 0.8853(2) 1.1661(2)
Cu1A* Cu 0.67068(3) 0.70285(2) 0.00600(2)
Cu2A* Cu 0.78167(3) 0.57009(2) 0.62251(2)
O11A* O -0.31874(18) 0.57896(15) 0.50159(12)
O12* O -0.46954(18) 0.46711(15) 0.60428(13)
O13A* O -0.50549(19) 0.57454(14) 0.92374(12)
O14* O -0.34982(18) 0.59132(14) 1.09746(12)
#END
