
#######################################################################
#
#                 Cambridge Crystallographic Data Centre
#                                CCDC
#
#######################################################################
#
# If this CIF has been generated from an entry in the Cambridge
# Structural Database, then it will include bibliographic, chemical,
# crystal, experimental, refinement or atomic coordinate data resulting
# from the CCDC's data processing and validation procedures.
#
#######################################################################

data_CSD_CIF_EYAFUH05
_audit_creation_date 2017-05-08
_audit_creation_method CSD-ConQuest-V1
_database_code_CSD EYAFUH05
_database_code_depnum_ccdc_archive 'CCDC 1057038'
_chemical_formula_sum 'C38 H80 Cu4 N6 O32'
_chemical_formula_moiety
;
(C14 Cu4 O28 6-)n,6(C4 H12 N1 1+),4(H2 O1)
;
_journal_coden_Cambridge 1078
_journal_year 2017
_journal_name_full 'CSD Communication(Private Communication) '
loop_
_publ_author_name
"Bin Zhang"
_chemical_name_systematic
;
catena-[hexakis(diethylammonium) 
pentakis(\m-oxalato)-bis(oxalato)-tetra-copper(ii) tetrahydrate]
;
_cell_volume   1541.285
_exptl_crystal_colour 'blue'
_exptl_crystal_density_diffrn 1.495
_exptl_crystal_description 'block'
_diffrn_ambient_temperature 120
#These two values have been output from a single CSD field.
_refine_ls_R_factor_gt 0.0431
_refine_ls_wR_factor_gt 0.0431
_symmetry_cell_setting triclinic
_symmetry_space_group_name_H-M 'P -1'
_symmetry_Int_Tables_number 2
loop_
_symmetry_equiv_pos_site_id
_symmetry_equiv_pos_as_xyz
1 x,y,z
2 -x,-y,-z
_cell_length_a 9.156(3)
_cell_length_b 13.418(5)
_cell_length_c 14.231(5)
_cell_angle_alpha 113.905(4)
_cell_angle_beta 92.825(4)
_cell_angle_gamma 102.589(4)
_cell_formula_units_Z 1
loop_
_atom_type_symbol
_atom_type_radius_bond
C 0.68
H 0.23
Cu 1.32
N 0.68
O 0.68
loop_
_atom_site_label
_atom_site_type_symbol
_atom_site_fract_x
_atom_site_fract_y
_atom_site_fract_z
Cu1 Cu 0.32958(3) 0.29693(2) -0.00642(2)
Cu2 Cu 0.21751(3) 0.42978(2) 0.37721(2)
O1 O 0.1916(2) 0.37537(15) 0.08347(13)
O2 O 0.3266(2) 0.22803(15) 0.11921(13)
O3 O 0.1503(2) 0.44061(15) 0.24803(13)
O4 O 0.2703(2) 0.29368(14) 0.28155(13)
O5 O 0.15784(19) 0.17401(15) -0.10100(13)
O6 O 0.1177(2) 0.00371(16) -0.23442(16)
O7 O 0.45389(19) 0.20569(14) -0.09445(13)
O8 O 0.4211(2) 0.04370(18) -0.23511(19)
O9 O 0.1612(2) 0.56850(14) 0.46621(13)
O10 O 0.01025(19) 0.64145(14) 0.57856(13)
O11 O 0.31852(19) 0.42083(15) 0.49864(13)
O12 O 0.53226(19) 0.46697(15) 0.60470(13)
O13 O 0.50551(19) 0.42543(14) 0.07710(13)
O14 O 0.65005(19) 0.59215(14) 0.09855(13)
C1 C 0.2003(3) 0.37658(19) 0.17207(18)
C2 C 0.2742(3) 0.29081(19) 0.19079(18)
C3 C 0.1998(3) 0.0934(2) -0.16888(19)
C4 C 0.3738(3) 0.1146(2) -0.1663(2)
C5 C 0.0490(3) 0.56042(18) 0.51306(17)
C6 C 0.4576(3) 0.4680(2) 0.52996(17)
C7 C 0.5447(3) 0.50480(19) 0.05013(16)
O15 O 0.8183(2) -0.11261(17) -0.34169(17)
H1 H 0.784(9) -0.161(7) -0.317(6)
H2 H 0.896(9) -0.080(6) -0.301(6)
O16 O 0.7113(3) 0.07666(18) -0.2716(2)
H3 H 0.614(9) 0.064(6) -0.259(6)
H4 H 0.736(9) 0.031(7) -0.281(6)
N1 N 0.8628(3) 0.2111(2) -0.0728(2)
H5 H 0.81240 0.16300 -0.13770
H6 H 0.96220 0.21090 -0.07240
C8 C 0.8494(3) 0.3275(2) -0.0498(2)
H7 H 0.90030 0.38000 0.02180
H8 H 0.74120 0.32760 -0.05430
C9 C 0.9206(4) 0.3670(3) -0.1260(3)
H9 H 0.91090 0.44330 -0.11000
H10 H 1.02800 0.36790 -0.12080
H11 H 0.86920 0.31560 -0.19680
C10 C 0.8016(4) 0.1694(3) 0.0028(3)
H12 H 0.69460 0.17220 0.00510
H13 H 0.85990 0.21860 0.07320
C11 C 0.8114(7) 0.0500(5) -0.0277(6)
H14 H 0.77060 0.02360 0.02300
H15 H 0.75250 0.00120 -0.09690
H16 H 0.91750 0.04750 -0.02900
N2 N 0.7422(4) 0.1716(2) 0.3765(3)
H17 H 0.74840 0.10570 0.32450
H18 H 0.83310 0.22260 0.38970
C12 C 0.6202(4) 0.2143(4) 0.3342(6)
H19 H 0.51910 0.16210 0.32160
H20 H 0.61810 0.28980 0.38640
C13 C 0.6553(7) 0.2208(6) 0.2359(6)
H21 H 0.57800 0.24770 0.21000
H22 H 0.75490 0.27330 0.24880
H23 H 0.65600 0.14570 0.18410
C14 C 0.7229(11) 0.1522(5) 0.4694(5)
H24 H 0.62100 0.10170 0.45900
H25 H 0.72880 0.22500 0.52920
C15 C 0.8379(12) 0.1012(6) 0.4943(4)
H26 H 0.81990 0.09000 0.55700
H27 H 0.83110 0.02820 0.43600
H28 H 0.93900 0.15150 0.50630
N3 N -0.3285(2) 0.64772(18) 0.31032(16)
H29 H -0.38990 0.59930 0.33050
H30 H -0.35020 0.61880 0.23980
C16 C -0.3695(7) 0.7574(3) 0.3550(3)
H31 H -0.35560 0.78730 0.43180
H32 H -0.30140 0.81260 0.33640
C17 C -0.5282(8) 0.7436(6) 0.3154(5)
H33 H -0.55260 0.81670 0.34570
H34 H -0.54160 0.71510 0.23940
H35 H -0.59580 0.68990 0.33460
C18 C -0.1703(4) 0.6483(4) 0.3373(3)
H36 H -0.14340 0.67940 0.41370
H37 H -0.10100 0.69680 0.31240
C19 C -0.1536(6) 0.5309(6) 0.2879(4)
H38 H -0.04860 0.53120 0.30570
H39 H -0.22160 0.48340 0.31330
H40 H -0.17940 0.50070 0.21220
O9A O -0.1612(2) 0.43150(14) 0.53379(13)
C5A C -0.0490(3) 0.43958(18) 0.48694(17)
O10A O -0.01025(19) 0.35855(14) 0.42144(13)
O11A O 0.68148(19) 0.57917(15) 0.50136(13)
C6A C 0.5424(3) 0.5320(2) 0.47004(17)
O12A O 0.46774(19) 0.53303(15) 0.39530(13)
O13A O 0.49449(19) 0.57457(14) -0.07710(13)
C7A C 0.4553(3) 0.49520(19) -0.05013(16)
O14A O 0.34995(19) 0.40785(14) -0.09855(13)
Cu1A Cu -0.32958(3) 0.70307(2) 1.00642(2)
Cu2A Cu -0.21751(3) 0.57022(2) 0.62279(2)
O1A O -0.1916(2) 0.62463(15) 0.91653(13)
O2A O -0.3266(2) 0.77197(15) 0.88079(13)
O3A O -0.1503(2) 0.55939(15) 0.75197(13)
O4A O -0.2703(2) 0.70632(14) 0.71845(13)
O5A O -0.15784(19) 0.82599(15) 1.10100(13)
O6A O -0.1177(2) 0.99629(16) 1.23442(16)
O7A O -0.45389(19) 0.79431(14) 1.09445(13)
O8A O -0.4211(2) 0.95630(18) 1.23511(19)
C1A C -0.2003(3) 0.62342(19) 0.82793(18)
C2A C -0.2742(3) 0.70919(19) 0.80921(18)
C3A C -0.1998(3) 0.9066(2) 1.16888(19)
C4A C -0.3738(3) 0.8854(2) 1.1663(2)
Cu1A* Cu 0.67042(3) 0.70307(2) 0.00642(2)
Cu2A* Cu 0.78249(3) 0.57022(2) 0.62279(2)
O11A* O -0.31852(19) 0.57917(15) 0.50136(13)
O12* O -0.46774(19) 0.46697(15) 0.60470(13)
O13A* O -0.50551(19) 0.57457(14) 0.92290(13)
O14* O -0.34995(19) 0.59215(14) 1.09855(13)
#END
