
#######################################################################
#
#                 Cambridge Crystallographic Data Centre
#                                CCDC
#
#######################################################################
#
# If this CIF has been generated from an entry in the Cambridge
# Structural Database, then it will include bibliographic, chemical,
# crystal, experimental, refinement or atomic coordinate data resulting
# from the CCDC's data processing and validation procedures.
#
#######################################################################

data_CSD_CIF_EYAGES
_audit_creation_date 2016-10-28
_audit_creation_method CSD-ConQuest-V1
_database_code_CSD EYAGES
_database_code_depnum_ccdc_archive 'CCDC 907829'
_chemical_formula_sum 'C36 H67 Cu4 N4 O25.5'
_chemical_formula_moiety
;
(C12 Cu4 O24 4-)n,4n(C6 H16 N1 1+),1.5n(H2 O1)
;
_journal_coden_Cambridge 1078
_journal_year 2016
_journal_name_full 'CSD Communication(Private Communication) '
loop_
_publ_author_name
"Zhang Bin"
_chemical_name_systematic
;
catena-[tetrakis(triethylammonium) hexakis(\m-oxalato)-tetra-copper 
sesquihydrate]
;
_cell_volume   5052.494
_exptl_crystal_density_diffrn 1.601
_exptl_special_details
;
Organic Solid Laboratory, BNLMS, CMS & Institute of Chemistry, Chinese 
Academy of Sciences, Beijing, 100190, P. R. China
;
_diffrn_ambient_temperature 293
#These two values have been output from a single CSD field.
_refine_ls_R_factor_gt 0.0413
_refine_ls_wR_factor_gt 0.0413
_symmetry_cell_setting monoclinic
_symmetry_space_group_name_H-M 'P 21'
_symmetry_Int_Tables_number 4
loop_
_symmetry_equiv_pos_site_id
_symmetry_equiv_pos_as_xyz
1 x,y,z
2 -x,1/2+y,-z
_cell_length_a 17.6957(2)
_cell_length_b 16.7387(3)
_cell_length_c 17.8857(2)
_cell_angle_alpha 90
_cell_angle_beta 107.5038(5)
_cell_angle_gamma 90
_cell_formula_units_Z 4
loop_
_atom_type_symbol
_atom_type_radius_bond
C 0.68
H 0.23
Cu 1.32
N 0.68
O 0.68
loop_
_atom_site_label
_atom_site_type_symbol
_atom_site_fract_x
_atom_site_fract_y
_atom_site_fract_z
Cu1 Cu 0.47396(3) -0.61010(3) 0.84003(3)
O1 O 0.41928(16) -0.58191(16) 0.91843(16)
O2 O 0.55150(19) -0.50127(18) 0.90967(19)
O3 O 0.40993(16) -0.53057(17) 0.76391(16)
O4 O 0.54007(16) -0.61043(18) 0.76840(15)
O5 O 0.54614(17) -0.68652(17) 0.91019(16)
O6 O 0.41178(19) -0.72842(18) 0.79930(18)
C1 C 0.4494(2) -0.5293(2) 0.9673(2)
C2 C 0.5241(2) -0.4856(2) 0.9650(2)
C3 C 0.4470(2) -0.5077(2) 0.7174(2)
C4 C 0.5239(2) -0.5544(3) 0.7207(2)
C5 C 0.5284(2) -0.7610(3) 0.9036(2)
C6 C 0.4505(2) -0.7828(2) 0.8395(2)
O7 O 0.42134(18) -0.50807(17) 1.02133(17)
O8 O 0.55169(17) -0.43447(18) 1.01609(17)
O9 O 0.42419(16) -0.45105(16) 0.67034(16)
O10 O 0.55929(19) -0.53255(19) 0.6741(2)
O11 O 0.56928(18) -0.81486(18) 0.94261(18)
O12 O 0.43275(17) -0.85566(17) 0.83107(17)
Cu2 Cu 0.49453(3) -0.43388(3) 1.09690(3)
Cu3 Cu 0.49277(3) -0.43089(3) 0.59543(3)
O13 O 0.44005(17) -0.85350(18) 1.33140(17)
O14 O 0.57560(18) -0.81916(17) 1.44604(18)
O15 O 0.42974(17) -0.51104(16) 1.52223(17)
O16 O 0.55750(17) -0.42999(18) 1.51970(17)
O17 O 0.56730(19) -0.54057(19) 1.1668(2)
O18 O 0.43640(16) -0.45475(17) 1.17456(16)
C7 C 0.5370(2) -0.5578(3) 1.2188(3)
C8 C 0.4612(2) -0.5117(2) 1.2213(2)
O19 O 0.55919(17) -0.61152(19) 1.27054(17)
O20 O 0.42900(17) -0.53494(18) 1.27037(17)
Cu4 Cu 0.49593(3) -0.61109(3) 1.34486(3)
O21 O 0.43850(16) -0.58739(16) 1.42437(16)
O22 O 0.56227(18) -0.69042(17) 1.41388(17)
O23 O 0.42505(18) -0.72512(18) 1.30040(18)
O24 O 0.56235(18) -0.49502(18) 1.41322(19)
C9 C 0.4614(2) -0.5317(2) 1.4698(2)
C10 C 0.5396(2) -0.7618(3) 1.4059(2)
C11 C 0.4607(3) -0.7806(3) 1.3405(2)
C12 C 0.5338(2) -0.4817(3) 1.4672(3)
Cu5 Cu -0.00146(3) 0.40810(3) 0.65000(3)
Cu6 Cu 0.01413(3) 0.23234(3) 0.40544(3)
Cu7 Cu 0.00079(3) 0.41204(3) 0.15421(3)
Cu8 Cu 0.00871(3) 0.73522(3) 0.09932(3)
O25 O 0.06978(17) -0.01031(17) 0.41813(18)
O26 O 0.08500(17) 0.11916(17) 0.44686(17)
O27 O -0.05138(17) 0.15234(16) 0.33225(17)
O28 O -0.06286(18) 0.02330(18) 0.30041(17)
C13 C 0.0489(2) 0.0618(2) 0.4086(2)
C14 C -0.0288(2) 0.0795(3) 0.3411(2)
O29 O 0.07179(17) 0.90507(19) 0.28119(18)
O30 O -0.06082(17) 0.83007(16) 0.27358(17)
O31 O -0.04861(17) 0.75254(17) 0.17746(16)
O32 O 0.08911(18) 0.83108(17) 0.18440(19)
C15 C -0.0255(3) 0.8073(2) 0.2269(2)
C16 C 0.0530(3) 0.8506(2) 0.2291(3)
O33 O 0.06224(15) 0.38913(16) 0.57671(15)
O34 O -0.0717(2) 0.30467(18) 0.5725(2)
O35 O 0.07543(17) 0.31397(17) 0.47902(17)
O36 O -0.05002(17) 0.22685(18) 0.47886(17)
C17 C 0.0411(2) 0.3333(2) 0.5271(3)
C18 C -0.0344(2) 0.2843(3) 0.5276(3)
O37 O -0.06424(19) 0.33468(18) 0.33198(19)
O38 O 0.07049(17) 0.25768(17) 0.32606(16)
O39 O -0.05511(17) 0.4123(2) 0.23450(17)
O40 O 0.06874(17) 0.33212(16) 0.22318(17)
C19 C -0.0327(3) 0.3549(2) 0.2836(2)
C20 C 0.0421(2) 0.3103(2) 0.2775(3)
O41 O 0.07160(18) 0.80308(17) -0.08449(18)
O42 O -0.05331(16) 0.89367(16) -0.07145(15)
O43 O 0.06629(16) 0.73280(17) 0.02043(16)
O44 O -0.05391(17) 0.82056(17) 0.03159(17)
C21 C 0.0437(2) 0.7866(2) -0.0308(2)
C22 C -0.0268(2) 0.8386(2) -0.0221(2)
O45 O 0.07524(17) 0.52179(17) 0.19837(17)
O46 O -0.06750(18) 0.49707(17) 0.09264(17)
O47 O 0.07421(18) 0.64888(17) 0.16103(18)
O48 O -0.07049(17) 0.62388(18) 0.05550(17)
C23 C 0.0435(3) 0.5796(3) 0.1569(3)
C24 C -0.0391(2) 0.5661(3) 0.0958(2)
N1 N 0.7061(2) -0.6331(2) 0.9462(2)
H1 H 0.65260 -0.64050 0.93040
C25 C 0.7395(3) -0.7114(3) 0.9382(3)
H2 H 0.72130 -0.74980 0.96970
H3 H 0.79680 -0.70840 0.95900
C26 C 0.7181(4) -0.7408(4) 0.8564(4)
H4 H 0.74370 -0.79110 0.85500
H5 H 0.73500 -0.70270 0.82450
H6 H 0.66170 -0.74750 0.83650
C27 C 0.8056(3) -0.5486(4) 0.9098(3)
H7 H 0.81080 -0.50640 0.87530
H8 H 0.83270 -0.59530 0.90020
H9 H 0.82820 -0.53190 0.96320
C28 C 0.7203(3) -0.5673(3) 0.8953(3)
H10 H 0.69760 -0.58250 0.84080
H11 H 0.69320 -0.51960 0.90420
C29 C 0.7263(3) -0.6067(3) 1.0309(3)
H12 H 0.78350 -0.60300 1.05240
H13 H 0.70490 -0.55360 1.03250
C30 C 0.6964(4) -0.6600(4) 1.0815(3)
H14 H 0.71260 -0.63990 1.13430
H15 H 0.71740 -0.71270 1.08070
H16 H 0.63950 -0.66200 1.06250
N2 N 0.2163(2) 0.5406(2) 0.3128(2)
H17 H 0.16820 0.53700 0.27570
C31 C 0.2455(3) 0.4567(3) 0.3304(3)
H18 H 0.21040 0.42820 0.35360
H19 H 0.29770 0.45780 0.36860
C32 C 0.2501(3) 0.4122(3) 0.2585(3)
H20 H 0.27040 0.35940 0.27310
H21 H 0.28470 0.44020 0.23520
H22 H 0.19820 0.40870 0.22140
C33 C 0.2013(3) 0.5765(3) 0.3833(3)
H23 H 0.25160 0.58320 0.42390
H24 H 0.16940 0.53980 0.40300
C34 C 0.1598(4) 0.6562(4) 0.3678(4)
H25 H 0.15070 0.67520 0.41500
H26 H 0.11000 0.65030 0.32770
H27 H 0.19220 0.69380 0.35100
C35 C 0.2667(3) 0.5921(3) 0.2784(3)
H28 H 0.27430 0.56460 0.23340
H29 H 0.23810 0.64110 0.25940
C36 C 0.3463(3) 0.6135(3) 0.3328(3)
H30 H 0.37430 0.64580 0.30550
H31 H 0.37590 0.56570 0.35130
H32 H 0.33980 0.64290 0.37650
N3 N 0.3105(2) 0.2367(2) 1.0732(3)
H33 H 0.33340 0.19690 1.10700
C37 C 0.3764(5) 0.2987(4) 1.0837(4)
H34 H 0.35490 0.34590 1.05330
H35 H 0.39550 0.31420 1.13840
C38 C 0.4407(5) 0.2700(5) 1.0600(6)
H36 H 0.48090 0.31050 1.06890
H37 H 0.42270 0.25680 1.00530
H38 H 0.46230 0.22310 1.08980
C39 C 0.2494(4) 0.2696(4) 1.1057(4)
H39 H 0.27610 0.29870 1.15320
H40 H 0.21800 0.30790 1.06840
C40 C 0.2816(4) 0.1965(4) 0.9962(4)
H41 H 0.24140 0.15780 0.99820
H42 H 0.32520 0.16760 0.98660
C41 C 0.1960(4) 0.2134(3) 1.1240(3)
H43 H 0.15910 0.24150 1.14430
H44 H 0.22560 0.17610 1.16250
H45 H 0.16760 0.18510 1.07730
C42 C 0.2475(5) 0.2522(6) 0.9297(5)
H46 H 0.23020 0.22240 0.88170
H47 H 0.28720 0.29010 0.92650
H48 H 0.20330 0.28000 0.93800
N4 N -0.1367(2) 0.0441(2) 0.07864(19)
H49 H -0.13120 0.08160 0.11680
C43 C -0.2114(3) 0.0676(3) 0.0147(3)
H50 H -0.25540 0.06900 0.03640
H51 H -0.20480 0.12090 -0.00370
C44 C -0.2305(4) 0.0118(4) -0.0526(3)
H52 H -0.27800 0.02920 -0.09150
H53 H -0.23850 -0.04090 -0.03510
H54 H -0.18750 0.01080 -0.07500
C45 C -0.1395(3) -0.0337(2) 0.1179(3)
H55 H -0.09030 -0.04020 0.16000
H56 H -0.14210 -0.07620 0.08030
C46 C -0.2075(3) -0.0439(3) 0.1516(3)
H57 H -0.20430 -0.09560 0.17560
H58 H -0.25670 -0.03930 0.11040
H59 H -0.20480 -0.00330 0.19020
C47 C -0.0639(3) 0.0518(3) 0.0534(3)
H60 H -0.06030 0.00530 0.02230
H61 H -0.06960 0.09830 0.01990
C48 C 0.0110(3) 0.0592(4) 0.1177(3)
H62 H 0.05430 0.06440 0.09610
H63 H 0.01860 0.01250 0.15020
H64 H 0.00880 0.10560 0.14850
N5 N -0.2296(2) 0.4481(2) 0.6137(2)
H65 H -0.17590 0.44520 0.62590
C49 C -0.2461(4) 0.5020(4) 0.6757(4)
H66 H -0.30160 0.51710 0.65850
H67 H -0.23680 0.47180 0.72390
C50 C -0.1985(5) 0.5737(4) 0.6921(4)
H68 H -0.21120 0.60370 0.73250
H69 H -0.20930 0.60550 0.64540
H70 H -0.14340 0.55950 0.70930
C51 C -0.2569(8) 0.3649(5) 0.6186(5)
H71 H -0.24910 0.33770 0.57360
H72 H -0.21850 0.34210 0.66420
C52 C -0.3207(5) 0.3418(6) 0.6221(9)
H73 H -0.31910 0.28500 0.62960
H74 H -0.36090 0.35490 0.57410
H75 H -0.33270 0.36740 0.66520
C53 C -0.2568(3) 0.4804(4) 0.5347(3)
H76 H -0.22770 0.52930 0.53330
H77 H -0.31230 0.49460 0.52320
C54 C -0.2481(3) 0.4262(4) 0.4711(3)
H78 H -0.26830 0.45240 0.42130
H79 H -0.27730 0.37790 0.47100
H80 H -0.19310 0.41370 0.48020
N6 N -0.1212(2) 0.53576(18) 0.3038(2)
H81 H -0.09600 0.50600 0.27600
C55 C -0.2054(3) 0.5128(3) 0.2761(3)
H82 H -0.23310 0.53900 0.30850
H83 H -0.20960 0.45560 0.28270
C56 C -0.2461(3) 0.5338(4) 0.1912(4)
H84 H -0.30050 0.51740 0.17710
H85 H -0.22000 0.50690 0.15840
H86 H -0.24340 0.59050 0.18420
C57 C -0.0845(3) 0.5137(3) 0.3892(3)
H87 H -0.10890 0.54560 0.42090
H88 H -0.09610 0.45800 0.39630
C58 C 0.0040(3) 0.5259(3) 0.4181(3)
H89 H 0.02370 0.51030 0.47220
H90 H 0.01590 0.58120 0.41310
H91 H 0.02870 0.49390 0.38750
C59 C -0.1056(3) 0.6209(2) 0.2896(3)
H92 H -0.12380 0.63120 0.23370
H93 H -0.04890 0.63040 0.30790
C60 C -0.1460(3) 0.6776(3) 0.3301(4)
H94 H -0.13370 0.73160 0.31970
H95 H -0.12790 0.66800 0.38560
H96 H -0.20230 0.66960 0.31100
N7 N 0.3040(2) -0.3555(2) 0.6981(3)
H97 H 0.34510 -0.38040 0.68700
C61 C 0.3059(4) -0.2727(3) 0.6716(4)
H98 H 0.30320 -0.27270 0.61660
H99 H 0.35570 -0.24830 0.70080
C62 C 0.2388(4) -0.2236(4) 0.6821(4)
H100 H 0.24270 -0.17000 0.66450
H101 H 0.24160 -0.22290 0.73650
H102 H 0.18930 -0.24650 0.65200
C63 C 0.3220(5) -0.3628(4) 0.7898(5)
H103 H 0.27970 -0.33690 0.80480
H104 H 0.32190 -0.41890 0.80340
C64 C 0.3968(6) -0.3280(7) 0.8343(5)
H105 H 0.40250 -0.33180 0.88920
H106 H 0.39820 -0.27280 0.81990
H107 H 0.43940 -0.35620 0.82310
C65 C 0.2346(4) -0.4072(5) 0.6646(6)
H108 H 0.20400 -0.42530 0.69530
C66 C 0.2163(4) -0.4280(6) 0.5862(4)
H109 H 0.17120 -0.46300 0.57260
H110 H 0.26070 -0.45480 0.57720
H111 H 0.20430 -0.38070 0.55450
N8 N 0.3387(3) 0.2565(2) 0.5752(2)
H112 H 0.34390 0.22040 0.61440
C67 C 0.4242(9) 0.2483(7) 0.5470(9)
H113 H 0.42270 0.19890 0.51830
H114 H 0.42660 0.29230 0.51250
C68 C 0.4908(4) 0.2492(6) 0.6115(5)
H115 H 0.53730 0.24490 0.59460
H116 H 0.48890 0.20500 0.64510
H117 H 0.49260 0.29840 0.63970
C69 C 0.2881(5) 0.2198(5) 0.5056(4)
H118 H 0.23700 0.20890 0.51300
H119 H 0.31100 0.16910 0.49750
C70 C 0.2762(7) 0.2703(6) 0.4340(5)
H120 H 0.23790 0.24550 0.39040
H121 H 0.32550 0.27580 0.42250
H122 H 0.25750 0.32220 0.44310
C71 C 0.3658(10) 0.3236(5) 0.6091(5)
H123 H 0.37360 0.36470 0.57390
H124 H 0.41170 0.31830 0.65500
C72 C 0.2648(3) 0.3303(4) 0.6321(7)
H125 H 0.25980 0.38210 0.65310
H126 H 0.26300 0.29000 0.66960
H127 H 0.22210 0.32210 0.58470
O49 O -0.13340(18) 0.18344(17) 0.16901(17)
H128 H -0.106(3) 0.181(3) 0.2248(12)
H129 H -0.123(3) 0.224(2) 0.136(2)
O50 O 0.35675(19) 0.11494(18) 0.66537(18)
H130 H 0.380(3) 0.121(3) 0.7219(12)
H131 H 0.383(3) 0.076(3) 0.640(2)
O51 O 0.3783(2) 0.11143(19) 1.16913(19)
H132 H 0.393(3) 0.111(3) 1.2259(11)
H133 H 0.411(3) 0.078(3) 1.144(2)
O11A O 0.43072(18) -0.31486(18) 1.05739(18)
O12A O 0.56725(17) -0.35566(17) 1.16893(17)
Cu2A Cu 0.50547(3) -0.93388(3) 0.90310(3)
Cu3* Cu 0.49277(3) -0.43089(3) 1.59543(3)
Cu3A Cu 0.50723(3) -0.93089(3) 1.40457(3)
O13A O 0.55995(17) -0.35350(18) 0.66860(17)
O14A O 0.42440(18) -0.31916(17) 0.55396(18)
O15* O 0.42974(17) -0.51104(16) 0.52223(17)
O16* O 0.55750(17) -0.42999(18) 0.51970(17)
Cu5A Cu 0.00146(3) -0.09190(3) 0.35000(3)
Cu5A* Cu 0.00146(3) 0.90810(3) 0.35000(3)
Cu7A Cu -0.00079(3) 0.91204(3) -0.15421(3)
O25A O -0.06978(17) 0.48969(17) 0.58187(18)
O28A O 0.06286(18) 0.52330(18) 0.69959(17)
O29A O -0.07179(17) 0.40507(19) 0.71881(18)
O30A O 0.06082(17) 0.33007(16) 0.72642(17)
O41A O -0.07160(18) 0.30308(17) 0.08449(18)
O42A O 0.05331(16) 0.39367(16) 0.07145(15)
#END
