
#######################################################################
#
#                 Cambridge Crystallographic Data Centre
#                                CCDC
#
#######################################################################
#
# If this CIF has been generated from an entry in the Cambridge
# Structural Database, then it will include bibliographic, chemical,
# crystal, experimental, refinement or atomic coordinate data resulting
# from the CCDC's data processing and validation procedures.
#
#######################################################################

data_CSD_CIF_EYAGOC
_audit_creation_date 2016-10-28
_audit_creation_method CSD-ConQuest-V1
_database_code_CSD EYAGOC
_database_code_depnum_ccdc_archive 'CCDC 907827'
_chemical_formula_sum 'C32 H64 Cu4 N4 O28'
_chemical_formula_moiety
;
(C12 Cu4 O24 4-)n,4(C5 H14 N1 1+),4(H2 O1)
;
_journal_coden_Cambridge 1078
_journal_year 2016
_journal_name_full 'CSD Communication(Private Communication) '
loop_
_publ_author_name
"Zhang Bin"
_chemical_name_systematic
;
catena-[tetrakis(N-ethyl-N-methylethanaminium) 
hexakis(\m-oxalato)-tetra-copper tetrahydrate]
;
_cell_volume   1217.803
_exptl_crystal_density_diffrn 1.646
_exptl_special_details
;
Organic Solid Laboratory, BNLMS, CMS & Institute of Chemistry, Chinese 
Academy of Sciences, Beijing, 100190, P. R. China
;
_diffrn_ambient_temperature 173
#These two values have been output from a single CSD field.
_refine_ls_R_factor_gt 0.06
_refine_ls_wR_factor_gt 0.06
_symmetry_cell_setting triclinic
_symmetry_space_group_name_H-M 'P 1'
_symmetry_Int_Tables_number 1
loop_
_symmetry_equiv_pos_site_id
_symmetry_equiv_pos_as_xyz
1 x,y,z
_cell_length_a 8.978(2)
_cell_length_b 9.375(2)
_cell_length_c 14.573(4)
_cell_angle_alpha 85.705(6)
_cell_angle_beta 88.493(7)
_cell_angle_gamma 84.761(7)
_cell_formula_units_Z 1
loop_
_atom_type_symbol
_atom_type_radius_bond
C 0.68
H 0.23
Cu 1.32
N 0.68
O 0.68
loop_
_atom_site_label
_atom_site_type_symbol
_atom_site_fract_x
_atom_site_fract_y
_atom_site_fract_z
Cu1 Cu 0.32352(11) 0.0967(1) 0.05068(7)
Cu2 Cu 0.32712(9) 0.39242(9) -0.27757(6)
Cu3 Cu 0.81521(9) 0.60220(9) -0.46393(6)
Cu4 Cu 0.81892(11) 0.89843(10) -0.79357(7)
O1 O 0.4275(9) 0.9072(8) -0.9102(5)
O2 O 1.1965(8) 1.0766(8) -0.8123(5)
O3 O 0.4974(9) 1.1723(8) -0.8990(6)
O4 O 1.1455(7) 1.0134(8) -0.9858(4)
O5 O 0.4582(9) 0.0869(8) -0.0896(5)
O6 O 0.2559(10) 0.2841(8) -0.0141(5)
O7 O 0.4329(8) 0.2145(7) -0.2251(5)
O8 O 0.2385(9) 0.3990(8) -0.1525(5)
O9 O 1.1275(8) 0.3132(7) -0.3461(5)
O10 O 1.2161(8) 0.5775(7) -0.3187(5)
O11 O 0.5259(7) 0.5246(7) -0.2579(5)
O12 O 0.4349(8) 0.3871(7) -0.3988(5)
O13 O 0.7072(8) 0.6162(8) -0.3457(5)
O14 O 0.6156(8) 0.4733(8) -0.4884(5)
O15 O 0.9325(8) 0.4174(7) -0.4251(4)
O16 O 1.0184(9) 0.6793(8) -0.3963(5)
O17 O 0.7036(9) 0.7831(8) -0.5164(5)
O18 O 0.9060(8) 0.5934(7) -0.5885(5)
O19 O 0.6846(9) 0.9128(7) -0.6521(5)
O20 O 0.8923(8) 0.7138(7) -0.7266(5)
O21 O 0.6442(8) 0.8195(7) -0.8425(5)
O22 O 0.9997(9) 0.9778(8) -0.7599(5)
O23 O 0.7116(8) 1.0959(7) -0.8332(5)
O24 O 0.9331(8) 0.9127(9) -0.9321(5)
C1 C 0.5531(11) 0.9136(10) -0.8729(7)
C2 C 1.0885(9) 1.0187(9) -0.8205(6)
C3 C 0.2930(11) 0.2957(10) -0.0969(7)
C4 C 0.4008(11) 0.1867(11) -0.1392(6)
C5 C 1.0943(10) 0.5712(8) -0.3612(6)
C6 C 0.6033(12) 0.5384(11) -0.3313(6)
C7 C 0.5511(8) 0.4577(8) -0.4139(6)
C8 C 1.0490(12) 0.4154(12) -0.3756(6)
C9 C 0.7341(9) 0.8063(7) -0.5998(7)
C10 C 0.8584(10) 0.6925(10) -0.6412(6)
C11 C 0.5922(10) 1.0703(10) -0.8666(6)
C12 C 1.0537(13) 0.9832(11) -0.9196(7)
O25 O 0.3182(10) 0.3234(8) 0.4385(6)
O26 O 0.8306(9) 0.6759(9) -0.1767(5)
O27 O 0.3951(11) 0.0711(10) 0.3494(6)
O28 O 0.7593(9) 0.9202(10) -0.0943(7)
N1 N 0.873(1) 0.1633(9) 0.4931(6)
H1 H 0.90370 0.23830 0.52410
C13 C 1.0023(13) 0.0599(14) 0.4885(10)
H2 H 1.02710 0.01900 0.55070
H3 H 1.08740 0.10760 0.46130
H4 H 0.98010 -0.01700 0.45040
C14 C 0.7377(11) 0.1209(11) 0.5416(8)
H5 H 0.70380 0.03690 0.51340
H6 H 0.65780 0.20060 0.53360
C15 C 0.7597(15) 0.0824(12) 0.6448(8)
H7 H 0.66570 0.05380 0.67310
H8 H 0.78960 0.16610 0.67380
H9 H 0.83780 0.00270 0.65340
C16 C 0.8339(16) 0.2261(15) 0.3994(9)
H10 H 0.75320 0.30440 0.40520
H11 H 0.79300 0.15120 0.36550
C17 C 0.9640(15) 0.2872(11) 0.3402(8)
H12 H 0.92780 0.32080 0.27890
H13 H 1.04600 0.21160 0.33470
H14 H 1.00010 0.36750 0.37000
N2 N 0.267(1) 0.8235(10) 0.7692(7)
H15 H 0.23360 0.74900 0.73890
C18 C 0.1413(12) 0.9526(13) 0.7666(8)
H16 H 0.11310 0.97950 0.70260
H17 H 0.17910 1.03490 0.79310
H18 H 0.05360 0.92380 0.80220
C19 C 0.3987(12) 0.8815(10) 0.7151(8)
H19 H 0.42620 0.96860 0.74260
H20 H 0.48580 0.80880 0.71970
C20 C 0.3634(18) 0.918(2) 0.6156(11)
H21 H 0.45120 0.95350 0.58320
H22 H 0.27930 0.99230 0.61070
H23 H 0.33670 0.83180 0.58800
C21 C 0.3096(16) 0.7681(13) 0.8660(9)
H24 H 0.38950 0.68820 0.86400
H25 H 0.34790 0.84570 0.89870
C22 C 0.1788(16) 0.7185(13) 0.9139(9)
H26 H 0.20550 0.68080 0.97640
H27 H 0.14110 0.64230 0.88080
H28 H 0.10110 0.79860 0.91680
N3 N 0.7700(12) 0.4561(11) -0.0464(7)
H29 H 0.80500 0.52760 -0.08680
C23 C 0.860(2) 0.2768(18) -0.1503(11)
H30 H 0.83950 0.18930 -0.17860
H31 H 0.95220 0.25830 -0.11490
H32 H 0.87250 0.35380 -0.19850
C24 C 0.7533(9) 0.3140(8) -0.0976(6)
H33 H 0.66800 0.26120 -0.08890
C25 C 0.8757(14) 0.5514(12) 0.0733(9)
H34 H 0.94140 0.53480 0.12640
H35 H 0.77450 0.58440 0.09400
H36 H 0.91400 0.62460 0.02960
C26 C 0.8717(12) 0.4190(12) 0.0288(8)
H37 H 0.83430 0.34300 0.07190
H38 H 0.97240 0.38510 0.00560
C27 C 0.6117(18) 0.493(2) -0.0198(11)
H39 H 0.60340 0.58030 0.01330
H40 H 0.57590 0.41350 0.02010
H41 H 0.55110 0.50820 -0.07520
N4 N 0.3710(12) 0.5328(10) 0.3085(7)
H42 H 0.35610 0.47360 0.36140
C28 C 0.2600(18) 0.7172(17) 0.4059(10)
H43 H 0.19990 0.81000 0.40120
H44 H 0.35640 0.72860 0.43320
H45 H 0.20680 0.64790 0.44490
C29 C 0.5308(14) 0.5170(15) 0.2873(11)
H46 H 0.58560 0.55040 0.33770
H47 H 0.55140 0.57420 0.23010
H48 H 0.56280 0.41570 0.27990
C30 C 0.2831(14) 0.6692(13) 0.3214(8)
H49 H 0.33120 0.74450 0.28310
H50 H 0.18350 0.66300 0.29510
C31 C 0.2812(19) 0.4753(16) 0.2309(9)
H51 H 0.23110 0.39010 0.23950
C32 C 0.2809(17) 0.5636(16) 0.1444(8)
H52 H 0.22440 0.52000 0.09890
H53 H 0.38400 0.57030 0.12190
H54 H 0.23410 0.66000 0.15410
Cu1* Cu 0.32352(11) 1.0967(1) -0.94932(7)
Cu1** Cu 1.32352(11) 1.0967(1) -0.94932(7)
Cu2* Cu 1.32712(9) 0.39242(9) -0.27757(6)
O1* O 0.4275(9) -0.0928(8) 0.0898(5)
O2* O 0.1965(8) 0.0766(8) 0.1877(5)
O3* O 0.4974(9) 0.1723(8) 0.1010(6)
O4* O 0.1455(7) 0.0134(8) 0.0142(4)
O9* O 0.1275(8) 0.3132(7) -0.3461(5)
O10* O 0.2161(8) 0.5775(7) -0.3187(5)
#END
