
#######################################################################
#
#                 Cambridge Crystallographic Data Centre
#                                CCDC
#
#######################################################################
#
# If this CIF has been generated from an entry in the Cambridge
# Structural Database, then it will include bibliographic, chemical,
# crystal, experimental, refinement or atomic coordinate data resulting
# from the CCDC's data processing and validation procedures.
#
#######################################################################

data_CSD_CIF_EYAHUJ
_audit_creation_date 2016-10-28
_audit_creation_method CSD-ConQuest-V1
_database_code_CSD EYAHUJ
_database_code_depnum_ccdc_archive 'CCDC 881946'
_chemical_formula_sum 'C56 H116 Cu4 N8 O34'
_chemical_formula_moiety
;
(C16 Cu4 O32 8-)n,8n(C5 H14 N1 1+),2n(H2 O1)
;
_journal_coden_Cambridge 1078
_journal_year 2016
_journal_name_full 'CSD Communication(Private Communication) '
loop_
_publ_author_name
"Zhang Bin"
_chemical_name_systematic
;
catena-[octakis(N-Ethyl-N-methylethanaminium) 
tetrakis(\m-oxalato)-tetrakis(oxalato)-tetra-copper dihydrate]
;
_cell_volume   7919.265
_exptl_crystal_colour 'blue'
_exptl_crystal_density_diffrn 1.422
_exptl_special_details
;
Organic Solid Laboratory, BNLMS, CMS & Institute of Chemistry, Chinese 
Academy of Sciences, Beijing, 100190, P. R. China
;
_exptl_crystal_description 'block'
_diffrn_ambient_temperature 293
#These two values have been output from a single CSD field.
_refine_ls_R_factor_gt 0.0489
_refine_ls_wR_factor_gt 0.0489
_symmetry_cell_setting monoclinic
_symmetry_space_group_name_H-M 'C 2/c'
_symmetry_Int_Tables_number 15
loop_
_symmetry_equiv_pos_site_id
_symmetry_equiv_pos_as_xyz
1 x,y,z
2 -x,y,1/2-z
3 1/2+x,1/2+y,z
4 1/2-x,1/2+y,1/2-z
5 -x,-y,-z
6 x,-y,-1/2+z
7 -1/2-x,-1/2-y,-z
8 -1/2+x,-1/2-y,-1/2+z
_cell_length_a 19.7090(2)
_cell_length_b 17.2032(2)
_cell_length_c 23.3568(3)
_cell_angle_alpha 90
_cell_angle_beta 90.187(1)
_cell_angle_gamma 90
_cell_formula_units_Z 4
loop_
_atom_type_symbol
_atom_type_radius_bond
C 0.68
H 0.23
Cu 1.32
N 0.68
O 0.68
loop_
_atom_site_label
_atom_site_type_symbol
_atom_site_fract_x
_atom_site_fract_y
_atom_site_fract_z
Cu1 Cu 0.125944(17) 0.754375(19) 0.444835(16)
Cu2 Cu -0.120463(17) 0.751158(19) 0.546071(16)
O1 O 0.02729(10) 0.83419(12) 0.44998(9)
O2 O 0.06918(10) 0.70209(12) 0.50515(9)
O3 O -0.07426(10) 0.81996(11) 0.49031(9)
O4 O -0.03369(10) 0.69239(12) 0.54261(9)
O5 O 0.08257(10) 0.69016(12) 0.38545(9)
O6 O 0.16655(10) 0.80806(12) 0.37861(9)
O7 O 0.08645(13) 0.67172(16) 0.29153(10)
O8 O 0.17210(13) 0.79606(16) 0.28385(10)
O9 O 0.28138(10) 0.82565(11) 0.54173(9)
O10 O 0.18064(9) 0.81397(11) 0.50010(9)
O11 O -0.15275(10) 0.67774(11) 0.60695(9)
O12 O -0.09216(11) 0.81536(11) 0.62919(9)
O13 O -0.15090(15) 0.65065(15) 0.69945(10)
O14 O -0.10001(16) 0.79160(16) 0.72191(10)
O15 O -0.2946(1) 0.68698(11) 0.45439(9)
O16 O -0.18697(10) 0.68332(12) 0.48211(9)
C1 C -0.01370(14) 0.79997(16) 0.48059(12)
C2 C 0.01002(14) 0.72496(18) 0.51160(12)
C3 C 0.10250(15) 0.70652(19) 0.33548(14)
C4 C 0.15119(16) 0.7765(2) 0.33109(15)
C5 C 0.23942(13) 0.79055(15) 0.51200(11)
C6 C -0.10725(15) 0.77464(19) 0.67144(13)
C7 C -0.13977(15) 0.69421(18) 0.65918(13)
C8 C -0.24405(14) 0.71252(16) 0.48201(12)
O17 O 0.00000 0.0996(3) 0.25000
O18 O 0.00000 0.5505(3) 0.25000
N1 N -0.32242(17) 0.97888(18) 0.42047(15)
H1 H -0.33130 0.92880 0.41030
C9 C -0.4452(3) 1.0006(3) 0.4256(4)
H2 H -0.48150 1.01670 0.45010
H3 H -0.45300 0.94810 0.41320
H4 H -0.44330 1.03420 0.39280
C10 C -0.3781(4) 1.0049(3) 0.4582(3)
H5 H -0.36990 1.05790 0.47060
H6 H -0.38010 0.97200 0.49190
C11 C -0.2585(3) 0.9788(2) 0.4531(2)
H7 H -0.24530 1.03180 0.46170
H8 H -0.26490 0.95150 0.48900
C12 C -0.2055(3) 0.9412(4) 0.4203(3)
H9 H -0.16410 0.94120 0.44210
H10 H -0.19870 0.96890 0.38510
H11 H -0.21860 0.88860 0.41200
C13 C -0.3155(3) 1.0241(3) 0.3672(2)
H12 H -0.27910 1.00300 0.34470
H13 H -0.30570 1.07730 0.37640
H14 H -0.35700 1.02140 0.34570
N2 N -0.11988(18) 0.6864(2) 0.81770(13)
H15 H -0.12680 0.70030 0.78050
C14 C -0.1715(2) 0.6227(3) 0.8313(2)
H16 H -0.21680 0.64270 0.82440
H17 H -0.16430 0.57930 0.80560
C15 C -0.0491(3) 0.6533(5) 0.8213(2)
H18 H -0.01680 0.69310 0.81230
H19 H -0.04470 0.61130 0.79450
H20 H -0.04090 0.63440 0.85940
C16 C -0.1221(5) 0.7552(4) 0.8501(3)
H21 H -0.08790 0.76780 0.87600
C17 C -0.1671(3) 0.5940(4) 0.8921(2)
H22 H -0.20100 0.55470 0.89820
H23 H -0.17470 0.63650 0.91790
H24 H -0.12290 0.57240 0.89890
C18 C -0.1761(3) 0.8019(5) 0.8420(2)
H25 H -0.17340 0.84530 0.86780
H26 H -0.21700 0.77330 0.84920
H27 H -0.17640 0.82040 0.80320
N3 N -0.13521(16) 0.7106(2) 0.31967(14)
H28 H -0.12340 0.71300 0.28210
C19 C -0.1313(4) 0.7855(4) 0.3425(2)
H29 H -0.13440 0.78230 0.38390
H30 H -0.16980 0.81560 0.32890
C20 C -0.0693(4) 0.8257(4) 0.3274(3)
H31 H -0.06870 0.87600 0.34530
H32 H -0.06720 0.83180 0.28660
H33 H -0.03100 0.79600 0.34040
C21 C -0.2158(4) 0.6048(5) 0.2916(4)
H34 H -0.26200 0.58780 0.29470
H35 H -0.18630 0.56670 0.30850
H36 H -0.20440 0.61130 0.25190
C22 C -0.0878(3) 0.6541(4) 0.3494(3)
H37 H -0.04180 0.67180 0.34550
H38 H -0.09230 0.60360 0.33230
H39 H -0.09910 0.65110 0.38930
C23 C -0.2071(3) 0.6832(5) 0.3232(3)
H40 H -0.23690 0.72180 0.30620
H41 H -0.21980 0.67710 0.36310
N4 N 0.07591(19) 0.97242(18) 0.88940(18)
H42 H 0.08200 0.92280 0.87700
C24 C 0.1360(5) 0.9932(3) 0.9240(3)
H43 H 0.17580 0.99100 0.90060
H44 H 0.14060 0.95720 0.95520
H45 H 0.13060 1.04490 0.93890
C25 C 0.0089(4) 0.9742(3) 0.9230(4)
H46 H 0.00520 1.00730 0.95440
C26 C -0.0435(3) 0.9302(3) 0.9086(3)
H47 H -0.08050 0.94020 0.93420
H48 H -0.03080 0.87640 0.91110
H49 H -0.05720 0.94200 0.87010
C27 C 0.0708(3) 1.0228(3) 0.8376(2)
H50 H 0.02910 1.01140 0.81710
C28 C 0.1305(4) 1.0087(4) 0.7993(3)
H51 H 0.12700 1.04130 0.76610
H52 H 0.13100 0.95520 0.78770
H53 H 0.17160 1.02060 0.81970
O19 O 0.2270(6) 1.0729(7) 0.7375(7)
H54? H 0.06970 1.07700 0.84900
H55? H 0.042(4) 1.151(5) 0.850(3)
H56? H 0.024(5) 0.098(5) 0.254(7)
O9F O 0.21862(10) 0.67435(11) 0.45827(9)
O10F O 0.31936(9) 0.68603(11) 0.49990(9)
C5F C 0.26058(13) 0.70945(15) 0.48800(11)
O15F O -0.2054(1) 0.81302(11) 0.54561(9)
O16F O -0.31303(10) 0.81668(12) 0.51789(9)
C8F C -0.25595(14) 0.78748(16) 0.51799(12)
Cu1F Cu -0.625944(17) 0.745625(19) 0.555165(16)
Cu2F Cu -0.379537(17) 0.748842(19) 0.453929(16)
O1F O -0.52729(10) 0.66581(12) 0.55002(9)
O2F O -0.56918(10) 0.79791(12) 0.49485(9)
O3F O -0.42574(10) 0.68004(11) 0.50969(9)
O4F O -0.46631(10) 0.80761(12) 0.45739(9)
O5F O -0.58257(10) 0.80984(12) 0.61455(9)
O6F O -0.66655(10) 0.69194(12) 0.62139(9)
O7F O -0.58645(13) 0.82828(16) 0.70847(10)
O8F O -0.67210(13) 0.70394(16) 0.71615(10)
O11F O -0.34725(10) 0.82226(11) 0.39305(9)
O12F O -0.40784(11) 0.68464(11) 0.37081(9)
O13F O -0.34910(15) 0.84935(15) 0.30055(10)
O14F O -0.39999(16) 0.70840(16) 0.27809(10)
C1F C -0.48630(14) 0.70003(16) 0.51941(12)
C2F C -0.51002(14) 0.77504(18) 0.48840(12)
C3F C -0.60250(15) 0.79348(19) 0.66452(14)
C4F C -0.65119(16) 0.7235(2) 0.66891(15)
C6F C -0.39275(15) 0.72536(19) 0.32856(13)
C7F C -0.36023(15) 0.80579(18) 0.34082(13)
Cu1F* Cu 0.374056(17) 0.745625(19) 0.555165(16)
O9* O -0.71862(10) 0.82565(11) 0.54173(9)
O10F* O -0.68064(9) 0.68603(11) 0.49990(9)
#END
