
#######################################################################
#
#                 Cambridge Crystallographic Data Centre
#                                CCDC
#
#######################################################################
#
# If this CIF has been generated from an entry in the Cambridge
# Structural Database, then it will include bibliographic, chemical,
# crystal, experimental, refinement or atomic coordinate data resulting
# from the CCDC's data processing and validation procedures.
#
#######################################################################

data_CSD_CIF_EYAHUJ02
_audit_creation_date 2017-03-23
_audit_creation_method CSD-ConQuest-V1
_database_code_CSD EYAHUJ02
_database_code_depnum_ccdc_archive 'CCDC 1539868'
_chemical_formula_sum 'C56 H116 Cu4 N8 O34'
_chemical_formula_moiety
;
(C16 Cu4 O32 8-)n,8n(C5 H14 N1 1+),2n(H2 O1)
;
_journal_coden_Cambridge 1078
_journal_year 2017
_journal_name_full 'CSD Communication(Private Communication) '
loop_
_publ_author_name
"Bin Zhang"
_chemical_name_systematic
;
catena-(octakis(diethyl(methyl)ammonium) 
tetrakis(\m-oxalato)-tetrakis(oxalato)-tetra-copper dihydrate)
;
_cell_volume   7919.265
_exptl_crystal_colour 'blue'
_exptl_crystal_density_diffrn 1.422
_exptl_crystal_description 'block'
_diffrn_ambient_temperature 290
#These two values have been output from a single CSD field.
_refine_ls_R_factor_gt 0.0479
_refine_ls_wR_factor_gt 0.0479
_symmetry_cell_setting monoclinic
_symmetry_space_group_name_H-M 'C 2/c'
_symmetry_Int_Tables_number 15
loop_
_symmetry_equiv_pos_site_id
_symmetry_equiv_pos_as_xyz
1 x,y,z
2 -x,y,1/2-z
3 1/2+x,1/2+y,z
4 1/2-x,1/2+y,1/2-z
5 -x,-y,-z
6 x,-y,-1/2+z
7 -1/2-x,-1/2-y,-z
8 -1/2+x,-1/2-y,-1/2+z
_cell_length_a 19.7090(2)
_cell_length_b 17.2032(2)
_cell_length_c 23.3568(3)
_cell_angle_alpha 90
_cell_angle_beta 90.1868(4)
_cell_angle_gamma 90
_cell_formula_units_Z 4
loop_
_atom_type_symbol
_atom_type_radius_bond
C 0.68
H 0.23
Cu 1.32
N 0.68
O 0.68
loop_
_atom_site_label
_atom_site_type_symbol
_atom_site_fract_x
_atom_site_fract_y
_atom_site_fract_z
Cu1 Cu 0.12595(2) 0.75440(2) 0.44485(2)
Cu2 Cu -0.12045(2) 0.75113(2) 0.54606(2)
O1 O 0.02718(10) 0.83418(12) 0.44992(9)
O2 O 0.06920(9) 0.70207(11) 0.50526(9)
O3 O -0.07427(9) 0.81982(11) 0.49021(9)
O4 O -0.03359(9) 0.69234(12) 0.54273(9)
O5 O 0.08264(10) 0.69000(12) 0.38541(9)
O6 O 0.16647(10) 0.80809(12) 0.37864(9)
O7 O 0.08635(13) 0.67167(15) 0.29152(10)
O8 O 0.17201(13) 0.79579(16) 0.28378(10)
O9 O 0.28138(9) 0.82572(11) 0.54173(9)
O10 O 0.18067(9) 0.81406(11) 0.50000(9)
O11 O -0.15275(10) 0.67784(11) 0.60695(8)
O12 O -0.09221(11) 0.81542(11) 0.62927(9)
O13 O -0.15081(15) 0.65032(15) 0.69931(10)
O14 O -0.10006(16) 0.79172(16) 0.72199(10)
O15 O -0.29464(9) 0.68700(11) 0.45435(9)
O16 O -0.18697(10) 0.68316(12) 0.48222(9)
C1 C -0.01375(14) 0.80006(16) 0.48044(12)
C2 C 0.01014(14) 0.72491(17) 0.51173(12)
C3 C 0.10267(15) 0.70645(19) 0.33539(14)
C4 C 0.15106(16) 0.77630(19) 0.33124(14)
C5 C 0.23935(13) 0.79057(15) 0.51189(11)
C6 C -0.10729(15) 0.77455(19) 0.67151(13)
C7 C -0.13981(15) 0.69417(17) 0.65896(13)
C8 C -0.24393(14) 0.71263(16) 0.48208(12)
O17 O 0.00000 0.1004(2) 0.25000
H1 H 0.042(3) 0.119(4) 0.269(4)
O18 O 0.00000 0.5484(4) 0.25000
H2 H 0.045(2) 0.561(5) 0.266(4)
O19 O 0.2271(6) 1.0729(7) 0.7374(6)
N1 N -0.32253(16) 0.97874(18) 0.42067(14)
H3 H -0.33210 0.92480 0.40970
C9 C -0.4454(3) 1.0012(3) 0.4246(4)
H4 H -0.48190 1.01800 0.44880
H5 H -0.44270 1.03460 0.39180
H6 H -0.45360 0.94870 0.41230
C10 C -0.3782(3) 1.0047(3) 0.4581(3)
H7 H -0.36990 1.05740 0.47100
H8 H -0.38080 0.97130 0.49160
C11 C -0.2581(2) 0.9788(2) 0.4530(2)
H9 H -0.24480 1.03190 0.46140
H10 H -0.26430 0.95170 0.48910
C12 C -0.2053(3) 0.9409(4) 0.4202(3)
H11 H -0.16370 0.94130 0.44170
H12 H -0.21820 0.88820 0.41240
H13 H -0.19890 0.96820 0.38470
C13 C -0.3160(3) 1.0243(3) 0.3672(2)
H14 H -0.35830 1.02350 0.34680
H15 H -0.30410 1.07700 0.37640
H16 H -0.28120 1.00190 0.34370
N2 N -0.11994(17) 0.6862(2) 0.81779(13)
H17 H -0.12730 0.70130 0.77780
C14 C -0.1718(2) 0.6231(3) 0.83130(19)
H18 H -0.21700 0.64320 0.82390
H19 H -0.16460 0.57940 0.80590
C15 C -0.0492(2) 0.6540(5) 0.8217(2)
H20 H -0.04650 0.60700 0.79980
H21 H -0.01770 0.69140 0.80680
H22 H -0.03840 0.64320 0.86100
C16 C -0.1219(5) 0.7544(4) 0.8501(3)
H23 H -0.08760 0.76670 0.87610
C17 C -0.1680(3) 0.5953(4) 0.8921(2)
H24 H -0.20160 0.55580 0.89820
H25 H -0.12370 0.57420 0.89950
H26 H -0.17610 0.63810 0.91760
C18 C -0.1757(3) 0.8019(5) 0.8420(2)
H27 H -0.17140 0.84650 0.86630
H28 H -0.17710 0.81830 0.80270
H29 H -0.21670 0.77450 0.85110
N3 N -0.13534(16) 0.7104(2) 0.31957(13)
H30 H -0.12230 0.71310 0.27920
C19 C -0.1318(4) 0.7863(4) 0.3428(2)
H31 H -0.13510 0.78330 0.38410
H32 H -0.17000 0.81660 0.32890
C20 C -0.0681(4) 0.8262(4) 0.3273(3)
H33 H -0.06770 0.87730 0.34380
H34 H -0.03020 0.79700 0.34160
H35 H -0.06500 0.83020 0.28640
C21 C -0.2161(4) 0.6043(5) 0.2914(4)
H36 H -0.26260 0.58790 0.29410
H37 H -0.20410 0.61030 0.25190
H38 H -0.18730 0.56600 0.30880
C22 C -0.0880(3) 0.6544(4) 0.3497(3)
H39 H -0.09210 0.60390 0.33260
H40 H -0.04210 0.67240 0.34610
H41 H -0.09980 0.65140 0.38950
C23 C -0.2071(3) 0.6826(5) 0.3227(2)
H42 H -0.23690 0.72110 0.30550
H43 H -0.22000 0.67670 0.36250
N4 N 0.07556(19) 0.97239(18) 0.88937(17)
H44 H 0.08220 0.91900 0.87580
C24 C 0.1356(4) 0.9927(3) 0.9248(3)
H45 H 0.13750 0.95920 0.95760
H46 H 0.17600 0.98640 0.90260
H47 H 0.13200 1.04580 0.93720
C25 C 0.0095(4) 0.9735(3) 0.9235(4)
H48 H 0.00620 1.00540 0.95560
C26 C -0.0425(3) 0.9308(3) 0.9087(3)
H49 H -0.07900 0.93940 0.93510
H50 H -0.05700 0.94480 0.87080
H51 H -0.02980 0.87700 0.90940
C27 C 0.0706(3) 1.0230(3) 0.8380(2)
H52 H 0.07020 1.07710 0.84960
H53 H 0.02850 1.01230 0.81770
C28 C 0.1299(4) 1.0083(4) 0.7991(3)
H54 H 0.12640 1.04120 0.76600
H55 H 0.17140 1.01950 0.81910
H56 H 0.12980 0.95480 0.78730
O10F O 0.31933(9) 0.68594(11) 0.50000(9)
C5F C 0.26065(13) 0.70943(15) 0.48811(11)
O9F O 0.21862(9) 0.67428(11) 0.45827(9)
O16F O -0.31303(10) 0.81684(12) 0.51778(9)
C8F C -0.25607(14) 0.78737(16) 0.51792(12)
O15F O -0.20536(9) 0.81300(11) 0.54565(9)
Cu1F Cu -0.62595(2) 0.74560(2) 0.55515(2)
Cu2F Cu -0.37955(2) 0.74887(2) 0.45394(2)
O1F O -0.52718(10) 0.66582(12) 0.55008(9)
O2F O -0.56920(9) 0.79793(11) 0.49474(9)
O3F O -0.42573(9) 0.68018(11) 0.50979(9)
O4F O -0.46641(9) 0.80766(12) 0.45727(9)
O5F O -0.58264(10) 0.81000(12) 0.61459(9)
O6F O -0.66647(10) 0.69191(12) 0.62136(9)
O7F O -0.58635(13) 0.82833(15) 0.70848(10)
O8F O -0.67201(13) 0.70421(16) 0.71622(10)
O11F O -0.34725(10) 0.82216(11) 0.39305(8)
O12F O -0.40779(11) 0.68458(11) 0.37073(9)
O13F O -0.34919(15) 0.84968(15) 0.30069(10)
O14F O -0.39994(16) 0.70828(16) 0.27801(10)
C1F C -0.48625(14) 0.69994(16) 0.51956(12)
C2F C -0.51014(14) 0.77509(17) 0.48827(12)
C3F C -0.60267(15) 0.79355(19) 0.66461(14)
C4F C -0.65106(16) 0.72370(19) 0.66876(14)
C6F C -0.39271(15) 0.72545(19) 0.32849(13)
C7F C -0.36019(15) 0.80583(17) 0.34104(13)
Cu1F* Cu 0.37405(2) 0.74560(2) 0.55515(2)
O9* O -0.71862(9) 0.82572(11) 0.54173(9)
O10F* O -0.68067(9) 0.68594(11) 0.50000(9)
H1A H -0.042(3) 0.119(4) 0.231(4)
H2A H -0.045(2) 0.561(5) 0.234(4)
#END
