
#######################################################################
#
#                 Cambridge Crystallographic Data Centre
#                                CCDC
#
#######################################################################
#
# If this CIF has been generated from an entry in the Cambridge
# Structural Database, then it will include bibliographic, chemical,
# crystal, experimental, refinement or atomic coordinate data resulting
# from the CCDC's data processing and validation procedures.
#
#######################################################################

data_CSD_CIF_EYAHUJ01
_audit_creation_date 2017-03-23
_audit_creation_method CSD-ConQuest-V1
_database_code_CSD EYAHUJ01
_database_code_depnum_ccdc_archive 'CCDC 1539872'
_chemical_formula_sum 'C56 H116 Cu4 N8 O34'
_chemical_formula_moiety
;
(C16 Cu4 O32 8-)n,8n(C5 H14 N1 1+),2n(H2 O1)
;
_journal_coden_Cambridge 1078
_journal_year 2017
_journal_name_full 'CSD Communication(Private Communication) '
loop_
_publ_author_name
"Bin Zhang"
_chemical_name_systematic
;
catena-(octakis(diethyl(methyl)ammonium) 
tetrakis(\m-oxalato)-tetrakis(oxalato)-tetra-copper dihydrate)
;
_cell_volume   7731.591
_exptl_crystal_colour 'blue'
_exptl_crystal_density_diffrn 1.457
_exptl_crystal_description 'block'
_diffrn_ambient_temperature 150
#These two values have been output from a single CSD field.
_refine_ls_R_factor_gt 0.0365
_refine_ls_wR_factor_gt 0.0365
_symmetry_cell_setting monoclinic
_symmetry_space_group_name_H-M 'C 2/c'
_symmetry_Int_Tables_number 15
loop_
_symmetry_equiv_pos_site_id
_symmetry_equiv_pos_as_xyz
1 x,y,z
2 -x,y,1/2-z
3 1/2+x,1/2+y,z
4 1/2-x,1/2+y,1/2-z
5 -x,-y,-z
6 x,-y,-1/2+z
7 -1/2-x,-1/2-y,-z
8 -1/2+x,-1/2-y,-1/2+z
_cell_length_a 19.5856(2)
_cell_length_b 17.0392(2)
_cell_length_c 23.1683(2)
_cell_angle_alpha 90
_cell_angle_beta 90.4144(4)
_cell_angle_gamma 90
_cell_formula_units_Z 4
loop_
_atom_type_symbol
_atom_type_radius_bond
C 0.68
H 0.23
Cu 1.32
N 0.68
O 0.68
loop_
_atom_site_label
_atom_site_type_symbol
_atom_site_fract_x
_atom_site_fract_y
_atom_site_fract_z
Cu1 Cu 0.12618(2) 0.75535(2) 0.44308(2)
Cu2 Cu -0.11952(2) 0.75068(2) 0.54598(2)
O1 O 0.02894(7) 0.83600(9) 0.45001(7)
O2 O 0.07081(7) 0.70094(9) 0.50382(6)
O3 O -0.07385(7) 0.82102(9) 0.49048(6)
O4 O -0.03261(7) 0.69153(9) 0.54261(6)
O5 O 0.08109(7) 0.69074(9) 0.38332(6)
O6 O 0.16733(8) 0.80884(9) 0.37643(6)
O7 O 0.08600(8) 0.66969(10) 0.28838(7)
O8 O 0.17464(9) 0.79369(10) 0.28067(7)
O9 O 0.28229(7) 0.82655(8) 0.54205(6)
O10 O 0.18099(7) 0.81640(8) 0.49861(6)
O11 O -0.15196(7) 0.67622(8) 0.60626(6)
O12 O -0.09204(8) 0.81495(8) 0.63058(6)
O13 O -0.14986(10) 0.6459(1) 0.69929(7)
O14 O -0.10170(11) 0.79004(11) 0.72447(7)
O15 O -0.29562(7) 0.68645(8) 0.45393(6)
O16 O -0.18623(7) 0.68326(9) 0.48082(6)
C1 C -0.01261(10) 0.80097(12) 0.48041(9)
C2 C 0.01104(11) 0.72422(12) 0.51110(9)
C3 C 0.10234(10) 0.70576(13) 0.33306(9)
C4 C 0.15268(11) 0.77586(13) 0.32850(9)
C5 C 0.23976(10) 0.79136(12) 0.51173(8)
C6 C -0.10793(11) 0.77330(13) 0.67294(9)
C7 C -0.13920(11) 0.69125(12) 0.65917(9)
C8 C -0.24417(10) 0.71249(12) 0.48130(9)
O17 O 0.00000 0.10064(15) 0.25000
H1 H 0.0395(14) 0.133(2) 0.2567(17)
O18 O 0.00000 0.54277(16) 0.25000
H2 H 0.0265(17) 0.5755(18) 0.2670(16)
O19 O 0.2253(7) 1.0721(8) 0.7327(8)
N1 N -0.32364(10) 0.98059(11) 0.41991(8)
H3 H -0.33450 0.92520 0.40900
C9 C -0.44964(15) 1.00533(17) 0.42462(18)
H4 H -0.48560 1.02570 0.44980
H5 H -0.44820 1.03650 0.38910
H6 H -0.45940 0.95040 0.41500
C10 C -0.38150(13) 1.01055(15) 0.45544(12)
H7 H -0.37250 1.06600 0.46580
H8 H -0.38370 0.97990 0.49170
C11 C -0.25938(13) 0.97935(14) 0.45496(12)
H9 H -0.26750 0.95190 0.49190
H10 H -0.24490 1.03370 0.46370
C12 C -0.20411(16) 0.9378(2) 0.42188(16)
H11 H -0.16200 0.93710 0.44500
H12 H -0.21850 0.88390 0.41360
H13 H -0.19590 0.96560 0.38550
C13 C -0.31565(16) 1.02631(15) 0.36543(11)
H14 H -0.35880 1.02570 0.34370
H15 H -0.30330 1.08060 0.37480
H16 H -0.27960 1.00260 0.34200
N2 N -0.11769(12) 0.68057(13) 0.81734(9)
H17 H -0.12620 0.69700 0.77650
C14 C -0.17235(15) 0.62200(17) 0.83186(11)
H18 H -0.16920 0.57700 0.80500
H19 H -0.21760 0.64680 0.82610
C15 C -0.04668(16) 0.6413(3) 0.81855(15)
H20 H -0.04820 0.59270 0.79600
H21 H -0.01290 0.67710 0.80190
H22 H -0.03380 0.62920 0.85850
C16 C -0.11373(18) 0.75245(18) 0.85123(14)
H23 H -0.07430 0.78400 0.83820
H24 H -0.10620 0.73900 0.89240
C17 C -0.16703(19) 0.5919(2) 0.89337(13)
H25 H -0.20380 0.55410 0.90040
H26 H -0.12270 0.56620 0.89910
H27 H -0.17120 0.63600 0.92030
C18 C -0.17647(16) 0.7994(2) 0.84551(14)
H28 H -0.17210 0.84720 0.86880
H29 H -0.18360 0.81360 0.80490
H30 H -0.21550 0.76870 0.85900
N3 N -0.13751(10) 0.70438(12) 0.32193(8)
H31 H -0.12190 0.70540 0.28090
C19 C -0.13087(15) 0.78411(17) 0.34496(12)
H32 H -0.13460 0.78230 0.38750
H33 H -0.16890 0.81670 0.33000
C20 C -0.06413(17) 0.82188(19) 0.32905(15)
H34 H -0.06210 0.87490 0.34540
H35 H -0.02630 0.79050 0.34450
H36 H -0.06060 0.82480 0.28690
C21 C -0.22172(19) 0.6017(2) 0.29179(18)
H37 H -0.27020 0.58780 0.29310
H38 H -0.20740 0.60620 0.25150
H39 H -0.19480 0.56080 0.31110
C22 C -0.09259(14) 0.64829(18) 0.35422(12)
H40 H -0.09800 0.59550 0.33800
H41 H -0.04490 0.66490 0.35080
H42 H -0.10550 0.64780 0.39500
C23 C -0.21063(13) 0.67839(18) 0.32186(12)
H43 H -0.22620 0.67370 0.36230
H44 H -0.23890 0.71910 0.30270
N4 N 0.07658(12) 0.97310(12) 0.88713(10)
H45 H 0.08170 0.91840 0.87210
C24 C 0.1416(2) 0.99369(18) 0.91891(18)
H46 H 0.14760 0.95840 0.95190
H47 H 0.18050 0.98810 0.89280
H48 H 0.13910 1.04800 0.93260
C25 C 0.01833(19) 0.97303(18) 0.92854(14)
H49 H 0.03380 0.94910 0.96530
H50 H 0.00520 1.02800 0.93670
C26 C -0.04224(16) 0.9301(2) 0.90738(17)
H51 H -0.07830 0.93240 0.93650
H52 H -0.05870 0.95420 0.87150
H53 H -0.03000 0.87520 0.90010
C27 C 0.06580(14) 1.02566(15) 0.83653(12)
H54 H 0.02060 1.01400 0.81920
H55 H 0.06500 1.08070 0.85020
C28 C 0.11796(18) 1.0183(2) 0.79163(17)
H56 H 0.10740 1.05460 0.75990
H57 H 0.16290 1.03120 0.80800
H58 H 0.11840 0.96440 0.77700
O10F O 0.31901(7) 0.68360(8) 0.50139(6)
C5F C 0.26024(10) 0.70864(12) 0.48827(8)
O9F O 0.21771(7) 0.67345(8) 0.45795(6)
O16F O -0.31377(7) 0.81674(9) 0.51918(6)
C8F C -0.25583(10) 0.78751(12) 0.51870(9)
O15F O -0.20438(7) 0.81355(8) 0.54607(6)
Cu1F Cu -0.62618(2) 0.74465(2) 0.55692(2)
Cu2F Cu -0.38048(2) 0.74932(2) 0.45402(2)
O1F O -0.52894(7) 0.66400(9) 0.54999(7)
O2F O -0.57081(7) 0.79906(9) 0.49618(6)
O3F O -0.42615(7) 0.67898(9) 0.50952(6)
O4F O -0.46739(7) 0.80847(9) 0.45739(6)
O5F O -0.58109(7) 0.80926(9) 0.61668(6)
O6F O -0.66733(8) 0.69116(9) 0.62357(6)
O7F O -0.58600(8) 0.83031(10) 0.71162(7)
O8F O -0.67464(9) 0.70631(10) 0.71933(7)
O11F O -0.34804(7) 0.82378(8) 0.39374(6)
O12F O -0.40796(8) 0.68505(8) 0.36942(6)
O13F O -0.35014(10) 0.8541(1) 0.30071(7)
O14F O -0.39830(11) 0.70996(11) 0.27553(7)
C1F C -0.48739(10) 0.69903(12) 0.51959(9)
C2F C -0.51104(11) 0.77578(12) 0.48890(9)
C3F C -0.60234(10) 0.79424(13) 0.66694(9)
C4F C -0.65268(11) 0.72414(13) 0.67150(9)
C6F C -0.39207(11) 0.72670(13) 0.32706(9)
C7F C -0.36080(11) 0.80875(12) 0.34083(9)
Cu1F* Cu 0.37382(2) 0.74465(2) 0.55692(2)
O9* O -0.71771(7) 0.82655(8) 0.54205(6)
O10F* O -0.68099(7) 0.68360(8) 0.50139(6)
H1A H -0.0395(14) 0.133(2) 0.2433(17)
H2A H -0.0265(17) 0.5755(18) 0.2330(16)
#END
