
#######################################################################
#
#                 Cambridge Crystallographic Data Centre
#                                CCDC
#
#######################################################################
#
# If this CIF has been generated from an entry in the Cambridge
# Structural Database, then it will include bibliographic, chemical,
# crystal, experimental, refinement or atomic coordinate data resulting
# from the CCDC's data processing and validation procedures.
#
#######################################################################

data_CSD_CIF_EYAHOD01
_audit_creation_date 2017-03-24
_audit_creation_method CSD-ConQuest-V1
_database_code_CSD EYAHOD01
_database_code_depnum_ccdc_archive 'CCDC 1539957'
_chemical_formula_sum 'C20 H50 Cu2 N4 O21'
_chemical_formula_moiety
;
(C8 Cu2 O16 4-)n,4(C3 H10 N1 1+),5(H2 O1)
;
_journal_coden_Cambridge 1078
_journal_year 2017
_journal_name_full 'CSD Communication(Private Communication) '
loop_
_publ_author_name
"Bin Zhang"
_chemical_name_systematic
;
catena-(tetrakis(trimethylammonium) bis(\m-oxalato)-bis(oxalato)-di-copper 
pentahydrate)
;
_cell_volume   1783.049
_exptl_crystal_colour 'blue'
_exptl_crystal_density_diffrn 1.508
_exptl_crystal_description 'block'
_diffrn_ambient_temperature 293
_diffrn_special_details
;
twin

;
#These two values have been output from a single CSD field.
_refine_ls_R_factor_gt 0.0713
_refine_ls_wR_factor_gt 0.0713
_symmetry_cell_setting triclinic
_symmetry_space_group_name_H-M 'P 1'
_symmetry_Int_Tables_number 1
loop_
_symmetry_equiv_pos_site_id
_symmetry_equiv_pos_as_xyz
1 x,y,z
_cell_length_a 9.314(3)
_cell_length_b 11.722(3)
_cell_length_c 17.142(5)
_cell_angle_alpha 74.883(7)
_cell_angle_beta 89.834(11)
_cell_angle_gamma 80.986(9)
_cell_formula_units_Z 2
loop_
_atom_type_symbol
_atom_type_radius_bond
C 0.68
H 0.23
Cu 1.32
N 0.68
O 0.68
loop_
_atom_site_label
_atom_site_type_symbol
_atom_site_fract_x
_atom_site_fract_y
_atom_site_fract_z
C1 C 0.2891(15) 0.4230(12) 0.4491(8)
C2 C 0.3387(13) 0.5221(12) 0.3878(7)
C3 C 0.5823(14) 0.3143(11) 0.2092(9)
C4 C 0.1612(17) 0.2084(11) 0.2674(8)
C5 C 0.0759(14) 0.3383(10) 0.2254(8)
C6 C -0.0902(15) 0.1143(10) 0.0531(9)
C7 C -0.1457(13) 0.0159(10) 0.1269(7)
C8 C 0.6536(18) 0.2470(14) 0.2915(8)
O1 O 0.2832(12) 0.3268(9) 0.4241(6)
O2 O 0.3789(12) 0.5033(7) 0.3188(5)
O3 O 0.2634(14) 0.4313(9) 0.5156(6)
O4 O 0.3459(14) 0.6202(10) 0.4039(6)
O5 O 0.4468(12) 0.3614(9) 0.2085(6)
O6 O 0.5826(11) 0.2445(10) 0.3504(6)
O7 O 0.2762(11) 0.1966(9) 0.3058(6)
O8 O 0.1357(11) 0.4224(6) 0.2362(5)
O9 O 0.0928(10) 0.1216(7) 0.2587(6)
O10 O -0.0326(10) 0.3524(7) 0.1814(6)
O11 O -0.0610(11) 0.2047(8) 0.0719(5)
O12 O -0.1676(11) 0.0519(9) 0.1881(6)
O13 O -0.1573(12) -0.0793(7) 0.1129(5)
O14 O -0.0823(11) 0.0951(10) -0.0132(5)
O15 O 0.6531(11) 0.3252(9) 0.1443(6)
O16 O 0.7869(11) 0.2035(8) 0.2908(5)
Cu1 Cu 0.35031(14) 0.34062(11) 0.31430(7)
Cu2 Cu -0.12341(14) 0.20862(10) 0.18307(7)
C9 C 0.5330(12) 0.7992(9) 0.7209(7)
C10 C 0.3319(14) 1.0306(11) 0.8881(7)
C11 C 0.2838(13) 0.9390(12) 0.9536(7)
C12 C 0.1063(13) 0.7094(12) 0.7848(7)
C13 C 0.0415(11) 0.8411(10) 0.7423(6)
C14 C 0.6171(15) 0.728(1) 0.8036(6)
C15 C -0.1530(14) 0.5242(9) 0.6263(7)
C16 C -0.1000(15) 0.6340(13) 0.5622(8)
O17 O 0.3994(12) 0.8471(10) 0.7214(6)
O18 O 0.5413(10) 0.7258(9) 0.8621(5)
O19 O 0.3654(12) 1.0032(7) 0.8194(5)
O20 O 0.2574(11) 0.8434(8) 0.9336(6)
O21 O 0.2785(13) 0.9546(8) 1.0223(6)
O22 O 0.3496(13) 1.1304(10) 0.8957(6)
O23 O 0.2287(12) 0.6989(9) 0.8270(6)
O24 O 0.0971(11) 0.9204(8) 0.7510(6)
O25 O 0.0507(9) 0.6283(9) 0.7733(6)
O26 O -0.0803(11) 0.8537(7) 0.7025(6)
O27 O 0.7489(11) 0.687(1) 0.8019(6)
O28 O 0.6063(12) 0.8046(10) 0.6569(6)
O29 O -0.1865(11) 0.5465(9) 0.6920(6)
O30 O -0.0830(12) 0.7197(9) 0.5875(6)
O31 O -0.1513(12) 0.4326(9) 0.6055(6)
O32 O -0.0700(15) 0.6208(11) 0.4922(6)
Cu3 Cu 0.31375(13) 0.8408(1) 0.82658(7)
Cu4 Cu -0.16065(15) 0.70926(11) 0.69471(7)
C17 C -0.0934(18) -0.1952(14) -0.0556(9)
H1 H -0.00310 -0.17280 -0.07640
H2 H -0.07640 -0.24720 -0.00190
H3 H -0.13370 -0.23620 -0.08990
C18 C -0.3374(16) -0.1243(13) -0.0205(9)
H4 H -0.31930 -0.17230 0.03420
H5 H -0.40980 -0.05580 -0.02170
H6 H -0.37140 -0.17080 -0.05300
C19 C -0.2220(19) -0.0068(14) -0.1400(9)
H7 H -0.13170 0.01770 -0.15910
H8 H -0.25500 -0.05230 -0.17350
H9 H -0.29340 0.06270 -0.14220
N1 N -0.1996(14) -0.0834(11) -0.0534(7)
H10 H -0.15980 -0.04010 -0.01890
C20 C 0.2806(16) 1.2481(11) 1.0616(9)
H11 H 0.27740 1.29680 1.00690
H12 H 0.18610 1.22760 1.07490
H13 H 0.30930 1.29170 1.09760
C21 C 0.402(3) 1.0555(13) 1.1503(10)
H14 H 0.30800 1.04050 1.16890
H15 H 0.46140 0.98150 1.14840
H16 H 0.44770 1.09030 1.18660
C22 C 0.5290(17) 1.1630(19) 1.0389(11)
H17 H 0.51550 1.21720 0.98590
H18 H 0.57530 1.19860 1.07440
H19 H 0.58910 1.08980 1.03620
N2 N 0.3870(12) 1.1375(10) 1.0699(7)
H20 H 0.34930 1.09450 1.03450
C23 C 0.2389(19) 0.5824(14) 0.0713(9)
H21 H 0.32060 0.52560 0.06400
H22 H 0.15330 0.54500 0.07870
H23 H 0.22420 0.64950 0.02440
C24 C 0.4112(17) 0.6625(14) 0.1374(10)
H24 H 0.42890 0.68930 0.18430
H25 H 0.48540 0.59670 0.13520
H26 H 0.41260 0.72700 0.08960
C25 C 0.1509(17) 0.7102(13) 0.1603(11)
H27 H 0.17880 0.73180 0.20770
H28 H 0.13420 0.78020 0.11540
H29 H 0.06340 0.67570 0.16970
N3 N 0.2669(13) 0.6231(11) 0.1420(6)
H30 H 0.27510 0.55210 0.18810
C26 C 0.4083(18) 0.1452(16) 0.6362(9)
H31 H 0.43590 0.16810 0.68310
H32 H 0.47730 0.07850 0.62980
H33 H 0.40680 0.21130 0.58920
C27 C 0.2186(16) 0.0755(11) 0.5749(8)
H34 H 0.29350 0.01520 0.56510
H35 H 0.12880 0.04430 0.58350
H36 H 0.20650 0.14420 0.52900
C28 C 0.1494(16) 0.2017(11) 0.6640(8)
H37 H 0.18010 0.22220 0.71130
H38 H 0.13660 0.27160 0.61890
H39 H 0.05900 0.17170 0.67340
N4 N 0.2595(14) 0.1101(11) 0.6461(7)
H40 H 0.26660 0.03900 0.69210
C29 C -0.316(2) 0.451(3) 0.4413(18)
H41 H -0.35750 0.53370 0.43210
H42 H -0.35490 0.41880 0.40120
H43 H -0.34000 0.40730 0.49410
C30 C -0.116(3) 0.5024(16) 0.3498(10)
H44 H -0.01210 0.49500 0.34620
H45 H -0.15400 0.46610 0.31190
H46 H -0.15780 0.58560 0.33750
C31 C -0.079(2) 0.3120(14) 0.4497(11)
H47 H 0.02410 0.31040 0.44550
H48 H -0.09920 0.26640 0.50260
H49 H -0.11410 0.27790 0.40970
N5 N -0.1537(17) 0.4390(14) 0.4360(8)
H50 H -0.11440 0.47550 0.47490
C32 C 1.0404(19) 0.3400(14) 0.8485(9)
H51 H 1.13070 0.37050 0.84370
H52 H 1.04950 0.26820 0.89200
H53 H 1.01660 0.32240 0.79890
C33 C 0.9622(17) 0.4643(12) 0.9420(8)
H54 H 1.05150 0.49640 0.93460
H55 H 0.88670 0.52270 0.95360
H56 H 0.97500 0.39340 0.98630
C34 C 0.7820(16) 0.3827(13) 0.8727(8)
H57 H 0.76000 0.36460 0.82300
H58 H 0.79260 0.31090 0.91620
H59 H 0.70420 0.44010 0.88340
N6 N 0.9202(13) 0.4333(9) 0.8657(8)
H60 H 0.90950 0.50560 0.82050
C35 C 0.969(2) 0.9792(17) 0.4388(10)
H61 H 1.06170 1.00620 0.43260
H62 H 0.89660 1.04220 0.44730
H63 H 0.97510 0.91060 0.48440
C36 C 1.043(2) 0.8484(16) 0.3435(11)
H64 H 1.13650 0.87430 0.34060
H65 H 1.04730 0.77540 0.38560
H66 H 1.01840 0.83490 0.29270
C37 C 0.7861(18) 0.9028(13) 0.3662(10)
H67 H 0.76630 0.88310 0.31670
H68 H 0.78930 0.83290 0.41080
H69 H 0.71080 0.96460 0.37360
N7 N 0.9276(13) 0.9454(11) 0.3622(8)
H70 H 0.92110 1.01710 0.31670
C38 C 0.2747(17) 0.7351(15) 0.5586(10)
H71 H 0.17060 0.74410 0.56100
H72 H 0.31210 0.77410 0.59510
H73 H 0.30070 0.77070 0.50450
C39 C 0.4932(18) 0.590(2) 0.5790(12)
H74 H 0.52030 0.63610 0.52780
H75 H 0.53270 0.61620 0.62170
H76 H 0.53060 0.50680 0.58540
C40 C 0.2854(15) 0.5389(15) 0.6580(8)
H77 H 0.18100 0.55330 0.65630
H78 H 0.31950 0.45490 0.66570
H79 H 0.32160 0.56430 0.70200
N8 N 0.3373(14) 0.6059(12) 0.5821(8)
H80 H 0.30340 0.57240 0.54010
O33 O 0.4838(15) 0.3086(11) 0.7969(8)
O34 O 0.7136(16) 0.2518(12) 0.7019(8)
O35 O 0.5761(15) 0.9781(11) 0.5156(6)
O36 O 0.491(2) 0.7951(15) 0.3126(11)
O37 O 0.7181(14) 0.7434(11) 0.2131(8)
O38 O 0.8069(15) 0.5840(11) 0.1163(9)
O39 O 0.5708(10) 0.4949(7) -0.0002(6)
O40 O 0.3962(14) 0.9599(9) 0.3986(9)
O41 O 0.3856(15) 0.4625(9) 0.8967(8)
O42 O -0.2008(17) 1.0825(12) 0.6087(9)
O15* O -0.3469(11) 0.3252(9) 0.1443(6)
O16* O -0.2131(11) 0.2035(8) 0.2908(5)
Cu2* Cu 0.87659(14) 0.20862(10) 0.18307(7)
O27* O -0.2511(11) 0.687(1) 0.8019(6)
O28* O -0.3937(12) 0.8046(10) 0.6569(6)
Cu4* Cu 0.83935(15) 0.70926(11) 0.69471(7)
#END
