
#######################################################################
#
#                 Cambridge Crystallographic Data Centre
#                                CCDC
#
#######################################################################
#
# If this CIF has been generated from an entry in the Cambridge
# Structural Database, then it will include bibliographic, chemical,
# crystal, experimental, refinement or atomic coordinate data resulting
# from the CCDC's data processing and validation procedures.
#
#######################################################################

data_CSD_CIF_EYAKOG
_audit_creation_date 2016-10-28
_audit_creation_method CSD-ConQuest-V1
_database_code_CSD EYAKOG
_database_code_depnum_ccdc_archive 'CCDC 957230'
_chemical_formula_sum 'C24 H50 Cu2 N2 O15'
_chemical_formula_moiety
;
(C9 H22 N1 1+)2n,n(C6 Cu2 O12 2-),3n(H2 O1)
;
_journal_coden_Cambridge 1078
_journal_year 2016
_journal_name_full 'CSD Communication(Private Communication) '
loop_
_publ_author_name
"Zhang Bin"
_chemical_name_systematic
;
catena-[bis(tripropylammonium) tris(\m-oxalato)-di-copper trihydrate]
;
_cell_volume   3390.010
_exptl_crystal_colour 'blue'
_exptl_crystal_density_diffrn 1.438
_exptl_special_details
;
Organic Solid Laboratory, BNLMS, CMS & Institute of Chemistry, Chinese 
Academy of Sciences, Beijing, 100190, P. R. China
Air-sensitive
;
_exptl_crystal_description 'plate'
_diffrn_ambient_temperature 173.2
#These two values have been output from a single CSD field.
_refine_ls_R_factor_gt 0.0645
_refine_ls_wR_factor_gt 0.0645
_symmetry_cell_setting monoclinic
_symmetry_space_group_name_H-M 'P 21/n'
_symmetry_Int_Tables_number 14
loop_
_symmetry_equiv_pos_site_id
_symmetry_equiv_pos_as_xyz
1 x,y,z
2 1/2-x,1/2+y,1/2-z
3 -x,-y,-z
4 -1/2+x,-1/2-y,-1/2+z
_cell_length_a 9.395(2)
_cell_length_b 15.872(4)
_cell_length_c 22.734(6)
_cell_angle_alpha 90
_cell_angle_beta 90.226(3)
_cell_angle_gamma 90
_cell_formula_units_Z 4
loop_
_atom_type_symbol
_atom_type_radius_bond
C 0.68
H 0.23
Cu 1.32
N 0.68
O 0.68
loop_
_atom_site_label
_atom_site_type_symbol
_atom_site_fract_x
_atom_site_fract_y
_atom_site_fract_z
Cu1 Cu 0.43740(4) 0.33284(2) 0.248980(18)
Cu2 Cu -0.06446(4) 0.49332(2) 0.245499(18)
O1 O 0.3263(2) 0.41668(14) 0.29389(10)
O2 O 0.2625(3) 0.32339(15) 0.20145(11)
O3 O 0.1145(2) 0.47817(15) 0.29192(11)
O4 O 0.0531(2) 0.38875(15) 0.19181(11)
O5 O 0.5463(3) 0.43764(16) 0.19487(11)
O6 O 0.6137(2) 0.35234(15) 0.29633(11)
O7 O 0.7621(3) 0.49641(15) 0.19691(11)
O8 O 0.8278(2) 0.41158(15) 0.29361(11)
O9 O 0.5357(2) 0.24560(14) 0.20194(10)
O10 O 0.3975(3) 0.21365(14) 0.30466(10)
O11 O 0.6098(2) 0.11227(14) 0.19998(10)
O12 O 0.4723(2) 0.08128(14) 0.30251(10)
C1 C 0.2047(3) 0.4288(2) 0.27186(14)
C2 C 0.1685(3) 0.3761(2) 0.21641(15)
C3 C 0.6652(4) 0.4485(2) 0.21682(15)
C4 C 0.7055(3) 0.3993(2) 0.27368(14)
C5 C 0.5437(3) 0.1714(2) 0.22245(14)
C6 C 0.4638(3) 0.1540(2) 0.28139(14)
N1 N 0.1273(4) 0.6818(2) 0.07442(14)
H1 H 0.12300 0.68380 0.11530
C7 C 0.1493(5) 0.5912(3) 0.05744(18)
H2 H 0.16390 0.58820 0.01440
H3 H 0.06150 0.55930 0.06660
C8 C 0.2736(5) 0.5487(3) 0.0877(2)
H4 H 0.26500 0.55570 0.13080
H5 H 0.36350 0.57560 0.07510
C9 C 0.2774(6) 0.4551(3) 0.0726(2)
H6 H 0.18630 0.42910 0.08310
H7 H 0.35440 0.42770 0.09470
H8 H 0.29400 0.44820 0.03030
C10 C 0.2500(5) 0.7361(3) 0.05600(18)
H9 H 0.25510 0.73630 0.01250
H10 H 0.33930 0.71080 0.07110
C11 C 0.2409(5) 0.8256(3) 0.0772(2)
H11 H 0.20980 0.82600 0.11880
H12 H 0.16870 0.85620 0.05370
C12 C 0.3832(5) 0.8707(3) 0.0724(2)
H13 H 0.45320 0.84300 0.09790
H14 H 0.37200 0.92960 0.08450
H15 H 0.41600 0.86870 0.03150
C13 C -0.0122(5) 0.7157(3) 0.05115(19)
H16 H -0.01840 0.77630 0.06100
H17 H -0.01210 0.71090 0.00770
C14 C -0.1408(5) 0.6727(4) 0.0741(2)
H18 H -0.13720 0.67230 0.11760
H19 H -0.14120 0.61340 0.06040
C15 C -0.2771(5) 0.7154(4) 0.0541(2)
H20 H -0.28080 0.77260 0.07020
H21 H -0.35920 0.68320 0.06810
H22 H -0.27940 0.71800 0.01100
N2 N 0.0398(3) 0.12113(18) 0.14617(12)
H23 H 0.00940 0.17240 0.13080
C16 C 0.1731(4) 0.0954(2) 0.11430(16)
H24 H 0.14630 0.06820 0.07670
H25 H 0.22480 0.05330 0.13830
C17 C 0.2709(4) 0.1684(3) 0.10179(19)
H26 H 0.29640 0.19680 0.13910
H27 H 0.22120 0.20980 0.07640
C18 C 0.4050(4) 0.1384(3) 0.07151(18)
H28 H 0.45580 0.09900 0.09730
H29 H 0.46630 0.18690 0.06300
H30 H 0.37970 0.11000 0.03460
C19 C -0.0767(4) 0.0572(2) 0.13629(16)
H31 H -0.14940 0.06360 0.16740
H32 H -0.03600 -0.00010 0.13970
C20 C -0.1472(5) 0.0663(3) 0.07689(18)
H33 H -0.07380 0.06640 0.04570
H34 H -0.19910 0.12050 0.07500
C21 C -0.2504(6) -0.0060(3) 0.0666(2)
H35 H -0.29890 0.00180 0.02880
H36 H -0.32090 -0.00720 0.09830
H37 H -0.19790 -0.05940 0.06620
C22 C 0.0683(4) 0.1329(2) 0.21129(15)
H38 H 0.07570 0.07680 0.23020
H39 H 0.16070 0.16190 0.21650
C23 C -0.0460(4) 0.1829(3) 0.24141(16)
H40 H -0.13750 0.15230 0.23850
H41 H -0.05750 0.23780 0.22130
C24 C -0.0098(5) 0.1978(3) 0.30571(18)
H42 H -0.00870 0.14380 0.32660
H43 H -0.08140 0.23490 0.32320
H44 H 0.08420 0.22430 0.30880
O13 O -0.0369(3) 0.27846(17) 0.10171(12)
H45 H -0.012(5) 0.315(3) 0.127(2)
H46 H -0.128(6) 0.284(4) 0.104(2)
O14 O 0.6758(3) 0.2968(2) 0.09692(14)
H47 H 0.659(6) 0.345(4) 0.093(2)
H48 H 0.635(6) 0.278(4) 0.127(3)
O15 O 0.6657(6) 0.4768(3) 0.07751(18)
Cu2* Cu 0.93554(4) 0.49332(2) 0.245499(18)
Cu2A Cu 0.56446(4) -0.00668(2) 0.254501(18)
O7* O -0.2379(3) 0.49641(15) 0.19691(11)
O8* O -0.1722(2) 0.41158(15) 0.29361(11)
O11A O -0.1098(2) 0.61227(14) 0.30002(10)
O12A O 0.0277(2) 0.58128(14) 0.19749(10)
#END
