
#######################################################################
#
#                 Cambridge Crystallographic Data Centre
#                                CCDC
#
#######################################################################
#
# If this CIF has been generated from an entry in the Cambridge
# Structural Database, then it will include bibliographic, chemical,
# crystal, experimental, refinement or atomic coordinate data resulting
# from the CCDC's data processing and validation procedures.
#
#######################################################################

data_CSD_CIF_EYELUP
_audit_creation_date 2004-10-07
_audit_creation_method CSD-ConQuest-V1
_database_code_CSD EYELUP
_database_code_depnum_ccdc_archive 'CCDC 214532'
_chemical_formula_sum 'C20 H12 Cd2 Na2 O18'
_chemical_formula_moiety
;
(C20 H12 Cd2 O18 2-)n,2n(Na1 1+)
;
_journal_coden_Cambridge 580
_journal_volume 23
_journal_year 2004
_journal_page_first 1003
_journal_name_full 'Polyhedron '
loop_
_publ_author_name
"Sheng-Qing Xia"
"Sheng-Min Hu"
"Jing-Cao Dai"
"Xin-Tao Wu"
"Zhi-Yong Fu"
"Jian-Jun Zhang"
"Wen-Xin Du"
_chemical_name_systematic
;
catena-(Di-sodium 
(\m~2~-oxalato)-bis(\m~2~-1-carboxybenzene-3,5-dicarboxylato-O,O',O'')-diaqua-
di-cadmium(ii))
;
_cell_volume    567.000
_exptl_crystal_colour 'colorless'
_exptl_crystal_density_diffrn 2.375
_exptl_crystal_description 'block'
_diffrn_ambient_temperature 293
#These two values have been output from a single CSD field.
_refine_ls_R_factor_gt 0.0704
_refine_ls_wR_factor_gt 0.0704
_symmetry_cell_setting triclinic
_symmetry_space_group_name_H-M 'P -1'
_symmetry_Int_Tables_number 2
loop_
_symmetry_equiv_pos_site_id
_symmetry_equiv_pos_as_xyz
1 x,y,z
2 -x,-y,-z
_cell_length_a 6.6981(4)
_cell_length_b 8.6266(6)
_cell_length_c 10.3659(7)
_cell_angle_alpha 96.286(3)
_cell_angle_beta 107.42
_cell_angle_gamma 91.431(2)
_cell_formula_units_Z 1
loop_
_atom_type_symbol
_atom_type_radius_bond
C 0.68
H 0.23
Cd 1.69
Na 0.97
O 0.68
loop_
_atom_site_label
_atom_site_type_symbol
_atom_site_fract_x
_atom_site_fract_y
_atom_site_fract_z
Cd1 Cd 0.79219(16) 0.30003(10) 0.50235(9)
Na1 Na 0.4138(10) 0.0069(6) 0.2864(5)
C1 C 0.7419(19) 0.4769(14) 0.8950(12)
C2 C 0.7420(18) 0.3956(14) 1.0024(11)
H1 H 0.73060 0.28690 0.99100
C3 C 0.7599(19) 0.4814(14) 1.1307(12)
C4 C 0.7663(19) 0.6414(14) 1.1454(12)
H2 H 0.77350 0.69680 1.22900
C5 C 0.7619(19) 0.7218(13) 1.0336(12)
C6 C 0.7524(18) 0.6390(15) 0.9089(12)
H3 H 0.75310 0.69180 0.83540
C7 C 0.7322(17) 0.3889(13) 0.7589(11)
C8 C 0.7691(19) 0.3975(14) 1.2503(12)
C9 C 0.762(2) 0.8943(15) 1.0435(14)
C10 C 1.1081(19) 0.0454(13) 0.5148(12)
O1 O 0.7575(13) 0.4682(9) 0.6672(8)
O2 O 0.7094(16) 0.2444(9) 0.7405(9)
O3 O 0.7481(17) 0.2517(10) 1.2410(9)
O4 O 0.7901(16) 0.4805(10) 1.3621(8)
O5 O 0.7903(18) 0.964(1) 1.1691(9)
O6 O 0.7293(15) 0.9667(10) 0.9471(9)
O7 O 1.1080(12) 0.1912(8) 0.5314(9)
O8 O 1.2658(14) -0.0309(10) 0.5241(9)
O9 O 0.4135(13) 0.2638(10) 0.4138(8)
C10A C 0.8919(19) -0.0454(13) 0.4852(12)
O7A O 0.8920(12) -0.1912(8) 0.4686(9)
O8A O 0.7342(14) 0.0309(10) 0.4759(9)
C1* C 0.7419(19) 0.4769(14) -0.1050(12)
C2* C 0.7420(18) 0.3956(14) 0.0024(11)
H1* H 0.73060 0.28690 -0.00900
C3* C 0.7599(19) 0.4814(14) 0.1307(12)
C4* C 0.7663(19) 0.6414(14) 0.1454(12)
H2* H 0.77350 0.69680 0.22900
C5* C 0.7619(19) 0.7218(13) 0.0336(12)
C6* C 0.7524(18) 0.6390(15) -0.0911(12)
H3* H 0.75310 0.69180 -0.16460
C7* C 0.7322(17) 0.3889(13) -0.2411(11)
C8* C 0.7691(19) 0.3975(14) 0.2503(12)
C9* C 0.762(2) 0.8943(15) 0.0435(14)
O1* O 0.7575(13) 0.4682(9) -0.3328(8)
O2* O 0.7094(16) 0.2444(9) -0.2595(9)
O3* O 0.7481(17) 0.2517(10) 0.2410(9)
O4* O 0.7901(16) 0.4805(10) 0.3621(8)
O5* O 0.7903(18) 0.964(1) 0.1691(9)
O6* O 0.7293(15) 0.9667(10) -0.0529(9)
Cd1* Cd 0.79219(16) 0.30003(10) -0.49765(9)
O9* O 0.4135(13) 0.2638(10) -0.5862(8)
Cd1** Cd 0.79219(16) 0.30003(10) 1.50235(9)
Cd1A Cd 1.20781(16) -0.30003(10) 0.49765(9)
O3** O 0.7481(17) 0.2517(10) -0.7590(9)
O4** O 0.7901(16) 0.4805(10) -0.6379(8)
O7* O 1.1080(12) 0.1912(8) -0.4686(9)
O8A* O 0.7342(14) 0.0309(10) -0.5241(9)
#END
