
#######################################################################
#
#                 Cambridge Crystallographic Data Centre
#                                CCDC
#
#######################################################################
#
# If this CIF has been generated from an entry in the Cambridge
# Structural Database, then it will include bibliographic, chemical,
# crystal, experimental, refinement or atomic coordinate data resulting
# from the CCDC's data processing and validation procedures.
#
#######################################################################

data_CSD_CIF_EYEMIE
_audit_creation_date 2004-10-07
_audit_creation_method CSD-ConQuest-V1
_database_code_CSD EYEMIE
_database_code_depnum_ccdc_archive 'CCDC 214535'
_chemical_formula_sum 'C30 H16 Cd4 N4 Na2 O20'
_chemical_formula_moiety
;
(C30 H16 Cd4 N4 O20 2-)n,2n(Na1 1+)
;
_journal_coden_Cambridge 580
_journal_volume 23
_journal_year 2004
_journal_page_first 1003
_journal_name_full 'Polyhedron '
loop_
_publ_author_name
"Sheng-Qing Xia"
"Sheng-Min Hu"
"Jing-Cao Dai"
"Xin-Tao Wu"
"Zhi-Yong Fu"
"Jian-Jun Zhang"
"Wen-Xin Du"
_chemical_name_systematic
;
catena-(Di-sodium 
tris(\m~4~-oxalato)-bis((\m~2~-isonicotinato-N,O)-(\m~2~-isonicotinato-N,O,O')
)-tetra-cadmium(ii))
;
_cell_volume   1829.108
_exptl_crystal_colour 'colorless'
_exptl_crystal_density_diffrn 2.266
_exptl_crystal_description 'block'
_diffrn_ambient_temperature 293
#These two values have been output from a single CSD field.
_refine_ls_R_factor_gt 0.0797
_refine_ls_wR_factor_gt 0.0797
_symmetry_cell_setting monoclinic
_symmetry_space_group_name_H-M 'P 21/c'
_symmetry_Int_Tables_number 14
loop_
_symmetry_equiv_pos_site_id
_symmetry_equiv_pos_as_xyz
1 x,y,z
2 x,1/2-y,1/2+z
3 -x,-y,-z
4 -x,-1/2+y,-1/2-z
_cell_length_a 9.4436(10)
_cell_length_b 18.6660(18)
_cell_length_c 10.3884(11)
_cell_angle_alpha 90
_cell_angle_beta 92.744(2)
_cell_angle_gamma 90
_cell_formula_units_Z 2
loop_
_atom_type_symbol
_atom_type_radius_bond
C 0.68
H 0.23
Cd 1.69
N 0.68
Na 0.97
O 0.68
loop_
_atom_site_label
_atom_site_type_symbol
_atom_site_fract_x
_atom_site_fract_y
_atom_site_fract_z
Cd1 Cd -0.02251(10) 0.01719(6) 0.80498(10)
Cd2 Cd -0.00152(11) -0.19947(5) 0.3812(1)
Na1 Na 0.1513(6) 0.1635(3) 0.3205(5)
N1 N 0.2489(13) -0.1995(7) 0.3791(13)
N2 N 0.2211(12) 0.0102(7) 0.8158(11)
C1 C 0.3290(18) -0.1606(10) 0.4599(16)
H1 H 0.28370 -0.13030 0.51590
C2 C 0.4755(18) -0.1617(10) 0.4670(17)
H2 H 0.52700 -0.13620 0.53040
C3 C 0.5426(15) -0.2020(9) 0.3768(14)
C4 C 0.4586(17) -0.2371(9) 0.2879(16)
H3 H 0.50160 -0.26180 0.22250
C5 C 0.3130(16) -0.2381(9) 0.2897(17)
H4 H 0.25980 -0.26510 0.22980
C6 C 0.7034(16) -0.2042(8) 0.3755(16)
C7 C 0.2802(18) -0.0535(9) 0.7913(19)
H5 H 0.22020 -0.09240 0.77550
C8 C 0.4223(17) -0.0649(11) 0.788(2)
H6 H 0.45760 -0.11020 0.77070
C9 C 0.5134(16) -0.0079(9) 0.8111(15)
C10 C 0.4564(16) 0.0570(8) 0.8402(16)
H7 H 0.51480 0.09610 0.85900
C11 C 0.3118(15) 0.0638(9) 0.8412(16)
H8 H 0.27470 0.10840 0.86080
C12 C 0.6725(15) -0.0176(9) 0.7996(15)
C13 C 0.0032(15) -0.0410(7) 0.5099(15)
C14 C -0.0076(13) 0.1814(7) 0.9150(12)
C15 C -0.0060(14) 0.1395(8) 1.0440(14)
O1 O 0.7572(11) -0.2350(6) 0.2818(11)
O2 O 0.7724(11) -0.1733(7) 0.4644(10)
O3 O 0.7139(13) -0.0787(7) 0.7704(14)
O4 O 0.7497(11) 0.0346(6) 0.8232(11)
O5 O -0.0071(11) -0.0650(5) 0.6191(9)
O6 O 0.0231(11) -0.0778(5) 0.4101(9)
O7 O -0.0177(10) 0.2485(5) 0.9152(9)
O8 O -0.0003(11) 0.1443(5) 0.8138(9)
O9 O -0.0121(10) 0.1754(5) 1.1447(8)
O10 O 0.0034(10) 0.0725(5) 1.0336(9)
C13B C -0.0032(15) 0.0410(7) 0.4901(15)
O5B O 0.0071(11) 0.0650(5) 0.3809(9)
O6B O -0.0231(11) 0.0778(5) 0.5899(9)
N2* N -0.7789(12) 0.0102(7) 0.8158(11)
C7* C -0.7198(18) -0.0535(9) 0.7913(19)
H5* H -0.77980 -0.09240 0.77550
C8* C -0.5777(17) -0.0649(11) 0.788(2)
H6* H -0.54240 -0.11020 0.77070
C9* C -0.4866(16) -0.0079(9) 0.8111(15)
C10* C -0.5436(16) 0.0570(8) 0.8402(16)
H7* H -0.48520 0.09610 0.85900
C11* C -0.6882(15) 0.0638(9) 0.8412(16)
H8* H -0.72530 0.10840 0.86080
C12* C -0.3275(15) -0.0176(9) 0.7996(15)
O3* O -0.2861(13) -0.0787(7) 0.7704(14)
O4* O -0.2503(11) 0.0346(6) 0.8232(11)
C14B C 0.0076(13) -0.1814(7) 1.0850(12)
C15B C 0.0060(14) -0.1395(8) 0.9560(14)
O7B O 0.0177(10) -0.2485(5) 1.0848(9)
O8B O 0.0003(11) -0.1443(5) 1.1862(9)
O9B O 0.0121(10) -0.1754(5) 0.8553(8)
O10B O -0.0034(10) -0.0725(5) 0.9664(9)
Cd1* Cd -1.02251(10) 0.01719(6) 0.80498(10)
Cd2B Cd 0.00152(11) 0.19947(5) 0.6188(1)
N1* N -0.7511(13) -0.1995(7) 0.3791(13)
C1* C -0.6710(18) -0.1606(10) 0.4599(16)
H1* H -0.71630 -0.13030 0.51590
C2* C -0.5245(18) -0.1617(10) 0.4670(17)
H2* H -0.47300 -0.13620 0.53040
C3* C -0.4574(15) -0.2020(9) 0.3768(14)
C4* C -0.5414(17) -0.2371(9) 0.2879(16)
H3* H -0.49840 -0.26180 0.22250
C5* C -0.6870(16) -0.2381(9) 0.2897(17)
H4* H -0.74020 -0.26510 0.22980
C6* C -0.2966(16) -0.2042(8) 0.3755(16)
O1* O -0.2428(11) -0.2350(6) 0.2818(11)
O2* O -0.2276(11) -0.1733(7) 0.4644(10)
O7C O 0.0177(10) -0.2515(5) 0.5848(9)
O8B* O 0.0003(11) -0.1443(5) 0.1862(9)
O9C O 0.0121(10) -0.3246(5) 0.3553(8)
Cd2* Cd 0.99848(11) -0.19947(5) 0.3812(1)
Cd1** Cd 0.97749(10) 0.01719(6) 0.80498(10)
Cd1B Cd 0.02251(10) -0.01719(6) 0.19502(10)
Cd2C Cd 0.00152(11) 0.30053(5) 1.1188(1)
Cd1B* Cd 0.02251(10) -0.01719(6) 1.19502(10)
Cd2A Cd -0.00152(11) -0.30053(5) 0.8812(1)
Cd2** Cd -0.00152(11) -0.19947(5) 1.3812(1)
O4** O -1.2503(11) 0.0346(6) 0.8232(11)
O5* O -1.0071(11) -0.0650(5) 0.6191(9)
O6B* O -1.0231(11) 0.0778(5) 0.5899(9)
O8* O -1.0003(11) 0.1443(5) 0.8138(9)
O10* O -0.9966(10) 0.0725(5) 1.0336(9)
O10B* O -1.0034(10) -0.0725(5) 0.9664(9)
N1B N -0.2489(13) 0.1995(7) 0.6209(13)
O1B O 0.2428(11) 0.2350(6) 0.7182(11)
O2B O 0.2276(11) 0.1733(7) 0.5356(10)
O7A O -0.0177(10) 0.2515(5) 0.4152(9)
O9A O -0.0121(10) 0.3246(5) 0.6447(8)
Cd2*** Cd -1.00152(11) -0.19947(5) 0.3812(1)
#END
