
#######################################################################
#
#                 Cambridge Crystallographic Data Centre
#                                CCDC
#
#######################################################################
#
# If this CIF has been generated from an entry in the Cambridge
# Structural Database, then it will include bibliographic, chemical,
# crystal, experimental, refinement or atomic coordinate data resulting
# from the CCDC's data processing and validation procedures.
#
#######################################################################

data_CSD_CIF_EYOLEJ
_audit_creation_date 2004-10-07
_audit_creation_method CSD-ConQuest-V1
_database_code_CSD EYOLEJ
_database_code_depnum_ccdc_archive 'CCDC 248328'
_chemical_formula_sum 'C3 H8 N2 O8 S1 U1'
_chemical_formula_moiety
;
(C3 N1 O6 S1 U1 1-)n,n(H4 N1 1+),2n(H2 O1)
;
_journal_coden_Cambridge 233
_journal_volume 48
_journal_year 2003
_journal_page_first 1470
_journal_name_full 'Zh.Neorg.Khim.(Russ.)(Russ.J.Inorg.Chem.) '
loop_
_publ_author_name
"M.Yu.Artem'eva"
"Yu.N.Mikhailov"
"Yu.E.Gorbunova"
"L.B.Serezhkina"
"V.N.Serezhkin"
_chemical_name_systematic
;
catena-(Ammonium (\m~2~-oxalato-O,O',O'',O''')-dioxo-thiocyanato-uranium(vi) 
dihydrate)
;
_cell_volume   1060.413
_exptl_crystal_colour 'orange-yellow'
_exptl_crystal_density_diffrn 2.945
_diffrn_ambient_temperature 295
#These two values have been output from a single CSD field.
_refine_ls_R_factor_gt 0.0195
_refine_ls_wR_factor_gt 0.0195
_symmetry_cell_setting monoclinic
_symmetry_space_group_name_H-M 'C 2/c'
_symmetry_Int_Tables_number 15
loop_
_symmetry_equiv_pos_site_id
_symmetry_equiv_pos_as_xyz
1 x,y,z
2 1/2+x,1/2+y,z
3 -x,y,1/2-z
4 1/2-x,1/2+y,1/2-z
5 -x,-y,-z
6 -1/2-x,-1/2-y,-z
7 x,-y,-1/2+z
8 -1/2+x,-1/2-y,-1/2+z
_cell_length_a 9.129(2)
_cell_length_b 13.102(3)
_cell_length_c 8.981(2)
_cell_angle_alpha 90
_cell_angle_beta 99.19(3)
_cell_angle_gamma 90
_cell_formula_units_Z 4
loop_
_atom_type_symbol
_atom_type_radius_bond
C 0.68
N 0.68
O 0.68
S 1.02
U 1.38
loop_
_atom_site_label
_atom_site_type_symbol
_atom_site_fract_x
_atom_site_fract_y
_atom_site_fract_z
U1 U 0.00000 0.16330(2) 0.25000
S1 S 0.00000 -0.2296(2) 0.25000
N1 N 0.00000 -0.0183(5) 0.25000
C1 C 0.00000 -0.1062(5) 0.25000
O1 O -0.2043(4) 0.1252(3) 0.0505(4)
O2 O -0.3806(4) 0.1866(3) -0.1280(4)
O3 O 0.1268(5) 0.1652(3) 0.1215(5)
C2 C -0.2741(5) 0.1953(3) -0.0227(5)
N2 N 1.00000 0.5244(6) 0.25000
O4 O 1.1526(6) 0.4229(4) 0.0390(6)
C2E C -0.2259(5) 0.3047(3) 0.0227(5)
O1E O -0.2957(4) 0.3748(3) -0.0505(4)
O2E O -0.1194(4) 0.3134(3) 0.1280(4)
O3B O -0.1268(5) 0.1652(3) 0.3785(5)
O1B O 0.2043(4) 0.1252(3) 0.4495(4)
O2G O 0.1194(4) 0.3134(3) 0.3720(4)
U1G U -0.50000 0.33670(2) -0.25000
#END
