
#######################################################################
#
#                 Cambridge Crystallographic Data Centre
#                                CCDC
#
#######################################################################
#
# If this CIF has been generated from an entry in the Cambridge
# Structural Database, then it will include bibliographic, chemical,
# crystal, experimental, refinement or atomic coordinate data resulting
# from the CCDC's data processing and validation procedures.
#
#######################################################################

data_CSD_CIF_EYOYUO
_audit_creation_date 2016-11-03
_audit_creation_method CSD-ConQuest-V1
_database_code_CSD EYOYUO
_database_code_depnum_ccdc_archive 'CCDC 1509829'
_chemical_formula_sum 'C10 H26 Mn2 N2 O18'
_chemical_formula_moiety
;
(C6 Mn2 O12 2-)n,C4 H14 N2 2+,6(H2 O1)
;
_journal_coeditor_code "sj4065"
_journal_coden_Cambridge 1959
_journal_volume 1
_journal_year 2016
_journal_page_first x161639
_journal_name_full 'IUCrData '
loop_
_publ_author_name
"M.Sadakiyo"
"T.Yamada"
"H.Kitagawa"
_chemical_name_systematic
;
catena-[butane-1,4-diaminium tris(\m-oxalato)-di-manganese hexahydrate]
;
_cell_volume   1174.665
_exptl_crystal_colour 'colorless'
_exptl_crystal_density_diffrn 1.618
_exptl_crystal_description 'platelet'
_diffrn_ambient_temperature 100
#These two values have been output from a single CSD field.
_refine_ls_R_factor_gt 0.0222
_refine_ls_wR_factor_gt 0.0222
_symmetry_cell_setting monoclinic
_symmetry_space_group_name_H-M 'P 21/n'
_symmetry_Int_Tables_number 14
loop_
_symmetry_equiv_pos_site_id
_symmetry_equiv_pos_as_xyz
1 x,y,z
2 1/2-x,1/2+y,1/2-z
3 -x,-y,-z
4 -1/2+x,-1/2-y,-1/2+z
_cell_length_a 8.2623(8)
_cell_length_b 16.1821(15)
_cell_length_c 9.4702(9)
_cell_angle_alpha 90
_cell_angle_beta 111.9172(10)
_cell_angle_gamma 90
_cell_formula_units_Z 2
loop_
_atom_type_symbol
_atom_type_radius_bond
C 0.68
H 0.23
Mn 1.61
N 0.68
O 0.68
loop_
_atom_site_label
_atom_site_type_symbol
_atom_site_fract_x
_atom_site_fract_y
_atom_site_fract_z
Mn1 Mn 0.02869(2) 0.169789(10) 0.957930(18)
O1 O -0.25273(11) 0.17989(5) 0.83745(10)
O2 O -0.45158(10) 0.23487(5) 0.62735(9)
O3 O -0.19398(10) 0.30984(5) 0.56540(9)
O4 O 0.00415(10) 0.24760(5) 0.76634(9)
O5 O 0.00269(11) 0.08224(5) 1.12066(9)
O6 O -0.04419(11) -0.05226(5) 1.14370(9)
C1 C -0.14911(14) 0.26345(7) 0.67931(12)
C2 C -0.29846(14) 0.22215(7) 0.71826(12)
C3 C -0.01213(14) 0.00845(7) 1.07678(12)
O7 O 0.24744(12) 0.17269(6) 0.66258(11)
H1 H 0.197(3) 0.2048(13) 0.698(2)
H2 H 0.335(3) 0.1954(12) 0.661(2)
O8 O -0.44146(12) 0.09772(6) 0.99547(10)
H3 H -0.513(2) 0.1308(13) 1.012(2)
H4 H -0.391(2) 0.1254(11) 0.955(2)
N1 N 0.19120(13) 0.49595(7) 0.76866(11)
H5 H 0.20930 0.55150 0.77210
H6 H 0.16480 0.47760 0.67180
H7 H 0.28950 0.47020 0.83190
C4 C 0.07643(16) 0.50957(8) 0.97641(13)
H8 H 0.09470 0.57010 0.97860
H9 H 0.18370 0.48400 1.04980
C5 C 0.04384(16) 0.47715(8) 0.81809(13)
H10 H 0.02650 0.41660 0.81650
H11 H -0.06440 0.50220 0.74520
O9 O -0.03534(17) 0.11469(9) 1.40088(14)
H12 H 0.052(3) 0.1325(15) 1.473(2)
H13 H -0.005(3) 0.1135(13) 1.331(3)
O5B O -0.00269(11) -0.08224(5) 0.87934(9)
C3B C 0.01213(14) -0.00845(7) 0.92322(12)
O6B O 0.04419(11) 0.05226(5) 0.85630(9)
Mn1B Mn -0.02869(2) -0.169789(10) 1.042070(18)
O1B O 0.25273(11) -0.17989(5) 1.16255(10)
O2B O 0.45158(10) -0.23487(5) 1.37265(9)
O3B O 0.19398(10) -0.30984(5) 1.43460(9)
O4B O -0.00415(10) -0.24760(5) 1.23366(9)
C1B C 0.14911(14) -0.26345(7) 1.32069(12)
C2B C 0.29846(14) -0.22215(7) 1.28174(12)
Mn1A Mn 0.47131(2) -0.330211(10) 1.542070(18)
Mn1C Mn -0.47131(2) 0.330211(10) 0.457930(18)
O2A O -0.04842(10) -0.26513(5) 0.87265(9)
O2C O 0.04842(10) 0.26513(5) 1.12735(9)
O3A O -0.30602(10) -0.19016(5) 0.93460(9)
O3C O 0.30602(10) 0.19016(5) 1.06540(9)
N1B N -0.19120(13) 0.50405(7) 1.23134(11)
H5B H -0.20930 0.44850 1.22790
H6B H -0.16480 0.52240 1.32820
H7B H -0.28950 0.52980 1.16810
C4B C -0.07643(16) 0.49043(8) 1.02359(13)
H8B H -0.09470 0.42990 1.02140
H9B H -0.18370 0.51600 0.95020
C5B C -0.04384(16) 0.52285(8) 1.18191(13)
H10B H -0.02650 0.58340 1.18350
H11B H 0.06440 0.49780 1.25480
#END
