
#######################################################################
#
#                 Cambridge Crystallographic Data Centre
#                                CCDC
#
#######################################################################
#
# If this CIF has been generated from an entry in the Cambridge
# Structural Database, then it will include bibliographic, chemical,
# crystal, experimental, refinement or atomic coordinate data resulting
# from the CCDC's data processing and validation procedures.
#
#######################################################################

data_CSD_CIF_EYUWUS
_audit_creation_date 2016-11-03
_audit_creation_method CSD-ConQuest-V1
_database_code_CSD EYUWUS
_database_code_depnum_ccdc_archive 'CCDC 1500604'
_chemical_formula_sum 'C33 H24 Bi1 N5 O13'
_chemical_formula_moiety
;
(C21 H11 Bi1 N3 O12 1-)n,C12 H11 N2 1+,H2 O1
;
_journal_coden_Cambridge 208
_journal_volume 246
_journal_year 2017
_journal_page_first 42
_journal_name_full 'J.Solid State Chem. '
loop_
_publ_author_name
"YaJing Huang"
"YueQing Zheng"
"JinJian Wang"
"LinXia Zhou"
_chemical_name_systematic
;
catena-[4-(2-(pyridin-4-yl)ethenyl)pyridin-1-ium 
(\m-pyridine-2,5-dicarboxylato)-bis(5-carboxypyridine-2-carboxylato)-bismuth 
monohydrate]
;
_cell_volume   1681.184
_exptl_crystal_colour 'colorless'
_exptl_crystal_density_diffrn 1.789
_exptl_crystal_description 'block'
_diffrn_ambient_temperature 293
_refine_special_details
;
O13A and O13B disordered over two sites with occupancies 0.56:0.44.

;
#These two values have been output from a single CSD field.
_refine_ls_R_factor_gt 0.0733
_refine_ls_wR_factor_gt 0.0733
_symmetry_cell_setting triclinic
_symmetry_space_group_name_H-M 'P -1'
_symmetry_Int_Tables_number 2
loop_
_symmetry_equiv_pos_site_id
_symmetry_equiv_pos_as_xyz
1 x,y,z
2 -x,-y,-z
_cell_length_a 8.6209(17)
_cell_length_b 9.1518(18)
_cell_length_c 21.858(4)
_cell_angle_alpha 93.10(3)
_cell_angle_beta 94.70(3)
_cell_angle_gamma 101.28(3)
_cell_formula_units_Z 2
loop_
_atom_type_symbol
_atom_type_radius_bond
C 0.68
H 0.23
Bi 1.48
N 0.68
O 0.68
loop_
_atom_site_label
_atom_site_type_symbol
_atom_site_fract_x
_atom_site_fract_y
_atom_site_fract_z
Bi1 Bi 0.76762(3) 0.27773(2) 0.338524(11)
O1 O 0.6311(8) 0.3880(6) 0.4226(3)
O2 O 0.4170(9) 0.3877(8) 0.4730(3)
C1 C 0.4918(11) 0.3375(9) 0.4312(4)
C2 C 0.3972(11) 0.2081(9) 0.3900(4)
C3 C 0.2425(10) 0.1452(10) 0.3984(4)
H1 H 0.19120 0.18190 0.42990
C4 C 0.1643(11) 0.0233(10) 0.3579(4)
H2 H 0.06040 -0.02350 0.36250
C5 C 0.2441(11) -0.0253(10) 0.3112(4)
C6 C 0.1638(12) -0.1576(10) 0.2678(5)
O3 O 0.2551(10) -0.1899(9) 0.2269(4)
H3 H 0.20770 -0.26200 0.20430
O4 O 0.0327(9) -0.2248(8) 0.2727(4)
C7 C 0.3972(10) 0.0478(9) 0.3047(4)
H4 H 0.44860 0.01610 0.27220
N1 N 0.4745(9) 0.1619(8) 0.3431(3)
O5 O 0.6608(8) 0.2318(6) 0.2400(3)
O6 O 0.5741(10) 0.3169(7) 0.1536(3)
C8 C 0.6254(11) 0.3339(9) 0.2078(4)
C9 C 0.6449(10) 0.4888(8) 0.2402(4)
C10 C 0.6199(12) 0.6099(9) 0.2087(4)
H5 H 0.58730 0.59920 0.16680
C11 C 0.6448(11) 0.7484(9) 0.2413(4)
H6 H 0.63440 0.83330 0.22110
C12 C 0.6851(10) 0.7580(8) 0.3039(4)
C13 C 0.7136(11) 0.9061(8) 0.3423(5)
O7 O 0.6870(11) 0.9036(7) 0.3963(4)
O8 O 0.7588(8) 1.0182(6) 0.3120(4)
C14 C 0.7066(9) 0.6323(8) 0.3321(4)
H7 H 0.73370 0.63910 0.37440
N2 N 0.6895(9) 0.4993(7) 0.3001(3)
O9 O 0.9858(9) 0.3096(7) 0.2794(3)
O10 O 1.2389(9) 0.3767(8) 0.2651(3)
C15 C 1.1211(11) 0.3871(9) 0.2933(4)
C16 C 1.1468(10) 0.5009(9) 0.3482(4)
C17 C 1.2883(11) 0.6022(10) 0.3630(5)
H8 H 1.37390 0.60380 0.33960
C18 C 1.2979(11) 0.7014(10) 0.4141(4)
H9 H 1.39120 0.77140 0.42500
C19 C 1.1725(10) 0.6974(8) 0.4483(4)
C20 C 1.1778(11) 0.7995(9) 0.5045(4)
O11 O 1.0778(8) 0.7778(7) 0.5413(3)
O12 O 1.3030(9) 0.9073(7) 0.5118(3)
H10 H 1.29740 0.96240 0.54200
C21 C 1.0334(10) 0.5933(8) 0.4314(4)
H11 H 0.94900 0.58900 0.45560
N3 N 1.0168(9) 0.4972(7) 0.3803(3)
N4 N 1.1206(14) 1.1423(10) 0.1774(4)
H12 H 1.15080 1.21310 0.20590
C22 C 0.9707(17) 1.0658(14) 0.1725(5)
H13 H 0.90030 1.08750 0.20000
C23 C 0.9222(16) 0.9547(13) 0.1262(5)
H14 H 0.81750 0.90250 0.12240
C24 C 1.0236(14) 0.9184(11) 0.0855(5)
C25 C 1.1787(15) 1.0010(14) 0.0929(6)
H15 H 1.25130 0.98030 0.06610
C26 C 1.2254(16) 1.1110(14) 0.1385(6)
H16 H 1.32960 1.16470 0.14310
C27 C 0.9625(15) 0.7988(12) 0.0369(5)
H17 H 0.85610 0.75280 0.03600
C28 C 1.0439(15) 0.7506(12) -0.0055(5)
H18 H 1.15100 0.79480 -0.00410
C29 C 0.9805(14) 0.6320(11) -0.0553(5)
C30 C 0.8251(15) 0.5592(15) -0.0616(6)
H19 H 0.75450 0.58270 -0.03450
C31 C 0.7747(16) 0.4495(14) -0.1093(7)
H20 H 0.66820 0.40220 -0.11400
N5 N 0.8681(12) 0.4096(10) -0.1477(4)
C32 C 1.0178(15) 0.4770(13) -0.1412(5)
H21 H 1.08560 0.44910 -0.16860
C33 C 1.0792(14) 0.5881(13) -0.0952(5)
H22 H 1.18660 0.63240 -0.09160
O13 O 0.535(3) 0.775(4) 0.0463(13)
O14? O 0.571(3) 0.636(4) 0.0503(12)
Bi1* Bi 0.76762(3) 1.27773(2) 0.338524(11)
O8* O 0.7588(8) 0.0182(6) 0.3120(4)
#END
