
#######################################################################
#
#                 Cambridge Crystallographic Data Centre
#                                CCDC
#
#######################################################################
#
# If this CIF has been generated from an entry in the Cambridge
# Structural Database, then it will include bibliographic, chemical,
# crystal, experimental, refinement or atomic coordinate data resulting
# from the CCDC's data processing and validation procedures.
#
#######################################################################

data_CSD_CIF_EYUZOO
_audit_creation_date 2012-01-25
_audit_creation_method CSD-ConQuest-V1
_database_code_CSD EYUZOO
_database_code_depnum_ccdc_archive 'CCDC 768323'
_chemical_formula_sum 'C28 H28 Cu2 Mo6 N8 O19'
_chemical_formula_moiety
;
(C28 H28 Cu2 N8 2+)n,n(Mo6 O19 2-)
;
_journal_coden_Cambridge 1350
_journal_volume 13
_journal_year 2011
_journal_page_first 3526
_journal_name_full 'CrystEngComm '
loop_
_publ_author_name
"Guangfeng Hou"
"Lihua Bi"
"Bao Li"
"Bin Wang"
"Lixin Wu"
_chemical_name_systematic
;
catena-(bis(\m~2~-1,4-bis(Pyrazol-1-ylmethyl)benzene)-di-copper(i) 
(\m~6~-oxo)-dodecakis(\m~2~-oxo)-hexaoxo-hexa-molybdenum)
;
_cell_volume   1023.348
_exptl_crystal_colour 'brown'
_exptl_crystal_density_diffrn 2.407
_exptl_crystal_description 'block'
_diffrn_ambient_temperature 291
#These two values have been output from a single CSD field.
_refine_ls_R_factor_gt 0.0313
_refine_ls_wR_factor_gt 0.0313
_symmetry_cell_setting triclinic
_symmetry_space_group_name_H-M 'P -1'
_symmetry_Int_Tables_number 2
loop_
_symmetry_equiv_pos_site_id
_symmetry_equiv_pos_as_xyz
1 x,y,z
2 -x,-y,-z
_cell_length_a 9.824(5)
_cell_length_b 10.017(6)
_cell_length_c 11.360(7)
_cell_angle_alpha 111.68(2)
_cell_angle_beta 96.45(2)
_cell_angle_gamma 94.56(2)
_cell_formula_units_Z 1
loop_
_atom_type_symbol
_atom_type_radius_bond
C 0.68
H 0.23
Cu 1.29
Mo 1.26
N 0.68
O 0.68
loop_
_atom_site_label
_atom_site_type_symbol
_atom_site_fract_x
_atom_site_fract_y
_atom_site_fract_z
C1 C 0.4570(5) 0.3411(6) 0.6675(5)
H1 H 0.48520 0.34730 0.75050
C2 C 0.5452(5) 0.3370(6) 0.5794(5)
H2 H 0.64060 0.33820 0.59050
C3 C 0.4613(5) 0.3308(5) 0.4730(5)
H3 H 0.48990 0.32790 0.39690
C4 C 0.2060(5) 0.3071(6) 0.4067(5)
H4 H 0.16270 0.20810 0.38110
H5 H 0.23090 0.31910 0.33070
C5 C 0.1012(4) 0.4092(5) 0.4594(4)
C6 C -0.0384(5) 0.3588(5) 0.4168(4)
H6 H -0.06510 0.26320 0.36040
C7 C 0.1391(5) 0.5512(5) 0.5429(4)
H7 H 0.23210 0.58700 0.57240
C8 C -0.0365(6) 0.5204(6) 0.8331(5)
H8 H 0.00520 0.60970 0.83910
C9 C -0.1607(6) 0.4999(7) 0.8733(6)
H9 H -0.21700 0.56950 0.91030
C10 C -0.1825(5) 0.3575(7) 0.8474(5)
H10 H -0.25910 0.30970 0.86320
C11 C -0.0457(6) 0.1480(6) 0.7639(5)
H11 H -0.12190 0.09270 0.78010
H12 H 0.03620 0.14910 0.82070
C12 C -0.0228(5) 0.0721(5) 0.6265(4)
C13 C 0.1034(5) 0.0288(6) 0.5989(5)
H13 H 0.17510 0.04890 0.66630
C14 C -0.1277(5) 0.0440(6) 0.5259(5)
H14 H -0.21370 0.07320 0.54120
Cu1 Cu 0.17034(6) 0.36422(8) 0.70000(6)
Mo1 Mo 0.46300(4) 1.00218(4) 0.79644(3)
Mo2 Mo 0.59710(4) 1.24013(4) 1.08003(4)
Mo3 Mo 0.71724(3) 0.92818(4) 0.96571(3)
N1 N 0.3270(4) 0.3349(4) 0.6171(4)
N2 N 0.3310(4) 0.3296(4) 0.4966(3)
N3 N 0.0159(4) 0.3984(4) 0.7853(4)
N4 N -0.0752(4) 0.2935(4) 0.7942(3)
O1 O 0.5452(3) 1.1957(4) 0.8986(3)
O2 O 0.4306(4) 1.0031(5) 0.6494(3)
O3 O 0.6381(3) 0.9408(3) 0.8027(3)
O4 O 0.3809(3) 0.8104(4) 0.7731(3)
O5 O 0.50000 1.00000 1.00000
O6 O 0.2925(3) 1.0626(4) 0.8681(3)
O7 O 0.4083(3) 1.2558(3) 1.0982(3)
O8 O 0.7535(3) 1.1328(3) 1.0286(3)
O9 O 0.6730(4) 1.4120(4) 1.1327(4)
O10 O 0.8700(3) 0.8679(4) 0.9328(3)
C1A C -0.4570(5) 0.6589(6) 0.3325(5)
H1A H -0.48520 0.65270 0.24950
C2A C -0.5452(5) 0.6630(6) 0.4206(5)
H2A H -0.64060 0.66180 0.40950
C3A C -0.4613(5) 0.6692(5) 0.5270(5)
H3A H -0.48990 0.67210 0.60310
C4A C -0.2060(5) 0.6929(6) 0.5933(5)
H4A H -0.16270 0.79190 0.61890
H5A H -0.23090 0.68090 0.66930
C5A C -0.1012(4) 0.5908(5) 0.5406(4)
C6A C 0.0384(5) 0.6412(5) 0.5832(4)
H6A H 0.06510 0.73680 0.63960
C7A C -0.1391(5) 0.4488(5) 0.4571(4)
H7A H -0.23210 0.41300 0.42760
C8A C 0.0365(6) -0.5204(6) 0.1669(5)
H8A H -0.00520 -0.60970 0.16090
C9A C 0.1607(6) -0.4999(7) 0.1267(6)
H9A H 0.21700 -0.56950 0.08970
C10A C 0.1825(5) -0.3575(7) 0.1526(5)
H10A H 0.25910 -0.30970 0.13680
C11A C 0.0457(6) -0.1480(6) 0.2361(5)
H11A H 0.12190 -0.09270 0.21990
H12A H -0.03620 -0.14910 0.17930
C12A C 0.0228(5) -0.0721(5) 0.3735(4)
C13A C -0.1034(5) -0.0288(6) 0.4011(5)
H13A H -0.17510 -0.04890 0.33370
C14A C 0.1277(5) -0.0440(6) 0.4741(5)
H14A H 0.21370 -0.07320 0.45880
Cu1A Cu -0.17034(6) 0.63578(8) 0.30000(6)
Cu1A* Cu -0.17034(6) -0.36422(8) 0.30000(6)
Mo1A Mo 0.53700(4) 0.99782(4) 1.20356(3)
Mo2A Mo 0.40290(4) 0.75987(4) 0.91997(4)
Mo3A Mo 0.28276(3) 1.07182(4) 1.03429(3)
N1A N -0.3270(4) 0.6651(4) 0.3829(4)
N2A N -0.3310(4) 0.6704(4) 0.5034(3)
N3A N -0.0159(4) -0.3984(4) 0.2147(4)
N3A* N -0.0159(4) 0.6016(4) 0.2147(4)
N4A N 0.0752(4) -0.2935(4) 0.2058(3)
O1A O 0.4548(3) 0.8043(4) 1.1014(3)
O2A O 0.5694(4) 0.9969(5) 1.3506(3)
O3A O 0.3619(3) 1.0592(3) 1.1973(3)
O4A O 0.6191(3) 1.1896(4) 1.2269(3)
O6A O 0.7075(3) 0.9374(4) 1.1319(3)
O7A O 0.5917(3) 0.7442(3) 0.9018(3)
O8A O 0.2465(3) 0.8672(3) 0.9714(3)
O9A O 0.3270(4) 0.5880(4) 0.8673(4)
O10A O 0.1300(3) 1.1321(4) 1.0672(3)
#END
