
#######################################################################
#
#                 Cambridge Crystallographic Data Centre
#                                CCDC
#
#######################################################################
#
# If this CIF has been generated from an entry in the Cambridge
# Structural Database, then it will include bibliographic, chemical,
# crystal, experimental, refinement or atomic coordinate data resulting
# from the CCDC's data processing and validation procedures.
#
#######################################################################

data_CSD_CIF_EZAQAY
_audit_creation_date 2011-11-07
_audit_creation_method CSD-ConQuest-V1
_database_code_CSD EZAQAY
_database_code_depnum_ccdc_archive 'CCDC 793164'
_chemical_formula_sum 'C39 H54 N6 Ni2 O67 P2 W18'
_chemical_formula_moiety
;
(C26 H36 N4 Ni2 O66 P2 W18 2-)n,n(C13 H16 N2 2+),n(H2 O1)
;
_journal_coden_Cambridge 369
_journal_volume 36
_journal_year 2011
_journal_page_first 201
_journal_name_full 'Transition Met.Chem. '
loop_
_publ_author_name
"Xiao-Lan Wang"
"Ying Lu"
"Jing-Xin Meng"
"En-Bo Wang"
"Hai Fu"
_chemical_name_systematic
;
catena-(1,3-bis(pyridinium-4-yl)propane 
bis(\m~9~-phosphato)-dotetracontakis(\m~2~-oxo)-tetraaqua-bis(1,3-bis(pyridin-
4-yl)propane)-dodecaoxo-di-nickel-octadeca-tungsten monohydrate)
;
_cell_volume   8133.727
_exptl_crystal_colour 'dark blue'
_exptl_crystal_density_diffrn 4.22
_exptl_crystal_description 'block'
_diffrn_ambient_temperature 150
#These two values have been output from a single CSD field.
_refine_ls_R_factor_gt 0.0596
_refine_ls_wR_factor_gt 0.0596
_symmetry_cell_setting monoclinic
_symmetry_space_group_name_H-M 'C 2/c'
_symmetry_Int_Tables_number 15
loop_
_symmetry_equiv_pos_site_id
_symmetry_equiv_pos_as_xyz
1 x,y,z
2 -x,y,1/2-z
3 1/2+x,1/2+y,z
4 1/2-x,1/2+y,1/2-z
5 -x,-y,-z
6 x,-y,-1/2+z
7 -1/2-x,-1/2-y,-z
8 -1/2+x,-1/2-y,-1/2+z
_cell_length_a 20.778(4)
_cell_length_b 19.376(4)
_cell_length_c 20.219(4)
_cell_angle_alpha 90
_cell_angle_beta 92.26(3)
_cell_angle_gamma 90
_cell_formula_units_Z 4
loop_
_atom_type_symbol
_atom_type_radius_bond
C 0.68
H 0.23
N 0.68
Ni 1.24
O 0.75
P 1.05
W 1.32
loop_
_atom_site_label
_atom_site_type_symbol
_atom_site_fract_x
_atom_site_fract_y
_atom_site_fract_z
W1 W 0.21192(4) 1.30064(4) 0.65195(4)
W2 W 0.15759(4) 1.20645(4) 0.87108(4)
W3 W 0.04175(4) 1.35653(4) 0.62911(4)
W4 W 0.11996(4) 1.35605(4) 0.79590(4)
W5 W 0.04472(4) 1.04132(4) 0.63496(4)
W6 W 0.11546(4) 1.04394(4) 0.78643(4)
W7 W 0.00489(4) 1.20593(4) 0.55405(4)
W8 W 0.24923(4) 1.14903(4) 0.72763(4)
W9 W 0.17594(4) 1.15030(4) 0.57557(4)
P1 P 0.0869(3) 1.2011(3) 0.7103(3)
Ni1 Ni 0.32373(14) 1.43301(13) 0.58298(12)
O1 O -0.0115(8) 1.1900(7) 0.4718(7)
O2 O 0.0778(7) 1.2183(6) 0.9146(6)
O3 O 0.1530(7) 1.2020(6) 0.6778(6)
O4 O 0.1332(7) 1.3337(6) 0.6151(6)
O5 O -0.0335(7) 1.0286(7) 0.6830(6)
O6 O 0.0378(7) 1.2367(6) 0.6632(6)
O7 O 0.2724(7) 1.2384(6) 0.6950(6)
O8 O 0.2672(7) 1.3622(6) 0.6273(6)
O9 O 0.0909(7) 0.9953(6) 0.7065(6)
O10 O 0.2146(7) 1.2406(7) 0.5742(6)
O11 O 0.2204(7) 1.1905(6) 0.8057(6)
O12 O -0.0450(7) 1.3553(6) 0.6545(6)
O13 O 0.1264(7) 1.1134(6) 0.8494(6)
O14 O 0.1256(7) 1.0770(7) 0.6036(6)
O15 O 0.0682(7) 1.1251(7) 0.7202(6)
O16 O 0.1922(7) 1.0755(6) 0.7458(6)
O17 O 0.1642(8) 1.3033(7) 0.8627(6)
O18 O 0.2435(7) 1.1211(7) 0.6349(7)
O19 O 0.1522(7) 0.9757(7) 0.8280(6)
O20 O 0.0939(7) 1.2374(6) 0.7769(6)
O21 O 0.0676(7) 1.3734(6) 0.7190(6)
O22 O 0.0058(7) 1.1153(6) 0.5893(6)
O23 O 0.0345(8) 0.9759(7) 0.5800(6)
O24 O 0.3238(7) 1.1187(7) 0.7505(6)
O25 O 0.1859(7) 1.3329(6) 0.7348(6)
O26 O 0.0201(7) 1.3011(7) 0.5528(7)
O27 O 0.0981(7) 1.1923(6) 0.5463(6)
O28 O 0.0432(8) 1.4372(7) 0.5946(7)
O29 O 0.1489(8) 1.4356(7) 0.8157(7)
O30 O 0.2008(7) 1.1164(7) 0.5015(6)
O31 O 0.2052(8) 1.1904(7) 0.9397(7)
N1 N 0.1881(15) 1.8955(14) 0.7058(13)
N2 N 0.2470(9) 1.4961(9) 0.5727(8)
N3 N 0.3632(10) 0.8329(9) 0.0355(8)
C1 C 0.150(2) 1.845(2) 0.725(2)
H1 H 0.13060 1.84700 0.76520
C2 C 0.140(2) 1.7902(15) 0.6840(12)
H2 H 0.12280 1.75060 0.70200
C3 C 0.1535(16) 1.7890(14) 0.6227(13)
C4 C 0.1907(16) 1.8437(18) 0.5998(15)
H3? H 0.26810 0.67530 0.41220
H4? H 0.33030 0.63920 0.44060
C5 C 0.204(2) 1.903(2) 0.6427(15)
H5? H 0.31930 0.55790 0.37570
H6? H 0.25060 0.58700 0.35800
C6 C 0.1390(13) 1.7328(14) 0.5752(11)
H7 H 0.16130 1.72900 0.53640
C7 C 0.0861(16) 1.6810(15) 0.5912(14)
H8 H 0.04550 1.70550 0.59240
H9 H 0.09550 1.66260 0.63520
C8 C 0.0783(15) 1.6238(15) 0.5458(18)
H10 H 0.04010 1.59770 0.55610
H11 H 0.07260 1.64110 0.50090
C9 C 0.2062(11) 1.504(1) 0.6195(11)
H12 H 0.21420 1.48100 0.65930
C10 C 0.1531(12) 1.5439(11) 0.6133(11)
H13 H 0.12690 1.55030 0.64900
C11 C 0.1374(14) 1.5765(12) 0.5507(12)
C12 C 0.1802(13) 1.5690(12) 0.5038(12)
H14 H 0.17400 1.59270 0.46410
C13 C 0.2329(13) 1.5272(13) 0.5127(12)
H15 H 0.25960 1.51980 0.47760
C14 C 0.3781(14) 0.8975(13) 0.0331(12)
H16 H 0.36620 0.92270 -0.00460
C15 C 0.4116(15) 0.9311(14) 0.0852(14)
H17 H 0.42240 0.97740 0.08120
C16 C 0.4287(12) 0.8953(11) 0.1426(10)
C17 C 0.4115(12) 0.8260(11) 0.1409(11)
H18 H 0.42510 0.79840 0.17650
C18 C 0.3772(13) 0.7963(13) 0.0919(11)
H19 H 0.36280 0.75110 0.09610
C19 C 0.4628(14) 0.9357(13) 0.1977(12)
H20 H 0.43140 0.96310 0.22030
H21 H 0.49330 0.96710 0.17860
C20 C 0.50000 0.8882(19) 0.25000
H22 H 0.46970 0.85890 0.27210
O32 O 0.3814(8) 1.5095(8) 0.5361(7)
O33 O 0.4059(10) 1.3747(9) 0.5964(8)
O34 O 0.491(3) 0.619(3) 0.203(2)
W1A W -0.21192(4) 1.30064(4) 0.84805(4)
W2A W -0.15759(4) 1.20645(4) 0.62892(4)
W3A W -0.04175(4) 1.35653(4) 0.87089(4)
W4A W -0.11996(4) 1.35605(4) 0.70410(4)
W5A W -0.04472(4) 1.04132(4) 0.86504(4)
W6A W -0.11546(4) 1.04394(4) 0.71357(4)
W7A W -0.00489(4) 1.20593(4) 0.94595(4)
W8A W -0.24923(4) 1.14903(4) 0.77237(4)
W9A W -0.17594(4) 1.15030(4) 0.92443(4)
P1A P -0.0869(3) 1.2011(3) 0.7897(3)
Ni1C Ni 0.17627(14) 0.93301(13) 0.91702(12)
Ni1F Ni 0.17627(14) 1.06699(13) 0.41702(12)
Ni1G Ni -0.17627(14) 1.06699(13) 1.08298(12)
Ni1A Ni -0.32373(14) 1.43301(13) 0.91702(12)
Ni1B Ni -0.17627(14) 0.93301(13) 0.58298(12)
O1A O 0.0115(8) 1.1900(7) 1.0282(7)
O2A O -0.0778(7) 1.2183(6) 0.5854(6)
O3A O -0.1530(7) 1.2020(6) 0.8222(6)
O4A O -0.1332(7) 1.3337(6) 0.8849(6)
O5A O 0.0335(7) 1.0286(7) 0.8170(6)
O6A O -0.0378(7) 1.2367(6) 0.8368(6)
O7A O -0.2724(7) 1.2384(6) 0.8050(6)
O8C O 0.2328(7) 0.8622(6) 0.8727(6)
O8A O -0.2672(7) 1.3622(6) 0.8727(6)
O9A O -0.0909(7) 0.9953(6) 0.7935(6)
O10A O -0.2146(7) 1.2406(7) 0.9258(6)
O11A O -0.2204(7) 1.1905(6) 0.6943(6)
O12A O 0.0450(7) 1.3553(6) 0.8455(6)
O13A O -0.1264(7) 1.1134(6) 0.6506(6)
O14A O -0.1256(7) 1.0770(7) 0.8964(6)
O15A O -0.0682(7) 1.1251(7) 0.7798(6)
O16A O -0.1922(7) 1.0755(6) 0.7542(6)
O17A O -0.1642(8) 1.3033(7) 0.6373(6)
O18A O -0.2435(7) 1.1211(7) 0.8651(7)
O19C O 0.3478(7) 1.4757(7) 0.6720(6)
O19A O -0.1522(7) 0.9757(7) 0.6720(6)
O20A O -0.0939(7) 1.2374(6) 0.7231(6)
O21A O -0.0676(7) 1.3734(6) 0.7810(6)
O22A O -0.0058(7) 1.1153(6) 0.9107(6)
O23A O -0.0345(8) 0.9759(7) 0.9200(6)
O24A O -0.3238(7) 1.1187(7) 0.7495(6)
O25A O -0.1859(7) 1.3329(6) 0.7652(6)
O26A O -0.0201(7) 1.3011(7) 0.9472(7)
O27A O -0.0981(7) 1.1923(6) 0.9537(6)
O28A O -0.0432(8) 1.4372(7) 0.9054(7)
O29A O -0.1489(8) 1.4356(7) 0.6843(7)
O30F O 0.2992(7) 1.3836(7) 0.4985(6)
O30E O 0.2008(7) 0.8836(7) 1.0015(6)
O30A O -0.2008(7) 1.1164(7) 0.9985(6)
O31A O -0.2052(8) 1.1904(7) 0.5603(7)
N1C N 0.3119(15) 1.3955(14) 0.7942(13)
N2C N 0.2530(9) 0.9961(9) 0.9273(8)
N3A N 0.6368(10) 0.8329(9) 0.4645(8)
C1C C 0.350(2) 1.345(2) 0.775(2)
H1C H 0.36940 1.34700 0.73480
C2C C 0.360(2) 1.2902(15) 0.8160(12)
H2C H 0.37720 1.25060 0.79800
C3C C 0.3465(16) 1.2890(14) 0.8773(13)
C4C C 0.3093(16) 1.3437(18) 0.9002(15)
C5C C 0.296(2) 1.403(2) 0.8573(15)
C6C C 0.3610(13) 1.2328(14) 0.9248(11)
H7C H 0.33870 1.22900 0.96360
C7C C 0.4139(16) 1.1810(15) 0.9088(14)
H8C H 0.45450 1.20550 0.90760
H9C H 0.40450 1.16260 0.86480
C8C C 0.4217(15) 1.1238(15) 0.9542(18)
H10C H 0.45990 1.09770 0.94390
H11C H 0.42740 1.14110 0.99910
C9C C 0.2938(11) 1.004(1) 0.8805(11)
H12C H 0.28580 0.98100 0.84070
C10C C 0.3469(12) 1.0439(11) 0.8867(11)
H13C H 0.37310 1.05030 0.85100
C11C C 0.3626(14) 1.0765(12) 0.9493(12)
C12C C 0.3198(13) 1.0690(12) 0.9962(12)
H14C H 0.32600 1.09270 1.03590
C13C C 0.2671(13) 1.0272(13) 0.9873(12)
H15C H 0.24040 1.01980 1.02240
C14A C 0.6219(14) 0.8975(13) 0.4669(12)
H16A H 0.63380 0.92270 0.50460
C15A C 0.5884(15) 0.9311(14) 0.4148(14)
H17A H 0.57760 0.97740 0.41880
C16A C 0.5713(12) 0.8953(11) 0.3574(10)
C17A C 0.5885(12) 0.8260(11) 0.3591(11)
H18A H 0.57490 0.79840 0.32350
C18A C 0.6228(13) 0.7963(13) 0.4081(11)
H19A H 0.63720 0.75110 0.40390
C19A C 0.5372(14) 0.9357(13) 0.3023(12)
H20A H 0.56860 0.96310 0.27970
H21A H 0.50670 0.96710 0.32140
H22A H 0.53030 0.85890 0.22790
O32C O 0.1186(8) 1.0095(8) 0.9639(7)
O33C O 0.0941(10) 0.8747(9) 0.9036(8)
#END
