
#######################################################################
#
#                 Cambridge Crystallographic Data Centre
#                                CCDC
#
#######################################################################
#
# If this CIF has been generated from an entry in the Cambridge
# Structural Database, then it will include bibliographic, chemical,
# crystal, experimental, refinement or atomic coordinate data resulting
# from the CCDC's data processing and validation procedures.
#
#######################################################################

data_CSD_CIF_EZENAY
_audit_creation_date 2004-10-28
_audit_creation_method CSD-ConQuest-V1
_database_code_CSD EZENAY
_database_code_depnum_ccdc_archive 'CCDC 214531'
_chemical_formula_sum 'C38 H26 In1 N4 O12.5'
_chemical_formula_moiety
;
(C10 H9 N2 1+)n,n(C28 H16 In1 N2 O12 1-),0.5n(H2 O1)
;
_journal_coden_Cambridge 208
_journal_volume 177
_journal_year 2004
_journal_page_first 2494
_journal_name_full 'J.Solid State Chem. '
loop_
_publ_author_name
"Zheng-Zhong Lin"
"Jun-hua Luo"
"Mao-chun Hong"
"Rui-hu Wang"
"Lei Han"
"Rong Cao"
_chemical_name_systematic
;
catena-[4,4'-Bipyridinium bis(\m~2~-benzene-1,3-dicarboxylato-5-carboxylic 
acid)-(4,4'-bipyridyl)-indium(iii) hemihydrate]
;
_cell_volume   3652.030
_exptl_crystal_density_diffrn 1.55
_exptl_special_details
;
fluorescent

;
_diffrn_ambient_temperature 293
#These two values have been output from a single CSD field.
_refine_ls_R_factor_gt 0.0572
_refine_ls_wR_factor_gt 0.0572
_symmetry_cell_setting monoclinic
_symmetry_space_group_name_H-M 'P 21/c'
_symmetry_Int_Tables_number 14
loop_
_symmetry_equiv_pos_site_id
_symmetry_equiv_pos_as_xyz
1 x,y,z
2 x,1/2-y,1/2+z
3 -x,-y,-z
4 -x,-1/2+y,-1/2-z
_cell_length_a 17.0884(2)
_cell_length_b 12.2839(1)
_cell_length_c 17.9456(4)
_cell_angle_alpha 90
_cell_angle_beta 104.192(1)
_cell_angle_gamma 90
_cell_formula_units_Z 4
loop_
_atom_type_symbol
_atom_type_radius_bond
C 0.68
H 0.23
In 1.54
N 0.68
O 0.62
loop_
_atom_site_label
_atom_site_type_symbol
_atom_site_fract_x
_atom_site_fract_y
_atom_site_fract_z
In1 In 0.25577(2) 0.00043(5) 0.27828(2)
O1 O 0.0333(13) 0.4642(18) -0.0161(13)
C1 C 0.3044(7) 0.1722(13) 0.0009(6)
H1 H 0.34590 0.22130 0.01990
N1 N 0.2797(4) 0.1098(7) 0.0484(4)
H2 H 0.306(5) 0.117(7) 0.103(6)
C2 C 0.2711(7) 0.1684(11) -0.0767(6)
H3 H 0.28920 0.21620 -0.10910
N2 N 0.1110(5) 0.0615(7) -0.3500(4)
C3 C 0.2125(4) 0.0960(6) -0.1067(4)
C4 C 0.1770(4) 0.0845(6) -0.1905(4)
C5 C 0.2098(5) 0.1364(6) -0.2439(4)
H4 H 0.25490 0.18070 -0.22770
C6 C 0.1757(6) 0.1227(7) -0.3213(5)
H5 H 0.19940 0.15860 -0.35570
C7 C 0.0787(6) 0.0136(8) -0.2986(5)
H6 H 0.03280 -0.02880 -0.31660
C8 C 0.1087(5) 0.0225(7) -0.2196(5)
H7 H 0.08300 -0.01300 -0.18640
C9 C 0.1882(6) 0.0330(9) -0.0535(5)
H8 H 0.14720 -0.01770 -0.07040
C10 C 0.2225(7) 0.0421(10) 0.0239(5)
H9 H 0.20400 -0.00100 0.05850
C11 C 0.3618(4) -0.0133(7) 0.4517(4)
H10 H 0.40380 -0.01250 0.42710
N3 N 0.2864(3) -0.0002(5) 0.4097(3)
C12 C 0.3796(4) -0.0278(6) 0.5299(4)
H11 H 0.43320 -0.03360 0.55750
N4 N 0.3654(4) -0.0988(5) 0.8095(3)
C13 C 0.3187(4) -0.0339(6) 0.5676(4)
C14 C 0.3349(4) -0.0571(6) 0.6520(4)
C15 C 0.4021(4) -0.0153(6) 0.7030(4)
H12 H 0.43870 0.02740 0.68520
C16 C 0.4147(5) -0.0374(7) 0.7803(4)
H13 H 0.46010 -0.00780 0.81380
C17 C 0.3011(5) -0.1396(6) 0.7599(4)
H14 H 0.26600 -0.18300 0.77910
C18 C 0.2833(4) -0.1212(6) 0.6815(4)
H15 H 0.23740 -0.15140 0.64930
C19 C 0.2403(4) -0.0182(6) 0.5235(4)
H16 H 0.19720 -0.01940 0.54660
C20 C 0.2270(4) -0.0011(7) 0.4466(3)
H17 H 0.17430 0.01040 0.41830
C21 C 0.1253(4) 0.1143(5) 0.2196(4)
O2 O 0.1708(3) 0.0800(4) 0.1782(3)
C22 C -0.1141(4) 0.3390(6) 0.2363(4)
O3 O 0.1460(3) 0.1035(4) 0.2911(3)
C23 C -0.0905(5) 0.1970(7) -0.0182(4)
O4 O -0.0781(3) 0.3716(5) 0.3010(3)
C24 C 0.0471(4) 0.1675(6) 0.1818(4)
O5 O -0.1878(3) 0.3617(4) 0.2033(3)
C25 C 0.0040(4) 0.2254(5) 0.2249(4)
H18 H 0.02460 0.23270 0.27770
O6 O -0.1486(4) 0.2418(7) -0.0517(4)
C26 C -0.0704(4) 0.2728(6) 0.1895(4)
O7 O -0.0492(5) 0.1312(7) -0.0509(4)
H19 H -0.077(4) 0.116(5) -0.085(4)
C27 C -0.0995(4) 0.2608(6) 0.1111(4)
H20 H -0.14920 0.29110 0.08720
C28 C -0.0563(4) 0.2045(6) 0.0669(4)
C29 C 0.0173(4) 0.1576(6) 0.1024(4)
H21 H 0.04660 0.11980 0.07350
C30 C 0.3630(4) -0.1121(6) 0.2269(4)
O8 O 0.3767(3) -0.1004(4) 0.2980(3)
C31 C 0.4554(5) -0.1923(7) -0.0108(5)
O9 O 0.2987(3) -0.0740(4) 0.1836(3)
C32 C 0.6171(4) -0.3266(6) 0.2425(4)
O10 O 0.3906(4) -0.1381(6) -0.0445(3)
H22 H 0.387(5) -0.129(8) -0.094(5)
C33 C 0.4221(4) -0.1660(5) 0.1898(4)
O11 O 0.5016(4) -0.2312(6) -0.0445(3)
C34 C 0.4104(4) -0.1589(6) 0.1109(4)
H23 H 0.36460 -0.12420 0.08200
O12 O 0.6660(3) -0.3609(4) 0.2048(3)
C35 C 0.4655(4) -0.2025(6) 0.0741(4)
O13 O 0.6252(3) -0.3387(6) 0.3122(3)
C36 C 0.5326(4) -0.2569(6) 0.1181(4)
H24 H 0.57000 -0.28720 0.09410
C37 C 0.5447(4) -0.2665(5) 0.1970(4)
C38 C 0.4888(4) -0.2203(5) 0.2328(4)
H25 H 0.49650 -0.22600 0.28580
O5C O 0.1878(3) -0.1383(4) 0.2967(3)
O12C O 0.3340(3) 0.1391(4) 0.2952(3)
In1C In -0.25577(2) 0.50043(5) 0.22172(2)
In1C* In 0.74423(2) -0.49957(5) 0.22172(2)
#END
