
#######################################################################
#
#                 Cambridge Crystallographic Data Centre
#                                CCDC
#
#######################################################################
#
# If this CIF has been generated from an entry in the Cambridge
# Structural Database, then it will include bibliographic, chemical,
# crystal, experimental, refinement or atomic coordinate data resulting
# from the CCDC's data processing and validation procedures.
#
#######################################################################

data_CSD_CIF_EZIDIC
_audit_creation_date 2016-11-24
_audit_creation_method CSD-ConQuest-V1
_database_code_CSD EZIDIC
_database_code_depnum_ccdc_archive 'CCDC 1504495'
_chemical_formula_sum 'C144 H96 Br24 N24 Ni4 Pb8'
_chemical_formula_moiety
;
(C36 H24 N6 Ni1 2+)4n,n(Br24 Pb8 8-)
;
_journal_coden_Cambridge 222
_journal_volume 45
_journal_year 2016
_journal_page_first 19389
_journal_name_full 'Dalton Trans. '
loop_
_publ_author_name
"Xiao-Wu Lei"
"Cheng-Yang Yue"
"Jun-Chao Wei"
"Rui-Qing Li"
"Yan Li"
"Fu-Qi Mi"
_chemical_name_systematic
;
catena-[tetrakis(tris(1,10-phenanthroline)-nickel) 
icosakis(\m-bromo)-tetrabromo-octa-lead]
;
_cell_volume   4106.241
_exptl_crystal_density_diffrn 2.415
_exptl_crystal_description 'block'
_diffrn_ambient_temperature 296.1
#These two values have been output from a single CSD field.
_refine_ls_R_factor_gt 0.0419
_refine_ls_wR_factor_gt 0.0419
_symmetry_cell_setting triclinic
_symmetry_space_group_name_H-M 'P -1'
_symmetry_Int_Tables_number 2
loop_
_symmetry_equiv_pos_site_id
_symmetry_equiv_pos_as_xyz
1 x,y,z
2 -x,-y,-z
_cell_length_a 14.4931(19)
_cell_length_b 17.568(2)
_cell_length_c 18.275(2)
_cell_angle_alpha 68.759(2)
_cell_angle_beta 89.049(2)
_cell_angle_gamma 72.207(2)
_cell_formula_units_Z 1
loop_
_atom_type_symbol
_atom_type_radius_bond
C 0.68
H 0.23
Br 1.21
N 0.68
Ni 1.24
Pb 1.46
loop_
_atom_site_label
_atom_site_type_symbol
_atom_site_fract_x
_atom_site_fract_y
_atom_site_fract_z
Pb1 Pb 0.75699(2) 0.32553(2) 0.02252(2)
Pb2 Pb 0.68986(2) 0.28789(2) -0.17048(2)
Pb3 Pb 0.64869(3) 0.25599(2) -0.37137(2)
Pb4 Pb 0.50000 0.50000 -0.50000
Pb5 Pb 0.50000 0.50000 0.00000
Br1 Br 0.82848(6) 0.20871(6) -0.26317(5)
Br2 Br 0.59040(7) 0.42900(6) -0.33290(5)
Br3 Br 0.54778(7) 0.41247(6) -0.11359(6)
Br4 Br 0.83175(7) 0.37908(6) -0.14147(6)
Br5 Br 0.72964(8) 0.10375(6) -0.40601(6)
Br6 Br 0.59558(8) 0.33343(6) 0.13501(6)
Br7 Br 0.56706(7) 0.18694(7) -0.20972(6)
Br8 Br 0.75242(8) 0.15758(6) -0.00282(5)
Br9 Br 0.44132(8) 0.33735(8) -0.45800(6)
Br10 Br 0.70720(8) 0.50845(6) 0.01162(7)
Br11 Br 0.92890(8) 0.24545(8) 0.12669(7)
Br12 Br 0.69259(8) 0.37810(8) -0.53199(6)
Ni1 Ni 0.72350(7) 0.79850(6) -0.22733(6)
N1 N 0.6524(5) 0.7886(4) -0.1248(3)
N2 N 0.7728(4) 0.8785(4) -0.1868(4)
N3 N 0.6035(5) 0.8989(4) -0.2986(4)
C1 C 0.6624(6) 0.8445(5) -0.0922(4)
N4 N 0.8430(5) 0.6894(4) -0.1794(4)
C2 C 0.7267(5) 0.8929(4) -0.1258(4)
N5 N 0.6490(5) 0.7296(4) -0.2628(4)
N6 N 0.8124(5) 0.8158(4) -0.3217(4)
C3 C 0.5459(6) 0.8716(5) -0.3345(4)
C4 C 0.9171(6) 0.6866(5) -0.2254(5)
C5 C 0.6131(6) 0.8544(5) -0.0279(5)
C6 C 0.6704(6) 0.6443(5) -0.2427(5)
H1 H 0.72390 0.60810 -0.20580
C7 C 0.8517(7) 0.6222(5) -0.1126(5)
H2 H 0.80220 0.62410 -0.07960
C8 C 0.7416(6) 0.9502(5) -0.0936(5)
C9 C 0.5821(6) 0.9823(6) -0.3173(5)
H3 H 0.62060 1.00170 -0.29280
C10 C 0.5937(6) 0.7420(5) -0.0935(5)
H4 H 0.58580 0.70410 -0.11570
C11 C 0.5130(7) 0.7486(6) -0.3485(5)
C12 C 0.8520(7) 0.9812(5) -0.1881(5)
H5 H 0.89520 1.01060 -0.21070
C13 C 0.8345(6) 0.9211(5) -0.2169(5)
H6 H 0.86750 0.91140 -0.25840
C14 C 0.5704(6) 0.7807(5) -0.3146(4)
C15 C 0.5392(7) 0.6581(6) -0.3258(5)
H7 H 0.50280 0.63410 -0.34690
C16 C 0.4658(6) 0.9281(6) -0.3904(5)
C17 C 0.8052(6) 0.9946(5) -0.1279(5)
H8 H 0.81540 1.03420 -0.10900
C18 C 0.4467(7) 1.0164(6) -0.4096(5)
H9 H 0.39540 1.05640 -0.44720
C19 C 0.9010(6) 0.7561(5) -0.3011(5)
C20 C 0.5536(7) 0.8047(6) 0.0032(5)
H10 H 0.52000 0.80930 0.04600
C21 C 0.5450(6) 0.7481(6) -0.0302(5)
H11 H 0.50580 0.71380 -0.00950
C22 C 0.6279(7) 0.9153(6) 0.0029(5)
H12 H 0.59450 0.92370 0.04470
C23 C 1.0054(7) 0.6170(7) -0.2043(7)
C24 C 0.6186(7) 0.6071(6) -0.2728(5)
H13 H 0.63750 0.54750 -0.25720
C25 C 0.7966(8) 0.8806(6) -0.3910(5)
H14 H 0.73560 0.92250 -0.40590
C26 C 0.5042(7) 1.0434(6) -0.3725(6)
H15 H 0.49150 1.10190 -0.38380
C27 C 0.9341(9) 0.5487(6) -0.0915(7)
H16 H 0.93600 0.50060 -0.04700
C28 C 0.6889(7) 0.9599(6) -0.0277(5)
H17 H 0.69760 0.99800 -0.00610
C29 C 0.9769(8) 0.7601(8) -0.3509(7)
C30 C 0.4302(7) 0.8097(7) -0.4059(6)
H18 H 0.39270 0.78960 -0.43070
C31 C 0.8684(10) 0.8879(7) -0.4421(6)
H19 H 0.85430 0.93380 -0.49060
C32 C 0.4080(8) 0.8954(7) -0.4233(6)
H20 H 0.35300 0.93330 -0.45790
C33 C 0.9559(10) 0.8304(8) -0.4226(7)
H21 H 1.00390 0.83670 -0.45660
C34 C 1.0683(9) 0.6883(10) -0.3207(8)
H22 H 1.11990 0.68930 -0.35150
C35 C 1.0824(9) 0.6235(9) -0.2541(8)
H23 H 1.14300 0.58090 -0.23850
C36 C 1.0109(9) 0.5460(7) -0.1340(7)
H24 H 1.06680 0.49810 -0.11730
Ni2 Ni 1.14949(7) 0.23197(6) -0.30601(6)
N7 N 1.0203(5) 0.3337(4) -0.3569(4)
N8 N 1.1016(5) 0.1412(5) -0.3297(4)
N9 N 1.1785(5) 0.2770(4) -0.4244(4)
N10 N 1.1067(5) 0.2010(4) -0.1923(4)
N11 N 1.2129(4) 0.3029(4) -0.2647(4)
N12 N 1.2738(5) 0.1227(5) -0.2630(4)
C37 C 1.1918(5) 0.2987(5) -0.1924(5)
C38 C 1.1324(6) 0.2461(5) -0.1534(4)
C39 C 1.2266(6) 0.3401(5) -0.1509(5)
C40 C 1.0970(6) 0.3377(5) -0.4725(5)
C41 C 1.0555(6) 0.1505(5) -0.1569(5)
H25 H 1.03830 0.11960 -0.18320
C42 C 1.1064(6) 0.2394(5) -0.0773(5)
C43 C 0.9294(7) 0.4294(6) -0.4847(5)
C44 C 1.1384(7) 0.2866(6) -0.0397(5)
H26 H 1.11830 0.28560 0.00910
C45 C 1.0139(6) 0.3673(5) -0.4363(5)
C46 C 1.2575(6) 0.0511(5) -0.2614(5)
C47 C 1.0259(7) 0.1407(6) -0.0828(5)
H27 H 0.98960 0.10420 -0.06030
C48 C 1.1976(7) 0.3327(6) -0.0740(6)
H28 H 1.22010 0.36040 -0.04690
C49 C 1.3579(7) 0.1137(6) -0.2265(5)
H29 H 1.36890 0.16330 -0.22680
C50 C 1.2709(6) 0.3467(5) -0.2988(5)
H30 H 1.28480 0.35070 -0.34960
C51 C 0.9440(6) 0.3625(5) -0.3223(5)
H31 H 0.94830 0.34140 -0.26750
C52 C 1.2896(7) 0.3849(6) -0.1877(6)
H32 H 1.31530 0.41230 -0.16220
C53 C 0.8498(7) 0.4558(6) -0.4439(7)
H33 H 0.79160 0.49600 -0.47220
C54 C 0.8571(6) 0.4236(6) -0.3652(7)
H34 H 0.80450 0.44190 -0.33890
C55 C 1.1681(7) 0.0593(5) -0.2982(5)
C56 C 1.3280(8) -0.0326(6) -0.2243(6)
C57 C 1.2558(7) 0.2507(6) -0.4566(6)
H35 H 1.31020 0.21010 -0.42290
C58 C 1.0510(7) 0.1859(6) -0.0422(5)
H36 H 1.03120 0.18070 0.00750
C59 C 1.2645(9) 0.2775(8) -0.5364(6)
H37 H 1.32210 0.25590 -0.55590
C60 C 1.0966(9) 0.3699(7) -0.5548(6)
C61 C 1.0168(7) 0.1527(7) -0.3659(5)
H38 H 0.97160 0.20770 -0.38810
C62 C 0.9946(9) 0.0789(9) -0.3708(6)
H39 H 0.93560 0.08650 -0.39650
C63 C 1.1848(10) 0.3370(8) -0.5849(6)
H40 H 1.18780 0.35670 -0.63920
C64 C 1.3137(7) 0.3886(6) -0.2619(6)
H41 H 1.35650 0.41740 -0.28700
C65 C 0.9305(9) 0.4604(7) -0.5675(6)
H42 H 0.87490 0.50180 -0.59900
C66 C 1.4137(8) -0.0358(7) -0.1869(6)
H43 H 1.46070 -0.08890 -0.16050
C67 C 1.1494(8) -0.0128(7) -0.3003(6)
C68 C 1.4291(8) 0.0359(8) -0.1885(6)
H44 H 1.48670 0.03330 -0.16440
C69 C 1.0069(10) 0.4332(8) -0.6014(6)
H45 H 1.00380 0.45460 -0.65620
C70 C 1.0623(10) -0.0025(7) -0.3369(7)
H46 H 1.04870 -0.05020 -0.33890
C71 C 1.2226(11) -0.0955(7) -0.2632(8)
H47 H 1.21090 -0.14470 -0.26320
C72 C 1.3054(11) -0.1027(8) -0.2293(9)
H48 H 1.35150 -0.15730 -0.20740
Pb1A Pb 0.24301(2) 0.67447(2) -1.02252(2)
Pb2A Pb 0.31014(2) 0.71211(2) -0.82952(2)
Pb3A Pb 0.35131(3) 0.74401(2) -0.62863(2)
Br1A Br 0.17152(6) 0.79129(6) -0.73683(5)
Br2A Br 0.40960(7) 0.57100(6) -0.66710(5)
Br3A Br 0.45222(7) 0.58753(6) -0.88641(6)
Br4A Br 0.16825(7) 0.62092(6) -0.85853(6)
Br5A Br 0.27036(8) 0.89625(6) -0.59399(6)
Br6A Br 0.40442(8) 0.66657(6) -1.13501(6)
Br7A Br 0.43294(7) 0.81306(7) -0.79028(6)
Br8A Br 0.24758(8) 0.84242(6) -0.99718(5)
Br9A Br 0.55868(8) 0.66265(8) -0.54200(6)
Br10A Br 0.29280(8) 0.49155(6) -1.01162(7)
Br11A Br 0.07110(8) 0.75455(8) -1.12669(7)
Br12A Br 0.30741(8) 0.62190(8) -0.46801(6)
Pb5* Pb 0.50000 0.50000 -1.00000
Br3A* Br 0.45222(7) 0.58753(6) 0.11359(6)
Br6A* Br 0.40442(8) 0.66657(6) -0.13501(6)
Br10A* Br 0.29280(8) 0.49155(6) -0.01162(7)
#END
