
#######################################################################
#
#                 Cambridge Crystallographic Data Centre
#                                CCDC
#
#######################################################################
#
# If this CIF has been generated from an entry in the Cambridge
# Structural Database, then it will include bibliographic, chemical,
# crystal, experimental, refinement or atomic coordinate data resulting
# from the CCDC's data processing and validation procedures.
#
#######################################################################

data_CSD_CIF_EZIYOC
_audit_creation_date 2011-12-21
_audit_creation_method CSD-ConQuest-V1
_database_code_CSD EZIYOC
_database_code_depnum_ccdc_archive 'CCDC 847567'
_chemical_formula_sum 'C44 H72 Eu1 K1 N12 O12 Ru2'
_chemical_formula_moiety
;
(K1 1+)n,n(C44 H56 Eu1 N12 O4 Ru2 1-),8n(H2 O1)
;
_journal_coden_Cambridge 196
_journal_volume 83
_journal_year 2011
_journal_page_first 289
_journal_name_full 'Anal.Chem. '
loop_
_publ_author_name
"Cheuk-Fai Chow"
"Hoi-Kuan Kong"
"Shu-Wai Leung"
"B.K.W.Chiu"
"Chi-Kin Koo"
"E.N.Y.Lei"
"M.H.W.Lam"
"Wing-Tak Wong"
"Wai-Yeung Wong"
_chemical_name_systematic
;
catena-[Potassium 
tetrakis(\m~2~-cyano)-tetra-aqua-bis(4,4'-di-t-butyl-2,2'-bipyridine-N,N')-tet
racyano-europium(iii)-di-ruthenium(ii) octahydrate]
;
_cell_volume   5889.533
_exptl_crystal_colour 'yellow'
_exptl_crystal_density_diffrn 1.527
_exptl_special_details
;
Bonding of the potassium is not discussed in the paper, therefore potassium 
has been shown as isolated cations in the 2D representation
;
_exptl_crystal_description 'plate'
_exptl_crystal_preparation 'methanol/water'
_diffrn_ambient_temperature 303
#These two values have been output from a single CSD field.
_refine_ls_R_factor_gt 0.068
_refine_ls_wR_factor_gt 0.068
_symmetry_cell_setting monoclinic
_symmetry_space_group_name_H-M 'P 21/n'
_symmetry_Int_Tables_number 14
loop_
_symmetry_equiv_pos_site_id
_symmetry_equiv_pos_as_xyz
1 x,y,z
2 1/2-x,1/2+y,1/2-z
3 -x,-y,-z
4 -1/2+x,-1/2-y,-1/2+z
_cell_length_a 10.516(2)
_cell_length_b 13.136(3)
_cell_length_c 42.764(9)
_cell_angle_alpha 90
_cell_angle_beta 94.45(1)
_cell_angle_gamma 90
_cell_formula_units_Z 4
loop_
_atom_type_symbol
_atom_type_radius_bond
C 0.68
H 0.23
Eu 1.98
K 1.71
N 0.68
O 0.68
Ru 1.46
loop_
_atom_site_label
_atom_site_type_symbol
_atom_site_fract_x
_atom_site_fract_y
_atom_site_fract_z
Eu1 Eu 0.89017(12) 0.30861(7) 0.25710(3)
Ru1 Ru 0.8270(2) 0.6260(1) 0.34137(4)
Ru2 Ru 0.5627(2) 0.1297(1) 0.32711(4)
K1 K 1.0225(6) 0.6543(5) 0.2645(1)
O1 O 0.957(2) 0.2436(13) 0.3108(4)
O2 O 0.869(2) 0.1234(11) 0.2568(5)
O3 O 1.013(2) 0.2406(13) 0.2145(4)
O4 O 1.113(1) 0.3387(10) 0.2692(4)
O5 O 1.229(2) 0.519(2) 0.2713(5)
O6 O 1.235(2) 0.783(2) 0.2935(5)
O7 O 0.915(2) 0.977(2) 0.3064(6)
O8 O 0.167(2) 0.987(2) 0.2914(7)
O9 O 0.279(2) 0.503(1) 0.3383(5)
O10 O 0.179(2) 0.303(1) 0.3460(4)
O11 O 0.081(2) 0.174(2) 0.3967(5)
O12 O 0.522(3) 0.471(2) 0.2773(6)
N1 N 1.123(2) 0.675(2) 0.3430(6)
N2 N 0.532(2) 0.584(2) 0.3387(6)
N3 N 0.877(2) 0.458(2) 0.2911(5)
N4 N 0.722(2) 0.283(1) 0.2132(5)
N5 N 0.690(2) 0.280(1) 0.2826(4)
N6 N 0.908(2) 0.460(2) 0.2236(5)
N7 N 0.295(2) 0.192(2) 0.2930(5)
N8 N 0.842(2) 0.101(2) 0.3617(5)
N9 N 0.798(2) 0.724(1) 0.3788(4)
N10 N 0.852(2) 0.532(1) 0.3808(4)
N11 N 0.468(2) 0.0361(12) 0.3582(4)
N12 N 0.520(2) 0.229(1) 0.3634(4)
C1 C 1.018(2) 0.658(1) 0.3432(5)
C2 C 0.640(2) 0.597(2) 0.3391(5)
C3 C 0.856(2) 0.521(2) 0.3095(5)
C4 C 0.703(2) 0.222(2) 0.1925(5)
C5 C 0.642(2) 0.225(2) 0.2999(5)
C6 C 0.915(2) 0.523(2) 0.2046(5)
C7 C 0.391(2) 0.166(1) 0.3049(5)
C8 C 0.740(3) 0.107(2) 0.3505(6)
C9 C 0.769(2) 0.825(2) 0.3766(6)
C10 C 0.744(2) 0.883(2) 0.4027(5)
C11 C 0.744(2) 0.840(2) 0.4310(5)
C12 C 0.774(2) 0.739(2) 0.4338(5)
C13 C 0.799(2) 0.681(2) 0.4072(5)
C14 C 0.830(2) 0.570(2) 0.4087(5)
C15 C 0.834(2) 0.514(2) 0.4363(5)
C16 C 0.858(2) 0.410(2) 0.4359(6)
C17 C 0.883(2) 0.370(2) 0.4072(6)
C18 C 0.884(2) 0.432(2) 0.3811(6)
C19 C 0.724(3) 0.909(2) 0.4598(7)
C20 C 0.630(3) 0.992(2) 0.4524(7)
C21 C 0.848(3) 0.960(3) 0.4707(8)
C22 C 0.684(4) 0.847(3) 0.4860(9)
C23 C 0.859(3) 0.342(2) 0.4649(7)
C24 C 0.818(4) 0.395(3) 0.4925(8)
C25 C 0.990(3) 0.296(3) 0.4720(8)
C26 C 0.765(4) 0.259(3) 0.4577(8)
C27 C 0.438(2) -0.064(2) 0.3539(6)
C28 C 0.367(2) -0.117(2) 0.3732(6)
C29 C 0.309(2) -0.070(2) 0.3973(5)
C30 C 0.339(2) 0.033(2) 0.4022(5)
C31 C 0.415(2) 0.082(2) 0.3818(5)
C32 C 0.446(2) 0.193(2) 0.3855(5)
C33 C 0.404(2) 0.255(2) 0.4087(5)
C34 C 0.438(2) 0.358(2) 0.4112(5)
C35 C 0.517(2) 0.392(2) 0.3889(5)
C36 C 0.555(2) 0.327(2) 0.3656(5)
C37 C 0.222(3) -0.126(2) 0.4182(6)
C38 C 0.088(3) -0.121(2) 0.4012(8)
C39 C 0.258(3) -0.236(2) 0.4221(7)
C40 C 0.219(3) -0.077(2) 0.4504(6)
C41 C 0.382(3) 0.424(2) 0.4353(6)
C42 C 0.381(4) 0.374(2) 0.4667(6)
C43 C 0.458(3) 0.524(2) 0.4405(7)
C44 C 0.245(3) 0.454(2) 0.4234(7)
H1 H 0.766(2) 0.857(2) 0.3566(6)
H2 H 0.727(2) 0.954(2) 0.4002(5)
H3 H 0.778(2) 0.707(2) 0.4538(5)
H4 H 0.821(2) 0.547(2) 0.4555(5)
H5 H 0.901(2) 0.299(2) 0.4053(6)
H6 H 0.909(2) 0.403(2) 0.3622(6)
H7 H 0.602(3) 1.019(2) 0.4714(7)
H8 H 0.669(3) 1.045(2) 0.4414(7)
H9 H 0.559(3) 0.966(2) 0.4399(7)
H10 H 0.912(3) 0.910(3) 0.4758(8)
H11 H 0.875(3) 1.002(3) 0.4544(8)
H12 H 0.837(3) 1.000(3) 0.4887(8)
H13 H 0.705(4) 0.881(3) 0.5052(9)
H14 H 0.594(4) 0.836(3) 0.4833(9)
H15 H 0.726(4) 0.783(3) 0.4862(9)
H16 H 0.853(4) 0.462(3) 0.4932(8)
H17 H 0.728(4) 0.399(3) 0.4912(8)
H18 H 0.847(4) 0.359(3) 0.5110(8)
H19 H 0.988(3) 0.251(3) 0.4895(8)
H20 H 1.012(3) 0.258(3) 0.4542(8)
H21 H 1.051(3) 0.348(3) 0.4766(8)
H22 H 0.695(4) 0.285(3) 0.4446(8)
H23 H 0.805(4) 0.205(3) 0.4473(8)
H24 H 0.735(4) 0.234(3) 0.4767(8)
H25 H 0.470(2) -0.099(2) 0.3366(6)
H26 H 0.355(2) -0.188(2) 0.3701(6)
H27 H 0.308(2) 0.068(2) 0.4193(5)
H28 H 0.350(2) 0.227(2) 0.4234(5)
H29 H 0.546(2) 0.461(2) 0.3895(5)
H30 H 0.608(2) 0.353(2) 0.3505(5)
H31 H 0.088(3) -0.153(2) 0.3813(8)
H32 H 0.029(3) -0.155(2) 0.4134(8)
H33 H 0.063(3) -0.052(2) 0.3984(8)
H34 H 0.343(3) -0.241(2) 0.4312(7)
H35 H 0.202(3) -0.268(2) 0.4354(7)
H36 H 0.252(3) -0.269(2) 0.4022(7)
H37 H 0.192(3) -0.008(2) 0.4480(6)
H38 H 0.161(3) -0.113(2) 0.4623(6)
H39 H 0.302(3) -0.079(2) 0.4610(6)
H40 H 0.465(4) 0.356(2) 0.4741(6)
H41 H 0.345(4) 0.419(2) 0.4811(6)
H42 H 0.330(4) 0.313(2) 0.4648(6)
H43 H 0.477(3) 0.551(2) 0.4208(7)
H44 H 0.409(3) 0.572(2) 0.4511(7)
H45 H 0.535(3) 0.511(2) 0.4529(7)
H46 H 0.195(3) 0.394(2) 0.4201(7)
H47 H 0.209(3) 0.496(2) 0.4384(7)
H48 H 0.247(3) 0.490(2) 0.4041(7)
H49 H 0.124(2) 0.187(2) 0.3852(5)
H50 H 0.034(2) 0.136(2) 0.3992(5)
Ru1A Ru 0.6730(2) 0.1260(1) 0.15863(4)
Ru2A Ru 0.9373(2) 0.6297(1) 0.17289(4)
C4A C 0.797(2) 0.722(2) 0.3075(5)
C6A C 0.585(2) 0.023(2) 0.2954(5)
#END
