
#######################################################################
#
#                 Cambridge Crystallographic Data Centre
#                                CCDC
#
#######################################################################
#
# If this CIF has been generated from an entry in the Cambridge
# Structural Database, then it will include bibliographic, chemical,
# crystal, experimental, refinement or atomic coordinate data resulting
# from the CCDC's data processing and validation procedures.
#
#######################################################################

data_CSD_CIF_EZOXEX
_audit_creation_date 2011-12-12
_audit_creation_method CSD-ConQuest-V1
_database_code_CSD EZOXEX
_database_code_depnum_ccdc_archive 'CCDC 851054'
_chemical_formula_sum 'C5 H12 N1 O7 P1 V1'
_chemical_formula_moiety
;
(C3 H4 O6 P1 V1 1-)n,0.5n(C4 H12 N2 2+),n(H2 O1)
;
_journal_coden_Cambridge 9
_journal_volume 50
_journal_year 2011
_journal_page_first 5145
_journal_name_full 'Inorg.Chem. '
loop_
_publ_author_name
"P.Kanoo"
"A.C.Ghosh"
"T.K.Maji"
_chemical_name_systematic
;
catena-(hemikis(Piperazinedi-ium) 
(\m~4~-(2-carboxylatoethyl)phosphonato)-oxo-vanadium(iv) monohydrate)
;
_cell_volume    948.715
_exptl_crystal_colour 'blue'
_exptl_crystal_density_diffrn 1.947
_exptl_crystal_description 'needle'
_diffrn_ambient_temperature 298
#These two values have been output from a single CSD field.
_refine_ls_R_factor_gt 0.075
_refine_ls_wR_factor_gt 0.075
_symmetry_cell_setting monoclinic
_symmetry_space_group_name_H-M 'P 21/n'
_symmetry_Int_Tables_number 14
loop_
_symmetry_equiv_pos_site_id
_symmetry_equiv_pos_as_xyz
1 x,y,z
2 1/2-x,1/2+y,1/2-z
3 -x,-y,-z
4 -1/2+x,-1/2-y,-1/2+z
_cell_length_a 6.3846(5)
_cell_length_b 16.7722(19)
_cell_length_c 8.9996(12)
_cell_angle_alpha 90
_cell_angle_beta 100.121(8)
_cell_angle_gamma 90
_cell_formula_units_Z 4
loop_
_atom_type_symbol
_atom_type_radius_bond
C 0.68
H 0.23
N 0.68
O 0.68
P 1.05
V 1.32
loop_
_atom_site_label
_atom_site_type_symbol
_atom_site_fract_x
_atom_site_fract_y
_atom_site_fract_z
C1 C 0.2107(10) 0.1886(5) 0.1958(10)
C2 C 0.2122(10) 0.2413(4) 0.0882(9)
H1 H 0.07390 0.24030 0.02310
H2 H 0.31610 0.22440 0.02790
C3 C 0.2637(10) 0.3307(3) 0.1389(7)
H3 H 0.40620 0.33130 0.19800
H4 H 0.16740 0.34510 0.20680
C4 C -0.4848(10) -0.0132(4) 0.1578(7)
H5 H -0.53310 0.03760 0.19080
H6 H -0.45120 -0.04740 0.24560
C5 C -0.2914(14) -0.0005(5) 0.0929(9)
H7 H -0.23460 -0.05150 0.06840
H8 H -0.18440 0.02590 0.16630
N1 N -0.6584(14) -0.0500(5) 0.048(1)
H9 H -0.77560 -0.05470 0.09030
H10 H -0.61900 -0.09910 0.02360
O1 O 0.2754(7) 0.1166(3) 0.6124(5)
O2 O -0.299(2) 0.2049(7) 0.1642(13)
O3 O 0.1904(7) 0.1118(2) 0.1742(5)
O4 O 0.2270(7) 0.2096(2) 0.3414(5)
O5 O 0.0329(6) 0.4092(2) -0.0953(5)
O6 O 0.4115(6) 0.3927(2) -0.1002(5)
O7 O 0.2984(7) 0.4832(2) 0.0982(5)
P1 P 0.2510(2) 0.40762(9) 0.00379(19)
V1 V 0.22727(16) 0.09853(6) 0.43374(12)
C4B C -0.5152(10) 0.0132(4) -0.1578(7)
H5B H -0.46690 -0.03760 -0.19080
H6B H -0.54880 0.04740 -0.24560
C5B C -0.7086(14) 0.0005(5) -0.0929(9)
H7B H -0.76540 0.05150 -0.06840
H8B H -0.81560 -0.02590 -0.16630
N1B N -0.3416(14) 0.0500(5) -0.048(1)
H9B H -0.22440 0.05470 -0.09030
H10B H -0.38100 0.09910 -0.02360
O5C O 0.5329(6) 0.0908(2) 0.4047(5)
O6C O -0.0885(6) 0.1073(2) 0.3998(5)
O7A O 0.2016(7) -0.0168(2) 0.4018(5)
V1C V -0.27273(16) 0.40147(6) -0.06626(12)
V1C* V 0.72727(16) 0.40147(6) -0.06626(12)
V1A V 0.27273(16) 0.59853(6) 0.06626(12)
#END
