
#######################################################################
#
#                 Cambridge Crystallographic Data Centre
#                                CCDC
#
#######################################################################
#
# If this CIF has been generated from an entry in the Cambridge
# Structural Database, then it will include bibliographic, chemical,
# crystal, experimental, refinement or atomic coordinate data resulting
# from the CCDC's data processing and validation procedures.
#
#######################################################################

data_CSD_CIF_FABFOF
_audit_creation_date 2011-02-15
_audit_creation_method CSD-ConQuest-V1
_database_code_CSD FABFOF
_database_code_depnum_ccdc_archive 'CCDC 721176'
_chemical_formula_sum 'C10 H22 N2 O14 Zn1'
_chemical_formula_moiety
;
(C10 H2 O8 Zn1 2-)n,2n(H4 N1 1+),6n(H2 O1)
;
_journal_coden_Cambridge 1295
_journal_volume 13
_journal_year 2010
_journal_page_first 870
_journal_name_full 'Inorg.Chem.Commun. '
loop_
_publ_author_name
"Shujuan Liu"
"Jinying Li"
"Feng Luo"
_chemical_name_systematic
;
catena-((\m~4~-Benzene-1,2,4,5-tetracarboxylato)-zinc(ii) diammonium 
hexahydrate)
;
_cell_volume   1948.003
_exptl_crystal_colour 'colorless'
_exptl_crystal_description 'block'
_diffrn_ambient_temperature 296
_refine_special_details
;
The SQUEEZE/PLATON program has been used to model disordered water molecules.

;
#These two values have been output from a single CSD field.
_refine_ls_R_factor_gt 0.0389
_refine_ls_wR_factor_gt 0.0389
_symmetry_cell_setting monoclinic
_symmetry_space_group_name_H-M 'C 2/c'
_symmetry_Int_Tables_number 15
loop_
_symmetry_equiv_pos_site_id
_symmetry_equiv_pos_as_xyz
1 x,y,z
2 -x,y,1/2-z
3 1/2+x,1/2+y,z
4 1/2-x,1/2+y,1/2-z
5 -x,-y,-z
6 x,-y,-1/2+z
7 -1/2-x,-1/2-y,-z
8 -1/2+x,-1/2-y,-1/2+z
_cell_length_a 11.548(2)
_cell_length_b 15.319(3)
_cell_length_c 11.021(2)
_cell_angle_alpha 90
_cell_angle_beta 92.36(3)
_cell_angle_gamma 90
_cell_formula_units_Z 4
loop_
_atom_type_symbol
_atom_type_radius_bond
C 0.68
H 0.23
N 0.68
O 0.68
Zn 1.22
loop_
_atom_site_label
_atom_site_type_symbol
_atom_site_fract_x
_atom_site_fract_y
_atom_site_fract_z
C1 C 0.8051(2) 0.30559(15) 0.4197(2)
C2 C 0.8595(2) 0.36456(17) 0.3290(2)
C3 C 0.8323(2) 0.31049(15) 0.5440(2)
C4 C 0.7770(2) 0.25511(16) 0.6221(2)
H1 H 0.79520 0.25850 0.70500
C5 C 0.9220(2) 0.37056(16) 0.6000(2)
N1 N 0.2261(3) 0.4246(2) 0.5050(3)
O1 O 0.90931(16) 0.43252(11) 0.37085(16)
O2 O 0.8524(2) 0.34606(16) 0.22005(19)
O3 O 1.02589(16) 0.34842(13) 0.60042(19)
O4 O 0.88438(15) 0.43822(11) 0.65131(16)
Zn1 Zn 1.00000 0.49461(2) 0.25000
C1F C 0.6949(2) 0.19441(15) 0.5803(2)
C2F C 0.6405(2) 0.13544(17) 0.6710(2)
C3F C 0.6677(2) 0.18951(15) 0.4560(2)
C4F C 0.7230(2) 0.24489(16) 0.3779(2)
H1F H 0.70480 0.24150 0.29500
C5F C 0.5780(2) 0.12944(16) 0.4000(2)
O1F O 0.59069(16) 0.06748(11) 0.62915(16)
O1A O 1.09069(16) 0.43252(11) 0.12915(16)
O2F O 0.6476(2) 0.15394(16) 0.77995(19)
O3F O 0.47411(16) 0.15158(13) 0.39958(19)
O4F O 0.61562(15) 0.06178(11) 0.34869(16)
O4D O 1.11562(15) 0.56178(11) 0.34869(16)
O4E O 0.88438(15) 0.56178(11) 0.15131(16)
Zn1B Zn 0.50000 -0.00539(2) 0.25000
Zn1D Zn 1.00000 0.50539(2) 0.75000
Zn1F Zn 0.50000 0.00539(2) 0.75000
#END
