
#######################################################################
#
#                 Cambridge Crystallographic Data Centre
#                                CCDC
#
#######################################################################
#
# If this CIF has been generated from an entry in the Cambridge
# Structural Database, then it will include bibliographic, chemical,
# crystal, experimental, refinement or atomic coordinate data resulting
# from the CCDC's data processing and validation procedures.
#
#######################################################################

data_CSD_CIF_FABHUN
_audit_creation_date 2011-02-15
_audit_creation_method CSD-ConQuest-V1
_database_code_CSD FABHUN
_database_code_depnum_ccdc_archive 'CCDC 688418'
_chemical_formula_sum 'C4 H12 La2 N2 O18 S2'
_chemical_formula_moiety
;
(C4 H4 La2 O18 S2 2-)n,2n(H4 N1 1+)
;
_journal_coden_Cambridge 1295
_journal_volume 13
_journal_year 2010
_journal_page_first 831
_journal_name_full 'Inorg.Chem.Commun. '
loop_
_publ_author_name
"Li Li"
"Ranbo Yu"
"Dan Wang"
"Xiaoyong Lai"
"Dan Mao"
"Mei Yang"
_chemical_name_systematic
;
catena-(bis(\m~3~-sulfato)-bis(\m~2~-oxalato)-diaqua-di-lanthanum diammonium)
;
_cell_volume    795.918
_exptl_crystal_colour 'white'
_exptl_crystal_density_diffrn 2.996
_exptl_crystal_description 'block'
_diffrn_ambient_temperature 293
#These two values have been output from a single CSD field.
_refine_ls_R_factor_gt 0.055
_refine_ls_wR_factor_gt 0.055
_symmetry_cell_setting monoclinic
_symmetry_space_group_name_H-M 'P 21/n'
_symmetry_Int_Tables_number 14
loop_
_symmetry_equiv_pos_site_id
_symmetry_equiv_pos_as_xyz
1 x,y,z
2 1/2-x,1/2+y,1/2-z
3 -x,-y,-z
4 -1/2+x,-1/2-y,-1/2+z
_cell_length_a 6.6294(13)
_cell_length_b 8.6727(17)
_cell_length_c 13.867(3)
_cell_angle_alpha 90
_cell_angle_beta 93.35(3)
_cell_angle_gamma 90
_cell_formula_units_Z 2
loop_
_atom_type_symbol
_atom_type_radius_bond
C 0.68
H 0.23
La 2.07
N 0.68
O 0.68
S 1.02
loop_
_atom_site_label
_atom_site_type_symbol
_atom_site_fract_x
_atom_site_fract_y
_atom_site_fract_z
La1 La 0.24594(9) 0.74012(7) 0.91160(4)
S1 S 0.7612(4) 0.6664(3) 1.0250(2)
O1 O 0.5644(15) 0.7376(11) 1.0001(8)
O2 O 0.9105(17) 0.7353(12) 0.9639(9)
O3 O 0.0429(15) 0.9462(11) 0.8283(7)
O4 O 0.2351(16) 0.9198(12) 1.0471(7)
O5 O 0.4480(14) 0.9465(11) 0.8422(7)
O6 O 0.4528(14) 1.1236(12) 0.7248(7)
O7 O 0.7504(15) 0.4984(10) 1.0044(7)
O8 O 0.0457(15) 1.1048(11) 0.7014(7)
C1 C 0.3627(19) 1.0349(14) 0.7788(8)
C2 C 0.131(2) 1.0296(14) 0.7687(8)
O9 O 0.8192(18) 0.6926(14) 1.1263(8)
H1 H 0.359(15) 0.96(2) 1.067(14)
H2 H 0.119(15) 0.966(19) 1.069(12)
N1 N 0.231(2) 0.6542(18) 0.1927(10)
H3 H 0.121(11) 0.681(17) 0.167(10)
H4 H 0.22(5) 0.574(12) 0.160(9)
H5 H 0.22(2) 0.642(15) 0.252(3)
H6 H 0.328(17) 0.71(2) 0.179(10)
La1B La 0.75406(9) 0.25988(7) 1.08840(4)
La1* La 1.24594(9) 0.74012(7) 0.91160(4)
La1A La 0.25406(9) 1.24012(7) 0.58840(4)
La1B* La -0.24594(9) 0.25988(7) 1.08840(4)
La1C La 0.74594(9) -0.24012(7) 1.41160(4)
S1B S 0.2388(4) 0.3336(3) 0.9750(2)
O1B O 0.4356(15) 0.2624(11) 0.9999(8)
O2B O 0.0895(17) 0.2647(12) 1.0361(9)
O2* O -0.0895(17) 0.7353(12) 0.9639(9)
O2B* O 1.0895(17) 0.2647(12) 1.0361(9)
O3B O 0.9571(15) 0.0538(11) 1.1717(7)
O4B O 0.7649(16) 0.0802(12) 0.9529(7)
O5B O 0.5520(14) 0.0535(11) 1.1578(7)
O6B O 0.5472(14) -0.1236(12) 1.2752(7)
O6A O 0.0472(14) 0.6236(12) 0.7752(7)
O6C O 0.9528(14) 0.3764(12) 1.2248(7)
O7B O 0.2496(15) 0.5016(10) 0.9956(7)
O8B O 0.9543(15) -0.1048(11) 1.2986(7)
O8A O 0.4543(15) 0.6048(11) 0.7986(7)
O8C O 0.5457(15) 0.3952(11) 1.2014(7)
C1B C 0.6373(19) -0.0349(14) 1.2212(8)
C2B C 0.869(2) -0.0296(14) 1.2313(8)
O9B O 0.1808(18) 0.3074(14) 0.8737(8)
H1B H 0.641(15) 0.04(2) 0.933(14)
H2B H 0.881(15) 0.034(19) 0.931(12)
#END
