
#######################################################################
#
#                 Cambridge Crystallographic Data Centre
#                                CCDC
#
#######################################################################
#
# If this CIF has been generated from an entry in the Cambridge
# Structural Database, then it will include bibliographic, chemical,
# crystal, experimental, refinement or atomic coordinate data resulting
# from the CCDC's data processing and validation procedures.
#
#######################################################################

data_CSD_CIF_FABHOH
_audit_creation_date 2011-02-15
_audit_creation_method CSD-ConQuest-V1
_database_code_CSD FABHOH
_database_code_depnum_ccdc_archive 'CCDC 688417'
_chemical_formula_sum 'C4 H12 N2 O18 S2 Sm2'
_chemical_formula_moiety
;
(C4 H4 O18 S2 Sm2 2-)n,2n(H4 N1 1+)
;
_journal_coden_Cambridge 1295
_journal_volume 13
_journal_year 2010
_journal_page_first 831
_journal_name_full 'Inorg.Chem.Commun. '
loop_
_publ_author_name
"Li Li"
"Ranbo Yu"
"Dan Wang"
"Xiaoyong Lai"
"Dan Mao"
"Mei Yang"
_chemical_name_systematic
;
catena-(bis(\m~3~-sulfato)-bis(\m~2~-oxalato)-diaqua-di-samarium diammonium)
;
_cell_volume    792.714
_exptl_crystal_colour 'white'
_exptl_crystal_density_diffrn 3.104
_exptl_crystal_description 'block'
_diffrn_ambient_temperature 293
#These two values have been output from a single CSD field.
_refine_ls_R_factor_gt 0.0319
_refine_ls_wR_factor_gt 0.0319
_symmetry_cell_setting monoclinic
_symmetry_space_group_name_H-M 'P 21/n'
_symmetry_Int_Tables_number 14
loop_
_symmetry_equiv_pos_site_id
_symmetry_equiv_pos_as_xyz
1 x,y,z
2 1/2-x,1/2+y,1/2-z
3 -x,-y,-z
4 -1/2+x,-1/2-y,-1/2+z
_cell_length_a 6.6189(13)
_cell_length_b 8.6598(17)
_cell_length_c 13.853(3)
_cell_angle_alpha 90
_cell_angle_beta 93.30(3)
_cell_angle_gamma 90
_cell_formula_units_Z 2
loop_
_atom_type_symbol
_atom_type_radius_bond
C 0.68
H 0.23
N 0.68
O 0.68
S 1.02
Sm 1.98
loop_
_atom_site_label
_atom_site_type_symbol
_atom_site_fract_x
_atom_site_fract_y
_atom_site_fract_z
Sm1 Sm 0.24604(3) 0.24025(2) 0.911586(12)
S1 S 0.76118(11) 0.16627(9) 1.02484(5)
O1 O 0.5647(6) 0.2381(3) 0.9997(2)
O2 O 0.9112(6) 0.2351(3) 0.9627(3)
O3 O 0.4467(4) 0.4462(3) 0.84204(17)
O4 O 0.2363(4) 0.4195(3) 1.04719(18)
O5 O 0.0460(4) 0.4466(3) 0.82859(16)
O6 O 0.7509(4) -0.0015(3) 1.00508(18)
O7 O 0.0466(4) 0.6056(3) 0.70140(17)
O8 O 0.4526(4) 0.6241(3) 0.72481(16)
C1 C 0.3634(5) 0.5351(4) 0.7794(2)
C2 C 0.1315(5) 0.5294(4) 0.7690(2)
O9 O 0.8184(5) 0.1923(4) 1.12649(18)
H1 H 0.343(7) 0.484(6) 1.061(4)
H2 H 0.140(7) 0.486(6) 1.072(4)
N1 N 0.7316(5) 0.3433(4) 0.6927(2)
H3 H 0.624(7) 0.296(8) 0.675(5)
H4 H 0.747(9) 0.336(8) 0.752(2)
H5 H 0.71(4) 0.438(6) 0.69(3)
H6 H 0.830(8) 0.309(11) 0.662(5)
Sm1B Sm 0.75396(3) -0.24025(2) 1.088414(12)
Sm1* Sm 1.24604(3) 0.24025(2) 0.911586(12)
Sm1A Sm 0.25396(3) 0.74025(2) 0.588414(12)
Sm1B* Sm -0.24604(3) -0.24025(2) 1.088414(12)
Sm1C Sm 0.74604(3) -0.74025(2) 1.411586(12)
S1B S 0.23882(11) -0.16627(9) 0.97516(5)
O1B O 0.4353(6) -0.2381(3) 1.0003(2)
O2B O 0.0888(6) -0.2351(3) 1.0373(3)
O2* O -0.0888(6) 0.2351(3) 0.9627(3)
O2B* O 1.0888(6) -0.2351(3) 1.0373(3)
O3B O 0.5533(4) -0.4462(3) 1.15796(17)
O4B O 0.7637(4) -0.4195(3) 0.95281(18)
O5B O 0.9540(4) -0.4466(3) 1.17141(16)
O6B O 0.2491(4) 0.0015(3) 0.99492(18)
O7B O 0.9534(4) -0.6056(3) 1.29860(17)
O7A O 0.4534(4) 0.1056(3) 0.79860(17)
O7C O 0.5466(4) -0.1056(3) 1.20140(17)
O8B O 0.5474(4) -0.6241(3) 1.27519(16)
O8A O 0.0474(4) 0.1241(3) 0.77519(16)
O8C O 0.9526(4) -0.1241(3) 1.22481(16)
C1B C 0.6366(5) -0.5351(4) 1.2206(2)
C2B C 0.8685(5) -0.5294(4) 1.2310(2)
O9B O 0.1816(5) -0.1923(4) 0.87351(18)
H1B H 0.657(7) -0.484(6) 0.939(4)
H2B H 0.860(7) -0.486(6) 0.928(4)
#END
