
#######################################################################
#
#                 Cambridge Crystallographic Data Centre
#                                CCDC
#
#######################################################################
#
# If this CIF has been generated from an entry in the Cambridge
# Structural Database, then it will include bibliographic, chemical,
# crystal, experimental, refinement or atomic coordinate data resulting
# from the CCDC's data processing and validation procedures.
#
#######################################################################

data_CSD_CIF_FABHIB
_audit_creation_date 2011-02-15
_audit_creation_method CSD-ConQuest-V1
_database_code_CSD FABHIB
_database_code_depnum_ccdc_archive 'CCDC 665771'
_chemical_formula_sum 'C4 H12 N2 O18 S2 Y2'
_chemical_formula_moiety
;
(C4 H4 O18 S2 Y2 2-)n,2n(H4 N1 1+)
;
_journal_coden_Cambridge 1295
_journal_volume 13
_journal_year 2010
_journal_page_first 831
_journal_name_full 'Inorg.Chem.Commun. '
loop_
_publ_author_name
"Li Li"
"Ranbo Yu"
"Dan Wang"
"Xiaoyong Lai"
"Dan Mao"
"Mei Yang"
_chemical_name_systematic
;
catena-(bis(\m~3~-sulfato)-bis(\m~2~-oxalato)-diaqua-di-yttrium diammonium)
;
_cell_volume    764.824
_exptl_crystal_colour 'white'
_exptl_crystal_density_diffrn 2.684
_exptl_crystal_description 'block'
_diffrn_ambient_temperature 293
#These two values have been output from a single CSD field.
_refine_ls_R_factor_gt 0.0253
_refine_ls_wR_factor_gt 0.0253
_symmetry_cell_setting monoclinic
_symmetry_space_group_name_H-M 'P 21/n'
_symmetry_Int_Tables_number 14
loop_
_symmetry_equiv_pos_site_id
_symmetry_equiv_pos_as_xyz
1 x,y,z
2 1/2-x,1/2+y,1/2-z
3 -x,-y,-z
4 -1/2+x,-1/2-y,-1/2+z
_cell_length_a 6.5341(13)
_cell_length_b 8.5266(17)
_cell_length_c 13.745(3)
_cell_angle_alpha 90
_cell_angle_beta 92.87(3)
_cell_angle_gamma 90
_cell_formula_units_Z 2
loop_
_atom_type_symbol
_atom_type_radius_bond
C 0.68
H 0.23
N 0.68
O 0.68
S 1.02
Y 1.90
loop_
_atom_site_label
_atom_site_type_symbol
_atom_site_fract_x
_atom_site_fract_y
_atom_site_fract_z
Y1 Y 0.25414(4) 0.74023(3) 0.59017(2)
S1 S 0.25961(11) 0.33328(9) 0.52504(6)
O1 O 0.2517(4) 0.5051(3) 0.50808(18)
O2 O 0.3090(4) 0.3014(3) 0.62791(18)
O3 O 0.0604(4) 0.2628(3) 0.49600(19)
O4 O 0.4159(4) 0.2653(3) 0.4643(2)
O5 O 0.0517(4) 0.9427(3) 0.65958(17)
O6 O 0.0457(4) 1.1198(3) 0.77988(17)
O7 O 0.4566(4) 0.9422(3) 0.67218(17)
O8 O 0.4551(4) 1.1060(3) 0.79995(17)
O9 O 0.2624(4) 0.9209(3) 0.45929(19)
C1 C 0.1350(5) 1.0316(4) 0.7229(2)
C2 C 0.3691(5) 1.0277(4) 0.7328(2)
H1 H 0.165(9) 0.966(8) 0.433(5)
H2 H 0.362(8) 0.960(8) 0.436(5)
N1 N 0.7663(5) 0.8386(4) 0.8096(3)
H3 H 0.893(7) 0.819(9) 0.828(5)
H4 H 0.681(10) 0.762(7) 0.789(6)
H5 H 0.783(11) 0.861(8) 0.750(3)
H6 H 0.725(9) 0.907(6) 0.843(4)
Y1B Y -0.25414(4) 0.25977(3) 0.40983(2)
Y1* Y -0.74586(4) 0.74023(3) 0.59017(2)
Y1A Y 0.24586(4) 1.24023(3) 0.90983(2)
Y1B* Y 0.74586(4) 0.25977(3) 0.40983(2)
Y1C Y -0.24586(4) -0.24023(3) 0.09017(2)
S1B S -0.25961(11) 0.66672(9) 0.47496(6)
O1B O -0.2517(4) 0.4949(3) 0.49192(18)
O2B O -0.3090(4) 0.6986(3) 0.37209(18)
O3B O -0.0604(4) 0.7372(3) 0.50400(19)
O4B O -0.4159(4) 0.7347(3) 0.5357(2)
O4* O -0.5841(4) 0.2653(3) 0.4643(2)
O4B* O 0.5841(4) 0.7347(3) 0.5357(2)
O5B O -0.0517(4) 0.0573(3) 0.34042(17)
O6B O -0.0457(4) -0.1198(3) 0.22012(17)
O6A O 0.4543(4) 0.6198(3) 0.72012(17)
O6C O -0.4543(4) 0.3802(3) 0.27988(17)
O7B O -0.4566(4) 0.0578(3) 0.32782(17)
O8B O -0.4551(4) -0.1060(3) 0.20005(17)
O8A O 0.0449(4) 0.6060(3) 0.70005(17)
O8C O -0.0449(4) 0.3940(3) 0.29995(17)
O9B O -0.2624(4) 0.0791(3) 0.54071(19)
C1B C -0.1350(5) -0.0316(4) 0.2771(2)
C2B C -0.3691(5) -0.0277(4) 0.2672(2)
H1B H -0.165(9) 0.034(8) 0.567(5)
H2B H -0.362(8) 0.040(8) 0.564(5)
#END
