
#######################################################################
#
#                 Cambridge Crystallographic Data Centre
#                                CCDC
#
#######################################################################
#
# If this CIF has been generated from an entry in the Cambridge
# Structural Database, then it will include bibliographic, chemical,
# crystal, experimental, refinement or atomic coordinate data resulting
# from the CCDC's data processing and validation procedures.
#
#######################################################################

data_CSD_CIF_FAGXOD
_audit_creation_date 2016-01-11
_audit_creation_method CSD-ConQuest-V1
_database_code_CSD FAGXOD
_database_code_depnum_ccdc_archive 'CCDC 1063674'
_chemical_formula_sum 'C26 H26 N2 O7 Zn1'
_chemical_formula_moiety
;
(C21 H11 O6 Zn1 1-)n,C3 H7 N1 O1,C2 H8 N1 1+
;
_journal_coden_Cambridge 1350
_journal_volume 18
_journal_year 2016
_journal_page_first 4102
_journal_name_full 'CrystEngComm '
loop_
_publ_author_name
"Chuanqi Zhang"
"Yan Yan"
"Libo Sun"
"Zhiqiang Liang"
"Jiyang Li"
_chemical_name_systematic
;
catena-[N-methylmethanaminium 
(\m-1,1':4',1''-terphenyl-3,4'',5-tricarboxylato)-zinc N,N-dimethylformamide 
solvate]
;
_cell_volume   5016.808
_exptl_crystal_density_diffrn 1.44
_exptl_crystal_description 'block'
_diffrn_ambient_temperature 296
#These two values have been output from a single CSD field.
_refine_ls_R_factor_gt 0.0462
_refine_ls_wR_factor_gt 0.0462
_symmetry_cell_setting orthorhombic
_symmetry_space_group_name_H-M 'P b c n'
_symmetry_Int_Tables_number 60
loop_
_symmetry_equiv_pos_site_id
_symmetry_equiv_pos_as_xyz
1 x,y,z
2 1/2-x,1/2-y,1/2+z
3 1/2+x,1/2-y,-z
4 -x,y,1/2-z
5 -x,-y,-z
6 -1/2+x,-1/2+y,-1/2-z
7 -1/2-x,-1/2+y,z
8 x,-y,-1/2+z
_cell_length_a 16.7153(8)
_cell_length_b 8.4558(4)
_cell_length_c 35.4943(17)
_cell_angle_alpha 90
_cell_angle_beta 90
_cell_angle_gamma 90
_cell_formula_units_Z 8
loop_
_atom_type_symbol
_atom_type_radius_bond
C 0.68
H 0.23
N 0.68
O 0.68
Zn 1.22
loop_
_atom_site_label
_atom_site_type_symbol
_atom_site_fract_x
_atom_site_fract_y
_atom_site_fract_z
Zn1 Zn 0.478029(16) 0.61268(4) 0.949785(8)
O1 O 0.51691(10) 0.3976(2) 0.96473(5)
O2 O 0.59506(11) 0.3133(2) 1.01118(5)
O3 O 0.92988(11) 0.2314(3) 0.93130(6)
O4 O 0.57822(13) 0.5313(3) 0.59456(5)
O5 O 0.87501(13) 0.1830(3) 0.98703(5)
O6 O 0.62617(16) 0.7725(3) 0.60239(6)
C1 C 0.72626(16) 0.2881(3) 0.96352(7)
C2 C 0.79134(16) 0.2839(3) 0.93921(7)
C3 C 0.78100(16) 0.3264(4) 0.90157(7)
C4 C 0.70611(16) 0.3707(3) 0.88782(7)
C5 C 0.64159(15) 0.3732(3) 0.91243(7)
C6 C 0.65145(15) 0.3345(3) 0.95036(7)
C7 C 0.69555(16) 0.4145(3) 0.84745(7)
C8 C 0.75412(17) 0.4971(4) 0.82788(7)
C9 C 0.74445(18) 0.5351(4) 0.79003(8)
C10 C 0.67584(17) 0.4890(3) 0.77046(7)
C11 C 0.61651(17) 0.4083(4) 0.79039(8)
C12 C 0.62594(16) 0.3716(4) 0.82815(8)
C13 C 0.66476(17) 0.5259(4) 0.72989(7)
C14 C 0.6899(2) 0.6677(4) 0.71413(8)
C15 C 0.6761(2) 0.7013(4) 0.67634(8)
C16 C 0.63667(16) 0.5927(4) 0.65344(7)
C17 C 0.61323(19) 0.4492(4) 0.66852(8)
C18 C 0.62724(18) 0.4164(4) 0.70638(8)
C19 C 0.87049(16) 0.2300(3) 0.95431(7)
C20 C 0.58320(15) 0.3506(3) 0.97718(7)
C21 C 0.61372(17) 0.6393(4) 0.61383(8)
H1 H 0.73300 0.26300 0.98890
H2 H 0.82580 0.31190 0.88560
H3 H 0.59110 0.40070 0.90480
H4 H 0.80420 0.53820 0.84040
H5 H 0.78800 0.58340 0.77650
H6 H 0.56840 0.37560 0.77890
H7 H 0.58450 0.32330 0.84300
H8 H 0.71500 0.74820 0.72880
H9 H 0.69030 0.80170 0.66680
H10 H 0.59050 0.37500 0.65480
H11 H 0.61190 0.31990 0.71690
O7 O 1.02081(18) 0.6254(3) 0.87297(8)
N1 N 0.9836(2) 0.4301(4) 0.83351(9)
C22 C 0.9519(2) 0.2724(5) 0.82843(13)
H12 H 0.94540 0.22280 0.85260
H13 H 0.98820 0.21140 0.81330
H14 H 0.90090 0.27860 0.81600
C23 C 1.0090(4) 0.5141(7) 0.80029(13)
H15 H 0.97270 0.49200 0.78000
H16 H 1.06190 0.48080 0.79340
H17 H 1.00910 0.62570 0.80530
C24 C 0.9936(2) 0.4926(5) 0.86709(11)
H18 H 0.97900 0.43220 0.88790
N2 N 0.38969(18) 0.1872(4) 0.93978(8)
H19 H 0.39600 0.26760 0.95610
H20 H 0.42510 0.20140 0.92100
C25 C 0.3094(2) 0.1966(7) 0.92401(13)
H21 H 0.30030 0.10730 0.90790
H22 H 0.30420 0.29240 0.90970
H23 H 0.27090 0.19630 0.94410
C26 C 0.4093(4) 0.0398(5) 0.95914(12)
H24 H 0.36470 0.00740 0.97430
H25 H 0.45520 0.05600 0.97490
H26 H 0.42090 -0.04070 0.94090
Zn1C Zn 0.521971(16) 0.61268(4) 0.550215(8)
Zn1D Zn 0.521971(16) 0.38732(4) 1.050215(8)
Zn1F Zn 1.021971(16) 0.11268(4) 0.949785(8)
O2D O 0.40494(11) 0.6867(2) 0.98882(5)
O3F O 0.57012(11) 0.7314(3) 0.93130(6)
O4C O 0.42178(13) 0.5313(3) 0.90544(5)
#END
