
#######################################################################
#
#                 Cambridge Crystallographic Data Centre
#                                CCDC
#
#######################################################################
#
# If this CIF has been generated from an entry in the Cambridge
# Structural Database, then it will include bibliographic, chemical,
# crystal, experimental, refinement or atomic coordinate data resulting
# from the CCDC's data processing and validation procedures.
#
#######################################################################

data_CSD_CIF_FAGZAO
_audit_creation_date 1987-09-22
_audit_creation_method CSD-ConQuest-V1
_database_code_CSD FAGZAO
_database_code_depnum_ccdc_archive 'CCDC 1151765'
_chemical_formula_sum 'C18 H54 Mn2 Na2 O36'
_chemical_formula_moiety
;
(Na1 1+)2n,n(C18 H6 Mn2 O12 2-),24n(H2 O1)
;
_journal_coden_Cambridge 644
_journal_volume 41
_journal_year 1986
_journal_page_first 1501
_journal_name_full 'Z.Naturforsch.,B:Chem.Sci. '
loop_
_publ_author_name
"A.Weiss"
"E.Riegler"
"C.Robl"
_chemical_name_systematic
;
catena-(Di-sodium 
tris(\m~2~-2,5-dihydroxy-1,4-benzoquinone-O,O',O'',O''')-di-manganese(ii) 
hydrate)
;
_chemical_name_common
;
Teaching Subset: MOFs
;
_cell_volume   1138.356
_exptl_crystal_colour 'dark red'
_exptl_crystal_density_diffrn 1.55
_exptl_special_details
;
Isotypic with the cadmium analogue
dx reported as 1.55; we calculate 1.46

;
_diffrn_ambient_temperature ?
_diffrn_special_details
;
The study was carried out at room temperature,in the range 283-303K

;
#These two values have been output from a single CSD field.
_refine_ls_R_factor_gt 0.051
_refine_ls_wR_factor_gt 0.051
_symmetry_cell_setting hexagonal
_symmetry_space_group_name_H-M 'P -3 1 m'
_symmetry_Int_Tables_number 162
loop_
_symmetry_equiv_pos_site_id
_symmetry_equiv_pos_as_xyz
1 x,y,z
2 -y,x-y,z
3 -x+y,-x,z
4 -y,-x,-z
5 -x+y,y,-z
6 x,x-y,-z
7 -x,-y,-z
8 y,-x+y,-z
9 x-y,x,-z
10 y,x,z
11 x-y,-y,z
12 -x,-x+y,z
_cell_length_a 14.150(2)
_cell_length_b 14.150(2)
_cell_length_c 6.565(2)
_cell_angle_alpha 90
_cell_angle_beta 90
_cell_angle_gamma 120
_cell_formula_units_Z 1
loop_
_atom_type_symbol
_atom_type_radius_bond
C 0.68
Mn 1.35
Na 0.97
O 0.68
loop_
_atom_site_label
_atom_site_type_symbol
_atom_site_fract_x
_atom_site_fract_y
_atom_site_fract_z
Mn1 Mn 0.33330 0.66670 0.00000
C1 C 0.4321(4) 0.5295(4) 0.1084(6)
C2 C 0.4607(5) 0.4607(5) 0.2075(10)
O1 O 0.3712(3) 0.5630(3) 0.1850(5)
Na1 Na 0.00000 0.00000 0.00000
Na2 Na 0.00000 0.00000 0.50000
O2 O 0.2301(2) 0.7699(2) 0.50000
O3 O 0.00000 0.1265(4) 0.7448(9)
O4 O 0.3191(3) 0.2059(4) 0.8153(6)
C1C C 0.4705(4) 0.5679(4) -0.1084(6)
C2C C 0.5393(5) 0.5393(5) -0.2075(10)
C1F C 0.5679(4) 0.4705(4) -0.1084(6)
C1I C 0.5295(4) 0.4321(4) 0.1084(6)
O1I O 0.5630(3) 0.3712(3) 0.1850(5)
O1F O 0.6288(3) 0.4370(3) -0.1850(5)
O1C O 0.4370(3) 0.6288(3) -0.1850(5)
C1A C 0.4705(4) 0.9026(4) 0.1084(6)
C2A C 0.5393(5) 1.0000(5) 0.2075(10)
O1A O 0.4370(3) 0.8082(3) 0.1850(5)
C1E C 0.4321(4) 0.9026(4) -0.1084(6)
C2E C 0.4607(5) 1.0000(5) -0.2075(10)
C1G C 0.5295(4) 1.0974(4) -0.1084(6)
C1K C 0.5679(4) 1.0974(4) 0.1084(6)
O1K O 0.6288(3) 1.1918(3) 0.1850(5)
O1G O 0.5630(3) 1.1918(3) -0.1850(5)
O1E O 0.3712(3) 0.8082(3) -0.1850(5)
C1B C 0.0974(4) 0.5679(4) 0.1084(6)
C2B C 0.0000(5) 0.5393(5) 0.2075(10)
O1B O 0.1918(3) 0.6288(3) 0.1850(5)
C1D C 0.0974(4) 0.5295(4) -0.1084(6)
C2D C 0.0000(5) 0.4607(5) -0.2075(10)
C1H C -0.0974(4) 0.4321(4) -0.1084(6)
C1J C -0.0974(4) 0.4705(4) 0.1084(6)
O1J O -0.1918(3) 0.4370(3) 0.1850(5)
O1H O -0.1918(3) 0.3712(3) -0.1850(5)
O1D O 0.1918(3) 0.5630(3) -0.1850(5)
Mn1I Mn 0.66670 0.33330 0.00000
Mn1I* Mn 0.66670 1.33330 0.00000
Mn1I** Mn -0.33330 0.33330 0.00000
O1J* O 0.8082(3) 0.4370(3) 0.1850(5)
O1K* O 0.6288(3) 0.1918(3) 0.1850(5)
O1G* O 0.5630(3) 0.1918(3) -0.1850(5)
O1H* O 0.8082(3) 0.3712(3) -0.1850(5)
#END
