
#######################################################################
#
#                 Cambridge Crystallographic Data Centre
#                                CCDC
#
#######################################################################
#
# If this CIF has been generated from an entry in the Cambridge
# Structural Database, then it will include bibliographic, chemical,
# crystal, experimental, refinement or atomic coordinate data resulting
# from the CCDC's data processing and validation procedures.
#
#######################################################################

data_CSD_CIF_FAHBIC
_audit_creation_date 2016-01-11
_audit_creation_method CSD-ConQuest-V1
_database_code_CSD FAHBIC
_database_code_depnum_ccdc_archive 'CCDC 1423671'
_chemical_formula_sum 'C6 H12 Dy1 N1 O8'
_chemical_formula_moiety
;
(C4 H4 Dy1 O8 1-)n,n(C2 H8 N1 1+)
;
_journal_coden_Cambridge 1695
_journal_volume 4
_journal_year 2016
_journal_page_first 1019
_journal_name_full 'J.Mater.Chem.C '
loop_
_publ_author_name
"M.Ptak"
"M.Maczka"
"A.Gagor"
"P.Gluchowski"
"L.Macalik"
_chemical_name_systematic
;
catena-(Dimethylammonium tetrakis(\m~2~-formato-O,O')-dysprosium)
;
_cell_volume   1064.372
_exptl_crystal_colour 'colorless'
_exptl_crystal_density_diffrn 2.425
_exptl_crystal_description 'rectangular prism'
_diffrn_ambient_temperature 297
#These two values have been output from a single CSD field.
_refine_ls_R_factor_gt 0.0122
_refine_ls_wR_factor_gt 0.0122
_symmetry_cell_setting orthorhombic
_symmetry_space_group_name_H-M 'P n a 21'
_symmetry_Int_Tables_number 33
loop_
_symmetry_equiv_pos_site_id
_symmetry_equiv_pos_as_xyz
1 x,y,z
2 -x,-y,1/2+z
3 1/2+x,1/2-y,z
4 1/2-x,1/2+y,1/2+z
_cell_length_a 8.7383(1)
_cell_length_b 18.1604(2)
_cell_length_c 6.7072(1)
_cell_angle_alpha 90
_cell_angle_beta 90
_cell_angle_gamma 90
_cell_formula_units_Z 4
loop_
_atom_type_symbol
_atom_type_radius_bond
C 0.68
H 0.23
Dy 1.92
N 0.68
O 0.68
loop_
_atom_site_label
_atom_site_type_symbol
_atom_site_fract_x
_atom_site_fract_y
_atom_site_fract_z
Dy1 Dy 0.744151(9) 0.605544(4) 0.40591(15)
O1 O 0.7215(3) 0.6541(2) -0.2627(6)
O2 O 0.8541(2) 0.51034(11) 0.2238(4)
O3 O 0.6541(2) 0.50168(11) 0.5936(4)
O4 O 1.10311(18) 0.78412(8) 0.4082(6)
C1 C 0.9867(3) 0.75330(14) 0.3431(4)
H1 H 0.92950 0.77790 0.24720
C2 C 0.5289(4) 0.47807(18) 0.6467(6)
H2 H 0.44600 0.50170 0.58790
C3 C 0.9840(4) 0.4959(2) 0.1625(6)
H3 H 1.05530 0.53380 0.17040
C4 C 0.7381(3) 0.62219(14) -0.0982(17)
H4 H 0.73920 0.57100 -0.10040
O5 O 1.0302(2) 0.43759(10) 0.0925(3)
O6 O 0.4939(2) 0.42954(11) 0.7620(3)
O7 O 0.94174(19) 0.69171(9) 0.3978(7)
O8 O 0.7530(2) 0.6518(3) 0.0656(7)
N1 N 1.1727(3) 0.67814(15) 0.7268(4)
H5 H 1.16790 0.72310 0.67090
H6 H 1.10930 0.64840 0.65840
C5 C 1.1203(5) 0.6830(2) 0.9307(7)
H7 H 1.13120 0.63590 0.99410
H8 H 1.01460 0.69740 0.93250
H9 H 1.18020 0.71890 1.00100
C6 C 1.3280(6) 0.6504(2) 0.7086(11)
H10 H 1.39840 0.68630 0.75960
H11 H 1.35040 0.64100 0.57080
H12 H 1.33770 0.60560 0.78330
Dy1* Dy 0.744151(9) 0.605544(4) -0.59409(15)
Dy1A Dy 0.255849(9) 0.394456(4) 0.90591(15)
Dy1A* Dy 1.255849(9) 0.394456(4) -0.09409(15)
Dy1B Dy 1.244151(9) 0.894456(4) 0.40591(15)
O1* O 0.7215(3) 0.6541(2) 0.7373(6)
O4B O 0.60311(18) 0.71588(8) 0.4082(6)
O5A O 0.9698(2) 0.56241(10) 0.5925(3)
O6A O 0.5061(2) 0.57046(11) 0.2620(3)
#END
