
#######################################################################
#
#                 Cambridge Crystallographic Data Centre
#                                CCDC
#
#######################################################################
#
# If this CIF has been generated from an entry in the Cambridge
# Structural Database, then it will include bibliographic, chemical,
# crystal, experimental, refinement or atomic coordinate data resulting
# from the CCDC's data processing and validation procedures.
#
#######################################################################

data_CSD_CIF_FAHBOI
_audit_creation_date 2016-01-11
_audit_creation_method CSD-ConQuest-V1
_database_code_CSD FAHBOI
_database_code_depnum_ccdc_archive 'CCDC 1423672'
_chemical_formula_sum 'C4 H9 Dy1 N2 O8'
_chemical_formula_moiety
;
(C4 H4 Dy1 O8 1-)n,n(H5 N2 1+)
;
_journal_coden_Cambridge 1695
_journal_volume 4
_journal_year 2016
_journal_page_first 1019
_journal_name_full 'J.Mater.Chem.C '
loop_
_publ_author_name
"M.Ptak"
"M.Maczka"
"A.Gagor"
"P.Gluchowski"
"L.Macalik"
_chemical_name_systematic
;
catena-(Hydrazinium tetrakis(\m~2~-formato-O,O')-dysprosium)
;
_cell_volume    920.577
_exptl_crystal_density_diffrn 2.71
_exptl_crystal_description 'prism'
_diffrn_ambient_temperature 298
#These two values have been output from a single CSD field.
_refine_ls_R_factor_gt 0.0147
_refine_ls_wR_factor_gt 0.0147
_symmetry_cell_setting orthorhombic
_symmetry_space_group_name_H-M 'P c a 21'
_symmetry_Int_Tables_number 29
loop_
_symmetry_equiv_pos_site_id
_symmetry_equiv_pos_as_xyz
1 x,y,z
2 -x,-y,1/2+z
3 1/2+x,-y,z
4 1/2-x,y,1/2+z
_cell_length_a 18.3359(5)
_cell_length_b 6.60183(17)
_cell_length_c 7.6049(2)
_cell_angle_alpha 90
_cell_angle_beta 90
_cell_angle_gamma 90
_cell_formula_units_Z 4
loop_
_atom_type_symbol
_atom_type_radius_bond
C 0.68
H 0.23
Dy 1.92
N 0.68
O 0.68
loop_
_atom_site_label
_atom_site_type_symbol
_atom_site_fract_x
_atom_site_fract_y
_atom_site_fract_z
Dy1 Dy 0.60198(2) 0.20406(2) 0.44467(9)
O1 O 0.7808(2) 0.1950(6) 0.0839(7)
O2 O 0.5857(2) 0.1765(6) 0.7526(6)
O3 O 0.65279(19) 0.5321(5) 0.4909(5)
O4 O 0.5728(2) 0.4063(5) 0.1872(5)
O5 O 0.6778(2) 0.1169(7) 0.2176(5)
O6 O 0.5057(2) 0.6058(6) 0.0188(5)
O7 O 0.6247(3) 0.8563(6) 0.5171(6)
O8 O 0.4908(2) -0.0243(6) 0.8034(5)
C1 C 0.6384(3) 0.7057(7) 0.4279(14)
H1 H 0.63820 0.71990 0.30620
C2 C 0.5130(3) 0.4772(8) 0.1366(7)
H2 H 0.47090 0.42990 0.19130
C3 C 0.7361(3) 0.0777(8) 0.1458(7)
H3 H 0.74770 -0.05910 0.13740
C4 C 0.5436(3) 0.0761(7) 0.8512(7)
H4 H 0.55350 0.07860 0.97110
N1 N 0.6799(2) 0.4704(7) 0.9278(9)
H5 H 0.72790 0.45250 0.93620
H6 H 0.66260 0.39560 0.83970
H7 H 0.65870 0.43290 1.02790
N2 N 0.6648(4) 0.6786(8) 0.8949(7)
H8 H 0.6223(14) 0.705(3) 0.952(4)
H9 H 0.658(2) 0.6895(8) 0.7767(10)
Dy1* Dy 0.60198(2) 1.20406(2) 0.44467(9)
Dy1A Dy 0.39802(2) -0.20406(2) 0.94467(9)
Dy1A* Dy 0.39802(2) 0.79594(2) -0.05533(9)
Dy1C Dy 0.89802(2) 0.20406(2) -0.05533(9)
O1C O 0.7192(2) 0.1950(6) 0.5839(7)
O6A O 0.4943(2) 0.3942(6) 0.5188(5)
O7* O 0.6247(3) -0.1437(6) 0.5171(6)
O8A O 0.5092(2) 0.0243(6) 0.3034(5)
#END
