
#######################################################################
#
#                 Cambridge Crystallographic Data Centre
#                                CCDC
#
#######################################################################
#
# If this CIF has been generated from an entry in the Cambridge
# Structural Database, then it will include bibliographic, chemical,
# crystal, experimental, refinement or atomic coordinate data resulting
# from the CCDC's data processing and validation procedures.
#
#######################################################################

data_CSD_CIF_FAHBOI01
_audit_creation_date 2016-12-09
_audit_creation_method CSD-ConQuest-V1
_database_code_CSD FAHBOI01
_database_code_depnum_ccdc_archive 'CCDC 1474528'
_chemical_formula_sum 'C4 H9 Dy1 N2 O8'
_chemical_formula_moiety
;
(C4 H4 Dy1 O8 1-)n,H5 N2 1+
;
_journal_coden_Cambridge 9
_journal_volume 55
_journal_year 2016
_journal_page_first 10075
_journal_name_full 'Inorg.Chem. '
loop_
_publ_author_name
"Tian-Meng Zhao"
"Sa Chen"
"Ran Shang"
"Bing-Wu Wang"
"Zhe-Ming Wang"
"Song Gao"
_chemical_name_systematic
;
catena-[hydrazinium tetrakis(\m-formato)-dysprosium]
;
_cell_volume    912.874
_exptl_crystal_colour 'colorless'
_exptl_crystal_density_diffrn 2.733
_exptl_crystal_description 'plate'
_diffrn_ambient_temperature 180
#These two values have been output from a single CSD field.
_refine_ls_R_factor_gt 0.0148
_refine_ls_wR_factor_gt 0.0148
_symmetry_cell_setting orthorhombic
_symmetry_space_group_name_H-M 'P c a 21'
_symmetry_Int_Tables_number 29
loop_
_symmetry_equiv_pos_site_id
_symmetry_equiv_pos_as_xyz
1 x,y,z
2 -x,-y,1/2+z
3 1/2+x,-y,z
4 1/2-x,y,1/2+z
_cell_length_a 18.2377(5)
_cell_length_b 6.5776(2)
_cell_length_c 7.6098(2)
_cell_angle_alpha 90
_cell_angle_beta 90
_cell_angle_gamma 90
_cell_formula_units_Z 4
loop_
_atom_type_symbol
_atom_type_radius_bond
C 0.68
H 0.23
Dy 1.92
N 0.68
O 0.68
loop_
_atom_site_label
_atom_site_type_symbol
_atom_site_fract_x
_atom_site_fract_y
_atom_site_fract_z
Dy1 Dy 0.397975(6) 0.798455(15) 0.26623(4)
O1 O 0.42774(13) 0.5932(3) 0.5199(3)
O2 O 0.49442(13) 0.3920(3) 0.6914(3)
O3 O 0.32329(14) 0.8870(4) 0.4951(3)
O4 O 0.22056(15) 0.8124(3) 0.6324(4)
O5 O 0.34592(12) 0.4711(3) 0.2209(3)
O6 O 0.37663(15) 0.1464(4) 0.1920(3)
O7 O 0.49187(13) 0.9761(4) 0.4092(3)
O8 O 0.58711(15) 1.1792(3) 0.4582(3)
C1 C 0.48757(18) 0.5212(5) 0.5729(4)
H1 H 0.53110 0.56910 0.51820
C2 C 0.2636(2) 0.9272(5) 0.5644(4)
H2 H 0.25000 1.06660 0.56400
C3 C 0.36053(18) 0.2964(4) 0.2817(9)
H3 H 0.35900 0.27950 0.40560
C4 C 0.54521(18) 1.0781(4) 0.3598(4)
H4 H 0.55530 1.08020 0.23730
N1 N 0.32084(13) 0.5328(4) 0.7788(6)
H5 H 0.33460 0.61140 0.87150
H6 H 0.27200 0.54900 0.75860
H7 H 0.34650 0.57080 0.68150
N2 N 0.3358(2) 0.3236(5) 0.8176(4)
H8 H 0.3810(13) 0.289(3) 0.775(6)
H9 H 0.335(3) 0.304(3) 0.9363(15)
Dy1* Dy 0.397975(6) -0.201545(15) 0.26623(4)
Dy1A Dy 0.602025(6) 0.201545(15) 0.76623(4)
Dy1A* Dy 0.602025(6) 1.201545(15) 0.76623(4)
Dy1C Dy 0.102025(6) 0.798455(15) 0.76623(4)
O2A O 0.50558(13) 0.6080(3) 0.1914(3)
O4C O 0.27944(15) 0.8124(3) 0.1324(4)
O6* O 0.37663(15) 1.1464(4) 0.1920(3)
O8A O 0.41289(15) 0.8208(3) -0.0418(3)
#END
