
#######################################################################
#
#                 Cambridge Crystallographic Data Centre
#                                CCDC
#
#######################################################################
#
# If this CIF has been generated from an entry in the Cambridge
# Structural Database, then it will include bibliographic, chemical,
# crystal, experimental, refinement or atomic coordinate data resulting
# from the CCDC's data processing and validation procedures.
#
#######################################################################

data_CSD_CIF_FAHFUR
_audit_creation_date 2012-02-24
_audit_creation_method CSD-ConQuest-V1
_database_code_CSD FAHFUR
_database_code_depnum_ccdc_archive 'CCDC 844452'
_chemical_formula_sum 'C11 H13 Be2 N1 O8'
_chemical_formula_moiety
;
(C9 H5 Be2 O8 1-)n,n(C2 H8 N1 1+)
;
_journal_coden_Cambridge 1350
_journal_volume 14
_journal_year 2012
_journal_page_first 95
_journal_name_full 'CrystEngComm '
loop_
_publ_author_name
"Maoping Kang"
"Daibing Luo"
"Xiuchao Luo"
"Ziyi Chen"
"Zhien Lin"
_chemical_name_systematic
;
catena-(dimethylammonium 
(\m~4~-benzene-1,3,5-tricarboxylato)-bis(\m~2~-hydroxo)-di-beryllium)
;
_cell_volume   3664.252
_exptl_crystal_colour 'colorless'
_exptl_crystal_density_diffrn 1.107
_exptl_crystal_description 'prism'
_diffrn_ambient_temperature 293
_refine_special_details
;
The SQUEEZE/PLATON program has been used to model the ammonium cation.

;
#These two values have been output from a single CSD field.
_refine_ls_R_factor_gt 0.0799
_refine_ls_wR_factor_gt 0.0799
_symmetry_cell_setting tetragonal
_symmetry_space_group_name_H-M 'P 42/m n m'
_symmetry_Int_Tables_number 136
loop_
_symmetry_equiv_pos_site_id
_symmetry_equiv_pos_as_xyz
1 x,y,z
2 -x,-y,z
3 1/2-y,1/2+x,1/2+z
4 1/2+y,1/2-x,1/2+z
5 1/2-x,1/2+y,1/2-z
6 1/2+x,1/2-y,1/2-z
7 y,x,-z
8 -y,-x,-z
9 -x,-y,-z
10 x,y,-z
11 -1/2+y,-1/2-x,-1/2-z
12 -1/2-y,-1/2+x,-1/2-z
13 -1/2+x,-1/2-y,-1/2+z
14 -1/2-x,-1/2+y,-1/2+z
15 -y,-x,z
16 y,x,z
_cell_length_a 18.9009(5)
_cell_length_b 18.9009(5)
_cell_length_c 10.2570(3)
_cell_angle_alpha 90
_cell_angle_beta 90
_cell_angle_gamma 90
_cell_formula_units_Z 8
loop_
_atom_type_symbol
_atom_type_radius_bond
C 0.68
H 0.23
Be 0.96
O 0.68
loop_
_atom_site_label
_atom_site_type_symbol
_atom_site_fract_x
_atom_site_fract_y
_atom_site_fract_z
Be1 Be 0.8175(3) 0.0706(3) 0.1312(4)
O1 O 0.8314(2) 0.02925(18) 0.00000
H1 H 0.84710 -0.01740 0.00000
O2 O 0.88325(11) 0.11675(11) 0.1726(3)
H2 H 0.90150 0.09850 0.24980
O3 O 0.79977(14) 0.02288(13) 0.2582(2)
O4 O 0.7377(3) -0.0576(3) 0.1549(3)
O5 O 0.62565(15) -0.25182(13) 0.3902(2)
C1 C 0.7597(3) -0.0319(3) 0.2552(4)
C2 C 0.6428(3) -0.2243(3) 0.50000
C3 C 0.6849(3) -0.1593(3) 0.50000
C4 C 0.7428(2) -0.0659(2) 0.3819(3)
C5 C 0.7039(2) -0.1271(2) 0.3840(4)
H3 H 0.69000 -0.14740 0.30550
C6 C 0.7614(3) -0.0350(3) 0.50000
H4 H 0.78680 0.00720 0.50000
Be1I Be 0.8175(3) 0.0706(3) 0.8688(4)
Be1I* Be 0.8175(3) 0.0706(3) -0.1312(4)
Be1N Be 0.9294(3) 0.1825(3) 0.1312(4)
Be1J Be 0.5706(3) -0.3175(3) 0.3688(4)
Be1C Be 0.5706(3) -0.3175(3) 0.6312(4)
O1* O 0.8314(2) 0.02925(18) 1.00000
H1* H 0.84710 -0.01740 1.00000
O2G O 0.88325(11) 0.11675(11) 0.8274(3)
H2G H 0.90150 0.09850 0.75020
O3I O 0.79977(14) 0.02288(13) 0.7418(2)
O4I O 0.7377(3) -0.0576(3) 0.8451(3)
O5I O 0.62565(15) -0.25182(13) 0.6098(2)
O5K O 0.75182(15) 0.12565(13) 0.1098(2)
O5B O 0.75182(15) 0.12565(13) 0.8902(2)
C1I C 0.7597(3) -0.0319(3) 0.7448(4)
C4I C 0.7428(2) -0.0659(2) 0.6181(3)
C5I C 0.7039(2) -0.1271(2) 0.6160(4)
H3I H 0.69000 -0.14740 0.69450
#END
