
#######################################################################
#
#                 Cambridge Crystallographic Data Centre
#                                CCDC
#
#######################################################################
#
# If this CIF has been generated from an entry in the Cambridge
# Structural Database, then it will include bibliographic, chemical,
# crystal, experimental, refinement or atomic coordinate data resulting
# from the CCDC's data processing and validation procedures.
#
#######################################################################

data_CSD_CIF_FAHQIQ
_audit_creation_date 2012-02-24
_audit_creation_method CSD-ConQuest-V1
_database_code_CSD FAHQIQ
_database_code_depnum_ccdc_archive 'CCDC 832525'
_chemical_formula_sum 'C30 H26 In1 N1 O9'
_chemical_formula_moiety
;
(C28 H16 In1 O8 1-)n,n(C2 H8 N1 1+),n(H2 O1)
;
_journal_coden_Cambridge 1350
_journal_volume 14
_journal_year 2012
_journal_page_first 193
_journal_name_full 'CrystEngComm '
loop_
_publ_author_name
"Guangpeng Zhou"
"Yulin Yang"
"Ruiqing Fan"
"Wenwu Cao"
"Bin Yang"
_chemical_name_systematic
;
catena-(dimethylammonium bis(\m~2~-biphenyl-4,4'-dicarboxylato)-indium 
monohydrate)
;
_cell_volume  37072.935
_exptl_crystal_colour 'colorless'
_exptl_crystal_density_diffrn 0.945
_exptl_crystal_description 'octahedral block'
_diffrn_ambient_temperature 294
_refine_special_details
;
C29,C30,N1 disordered by symmetry over two sites with occupancy 0.50; O1W and 
O3WA disordered over two sites with occupancies 0.50:0.50; O3W and O3WA 
disordered over two sites with occupancies 0.25:0.50.
;
#These two values have been output from a single CSD field.
_refine_ls_R_factor_gt 0.0696
_refine_ls_wR_factor_gt 0.0696
_symmetry_cell_setting orthorhombic
_symmetry_space_group_name_H-M 'F d d d'
_symmetry_Int_Tables_number 70
loop_
_symmetry_equiv_pos_site_id
_symmetry_equiv_pos_as_xyz
1 x,y,z
2 3/4-x,3/4-y,z
3 3/4-x,y,3/4-z
4 x,3/4-y,3/4-z
5 x,1/2+y,1/2+z
6 3/4-x,1/4-y,1/2+z
7 3/4-x,1/2+y,1/4-z
8 x,1/4-y,1/4-z
9 1/2+x,y,1/2+z
10 1/4-x,3/4-y,1/2+z
11 1/4-x,y,1/4-z
12 1/2+x,3/4-y,1/4-z
13 1/2+x,1/2+y,z
14 1/4-x,1/4-y,z
15 1/4-x,1/2+y,3/4-z
16 1/2+x,1/4-y,3/4-z
17 -x,-y,-z
18 -3/4+x,-3/4+y,-z
19 -3/4+x,-y,-3/4+z
20 -x,-3/4+y,-3/4+z
21 -x,-1/2-y,-1/2-z
22 -3/4+x,-1/4+y,-1/2-z
23 -3/4+x,-1/2-y,-1/4+z
24 -x,-1/4+y,-1/4+z
25 -1/2-x,-y,-1/2-z
26 -1/4+x,-3/4+y,-1/2-z
27 -1/4+x,-y,-1/4+z
28 -1/2-x,-3/4+y,-1/4+z
29 -1/2-x,-1/2-y,-z
30 -1/4+x,-1/4+y,-z
31 -1/4+x,-1/2-y,-3/4+z
32 -1/2-x,-1/4+y,-3/4+z
_cell_length_a 23.129(5)
_cell_length_b 39.470(8)
_cell_length_c 40.610(8)
_cell_angle_alpha 90
_cell_angle_beta 90
_cell_angle_gamma 90
_cell_formula_units_Z 32
loop_
_atom_type_symbol
_atom_type_radius_bond
C 0.68
H 0.23
In 1.42
N 0.68
O 0.68
loop_
_atom_site_label
_atom_site_type_symbol
_atom_site_fract_x
_atom_site_fract_y
_atom_site_fract_z
In1 In -0.12500 0.248659(8) 0.37500
In2 In -0.37500 -0.37500 0.387266(8)
O1 O -0.37597(14) -0.33511(7) 0.34804(7)
O2 O -0.29151(13) -0.35229(6) 0.36414(6)
O3 O -0.10289(15) -0.16403(7) 0.18099(7)
O4 O -0.18868(14) -0.15677(6) 0.16256(7)
O5 O -0.05246(15) 0.27871(7) 0.39685(7)
O6 O -0.13314(16) 0.28670(8) 0.41831(8)
O7 O 0.13825(13) 0.45873(7) 0.58373(7)
O8 O 0.05225(13) 0.47103(6) 0.60078(6)
C1 C -0.3288(2) -0.28681(11) 0.30564(12)
H1 H -0.36860 -0.28620 0.30910
C2 C -0.3036(3) -0.26481(11) 0.28359(13)
H2 H -0.32680 -0.24930 0.27260
C3 C -0.2449(2) -0.26509(10) 0.27726(11)
C4 C -0.2119(2) -0.28872(11) 0.29398(11)
H3 H -0.17240 -0.29030 0.29000
C5 C -0.2373(2) -0.30966(11) 0.31635(11)
H4 H -0.21390 -0.32470 0.32800
C6 C -0.2951(2) -0.30979(9) 0.32261(10)
C7 C -0.1409(2) -0.20779(12) 0.23157(12)
H5 H -0.10270 -0.20080 0.23310
C8 C -0.1647(2) -0.23007(11) 0.25446(12)
H6 H -0.14150 -0.23780 0.27160
C9 C -0.2210(2) -0.24119(9) 0.25296(11)
C10 C -0.2547(2) -0.22951(10) 0.22680(11)
H7 H -0.29260 -0.23700 0.22460
C11 C -0.2323(2) -0.20673(9) 0.20394(11)
H8 H -0.25570 -0.19860 0.18710
C12 C -0.1768(2) -0.19633(10) 0.2061(1)
C13 C -0.3214(2) -0.33404(9) 0.34654(10)
C14 C -0.1535(2) -0.17128(10) 0.18262(11)
C15 C 0.0017(2) 0.32227(14) 0.44189(14)
H9 H 0.02540 0.31240 0.42610
C16 C 0.0243(3) 0.34400(13) 0.46505(13)
H10 H 0.06420 0.34710 0.46490
C17 C -0.00650(18) 0.36133(9) 0.48809(10)
C18 C -0.0625(2) 0.35117(13) 0.48942(13)
H11 H -0.08600 0.36020 0.50580
C19 C -0.0863(3) 0.32807(13) 0.46772(12)
H12 H -0.12440 0.32110 0.47080
C20 C -0.0560(2) 0.31548(10) 0.44236(10)
C21 C 0.0939(2) 0.41897(12) 0.53203(12)
H13 H 0.13230 0.42580 0.53010
C22 C 0.0710(2) 0.39655(11) 0.50912(12)
H14 H 0.09390 0.38900 0.49180
C23 C 0.0152(2) 0.38545(10) 0.51183(10)
C24 C -0.0171(2) 0.39745(9) 0.53715(10)
H15 H -0.05490 0.38970 0.53950
C25 C 0.0044(2) 0.42116(10) 0.56013(10)
H16 H -0.01940 0.42970 0.57660
C26 C 0.0604(2) 0.43134(9) 0.55774(10)
C27 C -0.0821(2) 0.29217(9) 0.41779(10)
C28 C 0.0844(2) 0.45553(9) 0.58232(9)
N1? N 0.1970(5) 0.0092(3) 0.2490(2)
C29? C 0.2540(6) 0.0096(4) 0.2372(4)
C30? C 0.2000(8) -0.0038(3) 0.2826(3)
N2 N 0.4622(6) 0.1089(3) -0.0786(2)
H17 H 0.44260 0.08920 -0.07860
H18 H 0.49770 0.10500 -0.08670
C31 C 0.4317(7) 0.1338(3) -0.0996(3)
H19 H 0.43420 0.12680 -0.12220
H20 H 0.44940 0.15560 -0.09720
H21 H 0.39190 0.13510 -0.09320
C32 C 0.4669(8) 0.1215(4) -0.0450(3)
H22 H 0.48500 0.10460 -0.03150
H23 H 0.42910 0.12640 -0.03660
H24 H 0.48990 0.14170 -0.04490
O9 O 0.12500 0.12500 0.12500
O10 O 0.3195(7) -0.0055(4) 0.1251(3)
O11? O 0.3044(9) 0.0226(4) 0.1477(4)
In1Q In 0.12500 0.498659(8) 0.62500
In1Y In -0.37500 0.498659(8) 0.12500
In2V In -0.12500 -0.12500 0.137266(8)
In2W In -0.62500 -0.62500 0.137266(8)
O1M O -0.37403(14) -0.41489(7) 0.34804(7)
O2M O -0.45849(13) -0.39771(6) 0.36414(6)
O3M O -0.64711(15) -0.58597(7) 0.18099(7)
O3DA O -0.35289(15) -0.33597(7) 0.43099(7)
O3EA O -0.39711(15) -0.41403(7) 0.43099(7)
O4M O -0.56132(14) -0.59323(6) 0.16256(7)
O4DA O -0.43868(14) -0.34323(6) 0.41256(7)
O4EA O -0.31132(14) -0.40677(6) 0.41256(7)
O5B O -0.19754(15) 0.27871(7) 0.35315(7)
O6B O -0.11686(16) 0.28670(8) 0.33169(8)
O7B O -0.38825(13) 0.45873(7) 0.16627(7)
O7W O -0.13825(13) 0.20873(7) 0.33373(7)
O7CA O -0.11175(13) 0.20873(7) 0.41627(7)
O8B O -0.30225(13) 0.47103(6) 0.14922(6)
O8W O -0.05225(13) 0.22103(6) 0.35078(6)
O8CA O -0.19775(13) 0.22103(6) 0.39922(6)
C1M C -0.4212(2) -0.46319(11) 0.30564(12)
H1M H -0.38140 -0.46380 0.30910
C2M C -0.4464(3) -0.48519(11) 0.28359(13)
H2M H -0.42320 -0.50070 0.27260
C3M C -0.5051(2) -0.48491(10) 0.27726(11)
C4M C -0.5381(2) -0.46128(11) 0.29398(11)
H3M H -0.57760 -0.45970 0.29000
C5M C -0.5127(2) -0.44034(11) 0.31635(11)
H4M H -0.53610 -0.42530 0.32800
C6M C -0.4549(2) -0.44021(9) 0.32261(10)
C7M C -0.6091(2) -0.54221(12) 0.23157(12)
H5M H -0.64730 -0.54920 0.23310
C8M C -0.5853(2) -0.51993(11) 0.25446(12)
H6M H -0.60850 -0.51220 0.27160
C9M C -0.5290(2) -0.50881(9) 0.25296(11)
C10M C -0.4953(2) -0.52049(10) 0.22680(11)
H7M H -0.45740 -0.51300 0.22460
C11M C -0.5177(2) -0.54327(9) 0.20394(11)
H8M H -0.49430 -0.55140 0.18710
C12M C -0.5732(2) -0.55367(10) 0.2061(1)
C13M C -0.4286(2) -0.41596(9) 0.34654(10)
C14M C -0.5965(2) -0.57872(10) 0.18262(11)
C15B C -0.2517(2) 0.32227(14) 0.30811(14)
H9B H -0.27540 0.31240 0.32390
C16B C -0.2743(3) 0.34400(13) 0.28495(13)
H10B H -0.31420 0.34710 0.28510
C17B C -0.24350(18) 0.36133(9) 0.26191(10)
C18B C -0.1875(2) 0.35117(13) 0.26058(13)
H11B H -0.16400 0.36020 0.24420
C19B C -0.1637(3) 0.32807(13) 0.28228(12)
H12B H -0.12560 0.32110 0.27920
C20B C -0.1940(2) 0.31548(10) 0.30764(10)
C21B C -0.3439(2) 0.41897(12) 0.21797(12)
H13B H -0.38230 0.42580 0.21990
C22B C -0.3210(2) 0.39655(11) 0.24088(12)
H14B H -0.34390 0.38900 0.25820
C23B C -0.2652(2) 0.38545(10) 0.23817(10)
C24B C -0.2329(2) 0.39745(9) 0.21285(10)
H15B H -0.19510 0.38970 0.21050
C25B C -0.2544(2) 0.42116(10) 0.18987(10)
H16B H -0.23060 0.42970 0.17340
C26B C -0.3104(2) 0.43134(9) 0.19226(10)
C27B C -0.1679(2) 0.29217(9) 0.33221(10)
C28B C -0.3344(2) 0.45553(9) 0.16768(9)
#END
