
#######################################################################
#
#                 Cambridge Crystallographic Data Centre
#                                CCDC
#
#######################################################################
#
# If this CIF has been generated from an entry in the Cambridge
# Structural Database, then it will include bibliographic, chemical,
# crystal, experimental, refinement or atomic coordinate data resulting
# from the CCDC's data processing and validation procedures.
#
#######################################################################

data_CSD_CIF_FAKLOU
_audit_creation_date 2012-03-05
_audit_creation_method CSD-ConQuest-V1
_database_code_CSD FAKLOU
_database_code_depnum_ccdc_archive 'CCDC 842124'
_chemical_formula_sum 'C88 H80 Cd6 N24 O12 S8'
_chemical_formula_moiety
;
(C72 H24 Cd4 N24 4-)n,2n(C8 H28 Cd1 O6 S4 2+)
;
_journal_coden_Cambridge 1350
_journal_volume 14
_journal_year 2012
_journal_page_first 351
_journal_name_full 'CrystEngComm '
loop_
_publ_author_name
"B.F.Abrahams"
"R.W.Elliott"
"T.A.Hudson"
"R.Robson"
_chemical_name_systematic
;
catena-(bis(tetrakis(dimethyl sulfoxide)-di-aqua-cadmium(ii)) 
hexakis(\m~4~-tetracyanoquinodimethane)-tetra-cadmium(ii))
;
_cell_volume   1580.780
_exptl_crystal_colour 'pale yellow'
_exptl_crystal_description 'hexagonal rod'
_diffrn_ambient_temperature 130
_refine_special_details
;
The disordered molecules were not modelled and the disordered density was 
taken into account using the SQUEEZE/PLATON procedure.
;
#These two values have been output from a single CSD field.
_refine_ls_R_factor_gt 0.039
_refine_ls_wR_factor_gt 0.039
_symmetry_cell_setting hexagonal
_symmetry_space_group_name_H-M 'P -3 1 m'
_symmetry_Int_Tables_number 162
loop_
_symmetry_equiv_pos_site_id
_symmetry_equiv_pos_as_xyz
1 x,y,z
2 -y,x-y,z
3 -y,-x,-z
4 -x+y,-x,z
5 x,x-y,-z
6 -x+y,y,-z
7 -x,-y,-z
8 y,-x+y,-z
9 y,x,z
10 x-y,x,-z
11 -x,-x+y,z
12 x-y,-y,z
_cell_length_a 12.9515(4)
_cell_length_b 12.9515(4)
_cell_length_c 10.8818(2)
_cell_angle_alpha 90
_cell_angle_beta 90
_cell_angle_gamma 120
_cell_formula_units_Z 1
loop_
_atom_type_symbol
_atom_type_radius_bond
C 0.68
H 0.23
Cd 1.44
N 0.68
loop_
_atom_site_label
_atom_site_type_symbol
_atom_site_fract_x
_atom_site_fract_y
_atom_site_fract_z
Cd1 Cd 0.00000 0.00000 0.50000
Cd2 Cd 0.33330 0.66670 0.50000
N1 N 0.4820(4) 0.6740(4) 0.3758(3)
C1 C 0.5581(4) 0.5581(4) 0.2564(3)
C2 C 0.5287(4) 0.5287(4) 0.1258(3)
C3 C 0.4614(4) 0.5663(4) 0.0615(3)
H1 H 0.43340 0.61230 0.10270
C4 C 0.5156(4) 0.6217(4) 0.3220(3)
Cd3? Cd 0.00000 0.00000 0.3955(10)
Cd2* Cd 0.33330 0.66670 -0.50000
Cd2F Cd 0.66670 0.33330 -0.50000
Cd2F* Cd 0.66670 0.33330 0.50000
Cd2G Cd 0.66670 1.33340 -0.50000
Cd2G* Cd 0.66670 1.33340 0.50000
Cd2** Cd 0.33330 0.66670 1.50000
Cd2F** Cd 0.66670 0.33330 1.50000
Cd2I Cd -0.33340 0.33330 -0.50000
Cd2I* Cd -0.33340 0.33330 0.50000
Cd2G** Cd 0.66670 1.33340 1.50000
Cd2I** Cd -0.33340 0.33330 1.50000
N1B N 0.3260(4) 0.5180(4) -0.3758(3)
N1F N 0.5180(4) 0.3260(4) -0.3758(3)
N1H N 0.6740(4) 0.4820(4) 0.3758(3)
N1A N 0.3260(4) 0.8080(4) 0.3758(3)
N1D N 0.4820(4) 0.8080(4) -0.3758(3)
N1G N 0.6740(4) 1.1920(4) -0.3758(3)
N1J N 0.5180(4) 1.1920(4) 0.3758(3)
N1B* N 0.3260(4) 0.5180(4) 0.6242(3)
N1* N 0.4820(4) 0.6740(4) 1.3758(3)
N1H* N 0.6740(4) 0.4820(4) 1.3758(3)
N1F* N 0.5180(4) 0.3260(4) 0.6242(3)
N1C N 0.1920(4) 0.5180(4) 0.3758(3)
N1E N 0.1920(4) 0.6740(4) -0.3758(3)
N1I N -0.1920(4) 0.4820(4) -0.3758(3)
N1K N -0.1920(4) 0.3260(4) 0.3758(3)
N1D* N 0.4820(4) 0.8080(4) 0.6242(3)
N1A* N 0.3260(4) 0.8080(4) 1.3758(3)
N1J* N 0.5180(4) 1.1920(4) 1.3758(3)
N1G* N 0.6740(4) 1.1920(4) 0.6242(3)
N1E* N 0.1920(4) 0.6740(4) 0.6242(3)
N1C* N 0.1920(4) 0.5180(4) 1.3758(3)
N1K* N -0.1920(4) 0.3260(4) 1.3758(3)
N1I* N -0.1920(4) 0.4820(4) 0.6242(3)
N1** N 0.4820(4) 0.6740(4) -0.6242(3)
N1C** N 0.1920(4) 0.5180(4) -0.6242(3)
N1A** N 0.3260(4) 0.8080(4) -0.6242(3)
N1G** N 0.6740(4) 0.1920(4) -0.3758(3)
N1H** N 0.6740(4) 0.4820(4) -0.6242(3)
N1I** N 0.8080(4) 0.4820(4) -0.3758(3)
N1J** N 0.5180(4) 0.1920(4) -0.6242(3)
N1K** N 0.8080(4) 0.3260(4) -0.6242(3)
N1K*** N 0.8080(4) 0.3260(4) 0.3758(3)
N1J*** N 0.5180(4) 0.1920(4) 0.3758(3)
N1I*** N 0.8080(4) 0.4820(4) 0.6242(3)
N1G*** N 0.6740(4) 0.1920(4) 0.6242(3)
C1B C 0.4419(4) 0.4419(4) -0.2564(3)
C1A C 0.4419(4) 1.0000(4) 0.2564(3)
C1D C 0.5581(4) 1.0000(4) -0.2564(3)
C1B* C 0.4419(4) 0.4419(4) 0.7436(3)
C1* C 0.5581(4) 0.5581(4) 1.2564(3)
C1C C 0.0000(4) 0.4419(4) 0.2564(3)
C1E C 0.0000(4) 0.5581(4) -0.2564(3)
C1D* C 0.5581(4) 1.0000(4) 0.7436(3)
C1A* C 0.4419(4) 1.0000(4) 1.2564(3)
C1E* C 0.0000(4) 0.5581(4) 0.7436(3)
C1C* C 0.0000(4) 0.4419(4) 1.2564(3)
C2B C 0.4713(4) 0.4713(4) -0.1258(3)
C2A C 0.4713(4) 1.0000(4) 0.1258(3)
C2D C 0.5287(4) 1.0000(4) -0.1258(3)
C2B* C 0.4713(4) 0.4713(4) 0.8742(3)
C2* C 0.5287(4) 0.5287(4) 1.1258(3)
C2C C 0.0000(4) 0.4713(4) 0.1258(3)
C2E C 0.0000(4) 0.5287(4) -0.1258(3)
C2D* C 0.5287(4) 1.0000(4) 0.8742(3)
C2A* C 0.4713(4) 1.0000(4) 1.1258(3)
C2E* C 0.0000(4) 0.5287(4) 0.8742(3)
C2C* C 0.0000(4) 0.4713(4) 1.1258(3)
C3B C 0.4337(4) 0.5386(4) -0.0615(3)
C3F C 0.5386(4) 0.4337(4) -0.0615(3)
C3H C 0.5663(4) 0.4614(4) 0.0615(3)
C3A C 0.4337(4) 0.8951(4) 0.0615(3)
C3D C 0.4614(4) 0.8951(4) -0.0615(3)
C3G C 0.5663(4) 1.1049(4) -0.0615(3)
C3J C 0.5386(4) 1.1049(4) 0.0615(3)
C3B* C 0.4337(4) 0.5386(4) 0.9385(3)
C3* C 0.4614(4) 0.5663(4) 1.0615(3)
C3H* C 0.5663(4) 0.4614(4) 1.0615(3)
C3F* C 0.5386(4) 0.4337(4) 0.9385(3)
C3C C 0.1049(4) 0.5386(4) 0.0615(3)
C3E C 0.1049(4) 0.5663(4) -0.0615(3)
C3I C -0.1049(4) 0.4614(4) -0.0615(3)
C3K C -0.1049(4) 0.4337(4) 0.0615(3)
C3D* C 0.4614(4) 0.8951(4) 0.9385(3)
C3A* C 0.4337(4) 0.8951(4) 1.0615(3)
C3J* C 0.5386(4) 1.1049(4) 1.0615(3)
C3G* C 0.5663(4) 1.1049(4) 0.9385(3)
C3E* C 0.1049(4) 0.5663(4) 0.9385(3)
C3C* C 0.1049(4) 0.5386(4) 1.0615(3)
C3K* C -0.1049(4) 0.4337(4) 1.0615(3)
C3I* C -0.1049(4) 0.4614(4) 0.9385(3)
H1H H 0.61230 0.43340 0.10270
H1F H 0.56660 0.38770 -0.10270
H1B H 0.38770 0.56660 -0.10270
H1A H 0.38770 0.82110 0.10270
H1J H 0.56660 1.17890 0.10270
H1G H 0.61230 1.17890 -0.10270
H1D H 0.43340 0.82110 -0.10270
H1B* H 0.38770 0.56660 0.89730
H1F* H 0.56660 0.38770 0.89730
H1H* H 0.61230 0.43340 1.10270
H1* H 0.43340 0.61230 1.10270
H1C H 0.17890 0.56660 0.10270
H1K H -0.17890 0.38770 0.10270
H1I H -0.17890 0.43340 -0.10270
H1E H 0.17890 0.61230 -0.10270
H1D* H 0.43340 0.82110 0.89730
H1G* H 0.61230 1.17890 0.89730
H1J* H 0.56660 1.17890 1.10270
H1A* H 0.38770 0.82110 1.10270
H1E* H 0.17890 0.61230 0.89730
H1I* H -0.17890 0.43340 0.89730
H1K* H -0.17890 0.38770 1.10270
H1C* H 0.17890 0.56660 1.10270
C4B C 0.3783(4) 0.4844(4) -0.3220(3)
C4F C 0.4844(4) 0.3783(4) -0.3220(3)
C4H C 0.6217(4) 0.5156(4) 0.3220(3)
C4A C 0.3783(4) 0.8939(4) 0.3220(3)
C4D C 0.5156(4) 0.8939(4) -0.3220(3)
C4G C 0.6217(4) 1.1061(4) -0.3220(3)
C4J C 0.4844(4) 1.1061(4) 0.3220(3)
C4B* C 0.3783(4) 0.4844(4) 0.6780(3)
C4* C 0.5156(4) 0.6217(4) 1.3220(3)
C4H* C 0.6217(4) 0.5156(4) 1.3220(3)
C4F* C 0.4844(4) 0.3783(4) 0.6780(3)
C4C C 0.1061(4) 0.4844(4) 0.3220(3)
C4E C 0.1061(4) 0.6217(4) -0.3220(3)
C4I C -0.1061(4) 0.5156(4) -0.3220(3)
C4K C -0.1061(4) 0.3783(4) 0.3220(3)
C4D* C 0.5156(4) 0.8939(4) 0.6780(3)
C4A* C 0.3783(4) 0.8939(4) 1.3220(3)
C4J* C 0.4844(4) 1.1061(4) 1.3220(3)
C4G* C 0.6217(4) 1.1061(4) 0.6780(3)
C4E* C 0.1061(4) 0.6217(4) 0.6780(3)
C4C* C 0.1061(4) 0.4844(4) 1.3220(3)
C4K* C -0.1061(4) 0.3783(4) 1.3220(3)
C4I* C -0.1061(4) 0.5156(4) 0.6780(3)
#END
