
#######################################################################
#
#                 Cambridge Crystallographic Data Centre
#                                CCDC
#
#######################################################################
#
# If this CIF has been generated from an entry in the Cambridge
# Structural Database, then it will include bibliographic, chemical,
# crystal, experimental, refinement or atomic coordinate data resulting
# from the CCDC's data processing and validation procedures.
#
#######################################################################

data_CSD_CIF_FAKLIO
_audit_creation_date 2012-03-05
_audit_creation_method CSD-ConQuest-V1
_database_code_CSD FAKLIO
_database_code_depnum_ccdc_archive 'CCDC 842123'
_chemical_formula_sum 'C88 H80 Mn6 N24 O12 S8'
_chemical_formula_moiety
;
(C72 H24 Mn4 N24 4-)n,2n(C8 H28 Mn1 O6 S4 2+)
;
_journal_coden_Cambridge 1350
_journal_volume 14
_journal_year 2012
_journal_page_first 351
_journal_name_full 'CrystEngComm '
loop_
_publ_author_name
"B.F.Abrahams"
"R.W.Elliott"
"T.A.Hudson"
"R.Robson"
_chemical_name_systematic
;
catena-(bis(tetrakis(dimethyl sulfoxide)-di-aqua-manganese(ii)) 
hexakis(\m~4~-tetracyanoquinodimethane)-tetra-manganese(ii))
;
_cell_volume   1592.319
_exptl_crystal_colour 'pale green'
_exptl_crystal_description 'hexagonal prism'
_diffrn_ambient_temperature 130
_refine_special_details
;
The disordered molecules were not modelled and the disordered density was 
taken into account using the SQUEEZE/PLATON procedure.
;
#These two values have been output from a single CSD field.
_refine_ls_R_factor_gt 0.0821
_refine_ls_wR_factor_gt 0.0821
_symmetry_cell_setting hexagonal
_symmetry_space_group_name_H-M 'P -3 1 m'
_symmetry_Int_Tables_number 162
loop_
_symmetry_equiv_pos_site_id
_symmetry_equiv_pos_as_xyz
1 x,y,z
2 -y,x-y,z
3 -x+y,-x,z
4 -y,-x,-z
5 x,x-y,-z
6 -x+y,y,-z
7 -x,-y,-z
8 y,-x+y,-z
9 x-y,x,-z
10 y,x,z
11 -x,-x+y,z
12 x-y,-y,z
_cell_length_a 13.0158(9)
_cell_length_b 13.0158(9)
_cell_length_c 10.8532(4)
_cell_angle_alpha 90
_cell_angle_beta 90
_cell_angle_gamma 120
_cell_formula_units_Z 1
loop_
_atom_type_symbol
_atom_type_radius_bond
C 0.68
H 0.23
Mn 1.61
N 0.68
loop_
_atom_site_label
_atom_site_type_symbol
_atom_site_fract_x
_atom_site_fract_y
_atom_site_fract_z
Mn1 Mn 0.00000 0.00000 0.00000
Mn2 Mn 0.66670 0.33330 0.00000
N1 N 0.5324(4) 0.3394(4) 0.1200(3)
C1 C 0.4965(5) 0.3915(5) 0.1742(3)
C2 C 0.4540(6) 0.4540(6) 0.2395(5)
C3 C 0.4777(6) 0.4777(6) 0.3736(5)
C4 C 0.4350(5) 0.5420(5) 0.4377(4)
H1 H 0.39000 0.57020 0.39540
Mn3? Mn 0.00000 0.00000 0.2013(10)
Mn2F Mn 0.33330 0.66670 0.00000
Mn2* Mn 0.66670 0.33330 1.00000
Mn2F* Mn 0.33330 0.66670 1.00000
Mn2G Mn 0.33330 -0.33340 0.00000
Mn2G* Mn 0.33330 -0.33340 1.00000
Mn2H Mn 1.33340 0.66670 0.00000
Mn2H* Mn 1.33340 0.66670 1.00000
Mn2** Mn 0.66670 0.33330 -1.00000
Mn2F** Mn 0.33330 0.66670 -1.00000
Mn2G** Mn 0.33330 -0.33340 -1.00000
Mn2H** Mn 1.33340 0.66670 -1.00000
N1I N 0.3394(4) 0.5324(4) 0.1200(3)
N1C N 0.6606(4) 0.4676(4) 0.8800(3)
N1F N 0.4676(4) 0.6606(4) 0.8800(3)
N1A N 0.6606(4) 0.1930(4) 0.1200(3)
N1J N 0.4676(4) -0.1930(4) 0.1200(3)
N1D N 0.5324(4) 0.1930(4) 0.8800(3)
N1G N 0.3394(4) -0.1930(4) 0.8800(3)
N1B N 0.8070(4) 0.4676(4) 0.1200(3)
N1K N 1.1930(4) 0.6606(4) 0.1200(3)
N1E N 0.8070(4) 0.3394(4) 0.8800(3)
N1H N 1.1930(4) 0.5324(4) 0.8800(3)
N1C* N 0.6606(4) 0.4676(4) -0.1200(3)
N1F* N 0.4676(4) 0.6606(4) -0.1200(3)
N1* N 0.5324(4) 0.3394(4) -0.8800(3)
N1I* N 0.3394(4) 0.5324(4) -0.8800(3)
N1D* N 0.5324(4) 0.1930(4) -0.1200(3)
N1G* N 0.3394(4) -0.1930(4) -0.1200(3)
N1A* N 0.6606(4) 0.1930(4) -0.8800(3)
N1J* N 0.4676(4) -0.1930(4) -0.8800(3)
N1E* N 0.8070(4) 0.3394(4) -0.1200(3)
N1H* N 1.1930(4) 0.5324(4) -0.1200(3)
N1B* N 0.8070(4) 0.4676(4) -0.8800(3)
N1K* N 1.1930(4) 0.6606(4) -0.8800(3)
N1K** N 0.1930(4) 0.6606(4) 0.1200(3)
N1J** N 0.4676(4) 0.8070(4) 0.1200(3)
N1H** N 0.1930(4) 0.5324(4) -0.1200(3)
N1G** N 0.3394(4) 0.8070(4) -0.1200(3)
N1** N 0.5324(4) 0.3394(4) 1.1200(3)
N1B** N 0.8070(4) 0.4676(4) 1.1200(3)
N1A** N 0.6606(4) 0.1930(4) 1.1200(3)
N1G*** N 0.3394(4) 0.8070(4) 0.8800(3)
N1H*** N 0.1930(4) 0.5324(4) 0.8800(3)
N1I** N 0.3394(4) 0.5324(4) 1.1200(3)
N1J*** N 0.4676(4) 0.8070(4) 1.1200(3)
N1K*** N 0.1930(4) 0.6606(4) 1.1200(3)
C1I C 0.3915(5) 0.4965(5) 0.1742(3)
C1C C 0.6085(5) 0.5035(5) 0.8258(3)
C1F C 0.5035(5) 0.6085(5) 0.8258(3)
C1A C 0.6085(5) 0.1050(5) 0.1742(3)
C1J C 0.5035(5) -0.1050(5) 0.1742(3)
C1D C 0.4965(5) 0.1050(5) 0.8258(3)
C1G C 0.3915(5) -0.1050(5) 0.8258(3)
C1B C 0.8950(5) 0.5035(5) 0.1742(3)
C1K C 1.1050(5) 0.6085(5) 0.1742(3)
C1E C 0.8950(5) 0.3915(5) 0.8258(3)
C1H C 1.1050(5) 0.4965(5) 0.8258(3)
C1C* C 0.6085(5) 0.5035(5) -0.1742(3)
C1F* C 0.5035(5) 0.6085(5) -0.1742(3)
C1* C 0.4965(5) 0.3915(5) -0.8258(3)
C1I* C 0.3915(5) 0.4965(5) -0.8258(3)
C1D* C 0.4965(5) 0.1050(5) -0.1742(3)
C1G* C 0.3915(5) -0.1050(5) -0.1742(3)
C1A* C 0.6085(5) 0.1050(5) -0.8258(3)
C1J* C 0.5035(5) -0.1050(5) -0.8258(3)
C1E* C 0.8950(5) 0.3915(5) -0.1742(3)
C1H* C 1.1050(5) 0.4965(5) -0.1742(3)
C1B* C 0.8950(5) 0.5035(5) -0.8258(3)
C1K* C 1.1050(5) 0.6085(5) -0.8258(3)
C2C C 0.5460(6) 0.5460(6) 0.7605(5)
C2A C 0.5460(6) 0.0000(6) 0.2395(5)
C2D C 0.4540(6) 0.0000(6) 0.7605(5)
C2B C 1.0000(6) 0.5460(6) 0.2395(5)
C2E C 1.0000(6) 0.4540(6) 0.7605(5)
C2C* C 0.5460(6) 0.5460(6) -0.2395(5)
C2* C 0.4540(6) 0.4540(6) -0.7605(5)
C2D* C 0.4540(6) 0.0000(6) -0.2395(5)
C2A* C 0.5460(6) 0.0000(6) -0.7605(5)
C2E* C 1.0000(6) 0.4540(6) -0.2395(5)
C2B* C 1.0000(6) 0.5460(6) -0.7605(5)
C3C C 0.5223(6) 0.5223(6) 0.6264(5)
C3A C 0.5223(6) 0.0000(6) 0.3736(5)
C3D C 0.4777(6) 0.0000(6) 0.6264(5)
C3B C 1.0000(6) 0.5223(6) 0.3736(5)
C3E C 1.0000(6) 0.4777(6) 0.6264(5)
C3C* C 0.5223(6) 0.5223(6) -0.3736(5)
C3* C 0.4777(6) 0.4777(6) -0.6264(5)
C3D* C 0.4777(6) 0.0000(6) -0.3736(5)
C3A* C 0.5223(6) 0.0000(6) -0.6264(5)
C3E* C 1.0000(6) 0.4777(6) -0.3736(5)
C3B* C 1.0000(6) 0.5223(6) -0.6264(5)
C4C C 0.4580(5) 0.5650(5) 0.5623(4)
C4F C 0.5650(5) 0.4580(5) 0.5623(4)
C4I C 0.5420(5) 0.4350(5) 0.4377(4)
C4A C 0.4580(5) -0.1070(5) 0.4377(4)
C4D C 0.4350(5) -0.1070(5) 0.5623(4)
C4G C 0.5420(5) 0.1070(5) 0.5623(4)
C4J C 0.5650(5) 0.1070(5) 0.4377(4)
C4B C 1.1070(5) 0.5650(5) 0.4377(4)
C4E C 1.1070(5) 0.5420(5) 0.5623(4)
C4H C 0.8930(5) 0.4350(5) 0.5623(4)
C4K C 0.8930(5) 0.4580(5) 0.4377(4)
C4C* C 0.4580(5) 0.5650(5) -0.4377(4)
C4* C 0.4350(5) 0.5420(5) -0.5623(4)
C4I* C 0.5420(5) 0.4350(5) -0.5623(4)
C4F* C 0.5650(5) 0.4580(5) -0.4377(4)
C4D* C 0.4350(5) -0.1070(5) -0.4377(4)
C4A* C 0.4580(5) -0.1070(5) -0.5623(4)
C4J* C 0.5650(5) 0.1070(5) -0.5623(4)
C4G* C 0.5420(5) 0.1070(5) -0.4377(4)
C4E* C 1.1070(5) 0.5420(5) -0.4377(4)
C4B* C 1.1070(5) 0.5650(5) -0.5623(4)
C4K* C 0.8930(5) 0.4580(5) -0.5623(4)
C4H* C 0.8930(5) 0.4350(5) -0.4377(4)
H1I H 0.57020 0.39000 0.39540
H1F H 0.61000 0.42980 0.60460
H1C H 0.42980 0.61000 0.60460
H1A H 0.42980 -0.18020 0.39540
H1J H 0.61000 0.18020 0.39540
H1G H 0.57020 0.18020 0.60460
H1D H 0.39000 -0.18020 0.60460
H1B H 1.18020 0.61000 0.39540
H1K H 0.81980 0.42980 0.39540
H1H H 0.81980 0.39000 0.60460
H1E H 1.18020 0.57020 0.60460
H1C* H 0.42980 0.61000 -0.39540
H1F* H 0.61000 0.42980 -0.39540
H1I* H 0.57020 0.39000 -0.60460
H1* H 0.39000 0.57020 -0.60460
H1D* H 0.39000 -0.18020 -0.39540
H1G* H 0.57020 0.18020 -0.39540
H1J* H 0.61000 0.18020 -0.60460
H1A* H 0.42980 -0.18020 -0.60460
H1E* H 1.18020 0.57020 -0.39540
H1H* H 0.81980 0.39000 -0.39540
H1K* H 0.81980 0.42980 -0.60460
H1B* H 1.18020 0.61000 -0.60460
#END
