
#######################################################################
#
#                 Cambridge Crystallographic Data Centre
#                                CCDC
#
#######################################################################
#
# If this CIF has been generated from an entry in the Cambridge
# Structural Database, then it will include bibliographic, chemical,
# crystal, experimental, refinement or atomic coordinate data resulting
# from the CCDC's data processing and validation procedures.
#
#######################################################################

data_CSD_CIF_FAKWUN
_audit_creation_date 2020-12-03
_audit_creation_method CSD-ConQuest-V1
_database_code_CSD FAKWUN
_database_code_depnum_ccdc_archive 'CCDC 2024508'
_chemical_formula_sum 'C80 H92 Cd4 N26 O29'
_chemical_formula_moiety
;
(C60 H30 Cd4 N18 O24 4-)n,4n(C3 H7 N1 O1),4n(C2 H8 N1 1+),n(H2 O1)
;
_journal_coden_Cambridge 1147
_journal_volume 21
_journal_year 2020
_journal_page_first 383
_journal_name_full 'Cryst.Growth Des. '
loop_
_publ_author_name
"Jing-xin Ma"
"Tong Zhou"
"Tingting Ma"
"Zhihua Yang"
"Jin-Hui Yang"
"Qi Guo"
"Wei Liu"
"Qingfeng Yang"
"Weisheng Liu"
"Tianlin Yang"
_chemical_name_systematic
;
catena-(tetrakis(dimethylammonium) 
hexakis(\m-4-carboxy-5-carboxylato-2-(2-pyridyl)imidazolato)-tetra-cadmium 
dimethylformamide solvate monohydrate)
;
_cell_volume   9371.365
_exptl_crystal_colour 'colorless'
_exptl_crystal_density_diffrn 1.652
_exptl_crystal_description 'block'
_diffrn_ambient_temperature 100
_diffrn_special_details
;
twin

;
#These two values have been output from a single CSD field.
_refine_ls_R_factor_gt 0.0705
_refine_ls_wR_factor_gt 0.0705
_symmetry_cell_setting monoclinic
_symmetry_space_group_name_H-M 'P 21/c'
_symmetry_Int_Tables_number 14
loop_
_symmetry_equiv_pos_site_id
_symmetry_equiv_pos_as_xyz
1 x,y,z
2 -x,1/2+y,1/2-z
3 -x,-y,-z
4 x,-1/2-y,-1/2+z
_cell_length_a 18.893(2)
_cell_length_b 23.639(3)
_cell_length_c 21.018(2)
_cell_angle_alpha 90
_cell_angle_beta 93.295(2)
_cell_angle_gamma 90
_cell_formula_units_Z 4
loop_
_atom_type_symbol
_atom_type_radius_bond
C 0.68
H 0.23
Cd 1.44
N 0.68
O 0.68
loop_
_atom_site_label
_atom_site_type_symbol
_atom_site_fract_x
_atom_site_fract_y
_atom_site_fract_z
Cd1 Cd 1.07464(3) 0.46076(3) 0.31431(3)
Cd2 Cd 0.89256(3) 0.69830(3) 0.29210(3)
Cd3 Cd 0.57423(3) 0.78239(3) 0.17811(3)
Cd4 Cd 0.39039(3) 0.55331(3) 0.23330(3)
O1 O 1.0137(4) 0.4721(2) 0.1698(3)
O2 O 0.9913(4) 0.4122(3) 0.0889(3)
O3 O 1.0393(4) 0.2331(3) 0.1165(3)
O4 O 1.0054(4) 0.3114(3) 0.0660(3)
H1 H 1.00580 0.34643 0.07271
O5 O 0.8034(3) 0.6282(3) 0.3858(3)
O6 O 0.8084(4) 0.5431(3) 0.4286(3)
H2 H 0.82490 0.51153 0.41867
O7 O 0.9760(3) 0.4267(3) 0.3668(3)
O8 O 0.8812(3) 0.4551(3) 0.4158(3)
O9 O 0.6021(3) 0.7273(3) 0.0876(3)
O10 O 0.2810(4) 0.6235(3) 0.1376(4)
O11 O 0.2891(4) 0.7014(3) 0.0792(4)
H3 H 0.31522 0.73023 0.07945
O12 O 0.4793(3) 0.8061(3) 0.1074(3)
O13 O 0.3797(4) 0.7739(3) 0.0603(3)
O14 O 0.4679(4) 0.8464(3) 0.3779(3)
H4 H 0.46312 0.88169 0.37755
O15 O 0.1099(3) 0.5060(3) 0.4113(3)
O16 O 0.5069(4) 0.7825(3) 0.3116(3)
O17 O 0.1878(3) 0.5637(3) 0.4590(3)
O18 O 0.3018(4) 0.6079(3) 0.4401(3)
H5 H 0.26225 0.59329 0.44626
O19 O 0.3758(3) 0.6126(3) 0.3616(3)
O20 O 0.5386(4) 1.0224(3) 0.3502(3)
O21 O 0.4831(4) 0.9502(3) 0.3932(3)
O22 O 0.6736(3) 0.6607(3) 0.0545(3)
H6 H 0.71321 0.64660 0.06574
O23 O 0.7924(3) 0.6244(3) 0.0824(3)
O24 O 0.8736(3) 0.6314(3) 0.1633(3)
N1 N 1.0616(4) 0.3852(3) 0.2495(3)
N2 N 1.0696(4) 0.2917(3) 0.2301(3)
N3 N 1.1221(4) 0.3762(3) 0.3702(3)
N4 N 0.9897(4) 0.5316(3) 0.3097(3)
N5 N 0.9224(4) 0.6096(3) 0.3171(3)
N6 N 0.7908(4) 0.7033(3) 0.2295(3)
N7 N 0.6838(4) 0.7410(3) 0.2019(3)
N8 N 0.4894(4) 0.7130(3) 0.1881(3)
N9 N 0.4132(4) 0.6421(3) 0.1999(4)
N10 N 0.2905(4) 0.5441(3) 0.2839(3)
N11 N 0.1861(4) 0.5027(3) 0.3012(3)
N12 N 0.3000(4) 0.5004(3) 0.1659(3)
N13 N 0.5033(4) 0.5828(3) 0.2815(4)
N14 N 0.5580(4) 0.8628(3) 0.2322(3)
N15 N 0.5681(4) 0.9576(3) 0.2435(3)
N16 N 0.6302(4) 0.8616(3) 0.1224(4)
N17 N 0.8007(4) 0.7525(3) 0.3454(3)
N18 N 1.0058(4) 0.6736(3) 0.2437(4)
C1 C 1.0129(5) 0.4232(4) 0.1467(4)
C2 C 1.0377(4) 0.3753(3) 0.1885(4)
C3 C 1.0797(4) 0.3340(3) 0.2726(4)
C4 C 1.0433(5) 0.3177(3) 0.1754(4)
C5 C 1.0284(5) 0.2850(4) 0.1177(4)
C6 C 1.1058(4) 0.3273(4) 0.3394(4)
C7 C 1.1452(5) 0.3732(4) 0.4317(4)
H7 H 1.15670 0.40742 0.45366
C8 C 1.1532(5) 0.3226(4) 0.4648(4)
H8 H 1.17096 0.32200 0.50804
C9 C 1.1347(5) 0.2732(4) 0.4332(5)
H9 H 1.13848 0.23791 0.45477
C10 C 1.1104(5) 0.2756(4) 0.3694(4)
H10 H 1.09719 0.24199 0.34693
C11 C 0.9779(4) 0.5855(3) 0.2919(4)
C12 C 0.8952(4) 0.5688(4) 0.3546(4)
C13 C 0.8322(5) 0.5823(4) 0.3910(4)
C14 C 0.9370(4) 0.5206(3) 0.3504(4)
C15 C 0.9322(5) 0.4637(4) 0.3801(4)
C16 C 0.7376(5) 0.7370(4) 0.2456(4)
C17 C 0.7041(5) 0.7064(3) 0.1534(4)
C18 C 0.6569(5) 0.6988(4) 0.0958(4)
C19 C 0.4750(5) 0.6645(3) 0.2187(4)
C20 C 0.3834(5) 0.6780(4) 0.1544(4)
C21 C 0.3136(5) 0.6656(4) 0.1238(5)
C22 C 0.4315(5) 0.7222(4) 0.1480(4)
C23 C 0.4305(5) 0.7703(4) 0.1028(5)
C24 C 0.2382(4) 0.5107(3) 0.2609(4)
C25 C 0.2071(4) 0.5338(3) 0.3540(4)
C26 C 0.1644(5) 0.5340(4) 0.4109(4)
C27 C 0.2713(5) 0.5594(4) 0.3432(4)
C28 C 0.3199(5) 0.5956(4) 0.3832(4)
C29 C 0.2414(5) 0.4874(4) 0.1960(4)
C30 C 0.3029(5) 0.4828(4) 0.1064(5)
H11 H 0.34361 0.49278 0.08434
C31 C 0.2516(6) 0.4510(5) 0.0740(5)
H12 H 0.25662 0.43941 0.03126
C32 C 0.1926(6) 0.4368(6) 0.1060(5)
H13 H 0.15599 0.41457 0.08564
C33 C 0.1871(6) 0.4549(5) 0.1675(5)
H14 H 0.14678 0.44544 0.19032
C34 C 0.5235(5) 0.6358(4) 0.2664(4)
C35 C 0.5842(5) 0.6606(4) 0.2933(4)
H15 H 0.59571 0.69864 0.28362
C36 C 0.6280(5) 0.6287(4) 0.3348(4)
H16 H 0.67115 0.64419 0.35262
C37 C 0.6085(5) 0.5749(4) 0.3498(4)
H17 H 0.63710 0.55286 0.37901
C38 C 0.5468(5) 0.5534(4) 0.3221(5)
H18 H 0.53417 0.51565 0.33204
C39 C 0.5791(5) 0.9118(4) 0.2071(4)
C40 C 0.5363(5) 0.9352(4) 0.2953(4)
C41 C 0.5180(5) 0.9717(4) 0.3498(5)
C42 C 0.5309(4) 0.8770(4) 0.2879(4)
C43 C 0.5006(5) 0.8303(4) 0.3270(4)
C44 C 0.6112(4) 0.9126(4) 0.1446(4)
C45 C 0.6626(5) 0.8599(4) 0.0671(5)
H19 H 0.67712 0.82426 0.05167
C46 C 0.6757(5) 0.9073(4) 0.0320(4)
H20 H 0.70024 0.90438 -0.00602
C47 C 0.6526(5) 0.9596(4) 0.0527(4)
H21 H 0.65891 0.99283 0.02818
C48 C 0.6200(5) 0.9619(4) 0.1104(4)
H22 H 0.60382 0.99695 0.12617
C49 C 0.7698(5) 0.6839(3) 0.1706(4)
C50 C 0.8154(5) 0.6440(4) 0.1371(4)
C51 C 0.7397(5) 0.7617(3) 0.3101(4)
C52 C 0.8044(5) 0.7711(4) 0.4055(4)
H23 H 0.84719 0.76520 0.43058
C53 C 0.7509(6) 0.7978(5) 0.4325(5)
H24 H 0.75618 0.81004 0.47553
C54 C 0.6881(6) 0.8073(6) 0.3969(5)
H25 H 0.64892 0.82476 0.41534
C55 C 0.6841(5) 0.7908(4) 0.3337(4)
H26 H 0.64331 0.79948 0.30698
C56 C 1.0223(5) 0.6178(3) 0.2494(4)
C57 C 1.0779(5) 0.5943(4) 0.2187(5)
H27 H 1.08792 0.55498 0.22277
C58 C 1.1193(6) 0.6285(5) 0.1820(6)
H28 H 1.15712 0.61295 0.15983
C59 C 1.1043(6) 0.6855(4) 0.1782(6)
H29 H 1.13313 0.71023 0.15519
C60 C 1.0466(5) 0.7058(4) 0.2086(5)
H30 H 1.03538 0.74487 0.20432
O25 O 0.8333(5) 0.3021(4) 0.5733(6)
N19 N 0.7456(6) 0.2730(5) 0.6339(6)
C61 C 0.7734(9) 0.2807(6) 0.5767(9)
H31 H 0.74705 0.26968 0.53889
C62 C 0.7803(13) 0.2878(8) 0.6942(8)
H32 H 0.79052 0.25339 0.71904
H33 H 0.74931 0.31256 0.71765
H34 H 0.82474 0.30762 0.68713
C63 C 0.6765(9) 0.2462(8) 0.6336(10)
H35 H 0.65368 0.24800 0.59062
H36 H 0.64706 0.26600 0.66344
H37 H 0.68213 0.20661 0.64667
O26 O 0.3547(7) 1.0741(5) 0.3311(5)
N20 N 0.2894(7) 1.0077(5) 0.2794(6)
C64 C 0.3054(8) 1.0582(7) 0.2927(7)
H38 H 0.27773 1.08694 0.27170
C65 C 0.3389(9) 0.9630(7) 0.2988(8)
H39 H 0.36988 0.95497 0.26410
H40 H 0.31249 0.92874 0.30883
H41 H 0.36767 0.97513 0.33664
C66 C 0.2332(10) 0.9946(9) 0.232(1)
H42 H 0.18981 0.98538 0.25334
H43 H 0.24709 0.96208 0.20662
H44 H 0.22450 1.02733 0.20411
O27 O 0.3877(7) 0.9447(5) 0.1007(6)
N21 N 0.3229(6) 0.8765(5) 0.1487(5)
C67 C 0.3831(8) 0.9075(7) 0.1441(9)
H45 H 0.42224 0.90130 0.17364
C68 C 0.3186(9) 0.8335(7) 0.1980(7)
H46 H 0.36645 0.82355 0.21468
H47 H 0.29504 0.79975 0.17978
H48 H 0.29128 0.84825 0.23260
C69 C 0.2652(8) 0.8795(7) 0.1037(8)
H49 H 0.26393 0.91692 0.08368
H50 H 0.22103 0.87321 0.12504
H51 H 0.27017 0.85039 0.07107
O28 O 0.8048(8) 0.3687(6) 0.1717(6)
N22 N 0.8065(8) 0.3646(6) 0.0599(8)
C70 C 0.8321(11) 0.3536(8) 0.1221(10)
H52 H 0.87484 0.33242 0.12704
C71 C 0.8465(9) 0.3491(10) 0.0036(9)
H53 H 0.89448 0.33706 0.01767
H54 H 0.84916 0.38191 -0.02466
H55 H 0.82210 0.31801 -0.01952
C72 C 0.7403(12) 0.3985(11) 0.0460(12)
H56 H 0.69874 0.37436 0.05052
H57 H 0.73990 0.41318 0.00238
H58 H 0.73906 0.43016 0.07604
O29 O 0.8876(6) 0.3387(4) 0.2892(6)
H59 H 0.87288 0.34811 0.24977
H60 H 0.91015 0.36629 0.30918
N23 N 0.9203(4) 0.3600(3) 0.4924(4)
H61 H 0.90028 0.38760 0.46704
H62 H 0.88723 0.34851 0.51948
C73 C 0.9814(5) 0.3841(5) 0.5301(5)
H63 H 1.01437 0.40113 0.50127
H64 H 1.00559 0.35402 0.55492
H65 H 0.96474 0.41310 0.55898
C74 C 0.9395(7) 0.3111(4) 0.4516(6)
H66 H 0.97396 0.32341 0.42142
H67 H 0.89680 0.29693 0.42813
H68 H 0.96021 0.28089 0.47866
N24 N 0.4506(5) 0.6575(4) 0.4695(4)
H69 H 0.42368 0.67237 0.49996
H70 H 0.42115 0.64993 0.43474
C75 C 0.5033(6) 0.7011(5) 0.4516(6)
H71 H 0.53293 0.68556 0.41904
H72 H 0.53326 0.71163 0.48933
H73 H 0.47821 0.73464 0.43464
C76 C 0.4818(6) 0.6038(5) 0.4936(5)
H74 H 0.50359 0.58392 0.45874
H75 H 0.44464 0.58010 0.51028
H76 H 0.51806 0.61180 0.52764
N25 N 0.4533(5) 1.0813(4) 0.4305(5)
H77 H 0.47907 1.05768 0.40666
H78 H 0.42250 1.10048 0.40343
C77 C 0.4123(7) 1.0471(6) 0.4747(6)
H79 H 0.38032 1.02160 0.45009
H80 H 0.38453 1.07229 0.50064
H81 H 0.44504 1.02484 0.50254
C78 C 0.5016(7) 1.1221(5) 0.4637(6)
H82 H 0.51888 1.14912 0.43278
H83 H 0.54181 1.10183 0.48441
H84 H 0.47606 1.14253 0.49588
N26 N 0.9302(5) 0.5433(4) 0.1011(4)
H85 H 0.91412 0.56958 0.12847
H86 H 0.96328 0.52191 0.12316
C79 C 0.8711(10) 0.5070(8) 0.0796(11)
H87 H 0.83953 0.52770 0.04922
H88 H 0.84479 0.49544 0.11626
H89 H 0.88943 0.47330 0.05880
C80 C 0.9639(11) 0.5722(9) 0.0506(8)
H90 H 0.92771 0.59097 0.02275
H91 H 0.98976 0.54480 0.02584
H92 H 0.99699 0.60053 0.06895
Cd1* Cd 0.07464(3) 0.46076(3) 0.31431(3)
Cd2A Cd 1.10744(3) 0.19830(3) 0.20790(3)
Cd4A Cd 0.60961(3) 1.05331(3) 0.26670(3)
O3A O 0.9607(4) 0.7331(3) 0.3835(3)
O15* O 1.1099(3) 0.5060(3) 0.4113(3)
O20A O 0.4614(4) 0.5224(3) 0.1498(3)
N2A N 0.9304(4) 0.7917(3) 0.2699(3)
N11* N 1.1861(4) 0.5027(3) 0.3012(3)
N15A N 0.4319(4) 0.4576(3) 0.2565(3)
#END
