
#######################################################################
#
#                 Cambridge Crystallographic Data Centre
#                                CCDC
#
#######################################################################
#
# If this CIF has been generated from an entry in the Cambridge
# Structural Database, then it will include bibliographic, chemical,
# crystal, experimental, refinement or atomic coordinate data resulting
# from the CCDC's data processing and validation procedures.
#
#######################################################################

data_CSD_CIF_FALVIZ
_audit_creation_date 2012-03-05
_audit_creation_method CSD-ConQuest-V1
_database_code_CSD FALVIZ
_database_code_depnum_ccdc_archive 'CCDC 838958'
_chemical_formula_sum 'C76 H120 Ba1 Cu2 N6 O14 S2'
_chemical_formula_moiety
;
(C40 H36 Ba1 Cu2 N4 O12 2-)n,2n(C2 H6 O1 S1),2n(C16 H36 N1 1+)
;
_journal_coden_Cambridge 1350
_journal_volume 14
_journal_year 2012
_journal_page_first 761
_journal_name_full 'CrystEngComm '
loop_
_publ_author_name
"J.Ferrando-Soria"
"M.T.M.Rood"
"M.Julve"
"F.Lloret"
"Y.Journaux"
"J.Pasan"
"C.Ruiz-Perez"
"O.Fabelo"
"E.Pardo"
_chemical_name_systematic
;
catena-(bis(tetra-n-butylammonium) 
tetrakis(\m~2~-2-([carboxylato(oxidanidyl)methylidene]amino)-1,3-dimethylbenze
ne)-di-copper(ii)-barium(ii) dimethyl sulfoxide solvate)
;
_cell_volume   8242.184
_exptl_crystal_colour 'blue'
_exptl_crystal_density_diffrn 1.346
_exptl_crystal_description 'prism'
_diffrn_ambient_temperature 100
_diffrn_radiation_probe x-ray
_diffrn_source synchrotron
#These two values have been output from a single CSD field.
_refine_ls_R_factor_gt 0.0849
_refine_ls_wR_factor_gt 0.0849
_symmetry_cell_setting orthorhombic
_symmetry_space_group_name_H-M 'P b c a'
_symmetry_Int_Tables_number 61
loop_
_symmetry_equiv_pos_site_id
_symmetry_equiv_pos_as_xyz
1 x,y,z
2 1/2-x,-y,1/2+z
3 1/2+x,1/2-y,-z
4 -x,1/2+y,1/2-z
5 -x,-y,-z
6 -1/2+x,y,-1/2-z
7 -1/2-x,-1/2+y,z
8 x,-1/2-y,-1/2+z
_cell_length_a 18.512(4)
_cell_length_b 15.920(3)
_cell_length_c 27.967(6)
_cell_angle_alpha 90
_cell_angle_beta 90
_cell_angle_gamma 90
_cell_formula_units_Z 4
loop_
_atom_type_symbol
_atom_type_radius_bond
C 0.68
H 0.23
Ba 2.15
Cu 1.32
N 0.68
O 0.68
S 1.02
loop_
_atom_site_label
_atom_site_type_symbol
_atom_site_fract_x
_atom_site_fract_y
_atom_site_fract_z
Cu1 Cu 0.25487(3) 0.24593(3) 0.500783(16)
Ba1 Ba 0.00000 0.00000 0.50000
N1 N 0.2108(2) 0.1687(2) 0.45572(12)
N2 N 0.1998(2) -0.1784(2) 0.54638(13)
N3 N -0.0098(2) 0.7062(3) 0.35773(15)
O1 O 0.17904(18) 0.2085(2) 0.54391(11)
O2 O 0.08625(19) 0.1192(2) 0.54573(12)
O3 O 0.11343(18) 0.0776(2) 0.45243(11)
O4 O 0.17078(18) -0.2146(2) 0.45714(11)
O5 O 0.07856(18) -0.1242(2) 0.45498(12)
O6 O 0.09924(19) -0.0921(2) 0.55047(11)
C1 C 0.1374(2) 0.1537(3) 0.52532(16)
C2 C 0.1538(2) 0.1289(3) 0.47287(16)
C3 C 0.2354(2) 0.1475(3) 0.40856(15)
C4 C 0.2696(3) 0.0706(3) 0.40098(15)
C5 C 0.2948(3) 0.0510(3) 0.35506(18)
H1 H 0.31860 0.00030 0.34990
C6 C 0.2850(3) 0.1049(4) 0.31787(18)
H2 H 0.30110 0.09070 0.28740
C7 C 0.2520(4) 0.1791(4) 0.32546(18)
H3 H 0.24530 0.21530 0.29970
C8 C 0.2270(3) 0.2038(3) 0.37096(17)
C9 C 0.2812(3) 0.0105(3) 0.4411(2)
H4 H 0.30530 -0.03870 0.42940
H5 H 0.23540 -0.00510 0.45450
H6 H 0.31030 0.03670 0.46530
C10 C 0.1943(4) 0.2886(3) 0.3796(2)
H7 H 0.18190 0.31390 0.34960
H8 H 0.22860 0.32360 0.39600
H9 H 0.15160 0.28270 0.39880
C11 C 0.1286(2) -0.1600(3) 0.47595(16)
C12 C 0.1415(3) -0.1400(3) 0.52907(16)
C13 C 0.2194(2) -0.1608(3) 0.59475(15)
C14 C 0.2008(3) -0.2172(3) 0.63090(18)
C15 C 0.2215(4) -0.1981(4) 0.67803(19)
H10 H 0.21020 -0.23510 0.70260
C16 C 0.2576(3) -0.1266(4) 0.68791(18)
H11 H 0.27030 -0.11480 0.71940
C17 C 0.2761(3) -0.0706(4) 0.65251(17)
H12 H 0.30170 -0.02220 0.66010
C18 C 0.2564(3) -0.0866(3) 0.60498(15)
C19 C 0.1612(4) -0.2969(4) 0.6191(2)
H13 H 0.15260 -0.32810 0.64790
H14 H 0.11580 -0.28340 0.60430
H15 H 0.18980 -0.33000 0.59750
C20 C 0.2756(3) -0.0262(4) 0.5663(2)
H16 H 0.30090 0.02080 0.57980
H17 H 0.30590 -0.05370 0.54330
H18 H 0.23230 -0.00690 0.55090
C21 C -0.0411(3) 0.6250(3) 0.3394(2)
H19 H -0.08110 0.60940 0.36010
H20 H -0.06080 0.63510 0.30780
C22 C 0.0093(3) 0.5522(4) 0.3364(2)
H21 H 0.04590 0.56380 0.31240
H22 H 0.03350 0.54520 0.36690
C23 C -0.0285(4) 0.4728(4) 0.3238(3)
H23 H -0.06400 0.46110 0.34840
H24 H -0.05440 0.48150 0.29410
C24 C 0.0184(4) 0.3980(4) 0.3183(3)
H25 H -0.01100 0.34840 0.31700
H26 H 0.05070 0.39430 0.34510
H27 H 0.04590 0.40290 0.28940
C25 C 0.0204(4) 0.6972(4) 0.4072(2)
H28 H 0.06550 0.66660 0.40470
H29 H 0.03200 0.75310 0.41870
C26 C -0.0237(4) 0.6556(4) 0.4441(2)
H30 H -0.02980 0.59700 0.43550
H31 H -0.07110 0.68130 0.44470
C27 C 0.0078(5) 0.6600(6) 0.4928(2)
H32 H 0.05630 0.63710 0.49140
H33 H 0.01220 0.71880 0.50150
C28 C -0.0312(6) 0.6167(6) 0.5318(3)
H34 H -0.00550 0.62430 0.56130
H35 H -0.03460 0.55790 0.52460
H36 H -0.07890 0.63990 0.53470
C29 C -0.0732(4) 0.7693(4) 0.3605(2)
H37 H -0.11290 0.74260 0.37730
H38 H -0.05790 0.81700 0.37960
C30 C -0.1010(4) 0.8015(4) 0.3138(2)
H39 H -0.11900 0.75490 0.29490
H40 H -0.06170 0.82760 0.29620
C31 C -0.1612(4) 0.8653(4) 0.3211(3)
H41 H -0.19920 0.83930 0.33990
H42 H -0.14240 0.91220 0.33940
C32 C -0.1934(5) 0.8983(5) 0.2756(3)
H43 H -0.22850 0.94090 0.28300
H44 H -0.21650 0.85330 0.25870
H45 H -0.15600 0.92200 0.25610
C33 C 0.0467(3) 0.7381(4) 0.32417(19)
H46 H 0.08670 0.69880 0.32440
H47 H 0.02660 0.73800 0.29210
C34 C 0.0757(4) 0.8229(5) 0.3339(2)
H48 H 0.10430 0.82060 0.36290
H49 H 0.03550 0.86070 0.33980
C35 C 0.1211(4) 0.8587(5) 0.2950(3)
H50 H 0.09320 0.85770 0.26560
H51 H 0.16250 0.82220 0.29040
C36 C 0.1480(5) 0.9459(7) 0.3025(4)
H52 H 0.19980 0.94640 0.30060
H53 H 0.13320 0.96530 0.33350
H54 H 0.12830 0.98210 0.27840
S1 S 0.47585(11) 0.34444(12) 0.68465(6)
O7 O 0.5219(4) 0.3582(5) 0.7277(2)
C37 C 0.4337(4) 0.4398(5) 0.6709(3)
H55 H 0.39880 0.45300 0.69510
H56 H 0.40990 0.43530 0.64050
H57 H 0.46930 0.48360 0.66950
C38 C 0.5334(5) 0.3411(7) 0.6355(3)
H58 H 0.56140 0.29040 0.63650
H59 H 0.56510 0.38880 0.63630
H60 H 0.50540 0.34240 0.60660
Cu1D Cu -0.25487(3) -0.24593(3) 0.499217(16)
Cu1F Cu 0.24513(3) -0.25407(3) 0.500783(16)
Cu1B Cu -0.24513(3) 0.25407(3) 0.499217(16)
N1D N -0.2108(2) -0.1687(2) 0.54428(12)
N2D N -0.1998(2) 0.1784(2) 0.45362(13)
N2F N 0.3002(2) 0.3216(2) 0.54638(13)
N2B N -0.3002(2) -0.3216(2) 0.45362(13)
O1D O -0.17904(18) -0.2085(2) 0.45609(11)
O2D O -0.08625(19) -0.1192(2) 0.45427(12)
O3D O -0.11343(18) -0.0776(2) 0.54757(11)
O4D O -0.17078(18) 0.2146(2) 0.54286(11)
O4F O 0.32922(18) 0.2854(2) 0.45714(11)
O4B O -0.32922(18) -0.2854(2) 0.54286(11)
O5D O -0.07856(18) 0.1242(2) 0.54502(12)
O6D O -0.09924(19) 0.0921(2) 0.44953(11)
C1D C -0.1374(2) -0.1537(3) 0.47468(16)
C2D C -0.1538(2) -0.1289(3) 0.52713(16)
C3D C -0.2354(2) -0.1475(3) 0.59144(15)
C4D C -0.2696(3) -0.0706(3) 0.59902(15)
C5D C -0.2948(3) -0.0510(3) 0.64494(18)
H1D H -0.31860 -0.00030 0.65010
C6D C -0.2850(3) -0.1049(4) 0.68213(18)
H2D H -0.30110 -0.09070 0.71260
C7D C -0.2520(4) -0.1791(4) 0.67454(18)
H3D H -0.24530 -0.21530 0.70030
C8D C -0.2270(3) -0.2038(3) 0.62904(17)
C9D C -0.2812(3) -0.0105(3) 0.5589(2)
H4D H -0.30530 0.03870 0.57060
H5D H -0.23540 0.00510 0.54550
H6D H -0.31030 -0.03670 0.53470
C10D C -0.1943(4) -0.2886(3) 0.6204(2)
H7D H -0.18190 -0.31390 0.65040
H8D H -0.22860 -0.32360 0.60400
H9D H -0.15160 -0.28270 0.60120
C11D C -0.1286(2) 0.1600(3) 0.52405(16)
C12D C -0.1415(3) 0.1400(3) 0.47093(16)
C13D C -0.2194(2) 0.1608(3) 0.40525(15)
C14D C -0.2008(3) 0.2172(3) 0.36910(18)
C15D C -0.2215(4) 0.1981(4) 0.32197(19)
H10D H -0.21020 0.23510 0.29740
C16D C -0.2576(3) 0.1266(4) 0.31209(18)
H11D H -0.27030 0.11480 0.28060
C17D C -0.2761(3) 0.0706(4) 0.34749(17)
H12D H -0.30170 0.02220 0.33990
C18D C -0.2564(3) 0.0866(3) 0.39502(15)
C19D C -0.1612(4) 0.2969(4) 0.3809(2)
H13D H -0.15260 0.32810 0.35210
H14D H -0.11580 0.28340 0.39570
H15D H -0.18980 0.33000 0.40250
C20D C -0.2756(3) 0.0262(4) 0.4337(2)
H16D H -0.30090 -0.02080 0.42020
H17D H -0.30590 0.05370 0.45670
H18D H -0.23230 0.00690 0.44910
#END
