
#######################################################################
#
#                 Cambridge Crystallographic Data Centre
#                                CCDC
#
#######################################################################
#
# If this CIF has been generated from an entry in the Cambridge
# Structural Database, then it will include bibliographic, chemical,
# crystal, experimental, refinement or atomic coordinate data resulting
# from the CCDC's data processing and validation procedures.
#
#######################################################################

data_CSD_CIF_FALVEV
_audit_creation_date 2012-03-05
_audit_creation_method CSD-ConQuest-V1
_database_code_CSD FALVEV
_database_code_depnum_ccdc_archive 'CCDC 838957'
_chemical_formula_sum 'C76 H120 Cu2 N6 O14 S2 Sr1'
_chemical_formula_moiety
;
(C40 H36 Cu2 N4 O12 Sr1 2-)n,2n(C2 H6 O1 S1),2n(C16 H36 N1 1+)
;
_journal_coden_Cambridge 1350
_journal_volume 14
_journal_year 2012
_journal_page_first 761
_journal_name_full 'CrystEngComm '
loop_
_publ_author_name
"J.Ferrando-Soria"
"M.T.M.Rood"
"M.Julve"
"F.Lloret"
"Y.Journaux"
"J.Pasan"
"C.Ruiz-Perez"
"O.Fabelo"
"E.Pardo"
_chemical_name_systematic
;
catena-(bis(tetra-n-butylammonium) 
tetrakis(\m~2~-2-([carboxylato(oxidanidyl)methylidene]amino)-1,3-dimethylbenze
ne)-di-copper(ii)-strontium(ii) dimethyl sulfoxide solvate)
;
_cell_volume   8077.151
_exptl_crystal_colour 'blue'
_exptl_crystal_density_diffrn 1.333
_exptl_crystal_description 'prism'
_diffrn_ambient_temperature 100
_diffrn_radiation_probe x-ray
_diffrn_source synchrotron
#These two values have been output from a single CSD field.
_refine_ls_R_factor_gt 0.0551
_refine_ls_wR_factor_gt 0.0551
_symmetry_cell_setting orthorhombic
_symmetry_space_group_name_H-M 'P b c a'
_symmetry_Int_Tables_number 61
loop_
_symmetry_equiv_pos_site_id
_symmetry_equiv_pos_as_xyz
1 x,y,z
2 1/2-x,-y,1/2+z
3 1/2+x,1/2-y,-z
4 -x,1/2+y,1/2-z
5 -x,-y,-z
6 -1/2+x,y,-1/2-z
7 -1/2-x,-1/2+y,z
8 x,-1/2-y,-1/2+z
_cell_length_a 17.731(4)
_cell_length_b 15.981(3)
_cell_length_c 28.505(6)
_cell_angle_alpha 90
_cell_angle_beta 90
_cell_angle_gamma 90
_cell_formula_units_Z 4
loop_
_atom_type_symbol
_atom_type_radius_bond
C 0.68
H 0.23
Cu 1.32
N 0.68
O 0.68
S 1.02
Sr 1.95
loop_
_atom_site_label
_atom_site_type_symbol
_atom_site_fract_x
_atom_site_fract_y
_atom_site_fract_z
Cu1 Cu 0.251098(14) 0.247347(17) 0.499936(9)
Sr1 Sr 0.00000 0.00000 0.50000
N1 N 0.20746(11) 0.16571(12) 0.45644(7)
N2 N -0.20039(11) 0.17858(12) 0.45450(7)
N3 N 0.00638(11) 0.71270(14) 0.35866(8)
O1 O 0.17325(10) 0.20829(11) 0.54314(6)
O2 O 0.07978(10) 0.11430(11) 0.54566(6)
O3 O 0.10218(10) 0.07983(11) 0.45349(6)
O4 O -0.17814(10) 0.20376(11) 0.54421(6)
O5 O -0.08415(10) 0.11034(11) 0.54623(6)
O6 O -0.09958(10) 0.08580(11) 0.45191(6)
O7 O 0.0403(3) 0.1246(3) 0.26727(11)
S1 S 0.03947(5) 0.13837(6) 0.31742(3)
C1 C 0.13064(13) 0.15176(15) 0.52527(8)
C2 C 0.14578(13) 0.12928(14) 0.47365(8)
C3 C 0.22919(12) 0.14094(14) 0.41029(8)
C4 C 0.26568(13) 0.06361(15) 0.40411(9)
C5 C 0.28357(14) 0.03759(17) 0.35869(9)
H1 H 0.30820 -0.01320 0.35430
C6 C 0.26526(15) 0.08605(18) 0.32034(9)
H2 H 0.27670 0.06760 0.29020
C7 C 0.22967(15) 0.16247(18) 0.32690(9)
H3 H 0.21700 0.19480 0.30090
C8 C 0.21246(13) 0.19173(16) 0.37181(9)
C9 C 0.28324(17) 0.00893(17) 0.44547(11)
H4 H 0.26740 0.03640 0.47380
H5 H 0.33660 -0.00130 0.44680
H6 H 0.25700 -0.04330 0.44240
C10 C 0.17432(17) 0.27466(17) 0.37864(10)
H7 H 0.16710 0.30110 0.34870
H8 H 0.20520 0.30970 0.39820
H9 H 0.12630 0.26620 0.39340
C11 C -0.13355(13) 0.14977(15) 0.52538(8)
C12 C -0.14323(13) 0.13505(14) 0.47232(8)
C13 C -0.22145(13) 0.16639(15) 0.40675(8)
C14 C -0.21063(15) 0.23048(16) 0.37407(9)
C15 C -0.23445(17) 0.21792(19) 0.32791(9)
H10 H -0.22770 0.26030 0.30590
C16 C -0.26784(17) 0.1436(2) 0.31435(9)
H11 H -0.28350 0.13620 0.28350
C17 C -0.27785(15) 0.08083(18) 0.34658(10)
H12 H -0.29950 0.03050 0.33720
C18 C -0.25604(14) 0.09136(16) 0.39332(9)
C19 C -0.17307(19) 0.31042(18) 0.38887(11)
H13 H -0.17020 0.34780 0.36260
H14 H -0.12310 0.29850 0.40000
H15 H -0.20180 0.33610 0.41350
C20 C -0.27078(18) 0.02367(18) 0.42866(11)
H16 H -0.29470 -0.02290 0.41350
H17 H -0.30320 0.04480 0.45290
H18 H -0.22390 0.00580 0.44220
C21 C -0.03203(15) 0.63417(16) 0.34167(10)
H19 H -0.05210 0.64450 0.31050
H20 H -0.07440 0.62240 0.36220
C22 C 0.01810(16) 0.55696(17) 0.33964(10)
H21 H 0.05030 0.55980 0.31220
H22 H 0.05010 0.55510 0.36720
C23 C -0.02984(17) 0.47851(18) 0.33743(12)
H23 H -0.06330 0.48200 0.31060
H24 H -0.06080 0.47530 0.36540
C24 C 0.01751(19) 0.39928(19) 0.33352(12)
H25 H -0.01510 0.35140 0.33230
H26 H 0.05000 0.39490 0.36030
H27 H 0.04750 0.40160 0.30550
C25 C 0.03923(14) 0.70146(17) 0.40752(9)
H28 H 0.05400 0.75590 0.41950
H29 H 0.08450 0.66760 0.40510
C26 C -0.01379(16) 0.66073(17) 0.44278(9)
H30 H -0.06240 0.68840 0.44190
H31 H -0.02120 0.60240 0.43460
C27 C 0.0192(2) 0.6670(2) 0.49194(11)
H32 H 0.02400 0.72550 0.50050
H33 H 0.06930 0.64250 0.49210
C28 C -0.0298(2) 0.6225(3) 0.52796(12)
H34 H -0.00730 0.62750 0.55840
H35 H -0.03420 0.56440 0.51980
H36 H -0.07910 0.64760 0.52840
C29 C -0.05200(15) 0.78283(16) 0.36129(9)
H37 H -0.09620 0.76160 0.37750
H38 H -0.03130 0.82770 0.38020
C30 C -0.07705(16) 0.81927(18) 0.31460(9)
H39 H -0.09990 0.77590 0.29550
H40 H -0.03380 0.84120 0.29780
C31 C -0.13403(17) 0.88926(18) 0.32338(10)
H41 H -0.17800 0.86640 0.33900
H42 H -0.11170 0.93080 0.34390
C32 C -0.1583(2) 0.9309(2) 0.27787(13)
H43 H -0.19400 0.97450 0.28460
H44 H -0.18120 0.89010 0.25770
H45 H -0.11500 0.95450 0.26260
C33 C 0.07036(15) 0.73508(17) 0.32532(9)
H46 H 0.04990 0.74120 0.29400
H47 H 0.10600 0.68900 0.32460
C34 C 0.11284(17) 0.81528(18) 0.33815(11)
H48 H 0.14200 0.80550 0.36640
H49 H 0.07660 0.85920 0.34490
C35 C 0.16590(19) 0.8449(2) 0.29900(11)
H50 H 0.19780 0.88920 0.31120
H51 H 0.19840 0.79880 0.29000
C36 C 0.1260(2) 0.8767(2) 0.25599(12)
H52 H 0.16240 0.89750 0.23400
H53 H 0.09220 0.92100 0.26470
H54 H 0.09790 0.83190 0.24190
C37 C 0.0619(2) 0.0419(2) 0.34497(14)
H55 H 0.06000 0.04860 0.37840
H56 H 0.11170 0.02480 0.33590
H57 H 0.02620 0.00000 0.33550
C38 C -0.0558(3) 0.1404(3) 0.3334(2)
H58 H -0.06640 0.19120 0.35010
H59 H -0.06670 0.09330 0.35320
H60 H -0.08650 0.13770 0.30570
Cu1D Cu -0.251098(14) -0.247347(17) 0.500064(9)
Cu1B Cu -0.248902(14) 0.252653(17) 0.500064(9)
Cu1F Cu 0.248902(14) -0.252653(17) 0.499936(9)
N1D N -0.20746(11) -0.16571(12) 0.54356(7)
N2D N 0.20039(11) -0.17858(12) 0.54550(7)
N2B N 0.29961(11) 0.32142(12) 0.54550(7)
N2F N -0.29961(11) -0.32142(12) 0.45450(7)
O1D O -0.17325(10) -0.20829(11) 0.45686(6)
O2D O -0.07978(10) -0.11430(11) 0.45434(6)
O3D O -0.10218(10) -0.07983(11) 0.54651(6)
O4D O 0.17814(10) -0.20376(11) 0.45579(6)
O4B O 0.32186(10) 0.29624(11) 0.45579(6)
O4F O -0.32186(10) -0.29624(11) 0.54421(6)
O5D O 0.08415(10) -0.11034(11) 0.45377(6)
O6D O 0.09958(10) -0.08580(11) 0.54809(6)
C1D C -0.13064(13) -0.15176(15) 0.47473(8)
C2D C -0.14578(13) -0.12928(14) 0.52635(8)
C3D C -0.22919(12) -0.14094(14) 0.58971(8)
C4D C -0.26568(13) -0.06361(15) 0.59589(9)
C5D C -0.28357(14) -0.03759(17) 0.64131(9)
H1D H -0.30820 0.01320 0.64570
C6D C -0.26526(15) -0.08605(18) 0.67966(9)
H2D H -0.27670 -0.06760 0.70980
C7D C -0.22967(15) -0.16247(18) 0.67310(9)
H3D H -0.21700 -0.19480 0.69910
C8D C -0.21246(13) -0.19173(16) 0.62819(9)
C9D C -0.28324(17) -0.00893(17) 0.55453(11)
H4D H -0.26740 -0.03640 0.52620
H5D H -0.33660 0.00130 0.55320
H6D H -0.25700 0.04330 0.55760
C10D C -0.17432(17) -0.27466(17) 0.62136(10)
H7D H -0.16710 -0.30110 0.65130
H8D H -0.20520 -0.30970 0.60180
H9D H -0.12630 -0.26620 0.60660
C11D C 0.13355(13) -0.14977(15) 0.47462(8)
C12D C 0.14323(13) -0.13505(14) 0.52768(8)
C13D C 0.22145(13) -0.16639(15) 0.59325(8)
C14D C 0.21063(15) -0.23048(16) 0.62593(9)
C15D C 0.23445(17) -0.21792(19) 0.67209(9)
H10D H 0.22770 -0.26030 0.69410
C16D C 0.26784(17) -0.1436(2) 0.68565(9)
H11D H 0.28350 -0.13620 0.71650
C17D C 0.27785(15) -0.08083(18) 0.65342(10)
H12D H 0.29950 -0.03050 0.66280
C18D C 0.25604(14) -0.09136(16) 0.60668(9)
C19D C 0.17307(19) -0.31042(18) 0.61113(11)
H13D H 0.17020 -0.34780 0.63740
H14D H 0.12310 -0.29850 0.60000
H15D H 0.20180 -0.33610 0.58650
C20D C 0.27078(18) -0.02367(18) 0.57134(11)
H16D H 0.29470 0.02290 0.58650
H17D H 0.30320 -0.04480 0.54710
H18D H 0.22390 -0.00580 0.55780
#END
