
#######################################################################
#
#                 Cambridge Crystallographic Data Centre
#                                CCDC
#
#######################################################################
#
# If this CIF has been generated from an entry in the Cambridge
# Structural Database, then it will include bibliographic, chemical,
# crystal, experimental, refinement or atomic coordinate data resulting
# from the CCDC's data processing and validation procedures.
#
#######################################################################

data_CSD_CIF_FANMUF
_audit_creation_date 2017-02-22
_audit_creation_method CSD-ConQuest-V1
_database_code_CSD FANMUF
_database_code_depnum_ccdc_archive 'CCDC 1530264'
_chemical_formula_sum 'C20 H22 Cu4 N34 O19'
_chemical_formula_moiety
;
(C16 H6 Cu4 N32 O19 2-)n,2(C2 H8 N1 1+)
;
_journal_coden_Cambridge 9
_journal_volume 56
_journal_year 2017
_journal_page_first 561
_journal_name_full 'Inorg.Chem. '
loop_
_publ_author_name
"S.Seth"
"A.J.Matzger"
_chemical_name_systematic
;
catena-[bis(dimethylammonium) 
tetrakis(\m-5,5'-dinitro-2H,2'H-3,3'-bi-1,2,4-triazolato)-tri-aqua-di-copper(i
)-di-copper(ii)]
;
_cell_volume   1072.721
_exptl_crystal_colour 'black'
_exptl_crystal_density_diffrn 2.004
_exptl_crystal_description 'needle'
_diffrn_ambient_temperature 85
_refine_special_details
;
O9 disordered by symmetry over two configurations with occupancy 0.5.

;
#These two values have been output from a single CSD field.
_refine_ls_R_factor_gt 0.0551
_refine_ls_wR_factor_gt 0.0551
_symmetry_cell_setting triclinic
_symmetry_space_group_name_H-M 'P -1'
_symmetry_Int_Tables_number 2
loop_
_symmetry_equiv_pos_site_id
_symmetry_equiv_pos_as_xyz
1 x,y,z
2 -x,-y,-z
_cell_length_a 8.3638(2)
_cell_length_b 11.3712(8)
_cell_length_c 11.5116(2)
_cell_angle_alpha 94.293(5)
_cell_angle_beta 95.368(7)
_cell_angle_gamma 98.813(5)
_cell_formula_units_Z 1
loop_
_atom_type_symbol
_atom_type_radius_bond
C 0.68
H 0.23
Cu 1.32
N 0.68
O 0.68
loop_
_atom_site_label
_atom_site_type_symbol
_atom_site_fract_x
_atom_site_fract_y
_atom_site_fract_z
Cu1 Cu 0.00000 0.50000 1.00000
O1 O 0.0488(2) 0.66178(19) 0.83985(16)
N1 N 0.1748(3) 0.4115(2) 0.95951(17)
N2 N 0.1690(3) 0.5724(2) 1.12642(18)
H1 H -0.013(5) 0.640(4) 0.767(3)
H2 H 0.027(5) 0.736(4) 0.859(4)
N3 N 0.1887(3) 0.3177(2) 0.88150(18)
C1 C 0.3053(3) 0.4286(3) 1.0392(2)
N4 N 0.1832(3) 0.6558(2) 1.21934(17)
C2 C 0.3046(3) 0.5231(3) 1.1318(2)
Cu2 Cu 0.00689(5) 0.25433(3) 0.74713(3)
C3 C 0.3288(3) 0.2889(3) 0.9212(2)
N5 N 0.4087(3) 0.3529(2) 1.01841(19)
C4 C 0.3293(3) 0.6484(3) 1.2717(2)
N6 N 0.4127(3) 0.5701(2) 1.22260(18)
N7 N 0.3970(3) 0.1935(2) 0.8641(2)
N8 N 0.3987(3) 0.7265(3) 1.37538(19)
N9 N 0.0629(3) 0.9283(2) 1.24675(18)
N10 N -0.0757(3) 0.7300(2) 1.41904(18)
O2 O 0.3250(3) 0.1439(2) 0.77120(17)
O3 O 0.5231(3) 0.1678(2) 0.9121(2)
O4 O 0.5290(3) 0.7116(3) 1.42384(18)
O5 O 0.3209(3) 0.8041(2) 1.40779(19)
N11 N 0.0518(3) 1.0065(2) 1.33851(19)
C5 C 0.1173(3) 0.9996(2) 1.1675(2)
N12 N -0.0598(3) 0.8271(2) 1.49772(18)
C6 C -0.1265(3) 0.6411(2) 1.4811(2)
C7 C 0.0992(3) 1.1174(3) 1.3075(2)
Cu3 Cu 0.00000 1.00000 1.50000
N13 N 0.1474(3) 0.9511(2) 1.05399(18)
N14 N 0.1429(3) 1.1177(2) 1.19806(18)
C8 C -0.1029(3) 0.7873(2) 1.6003(2)
N15 N -0.1612(3) 0.5192(2) 1.42993(18)
N16 N -0.1452(3) 0.6688(2) 1.59470(18)
O6 O -0.2945(4) 1.0097(4) 1.4371(3)
O7 O 0.1172(2) 0.84223(19) 1.03170(15)
O8 O 0.1988(2) 1.02186(19) 0.98533(15)
O9 O -0.1547(2) 0.50185(19) 1.32314(16)
O10 O -0.1935(2) 0.43951(18) 1.49515(16)
H3 H -0.367(4) 0.987(6) 1.480(3)
H4 H -0.322(9) 0.947(2) 1.393(3)
N17 N 0.3857(3) 0.7314(2) 0.8003(2)
H5 H 0.439(4) 0.713(3) 0.871(2)
H6 H 0.277(3) 0.693(4) 0.791(5)
C9 C 0.4758(4) 0.6895(3) 0.7046(2)
H7 H 0.43200 0.71500 0.63030
H8 H 0.46370 0.60220 0.69910
H9 H 0.59130 0.72380 0.72110
C10 C 0.3882(5) 0.8609(4) 0.8084(4)
H10 H 0.50110 0.90200 0.81830
H11 H 0.33310 0.88470 0.87580
H12 H 0.33190 0.88280 0.73660
O1A O -0.0488(2) 0.33822(19) 1.16015(16)
N1A N -0.1748(3) 0.5885(2) 1.04049(17)
N2A N -0.1690(3) 0.4276(2) 0.87358(18)
H1A H 0.013(5) 0.360(4) 1.233(3)
H2A H -0.027(5) 0.264(4) 1.141(4)
N3A N -0.1887(3) 0.6823(2) 1.11850(18)
Cu2A Cu -0.00689(5) 0.74567(3) 1.25287(3)
C8A C 0.1029(3) 1.2127(2) 1.3997(2)
N12A N 0.0598(3) 1.1729(2) 1.50228(18)
N11A N -0.0518(3) 0.9935(2) 1.66149(19)
C7A C -0.0992(3) 0.8826(3) 1.6925(2)
N16A N 0.1452(3) 1.3312(2) 1.40530(18)
N10A N 0.0757(3) 1.2700(2) 1.58096(18)
N9A N -0.0629(3) 1.0717(2) 1.75325(18)
N14A N -0.1429(3) 0.8823(2) 1.80194(18)
C6A C 0.1265(3) 1.3589(2) 1.5189(2)
Cu2* Cu 0.00689(5) 1.25433(3) 1.74713(3)
C5A C -0.1173(3) 1.0004(2) 1.8325(2)
N15A N 0.1612(3) 1.4808(2) 1.57007(18)
N4A N -0.1832(3) 1.3442(2) 1.78066(17)
N3* N 0.1887(3) 1.3177(2) 1.88150(18)
N13A N -0.1474(3) 1.0489(2) 1.94601(18)
O9A O 0.1547(2) 1.49815(19) 1.67686(16)
O10A O 0.1935(2) 1.56049(18) 1.50485(16)
N1* N 0.1748(3) 1.4115(2) 1.95951(17)
C3* C 0.3288(3) 1.2889(3) 1.9212(2)
O8A O -0.1988(2) 0.97814(19) 2.01467(15)
O7A O -0.1172(2) 1.15777(19) 1.96830(15)
Cu1* Cu 0.00000 1.50000 2.00000
C1* C 0.3053(3) 1.4286(3) 2.0392(2)
N5* N 0.4087(3) 1.3529(2) 2.01841(19)
N7* N 0.3970(3) 1.1935(2) 1.8641(2)
N2* N 0.1690(3) 1.5724(2) 2.12642(18)
C2* C 0.3046(3) 1.5231(3) 2.1318(2)
O3* O 0.5231(3) 1.1678(2) 1.9121(2)
O2* O 0.3250(3) 1.1439(2) 1.77120(17)
N4* N 0.1832(3) 1.6558(2) 2.21934(17)
N6* N 0.4127(3) 1.5701(2) 2.22260(18)
Cu2A* Cu -0.00689(5) 1.74567(3) 2.25287(3)
C4* C 0.3293(3) 1.6484(3) 2.2717(2)
N8* N 0.3987(3) 1.7265(3) 2.37538(19)
O5* O 0.3209(3) 1.8041(2) 2.40779(19)
O4* O 0.5290(3) 1.7116(3) 2.42384(18)
#END
