
#######################################################################
#
#                 Cambridge Crystallographic Data Centre
#                                CCDC
#
#######################################################################
#
# If this CIF has been generated from an entry in the Cambridge
# Structural Database, then it will include bibliographic, chemical,
# crystal, experimental, refinement or atomic coordinate data resulting
# from the CCDC's data processing and validation procedures.
#
#######################################################################

data_CSD_CIF_FAPLAM
_audit_creation_date 2017-02-22
_audit_creation_method CSD-ConQuest-V1
_database_code_CSD FAPLAM
_database_code_depnum_ccdc_archive 'CCDC 1508869'
_chemical_formula_sum 'C50 H34 Eu2 N6 O20'
_chemical_formula_moiety
;
(C50 H28 Eu2 N6 O18 2-)n,2n(H3 O1 1+)
;
_journal_coden_Cambridge 1440
_journal_volume 9
_journal_year 2017
_journal_page_first 1629
_journal_name_full 'ACS Applied Materials and Interfaces '
loop_
_publ_author_name
"Wei Yan"
"Chuanlei Zhang"
"Shuguang Chen"
"Lijuan Han"
"Hegen Zheng"
_chemical_name_systematic
;
catena-[bis(oxonium) 
(\m-(1,1'-biphenyl)-4,4'-dicarboxylato)-bis(\m-2,5-di(pyridin-4-yl)terephthala
to)-bis(nitrato)-di-europium]
;
_cell_volume   2410.479
_exptl_crystal_colour 'yellow'
_exptl_crystal_density_diffrn 1.85
_exptl_crystal_description 'block'
_diffrn_ambient_temperature 296
#These two values have been output from a single CSD field.
_refine_ls_R_factor_gt 0.0272
_refine_ls_wR_factor_gt 0.0272
_symmetry_cell_setting monoclinic
_symmetry_space_group_name_H-M 'P 21/n'
_symmetry_Int_Tables_number 14
loop_
_symmetry_equiv_pos_site_id
_symmetry_equiv_pos_as_xyz
1 x,y,z
2 1/2-x,1/2+y,1/2-z
3 -x,-y,-z
4 -1/2+x,-1/2-y,-1/2+z
_cell_length_a 10.6381(13)
_cell_length_b 18.837(2)
_cell_length_c 12.0604(15)
_cell_angle_alpha 90
_cell_angle_beta 94.139(2)
_cell_angle_gamma 90
_cell_formula_units_Z 2
loop_
_atom_type_symbol
_atom_type_radius_bond
C 0.68
H 0.23
Eu 1.98
N 0.68
O 0.68
loop_
_atom_site_label
_atom_site_type_symbol
_atom_site_fract_x
_atom_site_fract_y
_atom_site_fract_z
Eu1 Eu 0.37984(2) 0.03950(2) 0.09976(2)
N1 N 0.6440(5) 0.2451(5) 0.4897(5)
N2 N -0.3826(3) 0.2731(2) 0.1686(3)
N3 N 0.2784(4) -0.0638(2) 0.2489(3)
O1 O 0.3842(2) 0.13682(15) 0.2389(2)
O2 O 0.2020(2) 0.10754(13) 0.1561(2)
O3 O 0.5877(3) 0.03980(14) 0.1754(2)
O4 O 0.7293(2) -0.00972(14) 0.0703(2)
O5 O 0.0331(2) 0.42676(12) 0.4487(2)
O6 O -0.1083(2) 0.34871(12) 0.4877(2)
O7 O 0.3742(4) -0.0272(2) 0.2787(3)
O8 O 0.2209(3) -0.04900(15) 0.1563(3)
O9 O 0.2423(4) -0.11112(19) 0.3086(3)
C1 C 0.5948(5) 0.3011(5) 0.4474(6)
H1 H 0.64410 0.34170 0.44400
C2 C 0.4699(4) 0.3037(3) 0.4062(4)
H2 H 0.43620 0.34570 0.37620
C3 C 0.3949(4) 0.2432(3) 0.4099(3)
C4 C 0.4482(5) 0.1823(3) 0.4582(4)
H3 H 0.40130 0.14090 0.46360
C5 C 0.5750(8) 0.1852(5) 0.4986(5)
H4 H 0.61240 0.14520 0.53210
C6 C 0.2595(3) 0.24640(19) 0.3685(3)
C7 C 0.1872(3) 0.30023(19) 0.4124(3)
H5 H 0.22630 0.33170 0.46320
C8 C 0.0593(3) 0.30848(17) 0.3830(3)
C9 C 0.0000(3) 0.26180(17) 0.3051(3)
C10 C 0.0723(3) 0.20911(18) 0.2606(3)
H6 H 0.03320 0.17800 0.20900
C11 C 0.2003(3) 0.20053(18) 0.2894(3)
C12 C -0.1351(3) 0.26735(18) 0.2630(3)
C13 C -0.1852(4) 0.3302(2) 0.2195(4)
H7 H -0.13770 0.37170 0.22230
C14 C -0.3074(4) 0.3299(3) 0.1720(4)
H8 H -0.33920 0.37190 0.14040
C15 C -0.3349(4) 0.2140(2) 0.2112(4)
H9 H -0.38570 0.17380 0.20950
C16 C -0.2119(4) 0.2085(2) 0.2586(4)
H10 H -0.18190 0.16540 0.28710
C17 C 0.2671(3) 0.14485(18) 0.2258(3)
C18 C 0.6945(3) 0.01496(19) 0.1598(3)
C19 C 0.7870(3) 0.01399(19) 0.2595(3)
C20 C 0.7439(4) 0.0170(3) 0.3652(3)
H11 H 0.65840 0.02330 0.37350
C21 C 0.8268(4) 0.0107(3) 0.4584(3)
H12 H 0.79540 0.01100 0.52840
C22 C 0.9558(4) 0.0039(2) 0.4502(3)
C23 C 0.9973(4) 0.0050(3) 0.3437(3)
H13 H 1.08350 0.00350 0.33520
C24 C 0.9149(4) 0.0083(3) 0.2500(3)
H14 H 0.94590 0.00670 0.17990
C25 C -0.0109(3) 0.36444(16) 0.4417(3)
O10 O 0.8770(3) 0.2031(2) 0.5560(4)
H15 H 0.79820 0.19820 0.54090
H16 H 0.89700 0.18620 0.62020
H17 H 0.89610 0.24690 0.55480
O3B O 1.4123(3) -0.03980(14) 0.8246(2)
O4B O 1.2707(2) 0.00972(14) 0.9297(2)
C18B C 1.3055(3) -0.01496(19) 0.8402(3)
C19B C 1.2130(3) -0.01399(19) 0.7405(3)
C20B C 1.2561(4) -0.0170(3) 0.6348(3)
H11B H 1.34160 -0.02330 0.62650
C21B C 1.1732(4) -0.0107(3) 0.5416(3)
H12B H 1.20460 -0.01100 0.47160
C22B C 1.0442(4) -0.0039(2) 0.5498(3)
C23B C 1.0027(4) -0.0050(3) 0.6563(3)
H13B H 0.91650 -0.00350 0.66480
C24B C 1.0851(4) -0.0083(3) 0.7500(3)
H14B H 1.05410 -0.00670 0.82010
Eu1B Eu 0.62016(2) -0.03950(2) -0.09976(2)
N1B N 0.3560(5) -0.2451(5) -0.4897(5)
N2B N 1.3826(3) -0.2731(2) -0.1686(3)
N3B N 0.7216(4) 0.0638(2) -0.2489(3)
O1B O 0.6158(2) -0.13682(15) -0.2389(2)
O2B O 0.7980(2) -0.10754(13) -0.1561(2)
O5B O 0.9669(2) -0.42676(12) -0.4487(2)
O6B O 1.1083(2) -0.34871(12) -0.4877(2)
O7B O 0.6258(4) 0.0272(2) -0.2787(3)
O8B O 0.7791(3) 0.04900(15) -0.1563(3)
O9B O 0.7577(4) 0.11112(19) -0.3086(3)
C1B C 0.4052(5) -0.3011(5) -0.4474(6)
H1B H 0.35590 -0.34170 -0.44400
C2B C 0.5301(4) -0.3037(3) -0.4062(4)
H2B H 0.56380 -0.34570 -0.37620
C3B C 0.6051(4) -0.2432(3) -0.4099(3)
C4B C 0.5518(5) -0.1823(3) -0.4582(4)
H3B H 0.59870 -0.14090 -0.46360
C5B C 0.4250(8) -0.1852(5) -0.4986(5)
H4B H 0.38760 -0.14520 -0.53210
C6B C 0.7405(3) -0.24640(19) -0.3685(3)
C7B C 0.8128(3) -0.30023(19) -0.4124(3)
H5B H 0.77370 -0.33170 -0.46320
C8B C 0.9407(3) -0.30848(17) -0.3830(3)
C9B C 1.0000(3) -0.26180(17) -0.3051(3)
C10B C 0.9277(3) -0.20911(18) -0.2606(3)
H6B H 0.96680 -0.17800 -0.20900
C11B C 0.7997(3) -0.20053(18) -0.2894(3)
C12B C 1.1351(3) -0.26735(18) -0.2630(3)
C13B C 1.1852(4) -0.3302(2) -0.2195(4)
H7B H 1.13770 -0.37170 -0.22230
C14B C 1.3074(4) -0.3299(3) -0.1720(4)
H8B H 1.33920 -0.37190 -0.14040
C15B C 1.3349(4) -0.2140(2) -0.2112(4)
H9B H 1.38570 -0.17380 -0.20950
C16B C 1.2119(4) -0.2085(2) -0.2586(4)
H10B H 1.18190 -0.16540 -0.28710
C17B C 0.7329(3) -0.14485(18) -0.2258(3)
C25B C 1.0109(3) -0.36444(16) -0.4417(3)
Eu1* Eu 1.37984(2) 0.03950(2) 1.09976(2)
Eu1A Eu 0.12016(2) 0.53950(2) 0.40024(2)
Eu1A* Eu 1.12016(2) -0.46050(2) -0.59976(2)
Eu1B* Eu 1.62016(2) -0.03950(2) 0.90024(2)
Eu1C Eu -0.12016(2) 0.46050(2) 0.59976(2)
Eu1C* Eu 0.87984(2) -0.53950(2) -0.40024(2)
O3B* O 0.4123(3) -0.03980(14) -0.1754(2)
O4B* O 0.2707(2) 0.00972(14) -0.0703(2)
O5A O 0.4669(2) -0.07324(12) 0.0513(2)
O5C O 0.5331(2) 0.07324(12) -0.0513(2)
O6A O 0.6083(2) -0.15129(12) 0.0123(2)
O6C O 0.3917(2) 0.15129(12) -0.0123(2)
#END
