
#######################################################################
#
#                 Cambridge Crystallographic Data Centre
#                                CCDC
#
#######################################################################
#
# If this CIF has been generated from an entry in the Cambridge
# Structural Database, then it will include bibliographic, chemical,
# crystal, experimental, refinement or atomic coordinate data resulting
# from the CCDC's data processing and validation procedures.
#
#######################################################################

data_CSD_CIF_FAPLEQ
_audit_creation_date 2017-02-22
_audit_creation_method CSD-ConQuest-V1
_database_code_CSD FAPLEQ
_database_code_depnum_ccdc_archive 'CCDC 1508870'
_chemical_formula_sum 'C50 H34 N6 O20 Tb2'
_chemical_formula_moiety
;
(C50 H28 N6 O18 Tb2 2-)n,2n(H3 O1 1+)
;
_journal_coden_Cambridge 1440
_journal_volume 9
_journal_year 2017
_journal_page_first 1629
_journal_name_full 'ACS Applied Materials and Interfaces '
loop_
_publ_author_name
"Wei Yan"
"Chuanlei Zhang"
"Shuguang Chen"
"Lijuan Han"
"Hegen Zheng"
_chemical_name_systematic
;
catena-[bis(oxonium) 
(\m-(1,1'-biphenyl)-4,4'-dicarboxylato)-bis(\m-2,5-di(pyridin-4-yl)terephthala
to)-bis(nitrato)-di-terbium]
;
_cell_volume   2382.726
_exptl_crystal_colour 'yellow'
_exptl_crystal_density_diffrn 1.891
_exptl_crystal_description 'block'
_diffrn_ambient_temperature 296
#These two values have been output from a single CSD field.
_refine_ls_R_factor_gt 0.0236
_refine_ls_wR_factor_gt 0.0236
_symmetry_cell_setting monoclinic
_symmetry_space_group_name_H-M 'P 21/n'
_symmetry_Int_Tables_number 14
loop_
_symmetry_equiv_pos_site_id
_symmetry_equiv_pos_as_xyz
1 x,y,z
2 1/2-x,1/2+y,1/2-z
3 -x,-y,-z
4 -1/2+x,-1/2-y,-1/2+z
_cell_length_a 10.6273(10)
_cell_length_b 18.7534(17)
_cell_length_c 11.9852(11)
_cell_angle_alpha 90
_cell_angle_beta 94.028(1)
_cell_angle_gamma 90
_cell_formula_units_Z 2
loop_
_atom_type_symbol
_atom_type_radius_bond
C 0.68
H 0.23
N 0.68
O 0.68
Tb 1.94
loop_
_atom_site_label
_atom_site_type_symbol
_atom_site_fract_x
_atom_site_fract_y
_atom_site_fract_z
Tb1 Tb 0.38188(2) 0.03979(2) 0.59967(2)
N1 N 0.6488(4) 0.2490(3) 0.9871(4)
N2 N -0.3795(3) 0.27160(19) 0.6687(3)
N3 N 0.2791(4) -0.06234(17) 0.7482(3)
O1 O 0.2062(2) 0.10741(12) 0.65600(19)
O2 O 0.3878(2) 0.13619(13) 0.7399(2)
O3 O 0.03484(19) 0.42754(10) 0.94914(18)
O4 O -0.1049(2) 0.34850(11) 0.9904(2)
O5 O 0.5870(2) 0.03881(12) 0.6750(2)
O6 O 0.72779(19) -0.01213(12) 0.56947(17)
O7 O 0.3749(4) -0.02638(17) 0.7774(2)
O8 O 0.2224(3) -0.04778(13) 0.6547(2)
O9 O 0.2413(4) -0.10985(17) 0.8079(3)
C1 C -0.3308(3) 0.2120(2) 0.7125(3)
H1 H -0.38130 0.17150 0.71140
C2 C -0.2083(3) 0.20701(17) 0.7598(3)
H2 H -0.17790 0.16380 0.78860
C3 C -0.1315(3) 0.26681(15) 0.7641(3)
C4 C -0.1824(3) 0.32950(18) 0.7197(3)
H3 H -0.13510 0.37130 0.72200
C5 C -0.3046(4) 0.3289(2) 0.6718(4)
H4 H -0.33660 0.37090 0.63980
C6 C 0.0034(3) 0.26144(14) 0.8063(2)
C7 C 0.0761(3) 0.20876(15) 0.7612(2)
H5 H 0.03720 0.17750 0.70930
C8 C 0.2041(3) 0.20049(15) 0.7898(2)
C9 C 0.2631(3) 0.24720(16) 0.8690(3)
C10 C 0.1905(3) 0.30081(15) 0.9135(2)
H6 H 0.22920 0.33240 0.96500
C11 C 0.0625(3) 0.30875(14) 0.8836(2)
C12 C 0.3990(3) 0.2447(2) 0.9100(3)
C13 C 0.4546(4) 0.1840(3) 0.9582(3)
H7 H 0.40960 0.14170 0.96380
C14 C 0.5828(5) 0.1893(3) 0.9982(4)
H8 H 0.62200 0.15010 1.03320
C15 C 0.5978(4) 0.3067(4) 0.9442(4)
H9 H 0.64560 0.34800 0.93940
C16 C 0.4724(3) 0.3063(3) 0.9057(4)
H10 H 0.43590 0.34790 0.87620
C17 C 0.2714(3) 0.14446(15) 0.7260(2)
C18 C -0.0086(3) 0.36450(14) 0.9432(2)
C19 C 0.6939(3) 0.01334(15) 0.6598(2)
C20 C 0.7865(3) 0.01245(16) 0.7589(3)
C21 C 0.7433(3) 0.0153(2) 0.8655(3)
H11 H 0.65750 0.02070 0.87400
C22 C 0.8259(3) 0.0102(2) 0.9585(3)
H12 H 0.79480 0.01100 1.02900
C23 C 0.9553(3) 0.00368(18) 0.9494(3)
C24 C 0.9972(3) 0.0047(2) 0.8430(3)
H13 H 1.08360 0.00360 0.83460
C25 C 0.9146(3) 0.0075(2) 0.7480(3)
H14 H 0.94560 0.00600 0.67730
O10 O 0.8805(3) 0.20219(19) 0.0579(3)
H15? H 0.85940 0.21000 0.12390
H16? H 0.96030 0.19980 0.05820
H17? H 0.84830 0.16300 0.03420
H18? H 0.85370 0.23600 0.01530
O5B O 1.4130(2) -0.03881(12) 1.3250(2)
O6B O 1.27221(19) 0.01213(12) 1.43053(17)
C19B C 1.3061(3) -0.01334(15) 1.3402(2)
C20B C 1.2135(3) -0.01245(16) 1.2411(3)
C21B C 1.2567(3) -0.0153(2) 1.1345(3)
H11B H 1.34250 -0.02070 1.12600
C22B C 1.1741(3) -0.0102(2) 1.0415(3)
H12B H 1.20520 -0.01100 0.97100
C23B C 1.0447(3) -0.00368(18) 1.0506(3)
C24B C 1.0028(3) -0.0047(2) 1.1570(3)
H13B H 0.91640 -0.00360 1.16540
C25B C 1.0854(3) -0.0075(2) 1.2520(3)
H14B H 1.05440 -0.00600 1.32270
Tb1B Tb 0.61812(2) -0.03979(2) 0.40033(2)
N1B N 0.3512(4) -0.2490(3) 0.0129(4)
N2B N 1.3795(3) -0.27160(19) 0.3313(3)
N3B N 0.7209(4) 0.06234(17) 0.2518(3)
O1B O 0.7938(2) -0.10741(12) 0.34400(19)
O2B O 0.6122(2) -0.13619(13) 0.2601(2)
O3B O 0.96516(19) -0.42754(10) 0.05086(18)
O4B O 1.1049(2) -0.34850(11) 0.0096(2)
O7B O 0.6251(4) 0.02638(17) 0.2226(2)
O8B O 0.7776(3) 0.04778(13) 0.3453(2)
O9B O 0.7587(4) 0.10985(17) 0.1921(3)
C1B C 1.3308(3) -0.2120(2) 0.2875(3)
H1B H 1.38130 -0.17150 0.28860
C2B C 1.2083(3) -0.20701(17) 0.2402(3)
H2B H 1.17790 -0.16380 0.21140
C3B C 1.1315(3) -0.26681(15) 0.2359(3)
C4B C 1.1824(3) -0.32950(18) 0.2803(3)
H3B H 1.13510 -0.37130 0.27800
C5B C 1.3046(4) -0.3289(2) 0.3282(4)
H4B H 1.33660 -0.37090 0.36020
C6B C 0.9966(3) -0.26144(14) 0.1937(2)
C7B C 0.9239(3) -0.20876(15) 0.2388(2)
H5B H 0.96280 -0.17750 0.29070
C8B C 0.7959(3) -0.20049(15) 0.2102(2)
C9B C 0.7369(3) -0.24720(16) 0.1310(3)
C10B C 0.8095(3) -0.30081(15) 0.0865(2)
H6B H 0.77080 -0.33240 0.03500
C11B C 0.9375(3) -0.30875(14) 0.1164(2)
C12B C 0.6010(3) -0.2447(2) 0.0900(3)
C13B C 0.5454(4) -0.1840(3) 0.0418(3)
H7B H 0.59040 -0.14170 0.03620
C14B C 0.4172(5) -0.1893(3) 0.0018(4)
H8B H 0.37800 -0.15010 -0.03320
C15B C 0.4022(4) -0.3067(4) 0.0558(4)
H9B H 0.35440 -0.34800 0.06060
C16B C 0.5276(3) -0.3063(3) 0.0943(4)
H10B H 0.56410 -0.34790 0.12380
C17B C 0.7286(3) -0.14446(15) 0.2740(2)
C18B C 1.0086(3) -0.36450(14) 0.0568(2)
Tb1* Tb 1.38188(2) 0.03979(2) 1.59967(2)
Tb1A Tb 0.11812(2) 0.53979(2) 0.90033(2)
Tb1A* Tb 1.11812(2) -0.46021(2) -0.09967(2)
Tb1B* Tb 1.61812(2) -0.03979(2) 1.40033(2)
Tb1C Tb -0.11812(2) 0.46021(2) 1.09967(2)
Tb1C* Tb 0.88188(2) -0.53979(2) 0.09967(2)
O3A O 0.46516(19) -0.07246(10) 0.55086(18)
O3C O 0.53484(19) 0.07246(10) 0.44914(18)
O4A O 0.6049(2) -0.15150(11) 0.5096(2)
O4C O 0.3951(2) 0.15150(11) 0.4904(2)
O5B* O 0.4130(2) -0.03881(12) 0.3250(2)
O6B* O 0.27221(19) 0.01213(12) 0.43053(17)
#END
