
#######################################################################
#
#                 Cambridge Crystallographic Data Centre
#                                CCDC
#
#######################################################################
#
# If this CIF has been generated from an entry in the Cambridge
# Structural Database, then it will include bibliographic, chemical,
# crystal, experimental, refinement or atomic coordinate data resulting
# from the CCDC's data processing and validation procedures.
#
#######################################################################

data_CSD_CIF_FAQBEE
_audit_creation_date 1999-07-19
_audit_creation_method CSD-ConQuest-V1
_database_code_CSD FAQBEE
_chemical_formula_sum 'C21 H34 Cr1 Mn1 N1 O12'
_chemical_formula_moiety
;
(C6 Cr1 Mn1 O12 1-)n,n(C15 H34 N1 1+)
;
_journal_coden_Cambridge 367
_journal_volume 24
_journal_year 1998
_journal_page_first 305
_journal_name_full 'Koord.Khim.(Russ.)(Coord.Chem.) '
loop_
_publ_author_name
"G.V.Shilov"
"L.O.Atovmyan"
"N.S.Ovanesyan"
"A.A.Pyalling"
"L.Bott'yan"
_chemical_name_systematic
;
catena-(Tributylpropylammonium 
tris(\m~2~-oxalato)-chromium(iii)-manganese(ii))
;
_cell_volume   3979.251
_diffrn_ambient_temperature ?
_diffrn_special_details
;
The study was carried out at room temperature,in the range 283-303K

;
_refine_special_details
;
Propyl groups of the cations are disordered over a symmetry centre.

;
#These two values have been output from a single CSD field.
_refine_ls_R_factor_gt 0.0758
_refine_ls_wR_factor_gt 0.0758
_symmetry_cell_setting rhombohedral
_symmetry_space_group_name_H-M 'R 3 c'
_symmetry_Int_Tables_number 161
loop_
_symmetry_equiv_pos_site_id
_symmetry_equiv_pos_as_xyz
1 x,y,z
2 -y,x-y,z
3 -y,-x,1/2+z
4 -x+y,-x,z
5 x,x-y,1/2+z
6 -x+y,y,1/2+z
7 1/3+x,2/3+y,2/3+z
8 1/3-y,2/3+x-y,2/3+z
9 1/3-y,2/3-x,1/6+z
10 1/3-x+y,2/3-x,2/3+z
11 1/3+x,2/3+x-y,1/6+z
12 1/3-x+y,2/3+y,1/6+z
13 2/3+x,1/3+y,1/3+z
14 2/3-y,1/3+x-y,1/3+z
15 2/3-y,1/3-x,5/6+z
16 2/3-x+y,1/3-x,1/3+z
17 2/3+x,1/3+x-y,5/6+z
18 2/3-x+y,1/3+y,5/6+z
_cell_length_a 9.383(2)
_cell_length_b 9.383(2)
_cell_length_c 52.19(1)
_cell_angle_alpha 90
_cell_angle_beta 90
_cell_angle_gamma 120
_cell_formula_units_Z 6
loop_
_atom_type_symbol
_atom_type_radius_bond
C 0.68
Cr 1.35
Mn 1.35
N 0.68
O 0.68
loop_
_atom_site_label
_atom_site_type_symbol
_atom_site_fract_x
_atom_site_fract_y
_atom_site_fract_z
Cr1 Cr 0.00000 0.00000 -0.0003(1)
Mn1 Mn 0.33330 0.66670 -0.0002(1)
O1 O 0.1664(11) 0.1815(11) 0.0208(2)
O2 O 0.0144(11) 0.1831(9) -0.0196(2)
O3 O 0.3076(12) 0.4560(13) 0.0225(2)
O4 O 0.1544(10) 0.4616(10) -0.0217(2)
C1 C 0.2148(14) 0.3254(18) 0.0124(3)
C2 C 0.1267(16) 0.3300(14) -0.0130(2)
N1 N 0.00000 0.00000 0.1028(5)
C3 C 0.00000 0.00000 0.1315(6)
C4 C -0.008(12) 0.073(11) 0.1563(9)
C5 C 0.008(10) 0.0994(93) 0.1848(9)
C6 C 0.1025(36) -0.0417(45) 0.0870(5)
C7 C 0.2764(31) 0.0113(30) 0.0964(6)
C8 C 0.3779(35) -0.0620(42) 0.0850(7)
C9 C 0.5619(38) -0.0081(41) 0.0880(7)
O3A O 0.5440(12) 0.8516(13) 0.0225(2)
C1A C 0.6746(14) 0.8894(18) 0.0124(3)
O1A O 0.8185(11) 0.9849(11) 0.0208(2)
Cr1A Cr 1.00000 1.00000 -0.0003(1)
Mn1A Mn 0.33330 -0.33340 -0.0002(1)
O3C O 0.1484(12) -0.3076(13) 0.0225(2)
C1C C 0.1106(14) -0.2148(18) 0.0124(3)
O1C O 0.0151(11) -0.1664(11) 0.0208(2)
C2C C 0.2033(16) -0.1267(14) -0.0130(2)
O2C O 0.1687(11) -0.0144(9) -0.0196(2)
O1A* O -0.1815(11) -0.0151(11) 0.0208(2)
O2A O -0.1831(11) -0.1687(9) -0.0196(2)
O3C* O 0.1484(12) 0.6924(13) 0.0225(2)
O4C O 0.3072(10) 0.8456(10) -0.0217(2)
O4A O 0.5384(10) 0.6928(10) -0.0217(2)
C2A C 0.6700(16) 0.7967(14) -0.0130(2)
O2A* O 0.8169(11) 0.8313(9) -0.0196(2)
O4C* O 0.3072(10) -0.1544(10) -0.0217(2)
C4A C -0.073(12) -0.081(11) 0.1563(9)
C4C C 0.081(12) 0.008(11) 0.1563(9)
C5A C -0.0994(100) -0.0914(93) 0.1848(9)
C5C C 0.0914(100) -0.0080(93) 0.1848(9)
C6A C 0.0417(36) 0.1442(45) 0.0870(5)
C7A C -0.0113(31) 0.2651(30) 0.0964(6)
C8A C 0.0620(35) 0.4399(42) 0.0850(7)
C9A C 0.0081(38) 0.5700(41) 0.0880(7)
C6C C -0.1442(36) -0.1025(45) 0.0870(5)
C7C C -0.2651(31) -0.2764(30) 0.0964(6)
C8C C -0.4399(35) -0.3779(42) 0.0850(7)
C9C C -0.5700(38) -0.5619(41) 0.0880(7)
#END
