
#######################################################################
#
#                 Cambridge Crystallographic Data Centre
#                                CCDC
#
#######################################################################
#
# If this CIF has been generated from an entry in the Cambridge
# Structural Database, then it will include bibliographic, chemical,
# crystal, experimental, refinement or atomic coordinate data resulting
# from the CCDC's data processing and validation procedures.
#
#######################################################################

data_CSD_CIF_FAQBOO
_audit_creation_date 1999-07-19
_audit_creation_method CSD-ConQuest-V1
_database_code_CSD FAQBOO
_chemical_formula_sum 'C28 H24 Cr1 Mn1 O12 P1'
_chemical_formula_moiety
;
(C6 Cr1 Mn1 O12 1-)n,n(C22 H24 P1 1+)
;
_journal_coden_Cambridge 367
_journal_volume 24
_journal_year 1998
_journal_page_first 305
_journal_name_full 'Koord.Khim.(Russ.)(Coord.Chem.) '
loop_
_publ_author_name
"G.V.Shilov"
"L.O.Atovmyan"
"N.S.Ovanesyan"
"A.A.Pyalling"
"L.Bott'yan"
_chemical_name_systematic
;
catena-(Butyltriphenylphosphonium 
tris(\m~2~-oxalato)-chromium(iii)-manganese(ii))
;
_cell_volume   4407.311
_exptl_crystal_density_diffrn 1.56
_diffrn_ambient_temperature ?
_diffrn_special_details
;
The study was carried out at room temperature,in the range 283-303K

;
_refine_special_details
;
The butyl group of the cation is disordered over a symmetry centre.

;
#These two values have been output from a single CSD field.
_refine_ls_R_factor_gt 0.084
_refine_ls_wR_factor_gt 0.084
_symmetry_cell_setting rhombohedral
_symmetry_space_group_name_H-M 'R 3 c'
_symmetry_Int_Tables_number 161
loop_
_symmetry_equiv_pos_site_id
_symmetry_equiv_pos_as_xyz
1 x,y,z
2 -y,x-y,z
3 -y,-x,1/2+z
4 -x+y,-x,z
5 x,x-y,1/2+z
6 -x+y,y,1/2+z
7 1/3+x,2/3+y,2/3+z
8 1/3-y,2/3+x-y,2/3+z
9 1/3-y,2/3-x,1/6+z
10 1/3-x+y,2/3-x,2/3+z
11 1/3+x,2/3+x-y,1/6+z
12 1/3-x+y,2/3+y,1/6+z
13 2/3+x,1/3+y,1/3+z
14 2/3-y,1/3+x-y,1/3+z
15 2/3-y,1/3-x,5/6+z
16 2/3-x+y,1/3-x,1/3+z
17 2/3+x,1/3+x-y,5/6+z
18 2/3-x+y,1/3+y,5/6+z
_cell_length_a 9.372(5)
_cell_length_b 9.372(5)
_cell_length_c 57.94(7)
_cell_angle_alpha 90
_cell_angle_beta 90
_cell_angle_gamma 120
_cell_formula_units_Z 6
loop_
_atom_type_symbol
_atom_type_radius_bond
C 0.68
Cr 1.35
Mn 1.35
O 0.68
P 1.05
loop_
_atom_site_label
_atom_site_type_symbol
_atom_site_fract_x
_atom_site_fract_y
_atom_site_fract_z
Cr1 Cr 0.00000 0.00000 0.0001(1)
Mn1 Mn 0.33330 0.66660 -0.0001(1)
O1 O 0.1783(15) 0.1995(16) 0.0197(2)
O2 O 0.0185(19) 0.1962(16) -0.0185(2)
O3 O 0.3156(17) 0.4703(19) 0.0189(3)
O4 O 0.1628(19) 0.4702(22) -0.0189(2)
C1 C 0.2135(17) 0.3428(18) 0.0112(4)
C2 C 0.1279(25) 0.3481(29) -0.0105(3)
P1 P 0.00000 0.00000 0.1032(6)
C3 C 0.00000 0.00000 0.1330(5)
C4 C -0.028(14) 0.070(13) 0.1528(7)
C5 C 0.00000 0.00000 0.1731(9)
C6 C -0.1171(65) 0.0218(75) 0.1861(8)
C7 C -0.1804(27) -0.1790(26) 0.0928(4)
C8 C -0.1875(57) -0.2161(56) 0.0698(6)
C9 C -0.3205(50) -0.3612(54) 0.0607(7)
C10 C -0.4697(42) -0.4480(44) 0.0736(6)
C11 C -0.4754(62) -0.3866(59) 0.0950(7)
C12 C -0.3310(48) -0.2522(75) 0.1046(9)
O3A O 0.5297(17) 0.8453(19) 0.0189(3)
C1A C 0.6572(17) 0.8707(18) 0.0112(4)
O1A O 0.8005(15) 0.9788(16) 0.0197(2)
Cr1A Cr 1.00000 1.00000 0.0001(1)
Mn1A Mn 0.33340 -0.33330 -0.0001(1)
O3C O 0.1547(17) -0.3156(19) 0.0189(3)
C1C C 0.1293(17) -0.2135(18) 0.0112(4)
O1C O 0.0212(15) -0.1783(16) 0.0197(2)
C2C C 0.2202(25) -0.1279(29) -0.0105(3)
O2C O 0.1777(19) -0.0185(16) -0.0185(2)
O1A* O -0.1995(15) -0.0212(16) 0.0197(2)
O2A O -0.1962(19) -0.1777(16) -0.0185(2)
O3C* O 0.1547(17) 0.6844(19) 0.0189(3)
O4C O 0.3074(19) 0.8372(22) -0.0189(2)
O4A O 0.5298(19) 0.6926(22) -0.0189(2)
C2A C 0.6519(25) 0.7798(29) -0.0105(3)
O2A* O 0.8038(19) 0.8223(16) -0.0185(2)
O4C* O 0.3074(19) -0.1628(22) -0.0189(2)
C4A C -0.070(14) -0.098(13) 0.1528(7)
C4C C 0.098(14) 0.028(13) 0.1528(7)
C6A C -0.0218(65) -0.1389(75) 0.1861(8)
C6C C 0.1389(65) 0.1171(75) 0.1861(8)
C7A C 0.1790(27) -0.0014(26) 0.0928(4)
C8A C 0.2161(57) 0.0286(56) 0.0698(6)
C9A C 0.3612(50) 0.0407(54) 0.0607(7)
C10A C 0.4480(42) -0.0217(44) 0.0736(6)
C11A C 0.3866(62) -0.0888(59) 0.0950(7)
C12A C 0.2522(48) -0.0788(75) 0.1046(9)
C7C C 0.0014(27) 0.1804(26) 0.0928(4)
C8C C -0.0286(57) 0.1875(56) 0.0698(6)
C9C C -0.0407(50) 0.3205(54) 0.0607(7)
C10C C 0.0217(42) 0.4697(44) 0.0736(6)
C11C C 0.0888(62) 0.4754(59) 0.0950(7)
C12C C 0.0788(48) 0.3310(75) 0.1046(9)
#END
