
#######################################################################
#
#                 Cambridge Crystallographic Data Centre
#                                CCDC
#
#######################################################################
#
# If this CIF has been generated from an entry in the Cambridge
# Structural Database, then it will include bibliographic, chemical,
# crystal, experimental, refinement or atomic coordinate data resulting
# from the CCDC's data processing and validation procedures.
#
#######################################################################

data_CSD_CIF_FARBOS
_audit_creation_date 2017-02-23
_audit_creation_method CSD-ConQuest-V1
_database_code_CSD FARBOS
_database_code_depnum_ccdc_archive 'CCDC 1431891'
_chemical_formula_sum 'C43 H49 N4 O27 P2 Zn4'
_chemical_formula_moiety
;
(C16 H6 O10 P1 Zn2 1-)n,n(C2 H8 N1 1+),3n(C3 H7 N1 O1),4n(H2 O1),n(C16 H6 O10 
P1 Zn2)
;
_journal_coden_Cambridge 1440
_journal_volume 8
_journal_year 2016
_journal_page_first 9777
_journal_name_full 'ACS Applied Materials and Interfaces '
loop_
_publ_author_name
"Lan Li"
"Xusheng Wang"
"Jun Liang"
"Yuan-Biao Huang"
"Hongfang Li"
"Zu-Jin Lin"
"Rong Cao"
_chemical_name_systematic
;
catena-(dimethylammonium 
bis((\m-5,5'-(oxyphosphoryl)di-isophthalato)-di-zinc) dimethylformamide 
solvate tetrahydrate)
;
_chemical_name_common
;
FJI-C4
;
_cell_volume   2920.676
_exptl_crystal_colour 'colorless'
_exptl_crystal_description 'rod'
_diffrn_ambient_temperature 173
_refine_special_details
;
The SQUEEZE/PLATON program was used to model the cation and solvent 
;
#These two values have been output from a single CSD field.
_refine_ls_R_factor_gt 0.0324
_refine_ls_wR_factor_gt 0.0324
_symmetry_cell_setting orthorhombic
_symmetry_space_group_name_H-M 'P b c n'
_symmetry_Int_Tables_number 60
loop_
_symmetry_equiv_pos_site_id
_symmetry_equiv_pos_as_xyz
1 x,y,z
2 1/2-x,1/2-y,1/2+z
3 1/2+x,1/2-y,-z
4 -x,y,1/2-z
5 -x,-y,-z
6 -1/2+x,-1/2+y,-1/2-z
7 -1/2-x,-1/2+y,z
8 x,-y,-1/2+z
_cell_length_a 10.7239(3)
_cell_length_b 15.3597(3)
_cell_length_c 17.7316(3)
_cell_angle_alpha 90
_cell_angle_beta 90
_cell_angle_gamma 90
_cell_formula_units_Z 2
loop_
_atom_type_symbol
_atom_type_radius_bond
C 0.68
H 0.23
O 0.68
P 1.05
Zn 1.22
loop_
_atom_site_label
_atom_site_type_symbol
_atom_site_fract_x
_atom_site_fract_y
_atom_site_fract_z
Zn1 Zn 0.42798(3) 0.650197(19) 0.842661(14)
P1 P 0.00000 0.98466(5) 0.75000
O1 O -0.09269(16) 1.03624(11) 0.70388(9)
O2 O 0.0158(2) 0.90007(13) 0.45768(9)
O3 O 0.3376(2) 0.73382(12) 0.77744(9)
O4 O 0.40308(19) 0.69904(14) 0.66143(9)
O5 O 0.1803(2) 0.82279(15) 0.43673(9)
C1 C 0.1103(3) 0.86166(16) 0.48113(13)
C2 C 0.2430(2) 0.80216(15) 0.67338(12)
C3 C 0.3356(3) 0.73993(16) 0.70675(12)
C4 C 0.1372(3) 0.86137(15) 0.56458(12)
C5 C 0.2260(3) 0.80540(15) 0.59500(12)
H1 H 0.27490 0.76960 0.56280
C6 C 0.0870(2) 0.91396(15) 0.68903(12)
C7 C 0.1728(2) 0.85601(15) 0.71964(11)
H2 H 0.18340 0.85330 0.77280
C8 C 0.0686(2) 0.91564(15) 0.61101(12)
H3 H 0.00870 0.95410 0.58980
O1C O 0.09269(16) 1.03624(11) 0.79612(9)
O2C O -0.0158(2) 0.90007(13) 1.04232(9)
O3C O -0.3376(2) 0.73382(12) 0.72256(9)
O4C O -0.40308(19) 0.69904(14) 0.83857(9)
O5C O -0.1803(2) 0.82279(15) 1.06327(9)
C1C C -0.1103(3) 0.86166(16) 1.01887(13)
C2C C -0.2430(2) 0.80216(15) 0.82662(12)
C3C C -0.3356(3) 0.73993(16) 0.79325(12)
C4C C -0.1372(3) 0.86137(15) 0.93542(12)
C5C C -0.2260(3) 0.80540(15) 0.90500(12)
H1C H -0.27490 0.76960 0.93720
C6C C -0.0870(2) 0.91396(15) 0.81097(12)
C7C C -0.1728(2) 0.85601(15) 0.78036(11)
H2C H -0.18340 0.85330 0.72720
C8C C -0.0686(2) 0.91564(15) 0.88899(12)
H3C H -0.00870 0.95410 0.91020
Zn1C Zn -0.42798(3) 0.650197(19) 0.657339(14)
Zn1* Zn -0.57202(3) 0.650197(19) 0.842661(14)
Zn1A Zn 0.07202(3) 0.849803(19) 0.342661(14)
Zn1B Zn -0.07202(3) 0.849803(19) 1.157339(14)
Zn1C* Zn 0.57202(3) 0.650197(19) 0.657339(14)
Zn1E Zn -0.07202(3) 1.150197(19) 0.657339(14)
Zn1F Zn 0.07202(3) 1.150197(19) 0.842661(14)
O1E O 0.40731(16) 0.53624(11) 0.79612(9)
O1F O -0.40731(16) 0.53624(11) 0.70388(9)
O2A O 0.4842(2) 0.59993(13) 0.95768(9)
O2B O -0.4842(2) 0.59993(13) 0.54232(9)
O4* O -0.59692(19) 0.69904(14) 0.66143(9)
O4C* O 0.59692(19) 0.69904(14) 0.83857(9)
O5A O 0.3197(2) 0.67721(15) 0.93673(9)
O5B O -0.3197(2) 0.67721(15) 0.56327(9)
#END
