
#######################################################################
#
#                 Cambridge Crystallographic Data Centre
#                                CCDC
#
#######################################################################
#
# If this CIF has been generated from an entry in the Cambridge
# Structural Database, then it will include bibliographic, chemical,
# crystal, experimental, refinement or atomic coordinate data resulting
# from the CCDC's data processing and validation procedures.
#
#######################################################################

data_CSD_CIF_FARGIQ
_audit_creation_date 2013-04-25
_audit_creation_method CSD-ConQuest-V1
_database_code_CSD FARGIQ
_database_code_depnum_ccdc_archive 'CCDC 835032'
_chemical_formula_sum 'C160 H128 K12 N4 O78 Pb12'
_chemical_formula_moiety
;
(C144 H72 O72 Pb12 12-)n,12n(K1 1+),2n(H2 O1),4n(C4 H12 N1 1+),4n(H1 O1 1-)
;
_journal_coden_Cambridge 1350
_journal_volume 14
_journal_year 2012
_journal_page_first 936
_journal_name_full 'CrystEngComm '
loop_
_publ_author_name
"Xian-Qiang Li"
"Hua-Bin Zhang"
"Shu-Ting Wu"
"Jian-Di Lin"
"Ping Lin"
"Zhi-Hua Li"
"Shao-Wu Du"
_chemical_name_systematic
;
catena-(dodecakis(\m~4~-1,3-benzenedicarboxylato)-hexakis(\m~2~-1,3-benzenedic
arboxylato)-dodeca-lead dodeca-potassium tetrakis(tetramethylammonium) 
tetrahydroxide dihydrate)
;
_cell_volume   5294.739
_exptl_crystal_colour 'colorless'
_exptl_crystal_density_diffrn 1.979
_exptl_special_details
;
The paper describes a number of bonds involving the K atoms which have not 
been represented in the 2D diagram, due to the size and complexity of the 
structure
;
_exptl_crystal_description 'prism'
_diffrn_ambient_temperature 293
_refine_special_details
;
O6W disordered by symmetry over two sites with occupancy 0.50.

;
#These two values have been output from a single CSD field.
_refine_ls_R_factor_gt 0.0366
_refine_ls_wR_factor_gt 0.0366
_symmetry_cell_setting hexagonal
_symmetry_space_group_name_H-M 'P 63/m m c'
_symmetry_Int_Tables_number 194
loop_
_symmetry_equiv_pos_site_id
_symmetry_equiv_pos_as_xyz
1 x,y,z
2 x-y,x,1/2+z
3 -y,x-y,z
4 -x,-y,1/2+z
5 -x+y,-x,z
6 y,-x+y,1/2+z
7 -y,-x,1/2-z
8 x-y,-y,-z
9 x,x-y,1/2-z
10 y,x,-z
11 -x+y,y,1/2-z
12 -x,-x+y,-z
13 -x,-y,-z
14 -x+y,-x,-1/2-z
15 y,-x+y,-z
16 x,y,-1/2-z
17 x-y,x,-z
18 -y,x-y,-1/2-z
19 y,x,-1/2+z
20 -x+y,y,z
21 -x,-x+y,-1/2+z
22 -y,-x,z
23 x-y,-y,-1/2+z
24 x,x-y,z
_cell_length_a 15.8708(6)
_cell_length_b 15.8708(6)
_cell_length_c 24.2726(16)
_cell_angle_alpha 90
_cell_angle_beta 90
_cell_angle_gamma 120
_cell_formula_units_Z 1
loop_
_atom_type_symbol
_atom_type_radius_bond
C 0.68
H 0.23
K 0.87
N 0.68
O 0.79
Pb 1.81
loop_
_atom_site_label
_atom_site_type_symbol
_atom_site_fract_x
_atom_site_fract_y
_atom_site_fract_z
Pb1 Pb -0.859665(23) -0.140335(12) 0.024143(14)
K1 K -0.9115(2) -0.82300(23) -0.13826(13)
O1 O -0.7081(4) -0.1121(3) -0.00769(19)
O2 O -0.7483(6) -0.0441(4) -0.0751(2)
O3 O -0.8144(7) -0.1856(5) 0.1038(3)
O4 O -0.8883(5) -0.1117(5) 0.1440(3)
O5 O -1.00000 -1.00000 -0.2068(12)
O6? O 0.00000 0.00000 0.530(2)
N1 N -0.66670 -0.33330 0.4499(6)
C1 C -0.6927(7) -0.0690(5) -0.0540(3)
C2 C -0.8431(12) -0.1569(8) 0.1454(4)
C3 C -0.5341(4) -0.0682(3) -0.0580(4)
H1 H -0.54850 -0.09700 -0.02330
C4 C -0.6002(7) -0.0474(5) -0.0831(3)
C5 C -0.5770(8) -0.0033(6) -0.1350(3)
H2 H -0.62030 0.01110 -0.15260
C6 C -0.4906(7) 0.0188(5) -0.1602(4)
H3 H -0.47540 0.04920 -0.19440
C7 C -0.8438(12) -0.1563(11) 0.25000
H4 H -0.87760 -0.12240 0.25000
C8 C -0.8171(11) -0.1830(7) 0.2000(4)
C9 C -0.7674(13) -0.2327(9) 0.2010(5)
H5 H -0.75000 -0.25000 0.16810
C10 C -0.7430(18) -0.2569(16) 0.25000
H6 H -0.70920 -0.29080 0.25000
C11 C -0.66670 -0.33330 0.5113(8)
H7 H -0.69960 -0.39920 0.52450
C12 C -0.6149(8) -0.3851(4) 0.4300(4)
H8 H -0.61430 -0.38530 0.39040
H9 H -0.54910 -0.35190 0.44330
Pb1D Pb -0.280670(23) -0.140335(12) 0.024143(14)
Pb1B Pb -0.859665(23) -0.719330(12) 0.024143(14)
Pb1G Pb -0.719330(23) 0.140335(12) -0.024143(14)
Pb1I Pb -0.140335(23) 0.140335(12) -0.024143(14)
Pb1K Pb -1.140335(23) -0.280670(12) -0.024143(14)
Pb1I* Pb -1.140335(23) -0.859665(12) -0.024143(14)
Pb1F Pb -0.859665(23) -0.140335(12) 0.475857(14)
Pb1K* Pb -0.140335(23) -0.280670(12) -0.024143(14)
Pb1G* Pb -0.719330(23) -0.859665(12) -0.024143(14)
Pb1K** Pb -0.140335(23) 0.719330(12) -0.024143(14)
Pb1B* Pb -0.859665(23) 0.280670(12) 0.024143(14)
Pb1J Pb -0.280670(23) -0.140335(12) 0.475857(14)
Pb1H Pb -0.859665(23) -0.719330(12) 0.475857(14)
Pb1A Pb -0.719330(23) 0.140335(12) -0.475857(14)
Pb1D* Pb -0.280670(23) 0.859665(12) 0.024143(14)
Pb1C Pb -0.140335(23) 0.140335(12) -0.475857(14)
Pb1B** Pb 0.140335(23) 0.280670(12) 0.024143(14)
Pb1* Pb 0.140335(23) 0.859665(12) 0.024143(14)
Pb1E Pb -1.140335(23) -0.280670(12) -0.475857(14)
Pb1D** Pb -1.280670(23) -0.140335(12) 0.024143(14)
Pb1G** Pb -1.719330(23) -0.859665(12) -0.024143(14)
Pb1B*** Pb -1.859665(23) -0.719330(12) 0.024143(14)
O1S O -0.4040(4) -0.1121(3) -0.00769(19)
O1U O -0.8879(4) -0.2919(3) -0.00769(19)
O1B O -0.8879(4) -0.5960(3) -0.00769(19)
O1G O -0.5960(4) 0.1121(3) 0.00769(19)
O1L O -0.2919(4) 0.1121(3) 0.00769(19)
O1N O -1.1121(4) -0.4040(3) 0.00769(19)
O1I O -1.1121(4) -0.7081(3) 0.00769(19)
O1D O -0.4040(4) -0.2919(3) -0.00769(19)
O1W O -0.7081(4) -0.5960(3) -0.00769(19)
O1K O -0.2919(4) -0.4040(3) 0.00769(19)
O1P O -0.5960(4) -0.7081(3) 0.00769(19)
O1P* O -0.5960(4) 0.2919(3) 0.00769(19)
O1K* O -0.2919(4) 0.5960(3) 0.00769(19)
O1W* O -0.7081(4) 0.4040(3) -0.00769(19)
O1D* O -0.4040(4) 0.7081(3) -0.00769(19)
O1I* O -0.1121(4) 0.2919(3) 0.00769(19)
O1N* O -0.1121(4) 0.5960(3) 0.00769(19)
O1B* O 0.1121(4) 0.4040(3) -0.00769(19)
O1U* O 0.1121(4) 0.7081(3) -0.00769(19)
O1K** O -1.2919(4) -0.4040(3) 0.00769(19)
O1P** O -1.5960(4) -0.7081(3) 0.00769(19)
O1D** O -1.4040(4) -0.2919(3) -0.00769(19)
O1W** O -1.7081(4) -0.5960(3) -0.00769(19)
O1L* O -1.2919(4) -0.8879(3) 0.00769(19)
O1F O -0.8879(4) -0.2919(3) 0.50769(19)
O1O O -0.7081(4) -0.1121(3) 0.50769(19)
O1N** O -0.1121(4) -0.4040(3) 0.00769(19)
O1G* O -0.5960(4) -0.8879(3) 0.00769(19)
O1B** O -0.8879(4) 0.4040(3) -0.00769(19)
O2S O -0.2958(6) -0.0441(4) -0.0751(2)
O2U O -0.9559(6) -0.2517(4) -0.0751(2)
O2B O -0.9559(6) -0.7042(4) -0.0751(2)
O2G O -0.7042(6) 0.0441(4) 0.0751(2)
O2L O -0.2517(6) 0.0441(4) 0.0751(2)
O2N O -1.0441(6) -0.2958(4) 0.0751(2)
O2I O -1.0441(6) -0.7483(4) 0.0751(2)
O2D O -0.2958(6) -0.2517(4) -0.0751(2)
O2W O -0.7483(6) -0.7042(4) -0.0751(2)
O2K O -0.2517(6) -0.2958(4) 0.0751(2)
O2P O -0.7042(6) -0.7483(4) 0.0751(2)
O2P* O -0.7042(6) 0.2517(4) 0.0751(2)
O2K* O -0.2517(6) 0.7042(4) 0.0751(2)
O2W* O -0.7483(6) 0.2958(4) -0.0751(2)
O2D* O -0.2958(6) 0.7483(4) -0.0751(2)
O2I* O -0.0441(6) 0.2517(4) 0.0751(2)
O2N* O -0.0441(6) 0.7042(4) 0.0751(2)
O2B* O 0.0441(6) 0.2958(4) -0.0751(2)
O2U* O 0.0441(6) 0.7483(4) -0.0751(2)
O2K** O -1.2517(6) -0.2958(4) 0.0751(2)
O2P** O -1.7042(6) -0.7483(4) 0.0751(2)
O2D** O -1.2958(6) -0.2517(4) -0.0751(2)
O2W** O -1.7483(6) -0.7042(4) -0.0751(2)
O2S* O -1.2958(6) -1.0441(4) -0.0751(2)
O2L* O -1.2517(6) -0.9559(4) 0.0751(2)
O2F O -0.9559(6) -0.2517(4) 0.5751(2)
O2E O -1.0441(6) -0.2958(4) 0.4249(2)
O2V O -0.7042(6) 0.0441(4) 0.4249(2)
O2O O -0.7483(6) -0.0441(4) 0.5751(2)
O2U** O 0.0441(6) -0.2517(4) -0.0751(2)
O2N** O -0.0441(6) -0.2958(4) 0.0751(2)
O2* O -0.7483(6) -1.0441(4) -0.0751(2)
O2G* O -0.7042(6) -0.9559(4) 0.0751(2)
O2I** O -1.0441(6) 0.2517(4) 0.0751(2)
O2B** O -0.9559(6) 0.2958(4) -0.0751(2)
O3F O -0.8144(7) -0.1856(5) 0.3962(3)
O3D O -0.3712(7) -0.1856(5) 0.1038(3)
O3J O -0.3712(7) -0.1856(5) 0.3962(3)
O3B O -0.8144(7) -0.6288(5) 0.1038(3)
O3H O -0.8144(7) -0.6288(5) 0.3962(3)
O3G O -0.6288(7) 0.1856(5) -0.1038(3)
O3A O -0.6288(7) 0.1856(5) -0.3962(3)
O3I O -0.1856(7) 0.1856(5) -0.1038(3)
O3C O -0.1856(7) 0.1856(5) -0.3962(3)
O3K O -1.1856(7) -0.3712(5) -0.1038(3)
O3E O -1.1856(7) -0.3712(5) -0.3962(3)
O3I* O -1.1856(7) -0.8144(5) -0.1038(3)
O3K* O -0.1856(7) -0.3712(5) -0.1038(3)
O3G* O -0.6288(7) -0.8144(5) -0.1038(3)
O3K** O -0.1856(7) 0.6288(5) -0.1038(3)
O3B* O -0.8144(7) 0.3712(5) 0.1038(3)
O4F O -0.8883(5) -0.1117(5) 0.3560(3)
O4D O -0.2234(5) -0.1117(5) 0.1440(3)
O4J O -0.2234(5) -0.1117(5) 0.3560(3)
O4B O -0.8883(5) -0.7766(5) 0.1440(3)
O4H O -0.8883(5) -0.7766(5) 0.3560(3)
O4G O -0.7766(5) 0.1117(5) -0.1440(3)
O4A O -0.7766(5) 0.1117(5) -0.3560(3)
O4I O -0.1117(5) 0.1117(5) -0.1440(3)
O4C O -0.1117(5) 0.1117(5) -0.3560(3)
O4K O -1.1117(5) -0.2234(5) -0.1440(3)
O4E O -1.1117(5) -0.2234(5) -0.3560(3)
C1S C -0.3763(7) -0.0690(5) -0.0540(3)
C1U C -0.9310(7) -0.3073(5) -0.0540(3)
C1B C -0.9310(7) -0.6237(5) -0.0540(3)
C1G C -0.6237(7) 0.0690(5) 0.0540(3)
C1L C -0.3073(7) 0.0690(5) 0.0540(3)
C1N C -1.0690(7) -0.3763(5) 0.0540(3)
C1I C -1.0690(7) -0.6927(5) 0.0540(3)
C1D C -0.3763(7) -0.3073(5) -0.0540(3)
C1W C -0.6927(7) -0.6237(5) -0.0540(3)
C1K C -0.3073(7) -0.3763(5) 0.0540(3)
C1P C -0.6237(7) -0.6927(5) 0.0540(3)
C1P* C -0.6237(7) 0.3073(5) 0.0540(3)
C1K* C -0.3073(7) 0.6237(5) 0.0540(3)
C1W* C -0.6927(7) 0.3763(5) -0.0540(3)
C1D* C -0.3763(7) 0.6927(5) -0.0540(3)
C1I* C -0.0690(7) 0.3073(5) 0.0540(3)
C1N* C -0.0690(7) 0.6237(5) 0.0540(3)
C1B* C 0.0690(7) 0.3763(5) -0.0540(3)
C1U* C 0.0690(7) 0.6927(5) -0.0540(3)
C1K** C -1.3073(7) -0.3763(5) 0.0540(3)
C1P** C -1.6237(7) -0.6927(5) 0.0540(3)
C1D** C -1.3763(7) -0.3073(5) -0.0540(3)
C1W** C -1.6927(7) -0.6237(5) -0.0540(3)
C2F C -0.8431(12) -0.1569(8) 0.3546(4)
C2D C -0.3138(12) -0.1569(8) 0.1454(4)
C2J C -0.3138(12) -0.1569(8) 0.3546(4)
C2B C -0.8431(12) -0.6862(8) 0.1454(4)
C2H C -0.8431(12) -0.6862(8) 0.3546(4)
C2G C -0.6862(12) 0.1569(8) -0.1454(4)
C2A C -0.6862(12) 0.1569(8) -0.3546(4)
C2I C -0.1569(12) 0.1569(8) -0.1454(4)
C2C C -0.1569(12) 0.1569(8) -0.3546(4)
C2K C -1.1569(12) -0.3138(8) -0.1454(4)
C2E C -1.1569(12) -0.3138(8) -0.3546(4)
C3B C -0.9318(4) -0.4659(3) -0.0580(4)
C3G C -0.4659(4) 0.0682(3) 0.0580(4)
C3I C -1.0682(4) -0.5341(3) 0.0580(4)
C3D C -0.5341(4) -0.4659(3) -0.0580(4)
C3K C -0.4659(4) -0.5341(3) 0.0580(4)
C3K* C -0.4659(4) 0.4659(3) 0.0580(4)
C3D* C -0.5341(4) 0.5341(3) -0.0580(4)
C3I* C -0.0682(4) 0.4659(3) 0.0580(4)
C3B* C 0.0682(4) 0.5341(3) -0.0580(4)
C3K** C -1.4659(4) -0.5341(3) 0.0580(4)
C3D** C -1.5341(4) -0.4659(3) -0.0580(4)
H1B H -0.90300 -0.45150 -0.02330
H1G H -0.45150 0.09700 0.02330
H1I H -1.09700 -0.54850 0.02330
H1D H -0.54850 -0.45150 -0.02330
H1K H -0.45150 -0.54850 0.02330
H1K* H -0.45150 0.45150 0.02330
H1D* H -0.54850 0.54850 -0.02330
H1I* H -0.09700 0.45150 0.02330
H1B* H 0.09700 0.54850 -0.02330
H1K** H -1.45150 -0.54850 0.02330
H1D** H -1.54850 -0.45150 -0.02330
C4S C -0.4472(7) -0.0474(5) -0.0831(3)
C4U C -0.9526(7) -0.3998(5) -0.0831(3)
C4B C -0.9526(7) -0.5528(5) -0.0831(3)
C4G C -0.5528(7) 0.0474(5) 0.0831(3)
C4L C -0.3998(7) 0.0474(5) 0.0831(3)
C4N C -1.0474(7) -0.4472(5) 0.0831(3)
C4I C -1.0474(7) -0.6002(5) 0.0831(3)
C4D C -0.4472(7) -0.3998(5) -0.0831(3)
C4W C -0.6002(7) -0.5528(5) -0.0831(3)
C4K C -0.3998(7) -0.4472(5) 0.0831(3)
C4P C -0.5528(7) -0.6002(5) 0.0831(3)
C4P* C -0.5528(7) 0.3998(5) 0.0831(3)
C4K* C -0.3998(7) 0.5528(5) 0.0831(3)
C4W* C -0.6002(7) 0.4472(5) -0.0831(3)
C4D* C -0.4472(7) 0.6002(5) -0.0831(3)
C4I* C -0.0474(7) 0.3998(5) 0.0831(3)
C4N* C -0.0474(7) 0.5528(5) 0.0831(3)
C4B* C 0.0474(7) 0.4472(5) -0.0831(3)
C4U* C 0.0474(7) 0.6002(5) -0.0831(3)
C4K** C -1.3998(7) -0.4472(5) 0.0831(3)
C4P** C -1.5528(7) -0.6002(5) 0.0831(3)
C4D** C -1.4472(7) -0.3998(5) -0.0831(3)
C4W** C -1.6002(7) -0.5528(5) -0.0831(3)
C5S C -0.4263(8) -0.0033(6) -0.1350(3)
C5U C -0.9967(8) -0.4230(6) -0.1350(3)
C5B C -0.9967(8) -0.5737(6) -0.1350(3)
C5G C -0.5737(8) 0.0033(6) 0.1350(3)
C5L C -0.4230(8) 0.0033(6) 0.1350(3)
C5N C -1.0033(8) -0.4263(6) 0.1350(3)
C5I C -1.0033(8) -0.5770(6) 0.1350(3)
C5D C -0.4263(8) -0.4230(6) -0.1350(3)
C5W C -0.5770(8) -0.5737(6) -0.1350(3)
C5K C -0.4230(8) -0.4263(6) 0.1350(3)
C5P C -0.5737(8) -0.5770(6) 0.1350(3)
C5P* C -0.5737(8) 0.4230(6) 0.1350(3)
C5K* C -0.4230(8) 0.5737(6) 0.1350(3)
C5W* C -0.5770(8) 0.4263(6) -0.1350(3)
C5D* C -0.4263(8) 0.5770(6) -0.1350(3)
C5I* C -0.0033(8) 0.4230(6) 0.1350(3)
C5N* C -0.0033(8) 0.5737(6) 0.1350(3)
C5B* C 0.0033(8) 0.4263(6) -0.1350(3)
C5U* C 0.0033(8) 0.5770(6) -0.1350(3)
C5K** C -1.4230(8) -0.4263(6) 0.1350(3)
C5P** C -1.5737(8) -0.5770(6) 0.1350(3)
C5D** C -1.4263(8) -0.4230(6) -0.1350(3)
C5W** C -1.5770(8) -0.5737(6) -0.1350(3)
H2S H -0.36860 0.01110 -0.15260
H2U H -1.01110 -0.37970 -0.15260
H2B H -1.01110 -0.63140 -0.15260
H2G H -0.63140 -0.01110 0.15260
H2L H -0.37970 -0.01110 0.15260
H2N H -0.98890 -0.36860 0.15260
H2I H -0.98890 -0.62030 0.15260
H2D H -0.36860 -0.37970 -0.15260
H2W H -0.62030 -0.63140 -0.15260
H2K H -0.37970 -0.36860 0.15260
H2P H -0.63140 -0.62030 0.15260
H2P* H -0.63140 0.37970 0.15260
H2K* H -0.37970 0.63140 0.15260
H2W* H -0.62030 0.36860 -0.15260
H2D* H -0.36860 0.62030 -0.15260
H2I* H 0.01110 0.37970 0.15260
H2N* H 0.01110 0.63140 0.15260
H2B* H -0.01110 0.36860 -0.15260
H2U* H -0.01110 0.62030 -0.15260
H2K** H -1.37970 -0.36860 0.15260
H2P** H -1.63140 -0.62030 0.15260
H2D** H -1.36860 -0.37970 -0.15260
H2W** H -1.62030 -0.63140 -0.15260
C6B C -1.0188(7) -0.5094(5) -0.1602(4)
C6G C -0.5094(7) -0.0188(5) 0.1602(4)
C6I C -0.9812(7) -0.4906(5) 0.1602(4)
C6D C -0.4906(7) -0.5094(5) -0.1602(4)
C6K C -0.5094(7) -0.4906(5) 0.1602(4)
C6K* C -0.5094(7) 0.5094(5) 0.1602(4)
C6D* C -0.4906(7) 0.4906(5) -0.1602(4)
C6I* C 0.0188(7) 0.5094(5) 0.1602(4)
C6B* C -0.0188(7) 0.4906(5) -0.1602(4)
C6K** C -1.5094(7) -0.4906(5) 0.1602(4)
C6D** C -1.4906(7) -0.5094(5) -0.1602(4)
H3B H -1.04920 -0.52460 -0.19440
H3G H -0.52460 -0.04920 0.19440
H3I H -0.95080 -0.47540 0.19440
H3D H -0.47540 -0.52460 -0.19440
H3K H -0.52460 -0.47540 0.19440
H3K* H -0.52460 0.52460 0.19440
H3D* H -0.47540 0.47540 -0.19440
H3I* H 0.04920 0.52460 0.19440
H3B* H -0.04920 0.47540 -0.19440
H3K** H -1.52460 -0.47540 0.19440
H3D** H -1.47540 -0.52460 -0.19440
C7J C -0.3125(12) -0.1563(11) 0.25000
C7B C -0.8437(12) -0.6875(11) 0.25000
C7G C -0.6875(12) 0.1563(11) -0.25000
C7C C -0.1562(12) 0.1563(11) -0.25000
C7E C -1.1563(12) -0.3125(11) -0.25000
H4D H -0.24480 -0.12240 0.25000
H4B H -0.87760 -0.75520 0.25000
H4A H -0.75520 0.12240 -0.25000
H4C H -0.12240 0.12240 -0.25000
H4E H -1.12240 -0.24480 -0.25000
C8F C -0.8170(11) -0.1829(7) 0.3000(4)
C8S C -0.3659(11) -0.1830(7) 0.2000(4)
C8M C -0.3659(11) -0.1829(7) 0.3000(4)
C8B C -0.8170(11) -0.6341(7) 0.2000(4)
C8H C -0.8171(11) -0.6341(7) 0.3000(4)
C8G C -0.6341(11) 0.1830(7) -0.2000(4)
C8A C -0.6341(11) 0.1829(7) -0.3000(4)
C8L C -0.1829(11) 0.1830(7) -0.2000(4)
C8R C -0.1830(11) 0.1829(7) -0.3000(4)
C8N C -1.1830(11) -0.3659(7) -0.2000(4)
C8T C -1.1829(11) -0.3659(7) -0.3000(4)
C9F C -0.7673(13) -0.2326(9) 0.2990(5)
C9S C -0.4653(13) -0.2327(9) 0.2010(5)
C9M C -0.4653(13) -0.2326(9) 0.2990(5)
C9B C -0.7673(13) -0.5347(9) 0.2010(5)
C9H C -0.7674(13) -0.5347(9) 0.2990(5)
C9G C -0.5347(13) 0.2327(9) -0.2010(5)
C9A C -0.5347(13) 0.2326(9) -0.2990(5)
C9L C -0.2326(13) 0.2327(9) -0.2010(5)
C9R C -0.2327(13) 0.2326(9) -0.2990(5)
C9N C -1.2327(13) -0.4653(9) -0.2010(5)
C9T C -1.2326(13) -0.4653(9) -0.2990(5)
H5F H -0.75000 -0.25000 0.33190
H5D H -0.50000 -0.25000 0.16810
H5J H -0.50000 -0.25000 0.33190
H5B H -0.75000 -0.50000 0.16810
H5H H -0.75000 -0.50000 0.33190
H5G H -0.50000 0.25000 -0.16810
H5A H -0.50000 0.25000 -0.33190
H5I H -0.25000 0.25000 -0.16810
H5C H -0.25000 0.25000 -0.33190
H5K H -1.25000 -0.50000 -0.16810
H5E H -1.25000 -0.50000 -0.33190
C10J C -0.5139(18) -0.2569(16) 0.25000
C10B C -0.7431(18) -0.4861(16) 0.25000
C10G C -0.4861(18) 0.2569(16) -0.25000
C10C C -0.2570(18) 0.2569(16) -0.25000
C10E C -1.2569(18) -0.5139(16) -0.25000
H6D H -0.58160 -0.29080 0.25000
H6B H -0.70920 -0.41840 0.25000
H6A H -0.41840 0.29080 -0.25000
H6C H -0.29080 0.29080 -0.25000
H6E H -1.29080 -0.58160 -0.25000
H7B H -0.60080 -0.30040 0.52450
H7D H -0.69960 -0.30040 0.52450
C12B C -0.6149(8) -0.2298(4) 0.4300(4)
C12D C -0.7702(8) -0.3851(4) 0.4300(4)
H8B H -0.61470 -0.22900 0.39040
H8D H -0.77100 -0.38570 0.39040
H9U H -0.64810 -0.45090 0.44330
H9B H -0.64810 -0.19720 0.44330
H9W H -0.54910 -0.19720 0.44330
H9D H -0.80280 -0.45090 0.44330
H9S H -0.80280 -0.35190 0.44330
#END
