
#######################################################################
#
#                 Cambridge Crystallographic Data Centre
#                                CCDC
#
#######################################################################
#
# If this CIF has been generated from an entry in the Cambridge
# Structural Database, then it will include bibliographic, chemical,
# crystal, experimental, refinement or atomic coordinate data resulting
# from the CCDC's data processing and validation procedures.
#
#######################################################################

data_CSD_CIF_FASFOX
_audit_creation_date 2017-02-23
_audit_creation_method CSD-ConQuest-V1
_database_code_CSD FASFOX
_database_code_depnum_ccdc_archive 'CCDC 979130'
_chemical_formula_sum 'C44 H31 La1 N4 O14 S4'
_chemical_formula_moiety
;
(C44 H26 La1 N4 O12 S4 1-)n,H2 O1,H3 O1 1+
;
_journal_coden_Cambridge 1229
_journal_volume 19
_journal_year 2015
_journal_page_first 1072
_journal_name_full 'J.Porphyrins Phthalocyanines '
loop_
_publ_author_name
"Xiu-Guang Yi"
"Jian-Gen Huang"
"Rong-Hua Hu"
"Zhi-Gang Luo"
"Yun-Peng Pei"
"Wen-Tong Chen"
_chemical_name_systematic
;
catena-[oxonium 
(\m-4,4',4'',4'''-(porphyrin-5,10,15,20-tetrayl)tetra(benzene-1-sulfonato))-la
nthanum(iii) monohydrate]
;
_cell_volume   2388.942
_exptl_crystal_colour 'purple'
_exptl_crystal_density_diffrn 1.539
_exptl_crystal_description 'Block'
_diffrn_ambient_temperature 123.2
#These two values have been output from a single CSD field.
_refine_ls_R_factor_gt 0.0537
_refine_ls_wR_factor_gt 0.0537
_symmetry_cell_setting tetragonal
_symmetry_space_group_name_H-M 'P 4/m c c'
_symmetry_Int_Tables_number 124
loop_
_symmetry_equiv_pos_site_id
_symmetry_equiv_pos_as_xyz
1 x,y,z
2 -x,-y,z
3 -y,x,z
4 y,-x,z
5 -x,y,1/2-z
6 x,-y,1/2-z
7 y,x,1/2-z
8 -y,-x,1/2-z
9 -x,-y,-z
10 x,y,-z
11 y,-x,-z
12 -y,x,-z
13 x,-y,-1/2+z
14 -x,y,-1/2+z
15 -y,-x,-1/2+z
16 y,x,-1/2+z
_cell_length_a 15.440(4)
_cell_length_b 15.440(4)
_cell_length_c 10.021(4)
_cell_angle_alpha 90
_cell_angle_beta 90
_cell_angle_gamma 90
_cell_formula_units_Z 2
loop_
_atom_type_symbol
_atom_type_radius_bond
C 0.68
H 0.23
La 2.07
N 0.68
O 0.68
S 1.02
loop_
_atom_site_label
_atom_site_type_symbol
_atom_site_fract_x
_atom_site_fract_y
_atom_site_fract_z
La1 La 0.50000 0.50000 0.25000
S1 S 0.52633(7) 0.68505(7) 0.00000
N1 N 0.1290(3) 1.0305(3) 0.00000
O1 O 0.53163(16) 0.63300(17) 0.1179(3)
O2 O 0.58815(19) 0.75351(19) 0.00000
C1 C 0.4241(3) 0.7359(3) 0.00000
C2 C 0.3864(2) 0.7582(2) -0.1190(4)
H1 H 0.41140 0.74160 -0.19960
C3 C 0.3101(2) 0.8063(2) -0.1169(5)
H2 H 0.28460 0.82200 -0.19740
C4 C 0.2712(3) 0.8311(3) 0.00000
C5 C 0.1898(3) 0.8819(3) 0.00000
C6 C 0.1973(3) 0.9719(3) 0.00000
C7 C 0.2757(4) 1.0203(3) 0.00000
H3 H 0.33130 0.99710 0.00000
C8 C 0.2562(3) 1.1049(3) 0.00000
H4 H 0.29570 1.15040 0.00000
C9 C 0.1652(3) 1.1126(3) 0.00000
O3 O 0.00000 1.00000 0.25000
O4 O 0.00000 1.00000 0.00000
S1B S 0.31495(7) 1.52633(7) 0.00000
N1B N -0.0305(3) 1.1290(3) 0.00000
O1B O 0.36700(16) 1.53163(17) 0.1179(3)
O2B O 0.24649(19) 1.58815(19) 0.00000
C1B C 0.2641(3) 1.4241(3) 0.00000
C2B C 0.2418(2) 1.3864(2) -0.1190(4)
H1B H 0.25840 1.41140 -0.19960
C3B C 0.1937(2) 1.3101(2) -0.1169(5)
H2B H 0.17800 1.28460 -0.19740
C4B C 0.1689(3) 1.2712(3) 0.00000
C5B C 0.1181(3) 1.1898(3) 0.00000
C6B C 0.0281(3) 1.1973(3) 0.00000
C7B C -0.0203(4) 1.2757(3) 0.00000
H3B H 0.00290 1.33130 0.00000
C8B C -0.1049(3) 1.2562(3) 0.00000
H4B H -0.15040 1.29570 0.00000
C9B C -0.1126(3) 1.1652(3) 0.00000
S1C S -0.31495(7) 0.47367(7) 0.00000
N1C N 0.0305(3) 0.8710(3) 0.00000
O1C O -0.36700(16) 0.46837(17) 0.1179(3)
O2C O -0.24649(19) 0.41185(19) 0.00000
C1C C -0.2641(3) 0.5759(3) 0.00000
C2C C -0.2418(2) 0.6136(2) -0.1190(4)
H1C H -0.25840 0.58860 -0.19960
C3C C -0.1937(2) 0.6899(2) -0.1169(5)
H2C H -0.17800 0.71540 -0.19740
C4C C -0.1689(3) 0.7288(3) 0.00000
C5C C -0.1181(3) 0.8102(3) 0.00000
C6C C -0.0281(3) 0.8027(3) 0.00000
C7C C 0.0203(4) 0.7243(3) 0.00000
H3C H -0.00290 0.66870 0.00000
C8C C 0.1049(3) 0.7438(3) 0.00000
H4C H 0.15040 0.70430 0.00000
C9C C 0.1126(3) 0.8348(3) 0.00000
O1I O 0.53163(16) 0.63300(17) -0.1179(3)
C2I C 0.3864(2) 0.7582(2) 0.1190(4)
H1I H 0.41140 0.74160 0.19960
C3I C 0.3101(2) 0.8063(2) 0.1169(5)
H2I H 0.28460 0.82200 0.19740
O1J O -0.36700(16) 0.46837(17) -0.1179(3)
C2J C -0.2418(2) 0.6136(2) 0.1190(4)
H1J H -0.25840 0.58860 0.19960
C3J C -0.1937(2) 0.6899(2) 0.1169(5)
H2J H -0.17800 0.71540 0.19740
O1K O 0.36700(16) 1.53163(17) -0.1179(3)
C2K C 0.2418(2) 1.3864(2) 0.1190(4)
H1K H 0.25840 1.41140 0.19960
C3K C 0.1937(2) 1.3101(2) 0.1169(5)
H2K H 0.17800 1.28460 0.19740
S1A S -0.52633(7) 1.31495(7) 0.00000
N1A N -0.1290(3) 0.9695(3) 0.00000
O1A O -0.53163(16) 1.36700(17) 0.1179(3)
O2A O -0.58815(19) 1.24649(19) 0.00000
C1A C -0.4241(3) 1.2641(3) 0.00000
C2A C -0.3864(2) 1.2418(2) -0.1190(4)
H1A H -0.41140 1.25840 -0.19960
C3A C -0.3101(2) 1.1937(2) -0.1169(5)
H2A H -0.28460 1.17800 -0.19740
C4A C -0.2712(3) 1.1689(3) 0.00000
C5A C -0.1898(3) 1.1181(3) 0.00000
C6A C -0.1973(3) 1.0281(3) 0.00000
C7A C -0.2757(4) 0.9797(3) 0.00000
H3A H -0.33130 1.00290 0.00000
C8A C -0.2562(3) 0.8951(3) 0.00000
H4A H -0.29570 0.84960 0.00000
C9A C -0.1652(3) 0.8874(3) 0.00000
O1H O -0.53163(16) 1.36700(17) -0.1179(3)
C2H C -0.3864(2) 1.2418(2) 0.1190(4)
H1H H -0.41140 1.25840 0.19960
C3H C -0.3101(2) 1.1937(2) 0.1169(5)
H2H H -0.28460 1.17800 0.19740
La1* La -0.50000 0.50000 0.25000
La1** La -0.50000 1.50000 0.25000
La1*** La 0.50000 1.50000 0.25000
La1H La -0.50000 0.50000 -0.25000
La1H* La -0.50000 1.50000 -0.25000
La1H** La 0.50000 0.50000 -0.25000
La1H*** La 0.50000 1.50000 -0.25000
O1A* O 0.46837(16) 0.36700(17) 0.1179(3)
O1B* O 0.36700(16) 0.53163(17) 0.1179(3)
O1C* O 0.63300(16) 0.46837(17) 0.1179(3)
O1D O 0.46837(16) 0.63300(17) 0.3821(3)
O1E O 0.53163(16) 0.36700(17) 0.3821(3)
O1F O 0.63300(16) 0.53163(17) 0.3821(3)
O1G O 0.36700(16) 0.46837(17) 0.3821(3)
#END
