
#######################################################################
#
#                 Cambridge Crystallographic Data Centre
#                                CCDC
#
#######################################################################
#
# If this CIF has been generated from an entry in the Cambridge
# Structural Database, then it will include bibliographic, chemical,
# crystal, experimental, refinement or atomic coordinate data resulting
# from the CCDC's data processing and validation procedures.
#
#######################################################################

data_CSD_CIF_FASFUD
_audit_creation_date 2017-02-23
_audit_creation_method CSD-ConQuest-V1
_database_code_CSD FASFUD
_database_code_depnum_ccdc_archive 'CCDC 979131'
_chemical_formula_sum 'C44 H31 N4 O14 S4 Sm1'
_chemical_formula_moiety
;
(C44 H26 N4 O12 S4 Sm1 1-)n,n(H3 O1 1+),n(H2 O1)
;
_journal_coden_Cambridge 1229
_journal_volume 19
_journal_year 2015
_journal_page_first 1072
_journal_name_full 'J.Porphyrins Phthalocyanines '
loop_
_publ_author_name
"Xiu-Guang Yi"
"Jian-Gen Huang"
"Rong-Hua Hu"
"Zhi-Gang Luo"
"Yun-Peng Pei"
"Wen-Tong Chen"
_chemical_name_systematic
;
catena-[oxonium 
(\m-4,4',4'',4'''-(porphyrin-5,10,15,20-tetrayl)tetra(benzene-1-sulfonato))-sa
marium(iii) monohydrate]
;
_cell_volume   2344.423
_exptl_crystal_colour 'purple'
_exptl_crystal_density_diffrn 1.584
_exptl_crystal_description 'block'
_diffrn_ambient_temperature 123.2
_refine_special_details
;
O2W disordered by symmetry over two configurations with occupancy 0.50.

;
#These two values have been output from a single CSD field.
_refine_ls_R_factor_gt 0.035
_refine_ls_wR_factor_gt 0.035
_symmetry_cell_setting tetragonal
_symmetry_space_group_name_H-M 'P 4/m c c'
_symmetry_Int_Tables_number 124
loop_
_symmetry_equiv_pos_site_id
_symmetry_equiv_pos_as_xyz
1 x,y,z
2 -x,-y,z
3 -y,x,z
4 y,-x,z
5 -x,y,1/2-z
6 x,-y,1/2-z
7 y,x,1/2-z
8 -y,-x,1/2-z
9 -x,-y,-z
10 x,y,-z
11 y,-x,-z
12 -y,x,-z
13 x,-y,-1/2+z
14 -x,y,-1/2+z
15 -y,-x,-1/2+z
16 y,x,-1/2+z
_cell_length_a 15.377(5)
_cell_length_b 15.377(5)
_cell_length_c 9.915(5)
_cell_angle_alpha 90
_cell_angle_beta 90
_cell_angle_gamma 90
_cell_formula_units_Z 2
loop_
_atom_type_symbol
_atom_type_radius_bond
C 0.68
H 0.23
N 0.68
O 0.68
S 1.02
Sm 1.98
loop_
_atom_site_label
_atom_site_type_symbol
_atom_site_fract_x
_atom_site_fract_y
_atom_site_fract_z
Sm1 Sm 0.00000 0.00000 0.25000
S1 S 0.02635(4) -0.18102(4) 0.00000
N1 N -0.46968(13) -0.37103(14) 0.00000
O1 O 0.03106(8) -0.12887(9) 0.12089(15)
O2 O 0.08936(11) -0.24968(11) 0.00000
C1 C -0.07612(14) -0.23315(15) 0.00000
C2 C -0.11354(12) -0.25594(13) -0.12058(19)
H1 H -0.08910 -0.23760 -0.20150
C3 C -0.18800(12) -0.30654(12) -0.1205(2)
H2 H -0.21260 -0.32370 -0.20200
C4 C -0.22643(16) -0.33198(17) 0.00000
C5 C -0.31061(16) -0.38240(16) 0.00000
C6 C -0.38628(17) -0.33403(17) 0.00000
C7 C -0.39472(17) -0.24306(17) 0.00000
H3 H -0.34890 -0.20360 0.00000
C8 C -0.47807(16) -0.22235(18) 0.00000
H4 H -0.50100 -0.16640 0.00000
C9 C -0.52735(17) -0.30261(17) 0.00000
O3 O -0.50000 -0.50000 0.25000
O4 O -0.50000 -0.50000 0.0697(9)
S1B S -0.81898(4) 0.02635(4) 0.00000
N1B N -0.62897(13) -0.46968(14) 0.00000
O1B O -0.87113(8) 0.03106(9) 0.12089(15)
O2B O -0.75032(11) 0.08936(11) 0.00000
C1B C -0.76685(14) -0.07612(15) 0.00000
C2B C -0.74406(12) -0.11354(13) -0.12058(19)
H1B H -0.76240 -0.08910 -0.20150
C3B C -0.69346(12) -0.18800(12) -0.1205(2)
H2B H -0.67630 -0.21260 -0.20200
C4B C -0.66802(16) -0.22643(17) 0.00000
C5B C -0.61760(16) -0.31061(16) 0.00000
C6B C -0.66597(17) -0.38628(17) 0.00000
C7B C -0.75694(17) -0.39472(17) 0.00000
H3B H -0.79640 -0.34890 0.00000
C8B C -0.77765(16) -0.47807(18) 0.00000
H4B H -0.83360 -0.50100 0.00000
C9B C -0.69739(17) -0.52735(17) 0.00000
S1C S -0.18102(4) -1.02635(4) 0.00000
N1C N -0.37103(13) -0.53032(14) 0.00000
O1C O -0.12887(8) -1.03106(9) 0.12089(15)
O2C O -0.24968(11) -1.08936(11) 0.00000
C1C C -0.23315(14) -0.92388(15) 0.00000
C2C C -0.25594(12) -0.88646(13) -0.12058(19)
H1C H -0.23760 -0.91090 -0.20150
C3C C -0.30654(12) -0.81200(12) -0.1205(2)
H2C H -0.32370 -0.78740 -0.20200
C4C C -0.33198(16) -0.77357(17) 0.00000
C5C C -0.38240(16) -0.68939(16) 0.00000
C6C C -0.33403(17) -0.61372(17) 0.00000
C7C C -0.24306(17) -0.60528(17) 0.00000
H3C H -0.20360 -0.65110 0.00000
C8C C -0.22235(16) -0.52193(18) 0.00000
H4C H -0.16640 -0.49900 0.00000
C9C C -0.30261(17) -0.47265(17) 0.00000
O1I O 0.03106(8) -0.12887(9) -0.12089(15)
C2I C -0.11354(12) -0.25594(13) 0.12058(19)
H1I H -0.08910 -0.23760 0.20150
C3I C -0.18800(12) -0.30654(12) 0.1205(2)
H2I H -0.21260 -0.32370 0.20200
O1J O -0.12887(8) -1.03106(9) -0.12089(15)
C2J C -0.25594(12) -0.88646(13) 0.12058(19)
H1J H -0.23760 -0.91090 0.20150
C3J C -0.30654(12) -0.81200(12) 0.1205(2)
H2J H -0.32370 -0.78740 0.20200
O1K O -0.87113(8) 0.03106(9) -0.12089(15)
C2K C -0.74406(12) -0.11354(13) 0.12058(19)
H1K H -0.76240 -0.08910 0.20150
C3K C -0.69346(12) -0.18800(12) 0.1205(2)
H2K H -0.67630 -0.21260 0.20200
S1A S -1.02635(4) -0.81898(4) 0.00000
N1A N -0.53032(13) -0.62897(14) 0.00000
O1A O -1.03106(8) -0.87113(9) 0.12089(15)
O2A O -1.08936(11) -0.75032(11) 0.00000
C1A C -0.92388(14) -0.76685(15) 0.00000
C2A C -0.88646(12) -0.74406(13) -0.12058(19)
H1A H -0.91090 -0.76240 -0.20150
C3A C -0.81200(12) -0.69346(12) -0.1205(2)
H2A H -0.78740 -0.67630 -0.20200
C4A C -0.77357(16) -0.66802(17) 0.00000
C5A C -0.68939(16) -0.61760(16) 0.00000
C6A C -0.61372(17) -0.66597(17) 0.00000
C7A C -0.60528(17) -0.75694(17) 0.00000
H3A H -0.65110 -0.79640 0.00000
C8A C -0.52193(16) -0.77765(18) 0.00000
H4A H -0.49900 -0.83360 0.00000
C9A C -0.47265(17) -0.69739(17) 0.00000
O1H O -1.03106(8) -0.87113(9) -0.12089(15)
C2H C -0.88646(12) -0.74406(13) 0.12058(19)
H1H H -0.91090 -0.76240 0.20150
C3H C -0.81200(12) -0.69346(12) 0.1205(2)
H2H H -0.78740 -0.67630 0.20200
Sm1* Sm -1.00000 -1.00000 0.25000
Sm1** Sm -1.00000 0.00000 0.25000
Sm1*** Sm 0.00000 -1.00000 0.25000
Sm1H Sm -1.00000 -1.00000 -0.25000
Sm1H* Sm -1.00000 0.00000 -0.25000
Sm1H** Sm 0.00000 -1.00000 -0.25000
Sm1H*** Sm 0.00000 0.00000 -0.25000
O1A* O -0.03106(8) 0.12887(9) 0.12089(15)
O1B* O 0.12887(8) 0.03106(9) 0.12089(15)
O1C* O -0.12887(8) -0.03106(9) 0.12089(15)
O1D O -0.03106(8) -0.12887(9) 0.37911(15)
O1E O 0.03106(8) 0.12887(9) 0.37911(15)
O1F O -0.12887(8) 0.03106(9) 0.37911(15)
O1G O 0.12887(8) -0.03106(9) 0.37911(15)
#END
