
#######################################################################
#
#                 Cambridge Crystallographic Data Centre
#                                CCDC
#
#######################################################################
#
# If this CIF has been generated from an entry in the Cambridge
# Structural Database, then it will include bibliographic, chemical,
# crystal, experimental, refinement or atomic coordinate data resulting
# from the CCDC's data processing and validation procedures.
#
#######################################################################

data_CSD_CIF_FASGAK
_audit_creation_date 2017-02-23
_audit_creation_method CSD-ConQuest-V1
_database_code_CSD FASGAK
_database_code_depnum_ccdc_archive 'CCDC 979132'
_chemical_formula_sum 'C44 H31 Eu1 N4 O14 S4'
_chemical_formula_moiety
;
(C44 H26 Eu1 N4 O12 S4 1-)n,H2 O1,H3 O1 1+
;
_journal_coden_Cambridge 1229
_journal_volume 19
_journal_year 2015
_journal_page_first 1072
_journal_name_full 'J.Porphyrins Phthalocyanines '
loop_
_publ_author_name
"Xiu-Guang Yi"
"Jian-Gen Huang"
"Rong-Hua Hu"
"Zhi-Gang Luo"
"Yun-Peng Pei"
"Wen-Tong Chen"
_chemical_name_systematic
;
catena-[oxonium 
(\m-4,4',4'',4'''-(porphyrin-5,10,15,20-tetrayl)tetra(benzene-1-sulfonato))-eu
ropium(iii) monohydrate]
;
_cell_volume   2354.675
_exptl_crystal_colour 'purple'
_exptl_crystal_density_diffrn 1.58
_exptl_crystal_description 'block'
_diffrn_ambient_temperature 123.2
#These two values have been output from a single CSD field.
_refine_ls_R_factor_gt 0.0364
_refine_ls_wR_factor_gt 0.0364
_symmetry_cell_setting tetragonal
_symmetry_space_group_name_H-M 'P 4/m c c'
_symmetry_Int_Tables_number 124
loop_
_symmetry_equiv_pos_site_id
_symmetry_equiv_pos_as_xyz
1 x,y,z
2 -x,-y,z
3 -y,x,z
4 y,-x,z
5 -x,y,1/2-z
6 x,-y,1/2-z
7 y,x,1/2-z
8 -y,-x,1/2-z
9 -x,-y,-z
10 x,y,-z
11 y,-x,-z
12 -y,x,-z
13 x,-y,-1/2+z
14 -x,y,-1/2+z
15 -y,-x,-1/2+z
16 y,x,-1/2+z
_cell_length_a 15.4313(6)
_cell_length_b 15.4313(6)
_cell_length_c 9.8884(8)
_cell_angle_alpha 90
_cell_angle_beta 90
_cell_angle_gamma 90
_cell_formula_units_Z 2
loop_
_atom_type_symbol
_atom_type_radius_bond
C 0.68
H 0.23
Eu 1.98
N 0.68
O 0.68
S 1.02
loop_
_atom_site_label
_atom_site_type_symbol
_atom_site_fract_x
_atom_site_fract_y
_atom_site_fract_z
Eu1 Eu 0.50000 -0.50000 0.25000
S1 S 0.52493(5) -0.31963(6) 0.00000
N1 N 0.12913(18) 0.03080(18) 0.00000
O1 O 0.53020(11) -0.37188(12) 0.12141(18)
O2 O 0.58727(14) -0.25120(15) 0.00000
C1 C 0.4229(2) -0.2669(2) 0.00000
C2 C 0.38575(17) -0.24446(17) -0.1205(2)
H1 H 0.41040 -0.26200 -0.20190
C3 C 0.31064(17) -0.19505(17) -0.1192(3)
H2 H 0.28570 -0.17890 -0.20110
C4 C 0.2717(2) -0.1690(2) 0.00000
C5 C 0.1904(2) -0.1187(2) 0.00000
C6 C 0.1973(2) -0.0266(2) 0.00000
C7 C 0.2771(2) 0.0210(2) 0.00000
H3 H 0.33260 -0.00250 0.00000
C8 C 0.2573(2) 0.1052(2) 0.00000
H4 H 0.29650 0.15090 0.00000
C9 C 0.1660(2) 0.1124(2) 0.00000
O3 O 0.00000 0.00000 0.25000
O4 O 0.00000 0.00000 0.00000
S1B S 0.31963(5) 0.52493(6) 0.00000
N1B N -0.03080(18) 0.12913(18) 0.00000
O1B O 0.37188(11) 0.53020(12) 0.12141(18)
O2B O 0.25120(14) 0.58727(15) 0.00000
C1B C 0.2669(2) 0.4229(2) 0.00000
C2B C 0.24446(17) 0.38575(17) -0.1205(2)
H1B H 0.26200 0.41040 -0.20190
C3B C 0.19505(17) 0.31064(17) -0.1192(3)
H2B H 0.17890 0.28570 -0.20110
C4B C 0.1690(2) 0.2717(2) 0.00000
C5B C 0.1187(2) 0.1904(2) 0.00000
C6B C 0.0266(2) 0.1973(2) 0.00000
C7B C -0.0210(2) 0.2771(2) 0.00000
H3B H 0.00250 0.33260 0.00000
C8B C -0.1052(2) 0.2573(2) 0.00000
H4B H -0.15090 0.29650 0.00000
C9B C -0.1124(2) 0.1660(2) 0.00000
S1C S -0.31963(5) -0.52493(6) 0.00000
N1C N 0.03080(18) -0.12913(18) 0.00000
O1C O -0.37188(11) -0.53020(12) 0.12141(18)
O2C O -0.25120(14) -0.58727(15) 0.00000
C1C C -0.2669(2) -0.4229(2) 0.00000
C2C C -0.24446(17) -0.38575(17) -0.1205(2)
H1C H -0.26200 -0.41040 -0.20190
C3C C -0.19505(17) -0.31064(17) -0.1192(3)
H2C H -0.17890 -0.28570 -0.20110
C4C C -0.1690(2) -0.2717(2) 0.00000
C5C C -0.1187(2) -0.1904(2) 0.00000
C6C C -0.0266(2) -0.1973(2) 0.00000
C7C C 0.0210(2) -0.2771(2) 0.00000
H3C H -0.00250 -0.33260 0.00000
C8C C 0.1052(2) -0.2573(2) 0.00000
H4C H 0.15090 -0.29650 0.00000
C9C C 0.1124(2) -0.1660(2) 0.00000
O1I O 0.53020(11) -0.37188(12) -0.12141(18)
C2I C 0.38575(17) -0.24446(17) 0.1205(2)
H1I H 0.41040 -0.26200 0.20190
C3I C 0.31064(17) -0.19505(17) 0.1192(3)
H2I H 0.28570 -0.17890 0.20110
O1J O -0.37188(11) -0.53020(12) -0.12141(18)
C2J C -0.24446(17) -0.38575(17) 0.1205(2)
H1J H -0.26200 -0.41040 0.20190
C3J C -0.19505(17) -0.31064(17) 0.1192(3)
H2J H -0.17890 -0.28570 0.20110
O1K O 0.37188(11) 0.53020(12) -0.12141(18)
C2K C 0.24446(17) 0.38575(17) 0.1205(2)
H1K H 0.26200 0.41040 0.20190
C3K C 0.19505(17) 0.31064(17) 0.1192(3)
H2K H 0.17890 0.28570 0.20110
S1A S -0.52493(5) 0.31963(6) 0.00000
N1A N -0.12913(18) -0.03080(18) 0.00000
O1A O -0.53020(11) 0.37188(12) 0.12141(18)
O2A O -0.58727(14) 0.25120(15) 0.00000
C1A C -0.4229(2) 0.2669(2) 0.00000
C2A C -0.38575(17) 0.24446(17) -0.1205(2)
H1A H -0.41040 0.26200 -0.20190
C3A C -0.31064(17) 0.19505(17) -0.1192(3)
H2A H -0.28570 0.17890 -0.20110
C4A C -0.2717(2) 0.1690(2) 0.00000
C5A C -0.1904(2) 0.1187(2) 0.00000
C6A C -0.1973(2) 0.0266(2) 0.00000
C7A C -0.2771(2) -0.0210(2) 0.00000
H3A H -0.33260 0.00250 0.00000
C8A C -0.2573(2) -0.1052(2) 0.00000
H4A H -0.29650 -0.15090 0.00000
C9A C -0.1660(2) -0.1124(2) 0.00000
O1H O -0.53020(11) 0.37188(12) -0.12141(18)
C2H C -0.38575(17) 0.24446(17) 0.1205(2)
H1H H -0.41040 0.26200 0.20190
C3H C -0.31064(17) 0.19505(17) 0.1192(3)
H2H H -0.28570 0.17890 0.20110
Eu1* Eu -0.50000 -0.50000 0.25000
Eu1** Eu -0.50000 0.50000 0.25000
Eu1*** Eu 0.50000 0.50000 0.25000
Eu1H Eu -0.50000 -0.50000 -0.25000
Eu1H* Eu -0.50000 0.50000 -0.25000
Eu1H** Eu 0.50000 -0.50000 -0.25000
Eu1H*** Eu 0.50000 0.50000 -0.25000
O1A* O 0.46980(11) -0.62812(12) 0.12141(18)
O1B* O 0.37188(11) -0.46980(12) 0.12141(18)
O1C* O 0.62812(11) -0.53020(12) 0.12141(18)
O1D O 0.46980(11) -0.37188(12) 0.37859(18)
O1E O 0.53020(11) -0.62812(12) 0.37859(18)
O1F O 0.62812(11) -0.46980(12) 0.37859(18)
O1G O 0.37188(11) -0.53020(12) 0.37859(18)
#END
