
#######################################################################
#
#                 Cambridge Crystallographic Data Centre
#                                CCDC
#
#######################################################################
#
# If this CIF has been generated from an entry in the Cambridge
# Structural Database, then it will include bibliographic, chemical,
# crystal, experimental, refinement or atomic coordinate data resulting
# from the CCDC's data processing and validation procedures.
#
#######################################################################

data_CSD_CIF_FAVFIU
_audit_creation_date 2017-02-24
_audit_creation_method CSD-ConQuest-V1
_database_code_CSD FAVFIU
_database_code_depnum_ccdc_archive 'CCDC 1484794'
_chemical_formula_sum 'C92 H82 Cd4 Cs6 N4 O34'
_chemical_formula_moiety
;
(C76 H42 Cd4 O28 6-)n,4n(C4 H9 N1 O1),2n(H2 O1),6n(Cs1 1+)
;
_journal_coden_Cambridge 1147
_journal_volume 17
_journal_year 2017
_journal_page_first 1836
_journal_name_full 'Cryst.Growth Des. '
loop_
_publ_author_name
"Kangcai Wang"
"Xin Tian"
"Yunhe Jin"
"Jie Sun"
"Qinghua Zhang"
_chemical_name_systematic
;
catena-(hexa-cesium 
hexakis(\m-naphthalene-2,6-dicarboxylato)-bis(acetato)-tetra-cadmium 
dimethylacetamide solvate dihydrate)
;
_cell_volume  10464.314
_exptl_crystal_colour 'whiteish colorless'
_exptl_crystal_density_diffrn 1.923
_exptl_crystal_description 'block'
_diffrn_ambient_temperature 296
_refine_special_details
;
The structure is disordered.

;
#These two values have been output from a single CSD field.
_refine_ls_R_factor_gt 0.0723
_refine_ls_wR_factor_gt 0.0723
_symmetry_cell_setting monoclinic
_symmetry_space_group_name_H-M 'C 2/c'
_symmetry_Int_Tables_number 15
loop_
_symmetry_equiv_pos_site_id
_symmetry_equiv_pos_as_xyz
1 x,y,z
2 -x,y,1/2-z
3 1/2+x,1/2+y,z
4 1/2-x,1/2+y,1/2-z
5 -x,-y,-z
6 x,-y,-1/2+z
7 -1/2-x,-1/2-y,-z
8 -1/2+x,-1/2-y,-1/2+z
_cell_length_a 27.806(9)
_cell_length_b 13.792(4)
_cell_length_c 28.738(8)
_cell_angle_alpha 90
_cell_angle_beta 108.289(6)
_cell_angle_gamma 90
_cell_formula_units_Z 4
loop_
_atom_type_symbol
_atom_type_radius_bond
C 0.68
H 0.23
Cd 1.44
Cs 2.44
N 0.68
O 0.68
loop_
_atom_site_label
_atom_site_type_symbol
_atom_site_fract_x
_atom_site_fract_y
_atom_site_fract_z
Cs1 Cs 0.40046(4) 0.44689(7) 0.38389(3)
Cs2 Cs 0.27787(5) 0.24536(7) 0.28631(4)
Cd1 Cd 0.25912(4) 0.51970(6) 0.30560(3)
Cd2 Cd 0.47825(4) 1.34997(7) 0.51253(3)
O1 O 0.3275(4) 0.6113(7) 0.3538(3)
O2 O 0.2584(4) 0.6989(7) 0.3215(4)
O3 O 0.4064(3) 1.2792(6) 0.4553(3)
O4 O 0.4709(3) 1.1830(6) 0.4930(3)
O5 O 0.2807(4) 0.5627(7) 0.2318(3)
O6 O 0.3236(4) 0.4415(7) 0.2760(3)
O7 O 0.4806(4) 0.3713(7) 0.0413(3)
O8 O 0.4420(4) 0.4984(7) -0.0018(3)
O9 O 0.4530(4) 1.3036(7) 0.5815(3)
O10 O 0.5248(4) 1.3821(7) 0.5924(3)
O11 O 0.2838(4) 0.3974(7) 0.3694(3)
O12 O 0.2193(4) 0.4887(7) 0.3690(3)
O13 O 0.1998(4) 0.4052(8) 0.2594(4)
O14 O 0.1717(4) 0.5544(8) 0.2548(4)
C1 C 0.3042(6) 0.6917(11) 0.3473(5)
C2 C 0.3333(6) 0.7782(11) 0.3715(5)
C3 C 0.3832(6) 0.7664(11) 0.4031(5)
H1 H 0.39820 0.70540 0.40660
C4 C 0.4101(6) 0.8429(10) 0.4285(5)
H2 H 0.44230 0.83320 0.45050
C5 C 0.3889(6) 0.9365(10) 0.4212(5)
C6 C 0.4166(5) 1.0196(10) 0.4461(5)
H3 H 0.44890 1.01100 0.46820
C7 C 0.3966(5) 1.1104(9) 0.4380(5)
C8 C 0.3472(5) 1.124(1) 0.4056(5)
H4 H 0.33280 1.18540 0.40120
C9 C 0.3205(5) 1.046(1) 0.3806(5)
H5 H 0.28870 1.05640 0.35790
C10 C 0.3397(5) 0.9512(10) 0.3886(5)
C11 C 0.3119(6) 0.8695(11) 0.3644(5)
H6 H 0.27910 0.87750 0.34340
C12 C 0.4266(5) 1.1966(10) 0.4633(5)
C13 C 0.3149(6) 0.4965(11) 0.2401(5)
C14 C 0.3474(16) 0.475(3) 0.2074(16)
C15 C 0.3350(9) 0.518(2) 0.162(1)
H7 H 0.30750 0.56040 0.15240
C16 C 0.363(2) 0.500(5) 0.130(2)
C17 C 0.3504(9) 0.5458(16) 0.0850(9)
H8 H 0.32410 0.59040 0.07600
C18 C 0.3774(10) 0.5251(18) 0.0533(11)
H9 H 0.36790 0.55330 0.02230
C19 C 0.418(3) 0.463(6) 0.067(3)
C20 C 0.4311(13) 0.418(2) 0.1124(14)
H10 H 0.45830 0.37570 0.12160
C21 C 0.404(2) 0.437(4) 0.144(2)
C22 C 0.4167(9) 0.3948(15) 0.1904(8)
H11 H 0.44470 0.35400 0.20060
C23 C 0.3884(10) 0.4131(18) 0.2211(11)
H12 H 0.39720 0.38320 0.25160
C24 C 0.4492(6) 0.443(1) 0.0335(5)
C25 C 0.4942(6) 1.3383(10) 0.6092(5)
C26 C 0.5052(5) 1.3351(10) 0.6640(5)
C27 C 0.5560(6) 1.3369(10) 0.6954(5)
H13 H 0.58270 1.34140 0.68250
C28 C 0.5650(6) 1.3319(10) 0.7449(5)
H14 H 0.59840 1.32950 0.76540
C29 C 0.5254(5) 1.3302(10) 0.7660(5)
C30 C 0.5332(6) 1.3322(10) 0.8164(5)
H15 H 0.56630 1.33160 0.83750
C31 C 0.2493(6) 0.4200(11) 0.3861(5)
C32 C 0.2407(5) 0.3572(10) 0.4269(5)
C33 C 0.2807(5) 0.3087(10) 0.4579(5)
C34 C 0.1928(6) 0.3545(11) 0.4340(5)
H16 H 0.16580 0.38950 0.41350
C35 C 0.1863(6) 0.3009(10) 0.4708(5)
H17 H 0.15430 0.29890 0.47470
C36 C 0.2259(5) 0.2477(10) 0.5036(5)
C37 C 0.1649(6) 0.4647(13) 0.2449(5)
C38 C 0.1113(6) 0.4349(14) 0.2139(6)
H18 H 0.11100 0.42110 0.18100
H19 H 0.08820 0.48690 0.21330
H20 H 0.10120 0.37820 0.22780
Cs3 Cs 0.33829(5) 0.18497(11) 0.15793(5)
O15 O 0.3944(6) 0.2048(12) 0.2926(6)
H21 H 0.39560 0.15810 0.27540
O16 O 0.0520(13) 0.635(3) 0.3370(15)
C39 C 0.043(2) 0.581(5) 0.368(3)
C40 C 0.0282(19) 0.621(3) 0.4098(17)
H22 H -0.00130 0.58710 0.41180
H23 H 0.02080 0.68860 0.40460
H24 H 0.05550 0.61200 0.43980
C41 C 0.0566(15) 0.438(4) 0.3279(17)
H25 H 0.06570 0.48450 0.30750
H26 H 0.02650 0.40410 0.30910
H27 H 0.08370 0.39180 0.33980
C42 C 0.039(2) 0.426(7) 0.407(3)
H28 H 0.03600 0.46690 0.43250
H29 H 0.06790 0.38380 0.41920
H30 H 0.00920 0.38870 0.39330
N1 N 0.047(4) 0.486(7) 0.369(4)
O17 O 0.2120(11) 0.8004(19) 0.4236(9)
C43 C 0.2178(13) 0.850(2) 0.4610(13)
C44 C 0.2542(16) 0.931(3) 0.4747(14)
H31 H 0.27810 0.91870 0.50640
H32 H 0.23630 0.99010 0.47560
H33 H 0.27180 0.93670 0.45100
C45 C 0.1529(13) 0.761(3) 0.4811(13)
H34 H 0.14790 0.73280 0.44930
H35 H 0.12110 0.78390 0.48320
H36 H 0.16610 0.71210 0.50580
C46 C 0.2015(16) 0.887(3) 0.5357(13)
H37 H 0.21330 0.84010 0.56120
H38 H 0.17220 0.91970 0.53930
H39 H 0.22770 0.93420 0.53800
N2 N 0.1883(11) 0.840(2) 0.4887(13)
O18? O 0.068(3) 0.588(8) 0.321(3)
O19? O 0.2423(16) 0.770(2) 0.4364(12)
C47? C 0.334(4) 0.510(7) 0.195(4)
C48? C 0.370(3) 0.444(5) 0.194(3)
H40? H 0.38110 0.39860 0.21890
C49? C 0.391(5) 0.444(10) 0.156(5)
C50? C 0.427(2) 0.377(5) 0.155(2)
H41? H 0.43680 0.33000 0.17950
C51? C 0.449(3) 0.380(6) 0.118(3)
H42? H 0.47600 0.33940 0.11980
C52? C 0.430(8) 0.442(14) 0.079(8)
C53? C 0.395(3) 0.511(5) 0.081(3)
H43? H 0.38500 0.55790 0.05650
C54? C 0.374(6) 0.512(11) 0.119(5)
C55? C 0.3386(19) 0.580(4) 0.1206(18)
H44? H 0.32820 0.62710 0.09620
C56? C 0.318(2) 0.579(5) 0.1586(18)
H45? H 0.29390 0.62450 0.15960
C57? C 0.045(4) 0.523(14) 0.336(6)
C58? C 0.036(3) 0.490(7) 0.285(4)
H46? H 0.05600 0.52850 0.26980
H47? H 0.00070 0.49820 0.26650
H48? H 0.04500 0.42330 0.28440
C59? C 0.014(5) 0.434(17) 0.393(8)
H49? H 0.00090 0.39380 0.36450
H50? H -0.01250 0.45290 0.40540
H51? H 0.03980 0.39950 0.41740
C60? C 0.064(5) 0.581(9) 0.419(4)
H52? H 0.07540 0.63690 0.40610
H53? H 0.09210 0.54600 0.44020
H54? H 0.04180 0.60060 0.43740
C61? C 0.2848(17) 0.770(3) 0.4666(16)
C62? C 0.310(2) 0.675(4) 0.476(2)
H55? H 0.30320 0.64470 0.50340
H56? H 0.34560 0.68260 0.48270
H57? H 0.29660 0.63420 0.44750
C63? C 0.290(2) 0.941(4) 0.4832(19)
H58? H 0.31490 0.98880 0.48300
H59? H 0.27810 0.95210 0.51080
H60? H 0.26200 0.94550 0.45350
C64? C 0.3581(17) 0.833(4) 0.5279(16)
H61? H 0.35130 0.79240 0.55230
H62? H 0.36980 0.89520 0.54190
H63? H 0.38370 0.80330 0.51670
N3? N 0.036(9) 0.519(19) 0.379(10)
N4? N 0.3122(13) 0.845(3) 0.4870(12)
O9A O 0.5470(4) 1.3036(7) 0.9185(3)
O10A O 0.4752(4) 1.3821(7) 0.9076(3)
C25A C 0.5058(6) 1.3383(10) 0.8908(5)
C26A C 0.4948(5) 1.3351(10) 0.8360(5)
C27A C 0.4440(6) 1.3369(10) 0.8046(5)
H13A H 0.41730 1.34140 0.81750
C28A C 0.4350(6) 1.3319(10) 0.7551(5)
H14A H 0.40160 1.32950 0.73460
C29A C 0.4746(5) 1.3302(10) 0.7340(5)
C30A C 0.4668(6) 1.3322(10) 0.6836(5)
H15A H 0.43370 1.33160 0.66250
O11F O 0.2162(4) 0.1026(7) 0.6306(3)
O12F O 0.2807(4) 0.0113(7) 0.6310(3)
C31F C 0.2507(6) 0.0800(11) 0.6139(5)
C32F C 0.2593(5) 0.1428(10) 0.5731(5)
C33F C 0.2193(5) 0.1913(10) 0.5421(5)
C34F C 0.3072(6) 0.1455(11) 0.5660(5)
H16F H 0.33420 0.11050 0.58650
C35F C 0.3137(6) 0.1991(10) 0.5292(5)
H17F H 0.34570 0.20110 0.52530
C36F C 0.2741(5) 0.2523(10) 0.4964(5)
Cd1A Cd 0.74088(4) 0.51970(6) 1.19440(3)
Cd2A Cd 0.52175(4) 1.34997(7) 0.98747(3)
O1A O 0.6725(4) 0.6113(7) 1.1462(3)
O2A O 0.7416(4) 0.6989(7) 1.1785(4)
O3A O 0.5936(3) 1.2792(6) 1.0447(3)
O4A O 0.5291(3) 1.1830(6) 1.0070(3)
O5A O 0.7193(4) 0.5627(7) 1.2682(3)
O6A O 0.6764(4) 0.4415(7) 1.2240(3)
O7A O 0.5194(4) 0.3713(7) 1.4587(3)
O8A O 0.5580(4) 0.4984(7) 1.5018(3)
O13A O 0.8002(4) 0.4052(8) 1.2406(4)
O14A O 0.8283(4) 0.5544(8) 1.2452(4)
C1A C 0.6958(6) 0.6917(11) 1.1527(5)
C2A C 0.6667(6) 0.7782(11) 1.1285(5)
C3A C 0.6168(6) 0.7664(11) 1.0969(5)
H1A H 0.60180 0.70540 1.09340
C4A C 0.5899(6) 0.8429(10) 1.0715(5)
H2A H 0.55770 0.83320 1.04950
C5A C 0.6111(6) 0.9365(10) 1.0788(5)
C6A C 0.5834(5) 1.0196(10) 1.0539(5)
H3A H 0.55110 1.01100 1.03180
C7A C 0.6034(5) 1.1104(9) 1.0620(5)
C8A C 0.6528(5) 1.124(1) 1.0944(5)
H4A H 0.66720 1.18540 1.09880
C9A C 0.6795(5) 1.046(1) 1.1194(5)
H5A H 0.71130 1.05640 1.14210
C10A C 0.6603(5) 0.9512(10) 1.1114(5)
C11A C 0.6881(6) 0.8695(11) 1.1356(5)
H6A H 0.72090 0.87750 1.15660
C12A C 0.5734(5) 1.1966(10) 1.0367(5)
C13A C 0.6851(6) 0.4965(11) 1.2599(5)
C14A C 0.6526(16) 0.475(3) 1.2926(16)
C15A C 0.6650(9) 0.518(2) 1.338(1)
H7A H 0.69250 0.56040 1.34760
C16A C 0.637(2) 0.500(5) 1.370(2)
C17A C 0.6496(9) 0.5458(16) 1.4150(9)
H8A H 0.67590 0.59040 1.42400
C18A C 0.6226(10) 0.5251(18) 1.4467(11)
H9A H 0.63210 0.55330 1.47770
C19A C 0.582(3) 0.463(6) 1.433(3)
C20A C 0.5689(13) 0.418(2) 1.3876(14)
H10A H 0.54170 0.37570 1.37840
C21A C 0.596(2) 0.437(4) 1.356(2)
C22A C 0.5833(9) 0.3948(15) 1.3096(8)
H11A H 0.55530 0.35400 1.29940
C23A C 0.6116(10) 0.4131(18) 1.2789(11)
H12A H 0.60280 0.38320 1.24840
C24A C 0.5508(6) 0.443(1) 1.4665(5)
C37A C 0.8351(6) 0.4647(13) 1.2551(5)
C38A C 0.8887(6) 0.4349(14) 1.2861(6)
H18A H 0.88900 0.42110 1.31900
H19A H 0.91180 0.48690 1.28670
H20A H 0.89880 0.37820 1.27220
Cd1F Cd 0.24088(4) -0.01970(6) 0.69440(3)
Cd2* Cd 0.47825(4) 0.34997(7) 1.51253(3)
Cd2A* Cd 0.52175(4) 0.34997(7) -0.01253(3)
Cd2D Cd 0.52175(4) 0.65003(7) 1.48747(3)
Cd2E Cd 0.47825(4) 0.65003(7) 0.01253(3)
O7* O 0.4806(4) 1.3713(7) 1.0413(3)
O7A* O 0.5194(4) 1.3713(7) 0.4587(3)
O8D O 0.5580(4) 1.5016(7) 1.0018(3)
O8E O 0.4420(4) 1.5016(7) 0.4982(3)
O11A O 0.7162(4) 0.3974(7) 1.1306(3)
O12A O 0.7807(4) 0.4887(7) 1.1310(3)
#END
