
#######################################################################
#
#                 Cambridge Crystallographic Data Centre
#                                CCDC
#
#######################################################################
#
# If this CIF has been generated from an entry in the Cambridge
# Structural Database, then it will include bibliographic, chemical,
# crystal, experimental, refinement or atomic coordinate data resulting
# from the CCDC's data processing and validation procedures.
#
#######################################################################

data_CSD_CIF_FAVFUG
_audit_creation_date 2017-02-24
_audit_creation_method CSD-ConQuest-V1
_database_code_CSD FAVFUG
_database_code_depnum_ccdc_archive 'CCDC 1519610'
_chemical_formula_sum 'C51 H36 Cd2 K1 N1 O17'
_chemical_formula_moiety
;
(C48 H24 Cd2 K1 O16 1-)n,n(C2 H8 N1 1+),n(C1 H4 O1)
;
_journal_coden_Cambridge 1147
_journal_volume 17
_journal_year 2017
_journal_page_first 1836
_journal_name_full 'Cryst.Growth Des. '
loop_
_publ_author_name
"Kangcai Wang"
"Xin Tian"
"Yunhe Jin"
"Jie Sun"
"Qinghua Zhang"
_chemical_name_systematic
;
catena-(dimethylammonium 
tetrakis(\m-naphthalene-2,6-dicarboxylato)-di-cadmium-potassium methanol 
solvate)
;
_cell_volume  29025.102
_exptl_crystal_colour 'whiteish colorless'
_exptl_special_details
;
The numbers and identities of the guest molecules are not made clear. We have 
just included the methanol molecule in the diagram
;
_exptl_crystal_description 'block'
_diffrn_ambient_temperature 296.1
_diffrn_special_details
;
twin

;
#These two values have been output from a single CSD field.
_refine_ls_R_factor_gt 0.0494
_refine_ls_wR_factor_gt 0.0494
_symmetry_cell_setting orthorhombic
_symmetry_space_group_name_H-M 'F d d 2'
_symmetry_Int_Tables_number 43
loop_
_symmetry_equiv_pos_site_id
_symmetry_equiv_pos_as_xyz
1 x,y,z
2 -x,-y,z
3 1/4+x,1/4-y,1/4+z
4 1/4-x,1/4+y,1/4+z
5 x,1/2+y,1/2+z
6 -x,1/2-y,1/2+z
7 1/4+x,3/4-y,3/4+z
8 1/4-x,3/4+y,3/4+z
9 1/2+x,y,1/2+z
10 1/2-x,-y,1/2+z
11 3/4+x,1/4-y,3/4+z
12 3/4-x,1/4+y,3/4+z
13 1/2+x,1/2+y,z
14 1/2-x,1/2-y,z
15 3/4+x,3/4-y,1/4+z
16 3/4-x,3/4+y,1/4+z
_cell_length_a 30.4133(18)
_cell_length_b 34.588(2)
_cell_length_c 27.5921(18)
_cell_angle_alpha 90
_cell_angle_beta 90
_cell_angle_gamma 90
_cell_formula_units_Z 16
loop_
_atom_type_symbol
_atom_type_radius_bond
C 0.68
H 0.23
Cd 1.44
K 2.03
N 0.68
O 0.68
loop_
_atom_site_label
_atom_site_type_symbol
_atom_site_fract_x
_atom_site_fract_y
_atom_site_fract_z
Cd1 Cd 0.74706(2) 0.39372(2) 0.36871(2)
Cd2 Cd 0.83911(2) 0.49782(2) 0.55317(2)
K1 K 0.78907(9) 0.44495(8) 0.46299(12)
O1 O 0.60288(19) 0.29291(16) 0.7388(2)
O2 O 0.7260(2) 0.43260(17) 0.4344(2)
O3 O 0.9392(2) 0.19732(19) 0.6427(2)
O4 O 0.7791(2) 0.50286(18) 0.4578(2)
O5 O 0.7940(2) 0.35241(19) 0.3989(2)
O6 O 0.7653(2) 0.44428(19) 0.5326(2)
O7 O 0.7911(2) 0.46824(19) 0.6019(3)
O8 O 0.6410(2) 0.3064(2) 0.8038(3)
O9 O 0.8001(2) 0.38713(16) 0.4677(2)
O10 O 0.5345(2) 0.6130(2) 0.5545(3)
O11 O 0.9583(2) 0.1773(2) 0.5689(2)
O12 O 0.7903(2) 0.53976(19) 0.5236(3)
O13 O 0.5632(3) 0.5975(2) 0.6252(3)
O14 O 0.6940(2) 0.4471(2) 0.3650(3)
O15 O 0.6490(3) 0.7054(2) 0.2894(3)
C1 C 0.6520(3) 0.3458(2) 0.6831(3)
H1 H 0.63260 0.32960 0.66680
O16 O 0.6224(3) 0.7168(2) 0.3616(4)
C2 C 0.6559(3) 0.3437(3) 0.7334(3)
C3 C 0.9372(3) 0.2001(3) 0.5984(4)
C4 C 0.6777(3) 0.3726(2) 0.6576(3)
C5 C 0.6322(3) 0.3133(3) 0.7613(4)
C6 C 0.6776(3) 0.3736(3) 0.6059(3)
H2 H 0.65940 0.35650 0.58940
C7 C 0.7341(3) 0.4224(3) 0.6060(3)
C8 C 0.9124(3) 0.2320(3) 0.5762(3)
C9 C 0.9078(3) 0.2348(3) 0.5263(4)
H3 H 0.92090 0.21640 0.50640
C10 C 0.6464(3) 0.5128(3) 0.5078(4)
C11 C 0.7020(3) 0.3975(3) 0.5805(4)
H4 H 0.69910 0.39870 0.54700
C12 C 0.8539(3) 0.2977(3) 0.4349(4)
H5 H 0.84910 0.29870 0.40170
C13 C 0.7333(3) 0.4228(3) 0.6539(4)
H6 H 0.75110 0.44050 0.67010
C14 C 0.6728(3) 0.4839(3) 0.4350(4)
C15 C 0.8352(3) 0.3258(3) 0.4646(4)
C16 C 0.6730(3) 0.4851(3) 0.4832(4)
H7 H 0.69040 0.46800 0.50080
C17 C 0.7661(3) 0.4473(3) 0.5774(4)
C18 C 0.8078(3) 0.3584(3) 0.4424(4)
C19 C 0.7066(3) 0.3974(3) 0.6819(4)
C20 C 0.8632(3) 0.2929(3) 0.5355(4)
C21 C 0.8383(3) 0.3237(3) 0.5122(4)
H8 H 0.82440 0.34230 0.53120
C22 C 0.5939(4) 0.5647(3) 0.5063(4)
H9 H 0.57600 0.58110 0.48830
C23 C 0.6214(4) 0.5390(3) 0.4815(4)
C24 C 0.8790(4) 0.2686(3) 0.4536(4)
H10 H 0.89300 0.25120 0.43300
C25 C 0.5923(3) 0.5666(3) 0.5551(4)
C26 C 0.6993(3) 0.4528(3) 0.4095(4)
C27 C 0.7084(4) 0.3954(3) 0.7331(3)
H11 H 0.72620 0.41290 0.74960
C28 C 0.7490(4) 0.5660(3) 0.4609(5)
C29 C 0.8909(4) 0.2610(3) 0.6067(4)
H12 H 0.89320 0.25940 0.64020
C30 C 0.6194(4) 0.5418(3) 0.5824(4)
H13 H 0.61880 0.54270 0.61610
C31 C 0.5618(4) 0.5948(3) 0.5792(4)
C32 C 0.8837(4) 0.2651(3) 0.5053(3)
C33 C 0.7745(3) 0.5336(3) 0.4813(4)
C34 C 0.6484(4) 0.5094(3) 0.4078(5)
H14 H 0.64930 0.50820 0.37410
C35 C 0.6467(4) 0.5164(3) 0.5590(4)
H15 H 0.66580 0.50120 0.57710
C36 C 0.6856(3) 0.3697(3) 0.7589(4)
H16 H 0.68870 0.36830 0.79240
C37 C 0.7032(4) 0.6288(4) 0.4258(5)
C38 C 0.8683(4) 0.2895(3) 0.5867(4)
H17 H 0.85520 0.30780 0.60660
C39 C 0.6471(4) 0.6988(4) 0.3309(7)
C40 C 0.6234(4) 0.5359(4) 0.4299(5)
H18 H 0.60680 0.55280 0.41110
C41 C 0.7267(5) 0.5928(3) 0.4921(5)
H19 H 0.72630 0.58890 0.52540
C42 C 0.7442(4) 0.5685(3) 0.4119(5)
H20 H 0.75610 0.55010 0.39120
C43 C 0.7199(4) 0.6014(3) 0.3938(4)
C44 C 0.7053(6) 0.6254(5) 0.4717(7)
H21 H 0.69280 0.64410 0.49160
C45 C 0.6763(4) 0.6659(4) 0.3564(5)
C46 C 0.6927(5) 0.6393(4) 0.3244(6)
H22 H 0.68810 0.64130 0.29110
C47 C 0.7183(6) 0.6069(5) 0.3457(7)
H23 H 0.73350 0.59010 0.32540
C48 C 0.6776(5) 0.6624(4) 0.4032(5)
H24 H 0.66310 0.68020 0.42290
C49 C 0.6213(6) 0.6205(5) 0.7252(6)
H25 H 0.59190 0.63000 0.72120
H26 H 0.64180 0.64140 0.72110
H27 H 0.62460 0.60980 0.75710
O17 O 0.6295(6) 0.5925(5) 0.6913(6)
H28 H 0.64160 0.60220 0.66770
N1 N 0.75000 0.75000 0.2106(10)
H29 H 0.74670 0.72950 0.22980
C50 C 0.7080(6) 0.7553(5) 0.1828(8)
H30 H 0.71460 0.76070 0.14950
H31 H 0.69170 0.77650 0.19630
H32 H 0.69070 0.73210 0.18490
H33? H 0.74670 0.72950 0.22980
Cd1C Cd 0.50294(2) 0.64372(2) 0.61871(2)
Cd1O Cd 1.00294(2) 0.14372(2) 0.61871(2)
Cd2J Cd 0.58911(2) 0.75218(2) 0.30317(2)
Cd2N Cd 0.58911(2) 0.25218(2) 0.80317(2)
K1N K 0.53907(9) 0.30505(8) 0.71299(12)
K1O K 0.96093(9) 0.19495(8) 0.71299(12)
O1F O 0.85288(19) 0.45709(16) 0.4888(2)
O3K O 0.8108(2) 0.44732(19) 0.3927(2)
O8F O 0.8910(2) 0.4436(2) 0.5538(3)
O10G O 0.7155(2) 0.3630(2) 0.3045(3)
O11K O 0.7917(2) 0.4273(2) 0.3189(2)
O13G O 0.6868(3) 0.3475(2) 0.3752(3)
O15B O 0.8990(3) 0.5446(2) 0.5394(3)
O16B O 0.8724(3) 0.5332(2) 0.6116(4)
H29M H 0.75330 0.77050 0.22980
C50M C 0.7920(6) 0.7447(5) 0.1828(8)
H30M H 0.78540 0.73930 0.14950
H31M H 0.80830 0.72350 0.19630
H32M H 0.80930 0.76790 0.18490
#END
