
#######################################################################
#
#                 Cambridge Crystallographic Data Centre
#                                CCDC
#
#######################################################################
#
# If this CIF has been generated from an entry in the Cambridge
# Structural Database, then it will include bibliographic, chemical,
# crystal, experimental, refinement or atomic coordinate data resulting
# from the CCDC's data processing and validation procedures.
#
#######################################################################

data_CSD_CIF_FAXSUV
_audit_creation_date 2017-07-11
_audit_creation_method CSD-ConQuest-V1
_database_code_CSD FAXSUV
_database_code_depnum_ccdc_archive 'CCDC 1521952'
_chemical_formula_sum 'C30 H60 Mn4 N6 O30 S2'
_chemical_formula_moiety
;
(C10 Mn4 O28 S2 6-)n,2(C10 H28 N3 3+),2(H2 O1)
;
_journal_coden_Cambridge 971
_journal_volume 75
_journal_year 2018
_journal_page_first 77
_journal_name_full 'Solid State Sciences '
loop_
_publ_author_name
"Jingyu Shi"
"Furong Guo"
"Meng Yang"
"Hongmei Zeng"
"Zhien Lin"
_chemical_name_systematic
;
catena-[bis(3-dimethylammoniopropyl)ammonium 
pentakis(\m-oxalato)-bis(\m-sulfato)-tetra-manganese(ii) dihydrate]
;
_cell_volume   1239.457
_exptl_crystal_colour 'light yellow'
_exptl_crystal_density_diffrn 1.7
_exptl_crystal_description 'block'
_diffrn_ambient_temperature 293
#These two values have been output from a single CSD field.
_refine_ls_R_factor_gt 0.0614
_refine_ls_wR_factor_gt 0.0614
_symmetry_cell_setting triclinic
_symmetry_space_group_name_H-M 'P -1'
_symmetry_Int_Tables_number 2
loop_
_symmetry_equiv_pos_site_id
_symmetry_equiv_pos_as_xyz
1 x,y,z
2 -x,-y,-z
_cell_length_a 9.9379(6)
_cell_length_b 11.2423(6)
_cell_length_c 11.6390(7)
_cell_angle_alpha 86.793(5)
_cell_angle_beta 81.644(5)
_cell_angle_gamma 74.481(5)
_cell_formula_units_Z 1
loop_
_atom_type_symbol
_atom_type_radius_bond
C 0.68
H 0.23
Mn 1.61
N 0.68
O 0.68
S 1.02
loop_
_atom_site_label
_atom_site_type_symbol
_atom_site_fract_x
_atom_site_fract_y
_atom_site_fract_z
Mn1 Mn 0.76570(5) 0.56392(5) 0.45779(4)
Mn2 Mn 0.76275(6) 0.91275(5) 0.08763(5)
S1 S 1.01414(9) 0.29911(9) 0.44320(9)
O1 O 0.8665(3) 0.3718(2) 0.4656(3)
O2 O 1.0332(3) 0.2422(4) 0.3305(3)
O3 O 1.0455(3) 0.2047(3) 0.5316(4)
O4 O 1.1084(3) 0.3802(3) 0.4368(2)
O5 O 0.5910(2) 0.5555(2) 0.5925(2)
O6 O 0.3935(3) 0.4949(3) 0.6316(2)
O7 O 0.8692(3) 0.5881(2) 0.2815(2)
O8 O 0.8778(3) 0.7276(3) 0.1404(2)
O9 O 0.6604(3) 0.7556(2) 0.4072(2)
O10 O 0.6696(3) 0.8951(2) 0.2647(2)
O11 O 0.5986(3) 0.8483(3) 0.0218(3)
O12 O 0.3902(3) 0.9174(3) -0.0418(3)
O13 O 0.9175(3) 0.9070(3) -0.0642(2)
O14 O 1.1019(3) 0.9769(3) -0.1359(2)
C1 C 0.4958(3) 0.5144(3) 0.5650(3)
C2 C 0.8285(4) 0.6936(3) 0.2385(3)
C3 C 0.7094(3) 0.7891(3) 0.3110(3)
C4 C 0.4966(4) 0.9328(3) -0.0061(3)
C5 C 1.0056(4) 0.9670(3) -0.0584(3)
O15 O 0.4713(4) 0.3717(4) 0.8554(4)
H1 H 0.51630 0.32550 0.79940
H2 H 0.40490 0.34260 0.88920
C6 C 0.8076(5) 0.4158(6) -0.2388(4)
H3 H 0.83070 0.32900 -0.25310
H4 H 0.86190 0.45460 -0.29660
H5 H 0.70900 0.45140 -0.24230
C7 C 0.8282(7) 0.5670(5) -0.1016(5)
H6 H 0.73220 0.61360 -0.10270
H7 H 0.88790 0.59700 -0.16220
H8 H 0.85650 0.57580 -0.02780
C8 C 0.7515(4) 0.3813(5) -0.0293(3)
H9 H 0.74700 0.30230 -0.05570
H10 H 0.65650 0.43510 -0.02010
C9 C 0.8040(4) 0.3624(4) 0.0874(3)
H11 H 0.80430 0.44110 0.11760
H12 H 0.89940 0.30940 0.08010
C10 C 0.7060(4) 0.3032(4) 0.1688(3)
H13 H 0.61860 0.36500 0.19230
H14 H 0.68390 0.23940 0.12800
C11 C 0.6843(4) 0.1763(4) 0.3482(3)
H15 H 0.66450 0.11550 0.30190
H16 H 0.59510 0.23130 0.37990
C12 C 0.7610(5) 0.1120(4) 0.4461(4)
H17 H 0.78550 0.17220 0.49000
H18 H 0.84760 0.05340 0.41460
C13 C 0.6698(4) 0.0453(4) 0.5253(3)
H19 H 0.58380 0.10470 0.55680
H20 H 0.64390 -0.01320 0.48040
C14 C 0.6536(5) -0.0971(5) 0.6896(5)
H21 H 0.56330 -0.04430 0.71880
H22 H 0.69930 -0.13850 0.75350
H23 H 0.64100 -0.15720 0.63950
C15 C 0.7818(8) 0.0597(6) 0.6987(5)
H24 H 0.85060 0.09640 0.65520
H25 H 0.82080 0.01270 0.76300
H26 H 0.69990 0.12350 0.72710
N1 N 0.8408(3) 0.4356(3) -0.1203(3)
H27 H 0.93920 0.39040 -0.11660
N2 N 0.7693(3) 0.2483(3) 0.2733(3)
H28 H 0.78000 0.30840 0.31480
H29 H 0.85450 0.19900 0.25110
N3 N 0.7418(3) -0.0220(3) 0.6233(3)
H30 H 0.82910 -0.07960 0.58880
O5A O 0.4090(2) 0.4445(2) 0.4075(2)
O6A O 0.6065(3) 0.5051(3) 0.3684(2)
C1A C 0.5042(3) 0.4856(3) 0.4350(3)
O11A O 0.4014(3) 1.1517(3) -0.0218(3)
O12A O 0.6098(3) 1.0826(3) 0.0418(3)
C4A C 0.5034(4) 1.0672(3) 0.0061(3)
O13A O 1.0825(3) 1.0930(3) 0.0642(2)
O14A O 0.8981(3) 1.0231(3) 0.1359(2)
C5A C 0.9944(4) 1.0330(3) 0.0584(3)
Mn1A Mn 0.23430(5) 0.43608(5) 0.54221(4)
Mn2A Mn 0.23725(6) 0.08725(5) 0.91237(5)
S1A S -0.01414(9) 0.70089(9) 0.55680(9)
O1A O 0.1335(3) 0.6282(2) 0.5344(3)
O2A O -0.0332(3) 0.7578(4) 0.6695(3)
O3A O -0.0455(3) 0.7953(3) 0.4684(4)
O4A O -0.1084(3) 0.6198(3) 0.5632(2)
O7A O 0.1308(3) 0.4119(2) 0.7185(2)
O8A O 0.1222(3) 0.2724(3) 0.8596(2)
O9A O 0.3396(3) 0.2444(2) 0.5928(2)
O10A O 0.3304(3) 0.1049(2) 0.7353(2)
C2A C 0.1715(4) 0.3064(3) 0.7615(3)
C3A C 0.2906(3) 0.2109(3) 0.6890(3)
Mn1* Mn -0.23430(5) 0.56392(5) 0.45779(4)
Mn1A* Mn 1.23430(5) 0.43608(5) 0.54221(4)
Mn2A* Mn 0.23725(6) 1.08725(5) -0.08763(5)
Mn2A** Mn 1.23725(6) 1.08725(5) -0.08763(5)
O4* O 0.1084(3) 0.3802(3) 0.4368(2)
O4A* O 0.8916(3) 0.6198(3) 0.5632(2)
O11A* O 0.4014(3) 0.1517(3) 0.9782(3)
O12* O 0.3902(3) -0.0826(3) 0.9582(3)
O13A* O 0.0825(3) 0.0930(3) 1.0642(2)
O14* O 0.1019(3) -0.0231(3) 0.8641(2)
#END
