
#######################################################################
#
#                 Cambridge Crystallographic Data Centre
#                                CCDC
#
#######################################################################
#
# If this CIF has been generated from an entry in the Cambridge
# Structural Database, then it will include bibliographic, chemical,
# crystal, experimental, refinement or atomic coordinate data resulting
# from the CCDC's data processing and validation procedures.
#
#######################################################################

data_CSD_CIF_FAXSOP
_audit_creation_date 2017-07-11
_audit_creation_method CSD-ConQuest-V1
_database_code_CSD FAXSOP
_database_code_depnum_ccdc_archive 'CCDC 1521951'
_chemical_formula_sum 'C6 H20 Mn2 N2 O16 S2'
_chemical_formula_moiety
;
(C2 H4 Mn2 O14 S2 2-)n,C4 H12 N2 2+,2(H2 O1)
;
_journal_coden_Cambridge 971
_journal_volume 75
_journal_year 2018
_journal_page_first 77
_journal_name_full 'Solid State Sciences '
loop_
_publ_author_name
"Jingyu Shi"
"Furong Guo"
"Meng Yang"
"Hongmei Zeng"
"Zhien Lin"
_chemical_name_systematic
;
catena-[piperazinediium (\m-oxalato)-bis(\m-sulfato)-diaqua-di-manganese(ii) 
dihydrate]
;
_cell_volume    439.004
_exptl_crystal_colour 'light pink'
_exptl_crystal_density_diffrn 2.081
_exptl_crystal_description 'block'
_diffrn_ambient_temperature 292.7
#These two values have been output from a single CSD field.
_refine_ls_R_factor_gt 0.0388
_refine_ls_wR_factor_gt 0.0388
_symmetry_cell_setting triclinic
_symmetry_space_group_name_H-M 'P -1'
_symmetry_Int_Tables_number 2
loop_
_symmetry_equiv_pos_site_id
_symmetry_equiv_pos_as_xyz
1 x,y,z
2 -x,-y,-z
_cell_length_a 6.6501(4)
_cell_length_b 7.7034(4)
_cell_length_c 9.6810(5)
_cell_angle_alpha 69.850(4)
_cell_angle_beta 70.553(5)
_cell_angle_gamma 83.921(4)
_cell_formula_units_Z 1
loop_
_atom_type_symbol
_atom_type_radius_bond
C 0.68
H 0.23
Mn 1.61
N 0.68
O 0.68
S 1.02
loop_
_atom_site_label
_atom_site_type_symbol
_atom_site_fract_x
_atom_site_fract_y
_atom_site_fract_z
Mn1 Mn 0.15469(6) 0.55685(5) 0.67338(4)
S1 S 0.32560(9) 0.36182(8) 0.39228(7)
O1 O 0.2255(4) 0.3596(3) 0.5535(3)
O2 O 0.1805(4) 0.4456(4) 0.3030(3)
O3 O 0.3818(5) 0.1753(3) 0.3941(3)
O4 O 0.5183(3) 0.4812(3) 0.3192(2)
O5 O 0.0704(3) 0.7048(3) 0.8444(2)
O6 O -0.0725(3) 0.6621(3) 1.0975(2)
O7 O 0.2286(4) 0.8188(3) 0.4934(3)
H1 H 0.16170 0.87210 0.42990
H2 H 0.30750 0.89980 0.49010
C1 C -0.0005(4) 0.6065(3) 0.9839(3)
O8 O 0.0421(3) 0.9359(3) 0.2645(3)
H3 H -0.01150 1.04190 0.23430
H4 H -0.06130 0.86040 0.30530
N1 N 0.4561(4) 0.8367(4) 0.1320(3)
H5 H 0.32020 0.85410 0.18080
H6 H 0.49630 0.72920 0.18800
C2 C 0.5883(5) 0.9875(5) 0.1204(4)
H7 H 0.73770 0.96530 0.07310
H8 H 0.56950 0.99030 0.22340
C3 C 0.4760(5) 0.8288(4) -0.0237(4)
H9 H 0.38490 0.73110 -0.01220
H10 H 0.62210 0.80190 -0.07500
O5A O -0.0704(3) 0.2952(3) 1.1556(2)
O6A O 0.0725(3) 0.3379(3) 0.9025(2)
C1A C 0.0005(4) 0.3935(3) 1.0161(3)
Mn1A Mn -0.15469(6) 0.44315(5) 0.32662(4)
S1A S -0.32560(9) 0.63818(8) 0.60772(7)
O1A O -0.2255(4) 0.6404(3) 0.4465(3)
O2A O -0.1805(4) 0.5544(4) 0.6970(3)
O3A O -0.3818(5) 0.8247(3) 0.6059(3)
O4A O -0.5183(3) 0.5188(3) 0.6808(2)
O7A O -0.2286(4) 0.1812(3) 0.5066(3)
H1A H -0.16170 0.12790 0.57010
H2A H -0.30750 0.10020 0.50990
Mn1* Mn -0.84531(6) 0.55685(5) 0.67338(4)
Mn1A* Mn -0.15469(6) 0.44315(5) 1.32662(4)
Mn1A** Mn 0.84531(6) 0.44315(5) 0.32662(4)
O4* O -0.4817(3) 0.4812(3) 0.3192(2)
O4A* O 0.4817(3) 0.5188(3) 0.6808(2)
O5A* O -0.0704(3) 0.2952(3) 0.1556(2)
O6* O -0.0725(3) 0.6621(3) 0.0975(2)
N1A N 0.5439(4) 1.1633(4) -0.1320(3)
H5A H 0.67980 1.14590 -0.18080
H6A H 0.50370 1.27080 -0.18800
C2A C 0.4117(5) 1.0125(5) -0.1204(4)
H7A H 0.26230 1.03470 -0.07310
H8A H 0.43050 1.00970 -0.22340
C3A C 0.5240(5) 1.1712(4) 0.0237(4)
H9A H 0.61510 1.26890 0.01220
H10A H 0.37790 1.19810 0.07500
#END
