
#######################################################################
#
#                 Cambridge Crystallographic Data Centre
#                                CCDC
#
#######################################################################
#
# If this CIF has been generated from an entry in the Cambridge
# Structural Database, then it will include bibliographic, chemical,
# crystal, experimental, refinement or atomic coordinate data resulting
# from the CCDC's data processing and validation procedures.
#
#######################################################################

data_CSD_CIF_FEBPUY
_audit_creation_date 2005-04-29
_audit_creation_method CSD-ConQuest-V1
_database_code_CSD FEBPUY
_database_code_depnum_ccdc_archive 'CCDC 237051'
_chemical_formula_sum 'C36 H52 Cu3 N6 O24'
_chemical_formula_moiety
;
(C28 H20 Cu3 N4 O20 2-)n,2n(C4 H12 N1 1+),4n(H2 O1)
;
_journal_coden_Cambridge 1295
_journal_volume 8
_journal_year 2005
_journal_page_first 48
_journal_name_full 'Inorg.Chem.Commun. '
loop_
_publ_author_name
"Ming-Liang Tong"
"Jing Wang"
"Sheng Hu"
"S.R.Batten"
_chemical_name_systematic
;
catena-(bis(Tetramethylammonium) 
tetrakis(\m~3~-pyridine-3,4-dicarboxylato)-tetra-aqua-tri-copper 
tetrahydrate)
;
_cell_volume   4565.235
_exptl_crystal_colour 'blue'
_exptl_crystal_density_diffrn 1.664
_exptl_crystal_description 'polyhedral'
_diffrn_ambient_temperature 273
_refine_special_details
;
Cations are disordered equally over two sites.

;
#These two values have been output from a single CSD field.
_refine_ls_R_factor_gt 0.0321
_refine_ls_wR_factor_gt 0.0321
_symmetry_cell_setting orthorhombic
_symmetry_space_group_name_H-M 'P b c a'
_symmetry_Int_Tables_number 61
loop_
_symmetry_equiv_pos_site_id
_symmetry_equiv_pos_as_xyz
1 x,y,z
2 1/2-x,-y,1/2+z
3 -x,1/2+y,1/2-z
4 1/2+x,1/2-y,-z
5 -x,-y,-z
6 -1/2+x,y,-1/2-z
7 x,-1/2-y,-1/2+z
8 -1/2-x,-1/2+y,z
_cell_length_a 13.668(1)
_cell_length_b 17.525(2)
_cell_length_c 19.059(2)
_cell_angle_alpha 90
_cell_angle_beta 90
_cell_angle_gamma 90
_cell_formula_units_Z 4
loop_
_atom_type_symbol
_atom_type_radius_bond
C 0.68
H 0.23
Cu 1.52
N 0.68
O 0.74
loop_
_atom_site_label
_atom_site_type_symbol
_atom_site_fract_x
_atom_site_fract_y
_atom_site_fract_z
Cu1 Cu 0.43001(3) 0.13977(2) 0.60977(2)
Cu2 Cu 0.50000 0.00000 1.00000
O1 O 0.52401(18) 0.11773(14) 0.68530(12)
O2 O 0.5621(2) -0.00430(16) 0.66380(14)
O3 O 0.56942(18) 0.04848(15) 0.92371(12)
O4 O 0.49020(19) 0.01612(16) 0.82526(13)
O5 O 0.33732(18) 0.31384(14) 1.04337(12)
O6 O 0.3164(2) 0.21848(16) 1.11941(14)
O7 O 0.2527(2) 0.02286(16) 0.99433(15)
O8 O 0.3697(2) 0.11169(16) 0.99723(14)
O9 O 0.4228(2) 0.02821(16) 0.54687(15)
H1 H 0.36580 0.01040 0.53220
H2 H 0.44460 0.00120 0.59190
O10 O 0.4046(2) -0.04966(14) 0.93666(13)
H3 H 0.42270 -0.02970 0.89480
H4 H 0.34860 -0.03240 0.95120
O11 O 0.8988(4) 0.2073(3) 0.6260(2)
H5 H 0.88340 0.25930 0.61400
H6 H 0.90310 0.19170 0.57920
O12 O 0.6546(4) -0.1364(2) 0.6022(2)
H7 H 0.65640 -0.15100 0.55970
H8 H 0.65100 -0.07900 0.62010
N1 N 0.8196(2) 0.10564(16) 0.82728(14)
N2 N 0.0434(2) 0.18052(17) 0.94702(14)
C1 C 0.7356(3) 0.08211(19) 0.85602(17)
H9 H 0.73280 0.07760 0.90460
C2 C 0.6525(3) 0.06405(19) 0.81799(17)
C3 C 0.5618(3) 0.0404(2) 0.85782(18)
C4 C 0.6576(3) 0.06804(19) 0.74465(17)
C5 C 0.5723(3) 0.0568(2) 0.69495(17)
C6 C 0.7466(3) 0.0896(2) 0.71525(18)
H10 H 0.75320 0.09120 0.66670
C7 C 0.8250(3) 0.1087(2) 0.75688(18)
H11 H 0.88320 0.12400 0.73590
C8 C 0.1187(3) 0.1325(2) 0.95771(17)
H12 H 0.11360 0.08320 0.93990
C9 C 0.2036(3) 0.1517(2) 0.99374(17)
C10 C 0.2831(3) 0.0912(2) 0.99696(18)
C11 C 0.2110(3) 0.2258(2) 1.02048(17)
C12 C 0.2966(3) 0.2524(2) 1.06544(18)
C13 C 0.1328(3) 0.2752(2) 1.00949(18)
H13 H 0.13580 0.32490 1.02640
C14 C 0.05111(18) 0.25105(13) 0.97374(13)
H14 H -0.00070 0.28490 0.96790
N3 N 0.39570(18) -0.17116(13) 0.74560(13)
C15 C 0.49309(18) -0.16308(13) 0.78189(13)
H15 H 0.52740 -0.21080 0.78010
H16 H 0.48280 -0.14870 0.82990
H17 H 0.53110 -0.12450 0.75870
C16 C 0.32741(18) -0.22459(13) 0.78195(13)
H18 H 0.35560 -0.27470 0.78310
H19 H 0.26630 -0.22620 0.75710
H20 H 0.31630 -0.20720 0.82900
C17 C 0.34074(18) -0.09527(13) 0.74828(13)
H21 H 0.27870 -0.10060 0.72510
H22 H 0.37860 -0.05660 0.72510
H23 H 0.33030 -0.08090 0.79630
C18 C 0.41897(18) -0.18824(13) 0.67195(13)
H24 H 0.45360 -0.23580 0.66930
H25 H 0.45910 -0.14820 0.65300
H26 H 0.35950 -0.19180 0.64540
N4? N 0.39570(18) -0.17116(13) 0.74560(13)
C19? C 0.49309(18) -0.16308(13) 0.78189(13)
H27? H 0.54420 -0.16010 0.74740
H28? H 0.50400 -0.20650 0.81150
H29? H 0.49310 -0.11750 0.80980
C20? C 0.37446(18) -0.10642(13) 0.69903(13)
H30? H 0.31200 -0.11390 0.67710
H31? H 0.42430 -0.10290 0.66360
H32? H 0.37330 -0.06010 0.72590
C21? C 0.39797(18) -0.24233(13) 0.70160(13)
H33? H 0.33630 -0.24830 0.67810
H34? H 0.40960 -0.28570 0.73120
H35? H 0.44940 -0.23840 0.66750
C22? C 0.32010(18) -0.17547(13) 0.80287(13)
H36? H 0.25630 -0.18070 0.78240
H37? H 0.32240 -0.12970 0.83050
H38? H 0.33330 -0.21870 0.83220
Cu1D Cu 0.56999(3) -0.13977(2) 1.39023(2)
Cu1F Cu 0.43001(3) 0.36023(2) 1.10977(2)
Cu1E Cu 0.93001(3) 0.13977(2) 0.89023(2)
Cu1E* Cu -0.06999(3) 0.13977(2) 0.89023(2)
Cu1A Cu 0.06999(3) -0.13977(2) 1.10977(2)
Cu1B Cu 0.56999(3) -0.36023(2) 0.89023(2)
Cu1A* Cu 1.06999(3) -0.13977(2) 1.10977(2)
O1D O 0.47599(18) -0.11773(14) 1.31470(12)
O2D O 0.4379(2) 0.00430(16) 1.33620(14)
O3D O 0.43058(18) -0.04848(15) 1.07629(12)
O4D O 0.50980(19) -0.01612(16) 1.17474(13)
O5D O 0.66268(18) -0.31384(14) 0.95663(12)
O5F O 0.33732(18) 0.18616(14) 0.54337(12)
O5B O 0.66268(18) -0.18616(14) 1.45663(12)
O6D O 0.6836(2) -0.21848(16) 0.88059(14)
O7D O 0.7473(2) -0.02286(16) 1.00567(15)
O8D O 0.6303(2) -0.11169(16) 1.00277(14)
O9D O 0.5772(2) -0.02821(16) 1.45313(15)
H1D H 0.63420 -0.01040 1.46780
H2D H 0.55540 -0.00120 1.40810
O10D O 0.5954(2) 0.04966(14) 1.06334(13)
H3D H 0.57730 0.02970 1.10520
H4D H 0.65140 0.03240 1.04880
N1D N 0.1804(2) -0.10564(16) 1.17272(14)
N1E N 0.3196(2) 0.10564(16) 0.67272(14)
N1A N 0.6804(2) -0.10564(16) 1.32728(14)
N2D N 0.9566(2) -0.18052(17) 1.05298(14)
N2E N 0.5434(2) 0.18052(17) 0.55298(14)
N2A N 0.4566(2) -0.18052(17) 1.44702(14)
C1D C 0.2644(3) -0.08211(19) 1.14398(17)
H9D H 0.26720 -0.07760 1.09540
C2D C 0.3475(3) -0.06405(19) 1.18201(17)
C3D C 0.4382(3) -0.0404(2) 1.14218(18)
C4D C 0.3424(3) -0.06804(19) 1.25535(17)
C5D C 0.4277(3) -0.0568(2) 1.30505(17)
C6D C 0.2534(3) -0.0896(2) 1.28475(18)
H10D H 0.24680 -0.09120 1.33330
C7D C 0.1750(3) -0.1087(2) 1.24312(18)
H11D H 0.11680 -0.12400 1.26410
C8D C 0.8813(3) -0.1325(2) 1.04229(17)
H12D H 0.88640 -0.08320 1.06010
C9D C 0.7964(3) -0.1517(2) 1.00626(17)
C10D C 0.7169(3) -0.0912(2) 1.00304(18)
C11D C 0.7890(3) -0.2258(2) 0.97952(17)
C12D C 0.7034(3) -0.2524(2) 0.93456(18)
C13D C 0.8672(3) -0.2752(2) 0.99051(18)
H13D H 0.86420 -0.32490 0.97360
C14D C 0.94889(18) -0.25105(13) 1.02626(13)
H14D H 1.00070 -0.28490 1.03210
#END
