
#######################################################################
#
#                 Cambridge Crystallographic Data Centre
#                                CCDC
#
#######################################################################
#
# If this CIF has been generated from an entry in the Cambridge
# Structural Database, then it will include bibliographic, chemical,
# crystal, experimental, refinement or atomic coordinate data resulting
# from the CCDC's data processing and validation procedures.
#
#######################################################################

data_CSD_CIF_FECXOC
_audit_creation_date 2012-09-04
_audit_creation_method CSD-ConQuest-V1
_database_code_CSD FECXOC
_database_code_depnum_ccdc_archive 'CCDC 851169'
_chemical_formula_sum 'C108 H141 Cl3 Co13.5 N105 O27'
_chemical_formula_moiety
;
(C72 H48 Cl3 Co12 N96 O12 3-)n,1.5(C24 H54 Co1 N6 O6 2+),6(H2 O1)
;
_journal_coden_Cambridge 1145
_journal_volume 22
_journal_year 2012
_journal_page_first 10200
_journal_name_full 'J.Mater.Chem. '
loop_
_publ_author_name
"S.Biswas"
"M.Maes"
"A.Dhakshinamoorthy"
"M.Feyand"
"D.E.De Vos"
"H.Garcia"
"N.Stock"
_chemical_name_systematic
;
catena-[sesquikis(hexakis(dimethylacetamide)-cobalt(ii)) 
octakis(\m~6~-1,3,5-benzenetris(tetrazolato))-tris(\m~4~-chloro)-dodeca-aqua-d
odeca-cobalt(ii) hexahydrate]
;
_cell_volume   6580.202
_exptl_crystal_colour 'red'
_exptl_special_details
;
Large structure in which program limits have been exceeded. A 2D diagram is 
pending
;
_exptl_crystal_description 'cubic'
_diffrn_ambient_temperature 293
_refine_special_details
;
The cations and solvent molecules were taken into account using 
PLATON/SQUEEZE.
;
#These two values have been output from a single CSD field.
_refine_ls_R_factor_gt 0.0782
_refine_ls_wR_factor_gt 0.0782
_symmetry_cell_setting cubic
_symmetry_space_group_name_H-M 'P m -3 m'
_symmetry_Int_Tables_number 221
loop_
_symmetry_equiv_pos_site_id
_symmetry_equiv_pos_as_xyz
1 x,y,z
2 -x,-y,z
3 -x,y,-z
4 x,-y,-z
5 z,x,y
6 z,-x,-y
7 -z,-x,y
8 -z,x,-y
9 y,z,x
10 -y,z,-x
11 y,-z,-x
12 -y,-z,x
13 y,x,-z
14 -y,-x,-z
15 y,-x,z
16 -y,x,z
17 x,z,-y
18 -x,z,y
19 -x,-z,-y
20 x,-z,y
21 z,y,-x
22 z,-y,x
23 -z,y,x
24 -z,-y,-x
25 -x,-y,-z
26 x,y,-z
27 x,-y,z
28 -x,y,z
29 -z,-x,-y
30 -z,x,y
31 z,x,-y
32 z,-x,y
33 -y,-z,-x
34 y,-z,x
35 -y,z,x
36 y,z,-x
37 -y,-x,z
38 y,x,z
39 -y,x,-z
40 y,-x,-z
41 -x,-z,y
42 x,-z,-y
43 x,z,y
44 -x,z,-y
45 -z,-y,x
46 -z,y,-x
47 z,-y,-x
48 z,y,x
_cell_length_a 18.739(2)
_cell_length_b 18.739(2)
_cell_length_c 18.739(2)
_cell_angle_alpha 90
_cell_angle_beta 90
_cell_angle_gamma 90
_cell_formula_units_Z 1
loop_
_atom_type_symbol
_atom_type_radius_bond
C 0.68
H 0.23
Cl 0.99
Co 1.26
N 0.68
O 0.68
loop_
_atom_site_label
_atom_site_type_symbol
_atom_site_fract_x
_atom_site_fract_y
_atom_site_fract_z
Co1 Co 0.00000 0.36121(6) 0.50000
Cl1 Cl 0.00000 0.50000 0.50000
N1 N 0.07689(17) 0.36927(19) 0.58102(18)
N2 N 0.13208(18) 0.3251(2) 0.59056(19)
C1 C 0.2279(3) 0.3192(2) 0.6808(2)
C2 C 0.1649(3) 0.3508(2) 0.6492(2)
C3 C 0.2586(3) 0.2586(3) 0.6511(3)
H1 H 0.23820 0.23820 0.61070
O1 O 0.00000 0.2501(4) 0.50000
N1G N 0.41898(17) 0.07689(19) 0.63073(18)
N2G N 0.40944(18) 0.13208(20) 0.67490(19)
C1G C 0.3192(3) 0.2279(2) 0.6808(2)
C2G C 0.3508(3) 0.1649(2) 0.6492(2)
C3G C 0.3489(3) 0.2586(3) 0.7414(3)
H1G H 0.38930 0.23820 0.76180
N1J N 0.36927(17) 0.41898(19) 0.92311(18)
N2J N 0.32510(18) 0.40944(20) 0.86792(19)
C1J C 0.3192(3) 0.3192(2) 0.7721(2)
C2J C 0.3508(3) 0.3508(2) 0.8351(2)
C3J C 0.2586(3) 0.3489(3) 0.7414(3)
H1J H 0.23820 0.38930 0.76180
N1KA N 0.36927(17) 0.07689(19) 0.58102(18)
N2KA N 0.32510(18) 0.13208(20) 0.59056(19)
N1OA N 0.07689(17) 0.41898(19) 0.63073(18)
N2OA N 0.13208(18) 0.40944(20) 0.67490(19)
N1SA N 0.41898(17) 0.36927(19) 0.92311(18)
N2SA N 0.40944(18) 0.3251(2) 0.86792(19)
Co1A Co 0.00000 0.63879(6) 0.50000
O1A O 0.00000 0.7499(4) 0.50000
N1C N 0.07689(17) 0.63073(19) 0.41898(18)
N2C N 0.13208(18) 0.6749(2) 0.40944(19)
C1C C 0.2279(3) 0.6808(2) 0.3192(2)
C2C C 0.1649(3) 0.6492(2) 0.3508(2)
C3C C 0.2586(3) 0.7414(3) 0.3489(3)
H1C H 0.23820 0.76180 0.38930
N1F N 0.41898(17) 0.92311(19) 0.36927(18)
N2F N 0.40944(18) 0.86792(20) 0.32510(19)
C1F C 0.3192(3) 0.7721(2) 0.3192(2)
C2F C 0.3508(3) 0.8351(2) 0.3508(2)
C3F C 0.3489(3) 0.7414(3) 0.2586(3)
H1F H 0.38930 0.76180 0.23820
N1H N 0.36927(17) 0.58102(19) 0.07689(18)
N2H N 0.32510(18) 0.59056(20) 0.13208(19)
C1H C 0.3192(3) 0.6808(2) 0.2279(2)
C2H C 0.3508(3) 0.6492(2) 0.1649(2)
C3H C 0.2586(3) 0.6511(3) 0.2586(3)
H1H H 0.23820 0.61070 0.23820
N1MA N 0.36927(17) 0.92311(19) 0.41898(18)
N2MA N 0.32510(18) 0.86792(20) 0.40944(19)
N1PA N 0.07689(17) 0.58102(19) 0.36927(18)
N2PA N 0.13208(18) 0.59056(20) 0.32510(19)
N1RA N 0.41898(17) 0.63073(19) 0.07689(18)
N2RA N 0.40944(18) 0.6749(2) 0.13208(19)
Co1D Co 0.50000 1.00000(6) 0.36121
Cl1D Cl 0.50000 1.00000 0.50000
O1D O 0.50000 1.0000(4) 0.25010
Co1E Co 0.50000 0.00000(6) 0.63879
Cl1D* Cl 0.50000 0.00000 0.50000
O1E O 0.50000 0.0000(4) 0.74990
Co1H Co 0.36121 0.50000(6) 0.00000
O1H O 0.25010 0.5000(4) 0.00000
Co1H* Co 0.36121 0.50000(6) 1.00000
O1H* O 0.25010 0.5000(4) 1.00000
Co1L Co 0.36121 0.00000(6) 0.50000
N1L N 0.36927(17) 0.07689(19) 0.41898(18)
N2L N 0.32510(18) 0.13208(20) 0.40944(19)
C1L C 0.3192(3) 0.2279(2) 0.3192(2)
C2L C 0.3508(3) 0.1649(2) 0.3508(2)
C3L C 0.2586(3) 0.2586(3) 0.3489(3)
H1L H 0.23820 0.23820 0.38930
O1L O 0.25010 0.0000(4) 0.50000
N1S N 0.07689(17) 0.41898(19) 0.36927(18)
N2S N 0.13208(18) 0.40944(20) 0.32510(19)
C1S C 0.2279(3) 0.3192(2) 0.3192(2)
C2S C 0.1649(3) 0.3508(2) 0.3508(2)
C3S C 0.2586(3) 0.3489(3) 0.2586(3)
H1S H 0.23820 0.38930 0.23820
N1V N 0.41898(17) 0.36927(19) 0.07689(18)
N2V N 0.40944(18) 0.3251(2) 0.13208(19)
C1V C 0.3192(3) 0.3192(2) 0.2279(2)
C2V C 0.3508(3) 0.3508(2) 0.1649(2)
C3V C 0.3489(3) 0.2586(3) 0.2586(3)
H1V H 0.38930 0.23820 0.23820
N1Y N 0.07689(17) 0.36927(19) 0.41898(18)
N2Y N 0.13208(18) 0.3251(2) 0.40944(19)
N1CA N 0.41898(17) 0.07689(19) 0.36927(18)
N2CA N 0.40944(18) 0.13208(20) 0.32510(19)
N1GA N 0.36927(17) 0.41898(19) 0.07689(18)
N2GA N 0.32510(18) 0.40944(20) 0.13208(19)
Co1L* Co 0.36121 0.00000(6) 1.50000
N1L* N 0.36927(17) 0.07689(19) 1.41898(18)
N2L* N 0.32510(18) 0.13208(20) 1.40944(19)
C1L* C 0.3192(3) 0.2279(2) 1.3192(2)
C2L* C 0.3508(3) 0.1649(2) 1.3508(2)
C3L* C 0.2586(3) 0.2586(3) 1.3489(3)
H1L* H 0.23820 0.23820 1.38930
O1L* O 0.25010 0.0000(4) 1.50000
N1S* N 0.07689(17) 0.41898(19) 1.36927(18)
N2S* N 0.13208(18) 0.40944(20) 1.32510(19)
C1S* C 0.2279(3) 0.3192(2) 1.3192(2)
C2S* C 0.1649(3) 0.3508(2) 1.3508(2)
C3S* C 0.2586(3) 0.3489(3) 1.2586(3)
H1S* H 0.23820 0.38930 1.23820
N1V* N 0.41898(17) 0.36927(19) 1.07689(18)
N2V* N 0.40944(18) 0.3251(2) 1.13208(19)
C1V* C 0.3192(3) 0.3192(2) 1.2279(2)
C2V* C 0.3508(3) 0.3508(2) 1.1649(2)
C3V* C 0.3489(3) 0.2586(3) 1.2586(3)
H1V* H 0.38930 0.23820 1.23820
N1Y* N 0.07689(17) 0.36927(19) 1.41898(18)
N2Y* N 0.13208(18) 0.3251(2) 1.40944(19)
N1CA* N 0.41898(17) 0.07689(19) 1.36927(18)
N2CA* N 0.40944(18) 0.13208(20) 1.32510(19)
N1GA* N 0.36927(17) 0.41898(19) 1.07689(18)
N2GA* N 0.32510(18) 0.40944(20) 1.13208(19)
N1N N 0.36927(17) -0.07689(19) 0.58102(18)
N2N N 0.32510(18) -0.13208(20) 0.59056(19)
C1N C 0.3192(3) -0.2279(2) 0.6808(2)
C2N C 0.3508(3) -0.1649(2) 0.6492(2)
C3N C 0.2586(3) -0.2586(3) 0.6511(3)
H1N H 0.23820 -0.23820 0.61070
N1P N 0.07689(17) -0.41898(19) 0.63073(18)
N2P N 0.13208(18) -0.40944(20) 0.67490(19)
C1P C 0.2279(3) -0.3192(2) 0.6808(2)
C2P C 0.1649(3) -0.3508(2) 0.6492(2)
C3P C 0.2586(3) -0.3489(3) 0.7414(3)
H1P H 0.23820 -0.38930 0.76180
N1W N 0.41898(17) -0.36927(19) 0.92311(18)
N2W N 0.40944(18) -0.3251(2) 0.86792(19)
C1W C 0.3192(3) -0.3192(2) 0.7721(2)
C2W C 0.3508(3) -0.3508(2) 0.8351(2)
C3W C 0.3489(3) -0.2586(3) 0.7414(3)
H1W H 0.38930 -0.23820 0.76180
N1Z N 0.07689(17) -0.36927(19) 0.58102(18)
N2Z N 0.13208(18) -0.3251(2) 0.59056(19)
N1BA N 0.41898(17) -0.07689(19) 0.63073(18)
N2BA N 0.40944(18) -0.13208(20) 0.67490(19)
N1IA N 0.36927(17) -0.41898(19) 0.92311(18)
N2IA N 0.32510(18) -0.40944(20) 0.86792(19)
Co1L** Co 0.36121 1.00000(6) 0.50000
N1N* N 0.36927(17) 0.92311(19) 0.58102(18)
N2N* N 0.32510(18) 0.86792(20) 0.59056(19)
C1N* C 0.3192(3) 0.7721(2) 0.6808(2)
C2N* C 0.3508(3) 0.8351(2) 0.6492(2)
C3N* C 0.2586(3) 0.7414(3) 0.6511(3)
H1N* H 0.23820 0.76180 0.61070
O1L** O 0.25010 1.0000(4) 0.50000
N1P* N 0.07689(17) 0.58102(19) 0.63073(18)
N2P* N 0.13208(18) 0.59056(20) 0.67490(19)
C1P* C 0.2279(3) 0.6808(2) 0.6808(2)
C2P* C 0.1649(3) 0.6492(2) 0.6492(2)
C3P* C 0.2586(3) 0.6511(3) 0.7414(3)
H1P* H 0.23820 0.61070 0.76180
N1W* N 0.41898(17) 0.63073(19) 0.92311(18)
N2W* N 0.40944(18) 0.6749(2) 0.86792(19)
C1W* C 0.3192(3) 0.6808(2) 0.7721(2)
C2W* C 0.3508(3) 0.6492(2) 0.8351(2)
C3W* C 0.3489(3) 0.7414(3) 0.7414(3)
H1W* H 0.38930 0.76180 0.76180
N1Z* N 0.07689(17) 0.63073(19) 0.58102(18)
N2Z* N 0.13208(18) 0.6749(2) 0.59056(19)
N1BA* N 0.41898(17) 0.92311(19) 0.63073(18)
N2BA* N 0.40944(18) 0.86792(20) 0.67490(19)
N1IA* N 0.36927(17) 0.58102(19) 0.92311(18)
N2IA* N 0.32510(18) 0.59056(20) 0.86792(19)
Co1M Co -0.36121 0.00000(6) 0.50000
N1O N -0.36927(17) 0.07689(19) 0.58102(18)
N2O N -0.32510(18) 0.13208(20) 0.59056(19)
C1O C -0.3192(3) 0.2279(2) 0.6808(2)
C2O C -0.3508(3) 0.1649(2) 0.6492(2)
C3O C -0.2586(3) 0.2586(3) 0.6511(3)
H1O H -0.23820 0.23820 0.61070
O1M O -0.25010 0.0000(4) 0.50000
N1R N -0.07689(17) 0.41898(19) 0.63073(18)
N2R N -0.13208(18) 0.40944(20) 0.67490(19)
C1R C -0.2279(3) 0.3192(2) 0.6808(2)
C2R C -0.1649(3) 0.3508(2) 0.6492(2)
C3R C -0.2586(3) 0.3489(3) 0.7414(3)
H1R H -0.23820 0.38930 0.76180
N1T N -0.41898(17) 0.36927(19) 0.92311(18)
N2T N -0.40944(18) 0.3251(2) 0.86792(19)
C1T C -0.3192(3) 0.3192(2) 0.7721(2)
C2T C -0.3508(3) 0.3508(2) 0.8351(2)
C3T C -0.3489(3) 0.2586(3) 0.7414(3)
H1T H -0.38930 0.23820 0.76180
N1AA N -0.07689(17) 0.36927(19) 0.58102(18)
N2AA N -0.13208(18) 0.3251(2) 0.59056(19)
N1DA N -0.41898(17) 0.07689(19) 0.63073(18)
N2DA N -0.40944(18) 0.13208(20) 0.67490(19)
N1FA N -0.36927(17) 0.41898(19) 0.92311(18)
N2FA N -0.32510(18) 0.40944(20) 0.86792(19)
Co1P Co 0.00000 0.50000(6) 0.63879
O1P O 0.00000 0.5000(4) 0.74990
Co1I Co -0.36121 0.50000(6) 0.00000
N1K N -0.36927(17) 0.41898(19) 0.07689(18)
N2K N -0.32510(18) 0.40944(20) 0.13208(19)
C1K C -0.3192(3) 0.3192(2) 0.2279(2)
C2K C -0.3508(3) 0.3508(2) 0.1649(2)
C3K C -0.2586(3) 0.3489(3) 0.2586(3)
H1K H -0.23820 0.38930 0.23820
O1I O -0.25010 0.5000(4) 0.00000
N1B N -0.07689(17) 0.36927(19) 0.41898(18)
N2B N -0.13208(18) 0.3251(2) 0.40944(19)
C1B C -0.2279(3) 0.3192(2) 0.3192(2)
C2B C -0.1649(3) 0.3508(2) 0.3508(2)
C3B C -0.2586(3) 0.2586(3) 0.3489(3)
H1B H -0.23820 0.23820 0.38930
N1D N -0.41898(17) 0.07689(19) 0.36927(18)
N2D N -0.40944(18) 0.13208(20) 0.32510(19)
C1D C -0.3192(3) 0.2279(2) 0.3192(2)
C2D C -0.3508(3) 0.1649(2) 0.3508(2)
C3D C -0.3489(3) 0.2586(3) 0.2586(3)
H1D H -0.38930 0.23820 0.23820
N1NA N -0.07689(17) 0.41898(19) 0.36927(18)
N2NA N -0.13208(18) 0.40944(20) 0.32510(19)
N1UA N -0.41898(17) 0.36927(19) 0.07689(18)
N2UA N -0.40944(18) 0.3251(2) 0.13208(19)
N1LA N -0.36927(17) 0.07689(19) 0.41898(18)
N2LA N -0.32510(18) 0.13208(20) 0.40944(19)
Co1* Co 0.00000 0.36121(6) 1.50000
Co1A* Co 0.00000 -0.36121(6) 0.50000
Co1D* Co -0.50000 0.00000(6) 0.36121
Co1D** Co 0.50000 0.00000(6) 0.36121
Co1D*** Co 0.50000 0.00000(6) 1.36121
Co1E* Co -0.50000 0.00000(6) 0.63879
Co1E** Co 0.50000 1.00000(6) 0.63879
Co1H** Co 0.36121 -0.50000(6) 1.00000
Co1I* Co -0.36121 0.50000(6) 1.00000
Co1M* Co 0.63879 0.00000(6) 0.50000
Co1M** Co 0.63879 1.00000(6) 0.50000
Co1P* Co 0.00000 -0.50000(6) 0.63879
Co1Q Co 0.00000 0.50000(6) 0.36121
Co1Q* Co 0.00000 0.50000(6) 1.36121
Co1T Co -0.50000 0.36121(6) 0.00000
Co1T* Co -0.50000 0.36121(6) 1.00000
Co1T** Co 0.50000 0.36121(6) 0.00000
Co1T*** Co 0.50000 0.36121(6) 1.00000
Co1U Co 0.50000 -0.36121(6) 1.00000
Co1U* Co 0.50000 0.63879(6) 0.00000
Co1U** Co 0.50000 0.63879(6) 1.00000
Cl1D** Cl -0.50000 0.00000 0.50000
Cl1D*** Cl 0.50000 0.00000 1.50000
Cl1H Cl -0.50000 0.50000 0.00000
Cl1H* Cl 0.50000 0.50000 0.00000
Cl1H** Cl 0.50000 0.50000 1.00000
N1A N -0.07689(17) 0.63073(19) 0.58102(18)
N1D* N 0.58102(17) 1.07689(19) 0.36927(18)
N1E N 0.58102(17) -0.07689(19) 0.63073(18)
N1H* N 0.36927(17) 0.58102(19) 1.07689(18)
N1I N -0.36927(17) 0.58102(19) -0.07689(18)
N1J* N 0.36927(17) 0.41898(19) -0.07689(18)
N1L** N 0.36927(17) 1.07689(19) 0.41898(18)
N1M N -0.36927(17) -0.07689(19) 0.41898(18)
N1N** N 0.36927(17) -0.07689(19) 1.58102(18)
N1X N -0.07689(17) 0.63073(19) 0.41898(18)
N1CA** N 0.41898(17) 1.07689(19) 0.36927(18)
N1DA* N 0.58102(17) 0.07689(19) 0.63073(18)
N1EA N 0.58102(17) 0.92311(19) 0.36927(18)
N1FA* N -0.36927(17) 0.41898(19) -0.07689(18)
N1HA N -0.36927(17) 0.58102(19) 0.07689(18)
N1IA** N 0.36927(17) 0.58102(19) -0.07689(18)
N1JA N -0.36927(17) -0.07689(19) 0.58102(18)
N1KA* N 0.36927(17) 0.07689(19) 1.58102(18)
N1KA** N 0.36927(17) 1.07689(19) 0.58102(18)
N1MA* N 0.36927(17) -0.07689(19) 0.41898(18)
N1MA** N 0.36927(17) -0.07689(19) 1.41898(18)
N1QA N -0.07689(17) 0.58102(19) 0.63073(18)
#END
