
#######################################################################
#
#                 Cambridge Crystallographic Data Centre
#                                CCDC
#
#######################################################################
#
# If this CIF has been generated from an entry in the Cambridge
# Structural Database, then it will include bibliographic, chemical,
# crystal, experimental, refinement or atomic coordinate data resulting
# from the CCDC's data processing and validation procedures.
#
#######################################################################

data_CSD_CIF_FEDWOB
_audit_creation_date 2005-04-29
_audit_creation_method CSD-ConQuest-V1
_database_code_CSD FEDWOB
_database_code_depnum_ccdc_archive 'CCDC 1153833'
_chemical_formula_sum 'C10 H22 Ba2 N4 O28 S1 U2'
_chemical_formula_moiety
;
(C1 H6 N3 1+)n,n(C9 H14 Ba2 N1 O27 S1 U2 1-),n(H2 O1)
;
_journal_coden_Cambridge 233
_journal_volume 49
_journal_year 2004
_journal_page_first 208
_journal_name_full 'Zh.Neorg.Khim.(Russ.)(Russ.J.Inorg.Chem.) '
loop_
_publ_author_name
"Zh.V.Akhmerkina"
"Yu.N.Mikhailov"
"Yu.E.Gorbunova"
"L.B.Serezhkina"
"V.N.Serezhkin"
_chemical_name_systematic
;
catena-(Guanidinium 
(\m~4~-oxalato)-bis(\m~3~-oxalato)-bis(\m~2~-aqua)-penta-aqua-isothiocyanato-(
oxalato-O,O')-tetraoxo-di-barium-di-uranium monohydrate)
;
_cell_volume   3418.429
_exptl_crystal_density_diffrn 2.778
_exptl_special_details
;
z(O1) is 0.849, not 0.349

;
_diffrn_ambient_temperature 295
#These two values have been output from a single CSD field.
_refine_ls_R_factor_gt 0.063
_refine_ls_wR_factor_gt 0.063
_symmetry_cell_setting monoclinic
_symmetry_space_group_name_H-M 'P 21/n'
_symmetry_Int_Tables_number 14
loop_
_symmetry_equiv_pos_site_id
_symmetry_equiv_pos_as_xyz
1 x,y,z
2 1/2-x,1/2+y,1/2-z
3 -x,-y,-z
4 -1/2+x,-1/2-y,-1/2+z
_cell_length_a 8.123(2)
_cell_length_b 22.410(4)
_cell_length_c 18.956(4)
_cell_angle_alpha 90
_cell_angle_beta 97.84(3)
_cell_angle_gamma 90
_cell_formula_units_Z 4
loop_
_atom_type_symbol
_atom_type_radius_bond
C 0.68
Ba 1.89
N 0.68
O 0.68
S 1.02
U 1.38
loop_
_atom_site_label
_atom_site_type_symbol
_atom_site_fract_x
_atom_site_fract_y
_atom_site_fract_z
U1 U 0.4799(2) 0.3694(1) 0.7606(1)
U2 U 1.7607(2) 0.2586(1) 1.0178(1)
O1 O 0.480(4) 0.375(1) 0.849(1)
O2 O 0.474(3) 0.363(1) 0.671(1)
O3 O 0.763(3) 0.344(1) 0.778(1)
O4 O 0.530(3) 0.264(1) 0.776(1)
O5 O 0.309(3) 0.456(1) 0.736(1)
O6 O 0.628(3) 0.459(1) 0.761(1)
O7 O 0.208(4) 0.335(1) 0.743(1)
O8 O 1.474(3) 0.277(1) 0.977(1)
O9 O 1.611(4) 0.174(1) 0.965(1)
O10 O 2.029(4) 0.277(1) 1.076(1)
O11 O 1.718(4) 0.231(1) 1.098(1)
O12 O 1.803(4) 0.287(1) 0.937(2)
O13 O 0.968(3) 0.273(1) 0.797(1)
O14 O 0.721(3) 0.190(1) 0.800(1)
O15 O 1.235(4) 0.247(1) 0.911(1)
O16 O 0.630(3) 0.556(1) 0.736(1)
O17 O 1.393(3) 0.140(1) 0.893(1)
O18 O 0.292(3) 0.552(1) 0.711(1)
O19 O 2.276(4) 0.237(1) 1.122(2)
O20 O 1.947(4) 0.184(1) 1.002(2)
O21 O 2.203(5) 0.142(2) 1.035(2)
O22 O 0.959(4) 0.167(1) 0.682(1)
O23 O 1.309(3) 0.177(1) 0.738(1)
O24 O 0.809(4) 0.089(1) 0.902(1)
O25 O 0.601(5) 0.115(2) 0.650(2)
O26 O 0.513(4) -0.034(1) 0.722(2)
O27 O 0.521(5) -0.005(2) 0.892(2)
C1 C 0.673(4) 0.244(2) 0.788(2)
C2 C 0.824(4) 0.289(1) 0.786(2)
C3 C 0.557(4) 0.509(1) 0.742(2)
C4 C 0.373(5) 0.508(2) 0.726(2)
C5 C 1.387(5) 0.237(2) 0.938(2)
C6 C 1.472(5) 0.180(2) 0.931(2)
C7 C 2.096(6) 0.182(2) 1.036(2)
C8 C 2.137(6) 0.233(2) 1.085(2)
C9 C 1.716(8) 0.404(3) 1.076(3)
N1 N 1.737(5) 0.357(2) 1.060(2)
S1 S 1.643(3) 0.471(1) 1.101(1)
Ba1 Ba 1.0533(3) 0.1563(1) 0.8331(1)
Ba2 Ba 0.5372(3) 0.0804(1) 0.7855(1)
O28 O -0.002(5) 0.631(2) 0.376(2)
C10 C 0.815(8) 0.605(3) 0.032(3)
N2 N 0.901(5) 0.640(2) 0.080(2)
N3 N 0.681(5) 0.611(2) -0.003(2)
N4 N 0.913(9) 0.554(3) 0.006(3)
O16A O 0.870(3) 0.056(1) 0.764(1)
O17* O 0.393(3) 0.140(1) 0.893(1)
O18A O 1.208(3) 0.052(1) 0.789(1)
O18A* O 0.208(3) 0.052(1) 0.789(1)
O23* O 0.309(3) 0.177(1) 0.738(1)
Ba1A Ba 0.4467(3) 0.6563(1) 0.6669(1)
Ba2A Ba 0.9628(3) 0.5804(1) 0.7145(1)
Ba2* Ba 1.5372(3) 0.0804(1) 0.7855(1)
Ba2A* Ba -0.0372(3) 0.5804(1) 0.7145(1)
#END
