
#######################################################################
#
#                 Cambridge Crystallographic Data Centre
#                                CCDC
#
#######################################################################
#
# If this CIF has been generated from an entry in the Cambridge
# Structural Database, then it will include bibliographic, chemical,
# crystal, experimental, refinement or atomic coordinate data resulting
# from the CCDC's data processing and validation procedures.
#
#######################################################################

data_CSD_CIF_FEFNAF
_audit_creation_date 1987-10-26
_audit_creation_method CSD-ConQuest-V1
_database_code_CSD FEFNAF
_database_code_depnum_ccdc_archive 'CCDC 1153907'
_chemical_formula_sum 'C20 H52 N16 O30 U4'
_chemical_formula_moiety
;
(C16 H24 N4 O28 U4 4-)n,4n(C1 H6 N3 1+),2n(H2 O1)
;
_journal_coden_Cambridge 233
_journal_volume 31
_journal_year 1986
_journal_page_first 2339
_journal_name_full 'Zh.Neorg.Khim.(Russ.)(Russ.J.Inorg.Chem.) '
loop_
_publ_author_name
"R.N.Shchelokov"
"Yu.N.Mikhailov"
"A.G.Beirakhov"
"I.M.Orlova"
"Z.R.Ashurov"
_chemical_name_systematic
;
catena-[tetrakis(Guanidinium) 
tetrakis(\m~2~-oxalato-O,O',O'',O''')-tetrakis(N,N-dimethylhydroxylaminato-N,O
)-octa-oxo-tetra-uranium dihydrate]
;
_cell_volume   2510.623
_exptl_crystal_colour 'dark red'
_diffrn_ambient_temperature ?
_diffrn_special_details
;
The study was carried out at room temperature,in the range 283-303K

;
#These two values have been output from a single CSD field.
_refine_ls_R_factor_gt 0.045
_refine_ls_wR_factor_gt 0.045
_symmetry_cell_setting monoclinic
_symmetry_space_group_name_H-M 'C 2/c'
_symmetry_Int_Tables_number 15
loop_
_symmetry_equiv_pos_site_id
_symmetry_equiv_pos_as_xyz
1 x,y,z
2 1/2+x,1/2+y,z
3 -x,y,1/2-z
4 1/2-x,1/2+y,1/2-z
5 -x,-y,-z
6 -1/2-x,-1/2-y,-z
7 x,-y,-1/2+z
8 -1/2+x,-1/2-y,-1/2+z
_cell_length_a 21.976(7)
_cell_length_b 7.117(1)
_cell_length_c 16.251(4)
_cell_angle_alpha 90
_cell_angle_beta 98.97(2)
_cell_angle_gamma 90
_cell_formula_units_Z 2
loop_
_atom_type_symbol
_atom_type_radius_bond
C 0.68
H 0.23
N 0.68
O 0.68
U 1.50
loop_
_atom_site_label
_atom_site_type_symbol
_atom_site_fract_x
_atom_site_fract_y
_atom_site_fract_z
U1 U 0.36704(2) 0.00941(6) 0.06267(3)
O1 O 0.3934(4) -0.1644(11) 0.1393(6)
O2 O 0.3414(4) 0.1739(11) -0.0192(6)
O3 O 0.4714(4) 0.1576(11) 0.0653(6)
O4 O 0.4367(4) -0.1464(11) -0.0239(6)
O5 O 0.2606(4) -0.0773(12) 0.0759(6)
O6 O 0.3199(4) -0.2424(12) -0.0340(7)
O7 O 0.3949(4) 0.2349(11) 0.1610(6)
C1 C 0.5100(5) 0.0874(14) 0.0266(8)
C2 C 0.2329(5) -0.2024(15) 0.0314(8)
C3 C 0.3001(7) 0.3901(20) 0.1413(11)
C4 C 0.3222(7) 0.1444(22) 0.2466(10)
N1 N 0.3315(5) 0.2133(13) 0.1639(7)
H1 H 0.32300 0.41700 0.08300
H2 H 0.25200 0.38000 0.12600
H3 H 0.31100 0.49800 0.18600
H4 H 0.32800 0.24600 0.28400
H5 H 0.27800 0.09000 0.24600
H6 H 0.35400 0.03800 0.26800
O8 O 0.50000 0.0432(16) 0.25000
C5 C 0.0476(7) 0.1105(16) 0.1264(9)
N2 N 0.0897(5) 0.0123(15) 0.0932(7)
N3 N 0.0597(6) 0.2926(13) 0.1470(7)
N4 N -0.0048(5) 0.0346(14) 0.1388(8)
H7 H -0.03300 0.09700 0.16400
H8 H -0.03900 -0.01200 0.10500
C1D C 0.4900(5) -0.0874(14) -0.0266(8)
C2E C 0.2671(5) -0.2976(15) -0.0314(8)
O4D O 0.5633(4) 0.1464(11) 0.0239(6)
O6E O 0.1801(4) -0.2576(12) 0.0340(7)
O3D O 0.5286(4) -0.1576(11) -0.0653(6)
O5E O 0.2394(4) -0.4227(12) -0.0759(6)
U1D U 0.63296(2) -0.00941(6) -0.06267(3)
U1E U 0.13296(2) -0.50941(6) -0.06267(3)
O1D O 0.6066(4) 0.1644(11) -0.1393(6)
O2D O 0.6586(4) -0.1739(11) 0.0192(6)
O5D O 0.7394(4) 0.0773(12) -0.0759(6)
O6D O 0.6801(4) 0.2424(12) 0.0340(7)
O7D O 0.6051(4) -0.2349(11) -0.1610(6)
N1D N 0.6685(5) -0.2133(13) -0.1639(7)
O1E O 0.1066(4) -0.3356(11) -0.1393(6)
O2E O 0.1586(4) -0.6739(11) 0.0192(6)
O3E O 0.0286(4) -0.6576(11) -0.0653(6)
O4E O 0.0633(4) -0.3536(11) 0.0239(6)
O7E O 0.1051(4) -0.7349(11) -0.1610(6)
N1E N 0.1685(5) -0.7133(13) -0.1639(7)
C2D C 0.7671(5) 0.2024(15) -0.0314(8)
C2A C 0.7329(5) 0.2976(15) 0.0314(8)
C3D C 0.6999(7) -0.3901(20) -0.1413(11)
C4D C 0.6778(7) -0.1444(22) -0.2466(10)
C1E C -0.0100(5) -0.5874(14) -0.0266(8)
C1A C 0.0100(5) -0.4126(14) 0.0266(8)
C3E C 0.1999(7) -0.8901(20) -0.1413(11)
C4E C 0.1778(7) -0.6444(22) -0.2466(10)
O6A O 0.8199(4) 0.2576(12) -0.0340(7)
O5A O 0.7606(4) 0.4227(12) 0.0759(6)
H1D H 0.67700 -0.41700 -0.08300
H2D H 0.74800 -0.38000 -0.12600
H3D H 0.68900 -0.49800 -0.18600
H4D H 0.67200 -0.24600 -0.28400
H5D H 0.72200 -0.09000 -0.24600
H6D H 0.64600 -0.03800 -0.26800
O4A O -0.0633(4) -0.6464(11) -0.0239(6)
O3A O -0.0286(4) -0.3424(11) 0.0653(6)
H1E H 0.17700 -0.91700 -0.08300
H2E H 0.24800 -0.88000 -0.12600
H3E H 0.18900 -0.99800 -0.18600
H4E H 0.17200 -0.74600 -0.28400
H5E H 0.22200 -0.59000 -0.24600
H6E H 0.14600 -0.53800 -0.26800
U1A U 0.86704(2) 0.50941(6) 0.06267(3)
U1A* U -0.13296(2) -0.49059(6) 0.06267(3)
O1A O 0.8934(4) 0.3356(11) 0.1393(6)
O2A O 0.8414(4) 0.6739(11) -0.0192(6)
O3A* O 0.9714(4) 0.6576(11) 0.0653(6)
O4A* O 0.9367(4) 0.3536(11) -0.0239(6)
O7A O 0.8949(4) 0.7349(11) 0.1610(6)
N1A N 0.8315(5) 0.7133(13) 0.1639(7)
C3A C 0.8001(7) 0.8901(20) 0.1413(11)
C4A C 0.8222(7) 0.6444(22) 0.2466(10)
H1A H 0.82300 0.91700 0.08300
H2A H 0.75200 0.88000 0.12600
H3A H 0.81100 0.99800 0.18600
H4A H 0.82800 0.74600 0.28400
H5A H 0.77800 0.59000 0.24600
H6A H 0.85400 0.53800 0.26800
#END
