
#######################################################################
#
#                 Cambridge Crystallographic Data Centre
#                                CCDC
#
#######################################################################
#
# If this CIF has been generated from an entry in the Cambridge
# Structural Database, then it will include bibliographic, chemical,
# crystal, experimental, refinement or atomic coordinate data resulting
# from the CCDC's data processing and validation procedures.
#
#######################################################################

data_CSD_CIF_FEJRUK
_audit_creation_date 2017-11-08
_audit_creation_method CSD-ConQuest-V1
_database_code_CSD FEJRUK
_database_code_depnum_ccdc_archive 'CCDC 1422173'
_chemical_formula_sum 'C18 H19 N1 O10 U1'
_chemical_formula_moiety
;
(C16 H9 O9 U1 1-)n,C2 H8 N1 1+,H2 O1
;
_journal_coden_Cambridge 2020
_journal_volume 1
_journal_year 2016
_journal_page_first 2316
_journal_name_full 'Chem. Sel. '
loop_
_publ_author_name
"Jian Song"
"Yong-Heng Xing"
"Xiao-Min Wang"
"Xue Gao"
"Zhi-Nan Wang"
"Xiao-Dong Feng"
"Feng-Ying Bai"
_chemical_name_systematic
;
catena-[dimethylammonium 
(\m-5-((4-carboxylatophenyl)methoxy)benzene-1,3-dicarboxylato)-dioxo-uranium 
monohydrate]
;
_cell_volume   1096.708
_exptl_crystal_colour 'yellow'
_exptl_crystal_density_diffrn 1.96
_exptl_crystal_description 'block'
_diffrn_ambient_temperature 296
_refine_special_details
;
C17,C18 and C17',C18' disordered over two sites with occupancies 0.5:0.5; 
H1WA,H1WB,H2WA,O1W,O2W,H2WB disordered over two configurations with 
occupancies 0.5,0.5,0.25,0.5,0.5,0.25.
;
#These two values have been output from a single CSD field.
_refine_ls_R_factor_gt 0.0398
_refine_ls_wR_factor_gt 0.0398
_symmetry_cell_setting triclinic
_symmetry_space_group_name_H-M 'P -1'
_symmetry_Int_Tables_number 2
loop_
_symmetry_equiv_pos_site_id
_symmetry_equiv_pos_as_xyz
1 x,y,z
2 -x,-y,-z
_cell_length_a 9.8954(7)
_cell_length_b 10.1200(7)
_cell_length_c 11.7236(8)
_cell_angle_alpha 87.579(1)
_cell_angle_beta 79.274(1)
_cell_angle_gamma 71.969(1)
_cell_formula_units_Z 2
loop_
_atom_type_symbol
_atom_type_radius_bond
C 0.68
H 0.23
N 0.68
O 0.68
U 1.96
loop_
_atom_site_label
_atom_site_type_symbol
_atom_site_fract_x
_atom_site_fract_y
_atom_site_fract_z
U1 U 0.12716(2) -0.01422(3) 0.24294(2)
O1 O 0.1065(5) 0.1302(6) 0.1523(5)
O2 O 0.1467(6) -0.1608(5) 0.3318(5)
O3 O 0.1885(5) 0.1150(5) 0.3892(4)
O4 O 0.3659(5) -0.0072(5) 0.2599(5)
O5 O 0.8715(4) -0.0074(5) 0.2495(4)
O6 O 0.9124(4) 0.1231(5) 0.3751(4)
O7 O 0.1079(5) 0.8471(6) 1.0776(5)
O8 O 0.3215(6) 0.8458(7) 1.0962(6)
O9 O 0.4207(5) 0.3668(5) 0.6161(5)
C1 C 0.3207(6) 0.0764(7) 0.3464(6)
C2 C 0.8264(6) 0.0776(7) 0.3346(6)
C3 C 0.2433(7) 0.8046(8) 1.0443(7)
C4 C 0.4239(6) 0.1296(7) 0.3928(6)
C5 C 0.5698(6) 0.0817(7) 0.3426(6)
H1 H 0.60100 0.01880 0.28040
C6 C 0.6684(6) 0.1290(6) 0.3865(6)
C7 C 0.6219(6) 0.2233(7) 0.4790(6)
H2 H 0.68790 0.25400 0.50860
C8 C 0.4758(7) 0.2711(7) 0.5267(6)
C9 C 0.3773(7) 0.2238(7) 0.4845(6)
H3 H 0.27980 0.25540 0.51790
C10 C 0.5210(7) 0.4151(7) 0.6622(7)
H4 H 0.57290 0.45840 0.60140
H5 H 0.59060 0.33730 0.69130
C11 C 0.4410(7) 0.5187(7) 0.7590(6)
C12 C 0.5228(8) 0.5588(11) 0.8267(9)
H6 H 0.62300 0.52160 0.81060
C13 C 0.4593(9) 0.6518(10) 0.9165(9)
H7 H 0.51640 0.67810 0.96020
C14 C 0.3105(7) 0.7073(7) 0.9427(6)
C15 C 0.2303(7) 0.6697(7) 0.8748(6)
H8 H 0.13010 0.70680 0.89060
C16 C 0.2958(7) 0.5769(7) 0.7824(6)
H9 H 0.23920 0.55450 0.73590
N1 N 0.8122(9) 0.823(1) 0.0947(7)
H10 H 0.87170 0.84850 0.03780
H11 H 0.81170 0.86850 0.15820
C17 C 0.660(2) 0.885(2) 0.065(3)
H12 H 0.65970 0.85420 -0.01090
H13 H 0.63400 0.98490 0.06700
H14 H 0.59170 0.85570 0.12110
C18 C 0.880(3) 0.6844(18) 0.114(2)
H15 H 0.82770 0.65430 0.18160
H16 H 0.97700 0.67310 0.12500
H17 H 0.88390 0.62960 0.04770
O10 O -0.0626(19) 0.4083(16) 0.5119(15)
H18 H -0.15020 0.44820 0.50590
H19 H -0.06250 0.37950 0.58100
C19? C 0.668(2) 0.831(2) 0.083(3)
H20? H 0.67190 0.76190 0.02810
H21? H 0.62120 0.92180 0.05560
H22? H 0.61480 0.81630 0.15670
C20? C 0.862(3) 0.709(2) 0.176(2)
H23? H 0.78370 0.70960 0.23840
H24? H 0.94050 0.72170 0.20690
H25? H 0.89440 0.62110 0.13510
H26? H -0.05420 0.58370 0.51040
H27? H 0.07330 0.48340 0.53260
O11? O 0.035(4) 0.436(3) 0.365(3)
H28? H 0.10660 0.46050 0.32990
H29? H -0.03690 0.48290 0.33500
O12? O 0.00000 0.50000 0.50000
U1* U 0.12716(2) 0.98578(3) 1.24294(2)
U1** U 1.12716(2) -0.01422(3) 0.24294(2)
O5* O -0.1285(4) -0.0074(5) 0.2495(4)
O6* O -0.0876(4) 0.1231(5) 0.3751(4)
O7* O 0.1079(5) -0.1529(6) 0.0776(5)
O8* O 0.3215(6) -0.1542(7) 0.0962(6)
#END
