
#######################################################################
#
#                 Cambridge Crystallographic Data Centre
#                                CCDC
#
#######################################################################
#
# If this CIF has been generated from an entry in the Cambridge
# Structural Database, then it will include bibliographic, chemical,
# crystal, experimental, refinement or atomic coordinate data resulting
# from the CCDC's data processing and validation procedures.
#
#######################################################################

data_CSD_CIF_FEKPET
_audit_creation_date 2017-11-09
_audit_creation_method CSD-ConQuest-V1
_database_code_CSD FEKPET
_database_code_depnum_ccdc_archive 'CCDC 1584681'
_chemical_formula_sum 'C24 H24 N2 O18 U2'
_chemical_formula_moiety
;
(C24 H12 O16 U2 2-)n,2(H4 N1 1+),2(H2 O1)
;
_journal_coden_Cambridge 1078
_journal_year 2017
_journal_name_full 'CSD Communication(Private Communication) '
loop_
_publ_author_name
"Ya-Nan Ren"
_chemical_name_systematic
;
catena-[bis(ammonium) tris(\m-1,3-dicarboxylato)-tetraoxo-di-uranium(vi) 
dihydrate]
;
_cell_volume   3171.227
_exptl_crystal_colour 'yellow'
_exptl_crystal_density_diffrn 2.313
_exptl_crystal_description 'block'
_diffrn_ambient_temperature 293
#These two values have been output from a single CSD field.
_refine_ls_R_factor_gt 0.0796
_refine_ls_wR_factor_gt 0.0796
_symmetry_cell_setting monoclinic
_symmetry_space_group_name_H-M 'C 2/c'
_symmetry_Int_Tables_number 15
loop_
_symmetry_equiv_pos_site_id
_symmetry_equiv_pos_as_xyz
1 x,y,z
2 -x,y,1/2-z
3 1/2+x,1/2+y,z
4 1/2-x,1/2+y,1/2-z
5 -x,-y,-z
6 x,-y,-1/2+z
7 -1/2-x,-1/2-y,-z
8 -1/2+x,-1/2-y,-1/2+z
_cell_length_a 8.1780(16)
_cell_length_b 18.178(4)
_cell_length_c 21.452(4)
_cell_angle_alpha 90
_cell_angle_beta 96.06(3)
_cell_angle_gamma 90
_cell_formula_units_Z 4
loop_
_atom_type_symbol
_atom_type_radius_bond
C 0.68
H 0.23
N 0.68
O 0.68
U 1.96
loop_
_atom_site_label
_atom_site_type_symbol
_atom_site_fract_x
_atom_site_fract_y
_atom_site_fract_z
U1 U 0.42980(9) 0.31056(5) 0.62065(4)
O1 O 0.502(2) 0.3293(8) 0.5471(8)
O2 O 0.358(2) 0.2911(8) 0.6926(8)
O3 O 0.2901(18) 0.4311(7) 0.6151(8)
O4 O 0.1377(16) 0.3370(8) 0.5806(8)
C1 C 0.150(3) 0.4047(12) 0.592(1)
C2 C 0.009(2) 0.4563(11) 0.5765(11)
C3 C -0.142(2) 0.4278(13) 0.5514(11)
H1 H -0.15217 0.37762 0.54349
C4 C -0.278(3) 0.4747(11) 0.538(1)
H2 H -0.37893 0.45603 0.52113
C5 C -0.259(2) 0.5494(12) 0.5504(11)
H3 H -0.34865 0.58041 0.54190
C6 C -0.113(2) 0.5788(11) 0.5744(10)
C7 C -0.093(3) 0.6589(12) 0.5899(11)
O5 O 0.0435(18) 0.6860(8) 0.6125(9)
O6 O -0.2180(17) 0.7010(7) 0.5808(8)
C8 C 0.026(2) 0.5301(11) 0.5910(11)
H4 H 0.12398 0.54820 0.61095
O7 O 0.5884(17) 0.4088(7) 0.6725(8)
O8 O 0.7229(17) 0.3051(8) 0.6697(7)
C9 C 0.718(3) 0.3729(11) 0.6866(12)
C10 C 0.862(3) 0.4112(11) 0.7206(11)
C11 C 0.865(3) 0.4856(11) 0.7213(11)
H5 H 0.77615 0.51194 0.70215
C12 C 1.00000 0.523(2) 0.75000
H6 H 1.00000 0.57415 0.75000
C13 C 1.00000 0.3695(17) 0.75000
H7 H 1.00000 0.31834 0.75000
O9 O 0.202(4) 0.1604(15) 0.7448(14)
H8 H 0.30042 0.15857 0.75935
H9 H 0.17052 0.18115 0.71129
N1 N 0.432(3) 0.5599(14) 0.6650(18)
H10 H 0.52907 0.56913 0.68635
H11 H 0.38985 0.51902 0.67953
H12 H 0.36415 0.59740 0.66935
H13 H 0.44490 0.55411 0.62457
O7A O 1.4116(17) 0.4088(7) 0.8275(8)
O8A O 1.2771(17) 0.3051(8) 0.8303(7)
C9A C 1.282(3) 0.3729(11) 0.8134(12)
C10A C 1.138(3) 0.4112(11) 0.7794(11)
C11A C 1.135(3) 0.4856(11) 0.7787(11)
H5A H 1.22385 0.51194 0.79785
U1A U 1.57020(9) 0.31056(5) 0.87935(4)
O1A O 1.498(2) 0.3293(8) 0.9529(8)
O2A O 1.642(2) 0.2911(8) 0.8074(8)
O3A O 1.7099(18) 0.4311(7) 0.8849(8)
O4A O 1.8623(16) 0.3370(8) 0.9194(8)
C1A C 1.850(3) 0.4047(12) 0.908(1)
C2A C 1.991(2) 0.4563(11) 0.9235(11)
C3A C 2.142(2) 0.4278(13) 0.9486(11)
H1A H 2.15217 0.37762 0.95651
C4A C 2.278(3) 0.4747(11) 0.962(1)
H2A H 2.37893 0.45603 0.97887
C5A C 2.259(2) 0.5494(12) 0.9496(11)
H3A H 2.34865 0.58041 0.95810
C6A C 2.113(2) 0.5788(11) 0.9256(10)
C7A C 2.093(3) 0.6589(12) 0.9101(11)
O5A O 1.9565(18) 0.6860(8) 0.8875(9)
O6A O 2.2180(17) 0.7010(7) 0.9192(8)
C8A C 1.974(2) 0.5301(11) 0.9090(11)
H4A H 1.87601 0.54820 0.88905
U1B U -0.07020(9) 0.81056(5) 0.62065(4)
U1C U 2.07020(9) 0.81056(5) 0.87935(4)
O5B O 0.5435(18) 0.1860(8) 0.6125(9)
O5C O 1.4565(18) 0.1860(8) 0.8875(9)
O6B O 0.2820(17) 0.2010(7) 0.5808(8)
O6C O 1.7180(17) 0.2010(7) 0.9192(8)
#END
