
#######################################################################
#
#                 Cambridge Crystallographic Data Centre
#                                CCDC
#
#######################################################################
#
# If this CIF has been generated from an entry in the Cambridge
# Structural Database, then it will include bibliographic, chemical,
# crystal, experimental, refinement or atomic coordinate data resulting
# from the CCDC's data processing and validation procedures.
#
#######################################################################

data_CSD_CIF_FELFEK
_audit_creation_date 2017-11-09
_audit_creation_method CSD-ConQuest-V1
_database_code_CSD FELFEK
_database_code_depnum_ccdc_archive 'CCDC 1531878'
_chemical_formula_sum 'C6 H16 Cd2 N2 O12 S2'
_chemical_formula_moiety
;
(C2 H2 Cd2 O11 S2 2-)n,n(C4 H12 N2 2+),n(H2 O1)
;
_journal_coden_Cambridge 222
_journal_volume 46
_journal_year 2017
_journal_page_first 15939
_journal_name_full 'Dalton Trans. '
loop_
_publ_author_name
"R.K.Tiwari"
"J.Kumar"
"J.N.Behera"
_chemical_name_systematic
;
catena-(piperazinedi-ium (\m-oxalato)-bis(\m-sulfito)-di-cadmium monohydrate)
;
_cell_volume    792.972
_exptl_crystal_colour 'colorless'
_exptl_crystal_density_diffrn 2.501
_exptl_crystal_description 'plate'
_diffrn_ambient_temperature 100
_refine_special_details
;
O2WA and O2WB disordered over two sites with occupancies 0.60:0.40.

;
#These two values have been output from a single CSD field.
_refine_ls_R_factor_gt 0.0364
_refine_ls_wR_factor_gt 0.0364
_symmetry_cell_setting triclinic
_symmetry_space_group_name_H-M 'P -1'
_symmetry_Int_Tables_number 2
loop_
_symmetry_equiv_pos_site_id
_symmetry_equiv_pos_as_xyz
1 x,y,z
2 -x,-y,-z
_cell_length_a 6.2237(2)
_cell_length_b 8.0397(3)
_cell_length_c 16.7299(6)
_cell_angle_alpha 86.119(2)
_cell_angle_beta 87.147(3)
_cell_angle_gamma 71.784(2)
_cell_formula_units_Z 2
loop_
_atom_type_symbol
_atom_type_radius_bond
C 0.68
H 0.23
Cd 1.44
N 0.68
O 0.68
S 1.02
loop_
_atom_site_label
_atom_site_type_symbol
_atom_site_fract_x
_atom_site_fract_y
_atom_site_fract_z
Cd1 Cd -0.10857(4) 0.80844(3) 0.77135(2)
Cd2 Cd 0.25259(4) 1.03893(3) 0.86398(2)
S1 S 0.76123(15) 0.96125(11) 0.93804(5)
S2 S 0.12157(17) 0.37768(12) 0.76729(6)
O1 O 0.0525(5) 0.5322(3) 0.82169(17)
O2 O 0.3555(5) 0.2666(4) 0.79536(18)
O3 O 0.0762(5) 0.7366(4) 0.65051(17)
O4 O 0.7648(5) 0.8466(3) 1.01472(16)
O5 O 0.2670(5) 0.8564(4) 0.76361(17)
O6 O 0.9992(4) 0.8928(4) 0.89982(17)
O7 O 0.6247(4) 0.8955(3) 0.87974(15)
O8 O -0.0228(5) 0.2618(4) 0.79796(19)
O9 O 0.6072(5) 0.7531(4) 0.70157(18)
O10 O -0.2477(5) 1.0939(4) 0.71886(18)
O11 O 0.3846(6) 0.6991(6) 0.5728(2)
C1 C 0.2785(6) 0.7349(5) 0.6374(2)
C2 C 0.3994(6) 0.7839(5) 0.7079(2)
H1 H -0.378(5) 1.148(9) 0.735(4)
H2 H -0.169(9) 1.152(7) 0.733(4)
N1 N 0.8322(6) 0.6278(6) 0.5438(2)
H3 H 0.91800 0.67250 0.57130
H4 H 0.68810 0.68230 0.55680
C3 C 0.8718(8) 0.6596(8) 0.4565(3)
H5 H 0.84200 0.78420 0.44390
H6 H 0.77010 0.61980 0.42620
C4 C 0.8854(8) 0.4383(7) 0.5663(3)
H7 H 0.78470 0.39100 0.53930
H8 H 0.86110 0.42210 0.62360
O12 O 0.336(3) 0.9761(15) 0.4481(7)
H9 H 0.29810 0.95320 0.40300
H10 H 0.33000 0.89550 0.48300
O13? O 0.152(3) 0.9760(17) 0.4562(10)
H11? H 0.21120 0.86720 0.45130
H12? H 0.01100 1.00580 0.45180
N2 N 0.3392(6) 0.4671(4) 0.9500(2)
H13 H 0.36010 0.35360 0.96170
H14 H 0.23130 0.50450 0.91410
C5 C 0.5532(7) 0.4907(6) 0.9149(2)
H15 H 0.52780 0.61290 0.89790
H16 H 0.60100 0.42130 0.86820
C6 C 0.2648(7) 0.5656(6) 1.0240(3)
H17 H 0.12830 0.54440 1.04640
H18 H 0.23010 0.69030 1.01070
Cd1* Cd 0.89143(4) 0.80844(3) 0.77135(2)
Cd2* Cd 0.25259(4) 0.03893(3) 0.86398(2)
Cd2** Cd 1.25259(4) 1.03893(3) 0.86398(2)
Cd2A Cd 0.74741(4) 0.96107(3) 1.13602(2)
O2* O 0.3555(5) 1.2666(4) 0.79536(18)
O4A O 0.2352(5) 1.1534(3) 0.98528(16)
O6* O -0.0008(4) 0.8928(4) 0.89982(17)
O7* O -0.3753(4) 0.8955(3) 0.87974(15)
O8* O -0.0228(5) 1.2618(4) 0.79796(19)
O9* O -0.3928(5) 0.7531(4) 0.70157(18)
N1A N 1.1678(6) 0.3722(6) 0.4562(2)
H3A H 1.08200 0.32750 0.42870
H4A H 1.31190 0.31770 0.44320
C3A C 1.1282(8) 0.3404(8) 0.5435(3)
H5A H 1.15800 0.21580 0.55610
H6A H 1.22990 0.38020 0.57380
C4A C 1.1146(8) 0.5617(7) 0.4337(3)
H7A H 1.21530 0.60900 0.46070
H8A H 1.13890 0.57790 0.37640
N2A N 0.6608(6) 0.5329(4) 1.0500(2)
H13A H 0.63990 0.64640 1.03830
H14A H 0.76870 0.49550 1.08590
C5A C 0.4468(7) 0.5093(6) 1.0851(2)
H15A H 0.47220 0.38710 1.10210
H16A H 0.39900 0.57870 1.13180
C6A C 0.7352(7) 0.4344(6) 0.9760(3)
H17A H 0.87170 0.45560 0.95360
H18A H 0.76990 0.30970 0.98930
#END
