
#######################################################################
#
#                 Cambridge Crystallographic Data Centre
#                                CCDC
#
#######################################################################
#
# If this CIF has been generated from an entry in the Cambridge
# Structural Database, then it will include bibliographic, chemical,
# crystal, experimental, refinement or atomic coordinate data resulting
# from the CCDC's data processing and validation procedures.
#
#######################################################################

data_CSD_CIF_FELVEZ
_audit_creation_date 2013-04-03
_audit_creation_method CSD-ConQuest-V1
_database_code_CSD FELVEZ
_database_code_depnum_ccdc_archive 'CCDC 880799'
_chemical_formula_sum 'C12 H21 Ca1.5 Dy1 O19.5'
_chemical_formula_moiety
;
(H12 Ca1 O6 2+)0.5n,n(C12 H12 Ca1 Dy1 O15 1-),1.5n(H2 O1)
;
_journal_coden_Cambridge 155
_journal_volume 394
_journal_year 2013
_journal_page_first 196
_journal_name_full 'Inorg.Chim.Acta '
loop_
_publ_author_name
"J.Torres"
"J.Gonzalez-Platas"
"J.Sanchiz"
"J.Castiglioni"
"S.Dominguez"
"C.Kremer"
_chemical_name_systematic
;
catena-[hemikis(Hexa-aqua-calcium) 
tris(\m~3~-oxydiacetato)-calcium-dysprosium sesquihydrate]
;
_cell_volume  18557.847
_exptl_crystal_colour 'colorless'
_exptl_crystal_density_diffrn 2.004
_exptl_special_details
;
isostructural with the Y, Eu, Tb, Ho, Er, Tm, Yb and Lu analogues

;
_exptl_crystal_description 'prism'
_diffrn_ambient_temperature 293
#These two values have been output from a single CSD field.
_refine_ls_R_factor_gt 0.0318
_refine_ls_wR_factor_gt 0.0318
_symmetry_cell_setting cubic
_symmetry_space_group_name_H-M 'F d 3 c'
_symmetry_Int_Tables_number 228
loop_
_symmetry_equiv_pos_site_id
_symmetry_equiv_pos_as_xyz
1 x,y,z
2 1/4-x,3/4-y,1/2+z
3 3/4-x,1/2+y,1/4-z
4 1/2+x,1/4-y,3/4-z
5 z,x,y
6 1/2+z,1/4-x,3/4-y
7 1/4-z,3/4-x,1/2+y
8 3/4-z,1/2+x,1/4-y
9 y,z,x
10 3/4-y,1/2+z,1/4-x
11 1/2+y,1/4-z,3/4-x
12 1/4-y,3/4-z,1/2+x
13 3/4+y,1/4+x,-z
14 1/2-y,1/2-x,1/2-z
15 1/4+y,-x,3/4+z
16 -y,3/4+x,1/4+z
17 3/4+x,1/4+z,-y
18 -x,3/4+z,1/4+y
19 1/2-x,1/2-z,1/2-y
20 1/4+x,-z,3/4+y
21 3/4+z,1/4+y,-x
22 1/4+z,-y,3/4+x
23 -z,3/4+y,1/4+x
24 1/2-z,1/2-y,1/2-x
25 x,1/2+y,1/2+z
26 1/4-x,1/4-y,z
27 3/4-x,y,3/4-z
28 1/2+x,3/4-y,1/4-z
29 z,1/2+x,1/2+y
30 1/2+z,3/4-x,1/4-y
31 1/4-z,1/4-x,y
32 3/4-z,x,3/4-y
33 y,1/2+z,1/2+x
34 3/4-y,z,3/4-x
35 1/2+y,3/4-z,1/4-x
36 1/4-y,1/4-z,x
37 3/4+y,3/4+x,1/2-z
38 1/2-y,-x,-z
39 1/4+y,1/2-x,1/4+z
40 -y,1/4+x,3/4+z
41 3/4+x,3/4+z,1/2-y
42 -x,1/4+z,3/4+y
43 1/2-x,-z,-y
44 1/4+x,1/2-z,1/4+y
45 3/4+z,3/4+y,1/2-x
46 1/4+z,1/2-y,1/4+x
47 -z,1/4+y,3/4+x
48 1/2-z,-y,-x
49 1/2+x,y,1/2+z
50 3/4-x,3/4-y,z
51 1/4-x,1/2+y,3/4-z
52 x,1/4-y,1/4-z
53 1/2+z,x,1/2+y
54 z,1/4-x,1/4-y
55 3/4-z,3/4-x,y
56 1/4-z,1/2+x,3/4-y
57 1/2+y,z,1/2+x
58 1/4-y,1/2+z,3/4-x
59 y,1/4-z,1/4-x
60 3/4-y,3/4-z,x
61 1/4+y,1/4+x,1/2-z
62 -y,1/2-x,-z
63 3/4+y,-x,1/4+z
64 1/2-y,3/4+x,3/4+z
65 1/4+x,1/4+z,1/2-y
66 1/2-x,3/4+z,3/4+y
67 -x,1/2-z,-y
68 3/4+x,-z,1/4+y
69 1/4+z,1/4+y,1/2-x
70 3/4+z,-y,1/4+x
71 1/2-z,3/4+y,3/4+x
72 -z,1/2-y,-x
73 1/2+x,1/2+y,z
74 3/4-x,1/4-y,1/2+z
75 1/4-x,y,1/4-z
76 x,3/4-y,3/4-z
77 1/2+z,1/2+x,y
78 z,3/4-x,3/4-y
79 3/4-z,1/4-x,1/2+y
80 1/4-z,x,1/4-y
81 1/2+y,1/2+z,x
82 1/4-y,z,1/4-x
83 y,3/4-z,3/4-x
84 3/4-y,1/4-z,1/2+x
85 1/4+y,3/4+x,-z
86 -y,-x,1/2-z
87 3/4+y,1/2-x,3/4+z
88 1/2-y,1/4+x,1/4+z
89 1/4+x,3/4+z,-y
90 1/2-x,1/4+z,1/4+y
91 -x,-z,1/2-y
92 3/4+x,1/2-z,3/4+y
93 1/4+z,3/4+y,-x
94 3/4+z,1/2-y,3/4+x
95 1/2-z,1/4+y,1/4+x
96 -z,-y,1/2-x
97 -x,-y,-z
98 -1/4+x,-3/4+y,-1/2-z
99 -3/4+x,-1/2-y,-1/4+z
100 -1/2-x,-1/4+y,-3/4+z
101 -z,-x,-y
102 -1/2-z,-1/4+x,-3/4+y
103 -1/4+z,-3/4+x,-1/2-y
104 -3/4+z,-1/2-x,-1/4+y
105 -y,-z,-x
106 -3/4+y,-1/2-z,-1/4+x
107 -1/2-y,-1/4+z,-3/4+x
108 -1/4+y,-3/4+z,-1/2-x
109 -3/4-y,-1/4-x,z
110 -1/2+y,-1/2+x,-1/2+z
111 -1/4-y,x,-3/4-z
112 y,-3/4-x,-1/4-z
113 -3/4-x,-1/4-z,y
114 x,-3/4-z,-1/4-y
115 -1/2+x,-1/2+z,-1/2+y
116 -1/4-x,z,-3/4-y
117 -3/4-z,-1/4-y,x
118 -1/4-z,y,-3/4-x
119 z,-3/4-y,-1/4-x
120 -1/2+z,-1/2+y,-1/2+x
121 -x,-1/2-y,-1/2-z
122 -1/4+x,-1/4+y,-z
123 -3/4+x,-y,-3/4+z
124 -1/2-x,-3/4+y,-1/4+z
125 -z,-1/2-x,-1/2-y
126 -1/2-z,-3/4+x,-1/4+y
127 -1/4+z,-1/4+x,-y
128 -3/4+z,-x,-3/4+y
129 -y,-1/2-z,-1/2-x
130 -3/4+y,-z,-3/4+x
131 -1/2-y,-3/4+z,-1/4+x
132 -1/4+y,-1/4+z,-x
133 -3/4-y,-3/4-x,-1/2+z
134 -1/2+y,x,z
135 -1/4-y,-1/2+x,-1/4-z
136 y,-1/4-x,-3/4-z
137 -3/4-x,-3/4-z,-1/2+y
138 x,-1/4-z,-3/4-y
139 -1/2+x,z,y
140 -1/4-x,-1/2+z,-1/4-y
141 -3/4-z,-3/4-y,-1/2+x
142 -1/4-z,-1/2+y,-1/4-x
143 z,-1/4-y,-3/4-x
144 -1/2+z,y,x
145 -1/2-x,-y,-1/2-z
146 -3/4+x,-3/4+y,-z
147 -1/4+x,-1/2-y,-3/4+z
148 -x,-1/4+y,-1/4+z
149 -1/2-z,-x,-1/2-y
150 -z,-1/4+x,-1/4+y
151 -3/4+z,-3/4+x,-y
152 -1/4+z,-1/2-x,-3/4+y
153 -1/2-y,-z,-1/2-x
154 -1/4+y,-1/2-z,-3/4+x
155 -y,-1/4+z,-1/4+x
156 -3/4+y,-3/4+z,-x
157 -1/4-y,-1/4-x,-1/2+z
158 y,-1/2+x,z
159 -3/4-y,x,-1/4-z
160 -1/2+y,-3/4-x,-3/4-z
161 -1/4-x,-1/4-z,-1/2+y
162 -1/2+x,-3/4-z,-3/4-y
163 x,-1/2+z,y
164 -3/4-x,z,-1/4-y
165 -1/4-z,-1/4-y,-1/2+x
166 -3/4-z,y,-1/4-x
167 -1/2+z,-3/4-y,-3/4-x
168 z,-1/2+y,x
169 -1/2-x,-1/2-y,-z
170 -3/4+x,-1/4+y,-1/2-z
171 -1/4+x,-y,-1/4+z
172 -x,-3/4+y,-3/4+z
173 -1/2-z,-1/2-x,-y
174 -z,-3/4+x,-3/4+y
175 -3/4+z,-1/4+x,-1/2-y
176 -1/4+z,-x,-1/4+y
177 -1/2-y,-1/2-z,-x
178 -1/4+y,-z,-1/4+x
179 -y,-3/4+z,-3/4+x
180 -3/4+y,-1/4+z,-1/2-x
181 -1/4-y,-3/4-x,z
182 y,x,-1/2+z
183 -3/4-y,-1/2+x,-3/4-z
184 -1/2+y,-1/4-x,-1/4-z
185 -1/4-x,-3/4-z,y
186 -1/2+x,-1/4-z,-1/4-y
187 x,z,-1/2+y
188 -3/4-x,-1/2+z,-3/4-y
189 -1/4-z,-3/4-y,x
190 -3/4-z,-1/2+y,-3/4-x
191 -1/2+z,-1/4-y,-1/4-x
192 z,y,-1/2+x
_cell_length_a 26.4754(6)
_cell_length_b 26.4754(6)
_cell_length_c 26.4754(6)
_cell_angle_alpha 90
_cell_angle_beta 90
_cell_angle_gamma 90
_cell_formula_units_Z 32
loop_
_atom_type_symbol
_atom_type_radius_bond
C 0.68
H 0.23
Ca 1.76
Dy 1.92
O 0.68
loop_
_atom_site_label
_atom_site_type_symbol
_atom_site_fract_x
_atom_site_fract_y
_atom_site_fract_z
Dy1 Dy 0.25000 0.00000 0.00000
Ca1 Ca 0.50000 0.00000 0.00000
O1 O 0.31518(9) 0.06518(9) 0.00000
O2 O 0.33378(8) -0.02950(9) 0.00867(9)
O3 O 0.41616(9) -0.01988(11) 0.01467(10)
C1 C 0.36640(15) 0.05280(16) 0.0045(2)
H1 H 0.38060 0.06960 0.03380
H2 H 0.38450 0.06440 -0.02520
C2 C 0.37260(16) -0.00301(13) 0.00986(16)
Ca2 Ca 0.12500 0.12500 0.12500
O4 O 0.03780(18) 0.12500 0.12500
H3 H 0.01940 0.09940 0.13070
O5 O 0.3257(5) 0.12500 0.12500
H4 H 0.31290 0.12920 0.09660
Ca1P Ca 0.25000 0.25000 0.00000
Ca1U Ca 0.25000 0.00000 0.25000
Ca1K Ca 0.25000 -0.25000 0.00000
Ca1PA Ca 0.00000 0.00000 0.00000
Ca1Z Ca 0.25000 0.00000 -0.25000
O1U O 0.25000(9) -0.06518(9) 0.06518
O1PA O 0.18482(9) 0.00000(9) -0.06518
O2FC O 0.22050(8) 0.08378(9) -0.00867(9)
O2U O 0.25867(8) 0.02950(9) 0.08378(9)
O2DA O 0.24133(8) -0.08378(9) -0.02950(9)
O2PA O 0.16622(8) -0.00867(9) 0.02950(9)
O2CC O 0.27950(8) 0.00867(9) -0.08378(9)
O3FC O 0.23012(9) 0.16616(11) -0.01467(10)
O3U O 0.26467(9) 0.01988(11) 0.16616(10)
O3DA O 0.23533(9) -0.16616(11) -0.01988(10)
O3PA O 0.08384(9) -0.01467(11) 0.01988(10)
O3CC O 0.26988(9) 0.01467(11) -0.16616(10)
O3DB O 0.48012(9) 0.01467(11) -0.08384(10)
O3XB O 0.51467(9) -0.08384(11) -0.01988(10)
O3RC O 0.58384(9) 0.01988(11) -0.01467(10)
O3VE O 0.51988(9) -0.01467(11) 0.08384(10)
O3PF O 0.48533(9) 0.08384(11) 0.01988(10)
C1FC C 0.30280(15) 0.11640(16) -0.0045(2)
C1U C 0.25450(15) -0.05280(16) 0.1164(2)
C1DA C 0.24550(15) -0.11640(16) 0.0528(2)
C1PA C 0.13360(15) -0.00450(16) -0.0528(2)
C1CC C 0.19720(15) 0.00450(16) -0.1164(2)
H1FC H 0.31960 0.13060 -0.03380
H1U H 0.28380 -0.06960 0.13060
H1DA H 0.21620 -0.13060 0.06960
H1PA H 0.11940 -0.03380 -0.06960
H1CC H 0.18040 0.03380 -0.13060
H2FC H 0.31440 0.13450 0.02520
H2U H 0.22480 -0.06440 0.13450
H2DA H 0.27520 -0.13450 0.06440
H2PA H 0.11550 0.02520 -0.06440
H2CC H 0.18560 -0.02520 -0.13450
C2FC C 0.24699(16) 0.12260(13) -0.00986(16)
C2U C 0.25986(16) 0.00301(13) 0.12260(16)
C2DA C 0.24014(16) -0.12260(13) -0.00301(16)
C2PA C 0.12740(16) -0.00986(13) 0.00301(16)
C2CC C 0.25301(16) 0.00986(13) -0.12260(16)
O4D O 0.12500(18) 0.03780 0.12500
O4H O 0.12500(18) 0.12500 0.03780
O4Y O 0.21220(18) 0.12500 0.12500
O4DA O 0.12500(18) 0.21220 0.12500
O4FB O 0.12500(18) 0.12500 0.21220
H3YA H 0.01940 0.15060 0.11930
H3D H 0.13070 0.01940 0.09940
H3AC H 0.11930 0.01940 0.15060
H3H H 0.09940 0.13070 0.01940
H3IA H 0.15060 0.11930 0.01940
H3Y H 0.23060 0.15060 0.13070
H3VB H 0.23060 0.09940 0.11930
H3DA H 0.11930 0.23060 0.09940
H3AB H 0.13070 0.23060 0.15060
H3FB H 0.09940 0.11930 0.23060
H3CC H 0.15060 0.13070 0.23060
H4YA H 0.31290 0.12080 0.15340
#END
