
#######################################################################
#
#                 Cambridge Crystallographic Data Centre
#                                CCDC
#
#######################################################################
#
# If this CIF has been generated from an entry in the Cambridge
# Structural Database, then it will include bibliographic, chemical,
# crystal, experimental, refinement or atomic coordinate data resulting
# from the CCDC's data processing and validation procedures.
#
#######################################################################

data_CSD_CIF_FENLAN
_audit_creation_date 2012-12-31
_audit_creation_method CSD-ConQuest-V1
_database_code_CSD FENLAN
_database_code_depnum_ccdc_archive 'CCDC 882568'
_chemical_formula_sum 'C72 H1314 K30 Mo96 N6 O852 S66'
_chemical_formula_moiety
;
(C4 H12 N1 1+)6n,30n(K1 1+),n(C48 H42 Mo96 O252 S66 36-),600n(H2 O1)
;
_journal_coden_Cambridge 1441
_journal_volume 4
_journal_year 2012
_journal_page_first 1037
_journal_name_full 'Nature Chemistry '
loop_
_publ_author_name
"C.J.Richmond"
"H.N.Miras"
"A.R.de la Oliva"
"Hongying Zang"
"L.Paramonov"
"C.Makatsoris"
"R.Inglis"
"E.K.Brechin"
"D.-L.Long"
"L.Cronin"
_chemical_name_systematic
;
hexakis(Tetramethylammonium) triaconta-potassium 
dotetracontakis(hydroxo)-dodecakis(squarato)-hexahexacontakis(sulfido)-dohexac
ontahecta-oxo-hexanonaconta-molybdenum hydrate
;
_cell_volume  41680.668
_exptl_crystal_colour 'red'
_exptl_crystal_density_diffrn 2.279
_exptl_special_details
;
Large structure in which program limits have been exceeded. The 2D diagram 
attempts to represent a section of the Mo96 cluster. A full set of 
coordinates are available from the deposited CIF
;
_exptl_crystal_description 'block'
_diffrn_ambient_temperature 150
_refine_special_details
;
The structure is disordered by symmetry.

;
#These two values have been output from a single CSD field.
_refine_ls_R_factor_gt 0.0897
_refine_ls_wR_factor_gt 0.0897
_symmetry_cell_setting orthorhombic
_symmetry_space_group_name_H-M 'P m m n'
_symmetry_Int_Tables_number 59
loop_
_symmetry_equiv_pos_site_id
_symmetry_equiv_pos_as_xyz
1 x,y,z
2 1/2-x,1/2-y,z
3 -x,1/2+y,-z
4 1/2+x,-y,-z
5 -x,-y,-z
6 -1/2+x,-1/2+y,-z
7 x,-1/2-y,z
8 -1/2-x,y,z
_cell_length_a 20.8360(5)
_cell_length_b 43.1126(10)
_cell_length_c 46.3998(12)
_cell_angle_alpha 90
_cell_angle_beta 90
_cell_angle_gamma 90
_cell_formula_units_Z 2
loop_
_atom_type_symbol
_atom_type_radius_bond
C 0.68
K 1.03
Mo 1.25
O 0.68
S 1.02
loop_
_atom_site_label
_atom_site_type_symbol
_atom_site_fract_x
_atom_site_fract_y
_atom_site_fract_z
K1 K 0.25000 0.50240(4) 0.83498(5)
K2 K 0.25000 0.25000 0.42683(6)
K3 K 0.25000 0.31267(6) 0.86599(7)
K4 K 0.25000 0.75000 0.62339(8)
K5 K 0.6257(5) 0.7056(2) 0.8904(2)
K6 K 0.31383(18) 0.75000 0.77152(10)
K7 K 0.32822(19) 0.57019(10) 1.05508(8)
K8 K 0.3734(2) 0.51956(10) 0.44612(11)
K9 K 0.25000 0.5251(3) 0.2903(3)
K10 K 0.4770(6) 0.6758(3) 0.8686(3)
O1 O 0.4998(5) 0.6991(3) 0.9022(2)
O2 O 0.32969(16) 0.38442(8) 0.44040(9)
O3 O 0.32343(17) 0.44152(8) 0.39572(9)
C1 C 0.2828(2) 0.42597(11) 0.40796(11)
C2 C 0.2827(3) 0.39980(12) 0.42819(12)
O4 O 0.32996(16) 0.55937(8) 0.71899(8)
O5 O 0.32339(17) 0.62743(8) 0.69110(9)
C3 C 0.2848(3) 0.57833(13) 0.71193(12)
C4 C 0.2840(2) 0.60853(11) 0.69902(11)
O6 O 0.32952(16) 0.42502(8) 0.93894(8)
O7 O 0.32314(18) 0.44052(9) 1.00605(8)
C5 C 0.2835(2) 0.43549(12) 0.98550(11)
C6 C 0.2840(3) 0.42834(13) 0.95671(13)
Mo1 Mo 0.26247(5) 0.650547(17) 0.94779(2)
Mo2 Mo 0.26190(5) 0.683015(16) 0.89407(2)
Mo3 Mo 0.34184(3) 0.460092(10) 0.897229(14)
Mo4 Mo 0.25000 0.520183(17) 0.512480(18)
Mo5 Mo 0.25000 0.612073(15) 0.790283(17)
Mo6 Mo 0.25000 0.518071(14) 0.941925(19)
Mo7 Mo 0.25000 0.457193(17) 0.494842(18)
Mo8 Mo 0.31883(2) 0.678510(12) 0.671551(13)
Mo9 Mo 0.25000 0.320898(18) 0.487474(19)
Mo10 Mo 0.34173(3) 0.381733(13) 0.492520(13)
Mo11 Mo 0.25000 0.343395(15) 0.361662(17)
Mo12 Mo 0.25819(7) 0.410341(17) 0.86352(2)
Mo13 Mo 0.25574(8) 0.336426(15) 0.97136(2)
Mo14 Mo 0.43557(2) 0.630805(13) 0.691467(13)
Mo15 Mo 0.44648(3) 0.427274(12) 0.948868(16)
Mo16 Mo 0.34176(3) 0.509116(12) 0.695373(14)
Mo17 Mo 0.44547(2) 0.569832(14) 0.715543(14)
Mo18 Mo 0.25000 0.287841(15) 1.01257(2)
Mo19 Mo 0.34158(3) 0.376679(11) 0.911596(15)
Mo20 Mo 0.25000 0.558105(16) 0.572910(19)
Mo21 Mo 0.25653(10) 0.483131(16) 0.74682(2)
Mo22 Mo 0.25636(10) 0.337818(17) 0.300595(19)
Mo23 Mo 0.43616(3) 0.439938(13) 1.009145(16)
Mo24 Mo 0.25820(6) 0.665987(15) 0.825390(19)
Mo25 Mo 0.25588(12) 0.283104(18) 0.252371(18)
Mo26 Mo 0.26022(6) 0.577945(17) 0.96724(2)
Mo27 Mo 0.25000 0.543895(17) 0.632618(19)
Mo28 Mo 0.31932(3) 0.450704(13) 1.056380(15)
Mo29 Mo 0.44498(2) 0.393862(13) 0.433507(16)
Mo30 Mo 0.34173(2) 0.329469(11) 0.430522(12)
Mo31 Mo 0.34112(2) 0.540116(11) 0.768545(13)
Mo32 Mo 0.43523(2) 0.445608(13) 0.395465(16)
Mo33 Mo 0.31874(3) 0.486225(13) 0.364853(15)
S1 S 0.42195(7) 0.44487(4) 0.44520(4)
S2 S 0.43095(8) 0.39298(4) 0.38443(5)
S3 S 0.33596(9) 0.54430(4) 0.60115(4)
S4 S 0.43004(7) 0.58387(4) 0.66804(4)
S5 S 0.42448(7) 0.61598(4) 0.73940(4)
S6 S 0.33663(7) 0.63500(3) 0.81297(4)
S7 S 0.43025(8) 0.47457(3) 0.97100(5)
S8 S 0.42584(9) 0.39285(4) 0.98583(5)
S9 S 0.25000 0.69010(5) 0.70937(5)
S10 S 0.25000 0.65640(5) 0.63797(5)
S11 S 0.33749(9) 0.55116(3) 0.94860(4)
S12 S 0.33729(12) 0.25000 0.25771(6)
S13 S 0.33658(7) 0.48698(4) 0.50948(4)
S14 S 0.26349(9) 0.49065(5) 1.04388(6)
S15 S 0.33711(11) 0.66212(4) 0.91853(4)
S16 S 0.33694(8) 0.33355(4) 0.33182(4)
S17 S 0.33763(9) 0.30781(3) 0.98782(5)
S18 S 0.25000 0.40846(5) 1.05848(6)
S19 S 0.25000 0.45575(6) 0.33723(7)
S20 S 0.25000 0.50711(5) 0.39874(6)
O8 O 0.25000 0.28983(18) 0.21748(17)
O9 O 0.3076(3) 0.32013(9) 0.26708(9)
O10 O 0.25000 0.28536(12) 0.30281(12)
O11 O 0.25000 0.38135(13) 0.36285(12)
O12 O 0.25000 0.28818(11) 0.37180(11)
O13 O 0.31694(16) 0.33767(8) 0.39500(8)
O14 O 0.3580(2) 0.29069(8) 0.43072(9)
O15 O 0.25000 0.33078(11) 0.44105(13)
O16 O 0.42020(18) 0.34682(8) 0.43250(9)
O17 O 0.33879(18) 0.33385(8) 0.47787(9)
O18 O 0.25000 0.28266(13) 0.47751(15)
O19 O 0.25000 0.31918(16) 0.52370(15)
O20 O 0.25000 0.37029(12) 0.48829(12)
O21 O 0.3584(3) 0.37383(13) 0.52834(12)
O22 O 0.31745(18) 0.42061(8) 0.49277(9)
O23 O 0.42026(18) 0.38515(9) 0.47611(10)
O24 O 0.5245(2) 0.39068(10) 0.4372(1)
O25 O 0.5130(3) 0.45450(12) 0.39172(12)
O26 O 0.39288(18) 0.49094(8) 0.39440(9)
O27 O 0.3962(2) 0.45578(10) 0.35384(10)
O28 O 0.3350(3) 0.51671(13) 0.34290(12)
O29 O 0.25000 0.37544(17) 0.29209(16)
O30 O 0.25000 0.25000 0.8814(3)
O31 O 0.25000 0.46434(11) 0.45867(12)
O32 O 0.25000 0.53701(13) 0.48100(14)
O33 O 0.25000 0.43519(13) 0.54189(13)
O34 O 0.25000 0.50770(12) 0.56110(11)
O35 O 0.30795(18) 0.55137(8) 0.53611(8)
O36 O 0.25000 0.59761(11) 0.57360(15)
O37 O 0.25000 0.48817(13) 0.62816(14)
O38 O 0.25000 0.57977(13) 0.64413(14)
O39 O 0.3181(2) 0.52734(9) 0.66315(9)
O40 O 0.3559(2) 0.47126(11) 0.68602(11)
O41 O 0.25000 0.50578(14) 0.70713(13)
O42 O 0.25000 0.44790(14) 0.72845(17)
O43 O 0.3391(2) 0.49912(8) 0.74158(10)
O44 O 0.25000 0.47374(12) 0.78173(14)
O45 O 0.25000 0.41667(13) 0.61062(16)
O46 O 0.25000 0.53098(12) 0.76167(14)
O47 O 0.4208(2) 0.52634(10) 0.70228(10)
O48 O 0.3542(2) 0.52085(9) 0.7985(1)
O49 O 0.4206(2) 0.54746(9) 0.75368(10)
O50 O 0.39389(17) 0.67452(9) 0.70167(10)
O51 O 0.3361(2) 0.71348(9) 0.65740(12)
O52 O 0.39519(16) 0.65220(9) 0.65421(9)
O53 O 0.51404(18) 0.64067(10) 0.68947(10)
O54 O 0.5244(2) 0.56523(11) 0.71812(10)
O55 O 0.31612(17) 0.57762(8) 0.78012(8)
O56 O 0.25000 0.62994(12) 0.75716(14)
O57 O 0.2631(3) 0.69341(12) 0.80041(14)
O58 O 0.31035(19) 0.68795(9) 0.85673(9)
O59 O 0.25000 0.63793(12) 0.86689(11)
O60 O 0.2662(4) 0.72060(17) 0.90580(16)
O61 O 0.2633(5) 0.67980(13) 0.97207(14)
O62 O 0.25000 0.60215(12) 0.92419(11)
O63 O 0.3082(2) 0.61837(12) 0.96981(11)
O64 O 0.25000 0.57424(10) 0.83017(11)
O65 O 0.25000 0.53604(12) 0.89129(11)
O66 O 0.25000 0.56867(17) 1.00020(16)
O67 O 0.25000 0.49990(13) 0.97146(13)
O68 O 0.31716(17) 0.49029(8) 0.92099(8)
O69 O 0.25000 0.43730(12) 0.83625(15)
O70 O 0.3576(2) 0.47858(9) 0.86539(10)
O71 O 0.2607(4) 0.37649(15) 0.84540(14)
O72 O 0.33679(19) 0.41339(8) 0.87968(10)
O73 O 0.25000 0.44932(11) 0.89251(13)
O74 O 0.2611(3) 0.38518(13) 0.90375(13)
O75 O 0.42108(18) 0.45111(8) 0.91111(10)
O76 O 0.4194(2) 0.39043(9) 0.92216(9)
O77 O 0.3169(2) 0.35617(8) 0.94152(11)
O78 O 0.3558(2) 0.34821(8) 0.88699(11)
O79 O 0.25000 0.30270(14) 0.93110(13)
O80 O 0.25000 0.36710(12) 0.99384(12)
O81 O 0.25000 0.30840(14) 1.04341(13)
O82 O 0.3123(3) 0.25000 1.02529(13)
O83 O 0.25000 0.25000 0.97721(15)
O84 O 0.52347(19) 0.42558(9) 0.94408(13)
O85 O 0.5133(2) 0.44025(9) 1.01846(11)
O86 O 0.3971(2) 0.47384(9) 1.03646(10)
O87 O 0.39267(19) 0.41914(9) 1.04592(10)
O88 O 0.3342(3) 0.45884(9) 1.08929(12)
C7 C 0.25000 0.26667(17) 0.32393(16)
C8 C 0.25000 0.26723(14) 0.35297(14)
C9 C 0.25000 0.4509(2) 0.5656(2)
C10 C 0.25000 0.4826(2) 0.5742(2)
C11 C 0.25000 0.47397(18) 0.6037(2)
C12 C 0.2661(4) 0.4418(2) 0.59700(19)
C13 C 0.25000 0.56310(16) 0.88554(16)
C14 C 0.25000 0.59230(19) 0.89790(18)
C15 C 0.25000 0.6094(2) 0.8725(2)
C16 C 0.25000 0.58057(14) 0.85644(14)
C17 C 0.25000 0.27276(18) 0.93235(17)
C18 C 0.25000 0.25000 0.95200(15)
C19 C 0.25000 0.25000 0.90860(18)
O89 O 0.6895(6) 0.7017(3) 0.8397(3)
O90 O 0.5139(5) 0.6494(2) 0.8152(2)
O91 O 0.4275(5) 0.6060(2) 0.8873(2)
O92 O 0.3282(5) 0.75000 0.8377(2)
O93 O 0.3696(2) 0.68933(10) 0.75751(10)
O94 O 0.3774(2) 0.53235(11) 1.01635(10)
O95 O 0.25000 0.7105(4) 0.5785(4)
O96 O 0.352(1) 0.7248(5) 0.5833(4)
O97 O 0.3713(5) 0.75000 0.7151(2)
O98 O 0.3244(5) 0.5792(2) 0.4339(2)
O99 O 0.4729(5) 0.5244(2) 0.4845(2)
O100 O 0.3320(8) 0.6316(4) 1.0288(4)
O101 O 0.3631(7) 0.5343(4) 1.1059(3)
O102 O 0.3430(12) 0.6104(6) 1.1062(6)
O103 O 0.3480(13) 0.3044(6) 0.8233(6)
O104 O 0.6854(5) 0.75000 0.9138(2)
O105 O 0.6869(4) 0.6564(2) 0.9060(2)
O106 O 0.3465(5) 0.6029(3) 0.5019(2)
O107 O 0.5001(7) 0.75000 0.7233(3)
O108 O 0.5832(4) 0.5160(2) 0.37306(18)
O109 O 0.4067(5) 0.2956(2) 0.9234(2)
O110 O 0.4373(5) 0.4841(2) 0.5724(2)
O111 O 0.3442(8) 0.3235(4) 0.6172(4)
O112 O 0.3763(2) 0.61876(11) 0.60666(10)
O113 O 0.4942(3) 0.69114(14) 0.77652(14)
O114 O 0.6676(2) 0.56771(11) 0.72848(10)
O115 O 0.3721(2) 0.40764(11) 0.31844(10)
O116 O 0.4300(3) 0.53829(13) 0.54002(12)
O117 O 0.3676(3) 0.35809(12) 1.04417(12)
O118 O 0.4358(4) 0.25000 1.01337(19)
O119 O 0.4626(3) 0.50523(14) 0.83430(13)
O120 O 0.4330(3) 0.61128(17) 0.95201(16)
O121 O 0.5102(4) 0.66269(18) 0.95242(17)
O122 O 0.5206(5) 0.75000 0.7966(2)
O123 O 0.3212(6) 0.6552(3) 0.5650(3)
O124 O 0.4391(4) 0.3103(2) 0.27600(19)
O125 O 0.6381(7) 0.75000 0.8141(3)
O126 O 0.4481(6) 0.25000 0.9548(3)
O127 O 0.25000 0.5119(5) 1.1246(5)
O128 O 0.6499(5) 0.6469(3) 0.8229(2)
O129 O 0.5102(4) 0.6844(2) 0.6259(2)
O130 O 0.3371(5) 0.3904(2) 1.1323(2)
O131 O 0.4768(5) 0.5890(3) 0.4893(2)
O132 O 0.4616(9) 0.25000 0.4608(4)
O133 O 0.4972(5) 0.5878(3) 0.7985(2)
O134 O 0.4609(6) 0.4207(3) 1.1120(3)
O135 O 0.5429(5) 0.5020(2) 0.6886(2)
O136? O 0.2831(8) 0.25000 0.5311(4)
O137? O 0.5180(3) 0.49923(17) 0.66954(16)
O138? O 0.2668(7) 0.4355(3) 1.1373(3)
K11? K 0.26660(13) 0.43472(6) 0.66818(6)
K12? K 0.2636(2) 0.37051(7) 0.56535(7)
O139? O 0.2871(5) 0.3656(3) 0.2246(3)
K13? K 0.4342(3) 0.67018(17) 0.86065(16)
O2G O 0.17031(16) 0.38442(8) 0.44040(9)
O3G O 0.17657(17) 0.44152(8) 0.39572(9)
C1G C 0.2172(2) 0.42597(11) 0.40796(11)
C2G C 0.2173(3) 0.39980(12) 0.42819(12)
O4G O 0.17004(16) 0.55937(8) 0.71899(8)
O5G O 0.17661(17) 0.62743(8) 0.69110(9)
C3G C 0.2152(3) 0.57833(13) 0.71193(12)
C4G C 0.2160(2) 0.60853(11) 0.69902(11)
O6G O 0.17048(16) 0.42502(8) 0.93894(8)
O7G O 0.17686(18) 0.44052(9) 1.00605(8)
C5G C 0.2165(2) 0.43549(12) 0.98550(11)
C6G C 0.2160(3) 0.42834(13) 0.95671(13)
S14G S 0.23651(9) 0.49065(5) 1.04388(6)
O10A O 0.25000 0.21464(12) 0.30281(12)
O12A O 0.25000 0.21182(11) 0.37180(11)
C7A C 0.25000 0.23333(17) 0.32393(16)
C8A C 0.25000 0.23277(14) 0.35297(14)
O79A O 0.25000 0.19730(14) 0.93110(13)
C17A C 0.25000 0.22724(18) 0.93235(17)
C12G C 0.2339(4) 0.4418(2) 0.59700(19)
O60G O 0.2338(4) 0.72060(17) 0.90580(16)
O61G O 0.2367(5) 0.67980(13) 0.97207(14)
O2A O 0.17031(16) 0.11558(8) 0.44040(9)
O3A O 0.17657(17) 0.05848(8) 0.39572(9)
C1A C 0.2172(2) 0.07403(11) 0.40796(11)
C2A C 0.2173(3) 0.10020(12) 0.42819(12)
O4A O 0.17004(16) -0.05937(8) 0.71899(8)
O5A O 0.17661(17) -0.12743(8) 0.69110(9)
C3A C 0.2152(3) -0.07833(13) 0.71193(12)
C4A C 0.2160(2) -0.10853(11) 0.69902(11)
O6A O 0.17048(16) 0.07498(8) 0.93894(8)
O7A O 0.17686(18) 0.05948(9) 1.00605(8)
C5A C 0.2165(2) 0.06451(12) 0.98550(11)
C6A C 0.2160(3) 0.07166(13) 0.95671(13)
Mo1A Mo 0.23753(5) -0.150547(17) 0.94779(2)
Mo2A Mo 0.23810(5) -0.183015(16) 0.89407(2)
Mo3A Mo 0.15816(3) 0.039908(10) 0.897229(14)
Mo4A Mo 0.25000 -0.020183(17) 0.512480(18)
Mo5A Mo 0.25000 -0.112073(15) 0.790283(17)
Mo6A Mo 0.25000 -0.018071(14) 0.941925(19)
Mo7A Mo 0.25000 0.042807(17) 0.494842(18)
Mo8A Mo 0.18117(2) -0.178510(12) 0.671551(13)
Mo9A Mo 0.25000 0.179102(18) 0.487474(19)
Mo10A Mo 0.15827(3) 0.118267(13) 0.492520(13)
Mo11A Mo 0.25000 0.156605(15) 0.361662(17)
Mo12A Mo 0.24181(7) 0.089659(17) 0.86352(2)
Mo13A Mo 0.24426(8) 0.163574(15) 0.97136(2)
Mo14A Mo 0.06443(2) -0.130805(13) 0.691467(13)
Mo15A Mo 0.05352(3) 0.072726(12) 0.948868(16)
Mo16A Mo 0.15824(3) -0.009116(12) 0.695373(14)
Mo17A Mo 0.05453(2) -0.069832(14) 0.715543(14)
Mo18A Mo 0.25000 0.212159(15) 1.01257(2)
Mo19A Mo 0.15842(3) 0.123321(11) 0.911596(15)
Mo20A Mo 0.25000 -0.058105(16) 0.572910(19)
Mo21A Mo 0.24347(10) 0.016869(16) 0.74682(2)
Mo22A Mo 0.24364(10) 0.162182(17) 0.300595(19)
Mo23A Mo 0.06384(3) 0.060062(13) 1.009145(16)
Mo24A Mo 0.24180(6) -0.165987(15) 0.825390(19)
Mo25A Mo 0.24412(12) 0.216896(18) 0.252371(18)
Mo26A Mo 0.23978(6) -0.077945(17) 0.96724(2)
Mo27A Mo 0.25000 -0.043895(17) 0.632618(19)
Mo28A Mo 0.18068(3) 0.049296(13) 1.056380(15)
Mo29A Mo 0.05502(2) 0.106138(13) 0.433507(16)
Mo30A Mo 0.15827(2) 0.170531(11) 0.430522(12)
Mo31A Mo 0.15888(2) -0.040116(11) 0.768545(13)
Mo32A Mo 0.06477(2) 0.054392(13) 0.395465(16)
Mo33A Mo 0.18126(3) 0.013775(13) 0.364853(15)
S1A S 0.07805(7) 0.05513(4) 0.44520(4)
S2A S 0.06905(8) 0.10702(4) 0.38443(5)
S3A S 0.16404(9) -0.04430(4) 0.60115(4)
S4A S 0.06996(7) -0.08387(4) 0.66804(4)
S5A S 0.07552(7) -0.11598(4) 0.73940(4)
S6A S 0.16337(7) -0.13500(3) 0.81297(4)
S7A S 0.06975(8) 0.02543(3) 0.97100(5)
S8A S 0.07416(9) 0.10715(4) 0.98583(5)
S9A S 0.25000 -0.19010(5) 0.70937(5)
S10A S 0.25000 -0.15640(5) 0.63797(5)
S11A S 0.16251(9) -0.05116(3) 0.94860(4)
S12A S 0.16271(12) 0.25000 0.25771(6)
S13A S 0.16342(7) 0.01302(4) 0.50948(4)
S14A S 0.23651(9) 0.00935(5) 1.04388(6)
S15A S 0.16289(11) -0.16212(4) 0.91853(4)
S16A S 0.16306(8) 0.16645(4) 0.33182(4)
S17A S 0.16237(9) 0.19219(3) 0.98782(5)
S18A S 0.25000 0.09154(5) 1.05848(6)
S19A S 0.25000 0.04425(6) 0.33723(7)
S20A S 0.25000 -0.00711(5) 0.39874(6)
O8A O 0.25000 0.21017(18) 0.21748(17)
O9A O 0.1924(3) 0.17987(9) 0.26708(9)
O11A O 0.25000 0.11865(13) 0.36285(12)
O13A O 0.18306(16) 0.16233(8) 0.39500(8)
O14A O 0.1420(2) 0.20931(8) 0.43072(9)
O15A O 0.25000 0.16922(11) 0.44105(13)
O16A O 0.07980(18) 0.15318(8) 0.43250(9)
O17A O 0.16121(18) 0.16615(8) 0.47787(9)
O18A O 0.25000 0.21734(13) 0.47751(15)
O19A O 0.25000 0.18082(16) 0.52370(15)
O20A O 0.25000 0.12971(12) 0.48829(12)
O21A O 0.1416(3) 0.12617(13) 0.52834(12)
O22A O 0.18255(18) 0.07939(8) 0.49277(9)
O23A O 0.07974(18) 0.11485(9) 0.47611(10)
O24A O -0.0245(2) 0.10932(10) 0.4372(1)
O25A O -0.0130(3) 0.04550(12) 0.39172(12)
O26A O 0.10712(18) 0.00906(8) 0.39440(9)
O27A O 0.1038(2) 0.04422(10) 0.35384(10)
O28A O 0.1650(3) -0.01671(13) 0.34290(12)
O29A O 0.25000 0.12456(17) 0.29209(16)
O31A O 0.25000 0.03566(11) 0.45867(12)
O32A O 0.25000 -0.03701(13) 0.48100(14)
O33A O 0.25000 0.06481(13) 0.54189(13)
O34A O 0.25000 -0.00770(12) 0.56110(11)
O35A O 0.19205(18) -0.05137(8) 0.53611(8)
O36A O 0.25000 -0.09761(11) 0.57360(15)
O37A O 0.25000 0.01183(13) 0.62816(14)
O38A O 0.25000 -0.07977(13) 0.64413(14)
O39A O 0.1819(2) -0.02734(9) 0.66315(9)
O40A O 0.1441(2) 0.02874(11) 0.68602(11)
O41A O 0.25000 -0.00578(14) 0.70713(13)
O42A O 0.25000 0.05210(14) 0.72845(17)
O43A O 0.1609(2) 0.00088(8) 0.74158(10)
O44A O 0.25000 0.02626(12) 0.78173(14)
O45A O 0.25000 0.08333(13) 0.61062(16)
O46A O 0.25000 -0.03098(12) 0.76167(14)
O47A O 0.0792(2) -0.02634(10) 0.70228(10)
O48A O 0.1458(2) -0.02085(9) 0.7985(1)
O49A O 0.0794(2) -0.04746(9) 0.75368(10)
O50A O 0.10611(17) -0.17452(9) 0.70167(10)
O51A O 0.1639(2) -0.21348(9) 0.65740(12)
O52A O 0.10481(16) -0.15220(9) 0.65421(9)
O53A O -0.01404(18) -0.14067(10) 0.68947(10)
O54A O -0.0244(2) -0.06523(11) 0.71812(10)
O55A O 0.18388(17) -0.07762(8) 0.78012(8)
O56A O 0.25000 -0.12994(12) 0.75716(14)
O57A O 0.2369(3) -0.19341(12) 0.80041(14)
O58A O 0.18965(19) -0.18795(9) 0.85673(9)
O59A O 0.25000 -0.13793(12) 0.86689(11)
O60A O 0.2338(4) -0.22060(17) 0.90580(16)
O61A O 0.2367(5) -0.17980(13) 0.97207(14)
O62A O 0.25000 -0.10215(12) 0.92419(11)
O63A O 0.1918(2) -0.11837(12) 0.96981(11)
O64A O 0.25000 -0.07424(10) 0.83017(11)
O65A O 0.25000 -0.03604(12) 0.89129(11)
O66A O 0.25000 -0.06867(17) 1.00020(16)
O67A O 0.25000 0.00010(13) 0.97146(13)
O68A O 0.18284(17) 0.00971(8) 0.92099(8)
O69A O 0.25000 0.06270(12) 0.83625(15)
O70A O 0.1424(2) 0.02142(9) 0.86539(10)
O71A O 0.2393(4) 0.12351(15) 0.84540(14)
O72A O 0.16321(19) 0.08661(8) 0.87968(10)
O73A O 0.25000 0.05068(11) 0.89251(13)
O74A O 0.2389(3) 0.11482(13) 0.90375(13)
O75A O 0.07892(18) 0.04889(8) 0.91111(10)
O76A O 0.0806(2) 0.10957(9) 0.92216(9)
O77A O 0.1831(2) 0.14383(8) 0.94152(11)
O78A O 0.1442(2) 0.15179(8) 0.88699(11)
O80A O 0.25000 0.13290(12) 0.99384(12)
O81A O 0.25000 0.19160(14) 1.04341(13)
O82A O 0.1877(3) 0.25000 1.02529(13)
O84A O -0.02347(19) 0.07442(9) 0.94408(13)
O85A O -0.0133(2) 0.05975(9) 1.01846(11)
O86A O 0.1029(2) 0.02616(9) 1.03646(10)
O87A O 0.10733(19) 0.08086(9) 1.04592(10)
O88A O 0.1658(3) 0.04116(9) 1.08929(12)
C9A C 0.25000 0.0491(2) 0.5656(2)
C10A C 0.25000 0.0174(2) 0.5742(2)
C11A C 0.25000 0.02603(18) 0.6037(2)
C12A C 0.2339(4) 0.0582(2) 0.59700(19)
C13A C 0.25000 -0.06310(16) 0.88554(16)
C14A C 0.25000 -0.09230(19) 0.89790(18)
C15A C 0.25000 -0.1094(2) 0.8725(2)
C16A C 0.25000 -0.08057(14) 0.85644(14)
O2F O 0.32969(16) 0.11558(8) 0.44040(9)
O3F O 0.32343(17) 0.05848(8) 0.39572(9)
C1F C 0.2828(2) 0.07403(11) 0.40796(11)
C2F C 0.2827(3) 0.10020(12) 0.42819(12)
O4F O 0.32996(16) -0.05937(8) 0.71899(8)
O5F O 0.32339(17) -0.12743(8) 0.69110(9)
C3F C 0.2848(3) -0.07833(13) 0.71193(12)
C4F C 0.2840(2) -0.10853(11) 0.69902(11)
O6F O 0.32952(16) 0.07498(8) 0.93894(8)
O7F O 0.32314(18) 0.05948(9) 1.00605(8)
C5F C 0.2835(2) 0.06451(12) 0.98550(11)
C6F C 0.2840(3) 0.07166(13) 0.95671(13)
S14F S 0.26349(9) 0.00935(5) 1.04388(6)
C12F C 0.2661(4) 0.0582(2) 0.59700(19)
O60F O 0.2662(4) -0.22060(17) 0.90580(16)
O61F O 0.2633(5) -0.17980(13) 0.97207(14)
Mo1F Mo 0.26247(5) -0.150547(17) 0.94779(2)
Mo2F Mo 0.26190(5) -0.183015(16) 0.89407(2)
Mo3F Mo 0.34184(3) 0.039908(10) 0.897229(14)
Mo8F Mo 0.31883(2) -0.178510(12) 0.671551(13)
Mo10F Mo 0.34173(3) 0.118267(13) 0.492520(13)
Mo12F Mo 0.25819(7) 0.089659(17) 0.86352(2)
Mo13F Mo 0.25574(8) 0.163574(15) 0.97136(2)
Mo14F Mo 0.43557(2) -0.130805(13) 0.691467(13)
Mo15F Mo 0.44648(3) 0.072726(12) 0.948868(16)
Mo16F Mo 0.34176(3) -0.009116(12) 0.695373(14)
Mo17F Mo 0.44547(2) -0.069832(14) 0.715543(14)
Mo19F Mo 0.34158(3) 0.123321(11) 0.911596(15)
Mo21F Mo 0.25653(10) 0.016869(16) 0.74682(2)
Mo22F Mo 0.25636(10) 0.162182(17) 0.300595(19)
Mo23F Mo 0.43616(3) 0.060062(13) 1.009145(16)
Mo24F Mo 0.25820(6) -0.165987(15) 0.825390(19)
Mo25F Mo 0.25588(12) 0.216896(18) 0.252371(18)
Mo26F Mo 0.26022(6) -0.077945(17) 0.96724(2)
Mo28F Mo 0.31932(3) 0.049296(13) 1.056380(15)
Mo29F Mo 0.44498(2) 0.106138(13) 0.433507(16)
Mo30F Mo 0.34173(2) 0.170531(11) 0.430522(12)
Mo31F Mo 0.34112(2) -0.040116(11) 0.768545(13)
Mo32F Mo 0.43523(2) 0.054392(13) 0.395465(16)
Mo33F Mo 0.31874(3) 0.013775(13) 0.364853(15)
S1F S 0.42195(7) 0.05513(4) 0.44520(4)
S2F S 0.43095(8) 0.10702(4) 0.38443(5)
S3F S 0.33596(9) -0.04430(4) 0.60115(4)
S4F S 0.43004(7) -0.08387(4) 0.66804(4)
S5F S 0.42448(7) -0.11598(4) 0.73940(4)
S6F S 0.33663(7) -0.13500(3) 0.81297(4)
S7F S 0.43025(8) 0.02543(3) 0.97100(5)
S8F S 0.42584(9) 0.10715(4) 0.98583(5)
S11F S 0.33749(9) -0.05116(3) 0.94860(4)
S13F S 0.33658(7) 0.01302(4) 0.50948(4)
S15F S 0.33711(11) -0.16212(4) 0.91853(4)
S16F S 0.33694(8) 0.16645(4) 0.33182(4)
S17F S 0.33763(9) 0.19219(3) 0.98782(5)
O9F O 0.3076(3) 0.17987(9) 0.26708(9)
O13F O 0.31694(16) 0.16233(8) 0.39500(8)
O14F O 0.3580(2) 0.20931(8) 0.43072(9)
O16F O 0.42020(18) 0.15318(8) 0.43250(9)
O17F O 0.33879(18) 0.16615(8) 0.47787(9)
O21F O 0.3584(3) 0.12617(13) 0.52834(12)
O22F O 0.31745(18) 0.07939(8) 0.49277(9)
O23F O 0.42026(18) 0.11485(9) 0.47611(10)
O24F O 0.5245(2) 0.10932(10) 0.4372(1)
O25F O 0.5130(3) 0.04550(12) 0.39172(12)
O26F O 0.39288(18) 0.00906(8) 0.39440(9)
O27F O 0.3962(2) 0.04422(10) 0.35384(10)
O28F O 0.3350(3) -0.01671(13) 0.34290(12)
O35F O 0.30795(18) -0.05137(8) 0.53611(8)
O39F O 0.3181(2) -0.02734(9) 0.66315(9)
O40F O 0.3559(2) 0.02874(11) 0.68602(11)
O43F O 0.3391(2) 0.00088(8) 0.74158(10)
O47F O 0.4208(2) -0.02634(10) 0.70228(10)
O48F O 0.3542(2) -0.02085(9) 0.7985(1)
O49F O 0.4206(2) -0.04746(9) 0.75368(10)
O50F O 0.39389(17) -0.17452(9) 0.70167(10)
O51F O 0.3361(2) -0.21348(9) 0.65740(12)
O52F O 0.39519(16) -0.15220(9) 0.65421(9)
O53F O 0.51404(18) -0.14067(10) 0.68947(10)
O54F O 0.5244(2) -0.06523(11) 0.71812(10)
O55F O 0.31612(17) -0.07762(8) 0.78012(8)
O57F O 0.2631(3) -0.19341(12) 0.80041(14)
O58F O 0.31035(19) -0.18795(9) 0.85673(9)
O63F O 0.3082(2) -0.11837(12) 0.96981(11)
O68F O 0.31716(17) 0.00971(8) 0.92099(8)
O70F O 0.3576(2) 0.02142(9) 0.86539(10)
O71F O 0.2607(4) 0.12351(15) 0.84540(14)
O72F O 0.33679(19) 0.08661(8) 0.87968(10)
O74F O 0.2611(3) 0.11482(13) 0.90375(13)
O75F O 0.42108(18) 0.04889(8) 0.91111(10)
O76F O 0.4194(2) 0.10957(9) 0.92216(9)
O77F O 0.3169(2) 0.14383(8) 0.94152(11)
O78F O 0.3558(2) 0.15179(8) 0.88699(11)
O84F O 0.52347(19) 0.07442(9) 0.94408(13)
O85F O 0.5133(2) 0.05975(9) 1.01846(11)
O86F O 0.3971(2) 0.02616(9) 1.03646(10)
O87F O 0.39267(19) 0.08086(9) 1.04592(10)
O88F O 0.3342(3) 0.04116(9) 1.08929(12)
Mo1G Mo 0.23753(5) 0.650547(17) 0.94779(2)
Mo2G Mo 0.23810(5) 0.683015(16) 0.89407(2)
Mo3G Mo 0.15816(3) 0.460092(10) 0.897229(14)
Mo8G Mo 0.18117(2) 0.678510(12) 0.671551(13)
Mo10G Mo 0.15827(3) 0.381733(13) 0.492520(13)
Mo12G Mo 0.24181(7) 0.410341(17) 0.86352(2)
Mo13G Mo 0.24426(8) 0.336426(15) 0.97136(2)
Mo14G Mo 0.06443(2) 0.630805(13) 0.691467(13)
Mo15G Mo 0.05352(3) 0.427274(12) 0.948868(16)
Mo16G Mo 0.15824(3) 0.509116(12) 0.695373(14)
Mo17G Mo 0.05453(2) 0.569832(14) 0.715543(14)
Mo19G Mo 0.15842(3) 0.376679(11) 0.911596(15)
Mo21G Mo 0.24347(10) 0.483131(16) 0.74682(2)
Mo22G Mo 0.24364(10) 0.337818(17) 0.300595(19)
Mo23G Mo 0.06384(3) 0.439938(13) 1.009145(16)
Mo24G Mo 0.24180(6) 0.665987(15) 0.825390(19)
Mo25G Mo 0.24412(12) 0.283104(18) 0.252371(18)
Mo26G Mo 0.23978(6) 0.577945(17) 0.96724(2)
Mo28G Mo 0.18068(3) 0.450704(13) 1.056380(15)
Mo29G Mo 0.05502(2) 0.393862(13) 0.433507(16)
Mo30G Mo 0.15827(2) 0.329469(11) 0.430522(12)
Mo31G Mo 0.15888(2) 0.540116(11) 0.768545(13)
Mo32G Mo 0.06477(2) 0.445608(13) 0.395465(16)
Mo33G Mo 0.18126(3) 0.486225(13) 0.364853(15)
S1G S 0.07805(7) 0.44487(4) 0.44520(4)
S2G S 0.06905(8) 0.39298(4) 0.38443(5)
S3G S 0.16404(9) 0.54430(4) 0.60115(4)
S4G S 0.06996(7) 0.58387(4) 0.66804(4)
S5G S 0.07552(7) 0.61598(4) 0.73940(4)
S6G S 0.16337(7) 0.63500(3) 0.81297(4)
S7G S 0.06975(8) 0.47457(3) 0.97100(5)
S8G S 0.07416(9) 0.39285(4) 0.98583(5)
S11G S 0.16251(9) 0.55116(3) 0.94860(4)
S13G S 0.16342(7) 0.48698(4) 0.50948(4)
S15G S 0.16289(11) 0.66212(4) 0.91853(4)
S16G S 0.16306(8) 0.33355(4) 0.33182(4)
S17G S 0.16237(9) 0.30781(3) 0.98782(5)
O9G O 0.1924(3) 0.32013(9) 0.26708(9)
O13G O 0.18306(16) 0.33767(8) 0.39500(8)
O14G O 0.1420(2) 0.29069(8) 0.43072(9)
O16G O 0.07980(18) 0.34682(8) 0.43250(9)
O17G O 0.16121(18) 0.33385(8) 0.47787(9)
O21G O 0.1416(3) 0.37383(13) 0.52834(12)
O22G O 0.18255(18) 0.42061(8) 0.49277(9)
O23G O 0.07974(18) 0.38515(9) 0.47611(10)
O24G O -0.0245(2) 0.39068(10) 0.4372(1)
O25G O -0.0130(3) 0.45450(12) 0.39172(12)
O26G O 0.10712(18) 0.49094(8) 0.39440(9)
O27G O 0.1038(2) 0.45578(10) 0.35384(10)
O28G O 0.1650(3) 0.51671(13) 0.34290(12)
O35G O 0.19205(18) 0.55137(8) 0.53611(8)
O39G O 0.1819(2) 0.52734(9) 0.66315(9)
O40G O 0.1441(2) 0.47126(11) 0.68602(11)
O43G O 0.1609(2) 0.49912(8) 0.74158(10)
O47G O 0.0792(2) 0.52634(10) 0.70228(10)
O48G O 0.1458(2) 0.52085(9) 0.7985(1)
O49G O 0.0794(2) 0.54746(9) 0.75368(10)
O50G O 0.10611(17) 0.67452(9) 0.70167(10)
O51G O 0.1639(2) 0.71348(9) 0.65740(12)
O52G O 0.10481(16) 0.65220(9) 0.65421(9)
O53G O -0.01404(18) 0.64067(10) 0.68947(10)
O54G O -0.0244(2) 0.56523(11) 0.71812(10)
O55G O 0.18388(17) 0.57762(8) 0.78012(8)
O57G O 0.2369(3) 0.69341(12) 0.80041(14)
O58G O 0.18965(19) 0.68795(9) 0.85673(9)
O63G O 0.1918(2) 0.61837(12) 0.96981(11)
O68G O 0.18284(17) 0.49029(8) 0.92099(8)
O70G O 0.1424(2) 0.47858(9) 0.86539(10)
O71G O 0.2393(4) 0.37649(15) 0.84540(14)
O72G O 0.16321(19) 0.41339(8) 0.87968(10)
O74G O 0.2389(3) 0.38518(13) 0.90375(13)
O75G O 0.07892(18) 0.45111(8) 0.91111(10)
O76G O 0.0806(2) 0.39043(9) 0.92216(9)
O77G O 0.1831(2) 0.35617(8) 0.94152(11)
O78G O 0.1442(2) 0.34821(8) 0.88699(11)
O84G O -0.02347(19) 0.42558(9) 0.94408(13)
O85G O -0.0133(2) 0.44025(9) 1.01846(11)
O86G O 0.1029(2) 0.47384(9) 1.03646(10)
O87G O 0.10733(19) 0.41914(9) 1.04592(10)
O88G O 0.1658(3) 0.45884(9) 1.08929(12)
#END
