
#######################################################################
#
#                 Cambridge Crystallographic Data Centre
#                                CCDC
#
#######################################################################
#
# If this CIF has been generated from an entry in the Cambridge
# Structural Database, then it will include bibliographic, chemical,
# crystal, experimental, refinement or atomic coordinate data resulting
# from the CCDC's data processing and validation procedures.
#
#######################################################################

data_CSD_CIF_FENSOJ
_audit_creation_date 2017-11-10
_audit_creation_method CSD-ConQuest-V1
_database_code_CSD FENSOJ
_database_code_depnum_ccdc_archive 'CCDC 1568793'
_chemical_formula_sum 'C6 H12 Mo2 N2 O11 P2'
_chemical_formula_moiety
;
(C6 H4 Mo2 O11 P2 2-)n,2(H4 N1 1+)
;
_journal_coden_Cambridge 222
_journal_volume 46
_journal_year 2017
_journal_page_first 16102
_journal_name_full 'Dalton Trans. '
loop_
_publ_author_name
"D.Elias Jesu Packiam"
"K.Vidyasagar"
_chemical_name_systematic
;
catena-[bis(ammonium) 
(\m-oxo)-(\m-1,4-phenylenebis(phosphonato))-tetraoxo-di-molybdenum]
;
_cell_volume   1461.438
_exptl_crystal_colour 'colorless'
_exptl_crystal_density_diffrn 2.463
_exptl_crystal_description 'Cube'
_diffrn_ambient_temperature 296
_refine_special_details
;
C2A,C3A and C2B,C3B and C2C,C3C disordered over three sites with occupancies 
0.50:0.30:0.20.
;
#These two values have been output from a single CSD field.
_refine_ls_R_factor_gt 0.0265
_refine_ls_wR_factor_gt 0.0265
_symmetry_cell_setting orthorhombic
_symmetry_space_group_name_H-M 'P b a m'
_symmetry_Int_Tables_number 55
loop_
_symmetry_equiv_pos_site_id
_symmetry_equiv_pos_as_xyz
1 x,y,z
2 -x,-y,z
3 1/2-x,1/2+y,-z
4 1/2+x,1/2-y,-z
5 -x,-y,-z
6 x,y,-z
7 -1/2+x,-1/2-y,z
8 -1/2-x,-1/2+y,z
_cell_length_a 9.6156(3)
_cell_length_b 10.0058(4)
_cell_length_c 15.1898(5)
_cell_angle_alpha 90
_cell_angle_beta 90
_cell_angle_gamma 90
_cell_formula_units_Z 4
loop_
_atom_type_symbol
_atom_type_radius_bond
C 0.68
H 0.23
Mo 1.54
N 0.68
O 0.68
P 1.05
loop_
_atom_site_label
_atom_site_type_symbol
_atom_site_fract_x
_atom_site_fract_y
_atom_site_fract_z
N1 N 0.1622(6) 0.1778(6) 0.50000
H1 H 0.255(4) 0.17(2) 0.50000
H2 H 0.12(3) 0.260(15) 0.50000
H3 H 0.150(12) 0.14(1) 0.447(3)
N2 N 0.50000 0.00000 0.2805(4)
H4 H 0.578(4) 0.003(8) 0.247(3)
H5 H 0.493(15) 0.070(6) 0.318(4)
Mo1 Mo 0.35449(3) 0.37861(3) 0.330514(18)
P1 P 0.14528(8) 0.16647(9) 0.20856(6)
O1 O 0.4101(3) 0.2391(3) 0.38518(18)
O2 O 0.50000 0.50000 0.3648(2)
O3 O 0.2300(3) 0.4360(3) 0.40157(16)
O4 O 0.2144(3) 0.2872(2) 0.25250(16)
O5 O 0.2103(2) 0.0371(2) 0.23997(16)
O6 O -0.0108(3) 0.1726(3) 0.22336(15)
C1 C 0.1673(4) 0.1776(4) 0.0916(2)
C2 C 0.1830(14) 0.2908(9) 0.0458(5)
H6 H 0.19410 0.37110 0.07580
C3 C 0.1624(14) 0.0553(10) 0.0450(6)
H7 H 0.15930 -0.02510 0.07570
C4? C 0.2773(17) 0.142(2) 0.045(1)
H8? H 0.35770 0.11630 0.07450
C5? C 0.0652(18) 0.2552(18) 0.0449(9)
H9? H -0.00040 0.30500 0.07570
C6? C 0.271(2) 0.228(3) 0.0446(12)
H10? H 0.34710 0.26460 0.07400
C7? C 0.056(3) 0.119(3) 0.0455(13)
H11? H -0.01690 0.08030 0.07620
H3E H 0.150(12) 0.14(1) 0.553(3)
H4A H 0.422(4) -0.003(8) 0.247(3)
H5A H 0.507(15) -0.070(6) 0.318(4)
P1E P 0.14528(8) 0.16647(9) -0.20856(6)
O4E O 0.2144(3) 0.2872(2) -0.25250(16)
O5E O 0.2103(2) 0.0371(2) -0.23997(16)
C1E C 0.1673(4) 0.1776(4) -0.0916(2)
C2E C 0.1830(14) 0.2908(9) -0.0458(5)
H6E H 0.19410 0.37110 -0.07580
C3E C 0.1624(14) 0.0553(10) -0.0450(6)
H7E H 0.15930 -0.02510 -0.07570
O6E O -0.0108(3) 0.1726(3) -0.22336(15)
Mo1A Mo 0.64551(3) 0.62139(3) 0.330514(18)
O1A O 0.5899(3) 0.7609(3) 0.38518(18)
O3A O 0.7700(3) 0.5640(3) 0.40157(16)
Mo1B Mo 0.14551(3) -0.12139(3) -0.330514(18)
Mo1C Mo -0.14551(3) 0.12139(3) -0.330514(18)
Mo1E Mo 0.35449(3) 0.37861(3) -0.330514(18)
Mo1F Mo -0.14551(3) 0.12139(3) 0.330514(18)
Mo1G Mo 0.14551(3) -0.12139(3) 0.330514(18)
O4A O 0.7856(3) 0.7128(2) 0.25250(16)
O5F O 0.7103(2) 0.4629(2) 0.23997(16)
O5G O 0.2897(2) 0.5371(2) 0.23997(16)
O6F O 0.4892(3) 0.3274(3) 0.22336(15)
O6G O 0.5108(3) 0.6726(3) 0.22336(15)
#END
