
#######################################################################
#
#                 Cambridge Crystallographic Data Centre
#                                CCDC
#
#######################################################################
#
# If this CIF has been generated from an entry in the Cambridge
# Structural Database, then it will include bibliographic, chemical,
# crystal, experimental, refinement or atomic coordinate data resulting
# from the CCDC's data processing and validation procedures.
#
#######################################################################

data_CSD_CIF_FENVOL
_audit_creation_date 2013-02-22
_audit_creation_method CSD-ConQuest-V1
_database_code_CSD FENVOL
_database_code_depnum_ccdc_archive 'CCDC 894708'
_chemical_formula_sum 'C21 H31 N1 O20 P2 Zn3'
_chemical_formula_moiety
;
(C16 H6 O14 P2 Zn3 2-)n,n(H3 O1 1+),n(C5 H12 N1 1+),5n(H2 O1)
;
_journal_coden_Cambridge 182
_journal_volume 49
_journal_year 2013
_journal_page_first 78
_journal_name_full 'Chem.Commun. '
loop_
_publ_author_name
"Yun Ling"
"Mingli Deng"
"Zhenxia Chen"
"Bing Xia"
"Xiaofeng Liu"
"Yongtai Yang"
"Yaming Zhou"
"Linhong Weng"
_chemical_name_systematic
;
catena-(oxonium piperidinium bis(\m~6~-5-phosphonoisophthalato)-tri-zinc 
pentahydrate)
;
_cell_volume   7928.169
_exptl_crystal_colour 'light yellow'
_exptl_crystal_density_diffrn 1.467
_exptl_crystal_description 'rod'
_diffrn_ambient_temperature 293
#These two values have been output from a single CSD field.
_refine_ls_R_factor_gt 0.0534
_refine_ls_wR_factor_gt 0.0534
_symmetry_cell_setting tetragonal
_symmetry_space_group_name_H-M 'I -4 2 d'
_symmetry_Int_Tables_number 122
loop_
_symmetry_equiv_pos_site_id
_symmetry_equiv_pos_as_xyz
1 x,y,z
2 y,-x,-z
3 -x,-y,z
4 -y,x,-z
5 x,1/2-y,1/4-z
6 1/2-y,-x,3/4+z
7 -x,1/2+y,1/4-z
8 1/2+y,x,3/4+z
9 1/2+x,1/2+y,1/2+z
10 1/2+y,1/2-x,1/2-z
11 1/2-x,1/2-y,1/2+z
12 1/2-y,1/2+x,1/2-z
13 1/2+x,-y,3/4-z
14 -y,1/2-x,1/4+z
15 1/2-x,y,3/4-z
16 y,1/2+x,1/4+z
_cell_length_a 18.453(7)
_cell_length_b 18.453(7)
_cell_length_c 23.283(12)
_cell_angle_alpha 90
_cell_angle_beta 90
_cell_angle_gamma 90
_cell_formula_units_Z 8
loop_
_atom_type_symbol
_atom_type_radius_bond
C 0.68
H 0.23
N 0.68
O 0.68
P 1.05
Zn 1.22
loop_
_atom_site_label
_atom_site_type_symbol
_atom_site_fract_x
_atom_site_fract_y
_atom_site_fract_z
Zn1 Zn -0.75000(7) -0.12530 0.37500
Zn2 Zn -0.77442(5) 0.26644(5) 0.22373(4)
C1 C -0.7640(5) 0.0454(4) 0.1455(3)
C2 C -0.7642(5) 0.0103(4) 0.1986(3)
H1 H -0.76220 0.03770 0.23200
C3 C -0.7675(5) -0.0646(4) 0.2026(3)
C4 C -0.7704(5) -0.1064(4) 0.1527(3)
H2 H -0.77310 -0.15660 0.15540
C5 C -0.7691(5) -0.0738(4) 0.0995(3)
C6 C -0.7656(5) 0.0020(5) 0.0959(3)
H3 H -0.76440 0.02400 0.05990
C7 C -0.3967(5) -0.2666(4) 0.2399(3)
C8 C -0.7705(6) -0.1164(5) 0.0455(3)
O1 O -0.6584(3) -0.1756(3) 0.3628(2)
O2 O -0.7931(4) 0.1728(3) 0.1901(3)
O3 O -0.6618(4) -0.2933(3) 0.4170(3)
O4 O -0.3309(5) -0.2733(3) 0.2411(2)
O5 O -0.4349(4) -0.2601(3) 0.1954(2)
O6 O -0.7672(5) -0.1854(3) 0.0510(2)
O7 O -0.4127(5) -0.2743(4) 0.5007(2)
P1 P -0.75547(13) 0.14108(11) 0.13851(8)
C9 C 0.1829(10) 0.5296(8) 0.3827(9)
H4 H 0.15910 0.54860 0.41660
H5 H 0.15180 0.54080 0.35020
C10 C 0.1846(12) 0.4543(10) 0.3881(14)
H6 H 0.14640 0.43500 0.36390
H7 H 0.17150 0.44290 0.42740
C11 C 0.25000 0.4139(11) 0.37500
H8 H 0.26040 0.38270 0.40750
N1 N 0.25000 0.5707(7) 0.37500
H9 H 0.25300 0.58120 0.41360
O8 O 0.25000 0.1546(9) 0.37500
O9 O 0.1515(10) 0.0593(11) 0.4320(7)
O10 O 0.0818(7) 0.0810(8) 0.5335(7)
O11 O 0.00000 0.00000 0.629(2)
Zn1E Zn -0.37470(7) -0.25000 0.12500
Zn1G Zn -0.62530(7) 0.25000 0.12500
Zn2E Zn -0.76644(5) -0.22558(5) -0.02627(4)
Zn2K Zn -0.76644(5) -0.27442(5) 0.27627(4)
Zn2L Zn -0.27442(5) -0.26644(5) 0.52627(4)
Zn2B Zn -0.22558(5) -0.26644(5) 0.22373(4)
Zn2O Zn -0.73356(5) -0.27442(5) 0.47373(4)
Zn2D Zn -0.77442(5) 0.23356(5) 0.02627(4)
C1K C -0.5454(5) -0.2640(4) 0.3545(3)
C2K C -0.5103(5) -0.2642(4) 0.3014(3)
H1K H -0.53770 -0.26220 0.26800
C3K C -0.4354(5) -0.2675(4) 0.2974(3)
C4K C -0.3936(5) -0.2704(4) 0.3473(3)
H2K H -0.34340 -0.27310 0.34460
C5K C -0.4262(5) -0.2691(4) 0.4005(3)
C6K C -0.5020(5) -0.2656(5) 0.4041(3)
H3K H -0.52400 -0.26440 0.44010
C7I C -0.7666(5) -0.1033(4) 0.2601(3)
C8K C -0.3836(6) -0.2705(5) 0.4545(3)
O1N O -0.8416(3) -0.1756(3) 0.3872(2)
O1I O -0.6756(3) 0.1584(3) 0.1372(2)
O2K O -0.6728(4) -0.2931(3) 0.3099(3)
O3N O -0.8382(4) -0.2933(3) 0.3330(3)
O3I O -0.7933(4) 0.1618(3) 0.0830(3)
O3G O -0.7933(4) 0.3382(3) 0.1670(3)
O4I O -0.7733(5) -0.1691(3) 0.2589(2)
O4B O -0.6691(5) 0.2733(3) 0.2411(2)
O5I O -0.7601(4) -0.0651(3) 0.3046(2)
O5M O -0.7399(4) -0.0651(3) 0.4454(2)
O6M O -0.8146(5) 0.2672(3) 0.3010(2)
O6D O -0.7672(5) -0.3146(3) 0.1990(2)
O6K O -0.3146(5) -0.2672(3) 0.4490(2)
O7I O -0.7743(5) -0.0873(4) -0.0007(2)
P1K P -0.64108(13) -0.25547(11) 0.36149(8)
C9N C 0.3171(10) 0.5296(8) 0.3673(9)
H4N H 0.34090 0.54860 0.33340
H5N H 0.34820 0.54080 0.39980
C10N C 0.3154(12) 0.4543(10) 0.3619(14)
H6N H 0.35360 0.43500 0.38610
H7N H 0.32850 0.44290 0.32260
H8N H 0.23960 0.38270 0.34250
H9N H 0.24700 0.58120 0.33640
#END
