
#######################################################################
#
#                 Cambridge Crystallographic Data Centre
#                                CCDC
#
#######################################################################
#
# If this CIF has been generated from an entry in the Cambridge
# Structural Database, then it will include bibliographic, chemical,
# crystal, experimental, refinement or atomic coordinate data resulting
# from the CCDC's data processing and validation procedures.
#
#######################################################################

data_CSD_CIF_FEPKUI
_audit_creation_date 2013-02-22
_audit_creation_method CSD-ConQuest-V1
_database_code_CSD FEPKUI
_database_code_depnum_ccdc_archive 'CCDC 889537'
_chemical_formula_sum 'C82 H130 Co2 N22 Ni4 O32'
_chemical_formula_moiety
;
(C72 H90 Co2 N18 Ni3 O24 2-)n,n(C10 H28 N4 Ni1 O2 2+),6n(H2 O1)
;
_journal_coden_Cambridge 1350
_journal_volume 15
_journal_year 2013
_journal_page_first 78
_journal_name_full 'CrystEngComm '
loop_
_publ_author_name
"Sheng-Li Huang"
"Long Zhang"
"Yue-Jian Lin"
"Guo-Xin Jin"
_chemical_name_systematic
;
catena-(diaqua-(1,4,8,11-tetraazacyclotetradecane)-nickel(ii) 
bis(\m~3~-pyridine-2,5-dicarboxylato)-bis(\m~2~-pyridine-2,5-dicarboxylato)-bi
s(pyridine-2,5-dicarboxylato)-tris(1,4,8,11-tetraazacyclotetradecane)-di-cobal
t(ii)-tri-nickel(ii) hexahydrate)
;
_cell_volume   2620.909
_exptl_crystal_colour 'yellow'
_exptl_crystal_density_diffrn 1.45
_exptl_crystal_description 'prism'
_diffrn_ambient_temperature 173
#These two values have been output from a single CSD field.
_refine_ls_R_factor_gt 0.0519
_refine_ls_wR_factor_gt 0.0519
_symmetry_cell_setting triclinic
_symmetry_space_group_name_H-M 'P -1'
_symmetry_Int_Tables_number 2
loop_
_symmetry_equiv_pos_site_id
_symmetry_equiv_pos_as_xyz
1 x,y,z
2 -x,-y,-z
_cell_length_a 11.4952(9)
_cell_length_b 11.5504(8)
_cell_length_c 21.6426(16)
_cell_angle_alpha 94.351(1)
_cell_angle_beta 91.218(1)
_cell_angle_gamma 113.627(1)
_cell_formula_units_Z 1
loop_
_atom_type_symbol
_atom_type_radius_bond
C 0.68
H 0.23
Co 1.26
N 0.68
Ni 1.34
O 0.68
loop_
_atom_site_label
_atom_site_type_symbol
_atom_site_fract_x
_atom_site_fract_y
_atom_site_fract_z
Ni1 Ni 0.18614(4) 0.25702(4) 0.75661(2)
Ni2 Ni 0.50000 1.00000 0.50000
Ni3 Ni 0.50000 1.00000 0.00000
Co1 Co -0.08381(4) 0.54514(5) 0.73211(2)
N1 N 0.1716(3) 0.2210(3) 0.84909(17)
H1 H 0.236(4) 0.205(5) 0.861(2)
N2 N 0.2569(3) 0.4466(3) 0.79051(19)
H2 H 0.206(5) 0.485(5) 0.789(2)
N3 N 0.1946(3) 0.2909(3) 0.66428(18)
H3 H 0.114(4) 0.308(4) 0.654(2)
N4 N 0.1157(3) 0.0660(3) 0.72367(17)
H4 H 0.178(5) 0.039(5) 0.721(2)
N5 N 0.3993(3) 0.8209(3) 0.45548(15)
H5 H 0.332(3) 0.776(4) 0.4801(19)
N6 N 0.3665(3) 1.0698(3) 0.47620(15)
H6 H 0.300(5) 1.040(5) 0.502(2)
N7 N 0.3344(4) 1.0262(4) 0.00935(18)
H7 H 0.345(5) 1.067(5) 0.045(2)
N8 N 0.4486(4) 0.8547(4) 0.05621(18)
H8 H 0.446(5) 0.894(3) 0.0955(9)
N9 N -0.2037(3) 0.6420(3) 0.73407(15)
N10 N -0.2323(3) 0.3732(3) 0.75299(15)
N11 N 0.0899(3) 0.6949(3) 0.71427(15)
O1 O -0.1435(3) 0.5234(3) 0.63932(13)
O2 O -0.2460(3) 0.5902(3) 0.57068(14)
O3 O -0.3198(5) 0.7939(5) 0.88820(17)
O4 O -0.4208(3) 0.8758(3) 0.82969(14)
O5 O 0.0109(3) 0.4256(3) 0.73264(14)
O6 O -0.0077(2) 0.2350(3) 0.75538(14)
O7 O -0.6231(3) 0.2728(3) 0.75599(15)
O8 O -0.6421(3) 0.1097(3) 0.81127(16)
O9 O -0.0053(3) 0.6171(3) 0.82122(13)
O10 O 0.1838(3) 0.7090(3) 0.87242(13)
O11 O 0.4098(2) 0.9365(3) 0.58463(12)
O12 O 0.2054(3) 0.8830(3) 0.55623(14)
O13 O 0.5775(3) 1.1313(3) 0.08008(14)
H9 H 0.663(3) 1.169(4) 0.101(2)
H10 H 0.527(3) 1.130(4) 0.1070(12)
C1 C 0.1860(5) 0.3403(5) 0.8844(2)
H11 H 0.20990 0.33900 0.92850
H12 H 0.10460 0.35050 0.88240
C2 C 0.2879(4) 0.4490(4) 0.8569(2)
H13 H 0.29500 0.53040 0.87870
H14 H 0.37080 0.44270 0.86250
C3 C 0.3588(4) 0.5345(4) 0.7556(3)
H15 H 0.43510 0.51520 0.75930
H16 H 0.38200 0.62250 0.77400
C4 C 0.3179(4) 0.5244(4) 0.6866(3)
H17 H 0.23420 0.52990 0.68360
H18 H 0.37980 0.59810 0.66760
C5 C 0.3077(4) 0.4029(5) 0.6488(3)
H19 H 0.30180 0.41320 0.60400
H20 H 0.38550 0.38840 0.65740
C6 C 0.1829(5) 0.1721(5) 0.6289(2)
H21 H 0.26510 0.16340 0.63130
H22 H 0.15910 0.17280 0.58480
C7 C 0.0824(4) 0.0637(4) 0.6565(2)
H23 H -0.00060 0.07010 0.65160
H24 H 0.07480 -0.01750 0.63440
C8 C 0.0111(4) -0.0215(4) 0.7573(2)
H25 H -0.01110 -0.10960 0.73930
H26 H -0.06480 -0.00220 0.75160
C9 C 0.0456(4) -0.0116(4) 0.8264(2)
H27 H -0.02020 -0.08380 0.84460
H28 H 0.12710 -0.02120 0.83130
C10 C 0.0587(4) 0.1100(4) 0.8636(2)
H29 H -0.01830 0.12580 0.85510
H30 H 0.06400 0.09920 0.90840
C11 C 0.4899(4) 0.7624(4) 0.4495(2)
H31 H 0.54470 0.79550 0.41470
H32 H 0.44400 0.66930 0.44050
C12 C 0.3320(4) 0.8183(4) 0.39506(19)
H33 H 0.28280 0.72890 0.37860
H34 H 0.39590 0.85920 0.36480
C13 C 0.2427(4) 0.8854(4) 0.4012(2)
H35 H 0.18780 0.86400 0.36250
H36 H 0.18680 0.85190 0.43550
C14 C 0.3067(4) 1.0287(4) 0.4132(2)
H37 H 0.37230 1.06230 0.38270
H38 H 0.24280 1.06470 0.40710
C15 C 0.5713(4) 0.7925(4) 0.5099(2)
H39 H 0.63610 0.75660 0.50580
H40 H 0.51720 0.75400 0.54410
C16 C 0.2149(4) 0.9075(5) 0.0102(2)
H41 H 0.19920 0.85670 -0.03040
H42 H 0.14170 0.93060 0.01700
C17 C 0.2260(5) 0.8290(6) 0.0611(3)
H43 H 0.25420 0.88490 0.10030
H44 H 0.14040 0.76320 0.06660
C18 C 0.3143(5) 0.7653(5) 0.0507(3)
H45 H 0.30010 0.70220 0.08140
H46 H 0.29490 0.71900 0.00880
C19 C 0.5372(6) 0.7924(5) 0.0434(3)
H47 H 0.51060 0.73830 0.00360
H48 H 0.53610 0.73810 0.07680
C20 C 0.3312(6) 1.1067(6) -0.0400(3)
H49 H 0.30310 1.05460 -0.08040
H50 H 0.27080 1.14620 -0.03050
C21 C -0.2516(4) 0.6484(3) 0.67780(18)
C22 C -0.3311(4) 0.7093(4) 0.66920(19)
H51 H -0.36410 0.71210 0.62900
C23 C -0.3613(4) 0.7668(4) 0.72153(19)
H52 H -0.41320 0.81250 0.71680
C24 C -0.3181(4) 0.7589(4) 0.77935(18)
C25 C -0.2370(4) 0.6959(4) 0.78345(18)
H53 H -0.20400 0.69120 0.82330
C26 C -0.2116(4) 0.5813(4) 0.62398(18)
C27 C -0.3545(4) 0.8140(4) 0.83717(19)
C28 C -0.1907(3) 0.2804(3) 0.75906(16)
C29 C -0.2696(3) 0.1597(4) 0.77312(18)
H54 H -0.23780 0.09610 0.77690
C30 C -0.3969(3) 0.1346(3) 0.78146(17)
H55 H -0.45310 0.05350 0.79220
C31 C -0.4417(3) 0.2280(4) 0.77405(18)
C32 C -0.3553(3) 0.3462(4) 0.75978(18)
H56 H -0.38520 0.41070 0.75460
C33 C -0.0514(3) 0.3177(3) 0.74799(18)
C34 C -0.5814(4) 0.2010(4) 0.78114(19)
C35 C 0.1689(4) 0.7383(3) 0.76509(17)
C36 C 0.2937(4) 0.8263(4) 0.76263(18)
H57 H 0.34900 0.85500 0.79890
C37 C 0.3353(4) 0.8710(4) 0.70630(19)
H58 H 0.42080 0.92930 0.70350
C38 C 0.2538(3) 0.8317(3) 0.65404(17)
C39 C 0.1298(4) 0.7422(3) 0.66041(17)
H59 H 0.07190 0.71420 0.62500
C40 C 0.1121(4) 0.6847(4) 0.82453(18)
C41 C 0.2918(4) 0.8875(4) 0.59260(18)
O14 O 0.0381(4) 0.2421(4) 0.49826(18)
O15 O 0.2426(5) 0.5985(4) 0.5232(2)
O16 O -0.0383(4) 0.5731(4) 0.41206(19)
Ni1A Ni 0.81386(4) 1.74298(4) 0.24339(2)
Ni1* Ni -0.81386(4) 0.25702(4) 0.75661(2)
Ni1A* Ni 1.81386(4) 1.74298(4) 0.24339(2)
Co1A Co 1.08381(4) 1.45486(5) 0.26789(2)
N1A N 0.8284(3) 1.7790(3) 0.15091(17)
H1A H 0.764(4) 1.795(5) 0.139(2)
N2A N 0.7431(3) 1.5534(3) 0.20949(19)
H2A H 0.794(5) 1.515(5) 0.211(2)
N3A N 0.8054(3) 1.7091(3) 0.33572(18)
H3A H 0.886(4) 1.692(4) 0.346(2)
N4A N 0.8843(3) 1.9340(3) 0.27633(17)
H4A H 0.822(5) 1.961(5) 0.279(2)
N5A N 0.6007(3) 1.1791(3) 0.54452(15)
H5A H 0.668(3) 1.224(4) 0.5199(19)
N6A N 0.6335(3) 0.9302(3) 0.52380(15)
H6A H 0.700(5) 0.960(5) 0.498(2)
N7A N 0.6656(4) 0.9738(4) -0.00935(18)
H7A H 0.655(5) 0.933(5) -0.045(2)
N8A N 0.5514(4) 1.1453(4) -0.05621(18)
H8A H 0.554(5) 1.106(3) -0.0955(9)
N9A N 1.2037(3) 1.3580(3) 0.26593(15)
N10A N 1.2323(3) 1.6268(3) 0.24701(15)
N11A N 0.9101(3) 1.3051(3) 0.28573(15)
O1A O 1.1435(3) 1.4766(3) 0.36068(13)
O2A O 1.2460(3) 1.4098(3) 0.42932(14)
O3A O 1.3198(5) 1.2061(5) 0.11180(17)
O4A O 1.4208(3) 1.1242(3) 0.17031(14)
O5A O 0.9891(3) 1.5744(3) 0.26736(14)
O6A O 1.0077(2) 1.7650(3) 0.24462(14)
O7A O 1.6231(3) 1.7272(3) 0.24401(15)
O7* O 0.3769(3) 0.2728(3) 0.75599(15)
O7A* O 0.6231(3) 1.7272(3) 0.24401(15)
O8A O 1.6421(3) 1.8903(3) 0.18873(16)
O9A O 1.0053(3) 1.3829(3) 0.17878(13)
O10A O 0.8162(3) 1.2910(3) 0.12758(13)
O11A O 0.5902(2) 1.0635(3) 0.41537(12)
O12A O 0.7946(3) 1.1170(3) 0.44377(14)
O13A O 0.4225(3) 0.8687(3) -0.08008(14)
H9A H 0.337(3) 0.831(4) -0.101(2)
H10A H 0.473(3) 0.870(4) -0.1070(12)
C1A C 0.8140(5) 1.6597(5) 0.1156(2)
H11A H 0.79010 1.66100 0.07150
H12A H 0.89540 1.64950 0.11760
C2A C 0.7121(4) 1.5510(4) 0.1431(2)
H13A H 0.70500 1.46960 0.12130
H14A H 0.62920 1.55730 0.13750
C3A C 0.6412(4) 1.4655(4) 0.2444(3)
H15A H 0.56490 1.48480 0.24070
H16A H 0.61800 1.37750 0.22600
C4A C 0.6821(4) 1.4756(4) 0.3134(3)
H17A H 0.76580 1.47010 0.31640
H18A H 0.62020 1.40190 0.33240
C5A C 0.6923(4) 1.5971(5) 0.3512(3)
H19A H 0.69820 1.58680 0.39600
H20A H 0.61450 1.61160 0.34260
C6A C 0.8171(5) 1.8279(5) 0.3711(2)
H21A H 0.73490 1.83660 0.36870
H22A H 0.84090 1.82720 0.41520
C7A C 0.9176(4) 1.9363(4) 0.3435(2)
H23A H 1.00060 1.92990 0.34840
H24A H 0.92520 2.01750 0.36560
C8A C 0.9889(4) 2.0215(4) 0.2427(2)
H25A H 1.01110 2.10960 0.26070
H26A H 1.06480 2.00220 0.24840
C9A C 0.9544(4) 2.0116(4) 0.1736(2)
H27A H 1.02020 2.08380 0.15540
H28A H 0.87290 2.02120 0.16870
C10A C 0.9413(4) 1.8900(4) 0.1364(2)
H29A H 1.01830 1.87420 0.14490
H30A H 0.93600 1.90080 0.09160
C11A C 0.5101(4) 1.2376(4) 0.5505(2)
H31A H 0.45530 1.20450 0.58530
H32A H 0.55600 1.33070 0.55950
C12A C 0.6680(4) 1.1817(4) 0.60494(19)
H33A H 0.71720 1.27110 0.62140
H34A H 0.60410 1.14080 0.63520
C13A C 0.7573(4) 1.1146(4) 0.5988(2)
H35A H 0.81220 1.13600 0.63750
H36A H 0.81320 1.14810 0.56450
C14A C 0.6933(4) 0.9713(4) 0.5868(2)
H37A H 0.62770 0.93770 0.61730
H38A H 0.75720 0.93530 0.59290
C15A C 0.4287(4) 1.2075(4) 0.4901(2)
H39A H 0.36390 1.24340 0.49420
H40A H 0.48280 1.24600 0.45590
C16A C 0.7851(4) 1.0925(5) -0.0102(2)
H41A H 0.80080 1.14330 0.03040
H42A H 0.85830 1.06940 -0.01700
C17A C 0.7740(5) 1.1710(6) -0.0611(3)
H43A H 0.74580 1.11510 -0.10030
H44A H 0.85960 1.23680 -0.06660
C18A C 0.6857(5) 1.2347(5) -0.0507(3)
H45A H 0.69990 1.29780 -0.08140
H46A H 0.70510 1.28100 -0.00880
C19A C 0.4628(6) 1.2076(5) -0.0434(3)
H47A H 0.48940 1.26170 -0.00360
H48A H 0.46390 1.26190 -0.07680
C20A C 0.6688(6) 0.8933(6) 0.0400(3)
H49A H 0.69690 0.94540 0.08040
H50A H 0.72920 0.85380 0.03050
C21A C 1.2516(4) 1.3516(3) 0.32220(18)
C22A C 1.3311(4) 1.2907(4) 0.33080(19)
H51A H 1.36410 1.28790 0.37100
C23A C 1.3613(4) 1.2332(4) 0.27847(19)
H52A H 1.41320 1.18750 0.28320
C24A C 1.3181(4) 1.2411(4) 0.22065(18)
C25A C 1.2370(4) 1.3041(4) 0.21655(18)
H53A H 1.20400 1.30880 0.17670
C26A C 1.2116(4) 1.4187(4) 0.37602(18)
C27A C 1.3545(4) 1.1860(4) 0.16283(19)
C28A C 1.1907(3) 1.7196(3) 0.24094(16)
C29A C 1.2696(3) 1.8403(4) 0.22688(18)
H54A H 1.23780 1.90390 0.22310
C30A C 1.3969(3) 1.8654(3) 0.21854(17)
H55A H 1.45310 1.94650 0.20780
C31A C 1.4417(3) 1.7720(4) 0.22595(18)
C32A C 1.3553(3) 1.6538(4) 0.24022(18)
H56A H 1.38520 1.58930 0.24540
C33A C 1.0514(3) 1.6823(3) 0.25201(18)
C34A C 1.5814(4) 1.7990(4) 0.21886(19)
C35A C 0.8311(4) 1.2617(3) 0.23491(17)
C36A C 0.7063(4) 1.1737(4) 0.23737(18)
H57A H 0.65100 1.14500 0.20110
C37A C 0.6647(4) 1.1290(4) 0.29370(19)
H58A H 0.57920 1.07070 0.29650
C38A C 0.7462(3) 1.1683(3) 0.34596(17)
C39A C 0.8702(4) 1.2578(3) 0.33959(17)
H59A H 0.92810 1.28580 0.37500
C40A C 0.8879(4) 1.3153(4) 0.17547(18)
C41A C 0.7082(4) 1.1125(4) 0.40740(18)
#END
