
#######################################################################
#
#                 Cambridge Crystallographic Data Centre
#                                CCDC
#
#######################################################################
#
# If this CIF has been generated from an entry in the Cambridge
# Structural Database, then it will include bibliographic, chemical,
# crystal, experimental, refinement or atomic coordinate data resulting
# from the CCDC's data processing and validation procedures.
#
#######################################################################

data_CSD_CIF_FEPLOD
_audit_creation_date 2013-02-22
_audit_creation_method CSD-ConQuest-V1
_database_code_CSD FEPLOD
_database_code_depnum_ccdc_archive 'CCDC 889541'
_chemical_formula_sum 'C82 H134 N22 O34 Zn6'
_chemical_formula_moiety
;
(C72 H90 N18 O24 Zn5 2-)n,n(C10 H28 N4 O2 Zn1 2+),8n(H2 O1)
;
_journal_coden_Cambridge 1350
_journal_volume 15
_journal_year 2013
_journal_page_first 78
_journal_name_full 'CrystEngComm '
loop_
_publ_author_name
"Sheng-Li Huang"
"Long Zhang"
"Yue-Jian Lin"
"Guo-Xin Jin"
_chemical_name_systematic
;
catena-(diaqua-(1,4,8,11-tetraazacyclotetradecane)-zinc(ii) 
bis(\m~3~-pyridine-2,5-dicarboxylato)-bis(\m~2~-pyridine-2,5-dicarboxylato)-bi
s(pyridine-2,5-dicarboxylato)-bis(1,4,8,11-tetraazacyclotetradecane)-penta-zin
;
_cell_volume   2668.916
_exptl_crystal_colour 'colorless'
_exptl_crystal_density_diffrn 1.471
_exptl_crystal_description 'prism'
_diffrn_ambient_temperature 173
#These two values have been output from a single CSD field.
_refine_ls_R_factor_gt 0.0528
_refine_ls_wR_factor_gt 0.0528
_symmetry_cell_setting triclinic
_symmetry_space_group_name_H-M 'P -1'
_symmetry_Int_Tables_number 2
loop_
_symmetry_equiv_pos_site_id
_symmetry_equiv_pos_as_xyz
1 x,y,z
2 -x,-y,-z
_cell_length_a 11.5056(8)
_cell_length_b 11.6391(8)
_cell_length_c 21.8286(15)
_cell_angle_alpha 91.695(1)
_cell_angle_beta 94.300(1)
_cell_angle_gamma 113.432(1)
_cell_formula_units_Z 1
loop_
_atom_type_symbol
_atom_type_radius_bond
C 0.68
H 0.23
N 0.68
O 0.68
Zn 1.22
loop_
_atom_site_label
_atom_site_type_symbol
_atom_site_fract_x
_atom_site_fract_y
_atom_site_fract_z
Zn1 Zn -0.24319(4) 0.19325(4) 0.25587(2)
Zn2 Zn 0.50000 0.50000 0.00000
Zn3 Zn 0.50000 0.50000 0.50000
Zn4 Zn 0.04458(4) -0.08445(3) 0.230150(18)
N1 N 0.1439(3) -0.2042(3) 0.23305(13)
N2 N 0.1940(3) 0.0902(3) 0.21455(13)
N3 N -0.1295(3) -0.2313(3) 0.25186(13)
N4 N -0.4379(3) 0.1207(3) 0.22262(18)
H1 H -0.458(4) 0.185(3) 0.2275(18)
N5 N -0.2092(3) 0.1972(4) 0.16261(18)
H2 H -0.213(9) 0.119(4) 0.1528(16)
N6 N -0.0510(3) 0.2547(3) 0.28864(18)
H3 H -0.033(5) 0.192(5) 0.275(2)
N7 N -0.2769(3) 0.1752(3) 0.34831(18)
H4 H -0.280(4) 0.244(3) 0.3668(19)
N8 N 0.6829(3) 0.6021(3) 0.04436(14)
H5 H 0.728(5) 0.652(5) 0.017(2)
N9 N 0.4293(3) 0.6340(3) 0.02329(14)
H6 H 0.445(6) 0.684(4) -0.0090(19)
N10 N 0.6489(4) 0.5440(4) 0.44212(16)
H7 H 0.594(4) 0.515(4) 0.4063(14)
N11 N 0.4762(4) 0.6676(3) 0.48892(16)
H8 H 0.443(4) 0.667(4) 0.4506(11)
O1 O 0.0267(2) -0.1443(2) 0.13655(12)
O2 O 0.0943(4) -0.2466(4) 0.07099(14)
O3 O 0.3708(3) -0.4242(3) 0.32842(13)
O4 O 0.3093(4) -0.3023(4) 0.38636(15)
O5 O 0.1134(3) -0.0048(2) 0.32057(12)
O6 O 0.2071(3) 0.1807(3) 0.37153(12)
O7 O 0.4360(3) 0.4081(2) 0.08920(12)
O8 O 0.3829(3) 0.2083(3) 0.05848(13)
O9 O -0.0799(2) 0.0060(2) 0.22745(14)
O10 O -0.2705(2) -0.0122(2) 0.25193(14)
O11 O -0.3858(3) -0.6324(2) 0.31375(14)
O12 O -0.2255(3) -0.6139(2) 0.25680(16)
O13 O 0.3592(3) 0.4192(3) 0.41832(13)
H9 H 0.361(5) 0.479(5) 0.397(2)
H10 H 0.306(3) 0.348(2) 0.4064(19)
C1 C 0.1491(3) -0.2532(3) 0.17679(16)
C2 C 0.2096(4) -0.3325(4) 0.16900(18)
H11 H 0.21200 -0.36600 0.12910
C3 C 0.2676(4) -0.3628(4) 0.22082(18)
H12 H 0.31120 -0.41640 0.21630
C4 C 0.2617(3) -0.3154(3) 0.27840(16)
C5 C 0.1977(3) -0.2350(3) 0.28233(16)
H13 H 0.19270 -0.20140 0.32180
C6 C 0.0845(4) -0.2117(4) 0.12328(18)
C7 C 0.3185(4) -0.3489(4) 0.33624(17)
C8 C 0.2363(3) 0.1682(3) 0.26569(15)
C9 C 0.3238(3) 0.2901(3) 0.26432(16)
H14 H 0.35180 0.34410 0.30080
C10 C 0.3702(3) 0.3326(3) 0.20874(17)
H15 H 0.42950 0.41680 0.20690
C11 C 0.3306(3) 0.2530(3) 0.15601(15)
C12 C 0.2416(3) 0.1315(3) 0.16116(16)
H16 H 0.21320 0.07530 0.12550
C13 C 0.1813(3) 0.1107(3) 0.32476(16)
C14 C 0.3870(4) 0.2937(3) 0.09556(17)
C15 C -0.1539(3) -0.3514(3) 0.25980(17)
H17 H -0.08830 -0.38030 0.25540
C16 C -0.2731(3) -0.4367(3) 0.27442(16)
C17 C -0.3666(3) -0.3922(3) 0.28143(16)
H18 H -0.44710 -0.44650 0.29310
C18 C -0.3426(3) -0.2686(3) 0.27137(16)
H19 H -0.40710 -0.23770 0.27430
C19 C -0.2223(3) -0.1903(3) 0.25696(15)
C20 C -0.1893(3) -0.0541(3) 0.24460(16)
C21 C -0.2967(3) -0.5722(3) 0.28294(18)
C22 C -0.4412(4) 0.0851(5) 0.1571(3)
H20 H -0.52300 0.07680 0.13530
H21 H -0.43500 0.00280 0.15300
C23 C -0.3308(5) 0.1843(5) 0.1282(3)
H22 H -0.33190 0.15870 0.08440
H23 H -0.33920 0.26570 0.13010
C24 C -0.0974(5) 0.3093(4) 0.1479(3)
H24 H -0.11250 0.38590 0.15680
H25 H -0.08640 0.30380 0.10350
C25 C 0.0228(4) 0.3183(4) 0.1856(3)
H26 H 0.09690 0.37850 0.16680
H27 H 0.02750 0.23530 0.18210
C26 C 0.0359(4) 0.3586(4) 0.2538(2)
H28 H 0.12500 0.38250 0.27110
H29 H 0.01510 0.43290 0.25860
C27 C -0.0467(4) 0.2888(5) 0.3557(2)
H30 H -0.05390 0.37040 0.36100
H31 H 0.03520 0.29660 0.37720
C28 C -0.1559(5) 0.1874(5) 0.3823(2)
H32 H -0.14630 0.10670 0.37870
H33 H -0.15600 0.20930 0.42640
C29 C -0.3897(4) 0.0610(4) 0.3624(2)
H34 H -0.39970 0.06420 0.40700
H35 H -0.37480 -0.01520 0.35220
C30 C -0.5108(4) 0.0530(4) 0.3262(2)
H36 H -0.51600 0.13560 0.33100
H37 H -0.58420 -0.00880 0.34470
C31 C -0.5245(4) 0.0158(4) 0.2565(2)
H38 H -0.50420 -0.05860 0.25050
H39 H -0.61360 -0.00710 0.23960
C32 C 0.7093(4) 0.4286(4) -0.00944(19)
H40 H 0.74710 0.48170 -0.04330
H41 H 0.74590 0.36490 -0.00580
C33 C 0.7407(4) 0.5091(4) 0.05039(19)
H42 H 0.70670 0.45570 0.08470
H43 H 0.83410 0.55290 0.05930
C34 C 0.6849(4) 0.6695(4) 0.10355(18)
H44 H 0.77440 0.71820 0.12010
H45 H 0.64370 0.60720 0.13350
C35 C 0.6177(4) 0.7576(4) 0.09708(18)
H46 H 0.65090 0.81100 0.06260
H47 H 0.64050 0.81360 0.13510
C36 C 0.4731(4) 0.6963(4) 0.08571(17)
H48 H 0.43920 0.63350 0.11650
H49 H 0.43860 0.76100 0.09130
C37 C 0.7381(5) 0.6781(5) 0.4471(2)
H50 H 0.80010 0.69180 0.41610
H51 H 0.78610 0.69830 0.48840
C38 C 0.6724(6) 0.7662(5) 0.4376(2)
H52 H 0.61550 0.73760 0.39890
H53 H 0.73810 0.85030 0.43160
C39 C 0.5938(5) 0.7807(4) 0.4886(2)
H54 H 0.64440 0.79550 0.52900
H55 H 0.57270 0.85420 0.48180
C40 C 0.3979(6) 0.6741(5) 0.5381(2)
H56 H 0.36050 0.73560 0.52880
H57 H 0.45150 0.70200 0.57780
C41 C 0.2934(5) 0.5461(5) 0.5427(3)
H58 H 0.23900 0.54990 0.57510
H59 H 0.23940 0.51840 0.50310
O14 O 0.2574(5) 0.9705(4) 0.0035(2)
H60 H 0.334(2) 0.964(4) 0.021(2)
H61 H 0.207(3) 0.908(4) 0.024(2)
O15 O 0.9316(5) 0.0412(5) 0.0866(2)
H62 H 0.870(5) 0.057(6) 0.065(3)
H63 H 0.943(7) -0.010(6) 0.059(2)
O16 O 0.3459(10) 0.9117(7) 0.4604(4)
O17 O 0.0928(4) 0.2525(5) 0.0245(2)
H64 H 0.104(9) 0.200(6) -0.002(3)
H65 H 0.046(7) 0.200(6) 0.049(3)
Zn1A Zn 1.24319(4) 0.80675(4) -0.25587(2)
Zn1* Zn -0.24319(4) -0.80675(4) 0.25587(2)
Zn1A* Zn 1.24319(4) 1.80675(4) -0.25587(2)
Zn4A Zn 0.95542(4) 1.08445(3) -0.230150(18)
N1A N 0.8561(3) 1.2042(3) -0.23305(13)
N2A N 0.8060(3) 0.9098(3) -0.21455(13)
N3A N 1.1295(3) 1.2313(3) -0.25186(13)
N4A N 1.4379(3) 0.8793(3) -0.22262(18)
H1A H 1.458(4) 0.815(3) -0.2275(18)
N5A N 1.2092(3) 0.8028(4) -0.16261(18)
H2A H 1.213(9) 0.881(4) -0.1528(16)
N6A N 1.0510(3) 0.7453(3) -0.28864(18)
H3A H 1.033(5) 0.808(5) -0.275(2)
N7A N 1.2769(3) 0.8248(3) -0.34831(18)
H4A H 1.280(4) 0.756(3) -0.3668(19)
N8A N 0.3171(3) 0.3979(3) -0.04436(14)
H5A H 0.272(5) 0.348(5) -0.017(2)
N9A N 0.5707(3) 0.3660(3) -0.02329(14)
H6A H 0.555(6) 0.316(4) 0.0090(19)
N10A N 0.3511(4) 0.4560(4) 0.55788(16)
H7A H 0.406(4) 0.485(4) 0.5937(14)
N11A N 0.5238(4) 0.3324(3) 0.51108(16)
H8A H 0.557(4) 0.333(4) 0.5494(11)
O1A O 0.9733(2) 1.1443(2) -0.13655(12)
O2A O 0.9057(4) 1.2466(4) -0.07099(14)
O3A O 0.6292(3) 1.4242(3) -0.32842(13)
O4A O 0.6907(4) 1.3023(4) -0.38636(15)
O5A O 0.8866(3) 1.0048(2) -0.32057(12)
O6A O 0.7929(3) 0.8193(3) -0.37153(12)
O7A O 0.5640(3) 0.5919(2) -0.08920(12)
O8A O 0.6171(3) 0.7917(3) -0.05848(13)
O9A O 1.0799(2) 0.9940(2) -0.22745(14)
O10A O 1.2705(2) 1.0122(2) -0.25193(14)
O11A O 1.3858(3) 1.6324(2) -0.31375(14)
O12A O 1.2255(3) 1.6139(2) -0.25680(16)
O12* O -0.2255(3) 0.3861(2) 0.25680(16)
O12A* O 1.2255(3) 0.6139(2) -0.25680(16)
O13A O 0.6408(3) 0.5808(3) 0.58168(13)
H9A H 0.639(5) 0.521(5) 0.603(2)
H10A H 0.694(3) 0.652(2) 0.5936(19)
C1A C 0.8509(3) 1.2532(3) -0.17679(16)
C2A C 0.7904(4) 1.3325(4) -0.16900(18)
H11A H 0.78800 1.36600 -0.12910
C3A C 0.7324(4) 1.3628(4) -0.22082(18)
H12A H 0.68880 1.41640 -0.21630
C4A C 0.7383(3) 1.3154(3) -0.27840(16)
C5A C 0.8023(3) 1.2350(3) -0.28233(16)
H13A H 0.80730 1.20140 -0.32180
C6A C 0.9155(4) 1.2117(4) -0.12328(18)
C7A C 0.6815(4) 1.3489(4) -0.33624(17)
C8A C 0.7637(3) 0.8318(3) -0.26569(15)
C9A C 0.6762(3) 0.7099(3) -0.26432(16)
H14A H 0.64820 0.65590 -0.30080
C10A C 0.6298(3) 0.6674(3) -0.20874(17)
H15A H 0.57050 0.58320 -0.20690
C11A C 0.6694(3) 0.7470(3) -0.15601(15)
C12A C 0.7584(3) 0.8685(3) -0.16116(16)
H16A H 0.78680 0.92470 -0.12550
C13A C 0.8187(3) 0.8893(3) -0.32476(16)
C14A C 0.6130(4) 0.7063(3) -0.09556(17)
C15A C 1.1539(3) 1.3514(3) -0.25980(17)
H17A H 1.08830 1.38030 -0.25540
C16A C 1.2731(3) 1.4367(3) -0.27442(16)
C17A C 1.3666(3) 1.3922(3) -0.28143(16)
H18A H 1.44710 1.44650 -0.29310
C18A C 1.3426(3) 1.2686(3) -0.27137(16)
H19A H 1.40710 1.23770 -0.27430
C19A C 1.2223(3) 1.1903(3) -0.25696(15)
C20A C 1.1893(3) 1.0541(3) -0.24460(16)
C21A C 1.2967(3) 1.5722(3) -0.28294(18)
C22A C 1.4412(4) 0.9149(5) -0.1571(3)
H20A H 1.52300 0.92320 -0.13530
H21A H 1.43500 0.99720 -0.15300
C23A C 1.3308(5) 0.8157(5) -0.1282(3)
H22A H 1.33190 0.84130 -0.08440
H23A H 1.33920 0.73430 -0.13010
C24A C 1.0974(5) 0.6907(4) -0.1479(3)
H24A H 1.11250 0.61410 -0.15680
H25A H 1.08640 0.69620 -0.10350
C25A C 0.9772(4) 0.6817(4) -0.1856(3)
H26A H 0.90310 0.62150 -0.16680
H27A H 0.97250 0.76470 -0.18210
C26A C 0.9641(4) 0.6414(4) -0.2538(2)
H28A H 0.87500 0.61750 -0.27110
H29A H 0.98490 0.56710 -0.25860
C27A C 1.0467(4) 0.7112(5) -0.3557(2)
H30A H 1.05390 0.62960 -0.36100
H31A H 0.96480 0.70340 -0.37720
C28A C 1.1559(5) 0.8126(5) -0.3823(2)
H32A H 1.14630 0.89330 -0.37870
H33A H 1.15600 0.79070 -0.42640
C29A C 1.3897(4) 0.9390(4) -0.3624(2)
H34A H 1.39970 0.93580 -0.40700
H35A H 1.37480 1.01520 -0.35220
C30A C 1.5108(4) 0.9470(4) -0.3262(2)
H36A H 1.51600 0.86440 -0.33100
H37A H 1.58420 1.00880 -0.34470
C31A C 1.5245(4) 0.9842(4) -0.2565(2)
H38A H 1.50420 1.05860 -0.25050
H39A H 1.61360 1.00710 -0.23960
C32A C 0.2907(4) 0.5714(4) 0.00944(19)
H40A H 0.25290 0.51830 0.04330
H41A H 0.25410 0.63510 0.00580
C33A C 0.2593(4) 0.4909(4) -0.05039(19)
H42A H 0.29330 0.54430 -0.08470
H43A H 0.16590 0.44710 -0.05930
C34A C 0.3151(4) 0.3305(4) -0.10355(18)
H44A H 0.22560 0.28180 -0.12010
H45A H 0.35630 0.39280 -0.13350
C35A C 0.3823(4) 0.2424(4) -0.09708(18)
H46A H 0.34910 0.18900 -0.06260
H47A H 0.35950 0.18640 -0.13510
C36A C 0.5269(4) 0.3037(4) -0.08571(17)
H48A H 0.56080 0.36650 -0.11650
H49A H 0.56140 0.23900 -0.09130
C37A C 0.2619(5) 0.3219(5) 0.5529(2)
H50A H 0.19990 0.30820 0.58390
H51A H 0.21390 0.30170 0.51160
C38A C 0.3276(6) 0.2338(5) 0.5624(2)
H52A H 0.38450 0.26240 0.60110
H53A H 0.26190 0.14970 0.56840
C39A C 0.4062(5) 0.2193(4) 0.5114(2)
H54A H 0.35560 0.20450 0.47100
H55A H 0.42730 0.14580 0.51820
C40A C 0.6021(6) 0.3259(5) 0.4619(2)
H56A H 0.63950 0.26440 0.47120
H57A H 0.54850 0.29800 0.42220
C41A C 0.7066(5) 0.4539(5) 0.4573(3)
H58A H 0.76100 0.45010 0.42490
H59A H 0.76060 0.48160 0.49690
#END
