
#######################################################################
#
#                 Cambridge Crystallographic Data Centre
#                                CCDC
#
#######################################################################
#
# If this CIF has been generated from an entry in the Cambridge
# Structural Database, then it will include bibliographic, chemical,
# crystal, experimental, refinement or atomic coordinate data resulting
# from the CCDC's data processing and validation procedures.
#
#######################################################################

data_CSD_CIF_FEPLIX
_audit_creation_date 2013-02-22
_audit_creation_method CSD-ConQuest-V1
_database_code_CSD FEPLIX
_database_code_depnum_ccdc_archive 'CCDC 889540'
_chemical_formula_sum 'C82 H142 N22 Ni2 O38 Zn4'
_chemical_formula_moiety
;
(C72 H90 N18 Ni2 O24 Zn3 2-)n,n(C10 H28 N4 O2 Zn1 2+),12n(H2 O1)
;
_journal_coden_Cambridge 1350
_journal_volume 15
_journal_year 2013
_journal_page_first 78
_journal_name_full 'CrystEngComm '
loop_
_publ_author_name
"Sheng-Li Huang"
"Long Zhang"
"Yue-Jian Lin"
"Guo-Xin Jin"
_chemical_name_systematic
;
catena-(diaqua-(1,4,8,11-tetraazacyclotetradecane)-zinc(ii) 
bis(\m~3~-pyridine-2,5-dicarboxylato)-bis(\m~2~-pyridine-2,5-dicarboxylato)-bi
s(pyridine-2,5-dicarboxylato)-bis(1,4,8,11-tetraazacyclotetradecane)-di-nickel
(ii)-tri-zinc(ii) dodecahydrate)
;
_cell_volume   2638.331
_exptl_crystal_colour 'purple'
_exptl_crystal_density_diffrn 1.525
_exptl_crystal_description 'prism'
_diffrn_ambient_temperature 173
#These two values have been output from a single CSD field.
_refine_ls_R_factor_gt 0.0497
_refine_ls_wR_factor_gt 0.0497
_symmetry_cell_setting triclinic
_symmetry_space_group_name_H-M 'P -1'
_symmetry_Int_Tables_number 2
loop_
_symmetry_equiv_pos_site_id
_symmetry_equiv_pos_as_xyz
1 x,y,z
2 -x,-y,-z
_cell_length_a 11.5109(14)
_cell_length_b 11.5916(14)
_cell_length_c 21.717(3)
_cell_angle_alpha 91.170(2)
_cell_angle_beta 94.449(2)
_cell_angle_gamma 113.834(2)
_cell_formula_units_Z 1
loop_
_atom_type_symbol
_atom_type_radius_bond
C 0.68
H 0.23
N 0.68
Ni 1.24
O 0.68
Zn 1.22
loop_
_atom_site_label
_atom_site_type_symbol
_atom_site_fract_x
_atom_site_fract_y
_atom_site_fract_z
Zn1 Zn -0.23475(3) 0.19317(3) 0.255912(18)
Zn2 Zn 0.50000 0.50000 0.00000
Zn3 Zn 0.50000 0.50000 0.50000
Ni1 Ni 0.04968(3) -0.08360(3) 0.233129(17)
N1 N 0.1478(2) -0.1970(2) 0.23392(11)
N2 N 0.1979(2) 0.0847(2) 0.21640(11)
N3 N -0.1190(2) -0.2280(2) 0.25390(11)
N4 N -0.4280(3) 0.1200(2) 0.22195(14)
H1 H -0.445(4) 0.188(3) 0.2268(19)
N5 N -0.1994(3) 0.1994(3) 0.16271(15)
H2 H -0.188(3) 0.129(4) 0.1557(17)
N6 N -0.0431(3) 0.2583(3) 0.29023(16)
H3 H -0.016(4) 0.193(4) 0.286(2)
N7 N -0.2712(3) 0.1751(3) 0.34874(14)
H4 H -0.281(4) 0.244(3) 0.362(2)
N8 N 0.6827(2) 0.6020(2) 0.04467(11)
H5 H 0.732(4) 0.664(4) 0.0230(17)
N9 N 0.4292(2) 0.6331(2) 0.02383(12)
H6 H 0.457(5) 0.696(3) -0.0026(19)
N10 N 0.6491(3) 0.5480(3) 0.44277(15)
H7 H 0.608(4) 0.525(4) 0.4050(12)
N11 N 0.4763(4) 0.6679(3) 0.49038(14)
H8 H 0.407(6) 0.66(1) 0.465(4)
O1 O 0.0197(2) -0.1422(2) 0.14077(10)
O2 O 0.0886(3) -0.2396(2) 0.07131(11)
O3 O 0.3763(2) -0.4196(2) 0.32686(11)
O4 O 0.3057(4) -0.3086(4) 0.38636(13)
O5 O 0.1128(2) -0.0089(2) 0.32231(10)
O6 O 0.2080(3) 0.1789(2) 0.37381(11)
O7 O 0.4370(2) 0.4063(2) 0.0883(1)
O8 O 0.3839(3) 0.2047(2) 0.05828(12)
O9 O -0.0671(2) 0.0109(2) 0.23108(11)
O10 O -0.2595(2) -0.0083(2) 0.25353(12)
O11 O -0.3815(2) -0.6358(2) 0.31165(14)
O12 O -0.2176(2) -0.6139(2) 0.25655(13)
O13 O 0.3615(3) 0.4215(3) 0.41756(12)
H9 H 0.368(4) 0.476(4) 0.389(2)
H10 H 0.319(4) 0.349(2) 0.403(2)
C1 C 0.1502(3) -0.2449(3) 0.17761(13)
C2 C 0.2112(3) -0.3237(3) 0.16833(14)
H11 H 0.21290 -0.35510 0.12780
C3 C 0.2700(3) -0.3565(3) 0.21893(15)
H12 H 0.31330 -0.41000 0.21350
C4 C 0.2648(3) -0.3101(3) 0.27778(14)
C5 C 0.2030(3) -0.2293(3) 0.28308(14)
H13 H 0.19990 -0.19620 0.32300
C6 C 0.0806(3) -0.2062(3) 0.12468(14)
C7 C 0.3215(3) -0.3485(3) 0.33490(15)
C8 C 0.2394(3) 0.1646(3) 0.26724(13)
C9 C 0.3272(3) 0.2887(3) 0.26492(14)
H14 H 0.35570 0.34350 0.30120
C10 C 0.3726(3) 0.3310(3) 0.20873(15)
H15 H 0.43070 0.41630 0.20590
C11 C 0.3330(3) 0.2487(3) 0.15658(13)
C12 C 0.2443(3) 0.1263(3) 0.16263(13)
H16 H 0.21530 0.06960 0.12700
C13 C 0.1839(3) 0.1087(3) 0.32641(13)
C14 C 0.3881(3) 0.2900(3) 0.09555(14)
C15 C -0.1451(3) -0.3505(3) 0.26099(13)
H17 H -0.07980 -0.37950 0.25630
C16 C -0.2644(3) -0.4368(3) 0.27492(13)
C17 C -0.3585(3) -0.3933(3) 0.28139(13)
H18 H -0.44000 -0.44930 0.29190
C18 C -0.3335(3) -0.2676(3) 0.27246(13)
H19 H -0.39790 -0.23680 0.27580
C19 C -0.2126(3) -0.1882(2) 0.25862(12)
C20 C -0.1771(3) -0.0499(3) 0.24705(14)
C21 C -0.2903(3) -0.5747(3) 0.28159(15)
C22 C -0.4312(4) 0.0854(4) 0.15605(17)
H20 H -0.51270 0.07770 0.13390
H21 H -0.42530 0.00280 0.15170
C23 C -0.3204(4) 0.1861(4) 0.12837(18)
H22 H -0.32070 0.16230 0.08430
H23 H -0.32900 0.26760 0.13070
C24 C -0.0866(4) 0.3120(4) 0.1484(2)
H24 H -0.10170 0.38890 0.15650
H25 H -0.07450 0.30650 0.10390
C25 C 0.0335(4) 0.3226(4) 0.1869(2)
H26 H 0.03940 0.23980 0.18360
H27 H 0.10790 0.38470 0.16840
C26 C 0.0445(3) 0.3613(3) 0.2549(2)
H28 H 0.13340 0.38510 0.27280
H29 H 0.02450 0.43640 0.25920
C27 C -0.0397(4) 0.2905(4) 0.3560(2)
H30 H -0.04560 0.37300 0.36120
H31 H 0.04190 0.29770 0.37790
C28 C -0.1507(4) 0.1885(4) 0.38338(19)
H32 H -0.14150 0.10730 0.38090
H33 H -0.15110 0.21160 0.42750
C29 C -0.3840(4) 0.0608(3) 0.36251(17)
H34 H -0.39550 0.06430 0.40710
H35 H -0.36820 -0.01540 0.35340
C30 C -0.5052(3) 0.0501(3) 0.32487(19)
H36 H -0.51260 0.13190 0.32950
H37 H -0.57890 -0.01420 0.34290
C31 C -0.5154(3) 0.0153(3) 0.25615(17)
H38 H -0.49520 -0.05940 0.25070
H39 H -0.60420 -0.00800 0.23830
C32 C 0.7103(3) 0.4302(3) -0.00976(16)
H40 H 0.74860 0.48360 -0.04400
H41 H 0.74650 0.36620 -0.00560
C33 C 0.7414(3) 0.5115(3) 0.05022(16)
H42 H 0.70870 0.45730 0.08500
H43 H 0.83500 0.55720 0.05880
C34 C 0.6857(3) 0.6681(3) 0.10452(14)
H44 H 0.77560 0.71730 0.12090
H45 H 0.64480 0.60460 0.13460
C35 C 0.6181(3) 0.7566(3) 0.09859(15)
H46 H 0.65190 0.81220 0.06440
H47 H 0.64040 0.81110 0.13710
C36 C 0.4722(3) 0.6934(3) 0.08661(15)
H48 H 0.43800 0.62890 0.11720
H49 H 0.43730 0.75780 0.09250
C37 C 0.7400(4) 0.6831(5) 0.4483(2)
H50 H 0.80260 0.69790 0.41740
H51 H 0.78740 0.70230 0.48990
C38 C 0.6742(5) 0.7713(4) 0.4387(2)
H52 H 0.61800 0.74350 0.39950
H53 H 0.74010 0.85660 0.43320
C39 C 0.5944(5) 0.7826(4) 0.48960(19)
H54 H 0.64510 0.79740 0.53020
H55 H 0.57280 0.85610 0.48290
C40 C 0.3958(5) 0.6709(4) 0.5396(2)
H56 H 0.35780 0.73230 0.53050
H57 H 0.44830 0.69770 0.57980
C41 C 0.2915(5) 0.5409(5) 0.5430(2)
H58 H 0.23640 0.54170 0.57560
H59 H 0.23810 0.51440 0.50300
O14 O 0.2576(4) 0.9676(3) 0.00390(16)
H60 H 0.310(4) 0.953(4) 0.0329(16)
H61 H 0.228(5) 0.895(3) -0.016(2)
O15 O 0.9264(4) 0.0422(3) 0.08919(15)
H62 H 0.869(4) 0.023(5) 0.059(2)
H63 H 0.934(8) -0.027(4) 0.095(4)
O16 O 0.0446(9) 0.6160(9) 0.4228(6)
O17 O 0.0840(8) 0.8713(7) 0.4358(3)
H64 H 0.049(4) 0.930(4) 0.460(2)
H65 H 0.161(3) 0.887(6) 0.452(3)
O18 O 0.3553(8) 0.9132(7) 0.4597(3)
O19 O 0.0988(3) 0.2433(5) 0.0239(2)
H66 H 0.090(6) 0.167(5) 0.000(3)
H67 H 0.049(6) 0.203(6) 0.050(3)
Zn1A Zn 1.23475(3) 0.80683(3) -0.255912(18)
Zn1* Zn -0.23475(3) -0.80683(3) 0.255912(18)
Zn1A* Zn 1.23475(3) 1.80683(3) -0.255912(18)
Ni1A Ni 0.95032(3) 1.08360(3) -0.233129(17)
N1A N 0.8522(2) 1.1970(2) -0.23392(11)
N2A N 0.8021(2) 0.9153(2) -0.21640(11)
N3A N 1.1190(2) 1.2280(2) -0.25390(11)
N4A N 1.4280(3) 0.8800(2) -0.22195(14)
H1A H 1.445(4) 0.812(3) -0.2268(19)
N5A N 1.1994(3) 0.8006(3) -0.16271(15)
H2A H 1.188(3) 0.871(4) -0.1557(17)
N6A N 1.0431(3) 0.7417(3) -0.29023(16)
H3A H 1.016(4) 0.807(4) -0.286(2)
N7A N 1.2712(3) 0.8249(3) -0.34874(14)
H4A H 1.281(4) 0.756(3) -0.362(2)
N8A N 0.3173(2) 0.3980(2) -0.04467(11)
H5A H 0.268(4) 0.336(4) -0.0230(17)
N9A N 0.5708(2) 0.3669(2) -0.02383(12)
H6A H 0.543(5) 0.304(3) 0.0026(19)
N10A N 0.3509(3) 0.4520(3) 0.55723(15)
H7A H 0.392(4) 0.475(4) 0.5950(12)
N11A N 0.5237(4) 0.3321(3) 0.50962(14)
H8A H 0.593(6) 0.34(1) 0.535(4)
O1A O 0.9803(2) 1.1422(2) -0.14077(10)
O2A O 0.9114(3) 1.2396(2) -0.07131(11)
O3A O 0.6237(2) 1.4196(2) -0.32686(11)
O4A O 0.6943(4) 1.3086(4) -0.38636(13)
O5A O 0.8872(2) 1.0089(2) -0.32231(10)
O6A O 0.7920(3) 0.8211(2) -0.37381(11)
O7A O 0.5630(2) 0.5937(2) -0.0883(1)
O8A O 0.6161(3) 0.7953(2) -0.05828(12)
O9A O 1.0671(2) 0.9891(2) -0.23108(11)
O10A O 1.2595(2) 1.0083(2) -0.25353(12)
O11A O 1.3815(2) 1.6358(2) -0.31165(14)
O12A O 1.2176(2) 1.6139(2) -0.25655(13)
O12* O -0.2176(2) 0.3861(2) 0.25655(13)
O12A* O 1.2176(2) 0.6139(2) -0.25655(13)
O13A O 0.6385(3) 0.5785(3) 0.58244(12)
H9A H 0.632(4) 0.524(4) 0.611(2)
H10A H 0.681(4) 0.651(2) 0.597(2)
C1A C 0.8498(3) 1.2449(3) -0.17761(13)
C2A C 0.7888(3) 1.3237(3) -0.16833(14)
H11A H 0.78710 1.35510 -0.12780
C3A C 0.7300(3) 1.3565(3) -0.21893(15)
H12A H 0.68670 1.41000 -0.21350
C4A C 0.7352(3) 1.3101(3) -0.27778(14)
C5A C 0.7970(3) 1.2293(3) -0.28308(14)
H13A H 0.80010 1.19620 -0.32300
C6A C 0.9194(3) 1.2062(3) -0.12468(14)
C7A C 0.6785(3) 1.3485(3) -0.33490(15)
C8A C 0.7606(3) 0.8354(3) -0.26724(13)
C9A C 0.6728(3) 0.7113(3) -0.26492(14)
H14A H 0.64430 0.65650 -0.30120
C10A C 0.6274(3) 0.6690(3) -0.20873(15)
H15A H 0.56930 0.58370 -0.20590
C11A C 0.6670(3) 0.7513(3) -0.15658(13)
C12A C 0.7557(3) 0.8737(3) -0.16263(13)
H16A H 0.78470 0.93040 -0.12700
C13A C 0.8161(3) 0.8913(3) -0.32641(13)
C14A C 0.6119(3) 0.7100(3) -0.09555(14)
C15A C 1.1451(3) 1.3505(3) -0.26099(13)
H17A H 1.07980 1.37950 -0.25630
C16A C 1.2644(3) 1.4368(3) -0.27492(13)
C17A C 1.3585(3) 1.3933(3) -0.28139(13)
H18A H 1.44000 1.44930 -0.29190
C18A C 1.3335(3) 1.2676(3) -0.27246(13)
H19A H 1.39790 1.23680 -0.27580
C19A C 1.2126(3) 1.1882(2) -0.25862(12)
C20A C 1.1771(3) 1.0499(3) -0.24705(14)
C21A C 1.2903(3) 1.5747(3) -0.28159(15)
C22A C 1.4312(4) 0.9146(4) -0.15605(17)
H20A H 1.51270 0.92230 -0.13390
H21A H 1.42530 0.99720 -0.15170
C23A C 1.3204(4) 0.8139(4) -0.12837(18)
H22A H 1.32070 0.83770 -0.08430
H23A H 1.32900 0.73240 -0.13070
C24A C 1.0866(4) 0.6880(4) -0.1484(2)
H24A H 1.10170 0.61110 -0.15650
H25A H 1.07450 0.69350 -0.10390
C25A C 0.9665(4) 0.6774(4) -0.1869(2)
H26A H 0.96060 0.76020 -0.18360
H27A H 0.89210 0.61530 -0.16840
C26A C 0.9555(3) 0.6387(3) -0.2549(2)
H28A H 0.86660 0.61490 -0.27280
H29A H 0.97550 0.56360 -0.25920
C27A C 1.0397(4) 0.7095(4) -0.3560(2)
H30A H 1.04560 0.62700 -0.36120
H31A H 0.95810 0.70230 -0.37790
C28A C 1.1507(4) 0.8115(4) -0.38338(19)
H32A H 1.14150 0.89270 -0.38090
H33A H 1.15110 0.78840 -0.42750
C29A C 1.3840(4) 0.9392(3) -0.36251(17)
H34A H 1.39550 0.93570 -0.40710
H35A H 1.36820 1.01540 -0.35340
C30A C 1.5052(3) 0.9499(3) -0.32487(19)
H36A H 1.51260 0.86810 -0.32950
H37A H 1.57890 1.01420 -0.34290
C31A C 1.5154(3) 0.9847(3) -0.25615(17)
H38A H 1.49520 1.05940 -0.25070
H39A H 1.60420 1.00800 -0.23830
C32A C 0.2897(3) 0.5698(3) 0.00976(16)
H40A H 0.25140 0.51640 0.04400
H41A H 0.25350 0.63380 0.00560
C33A C 0.2586(3) 0.4885(3) -0.05022(16)
H42A H 0.29130 0.54270 -0.08500
H43A H 0.16500 0.44280 -0.05880
C34A C 0.3143(3) 0.3319(3) -0.10452(14)
H44A H 0.22440 0.28270 -0.12090
H45A H 0.35520 0.39540 -0.13460
C35A C 0.3819(3) 0.2434(3) -0.09859(15)
H46A H 0.34810 0.18780 -0.06440
H47A H 0.35960 0.18890 -0.13710
C36A C 0.5278(3) 0.3066(3) -0.08661(15)
H48A H 0.56200 0.37110 -0.11720
H49A H 0.56270 0.24220 -0.09250
C37A C 0.2600(4) 0.3169(5) 0.5517(2)
H50A H 0.19740 0.30210 0.58260
H51A H 0.21260 0.29770 0.51010
C38A C 0.3258(5) 0.2287(4) 0.5613(2)
H52A H 0.38200 0.25650 0.60050
H53A H 0.25990 0.14340 0.56680
C39A C 0.4056(5) 0.2174(4) 0.51040(19)
H54A H 0.35490 0.20260 0.46980
H55A H 0.42720 0.14390 0.51710
C40A C 0.6042(5) 0.3291(4) 0.4604(2)
H56A H 0.64220 0.26770 0.46950
H57A H 0.55170 0.30230 0.42020
C41A C 0.7085(5) 0.4591(5) 0.4570(2)
H58A H 0.76360 0.45830 0.42440
H59A H 0.76190 0.48560 0.49700
#END
