
#######################################################################
#
#                 Cambridge Crystallographic Data Centre
#                                CCDC
#
#######################################################################
#
# If this CIF has been generated from an entry in the Cambridge
# Structural Database, then it will include bibliographic, chemical,
# crystal, experimental, refinement or atomic coordinate data resulting
# from the CCDC's data processing and validation procedures.
#
#######################################################################

data_CSD_CIF_FEPLET
_audit_creation_date 2013-02-22
_audit_creation_method CSD-ConQuest-V1
_database_code_CSD FEPLET
_database_code_depnum_ccdc_archive 'CCDC 889539'
_chemical_formula_sum 'C82 H130 N22 Ni4 O32 Zn2'
_chemical_formula_moiety
;
(C72 H90 N18 Ni3 O24 Zn2 2-)n,n(C10 H28 N4 Ni1 O2 2+),6n(H2 O1)
;
_journal_coden_Cambridge 1350
_journal_volume 15
_journal_year 2013
_journal_page_first 78
_journal_name_full 'CrystEngComm '
loop_
_publ_author_name
"Sheng-Li Huang"
"Long Zhang"
"Yue-Jian Lin"
"Guo-Xin Jin"
_chemical_name_systematic
;
catena-(diaqua-(1,4,8,11-tetraazacyclotetradecane)-nickel(ii) 
bis(\m~3~-pyridine-2,5-dicarboxylato)-bis(\m~2~-pyridine-2,5-dicarboxylato)-bi
s(pyridine-2,5-dicarboxylato)-bis(1,4,8,11-tetraazacyclotetradecane)-tri-nicke
l(ii)-di-zinc(ii) hexahydrate)
;
_cell_volume   2618.808
_exptl_crystal_colour 'yellow'
_exptl_crystal_density_diffrn 1.459
_exptl_crystal_description 'prism'
_diffrn_ambient_temperature 173
#These two values have been output from a single CSD field.
_refine_ls_R_factor_gt 0.0492
_refine_ls_wR_factor_gt 0.0492
_symmetry_cell_setting triclinic
_symmetry_space_group_name_H-M 'P -1'
_symmetry_Int_Tables_number 2
loop_
_symmetry_equiv_pos_site_id
_symmetry_equiv_pos_as_xyz
1 x,y,z
2 -x,-y,-z
_cell_length_a 11.4882(8)
_cell_length_b 11.5521(8)
_cell_length_c 21.6308(16)
_cell_angle_alpha 94.361(1)
_cell_angle_beta 91.317(1)
_cell_angle_gamma 113.584(1)
_cell_formula_units_Z 1
loop_
_atom_type_symbol
_atom_type_radius_bond
C 0.68
H 0.23
N 0.68
Ni 1.24
O 0.68
Zn 1.22
loop_
_atom_site_label
_atom_site_type_symbol
_atom_site_fract_x
_atom_site_fract_y
_atom_site_fract_z
Ni1 Ni 0.81507(4) 0.74524(4) 0.24358(3)
Ni2 Ni 0.50000 0.00000 0.50000
Ni3 Ni 0.50000 1.00000 0.00000
Zn1 Zn 1.08489(4) 0.45614(4) 0.26909(2)
N1 N 0.8292(3) 0.7805(3) 0.15113(19)
H1 H 0.767(3) 0.803(4) 0.150(2)
N2 N 0.7459(3) 0.5566(3) 0.21017(19)
H2 H 0.785(4) 0.510(4) 0.201(2)
N3 N 0.8072(3) 0.7104(3) 0.33697(19)
H3 H 0.880(3) 0.702(4) 0.340(2)
N4 N 0.8852(3) 0.9355(3) 0.27610(18)
H4 H 0.817(3) 0.951(4) 0.271(2)
N5 N 0.6011(3) 0.1787(3) 0.54499(16)
H5 H 0.671(3) 0.232(5) 0.532(3)
N6 N 0.6336(3) -0.0697(3) 0.52362(17)
H6 H 0.679(4) -0.054(6) 0.4909(17)
N7 N 0.3328(4) 1.0253(4) 0.00948(18)
H7 H 0.328(4) 1.079(3) 0.0385(16)
N8 N 0.4507(4) 0.8527(4) 0.05677(18)
H8 H 0.463(5) 0.896(3) 0.0928(8)
N9 N 1.2071(3) 0.3602(3) 0.26684(16)
N10 N 1.2332(3) 0.6302(3) 0.24743(15)
N11 N 0.9095(3) 0.3061(3) 0.28601(15)
O1 O 1.1459(2) 0.4774(3) 0.36322(13)
O2 O 1.2491(3) 0.4081(3) 0.43019(14)
O3 O 1.3190(5) 0.2073(4) 0.11202(18)
O4 O 1.4205(3) 0.1243(3) 0.17049(14)
O5 O 0.9918(2) 0.5783(3) 0.26995(15)
O6 O 1.0095(2) 0.7683(2) 0.24461(15)
O7 O 1.6248(2) 0.7296(3) 0.24409(15)
O8 O 1.6426(3) 0.8915(3) 0.18904(17)
O9 O 1.0045(2) 0.3861(3) 0.17872(13)
O10 O 0.8157(3) 0.2922(3) 0.12851(14)
O11 O 0.5898(2) 0.0631(3) 0.41460(13)
O12 O 0.7950(3) 0.1163(3) 0.44363(15)
O13 O 0.5772(3) 1.1295(3) 0.08047(15)
H9 H 0.650(2) 1.182(4) 0.083(2)
H10 H 0.532(4) 1.157(5) 0.101(3)
C1 C 0.8134(5) 0.6610(5) 0.1164(3)
H11 H 0.89460 0.65020 0.11860
H12 H 0.79000 0.66250 0.07220
C2 C 0.7105(4) 0.5514(4) 0.1434(2)
H13 H 0.62760 0.55810 0.13840
H14 H 0.70290 0.46990 0.12160
C3 C 0.6439(4) 0.4690(4) 0.2466(2)
H15 H 0.61970 0.38080 0.22830
H16 H 0.56790 0.48880 0.24310
C4 C 0.6832(4) 0.4780(4) 0.3140(3)
H17 H 0.76680 0.47210 0.31710
H18 H 0.62090 0.40430 0.33270
C5 C 0.6935(4) 0.5991(5) 0.3518(3)
H19 H 0.61610 0.61430 0.34290
H20 H 0.69850 0.58830 0.39660
C6 C 0.8209(4) 0.8308(5) 0.3718(2)
H21 H 0.84780 0.83170 0.41570
H22 H 0.73810 0.83860 0.37080
C7 C 0.9185(4) 0.9404(4) 0.3431(2)
H23 H 0.92320 1.02120 0.36450
H24 H 1.00310 0.93750 0.34840
C8 C 0.9894(4) 1.0239(4) 0.2422(2)
H25 H 1.06610 1.00590 0.24810
H26 H 1.01040 1.11190 0.26000
C9 C 0.9557(4) 1.0136(4) 0.1738(2)
H27 H 1.02170 1.08590 0.15590
H28 H 0.87440 1.02370 0.16890
C10 C 0.9418(4) 0.8916(4) 0.1352(2)
H29 H 0.93390 0.90260 0.09060
H30 H 1.01940 0.87580 0.14250
C11 C 0.5095(4) 0.2379(4) 0.5509(2)
H31 H 0.55530 0.33090 0.55990
H32 H 0.45430 0.20470 0.58550
C12 C 0.6670(4) 0.1821(4) 0.6043(2)
H33 H 0.60310 0.14110 0.63440
H34 H 0.71550 0.27170 0.62070
C13 C 0.7586(4) 0.1153(4) 0.5988(2)
H35 H 0.81510 0.14920 0.56470
H36 H 0.81270 0.13680 0.63780
C14 C 0.6939(4) -0.0289(4) 0.5865(2)
H37 H 0.75790 -0.06500 0.59230
H38 H 0.62860 -0.06250 0.61710
C15 C 0.5714(4) -0.2077(4) 0.5099(2)
H39 H 0.51700 -0.24590 0.54400
H40 H 0.63630 -0.24370 0.50620
C16 C 0.2154(4) 0.9091(5) 0.0107(2)
H41 H 0.19920 0.85830 -0.03000
H42 H 0.14250 0.93290 0.01750
C17 C 0.2246(5) 0.8301(5) 0.0609(2)
H43 H 0.13840 0.76500 0.06600
H44 H 0.25230 0.88540 0.10040
C18 C 0.3143(5) 0.7628(5) 0.0512(3)
H45 H 0.29940 0.70060 0.08240
H46 H 0.29470 0.71560 0.00950
C19 C 0.5384(5) 0.7915(5) 0.0421(3)
H47 H 0.51100 0.73890 0.00190
H48 H 0.53860 0.73580 0.07470
C20 C 0.6700(5) 0.8940(5) 0.0389(2)
H49 H 0.69790 0.94540 0.07940
H50 H 0.73110 0.85530 0.02920
C21 C 1.2524(3) 0.3531(3) 0.32204(18)
C22 C 1.3325(4) 0.2900(4) 0.3314(2)
H51 H 1.36470 0.28680 0.37180
C23 C 1.3630(4) 0.2322(4) 0.2789(2)
H52 H 1.41410 0.18560 0.28330
C24 C 1.3193(4) 0.2426(4) 0.22119(19)
C25 C 1.2391(3) 0.3071(3) 0.21666(19)
H53 H 1.20660 0.31310 0.17680
C26 C 1.2132(4) 0.4186(4) 0.3767(2)
C27 C 1.3553(4) 0.1860(4) 0.1632(2)
C28 C 1.1911(3) 0.7213(3) 0.24117(18)
C29 C 1.2705(3) 0.8421(3) 0.22681(18)
H54 H 1.23880 0.90570 0.22290
C30 C 1.3979(3) 0.8669(4) 0.21838(19)
H55 H 1.45430 0.94800 0.20790
C31 C 1.4419(3) 0.7735(4) 0.22534(18)
C32 C 1.3561(3) 0.6554(3) 0.24016(18)
H56 H 1.38580 0.59070 0.24530
C33 C 1.0525(3) 0.6860(3) 0.25260(18)
C34 C 1.5817(4) 0.8015(4) 0.2183(2)
C35 C 0.8312(4) 0.2647(3) 0.23614(19)
C36 C 0.7052(4) 0.1756(4) 0.2371(2)
H57 H 0.65040 0.14820 0.20050
C37 C 0.6637(4) 0.1294(4) 0.2931(2)
H58 H 0.57830 0.07030 0.29550
C38 C 0.7457(3) 0.1686(3) 0.34601(18)
C39 C 0.8690(3) 0.2599(3) 0.34061(18)
H59 H 0.92580 0.29010 0.37650
C40 C 0.8859(4) 0.3170(4) 0.17554(19)
C41 C 0.7085(4) 0.1135(4) 0.40801(19)
O14 O 0.0392(4) 0.2412(4) 0.49825(19)
O15 O 0.2484(5) 0.5983(4) 0.5243(2)
H60 H 0.220(4) 0.520(5) 0.490(2)
H61 H 0.174(6) 0.623(5) 0.512(3)
O16 O 0.9615(4) 0.5702(5) 0.4132(2)
H62 H 0.964(6) 0.633(4) 0.439(2)
H63 H 1.000(6) 0.535(5) 0.436(2)
Ni1A Ni 0.18493(4) -0.74524(4) 0.75642(3)
Ni1* Ni 1.81507(4) 0.74524(4) 0.24358(3)
Ni1A* Ni -0.81507(4) -0.74524(4) 0.75642(3)
Zn1A Zn -0.08489(4) -0.45614(4) 0.73091(2)
N1A N 0.1708(3) -0.7805(3) 0.84887(19)
H1A H 0.233(3) -0.803(4) 0.850(2)
N2A N 0.2541(3) -0.5566(3) 0.78983(19)
H2A H 0.215(4) -0.510(4) 0.799(2)
N3A N 0.1928(3) -0.7104(3) 0.66303(19)
H3A H 0.120(3) -0.702(4) 0.660(2)
N4A N 0.1148(3) -0.9355(3) 0.72390(18)
H4A H 0.183(3) -0.951(4) 0.729(2)
N5A N 0.3989(3) -0.1787(3) 0.45501(16)
H5A H 0.329(3) -0.232(5) 0.468(3)
N6A N 0.3664(3) 0.0697(3) 0.47638(17)
H6A H 0.321(4) 0.054(6) 0.5091(17)
N7A N 0.6672(4) 0.9747(4) -0.00948(18)
H7A H 0.672(4) 0.921(3) -0.0385(16)
N8A N 0.5493(4) 1.1473(4) -0.05677(18)
H8A H 0.537(5) 1.104(3) -0.0928(8)
N9A N -0.2071(3) -0.3602(3) 0.73316(16)
N10A N -0.2332(3) -0.6302(3) 0.75257(15)
N11A N 0.0905(3) -0.3061(3) 0.71399(15)
O1A O -0.1459(2) -0.4774(3) 0.63678(13)
O2A O -0.2491(3) -0.4081(3) 0.56981(14)
O3A O -0.3190(5) -0.2073(4) 0.88798(18)
O4A O -0.4205(3) -0.1243(3) 0.82951(14)
O5A O 0.0082(2) -0.5783(3) 0.73005(15)
O6A O -0.0095(2) -0.7683(2) 0.75539(15)
O7A O -0.6248(2) -0.7296(3) 0.75591(15)
O7* O 0.6248(2) 0.7296(3) 0.24409(15)
O7A* O 0.3752(2) -0.7296(3) 0.75591(15)
O8A O -0.6426(3) -0.8915(3) 0.81096(17)
O9A O -0.0045(2) -0.3861(3) 0.82128(13)
O10A O 0.1843(3) -0.2922(3) 0.87149(14)
O11A O 0.4102(2) -0.0631(3) 0.58540(13)
O12A O 0.2050(3) -0.1163(3) 0.55637(15)
O13A O 0.4228(3) 0.8705(3) -0.08047(15)
H9A H 0.350(2) 0.818(4) -0.083(2)
H10A H 0.468(4) 0.843(5) -0.101(3)
C1A C 0.1866(5) -0.6610(5) 0.8836(3)
H11A H 0.10540 -0.65020 0.88140
H12A H 0.21000 -0.66250 0.92780
C2A C 0.2895(4) -0.5514(4) 0.8566(2)
H13A H 0.37240 -0.55810 0.86160
H14A H 0.29710 -0.46990 0.87840
C3A C 0.3561(4) -0.4690(4) 0.7534(2)
H15A H 0.38030 -0.38080 0.77170
H16A H 0.43210 -0.48880 0.75690
C4A C 0.3168(4) -0.4780(4) 0.6860(3)
H17A H 0.23320 -0.47210 0.68290
H18A H 0.37910 -0.40430 0.66730
C5A C 0.3065(4) -0.5991(5) 0.6482(3)
H19A H 0.38390 -0.61430 0.65710
H20A H 0.30150 -0.58830 0.60340
C6A C 0.1791(4) -0.8308(5) 0.6282(2)
H21A H 0.15220 -0.83170 0.58430
H22A H 0.26190 -0.83860 0.62920
C7A C 0.0815(4) -0.9404(4) 0.6569(2)
H23A H 0.07680 -1.02120 0.63550
H24A H -0.00310 -0.93750 0.65160
C8A C 0.0106(4) -1.0239(4) 0.7578(2)
H25A H -0.06610 -1.00590 0.75190
H26A H -0.01040 -1.11190 0.74000
C9A C 0.0443(4) -1.0136(4) 0.8262(2)
H27A H -0.02170 -1.08590 0.84410
H28A H 0.12560 -1.02370 0.83110
C10A C 0.0582(4) -0.8916(4) 0.8648(2)
H29A H 0.06610 -0.90260 0.90940
H30A H -0.01940 -0.87580 0.85750
C11A C 0.4905(4) -0.2379(4) 0.4491(2)
H31A H 0.44470 -0.33090 0.44010
H32A H 0.54570 -0.20470 0.41450
C12A C 0.3330(4) -0.1821(4) 0.3957(2)
H33A H 0.39690 -0.14110 0.36560
H34A H 0.28450 -0.27170 0.37930
C13A C 0.2414(4) -0.1153(4) 0.4012(2)
H35A H 0.18490 -0.14920 0.43530
H36A H 0.18730 -0.13680 0.36220
C14A C 0.3061(4) 0.0289(4) 0.4135(2)
H37A H 0.24210 0.06500 0.40770
H38A H 0.37140 0.06250 0.38290
C15A C 0.4286(4) 0.2077(4) 0.4901(2)
H39A H 0.48300 0.24590 0.45600
H40A H 0.36370 0.24370 0.49380
C16A C 0.7846(4) 1.0909(5) -0.0107(2)
H41A H 0.80080 1.14170 0.03000
H42A H 0.85750 1.06710 -0.01750
C17A C 0.7754(5) 1.1699(5) -0.0609(2)
H43A H 0.86160 1.23500 -0.06600
H44A H 0.74770 1.11460 -0.10040
C18A C 0.6857(5) 1.2372(5) -0.0512(3)
H45A H 0.70060 1.29940 -0.08240
H46A H 0.70530 1.28440 -0.00950
C19A C 0.4616(5) 1.2085(5) -0.0421(3)
H47A H 0.48900 1.26110 -0.00190
H48A H 0.46140 1.26420 -0.07470
C20A C 0.3300(5) 1.1060(5) -0.0389(2)
H49A H 0.30210 1.05460 -0.07940
H50A H 0.26890 1.14470 -0.02920
C21A C -0.2524(3) -0.3531(3) 0.67796(18)
C22A C -0.3325(4) -0.2900(4) 0.6686(2)
H51A H -0.36470 -0.28680 0.62820
C23A C -0.3630(4) -0.2322(4) 0.7211(2)
H52A H -0.41410 -0.18560 0.71670
C24A C -0.3193(4) -0.2426(4) 0.77881(19)
C25A C -0.2391(3) -0.3071(3) 0.78334(19)
H53A H -0.20660 -0.31310 0.82320
C26A C -0.2132(4) -0.4186(4) 0.6233(2)
C27A C -0.3553(4) -0.1860(4) 0.8368(2)
C28A C -0.1911(3) -0.7213(3) 0.75883(18)
C29A C -0.2705(3) -0.8421(3) 0.77319(18)
H54A H -0.23880 -0.90570 0.77710
C30A C -0.3979(3) -0.8669(4) 0.78162(19)
H55A H -0.45430 -0.94800 0.79210
C31A C -0.4419(3) -0.7735(4) 0.77466(18)
C32A C -0.3561(3) -0.6554(3) 0.75984(18)
H56A H -0.38580 -0.59070 0.75470
C33A C -0.0525(3) -0.6860(3) 0.74740(18)
C34A C -0.5817(4) -0.8015(4) 0.7817(2)
C35A C 0.1688(4) -0.2647(3) 0.76386(19)
C36A C 0.2948(4) -0.1756(4) 0.7629(2)
H57A H 0.34960 -0.14820 0.79950
C37A C 0.3363(4) -0.1294(4) 0.7069(2)
H58A H 0.42170 -0.07030 0.70450
C38A C 0.2543(3) -0.1686(3) 0.65399(18)
C39A C 0.1310(3) -0.2599(3) 0.65939(18)
H59A H 0.07420 -0.29010 0.62350
C40A C 0.1141(4) -0.3170(4) 0.82446(19)
C41A C 0.2915(4) -0.1135(4) 0.59199(19)
#END
