
#######################################################################
#
#                 Cambridge Crystallographic Data Centre
#                                CCDC
#
#######################################################################
#
# If this CIF has been generated from an entry in the Cambridge
# Structural Database, then it will include bibliographic, chemical,
# crystal, experimental, refinement or atomic coordinate data resulting
# from the CCDC's data processing and validation procedures.
#
#######################################################################

data_CSD_CIF_FEPLAP
_audit_creation_date 2013-02-22
_audit_creation_method CSD-ConQuest-V1
_database_code_CSD FEPLAP
_database_code_depnum_ccdc_archive 'CCDC 889538'
_chemical_formula_sum 'C82 H130 N22 Ni6 O32'
_chemical_formula_moiety
;
(C72 H90 N18 Ni5 O24 2-)n,n(C10 H28 N4 Ni1 O2 2+),6n(H2 O1)
;
_journal_coden_Cambridge 1350
_journal_volume 15
_journal_year 2013
_journal_page_first 78
_journal_name_full 'CrystEngComm '
loop_
_publ_author_name
"Sheng-Li Huang"
"Long Zhang"
"Yue-Jian Lin"
"Guo-Xin Jin"
_chemical_name_systematic
;
catena-(diaqua-(1,4,8,11-tetraazacyclotetradecane)-nickel(ii) 
bis(\m~3~-pyridine-2,5-dicarboxylato)-bis(\m~2~-pyridine-2,5-dicarboxylato)-bi
s(pyridine-2,5-dicarboxylato)-bis(1,4,8,11-tetraazacyclotetradecane)-penta-nic
kel(ii) hexahydrate)
;
_cell_volume   2599.322
_exptl_crystal_colour 'yellow'
_exptl_crystal_density_diffrn 1.462
_exptl_crystal_description 'prism'
_diffrn_ambient_temperature 173
#These two values have been output from a single CSD field.
_refine_ls_R_factor_gt 0.0569
_refine_ls_wR_factor_gt 0.0569
_symmetry_cell_setting triclinic
_symmetry_space_group_name_H-M 'P -1'
_symmetry_Int_Tables_number 2
loop_
_symmetry_equiv_pos_site_id
_symmetry_equiv_pos_as_xyz
1 x,y,z
2 -x,-y,-z
_cell_length_a 11.4505(8)
_cell_length_b 11.5123(8)
_cell_length_c 21.6191(14)
_cell_angle_alpha 94.207(1)
_cell_angle_beta 91.531(1)
_cell_angle_gamma 113.612(1)
_cell_formula_units_Z 1
loop_
_atom_type_symbol
_atom_type_radius_bond
C 0.68
H 0.23
N 0.68
Ni 1.24
O 0.68
loop_
_atom_site_label
_atom_site_type_symbol
_atom_site_fract_x
_atom_site_fract_y
_atom_site_fract_z
Ni1 Ni 0.80769(4) 0.73524(4) 0.24176(2)
Ni2 Ni 0.50000 0.00000 0.50000
Ni3 Ni 0.50000 1.00000 0.00000
Ni4 Ni 1.08174(4) 0.45178(4) 0.26858(2)
N1 N 0.8243(3) 0.7693(3) 0.14912(17)
H1 H 0.761(4) 0.785(6) 0.135(3)
N2 N 0.7390(3) 0.5449(3) 0.2100(2)
H2 H 0.802(5) 0.526(5) 0.212(2)
N3 N 0.7966(3) 0.7028(3) 0.33498(18)
H3 H 0.860(5) 0.675(6) 0.334(3)
N4 N 0.8786(3) 0.9266(3) 0.27387(17)
H4 H 0.809(3) 0.938(5) 0.268(2)
N5 N 0.6028(3) 0.1788(3) 0.54525(14)
H5 H 0.664(4) 0.216(5) 0.523(2)
N6 N 0.6322(3) -0.0714(3) 0.52428(15)
H6 H 0.701(3) -0.043(4) 0.5044(17)
N7 N 0.3334(4) 1.0256(4) 0.01065(17)
H7 H 0.332(4) 1.060(4) 0.056(2)
N8 N 0.4508(4) 0.8494(4) 0.05314(18)
H8 H 0.451(6) 0.887(3) 0.0909(9)
N9 N 1.1966(3) 0.3535(3) 0.26650(14)
N10 N 1.2260(3) 0.6190(3) 0.24553(13)
N11 N 0.9121(3) 0.3024(3) 0.28564(14)
O1 O 1.1445(3) 0.4824(3) 0.36062(12)
O2 O 1.2468(3) 0.4149(3) 0.42947(13)
O3 O 1.3085(5) 0.1983(5) 0.11262(17)
O4 O 1.4165(3) 0.1214(3) 0.17201(14)
O5 O 0.9861(2) 0.5687(2) 0.27118(14)
O6 O 1.0012(2) 0.7570(2) 0.24502(13)
O7 O 1.6161(2) 0.7185(3) 0.24050(15)
O8 O 1.6351(3) 0.8822(3) 0.18593(16)
O9 O 1.0043(2) 0.3898(3) 0.17929(13)
O10 O 0.8162(3) 0.2866(3) 0.12739(12)
O11 O 0.5925(2) 0.0641(2) 0.41573(11)
O12 O 0.7964(3) 0.1134(3) 0.44414(14)
O13 O 0.5761(3) 1.1265(4) 0.08188(15)
H9 H 0.649(3) 1.186(4) 0.086(2)
H10 H 0.536(4) 1.131(5) 0.1135(17)
C1 C 0.8077(5) 0.6483(5) 0.1150(2)
H11 H 0.88930 0.63780 0.11700
H12 H 0.78290 0.64860 0.07080
C2 C 0.7059(5) 0.5391(4) 0.1428(2)
H13 H 0.62220 0.54440 0.13680
H14 H 0.69950 0.45730 0.12170
C3 C 0.6349(4) 0.4595(4) 0.2450(3)
H15 H 0.60950 0.37050 0.22730
H16 H 0.55980 0.48110 0.24060
C4 C 0.6744(4) 0.4702(4) 0.3133(3)
H17 H 0.75840 0.46490 0.31700
H18 H 0.61200 0.39640 0.33220
C5 C 0.6838(4) 0.5915(5) 0.3501(3)
H19 H 0.60570 0.60580 0.34090
H20 H 0.68930 0.58180 0.39510
C6 C 0.8093(5) 0.8249(5) 0.3678(2)
H21 H 0.83160 0.82640 0.41250
H22 H 0.72690 0.83370 0.36390
C7 C 0.9107(4) 0.9334(4) 0.3407(2)
H23 H 0.91630 1.01520 0.36150
H24 H 0.99450 0.92850 0.34720
C8 C 0.9831(4) 1.0143(4) 0.2395(2)
H25 H 1.06000 0.99650 0.24610
H26 H 1.00420 1.10290 0.25680
C9 C 0.9510(4) 1.0035(4) 0.1706(2)
H27 H 1.01830 1.07510 0.15250
H28 H 0.86970 1.01380 0.16450
C10 C 0.9377(4) 0.8807(4) 0.1344(2)
H29 H 0.93240 0.89030 0.08940
H30 H 1.01520 0.86510 0.14340
C11 C 0.5122(4) 0.2406(4) 0.55061(19)
H31 H 0.55970 0.33390 0.55890
H32 H 0.45730 0.20920 0.58560
C12 C 0.6680(4) 0.1804(4) 0.60573(17)
H33 H 0.60300 0.13930 0.63550
H34 H 0.71760 0.26990 0.62250
C13 C 0.7573(4) 0.1122(4) 0.60030(19)
H35 H 0.81440 0.14650 0.56650
H36 H 0.81150 0.13310 0.63940
C14 C 0.6940(4) -0.0315(4) 0.58770(17)
H37 H 0.75900 -0.06700 0.59300
H38 H 0.62910 -0.06650 0.61840
C15 C 0.5693(4) -0.2102(4) 0.5095(2)
H39 H 0.51520 -0.24950 0.54350
H40 H 0.63460 -0.24590 0.50530
C16 C 0.2139(5) 0.9082(6) 0.0103(2)
H41 H 0.14100 0.93190 0.01780
H42 H 0.19760 0.85940 -0.03100
C17 C 0.2243(5) 0.8276(6) 0.0590(3)
H43 H 0.13770 0.76240 0.06400
H44 H 0.25280 0.88200 0.09870
C18 C 0.3139(6) 0.7587(5) 0.0486(3)
H45 H 0.30020 0.69680 0.08000
H46 H 0.29270 0.71070 0.00710
C19 C 0.5393(6) 0.7885(5) 0.0394(3)
H47 H 0.51280 0.73620 -0.00100
H48 H 0.53860 0.73230 0.07200
C20 C 0.6702(5) 0.8907(6) 0.0371(3)
H49 H 0.69820 0.94040 0.07810
H50 H 0.73140 0.85230 0.02660
C21 C 1.2462(4) 0.3502(3) 0.32245(17)
C22 C 1.3265(4) 0.2891(4) 0.33154(18)
H51 H 1.36010 0.28730 0.37190
C23 C 1.3567(4) 0.2300(4) 0.27924(19)
H52 H 1.41060 0.18600 0.28390
C24 C 1.3090(4) 0.2356(3) 0.22193(18)
C25 C 1.2283(4) 0.2983(3) 0.21633(18)
H53 H 1.19480 0.30240 0.17630
C26 C 1.2098(4) 0.4208(4) 0.37614(18)
C27 C 1.3460(4) 0.1816(3) 0.16537(18)
C28 C 1.1846(3) 0.7124(3) 0.24035(14)
C29 C 1.2628(3) 0.8323(3) 0.22576(16)
H54 H 1.23060 0.89580 0.22170
C30 C 1.3893(3) 0.8574(3) 0.21716(16)
H55 H 1.44520 0.93920 0.20690
C31 C 1.4352(3) 0.7641(3) 0.22335(16)
C32 C 1.3490(3) 0.6453(3) 0.23846(17)
H56 H 1.37930 0.58080 0.24390
C33 C 1.0455(3) 0.6765(3) 0.25336(16)
C34 C 1.5744(3) 0.7911(3) 0.21540(18)
C35 C 0.8322(3) 0.2598(3) 0.23455(16)
C36 C 0.7080(4) 0.1707(4) 0.23768(18)
H57 H 0.65210 0.14110 0.20130
C37 C 0.6658(4) 0.1251(3) 0.29393(17)
H58 H 0.58040 0.06560 0.29680
C38 C 0.7496(3) 0.1670(3) 0.34586(16)
C39 C 0.8728(3) 0.2571(3) 0.33998(17)
H59 H 0.93060 0.28730 0.37570
C40 C 0.8882(4) 0.3157(3) 0.17513(16)
C41 C 0.7102(4) 0.1122(3) 0.40787(16)
O14 O 0.0407(5) 0.2354(7) 0.4970(3)
O15 O 0.2329(6) 0.5955(4) 0.5222(2)
O16 O 0.9640(5) 0.5807(5) 0.4142(2)
Ni1A Ni 0.19231(4) -0.73524(4) 0.75824(2)
Ni1* Ni 1.80769(4) 0.73524(4) 0.24176(2)
Ni1A* Ni -0.80769(4) -0.73524(4) 0.75824(2)
Ni4A Ni -0.08174(4) -0.45178(4) 0.73142(2)
N1A N 0.1757(3) -0.7693(3) 0.85088(17)
H1A H 0.239(4) -0.785(6) 0.865(3)
N2A N 0.2610(3) -0.5449(3) 0.7900(2)
H2A H 0.198(5) -0.526(5) 0.788(2)
N3A N 0.2034(3) -0.7028(3) 0.66502(18)
H3A H 0.140(5) -0.675(6) 0.666(3)
N4A N 0.1214(3) -0.9266(3) 0.72613(17)
H4A H 0.191(3) -0.938(5) 0.732(2)
N5A N 0.3972(3) -0.1788(3) 0.45475(14)
H5A H 0.336(4) -0.216(5) 0.477(2)
N6A N 0.3678(3) 0.0714(3) 0.47572(15)
H6A H 0.299(3) 0.043(4) 0.4956(17)
N7A N 0.6666(4) 0.9744(4) -0.01065(17)
H7A H 0.668(4) 0.940(4) -0.056(2)
N8A N 0.5492(4) 1.1506(4) -0.05314(18)
H8A H 0.549(6) 1.113(3) -0.0909(9)
N9A N -0.1966(3) -0.3535(3) 0.73350(14)
N10A N -0.2260(3) -0.6190(3) 0.75447(13)
N11A N 0.0879(3) -0.3024(3) 0.71436(14)
O1A O -0.1445(3) -0.4824(3) 0.63938(12)
O2A O -0.2468(3) -0.4149(3) 0.57053(13)
O3A O -0.3085(5) -0.1983(5) 0.88738(17)
O4A O -0.4165(3) -0.1214(3) 0.82799(14)
O5A O 0.0139(2) -0.5687(2) 0.72882(14)
O6A O -0.0012(2) -0.7570(2) 0.75498(13)
O7A O -0.6161(2) -0.7185(3) 0.75950(15)
O7* O 0.6161(2) 0.7185(3) 0.24050(15)
O7A* O 0.3839(2) -0.7185(3) 0.75950(15)
O8A O -0.6351(3) -0.8822(3) 0.81407(16)
O9A O -0.0043(2) -0.3898(3) 0.82071(13)
O10A O 0.1838(3) -0.2866(3) 0.87261(12)
O11A O 0.4075(2) -0.0641(2) 0.58427(11)
O12A O 0.2036(3) -0.1134(3) 0.55586(14)
O13A O 0.4239(3) 0.8735(4) -0.08188(15)
H9A H 0.351(3) 0.814(4) -0.086(2)
H10A H 0.464(4) 0.869(5) -0.1135(17)
C1A C 0.1923(5) -0.6483(5) 0.8850(2)
H11A H 0.11070 -0.63780 0.88300
H12A H 0.21710 -0.64860 0.92920
C2A C 0.2941(5) -0.5391(4) 0.8572(2)
H13A H 0.37780 -0.54440 0.86320
H14A H 0.30050 -0.45730 0.87830
C3A C 0.3651(4) -0.4595(4) 0.7550(3)
H15A H 0.39050 -0.37050 0.77270
H16A H 0.44020 -0.48110 0.75940
C4A C 0.3256(4) -0.4702(4) 0.6867(3)
H17A H 0.24160 -0.46490 0.68300
H18A H 0.38800 -0.39640 0.66780
C5A C 0.3162(4) -0.5915(5) 0.6499(3)
H19A H 0.39430 -0.60580 0.65910
H20A H 0.31070 -0.58180 0.60490
C6A C 0.1907(5) -0.8249(5) 0.6322(2)
H21A H 0.16840 -0.82640 0.58750
H22A H 0.27310 -0.83370 0.63610
C7A C 0.0893(4) -0.9334(4) 0.6593(2)
H23A H 0.08370 -1.01520 0.63850
H24A H 0.00550 -0.92850 0.65280
C8A C 0.0169(4) -1.0143(4) 0.7605(2)
H25A H -0.06000 -0.99650 0.75390
H26A H -0.00420 -1.10290 0.74320
C9A C 0.0490(4) -1.0035(4) 0.8294(2)
H27A H -0.01830 -1.07510 0.84750
H28A H 0.13030 -1.01380 0.83550
C10A C 0.0623(4) -0.8807(4) 0.8656(2)
H29A H 0.06760 -0.89030 0.91060
H30A H -0.01520 -0.86510 0.85660
C11A C 0.4878(4) -0.2406(4) 0.44939(19)
H31A H 0.44030 -0.33390 0.44110
H32A H 0.54270 -0.20920 0.41440
C12A C 0.3320(4) -0.1804(4) 0.39427(17)
H33A H 0.39700 -0.13930 0.36450
H34A H 0.28240 -0.26990 0.37750
C13A C 0.2427(4) -0.1122(4) 0.39970(19)
H35A H 0.18560 -0.14650 0.43350
H36A H 0.18850 -0.13310 0.36060
C14A C 0.3060(4) 0.0315(4) 0.41230(17)
H37A H 0.24100 0.06700 0.40700
H38A H 0.37090 0.06650 0.38160
C15A C 0.4307(4) 0.2102(4) 0.4905(2)
H39A H 0.48480 0.24950 0.45650
H40A H 0.36540 0.24590 0.49470
C16A C 0.7861(5) 1.0918(6) -0.0103(2)
H41A H 0.85900 1.06810 -0.01780
H42A H 0.80240 1.14060 0.03100
C17A C 0.7757(5) 1.1724(6) -0.0590(3)
H43A H 0.86230 1.23760 -0.06400
H44A H 0.74720 1.11800 -0.09870
C18A C 0.6861(6) 1.2413(5) -0.0486(3)
H45A H 0.69980 1.30320 -0.08000
H46A H 0.70730 1.28930 -0.00710
C19A C 0.4607(6) 1.2115(5) -0.0394(3)
H47A H 0.48720 1.26380 0.00100
H48A H 0.46140 1.26770 -0.07200
C20A C 0.3298(5) 1.1093(6) -0.0371(3)
H49A H 0.30180 1.05960 -0.07810
H50A H 0.26860 1.14770 -0.02660
C21A C -0.2462(4) -0.3502(3) 0.67755(17)
C22A C -0.3265(4) -0.2891(4) 0.66846(18)
H51A H -0.36010 -0.28730 0.62810
C23A C -0.3567(4) -0.2300(4) 0.72076(19)
H52A H -0.41060 -0.18600 0.71610
C24A C -0.3090(4) -0.2356(3) 0.77807(18)
C25A C -0.2283(4) -0.2983(3) 0.78367(18)
H53A H -0.19480 -0.30240 0.82370
C26A C -0.2098(4) -0.4208(4) 0.62386(18)
C27A C -0.3460(4) -0.1816(3) 0.83463(18)
C28A C -0.1846(3) -0.7124(3) 0.75965(14)
C29A C -0.2628(3) -0.8323(3) 0.77424(16)
H54A H -0.23060 -0.89580 0.77830
C30A C -0.3893(3) -0.8574(3) 0.78284(16)
H55A H -0.44520 -0.93920 0.79310
C31A C -0.4352(3) -0.7641(3) 0.77665(16)
C32A C -0.3490(3) -0.6453(3) 0.76154(17)
H56A H -0.37930 -0.58080 0.75610
C33A C -0.0455(3) -0.6765(3) 0.74664(16)
C34A C -0.5744(3) -0.7911(3) 0.78460(18)
C35A C 0.1678(3) -0.2598(3) 0.76545(16)
C36A C 0.2920(4) -0.1707(4) 0.76232(18)
H57A H 0.34790 -0.14110 0.79870
C37A C 0.3342(4) -0.1251(3) 0.70607(17)
H58A H 0.41960 -0.06560 0.70320
C38A C 0.2504(3) -0.1670(3) 0.65414(16)
C39A C 0.1272(3) -0.2571(3) 0.66002(17)
H59A H 0.06940 -0.28730 0.62430
C40A C 0.1118(4) -0.3157(3) 0.82487(16)
C41A C 0.2898(4) -0.1122(3) 0.59213(16)
#END
