
#######################################################################
#
#                 Cambridge Crystallographic Data Centre
#                                CCDC
#
#######################################################################
#
# If this CIF has been generated from an entry in the Cambridge
# Structural Database, then it will include bibliographic, chemical,
# crystal, experimental, refinement or atomic coordinate data resulting
# from the CCDC's data processing and validation procedures.
#
#######################################################################

data_CSD_CIF_FEQWUU
_audit_creation_date 2005-05-12
_audit_creation_method CSD-ConQuest-V1
_database_code_CSD FEQWUU
_database_code_depnum_ccdc_archive 'CCDC 244703'
_chemical_formula_sum 'C30 H14 Eu2 N2 O16'
_chemical_formula_moiety
;
(C20 H4 Eu2 O16 2-)n,n(C10 H10 N2 2+)
;
_journal_coden_Cambridge 119
_journal_volume 737
_journal_year 2005
_journal_page_first 165
_journal_name_full 'J.Mol.Struct. '
loop_
_publ_author_name
"Yi-Bo Wang"
"Wen-Juan Zhuang"
"Lin-Pei Jin"
"Shao-Zhe Lu"
_chemical_name_systematic
;
catena-(4,4'-Bipyridinium 
bis(\m~6~-benzene-1,2,4,5-tetracarboxylato)-di-europium(iii))
;
_cell_volume    686.238
_exptl_crystal_colour 'colorless'
_exptl_crystal_density_diffrn 2.329
_exptl_special_details
;
luminescent
isostructural with the Pr and Gd analogues

;
_exptl_crystal_description 'block'
_diffrn_ambient_temperature 293
#These two values have been output from a single CSD field.
_refine_ls_R_factor_gt 0.0245
_refine_ls_wR_factor_gt 0.0245
_symmetry_cell_setting triclinic
_symmetry_space_group_name_H-M 'P -1'
_symmetry_Int_Tables_number 2
loop_
_symmetry_equiv_pos_site_id
_symmetry_equiv_pos_as_xyz
1 x,y,z
2 -x,-y,-z
_cell_length_a 7.283(3)
_cell_length_b 9.935(4)
_cell_length_c 11.082(5)
_cell_angle_alpha 102.576(6)
_cell_angle_beta 105.764(7)
_cell_angle_gamma 109.146(5)
_cell_formula_units_Z 1
loop_
_atom_type_symbol
_atom_type_radius_bond
C 0.68
H 0.23
Eu 1.69
N 0.68
O 0.68
loop_
_atom_site_label
_atom_site_type_symbol
_atom_site_fract_x
_atom_site_fract_y
_atom_site_fract_z
Eu1 Eu 0.81997(3) 0.55149(2) 0.581988(18)
O1 O 0.6828(5) 0.3991(4) 0.7286(3)
O2 O 0.7673(5) 0.6452(4) 0.7890(3)
O3 O 0.0939(5) 0.5364(4) 0.7487(3)
O4 O 0.2931(4) 0.4634(4) 0.6485(3)
O5 O 0.5276(4) 0.6457(3) 0.5416(3)
O6 O 0.8441(5) 0.8094(3) 0.5825(3)
O7 O 0.1340(4) 0.6625(3) 0.5334(3)
O8 O 0.2880(7) 0.8501(4) 0.7282(4)
C1 C 0.6833(6) 0.5188(5) 0.7983(4)
C2 C 0.5820(6) 0.5068(5) 0.8999(4)
C3 C 0.6968(7) 0.5026(5) 1.0208(4)
H1 H 0.82980 0.50480 1.03490
C4 C 0.3829(7) 0.5047(5) 0.8788(4)
C5 C 0.2455(6) 0.5023(5) 0.7467(4)
C6 C 0.6523(7) 0.7748(5) 0.5518(4)
C7 C 0.5676(6) 0.8891(5) 0.5249(4)
C8 C 0.6698(7) 0.9914(5) 0.4721(4)
H2 H 0.78430 0.98520 0.45340
C9 C 0.3947(6) 0.8971(5) 0.5535(4)
C10 C 0.2687(6) 0.7963(5) 0.6137(4)
C11 C 0.7224(12) 0.1682(8) 0.9275(8)
H3 H 0.62150 0.19640 0.94760
C12 C 0.8083(11) 0.0903(8) 0.9975(7)
H4 H 0.77050 0.07060 1.06760
C13 C 0.9511(10) 0.0413(6) 0.9633(5)
C14 C 1.0057(11) 0.0759(7) 0.8581(6)
H5 H 1.09720 0.04240 0.83000
C15 C 0.9213(11) 0.1599(7) 0.7976(6)
H6 H 0.96180 0.18760 0.73080
N1 N 0.7829(9) 0.2025(6) 0.8323(5)
H7 H 0.73150 0.25390 0.79160
Eu1A Eu 0.18003(3) 0.44851(2) 1.418012(18)
Eu1* Eu -0.18003(3) 0.55149(2) 0.581988(18)
Eu1A* Eu 0.18003(3) 0.44851(2) 0.418012(18)
Eu1A** Eu 1.18003(3) 0.44851(2) 1.418012(18)
Eu1** Eu 0.81997(3) 0.55149(2) 1.581988(18)
Eu1*** Eu 0.81997(3) 1.55149(2) 0.581988(18)
Eu1A*** Eu 0.18003(3) 1.44851(2) 0.418012(18)
Eu1A**** Eu 1.18003(3) 1.44851(2) 0.418012(18)
O1A O 0.3172(5) 0.6009(4) 1.2714(3)
O2A O 0.2327(5) 0.3548(4) 1.2110(3)
O3A O 0.9061(5) 0.4636(4) 1.2513(3)
O3* O 1.0939(5) 0.5364(4) 0.7487(3)
O3A* O -0.0939(5) 0.4636(4) 1.2513(3)
O4A O 0.7069(4) 0.5366(4) 1.3515(3)
O4A* O 0.7069(4) 0.5366(4) 0.3515(3)
O4* O 0.2931(4) 0.4634(4) 1.6485(3)
O5A O 0.4724(4) 1.3543(3) 0.4584(3)
O5A* O 0.4724(4) 0.3543(3) 0.4584(3)
O5* O 0.5276(4) 0.6457(3) 1.5416(3)
O5A** O 0.4724(4) 0.3543(3) 1.4584(3)
O6A O 0.1559(5) 1.1906(3) 0.4175(3)
O6A* O 0.1559(5) 0.1906(3) 1.4175(3)
O7A O 0.8660(4) 1.3375(3) 0.4666(3)
O7* O 1.1340(4) 0.6625(3) 0.5334(3)
O7A* O 0.8660(4) 0.3375(3) 0.4666(3)
O7** O 0.1340(4) 0.6625(3) 1.5334(3)
O7A** O -0.1340(4) 0.3375(3) 1.4666(3)
O8A O 0.7120(7) 1.1499(4) 0.2718(4)
C1A C 0.3167(6) 0.4812(5) 1.2017(4)
C2A C 0.4180(6) 0.4932(5) 1.1001(4)
C3A C 0.3032(7) 0.4974(5) 0.9792(4)
H1A H 0.17020 0.49520 0.96510
C4A C 0.6171(7) 0.4953(5) 1.1212(4)
C5A C 0.7545(6) 0.4977(5) 1.2533(4)
C6A C 0.3477(7) 1.2252(5) 0.4482(4)
C7A C 0.4324(6) 1.1109(5) 0.4751(4)
C8A C 0.3302(7) 1.0086(5) 0.5279(4)
H2A H 0.21570 1.01480 0.54660
C9A C 0.6053(6) 1.1029(5) 0.4465(4)
C10A C 0.7313(6) 1.2037(5) 0.3863(4)
C11A C 1.2776(12) -0.1682(8) 1.0725(8)
H3A H 1.37850 -0.19640 1.05240
C12A C 1.1917(11) -0.0903(8) 1.0025(7)
H4A H 1.22950 -0.07060 0.93240
C13A C 1.0489(10) -0.0413(6) 1.0367(5)
C14A C 0.9943(11) -0.0759(7) 1.1419(6)
H5A H 0.90280 -0.04240 1.17000
C15A C 1.0787(11) -0.1599(7) 1.2024(6)
H6A H 1.03820 -0.18760 1.26920
N1A N 1.2171(9) -0.2025(6) 1.1677(5)
H7A H 1.26850 -0.25390 1.20840
#END
