
#######################################################################
#
#                 Cambridge Crystallographic Data Centre
#                                CCDC
#
#######################################################################
#
# If this CIF has been generated from an entry in the Cambridge
# Structural Database, then it will include bibliographic, chemical,
# crystal, experimental, refinement or atomic coordinate data resulting
# from the CCDC's data processing and validation procedures.
#
#######################################################################

data_CSD_CIF_FEQWOO
_audit_creation_date 2005-05-12
_audit_creation_method CSD-ConQuest-V1
_database_code_CSD FEQWOO
_database_code_depnum_ccdc_archive 'CCDC 244702'
_chemical_formula_sum 'C30 H14.5 N2 O16.25 Pr2'
_chemical_formula_moiety
;
(C20 H4 O16 Pr2 2-)n,n(C10 H10 N2 2+),0.25n(H2 O1)
;
_journal_coden_Cambridge 119
_journal_volume 737
_journal_year 2005
_journal_page_first 165
_journal_name_full 'J.Mol.Struct. '
loop_
_publ_author_name
"Yi-Bo Wang"
"Wen-Juan Zhuang"
"Lin-Pei Jin"
"Shao-Zhe Lu"
_chemical_name_systematic
;
catena-(4,4'-Bipyridinium 
bis(\m~6~-benzene-1,2,4,5-tetracarboxylato)-di-praseodymium(iii) hydrate)
;
_cell_volume    712.623
_exptl_crystal_colour 'light green'
_exptl_crystal_density_diffrn 2.23
_exptl_special_details
;
isostructural with the Eu and Gd analogues

;
_exptl_crystal_description 'block'
_diffrn_ambient_temperature 293
#These two values have been output from a single CSD field.
_refine_ls_R_factor_gt 0.0306
_refine_ls_wR_factor_gt 0.0306
_symmetry_cell_setting triclinic
_symmetry_space_group_name_H-M 'P -1'
_symmetry_Int_Tables_number 2
loop_
_symmetry_equiv_pos_site_id
_symmetry_equiv_pos_as_xyz
1 x,y,z
2 -x,-y,-z
_cell_length_a 7.396(2)
_cell_length_b 10.066(3)
_cell_length_c 11.205(3)
_cell_angle_alpha 101.871(5)
_cell_angle_beta 106.130(5)
_cell_angle_gamma 109.589(4)
_cell_formula_units_Z 1
loop_
_atom_type_symbol
_atom_type_radius_bond
C 0.68
H 0.23
N 0.68
O 0.68
Pr 1.73
loop_
_atom_site_label
_atom_site_type_symbol
_atom_site_fract_x
_atom_site_fract_y
_atom_site_fract_z
Pr1 Pr 0.82335(4) 0.55560(3) 0.58507(2)
O1 O 0.6882(5) 0.4020(4) 0.7367(3)
O2 O 0.7631(5) 0.6432(4) 0.7910(3)
O3 O 0.1029(5) 0.5363(4) 0.7494(3)
O4 O 0.2957(5) 0.4631(4) 0.6512(3)
O5 O 0.5254(5) 0.6475(3) 0.5397(3)
O6 O 0.8383(5) 0.8121(4) 0.5815(4)
O7 O 0.1349(5) 0.6628(3) 0.5280(3)
O8 O 0.2729(7) 0.8452(5) 0.7191(4)
C1 C 0.6815(7) 0.5173(6) 0.8019(5)
C2 C 0.5816(7) 0.5060(6) 0.9013(4)
C3 C 0.6934(7) 0.5025(6) 1.0223(4)
H1 H 0.82400 0.50350 1.03700
C4 C 0.3836(7) 0.5026(6) 0.8785(4)
C5 C 0.2502(7) 0.5017(5) 0.7481(5)
C6 C 0.6481(7) 0.7750(5) 0.5499(5)
C7 C 0.5651(7) 0.8889(5) 0.5236(5)
C8 C 0.6671(7) 0.9915(5) 0.4730(5)
H2 H 0.77950 0.98540 0.45440
C9 C 0.3931(7) 0.8959(5) 0.5511(5)
C10 C 0.2648(7) 0.7949(5) 0.6082(5)
C11 C 0.7278(16) 0.1702(10) 0.9387(11)
H3 H 0.63300 0.20010 0.96250
C12 C 0.8131(14) 0.0909(10) 1.0040(9)
H4 H 0.77900 0.06940 1.07380
C13 C 0.9516(12) 0.0424(7) 0.9653(6)
C14 C 1.0006(13) 0.0785(8) 0.8607(7)
H5 H 1.09020 0.04680 0.83190
C15 C 0.9139(14) 0.1625(8) 0.8000(7)
H6 H 0.94800 0.18920 0.73180
N1 N 0.7823(11) 0.2042(6) 0.8401(6)
H7 H 0.72950 0.25530 0.80120
O9 O 0.584(5) 0.823(3) 0.905(3)
Pr1A Pr 0.17665(4) 0.44440(3) 1.41493(2)
Pr1* Pr -0.17665(4) 0.55560(3) 0.58507(2)
Pr1A* Pr 0.17665(4) 0.44440(3) 0.41493(2)
Pr1A** Pr 1.17665(4) 0.44440(3) 1.41493(2)
Pr1** Pr 0.82335(4) 0.55560(3) 1.58507(2)
Pr1*** Pr 0.82335(4) 1.55560(3) 0.58507(2)
Pr1A*** Pr 0.17665(4) 1.44440(3) 0.41493(2)
Pr1A**** Pr 1.17665(4) 1.44440(3) 0.41493(2)
O1A O 0.3118(5) 0.5980(4) 1.2633(3)
O2A O 0.2369(5) 0.3568(4) 1.2090(3)
O3A O 0.8971(5) 0.4637(4) 1.2506(3)
O3* O 1.1029(5) 0.5363(4) 0.7494(3)
O3A* O -0.1029(5) 0.4637(4) 1.2506(3)
O4A O 0.7043(5) 0.5369(4) 1.3488(3)
O4A* O 0.7043(5) 0.5369(4) 0.3488(3)
O4* O 0.2957(5) 0.4631(4) 1.6512(3)
O5A O 0.4746(5) 1.3525(3) 0.4603(3)
O5A* O 0.4746(5) 0.3525(3) 0.4603(3)
O5* O 0.5254(5) 0.6475(3) 1.5397(3)
O5A** O 0.4746(5) 0.3525(3) 1.4603(3)
O6A O 0.1617(5) 1.1879(4) 0.4185(4)
O6A* O 0.1617(5) 0.1879(4) 1.4185(4)
O7A O 0.8651(5) 1.3372(3) 0.4720(3)
O7* O 1.1349(5) 0.6628(3) 0.5280(3)
O7A* O 0.8651(5) 0.3372(3) 0.4720(3)
O7** O 0.1349(5) 0.6628(3) 1.5280(3)
O7A** O -0.1349(5) 0.3372(3) 1.4720(3)
O8A O 0.7271(7) 1.1548(5) 0.2809(4)
C1A C 0.3185(7) 0.4827(6) 1.1981(5)
C2A C 0.4184(7) 0.4940(6) 1.0987(4)
C3A C 0.3066(7) 0.4975(6) 0.9777(4)
H1A H 0.17600 0.49650 0.96300
C4A C 0.6164(7) 0.4974(6) 1.1215(4)
C5A C 0.7498(7) 0.4983(5) 1.2519(5)
C6A C 0.3519(7) 1.2250(5) 0.4501(5)
C7A C 0.4349(7) 1.1111(5) 0.4764(5)
C8A C 0.3329(7) 1.0085(5) 0.5270(5)
H2A H 0.22050 1.01460 0.54560
C9A C 0.6069(7) 1.1041(5) 0.4489(5)
C10A C 0.7352(7) 1.2051(5) 0.3918(5)
C11A C 1.2722(16) -0.1702(10) 1.0613(11)
H3A H 1.36700 -0.20010 1.03750
C12A C 1.1869(14) -0.0909(10) 0.9960(9)
H4A H 1.22100 -0.06940 0.92620
C13A C 1.0484(12) -0.0424(7) 1.0347(6)
C14A C 0.9994(13) -0.0785(8) 1.1393(7)
H5A H 0.90980 -0.04680 1.16810
C15A C 1.0861(14) -0.1625(8) 1.2000(7)
H6A H 1.05200 -0.18920 1.26820
N1A N 1.2177(11) -0.2042(6) 1.1599(6)
H7A H 1.27050 -0.25530 1.19880
#END
