
#######################################################################
#
#                 Cambridge Crystallographic Data Centre
#                                CCDC
#
#######################################################################
#
# If this CIF has been generated from an entry in the Cambridge
# Structural Database, then it will include bibliographic, chemical,
# crystal, experimental, refinement or atomic coordinate data resulting
# from the CCDC's data processing and validation procedures.
#
#######################################################################

data_CSD_CIF_FERGUG
_audit_creation_date 2013-05-19
_audit_creation_method CSD-ConQuest-V1
_database_code_CSD FERGUG
_database_code_depnum_ccdc_archive 'CCDC 904636'
_chemical_formula_sum 'C100 H120 Cd3.5 Cl1 N8 O34'
_chemical_formula_moiety
;
(C64 H48 Cd3 O24 4-)n,0.5n(C32 H24 Cd1 O12 2+),4n(C3 H7 N1 O1),4n(C2 H8 N1 
1+),n(Cl1 1-)
;
_journal_coden_Cambridge 1350
_journal_volume 15
_journal_year 2013
_journal_page_first 3874
_journal_name_full 'CrystEngComm '
loop_
_publ_author_name
"W.W.Lestari"
"P.Lonnecke"
"M.B.Sarosi"
"H.C.Streit"
"Matthias Adlung"
"C.Wickleder"
"M.Handke"
"W.-D.Einicke"
"R.Glaser"
"E.Hey-Hawkins"
_chemical_name_systematic
;
catena-[tetrakis(diemthylammonium) 
bis(\m~4~-2,2'-Dimethoxybiphenyl-4,4'-dicarboxylato)-bis(\m~3~-2,2'-dimethoxyb
iphenyl-4,4'-dicarboxylato)-tri-lead 
bis(\m~2~-2,2'-dimethoxybiphenyl-4,4'-dicarboxylato)-cadmium chloride 
N,N-dimethylformamide solvate]
;
_cell_volume  21510.514
_exptl_crystal_colour 'pale yellow'
_exptl_crystal_density_diffrn 1.486
_exptl_crystal_description 'prism'
_diffrn_ambient_temperature 130
#These two values have been output from a single CSD field.
_refine_ls_R_factor_gt 0.0526
_refine_ls_wR_factor_gt 0.0526
_symmetry_cell_setting tetragonal
_symmetry_space_group_name_H-M 'I -4 2 d'
_symmetry_Int_Tables_number 122
loop_
_symmetry_equiv_pos_site_id
_symmetry_equiv_pos_as_xyz
1 x,y,z
2 -x,-y,z
3 y,-x,-z
4 -y,x,-z
5 1/2-x,y,3/4-z
6 1/2+x,-y,3/4-z
7 1/2-y,-x,3/4+z
8 1/2+y,x,3/4+z
9 1/2+x,1/2+y,1/2+z
10 1/2-x,1/2-y,1/2+z
11 1/2+y,1/2-x,1/2-z
12 1/2-y,1/2+x,1/2-z
13 -x,1/2+y,1/4-z
14 x,1/2-y,1/4-z
15 -y,1/2-x,1/4+z
16 y,1/2+x,1/4+z
_cell_length_a 22.3139(2)
_cell_length_b 22.3139(2)
_cell_length_c 43.2016(8)
_cell_angle_alpha 90
_cell_angle_beta 90
_cell_angle_gamma 90
_cell_formula_units_Z 8
loop_
_atom_type_symbol
_atom_type_radius_bond
C 0.68
H 0.23
Cd 1.44
Cl 0.99
N 0.68
O 0.68
loop_
_atom_site_label
_atom_site_type_symbol
_atom_site_fract_x
_atom_site_fract_y
_atom_site_fract_z
Cd1 Cd 0.50000 0.00000 0.75000
O1 O 0.5881(3) -0.0292(4) 0.77351(16)
O2 O 0.5502(4) 0.0512(4) 0.79492(15)
O3 O 0.7599(4) -0.0822(3) 0.84416(18)
C1 C 0.5891(5) 0.0122(6) 0.7938(3)
C2 C 0.6384(5) 0.0109(5) 0.8186(2)
C3 C 0.6753(5) -0.0378(5) 0.8198(2)
H1 H 0.67210 -0.07000 0.80550
C4 C 0.7198(5) -0.0372(6) 0.8444(3)
C5 C 0.7265(4) 0.0112(5) 0.86396(18)
C6 C 0.6889(5) 0.0559(5) 0.8614(2)
H2 H 0.69250 0.08880 0.87520
C7 C 0.6443(5) 0.0570(5) 0.8395(2)
H3 H 0.61740 0.08990 0.83880
C8 C 0.7438(7) -0.1365(6) 0.8301(5)
H4 H 0.77750 -0.16450 0.83120
H5 H 0.73330 -0.12930 0.80840
H6 H 0.70920 -0.15370 0.84090
Cd2 Cd 0.86572(3) 0.86809(3) 0.676095(11)
Cd3 Cd 0.86336(4) 0.75000 0.62500
O4 O 0.8249(3) 0.9113(3) 0.72291(14)
O5 O 0.9040(3) 0.9475(3) 0.70275(15)
O6 O 0.9168(3) 1.2819(3) 0.89998(14)
O7 O 0.8208(3) 1.2954(2) 0.89322(13)
O8 O 0.9575(3) 1.1256(3) 0.77114(17)
O9 O 0.7708(3) 1.1601(3) 0.80131(14)
O10 O 0.8835(3) 0.7847(3) 0.70428(13)
O11 O 0.8558(3) 0.7134(2) 0.67116(12)
O12 O 0.9164(3) 0.4147(3) 0.88151(16)
O13 O 0.8214(3) 0.4318(3) 0.88900(12)
O14 O 0.8027(4) 0.5368(4) 0.73557(19)
O15 O 0.7622(4) 0.5692(3) 0.80088(19)
C9 C 0.8667(5) 0.9480(4) 0.7224(2)
C10 C 0.8651(5) 0.9931(4) 0.7475(2)
C11 C 0.9110(5) 1.0342(5) 0.7476(2)
H7 H 0.94220 1.03120 0.73270
C12 C 0.9121(5) 1.0811(5) 0.7697(2)
C13 C 0.8690(4) 1.0848(4) 0.79227(17)
C14 C 0.8248(5) 1.0428(4) 0.7918(2)
H8 H 0.79430 1.04420 0.80710
C15 C 0.8229(4) 0.9973(4) 0.7692(2)
H9 H 0.79100 0.96920 0.76950
C16 C 0.8697(4) 1.1326(4) 0.81664(15)
C17 C 0.8186(5) 1.1695(4) 0.8213(2)
C18 C 0.8185(4) 1.2122(4) 0.84436(17)
H10 H 0.78360 1.23560 0.84790
C19 C 0.8700(5) 1.2213(4) 0.86263(17)
C20 C 0.9182(4) 1.1848(4) 0.8583(2)
H11 H 0.95290 1.18990 0.87080
C21 C 0.9172(4) 1.1404(4) 0.8361(2)
H12 H 0.95070 1.11450 0.83420
C22 C 0.8693(5) 1.2694(4) 0.88639(16)
C23 C 1.0084(5) 1.1231(5) 0.7504(3)
H13 H 1.03470 1.15740 0.75430
H14 H 0.99430 1.12440 0.72890
H15 H 1.03060 1.08580 0.75390
C24 C 0.7197(4) 1.1961(4) 0.8046(2)
H16 H 0.69040 1.18540 0.78860
H17 H 0.73090 1.23830 0.80240
H18 H 0.70210 1.18960 0.82510
C25 C 0.8700(4) 0.7316(4) 0.6970(2)
C26 C 0.8697(4) 0.6851(4) 0.72214(17)
C27 C 0.8393(4) 0.6326(4) 0.71771(18)
H19 H 0.81910 0.62570 0.69870
C28 C 0.8376(5) 0.5900(4) 0.7403(2)
C29 C 0.8681(4) 0.5975(4) 0.7672(2)
C30 C 0.9026(6) 0.6473(5) 0.7707(2)
H20 H 0.92810 0.65060 0.78820
C31 C 0.9012(5) 0.6934(5) 0.7490(2)
H21 H 0.92180 0.72990 0.75280
C32 C 0.8664(5) 0.5532(4) 0.79440(19)
C33 C 0.8143(4) 0.5424(4) 0.8112(2)
C34 C 0.8152(4) 0.5039(4) 0.83599(18)
H22 H 0.77910 0.49590 0.84700
C35 C 0.8672(4) 0.4771(4) 0.84504(17)
C36 C 0.9188(4) 0.4848(4) 0.8271(2)
H23 H 0.95440 0.46350 0.83200
C37 C 0.9177(4) 0.5233(4) 0.8022(2)
H24 H 0.95310 0.52920 0.79030
C38 C 0.8662(5) 0.4381(4) 0.8740(2)
C39 C 0.7679(7) 0.5331(7) 0.7090(3)
H25 H 0.74760 0.49420 0.70840
H26 H 0.79370 0.53720 0.69070
H27 H 0.73800 0.56530 0.70900
C40 C 0.7049(5) 0.5535(7) 0.8142(4)
H28 H 0.67300 0.57540 0.80340
H29 H 0.70460 0.56420 0.83620
H30 H 0.69820 0.51030 0.81200
Cl1 Cl 0.8289(11) 0.8134(10) 0.7685(6)
O16 O 0.0981(10) 0.3029(9) 0.9408(5)
N1 N 0.2049(10) 0.2915(7) 0.9469(6)
C41 C 0.2111(12) 0.2899(13) 0.9799(5)
H31 H 0.25340 0.28480 0.98530
H32 H 0.18790 0.25630 0.98820
H33 H 0.19620 0.32750 0.98870
C42 C 0.2664(11) 0.2858(12) 0.9318(6)
H34 H 0.29710 0.28270 0.94800
H35 H 0.27420 0.32130 0.91910
H36 H 0.26740 0.24990 0.91880
C43 C 0.1515(11) 0.2969(8) 0.9285(6)
H37 H 0.15510 0.29600 0.90660
O17 O 0.4368(6) 0.1470(8) 0.8482(4)
N2 N 0.4223(6) 0.1006(8) 0.8916(4)
C44 C 0.4091(13) 0.1610(9) 0.9047(5)
H38 H 0.39890 0.15710 0.92660
H39 H 0.37520 0.17880 0.89350
H40 H 0.44430 0.18680 0.90240
C45 C 0.4172(9) 0.0506(8) 0.9139(4)
H41 H 0.40560 0.06640 0.93420
H42 H 0.45600 0.03020 0.91570
H43 H 0.38680 0.02220 0.90670
C46 C 0.4392(8) 0.0942(10) 0.8616(4)
H44 H 0.45070 0.05780 0.85190
N3 N 0.4772(6) 0.1583(6) 0.7860(3)
H45 H 0.46270 0.15200 0.80570
H46 H 0.48950 0.12190 0.77830
C47 C 0.5269(7) 0.1968(9) 0.7877(5)
H47 H 0.55860 0.17800 0.80000
H48 H 0.51490 0.23460 0.79740
H49 H 0.54180 0.20490 0.76670
C48 C 0.4266(6) 0.1823(6) 0.7657(3)
H50 H 0.39140 0.15630 0.76770
H51 H 0.43970 0.18310 0.74410
H52 H 0.41620 0.22300 0.77240
N4 N 0.0374(7) 0.3627(7) 0.8957(4)
H53 H 0.05300 0.33940 0.91130
H54 H -0.00370 0.36020 0.89690
C49 C 0.0555(9) 0.4266(8) 0.9013(4)
H55 H 0.04520 0.43800 0.92260
H56 H 0.03430 0.45280 0.88680
H57 H 0.09880 0.43070 0.89820
C50 C 0.0567(12) 0.3375(9) 0.8656(5)
H58 H 0.04260 0.29600 0.86390
H59 H 0.10060 0.33830 0.86440
H60 H 0.03980 0.36140 0.84870
O1D O 0.9119(3) -0.0292(4) 0.97649(16)
O2D O 0.9498(4) 0.0512(4) 0.95508(15)
O3D O 0.7401(4) -0.0822(3) 0.90584(18)
C1D C 0.9109(5) 0.0122(6) 0.9562(3)
C2D C 0.8616(5) 0.0109(5) 0.9314(2)
C3D C 0.8247(5) -0.0378(5) 0.9302(2)
H1D H 0.82790 -0.07000 0.94450
C4D C 0.7802(5) -0.0372(6) 0.9056(3)
C5D C 0.7735(4) 0.0112(5) 0.88604(18)
C6D C 0.8111(5) 0.0559(5) 0.8886(2)
H2D H 0.80750 0.08880 0.87480
C7D C 0.8557(5) 0.0570(5) 0.9105(2)
H3D H 0.88260 0.08990 0.91120
C8D C 0.7562(7) -0.1365(6) 0.9199(5)
H4D H 0.72250 -0.16450 0.91880
H5D H 0.76670 -0.12930 0.94160
H6D H 0.79080 -0.15370 0.90910
O1A O 0.4119(3) 0.0292(4) 0.77351(16)
O2A O 0.4498(4) -0.0512(4) 0.79492(15)
O3A O 0.2401(4) 0.0822(3) 0.84416(18)
C1A C 0.4109(5) -0.0122(6) 0.7938(3)
C2A C 0.3616(5) -0.0109(5) 0.8186(2)
C3A C 0.3247(5) 0.0378(5) 0.8198(2)
H1A H 0.32790 0.07000 0.80550
C4A C 0.2802(5) 0.0372(6) 0.8444(3)
C5A C 0.2735(4) -0.0112(5) 0.86396(18)
C6A C 0.3111(5) -0.0559(5) 0.8614(2)
H2A H 0.30750 -0.08880 0.87520
C7A C 0.3557(5) -0.0570(5) 0.8395(2)
H3A H 0.38260 -0.08990 0.83880
C8A C 0.2562(7) 0.1365(6) 0.8301(5)
H4A H 0.22250 0.16450 0.83120
H5A H 0.26670 0.12930 0.80840
H6A H 0.29080 0.15370 0.84090
O1E O 0.0881(3) 0.0292(4) 0.97649(16)
O2E O 0.0502(4) -0.0512(4) 0.95508(15)
O3E O 0.2599(4) 0.0822(3) 0.90584(18)
C1E C 0.0891(5) -0.0122(6) 0.9562(3)
C2E C 0.1384(5) -0.0109(5) 0.9314(2)
C3E C 0.1753(5) 0.0378(5) 0.9302(2)
H1E H 0.17210 0.07000 0.94450
C4E C 0.2198(5) 0.0372(6) 0.9056(3)
C5E C 0.2265(4) -0.0112(5) 0.88604(18)
C6E C 0.1889(5) -0.0559(5) 0.8886(2)
H2E H 0.19250 -0.08880 0.87480
C7E C 0.1443(5) -0.0570(5) 0.9105(2)
H3E H 0.11740 -0.08990 0.91120
C8E C 0.2438(7) 0.1365(6) 0.9199(5)
H4E H 0.27750 0.16450 0.91880
H5E H 0.23330 0.12930 0.94160
H6E H 0.20920 0.15370 0.90910
Cd1D Cd 0.00000 0.00000 1.00000
Cd1D* Cd 1.00000 0.00000 1.00000
O1J O 0.4708(3) -0.0881(4) 0.72649(16)
O1K O 0.5292(3) 0.0881(4) 0.72649(16)
O2J O 0.5512(4) -0.0502(4) 0.70508(15)
O2K O 0.4488(4) 0.0502(4) 0.70508(15)
Cd2J Cd 0.36809(3) 0.63428(3) 0.823905(11)
O4J O 0.4113(3) 0.6751(3) 0.77709(14)
O5J O 0.4475(3) 0.5960(3) 0.79725(15)
O6J O 0.7819(3) 0.5832(3) 0.60002(14)
O7J O 0.7954(3) 0.6792(2) 0.60678(13)
O8J O 0.6256(3) 0.5425(3) 0.72886(17)
O9J O 0.6601(3) 0.7292(3) 0.69869(14)
O10J O 0.2847(3) 0.6165(3) 0.79572(13)
O11J O 0.2134(3) 0.6442(2) 0.82884(12)
O12J O -0.0853(3) 0.5836(3) 0.61849(16)
O13J O -0.0682(3) 0.6786(3) 0.61100(12)
O14J O 0.0368(4) 0.6973(4) 0.76443(19)
O15J O 0.0692(4) 0.7378(3) 0.69912(19)
C9J C 0.4480(5) 0.6333(4) 0.7776(2)
C10J C 0.4931(5) 0.6349(4) 0.7525(2)
C11J C 0.5342(5) 0.5890(5) 0.7524(2)
H7J H 0.53120 0.55780 0.76730
C12J C 0.5811(5) 0.5879(5) 0.7303(2)
C13J C 0.5848(4) 0.6310(4) 0.70773(17)
C14J C 0.5428(5) 0.6752(4) 0.7082(2)
H8J H 0.54420 0.70570 0.69290
C15J C 0.4973(4) 0.6771(4) 0.7308(2)
H9J H 0.46920 0.70900 0.73050
C16J C 0.6326(4) 0.6303(4) 0.68336(15)
C17J C 0.6695(5) 0.6814(4) 0.6787(2)
C18J C 0.7122(4) 0.6815(4) 0.65564(17)
H10J H 0.73560 0.71640 0.65210
C19J C 0.7213(5) 0.6300(4) 0.63737(17)
C20J C 0.6848(4) 0.5818(4) 0.6417(2)
H11J H 0.68990 0.54710 0.62920
C21J C 0.6404(4) 0.5828(4) 0.6639(2)
H12J H 0.61450 0.54930 0.66580
C22J C 0.7694(5) 0.6307(4) 0.61361(16)
C23J C 0.6231(5) 0.4916(5) 0.7496(3)
H13J H 0.65740 0.46530 0.74570
H14J H 0.62440 0.50570 0.77110
H15J H 0.58580 0.46940 0.74610
C24J C 0.6961(4) 0.7803(4) 0.6954(2)
H16J H 0.68540 0.80960 0.71140
H17J H 0.73830 0.76910 0.69760
H18J H 0.68960 0.79790 0.67490
C25J C 0.2316(4) 0.6300(4) 0.8030(2)
C26J C 0.1851(4) 0.6303(4) 0.77786(17)
C27J C 0.1326(4) 0.6607(4) 0.78229(18)
H19J H 0.12570 0.68090 0.80130
C28J C 0.0900(5) 0.6624(4) 0.7597(2)
C29J C 0.0975(4) 0.6319(4) 0.7328(2)
C30J C 0.1473(6) 0.5974(5) 0.7293(2)
H20J H 0.15060 0.57190 0.71180
C31J C 0.1934(5) 0.5988(5) 0.7510(2)
H21J H 0.22990 0.57820 0.74720
C32J C 0.0532(5) 0.6336(4) 0.70560(19)
C33J C 0.0424(4) 0.6857(4) 0.6888(2)
C34J C 0.0039(4) 0.6848(4) 0.66401(18)
H22J H -0.00410 0.72090 0.65300
C35J C -0.0229(4) 0.6328(4) 0.65496(17)
C36J C -0.0152(4) 0.5812(4) 0.6729(2)
H23J H -0.03650 0.54560 0.66800
C37J C 0.0233(4) 0.5823(4) 0.6978(2)
H24J H 0.02920 0.54690 0.70970
C38J C -0.0619(5) 0.6338(4) 0.6260(2)
C39J C 0.0331(7) 0.7321(7) 0.7910(3)
H25J H -0.00580 0.75240 0.79160
H26J H 0.03720 0.70630 0.80930
H27J H 0.06530 0.76200 0.79100
C40J C 0.0535(5) 0.7951(7) 0.6858(4)
H28J H 0.07540 0.82700 0.69660
H29J H 0.06420 0.79540 0.66380
H30J H 0.01030 0.80180 0.68800
Cd2M Cd -0.13428(3) 0.63191(3) 0.573905(11)
Cd2M* Cd 0.86572(3) 0.63191(3) 0.573905(11)
Cd2O Cd 0.86809(3) 0.36572(3) 0.926095(11)
Cd2O* Cd 0.86809(3) 1.36572(3) 0.926095(11)
Cd3* Cd -0.13664(4) 0.75000 0.62500
Cd3J Cd 0.25000(4) 0.63664 0.87500
Cd3K Cd 0.75000(4) 0.36336 0.87500
Cd3K* Cd 0.75000(4) 1.36336 0.87500
O6E O 0.4168(3) 0.7181(3) 0.85002(14)
O6G O 0.7819(3) 0.9168(3) 0.64998(14)
O7E O 0.3208(3) 0.7046(2) 0.85678(13)
O7G O 0.7954(3) 0.8208(2) 0.64322(13)
O11M O 0.8558(3) 0.7866(2) 0.57884(12)
O12E O 0.4164(3) 0.5853(3) 0.86849(16)
O12G O 0.9147(3) 0.9164(3) 0.63151(16)
O13E O 0.3214(3) 0.5682(3) 0.86100(12)
O13G O 0.9318(3) 0.8214(3) 0.63900(12)
O13J* O 0.9318(3) 0.6786(3) 0.61100(12)
#END
