
#######################################################################
#
#                 Cambridge Crystallographic Data Centre
#                                CCDC
#
#######################################################################
#
# If this CIF has been generated from an entry in the Cambridge
# Structural Database, then it will include bibliographic, chemical,
# crystal, experimental, refinement or atomic coordinate data resulting
# from the CCDC's data processing and validation procedures.
#
#######################################################################

data_CSD_CIF_FERWOR
_audit_creation_date 2017-11-14
_audit_creation_method CSD-ConQuest-V1
_database_code_CSD FERWOR
_database_code_depnum_ccdc_archive 'CCDC 1511511'
_chemical_formula_sum 'C14 H34 In2 N4 O23 S3'
_chemical_formula_moiety
;
C10 H28 N4 4+,(C4 H4 In2 O22 S3 4-)n,H2 O1
;
_journal_coden_Cambridge 1295
_journal_volume 85
_journal_year 2017
_journal_page_first 96
_journal_name_full 'Inorg.Chem.Commun. '
loop_
_publ_author_name
"Caihong Guo"
"Cheng Chen"
"Kangcai Wang"
"Hongmei Zeng"
"Zhien Lin"
_chemical_name_systematic
;
catena-[1,4-bis(3-azaniumylpropyl)piperazinediium 
(\m-sulfato)-bis(\m-oxalato)-disulfato-diaqua-di-indium(iii) monohydrate]
;
_cell_volume   2898.962
_exptl_crystal_colour 'colorless'
_exptl_crystal_density_diffrn 2.182
_exptl_crystal_description 'block'
_diffrn_ambient_temperature 292.9
#These two values have been output from a single CSD field.
_refine_ls_R_factor_gt 0.0462
_refine_ls_wR_factor_gt 0.0462
_symmetry_cell_setting monoclinic
_symmetry_space_group_name_H-M 'I 2/a'
_symmetry_Int_Tables_number 15
loop_
_symmetry_equiv_pos_site_id
_symmetry_equiv_pos_as_xyz
1 x,y,z
2 1/2-x,y,-z
3 1/2+x,1/2+y,1/2+z
4 -x,1/2+y,1/2-z
5 -x,-y,-z
6 -1/2+x,-y,z
7 -1/2-x,-1/2-y,-1/2-z
8 x,-1/2-y,-1/2+z
_cell_length_a 13.8931(3)
_cell_length_b 14.6792(2)
_cell_length_c 15.2418(3)
_cell_angle_alpha 90
_cell_angle_beta 111.153(2)
_cell_angle_gamma 90
_cell_formula_units_Z 4
loop_
_atom_type_symbol
_atom_type_radius_bond
C 0.68
H 0.23
In 1.42
N 0.68
O 0.68
S 1.02
loop_
_atom_site_label
_atom_site_type_symbol
_atom_site_fract_x
_atom_site_fract_y
_atom_site_fract_z
In1 In 0.31974(2) 0.58673(2) 0.36279(2)
S1 S 0.25000 0.72972(10) 0.50000
S2 S 0.40707(8) 0.46929(8) 0.22129(8)
O1 O 0.3262(3) 0.6689(2) 0.4805(2)
O2 O 0.3055(3) 0.7849(3) 0.5815(3)
O3 O 0.3212(3) 0.5072(3) 0.2480(2)
O4 O 0.3630(3) 0.3999(3) 0.1500(3)
O5 O 0.4537(3) 0.5435(3) 0.1868(3)
O6 O 0.4848(3) 0.4289(3) 0.3067(3)
O7 O 0.3699(3) 0.4717(2) 0.4660(2)
O8 O 0.5070(3) 0.4045(2) 0.5697(3)
O9 O 0.1818(2) 0.6532(2) 0.2593(2)
O10 O 0.1252(3) 0.7832(2) 0.1822(2)
O11 O 0.1804(3) 0.5095(2) 0.3595(3)
H1 H 0.18470 0.49650 0.41620
H2 H 0.17480 0.45910 0.32850
C1 C 0.4651(4) 0.4643(3) 0.5102(3)
C2 C 0.1948(3) 0.7318(3) 0.2330(3)
O12 O 0.6668(16) 0.6894(17) 0.4202(13)
H3 H 0.60410 0.67230 0.39960
H4 H 0.67430 0.73350 0.45820
C3 C 0.6074(4) 0.7046(4) 0.2159(4)
H5 H 0.60820 0.63920 0.22530
H6 H 0.66450 0.73050 0.26740
C4 C 0.6228(5) 0.7238(4) 0.1257(5)
H7 H 0.68690 0.69570 0.12830
H8 H 0.63030 0.78910 0.12060
C5 C 0.5364(5) 0.6906(4) 0.0366(5)
H9 H 0.47430 0.72520 0.02830
H10 H 0.55600 0.70250 -0.01730
C6 C 0.4245(4) 0.5667(4) -0.0484(4)
H11 H 0.44280 0.57930 -0.10290
H12 H 0.36540 0.60410 -0.05290
C7 C 0.6041(4) 0.5326(4) 0.0489(4)
H13 H 0.66000 0.54690 0.10730
H14 H 0.62780 0.54450 -0.00260
N1 N 0.5089(4) 0.7422(3) 0.2183(4)
H15 H 0.45670 0.72330 0.16790
H16 H 0.51150 0.80280 0.21840
H17 H 0.49960 0.72310 0.27010
N2 N 0.5132(4) 0.5914(3) 0.0390(3)
H18 H 0.49260 0.58030 0.09320
O1A O 0.1738(3) 0.6689(2) 0.5195(2)
O2A O 0.1945(3) 0.7849(3) 0.4185(3)
O7D O 0.6301(3) 0.5283(2) 0.5340(2)
O8D O 0.4930(3) 0.5955(2) 0.4303(3)
C1D C 0.5349(4) 0.5357(3) 0.4898(3)
O9F O 0.3182(2) 0.8468(2) 0.2407(2)
O10F O 0.3748(3) 0.7168(2) 0.3178(2)
C2F C 0.3052(3) 0.7682(3) 0.2670(3)
In1A In 0.18026(2) 0.58673(2) 0.63721(2)
S2A S 0.09293(8) 0.46929(8) 0.77871(8)
O3A O 0.1788(3) 0.5072(3) 0.7520(2)
O4A O 0.1370(3) 0.3999(3) 0.8500(3)
O5A O 0.0463(3) 0.5435(3) 0.8132(3)
O6A O 0.0152(3) 0.4289(3) 0.6933(3)
O11A O 0.3196(3) 0.5095(2) 0.6405(3)
H1A H 0.31530 0.49650 0.58380
H2A H 0.32520 0.45910 0.67150
In1D In 0.68026(2) 0.41327(2) 0.63721(2)
In1F In 0.18026(2) 0.91327(2) 0.13721(2)
O7A O 0.1301(3) 0.4717(2) 0.5340(2)
O8E O 0.0070(3) 0.5955(2) 0.5697(3)
O9A O 0.3182(2) 0.6532(2) 0.7407(2)
O10G O 0.1252(3) 0.7168(2) 0.6822(2)
C3D C 0.3926(4) 0.2954(4) -0.2159(4)
H5D H 0.39180 0.36080 -0.22530
H6D H 0.33550 0.26950 -0.26740
C4D C 0.3772(5) 0.2762(4) -0.1257(5)
H7D H 0.31310 0.30430 -0.12830
H8D H 0.36970 0.21090 -0.12060
C5D C 0.4636(5) 0.3094(4) -0.0366(5)
H9D H 0.52570 0.27480 -0.02830
H10D H 0.44400 0.29750 0.01730
C6D C 0.5755(4) 0.4333(4) 0.0484(4)
H11D H 0.55720 0.42070 0.10290
H12D H 0.63460 0.39590 0.05290
C7D C 0.3959(4) 0.4674(4) -0.0489(4)
H13D H 0.34000 0.45310 -0.10730
H14D H 0.37220 0.45550 0.00260
N1D N 0.4911(4) 0.2578(3) -0.2183(4)
H15D H 0.54330 0.27670 -0.16790
H16D H 0.48850 0.19720 -0.21840
H17D H 0.50040 0.27690 -0.27010
N2D N 0.4868(4) 0.4086(3) -0.0390(3)
H18D H 0.50740 0.41970 -0.09320
#END
