
#######################################################################
#
#                 Cambridge Crystallographic Data Centre
#                                CCDC
#
#######################################################################
#
# If this CIF has been generated from an entry in the Cambridge
# Structural Database, then it will include bibliographic, chemical,
# crystal, experimental, refinement or atomic coordinate data resulting
# from the CCDC's data processing and validation procedures.
#
#######################################################################

data_CSD_CIF_FESBEM
_audit_creation_date 2013-05-19
_audit_creation_method CSD-ConQuest-V1
_database_code_CSD FESBEM
_database_code_depnum_ccdc_archive 'CCDC 903970'
_chemical_formula_sum 'C40 H29 N2 O19 Zn3'
_chemical_formula_moiety
;
(C32 H17 O18 Zn3 1-)n,0.5n(C16 H20 N4 2+),n(H2 O1)
;
_journal_coden_Cambridge 1147
_journal_volume 13
_journal_year 2013
_journal_page_first 792
_journal_name_full 'Cryst.Growth Des. '
loop_
_publ_author_name
"Xiutang Zhang"
"Liming Fan"
"Zhong Sun"
"Wei Zhang"
"Dacheng Li"
"Jianmin Dou"
"Lei Han"
_chemical_name_systematic
;
catena-((\m~9~-3,3',5,5'-Biphenyltetracarboxylato)-(\m~6~-hydrogen 
3,3',5,5'-biphenyltetracarboxylato)-diaqua-tri-zinc 
hemikis(4,4'-bis(2-methylimidazol-3-ium-1-yl)benzene) monohydrate)
;
_cell_volume   1887.625
_exptl_crystal_colour 'yellow'
_exptl_crystal_density_diffrn 1.826
_exptl_crystal_description 'block'
_diffrn_ambient_temperature 296
#These two values have been output from a single CSD field.
_refine_ls_R_factor_gt 0.0673
_refine_ls_wR_factor_gt 0.0673
_symmetry_cell_setting triclinic
_symmetry_space_group_name_H-M 'P -1'
_symmetry_Int_Tables_number 2
loop_
_symmetry_equiv_pos_site_id
_symmetry_equiv_pos_as_xyz
1 x,y,z
2 -x,-y,-z
_cell_length_a 11.360(3)
_cell_length_b 11.799(4)
_cell_length_c 16.350(5)
_cell_angle_alpha 74.017(6)
_cell_angle_beta 82.914(6)
_cell_angle_gamma 63.634(6)
_cell_formula_units_Z 2
loop_
_atom_type_symbol
_atom_type_radius_bond
C 0.68
H 0.23
N 0.68
O 0.68
Zn 1.22
loop_
_atom_site_label
_atom_site_type_symbol
_atom_site_fract_x
_atom_site_fract_y
_atom_site_fract_z
C1 C 0.0736(7) 0.7110(6) 0.3968(4)
C2 C -0.0544(6) 0.7002(6) 0.3987(4)
C3 C -0.0515(6) 0.5821(6) 0.4025(4)
H1 H 0.02880 0.50930 0.40490
C4 C -0.1690(7) 0.5697(6) 0.4030(4)
C5 C -0.2867(7) 0.6790(6) 0.4010(4)
H2 H -0.36510 0.67210 0.40080
C6 C -0.2905(6) 0.8008(6) 0.3993(4)
C7 C -0.1733(6) 0.8090(6) 0.3987(4)
H3 H -0.17370 0.88810 0.39830
C8 C -0.1718(7) 0.4424(6) 0.4077(4)
C9 C -0.4230(6) 0.9122(7) 0.4006(4)
C10 C -0.5258(6) 0.8824(6) 0.4411(4)
H4 H -0.50880 0.79590 0.46690
C11 C -0.6531(6) 0.9802(7) 0.4434(4)
C12 C -0.6774(6) 1.1087(7) 0.4050(4)
H5 H -0.76260 1.17430 0.40340
C13 C -0.5766(7) 1.1399(6) 0.3694(4)
C14 C -0.4500(6) 1.0415(6) 0.3660(4)
H6 H -0.38300 1.06370 0.34000
C15 C -0.5983(8) 1.2808(7) 0.3345(4)
C16 C -0.7576(6) 0.9396(7) 0.4841(4)
C17 C 0.1499(7) 0.8317(7) 0.7135(5)
C18 C 0.1614(7) 0.8822(7) 0.7862(5)
C19 C 0.2629(7) 0.8002(6) 0.8431(4)
H7 H 0.32150 0.72000 0.83310
C20 C 0.2804(7) 0.8313(7) 0.9122(5)
C21 C 0.1902(7) 0.9552(7) 0.9281(5)
H8 H 0.19690 0.97750 0.97710
C22 C 0.0935(7) 1.0398(7) 0.8687(5)
C23 C 0.0769(6) 1.0028(6) 0.7988(4)
H9 H 0.00870 1.05960 0.76080
C24 C -0.0021(7) 1.1705(7) 0.8819(6)
C25 C 0.3944(6) 0.7405(6) 0.9709(4)
C26 C 0.5119(7) 0.6645(6) 0.9359(4)
H10 H 0.51760 0.67560 0.87720
C27 C 0.6205(6) 0.5729(7) 0.9853(5)
C28 C 0.6101(7) 0.5547(6) 1.0739(4)
H11 H 0.68280 0.49700 1.10810
C29 C 0.4930(7) 0.6218(6) 1.1100(4)
C30 C 0.3822(7) 0.7180(6) 1.0586(5)
H12 H 0.30350 0.76460 1.08360
C31 C 0.7415(7) 0.4895(7) 0.9419(5)
C32 C 0.4761(8) 0.5879(6) 1.2048(5)
Zn1 Zn 0.07262(9) 0.83244(9) 0.54857(6)
Zn2 Zn 0.39331(10) 0.61703(10) 0.64010(7)
Zn3 Zn 0.20368(10) 0.55884(10) 0.24711(7)
O1 O 0.1683(4) 0.6321(4) 0.3630(3)
O2 O -0.0825(6) 1.2461(5) 0.8234(4)
O3 O 0.0348(7) 0.5111(7) 0.2416(5)
O4 O -0.0634(5) 0.3491(4) 0.3978(3)
O5 O -0.2776(4) 0.4359(4) 0.4229(3)
O6 O -0.4971(5) 1.3011(5) 0.3186(4)
O7 O -0.7143(5) 1.3640(5) 0.3248(3)
O8 O -0.8757(5) 1.0201(5) 0.4716(3)
O9 O -0.7268(5) 0.8244(5) 0.5283(3)
O10 O 0.0795(4) 0.7958(5) 0.4263(3)
O11 O 0.0083(5) 1.2017(5) 0.9473(4)
O12 O 0.0533(5) 0.9063(5) 0.6612(3)
O13 O 0.2295(5) 0.7212(5) 0.7086(3)
O14 O 0.5665(5) 0.5112(6) 0.5705(4)
O15 O 0.5796(5) 0.5397(4) 1.2495(3)
H13 H 0.64230 0.57230 1.23420
O16 O 0.3682(5) 0.6036(5) 1.2360(3)
O17 O 0.8344(5) 0.4020(6) 0.9893(4)
O18 O 0.7368(5) 0.5149(5) 0.8637(3)
H14 H 0.582(4) 0.434(2) 0.577(5)
H15 H 0.620(6) 0.533(5) 0.541(6)
H16 H -0.029(5) 0.563(4) 0.212(5)
H17 H 0.039(6) 0.437(3) 0.260(7)
C33 C 0.5492(12) 0.9448(11) 0.8332(6)
H18 H 0.59140 0.85100 0.83980
H19 H 0.46710 0.97990 0.80310
C34 C 0.5215(12) 0.9745(11) 0.9211(6)
C35 C 0.4124(11) 1.0772(12) 0.9338(6)
H20 H 0.35340 1.13020 0.88940
C36 C 0.6135(11) 0.8946(11) 0.9861(6)
H21 H 0.69000 0.82430 0.97650
C37 C 0.8366(11) 0.7922(8) 0.7895(7)
H22 H 0.79170 0.75150 0.77070
H23 H 0.84480 0.76410 0.85030
H24 H 0.92250 0.76780 0.76420
C38 C 0.7624(10) 0.9330(9) 0.7641(5)
C39 C 0.7027(8) 1.1437(8) 0.7094(6)
H25 H 0.70810 1.22100 0.68050
C40 C 0.5999(9) 1.1341(9) 0.7484(5)
H26 H 0.51820 1.20270 0.75180
N1 N 0.8031(7) 1.0196(7) 0.7183(4)
H27 H 0.88050 1.00150 0.69700
N2 N 0.6343(8) 1.0027(7) 0.7840(4)
O19 O 0.7810(15) 0.6310(15) 0.1876(7)
H28 H 0.829(7) 0.560(4) 0.217(5)
H29 H 0.736(13) 0.685(7) 0.214(5)
Zn1* Zn -0.92738(9) 0.83244(9) 0.54857(6)
Zn1A Zn -1.07262(9) 1.16756(9) 0.45143(6)
Zn1A* Zn -0.07262(9) 0.16756(9) 0.45143(6)
Zn2* Zn -0.60669(10) 0.61703(10) 0.64010(7)
Zn2A Zn -0.39331(10) 0.38297(10) 0.35990(7)
Zn2A* Zn -0.39331(10) 1.38297(10) 0.35990(7)
Zn2A** Zn 0.60669(10) 0.38297(10) 1.35990(7)
Zn3* Zn -0.79632(10) 1.55884(10) 0.24711(7)
Zn3** Zn 0.20368(10) 0.55884(10) 1.24711(7)
Zn3A Zn -0.20368(10) 1.44116(10) 0.75289(7)
Zn3A* Zn 0.79632(10) 0.44116(10) 0.75289(7)
O2A O 0.0825(6) 0.7539(5) 0.1766(4)
O4A O 0.0634(5) 0.6509(4) 0.6022(3)
O5A O 0.2776(4) 0.5641(4) 0.5771(3)
O6A O 0.4971(5) 0.6989(5) 0.6814(4)
O7* O 0.2857(5) 0.3640(5) 0.3248(3)
O8* O 0.1243(5) 1.0201(5) 0.4716(3)
O8A O -0.1243(5) 0.9799(5) 0.5284(3)
O9* O 0.2732(5) 0.8244(5) 0.5283(3)
O15A O 0.4204(5) 0.4603(4) 0.7505(3)
O16* O 0.3682(5) 0.6036(5) 0.2360(3)
O18A O 0.2632(5) 0.4851(5) 0.1363(3)
C33A C 0.4508(12) 1.0552(11) 1.1668(6)
H18A H 0.40860 1.14900 1.16020
H19A H 0.53290 1.02010 1.19690
C34A C 0.4785(12) 1.0255(11) 1.0789(6)
C35A C 0.5876(11) 0.9228(12) 1.0662(6)
H20A H 0.64660 0.86980 1.11060
C36A C 0.3865(11) 1.1054(11) 1.0139(6)
H21A H 0.31000 1.17570 1.02350
C37A C 0.1634(11) 1.2078(8) 1.2105(7)
H22A H 0.20830 1.24850 1.22930
H23A H 0.15520 1.23590 1.14970
H24A H 0.07750 1.23220 1.23580
C38A C 0.2376(10) 1.0670(9) 1.2359(5)
C39A C 0.2973(8) 0.8563(8) 1.2906(6)
H25A H 0.29190 0.77900 1.31950
C40A C 0.4001(9) 0.8659(9) 1.2516(5)
H26A H 0.48180 0.79730 1.24820
N1A N 0.1969(7) 0.9804(7) 1.2817(4)
H27A H 0.11950 0.99850 1.30300
N2A N 0.3657(8) 0.9973(7) 1.2160(4)
#END
