
#######################################################################
#
#                 Cambridge Crystallographic Data Centre
#                                CCDC
#
#######################################################################
#
# If this CIF has been generated from an entry in the Cambridge
# Structural Database, then it will include bibliographic, chemical,
# crystal, experimental, refinement or atomic coordinate data resulting
# from the CCDC's data processing and validation procedures.
#
#######################################################################

data_CSD_CIF_FETBIQ
_audit_creation_date 2005-05-23
_audit_creation_method CSD-ConQuest-V1
_database_code_CSD FETBIQ
_database_code_depnum_ccdc_archive 'CCDC 245647'
_chemical_formula_sum 'C6 H13 Fe2 N1 O11 P2'
_chemical_formula_moiety
;
(H4 N1 1+)n,n(C6 H9 Fe2 O11 P2 1-)
;
_journal_coden_Cambridge 208
_journal_volume 178
_journal_year 2005
_journal_page_first 306
_journal_name_full 'J.Solid State Chem. '
loop_
_publ_author_name
"A.Anillo"
"A.Altomare"
"A.G.G.Moliterni"
"E.M.Bauer"
"C.Bellitto"
"M.Colapietro"
"G.Portalone"
"G.Righini"
_chemical_name_systematic
;
catena-(Ammonium 
bis(\m~4~-carboxyethylphosphonato)-(\m~2~-hydroxo)-di-iron(iii))
;
_cell_volume    713.129
_exptl_crystal_colour 'green-yellow'
_exptl_crystal_density_diffrn 2.067
_exptl_crystal_description 'cubic'
_diffrn_ambient_temperature 298
_diffrn_special_details
;
twinned crystal

;
#These two values have been output from a single CSD field.
_refine_ls_R_factor_gt 0.1347
_refine_ls_wR_factor_gt 0.1347
_symmetry_cell_setting monoclinic
_symmetry_space_group_name_H-M 'P c'
_symmetry_Int_Tables_number 7
loop_
_symmetry_equiv_pos_site_id
_symmetry_equiv_pos_as_xyz
1 x,y,z
2 x,-y,1/2+z
_cell_length_a 7.193(3)
_cell_length_b 9.776(3)
_cell_length_c 10.17(4)
_cell_angle_alpha 90
_cell_angle_beta 94.3(2)
_cell_angle_gamma 90
_cell_formula_units_Z 2
loop_
_atom_type_symbol
_atom_type_radius_bond
C 0.68
H 0.23
Fe 1.34
N 0.68
O 0.68
P 1.05
loop_
_atom_site_label
_atom_site_type_symbol
_atom_site_fract_x
_atom_site_fract_y
_atom_site_fract_z
Fe1 Fe 1.4982(7) -0.3997(6) -1.0379(5)
Fe2 Fe 0.4623(7) 0.1161(6) -1.3249(5)
P1 P 2.2902(15) -0.5951(11) -1.2723(11)
P2 P 1.2845(16) -0.1175(11) -1.1232(12)
O1 O 1.730(4) -0.395(3) -1.164(3)
O2 O 1.734(4) -0.520(3) -0.993(3)
O3 O 0.655(4) 0.145(3) -1.156(3)
O4 O 0.723(4) -0.006(3) -1.309(3)
O5 O 2.412(4) -0.557(3) -1.152(3)
O6 O 2.349(4) -0.530(3) -1.394(3)
O7 O 2.277(4) -0.752(3) -1.286(3)
O8 O 1.347(5) -0.041(3) -1.245(3)
O9 O 1.358(4) -0.045(3) -0.993(3)
O10 O 1.340(4) -0.270(3) -1.135(3)
O11 O 1.612(4) -0.254(3) -0.918(3)
N1 N 0.524(6) 0.245(5) 1.078(5)
C1 C 2.057(6) -0.529(4) -1.257(5)
C2 C 1.987(6) -0.563(5) -1.131(5)
C3 C 1.810(7) -0.486(5) -1.091(5)
C4 C 1.052(7) -0.114(5) -1.137(5)
C5 C 0.960(6) 0.032(5) -1.131(5)
C6 C 0.778(7) 0.060(5) -1.204(5)
H1 H 2.06670 -0.43270 -1.26090
H2 H 1.98370 -0.56960 -1.32020
H3 H 1.96490 -0.65970 -1.12700
H4 H 2.09260 -0.54590 -1.05920
H5 H 1.02330 -0.14890 -1.22210
H6 H 1.01240 -0.17240 -1.07030
H7 H 0.94670 0.04490 -1.03270
H8 H 1.05390 0.09750 -1.15150
Fe1* Fe 2.4982(7) -0.3997(6) -1.0379(5)
Fe1A Fe 2.4982(7) -0.6003(6) -1.5379(5)
Fe2A Fe 1.4623(7) -0.1161(6) -0.8249(5)
Fe2* Fe 1.4623(7) 0.1161(6) -1.3249(5)
Fe2** Fe 2.4623(7) -0.8839(6) -1.3249(5)
O5* O 1.412(4) -0.557(3) -1.152(3)
O6A O 1.349(4) -0.470(3) -0.894(3)
O7* O 0.277(4) 0.248(3) -1.286(3)
O8* O 0.347(5) -0.041(3) -1.245(3)
O9A O 0.358(4) 0.045(3) -1.493(3)
O11A O 0.612(4) 0.254(3) -1.418(3)
#END
