
#######################################################################
#
#                 Cambridge Crystallographic Data Centre
#                                CCDC
#
#######################################################################
#
# If this CIF has been generated from an entry in the Cambridge
# Structural Database, then it will include bibliographic, chemical,
# crystal, experimental, refinement or atomic coordinate data resulting
# from the CCDC's data processing and validation procedures.
#
#######################################################################

data_CSD_CIF_FETCIT
_audit_creation_date 2018-03-28
_audit_creation_method CSD-ConQuest-V1
_database_code_CSD FETCIT
_database_code_depnum_ccdc_archive 'CCDC 1578976'
_chemical_formula_sum 'C52 H106 Ag12 I18 N16 O16 Sm2'
_chemical_formula_moiety
;
C52 H106 N16 O16 Sm2 6+,2n(Ag6 I9 3-)
;
_journal_coden_Cambridge 1747
_journal_volume 5
_journal_year 2018
_journal_page_first 1162
_journal_name_full 'Inorg.Chem.Front. '
loop_
_publ_author_name
"Dao-Hua Wang"
"Li-Ming Zhao"
"Xiao-Yan Lin"
"Yu-Kang Wang"
"Wen-Ting Zhang"
"Kai-Yue Song"
"Hao-Hong Li"
"Zhi-Rong Chen"
_chemical_name_systematic
;
catena-[(\m-1,1'-dioxo-4,4'-bipyridine)-tetradecakis(N,N-dimethylformamide)-di
-samarium bis(nonakis(\m-iodo)-hexa-silver)]
;
_cell_volume   2971.488
_exptl_crystal_colour 'yellow'
_exptl_crystal_density_diffrn 2.845
_exptl_crystal_description 'Block'
_diffrn_ambient_temperature 293
#These two values have been output from a single CSD field.
_refine_ls_R_factor_gt 0.0935
_refine_ls_wR_factor_gt 0.0935
_symmetry_cell_setting triclinic
_symmetry_space_group_name_H-M 'P -1'
_symmetry_Int_Tables_number 2
loop_
_symmetry_equiv_pos_site_id
_symmetry_equiv_pos_as_xyz
1 x,y,z
2 -x,-y,-z
_cell_length_a 10.455(2)
_cell_length_b 14.619(3)
_cell_length_c 20.018(4)
_cell_angle_alpha 79.58(3)
_cell_angle_beta 80.96(3)
_cell_angle_gamma 89.11(3)
_cell_formula_units_Z 1
loop_
_atom_type_symbol
_atom_type_radius_bond
C 0.68
H 0.23
Ag 1.45
I 1.40
N 0.68
O 0.68
Sm 1.98
loop_
_atom_site_label
_atom_site_type_symbol
_atom_site_fract_x
_atom_site_fract_y
_atom_site_fract_z
Sm1 Sm 0.9469(4) 0.7396(2) 0.24720(18)
O1 O 0.796(6) 0.831(3) 0.184(2)
O2 O 0.734(5) 0.704(3) 0.306(2)
O3 O 0.977(8) 0.689(4) 0.363(3)
O4 O 0.976(8) 0.691(4) 0.139(3)
O5 O 0.937(6) 0.572(3) 0.269(3)
O6 O 0.940(8) 0.871(4) 0.300(4)
O7 O 1.174(6) 0.711(4) 0.244(3)
N1 N 0.681(6) 0.645(4) 0.358(3)
N2 N 1.384(6) 0.698(4) 0.223(3)
N3 N 0.607(9) 0.909(4) 0.164(4)
N4 N 0.960(7) 0.986(4) 0.356(3)
N5 N 0.965(10) 0.677(5) 0.033(3)
N6 N 0.973(7) 0.421(4) 0.267(4)
N7 N 1.14(4) 1.01(3) 0.11(2)
N8 N 1.114(17) 0.658(7) 0.439(9)
C1 C 0.897(10) 0.925(5) 0.336(4)
H1 H 0.80800 0.92270 0.35030
C2 C 0.690(9) 0.871(5) 0.206(4)
H2 H 0.67010 0.87320 0.25270
C3 C 0.659(10) 0.675(5) 0.417(4)
H3 H 0.68960 0.73250 0.42100
C4 C 0.637(7) 0.559(4) 0.353(4)
H4 H 0.65460 0.53810 0.31140
C5 C 1.264(7) 0.690(4) 0.209(4)
H5 H 1.25340 0.66690 0.16940
C6 C 1.496(8) 0.665(5) 0.183(4)
H6 H 1.51330 0.60190 0.20260
H7 H 1.56960 0.70350 0.18140
H8 H 1.47910 0.66650 0.13650
C7 C 1.414(12) 0.726(6) 0.285(4)
H9 H 1.38770 0.78950 0.28550
H10 H 1.50510 0.72150 0.28600
H11 H 1.36770 0.68660 0.32490
C8 C 0.906(11) 1.054(6) 0.394(5)
H12 H 0.81530 1.05920 0.39130
H13 H 0.94870 1.11250 0.37520
H14 H 0.91740 1.03560 0.44120
C9 C 0.974(10) 0.508(5) 0.242(5)
H15 H 1.00870 0.52430 0.19540
C10 C 0.587(9) 0.616(5) 0.475(4)
H16 H 0.57130 0.63640 0.51680
C11 C 0.567(7) 0.502(4) 0.409(3)
H17 H 0.53670 0.44380 0.40390
C12 C 0.49(1) 0.954(6) 0.191(5)
H18 H 0.44600 0.91410 0.23090
H19 H 0.43460 0.96700 0.15670
H20 H 0.51380 1.01150 0.20330
C13 C 0.541(7) 0.529(4) 0.470(3)
C14 C 1.029(17) 0.665(10) -0.033(5)
H21 H 1.08750 0.71570 -0.05210
H22 H 0.96550 0.66220 -0.06260
H23 H 1.07580 0.60750 -0.02850
C15 C 1.011(12) 0.346(6) 0.230(6)
H24 H 0.93950 0.30390 0.23510
H25 H 1.08260 0.31410 0.24730
H26 H 1.03610 0.37220 0.18190
C16 C 0.651(11) 0.916(6) 0.087(5)
H27 H 0.64980 0.97960 0.06510
H28 H 0.59370 0.87960 0.06910
H29 H 0.73740 0.89250 0.07960
C17 C 1.030(14) 0.693(6) 0.077(5)
H30 H 1.11810 0.70600 0.06430
C18 C 0.928(16) 0.388(6) 0.337(5)
H31 H 0.91700 0.32150 0.34530
H32 H 0.84600 0.41580 0.35050
H33 H 0.98930 0.40410 0.36440
C19 C 0.823(15) 0.666(10) 0.041(10)
H34 H 0.79910 0.65900 -0.00240
H35 H 0.78200 0.72070 0.05470
H36 H 0.79450 0.61260 0.07490
O8 O 1.064(7) 0.859(4) 0.161(4)
C20 C 1.22(3) 0.612(16) 0.468(12)
H37 H 1.23960 0.64240 0.50450
H38 H 1.29580 0.61500 0.43360
H39 H 1.19790 0.54800 0.48700
C21 C 1.052(19) 0.665(13) 0.396(7)
H40 H 1.09020 0.61990 0.37200
C22 C 1.156(7) 0.753(4) 0.451(3)
H41 H 1.20970 0.74440 0.48640
H42 H 1.08010 0.78730 0.46560
H43 H 1.20290 0.78760 0.40940
C23 C 1.158(16) 1.102(10) 0.090(8)
H44 H 1.09340 1.13040 0.11890
H45 H 1.15010 1.12340 0.04280
H46 H 1.24250 1.11750 0.09790
C24 C 1.063(18) 0.938(11) 0.151(9)
H47 H 0.99680 0.96200 0.17880
C25 C 1.22(4) 0.96(2) 0.069(19)
H48 H 1.30370 0.99710 0.05930
H49 H 1.19240 0.95890 0.02730
H50 H 1.23540 0.90190 0.09410
C26 C 1.093(17) 0.999(11) 0.338(8)
H51 H 1.13280 0.99100 0.37910
H52 H 1.11140 1.06140 0.31300
H53 H 1.12780 0.95530 0.31030
I1 I 0.3522(6) 1.1901(3) 0.2325(3)
I2 I 0.6834(6) 1.4256(3) 0.1590(3)
I3 I 0.3003(6) 1.4538(3) 0.3174(3)
I4 I 0.6153(6) 1.2394(3) 0.3961(3)
I5 I 0.4881(7) 0.9441(3) 0.3944(3)
I6 I 0.7858(7) 1.1153(4) 0.2054(3)
I7 I 0.3008(7) 1.4828(4) 0.0812(3)
I8 I 0.5624(9) 1.2240(4) 0.0174(3)
I9 I 0.1911(7) 1.1724(4) 0.4696(3)
Ag1 Ag 0.5523(9) 1.4086(5) 0.0400(4)
Ag2 Ag 0.3569(9) 1.2662(5) 0.3568(4)
Ag3 Ag 0.4146(8) 1.3905(5) 0.1990(4)
Ag4 Ag 0.6108(8) 1.2403(4) 0.1491(4)
Ag5 Ag 0.5683(9) 1.1206(5) 0.3057(4)
Ag6 Ag 0.4348(9) 1.0929(5) 0.4720(4)
O2A O 0.266(5) 0.296(3) 0.694(2)
N1A N 0.319(6) 0.355(4) 0.642(3)
C3A C 0.341(10) 0.325(5) 0.583(4)
H3A H 0.31040 0.26750 0.57900
C4A C 0.363(7) 0.441(4) 0.647(4)
H4A H 0.34540 0.46190 0.68860
C10A C 0.413(9) 0.384(5) 0.525(4)
H16A H 0.42870 0.36360 0.48320
C11A C 0.433(7) 0.498(4) 0.591(3)
H17A H 0.46330 0.55620 0.59610
C13A C 0.459(7) 0.471(4) 0.530(3)
Sm1A Sm 0.0531(4) 0.2604(2) 0.75280(18)
O1A O 0.204(6) 0.169(3) 0.816(2)
O3A O 0.023(8) 0.311(4) 0.637(3)
O4A O 0.024(8) 0.309(4) 0.861(3)
O5A O 0.063(6) 0.428(3) 0.731(3)
O6A O 0.060(8) 0.129(4) 0.700(4)
O7A O -0.174(6) 0.289(4) 0.756(3)
N2A N -0.384(6) 0.302(4) 0.777(3)
N3A N 0.393(9) 0.091(4) 0.836(4)
N4A N 0.040(7) 0.014(4) 0.644(3)
N5A N 0.035(10) 0.323(5) 0.967(3)
N6A N 0.027(7) 0.579(4) 0.733(4)
N7A N -0.14(4) -0.01(3) 0.89(2)
N8A N -0.114(17) 0.342(7) 0.561(9)
C1A C 0.103(10) 0.075(5) 0.664(4)
H1A H 0.19200 0.07730 0.64970
C2A C 0.310(9) 0.129(5) 0.794(4)
H2A H 0.32990 0.12680 0.74730
C5A C -0.264(7) 0.310(4) 0.791(4)
H5A H -0.25340 0.33310 0.83060
C6A C -0.496(8) 0.335(5) 0.817(4)
H6A H -0.51330 0.39810 0.79740
H7A H -0.56960 0.29650 0.81860
H8A H -0.47910 0.33350 0.86350
C7A C -0.414(12) 0.274(6) 0.715(4)
H9A H -0.38770 0.21050 0.71450
H10A H -0.50510 0.27850 0.71400
H11A H -0.36770 0.31340 0.67510
C8A C 0.094(11) -0.054(6) 0.606(5)
H12A H 0.18470 -0.05920 0.60870
H13A H 0.05130 -0.11250 0.62480
H14A H 0.08260 -0.03560 0.55880
C9A C 0.026(10) 0.492(5) 0.758(5)
H15A H -0.00870 0.47570 0.80460
C12A C 0.51(1) 0.046(6) 0.809(5)
H18A H 0.55400 0.08590 0.76910
H19A H 0.56540 0.03300 0.84330
H20A H 0.48620 -0.01150 0.79670
C14A C -0.029(17) 0.335(10) 1.033(5)
H21A H -0.08750 0.28430 1.05210
H22A H 0.03450 0.33780 1.06260
H23A H -0.07580 0.39250 1.02850
C15A C -0.011(12) 0.654(6) 0.770(6)
H24A H 0.06050 0.69610 0.76490
H25A H -0.08260 0.68590 0.75270
H26A H -0.03610 0.62780 0.81810
C16A C 0.349(11) 0.084(6) 0.913(5)
H27A H 0.35020 0.02040 0.93490
H28A H 0.40630 0.12040 0.93090
H29A H 0.26260 0.10750 0.92040
C17A C -0.030(14) 0.307(6) 0.923(5)
H30A H -0.11810 0.29400 0.93570
C18A C 0.072(16) 0.612(6) 0.663(5)
H31A H 0.08300 0.67850 0.65470
H32A H 0.15400 0.58420 0.64950
H33A H 0.01070 0.59590 0.63560
C19A C 0.177(15) 0.334(10) 0.959(10)
H34A H 0.20090 0.34100 1.00240
H35A H 0.21800 0.27930 0.94530
H36A H 0.20550 0.38740 0.92510
O8A O -0.064(7) 0.141(4) 0.839(4)
C20A C -0.22(3) 0.388(16) 0.532(12)
H37A H -0.23960 0.35760 0.49550
H38A H -0.29580 0.38500 0.56640
H39A H -0.19790 0.45200 0.51300
C21A C -0.052(19) 0.335(13) 0.604(7)
H40A H -0.09020 0.38010 0.62800
C22A C -0.156(7) 0.247(4) 0.549(3)
H41A H -0.20970 0.25560 0.51360
H42A H -0.08010 0.21270 0.53440
H43A H -0.20290 0.21240 0.59060
C23A C -0.158(16) -0.102(10) 0.910(8)
H44A H -0.09340 -0.13040 0.88110
H45A H -0.15010 -0.12340 0.95720
H46A H -0.24250 -0.11750 0.90210
C24A C -0.063(18) 0.062(11) 0.849(9)
H47A H 0.00320 0.03800 0.82120
C25A C -0.22(4) 0.04(2) 0.931(19)
H48A H -0.30370 0.00290 0.94070
H49A H -0.19240 0.04110 0.97270
H50A H -0.23540 0.09810 0.90590
C26A C -0.093(17) 0.001(11) 0.662(8)
H51A H -0.13280 0.00900 0.62090
H52A H -0.11140 -0.06140 0.68700
H53A H -0.12780 0.04470 0.68970
I5A I 0.5119(7) 1.0559(3) 0.6056(3)
I7A I 0.6992(7) 1.5172(4) -0.0812(3)
Ag1A Ag 0.4477(9) 1.5914(5) -0.0400(4)
Ag6A Ag 0.5652(9) 0.9071(5) 0.5280(4)
#END
