
#######################################################################
#
#                 Cambridge Crystallographic Data Centre
#                                CCDC
#
#######################################################################
#
# If this CIF has been generated from an entry in the Cambridge
# Structural Database, then it will include bibliographic, chemical,
# crystal, experimental, refinement or atomic coordinate data resulting
# from the CCDC's data processing and validation procedures.
#
#######################################################################

data_CSD_CIF_FETCEP
_audit_creation_date 2018-03-28
_audit_creation_method CSD-ConQuest-V1
_database_code_CSD FETCEP
_database_code_depnum_ccdc_archive 'CCDC 1578974'
_chemical_formula_sum 'C52 H106 Ag12 I18 La2 N16 O16'
_chemical_formula_moiety
;
C52 H106 La2 N16 O16 6+,2n(Ag6 I9 3-)
;
_journal_coden_Cambridge 1747
_journal_volume 5
_journal_year 2018
_journal_page_first 1162
_journal_name_full 'Inorg.Chem.Front. '
loop_
_publ_author_name
"Dao-Hua Wang"
"Li-Ming Zhao"
"Xiao-Yan Lin"
"Yu-Kang Wang"
"Wen-Ting Zhang"
"Kai-Yue Song"
"Hao-Hong Li"
"Zhi-Rong Chen"
_chemical_name_systematic
;
catena-[(\m-1,1'-dioxo-4,4'-bipyridine)-tetradecakis(N,N-dimethylformamide)-di
-lanthanum bis(nonakis(\m-iodo)-hexa-silver)]
;
_cell_volume   3024.820
_exptl_crystal_colour 'red'
_exptl_crystal_density_diffrn 2.782
_exptl_crystal_description 'Block'
_diffrn_ambient_temperature 293
#These two values have been output from a single CSD field.
_refine_ls_R_factor_gt 0.0849
_refine_ls_wR_factor_gt 0.0849
_symmetry_cell_setting triclinic
_symmetry_space_group_name_H-M 'P -1'
_symmetry_Int_Tables_number 2
loop_
_symmetry_equiv_pos_site_id
_symmetry_equiv_pos_as_xyz
1 x,y,z
2 -x,-y,-z
_cell_length_a 10.533(2)
_cell_length_b 14.728(3)
_cell_length_c 20.105(4)
_cell_angle_alpha 79.04(3)
_cell_angle_beta 81.09(3)
_cell_angle_gamma 89.00(3)
_cell_formula_units_Z 1
loop_
_atom_type_symbol
_atom_type_radius_bond
C 0.68
H 0.23
Ag 1.45
I 1.40
La 2.07
N 0.68
O 0.68
loop_
_atom_site_label
_atom_site_type_symbol
_atom_site_fract_x
_atom_site_fract_y
_atom_site_fract_z
La1 La 0.4482(3) 0.74574(17) 0.24282(13)
N1 N 0.177(4) 0.643(3) 0.3578(19)
N2 N 0.464(5) 0.992(3) 0.355(2)
N3 N 0.100(5) 0.913(3) 0.163(3)
N4 N 0.629(7) 1.016(4) 0.099(3)
N5 N 0.467(6) 0.673(3) 0.030(2)
N6 N 0.893(4) 0.699(3) 0.219(2)
N7 N 0.473(4) 0.421(3) 0.267(2)
N8 N 0.627(5) 0.672(5) 0.436(2)
O1 O 0.231(3) 0.704(2) 0.3035(17)
O2 O 0.435(5) 0.876(3) 0.300(3)
O3 O 0.288(4) 0.837(2) 0.1790(17)
O4 O 0.569(6) 0.870(3) 0.155(3)
O5 O 0.477(7) 0.698(4) 0.132(2)
O6 O 0.677(4) 0.719(3) 0.237(3)
O7 O 0.442(5) 0.574(2) 0.265(2)
O8 O 0.486(5) 0.692(4) 0.363(2)
C1 C 0.139(4) 0.563(3) 0.351(2)
H1 H 0.15380 0.54550 0.30860
C2 C 0.075(5) 0.502(3) 0.408(2)
H2 H 0.05640 0.44220 0.40390
C3 C 0.040(5) 0.532(3) 0.470(2)
C4 C 0.085(6) 0.615(4) 0.474(3)
H3 H 0.07080 0.63490 0.51600
C5 C 0.154(6) 0.673(4) 0.417(3)
H4 H 0.18220 0.73120 0.41960
C6 C 0.391(6) 0.934(4) 0.338(2)
H5 H 0.30260 0.93440 0.35350
C7 C 0.593(9) 1.00(1) 0.337(7)
H6 H 0.63280 0.98900 0.37800
H7 H 0.61570 1.06070 0.31170
H8 H 0.62260 0.95480 0.30980
C8 C 0.400(9) 1.059(5) 0.397(4)
H9 H 0.32270 1.08100 0.38070
H10 H 0.45750 1.11030 0.39410
H11 H 0.38030 1.02830 0.44440
C9 C 0.185(7) 0.878(4) 0.202(3)
H12 H 0.17010 0.88240 0.24770
C10 C 0.117(10) 0.913(7) 0.091(4)
H13 H 0.04470 0.94160 0.07210
H14 H 0.12300 0.85000 0.08400
H15 H 0.19410 0.94600 0.06890
C11 C -0.015(7) 0.962(5) 0.187(4)
H16 H -0.06130 0.92490 0.22760
H17 H -0.06930 0.97340 0.15190
H18 H 0.00920 1.01990 0.19690
C12 C 0.567(10) 0.941(6) 0.150(5)
H19 H 0.51350 0.96030 0.18550
C13 C 0.675(5) 0.988(3) 0.032(2)
H20 H 0.71500 1.03990 0.00040
H21 H 0.60300 0.96670 0.01490
H22 H 0.73540 0.93890 0.03880
C14 C 0.659(16) 1.113(6) 0.096(9)
H23 H 0.63650 1.12750 0.14070
H24 H 0.61000 1.15080 0.06480
H25 H 0.74870 1.12410 0.08020
C15 C 0.531(10) 0.693(5) 0.073(3)
H26 H 0.61940 0.70340 0.06110
C16 C 0.522(11) 0.646(9) -0.033(4)
H27 H 0.52330 0.69760 -0.06980
H28 H 0.47080 0.59670 -0.04060
H29 H 0.60790 0.62470 -0.02970
C17 C 0.332(11) 0.659(8) 0.045(6)
H30 H 0.30150 0.64480 0.00560
H31 H 0.29130 0.71400 0.05650
H32 H 0.31180 0.60840 0.08300
C18 C 0.781(6) 0.698(4) 0.202(3)
H33 H 0.77500 0.68050 0.16010
C19 C 1.005(5) 0.669(4) 0.180(3)
H34 H 0.98490 0.61390 0.16470
H35 H 1.07090 0.65610 0.20850
H36 H 1.03410 0.71660 0.14140
C20 C 0.904(7) 0.726(5) 0.284(3)
H37 H 0.86400 0.78440 0.28640
H38 H 0.99380 0.73090 0.28810
H39 H 0.86350 0.67980 0.32150
C21 C 0.479(6) 0.509(3) 0.234(3)
H40 H 0.51210 0.52310 0.18710
C22 C 0.510(8) 0.347(4) 0.233(4)
H41 H 0.53790 0.37020 0.18540
H42 H 0.43780 0.30550 0.23860
H43 H 0.57870 0.31420 0.25310
C23 C 0.427(10) 0.400(5) 0.339(4)
H44 H 0.47590 0.43490 0.36240
H45 H 0.43610 0.33530 0.35590
H46 H 0.33780 0.41620 0.34760
C24 C 0.550(8) 0.645(9) 0.389(4)
H47 H 0.55740 0.58530 0.37990
C25 C 0.636(15) 0.768(7) 0.449(7)
H48 H 0.58990 0.80860 0.41770
H49 H 0.72430 0.78700 0.44110
H50 H 0.59860 0.76980 0.49510
C26 C 0.713(7) 0.617(5) 0.479(4)
H51 H 0.79900 0.64220 0.46550
H52 H 0.71220 0.55420 0.47360
H53 H 0.68480 0.62060 0.52640
Ag1 Ag 0.0646(6) 0.9056(4) 0.5285(3)
Ag2 Ag -0.0678(6) 0.8768(3) 0.6934(2)
Ag3 Ag 0.1419(5) 0.7306(3) 0.6425(2)
Ag4 Ag 0.0844(5) 0.6077(3) 0.8002(2)
Ag5 Ag -0.1102(5) 0.7578(3) 0.8500(2)
Ag6 Ag -0.0528(5) 0.5910(3) 0.9595(2)
I1 I 0.0129(4) 1.0534(2) 0.60545(17)
I2 I 0.3069(4) 0.8253(3) 0.5294(2)
I3 I -0.1154(4) 0.7582(2) 0.6041(2)
I4 I 0.1475(3) 0.8069(2) 0.76622(16)
I5 I -0.2853(4) 0.8820(2) 0.7936(2)
I6 I 0.1993(4) 0.5434(2) 0.68265(18)
I7 I -0.0644(6) 0.7748(3) 0.9819(2)
I8 I 0.1975(4) 0.5173(3) 0.91881(17)
I9 I -0.1833(3) 0.5730(2) 0.84042(18)
N1A N -0.177(4) 0.357(3) 0.6422(19)
O1A O -0.231(3) 0.296(2) 0.6965(17)
C1A C -0.139(4) 0.437(3) 0.649(2)
H1A H -0.15380 0.45450 0.69140
C2A C -0.075(5) 0.498(3) 0.592(2)
H2A H -0.05640 0.55780 0.59610
C3A C -0.040(5) 0.468(3) 0.530(2)
C4A C -0.085(6) 0.385(4) 0.526(3)
H3A H -0.07080 0.36510 0.48400
C5A C -0.154(6) 0.327(4) 0.583(3)
H4A H -0.18220 0.26880 0.58040
La1A La -0.4482(3) 0.25426(17) 0.75718(13)
N2A N -0.464(5) 0.008(3) 0.645(2)
N3A N -0.100(5) 0.087(3) 0.837(3)
N4A N -0.629(7) -0.016(4) 0.901(3)
N5A N -0.467(6) 0.327(3) 0.970(2)
N6A N -0.893(4) 0.301(3) 0.781(2)
N7A N -0.473(4) 0.579(3) 0.733(2)
N8A N -0.627(5) 0.328(5) 0.564(2)
O2A O -0.435(5) 0.124(3) 0.700(3)
O3A O -0.288(4) 0.163(2) 0.8210(17)
O4A O -0.569(6) 0.130(3) 0.845(3)
O5A O -0.477(7) 0.302(4) 0.868(2)
O6A O -0.677(4) 0.281(3) 0.763(3)
O7A O -0.442(5) 0.426(2) 0.735(2)
O8A O -0.486(5) 0.308(4) 0.637(2)
C6A C -0.391(6) 0.066(4) 0.662(2)
H5A H -0.30260 0.06560 0.64650
C7A C -0.593(9) 0.00(1) 0.663(7)
H6A H -0.63280 0.01100 0.62200
H7A H -0.61570 -0.06070 0.68830
H8A H -0.62260 0.04520 0.69020
C8A C -0.400(9) -0.059(5) 0.603(4)
H9A H -0.32270 -0.08100 0.61930
H10A H -0.45750 -0.11030 0.60590
H11A H -0.38030 -0.02830 0.55560
C9A C -0.185(7) 0.122(4) 0.798(3)
H12A H -0.17010 0.11760 0.75230
C10A C -0.117(10) 0.087(7) 0.909(4)
H13A H -0.04470 0.05840 0.92790
H14A H -0.12300 0.15000 0.91600
H15A H -0.19410 0.05400 0.93110
C11A C 0.015(7) 0.038(5) 0.813(4)
H16A H 0.06130 0.07510 0.77240
H17A H 0.06930 0.02660 0.84810
H18A H -0.00920 -0.01990 0.80310
C12A C -0.567(10) 0.059(6) 0.850(5)
H19A H -0.51350 0.03970 0.81450
C13A C -0.675(5) 0.012(3) 0.968(2)
H20A H -0.71500 -0.03990 0.99960
H21A H -0.60300 0.03330 0.98510
H22A H -0.73540 0.06110 0.96120
C14A C -0.659(16) -0.113(6) 0.904(9)
H23A H -0.63650 -0.12750 0.85930
H24A H -0.61000 -0.15080 0.93520
H25A H -0.74870 -0.12410 0.91980
C15A C -0.531(10) 0.307(5) 0.927(3)
H26A H -0.61940 0.29660 0.93890
C16A C -0.522(11) 0.354(9) 1.033(4)
H27A H -0.52330 0.30240 1.06980
H28A H -0.47080 0.40330 1.04060
H29A H -0.60790 0.37530 1.02970
C17A C -0.332(11) 0.341(8) 0.955(6)
H30A H -0.30150 0.35520 0.99440
H31A H -0.29130 0.28600 0.94350
H32A H -0.31180 0.39160 0.91700
C18A C -0.781(6) 0.302(4) 0.798(3)
H33A H -0.77500 0.31950 0.83990
C19A C -1.005(5) 0.331(4) 0.820(3)
H34A H -0.98490 0.38610 0.83530
H35A H -1.07090 0.34390 0.79150
H36A H -1.03410 0.28340 0.85860
C20A C -0.904(7) 0.274(5) 0.716(3)
H37A H -0.86400 0.21560 0.71360
H38A H -0.99380 0.26910 0.71190
H39A H -0.86350 0.32020 0.67850
C21A C -0.479(6) 0.491(3) 0.766(3)
H40A H -0.51210 0.47690 0.81290
C22A C -0.510(8) 0.653(4) 0.767(4)
H41A H -0.53790 0.62980 0.81460
H42A H -0.43780 0.69450 0.76140
H43A H -0.57870 0.68580 0.74690
C23A C -0.427(10) 0.600(5) 0.661(4)
H44A H -0.47590 0.56510 0.63760
H45A H -0.43610 0.66470 0.64410
H46A H -0.33780 0.58380 0.65240
C24A C -0.550(8) 0.355(9) 0.611(4)
H47A H -0.55740 0.41470 0.62010
C25A C -0.636(15) 0.232(7) 0.551(7)
H48A H -0.58990 0.19140 0.58230
H49A H -0.72430 0.21300 0.55890
H50A H -0.59860 0.23020 0.50490
C26A C -0.713(7) 0.383(5) 0.521(4)
H51A H -0.79900 0.35780 0.53450
H52A H -0.71220 0.44580 0.52640
H53A H -0.68480 0.37940 0.47360
Ag1A Ag -0.0646(6) 1.0944(4) 0.4715(3)
Ag6A Ag 0.0528(5) 0.4090(3) 1.0405(2)
I1A I -0.0129(4) 0.9466(2) 0.39455(17)
I8A I -0.1975(4) 0.4827(3) 1.08119(17)
#END
