
#######################################################################
#
#                 Cambridge Crystallographic Data Centre
#                                CCDC
#
#######################################################################
#
# If this CIF has been generated from an entry in the Cambridge
# Structural Database, then it will include bibliographic, chemical,
# crystal, experimental, refinement or atomic coordinate data resulting
# from the CCDC's data processing and validation procedures.
#
#######################################################################

data_CSD_CIF_FEWHAQ
_audit_creation_date 1987-11-26
_audit_creation_method CSD-ConQuest-V1
_database_code_CSD FEWHAQ
_database_code_depnum_ccdc_archive 'CCDC 1155274'
_chemical_formula_sum 'C16 H24 Co3 K2 O16'
_chemical_formula_moiety
;
(C16 H24 Co3 O16 2-)n,2n(K1 1+)
;
_journal_coden_Cambridge 367
_journal_volume 13
_journal_year 1987
_journal_page_first 395
_journal_name_full 'Koord.Khim.(Russ.)(Coord.Chem.) '
loop_
_publ_author_name
"A.S.Antsyshkina"
"M.A.Porai-Koshits"
"A.F.Borina"
"V.N.Ostrikova"
_chemical_name_systematic
;
catena-(Dipotassium 
bis(\m~2~-acetato-O,O,O')-hexakis(\m~2~-acetato-O,O')-tri-cobalt)
;
_cell_volume   2616.882
_exptl_crystal_colour 'red-violet'
_diffrn_ambient_temperature ?
_diffrn_special_details
;
The study was carried out at room temperature,in the range 283-303K

;
#These two values have been output from a single CSD field.
_refine_ls_R_factor_gt 0.098
_refine_ls_wR_factor_gt 0.098
_symmetry_cell_setting orthorhombic
_symmetry_space_group_name_H-M 'P b c a'
_symmetry_Int_Tables_number 61
loop_
_symmetry_equiv_pos_site_id
_symmetry_equiv_pos_as_xyz
1 x,y,z
2 1/2-x,-y,1/2+z
3 1/2+x,1/2-y,-z
4 -x,1/2+y,1/2-z
5 -x,-y,-z
6 -1/2+x,y,-1/2-z
7 -1/2-x,-1/2+y,z
8 x,-1/2-y,-1/2+z
_cell_length_a 7.601(15)
_cell_length_b 20.028(32)
_cell_length_c 17.19(3)
_cell_angle_alpha 90
_cell_angle_beta 90
_cell_angle_gamma 90
_cell_formula_units_Z 4
loop_
_atom_type_symbol
_atom_type_radius_bond
C 0.68
Co 1.33
K 1.33
O 0.68
loop_
_atom_site_label
_atom_site_type_symbol
_atom_site_fract_x
_atom_site_fract_y
_atom_site_fract_z
Co1 Co 0.00000 0.00000 0.00000
Co2 Co 0.2147(5) 0.1065(1) 0.1376(1)
O1 O -0.1011(24) 0.0997(7) 0.001(8)
O2 O 0.0926(25) 0.1669(6) 0.0581(8)
O3 O 0.2460(25) 0.0356(5) -0.0390(6)
O4 O 0.4028(28) 0.0806(7) 0.0557(8)
O5 O 0.2544(24) 0.0127(5) 0.2111(8)
O6 O 0.0668(22) 0.0171(6) 0.1173(7)
O7 O 0.3775(26) 0.1798(7) 0.1831(8)
O8 O 0.5226(30) 0.1276(7) 0.2734(8)
C1 C -0.0367(30) 0.1553(9) 0.0129(11)
C2 C -0.1084(40) 0.2190(12) -0.0268(15)
C3 C 0.3731(38) 0.069(1) -0.0157(12)
C4 C 0.4977(43) 0.0973(11) -0.0740(13)
C5 C 0.1441(33) -0.0176(10) 0.1720(12)
C6 C 0.0813(40) -0.0881(11) 0.1909(13)
C7 C 0.4700(45) 0.1825(9) 0.2460(27)
C8 C 0.4957(49) 0.2507(12) 0.2760(15)
K1 K 0.2063(8) 0.0662(2) 0.3563(2)
O1D O 0.1011(24) -0.0997(7) -0.001(8)
O3D O -0.2460(25) -0.0356(5) 0.0390(6)
O6D O -0.0668(22) -0.0171(6) -0.1173(7)
O8E O 0.0226(30) 0.1276(7) 0.2266(8)
Co2D Co -0.2147(5) -0.1065(1) -0.1376(1)
C5D C -0.1441(33) 0.0176(10) -0.1720(12)
C3D C -0.3731(38) -0.069(1) 0.0157(12)
C1D C 0.0367(30) -0.1553(9) -0.0129(11)
O5D O -0.2544(24) -0.0127(5) -0.2111(8)
C6D C -0.0813(40) 0.0881(11) -0.1909(13)
O4D O -0.4028(28) -0.0806(7) -0.0557(8)
C4D C -0.4977(43) -0.0973(11) 0.0740(13)
O2D O -0.0926(25) -0.1669(6) -0.0581(8)
C2D C 0.1084(40) -0.2190(12) 0.0268(15)
Co2E Co 0.7147(5) 0.1065(1) 0.3624(1)
O7D O -0.3775(26) -0.1798(7) -0.1831(8)
O8A O -0.0226(30) -0.1276(7) -0.2266(8)
C7D C -0.4700(45) -0.1825(9) -0.2460(27)
O8D O -0.5226(30) -0.1276(7) -0.2734(8)
C8D C -0.4957(49) -0.2507(12) -0.2760(15)
Co2A Co -0.7147(5) -0.1065(1) -0.3624(1)
#END
