
#######################################################################
#
#                 Cambridge Crystallographic Data Centre
#                                CCDC
#
#######################################################################
#
# If this CIF has been generated from an entry in the Cambridge
# Structural Database, then it will include bibliographic, chemical,
# crystal, experimental, refinement or atomic coordinate data resulting
# from the CCDC's data processing and validation procedures.
#
#######################################################################

data_CSD_CIF_FEYDET
_audit_creation_date 2005-05-31
_audit_creation_method CSD-ConQuest-V1
_database_code_CSD FEYDET
_database_code_depnum_ccdc_archive 'CCDC 263222'
_chemical_formula_sum 'C28 H20 In2 N2 O14'
_chemical_formula_moiety
;
(C18 H8 In2 O14 2-)n,2n(C5 H6 N1 1+)
;
_journal_coden_Cambridge 9
_journal_volume 44
_journal_year 2005
_journal_page_first 73
_journal_name_full 'Inorg.Chem. '
loop_
_publ_author_name
"Zhengzhong Lin"
"Feilong Jiang"
"Lian Chen"
"Daqiang Yuan"
"Maochun Hong"
_chemical_name_systematic
;
catena-(Dipyridinium 
(\m~3~-benzene-1,3,5-dicarboxylato)-(\m~3~-benzene-1,3-dicarboxylato-5-carboxy
late)-di-indium(iii))
;
_cell_volume   1285.655
_exptl_crystal_colour 'light yellow'
_exptl_crystal_density_diffrn 2.165
_diffrn_ambient_temperature 293
#These two values have been output from a single CSD field.
_refine_ls_R_factor_gt 0.0608
_refine_ls_wR_factor_gt 0.0608
_symmetry_cell_setting monoclinic
_symmetry_space_group_name_H-M 'P 21'
_symmetry_Int_Tables_number 4
loop_
_symmetry_equiv_pos_site_id
_symmetry_equiv_pos_as_xyz
1 x,y,z
2 -x,1/2+y,-z
_cell_length_a 7.3181(12)
_cell_length_b 17.020(2)
_cell_length_c 10.5789(17)
_cell_angle_alpha 90
_cell_angle_beta 102.651(6)
_cell_angle_gamma 90
_cell_formula_units_Z 2
loop_
_atom_type_symbol
_atom_type_radius_bond
C 0.58
H 0.23
In 1.63
N 0.68
O 0.68
loop_
_atom_site_label
_atom_site_type_symbol
_atom_site_fract_x
_atom_site_fract_y
_atom_site_fract_z
In1 In -0.30667(13) 0.39814(5) 0.18043(8)
In2 In -0.79907(14) 0.45343(5) -0.73791(10)
O1 O -0.3309(18) 0.5367(6) 0.0818(9)
O2 O -0.4140(17) 0.4252(6) -0.0196(10)
O3 O -0.5380(14) 0.7875(5) -0.1265(9)
O4 O -0.7175(16) 0.7892(6) -0.321(1)
O5 O -0.7028(15) 0.4333(6) -0.4989(10)
O6 O -0.7459(14) 0.5496(5) -0.5904(9)
O7 O -0.1445(15) 0.0673(6) -0.1427(10)
O8 O -0.1111(16) -0.0428(7) -0.0348(11)
O9 O -0.0840(14) 0.3204(5) 0.1127(9)
O10 O 0.1932(14) 0.3285(5) 0.2591(9)
O11 O 0.3000(15) 0.0694(6) 0.5321(9)
O12 O 0.1167(16) -0.0287(6) 0.4502(10)
O13 O -0.0803(12) 0.4502(6) 0.2906(9)
O14 O -0.5044(11) 0.4510(6) 0.2672(7)
N1 N 0.493(2) 0.1961(8) 1.6235(16)
H1 H 0.43530 0.15840 1.57710
N2 N 0.085(2) 0.3416(10) 0.6747(15)
H2 H 0.07460 0.38770 0.64070
C1 C -0.4878(18) 0.5446(7) -0.1350(12)
C2 C -0.504(2) 0.6241(9) -0.1308(13)
H3 H -0.46160 0.65030 -0.05280
C3 C -0.583(2) 0.6666(7) -0.2410(14)
C4 C -0.657(2) 0.6269(7) -0.3571(11)
H4 H -0.71870 0.65500 -0.42940
C5 C -0.639(2) 0.5465(8) -0.3647(13)
C6 C -0.5538(19) 0.5057(8) -0.2526(13)
H5 H -0.54060 0.45150 -0.25630
C7 C -0.402(2) 0.5012(10) -0.0158(14)
C8 C -0.610(2) 0.7519(8) -0.2278(14)
C9 C -0.701(2) 0.5062(9) -0.4939(14)
C10 C -0.0243(18) 0.0772(7) 0.0853(12)
C11 C -0.019(2) 0.1580(8) 0.0839(14)
H6 H -0.06990 0.18440 0.00730
C12 C 0.059(2) 0.2008(8) 0.1925(14)
C13 C 0.1333(19) 0.1607(7) 0.3071(15)
H7 H 0.19330 0.18830 0.38040
C14 C 0.1175(19) 0.0792(8) 0.3115(13)
C15 C 0.047(2) 0.0373(8) 0.2034(13)
H8 H 0.04590 -0.01730 0.20630
C16 C -0.098(2) 0.0295(9) -0.0351(14)
C17 C 0.056(2) 0.2893(9) 0.1890(14)
C18 C 0.184(2) 0.0378(8) 0.4388(14)
C19 C 0.551(2) 0.1860(13) 1.7483(18)
H9 H 0.53540 0.13750 1.78520
C20 C 0.639(3) 0.2492(12) 1.829(2)
H10 H 0.67180 0.24530 1.91870
C21 C 0.672(3) 0.3147(12) 1.765(2)
H11 H 0.73540 0.35610 1.81260
C22 C 0.615(3) 0.3231(11) 1.632(2)
H12 H 0.64300 0.36860 1.59150
C23 C 0.522(3) 0.2655(10) 1.5654(19)
H13 H 0.47450 0.27180 1.47700
C24 C 0.022(3) 0.2800(12) 0.5973(17)
H14 H -0.03420 0.28690 0.51020
C25 C 0.043(3) 0.2072(13) 0.653(2)
H15 H 0.00340 0.16290 0.60250
C26 C 0.123(3) 0.1989(11) 0.785(3)
H16 H 0.13690 0.14910 0.82170
C27 C 0.181(3) 0.2622(12) 0.858(2)
H17 H 0.23210 0.25610 0.94640
C28 C 0.166(3) 0.3353(15) 0.8043(17)
H18 H 0.20950 0.37950 0.85360
In1A In -0.69333(13) 0.89814(5) -0.18043(8)
In2A In -0.20093(14) -0.04657(5) -0.26209(10)
In2* In 0.20093(14) 0.45343(5) 0.26209(10)
In2** In -0.79907(14) 0.45343(5) 0.26209(10)
O3A O -0.4620(14) 0.2875(5) 0.1265(9)
O4A O -0.2825(16) 0.2892(6) 0.321(1)
O7A O -0.8555(15) 0.5673(6) -0.8573(10)
O8A O -0.8889(16) 0.4572(7) -0.9652(11)
O10* O -0.8068(14) 0.3285(5) -0.7409(9)
O13* O -1.0803(12) 0.4502(6) -0.7094(9)
O14* O -0.5044(11) 0.4510(6) -0.7328(7)
#END
