
#######################################################################
#
#                 Cambridge Crystallographic Data Centre
#                                CCDC
#
#######################################################################
#
# If this CIF has been generated from an entry in the Cambridge
# Structural Database, then it will include bibliographic, chemical,
# crystal, experimental, refinement or atomic coordinate data resulting
# from the CCDC's data processing and validation procedures.
#
#######################################################################

data_CSD_CIF_FEYGAT
_audit_creation_date 2013-05-20
_audit_creation_method CSD-ConQuest-V1
_database_code_CSD FEYGAT
_database_code_depnum_ccdc_archive 'CCDC 901723'
_chemical_formula_sum 'C11 H21 Cu2 N1 O10'
_chemical_formula_moiety
;
(C5 H5 Cu2 O10 1-)n,n(C6 H16 N1 1+)
;
_journal_coden_Cambridge 580
_journal_volume 53
_journal_year 2013
_journal_page_first 157
_journal_name_full 'Polyhedron '
loop_
_publ_author_name
"L.Rigamonti"
"S.Carlino"
"Y.Halibi"
"F.Demartin"
"C.Castellano"
"A.Ponti"
"R.Pievo"
"A.Pasini"
_chemical_name_systematic
;
catena-(Triethylammonium pentakis(\m~2~-formato-O,O')-di-copper)
;
_cell_volume   1796.211
_exptl_crystal_colour 'green'
_exptl_crystal_density_diffrn 1.68
_exptl_crystal_description 'prism'
_diffrn_ambient_temperature 293
#These two values have been output from a single CSD field.
_refine_ls_R_factor_gt 0.0264
_refine_ls_wR_factor_gt 0.0264
_symmetry_cell_setting monoclinic
_symmetry_space_group_name_H-M 'P 21/c'
_symmetry_Int_Tables_number 14
loop_
_symmetry_equiv_pos_site_id
_symmetry_equiv_pos_as_xyz
1 x,y,z
2 -x,1/2+y,1/2-z
3 -x,-y,-z
4 x,-1/2-y,-1/2+z
_cell_length_a 17.2235(9)
_cell_length_b 7.3479(4)
_cell_length_c 14.2226(8)
_cell_angle_alpha 90
_cell_angle_beta 93.70(1)
_cell_angle_gamma 90
_cell_formula_units_Z 4
loop_
_atom_type_symbol
_atom_type_radius_bond
C 0.68
H 0.23
Cu 1.32
N 0.68
O 0.68
loop_
_atom_site_label
_atom_site_type_symbol
_atom_site_fract_x
_atom_site_fract_y
_atom_site_fract_z
C1 C 1.00728(15) -0.2729(4) 0.1045(2)
H1 H 1.01010 -0.37490 0.14330
C2 C 0.94920(13) -0.1946(3) -0.13492(18)
H2 H 0.92950 -0.26680 -0.18460
C3 C 0.74852(10) 0.0533(3) 0.03178(15)
H3 H 0.74230 -0.03050 -0.01710
C4 C 0.48870(16) -0.1369(4) 0.15918(19)
H4 H 0.48420 -0.18970 0.21800
C5 C 0.54443(13) -0.3010(4) -0.05886(18)
H5 H 0.56260 -0.41210 -0.07990
O1 O 0.94554(9) -0.1853(2) 0.10383(13)
O2 O 1.06535(9) -0.2422(2) 0.06043(13)
O3 O 1.02095(9) -0.1803(2) -0.12641(12)
O4 O 0.90012(8) -0.1247(2) -0.08542(11)
O5 O 0.81469(7) 0.0896(2) 0.06243(12)
O6 O 0.68921(7) 0.1219(2) 0.06219(10)
O7 O 0.55165(10) -0.0636(3) 0.14635(13)
O8 O 0.43041(9) -0.1487(3) 0.10292(12)
O9 O 0.59448(9) -0.1942(2) -0.02420(13)
O10 O 0.47342(8) -0.2766(2) -0.06857(12)
Cu1 Cu 0.927944(12) 0.03213(4) 0.02449(2)
Cu2 Cu 0.572687(12) 0.04902(4) 0.025128(19)
C6 C 0.68308(14) 0.5122(4) 0.2021(2)
H6 H 0.65270 0.54560 0.14490
H7 H 0.65100 0.43410 0.23860
C7 C 0.70194(18) 0.6799(4) 0.2572(2)
H8 H 0.73310 0.64890 0.31330
H9 H 0.65460 0.73690 0.27400
H10 H 0.73030 0.76240 0.21990
C8 C 0.80492(14) 0.5118(3) 0.1162(2)
H11 H 0.82300 0.61960 0.15030
H12 H 0.85010 0.43890 0.10370
C9 C 0.7649(2) 0.5672(4) 0.0258(2)
H13 H 0.74650 0.46090 -0.00800
H14 H 0.80050 0.63230 -0.01100
H15 H 0.72160 0.64420 0.03770
C10 C 0.79768(16) 0.3215(4) 0.25738(19)
H16 H 0.84520 0.26900 0.23630
H17 H 0.81220 0.41560 0.30300
C11 C 0.7543(2) 0.1803(5) 0.3035(2)
H18 H 0.71640 0.23590 0.34100
H19 H 0.78950 0.10830 0.34310
H20 H 0.72830 0.10380 0.25660
N1 N 0.75354(9) 0.4057(2) 0.17559(12)
H21 H 0.73490 0.31180 0.13910
O2B O 0.93465(9) 0.2422(2) -0.06043(13)
O3B O 0.97905(9) 0.1803(2) 0.12641(12)
O8B O 0.56959(9) 0.1487(3) -0.10292(12)
O10B O 0.52658(8) 0.2766(2) 0.06857(12)
Cu1B Cu 1.072056(12) -0.03213(4) -0.02449(2)
Cu2B Cu 0.427313(12) -0.04902(4) -0.025128(19)
#END
