
#######################################################################
#
#                 Cambridge Crystallographic Data Centre
#                                CCDC
#
#######################################################################
#
# If this CIF has been generated from an entry in the Cambridge
# Structural Database, then it will include bibliographic, chemical,
# crystal, experimental, refinement or atomic coordinate data resulting
# from the CCDC's data processing and validation procedures.
#
#######################################################################

data_CSD_CIF_FIBDUS
_audit_creation_date 2018-04-03
_audit_creation_method CSD-ConQuest-V1
_database_code_CSD FIBDUS
_database_code_depnum_ccdc_archive 'CCDC 1824391'
_chemical_formula_sum 'C84 H120 Na4 O76 U8'
_chemical_formula_moiety
;
(C44 H40 O56 U8 4-)n,4(C10 H20 O5),4(Na1 1+)
;
_journal_coden_Cambridge 1147
_journal_volume 18
_journal_year 2018
_journal_page_first 3167
_journal_name_full 'Cryst.Growth Des. '
loop_
_publ_author_name
"P.Thuery"
"Y.Atoini"
"J.Harrowfield"
_chemical_name_systematic
;
catena-[tetra-sodium 
tetrakis(\m-cyclohexane-1,2-dicarboxylato)-hexakis(\m-oxalato)-hexadecaoxo-oct
a-uranium 15-crown-5 solvate]
;
_cell_volume   3020.582
_exptl_crystal_colour 'light yellow'
_exptl_crystal_density_diffrn 2.387
_exptl_crystal_description 'platelet'
_diffrn_ambient_temperature 150
_refine_special_details
;
C25B,C26B,C27B,C28B and C25A,C26A,C27A,C28A disordered over two sites with 
occupancies 0.52:0.48.
;
#These two values have been output from a single CSD field.
_refine_ls_R_factor_gt 0.0595
_refine_ls_wR_factor_gt 0.0595
_symmetry_cell_setting triclinic
_symmetry_space_group_name_H-M 'P -1'
_symmetry_Int_Tables_number 2
loop_
_symmetry_equiv_pos_site_id
_symmetry_equiv_pos_as_xyz
1 x,y,z
2 -x,-y,-z
_cell_length_a 10.5651(8)
_cell_length_b 15.3082(9)
_cell_length_c 19.5404(11)
_cell_angle_alpha 75.056(5)
_cell_angle_beta 86.203(5)
_cell_angle_gamma 81.772(4)
_cell_formula_units_Z 1
loop_
_atom_type_symbol
_atom_type_radius_bond
C 0.68
H 0.23
Na 1.66
O 0.68
U 1.96
loop_
_atom_site_label
_atom_site_type_symbol
_atom_site_fract_x
_atom_site_fract_y
_atom_site_fract_z
U1 U 0.39882(5) 0.46248(3) 0.38913(2)
U2 U 0.82266(5) 0.92027(3) 0.41440(2)
U3 U 0.66205(5) 1.00254(3) 0.09623(2)
U4 U 0.17682(5) 0.58487(3) 0.08133(2)
O1 O 0.5408(9) 0.4176(6) 0.3482(5)
O2 O 0.2650(11) 0.5078(7) 0.4282(6)
O3 O 0.9590(9) 0.8565(6) 0.3846(5)
O4 O 0.6906(10) 0.9855(6) 0.4409(5)
O5 O 0.7971(9) 0.9239(6) 0.0877(5)
O6 O 0.5209(9) 1.0761(6) 0.1072(5)
O7 O 0.3223(9) 0.5385(6) 0.0456(5)
O8 O 0.0311(10) 0.6303(7) 0.1164(5)
O9 O 0.5153(10) 0.5817(6) 0.3946(5)
O10 O 0.5020(12) 0.5947(6) 0.5034(5)
O11 O 0.7555(9) 0.7857(6) 0.4822(5)
O12 O 0.6657(11) 0.6830(6) 0.5613(5)
O13 O 0.5288(8) 0.8919(6) 0.0953(4)
O14 O 0.3704(9) 0.9662(6) 0.0250(4)
O15 O 0.2196(9) 0.7257(6) 0.0169(5)
O16 O 0.2315(9) 0.8646(6) -0.0400(4)
O17 O 0.3544(9) 0.5845(6) 0.2825(5)
O18 O 0.2906(11) 0.6241(6) 0.1685(5)
O19 O 0.2804(9) 0.4216(6) 0.3019(5)
O20 O 0.2117(9) 0.4620(6) 0.1895(4)
O21 O 0.6964(9) 0.8806(6) 0.3313(4)
O22 O 0.6326(9) 0.9120(6) 0.2185(4)
O23 O 0.8193(10) 1.0256(6) 0.2974(4)
O24 O 0.7680(9) 1.0518(6) 0.1842(4)
O25 O 0.9239(10) 0.9031(6) 0.5255(5)
O26 O 1.0512(9) 0.9590(6) 0.5860(4)
O27 O 0.0731(10) 0.4531(6) 0.0804(5)
O28 O -0.0742(9) 0.4029(6) 0.0279(5)
C1 C 0.5195(14) 0.7291(8) 0.4107(6)
H1 H 0.59560 0.73710 0.37750
C2 C 0.5320(13) 0.7821(8) 0.4680(7)
H2 H 0.54030 0.84590 0.44050
C3 C 0.4121(17) 0.7903(10) 0.5151(9)
H3 H 0.39740 0.72910 0.54410
H4 H 0.42410 0.82830 0.54750
C4 C 0.2965(16) 0.8332(13) 0.4700(9)
H5 H 0.21820 0.83340 0.50070
H6 H 0.30640 0.89720 0.44550
C5 C 0.2832(17) 0.7807(13) 0.4158(10)
H7 H 0.26550 0.71840 0.44070
H8 H 0.20890 0.81080 0.38620
C6 C 0.4004(15) 0.7738(11) 0.3682(8)
H9 H 0.41430 0.83570 0.34010
H10 H 0.38630 0.73760 0.33470
C7 C 0.5146(13) 0.6277(9) 0.4386(6)
C8 C 0.6575(13) 0.7484(7) 0.5064(6)
C9 C 0.3331(15) 0.8331(10) 0.1186(7)
H11 H 0.38110 0.77130 0.12050
C10 C 0.2028(14) 0.8347(9) 0.0875(7)
H12 H 0.16390 0.78300 0.12010
C11 C 0.1111(15) 0.9179(10) 0.0896(8)
H13 H 0.02810 0.91390 0.07070
H14 H 0.14520 0.97280 0.06000
C12 C 0.0927(16) 0.9244(12) 0.1666(9)
H15 H 0.04870 0.87330 0.19470
H16 H 0.03860 0.98220 0.16850
C13 C 0.2252(17) 0.9209(11) 0.1989(9)
H17 H 0.26360 0.97630 0.17400
H18 H 0.21170 0.92180 0.24930
C14 C 0.3152(14) 0.8405(10) 0.1941(7)
H19 H 0.28250 0.78500 0.22380
H20 H 0.39870 0.84460 0.21240
C15 C 0.4168(12) 0.9010(8) 0.0761(6)
C16 C 0.2155(13) 0.8124(9) 0.0159(7)
C17 C 0.3058(14) 0.5693(9) 0.2310(7)
C18 C 0.2613(14) 0.4755(8) 0.2406(7)
C19 C 0.6899(13) 0.9267(9) 0.2666(7)
C20 C 0.7657(13) 1.0095(9) 0.2485(6)
C21 C 0.9934(13) 0.9594(9) 0.5321(6)
C22 C 0.0018(13) 0.4570(8) 0.0318(7)
Na1 Na 0.7314(7) 0.5004(5) 0.3393(4)
Na2 Na 0.2280(6) 0.3176(4) 0.1519(3)
O29 O 0.6420(12) 0.5709(8) 0.2247(6)
O30 O 0.7820(12) 0.6536(8) 0.2985(7)
O31 O 0.9178(14) 0.5184(10) 0.3886(9)
O32 O 0.8453(14) 0.3543(9) 0.4000(8)
O33 O 0.7947(13) 0.4084(9) 0.2576(7)
C23 C 0.6380(18) 0.6675(13) 0.2088(10)
H21 H 0.56730 0.69280 0.23680
H22 H 0.62020 0.69380 0.15790
C24 C 0.763(2) 0.6949(11) 0.2251(10)
H23 H 0.83420 0.67270 0.19590
H24 H 0.75710 0.76210 0.21530
C25 C 0.919(5) 0.664(3) 0.3125(17)
H25 H 0.93250 0.72590 0.30610
H26 H 0.97840 0.63600 0.28250
C26 C 0.941(4) 0.6069(11) 0.3884(18)
H27 H 1.02240 0.60980 0.40590
H28 H 0.87420 0.62950 0.41760
C27 C 0.981(4) 0.4432(11) 0.436(2)
H29 H 0.98670 0.46130 0.48130
H30 H 1.06880 0.43190 0.41780
C28 C 0.926(4) 0.3539(17) 0.4555(12)
H31 H 0.99690 0.30240 0.46020
H32 H 0.87750 0.34630 0.50110
C29 C 0.890(2) 0.2986(16) 0.3552(9)
H33 H 0.89830 0.23410 0.38280
H34 H 0.97530 0.31250 0.33560
C30 C 0.800(2) 0.3116(12) 0.2951(10)
H35 H 0.83400 0.27230 0.26320
H36 H 0.71430 0.29670 0.31350
C31 C 0.722(2) 0.4318(12) 0.1984(11)
H37 H 0.63760 0.40990 0.21070
H38 H 0.76480 0.40220 0.16200
C32 C 0.703(2) 0.5325(13) 0.1691(10)
H39 H 0.78690 0.55520 0.15500
H40 H 0.64920 0.54940 0.12710
O34 O 0.1407(12) 0.2337(9) 0.0846(8)
O35 O 0.3405(12) 0.3236(9) 0.0365(7)
O36 O 0.4656(11) 0.3239(7) 0.1574(7)
O37 O 0.3243(14) 0.2001(9) 0.2487(6)
O38 O 0.0689(13) 0.2306(8) 0.2232(6)
C33 C 0.220(2) 0.2055(12) 0.0335(9)
H41 H 0.17050 0.18360 0.00170
H42 H 0.28570 0.15490 0.05600
C34 C 0.284(2) 0.2854(15) -0.0081(11)
H43 H 0.35010 0.26490 -0.04110
H44 H 0.22010 0.33160 -0.03660
C35 C 0.4725(18) 0.3019(12) 0.0377(10)
H45 H 0.51060 0.32320 -0.01040
H46 H 0.49600 0.23510 0.05390
C36 C 0.5202(18) 0.3479(13) 0.0873(10)
H47 H 0.61430 0.33230 0.08960
H48 H 0.50140 0.41470 0.06810
C37 C 0.5289(17) 0.2416(11) 0.2001(10)
H49 H 0.61530 0.25050 0.21160
H50 H 0.53780 0.19250 0.17490
C38 C 0.446(2) 0.2162(15) 0.2685(10)
H51 H 0.48750 0.16070 0.30140
H52 H 0.43370 0.26650 0.29250
C39 C 0.232(2) 0.1776(15) 0.3072(10)
H53 H 0.20730 0.22940 0.32900
H54 H 0.26710 0.12360 0.34410
C40 C 0.120(2) 0.1576(16) 0.2727(12)
H55 H 0.14790 0.10660 0.25040
H56 H 0.05320 0.13830 0.30940
C41 C -0.0147(19) 0.2091(15) 0.1750(11)
H57 H -0.07290 0.26470 0.15340
H58 H -0.06790 0.16290 0.20220
C42 C 0.0596(18) 0.1734(13) 0.1169(10)
H59 H 0.10850 0.11300 0.13730
H60 H 0.00010 0.16640 0.08220
C43? C 0.887(4) 0.672(3) 0.329(2)
H61? H 0.86040 0.69430 0.36970
H62? H 0.92460 0.71920 0.29450
C44? C 0.986(3) 0.588(2) 0.346(2)
H63? H 1.02390 0.57130 0.30470
H64? H 1.05310 0.59930 0.37260
C45? C 1.012(3) 0.4398(19) 0.403(3)
H65? H 1.08970 0.44340 0.42460
H66? H 1.03330 0.41870 0.36100
C46? C 0.935(6) 0.365(4) 0.441(3)
H67? H 0.98330 0.31030 0.46790
H68? H 0.88230 0.39560 0.47110
O25A O 1.0761(10) 1.0969(6) 0.4745(5)
O26A O 0.9488(9) 1.0410(6) 0.4140(4)
C21A C 1.0066(13) 1.0406(9) 0.4679(6)
O27A O -0.0731(10) 0.5469(6) -0.0804(5)
O28A O 0.0742(9) 0.5971(6) -0.0279(5)
C22A C -0.0018(13) 0.5430(8) -0.0318(7)
U1A U -0.39882(5) 0.53752(3) -0.38913(2)
U2A U -0.82266(5) 0.07973(3) -0.41440(2)
U3A U -0.66205(5) -0.00254(3) -0.09623(2)
U4A U -0.17682(5) 0.41513(3) -0.08133(2)
O1A O -0.5408(9) 0.5824(6) -0.3482(5)
O2A O -0.2650(11) 0.4922(7) -0.4282(6)
O3A O -0.9590(9) 0.1435(6) -0.3846(5)
O4A O -0.6906(10) 0.0145(6) -0.4409(5)
O5A O -0.7971(9) 0.0761(6) -0.0877(5)
O6A O -0.5209(9) -0.0761(6) -0.1072(5)
O7A O -0.3223(9) 0.4615(6) -0.0456(5)
O8A O -0.0311(10) 0.3697(7) -0.1164(5)
O9A O -0.5153(10) 0.4183(6) -0.3946(5)
O10A O -0.5020(12) 0.4053(6) -0.5034(5)
O11A O -0.7555(9) 0.2143(6) -0.4822(5)
O12A O -0.6657(11) 0.3170(6) -0.5613(5)
O13A O -0.5288(8) 0.1081(6) -0.0953(4)
O14A O -0.3704(9) 0.0338(6) -0.0250(4)
O15A O -0.2196(9) 0.2743(6) -0.0169(5)
O16A O -0.2315(9) 0.1354(6) 0.0400(4)
O17A O -0.3544(9) 0.4155(6) -0.2825(5)
O18A O -0.2906(11) 0.3759(6) -0.1685(5)
O19A O -0.2804(9) 0.5784(6) -0.3019(5)
O20A O -0.2117(9) 0.5380(6) -0.1895(4)
O21A O -0.6964(9) 0.1194(6) -0.3313(4)
O22A O -0.6326(9) 0.0880(6) -0.2185(4)
O23A O -0.8193(10) -0.0256(6) -0.2974(4)
O24A O -0.7680(9) -0.0518(6) -0.1842(4)
C1A C -0.5195(14) 0.2709(8) -0.4107(6)
H1A H -0.59560 0.26290 -0.37750
C2A C -0.5320(13) 0.2179(8) -0.4680(7)
H2A H -0.54030 0.15410 -0.44050
C3A C -0.4121(17) 0.2097(10) -0.5151(9)
H3A H -0.39740 0.27090 -0.54410
H4A H -0.42410 0.17170 -0.54750
C4A C -0.2965(16) 0.1668(13) -0.4700(9)
H5A H -0.21820 0.16660 -0.50070
H6A H -0.30640 0.10280 -0.44550
C5A C -0.2832(17) 0.2193(13) -0.4158(10)
H7A H -0.26550 0.28160 -0.44070
H8A H -0.20890 0.18920 -0.38620
C6A C -0.4004(15) 0.2262(11) -0.3682(8)
H9A H -0.41430 0.16430 -0.34010
H10A H -0.38630 0.26240 -0.33470
C7A C -0.5146(13) 0.3723(9) -0.4386(6)
C8A C -0.6575(13) 0.2516(7) -0.5064(6)
C9A C -0.3331(15) 0.1669(10) -0.1186(7)
H11A H -0.38110 0.22870 -0.12050
C10A C -0.2028(14) 0.1653(9) -0.0875(7)
H12A H -0.16390 0.21700 -0.12010
C11A C -0.1111(15) 0.0821(10) -0.0896(8)
H13A H -0.02810 0.08610 -0.07070
H14A H -0.14520 0.02720 -0.06000
C12A C -0.0927(16) 0.0756(12) -0.1666(9)
H15A H -0.04870 0.12670 -0.19470
H16A H -0.03860 0.01780 -0.16850
C13A C -0.2252(17) 0.0791(11) -0.1989(9)
H17A H -0.26360 0.02370 -0.17400
H18A H -0.21170 0.07820 -0.24930
C14A C -0.3152(14) 0.1595(10) -0.1941(7)
H19A H -0.28250 0.21500 -0.22380
H20A H -0.39870 0.15540 -0.21240
C15A C -0.4168(12) 0.0990(8) -0.0761(6)
C16A C -0.2155(13) 0.1876(9) -0.0159(7)
C17A C -0.3058(14) 0.4307(9) -0.2310(7)
C18A C -0.2613(14) 0.5245(8) -0.2406(7)
C19A C -0.6899(13) 0.0733(9) -0.2666(7)
C20A C -0.7657(13) -0.0095(9) -0.2485(6)
U1* U -0.60118(5) 0.46248(3) -0.61087(2)
U1A* U 0.60118(5) 0.53752(3) 0.61087(2)
U2A* U 1.17734(5) 1.07973(3) 0.58560(2)
U3* U -0.33795(5) 0.00254(3) 0.09623(2)
U3A* U 0.33795(5) 0.99746(3) -0.09623(2)
O10* O -0.4980(12) 0.5947(6) -0.4966(5)
O10A* O 0.4980(12) 0.4053(6) 0.4966(5)
O12* O -0.3343(11) 0.6830(6) -0.4387(5)
O12A* O 0.3343(11) 0.3170(6) 0.4387(5)
O14* O -0.6296(9) -0.0338(6) 0.0250(4)
O14A* O 0.6296(9) 1.0338(6) -0.0250(4)
O16* O -0.7685(9) -0.1354(6) -0.0400(4)
O16A* O 0.7685(9) 1.1354(6) 0.0400(4)
O25A* O -0.9239(10) 0.0969(6) -0.5255(5)
O26* O -0.9488(9) -0.0410(6) -0.4140(4)
#END
