
#######################################################################
#
#                 Cambridge Crystallographic Data Centre
#                                CCDC
#
#######################################################################
#
# If this CIF has been generated from an entry in the Cambridge
# Structural Database, then it will include bibliographic, chemical,
# crystal, experimental, refinement or atomic coordinate data resulting
# from the CCDC's data processing and validation procedures.
#
#######################################################################

data_CSD_CIF_FIBDIE
_audit_creation_date 2005-05-31
_audit_creation_method CSD-ConQuest-V1
_database_code_CSD FIBDIE
_database_code_depnum_ccdc_archive 'CCDC 236227'
_chemical_formula_sum 'C19 H27 Cr1 Mn1 N3 O18'
_chemical_formula_moiety
;
(C6 H4 Cr1 Mn1 O14 1-)n,n(C13 H19 N3 O2 1+),2n(H2 O1)
;
_journal_coden_Cambridge 1290
_journal_year 2005
_journal_page_first 389
_journal_name_full 'Eur.J.Inorg.Chem. '
loop_
_publ_author_name
"A.Alberola"
"E.Coronado"
"C.Gimenez-Saiz"
"C.J.Gomez-Garcia"
"F.M.Romero"
"A.Tarazon"
_chemical_name_systematic
;
catena-(2-(1-Methylpyridinium-3-yl)-4,4,5,5-tetramethylimidazoline-1-oxyl-3-ox
ide 
(\m~2~-oxalato-O,O',O'',O''')-bis(\m~2~-oxalato-O,O',O'')-diaqua-chromium(iii)
-manganese(ii) dihydrate)
;
_cell_volume   1374.487
_exptl_crystal_colour 'green'
_exptl_crystal_density_diffrn 1.673
_exptl_crystal_description 'plate'
_diffrn_ambient_temperature 225
#These two values have been output from a single CSD field.
_refine_ls_R_factor_gt 0.0507
_refine_ls_wR_factor_gt 0.0507
_symmetry_cell_setting triclinic
_symmetry_space_group_name_H-M 'P -1'
_symmetry_Int_Tables_number 2
loop_
_symmetry_equiv_pos_site_id
_symmetry_equiv_pos_as_xyz
1 x,y,z
2 -x,-y,-z
_cell_length_a 8.7890(2)
_cell_length_b 11.5290(2)
_cell_length_c 14.4980(3)
_cell_angle_alpha 89.1000(8)
_cell_angle_beta 82.2150(9)
_cell_angle_gamma 70.8690(9)
_cell_formula_units_Z 2
loop_
_atom_type_symbol
_atom_type_radius_bond
C 0.68
H 0.23
Cr 1.35
Mn 1.35
N 0.68
O 0.68
loop_
_atom_site_label
_atom_site_type_symbol
_atom_site_fract_x
_atom_site_fract_y
_atom_site_fract_z
N1 N 1.0420(4) 0.2136(3) 0.4904(2)
N2 N 0.8117(4) 0.3952(3) 0.7993(2)
N3 N 0.9234(4) 0.1960(3) 0.7867(2)
C1 C 0.9696(5) 0.3149(4) 0.4463(3)
H1 H 0.99080 0.31700 0.38100
C2 C 0.8651(5) 0.4152(4) 0.4960(3)
H2 H 0.81470 0.48670 0.46480
C3 C 0.8323(5) 0.4130(3) 0.5917(3)
H3 H 0.75910 0.48240 0.62560
C4 C 0.9086(4) 0.3071(3) 0.6377(2)
C5 C 1.0156(4) 0.2076(3) 0.5839(2)
H4 H 1.07000 0.13520 0.61290
C6 C 1.1543(6) 0.1063(4) 0.4347(3)
H5 H 1.09240 0.06200 0.40880
H6 H 1.22630 0.05250 0.47410
H7 H 1.21810 0.13360 0.38460
C7 C 0.8817(4) 0.2994(3) 0.7389(2)
C8 C 0.7848(5) 0.3547(3) 0.8976(2)
C9 C 0.9019(4) 0.2196(3) 0.8906(2)
C10 C 0.6056(4) 0.3674(3) 0.9172(3)
H8 H 0.54020 0.45150 0.90790
H9 H 0.58010 0.34600 0.98100
H10 H 0.58220 0.31270 0.87520
C11 C 0.8233(5) 0.4388(4) 0.9644(3)
H11 H 0.93330 0.43950 0.94590
H12 H 0.81370 0.40900 1.02710
H13 H 0.74740 0.52150 0.96260
C12 C 1.0711(5) 0.2041(4) 0.9150(3)
H14 H 1.14280 0.12130 0.89810
H15 H 1.06410 0.21880 0.98140
H16 H 1.11380 0.26250 0.88110
C13 C 0.8329(5) 0.1297(4) 0.9423(3)
H17 H 0.73610 0.12950 0.91730
H18 H 0.80520 0.15370 1.00780
H19 H 0.91310 0.04820 0.93490
O1 O 0.7605(4) 0.5078(2) 0.77731(19)
O2 O 0.9869(4) 0.0870(2) 0.75053(19)
Cr1 Cr 0.43506(7) 0.24726(5) 0.64424(4)
Mn1 Mn 0.35420(7) 0.77260(5) 0.72924(3)
O3 O 0.2265(3) 0.3273(2) 0.71966(16)
O4 O 0.4569(3) 0.4119(2) 0.65201(17)
O5 O 0.3418(3) 0.2858(2) 0.52620(16)
O6 O 0.6426(3) 0.1825(2) 0.55898(15)
O7 O 0.4014(3) 0.0850(2) 0.65222(16)
O8 O 0.5320(3) 0.1946(2) 0.75810(16)
O9 O 0.0951(4) 0.4981(3) 0.8043(3)
O10 O 0.3156(4) 0.6000(2) 0.7126(2)
O11 O 0.4220(3) 0.2818(2) 0.37326(16)
O12 O 0.7357(3) 0.1697(2) 0.40632(16)
O13 O 0.4049(3) -0.0605(2) 0.75704(18)
O14 O 0.5075(3) 0.0732(2) 0.87592(17)
O15 O 0.1210(3) 0.8539(2) 0.8067(2)
H20 H 0.052(4) 0.822(3) 0.814(3)
H21 H 0.081(4) 0.9256(17) 0.800(3)
O16 O 0.4836(3) 0.6924(2) 0.84133(18)
H22 H 0.568(3) 0.638(3) 0.823(3)
H23 H 0.515(4) 0.740(3) 0.872(2)
C14 C 0.2054(5) 0.4381(3) 0.7469(3)
C15 C 0.3357(5) 0.4900(3) 0.7007(2)
C16 C 0.4484(4) 0.2609(3) 0.4546(2)
C17 C 0.6246(4) 0.1993(3) 0.4735(2)
C18 C 0.4276(4) 0.0343(3) 0.7300(2)
C19 C 0.4942(4) 0.1049(3) 0.7958(2)
O17 O 0.4006(4) 0.1634(2) 1.06437(19)
H24 H 0.411(5) 0.153(3) 1.0081(12)
H25 H 0.429(5) 0.096(2) 1.086(2)
O18 O -0.1005(4) 0.7433(3) 0.8072(3)
H26 H -0.158(3) 0.766(4) 0.860(2)
H27 H -0.069(5) 0.6709(15) 0.812(3)
Mn1A Mn 0.64580(7) 0.22740(5) 0.27076(3)
Mn1* Mn 0.35420(7) -0.22740(5) 0.72924(3)
O11A O 0.5780(3) 0.7182(2) 0.62674(16)
O12A O 0.2643(3) 0.8303(2) 0.59368(16)
O13* O 0.4049(3) 0.9395(2) 0.75704(18)
#END
