
#######################################################################
#
#                 Cambridge Crystallographic Data Centre
#                                CCDC
#
#######################################################################
#
# If this CIF has been generated from an entry in the Cambridge
# Structural Database, then it will include bibliographic, chemical,
# crystal, experimental, refinement or atomic coordinate data resulting
# from the CCDC's data processing and validation procedures.
#
#######################################################################

data_CSD_CIF_FIBFOO
_audit_creation_date 2018-04-03
_audit_creation_method CSD-ConQuest-V1
_database_code_CSD FIBFOO
_database_code_depnum_ccdc_archive 'CCDC 1824395'
_chemical_formula_sum 'C80 H116 K4 O76 U8'
_chemical_formula_moiety
;
(C44 H40 O56 U8 4-)n,3(C12 H24 O6),4(K1 1+),2(H2 O1)
;
_journal_coden_Cambridge 1147
_journal_volume 18
_journal_year 2018
_journal_page_first 3167
_journal_name_full 'Cryst.Growth Des. '
loop_
_publ_author_name
"P.Thuery"
"Y.Atoini"
"J.Harrowfield"
_chemical_name_systematic
;
catena-[tetra-potassium 
tetrakis(\m-rac-cyclohexane-1,2-dicarboxylato)-hexakis(\m-oxalato)-hexadecaoxo
-octa-uranium 18-crown-6 solvate dihydrate]
;
_cell_volume   3048.060
_exptl_crystal_colour 'light yellow'
_exptl_crystal_density_diffrn 2.372
_exptl_crystal_description 'platelet'
_diffrn_ambient_temperature 150
_refine_special_details
;
K1A and K1B disordered over two sites with occupancies 0.626:0.374; K2 
disordered by symmetry over two configurations with occupancy 0.5; O38 and 
O39 disordered over two sites with occupancies 0.5:0.5.
;
#These two values have been output from a single CSD field.
_refine_ls_R_factor_gt 0.0557
_refine_ls_wR_factor_gt 0.0557
_symmetry_cell_setting triclinic
_symmetry_space_group_name_H-M 'P -1'
_symmetry_Int_Tables_number 2
loop_
_symmetry_equiv_pos_site_id
_symmetry_equiv_pos_as_xyz
1 x,y,z
2 -x,-y,-z
_cell_length_a 10.7719(7)
_cell_length_b 17.0342(10)
_cell_length_c 18.4293(9)
_cell_angle_alpha 114.598(3)
_cell_angle_beta 93.203(3)
_cell_angle_gamma 94.870(4)
_cell_formula_units_Z 1
loop_
_atom_type_symbol
_atom_type_radius_bond
C 0.68
H 0.23
K 2.03
O 0.68
U 1.96
loop_
_atom_site_label
_atom_site_type_symbol
_atom_site_fract_x
_atom_site_fract_y
_atom_site_fract_z
U1 U 0.93733(5) 0.60724(3) 0.67672(3)
U2 U 0.58589(4) 0.88998(3) 0.85787(3)
U3 U 0.36590(5) 1.07442(3) 0.65711(3)
U4 U 0.12043(5) 1.40879(3) 0.86437(3)
O1 O 0.8161(9) 0.5309(6) 0.6681(5)
O2 O 1.0603(8) 0.6861(5) 0.6807(5)
O3 O 0.6869(9) 0.9738(6) 0.8576(7)
O4 O 0.4852(8) 0.8043(6) 0.8568(5)
O5 O 0.2238(9) 1.0253(6) 0.5991(5)
O6 O 0.5072(9) 1.1235(6) 0.7128(5)
O7 O 0.2599(10) 1.4449(6) 0.9231(6)
O8 O -0.0195(9) 1.3676(6) 0.8002(6)
O9 O 1.0545(10) 0.5789(6) 0.7660(5)
O10 O 1.1742(8) 0.5105(5) 0.8107(5)
O11 O 1.0293(11) 0.5313(6) 0.9351(6)
O12 O 0.9644(12) 0.6246(6) 1.0379(6)
O13 O 0.4530(8) 0.8913(5) 0.7531(5)
O14 O 0.3602(9) 0.9800(5) 0.7136(5)
O15 O 0.4521(9) 0.9909(7) 0.9161(5)
O16 O 0.3507(9) 1.0726(7) 1.0077(5)
O17 O 0.7785(8) 0.6950(5) 0.6636(4)
O18 O 0.6510(7) 0.7932(5) 0.7288(4)
O19 O 0.8772(8) 0.7059(5) 0.8027(4)
O20 O 0.7606(7) 0.8099(5) 0.8678(4)
O21 O 0.8904(8) 0.5740(5) 0.5352(5)
O22 O 0.9528(8) 0.5079(5) 0.4123(4)
O23 O 0.2515(8) 1.1455(5) 0.7717(5)
O24 O 0.1570(9) 1.2616(5) 0.8406(5)
O25 O 0.3164(9) 1.2157(5) 0.6723(5)
O26 O 0.2293(8) 1.3347(5) 0.7466(5)
O27 O 0.4636(9) 0.9538(5) 0.5643(5)
O28 O 0.5561(10) 0.9002(6) 0.4518(5)
C1 C 1.1582(16) 0.6596(8) 0.8988(8)
H1 H 1.22690 0.64690 0.92960
C2 C 1.0497(15) 0.6766(8) 0.9500(8)
H2 H 0.97490 0.68280 0.91900
C3 C 1.0886(18) 0.7654(9) 1.0281(10)
H3 H 1.01580 0.78060 1.05960
H4 H 1.15630 0.75710 1.06190
C4 C 1.131(2) 0.8362(13) 1.0083(12)
H5 H 1.15300 0.89040 1.05800
H6 H 1.06380 0.84580 0.97510
C5 C 1.2425(16) 0.8132(10) 0.9634(10)
H7 H 1.30840 0.80270 0.99690
H8 H 1.27580 0.86250 0.95220
C6 C 1.2101(14) 0.7307(9) 0.8831(8)
H9 H 1.14900 0.74220 0.84760
H10 H 1.28680 0.71560 0.85550
C7 C 1.1247(12) 0.5769(8) 0.8209(7)
C8 C 1.0158(14) 0.6072(9) 0.9775(7)
C9 C 0.2526(12) 0.9303(9) 0.7988(7)
H11 H 0.25920 0.88080 0.81400
C10 C 0.2500(11) 1.0103(9) 0.8745(7)
H12 H 0.25600 1.06180 0.86150
C11 C 0.1243(12) 1.0075(10) 0.9150(8)
H13 H 0.12410 0.96310 0.93660
H14 H 0.12060 1.06460 0.96030
C12 C 0.0089(15) 0.9859(14) 0.8549(12)
H15 H -0.06740 0.98010 0.88070
H16 H 0.00300 1.03390 0.83830
C13 C 0.0165(14) 0.9029(11) 0.7826(9)
H17 H -0.05880 0.89020 0.74440
H18 H 0.01740 0.85450 0.79910
C14 C 0.1329(13) 0.9076(9) 0.7408(8)
H19 H 0.12850 0.95230 0.71980
H20 H 0.13610 0.85090 0.69480
C15 C 0.3621(11) 0.9342(7) 0.7527(6)
C16 C 0.3564(12) 1.0234(8) 0.9372(7)
C17 C 0.7360(11) 0.7468(7) 0.7253(7)
C18 C 0.7956(11) 0.7543(8) 0.8062(7)
C19 C 0.9563(11) 0.5240(8) 0.4851(7)
C20 C 0.2180(12) 1.2191(8) 0.7849(7)
C21 C 0.2564(13) 1.2598(8) 0.7297(7)
C22 C 0.5028(14) 0.9574(8) 0.5044(7)
K1 K 0.6109(5) 0.5448(4) 0.5402(3)
O29 O 0.4528(18) 0.5024(15) 0.6446(11)
O30 O 0.3375(14) 0.6145(12) 0.5857(9)
O31 O 0.477(3) 0.6513(17) 0.4731(18)
C23 C 0.357(2) 0.5614(17) 0.6821(13)
H21 H 0.27260 0.52840 0.66340
H22 H 0.36980 0.58210 0.74110
C24 C 0.364(2) 0.634(2) 0.6632(16)
H23 H 0.30430 0.67390 0.69390
H24 H 0.44890 0.66610 0.68090
C25 C 0.354(3) 0.6974(18) 0.5696(19)
H25 H 0.28740 0.73480 0.59230
H26 H 0.43630 0.73140 0.59400
C26 C 0.345(4) 0.668(3) 0.488(3)
H27 H 0.31920 0.71290 0.47140
H28 H 0.28550 0.61440 0.46140
C27 C 0.451(4) 0.623(2) 0.385(2)
H29 H 0.37000 0.58620 0.36370
H30 H 0.45040 0.67420 0.37170
C28 C 0.558(4) 0.573(2) 0.351(2)
H31 H 0.56050 0.56340 0.29430
H32 H 0.63790 0.60760 0.38110
K2 K 0.0251(7) 1.0242(4) 0.4980(5)
O32 O 0.083(2) 1.0912(16) 0.4239(12)
O33 O -0.0370(18) 1.1713(13) 0.5636(11)
O34 O -0.1800(15) 1.0618(11) 0.6128(9)
C29 C 0.102(3) 1.1830(16) 0.4718(17)
H33 H 0.12490 1.21480 0.43910
H34 H 0.16870 1.19860 0.51640
C30 C -0.025(3) 1.202(2) 0.503(2)
H35 H -0.03110 1.26520 0.52530
H36 H -0.09290 1.17190 0.45860
C31 C -0.145(3) 1.1965(14) 0.6001(17)
H37 H -0.21870 1.17730 0.55950
H38 H -0.13780 1.26050 0.63000
C32 C -0.159(2) 1.1534(13) 0.6566(11)
H39 H -0.08140 1.16930 0.69390
H40 H -0.22940 1.17410 0.68880
C33 C -0.182(3) 1.025(2) 0.6630(19)
H41 H -0.24510 1.04750 0.70090
H42 H -0.09870 1.03790 0.69440
C34 C -0.214(3) 0.9210(15) 0.6130(17)
H43 H -0.22750 0.89030 0.64770
H44 H -0.28630 0.90470 0.57170
K3 K 0.50000 1.50000 1.00000
O35 O 0.3741(15) 1.4043(12) 1.0738(11)
O36 O 0.3856(15) 1.5883(14) 1.1417(9)
O37 O 0.4637(13) 1.6735(9) 1.0391(10)
C35 C 0.332(3) 1.4530(19) 1.1492(16)
H45 H 0.39800 1.46290 1.19260
H46 H 0.25690 1.42040 1.15680
C36 C 0.301(3) 1.5372(19) 1.1531(15)
H47 H 0.22820 1.52510 1.11300
H48 H 0.27230 1.56980 1.20660
C37 C 0.345(2) 1.6672(14) 1.1437(11)
H49 H 0.32380 1.70370 1.19830
H50 H 0.26900 1.65320 1.10590
C38 C 0.447(2) 1.7169(13) 1.1209(10)
H51 H 0.42430 1.77570 1.13250
H52 H 0.52650 1.72340 1.15370
C39 C 0.558(2) 1.7198(14) 1.0162(14)
H53 H 0.63680 1.73350 1.05200
H54 H 0.53090 1.77470 1.01850
C40 C 0.577(3) 1.6596(18) 0.9315(17)
H55 H 0.49510 1.64040 0.89890
H56 H 0.63040 1.69220 0.90870
O38 O 0.5690(18) 0.8200(13) 0.5906(11)
K4? K 0.6790(7) 0.6718(5) 0.5178(4)
O39? O 0.830(2) 0.6414(13) 0.3992(11)
O21A O 1.1096(8) 0.4260(5) 0.4648(5)
O22A O 1.0472(8) 0.4921(5) 0.5877(4)
C19A C 1.0437(11) 0.4760(8) 0.5149(7)
O27A O 0.5364(9) 1.0462(5) 0.4357(5)
O28A O 0.4439(10) 1.0998(6) 0.5482(5)
C22A C 0.4972(14) 1.0426(8) 0.4956(7)
U1A U 0.06267(5) 1.39276(3) 0.32328(3)
U2A U 0.41411(4) 1.11002(3) 0.14213(3)
U3A U 0.63410(5) 0.92558(3) 0.34289(3)
U4A U 0.87957(5) 0.59121(3) 0.13563(3)
O1A O 0.1839(9) 1.4691(6) 0.3319(5)
O2A O -0.0603(8) 1.3139(5) 0.3193(5)
O3A O 0.3131(9) 1.0262(6) 0.1424(7)
O4A O 0.5148(8) 1.1957(6) 0.1432(5)
O5A O 0.7762(9) 0.9747(6) 0.4009(5)
O6A O 0.4928(9) 0.8765(6) 0.2872(5)
O7A O 0.7401(10) 0.5551(6) 0.0769(6)
O8A O 1.0195(9) 0.6324(6) 0.1998(6)
O9A O -0.0545(10) 1.4211(6) 0.2340(5)
O10A O -0.1742(8) 1.4895(5) 0.1893(5)
O11A O -0.0293(11) 1.4687(6) 0.0649(6)
O12A O 0.0356(12) 1.3754(6) -0.0379(6)
O13A O 0.5470(8) 1.1087(5) 0.2469(5)
O14A O 0.6398(9) 1.0200(5) 0.2864(5)
O15A O 0.5479(9) 1.0091(7) 0.0839(5)
O16A O 0.6493(9) 0.9274(7) -0.0077(5)
O17A O 0.2215(8) 1.3050(5) 0.3364(4)
O18A O 0.3490(7) 1.2068(5) 0.2712(4)
O19A O 0.1228(8) 1.2941(5) 0.1973(4)
O20A O 0.2394(7) 1.1901(5) 0.1322(4)
O23A O 0.7485(8) 0.8545(5) 0.2283(5)
O24A O 0.8430(9) 0.7384(5) 0.1594(5)
O25A O 0.6836(9) 0.7843(5) 0.3277(5)
O26A O 0.7707(8) 0.6653(5) 0.2534(5)
C1A C -0.1582(16) 1.3404(8) 0.1012(8)
H1A H -0.22690 1.35310 0.07040
C2A C -0.0497(15) 1.3234(8) 0.0500(8)
H2A H 0.02510 1.31720 0.08100
C3A C -0.0886(18) 1.2346(9) -0.0281(10)
H3A H -0.01580 1.21940 -0.05960
H4A H -0.15630 1.24290 -0.06190
C4A C -0.131(2) 1.1638(13) -0.0083(12)
H5A H -0.15300 1.10960 -0.05800
H6A H -0.06380 1.15420 0.02490
C5A C -0.2425(16) 1.1868(10) 0.0366(10)
H7A H -0.30840 1.19730 0.00310
H8A H -0.27580 1.13750 0.04780
C6A C -0.2101(14) 1.2693(9) 0.1169(8)
H9A H -0.14900 1.25780 0.15240
H10A H -0.28680 1.28440 0.14450
C7A C -0.1247(12) 1.4231(8) 0.1791(7)
C8A C -0.0158(14) 1.3928(9) 0.0225(7)
C9A C 0.7474(12) 1.0697(9) 0.2012(7)
H11A H 0.74080 1.11920 0.18600
C10A C 0.7500(11) 0.9897(9) 0.1255(7)
H12A H 0.74400 0.93820 0.13850
C11A C 0.8757(12) 0.9925(10) 0.0850(8)
H13A H 0.87590 1.03690 0.06340
H14A H 0.87940 0.93540 0.03970
C12A C 0.9911(15) 1.0141(14) 0.1451(12)
H15A H 1.06740 1.01990 0.11930
H16A H 0.99700 0.96610 0.16170
C13A C 0.9835(14) 1.0971(11) 0.2174(9)
H17A H 1.05880 1.10980 0.25560
H18A H 0.98260 1.14550 0.20090
C14A C 0.8671(13) 1.0924(9) 0.2592(8)
H19A H 0.87150 1.04770 0.28020
H20A H 0.86390 1.14910 0.30520
C15A C 0.6379(11) 1.0658(7) 0.2473(6)
C16A C 0.6436(12) 0.9766(8) 0.0628(7)
C17A C 0.2640(11) 1.2532(7) 0.2747(7)
C18A C 0.2044(11) 1.2457(8) 0.1938(7)
C20A C 0.7820(12) 0.7809(8) 0.2151(7)
C21A C 0.7436(13) 0.7402(8) 0.2703(7)
U1A* U 1.06267(5) 0.39276(3) 0.32328(3)
U2* U 0.58589(4) 0.88998(3) -0.14213(3)
U2A* U 0.41411(4) 1.11002(3) 1.14213(3)
U4* U 0.12043(5) 1.40879(3) -0.13563(3)
U4** U 1.12043(5) 0.40879(3) 0.86437(3)
U4A* U -0.12043(5) 1.59121(3) 0.13563(3)
U4A** U 0.87957(5) 0.59121(3) 1.13563(3)
O10* O 0.1742(8) 1.5105(5) 0.8107(5)
O10A* O 0.8258(8) 0.4895(5) 0.1893(5)
O11* O 0.0293(11) 1.5313(6) 0.9351(6)
O11A* O 0.9707(11) 0.4687(6) 0.0649(6)
O12* O 0.9644(12) 0.6246(6) 0.0379(6)
O12A* O 0.0356(12) 1.3754(6) 0.9621(6)
O16* O 0.3507(9) 1.0726(7) 0.0077(5)
O16A* O 0.6493(9) 0.9274(7) 0.9923(5)
O21A* O 0.1096(8) 1.4260(5) 0.4648(5)
O22* O -0.0472(8) 1.5079(5) 0.4123(4)
O29A O 0.5472(18) 0.4976(15) 0.3554(11)
O30A O 0.6625(14) 0.3855(12) 0.4143(9)
O31A O 0.523(3) 0.3487(17) 0.5269(18)
C23A C 0.643(2) 0.4386(17) 0.3179(13)
H21A H 0.72740 0.47160 0.33660
H22A H 0.63020 0.41790 0.25890
C24A C 0.636(2) 0.366(2) 0.3368(16)
H23A H 0.69570 0.32610 0.30610
H24A H 0.55110 0.33390 0.31910
C25A C 0.646(3) 0.3026(18) 0.4304(19)
H25A H 0.71260 0.26520 0.40770
H26A H 0.56370 0.26860 0.40600
C26A C 0.655(4) 0.332(3) 0.512(3)
H27A H 0.68080 0.28710 0.52860
H28A H 0.71450 0.38560 0.53860
C27A C 0.549(4) 0.377(2) 0.615(2)
H29A H 0.63000 0.41380 0.63630
H30A H 0.54960 0.32580 0.62830
C28A C 0.442(4) 0.427(2) 0.649(2)
H31A H 0.43950 0.43660 0.70570
H32A H 0.36210 0.39240 0.61890
O32A O -0.083(2) 0.9088(16) 0.5761(12)
O33A O 0.0370(18) 0.8287(13) 0.4364(11)
O34A O 0.1800(15) 0.9382(11) 0.3872(9)
C29A C -0.102(3) 0.8170(16) 0.5282(17)
H33A H -0.12490 0.78520 0.56090
H34A H -0.16870 0.80140 0.48360
C30A C 0.025(3) 0.798(2) 0.497(2)
H35A H 0.03110 0.73480 0.47470
H36A H 0.09290 0.82810 0.54140
C31A C 0.145(3) 0.8035(14) 0.3999(17)
H37A H 0.21870 0.82270 0.44050
H38A H 0.13780 0.73950 0.37000
C32A C 0.159(2) 0.8466(13) 0.3434(11)
H39A H 0.08140 0.83070 0.30610
H40A H 0.22940 0.82590 0.31120
C33A C 0.182(3) 0.975(2) 0.3370(19)
H41A H 0.24510 0.95250 0.29910
H42A H 0.09870 0.96210 0.30560
C34A C 0.214(3) 1.0790(15) 0.3870(17)
H43A H 0.22750 1.10970 0.35230
H44A H 0.28630 1.09530 0.42830
O35A O 0.6259(15) 1.5957(12) 0.9262(11)
O36A O 0.6144(15) 1.4117(14) 0.8583(9)
O37A O 0.5363(13) 1.3265(9) 0.9609(10)
C35A C 0.668(3) 1.5470(19) 0.8508(16)
H45A H 0.60200 1.53710 0.80740
H46A H 0.74310 1.57960 0.84320
C36A C 0.699(3) 1.4628(19) 0.8469(15)
H47A H 0.77180 1.47490 0.88700
H48A H 0.72770 1.43020 0.79340
C37A C 0.655(2) 1.3328(14) 0.8563(11)
H49A H 0.67620 1.29630 0.80170
H50A H 0.73100 1.34680 0.89410
C38A C 0.553(2) 1.2831(13) 0.8791(10)
H51A H 0.57570 1.22430 0.86750
H52A H 0.47350 1.27660 0.84630
C39A C 0.442(2) 1.2802(14) 0.9838(14)
H53A H 0.36320 1.26650 0.94800
H54A H 0.46910 1.22530 0.98150
C40A C 0.423(3) 1.3404(18) 1.0685(17)
H55A H 0.50490 1.35960 1.10110
H56A H 0.36960 1.30780 1.09130
#END
