
#######################################################################
#
#                 Cambridge Crystallographic Data Centre
#                                CCDC
#
#######################################################################
#
# If this CIF has been generated from an entry in the Cambridge
# Structural Database, then it will include bibliographic, chemical,
# crystal, experimental, refinement or atomic coordinate data resulting
# from the CCDC's data processing and validation procedures.
#
#######################################################################

data_CSD_CIF_FIBFEE
_audit_creation_date 2018-04-03
_audit_creation_method CSD-ConQuest-V1
_database_code_CSD FIBFEE
_database_code_depnum_ccdc_archive 'CCDC 1824393'
_chemical_formula_sum 'C112 H175 K5 O118 U12'
_chemical_formula_moiety
;
(C52 H47 O84 U12 5-)n,5(C12 H24 O6),4(H2 O1),5(K1 1+)
;
_journal_coden_Cambridge 1147
_journal_volume 18
_journal_year 2018
_journal_page_first 3167
_journal_name_full 'Cryst.Growth Des. '
loop_
_publ_author_name
"P.Thuery"
"Y.Atoini"
"J.Harrowfield"
_chemical_name_systematic
;
catena-[penta-potassium 
tetrakis(\m-cyclohexane-1,2-dicarboxylato)-decakis(\m-oxalato)-triaqua-hydroxy
-tetracosaoxo-dodeca-uranium pentakis(18-crown-6) tetrahydrate]
;
_cell_volume   4475.970
_exptl_crystal_colour 'light yellow'
_exptl_crystal_density_diffrn 2.397
_exptl_crystal_description 'platelet'
_diffrn_ambient_temperature 150
_refine_special_details
;
K5A and K5B disordered over two sites with occupancies 0.71:0.29.

;
#These two values have been output from a single CSD field.
_refine_ls_R_factor_gt 0.0529
_refine_ls_wR_factor_gt 0.0529
loop_
_citation_database_id_CSD
_citation_special_details
FIBFII "is a racemate of this entry"
_symmetry_cell_setting triclinic
_symmetry_space_group_name_H-M 'P 1'
_symmetry_Int_Tables_number 1
loop_
_symmetry_equiv_pos_site_id
_symmetry_equiv_pos_as_xyz
1 x,y,z
_cell_length_a 10.6465(5)
_cell_length_b 19.1260(6)
_cell_length_c 23.2639(13)
_cell_angle_alpha 104.180(3)
_cell_angle_beta 95.850(2)
_cell_angle_gamma 99.702(3)
_cell_formula_units_Z 1
loop_
_atom_type_symbol
_atom_type_radius_bond
C 0.68
H 0.23
K 2.03
O 0.68
U 1.96
loop_
_atom_site_label
_atom_site_type_symbol
_atom_site_fract_x
_atom_site_fract_y
_atom_site_fract_z
U1 U 0.57446(9) 0.28780(5) 0.49559(5)
U2 U 0.43589(9) 0.56767(5) 0.53757(5)
U3 U 0.07848(10) 0.77545(5) 0.46616(5)
U4 U -0.22161(9) 0.67397(4) 0.20452(5)
U5 U 0.00632(9) 0.40423(4) 0.14352(4)
U6 U 0.23572(9) 0.16763(4) 0.24230(5)
U7 U -0.54521(9) 0.88988(4) 0.12662(5)
U8 U 0.9386(1) 0.08372(4) 0.56886(5)
U9 U 1.24007(9) 0.20757(4) 0.82963(5)
U10 U 1.01639(9) 0.47895(4) 0.89227(4)
U11 U 0.78102(9) 0.71355(4) 0.79380(5)
U12 U 0.56202(9) 0.99126(4) 0.90903(5)
O1 O 0.4816(18) 0.2690(9) 0.5515(9)
O2 O 0.6700(18) 0.3046(10) 0.4405(10)
O3 O 0.341(2) 0.5555(10) 0.593(1)
O4 O 0.5282(17) 0.5807(9) 0.4807(8)
O5 O -0.0344(18) 0.7450(9) 0.5098(9)
O6 O 0.190(2) 0.8055(10) 0.4231(10)
O7 O -0.0919(18) 0.7476(9) 0.2164(10)
O8 O -0.3514(17) 0.5968(9) 0.1903(9)
O9 O 0.1709(19) 0.4439(9) 0.1547(9)
O10 O -0.1613(17) 0.3635(9) 0.1321(9)
O11 O 0.388(2) 0.2218(10) 0.2447(11)
O12 O 0.0795(18) 0.1125(9) 0.2395(9)
O13 O -0.3943(19) 0.9513(9) 0.1410(9)
O14 O -0.6966(17) 0.8277(9) 0.1118(9)
O15 O 0.821(2) 0.0483(10) 0.6092(9)
O16 O 1.0537(18) 0.1192(8) 0.5276(9)
O17 O 1.109(2) 0.1316(9) 0.8139(9)
O18 O 1.3730(19) 0.2818(9) 0.8466(9)
O19 O 0.8502(16) 0.4369(9) 0.8784(9)
O20 O 1.1804(19) 0.5217(9) 0.9080(9)
O21 O 0.630(2) 0.6605(11) 0.7983(11)
O22 O 0.9322(19) 0.7656(9) 0.7929(9)
O23 O 0.4110(18) 0.9273(9) 0.893(1)
O24 O 0.714(2) 1.0537(9) 0.9239(9)
O25 O 0.4398(17) 0.3589(8) 0.4637(9)
O26 O 0.338(2) 0.4509(9) 0.4740(11)
O27 O 0.4104(17) 0.2061(8) 0.4200(8)
O28 O 0.269(2) 0.1961(10) 0.3422(10)
O29 O 0.669(2) 0.4056(9) 0.5589(11)
O30 O 0.554(2) 0.4912(9) 0.5736(9)
O31 O 0.6152(17) 0.6435(9) 0.6054(8)
O32 O 0.731(2) 0.6769(10) 0.6941(9)
O33 O -0.063(2) 0.7084(9) 0.3808(9)
O34 O -0.2171(19) 0.6951(10) 0.3080(9)
O35 O -0.082(2) 0.6046(10) 0.2351(10)
O36 O -0.023(2) 0.4981(9) 0.2188(9)
O37 O 1.073(2) 0.1486(9) 0.6571(9)
O38 O 1.2415(17) 0.2015(9) 0.7297(9)
O39 O 1.0982(17) 0.2795(9) 0.8045(9)
O40 O 1.058(2) 0.3888(10) 0.8164(11)
O41 O 0.6270(16) 0.1652(8) 0.4733(8)
O42 O 0.7582(17) 0.0925(8) 0.4992(8)
O43 O 0.7612(18) 0.2778(8) 0.5610(9)
O44 O 0.8779(18) 0.2018(9) 0.5915(9)
O45 O 0.3905(18) 0.6918(8) 0.5575(9)
O46 O 0.2592(19) 0.7648(9) 0.5351(10)
O47 O 0.2512(17) 0.5798(9) 0.4714(9)
O48 O 0.1321(18) 0.6545(9) 0.4446(9)
O49 O -0.319(2) 0.7110(11) 0.1208(9)
O50 O -0.436(2) 0.7887(9) 0.0926(9)
O51 O -0.365(2) 0.7583(10) 0.2335(9)
O52 O -0.4766(19) 0.837(1) 0.2061(8)
O53 O 0.048(2) 0.3572(9) 0.2295(9)
O54 O 0.1438(19) 0.2783(9) 0.2655(9)
O55 O 0.0634(18) 0.2832(8) 0.1192(8)
O56 O 0.153(2) 0.2040(9) 0.1537(9)
O57 O 0.0202(16) 0.3588(7) 0.0362(8)
O58 O 0.0514(17) 0.3910(8) -0.0488(8)
O59 O -0.0270(16) 0.4916(7) 0.0851(8)
O60 O -0.0002(17) 0.5230(8) -0.0006(8)
O61 O 0.273(2) 0.0864(10) 0.1513(9)
O62 O 0.346(2) -0.0147(9) 0.1099(9)
O63 O 0.3294(18) 0.0655(8) 0.2596(9)
O64 O 0.3955(18) -0.0368(8) 0.2165(8)
O65 O 1.0626(18) -0.0059(8) 0.5862(9)
O66 O 1.1297(19) -0.1092(8) 0.5455(9)
O67 O 0.8954(18) -0.0279(9) 0.4886(9)
O68 O 0.9556(19) -0.1346(9) 0.4491(9)
O69 O 0.9723(17) 0.5253(8) 0.8062(8)
O70 O 0.876(2) 0.6033(9) 0.7697(9)
O71 O 0.9573(17) 0.5977(9) 0.9167(9)
O72 O 0.867(2) 0.6809(10) 0.8806(10)
O73 O 0.755(2) 0.7990(9) 0.8869(10)
O74 O 0.676(2) 0.8959(9) 0.9272(10)
O75 O 0.6865(19) 0.8142(9) 0.7774(9)
O76 O 0.6162(19) 0.9170(9) 0.8189(9)
O77 O 0.493(2) 1.0439(9) 0.8294(10)
O78 O 0.379(2) 1.1219(10) 0.8017(9)
O79 O 0.4489(19) 1.0913(9) 0.9419(9)
O80 O 0.333(2) 1.1659(10) 0.9124(10)
O81 O -0.1488(19) 0.6160(9) 0.1128(9)
H1 H -0.08600 0.59130 0.11940
H2 H -0.13500 0.64640 0.08920
O82 O -0.5494(16) 0.8839(8) 0.0277(9)
H3 H -0.56020 0.93210 0.03490
H4 H -0.62500 0.87310 0.00080
O83 O 1.166(2) 0.2623(10) 0.9212(10)
H5 H 1.12920 0.29990 0.92510
H6 H 1.13860 0.21630 0.92590
O84 O 0.5651(19) 0.9963(8) 1.0077(8)
H7 H 0.64690 1.00360 1.03310
C1 C 0.214(2) 0.3334(11) 0.4277(10)
H8 H 0.20170 0.32990 0.38390
C2 C 0.216(2) 0.2551(11) 0.4378(10)
H9 H 0.24610 0.26030 0.48100
C3 C 0.083(3) 0.2032(14) 0.4185(13)
H10 H 0.08650 0.15590 0.42830
H11 H 0.05700 0.19270 0.37470
C4 C -0.017(3) 0.2402(17) 0.4519(16)
H12 H -0.10270 0.20670 0.44080
H13 H 0.00870 0.25080 0.49570
C5 C -0.025(3) 0.3112(17) 0.4349(17)
H14 H -0.09360 0.33330 0.45360
H15 H -0.04660 0.30080 0.39090
C6 C 0.104(3) 0.3644(13) 0.4565(15)
H16 H 0.12400 0.37500 0.50060
H17 H 0.09780 0.41130 0.44650
C7 C 0.339(3) 0.3847(12) 0.4580(12)
C8 C 0.307(2) 0.2172(12) 0.3989(12)
C9 C 0.773(3) 0.5295(15) 0.5675(15)
H18 H 0.74960 0.55010 0.53330
C10 C 0.810(2) 0.5924(14) 0.6231(13)
H19 H 0.83000 0.57130 0.65740
C11 C 0.931(3) 0.6479(15) 0.6209(17)
H20 H 0.95770 0.68410 0.66070
H21 H 0.91020 0.67510 0.59130
C12 C 1.045(3) 0.6096(19) 0.6038(18)
H22 H 1.11570 0.64610 0.59710
H23 H 1.07800 0.59150 0.63760
C13 C 1.007(4) 0.548(2) 0.5495(19)
H24 H 1.08090 0.52350 0.54200
H25 H 0.98420 0.56680 0.51480
C14 C 0.896(4) 0.4919(17) 0.5537(17)
H26 H 0.91970 0.46920 0.58610
H27 H 0.87280 0.45260 0.51560
C15 C 0.663(3) 0.4704(12) 0.5681(13)
C16 C 0.711(2) 0.6389(12) 0.6396(12)
C17 C -0.191(3) 0.5875(14) 0.3385(11)
H28 H -0.27070 0.56550 0.30840
C18 C -0.076(2) 0.5470(12) 0.3159(10)
H29 H 0.00620 0.57190 0.34350
C19 C -0.110(3) 0.4647(14) 0.3179(14)
H30 H -0.18680 0.43880 0.28780
H31 H -0.03740 0.44040 0.30710
C20 C -0.137(3) 0.4581(15) 0.3783(16)
H32 H -0.05880 0.48160 0.40840
H33 H -0.15870 0.40550 0.37770
C21 C -0.250(2) 0.4960(13) 0.3956(13)
H34 H -0.32760 0.47170 0.36560
H35 H -0.26930 0.48990 0.43500
C22 C -0.220(3) 0.5774(14) 0.3988(13)
H36 H -0.14500 0.60260 0.43000
H37 H -0.29480 0.59970 0.40980
C23 C -0.154(3) 0.6686(12) 0.3417(12)
C24 C -0.059(2) 0.5502(12) 0.2533(13)
C25 C 1.133(2) 0.2805(12) 0.6812(11)
H38 H 1.04010 0.27810 0.66700
C26 C 1.175(3) 0.3467(13) 0.7371(13)
H39 H 1.26940 0.35110 0.75050
C27 C 1.157(3) 0.4192(16) 0.7177(17)
H40 H 1.06440 0.41660 0.70570
H41 H 1.18860 0.46260 0.75270
C28 C 1.226(4) 0.429(2) 0.6686(16)
H42 H 1.20450 0.47240 0.65620
H43 H 1.31970 0.43990 0.68270
C29 C 1.194(4) 0.3656(17) 0.6175(18)
H44 H 1.25060 0.37400 0.58750
H45 H 1.10420 0.36110 0.59900
C30 C 1.208(3) 0.2934(17) 0.6309(16)
H46 H 1.29980 0.29390 0.64260
H47 H 1.17490 0.25250 0.59430
C31 C 1.145(3) 0.2042(14) 0.6890(14)
C32 C 1.104(3) 0.3355(14) 0.7886(14)
C33 C 0.719(2) 0.1514(13) 0.5062(13)
C34 C 0.794(2) 0.2174(11) 0.5573(12)
C35 C 0.297(3) 0.7051(14) 0.5283(13)
C36 C 0.220(3) 0.6403(13) 0.4763(13)
C37 C -0.389(3) 0.7593(14) 0.1303(13)
C38 C -0.414(3) 0.7884(14) 0.1961(14)
C39 C 0.099(3) 0.3027(12) 0.2247(13)
C40 C 0.107(3) 0.2593(13) 0.1597(14)
C41 C 0.024(2) 0.4028(11) 0.0034(12)
C42 C -0.002(2) 0.4796(12) 0.0311(12)
C43 C 0.324(3) 0.0297(14) 0.1513(14)
C44 C 0.353(3) 0.0189(13) 0.2159(12)
C45 C 1.060(3) -0.0641(11) 0.5437(13)
C46 C 0.961(2) -0.0773(12) 0.4874(13)
C47 C 0.922(3) 0.5791(12) 0.8105(12)
C48 C 0.917(3) 0.6227(12) 0.8761(13)
C49 C 0.704(3) 0.8498(12) 0.8825(13)
C50 C 0.665(3) 0.8619(12) 0.8223(14)
C51 C 0.428(3) 1.0943(14) 0.8395(14)
C52 C 0.397(3) 1.1199(13) 0.9032(14)
K1 K 0.3977(6) 0.5346(3) 0.1870(3)
K2 K -0.1780(6) 1.0548(3) 0.2036(3)
K3 K 0.6230(6) 0.3463(3) 0.8467(3)
K4 K 0.1956(6) 0.8261(3) 0.8321(3)
O85 O 0.423(2) 0.4165(10) 0.088(1)
O86 O 0.292(2) 0.5311(12) 0.0671(11)
O87 O 0.302(2) 0.6579(11) 0.1637(12)
O88 O 0.295(3) 0.6281(13) 0.2761(13)
O89 O 0.413(3) 0.5114(13) 0.3003(11)
O90 O 0.414(2) 0.3905(12) 0.2044(12)
C53 C 0.349(3) 0.4122(16) 0.0349(15)
H48 H 0.25770 0.39090 0.03600
H49 H 0.37850 0.37950 0.00130
C54 C 0.357(3) 0.4828(17) 0.0256(15)
H50 H 0.31850 0.47770 -0.01620
H51 H 0.44910 0.50650 0.03050
C55 C 0.306(3) 0.6030(17) 0.0610(15)
H52 H 0.27110 0.60200 0.01970
H53 H 0.39900 0.62630 0.06860
C56 C 0.237(3) 0.6463(17) 0.1048(16)
H54 H 0.23330 0.69430 0.09630
H55 H 0.14710 0.61920 0.10130
C57 C 0.231(4) 0.691(2) 0.2041(17)
H56 H 0.14440 0.65980 0.19950
H57 H 0.21990 0.73930 0.19760
C58 C 0.304(4) 0.7023(19) 0.2664(16)
H58 H 0.39470 0.72620 0.26900
H59 H 0.26410 0.73360 0.29710
C59 C 0.354(6) 0.626(3) 0.336(3)
H60 H 0.44640 0.64910 0.34220
H61 H 0.31240 0.65460 0.36670
C60 C 0.342(5) 0.551(2) 0.342(2)
H62 H 0.37590 0.55270 0.38340
H63 H 0.25000 0.52650 0.33330
C61 C 0.407(4) 0.4383(19) 0.3066(18)
H64 H 0.44480 0.44000 0.34780
H65 H 0.31640 0.41160 0.29900
C62 C 0.478(3) 0.4018(18) 0.2641(17)
H66 H 0.48670 0.35380 0.27120
H67 H 0.56580 0.43190 0.26890
C63 C 0.478(4) 0.3490(19) 0.160(2)
H68 H 0.47320 0.29850 0.16430
H69 H 0.56950 0.37310 0.16470
C64 C 0.411(4) 0.3468(15) 0.1006(19)
H70 H 0.44550 0.31330 0.06940
H71 H 0.31820 0.32580 0.09800
O91 O -0.066(2) 0.9561(11) 0.1267(13)
O92 O -0.1928(19) 1.0538(10) 0.0798(10)
O93 O -0.221(2) 1.1792(10) 0.1661(11)
O94 O -0.326(3) 1.1429(12) 0.2672(12)
O95 O -0.205(3) 1.0498(13) 0.3172(11)
O96 O -0.100(2) 0.9404(13) 0.2432(15)
C65 C -0.122(3) 0.9404(13) 0.0690(16)
H72 H -0.21390 0.91680 0.06540
H73 H -0.07930 0.90550 0.04310
C66 C -0.113(3) 1.0102(15) 0.0488(14)
H74 H -0.02240 1.03770 0.05780
H75 H -0.14090 0.99810 0.00500
C67 C -0.162(4) 1.1279(17) 0.0733(19)
H76 H -0.17290 1.12730 0.03040
H77 H -0.07150 1.15120 0.09130
C68 C -0.252(3) 1.1684(15) 0.1048(16)
H78 H -0.24650 1.21660 0.09560
H79 H -0.34120 1.14010 0.09100
C69 C -0.313(4) 1.2182(19) 0.1982(15)
H80 H -0.40240 1.19490 0.17900
H81 H -0.29680 1.27020 0.19670
C70 C -0.295(3) 1.2144(18) 0.2629(14)
H82 H -0.20370 1.23570 0.28120
H83 H -0.34960 1.24430 0.28580
C71 C -0.331(4) 1.139(2) 0.3280(15)
H84 H -0.41330 1.15090 0.34030
H85 H -0.25920 1.17540 0.35540
C72 C -0.322(4) 1.0652(19) 0.3315(15)
H86 H -0.33110 1.06100 0.37260
H87 H -0.39350 1.02900 0.30330
C73 C -0.187(4) 0.982(2) 0.330(2)
H88 H -0.26210 0.94220 0.30980
H89 H -0.17800 0.98740 0.37330
C74 C -0.068(4) 0.962(3) 0.307(2)
H90 H 0.00470 1.00530 0.31970
H91 H -0.04330 0.92160 0.32170
C75 C 0.005(3) 0.9184(17) 0.2170(17)
H92 H 0.03210 0.87860 0.23250
H93 H 0.07880 0.96030 0.22570
C76 C -0.041(4) 0.8919(18) 0.1522(18)
H94 H -0.12240 0.85470 0.14470
H95 H 0.02340 0.86800 0.13160
O97 O 0.697(3) 0.2545(13) 0.7505(15)
O98 O 0.591(3) 0.3756(13) 0.7381(13)
O99 O 0.603(2) 0.4944(10) 0.8385(12)
O100 O 0.599(2) 0.4608(13) 0.9481(13)
O101 O 0.726(2) 0.3419(13) 0.9617(11)
O102 O 0.709(2) 0.2189(11) 0.8599(14)
C77 C 0.631(5) 0.2571(19) 0.695(2)
H96 H 0.53750 0.23830 0.69220
H97 H 0.66320 0.22640 0.66110
C78 C 0.656(5) 0.337(2) 0.693(2)
H98 H 0.75000 0.35800 0.70190
H99 H 0.62270 0.34120 0.65320
C79 C 0.600(4) 0.4501(18) 0.7364(17)
H100 H 0.55970 0.45220 0.69680
H101 H 0.69170 0.47540 0.74310
C80 C 0.531(3) 0.4874(18) 0.7855(16)
H102 H 0.52060 0.53640 0.78100
H103 H 0.44420 0.45720 0.78310
C81 C 0.549(4) 0.5311(16) 0.884(2)
H104 H 0.45840 0.50620 0.88140
H105 H 0.54970 0.58190 0.88130
C82 C 0.621(3) 0.5334(19) 0.9425(19)
H106 H 0.71460 0.55150 0.94360
H107 H 0.59120 0.56660 0.97560
C83 C 0.668(4) 0.4543(15) 1.0036(19)
H108 H 0.63350 0.48160 1.03840
H109 H 0.76030 0.47630 1.00730
C84 C 0.653(3) 0.3740(16) 1.0038(17)
H110 H 0.68430 0.37000 1.04410
H111 H 0.56110 0.34900 0.99260
C85 C 0.732(4) 0.264(2) 0.9628(17)
H112 H 0.64370 0.23560 0.95920
H113 H 0.78080 0.26440 1.00140
C86 C 0.797(4) 0.229(2) 0.9114(18)
H114 H 0.87900 0.26140 0.91010
H115 H 0.81530 0.18110 0.91550
C87 C 0.764(4) 0.1819(17) 0.805(2)
H116 H 0.76770 0.13060 0.80510
H117 H 0.85310 0.20860 0.80620
C88 C 0.679(5) 0.183(2) 0.748(2)
H118 H 0.70590 0.15420 0.71180
H119 H 0.58700 0.16280 0.74900
O103 O 0.339(2) 0.7332(12) 0.7694(11)
O104 O 0.218(3) 0.8298(19) 0.7156(15)
O105 O 0.113(3) 0.9416(14) 0.7949(14)
O106 O 0.080(2) 0.9251(10) 0.9075(14)
O107 O 0.211(2) 0.8257(11) 0.9557(10)
O108 O 0.246(2) 0.7017(10) 0.8678(11)
C89 C 0.344(6) 0.732(3) 0.709(3)
H120 H 0.26990 0.69680 0.68270
H121 H 0.42450 0.71700 0.69700
C90 C 0.343(5) 0.811(2) 0.702(2)
H122 H 0.41450 0.84650 0.72980
H123 H 0.35350 0.81200 0.66050
C91 C 0.189(6) 0.899(3) 0.705(2)
H124 H 0.16590 0.89170 0.66130
H125 H 0.26700 0.93810 0.71910
C92 C 0.076(6) 0.925(3) 0.737(3)
H126 H 0.05630 0.96910 0.72520
H127 H -0.00200 0.88590 0.72480
C93 C 0.020(4) 0.9700(18) 0.8317(15)
H128 H -0.06100 0.93220 0.82220
H129 H -0.00100 1.01400 0.82060
C94 C 0.065(4) 0.991(2) 0.8988(15)
H130 H 0.14670 1.02710 0.91020
H131 H -0.00110 1.01030 0.92170
C95 C 0.144(4) 0.9400(18) 0.9689(19)
H132 H 0.10600 0.97650 0.99620
H133 H 0.23680 0.95990 0.97190
C96 C 0.124(5) 0.870(2) 0.985(2)
H134 H 0.14340 0.87850 1.02950
H135 H 0.03320 0.84310 0.97220
C97 C 0.191(3) 0.7522(17) 0.9612(15)
H136 H 0.10080 0.72720 0.94470
H137 H 0.20530 0.75330 1.00420
C98 C 0.277(4) 0.7112(18) 0.9302(19)
H138 H 0.36690 0.73800 0.94420
H139 H 0.26820 0.66260 0.93880
C99 C 0.328(4) 0.6634(18) 0.8355(19)
H140 H 0.31790 0.61350 0.84170
H141 H 0.41860 0.68910 0.85130
C100 C 0.305(5) 0.657(2) 0.774(2)
H142 H 0.21350 0.63550 0.75740
H143 H 0.35970 0.62620 0.75200
K5 K 0.542(4) -0.0557(15) 0.5210(6)
O109 O 0.532(3) -0.1644(13) 0.4124(14)
O110 O 0.407(3) -0.0384(16) 0.4129(14)
O111 O 0.346(3) 0.0310(14) 0.5189(18)
O112 O 0.495(2) 0.0324(13) 0.6308(13)
O113 O 0.614(3) -0.0936(14) 0.6253(15)
O114 O 0.681(3) -0.1675(13) 0.5175(14)
C101 C 0.504(4) -0.118(2) 0.363(2)
H144 H 0.57930 -0.07740 0.36920
H145 H 0.50040 -0.15110 0.32270
C102 C 0.398(4) -0.089(2) 0.363(2)
H146 H 0.39060 -0.06660 0.32850
H147 H 0.32100 -0.12770 0.35760
C103 C 0.302(4) 0.001(2) 0.4219(18)
H148 H 0.28500 0.02180 0.38730
H149 H 0.22260 -0.03380 0.42280
C104 C 0.327(4) 0.061(2) 0.476(2)
H150 H 0.40470 0.09740 0.47610
H151 H 0.25320 0.08540 0.48070
C105 C 0.367(2) 0.0906(14) 0.5807(11)
H152 H 0.44390 0.12900 0.58250
H153 H 0.29170 0.11450 0.58350
C106 C 0.387(3) 0.0587(17) 0.6336(13)
H154 H 0.39390 0.09730 0.67160
H155 H 0.31250 0.01880 0.63170
C107 C 0.503(4) -0.005(2) 0.677(2)
H156 H 0.42750 -0.04580 0.66880
H157 H 0.50130 0.02970 0.71590
C108 C 0.626(4) -0.035(3) 0.679(2)
H158 H 0.70150 0.00430 0.68100
H159 H 0.63820 -0.05370 0.71480
C109 C 0.721(4) -0.129(2) 0.628(2)
H160 H 0.73050 -0.14650 0.66410
H161 H 0.80220 -0.09460 0.62710
C110 C 0.689(5) -0.191(2) 0.572(2)
H162 H 0.75490 -0.22200 0.57190
H163 H 0.60480 -0.22220 0.57300
C111 C 0.647(5) -0.231(3) 0.477(2)
H164 H 0.56130 -0.25780 0.48100
H165 H 0.71150 -0.26210 0.47830
C112 C 0.643(4) -0.201(2) 0.4229(19)
H166 H 0.72370 -0.16430 0.42700
H167 H 0.64040 -0.24150 0.38700
O115 O -0.313(3) 0.7320(13) -0.0156(11)
H168 H -0.30710 0.76170 -0.04420
H169 H -0.24940 0.74480 0.01050
O116 O 1.120(2) 0.1972(10) 1.0037(9)
H170 H 1.08940 0.22190 1.03540
H171 H 1.16380 0.16260 1.01280
O117 O 0.327(3) 0.1463(12) 0.0484(12)
H172 H 0.33080 0.12090 0.07560
H173 H 0.39210 0.12200 0.03120
O118 O 0.900(2) 0.6847(10) 1.0305(10)
K6? K 0.470(5) -0.083(2) 0.5208(14)
U3* U 1.07848(10) -0.22455(5) 0.46616(5)
U7* U 0.45479(9) -0.11012(4) 0.12662(5)
U9* U 0.24007(9) 1.20757(4) 0.82963(5)
U10* U 0.01639(9) 0.47895(4) -0.10773(4)
O58* O 1.0514(17) 0.3910(8) 0.9512(8)
O60* O 0.9998(17) 0.5230(8) 0.9994(8)
O62* O -0.654(2) 0.9853(9) 0.1099(9)
O64* O -0.6045(18) 0.9632(8) 0.2165(8)
O66* O 0.1297(19) 0.8908(8) 0.5455(9)
O68* O -0.0444(19) 0.8654(9) 0.4491(9)
O78* O 1.379(2) 0.1219(10) 0.8017(9)
O80* O 1.333(2) 0.1659(10) 0.9124(10)
#END
