
#######################################################################
#
#                 Cambridge Crystallographic Data Centre
#                                CCDC
#
#######################################################################
#
# If this CIF has been generated from an entry in the Cambridge
# Structural Database, then it will include bibliographic, chemical,
# crystal, experimental, refinement or atomic coordinate data resulting
# from the CCDC's data processing and validation procedures.
#
#######################################################################

data_CSD_CIF_FIBFAA
_audit_creation_date 2018-04-03
_audit_creation_method CSD-ConQuest-V1
_database_code_CSD FIBFAA
_database_code_depnum_ccdc_archive 'CCDC 1824392'
_chemical_formula_sum 'C40 H59 K2 O38.5 U4'
_chemical_formula_moiety
;
(C22 H20 O28 U4 2-)n,1.5(C12 H24 O6),2(K1 1+),1.5(H2 O1)
;
_journal_coden_Cambridge 1147
_journal_volume 18
_journal_year 2018
_journal_page_first 3167
_journal_name_full 'Cryst.Growth Des. '
loop_
_publ_author_name
"P.Thuery"
"Y.Atoini"
"J.Harrowfield"
_chemical_name_systematic
;
catena-[di-potassium 
bis(\m-cyclohexane-1,2-dicarboxylato)-tris(\m-oxalato)-octaoxo-tetra-uranium 
18-crown-6 solvate sesquihydrate]
;
_cell_volume   3005.915
_exptl_crystal_colour 'light yellow'
_exptl_crystal_density_diffrn 2.415
_exptl_crystal_description 'platelet'
_diffrn_ambient_temperature 150
_diffrn_special_details
;
twin

;
_refine_special_details
;
K2A and K2B disordered over two sites with occupancies 0.745:0.255; K3,O38 
disordered by symmetry over two configurations with occupancy 0.5.
;
#These two values have been output from a single CSD field.
_refine_ls_R_factor_gt 0.0544
_refine_ls_wR_factor_gt 0.0544
_symmetry_cell_setting triclinic
_symmetry_space_group_name_H-M 'P -1'
_symmetry_Int_Tables_number 2
loop_
_symmetry_equiv_pos_site_id
_symmetry_equiv_pos_as_xyz
1 x,y,z
2 -x,-y,-z
_cell_length_a 10.4480(7)
_cell_length_b 16.7418(11)
_cell_length_c 18.2100(13)
_cell_angle_alpha 87.039(4)
_cell_angle_beta 74.646(3)
_cell_angle_gamma 78.133(4)
_cell_formula_units_Z 2
loop_
_atom_type_symbol
_atom_type_radius_bond
C 0.68
H 0.23
K 2.03
O 0.68
U 1.96
loop_
_atom_site_label
_atom_site_type_symbol
_atom_site_fract_x
_atom_site_fract_y
_atom_site_fract_z
U1 U 0.29992(4) 0.47982(3) 0.12908(2)
U2 U -0.08888(5) 0.26507(3) 0.32899(2)
U3 U 0.42906(5) 0.75255(3) 0.33165(2)
U4 U -0.17885(4) -0.02720(3) 0.13784(2)
O1 O 0.1552(8) 0.5253(5) 0.0971(5)
O2 O 0.4419(8) 0.4311(6) 0.1613(6)
O3 O 0.0356(10) 0.2019(7) 0.3650(5)
O4 O -0.2175(9) 0.3305(5) 0.2964(5)
O5 O 0.2858(9) 0.8233(6) 0.3164(5)
O6 O 0.5734(9) 0.6850(5) 0.3478(5)
O7 O -0.0510(8) -0.1137(5) 0.1429(5)
O8 O -0.3121(8) 0.0561(5) 0.1336(5)
O9 O 0.2715(8) 0.5968(5) 0.2052(4)
O10 O 0.3944(9) 0.6595(6) 0.2559(4)
O11 O 0.4253(10) 0.5664(6) 0.0568(5)
O12 O 0.6163(9) 0.5918(5) -0.0133(4)
O13 O -0.1032(9) 0.1620(6) 0.2561(5)
O14 O -0.1183(8) 0.0353(5) 0.2348(4)
O15 O -0.0259(9) 0.0519(6) 0.0792(5)
O16 O 0.1612(8) 0.0579(6) -0.0113(4)
O17 O 0.2175(9) 0.3509(5) 0.1393(5)
O18 O 0.0805(9) 0.2759(5) 0.2135(4)
O19 O 0.1506(9) 0.4594(5) 0.2533(4)
O20 O 0.0221(9) 0.3787(6) 0.3296(5)
O21 O 0.2896(9) 0.6787(6) 0.4260(4)
O22 O 0.1643(10) 0.6739(6) 0.5457(5)
O23 O 0.3711(10) 0.8090(6) 0.4606(5)
O24 O 0.2528(10) 0.7999(6) 0.5812(4)
O25 O 0.5458(9) 0.8649(6) 0.3355(5)
O26 O 0.6881(8) 0.9405(5) 0.2660(4)
O27 O 0.5576(8) 0.7895(5) 0.2084(4)
O28 O 0.6778(8) 0.8736(5) 0.1370(4)
C1 C 0.3542(10) 0.7131(7) 0.1377(6)
H1 H 0.35630 0.76530 0.16130
C2 C 0.4922(10) 0.6892(7) 0.0807(6)
H2 H 0.56270 0.68250 0.10980
C3 C 0.5149(12) 0.7591(7) 0.0240(6)
H3 H 0.60220 0.74310 -0.01470
H4 H 0.51850 0.80810 0.05110
C4 C 0.3973(13) 0.7790(8) -0.0152(7)
H5 H 0.41120 0.82440 -0.05150
H6 H 0.39680 0.73070 -0.04420
C5 C 0.2631(12) 0.8024(7) 0.0431(7)
H7 H 0.18940 0.81520 0.01710
H8 H 0.26250 0.85210 0.07070
C6 C 0.2379(12) 0.7337(8) 0.1000(7)
H9 H 0.15130 0.75100 0.13900
H10 H 0.23190 0.68500 0.07340
C7 C 0.3382(11) 0.6521(8) 0.2029(6)
C8 C 0.5148(11) 0.6108(7) 0.0373(6)
C9 C 0.1051(11) 0.0710(7) 0.1947(7)
H11 H 0.14460 0.10130 0.22630
C10 C 0.1482(11) 0.1038(7) 0.1140(6)
H12 H 0.10930 0.16370 0.11670
C11 C 0.3015(12) 0.0950(8) 0.0878(7)
H13 H 0.32760 0.11340 0.03440
H14 H 0.33100 0.13010 0.11960
C12 C 0.3717(13) 0.0074(8) 0.0937(7)
H15 H 0.47070 0.00450 0.08130
H16 H 0.35350 -0.02600 0.05570
C13 C 0.3248(13) -0.0286(8) 0.1735(7)
H17 H 0.35750 -0.00170 0.21020
H18 H 0.36500 -0.08760 0.17270
C14 C 0.1693(12) -0.0167(8) 0.2002(7)
H19 H 0.13730 -0.05030 0.16830
H20 H 0.14220 -0.03520 0.25360
C15 C -0.0476(12) 0.0889(7) 0.2318(6)
C16 C 0.0921(12) 0.0681(7) 0.0564(6)
C17 C 0.1366(12) 0.3345(8) 0.2008(6)
C18 C 0.0985(13) 0.3981(8) 0.2673(7)
C19 C 0.2459(13) 0.7025(8) 0.4932(7)
C20 C 0.2932(13) 0.7772(8) 0.5137(7)
C21 C 0.6160(12) 0.8891(7) 0.2728(6)
C22 C 0.6156(11) 0.8462(7) 0.2005(6)
K1 K 0.00000 0.50000 0.00000
K2 K 0.1702(8) 0.2754(6) 0.4478(4)
O29 O 0.0364(9) 0.6599(5) -0.0017(5)
O30 O -0.1671(9) 0.6080(6) 0.1163(6)
O31 O -0.1578(9) 0.4369(6) 0.1323(5)
C23 C -0.0785(15) 0.7145(9) 0.0456(10)
H21 H -0.15670 0.72230 0.02320
H22 H -0.05550 0.76830 0.04930
C24 C -0.1129(14) 0.6777(9) 0.1219(9)
H23 H -0.03080 0.66190 0.14090
H24 H -0.18020 0.71760 0.15800
C25 C -0.2024(14) 0.5680(9) 0.1875(8)
H25 H -0.26850 0.60670 0.22530
H26 H -0.12070 0.54900 0.20630
C26 C -0.2627(13) 0.4968(9) 0.1781(9)
H27 H -0.30000 0.47360 0.22850
H28 H -0.33720 0.51430 0.15300
C27 C -0.2086(16) 0.3692(9) 0.1146(8)
H29 H -0.27150 0.38740 0.08210
H30 H -0.25870 0.34600 0.16200
C28 C -0.0927(16) 0.3065(9) 0.0740(8)
H31 H -0.02400 0.29290 0.10340
H32 H -0.12380 0.25600 0.06700
O32 O 0.341(2) 0.1333(12) 0.3627(11)
O33 O 0.177(2) 0.1033(13) 0.5037(12)
O34 O 0.0374(19) 0.2375(10) 0.5949(11)
O35 O 0.0944(19) 0.3814(12) 0.5673(10)
O36 O 0.3078(19) 0.4014(10) 0.4486(10)
O37 O 0.3845(17) 0.2925(14) 0.3145(12)
C29 C 0.311(3) 0.0542(15) 0.3804(14)
H33 H 0.29630 0.03250 0.33440
H34 H 0.39230 0.01850 0.39070
C30 C 0.191(3) 0.0462(17) 0.4465(13)
H35 H 0.20430 -0.00970 0.46750
H36 H 0.10740 0.05580 0.42860
C31 C 0.063(3) 0.0986(11) 0.5706(16)
H37 H 0.07280 0.04290 0.59230
H38 H -0.02400 0.11150 0.55580
C32 C 0.063(3) 0.1598(13) 0.6287(12)
H39 H -0.00820 0.15600 0.67630
H40 H 0.15190 0.14980 0.64090
C33 C 0.029(3) 0.2870(14) 0.6574(11)
H41 H 0.11750 0.27760 0.67020
H42 H -0.04020 0.27420 0.70270
C34 C -0.009(2) 0.3741(11) 0.6331(13)
H43 H -0.09850 0.38450 0.62170
H44 H -0.01160 0.41270 0.67320
C35 C 0.163(3) 0.4433(19) 0.5693(16)
H45 H 0.23310 0.42440 0.59710
H46 H 0.09870 0.49080 0.59700
C36 C 0.227(3) 0.4681(12) 0.4929(12)
H47 H 0.15550 0.49520 0.46800
H48 H 0.28270 0.50810 0.49610
C37 C 0.376(3) 0.4251(11) 0.3745(11)
H49 H 0.43660 0.46210 0.37820
H50 H 0.30960 0.45360 0.34710
C38 C 0.456(2) 0.3482(12) 0.3336(13)
H51 H 0.51710 0.36360 0.28590
H52 H 0.51410 0.31880 0.36550
C39 C 0.474(3) 0.2168(12) 0.2899(18)
H53 H 0.53920 0.20700 0.32150
H54 H 0.52580 0.22520 0.23710
C40 C 0.424(3) 0.1386(14) 0.2895(13)
H55 H 0.37300 0.14030 0.25070
H56 H 0.50110 0.09130 0.27880
K3 K 0.4462(9) 0.0891(7) 0.5217(5)
O38 O 0.366(3) 0.2469(18) 0.5149(12)
O39 O 0.3260(12) 0.9550(7) 0.6023(6)
K4? K 0.236(3) 0.233(2) 0.4693(17)
U1A U 0.70008(4) 0.52018(3) -0.12908(2)
U2A U 0.08888(5) 0.73493(3) 0.67101(2)
U4* U 0.82115(4) 0.97280(3) 0.13784(2)
U4A U 0.17885(4) 0.02720(3) -0.13784(2)
O12A O 0.3837(9) 0.4082(5) 0.0133(4)
O16A O -0.1612(8) -0.0579(6) 0.0113(4)
O22A O -0.1643(10) 0.3261(6) 0.4543(5)
O24A O -0.2528(10) 0.2001(6) 0.4188(4)
O26* O -0.3119(8) -0.0595(5) 0.2660(4)
O28* O -0.3222(8) -0.1264(5) 0.1370(4)
O29A O -0.0364(9) 0.3401(5) 0.0017(5)
O30A O 0.1671(9) 0.3920(6) -0.1163(6)
O31A O 0.1578(9) 0.5631(6) -0.1323(5)
C23A C 0.0785(15) 0.2855(9) -0.0456(10)
H21A H 0.15670 0.27770 -0.02320
H22A H 0.05550 0.23170 -0.04930
C24A C 0.1129(14) 0.3223(9) -0.1219(9)
H23A H 0.03080 0.33810 -0.14090
H24A H 0.18020 0.28240 -0.15800
C25A C 0.2024(14) 0.4320(9) -0.1875(8)
H25A H 0.26850 0.39330 -0.22530
H26A H 0.12070 0.45100 -0.20630
C26A C 0.2627(13) 0.5032(9) -0.1781(9)
H27A H 0.30000 0.52640 -0.22850
H28A H 0.33720 0.48570 -0.15300
C27A C 0.2086(16) 0.6308(9) -0.1146(8)
H29A H 0.27150 0.61260 -0.08210
H30A H 0.25870 0.65400 -0.16200
C28A C 0.0927(16) 0.6935(9) -0.0740(8)
H31A H 0.02400 0.70710 -0.10340
H32A H 0.12380 0.74400 -0.06700
O32A O 0.659(2) -0.1333(12) 0.6373(11)
O33A O 0.823(2) -0.1033(13) 0.4963(12)
O34A O 0.9626(19) -0.2375(10) 0.4051(11)
O35A O 0.9056(19) -0.3814(12) 0.4327(10)
O36A O 0.6922(19) -0.4014(10) 0.5514(10)
O37A O 0.6155(17) -0.2925(14) 0.6855(12)
C29A C 0.689(3) -0.0542(15) 0.6196(14)
H33A H 0.70370 -0.03250 0.66560
H34A H 0.60770 -0.01850 0.60930
C30A C 0.809(3) -0.0462(17) 0.5535(13)
H35A H 0.79570 0.00970 0.53250
H36A H 0.89260 -0.05580 0.57140
C31A C 0.937(3) -0.0986(11) 0.4294(16)
H37A H 0.92720 -0.04290 0.40770
H38A H 1.02400 -0.11150 0.44420
C32A C 0.937(3) -0.1598(13) 0.3713(12)
H39A H 1.00820 -0.15600 0.32370
H40A H 0.84810 -0.14980 0.35910
C33A C 0.971(3) -0.2870(14) 0.3426(11)
H41A H 0.88250 -0.27760 0.32980
H42A H 1.04020 -0.27420 0.29730
C34A C 1.009(2) -0.3741(11) 0.3669(13)
H43A H 1.09850 -0.38450 0.37830
H44A H 1.01160 -0.41270 0.32680
C35A C 0.837(3) -0.4433(19) 0.4307(16)
H45A H 0.76690 -0.42440 0.40290
H46A H 0.90130 -0.49080 0.40300
C36A C 0.773(3) -0.4681(12) 0.5071(12)
H47A H 0.84450 -0.49520 0.53200
H48A H 0.71730 -0.50810 0.50390
C37A C 0.624(3) -0.4251(11) 0.6255(11)
H49A H 0.56340 -0.46210 0.62180
H50A H 0.69040 -0.45360 0.65290
C38A C 0.544(2) -0.3482(12) 0.6664(13)
H51A H 0.48290 -0.36360 0.71410
H52A H 0.48590 -0.31880 0.63450
C39A C 0.526(3) -0.2168(12) 0.7101(18)
H53A H 0.46080 -0.20700 0.67850
H54A H 0.47420 -0.22520 0.76290
C40A C 0.576(3) -0.1386(14) 0.7105(13)
H55A H 0.62700 -0.14030 0.74930
H56A H 0.49890 -0.09130 0.72120
#END
