
#######################################################################
#
#                 Cambridge Crystallographic Data Centre
#                                CCDC
#
#######################################################################
#
# If this CIF has been generated from an entry in the Cambridge
# Structural Database, then it will include bibliographic, chemical,
# crystal, experimental, refinement or atomic coordinate data resulting
# from the CCDC's data processing and validation procedures.
#
#######################################################################

data_CSD_CIF_FICFOP
_audit_creation_date 2018-04-04
_audit_creation_method CSD-ConQuest-V1
_database_code_CSD FICFOP
_database_code_depnum_ccdc_archive 'CCDC 1828597'
_chemical_formula_sum 'C23 H35 N7 O8 U1'
_chemical_formula_moiety
;
(C21 H27 N6 O8 U1 1-)n,C2 H8 N1 1+
;
_journal_coden_Cambridge 9
_journal_volume 57
_journal_year 2018
_journal_page_first 4492
_journal_name_full 'Inorg.Chem. '
loop_
_publ_author_name
"Xiao-Lin Zhang"
"Kong-Qiu Hu"
"Lei Mei"
"Yu-Bao Zhao"
"Yi-Tong Wang"
"Zhi-Fang Chai"
"Wei-Qun Shi"
_chemical_name_systematic
;
catena-[dimethylammonium 
(\m-1,1',1''-(1,3,5-triazine-2,4,6-triyl)tri(piperidine-4-carboxylato))-dioxo-
uranium(vi) unknown solvate]
;
_cell_volume   1482.312
_exptl_crystal_colour 'yellow'
_exptl_crystal_density_diffrn 1.634
_exptl_special_details
;
triclinic P-1 polymorph

;
_exptl_crystal_description 'block'
_diffrn_ambient_temperature 170
_refine_special_details
;
Disordered cation molecules were not modelled and the disordered density was 
taken into account using the SQUEEZE/PLATON procedure.
;
#These two values have been output from a single CSD field.
_refine_ls_R_factor_gt 0.0243
_refine_ls_wR_factor_gt 0.0243
_symmetry_cell_setting triclinic
_symmetry_space_group_name_H-M 'P -1'
_symmetry_Int_Tables_number 2
loop_
_symmetry_equiv_pos_site_id
_symmetry_equiv_pos_as_xyz
1 x,y,z
2 -x,-y,-z
_cell_length_a 9.0539(6)
_cell_length_b 11.6661(7)
_cell_length_c 14.8682(9)
_cell_angle_alpha 100.760(2)
_cell_angle_beta 100.772(2)
_cell_angle_gamma 99.577(2)
_cell_formula_units_Z 2
loop_
_atom_type_symbol
_atom_type_radius_bond
C 0.68
H 0.23
N 0.68
O 0.68
U 1.96
loop_
_atom_site_label
_atom_site_type_symbol
_atom_site_fract_x
_atom_site_fract_y
_atom_site_fract_z
U1 U 0.60687(2) 0.87209(2) 1.22058(2)
C1 C 0.4640(5) 0.0372(3) 0.3209(3)
O1 O 0.5124(3) 0.7546(3) 1.26295(19)
N1 N 0.3245(4) 0.3444(3) 0.4656(2)
O2 O 0.7008(4) 0.9880(2) 1.1766(2)
C2 C 0.3838(4) 0.1232(3) 0.3721(3)
H1 H 0.28200 0.07610 0.37410
N2 N 0.2888(4) 0.5980(3) 0.7356(2)
O3 O 0.5826(3) 0.7265(2) 1.07006(18)
C3 C 0.4657(5) 0.1815(3) 0.4729(3)
H2 H 0.48380 0.11890 0.50780
H3 H 0.56690 0.23010 0.47400
N3 N 0.1112(4) 0.6738(3) 0.4466(2)
O4 O 0.3954(3) 0.8198(3) 1.08105(19)
C4 C 0.3731(5) 0.2598(4) 0.5206(3)
H4 H 0.28110 0.20890 0.53040
H5 H 0.43570 0.30450 0.58310
N4 N 0.2199(4) 0.5097(3) 0.4546(2)
O5 O -0.1624(3) 0.9097(2) 0.34800(18)
C5 C 0.3505(6) 0.2188(4) 0.3193(3)
H6 H 0.44820 0.27130 0.31900
H7 H 0.29690 0.18110 0.25330
N5 N 0.3131(4) 0.4707(3) 0.6032(2)
O6 O -0.1672(3) 0.7828(2) 0.21918(18)
C6 C 0.2513(7) 0.2914(5) 0.3661(3)
H8 H 0.23300 0.35560 0.33300
H9 H 0.15050 0.23960 0.36160
N6 N 0.1930(4) 0.6371(3) 0.5926(2)
C7 C 0.3621(5) 0.6746(4) 0.9380(3)
H10 H 0.26380 0.62850 0.94610
O7 O 0.3998(3) -0.0178(3) 0.23707(19)
C8 C 0.4417(5) 0.5854(4) 0.8882(3)
H11 H 0.46720 0.52900 0.92790
H12 H 0.53860 0.62800 0.87740
O8 O 0.5897(3) 0.0172(3) 0.36012(19)
C9 C 0.3366(5) 0.5170(3) 0.7946(3)
H13 H 0.39110 0.46200 0.76110
H14 H 0.24440 0.46840 0.80620
C10 C 0.4526(5) 0.7425(4) 1.0341(3)
C11 C 0.3199(6) 0.7589(4) 0.8752(3)
H15 H 0.26610 0.81600 0.90690
H16 H 0.41490 0.80510 0.86480
C12 C 0.2174(6) 0.6909(4) 0.7812(3)
H17 H 0.11680 0.65340 0.79070
H18 H 0.19930 0.74700 0.73990
C13 C 0.0741(5) 0.7868(3) 0.4885(3)
H19 H 0.12400 0.81070 0.55620
H20 H -0.03850 0.77630 0.48210
C14 C 0.1296(5) 0.8841(3) 0.4395(3)
H21 H 0.09220 0.95660 0.46270
H22 H 0.24340 0.90450 0.45590
C15 C 0.0748(4) 0.8467(3) 0.3334(3)
H23 H 0.13310 0.90820 0.30730
C16 C -0.0944(4) 0.8451(3) 0.2993(3)
C17 C 0.1165(5) 0.7283(3) 0.2956(3)
H24 H 0.07260 0.70200 0.22710
H25 H 0.22960 0.73860 0.30620
C18 C 0.0539(5) 0.6350(3) 0.3448(3)
H26 H -0.05980 0.62010 0.32960
H27 H 0.08490 0.55930 0.32190
C19 C 0.1762(4) 0.6065(3) 0.5002(2)
C20 C 0.2852(5) 0.4435(3) 0.5095(3)
C21 C 0.2645(4) 0.5684(3) 0.6414(3)
U1* U -0.39313(2) 0.87209(2) 0.22058(2)
U1** U 0.60687(2) -0.12791(2) 0.22058(2)
O5* O 0.8376(3) 0.9097(2) 1.34800(18)
O6* O 0.8328(3) 0.7828(2) 1.21918(18)
O7* O 0.3998(3) 0.9822(3) 1.23707(19)
O8* O 0.5897(3) 1.0172(3) 1.36012(19)
#END
