
#######################################################################
#
#                 Cambridge Crystallographic Data Centre
#                                CCDC
#
#######################################################################
#
# If this CIF has been generated from an entry in the Cambridge
# Structural Database, then it will include bibliographic, chemical,
# crystal, experimental, refinement or atomic coordinate data resulting
# from the CCDC's data processing and validation procedures.
#
#######################################################################

data_CSD_CIF_FICFUV
_audit_creation_date 2018-04-04
_audit_creation_method CSD-ConQuest-V1
_database_code_CSD FICFUV
_database_code_depnum_ccdc_archive 'CCDC 1828598'
_chemical_formula_sum 'C23 H40.5 N7 O10.75 U1'
_chemical_formula_moiety
;
(C21 H27 N6 O8 U1 1-)n,C2 H8 N1 1+,2.75(H2 O1)
;
_journal_coden_Cambridge 9
_journal_volume 57
_journal_year 2018
_journal_page_first 4492
_journal_name_full 'Inorg.Chem. '
loop_
_publ_author_name
"Xiao-Lin Zhang"
"Kong-Qiu Hu"
"Lei Mei"
"Yu-Bao Zhao"
"Yi-Tong Wang"
"Zhi-Fang Chai"
"Wei-Qun Shi"
_chemical_name_systematic
;
catena-[dimethylammonium 
(\m-1,1',1''-(1,3,5-triazine-2,4,6-triyl)tri(piperidine-4-carboxylato))-dioxo-
uranium(vi) hydrate]
;
_cell_volume   6955.150
_exptl_crystal_colour 'yellow'
_exptl_crystal_density_diffrn 1.556
_exptl_crystal_description 'block'
_diffrn_ambient_temperature 170
#These two values have been output from a single CSD field.
_refine_ls_R_factor_gt 0.0565
_refine_ls_wR_factor_gt 0.0565
_symmetry_cell_setting monoclinic
_symmetry_space_group_name_H-M 'P 21/n'
_symmetry_Int_Tables_number 14
loop_
_symmetry_equiv_pos_site_id
_symmetry_equiv_pos_as_xyz
1 x,y,z
2 1/2-x,1/2+y,1/2-z
3 -x,-y,-z
4 -1/2+x,-1/2-y,-1/2+z
_cell_length_a 16.8743(6)
_cell_length_b 15.6576(8)
_cell_length_c 26.3284(10)
_cell_angle_alpha 90
_cell_angle_beta 91.021(2)
_cell_angle_gamma 90
_cell_formula_units_Z 8
loop_
_atom_type_symbol
_atom_type_radius_bond
C 0.68
H 0.23
N 0.68
O 0.68
U 1.96
loop_
_atom_site_label
_atom_site_type_symbol
_atom_site_fract_x
_atom_site_fract_y
_atom_site_fract_z
U1 U 0.10822(3) 0.22945(4) 0.77449(2)
C1 C 0.2581(9) 0.2594(12) 0.7313(7)
N1 N 0.4758(7) 0.3232(9) 0.6535(5)
O1 O 0.1184(6) 0.3209(6) 0.8124(4)
C2 C 0.3357(9) 0.2668(15) 0.7042(7)
H1 H 0.35290 0.20580 0.70220
N2 N 0.7463(6) 0.3624(8) 0.6531(4)
O2 O 0.0999(5) 0.1378(6) 0.7376(4)
C3 C 0.4027(9) 0.3064(14) 0.7324(6)
H2 H 0.38770 0.36610 0.74020
H3 H 0.40880 0.27620 0.76520
N3 N 0.6008(7) 0.3807(9) 0.5036(5)
N4 N 0.5372(6) 0.3485(8) 0.5774(4)
C4 C 0.4789(9) 0.3081(14) 0.7089(6)
H4 H 0.50580 0.25290 0.71540
H5 H 0.51140 0.35350 0.72510
O3 O 0.1959(6) 0.2933(8) 0.7119(4)
N5 N 0.6107(6) 0.3452(8) 0.6553(4)
C5 C 0.3321(9) 0.2912(15) 0.6508(6)
H6 H 0.31070 0.35000 0.64850
H7 H 0.29380 0.25310 0.63310
O4 O 0.2540(5) 0.2176(8) 0.7721(4)
C6 C 0.4071(10) 0.2887(16) 0.6232(7)
H8 H 0.40100 0.32230 0.59150
H9 H 0.41850 0.22890 0.61360
N6 N 0.6763(6) 0.3743(8) 0.5775(5)
O5 O 0.9636(5) 0.2485(7) 0.7644(4)
C7 C 0.5425(8) 0.3386(10) 0.6277(6)
O6 O 1.0372(6) 0.3167(7) 0.7100(4)
C8 C 0.6746(8) 0.3616(9) 0.6281(5)
O7 O 0.5300(5) 0.3437(7) 0.3409(4)
C9 C 0.6042(8) 0.3675(10) 0.5551(6)
O8 O 0.6592(6) 0.3655(7) 0.3454(4)
C10 C 0.5303(8) 0.3597(12) 0.4731(6)
H10 H 0.48510 0.35090 0.49600
H11 H 0.53960 0.30530 0.45490
C11 C 0.5093(10) 0.4257(12) 0.4361(6)
H12 H 0.49240 0.47770 0.45440
H13 H 0.46390 0.40570 0.41490
C12 C 0.5780(9) 0.4480(11) 0.4019(6)
H14 H 0.56360 0.50190 0.38350
C13 C 0.5917(9) 0.3797(11) 0.3618(6)
C14 C 0.6518(9) 0.4670(12) 0.4349(6)
H15 H 0.69800 0.47420 0.41270
H16 H 0.64380 0.52160 0.45320
C15 C 0.6693(9) 0.3996(12) 0.4721(6)
H17 H 0.68520 0.34710 0.45400
H18 H 0.71430 0.41770 0.49420
C16 C 0.8208(7) 0.3158(11) 0.7292(5)
H19 H 0.82390 0.32360 0.76650
H20 H 0.81440 0.25400 0.72230
C17 C 0.7481(8) 0.3632(11) 0.7083(6)
H21 H 0.69950 0.33580 0.72100
H22 H 0.74920 0.42300 0.72050
C18 C 0.8969(8) 0.3459(10) 0.7064(5)
H23 H 0.90250 0.40780 0.71520
C19 C 0.9688(8) 0.3013(10) 0.7282(6)
C20 C 0.8181(8) 0.3913(11) 0.6280(6)
H24 H 0.82610 0.45310 0.63430
H25 H 0.81250 0.38240 0.59090
C21 C 0.8903(8) 0.3406(11) 0.6488(6)
H26 H 0.88510 0.28000 0.63860
H27 H 0.93930 0.36350 0.63380
U2 U 0.13649(3) 0.26634(4) 0.34505(2)
O9 O 0.1454(6) 0.3606(8) 0.3810(4)
O10 O 0.1270(7) 0.1703(8) 0.3091(4)
N7 N 0.6425(7) 0.1201(9) 0.6152(5)
N8 N 0.7681(7) 0.1842(9) 0.4664(4)
N9 N 0.4974(6) 0.1308(8) 0.4653(4)
N10 N 0.5676(6) 0.1259(7) 0.5421(4)
O11 O 0.5843(6) 0.1464(8) 0.7738(4)
N11 N 0.7071(6) 0.1535(9) 0.5413(4)
O12 O 0.7143(5) 0.1589(7) 0.7779(3)
N12 N 0.6322(6) 0.1545(8) 0.4644(4)
O13 O 1.0478(5) 0.2105(8) 0.4098(4)
O14 O 0.9922(6) 0.2781(8) 0.3465(4)
O15 O 0.2815(5) 0.2436(7) 0.3534(4)
O16 O 0.2092(6) 0.1827(8) 0.4107(4)
C22 C 0.6604(9) 0.0570(11) 0.7170(6)
H28 H 0.67020 0.00200 0.73540
C23 C 0.6512(9) 0.1244(10) 0.7574(5)
C24 C 0.5839(9) 0.0440(12) 0.6854(6)
H29 H 0.58540 -0.01280 0.66900
H30 H 0.53800 0.04500 0.70830
C25 C 0.5727(9) 0.1110(11) 0.6454(5)
H31 H 0.52710 0.09540 0.62310
H32 H 0.56060 0.16630 0.66180
C26 C 0.7135(9) 0.1395(11) 0.6454(6)
H33 H 0.70620 0.19420 0.66360
H34 H 0.75940 0.14580 0.62280
C27 C 0.7293(9) 0.0693(11) 0.6829(6)
H35 H 0.73980 0.01540 0.66450
H36 H 0.77700 0.08340 0.70370
C28 C 0.6383(8) 0.1347(10) 0.5646(5)
C29 C 0.6994(8) 0.1643(10) 0.4916(5)
C30 C 0.5692(8) 0.1361(9) 0.4915(5)
C31 C 0.4257(8) 0.1061(11) 0.4911(6)
H37 H 0.43230 0.11610 0.52810
H38 H 0.41540 0.04450 0.48570
C32 C 0.3554(8) 0.1585(11) 0.4705(5)
H39 H 0.30610 0.13950 0.48690
H40 H 0.36370 0.21960 0.47870
C33 C 0.3473(8) 0.1476(10) 0.4133(5)
H41 H 0.34000 0.08530 0.40640
C34 C 0.2756(8) 0.1936(11) 0.3912(6)
C35 C 0.4239(8) 0.1746(10) 0.3888(5)
H42 H 0.43220 0.23650 0.39420
H43 H 0.42000 0.16420 0.35180
C36 C 0.4945(8) 0.1256(11) 0.4109(5)
H44 H 0.49080 0.06500 0.40050
H45 H 0.54410 0.14940 0.39710
C37 C 0.7642(8) 0.2015(12) 0.4122(6)
H46 H 0.74260 0.25960 0.40680
H47 H 0.72700 0.16050 0.39590
C38 C 0.8424(9) 0.1951(13) 0.3873(6)
H48 H 0.83720 0.21670 0.35210
H49 H 0.85800 0.13420 0.38560
C39 C 0.9076(9) 0.2450(13) 0.4151(6)
H50 H 0.88960 0.30580 0.41640
C40 C 0.9863(9) 0.2448(12) 0.3889(6)
C41 C 0.9115(9) 0.2134(14) 0.4696(6)
H51 H 0.92580 0.15210 0.47000
H52 H 0.95330 0.24510 0.48860
C42 C 0.8331(9) 0.2253(15) 0.4956(6)
H53 H 0.83630 0.20020 0.53010
H54 H 0.82190 0.28700 0.49910
N13 N 0.3726(8) 0.3867(9) 0.3105(6)
C43 C 0.4059(10) 0.4459(12) 0.2732(7)
H55 H 0.42490 0.41360 0.24400
H56 H 0.45010 0.47730 0.28890
H57 H 0.36480 0.48620 0.26190
C44 C 0.3381(11) 0.4344(13) 0.3531(8)
H58 H 0.29120 0.46590 0.34100
H59 H 0.37740 0.47470 0.36690
H60 H 0.32270 0.39430 0.37980
N14 N 1.118(2) 0.506(2) 0.700(2)
C45 C 1.049(2) 0.560(4) 0.693(3)
C46 C 1.195(2) 0.538(2) 0.6880(15)
O17 O 0.00000 0.50000 0.50000
O18 O -0.1511(18) 0.689(2) 0.4558(13)
O19 O 0.5645(19) 0.5276(19) 0.8982(16)
O20 O 0.739(2) -0.042(2) 0.3750(14)
O21 O 0.6437(18) -0.0296(17) 0.3484(15)
O22 O 1.1329(17) 0.397(2) 0.5987(11)
U1* U 1.10822(3) 0.22945(4) 0.77449(2)
U1C U 0.60822(3) 0.27055(4) 0.27449(2)
O5* O -0.0364(5) 0.2485(7) 0.7644(4)
O6* O 0.0372(6) 0.3167(7) 0.7100(4)
O7C O 0.0300(5) 0.1563(7) 0.8409(4)
O8C O 0.1592(6) 0.1345(7) 0.8454(4)
U2* U 1.13649(3) 0.26634(4) 0.34505(2)
U2C U 0.63649(3) 0.23366(4) 0.84505(2)
O11C O 0.0843(6) 0.3536(8) 0.2738(4)
O12C O 0.2143(5) 0.3411(7) 0.2779(3)
O13* O 0.0478(5) 0.2105(8) 0.4098(4)
O14* O -0.0078(6) 0.2781(8) 0.3465(4)
#END
