
#######################################################################
#
#                 Cambridge Crystallographic Data Centre
#                                CCDC
#
#######################################################################
#
# If this CIF has been generated from an entry in the Cambridge
# Structural Database, then it will include bibliographic, chemical,
# crystal, experimental, refinement or atomic coordinate data resulting
# from the CCDC's data processing and validation procedures.
#
#######################################################################

data_CSD_CIF_FICFIJ
_audit_creation_date 2018-04-04
_audit_creation_method CSD-ConQuest-V1
_database_code_CSD FICFIJ
_database_code_depnum_ccdc_archive 'CCDC 1828596'
_chemical_formula_sum 'C23 H35 N7 O8 U1'
_chemical_formula_moiety
;
(C21 H27 N6 O8 U1 1-)n,C2 H8 N1 1+
;
_journal_coden_Cambridge 9
_journal_volume 57
_journal_year 2018
_journal_page_first 4492
_journal_name_full 'Inorg.Chem. '
loop_
_publ_author_name
"Xiao-Lin Zhang"
"Kong-Qiu Hu"
"Lei Mei"
"Yu-Bao Zhao"
"Yi-Tong Wang"
"Zhi-Fang Chai"
"Wei-Qun Shi"
_chemical_name_systematic
;
catena-[dimethylammonium 
(\m-1,1',1''-(1,3,5-triazine-2,4,6-triyl)tri(piperidine-4-carboxylato))-dioxo-
uranium(vi) unknown solvate]
;
_cell_volume   1968.375
_exptl_crystal_colour 'yellow'
_exptl_crystal_density_diffrn 1.231
_exptl_special_details
;
monoclinic Pc polymorph

;
_exptl_crystal_description 'block'
_diffrn_ambient_temperature 170
_diffrn_special_details
;
twin

;
_refine_special_details
;
Disordered cation molecules were not modelled and the disordered density was 
taken into account using the SQUEEZE/PLATON procedure.
;
#These two values have been output from a single CSD field.
_refine_ls_R_factor_gt 0.0326
_refine_ls_wR_factor_gt 0.0326
_symmetry_cell_setting monoclinic
_symmetry_space_group_name_H-M 'P c'
_symmetry_Int_Tables_number 7
loop_
_symmetry_equiv_pos_site_id
_symmetry_equiv_pos_as_xyz
1 x,y,z
2 x,-y,1/2+z
_cell_length_a 14.850(3)
_cell_length_b 15.1481(11)
_cell_length_c 9.081(2)
_cell_angle_alpha 90
_cell_angle_beta 105.51(2)
_cell_angle_gamma 90
_cell_formula_units_Z 2
loop_
_atom_type_symbol
_atom_type_radius_bond
C 0.68
H 0.23
N 0.68
O 0.68
U 1.96
loop_
_atom_site_label
_atom_site_type_symbol
_atom_site_fract_x
_atom_site_fract_y
_atom_site_fract_z
U1 U 0.79352(5) 0.22113(2) 0.62562(6)
O1 O 0.7623(5) 0.3655(5) 0.4986(9)
C1 C 0.5002(7) 0.7455(6) 0.4999(11)
N1 N 0.3885(6) 0.6195(5) 0.3558(10)
C2 C 0.2332(9) 0.7347(10) 0.546(2)
H1 H 0.27850 0.78250 0.58610
H2 H 0.22050 0.70320 0.63360
O2 O 0.8042(5) 1.0687(4) 0.7240(9)
N2 N 0.5076(6) 0.5719(5) 0.2551(9)
N3 N 0.5370(6) 0.6893(5) 0.4182(9)
O3 O 0.6679(5) 1.1116(4) 0.5868(8)
C3 C 0.4755(7) 0.6289(6) 0.3447(11)
N4 N 0.4147(6) 0.7464(6) 0.516(1)
C4 C 0.3619(7) 0.6788(6) 0.4412(13)
O4 O 0.6453(6) 0.2756(4) 0.4587(10)
C5 C 0.1201(7) 0.6369(8) 0.2895(18)
H3 H 0.07740 0.58630 0.25600
H4 H 0.12980 0.66570 0.19710
O5 O 0.7630(6) 0.2613(5) 0.7911(10)
N5 N 0.5605(6) 0.8125(5) 0.5713(9)
O6 O -0.0467(5) 0.8116(5) 0.2919(10)
C6 C 0.0759(8) 0.7014(8) 0.3742(18)
H5 H 0.06310 0.66740 0.46080
N6 N 0.2729(7) 0.6732(8) 0.4557(16)
O7 O -0.0711(5) 0.6817(6) 0.1885(12)
C7 C 0.1440(8) 0.7735(8) 0.4478(19)
H6 H 0.15810 0.81080 0.36720
H7 H 0.11510 0.81150 0.51130
C8 C 0.6795(6) 0.3491(6) 0.4341(10)
C9 C 0.2111(8) 0.604(1) 0.385(2)
H8 H 0.19980 0.56500 0.46590
H9 H 0.24160 0.56830 0.32100
O8 O 0.8264(6) 0.1805(6) 0.4660(11)
C10 C 0.6231(7) 0.4151(5) 0.3218(10)
H10 H 0.62870 0.39840 0.21800
C11 C 0.6621(7) 0.5091(6) 0.3552(10)
H11 H 0.66340 0.52530 0.46140
H12 H 0.72700 0.51070 0.34620
C12 C 0.6051(7) 0.5745(6) 0.2489(11)
H13 H 0.63080 0.63440 0.27630
H14 H 0.60810 0.56160 0.14340
C13 C 0.4639(8) 0.4848(6) 0.2099(12)
H15 H 0.46350 0.47180 0.10290
H16 H 0.39840 0.48570 0.21620
C14 C 0.6603(8) 0.8062(7) 0.5843(13)
H17 H 0.67110 0.76700 0.50350
H18 H 0.69330 0.78100 0.68490
C15 C 0.6984(7) 0.9003(6) 0.5673(12)
H19 H 0.76680 0.89740 0.58190
H20 H 0.66950 0.92270 0.46290
C16 C 0.5184(7) 0.4127(5) 0.3156(11)
H21 H 0.49240 0.35420 0.27850
H22 H 0.51110 0.42120 0.41990
C17 C 0.6773(7) 0.9626(6) 0.6820(11)
H23 H 0.70900 0.93980 0.78630
C18 C 0.5726(7) 0.9641(6) 0.6654(11)
H24 H 0.53980 0.98850 0.56420
H25 H 0.55930 1.00280 0.74480
C19 C 0.7181(7) 1.0519(6) 0.6651(11)
C20 C -0.0177(10) 0.7344(9) 0.2816(19)
C21 C 0.5360(7) 0.8706(6) 0.6814(12)
H26 H 0.56390 0.84830 0.78620
H27 H 0.46730 0.87210 0.66350
U1* U 0.79352(5) 1.22113(2) 0.62562(6)
U1A U -0.20648(5) 0.77887(2) 0.12562(6)
O2* O 0.8042(5) 0.0687(4) 0.7240(9)
O3* O 0.6679(5) 0.1116(4) 0.5868(8)
O6A O 0.9533(5) 0.1884(5) 0.7919(10)
O7A O 0.9289(5) 0.3183(6) 0.6885(12)
#END
