
#######################################################################
#
#                 Cambridge Crystallographic Data Centre
#                                CCDC
#
#######################################################################
#
# If this CIF has been generated from an entry in the Cambridge
# Structural Database, then it will include bibliographic, chemical,
# crystal, experimental, refinement or atomic coordinate data resulting
# from the CCDC's data processing and validation procedures.
#
#######################################################################

data_CSD_CIF_FICGAC
_audit_creation_date 2018-04-04
_audit_creation_method CSD-ConQuest-V1
_database_code_CSD FICGAC
_database_code_depnum_ccdc_archive 'CCDC 1828599'
_chemical_formula_sum 'C46 H76 N14 O19 U2'
_chemical_formula_moiety
;
(C42 H54 N12 O16 U2 2-)n,2(C2 H8 N1 1+),3(H2 O1)
;
_journal_coden_Cambridge 9
_journal_volume 57
_journal_year 2018
_journal_page_first 4492
_journal_name_full 'Inorg.Chem. '
loop_
_publ_author_name
"Xiao-Lin Zhang"
"Kong-Qiu Hu"
"Lei Mei"
"Yu-Bao Zhao"
"Yi-Tong Wang"
"Zhi-Fang Chai"
"Wei-Qun Shi"
_chemical_name_systematic
;
catena-[bis(dimethylammonium) 
bis(\m-1,1',1''-(1,3,5-triazine-2,4,6-triyl)tri(piperidine-4-carboxylato))-tet
raoxo-di-uranium(vi) trihydrate]
;
_cell_volume   3010.943
_exptl_crystal_colour 'yellow'
_exptl_crystal_density_diffrn 1.757
_exptl_crystal_description 'block'
_diffrn_ambient_temperature 299
_refine_special_details
;
O19 disordered over one sites with occupancies 0.5.

;
#These two values have been output from a single CSD field.
_refine_ls_R_factor_gt 0.0475
_refine_ls_wR_factor_gt 0.0475
_symmetry_cell_setting triclinic
_symmetry_space_group_name_H-M 'P -1'
_symmetry_Int_Tables_number 2
loop_
_symmetry_equiv_pos_site_id
_symmetry_equiv_pos_as_xyz
1 x,y,z
2 -x,-y,-z
_cell_length_a 14.643(14)
_cell_length_b 14.836(12)
_cell_length_c 17.114(11)
_cell_angle_alpha 67.435(17)
_cell_angle_beta 77.25(2)
_cell_angle_gamma 61.39(3)
_cell_formula_units_Z 2
loop_
_atom_type_symbol
_atom_type_radius_bond
C 0.68
H 0.23
N 0.68
O 0.68
U 1.96
loop_
_atom_site_label
_atom_site_type_symbol
_atom_site_fract_x
_atom_site_fract_y
_atom_site_fract_z
U1 U -0.44028(3) 1.25120(3) 0.96142(2)
O1 O -0.5504(7) 1.3755(7) 0.9496(5)
N1 N -0.2376(7) 1.3036(8) 0.5453(5)
C1 C -0.360(1) 1.2785(11) 0.0837(7)
O2 O -0.3313(7) 1.1279(7) 0.9739(6)
N2 N -0.2161(7) 1.2364(8) 0.2987(5)
U2 U 0.61059(3) 0.72125(3) 0.50195(2)
C2 C -0.3179(11) 1.2959(14) 0.1483(8)
H1 H -0.32310 1.36960 0.12380
O3 O -0.3550(7) 1.3376(8) 0.8385(5)
N3 N 0.0844(7) 1.1213(9) 0.4308(6)
C3 C -0.373(1) 1.2877(13) 0.2316(8)
H2 H -0.37730 1.21900 0.25360
H3 H -0.44370 1.34490 0.22390
O4 O -0.4447(6) 1.2707(8) 0.8121(5)
N4 N -0.0755(7) 1.2153(7) 0.4883(5)
C4 C -0.3266(9) 1.2952(12) 0.2966(7)
H4 H -0.34560 1.37110 0.28590
H5 H -0.35660 1.26850 0.35190
O5 O -0.4219(7) 1.2350(7) 0.1080(5)
N5 N -0.2303(7) 1.2702(7) 0.4238(5)
C5 C -0.1539(10) 1.2231(14) 0.2215(8)
H6 H -0.09040 1.15640 0.23650
H7 H -0.13430 1.28250 0.19560
O6 O -0.3369(7) 1.3125(8) 0.0070(5)
N6 N -0.0623(7) 1.1755(7) 0.3625(5)
C6 C -0.2047(11) 1.2199(13) 0.1583(8)
H8 H -0.19670 1.14650 0.17340
H9 H -0.16830 1.23580 0.10390
O7 O 0.4485(6) 0.8651(6) 0.5394(5)
N7 N 0.8558(7) 0.4971(7) 0.1619(5)
C7 C -0.1673(9) 1.2262(9) 0.3634(6)
N8 N 0.8275(7) 0.4673(8) -0.0908(5)
O8 O 0.4643(6) 0.8565(6) 0.4130(5)
C8 C -0.1790(8) 1.2598(8) 0.4834(6)
O9 O 0.6299(6) 0.7035(7) 0.3609(5)
N9 N 1.1369(7) 0.2640(8) 0.0440(6)
C9 C -0.3504(8) 1.3581(10) 0.5457(6)
H10 H -0.37470 1.33680 0.51040
H11 H -0.37370 1.43600 0.52250
C10 C -0.3962(9) 1.3284(11) 0.6361(7)
H12 H -0.38120 1.25220 0.65630
H13 H -0.47130 1.37080 0.63650
N10 N 0.9993(7) 0.3849(7) 0.1021(5)
O10 O 0.7620(6) 0.5860(7) 0.4405(5)
C11 C -0.2336(9) 1.2931(10) 0.6902(7)
H14 H -0.21150 1.21530 0.71200
H15 H -0.20550 1.31140 0.72520
O11 O 0.6111(6) 0.7100(7) -0.3506(5)
C12 C -0.3883(9) 1.3199(11) 0.7870(7)
N11 N 0.9826(7) 0.3604(8) -0.0232(6)
O12 O 0.5530(6) 0.6329(6) 0.5411(5)
C13 C -0.3496(9) 1.3506(10) 0.6951(6)
H16 H -0.36960 1.42870 0.67500
N12 N 0.8365(7) 0.4878(7) 0.0346(5)
O13 O 0.6713(6) 0.8062(7) 0.4642(5)
C14 C -0.1908(9) 1.324(1) 0.5997(7)
H17 H -0.20610 1.40030 0.57970
H18 H -0.11580 1.28190 0.59750
O14 O 0.7466(6) 0.5921(6) -0.3964(4)
C15 C -0.0199(8) 1.1718(9) 0.4271(7)
O15 O 1.4493(6) 0.1758(7) -0.0565(5)
C16 C 0.1373(9) 1.1267(11) 0.4907(8)
H19 H 0.09020 1.14040 0.53890
H20 H 0.15590 1.18670 0.46370
O16 O 1.4641(7) 0.1594(8) 0.0722(5)
C17 C 0.2339(8) 1.0232(9) 0.5210(7)
H21 H 0.21500 0.96400 0.55260
H22 H 0.26900 1.03060 0.55850
C18 C 0.3069(9) 0.9975(9) 0.4462(7)
H23 H 0.32310 1.05970 0.41730
C19 C 0.4101(8) 0.9003(9) 0.4687(7)
C20 C 0.2519(9) 0.9949(10) 0.3822(7)
H24 H 0.29790 0.98600 0.33260
H25 H 0.23580 0.93300 0.40670
C21 C 0.1526(9) 1.0973(12) 0.3558(8)
H26 H 0.16940 1.15760 0.32290
H27 H 0.11560 1.08930 0.32020
C22 C 0.7594(8) 0.5556(9) 0.3132(6)
H28 H 0.75150 0.48830 0.34190
C23 C 0.7148(8) 0.6199(9) 0.3740(6)
C24 C 0.7016(9) 0.6112(10) 0.2329(7)
H29 H 0.70790 0.67840 0.20230
H30 H 0.62840 0.62950 0.24720
C25 C 0.7418(8) 0.5421(11) 0.1764(7)
H31 H 0.72210 0.48280 0.20190
H32 H 0.70930 0.58540 0.12230
C26 C 0.8722(9) 0.5228(12) 0.2923(8)
H33 H 0.90900 0.48510 0.34440
H34 H 0.88320 0.58750 0.26280
C27 C 0.9186(9) 0.4484(11) 0.2365(7)
H35 H 0.98960 0.43780 0.21820
H36 H 0.92010 0.37800 0.26940
C28 C 0.8995(8) 0.4543(8) 0.0978(6)
C29 C 1.0375(8) 0.3397(9) 0.0413(7)
C30 C 1.2024(10) 0.2365(11) 0.1112(8)
H37 H 1.23430 0.28600 0.09310
H38 H 1.15870 0.24680 0.16160
C31 C 1.2842(9) 0.1252(10) 0.1324(7)
H39 H 1.25260 0.07580 0.16130
H40 H 1.33020 0.11530 0.17100
C32 C 1.1953(9) 0.2381(10) -0.0323(7)
H41 H 1.22750 0.28700 -0.06140
H42 H 1.14730 0.25000 -0.07010
C33 C 1.2764(9) 0.1254(10) -0.0126(7)
H43 H 1.31760 0.11510 -0.06400
H44 H 1.24350 0.07680 0.00720
C34 C 1.3487(9) 0.0959(9) 0.0547(7)
H45 H 1.39000 0.01690 0.07280
C35 C 1.4235(8) 0.1458(9) 0.0207(7)
C36 C 0.8831(9) 0.4371(9) -0.0260(6)
C37 C 0.8683(10) 0.4066(10) -0.1512(7)
H46 H 0.83970 0.35480 -0.13590
H47 H 0.94350 0.36650 -0.14860
C38 C 0.8402(8) 0.4823(10) -0.2396(6)
H48 H 0.87570 0.52830 -0.25710
H49 H 0.86380 0.44030 -0.27780
C39 C 0.7255(9) 0.5517(9) -0.2458(6)
H50 H 0.69250 0.50240 -0.22720
C40 C 0.6946(9) 0.6226(9) -0.3368(7)
C41 C 0.6866(8) 0.6156(9) -0.1831(6)
H51 H 0.71720 0.66580 -0.19920
H52 H 0.61150 0.65730 -0.18470
C42 C 0.7162(9) 0.5382(10) -0.0953(7)
H53 H 0.69590 0.57910 -0.05670
H54 H 0.67850 0.49410 -0.07710
C43 C 0.052(4) 1.159(5) 0.781(3)
C44 C -0.051(3) 1.071(3) 0.871(2)
N13 N 0.006(5) 1.087(5) 0.790(3)
H55 H 0.05630 1.02350 0.78660
H56 H -0.03650 1.11600 0.74820
N14 N 1.5705(10) 0.0294(10) 0.2276(7)
H57 H 1.54130 -0.00770 0.22100
H58 H 1.56070 0.08640 0.18080
C45 C 1.5170(13) 0.0685(13) 0.2983(9)
H59 H 1.54840 0.10770 0.30680
H60 H 1.52230 0.00790 0.34850
H61 H 1.44500 0.11560 0.28640
C46 C 1.6803(13) -0.0384(15) 0.2352(12)
H62 H 1.69940 -0.09930 0.21730
H63 H 1.69750 -0.06380 0.29320
H64 H 1.71760 0.00270 0.20020
O17 O 0.5036(11) 0.8867(8) 0.2206(7)
O18 O 0.0234(19) 0.9580(15) 0.3421(12)
O19 O 0.0308(17) 1.450(4) 0.4798(19)
O20 O 0.081(3) 1.299(3) 0.633(3)
U1* U -0.44028(3) 1.25120(3) -0.03858(2)
U1** U 1.55972(3) 0.25120(3) -0.03858(2)
U2* U 0.61059(3) 0.72125(3) -0.49805(2)
O5* O -0.4219(7) 1.2350(7) 1.1080(5)
O6* O -0.3369(7) 1.3125(8) 1.0070(5)
O11* O 0.6111(6) 0.7100(7) 0.6494(5)
O14* O 0.7466(6) 0.5921(6) 0.6036(4)
O15* O -0.5507(6) 1.1758(7) 0.9435(5)
O16* O -0.5359(7) 1.1594(8) 1.0722(5)
#END
