
#######################################################################
#
#                 Cambridge Crystallographic Data Centre
#                                CCDC
#
#######################################################################
#
# If this CIF has been generated from an entry in the Cambridge
# Structural Database, then it will include bibliographic, chemical,
# crystal, experimental, refinement or atomic coordinate data resulting
# from the CCDC's data processing and validation procedures.
#
#######################################################################

data_CSD_CIF_FICQEN
_audit_creation_date 1999-07-29
_audit_creation_method CSD-ConQuest-V1
_database_code_CSD FICQEN
_database_code_depnum_ccdc_archive 'CCDC 127860'
_chemical_formula_sum 'C12 H16 Ca1 N2 O14 Pb2'
_chemical_formula_moiety
;
(C12 H12 N2 O12 Pb2 2-)n,n(Ca1 2+),2n(H2 O1)
;
_journal_coden_Cambridge 41
_journal_volume 43
_journal_year 1998
_journal_page_first 812
_journal_name_full 'Kristallografiya(Russ.)(Crystallogr.Rep.) '
loop_
_publ_author_name
"A.B.Ilyukhin"
"A.L.Poznyak"
"V.S.Sergienko"
"L.V.Stopolyanskaya"
_chemical_name_systematic
;
catena-(Calcium 
(\m~3~-nitrilotriacetato)-(\m~2~-nitrilotriacetato)-di-lead(ii) dihydrate)
;
_cell_volume    985.496
_exptl_crystal_density_diffrn 2.92
_diffrn_ambient_temperature ?
_diffrn_special_details
;
The study was carried out at room temperature,in the range 283-303K

;
#These two values have been output from a single CSD field.
_refine_ls_R_factor_gt 0.04
_refine_ls_wR_factor_gt 0.04
_symmetry_cell_setting triclinic
_symmetry_space_group_name_H-M 'P -1'
_symmetry_Int_Tables_number 2
loop_
_symmetry_equiv_pos_site_id
_symmetry_equiv_pos_as_xyz
1 x,y,z
2 -x,-y,-z
_cell_length_a 9.243(4)
_cell_length_b 10.364(3)
_cell_length_c 11.484(3)
_cell_angle_alpha 98.82(2)
_cell_angle_beta 89.96(2)
_cell_angle_gamma 114.66(2)
_cell_formula_units_Z 2
loop_
_atom_type_symbol
_atom_type_radius_bond
C 0.68
H 0.23
Ca 1.24
N 0.68
O 0.68
Pb 1.80
loop_
_atom_site_label
_atom_site_type_symbol
_atom_site_fract_x
_atom_site_fract_y
_atom_site_fract_z
Pb1 Pb 0.18397(6) 0.15941(4) -0.39076(4)
Pb2 Pb 0.66817(6) 0.19126(4) -0.37295(4)
O1 O 0.1936(13) 0.13118(93) -0.19018(86)
O2 O 0.2212(18) 0.2281(12) -0.0014(10)
O3 O 0.4703(12) 0.30914(96) -0.39879(96)
O4 O 0.6585(13) 0.5323(12) -0.3936(11)
O5 O 0.0879(10) 0.33578(81) -0.45222(79)
O6 O -0.0391(13) 0.46325(96) -0.36904(94)
O7 O 0.3946(11) -0.00082(91) -0.40459(82)
O8 O 0.2073(12) -0.1966(10) -0.35654(95)
O9 O 0.8872(12) 0.09684(88) -0.32767(92)
O10 O 0.8845(13) -0.12017(99) -0.35603(94)
O11 O 0.6603(13) 0.29279(89) -0.17722(81)
O12 O 0.6562(20) 0.2865(13) 0.0144(10)
N1 N 0.2842(13) 0.39794(94) -0.25763(86)
N2 N 0.6018(12) 0.00936(92) -0.22802(82)
C1 C 0.2414(18) 0.2363(14) -0.1068(12)
C2 C 0.3377(16) 0.3851(12) -0.1402(10)
H1 H 0.3275(16) 0.4598(12) -0.0787(10)
H2 H 0.4530(16) 0.4042(12) -0.1403(10)
C3 C 0.5256(18) 0.4450(15) -0.3705(13)
C4 C 0.4172(16) 0.5066(12) -0.3116(12)
H3 H 0.4798(16) 0.5901(12) -0.2485(12)
H4 H 0.3708(16) 0.5425(12) -0.3710(12)
C5 C 0.0611(17) 0.4130(11) -0.3657(12)
C6 C 0.1479(16) 0.4370(12) -0.2482(11)
H5 H 0.1879(16) 0.5410(12) -0.2122(11)
H6 H 0.0715(16) 0.3786(12) -0.1946(11)
C7 C 0.3367(17) -0.0884(12) -0.3338(12)
C8 C 0.4301(16) -0.0584(13) -0.2152(12)
H7 H 0.4014(16) -0.1505(13) -0.1845(12)
H8 H 0.4007(16) 0.0071(13) -0.1567(12)
C9 C 0.8245(17) -0.0333(13) -0.3203(11)
C10 C 0.6622(17) -0.0960(12) -0.2669(13)
H9 H 0.6765(17) -0.1371(12) -0.1968(13)
H10 H 0.5819(17) -0.1760(12) -0.3249(13)
C11 C 0.6595(19) 0.2332(13) -0.0862(12)
C12 C 0.6817(18) 0.0957(12) -0.1116(11)
H11 H 0.6337(18) 0.0362(12) -0.0490(11)
H12 H 0.7984(18) 0.1201(12) -0.1086(11)
Ca1 Ca 0.06780(31) 0.32176(22) -0.66998(21)
O13 O -0.0398(15) 0.1454(10) -0.85549(94)
H13 H -0.0026(15) 0.1307(10) -0.92933(94)
H14 H -0.0769(15) 0.062(1) -0.84633(94)
O14 O 0.1832(21) 0.4222(11) -0.8368(11)
H15 H 0.1987(21) 0.3674(11) -0.8848(11)
H16 H 0.2385(21) 0.4873(11) -0.8543(11)
O9* O -0.1128(12) 0.09684(88) -0.32767(92)
O7A O 0.6054(11) 0.00082(91) -0.59541(82)
Pb1* Pb 1.18397(6) 0.15941(4) -0.39076(4)
Pb2A Pb 0.33183(6) -0.19126(4) -0.62705(4)
#END
