
#######################################################################
#
#                 Cambridge Crystallographic Data Centre
#                                CCDC
#
#######################################################################
#
# If this CIF has been generated from an entry in the Cambridge
# Structural Database, then it will include bibliographic, chemical,
# crystal, experimental, refinement or atomic coordinate data resulting
# from the CCDC's data processing and validation procedures.
#
#######################################################################

data_CSD_CIF_FIDKUZ
_audit_creation_date 2005-06-02
_audit_creation_method CSD-ConQuest-V1
_database_code_CSD FIDKUZ
_database_code_depnum_ccdc_archive 'CCDC 261349'
_chemical_formula_sum 'C48 H80 Cl8 Cu8 K4 La4 N8 O64'
_chemical_formula_moiety
;
(K1 1+)4n,n(C48 H80 Cl8 Cu8 La4 N8 O64 4-)
;
_journal_coden_Cambridge 1147
_journal_volume 5
_journal_year 2005
_journal_page_first 77
_journal_name_full 'Cryst.Growth Des. '
loop_
_publ_author_name
"Hui-Zhong Kou"
"Yun-Bo Jiang"
"Ai-Li Cui"
_chemical_name_systematic
;
catena-(Tetra-potassium 
octakis(\m~3~-nitrilotriacetato)-hexadeca-aqua-octachloro-octa-copper(ii)-tetr
a-lanthanum(iii))
;
_cell_volume   9798.536
_exptl_crystal_colour 'blue'
_exptl_crystal_density_diffrn 2.235
_exptl_special_details
;
isomorphous with the gadolinium analogue and with the sodium salt of the 
gadolinium analogue
;
_exptl_crystal_description 'Block'
_diffrn_ambient_temperature 293
#These two values have been output from a single CSD field.
_refine_ls_R_factor_gt 0.0511
_refine_ls_wR_factor_gt 0.0511
_symmetry_cell_setting monoclinic
_symmetry_space_group_name_H-M 'P 21/n'
_symmetry_Int_Tables_number 14
loop_
_symmetry_equiv_pos_site_id
_symmetry_equiv_pos_as_xyz
1 x,y,z
2 1/2-x,1/2+y,1/2-z
3 -x,-y,-z
4 -1/2+x,-1/2-y,-1/2+z
_cell_length_a 17.1433(6)
_cell_length_b 33.3982(11)
_cell_length_c 18.4415(6)
_cell_angle_alpha 90
_cell_angle_beta 111.875(1)
_cell_angle_gamma 90
_cell_formula_units_Z 4
loop_
_atom_type_symbol
_atom_type_radius_bond
C 0.68
H 0.23
Cl 0.99
Cu 1.52
K 1.40
La 1.51
N 0.68
O 0.78
loop_
_atom_site_label
_atom_site_type_symbol
_atom_site_fract_x
_atom_site_fract_y
_atom_site_fract_z
La1 La 0.761927(14) 0.091426(6) 0.228014(12)
La2 La 0.759889(13) 0.211607(6) -0.259399(12)
La3 La 0.766807(14) -0.037156(6) 0.718496(12)
La4 La 0.744615(14) -0.162806(6) 0.247263(12)
Cu1 Cu 0.59393(3) 0.099840(13) 0.44955(3)
Cu2 Cu 0.89522(3) 0.228431(13) -0.43903(3)
Cu3 Cu 0.89465(3) -0.143742(13) 1.03001(3)
Cu4 Cu 0.89175(3) -0.017514(13) 0.53187(3)
Cu5 Cu 0.89427(3) 0.108576(13) 0.05356(3)
Cu6 Cu 0.59743(3) -0.146505(13) 0.42208(3)
Cu7 Cu 0.59193(3) -0.025010(14) -0.05465(3)
Cu8 Cu 0.60207(3) 0.226820(13) -0.04165(3)
Cl1 Cl 0.91136(7) -0.21035(3) 1.02975(7)
Cl2 Cl 0.57105(8) 0.03421(3) 0.45070(8)
Cl3 Cl 0.58048(7) 0.16093(3) -0.04304(7)
Cl4 Cl 0.90635(8) 0.16195(3) -0.44800(9)
Cl5 Cl 0.89895(9) -0.08443(3) 0.52058(9)
Cl6 Cl 0.90534(8) 0.04156(3) 0.05167(8)
Cl7 Cl 0.58199(8) -0.21309(3) 0.42502(9)
Cl8 Cl 0.5742(1) -0.08986(4) -0.03653(12)
K1 K 0.74437(6) 0.21581(2) 0.27355(5)
K2 K 0.73625(6) 0.34153(3) -0.23259(6)
K3 K 0.75295(6) 0.08866(3) 0.76549(6)
K4 K 0.76488(6) -0.03194(3) 0.23577(6)
O1 O 0.6753(2) -0.14001(8) 0.53107(17)
O2 O 0.7198(2) -0.09503(9) 0.62645(16)
O3 O 0.8222(2) 0.23947(8) -0.54930(17)
O4 O 0.6760(2) 0.09733(9) 0.3912(2)
O5 O 0.48625(18) 0.24474(8) -0.1206(2)
N1 N 0.61805(18) 0.15854(9) 0.44952(17)
N2 N 0.6062(2) -0.08563(9) 0.42035(18)
O6 O 0.6309(2) 0.23589(9) 0.07372(18)
O7 O 0.6890(2) 0.22483(8) -0.09339(18)
O8 O 0.8190(2) -0.08709(9) 0.82539(17)
O9 O 0.8071(2) -0.14515(9) 1.0818(2)
O10 O 0.8285(2) 0.11714(8) -0.05858(17)
N3 N 0.87844(19) -0.08407(9) 1.03343(17)
O11 O 1.00645(19) -0.12908(9) 1.1230(2)
O12 O 0.9843(2) 0.11351(9) 0.15538(19)
N4 N 0.62467(18) 0.28588(9) -0.04130(17)
O13 O 0.8296(2) -0.00701(8) 0.42109(18)
O14 O 0.79951(18) 0.11541(8) 0.11086(17)
O15 O 0.8053(2) 0.03961(9) 0.33087(17)
C1 C 0.8405(3) -0.09888(12) 0.8941(2)
C2 C 0.8333(3) 0.15215(11) -0.0823(2)
O16 O 0.7174(2) 0.03363(9) 0.14000(17)
O17 O 0.8680(3) -0.13352(9) 0.91676(18)
O18 O 0.80066(19) -0.01284(8) 0.59684(17)
C3 C 0.9748(3) 0.30102(13) -0.3693(3)
H1 H 0.96460 0.32220 -0.33810
H2 H 1.01210 0.31150 -0.39350
O19 O 0.7673(2) 0.28326(8) -0.31500(17)
O20 O 0.7783(2) 0.03536(9) 0.66844(18)
O21 O 0.80826(17) 0.23447(7) -0.37266(17)
C4 C 0.7982(2) 0.27148(11) -0.3623(2)
C5 C 0.8344(3) 0.02863(11) 0.4007(2)
O22 O 0.9868(2) -0.01474(11) 0.6294(2)
O23 O 0.8922(2) 0.05412(10) 0.2251(2)
O24 O 0.6324(2) 0.10828(9) 0.56664(17)
C6 C 0.5430(2) 0.30575(10) -0.0577(2)
H3 H 0.54510 0.33290 -0.07530
H4 H 0.53080 0.30690 -0.01040
O25 O 0.47592(18) 0.11851(8) 0.3756(2)
O26 O 0.6761(2) -0.01491(8) 0.05261(18)
O27 O 0.8986(2) 0.12103(10) 0.3212(2)
N5 N 0.6130(2) 0.03354(9) -0.06822(18)
O28 O 0.6193(2) 0.23524(10) -0.3698(2)
O29 O 0.6209(2) 0.12048(11) 0.1292(2)
C7 C 0.7972(2) 0.15225(11) 0.1263(2)
C8 C 0.6796(3) -0.10473(11) 0.5577(2)
O30 O 0.68390(19) -0.14155(8) 0.35663(17)
O31 O 0.8976(2) -0.07113(11) 0.7118(2)
C9 C 0.6714(3) 0.14085(11) 0.5886(2)
O32 O 0.8973(2) 0.24461(9) -0.1740(2)
O33 O 0.41189(19) 0.30010(9) -0.1645(2)
C10 C 0.5225(3) -0.07122(14) 0.3673(3)
H5 H 0.53020 -0.04930 0.33610
H6 H 0.49210 -0.06100 0.39840
O34 O 0.8019(2) 0.16221(8) -0.15226(16)
O35 O 0.7748(2) 0.16432(9) 0.17952(18)
O36 O 0.6249(2) -0.00645(11) 0.6272(2)
C11 C 0.6799(3) 0.02139(11) 0.0719(2)
C12 C 0.8293(3) 0.27492(11) -0.5710(2)
C13 C 0.7969(2) 0.02377(10) 0.6128(2)
O37 O 0.8891(2) 0.17005(11) -0.2577(2)
C14 C 0.4743(2) 0.28255(11) -0.1204(3)
N6 N 0.88792(19) 0.04355(9) 0.54101(18)
C15 C 0.6706(3) 0.26820(11) 0.0976(2)
O38 O 0.7007(2) 0.27832(9) 0.16756(17)
C16 C 0.6986(2) -0.10513(11) 0.3482(2)
N7 N 0.89397(19) 0.28932(9) -0.43137(18)
C17 C 0.8189(3) 0.18198(11) 0.0748(2)
H7 H 0.77080 0.18510 0.02630
H8 H 0.83020 0.20780 0.10070
O39 O 1.0757(2) 0.27346(12) -0.2546(2)
C18 C 0.8209(3) 0.30156(11) -0.4124(2)
H9 H 0.77280 0.30530 -0.46070
H10 H 0.83310 0.32710 -0.38540
O40 O 0.9922(2) 0.23107(10) -0.3414(2)
O41 O 0.6270(2) 0.18900(11) -0.2387(2)
O42 O 0.6446(2) -0.07449(12) 0.7334(2)
O43 O 0.8773(2) -0.18580(11) 0.2249(2)
O44 O 0.7059(2) 0.15118(9) 0.65836(17)
C19 C 0.6875(3) 0.13089(11) 0.3652(2)
C20 C 1.0176(3) 0.26645(14) -0.3165(3)
N8 N 0.89257(19) 0.16979(9) 0.05671(18)
O45 O 1.0671(2) 0.15685(12) 0.23936(19)
C21 C 0.8826(2) 0.18312(10) -0.0229(2)
H11 H 0.93740 0.18680 -0.02590
H12 H 0.85320 0.20860 -0.03430
C22 C 0.6826(2) 0.16748(12) 0.5272(2)
H13 H 0.67810 0.19530 0.54030
H14 H 0.73810 0.16340 0.52590
O46 O 0.8855(2) -0.14034(11) 0.3603(2)
C23 C 0.8799(2) 0.05894(11) 0.4632(2)
H15 H 0.93530 0.06410 0.46250
H16 H 0.84900 0.08400 0.45290
O47 O 0.9004(2) -0.00525(11) 0.8143(3)
O48 O 0.6089(2) -0.13039(11) 0.1540(3)
C24 C 0.6728(4) -0.07386(14) 0.3939(3)
H17 H 0.72180 -0.06660 0.43920
H18 H 0.65470 -0.05010 0.36160
C25 C 1.0111(3) 0.14895(14) 0.1770(3)
C26 C 0.6854(2) 0.29514(11) 0.0374(2)
H19 H 0.67960 0.32290 0.04970
H20 H 0.74210 0.29120 0.03910
O49 O 0.7385(2) -0.09449(9) 0.30731(18)
O50 O 0.4084(2) -0.09311(12) 0.2575(2)
O51 O 0.6185(3) -0.20437(12) 0.2465(2)
C27 C 0.6329(3) 0.05169(11) 0.0092(2)
H21 H 0.58140 0.05970 0.01560
H22 H 0.66720 0.07540 0.01410
C28 C 0.9726(3) 0.18231(12) 0.1187(2)
H23 H 0.96250 0.20540 0.14590
H24 H 1.01210 0.19030 0.09490
C29 C 0.8033(3) -0.11242(12) 1.1137(2)
C30 C 0.9634(3) -0.06700(12) 1.0594(3)
H25 H 0.96240 -0.03960 1.07660
H26 H 0.98280 -0.06670 1.01630
C31 C 0.5381(2) 0.17923(11) 0.4368(3)
H27 H 0.54040 0.20640 0.41910
H28 H 0.52860 0.18050 0.48550
C32 C 0.4709(3) -0.10294(15) 0.3139(3)
O52 O 0.4759(2) -0.01300(12) -0.1249(2)
C33 C 1.0226(3) -0.09173(12) 1.1258(3)
C34 C 0.8838(3) 0.30391(11) -0.5102(2)
H29 H 0.93840 0.30620 -0.51430
H30 H 0.85780 0.33020 -0.51890
C35 C 1.0095(3) 0.02006(17) 0.6566(3)
C36 C 0.6258(3) -0.07320(12) 0.5020(2)
H31 H 0.57400 -0.06950 0.51110
H32 H 0.65560 -0.04790 0.51160
C37 C 0.9671(3) 0.05536(14) 0.6055(3)
H33 H 0.95470 0.07570 0.63730
H34 H 1.00530 0.06690 0.58350
C38 C 0.8129(3) 0.05405(12) 0.5582(3)
H35 H 0.76420 0.05520 0.50970
H36 H 0.82060 0.08040 0.58200
C39 C 0.6581(2) 0.29477(11) -0.1026(2)
H37 H 0.70070 0.31550 -0.08420
H38 H 0.61310 0.30480 -0.14870
O53 O 1.0827(2) -0.07524(11) 1.1767(3)
O54 O 1.0654(2) 0.02676(14) 0.7208(2)
C40 C 0.6492(3) 0.16738(11) 0.3868(2)
H39 H 0.69100 0.18850 0.40390
H40 H 0.60300 0.17690 0.34110
C41 C 0.4656(3) 0.0219(2) -0.1539(4)
O55 O 0.4941(2) -0.1389(1) 0.3312(2)
C42 C 0.5355(3) 0.05051(15) -0.1276(3)
H41 H 0.51860 0.07380 -0.10570
H42 H 0.54780 0.05930 -0.17230
C43 C 0.8268(3) -0.07139(12) 0.9531(2)
H43 H 0.84160 -0.04420 0.94470
H44 H 0.76790 -0.07170 0.94630
C44 C 0.8400(3) -0.07547(11) 1.0919(2)
H45 H 0.79610 -0.05560 1.07080
H46 H 0.88250 -0.06430 1.13850
O56 O 0.4000(3) 0.0328(2) -0.2060(4)
O57 O 0.6468(2) -0.02896(9) -0.1443(2)
O58 O 0.4036(2) 0.17471(10) 0.3336(2)
O59 O 0.6304(2) 0.06183(12) 0.2425(2)
C45 C 0.6958(2) 0.25796(11) -0.1239(2)
C46 C 0.4663(2) 0.15642(11) 0.3756(3)
C47 C 0.6847(3) 0.03650(12) -0.0939(3)
H47 H 0.73680 0.03580 -0.04850
H48 H 0.68210 0.06190 -0.12020
O60 O 0.7264(2) 0.00737(9) -0.19118(17)
C48 C 0.6844(3) 0.00259(12) -0.1486(2)
O61 O 0.7738(2) -0.10874(10) 1.1659(2)
O62 O 0.73032(19) 0.26219(9) -0.17233(18)
O63 O 0.7957(2) 0.28643(9) -0.64027(17)
O64 O 0.7256(2) 0.13601(9) 0.31985(18)
La2* La 0.759889(13) 0.211607(6) 0.740601(12)
La3* La 0.766807(14) -0.037156(6) -0.281504(12)
La4A La 0.755385(14) 0.337194(6) 0.252737(12)
La4* La 0.744615(14) -0.162806(6) 1.247263(12)
La4A* La 0.755385(14) 0.337194(6) -0.747263(12)
O38A O 0.7993(2) -0.22168(9) 0.33244(17)
O44* O 0.7059(2) 0.15118(9) -0.34164(17)
O60* O 0.7264(2) 0.00737(9) 0.80882(17)
O61* O 0.7738(2) -0.10874(10) 0.1659(2)
O63A O 0.7043(2) -0.21357(9) 0.14027(17)
#END
