
#######################################################################
#
#                 Cambridge Crystallographic Data Centre
#                                CCDC
#
#######################################################################
#
# If this CIF has been generated from an entry in the Cambridge
# Structural Database, then it will include bibliographic, chemical,
# crystal, experimental, refinement or atomic coordinate data resulting
# from the CCDC's data processing and validation procedures.
#
#######################################################################

data_CSD_CIF_FIDLUC
_audit_creation_date 2018-04-05
_audit_creation_method CSD-ConQuest-V1
_database_code_CSD FIDLUC
_database_code_depnum_ccdc_archive 'CCDC 1572230'
_chemical_formula_sum 'C64 H58 Co4 N4 O25'
_chemical_formula_moiety
;
2(H3 O1 1+),n(C62 H38 Co4 N4 O18 2-),C2 H6 O1,4(H2 O1)
;
_journal_coden_Cambridge 1220
_journal_volume 24
_journal_year 2018
_journal_page_first 1416
_journal_name_full 'Chem.-Eur.J. '
loop_
_publ_author_name
"Mengjia Liu"
"Kuan Gao"
"Yanru Fan"
"Xiaoqing Guo"
"Jie Wu"
"Xiangru Meng"
"Hongwei Hou"
_chemical_name_systematic
;
catena-[bis(oxonium) 
bis(\m-9,9'-(propan-1,3-diyl)bis(9H-carbazole-3,6-dicarboxylato))-bis(\m-hydro
xo)-tetra-cobalt(ii) ethanol solvate tetrahydrate]
;
_cell_volume   3710.258
_exptl_crystal_colour 'purple'
_exptl_crystal_density_diffrn 1.289
_exptl_crystal_description 'block'
_diffrn_ambient_temperature 293.1
_refine_special_details
;
Disordered solvent molecules were not modelled and the disordered density was 
taken into account using the SQUEEZE/PLATON procedure.
;
#These two values have been output from a single CSD field.
_refine_ls_R_factor_gt 0.085
_refine_ls_wR_factor_gt 0.085
_symmetry_cell_setting triclinic
_symmetry_space_group_name_H-M 'P -1'
_symmetry_Int_Tables_number 2
loop_
_symmetry_equiv_pos_site_id
_symmetry_equiv_pos_as_xyz
1 x,y,z
2 -x,-y,-z
_cell_length_a 14.921(3)
_cell_length_b 15.306(3)
_cell_length_c 19.697(4)
_cell_angle_alpha 92.83(3)
_cell_angle_beta 108.71(3)
_cell_angle_gamma 116.58(3)
_cell_formula_units_Z 2
loop_
_atom_type_symbol
_atom_type_radius_bond
C 0.68
H 0.23
Co 1.26
N 0.68
O 0.68
loop_
_atom_site_label
_atom_site_type_symbol
_atom_site_fract_x
_atom_site_fract_y
_atom_site_fract_z
Co1 Co 1.05116(7) 0.43501(6) 1.37506(5)
Co2 Co 0.87961(8) 0.47287(6) 1.45689(5)
Co3 Co 0.02563(7) 0.01076(6) 0.93018(4)
Co4 Co 0.21294(8) 0.19093(6) 1.08272(5)
O1 O 1.0422(4) 0.3520(3) 1.2778(2)
O2 O 0.9830(4) 0.4600(3) 1.2663(3)
O3 O 0.8097(6) 0.6917(4) 0.9804(4)
O4 O 0.7666(5) 0.6747(4) 0.8622(3)
O5 O 0.3071(4) 0.1779(3) 1.0358(2)
O6 O 0.1774(4) 0.0193(3) 0.9814(3)
O7 O 0.2122(4) -0.3747(4) 0.6374(3)
O8 O 0.1026(4) -0.3130(3) 0.6453(3)
O9 O 0.0076(4) -0.0730(3) 0.8334(2)
O10 O 0.0879(4) 0.0924(3) 0.8524(2)
O11 O 0.1087(4) 0.3907(3) 0.5492(3)
O12 O 0.1187(4) 0.3625(3) 0.4402(3)
O13 O 0.1144(4) -0.0216(3) 0.1296(2)
O14 O 0.2496(4) 0.1369(3) 0.1710(2)
O15 O 0.7448(4) 0.4159(4) 0.4842(3)
O16 O 0.7994(4) 0.4378(3) 0.6078(3)
O17 O 1.0240(4) 0.5188(3) 1.4410(3)
O18 O 0.0540(4) 0.1028(3) 1.0238(2)
C1 C 0.9966(6) 0.3934(5) 1.2368(4)
C2 C 0.9570(6) 0.3632(4) 1.1559(4)
C3 C 0.9464(5) 0.2758(5) 1.1208(4)
H1 H 0.96540 0.23553 1.14933
C4 C 0.9082(5) 0.2468(4) 1.0446(4)
H2 H 0.90146 0.18813 1.02211
C5 C 0.8808(5) 0.3080(4) 1.0034(3)
C6 C 0.8901(5) 0.3959(4) 1.0369(3)
C7 C 0.9279(6) 0.4228(4) 1.1130(4)
H3 H 0.93383 0.48114 1.13544
C8 C 0.8533(6) 0.4404(4) 0.9798(4)
C9 C 0.8422(6) 0.5256(5) 0.9797(4)
H4 H 0.86127 0.56657 1.02405
C10 C 0.8032(7) 0.5502(5) 0.9143(5)
C11 C 0.7737(7) 0.4878(6) 0.8486(5)
H5 H 0.74596 0.50352 0.80445
C12 C 0.7845(7) 0.4021(5) 0.8470(4)
H6 H 0.76520 0.36145 0.80242
C13 C 0.8241(5) 0.3786(4) 0.9122(3)
C14 C 0.7919(7) 0.6450(6) 0.9198(5)
C15 C 0.8113(5) 0.2131(4) 0.8718(3)
H7 H 0.85012 0.17807 0.89273
H8 H 0.83145 0.23684 0.83141
C16 C 0.6887(5) 0.1400(4) 0.8423(3)
H9 H 0.66719 0.09463 0.79691
H10 H 0.64948 0.17721 0.83175
C17 C 0.6599(5) 0.0795(4) 0.8995(4)
H11 H 0.68601 0.03159 0.90149
H12 H 0.69706 0.12486 0.94760
C18 C 0.2711(6) 0.0911(5) 0.9966(3)
C19 C 0.3476(5) 0.0771(4) 0.9695(4)
C20 C 0.4587(6) 0.1444(5) 1.0000(4)
H13 H 0.48458 0.19867 1.03796
C21 C 0.5316(5) 0.1346(4) 0.9770(4)
H14 H 0.60573 0.17900 0.99975
C22 C 0.4891(5) 0.0538(4) 0.9168(3)
C23 C 0.3762(5) -0.0156(4) 0.8849(3)
C24 C 0.3052(5) -0.0048(4) 0.9116(3)
H15 H 0.23136 -0.05084 0.89146
C25 C 0.4665(6) -0.0592(5) 0.8268(4)
C26 C 0.4851(6) -0.1115(5) 0.7773(4)
H16 H 0.55474 -0.09293 0.77969
C27 C 0.3963(7) -0.1906(6) 0.7260(5)
H17 H 0.40532 -0.22677 0.69188
C28 C 0.2903(6) -0.2201(5) 0.7222(4)
C29 C 0.2735(5) -0.1680(4) 0.7729(3)
H18 H 0.20384 -0.18745 0.77082
C30 C 0.3635(5) -0.0862(4) 0.8265(4)
C31 C 0.1935(7) -0.3069(5) 0.6632(4)
C32 C 0.0550(5) 0.0068(5) 0.8126(3)
C33 C 0.0732(5) -0.0003(5) 0.7441(3)
C34 C 0.0776(6) -0.0834(5) 0.7178(3)
H19 H 0.06420 -0.13499 0.74276
C35 C 0.1005(6) -0.0930(4) 0.6571(4)
H20 H 0.10477 -0.14854 0.64077
C36 C 0.1172(5) -0.0146(4) 0.6211(3)
C37 C 0.1105(6) 0.0692(5) 0.6440(3)
C38 C 0.0897(5) 0.0777(4) 0.7067(3)
H21 H 0.08655 0.13361 0.72365
C39 C 0.1427(6) 0.0797(5) 0.5375(4)
C40 C 0.1596(6) 0.1170(5) 0.4781(4)
H22 H 0.17646 0.08647 0.44580
C41 C 0.1506(6) 0.2017(5) 0.4686(4)
H23 H 0.15624 0.22519 0.42673
C42 C 0.1335(5) 0.2538(4) 0.5184(4)
C43 C 0.1195(5) 0.2167(4) 0.5799(3)
H24 H 0.10676 0.24971 0.61357
C44 C 0.1251(5) 0.1307(4) 0.5898(3)
C45 C 0.1195(5) 0.3423(5) 0.5017(4)
C46 C 0.1639(6) -0.0714(5) 0.5216(4)
H25 H 0.15358 -0.06472 0.47138
H26 H 0.11484 -0.14035 0.52009
C47 C 0.2805(6) -0.0478(5) 0.5631(4)
H27 H 0.28175 -0.08734 0.60007
H28 H 0.32368 0.02238 0.58848
C48 C 0.3325(6) -0.0690(5) 0.5138(4)
H29 H 0.39695 -0.07099 0.54391
H30 H 0.28208 -0.13417 0.48029
C49 C 0.1980(5) 0.0477(5) 0.1794(4)
C50 C 0.2405(5) 0.0308(4) 0.2546(3)
C51 C 0.3341(5) 0.1053(4) 0.3086(3)
H31 H 0.37334 0.16572 0.29746
C52 C 0.3714(5) 0.0926(4) 0.3794(3)
C53 C 0.3117(5) 0.0021(4) 0.3974(3)
C54 C 0.2160(6) -0.0756(4) 0.3428(4)
H32 H 0.17669 -0.13621 0.35374
C55 C 0.1813(5) -0.0604(4) 0.2727(3)
H33 H 0.11762 -0.11122 0.23659
C56 C 0.4637(5) 0.1562(4) 0.4458(3)
C57 C 0.5540(5) 0.2487(5) 0.4608(4)
H34 H 0.56133 0.28306 0.42351
C58 C 0.6332(6) 0.2903(5) 0.5307(4)
C59 C 0.6230(5) 0.2384(5) 0.5867(4)
H35 H 0.67659 0.26760 0.63387
C60 C 0.5338(6) 0.1433(5) 0.5731(4)
H36 H 0.52693 0.10856 0.61023
C61 C 0.4558(5) 0.1030(5) 0.5016(4)
C62 C 0.7336(6) 0.3887(5) 0.5437(4)
N1 N 0.8431(4) 0.2988(3) 0.9278(3)
N2 N 0.5435(4) 0.0258(4) 0.8832(3)
N3 N 0.1381(5) -0.0061(4) 0.5556(3)
N4 N 0.3622(4) 0.0084(4) 0.4708(3)
H37 H 0.025(5) 0.130(4) 1.002(3)
H38 H 1.049(5) 0.570(4) 1.436(3)
O19 O 0.2160(12) 0.2543(9) 0.2957(7)
C63 C 0.2161(11) 0.3378(11) 0.2863(9)
H39 H 0.14810 0.33182 0.28514
H40 H 0.21983 0.34798 0.23880
C64 C 0.3071(16) 0.4274(15) 0.3441(9)
H41 H 0.30203 0.48600 0.33360
H42 H 0.30305 0.41893 0.39116
H43 H 0.37486 0.43510 0.34477
O20 O 1.0731(6) 0.7060(5) 1.4037(4)
O21 O 0.9015(8) 0.7195(7) 1.1403(6)
Co1* Co 0.05116(7) 0.43501(6) 0.37506(5)
Co1A Co -0.05116(7) -0.43501(6) 0.62494(5)
Co1A* Co 0.94884(7) 0.56499(6) 0.62494(5)
Co2* Co 0.87961(8) 0.47287(6) 0.45689(5)
Co2A Co 0.12039(8) -0.47287(6) 0.54311(5)
Co2A* Co 0.12039(8) 0.52713(6) 0.54311(5)
Co2A** Co 1.12039(8) 0.52713(6) 1.54311(5)
Co3A Co -0.02563(7) -0.01076(6) 0.06982(4)
Co3A* Co -0.02563(7) -0.01076(6) 1.06982(4)
Co4* Co 0.21294(8) 0.19093(6) 0.08272(5)
Co4A Co 0.78706(8) 0.80907(6) 0.91728(5)
O3A O 0.1903(6) 0.3083(4) 1.0196(4)
O4A O 0.2334(5) 0.3253(4) 1.1378(3)
O7A O 0.7878(4) 0.3747(4) 1.3626(3)
O8A O 0.8974(4) 0.3130(3) 1.3547(3)
O11A O 0.8913(4) 0.6093(3) 1.4508(3)
O12* O 1.1187(4) 0.3625(3) 1.4402(3)
O13A O -0.1144(4) 0.0216(3) 0.8704(2)
O14* O 0.2496(4) 0.1369(3) 1.1710(2)
O15* O 0.7448(4) 0.4159(4) 1.4842(3)
O16A O 1.2006(4) 0.5622(3) 1.3922(3)
O17A O 0.9760(4) 0.4812(3) 1.5590(3)
O18A O -0.0540(4) -0.1028(3) 0.9762(2)
#END
