
#######################################################################
#
#                 Cambridge Crystallographic Data Centre
#                                CCDC
#
#######################################################################
#
# If this CIF has been generated from an entry in the Cambridge
# Structural Database, then it will include bibliographic, chemical,
# crystal, experimental, refinement or atomic coordinate data resulting
# from the CCDC's data processing and validation procedures.
#
#######################################################################

data_CSD_CIF_FIDLEK
_audit_creation_date 2005-06-02
_audit_creation_method CSD-ConQuest-V1
_database_code_CSD FIDLEK
_database_code_depnum_ccdc_archive 'CCDC 261351'
_chemical_formula_sum 'C48 H80 Cl8 Cu8 Gd4 N8 Na4 O64'
_chemical_formula_moiety
;
(Na1 1+)4n,n(C48 H80 Cl8 Cu8 Gd4 N8 O64 4-)
;
_journal_coden_Cambridge 1147
_journal_volume 5
_journal_year 2005
_journal_page_first 77
_journal_name_full 'Cryst.Growth Des. '
loop_
_publ_author_name
"Hui-Zhong Kou"
"Yun-Bo Jiang"
"Ai-Li Cui"
_chemical_name_systematic
;
catena-(Tetra-sodium 
octakis(\m~3~-nitrilotriacetato)-hexadeca-aqua-octachloro-octa-copper(ii)-tetr
a-gadolinium(iii))
;
_cell_volume   9218.811
_exptl_crystal_colour 'blue'
_exptl_crystal_density_diffrn 2.382
_exptl_special_details
;
isomorphous with the analogous potassium salt and with the potassium salt of 
the lanthanum analogue
;
_exptl_crystal_description 'block'
_diffrn_ambient_temperature 293
#These two values have been output from a single CSD field.
_refine_ls_R_factor_gt 0.0871
_refine_ls_wR_factor_gt 0.0871
_symmetry_cell_setting monoclinic
_symmetry_space_group_name_H-M 'P 21/n'
_symmetry_Int_Tables_number 14
loop_
_symmetry_equiv_pos_site_id
_symmetry_equiv_pos_as_xyz
1 x,y,z
2 1/2-x,1/2+y,1/2-z
3 -x,-y,-z
4 -1/2+x,-1/2-y,-1/2+z
_cell_length_a 16.9052(6)
_cell_length_b 32.537(1)
_cell_length_c 18.1468(6)
_cell_angle_alpha 90
_cell_angle_beta 112.544(1)
_cell_angle_gamma 90
_cell_formula_units_Z 4
loop_
_atom_type_symbol
_atom_type_radius_bond
C 0.70
H 0.23
Cl 0.99
Cu 1.52
Gd 1.79
N 0.68
Na 0.97
O 0.68
loop_
_atom_site_label
_atom_site_type_symbol
_atom_site_fract_x
_atom_site_fract_y
_atom_site_fract_z
Gd1 Gd 0.76068(5) 0.08990(2) 0.23783(4)
Gd2 Gd 0.75682(5) 0.21252(2) -0.24606(4)
Gd3 Gd 0.76389(5) -0.03645(2) 0.72034(4)
Gd4 Gd 0.74563(8) 0.33659(3) 0.27170(8)
Cu1 Cu 0.59318(14) 0.10027(6) 0.45780(11)
Cu2 Cu 0.89589(13) 0.23195(6) -0.41732(11)
Cu3 Cu 0.89763(14) -0.14319(6) 1.02952(12)
Cu4 Cu 0.89475(13) -0.01538(6) 0.54853(12)
Cu5 Cu 0.89357(13) 0.10931(6) 0.06599(11)
Cu6 Cu 0.59495(18) -0.14655(8) 0.4228(2)
Cu7 Cu 0.58914(13) -0.02249(6) -0.05589(12)
Cu8 Cu 0.59628(13) 0.22693(6) -0.03043(13)
Cl1 Cl 0.9122(3) -0.21167(14) 1.0340(3)
Cl2 Cl 0.5726(4) 0.03282(15) 0.4543(3)
Cl3 Cl 0.5742(3) 0.16000(14) -0.0330(3)
Cl4 Cl 0.9101(3) 0.16318(12) -0.4171(3)
Cl5 Cl 0.9049(4) -0.08399(15) 0.5509(3)
Cl6 Cl 0.9037(3) 0.04083(13) 0.0670(3)
Cl7 Cl 0.5763(5) -0.2131(2) 0.4309(7)
Cl8 Cl 0.5677(3) -0.08908(13) -0.0434(3)
Na1 Na 0.7417(5) 0.2160(2) 0.2793(4)
Na2 Na 0.7423(5) 0.3418(2) -0.2225(5)
Na3 Na 0.7518(4) 0.0920(2) 0.7586(5)
Na4 Na 0.7619(6) -0.0329(3) 0.2304(8)
O1 O 0.6853(8) -0.1391(4) 0.5327(8)
O2 O 0.7282(7) -0.0938(3) 0.6289(6)
O3 O 0.8196(9) 0.2378(4) -0.5270(7)
O4 O 0.6449(18) 0.0992(5) 0.3738(17)
O5 O 0.4776(9) 0.2442(4) -0.1079(9)
N1 N 0.6151(9) 0.1606(4) 0.4553(7)
N2 N 0.6102(10) -0.0852(4) 0.4172(8)
O6 O 0.6318(8) 0.2356(4) 0.0887(7)
O7 O 0.6799(8) 0.2249(3) -0.0875(8)
O8 O 0.8031(9) -0.0896(4) 0.8175(7)
O9 O 0.8075(10) -0.1395(6) 1.0845(10)
O10 O 0.8190(7) 0.1169(3) -0.0489(6)
N3 N 0.8823(8) -0.0821(4) 1.0312(7)
O11 O 1.0167(8) -0.1283(4) 1.1158(8)
O12 O 0.9978(9) 0.1163(4) 0.1592(8)
N4 N 0.6173(9) 0.2877(4) -0.0298(8)
O13 O 0.8389(11) -0.0091(4) 0.4316(9)
O14 O 0.8057(7) 0.1169(3) 0.1306(6)
O15 O 0.7958(8) 0.0357(4) 0.3338(7)
C1 C 0.8270(13) -0.0996(5) 0.8873(11)
C2 C 0.8236(11) 0.1513(5) -0.0747(10)
O16 O 0.7238(8) 0.0321(4) 0.1493(7)
O17 O 0.8563(12) -0.1359(4) 0.9153(8)
O18 O 0.8066(8) -0.0095(4) 0.6080(7)
C3 C 0.9745(12) 0.3081(6) -0.3607(11)
H1 H 1.00540 0.31960 -0.39130
H2 H 0.96670 0.33000 -0.32790
O19 O 0.7632(7) 0.2862(3) -0.2958(7)
O20 O 0.7844(8) 0.0384(4) 0.6868(7)
O21 O 0.8084(7) 0.2368(3) -0.3513(6)
C4 C 0.7973(9) 0.2749(4) -0.3429(8)
C5 C 0.8254(11) 0.0255(6) 0.4055(11)
O22 O 1.0068(9) -0.0044(5) 0.6371(10)
O23 O 0.8930(8) 0.0553(4) 0.2428(8)
O24 O 0.6587(15) 0.1081(5) 0.5731(8)
C6 C 0.5345(9) 0.3081(5) -0.0469(9)
H3 H 0.53490 0.33490 -0.07010
H4 H 0.52610 0.31210 0.00260
O25 O 0.4685(7) 0.1178(4) 0.3959(7)
O26 O 0.6804(7) -0.0159(3) 0.0544(7)
O27 O 0.8892(8) 0.1187(4) 0.3381(8)
N5 N 0.6158(9) 0.0361(4) -0.0650(8)
O28 O 0.6260(8) 0.2388(4) -0.3516(7)
O29 O 0.6273(9) 0.1195(4) 0.1388(8)
C7 C 0.8011(11) 0.1542(5) 0.1450(12)
C8 C 0.6865(11) -0.1045(5) 0.5578(10)
O30 O 0.668(2) -0.1456(7) 0.3419(10)
O31 O 0.8986(8) -0.0658(4) 0.7226(7)
C9 C 0.6793(12) 0.1440(6) 0.5961(11)
O32 O 0.8859(8) 0.2444(4) -0.1573(7)
O33 O 0.3943(9) 0.3002(4) -0.1468(8)
C10 C 0.5287(14) -0.0664(6) 0.3631(13)
H5 H 0.53890 -0.04980 0.32330
H6 H 0.50620 -0.04870 0.39340
O34 O 0.7904(8) 0.1607(3) -0.1462(7)
O35 O 0.7776(9) 0.1669(4) 0.1986(7)
O36 O 0.6326(7) -0.0050(4) 0.6274(7)
C11 C 0.6868(10) 0.0223(5) 0.0784(10)
C12 C 0.8175(12) 0.2749(6) -0.5583(11)
C13 C 0.8078(12) 0.0287(5) 0.6328(9)
O37 O 0.8843(8) 0.1732(4) -0.2422(7)
C14 C 0.4628(10) 0.2834(5) -0.1025(9)
N6 N 0.8867(9) 0.0473(4) 0.5482(8)
C15 C 0.6662(10) 0.2683(6) 0.1098(9)
O38 O 0.6975(10) 0.2804(4) 0.1831(7)
C16 C 0.686(2) -0.1166(13) 0.341(2)
N7 N 0.8897(8) 0.2950(4) -0.4168(8)
C17 C 0.8162(11) 0.1839(5) 0.0868(11)
H7 H 0.76520 0.18490 0.03810
H8 H 0.82600 0.21120 0.10990
O39 O 1.0933(8) 0.2856(4) -0.2521(7)
C18 C 0.8181(15) 0.3062(6) -0.3935(13)
H9 H 0.76750 0.31060 -0.44150
H10 H 0.83170 0.33200 -0.36450
O40 O 0.9997(7) 0.2386(4) -0.3238(6)
O41 O 0.6247(8) 0.1884(4) -0.2341(8)
O42 O 0.6376(9) -0.0691(5) 0.7241(8)
O43 O 0.6138(10) 0.3118(5) 0.2844(9)
O44 O 0.7129(9) 0.1537(4) 0.6676(7)
C19 C 0.6828(11) 0.1325(6) 0.367(1)
C20 C 1.0282(10) 0.2764(5) -0.3078(9)
N8 N 0.8910(9) 0.1715(4) 0.0672(7)
O45 O 1.0876(9) 0.1620(5) 0.2376(10)
C21 C 0.8767(9) 0.1844(5) -0.0166(9)
H11 H 0.93130 0.18780 -0.02180
H12 H 0.84660 0.21050 -0.02870
C22 C 0.6560(18) 0.1751(8) 0.5335(15)
H13 H 0.61880 0.19500 0.54380
H14 H 0.70770 0.18940 0.53710
O46 O 0.615(1) 0.3628(5) 0.1628(13)
C23 C 0.836(2) 0.0575(10) 0.4658(18)
H15 H 0.86230 0.08130 0.45180
H16 H 0.77980 0.06580 0.46220
O47 O 0.8897(8) -0.0093(4) 0.8310(8)
O48 O 0.8805(11) 0.3664(5) 0.3618(12)
C24 C 0.6798(15) -0.0796(11) 0.3873(13)
H17 H 0.66830 -0.05550 0.35340
H18 H 0.73380 -0.07550 0.43200
C25 C 1.0236(13) 0.1525(7) 0.1773(12)
C26 C 0.6810(11) 0.2962(5) 0.0499(10)
H19 H 0.67680 0.32460 0.06380
H20 H 0.73810 0.29170 0.05070
O49 O 0.7313(18) -0.1045(9) 0.2974(16)
O50 O 0.3955(9) -0.0886(5) 0.2673(11)
O51 O 0.8681(11) 0.2970(5) 0.2676(9)
C27 C 0.6381(10) 0.0543(5) 0.0178(10)
H21 H 0.67290 0.07880 0.02410
H22 H 0.58620 0.06190 0.02540
C28 C 0.9736(11) 0.1871(5) 0.1232(12)
H23 H 0.96420 0.20900 0.15520
H24 H 1.00610 0.19820 0.09390
C29 C 0.8105(11) -0.1061(8) 1.1178(12)
C30 C 0.9711(11) -0.0658(5) 1.0482(11)
H25 H 0.97410 -0.03690 1.06220
H26 H 0.98490 -0.06870 1.00130
C31 C 0.5414(18) 0.1825(9) 0.3956(17)
H27 H 0.55170 0.18680 0.34710
H28 H 0.53400 0.20910 0.41620
C32 C 0.4632(15) -0.1003(8) 0.3219(18)
O52 O 0.4695(9) -0.0080(4) -0.1225(11)
C33 C 1.0353(10) -0.0908(5) 1.1185(10)
C34 C 0.8712(11) 0.3070(5) -0.4998(11)
H29 H 0.92470 0.31080 -0.50710
H30 H 0.84090 0.33300 -0.51080
C35 C 1.0284(14) 0.0322(8) 0.648(3)
C36 C 0.6404(13) -0.0718(5) 0.5005(9)
H31 H 0.59180 -0.06280 0.51210
H32 H 0.67830 -0.04840 0.50770
C37 C 0.972(2) 0.0606(11) 0.561(2)
H33 H 0.97860 0.09000 0.57090
H34 H 0.98800 0.05330 0.51740
C38 C 0.8473(15) 0.0611(7) 0.5966(14)
H35 H 0.80250 0.08010 0.56620
H36 H 0.88900 0.07660 0.63990
C39 C 0.6473(10) 0.2969(5) -0.0948(9)
H37 H 0.68960 0.31870 -0.07810
H38 H 0.59950 0.30630 -0.14160
O53 O 1.1006(7) -0.0743(4) 1.1601(8)
O54 O 1.0960(12) 0.0458(8) 0.699(2)
C40 C 0.673(2) 0.1655(7) 0.4118(16)
H39 H 0.65320 0.18890 0.37620
H40 H 0.72960 0.17250 0.45070
C41 C 0.4584(14) 0.0294(7) -0.1516(18)
O55 O 0.4806(12) -0.1361(6) 0.3426(19)
C42 C 0.5344(12) 0.0545(6) -0.1240(11)
H41 H 0.52200 0.07900 -0.10000
H42 H 0.54540 0.06320 -0.17030
C43 C 0.8229(11) -0.0692(5) 0.9486(9)
H43 H 0.83910 -0.04210 0.93680
H44 H 0.76470 -0.06760 0.94640
C44 C 0.8514(13) -0.0710(6) 1.0948(11)
H45 H 0.89940 -0.06150 1.14130
H46 H 0.81060 -0.04870 1.07630
O56 O 0.3925(11) 0.0409(6) -0.1955(17)
O57 O 0.6352(8) -0.0258(4) -0.1519(8)
O58 O 0.3909(8) 0.1734(4) 0.3408(9)
O59 O 0.6286(9) 0.0595(5) 0.2409(9)
C45 C 0.6869(11) 0.2585(5) -0.1162(10)
C46 C 0.4577(11) 0.1552(6) 0.3770(11)
C47 C 0.6875(10) 0.0389(5) -0.0910(11)
H47 H 0.74110 0.03610 -0.04540
H48 H 0.68700 0.06550 -0.11520
O60 O 0.7242(7) 0.0065(3) -0.1931(6)
C48 C 0.6801(11) 0.0045(5) -0.1523(9)
O61 O 0.7838(10) -0.0992(5) 1.1736(9)
O62 O 0.7236(7) 0.2624(3) -0.1631(6)
O63 O 0.7826(9) 0.2821(5) -0.6295(8)
O64 O 0.7223(9) 0.1376(4) 0.3215(8)
Gd2* Gd 0.75682(5) 0.21252(2) 0.75394(4)
Gd3* Gd 0.76389(5) -0.03645(2) -0.27966(4)
Gd4A Gd 0.75437(8) -0.16341(3) 0.22830(8)
Gd4A* Gd 0.75437(8) -0.16341(3) 1.22830(8)
Gd4* Gd 0.74563(8) 0.33659(3) -0.72830(8)
O44* O 0.7129(9) 0.1537(4) -0.3324(7)
O49A O 0.7687(18) 0.3955(9) 0.2026(16)
O60* O 0.7242(7) 0.0065(3) 0.8069(6)
O61A O 0.7162(10) 0.4008(5) 0.3264(9)
O63* O 0.7826(9) 0.2821(5) 0.3705(8)
#END
