
#######################################################################
#
#                 Cambridge Crystallographic Data Centre
#                                CCDC
#
#######################################################################
#
# If this CIF has been generated from an entry in the Cambridge
# Structural Database, then it will include bibliographic, chemical,
# crystal, experimental, refinement or atomic coordinate data resulting
# from the CCDC's data processing and validation procedures.
#
#######################################################################

data_CSD_CIF_FIFGAE
_audit_creation_date 2013-08-09
_audit_creation_method CSD-ConQuest-V1
_database_code_CSD FIFGAE
_database_code_depnum_ccdc_archive 'CCDC 925822'
_chemical_formula_sum 'C67 H75 Co2 In3 N8 O37'
_chemical_formula_moiety
;
(C63 H57 Co2 In3 N6 O36 2-)n,n(H2 O1),2n(C2 H8 N1 1+)
;
_journal_coden_Cambridge 4
_journal_volume 135
_journal_year 2013
_journal_page_first 10270
_journal_name_full 'J.Am.Chem.Soc. '
loop_
_publ_author_name
"Shou-Tian Zheng"
"Xiang Zhao"
"S.Lau"
"A.Fuhr"
"Pingyun Feng"
"Xianhui Bu"
_chemical_name_systematic
;
catena-[bis( dimethylammonium) 
tris(\m~4~-1,3,5-benzenetricarboxylato)-bis(\m~3~-1,3,5-benzenetricarboxylato)
-hexakis(N,N-dimethylformamide)-di-cobalt-tri-indium unknown solvate 
monohydrate]
;
_chemical_name_common
;
CPM-4
;
_cell_volume   5742.908
_diffrn_ambient_temperature 296
_refine_special_details
;
Disordered dimethylammonium cation and solvent molecules were not modelled 
and the disordered density was taken into account using the SQUEEZE/PLATON 
procedure.
;
#These two values have been output from a single CSD field.
_refine_ls_R_factor_gt 0.038
_refine_ls_wR_factor_gt 0.038
_symmetry_cell_setting hexagonal
_symmetry_space_group_name_H-M 'P -6 2 c'
_symmetry_Int_Tables_number 190
loop_
_symmetry_equiv_pos_site_id
_symmetry_equiv_pos_as_xyz
1 x,y,z
2 -x+y,-x,1/2-z
3 -y,x-y,z
4 x,y,1/2-z
5 -x+y,-x,z
6 -y,x-y,1/2-z
7 y,x,1/2+z
8 x-y,-y,-z
9 -x,-x+y,1/2+z
10 y,x,-z
11 x-y,-y,1/2+z
12 -x,-x+y,-z
_cell_length_a 18.1997(8)
_cell_length_b 18.1997(8)
_cell_length_c 20.0204(10)
_cell_angle_alpha 90
_cell_angle_beta 90
_cell_angle_gamma 120
_cell_formula_units_Z 2
loop_
_atom_type_symbol
_atom_type_radius_bond
C 0.68
H 0.23
Co 1.26
In 1.42
N 0.68
O 0.68
loop_
_atom_site_label
_atom_site_type_symbol
_atom_site_fract_x
_atom_site_fract_y
_atom_site_fract_z
In1 In 0.40891(3) 0.40891(3) 0.00000
Co1 Co 0.00000 0.00000 0.14704(9)
O1 O 0.0726(3) 0.1119(3) 0.1953(3)
O2 O 0.3138(3) 0.3205(3) 0.0726(2)
O3 O 0.4190(3) 0.4306(3) 0.1194(2)
O4 O 0.5484(3) 0.4490(3) 0.00607(19)
O5 O 0.4571(3) 0.3140(3) 0.0070(2)
O6 O -0.0652(4) -0.1039(4) 0.0793(3)
N1 N -0.1460(5) -0.2503(5) 0.0697(4)
C1 C 0.3104(4) 0.3286(4) 0.1891(3)
C2 C -0.1937(6) -0.3312(5) 0.1019(6)
H1 H -0.20220 -0.32290 0.14800
H2 H -0.16300 -0.36140 0.09910
H3 H -0.24770 -0.36350 0.08030
C3 C 0.3520(5) 0.3636(5) 0.1245(3)
C4 C -0.1257(7) -0.2488(6) -0.0005(4)
H4 H -0.15620 -0.30540 -0.01820
H5 H -0.06590 -0.22710 -0.00540
H6 H -0.14170 -0.21320 -0.02430
C5 C 0.1031(6) 0.1406(6) 0.25000
C6 C 0.2320(4) 0.2580(4) 0.1913(3)
H7 H 0.20540 0.23370 0.15110
C7 C 0.5815(4) 0.2678(4) 0.0107(3)
C8 C 0.1898(6) 0.2204(6) 0.25000
C9 C -0.1091(6) -0.1757(7) 0.1058(5)
H8 H -0.11710 -0.17860 0.15180
C10 C 0.6036(4) 0.3542(4) 0.0116(3)
C11 C 0.3504(6) 0.3635(5) 0.25000
H9 H 0.40450 0.41080 0.25000
C12 C 0.5311(4) 0.3740(5) 0.0080(3)
O7 O 0.00000 0.00000 0.00000
O1C O 0.0726(3) 0.1119(3) 0.3047(3)
O2C O 0.3138(3) 0.3205(3) 0.4274(2)
O3C O 0.4190(3) 0.4306(3) 0.3806(2)
C1C C 0.3104(4) 0.3286(4) 0.3109(3)
C3C C 0.3520(5) 0.3636(5) 0.3755(3)
C6C C 0.2320(4) 0.2580(4) 0.3087(3)
H7C H 0.20540 0.23370 0.34890
O4B O 0.5510(3) 0.0994(3) 0.00607(19)
O5B O 0.6860(3) 0.1431(3) 0.0070(2)
C7B C 0.7322(4) 0.3137(4) 0.0107(3)
C10B C 0.6458(4) 0.2494(4) 0.0116(3)
C12B C 0.6260(4) 0.1571(5) 0.0080(3)
O4D O 0.9006(3) 0.4516(3) 0.00607(19)
O5D O 0.8569(3) 0.5429(3) 0.0070(2)
C7D C 0.6863(4) 0.4185(4) 0.0107(3)
C10D C 0.7506(4) 0.3964(4) 0.0116(3)
C12D C 0.8429(4) 0.4689(5) 0.0080(3)
Co1A Co 0.00000 0.00000 0.35296(9)
O1A O 0.0393(3) -0.0726(3) 0.3047(3)
O2A O 0.0067(3) -0.3138(3) 0.4274(2)
O3A O 0.0116(3) -0.4190(3) 0.3806(2)
O6A O -0.0387(4) 0.0652(4) 0.4207(3)
N1A N -0.1043(5) 0.1460(5) 0.4303(4)
C1A C 0.0182(4) -0.3104(4) 0.3109(3)
C2A C -0.1375(6) 0.1937(5) 0.3981(6)
H1A H -0.12070 0.20220 0.35200
H2A H -0.19840 0.16300 0.40090
H3A H -0.11580 0.24770 0.41970
C3A C 0.0116(5) -0.3520(5) 0.3755(3)
C4A C -0.1231(7) 0.1257(6) 0.5005(4)
H4A H -0.14920 0.15620 0.51820
H5A H -0.16120 0.06590 0.50540
H6A H -0.07150 0.14170 0.52430
C5A C 0.0375(6) -0.1031(6) 0.25000
C6A C 0.0260(4) -0.2320(4) 0.3087(3)
H7A H 0.02830 -0.20540 0.34890
C8A C 0.0306(6) -0.1898(6) 0.25000
C9A C -0.0666(6) 0.1091(7) 0.3942(5)
H8A H -0.06150 0.11710 0.34820
C11A C 0.0131(6) -0.3504(5) 0.25000
H9A H 0.00630 -0.40450 0.25000
O1D O 0.0393(3) -0.0726(3) 0.1953(3)
O2D O 0.0067(3) -0.3138(3) 0.0726(2)
O3D O 0.0116(3) -0.4190(3) 0.1194(2)
C1D C 0.0182(4) -0.3104(4) 0.1891(3)
C3D C 0.0116(5) -0.3520(5) 0.1245(3)
C6D C 0.0260(4) -0.2320(4) 0.1913(3)
H7D H 0.02830 -0.20540 0.15110
In1B In -0.40891(3) 0.00000(3) 0.00000
O1B O -0.1119(3) -0.0393(3) 0.1953(3)
O2B O -0.3205(3) -0.0067(3) 0.0726(2)
O3B O -0.4306(3) -0.0116(3) 0.1194(2)
O6B O 0.1039(4) 0.0387(4) 0.0793(3)
N1B N 0.2503(5) 0.1043(5) 0.0697(4)
C1B C -0.3286(4) -0.0182(4) 0.1891(3)
C2B C 0.3312(6) 0.1375(5) 0.1019(6)
H1B H 0.32290 0.12070 0.14800
H2B H 0.36140 0.19840 0.09910
H3B H 0.36350 0.11580 0.08030
C3B C -0.3636(5) -0.0116(5) 0.1245(3)
C4B C 0.2488(7) 0.1231(6) -0.0005(4)
H4B H 0.30540 0.14920 -0.01820
H5B H 0.22710 0.16120 -0.00540
H6B H 0.21320 0.07150 -0.02430
C5B C -0.1406(6) -0.0375(6) 0.25000
C6B C -0.2580(4) -0.0260(4) 0.1913(3)
H7B H -0.23370 -0.02830 0.15110
C8B C -0.2204(6) -0.0306(6) 0.25000
C9B C 0.1757(6) 0.0666(7) 0.1058(5)
H8B H 0.17860 0.06150 0.15180
C11B C -0.3635(6) -0.0131(5) 0.25000
H9B H -0.41080 -0.00630 0.25000
O1E O -0.1119(3) -0.0393(3) 0.3047(3)
O2E O -0.3205(3) -0.0067(3) 0.4274(2)
O3E O -0.4306(3) -0.0116(3) 0.3806(2)
C1E C -0.3286(4) -0.0182(4) 0.3109(3)
C3E C -0.3636(5) -0.0116(5) 0.3755(3)
C6E C -0.2580(4) -0.0260(4) 0.3087(3)
H7E H -0.23370 -0.02830 0.34890
O6C O -0.0652(4) -0.1039(4) 0.4207(3)
N1C N -0.1460(5) -0.2503(5) 0.4303(4)
C2C C -0.1937(6) -0.3312(5) 0.3981(6)
H1C H -0.20220 -0.32290 0.35200
H2C H -0.16300 -0.36140 0.40090
H3C H -0.24770 -0.36350 0.41970
C4C C -0.1257(7) -0.2488(6) 0.5005(4)
H4C H -0.15620 -0.30540 0.51820
H5C H -0.06590 -0.22710 0.50540
H6C H -0.14170 -0.21320 0.52430
C9C C -0.1091(6) -0.1757(7) 0.3942(5)
H8C H -0.11710 -0.17860 0.34820
In1D In 0.00000(3) -0.40891(3) 0.00000
O6D O -0.0387(4) 0.0652(4) 0.0793(3)
N1D N -0.1043(5) 0.1460(5) 0.0697(4)
C2D C -0.1375(6) 0.1937(5) 0.1019(6)
H1D H -0.12070 0.20220 0.14800
H2D H -0.19840 0.16300 0.09910
H3D H -0.11580 0.24770 0.08030
C4D C -0.1231(7) 0.1257(6) -0.0005(4)
H4D H -0.14920 0.15620 -0.01820
H5D H -0.16120 0.06590 -0.00540
H6D H -0.07150 0.14170 -0.02430
C9D C -0.0666(6) 0.1091(7) 0.1058(5)
H8D H -0.06150 0.11710 0.15180
O6E O 0.1039(4) 0.0387(4) 0.4207(3)
N1E N 0.2503(5) 0.1043(5) 0.4303(4)
C2E C 0.3312(6) 0.1375(5) 0.3981(6)
H1E H 0.32290 0.12070 0.35200
H2E H 0.36140 0.19840 0.40090
H3E H 0.36350 0.11580 0.41970
C4E C 0.2488(7) 0.1231(6) 0.5005(4)
H4E H 0.30540 0.14920 0.51820
H5E H 0.22710 0.16120 0.50540
H6E H 0.21320 0.07150 0.52430
C9E C 0.1757(6) 0.0666(7) 0.3942(5)
H8E H 0.17860 0.06150 0.34820
O4I O 0.4490(3) 0.5484(3) -0.00607(19)
O5I O 0.3140(3) 0.4571(3) -0.0070(2)
C7I C 0.2678(4) 0.5815(4) -0.0107(3)
C10I C 0.3542(4) 0.6036(4) -0.0116(3)
C12I C 0.3740(4) 0.5311(5) -0.0080(3)
O4G O 0.0994(3) 0.5510(3) -0.00607(19)
O5G O 0.1431(3) 0.6860(3) -0.0070(2)
C7G C 0.3137(4) 0.7322(4) -0.0107(3)
C10G C 0.2494(4) 0.6458(4) -0.0116(3)
C12G C 0.1571(4) 0.6260(5) -0.0080(3)
O4K O 0.4516(3) 0.9006(3) -0.00607(19)
O5K O 0.5429(3) 0.8569(3) -0.0070(2)
C7K C 0.4185(4) 0.6863(4) -0.0107(3)
C10K C 0.3964(4) 0.7506(4) -0.0116(3)
C12K C 0.4689(4) 0.8429(5) -0.0080(3)
In1A In 0.00000(3) -0.40891(3) 0.50000
In1B* In 0.59109(3) 0.00000(3) 0.00000
In1B** In 0.59109(3) 1.00000(3) 0.00000
In1C In 0.40891(3) 0.40891(3) 0.50000
In1D* In 0.00000(3) 0.59109(3) 0.00000
In1D** In 1.00000(3) 0.59109(3) 0.00000
In1E In -0.40891(3) 0.00000(3) 0.50000
O2G O -0.0067(3) -0.3205(3) -0.0726(2)
O2I O 0.3205(3) 0.3138(3) -0.0726(2)
O2K O -0.3138(3) 0.0067(3) -0.0726(2)
O3G O -0.0116(3) -0.4306(3) -0.1194(2)
O3I O 0.4306(3) 0.4190(3) -0.1194(2)
O3K O -0.4190(3) 0.0116(3) -0.1194(2)
O4B* O -0.4490(3) 0.0994(3) 0.00607(19)
O4D* O -0.0994(3) -0.5484(3) 0.00607(19)
O4G* O 0.0994(3) -0.4490(3) -0.00607(19)
O4K* O -0.5484(3) -0.0994(3) -0.00607(19)
O5B* O -0.3140(3) 0.1431(3) 0.0070(2)
O5D* O -0.1431(3) -0.4571(3) 0.0070(2)
O5G* O 0.1431(3) -0.3140(3) -0.0070(2)
O5K* O -0.4571(3) -0.1431(3) -0.0070(2)
#END
