
#######################################################################
#
#                 Cambridge Crystallographic Data Centre
#                                CCDC
#
#######################################################################
#
# If this CIF has been generated from an entry in the Cambridge
# Structural Database, then it will include bibliographic, chemical,
# crystal, experimental, refinement or atomic coordinate data resulting
# from the CCDC's data processing and validation procedures.
#
#######################################################################

data_CSD_CIF_FIFLUD
_audit_creation_date 2013-08-09
_audit_creation_method CSD-ConQuest-V1
_database_code_CSD FIFLUD
_database_code_depnum_ccdc_archive 'CCDC 905171'
_chemical_formula_sum 'C76 H104 B2 N22 Ni2 O84 W24'
_chemical_formula_moiety
;
(C60 H66 N16 Ni2 6+)n,2n(B1 O40 W12 5-),2n(C8 H15 N3 2+),4n(H2 O1)
;
_journal_coden_Cambridge 4
_journal_volume 135
_journal_year 2013
_journal_page_first 10186
_journal_name_full 'J.Am.Chem.Soc. '
loop_
_publ_author_name
"Qiuxia Han"
"Cheng He"
"Min Zhao"
"Bo Qi"
"Jingyang Niu"
"Chunying Duan"
_chemical_name_systematic
;
catena-(tetrakis(\m~2~-4,4'-Bipyridine)-bis(acetonitrile)-bis(1-(pyrrolidinium
-2-ylmethyl)imidazole-N^3^)-di-nickel 
bis(1-(pyrrolidinium-2-ylmethyl)imidazolium) 
bis((\m~12~-borato)-tetracosakis(\m~2~-oxo)-dodecaoxo-dodeca-tungsten) 
tetrahydrate)
;
_cell_volume   6642.080
_exptl_crystal_colour 'light green'
_exptl_crystal_density_diffrn 3.611
_exptl_special_details
;
Produced from the (L)-ligand

;
_exptl_crystal_description 'rodlike'
_diffrn_ambient_temperature 296
#These two values have been output from a single CSD field.
_refine_ls_R_factor_gt 0.038
_refine_ls_wR_factor_gt 0.038
loop_
_citation_database_id_CSD
_citation_special_details
FIFMAK "is a stereoisomer of this entry"
_symmetry_cell_setting monoclinic
_symmetry_space_group_name_H-M 'C 2'
_symmetry_Int_Tables_number 5
loop_
_symmetry_equiv_pos_site_id
_symmetry_equiv_pos_as_xyz
1 x,y,z
2 -x,y,-z
3 1/2+x,1/2+y,z
4 1/2-x,1/2+y,-z
_cell_length_a 25.266(3)
_cell_length_b 11.4902(12)
_cell_length_c 22.880(2)
_cell_angle_alpha 90
_cell_angle_beta 90.492(2)
_cell_angle_gamma 90
_cell_formula_units_Z 2
loop_
_atom_type_symbol
_atom_type_radius_bond
C 0.68
H 0.23
B 0.83
N 0.68
Ni 1.24
O 0.68
W 1.62
loop_
_atom_site_label
_atom_site_type_symbol
_atom_site_fract_x
_atom_site_fract_y
_atom_site_fract_z
W1 W 0.560889(10) 0.99069(2) 0.676389(11)
W2 W 0.678804(11) 1.07534(2) 0.847216(11)
W3 W 0.554442(11) 0.92914(2) 0.818041(11)
W4 W 0.683898(11) 1.14248(2) 0.705535(12)
W5 W 0.662535(11) 0.77587(3) 0.891265(11)
W6 W 0.656851(11) 0.56522(2) 0.791277(11)
W7 W 0.786568(11) 1.00766(2) 0.770591(12)
W8 W 0.664943(10) 0.63595(2) 0.637582(11)
W9 W 0.548115(11) 0.71317(2) 0.720347(11)
W10 W 0.770512(11) 0.70719(2) 0.816289(11)
W11 W 0.779072(10) 0.77676(2) 0.662295(11)
W12 W 0.678903(11) 0.91392(2) 0.596828(11)
B1 B 0.6690(3) 0.8524(7) 0.7446(3)
O1 O 0.51821(17) 1.0701(4) 0.63620(18)
O2 O 0.52455(18) 0.8427(4) 0.67386(19)
O3 O 0.53042(18) 1.0141(4) 0.75143(18)
O4 O 0.61207(19) 1.1066(4) 0.6956(2)
O5 O 0.60802(16) 0.9382(4) 0.61869(17)
O6 O 0.60937(18) 0.8643(4) 0.74025(18)
O7 O 0.49515(17) 0.6270(4) 0.7053(2)
O8 O 0.51949(18) 0.7947(4) 0.78666(18)
O9 O 0.58832(18) 0.6177(4) 0.77055(18)
O10 O 0.59485(17) 0.6690(4) 0.66010(17)
O11 O 0.50526(18) 0.9698(4) 0.86338(17)
O12 O 0.59541(18) 0.8287(4) 0.86595(18)
O13 O 0.60591(18) 1.0426(4) 0.83481(18)
O14 O 0.64332(18) 0.6200(4) 0.86949(19)
O15 O 0.73010(18) 0.5626(4) 0.80990(18)
O16 O 0.67235(17) 0.5622(4) 0.71121(18)
O17 O 0.68277(17) 0.7605(4) 0.79043(18)
O18 O 0.6520(2) 0.7619(4) 0.96513(19)
O19 O 0.73512(18) 0.7317(4) 0.89007(18)
O20 O 0.68440(17) 0.9344(4) 0.8871(2)
O21 O 0.82839(16) 0.6501(4) 0.84255(17)
O22 O 0.78819(18) 0.8628(4) 0.81241(18)
O23 O 0.78242(17) 0.6968(4) 0.73501(17)
O24 O 0.6737(2) 1.1868(4) 0.78280(19)
O25 O 0.75453(18) 1.0781(4) 0.83763(19)
O26 O 0.69486(17) 0.9674(4) 0.7612(2)
O27 O 0.6877(2) 1.2735(4) 0.6738(2)
O28 O 0.76020(17) 1.1285(4) 0.72251(19)
O29 O 0.69875(18) 1.0451(4) 0.63906(19)
O30 O 0.79417(17) 0.9128(4) 0.70220(16)
O31 O 0.83829(16) 0.7437(4) 0.6337(2)
O32 O 0.74105(16) 0.6414(4) 0.63183(18)
O33 O 0.75130(16) 0.8643(4) 0.59750(17)
O34 O 0.68945(16) 0.8118(4) 0.68540(17)
O35 O 0.65463(19) 0.5210(4) 0.5932(2)
O36 O 0.66094(18) 0.7545(4) 0.5795(2)
O37 O 0.6772(2) 0.9670(4) 0.52691(17)
O38 O 0.64452(19) 0.4228(4) 0.8049(2)
O39 O 0.84903(19) 1.0589(4) 0.7793(2)
O40 O 0.6778(2) 1.1714(4) 0.9025(2)
Ni1 Ni 0.50000 0.34279(9) 0.50000
Ni2 Ni 0.50000 0.34038(10) 0.00000
N1 N 0.5002(2) 0.3445(5) 0.0950(2)
N2 N 0.49866(19) 0.3428(4) 0.40475(19)
N3 N 0.50000 0.5343(6) 0.50000
N4 N 0.50000 1.1545(6) 0.50000
N5 N 0.50000 0.1480(7) 0.00000
N6 N 0.5833(2) 0.3449(5) 0.0016(2)
N7 N 0.6640(2) 0.4077(5) -0.0022(2)
N8 N 0.8070(3) 0.4731(6) -0.0478(3)
H1 H 0.82300 0.47630 -0.01260
H2 H 0.80130 0.54610 -0.06080
C1 C 0.5357(3) 0.3996(6) 0.1242(3)
H3 H 0.56230 0.43710 0.10350
C2 C 0.5369(3) 0.4069(6) 0.1859(3)
H4 H 0.56200 0.45230 0.20530
C3 C 0.4993(2) 0.3437(6) 0.2167(2)
C4 C 0.4623(2) 0.2846(5) 0.1862(2)
H5 H 0.43530 0.24670 0.20590
C5 C 0.4641(2) 0.2796(6) 0.1259(2)
H6 H 0.44050 0.23160 0.10580
C6 C 0.4978(2) 0.3483(6) 0.2823(3)
C7 C 0.4512(3) 0.3476(6) 0.3135(2)
H7 H 0.41870 0.34860 0.29410
C8 C 0.4537(2) 0.3455(6) 0.3736(3)
H8 H 0.42200 0.34590 0.39390
C9 C 0.5425(2) 0.3393(6) 0.3756(3)
H9 H 0.57410 0.33750 0.39680
C10 C 0.5454(3) 0.3382(6) 0.3153(3)
H10 H 0.57790 0.33090 0.29680
C11 C 0.5311(3) 0.5918(6) 0.5358(3)
H11 H 0.55300 0.55060 0.56130
C12 C 0.5322(2) 0.7112(5) 0.5369(2)
H12 H 0.55510 0.74850 0.56290
C13 C 0.50000 0.7787(7) 0.50000
C14 C 0.50000 0.9063(7) 0.50000
C15 C 0.5461(2) 0.9667(6) 0.5013(3)
H13 H 0.57840 0.92800 0.50330
C16 C 0.5441(2) 1.0906(6) 0.4996(3)
H14 H 0.57620 1.13020 0.49820
C17 C 0.5442(4) -0.0341(8) -0.0109(4)
H15 H 0.57570 -0.07390 -0.01710
C18 C 0.50000 -0.0918(10) 0.00000
C19 C 0.50000 -0.2276(10) 0.00000
C20 C 0.5174(3) -0.2941(8) -0.0495(4)
H16 H 0.53000 -0.25680 -0.08270
C21 C 0.6149(3) 0.4137(6) -0.0222(3)
H17 H 0.60460 0.46480 -0.05170
C22 C 0.6650(3) 0.3278(7) 0.0393(3)
H18 H 0.69400 0.30570 0.06190
C23 C 0.6133(3) 0.2827(6) 0.0426(3)
H19 H 0.60150 0.22360 0.06700
C24 C 0.7108(3) 0.4794(7) -0.0158(3)
H20 H 0.72410 0.51480 0.01990
H21 H 0.70030 0.54150 -0.04220
C25 C 0.7568(3) 0.4070(8) -0.0448(4)
H22 H 0.76300 0.33720 -0.02120
C26 C 0.7468(3) 0.3720(6) -0.1031(3)
H23 H 0.72960 0.43420 -0.12460
H24 H 0.72390 0.30420 -0.10370
C27 C 0.7996(4) 0.3432(10) -0.1303(5)
H25 H 0.80520 0.25970 -0.13100
H26 H 0.80120 0.37270 -0.17000
C28 C 0.8405(3) 0.4021(8) -0.0921(4)
H27 H 0.86290 0.45300 -0.11490
H28 H 0.86250 0.34530 -0.07210
N9 N 0.58319(19) 0.3424(4) 0.50002(19)
C29 C 0.6824(3) 0.2936(7) 0.5183(3)
H29 H 0.70280 0.36210 0.52690
H30 H 0.69660 0.25570 0.48450
H31 H 0.68400 0.24140 0.55110
C30 C 0.6277(2) 0.3260(5) 0.5070(2)
C31 C 0.5154(4) -0.4080(7) -0.0472(4)
H32 H 0.52520 -0.44800 -0.08070
N10 N 0.50000 -0.4746(5) 0.00000
C32 C 0.5428(3) 0.0851(7) -0.0129(3)
H33 H 0.57330 0.12440 -0.02390
C33 C 0.5950(2) 0.8974(4) 0.3143(2)
H34 H 0.63240 0.87630 0.31070
C34 C 0.5897(3) 0.8212(6) 0.3642(3)
H35 H 0.55310 0.79820 0.36850
H36 H 0.60080 0.86160 0.39950
N11 N 0.6083(3) 1.0176(5) 0.3219(2)
H37 H 0.58520 1.05210 0.34610
H38 H 0.64110 1.02450 0.33730
C35 C 0.6060(4) 1.0696(6) 0.2665(3)
H39 H 0.63990 1.10420 0.25690
H40 H 0.57910 1.12980 0.26540
C36 C 0.5932(4) 0.9786(5) 0.2266(3)
H41 H 0.62110 0.97230 0.19790
H42 H 0.56070 0.99840 0.20610
C37 C 0.6819(2) 0.7356(5) 0.3688(2)
H43 H 0.70460 0.77920 0.34570
C38 C 0.6966(4) 0.6804(9) 0.4218(5)
H44 H 0.72590 0.69690 0.44510
N12 N 0.6242(3) 0.7138(7) 0.3552(3)
C39 C 0.6081(5) 0.621(1) 0.3986(5)
H45 H 0.57440 0.58970 0.40280
N13 N 0.6550(4) 0.5899(9) 0.4325(4)
H46 H 0.65830 0.53000 0.45470
C40 C 0.5866(4) 0.8670(7) 0.2550(3)
H47 H 0.55130 0.83600 0.24860
H48 H 0.61250 0.81090 0.24180
O41 O 0.7217(2) 0.9099(5) 0.2824(2)
O42 O 0.6996(3) 0.9566(5) 0.4131(2)
O43 O 0.5808(6) 0.7095(14) 0.1494(7)
C11A C 0.4689(3) 0.5918(6) 0.4642(3)
H11A H 0.44700 0.55060 0.43870
C12A C 0.4678(2) 0.7112(5) 0.4631(2)
H12A H 0.44490 0.74850 0.43710
C15A C 0.4539(2) 0.9667(6) 0.4987(3)
H13A H 0.42160 0.92800 0.49670
C16A C 0.4559(2) 1.0906(6) 0.5004(3)
H14A H 0.42380 1.13020 0.50180
C17A C 0.4558(4) -0.0341(8) 0.0109(4)
H15A H 0.42430 -0.07390 0.01710
C20A C 0.4826(3) -0.2941(8) 0.0495(4)
H16A H 0.47000 -0.25680 0.08270
C31A C 0.4846(4) -0.4080(7) 0.0472(4)
H32A H 0.47480 -0.44800 0.08070
C32A C 0.4572(3) 0.0851(7) 0.0129(3)
H33A H 0.42670 0.12440 0.02390
N1A N 0.4998(2) 0.3445(5) -0.0950(2)
N2A N 0.50134(19) 0.3428(4) -0.40475(19)
N6A N 0.4167(2) 0.3449(5) -0.0016(2)
N7A N 0.3360(2) 0.4077(5) 0.0022(2)
N8A N 0.1930(3) 0.4731(6) 0.0478(3)
H1A H 0.17700 0.47630 0.01260
H2A H 0.19870 0.54610 0.06080
C1A C 0.4643(3) 0.3996(6) -0.1242(3)
H3A H 0.43770 0.43710 -0.10350
C2A C 0.4631(3) 0.4069(6) -0.1859(3)
H4A H 0.43800 0.45230 -0.20530
C3A C 0.5007(2) 0.3437(6) -0.2167(2)
C4A C 0.5377(2) 0.2846(5) -0.1862(2)
H5A H 0.56470 0.24670 -0.20590
C5A C 0.5359(2) 0.2796(6) -0.1259(2)
H6A H 0.55950 0.23160 -0.10580
C6A C 0.5022(2) 0.3483(6) -0.2823(3)
C7A C 0.5488(3) 0.3476(6) -0.3135(2)
H7A H 0.58130 0.34860 -0.29410
C8A C 0.5463(2) 0.3455(6) -0.3736(3)
H8A H 0.57800 0.34590 -0.39390
C9A C 0.4575(2) 0.3393(6) -0.3756(3)
H9A H 0.42590 0.33750 -0.39680
C10A C 0.4546(3) 0.3382(6) -0.3153(3)
H10A H 0.42210 0.33090 -0.29680
C21A C 0.3851(3) 0.4137(6) 0.0222(3)
H17A H 0.39540 0.46480 0.05170
C22A C 0.3350(3) 0.3278(7) -0.0393(3)
H18A H 0.30600 0.30570 -0.06190
C23A C 0.3867(3) 0.2827(6) -0.0426(3)
H19A H 0.39850 0.22360 -0.06700
C24A C 0.2892(3) 0.4794(7) 0.0158(3)
H20A H 0.27590 0.51480 -0.01990
H21A H 0.29970 0.54150 0.04220
C25A C 0.2432(3) 0.4070(8) 0.0448(4)
H22A H 0.23700 0.33720 0.02120
C26A C 0.2532(3) 0.3720(6) 0.1031(3)
H23A H 0.27040 0.43420 0.12460
H24A H 0.27610 0.30420 0.10370
C27A C 0.2004(4) 0.3432(10) 0.1303(5)
H25A H 0.19480 0.25970 0.13100
H26A H 0.19880 0.37270 0.17000
C28A C 0.1595(3) 0.4021(8) 0.0921(4)
H27A H 0.13710 0.45300 0.11490
H28A H 0.13750 0.34530 0.07210
N9A N 0.41681(19) 0.3424(4) 0.49998(19)
C29A C 0.3176(3) 0.2936(7) 0.4817(3)
H29A H 0.29720 0.36210 0.47310
H30A H 0.30340 0.25570 0.51550
H31A H 0.31600 0.24140 0.44890
C30A C 0.3723(2) 0.3260(5) 0.4930(2)
Ni1* Ni 0.50000 0.34279(9) -0.50000
Ni1** Ni 0.50000 1.34279(9) 0.50000
Ni2* Ni 0.50000 -0.65962(10) 0.00000
N2A* N 0.50134(19) 0.3428(4) 0.59525(19)
N4* N 0.50000 0.1545(6) 0.50000
N10* N 0.50000 0.5254(5) 0.00000
#END
