
#######################################################################
#
#                 Cambridge Crystallographic Data Centre
#                                CCDC
#
#######################################################################
#
# If this CIF has been generated from an entry in the Cambridge
# Structural Database, then it will include bibliographic, chemical,
# crystal, experimental, refinement or atomic coordinate data resulting
# from the CCDC's data processing and validation procedures.
#
#######################################################################

data_CSD_CIF_FIFMAK
_audit_creation_date 2013-08-09
_audit_creation_method CSD-ConQuest-V1
_database_code_CSD FIFMAK
_database_code_depnum_ccdc_archive 'CCDC 905172'
_chemical_formula_sum 'C76 H104 B2 N22 Ni2 O84 W24'
_chemical_formula_moiety
;
(C60 H66 N16 Ni2 6+)n,2n(B1 O40 W12 5-),2n(C8 H15 N3 2+),4n(H2 O1)
;
_journal_coden_Cambridge 4
_journal_volume 135
_journal_year 2013
_journal_page_first 10186
_journal_name_full 'J.Am.Chem.Soc. '
loop_
_publ_author_name
"Qiuxia Han"
"Cheng He"
"Min Zhao"
"Bo Qi"
"Jingyang Niu"
"Chunying Duan"
_chemical_name_systematic
;
catena-(tetrakis(\m~2~-4,4'-Bipyridine)-bis(acetonitrile)-bis(1-(pyrrolidinium
-2-ylmethyl)imidazole-N^3^)-di-nickel 
bis(1-(pyrrolidinium-2-ylmethyl)imidazolium) 
bis((\m~12~-borato)-tetracosakis(\m~2~-oxo)-dodecaoxo-dodeca-tungsten) 
tetrahydrate)
;
_cell_volume   6611.830
_exptl_crystal_colour 'light green'
_exptl_crystal_density_diffrn 3.627
_exptl_special_details
;
Produced from the (D)-ligand

;
_exptl_crystal_description 'rodlike'
_diffrn_ambient_temperature 296
#These two values have been output from a single CSD field.
_refine_ls_R_factor_gt 0.049
_refine_ls_wR_factor_gt 0.049
loop_
_citation_database_id_CSD
_citation_special_details
FIFLUD "is a stereoisomer of this entry"
_symmetry_cell_setting monoclinic
_symmetry_space_group_name_H-M 'C 2'
_symmetry_Int_Tables_number 5
loop_
_symmetry_equiv_pos_site_id
_symmetry_equiv_pos_as_xyz
1 x,y,z
2 -x,y,-z
3 1/2+x,1/2+y,z
4 1/2-x,1/2+y,-z
_cell_length_a 25.187(4)
_cell_length_b 11.4826(17)
_cell_length_c 22.862(4)
_cell_angle_alpha 90
_cell_angle_beta 90.373(3)
_cell_angle_gamma 90
_cell_formula_units_Z 2
loop_
_atom_type_symbol
_atom_type_radius_bond
C 0.68
H 0.23
B 0.83
N 0.68
Ni 1.24
O 0.68
W 1.62
loop_
_atom_site_label
_atom_site_type_symbol
_atom_site_fract_x
_atom_site_fract_y
_atom_site_fract_z
W1 W 0.664101(13) 0.06997(3) 0.637529(17)
O1 O 0.6533(2) 0.1874(5) 0.5948(3)
O2 O 0.7400(2) 0.0640(5) 0.6314(3)
O3 O 0.6606(2) -0.0495(5) 0.5806(3)
O4 O 0.6725(2) 0.1466(6) 0.7117(3)
O5 O 0.5939(2) 0.0346(5) 0.6621(3)
O6 O 0.6881(2) -0.1086(5) 0.6853(2)
W2 W 0.778725(13) -0.07016(3) 0.661980(17)
W3 W 0.678516(14) -0.20778(3) 0.596889(17)
W4 W 0.656261(14) 0.14043(3) 0.791521(17)
W5 W 0.547012(14) -0.00840(3) 0.720976(18)
B1 B 0.6673(3) -0.1415(8) 0.7434(4)
O7 O 0.8390(2) -0.0385(6) 0.6316(3)
O8 O 0.7519(2) -0.1551(5) 0.5999(3)
O9 O 0.7944(2) -0.2060(5) 0.7012(3)
O10 O 0.7835(2) 0.0116(5) 0.7362(3)
O11 O 0.6777(2) -0.2636(7) 0.5276(3)
O12 O 0.6975(2) -0.3405(5) 0.6392(3)
O13 O 0.6066(2) -0.2335(5) 0.6198(3)
O14 O 0.7301(2) 0.1431(6) 0.8115(3)
O15 O 0.6830(2) -0.0569(5) 0.7918(3)
O16 O 0.6434(2) 0.2833(6) 0.8047(3)
O17 O 0.5879(2) 0.0867(6) 0.7711(3)
O18 O 0.6433(2) 0.0865(5) 0.8704(3)
O19 O 0.5184(2) -0.0874(6) 0.7874(3)
O20 O 0.6087(2) -0.1608(5) 0.7418(3)
O21 O 0.5254(2) -0.1403(5) 0.6730(3)
O22 O 0.4938(2) 0.0784(5) 0.7078(3)
O23 O 0.6939(2) -0.2632(5) 0.7608(3)
W6 W 0.786625(14) -0.30228(3) 0.770029(18)
W7 W 0.770178(14) -0.00152(3) 0.816363(17)
W8 W 0.683618(14) -0.43734(3) 0.705391(18)
W9 W 0.560012(13) -0.28562(3) 0.676565(17)
W10 W 0.661851(14) -0.07022(4) 0.891400(17)
W11 W 0.553725(14) -0.22493(3) 0.818252(18)
W12 W 0.678905(14) -0.37021(3) 0.847166(17)
O24 O 0.7592(2) -0.4237(6) 0.7225(3)
O25 O 0.8502(2) -0.3518(6) 0.7784(3)
O26 O 0.7538(2) -0.3715(5) 0.8354(3)
O27 O 0.7867(2) -0.1596(6) 0.8130(3)
O28 O 0.82854(19) 0.0547(5) 0.8427(3)
O29 O 0.7336(2) -0.0291(5) 0.8881(3)
O30 O 0.6868(2) -0.5697(6) 0.6724(3)
O31 O 0.6734(2) -0.4800(6) 0.7835(3)
O32 O 0.6122(2) -0.3981(5) 0.6942(3)
O33 O 0.5301(2) -0.3096(5) 0.7521(3)
O34 O 0.5158(2) -0.3662(6) 0.6361(3)
O35 O 0.6844(2) -0.2312(5) 0.8873(3)
O36 O 0.6519(3) -0.0564(5) 0.9649(3)
O37 O 0.5947(2) -0.1255(5) 0.8673(3)
O38 O 0.6059(2) -0.3395(5) 0.8352(3)
O39 O 0.5049(2) -0.2670(5) 0.8634(3)
O40 O 0.6773(2) -0.4668(6) 0.9035(3)
Ni1 Ni 1.00000 -0.13086(14) 0.00000
Ni2 Ni 1.00000 -0.13870(13) -0.50000
N1 N 0.9990(3) -0.1349(7) -0.0959(3)
N2 N 1.0017(2) -0.1371(6) -0.4056(3)
N3 N 1.00000 0.0598(11) 0.00000
N4 N 1.00000 0.0546(9) -0.50000
N5 N 0.9161(3) -0.1350(7) -0.0003(3)
N6 N 0.8348(3) -0.1991(6) 0.0034(3)
N7 N 0.6913(3) -0.2706(9) 0.0472(5)
H1 H 0.69710 -0.34140 0.06290
H2 H 0.67640 -0.27920 0.01150
N8 N 0.9159(2) -0.1399(6) -0.4991(3)
C1 C 1.0367(4) -0.0754(9) -0.1241(5)
H3 H 1.06160 -0.03180 -0.10330
C2 C 1.0382(3) -0.0794(8) -0.1845(4)
H4 H 1.06590 -0.04270 -0.20400
C3 C 0.9998(3) -0.1364(8) -0.2162(4)
C4 C 0.9613(3) -0.1992(9) -0.1860(4)
H5 H 0.93540 -0.24210 -0.20560
C5 C 0.9631(3) -0.1948(8) -0.1240(4)
H6 H 0.93790 -0.23600 -0.10270
C6 C 1.0011(3) -0.1373(8) -0.2821(4)
C7 C 1.0479(4) -0.1411(8) -0.3127(4)
H7 H 1.08050 -0.14520 -0.29340
C8 C 1.0449(3) -0.1386(7) -0.3730(4)
H8 H 1.07710 -0.13780 -0.39280
C9 C 0.9584(3) -0.1324(8) -0.3752(4)
H9 H 0.92680 -0.12570 -0.39630
C10 C 0.9542(4) -0.1362(9) -0.3141(4)
H10 H 0.92130 -0.13790 -0.29590
C11 C 1.0424(4) 0.1235(10) -0.0135(5)
H11 H 1.07240 0.08180 -0.02470
C12 C 1.0479(5) 0.2441(10) -0.0131(5)
H12 H 1.07910 0.28490 -0.02060
C13 C 1.00000 0.2927(17) 0.00000
C14 C 1.00000 0.4356(19) 0.00000
C15 C 1.0187(7) 0.5070(17) -0.0532(9)
H13 H 1.03070 0.47380 -0.08780
C16 C 1.0158(5) 0.6309(14) -0.0435(7)
H14 H 1.02750 0.67650 -0.07450
C17 C 1.0455(3) 0.1113(7) -0.5005(4)
H15 H 1.07740 0.07050 -0.50250
C18 C 1.0457(3) 0.2377(7) -0.4979(4)
H16 H 1.07780 0.27710 -0.49490
C19 C 1.00000 0.2988(9) -0.50000
C20 C 1.00000 0.4270(11) -0.50000
C21 C 1.0332(3) 0.4888(8) -0.4628(4)
H17 H 1.05660 0.45020 -0.43780
C22 C 1.0308(3) 0.6116(7) -0.4637(4)
H18 H 1.05200 0.65230 -0.43730
C23 C 0.8833(3) -0.2099(9) 0.0232(5)
H19 H 0.89340 -0.26470 0.05110
C24 C 0.8359(4) -0.1131(9) -0.0373(4)
H20 H 0.80720 -0.08620 -0.05920
C25 C 0.8870(3) -0.0731(9) -0.0400(4)
H21 H 0.89950 -0.01460 -0.06440
C26 C 0.7881(3) -0.2737(7) 0.0169(4)
H22 H 0.79860 -0.33440 0.04410
H23 H 0.77540 -0.31060 -0.01870
C27 C 0.7428(3) -0.1994(8) 0.0441(4)
H24 H 0.73680 -0.13000 0.01990
C28 C 0.7513(3) -0.1640(8) 0.1050(4)
H25 H 0.76730 -0.22710 0.12700
H26 H 0.77480 -0.09720 0.10670
C29 C 0.6998(5) -0.1341(10) 0.1295(7)
H27 H 0.69560 -0.05020 0.13080
H28 H 0.69730 -0.16380 0.16910
C30 C 0.6542(5) -0.1901(11) 0.0898(5)
H29 H 0.63470 -0.13150 0.06790
H30 H 0.62970 -0.23670 0.11250
C31 C 0.8724(3) -0.1210(7) -0.5070(4)
C32 C 0.8190(4) -0.0916(9) -0.5211(5)
H31 H 0.81560 -0.00840 -0.52360
H32 H 0.79590 -0.12060 -0.49120
H33 H 0.80940 -0.12580 -0.55800
N9 N 1.00000 0.6730(8) -0.50000
N10 N 1.00000 0.6866(14) 0.00000
N11 N 0.5938(4) -0.2765(9) 0.2275(5)
H34 H 0.59030 -0.28380 0.19020
N12 N 0.5983(3) -0.2005(8) 0.3153(4)
N13 N 0.6091(3) 0.0776(9) 0.4049(4)
H35 H 0.59100 0.13670 0.38820
H36 H 0.58860 0.04450 0.43240
C33 C 0.5896(4) -0.1835(11) 0.2609(5)
H37 H 0.58100 -0.11060 0.24590
C34 C 0.6047(4) -0.3534(11) 0.2669(5)
H38 H 0.61150 -0.43110 0.25820
C35 C 0.6053(4) -0.3124(11) 0.3200(6)
H39 H 0.60990 -0.35460 0.35440
C36 C 0.5892(4) -0.1169(9) 0.3661(5)
H40 H 0.59690 -0.15610 0.40280
H41 H 0.55230 -0.09290 0.36650
C37 C 0.6249(4) -0.0096(9) 0.3602(5)
H42 H 0.62010 0.02400 0.32110
C38 C 0.6837(3) -0.0326(8) 0.3710(4)
H43 H 0.69000 -0.11540 0.37550
H44 H 0.70440 -0.00450 0.33830
C39 C 0.6981(4) 0.0279(8) 0.4232(5)
H45 H 0.73350 0.06030 0.41980
H46 H 0.69760 -0.02470 0.45640
C40 C 0.6596(4) 0.1196(10) 0.4308(5)
H47 H 0.67120 0.18990 0.41120
H48 H 0.65500 0.13660 0.47200
O41 O 0.7210(2) -0.2052(6) 0.2815(3)
O42 O 0.6999(3) -0.2533(6) 0.4117(3)
C11A C 0.9576(4) 0.1235(10) 0.0135(5)
H11A H 0.92760 0.08180 0.02470
C12A C 0.9521(5) 0.2441(10) 0.0131(5)
H12A H 0.92090 0.28490 0.02060
C15A C 0.9813(7) 0.5070(17) 0.0532(9)
H13A H 0.96930 0.47380 0.08780
C16A C 0.9842(5) 0.6309(14) 0.0435(7)
H14A H 0.97250 0.67650 0.07450
C17A C 0.9545(3) 0.1113(7) -0.4995(4)
H15A H 0.92260 0.07050 -0.49750
C18A C 0.9543(3) 0.2377(7) -0.5021(4)
H16A H 0.92220 0.27710 -0.50510
C21A C 0.9668(3) 0.4888(8) -0.5372(4)
H17A H 0.94340 0.45020 -0.56220
C22A C 0.9692(3) 0.6116(7) -0.5363(4)
H18A H 0.94800 0.65230 -0.56270
N1A N 1.0010(3) -0.1349(7) -0.9041(3)
N2A N 0.9983(2) -0.1371(6) -0.5944(3)
N8A N 1.0841(2) -0.1399(6) -0.5009(3)
C1A C 0.9633(4) -0.0754(9) -0.8759(5)
H3A H 0.93840 -0.03180 -0.89670
C2A C 0.9618(3) -0.0794(8) -0.8155(4)
H4A H 0.93410 -0.04270 -0.79600
C3A C 1.0002(3) -0.1364(8) -0.7838(4)
C4A C 1.0387(3) -0.1992(9) -0.8140(4)
H5A H 1.06460 -0.24210 -0.79440
C5A C 1.0369(3) -0.1948(8) -0.8760(4)
H6A H 1.06210 -0.23600 -0.89730
C6A C 0.9989(3) -0.1373(8) -0.7179(4)
C7A C 0.9521(4) -0.1411(8) -0.6873(4)
H7A H 0.91950 -0.14520 -0.70660
C8A C 0.9551(3) -0.1386(7) -0.6270(4)
H8A H 0.92290 -0.13780 -0.60720
C9A C 1.0416(3) -0.1324(8) -0.6248(4)
H9A H 1.07320 -0.12570 -0.60370
C10A C 1.0458(4) -0.1362(9) -0.6859(4)
H10A H 1.07870 -0.13790 -0.70410
C31A C 1.1276(3) -0.1210(7) -0.4930(4)
C32A C 1.1810(4) -0.0916(9) -0.4789(5)
H31A H 1.18440 -0.00840 -0.47640
H32A H 1.20410 -0.12060 -0.50880
H33A H 1.19060 -0.12580 -0.44200
N5A N 1.0839(3) -0.1350(7) 0.0003(3)
N6A N 1.1652(3) -0.1991(6) -0.0034(3)
N7A N 1.3087(3) -0.2706(9) -0.0472(5)
H1A H 1.30290 -0.34140 -0.06290
H2A H 1.32360 -0.27920 -0.01150
C23A C 1.1167(3) -0.2099(9) -0.0232(5)
H19A H 1.10660 -0.26470 -0.05110
C24A C 1.1641(4) -0.1131(9) 0.0373(4)
H20A H 1.19280 -0.08620 0.05920
C25A C 1.1130(3) -0.0731(9) 0.0400(4)
H21A H 1.10050 -0.01460 0.06440
C26A C 1.2119(3) -0.2737(7) -0.0169(4)
H22A H 1.20140 -0.33440 -0.04410
H23A H 1.22460 -0.31060 0.01870
C27A C 1.2572(3) -0.1994(8) -0.0441(4)
H24A H 1.26320 -0.13000 -0.01990
C28A C 1.2487(3) -0.1640(8) -0.1050(4)
H25A H 1.23270 -0.22710 -0.12700
H26A H 1.22520 -0.09720 -0.10670
C29A C 1.3002(5) -0.1341(10) -0.1295(7)
H27A H 1.30440 -0.05020 -0.13080
H28A H 1.30270 -0.16380 -0.16910
C30A C 1.3458(5) -0.1901(11) -0.0898(5)
H29A H 1.36530 -0.13150 -0.06790
H30A H 1.37030 -0.23670 -0.11250
Ni1* Ni 1.00000 -0.13086(14) -1.00000
Ni1** Ni 1.00000 0.86914(14) 0.00000
Ni2* Ni 1.00000 0.86130(13) -0.50000
N1A* N 1.0010(3) -0.1349(7) 0.0959(3)
N9* N 1.00000 -0.3270(8) -0.50000
N10* N 1.00000 -0.3134(14) 0.00000
#END
