
#######################################################################
#
#                 Cambridge Crystallographic Data Centre
#                                CCDC
#
#######################################################################
#
# If this CIF has been generated from an entry in the Cambridge
# Structural Database, then it will include bibliographic, chemical,
# crystal, experimental, refinement or atomic coordinate data resulting
# from the CCDC's data processing and validation procedures.
#
#######################################################################

data_CSD_CIF_FIJDEI
_audit_creation_date 2005-06-02
_audit_creation_method CSD-ConQuest-V1
_database_code_CSD FIJDEI
_database_code_depnum_ccdc_archive 'CCDC 265093'
_chemical_formula_sum 'C36 H32 Cd3 N2 O16'
_chemical_formula_moiety
;
(C2 H8 N1 1+)2n,n(C32 H16 Cd3 O16 2-)
;
_journal_coden_Cambridge 4
_journal_volume 127
_journal_year 2005
_journal_page_first 1504
_journal_name_full 'J.Am.Chem.Soc. '
loop_
_publ_author_name
"N.L.Rosi"
"Jaheon Kim"
"M.Eddaoudi"
"Banglin Chen"
"M.O'Keeffe"
"O.M.Yaghi"
_chemical_name_systematic
;
catena-(bis(\m~4~-Benzene-1,3-dicarboxylato-O,O,O',O',O'',O''')-bis(\m~4~-benz
ene-1,3-dicarboxylato-O,O,O',O'',O''')-tri-cadmium bis(dimethylammonium) 
clathrate)
;
_cell_volume   3654.191
_exptl_crystal_colour 'colorless'
_exptl_crystal_density_diffrn 1.944
_exptl_crystal_description 'rod'
_diffrn_ambient_temperature 153
_refine_special_details
;
The cations are disordered by symmetry.

;
#These two values have been output from a single CSD field.
_refine_ls_R_factor_gt 0.0258
_refine_ls_wR_factor_gt 0.0258
_symmetry_cell_setting monoclinic
_symmetry_space_group_name_H-M 'C 2/c'
_symmetry_Int_Tables_number 15
loop_
_symmetry_equiv_pos_site_id
_symmetry_equiv_pos_as_xyz
1 x,y,z
2 1/2+x,1/2+y,z
3 -x,y,1/2-z
4 1/2-x,1/2+y,1/2-z
5 -x,-y,-z
6 -1/2-x,-1/2-y,-z
7 x,-y,-1/2+z
8 -1/2+x,-1/2-y,-1/2+z
_cell_length_a 13.686(2)
_cell_length_b 18.252(3)
_cell_length_c 14.906(3)
_cell_angle_alpha 90
_cell_angle_beta 101.070(3)
_cell_angle_gamma 90
_cell_formula_units_Z 4
loop_
_atom_type_symbol
_atom_type_radius_bond
C 0.68
H 0.23
Cd 1.66
N 0.57
O 0.68
loop_
_atom_site_label
_atom_site_type_symbol
_atom_site_fract_x
_atom_site_fract_y
_atom_site_fract_z
Cd1 Cd 0.658770(14) -0.20953(1) 0.574560(13)
Cd2 Cd 0.50000 0.172517(15) 0.25000
O1 O 0.80129(16) -0.1787(1) 0.49927(14)
O2 O 0.65773(16) -0.12086(12) 0.46233(15)
O3 O 0.50311(15) 0.23507(12) -0.01324(15)
O4 O 0.48083(16) 0.15527(11) 0.09250(14)
O5 O 0.61999(16) 0.09049(12) 0.26465(15)
O6 O 0.72661(17) 0.11252(12) 0.17079(15)
O7 O 0.09896(15) 0.23726(11) -0.29086(14)
O8 O 0.25681(16) 0.23101(12) -0.30191(14)
C1 C 0.7480(2) -0.12874(15) 0.45668(19)
C2 C 0.7920(2) -0.07558(15) 0.3985(2)
C3 C 0.8931(2) -0.07555(16) 0.3980(2)
H1 H 0.93600 -0.10900 0.43550
C4 C 0.7305(2) -0.02523(15) 0.34480(19)
H2 H 0.66140 -0.02460 0.34610
C5 C 0.9318(2) -0.02659(18) 0.3426(2)
H3 H 1.00110 -0.02670 0.34210
C6 C 0.8693(2) 0.02260(17) 0.2880(2)
H4 H 0.89600 0.05540 0.24950
C7 C 0.7685(2) 0.02419(15) 0.28927(19)
C8 C 0.6999(2) 0.08083(15) 0.23579(19)
C9 C 0.4486(2) 0.19303(16) 0.0218(2)
C10 C 0.2757(2) 0.14253(16) 0.0155(2)
H5 H 0.29640 0.12320 0.07530
C11 C 0.3422(2) 0.18236(15) -0.02504(19)
C12 C 0.1791(2) 0.13091(17) -0.0312(2)
H6 H 0.13360 0.10430 -0.00280
C13 C 0.3114(2) 0.20885(14) -0.1128(2)
H7 H 0.35650 0.23630 -0.14060
C14 C 0.1483(2) 0.15783(16) -0.1192(2)
H8 H 0.08190 0.15040 -0.15080
C15 C 0.2162(2) 0.19608(15) -0.16076(19)
C16 C 0.1890(2) 0.22306(15) -0.25656(19)
N1 N 0.0379(4) 0.2732(3) 0.2994(4)
N2 N 0.5437(4) 0.9935(3) -0.0261(4)
C17 C 0.00000 0.2006(3) 0.25000
C18 C 0.5518(3) 0.98309(19) 0.0751(3)
C19 C 0.00000 0.3345(3) 0.25000
Cd1B Cd 0.341230(14) -0.20953(1) -0.074560(13)
Cd1E Cd 0.841230(14) -0.29047(1) 0.425440(13)
Cd1F Cd 0.658770(14) 0.20953(1) 0.074560(13)
Cd1A Cd 0.158770(14) 0.29047(1) -0.425440(13)
Cd1D Cd 0.341230(14) 0.20953(1) 0.425440(13)
Cd1C Cd 0.841230(14) 0.29047(1) 0.925440(13)
Cd1G Cd 0.158770(14) -0.29047(1) 0.074560(13)
Cd2G Cd 0.00000 0.327483(15) -0.25000
Cd2G* Cd 1.00000 0.327483(15) 0.75000
O1B O 0.19871(16) -0.1787(1) 0.00073(14)
O1E O 0.69871(16) -0.3213(1) 0.50073(14)
O1G O 0.30129(16) -0.3213(1) -0.00073(14)
O2B O 0.34227(16) -0.12086(12) 0.03767(15)
O3B O 0.49689(15) 0.23507(12) 0.51324(15)
O3F O 0.50311(15) -0.23507(12) 0.48676(15)
O3D O 0.49689(15) -0.23507(12) 0.01324(15)
O4B O 0.51917(16) 0.15527(11) 0.40750(14)
O4F O 0.48083(16) -0.15527(11) 0.59250(14)
O4D O 0.51917(16) -0.15527(11) -0.09250(14)
O5B O 0.38001(16) 0.09049(12) 0.23535(15)
O6B O 0.27339(17) 0.11252(12) 0.32921(15)
O6F O 0.72661(17) -0.11252(12) 0.67079(15)
O6D O 0.27339(17) -0.11252(12) -0.17079(15)
O7B O 0.90104(15) 0.23726(11) 0.79086(14)
O7A O 0.59896(15) -0.26274(11) 0.70914(14)
O7G O 0.59896(15) 0.26274(11) 0.20914(14)
O7E O 0.40104(15) 0.26274(11) 0.29086(14)
O7C O 0.40104(15) -0.26274(11) -0.20914(14)
O8B O 0.74319(16) 0.23101(12) 0.80191(14)
O8A O 0.75681(16) -0.26899(12) 0.69809(14)
O8C O 0.24319(16) -0.26899(12) -0.19809(14)
C1B C 0.2520(2) -0.12874(15) 0.04332(19)
C2B C 0.2080(2) -0.07558(15) 0.1015(2)
C3B C 0.1069(2) -0.07555(16) 0.1020(2)
H1B H 0.06400 -0.10900 0.06450
C4B C 0.2695(2) -0.02523(15) 0.15520(19)
H2B H 0.33860 -0.02460 0.15390
C5B C 0.0682(2) -0.02659(18) 0.1574(2)
H3B H -0.00110 -0.02670 0.15790
C6B C 0.1307(2) 0.02260(17) 0.2120(2)
H4B H 0.10400 0.05540 0.25050
C7B C 0.2315(2) 0.02419(15) 0.21073(19)
C8B C 0.3001(2) 0.08083(15) 0.26421(19)
C9B C 0.5514(2) 0.19303(16) 0.4782(2)
C10B C 0.7243(2) 0.14253(16) 0.4845(2)
H5B H 0.70360 0.12320 0.42470
C11B C 0.6578(2) 0.18236(15) 0.52504(19)
C12B C 0.8209(2) 0.13091(17) 0.5312(2)
H6B H 0.86640 0.10430 0.50280
C13B C 0.6886(2) 0.20885(14) 0.6128(2)
H7B H 0.64350 0.23630 0.64060
C14B C 0.8517(2) 0.15783(16) 0.6192(2)
H8B H 0.91810 0.15040 0.65080
C15B C 0.7838(2) 0.19608(15) 0.66076(19)
C16B C 0.8110(2) 0.22306(15) 0.75656(19)
N1B N -0.0379(4) 0.2732(3) 0.2006(4)
N2D N 0.4563(4) 1.0065(3) 0.0261(4)
C18D C 0.4482(3) 1.01691(19) -0.0751(3)
#END
