
#######################################################################
#
#                 Cambridge Crystallographic Data Centre
#                                CCDC
#
#######################################################################
#
# If this CIF has been generated from an entry in the Cambridge
# Structural Database, then it will include bibliographic, chemical,
# crystal, experimental, refinement or atomic coordinate data resulting
# from the CCDC's data processing and validation procedures.
#
#######################################################################

data_CSD_CIF_FIKQIA
_audit_creation_date 2005-06-07
_audit_creation_method CSD-ConQuest-V1
_database_code_CSD FIKQIA
_database_code_depnum_ccdc_archive 'CCDC 257825'
_chemical_formula_sum 'C42 H78 Cd3 N4 O36 S2'
_chemical_formula_moiety
;
(H12 Cd1 O6 2+)n,n(C42 H46 Cd2 N4 O20 S2 2-),10n(H2 O1)
;
_journal_coden_Cambridge 1350
_journal_volume 7
_journal_year 2005
_journal_page_first 87
_journal_name_full 'CrystEngComm '
loop_
_publ_author_name
"Qing-Yan Liu"
"Li Xu"
_chemical_name_systematic
;
catena-(Hexaaqua-cadmium(ii) 
bis(\m~2~-1,3-bis(4-pyridyl)propane)-bis(5-sulfoisophthalato)-hexaaqua-di-cadm
ium(ii) decahydrate)
;
_cell_volume   3094.773
_exptl_crystal_colour 'colorless'
_exptl_crystal_density_diffrn 1.735
_exptl_crystal_description 'Prism'
_diffrn_ambient_temperature 293
#These two values have been output from a single CSD field.
_refine_ls_R_factor_gt 0.0487
_refine_ls_wR_factor_gt 0.0487
_symmetry_cell_setting monoclinic
_symmetry_space_group_name_H-M 'P 21/c'
_symmetry_Int_Tables_number 14
loop_
_symmetry_equiv_pos_site_id
_symmetry_equiv_pos_as_xyz
1 x,y,z
2 -x,1/2+y,1/2-z
3 -x,-y,-z
4 x,-1/2-y,-1/2+z
_cell_length_a 7.4613(9)
_cell_length_b 20.3543(19)
_cell_length_c 20.470(2)
_cell_angle_alpha 90
_cell_angle_beta 95.439(6)
_cell_angle_gamma 90
_cell_formula_units_Z 2
loop_
_atom_type_symbol
_atom_type_radius_bond
C 0.68
H 0.23
Cd 1.69
N 0.68
O 0.68
S 1.02
loop_
_atom_site_label
_atom_site_type_symbol
_atom_site_fract_x
_atom_site_fract_y
_atom_site_fract_z
Cd1 Cd 0.38252(5) 0.186410(16) -0.560500(16)
Cd2 Cd 0.50000 0.00000 0.00000
S1 S 0.53225(18) 0.00748(6) -0.24973(6)
O1 O 0.4830(5) 0.16905(16) -0.45473(15)
O2 O 0.8590(6) 0.1363(2) 0.10851(19)
H1 H 0.861(9) 0.125(3) 0.145(3)
H2 H 0.777(9) 0.163(3) 0.104(3)
O3 O 0.6129(5) 0.26399(17) -0.42277(16)
O4 O 0.1509(6) 0.1462(2) 0.0390(2)
H3 H 0.071(9) 0.149(3) 0.069(3)
H4 H 0.127(9) 0.124(3) 0.007(3)
O5 O 0.8273(5) 0.21053(16) -0.11742(15)
O6 O 0.0324(6) 0.0361(2) -0.1875(2)
H5 H -0.057(10) 0.007(4) -0.197(3)
H6 H 0.134(10) 0.020(4) -0.193(4)
O7 O 0.8100(5) 0.29666(16) -0.18400(16)
O8 O 0.9695(6) 0.09378(19) -0.07261(19)
H7 H 0.920(9) 0.127(3) -0.093(3)
H8 H 1.018(9) 0.072(3) -0.101(3)
O9 O 0.4528(7) -0.02183(19) -0.3089(2)
O10 O 0.8513(6) 0.1005(2) 0.2354(2)
H9 H 0.766(9) 0.078(4) 0.240(3)
H10 H 0.841(9) 0.138(3) 0.257(3)
O11 O 0.6909(6) -0.02492(19) -0.2213(2)
O12 O 0.4037(7) 0.0147(2) -0.2005(2)
O13 O 0.1201(5) 0.23671(18) -0.53087(17)
H11 H 0.14650 0.27060 -0.51050
H12 H 0.035(8) 0.242(3) -0.555(3)
O14 O 0.6273(5) 0.12839(17) -0.59995(17)
H13 H 0.67830 0.15210 -0.62470
H14 H 0.600(8) 0.098(3) -0.621(3)
O15 O 0.5363(5) 0.28883(16) -0.54734(17)
H15 H 0.57650 0.29330 -0.50890
H16 H 0.636(8) 0.283(3) -0.564(3)
O16 O 0.5731(6) -0.08184(19) 0.0744(2)
H17 H 0.53210 -0.11680 0.05980
H18 H 0.583(10) -0.072(4) 0.111(3)
O17 O 0.7833(6) 0.0357(2) 0.0203(2)
H19 H 0.836(8) 0.049(3) -0.013(2)
H20 H 0.792(9) 0.066(3) 0.046(3)
O18 O 0.4287(6) 0.0667(2) 0.0833(2)
H21 H 0.42490 0.04490 0.11680
H22 H 0.344(15) 0.095(6) 0.075(6)
N1 N 0.3033(5) 0.22140(19) -0.66541(19)
N2 N -0.2422(5) 0.58653(19) -0.93410(19)
C1 C 0.6000(6) 0.1796(2) -0.3435(2)
C2 C 0.6740(6) 0.2185(2) -0.2925(2)
H23 H 0.69970 0.26230 -0.30060
C3 C 0.7108(6) 0.1937(2) -0.2292(2)
C4 C 0.6690(6) 0.1284(2) -0.2173(2)
H24 H 0.69200 0.11100 -0.17530
C5 C 0.5925(6) 0.0889(2) -0.2685(2)
C6 C 0.5593(6) 0.1144(2) -0.3307(2)
H25 H 0.50910 0.08770 -0.36460
C7 C 0.5636(6) 0.2067(2) -0.4119(2)
C8 C 0.7891(6) 0.2373(2) -0.1736(2)
C9 C 0.3005(7) 0.1838(2) -0.7197(2)
H26 H 0.34040 0.14060 -0.71540
C10 C 0.2413(7) 0.2067(2) -0.7812(2)
H27 H 0.24260 0.17930 -0.81750
C11 C 0.1794(6) 0.2711(2) -0.7890(2)
C12 C 0.1837(7) 0.3095(2) -0.7330(2)
H28 H 0.14580 0.35310 -0.73600
C13 C 0.2441(7) 0.2832(2) -0.6732(2)
H29 H 0.24390 0.30970 -0.63620
C14 C 0.1073(7) 0.2963(2) -0.8559(2)
H30 H 0.00240 0.27060 -0.87140
H31 H 0.19790 0.28950 -0.88620
C15 C 0.0555(7) 0.3686(2) -0.8570(2)
H32 H -0.03210 0.37610 -0.82570
H33 H 0.16120 0.39480 -0.84360
C16 C -0.0231(7) 0.3906(2) -0.9245(2)
H34 H 0.06950 0.38730 -0.95460
H35 H -0.11950 0.36080 -0.93980
C17 C -0.0954(7) 0.4594(2) -0.9267(2)
C18 C -0.0363(7) 0.5074(3) -0.8821(3)
H36 H 0.05400 0.49820 -0.84890
C19 C -0.1132(7) 0.5697(2) -0.8875(2)
H37 H 0.07240 1.10140 -0.64310
C20 C 0.2977(7) 1.0396(2) -0.5219(2)
H38 H 0.38680 1.05020 -0.48870
C21 C -0.2295(7) 0.4773(2) -0.9762(2)
H39 H -0.27190 0.44670 -1.00770
Cd1A Cd -0.38252(5) 0.686410(16) -0.939500(16)
Cd1* Cd 0.38252(5) 1.186410(16) -0.560500(16)
S1A S -0.53225(18) 0.50748(6) -1.25027(6)
O1A O -0.4830(5) 0.66905(16) -1.04527(15)
O3A O -0.6129(5) 0.76399(17) -1.07723(16)
O5A O -0.8273(5) 0.71053(16) -1.38258(15)
O7A O -0.8100(5) 0.79666(16) -1.31600(16)
O9A O -0.4528(7) 0.47817(19) -1.1911(2)
O11A O -0.6909(6) 0.47508(19) -1.2787(2)
O12A O -0.4037(7) 0.5147(2) -1.2995(2)
O13A O -0.1201(5) 0.73671(18) -0.96913(17)
H11A H -0.14650 0.77060 -0.98950
H12A H -0.035(8) 0.742(3) -0.945(3)
O14A O -0.6273(5) 0.62839(17) -0.90005(17)
H13A H -0.67830 0.65210 -0.87530
H14A H -0.600(8) 0.598(3) -0.879(3)
O15A O -0.5363(5) 0.78883(16) -0.95266(17)
H15A H -0.57650 0.79330 -0.99110
H16A H -0.636(8) 0.783(3) -0.936(3)
O16B O 0.4269(6) 0.08184(19) -0.0744(2)
H17B H 0.46790 0.11680 -0.05980
H18B H 0.417(10) 0.072(4) -0.111(3)
O17B O 0.2167(6) -0.0357(2) -0.0203(2)
H19B H 0.164(8) -0.049(3) 0.013(2)
H20B H 0.208(9) -0.066(3) -0.046(3)
O18B O 0.5713(6) -0.0667(2) -0.0833(2)
H21B H 0.57510 -0.04490 -0.11680
H22B H 0.656(15) -0.095(6) -0.075(6)
N1A N -0.3033(5) 0.72140(19) -0.83459(19)
N2A N 0.2422(5) 0.08653(19) -0.56590(19)
N2A* N 0.2422(5) 1.08653(19) -0.56590(19)
C1A C -0.6000(6) 0.6796(2) -1.1565(2)
C2A C -0.6740(6) 0.7185(2) -1.2075(2)
H23A H -0.69970 0.76230 -1.19940
C3A C -0.7108(6) 0.6937(2) -1.2708(2)
C4A C -0.6690(6) 0.6284(2) -1.2827(2)
H24A H -0.69200 0.61100 -1.32470
C5A C -0.5925(6) 0.5889(2) -1.2315(2)
C6A C -0.5593(6) 0.6144(2) -1.1693(2)
H25A H -0.50910 0.58770 -1.13540
C7A C -0.5636(6) 0.7067(2) -1.0881(2)
C8A C -0.7891(6) 0.7373(2) -1.3264(2)
C9A C -0.3005(7) 0.6838(2) -0.7803(2)
H26A H -0.34040 0.64060 -0.78460
C10A C -0.2413(7) 0.7067(2) -0.7188(2)
H27A H -0.24260 0.67930 -0.68250
C11A C -0.1794(6) 0.7711(2) -0.7110(2)
C12A C -0.1837(7) 0.8095(2) -0.7670(2)
H28A H -0.14580 0.85310 -0.76400
C13A C -0.2441(7) 0.7832(2) -0.8268(2)
H29A H -0.24390 0.80970 -0.86380
C14A C -0.1073(7) 0.7963(2) -0.6441(2)
H30A H -0.00240 0.77060 -0.62860
H31A H -0.19790 0.78950 -0.61380
C15A C -0.0555(7) 0.8686(2) -0.6430(2)
H32A H 0.03210 0.87610 -0.67430
H33A H -0.16120 0.89480 -0.65640
C16A C 0.0231(7) 0.8906(2) -0.5755(2)
H34A H -0.06950 0.88730 -0.54540
H35A H 0.11950 0.86080 -0.56020
C17A C 0.0954(7) 0.9594(2) -0.5733(2)
C18A C 0.0363(7) 1.0074(3) -0.6179(3)
H36A H -0.05400 0.99820 -0.65110
C19A C 0.1132(7) 1.0697(2) -0.6125(2)
H37A H -0.07240 0.60140 -0.85690
C20A C -0.2977(7) 0.5396(2) -0.9781(2)
H38A H -0.38680 0.55020 -1.01130
C21A C 0.2295(7) 0.9773(2) -0.5238(2)
H39A H 0.27190 0.94670 -0.49230
#END
