
#######################################################################
#
#                 Cambridge Crystallographic Data Centre
#                                CCDC
#
#######################################################################
#
# If this CIF has been generated from an entry in the Cambridge
# Structural Database, then it will include bibliographic, chemical,
# crystal, experimental, refinement or atomic coordinate data resulting
# from the CCDC's data processing and validation procedures.
#
#######################################################################

data_CSD_CIF_FILBAG
_audit_creation_date 2018-09-03
_audit_creation_method CSD-ConQuest-V1
_database_code_CSD FILBAG
_database_code_depnum_ccdc_archive 'CCDC 1834973'
_chemical_formula_sum 'C196 H286 N52 O58 Zn5'
_chemical_formula_moiety
;
(C96 H46 N18 O26 Zn5 2-)n,2n(C2 H8 N1 1+),32n(C3 H7 N1 O1)
;
_journal_coden_Cambridge 1220
_journal_volume 24
_journal_year 2018
_journal_page_first 9555
_journal_name_full 'Chem.-Eur.J. '
loop_
_publ_author_name
"Yue Dai"
"Jian-Jun Zhang"
"Shu-Qin Liu"
"Huajun Zhou"
"Ying-Ji Sun"
"Yu-Zhen Pan"
"Jun Ni"
"Jing-Si Yang"
_chemical_name_systematic
;
catena-(bis(dimethylammonium) 
hexakis(\m-4-(5,7-dioxo-5,7-dihydroimidazolato(4,5-f)isoindol-6(1H)-yl)benzoat
o)-diaqua-penta-zinc dimethylformamide solvate)
;
_cell_volume  30149.924
_exptl_crystal_colour 'colorless'
_exptl_crystal_description 'prism'
_diffrn_ambient_temperature 293
_refine_special_details
;
The SQUEEZE/PLATON program was used to model the disordered cations and 
solvent molecules.
;
#These two values have been output from a single CSD field.
_refine_ls_R_factor_gt 0.1197
_refine_ls_wR_factor_gt 0.1197
_symmetry_cell_setting cubic
_symmetry_space_group_name_H-M 'P 41 3 2'
_symmetry_Int_Tables_number 213
loop_
_symmetry_equiv_pos_site_id
_symmetry_equiv_pos_as_xyz
1 x,y,z
2 1/2-x,-y,1/2+z
3 -x,1/2+y,1/2-z
4 1/2+x,1/2-y,-z
5 z,x,y
6 1/2+z,1/2-x,-y
7 1/2-z,-x,1/2+y
8 -z,1/2+x,1/2-y
9 y,z,x
10 -y,1/2+z,1/2-x
11 1/2+y,1/2-z,-x
12 1/2-y,-z,1/2+x
13 3/4+y,1/4+x,1/4-z
14 3/4-y,3/4-x,3/4-z
15 1/4+y,1/4-x,3/4+z
16 1/4-y,3/4+x,1/4+z
17 3/4+x,1/4+z,1/4-y
18 1/4-x,3/4+z,1/4+y
19 3/4-x,3/4-z,3/4-y
20 1/4+x,1/4-z,3/4+y
21 3/4+z,1/4+y,1/4-x
22 1/4+z,1/4-y,3/4+x
23 1/4-z,3/4+y,1/4+x
24 3/4-z,3/4-y,3/4-x
_cell_length_a 31.124(3)
_cell_length_b 31.124(3)
_cell_length_c 31.124(3)
_cell_angle_alpha 90
_cell_angle_beta 90
_cell_angle_gamma 90
_cell_formula_units_Z 4
loop_
_atom_type_symbol
_atom_type_radius_bond
C 0.68
H 0.23
N 0.68
O 0.68
Zn 1.22
loop_
_atom_site_label
_atom_site_type_symbol
_atom_site_fract_x
_atom_site_fract_y
_atom_site_fract_z
Zn1 Zn 0.44159(3) 0.44159(3) 1.44159(3)
Zn2 Zn 0.26430(2) 0.48570(2) 1.37500
O1 O 0.5062(3) 0.8343(2) 1.3050(2)
O2 O 0.48269(17) 0.82042(17) 1.24511(18)
O3 O 0.3549(2) 0.6519(2) 1.3126(3)
O4 O 0.4851(2) 0.6266(2) 1.3744(3)
O5 O 0.48223(13) 0.48223(13) 1.48223(13)
N1 N 0.39410(17) 0.47694(15) 1.41441(17)
N2 N 0.32928(16) 0.48982(16) 1.38681(15)
N3 N 0.4230(3) 0.6523(3) 1.3432(4)
C1 C 0.3537(2) 0.4626(2) 1.4071(2)
H1 H 0.34420 0.43560 1.41570
C2 C 0.39514(13) 0.51456(12) 1.39517(16)
C3 C 0.35498(12) 0.52326(12) 1.37767(16)
C4 C 0.34748(13) 0.56229(15) 1.35731(18)
H2 H 0.32060 0.56810 1.34560
C5 C 0.38013(18) 0.59263(14) 1.3545(2)
C6 C 0.42029(15) 0.58393(16) 1.3720(2)
C7 C 0.42779(12) 0.54489(17) 1.3923(2)
H3 H 0.45470 0.53910 1.40400
C8 C 0.4493(4) 0.6233(4) 1.3651(5)
C9 C 0.3828(4) 0.6345(3) 1.3340(4)
C10 C 0.4372(3) 0.69183(19) 1.3278(3)
C11 C 0.4318(3) 0.7040(2) 1.2852(3)
H4 H 0.41730 0.68590 1.26630
C12 C 0.4480(3) 0.7430(2) 1.27086(19)
H5 H 0.44440 0.75110 1.24230
C13 C 0.4696(3) 0.76996(17) 1.2992(2)
C14 C 0.4750(3) 0.7578(2) 1.3418(2)
H6 H 0.48950 0.77590 1.36070
C15 C 0.4588(3) 0.7188(2) 1.3561(2)
H7 H 0.46240 0.71070 1.38470
C16 C 0.4865(3) 0.8136(3) 1.2801(3)
Zn2D Zn 0.37500(2) 0.26430(2) 1.48570
O1D O 0.3050(3) 0.5062(2) 1.8343(2)
O2D O 0.24511(17) 0.48269(17) 1.82042(18)
O3D O 0.3126(2) 0.3549(2) 1.6519(3)
O4D O 0.3744(2) 0.4851(2) 1.6266(3)
N1D N 0.41441(17) 0.39410(15) 1.47694(17)
N2D N 0.38681(16) 0.32928(16) 1.48982(15)
N3D N 0.3432(3) 0.4230(3) 1.6523(4)
C1D C 0.4071(2) 0.3537(2) 1.4626(2)
H1D H 0.41570 0.34420 1.43560
C2D C 0.39517(13) 0.39514(12) 1.51456(16)
C3D C 0.37767(12) 0.35498(12) 1.52326(16)
C4D C 0.35731(13) 0.34748(15) 1.56229(18)
H2D H 0.34560 0.32060 1.56810
C5D C 0.35450(18) 0.38013(14) 1.59263(20)
C6D C 0.37200(15) 0.42029(16) 1.58393(20)
C7D C 0.39230(12) 0.42779(17) 1.54489(20)
H3D H 0.40400 0.45470 1.53910
C8D C 0.3651(4) 0.4493(4) 1.6233(5)
C9D C 0.3340(4) 0.3828(3) 1.6345(4)
C10D C 0.3278(3) 0.43720(19) 1.69183(30)
C11D C 0.2852(3) 0.4318(2) 1.7040(3)
H4D H 0.26630 0.41730 1.68590
C12D C 0.27086(30) 0.4480(2) 1.74300(19)
H5D H 0.24230 0.44440 1.75110
C13D C 0.2992(3) 0.46960(17) 1.76996(20)
C14D C 0.3418(3) 0.4750(2) 1.7578(2)
H6D H 0.36070 0.48950 1.77590
C15D C 0.3561(3) 0.4588(2) 1.7188(2)
H7D H 0.38470 0.46240 1.71070
C16D C 0.2801(3) 0.4865(3) 1.8136(3)
Zn2H Zn 0.48570(2) 0.37500(2) 1.26430
O1H O 0.8343(3) 0.3050(2) 1.5062(2)
O2H O 0.82042(17) 0.24511(17) 1.48269(18)
O3H O 0.6519(2) 0.3126(2) 1.3549(3)
O4H O 0.6266(2) 0.3744(2) 1.4851(3)
N1H N 0.47694(17) 0.41441(15) 1.39410(17)
N2H N 0.48982(16) 0.38681(16) 1.32928(15)
N3H N 0.6523(3) 0.3432(3) 1.4230(4)
C1H C 0.4626(2) 0.4071(2) 1.3537(2)
H1H H 0.43560 0.41570 1.34420
C2H C 0.51456(13) 0.39517(12) 1.39514(16)
C3H C 0.52326(12) 0.37767(12) 1.35498(16)
C4H C 0.56229(13) 0.35731(15) 1.34748(18)
H2H H 0.56810 0.34560 1.32060
C5H C 0.59263(18) 0.35450(14) 1.38013(20)
C6H C 0.58393(15) 0.37200(16) 1.42029(20)
C7H C 0.54489(12) 0.39230(17) 1.42779(20)
H3H H 0.53910 0.40400 1.45470
C8H C 0.6233(4) 0.3651(4) 1.4493(5)
C9H C 0.6345(4) 0.3340(3) 1.3828(4)
C10H C 0.69183(30) 0.32780(19) 1.4372(3)
C11H C 0.7040(3) 0.2852(2) 1.4318(3)
H4H H 0.68590 0.26630 1.41730
C12H C 0.7430(3) 0.27086(20) 1.44800(19)
H5H H 0.75110 0.24230 1.44440
C13H C 0.76996(30) 0.29920(17) 1.4696(2)
C14H C 0.7578(3) 0.3418(2) 1.4750(2)
H6H H 0.77590 0.36070 1.48950
C15H C 0.7188(3) 0.3561(2) 1.4588(2)
H7H H 0.71070 0.38470 1.46240
C16H C 0.8136(3) 0.2801(3) 1.4865(3)
Zn1M Zn 0.30841(3) 0.30841(3) 1.30841(3)
O1M O -0.0843(3) 0.2438(2) 1.4450(2)
O2M O -0.07042(17) 0.26731(17) 1.50489(18)
O3M O 0.0981(2) 0.3951(2) 1.4374(3)
O4M O 0.1234(2) 0.2649(2) 1.3756(3)
O5M O 0.26777(13) 0.26777(13) 1.26777(13)
N1M N 0.27306(17) 0.35590(15) 1.33559(17)
N2M N 0.26018(16) 0.42072(16) 1.36319(15)
N3M N 0.0977(3) 0.3270(3) 1.4068(4)
C1M C 0.2874(2) 0.3963(2) 1.3429(2)
H1M H 0.31440 0.40580 1.33430
C2M C 0.23544(13) 0.35486(12) 1.35483(16)
C3M C 0.22674(12) 0.39502(12) 1.37233(16)
C4M C 0.18771(13) 0.40252(15) 1.39269(18)
H2M H 0.18190 0.42940 1.40440
C5M C 0.15737(18) 0.36987(14) 1.3955(2)
C6M C 0.16607(15) 0.32971(16) 1.3780(2)
C7M C 0.20511(12) 0.32221(17) 1.3577(2)
H3M H 0.21090 0.29530 1.34600
C8M C 0.1267(4) 0.3007(4) 1.3849(5)
C9M C 0.1155(4) 0.3672(3) 1.4160(4)
C10M C 0.05817(30) 0.31280(19) 1.4222(3)
C11M C 0.0460(3) 0.3182(2) 1.4648(3)
H4M H 0.06410 0.33270 1.48370
C12M C 0.0070(3) 0.3020(2) 1.47914(19)
H5M H -0.00110 0.30560 1.50770
C13M C -0.01996(30) 0.28040(17) 1.4508(2)
C14M C -0.0078(3) 0.2750(2) 1.4082(2)
H6M H -0.02590 0.26050 1.38930
C15M C 0.0312(3) 0.2912(2) 1.3939(2)
H7M H 0.03930 0.28760 1.36530
C16M C -0.0636(3) 0.2635(3) 1.4699(3)
O1R O 0.2438(3) 0.4450(2) 0.9157(2)
O2R O 0.26731(17) 0.50489(17) 0.92958(18)
O3R O 0.3951(2) 0.4374(2) 1.0981(3)
O4R O 0.2649(2) 0.3756(2) 1.1234(3)
N1R N 0.35590(17) 0.33559(15) 1.27306(17)
N2R N 0.42072(16) 0.36319(16) 1.26018(15)
N3R N 0.3270(3) 0.4068(3) 1.0977(4)
C1R C 0.3963(2) 0.3429(2) 1.2874(2)
H1R H 0.40580 0.33430 1.31440
C2R C 0.35486(13) 0.35483(12) 1.23544(16)
C3R C 0.39502(12) 0.37233(12) 1.22674(16)
C4R C 0.40252(13) 0.39269(15) 1.18771(18)
H2R H 0.42940 0.40440 1.18190
C5R C 0.36987(18) 0.39550(14) 1.15737(20)
C6R C 0.32971(15) 0.37800(16) 1.16607(20)
C7R C 0.32221(12) 0.35770(17) 1.20511(20)
H3R H 0.29530 0.34600 1.21090
C8R C 0.3007(4) 0.3849(4) 1.1267(5)
C9R C 0.3672(4) 0.4160(3) 1.1155(4)
C10R C 0.3128(3) 0.42220(19) 1.05817(30)
C11R C 0.3182(3) 0.4648(2) 1.0460(3)
H4R H 0.33270 0.48370 1.06410
C12R C 0.3020(3) 0.47914(20) 1.00700(19)
H5R H 0.30560 0.50770 0.99890
C13R C 0.2804(3) 0.45080(17) 0.98004(20)
C14R C 0.2750(3) 0.4082(2) 0.9922(2)
H6R H 0.26050 0.38930 0.97410
C15R C 0.2912(3) 0.3939(2) 1.0312(2)
H7R H 0.28760 0.36530 1.03930
C16R C 0.2635(3) 0.4699(3) 0.9364(3)
O1W O 0.4450(3) -0.0843(2) 1.2438(2)
O2W O 0.50489(17) -0.07042(17) 1.26731(18)
O3W O 0.4374(2) 0.0981(2) 1.3951(3)
O4W O 0.3756(2) 0.1234(2) 1.2649(3)
N1W N 0.33559(17) 0.27306(15) 1.35590(17)
N2W N 0.36319(16) 0.26018(16) 1.42072(15)
N3W N 0.4068(3) 0.0977(3) 1.3270(4)
C1W C 0.3429(2) 0.2874(2) 1.3963(2)
H1W H 0.33430 0.31440 1.40580
C2W C 0.35483(13) 0.23544(12) 1.35486(16)
C3W C 0.37233(12) 0.22674(12) 1.39502(16)
C4W C 0.39269(13) 0.18771(15) 1.40252(18)
H2W H 0.40440 0.18190 1.42940
C5W C 0.39550(18) 0.15737(14) 1.36987(20)
C6W C 0.37800(15) 0.16607(16) 1.32971(20)
C7W C 0.35770(12) 0.20511(17) 1.32221(20)
H3W H 0.34600 0.21090 1.29530
C8W C 0.3849(4) 0.1267(4) 1.3007(5)
C9W C 0.4160(4) 0.1155(3) 1.3672(4)
C10W C 0.4222(3) 0.05817(19) 1.3128(3)
C11W C 0.4648(3) 0.0460(2) 1.3182(3)
H4W H 0.48370 0.06410 1.33270
C12W C 0.47914(30) 0.0070(2) 1.30200(19)
H5W H 0.50770 -0.00110 1.30560
C13W C 0.4508(3) -0.01996(17) 1.2804(2)
C14W C 0.4082(3) -0.0078(2) 1.2750(2)
H6W H 0.38930 -0.02590 1.26050
C15W C 0.3939(3) 0.0312(2) 1.2912(2)
H7W H 0.36530 0.03930 1.28760
C16W C 0.4699(3) -0.0636(3) 1.2635(3)
Zn2A Zn 0.23570(2) 0.51430(2) 0.87500
Zn2A* Zn 0.23570(2) 0.51430(2) 1.87500
Zn2E Zn -0.12500(2) 0.23570(2) 1.51430
Zn2E* Zn 0.87500(2) 0.23570(2) 1.51430
Zn2I Zn 0.51430(2) -0.12500(2) 1.23570
Zn2I* Zn 0.51430(2) 0.87500(2) 1.23570
O1B O 0.4938(3) 0.3343(2) 1.1950(2)
O1F O 0.1950(3) 0.4938(2) 1.3343(2)
O1J O 0.3343(3) 0.1950(2) 1.4938(2)
O1O O 0.4157(3) 0.2562(2) 1.5550(2)
O1P O 0.2562(3) 0.5550(2) 1.4157(2)
O1U O 0.5550(3) 0.4157(2) 1.2562(2)
O2B O 0.51731(17) 0.32042(17) 1.25489(18)
O2F O 0.25489(17) 0.51731(17) 1.32042(18)
O2J O 0.32042(17) 0.25489(17) 1.51731(18)
O2O O 0.42958(17) 0.23269(17) 1.49511(18)
O2P O 0.23269(17) 0.49511(17) 1.42958(18)
O2U O 0.49511(17) 0.42958(17) 1.23269(18)
#END
