
#######################################################################
#
#                 Cambridge Crystallographic Data Centre
#                                CCDC
#
#######################################################################
#
# If this CIF has been generated from an entry in the Cambridge
# Structural Database, then it will include bibliographic, chemical,
# crystal, experimental, refinement or atomic coordinate data resulting
# from the CCDC's data processing and validation procedures.
#
#######################################################################

data_CSD_CIF_FILGUE
_audit_creation_date 2013-08-13
_audit_creation_method CSD-ConQuest-V1
_database_code_CSD FILGUE
_database_code_depnum_ccdc_archive 'CCDC 932848'
_chemical_formula_sum 'C42.5 H49.5 N6.5 Na2 O20.5 Zn3'
_chemical_formula_moiety
;
(C33 H24 N3 Na2 O18 Zn3 1-)n,n(C2 H8 N1 1+),2.5n(C3 H7 N1 O1)
;
_journal_coden_Cambridge 182
_journal_volume 49
_journal_year 2013
_journal_page_first 8438
_journal_name_full 'Chem.Commun. '
loop_
_publ_author_name
"Xing Meng"
"Xue-Zhi Song"
"Shu-Yan Song"
"Guo-Cheng Yang"
"Min Zhu"
"Zhao-Min Hao"
"Shu-Na Zhao"
"Hong-Jie Zhang"
_chemical_name_systematic
;
catena-(Dimethylammonium 
tris(\m~7~-N-(4-carboxylatophenyl)iminodiacetato)-di-sodium-tri-zinc 
dimethylformamide solvate)
;
_cell_volume   2479.972
_exptl_crystal_colour 'colorless'
_exptl_crystal_density_diffrn 1.636
_exptl_crystal_description 'hexagon'
_diffrn_ambient_temperature 293
_refine_special_details
;
The SQUEEZE/PLATON program was used to model the disordered cation and water 
molecule.
;
#These two values have been output from a single CSD field.
_refine_ls_R_factor_gt 0.053
_refine_ls_wR_factor_gt 0.053
_symmetry_cell_setting hexagonal
_symmetry_space_group_name_H-M 'P -3'
_symmetry_Int_Tables_number 147
loop_
_symmetry_equiv_pos_site_id
_symmetry_equiv_pos_as_xyz
1 x,y,z
2 -y,x-y,z
3 -x+y,-x,z
4 -x,-y,-z
5 y,-x+y,-z
6 x-y,x,-z
_cell_length_a 14.700(2)
_cell_length_b 14.700(2)
_cell_length_c 13.252(3)
_cell_angle_alpha 90
_cell_angle_beta 90
_cell_angle_gamma 120
_cell_formula_units_Z 2
loop_
_atom_type_symbol
_atom_type_radius_bond
C 0.68
H 0.23
N 0.68
Na 1.66
O 0.68
Zn 1.22
loop_
_atom_site_label
_atom_site_type_symbol
_atom_site_fract_x
_atom_site_fract_y
_atom_site_fract_z
C1 C 0.6455(6) 0.1111(7) 0.1086(7)
C2 C 0.6411(4) 0.0859(5) -0.0031(5)
C3 C 0.6252(4) -0.0089(5) -0.0360(4)
H1 H 0.62200 -0.05740 0.01100
C4 C 0.6135(4) -0.0350(4) -0.1370(4)
H2 H 0.60370 -0.09990 -0.15720
C5 C 0.6165(4) 0.0350(4) -0.2082(4)
C6 C 0.6322(5) 0.1322(4) -0.1750(5)
H3 H 0.63350 0.18030 -0.22140
C7 C 0.6241(4) -0.0704(4) -0.3469(4)
H4 H 0.68330 -0.06310 -0.30790
H5 H 0.64670 -0.05490 -0.41670
C8 C 0.6162(4) 0.0909(4) -0.3846(4)
H6 H 0.64120 0.07670 -0.44710
H7 H 0.67160 0.15760 -0.35890
C9 C 0.5370(4) -0.1831(4) -0.3406(4)
C10 C 0.5225(4) 0.1017(4) -0.4077(4)
C11 C 0.6456(5) 0.1565(5) -0.0749(5)
H8 H 0.65820 0.22230 -0.05430
N1 N 0.5978(3) 0.0082(3) -0.3113(3)
O1 O 0.5378(3) 0.1834(3) -0.4483(3)
O2 O 0.4312(3) 0.0246(3) -0.3889(3)
O3 O 0.5643(3) -0.2503(3) -0.3542(3)
O4 O 0.4450(3) -0.2040(2) -0.3221(2)
O5 O 0.6212(4) 0.0436(4) 0.1697(3)
O6 O 0.6759(4) 0.2069(5) 0.1277(4)
Zn1 Zn 0.60035(5) 0.09588(4) 0.30275(4)
Na1 Na 0.66670 0.33330 0.2004(2)
Na2 Na 0.66670 0.33330 -0.5270(2)
C1A C 0.8889(6) 0.5344(7) 0.1086(7)
C2A C 0.9141(4) 0.5552(5) -0.0031(5)
C3A C 1.0089(4) 0.6341(5) -0.0360(4)
H1A H 1.05740 0.67940 0.01100
C4A C 1.0350(4) 0.6485(4) -0.1370(4)
H2A H 1.09990 0.70360 -0.15720
C5A C 0.9650(4) 0.5815(4) -0.2082(4)
C6A C 0.8678(5) 0.5000(4) -0.1750(5)
H3A H 0.81970 0.45320 -0.22140
C7A C 1.0704(4) 0.6945(4) -0.3469(4)
H4A H 1.06310 0.74640 -0.30790
H5A H 1.05490 0.70160 -0.41670
C8A C 0.9091(4) 0.5253(4) -0.3846(4)
H6A H 0.92330 0.56450 -0.44710
H7A H 0.84240 0.51400 -0.35890
C9A C 1.1831(4) 0.7201(4) -0.3406(4)
C10A C 0.8983(4) 0.4208(4) -0.4077(4)
C11A C 0.8435(5) 0.4891(5) -0.0749(5)
H8A H 0.77770 0.43590 -0.05430
N1A N 0.9918(3) 0.5896(3) -0.3113(3)
O1A O 0.8166(3) 0.3544(3) -0.4483(3)
O2A O 0.9754(3) 0.4066(3) -0.3889(3)
O3A O 1.2503(3) 0.8146(3) -0.3542(3)
O4A O 1.2040(3) 0.6490(2) -0.3221(2)
O5A O 0.9564(4) 0.5776(4) 0.1697(3)
O6A O 0.7931(4) 0.4690(5) 0.1277(4)
Zn1A Zn 0.90412(5) 0.50447(4) 0.30275(4)
C1B C 0.4656(6) 0.3545(7) 0.1086(7)
C2B C 0.4448(4) 0.3589(5) -0.0031(5)
C3B C 0.3659(4) 0.3748(5) -0.0360(4)
H1B H 0.32060 0.37800 0.01100
C4B C 0.3515(4) 0.3865(4) -0.1370(4)
H2B H 0.29640 0.39630 -0.15720
C5B C 0.4185(4) 0.3835(4) -0.2082(4)
C6B C 0.5000(5) 0.3678(4) -0.1750(5)
H3B H 0.54680 0.36650 -0.22140
C7B C 0.3055(4) 0.3759(4) -0.3469(4)
H4B H 0.25360 0.31670 -0.30790
H5B H 0.29840 0.35330 -0.41670
C8B C 0.4747(4) 0.3838(4) -0.3846(4)
H6B H 0.43550 0.35880 -0.44710
H7B H 0.48600 0.32840 -0.35890
C9B C 0.2799(4) 0.4630(4) -0.3406(4)
C10B C 0.5792(4) 0.4775(4) -0.4077(4)
C11B C 0.5109(5) 0.3544(5) -0.0749(5)
H8B H 0.56410 0.34180 -0.05430
N1B N 0.4104(3) 0.4022(3) -0.3113(3)
O1B O 0.6456(3) 0.4622(3) -0.4483(3)
O2B O 0.5934(3) 0.5688(3) -0.3889(3)
O3B O 0.1854(3) 0.4357(3) -0.3542(3)
O4B O 0.3510(3) 0.5550(2) -0.3221(2)
O5B O 0.4224(4) 0.3788(4) 0.1697(3)
O6B O 0.5310(4) 0.3241(5) 0.1277(4)
Zn1B Zn 0.49553(5) 0.39965(4) 0.30275(4)
N1C N 0.4022(3) -0.0082(3) 0.3113(3)
N1D N 1.0082(3) 0.4104(3) 0.3113(3)
N1E N 0.5896(3) 0.5978(3) 0.3113(3)
O2C O 0.5688(3) -0.0246(3) 0.3889(3)
O2D O 1.0246(3) 0.5934(3) 0.3889(3)
O2E O 0.4066(3) 0.4312(3) 0.3889(3)
O3C O 0.4357(3) 0.2503(3) 0.3542(3)
O3D O 0.7497(3) 0.1854(3) 0.3542(3)
O3E O 0.8146(3) 0.5643(3) 0.3542(3)
O4C O 0.5550(3) 0.2040(2) -0.6779(2)
O4C* O 0.5550(3) 0.2040(2) 0.3221(2)
O4D O 0.7960(3) 0.3510(2) -0.6779(2)
O4D* O 0.7960(3) 0.3510(2) 0.3221(2)
O4E O 0.6490(3) 0.4450(2) -0.6779(2)
O4E* O 0.6490(3) 0.4450(2) 0.3221(2)
Zn1C Zn 0.39965(5) -0.09588(4) -0.30275(4)
Zn1C* Zn 1.39965(5) 0.90412(4) -0.30275(4)
Zn1D Zn 0.09588(5) 0.49553(4) -0.30275(4)
Zn1D* Zn 1.09588(5) 0.49553(4) -0.30275(4)
Zn1E Zn 0.50447(5) -0.39965(4) -0.30275(4)
Zn1E* Zn 0.50447(5) 0.60035(4) -0.30275(4)
Na1C Na 0.33330 -0.33330 -0.2004(2)
Na1C* Na 0.33330 0.66670 -0.2004(2)
Na1C** Na 1.33330 0.66670 -0.2004(2)
Na2C Na 0.33330 -0.33330 -0.4730(2)
Na2C* Na 0.33330 0.66670 -0.4730(2)
Na2C** Na 1.33330 0.66670 -0.4730(2)
#END
