
#######################################################################
#
#                 Cambridge Crystallographic Data Centre
#                                CCDC
#
#######################################################################
#
# If this CIF has been generated from an entry in the Cambridge
# Structural Database, then it will include bibliographic, chemical,
# crystal, experimental, refinement or atomic coordinate data resulting
# from the CCDC's data processing and validation procedures.
#
#######################################################################

data_CSD_CIF_FIMYUX
_audit_creation_date 2013-08-13
_audit_creation_method CSD-ConQuest-V1
_database_code_CSD FIMYUX
_database_code_depnum_ccdc_archive 'CCDC 921028'
_chemical_formula_sum 'C16 H26 Cu2 N3 O10.5'
_chemical_formula_moiety
;
(C12 H7 Cu2 N2 O7 1-)n,n(C4 H12 N1 1+),3.5n(H2 O1)
;
_journal_coden_Cambridge 1295
_journal_volume 33
_journal_year 2013
_journal_page_first 29
_journal_name_full 'Inorg.Chem.Commun. '
loop_
_publ_author_name
"Xiu-ping Zheng"
"Ying Lu"
"Huan Zhang"
"Zhi-ming Zhang"
"En-bo Wang"
_chemical_name_systematic
;
catena-[Tetramethylammonium 
(\m~6~-benzene-1,3,5-tricarboxylato)-(\m~2~-pyrazolato)-(\m~2~-hydroxo)-di-cop
per hydrate]
;
_cell_volume  14575.062
_exptl_crystal_colour 'blue'
_exptl_crystal_density_diffrn 1.519
_exptl_crystal_description 'block'
_diffrn_ambient_temperature 293
#These two values have been output from a single CSD field.
_refine_ls_R_factor_gt 0.0714
_refine_ls_wR_factor_gt 0.0714
_symmetry_cell_setting cubic
_symmetry_space_group_name_H-M 'P a -3'
_symmetry_Int_Tables_number 205
loop_
_symmetry_equiv_pos_site_id
_symmetry_equiv_pos_as_xyz
1 x,y,z
2 1/2-x,-y,1/2+z
3 1/2+x,1/2-y,-z
4 -x,1/2+y,1/2-z
5 z,x,y
6 1/2-z,-x,1/2+y
7 1/2+z,1/2-x,-y
8 -z,1/2+x,1/2-y
9 y,z,x
10 1/2+y,1/2-z,-x
11 -y,1/2+z,1/2-x
12 1/2-y,-z,1/2+x
13 -x,-y,-z
14 -1/2+x,y,-1/2-z
15 -1/2-x,-1/2+y,z
16 x,-1/2-y,-1/2+z
17 -z,-x,-y
18 -1/2+z,x,-1/2-y
19 -1/2-z,-1/2+x,y
20 z,-1/2-x,-1/2+y
21 -y,-z,-x
22 -1/2-y,-1/2+z,x
23 y,-1/2-z,-1/2+x
24 -1/2+y,z,-1/2-x
_cell_length_a 24.427(3)
_cell_length_b 24.427(3)
_cell_length_c 24.427(3)
_cell_angle_alpha 90
_cell_angle_beta 90
_cell_angle_gamma 90
_cell_formula_units_Z 24
loop_
_atom_type_symbol
_atom_type_radius_bond
C 0.68
H 0.23
Cu 1.32
N 0.68
O 0.68
loop_
_atom_site_label
_atom_site_type_symbol
_atom_site_fract_x
_atom_site_fract_y
_atom_site_fract_z
Cu1 Cu 0.05912(2) 0.21592(3) 0.38543(2)
Cu2 Cu 0.14849(2) 0.20257(3) 0.48689(2)
O1 O -0.16982(15) 0.05669(14) 0.37102(15)
O2 O 0.07903(14) 0.18629(17) 0.45479(14)
O3 O -0.01764(14) 0.19405(15) 0.39290(15)
O4 O -0.28928(16) 0.25755(16) 0.48015(18)
O5 O -0.23258(16) 0.32553(15) 0.45656(17)
O6 O -0.03857(19) 0.2764(2) 0.4264(3)
O7 O -0.2475(2) 0.0734(2) 0.4122(3)
N1 N 0.13800(18) 0.2264(2) 0.37199(18)
N2 N 0.17311(19) 0.2234(2) 0.41436(19)
C1 C 0.1670(3) 0.2316(3) 0.3259(3)
H1 H 0.15230 0.23490 0.29090
C2 C 0.2240(3) 0.2266(3) 0.3941(3)
H2 H 0.25590 0.22580 0.41490
C3 C -0.1104(2) 0.2121(2) 0.4174(2)
C4 C 0.2221(3) 0.2314(4) 0.3381(3)
H3 H 0.25130 0.23390 0.31380
C5 C -0.2449(2) 0.2761(2) 0.4615(2)
C6 C -0.2019(2) 0.0880(2) 0.3983(3)
C7 C -0.1810(2) 0.1435(2) 0.4126(2)
C8 C -0.2029(2) 0.2346(2) 0.4435(2)
C9 C -0.0515(2) 0.2296(2) 0.4117(2)
C10 C -0.1272(2) 0.1585(2) 0.4052(2)
H4 H -0.10190 0.13320 0.39210
C11 C -0.1491(2) 0.2498(2) 0.4360(2)
H5 H -0.13840 0.28560 0.44340
C12 C -0.2191(2) 0.1812(2) 0.4323(2)
H6 H -0.25520 0.17060 0.43810
O8 O 0.0500(5) 0.3153(4) 0.4853(6)
O9 O -0.0053(6) 0.0849(5) 0.4461(5)
N3 N 0.1634(8) 0.4034(5) 0.4142(5)
C13 C 0.1868(10) 0.3738(9) 0.4607(7)
H7 H 0.15860 0.35360 0.47900
H8 H 0.20290 0.39950 0.48580
H9 H 0.21450 0.34900 0.44790
C14 C 0.1454(9) 0.3664(6) 0.3776(7)
H10 H 0.11300 0.34890 0.39140
H11 H 0.17330 0.33940 0.37150
H12 H 0.13710 0.38450 0.34370
C15 C 0.2183(9) 0.4281(6) 0.3922(7)
H13 H 0.21090 0.44990 0.36040
H14 H 0.23460 0.45060 0.42000
H15 H 0.24290 0.39900 0.38280
C16 C 0.1339(9) 0.4537(6) 0.4245(7)
H16 H 0.09800 0.44620 0.43870
H17 H 0.15410 0.47510 0.45050
H18 H 0.13070 0.47360 0.39080
Cu1Q Cu -0.11457(2) 0.05912(3) 0.28408(2)
Cu1W Cu -0.28408(2) 0.38543(3) 0.44088(2)
Cu2B Cu -0.35151(2) 0.29743(3) 0.51311(2)
Cu2J Cu -0.20257(2) -0.01311(3) 0.35151(2)
Cu2Q Cu -0.01311(2) 0.14849(3) 0.29743(2)
O1E O 0.12898(15) 0.16982(14) 0.55669(15)
O1V O 0.05669(15) 0.12898(14) 0.33018(15)
O3V O 0.19405(14) 0.10710(15) 0.48236(15)
O4B O 0.21072(16) 0.24245(16) 0.51985(18)
O5R O 0.04344(16) 0.26742(15) 0.32553(17)
#END
