
#######################################################################
#
#                 Cambridge Crystallographic Data Centre
#                                CCDC
#
#######################################################################
#
# If this CIF has been generated from an entry in the Cambridge
# Structural Database, then it will include bibliographic, chemical,
# crystal, experimental, refinement or atomic coordinate data resulting
# from the CCDC's data processing and validation procedures.
#
#######################################################################

data_CSD_CIF_FIMZAE
_audit_creation_date 2013-08-13
_audit_creation_method CSD-ConQuest-V1
_database_code_CSD FIMZAE
_database_code_depnum_ccdc_archive 'CCDC 921027'
_chemical_formula_sum 'C17 H27 Cu2 N3 O10'
_chemical_formula_moiety
;
(C13 H9 Cu2 N2 O7 1-)n,n(C4 H12 N1 1+),3n(H2 O1)
;
_journal_coden_Cambridge 1295
_journal_volume 33
_journal_year 2013
_journal_page_first 29
_journal_name_full 'Inorg.Chem.Commun. '
loop_
_publ_author_name
"Xiu-ping Zheng"
"Ying Lu"
"Huan Zhang"
"Zhi-ming Zhang"
"En-bo Wang"
_chemical_name_systematic
;
catena-[Tetramethylammonium 
(\m~6~-benzene-1,3,5-tricarboxylato)-(\m~2~-pyrazolato)-(\m~2~-methoxo)-di-cop
per hydrate]
;
_cell_volume  14695.323
_exptl_crystal_colour 'blue'
_exptl_crystal_density_diffrn 1.52
_exptl_crystal_description 'block'
_diffrn_ambient_temperature 296
#These two values have been output from a single CSD field.
_refine_ls_R_factor_gt 0.042
_refine_ls_wR_factor_gt 0.042
_symmetry_cell_setting cubic
_symmetry_space_group_name_H-M 'P a -3'
_symmetry_Int_Tables_number 205
loop_
_symmetry_equiv_pos_site_id
_symmetry_equiv_pos_as_xyz
1 x,y,z
2 1/2-x,-y,1/2+z
3 -x,1/2+y,1/2-z
4 1/2+x,1/2-y,-z
5 z,x,y
6 1/2+z,1/2-x,-y
7 1/2-z,-x,1/2+y
8 -z,1/2+x,1/2-y
9 y,z,x
10 -y,1/2+z,1/2-x
11 1/2+y,1/2-z,-x
12 1/2-y,-z,1/2+x
13 -x,-y,-z
14 -1/2+x,y,-1/2-z
15 x,-1/2-y,-1/2+z
16 -1/2-x,-1/2+y,z
17 -z,-x,-y
18 -1/2-z,-1/2+x,y
19 -1/2+z,x,-1/2-y
20 z,-1/2-x,-1/2+y
21 -y,-z,-x
22 y,-1/2-z,-1/2+x
23 -1/2-y,-1/2+z,x
24 -1/2+y,z,-1/2-x
_cell_length_a 24.494(11)
_cell_length_b 24.494(11)
_cell_length_c 24.494(11)
_cell_angle_alpha 90
_cell_angle_beta 90
_cell_angle_gamma 90
_cell_formula_units_Z 24
loop_
_atom_type_symbol
_atom_type_radius_bond
C 0.68
H 0.23
Cu 1.32
N 0.68
O 0.68
loop_
_atom_site_label
_atom_site_type_symbol
_atom_site_fract_x
_atom_site_fract_y
_atom_site_fract_z
Cu1 Cu 0.202663(19) 0.484101(18) 0.146121(18)
Cu2 Cu 0.214023(19) 0.383052(17) 0.056308(18)
N1 N 0.22397(14) 0.41168(14) 0.17034(13)
N2 N 0.22575(15) 0.36941(13) 0.13500(13)
O1 O 0.19413(11) 0.39076(11) -0.02115(10)
O2 O 0.05523(10) 0.37149(11) -0.17202(11)
O3 O 0.18256(12) 0.45166(10) 0.07731(11)
O4 O 0.32260(11) 0.46008(12) -0.23478(11)
O5 O 0.25486(12) 0.48298(13) -0.29217(12)
O6 O 0.27609(13) 0.42498(17) -0.04237(13)
O7 O 0.06857(14) 0.41850(19) -0.24786(15)
C1 C 0.21007(15) 0.41754(16) -0.11340(15)
C2 C 0.15677(15) 0.40590(16) -0.12936(16)
C3 C 0.27274(15) 0.46477(15) -0.24770(16)
C4 C 0.14101(15) 0.41467(16) -0.18340(16)
C5 C 0.23157(15) 0.44588(16) -0.20599(15)
C6 C 0.17841(16) 0.43580(17) -0.22134(17)
C7 C 0.24760(16) 0.43662(16) -0.15224(16)
C8 C 0.22918(17) 0.41054(17) -0.05491(15)
C9 C 0.2303(2) 0.3232(2) 0.1640(2)
H1 H 0.23230 0.28830 0.14940
C10 C 0.08406(16) 0.40111(18) -0.20305(16)
C11 C 0.2313(3) 0.3356(2) 0.2191(2)
H2 H 0.23410 0.31140 0.24820
C12 C 0.2273(2) 0.3914(2) 0.22122(18)
H3 H 0.22700 0.41210 0.25310
C13 C 0.1426(4) 0.4778(4) 0.0424(4)
H4 H 0.13730 0.45630 0.01010
H5 H 0.15540 0.51350 0.03240
H6 H 0.10860 0.48110 0.06160
H7 H 0.1340(17) 0.3921(16) -0.1064(17)
H8 H 0.2856(17) 0.4409(16) -0.1426(16)
H9 H 0.167(2) 0.444(2) -0.258(2)
N3 N 0.4121(3) 0.3422(3) -0.0946(2)
C14 C 0.4608(4) 0.3219(5) -0.1224(5)
H10 H 0.48930 0.31620 -0.09620
H11 H 0.47250 0.34820 -0.14900
H12 H 0.45240 0.28810 -0.14030
C15 C 0.3718(5) 0.3532(7) -0.1348(5)
H13 H 0.33890 0.36540 -0.11740
H14 H 0.36450 0.32050 -0.15520
H15 H 0.38480 0.38110 -0.15910
C16 C 0.3922(7) 0.3063(9) -0.0566(7)
H16 H 0.36060 0.32170 -0.03930
H17 H 0.41980 0.29930 -0.02960
H18 H 0.38240 0.27270 -0.07420
C17 C 0.4205(9) 0.3897(9) -0.0676(10)
H19 H 0.38760 0.40010 -0.04890
H20 H 0.43030 0.41770 -0.09320
H21 H 0.44940 0.38500 -0.04160
O8 O 0.3139(2) 0.4801(3) 0.0479(3)
O9 O 0.50000 0.50000 0.00000
O10 O 0.3608(7) 0.6392(7) 0.1392(7)
Cu1A Cu 0.297337(19) 0.515899(18) -0.353879(18)
Cu1J Cu -0.015899(19) 0.353879(18) -0.202663(18)
Cu1S Cu 0.146121(19) 0.297337(18) -0.015899(18)
Cu2S Cu 0.056308(19) 0.285977(17) -0.116948(18)
Cu2U Cu 0.383052(19) 0.443692(17) -0.285977(18)
O1V O 0.10924(11) 0.47885(11) 0.19413(10)
O2G O 0.17202(10) 0.55523(11) 0.12851(11)
O2V O 0.12851(10) 0.32798(11) 0.05523(11)
O4R O 0.26522(11) 0.32260(12) 0.03992(11)
O5A O 0.24514(12) 0.51702(13) 0.20783(12)
#END
