
#######################################################################
#
#                 Cambridge Crystallographic Data Centre
#                                CCDC
#
#######################################################################
#
# If this CIF has been generated from an entry in the Cambridge
# Structural Database, then it will include bibliographic, chemical,
# crystal, experimental, refinement or atomic coordinate data resulting
# from the CCDC's data processing and validation procedures.
#
#######################################################################

data_CSD_CIF_FINFUG
_audit_creation_date 2018-09-04
_audit_creation_method CSD-ConQuest-V1
_database_code_CSD FINFUG
_database_code_depnum_ccdc_archive 'CCDC 1840494'
_chemical_formula_sum 'C71 H100 Dy3 N10 O25.5'
_chemical_formula_moiety
;
(C42 H28 Dy3 O16 1-)n,C2 H8 N1 1+,9(C3 H7 N1 O1),0.5(H2 O1)
;
_journal_coden_Cambridge 1475
_journal_volume 9
_journal_year 2018
_journal_page_first 8099
_journal_name_full 'Chemical Science '
loop_
_publ_author_name
"Chong Liu"
"S.V.Eliseeva"
"Tian-Yi Luo"
"P.F.Muldoon"
"S.Petoud"
"N.L.Rosi"
_chemical_name_systematic
;
catena-[dimethylammonium 
tris(\m-[1,1'-biphenyl]-4,4'-dicarboxylato)-tetrakis(\m-hydroxo)-tri-dysprosiu
m N,N-dimethylformamide solvate hemihydrate]
;
_cell_volume  20946.744
_exptl_crystal_colour 'colorless'
_exptl_crystal_description 'octahedron'
_diffrn_ambient_temperature 240
_refine_special_details
;
There are a number of severely disordered solvent molecules that could not be 
located.
;
#These two values have been output from a single CSD field.
_refine_ls_R_factor_gt 0.0562
_refine_ls_wR_factor_gt 0.0562
_symmetry_cell_setting cubic
_symmetry_space_group_name_H-M 'F m -3 m'
_symmetry_Int_Tables_number 225
loop_
_symmetry_equiv_pos_site_id
_symmetry_equiv_pos_as_xyz
1 x,y,z
2 -x,-y,z
3 -x,y,-z
4 x,-y,-z
5 z,x,y
6 z,-x,-y
7 -z,-x,y
8 -z,x,-y
9 y,z,x
10 -y,z,-x
11 y,-z,-x
12 -y,-z,x
13 y,x,-z
14 -y,-x,-z
15 y,-x,z
16 -y,x,z
17 x,z,-y
18 -x,z,y
19 -x,-z,-y
20 x,-z,y
21 z,y,-x
22 z,-y,x
23 -z,y,x
24 -z,-y,-x
25 x,1/2+y,1/2+z
26 -x,1/2-y,1/2+z
27 -x,1/2+y,1/2-z
28 x,1/2-y,1/2-z
29 z,1/2+x,1/2+y
30 z,1/2-x,1/2-y
31 -z,1/2-x,1/2+y
32 -z,1/2+x,1/2-y
33 y,1/2+z,1/2+x
34 -y,1/2+z,1/2-x
35 y,1/2-z,1/2-x
36 -y,1/2-z,1/2+x
37 y,1/2+x,1/2-z
38 -y,1/2-x,1/2-z
39 y,1/2-x,1/2+z
40 -y,1/2+x,1/2+z
41 x,1/2+z,1/2-y
42 -x,1/2+z,1/2+y
43 -x,1/2-z,1/2-y
44 x,1/2-z,1/2+y
45 z,1/2+y,1/2-x
46 z,1/2-y,1/2+x
47 -z,1/2+y,1/2+x
48 -z,1/2-y,1/2-x
49 1/2+x,y,1/2+z
50 1/2-x,-y,1/2+z
51 1/2-x,y,1/2-z
52 1/2+x,-y,1/2-z
53 1/2+z,x,1/2+y
54 1/2+z,-x,1/2-y
55 1/2-z,-x,1/2+y
56 1/2-z,x,1/2-y
57 1/2+y,z,1/2+x
58 1/2-y,z,1/2-x
59 1/2+y,-z,1/2-x
60 1/2-y,-z,1/2+x
61 1/2+y,x,1/2-z
62 1/2-y,-x,1/2-z
63 1/2+y,-x,1/2+z
64 1/2-y,x,1/2+z
65 1/2+x,z,1/2-y
66 1/2-x,z,1/2+y
67 1/2-x,-z,1/2-y
68 1/2+x,-z,1/2+y
69 1/2+z,y,1/2-x
70 1/2+z,-y,1/2+x
71 1/2-z,y,1/2+x
72 1/2-z,-y,1/2-x
73 1/2+x,1/2+y,z
74 1/2-x,1/2-y,z
75 1/2-x,1/2+y,-z
76 1/2+x,1/2-y,-z
77 1/2+z,1/2+x,y
78 1/2+z,1/2-x,-y
79 1/2-z,1/2-x,y
80 1/2-z,1/2+x,-y
81 1/2+y,1/2+z,x
82 1/2-y,1/2+z,-x
83 1/2+y,1/2-z,-x
84 1/2-y,1/2-z,x
85 1/2+y,1/2+x,-z
86 1/2-y,1/2-x,-z
87 1/2+y,1/2-x,z
88 1/2-y,1/2+x,z
89 1/2+x,1/2+z,-y
90 1/2-x,1/2+z,y
91 1/2-x,1/2-z,-y
92 1/2+x,1/2-z,y
93 1/2+z,1/2+y,-x
94 1/2+z,1/2-y,x
95 1/2-z,1/2+y,x
96 1/2-z,1/2-y,-x
97 -x,-y,-z
98 x,y,-z
99 x,-y,z
100 -x,y,z
101 -z,-x,-y
102 -z,x,y
103 z,x,-y
104 z,-x,y
105 -y,-z,-x
106 y,-z,x
107 -y,z,x
108 y,z,-x
109 -y,-x,z
110 y,x,z
111 -y,x,-z
112 y,-x,-z
113 -x,-z,y
114 x,-z,-y
115 x,z,y
116 -x,z,-y
117 -z,-y,x
118 -z,y,-x
119 z,-y,-x
120 z,y,x
121 -x,-1/2-y,-1/2-z
122 x,-1/2+y,-1/2-z
123 x,-1/2-y,-1/2+z
124 -x,-1/2+y,-1/2+z
125 -z,-1/2-x,-1/2-y
126 -z,-1/2+x,-1/2+y
127 z,-1/2+x,-1/2-y
128 z,-1/2-x,-1/2+y
129 -y,-1/2-z,-1/2-x
130 y,-1/2-z,-1/2+x
131 -y,-1/2+z,-1/2+x
132 y,-1/2+z,-1/2-x
133 -y,-1/2-x,-1/2+z
134 y,-1/2+x,-1/2+z
135 -y,-1/2+x,-1/2-z
136 y,-1/2-x,-1/2-z
137 -x,-1/2-z,-1/2+y
138 x,-1/2-z,-1/2-y
139 x,-1/2+z,-1/2+y
140 -x,-1/2+z,-1/2-y
141 -z,-1/2-y,-1/2+x
142 -z,-1/2+y,-1/2-x
143 z,-1/2-y,-1/2-x
144 z,-1/2+y,-1/2+x
145 -1/2-x,-y,-1/2-z
146 -1/2+x,y,-1/2-z
147 -1/2+x,-y,-1/2+z
148 -1/2-x,y,-1/2+z
149 -1/2-z,-x,-1/2-y
150 -1/2-z,x,-1/2+y
151 -1/2+z,x,-1/2-y
152 -1/2+z,-x,-1/2+y
153 -1/2-y,-z,-1/2-x
154 -1/2+y,-z,-1/2+x
155 -1/2-y,z,-1/2+x
156 -1/2+y,z,-1/2-x
157 -1/2-y,-x,-1/2+z
158 -1/2+y,x,-1/2+z
159 -1/2-y,x,-1/2-z
160 -1/2+y,-x,-1/2-z
161 -1/2-x,-z,-1/2+y
162 -1/2+x,-z,-1/2-y
163 -1/2+x,z,-1/2+y
164 -1/2-x,z,-1/2-y
165 -1/2-z,-y,-1/2+x
166 -1/2-z,y,-1/2-x
167 -1/2+z,-y,-1/2-x
168 -1/2+z,y,-1/2+x
169 -1/2-x,-1/2-y,-z
170 -1/2+x,-1/2+y,-z
171 -1/2+x,-1/2-y,z
172 -1/2-x,-1/2+y,z
173 -1/2-z,-1/2-x,-y
174 -1/2-z,-1/2+x,y
175 -1/2+z,-1/2+x,-y
176 -1/2+z,-1/2-x,y
177 -1/2-y,-1/2-z,-x
178 -1/2+y,-1/2-z,x
179 -1/2-y,-1/2+z,x
180 -1/2+y,-1/2+z,-x
181 -1/2-y,-1/2-x,z
182 -1/2+y,-1/2+x,z
183 -1/2-y,-1/2+x,-z
184 -1/2+y,-1/2-x,-z
185 -1/2-x,-1/2-z,y
186 -1/2+x,-1/2-z,-y
187 -1/2+x,-1/2+z,y
188 -1/2-x,-1/2+z,-y
189 -1/2-z,-1/2-y,x
190 -1/2-z,-1/2+y,-x
191 -1/2+z,-1/2-y,-x
192 -1/2+z,-1/2+y,x
_cell_length_a 27.5659(2)
_cell_length_b 27.5659(2)
_cell_length_c 27.5659(2)
_cell_angle_alpha 90
_cell_angle_beta 90
_cell_angle_gamma 90
_cell_formula_units_Z 8
loop_
_atom_type_symbol
_atom_type_radius_bond
C 0.68
H 0.23
Dy 1.92
O 0.68
loop_
_atom_site_label
_atom_site_type_symbol
_atom_site_fract_x
_atom_site_fract_y
_atom_site_fract_z
Dy1 Dy 0.50000 0.60001(3) 0.50000
C1 C 0.50000 0.6204(4) 0.6204(4)
C2 C 0.50000 0.6593(4) 0.6593(4)
C3 C 0.50000 0.7069(6) 0.6472(5)
H1 H 0.50000 0.71580 0.61430
C4 C 0.50000 0.7428(6) 0.6828(6)
H2 H 0.50000 0.77570 0.67360
C5 C 0.50000 0.7307(4) 0.7307(4)
O1 O 0.50000 0.6359(3) 0.5761(2)
O2 O 0.45415(16) 0.54585(16) 0.45415(16)
O3 O 0.3619(13) 0.6381(13) 0.6381(13)
C3Q C 0.50000 0.6472(6) 0.7069(5)
H1Q H 0.50000 0.61430 0.71580
C4Q C 0.50000 0.6828(6) 0.7428(6)
H2Q H 0.50000 0.67360 0.77570
O1Q O 0.50000 0.5761(3) 0.6359(2)
C1AA C 0.50000 0.8796(4) 0.8796(4)
C2AA C 0.50000 0.8407(4) 0.8407(4)
C3AA C 0.50000 0.7931(6) 0.8528(5)
H1AA H 0.50000 0.78420 0.88570
C4AA C 0.50000 0.7572(6) 0.8172(6)
H2AA H 0.50000 0.72430 0.82640
C5AA C 0.50000 0.7693(4) 0.7693(4)
O1AA O 0.50000 0.8641(3) 0.9239(2)
C3PA C 0.50000 0.8528(6) 0.7931(5)
H1PA H 0.50000 0.88570 0.78420
C4PA C 0.50000 0.8172(6) 0.7572(6)
H2PA H 0.50000 0.82640 0.72430
O1PA O 0.50000 0.9239(3) 0.8641(2)
C1B C 0.50000 0.6204(4) 0.3796(4)
C2B C 0.50000 0.6593(4) 0.3407(4)
C3B C 0.50000 0.7069(6) 0.3528(5)
H1B H 0.50000 0.71580 0.38570
C4B C 0.50000 0.7428(6) 0.3172(6)
H2B H 0.50000 0.77570 0.32640
C5B C 0.50000 0.7307(4) 0.2693(4)
O1B O 0.50000 0.6359(3) 0.4239(2)
O2B O 0.54585(16) 0.54585(16) 0.54585(16)
C3P C 0.50000 0.6472(6) 0.2931(5)
H1P H 0.50000 0.61430 0.28420
C4P C 0.50000 0.6828(6) 0.2572(6)
H2P H 0.50000 0.67360 0.22430
O1P O 0.50000 0.5761(3) 0.3641(2)
C1Y C 0.50000 0.8796(4) 0.1204(4)
C2Y C 0.50000 0.8407(4) 0.1593(4)
C3Y C 0.50000 0.7931(6) 0.1472(5)
H1Y H 0.50000 0.78420 0.11430
C4Y C 0.50000 0.7572(6) 0.1828(6)
H2Y H 0.50000 0.72430 0.17360
C5Y C 0.50000 0.7693(4) 0.2307(4)
O1Y O 0.50000 0.8641(3) 0.0761(2)
C3QA C 0.50000 0.8528(6) 0.2069(5)
H1QA H 0.50000 0.88570 0.21580
C4QA C 0.50000 0.8172(6) 0.2428(6)
H2QA H 0.50000 0.82640 0.27570
O1QA O 0.50000 0.9239(3) 0.1359(2)
Dy1D Dy 0.50000 0.50000(3) 0.60001
C1D C 0.62040 0.5000(4) 0.6204(4)
C2D C 0.65930 0.5000(4) 0.6593(4)
C3D C 0.64720 0.5000(6) 0.7069(5)
H1D H 0.61430 0.50000 0.71580
C4D C 0.68280 0.5000(6) 0.7428(6)
H2D H 0.67360 0.50000 0.77570
C5D C 0.73070 0.5000(4) 0.7307(4)
O1D O 0.57610 0.5000(3) 0.6359(2)
O2C O 0.45415(16) 0.45415(16) 0.54585(16)
C3N C 0.70690 0.5000(6) 0.6472(5)
H1N H 0.71580 0.50000 0.61430
C4N C 0.74280 0.5000(6) 0.6828(6)
H2N H 0.77570 0.50000 0.67360
O1N O 0.63590 0.5000(3) 0.5761(2)
C1CB C 0.87960 0.5000(4) 0.8796(4)
C2CB C 0.84070 0.5000(4) 0.8407(4)
C3CB C 0.85280 0.5000(6) 0.7931(5)
H1CB H 0.88570 0.50000 0.78420
C4CB C 0.81720 0.5000(6) 0.7572(6)
H2CB H 0.82640 0.50000 0.72430
C5CB C 0.76930 0.5000(4) 0.7693(4)
O1CB O 0.92390 0.5000(3) 0.8641(2)
C3IB C 0.79310 0.5000(6) 0.8528(5)
H1IB H 0.78420 0.50000 0.88570
C4IB C 0.75720 0.5000(6) 0.8172(6)
H2IB H 0.72430 0.50000 0.82640
O1IB O 0.86410 0.5000(3) 0.9239(2)
Dy1E Dy 0.50000 0.50000(3) 0.39999
O2A O 0.54585(16) 0.45415(16) 0.45415(16)
Dy1A Dy 0.50000 0.39999(3) 0.50000
Dy1H Dy 0.60001 0.50000(3) 0.50000
Dy1I Dy 0.39999 0.50000(3) 0.50000
Dy1Y Dy 0.50000 0.89999(3) 0.00000
Dy1Y* Dy 0.50000 0.89999(3) 1.00000
Dy1BA Dy 0.50000 1.00000(3) 0.10001
Dy1CA Dy 0.50000 1.00000(3) 0.89999
Dy1AB Dy 1.00000 0.50000(3) 0.89999
Dy1EB Dy 0.89999 0.50000(3) 1.00000
O1E O 0.57610 0.5000(3) 0.3641(2)
O1F O 0.42390 0.5000(3) 0.6359(2)
O1G O 0.42390 0.5000(3) 0.3641(2)
O1R O 0.50000 0.4239(3) 0.3641(2)
O1S O 0.50000 0.4239(3) 0.6359(2)
O1T O 0.57610 0.6359(3) 0.5000(2)
O1V O 0.42390 0.6359(3) 0.5000(2)
O2L O 0.54585(16) 0.45415(16) 0.54585(16)
O2M O 0.45415(16) 0.54585(16) 0.54585(16)
O2N O 0.54585(16) 0.54585(16) 0.45415(16)
O2O O 0.45415(16) 0.45415(16) 0.45415(16)
#END
