
#######################################################################
#
#                 Cambridge Crystallographic Data Centre
#                                CCDC
#
#######################################################################
#
# If this CIF has been generated from an entry in the Cambridge
# Structural Database, then it will include bibliographic, chemical,
# crystal, experimental, refinement or atomic coordinate data resulting
# from the CCDC's data processing and validation procedures.
#
#######################################################################

data_CSD_CIF_FIPKUM
_audit_creation_date 2013-12-23
_audit_creation_method CSD-ConQuest-V1
_database_code_CSD FIPKUM
_database_code_depnum_ccdc_archive 'CCDC 964932'
_chemical_formula_sum 'C31 H41 N5 O14 Zn1'
_chemical_formula_moiety
;
(C24 H12 N2 O10 Zn1 2-)n,n(C3 H7 N1 O1),2n(C2 H8 N1 1+),3n(H2 O1)
;
_journal_coden_Cambridge 1699
_journal_volume 2
_journal_year 2014
_journal_page_first 2213
_journal_name_full 'J.Mater.Chem.A '
loop_
_publ_author_name
"Guan-Yao Wang"
"Chan Song"
"De-Ming Kong"
"Wen-Juan Ruan"
"Ze Chang"
"Yue Li"
_chemical_name_systematic
;
catena-[bis(dimethylammonium) 
(\m~4~-5,5'-(benzene-1,4-diylbis(carbonylimino))dibenzene-1,3-dicarboxylato)-z
inc N,N-dimethylformamide solvate trihydrate]
;
_cell_volume   1757.900
_exptl_crystal_colour 'colorless'
_exptl_crystal_density_diffrn 1.461
_exptl_crystal_description 'block'
_diffrn_ambient_temperature 293
#These two values have been output from a single CSD field.
_refine_ls_R_factor_gt 0.0678
_refine_ls_wR_factor_gt 0.0678
_symmetry_cell_setting triclinic
_symmetry_space_group_name_H-M 'P -1'
_symmetry_Int_Tables_number 2
loop_
_symmetry_equiv_pos_site_id
_symmetry_equiv_pos_as_xyz
1 x,y,z
2 -x,-y,-z
_cell_length_a 10.004(2)
_cell_length_b 10.293(2)
_cell_length_c 17.914(4)
_cell_angle_alpha 103.66(3)
_cell_angle_beta 99.58(3)
_cell_angle_gamma 93.45(3)
_cell_formula_units_Z 2
loop_
_atom_type_symbol
_atom_type_radius_bond
C 0.68
H 0.23
N 0.68
O 0.68
Zn 1.22
loop_
_atom_site_label
_atom_site_type_symbol
_atom_site_fract_x
_atom_site_fract_y
_atom_site_fract_z
C1 C 0.6829(4) 0.4955(4) -0.2836(2)
C2 C 0.5796(3) 0.5241(3) -0.23073(19)
C3 C 0.4419(3) 0.4977(3) -0.2638(2)
H1 H 0.41520 0.46570 -0.31770
C4 C 0.3440(3) 0.5189(3) -0.21709(19)
C5 C 0.1954(4) 0.4903(3) -0.2529(2)
C6 C 0.3837(3) 0.5688(3) -0.1369(2)
H2 H 0.31810 0.58200 -0.10540
C7 C 0.5209(3) 0.5991(3) -0.10323(19)
C8 C 0.6186(3) 0.5764(3) -0.1509(2)
H3 H 0.71070 0.59660 -0.12880
C9 C 0.4958(4) 0.7344(4) 0.0251(2)
C10 C 0.5477(4) 0.7658(4) 0.1112(2)
C11 C 0.6859(4) 0.7823(4) 0.1441(2)
H4 H 0.75070 0.76860 0.11210
C12 C 0.7264(4) 0.8193(4) 0.2247(2)
H5 H 0.81870 0.83110 0.24660
C13 C 0.6312(4) 0.8386(4) 0.2727(2)
C14 C 0.4940(4) 0.8185(4) 0.2401(2)
H6 H 0.42940 0.82980 0.27230
C15 C 0.4523(4) 0.7816(4) 0.1599(2)
H7 H 0.35980 0.76730 0.13840
C16 C 0.6716(4) 0.8910(4) 0.3596(2)
C17 C 0.8205(4) 0.8676(3) 0.4782(2)
C18 C 0.8539(4) 0.7667(3) 0.5155(2)
H8 H 0.84240 0.67730 0.48730
C19 C 0.9046(4) 0.8006(3) 0.5955(2)
C20 C 0.9376(4) 0.6937(4) 0.6392(2)
C21 C 0.9216(4) 0.9343(3) 0.6374(2)
H9 H 0.95550 0.95660 0.69090
C22 C 0.8881(3) 1.0355(3) 0.59987(19)
C23 C 0.9071(3) 1.1800(3) 0.6459(2)
C24 C 0.8403(4) 1.0009(3) 0.5200(2)
H10 H 0.82120 1.06800 0.49410
N1 N 0.7686(3) 0.8305(3) 0.39606(16)
H11 H 0.80170 0.76500 0.36790
N2 N 0.5636(3) 0.6495(3) -0.02151(16)
H12 H 0.63770 0.62450 0.00010
O1 O 0.8064(2) 0.4956(3) -0.25109(15)
O2 O 0.6430(3) 0.4759(4) -0.35463(16)
O3 O 0.1612(3) 0.4341(3) -0.32489(16)
O4 O 0.1077(2) 0.5222(3) -0.21137(17)
O5 O 0.3947(3) 0.7837(3) -0.00041(16)
O6 O 0.6159(4) 0.9841(4) 0.39305(17)
O7 O 0.9125(3) 0.5712(2) 0.60148(15)
O8 O 0.9865(4) 0.7296(3) 0.70941(17)
O9 O 0.9426(3) 1.2081(3) 0.71797(15)
O10 O 0.8871(2) 1.2703(2) 0.60817(14)
Zn1 Zn 0.94399(4) 0.45780(4) -0.32053(2)
C25 C 0.6886(6) 0.9214(6) 0.8774(4)
H13 H 0.65040 0.93880 0.92220
C26 C 0.6578(7) 0.8595(7) 0.7387(4)
H14 H 0.75460 0.85600 0.74980
H15 H 0.63810 0.92870 0.71200
H16 H 0.61480 0.77440 0.70620
C27 C 0.4609(5) 0.8729(6) 0.8052(4)
H17 H 0.42640 0.78090 0.78060
H18 H 0.41980 0.93000 0.77450
H19 H 0.43920 0.89730 0.85660
N3 N 0.6067(4) 0.8885(4) 0.8109(3)
O11 O 0.8156(4) 0.9316(4) 0.8863(3)
C28 C 0.7447(8) 0.3507(7) 0.4382(3)
H20 H 0.73520 0.26640 0.39970
H21 H 0.83970 0.38040 0.45740
H22 H 0.70210 0.41630 0.41480
C29 C 0.5381(8) 0.2778(10) 0.4836(5)
H23 H 0.51040 0.24660 0.42790
H24 H 0.48230 0.34580 0.50330
H25 H 0.52790 0.20400 0.50710
N4 N 0.6801(5) 0.3340(5) 0.5024(2)
H26 H 0.68610 0.41500 0.53630
H27 H 0.72860 0.28100 0.52740
O12 O 0.8111(3) 0.5347(3) 0.01839(13)
H28 H 0.82720 0.49240 -0.02550
H29 H 0.88540 0.55570 0.05140
O13 O 0.9111(4) 0.4031(3) 0.88877(12)
H30 H 0.88290 0.41640 0.84400
H31 H 0.93020 0.32250 0.88350
O14 O 0.9612(4) 0.1446(3) 0.85597(13)
H32 H 0.90880 0.08670 0.86710
H33 H 0.96640 0.12010 0.80790
C30 C 0.1510(5) 0.8808(6) 0.8754(3)
H34 H 0.13530 0.96530 0.90740
H35 H 0.15130 0.88900 0.82310
H36 H 0.23750 0.85570 0.89640
C31 C 0.0376(5) 0.7566(6) 0.9500(3)
H37 H 0.12410 0.73280 0.97200
H38 H -0.03210 0.68530 0.94530
H39 H 0.01710 0.83760 0.98350
N5 N 0.0431(4) 0.7779(4) 0.8741(2)
H40 H -0.03760 0.80210 0.85430
H41 H 0.05630 0.70000 0.84210
O3* O 1.1612(3) 0.4341(3) -0.32489(16)
O4* O 1.1077(2) 0.5222(3) -0.21137(17)
O7* O 0.9125(3) 0.5712(2) -0.39852(15)
O10* O 0.8871(2) 0.2703(2) -0.39183(14)
Zn1* Zn -0.05601(4) 0.45780(4) -0.32053(2)
Zn1** Zn 0.94399(4) 0.45780(4) 0.67947(2)
Zn1*** Zn 0.94399(4) 1.45780(4) 0.67947(2)
#END
