
#######################################################################
#
#                 Cambridge Crystallographic Data Centre
#                                CCDC
#
#######################################################################
#
# If this CIF has been generated from an entry in the Cambridge
# Structural Database, then it will include bibliographic, chemical,
# crystal, experimental, refinement or atomic coordinate data resulting
# from the CCDC's data processing and validation procedures.
#
#######################################################################

data_CSD_CIF_FIPKOG
_audit_creation_date 2013-12-23
_audit_creation_method CSD-ConQuest-V1
_database_code_CSD FIPKOG
_database_code_depnum_ccdc_archive 'CCDC 964931'
_chemical_formula_sum 'C31 H41 Cd1 N5 O14'
_chemical_formula_moiety
;
(C24 H12 Cd1 N2 O10 2-)n,n(C3 H7 N1 O1),2n(C2 H8 N1 1+),3n(H2 O1)
;
_journal_coden_Cambridge 1699
_journal_volume 2
_journal_year 2014
_journal_page_first 2213
_journal_name_full 'J.Mater.Chem.A '
loop_
_publ_author_name
"Guan-Yao Wang"
"Chan Song"
"De-Ming Kong"
"Wen-Juan Ruan"
"Ze Chang"
"Yue Li"
_chemical_name_systematic
;
catena-[bis(dimethylammonium) 
(\m~4~-5,5'-(benzene-1,4-diylbis(carbonylimino))dibenzene-1,3-dicarboxylato)-c
;
_cell_volume   1837.310
_exptl_crystal_colour 'colorless'
_exptl_crystal_density_diffrn 1.482
_exptl_crystal_description 'block'
_diffrn_ambient_temperature 293
#These two values have been output from a single CSD field.
_refine_ls_R_factor_gt 0.0706
_refine_ls_wR_factor_gt 0.0706
_symmetry_cell_setting triclinic
_symmetry_space_group_name_H-M 'P -1'
_symmetry_Int_Tables_number 2
loop_
_symmetry_equiv_pos_site_id
_symmetry_equiv_pos_as_xyz
1 x,y,z
2 -x,-y,-z
_cell_length_a 10.217(2)
_cell_length_b 10.362(2)
_cell_length_c 18.118(4)
_cell_angle_alpha 102.53(3)
_cell_angle_beta 99.35(3)
_cell_angle_gamma 93.79(3)
_cell_formula_units_Z 2
loop_
_atom_type_symbol
_atom_type_radius_bond
C 0.68
H 0.23
Cd 1.44
N 0.68
O 0.68
loop_
_atom_site_label
_atom_site_type_symbol
_atom_site_fract_x
_atom_site_fract_y
_atom_site_fract_z
C1 C 0.2159(5) -0.0124(5) -0.2488(3)
C2 C 0.3602(5) 0.0184(4) -0.2108(3)
C3 C 0.4616(5) -0.0046(5) -0.2538(3)
H1 H 0.44010 -0.03900 -0.30670
C4 C 0.5945(5) 0.0239(5) -0.2179(3)
C5 C 0.7043(5) -0.0064(5) -0.2642(3)
C6 C 0.6250(5) 0.0776(5) -0.1395(3)
H2 H 0.71390 0.09770 -0.11540
C7 C 0.5252(5) 0.1019(5) -0.0962(3)
C8 C 0.3934(5) 0.0700(5) -0.1317(3)
H3 H 0.32630 0.08300 -0.10260
C9 C 0.4921(5) 0.2331(5) 0.0281(3)
C10 C 0.5428(5) 0.2679(5) 0.1133(3)
C11 C 0.6781(5) 0.2849(5) 0.1452(3)
H4 H 0.74160 0.27150 0.11370
C12 C 0.7170(6) 0.3221(5) 0.2245(3)
H5 H 0.80740 0.33390 0.24580
C13 C 0.6244(6) 0.3420(5) 0.2723(3)
C14 C 0.6657(6) 0.3920(6) 0.3573(3)
C15 C 0.4894(6) 0.3230(5) 0.2399(3)
H6 H 0.42630 0.33490 0.27180
C16 C 0.4479(5) 0.2867(5) 0.1614(3)
H7 H 0.35740 0.27480 0.14030
C17 C 0.8132(5) 0.3638(5) 0.4726(3)
C18 C 0.8358(5) 0.4956(5) 0.5135(3)
H8 H 0.81620 0.56350 0.48860
C19 C 0.8883(5) 0.5255(5) 0.5922(3)
C20 C 0.9115(5) 0.6708(5) 0.6352(3)
C21 C 0.9201(5) 0.4238(5) 0.6279(3)
H9 H 0.95610 0.44390 0.68010
C22 C 0.8994(5) 0.2918(5) 0.5871(3)
C23 C 0.9306(5) 0.1802(5) 0.6269(3)
C24 C 0.8454(5) 0.2629(5) 0.5087(3)
H10 H 0.83110 0.17510 0.48070
Cd1 Cd -0.04815(3) -0.04702(3) -0.315817(19)
N1 N 0.5619(4) 0.1527(4) -0.0151(2)
H11 H 0.63430 0.12990 0.00780
N2 N 0.7591(5) 0.3309(4) 0.3924(2)
H12 H 0.78950 0.26600 0.36420
O1 O 0.1281(3) 0.0182(4) -0.2086(2)
O2 O 0.1869(3) -0.0648(3) -0.31945(19)
O3 O 0.6744(4) -0.0388(5) -0.3353(2)
O4 O 0.8215(4) 0.0032(4) -0.2277(2)
O5 O 0.3908(4) 0.2776(5) 0.0014(2)
O6 O 0.6106(5) 0.4840(5) 0.3916(2)
O7 O 0.9043(4) 0.0632(3) 0.5871(2)
O8 O 0.9780(5) 0.2071(4) 0.6957(2)
O9 O 0.8919(4) 0.7572(3) 0.5963(2)
O10 O 0.9524(4) 0.7011(4) 0.7058(2)
C25 C 0.1517(7) 0.3647(8) 0.8619(5)
H13 H 0.14020 0.44840 0.89410
H14 H 0.14370 0.37290 0.80970
H15 H 0.23840 0.33970 0.87870
C26 C 0.0423(8) 0.2540(8) 0.9462(4)
H16 H 0.12810 0.23870 0.97140
H17 H -0.02230 0.18180 0.94520
H18 H 0.01660 0.33560 0.97370
N3 N 0.0493(5) 0.2631(5) 0.8670(3)
H19 H 0.06570 0.18360 0.84040
H20 H -0.03060 0.28090 0.84460
C27 C 0.7015(12) 0.4108(10) 0.8658(8)
H21 H 0.67250 0.43230 0.91260
C28 C 0.6547(13) 0.3453(12) 0.7308(8)
H22 H 0.63700 0.41450 0.70400
H23 H 0.60640 0.26300 0.70100
H24 H 0.74850 0.33620 0.73850
N4 N 0.6130(7) 0.3789(6) 0.8042(5)
O11 O 0.8253(6) 0.4148(7) 0.8668(5)
C29 C 0.4749(10) 0.3688(10) 0.8030(6)
H25 H 0.45840 0.38060 0.85460
H26 H 0.43520 0.28270 0.77340
H27 H 0.43650 0.43620 0.78020
O12 O 0.9661(6) 0.6428(4) 0.84800(16)
H28 H 0.90600 0.58470 0.85130
H29 H 0.95340 0.65610 0.80280
O13 O 0.9098(5) 0.8972(4) 0.89818(17)
H30 H 0.88260 0.92850 0.85950
H31 H 0.91830 0.81500 0.88320
O14 O 0.8113(4) 0.0411(5) 0.02356(17)
H32 H 0.88500 0.06590 0.05450
H33 H 0.82470 -0.01020 -0.01740
N5 N 0.6911(6) 0.8494(6) 0.5055(4)
H34 H 0.67880 0.93480 0.52370
H35 H 0.75470 0.82810 0.54000
C30 C 0.7437(10) 0.8417(10) 0.4346(6)
H36 H 0.74570 0.75020 0.40990
H37 H 0.83240 0.88660 0.44650
H38 H 0.68750 0.88340 0.40090
C31 C 0.5587(14) 0.7626(15) 0.5032(9)
H39 H 0.50300 0.75010 0.45360
H40 H 0.51290 0.80670 0.54210
H41 H 0.57900 0.67780 0.51250
Cd1* Cd 0.95185(3) -0.04702(3) -0.315817(19)
Cd1** Cd 0.95185(3) -0.04702(3) 0.684183(19)
Cd1*** Cd 0.95185(3) 0.95298(3) 0.684183(19)
O3* O -0.3256(4) -0.0388(5) -0.3353(2)
O4* O -0.1785(4) 0.0032(4) -0.2277(2)
O7* O -0.0957(4) 0.0632(3) -0.4129(2)
O8* O -0.0220(5) 0.2071(4) -0.3043(2)
O9* O -0.1081(4) -0.2428(3) -0.4037(2)
O10* O -0.0476(4) -0.2989(4) -0.2942(2)
#END
