
#######################################################################
#
#                 Cambridge Crystallographic Data Centre
#                                CCDC
#
#######################################################################
#
# If this CIF has been generated from an entry in the Cambridge
# Structural Database, then it will include bibliographic, chemical,
# crystal, experimental, refinement or atomic coordinate data resulting
# from the CCDC's data processing and validation procedures.
#
#######################################################################

data_CSD_CIF_FIPKOG01
_audit_creation_date 2014-11-26
_audit_creation_method CSD-ConQuest-V1
_database_code_CSD FIPKOG01
_database_code_depnum_ccdc_archive 'CCDC 1010783'
_chemical_formula_sum 'C31 H41 Cd1 N5 O14'
_chemical_formula_moiety
;
(C24 H12 Cd1 N2 O10 2-)n,n(C3 H7 N1 O1),2n(C2 H8 N1 1+),3n(H2 O1)
;
_journal_coden_Cambridge 1290
_journal_year 2014
_journal_page_first 6239
_journal_name_full 'Eur.J.Inorg.Chem. '
loop_
_publ_author_name
"Fengqin Wang"
"Caifu Dong"
"Zechuan Wang"
"Yaru Cui"
"Chengmiao Wang"
"Yongnan Zhao"
"Guodong Li"
_chemical_name_systematic
;
catena-[bis(dimethylammonium) 
(\m-5,5'-[benzene-1,4-diylbis(carbonylimino)]dibenzene-1,3-dicarboxylato)-cadm
ium N,N-dimethylformamide solvate trihydrate]
;
_cell_volume   1828.029
_exptl_crystal_density_diffrn 1.49
_diffrn_ambient_temperature 293
#These two values have been output from a single CSD field.
_refine_ls_R_factor_gt 0.0416
_refine_ls_wR_factor_gt 0.0416
_symmetry_cell_setting triclinic
_symmetry_space_group_name_H-M 'P -1'
_symmetry_Int_Tables_number 2
loop_
_symmetry_equiv_pos_site_id
_symmetry_equiv_pos_as_xyz
1 x,y,z
2 -x,-y,-z
_cell_length_a 10.184(2)
_cell_length_b 10.348(2)
_cell_length_c 18.091(4)
_cell_angle_alpha 102.34(3)
_cell_angle_beta 99.19(3)
_cell_angle_gamma 93.95(3)
_cell_formula_units_Z 2
loop_
_atom_type_symbol
_atom_type_radius_bond
C 0.68
H 0.23
Cd 1.44
N 0.68
O 0.68
loop_
_atom_site_label
_atom_site_type_symbol
_atom_site_fract_x
_atom_site_fract_y
_atom_site_fract_z
Cd1 Cd 1.547258(16) 0.546827(18) 0.815568(10)
O1 O 1.31209(18) 0.5652(2) 0.81962(10)
O2 O 1.37106(17) 0.4816(2) 0.70866(11)
O3 O 0.8237(2) 0.5388(3) 0.83483(14)
O4 O 0.6769(2) 0.4956(2) 0.72659(13)
O5 O 1.1100(2) 0.2240(3) 0.49828(13)
O6 O 0.8884(3) 0.0139(3) 0.10837(14)
O7 O 0.6070(2) -0.25757(19) -0.09692(12)
O8 O 0.5477(2) -0.2003(2) -0.20645(12)
O9 O 0.5215(3) 0.2927(3) -0.19613(13)
O10 O 0.5945(2) 0.4367(2) -0.08746(13)
N1 N 0.9380(2) 0.3480(3) 0.51504(12)
H1 H 0.8574(17) 0.367(3) 0.4951(17)
N2 N 0.7397(3) 0.1681(2) 0.10732(12)
H2 H 0.728(3) 0.2519(14) 0.1281(17)
C1 C 1.2832(2) 0.5121(2) 0.74889(14)
C2 C 1.1387(2) 0.4818(3) 0.71052(14)
C3 C 1.1069(2) 0.4299(3) 0.63174(14)
H3 H 1.17480 0.41570 0.60310
C4 C 0.9741(2) 0.3989(3) 0.59552(14)
C5 C 0.8735(2) 0.4226(3) 0.63895(15)
H4 H 0.78440 0.40220 0.61500
C6 C 0.9044(2) 0.4764(3) 0.71756(15)
C7 C 1.0378(2) 0.5042(3) 0.75386(15)
H5 H 1.05940 0.53760 0.80680
C8 C 0.7953(3) 0.5061(3) 0.76369(18)
C9 C 1.0080(3) 0.2670(3) 0.47180(15)
C10 C 0.9573(3) 0.2327(3) 0.38652(15)
C11 C 0.8213(3) 0.2156(3) 0.35480(16)
H6 H 0.75760 0.22890 0.38650
C12 C 0.7817(3) 0.1783(3) 0.27470(16)
H7 H 0.69130 0.16770 0.25320
C13 C 0.8753(3) 0.1572(3) 0.22764(15)
C14 C 1.0116(3) 0.1762(3) 0.25981(17)
H8 H 1.07520 0.16420 0.22800
C15 C 1.0515(3) 0.2125(3) 0.33808(17)
H9 H 1.14220 0.22380 0.35910
C16 C 0.8352(3) 0.1072(3) 0.14253(16)
C17 C 0.6870(3) 0.1352(3) 0.02761(14)
C18 C 0.6538(3) 0.2372(3) -0.00875(15)
H10 H 0.66710 0.32500 0.01920
C19 C 0.6006(3) 0.2075(3) -0.08714(15)
C20 C 0.5797(3) 0.0755(3) -0.12901(15)
H11 H 0.54460 0.05580 -0.18130
C21 C 0.6116(3) -0.0268(3) -0.09240(15)
C22 C 0.6642(3) 0.0040(3) -0.01383(15)
H12 H 0.68410 -0.06410 0.01100
C23 C 0.5878(3) -0.1704(3) -0.13535(16)
C24 C 0.5691(3) 0.3192(3) -0.12689(17)
O11 O 0.3250(4) 0.9137(5) 0.3657(3)
N3 N 0.1125(4) 0.8784(4) 0.3042(3)
C25 C 0.2009(6) 0.9104(6) 0.3658(5)
H13 H 0.17220 0.93230 0.41280
C26 C -0.0271(5) 0.8671(6) 0.3026(5)
H14 H -0.06710 0.78350 0.26980
H15 H -0.06480 0.93850 0.28330
H16 H -0.04430 0.87160 0.35370
C27 C 0.1545(9) 0.8445(7) 0.2317(5)
H17 H 0.14580 0.91720 0.20670
H18 H 0.09970 0.76690 0.20020
H19 H 0.24630 0.82640 0.23930
N4 N 0.8093(4) 0.6537(4) -0.0061(2)
H20 H 0.74590 0.67980 -0.03880
H21 H 0.81850 0.56840 -0.02670
C28 C 0.7585(7) 0.6572(7) 0.0658(3)
H22 H 0.81390 0.61090 0.09720
H23 H 0.66840 0.61510 0.05430
H24 H 0.76020 0.74800 0.09300
C29 C 0.9412(7) 0.7365(9) -0.0029(5)
H25 H 0.92340 0.82360 -0.00960
H26 H 0.98530 0.69390 -0.04320
H27 H 0.99750 0.74410 0.04600
N5 N 0.4501(3) 0.2365(3) 0.63318(17)
H28 H 0.43450 0.31630 0.65980
H29 H 0.52980 0.21790 0.65550
C30 C 0.4578(5) 0.2458(5) 0.5550(2)
H30 H 0.49320 0.16840 0.52930
H31 H 0.51530 0.32390 0.55600
H32 H 0.37000 0.25120 0.52790
C31 C 0.3469(4) 0.1364(5) 0.6387(3)
H33 H 0.26050 0.16000 0.61970
H34 H 0.35200 0.13140 0.69150
H35 H 0.36020 0.05150 0.60860
O12 O 0.5328(4) 0.8574(4) 0.6513(2)
H36 H 0.580(5) 0.929(3) 0.650(3)
H37 H 0.550(5) 0.833(5) 0.6942(17)
O13 O 0.5890(3) 0.6032(4) 0.60154(16)
H38 H 0.631(4) 0.569(4) 0.6376(17)
H39 H 0.560(5) 0.678(3) 0.620(2)
O14 O 0.6879(3) 0.4573(4) 0.47656(16)
H40 H 0.611(2) 0.427(4) 0.4496(19)
H41 H 0.690(4) 0.520(3) 0.5160(17)
Cd1* Cd 0.547258(16) -0.453173(18) -0.184432(10)
Cd1** Cd 0.547258(16) 0.546827(18) -0.184432(10)
Cd1*** Cd 0.547258(16) 0.546827(18) 0.815568(10)
O3* O 1.8237(2) 0.5388(3) 0.83483(14)
O4* O 1.6769(2) 0.4956(2) 0.72659(13)
O7* O 1.6070(2) 0.74243(19) 0.90308(12)
O8* O 1.5477(2) 0.7997(2) 0.79355(12)
O9* O 1.5215(3) 0.2927(3) 0.80387(13)
O10* O 1.5945(2) 0.4367(2) 0.91254(13)
#END
