
#######################################################################
#
#                 Cambridge Crystallographic Data Centre
#                                CCDC
#
#######################################################################
#
# If this CIF has been generated from an entry in the Cambridge
# Structural Database, then it will include bibliographic, chemical,
# crystal, experimental, refinement or atomic coordinate data resulting
# from the CCDC's data processing and validation procedures.
#
#######################################################################

data_CSD_CIF_FIQDAN
_audit_creation_date 2018-09-04
_audit_creation_method CSD-ConQuest-V1
_database_code_CSD FIQDAN
_database_code_depnum_ccdc_archive 'CCDC 1590373'
_chemical_formula_sum 'C28 H28 N2 O13 Zn2'
_chemical_formula_moiety
;
(C23 H11 O11 Zn2 1-)n,n(C2 H8 N1 1+),n(C3 H7 N1 O1),n(H2 O1)
;
_journal_coden_Cambridge 222
_journal_volume 47
_journal_year 2018
_journal_page_first 1682
_journal_name_full 'Dalton Trans. '
loop_
_publ_author_name
"Yang-Tian Yan"
"Wen-Yan Zhang"
"Fang Zhang"
"Feng Cao"
"Rui-Feng Yang"
"Yao-Yu Wang"
"Lei Hou"
_chemical_name_systematic
;
catena-(dimethylammonium 
(\m-[1^1^,2^1^:2^3^,3^1^-terphenyl]-1^2^,1^4^,2^5^,3^2^,3^4^-pentacarboxylato)
-aqua-di-zinc dimethylformamide solvate monohydrate)
;
_cell_volume   1893.488
_exptl_crystal_colour 'colorless'
_exptl_crystal_description 'block'
_diffrn_ambient_temperature 173
_refine_special_details
;
The SQUEEZE/PLATON program was used to model the disordered solvent 
;
#These two values have been output from a single CSD field.
_refine_ls_R_factor_gt 0.0791
_refine_ls_wR_factor_gt 0.0791
_symmetry_cell_setting triclinic
_symmetry_space_group_name_H-M 'P -1'
_symmetry_Int_Tables_number 2
loop_
_symmetry_equiv_pos_site_id
_symmetry_equiv_pos_as_xyz
1 x,y,z
2 -x,-y,-z
_cell_length_a 12.252(5)
_cell_length_b 12.820(5)
_cell_length_c 13.635(6)
_cell_angle_alpha 65.009(7)
_cell_angle_beta 79.056(7)
_cell_angle_gamma 79.551(7)
_cell_formula_units_Z 2
loop_
_atom_type_symbol
_atom_type_radius_bond
C 0.68
H 0.23
N 0.68
O 0.68
Zn 1.22
loop_
_atom_site_label
_atom_site_type_symbol
_atom_site_fract_x
_atom_site_fract_y
_atom_site_fract_z
Zn1 Zn 1.54116(5) 0.92546(6) -0.11370(5)
Zn2 Zn 1.08889(5) 0.53397(5) 0.53935(5)
O1 O 1.4042(3) 0.8556(4) -0.0813(4)
O2 O 1.4417(4) 0.6880(4) 0.0581(5)
O3 O 1.1215(4) 0.6190(4) 0.3740(3)
O4 O 0.9888(4) 0.5713(4) 0.3151(4)
O5 O 0.6488(3) 0.8784(3) -0.0123(3)
O6 O 0.5227(3) 0.9167(4) 0.1127(3)
O7 O 0.5890(4) 0.9753(4) 0.7275(4)
O8 O 0.6703(5) 0.7999(5) 0.8057(4)
O9 O 0.8337(4) 0.6131(4) 0.4775(4)
O10 O 0.9649(4) 0.6648(4) 0.5366(4)
O11 O 1.2081(5) 0.5793(5) 0.5855(5)
H1 H 1.22650 0.62360 0.51670
H2 H 1.22960 0.50550 0.61370
C1 C 1.3777(5) 0.7710(6) 0.0022(6)
C2 C 1.2534(5) 0.7710(5) 0.0430(5)
C3 C 1.1798(5) 0.8561(5) -0.0271(5)
H3 H 1.20600 0.90680 -0.09880
C4 C 1.0658(5) 0.8614(5) 0.0152(5)
H4 H 1.01330 0.91300 -0.03150
C5 C 1.0273(4) 0.7945(4) 0.1218(4)
C6 C 1.1029(5) 0.7088(5) 0.1879(5)
C7 C 1.2149(5) 0.6993(5) 0.1462(5)
H5 H 1.26600 0.64160 0.19050
C8 C 1.0666(5) 0.6268(5) 0.3023(5)
C9 C 0.9082(5) 0.8178(5) 0.1670(5)
C10 C 0.8226(5) 0.8377(5) 0.1045(5)
H6 H 0.83850 0.83140 0.03610
C11 C 0.7146(5) 0.8667(5) 0.1441(5)
C12 C 0.6901(5) 0.8743(5) 0.2440(5)
H7 H 0.61480 0.89340 0.26990
C13 C 0.7743(5) 0.8541(5) 0.3072(5)
C14 C 0.8832(5) 0.8287(5) 0.2648(5)
H8 H 0.94250 0.81850 0.30500
C15 C 0.6207(5) 0.8902(5) 0.0798(5)
C16 C 0.7487(5) 0.8659(5) 0.4125(5)
C17 C 0.6747(5) 0.9565(6) 0.4206(5)
H9 H 0.64420 1.01340 0.35760
C18 C 0.6434(5) 0.9660(5) 0.5213(5)
H10 H 0.59140 1.02880 0.52620
C19 C 0.6880(5) 0.8842(5) 0.6135(5)
C20 C 0.7668(6) 0.7947(6) 0.6041(5)
H11 H 0.80070 0.74060 0.66620
C21 C 0.7962(5) 0.7835(6) 0.5056(5)
C22 C 0.8700(6) 0.6789(6) 0.5059(5)
C23 C 0.6475(6) 0.8872(6) 0.7249(5)
N1 N 1.6625(15) 0.6148(16) 0.0208(16)
H12 H 1.70620 0.66710 -0.03160
H13 H 1.59130 0.64990 0.02590
C24 C 1.706(3) 0.568(3) 0.126(3)
H14 H 1.73210 0.48500 0.14730
H15 H 1.64700 0.57760 0.18210
H16 H 1.76910 0.60880 0.12010
C25 C 1.6654(17) 0.5120(18) -0.004(2)
H17 H 1.67050 0.53660 -0.08340
H18 H 1.59700 0.47480 0.03120
H19 H 1.73060 0.45680 0.02260
Zn1* Zn 0.54116(5) 0.92546(6) -0.11370(5)
Zn1** Zn 0.54116(5) 0.92546(6) 0.88630(5)
Zn1A Zn 0.45884(5) 1.07454(6) 0.11370(5)
Zn2A Zn 0.91111(5) 0.46603(5) 0.46065(5)
O4A O 1.0112(4) 0.4287(4) 0.6849(4)
O5* O 1.6488(3) 0.8784(3) -0.0123(3)
O6A O 1.4773(3) 1.0833(4) -0.1127(3)
O7* O 1.5890(4) 0.9753(4) -0.2725(4)
O8* O 1.6703(5) 0.7999(5) -0.1943(4)
O9A O 1.1663(4) 0.3869(4) 0.5225(4)
#END
