
#######################################################################
#
#                 Cambridge Crystallographic Data Centre
#                                CCDC
#
#######################################################################
#
# If this CIF has been generated from an entry in the Cambridge
# Structural Database, then it will include bibliographic, chemical,
# crystal, experimental, refinement or atomic coordinate data resulting
# from the CCDC's data processing and validation procedures.
#
#######################################################################

data_CSD_CIF_FIQGES
_audit_creation_date 2005-06-07
_audit_creation_method CSD-ConQuest-V1
_database_code_CSD FIQGES
_database_code_depnum_ccdc_archive 'CCDC 269576'
_chemical_formula_sum 'C11 H14 N2 O12 Zr1'
_chemical_formula_moiety
;
(C5 H14 N2 2+)n,n(C6 O12 Zr1 2-)
;
_journal_coeditor_code "IUCr HB6152"
_journal_coden_Cambridge 1370
_journal_volume 61
_journal_year 2005
_journal_page_first m491
_journal_name_full 'Acta Crystallogr.,Sect.E:Struct.Rep.Online '
loop_
_publ_author_name
"Yun-Long Fu"
"Jia-Lin Ren"
"S.W.Ng"
_chemical_name_systematic
;
catena-(N-Methylpiperazinium) 
(\m~2~-oxalato-O,O',O'',O''')-(bis(oxalato-O,O')-zirconium(iv))
;
_cell_volume   1448.349
_exptl_crystal_colour 'colorless'
_exptl_crystal_density_diffrn 2.098
_exptl_crystal_description 'prism'
_diffrn_ambient_temperature 295
#These two values have been output from a single CSD field.
_refine_ls_R_factor_gt 0.019
_refine_ls_wR_factor_gt 0.019
_symmetry_cell_setting monoclinic
_symmetry_space_group_name_H-M 'P 21/c'
_symmetry_Int_Tables_number 14
loop_
_symmetry_equiv_pos_site_id
_symmetry_equiv_pos_as_xyz
1 x,y,z
2 -x,1/2+y,1/2-z
3 -x,-y,-z
4 x,-1/2-y,-1/2+z
_cell_length_a 9.5936(5)
_cell_length_b 11.3569(5)
_cell_length_c 13.9792(7)
_cell_angle_alpha 90
_cell_angle_beta 108.023(1)
_cell_angle_gamma 90
_cell_formula_units_Z 4
loop_
_atom_type_symbol
_atom_type_radius_bond
C 0.68
H 0.23
N 0.68
O 0.68
Zr 1.56
loop_
_atom_site_label
_atom_site_type_symbol
_atom_site_fract_x
_atom_site_fract_y
_atom_site_fract_z
Zr1 Zr 0.40531(1) 0.61472(1) 0.23939(1)
O1 O 0.6077(1) 0.4936(1) 0.2636(1)
O2 O 0.6764(1) 0.3025(1) 0.2752(1)
O3 O 0.3347(1) 0.4277(1) 0.2314(1)
O4 O 0.4056(1) 0.2390(1) 0.2481(1)
O5 O 0.2496(1) 0.6116(1) 0.3232(1)
O6 O 0.2142(1) 0.6073(1) 0.4741(1)
O7 O 0.5241(1) 0.6283(1) 0.3955(1)
O8 O 0.5242(1) 0.6361(1) 0.5547(1)
O9 O 0.1869(1) 0.6149(1) 0.1280(1)
O10 O 0.0619(1) 0.6209(1) -0.0358(1)
O11 O 0.4349(1) 0.6068(1) 0.0951(1)
O12 O 0.3312(2) 0.6238(1) -0.0715(1)
N1 N 0.8003(1) 0.7599(1) 0.5989(1)
N2 N 1.0445(1) 0.6961(1) 0.7717(1)
C1 C 0.5861(1) 0.3860(1) 0.2638(1)
C2 C 0.4290(1) 0.3470(1) 0.2471(1)
C3 C 0.2933(2) 0.6142(1) 0.4214(1)
C4 C 0.4613(2) 0.6275(1) 0.4648(1)
C5 C 0.1762(2) 0.6175(1) 0.0343(1)
C6 C 0.3253(2) 0.6163(1) 0.0135(1)
C7 C 0.9129(2) 0.6723(1) 0.5911(1)
C8 C 0.9829(2) 0.6096(1) 0.6899(1)
C9 C 0.9313(2) 0.7801(2) 0.7814(1)
C10 C 0.8637(2) 0.8440(1) 0.6834(1)
C11 C 0.7405(2) 0.8263(2) 0.5022(1)
H1 H 0.731(2) 0.719(2) 0.607(1)
H2 H 1.112(2) 0.737(2) 0.759(1)
H3 H 1.075(2) 0.662(2) 0.829(1)
H4 H 0.98830 0.71250 0.57070
H5 H 0.86710 0.61470 0.53980
H6 H 0.91020 0.56130 0.70650
H7 H 1.06040 0.55830 0.68350
H8 H 0.97550 0.83660 0.83410
H9 H 0.85580 0.73780 0.80010
H10 H 0.78710 0.89610 0.69010
H11 H 0.93780 0.89190 0.66810
H12 H 0.69960 0.77180 0.44830
H13 H 0.81800 0.87000 0.48880
H14 H 0.66560 0.87960 0.50760
Zr1A Zr 0.59469(1) 0.11472(1) 0.26061(1)
O2A O 0.3236(1) 0.8025(1) 0.2248(1)
O4A O 0.5944(1) 0.7390(1) 0.2519(1)
#END
