
#######################################################################
#
#                 Cambridge Crystallographic Data Centre
#                                CCDC
#
#######################################################################
#
# If this CIF has been generated from an entry in the Cambridge
# Structural Database, then it will include bibliographic, chemical,
# crystal, experimental, refinement or atomic coordinate data resulting
# from the CCDC's data processing and validation procedures.
#
#######################################################################

data_CSD_CIF_FIQQED
_audit_creation_date 2013-12-31
_audit_creation_method CSD-ConQuest-V1
_database_code_CSD FIQQED
_database_code_depnum_ccdc_archive 'CCDC 833027'
_chemical_formula_sum 'C28 H97 B1 N8 Na2 O77 Sr2 W12'
_chemical_formula_moiety
;
(C28 H51 B1 N4 O62 Sr2 W12 6-)n,2n(Na1 1+),4n(H4 N1 1+),15n(H2 O1)
;
_journal_coden_Cambridge 971
_journal_volume 20
_journal_year 2013
_journal_page_first 80
_journal_name_full 'Solid State Sciences '
loop_
_publ_author_name
"Chun-Hua Zhang"
"Ya-Guang Chen"
_chemical_name_systematic
;
catena-(tetrakis(Ammonium) di-sodium (\m~12~-borato)-bis(\m~2~-hydrogen 
cyclohexane-1,2-diamine-N,N,N',N'-tetra-acetato)-bis(\m~2~-aqua)-(\m~2~-hydrox
o)-pentacosakis(\m~2~-oxo)-tetra-aqua-decaoxo-di-strontium-dodeca-tungsten 
pentadecahydrate)
;
_cell_volume   2306.750
_exptl_crystal_colour 'colorless'
_exptl_crystal_density_diffrn 3.017
_exptl_crystal_description 'block'
_diffrn_ambient_temperature 293
_refine_special_details
;
The borate moiety is disordered by symmetry.

;
#These two values have been output from a single CSD field.
_refine_ls_R_factor_gt 0.0621
_refine_ls_wR_factor_gt 0.0621
_symmetry_cell_setting triclinic
_symmetry_space_group_name_H-M 'P -1'
_symmetry_Int_Tables_number 2
loop_
_symmetry_equiv_pos_site_id
_symmetry_equiv_pos_as_xyz
1 x,y,z
2 -x,-y,-z
_cell_length_a 12.358(5)
_cell_length_b 12.658(5)
_cell_length_c 16.481(5)
_cell_angle_alpha 99.659(5)
_cell_angle_beta 99.233(5)
_cell_angle_gamma 110.824(5)
_cell_formula_units_Z 1
loop_
_atom_type_symbol
_atom_type_radius_bond
C 0.68
H 0.23
B 0.83
N 0.68
Na 1.66
O 0.68
Sr 1.95
W 1.62
loop_
_atom_site_label
_atom_site_type_symbol
_atom_site_fract_x
_atom_site_fract_y
_atom_site_fract_z
W1 W 0.22493(6) 1.11995(6) 0.89824(5)
W2 W -0.24513(6) 0.74294(6) 0.89583(5)
W3 W 0.27957(6) 0.99176(6) 1.06291(5)
W4 W 0.03164(7) 0.73334(6) 0.96804(5)
W5 W -0.01377(7) 0.85528(7) 0.79772(5)
W6 W -0.06014(7) 1.11375(6) 0.82872(5)
O1 O 0.1979(16) 0.8391(14) 1.0029(11)
O2 O 0.0291(16) 0.7543(13) 1.0809(11)
O3 O -0.3097(16) 0.8515(13) 0.8795(9)
O4 O 0.0483(12) 0.6044(10) 0.9484(9)
O5 O 0.1406(14) 0.9702(12) 0.8224(13)
O6 O -0.1729(16) 0.771(2) 0.8046(13)
O7 O 0.2982(15) 1.0445(12) 0.9648(9)
O8 O 0.2717(15) 1.2440(12) 0.9938(8)
O9 O -0.1336(15) 0.677(2) 0.9312(13)
O10 O 0.2155(17) 0.9481(13) 1.1577(12)
O11 O 0.1083(14) 1.1681(13) 0.8489(13)
O12 O -0.0729(13) 0.9724(12) 0.7705(13)
O13 O 0.0393(15) 0.766(2) 0.8594(13)
O14 O -0.3664(13) 0.6168(12) 0.8444(10)
O15 O 0.3330(14) 1.1779(13) 0.8497(10)
O16 O -0.0890(12) 1.1698(11) 0.7451(9)
O17 O 0.4152(12) 0.9902(14) 1.0970(9)
O18 O 0.073(2) 0.9348(19) 1.0370(15)
B1 B 0.00000 1.00000 1.00000
O19 O 0.0712(11) 0.5868(10) 0.6782(8)
O20 O 0.0468(15) 0.3351(13) 0.5960(11)
O21 O 0.2348(13) 0.7984(12) 0.6387(10)
O22 O 0.2946(12) 0.5549(12) 0.6306(9)
O23 O 0.0861(17) 0.1822(14) 0.6068(12)
O24 O -0.1097(15) 0.4772(16) 0.6901(14)
O25 O 0.355(2) 0.9781(14) 0.7076(13)
O26 O 0.4894(16) 0.644(2) 0.6305(15)
H1 H 0.47430 0.59280 0.58740
C1 C 0.2933(17) 0.6623(16) 0.8457(12)
H2 H 0.21900 0.66380 0.85850
C2 C 0.2993(19) 0.8757(18) 0.7043(15)
C3 C 0.3135(15) 0.8384(14) 0.7856(12)
H3 H 0.24850 0.83920 0.81140
H4 H 0.38750 0.89320 0.82450
C4 C 0.0533(16) 0.4560(16) 0.7639(12)
H5 H 0.00150 0.37440 0.75400
H6 H 0.06030 0.49450 0.82180
C5 C 0.3943(18) 0.6250(18) 0.6602(14)
C6 C 0.3973(16) 0.7377(16) 0.9253(12)
H7 H 0.47280 0.74320 0.91260
H8 H 0.39880 0.81580 0.93940
C7 C 0.2822(18) 0.5370(14) 0.8294(13)
H9 H 0.35560 0.53480 0.81530
C8 C 0.4220(15) 0.7203(18) 0.7392(15)
H10 H 0.47800 0.71230 0.78380
H11 H 0.46040 0.79540 0.72710
C9 C 0.3810(19) 0.6838(18) 0.9997(13)
H12 H 0.44750 0.73060 1.04780
H13 H 0.30880 0.68490 1.01510
C10 C 0.268(2) 0.491(2) 0.9063(14)
H14 H 0.26060 0.41090 0.89380
H15 H 0.19590 0.49270 0.92090
C11 C 0.373(2) 0.561(2) 0.9818(15)
H16 H 0.36090 0.52950 1.03070
H17 H 0.44620 0.55910 0.96900
C12 C 0.179(2) 0.3456(17) 0.7214(15)
H18 H 0.25960 0.35330 0.71980
H19 H 0.15340 0.29910 0.76130
C13 C 0.0014(17) 0.5099(18) 0.7048(15)
C14 C 0.098(2) 0.2851(18) 0.6353(14)
N1 N 0.3142(12) 0.7187(13) 0.7708(10)
N2 N 0.1780(14) 0.4665(13) 0.7513(11)
Sr1 Sr 0.01491(17) 0.67823(15) 0.56198(12)
O27 O 0.1274(11) 0.5539(11) 0.4956(9)
H20 H 0.13480 0.56650 0.44050
H21 H 0.20530 0.57790 0.53170
O28 O 0.0491(17) 0.8895(14) 0.5463(11)
H22 H 0.03480 0.93370 0.59370
H23 H -0.00060 0.88840 0.49480
O29 O -0.2086(14) 0.6529(16) 0.5312(12)
H24 H -0.25650 0.57870 0.53920
H25 H -0.21700 0.71390 0.56960
O30 O -0.0215(12) 0.7862(12) 0.6976(9)
O31 O 0.1264(17) 1.0621(16) 1.0126(12)
Na1 Na 0.2970(5) 0.9812(5) 0.5432(4)
O32 O 0.228(3) 1.094(3) 0.660(2)
H26 H 0.30410 1.12680 0.62670
H27 H 0.16820 1.02550 0.58870
O33 O 0.211(6) 0.793(6) 0.436(4)
H28 H 0.25340 0.85680 0.48460
H29 H 0.12720 0.76540 0.43290
O34 O 0.4578(15) 1.1233(15) 0.6321(11)
H30 H 0.49510 1.18090 0.60300
H31 H 0.51450 1.09250 0.65280
O35 O 0.170(3) 1.050(3) 0.4248(17)
N3 N -0.189(4) 0.381(3) 0.853(2)
H32 H -0.15260 0.35550 0.81060
H33 H -0.24780 0.31160 0.86060
N4 N -0.217(4) 0.418(3) 0.840(4)
N5 N 0.678(2) 0.835(3) 0.6667(19)
H34 H 0.73450 0.82480 0.63580
H35 H 0.65500 0.89530 0.65170
H36 H 0.71310 0.85590 0.72640
N6 N -0.295(3) 0.550(2) 0.663(2)
H37 H -0.37800 0.53750 0.65620
H38 H -0.28660 0.47750 0.65870
H39 H -0.25030 0.60210 0.71670
O36 O 0.472(3) 1.379(3) 0.784(3)
O37 O 0.330(3) 0.666(4) 1.299(4)
O38 O -0.410(2) 0.178(2) 0.7862(18)
O39? O 0.2484(9) 1.0609(9) 0.5828(7)
O40? O 0.4263(16) 1.1750(16) 0.6990(13)
O41? O 0.267(3) 0.751(4) 1.329(4)
O42? O -0.034(2) 0.9822(19) 1.0852(16)
O43? O -0.0471(18) 0.8790(17) 0.9384(15)
O18A O -0.073(2) 1.0652(19) 0.9630(15)
O31A O -0.1264(17) 0.9379(16) 0.9874(12)
W1A W -0.22493(6) -0.11995(6) 0.10176(5)
W2A W 0.24513(6) 0.25706(6) 0.10417(5)
W3A W -0.27957(6) 0.00824(6) -0.06291(5)
W4A W -0.03164(7) 0.26666(6) 0.03196(5)
W5A W 0.01377(7) 0.14472(7) 0.20228(5)
W6A W 0.06014(7) -0.11375(6) 0.17128(5)
O1A O -0.1979(16) 0.1609(14) -0.0029(11)
O2A O -0.0291(16) 0.2457(13) -0.0809(11)
O3A O 0.3097(16) 0.1485(13) 0.1205(9)
O4A O -0.0483(12) 0.3956(10) 0.0516(9)
O5A O -0.1406(14) 0.0298(12) 0.1776(13)
O6A O 0.1729(16) 0.229(2) 0.1954(13)
O7A O -0.2982(15) -0.0445(12) 0.0352(9)
O8A O -0.2717(15) -0.2440(12) 0.0062(8)
O9A O 0.1336(15) 0.323(2) 0.0688(13)
O10A O -0.2155(17) 0.0519(13) -0.1577(12)
O11A O -0.1083(14) -0.1681(13) 0.1511(13)
O12A O 0.0729(13) 0.0276(12) 0.2295(13)
O13A O -0.0393(15) 0.234(2) 0.1406(13)
O14A O 0.3664(13) 0.3832(12) 0.1556(10)
O15A O -0.3330(14) -0.1779(13) 0.1503(10)
O16A O 0.0890(12) -0.1698(11) 0.2549(9)
O17A O -0.4152(12) 0.0098(14) -0.0970(9)
O19A O -0.0712(11) 0.4132(10) 0.3218(8)
O20A O -0.0468(15) 0.6649(13) 0.4040(11)
O21A O -0.2348(13) 0.2016(12) 0.3613(10)
O22A O -0.2946(12) 0.4451(12) 0.3694(9)
O23A O -0.0861(17) 0.8178(14) 0.3932(12)
O24A O 0.1097(15) 0.5228(16) 0.3099(14)
O25A O -0.355(2) 0.0219(14) 0.2924(13)
O26A O -0.4894(16) 0.356(2) 0.3695(15)
H1A H -0.47430 0.40720 0.41260
C1A C -0.2933(17) 0.3377(16) 0.1543(12)
H2A H -0.21900 0.33620 0.14150
C2A C -0.2993(19) 0.1243(18) 0.2957(15)
C3A C -0.3135(15) 0.1616(14) 0.2144(12)
H3A H -0.24850 0.16080 0.18860
H4A H -0.38750 0.10680 0.17550
C4A C -0.0533(16) 0.5440(16) 0.2361(12)
H5A H -0.00150 0.62560 0.24600
H6A H -0.06030 0.50550 0.17820
C5A C -0.3943(18) 0.3750(18) 0.3398(14)
C6A C -0.3973(16) 0.2623(16) 0.0747(12)
H7A H -0.47280 0.25680 0.08740
H8A H -0.39880 0.18420 0.06060
C7A C -0.2822(18) 0.4630(14) 0.1706(13)
H9A H -0.35560 0.46520 0.18470
C8A C -0.4220(15) 0.2797(18) 0.2608(15)
H10A H -0.47800 0.28770 0.21620
H11A H -0.46040 0.20460 0.27290
C9A C -0.3810(19) 0.3162(18) 0.0003(13)
H12A H -0.44750 0.26940 -0.04780
H13A H -0.30880 0.31510 -0.01510
C10A C -0.268(2) 0.509(2) 0.0937(14)
H14A H -0.26060 0.58910 0.10620
H15A H -0.19590 0.50730 0.07910
C11A C -0.373(2) 0.439(2) 0.0182(15)
H16A H -0.36090 0.47050 -0.03070
H17A H -0.44620 0.44090 0.03100
C12A C -0.179(2) 0.6544(17) 0.2786(15)
H18A H -0.25960 0.64670 0.28020
H19A H -0.15340 0.70090 0.23870
C13A C -0.0014(17) 0.4901(18) 0.2952(15)
C14A C -0.098(2) 0.7149(18) 0.3647(14)
N1A N -0.3142(12) 0.2813(13) 0.2292(10)
N2A N -0.1780(14) 0.5335(13) 0.2487(11)
Sr1A Sr -0.01491(17) 0.32177(15) 0.43802(12)
O27A O -0.1274(11) 0.4461(11) 0.5044(9)
H20A H -0.13480 0.43350 0.55950
H21A H -0.20530 0.42210 0.46830
O28A O -0.0491(17) 0.1105(14) 0.4537(11)
H22A H -0.03480 0.06630 0.40630
H23A H 0.00060 0.11160 0.50520
O29A O 0.2086(14) 0.3471(16) 0.4688(12)
H24A H 0.25650 0.42130 0.46080
H25A H 0.21700 0.28610 0.43040
O30A O 0.0215(12) 0.2138(12) 0.3024(9)
W1A* W -0.22493(6) 0.88005(6) 1.10176(5)
W2* W -0.24513(6) -0.25706(6) -0.10417(5)
W2A* W 0.24513(6) 1.25706(6) 1.10417(5)
W3* W 0.27957(6) -0.00824(6) 0.06291(5)
W3A* W -0.27957(6) 1.00824(6) 0.93709(5)
W4A* W -0.03164(7) 1.26666(6) 1.03196(5)
W6* W -0.06014(7) 0.11375(6) -0.17128(5)
W6A* W 0.06014(7) 0.88625(6) 1.17128(5)
O2* O 0.0291(16) -0.2457(13) 0.0809(11)
O2A* O -0.0291(16) 1.2457(13) 0.9191(11)
O3* O -0.3097(16) -0.1485(13) -0.1205(9)
O3A* O 0.3097(16) 1.1485(13) 1.1205(9)
O8* O 0.2717(15) 0.2440(12) -0.0062(8)
O8A* O -0.2717(15) 0.7560(12) 1.0062(8)
O10* O 0.2155(17) -0.0519(13) 0.1577(12)
O10A* O -0.2155(17) 1.0519(13) 0.8423(12)
O18* O 0.073(2) -0.0652(19) 0.0370(15)
O18A* O -0.073(2) 0.0652(19) -0.0370(15)
O31* O 0.1264(17) 0.0621(16) 0.0126(12)
O31A* O -0.1264(17) -0.0621(16) -0.0126(12)
#END
