
#######################################################################
#
#                 Cambridge Crystallographic Data Centre
#                                CCDC
#
#######################################################################
#
# If this CIF has been generated from an entry in the Cambridge
# Structural Database, then it will include bibliographic, chemical,
# crystal, experimental, refinement or atomic coordinate data resulting
# from the CCDC's data processing and validation procedures.
#
#######################################################################

data_CSD_CIF_FIQQIH
_audit_creation_date 2013-12-31
_audit_creation_method CSD-ConQuest-V1
_database_code_CSD FIQQIH
_database_code_depnum_ccdc_archive 'CCDC 833026'
_chemical_formula_sum 'C28 H91 B1 Ca2 N8 Na2 O74 W12'
_chemical_formula_moiety
;
(C28 H51 B1 Ca2 N4 O62 W12 6-)n,4n(H4 N1 1+),2n(Na1 1+),12n(H2 O1)
;
_journal_coden_Cambridge 971
_journal_volume 20
_journal_year 2013
_journal_page_first 80
_journal_name_full 'Solid State Sciences '
loop_
_publ_author_name
"Chun-Hua Zhang"
"Ya-Guang Chen"
_chemical_name_systematic
;
catena-(tetrakis(Ammonium) di-sodium 
(\m~12~-borato)-bis(\m~2~-cyclohexane-1,2-diamine-N,N,N',N'-tetra-acetato)-bis
(\m~2~-aqua)-(\m~2~-hydroxo)-pentacosakis(\m~2~-oxo)-tetra-aqua-decaoxo-di-cal
cium-dodeca-tungsten dodecahydrate)
;
_cell_volume   2249.874
_exptl_crystal_colour 'colorless'
_exptl_crystal_density_diffrn 2.99
_exptl_crystal_description 'block'
_diffrn_ambient_temperature 293
_refine_special_details
;
The borate moiety is disordered by symmetry. Some of the water molecules are 
also disordered.
;
#These two values have been output from a single CSD field.
_refine_ls_R_factor_gt 0.076
_refine_ls_wR_factor_gt 0.076
_symmetry_cell_setting triclinic
_symmetry_space_group_name_H-M 'P -1'
_symmetry_Int_Tables_number 2
loop_
_symmetry_equiv_pos_site_id
_symmetry_equiv_pos_as_xyz
1 x,y,z
2 -x,-y,-z
_cell_length_a 12.382(5)
_cell_length_b 12.460(5)
_cell_length_c 16.311(5)
_cell_angle_alpha 99.832(5)
_cell_angle_beta 99.923(5)
_cell_angle_gamma 110.382(5)
_cell_formula_units_Z 1
loop_
_atom_type_symbol
_atom_type_radius_bond
C 0.68
H 0.23
B 0.83
Ca 1.76
N 0.68
Na 1.66
O 0.68
W 1.62
loop_
_atom_site_label
_atom_site_type_symbol
_atom_site_fract_x
_atom_site_fract_y
_atom_site_fract_z
W1 W 0.27611(8) -0.12048(8) 0.60054(7)
W2 W 0.53322(9) -0.26965(8) 0.46882(7)
W3 W 0.51298(9) 0.14821(9) 0.70415(6)
W4 W 0.77952(8) -0.00779(8) 0.56658(7)
W5 W 0.74355(8) 0.26072(8) 0.60702(6)
W6 W 0.56076(10) -0.11366(8) 0.67433(7)
O1 O 0.8122(19) 0.1514(15) 0.6237(11)
O2 O 0.456(2) 0.235(2) 0.6429(15)
O3 O 0.6712(18) 0.230(2) 0.6965(15)
O4 O 0.699(2) -0.1618(16) 0.5044(13)
O5 O 0.6338(17) 0.324(2) 0.5699(14)
O6 O 0.200(2) -0.0493(15) 0.5329(12)
O7 O 0.9150(16) -0.0085(15) 0.6007(13)
O8 O 0.5740(17) 0.0316(15) 0.7317(16)
O9 O 0.5186(15) 0.2175(13) 0.8029(10)
O10 O 0.5544(15) -0.3983(12) 0.4518(11)
O11 O 0.1704(16) -0.1780(14) 0.6511(11)
O12 O 0.5885(14) -0.1694(12) 0.7593(11)
O13 O 0.8660(17) 0.3871(13) 0.6606(12)
O14 O 0.3925(17) -0.1690(15) 0.6524(15)
O15 O 0.5304(19) -0.2439(17) 0.5838(12)
O16 O 0.7138(18) -0.0503(16) 0.6579(13)
O17 O 0.3594(17) 0.0315(15) 0.6793(13)
O18 O 0.2307(19) -0.2469(15) 0.5034(11)
O19 O 0.2082(16) 0.4483(14) 0.8728(12)
O20 O 0.455(2) 0.6683(17) 0.9127(13)
O21 O 0.4340(15) 0.4146(14) 0.8270(11)
O22 O 0.2757(18) 0.2049(16) 0.8669(13)
O23 O 0.201(4) 0.023(4) 0.810(3)
O24 O 0.017(2) 0.364(2) 0.8730(16)
H1 H 0.03800 0.41820 0.91910
O25 O 0.542(2) 0.122(2) 0.5606(17)
O26 O 0.606(2) 0.5223(19) 0.8142(17)
O27 O 0.410(2) 0.8235(17) 0.9019(12)
C1 C 0.079(2) 0.2762(19) 0.7627(15)
H2 H 0.03780 0.19910 0.77200
H3 H 0.02670 0.28740 0.71630
C2 C 0.117(2) 0.314(2) 0.5012(16)
H4 H 0.05220 0.26670 0.45240
H5 H 0.19050 0.31720 0.48760
C3 C 0.103(2) 0.264(2) 0.5783(15)
H6 H 0.09500 0.18350 0.56570
H7 H 0.03150 0.26670 0.59210
C4 C 0.221(2) 0.4671(17) 0.6770(16)
H8 H 0.14940 0.46980 0.69330
C5 C 0.207(2) 0.3366(18) 0.6577(14)
H9 H 0.27970 0.33380 0.64340
C6 C 0.216(3) 0.126(2) 0.8043(18)
C7 C 0.123(3) 0.439(3) 0.526(2)
H10 H 0.05200 0.43510 0.54370
H11 H 0.12660 0.47540 0.47870
C8 C 0.225(3) 0.509(3) 0.5991(17)
H12 H 0.29460 0.50850 0.58010
H13 H 0.23180 0.58900 0.61260
C9 C 0.104(2) 0.371(2) 0.8442(19)
C10 C 0.190(2) 0.160(2) 0.7218(17)
H14 H 0.11360 0.10560 0.68620
H15 H 0.24930 0.15810 0.69120
C11 C 0.496(2) 0.487(2) 0.7937(18)
C12 C 0.443(2) 0.5477(18) 0.7379(15)
H16 H 0.43270 0.51020 0.67890
H17 H 0.49520 0.62930 0.74890
C13 C 0.323(2) 0.657(2) 0.7831(16)
H18 H 0.24350 0.64630 0.78640
H19 H 0.34420 0.70330 0.74270
C14 C 0.405(3) 0.722(3) 0.872(2)
N1 N 0.1901(19) 0.2794(17) 0.7370(13)
N2 N 0.3249(17) 0.5381(15) 0.7535(13)
Ca1 Ca 0.4852(5) 0.3231(4) 0.9371(3)
B1 B 0.50000 0.00000 0.50000
O28 O 0.6946(18) 0.3599(16) 0.9669(13)
H20 H 0.70420 0.28620 0.95320
H21 H 0.73140 0.40980 0.93240
O29 O 0.6214(19) 0.5584(15) 0.9982(13)
H22 H 0.58800 0.60190 0.96580
H23 H 0.62320 0.58280 1.05760
O30 O 0.452(2) 0.1133(17) 0.9476(12)
H24 H 0.38170 0.05840 0.90480
H25 H 0.44160 0.10580 1.00370
Na1 Na 0.2631(15) -0.0595(14) 0.9188(11)
O31 O 0.335(3) -0.044(3) 1.0722(19)
H26 H 0.34840 -0.05830 1.12850
H27 H 0.25210 -0.06080 1.05100
O32 O 0.196(8) 0.042(7) 0.964(6)
H28 H 0.22430 0.08460 1.02400
H29 H 0.12070 0.03700 0.93300
O33 O 0.103(5) -0.174(5) 0.810(3)
H30 H 0.04320 -0.24180 0.81780
H31 H 0.10490 -0.16790 0.75220
N3 N -0.180(3) 0.170(4) 0.838(2)
H32 H -0.24420 0.19650 0.83440
H33 H -0.21020 0.08610 0.83050
H34 H -0.12360 0.20850 0.89240
N4 N 0.698(2) 0.607(2) 0.6497(17)
H35 H 0.75380 0.67050 0.63340
H36 H 0.74070 0.56890 0.68070
H37 H 0.64230 0.55090 0.59900
O34 O 0.800(3) 0.462(2) 0.8388(18)
O35 O 0.917(3) 0.823(3) 0.720(2)
O36 O 0.027(4) -0.379(3) 0.724(3)
O37? O 0.127(3) 0.020(3) 0.793(2)
O38? O 0.469(2) -0.014(2) 0.5859(19)
O39? O 0.429(2) 0.063(2) 0.4615(18)
O40? O 0.624(2) 0.060(2) 0.5084(17)
Na2? Na 0.223(2) 0.029(2) 0.9465(19)
O41? O 0.280(7) 0.192(6) 1.082(5)
H38? H 0.36280 0.21390 1.10980
H39? H 0.23250 0.16240 1.12040
O25A O 0.458(2) -0.122(2) 0.4394(17)
W1A W 0.72389(8) 0.12048(8) 0.39946(7)
W2A W 0.46678(9) 0.26965(8) 0.53118(7)
W3A W 0.48702(9) -0.14821(9) 0.29585(6)
W4A W 0.22048(8) 0.00779(8) 0.43342(7)
W5A W 0.25645(8) -0.26072(8) 0.39298(6)
W6A W 0.43924(10) 0.11366(8) 0.32567(7)
O1A O 0.1878(19) -0.1514(15) 0.3763(11)
O2A O 0.544(2) -0.235(2) 0.3571(15)
O3A O 0.3288(18) -0.230(2) 0.3035(15)
O4A O 0.301(2) 0.1618(16) 0.4956(13)
O5A O 0.3662(17) -0.324(2) 0.4301(14)
O6A O 0.800(2) 0.0493(15) 0.4671(12)
O7A O 0.0850(16) 0.0085(15) 0.3993(13)
O8A O 0.4260(17) -0.0316(15) 0.2683(16)
O9A O 0.4814(15) -0.2175(13) 0.1971(10)
O10A O 0.4456(15) 0.3983(12) 0.5482(11)
O11A O 0.8296(16) 0.1780(14) 0.3489(11)
O12A O 0.4115(14) 0.1694(12) 0.2407(11)
O13A O 0.1340(17) -0.3871(13) 0.3394(12)
O14A O 0.6075(17) 0.1690(15) 0.3476(15)
O15A O 0.4696(19) 0.2439(17) 0.4162(12)
O16A O 0.2862(18) 0.0503(16) 0.3421(13)
O17A O 0.6406(17) -0.0315(15) 0.3207(13)
O18A O 0.7693(19) 0.2469(15) 0.4966(11)
O19A O 0.7918(16) -0.4483(14) 0.1272(12)
O20A O 0.545(2) -0.6683(17) 0.0873(13)
O21A O 0.5660(15) -0.4146(14) 0.1730(11)
O22A O 0.7243(18) -0.2049(16) 0.1331(13)
O23A O 0.799(4) -0.023(4) 0.190(3)
O24A O 0.983(2) -0.364(2) 0.1270(16)
H1A H 0.96200 -0.41820 0.08090
O26A O 0.394(2) -0.5223(19) 0.1858(17)
O27A O 0.590(2) -0.8235(17) 0.0981(12)
C1A C 0.921(2) -0.2762(19) 0.2373(15)
H2A H 0.96220 -0.19910 0.22800
H3A H 0.97330 -0.28740 0.28370
C2A C 0.883(2) -0.314(2) 0.4988(16)
H4A H 0.94780 -0.26670 0.54760
H5A H 0.80950 -0.31720 0.51240
C3A C 0.897(2) -0.264(2) 0.4217(15)
H6A H 0.90500 -0.18350 0.43430
H7A H 0.96850 -0.26670 0.40790
C4A C 0.779(2) -0.4671(17) 0.3230(16)
H8A H 0.85060 -0.46980 0.30670
C5A C 0.793(2) -0.3366(18) 0.3423(14)
H9A H 0.72030 -0.33380 0.35660
C6A C 0.784(3) -0.126(2) 0.1957(18)
C7A C 0.877(3) -0.439(3) 0.474(2)
H10A H 0.94800 -0.43510 0.45630
H11A H 0.87340 -0.47540 0.52130
C8A C 0.775(3) -0.509(3) 0.4009(17)
H12A H 0.70540 -0.50850 0.41990
H13A H 0.76820 -0.58900 0.38740
C9A C 0.896(2) -0.371(2) 0.1558(19)
C10A C 0.810(2) -0.160(2) 0.2782(17)
H14A H 0.88640 -0.10560 0.31380
H15A H 0.75070 -0.15810 0.30880
C11A C 0.504(2) -0.487(2) 0.2063(18)
C12A C 0.557(2) -0.5477(18) 0.2621(15)
H16A H 0.56730 -0.51020 0.32110
H17A H 0.50480 -0.62930 0.25110
C13A C 0.677(2) -0.657(2) 0.2169(16)
H18A H 0.75650 -0.64630 0.21360
H19A H 0.65580 -0.70330 0.25730
C14A C 0.595(3) -0.722(3) 0.128(2)
N1A N 0.8099(19) -0.2794(17) 0.2630(13)
N2A N 0.6751(17) -0.5381(15) 0.2465(13)
Ca1A Ca 0.5148(5) -0.3231(4) 0.0629(3)
O28A O 0.3054(18) -0.3599(16) 0.0331(13)
H20A H 0.29580 -0.28620 0.04680
H21A H 0.26860 -0.40980 0.06760
O29A O 0.3786(19) -0.5584(15) 0.0018(13)
H22A H 0.41200 -0.60190 0.03420
H23A H 0.37680 -0.58280 -0.05760
O30A O 0.548(2) -0.1133(17) 0.0524(12)
H24A H 0.61830 -0.05840 0.09520
H25A H 0.55840 -0.10580 -0.00370
O20* O 0.455(2) -0.3317(17) -0.0873(13)
O20A* O 0.545(2) 0.3317(17) 1.0873(13)
Ca1* Ca 0.4852(5) -0.6769(4) -0.0629(3)
Ca1A* Ca 0.5148(5) 0.6769(4) 1.0629(3)
O29* O 0.6214(19) -0.4416(15) -0.0018(13)
O29A* O 0.3786(19) 0.4416(15) 1.0018(13)
#END
