
#######################################################################
#
#                 Cambridge Crystallographic Data Centre
#                                CCDC
#
#######################################################################
#
# If this CIF has been generated from an entry in the Cambridge
# Structural Database, then it will include bibliographic, chemical,
# crystal, experimental, refinement or atomic coordinate data resulting
# from the CCDC's data processing and validation procedures.
#
#######################################################################

data_CSD_CIF_FIQZOX
_audit_creation_date 2018-09-04
_audit_creation_method CSD-ConQuest-V1
_database_code_CSD FIQZOX
_database_code_depnum_ccdc_archive 'CCDC 1815459'
_chemical_formula_sum 'C44 H76 Mo8 N16 O32 Zn2'
_chemical_formula_moiety
;
2(C22 H32 N8 Zn1 2+)n,Mo8 O26 4-,6(H2 O1)
;
_journal_coden_Cambridge 580
_journal_volume 155
_journal_year 2018
_journal_page_first 337
_journal_name_full 'Polyhedron '
loop_
_publ_author_name
"Ai-Xiang Tian"
"Meng-Le Yang"
"Na Sun"
"Yu-Bo Fu"
"Jun Ying"
_chemical_name_systematic
;
catena-[bis(bis(\m-4,4'-methylenebis(3,5-dimethyl-1H-pyrazole))-zinc) 
dodecakis(\m-oxo)-tetradecaoxo-octa-molybdenum hexahydrate]
;
_cell_volume   7175.336
_exptl_crystal_colour 'colorless'
_exptl_crystal_density_diffrn 2.073
_exptl_crystal_description 'block'
_diffrn_ambient_temperature 298
#These two values have been output from a single CSD field.
_refine_ls_R_factor_gt 0.0646
_refine_ls_wR_factor_gt 0.0646
_symmetry_cell_setting orthorhombic
_symmetry_space_group_name_H-M 'P c c n'
_symmetry_Int_Tables_number 56
loop_
_symmetry_equiv_pos_site_id
_symmetry_equiv_pos_as_xyz
1 x,y,z
2 1/2-x,1/2-y,z
3 1/2+x,-y,1/2-z
4 -x,1/2+y,1/2-z
5 -x,-y,-z
6 -1/2+x,-1/2+y,-z
7 -1/2-x,y,-1/2+z
8 x,-1/2-y,-1/2+z
_cell_length_a 20.7978(1)
_cell_length_b 21.2542(1)
_cell_length_c 16.2323(1)
_cell_angle_alpha 90
_cell_angle_beta 90
_cell_angle_gamma 90
_cell_formula_units_Z 4
loop_
_atom_type_symbol
_atom_type_radius_bond
C 0.68
H 0.23
Mo 1.54
N 0.68
O 0.68
Zn 1.22
loop_
_atom_site_label
_atom_site_type_symbol
_atom_site_fract_x
_atom_site_fract_y
_atom_site_fract_z
Mo1 Mo 0.59638(5) 0.05768(5) 0.60008(6)
O1 O 0.6166(4) -0.0500(4) 0.3537(5)
Mo2 Mo 0.53574(5) -0.07251(5) 0.53696(6)
O2 O 0.5418(4) 0.1227(4) 0.6371(5)
Mo3 Mo 0.54237(6) -0.09797(5) 0.32678(6)
O3 O 0.5743(5) -0.1692(4) 0.2997(5)
Mo4 Mo 0.60321(6) 0.03362(5) 0.39071(6)
O4 O 0.5233(5) -0.0625(4) 0.2364(5)
O5 O 0.6127(4) 0.0197(4) 0.6899(5)
O6 O 0.5601(4) -0.1259(4) 0.4624(5)
O7 O 0.6796(4) 0.0589(5) 0.4056(6)
O8 O 0.5799(5) 0.0683(4) 0.3022(5)
O9 O 0.5552(4) -0.1061(4) 0.6282(5)
O10 O 0.6065(4) -0.0140(3) 0.5230(4)
O11 O 0.5563(4) 0.0882(4) 0.4694(4)
O12 O 0.6645(4) 0.0965(4) 0.5778(5)
O13 O 0.5048(4) -0.0156(4) 0.4166(4)
Zn1 Zn 0.75000 -0.25000 0.31141(11)
C1 C 0.7855(10) -0.0220(6) 0.6666(10)
H1 H 0.78375 -0.00256 0.71995
H2 H 0.81997 -0.00391 0.63527
H3 H 0.74553 -0.01526 0.63838
N1 N 0.7845(5) -0.1854(5) 0.7351(5)
C2 C 0.8552(7) -0.2544(6) 0.6531(7)
H4 H 0.83307 -0.27359 0.60766
H5 H 0.89963 -0.24859 0.63902
H6 H 0.85207 -0.28120 0.70059
N2 N 0.7670(6) -0.1236(5) 0.7363(6)
H7 H 0.74035 -0.10744 0.77092
C3 C 0.8341(6) -0.1338(6) 0.6355(6)
N3 N 0.8145(5) -0.2118(5) 0.3862(6)
C4 C 0.8074(6) -0.1689(6) 0.4460(7)
N4 N 0.8768(5) -0.2304(5) 0.3900(6)
H8 H 0.89358 -0.25747 0.35701
C5 C 0.8786(7) -0.1202(7) 0.5629(7)
H9 H 0.87378 -0.07637 0.54726
H10 H 0.92276 -0.12625 0.58046
C6 C 0.8250(6) -0.1914(6) 0.6721(7)
C7 C 0.7968(8) -0.0914(6) 0.6765(8)
C8 C 0.9773(6) -0.2177(8) 0.4689(9)
H11 H 0.97890 -0.24936 0.51101
H12 H 0.99906 -0.18056 0.48767
H13 H 0.99784 -0.23315 0.41997
C9 C 0.7458(7) -0.1372(6) 0.4600(8)
H14 H 0.73691 -0.10936 0.41490
H15 H 0.74788 -0.11355 0.51029
H16 H 0.71219 -0.16807 0.46404
C10 C 0.8663(6) -0.1608(6) 0.4882(6)
C11 C 0.9093(6) -0.2023(6) 0.4504(7)
N5 N 0.7061(5) 0.1905(5) 1.0212(5)
Zn2 Zn 0.75000 0.25000 0.59922(11)
N6 N 0.7147(5) 0.1281(5) 1.0120(6)
H17 H 0.74163 0.10632 1.04033
C12 C 0.6614(6) 0.2076(5) 0.9669(7)
N7 N 0.6804(5) 0.2292(5) 0.6772(6)
C13 C 0.6765(9) 0.0366(6) 0.9313(10)
H18 H 0.64629 0.01456 0.96542
H19 H 0.66440 0.03211 0.87453
H20 H 0.71871 0.01931 0.93937
N8 N 0.6251(5) 0.2651(5) 0.6839(6)
H21 H 0.61551 0.29622 0.65234
C14 C 0.6372(7) 0.2727(6) 0.9617(8)
H22 H 0.67125 0.30008 0.94428
H23 H 0.60254 0.27461 0.92270
H24 H 0.62194 0.28576 1.01488
C15 C 0.5886(6) 0.2444(6) 0.7466(7)
C16 C 0.5281(7) 0.2784(6) 0.7696(9)
H25 H 0.52432 0.31598 0.73718
H26 H 0.52940 0.28927 0.82697
H27 H 0.49171 0.25167 0.75935
C17 C 0.5955(6) 0.1529(6) 0.8519(6)
H28 H 0.55369 0.16757 0.87017
H29 H 0.59063 0.10985 0.83295
C18 C 0.7277(7) 0.1374(6) 0.7493(8)
H30 H 0.75380 0.13480 0.70068
H31 H 0.70858 0.09708 0.76010
H32 H 0.75393 0.14950 0.79532
C19 C 0.6412(6) 0.1542(6) 0.9229(6)
C20 C 0.6180(6) 0.1930(5) 0.7819(7)
C21 C 0.6752(6) 0.1859(6) 0.7365(6)
C22 C 0.6768(7) 0.1041(6) 0.9537(7)
O14 O 0.8625(9) -0.0861(7) 0.2886(8)
H33 H 0.88575 -0.10470 0.24968
H34 H 0.86848 -0.04967 0.26876
O15 O 0.5989(6) 0.3886(5) 0.6382(6)
H35 H 0.58552 0.40911 0.59662
H36 H 0.60638 0.41660 0.67439
O16 O 0.4814(12) 0.0347(11) 0.1216(17)
H37 H 0.51119 0.00514 0.12955
H38 H 0.44848 0.02569 0.15034
Mo1D Mo 0.40362(5) -0.05768(5) 0.39992(6)
O1D O 0.3834(4) 0.0500(4) 0.6463(5)
Mo2D Mo 0.46426(5) 0.07251(5) 0.46304(6)
O2D O 0.4582(4) -0.1227(4) 0.3629(5)
Mo3D Mo 0.45763(6) 0.09797(5) 0.67322(6)
O3D O 0.4257(5) 0.1692(4) 0.7003(5)
Mo4D Mo 0.39679(6) -0.03362(5) 0.60929(6)
O4D O 0.4767(5) 0.0625(4) 0.7636(5)
O5D O 0.3873(4) -0.0197(4) 0.3101(5)
O6D O 0.4399(4) 0.1259(4) 0.5376(5)
O7D O 0.3204(4) -0.0589(5) 0.5944(6)
O8D O 0.4201(5) -0.0683(4) 0.6978(5)
O9D O 0.4448(4) 0.1061(4) 0.3718(5)
O10D O 0.3935(4) 0.0140(3) 0.4770(4)
O11D O 0.4437(4) -0.0882(4) 0.5306(4)
O12D O 0.3355(4) -0.0965(4) 0.4222(5)
O13D O 0.4952(4) 0.0156(4) 0.5834(4)
C1A C 0.7145(10) -0.4780(6) 0.6666(10)
H1A H 0.71625 -0.49744 0.71995
H2A H 0.68003 -0.49609 0.63527
H3A H 0.75447 -0.48474 0.63838
N1A N 0.7155(5) -0.3146(5) 0.7351(5)
C2A C 0.6448(7) -0.2456(6) 0.6531(7)
H4A H 0.66693 -0.22641 0.60766
H5A H 0.60037 -0.25141 0.63902
H6A H 0.64793 -0.21880 0.70059
N2A N 0.7330(6) -0.3764(5) 0.7363(6)
H7A H 0.75965 -0.39256 0.77092
C3A C 0.6659(6) -0.3662(6) 0.6355(6)
N3A N 0.6855(5) -0.2882(5) 0.3862(6)
C4A C 0.6926(6) -0.3311(6) 0.4460(7)
N4A N 0.6232(5) -0.2696(5) 0.3900(6)
H8A H 0.60642 -0.24253 0.35701
C5A C 0.6214(7) -0.3798(7) 0.5629(7)
H9A H 0.62622 -0.42363 0.54726
H10A H 0.57724 -0.37375 0.58046
C6A C 0.6750(6) -0.3086(6) 0.6721(7)
C7A C 0.7032(8) -0.4086(6) 0.6765(8)
C8A C 0.5227(6) -0.2823(8) 0.4689(9)
H11A H 0.52110 -0.25064 0.51101
H12A H 0.50094 -0.31944 0.48767
H13A H 0.50216 -0.26685 0.41997
C9A C 0.7542(7) -0.3628(6) 0.4600(8)
H14A H 0.76309 -0.39064 0.41490
H15A H 0.75212 -0.38645 0.51029
H16A H 0.78781 -0.33193 0.46404
C10A C 0.6337(6) -0.3392(6) 0.4882(6)
C11A C 0.5907(6) -0.2977(6) 0.4504(7)
Zn1F Zn 0.75000 -0.25000 0.81141(11)
N1F N 0.7155(5) -0.1854(5) 0.2351(5)
N1G N 0.7845(5) -0.3146(5) 0.2351(5)
N5A N 0.7939(5) 0.3095(5) 1.0212(5)
N6A N 0.7853(5) 0.3719(5) 1.0120(6)
H17A H 0.75837 0.39368 1.04033
C12A C 0.8386(6) 0.2924(5) 0.9669(7)
N7A N 0.8196(5) 0.2708(5) 0.6772(6)
C13A C 0.8235(9) 0.4634(6) 0.9313(10)
H18A H 0.85371 0.48544 0.96542
H19A H 0.83560 0.46789 0.87453
H20A H 0.78129 0.48069 0.93937
N8A N 0.8749(5) 0.2349(5) 0.6839(6)
H21A H 0.88449 0.20378 0.65234
C14A C 0.8628(7) 0.2273(6) 0.9617(8)
H22A H 0.82875 0.19992 0.94428
H23A H 0.89746 0.22539 0.92270
H24A H 0.87806 0.21424 1.01488
C15A C 0.9114(6) 0.2556(6) 0.7466(7)
C16A C 0.9719(7) 0.2216(6) 0.7696(9)
H25A H 0.97568 0.18402 0.73718
H26A H 0.97060 0.21073 0.82697
H27A H 1.00829 0.24833 0.75935
C17A C 0.9045(6) 0.3471(6) 0.8519(6)
H28A H 0.94631 0.33243 0.87017
H29A H 0.90937 0.39015 0.83295
C18A C 0.7723(7) 0.3626(6) 0.7493(8)
H30A H 0.74620 0.36520 0.70068
H31A H 0.79142 0.40292 0.76010
H32A H 0.74607 0.35050 0.79532
C19A C 0.8588(6) 0.3458(6) 0.9229(6)
C20A C 0.8820(6) 0.3070(5) 0.7819(7)
C21A C 0.8248(6) 0.3141(6) 0.7365(6)
C22A C 0.8232(7) 0.3959(6) 0.9537(7)
N5F N 0.7939(5) 0.1905(5) 0.5212(5)
N5G N 0.7061(5) 0.3095(5) 0.5212(5)
Zn2F Zn 0.75000 0.25000 1.09922(11)
#END
