
#######################################################################
#
#                 Cambridge Crystallographic Data Centre
#                                CCDC
#
#######################################################################
#
# If this CIF has been generated from an entry in the Cambridge
# Structural Database, then it will include bibliographic, chemical,
# crystal, experimental, refinement or atomic coordinate data resulting
# from the CCDC's data processing and validation procedures.
#
#######################################################################

data_CSD_CIF_FIRQEE
_audit_creation_date 2013-12-31
_audit_creation_method CSD-ConQuest-V1
_database_code_CSD FIRQEE
_database_code_depnum_ccdc_archive 'CCDC 905464'
_chemical_formula_sum 'C20 H20 Bi1 N5 O13'
_chemical_formula_moiety
;
(C6 H9 N2 1+)n,n(C14 H7 Bi1 N3 O11 1-),2n(H2 O1)
;
_journal_coden_Cambridge 923
_journal_volume 44
_journal_year 2014
_journal_page_first 507
_journal_name_full 'Synth.React.Inorg.,Met.-Org.,Nano-Met.Chem. '
loop_
_publ_author_name
"M.Tabatabaee"
"S.Amjad"
"S.Tabatabaei"
"K.Molcanov"
_chemical_name_systematic
;
catena-[(2,4-Dimethylpyridinium) 
(\m~2~-pyridine-2,3-dicarboxylato)-(3-carboxypyridine-2-carboxylato)-(nitrato-
O,O')-bismuth dihydrate]
;
_cell_volume   2486.076
_exptl_crystal_colour 'colorless'
_exptl_crystal_density_diffrn 1.997
_exptl_crystal_description 'prism'
_diffrn_ambient_temperature 293
#These two values have been output from a single CSD field.
_refine_ls_R_factor_gt 0.0521
_refine_ls_wR_factor_gt 0.0521
_symmetry_cell_setting monoclinic
_symmetry_space_group_name_H-M 'P 21/n'
_symmetry_Int_Tables_number 14
loop_
_symmetry_equiv_pos_site_id
_symmetry_equiv_pos_as_xyz
1 x,y,z
2 1/2-x,1/2+y,1/2-z
3 -x,-y,-z
4 -1/2+x,-1/2-y,-1/2+z
_cell_length_a 15.2084(3)
_cell_length_b 10.5336(2)
_cell_length_c 15.9664(3)
_cell_angle_alpha 90
_cell_angle_beta 103.601(2)
_cell_angle_gamma 90
_cell_formula_units_Z 4
loop_
_atom_type_symbol
_atom_type_radius_bond
C 0.68
H 0.23
Bi 1.48
N 0.68
O 0.68
loop_
_atom_site_label
_atom_site_type_symbol
_atom_site_fract_x
_atom_site_fract_y
_atom_site_fract_z
O1 O 0.5425(4) 0.9063(5) 0.2782(3)
N1 N 0.5420(5) 1.1453(7) 0.2169(4)
O2 O 0.3521(6) 0.9759(9) -0.0089(6)
O3 O 0.6858(5) 0.9266(7) 0.3500(5)
C1 C 0.6158(6) 0.9683(8) 0.3035(5)
O4 O 0.4577(4) 1.1159(7) 0.0193(4)
N2 N 0.3999(5) 1.0565(8) -0.0355(5)
C2 C 0.6157(5) 1.1055(8) 0.2753(5)
N3 N 0.3749(5) 1.0511(7) 0.2896(5)
O5 O 0.2931(5) 1.3394(7) 0.1937(5)
O6 O 0.3930(5) 1.0737(9) -0.1143(4)
C3 C 0.3169(6) 1.2279(9) 0.1960(5)
C4 C 0.3238(5) 1.1547(8) 0.2792(5)
C5 C 0.5395(6) 1.2613(8) 0.1837(5)
H1 H 0.48760 1.28720 0.14390
O7 O 0.8447(4) 1.1249(7) 0.3485(5)
O8 O 0.7625(5) 1.1525(9) 0.4465(4)
H2 H 0.80930 1.13140 0.48080
C6 C 0.6902(6) 1.1860(8) 0.3021(5)
C7 C 0.7744(6) 1.1477(9) 0.3682(6)
C8 C 0.6875(7) 1.3069(9) 0.2668(6)
H3 H 0.73650 1.36150 0.28380
C9 C 0.6117(7) 1.3454(10) 0.2063(7)
H4 H 0.60900 1.42550 0.18140
O9 O 0.3425(4) 1.1667(6) 0.1363(4)
C10 C 0.3549(9) 1.0261(13) 0.4302(8)
H5 H 0.36870 0.98150 0.48190
C11 C 0.3899(8) 0.9859(8) 0.3629(7)
H6 H 0.42440 0.91220 0.36870
C12 C 0.2166(5) 1.3063(8) 0.3317(5)
C13 C 0.2825(6) 1.1973(8) 0.3444(5)
C14 C 0.3000(6) 1.1309(9) 0.4226(5)
H7 H 0.27530 1.15690 0.46780
O10 O 0.2385(4) 1.4053(7) 0.3746(5)
O11 O 0.1408(4) 1.2891(6) 0.2830(4)
Bi1 Bi 0.420949(18) 0.98475(3) 0.162051(18)
N4 N 0.7022(6) 0.6645(9) 0.3894(6)
H8 H 0.70020 0.73580 0.36270
H9 H 0.75290 0.63660 0.41970
C15 C 0.6255(8) 0.4790(9) 0.4258(7)
H10 H 0.67860 0.44510 0.45950
N5 N 0.5487(6) 0.6420(8) 0.3361(5)
H11 H 0.54810 0.71400 0.31050
C16 C 0.6280(6) 0.5982(9) 0.3837(6)
C17 C 0.5465(7) 0.4145(10) 0.4173(6)
C18 C 0.4691(8) 0.5771(12) 0.3266(8)
H12 H 0.41590 0.61130 0.29320
C19 C 0.4671(8) 0.4652(12) 0.3649(10)
H13 H 0.41310 0.42050 0.35690
C20 C 0.5465(9) 0.2874(11) 0.4617(9)
H14 H 0.48620 0.25340 0.44860
H15 H 0.56720 0.29830 0.52280
H16 H 0.58600 0.22990 0.44160
O12 O 0.8823(6) 1.0490(9) 0.5708(6)
H17 H 0.852(17) 1.063(15) 0.616(12)
H18 H 0.897(8) 0.961(4) 0.574(5)
O13 O 0.5355(8) 1.3027(14) -0.0784(8)
H19 H 0.519(12) 1.251(16) -0.036(5)
H20 H 0.479(7) 1.330(8) -0.113(16)
O10A O 0.2615(4) 0.9053(7) 0.1254(5)
O11A O 0.3592(4) 0.7891(6) 0.2170(4)
Bi1A Bi 0.079051(18) 1.48475(3) 0.337949(18)
#END
