
#######################################################################
#
#                 Cambridge Crystallographic Data Centre
#                                CCDC
#
#######################################################################
#
# If this CIF has been generated from an entry in the Cambridge
# Structural Database, then it will include bibliographic, chemical,
# crystal, experimental, refinement or atomic coordinate data resulting
# from the CCDC's data processing and validation procedures.
#
#######################################################################

data_CSD_CIF_FIVQOR
_audit_creation_date 2005-06-09
_audit_creation_method CSD-ConQuest-V1
_database_code_CSD FIVQOR
_database_code_depnum_ccdc_archive 'CCDC 266504'
_chemical_formula_sum 'C6.5 H22 F2 Ga5 N3 O22 P4'
_chemical_formula_moiety
;
(C3 H12 N2 2+)1.5n,n(C2 H4 F2 Ga5 O22 P4 3-)
;
_journal_coden_Cambridge 1096
_journal_volume 16
_journal_year 2004
_journal_page_first 5318
_journal_name_full 'Chem.Mater. '
loop_
_publ_author_name
"T.Loiseau"
"G.Ferey"
"M.Haouas"
"F.Taulelle"
_chemical_name_systematic
;
catena-(sesquikis(Propane-1,3-diammonium) 
tetrakis(\m~4~-phosphato)-bis(\m~2~-fluoro)-(\m~2~-oxalato)-diaqua-penta-galli
um)
;
_cell_volume    648.587
_exptl_crystal_density_diffrn 2.53
_diffrn_ambient_temperature 293
#These two values have been output from a single CSD field.
_refine_ls_R_factor_gt 0.0598
_refine_ls_wR_factor_gt 0.0598
_symmetry_cell_setting triclinic
_symmetry_space_group_name_H-M 'P -1'
_symmetry_Int_Tables_number 2
loop_
_symmetry_equiv_pos_site_id
_symmetry_equiv_pos_as_xyz
1 x,y,z
2 -x,-y,-z
_cell_length_a 8.1217(6)
_cell_length_b 8.9601(6)
_cell_length_c 10.4611(8)
_cell_angle_alpha 111.930(1)
_cell_angle_beta 103.655(1)
_cell_angle_gamma 101.903(1)
_cell_formula_units_Z 1
loop_
_atom_type_symbol
_atom_type_radius_bond
C 0.68
F 0.64
Ga 1.22
N 0.68
O 0.68
P 1.05
loop_
_atom_site_label
_atom_site_type_symbol
_atom_site_fract_x
_atom_site_fract_y
_atom_site_fract_z
Ga1 Ga 0.19859(9) 0.35167(8) 0.36296(7)
Ga2 Ga -0.27655(9) 0.00093(8) 0.44691(8)
Ga3 Ga 0.00000 0.00000 0.00000
P1 P 0.4508(2) 0.7257(2) 0.48356(18)
P2 P -0.0091(2) -0.0298(2) 0.29119(17)
F1 F 0.1449(5) 0.2270(5) 0.1580(4)
O1 O -0.0319(6) 0.4086(6) 0.3139(5)
O2 O 0.3216(6) 0.5571(6) 0.3583(5)
O3 O -0.2094(6) 0.5165(6) 0.4297(5)
O4 O 0.5898(6) 0.7055(6) 0.5935(5)
O5 O 0.0531(7) 0.1615(6) 0.3744(5)
O6 O -0.1939(6) -0.0989(6) 0.3001(6)
O7 O 0.3497(6) 0.8259(6) 0.5720(5)
O8 O 0.5287(7) 0.8267(6) 0.4088(6)
O9 O 0.2134(7) -0.0536(6) -0.0038(6)
O10 O -0.0218(8) -0.1004(6) 0.1321(5)
O11 O 0.1203(7) -0.1011(6) 0.3666(6)
C1 C -0.0693(8) 0.4778(8) 0.4255(7)
N1 N 0.5464(14) 0.1967(13) 0.1374(11)
C2 C 0.494(3) 0.315(3) 0.068(2)
C3 C 0.562(3) 0.296(4) -0.060(3)
C4 C 0.766(3) 0.393(5) -0.002(3)
N2 N 0.8495(19) 0.3727(18) -0.1126(15)
Ga1A Ga -0.19859(9) -0.35167(8) -0.36296(7)
Ga1A* Ga -0.19859(9) 0.64833(8) 0.63704(7)
Ga1A** Ga 0.80141(9) 0.64833(8) 0.63704(7)
Ga2A Ga 0.27655(9) -0.00093(8) -0.44691(8)
Ga2A* Ga 0.27655(9) 0.99907(8) 0.55309(8)
Ga2* Ga 0.72345(9) 1.00093(8) 0.44691(8)
Ga2A** Ga 0.27655(9) -0.00093(8) 0.55309(8)
Ga2** Ga -0.27655(9) 0.00093(8) -0.55309(8)
Ga2*** Ga 0.72345(9) 0.00093(8) 0.44691(8)
P1A P 0.5492(2) 0.2743(2) 0.51644(18)
P2A P 0.0091(2) 0.0298(2) -0.29119(17)
F1A F -0.1449(5) -0.2270(5) -0.1580(4)
O1A O 0.0319(6) 0.5914(6) 0.6861(5)
O1A* O 0.0319(6) -0.4086(6) -0.3139(5)
O2A O 0.6784(6) 0.4429(6) 0.6417(5)
O2A* O -0.3216(6) -0.5571(6) -0.3583(5)
O3A O 0.2094(6) 0.4835(6) 0.5703(5)
O3* O -0.2094(6) -0.4835(6) -0.5703(5)
O4A O 0.4102(6) 0.2945(6) 0.4065(5)
O4* O -0.4102(6) -0.2945(6) -0.4065(5)
O5A O -0.0531(7) -0.1615(6) -0.3744(5)
O6A O 0.1939(6) 0.0989(6) -0.3001(6)
O7A O 0.6503(6) 0.1741(6) 0.4280(5)
O7A* O -0.3497(6) 0.1741(6) 0.4280(5)
O7* O 0.3497(6) -0.1741(6) -0.4280(5)
O8A O 0.4713(7) 0.1733(6) 0.5912(6)
O8* O -0.4713(7) -0.1733(6) 0.4088(6)
O8A* O 0.4713(7) 0.1733(6) -0.4088(6)
O9A O -0.2134(7) 0.0536(6) 0.0038(6)
O10A O 0.0218(8) 0.1004(6) -0.1321(5)
O11A O -0.1203(7) 0.1011(6) -0.3666(6)
O11A* O -0.1203(7) 0.1011(6) 0.6334(6)
O11* O 0.1203(7) -0.1011(6) -0.6334(6)
C1A C 0.0693(8) 0.5222(8) 0.5745(7)
#END
