
#######################################################################
#
#                 Cambridge Crystallographic Data Centre
#                                CCDC
#
#######################################################################
#
# If this CIF has been generated from an entry in the Cambridge
# Structural Database, then it will include bibliographic, chemical,
# crystal, experimental, refinement or atomic coordinate data resulting
# from the CCDC's data processing and validation procedures.
#
#######################################################################

data_CSD_CIF_FIVSAH
_audit_creation_date 2019-01-11
_audit_creation_method CSD-ConQuest-V1
_database_code_CSD FIVSAH
_database_code_depnum_ccdc_archive 'CCDC 1868561'
_chemical_formula_sum 'C70 H46 Cd4 N10 O20'
_chemical_formula_moiety
;
(C70 H38 Cd4 N8 O20 2-)n,2(H4 N1 1+)
;
_journal_coden_Cambridge 208
_journal_volume 271
_journal_year 2019
_journal_page_first 346
_journal_name_full 'J.Solid State Chem. '
loop_
_publ_author_name
"Lingling Gao"
"Jie Zhang"
"Lijun Zhai"
"Xiaoyan Niu"
"Tuoping Hu"
_chemical_name_systematic
;
catena-[diammonium 
bis(\m-[1^1^,2^1^:2^3^,3^1^-terphenyl]-1^2^,1^5^,2^5^,3^2^,3^5^-pentacarboxyla
to)-bis(\m-1,1'-(1,4-phenylene)di(1H-imidazole))-tetra-cadmium(ii)]
;
_cell_volume   2214.773
_exptl_crystal_colour 'colorless'
_exptl_crystal_density_diffrn 1.32
_exptl_special_details
;
We calculate 32.82% void space in the structure. The ammonium cations are not 
located
;
_exptl_crystal_description 'block'
_diffrn_ambient_temperature 150.2
#These two values have been output from a single CSD field.
_refine_ls_R_factor_gt 0.0706
_refine_ls_wR_factor_gt 0.0706
_symmetry_cell_setting triclinic
_symmetry_space_group_name_H-M 'P -1'
_symmetry_Int_Tables_number 2
loop_
_symmetry_equiv_pos_site_id
_symmetry_equiv_pos_as_xyz
1 x,y,z
2 -x,-y,-z
_cell_length_a 10.6211(6)
_cell_length_b 13.3279(7)
_cell_length_c 17.1934(8)
_cell_angle_alpha 73.796(3)
_cell_angle_beta 84.894(3)
_cell_angle_gamma 71.376(3)
_cell_formula_units_Z 1
loop_
_atom_type_symbol
_atom_type_radius_bond
C 0.68
H 0.23
Cd 1.44
N 0.68
O 0.68
loop_
_atom_site_label
_atom_site_type_symbol
_atom_site_fract_x
_atom_site_fract_y
_atom_site_fract_z
Cd1 Cd 0.35044(6) 1.05034(5) 0.24753(3)
Cd2 Cd -0.01639(6) 0.37435(5) 0.20795(3)
O1 O 0.1998(6) 0.9781(4) 0.2170(4)
O2 O 0.4073(6) 0.8796(5) 0.2025(4)
O3 O 0.2028(6) 0.2032(4) 0.2712(3)
O4 O 0.0577(5) 0.3108(5) 0.3357(3)
O5 O 0.4607(6) -0.0221(5) 0.6790(3)
O6 O 0.6000(6) 0.0670(5) 0.6221(3)
O7 O 0.7635(5) 0.4278(4) 0.2159(4)
O8 O 0.8079(5) 0.2484(5) 0.2613(4)
O9 O 0.1456(5) 0.4649(4) 0.1660(3)
O10 O -0.0377(5) 0.5524(5) 0.2201(4)
N1 N 0.0217(6) 0.3024(5) 0.1047(4)
N2 N 0.0406(7) 0.1777(6) 0.0397(4)
N3 N 0.4199(7) 1.1494(5) 0.1359(4)
N4 N 0.4717(7) 1.2894(6) 0.0559(4)
C1 C 0.2861(9) 0.8925(7) 0.2060(4)
C2 C 0.2344(8) 0.7999(6) 0.2003(4)
C3 C 0.3176(8) 0.6913(6) 0.2229(4)
H1 H 0.40725 0.67663 0.23734
C4 C 0.2703(8) 0.6042(6) 0.2244(4)
C5 C 0.1387(7) 0.6285(6) 0.1995(4)
C6 C 0.0785(8) 0.5419(6) 0.1959(5)
C7 C 0.1663(8) 0.2378(6) 0.3333(5)
C8 C 0.2515(8) 0.1939(6) 0.4065(5)
C9 C 0.3658(8) 0.2224(6) 0.4129(5)
C10 C 0.4401(7) 0.1742(6) 0.4825(4)
H2 H 0.51548 0.19576 0.48741
C11 C 0.4092(7) 0.0956(5) 0.5455(4)
C12 C 0.4945(8) 0.0434(6) 0.6207(5)
C13 C 0.2968(8) 0.0648(7) 0.5412(5)
H3 H 0.27434 0.01114 0.58445
C14 C 0.2183(8) 0.1148(6) 0.4719(5)
H4 H 0.14067 0.09542 0.46841
C15 C 0.4070(7) 0.3065(6) 0.3460(5)
C16 C 0.5404(7) 0.2831(6) 0.3219(5)
H5 H 0.60147 0.21250 0.34364
C17 C 0.5835(7) 0.3639(6) 0.2656(4)
C18 C 0.7279(8) 0.3436(7) 0.2453(5)
C19 C 0.4945(7) 0.4647(6) 0.2338(5)
H6 H 0.52423 0.51921 0.19559
C20 C 0.3611(7) 0.4892(6) 0.2561(4)
C21 C 0.3174(7) 0.4107(6) 0.3126(4)
H7 H 0.22681 0.42723 0.32877
C22 C -0.0157(8) 0.2188(7) 0.1027(5)
H8 H -0.07480 0.19049 0.14061
C23 C 0.0212(8) 0.0858(6) 0.0195(4)
C24 C 0.1204(8) 0.0208(6) -0.0177(4)
H9 H 0.20246 0.03593 -0.03029
C25 C -0.1001(8) 0.0669(7) 0.0366(5)
H10 H -0.16890 0.11384 0.06114
C26 C 0.1191(9) 0.2421(7) -0.0014(5)
H11 H 0.17099 0.23507 -0.04868
C27 C 0.1053(8) 0.3158(7) 0.0402(5)
H12 H 0.14833 0.37086 0.02659
C28 C 0.0571(8) 0.7377(6) 0.1782(5)
H13 H -0.03243 0.75325 0.16312
C29 C 0.1038(8) 0.8247(7) 0.1786(5)
H14 H 0.04723 0.89848 0.16430
C30 C 0.4147(8) 1.2520(6) 0.1268(5)
H15 H 0.37643 1.29361 0.16453
C31 C 0.4862(8) 1.3976(6) 0.0266(5)
C32 C 0.3848(9) 1.4872(7) 0.0405(5)
H16 H 0.30600 1.47782 0.06792
C33 C 0.5991(8) 1.4112(7) -0.0140(5)
H17 H 0.66677 1.34935 -0.02372
C34 C 0.5132(10) 1.2066(7) 0.0187(6)
H18 H 0.55571 1.20926 -0.03251
C35 C 0.482(1) 1.1197(8) 0.0692(5)
H19 H 0.50031 1.04958 0.05958
N1A N -0.0217(6) -0.3024(5) -0.1047(4)
N2A N -0.0406(7) -0.1777(6) -0.0397(4)
C22A C 0.0157(8) -0.2188(7) -0.1027(5)
H8A H 0.07480 -0.19049 -0.14061
C23A C -0.0212(8) -0.0858(6) -0.0195(4)
C24A C -0.1204(8) -0.0208(6) 0.0177(4)
H9A H -0.20246 -0.03593 0.03029
C25A C 0.1001(8) -0.0669(7) -0.0366(5)
H10A H 0.16890 -0.11384 -0.06114
C26A C -0.1191(9) -0.2421(7) 0.0014(5)
H11A H -0.17099 -0.23507 0.04868
C27A C -0.1053(8) -0.3158(7) -0.0402(5)
H12A H -0.14833 -0.37086 -0.02659
N3A N 0.5801(7) 1.8506(5) -0.1359(4)
N4A N 0.5283(7) 1.7106(6) -0.0559(4)
C30A C 0.5853(8) 1.7480(6) -0.1268(5)
H15A H 0.62357 1.70639 -0.16453
C31A C 0.5138(8) 1.6024(6) -0.0266(5)
C32A C 0.6152(9) 1.5128(7) -0.0405(5)
H16A H 0.69400 1.52218 -0.06792
C33A C 0.4009(8) 1.5888(7) 0.0140(5)
H17A H 0.33323 1.65065 0.02372
C34A C 0.4868(10) 1.7934(7) -0.0187(6)
H18A H 0.44429 1.79074 0.03251
C35A C 0.518(1) 1.8803(8) -0.0692(5)
H19A H 0.49969 1.95042 -0.05958
Cd1A Cd -0.35044(6) -1.05034(5) -0.24753(3)
Cd2A Cd 0.01639(6) -0.37435(5) -0.20795(3)
O1A O -0.1998(6) -0.9781(4) -0.2170(4)
O2A O -0.4073(6) -0.8796(5) -0.2025(4)
O3A O -0.2028(6) -0.2032(4) -0.2712(3)
O4A O -0.0577(5) -0.3108(5) -0.3357(3)
O5A O -0.4607(6) 0.0221(5) -0.6790(3)
O6A O -0.6000(6) -0.0670(5) -0.6221(3)
O7A O -0.7635(5) -0.4278(4) -0.2159(4)
O8A O -0.8079(5) -0.2484(5) -0.2613(4)
O9A O -0.1456(5) -0.4649(4) -0.1660(3)
O10A O 0.0377(5) -0.5524(5) -0.2201(4)
C1A C -0.2861(9) -0.8925(7) -0.2060(4)
C2A C -0.2344(8) -0.7999(6) -0.2003(4)
C3A C -0.3176(8) -0.6913(6) -0.2229(4)
H1A H -0.40725 -0.67663 -0.23734
C4A C -0.2703(8) -0.6042(6) -0.2244(4)
C5A C -0.1387(7) -0.6285(6) -0.1995(4)
C6A C -0.0785(8) -0.5419(6) -0.1959(5)
C7A C -0.1663(8) -0.2378(6) -0.3333(5)
C8A C -0.2515(8) -0.1939(6) -0.4065(5)
C9A C -0.3658(8) -0.2224(6) -0.4129(5)
C10A C -0.4401(7) -0.1742(6) -0.4825(4)
H2A H -0.51548 -0.19576 -0.48741
C11A C -0.4092(7) -0.0956(5) -0.5455(4)
C12A C -0.4945(8) -0.0434(6) -0.6207(5)
C13A C -0.2968(8) -0.0648(7) -0.5412(5)
H3A H -0.27434 -0.01114 -0.58445
C14A C -0.2183(8) -0.1148(6) -0.4719(5)
H4A H -0.14067 -0.09542 -0.46841
C15A C -0.4070(7) -0.3065(6) -0.3460(5)
C16A C -0.5404(7) -0.2831(6) -0.3219(5)
H5A H -0.60147 -0.21250 -0.34364
C17A C -0.5835(7) -0.3639(6) -0.2656(4)
C18A C -0.7279(8) -0.3436(7) -0.2453(5)
C19A C -0.4945(7) -0.4647(6) -0.2338(5)
H6A H -0.52423 -0.51921 -0.19559
C20A C -0.3611(7) -0.4892(6) -0.2561(4)
C21A C -0.3174(7) -0.4107(6) -0.3126(4)
H7A H -0.22681 -0.42723 -0.32877
C28A C -0.0571(8) -0.7377(6) -0.1782(5)
H13A H 0.03243 -0.75325 -0.16312
C29A C -0.1038(8) -0.8247(7) -0.1786(5)
H14A H -0.04723 -0.89848 -0.16430
Cd1* Cd -0.64956(6) 0.05034(5) -0.75247(3)
Cd1** Cd 0.35044(6) 0.05034(5) 0.24753(3)
Cd1A* Cd -0.35044(6) -0.05034(5) -0.24753(3)
Cd1A** Cd 0.64956(6) -0.05034(5) 0.75247(3)
Cd1A*** Cd 0.64956(6) 1.94966(5) -0.24753(3)
Cd2* Cd 0.98361(6) 0.37435(5) 0.20795(3)
Cd2A* Cd -0.98361(6) -0.37435(5) -0.20795(3)
O3* O 0.2028(6) 1.2032(4) 0.2712(3)
O3A* O -0.2028(6) -1.2032(4) -0.2712(3)
O5* O -0.5393(6) -1.0221(5) -0.3210(3)
O5A* O 0.5393(6) 1.0221(5) 0.3210(3)
O6* O -0.4000(6) -0.9330(5) -0.3779(3)
O6A* O 0.4000(6) 0.9330(5) 0.3779(3)
O7* O -0.2365(5) 0.4278(4) 0.2159(4)
O7A* O 0.2365(5) -0.4278(4) -0.2159(4)
N3A* N -0.4199(7) -1.1494(5) -0.1359(4)
#END
