
#######################################################################
#
#                 Cambridge Crystallographic Data Centre
#                                CCDC
#
#######################################################################
#
# If this CIF has been generated from an entry in the Cambridge
# Structural Database, then it will include bibliographic, chemical,
# crystal, experimental, refinement or atomic coordinate data resulting
# from the CCDC's data processing and validation procedures.
#
#######################################################################

data_CSD_CIF_FIXKUV
_audit_creation_date 2019-01-14
_audit_creation_method CSD-ConQuest-V1
_database_code_CSD FIXKUV
_database_code_depnum_ccdc_archive 'CCDC 1861856'
_chemical_formula_sum 'C41 H41 Co3 N5.5 O21'
_chemical_formula_moiety
;
(C32 H24 Co3 N4 O18 2-)n,0.75n(C12 H14 N2 2+),0.5n(H3 O1 1+),2.5n(H2 O1)
;
_journal_coden_Cambridge 179
_journal_volume 57
_journal_year 2018
_journal_page_first 16716
_journal_name_full 'Angew.Chem.,Int.Ed. '
loop_
_publ_author_name
"Chang-Gen Lin"
"Wei Zhou"
"Xue-Ting Xiong"
"Weimin Xuan"
"P.J.Kitson"
"De-Liang Long"
"Wei Chen"
"Yu-Fei Song"
"L.Cronin"
_chemical_name_systematic
;
catena-(hemikis(oxonium) N,N'-dimethyl-4,4'-bipyridinium 
bis(\m-aqua)-tetrakis(\m-5-aminoisophthalato)-triaqua-tri-cobalt hydrate)
;
_cell_volume   4780.979
_exptl_crystal_colour 'brown'
_exptl_crystal_density_diffrn 1.561
_exptl_crystal_description 'block'
_diffrn_ambient_temperature 150
_refine_special_details
;
C81,C82,C83,C84,C85,C86,N5 disordered by symmetry over two configurations 
with occupancy 0.5; O30,O31 and O31',O32',O33 disordered over two sites with 
occupancies 0.65:0.3,0.3,0.35.
;
#These two values have been output from a single CSD field.
_refine_ls_R_factor_gt 0.0878
_refine_ls_wR_factor_gt 0.0878
_symmetry_cell_setting monoclinic
_symmetry_space_group_name_H-M 'P 21/n'
_symmetry_Int_Tables_number 14
loop_
_symmetry_equiv_pos_site_id
_symmetry_equiv_pos_as_xyz
1 x,y,z
2 1/2-x,1/2+y,1/2-z
3 -x,-y,-z
4 -1/2+x,-1/2-y,-1/2+z
_cell_length_a 14.1160(4)
_cell_length_b 19.5199(7)
_cell_length_c 17.3852(4)
_cell_angle_alpha 90
_cell_angle_beta 93.588(2)
_cell_angle_gamma 90
_cell_formula_units_Z 4
loop_
_atom_type_symbol
_atom_type_radius_bond
C 0.68
H 0.23
Co 1.26
N 0.68
O 0.68
loop_
_atom_site_label
_atom_site_type_symbol
_atom_site_fract_x
_atom_site_fract_y
_atom_site_fract_z
C1 C 0.5997(4) 0.4150(4) 0.2590(3)
C2 C 0.5834(4) 0.4871(4) 0.2817(3)
C3 C 0.4957(4) 0.5061(4) 0.3086(4)
H1 H 0.44712 0.47267 0.31147
C4 C 0.4784(4) 0.5730(4) 0.3313(4)
C5 C 0.5512(4) 0.6211(4) 0.3294(3)
H2 H 0.54169 0.66636 0.34734
C6 C 0.6380(4) 0.6029(4) 0.3012(3)
C7 C 0.6531(4) 0.5364(4) 0.2772(3)
H3 H 0.71208 0.52446 0.25746
C8 C 0.7149(4) 0.6559(4) 0.2947(4)
C9 C 0.3383(4) 0.2228(4) -0.1343(4)
C10 C 0.4318(4) 0.2512(4) -0.1029(4)
C11 C 0.9109(4) 0.3371(4) 0.1038(3)
C12 C 1.0020(4) 0.3244(4) 0.1341(3)
H4 H 1.01895 0.33526 0.18642
C13 C 1.0692(4) 0.2959(4) 0.0882(3)
C14 C 0.5701(4) 0.2872(4) 0.0875(3)
C15 C 0.5421(4) 0.2841(4) 0.0022(3)
C16 C 0.4544(4) 0.2576(4) -0.0240(3)
H5 H 0.40996 0.24395 0.01190
C17 C 0.6051(4) 0.3075(4) -0.0501(3)
H6 H 0.66459 0.32598 -0.03183
C18 C 0.5818(4) 0.3041(4) -0.1294(3)
C19 C 0.4967(4) 0.2733(4) -0.1552(3)
H7 H 0.48255 0.26728 -0.20887
C20 C 0.8842(4) 0.3163(4) 0.0288(3)
H8 H 0.82067 0.32284 0.00886
C21 C 1.1664(4) 0.2805(4) 0.1236(3)
C22 C 0.2891(4) -0.1102(4) 0.2015(4)
C23 C 0.3668(4) -0.0573(4) 0.1989(4)
C24 C 0.4589(4) -0.0777(4) 0.1837(3)
H9 H 0.47154 -0.12429 0.17213
C25 C 0.9198(4) 0.2615(4) -0.0962(3)
C26 C 0.9498(4) 0.2863(4) -0.0167(3)
C27 C 1.0440(4) 0.2764(4) 0.0126(3)
H10 H 1.08970 0.25675 -0.01868
C28 C 0.4016(4) 0.1323(4) 0.2340(4)
C29 C 0.4210(4) 0.0586(4) 0.2163(4)
C30 C 0.3483(4) 0.0113(4) 0.2146(4)
H11 H 0.28569 0.02539 0.22419
C31 C 0.5127(4) 0.0390(4) 0.2024(4)
H12 H 0.56225 0.07196 0.20425
C32 C 0.5322(4) -0.0295(4) 0.1856(4)
Co1 Co 0.25866(6) 0.23946(6) 0.27844(5)
Co2 Co 0.49905(6) 0.27294(5) 0.24978(5)
Co3 Co 0.73646(6) 0.30585(5) 0.20742(5)
N1 N 0.3911(4) 0.5904(4) 0.3594(4)
H13 H 0.39125 0.63471 0.37148
H14 H 0.34525 0.58213 0.32316
N2 N 0.8408(4) 0.3677(3) 0.1495(3)
H15 H 0.80739 0.39785 0.11846
H16 H 0.87279 0.39298 0.18669
N3 N 0.6478(4) 0.3287(3) -0.1816(3)
H17 H 0.67752 0.36564 -0.15910
H18 H 0.61366 0.34433 -0.22415
N4 N 0.6233(4) -0.0501(4) 0.1677(4)
H19 H 0.66204 -0.01409 0.17118
H20 H 0.64420 -0.08216 0.20090
O1 O 0.5305(3) 0.3752(3) 0.2574(3)
O2 O 0.6823(3) 0.3989(3) 0.2416(3)
O3 O 0.7042(3) 0.7135(3) 0.3255(3)
O4 O 0.7856(3) 0.6391(3) 0.2574(4)
O5 O 0.3385(3) 0.1962(3) -0.2005(2)
O6 O 0.2674(3) 0.2270(3) -0.0950(3)
O7 O 0.5115(3) 0.2644(4) 0.1326(3)
O8 O 0.6506(3) 0.3095(3) 0.1064(2)
O9 O 1.2378(3) 0.3061(4) 0.0960(3)
O10 O 1.1677(3) 0.2414(3) 0.1808(3)
O11 O 0.3093(3) -0.1708(3) 0.1870(3)
O12 O 0.2089(3) -0.0888(3) 0.2193(4)
O13 O 0.8357(3) 0.2740(3) -0.1194(2)
O14 O 0.9784(3) 0.2267(3) -0.1319(3)
O15 O 0.3169(3) 0.1506(3) 0.2351(3)
O16 O 0.4725(3) 0.1703(3) 0.2514(4)
O17 O 0.6419(3) 0.2508(3) 0.2777(3)
H21 H 0.67052 0.21621 0.26268
H22 H 0.66750 0.26315 0.32064
O18 O 0.3583(3) 0.3028(2) 0.2230(2)
H23 H 0.33829 0.29879 0.17642
H24 H 0.34829 0.34058 0.24378
C33 C 0.8629(9) 0.5754(8) 0.1009(8)
H25 H 0.85670 0.59207 0.15173
C34 C 0.9478(9) 0.5454(9) 0.0823(8)
H26 H 1.00024 0.54437 0.11926
C35 C 0.9563(7) 0.5168(6) 0.0094(7)
C36 C 0.8806(10) 0.5253(10) -0.0423(7)
H27 H 0.88405 0.50815 -0.09319
C37 C 0.7991(10) 0.5580(9) -0.0226(7)
H28 H 0.74825 0.56427 -0.06042
C38 C 0.7026(8) 0.6136(6) 0.0637(8)
H29 H 0.65985 0.61176 0.01715
H30 H 0.67338 0.58980 0.10585
H31 H 0.71440 0.66152 0.07821
N5 N 0.7906(6) 0.5811(5) 0.0491(6)
N6 N 0.6961(12) 0.1025(10) 0.0096(13)
C39 C 0.7137(11) 0.0339(10) -0.0056(12)
H32 H 0.77655 0.01900 -0.01298
C40 C 0.6393(15) -0.0129(9) -0.0100(12)
H33 H 0.65137 -0.05978 -0.02033
C41 C 0.5474(13) 0.0089(11) 0.0009(12)
C42 C 0.5298(11) 0.0775(12) 0.0161(12)
H34 H 0.46691 0.09235 0.02346
C43 C 0.6041(14) 0.1243(9) 0.0204(13)
H35 H 0.59209 0.17114 0.03082
C44 C 0.763(2) 0.1514(17) -0.0011(18)
H36 H 0.73856 0.19648 0.01240
H37 H 0.82053 0.14135 0.03174
H38 H 0.77897 0.15159 -0.05527
O19 O 0.7750(7) 0.3479(5) 0.5525(5)
O20 O 0.3305(7) 0.5089(6) 0.1593(6)
O21 O 0.6724(10) 0.4537(8) 0.0761(8)
O22 O 0.916(2) -0.1025(17) 0.0500(16)
O23? O 0.7096(12) 0.4428(9) 0.0471(9)
O24? O 0.7999(15) 0.4199(13) 0.9104(12)
O25? O 0.4214(19) 0.4893(15) 0.1194(15)
Co1* Co 1.25866(6) 0.23946(6) 0.27844(5)
Co1A Co 0.24134(6) -0.26054(6) 0.22156(5)
Co1C Co 0.75866(6) 0.26054(6) -0.22156(5)
Co2C Co 0.99905(6) 0.22706(5) -0.25022(5)
Co3A Co 0.76354(6) 0.80585(5) 0.29258(5)
Co3C Co 0.23646(6) 0.19415(5) -0.29258(5)
N3C N 0.1478(4) 0.1713(3) 0.3184(3)
O3A O 0.7958(3) 0.2135(3) 0.1745(3)
O5C O 0.8385(3) 0.3038(3) 0.2995(2)
O10* O 0.1677(3) 0.2414(3) 0.1808(3)
O11A O 0.1907(3) 0.3292(3) 0.3130(3)
O13C O 0.3357(3) 0.2260(3) 0.3806(2)
O14C O 0.4784(3) 0.2733(3) 0.3681(3)
C33B C 1.1371(9) 0.4246(8) -0.1009(8)
H25B H 1.14330 0.40793 -0.15173
C34B C 1.0522(9) 0.4546(9) -0.0823(8)
H26B H 0.99976 0.45563 -0.11926
C35B C 1.0437(7) 0.4832(6) -0.0094(7)
C36B C 1.1194(10) 0.4747(10) 0.0423(7)
H27B H 1.11595 0.49185 0.09319
C37B C 1.2009(10) 0.4420(9) 0.0226(7)
H28B H 1.25175 0.43573 0.06042
C38B C 1.2974(8) 0.3864(6) -0.0637(8)
H29B H 1.34015 0.38824 -0.01715
H30B H 1.32662 0.41020 -0.10585
H31B H 1.28560 0.33848 -0.07821
N5B N 1.2094(6) 0.4189(5) -0.0491(6)
N6B N 0.3039(12) -0.1025(10) -0.0096(13)
C39B C 0.2863(11) -0.0339(10) 0.0056(12)
H32B H 0.22345 -0.01900 0.01298
C40B C 0.3607(15) 0.0129(9) 0.0100(12)
H33B H 0.34863 0.05978 0.02033
C41B C 0.4526(13) -0.0089(11) -0.0009(12)
C42B C 0.4702(11) -0.0775(12) -0.0161(12)
H34B H 0.53309 -0.09235 -0.02346
C43B C 0.3959(14) -0.1243(9) -0.0204(13)
H35B H 0.40791 -0.17114 -0.03082
C44B C 0.237(2) -0.1514(17) 0.0011(18)
H36B H 0.26144 -0.19648 -0.01240
H37B H 0.17947 -0.14135 -0.03174
H38B H 0.22103 -0.15159 0.05527
#END
