
#######################################################################
#
#                 Cambridge Crystallographic Data Centre
#                                CCDC
#
#######################################################################
#
# If this CIF has been generated from an entry in the Cambridge
# Structural Database, then it will include bibliographic, chemical,
# crystal, experimental, refinement or atomic coordinate data resulting
# from the CCDC's data processing and validation procedures.
#
#######################################################################

data_CSD_CIF_FIXLEG
_audit_creation_date 2019-01-14
_audit_creation_method CSD-ConQuest-V1
_database_code_CSD FIXLEG
_database_code_depnum_ccdc_archive 'CCDC 1861858'
_chemical_formula_sum 'C120 H139 Cd6 Cl2 N17 O55'
_chemical_formula_moiety
;
(C24 H19 Cd2 N3 O14 2-)n,2n(C24 H17 Cd2 Cl1 N3 O13 3-),4n(C12 H14 N2 
2+),15n(H2 O1)
;
_journal_coden_Cambridge 179
_journal_volume 57
_journal_year 2018
_journal_page_first 16716
_journal_name_full 'Angew.Chem.,Int.Ed. '
loop_
_publ_author_name
"Chang-Gen Lin"
"Wei Zhou"
"Xue-Ting Xiong"
"Weimin Xuan"
"P.J.Kitson"
"De-Liang Long"
"Wei Chen"
"Yu-Fei Song"
"L.Cronin"
_chemical_name_systematic
;
catena-(tetrakis(N,N'-dimethyl-4,4'-bipyridinium) 
bis(tris(\m-2-aminoterephthalato)-aqua-chloro-di-cadmium(ii)) 
tris(\m-2-aminoterephthalato)-diaqua-di-cadmium(ii) pentadecahydrate)
;
_cell_volume   6975.628
_exptl_crystal_colour 'brown'
_exptl_crystal_density_diffrn 1.64
_exptl_crystal_description 'block'
_diffrn_ambient_temperature 100
_diffrn_special_details
;
twin

;
_refine_special_details
;
Cl2,O21 disordered by symmetry over two configurations with occupancy 0.5; N5 
disordered by symmetry over two configurations with occupancy 0.5; O25,O28 
and N1 and N1' disordered over three sites with occupancies 
0.75,0.5:0.574:0.426; O29 and O32 disordered over two sites with occupancies 
0.5:0.5.
;
#These two values have been output from a single CSD field.
_refine_ls_R_factor_gt 0.0617
_refine_ls_wR_factor_gt 0.0617
_symmetry_cell_setting monoclinic
_symmetry_space_group_name_H-M 'P 21/n'
_symmetry_Int_Tables_number 14
loop_
_symmetry_equiv_pos_site_id
_symmetry_equiv_pos_as_xyz
1 x,y,z
2 1/2-x,1/2+y,1/2-z
3 -x,-y,-z
4 -1/2+x,-1/2-y,-1/2+z
_cell_length_a 13.0031(3)
_cell_length_b 20.1904(4)
_cell_length_c 26.5700(6)
_cell_angle_alpha 90
_cell_angle_beta 90.035(2)
_cell_angle_gamma 90
_cell_formula_units_Z 2
loop_
_atom_type_symbol
_atom_type_radius_bond
C 0.68
H 0.23
Cd 1.44
Cl 0.99
N 0.68
O 0.68
loop_
_atom_site_label
_atom_site_type_symbol
_atom_site_fract_x
_atom_site_fract_y
_atom_site_fract_z
Cd1 Cd 0.71829(4) 0.94739(2) 1.01506(2)
O1 O 0.8882(5) 0.9507(3) 0.9795(2)
O2 O 0.7536(5) 0.9662(3) 0.9305(2)
O3 O 0.7203(6) 0.8265(3) 1.0128(2)
O4 O 0.7454(5) 0.8812(3) 1.0827(2)
O5 O 0.5456(6) 0.9352(5) 0.9917(3)
O6 O 0.7471(6) 1.0581(3) 1.0290(3)
O7 O 0.6531(6) 1.0184(3) 1.0898(3)
C1 C 0.8492(7) 0.9653(4) 0.9368(3)
C2 C 0.7404(6) 0.8268(4) 1.0594(3)
C3 C 0.9193(6) 0.9822(4) 0.8946(3)
C4 C 0.7514(5) 0.7632(4) 1.0874(2)
C5 C 0.8819(6) 0.9884(4) 0.8448(3)
C6 C 1.0240(7) 0.9948(4) 0.9042(3)
C7 C 0.7500(6) 0.7047(4) 1.0600(3)
C8 C 0.7610(5) 0.7611(4) 1.1408(2)
H1 H 0.81257 0.98141 0.83805
C9 C 0.9492(6) 1.0050(4) 0.8053(3)
H2 H 1.05003 0.99169 0.93754
C10 C 1.0888(6) 1.0117(4) 0.8650(3)
H3 H 0.74304 0.70667 1.02446
C11 C 0.7584(6) 0.6433(4) 1.0832(3)
C12 C 0.7657(5) 0.6986(4) 1.1635(2)
N1 N 0.7681(6) 0.8160(3) 1.1701(2)
C13 C 1.0529(6) 1.0167(3) 0.8154(3)
N2 N 0.9078(9) 1.0058(6) 0.7573(4)
H4 H 1.15938 1.02009 0.87180
H5 H 0.76013 0.60378 1.06380
C14 C 0.7645(5) 0.6408(4) 1.1360(3)
H6 H 0.76990 0.69604 1.19919
H7 H 0.76697 0.80871 1.20168
H8 H 0.72476 0.84394 1.15986
C15 C 1.1283(6) 1.0330(4) 0.7756(3)
H9 H 0.86268 0.97626 0.74943
H10 H 0.96402 1.00034 0.74115
C16 C 0.7721(6) 0.5756(4) 1.1626(3)
O8 O 1.0958(4) 1.0365(3) 0.7295(2)
O9 O 1.2190(4) 1.0438(2) 0.7865(2)
O10 O 0.7805(6) 0.5738(3) 1.2085(2)
O11 O 0.7664(6) 0.5233(3) 1.1360(2)
Cd2 Cd 1.26843(4) 1.05122(2) 0.70287(2)
O12 O 1.2478(4) 1.1785(3) 0.7159(2)
O13 O 1.2551(4) 1.1295(3) 0.6418(2)
Cl1 Cl 1.4613(6) 1.0584(4) 0.7268(3)
C17 C 1.2469(5) 1.1808(4) 0.6689(3)
C18 C 1.2327(5) 1.2466(4) 0.6433(2)
C19 C 1.2339(6) 1.2503(4) 0.5898(3)
C20 C 1.2201(5) 1.3031(4) 0.6714(3)
H11 H 1.24037 1.21154 0.56983
C21 C 1.2253(6) 1.3125(4) 0.5679(3)
C22 C 1.2069(6) 1.3655(4) 0.6489(3)
H12 H 1.22030 1.29995 0.70705
H13 H 1.22941 1.31627 0.53228
C23 C 1.2107(6) 1.3699(4) 0.5967(3)
N3 N 1.1848(8) 1.4163(5) 0.6815(4)
C24 C 1.2028(7) 1.4350(5) 0.5695(4)
H14 H 1.20927 1.40985 0.71058
H15 H 1.19965 1.45301 0.66804
C25 C 0.0027(8) 0.2672(6) 0.0204(3)
H16 H -0.00427 0.22526 0.00221
H17 H -0.05173 0.29772 0.00969
H18 H 0.06997 0.28682 0.01315
C26 C 0.0006(7) 0.3050(5) 0.1070(4)
H19 H 0.00892 0.34884 0.09472
C27 C -0.0040(6) 0.2933(4) 0.1587(3)
H20 H 0.00156 0.32913 0.18175
C28 C -0.0168(5) 0.2299(4) 0.1760(3)
C29 C -0.0256(6) 0.1791(4) 0.1417(3)
H21 H -0.03540 0.13488 0.15304
C30 C -0.0202(6) 0.1924(5) 0.0914(3)
H22 H -0.02624 0.15738 0.06771
C31 C -0.0243(5) 0.2549(4) 0.3173(3)
H23 H -0.03307 0.28985 0.34077
C32 C -0.0328(6) 0.2676(4) 0.2666(3)
H24 H -0.04848 0.31107 0.25520
C33 C -0.0182(5) 0.2159(4) 0.2317(3)
C34 C 0.0007(6) 0.1532(4) 0.2508(3)
H25 H 0.00960 0.11704 0.22833
C35 C 0.0069(6) 0.1428(4) 0.3021(3)
H26 H 0.01871 0.09945 0.31475
C36 C 0.0088(7) 0.1823(5) 0.3881(3)
H27 H -0.00135 0.22409 0.40622
H28 H -0.04201 0.14978 0.39959
H29 H 0.07821 0.16552 0.39481
N4 N -0.0064(5) 0.2549(4) 0.0753(3)
N5 N -0.0038(5) 0.1935(3) 0.3339(2)
C37 C 0.4872(9) 0.3125(7) 0.0172(4)
H30 H 0.50169 0.35944 0.01102
H31 H 0.54095 0.28535 0.00159
H32 H 0.42032 0.30101 0.00262
C38 C 0.5049(7) 0.3506(5) 0.1052(3)
H33 H 0.51896 0.39339 0.09202
C39 C 0.5044(6) 0.3405(4) 0.1576(3)
H34 H 0.51624 0.37607 0.18034
C40 C 0.4858(6) 0.2756(4) 0.1751(3)
C41 C 0.4673(6) 0.2254(4) 0.1410(4)
H35 H 0.45482 0.18165 0.15267
C42 C 0.4668(7) 0.2386(5) 0.0898(4)
H36 H 0.45326 0.20399 0.06644
C43 C 0.4981(7) 0.1869(6) 0.2990(4)
H37 H 0.50701 0.14316 0.31151
C44 C 0.4980(7) 0.1977(5) 0.2473(4)
H38 H 0.50554 0.16200 0.22432
C45 C 0.4865(5) 0.2630(4) 0.2300(3)
C46 C 0.4763(6) 0.3141(5) 0.2650(3)
H39 H 0.46972 0.35853 0.25385
C47 C 0.4757(7) 0.3001(6) 0.3162(4)
H40 H 0.46839 0.33471 0.34019
C48 C 0.4820(8) 0.2219(8) 0.3867(4)
H41 H 0.47275 0.26308 0.40569
H42 H 0.42435 0.19195 0.39363
H43 H 0.54648 0.20066 0.39701
N6 N 0.4853(5) 0.2997(4) 0.0734(3)
N7 N 0.4857(5) 0.2371(5) 0.3314(3)
O14 O 0.2202(5) 0.2129(4) 0.0833(2)
O15 O 0.2429(7) 0.8498(4) 0.4318(3)
O16 O 1.0728(6) 0.8880(4) 1.0098(3)
O17 O 0.3831(9) 0.9379(6) 0.4733(5)
O18 O 0.5440(9) 0.9296(5) 0.8831(4)
O19 O 0.5464(13) 0.9078(8) 1.1461(6)
O20 O 0.8374(12) 1.1493(8) 0.9072(6)
O21 O 0.2592(15) 1.1649(9) 0.4653(7)
O22 O 0.3417(14) 1.0950(9) 0.5510(7)
O23 O 0.4574(15) 0.8381(10) 1.0426(7)
O24 O 0.5441(18) 0.9557(11) 0.6461(8)
C49 C 0.7150(6) 1.0901(4) 0.7041(3)
C50 C 0.7204(6) 1.1553(3) 0.7299(3)
C51 C 0.7186(6) 1.1594(4) 0.7826(3)
H44 H 0.71045 1.12071 0.80263
C52 C 0.7291(6) 1.2214(4) 0.8050(3)
H45 H 0.73042 1.22441 0.84063
C53 C 0.7376(5) 1.2791(4) 0.7767(3)
C54 C 0.7366(6) 1.2753(4) 0.7237(3)
C55 C 0.7292(6) 1.2128(4) 0.7012(3)
H46 H 0.73011 1.20946 0.66549
C56 C 0.7518(5) 1.3431(4) 0.8036(3)
C57 C 0.8595(7) 0.9811(4) 0.5833(3)
C58 C 0.9318(7) 0.9907(4) 0.5410(3)
C59 C 0.8947(6) 0.9972(4) 0.4919(3)
H47 H 0.82264 0.99531 0.48628
C60 C 1.0396(6) 0.9937(4) 0.5493(3)
N8 N 0.7422(6) 1.3291(4) 0.6917(3)
H48 H 0.78964 1.32094 0.66958
H49 H 0.76104 1.36308 0.70988
N9 N 1.078(1) 0.9923(8) 0.5971(5)
H50 H 1.14070 0.98059 0.59703
H51 H 1.03948 0.97005 0.61649
O25 O 0.7062(7) 1.0381(3) 0.7295(3)
O26 O 0.7182(6) 1.0869(3) 0.6565(2)
O27 O 0.8931(5) 0.9789(3) 0.6282(2)
O28 O 0.7647(5) 0.9755(3) 0.5739(2)
O29 O 0.7595(5) 1.3955(3) 0.7777(2)
O30 O 0.7561(5) 1.3446(3) 0.8511(2)
Cd3 Cd 0.71733(5) 0.96816(2) 0.65743(2)
O31? O 0.221(2) 1.2470(11) 0.4456(8)
Cl2? Cl 0.5233(7) 0.9672(6) 0.6316(4)
N10? N 0.7756(14) 0.9812(9) 0.8304(6)
H52? H 0.76889 0.96923 0.79986
H53? H 0.71900 0.97911 0.84634
H54? H 0.92456 1.00822 0.77257
O32? O 1.4292(16) 1.0597(14) 0.7175(12)
Cd2C Cd 0.76843(4) 0.44878(2) 1.20287(2)
O10C O 1.2805(6) 0.9262(3) 0.7085(2)
O11C O 1.2664(6) 0.9767(3) 0.6360(2)
O6C O 1.2471(6) 1.4419(3) 0.5290(3)
O7C O 1.1531(6) 1.4816(3) 0.5898(3)
Cd1C Cd 1.21829(4) 1.55261(2) 0.51506(2)
C57B C 1.1405(7) 1.0189(4) 0.4167(3)
C58B C 1.0682(7) 1.0093(4) 0.4590(3)
C59B C 1.1053(6) 1.0028(4) 0.5081(3)
H47B H 1.17736 1.00469 0.51372
C60B C 0.9604(6) 1.0063(4) 0.4507(3)
N9B N 0.922(1) 1.0077(8) 0.4029(5)
H50B H 0.85930 1.01941 0.40297
H51B H 0.96052 1.02995 0.38351
O27B O 1.1069(5) 1.0211(3) 0.3718(2)
O28B O 1.2353(5) 1.0245(3) 0.4261(2)
O24B O 1.4559(18) 1.0443(11) 0.3539(8)
C49B C 1.2850(6) 0.9099(4) 0.2959(3)
C50B C 1.2796(6) 0.8447(3) 0.2701(3)
C51B C 1.2814(6) 0.8406(4) 0.2174(3)
H44B H 1.28955 0.87929 0.19737
C52B C 1.2709(6) 0.7786(4) 0.1950(3)
H45B H 1.26958 0.77559 0.15937
C53B C 1.2624(5) 0.7209(4) 0.2233(3)
C54B C 1.2634(6) 0.7247(4) 0.2763(3)
C55B C 1.2708(6) 0.7872(4) 0.2988(3)
H46B H 1.26989 0.79054 0.33451
C56B C 1.2482(5) 0.6569(4) 0.1964(3)
N8B N 1.2578(6) 0.6709(4) 0.3083(3)
H48B H 1.21036 0.67906 0.33042
H49B H 1.23896 0.63692 0.29012
O25B O 1.2938(7) 0.9619(3) 0.2705(3)
O26B O 1.2818(6) 0.9131(3) 0.3435(2)
O29B O 1.2405(5) 0.6045(3) 0.2223(2)
O30B O 1.2439(5) 0.6554(3) 0.1489(2)
Cd3B Cd 1.28267(5) 1.03184(2) 0.34257(2)
O29A O 0.7405(5) 0.8955(3) 0.7223(2)
O29C O 1.2595(5) 1.1045(3) 0.2777(2)
O30A O 0.7439(5) 0.8446(3) 0.6489(2)
O30C O 1.2561(5) 1.1554(3) 0.3511(2)
Cd3A Cd 0.78267(5) 1.46816(2) 0.84257(2)
Cd3C Cd 1.21733(5) 0.53184(2) 0.15743(2)
#END
