
#######################################################################
#
#                 Cambridge Crystallographic Data Centre
#                                CCDC
#
#######################################################################
#
# If this CIF has been generated from an entry in the Cambridge
# Structural Database, then it will include bibliographic, chemical,
# crystal, experimental, refinement or atomic coordinate data resulting
# from the CCDC's data processing and validation procedures.
#
#######################################################################

data_CSD_CIF_FIXLAC
_audit_creation_date 2019-01-14
_audit_creation_method CSD-ConQuest-V1
_database_code_CSD FIXLAC
_database_code_depnum_ccdc_archive 'CCDC 1861857'
_chemical_formula_sum 'C55 H73 Co5 N4 O41.5'
_chemical_formula_moiety
;
(C36 H26 Co5 O31 2-)n,n(C12 H14 N2 2+),2n(C3 H7 N1 O1),n(C1 H4 O1),7.5n(H2 O1)
;
_journal_coden_Cambridge 179
_journal_volume 57
_journal_year 2018
_journal_page_first 16716
_journal_name_full 'Angew.Chem.,Int.Ed. '
loop_
_publ_author_name
"Chang-Gen Lin"
"Wei Zhou"
"Xue-Ting Xiong"
"Weimin Xuan"
"P.J.Kitson"
"De-Liang Long"
"Wei Chen"
"Yu-Fei Song"
"L.Cronin"
_chemical_name_systematic
;
catena-(N,N'-dimethyl-4,4'-bipyridinium 
(\m-aqua)-tris(\m-benzene-1,3,5-tricarboxylato)-(\m-hydrogen 
1,3,5-tricarboxylato)-(\m-hydroxo)-penta-aqua-penta-cobalt dimethylformamide 
methanol solvate hydrate)
;
_cell_volume   3624.765
_exptl_crystal_colour 'purple'
_exptl_crystal_density_diffrn 1.602
_exptl_crystal_description 'block'
_diffrn_ambient_temperature 100
#These two values have been output from a single CSD field.
_refine_ls_R_factor_gt 0.0557
_refine_ls_wR_factor_gt 0.0557
_symmetry_cell_setting monoclinic
_symmetry_space_group_name_H-M 'P 21'
_symmetry_Int_Tables_number 4
loop_
_symmetry_equiv_pos_site_id
_symmetry_equiv_pos_as_xyz
1 x,y,z
2 -x,1/2+y,-z
_cell_length_a 11.1688(2)
_cell_length_b 16.0722(2)
_cell_length_c 20.2135(3)
_cell_angle_alpha 90
_cell_angle_beta 92.589(1)
_cell_angle_gamma 90
_cell_formula_units_Z 2
loop_
_atom_type_symbol
_atom_type_radius_bond
C 0.68
H 0.23
Co 1.26
N 0.68
O 0.68
loop_
_atom_site_label
_atom_site_type_symbol
_atom_site_fract_x
_atom_site_fract_y
_atom_site_fract_z
C1 C 0.5780(8) 0.2757(6) 0.2248(4)
C2 C 0.6303(8) 0.1932(6) 0.2056(4)
C3 C 0.6247(7) 0.1664(6) 0.1407(4)
H1 H 0.58720 0.19989 0.10702
C4 C 0.6743(7) 0.0896(5) 0.1247(4)
C5 C 0.7272(7) 0.0425(6) 0.1747(4)
H2 H 0.76130 -0.00967 0.16389
C6 C 0.7328(7) 0.0679(6) 0.2402(4)
C7 C 0.6822(8) 0.1438(6) 0.2562(4)
H3 H 0.68275 0.16197 0.30091
C8 C 0.7916(7) 0.0159(5) 0.2937(4)
C9 C 0.6714(7) 0.0571(5) 0.0545(4)
C10 C 0.3610(8) 0.1959(6) -0.4046(4)
C11 C 0.4270(8) 0.1153(6) -0.3876(4)
C12 C 0.4613(7) 0.0985(5) -0.3225(4)
H4 H 0.44123 0.13665 -0.28889
C13 C 0.4608(8) 0.0617(6) -0.4375(4)
H5 H 0.43898 0.07369 -0.48241
C14 C 0.5271(7) -0.0101(6) -0.4213(4)
C15 C 0.5571(7) -0.0289(6) -0.3558(4)
H6 H 0.59907 -0.07887 -0.34508
C16 C 0.5255(8) 0.0257(6) -0.3051(4)
C17 C 0.5632(7) 0.0107(5) -0.2341(4)
C18 C 0.6586(7) 0.3838(5) 0.0255(4)
C19 C 0.5400(6) 0.4203(5) 0.0427(4)
C20 C 0.9110(7) -0.0366(5) 0.5298(4)
C21 C 0.9394(8) 0.0299(6) 0.5806(4)
C22 C 0.9100(7) 0.0161(6) 0.6458(4)
H7 H 0.87721 -0.03603 0.65770
C23 C 1.0478(7) 0.2524(6) 0.5904(4)
C24 C 1.0035(7) 0.1689(5) 0.6100(4)
C25 C 0.9910(7) 0.1055(5) 0.5636(4)
H8 H 1.01762 0.11358 0.52005
C26 C 0.9727(7) 0.1552(6) 0.6756(4)
H9 H 0.98219 0.19830 0.70760
C27 C 0.9276(7) 0.0771(5) 0.6935(4)
C28 C 0.9006(7) 0.0594(5) 0.7652(4)
C29 C 0.9895(7) 0.4349(5) 0.0468(4)
C30 C 0.8745(7) 0.3914(5) 0.0278(4)
C31 C 0.7631(7) 0.4252(5) 0.0431(4)
H10 H 0.75988 0.47689 0.06577
C32 C 0.8785(6) 0.3164(5) -0.0054(4)
H11 H 0.95370 0.29327 -0.01568
C33 C 0.7725(7) 0.2743(5) -0.0238(4)
C34 C 0.6618(7) 0.3087(5) -0.0091(4)
H12 H 0.58942 0.28117 -0.02252
C35 C 0.7770(7) 0.1930(5) -0.0599(4)
C36 C 0.5710(8) -0.0637(6) -0.4763(4)
O1 O 0.5226(6) 0.3152(4) 0.1750(3)
H13 H 0.48783 0.35978 0.18632
O2 O 0.5856(7) 0.3031(5) 0.2807(3)
O3 O 0.8316(6) -0.0561(4) 0.2790(3)
O4 O 0.8019(6) 0.0410(4) 0.3520(3)
O5 O 0.5974(5) 0.0912(4) 0.0132(3)
O6 O 0.7400(5) -0.0021(4) 0.0442(3)
O7 O 0.3436(7) 0.2449(4) -0.3573(3)
O8 O 0.3312(6) 0.2072(4) -0.4643(3)
O9 O 0.5456(5) 0.4824(4) 0.0798(3)
O10 O 0.4473(5) 0.3871(4) 0.0175(3)
O11 O 1.0823(6) 0.2582(4) 0.5313(3)
O12 O 1.0430(5) 0.3115(4) 0.6308(3)
O13 O 0.8935(5) 0.1208(4) 0.8040(3)
O14 O 0.8870(6) -0.0132(4) 0.7832(3)
O15 O 0.9821(5) 0.5017(4) 0.0798(3)
O16 O 1.0837(5) 0.4010(4) 0.0299(3)
O17 O 0.6068(6) -0.1368(4) -0.4609(3)
O18 O 0.6907(5) 0.1751(3) -0.0996(3)
O19 O 0.7884(7) -0.2584(5) 0.5919(3)
O20 O 0.8682(5) 0.1477(3) -0.0491(3)
O21 O 0.9509(5) -0.0245(4) 0.4725(3)
O22 O 0.8516(6) -0.0971(4) 0.5485(3)
O23 O 0.4328(5) 0.1613(4) -0.0970(3)
O24 O 0.5514(5) 0.0714(4) -0.1961(3)
O25 O 0.7306(7) -0.2018(4) -0.0909(3)
O26 O 0.7549(5) -0.1821(4) 0.0538(3)
O27 O 0.7175(5) -0.0110(4) -0.1012(2)
H14 H 0.69699 -0.03792 -0.13617
O28 O 0.7380(5) -0.1215(4) 0.4124(2)
H15 H 0.71612 -0.15767 0.38380
H16 H 0.69166 -0.08171 0.42150
O29 O 0.5735(7) -0.0335(5) -0.5337(3)
O30 O 1.0668(6) -0.0220(5) 0.3506(3)
O31 O 0.6013(5) -0.0598(4) -0.2177(3)
Co1 Co 0.73232(10) -0.09567(8) -0.02650(6)
Co2 Co 0.5783(1) 0.07284(8) -0.09171(6)
Co3 Co 0.86499(10) 0.05397(8) -0.11376(6)
Co4 Co 0.90160(11) -0.06945(8) 0.38158(6)
Co5 Co 0.76283(11) -0.19109(8) 0.50300(6)
C37 C 0.6550(11) 0.3063(9) -0.3398(8)
C38 C 0.6655(13) 0.2528(9) -0.2844(10)
H17 H 0.70355 0.20021 -0.28788
C39 C 0.6207(16) 0.2771(11) -0.2265(9)
H18 H 0.63289 0.24288 -0.18843
C40 C 0.5474(17) 0.4001(11) -0.2741(7)
H19 H 0.50558 0.45118 -0.27013
C41 C 0.5934(16) 0.3807(11) -0.3323(9)
H20 H 0.58389 0.41805 -0.36864
C42 C 0.502(2) 0.3706(14) -0.1555(8)
H21 H 0.43493 0.40934 -0.16383
H22 H 0.56202 0.39652 -0.12540
H23 H 0.47206 0.31959 -0.13543
C43 C 0.7029(11) 0.2844(8) -0.4038(8)
C44 C 0.6981(13) 0.2031(11) -0.4273(10)
H24 H 0.66314 0.16073 -0.40163
C45 C 0.7422(13) 0.1842(9) -0.4855(10)
H25 H 0.73335 0.12902 -0.50188
C46 C 0.7569(14) 0.3447(9) -0.4432(7)
H26 H 0.75966 0.40132 -0.42964
C47 C 0.8055(15) 0.3208(9) -0.5016(8)
H27 H 0.84405 0.36089 -0.52780
C48 C 0.8551(17) 0.2189(11) -0.5829(8)
H28 H 0.84942 0.15865 -0.58991
H29 H 0.93960 0.23545 -0.57983
H30 H 0.81420 0.24786 -0.62011
N1 N 0.5585(15) 0.3494(9) -0.2213(7)
N2 N 0.7990(12) 0.2406(8) -0.5220(6)
C49 C 1.0255(14) 0.0611(16) 0.0916(7)
C50 C 0.962(2) 0.2047(14) 0.1343(11)
C51 C 1.0364(16) 0.0984(14) 0.2086(8)
N3 N 1.0113(11) 0.1178(9) 0.1467(6)
O32 O 1.0871(13) 0.0286(10) 0.2229(8)
C52 C 1.1875(12) -0.0399(12) -0.3224(7)
C53 C 1.160(2) -0.1160(12) -0.2151(9)
C54 C 1.2257(11) 0.0325(11) -0.2177(9)
N4 N 1.1887(10) -0.0421(9) -0.2562(5)
O33 O 1.1480(12) -0.1040(11) -0.3550(7)
C55 C 1.008(2) -0.1836(15) 0.1796(11)
O34 O 0.8628(10) -0.1609(6) 0.1780(4)
O35 O 0.2335(7) 0.0688(7) 0.4295(5)
O36 O 0.4601(7) 0.0826(6) 0.3860(4)
O37 O 0.5460(7) 0.2422(6) 0.4068(4)
O38 O 0.1956(10) 0.1416(7) 0.9532(5)
O39 O 0.6400(9) 0.6303(9) 0.9389(5)
O40 O 0.6729(11) -0.2613(7) 0.2182(5)
O41 O 0.8010(15) -0.1774(12) -0.2183(8)
O42 O 0.9627(12) -0.2175(9) -0.3145(7)
O43 O 0.6774(15) -0.4594(11) -0.1784(9)
O8A O 0.6688(6) -0.2928(4) 0.4643(3)
O9A O 0.4544(5) -0.0176(4) -0.0798(3)
O10A O 0.5527(5) -0.1129(4) -0.0175(3)
O11A O 0.9177(6) -0.2418(4) 0.4687(3)
O12A O 0.9570(5) -0.1885(4) 0.3692(3)
O13* O 0.8935(5) 0.1208(4) -0.1960(3)
O14* O 0.8870(6) -0.0132(4) -0.2168(3)
O15A O 1.0179(5) 0.0017(4) -0.0798(3)
O16A O 0.9163(5) -0.0990(4) -0.0299(3)
O17* O 0.6068(6) -0.1368(4) 0.5391(3)
Co1A Co 0.26768(10) 0.40433(8) 0.02650(6)
Co1A* Co 1.26768(10) 0.40433(8) 0.02650(6)
Co2A Co 0.4217(1) 0.57284(8) 0.09171(6)
Co3* Co 0.86499(10) 0.05397(8) 0.88624(6)
Co3A Co 1.13501(10) 0.55397(8) 0.11376(6)
Co4A Co 1.09840(11) 0.43055(8) 0.61842(6)
Co5* Co 0.76283(11) -0.19109(8) -0.49700(6)
Co5A Co 0.23717(11) 0.30891(8) -0.50300(6)
Co5A* Co 1.23717(11) 0.30891(8) 0.49700(6)
#END
