
#######################################################################
#
#                 Cambridge Crystallographic Data Centre
#                                CCDC
#
#######################################################################
#
# If this CIF has been generated from an entry in the Cambridge
# Structural Database, then it will include bibliographic, chemical,
# crystal, experimental, refinement or atomic coordinate data resulting
# from the CCDC's data processing and validation procedures.
#
#######################################################################

data_CSD_CIF_FIXMOR
_audit_creation_date 2019-01-14
_audit_creation_method CSD-ConQuest-V1
_database_code_CSD FIXMOR
_database_code_depnum_ccdc_archive 'CCDC 1861865'
_chemical_formula_sum 'C20 H19 Br2 Cd1 N3 O4'
_chemical_formula_moiety
;
(C12 H14 N2 2+)n,n(C8 H5 Br2 Cd1 N1 O4 2-)
;
_journal_coden_Cambridge 179
_journal_volume 57
_journal_year 2018
_journal_page_first 16716
_journal_name_full 'Angew.Chem.,Int.Ed. '
loop_
_publ_author_name
"Chang-Gen Lin"
"Wei Zhou"
"Xue-Ting Xiong"
"Weimin Xuan"
"P.J.Kitson"
"De-Liang Long"
"Wei Chen"
"Yu-Fei Song"
"L.Cronin"
_chemical_name_systematic
;
catena-(N,N'-dimethyl-4,4'-bipyridinium 
(\m-2-aminoterephthalato)-dibromo-cadmium(ii))
;
_cell_volume   2182.425
_exptl_crystal_colour 'brown'
_exptl_crystal_description 'block'
_diffrn_ambient_temperature 106
_refine_special_details
;
The atoms represented as Br are each mixed Br/Cl sites with occupancies 
0.625:0.375. N2 and N1 disordered over two sites with occupancies 0.25:0.25.
;
#These two values have been output from a single CSD field.
_refine_ls_R_factor_gt 0.0599
_refine_ls_wR_factor_gt 0.0599
_symmetry_cell_setting orthorhombic
_symmetry_space_group_name_H-M 'P c c n'
_symmetry_Int_Tables_number 56
loop_
_symmetry_equiv_pos_site_id
_symmetry_equiv_pos_as_xyz
1 x,y,z
2 1/2-x,1/2-y,z
3 1/2+x,-y,1/2-z
4 -x,1/2+y,1/2-z
5 -x,-y,-z
6 -1/2+x,-1/2+y,-z
7 -1/2-x,y,-1/2+z
8 x,-1/2-y,-1/2+z
_cell_length_a 8.0601(2)
_cell_length_b 14.6116(4)
_cell_length_c 18.5311(8)
_cell_angle_alpha 90
_cell_angle_beta 90
_cell_angle_gamma 90
_cell_formula_units_Z 4
loop_
_atom_type_symbol
_atom_type_radius_bond
C 0.68
H 0.23
Br 1.21
Cd 1.44
Cl 0.99
N 0.68
O 0.68
loop_
_atom_site_label
_atom_site_type_symbol
_atom_site_fract_x
_atom_site_fract_y
_atom_site_fract_z
C1 C 0.1107(8) 0.3676(4) 0.3942(4)
C2 C 0.0532(8) 0.4359(4) 0.4482(3)
C3 C -0.0436(8) 0.4086(4) 0.5078(4)
H1 H -0.07461 0.34624 0.51303
C4 C 0.0938(8) 0.5277(4) 0.4412(4)
N1 N 0.221(2) 0.5703(14) 0.397(1)
H2 H 0.22142 0.62747 0.38178
H3 H 0.31890 0.54930 0.38605
Cd1 Cd 0.25000 0.25000 0.29673(4)
O1 O 0.2055(6) 0.3933(3) 0.3439(3)
O2 O 0.0647(7) 0.2865(3) 0.3991(3)
Br1 Br 0.49068(13) 0.27638(8) 0.20586(6)
H4? H 0.15696 0.54727 0.40074
N2? N -0.115(3) 0.3184(11) 0.5275(11)
H5? H -0.11515 0.29756 0.57096
H6? H -0.10089 0.27021 0.50135
Cl1? Cl 0.49068(13) 0.27638(8) 0.20586(6)
C5 C 0.9573(11) 0.0075(7) 0.4663(5)
C6 C 0.8774(13) -0.0653(7) 0.4286(9)
H7 H 0.88157 -0.12612 0.44665
C7 C 0.7943(13) -0.0460(7) 0.3656(9)
H8 H 0.74063 -0.09499 0.34130
C8 C 0.8629(15) 0.1065(7) 0.3720(7)
H9 H 0.85746 0.16647 0.35228
C9 C 0.9470(16) 0.0934(7) 0.4332(7)
H10 H 1.00165 0.14395 0.45495
C10 C 0.6902(14) 0.0533(8) 0.2707(8)
H11 H 0.69735 0.11821 0.25783
H12 H 0.73636 0.01615 0.23149
H13 H 0.57386 0.03653 0.27844
N3 N 0.7844(10) 0.0368(6) 0.3368(6)
C1D C -0.1107(8) 0.6324(4) 0.6058(4)
C2D C -0.0532(8) 0.5641(4) 0.5518(3)
C3D C 0.0436(8) 0.5914(4) 0.4922(4)
H1D H 0.07461 0.65376 0.48697
C4D C -0.0938(8) 0.4723(4) 0.5588(4)
N1D N -0.221(2) 0.4297(14) 0.603(1)
H2D H -0.22142 0.37253 0.61822
H3D H -0.31890 0.45070 0.61395
O1D O -0.2055(6) 0.6067(3) 0.6561(3)
O2D O -0.0647(7) 0.7135(3) 0.6009(3)
Br1A Br 0.00932(13) 0.22362(8) 0.20586(6)
Cd1D Cd -0.25000 0.75000 0.70327(4)
O1A O 0.2945(6) 0.1067(3) 0.3439(3)
O2A O 0.4353(7) 0.2135(3) 0.3991(3)
C5D C 1.0427(11) -0.0075(7) 0.5337(5)
C6D C 1.1226(13) 0.0653(7) 0.5714(9)
H7D H 1.11843 0.12612 0.55335
C7D C 1.2057(13) 0.0460(7) 0.6344(9)
H8D H 1.25937 0.09499 0.65870
C8D C 1.1371(15) -0.1065(7) 0.6280(7)
H9D H 1.14254 -0.16647 0.64772
C9D C 1.0530(16) -0.0934(7) 0.5668(7)
H10D H 0.99835 -0.14395 0.54505
C10D C 1.3098(14) -0.0533(8) 0.7293(8)
H11D H 1.30265 -0.11821 0.74216
H12D H 1.26364 -0.01615 0.76850
H13D H 1.42614 -0.03653 0.72156
N3D N 1.2156(10) -0.0368(6) 0.6632(6)
#END
