
#######################################################################
#
#                 Cambridge Crystallographic Data Centre
#                                CCDC
#
#######################################################################
#
# If this CIF has been generated from an entry in the Cambridge
# Structural Database, then it will include bibliographic, chemical,
# crystal, experimental, refinement or atomic coordinate data resulting
# from the CCDC's data processing and validation procedures.
#
#######################################################################

data_CSD_CIF_FIXNEI
_audit_creation_date 2019-01-14
_audit_creation_method CSD-ConQuest-V1
_database_code_CSD FIXNEI
_database_code_depnum_ccdc_archive 'CCDC 1861868'
_chemical_formula_sum 'C28 H56 Cr2 Mo6 N4 Na1 O38'
_chemical_formula_moiety
;
(C20 H22 Cr1 Mo6 N2 Na1 O28 2-)n,n(C8 H26 Cr1 N2 O6 2+),4n(H2 O1)
;
_journal_coden_Cambridge 179
_journal_volume 57
_journal_year 2018
_journal_page_first 16716
_journal_name_full 'Angew.Chem.,Int.Ed. '
loop_
_publ_author_name
"Chang-Gen Lin"
"Wei Zhou"
"Xue-Ting Xiong"
"Weimin Xuan"
"P.J.Kitson"
"De-Liang Long"
"Wei Chen"
"Yu-Fei Song"
"L.Cronin"
_chemical_name_systematic
;
catena-(diaqua-bis(dimethylformamide)-bis(methanol)-chromium(iii) 
hexakis(\m-hydroxo)-decakis(\m-oxo)-(\m-1,1'-[1,4-phenylenebis(methylene)]bis(
3-carboxylatopyridin-1-ium))-octaoxo-chromium-hexa-molybdenum-sodium 
tetrahydrate)
;
_cell_volume   1313.137
_exptl_crystal_colour 'purple'
_exptl_crystal_density_diffrn 2.203
_exptl_crystal_description 'block'
_diffrn_ambient_temperature 100
_refine_special_details
;
The chromium atom of the cation is present with an occupancy of 0.667.

;
#These two values have been output from a single CSD field.
_refine_ls_R_factor_gt 0.0684
_refine_ls_wR_factor_gt 0.0684
_symmetry_cell_setting triclinic
_symmetry_space_group_name_H-M 'P -1'
_symmetry_Int_Tables_number 2
loop_
_symmetry_equiv_pos_site_id
_symmetry_equiv_pos_as_xyz
1 x,y,z
2 -x,-y,-z
_cell_length_a 9.9536(3)
_cell_length_b 11.7858(5)
_cell_length_c 12.3214(4)
_cell_angle_alpha 114.368(4)
_cell_angle_beta 91.155(3)
_cell_angle_gamma 93.198(3)
_cell_formula_units_Z 1
loop_
_atom_type_symbol
_atom_type_radius_bond
C 0.68
H 0.23
Cr 1.39
Mo 1.54
N 0.68
Na 1.66
O 0.68
loop_
_atom_site_label
_atom_site_type_symbol
_atom_site_fract_x
_atom_site_fract_y
_atom_site_fract_z
C1 C 0.7490(9) 0.4519(9) 0.6399(9)
C2 C 0.8773(8) 0.5345(7) 0.6559(7)
C3 C 1.0037(9) 0.4873(8) 0.6344(8)
H1 H 1.01205 0.40037 0.60993
C4 C 1.1164(9) 0.5652(9) 0.6481(9)
H2 H 1.20318 0.53360 0.63718
C5 C 1.1017(9) 0.6922(8) 0.6785(8)
H3 H 1.17795 0.74664 0.68371
C6 C 0.8677(7) 0.6598(8) 0.6887(7)
H4 H 0.78221 0.69385 0.70359
C7 C 0.9683(8) 0.8738(8) 0.7407(7)
H5 H 0.87906 0.88882 0.71435
H6 H 1.03834 0.90808 0.70436
C8 C 0.9855(8) 0.9393(7) 0.8760(7)
C9 C 1.1144(8) 0.9635(8) 0.9322(8)
H7 H 1.19154 0.93863 0.88608
C10 C 0.8715(8) 0.9755(8) 0.9437(8)
H8 H 0.78444 0.95861 0.90510
Cr1 Cr 0.50000 0.00000 0.50000
Mo1 Mo 0.30460(6) 0.23063(6) 0.53357(6)
Mo2 Mo 0.51935(6) 0.13990(6) 0.31486(6)
Mo3 Mo 0.71006(6) -0.09351(6) 0.27947(5)
N1 N 0.9800(7) 0.7357(6) 0.7000(6)
Na1 Na 0.50000 0.50000 0.50000
O1 O 0.7598(7) 0.3377(6) 0.6087(7)
O2 O 0.6421(7) 0.5069(7) 0.661(1)
O3 O 0.5692(6) 0.2938(6) 0.3535(6)
O4 O 0.4811(6) 0.0769(7) 0.1645(6)
O5 O 0.3524(6) 0.3827(6) 0.5641(6)
O6 O 0.3348(5) 0.1525(5) 0.3665(5)
O7 O 0.1314(6) 0.2203(5) 0.5241(5)
O8 O 0.5254(5) 0.1725(5) 0.5113(5)
H9 H 0.59982 0.21563 0.53493
O9 O 0.6609(6) -0.2411(5) 0.3075(5)
O10 O 0.3086(5) 0.0345(5) 0.5217(5)
H10 H 0.25030 -0.01905 0.47218
O11 O 0.8822(6) -0.0929(6) 0.2917(6)
O12 O 0.6973(5) 0.0803(6) 0.3176(5)
O13 O 0.6677(6) -0.1583(6) 0.1292(5)
O14 O 0.4933(5) -0.0480(5) 0.3266(5)
H11 H 0.42464 -0.09493 0.28733
C11 C 0.2130(15) 0.3992(14) -0.0058(13)
H12 H 0.24260 0.37538 0.05507
C12 C 0.0485(15) 0.3879(14) -0.1553(13)
H13 H -0.04425 0.35339 -0.18141
H14 H 0.05319 0.47850 -0.13066
H15 H 0.10803 0.34995 -0.22128
C13 C 0.0077(17) 0.2775(13) -0.0237(13)
H16 H -0.07891 0.25965 -0.06876
H17 H 0.05166 0.19950 -0.04321
H18 H -0.00738 0.31593 0.06197
C14 C 0.6075(19) 0.2962(18) 0.0860(16)
H19 H 0.58472 0.21031 0.07587
H20 H 0.69784 0.30206 0.05771
H21 H 0.60559 0.35287 0.17057
Cr2 Cr 0.50000 0.50000 0.00000
N2 N 0.0916(11) 0.3608(11) -0.0541(11)
O15 O 0.5074(11) 0.3317(10) 0.0156(10)
H22 H 0.50131 0.26874 -0.06593
O16 O 0.2922(9) 0.466(1) -0.0365(9)
O17 O 0.528(1) 0.4124(9) -0.1835(8)
H23 H 0.56697 0.43718 -0.23142
H24 H 0.45772 0.36725 -0.21993
O18 O 0.3021(9) -0.2107(10) 0.1939(9)
H25 H 0.22873 -0.20291 0.23005
H26 H 0.32799 -0.28253 0.18122
O19 O 0.1251(6) -0.1368(6) 0.3866(7)
H27 H 0.04138 -0.12591 0.38874
H28 H 0.13479 -0.20667 0.38954
C1A C 1.2510(9) 1.5481(9) 1.3601(9)
C2A C 1.1227(8) 1.4655(7) 1.3441(7)
C3A C 0.9963(9) 1.5127(8) 1.3656(8)
H1A H 0.98795 1.59963 1.39007
C4A C 0.8836(9) 1.4348(9) 1.3519(9)
H2A H 0.79682 1.46640 1.36282
C5A C 0.8983(9) 1.3078(8) 1.3215(8)
H3A H 0.82205 1.25336 1.31629
C6A C 1.1323(7) 1.3402(8) 1.3113(7)
H4A H 1.21779 1.30615 1.29641
C7A C 1.0317(8) 1.1262(8) 1.2593(7)
H5A H 1.12094 1.11118 1.28565
H6A H 0.96166 1.09192 1.29564
C8A C 1.0145(8) 1.0607(7) 1.1240(7)
C9A C 0.8856(8) 1.0365(8) 1.0678(8)
H7A H 0.80846 1.06137 1.11392
C10A C 1.1285(8) 1.0245(8) 1.0563(8)
H8A H 1.21556 1.04139 1.09490
N1A N 1.0200(7) 1.2643(6) 1.3000(6)
O1A O 1.2402(7) 1.6623(6) 1.3913(7)
O2A O 1.3579(7) 1.4931(7) 1.339(1)
Mo1A Mo 0.69540(6) -0.23063(6) 0.46643(6)
Mo2A Mo 0.48065(6) -0.13990(6) 0.68514(6)
Mo3A Mo 0.28994(6) 0.09351(6) 0.72053(5)
O3A O 0.4308(6) -0.2938(6) 0.6465(6)
O4A O 0.5189(6) -0.0769(7) 0.8355(6)
O5A O 0.6476(6) -0.3827(6) 0.4359(6)
O6A O 0.6652(5) -0.1525(5) 0.6335(5)
O7A O 0.8686(6) -0.2203(5) 0.4759(5)
O8A O 0.4746(5) -0.1725(5) 0.4887(5)
H9A H 0.40018 -0.21563 0.46507
O9A O 0.3391(6) 0.2411(5) 0.6925(5)
O10A O 0.6914(5) -0.0345(5) 0.4783(5)
H10A H 0.74970 0.01905 0.52782
O11A O 0.1178(6) 0.0929(6) 0.7083(6)
O12A O 0.3027(5) -0.0803(6) 0.6824(5)
O13A O 0.3323(6) 0.1583(6) 0.8708(5)
O14A O 0.5067(5) 0.0480(5) 0.6734(5)
H11A H 0.57536 0.09493 0.71267
Na1* Na 0.50000 -0.50000 0.50000
Na1** Na 1.50000 1.50000 1.50000
O2A* O 0.3579(7) 0.4931(7) 0.339(1)
O3A* O 0.4308(6) 0.7062(6) 0.6465(6)
O5A* O 0.6476(6) 0.6173(6) 0.4359(6)
C11A C 0.7870(15) 0.6008(14) 0.0058(13)
H12A H 0.75740 0.62462 -0.05507
C12A C 0.9515(15) 0.6121(14) 0.1553(13)
H13A H 1.04425 0.64661 0.18141
H14A H 0.94681 0.52150 0.13066
H15A H 0.89197 0.65005 0.22128
C13A C 0.9923(17) 0.7225(13) 0.0237(13)
H16A H 1.07891 0.74035 0.06876
H17A H 0.94834 0.80049 0.04321
H18A H 1.00738 0.68407 -0.06197
C14A C 0.3925(19) 0.7038(18) -0.0860(16)
H19A H 0.41528 0.78969 -0.07587
H20A H 0.30216 0.69794 -0.05771
H21A H 0.39441 0.64713 -0.17057
N2A N 0.9084(11) 0.6392(11) 0.0541(11)
O15A O 0.4926(11) 0.6683(10) -0.0156(10)
H22A H 0.49869 0.73126 0.06593
O16A O 0.7078(9) 0.534(1) 0.0365(9)
O17A O 0.472(1) 0.5876(9) 0.1835(8)
H23A H 0.43303 0.56282 0.23142
H24A H 0.54228 0.63275 0.21993
#END
