
#######################################################################
#
#                 Cambridge Crystallographic Data Centre
#                                CCDC
#
#######################################################################
#
# If this CIF has been generated from an entry in the Cambridge
# Structural Database, then it will include bibliographic, chemical,
# crystal, experimental, refinement or atomic coordinate data resulting
# from the CCDC's data processing and validation procedures.
#
#######################################################################

data_CSD_CIF_FIYGAY
_audit_creation_date 2019-01-14
_audit_creation_method CSD-ConQuest-V1
_database_code_CSD FIYGAY
_database_code_depnum_ccdc_archive 'CCDC 1858797'
_chemical_formula_sum 'C24 H60 Br2 Fe1 K1 N2 O6 Si4'
_chemical_formula_moiety
;
(C12 H36 Br2 Fe1 N2 Si4 1-)n,n(C12 H24 K1 O6 1+)
;
_journal_coden_Cambridge 222
_journal_volume 48
_journal_year 2019
_journal_page_first 1757
_journal_name_full 'Dalton Trans. '
loop_
_publ_author_name
"C.G.Werncke"
"J.Pfeiffer"
"I.Muller"
"L.Vendier"
"S.Sabo-Etienne"
"S.Bontemps"
_chemical_name_systematic
;
catena-[(18-crown-6)-potassium 
bis(\m-bromo)-bis(bis(bis(trimethylsilyl)amido))-iron(iii)]
;
_chemical_name_common
;
catena-[(1,4,7,10,13,16-hexaoxacyclooctadecane)-potassium 
bis(mu-bromo)-bis(bis(bis(trimethylsilyl)amido))-iron(iii)]
;
_cell_volume   4050.104
_exptl_crystal_colour 'dark red'
_exptl_crystal_density_diffrn 1.377
_exptl_crystal_description 'block'
_diffrn_ambient_temperature 100
_refine_special_details
;
Br5 and Br4 disordered over two sites with occupancies 0.5:0.5; 
C13,C15,C17,Si7 and C14,C16,C18,Si8 disordered over two sites with 
occupancies 0.633:0.367; 
C41,C43,C45,C47,C49,C51,C53,C55,C57,C59,C61,C62,O10,O12,O14,O16,O19,O21 and 
C020,C42,C44,C46,C48,C50,C52,C54,C56,C58,C60,C63,O11,O13,O15,O18,O7,O9 
disordered over two sites with occupancies 0.523:0.477.
;
#These two values have been output from a single CSD field.
_refine_ls_R_factor_gt 0.03
_refine_ls_wR_factor_gt 0.03
_symmetry_cell_setting triclinic
_symmetry_space_group_name_H-M 'P -1'
_symmetry_Int_Tables_number 2
loop_
_symmetry_equiv_pos_site_id
_symmetry_equiv_pos_as_xyz
1 x,y,z
2 -x,-y,-z
_cell_length_a 12.1198(5)
_cell_length_b 18.0228(7)
_cell_length_c 20.7923(9)
_cell_angle_alpha 111.893(1)
_cell_angle_beta 98.352(2)
_cell_angle_gamma 99.436(1)
_cell_formula_units_Z 4
loop_
_atom_type_symbol
_atom_type_radius_bond
C 0.68
H 0.23
Br 1.21
Fe 1.52
K 2.03
N 0.68
O 0.68
Si 1.20
loop_
_atom_site_label
_atom_site_type_symbol
_atom_site_fract_x
_atom_site_fract_y
_atom_site_fract_z
Br1 Br 0.83981(2) 1.10627(2) 0.75091(2)
Br2 Br 0.81981(2) 0.91068(2) 0.76871(2)
Fe1 Fe 0.69265(3) 0.98891(2) 0.73616(2)
Si1 Si 0.63694(7) 1.04102(5) 0.89019(4)
Si2 Si 0.50936(6) 1.08904(4) 0.78253(4)
Si3 Si 0.51608(6) 0.83167(4) 0.62570(4)
Si4 Si 0.66976(6) 0.93002(5) 0.56893(4)
N1 N 0.61465(17) 0.92037(13) 0.63880(11)
N2 N 0.60157(17) 1.03290(13) 0.80329(11)
C1 C 0.6397(3) 0.9410(2) 0.89739(17)
H1 H 0.56623 0.90142 0.87115
H2 H 0.65245 0.94962 0.94755
H3 H 0.70195 0.91956 0.87724
C2 C 0.7791(3) 1.1154(2) 0.93621(19)
H4 H 0.84007 1.09003 0.91803
H5 H 0.79150 1.12995 0.98750
H6 H 0.78032 1.16512 0.92724
C3 C 0.5285(3) 1.0773(2) 0.94349(17)
H7 H 0.52173 1.13149 0.94528
H8 H 0.55360 1.08144 0.99193
H9 H 0.45381 1.03801 0.92099
C4 C 0.5558(3) 1.20152(17) 0.84323(17)
H10 H 0.55212 1.20859 0.89188
H11 H 0.50475 1.23121 0.82729
H12 H 0.63474 1.22342 0.84218
C5 C 0.3575(2) 1.04910(17) 0.78356(16)
H13 H 0.30889 1.08174 0.77010
H14 H 0.35334 1.05325 0.83146
H15 H 0.33075 0.99138 0.74966
C6 C 0.5042(2) 1.08714(18) 0.69180(15)
H16 H 0.58190 1.10712 0.68766
H17 H 0.45530 1.12265 0.68399
H18 H 0.47253 1.03065 0.65609
C7 C 0.4849(3) 0.83025(18) 0.71070(16)
H19 H 0.55517 0.83052 0.74089
H20 H 0.42604 0.78049 0.70025
H21 H 0.45717 0.87900 0.73552
C8 C 0.3741(2) 0.82175(18) 0.57002(17)
H22 H 0.34118 0.86758 0.59509
H23 H 0.32203 0.76955 0.56126
H24 H 0.38468 0.82292 0.52454
C9 C 0.5719(3) 0.73782(18) 0.58498(16)
H25 H 0.58551 0.73295 0.53840
H26 H 0.51541 0.68886 0.57915
H27 H 0.64408 0.74255 0.61608
C10 C 0.6739(3) 1.0323(2) 0.56445(18)
H28 H 0.59668 1.04249 0.56166
H29 H 0.70070 1.03224 0.52219
H30 H 0.72636 1.07575 0.60717
C11 C 0.5852(3) 0.8539(2) 0.47814(16)
H31 H 0.57646 0.79791 0.47601
H32 H 0.62581 0.85911 0.44203
H33 H 0.50921 0.86491 0.46912
C12 C 0.8174(2) 0.9125(2) 0.57613(17)
H34 H 0.86935 0.95792 0.61778
H35 H 0.84381 0.90981 0.53313
H36 H 0.81671 0.86056 0.58128
K1 K 0.07744(5) 1.01551(3) 0.76347(3)
O1 O 0.1421(3) 0.8787(2) 0.6656(2)
O2 O 0.1176(3) 0.8776(2) 0.7962(3)
O3 O 0.1639(4) 1.0287(3) 0.9111(3)
O4 O 0.1553(6) 1.1725(4) 0.8866(3)
O5 O 0.1604(6) 1.1632(4) 0.7490(3)
O6 O 0.1030(4) 1.0098(4) 0.6331(2)
C13 C 0.1119(5) 0.8053(3) 0.6728(4)
H37 H 0.14022 0.76213 0.63827
H38 H 0.02735 0.78714 0.66329
C14 C 0.1654(5) 0.8189(4) 0.7483(4)
H39 H 0.14929 0.76641 0.75409
H40 H 0.24970 0.83951 0.75846
C15 C 0.1579(5) 0.8877(4) 0.8670(3)
H41 H 0.24287 0.90246 0.87950
H42 H 0.13096 0.83560 0.87199
C16 C 0.1128(5) 0.9545(4) 0.9154(4)
H43 H 0.02820 0.94238 0.90031
H44 H 0.13317 0.95921 0.96482
C17 C 0.1433(5) 1.0996(4) 0.9611(3)
H45 H 0.16880 1.10311 1.00977
H46 H 0.06027 1.09794 0.95243
C18 C 0.2095(6) 1.1725(4) 0.9532(3)
H47 H 0.20909 1.22399 0.99320
H48 H 0.29011 1.16884 0.95337
C19 C 0.2130(6) 1.2379(4) 0.8727(4)
H49 H 0.29255 1.23304 0.86986
H50 H 0.21677 1.29123 0.91186
C20 C 0.1521(6) 1.2354(4) 0.8055(4)
H51 H 0.07051 1.23475 0.80634
H52 H 0.18655 1.28486 0.79860
C21 C 0.1091(7) 1.1538(5) 0.6805(4)
H53 H 0.13514 1.20519 0.67419
H54 H 0.02459 1.14221 0.67386
C22 C 0.1422(7) 1.0845(6) 0.6271(4)
H55 H 0.10930 1.07910 0.57871
H56 H 0.22687 1.09655 0.63421
C23 C 0.1401(6) 0.9462(5) 0.5852(3)
H57 H 0.22502 0.95979 0.59444
H58 H 0.10932 0.93862 0.53579
C24 C 0.0984(5) 0.8702(4) 0.5947(3)
H59 H 0.01344 0.85667 0.58438
H60 H 0.12244 0.82411 0.56045
Br3 Br 0.89807(2) 0.38801(2) 0.24262(2)
Fe2 Fe 0.78460(3) 0.48943(2) 0.25360(2)
Si5 Si 0.68395(7) 0.46985(5) 0.37819(4)
Si6 Si 0.56704(6) 0.52568(5) 0.18397(4)
Si7 Si 0.61748(7) 0.35904(5) 0.11047(4)
N3 N 0.77799(18) 0.53094(13) 0.35239(11)
N4 N 0.64290(17) 0.45191(13) 0.18338(10)
C25 C 0.6133(5) 0.5320(3) 0.4467(2)
H61 H 0.67127 0.56659 0.49055
H62 H 0.55595 0.49494 0.45649
H63 H 0.57565 0.56693 0.42894
C26 C 0.5632(3) 0.3982(3) 0.30520(19)
H64 H 0.59277 0.36077 0.26766
H65 H 0.51985 0.42941 0.28579
H66 H 0.51272 0.36623 0.32329
C27 C 0.7568(3) 0.40422(19) 0.41318(18)
H67 H 0.79122 0.36971 0.37676
H68 H 0.70034 0.36907 0.42533
H69 H 0.81689 0.43952 0.45578
C28 C 0.6209(2) 0.62178(17) 0.26744(17)
H70 H 0.61022 0.60919 0.30841
H71 H 0.57792 0.66263 0.26508
H72 H 0.70262 0.64388 0.27257
C29 C 0.4098(2) 0.49171(19) 0.17891(18)
H73 H 0.37379 0.53802 0.18489
H74 H 0.40009 0.47281 0.21669
H75 H 0.37350 0.44658 0.13249
C30 C 0.5834(3) 0.5575(2) 0.1089(2)
H76 H 0.66508 0.57760 0.11212
H77 H 0.54348 0.60134 0.11191
H78 H 0.55022 0.51006 0.06339
C31 C 0.4767(3) 0.3342(3) 0.04670(18)
H79 H 0.47060 0.28421 0.00439
H80 H 0.47228 0.38012 0.03270
H81 H 0.41366 0.32547 0.06970
C32 C 0.6105(3) 0.26866(19) 0.1347(2)
H82 H 0.67642 0.28035 0.17334
H83 H 0.61230 0.22009 0.09313
H84 H 0.53926 0.25813 0.15024
C33 C 0.7320(3) 0.3612(3) 0.05963(18)
H85 H 0.73090 0.40437 0.04183
H86 H 0.71822 0.30772 0.01943
H87 H 0.80706 0.37251 0.09093
Br4 Br 0.91025(13) 0.58573(9) 0.22958(5)
Si8 Si 0.8857(5) 0.6072(3) 0.4202(3)
C34 C 0.8735(7) 0.6245(4) 0.5134(3)
H88 H 0.81333 0.65409 0.52563
H89 H 0.94693 0.65722 0.54648
H90 H 0.85388 0.57135 0.51676
C35 C 1.0258(4) 0.5823(3) 0.4121(3)
H91 H 1.02266 0.52699 0.41052
H92 H 1.08524 0.62247 0.45309
H93 H 1.04407 0.58427 0.36824
C36 C 0.8857(5) 0.7073(3) 0.4142(3)
H94 H 0.89968 0.70386 0.36797
H95 H 0.94642 0.75057 0.45235
H96 H 0.81116 0.72034 0.41892
K2 K 0.14108(5) 0.48212(3) 0.20894(3)
O7 O 0.11281(15) 0.33633(12) 0.07687(10)
O8 O 0.15430(15) 0.32793(11) 0.20928(10)
O9 O 0.28110(17) 0.46929(11) 0.32600(9)
O10 O 0.26819(17) 0.62362(11) 0.32936(11)
O11 O 0.22451(16) 0.63422(12) 0.19830(12)
O12 O 0.11067(16) 0.49160(13) 0.07389(10)
C37 C 0.3077(3) 0.69822(17) 0.32112(18)
H97 H 0.38456 0.70029 0.31005
H98 H 0.31369 0.74635 0.36583
C38 C 0.2246(3) 0.70054(17) 0.26223(19)
H99 H 0.14682 0.69542 0.27202
H100 H 0.24719 0.75348 0.25785
C39 C 0.1584(3) 0.6365(2) 0.13665(19)
H101 H 0.18748 0.68918 0.13315
H102 H 0.07702 0.63207 0.13979
C40 C 0.1681(3) 0.5666(2) 0.07324(18)
H103 H 0.13332 0.57175 0.02944
H104 H 0.25005 0.56705 0.07371
C41 C 0.1158(3) 0.4214(2) 0.01410(16)
H105 H 0.19674 0.41855 0.01427
H106 H 0.08212 0.42541 -0.03046
C42 C 0.0504(2) 0.3460(2) 0.01796(15)
H107 H -0.02739 0.35203 0.02473
H108 H 0.04246 0.29724 -0.02663
C43 C 0.0551(2) 0.26905(18) 0.08904(16)
H109 H 0.03326 0.21834 0.04454
H110 H -0.01551 0.28056 0.10531
C44 C 0.1353(3) 0.25805(17) 0.14478(16)
H111 H 0.10138 0.20783 0.15075
H112 H 0.20888 0.25205 0.13051
C45 C 0.2332(3) 0.32390(17) 0.26489(16)
H113 H 0.31031 0.32650 0.25405
H114 H 0.20802 0.27141 0.26956
C46 C 0.2380(3) 0.39471(18) 0.33246(16)
H115 H 0.16027 0.39332 0.34215
H116 H 0.28869 0.39118 0.37256
C47 C 0.2976(4) 0.5390(2) 0.39102(16)
H117 H 0.35005 0.53339 0.42926
H118 H 0.22328 0.54300 0.40478
C48 C 0.3476(3) 0.6143(2) 0.38167(17)
H119 H 0.36368 0.66306 0.42735
H120 H 0.42071 0.60954 0.36639
O13? O 0.1102(4) 1.0420(3) 0.6336(2)
O14? O 0.1371(4) 0.8948(3) 0.6398(3)
O15? O 0.1040(4) 0.8633(3) 0.7579(3)
O16? O 0.1636(5) 1.0018(4) 0.8891(3)
O17? O 0.1584(6) 1.1599(4) 0.8942(3)
O18? O 0.1644(6) 1.1742(4) 0.7656(3)
C49? C 0.1100(5) 0.9018(4) 0.5745(3)
H121? H 0.02555 0.88791 0.55737
H122? H 0.14151 0.86255 0.53866
C50? C 0.1366(6) 0.8071(4) 0.7028(4)
H123? H 0.10591 0.75069 0.69849
H124? H 0.22141 0.81776 0.71204
C51? C 0.1470(7) 0.8627(5) 0.8242(5)
H125? H 0.23187 0.87531 0.83360
H126? H 0.12003 0.80671 0.82192
C52? C 0.1121(7) 0.9219(5) 0.8837(4)
H127? H 0.02749 0.91273 0.87422
H128? H 0.13927 0.91596 0.92834
C53? C 0.1410(7) 1.0640(6) 0.9474(5)
H129? H 0.16516 1.05621 0.99151
H130? H 0.05770 1.06168 0.93975
C54? C 0.2061(7) 1.1450(5) 0.9539(4)
H131? H 0.20098 1.18925 0.99848
H132? H 0.28797 1.14470 0.95533
C55? C 0.2228(6) 1.2318(4) 0.8910(4)
H133? H 0.30091 1.22561 0.88534
H134? H 0.22957 1.28080 0.93520
C56? C 0.1602(6) 1.2406(4) 0.8294(4)
H135? H 0.07932 1.23982 0.83268
H136? H 0.19530 1.29384 0.82873
C57? C 0.1115(5) 1.1812(4) 0.7020(4)
H137? H 0.13570 1.23839 0.70636
H138? H 0.02686 1.16655 0.69434
C58? C 0.1490(5) 1.1235(5) 0.6411(3)
H139? H 0.11724 1.12873 0.59674
H140? H 0.23381 1.13771 0.64963
C59? C 0.1591(5) 0.9873(4) 0.5836(3)
H141? H 0.24357 1.00137 0.60077
H142? H 0.14179 0.99197 0.53745
C60? C 0.0901(6) 0.8151(4) 0.6344(4)
H143? H 0.11031 0.77346 0.59390
H144? H 0.00540 0.80489 0.62556
Br5? Br 0.90431(13) 0.57081(9) 0.20197(6)
Si9? Si 0.8847(7) 0.6205(5) 0.4097(4)
C61? C 0.9548(9) 0.5989(6) 0.4862(5)
H145? H 0.89704 0.58701 0.51168
H146? H 1.01534 0.64710 0.51875
H147? H 0.98822 0.55133 0.46763
C62? C 1.0094(7) 0.6590(6) 0.3781(5)
H148? H 1.04334 0.61325 0.35416
H149? H 1.06702 0.70148 0.41878
H150? H 0.98334 0.68240 0.34461
C63? C 0.8243(7) 0.7122(5) 0.4474(4)
H151? H 0.78369 0.72269 0.40850
H152? H 0.88676 0.76025 0.47765
H153? H 0.77063 0.70172 0.47574
K1* K 1.07744(5) 1.01551(3) 0.76347(3)
Br1* Br -0.16019(2) 1.10627(2) 0.75091(2)
Br2* Br -0.18019(2) 0.91068(2) 0.76871(2)
K2* K 1.14108(5) 0.48212(3) 0.20894(3)
Br3* Br -0.10193(2) 0.38801(2) 0.24262(2)
Br4* Br -0.08975(13) 0.58573(9) 0.22958(5)
#END
