
#######################################################################
#
#                 Cambridge Crystallographic Data Centre
#                                CCDC
#
#######################################################################
#
# If this CIF has been generated from an entry in the Cambridge
# Structural Database, then it will include bibliographic, chemical,
# crystal, experimental, refinement or atomic coordinate data resulting
# from the CCDC's data processing and validation procedures.
#
#######################################################################

data_CSD_CIF_FIYHAX
_audit_creation_date 2005-06-17
_audit_creation_method CSD-ConQuest-V1
_database_code_CSD FIYHAX
_database_code_depnum_ccdc_archive 'CCDC 255618'
_chemical_formula_sum 'C6 H7 K1 Mn1 O8'
_chemical_formula_moiety
;
(C6 H7 Mn1 O8 1-)n,n(K1 1+)
;
_journal_coden_Cambridge 1295
_journal_volume 8
_journal_year 2005
_journal_page_first 274
_journal_name_full 'Inorg.Chem.Commun. '
loop_
_publ_author_name
"Feng-Tong Xie"
"Li-Mei Duan"
"Xiao-Yan Chen"
"Peng Cheng"
"Ji-Qing Xu"
"Hong Ding"
"Tie-Gang Wang"
_chemical_name_systematic
;
catena-(potassium (\m~3~-citrato)-aqua-manganese)
;
_cell_volume    937.427
_exptl_crystal_colour 'pink'
_exptl_crystal_density_diffrn 2.134
_exptl_crystal_description 'block'
_diffrn_ambient_temperature 293
#These two values have been output from a single CSD field.
_refine_ls_R_factor_gt 0.0216
_refine_ls_wR_factor_gt 0.0216
_symmetry_cell_setting monoclinic
_symmetry_space_group_name_H-M 'P 21/c'
_symmetry_Int_Tables_number 14
loop_
_symmetry_equiv_pos_site_id
_symmetry_equiv_pos_as_xyz
1 x,y,z
2 -x,1/2+y,1/2-z
3 -x,-y,-z
4 x,-1/2-y,-1/2+z
_cell_length_a 11.558(2)
_cell_length_b 8.4788(17)
_cell_length_c 9.6446(19)
_cell_angle_alpha 90
_cell_angle_beta 97.33(3)
_cell_angle_gamma 90
_cell_formula_units_Z 4
loop_
_atom_type_symbol
_atom_type_radius_bond
C 0.68
H 0.23
K 1.33
Mn 1.35
O 0.68
loop_
_atom_site_label
_atom_site_type_symbol
_atom_site_fract_x
_atom_site_fract_y
_atom_site_fract_z
Mn1 Mn 0.705620(17) 0.11117(2) 0.52521(2)
O1 O 0.9178(1) 0.46552(14) 0.64998(12)
O2 O 0.79777(9) 0.32237(13) 0.50194(11)
O3 O 0.67325(9) 0.39990(12) 0.79535(10)
H1 H 0.631(2) 0.352(3) 0.739(2)
O4 O 0.44344(9) 0.73130(12) 0.90597(11)
O5 O 0.59934(9) 0.60280(12) 1.00555(10)
O6 O 0.83595(10) 0.75615(13) 0.82439(11)
O7 O 0.83963(9) 0.53831(13) 0.95249(10)
O8 O 0.77481(14) 0.05019(18) 0.73615(13)
H2 H 0.765(2) 0.099(3) 0.806(3)
H3 H 0.782(2) -0.040(4) 0.758(3)
C1 C 0.82117(12) 0.44045(17) 0.58463(13)
C2 C 0.72150(12) 0.55404(17) 0.59949(14)
H4 H 0.6476(16) 0.520(2) 0.5398(18)
H5 H 0.7445(17) 0.663(2) 0.573(2)
C3 C 0.69298(11) 0.55814(16) 0.75037(13)
C4 C 0.58459(12) 0.65890(19) 0.75945(14)
H6 H 0.5215(19) 0.619(2) 0.691(2)
H7 H 0.5949(18) 0.766(3) 0.728(2)
C5 C 0.54110(12) 0.66232(16) 0.90122(13)
C6 C 0.79869(12) 0.62333(16) 0.84991(14)
K1 K 0.99825(3) 0.22516(4) 0.38285(4)
Mn1C Mn 0.705620(17) 0.38883(2) 1.02521(2)
Mn1A Mn 0.294380(17) 0.61117(2) 0.97479(2)
O3C O 0.67325(9) 0.10010(12) 0.29535(10)
H1C H 0.631(2) 0.148(3) 0.239(2)
O4A O 0.55656(9) 0.23130(12) 0.59403(11)
O5C O 0.59934(9) -0.10280(12) 0.50555(10)
O7C O 0.83963(9) -0.03831(13) 0.45249(10)
#END
