
#######################################################################
#
#                 Cambridge Crystallographic Data Centre
#                                CCDC
#
#######################################################################
#
# If this CIF has been generated from an entry in the Cambridge
# Structural Database, then it will include bibliographic, chemical,
# crystal, experimental, refinement or atomic coordinate data resulting
# from the CCDC's data processing and validation procedures.
#
#######################################################################

data_CSD_CIF_FIZMOT
_audit_creation_date 2019-01-14
_audit_creation_method CSD-ConQuest-V1
_database_code_CSD FIZMOT
_database_code_depnum_ccdc_archive 'CCDC 1834889'
_chemical_formula_sum 'C74 H68 Cu1 Mo12 N24 O40 P1'
_chemical_formula_moiety
;
C38 H36 N12 4+,n(C36 H32 Cu1 N12 2+),Mo12 O40 P1 6-
;
_journal_coden_Cambridge 9
_journal_volume 58
_journal_year 2019
_journal_page_first 1794
_journal_name_full 'Inorg.Chem. '
loop_
_publ_author_name
"Kun Lu"
"A.L.Pelaez"
"Luo-cheng Wu"
"Yu Cao"
"Chen-hui Zhu"
"Hai Fu"
_chemical_name_systematic
;
catena-[bis(\m-1,1'-[[1,1'-biphenyl]-4,4'-diylbis(methylene)]bis(1H-1,2,4-tria
zole))-copper 
7,8,10,12,14,15,26,27,29,31,33,34-dodecaazanonacyclo[34.2.2.2^2,5^.2^17,20^.2^
21,24^.1^7,10^.1^12,15^.1^26,29^.1^31,34^]pentaconta-1(38),2,4,7(48),8,12(47),
13,17,19,21,23,26(42),27,31(41),32,36,39,43,45,49-icosaene-7,12,26,31-tetraium
 
tetracosakis(\m-oxo)-(\m-phosphato)-dodecaoxo-nona-molybdenum(vi)-tri-molybden
um(v)]
;
_cell_volume   4607.287
_exptl_crystal_colour 'brown'
_exptl_crystal_density_diffrn 2.292
_exptl_crystal_description 'block'
_diffrn_ambient_temperature 150
_refine_special_details
;
The structure is disordered.

;
#These two values have been output from a single CSD field.
_refine_ls_R_factor_gt 0.0669
_refine_ls_wR_factor_gt 0.0669
_symmetry_cell_setting monoclinic
_symmetry_space_group_name_H-M 'P 21/c'
_symmetry_Int_Tables_number 14
loop_
_symmetry_equiv_pos_site_id
_symmetry_equiv_pos_as_xyz
1 x,y,z
2 -x,1/2+y,1/2-z
3 -x,-y,-z
4 x,-1/2-y,-1/2+z
_cell_length_a 14.5546(14)
_cell_length_b 15.4153(15)
_cell_length_c 24.0268(19)
_cell_angle_alpha 90
_cell_angle_beta 121.277(5)
_cell_angle_gamma 90
_cell_formula_units_Z 2
loop_
_atom_type_symbol
_atom_type_radius_bond
C 0.68
H 0.23
Cu 1.32
Mo 1.54
N 0.68
O 0.68
P 1.05
loop_
_atom_site_label
_atom_site_type_symbol
_atom_site_fract_x
_atom_site_fract_y
_atom_site_fract_z
Mo1 Mo 0.78984(6) 0.15131(5) -0.04536(4)
Mo2 Mo 0.77439(6) -0.05975(6) 0.00999(4)
Mo3 Mo 0.99534(8) -0.20364(6) 0.06872(4)
Mo4 Mo 0.74602(7) -0.03277(6) -0.14564(4)
Mo5 Mo 0.94909(8) -0.19211(6) -0.09159(5)
Mo6 Mo 1.02094(8) -0.00852(6) 0.15415(4)
P1 P 1.00000 0.00000 0.00000
O1 O 0.9900(7) -0.2981(5) 0.0995(4)
O2 O 0.9313(5) -0.2818(5) -0.1332(3)
O3 O 0.7207(7) -0.0737(5) -0.0769(3)
O4 O 0.6652(7) -0.0796(5) 0.0150(4)
O5 O 0.9824(8) -0.1106(6) -0.1395(6)
O6 O 0.7312(7) 0.0772(5) -0.1217(3)
O7 O 0.6271(7) -0.0500(5) -0.2112(3)
O8 O 1.0350(6) -0.0132(5) 0.2266(3)
O9 O 0.7529(7) 0.0642(5) -0.0078(3)
O10 O 0.8935(6) 0.1962(7) 0.0334(4)
O11 O 0.8475(7) -0.1617(6) 0.0331(4)
O12 O 0.8666(7) 0.2040(7) -0.0830(4)
O13 O 0.6921(8) 0.2217(6) -0.0684(4)
O14 O 0.8272(8) 0.0029(6) -0.1793(6)
O15 O 0.8719(8) -0.0184(6) 0.0982(4)
O16 O 0.9431(7) -0.2329(7) -0.0205(4)
O17 O 0.8129(8) -0.1458(6) -0.1315(6)
O18 O 1.0325(8) -0.1273(6) 0.1374(4)
O19 O 0.8842(9) 0.0119(8) -0.0293(6)
O20 O 1.0351(10) -0.0953(8) 0.0063(6)
O21 O 0.9353(9) -0.0390(8) -0.0718(5)
O22 O 1.0468(9) 0.0479(8) -0.0373(5)
Cu1 Cu 0.50000 0.00000 0.00000
N1 N 0.5647(6) 0.1190(5) 0.0188(4)
N2 N 0.5685(6) 0.9781(6) 0.0953(4)
N3 N 0.5795(6) 0.2573(6) 0.0097(4)
C1 C 0.6709(8) 0.9600(7) 0.1368(5)
H1 H 0.72580 0.96400 0.12790
C2 C 0.5219(9) 0.9640(7) 0.1302(5)
H2 H 0.44890 0.97280 0.11330
N4 N 0.5867(8) 0.9368(7) 0.1897(4)
C3 C 0.6468(8) 0.4886(7) 0.0164(5)
H3 H 0.64090 0.49110 -0.02400
C4 C 0.5617(9) 0.3443(7) -0.0170(5)
H4 H 0.48490 0.35450 -0.04330
H5 H 0.59000 0.34760 -0.04570
C5 C 0.6123(8) 0.4160(7) 0.0333(5)
C6 C 0.6654(8) 0.1473(7) 0.0612(5)
H6 H 0.71990 0.11090 0.09090
N5 N 0.6831(7) 0.9350(6) 0.1933(4)
N6 N 0.6795(6) 0.2310(6) 0.0569(4)
C7 C 0.6899(9) 0.5576(7) 0.0585(6)
H7 H 0.71500 0.60540 0.04670
C8 C 0.6636(10) 0.4831(7) 0.1348(6)
H8 H 0.67010 0.48010 0.17540
C9 C 0.6967(9) 0.5572(7) 0.1182(5)
C10 C 0.6210(9) 0.4130(7) 0.0931(5)
H9 H 0.59820 0.36420 0.10540
C11 C 0.7281(9) 0.6371(8) 0.1582(5)
C12 C 0.5140(8) 0.1909(7) -0.0122(5)
H10 H 0.44190 0.19380 -0.04500
C13 C 0.7669(9) 0.7966(7) 0.2213(5)
C14 C 0.6951(11) 0.7392(8) 0.2223(5)
C15 C 0.7734(10) 0.8880(8) 0.2454(5)
H11 H 0.76910 0.88800 0.28440
H12 H 0.84070 0.91470 0.25560
C16 C 0.6768(11) 0.6601(7) 0.1909(6)
H13 H 0.62850 0.62150 0.19180
C17 C 0.8029(9) 0.6942(9) 0.1583(6)
C18 C 0.8202(10) 0.7739(8) 0.1897(7)
C19 C 1.0911(7) -0.1454(7) 0.3150(4)
H14 H 1.11920 -0.10190 0.29860
H15 H 1.01410 -0.14310 0.28440
N7 N 1.1977(7) -0.3070(7) 0.2563(5)
N8 N 1.1010(7) -0.0746(6) 0.4538(5)
N9 N 1.0918(8) -0.0928(8) 0.3636(5)
C20 C 1.2088(9) -0.0110(8) 0.5652(5)
C21 C 1.4538(8) 0.1765(7) 0.6723(5)
C22 C 1.3858(9) 0.0250(8) 0.6528(5)
H16 H 1.45190 0.00650 0.68720
N10 N 1.1128(8) -0.2221(8) 0.2853(5)
C23 C 1.3067(9) -0.0350(8) 0.6167(6)
H17 H 1.32020 -0.09340 0.62760
C24 C 1.3680(9) 0.1122(8) 0.6384(5)
N11 N 1.0391(8) -0.0066(7) 0.4149(6)
C25 C 1.4603(9) 0.2495(8) 0.6398(6)
H18 H 1.40540 0.26100 0.59730
N12 N 1.1339(9) -0.3611(8) 0.2665(6)
C26 C 1.1253(9) -0.0776(8) 0.5217(6)
H19 H 1.15110 -0.13510 0.53930
H20 H 1.05960 -0.06740 0.52180
C27 C 1.1832(10) -0.2268(8) 0.2675(6)
H21 H 1.21860 -0.17930 0.26340
C28 C 1.6293(9) 0.2909(8) 0.7336(6)
C29 C 1.2664(8) 0.1357(8) 0.5880(6)
H22 H 1.25150 0.19430 0.57840
C30 C 1.621(1) 0.2217(9) 0.7666(6)
H23 H 1.67390 0.21290 0.81000
C31 C 1.1882(9) 0.0777(8) 0.5520(7)
H24 H 1.12120 0.09650 0.51880
C32 C 1.5355(10) 0.1647(9) 0.7366(6)
H25 H 1.53270 0.11770 0.76000
C33 C 1.5479(10) 0.3045(8) 0.6704(6)
H26 H 1.55170 0.35190 0.64770
C34 C 1.1318(10) -0.1249(9) 0.4229(7)
H27 H 1.17420 -0.17430 0.43940
C35 C 1.2689(10) -0.3436(9) 0.2350(7)
C36 C 1.0377(11) -0.0215(10) 0.3611(7)
H28 H 1.00250 0.01400 0.32450
C37 C 1.0847(11) -0.3066(10) 0.2833(7)
H29 H 1.03370 -0.32410 0.29330
O19B O 1.1158(9) -0.0119(8) 0.0293(6)
O20B O 0.9649(10) 0.0953(8) -0.0063(6)
O21B O 1.0647(9) 0.0390(8) 0.0718(5)
O22B O 0.9532(9) -0.0479(8) 0.0373(5)
Mo1B Mo 1.21016(6) -0.15131(5) 0.04536(4)
Mo2B Mo 1.22561(6) 0.05975(6) -0.00999(4)
Mo3B Mo 1.00466(8) 0.20364(6) -0.06872(4)
Mo4B Mo 1.25398(7) 0.03277(6) 0.14564(4)
Mo5B Mo 1.05091(8) 0.19211(6) 0.09159(5)
Mo6B Mo 0.97906(8) 0.00852(6) -0.15415(4)
O1B O 1.0100(7) 0.2981(5) -0.0995(4)
O2B O 1.0687(5) 0.2818(5) 0.1332(3)
O3B O 1.2793(7) 0.0737(5) 0.0769(3)
O4B O 1.3348(7) 0.0796(5) -0.0150(4)
O5B O 1.0176(8) 0.1106(6) 0.1395(6)
O6B O 1.2688(7) -0.0772(5) 0.1217(3)
O7B O 1.3729(7) 0.0500(5) 0.2112(3)
O8B O 0.9650(6) 0.0132(5) -0.2266(3)
O9B O 1.2471(7) -0.0642(5) 0.0078(3)
O10B O 1.1065(6) -0.1962(7) -0.0334(4)
O11B O 1.1525(7) 0.1617(6) -0.0331(4)
O12B O 1.1334(7) -0.2040(7) 0.0830(4)
O13B O 1.3079(8) -0.2217(6) 0.0684(4)
O14B O 1.1728(8) -0.0029(6) 0.1793(6)
O15B O 1.1281(8) 0.0184(6) -0.0982(4)
O16B O 1.0569(7) 0.2329(7) 0.0205(4)
O17B O 1.1871(8) 0.1458(6) 0.1315(6)
O18B O 0.9675(8) 0.1273(6) -0.1374(4)
N1B N 0.4353(6) -0.1190(5) -0.0188(4)
N2B N 0.4315(6) -0.9781(6) -0.0953(4)
N3B N 0.4205(6) -0.2573(6) -0.0097(4)
C1B C 0.3291(8) -0.9600(7) -0.1368(5)
H1B H 0.27420 -0.96400 -0.12790
C2B C 0.4781(9) -0.9640(7) -0.1302(5)
H2B H 0.55110 -0.97280 -0.11330
N4B N 0.4133(8) -0.9368(7) -0.1897(4)
C3B C 0.3532(8) -0.4886(7) -0.0164(5)
H3B H 0.35910 -0.49110 0.02400
C4B C 0.4383(9) -0.3443(7) 0.0170(5)
H4B H 0.51510 -0.35450 0.04330
H5B H 0.41000 -0.34760 0.04570
C5B C 0.3877(8) -0.4160(7) -0.0333(5)
C6B C 0.3346(8) -0.1473(7) -0.0612(5)
H6B H 0.28010 -0.11090 -0.09090
N5B N 0.3169(7) -0.9350(6) -0.1933(4)
N6B N 0.3205(6) -0.2310(6) -0.0569(4)
C7B C 0.3101(9) -0.5576(7) -0.0585(6)
H7B H 0.28500 -0.60540 -0.04670
C8B C 0.3364(10) -0.4831(7) -0.1348(6)
H8B H 0.32990 -0.48010 -0.17540
C9B C 0.3033(9) -0.5572(7) -0.1182(5)
C10B C 0.3790(9) -0.4130(7) -0.0931(5)
H9B H 0.40180 -0.36420 -0.10540
C11B C 0.2719(9) -0.6371(8) -0.1582(5)
C12B C 0.4860(8) -0.1909(7) 0.0122(5)
H10B H 0.55810 -0.19380 0.04500
C13B C 0.2331(9) -0.7966(7) -0.2213(5)
C14B C 0.3049(11) -0.7392(8) -0.2223(5)
C15B C 0.2266(10) -0.8880(8) -0.2454(5)
H11B H 0.23090 -0.88800 -0.28440
H12B H 0.15930 -0.91470 -0.25560
C16B C 0.3232(11) -0.6601(7) -0.1909(6)
H13B H 0.37150 -0.62150 -0.19180
C17B C 0.1971(9) -0.6942(9) -0.1583(6)
C18B C 0.1798(10) -0.7739(8) -0.1897(7)
Cu1* Cu 0.50000 -1.00000 0.00000
Cu1** Cu 0.50000 1.00000 0.00000
N2* N 0.5685(6) -0.0219(6) 0.0953(4)
N2B* N 0.4315(6) 0.0219(6) -0.0953(4)
C19B C 1.9089(7) 0.1454(7) 0.6850(4)
H14B H 1.88080 0.10190 0.70140
H15B H 1.98590 0.14310 0.71560
N7B N 1.8023(7) 0.3070(7) 0.7437(5)
N8B N 1.8990(7) 0.0746(6) 0.5462(5)
N9B N 1.9082(8) 0.0928(8) 0.6364(5)
C20B C 1.7912(9) 0.0110(8) 0.4348(5)
C21B C 1.5462(8) -0.1765(7) 0.3277(5)
C22B C 1.6142(9) -0.0250(8) 0.3472(5)
H16B H 1.54810 -0.00650 0.31280
N10B N 1.8872(8) 0.2221(8) 0.7147(5)
C23B C 1.6933(9) 0.0350(8) 0.3833(6)
H17B H 1.67980 0.09340 0.37240
C24B C 1.6320(9) -0.1122(8) 0.3616(5)
N11B N 1.9609(8) 0.0066(7) 0.5851(6)
C25B C 1.5397(9) -0.2495(8) 0.3602(6)
H18B H 1.59460 -0.26100 0.40270
N12B N 1.8661(9) 0.3611(8) 0.7335(6)
C26B C 1.8747(9) 0.0776(8) 0.4783(6)
H19B H 1.84890 0.13510 0.46070
H20B H 1.94040 0.06740 0.47820
C27B C 1.8168(10) 0.2268(8) 0.7325(6)
H21B H 1.78140 0.17930 0.73660
C28B C 1.3707(9) -0.2909(8) 0.2664(6)
C29B C 1.7336(8) -0.1357(8) 0.4120(6)
H22B H 1.74850 -0.19430 0.42160
C30B C 1.379(1) -0.2217(9) 0.2334(6)
H23B H 1.32610 -0.21290 0.19000
C31B C 1.8118(9) -0.0777(8) 0.4480(7)
H24B H 1.87880 -0.09650 0.48120
C32B C 1.4645(10) -0.1647(9) 0.2634(6)
H25B H 1.46730 -0.11770 0.24000
C33B C 1.4521(10) -0.3045(8) 0.3296(6)
H26B H 1.44830 -0.35190 0.35230
C34B C 1.8682(10) 0.1249(9) 0.5771(7)
H27B H 1.82580 0.17430 0.56060
C35B C 1.7311(10) 0.3436(9) 0.7650(7)
C36B C 1.9623(11) 0.0215(10) 0.6389(7)
H28B H 1.99750 -0.01400 0.67550
C37B C 1.9153(11) 0.3066(10) 0.7167(7)
H29B H 1.96630 0.32410 0.70670
#END
