
#######################################################################
#
#                 Cambridge Crystallographic Data Centre
#                                CCDC
#
#######################################################################
#
# If this CIF has been generated from an entry in the Cambridge
# Structural Database, then it will include bibliographic, chemical,
# crystal, experimental, refinement or atomic coordinate data resulting
# from the CCDC's data processing and validation procedures.
#
#######################################################################

data_CSD_CIF_FIZMUZ
_audit_creation_date 2019-01-14
_audit_creation_method CSD-ConQuest-V1
_database_code_CSD FIZMUZ
_database_code_depnum_ccdc_archive 'CCDC 1834890'
_chemical_formula_sum 'C52 H72 Cu1 Mo12 N13 O42 P1'
_chemical_formula_moiety
;
(C36 H36 Cu1 N12 O2 2+)n,C16 H36 N1 1+,Mo12 O40 P1 3-
;
_journal_coden_Cambridge 9
_journal_volume 58
_journal_year 2019
_journal_page_first 1794
_journal_name_full 'Inorg.Chem. '
loop_
_publ_author_name
"Kun Lu"
"A.L.Pelaez"
"Luo-cheng Wu"
"Yu Cao"
"Chen-hui Zhu"
"Hai Fu"
_chemical_name_systematic
;
catena-[tetra-n-butylammonium 
bis(\m-1,1'-[[1,1'-biphenyl]-4,4'-diylbis(methylene)]bis(1H-1,2,4-triazole))-d
iaqua-copper tetracosakis(\m-oxo)-(\m-phosphato)-dodecaoxo-dodeca-molybdenum]
;
_cell_volume   4043.891
_exptl_crystal_colour 'brown'
_exptl_crystal_density_diffrn 2.294
_exptl_crystal_description 'block'
_diffrn_ambient_temperature 150
_refine_special_details
;
O11,O4 disordered by symmetry over two configurations with occupancy 0.50.

;
#These two values have been output from a single CSD field.
_refine_ls_R_factor_gt 0.0413
_refine_ls_wR_factor_gt 0.0413
_symmetry_cell_setting tetragonal
_symmetry_space_group_name_H-M 'P 4/n'
_symmetry_Int_Tables_number 85
loop_
_symmetry_equiv_pos_site_id
_symmetry_equiv_pos_as_xyz
1 x,y,z
2 1/2-y,x,z
3 1/2-x,1/2-y,z
4 y,1/2-x,z
5 -x,-y,-z
6 -1/2+y,-x,-z
7 -1/2+x,-1/2+y,-z
8 -y,-1/2+x,-z
_cell_length_a 16.3087(4)
_cell_length_b 16.3087(4)
_cell_length_c 15.2041(8)
_cell_angle_alpha 90
_cell_angle_beta 90
_cell_angle_gamma 90
_cell_formula_units_Z 2
loop_
_atom_type_symbol
_atom_type_radius_bond
C 0.68
H 0.23
Cu 1.32
Mo 1.54
N 0.68
O 0.68
P 1.05
loop_
_atom_site_label
_atom_site_type_symbol
_atom_site_fract_x
_atom_site_fract_y
_atom_site_fract_z
Cu1 Cu 0.25000 0.25000 0.10909(10)
N1 N 0.1730(3) 0.1546(3) 0.1006(4)
O1 O 0.25000 0.25000 0.2554(6)
C1 C -0.2149(4) 0.2204(5) 0.1174(5)
C2 C 0.1096(4) 0.1388(4) 0.1516(6)
H1 H 0.09830 0.16480 0.20470
N2 N 0.0645(4) 0.0803(4) 0.1157(5)
N3 N 0.0981(5) 0.0558(4) 0.0383(6)
C3 C -0.1613(5) 0.0877(5) 0.1519(6)
H2 H -0.17000 0.03490 0.17310
C4 C 0.1633(5) 0.1020(5) 0.0319(5)
H3 H 0.19970 0.09920 -0.01510
C5 C -0.1377(4) 0.2439(5) 0.0905(6)
H4 H -0.12890 0.29670 0.06920
C6 C -0.2268(5) 0.1408(5) 0.1446(5)
H5 H -0.27940 0.12270 0.15820
C7 C -0.0836(4) 0.1113(5) 0.1284(6)
C8 C -0.0735(5) 0.1891(5) 0.0952(7)
H6 H -0.02200 0.20520 0.07530
C9 C -0.0156(5) 0.0500(5) 0.1432(8)
H7 H -0.01340 0.03610 0.20510
H8 H -0.02800 0.00020 0.11080
O2 O 0.25000 0.25000 -0.041(3)
Mo1 Mo 0.10727(3) 0.18989(4) 0.44453(4)
Mo2 Mo 0.04717(3) 0.33245(4) 0.60894(4)
Mo3 Mo 0.10774(3) 0.18972(3) 0.77360(4)
P1 P 0.25000 0.25000 0.60928(19)
O3 O 0.0426(3) 0.1617(3) 0.8518(4)
O4 O -0.0472(3) 0.3693(3) 0.6088(4)
O5 O 0.1453(4) 0.2926(3) 0.4016(4)
O6 O 0.1783(4) 0.2788(4) 0.5509(5)
O7 O 0.0431(3) 0.1628(3) 0.3658(4)
O8 O 0.0385(4) 0.2483(3) 0.5219(4)
O9 O 0.0398(4) 0.2472(3) 0.6953(4)
O10 O 0.1030(3) 0.0995(4) 0.5230(4)
O11 O 0.0990(4) 0.3964(3) 0.6963(4)
O12 O 0.2082(3) 0.1442(4) 0.8176(4)
O13 O 0.1792(4) 0.2788(4) 0.6671(5)
N4 N 0.75000 0.25000 0.50000
C10 C 0.7124(5) 0.1824(5) 0.4425(8)
H9 H 0.75680 0.15520 0.41170
H10 H 0.68760 0.14220 0.48130
C11 C 0.6077(9) 0.1290(9) 0.3449(10)
H11 H 0.64900 0.09330 0.31960
H12 H 0.58550 0.10110 0.39590
C12 C 0.6506(6) 0.2068(7) 0.3769(9)
H13 H 0.67670 0.23460 0.32800
H14 H 0.61100 0.24390 0.40320
C13 C 0.5477(13) 0.1372(13) 0.2864(15)
H15 H 0.55020 0.09300 0.24480
H16 H 0.55370 0.18850 0.25610
H17 H 0.49570 0.13600 0.31610
N1B N -0.6730(3) 0.3454(3) 0.1006(4)
C1B C -0.2851(4) 0.2796(5) 0.1174(5)
C2B C -0.6096(4) 0.3612(4) 0.1516(6)
H1B H -0.59830 0.33520 0.20470
N2B N -0.5645(4) 0.4197(4) 0.1157(5)
N3B N -0.5981(5) 0.4442(4) 0.0383(6)
C3B C -0.3387(5) 0.4123(5) 0.1519(6)
H2B H -0.33000 0.46510 0.17310
C4B C -0.6633(5) 0.3980(5) 0.0319(5)
H3B H -0.69970 0.40080 -0.01510
C5B C -0.3623(4) 0.2561(5) 0.0905(6)
H4B H -0.37110 0.20330 0.06920
C6B C -0.2732(5) 0.3592(5) 0.1446(5)
H5B H -0.22060 0.37730 0.15820
C7B C -0.4164(4) 0.3887(5) 0.1284(6)
C8B C -0.4265(5) 0.3109(5) 0.0952(7)
H6B H -0.47800 0.29480 0.07530
C9B C -0.4844(5) 0.4500(5) 0.1432(8)
H7B H -0.48660 0.46390 0.20510
H8B H -0.47200 0.49980 0.11080
N1A N 0.3454(3) 0.1730(3) 0.1006(4)
C1A C 0.2796(4) -0.2149(5) 0.1174(5)
C2A C 0.3612(4) 0.1096(4) 0.1516(6)
H1A H 0.33520 0.09830 0.20470
N2A N 0.4197(4) 0.0645(4) 0.1157(5)
N3A N 0.4442(5) 0.0981(4) 0.0383(6)
C3A C 0.4123(5) -0.1613(5) 0.1519(6)
H2A H 0.46510 -0.17000 0.17310
C4A C 0.3980(5) 0.1633(5) 0.0319(5)
H3A H 0.40080 0.19970 -0.01510
C5A C 0.2561(4) -0.1377(5) 0.0905(6)
H4A H 0.20330 -0.12890 0.06920
C6A C 0.3592(5) -0.2268(5) 0.1446(5)
H5A H 0.37730 -0.27940 0.15820
C7A C 0.3887(4) -0.0836(5) 0.1284(6)
C8A C 0.3109(5) -0.0735(5) 0.0952(7)
H6A H 0.29480 -0.02200 0.07530
C9A C 0.4500(5) -0.0156(5) 0.1432(8)
H7A H 0.46390 -0.01340 0.20510
H8A H 0.49980 -0.02800 0.11080
N1C N 0.1546(3) -0.6730(3) 0.1006(4)
C1C C 0.2204(4) -0.2851(5) 0.1174(5)
C2C C 0.1388(4) -0.6096(4) 0.1516(6)
H1C H 0.16480 -0.59830 0.20470
N2C N 0.0803(4) -0.5645(4) 0.1157(5)
N3C N 0.0558(5) -0.5981(4) 0.0383(6)
C3C C 0.0877(5) -0.3387(5) 0.1519(6)
H2C H 0.03490 -0.33000 0.17310
C4C C 0.1020(5) -0.6633(5) 0.0319(5)
H3C H 0.09920 -0.69970 -0.01510
C5C C 0.2439(4) -0.3623(5) 0.0905(6)
H4C H 0.29670 -0.37110 0.06920
C6C C 0.1408(5) -0.2732(5) 0.1446(5)
H5C H 0.12270 -0.22060 0.15820
C7C C 0.1113(4) -0.4164(5) 0.1284(6)
C8C C 0.1891(5) -0.4265(5) 0.0952(7)
H6C H 0.20520 -0.47800 0.07530
C9C C 0.0500(5) -0.4844(5) 0.1432(8)
H7C H 0.03610 -0.48660 0.20510
H8C H 0.00020 -0.47200 0.11080
Cu1* Cu -0.75000 0.25000 0.10909(10)
Cu1** Cu 0.25000 -0.75000 0.10909(10)
N1B* N 0.3270(3) 0.3454(3) 0.1006(4)
N1C* N 0.1546(3) 0.3270(3) 0.1006(4)
O6A O 0.2212(4) 0.1783(4) 0.5509(5)
O13A O 0.2212(4) 0.1792(4) 0.6671(5)
O6B O 0.3217(4) 0.2212(4) 0.5509(5)
O13B O 0.3208(4) 0.2212(4) 0.6671(5)
O6C O 0.2788(4) 0.3217(4) 0.5509(5)
O13C O 0.2788(4) 0.3208(4) 0.6671(5)
Mo1A Mo 0.31011(3) 0.10727(4) 0.44453(4)
Mo2A Mo 0.16755(3) 0.04717(4) 0.60894(4)
Mo3A Mo 0.31028(3) 0.10774(3) 0.77360(4)
O3A O 0.3383(3) 0.0426(3) 0.8518(4)
O4A O 0.1307(3) -0.0472(3) 0.6088(4)
O5A O 0.2074(4) 0.1453(3) 0.4016(4)
O7A O 0.3372(3) 0.0431(3) 0.3658(4)
O8A O 0.2517(4) 0.0385(3) 0.5219(4)
O9A O 0.2528(4) 0.0398(3) 0.6953(4)
O10A O 0.4005(3) 0.1030(4) 0.5230(4)
O11A O 0.1036(4) 0.0990(3) 0.6963(4)
O12A O 0.3558(3) 0.2082(4) 0.8176(4)
Mo1B Mo 0.39273(3) 0.31011(4) 0.44453(4)
Mo2B Mo 0.45283(3) 0.16755(4) 0.60894(4)
Mo3B Mo 0.39226(3) 0.31028(3) 0.77360(4)
O3B O 0.4574(3) 0.3383(3) 0.8518(4)
O4B O 0.5472(3) 0.1307(3) 0.6088(4)
O5B O 0.3547(4) 0.2074(3) 0.4016(4)
O7B O 0.4569(3) 0.3372(3) 0.3658(4)
O8B O 0.4615(4) 0.2517(3) 0.5219(4)
O9B O 0.4602(4) 0.2528(3) 0.6953(4)
O10B O 0.3970(3) 0.4005(4) 0.5230(4)
O11B O 0.4010(4) 0.1036(3) 0.6963(4)
O12B O 0.2918(3) 0.3558(4) 0.8176(4)
Mo1C Mo 0.18989(3) 0.39273(4) 0.44453(4)
Mo2C Mo 0.33245(3) 0.45283(4) 0.60894(4)
Mo3C Mo 0.18972(3) 0.39226(3) 0.77360(4)
O3C O 0.1617(3) 0.4574(3) 0.8518(4)
O4C O 0.3693(3) 0.5472(3) 0.6088(4)
O5C O 0.2926(4) 0.3547(3) 0.4016(4)
O7C O 0.1628(3) 0.4569(3) 0.3658(4)
O8C O 0.2483(4) 0.4615(3) 0.5219(4)
O9C O 0.2472(4) 0.4602(3) 0.6953(4)
O10C O 0.0995(3) 0.3970(4) 0.5230(4)
O11C O 0.3964(4) 0.4010(3) 0.6963(4)
O12C O 0.1442(3) 0.2918(4) 0.8176(4)
C10B C 0.7876(5) 0.3176(5) 0.4425(8)
H9B H 0.74320 0.34480 0.41170
H10B H 0.81240 0.35780 0.48130
C11B C 0.8923(9) 0.3710(9) 0.3449(10)
H11B H 0.85100 0.40670 0.31960
H12B H 0.91450 0.39890 0.39590
C12B C 0.8494(6) 0.2932(7) 0.3769(9)
H13B H 0.82330 0.26540 0.32800
H14B H 0.88900 0.25610 0.40320
C13B C 0.9523(13) 0.3628(13) 0.2864(15)
H15B H 0.94980 0.40700 0.24480
H16B H 0.94630 0.31150 0.25610
H17B H 1.00430 0.36400 0.31610
C10E C 0.6824(5) 0.2876(5) 0.5575(8)
H9E H 0.65520 0.24320 0.58830
H10E H 0.64220 0.31240 0.51870
C11E C 0.6290(9) 0.3923(9) 0.6551(10)
H11E H 0.59330 0.35100 0.68040
H12E H 0.60110 0.41450 0.60410
C12E C 0.7068(6) 0.3494(7) 0.6231(9)
H13E H 0.73460 0.32330 0.67200
H14E H 0.74390 0.38900 0.59680
C13E C 0.6372(13) 0.4523(13) 0.7136(15)
H15E H 0.59300 0.44980 0.75520
H16E H 0.68850 0.44630 0.74390
H17E H 0.63600 0.50430 0.68390
C10G C 0.8176(5) 0.2124(5) 0.5575(8)
H9G H 0.84480 0.25680 0.58830
H10G H 0.85780 0.18760 0.51870
C11G C 0.8710(9) 0.1077(9) 0.6551(10)
H11G H 0.90670 0.14900 0.68040
H12G H 0.89890 0.08550 0.60410
C12G C 0.7932(6) 0.1506(7) 0.6231(9)
H13G H 0.76540 0.17670 0.67200
H14G H 0.75610 0.11100 0.59680
C13G C 0.8628(13) 0.0477(13) 0.7136(15)
H15G H 0.90700 0.05020 0.75520
H16G H 0.81150 0.05370 0.74390
H17G H 0.86400 -0.00430 0.68390
#END
