
#######################################################################
#
#                 Cambridge Crystallographic Data Centre
#                                CCDC
#
#######################################################################
#
# If this CIF has been generated from an entry in the Cambridge
# Structural Database, then it will include bibliographic, chemical,
# crystal, experimental, refinement or atomic coordinate data resulting
# from the CCDC's data processing and validation procedures.
#
#######################################################################

data_CSD_CIF_FIZNAG
_audit_creation_date 2019-01-14
_audit_creation_method CSD-ConQuest-V1
_database_code_CSD FIZNAG
_database_code_depnum_ccdc_archive 'CCDC 1040686'
_chemical_formula_sum 'C60 H66 Cu4 Mo24 N30 O82 P2'
_chemical_formula_moiety
;
(C48 H48 Cu4 N24 4+)n,C12 H14 N6 2+,2(H2 O1),2(Mo12 O40 P1 3-)
;
_journal_coden_Cambridge 9
_journal_volume 58
_journal_year 2019
_journal_page_first 1794
_journal_name_full 'Inorg.Chem. '
loop_
_publ_author_name
"Kun Lu"
"A.L.Pelaez"
"Luo-cheng Wu"
"Yu Cao"
"Chen-hui Zhu"
"Hai Fu"
_chemical_name_systematic
;
catena-[1,1'-[1,4-phenylenebis(methylene)]bis(1H-1,2,4-triazol-4-ium) 
tetrakis(\m-1,1'-[1,4-phenylenebis(methylene)]bis(1H-1,2,4-triazole))-tetra-co
pper(i) bis(tetracosakis(\m-oxo)-(\m-phosphato)-dodecaoxo-dodeca-molybdenum) 
dihydrate]
;
_cell_volume   3069.889
_exptl_crystal_colour 'brown'
_exptl_crystal_density_diffrn 2.776
_exptl_crystal_description 'block'
_diffrn_ambient_temperature 150
_refine_special_details
;
The structure is disordered.

;
#These two values have been output from a single CSD field.
_refine_ls_R_factor_gt 0.0424
_refine_ls_wR_factor_gt 0.0424
_symmetry_cell_setting triclinic
_symmetry_space_group_name_H-M 'P -1'
_symmetry_Int_Tables_number 2
loop_
_symmetry_equiv_pos_site_id
_symmetry_equiv_pos_as_xyz
1 x,y,z
2 -x,-y,-z
_cell_length_a 11.789(2)
_cell_length_b 15.377(3)
_cell_length_c 18.655(4)
_cell_angle_alpha 100.99(3)
_cell_angle_beta 100.00(3)
_cell_angle_gamma 107.42(3)
_cell_formula_units_Z 1
loop_
_atom_type_symbol
_atom_type_radius_bond
C 0.68
H 0.23
Cu 1.32
Mo 1.54
N 0.68
O 0.68
P 1.05
loop_
_atom_site_label
_atom_site_type_symbol
_atom_site_fract_x
_atom_site_fract_y
_atom_site_fract_z
Mo1 Mo -0.02232(6) -0.23041(4) 0.01816(4)
O1 O -0.0389(8) -0.3406(4) 0.0218(4)
O2 O -0.0271(6) -0.2438(6) -0.0903(4)
O3 O -0.0323(6) -0.1762(5) 0.1110(4)
O4 O 0.1433(5) -0.1750(6) 0.0349(3)
O5 O -0.1950(5) -0.2415(6) -0.0197(4)
O6 O -0.0588(8) -0.0816(6) 0.0287(5)
O7 O 0.0344(8) -0.0837(6) -0.0241(5)
Mo2 Mo 0.01677(7) -0.16757(5) -0.15210(4)
Mo3 Mo -0.07969(6) -0.07026(5) 0.16101(3)
Mo4 Mo 0.26401(7) -0.06894(5) 0.01282(4)
Mo5 Mo -0.29144(7) -0.16979(5) -0.02078(4)
O8 O 0.0113(8) 0.0273(6) 0.0839(5)
P1 P 0.00000 0.00000 0.00000
O9 O 0.0885(6) -0.0473(5) -0.1797(5)
O10 O 0.1857(6) -0.1235(6) -0.0864(4)
O11 O 0.0318(8) -0.2417(4) -0.2235(4)
O12 O -0.1336(6) -0.1608(4) -0.1866(5)
O13 O -0.1127(7) -0.1068(5) 0.2357(4)
O14 O -0.2255(5) -0.1249(5) 0.0904(4)
O15 O 0.0988(6) -0.0123(4) 0.1935(5)
O16 O 0.1464(8) 0.0329(6) 0.0378(5)
O17 O 0.2730(12) -0.0122(5) 0.1179(5)
O18 O 0.3836(5) -0.1055(5) 0.0211(4)
O19 O 0.3277(12) 0.0496(5) 0.0029(5)
O20 O -0.4280(5) -0.2436(4) -0.0241(4)
O21 O -0.3044(12) -0.1642(6) -0.1181(5)
Mo6 Mo 0.22597(8) 0.07392(5) 0.17325(4)
O22 O 0.3290(6) 0.1135(4) 0.2536(3)
C1 C 0.0200(9) 0.0907(7) 0.4959(5)
H1 H 0.03450 0.15270 0.49300
C2 C -0.0853(8) 0.0203(6) 0.4504(5)
C3 C -0.1028(9) -0.0709(6) 0.4551(6)
H2 H -0.17210 -0.11970 0.42440
C4 C -0.1814(10) 0.0372(7) 0.3951(6)
H3 H -0.18350 0.00570 0.34440
H4 H -0.26120 0.00930 0.40440
C5 C -0.1388(8) 0.2749(7) 0.4461(5)
H5 H -0.13790 0.32970 0.47800
C6 C -0.1261(8) 0.1830(7) 0.3519(5)
H6 H -0.11460 0.15740 0.30560
C7 C -0.0401(9) 0.5395(7) 0.2756(5)
H7 H -0.07100 0.56750 0.31270
C8 C 0.0248(8) 0.4441(6) 0.2137(5)
H8 H 0.04830 0.39280 0.19690
C9 C 0.0770(8) 0.5270(6) 0.1156(5)
H9 H 0.01880 0.54420 0.08270
H10 H 0.07960 0.46730 0.08890
C10 C 0.2023(7) 0.6013(5) 0.1326(4)
C11 C 0.2765(8) 0.6366(6) 0.2040(5)
H11 H 0.24870 0.61620 0.24360
C12 C 0.3942(7) 0.7032(6) 0.2178(5)
H12 H 0.44380 0.72700 0.26660
C13 C 0.4363(7) 0.7332(5) 0.1601(5)
C14 C 0.3593(9) 0.6989(7) 0.0884(5)
H13 H 0.38600 0.71990 0.04860
C15 C 0.2439(8) 0.6342(6) 0.0754(5)
H14 H 0.19310 0.61230 0.02690
C16 C 0.5636(7) 0.8030(6) 0.1747(5)
H15 H 0.61780 0.79060 0.21390
H16 H 0.59290 0.79400 0.12930
C17 C 0.5538(8) 1.0193(6) 0.2634(5)
H17 H 0.53920 1.05950 0.30190
C18 C 0.5959(8) 0.9680(6) 0.1634(5)
H18 H 0.61690 0.96170 0.11730
C19 C 0.6068(9) 1.3468(6) 0.1746(5)
H19 H 0.54560 1.34360 0.20050
C20 C 0.7350(8) 1.3159(6) 0.1191(5)
H20 H 0.78280 1.28400 0.09920
C21 C 0.6298(10) 1.5052(6) 0.1494(5)
H21 H 0.70560 1.55890 0.16590
H22 H 0.58070 1.51250 0.18530
C22 C 0.6238(9) 1.5414(7) 0.0228(6)
H23 H 0.70860 1.57010 0.03840
C23 C 0.5607(9) 1.5039(6) 0.0722(5)
C24 C 0.4349(10) 1.4626(7) 0.0478(6)
H24 H 0.38990 1.43730 0.07990
Cu1 Cu -0.06470(12) 0.36910(9) 0.33004(8)
Cu2 Cu 0.62023(12) 1.16436(8) 0.18272(8)
N1 N -0.1593(7) 0.1357(5) 0.4001(4)
N2 N -0.1666(8) 0.1939(6) 0.4628(4)
N3 N -0.1112(6) 0.2728(5) 0.3782(4)
N4 N -0.0234(7) 0.4575(5) 0.2728(4)
N5 N -0.0088(7) 0.5776(5) 0.2213(4)
N6 N 0.0335(6) 0.5148(4) 0.1834(4)
N7 N 0.5696(6) 0.9013(5) 0.1979(4)
N8 N 0.5426(8) 0.9339(5) 0.2631(4)
N9 N 0.6556(7) 1.2800(5) 0.1589(4)
N10 N 0.7391(7) 1.3998(5) 0.1107(4)
N11 N 0.6579(7) 1.4179(5) 0.1480(3)
N12 N 0.5884(7) 1.0464(5) 0.2037(4)
C25 C 0.4753(11) 1.0807(7) 0.4933(7)
H25 H 0.46170 1.13660 0.49020
C26 C 0.392(1) 0.9969(7) 0.4517(6)
C27 C 0.4160(12) 0.9168(8) 0.4582(8)
H26 H 0.35930 0.85870 0.42980
C28 C 0.2756(11) 0.9962(8) 0.4027(7)
H27 H 0.21610 0.99700 0.43260
H28 H 0.29280 1.05270 0.38460
C29 C 0.2727(8) 0.9107(6) 0.2800(5)
H29 H 0.33960 0.95630 0.27330
C30 C 0.1171(8) 0.7815(6) 0.2630(5)
H30 H 0.05900 0.72180 0.24040
N13 N 0.2240(7) 0.9143(5) 0.3392(4)
N14 N 0.1290(11) 0.8354(9) 0.3290(8)
N15 N 0.2066(11) 0.8299(8) 0.2337(7)
Mo7 Mo 0.55487(6) 0.31565(5) 0.38148(4)
Mo8 Mo 0.36965(7) 0.43582(5) 0.30218(3)
Mo9 Mo 0.74158(6) 0.71921(5) 0.58706(4)
Mo10 Mo 0.69019(8) 0.38404(6) 0.57811(4)
Mo11 Mo 0.79379(6) 0.53598(6) 0.46344(5)
Mo12 Mo 0.60774(8) 0.65585(7) 0.38996(5)
O23 O 0.7000(8) 0.4185(5) 0.3947(4)
O24 O 0.4746(6) 0.3647(6) 0.3094(5)
O25 O 0.3971(6) 0.2533(5) 0.3941(4)
O26 O 0.9287(6) 0.5501(6) 0.4449(4)
O27 O 0.3078(7) 0.4046(6) 0.2108(3)
O28 O 0.2851(6) 0.5147(4) 0.3388(4)
O29 O 0.5039(6) 0.5423(5) 0.3129(5)
O30 O 0.5849(6) 0.2310(4) 0.3262(4)
O31 O 0.7783(7) 0.3292(5) 0.6139(4)
O32 O 0.6226(7) 0.3080(5) 0.4783(3)
O33 O 0.6876(8) 0.7307(6) 0.4855(4)
O34 O 0.8521(5) 0.8216(4) 0.6253(4)
O35 O 0.5394(7) 0.3231(5) 0.6005(5)
O36 O 0.8265(9) 0.6442(6) 0.5417(3)
O37 O 0.2583(6) 0.3404(5) 0.3350(4)
O38 O 0.7982(7) 0.4695(5) 0.5385(3)
O39 O 0.7262(8) 0.5958(6) 0.3959(4)
O40 O 0.6574(7) 0.7268(6) 0.3369(4)
O41 O 0.6131(8) 0.5736(7) 0.4893(5)
O42 O 0.4623(8) 0.5343(6) 0.4329(5)
O43 O 0.5919(8) 0.4508(6) 0.4858(5)
O44 O 0.4455(8) 0.4193(6) 0.4298(5)
P2 P 0.50000 0.50000 0.50000
O45 O 0.8714(15) 0.7183(11) 0.2943(13)
O8A O -0.0113(8) -0.0273(6) -0.0839(5)
O9A O -0.0885(6) 0.0473(5) 0.1797(5)
O16A O -0.1464(8) -0.0329(6) -0.0378(5)
O19A O -0.3277(12) -0.0496(5) -0.0029(5)
Mo2A Mo -0.01677(7) 0.16757(5) 0.15210(4)
O7A O -0.0344(8) 0.0837(6) 0.0241(5)
O6A O 0.0588(8) 0.0816(6) -0.0287(5)
Mo3A Mo 0.07969(6) 0.07026(5) -0.16101(3)
Mo6A Mo -0.22597(8) -0.07392(5) -0.17325(4)
Mo5A Mo 0.29144(7) 0.16979(5) 0.02078(4)
Mo4A Mo -0.26401(7) 0.06894(5) -0.01282(4)
O10A O -0.1857(6) 0.1235(6) 0.0864(4)
O11A O -0.0318(8) 0.2417(4) 0.2235(4)
O12A O 0.1336(6) 0.1608(4) 0.1866(5)
O2A O 0.0271(6) 0.2438(6) 0.0903(4)
O21A O 0.3044(12) 0.1642(6) 0.1181(5)
Mo1A Mo 0.02232(6) 0.23041(4) -0.01816(4)
O13A O 0.1127(7) 0.1068(5) -0.2357(4)
O14A O 0.2255(5) 0.1249(5) -0.0904(4)
O3A O 0.0323(6) 0.1762(5) -0.1110(4)
O15A O -0.0988(6) 0.0123(4) -0.1935(5)
O17A O -0.2730(12) 0.0122(5) -0.1179(5)
O22A O -0.3290(6) -0.1135(4) -0.2536(3)
O5A O 0.1950(5) 0.2415(6) 0.0197(4)
O20A O 0.4280(5) 0.2436(4) 0.0241(4)
O4A O -0.1433(5) 0.1750(6) -0.0349(3)
O18A O -0.3836(5) 0.1055(5) -0.0211(4)
O1A O 0.0389(8) 0.3406(4) -0.0218(4)
C1A C -0.0200(9) -0.0907(7) 0.5041(5)
H1A H -0.03450 -0.15270 0.50700
C2A C 0.0853(8) -0.0203(6) 0.5496(5)
C3A C 0.1028(9) 0.0709(6) 0.5449(6)
H2A H 0.17210 0.11970 0.57560
C4A C 0.1814(10) -0.0372(7) 0.6049(6)
H3A H 0.18350 -0.00570 0.65560
H4A H 0.26120 -0.00930 0.59560
C5A C 0.1388(8) -0.2749(7) 0.5539(5)
H5A H 0.13790 -0.32970 0.52200
C6A C 0.1261(8) -0.1830(7) 0.6481(5)
H6A H 0.11460 -0.15740 0.69440
N1A N 0.1593(7) -0.1357(5) 0.5999(4)
N2A N 0.1666(8) -0.1939(6) 0.5372(4)
N3A N 0.1112(6) -0.2728(5) 0.6218(4)
C19A C 0.3932(9) 1.6532(6) -0.1746(5)
H19A H 0.45440 1.65640 -0.20050
C20A C 0.2650(8) 1.6841(6) -0.1191(5)
H20A H 0.21720 1.71600 -0.09920
C21A C 0.3702(10) 1.4948(6) -0.1494(5)
H21A H 0.29440 1.44110 -0.16590
H22A H 0.41930 1.48750 -0.18530
C22A C 0.3762(9) 1.4586(7) -0.0228(6)
H23A H 0.29140 1.42990 -0.03840
C23A C 0.4393(9) 1.4961(6) -0.0722(5)
C24A C 0.5651(10) 1.5374(7) -0.0478(6)
H24A H 0.61010 1.56270 -0.07990
N9A N 0.3444(7) 1.7200(5) -0.1589(4)
N10A N 0.2609(7) 1.6002(5) -0.1107(4)
N11A N 0.3421(7) 1.5821(5) -0.1480(3)
C7A C 0.0401(9) -0.5395(7) 0.7244(5)
H7A H 0.07100 -0.56750 0.68730
C8A C -0.0248(8) -0.4441(6) 0.7863(5)
H8A H -0.04830 -0.39280 0.80310
C9A C -0.0770(8) -0.5270(6) 0.8844(5)
H9A H -0.01880 -0.54420 0.91730
H10A H -0.07960 -0.46730 0.91110
C10A C -0.2023(7) -0.6013(5) 0.8674(4)
C11A C -0.2765(8) -0.6366(6) 0.7960(5)
H11A H -0.24870 -0.61620 0.75640
C12A C -0.3942(7) -0.7032(6) 0.7822(5)
H12A H -0.44380 -0.72700 0.73340
C13A C -0.4363(7) -0.7332(5) 0.8399(5)
C14A C -0.3593(9) -0.6989(7) 0.9116(5)
H13A H -0.38600 -0.71990 0.95140
C15A C -0.2439(8) -0.6342(6) 0.9246(5)
H14A H -0.19310 -0.61230 0.97310
C16A C -0.5636(7) -0.8030(6) 0.8253(5)
H15A H -0.61780 -0.79060 0.78610
H16A H -0.59290 -0.79400 0.87070
C17A C -0.5538(8) -1.0193(6) 0.7366(5)
H17A H -0.53920 -1.05950 0.69810
C18A C -0.5959(8) -0.9680(6) 0.8366(5)
H18A H -0.61690 -0.96170 0.88270
Cu1A Cu 0.06470(12) -0.36910(9) 0.66996(8)
Cu2A Cu -0.62023(12) -1.16436(8) 0.81728(8)
N4A N 0.0234(7) -0.4575(5) 0.7272(4)
N5A N 0.0088(7) -0.5776(5) 0.7787(4)
N6A N -0.0335(6) -0.5148(4) 0.8166(4)
N7A N -0.5696(6) -0.9013(5) 0.8021(4)
N8A N -0.5426(8) -0.9339(5) 0.7369(4)
N12A N -0.5884(7) -1.0464(5) 0.7963(4)
Cu2A* Cu 0.37977(12) 1.83564(8) -0.18272(8)
N9A* N -0.6556(7) -1.2800(5) 0.8411(4)
C25A C 0.5247(11) 0.9193(7) 0.5067(7)
H25A H 0.53830 0.86340 0.50980
C26A C 0.608(1) 1.0031(7) 0.5483(6)
C27A C 0.5840(12) 1.0832(8) 0.5418(8)
H26A H 0.64070 1.14130 0.57020
C28A C 0.7244(11) 1.0038(8) 0.5973(7)
H27A H 0.78390 1.00300 0.56740
H28A H 0.70720 0.94730 0.61540
C29A C 0.7273(8) 1.0893(6) 0.7200(5)
H29A H 0.66040 1.04370 0.72670
C30A C 0.8829(8) 1.2185(6) 0.7370(5)
H30A H 0.94100 1.27820 0.75960
N13A N 0.7760(7) 1.0857(5) 0.6608(4)
N14A N 0.8710(11) 1.1646(9) 0.6710(8)
N15A N 0.7934(11) 1.1701(8) 0.7663(7)
O41A O 0.3869(8) 0.4264(7) 0.5107(5)
O42A O 0.5377(8) 0.4657(6) 0.5671(5)
O43A O 0.4081(8) 0.5492(6) 0.5142(5)
O44A O 0.5545(8) 0.5807(6) 0.5702(5)
Mo7A Mo 0.44513(6) 0.68435(5) 0.61852(4)
Mo8A Mo 0.63035(7) 0.56418(5) 0.69782(3)
Mo9A Mo 0.25842(6) 0.28079(5) 0.41294(4)
Mo10A Mo 0.30981(8) 0.61596(6) 0.42189(4)
Mo11A Mo 0.20621(6) 0.46402(6) 0.53656(5)
Mo12A Mo 0.39226(8) 0.34415(7) 0.61004(5)
O23A O 0.3000(8) 0.5815(5) 0.6053(4)
O24A O 0.5254(6) 0.6353(6) 0.6906(5)
O25A O 0.6029(6) 0.7467(5) 0.6059(4)
O26A O 0.0713(6) 0.4499(6) 0.5551(4)
O27A O 0.6922(7) 0.5954(6) 0.7892(3)
O28A O 0.7149(6) 0.4853(4) 0.6612(4)
O29A O 0.4961(6) 0.4577(5) 0.6871(5)
O30A O 0.4151(6) 0.7690(4) 0.6738(4)
O31A O 0.2217(7) 0.6708(5) 0.3861(4)
O32A O 0.3774(7) 0.6920(5) 0.5217(3)
O33A O 0.3124(8) 0.2693(6) 0.5145(4)
O34A O 0.1479(5) 0.1784(4) 0.3747(4)
O35A O 0.4606(7) 0.6769(5) 0.3995(5)
O36A O 0.1735(9) 0.3558(6) 0.4583(3)
O37A O 0.7417(6) 0.6596(5) 0.6650(4)
O38A O 0.2018(7) 0.5305(5) 0.4615(3)
O39A O 0.2738(8) 0.4042(6) 0.6041(4)
O40A O 0.3426(7) 0.2732(6) 0.6631(4)
#END
