
#######################################################################
#
#                 Cambridge Crystallographic Data Centre
#                                CCDC
#
#######################################################################
#
# If this CIF has been generated from an entry in the Cambridge
# Structural Database, then it will include bibliographic, chemical,
# crystal, experimental, refinement or atomic coordinate data resulting
# from the CCDC's data processing and validation procedures.
#
#######################################################################

data_CSD_CIF_FIZNAG01
_audit_creation_date 2018-08-28
_audit_creation_method CSD-ConQuest-V1
_database_code_CSD FIZNAG01
_database_code_depnum_ccdc_archive 'CCDC 1864237'
_chemical_formula_sum 'C60 H66 Cu4 Mo24 N30 O82 P2'
_chemical_formula_moiety
;
(C48 H48 Cu4 N24 4+)n,n(C12 H14 N6 2+),2n(H2 O1),2n(Mo12 O40 P1 3-)
;
_journal_coden_Cambridge 1078
_journal_year 2018
_journal_name_full 'CSD Communication(Private Communication) '
loop_
_publ_author_name
"Dong-Feng Chai"
_chemical_name_systematic
;
catena-[1,1'-[1,4-phenylenebis(methylene)]bis(1H-1,2,4-triazol-4-ium) 
tetrakis(\m-1,1'-[1,4-phenylenebis(methylene)]bis(1H-1,2,4-triazole))-tetra-co
pper(i) bis(tetracosakis(\m-oxo)-(\m-phosphato)-dodecaoxo-dodeca-molybdenum) 
dihydrate]
;
_cell_volume   3089.153
_exptl_crystal_colour 'light red'
_exptl_crystal_density_diffrn 2.762
_exptl_crystal_description 'block'
_diffrn_ambient_temperature 298
_refine_special_details
;
The structure is disordered.

;
#These two values have been output from a single CSD field.
_refine_ls_R_factor_gt 0.0421
_refine_ls_wR_factor_gt 0.0421
_symmetry_cell_setting triclinic
_symmetry_space_group_name_H-M 'P -1'
_symmetry_Int_Tables_number 2
loop_
_symmetry_equiv_pos_site_id
_symmetry_equiv_pos_as_xyz
1 x,y,z
2 -x,-y,-z
_cell_length_a 11.8004(3)
_cell_length_b 15.4306(4)
_cell_length_c 18.6763(4)
_cell_angle_alpha 101.017(2)
_cell_angle_beta 99.986(2)
_cell_angle_gamma 107.310(3)
_cell_formula_units_Z 1
loop_
_atom_type_symbol
_atom_type_radius_bond
C 0.68
H 0.23
Cu 1.32
Mo 1.54
N 0.68
O 0.68
P 1.05
loop_
_atom_site_label
_atom_site_type_symbol
_atom_site_fract_x
_atom_site_fract_y
_atom_site_fract_z
P1 P 1.00000 0.00000 1.00000
Mo1 Mo 1.10747(6) 0.15587(5) 0.89013(4)
Mo2 Mo 0.86994(5) -0.06413(4) 0.80188(3)
Mo3 Mo 0.75753(5) -0.21852(4) 0.91261(3)
Mo4 Mo 0.70654(5) -0.03538(4) 1.03715(4)
Mo5 Mo 0.80912(6) 0.11543(4) 0.92172(3)
Mo6 Mo 0.94554(5) 0.18472(3) 1.11851(3)
O1 O 1.1572(5) 0.2270(4) 0.8369(3)
O2 O 1.1141(6) 0.0735(5) 0.9894(4)
O3 O 0.9612(6) 0.0345(5) 0.9315(4)
O4 O 0.9451(6) -0.0801(5) 0.9299(4)
O5 O 0.9076(6) 0.0491(5) 1.0141(4)
O6 O 1.0039(5) 0.0422(3) 0.8128(3)
O7 O 0.9609(5) 0.1766(3) 0.9003(3)
O8 O 0.8081(5) -0.0957(4) 0.7104(2)
O9 O 0.7843(4) 0.0153(3) 0.8384(3)
O10 O 0.7584(4) -0.1591(4) 0.8353(3)
O11 O 0.6463(4) -0.3206(3) 0.8747(3)
O12 O 0.6735(6) -0.1441(4) 0.9590(3)
O13 O 0.8123(6) -0.2306(4) 1.0144(3)
O14 O 0.5715(4) -0.0490(4) 1.0559(3)
O15 O 0.7741(6) -0.0941(5) 1.1043(3)
O16 O 0.8011(5) 0.0819(4) 1.1063(3)
O17 O 0.7005(5) 0.0316(4) 0.9613(3)
O18 O 0.7211(5) 0.1708(4) 0.8858(3)
O19 O 0.8782(5) 0.1929(4) 1.0218(3)
O20 O 0.9170(4) 0.2687(3) 1.1744(3)
O21 O 1.0250(4) 0.1356(4) 1.1902(3)
O22 O 1.1022(4) 0.2465(4) 1.1052(3)
O23 O 0.3705(11) 0.2180(7) 0.7930(9)
Cu1 Cu 0.43552(9) -0.13101(6) 0.82986(6)
Cu2 Cu 1.11987(9) 0.66409(6) 0.68289(6)
C1 C 0.3727(6) -0.3171(5) 0.8518(4)
H1 H 0.38360 -0.34300 0.80530
C2 C 0.3634(6) -0.2241(5) 0.9467(4)
H2 H 0.36680 -0.16900 0.97910
C3 C 0.3179(7) -0.4627(5) 0.8959(4)
H3 H 0.31570 -0.49420 0.84520
H4 H 0.23850 -0.49040 0.90530
C4 C 0.4143(6) -0.4790(4) 0.9509(4)
C5 C 0.5195(7) -0.4090(5) 0.9959(4)
H5 H 0.53360 -0.34720 0.99330
C6 C 0.3962(6) -0.5707(4) 0.9552(4)
H6 H 0.32660 -0.61900 0.92480
C7 C 0.5250(6) -0.0557(4) 0.7136(4)
H7 H 0.54910 -0.10660 0.69700
C8 C 0.4584(7) 0.0394(5) 0.7746(4)
H8 H 0.42580 0.06700 0.81090
C9 C 0.5766(6) 0.0282(5) 0.6153(3)
H9 H 0.51880 0.04630 0.58310
H10 H 0.57880 -0.03110 0.58770
C10 C 0.7027(6) 0.1022(4) 0.6330(3)
C11 C 0.7431(6) 0.1338(5) 0.5747(4)
H11 H 0.69230 0.11150 0.52640
C12 C 0.8596(7) 0.1990(5) 0.5881(4)
H12 H 0.88670 0.21970 0.54840
C13 C 0.9356(6) 0.2334(4) 0.6598(3)
C14 C 0.8940(6) 0.2027(4) 0.7179(4)
H13 H 0.94380 0.22640 0.76660
C15 C 0.7781(6) 0.1365(5) 0.7044(4)
H14 H 0.75130 0.11530 0.74400
C16 C 1.0644(6) 0.3037(4) 0.6747(4)
H15 H 1.11850 0.29150 0.71390
H16 H 1.09390 0.29490 0.62940
C17 C 1.0548(7) 0.5199(5) 0.7641(4)
H17 H 1.04080 0.56030 0.80260
C18 C 1.0963(6) 0.4690(4) 0.6635(4)
H18 H 1.11740 0.46340 0.61750
C19 C 1.1082(6) 0.8464(4) 0.6756(4)
H19 H 1.04890 0.84350 0.70280
C20 C 1.2355(6) 0.8157(4) 0.6188(4)
H20 H 1.28290 0.78370 0.59860
C21 C 1.1283(7) 1.0046(4) 0.6490(4)
H21 H 1.20370 1.05810 0.66620
H22 H 1.07810 1.01140 0.68420
C22 C 1.0616(6) 1.0035(4) 0.5723(4)
C23 C 1.1259(7) 1.0411(5) 0.5231(4)
H23 H 1.21070 1.06890 0.53830
C24 C 0.9359(7) 0.9629(5) 0.5483(4)
H24 H 0.89190 0.93770 0.58060
N1 N 0.3881(5) -0.2270(4) 0.8785(3)
N2 N 0.3343(6) -0.3049(4) 0.9635(3)
N3 N 0.3398(5) -0.3639(4) 0.9007(3)
N4 N 0.4768(5) -0.0431(4) 0.7726(3)
N5 N 0.5332(5) 0.0147(3) 0.6824(3)
N6 N 0.4906(5) 0.0773(4) 0.7208(3)
N7 N 1.0692(4) 0.4010(3) 0.6977(3)
N8 N 1.0431(6) 0.4332(4) 0.7634(3)
N9 N 1.0890(5) 0.5460(4) 0.7040(3)
N10 N 1.1559(5) 0.7800(4) 0.6590(3)
N11 N 1.2398(5) 0.8989(4) 0.6107(3)
N12 N 1.1568(5) 0.9177(3) 0.6479(3)
P2 P 0.50000 -0.50000 0.50000
Mo7 Mo 0.48328(5) -0.33228(4) 0.65222(3)
Mo8 Mo 0.41994(5) -0.56969(3) 0.66121(3)
Mo9 Mo 0.52196(5) -0.27003(3) 0.48147(3)
Mo10 Mo 0.79120(5) -0.33042(4) 0.52093(3)
Mo11 Mo 0.72569(6) -0.42618(4) 0.67356(3)
Mo12 Mo 0.76422(6) -0.56891(4) 0.51281(3)
O24 O 0.4640(6) -0.4160(5) 0.5233(4)
O25 O 0.5605(6) -0.4181(4) 0.4712(4)
O26 O 0.4886(6) -0.5284(4) 0.4159(4)
O27 O 0.3518(6) -0.5327(4) 0.4617(4)
O28 O 0.4665(6) -0.2576(3) 0.7232(3)
O29 O 0.3142(4) -0.3778(4) 0.5862(3)
O30 O 0.6326(4) -0.3389(3) 0.6866(4)
O31 O 0.5278(4) -0.2565(4) 0.5907(3)
O32 O 0.4119(4) -0.4516(3) 0.6810(4)
O33 O 0.3862(5) -0.6058(4) 0.7357(3)
O34 O 0.5988(4) -0.5118(3) 0.6938(4)
O35 O 0.5389(6) -0.1603(3) 0.4782(3)
O36 O 0.5332(4) -0.3243(4) 0.3889(3)
O37 O 0.6948(4) -0.2579(4) 0.5198(3)
O38 O 0.9269(4) -0.2564(3) 0.5238(3)
O39 O 0.7256(4) -0.3760(4) 0.4096(3)
O40 O 0.8257(7) -0.4503(4) 0.5022(3)
O41 O 0.8018(7) -0.3364(4) 0.6179(3)
O42 O 0.8286(4) -0.3872(3) 0.7544(3)
O43 O 0.7756(7) -0.5119(4) 0.6191(3)
O44 O 0.6431(4) -0.6744(4) 0.5353(3)
O45 O 0.8839(4) -0.6045(4) 0.5211(3)
C25 C 0.7042(8) 0.3300(6) 0.7332(5)
H25 H 0.71620 0.30800 0.68610
C26 C 0.6302(8) 0.3371(6) 0.8287(5)
H26 H 0.58270 0.32340 0.86270
C27 C 0.7758(8) 0.4966(6) 0.9031(5)
H27 H 0.71700 0.49820 0.93330
H28 H 0.79320 0.55280 0.88490
C28 C 0.8931(7) 0.4969(5) 0.9521(4)
C29 C 0.9781(9) 0.5804(5) 0.9935(5)
H29 H 0.96490 0.63600 0.98980
C30 C 0.9161(9) 0.4164(6) 0.9591(6)
H30 H 0.85920 0.35840 0.93130
N13 N 0.7222(6) 0.4145(4) 0.8392(4)
N14 N 0.7708(6) 0.4111(4) 0.7788(4)
N15 N 0.6157(6) 0.2813(4) 0.7617(4)
O2A O 0.8859(6) -0.0735(5) 1.0106(4)
O3A O 1.0388(6) -0.0345(5) 1.0685(4)
O4A O 1.0549(6) 0.0801(5) 1.0701(4)
O5A O 1.0924(6) -0.0491(5) 0.9859(4)
Mo1A Mo 0.89253(6) -0.15587(5) 1.10987(4)
Mo2A Mo 1.13006(5) 0.06413(4) 1.19812(3)
Mo3A Mo 1.24247(5) 0.21852(4) 1.08739(3)
Mo4A Mo 1.29346(5) 0.03538(4) 0.96285(4)
Mo5A Mo 1.19088(6) -0.11543(4) 1.07828(3)
Mo6A Mo 1.05446(5) -0.18472(3) 0.88149(3)
O1A O 0.8428(5) -0.2270(4) 1.1631(3)
O6A O 0.9961(5) -0.0422(3) 1.1872(3)
O7A O 1.0391(5) -0.1766(3) 1.0997(3)
O8A O 1.1919(5) 0.0957(4) 1.2896(2)
O9A O 1.2157(4) -0.0153(3) 1.1616(3)
O10A O 1.2416(4) 0.1591(4) 1.1647(3)
O11A O 1.3537(4) 0.3206(3) 1.1253(3)
O12A O 1.3265(6) 0.1441(4) 1.0410(3)
O13A O 1.1877(6) 0.2306(4) 0.9856(3)
O14A O 1.4285(4) 0.0490(4) 0.9441(3)
O15A O 1.2259(6) 0.0941(5) 0.8957(3)
O16A O 1.1989(5) -0.0819(4) 0.8937(3)
O17A O 1.2995(5) -0.0316(4) 1.0387(3)
O18A O 1.2789(5) -0.1708(4) 1.1142(3)
O19A O 1.1218(5) -0.1929(4) 0.9782(3)
O20A O 1.0830(4) -0.2687(3) 0.8256(3)
O21A O 0.9750(4) -0.1356(4) 0.8098(3)
O22A O 0.8978(4) -0.2465(4) 0.8948(3)
C1A C 0.6273(6) -0.6829(5) 1.1482(4)
H1A H 0.61640 -0.65700 1.19470
C2A C 0.6366(6) -0.7759(5) 1.0533(4)
H2A H 0.63320 -0.83100 1.02090
C3A C 0.6821(7) -0.5373(5) 1.1041(4)
H3A H 0.68430 -0.50580 1.15480
H4A H 0.76150 -0.50960 1.09470
C4A C 0.5857(6) -0.5210(4) 1.0491(4)
C5A C 0.4805(7) -0.5910(5) 1.0041(4)
H5A H 0.46640 -0.65280 1.00670
C6A C 0.6038(6) -0.4293(4) 1.0448(4)
H6A H 0.67340 -0.38100 1.07520
N1A N 0.6119(5) -0.7730(4) 1.1215(3)
N2A N 0.6657(6) -0.6951(4) 1.0365(3)
N3A N 0.6602(5) -0.6361(4) 1.0993(3)
C19A C 0.8918(6) 1.1536(4) 0.3244(4)
H19A H 0.95110 1.15650 0.29720
C20A C 0.7645(6) 1.1843(4) 0.3812(4)
H20A H 0.71710 1.21630 0.40140
C21A C 0.8717(7) 0.9954(4) 0.3510(4)
H21A H 0.79630 0.94190 0.33380
H22A H 0.92190 0.98860 0.31580
C22A C 0.9384(6) 0.9965(4) 0.4277(4)
C23A C 0.8741(7) 0.9589(5) 0.4769(4)
H23A H 0.78930 0.93110 0.46170
C24A C 1.0641(7) 1.0371(5) 0.4517(4)
H24A H 1.10810 1.06230 0.41940
N10A N 0.8441(5) 1.2200(4) 0.3410(3)
N11A N 0.7602(5) 1.1011(4) 0.3893(3)
N12A N 0.8432(5) 1.0823(3) 0.3521(3)
Cu1A Cu 0.56448(9) -0.86899(6) 1.17014(6)
Cu2A Cu -0.11987(9) -1.66409(6) 1.31711(6)
C7A C 0.4750(6) -0.9443(4) 1.2864(4)
H7A H 0.45090 -0.89340 1.30300
C8A C 0.5416(7) -1.0394(5) 1.2254(4)
H8A H 0.57420 -1.06700 1.18910
C9A C 0.4234(6) -1.0282(5) 1.3847(3)
H9A H 0.48120 -1.04630 1.41690
H10A H 0.42120 -0.96890 1.41230
C10A C 0.2973(6) -1.1022(4) 1.3670(3)
C11A C 0.2569(6) -1.1338(5) 1.4253(4)
H11A H 0.30770 -1.11150 1.47360
C12A C 0.1404(7) -1.1990(5) 1.4119(4)
H12A H 0.11330 -1.21970 1.45160
C13A C 0.0644(6) -1.2334(4) 1.3402(3)
C14A C 0.1060(6) -1.2027(4) 1.2821(4)
H13A H 0.05620 -1.22640 1.23340
C15A C 0.2219(6) -1.1365(5) 1.2956(4)
H14A H 0.24870 -1.11530 1.25600
C16A C -0.0644(6) -1.3037(4) 1.3253(4)
H15A H -0.11850 -1.29150 1.28610
H16A H -0.09390 -1.29490 1.37060
C17A C -0.0548(7) -1.5199(5) 1.2359(4)
H17A H -0.04080 -1.56030 1.19740
C18A C -0.0963(6) -1.4690(4) 1.3365(4)
H18A H -0.11740 -1.46340 1.38250
N4A N 0.5232(5) -0.9569(4) 1.2274(3)
N5A N 0.4668(5) -1.0147(3) 1.3176(3)
N6A N 0.5094(5) -1.0773(4) 1.2792(3)
N7A N -0.0692(4) -1.4010(3) 1.3023(3)
N8A N -0.0431(6) -1.4332(4) 1.2366(3)
N9A N -0.0890(5) -1.5460(4) 1.2960(3)
Cu2A* Cu 0.88013(9) 1.33591(6) 0.31711(6)
N10A* N -0.1559(5) -1.7800(4) 1.3410(3)
O24A O 0.5360(6) -0.5840(5) 0.4767(4)
O25A O 0.4395(6) -0.5819(4) 0.5288(4)
O26A O 0.5114(6) -0.4716(4) 0.5841(4)
O27A O 0.6482(6) -0.4673(4) 0.5383(4)
Mo7A Mo 0.51672(5) -0.66772(4) 0.34778(3)
Mo8A Mo 0.58006(5) -0.43031(3) 0.33879(3)
Mo9A Mo 0.47804(5) -0.72997(3) 0.51853(3)
Mo10A Mo 0.20880(5) -0.66958(4) 0.47907(3)
Mo11A Mo 0.27431(6) -0.57382(4) 0.32644(3)
Mo12A Mo 0.23578(6) -0.43109(4) 0.48719(3)
O28A O 0.5335(6) -0.7424(3) 0.2768(3)
O29A O 0.6858(4) -0.6222(4) 0.4138(3)
O30A O 0.3674(4) -0.6611(3) 0.3134(4)
O31A O 0.4722(4) -0.7435(4) 0.4093(3)
O32A O 0.5881(4) -0.5484(3) 0.3190(4)
O33A O 0.6138(5) -0.3942(4) 0.2643(3)
O34A O 0.4012(4) -0.4882(3) 0.3062(4)
O35A O 0.4611(6) -0.8397(3) 0.5218(3)
O36A O 0.4668(4) -0.6757(4) 0.6111(3)
O37A O 0.3052(4) -0.7421(4) 0.4802(3)
O38A O 0.0731(4) -0.7436(3) 0.4762(3)
O39A O 0.2744(4) -0.6240(4) 0.5904(3)
O40A O 0.1743(7) -0.5497(4) 0.4978(3)
O41A O 0.1982(7) -0.6636(4) 0.3821(3)
O42A O 0.1714(4) -0.6128(3) 0.2456(3)
O43A O 0.2244(7) -0.4881(4) 0.3809(3)
O44A O 0.3569(4) -0.3256(4) 0.4647(3)
O45A O 0.1161(4) -0.3955(4) 0.4789(3)
C25A C 1.2958(8) 0.6700(6) 1.2668(5)
H25A H 1.28380 0.69200 1.31390
C26A C 1.3698(8) 0.6629(6) 1.1713(5)
H26A H 1.41730 0.67660 1.13730
C27A C 1.2242(8) 0.5034(6) 1.0969(5)
H27A H 1.28300 0.50180 1.06670
H28A H 1.20680 0.44720 1.11510
C28A C 1.1069(7) 0.5031(5) 1.0479(4)
C29A C 1.0219(9) 0.4196(5) 1.0065(5)
H29A H 1.03510 0.36400 1.01020
C30A C 1.0839(9) 0.5836(6) 1.0409(6)
H30A H 1.14080 0.64160 1.06870
N13A N 1.2778(6) 0.5855(4) 1.1608(4)
N14A N 1.2292(6) 0.5889(4) 1.2212(4)
N15A N 1.3843(6) 0.7187(4) 1.2383(4)
#END
