
#######################################################################
#
#                 Cambridge Crystallographic Data Centre
#                                CCDC
#
#######################################################################
#
# If this CIF has been generated from an entry in the Cambridge
# Structural Database, then it will include bibliographic, chemical,
# crystal, experimental, refinement or atomic coordinate data resulting
# from the CCDC's data processing and validation procedures.
#
#######################################################################

data_CSD_CIF_FIZQAJ
_audit_creation_date 2019-01-14
_audit_creation_method CSD-ConQuest-V1
_database_code_CSD FIZQAJ
_database_code_depnum_ccdc_archive 'CCDC 1040685'
_chemical_formula_sum 'C54 H52 Cu2 Mo12 N18 O42 P1'
_chemical_formula_moiety
;
(C54 H52 Cu2 N18 O2 3+)n,Mo12 O40 P1 3-
;
_journal_coden_Cambridge 9
_journal_volume 58
_journal_year 2019
_journal_page_first 1794
_journal_name_full 'Inorg.Chem. '
loop_
_publ_author_name
"Kun Lu"
"A.L.Pelaez"
"Luo-cheng Wu"
"Yu Cao"
"Chen-hui Zhu"
"Hai Fu"
_chemical_name_systematic
;
catena-[tris(\m-1,1'-[[1,1'-biphenyl]-4,4'-diylbis(methylene)]bis(1H-1,2,4-tri
azole))-diaqua-di-copper 
tetracosakis(\m-oxo)-(\m-phosphato)-dodecaoxo-molybdenum(v)-undeca-molybdenum(
vi) unknown solvate]
;
_cell_volume   2529.657
_exptl_crystal_colour 'brown'
_exptl_crystal_density_diffrn 1.924
_exptl_crystal_description 'Block'
_diffrn_ambient_temperature 298
_refine_special_details
;
O1,O2,O3,O4 disordered by symmetry over two configurations with occupancy 
0.5; O1W' and O1W disordered over two sites with occupancies 0.6:0.4; 
Disordered solvent molecules were not modelled and the disordered density was 
taken into account using the SQUEEZE/PLATON procedure.
;
#These two values have been output from a single CSD field.
_refine_ls_R_factor_gt 0.089
_refine_ls_wR_factor_gt 0.089
_symmetry_cell_setting triclinic
_symmetry_space_group_name_H-M 'P -1'
_symmetry_Int_Tables_number 2
loop_
_symmetry_equiv_pos_site_id
_symmetry_equiv_pos_as_xyz
1 x,y,z
2 -x,-y,-z
_cell_length_a 11.670(5)
_cell_length_b 14.293(5)
_cell_length_c 16.976(5)
_cell_angle_alpha 94.217(5)
_cell_angle_beta 106.286(5)
_cell_angle_gamma 108.861(5)
_cell_formula_units_Z 1
loop_
_atom_type_symbol
_atom_type_radius_bond
C 0.68
H 0.23
Cu 1.32
Mo 1.54
N 0.68
O 0.68
P 1.05
loop_
_atom_site_label
_atom_site_type_symbol
_atom_site_fract_x
_atom_site_fract_y
_atom_site_fract_z
C1 C 0.838(3) 0.8931(18) 1.1545(15)
H1 H 0.91796 0.93736 1.19560
H2 H 0.77631 0.92584 1.14873
C2 C 0.8612(16) 0.8758(11) 1.0678(9)
C3 C 0.7698(15) 0.8555(15) 0.9918(10)
H3 H 0.68717 0.85077 0.98851
C4 C 0.7996(14) 0.8422(14) 0.9207(9)
H4 H 0.73729 0.82835 0.86891
C5 C 0.9208(14) 0.8491(10) 0.9256(8)
C6 C 1.0121(13) 0.8695(12) 1.0016(9)
H5 H 1.09478 0.87422 1.00489
C7 C 0.9823(15) 0.8828(12) 1.0727(8)
H6 H 1.04468 0.89670 1.12450
C8 C 1.057(2) 0.8082(18) 0.6235(11)
H7 H 1.06180 0.86916 0.60080
H8 H 1.14213 0.80490 0.63930
C9 C 1.0180(14) 0.8153(10) 0.7018(7)
C10 C 0.8952(13) 0.8061(11) 0.6976(7)
H9 H 0.83221 0.79164 0.64599
C11 C 0.8658(11) 0.8183(11) 0.7698(8)
H10 H 0.78283 0.81210 0.76699
C12 C 0.9591(12) 0.8398(10) 0.8462(7)
C13 C 1.0818(12) 0.8490(12) 0.8504(7)
H11 H 1.14485 0.86356 0.90200
C14 C 1.1113(12) 0.8368(12) 0.7782(8)
H12 H 1.19424 0.84306 0.78102
C15 C 0.242(3) 0.505(2) 1.3002(14)
H13 H 0.25801 0.56879 1.33356
H14 H 0.18920 0.45232 1.32127
C16 C 0.1652(16) 0.5032(14) 1.2061(10)
C17 C 0.1407(19) 0.4241(13) 1.1466(12)
H15 H 0.16851 0.37179 1.16101
C18 C 0.0756(19) 0.4215(10) 1.0660(11)
H16 H 0.05878 0.36727 1.02519
C19 C 0.0350(15) 0.4978(11) 1.0449(9)
C20 C 0.0595(17) 0.5769(11) 1.1044(11)
H17 H 0.03171 0.62928 1.08997
C21 C 0.1246(18) 0.5796(12) 1.185(1)
H18 H 0.14136 0.63377 1.22582
N1 N 0.756(2) 0.6906(13) 1.2522(10)
C22 C 0.6547(17) 0.6738(15) 1.1898(14)
H19 H 0.57761 0.62036 1.17789
N2 N 0.679(2) 0.7438(18) 1.1467(11)
N3 N 0.795(2) 0.8039(11) 1.1825(13)
C23 C 0.8428(17) 0.7711(14) 1.2477(11)
H20 H 0.92548 0.80032 1.28505
N4 N 0.8493(11) 0.6330(12) 0.4426(7)
C24 C 0.8775(14) 0.5726(10) 0.4952(9)
H21 H 0.84820 0.50281 0.48283
N5 N 0.9550(13) 0.6301(13) 0.5686(8)
N6 N 0.9748(12) 0.7259(11) 0.5613(8)
C25 C 0.9095(13) 0.7278(10) 0.4835(10)
H22 H 0.90638 0.78499 0.46156
N7 N 0.5481(3) 0.5212(2) 1.31686(15)
C26 C 0.5000(3) 0.4293(2) 1.32683(16)
H23 H 0.54252 0.38412 1.33512
N8 N 0.3825(3) 0.4116(3) 1.32322(19)
N9 N 0.3579(3) 0.4923(3) 1.31103(19)
C27 C 0.4602(3) 0.5601(3) 1.30708(17)
H24 H 0.46906 0.62528 1.29869
Cu1 Cu 0.7367(3) 0.57671(19) 1.32377(14)
O1 O 0.8221(3) 0.4385(2) 1.29366(13)
Mo1 Mo 0.41661(15) 0.21706(11) 0.50580(11)
Mo2 Mo 0.36107(16) 0.05354(12) 0.65002(10)
Mo3 Mo 0.74041(15) 0.24250(11) 0.54112(11)
Mo4 Mo 0.48765(17) -0.14253(13) 0.66208(10)
Mo5 Mo 0.69774(17) 0.11324(13) 0.70858(10)
Mo6 Mo 0.82776(15) 0.02693(13) 0.56494(12)
O2 O 0.5320(3) 0.1078(3) 0.4789(2)
O3 O 0.4905(4) -0.0049(3) 0.4116(2)
O4 O 0.3654(3) -0.0666(3) 0.4434(2)
O5 O 0.5925(3) -0.0422(3) 0.4789(2)
O6 O 0.2989(3) 0.0824(3) 0.71960(18)
O7 O 0.2228(3) -0.0052(3) 0.5594(2)
O8 O 0.4705(5) -0.2097(2) 0.7341(2)
O9 O 0.8534(4) 0.3547(2) 0.5657(2)
O10 O 0.7855(2) 0.1589(2) 0.80678(16)
O11 O 0.9799(3) 0.0455(4) 0.5861(2)
O12 O 0.7416(3) 0.2145(2) 0.65400(18)
O13 O 0.8308(3) 0.1616(3) 0.5431(2)
O14 O 0.5888(4) 0.2764(2) 0.54549(19)
O15 O 0.5653(4) -0.1993(3) 0.6058(2)
O16 O 0.6747(4) 0.2229(3) 0.4307(2)
O17 O 0.8114(3) 0.0625(3) 0.6645(2)
O18 O 0.7508(4) -0.1066(3) 0.5539(2)
O19 O 0.5469(2) 0.12058(19) 0.70988(16)
O20 O 0.3960(3) 0.1773(3) 0.60315(17)
O21 O 0.6281(3) -0.0300(2) 0.71495(18)
O22 O 0.3705(5) 0.3140(3) 0.50199(19)
O23 O 0.3804(3) -0.0637(2) 0.6740(2)
P1 P 0.5002(3) 0.0001(3) 0.5001(2)
O24? O 0.7763(2) 0.46985(19) 1.26575(13)
C15A C -0.242(3) 0.495(2) 0.6998(14)
H13A H -0.25801 0.43121 0.66644
H14A H -0.18920 0.54768 0.67873
C16A C -0.1652(16) 0.4968(14) 0.7939(10)
C17A C -0.1407(19) 0.5759(13) 0.8534(12)
H15A H -0.16851 0.62821 0.83899
C18A C -0.0756(19) 0.5785(10) 0.9340(11)
H16A H -0.05878 0.63273 0.97481
C19A C -0.0350(15) 0.5022(11) 0.9551(9)
C20A C -0.0595(17) 0.4231(11) 0.8956(11)
H17A H -0.03171 0.37072 0.91003
C21A C -0.1246(18) 0.4204(12) 0.815(1)
H18A H -0.14136 0.36623 0.77418
N7A N -0.5481(3) 0.4788(2) 0.68314(15)
C26A C -0.5000(3) 0.5707(2) 0.67317(16)
H23A H -0.54252 0.61588 0.66488
N8A N -0.3825(3) 0.5884(3) 0.67678(19)
N9A N -0.3579(3) 0.5077(3) 0.68897(19)
C27A C -0.4602(3) 0.4399(3) 0.69292(17)
H24A H -0.46906 0.37472 0.70131
C1A C -0.838(3) 0.1069(18) 0.8455(15)
H1A H -0.91796 0.06264 0.80440
H2A H -0.77631 0.07416 0.85127
C2A C -0.8612(16) 0.1242(11) 0.9322(9)
C3A C -0.7698(15) 0.1445(15) 1.0082(10)
H3A H -0.68717 0.14923 1.01149
C4A C -0.7996(14) 0.1578(14) 1.0793(9)
H4A H -0.73729 0.17165 1.13109
C5A C -0.9208(14) 0.1509(10) 1.0744(8)
C6A C -1.0121(13) 0.1305(12) 0.9984(9)
H5A H -1.09478 0.12578 0.99511
C7A C -0.9823(15) 0.1172(12) 0.9273(8)
H6A H -1.04468 0.10330 0.87550
C8A C -1.057(2) 0.1918(18) 1.3765(11)
H7A H -1.06180 0.13084 1.39920
H8A H -1.14213 0.19510 1.36070
C9A C -1.0180(14) 0.1847(10) 1.2982(7)
C10A C -0.8952(13) 0.1939(11) 1.3024(7)
H9A H -0.83221 0.20836 1.35401
C11A C -0.8658(11) 0.1817(11) 1.2302(8)
H10A H -0.78283 0.18790 1.23301
C12A C -0.9591(12) 0.1602(10) 1.1538(7)
C13A C -1.0818(12) 0.1510(12) 1.1496(7)
H11A H -1.14485 0.13644 1.09800
C14A C -1.1113(12) 0.1632(12) 1.2218(8)
H12A H -1.19424 0.15694 1.21898
N1A N -0.756(2) 0.3094(13) 0.7478(10)
C22A C -0.6547(17) 0.3262(15) 0.8102(14)
H19A H -0.57761 0.37964 0.82211
N2A N -0.679(2) 0.2562(18) 0.8533(11)
N3A N -0.795(2) 0.1961(11) 0.8175(13)
C23A C -0.8428(17) 0.2289(14) 0.7523(11)
H20A H -0.92548 0.19968 0.71495
N4A N -0.8493(11) 0.3670(12) 1.5574(7)
C24A C -0.8775(14) 0.4274(10) 1.5048(9)
H21A H -0.84820 0.49719 1.51717
N5A N -0.9550(13) 0.3699(13) 1.4314(8)
N6A N -0.9748(12) 0.2741(11) 1.4387(8)
C25A C -0.9095(13) 0.2722(10) 1.5165(10)
H22A H -0.90638 0.21501 1.53844
Cu1A Cu -0.7367(3) 0.42329(19) 0.67623(14)
O1A O -0.8221(3) 0.5615(2) 0.70634(13)
N4* N 0.8493(11) 0.6330(12) 1.4426(7)
N4A* N -0.8493(11) 0.3670(12) 0.5574(7)
Cu1* Cu 0.7367(3) 0.57671(19) 0.32377(14)
Cu1A* Cu -0.7367(3) 0.42329(19) 1.67623(14)
O2A O 0.4680(3) -0.1078(3) 0.5211(2)
O3A O 0.5095(4) 0.0049(3) 0.5884(2)
O4A O 0.6346(3) 0.0666(3) 0.5566(2)
O5A O 0.4075(3) 0.0422(3) 0.5211(2)
Mo1A Mo 0.58339(15) -0.21706(11) 0.49420(11)
Mo2A Mo 0.63893(16) -0.05354(12) 0.34998(10)
Mo3A Mo 0.25959(15) -0.24250(11) 0.45888(11)
Mo4A Mo 0.51235(17) 0.14253(13) 0.33792(10)
Mo5A Mo 0.30226(17) -0.11324(13) 0.29142(10)
Mo6A Mo 0.17224(15) -0.02693(13) 0.43506(12)
O6A O 0.7011(3) -0.0824(3) 0.28040(18)
O7A O 0.7772(3) 0.0052(3) 0.4406(2)
O8A O 0.5295(5) 0.2097(2) 0.2659(2)
O9A O 0.1466(4) -0.3547(2) 0.4343(2)
O10A O 0.2145(2) -0.1589(2) 0.19322(16)
O11A O 0.0201(3) -0.0455(4) 0.4139(2)
O12A O 0.2584(3) -0.2145(2) 0.34600(18)
O13A O 0.1692(3) -0.1616(3) 0.4569(2)
O14A O 0.4112(4) -0.2764(2) 0.45451(19)
O15A O 0.4347(4) 0.1993(3) 0.3942(2)
O16A O 0.3253(4) -0.2229(3) 0.5693(2)
O17A O 0.1886(3) -0.0625(3) 0.3355(2)
O18A O 0.2492(4) 0.1066(3) 0.4461(2)
O19A O 0.4531(2) -0.12058(19) 0.29012(16)
O20A O 0.6040(3) -0.1773(3) 0.39685(17)
O21A O 0.3719(3) 0.0300(2) 0.28505(18)
O22A O 0.6295(5) -0.3140(3) 0.49801(19)
O23A O 0.6196(3) 0.0637(2) 0.3260(2)
#END
