
#######################################################################
#
#                 Cambridge Crystallographic Data Centre
#                                CCDC
#
#######################################################################
#
# If this CIF has been generated from an entry in the Cambridge
# Structural Database, then it will include bibliographic, chemical,
# crystal, experimental, refinement or atomic coordinate data resulting
# from the CCDC's data processing and validation procedures.
#
#######################################################################

data_CSD_CIF_FIZVER
_audit_creation_date 2014-06-04
_audit_creation_method CSD-ConQuest-V1
_database_code_CSD FIZVER
_database_code_depnum_ccdc_archive 'CCDC 956423'
_chemical_formula_sum 'C30 H21 Dy1 N4 O9'
_chemical_formula_moiety
;
(C24 H14 Dy1 O9 1-)n,n(C6 H7 N4 1+)
;
_journal_coden_Cambridge 1147
_journal_volume 14
_journal_year 2014
_journal_page_first 1684
_journal_name_full 'Cryst.Growth Des. '
loop_
_publ_author_name
"Ying-Bing Lu"
"Fang-Mei Jian"
"Shuang Jin"
"Jun-Wei Zhao"
"Yong-Rong Xie"
"Guo-Tian Luo"
_chemical_name_systematic
;
catena-[2-(1H-imidazol-2-yl)-1H-imidazol-3-ium 
(\m~4~-naphthalene-1,4-dicarboxylato)-(\m~2~-naphthalene-1,4-dicarboxylato)-aq
ua-dysprosium]
;
_cell_volume   2719.790
_exptl_crystal_colour 'pale yellow'
_exptl_crystal_density_diffrn 1.817
_exptl_crystal_description 'block'
_diffrn_ambient_temperature 296
#These two values have been output from a single CSD field.
_refine_ls_R_factor_gt 0.0291
_refine_ls_wR_factor_gt 0.0291
_symmetry_cell_setting monoclinic
_symmetry_space_group_name_H-M 'P 21/c'
_symmetry_Int_Tables_number 14
loop_
_symmetry_equiv_pos_site_id
_symmetry_equiv_pos_as_xyz
1 x,y,z
2 -x,1/2+y,1/2-z
3 -x,-y,-z
4 x,-1/2-y,-1/2+z
_cell_length_a 11.7439(1)
_cell_length_b 15.7292(2)
_cell_length_c 15.2552(2)
_cell_angle_alpha 90
_cell_angle_beta 105.169(1)
_cell_angle_gamma 90
_cell_formula_units_Z 4
loop_
_atom_type_symbol
_atom_type_radius_bond
C 0.68
H 0.23
Dy 1.92
N 0.68
O 0.68
loop_
_atom_site_label
_atom_site_type_symbol
_atom_site_fract_x
_atom_site_fract_y
_atom_site_fract_z
Dy1 Dy 0.809474(10) 0.516293(8) 0.962919(7)
O1 O 0.6700(2) 0.52824(14) 1.05516(15)
H1 H 0.6325(14) 0.4875(8) 1.0676(17)
H2 H 0.694(2) 0.5594(9) 1.0947(13)
C1 C 0.5258(2) 0.30624(19) 0.85915(17)
O2 O 0.6683(2) 0.40911(16) 0.91548(15)
O3 O 0.54800(19) 0.37735(14) 1.00015(13)
C2 C 0.4251(3) 0.3288(2) 0.7951(2)
H3 H 0.39430 0.38320 0.79590
C3 C 0.3678(3) 0.2705(2) 0.72824(19)
H4 H 0.30050 0.28730 0.68440
O4 O 0.30231(18) 0.15162(13) 0.57602(13)
O5 O 0.3140(2) 0.05686(15) 0.68321(14)
C4 C 0.4093(3) 0.1895(2) 0.72663(18)
O6 O 1.0865(2) 0.39902(16) 0.91980(16)
C5 C 0.5130(3) 0.16348(19) 0.79228(19)
O7 O 0.8947(2) 0.41986(15) 0.88523(16)
C6 C 0.5611(3) 0.0801(2) 0.7951(2)
H5 H 0.52450 0.04010 0.75200
O8 O 1.0663(2) 0.09834(16) 0.59862(18)
C7 C 0.6596(3) 0.0585(2) 0.8600(3)
H6 H 0.68810 0.00320 0.86200
O9 O 0.8761(2) 0.08124(16) 0.57628(17)
C8 C 0.7193(3) 0.1172(2) 0.9238(2)
H7 H 0.78750 0.10120 0.96710
C9 C 0.6782(3) 0.1980(2) 0.9229(2)
H8 H 0.71950 0.23720 0.96500
C10 C 0.5733(2) 0.2232(2) 0.85890(18)
C11 C 0.5854(2) 0.36923(19) 0.93050(18)
C12 C 0.3380(3) 0.1291(2) 0.65841(19)
C13 C 0.9706(2) 0.31896(17) 0.80114(16)
C14 C 0.9307(2) 0.24005(17) 0.81399(17)
H9 H 0.90500 0.22860 0.86550
C15 C 0.9282(2) 0.17568(18) 0.74965(17)
H10 H 0.89930 0.12220 0.75860
C16 C 0.9674(2) 0.19015(17) 0.67440(17)
C17 C 1.0057(2) 0.27257(18) 0.65722(17)
C18 C 1.0396(3) 0.2934(2) 0.57669(19)
H11 H 1.04320 0.25090 0.53510
C19 C 1.0666(3) 0.3750(2) 0.5601(2)
H12 H 1.08590 0.38770 0.50620
C20 C 1.0658(3) 0.4400(2) 0.6228(2)
H13 H 1.08460 0.49540 0.61040
C21 C 1.0375(3) 0.4219(2) 0.7021(2)
H14 H 1.03920 0.46490 0.74420
C22 C 1.0058(2) 0.33853(17) 0.72085(17)
C23 C 0.9840(2) 0.38557(18) 0.87505(17)
C24 C 0.9712(3) 0.11754(18) 0.61122(18)
N1 N 0.4282(2) 0.58470(18) 0.39303(17)
H15 H 0.44420 0.53170 0.40350
N2 N 0.4371(2) 0.72274(16) 0.40226(16)
H16 H 0.46080 0.77310 0.42000
N3 N 0.6325(2) 0.58264(17) 0.56705(17)
N4 N 0.6758(2) 0.70906(19) 0.52723(16)
H17 H 0.67140 0.75610 0.49780
C25 C 0.3412(3) 0.7027(2) 0.3345(2)
H18 H 0.28880 0.74110 0.29880
C26 C 0.3350(3) 0.6174(3) 0.3277(2)
H19 H 0.27800 0.58630 0.28630
C27 C 0.4887(3) 0.64954(19) 0.43686(19)
C28 C 0.5968(3) 0.64588(19) 0.50893(19)
C29 C 0.7644(3) 0.6861(2) 0.6002(2)
H20 H 0.83040 0.71830 0.62800
C30 C 0.7377(3) 0.6073(2) 0.6247(2)
H21 H 0.78300 0.57530 0.67250
Dy1A Dy 0.190526(10) 0.016293(8) 0.537081(7)
Dy1A* Dy 1.190526(10) 0.016293(8) 0.537081(7)
Dy1B Dy 1.190526(10) 0.483707(8) 1.037081(7)
Dy1C Dy 0.809474(10) -0.016293(8) 0.462919(7)
O4A O 0.69769(18) 0.65162(13) 0.92398(13)
O5A O 0.6860(2) 0.55686(15) 0.81679(14)
O6B O 0.9135(2) 0.60098(16) 1.08020(16)
O8A O 0.9337(2) 0.59834(16) 0.90138(18)
O9C O 0.8761(2) 0.41876(16) 1.07628(17)
#END
