
#######################################################################
#
#                 Cambridge Crystallographic Data Centre
#                                CCDC
#
#######################################################################
#
# If this CIF has been generated from an entry in the Cambridge
# Structural Database, then it will include bibliographic, chemical,
# crystal, experimental, refinement or atomic coordinate data resulting
# from the CCDC's data processing and validation procedures.
#
#######################################################################

data_CSD_CIF_FOBJOX
_audit_creation_date 2014-06-04
_audit_creation_method CSD-ConQuest-V1
_database_code_CSD FOBJOX
_database_code_depnum_ccdc_archive 'CCDC 956420'
_chemical_formula_sum 'C30 H21 Eu1 N4 O9'
_chemical_formula_moiety
;
(C24 H14 Eu1 O9 1-)n,n(C6 H7 N4 1+)
;
_journal_coden_Cambridge 1147
_journal_volume 14
_journal_year 2014
_journal_page_first 1684
_journal_name_full 'Cryst.Growth Des. '
loop_
_publ_author_name
"Ying-Bing Lu"
"Fang-Mei Jian"
"Shuang Jin"
"Jun-Wei Zhao"
"Yong-Rong Xie"
"Guo-Tian Luo"
_chemical_name_systematic
;
catena-(2-(1H-Imidazol-2-yl)-1H-imidazol-3-ium 
(\m~4~-naphthalene-1,4-dicarboxylato)-(\m~2~-naphthalene-1,4-dicarboxylato)-aq
ua-europium)
;
_cell_volume   2755.172
_exptl_crystal_colour 'pale yellow'
_exptl_crystal_density_diffrn 1.768
_exptl_crystal_description 'block'
_diffrn_ambient_temperature 296
#These two values have been output from a single CSD field.
_refine_ls_R_factor_gt 0.0254
_refine_ls_wR_factor_gt 0.0254
_symmetry_cell_setting monoclinic
_symmetry_space_group_name_H-M 'P 21/c'
_symmetry_Int_Tables_number 14
loop_
_symmetry_equiv_pos_site_id
_symmetry_equiv_pos_as_xyz
1 x,y,z
2 -x,1/2+y,1/2-z
3 -x,-y,-z
4 x,-1/2-y,-1/2+z
_cell_length_a 11.7225(1)
_cell_length_b 15.7466(1)
_cell_length_c 15.4261(1)
_cell_angle_alpha 90
_cell_angle_beta 104.63
_cell_angle_gamma 90
_cell_formula_units_Z 4
loop_
_atom_type_symbol
_atom_type_radius_bond
C 0.68
H 0.23
Eu 1.98
N 0.68
O 0.68
loop_
_atom_site_label
_atom_site_type_symbol
_atom_site_fract_x
_atom_site_fract_y
_atom_site_fract_z
Eu1 Eu 0.189365(10) 0.015933(8) 0.537385(8)
O1 O 0.3319(2) 0.02876(15) 0.44415(17)
H1 H 0.368(2) -0.0182(8) 0.457(3)
H2 H 0.3819(17) 0.0652(10) 0.469(2)
C1 C 0.5952(3) -0.30772(19) 0.77336(19)
O2 O 0.69734(19) -0.34843(13) 0.92196(14)
O3 O 0.6948(2) -0.43926(14) 0.81359(14)
C2 C 0.6365(3) -0.2268(2) 0.7733(2)
H3 H 0.70310 -0.21030 0.81700
C3 C 0.5793(3) -0.1677(2) 0.7076(2)
H4 H 0.60940 -0.11320 0.70710
O4 O 0.3371(2) -0.08756(16) 0.58858(16)
O5 O 0.4531(2) -0.12488(15) 0.50190(15)
C4 C 0.4784(2) -0.1912(2) 0.6441(2)
C5 C 0.4318(2) -0.2740(2) 0.64441(19)
O6 O -0.0510(3) -0.09485(18) 0.4094(2)
O7 O 0.1364(3) -0.08673(17) 0.42387(18)
C6 C 0.3262(3) -0.2998(3) 0.5811(2)
H5 H 0.28450 -0.26080 0.53990
O8 O -0.08962(19) -0.39786(16) 0.08232(16)
C7 C 0.2862(3) -0.3802(3) 0.5804(3)
H6 H 0.21860 -0.39670 0.53780
O9 O 0.10380(19) -0.41682(14) 0.11608(15)
C8 C 0.3450(4) -0.4376(3) 0.6423(3)
H7 H 0.31620 -0.49270 0.64110
C9 C 0.4443(3) -0.4163(2) 0.7057(2)
H8 H 0.48120 -0.45650 0.74750
C10 C 0.4916(3) -0.3342(2) 0.7084(2)
C11 C 0.6657(3) -0.3691(2) 0.8403(2)
C12 C 0.4182(2) -0.1290(2) 0.5739(2)
C13 C 0.0344(2) -0.18924(16) 0.32617(17)
C14 C 0.0721(2) -0.17415(18) 0.25054(18)
H9 H 0.10170 -0.12100 0.24160
C15 C 0.0665(2) -0.23819(17) 0.18649(17)
H10 H 0.09090 -0.22680 0.13480
C16 C 0.0256(2) -0.31707(17) 0.19921(17)
C17 C -0.0081(2) -0.33683(17) 0.27884(17)
C18 C -0.0413(3) -0.4196(2) 0.2978(2)
H11 H -0.04500 -0.46230 0.25560
C19 C -0.0679(4) -0.4383(2) 0.3764(2)
H12 H -0.08820 -0.49350 0.38800
C20 C -0.0646(3) -0.3733(2) 0.4406(2)
H13 H -0.08170 -0.38630 0.49480
C21 C -0.0368(3) -0.2930(2) 0.42384(19)
H14 H -0.03840 -0.25080 0.46570
C22 C -0.0049(2) -0.27125(17) 0.34328(17)
C23 C 0.0398(3) -0.11812(18) 0.39171(19)
C24 C 0.0131(2) -0.38336(17) 0.12651(17)
N1 N 0.5669(2) 0.22038(17) 1.09937(18)
H15 H 0.54460 0.27100 1.08210
N2 N 0.5730(2) 0.08178(17) 1.10562(17)
N3 N 0.3295(2) 0.21099(19) 0.97700(17)
H16 H 0.33470 0.25800 1.00620
N4 N 0.3704(2) 0.08477(17) 0.93665(17)
H17 H 0.40520 0.03700 0.93460
C25 C 0.6621(3) 0.1992(3) 1.1663(3)
H18 H 0.71480 0.23680 1.20210
C26 C 0.6666(3) 0.1136(3) 1.1714(3)
H19 H 0.72260 0.08170 1.21180
C27 C 0.5143(2) 0.14844(18) 1.0652(2)
C28 C 0.4072(3) 0.14674(18) 0.9942(2)
C29 C 0.2406(3) 0.1882(2) 0.9047(2)
H20 H 0.17500 0.22070 0.87750
C30 C 0.2660(3) 0.1107(2) 0.8808(2)
H21 H 0.22030 0.07920 0.83370
Eu1A Eu -0.189365(10) -0.484067(8) -0.037385(8)
Eu1A* Eu 0.810635(10) -0.484067(8) 0.962615(8)
Eu1B Eu -0.189365(10) -0.015933(8) 0.462615(8)
Eu1C Eu 0.189365(10) -0.515933(8) 0.037385(8)
O2A O 0.30266(19) 0.15157(13) 0.57804(14)
O3A O 0.3052(2) 0.06074(14) 0.68641(14)
O6B O 0.0510(3) 0.09485(18) 0.5906(2)
O8A O 0.08962(19) 0.10214(16) 0.41768(16)
O9C O 0.10380(19) -0.08318(14) 0.61608(15)
#END
