
#######################################################################
#
#                 Cambridge Crystallographic Data Centre
#                                CCDC
#
#######################################################################
#
# If this CIF has been generated from an entry in the Cambridge
# Structural Database, then it will include bibliographic, chemical,
# crystal, experimental, refinement or atomic coordinate data resulting
# from the CCDC's data processing and validation procedures.
#
#######################################################################

data_CSD_CIF_FOBJAJ
_audit_creation_date 2014-06-04
_audit_creation_method CSD-ConQuest-V1
_database_code_CSD FOBJAJ
_database_code_depnum_ccdc_archive 'CCDC 956417'
_chemical_formula_sum 'C30 H23 La1 N4 O10'
_chemical_formula_moiety
;
(C24 H14 La1 O9 1-)n,n(C6 H7 N4 1+),n(H2 O1)
;
_journal_coden_Cambridge 1147
_journal_volume 14
_journal_year 2014
_journal_page_first 1684
_journal_name_full 'Cryst.Growth Des. '
loop_
_publ_author_name
"Ying-Bing Lu"
"Fang-Mei Jian"
"Shuang Jin"
"Jun-Wei Zhao"
"Yong-Rong Xie"
"Guo-Tian Luo"
_chemical_name_systematic
;
catena-(2-(1H-Imidazol-2-yl)-1H-imidazol-3-ium 
(\m~4~-naphthalene-1,4-dicarboxylato)-(\m~2~-naphthalene-1,4-dicarboxylato)-aq
ua-lanthanum monohydrate)
;
_cell_volume   2724.191
_exptl_crystal_colour 'pale yellow'
_exptl_crystal_density_diffrn 1.8
_exptl_crystal_description 'block'
_diffrn_ambient_temperature 296
#These two values have been output from a single CSD field.
_refine_ls_R_factor_gt 0.0165
_refine_ls_wR_factor_gt 0.0165
_symmetry_cell_setting monoclinic
_symmetry_space_group_name_H-M 'P 21/c'
_symmetry_Int_Tables_number 14
loop_
_symmetry_equiv_pos_site_id
_symmetry_equiv_pos_as_xyz
1 x,y,z
2 -x,1/2+y,1/2-z
3 -x,-y,-z
4 x,-1/2-y,-1/2+z
_cell_length_a 11.1578(1)
_cell_length_b 15.5651(2)
_cell_length_c 16.1486(2)
_cell_angle_alpha 90
_cell_angle_beta 103.75
_cell_angle_gamma 90
_cell_formula_units_Z 4
loop_
_atom_type_symbol
_atom_type_radius_bond
C 0.68
H 0.23
La 2.07
N 0.68
O 0.68
loop_
_atom_site_label
_atom_site_type_symbol
_atom_site_fract_x
_atom_site_fract_y
_atom_site_fract_z
La1 La 0.685213(8) 0.483003(5) 0.039889(5)
O1 O 0.74910(13) 0.42070(8) 0.20107(8)
C1 C 0.88452(17) 0.29901(11) 0.23840(11)
O2 O 0.79037(13) 0.34333(8) 0.09809(8)
O3 O 0.85373(16) 0.43266(11) -0.03926(11)
H1 H 0.9215(16) 0.4304(18) -0.0148(14)
H2 H 0.828(2) 0.4073(16) -0.0817(12)
C2 C 0.85613(18) 0.21340(11) 0.23467(11)
H3 H 0.78570 0.19390 0.19610
O4 O 1.09173(15) 0.03419(9) 0.37773(11)
C3 C 0.93253(17) 0.15485(11) 0.28859(11)
H4 H 0.91190 0.09690 0.28470
O5 O 1.21067(16) 0.12925(9) 0.45393(11)
C4 C 1.03734(16) 0.18059(11) 0.34721(11)
O6 O 0.48767(11) 0.41431(7) 0.05981(7)
C5 C 1.06916(16) 0.27051(11) 0.35445(11)
O7 O 0.32871(12) 0.44556(8) 0.11272(8)
C6 C 1.17395(18) 0.30374(12) 0.41399(12)
H5 H 1.22370 0.26680 0.45270
O8 O 0.40452(13) 0.07990(9) 0.36408(8)
C7 C 1.2026(2) 0.38930(14) 0.41518(14)
H6 H 1.27100 0.41000 0.45490
O9 O 0.59695(12) 0.12197(8) 0.42092(8)
C8 C 1.12913(19) 0.44614(12) 0.35677(13)
H7 H 1.15100 0.50380 0.35690
C9 C 1.02651(18) 0.41760(12) 0.30021(12)
H8 H 0.97820 0.45630 0.26270
C10 C 0.99189(16) 0.32957(11) 0.2975(1)
C11 C 1.11807(17) 0.11085(11) 0.39608(11)
C12 C 0.80197(17) 0.35878(11) 0.17701(11)
C13 C 0.44972(15) 0.32708(10) 0.17566(10)
C14 C 0.42628(18) 0.34164(11) 0.25443(11)
H9 H 0.39790 0.39530 0.26650
C15 C 0.44433(17) 0.27704(11) 0.31695(10)
H10 H 0.42990 0.28890 0.37020
C16 C 0.48293(15) 0.19675(11) 0.30027(10)
C17 C 0.50699(15) 0.17842(10) 0.21973(11)
C18 C 0.54217(19) 0.09473(11) 0.19996(12)
H11 H 0.55200 0.05170 0.24100
C19 C 0.5618(2) 0.07660(14) 0.12165(14)
H12 H 0.58550 0.02160 0.10970
C20 C 0.5461(2) 0.14115(13) 0.05879(13)
H13 H 0.55820 0.12800 0.00520
C21 C 0.51354(19) 0.22274(12) 0.07556(12)
H14 H 0.50560 0.26470 0.03360
C22 C 0.49161(16) 0.24437(10) 0.1561(1)
C23 C 0.42069(16) 0.40009(10) 0.11238(10)
C24 C 0.49582(17) 0.12665(10) 0.36734(10)
O10 O 1.06874(16) 0.38801(10) 0.09723(13)
H15 H 1.039(2) 0.3567(15) 0.1112(18)
H16 H 1.1303(19) 0.4050(17) 0.0912(19)
N1 N 1.09556(15) 0.07508(10) 0.10683(10)
H17 H 1.07970 0.02430 0.08620
N2 N 1.08492(15) 0.21154(10) 0.12621(10)
H18 H 1.06020 0.26400 0.12030
N3 N 0.88034(15) 0.08968(10) -0.04606(10)
N4 N 0.84473(16) 0.21770(11) -0.00112(11)
H19 H 0.85300 0.26360 0.02930
C25 C 1.1914(2) 0.09676(14) 0.17372(14)
H20 H 1.24980 0.05940 0.20540
C26 C 1.18522(19) 0.18238(15) 0.18515(15)
H21 H 1.23920 0.21530 0.22560
C27 C 1.03142(17) 0.14517(11) 0.07910(11)
C28 C 0.92141(17) 0.14951(11) 0.01162(11)
C29 C 0.7742(2) 0.12215(14) -0.09800(13)
H22 H 0.72510 0.09410 -0.14480
C30 C 0.75246(19) 0.20103(14) -0.07028(13)
H23 H 0.68670 0.23700 -0.09410
La1A La 0.314787(8) -0.016997(5) 0.460111(5)
La1A* La 1.314787(8) -0.016997(5) 0.460111(5)
La1B La 0.314787(8) 0.516997(5) -0.039889(5)
La1C La 0.685213(8) 0.016997(5) 0.539889(5)
O4A O 0.90827(15) 0.53419(9) 0.12227(11)
O5A O 0.78933(16) 0.62925(9) 0.04607(11)
O6B O 0.51233(11) 0.58569(7) -0.05981(7)
O7B O 0.67129(12) 0.55444(8) -0.11272(8)
O8A O 0.59548(13) 0.57990(9) 0.13592(8)
O9C O 0.59695(12) 0.37803(8) -0.07908(8)
#END
