
#######################################################################
#
#                 Cambridge Crystallographic Data Centre
#                                CCDC
#
#######################################################################
#
# If this CIF has been generated from an entry in the Cambridge
# Structural Database, then it will include bibliographic, chemical,
# crystal, experimental, refinement or atomic coordinate data resulting
# from the CCDC's data processing and validation procedures.
#
#######################################################################

data_CSD_CIF_FOBKAK
_audit_creation_date 2014-06-04
_audit_creation_method CSD-ConQuest-V1
_database_code_CSD FOBKAK
_database_code_depnum_ccdc_archive 'CCDC 956422'
_chemical_formula_sum 'C30 H21 N4 O9 Tb1'
_chemical_formula_moiety
;
(C24 H14 O9 Tb1 1-)n,C6 H7 N4 1+
;
_journal_coden_Cambridge 1147
_journal_volume 14
_journal_year 2014
_journal_page_first 1684
_journal_name_full 'Cryst.Growth Des. '
loop_
_publ_author_name
"Ying-Bing Lu"
"Fang-Mei Jian"
"Shuang Jin"
"Jun-Wei Zhao"
"Yong-Rong Xie"
"Guo-Tian Luo"
_chemical_name_systematic
;
catena-(2-(1H-Imidazol-2-yl)-1H-imidazol-3-ium 
(\m~4~-naphthalene-1,4-dicarboxylato)-(\m~2~-naphthalene-1,4-dicarboxylato)-aq
ua-terbium)
;
_cell_volume   2732.884
_exptl_crystal_colour 'pale yellow'
_exptl_crystal_density_diffrn 1.8
_exptl_crystal_description 'block'
_diffrn_ambient_temperature 296
#These two values have been output from a single CSD field.
_refine_ls_R_factor_gt 0.0236
_refine_ls_wR_factor_gt 0.0236
_symmetry_cell_setting monoclinic
_symmetry_space_group_name_H-M 'P 21/c'
_symmetry_Int_Tables_number 14
loop_
_symmetry_equiv_pos_site_id
_symmetry_equiv_pos_as_xyz
1 x,y,z
2 -x,1/2+y,1/2-z
3 -x,-y,-z
4 x,-1/2-y,-1/2+z
_cell_length_a 11.7438(1)
_cell_length_b 15.7457(1)
_cell_length_c 15.3042(1)
_cell_angle_alpha 90
_cell_angle_beta 105.051(1)
_cell_angle_gamma 90
_cell_formula_units_Z 4
loop_
_atom_type_symbol
_atom_type_radius_bond
C 0.68
H 0.23
N 0.68
O 0.68
Tb 1.94
loop_
_atom_site_label
_atom_site_type_symbol
_atom_site_fract_x
_atom_site_fract_y
_atom_site_fract_z
Tb1 Tb 0.309544(12) 0.016248(9) 0.962887(8)
O1 O 0.1705(2) 0.02877(17) 1.05659(18)
H1 H 0.137(3) -0.0183(13) 1.057(3)
H2 H 0.121(3) 0.0651(16) 1.042(3)
O2 O 0.1668(2) -0.08995(19) 0.91493(18)
C1 C 0.0238(3) -0.1938(2) 0.8583(2)
O3 O 0.0474(2) -0.12362(16) 0.99990(16)
C2 C -0.0759(3) -0.1707(2) 0.7946(2)
H3 H -0.10630 -0.11630 0.79540
O4 O -0.1875(3) -0.44225(17) 0.68391(16)
C3 C -0.1330(3) -0.2286(2) 0.7278(2)
H4 H -0.19950 -0.21160 0.68360
O5 O -0.1971(2) -0.34832(15) 0.57686(14)
C4 C -0.0920(3) -0.3095(2) 0.7271(2)
O6 O 0.3954(2) -0.08050(17) 0.88490(18)
C5 C 0.0123(3) -0.3365(2) 0.7922(2)
O7 O 0.5874(2) -0.10155(18) 0.91959(18)
C6 C 0.0595(3) -0.4189(3) 0.7950(3)
H5 H 0.02190 -0.45890 0.75260
O8 O 0.3740(3) -0.41775(19) 0.5769(2)
C7 C 0.1592(4) -0.4408(3) 0.8586(3)
H6 H 0.18880 -0.49560 0.85910
O9 O 0.5636(3) -0.40262(19) 0.5971(2)
C8 C 0.2178(4) -0.3825(3) 0.9230(3)
H7 H 0.28530 -0.39880 0.96650
C9 C 0.1764(3) -0.3013(3) 0.9224(2)
H8 H 0.21740 -0.26220 0.96460
C10 C 0.0721(3) -0.2761(2) 0.8584(2)
C11 C 0.0854(3) -0.1305(2) 0.9298(2)
C12 C -0.1624(3) -0.3707(2) 0.6588(2)
C13 C 0.4717(3) -0.1812(2) 0.80131(19)
C14 C 0.4310(3) -0.2599(2) 0.8144(2)
H9 H 0.40490 -0.27110 0.86560
C15 C 0.4284(3) -0.3246(2) 0.7497(2)
H10 H 0.39990 -0.37810 0.75870
C16 C 0.4669(3) -0.31004(19) 0.6747(2)
C17 C 0.5060(3) -0.2273(2) 0.6572(2)
C18 C 0.5385(3) -0.2068(2) 0.5771(2)
H11 H 0.54100 -0.24930 0.53540
C19 C 0.5663(4) -0.1258(2) 0.5604(3)
H12 H 0.58610 -0.11320 0.50680
C20 C 0.5655(4) -0.0607(3) 0.6228(3)
H13 H 0.58370 -0.00540 0.61000
C21 C 0.5383(3) -0.0785(2) 0.7021(2)
H14 H 0.54060 -0.03550 0.74410
C22 C 0.5063(3) -0.1621(2) 0.7212(2)
C23 C 0.4846(3) -0.1153(2) 0.8742(2)
C24 C 0.4693(4) -0.3821(2) 0.6107(2)
N1 N 0.1745(3) 0.2096(2) 0.52621(19)
H15 H 0.16960 0.25660 0.49690
N2 N 0.1316(3) 0.08277(19) 0.5663(2)
N3 N -0.0721(3) 0.08391(19) 0.3932(2)
H16 H -0.05620 0.03100 0.40380
N4 N -0.0635(3) 0.22163(19) 0.4021(2)
H17 H -0.04010 0.27200 0.41980
C25 C 0.2630(3) 0.1869(3) 0.5988(2)
H18 H 0.32890 0.21920 0.62630
C26 C 0.2365(3) 0.1082(3) 0.6231(3)
H19 H 0.28210 0.07650 0.67080
C27 C 0.0959(3) 0.1459(2) 0.5081(2)
C28 C -0.0115(3) 0.1491(2) 0.4364(2)
C29 C -0.1646(4) 0.1165(3) 0.3287(3)
H20 H -0.22150 0.08510 0.28770
C30 C -0.1594(4) 0.2017(3) 0.3345(3)
H21 H -0.21190 0.23980 0.29880
Tb1A Tb -0.309544(12) -0.483752(9) 0.537113(8)
Tb1A* Tb 0.690456(12) -0.483752(9) 0.537113(8)
Tb1B Tb 0.690456(12) -0.016248(9) 1.037113(8)
Tb1C Tb 0.309544(12) -0.516248(9) 0.462887(8)
O4A O 0.1875(3) 0.05775(17) 0.81609(16)
O5A O 0.1971(2) 0.15168(15) 0.92314(14)
O7B O 0.4126(2) 0.10155(18) 1.08041(18)
O8C O 0.3740(3) -0.08225(19) 1.0769(2)
O9A O 0.4364(3) 0.09738(19) 0.9029(2)
#END
