
#######################################################################
#
#                 Cambridge Crystallographic Data Centre
#                                CCDC
#
#######################################################################
#
# If this CIF has been generated from an entry in the Cambridge
# Structural Database, then it will include bibliographic, chemical,
# crystal, experimental, refinement or atomic coordinate data resulting
# from the CCDC's data processing and validation procedures.
#
#######################################################################

data_CSD_CIF_FOFGEO
_audit_creation_date 2014-06-06
_audit_creation_method CSD-ConQuest-V1
_database_code_CSD FOFGEO
_database_code_depnum_ccdc_archive 'CCDC 938815'
_chemical_formula_sum 'C72 H56 Ag4 Mo8 N20 O28'
_chemical_formula_moiety
;
(C18 H13 Ag1 N5 1+)4n,n(Mo8 O26 4-),2n(H2 O1)
;
_journal_coden_Cambridge 1290
_journal_year 2013
_journal_page_first 6097
_journal_name_full 'Eur.J.Inorg.Chem. '
loop_
_publ_author_name
"Shi Zhou"
"Ya-Guang Chen"
"Bo Liu"
"Xiao-Min Li"
"Dong-Xiao Wang"
_chemical_name_systematic
;
catena-[tetrakis((\m~2~-4,4',4''-(1H-Imidazole-2,4,5-triyl)tripyridine)-silver
(i))  
bis(\m~4~-oxo)-tetrakis(\m~3~-oxo)-hexakis(\m~2~-oxo)-tetradeca-oxo-octa-molyb
denum dihydrate]
;
_cell_volume   8361.228
_exptl_crystal_density_diffrn 2.262
_diffrn_ambient_temperature 293
_refine_special_details
;
O1W and O1W' disordered over two sites with occupancies 0.50:0.50.

;
#These two values have been output from a single CSD field.
_refine_ls_R_factor_gt 0.0607
_refine_ls_wR_factor_gt 0.0607
_symmetry_cell_setting orthorhombic
_symmetry_space_group_name_H-M 'P b c a'
_symmetry_Int_Tables_number 61
loop_
_symmetry_equiv_pos_site_id
_symmetry_equiv_pos_as_xyz
1 x,y,z
2 1/2-x,-y,1/2+z
3 1/2+x,1/2-y,-z
4 -x,1/2+y,1/2-z
5 -x,-y,-z
6 -1/2+x,y,-1/2-z
7 -1/2-x,-1/2+y,z
8 x,-1/2-y,-1/2+z
_cell_length_a 13.994(2)
_cell_length_b 20.878(3)
_cell_length_c 28.618(5)
_cell_angle_alpha 90
_cell_angle_beta 90
_cell_angle_gamma 90
_cell_formula_units_Z 4
loop_
_atom_type_symbol
_atom_type_radius_bond
C 0.68
H 0.23
Ag 1.45
Mo 1.54
N 0.68
O 0.68
loop_
_atom_site_label
_atom_site_type_symbol
_atom_site_fract_x
_atom_site_fract_y
_atom_site_fract_z
Ag1 Ag 0.26675(8) 0.23344(5) 0.46403(3)
C1 C 0.2612(8) 0.1482(5) 0.3793(4)
H1 H 0.26290 0.11800 0.40320
C2 C 0.2555(8) 0.1263(5) 0.3348(4)
H2 H 0.25070 0.08260 0.32920
C3 C 0.2634(9) 0.2528(6) 0.3555(5)
H3 H 0.26430 0.29640 0.36220
C4 C 0.2610(8) 0.2335(5) 0.3103(4)
H4 H 0.26230 0.26460 0.28710
C5 C 0.2566(7) 0.1696(5) 0.2969(4)
C6 C 0.2522(7) 0.1491(4) 0.2489(3)
C7 C 0.2394(7) 0.0883(4) 0.2299(3)
C8 C 0.2399(10) 0.0212(5) 0.2485(4)
C9 C 0.1605(14) -0.0139(7) 0.2502(7)
H5 H 0.10150 0.00240 0.24100
C10 C 0.171(2) -0.0781(10) 0.2669(10)
H6 H 0.11590 -0.10250 0.26990
C11 C 0.324(2) -0.0688(9) 0.2771(7)
H7 H 0.38180 -0.08620 0.28630
C12 C 0.3246(14) -0.0053(6) 0.2633(6)
H8 H 0.38060 0.01870 0.26410
C13 C 0.2449(7) 0.1612(4) 0.1732(4)
C14 C 0.2470(7) 0.1855(4) 0.1260(4)
C15 C 0.2359(8) 0.1465(5) 0.0878(4)
H9 H 0.22360 0.10320 0.09230
C16 C 0.2424(8) 0.1697(5) 0.0434(4)
H10 H 0.23730 0.14150 0.01840
C17 C 0.2614(9) 0.2500(5) 0.1174(4)
H11 H 0.26810 0.27870 0.14200
C18 C 0.2657(10) 0.2707(5) 0.0724(4)
H12 H 0.27590 0.31410 0.06710
N1 N 0.2646(7) 0.2095(4) 0.3913(3)
N2 N 0.253(3) -0.1056(7) 0.2783(7)
N3 N 0.2346(6) 0.0972(4) 0.1831(3)
H13 H 0.22650 0.06740 0.16270
N4 N 0.2567(5) 0.1935(3) 0.2123(3)
N5 N 0.2560(7) 0.2317(4) 0.0350(3)
Ag2 Ag 0.50302(7) 0.22692(4) -0.07861(3)
C19 C 0.5229(8) 0.2413(5) 0.0293(3)
H14 H 0.53580 0.28360 0.02120
C20 C 0.5255(8) 0.2256(5) 0.0745(4)
H15 H 0.54100 0.25640 0.09670
C21 C 0.4821(8) 0.1401(5) 0.0068(3)
H16 H 0.46640 0.11110 -0.01660
C22 C 0.4828(8) 0.1194(5) 0.0523(4)
H17 H 0.46870 0.07690 0.05920
C23 C 0.5047(8) 0.1624(4) 0.0888(3)
C24 C 0.5050(7) 0.1427(4) 0.1374(3)
C25 C 0.4997(8) 0.0837(4) 0.1591(3)
C26 C 0.4977(8) 0.0179(4) 0.1394(3)
C27 C 0.5758(10) -0.0106(6) 0.1218(5)
H18 H 0.63280 0.01210 0.11980
C28 C 0.5718(10) -0.0740(6) 0.1066(5)
H19 H 0.62750 -0.09180 0.09460
C29 C 0.4197(10) -0.0819(5) 0.1256(5)
H20 H 0.36330 -0.10550 0.12700
C30 C 0.4195(10) -0.0191(5) 0.1421(5)
H21 H 0.36410 -0.00260 0.15530
C31 C 0.5053(7) 0.1539(4) 0.2146(3)
C32 C 0.5072(7) 0.1802(4) 0.2613(3)
C33 C 0.5034(7) 0.1420(5) 0.2994(3)
H22 H 0.50070 0.09780 0.29590
C34 C 0.5036(7) 0.1688(5) 0.3438(3)
H23 H 0.50040 0.14120 0.36930
C35 C 0.5121(9) 0.2679(5) 0.3146(4)
H24 H 0.51380 0.31200 0.31920
C36 C 0.5138(9) 0.2465(5) 0.2690(4)
H25 H 0.51920 0.27500 0.24420
N6 N 0.5032(6) 0.2003(4) -0.0050(3)
N7 N 0.4972(7) -0.1093(4) 0.1080(3)
N8 N 0.4998(6) 0.0907(4) 0.2065(3)
H26 H 0.49690 0.06070 0.22700
N9 N 0.5089(5) 0.1871(4) 0.1747(3)
N10 N 0.5082(6) 0.2314(4) 0.3523(3)
Mo1 Mo 0.76128(7) 0.53623(4) -0.00960(4)
Mo2 Mo 0.61375(8) 0.45992(5) 0.08318(4)
Mo3 Mo 0.38149(8) 0.44996(4) 0.10148(3)
Mo4 Mo 0.47074(7) 0.42200(4) -0.01193(3)
O1 O 0.8101(6) 0.6102(4) -0.0029(3)
O2 O 0.8497(6) 0.4857(4) 0.0051(3)
O3 O 0.6677(5) 0.5209(3) 0.0349(3)
O4 O 0.7033(6) 0.4067(4) 0.0871(4)
O5 O 0.6263(7) 0.5121(4) 0.1277(3)
O6 O 0.5765(5) 0.4000(3) 0.0152(3)
O7 O 0.4898(5) 0.5063(3) 0.0474(2)
O8 O 0.5064(5) 0.4125(3) 0.1067(2)
O9 O 0.3954(6) 0.5157(3) 0.1361(3)
O10 O 0.3225(6) 0.3957(3) 0.1350(3)
O11 O 0.2688(5) 0.4883(4) 0.0693(3)
O12 O 0.3778(5) 0.4058(3) 0.0351(2)
O13 O 0.4496(6) 0.3616(3) -0.0501(2)
O14 O 0.5611(14) 0.3189(8) 0.1690(7)
O15? O 0.4855(17) 0.3215(8) 0.1731(7)
Ag1G Ag 0.26675(8) 0.26656(5) -0.03597(3)
N5G N 0.2560(7) 0.2683(4) 0.5350(3)
Ag2G Ag 0.50302(7) 0.27308(4) 0.42139(3)
N10G N 0.5082(6) 0.2686(4) -0.1477(3)
Mo1D Mo 0.23872(7) 0.46377(4) 0.00960(4)
Mo2D Mo 0.38625(8) 0.54008(5) -0.08318(4)
Mo3D Mo 0.61851(8) 0.55004(4) -0.10148(3)
Mo4D Mo 0.52926(7) 0.57800(4) 0.01193(3)
O1D O 0.1899(6) 0.3898(4) 0.0029(3)
O2D O 0.1503(6) 0.5143(4) -0.0051(3)
O3D O 0.3323(5) 0.4791(3) -0.0349(3)
O4D O 0.2967(6) 0.5933(4) -0.0871(4)
O5D O 0.3737(7) 0.4879(4) -0.1277(3)
O6D O 0.4235(5) 0.6000(3) -0.0152(3)
O7D O 0.5102(5) 0.4937(3) -0.0474(2)
O8D O 0.4936(5) 0.5875(3) -0.1067(2)
O9D O 0.6046(6) 0.4843(3) -0.1361(3)
O10D O 0.6775(6) 0.6043(3) -0.1350(3)
O11D O 0.7312(5) 0.5117(4) -0.0693(3)
O12D O 0.6222(5) 0.5942(3) -0.0351(2)
O13D O 0.5504(6) 0.6384(3) 0.0501(2)
#END
