
#######################################################################
#
#                 Cambridge Crystallographic Data Centre
#                                CCDC
#
#######################################################################
#
# If this CIF has been generated from an entry in the Cambridge
# Structural Database, then it will include bibliographic, chemical,
# crystal, experimental, refinement or atomic coordinate data resulting
# from the CCDC's data processing and validation procedures.
#
#######################################################################

data_CSD_CIF_FOFHOY
_audit_creation_date 2005-06-23
_audit_creation_method CSD-ConQuest-V1
_database_code_CSD FOFHOY
_database_code_depnum_ccdc_archive 'CCDC 266753'
_chemical_formula_sum 'C8 H24 Ga2 N4 O22 P4 V2'
_chemical_formula_moiety
;
(C2 Ga2 O22 P4 V2 4-)n,2n(C3 H12 N2 2+)
;
_journal_coden_Cambridge 1096
_journal_volume 17
_journal_year 2005
_journal_page_first 74
_journal_name_full 'Chem.Mater. '
loop_
_publ_author_name
"Wen-Ming Chang"
"Sue-Lein Wang"
_chemical_name_systematic
;
catena-(bis(1,3-diammoniumpropane) 
(bis(\m~4~-phosphato)-bis(\m~3~-phosphato)-(\m~2~-oxalato)-dioxo-di-gallium-di
-vanadium(iv)))
;
_cell_volume   2495.595
_exptl_crystal_colour 'green'
_exptl_crystal_density_diffrn 2.378
_exptl_crystal_description 'lamellar'
_diffrn_ambient_temperature 293
#These two values have been output from a single CSD field.
_refine_ls_R_factor_gt 0.031
_refine_ls_wR_factor_gt 0.031
_symmetry_cell_setting orthorhombic
_symmetry_space_group_name_H-M 'P b c a'
_symmetry_Int_Tables_number 61
loop_
_symmetry_equiv_pos_site_id
_symmetry_equiv_pos_as_xyz
1 x,y,z
2 1/2-x,-y,1/2+z
3 -x,1/2+y,1/2-z
4 1/2+x,1/2-y,-z
5 -x,-y,-z
6 -1/2+x,y,-1/2-z
7 x,-1/2-y,-1/2+z
8 -1/2-x,-1/2+y,z
_cell_length_a 15.8224(7)
_cell_length_b 9.0385(4)
_cell_length_c 17.4504(8)
_cell_angle_alpha 90
_cell_angle_beta 90
_cell_angle_gamma 90
_cell_formula_units_Z 4
loop_
_atom_type_symbol
_atom_type_radius_bond
C 0.68
H 0.23
Ga 1.22
N 0.68
O 0.68
P 1.05
V 1.33
loop_
_atom_site_label
_atom_site_type_symbol
_atom_site_fract_x
_atom_site_fract_y
_atom_site_fract_z
Ga1 Ga 0.130596(19) 0.43061(3) 0.490858(19)
V1 V 0.11630(3) 0.87729(5) 0.60194(3)
P1 P 0.02082(5) 0.55143(8) 0.61986(4)
P2 P 0.27153(4) 0.66020(8) 0.53518(4)
O1 O 0.07571(15) 0.4290(3) 0.58225(14)
O2 O 0.02645(15) 0.5321(3) 0.70551(13)
O3 O -0.07173(13) 0.5201(3) 0.59495(13)
O4 O 0.04675(15) 0.6996(3) 0.58795(15)
O5 O 0.21686(14) 0.5625(2) 0.48325(12)
O6 O 0.33097(14) 0.7417(2) 0.47863(12)
O7 O 0.32328(14) 0.5698(2) 0.59141(13)
O8 O 0.22066(13) 0.7734(2) 0.57951(13)
O9 O 0.09005(14) 0.8988(2) 0.47887(12)
O10 O -0.00620(13) 0.9970(2) 0.40037(12)
O11 O 0.11815(15) 0.8807(3) 0.69676(14)
N1 N 0.3984(2) 0.7264(4) 0.71999(18)
N2 N 0.1178(2) 0.6962(4) 0.8182(2)
C1 C 0.02434(17) 0.9697(3) 0.46539(16)
C2 C 0.3234(3) 0.7593(5) 0.7698(2)
C3 C 0.2670(3) 0.6312(6) 0.7783(3)
C4 C 0.2012(3) 0.6490(7) 0.8422(3)
H1 H 0.37450 0.66700 0.67800
H2 H 0.42220 0.81040 0.71300
H3 H 0.43260 0.65620 0.74850
H4 H 0.11630 0.78590 0.78900
H5 H 0.08580 0.71450 0.86590
H6 H 0.09480 0.62310 0.77930
H7 H 0.35270 0.79290 0.81910
H8 H 0.28490 0.83650 0.74560
H9 H 0.23930 0.60810 0.72880
H10 H 0.30810 0.53590 0.80670
H11 H 0.19600 0.55540 0.86960
H12 H 0.22270 0.71920 0.87980
Ga1D Ga -0.130596(19) 0.56939(3) 0.509142(19)
Ga1G Ga 0.369404(19) 0.93061(3) 0.490858(19)
Ga1G* Ga 0.369404(19) -0.06939(3) 0.490858(19)
V1D V -0.11630(3) 0.12271(5) 0.39806(3)
V1G V 0.38370(3) 0.37729(5) 0.60194(3)
V1D* V -0.11630(3) 1.12271(5) 0.39806(3)
V1* V 0.11630(3) -0.12271(5) 0.60194(3)
P1D P -0.02082(5) 0.44857(8) 0.38014(4)
P2G P 0.22847(4) 0.16020(8) 0.53518(4)
O1D O -0.07571(15) 0.5710(3) 0.41775(14)
O2D O -0.02645(15) 0.4679(3) 0.29449(13)
O3D O 0.07173(13) 0.4799(3) 0.40505(13)
O4D O -0.04675(15) 0.3004(3) 0.41205(15)
O5G O 0.28314(14) 0.0625(2) 0.48325(12)
O5D O -0.21686(14) 0.4375(2) 0.51675(12)
O6G O 0.16903(14) 0.2417(2) 0.47863(12)
O6C O -0.16903(14) 0.7583(2) 0.52137(12)
O7G O 0.17672(14) 0.0698(2) 0.59141(13)
O7G* O 0.17672(14) 1.0698(2) 0.59141(13)
O7C O -0.17672(14) -0.0698(2) 0.40859(13)
O8G O 0.27934(13) 0.2734(2) 0.57951(13)
O8D O -0.22066(13) 0.2266(2) 0.42049(13)
O9D O -0.09005(14) 1.1012(2) 0.52113(12)
O9D* O -0.09005(14) 0.1012(2) 0.52113(12)
O10D O 0.00620(13) 1.0030(2) 0.59963(12)
O10* O -0.00620(13) -0.0030(2) 0.40037(12)
O11D O -0.11815(15) 0.1193(3) 0.30324(14)
C1D C -0.02434(17) 1.0303(3) 0.53461(16)
#END
