
#######################################################################
#
#                 Cambridge Crystallographic Data Centre
#                                CCDC
#
#######################################################################
#
# If this CIF has been generated from an entry in the Cambridge
# Structural Database, then it will include bibliographic, chemical,
# crystal, experimental, refinement or atomic coordinate data resulting
# from the CCDC's data processing and validation procedures.
#
#######################################################################

data_CSD_CIF_FOFPUN
_audit_creation_date 2014-06-06
_audit_creation_method CSD-ConQuest-V1
_database_code_CSD FOFPUN
_database_code_depnum_ccdc_archive 'CCDC 983363'
_chemical_formula_sum 'C22 H24 Fe1 K1 N4 O14'
_chemical_formula_moiety
;
(C16 H20 N4 2+)n,n(C6 H4 Fe1 K1 O14 2-)
;
_journal_coden_Cambridge 1350
_journal_volume 16
_journal_year 2014
_journal_page_first 5437
_journal_name_full 'CrystEngComm '
loop_
_publ_author_name
"Lei Wang"
"Wenqiang Wang"
"Dong Guo"
"Ao Zhang"
"Yaoguang Song"
"Yiheng Zhang"
"Keke Huang"
_chemical_name_systematic
;
catena-[(3,3'-(1,4-Phenylenebis(methylene))bis(2-methyl-1H-imidazol-3-ium)) 
tris(\m~2~-oxalato)-diaqua-iron-potassium]
;
_cell_volume   2755.717
_exptl_crystal_colour 'emerald'
_exptl_crystal_density_diffrn 1.599
_exptl_crystal_description 'block'
_diffrn_ambient_temperature 293
#These two values have been output from a single CSD field.
_refine_ls_R_factor_gt 0.0315
_refine_ls_wR_factor_gt 0.0315
_symmetry_cell_setting monoclinic
_symmetry_space_group_name_H-M 'C 2/c'
_symmetry_Int_Tables_number 15
loop_
_symmetry_equiv_pos_site_id
_symmetry_equiv_pos_as_xyz
1 x,y,z
2 -x,y,1/2-z
3 1/2+x,1/2+y,z
4 1/2-x,1/2+y,1/2-z
5 -x,-y,-z
6 x,-y,-1/2+z
7 -1/2-x,-1/2-y,-z
8 -1/2+x,-1/2-y,-1/2+z
_cell_length_a 14.7637(12)
_cell_length_b 20.5458(15)
_cell_length_c 9.5211(8)
_cell_angle_alpha 90
_cell_angle_beta 107.412(9)
_cell_angle_gamma 90
_cell_formula_units_Z 4
loop_
_atom_type_symbol
_atom_type_radius_bond
C 0.68
H 0.23
Fe 1.52
K 2.03
N 0.68
O 0.68
loop_
_atom_site_label
_atom_site_type_symbol
_atom_site_fract_x
_atom_site_fract_y
_atom_site_fract_z
Fe1 Fe 0.00000 0.172311(16) -0.75000
K1 K 0.00000 0.12581(3) -0.25000
O1 O -0.10406(10) 0.23951(7) -0.79960(14)
O2 O -0.18479(13) 0.30368(9) -0.69047(18)
O3 O -0.10988(10) 0.23290(7) -0.43558(15)
O4 O -0.02407(9) 0.17936(6) -0.55264(13)
O5 O -0.08634(8) 0.09890(6) -0.83873(13)
O6 O -0.08787(10) -0.00865(7) -0.85840(18)
O7 O 0.17330(13) 0.10971(9) -0.33650(19)
C1 C -0.05030(11) 0.04201(8) -0.80744(18)
C2 C -0.13013(13) 0.25931(9) -0.6906(2)
C3 C -0.08554(12) 0.22150(8) -0.54553(19)
H1 H 0.213(2) 0.1376(14) -0.314(3)
H2 H 0.147(2) 0.1109(14) -0.427(4)
N1 N -0.29553(10) 0.15488(8) -0.60636(16)
H3 H -0.30790 0.18760 -0.55880
N2 N -0.29149(10) 0.09193(7) -0.78345(16)
C4 C -0.38075(19) 0.19694(12) -0.8582(3)
H4 H -0.44600 0.18340 -0.89090
H5 H -0.35680 0.20000 -0.94120
H6 H -0.37620 0.23870 -0.81120
C5 C -0.32419(12) 0.14869(9) -0.7522(2)
C6 C -0.24354(12) 0.10161(9) -0.5432(2)
H7 H -0.21570 0.09430 -0.44320
C7 C -0.24062(12) 0.06212(9) -0.6536(2)
H8 H -0.21000 0.02210 -0.64470
C8 C -0.31518(13) 0.06204(11) -0.9309(2)
H9 H -0.26700 0.03030 -0.93310
H10 H -0.31590 0.09530 -1.00360
C9 C -0.41109(13) 0.02919(10) -0.9688(2)
C10 C -0.42136(14) -0.02949(11) -0.9058(2)
H11 H -0.36860 -0.04970 -0.84210
C11 C -0.49034(15) 0.05861(11) -1.0633(2)
H12 H -0.48420 0.09830 -1.10650
O5A O 0.08634(8) 0.09890(6) -0.66127(13)
O6A O 0.08787(10) -0.00865(7) -0.64160(18)
C1A C 0.05030(11) 0.04201(8) -0.69256(18)
O1A O 0.10406(10) 0.23951(7) -0.70040(14)
O2A O 0.18479(13) 0.30368(9) -0.80953(18)
O3A O 0.10988(10) 0.23290(7) -1.06442(15)
O4A O 0.02407(9) 0.17936(6) -0.94736(13)
C2A C 0.13013(13) 0.25931(9) -0.8094(2)
C3A C 0.08554(12) 0.22150(8) -0.95447(19)
O7A O -0.17330(13) 0.10971(9) -0.16350(19)
H1A H -0.213(2) 0.1376(14) -0.186(3)
H2A H -0.147(2) 0.1109(14) -0.073(4)
K1* K 0.00000 0.12581(3) -1.25000
K1D K 0.00000 -0.12581(3) -0.75000
O3A* O 0.10988(10) 0.23290(7) -0.06442(15)
O4A* O 0.02407(9) 0.17936(6) 0.05264(13)
O6D O 0.08787(10) 0.00865(7) -0.14160(18)
O6E O -0.08787(10) 0.00865(7) -0.35840(18)
N1D N -0.70447(10) -0.15488(8) -1.39364(16)
H3D H -0.69210 -0.18760 -1.44120
N2D N -0.70851(10) -0.09193(7) -1.21655(16)
C4D C -0.61925(19) -0.19694(12) -1.1418(3)
H4D H -0.55400 -0.18340 -1.10910
H5D H -0.64320 -0.20000 -1.05880
H6D H -0.62380 -0.23870 -1.18880
C5D C -0.67581(12) -0.14869(9) -1.2478(2)
C6D C -0.75646(12) -0.10161(9) -1.4568(2)
H7D H -0.78430 -0.09430 -1.55680
C7D C -0.75938(12) -0.06212(9) -1.3464(2)
H8D H -0.79000 -0.02210 -1.35530
C8D C -0.68482(13) -0.06204(11) -1.0691(2)
H9D H -0.73300 -0.03030 -1.06690
H10D H -0.68410 -0.09530 -0.99640
C9D C -0.58891(13) -0.02919(10) -1.0312(2)
C10D C -0.57864(14) 0.02949(11) -1.0942(2)
H11D H -0.63140 0.04970 -1.15790
C11D C -0.50966(15) -0.05861(11) -0.9367(2)
H12D H -0.51580 -0.09830 -0.89350
#END
