
#######################################################################
#
#                 Cambridge Crystallographic Data Centre
#                                CCDC
#
#######################################################################
#
# If this CIF has been generated from an entry in the Cambridge
# Structural Database, then it will include bibliographic, chemical,
# crystal, experimental, refinement or atomic coordinate data resulting
# from the CCDC's data processing and validation procedures.
#
#######################################################################

data_CSD_CIF_FOFPEX
_audit_creation_date 2014-06-06
_audit_creation_method CSD-ConQuest-V1
_database_code_CSD FOFPEX
_database_code_depnum_ccdc_archive 'CCDC 983360'
_chemical_formula_sum 'C22 H22 Fe1 K1 N4 O14'
_chemical_formula_moiety
;
(C6 Fe1 K1 O12 2-)n,2n(C8 H9 N2 1+),2n(H2 O1)
;
_journal_coden_Cambridge 1350
_journal_volume 16
_journal_year 2014
_journal_page_first 5437
_journal_name_full 'CrystEngComm '
loop_
_publ_author_name
"Lei Wang"
"Wenqiang Wang"
"Dong Guo"
"Ao Zhang"
"Yaoguang Song"
"Yiheng Zhang"
"Keke Huang"
_chemical_name_systematic
;
catena-[bis(2-methyl-1H-3,1-benzimidazol-3-ium) 
(\m~3~-oxalato)-bis(\m~2~-oxalato)-potassium-iron dihydrate]
;
_cell_volume   5447.056
_exptl_crystal_colour 'emerald'
_exptl_crystal_density_diffrn 1.613
_exptl_crystal_description 'block'
_diffrn_ambient_temperature 293
#These two values have been output from a single CSD field.
_refine_ls_R_factor_gt 0.0449
_refine_ls_wR_factor_gt 0.0449
_symmetry_cell_setting orthorhombic
_symmetry_space_group_name_H-M 'C c c a'
_symmetry_Int_Tables_number 68
loop_
_symmetry_equiv_pos_site_id
_symmetry_equiv_pos_as_xyz
1 x,y,z
2 1/2-x,-y,z
3 -x,y,1/2-z
4 1/2+x,-y,1/2-z
5 1/2+x,1/2+y,z
6 -x,1/2-y,z
7 1/2-x,1/2+y,1/2-z
8 x,1/2-y,1/2-z
9 -x,-y,-z
10 -1/2+x,y,-z
11 x,-y,-1/2+z
12 -1/2-x,y,-1/2+z
13 -1/2-x,-1/2-y,-z
14 x,-1/2+y,-z
15 -1/2+x,-1/2-y,-1/2+z
16 -x,-1/2+y,-1/2+z
_cell_length_a 13.4174(6)
_cell_length_b 18.1772(7)
_cell_length_c 22.3340(8)
_cell_angle_alpha 90
_cell_angle_beta 90
_cell_angle_gamma 90
_cell_formula_units_Z 8
loop_
_atom_type_symbol
_atom_type_radius_bond
C 0.68
H 0.23
Fe 1.52
K 2.03
N 0.68
O 0.68
loop_
_atom_site_label
_atom_site_type_symbol
_atom_site_fract_x
_atom_site_fract_y
_atom_site_fract_z
Fe1 Fe 0.00000 0.05295(3) 0.25000
K1 K 0.13789(6) -0.25000 0.25000
O1 O -0.01655(14) -0.15407(10) 0.31048(7)
O2 O -0.06604(14) 0.12388(10) 0.30609(7)
O3 O -0.13191(13) 0.06309(10) 0.20989(7)
O4 O -0.02598(14) -0.03149(9) 0.30616(7)
O5 O -0.27603(15) 0.12325(12) 0.21419(9)
C1 C -0.01234(19) -0.09504(14) 0.28397(10)
O6 O -0.20653(16) 0.18681(11) 0.32028(8)
C2 C -0.1943(2) 0.10824(14) 0.23398(11)
C3 C -0.1543(2) 0.14393(15) 0.29233(11)
C4 C 0.12403(19) -0.02765(15) 0.44646(11)
N1 N 0.12966(17) 0.03375(13) 0.40974(9)
H1 H 0.13100 0.03280 0.37120
N2 N 0.13090(17) 0.07455(13) 0.50044(10)
H2 H 0.13290 0.10450 0.53020
C5 C 0.1206(2) -0.04827(17) 0.55342(12)
H3 H 0.12100 -0.03060 0.59250
C6 C 0.12536(18) -0.00098(16) 0.50475(11)
C7 C 0.1152(2) -0.12200(18) 0.54139(13)
H4 H 0.11250 -0.15530 0.57300
C8 C 0.1326(2) 0.09377(16) 0.44290(12)
C9 C 0.1179(2) -0.10164(16) 0.43389(12)
H5 H 0.11690 -0.11920 0.39480
C10 C 0.1363(3) 0.16960(18) 0.42010(15)
H6 H 0.19130 0.17460 0.39290
H7 H 0.14470 0.20310 0.45300
H8 H 0.07520 0.18060 0.39950
C11 C 0.1135(2) -0.14835(17) 0.48248(13)
H9 H 0.10940 -0.19880 0.47590
O7 O 0.6406(2) 0.17266(13) 0.40838(9)
H10 H 0.596(2) 0.1673(19) 0.3836(14)
H11 H 0.701(2) 0.1690(17) 0.3818(14)
O1B O 0.01655(14) -0.15407(10) 0.18952(7)
O4B O 0.02598(14) -0.03149(9) 0.19384(7)
C1B C 0.01234(19) -0.09504(14) 0.21603(10)
O2B O 0.06604(14) 0.12388(10) 0.19391(7)
O3B O 0.13191(13) 0.06309(10) 0.29011(7)
O5B O 0.27603(15) 0.12325(12) 0.28581(9)
O6B O 0.20653(16) 0.18681(11) 0.17972(8)
C2B C 0.1943(2) 0.10824(14) 0.26602(11)
C3B C 0.1543(2) 0.14393(15) 0.20767(11)
K1A K 0.36211(6) 0.25000 0.25000
K1B K -0.13789(6) -0.25000 0.25000
K1C K -0.36211(6) 0.25000 0.25000
O1E O 0.01655(14) -0.34593(10) 0.31048(7)
O1G O -0.01655(14) -0.34593(10) 0.18952(7)
O5C O 0.22397(15) -0.12325(12) 0.28581(9)
O5D O 0.22397(15) -0.37675(12) 0.21419(9)
O6C O 0.29347(16) -0.18681(11) 0.17972(8)
O6D O 0.29347(16) -0.31319(11) 0.32028(8)
#END
