
#######################################################################
#
#                 Cambridge Crystallographic Data Centre
#                                CCDC
#
#######################################################################
#
# If this CIF has been generated from an entry in the Cambridge
# Structural Database, then it will include bibliographic, chemical,
# crystal, experimental, refinement or atomic coordinate data resulting
# from the CCDC's data processing and validation procedures.
#
#######################################################################

data_CSD_CIF_FOFQAU
_audit_creation_date 2014-06-06
_audit_creation_method CSD-ConQuest-V1
_database_code_CSD FOFQAU
_database_code_depnum_ccdc_archive 'CCDC 983364'
_chemical_formula_sum 'C32 H36 Fe2 K2 N8 O26'
_chemical_formula_moiety
;
(C10 H16 N4 2+)2n,n(C12 H4 Fe2 K2 O26 4-)
;
_journal_coden_Cambridge 1350
_journal_volume 16
_journal_year 2014
_journal_page_first 5437
_journal_name_full 'CrystEngComm '
loop_
_publ_author_name
"Lei Wang"
"Wenqiang Wang"
"Dong Guo"
"Ao Zhang"
"Yaoguang Song"
"Yiheng Zhang"
"Keke Huang"
_chemical_name_systematic
;
catena-[bis(1,1'-Butane-1,4-diylbis(1H-imidazol-3-ium)) 
bis(\m~3~-oxalato)-tetrakis(\m~2~-oxalato)-diaqua-di-iron-di-potassium]
;
_cell_volume   4415.826
_exptl_crystal_colour 'emerald'
_exptl_crystal_density_diffrn 1.713
_exptl_crystal_description 'block'
_diffrn_ambient_temperature 293
#These two values have been output from a single CSD field.
_refine_ls_R_factor_gt 0.0339
_refine_ls_wR_factor_gt 0.0339
_symmetry_cell_setting monoclinic
_symmetry_space_group_name_H-M 'C 2/c'
_symmetry_Int_Tables_number 15
loop_
_symmetry_equiv_pos_site_id
_symmetry_equiv_pos_as_xyz
1 x,y,z
2 -x,y,1/2-z
3 1/2+x,1/2+y,z
4 1/2-x,1/2+y,1/2-z
5 -x,-y,-z
6 x,-y,-1/2+z
7 -1/2-x,-1/2-y,-z
8 -1/2+x,-1/2-y,-1/2+z
_cell_length_a 14.7204(5)
_cell_length_b 16.3987(6)
_cell_length_c 18.7939(7)
_cell_angle_alpha 90
_cell_angle_beta 103.259(1)
_cell_angle_gamma 90
_cell_formula_units_Z 4
loop_
_atom_type_symbol
_atom_type_radius_bond
C 0.68
H 0.23
Fe 1.52
K 2.03
N 0.68
O 0.68
loop_
_atom_site_label
_atom_site_type_symbol
_atom_site_fract_x
_atom_site_fract_y
_atom_site_fract_z
Fe1 Fe 0.00000 0.030124(19) 0.25000
Fe2 Fe -0.50000 0.189073(19) 0.25000
K1 K -0.12594(3) 0.36827(2) 0.27991(2)
O1 O 0.02267(9) 0.12316(7) 0.32077(6)
O2 O -0.44950(8) 0.09470(7) 0.31641(6)
O3 O -0.45123(9) -0.04124(7) 0.32235(7)
O4 O -0.13552(8) 0.01104(8) 0.25022(6)
O5 O -0.41694(9) 0.26639(7) 0.31649(7)
O6 O 0.01572(8) -0.04502(8) 0.33680(7)
O7 O -0.39090(9) 0.19259(7) 0.20064(7)
C1 C -0.47124(10) 0.02362(9) 0.29043(8)
C2 C -0.05922(11) -0.06578(11) 0.35376(9)
C3 C -0.33704(13) 0.28076(10) 0.30266(9)
O8 O -0.06576(9) -0.10604(10) 0.40802(8)
O9 O -0.22485(8) -0.0575(1) 0.31144(7)
O10 O 0.01745(12) 0.25870(9) 0.32561(9)
C4 C 0.01169(12) 0.19443(10) 0.29243(10)
C5 C -0.14945(11) -0.03611(11) 0.30116(9)
O11 O -0.27642(11) 0.32535(10) 0.33707(8)
O12 O -0.24535(11) 0.23976(10) 0.21764(9)
C6 C -0.32059(13) 0.23476(10) 0.2343(1)
O13 O -0.16556(11) 0.52393(9) 0.33471(9)
H1 H -0.22490 0.53570 0.32000
H2 H -0.13330 0.56200 0.31910
N1 N 0.33973(10) 0.16873(9) 0.49741(8)
N2 N 0.74730(9) 0.09065(9) 0.47878(8)
C7 C 0.32022(13) 0.14722(12) 0.56022(10)
H3 H 0.36140 0.14840 0.60580
N3 N 0.89421(11) 0.11457(11) 0.50186(9)
H4 H 0.95130 0.12090 0.52520
C8 C 0.59522(12) 0.14681(11) 0.48941(10)
H5 H 0.59260 0.17780 0.44500
H6 H 0.62300 0.18100 0.53080
C9 C 0.43229(12) 0.19460(11) 0.48935(11)
H7 H 0.45850 0.23340 0.52750
H8 H 0.42650 0.22150 0.44250
N4 N 0.23198(11) 0.12376(10) 0.54683(9)
H9 H 0.20320 0.10710 0.57910
C10 C 0.49697(12) 0.12177(11) 0.49411(11)
H10 H 0.47170 0.08420 0.45460
H11 H 0.50000 0.09350 0.53990
C11 C 0.65396(12) 0.07107(12) 0.48929(10)
H12 H 0.65990 0.04250 0.53530
H13 H 0.62270 0.03500 0.45040
C12 C 0.82427(12) 0.09506(13) 0.53149(10)
H14 H 0.82820 0.08590 0.58090
C13 C 0.19387(14) 0.13016(12) 0.47365(12)
H15 H 0.13290 0.11740 0.44990
C14 C 0.26093(13) 0.15833(12) 0.44241(10)
H16 H 0.25520 0.16880 0.39300
C15 C 0.86153(15) 0.12318(15) 0.42796(12)
H17 H 0.89640 0.13700 0.39430
C16 C 0.76954(14) 0.10788(14) 0.41341(11)
H18 H 0.72860 0.10880 0.36770
O1A O -0.02267(9) 0.12316(7) 0.17923(6)
O10A O -0.01745(12) 0.25870(9) 0.17439(9)
C4A C -0.01169(12) 0.19443(10) 0.20757(10)
O2A O -0.55050(8) 0.09470(7) 0.18359(6)
O3A O -0.54877(9) -0.04124(7) 0.17765(7)
C1A C -0.52876(10) 0.02362(9) 0.20957(8)
K1A K -0.87406(3) 0.36827(2) 0.22009(2)
O5A O -0.58306(9) 0.26639(7) 0.18351(7)
O7A O -0.60910(9) 0.19259(7) 0.29936(7)
C3A C -0.66296(13) 0.28076(10) 0.19734(9)
O11A O -0.72358(11) 0.32535(10) 0.16293(8)
O12A O -0.75465(11) 0.23976(10) 0.28236(9)
C6A C -0.67941(13) 0.23476(10) 0.2657(1)
O13A O -0.83444(11) 0.52393(9) 0.16529(9)
H1A H -0.77510 0.53570 0.18000
H2A H -0.86670 0.56200 0.18090
O4A O 0.13552(8) 0.01104(8) 0.24978(6)
O6A O -0.01572(8) -0.04502(8) 0.16320(7)
C2A C 0.05922(11) -0.06578(11) 0.14624(9)
O8A O 0.06576(9) -0.10604(10) 0.09198(8)
O9A O 0.22485(8) -0.0575(1) 0.18856(7)
C5A C 0.14945(11) -0.03611(11) 0.19884(9)
K1A* K 0.12594(3) 0.36827(2) 0.22009(2)
K1B K -0.62594(3) -0.13173(2) 0.27991(2)
K1B* K 0.37406(3) -0.13173(2) 0.27991(2)
K1C K -0.37406(3) -0.13173(2) 0.22009(2)
O3B O -0.95123(9) 0.45876(7) 0.32235(7)
O3B* O 0.04877(9) 0.45876(7) 0.32235(7)
O3C O -1.04877(9) 0.45876(7) 0.17765(7)
O3C* O -0.04877(9) 0.45876(7) 0.17765(7)
O9B O -0.72485(8) 0.4425(1) 0.31144(7)
O9C O -0.27515(8) 0.4425(1) 0.18856(7)
O10* O -0.98255(12) 0.25870(9) 0.32561(9)
O10A* O -1.01745(12) 0.25870(9) 0.17439(9)
#END
