
#######################################################################
#
#                 Cambridge Crystallographic Data Centre
#                                CCDC
#
#######################################################################
#
# If this CIF has been generated from an entry in the Cambridge
# Structural Database, then it will include bibliographic, chemical,
# crystal, experimental, refinement or atomic coordinate data resulting
# from the CCDC's data processing and validation procedures.
#
#######################################################################

data_CSD_CIF_FOGKEU
_audit_creation_date 2019-05-27
_audit_creation_method CSD-ConQuest-V1
_database_code_CSD FOGKEU
_database_code_depnum_ccdc_archive 'CCDC 1900777'
_chemical_formula_sum 'C20 H79 Cl1 Cu2 K2 Mo8 N2 O57'
_chemical_formula_moiety
;
H1 Mo8 O26 3-,n(C8 H12 Cl1 Cu2 O8 1-),2(C6 H16 N1 O3 1+),2(K1 1+),17(H2 O1)
;
_journal_coden_Cambridge 1295
_journal_volume 104
_journal_year 2019
_journal_page_first 160
_journal_name_full 'Inorg.Chem.Commun. '
loop_
_publ_author_name
"Qiao Gao"
"Lin Xu"
"Donghua Hu"
"Dehui Li"
"Jing Yang"
_chemical_name_systematic
;
catena-[bis(2-hydroxy-N,N-bis(2-hydroxyethyl)ethan-1-aminium) di-potassium 
tetrakis(\m-acetato)-(\m-chloro)-di-copper(ii) 
undecakis(\m-oxo)-(\m-hydroxo)-tetradecaoxo-octa-molybdenum heptadecahydrate]
;
_cell_volume   6535.334
_exptl_crystal_colour 'blue'
_exptl_crystal_description 'plate'
_diffrn_ambient_temperature 293
_refine_special_details
;
Disordered water solvent molecules were not modelled and the disordered 
density was taken into account using the SQUEEZE/PLATON procedure.
;
#These two values have been output from a single CSD field.
_refine_ls_R_factor_gt 0.0628
_refine_ls_wR_factor_gt 0.0628
_symmetry_cell_setting orthorhombic
_symmetry_space_group_name_H-M 'I m m a'
_symmetry_Int_Tables_number 74
loop_
_symmetry_equiv_pos_site_id
_symmetry_equiv_pos_as_xyz
1 x,y,z
2 -x,1/2-y,z
3 x,-y,-z
4 -x,1/2+y,-z
5 1/2+x,1/2+y,1/2+z
6 1/2-x,-y,1/2+z
7 1/2+x,1/2-y,1/2-z
8 1/2-x,y,1/2-z
9 -x,-y,-z
10 x,-1/2+y,-z
11 -x,y,z
12 x,-1/2-y,z
13 -1/2-x,-1/2-y,-1/2-z
14 -1/2+x,y,-1/2-z
15 -1/2-x,-1/2+y,-1/2+z
16 -1/2+x,-y,-1/2+z
_cell_length_a 14.617(5)
_cell_length_b 20.662(5)
_cell_length_c 21.639(5)
_cell_angle_alpha 90
_cell_angle_beta 90
_cell_angle_gamma 90
_cell_formula_units_Z 4
loop_
_atom_type_symbol
_atom_type_radius_bond
C 0.68
Cl 0.99
Cu 1.32
K 2.03
Mo 1.54
N 0.68
O 0.68
loop_
_atom_site_label
_atom_site_type_symbol
_atom_site_fract_x
_atom_site_fract_y
_atom_site_fract_z
O1 O 0.1259(5) 0.9559(3) 0.3660(3)
O2 O 0.2679(5) 1.0056(4) 0.4322(4)
O3 O 0.00000 1.1484(4) 0.4589(4)
O4 O 0.1490(4) 1.0888(3) 0.3802(3)
O5 O 0.00000 1.0199(5) 0.2956(4)
O6 O 0.00000 1.0106(4) 0.4358(4)
O7 O 0.1266(4) 0.9381(3) 0.4953(3)
O8 O 0.00000 0.8811(4) 0.4203(4)
Mo1 Mo 0.15457(5) 1.02070(4) 0.42468(4)
Mo2 Mo 0.00000 0.95184(7) 0.34005(6)
Mo3 Mo 0.00000 1.08672(7) 0.50669(7)
O9 O 0.00000 0.8898(6) 0.2886(5)
O10 O -0.2834(5) 1.25000 0.3510(4)
O11 O -0.1354(5) 1.25000 0.3227(3)
O12 O -0.1759(4) 1.1550(3) 0.2376(3)
Cu1 Cu -0.16493(8) 1.25000 0.23349(6)
C1 C -0.1996(8) 1.25000 0.3625(5)
C2 C -0.25000 1.0543(6) 0.25000
C3 C -0.25000 1.1265(6) 0.25000
C4 C -0.1692(9) 1.25000 0.4288(5)
Cl1 Cl 0.00000 1.25000 0.2038(2)
K1 K 0.00000 1.14883(15) 0.32257(14)
O13 O 0.3799(9) 0.9109(9) 0.4850(7)
N1 N 0.50000 0.8967(11) 0.5801(10)
C5 C 0.3577(13) 0.8591(11) 0.5257(17)
O14 O 0.50000 1.0214(15) 0.5920(19)
C6 C 0.50000 0.990(2) 0.6530(16)
C7 C 0.3943(18) 0.8712(15) 0.5887(15)
C8 C 0.50000 0.918(2) 0.644(2)
C9? C 0.443(3) 0.829(2) 0.560(2)
O1B O 0.1259(5) 1.0441(3) 0.6340(3)
O2B O 0.2679(5) 0.9944(4) 0.5678(4)
O3B O 0.00000 0.8516(4) 0.5411(4)
O4B O 0.1490(4) 0.9112(3) 0.6198(3)
O5B O 0.00000 0.9801(5) 0.7044(4)
O6B O 0.00000 0.9894(4) 0.5642(4)
O7B O 0.1266(4) 1.0619(3) 0.5047(3)
O8B O 0.00000 1.1189(4) 0.5797(4)
Mo1B Mo 0.15457(5) 0.97930(4) 0.57532(4)
Mo2B Mo 0.00000 1.04816(7) 0.65995(6)
Mo3B Mo 0.00000 0.91328(7) 0.49331(7)
O9B O 0.00000 1.1102(6) 0.7114(5)
O1H O -0.1259(5) 1.0441(3) 0.6340(3)
O2H O -0.2679(5) 0.9944(4) 0.5678(4)
O4H O -0.1490(4) 0.9112(3) 0.6198(3)
O7H O -0.1266(4) 1.0619(3) 0.5047(3)
Mo1H Mo -0.15457(5) 0.97930(4) 0.57532(4)
O1J O -0.1259(5) 0.9559(3) 0.3660(3)
O2J O -0.2679(5) 1.0056(4) 0.4322(4)
O4J O -0.1490(4) 1.0888(3) 0.3802(3)
O7J O -0.1266(4) 0.9381(3) 0.4953(3)
Mo1J Mo -0.15457(5) 1.02070(4) 0.42468(4)
O12G O -0.3241(4) 1.1550(3) 0.2624(3)
O10A O 0.2834(5) 1.25000 0.3510(4)
O11A O 0.1354(5) 1.25000 0.3227(3)
Cu1A Cu 0.16493(8) 1.25000 0.23349(6)
C1A C 0.1996(8) 1.25000 0.3625(5)
C4A C 0.1692(9) 1.25000 0.4288(5)
O12K O -0.1759(4) 1.3450(3) 0.2376(3)
C2K C -0.25000 1.4457(6) 0.25000
C3K C -0.25000 1.3735(6) 0.25000
O12L O -0.3241(4) 1.3450(3) 0.2624(3)
O10F O 0.2166(5) 1.25000 0.1490(4)
O10G O -0.2166(5) 1.25000 0.1490(4)
O12A O 0.1759(4) 1.3450(3) 0.2376(3)
O12J O 0.1759(4) 1.1550(3) 0.2376(3)
Cu1F Cu 0.33507(8) 1.25000 0.26651(6)
Cu1G Cu -0.33507(8) 1.25000 0.26651(6)
O13J O 0.6201(9) 0.9109(9) 0.4850(7)
C5J C 0.6423(13) 0.8591(11) 0.5257(17)
C7J C 0.6057(18) 0.8712(15) 0.5887(15)
#END
