
#######################################################################
#
#                 Cambridge Crystallographic Data Centre
#                                CCDC
#
#######################################################################
#
# If this CIF has been generated from an entry in the Cambridge
# Structural Database, then it will include bibliographic, chemical,
# crystal, experimental, refinement or atomic coordinate data resulting
# from the CCDC's data processing and validation procedures.
#
#######################################################################

data_CSD_CIF_FOHVEG
_audit_creation_date 2019-05-29
_audit_creation_method CSD-ConQuest-V1
_database_code_CSD FOHVEG
_database_code_depnum_ccdc_archive 'CCDC 1919366'
_chemical_formula_sum 'C48 H33 Ag2 Mo12 N16 O40 P1 S4'
_chemical_formula_moiety
;
(C24 H16 Ag1 N8 S2 1+)2n,H1 Mo12 O40 P1 2-
;
_journal_coden_Cambridge 1078
_journal_year 2019
_journal_name_full 'CSD Communication(Private Communication) '
loop_
_publ_author_name
"Meng-Ting Li"
_chemical_name_systematic
;
catena-[bis((\m-4,4'-(1,3,4-thiadiazole-2,5-diyl)dipyridine)-(4,4'-(1,3,4-thia
diazole-2,5-diyl)dipyridine)-silver(i)) 
(\m-phosphato)-(\m-hydroxo)-tricosakis(\m-oxo)-dodeca-oxo-dodeca-molybdenum]
;
_cell_volume   1927.840
_exptl_crystal_colour 'dark blue'
_exptl_crystal_density_diffrn 2.583
_exptl_special_details
;
The structure does not charge-balance as modelled. It has been assumed the 
disordered Keggin anion has an additional unmodelled proton (placed 
arbitrarily in the CSD 2D representation) to achieve a charge-balanced 
structure
;
_exptl_crystal_description 'block'
_diffrn_ambient_temperature 293
_refine_special_details
;
O1,O14,O2,O3 disordered by symmetry over two configurations with occupancy 
0.50.
;
#These two values have been output from a single CSD field.
_refine_ls_R_factor_gt 0.0444
_refine_ls_wR_factor_gt 0.0444
_symmetry_cell_setting triclinic
_symmetry_space_group_name_H-M 'P -1'
_symmetry_Int_Tables_number 2
loop_
_symmetry_equiv_pos_site_id
_symmetry_equiv_pos_as_xyz
1 x,y,z
2 -x,-y,-z
_cell_length_a 11.479(5)
_cell_length_b 12.532(5)
_cell_length_c 15.023(5)
_cell_angle_alpha 74.630(5)
_cell_angle_beta 68.274(5)
_cell_angle_gamma 79.670(5)
_cell_formula_units_Z 1
loop_
_atom_type_symbol
_atom_type_radius_bond
C 0.68
H 0.23
Ag 1.45
Mo 1.54
N 0.68
O 0.68
P 1.05
S 1.02
loop_
_atom_site_label
_atom_site_type_symbol
_atom_site_fract_x
_atom_site_fract_y
_atom_site_fract_z
C1 C 0.8523(8) 0.4675(7) -0.4978(6)
H1 H 0.78810 0.52110 -0.47570
C2 C 0.9314(8) 0.4913(7) -0.5935(6)
H2 H 0.92280 0.56030 -0.63420
C3 C 1.0257(7) 0.4091(6) -0.6284(6)
C4 C 0.9537(8) 0.2948(7) -0.4688(6)
H3 H 0.96210 0.22750 -0.42600
C5 C 1.1125(7) 0.4305(7) -0.7302(6)
N1 N 1.1384(8) 0.5299(6) -0.7839(5)
N2 N 1.2222(7) 0.5277(6) -0.8766(5)
C6 C 1.2553(8) 0.4269(8) -0.8911(6)
C7 C 0.8125(11) 0.1548(8) -0.0904(8)
H4 H 0.78790 0.21570 -0.06100
C8 C 0.8315(11) 0.0522(8) -0.0341(8)
H5 H 0.81690 0.04370 0.03240
C9 C 0.8731(8) -0.0394(7) -0.0777(7)
C10 C 0.8985(8) -0.0205(7) -0.1767(7)
H6 H 0.93410 -0.07760 -0.21010
C11 C 1.0355(7) 0.3102(7) -0.5639(6)
H7 H 1.09710 0.25410 -0.58440
C12 C 0.8703(8) 0.0852(8) -0.2263(7)
H8 H 0.88240 0.09560 -0.29260
C13 C 0.8809(9) -0.1539(7) -0.0214(6)
N3 N 0.9387(8) -0.2376(7) -0.0603(6)
N4 N 0.9248(7) -0.3378(6) 0.0043(5)
C14 C 0.8535(8) -0.3275(7) 0.0938(6)
C15 C 0.8173(7) -0.4282(6) 0.1724(6)
C16 C 0.7165(8) -0.4233(7) 0.2582(6)
H9 H 0.67290 -0.35520 0.26910
C17 C 0.6809(9) -0.5197(8) 0.3276(8)
H10 H 0.61240 -0.51700 0.38490
C18 C 0.8449(8) -0.6233(7) 0.2301(7)
H11 H 0.88850 -0.69190 0.22120
C19 C 0.8836(8) -0.5312(7) 0.1595(7)
H12 H 0.95320 -0.53650 0.10340
N5 N 0.8622(6) 0.3718(6) -0.4347(5)
N6 N 0.8277(7) 0.1717(6) -0.1857(6)
N7 N 0.7461(7) -0.6184(6) 0.3118(6)
S1 S 0.8004(3) -0.19335(19) 0.10337(17)
S2 S 1.1864(2) 0.32585(19) -0.79117(16)
Ag1 Ag 0.74166(7) 0.33986(7) -0.27320(5)
C20 C 1.3521(8) 0.4017(8) -0.9823(6)
C21 C 1.3953(9) 0.4890(9) -1.0617(6)
H13 H 1.35990 0.56160 -1.06020
C22 C 1.4061(9) 0.2968(9) -0.9912(7)
H14 H 1.37860 0.23640 -0.93980
C23 C 1.5025(10) 0.2808(9) -1.0774(7)
H15 H 1.53620 0.20860 -1.08290
C24 C 1.4941(9) 0.4634(10) -1.1442(6)
H16 H 1.52340 0.52170 -1.19740
N8 N 1.5481(8) 0.3632(8) -1.1514(5)
O1 O 0.4988(9) 0.0854(8) -0.5993(7)
O2 O 0.4399(9) 0.1083(8) -0.4776(7)
O3 O 0.5913(8) 0.0513(8) -0.4658(7)
O4 O 0.7792(7) 0.1390(5) -0.6759(5)
O5 O 0.8436(7) -0.0663(5) -0.5988(5)
O6 O 0.7459(6) -0.0274(5) -0.7391(5)
O7 O 0.3422(6) 0.1868(7) -0.6585(7)
O8 O 0.5024(7) 0.3015(6) -0.5349(5)
O9 O 0.2718(7) 0.2482(6) -0.4871(5)
O10 O 0.3757(6) 0.2112(6) -0.3522(5)
O11 O 0.5696(6) 0.3388(6) -0.3888(5)
O12 O 0.4606(7) -0.0759(7) -0.2376(7)
O13 O 0.6839(6) -0.0724(5) -0.2179(5)
O14 O 0.6255(8) -0.0018(7) -0.5730(7)
O15 O 0.5838(8) 0.1097(7) -0.3264(5)
O16 O 0.7748(8) -0.0072(6) -0.4252(5)
O17 O 0.9563(6) 0.1005(5) -0.5841(6)
O18 O 0.5686(6) 0.2477(7) -0.7045(7)
O19 O 0.3613(5) 0.4010(5) -0.6548(5)
O20 O 0.7130(8) 0.1980(6) -0.5111(5)
O21 O 0.7587(7) 0.1849(5) -0.8587(4)
O22 O 0.8829(6) -0.2299(6) -0.7061(5)
P1 P 0.50000 0.00000 -0.50000
Mo1 Mo 0.67915(7) 0.12585(7) -0.74564(5)
Mo2 Mo 0.76242(6) -0.15384(5) -0.64317(5)
Mo3 Mo 0.40580(7) 0.27327(6) -0.60497(6)
Mo4 Mo 0.55057(7) 0.22915(6) -0.42321(5)
Mo5 Mo 0.81288(6) 0.06419(6) -0.55370(6)
Mo6 Mo 0.62594(8) -0.04640(8) -0.30722(6)
Ag1* Ag 1.74166(7) 0.33986(7) -1.27320(5)
N8* N 0.5481(8) 0.3632(8) -0.1514(5)
O1A O 0.5012(9) -0.0854(8) -0.4007(7)
O2A O 0.5601(9) -0.1083(8) -0.5224(7)
O3A O 0.4087(8) -0.0513(8) -0.5342(7)
O14A O 0.3745(8) 0.0018(7) -0.4270(7)
O4A O 0.2208(7) -0.1390(5) -0.3241(5)
O5A O 0.1564(7) 0.0663(5) -0.4012(5)
O6A O 0.2541(6) 0.0274(5) -0.2609(5)
O7A O 0.6578(6) -0.1868(7) -0.3415(7)
O8A O 0.4976(7) -0.3015(6) -0.4651(5)
O9A O 0.7282(7) -0.2482(6) -0.5129(5)
O10A O 0.6243(6) -0.2112(6) -0.6478(5)
O11A O 0.4304(6) -0.3388(6) -0.6112(5)
O12A O 0.5394(7) 0.0759(7) -0.7624(7)
O13A O 0.3161(6) 0.0724(5) -0.7821(5)
O15A O 0.4162(8) -0.1097(7) -0.6736(5)
O16A O 0.2252(8) 0.0072(6) -0.5748(5)
O17A O 0.0437(6) -0.1005(5) -0.4159(6)
O18A O 0.4314(6) -0.2477(7) -0.2955(7)
O19A O 0.6387(5) -0.4010(5) -0.3452(5)
O20A O 0.2870(8) -0.1980(6) -0.4889(5)
O21A O 0.2413(7) -0.1849(5) -0.1413(4)
O22A O 0.1171(6) 0.2299(6) -0.2939(5)
Mo1A Mo 0.32085(7) -0.12585(7) -0.25436(5)
Mo2A Mo 0.23758(6) 0.15384(5) -0.35683(5)
Mo3A Mo 0.59420(7) -0.27327(6) -0.39503(6)
Mo4A Mo 0.44943(7) -0.22915(6) -0.57679(5)
Mo5A Mo 0.18712(6) -0.06419(6) -0.44630(6)
Mo6A Mo 0.37406(8) 0.04640(8) -0.69278(6)
#END
