
#######################################################################
#
#                 Cambridge Crystallographic Data Centre
#                                CCDC
#
#######################################################################
#
# If this CIF has been generated from an entry in the Cambridge
# Structural Database, then it will include bibliographic, chemical,
# crystal, experimental, refinement or atomic coordinate data resulting
# from the CCDC's data processing and validation procedures.
#
#######################################################################

data_CSD_CIF_FOJKOG
_audit_creation_date 2014-06-09
_audit_creation_method CSD-ConQuest-V1
_database_code_CSD FOJKOG
_database_code_depnum_ccdc_archive 'CCDC 977003'
_chemical_formula_sum 'C68 H50 Mg3 N4 O18'
_chemical_formula_moiety
;
(C5 H6 N1 1+)2n,n(C58 H38 Mg3 N2 O18 2-)
;
_journal_coden_Cambridge 1295
_journal_volume 44
_journal_year 2014
_journal_page_first 155
_journal_name_full 'Inorg.Chem.Commun. '
loop_
_publ_author_name
"Maoping Kang"
"Tingzhi Liu"
"Xiaohui Wang"
"Daibing Luo"
"Ruixiang Li"
"Zhien Lin"
_chemical_name_systematic
;
catena-[bis(Pyridinium) 
bis(\m~4~-naphthalene-1,4-dicarboxylato)-bis(\m~2~-aqua)-bis(\m~2~-naphthalene
-1,4-dicarboxylato)-dipyridine-tri-magnesium]
;
_cell_volume   3439.767
_exptl_crystal_colour 'colorless'
_exptl_crystal_density_diffrn 1.24
_exptl_crystal_description 'block-like'
_diffrn_ambient_temperature 293
_refine_special_details
;
Disordered pyridinium cations were not modelled and the disordered density 
was taken into account using the SQUEEZE/PLATON procedure. The unit cell was 
found to contain two voids of 441 A$3, each holding 79 electrons.
;
#These two values have been output from a single CSD field.
_refine_ls_R_factor_gt 0.0548
_refine_ls_wR_factor_gt 0.0548
_symmetry_cell_setting monoclinic
_symmetry_space_group_name_H-M 'P 21/n'
_symmetry_Int_Tables_number 14
loop_
_symmetry_equiv_pos_site_id
_symmetry_equiv_pos_as_xyz
1 x,y,z
2 1/2-x,1/2+y,1/2-z
3 -x,-y,-z
4 -1/2+x,-1/2-y,-1/2+z
_cell_length_a 15.4072(6)
_cell_length_b 14.0406(4)
_cell_length_c 17.6117(7)
_cell_angle_alpha 90
_cell_angle_beta 115.464(5)
_cell_angle_gamma 90
_cell_formula_units_Z 2
loop_
_atom_type_symbol
_atom_type_radius_bond
C 0.68
H 0.23
Mg 1.41
N 0.68
O 0.68
loop_
_atom_site_label
_atom_site_type_symbol
_atom_site_fract_x
_atom_site_fract_y
_atom_site_fract_z
Mg1 Mg 0.50000 0.50000 0.50000
Mg2 Mg 0.26817(5) 0.49926(5) 0.50553(5)
O1 O 0.40757(12) 0.59482(13) 0.41680(11)
O2 O 0.26741(13) 0.59942(14) 0.42304(13)
O3 O 0.22409(13) 0.89486(13) 0.07185(13)
O4 O 0.07876(13) 0.88820(13) 0.06897(12)
O5 O 0.26973(14) 0.60193(14) 0.58704(13)
O6 O 0.41648(15) 0.60204(17) 0.69218(14)
O7 O 0.10363(18) 0.82320(17) 0.85768(18)
O8 O 0.24260(14) 0.89828(15) 0.91434(14)
O9 O 0.42410(11) 0.49212(10) 0.57627(10)
N1 N 0.11013(17) 0.50016(16) 0.44003(15)
C1 C 0.32172(17) 0.61666(15) 0.38874(15)
C2 C 0.16454(17) 0.86208(17) 0.09493(15)
C3 C 0.27745(17) 0.67118(16) 0.30693(15)
C4 C 0.2127(2) 0.74143(19) 0.29987(17)
H1 H 0.19440 0.75060 0.34320
C5 C 0.1737(2) 0.79957(18) 0.22842(18)
H2 H 0.12970 0.84670 0.22510
C6 C 0.19905(17) 0.78829(16) 0.16361(16)
C7 C 0.26126(17) 0.71185(16) 0.16532(15)
C8 C 0.30080(16) 0.65205(16) 0.23790(15)
C9 C 0.35910(19) 0.57393(18) 0.23732(18)
H3 H 0.38430 0.53350 0.28360
C10 C 0.3787(2) 0.5572(2) 0.1704(2)
H4 H 0.41720 0.50580 0.17130
C11 C 0.3410(3) 0.6176(3) 0.0996(2)
H5 H 0.35530 0.60620 0.05430
C12 C 0.2841(2) 0.6920(2) 0.09721(18)
H6 H 0.25950 0.73080 0.04980
C13 C 0.3306(2) 0.62634(18) 0.65941(17)
C14 C 0.1866(2) 0.84011(19) 0.86505(18)
C15 C 0.2939(2) 0.68840(18) 0.70944(17)
C16 C 0.3248(3) 0.6682(2) 0.7926(2)
H7 H 0.37040 0.62050 0.81670
C17 C 0.2897(3) 0.7176(2) 0.8430(2)
H8 H 0.31250 0.70250 0.89980
C18 C 0.2225(2) 0.78729(19) 0.80938(18)
C19 C 0.1900(2) 0.81306(18) 0.72387(18)
C20 C 0.2260(2) 0.76285(19) 0.67250(17)
C21 C 0.1932(3) 0.7917(2) 0.5875(2)
H9 H 0.21570 0.76020 0.55300
C22 C 0.1300(3) 0.8640(3) 0.5557(3)
H10 H 0.10980 0.88200 0.49980
C23 C 0.0944(3) 0.9127(3) 0.6066(3)
H11 H 0.05010 0.96180 0.58410
C24 C 0.1250(3) 0.8874(3) 0.6888(2)
H12 H 0.10200 0.92050 0.72220
C25 C 0.0586(3) 0.4218(3) 0.4328(2)
H13 H 0.09040 0.36530 0.45610
C26 C -0.0412(3) 0.4216(4) 0.3917(3)
H14 H -0.07490 0.36540 0.38730
C27 C -0.0888(3) 0.5023(4) 0.3584(3)
H15 H -0.15570 0.50340 0.33170
C28 C -0.0375(3) 0.5813(4) 0.3646(4)
H16 H -0.06870 0.63790 0.34060
C29 C 0.0613(2) 0.5791(3) 0.4063(3)
H17 H 0.09530 0.63530 0.41110
Mg2B Mg 0.73183(5) 0.50074(5) 0.49447(5)
O1B O 0.59243(12) 0.40518(13) 0.58320(11)
O2B O 0.73259(13) 0.40058(14) 0.57696(13)
O3B O 0.77591(13) 0.10514(13) 0.92815(13)
O4B O 0.92124(13) 0.11180(13) 0.93103(12)
O5B O 0.73027(14) 0.39807(14) 0.41296(13)
O6B O 0.58352(15) 0.39796(17) 0.30782(14)
O7B O 0.89637(18) 0.17680(17) 0.14232(18)
O8B O 0.75740(14) 0.10172(15) 0.08566(14)
O9B O 0.57590(11) 0.50788(10) 0.42373(10)
N1B N 0.88987(17) 0.49984(16) 0.55997(15)
C1B C 0.67828(17) 0.38334(15) 0.61126(15)
C2B C 0.83546(17) 0.13792(17) 0.90507(15)
C3B C 0.72255(17) 0.32882(16) 0.69307(15)
C4B C 0.7873(2) 0.25857(19) 0.70013(17)
H1B H 0.80560 0.24940 0.65680
C5B C 0.8263(2) 0.20043(18) 0.77158(18)
H2B H 0.87030 0.15330 0.77490
C6B C 0.80095(17) 0.21171(16) 0.83639(16)
C7B C 0.73874(17) 0.28815(16) 0.83468(15)
C8B C 0.69920(16) 0.34795(16) 0.76210(15)
C9B C 0.64090(19) 0.42607(18) 0.76268(18)
H3B H 0.61570 0.46650 0.71640
C10B C 0.6213(2) 0.4428(2) 0.8296(2)
H4B H 0.58280 0.49420 0.82870
C11B C 0.6590(3) 0.3824(3) 0.9004(2)
H5B H 0.64470 0.39380 0.94570
C12B C 0.7159(2) 0.3080(2) 0.90279(18)
H6B H 0.74050 0.26920 0.95020
C13B C 0.6694(2) 0.37366(18) 0.34059(17)
C14B C 0.8134(2) 0.15989(19) 0.13495(18)
C15B C 0.7061(2) 0.31160(18) 0.29056(17)
C16B C 0.6752(3) 0.3318(2) 0.2074(2)
H7B H 0.62960 0.37950 0.18330
C17B C 0.7103(3) 0.2824(2) 0.1570(2)
H8B H 0.68750 0.29750 0.10020
C18B C 0.7775(2) 0.21271(19) 0.19062(18)
C19B C 0.8100(2) 0.18694(18) 0.27613(18)
C20B C 0.7740(2) 0.23715(19) 0.32750(17)
C21B C 0.8068(3) 0.2083(2) 0.4125(2)
H9B H 0.78430 0.23980 0.44700
C22B C 0.8700(3) 0.1360(3) 0.4443(3)
H10B H 0.89020 0.11800 0.50020
C23B C 0.9056(3) 0.0873(3) 0.3934(3)
H11B H 0.94990 0.03820 0.41590
C24B C 0.8750(3) 0.1126(3) 0.3112(2)
H12B H 0.89800 0.07950 0.27780
C25B C 0.9414(3) 0.5782(3) 0.5672(2)
H13B H 0.90960 0.63470 0.54390
C26B C 1.0412(3) 0.5784(4) 0.6083(3)
H14B H 1.07490 0.63460 0.61270
C27B C 1.0888(3) 0.4977(4) 0.6416(3)
H15B H 1.15570 0.49660 0.66830
C28B C 1.0375(3) 0.4187(4) 0.6354(4)
H16B H 1.06870 0.36210 0.65940
C29B C 0.9387(2) 0.4209(3) 0.5937(3)
H17B H 0.90470 0.36470 0.58890
Mg1A Mg 0.00000 1.00000 0.00000
Mg1A* Mg 1.00000 0.00000 1.00000
Mg2A Mg 0.23183(5) 0.99926(5) -0.00553(5)
Mg2A* Mg 0.23183(5) 0.99926(5) 0.99447(5)
Mg2C Mg 0.76817(5) 0.00074(5) 0.00553(5)
Mg2C* Mg 0.76817(5) 0.00074(5) 1.00553(5)
O3A O 0.27591(13) 0.39486(13) 0.42815(13)
O3C O 0.72409(13) 0.60514(13) 0.57185(13)
O4A O 0.42124(13) 0.38820(13) 0.43103(12)
O4C O 0.57876(13) 0.61180(13) 0.56897(12)
O8A O 0.25740(14) 0.39828(15) 0.58566(14)
O8C O 0.74260(14) 0.60172(15) 0.41434(14)
#END
