
#######################################################################
#
#                 Cambridge Crystallographic Data Centre
#                                CCDC
#
#######################################################################
#
# If this CIF has been generated from an entry in the Cambridge
# Structural Database, then it will include bibliographic, chemical,
# crystal, experimental, refinement or atomic coordinate data resulting
# from the CCDC's data processing and validation procedures.
#
#######################################################################

data_CSD_CIF_FOJLUN
_audit_creation_date 2014-06-09
_audit_creation_method CSD-ConQuest-V1
_database_code_CSD FOJLUN
_database_code_depnum_ccdc_archive 'CCDC 978030'
_chemical_formula_sum 'C39 H44 Cd1 N2 O10'
_chemical_formula_moiety
;
(C37 H36 Cd1 N1 O10 1-)n,n(C2 H8 N1 1+)
;
_journal_coden_Cambridge 29
_journal_volume 640
_journal_year 2014
_journal_page_first 1075
_journal_name_full 'Z.Anorg.Allg.Chem. '
loop_
_publ_author_name
"P.Vishnoi"
"R.Murugavel"
_chemical_name_systematic
;
catena-[dimethylammonium 
(\m~3~-4,4',4''-((2,4,6-trimethylbenzene-1,3,5-triyl)tris(methyleneoxy))triben
zoato)-(N,N-dimethylacetamide)-cadmium unknown solvate]
;
_cell_volume   4568.831
_exptl_crystal_colour 'colorless'
_exptl_crystal_density_diffrn 1.182
_exptl_crystal_description 'block'
_diffrn_ambient_temperature 150
_refine_special_details
;
Disordered solvent molecules were not modelled and the disordered density was 
taken into account using the SQUEEZE/PLATON procedure.
;
#These two values have been output from a single CSD field.
_refine_ls_R_factor_gt 0.0656
_refine_ls_wR_factor_gt 0.0656
_symmetry_cell_setting triclinic
_symmetry_space_group_name_H-M 'P -1'
_symmetry_Int_Tables_number 2
loop_
_symmetry_equiv_pos_site_id
_symmetry_equiv_pos_as_xyz
1 x,y,z
2 -x,-y,-z
_cell_length_a 14.275(5)
_cell_length_b 18.902(5)
_cell_length_c 19.667(7)
_cell_angle_alpha 67.586(16)
_cell_angle_beta 85.46(2)
_cell_angle_gamma 68.972(16)
_cell_formula_units_Z 4
loop_
_atom_type_symbol
_atom_type_radius_bond
C 0.68
H 0.23
Cd 1.44
N 0.68
O 0.68
loop_
_atom_site_label
_atom_site_type_symbol
_atom_site_fract_x
_atom_site_fract_y
_atom_site_fract_z
Cd1 Cd 0.77002(3) 0.49001(2) 0.099696(19)
O1 O 0.8907(2) 0.6749(2) 0.3932(2)
O2 O 0.8874(2) 0.7129(3) 0.66115(19)
O3 O 0.9499(2) 0.9907(2) 0.36687(18)
O4 O 0.7157(3) 0.5598(2) 0.1837(2)
O5 O 0.8702(3) 0.5381(2) 0.1481(2)
O6 O 0.8744(3) 0.5100(2) 1.00063(19)
O7 O 0.7200(3) 0.5987(3) 0.9796(2)
O8 O 0.7900(3) 1.3783(2) 0.2080(2)
O9 O 0.8624(3) 1.3444(2) 0.1162(2)
O10 O 0.6197(3) 0.4776(3) 0.0874(2)
N1 N 0.5528(4) 0.3812(3) 0.1030(4)
C1 C 0.9723(3) 0.7389(3) 0.4381(3)
C2 C 0.9914(3) 0.6992(3) 0.5149(3)
C3 C 0.9783(3) 0.7459(3) 0.5577(3)
C4 C 0.9485(3) 0.8304(3) 0.5255(3)
C5 C 0.9217(3) 0.8701(3) 0.4498(2)
C6 C 0.9343(3) 0.8233(3) 0.4063(3)
C7 C 1.0223(4) 0.6060(3) 0.5507(3)
H1 H 1.02740 0.58420 0.51310
H2 H 0.97260 0.59210 0.58360
H3 H 1.08620 0.58310 0.57780
C8 C 0.9409(4) 0.8816(4) 0.5712(3)
H4 H 0.91860 0.93850 0.53960
H5 H 1.00570 0.86590 0.59450
H6 H 0.89370 0.87260 0.60810
C9 C 0.9064(4) 0.8664(3) 0.3225(3)
H7 H 0.88160 0.92470 0.30900
H8 H 0.85540 0.85050 0.31000
H9 H 0.96500 0.85070 0.29640
C10 C 0.9842(4) 0.6896(3) 0.3915(3)
H10 H 0.99620 0.71970 0.34130
H11 H 1.04030 0.63820 0.41120
C11 C 0.8790(4) 0.6397(3) 0.3476(3)
C12 C 0.7822(4) 0.6358(4) 0.3450(3)
H12 H 0.73460 0.65200 0.37650
C13 C 0.7592(4) 0.6081(4) 0.2960(3)
H13 H 0.69540 0.60600 0.29410
C14 C 0.8303(4) 0.5828(3) 0.2483(3)
C15 C 0.9257(4) 0.5821(3) 0.2558(3)
H14 H 0.97510 0.56090 0.22780
C16 C 0.9511(3) 0.6115(3) 0.3032(3)
H15 H 1.01540 0.61240 0.30540
C17 C 0.8033(4) 0.5584(3) 0.1903(3)
C18 C 0.9899(4) 0.7034(3) 0.6412(3)
H16 H 1.03210 0.64610 0.65630
H17 H 1.01860 0.72970 0.66330
C19 C 0.8728(4) 0.6773(4) 0.7332(3)
C20 C 0.7735(4) 0.6871(4) 0.7501(3)
H18 H 0.72230 0.71530 0.71270
C21 C 0.7510(4) 0.6545(4) 0.8231(3)
H19 H 0.68450 0.66170 0.83410
C22 C 0.8271(4) 0.6109(3) 0.8802(3)
C23 C 0.9246(4) 0.6016(3) 0.8619(3)
H20 H 0.97640 0.57120 0.89880
C24 C 0.9478(4) 0.6369(3) 0.7888(3)
H21 H 1.01370 0.63290 0.77810
C25 C 0.8057(4) 0.5717(4) 0.9578(3)
C26 C 0.8770(3) 0.9620(3) 0.4146(3)
H22 H 0.81510 0.97870 0.38600
H23 H 0.86200 0.98520 0.45220
C27 C 0.9185(3) 1.0726(3) 0.3234(3)
C28 C 0.8351(3) 1.1310(3) 0.3368(3)
H24 H 0.79620 1.11600 0.37620
C29 C 0.8116(4) 1.2126(3) 0.2895(3)
H25 H 0.75610 1.25220 0.29810
C30 C 0.8684(4) 1.2371(3) 0.2296(3)
C31 C 0.9506(4) 1.1762(3) 0.2181(3)
H26 H 0.98850 1.19040 0.17790
C32 C 0.9765(4) 1.0967(3) 0.2646(3)
H27 H 1.03370 1.05760 0.25710
C33 C 0.8377(4) 1.3261(4) 0.1814(3)
C34 C 0.6066(4) 0.4274(4) 0.0651(3)
C35 C 0.6496(5) 0.4207(4) -0.0054(4)
H28 H 0.63300 0.38020 -0.01480
H29 H 0.72140 0.40490 -0.00110
H30 H 0.62190 0.47270 -0.04540
C36 C 0.5107(6) 0.3888(6) 0.1724(4)
H31 H 0.47460 0.35210 0.19310
H32 H 0.46570 0.44410 0.16210
H33 H 0.56440 0.37530 0.20680
C37 C 0.5277(5) 0.3284(5) 0.0764(6)
H34 H 0.48960 0.30060 0.11170
H35 H 0.58840 0.28890 0.06950
H36 H 0.48840 0.36070 0.03030
Cd2 Cd 0.81083(3) 0.27206(2) 0.793404(19)
O11 O 0.6917(2) 0.0823(2) 0.5008(2)
O12 O 0.6749(3) 0.0703(3) 0.23006(19)
O13 O 0.6257(2) -0.2323(2) 0.5208(2)
O14 O 0.8402(3) 0.1999(2) 0.7197(2)
O15 O 0.6794(3) 0.2737(3) 0.7095(2)
O16 O 0.8248(2) -0.6112(2) 0.7169(2)
O17 O 0.6770(3) -0.5853(2) 0.7624(2)
O18 O 0.8213(4) 0.2527(3) -0.0772(2)
O19 O 0.7246(3) 0.2066(3) -0.1147(2)
O20 O 0.9859(3) 0.2198(3) 0.8170(2)
N2 N 1.1387(6) 0.1372(5) 0.8690(5)
C38 C 0.6077(3) 0.0251(3) 0.4488(2)
C39 C 0.5884(4) 0.0605(3) 0.3713(3)
C40 C 0.5980(3) 0.0089(3) 0.3333(3)
C41 C 0.6301(3) -0.0764(3) 0.3697(3)
C42 C 0.6560(3) -0.1111(3) 0.4450(3)
C43 C 0.6451(3) -0.0603(3) 0.4852(2)
C44 C 0.5561(4) 0.1512(3) 0.3302(3)
H37 H 0.55270 0.17720 0.36430
H38 H 0.49100 0.17120 0.30550
H39 H 0.60380 0.16330 0.29460
C45 C 0.6335(4) -0.1314(4) 0.3289(3)
H40 H 0.65710 -0.18750 0.36270
H41 H 0.67840 -0.12420 0.28990
H42 H 0.56730 -0.11710 0.30850
C46 C 0.6705(4) -0.0987(3) 0.5676(3)
H43 H 0.69440 -0.15730 0.58350
H44 H 0.61140 -0.08080 0.59250
H45 H 0.72170 -0.08240 0.57910
C47 C 0.5941(3) 0.0785(3) 0.4915(3)
H46 H 0.54610 0.13290 0.46500
H47 H 0.56920 0.05550 0.53920
C48 C 0.7005(4) 0.1205(3) 0.5462(3)
C49 C 0.6189(4) 0.1689(3) 0.5714(3)
H48 H 0.55350 0.17830 0.55730
C50 C 0.6367(4) 0.2027(3) 0.6178(3)
H49 H 0.58220 0.23600 0.63400
C51 C 0.7329(4) 0.1888(3) 0.6410(3)
C52 C 0.8137(4) 0.1416(3) 0.6139(3)
H50 H 0.87900 0.13230 0.62810
C53 C 0.7982(4) 0.1088(3) 0.5667(3)
H51 H 0.85280 0.07840 0.54810
C54 C 0.7525(4) 0.2234(3) 0.6939(3)
C55 C 0.5874(4) 0.0467(4) 0.2496(3)
H52 H 0.58770 0.00730 0.22920
H53 H 0.52580 0.09410 0.23210
C56 C 0.6879(4) 0.1066(4) 0.1563(3)
C57 C 0.6319(5) 0.1131(4) 0.0978(3)
H54 H 0.57860 0.09410 0.10630
C58 C 0.6571(5) 0.1479(4) 0.0279(3)
H55 H 0.62150 0.15110 -0.01140
C59 C 0.7345(4) 0.1789(3) 0.0136(3)
C60 C 0.7843(5) 0.1774(4) 0.0708(3)
H56 H 0.83220 0.20230 0.06160
C61 C 0.7634(5) 0.1388(4) 0.1429(3)
H57 H 0.80030 0.13460 0.18200
C62 C 0.7625(4) 0.2172(3) -0.0655(3)
C63 C 0.7037(4) -0.2028(3) 0.4845(3)
H58 H 0.73310 -0.22820 0.44950
H59 H 0.75640 -0.21600 0.52040
C64 C 0.6579(3) -0.3132(3) 0.5672(3)
C65 C 0.5854(4) -0.3405(3) 0.6091(3)
H60 H 0.51930 -0.30450 0.60370
C66 C 0.6111(4) -0.4206(3) 0.6586(3)
H61 H 0.56260 -0.43810 0.68730
C67 C 0.7085(4) -0.4746(3) 0.6654(3)
C68 C 0.7798(4) -0.4476(3) 0.6234(3)
H62 H 0.84560 -0.48400 0.62820
C69 C 0.7555(4) -0.3676(3) 0.5741(3)
H63 H 0.80440 -0.35030 0.54580
C70 C 0.7380(4) -0.5628(4) 0.7191(3)
C71 C 1.0383(7) 0.1508(6) 0.8530(5)
C72 C 1.0021(8) 0.0746(6) 0.8794(6)
H64 H 1.05690 0.02550 0.90610
H65 H 0.97990 0.06950 0.83720
H66 H 0.94750 0.08270 0.91080
C73 C 1.1817(8) 0.2027(6) 0.8463(6)
H67 H 1.25120 0.17940 0.86380
H68 H 1.14540 0.24260 0.86700
H69 H 1.17630 0.22860 0.79350
C74 C 1.2091(11) 0.0501(7) 0.9054(10)
H70 H 1.27480 0.04940 0.91370
H71 H 1.21280 0.02090 0.87410
H72 H 1.18460 0.02430 0.95170
N3 N 0.4911(5) 0.6358(6) 0.2113(4)
H73 H 0.43230 0.63680 0.23190
H74 H 0.54050 0.59160 0.24130
C75 C 0.4882(5) 0.6303(5) 0.1383(5)
H75 H 0.47780 0.58080 0.14440
H76 H 0.55080 0.62970 0.11620
H77 H 0.43410 0.67670 0.10690
C76 C 0.5092(6) 0.7108(7) 0.2024(6)
H78 H 0.51000 0.71460 0.24970
H79 H 0.45660 0.75780 0.17030
H80 H 0.57280 0.70890 0.18160
N4 N 0.9914(4) 0.3980(3) 0.9412(3)
H81 H 0.96270 0.43570 0.96130
H82 H 1.03230 0.41610 0.90730
C77 C 1.0518(6) 0.3194(4) 0.9996(4)
H83 H 1.10210 0.32770 1.02230
H84 H 1.08400 0.27950 0.97810
H85 H 1.00860 0.30020 1.03610
C78 C 0.9126(5) 0.3890(5) 0.9049(5)
H86 H 0.87560 0.44080 0.86740
H87 H 0.86780 0.37110 0.94070
H88 H 0.94300 0.34930 0.88300
Cd1* Cd 0.77002(3) 0.49001(2) 1.099696(19)
Cd1** Cd 0.77002(3) 1.49001(2) 0.099696(19)
O6* O 0.8744(3) 0.5100(2) 0.00063(19)
O7* O 0.7200(3) 0.5987(3) -0.0204(2)
O8* O 0.7900(3) 0.3783(2) 0.2080(2)
O9* O 0.8624(3) 0.3444(2) 0.1162(2)
Cd2* Cd 0.81083(3) -0.72794(2) 0.793404(19)
Cd2** Cd 0.81083(3) 0.27206(2) -0.206596(19)
O16* O 0.8248(2) 0.3888(2) 0.7169(2)
O17* O 0.6770(3) 0.4147(2) 0.7624(2)
O18* O 0.8213(4) 0.2527(3) 0.9228(2)
O19* O 0.7246(3) 0.2066(3) 0.8853(2)
#END
