
#######################################################################
#
#                 Cambridge Crystallographic Data Centre
#                                CCDC
#
#######################################################################
#
# If this CIF has been generated from an entry in the Cambridge
# Structural Database, then it will include bibliographic, chemical,
# crystal, experimental, refinement or atomic coordinate data resulting
# from the CCDC's data processing and validation procedures.
#
#######################################################################

data_CSD_CIF_FOJXIO
_audit_creation_date 2019-05-29
_audit_creation_method CSD-ConQuest-V1
_database_code_CSD FOJXIO
_database_code_depnum_ccdc_archive 'CCDC 1908818'
_chemical_formula_sum 'C36 H27 N6 Ni1 O1.5 Se7 Sn3'
_chemical_formula_moiety
;
(C36 H24 N6 Ni1 2+)n,n(Se7 Sn3 2-),1.5n(H2 O1)
;
_journal_coden_Cambridge 1295
_journal_volume 106
_journal_year 2019
_journal_page_first 76
_journal_name_full 'Inorg.Chem.Commun. '
loop_
_publ_author_name
"Bo Zhang"
"Lian-Zhi Li"
"Jun Li"
"Yue-Chan Zhang"
"Shu-Hua Liu"
"Yan-Li Deng"
"Xiao-Ying Huang"
_chemical_name_systematic
;
catena-[tris(1,10-phenanthroline)-nickel(ii) 
heptakis(\m-selenato)-tri-tin(iv) sesquihydrate]
;
_cell_volume   6470.592
_exptl_crystal_colour 'dark red'
_exptl_crystal_density_diffrn 2.364
_exptl_crystal_description 'sheet'
_diffrn_ambient_temperature 298
_diffrn_special_details
;
twin

;
_refine_special_details
;
C1,C10,C11,C12,C2,C3,C4,C5,C6,C7,C8,C9,N1,N2 and 
C10B,C11B,C12B,C1B,C2B,C3B,C4B,C5B,C6B,C7B,C8B,C9B,N1B,N2B disordered over 
two sites with occupancies 0.6667:0.3333; H1 disordered by symmetry over 
three configurations with occupancy 0.3333.
;
#These two values have been output from a single CSD field.
_refine_ls_R_factor_gt 0.0291
_refine_ls_wR_factor_gt 0.0291
_symmetry_cell_setting rhombohedral
_symmetry_space_group_name_H-M 'R -3'
_symmetry_Int_Tables_number 148
loop_
_symmetry_equiv_pos_site_id
_symmetry_equiv_pos_as_xyz
1 x,y,z
2 -y,x-y,z
3 -x+y,-x,z
4 2/3+x,1/3+y,1/3+z
5 2/3-y,1/3+x-y,1/3+z
6 2/3-x+y,1/3-x,1/3+z
7 1/3+x,2/3+y,2/3+z
8 1/3-y,2/3+x-y,2/3+z
9 1/3-x+y,2/3-x,2/3+z
10 -x,-y,-z
11 y,-x+y,-z
12 x-y,x,-z
13 -2/3-x,-1/3-y,-1/3-z
14 -2/3+y,-1/3-x+y,-1/3-z
15 -2/3+x-y,-1/3+x,-1/3-z
16 -1/3-x,-2/3-y,-2/3-z
17 -1/3+y,-2/3-x+y,-2/3-z
18 -1/3+x-y,-2/3+x,-2/3-z
_cell_length_a 13.9706(11)
_cell_length_b 13.9706(11)
_cell_length_c 38.281(3)
_cell_angle_alpha 90
_cell_angle_beta 90
_cell_angle_gamma 120
_cell_formula_units_Z 6
loop_
_atom_type_symbol
_atom_type_radius_bond
C 0.68
H 0.23
N 0.68
Ni 1.24
O 0.68
Se 1.22
Sn 1.39
loop_
_atom_site_label
_atom_site_type_symbol
_atom_site_fract_x
_atom_site_fract_y
_atom_site_fract_z
Sn1 Sn 0.18167(3) 0.09116(17) 0.66840(2)
Se1 Se 0.00000 0.00000 0.62319(2)
Se2 Se 0.31801(5) 0.1589(3) 0.61858(2)
Se3 Se 0.1024(3) -0.1037(3) 0.69429(2)
O1 O 0.33333 0.66667 0.66667
Ni1 Ni 0.33333 0.66667 0.53765(3)
N1 N 0.269(2) 0.521(2) 0.5668(7)
N2 N 0.196(2) 0.5643(19) 0.5074(6)
C1 C 0.315(2) 0.5058(17) 0.5956(6)
H1 H 0.37789 0.56543 0.60506
C2 C 0.2690(12) 0.4004(12) 0.6121(5)
H2 H 0.30295 0.38820 0.63107
C3 C 0.1715(16) 0.3175(11) 0.5983(3)
H3 H 0.13273 0.25228 0.61095
C4 C 0.127(2) 0.3257(16) 0.5662(6)
C5 C 0.0350(17) 0.2471(15) 0.5465(5)
H4 H -0.01111 0.17877 0.55674
C6 C 0.0096(17) 0.2647(15) 0.5139(4)
H5 H -0.04112 0.20461 0.50071
C7 C 0.0581(18) 0.3719(15) 0.4992(4)
C8 C 0.0280(17) 0.4039(13) 0.4681(5)
H6 H -0.02923 0.34971 0.45479
C9 C 0.0783(16) 0.5098(12) 0.4565(5)
H7 H 0.05851 0.52938 0.43560
C10 C 0.160(2) 0.586(3) 0.4774(6)
H8 H 0.19351 0.65893 0.47026
C11 C 0.146(2) 0.4568(17) 0.5186(7)
C12 C 0.183(2) 0.4341(17) 0.5516(6)
O2 O 0.319(4) 0.454(3) 0.6744(16)
N3? N 0.249(5) 0.523(5) 0.5663(15)
N4? N 0.362(5) 0.561(4) 0.5069(12)
C13? C 0.196(4) 0.497(3) 0.5970(13)
H9? H 0.18794 0.55056 0.60908
C14? C 0.153(3) 0.390(2) 0.6110(9)
H10? H 0.13959 0.38209 0.63492
C15? C 0.128(3) 0.297(3) 0.5924(8)
H11? H 0.07131 0.22582 0.59691
C16? C 0.204(4) 0.330(3) 0.5655(12)
C17? C 0.192(3) 0.234(3) 0.5493(9)
H12? H 0.14260 0.16266 0.55670
C18? C 0.261(3) 0.260(3) 0.5212(7)
H13? H 0.27558 0.20545 0.51292
C19? C 0.313(4) 0.363(3) 0.5040(8)
C20? C 0.353(3) 0.379(2) 0.4702(8)
H14? H 0.34516 0.32085 0.45632
C21? C 0.404(3) 0.486(2) 0.4586(11)
H15? H 0.44395 0.50047 0.43792
C22? C 0.403(4) 0.574(4) 0.4743(12)
H16? H 0.42985 0.64080 0.46260
C23? C 0.318(5) 0.457(3) 0.5190(13)
C24? C 0.259(5) 0.440(3) 0.5518(13)
H17? H 0.39764 0.71465 0.66315
H18? H 0.35114 0.48558 0.65644
H19? H 0.25189 0.41875 0.67060
Sn1A Sn -0.09116(3) 0.09051(17) 0.66840(2)
Se2A Se -0.15890(5) 0.15911(30) 0.61858(2)
Se3A Se 0.1037(3) 0.2061(3) 0.69429(2)
Sn1B Sn -0.09051(3) -0.18167(17) 0.66840(2)
Se2B Se -0.15911(5) -0.31801(30) 0.61858(2)
Se3B Se -0.2061(3) -0.1024(3) 0.69429(2)
Sn1O Sn 0.484997(30) 0.242173(170) 0.664933(20)
Sn1P Sn -0.242173(30) 0.242823(170) 0.664933(20)
Sn1Q Sn -0.242823(30) -0.484997(170) 0.664933(20)
Se2O Se 0.348657(50) 0.174433(300) 0.714753(20)
Se2P Se -0.174433(50) 0.174223(300) 0.714753(20)
Se2Q Se -0.174223(50) -0.348657(300) 0.714753(20)
N1A N 0.479(2) 0.748(2) 0.5668(7)
N2A N 0.4357(20) 0.6317(19) 0.5074(6)
C1A C 0.4942(20) 0.8092(17) 0.5956(6)
H1A H 0.43457 0.81246 0.60506
C2A C 0.5996(12) 0.8686(12) 0.6121(5)
H2A H 0.61180 0.91475 0.63107
C3A C 0.6825(16) 0.8540(11) 0.5983(3)
H3A H 0.74772 0.88045 0.61095
C4A C 0.6743(20) 0.8013(16) 0.5662(6)
C5A C 0.7529(17) 0.7879(15) 0.5465(5)
H4A H 0.82123 0.81012 0.55674
C6A C 0.7353(17) 0.7449(15) 0.5139(4)
H5A H 0.79539 0.75427 0.50071
C7A C 0.6281(18) 0.6862(15) 0.4992(4)
C8A C 0.5961(17) 0.6241(13) 0.4681(5)
H6A H 0.65029 0.62106 0.45479
C9A C 0.4902(16) 0.5685(12) 0.4565(5)
H7A H 0.47062 0.52913 0.43560
C10A C 0.414(2) 0.574(3) 0.4774(6)
H8A H 0.34107 0.53458 0.47026
C11A C 0.5432(20) 0.6892(17) 0.5186(7)
C12A C 0.5659(20) 0.7489(17) 0.5516(6)
N1B N 0.252(2) 0.731(2) 0.5668(7)
N2B N 0.3683(20) 0.8040(19) 0.5074(6)
C1B C 0.1908(20) 0.6850(17) 0.5956(6)
H1B H 0.18754 0.62211 0.60506
C2B C 0.1314(12) 0.7310(12) 0.6121(5)
H2B H 0.08525 0.69705 0.63107
C3B C 0.1460(16) 0.8285(11) 0.5983(3)
H3B H 0.11955 0.86727 0.61095
C4B C 0.1987(20) 0.8730(16) 0.5662(6)
C5B C 0.2121(17) 0.9650(15) 0.5465(5)
H4B H 0.18988 1.01111 0.55674
C6B C 0.2551(17) 0.9904(15) 0.5139(4)
H5B H 0.24573 1.04112 0.50071
C7B C 0.3138(18) 0.9419(15) 0.4992(4)
C8B C 0.3759(17) 0.9720(13) 0.4681(5)
H6B H 0.37894 1.02923 0.45479
C9B C 0.4315(16) 0.9217(12) 0.4565(5)
H7B H 0.47087 0.94149 0.43560
C10B C 0.426(2) 0.840(3) 0.4774(6)
H8B H 0.46542 0.80649 0.47026
C11B C 0.3108(20) 0.8540(17) 0.5186(7)
C12B C 0.2511(20) 0.8170(17) 0.5516(6)
#END
