
#######################################################################
#
#                 Cambridge Crystallographic Data Centre
#                                CCDC
#
#######################################################################
#
# If this CIF has been generated from an entry in the Cambridge
# Structural Database, then it will include bibliographic, chemical,
# crystal, experimental, refinement or atomic coordinate data resulting
# from the CCDC's data processing and validation procedures.
#
#######################################################################

data_CSD_CIF_FOJYAH
_audit_creation_date 2019-05-29
_audit_creation_method CSD-ConQuest-V1
_database_code_CSD FOJYAH
_database_code_depnum_ccdc_archive 'CCDC 1909314'
_chemical_formula_sum 'C47 H48 Cl6 Cr1 Mn1 N1 O13'
_chemical_formula_moiety
;
(C25 H6 Cl6 Cr1 Mn1 O13 1-)n,C16 H36 N1 1+,C6 H6
;
_journal_coden_Cambridge 580
_journal_volume 170
_journal_year 2019
_journal_page_first 122
_journal_name_full 'Polyhedron '
loop_
_publ_author_name
"C.Martinez-Hernandez"
"S.Benmansour"
"C.J.G.Garcia"
_chemical_name_systematic
;
catena-[tetra-n-butylammonium 
tris(\m-2,5-dichloro-3,6-dioxocyclohexa-2,5-diene-1,4-diolato)-(benzaldehyde)-
chromium(iii)-manganese(ii) benzene solvate]
;
_cell_volume   2650.824
_exptl_crystal_colour 'deepred'
_exptl_crystal_density_diffrn 1.446
_exptl_special_details
;
Magnetic properties,Long range ferrimagnetic ordering around 7 K

;
_exptl_crystal_description 'Block'
_diffrn_ambient_temperature 120
_diffrn_special_details
;
twin

;
#These two values have been output from a single CSD field.
_refine_ls_R_factor_gt 0.0814
_refine_ls_wR_factor_gt 0.0814
_symmetry_cell_setting monoclinic
_symmetry_space_group_name_H-M 'P 21'
_symmetry_Int_Tables_number 4
loop_
_symmetry_equiv_pos_site_id
_symmetry_equiv_pos_as_xyz
1 x,y,z
2 -x,1/2+y,-z
_cell_length_a 9.7541(4)
_cell_length_b 23.4347(7)
_cell_length_c 11.8795(4)
_cell_angle_alpha 90
_cell_angle_beta 102.527(4)
_cell_angle_gamma 90
_cell_formula_units_Z 2
loop_
_atom_type_symbol
_atom_type_radius_bond
C 0.68
H 0.23
Cl 0.99
Cr 1.39
Mn 1.61
N 0.68
O 0.68
loop_
_atom_site_label
_atom_site_type_symbol
_atom_site_fract_x
_atom_site_fract_y
_atom_site_fract_z
Cr1 Cr 0.20932(19) 0.57000(8) 0.71369(16)
O1 O 0.3567(8) 0.5125(3) 0.7159(6)
O2 O 0.2539(8) 0.5537(4) 0.8812(6)
O3 O 0.3427(8) 0.6339(4) 0.7368(7)
O4 O 0.0743(8) 0.6311(3) 0.7228(7)
O5 O 0.1721(8) 0.5768(3) 0.5440(7)
O6 O 0.0668(8) 0.5095(3) 0.6765(7)
Mn1 Mn 0.2063(2) 0.90404(9) 0.83911(17)
O7 O 0.6044(9) 0.4595(4) 1.1519(7)
O8 O 0.6877(9) 0.4087(4) 0.9808(7)
O9 O 0.0327(12) 0.9118(6) 0.9499(10)
C1 C 0.5237(13) 0.4549(5) 0.8404(10)
Cl1 Cl 0.5811(4) 0.42242(15) 0.7274(3)
C2 C 0.4157(12) 0.4948(5) 0.8169(10)
C3 C 0.3563(12) 0.5199(5) 0.9148(10)
C4 C 0.4150(13) 0.5060(5) 1.0272(9)
Cl2 Cl 0.3455(4) 0.53269(18) 1.1363(3)
C5 C 0.5359(12) 0.4716(5) 1.0539(9)
C6 C 0.5888(12) 0.4413(5) 0.9517(11)
C7 C 0.3599(11) 0.7330(5) 0.7788(10)
Cl3 Cl 0.5410(3) 0.73367(15) 0.7947(3)
C8 C 0.2876(12) 0.6826(5) 0.7548(10)
C9 C 0.1284(12) 0.6819(5) 0.7414(10)
C10 C 0.0555(12) 0.7299(6) 0.7522(10)
Cl4 Cl -0.1251(3) 0.72912(15) 0.7384(3)
C11 C 0.1288(11) 0.7820(5) 0.7812(10)
C12 C 0.2904(12) 0.7833(6) 0.7946(11)
O10 O 0.0719(9) 0.8280(4) 0.7954(8)
O11 O 0.3469(9) 0.8304(4) 0.8213(8)
C13 C 0.0488(11) 0.5354(5) 0.3722(10)
Cl5 Cl 0.1106(3) 0.58099(15) 0.2828(3)
C14 C 0.0859(11) 0.5401(5) 0.4907(10)
C15 C 0.0263(12) 0.4990(5) 0.5678(10)
C16 C -0.0619(12) 0.4548(5) 0.522(1)
Cl6 Cl -0.1269(3) 0.40951(14) 0.6112(3)
C17 C -0.0993(13) 0.4470(5) 0.4024(11)
C18 C -0.0407(12) 0.4889(6) 0.323(1)
O12 O -0.1789(9) 0.4092(4) 0.3508(7)
O13 O -0.0831(10) 0.4806(5) 0.2171(7)
C19 C -0.101(3) 0.9000(12) 0.926(2)
H1 H -0.14720 0.90110 0.84670
C20 C -0.1793(11) 0.8863(5) 1.0033(9)
C21 C -0.3019(12) 0.8555(5) 0.9632(8)
H2 H -0.33360 0.84870 0.88300
C22 C -0.3780(11) 0.8346(5) 1.0406(12)
H3 H -0.46180 0.81350 1.01320
C23 C -0.3316(13) 0.8446(6) 1.1580(11)
H4 H -0.38370 0.83040 1.21090
C24 C -0.2090(13) 0.8755(6) 1.1981(8)
H5 H -0.17730 0.88230 1.27840
C25 C -0.1329(10) 0.8963(5) 1.1207(10)
H6 H -0.04910 0.91740 1.14810
N1 N 0.6014(14) 0.5980(6) 0.4889(13)
C26 C 0.5936(16) 0.5351(8) 0.4417(13)
H7 H 0.59710 0.53630 0.35900
H8 H 0.67800 0.51420 0.48280
C27 C 0.4655(19) 0.5019(7) 0.4536(13)
H9 H 0.38060 0.52050 0.40730
H10 H 0.45770 0.50200 0.53530
C28 C 0.4732(19) 0.4414(7) 0.4135(14)
H11 H 0.55920 0.42360 0.45980
H12 H 0.48270 0.44200 0.33230
C29 C 0.349(2) 0.4041(9) 0.4216(19)
H13 H 0.36360 0.36570 0.39370
H14 H 0.34000 0.40200 0.50200
H15 H 0.26330 0.42040 0.37420
C30 C 0.4687(16) 0.6281(6) 0.4359(13)
H16 H 0.39030 0.60910 0.46180
H17 H 0.45200 0.62350 0.35120
C31 C 0.4646(19) 0.6911(7) 0.4628(18)
H18 H 0.53220 0.71180 0.42640
H19 H 0.49280 0.69700 0.54720
C32 C 0.317(2) 0.7151(8) 0.418(2)
H20 H 0.25000 0.69650 0.45830
H21 H 0.28600 0.70740 0.33450
C33 C 0.320(3) 0.7804(9) 0.441(2)
H22 H 0.22560 0.79620 0.41220
H23 H 0.34980 0.78760 0.52350
H24 H 0.38570 0.79860 0.40010
C34 C 0.6163(14) 0.5965(7) 0.6226(14)
H25 H 0.61990 0.63630 0.65090
H26 H 0.53050 0.57880 0.63890
C35 C 0.7395(16) 0.5657(8) 0.6896(14)
H27 H 0.82610 0.58040 0.66920
H28 H 0.73140 0.52460 0.67000
C36 C 0.7489(15) 0.5734(7) 0.8182(14)
H29 H 0.76560 0.61430 0.83700
H30 H 0.65680 0.56320 0.83490
C37 C 0.8591(17) 0.5397(9) 0.8964(17)
H31 H 0.85580 0.54780 0.97670
H32 H 0.84250 0.49890 0.88090
H33 H 0.95160 0.55010 0.88310
C38 C 0.733(3) 0.6258(11) 0.465(2)
H34 H 0.74840 0.66190 0.50910
H35 H 0.81310 0.60050 0.49560
C39 C 0.736(3) 0.6388(11) 0.347(2)
H36 H 0.64930 0.65950 0.30980
H37 H 0.74060 0.60310 0.30350
C40 C 0.875(3) 0.6787(11) 0.346(2)
H38 H 0.95900 0.65900 0.39150
H39 H 0.88760 0.68140 0.26560
C41 C 0.872(3) 0.741(1) 0.395(2)
H40 H 0.95910 0.76090 0.39040
H41 H 0.79170 0.76170 0.34920
H42 H 0.86330 0.73920 0.47550
C42 C -0.865(2) 0.7876(6) 1.1027(15)
H43 H -0.87720 0.82590 1.12480
C43 C -0.9810(16) 0.7522(8) 1.0691(16)
H44 H -1.07260 0.76640 1.06820
C44 C -0.9632(16) 0.6962(7) 1.0368(15)
H45 H -1.04250 0.67200 1.01380
C45 C -0.8293(19) 0.6755(6) 1.0381(15)
H46 H -0.81710 0.63720 1.01600
C46 C -0.7133(15) 0.7109(8) 1.0717(14)
H47 H -0.62180 0.69670 1.07250
C47 C -0.7311(17) 0.7669(7) 1.1040(13)
H48 H -0.65180 0.79110 1.12690
Mn1A Mn -0.2063(2) 0.40404(9) 0.16089(17)
Mn1A* Mn 0.7937(2) 0.40404(9) 1.16089(17)
O7A O 0.3956(9) 0.9595(4) 0.8481(7)
O8A O 0.3123(9) 0.9087(4) 1.0192(7)
O12A O 0.1789(9) 0.9092(4) 0.6492(7)
O13A O 0.0831(10) 0.9806(5) 0.7829(7)
#END
