
#######################################################################
#
#                 Cambridge Crystallographic Data Centre
#                                CCDC
#
#######################################################################
#
# If this CIF has been generated from an entry in the Cambridge
# Structural Database, then it will include bibliographic, chemical,
# crystal, experimental, refinement or atomic coordinate data resulting
# from the CCDC's data processing and validation procedures.
#
#######################################################################

data_CSD_CIF_FOJYEL
_audit_creation_date 2019-05-29
_audit_creation_method CSD-ConQuest-V1
_database_code_CSD FOJYEL
_database_code_depnum_ccdc_archive 'CCDC 1909315'
_chemical_formula_sum 'C47 H48 Br6 Cr1 Mn1 N1 O13'
_chemical_formula_moiety
;
(C25 H6 Br6 Cr1 Mn1 O13 1-)n,C16 H36 N1 1+,C6 H6
;
_journal_coden_Cambridge 580
_journal_volume 170
_journal_year 2019
_journal_page_first 122
_journal_name_full 'Polyhedron '
loop_
_publ_author_name
"C.Martinez-Hernandez"
"S.Benmansour"
"C.J.G.Garcia"
_chemical_name_systematic
;
catena-[tetra-n-butylammonium 
tris(\m-2,5-dibromo-3,6-dioxocyclohexa-2,5-diene-1,4-diolato)-(benzaldehyde)-c
hromium(iii)-manganese(ii) benzene solvate]
;
_cell_volume   2728.550
_exptl_crystal_colour 'deepred'
_exptl_crystal_density_diffrn 1.671
_exptl_special_details
;
Magnetic properties,Long range ferrimagnetic ordering around 7 K

;
_exptl_crystal_description 'Block'
_diffrn_ambient_temperature 120
_diffrn_special_details
;
twin

;
_refine_special_details
;
The structure is disordered.

;
#These two values have been output from a single CSD field.
_refine_ls_R_factor_gt 0.0591
_refine_ls_wR_factor_gt 0.0591
_symmetry_cell_setting monoclinic
_symmetry_space_group_name_H-M 'P 21'
_symmetry_Int_Tables_number 4
loop_
_symmetry_equiv_pos_site_id
_symmetry_equiv_pos_as_xyz
1 x,y,z
2 -x,1/2+y,-z
_cell_length_a 9.9305(3)
_cell_length_b 23.3857(6)
_cell_length_c 12.1969(3)
_cell_angle_alpha 90
_cell_angle_beta 105.571(2)
_cell_angle_gamma 90
_cell_formula_units_Z 2
loop_
_atom_type_symbol
_atom_type_radius_bond
C 0.68
H 0.23
Br 1.21
Cr 1.39
Mn 1.61
N 0.68
O 0.68
loop_
_atom_site_label
_atom_site_type_symbol
_atom_site_fract_x
_atom_site_fract_y
_atom_site_fract_z
Cr1 Cr 1.1897(2) 0.43191(10) 0.68648(18)
O1 O 0.2359(10) 0.4500(4) -0.1495(7)
O2 O 0.3318(10) 0.4909(4) -0.3107(8)
O3 O 0.9406(9) 0.8691(4) 0.3046(7)
O4 O 0.6749(9) 0.8687(4) 0.2828(7)
O5 O 1.1485(9) 0.4237(4) 0.5209(7)
O6 O 1.0452(9) 0.4909(4) 0.6448(7)
Mn1 Mn 0.7790(2) 0.60273(10) 0.13451(17)
O7 O 0.663(1) 0.5991(5) -0.0430(7)
O8 O 0.5850(9) 0.5484(4) 0.1214(7)
O9 O 0.6484(10) 0.6790(4) 0.1536(8)
O10 O 0.9203(10) 0.6755(4) 0.1952(8)
O11 O 0.8052(10) 0.5943(4) 0.3222(8)
O12 O 0.8927(11) 0.5218(5) 0.1927(8)
O13 O 0.9441(12) 0.5965(6) 0.0342(9)
C1 C 0.3958(14) 0.5016(7) -0.0057(11)
Br1 Br 0.32011(19) 0.47275(8) 0.10973(12)
C2 C 0.3368(14) 0.4852(6) -0.1171(10)
C3 C 0.3920(14) 0.5094(6) -0.2096(10)
C4 C 0.4968(15) 0.5499(6) -0.1857(11)
Br2 Br 0.55467(19) 0.58577(7) -0.30376(12)
C5 C 0.5623(14) 0.5648(6) -0.0729(11)
C6 C 0.5148(15) 0.5374(6) 0.0248(11)
C7 C 0.9472(12) 0.7721(7) 0.2578(11)
Br3 Br 1.14253(14) 0.77092(7) 0.27959(15)
C8 C 0.8829(14) 0.8205(6) 0.2749(11)
C9 C 0.7243(14) 0.8215(7) 0.2536(11)
C10 C 0.6466(13) 0.7737(7) 0.2174(12)
Br4 Br 0.45082(14) 0.77510(8) 0.19334(16)
C11 C 0.7101(14) 0.7232(7) 0.1916(11)
C12 C 0.8721(14) 0.7215(6) 0.2140(11)
C13 C 1.0227(14) 0.4675(6) 0.3478(11)
Br5 Br 1.08697(16) 0.41709(7) 0.25320(11)
C14 C 1.0632(13) 0.4625(6) 0.4647(11)
C15 C 1.0054(15) 0.5030(6) 0.5381(11)
C16 C 0.9167(14) 0.5454(6) 0.4899(11)
Br6 Br 0.85191(17) 0.59731(7) 0.58347(12)
C17 C 0.8781(16) 0.5551(7) 0.3714(11)
C18 C 0.9331(14) 0.5131(6) 0.2972(11)
C19 C 1.068(2) 0.605(1) 0.0600(17)
H1 H 1.11640 0.60130 0.13820
C20 C 1.1477(12) 0.6198(6) -0.0147(9)
C21 C 1.2739(13) 0.6481(6) 0.0291(8)
H2 H 1.30630 0.65540 0.10840
C22 C 1.3528(11) 0.6656(6) -0.0433(11)
H3 H 1.43910 0.68490 -0.01340
C23 C 1.3055(13) 0.6549(6) -0.1594(11)
H4 H 1.35940 0.66690 -0.20890
C24 C 1.1793(13) 0.6267(6) -0.2032(8)
H5 H 1.14700 0.61940 -0.28250
C25 C 1.1004(11) 0.6091(6) -0.1308(10)
H6 H 1.01420 0.58980 -0.16070
C26 C 0.846(3) 0.7227(7) 0.8935(18)
H7 H 0.84230 0.68540 0.86210
C27 C 0.974(2) 0.7503(9) 0.9320(19)
H8 H 1.05770 0.73180 0.92680
C28 C 0.9806(18) 0.8049(9) 0.9780(18)
H9 H 1.06810 0.82380 1.00420
C29 C 0.859(2) 0.8320(7) 0.9855(17)
H10 H 0.86300 0.86930 1.01690
C30 C 0.7308(19) 0.8044(9) 0.9470(18)
H11 H 0.64750 0.82280 0.95220
C31 C 0.725(2) 0.7497(9) 0.9010(18)
H12 H 0.63710 0.73090 0.87470
N1 N 0.5832(19) 0.4079(8) 0.4819(13)
C32 C 0.563(3) 0.4719(14) 0.423(2)
C33 C 0.430(3) 0.5042(13) 0.426(2)
C34 C 0.429(3) 0.5568(11) 0.390(2)
C35 C 0.307(4) 0.599(2) 0.381(3)
C36 C 0.434(3) 0.3789(14) 0.428(3)
C37 C 0.443(3) 0.3185(14) 0.452(3)
C38 C 0.306(3) 0.2888(14) 0.419(3)
C39 C 0.288(3) 0.2306(15) 0.430(3)
C40 C 0.601(3) 0.4147(13) 0.604(2)
C41 C 0.719(3) 0.4391(13) 0.675(3)
C42 C 0.754(3) 0.4341(9) 0.798(2)
C43 C 0.850(4) 0.4632(17) 0.883(3)
C44 C 0.756(6) 0.340(2) 0.423(5)
C45 C 0.683(5) 0.370(2) 0.320(4)
C46 C 0.816(4) 0.3273(15) 0.319(3)
C47 C 0.656(4) 0.3908(16) 0.398(3)
C48? C 0.477(4) 0.4500(15) 0.455(3)
C49? C 0.525(3) 0.5038(15) 0.420(3)
C50? C 0.456(5) 0.608(2) 0.361(4)
C51? C 0.704(4) 0.3770(18) 0.452(4)
Cr1* Cr 0.1897(2) 0.43191(10) -0.31352(18)
Cr1A Cr 0.8103(2) 0.93191(10) 0.31352(18)
O1* O 1.2359(10) 0.4500(4) 0.8505(7)
O2* O 1.3318(10) 0.4909(4) 0.6893(8)
O3A O 1.0594(9) 0.3691(4) 0.6954(7)
O4A O 1.3251(9) 0.3687(4) 0.7172(7)
#END
