
#######################################################################
#
#                 Cambridge Crystallographic Data Centre
#                                CCDC
#
#######################################################################
#
# If this CIF has been generated from an entry in the Cambridge
# Structural Database, then it will include bibliographic, chemical,
# crystal, experimental, refinement or atomic coordinate data resulting
# from the CCDC's data processing and validation procedures.
#
#######################################################################

data_CSD_CIF_FOJYUB
_audit_creation_date 2019-05-29
_audit_creation_method CSD-ConQuest-V1
_database_code_CSD FOJYUB
_database_code_depnum_ccdc_archive 'CCDC 1909316'
_chemical_formula_sum 'C48 H48 Cl6 Cr1 Mn1 N1 O14'
_chemical_formula_moiety
;
(C25 H6 Cl6 Cr1 Mn1 O13 1-)n,C16 H36 N1 1+,C7 H6 O1
;
_journal_coden_Cambridge 580
_journal_volume 170
_journal_year 2019
_journal_page_first 122
_journal_name_full 'Polyhedron '
loop_
_publ_author_name
"C.Martinez-Hernandez"
"S.Benmansour"
"C.J.G.Garcia"
_chemical_name_systematic
;
catena-[tetra-n-butylammonium 
tris(\m-2,5-dichloro-3,6-dioxocyclohexa-2,5-diene-1,4-diolato)-(benzaldehyde)-
chromium(iii)-manganese(ii) benzaldehyde]
;
_cell_volume   2628.564
_exptl_crystal_colour 'black'
_exptl_crystal_density_diffrn 1.494
_exptl_crystal_description 'block'
_diffrn_ambient_temperature 119.4
#These two values have been output from a single CSD field.
_refine_ls_R_factor_gt 0.0361
_refine_ls_wR_factor_gt 0.0361
_symmetry_cell_setting monoclinic
_symmetry_space_group_name_H-M 'P 21'
_symmetry_Int_Tables_number 4
loop_
_symmetry_equiv_pos_site_id
_symmetry_equiv_pos_as_xyz
1 x,y,z
2 -x,1/2+y,-z
_cell_length_a 9.7273(2)
_cell_length_b 23.3255(5)
_cell_length_c 11.8406(2)
_cell_angle_alpha 90
_cell_angle_beta 101.927(2)
_cell_angle_gamma 90
_cell_formula_units_Z 2
loop_
_atom_type_symbol
_atom_type_radius_bond
C 0.68
H 0.23
Cl 0.99
Cr 1.39
Mn 1.61
N 0.68
O 0.68
loop_
_atom_site_label
_atom_site_type_symbol
_atom_site_fract_x
_atom_site_fract_y
_atom_site_fract_z
Cr1 Cr -0.28554(5) 0.56680(2) 0.71591(4)
O1 O -0.2412(2) 0.55036(9) 0.88295(17)
O2 O -0.1368(2) 0.50997(9) 0.71665(17)
O3 O -0.4265(2) 0.50610(9) 0.67757(18)
O4 O -0.3203(2) 0.57437(9) 0.54656(17)
O5 O -0.4236(2) 0.62738(9) 0.72568(19)
O6 O -0.1557(2) 0.63231(10) 0.73996(19)
Mn1 Mn 0.30474(6) 0.40251(2) 1.15817(4)
O7 O 0.1947(2) 0.40464(11) 0.97884(18)
O8 O 0.1162(3) 0.45834(10) 1.15059(19)
O9 O 0.4751(3) 0.40999(13) 1.0479(2)
C1 C -0.0743(4) 0.50340(14) 1.0267(3)
Cl1 Cl -0.14630(11) 0.52981(4) 1.13917(7)
C2 C -0.1362(3) 0.51686(14) 0.9145(3)
C3 C -0.0775(3) 0.49168(13) 0.8165(3)
C4 C 0.0286(4) 0.45227(14) 0.8374(3)
Cl2 Cl 0.08568(10) 0.41850(4) 0.72512(7)
C5 C 0.0951(4) 0.43855(14) 0.9522(3)
C6 C 0.0453(4) 0.46856(14) 1.0527(3)
C7 C -0.5530(3) 0.45207(14) 0.5219(3)
Cl3 Cl -0.61888(9) 0.40521(4) 0.61040(6)
C8 C -0.4651(3) 0.49591(13) 0.5687(3)
C9 C -0.4057(3) 0.53669(14) 0.4916(3)
C10 C -0.4436(3) 0.53212(14) 0.3744(3)
Cl4 Cl -0.37868(10) 0.57995(4) 0.28483(7)
C11 C -0.5338(3) 0.48830(15) 0.3231(3)
C12 C -0.5914(3) 0.44490(14) 0.4007(3)
O10 O -0.5740(3) 0.48051(11) 0.21743(18)
O11 O -0.6678(3) 0.40680(11) 0.35101(18)
C13 C -0.4457(3) 0.72717(14) 0.7527(3)
Cl5 Cl -0.62740(9) 0.72464(4) 0.73807(8)
C14 C -0.3712(3) 0.67787(14) 0.7434(3)
C15 C -0.2125(3) 0.68037(15) 0.7552(3)
C16 C -0.1420(3) 0.73147(15) 0.7798(3)
Cl6 Cl 0.03910(9) 0.73318(4) 0.79559(8)
C17 C -0.2150(3) 0.78201(15) 0.7961(3)
C18 C -0.3765(3) 0.77948(14) 0.7807(3)
O12 O -0.1598(3) 0.82936(10) 0.8230(2)
O13 O -0.4344(3) 0.82525(10) 0.7965(2)
C19 C 0.5992(5) 0.3969(2) 1.0763(4)
H1 H 0.6416(5) 0.3962(2) 1.1561(4)
C20 C 0.6844(4) 0.38250(17) 0.9936(4)
C21 C 0.8115(4) 0.35323(17) 1.0338(4)
H2 H 0.8463(4) 0.34876(17) 1.1144(4)
C22 C 0.8848(5) 0.33119(19) 0.9570(4)
H3 H 0.9687(5) 0.31008(19) 0.9839(4)
C23 C 0.8357(5) 0.3399(2) 0.8377(4)
H4 H 0.8850(5) 0.3235(2) 0.7842(4)
C24 C 0.7175(5) 0.37167(19) 0.7986(4)
H5 H 0.6877(5) 0.37915(19) 0.7184(4)
C25 C 0.6397(4) 0.39345(19) 0.8774(3)
H6 H 0.5572(4) 0.41544(19) 0.8506(3)
O14 O 0.9794(5) 0.2055(2) 0.8752(5)
C26 C 1.0912(7) 0.1822(3) 0.9254(5)
H7 H 1.0852(7) 0.1471(3) 0.9649(5)
C27 C 1.2285(6) 0.2056(2) 0.9266(4)
C28 C 1.3416(6) 0.1706(2) 0.9604(4)
H8 H 1.3289(6) 0.1326(2) 0.9850(4)
C29 C 1.4777(6) 0.1911(2) 0.9587(4)
H9 H 1.5573(6) 0.1667(2) 0.9789(4)
C30 C 1.4921(7) 0.2478(2) 0.9266(4)
H10 H 1.5829(7) 0.2628(2) 0.9268(4)
C31 C 1.3764(6) 0.2820(2) 0.8947(4)
H11 H 1.3884(6) 0.3207(2) 0.8732(4)
C32 C 1.2437(7) 0.2620(2) 0.8932(4)
H12 H 1.1640(7) 0.2860(2) 0.8699(4)
N1 N 0.1115(3) 0.59526(13) 0.4951(3)
C33 C -0.0238(4) 0.62634(15) 0.4403(3)
H13 H -0.0403(4) 0.62103(15) 0.3556(3)
H14 H -0.1029(4) 0.60798(15) 0.4674(3)
C34 C -0.0260(4) 0.69002(16) 0.4655(3)
H15 H 0.0052(4) 0.69669(16) 0.5495(3)
H16 H 0.0393(4) 0.71035(16) 0.4254(3)
C35 C -0.1740(5) 0.71303(17) 0.4247(4)
H17 H -0.2053(5) 0.70517(17) 0.3411(4)
H18 H -0.2384(5) 0.69267(17) 0.4657(4)
C36 C -0.1831(6) 0.7769(2) 0.4454(5)
H19 H -0.2801(6) 0.7898(2) 0.4178(5)
H20 H -0.1541(6) 0.7848(2) 0.5282(5)
H21 H -0.1210(6) 0.7973(2) 0.4036(5)
C37 C 0.1056(4) 0.53457(16) 0.4456(3)
H22 H 0.1112(4) 0.53724(16) 0.3633(3)
H23 H 0.1898(4) 0.51346(16) 0.4860(3)
C38 C -0.0220(4) 0.50001(15) 0.4540(3)
H24 H -0.0339(4) 0.49968(15) 0.5350(3)
H25 H -0.1063(4) 0.51806(15) 0.4061(3)
C39 C -0.0088(5) 0.43847(17) 0.4133(3)
H26 H 0.0074(5) 0.43903(17) 0.3335(3)
H27 H 0.0736(5) 0.42008(17) 0.4633(3)
C40 C -0.1397(5) 0.4032(2) 0.4164(4)
H28 H -0.1271(5) 0.3641(2) 0.3898(4)
H29 H -0.1551(5) 0.4019(2) 0.4956(4)
H30 H -0.2212(5) 0.4208(2) 0.3658(4)
C41 C 0.1198(4) 0.59370(16) 0.6256(3)
H31 H 0.1198(4) 0.63369(16) 0.6536(3)
H32 H 0.0335(4) 0.57507(16) 0.6398(3)
C42 C 0.2455(4) 0.56309(17) 0.6975(3)
H33 H 0.2383(4) 0.52143(17) 0.6814(3)
H34 H 0.3330(4) 0.57737(17) 0.6769(3)
C43 C 0.2503(4) 0.57380(17) 0.8258(3)
H35 H 0.2666(4) 0.61512(17) 0.8425(3)
H36 H 0.1582(4) 0.56359(17) 0.8435(3)
C44 C 0.3649(5) 0.5393(2) 0.9034(4)
H37 H 0.3639(5) 0.5475(2) 0.9844(4)
H38 H 0.3482(5) 0.4983(2) 0.8884(4)
H39 H 0.4565(5) 0.5498(2) 0.8874(4)
C45 C 0.2404(4) 0.62646(18) 0.4731(4)
H40 H 0.2480(4) 0.66344(18) 0.5149(4)
H41 H 0.3243(4) 0.60347(18) 0.5072(4)
C46 C 0.2453(5) 0.6386(2) 0.3481(4)
H42 H 0.2561(5) 0.6024(2) 0.3074(4)
H43 H 0.1570(5) 0.6574(2) 0.3087(4)
C47 C 0.3720(6) 0.6787(2) 0.3466(6)
H44 H 0.4566(6) 0.6620(2) 0.3970(6)
H45 H 0.3892(6) 0.6800(2) 0.2671(6)
C48 C 0.3526(8) 0.7396(3) 0.3864(6)
H46 H 0.4365(8) 0.7623(3) 0.3831(6)
H47 H 0.2706(8) 0.7569(3) 0.3359(6)
H48 H 0.3381(8) 0.7389(3) 0.4659(6)
Mn1* Mn -0.69526(6) 0.40251(2) 0.15817(4)
Mn1A Mn -0.30474(6) 0.90251(2) 0.84183(4)
O10* O 0.4260(3) 0.48051(11) 1.21743(18)
O11* O 0.3322(3) 0.40680(11) 1.35101(18)
O12A O 0.1598(3) 0.32936(10) 1.1770(2)
O13A O 0.4344(3) 0.32525(10) 1.2035(2)
#END
