
#######################################################################
#
#                 Cambridge Crystallographic Data Centre
#                                CCDC
#
#######################################################################
#
# If this CIF has been generated from an entry in the Cambridge
# Structural Database, then it will include bibliographic, chemical,
# crystal, experimental, refinement or atomic coordinate data resulting
# from the CCDC's data processing and validation procedures.
#
#######################################################################

data_CSD_CIF_FOJZAI
_audit_creation_date 2019-05-29
_audit_creation_method CSD-ConQuest-V1
_database_code_CSD FOJZAI
_database_code_depnum_ccdc_archive 'CCDC 1909317'
_chemical_formula_sum 'C48 H48 Br6 Cr1 Mn1 N1 O14'
_chemical_formula_moiety
;
(C25 H6 Br6 Cr1 Mn1 O13 1-)n,C16 H36 N1 1+,C7 H6 O1
;
_journal_coden_Cambridge 580
_journal_volume 170
_journal_year 2019
_journal_page_first 122
_journal_name_full 'Polyhedron '
loop_
_publ_author_name
"C.Martinez-Hernandez"
"S.Benmansour"
"C.J.G.Garcia"
_chemical_name_systematic
;
catena-[tetra-n-butylammonium 
tris(\m-2,5-dibromo-3,6-dioxocyclohexa-2,5-diene-1,4-diolato)-(benzaldehyde)-c
hromium(iii)-manganese(ii) benzenealdehyde]
;
_cell_volume   2711.431
_exptl_crystal_colour 'black'
_exptl_crystal_density_diffrn 1.761
_exptl_crystal_description 'block'
_diffrn_ambient_temperature 121
#These two values have been output from a single CSD field.
_refine_ls_R_factor_gt 0.0601
_refine_ls_wR_factor_gt 0.0601
_symmetry_cell_setting monoclinic
_symmetry_space_group_name_H-M 'P 21'
_symmetry_Int_Tables_number 4
loop_
_symmetry_equiv_pos_site_id
_symmetry_equiv_pos_as_xyz
1 x,y,z
2 -x,1/2+y,-z
_cell_length_a 9.9474(2)
_cell_length_b 23.1114(6)
_cell_length_c 12.1907(3)
_cell_angle_alpha 90
_cell_angle_beta 104.656(2)
_cell_angle_gamma 90
_cell_formula_units_Z 2
loop_
_atom_type_symbol
_atom_type_radius_bond
C 0.68
H 0.23
Br 1.21
Cr 1.39
Mn 1.61
N 0.68
O 0.68
loop_
_atom_site_label
_atom_site_type_symbol
_atom_site_fract_x
_atom_site_fract_y
_atom_site_fract_z
Cr1 Cr 0.80782(16) 0.56812(6) 0.31408(13)
O1 O 0.6637(7) 0.5089(2) 0.3114(5)
O2 O 0.7641(7) 0.5501(3) 0.1513(5)
O3 O 0.9390(6) 0.6314(3) 0.3052(5)
O4 O 0.6735(6) 0.6324(3) 0.2840(6)
O5 O 0.9507(6) 0.5076(3) 0.3555(5)
O6 O 0.8453(6) 0.5761(2) 0.4806(5)
Mn1 Mn 0.78095(15) 0.90067(5) 0.13196(12)
O7 O 0.4123(7) 0.4545(3) -0.1202(5)
O8 O 0.3319(7) 0.4028(3) 0.0445(5)
O9 O 0.9444(8) 0.9067(3) 0.0286(6)
C1 C 0.4983(10) 0.4509(4) 0.1878(8)
Br1 Br 0.43995(12) 0.41435(3) 0.30472(8)
C2 C 0.6053(9) 0.4914(4) 0.2128(8)
C3 C 0.6619(9) 0.5156(3) 0.1166(7)
C4 C 0.6014(9) 0.5016(4) 0.0057(7)
Br2 Br 0.67966(12) 0.52810(3) -0.10949(8)
C5 C 0.4809(9) 0.4663(4) -0.0236(7)
C6 C 0.4312(10) 0.4376(4) 0.0743(8)
C7 C 0.9461(8) 0.7302(4) 0.2571(7)
Br3 Br 1.14138(10) 0.73160(3) 0.28101(11)
C8 C 0.8815(9) 0.6795(4) 0.2743(8)
C9 C 0.7223(9) 0.6801(4) 0.2552(8)
C10 C 0.6474(9) 0.7291(4) 0.2185(9)
Br4 Br 0.45219(10) 0.72713(4) 0.19472(12)
C11 C 0.7104(9) 0.7799(4) 0.1918(8)
C12 C 0.8717(10) 0.7794(4) 0.2153(8)
O10 O 0.6508(7) 0.8241(3) 0.1521(6)
O11 O 0.9216(7) 0.8272(3) 0.1917(6)
C13 C 1.0789(9) 0.4532(4) 0.5101(8)
Br5 Br 1.14518(11) 0.40076(3) 0.41949(8)
C14 C 0.9915(9) 0.4963(4) 0.4631(8)
C15 C 0.9327(9) 0.5387(4) 0.5354(7)
C16 C 0.9750(9) 0.5339(4) 0.6526(7)
Br6 Br 0.90763(11) 0.58645(3) 0.74539(8)
C17 C 1.0633(10) 0.4894(4) 0.7033(8)
C18 C 1.1192(11) 0.4465(4) 0.6291(8)
O12 O 1.1029(7) 0.4811(3) 0.8082(5)
O13 O 1.1957(7) 0.4070(3) 0.6800(5)
C19 C 1.0741(12) 0.8953(5) 0.0592(10)
H1 H 1.1190(12) 0.8953(5) 0.1378(10)
C20 C 1.1547(11) 0.8826(4) -0.0191(10)
C21 C 1.3548(11) 0.8340(5) -0.0489(11)
H2 H 1.4399(11) 0.8140(5) -0.0202(11)
C22 C 1.2801(12) 0.8542(4) 0.0252(10)
H3 H 1.3138(12) 0.8487(4) 0.1047(10)
C23 C 1.3076(12) 0.8426(5) -0.1607(11)
H4 H 1.3599(12) 0.8283(5) -0.2102(11)
C24 C 1.1811(12) 0.8726(5) -0.2074(11)
H5 H 1.1484(12) 0.8789(5) -0.2867(11)
C25 C 1.1103(10) 0.8915(4) -0.1344(8)
H6 H 1.0258(10) 0.9119(4) -0.1634(8)
O14 O 0.4796(14) 0.7012(7) 0.910(2)
C26 C 0.541(3) 0.7369(9) 0.851(2)
H7 H 0.485(3) 0.7543(9) 0.785(2)
C27 C 0.7357(12) 0.7553(2) 0.8940(13)
C28 C 0.7250(12) 0.7010(3) 0.9399(13)
H8 H 0.6363(12) 0.6861(3) 0.9411(13)
C29 C 0.8439(13) 0.6684(4) 0.9839(10)
H9 H 0.8365(13) 0.6313(4) 1.0152(10)
C30 C 0.9735(12) 0.6902(5) 0.9820(11)
H10 H 1.0548(12) 0.6679(5) 1.0121(11)
C31 C 0.9843(12) 0.7446(5) 0.9362(12)
H11 H 1.0729(12) 0.7595(5) 0.9350(12)
C32 C 0.8654(14) 0.7771(3) 0.8922(11)
H12 H 0.8727(14) 0.8143(3) 0.8609(11)
N1 N 0.4159(9) 0.5932(4) 0.5205(8)
C33 C 0.3900(17) 0.5878(7) 0.3974(14)
H13 H 0.3956(17) 0.6276(7) 0.3686(14)
H14 H 0.4705(17) 0.5665(7) 0.3837(14)
C34 C 0.2740(15) 0.5633(6) 0.3273(15)
H15 H 0.2758(15) 0.5217(6) 0.3473(15)
H16 H 0.1927(15) 0.5802(6) 0.3483(15)
C35 C 0.2457(15) 0.5662(6) 0.2061(10)
H17 H 0.2248(15) 0.6075(6) 0.1879(10)
H18 H 0.3364(15) 0.5588(6) 0.1893(10)
C36 C 0.149(2) 0.5359(7) 0.1225(17)
H19 H 0.157(2) 0.5483(7) 0.0475(17)
H20 H 0.169(2) 0.4943(7) 0.1315(17)
H21 H 0.055(2) 0.5437(7) 0.1300(17)
C37 C 0.5478(16) 0.6269(6) 0.5738(14)
H22 H 0.5693(16) 0.6217(6) 0.6571(14)
H23 H 0.6253(16) 0.6097(6) 0.5476(14)
C38 C 0.544(2) 0.6863(8) 0.551(2)
C39 C 0.700(3) 0.7095(9) 0.589(2)
H24 H 0.738(3) 0.7070(9) 0.673(2)
H25 H 0.762(3) 0.6889(9) 0.551(2)
C40 C 0.678(3) 0.7636(9) 0.554(2)
H26 H 0.766(3) 0.7849(9) 0.572(2)
H27 H 0.637(3) 0.7641(9) 0.472(2)
H28 H 0.613(3) 0.7820(9) 0.593(2)
C41 C 0.4283(18) 0.5313(7) 0.5736(15)
H29 H 0.4258(18) 0.5356(7) 0.6538(15)
H30 H 0.3437(18) 0.5096(7) 0.5349(15)
C42 C 0.541(2) 0.4970(7) 0.5718(11)
H31 H 0.545(2) 0.4949(7) 0.4915(11)
H32 H 0.624(2) 0.5189(7) 0.6124(11)
C43 C 0.5594(16) 0.4419(7) 0.6123(11)
H33 H 0.5528(16) 0.4437(7) 0.6919(11)
H34 H 0.4774(16) 0.4197(7) 0.5701(11)
C44 C 0.673(2) 0.4083(9) 0.6128(19)
H35 H 0.662(2) 0.3705(9) 0.6460(19)
H36 H 0.680(2) 0.4031(9) 0.5349(19)
H37 H 0.757(2) 0.4274(9) 0.6578(19)
C45 C 0.290(2) 0.6227(7) 0.5543(17)
C46 C 0.310(3) 0.6335(10) 0.679(2)
C47 C 0.192(3) 0.6749(9) 0.691(2)
C48 C 0.103(6) 0.7258(14) 0.620(6)
Mn1A Mn 0.21905(15) 0.40067(5) -0.13196(12)
Mn1A* Mn 1.21905(15) 0.40067(5) 0.86804(12)
O7A O 0.5877(7) 0.9545(3) 0.1202(5)
O8A O 0.6681(7) 0.9028(3) -0.0445(5)
O12A O 0.8971(7) 0.9811(3) 0.1918(5)
O13A O 0.8043(7) 0.9070(3) 0.3200(5)
#END
