
#######################################################################
#
#                 Cambridge Crystallographic Data Centre
#                                CCDC
#
#######################################################################
#
# If this CIF has been generated from an entry in the Cambridge
# Structural Database, then it will include bibliographic, chemical,
# crystal, experimental, refinement or atomic coordinate data resulting
# from the CCDC's data processing and validation procedures.
#
#######################################################################

data_CSD_CIF_FOKKIB
_audit_creation_date 2014-06-09
_audit_creation_method CSD-ConQuest-V1
_database_code_CSD FOKKIB
_database_code_depnum_ccdc_archive 'CCDC 968472'
_chemical_formula_sum 'C30 H25 Ag2 N6 O40 P1 W12'
_chemical_formula_moiety
;
(C10 H8 Ag1 N2 1+)2n,n(C10 H9 N2 1+),n(O40 P1 W12 3-)
;
_journal_coden_Cambridge 1295
_journal_volume 44
_journal_year 2014
_journal_page_first 91
_journal_name_full 'Inorg.Chem.Commun. '
loop_
_publ_author_name
"He Zhang"
"Kai Yu"
"Song Gao"
"Chunmei Wang"
"Chunxiao Wang"
"Haiyan Wang"
"Baibin Zhou"
_chemical_name_systematic
;
catena-[bis((\m~2~-4,4'-bipyridine)-silver) 4-(pyridin-4-yl)pyridinium 
(\m~12~-phosphato)-tetracosakis(\m~2~-oxo)-dodecaoxo-dodeca-tungsten]
;
_cell_volume   2845.856
_exptl_crystal_colour 'blue'
_exptl_crystal_density_diffrn 4.231
_exptl_crystal_description 'block'
_diffrn_ambient_temperature 293
#These two values have been output from a single CSD field.
_refine_ls_R_factor_gt 0.0415
_refine_ls_wR_factor_gt 0.0415
_symmetry_cell_setting monoclinic
_symmetry_space_group_name_H-M 'P 21/c'
_symmetry_Int_Tables_number 14
loop_
_symmetry_equiv_pos_site_id
_symmetry_equiv_pos_as_xyz
1 x,y,z
2 -x,1/2+y,1/2-z
3 -x,-y,-z
4 x,-1/2-y,-1/2+z
_cell_length_a 11.834(1)
_cell_length_b 22.0811(19)
_cell_length_c 11.5723(9)
_cell_angle_alpha 90
_cell_angle_beta 109.761(1)
_cell_angle_gamma 90
_cell_formula_units_Z 2
loop_
_atom_type_symbol
_atom_type_radius_bond
C 0.68
H 0.23
Ag 1.45
N 0.68
O 0.68
P 1.05
W 1.62
loop_
_atom_site_label
_atom_site_type_symbol
_atom_site_fract_x
_atom_site_fract_y
_atom_site_fract_z
W1 W 0.10934(6) 0.39691(3) 0.24856(6)
W2 W 0.31292(6) 0.46516(3) 0.12086(6)
W3 W -0.20230(7) 0.43276(3) 0.12966(7)
W4 W 0.10335(6) 0.35459(3) -0.04940(7)
W5 W -0.20928(7) 0.38868(4) -0.16928(7)
W6 W 0.00862(7) 0.54252(4) 0.29968(7)
P1 P 0.00000 0.50000 0.00000
O1 O 0.2533(13) 0.4290(6) 0.2377(12)
O2 O 0.2484(13) 0.3974(6) 0.0162(12)
O3 O 0.0988(12) 0.3471(6) 0.1109(12)
O4 O -0.2953(12) 0.3988(6) 0.1881(14)
O5 O -0.3066(12) 0.3359(6) -0.2462(13)
O6 O 0.0106(13) 0.5627(6) 0.4375(11)
O7 O -0.2247(18) 0.3833(6) -0.0135(12)
O8 O 0.1531(13) 0.2855(6) -0.0716(14)
O9 O 0.1594(15) 0.3473(7) 0.3675(13)
O10 O -0.1333(13) 0.4950(7) 0.2401(17)
O11 O 0.4591(12) 0.4492(9) 0.1798(13)
O12 O 0.3045(19) 0.5091(6) -0.0229(13)
O13 O -0.0653(14) 0.3447(10) -0.1059(14)
O14 O 0.3061(19) 0.5402(7) 0.1962(13)
O15 O -0.0604(12) 0.3883(7) 0.2065(17)
O16 O 0.1244(17) 0.5200(9) 0.0249(19)
O17 O 0.0866(16) 0.4543(9) 0.0520(19)
O18 O 0.016(2) 0.5566(10) 0.091(2)
O19 O -0.0133(16) 0.4746(8) 0.1157(18)
O20 O 0.0945(13) 0.4680(7) 0.3314(18)
O21 O 0.1448(12) 0.5791(10) 0.2828(16)
O22 O 0.0823(15) 0.3948(9) -0.1953(16)
Ag1 Ag 0.1900(3) 0.1973(2) 0.1585(4)
N1 N 0.3632(16) 0.2415(9) 0.2970(17)
C1 C 0.4323(19) 0.2089(10) 0.3987(18)
H1 H 0.39400 0.17870 0.42770
C2 C 0.422(2) 0.287(1) 0.2673(19)
H2 H 0.37860 0.31170 0.20240
C3 C 0.5447(19) 0.3011(9) 0.3256(17)
H3 H 0.57960 0.33400 0.30030
C4 C 0.6115(19) 0.2644(9) 0.4216(17)
C5 C 0.5521(19) 0.2175(9) 0.4599(17)
H4 H 0.59350 0.19270 0.52550
C6 C 0.7368(18) 0.2736(9) 0.4797(17)
C7 C 0.8037(18) 0.2533(9) 0.5983(17)
H5 H 0.76340 0.23480 0.64530
C8 C 0.8046(19) 0.3041(9) 0.4197(18)
H6 H 0.76670 0.31910 0.34090
C9 C 0.9246(19) 0.2597(9) 0.6468(18)
H7 H 0.96530 0.24310 0.72340
C10 C 0.9241(19) 0.3121(9) 0.4738(17)
H8 H 0.96540 0.33390 0.43210
N2 N 0.9869(16) 0.2894(8) 0.5872(16)
C11 C 0.486(3) 0.0848(17) 0.035(4)
H9 H 0.55280 0.09970 0.01870
C12 C 0.365(4) 0.0004(13) 0.044(4)
H10 H 0.34310 -0.04010 0.03030
C13 C 0.298(3) 0.0402(17) 0.087(4)
H11 H 0.23020 0.02470 0.09930
C14 C 0.420(3) 0.1254(13) 0.069(4)
H12 H 0.43290 0.16690 0.06630
C15 C 0.466(4) 0.0235(16) 0.020(4)
N3 N 0.322(3) 0.0993(17) 0.112(4)
O16B O -0.1244(17) 0.4800(9) -0.0249(19)
O17B O -0.0866(16) 0.5457(9) -0.0520(19)
O18B O -0.016(2) 0.4434(10) -0.091(2)
O19B O 0.0133(16) 0.5254(8) -0.1157(18)
W1B W -0.10934(6) 0.60309(3) -0.24856(6)
W2B W -0.31292(6) 0.53484(3) -0.12086(6)
W3B W 0.20230(7) 0.56724(3) -0.12966(7)
W4B W -0.10335(6) 0.64541(3) 0.04940(7)
W5B W 0.20928(7) 0.61132(4) 0.16928(7)
W6B W -0.00862(7) 0.45748(4) -0.29968(7)
O1B O -0.2533(13) 0.5710(6) -0.2377(12)
O2B O -0.2484(13) 0.6026(6) -0.0162(12)
O3B O -0.0988(12) 0.6529(6) -0.1109(12)
O4B O 0.2953(12) 0.6012(6) -0.1881(14)
O5B O 0.3066(12) 0.6641(6) 0.2462(13)
O6B O -0.0106(13) 0.4373(6) -0.4375(11)
O7B O 0.2247(18) 0.6167(6) 0.0135(12)
O8B O -0.1531(13) 0.7145(6) 0.0716(14)
O9B O -0.1594(15) 0.6527(7) -0.3675(13)
O10B O 0.1333(13) 0.5050(7) -0.2401(17)
O11B O -0.4591(12) 0.5508(9) -0.1798(13)
O12B O -0.3045(19) 0.4909(6) 0.0229(13)
O13B O 0.0653(14) 0.6553(10) 0.1059(14)
O14B O -0.3061(19) 0.4598(7) -0.1962(13)
O15B O 0.0604(12) 0.6117(7) -0.2065(17)
O20B O -0.0945(13) 0.5320(7) -0.3314(18)
O21B O -0.1448(12) 0.4209(10) -0.2828(16)
O22B O -0.0823(15) 0.6052(9) 0.1953(16)
Ag1C Ag 1.1900(3) 0.3027(2) 0.6585(4)
N2C N -0.0131(16) 0.2106(8) 0.0872(16)
C11B C 0.514(3) -0.0848(17) -0.035(4)
H9B H 0.44720 -0.09970 -0.01870
C12B C 0.635(4) -0.0004(13) -0.044(4)
H10B H 0.65690 0.04010 -0.03030
C13B C 0.702(3) -0.0402(17) -0.087(4)
H11B H 0.76980 -0.02470 -0.09930
C14B C 0.580(3) -0.1254(13) -0.069(4)
H12B H 0.56710 -0.16690 -0.06630
C15B C 0.534(4) -0.0235(16) -0.020(4)
N3B N 0.678(3) -0.0993(17) -0.112(4)
#END
