
#######################################################################
#
#                 Cambridge Crystallographic Data Centre
#                                CCDC
#
#######################################################################
#
# If this CIF has been generated from an entry in the Cambridge
# Structural Database, then it will include bibliographic, chemical,
# crystal, experimental, refinement or atomic coordinate data resulting
# from the CCDC's data processing and validation procedures.
#
#######################################################################

data_CSD_CIF_FOLKUO
_audit_creation_date 2014-06-10
_audit_creation_method CSD-ConQuest-V1
_database_code_CSD FOLKUO
_database_code_depnum_ccdc_archive 'CCDC 1007588'
_chemical_formula_sum 'C20 H29 Ag6 La1 N8 O55 W12'
_chemical_formula_moiety
;
(C20 H26 Ag6 La1 N8 O54 W12 1-)n,n(H3 O1 1+)
;
_journal_coden_Cambridge 1295
_journal_volume 45
_journal_year 2014
_journal_page_first 33
_journal_name_full 'Inorg.Chem.Commun. '
loop_
_publ_author_name
"Yan Lv"
"Ya-Guang Chen"
"Xiao-Min Li"
_chemical_name_systematic
;
catena-(Oxonium 
bis(\m~3~-pyrazine-2-carboxylato-N,N',O,O,O')-bis(\m~3~-pyrazine-2-carboxylato
-N,N',O,O')-bis(\m~3~-hydroxo)-hexakis(\m~3~-oxo)-triacontakis(\m~2~-oxo)-hexa
;
_cell_volume   5949.488
_exptl_crystal_colour 'colorless'
_exptl_crystal_density_diffrn 4.743
_exptl_special_details
;
The protons associated with the anion have been arbitrarily assigned to 
hydroxo groups
;
_exptl_crystal_description 'block'
_diffrn_ambient_temperature 296
_refine_special_details
;
OW2 and OW2' disordered over two sites with occupancies 0.34:0.33.

;
#These two values have been output from a single CSD field.
_refine_ls_R_factor_gt 0.0902
_refine_ls_wR_factor_gt 0.0902
_symmetry_cell_setting monoclinic
_symmetry_space_group_name_H-M 'C 2/c'
_symmetry_Int_Tables_number 15
loop_
_symmetry_equiv_pos_site_id
_symmetry_equiv_pos_as_xyz
1 x,y,z
2 -x,y,1/2-z
3 1/2+x,1/2+y,z
4 1/2-x,1/2+y,1/2-z
5 -x,-y,-z
6 x,-y,-1/2+z
7 -1/2-x,-1/2-y,-z
8 -1/2+x,-1/2-y,-1/2+z
_cell_length_a 18.872(3)
_cell_length_b 17.080(3)
_cell_length_c 20.678(4)
_cell_angle_alpha 90
_cell_angle_beta 116.796(4)
_cell_angle_gamma 90
_cell_formula_units_Z 4
loop_
_atom_type_symbol
_atom_type_radius_bond
C 0.68
H 0.23
Ag 1.45
La 2.07
N 0.68
O 0.68
W 1.62
loop_
_atom_site_label
_atom_site_type_symbol
_atom_site_fract_x
_atom_site_fract_y
_atom_site_fract_z
W1 W 0.35937(9) 0.03908(8) 0.66527(8)
W2 W 0.68346(9) -0.10027(8) 0.74866(8)
W3 W 0.55145(9) 0.03362(8) 0.65680(8)
W4 W 0.39939(9) -0.11665(8) 0.56339(7)
W5 W 0.63350(9) -0.25577(8) 0.84480(7)
W6 W 0.53502(9) -0.24881(9) 0.64382(8)
La1 La 0.50000 0.55662(14) 0.25000
O1 O 0.1869(18) -0.0776(19) 0.2365(16)
H1 H 0.22090 -0.11270 0.22720
H2 H 0.17790 -0.03140 0.20740
O2 O 0.2834(19) -0.2049(18) 0.2583(17)
H3 H 0.28310 -0.24790 0.23750
H4 H 0.31570 -0.17160 0.25600
O3 O 0.3290(13) -0.1993(12) 0.5635(12)
O4 O 0.3515(13) -0.0962(13) 0.4702(12)
O5 O 0.6126(14) -0.1724(13) 0.6754(12)
O6 O 0.6462(14) -0.0171(13) 0.6721(13)
O7 O 0.5792(17) -0.2808(15) 0.7448(13)
O8 O 0.3882(14) 0.0964(13) 0.7519(12)
O9 O 0.6849(15) -0.1716(15) 0.8161(13)
O10 O 0.5583(15) -0.3079(13) 0.8650(12)
O11 O 0.7025(18) -0.3252(17) 0.8744(15)
O12 O 0.5751(18) -0.3190(18) 0.6102(16)
O13 O 0.4596(16) -0.1675(14) 0.6699(14)
O14 O 0.5504(14) 0.1100(14) 0.5990(12)
O15 O 0.5769(14) -0.0459(13) 0.7486(11)
O16 O 0.4564(15) 0.0661(15) 0.6668(13)
O17 O 0.099(2) 0.1636(19) 0.3153(18)
O18 O 0.4875(15) -0.0434(14) 0.5931(13)
O19 O 0.2945(16) 0.1066(17) 0.6045(16)
O20 O 0.7719(16) -0.1210(16) 0.7463(14)
O21 O 0.469(3) 0.595(3) 0.338(3)
O22 O 0.4701(14) -0.1961(13) 0.5552(12)
O23 O 0.3513(14) -0.0446(14) 0.5995(13)
O24 O 0.7218(13) -0.0153(13) 0.8163(12)
O25 O 0.455(3) 0.705(3) 0.370(3)
O26 O 0.131(2) 0.043(2) 0.3403(19)
Ag1 Ag 0.25033(19) -0.04128(17) 0.36419(16)
Ag2 Ag 0.3554(2) 0.36491(17) 0.46193(18)
Ag3 Ag 0.3611(2) -0.21539(19) 0.4052(2)
C1 C 0.248(2) 0.216(2) 0.413(2)
H5 H 0.20860 0.25340 0.39110
C2 C 0.232(2) 0.137(2) 0.400(2)
C3 C 0.360(2) 0.101(2) 0.4729(19)
H6 H 0.39960 0.06270 0.49360
C4 C 0.147(2) 0.110(2) 0.3481(19)
C5 C 0.412(2) 0.524(2) 0.427(2)
H7 H 0.43980 0.49120 0.41070
C6 C 0.341(2) 0.625(2) 0.475(2)
H8 H 0.31480 0.65850 0.49300
C7 C 0.343(3) 0.543(3) 0.493(2)
H9 H 0.32160 0.52560 0.52260
C8 C 0.409(2) 0.604(2) 0.4111(19)
C9 C 0.378(3) 0.186(3) 0.488(2)
H10 H 0.42920 0.20130 0.51830
C10 C 0.450(3) 0.637(3) 0.375(3)
N1 N 0.376(2) 0.492(2) 0.4667(17)
N2 N 0.370(2) 0.654(2) 0.440(2)
N3 N 0.285(2) 0.081(3) 0.4281(18)
N4 N 0.3233(18) 0.2372(16) 0.4597(15)
O27 O 0.536(2) 0.4468(19) 0.206(2)
H11 H 0.49100 0.43090 0.16160
H12 H 0.54990 0.40530 0.24060
O28 O 0.00000 0.289(4) 0.25000
O29? O 0.009(3) 0.274(3) 0.199(3)
W1A W 0.64063(9) 0.03908(8) -0.16527(8)
W2A W 0.31654(9) -0.10027(8) -0.24866(8)
W3A W 0.44855(9) 0.03362(8) -0.15680(8)
W4A W 0.60061(9) -0.11665(8) -0.06339(7)
W5A W 0.36650(9) -0.25577(8) -0.34480(7)
W6A W 0.46498(9) -0.24881(9) -0.14382(8)
O1A O 0.8131(18) -0.0776(19) 0.2635(16)
H1A H 0.77910 -0.11270 0.27280
H2A H 0.82210 -0.03140 0.29260
O2A O 0.7166(19) -0.2049(18) 0.2417(17)
H3A H 0.71690 -0.24790 0.26250
H4A H 0.68430 -0.17160 0.24400
O3A O 0.6710(13) -0.1993(12) -0.0635(12)
O4A O 0.6485(13) -0.0962(13) 0.0298(12)
O5A O 0.3874(14) -0.1724(13) -0.1754(12)
O6A O 0.3538(14) -0.0171(13) -0.1721(13)
O7A O 0.4208(17) -0.2808(15) -0.2448(13)
O8A O 0.6118(14) 0.0964(13) -0.2519(12)
O9A O 0.3151(15) -0.1716(15) -0.3161(13)
O10A O 0.4417(15) -0.3079(13) -0.3650(12)
O11A O 0.2975(18) -0.3252(17) -0.3744(15)
O12A O 0.4249(18) -0.3190(18) -0.1102(16)
O13A O 0.5404(16) -0.1675(14) -0.1699(14)
O14A O 0.4496(14) 0.1100(14) -0.0990(12)
O15A O 0.4231(14) -0.0459(13) -0.2486(11)
O16A O 0.5436(15) 0.0661(15) -0.1668(13)
O17A O 0.901(2) 0.1636(19) 0.1847(18)
O18A O 0.5125(15) -0.0434(14) -0.0931(13)
O19A O 0.7055(16) 0.1066(17) -0.1045(16)
O20A O 0.2281(16) -0.1210(16) -0.2463(14)
O21A O 0.531(3) 0.595(3) 0.162(3)
O22A O 0.5299(14) -0.1961(13) -0.0552(12)
O23A O 0.6487(14) -0.0446(14) -0.0995(13)
O24A O 0.2782(13) -0.0153(13) -0.3163(12)
O25A O 0.545(3) 0.705(3) 0.130(3)
O26A O 0.869(2) 0.043(2) 0.1597(19)
Ag1A Ag 0.74967(19) -0.04128(17) 0.13581(16)
Ag2A Ag 0.6446(2) 0.36491(17) 0.03807(18)
Ag3A Ag 0.6389(2) -0.21539(19) 0.0948(2)
C1A C 0.752(2) 0.216(2) 0.087(2)
H5A H 0.79140 0.25340 0.10890
C2A C 0.768(2) 0.137(2) 0.100(2)
C3A C 0.640(2) 0.101(2) 0.0271(19)
H6A H 0.60040 0.06270 0.00640
C4A C 0.853(2) 0.110(2) 0.1519(19)
C5A C 0.588(2) 0.524(2) 0.073(2)
H7A H 0.56020 0.49120 0.08930
C6A C 0.659(2) 0.625(2) 0.025(2)
H8A H 0.68520 0.65850 0.00700
C7A C 0.657(3) 0.543(3) 0.007(2)
H9A H 0.67840 0.52560 -0.02260
C8A C 0.591(2) 0.604(2) 0.0889(19)
C9A C 0.622(3) 0.186(3) 0.012(2)
H10A H 0.57080 0.20130 -0.01830
C10A C 0.550(3) 0.637(3) 0.125(3)
N1A N 0.624(2) 0.492(2) 0.0333(17)
N2A N 0.630(2) 0.654(2) 0.060(2)
N3A N 0.715(2) 0.081(3) 0.0719(18)
N4A N 0.6767(18) 0.2372(16) 0.0403(15)
O27A O 0.464(2) 0.4468(19) 0.294(2)
H11A H 0.50900 0.43090 0.33840
H12A H 0.45010 0.40530 0.25940
W1* W 0.35937(9) 0.03908(8) -0.33473(8)
W1A* W 0.64063(9) 0.03908(8) 0.83473(8)
W3* W 0.55145(9) 0.03362(8) -0.34320(8)
W3A* W 0.44855(9) 0.03362(8) 0.84320(8)
W5* W 0.63350(9) -0.25577(8) -0.15520(7)
W5A* W 0.36650(9) -0.25577(8) 0.65520(7)
W6* W 0.53502(9) -0.24881(9) -0.35618(8)
W6A* W 0.46498(9) -0.24881(9) 0.85618(8)
La1B La 0.00000 0.05662(14) 0.25000
La1B* La 1.00000 0.05662(14) 0.25000
O3* O 0.3290(13) -0.1993(12) -0.4365(12)
O3A* O 0.6710(13) -0.1993(12) 0.9365(12)
O6D O 0.3538(14) 0.0171(13) 0.3279(13)
O6E O 0.6462(14) 0.0171(13) 0.1721(13)
O8* O 0.3882(14) 0.0964(13) -0.2481(12)
O8A* O 0.6118(14) 0.0964(13) 0.7481(12)
O10* O 0.5583(15) -0.3079(13) -0.1350(12)
O10A* O 0.4417(15) -0.3079(13) 0.6350(12)
O11F O 0.7975(18) -0.1748(17) 0.1256(15)
O11G O 0.2025(18) -0.1748(17) 0.3744(15)
O12D O 0.4249(18) 0.3190(18) 0.3898(16)
O12E O 0.5751(18) 0.3190(18) 0.1102(16)
O13* O 0.4596(16) -0.1675(14) -0.3301(14)
O13A* O 0.5404(16) -0.1675(14) 0.8301(14)
O14D O 0.4496(14) -0.1100(14) 0.4010(12)
O14E O 0.5504(14) -0.1100(14) 0.0990(12)
O15* O 0.5769(14) -0.0459(13) -0.2514(11)
O15A* O 0.4231(14) -0.0459(13) 0.7514(11)
O17B O 0.599(2) 0.6636(19) 0.3153(18)
O17C O 0.401(2) 0.6636(19) 0.1847(18)
O19F O 0.2055(16) 0.3934(17) 0.3955(16)
O19G O 0.7945(16) 0.3934(17) 0.1045(16)
O24* O 0.7218(13) -0.0153(13) -0.1837(12)
O24A* O 0.2782(13) -0.0153(13) 0.6837(12)
O25* O 0.455(3) -0.295(3) 0.370(3)
O25A* O 0.545(3) -0.295(3) 0.130(3)
O26B O 0.631(2) 0.543(2) 0.3403(19)
O26C O 0.369(2) 0.543(2) 0.1597(19)
Ag1D Ag 0.74967(19) 0.04128(17) 0.63581(16)
Ag1E Ag 0.25033(19) 0.04128(17) -0.13581(16)
Ag1F Ag 0.24967(19) -0.45872(17) -0.36419(16)
Ag1G Ag 0.75033(19) -0.45872(17) 0.86419(16)
Ag2D Ag 0.6446(2) -0.36491(17) 0.53807(18)
Ag2E Ag 0.3554(2) -0.36491(17) -0.03807(18)
Ag2F Ag 0.1446(2) 0.13509(17) 0.53807(18)
Ag2G Ag 0.8554(2) 0.13509(17) -0.03807(18)
Ag3* Ag 0.3611(2) 0.78461(19) 0.4052(2)
Ag3A* Ag 0.6389(2) 0.78461(19) 0.0948(2)
Ag3D Ag 0.6389(2) 0.21539(19) 0.5948(2)
Ag3E Ag 0.3611(2) 0.21539(19) -0.0948(2)
N2* N 0.370(2) -0.346(2) 0.440(2)
N2A* N 0.630(2) -0.346(2) 0.060(2)
#END
