
#######################################################################
#
#                 Cambridge Crystallographic Data Centre
#                                CCDC
#
#######################################################################
#
# If this CIF has been generated from an entry in the Cambridge
# Structural Database, then it will include bibliographic, chemical,
# crystal, experimental, refinement or atomic coordinate data resulting
# from the CCDC's data processing and validation procedures.
#
#######################################################################

data_CSD_CIF_FOMWOV
_audit_creation_date 2014-11-05
_audit_creation_method CSD-ConQuest-V1
_database_code_CSD FOMWOV
_database_code_depnum_ccdc_archive 'CCDC 1016000'
_chemical_formula_sum 'C142 H180 N24 O62 Zn4'
_chemical_formula_moiety
;
(C90 H32 N6 O36 Zn4 2-)n,16(C3 H7 N1 O1),2(C2 H8 N1 1+),10(H2 O1)
;
_journal_coden_Cambridge 182
_journal_volume 50
_journal_year 2014
_journal_page_first 15807
_journal_name_full 'Chem.Commun. '
loop_
_publ_author_name
"Di-Chang Zhong"
"Lie-Qiang Liao"
"Ji-Hua Deng"
"Qing Chen"
"Ping Lian"
"Xu-Zhong Luo"
_chemical_name_systematic
;
catena-(bis(dimethylammonium) bis(\m-hydrogen 
5,5'-(1,3,6,8-tetraoxo-1,3,6,8-tetrahydrobenzo[lmn][3,8]phenanthroline-2,7-diy
l)diisophthalato)-(\m-5,5'-(1,3,6,8-tetraoxo-1,3,6,8-tetrahydrobenzo[lmn][3,8]
phenanthroline-2,7-diyl)diisophthalato)-tetra-zinc N,N-dimethylformamide 
solvate decahydrate)
;
_cell_volume  13647.803
_exptl_crystal_colour 'deep yellow'
_exptl_crystal_description 'block'
_diffrn_ambient_temperature 293
_refine_special_details
;
A number of solvent molecules and water molecules were not modelled and the 
disordered density was taken into account using the SQUEEZE/PLATON procedure.
;
#These two values have been output from a single CSD field.
_refine_ls_R_factor_gt 0.0783
_refine_ls_wR_factor_gt 0.0783
_symmetry_cell_setting monoclinic
_symmetry_space_group_name_H-M 'C 2/c'
_symmetry_Int_Tables_number 15
loop_
_symmetry_equiv_pos_site_id
_symmetry_equiv_pos_as_xyz
1 x,y,z
2 -x,y,1/2-z
3 1/2+x,1/2+y,z
4 1/2-x,1/2+y,1/2-z
5 -x,-y,-z
6 x,-y,-1/2+z
7 -1/2-x,-1/2-y,-z
8 -1/2+x,-1/2-y,-1/2+z
_cell_length_a 38.596(8)
_cell_length_b 15.279(3)
_cell_length_c 23.600(5)
_cell_angle_alpha 90
_cell_angle_beta 101.29(3)
_cell_angle_gamma 90
_cell_formula_units_Z 4
loop_
_atom_type_symbol
_atom_type_radius_bond
C 0.68
H 0.23
N 0.68
O 0.68
Zn 1.22
loop_
_atom_site_label
_atom_site_type_symbol
_atom_site_fract_x
_atom_site_fract_y
_atom_site_fract_z
Zn1 Zn 0.256031(15) 0.87902(5) 0.37174(3)
Zn2 Zn 0.186819(15) 0.99616(5) 0.30468(3)
C1 C 0.20455(15) 0.7681(4) 0.2122(2)
C2 C 0.22564(14) 0.6967(4) 0.2087(2)
H1 H 0.24630 0.68910 0.23600
C3 C 0.21646(15) 0.6362(4) 0.1650(2)
C4 C 0.18606(15) 0.6485(4) 0.1246(3)
H2 H 0.17930 0.60780 0.09520
C5 C 0.16590(16) 0.7203(5) 0.1277(3)
C6 C 0.17420(15) 0.7800(5) 0.1704(3)
H3 H 0.15980 0.82840 0.17170
C7 C 0.21391(15) 0.8328(4) 0.2605(3)
C8 C 0.23834(17) 0.5565(4) 0.1630(3)
C9 C 0.13757(19) 0.7909(5) 0.0381(3)
C10 C 0.10614(16) 0.8102(4) -0.0056(3)
C11 C 0.10838(19) 0.8676(5) -0.0483(3)
H4 H 0.12970 0.89470 -0.04990
C12 C 0.0777(2) 0.8860(5) -0.0906(3)
H5 H 0.07910 0.92510 -0.12030
C13 C 0.04616(18) 0.8463(5) -0.0881(3)
C14 C 0.01518(19) 0.8611(5) -0.1330(3)
C15 C -0.01907(19) 0.7609(7) -0.0842(3)
C16 C 0.01206(17) 0.7450(6) -0.0393(3)
C17 C 0.01065(18) 0.6891(7) 0.0052(3)
H6 H -0.01040 0.66140 0.00780
C18 C 0.0411(2) 0.6736(7) 0.0470(3)
H7 H 0.03980 0.63630 0.07760
C19 C 0.07219(17) 0.7112(5) 0.0441(3)
C20 C 0.10351(19) 0.6895(6) 0.0884(3)
C21 C 0.07485(16) 0.7694(5) 0.0000(3)
C22 C 0.04397(16) 0.7878(5) -0.0427(3)
C23 C -0.04383(15) 0.8145(5) -0.1801(3)
C24 C -0.04172(16) 0.7557(5) -0.2234(3)
H8 H -0.02250 0.71810 -0.22020
C25 C -0.06838(15) 0.7532(4) -0.2713(3)
C26 C -0.09611(15) 0.8123(5) -0.2746(3)
H9 H -0.11450 0.81100 -0.30660
C27 C -0.09690(15) 0.8718(5) -0.2322(3)
C28 C -0.07017(16) 0.8740(5) -0.1841(3)
H10 H -0.07020 0.91520 -0.15510
C29 C -0.0668(2) 0.6911(5) -0.3185(3)
C30 C -0.1267(2) 0.9385(7) -0.2394(4)
C31 C 0.16767(12) 0.8696(4) 0.4540(2)
C32 C 0.13454(14) 0.9025(4) 0.4554(3)
H11 H 0.12410 0.94380 0.42840
C33 C 0.11724(13) 0.8730(5) 0.4977(3)
C34 C 0.13239(14) 0.8143(4) 0.5384(3)
H12 H 0.12030 0.79600 0.56670
C35 C 0.16572(13) 0.7817(4) 0.5378(2)
C36 C 0.18301(13) 0.8113(4) 0.4951(2)
H13 H 0.20560 0.79080 0.49460
C37 C 0.18668(14) 0.9014(4) 0.4086(2)
C38 C 0.18316(14) 0.7195(4) 0.5818(3)
C39 C 0.05400(16) 0.8763(5) 0.4597(3)
C40 C 0.01998(15) 0.9168(4) 0.4593(3)
C41 C -0.00882(17) 0.8897(5) 0.4202(3)
H14 H -0.00670 0.84660 0.39330
C42 C 0.04246(15) 1.0710(5) 0.5786(3)
H15 H 0.06220 1.08780 0.60580
C43 C 0.04578(14) 1.0106(4) 0.5390(3)
C44 C 0.08136(15) 0.9736(5) 0.5386(3)
C45 C 0.01651(13) 0.9812(4) 0.4990(3)
N1 N 0.13421(14) 0.7355(4) 0.0833(2)
N2 N -0.01504(13) 0.8143(4) -0.1293(2)
N3 N 0.08242(12) 0.9092(4) 0.4998(2)
O1 O 0.24125(10) 0.8207(3) 0.29768(16)
O2 O 0.19257(10) 0.8947(3) 0.26049(17)
O3 O 0.22394(10) 0.4899(3) 0.13819(19)
O4 O 0.27044(11) 0.5640(3) 0.1863(2)
O5 O -0.04005(15) 0.6538(4) -0.3221(3)
O6 O -0.09545(14) 0.6864(4) -0.3558(2)
H16 H -0.09310 0.65090 -0.38090
O7 O -0.15213(12) 0.9221(3) -0.2786(2)
O8 O -0.1244(2) 1.0018(6) -0.2094(4)
O9 O 0.10388(13) 0.6392(5) 0.1270(2)
O10 O 0.16563(14) 0.8231(4) 0.0363(2)
O11 O 0.01544(15) 0.9119(4) -0.1718(2)
O12 O -0.04707(14) 0.7283(5) -0.0828(2)
O13 O 0.21646(10) 0.8702(3) 0.40931(19)
O14 O 0.17253(10) 0.9573(3) 0.37370(18)
O15 O 0.21411(9) 0.6985(3) 0.57949(16)
O16 O 0.16765(12) 0.6913(4) 0.6185(2)
O17 O 0.10763(11) 1.0003(4) 0.5692(2)
O18 O 0.05796(12) 0.8199(4) 0.4268(3)
N4 N 0.1689(4) 0.5949(12) 0.7211(5)
H17 H 0.17970 0.60040 0.69080
H18 H 0.17740 0.54780 0.74220
C46 C 0.1721(4) 0.6830(11) 0.7598(7)
H19 H 0.15020 0.69370 0.77190
H20 H 0.17750 0.73170 0.73730
H21 H 0.19060 0.67600 0.79320
C47 C 0.1281(7) 0.591(2) 0.7017(12)
H22 H 0.11910 0.54180 0.71960
H23 H 0.12210 0.58490 0.66040
H24 H 0.11790 0.64390 0.71300
N5 N 0.2190(6) 0.0189(11) 0.1451(7)
C48 C 0.1961(5) -0.0033(14) 0.0884(9)
C49 C 0.2011(6) 0.0920(18) 0.1650(8)
O19 O 0.2761(4) -0.0098(10) 0.2146(6)
C50 C 0.2553(6) -0.0428(17) 0.1808(10)
O20 O 0.1027(3) 0.5906(7) 0.9486(3)
N6 N 0.0965(4) 0.4590(14) 0.9838(10)
C51 C 0.1305(6) 0.4671(17) 1.0223(10)
C52 C 0.0849(6) 0.5258(18) 0.9322(10)
C53 C 0.0952(8) 0.3647(19) 0.9543(12)
C31D C -0.16767(12) 1.1304(4) 0.5460(2)
C32D C -0.13454(14) 1.0975(4) 0.5446(3)
H11D H -0.12410 1.05620 0.57160
C33D C -0.11724(13) 1.1270(5) 0.5023(3)
C34D C -0.13239(14) 1.1857(4) 0.4616(3)
H12D H -0.12030 1.20400 0.43330
C35D C -0.16572(13) 1.2183(4) 0.4622(2)
C36D C -0.18301(13) 1.1887(4) 0.5049(2)
H13D H -0.20560 1.20920 0.50540
C37D C -0.18668(14) 1.0986(4) 0.5914(2)
C38D C -0.18316(14) 1.2805(4) 0.4182(3)
C39D C -0.05400(16) 1.1237(5) 0.5403(3)
C40D C -0.01998(15) 1.0832(4) 0.5407(3)
C41D C 0.00882(17) 1.1103(5) 0.5798(3)
H14D H 0.00670 1.15340 0.60670
C42D C -0.04246(15) 0.9290(5) 0.4214(3)
H15D H -0.06220 0.91220 0.39420
C43D C -0.04578(14) 0.9894(4) 0.4610(3)
C44D C -0.08136(15) 1.0264(5) 0.4614(3)
C45D C -0.01651(13) 1.0188(4) 0.5010(3)
N3D N -0.08242(12) 1.0908(4) 0.5002(2)
O13D O -0.21646(10) 1.1298(3) 0.59069(19)
O14D O -0.17253(10) 1.0427(3) 0.62630(18)
O15D O -0.21411(9) 1.3015(3) 0.42051(16)
O16D O -0.16765(12) 1.3087(4) 0.3815(2)
O17D O -0.10763(11) 0.9997(4) 0.4308(2)
O18D O -0.05796(12) 1.1801(4) 0.5732(3)
Zn1D Zn -0.256031(15) 1.12098(5) -0.37174(3)
Zn2D Zn -0.186819(15) 1.00384(5) -0.30468(3)
C1D C -0.20455(15) 1.2319(4) -0.2122(2)
C2D C -0.22564(14) 1.3033(4) -0.2087(2)
H1D H -0.24630 1.31090 -0.23600
C3D C -0.21646(15) 1.3638(4) -0.1650(2)
C4D C -0.18606(15) 1.3515(4) -0.1246(3)
H2D H -0.17930 1.39220 -0.09520
C5D C -0.16590(16) 1.2797(5) -0.1277(3)
C6D C -0.17420(15) 1.2200(5) -0.1704(3)
H3D H -0.15980 1.17160 -0.17170
C7D C -0.21391(15) 1.1672(4) -0.2605(3)
C8D C -0.23834(17) 1.4435(4) -0.1630(3)
C9D C -0.13757(19) 1.2091(5) -0.0381(3)
C10D C -0.10614(16) 1.1898(4) 0.0056(3)
C11D C -0.10838(19) 1.1324(5) 0.0483(3)
H4D H -0.12970 1.10530 0.04990
C12D C -0.0777(2) 1.1140(5) 0.0906(3)
H5D H -0.07910 1.07490 0.12030
C13D C -0.04616(18) 1.1537(5) 0.0881(3)
C14D C -0.01518(19) 1.1389(5) 0.1330(3)
C15D C 0.01907(19) 1.2391(7) 0.0842(3)
C16D C -0.01206(17) 1.2550(6) 0.0393(3)
C17D C -0.01065(18) 1.3109(7) -0.0052(3)
H6D H 0.01040 1.33860 -0.00780
C18D C -0.0411(2) 1.3264(7) -0.0470(3)
H7D H -0.03980 1.36370 -0.07760
C19D C -0.07219(17) 1.2888(5) -0.0441(3)
C20D C -0.10351(19) 1.3105(6) -0.0884(3)
C21D C -0.07485(16) 1.2306(5) 0.0000(3)
C22D C -0.04397(16) 1.2122(5) 0.0427(3)
C23D C 0.04383(15) 1.1855(5) 0.1801(3)
C24D C 0.04172(16) 1.2443(5) 0.2234(3)
H8D H 0.02250 1.28190 0.22020
C25D C 0.06838(15) 1.2468(4) 0.2713(3)
C26D C 0.09611(15) 1.1877(5) 0.2746(3)
H9D H 0.11450 1.18900 0.30660
C27D C 0.09690(15) 1.1282(5) 0.2322(3)
C28D C 0.07017(16) 1.1260(5) 0.1841(3)
H10D H 0.07020 1.08480 0.15510
C29D C 0.0668(2) 1.3089(5) 0.3185(3)
C30D C 0.1267(2) 1.0615(7) 0.2394(4)
N1D N -0.13421(14) 1.2645(4) -0.0833(2)
N2D N 0.01504(13) 1.1857(4) 0.1293(2)
O1D O -0.24125(10) 1.1793(3) -0.29768(16)
O2D O -0.19257(10) 1.1053(3) -0.26049(17)
O3D O -0.22394(10) 1.5101(3) -0.13819(19)
O4D O -0.27044(11) 1.4360(3) -0.1863(2)
O5D O 0.04005(15) 1.3462(4) 0.3221(3)
O6D O 0.09545(14) 1.3136(4) 0.3558(2)
H16D H 0.09310 1.34910 0.38090
O7D O 0.15213(12) 1.0779(3) 0.2786(2)
O8D O 0.1244(2) 0.9982(6) 0.2094(4)
O9D O -0.10388(13) 1.3608(5) -0.1270(2)
O10D O -0.16563(14) 1.1769(4) -0.0363(2)
O11D O -0.01544(15) 1.0881(4) 0.1718(2)
O12D O 0.04707(14) 1.2717(5) 0.0828(2)
Zn1B Zn -0.243969(15) 1.37902(5) 0.37174(3)
Zn1C Zn 0.243969(15) 0.37902(5) 0.12826(3)
Zn1D* Zn -0.256031(15) 1.12098(5) 0.62826(3)
Zn1F Zn 0.243969(15) 0.62098(5) 0.62826(3)
Zn1G Zn -0.243969(15) 1.62098(5) -0.12826(3)
Zn2C Zn 0.313181(15) 0.49616(5) 0.19532(3)
Zn2D* Zn -0.186819(15) 1.00384(5) 0.69532(3)
Zn2G Zn -0.313181(15) 1.50384(5) -0.19532(3)
O3C O 0.27606(10) 0.9899(3) 0.36181(19)
O3G O -0.27606(10) 1.0101(3) -0.36181(19)
O4C O 0.22956(11) 1.0640(3) 0.3137(2)
O4G O -0.22956(11) 0.9360(3) -0.3137(2)
O13D* O -0.21646(10) 1.1298(3) -0.40931(19)
O14D* O -0.17253(10) 1.0427(3) -0.37370(18)
O15B O -0.28589(9) 1.1985(3) -0.42051(16)
O15F O 0.28589(9) 0.8015(3) 0.42051(16)
#END
