
#######################################################################
#
#                 Cambridge Crystallographic Data Centre
#                                CCDC
#
#######################################################################
#
# If this CIF has been generated from an entry in the Cambridge
# Structural Database, then it will include bibliographic, chemical,
# crystal, experimental, refinement or atomic coordinate data resulting
# from the CCDC's data processing and validation procedures.
#
#######################################################################

data_CSD_CIF_FOMZOY
_audit_creation_date 2014-11-05
_audit_creation_method CSD-ConQuest-V1
_database_code_CSD FOMZOY
_database_code_depnum_ccdc_archive 'CCDC 1018646'
_chemical_formula_sum 'C32 H62 Fe2 Mg1 N4 O43 U2'
_chemical_formula_moiety
;
(C24 H24 Fe2 Mg1 O36 U2 4-)n,2n(C4 H12 N2 2+),7n(H2 O1)
;
_journal_coden_Cambridge 222
_journal_volume 44
_journal_year 2015
_journal_page_first 2597
_journal_name_full 'Dalton Trans. '
loop_
_publ_author_name
"M.Basile"
"D.K.Unruh"
"E.Flores"
"A.Johns"
"T.Z.Forbes"
_chemical_name_systematic
;
catena-[bis(piperazinediium) 
tetrakis(\m-citrato)-tetraaqua-tetraoxo-di-iron-magnesium-di-uranium 
heptahydrate]
;
_cell_volume   1364.489
_exptl_crystal_colour 'dark  yellow'
_exptl_crystal_description 'blade'
_diffrn_ambient_temperature 100
_refine_special_details
;
C15A,C15B,C16A,C16B,N2A,N2B disordered by symmetry over two configurations 
with occupancy 0.5; O20A and O20B disordered over two sites with occupancies 
0.5:0.5; O21A and O21B disordered over two sites with occupancies 0.5:0.5.
;
#These two values have been output from a single CSD field.
_refine_ls_R_factor_gt 0.0346
_refine_ls_wR_factor_gt 0.0346
_symmetry_cell_setting triclinic
_symmetry_space_group_name_H-M 'P -1'
_symmetry_Int_Tables_number 2
loop_
_symmetry_equiv_pos_site_id
_symmetry_equiv_pos_as_xyz
1 x,y,z
2 -x,-y,-z
_cell_length_a 9.2106(6)
_cell_length_b 9.8799(7)
_cell_length_c 15.1866(10)
_cell_angle_alpha 84.120(2)
_cell_angle_beta 88.101(2)
_cell_angle_gamma 83.115(2)
_cell_formula_units_Z 1
loop_
_atom_type_symbol
_atom_type_radius_bond
C 0.68
H 0.23
Fe 1.52
Mg 1.41
N 0.68
O 0.68
U 1.96
loop_
_atom_site_label
_atom_site_type_symbol
_atom_site_fract_x
_atom_site_fract_y
_atom_site_fract_z
U1 U 0.98101(2) 0.31775(2) 0.09550(2)
Fe1 Fe 1.24040(9) 0.17535(7) 0.25732(5)
Mg1 Mg 1.00000 0.50000 0.50000
O1 O 1.1661(5) 0.3262(4) 0.3363(2)
O2 O 1.0540(5) 0.2912(4) 0.5021(2)
H1 H 1.095(7) 0.285(7) 0.444(2)
H2 H 0.980(6) 0.232(6) 0.513(4)
O3 O 1.2216(4) 0.3184(4) 0.1571(2)
O4 O 1.2248(4) 0.0478(4) 0.3667(3)
O5 O 1.4394(4) 0.2322(4) 0.2619(3)
O6 O 1.0469(4) 0.1543(4) 0.2188(2)
O7 O 1.1004(5) 0.5332(4) 0.3765(3)
O8 O 0.8172(5) 0.1445(4) 0.1399(3)
O9 O 1.1454(5) -0.1195(4) 0.4516(3)
O10 O 1.3206(5) 0.0136(4) 0.1958(3)
O11 O 1.1184(5) 0.5127(4) 0.0321(3)
O12 O 1.0597(5) 0.2090(4) 0.0173(3)
O13 O 1.1969(5) 0.5060(5) 0.5595(3)
H3 H 1.201(8) 0.575(5) 0.598(3)
H4 H 1.244(3) 0.543(6) 0.5075(18)
O14 O 0.9012(4) 0.4288(4) 0.1727(2)
O15 O 1.2656(5) 0.6558(4) -0.0240(3)
O16 O 0.7604(6) -0.0474(5) 0.2177(4)
O17 O 1.5404(6) 0.4238(5) 0.2468(4)
O18 O 1.3262(7) -0.1957(5) 0.1656(5)
C1 C 1.1276(6) -0.0347(5) 0.3876(3)
C2 C 0.9977(7) 0.0236(5) 0.2357(4)
C3 C 0.9885(6) -0.0191(6) 0.3360(3)
H5 H 0.91780 0.04940 0.36270
H6 H 0.94710 -0.10760 0.34460
C4 C 1.2565(8) -0.0905(6) 0.1843(4)
C5 C 1.0906(8) -0.0818(6) 0.1837(4)
H7 H 1.06350 -0.17330 0.20590
H8 H 1.06060 -0.06410 0.12110
C6 C 0.8445(8) 0.0403(6) 0.1961(4)
C7 C 1.4439(7) 0.3564(6) 0.2329(4)
C8 C 1.2430(6) 0.5608(6) 0.0321(4)
C9 C 1.3616(6) 0.4985(6) 0.0948(4)
H9 H 1.41670 0.57220 0.11090
H10 H 1.43050 0.43360 0.06380
C10 C 1.3067(7) 0.4238(6) 0.1788(4)
C11 C 1.1554(6) 0.4561(5) 0.3221(3)
C12 C 1.2122(7) 0.5219(6) 0.2362(4)
H11 H 1.27080 0.59470 0.24950
H12 H 1.12770 0.56650 0.20110
O19 O 1.2238(5) 0.7108(4) 0.6609(3)
H13 H 1.138(4) 0.715(7) 0.698(4)
H14 H 1.308(4) 0.665(7) 0.693(4)
O20 O 0.6879(18) -0.2628(16) 0.3261(11)
O21 O 1.4161(13) 0.6110(13) 0.4129(8)
O22 O 1.6585(12) 0.6560(11) 0.1770(7)
N1 N 1.4931(7) 0.9088(6) 0.4344(4)
H15 H 1.53680 0.83010 0.40320
H16 H 1.39700 0.94250 0.40810
C13 C 1.4114(7) 0.9819(8) 0.5780(4)
H17 H 1.31270 1.01760 0.55620
H18 H 1.40220 0.95140 0.64190
C14 C 1.4717(8) 0.8629(7) 0.5293(4)
H19 H 1.56630 0.82150 0.55480
H20 H 1.40320 0.79240 0.53570
N2 N 0.5631(12) -0.0387(11) 0.0852(7)
H21 H 0.47960 -0.06950 0.12150
H22 H 0.64960 -0.04920 0.12340
C15 C 0.5931(17) -0.1232(15) 0.0114(10)
H23 H 0.60820 -0.22100 0.03490
H24 H 0.68430 -0.10030 -0.01990
C16 C 0.5295(18) 0.1017(18) 0.0525(11)
H25 H 0.61770 0.13500 0.02290
H26 H 0.50250 0.15640 0.10290
N3 N 0.5563(9) 0.0582(10) 0.0744(6)
H27 H 0.62400 0.11490 0.09870
H28 H 0.49520 0.02120 0.12390
C17 C 0.5402(13) -0.1456(10) -0.0072(7)
H29 H 0.59900 -0.22010 -0.03600
H30 H 0.47900 -0.18780 0.04030
C18 C 0.642(1) -0.0572(9) 0.0326(6)
H31 H 0.70360 -0.11460 0.07760
H32 H 0.70740 -0.02010 -0.01460
O23? O 0.6100(18) -0.3057(16) 0.3448(11)
O24? O 1.4382(13) 0.5129(13) 0.4397(8)
U1A U 1.01899(2) 0.68225(2) -0.09550(2)
Fe1A Fe 0.75960(9) 0.82465(7) -0.25732(5)
O1A O 0.8339(5) 0.6738(4) -0.3363(2)
O3A O 0.7784(4) 0.6816(4) -0.1571(2)
O4A O 0.7752(4) 0.9522(4) -0.3667(3)
O5A O 0.5606(4) 0.7678(4) -0.2619(3)
O6A O 0.9531(4) 0.8457(4) -0.2188(2)
O7A O 0.8996(5) 0.4668(4) -0.3765(3)
O8A O 1.1828(5) 0.8555(4) -0.1399(3)
O9A O 0.8546(5) 1.1195(4) -0.4516(3)
O10A O 0.6794(5) 0.9864(4) -0.1958(3)
O11A O 0.8816(5) 0.4873(4) -0.0321(3)
O12A O 0.9403(5) 0.7910(4) -0.0173(3)
O14A O 1.0988(4) 0.5712(4) -0.1727(2)
O15A O 0.7344(5) 0.3442(4) 0.0240(3)
O16A O 1.2396(6) 1.0474(5) -0.2177(4)
O17A O 0.4596(6) 0.5762(5) -0.2468(4)
O18A O 0.6738(7) 1.1957(5) -0.1656(5)
C1A C 0.8724(6) 1.0347(5) -0.3876(3)
C2A C 1.0023(7) 0.9764(5) -0.2357(4)
C3A C 1.0115(6) 1.0191(6) -0.3360(3)
H5A H 1.08220 0.95060 -0.36270
H6A H 1.05290 1.10760 -0.34460
C4A C 0.7435(8) 1.0905(6) -0.1843(4)
C5A C 0.9094(8) 1.0818(6) -0.1837(4)
H7A H 0.93650 1.17330 -0.20590
H8A H 0.93940 1.06410 -0.12110
C6A C 1.1555(8) 0.9597(6) -0.1961(4)
C7A C 0.5561(7) 0.6436(6) -0.2329(4)
C8A C 0.7570(6) 0.4392(6) -0.0321(4)
C9A C 0.6384(6) 0.5015(6) -0.0948(4)
H9A H 0.58330 0.42780 -0.11090
H10A H 0.56950 0.56640 -0.06380
C10A C 0.6933(7) 0.5762(6) -0.1788(4)
C11A C 0.8446(6) 0.5439(5) -0.3221(3)
C12A C 0.7878(7) 0.4781(6) -0.2362(4)
H11A H 0.72920 0.40530 -0.24950
H12A H 0.87230 0.43350 -0.20110
O2A O 0.9460(5) 0.7088(4) 0.4979(2)
H1A H 0.905(7) 0.715(7) 0.556(2)
H2A H 1.020(6) 0.768(6) 0.487(4)
O13A O 0.8031(5) 0.4940(5) 0.4405(3)
H3A H 0.799(8) 0.425(5) 0.402(3)
H4A H 0.756(3) 0.457(6) 0.4925(18)
Mg1* Mg 1.00000 0.50000 -0.50000
O7A* O 0.8996(5) 0.4668(4) 0.6235(3)
N1A N 1.5069(7) 1.0912(6) 0.5656(4)
H15A H 1.46320 1.16990 0.59680
H16A H 1.60300 1.05750 0.59190
C13A C 1.5886(7) 1.0181(8) 0.4220(4)
H17A H 1.68730 0.98240 0.44380
H18A H 1.59780 1.04860 0.35810
C14A C 1.5283(8) 1.1371(7) 0.4707(4)
H19A H 1.43370 1.17850 0.44520
H20A H 1.59680 1.20760 0.46430
N2A N 0.4369(12) 0.0387(11) -0.0852(7)
H21A H 0.52040 0.06950 -0.12150
H22A H 0.35040 0.04920 -0.12340
C15A C 0.4069(17) 0.1232(15) -0.0114(10)
H23A H 0.39180 0.22100 -0.03490
H24A H 0.31570 0.10030 0.01990
C16A C 0.4705(18) -0.1017(18) -0.0525(11)
H25A H 0.38230 -0.13500 -0.02290
H26A H 0.49750 -0.15640 -0.10290
N3A N 0.4437(9) -0.0582(10) -0.0744(6)
H27A H 0.37600 -0.11490 -0.09870
H28A H 0.50480 -0.02120 -0.12390
C17A C 0.4598(13) 0.1456(10) 0.0072(7)
H29A H 0.40100 0.22010 0.03600
H30A H 0.52100 0.18780 -0.04030
C18A C 0.358(1) 0.0572(9) -0.0326(6)
H31A H 0.29640 0.11460 -0.07760
H32A H 0.29260 0.02010 0.01460
#END
