
#######################################################################
#
#                 Cambridge Crystallographic Data Centre
#                                CCDC
#
#######################################################################
#
# If this CIF has been generated from an entry in the Cambridge
# Structural Database, then it will include bibliographic, chemical,
# crystal, experimental, refinement or atomic coordinate data resulting
# from the CCDC's data processing and validation procedures.
#
#######################################################################

data_CSD_CIF_FOPPAC
_audit_creation_date 2009-09-01
_audit_creation_method CSD-ConQuest-V1
_database_code_CSD FOPPAC
_database_code_depnum_ccdc_archive 'CCDC 703119'
_chemical_formula_sum 'C8 H21 Co2 K2 O18'
_chemical_formula_moiety
;
(K1 1+)2n,n(C8 H11 Co2 O13 2-),5n(H2 O1)
;
_journal_coden_Cambridge 580
_journal_volume 28
_journal_year 2009
_journal_page_first 917
_journal_name_full 'Polyhedron '
loop_
_publ_author_name
"Qiong-Xin Liu"
"Lu-Bin Ni"
"Fu-Pei Liang"
"Zhao-Hui Zhou"
"Hui-Lin Wan"
_chemical_name_systematic
;
catena-(dipotassium 
(\m~2~-(R)-malato)-(\m~2~-(S)-malato)-(\m~2~-hydroxo)-diaqua-cobalt(ii)-cobalt
(iii) pentahydrate)
;
_cell_volume   1939.995
_exptl_crystal_colour 'purple red'
_exptl_crystal_density_diffrn 2.059
_diffrn_ambient_temperature 296
#These two values have been output from a single CSD field.
_refine_ls_R_factor_gt 0.0902
_refine_ls_wR_factor_gt 0.0902
_symmetry_cell_setting monoclinic
_symmetry_space_group_name_H-M 'P 21/c'
_symmetry_Int_Tables_number 14
loop_
_symmetry_equiv_pos_site_id
_symmetry_equiv_pos_as_xyz
1 x,y,z
2 -x,1/2+y,1/2-z
3 -x,-y,-z
4 x,-1/2-y,-1/2+z
_cell_length_a 9.5955(5)
_cell_length_b 10.4076(6)
_cell_length_c 19.7752(11)
_cell_angle_alpha 90
_cell_angle_beta 100.784(1)
_cell_angle_gamma 90
_cell_formula_units_Z 4
loop_
_atom_type_symbol
_atom_type_radius_bond
C 0.68
H 0.07
Co 1.08
K 1.46
O 0.68
loop_
_atom_site_label
_atom_site_type_symbol
_atom_site_fract_x
_atom_site_fract_y
_atom_site_fract_z
Co1 Co 0.29471(10) -0.10099(10) 0.86633(5)
Co2 Co 0.52788(13) -0.12422(12) 1.02232(6)
K1 K 0.88964(19) 0.28958(18) 0.80219(10)
K2 K 0.0327(2) 0.2048(2) 0.61146(11)
O1 O 0.4204(5) -0.2071(5) 0.9426(2)
O2 O 0.2339(6) -0.2805(5) 0.8372(3)
O3 O 0.3037(6) -0.4798(6) 0.8419(3)
O4 O 0.6788(5) -0.2594(5) 1.0126(3)
O5 O 0.8009(6) -0.4046(6) 0.9716(3)
O6 O 0.3486(5) 0.0818(5) 0.8926(2)
O7 O 0.1589(6) -0.0067(5) 0.7905(3)
O8 O 0.1088(6) 0.1847(6) 0.7463(3)
O9 O 0.5606(5) 0.2490(5) 0.9173(3)
O10 O 0.6252(6) 0.3279(7) 0.8265(3)
O11 O 0.3899(5) -0.0027(5) 1.0236(2)
O12 O 0.4487(7) -0.1065(7) 0.8052(3)
O13 O 0.1372(6) -0.0865(6) 0.9305(3)
O14 O 0.2704(7) 0.3836(7) 0.6265(4)
O15 O 1.0482(7) 0.1571(7) 0.9321(4)
O16 O 1.0599(7) 0.4536(7) 0.8897(4)
O17 O -0.1583(7) 0.1808(7) 0.4714(4)
O18 O 0.8575(7) 0.0211(7) 0.7892(3)
C1 C 0.3146(8) -0.3702(8) 0.8636(4)
C2 C 0.4242(8) -0.3372(7) 0.9264(4)
H1 H 0.40390 -0.38720 0.96540
C3 C 0.5690(9) -0.3766(8) 0.9131(5)
H2 H 0.56800 -0.46830 0.90440
H3 H 0.58510 -0.33370 0.87170
C4 C 0.6892(8) -0.3472(7) 0.9697(4)
C5 C 0.1787(8) 0.1122(8) 0.7866(4)
C6 C 0.2963(8) 0.1690(8) 0.8406(4)
H4 H 0.25830 0.24360 0.86140
C7 C 0.4133(9) 0.2137(9) 0.8058(4)
H5 H 0.37580 0.27910 0.77250
H6 H 0.44320 0.14190 0.78070
C8 C 0.5411(8) 0.2671(8) 0.8525(4)
H7 H 0.375(7) 0.044(6) 0.988(2)
H8 H 0.514(4) -0.158(5) 0.822(2)
H9 H 0.412(2) -0.129(7) 0.7644(10)
H10 H 0.1855(18) -0.079(7) 0.9710(7)
H11 H 0.097(5) -0.160(3) 0.927(3)
H12 H 0.225(9) 0.414(7) 0.656(3)
H13 H 0.261(9) 0.432(6) 0.592(3)
H14 H 0.982(5) 0.197(7) 0.946(5)
H15 H 1.126(4) 0.198(7) 0.944(5)
H16 H 1.133(5) 0.472(9) 0.873(3)
H17 H 1.075(8) 0.469(9) 0.9327(11)
H18 H -0.243(4) 0.197(6) 0.451(5)
H19 H -0.146(8) 0.1001(16) 0.473(5)
H20 H 0.902(9) -0.050(5) 0.794(4)
H21 H 0.819(9) 0.031(7) 0.7473(14)
Co2B Co 0.47212(13) 0.12422(12) 0.97768(6)
O6B O 0.6514(5) -0.0818(5) 1.1074(2)
O9B O 0.4394(5) -0.2490(5) 1.0827(3)
O11B O 0.6101(5) 0.0027(5) 0.9764(2)
H7B H 0.625(7) -0.044(6) 1.012(2)
#END
