
#######################################################################
#
#                 Cambridge Crystallographic Data Centre
#                                CCDC
#
#######################################################################
#
# If this CIF has been generated from an entry in the Cambridge
# Structural Database, then it will include bibliographic, chemical,
# crystal, experimental, refinement or atomic coordinate data resulting
# from the CCDC's data processing and validation procedures.
#
#######################################################################

data_CSD_CIF_FOPQIL
_audit_creation_date 2009-09-01
_audit_creation_method CSD-ConQuest-V1
_database_code_CSD FOPQIL
_database_code_depnum_ccdc_archive 'CCDC 238251'
_chemical_formula_sum 'C6 H11 Mn1 N1 O8'
_chemical_formula_moiety
;
(C6 H7 Mn1 O8 1-)n,n(H4 N1 1+)
;
_journal_coden_Cambridge 211
_journal_volume 62
_journal_year 2009
_journal_page_first 778
_journal_name_full 'J.Coord.Chem. '
loop_
_publ_author_name
"Yuan-Fu Deng"
"Zhao-Hui Zhou"
_chemical_name_systematic
;
catena-(Ammonium 
(\m~3~-3-carboxy-2-(carboxymethyl)-2-hydroxypropanoato)-aqua-manganese)
;
_chemical_name_common
;
catena-(Ammonium (mu!3$-hydrogen citrato)-aqua-manganese(ii))
;
_cell_volume    974.184
_exptl_crystal_colour 'light pink'
_exptl_crystal_density_diffrn 1.91
_exptl_crystal_description 'rhombic'
_diffrn_ambient_temperature 296
#These two values have been output from a single CSD field.
_refine_ls_R_factor_gt 0.0343
_refine_ls_wR_factor_gt 0.0343
_symmetry_cell_setting monoclinic
_symmetry_space_group_name_H-M 'P 21/c'
_symmetry_Int_Tables_number 14
loop_
_symmetry_equiv_pos_site_id
_symmetry_equiv_pos_as_xyz
1 x,y,z
2 -x,1/2+y,1/2-z
3 -x,-y,-z
4 x,-1/2-y,-1/2+z
_cell_length_a 11.8952(3)
_cell_length_b 8.4967(2)
_cell_length_c 9.6999(2)
_cell_angle_alpha 90
_cell_angle_beta 96.439(1)
_cell_angle_gamma 90
_cell_formula_units_Z 4
loop_
_atom_type_symbol
_atom_type_radius_bond
C 0.68
H 0.23
Mn 1.61
N 0.68
O 0.68
loop_
_atom_site_label
_atom_site_type_symbol
_atom_site_fract_x
_atom_site_fract_y
_atom_site_fract_z
Mn1 Mn 0.19929(3) 0.10885(4) 0.02461(4)
O1 O 0.16997(13) 0.10205(17) -0.20372(17)
O2 O 0.32800(12) -0.04198(19) -0.04988(17)
O3 O 0.32243(14) -0.25822(18) -0.17937(18)
O4 O 0.09520(13) -0.10449(17) 0.00289(18)
O5 O -0.05524(12) -0.23125(18) -0.09558(18)
O6 O 0.29356(13) 0.18086(19) -0.49461(18)
O7 O 0.40886(13) 0.03494(19) -0.35177(19)
O8 O 0.2627(2) 0.0471(2) 0.2334(2)
H1 H 0.266(3) 0.099(3) 0.307(2)
H2 H 0.279(3) -0.0484(15) 0.248(3)
C1 C 0.18832(16) -0.0563(2) -0.2511(2)
C2 C 0.28862(17) -0.1255(2) -0.1524(2)
C3 C 0.08086(17) -0.1545(3) -0.2425(2)
H3 H 0.02090 -0.11160 -0.30780
H4 H 0.09530 -0.26100 -0.27200
C4 C 0.03896(16) -0.1621(2) -0.1012(2)
C5 C 0.21769(17) -0.0512(3) -0.4000(2)
H5 H 0.15150 -0.01910 -0.46110
H6 H 0.23900 -0.15580 -0.42760
C6 C 0.31436(17) 0.0627(3) -0.4157(2)
N1 N 0.49777(16) -0.2223(2) 0.1140(2)
H7 H 0.1247(19) 0.151(3) -0.262(2)
H8 H 0.4463(14) -0.166(2) 0.069(2)
H9 H 0.4684(16) -0.3082(15) 0.137(2)
H10 H 0.5246(17) -0.172(2) 0.1866(14)
H11 H 0.5499(13) -0.241(2) 0.0633(19)
Mn1B Mn -0.19929(3) -0.10885(4) -0.02461(4)
Mn1C Mn 0.19929(3) 0.39115(4) -0.47539(4)
O5B O 0.05524(12) 0.23125(18) 0.09558(18)
O6C O 0.29356(13) 0.31914(19) 0.00539(18)
#END
