
#######################################################################
#
#                 Cambridge Crystallographic Data Centre
#                                CCDC
#
#######################################################################
#
# If this CIF has been generated from an entry in the Cambridge
# Structural Database, then it will include bibliographic, chemical,
# crystal, experimental, refinement or atomic coordinate data resulting
# from the CCDC's data processing and validation procedures.
#
#######################################################################

data_CSD_CIF_FORPIM
_audit_creation_date 2009-09-01
_audit_creation_method CSD-ConQuest-V1
_database_code_CSD FORPIM
_database_code_depnum_ccdc_archive 'CCDC 692103'
_chemical_formula_sum 'C28 H48 La4 Mo12 N4 O74 Si1'
_chemical_formula_moiety
;
(C28 H44 La4 N4 O32 4+)n,n(Mo12 O40 Si1 4-),2n(H2 O1)
;
_journal_coden_Cambridge 9
_journal_volume 48
_journal_year 2009
_journal_page_first 2010
_journal_name_full 'Inorg.Chem. '
loop_
_publ_author_name
"Chun-Hong Li"
"Kun-Lin Huang"
"Ying-Nan Chi"
"Xi Liu"
"Zhan-Gang Han"
"Long Shen"
"Chang-Wen Hu"
_chemical_name_systematic
;
catena-(tetrakis(\m~3~-Pyridine-2,6-dicarboxylato)-hexadeca-aqua-tetra-lanthan
um (\m~12~-silicato)-tetracosakis(\m~2~-oxo)-dodecaoxo-dodeca-molybdenum 
dihydrate)
;
_cell_volume   7863.379
_exptl_crystal_density_diffrn 2.838
_exptl_special_details
;
photoluminescent
isostructural with the La-Ge, Ce-Si, Nd-Si, Ce-Ge and Nd-Ge analogues
;
_diffrn_ambient_temperature 298
_refine_special_details
;
The oxygen atoms attached to the central silicon atom are equally disordered 
over two sites by symmetry.
;
#These two values have been output from a single CSD field.
_refine_ls_R_factor_gt 0.0917
_refine_ls_wR_factor_gt 0.0917
_symmetry_cell_setting monoclinic
_symmetry_space_group_name_H-M 'C 2/c'
_symmetry_Int_Tables_number 15
loop_
_symmetry_equiv_pos_site_id
_symmetry_equiv_pos_as_xyz
1 x,y,z
2 -x,y,1/2-z
3 1/2+x,1/2+y,z
4 1/2-x,1/2+y,1/2-z
5 -x,-y,-z
6 x,-y,-1/2+z
7 -1/2-x,-1/2-y,-z
8 -1/2+x,-1/2-y,-1/2+z
_cell_length_a 30.863(3)
_cell_length_b 15.7425(16)
_cell_length_c 22.192(2)
_cell_angle_alpha 90
_cell_angle_beta 133.173(1)
_cell_angle_gamma 90
_cell_formula_units_Z 4
loop_
_atom_type_symbol
_atom_type_radius_bond
C 0.68
H 0.23
La 2.07
Mo 1.33
N 0.68
O 0.71
Si 1.20
loop_
_atom_site_label
_atom_site_type_symbol
_atom_site_fract_x
_atom_site_fract_y
_atom_site_fract_z
Mo1 Mo 0.50000 1.08966(16) 0.25000
Mo2 Mo 0.57571(10) 0.97667(12) 0.20901(13)
Mo3 Mo 0.57634(8) 0.75225(13) 0.20897(10)
Mo4 Mo 0.50000 0.63955(18) 0.25000
Mo5 Mo 0.37084(9) 0.97621(19) 0.09064(11)
Mo6 Mo 0.55445(7) 0.86423(10) 0.45106(9)
Mo7 Mo 0.63082(10) 0.75205(13) 0.40911(11)
O1 O 0.5392(12) 0.9500(19) 0.2714(18)
O2 O 0.5425(13) 0.7815(18) 0.2748(18)
O3 O 0.5561(13) 0.8603(18) 0.3454(17)
O4 O 0.5316(8) 1.0634(12) 0.2052(11)
O5 O 0.6039(8) 0.8652(10) 0.2212(11)
O6 O 0.5386(10) 0.6569(13) 0.2095(12)
O7 O 0.4261(8) 1.0709(14) 0.1452(11)
O8 O 0.5067(7) 0.9471(10) 0.1001(11)
O9 O 0.5052(7) 0.7787(10) 0.0992(11)
O10 O 0.5749(9) 0.6631(12) 0.3565(11)
O11 O 0.6335(8) 0.9867(13) 0.3276(11)
O12 O 0.6314(9) 0.7474(12) 0.3253(10)
O13 O 0.3389(7) 0.8629(11) 0.0666(10)
O14 O 0.3976(7) 0.9484(11) 0.0389(11)
O15 O 0.6042(7) 0.7804(11) 0.4634(10)
O16 O 0.50000 1.1947(16) 0.25000
O17 O 0.6148(7) 1.0293(11) 0.1949(9)
O18 O 0.6098(7) 0.7000(12) 0.1853(10)
O19 O 0.50000 0.5348(15) 0.25000
O20 O 0.3093(6) 1.0310(9) 0.0136(9)
O21 O 0.5794(8) 0.8642(9) 0.5445(8)
O22 O 0.6909(9) 0.6956(15) 0.4854(11)
Si1 Si 0.50000 0.8645(5) 0.25000
O23 O 0.2362(8) 0.6456(13) 0.8344(14)
H1 H 0.19900 0.64400 0.80560
H2 H 0.25370 0.65990 0.88340
La1 La 0.89008(4) 0.86284(6) 1.32831(6)
La2 La 0.83052(4) 1.12895(6) 1.48594(5)
N1 N 0.8379(7) 1.0041(9) 1.2419(9)
N2 N 1.1332(6) 0.7308(9) 1.5359(8)
O24 O 0.8757(6) 0.8858(8) 1.2033(8)
O25 O 0.8409(6) 0.9549(8) 1.0911(7)
O26 O 0.8663(6) 0.9739(8) 1.3828(8)
O27 O 0.8253(6) 1.0984(8) 1.3724(8)
O28 O 1.0596(5) 0.8521(8) 1.4316(8)
O29 O 0.9808(5) 0.7808(8) 1.3898(8)
O30 O 1.2471(5) 0.7645(8) 1.6267(7)
O31 O 1.2761(5) 0.6504(8) 1.7058(8)
O32 O 0.9740(6) 0.9759(9) 1.3764(9)
H3 H 0.97690 1.01470 1.40560
H4 H 1.00760 0.95150 1.40480
O33 O 0.8645(6) 0.7172(9) 1.2619(10)
H5 H 0.88130 0.67780 1.29770
H6 H 0.82720 0.70890 1.22580
O34 O 0.9693(7) 0.8707(11) 1.4924(9)
H7 H 0.97510 0.82260 1.51420
H8 H 0.95630 0.90730 1.50490
O35 O 0.8393(6) 0.794(1) 1.371(1)
H9 H 0.86410 0.78240 1.42230
H10 H 0.81200 0.82550 1.35920
O36 O 0.8672(6) 1.2344(8) 1.6062(7)
H11 H 0.87270 1.20590 1.64350
H12 H 0.83940 1.26960 1.58670
O37 O 0.8778(7) 0.9820(9) 1.5143(8)
H13 H 0.86610 0.95780 1.47100
H14 H 0.87400 0.94910 1.54080
O38 O 0.7453(7) 1.0279(11) 1.386(1)
H15 H 0.71980 1.02880 1.38980
H16 H 0.75710 0.97720 1.39130
O39 O 0.7448(6) 1.1611(9) 1.4797(9)
H17 H 0.73790 1.12060 1.49750
H18 H 0.71290 1.17720 1.43230
C1 C 0.8498(8) 0.9478(11) 1.1548(10)
C2 C 0.8252(8) 1.0132(11) 1.1719(11)
C3 C 0.7865(8) 1.0757(11) 1.1167(11)
H19 H 0.77870 1.08280 1.06840
C4 C 0.7588(9) 1.1287(12) 1.1326(12)
H20 H 0.73070 1.16880 1.09430
C5 C 0.7750(8) 1.1188(11) 1.2074(11)
H21 H 0.75900 1.15420 1.22150
C6 C 0.8148(8) 1.0568(11) 1.2611(10)
C7 C 0.8372(8) 1.0425(10) 1.3457(10)
C8 C 1.0350(7) 0.7887(11) 1.4310(11)
C9 C 1.0762(7) 0.7184(11) 1.4892(10)
C10 C 1.0540(8) 0.6450(11) 1.4969(12)
H22 H 1.01340 0.63770 1.46450
C11 C 1.0944(8) 0.5841(12) 1.5541(11)
H23 H 1.08100 0.53350 1.55830
C12 C 1.1556(8) 0.5993(11) 1.6059(11)
H24 H 1.18380 0.56110 1.64710
C13 C 1.1723(7) 0.6740(11) 1.5928(10)
C14 C 1.2361(7) 0.6972(10) 1.6451(10)
O40? O 0.4840(13) 0.8620(18) 0.3046(18)
Mo2A Mo 0.42429(10) 0.97667(12) 0.29099(13)
Mo3A Mo 0.42366(8) 0.75225(13) 0.29103(10)
Mo5A Mo 0.62916(9) 0.97621(19) 0.40936(11)
Mo6A Mo 0.44555(7) 0.86423(10) 0.04894(9)
Mo7A Mo 0.36918(10) 0.75205(13) 0.09089(11)
O1A O 0.4608(12) 0.9500(19) 0.2286(18)
O2A O 0.4575(13) 0.7815(18) 0.2252(18)
O3A O 0.4439(13) 0.8603(18) 0.1546(17)
O4A O 0.4684(8) 1.0634(12) 0.2948(11)
O5A O 0.3961(8) 0.8652(10) 0.2788(11)
O6A O 0.4614(10) 0.6569(13) 0.2905(12)
O7A O 0.5739(8) 1.0709(14) 0.3548(11)
O8A O 0.4933(7) 0.9471(10) 0.3999(11)
O9A O 0.4948(7) 0.7787(10) 0.4008(11)
O10A O 0.4251(9) 0.6631(12) 0.1435(11)
O11A O 0.3665(8) 0.9867(13) 0.1724(11)
O12A O 0.3686(9) 0.7474(12) 0.1747(10)
O13A O 0.6611(7) 0.8629(11) 0.4334(10)
O14A O 0.6024(7) 0.9484(11) 0.4611(11)
O15A O 0.3958(7) 0.7804(11) 0.0366(10)
O17A O 0.3852(7) 1.0293(11) 0.3051(9)
O18A O 0.3902(7) 0.7000(12) 0.3147(10)
O20A O 0.6907(6) 1.0310(9) 0.4864(9)
O21A O 0.4206(8) 0.8642(9) -0.0445(8)
O22A O 0.3091(9) 0.6956(15) 0.0146(11)
La1G La 0.39008(4) 0.63716(6) 0.82831(6)
La1G* La 1.39008(4) 0.63716(6) 1.82831(6)
La1E La 0.89008(4) 1.13716(6) 1.82831(6)
La2D La 1.16948(4) 0.87105(6) 1.51406(5)
La2E La 0.83052(4) 0.87105(6) 0.98594(5)
La2C La 0.66948(4) 0.62895(6) 1.01406(5)
La2E* La 0.83052(4) 0.87105(6) 1.98594(5)
N1E N 0.8379(7) 0.9959(9) 1.7419(9)
N1G N 0.3379(7) 0.4959(9) 0.7419(9)
N2G N 0.6332(6) 0.7692(9) 1.0359(8)
N2D N 0.8668(6) 1.2692(9) 1.4641(8)
O24E O 0.8757(6) 1.1142(8) 1.7033(8)
O24G O 0.3757(6) 0.6142(8) 0.7033(8)
O25E O 0.8409(6) 1.0451(8) 1.5911(7)
O25A O 1.1591(6) 0.9549(8) 1.4089(7)
O26E O 0.8663(6) 1.0261(8) 1.8828(8)
O26G O 0.3663(6) 0.5261(8) 0.8828(8)
O27E O 0.8253(6) 0.9016(8) 1.8724(8)
O27D O 1.1747(6) 0.9016(8) 1.6276(8)
O28G O 0.5596(5) 0.6479(8) 0.9316(8)
O28D O 0.9404(5) 1.1479(8) 1.5684(8)
O29G O 0.4808(5) 0.7192(8) 0.8898(8)
O30G O 0.7471(5) 0.7355(8) 1.1267(7)
O30D O 0.7529(5) 1.2355(8) 1.3733(7)
O31G O 0.7761(5) 0.8496(8) 1.2058(8)
O31* O 0.2761(5) 0.6504(8) 0.7058(8)
O32G O 0.4740(6) 0.5241(9) 0.8764(9)
H3G H 0.47690 0.48530 0.90560
H4G H 0.50760 0.54850 0.90480
O33G O 0.3645(6) 0.7828(9) 0.7619(10)
H5G H 0.38130 0.82220 0.79770
H6G H 0.32720 0.79110 0.72580
O34G O 0.4693(7) 0.6293(11) 0.9924(9)
H7G H 0.47510 0.67740 1.01420
H8G H 0.45630 0.59270 1.00490
O35G O 0.3393(6) 0.706(1) 0.871(1)
H9G H 0.36410 0.71760 0.92230
H10G H 0.31200 0.67450 0.85920
O36D O 1.1328(6) 0.7656(8) 1.3938(7)
H11D H 1.12730 0.79410 1.35650
H12D H 1.16060 0.73040 1.41330
O37D O 1.1222(7) 1.0180(9) 1.4857(8)
H13D H 1.13390 1.04220 1.52900
H14D H 1.12600 1.05090 1.45920
O38D O 1.2547(7) 0.9721(11) 1.614(1)
H15D H 1.28020 0.97120 1.61020
H16D H 1.24290 1.02280 1.60870
O39D O 1.2552(6) 0.8389(9) 1.5203(9)
H17D H 1.26210 0.87940 1.50250
H18D H 1.28710 0.82280 1.56770
C1E C 0.8498(8) 1.0522(11) 1.6548(10)
C2E C 0.8252(8) 0.9868(11) 1.6719(11)
C3E C 0.7865(8) 0.9243(11) 1.6167(11)
H19E H 0.77870 0.91720 1.56840
C4E C 0.7588(9) 0.8713(12) 1.6326(12)
H20E H 0.73070 0.83120 1.59430
C5E C 0.7750(8) 0.8812(11) 1.7074(11)
H21E H 0.75900 0.84580 1.72150
C6E C 0.8148(8) 0.9432(11) 1.7611(10)
C7E C 0.8372(8) 0.9575(10) 1.8457(10)
C8G C 0.5350(7) 0.7113(11) 0.9310(11)
C9G C 0.5762(7) 0.7816(11) 0.9892(10)
C10G C 0.5540(8) 0.8550(11) 0.9969(12)
H22G H 0.51340 0.86230 0.96450
C11G C 0.5944(8) 0.9159(12) 1.0541(11)
H23G H 0.58100 0.96650 1.05830
C12G C 0.6556(8) 0.9007(11) 1.1059(11)
H24G H 0.68380 0.93890 1.14710
C13G C 0.6723(7) 0.8260(11) 1.0928(10)
C14G C 0.7361(7) 0.8028(10) 1.1451(10)
#END
