
#######################################################################
#
#                 Cambridge Crystallographic Data Centre
#                                CCDC
#
#######################################################################
#
# If this CIF has been generated from an entry in the Cambridge
# Structural Database, then it will include bibliographic, chemical,
# crystal, experimental, refinement or atomic coordinate data resulting
# from the CCDC's data processing and validation procedures.
#
#######################################################################

data_CSD_CIF_FORPIM01
_audit_creation_date 2018-05-23
_audit_creation_method CSD-ConQuest-V1
_database_code_CSD FORPIM01
_database_code_depnum_ccdc_archive 'CCDC 1826836'
_chemical_formula_sum 'C28 H48 La4 Mo12 N4 O74 Si1'
_chemical_formula_moiety
;
(C28 H44 La4 N4 O32 4+)n,n(Mo12 O40 Si1 4-),2n(H2 O1)
;
_journal_coden_Cambridge 1695
_journal_volume 6
_journal_year 2018
_journal_page_first 5916
_journal_name_full 'J.Mater.Chem.C '
loop_
_publ_author_name
"A.M.Kaczmarek"
_chemical_name_systematic
;
catena-(tetrakis(\m~3~-Pyridine-2,6-dicarboxylato)-hexadeca-aqua-tetra-lanthan
um (\m~12~-silicato)-tetracosakis(\m~2~-oxo)-dodecaoxo-dodeca-molybdenum 
dihydrate)
;
_cell_volume   7757.959
_exptl_crystal_colour 'colorless'
_exptl_crystal_density_diffrn 2.845
_exptl_crystal_description 'block'
_diffrn_ambient_temperature 100
_diffrn_special_details
;
twin

;
#These two values have been output from a single CSD field.
_refine_ls_R_factor_gt 0.0505
_refine_ls_wR_factor_gt 0.0505
_symmetry_cell_setting monoclinic
_symmetry_space_group_name_H-M 'I a'
_symmetry_Int_Tables_number 9
loop_
_symmetry_equiv_pos_site_id
_symmetry_equiv_pos_as_xyz
1 x,y,z
2 1/2+x,-y,z
3 1/2+x,1/2+y,1/2+z
4 x,1/2-y,1/2+z
_cell_length_a 22.4498(4)
_cell_length_b 15.6306(2)
_cell_length_c 22.1378(3)
_cell_angle_alpha 90
_cell_angle_beta 92.948(2)
_cell_angle_gamma 90
_cell_formula_units_Z 4
loop_
_atom_type_symbol
_atom_type_radius_bond
C 0.68
H 0.23
La 2.07
Mo 1.54
N 0.68
O 0.68
Si 1.20
loop_
_atom_site_label
_atom_site_type_symbol
_atom_site_fract_x
_atom_site_fract_y
_atom_site_fract_z
La1 La 0.59745(4) 0.61509(6) 0.66700(4)
La2 La 0.53869(5) 0.87977(6) 0.44872(4)
La3 La 0.81589(4) 0.88742(6) 0.54509(4)
La4 La 0.87920(5) 0.88148(6) 0.26219(4)
O1 O 0.9832(6) 0.3957(8) 0.6740(6)
O2 O 0.9537(6) 0.5105(8) 0.7266(5)
O3 O 0.6884(6) 0.5334(8) 0.6974(6)
O4 O 0.7677(6) 0.6043(8) 0.7349(6)
O5 O 0.5836(6) 0.6415(8) 0.7781(6)
O6 O 0.5470(6) 0.7111(8) 0.8557(5)
O7 O 0.5739(6) 0.7272(8) 0.5885(6)
O8 O 0.5343(6) 0.8513(8) 0.5574(6)
O9 O 0.5461(6) 0.5407(9) 0.5760(6)
O10 O 0.5714(6) 0.4711(8) 0.7108(6)
O11 O 0.6845(6) 0.7278(8) 0.7022(6)
O12 O 0.6763(6) 0.6230(9) 0.5803(6)
O13 O 0.4582(6) 0.9847(8) 0.4836(5)
O14 O 0.4299(6) 1.0981(9) 0.5352(6)
O15 O 0.6480(6) 0.9002(8) 0.4764(6)
O16 O 0.7272(6) 0.9730(8) 0.5158(6)
O17 O 0.5745(6) 0.9817(8) 0.3629(5)
O18 O 0.4516(6) 0.9084(9) 0.3713(6)
O19 O 0.4577(6) 0.7708(9) 0.4656(6)
O20 O 0.5908(6) 0.7357(8) 0.4693(6)
O21 O 0.8389(6) 0.7729(8) 0.6226(5)
O22 O 0.8823(6) 0.6503(8) 0.6537(6)
O23 O 0.8278(6) 0.8664(8) 0.4340(6)
O24 O 0.8671(6) 0.7979(8) 0.3552(5)
O25 O 0.7316(6) 0.7725(8) 0.5097(6)
O26 O 0.8412(6) 1.0349(9) 0.5057(6)
O27 O 0.7354(7) 0.8768(8) 0.6279(6)
O28 O 0.8674(6) 0.9546(9) 0.6419(6)
O29 O 0.8379(6) 0.7314(9) 0.2436(6)
O30 O 0.8417(6) 0.9889(8) 0.3427(6)
O31 O 0.9663(6) 0.9160(9) 0.3402(6)
O32 O 0.9680(6) 0.7829(9) 0.2479(6)
N1 N 0.8418(7) 0.4791(9) 0.7039(6)
N2 N 0.5446(7) 0.7569(10) 0.6993(6)
N3 N 0.5728(7) 1.0205(10) 0.5065(6)
N4 N 0.8666(7) 0.7474(10) 0.5101(7)
C1 C 0.9440(8) 0.4435(11) 0.6952(8)
C2 C 0.8796(8) 0.4215(12) 0.6837(8)
C3 C 0.8599(8) 0.3466(11) 0.6539(8)
H1 H 0.88740 0.30640 0.63920
C4 C 0.7994(8) 0.3334(12) 0.6468(8)
H2 H 0.78490 0.28120 0.62960
C5 C 0.7601(9) 0.3931(12) 0.6636(9)
H3 H 0.71840 0.38520 0.65630
C6 C 0.7825(8) 0.4667(11) 0.6920(8)
C7 C 0.7434(8) 0.5382(12) 0.7096(8)
C8 C 0.5565(8) 0.7021(11) 0.8011(8)
C9 C 0.5288(8) 0.7674(11) 0.7568(8)
C10 C 0.4892(8) 0.8279(12) 0.7734(8)
H4 H 0.48170 0.83670 0.81470
C11 C 0.4592(9) 0.8778(12) 0.7272(9)
H5 H 0.42820 0.91620 0.73650
C12 C 0.4763(8) 0.8688(12) 0.6692(8)
H6 H 0.45910 0.90290 0.63740
C13 C 0.5197(8) 0.8082(12) 0.6583(8)
C14 C 0.5428(8) 0.7953(12) 0.5958(8)
C15 C 0.4676(9) 1.0507(12) 0.5140(8)
C16 C 0.5320(8) 1.0780(12) 0.5262(8)
C17 C 0.5489(9) 1.1514(12) 0.5558(8)
H7 H 0.51960 1.19050 0.56860
C18 C 0.6109(8) 1.1689(12) 0.5675(8)
H8 H 0.62400 1.22000 0.58720
C19 C 0.6515(9) 1.1079(11) 0.5487(8)
H9 H 0.69310 1.11670 0.55650
C20 C 0.6318(8) 1.0358(12) 0.5193(8)
C21 C 0.6721(8) 0.9643(11) 0.5006(8)
C22 C 0.8690(8) 0.7056(11) 0.6151(8)
C23 C 0.8923(8) 0.6950(12) 0.5529(8)
C24 C 0.9318(8) 0.6316(12) 0.5404(8)
H10 H 0.94900 0.59610 0.57150
C25 C 0.9457(9) 0.6212(11) 0.4795(8)
H11 H 0.97270 0.57780 0.46830
C26 C 0.9199(8) 0.6748(12) 0.4366(8)
H12 H 0.92870 0.66800 0.39540
C27 C 0.8822(8) 0.7368(11) 0.4524(8)
C28 C 0.8571(8) 0.8052(12) 0.4112(8)
Mo1 Mo 0.13917(8) 0.7280(1) 0.23587(7)
Mo2 Mo 0.07205(7) 0.70601(11) 0.38432(7)
Mo3 Mo 0.08414(8) 0.49315(11) 0.39386(7)
Mo4 Mo 0.12785(7) 0.51250(11) 0.23614(7)
Mo5 Mo 0.20769(7) 0.83965(10) 0.37094(7)
Mo6 Mo 0.15179(7) 0.62005(10) 0.50129(7)
Mo7 Mo 0.22322(8) 0.38773(10) 0.34673(8)
Mo8 Mo 0.25833(7) 0.60635(10) 0.20684(7)
Mo9 Mo 0.33030(7) 0.74559(11) 0.32322(7)
Mo10 Mo 0.29323(8) 0.72534(11) 0.46897(7)
Mo11 Mo 0.28310(7) 0.48867(11) 0.46996(7)
Mo12 Mo 0.34558(8) 0.50832(11) 0.33622(8)
Si1 Si 0.2094(3) 0.6134(3) 0.3562(3)
O33 O 0.0967(6) 0.7940(9) 0.1908(6)
O34 O 0.0851(6) 0.7125(8) 0.3030(6)
O35 O 0.0162(6) 0.7747(9) 0.3927(6)
O36 O 0.0367(6) 0.6003(8) 0.3826(6)
O37 O 0.0269(6) 0.4244(9) 0.4008(6)
O38 O 0.0864(6) 0.5056(9) 0.3053(6)
O39 O 0.0932(6) 0.4442(9) 0.1876(6)
O40 O 0.0975(6) 0.6171(8) 0.2097(6)
O41 O 0.1811(6) 0.8000(8) 0.2859(6)
O42 O 0.1397(6) 0.7921(8) 0.3942(5)
O43 O 0.0921(6) 0.6939(9) 0.4732(6)
O44 O 0.0980(6) 0.5233(8) 0.4749(6)
O45 O 0.1480(6) 0.4226(9) 0.3889(6)
O46 O 0.1859(6) 0.4310(9) 0.2791(6)
O47 O 0.1992(6) 0.5275(8) 0.1852(6)
O48 O 0.1995(6) 0.6994(8) 0.1859(6)
O49 O 0.1922(6) 0.9439(9) 0.3671(6)
O50 O 0.1386(6) 0.6149(8) 0.5745(6)
O51 O 0.2105(6) 0.2815(9) 0.3393(6)
O52 O 0.2954(7) 0.6092(9) 0.1434(6)
O53 O 0.2852(6) 0.8440(9) 0.3294(6)
O54 O 0.2512(6) 0.8328(8) 0.4441(6)
O55 O 0.2144(6) 0.6964(8) 0.4976(6)
O56 O 0.2124(6) 0.5273(8) 0.4949(6)
O57 O 0.2564(6) 0.3872(8) 0.4347(6)
O58 O 0.3011(6) 0.3985(9) 0.3244(6)
O59 O 0.3041(6) 0.5340(8) 0.2547(6)
O60 O 0.2958(6) 0.7010(8) 0.2539(6)
O61 O 0.3951(6) 0.7864(9) 0.2999(6)
O62 O 0.3506(6) 0.7543(9) 0.4125(6)
O63 O 0.3280(6) 0.7661(9) 0.5310(6)
O64 O 0.3097(6) 0.6120(8) 0.4755(6)
O65 O 0.3153(6) 0.4532(9) 0.5343(6)
O66 O 0.3538(6) 0.4848(9) 0.4175(6)
O67 O 0.4108(6) 0.4723(9) 0.3115(6)
O68 O 0.3580(6) 0.6243(8) 0.3399(6)
O69 O 0.2479(6) 0.6994(8) 0.3727(6)
O70 O 0.1507(6) 0.6106(8) 0.3945(6)
O71 O 0.1902(6) 0.6151(8) 0.2841(6)
O72 O 0.2515(6) 0.5290(8) 0.3717(6)
O73 O 0.4445(8) 0.6020(11) 0.5042(8)
O74 O 0.9677(7) 0.6093(9) 0.2112(7)
La1A La 1.09745(4) 0.38491(6) 0.66700(4)
La2C La 0.53869(5) 0.62023(6) 0.94872(4)
La3A La 0.31589(4) 1.11258(6) 0.54509(4)
La4C La 0.87920(5) 0.61852(6) 0.76219(4)
O1A O 0.4832(6) 0.6043(8) 0.6740(6)
O2C O 0.9537(6) 0.9895(8) 0.2266(5)
O4C O 0.7677(6) 0.8957(8) 0.2349(6)
O6C O 0.5470(6) 0.7889(8) 0.3557(5)
O14A O 0.9299(6) 0.9019(9) 0.5352(6)
O22C O 0.8823(6) 0.8497(8) 0.1537(6)
N1C N 0.8418(7) 1.0209(9) 0.2039(6)
#END
