
#######################################################################
#
#                 Cambridge Crystallographic Data Centre
#                                CCDC
#
#######################################################################
#
# If this CIF has been generated from an entry in the Cambridge
# Structural Database, then it will include bibliographic, chemical,
# crystal, experimental, refinement or atomic coordinate data resulting
# from the CCDC's data processing and validation procedures.
#
#######################################################################

data_CSD_CIF_FORQAF
_audit_creation_date 2009-09-01
_audit_creation_method CSD-ConQuest-V1
_database_code_CSD FORQAF
_database_code_depnum_ccdc_archive 'CCDC 692106'
_chemical_formula_sum 'C28 H48 Ge1 La4 Mo12 N4 O74'
_chemical_formula_moiety
;
(C28 H44 La4 N4 O32 4+)n,n(Ge1 Mo12 O40 4-),2n(H2 O1)
;
_journal_coden_Cambridge 9
_journal_volume 48
_journal_year 2009
_journal_page_first 2010
_journal_name_full 'Inorg.Chem. '
loop_
_publ_author_name
"Chun-Hong Li"
"Kun-Lin Huang"
"Ying-Nan Chi"
"Xi Liu"
"Zhan-Gang Han"
"Long Shen"
"Chang-Wen Hu"
_chemical_name_systematic
;
catena-(tetrakis(\m~3~-Pyridine-2,6-dicarboxylato)-hexadeca-aqua-tetra-lanthan
um 
tetrakis(\m~4~-oxo)-tetracosakis(\m~2~-oxo)-dodecaoxo-germanium-dodeca-molybde
num dihydrate)
;
_cell_volume   7878.236
_exptl_crystal_colour 'yellow'
_exptl_crystal_density_diffrn 2.87
_exptl_special_details
;
photoluminescent
isostructural with the La-Si, Ce-Si, Nd-Si, Ce-Ge and Nd-Ge analogues
;
_exptl_crystal_description 'cubic'
_diffrn_ambient_temperature 298
#These two values have been output from a single CSD field.
_refine_ls_R_factor_gt 0.0595
_refine_ls_wR_factor_gt 0.0595
_symmetry_cell_setting monoclinic
_symmetry_space_group_name_H-M 'C c'
_symmetry_Int_Tables_number 9
loop_
_symmetry_equiv_pos_site_id
_symmetry_equiv_pos_as_xyz
1 x,y,z
2 x,-y,1/2+z
3 1/2+x,1/2+y,z
4 1/2+x,1/2-y,1/2+z
_cell_length_a 30.846(3)
_cell_length_b 15.7730(17)
_cell_length_c 22.189(2)
_cell_angle_alpha 90
_cell_angle_beta 133.134(2)
_cell_angle_gamma 90
_cell_formula_units_Z 4
loop_
_atom_type_symbol
_atom_type_radius_bond
C 0.68
H 0.23
Ge 1.17
La 2.07
Mo 1.33
N 0.68
O 0.68
loop_
_atom_site_label
_atom_site_type_symbol
_atom_site_fract_x
_atom_site_fract_y
_atom_site_fract_z
Ge1 Ge 0.51712(16) 0.8644(1) 0.9701(2)
La1 La 0.62790(6) 0.36364(8) 0.89285(8)
La2 La 0.68660(6) 0.62839(8) 0.73405(8)
La3 La 0.84739(6) 0.12942(8) 1.20544(8)
La4 La 0.90824(6) 0.13748(8) 1.54918(8)
Mo1 Mo 0.57310(11) 0.86707(14) 1.17209(15)
Mo2 Mo 0.65129(11) 0.96112(18) 1.13320(15)
Mo3 Mo 0.58859(12) 0.97633(16) 0.92206(17)
Mo4 Mo 0.46373(11) 0.86132(14) 0.76906(14)
Mo5 Mo 0.38134(13) 0.75603(16) 0.81192(16)
Mo6 Mo 0.44083(12) 0.74724(17) 1.01013(15)
Mo7 Mo 0.43669(13) 0.97792(17) 1.00427(17)
Mo8 Mo 0.51711(14) 1.09014(11) 0.9779(2)
Mo9 Mo 0.39230(11) 0.99216(18) 0.81454(15)
Mo10 Mo 0.64363(13) 0.74786(16) 1.13072(16)
Mo11 Mo 0.59382(11) 0.75683(17) 0.92743(15)
Mo12 Mo 0.50171(12) 0.63975(12) 0.94965(15)
N1 N 0.6801(9) 0.5050(14) 0.9769(13)
N2 N 0.6504(9) 0.7686(14) 0.7561(13)
N3 N 0.8831(9) 0.2691(13) 1.1827(12)
N4 N 0.8578(9) -0.0030(14) 1.4632(12)
O1 O 0.5774(7) 0.8593(10) 1.0716(10)
O2 O 0.5336(7) 0.8646(9) 0.9116(10)
O3 O 0.4704(8) 0.7773(10) 0.9425(10)
O4 O 0.4756(7) 0.956(1) 0.9472(10)
O5 O 0.6330(8) 0.9431(11) 1.2017(10)
O6 O 0.6397(7) 0.9586(10) 1.0408(10)
O7 O 0.5261(8) 0.9473(11) 0.8085(10)
O8 O 0.4195(8) 0.7857(11) 0.7726(11)
O9 O 0.3689(9) 0.7397(12) 0.8850(11)
O10 O 0.5131(8) 0.7808(11) 1.1064(11)
O11 O 0.5127(8) 0.9488(11) 1.1067(10)
O12 O 0.5841(7) 1.0440(11) 1.0733(10)
O13 O 0.5439(7) 1.0481(11) 0.9244(10)
O14 O 0.4283(8) 0.951(1) 0.7808(11)
O15 O 0.3668(8) 0.8731(10) 0.8054(11)
O16 O 0.4161(9) 0.8660(11) 0.9893(11)
O17 O 0.6277(8) 0.7748(12) 1.1992(11)
O18 O 0.6885(8) 0.8535(11) 1.1689(10)
O19 O 0.6249(8) 0.8624(11) 0.9312(11)
O20 O 0.5218(8) 0.7779(11) 0.8046(11)
O21 O 0.4225(9) 0.6492(11) 0.8478(11)
O22 O 0.4660(8) 0.6410(11) 1.0015(11)
O23 O 0.4748(8) 1.0859(11) 1.0148(11)
O24 O 0.4396(8) 1.0937(11) 0.8648(11)
O25 O 0.3749(8) 1.0078(11) 0.8859(11)
O26 O 0.6368(8) 0.7547(11) 1.0373(10)
O27 O 0.5356(8) 0.6815(10) 0.9149(10)
O28 O 0.5760(8) 0.6751(11) 1.0643(10)
O29 O 0.5886(10) 0.8655(11) 1.2581(12)
O30 O 0.7073(9) 1.0273(12) 1.2002(12)
O31 O 0.6309(9) 1.0351(13) 0.9167(13)
O32 O 0.4278(10) 0.8626(11) 0.6676(13)
O33 O 0.3144(8) 0.7232(12) 0.7252(11)
O34 O 0.4072(10) 0.7109(13) 1.0384(14)
O35 O 0.4009(10) 1.0229(13) 1.0268(13)
O36 O 0.5335(8) 1.1934(10) 0.9916(11)
O37 O 0.3275(9) 1.0336(12) 0.7299(13)
O38 O 0.6982(8) 0.6764(11) 1.1948(11)
O39 O 0.6267(9) 0.6894(12) 0.9084(12)
O40 O 0.5137(13) 0.5342(10) 0.9607(17)
O41 O 0.6505(9) 0.4760(11) 0.8378(12)
O42 O 0.6893(8) 0.5962(12) 0.8446(11)
O43 O 0.6440(8) 0.3875(11) 1.0205(11)
O44 O 0.6761(9) 0.4562(12) 1.1278(11)
O45 O 0.7644(8) 0.7343(12) 0.8477(11)
O46 O 0.7915(9) 0.8489(12) 0.9237(12)
O47 O 0.5772(9) 0.6485(11) 0.6514(12)
O48 O 0.4977(8) 0.7185(11) 0.6105(11)
O49 O 0.7702(8) 0.2346(12) 1.0927(11)
O50 O 0.7401(8) 0.3496(11) 1.0130(12)
O51 O 0.9574(8) 0.1453(11) 1.2882(12)
O52 O 1.0355(8) 0.2194(12) 1.3317(11)
O53 O 0.8967(9) 0.1150(11) 1.4277(11)
O54 O 0.8583(8) 0.0459(11) 1.3092(10)
O55 O 0.8838(8) 0.0257(10) 1.6025(10)
O56 O 0.8408(9) -0.0988(11) 1.5900(11)
O57 O 0.5432(8) 0.4760(11) 0.8440(11)
H1 H 0.50980 0.45140 0.81580
H2 H 0.54010 0.51450 0.81450
O58 O 0.6772(10) 0.2904(14) 0.8502(14)
H3 H 0.70440 0.32090 0.86080
H4 H 0.65190 0.27820 0.79910
O59 O 0.652(1) 0.2183(13) 0.9568(13)
H5 H 0.68920 0.20910 0.99240
H6 H 0.63460 0.17930 0.92070
O60 O 0.5445(10) 0.3734(13) 0.7243(13)
H7 H 0.54770 0.33330 0.70190
H8 H 0.54500 0.42100 0.70670
O61 O 0.6330(8) 0.4845(11) 0.6997(11)
H9 H 0.63680 0.46970 0.73990
H10 H 0.64950 0.44680 0.69360
O62 O 0.7688(10) 0.5228(14) 0.8310(14)
H11 H 0.79510 0.52330 0.82860
H12 H 0.75580 0.47270 0.82390
O63 O 0.6508(9) 0.7313(12) 0.6124(12)
H13 H 0.61940 0.75690 0.59360
H14 H 0.64260 0.70230 0.57340
O64 O 0.7713(8) 0.6592(12) 0.7379(12)
H15 H 0.76470 0.70340 0.71090
H16 H 0.77820 0.61730 0.72140
O65 O 0.7600(8) 0.1651(11) 1.1944(12)
H17 H 0.73760 0.20350 1.15880
H18 H 0.73950 0.12160 1.18380
O66 O 0.8835(8) 0.2371(11) 1.3212(10)
H19 H 0.91220 0.26600 1.33430
H20 H 0.85530 0.27090 1.30280
O67 O 0.7591(9) 0.0290(13) 1.1032(13)
H21 H 0.77040 -0.02190 1.10870
H22 H 0.73380 0.03100 1.10770
O68 O 0.8893(9) -0.0198(11) 1.2296(12)
H23 H 0.88280 -0.05290 1.25290
H24 H 0.87840 -0.04250 1.18630
O69 O 0.8571(9) 0.2063(13) 1.5917(12)
H25 H 0.86020 0.25990 1.59540
H26 H 0.82110 0.19110 1.56180
O70 O 0.8821(9) 0.2835(13) 1.4827(13)
H27 H 0.84470 0.29160 1.44680
H28 H 0.89880 0.32250 1.51890
O71 O 0.9852(11) 0.1291(13) 1.7094(13)
H29 H 0.98120 0.17840 1.72050
H30 H 0.96140 0.09670 1.70570
O72 O 0.9927(9) 0.0242(12) 1.5990(12)
H31 H 0.97830 -0.01540 1.56390
H32 H 1.02080 0.04810 1.60660
O73 O 0.7776(12) 0.3555(14) 0.8847(16)
H33 H 0.81420 0.35810 0.91030
H34 H 0.75770 0.34690 0.83380
O74 O 0.7549(13) 0.1426(18) 0.563(2)
H35 H 0.71720 0.14380 0.52780
H36 H 0.76810 0.16670 0.60680
C1 C 0.6806(11) 0.5430(16) 0.8749(15)
C2 C 0.7024(12) 0.5551(17) 0.9599(15)
C3 C 0.7421(14) 0.6212(17) 1.0129(17)
H37 H 0.75470 0.66000 0.99600
C4 C 0.7614(14) 0.6266(16) 1.0897(18)
H38 H 0.79310 0.66120 1.13080
C5 C 0.7315(13) 0.5784(17) 1.1028(17)
H39 H 0.73660 0.58900 1.14850
C6 C 0.6938(12) 0.5140(16) 1.0486(15)
C7 C 0.6675(12) 0.4474(16) 1.0662(16)
C8 C 0.7539(12) 0.8005(16) 0.8660(16)
C9 C 0.6890(12) 0.8274(16) 0.8104(16)
C10 C 0.6719(13) 0.8996(17) 0.8237(17)
H40 H 0.70030 0.93830 0.86360
C11 C 0.6119(12) 0.9149(17) 0.7772(17)
H41 H 0.59930 0.96320 0.78550
C12 C 0.5723(13) 0.8562(15) 0.7190(17)
H42 H 0.53170 0.86440 0.68610
C13 C 0.5934(11) 0.7820(16) 0.7088(15)
C14 C 0.5522(12) 0.7121(16) 0.6490(17)
C15 C 0.7795(11) 0.3040(15) 1.0726(15)
C16 C 0.8434(11) 0.3250(16) 1.1220(15)
C17 C 0.8622(12) 0.4007(16) 1.1146(16)
H43 H 0.83540 0.44110 1.07520
C18 C 0.9225(11) 0.4131(15) 1.1681(15)
H44 H 0.93590 0.46390 1.16440
C19 C 0.9647(12) 0.3549(15) 1.2274(17)
H45 H 1.00530 0.36460 1.26220
C20 C 0.9420(11) 0.2814(15) 1.2309(15)
C21 C 0.9814(11) 0.2115(15) 1.2873(16)
C22 C 0.8679(11) 0.0523(16) 1.3743(16)
C23 C 0.8422(11) -0.0119(16) 1.3902(15)
C24 C 0.8035(12) -0.0746(16) 1.3354(16)
H46 H 0.79240 -0.07970 1.28460
C25 C 0.7814(13) -0.1307(15) 1.3582(17)
H47 H 0.75920 -0.17770 1.32570
C26 C 0.7931(13) -0.1150(17) 1.4305(16)
H48 H 0.77380 -0.14570 1.44200
C27 C 0.8324(11) -0.0553(15) 1.4823(14)
C28 C 0.8549(12) -0.0418(16) 1.5653(15)
La1C La 1.12790(6) 0.13636(8) 1.39285(8)
La2A La 0.68660(6) 0.37161(8) 1.23405(8)
La3A La 0.84739(6) -0.12942(8) 1.70544(8)
La4A La 0.90824(6) 0.86252(8) 1.04918(8)
La4B La 0.40824(6) 0.63748(8) 0.54918(8)
O44A O 0.6761(9) 0.5438(12) 0.6278(11)
O46A O 0.7915(9) 0.1511(12) 1.4237(12)
O48B O 0.9977(8) 0.2185(11) 1.6105(11)
O52C O 0.5355(8) 0.2806(12) 0.8317(11)
O56A O 0.8408(9) 0.0988(11) 1.0900(11)
#END
