
#######################################################################
#
#                 Cambridge Crystallographic Data Centre
#                                CCDC
#
#######################################################################
#
# If this CIF has been generated from an entry in the Cambridge
# Structural Database, then it will include bibliographic, chemical,
# crystal, experimental, refinement or atomic coordinate data resulting
# from the CCDC's data processing and validation procedures.
#
#######################################################################

data_CSD_CIF_FORQIN
_audit_creation_date 2009-09-01
_audit_creation_method CSD-ConQuest-V1
_database_code_CSD FORQIN
_database_code_depnum_ccdc_archive 'CCDC 692108'
_chemical_formula_sum 'C28 H48 Ge1 Mo12 N4 Nd4 O74'
_chemical_formula_moiety
;
(C28 H44 N4 Nd4 O32 4+)n,n(Ge1 Mo12 O40 4-),2n(H2 O1)
;
_journal_coden_Cambridge 9
_journal_volume 48
_journal_year 2009
_journal_page_first 2010
_journal_name_full 'Inorg.Chem. '
loop_
_publ_author_name
"Chun-Hong Li"
"Kun-Lin Huang"
"Ying-Nan Chi"
"Xi Liu"
"Zhan-Gang Han"
"Long Shen"
"Chang-Wen Hu"
_chemical_name_systematic
;
catena-(tetrakis(\m~3~-Pyridine-2,6-dicarboxylato)-hexadeca-aqua-tetra-neodymi
um 
tetrakis(\m~4~-oxo)-tetracosakis(\m~2~-oxo)-dodecaoxo-germanium-dodeca-molybde
num dihydrate)
;
_cell_volume   7748.248
_exptl_crystal_density_diffrn 2.937
_exptl_special_details
;
photoluminescent
isostructural with the La-Si, Ce-Si, Nd-Si, Ce-Ge and La-Ge analogues
;
_diffrn_ambient_temperature 298
_refine_special_details
;
The oxygen atoms attached to the central germanium atom are equally 
disordered over two sites by symmetry.
;
#These two values have been output from a single CSD field.
_refine_ls_R_factor_gt 0.0963
_refine_ls_wR_factor_gt 0.0963
_symmetry_cell_setting monoclinic
_symmetry_space_group_name_H-M 'C 2/c'
_symmetry_Int_Tables_number 15
loop_
_symmetry_equiv_pos_site_id
_symmetry_equiv_pos_as_xyz
1 x,y,z
2 -x,y,1/2-z
3 1/2+x,1/2+y,z
4 1/2-x,1/2+y,1/2-z
5 -x,-y,-z
6 x,-y,-1/2+z
7 -1/2-x,-1/2-y,-z
8 -1/2+x,-1/2-y,-1/2+z
_cell_length_a 30.573(3)
_cell_length_b 15.733(2)
_cell_length_c 22.013(3)
_cell_angle_alpha 90
_cell_angle_beta 132.965(2)
_cell_angle_gamma 90
_cell_formula_units_Z 4
loop_
_atom_type_symbol
_atom_type_radius_bond
C 0.68
H 0.23
Ge 1.17
Mo 1.34
N 0.68
Nd 2.01
O 0.68
loop_
_atom_site_label
_atom_site_type_symbol
_atom_site_fract_x
_atom_site_fract_y
_atom_site_fract_z
Ge1 Ge 1.00000 0.86503(16) 0.75000
Mo1 Mo 1.00000 1.09157(17) 0.75000
Mo2 Mo 1.1300(1) 0.9779(2) 0.91005(13)
Mo3 Mo 1.13191(12) 0.75227(15) 0.91011(12)
Mo4 Mo 1.00000 0.6395(2) 0.75000
Mo5 Mo 1.07731(8) 0.75237(13) 0.70832(11)
Mo6 Mo 0.92333(10) 0.97815(13) 0.79143(14)
Mo7 Mo 1.05471(7) 0.86523(12) 0.95245(10)
N1 N 0.6335(6) 1.2653(9) -0.4648(8)
N2 N 0.6619(7) 0.9982(9) -0.7416(9)
Nd1 Nd 0.66918(4) 1.12782(6) -0.48532(5)
Nd2 Nd 0.88996(4) 1.36398(6) -0.17437(5)
O1 O 0.9588(12) 0.9575(19) 0.7286(18)
O2 O 1.0597(13) 0.861(2) 0.8529(18)
O3 O 1.0170(13) 0.862(2) 0.6911(18)
O4? O 0.9535(14) 0.7775(19) 0.7238(19)
O5 O 1.0745(8) 1.0809(14) 0.8551(12)
O6 O 1.1625(7) 0.8626(12) 0.9340(11)
O7 O 1.0985(8) 0.9506(12) 0.9536(11)
O8 O 1.0671(10) 0.6694(12) 0.8506(12)
O9 O 1.1062(8) 0.7809(11) 0.9672(11)
O10 O 1.0389(10) 0.6582(13) 0.7078(12)
O11 O 1.1054(8) 0.8656(11) 0.7210(11)
O12 O 1.0055(8) 0.7788(11) 0.5976(12)
O13 O 1.0328(8) 1.0669(13) 0.7042(12)
O14 O 0.9930(8) 0.9490(11) 0.9012(12)
O15 O 1.1320(9) 0.7486(12) 0.8238(11)
O16 O 1.1375(9) 0.9928(14) 0.8303(12)
O17? O 1.0201(13) 1.196(2) 0.776(2)
O18 O 1.1908(7) 1.0332(10) 0.986(1)
O19 O 1.1917(10) 0.6966(16) 0.9864(12)
O20 O 1.00000 0.5354(15) 0.75000
O21 O 1.1107(8) 0.7008(13) 0.6846(11)
O22 O 0.8837(7) 1.0312(11) 0.8059(10)
O23 O 1.0797(8) 0.8654(10) 1.0466(9)
O24 O 0.7477(5) 1.2300(8) -0.3717(8)
O25 O 0.7769(5) 1.3481(8) -0.2961(7)
O26 O 0.5603(5) 1.1439(8) -0.5692(8)
O27 O 0.4806(6) 1.2160(9) -0.6130(9)
O28 O 0.6229(6) 1.1156(9) -0.7037(8)
O29 O 0.6589(7) 1.0472(9) -0.5890(8)
O30 O 0.6342(7) 1.0300(9) -0.8817(8)
O31 O 0.6726(7) 0.9043(9) -0.8750(9)
O32 O 0.7518(7) 1.0282(11) -0.3885(11)
H1 H 0.73930 0.97780 -0.39450
H2 H 0.77770 1.02890 -0.39220
O33 O 0.7532(6) 1.1620(9) -0.4797(9)
H3 H 0.78520 1.17730 -0.43180
H4 H 0.76010 1.12200 -0.49820
O34 O 0.6344(7) 1.2336(8) -0.6016(8)
H5 H 0.62530 1.20620 -0.64210
H6 H 0.60320 1.25950 -0.61890
O35 O 0.6232(7) 0.9823(8) -0.5135(9)
H7 H 0.62660 0.95010 -0.54120
H8 H 0.63540 0.95730 -0.47010
O36 O 0.8680(6) 1.2204(8) -0.2356(10)
H9 H 0.88550 1.18210 -0.19850
H10 H 0.83060 1.21070 -0.27150
O37 O 0.8408(7) 1.2926(11) -0.1331(11)
H11 H 0.86610 1.27990 -0.08180
H12 H 0.81360 1.32370 -0.14360
O38 O 0.9688(8) 1.3697(12) -0.0129(8)
H13 H 0.96800 1.41620 0.00600
H14 H 0.96600 1.32770 0.00870
O39 O 0.9719(6) 1.4761(9) -0.1241(9)
H15 H 0.99820 1.47000 -0.07170
H16 H 0.98770 1.45690 -0.14140
O40 O 0.7604(9) 0.1447(13) 0.1635(14)
H17 H 0.79790 0.14320 0.19330
H18 H 0.74350 0.15980 0.11470
C1 C 0.7386(7) 1.2989(10) -0.3524(10)
C2 C 0.6734(8) 1.3227(11) -0.4062(11)
C3 C 0.6549(8) 1.3980(12) -0.3958(11)
H19 H 0.68270 1.43750 -0.35570
C4 C 0.5941(9) 1.4125(13) -0.4467(11)
H20 H 0.58060 1.46240 -0.44150
C5 C 0.5533(9) 1.3513(13) -0.5059(12)
H21 H 0.51230 1.35950 -0.54010
C6 C 0.5755(8) 1.2780(11) -0.5123(11)
C7 C 0.5351(7) 1.2068(11) -0.5704(10)
C8 C 0.6505(9) 1.0535(11) -0.6528(11)
C9 C 0.6745(8) 0.9878(12) -0.6715(11)
C10 C 0.7134(9) 0.9241(12) -0.6169(11)
H22 H 0.72150 0.91610 -0.56820
C11 C 0.7402(10) 0.8727(16) -0.6341(14)
H23 H 0.76760 0.83140 -0.59640
C12 C 0.7257(8) 0.8833(12) -0.7077(11)
H24 H 0.74320 0.84990 -0.72110
C13 C 0.6841(8) 0.9455(10) -0.7619(10)
C14 C 0.6615(8) 0.9608(11) -0.8467(11)
Mo2A Mo 0.8700(1) 0.9779(2) 0.58995(13)
Mo3A Mo 0.86809(12) 0.75227(15) 0.58989(12)
Mo5A Mo 0.92269(8) 0.75237(13) 0.79168(11)
Mo6A Mo 1.07667(10) 0.97815(13) 0.70857(14)
Mo7A Mo 0.94529(7) 0.86523(12) 0.54755(10)
N1G N 1.1335(6) 1.2347(9) 0.0352(8)
N1E N 0.6335(6) 0.7347(9) 0.0352(8)
N2E N 0.6619(7) 1.0018(9) -0.2416(9)
N2F N 0.8381(7) 1.5018(9) -0.2584(9)
Nd1E Nd 0.66918(4) 0.87218(6) 0.01468(5)
Nd1E* Nd 0.66918(4) 0.87218(6) -0.98532(5)
Nd1G Nd 1.16918(4) 1.37218(6) 0.01468(5)
Nd2F Nd 0.61004(4) 1.13602(6) -0.82563(5)
Nd2G Nd 0.38996(4) 1.13602(6) -0.67437(5)
Nd2C Nd 0.61004(4) 0.86398(6) -0.32563(5)
Nd2G* Nd 1.38996(4) 1.13602(6) 0.32563(5)
O1A O 1.0412(12) 0.9575(19) 0.7714(18)
O2A O 0.9403(13) 0.861(2) 0.6471(18)
O3A O 0.9830(13) 0.862(2) 0.8089(18)
O5A O 0.9255(8) 1.0809(14) 0.6449(12)
O6A O 0.8375(7) 0.8626(12) 0.5660(11)
O7A O 0.9015(8) 0.9506(12) 0.5464(11)
O8A O 0.9329(10) 0.6694(12) 0.6494(12)
O9A O 0.8938(8) 0.7809(11) 0.5328(11)
O10A O 0.9611(10) 0.6582(13) 0.7922(12)
O11A O 0.8946(8) 0.8656(11) 0.7790(11)
O12A O 0.9945(8) 0.7788(11) 0.9024(12)
O13A O 0.9672(8) 1.0669(13) 0.7958(12)
O14A O 1.0070(8) 0.9490(11) 0.5988(12)
O15A O 0.8680(9) 0.7486(12) 0.6762(11)
O16A O 0.8625(9) 0.9928(14) 0.6697(12)
O18A O 0.8092(7) 1.0332(10) 0.514(1)
O19A O 0.8083(10) 0.6966(16) 0.5136(12)
O21A O 0.8893(8) 0.7008(13) 0.8154(11)
O22A O 1.1163(7) 1.0312(11) 0.6941(10)
O23A O 0.9203(8) 0.8654(10) 0.4534(9)
O24G O 1.2477(5) 1.2700(8) 0.1283(8)
O24E O 0.7477(5) 0.7700(8) 0.1283(8)
O25G O 1.2769(5) 1.1519(8) 0.2039(7)
O25F O 0.7231(5) 1.1519(8) -0.7039(7)
O26G O 1.0603(5) 1.3561(8) -0.0692(8)
O26E O 0.5603(5) 0.8561(8) -0.0692(8)
O27G O 0.9806(6) 1.2840(9) -0.1130(9)
O27A O 0.5194(6) 1.2160(9) -0.8870(9)
O28E O 0.6229(6) 0.8844(9) -0.2037(8)
O28F O 0.8771(6) 1.3844(9) -0.2963(8)
O29E O 0.6589(7) 0.9528(9) -0.0890(8)
O30E O 0.6342(7) 0.9700(9) -0.3817(8)
O30F O 0.8658(7) 1.4700(9) -0.1183(8)
O31E O 0.6726(7) 1.0957(9) -0.3750(9)
O31* O 0.6726(7) 0.9043(9) 0.1250(9)
O32E O 0.7518(7) 0.9718(11) 0.1115(11)
H1E H 0.73930 1.02220 0.10550
H2E H 0.77770 0.97110 0.10780
O33E O 0.7532(6) 0.8380(9) 0.0203(9)
H3E H 0.78520 0.82270 0.06820
H4E H 0.76010 0.87800 0.00180
O34E O 0.6344(7) 0.7664(8) -0.1016(8)
H5E H 0.62530 0.79380 -0.14210
H6E H 0.60320 0.74050 -0.11890
O35E O 0.6232(7) 1.0177(8) -0.0135(9)
H7E H 0.62660 1.04990 -0.04120
H8E H 0.63540 1.04270 0.02990
O36F O 0.6320(6) 1.2796(8) -0.7644(10)
H9F H 0.61450 1.31790 -0.80150
H10F H 0.66940 1.28930 -0.72850
O37F O 0.6592(7) 1.2074(11) -0.8669(11)
H11F H 0.63390 1.22010 -0.91820
H12F H 0.68640 1.17630 -0.85640
O38F O 0.5312(8) 1.1303(12) -0.9871(8)
H13F H 0.53200 1.08380 -1.00600
H14F H 0.53400 1.17230 -1.00870
O39F O 0.5281(6) 1.0239(9) -0.8759(9)
H15F H 0.50180 1.03000 -0.92830
H16F H 0.51230 1.04310 -0.85860
C1G C 1.2386(7) 1.2011(10) 0.1476(10)
C2G C 1.1734(8) 1.1773(11) 0.0938(11)
C3G C 1.1549(8) 1.1020(12) 0.1042(11)
H19G H 1.18270 1.06250 0.14430
C4G C 1.0941(9) 1.0875(13) 0.0533(11)
H20G H 1.08060 1.03760 0.05850
C5G C 1.0533(9) 1.1487(13) -0.0059(12)
H21G H 1.01230 1.14050 -0.04010
C6G C 1.0755(8) 1.2220(11) -0.0123(11)
C7G C 1.0351(7) 1.2932(11) -0.0704(10)
C8E C 0.6505(9) 0.9465(11) -0.1528(11)
C9E C 0.6745(8) 1.0122(12) -0.1715(11)
C10E C 0.7134(9) 1.0759(12) -0.1169(11)
H22E H 0.72150 1.08390 -0.06820
C11E C 0.7402(10) 1.1273(16) -0.1341(14)
H23E H 0.76760 1.16860 -0.09640
C12E C 0.7257(8) 1.1167(12) -0.2077(11)
H24E H 0.74320 1.15010 -0.22110
C13E C 0.6841(8) 1.0545(10) -0.2619(10)
C14E C 0.6615(8) 1.0392(11) -0.3467(11)
#END
