
#######################################################################
#
#                 Cambridge Crystallographic Data Centre
#                                CCDC
#
#######################################################################
#
# If this CIF has been generated from an entry in the Cambridge
# Structural Database, then it will include bibliographic, chemical,
# crystal, experimental, refinement or atomic coordinate data resulting
# from the CCDC's data processing and validation procedures.
#
#######################################################################

data_CSD_CIF_FOSTOY
_audit_creation_date 2014-11-11
_audit_creation_method CSD-ConQuest-V1
_database_code_CSD FOSTOY
_database_code_depnum_ccdc_archive 'CCDC 988834'
_chemical_formula_sum 'C401.5 H511.5 In6 N27.5 O97.5'
_chemical_formula_moiety
;
(C216 H120 In6 O48 6-)n,1.5n(C41 H29 N1 O1),6n(C4 H12 N1 1+),20n(C5 H11 N1 
O1),28n(H2 O1)
;
_journal_coden_Cambridge 1147
_journal_volume 14
_journal_year 2014
_journal_page_first 5026
_journal_name_full 'Cryst.Growth Des. '
loop_
_publ_author_name
"Eun-Young Cho"
"Ja-Min Gu"
"In-Hwan Choi"
"Wan-Seok Kim"
"Yong-Kyung Hwang"
"Seong Huh"
"Sung-Jin Kim"
"Youngmee Kim"
_chemical_name_systematic
;
catena-(hexakis(Diethylammonium) 
octakis(\m~3~-1,3,5-tris(4-carboxylatophenyl)benzene)-hexa-indium 
sesquikis(Reichardt's dye) diethylformamide solvate octacosahydrate)
;
_cell_volume  73314.455
_exptl_crystal_colour 'pale yellow'
_exptl_crystal_description 'block'
_diffrn_ambient_temperature 295
_refine_special_details
;
The structure is disordered. The SQUEEZE/PLATON program was used to model the 
disordered cations and solvent molecules.
;
#These two values have been output from a single CSD field.
_refine_ls_R_factor_gt 0.0925
_refine_ls_wR_factor_gt 0.0925
_symmetry_cell_setting rhombohedral
_symmetry_space_group_name_H-M 'R -3'
_symmetry_Int_Tables_number 148
loop_
_symmetry_equiv_pos_site_id
_symmetry_equiv_pos_as_xyz
1 x,y,z
2 -y,x-y,z
3 -x+y,-x,z
4 2/3+x,1/3+y,1/3+z
5 2/3-y,1/3+x-y,1/3+z
6 2/3-x+y,1/3-x,1/3+z
7 1/3+x,2/3+y,2/3+z
8 1/3-y,2/3+x-y,2/3+z
9 1/3-x+y,2/3-x,2/3+z
10 -x,-y,-z
11 y,-x+y,-z
12 x-y,x,-z
13 -2/3-x,-1/3-y,-1/3-z
14 -2/3+y,-1/3-x+y,-1/3-z
15 -2/3+x-y,-1/3+x,-1/3-z
16 -1/3-x,-2/3-y,-2/3-z
17 -1/3+y,-2/3-x+y,-2/3-z
18 -1/3+x-y,-2/3+x,-2/3-z
_cell_length_a 45.597(6)
_cell_length_b 45.597(6)
_cell_length_c 40.718(8)
_cell_angle_alpha 90
_cell_angle_beta 90
_cell_angle_gamma 120
_cell_formula_units_Z 6
loop_
_atom_type_symbol
_atom_type_radius_bond
C 0.68
H 0.23
In 1.42
N 0.68
O 0.68
loop_
_atom_site_label
_atom_site_type_symbol
_atom_site_fract_x
_atom_site_fract_y
_atom_site_fract_z
In1 In 0.240656(17) 1.064410(17) 0.457801(16)
O1 O 0.2614(2) 1.0745(2) 0.50587(15)
O2 O 0.2307(2) 1.0228(3) 0.4944(2)
O3 O 0.1950(2) 1.0744(3) 0.4818(3)
O4 O 0.18677(15) 1.0381(2) 0.4477(2)
O5 O 0.23835(19) 1.02558(36) 0.42075(17)
O6 O 0.28661(17) 1.05941(32) 0.44200(16)
O7 O 0.27212(37) 1.12068(18) 0.4581(2)
O8 O 0.2473(4) 1.0985(2) 0.4126(2)
C1 C 0.2534(7) 1.0516(11) 0.5161(4)
C2 C 0.1735(4) 1.0519(4) 0.4636(3)
C3 C 0.2537(4) 1.0384(3) 0.5362(8)
C4 C 0.1414(4) 1.0440(3) 0.4638(3)
C5 C 0.2770(4) 1.0585(4) 0.5691(4)
C6 C 0.2439(5) 1.0105(9) 0.5538(3)
C7 C 0.1265(3) 1.0606(3) 0.4789(3)
C8 C 0.1214(3) 1.0164(3) 0.4438(3)
H1 H 0.29000 1.08170 0.56560
C9 C 0.2823(3) 1.0490(4) 0.6015(3)
C10 C 0.2423(3) 0.9922(3) 0.5842(5)
H2 H 0.23130 0.99320 0.53890
C11 C 0.0905(3) 1.0470(3) 0.4737(3)
C12 C 0.0858(4) 1.0036(3) 0.4396(3)
H3 H 0.29770 1.06510 0.61590
C13 C 0.2637(3) 1.0154(4) 0.6104(3)
H4 H 0.22940 0.96880 0.58650
H5 H 0.08010 1.05750 0.48420
C14 C 0.0717(3) 1.0203(3) 0.4549(3)
H6 H 0.07270 0.98450 0.42680
C15 C 0.2683(3) 1.0083(3) 0.6459(3)
C16 C 0.0334(3) 1.0117(4) 0.4549(2)
C17 C 0.2412(3) 0.9848(3) 0.6634(3)
C18 C 0.3006(3) 1.0231(3) 0.6617(3)
C19 C 0.0117(3) 0.9772(3) 0.4547(3)
H7 H 0.22000 0.97500 0.65360
C20 C 0.2433(3) 0.9748(3) 0.6950(3)
C21 C 0.3036(3) 1.0132(3) 0.6935(2)
H8 H 0.31970 1.03940 0.65070
H9 H 0.01960 0.96210 0.45430
C22 C 0.2749(3) 0.9896(3) 0.7091(2)
C23 C 0.2144(2) 0.95054(17) 0.7136(2)
C24 C 0.3379(3) 1.0281(3) 0.7088(2)
H10 H 0.27680 0.98330 0.73030
C25 C 0.1821(3) 0.94339(19) 0.70448(15)
C26 C 0.21846(17) 0.9324(3) 0.7389(3)
C27 C 0.3450(3) 1.0065(3) 0.7285(3)
C28 C 0.3632(3) 1.0602(3) 0.7043(3)
H11 H 0.17940 0.95550 0.68760
C29 C 0.15389(17) 0.9181(2) 0.7206(2)
C30 C 0.1903(2) 0.9071(2) 0.7550(2)
H12 H 0.32840 0.98390 0.73130
C31 C 0.3761(3) 1.0185(3) 0.7435(3)
C32 C 0.3936(3) 1.0715(3) 0.7215(3)
H13 H 0.36060 1.07460 0.69000
H14 H 0.13230 0.91330 0.71450
C33 C 0.15797(19) 0.89991(17) 0.7458(2)
H15 H 0.38050 1.00400 0.75590
C34 C 0.4005(2) 1.0521(3) 0.7401(3)
H16 H 0.41000 1.09430 0.71970
C35 C 0.1238(4) 0.8713(3) 0.7634(4)
C36 C 0.4333(2) 1.0646(2) 0.7573(3)
O9 O 0.0962(2) 0.8624(2) 0.75095(19)
O10 O 0.12985(17) 0.86215(18) 0.78906(19)
In2 In 0.069166(15) 0.828802(15) 0.794546(14)
O11 O 0.0346(2) 0.79617(17) 0.83641(16)
O12 O 0.09048(19) 0.8242(2) 0.84359(17)
O13 O 0.03035(16) 0.84499(16) 0.78176(18)
O14 O 0.07242(18) 0.87573(15) 0.81692(15)
O15 O 0.03723(38) 0.78363(19) 0.76027(17)
O16 O 0.0775(8) 0.7847(4) 0.7876(3)
C37 C 0.0620(4) 0.8053(3) 0.8532(3)
C38 C 0.0466(3) 0.8696(3) 0.7988(3)
C39 C 0.0547(2) 0.7898(2) 0.88851(15)
C40 C 0.0361(2) 0.8967(2) 0.8030(2)
C41 C 0.0261(2) 0.7598(2) 0.8978(2)
C42 C 0.08011(19) 0.80806(18) 0.9113(2)
C43 C 0.0518(3) 0.9222(3) 0.8262(3)
C44 C 0.0098(2) 0.89472(19) 0.7840(2)
C45 C 0.02292(17) 0.74797(19) 0.9298(2)
C46 C 0.07696(18) 0.7963(2) 0.94329(19)
C47 C 0.0412(4) 0.9458(3) 0.8305(3)
C48 C -0.0007(3) 0.9183(3) 0.7882(3)
C49 C 0.0484(2) 0.7662(2) 0.95254(16)
C50 C 0.0150(4) 0.9438(3) 0.8115(4)
C51 C 0.0469(3) 0.7517(3) 0.9855(2)
C52 C 0.0085(4) 0.9725(3) 0.8111(4)
C53 C 0.0166(3) 0.7275(2) 1.0007(2)
C54 C 0.0765(2) 0.7619(2) 1.0028(2)
C55 C -0.0263(4) 0.9668(5) 0.8146(5)
H17 H -0.00400 0.71940 0.98990
C56 C 0.0177(2) 0.7157(2) 1.0321(2)
C57 C 0.0782(3) 0.7516(3) 1.0331(3)
H18 H 0.09670 0.77710 0.99260
C58 C 0.0481(3) 0.7274(2) 1.0490(2)
C59 C -0.0153(2) 0.6902(2) 1.04839(17)
C60 C 0.1110(3) 0.7637(2) 1.0515(3)
H19 H 0.04860 0.71960 1.06990
C61 C -0.0428(3) 0.69544(19) 1.0498(2)
C62 C -0.01773(19) 0.6611(3) 1.0620(2)
C63 C 0.1148(3) 0.7697(3) 1.0851(3)
C64 C 0.1410(3) 0.7711(3) 1.0333(2)
C65 C -0.0727(2) 0.6716(3) 1.0648(2)
C66 C -0.0476(2) 0.63726(18) 1.0770(2)
H20 H 0.09640 0.76500 1.09850
C67 C 0.1479(4) 0.7833(3) 1.0983(3)
C68 C 0.1709(3) 0.7836(3) 1.0481(3)
H21 H 0.13940 0.76710 1.01080
C69 C -0.07512(17) 0.6425(2) 1.07841(19)
H22 H 0.15090 0.78670 1.12080
C70 C 0.1757(3) 0.7917(2) 1.0788(4)
H23 H 0.18930 0.78670 1.03560
C71 C -0.1084(2) 0.6166(3) 1.0966(2)
C72 C 0.2089(3) 0.8083(3) 1.0957(2)
C73 C 1.00567(13) 0.78972(19) 0.6805(2)
C74 C 1.03119(13) 0.78164(14) 0.67754(18)
H24 H 1.02590 0.75910 0.67830
C75 C 1.06460(13) 0.80720(13) 0.67339(11)
C76 C 1.07250(14) 0.84084(13) 0.67220(17)
H25 H 1.09480 0.85790 0.66940
C77 C 1.04698(18) 0.84892(17) 0.6752(2)
N1 N 1.01357(16) 0.8234(2) 0.67932(18)
C78 C 1.09311(14) 0.80201(15) 0.66891(13)
C79 C 1.0896(2) 0.77716(19) 0.64688(19)
H26 H 1.06950 0.76480 0.63530
C80 C 1.1161(2) 0.7708(2) 0.6422(2)
H27 H 1.11380 0.75420 0.62750
C81 C 1.1462(2) 0.7893(3) 0.6596(2)
H28 H 1.16390 0.78510 0.65650
C82 C 1.14968(17) 0.8142(3) 0.6816(2)
H29 H 1.16980 0.82660 0.69320
C83 C 1.12315(14) 0.8205(2) 0.68627(18)
H30 H 1.12550 0.83710 0.70100
O17 O 0.9001(3) 0.8438(4) 0.6926(4)
C84 C 0.98950(19) 0.83705(14) 0.6861(3)
C85 C 0.9786(3) 0.84519(19) 0.6574(2)
H31 H 0.99050 0.84840 0.63790
C86 C 0.9499(3) 0.8486(2) 0.6579(2)
C87 C 0.9322(3) 0.8438(2) 0.6870(3)
C88 C 0.9431(3) 0.83565(19) 0.7156(2)
C89 C 0.9717(3) 0.83228(16) 0.7152(2)
H32 H 0.97900 0.82680 0.73440
C90 C 0.96982(14) 0.76379(15) 0.6862(3)
C91 C 0.9623(2) 0.74415(18) 0.7144(3)
H33 H 0.97900 0.74910 0.73000
C92 C 0.9298(3) 0.71709(17) 0.7193(3)
H34 H 0.92470 0.70400 0.73820
C93 C 0.90477(18) 0.70965(14) 0.6959(3)
H35 H 0.88300 0.69150 0.69920
C94 C 0.9123(2) 0.72928(17) 0.6677(3)
H36 H 0.89560 0.72430 0.65210
C95 C 0.9448(2) 0.75635(17) 0.66283(19)
H37 H 0.94980 0.76950 0.64400
C96 C 1.0548(2) 0.88353(17) 0.6839(4)
C97 C 1.05873(19) 0.9047(2) 0.7101(3)
H38 H 1.05700 0.89700 0.73150
C98 C 1.0652(3) 0.93746(16) 0.7043(4)
H39 H 1.06790 0.95160 0.72190
C99 C 1.0677(3) 0.9490(2) 0.6723(5)
H40 H 1.07210 0.97100 0.66840
C100 C 1.0638(3) 0.9279(4) 0.6460(4)
H41 H 1.06550 0.93560 0.62460
C101 C 1.0573(3) 0.8951(3) 0.6518(3)
H42 H 1.05460 0.88090 0.63430
C102 C 0.92931(19) 0.8306(3) 0.7494(2)
C103 C 0.9273(3) 0.8063(3) 0.7712(3)
H43 H 0.93340 0.79060 0.76450
C104 C 0.9161(3) 0.8054(4) 0.8032(3)
H44 H 0.91470 0.78910 0.81780
C105 C 0.9070(3) 0.8289(5) 0.8133(2)
H45 H 0.89960 0.82830 0.83460
C106 C 0.9091(3) 0.8532(4) 0.7914(4)
H46 H 0.90300 0.86900 0.79810
C107 C 0.9202(2) 0.8541(4) 0.7594(3)
H47 H 0.92160 0.87040 0.74480
C108 C 0.9381(4) 0.8609(6) 0.6300(5)
C109 C 0.9297(5) 0.8863(5) 0.6280(4)
H48 H 0.93470 0.90130 0.64540
C110 C 0.9140(5) 0.8893(5) 0.6000(6)
H49 H 0.90840 0.90620 0.59870
C111 C 0.9066(5) 0.8669(7) 0.5740(4)
H50 H 0.89610 0.86890 0.55530
C112 C 0.9150(5) 0.8415(6) 0.5760(5)
H51 H 0.91000 0.82650 0.55860
C113 C 0.9307(5) 0.8385(5) 0.6040(7)
H52 H 0.93630 0.82150 0.60540
O18 O 0.16670 0.83330 0.83330
C114? C 0.1899(3) 0.9041(3) 0.7513(5)
C115? C 0.0473(4) 0.9540(5) 0.8151(5)
C116? C 0.0575(4) 0.9301(3) 0.8124(6)
C117? C 0.0213(4) 0.9487(4) 0.7937(5)
C118? C 0.0036(6) 0.9203(4) 0.7739(5)
C119? C 0.0103(5) 0.9741(5) 0.7899(5)
C120? C -0.0253(4) 0.9654(4) 0.7949(4)
C121? C 0.1781(3) 1.0582(5) 0.4580(5)
C122? C 0.1382(8) 1.0249(16) 0.456(2)
C123? C 0.0774(4) 0.7754(7) 0.9342(6)
C124? C 0.0823(5) 0.7902(8) 0.9033(7)
C125? C 0.0199(3) 0.7617(5) 0.9357(4)
C126? C 0.0229(3) 0.7723(5) 0.9032(4)
C127? C -0.0281(7) 0.6976(7) 1.0762(5)
C128? C -0.0564(6) 0.6739(3) 1.0934(5)
C129? C -0.0643(5) 0.6329(4) 1.0506(4)
C130? C -0.0376(4) 0.6593(3) 1.0339(4)
O19? O -0.1267(3) 0.6284(3) 1.1050(3)
C131? C 0.4349(2) 1.06357(19) 0.7538(2)
C19A C 0.0228(3) 1.0345(3) 0.4547(3)
C16B C -0.0217(3) 0.9666(4) 0.4549(2)
C16A C -0.0117(3) 1.0217(4) 0.4549(2)
H9A H 0.03790 1.05750 0.45430
C14B C -0.0514(3) 0.9283(3) 0.4549(3)
C19B C -0.0345(3) 0.9883(3) 0.4547(3)
C14A C -0.0203(3) 1.0514(3) 0.4549(3)
C11B C -0.0435(3) 0.9095(3) 0.4737(3)
C12B C -0.0822(4) 0.9142(3) 0.4396(3)
H9B H -0.05750 0.98040 0.45430
C11A C -0.0470(3) 1.0435(3) 0.4737(3)
C12A C -0.0036(4) 1.0822(3) 0.4396(3)
C7B C -0.0659(3) 0.8735(3) 0.4789(3)
H5B H -0.02260 0.91990 0.48420
C8B C -0.1050(3) 0.8786(3) 0.4438(3)
H6B H -0.08820 0.92730 0.42680
C7A C -0.0606(3) 1.0659(3) 0.4789(3)
H5A H -0.05750 1.02260 0.48420
C8A C -0.0164(3) 1.1050(3) 0.4438(3)
H6A H 0.01550 1.08820 0.42680
C4B C -0.0974(4) 0.8586(3) 0.4638(3)
C4A C -0.0440(4) 1.0974(3) 0.4638(3)
C2B C -0.1216(4) 0.8265(4) 0.4636(3)
C2A C -0.0519(4) 1.1216(4) 0.4636(3)
O5E O 0.453897(190) 1.094983(360) 0.754083(170)
O6E O 0.439467(170) 1.046723(320) 0.775333(160)
O3B O -0.1206(2) 0.8050(3) 0.4818(3)
O4B O -0.14867(15) 0.81323(20) 0.4477(2)
O3A O -0.0744(2) 1.1206(3) 0.4818(3)
O4A O -0.03810(15) 1.14867(20) 0.4477(2)
In1E In 0.490421(17) 1.092677(17) 0.791134(16)
In1B In -0.176246(17) 0.759344(17) 0.457801(16)
In1A In -0.064410(17) 1.176246(17) 0.457801(16)
O1B O -0.1869(2) 0.7386(2) 0.50587(15)
O2B O -0.2079(2) 0.7693(3) 0.4944(2)
O5B O -0.21277(19) 0.76165(36) 0.42075(17)
O6B O -0.22720(17) 0.71339(32) 0.44200(16)
O7B O -0.15144(37) 0.72788(18) 0.4581(2)
O8B O -0.1488(4) 0.7527(2) 0.4126(2)
O1A O -0.0745(2) 1.1869(2) 0.50587(15)
O2A O -0.0228(2) 1.2079(3) 0.4944(2)
O5A O -0.02558(19) 1.21277(36) 0.42075(17)
O6A O -0.05941(17) 1.22720(32) 0.44200(16)
O7A O -0.12068(37) 1.15144(18) 0.4581(2)
O8A O -0.0985(4) 1.1488(2) 0.4126(2)
C1B C -0.2018(7) 0.7466(11) 0.5161(4)
C1A C -0.0516(7) 1.2018(11) 0.5161(4)
C3B C -0.2153(4) 0.7463(3) 0.5362(8)
C3A C -0.0384(4) 1.2153(3) 0.5362(8)
C5B C -0.2185(4) 0.7230(4) 0.5691(4)
C6B C -0.2334(5) 0.7561(9) 0.5538(3)
C5A C -0.0585(4) 1.2185(4) 0.5691(4)
C6A C -0.0105(5) 1.2334(9) 0.5538(3)
H1B H -0.20830 0.71000 0.56560
C9B C -0.2333(3) 0.7177(4) 0.6015(3)
C10B C -0.2501(3) 0.7577(3) 0.5842(5)
H2B H -0.23810 0.76870 0.53890
H1A H -0.08170 1.20830 0.56560
C9A C -0.0490(3) 1.2333(4) 0.6015(3)
C10A C 0.0078(3) 1.2501(3) 0.5842(5)
H2A H 0.00680 1.23810 0.53890
H3B H -0.23260 0.70230 0.61590
C13B C -0.2483(3) 0.7363(4) 0.6104(3)
H4B H -0.26060 0.77060 0.58650
H3A H -0.06510 1.23260 0.61590
C13A C -0.0154(3) 1.2483(4) 0.6104(3)
H4A H 0.03120 1.26060 0.58650
C15B C -0.2600(3) 0.7317(3) 0.6459(3)
C15A C -0.0083(3) 1.2600(3) 0.6459(3)
C55A C 0.0332(4) 1.0069(5) 0.8146(5)
C17B C -0.2564(3) 0.7588(3) 0.6634(3)
C18B C -0.2775(3) 0.6994(3) 0.6617(3)
C17A C 0.0152(3) 1.2564(3) 0.6634(3)
C18A C -0.0231(3) 1.2775(3) 0.6617(3)
C52B C -0.0360(4) 0.9915(3) 0.8111(4)
C52A C 0.0275(4) 1.0360(3) 0.8111(4)
H7B H -0.24500 0.78000 0.65360
C20B C -0.2685(3) 0.7567(3) 0.6950(3)
C21B C -0.2904(3) 0.6964(3) 0.6935(2)
H8B H -0.28030 0.68030 0.65070
H7A H 0.02500 1.24500 0.65360
C20A C 0.0252(3) 1.2685(3) 0.6950(3)
C21A C -0.0132(3) 1.2904(3) 0.6935(2)
H8A H -0.03940 1.28030 0.65070
C50B C -0.0712(4) 0.9850(3) 0.8115(4)
C55B C -0.0069(4) 1.0263(5) 0.8146(5)
C50A C 0.0562(4) 1.0712(3) 0.8115(4)
C22B C -0.2853(3) 0.7251(3) 0.7091(2)
C23B C -0.26386(20) 0.78560(17) 0.7136(2)
C24B C -0.3098(3) 0.6621(3) 0.7088(2)
C22A C 0.0104(3) 1.2853(3) 0.7091(2)
C23A C 0.04946(20) 1.26386(17) 0.7136(2)
C24A C -0.0281(3) 1.3098(3) 0.7088(2)
C47B C -0.0954(4) 0.9588(3) 0.8305(3)
C48B C -0.0810(3) 1.0007(3) 0.7882(3)
C47A C 0.0542(4) 1.0954(3) 0.8305(3)
C48A C 0.0817(3) 1.0810(3) 0.7882(3)
H10B H -0.29350 0.72320 0.73030
C25B C -0.23871(30) 0.81790(19) 0.70448(15)
C26B C -0.28606(17) 0.78154(30) 0.7389(3)
C27B C -0.3385(3) 0.6550(3) 0.7285(3)
C28B C -0.3030(3) 0.6368(3) 0.7043(3)
H10A H 0.01670 1.29350 0.73030
C25A C 0.05661(30) 1.23871(19) 0.70448(15)
C26A C 0.06760(17) 1.28606(30) 0.7389(3)
C27A C -0.0065(3) 1.3385(3) 0.7285(3)
C28A C -0.0602(3) 1.3030(3) 0.7043(3)
C43B C -0.1296(3) 0.9482(3) 0.8262(3)
C44B C -0.11508(20) 0.99020(19) 0.7840(2)
C43A C 0.0778(3) 1.1296(3) 0.8262(3)
C44A C 0.10528(20) 1.11508(19) 0.7840(2)
H11B H -0.22390 0.82060 0.68760
C29B C -0.23579(17) 0.84611(20) 0.7206(2)
C30B C -0.2832(2) 0.8097(2) 0.7550(2)
H12B H -0.34450 0.67160 0.73130
C31B C -0.3576(3) 0.6239(3) 0.7435(3)
C32B C -0.3221(3) 0.6064(3) 0.7215(3)
H13B H -0.28600 0.63940 0.69000
H11A H 0.04450 1.22390 0.68760
C29A C 0.08190(17) 1.23579(20) 0.7206(2)
C30A C 0.0929(2) 1.2832(2) 0.7550(2)
H12A H 0.01610 1.34450 0.73130
C31A C -0.0185(3) 1.3576(3) 0.7435(3)
C32A C -0.0715(3) 1.3221(3) 0.7215(3)
H13A H -0.07460 1.28600 0.69000
C40B C -0.1394(2) 0.9639(2) 0.8030(2)
C40A C 0.1033(2) 1.1394(2) 0.8030(2)
H14B H -0.21900 0.86770 0.71450
C33B C -0.25806(19) 0.84203(17) 0.7458(2)
H15B H -0.37650 0.61950 0.75590
C34B C -0.3484(2) 0.5995(3) 0.7401(3)
H16B H -0.31570 0.59000 0.71970
H14A H 0.08670 1.21900 0.71450
C33A C 0.10009(19) 1.25806(17) 0.7458(2)
H15A H -0.00400 1.37650 0.75590
C34A C -0.0521(2) 1.3484(3) 0.7401(3)
H16A H -0.09430 1.31570 0.71970
C38B C -0.1770(3) 0.9534(3) 0.7988(3)
C38A C 0.1304(3) 1.1770(3) 0.7988(3)
C35B C -0.2525(4) 0.8762(3) 0.7634(4)
C36B C -0.3687(2) 0.5667(2) 0.7573(3)
C35A C 0.1287(4) 1.2525(3) 0.7634(4)
C36A C -0.0646(2) 1.3687(2) 0.7573(3)
O15D O -0.116963(380) 0.586933(190) 1.093603(170)
O16D O -0.118033(800) 0.626133(400) 1.120933(300)
O7G O 0.212653(370) 0.818107(180) 1.124767(200)
O8G O 0.234833(400) 0.815467(200) 1.079267(200)
O13B O -0.18536(16) 0.96965(16) 0.78176(18)
O14B O -0.19669(18) 0.92758(15) 0.81692(15)
O13A O 0.15501(16) 1.18536(16) 0.78176(18)
O14A O 0.12427(18) 1.19669(15) 0.81692(15)
O9B O -0.2338(2) 0.9038(2) 0.75095(19)
O10B O -0.26770(17) 0.87015(18) 0.78906(19)
O5D O -0.358913(190) 0.546103(360) 0.754083(170)
O6D O -0.392743(170) 0.560533(320) 0.775333(160)
O9A O 0.1376(2) 1.2338(2) 0.75095(19)
O10A O 0.13785(17) 1.26770(18) 0.78906(19)
O5C O -0.094983(190) 1.358913(360) 0.754083(170)
O6C O -0.046723(170) 1.392743(320) 0.775333(160)
In2D In -0.162135(15) 0.573697(15) 1.127879(14)
In1G In 0.268923(17) 0.842913(17) 1.124468(16)
In2B In -0.240364(15) 0.930834(15) 0.794546(14)
In2A In 0.171198(15) 1.240364(15) 0.794546(14)
In1D In -0.397743(17) 0.509579(17) 0.791134(16)
In1C In -0.092677(17) 1.397743(17) 0.791134(16)
O11B O -0.23843(20) 0.96540(17) 0.83641(16)
O12B O -0.26628(19) 0.90952(20) 0.84359(17)
O15B O -0.25360(38) 0.96277(19) 0.76027(17)
O16B O -0.2928(8) 0.9225(4) 0.7876(3)
O11A O 0.20383(20) 1.23843(17) 0.83641(16)
O12A O 0.17580(19) 1.26628(20) 0.84359(17)
O15A O 0.21637(38) 1.25360(19) 0.76027(17)
O16A O 0.2153(8) 1.2928(4) 0.7876(3)
C37B C -0.2567(4) 0.9380(3) 0.8532(3)
C37A C 0.1947(4) 1.2567(3) 0.8532(3)
C39B C -0.2649(2) 0.9453(2) 0.88851(15)
C39A C 0.2102(2) 1.2649(2) 0.88851(15)
C41B C -0.2663(2) 0.9739(2) 0.8978(2)
C42B C -0.27205(19) 0.91989(18) 0.9113(2)
C41A C 0.2402(2) 1.2663(2) 0.8978(2)
C42A C 0.19194(19) 1.27205(18) 0.9113(2)
C45B C -0.27495(17) 0.97708(19) 0.9298(2)
C46B C -0.28066(18) 0.92304(20) 0.94329(19)
C45A C 0.25203(17) 1.27495(19) 0.9298(2)
C46A C 0.20370(18) 1.28066(20) 0.94329(19)
C49B C -0.2822(2) 0.9516(2) 0.95254(16)
C49A C 0.2338(2) 1.2822(2) 0.95254(16)
C51B C -0.2952(3) 0.9531(3) 0.9855(2)
C51A C 0.2483(3) 1.2952(3) 0.9855(2)
C53B C -0.2891(3) 0.9834(2) 1.0007(2)
C54B C -0.3146(2) 0.9235(2) 1.0028(2)
C53A C 0.2725(3) 1.2891(2) 1.0007(2)
C54A C 0.2381(2) 1.3146(2) 1.0028(2)
H17B H -0.27660 1.00400 0.98990
C56B C -0.3020(2) 0.9823(2) 1.0321(2)
C57B C -0.3266(3) 0.9218(3) 1.0331(3)
H18B H -0.31960 0.90330 0.99260
C56A C 0.2843(2) 1.3020(2) 1.0321(2)
H17A H 0.28060 1.27660 0.98990
C57A C 0.2484(3) 1.3266(3) 1.0331(3)
H18A H 0.22290 1.31960 0.99260
C58B C -0.3207(3) 0.9519(2) 1.0490(2)
C59B C -0.2945(2) 1.0153(2) 1.04839(17)
C60B C -0.3473(3) 0.8890(2) 1.0515(3)
C59A C 0.3098(2) 1.2945(2) 1.04839(17)
C58A C 0.2726(3) 1.3207(2) 1.0490(2)
C60A C 0.2363(3) 1.3473(2) 1.0515(3)
H19B H -0.32900 0.95140 1.06990
C61B C -0.26176(30) 1.04280(19) 1.0498(2)
C62B C -0.32117(19) 1.01773(30) 1.0620(2)
C63B C -0.3451(3) 0.8852(3) 1.0851(3)
C64B C -0.3699(3) 0.8590(3) 1.0333(2)
C61A C 0.30456(30) 1.26176(19) 1.0498(2)
C62A C 0.33890(19) 1.32117(30) 1.0620(2)
H19A H 0.28040 1.32900 1.06990
C63A C 0.2303(3) 1.3451(3) 1.0851(3)
C64A C 0.2289(3) 1.3699(3) 1.0333(2)
C65B C -0.2557(2) 1.0727(3) 1.0648(2)
C66B C -0.31514(20) 1.04760(18) 1.0770(2)
H20B H -0.33140 0.90360 1.09850
C67B C -0.3646(4) 0.8521(3) 1.0983(3)
C68B C -0.3873(3) 0.8291(3) 1.0481(3)
H21B H -0.37230 0.86060 1.01080
C65A C 0.3284(2) 1.2557(3) 1.0648(2)
C66A C 0.36274(20) 1.31514(18) 1.0770(2)
H20A H 0.23500 1.33140 1.09850
C67A C 0.2167(4) 1.3646(3) 1.0983(3)
C68A C 0.2164(3) 1.3873(3) 1.0481(3)
H21A H 0.23290 1.37230 1.01080
C69B C -0.28238(17) 1.07512(20) 1.07841(19)
H22B H -0.36420 0.84910 1.12080
C70B C -0.3840(3) 0.8243(2) 1.0788(4)
H23B H -0.40260 0.81070 1.03560
C69A C 0.35750(17) 1.28238(20) 1.07841(19)
H22A H 0.21330 1.36420 1.12080
C70A C 0.2083(3) 1.3840(2) 1.0788(4)
H23A H 0.21330 1.40260 1.03560
C71B C -0.2750(2) 1.1084(3) 1.0966(2)
C72B C -0.4006(3) 0.7911(3) 1.0957(2)
C71A C 0.3834(2) 1.2750(3) 1.0966(2)
C72A C 0.1917(3) 1.4006(3) 1.0957(2)
O15C O -0.296103(380) 1.116963(190) 1.093603(170)
O16C O -0.255833(800) 1.118033(400) 1.120933(300)
O7F O -0.394547(370) 0.787347(180) 1.124767(200)
O8F O -0.419367(400) 0.765167(200) 1.079267(200)
O15E O 0.413067(380) 1.296103(190) 1.093603(170)
O16E O 0.373867(800) 1.255833(400) 1.120933(300)
O7H O 0.181893(370) 1.394547(180) 1.124767(200)
O8H O 0.184533(400) 1.419367(200) 1.079267(200)
In2C In -0.264167(15) 1.162135(15) 1.127879(14)
In1F In -0.426011(17) 0.731077(17) 1.124468(16)
In2E In 0.426303(15) 1.264167(15) 1.127879(14)
In1H In 0.157087(17) 1.426011(17) 1.124468(16)
#END
