
#######################################################################
#
#                 Cambridge Crystallographic Data Centre
#                                CCDC
#
#######################################################################
#
# If this CIF has been generated from an entry in the Cambridge
# Structural Database, then it will include bibliographic, chemical,
# crystal, experimental, refinement or atomic coordinate data resulting
# from the CCDC's data processing and validation procedures.
#
#######################################################################

data_CSD_CIF_FOTLAD
_audit_creation_date 2014-11-12
_audit_creation_method CSD-ConQuest-V1
_database_code_CSD FOTLAD
_database_code_depnum_ccdc_archive 'CCDC 1011636'
_chemical_formula_sum 'C13 H17 Cu1 N3 O8'
_chemical_formula_moiety
;
(C7 H4 Cu1 N1 O6 1-)n,C6 H9 N2 1+,2(H2 O1)
;
_journal_coden_Cambridge 119
_journal_volume 1080
_journal_year 2015
_journal_page_first 30
_journal_name_full 'J.Mol.Struct. '
loop_
_publ_author_name
"M.Mirzaei"
"H.Eshtiagh-Hosseini"
"Z.Karrabi"
"B.Notash"
"A.Bauza"
"A.Frontera"
_chemical_name_systematic
;
catena-[2-amino-6-methylpyridinium 
(\m-4-oxidopyridine-2,6-dicarboxylato)-copper(ii) dihydrate]
;
_cell_volume   1508.291
_exptl_crystal_colour 'green'
_exptl_crystal_density_diffrn 1.792
_exptl_crystal_description 'plate'
_diffrn_ambient_temperature 120
#These two values have been output from a single CSD field.
_refine_ls_R_factor_gt 0.0392
_refine_ls_wR_factor_gt 0.0392
_symmetry_cell_setting monoclinic
_symmetry_space_group_name_H-M 'P 21/c'
_symmetry_Int_Tables_number 14
loop_
_symmetry_equiv_pos_site_id
_symmetry_equiv_pos_as_xyz
1 x,y,z
2 -x,1/2+y,1/2-z
3 -x,-y,-z
4 x,-1/2-y,-1/2+z
_cell_length_a 10.089(2)
_cell_length_b 14.902(3)
_cell_length_c 10.296(2)
_cell_angle_alpha 90
_cell_angle_beta 103.00(3)
_cell_angle_gamma 90
_cell_formula_units_Z 4
loop_
_atom_type_symbol
_atom_type_radius_bond
C 0.68
H 0.23
Cu 1.32
N 0.68
O 0.68
loop_
_atom_site_label
_atom_site_type_symbol
_atom_site_fract_x
_atom_site_fract_y
_atom_site_fract_z
Cu1 Cu 0.48631(3) 0.071241(16) 0.70621(3)
O1 O 0.60720(16) 0.12411(10) 0.59269(17)
O2 O 0.68489(16) 0.25416(11) 0.53203(17)
O3 O 0.36253(16) 0.06682(10) 0.84728(17)
O4 O 0.24340(16) 0.1600(1) 0.95056(17)
O5 O 0.42648(15) 0.46089(10) 0.81319(17)
O6 O 0.29933(17) 0.02946(12) 0.54442(19)
N1 N 0.45987(18) 0.19585(11) 0.73244(19)
C1 C 0.6147(2) 0.20973(14) 0.5934(2)
C2 C 0.5304(2) 0.25540(14) 0.6780(2)
C3 C 0.5256(2) 0.34651(14) 0.7025(2)
H1 H 0.57820 0.38750 0.66440
C4 C 0.4407(2) 0.37740(13) 0.7855(2)
C5 C 0.3677(2) 0.31183(14) 0.8414(2)
H2 H 0.30940 0.32960 0.89750
C6 C 0.3818(2) 0.22231(13) 0.8138(2)
C7 C 0.3230(2) 0.14484(14) 0.8761(2)
H3 H 0.267(3) -0.015(2) 0.561(3)
H4 H 0.328(3) 0.021(2) 0.479(3)
O7 O 0.11361(19) 0.17007(12) 0.5271(2)
H5 H 0.149(3) 0.2150(15) 0.508(3)
H6 H 0.167(2) 0.1312(16) 0.528(3)
O8 O 0.1664(2) 0.87022(13) 0.5821(2)
H7 H 0.093(2) 0.854(2) 0.552(3)
H8 H 0.208(3) 0.837(2) 0.550(3)
N2 N 0.7110(2) 0.06332(13) 0.9658(2)
N3 N 0.85611(18) -0.03583(12) 0.8937(2)
C8 C 0.9895(2) -0.15584(15) 0.8259(2)
H9 H 0.91230 -0.19060 0.77590
H10 H 1.01380 -0.17710 0.91830
H11 H 1.06750 -0.16340 0.78480
C9 C 0.9515(2) -0.05892(14) 0.8240(2)
C10 C 1.0047(2) 0.00701(16) 0.7587(2)
H12 H 1.07130 -0.00740 0.70970
C11 C 0.9609(2) 0.09600(16) 0.7642(2)
H13 H 0.99860 0.14180 0.71940
C12 C 0.8643(2) 0.11738(14) 0.8334(2)
H14 H 0.83490 0.17770 0.83680
C13 C 0.8091(2) 0.04903(14) 0.8994(2)
H15 H 0.690(3) 0.0234(16) 1.015(3)
H16 H 0.829(3) -0.076(2) 0.933(3)
H17 H 0.695(3) 0.115(2) 0.983(3)
Cu1A Cu 0.51369(3) 0.571241(16) 0.79379(3)
O5A O 0.57352(15) -0.03911(10) 0.68681(17)
#END
