
#######################################################################
#
#                 Cambridge Crystallographic Data Centre
#                                CCDC
#
#######################################################################
#
# If this CIF has been generated from an entry in the Cambridge
# Structural Database, then it will include bibliographic, chemical,
# crystal, experimental, refinement or atomic coordinate data resulting
# from the CCDC's data processing and validation procedures.
#
#######################################################################

data_CSD_CIF_FOTQAI
_audit_creation_date 2014-11-12
_audit_creation_method CSD-ConQuest-V1
_database_code_CSD FOTQAI
_database_code_depnum_ccdc_archive 'CCDC 1009124'
_chemical_formula_sum 'C42 H30 Cu6 Mo12 N24 O40 P1'
_chemical_formula_moiety
;
(C7 H5 Cu1 N4 1+)6n,n(Mo12 O40 P1 6-)
;
_journal_coden_Cambridge 1147
_journal_volume 14
_journal_year 2014
_journal_page_first 5773
_journal_name_full 'Cryst.Growth Des. '
loop_
_publ_author_name
"Zhi-Kai Qi"
"Jun-Liang Liu"
"Juan-Juan Hou"
"Min-Min Liu"
"Xian-Ming Zhang"
_chemical_name_systematic
;
catena-(hexakis((\m~3~-3-(2-Pyrazinyl)pyrazolato)-copper) 
(\m~12~-phosphato)-tetracosakis(\m~2~-oxo)-dodecaoxo-dodeca-molybdenum)
;
_cell_volume   5377.993
_exptl_crystal_density_diffrn 2.848
_exptl_crystal_description 'block'
_diffrn_ambient_temperature 293
_refine_special_details
;
The anion is disordered by symmetry.

;
#These two values have been output from a single CSD field.
_refine_ls_R_factor_gt 0.0316
_refine_ls_wR_factor_gt 0.0316
_symmetry_cell_setting rhombohedral
_symmetry_space_group_name_H-M 'R -3'
_symmetry_Int_Tables_number 148
loop_
_symmetry_equiv_pos_site_id
_symmetry_equiv_pos_as_xyz
1 x,y,z
2 -y,x-y,z
3 -x+y,-x,z
4 2/3+x,1/3+y,1/3+z
5 2/3-y,1/3+x-y,1/3+z
6 2/3-x+y,1/3-x,1/3+z
7 1/3+x,2/3+y,2/3+z
8 1/3-y,2/3+x-y,2/3+z
9 1/3-x+y,2/3-x,2/3+z
10 -x,-y,-z
11 y,-x+y,-z
12 x-y,x,-z
13 -2/3-x,-1/3-y,-1/3-z
14 -2/3+y,-1/3-x+y,-1/3-z
15 -2/3+x-y,-1/3+x,-1/3-z
16 -1/3-x,-2/3-y,-2/3-z
17 -1/3+y,-2/3-x+y,-2/3-z
18 -1/3+x-y,-2/3+x,-2/3-z
_cell_length_a 17.7586(5)
_cell_length_b 17.7586(5)
_cell_length_c 19.6912(6)
_cell_angle_alpha 90
_cell_angle_beta 90
_cell_angle_gamma 120
_cell_formula_units_Z 3
loop_
_atom_type_symbol
_atom_type_radius_bond
C 0.68
H 0.23
Cu 1.32
Mo 1.54
N 0.68
O 0.68
P 1.05
loop_
_atom_site_label
_atom_site_type_symbol
_atom_site_fract_x
_atom_site_fract_y
_atom_site_fract_z
Mo1 Mo 0.81387(3) 0.56415(3) 0.82742(2)
Mo2 Mo 0.67444(3) 0.45143(3) 0.68676(2)
P1 P 0.66670 0.33330 0.83330
O1 O 0.6760(2) 0.5091(2) 0.61372(15)
O2 O 0.7032(7) 0.5723(6) 0.8525(6)
O3 O 0.8718(9) 0.6722(10) 0.8163(5)
O4 O 0.7561(5) 0.4145(5) 0.6455(4)
O5 O 0.6064(6) 0.4944(5) 0.7431(4)
O6 O 0.7799(8) 0.5635(7) 0.7385(6)
O7 O 0.6788(4) 0.4202(4) 0.8088(3)
O8 O 0.66670 0.33330 0.7541(5)
Cu1 Cu 0.58981(4) 0.53584(4) 0.57127(3)
N1 N 0.5179(2) 0.5846(2) 0.53556(18)
N2 N 0.6426(2) 0.6476(2) 0.62646(18)
N3 N 0.4483(2) 0.5583(3) 0.49499(19)
C1 C 0.5340(3) 0.6591(3) 0.5654(2)
N4 N 0.6962(2) 0.8037(2) 0.69392(19)
C2 C 0.6329(3) 0.7743(3) 0.6483(2)
H1 H 0.60660 0.80700 0.63870
C3 C 0.7339(3) 0.7562(3) 0.7046(2)
H2 H 0.77920 0.77580 0.73580
C4 C 0.7081(3) 0.6786(3) 0.6710(2)
H3 H 0.73670 0.64780 0.67950
C5 C 0.6043(3) 0.6956(3) 0.6143(2)
C6 C 0.4228(4) 0.6182(4) 0.4990(3)
H4 H 0.37660 0.61600 0.47510
C7 C 0.4753(4) 0.6828(4) 0.5436(3)
H5 H 0.47190 0.73150 0.55620
O9? O 0.8876(10) 0.6696(10) 0.8410(6)
O10? O 0.7572(5) 0.4167(5) 0.6809(4)
O11? O 0.6975(7) 0.5370(6) 0.8472(5)
O12? O 0.7705(6) 0.5250(6) 0.7383(5)
O13? O 0.6028(6) 0.4565(5) 0.7424(4)
O7A O 0.5798(4) 0.2586(4) 0.8088(3)
O7B O 0.7414(4) 0.3212(4) 0.8088(3)
O7L O 0.654533(400) 0.246467(400) 0.857867(300)
O8L O 0.66663 0.33337 0.912567(500)
O7M O 0.753533(400) 0.408067(400) 0.857867(300)
O7N O 0.591933(400) 0.345467(400) 0.857867(300)
Mo1A Mo 0.43585(3) 0.24972(3) 0.82742(2)
Mo2A Mo 0.54857(3) 0.22301(3) 0.68676(2)
O1A O 0.4909(2) 0.1669(2) 0.61372(15)
O2A O 0.4277(7) 0.1309(6) 0.8525(6)
O3A O 0.3278(9) 0.1996(10) 0.8163(5)
O4A O 0.5855(5) 0.3416(5) 0.6455(4)
O5A O 0.5056(6) 0.1120(5) 0.7431(4)
O6A O 0.4365(8) 0.2164(7) 0.7385(6)
Mo1B Mo 0.75028(3) 0.18613(3) 0.82742(2)
Mo2B Mo 0.77699(3) 0.32556(3) 0.68676(2)
O1B O 0.8331(2) 0.3240(2) 0.61372(15)
O2B O 0.8691(7) 0.2968(6) 0.8525(6)
O3B O 0.8004(9) 0.1282(10) 0.8163(5)
O4B O 0.6584(5) 0.2439(5) 0.6455(4)
O5B O 0.8880(6) 0.3936(5) 0.7431(4)
O6B O 0.7836(8) 0.2201(7) 0.7385(6)
Mo1L Mo 0.519463(30) 0.102517(30) 0.839247(20)
Mo2L Mo 0.658893(30) 0.215237(30) 0.979907(20)
O1L O 0.657333(200) 0.157567(200) 1.052947(150)
O2L O 0.630133(700) 0.094367(600) 0.814167(600)
O3L O 0.461533(900) -0.005533(1000) 0.850367(500)
O4L O 0.577233(500) 0.252167(500) 1.021167(400)
O5L O 0.726933(600) 0.172267(500) 0.923567(400)
O6L O 0.553433(800) 0.103167(700) 0.928167(600)
Mo1M Mo 0.897483(30) 0.416947(30) 0.839247(20)
Mo2M Mo 0.784763(30) 0.443657(30) 0.979907(20)
O1M O 0.842433(200) 0.499767(200) 1.052947(150)
O2M O 0.905633(700) 0.535767(600) 0.814167(600)
O3M O 1.005533(900) 0.467067(1000) 0.850367(500)
O4M O 0.747833(500) 0.325067(500) 1.021167(400)
O5M O 0.827733(600) 0.554667(500) 0.923567(400)
O6M O 0.896833(800) 0.450267(700) 0.928167(600)
Mo1N Mo 0.583053(30) 0.480537(30) 0.839247(20)
Mo2N Mo 0.556343(30) 0.341107(30) 0.979907(20)
O1N O 0.500233(200) 0.342667(200) 1.052947(150)
O2N O 0.464233(700) 0.369867(600) 0.814167(600)
O3N O 0.532933(900) 0.538467(1000) 0.850367(500)
O4N O 0.674933(500) 0.422767(500) 1.021167(400)
O5N O 0.445333(600) 0.273067(500) 0.923567(400)
O6N O 0.549733(800) 0.446567(700) 0.928167(600)
Cu1I Cu 0.41019(4) 0.46416(4) 0.42873(3)
Cu1Q Cu 0.720637(40) 0.923143(40) 0.762063(30)
N3I N 0.5517(2) 0.4417(3) 0.50501(19)
N4P N 0.470367(200) 0.440833(200) 0.639413(190)
#END
