
#######################################################################
#
#                 Cambridge Crystallographic Data Centre
#                                CCDC
#
#######################################################################
#
# If this CIF has been generated from an entry in the Cambridge
# Structural Database, then it will include bibliographic, chemical,
# crystal, experimental, refinement or atomic coordinate data resulting
# from the CCDC's data processing and validation procedures.
#
#######################################################################

data_CSD_CIF_FOTVUG
_audit_creation_date 2009-09-01
_audit_creation_method CSD-ConQuest-V1
_database_code_CSD FOTVUG
_database_code_depnum_ccdc_archive 'CCDC 742225'
_chemical_formula_sum 'C22 H38 N8 Ni2 O18'
_chemical_formula_moiety
;
(C6 H16 N4 Ni1 O4 2+)n,n(C16 H14 N4 Ni1 O10 2-),4n(H2 O1)
;
_journal_coeditor_code "IUCr EM3027"
_journal_coden_Cambridge 591
_journal_volume 65
_journal_year 2009
_journal_page_first m241
_journal_name_full 'Acta Crystallogr.,Sect.C:Cryst.Struct.Commun. '
loop_
_publ_author_name
"A.M.Atria"
"G.Corsini"
"L.Gonzalez"
"M.T.Garland"
"R.Baggio"
_chemical_name_systematic
;
catena-(tetraaqua-bis(1H-pyrazole-N^2^)-nickel(ii) 
(\m~2~-1,2,4,5-benzenetetracarboxylato-O,O'')-diaqua-bis(1H-pyrazole-N^2^)-di-
nickel(ii) tetrahydrate)
;
_cell_volume    841.307
_exptl_crystal_colour 'colorless'
_exptl_crystal_density_diffrn 1.619
_exptl_crystal_description 'needle'
_diffrn_ambient_temperature 298
#These two values have been output from a single CSD field.
_refine_ls_R_factor_gt 0.0494
_refine_ls_wR_factor_gt 0.0494
_symmetry_cell_setting triclinic
_symmetry_space_group_name_H-M 'P -1'
_symmetry_Int_Tables_number 2
loop_
_symmetry_equiv_pos_site_id
_symmetry_equiv_pos_as_xyz
1 x,y,z
2 -x,-y,-z
_cell_length_a 7.6399(12)
_cell_length_b 10.7925(17)
_cell_length_c 11.4616(19)
_cell_angle_alpha 73.224(3)
_cell_angle_beta 74.613(2)
_cell_angle_gamma 71.287(3)
_cell_formula_units_Z 1
loop_
_atom_type_symbol
_atom_type_radius_bond
C 0.68
H 0.23
N 0.68
Ni 1.24
O 0.68
loop_
_atom_site_label
_atom_site_type_symbol
_atom_site_fract_x
_atom_site_fract_y
_atom_site_fract_z
Ni1 Ni 0.00000 0.50000 1.00000
Ni2 Ni 0.50000 0.00000 0.50000
O1 O 0.2245(3) 0.7347(2) 0.5380(2)
O2 O -0.0754(3) 0.7843(2) 0.6323(2)
O3 O 0.0276(3) 0.5108(2) 0.81139(18)
O4 O -0.2319(3) 0.4510(3) 0.8245(2)
N1 N 0.2330(4) 0.3358(3) 1.0064(2)
N2 N 0.2635(5) 0.2457(3) 1.1120(3)
H1 H 0.18670 0.24850 1.18190
N3 N 0.2921(4) 0.0288(3) 0.6548(3)
N4 N 0.2614(5) 0.1258(4) 0.7161(3)
H2 H 0.32330 0.18540 0.69380
C1 C 0.0384(4) 0.5966(3) 0.5414(3)
C2 C -0.0456(4) 0.5005(3) 0.6274(3)
C3 C 0.0830(4) 0.5941(3) 0.4164(3)
H3 H 0.13970 0.65780 0.36010
C4 C 0.0661(5) 0.7128(3) 0.5750(3)
C5 C -0.0885(4) 0.4871(3) 0.7661(3)
C6 C 0.4230(8) 0.1525(5) 1.0979(5)
H4 H 0.47070 0.08060 1.15890
C7 C 0.5028(7) 0.1819(5) 0.9784(6)
H5 H 0.61820 0.13500 0.93990
C8 C 0.3795(6) 0.2970(4) 0.9220(4)
H6 H 0.39820 0.33910 0.83830
C9 C 0.1238(8) 0.1179(6) 0.8154(5)
H7 H 0.07810 0.17460 0.87050
C10 C 0.0637(7) 0.0118(7) 0.8204(5)
H8 H -0.02980 -0.02000 0.88080
C11 C 0.1688(6) -0.0419(4) 0.7173(4)
H9 H 0.15450 -0.11470 0.69610
O5 O 0.1654(3) 0.6350(2) 0.9435(2)
H10 H 0.24670 0.63030 0.87680
H11 H 0.22460 0.61720 1.00210
O6 O 0.4087(3) 0.2026(2) 0.4274(2)
H12 H 0.47170 0.25620 0.37950
H13 H 0.30670 0.22120 0.40160
O7 O 0.3164(3) -0.0361(2) 0.4165(2)
H14 H 0.21460 0.02610 0.41390
H15 H 0.28840 -0.10700 0.46270
O8 O 0.4509(3) 0.5957(3) 0.7361(2)
H16 H 0.41400 0.55470 0.69790
H17 H 0.54940 0.54260 0.76150
O9 O 0.5589(4) 0.6224(3) 0.3864(3)
H18 H 0.64170 0.59080 0.43200
H19 H 0.45190 0.63750 0.43410
Ni1* Ni 0.00000 0.50000 0.00000
O1A O -0.2245(3) 0.2653(2) 0.4620(2)
O2A O 0.0754(3) 0.2157(2) 0.3677(2)
O3A O -0.0276(3) 0.4892(2) 0.18861(18)
O3A* O -0.0276(3) 0.4892(2) 1.18861(18)
O4A O 0.2319(3) 0.5490(3) 0.1755(2)
N1A N -0.2330(4) 0.6642(3) 0.9936(2)
N2A N -0.2635(5) 0.7543(3) 0.8880(3)
H1A H -0.18670 0.75150 0.81810
N3A N 0.7079(4) -0.0288(3) 0.3452(3)
N4A N 0.7386(5) -0.1258(4) 0.2839(3)
H2A H 0.67670 -0.18540 0.30620
C1A C -0.0384(4) 0.4034(3) 0.4586(3)
C2A C 0.0456(4) 0.4995(3) 0.3726(3)
C3A C -0.0830(4) 0.4059(3) 0.5836(3)
H3A H -0.13970 0.34220 0.63990
C4A C -0.0661(5) 0.2872(3) 0.4250(3)
C5A C 0.0885(4) 0.5129(3) 0.2339(3)
C6A C -0.4230(8) 0.8475(5) 0.9021(5)
H4A H -0.47070 0.91940 0.84110
C7A C -0.5028(7) 0.8181(5) 1.0216(6)
H5A H -0.61820 0.86500 1.06010
C8A C -0.3795(6) 0.7030(4) 1.0780(4)
H6A H -0.39820 0.66090 1.16170
C9A C 0.8762(8) -0.1179(6) 0.1846(5)
H7A H 0.92190 -0.17460 0.12950
C10A C 0.9363(7) -0.0118(7) 0.1796(5)
H8A H 1.02980 0.02000 0.11920
C11A C 0.8312(6) 0.0419(4) 0.2827(4)
H9A H 0.84550 0.11470 0.30390
O5A O -0.1654(3) 0.3650(2) 1.0565(2)
H10A H -0.24670 0.36970 1.12320
H11A H -0.22460 0.38280 0.99790
O6A O 0.5913(3) -0.2026(2) 0.5726(2)
H12A H 0.52830 -0.25620 0.62050
H13A H 0.69330 -0.22120 0.59840
O7A O 0.6836(3) 0.0361(2) 0.5835(2)
H14A H 0.78540 -0.02610 0.58610
H15A H 0.71160 0.10700 0.53730
#END
