
#######################################################################
#
#                 Cambridge Crystallographic Data Centre
#                                CCDC
#
#######################################################################
#
# If this CIF has been generated from an entry in the Cambridge
# Structural Database, then it will include bibliographic, chemical,
# crystal, experimental, refinement or atomic coordinate data resulting
# from the CCDC's data processing and validation procedures.
#
#######################################################################

data_CSD_CIF_FOWVUK
_audit_creation_date 2014-11-12
_audit_creation_method CSD-ConQuest-V1
_database_code_CSD FOWVUK
_database_code_depnum_ccdc_archive 'CCDC 971683'
_chemical_formula_sum 'C30 H32 Eu1 N5 O10'
_chemical_formula_moiety
;
(C30 H24 Eu1 N4 O8 1-)n,H4 N1 1+,2(H2 O1)
;
_journal_coden_Cambridge 154
_journal_volume 67
_journal_year 2014
_journal_page_first 895
_journal_name_full 'Aust.J.Chem. '
loop_
_publ_author_name
"Baoming Ji"
"Chunying Xu"
"L.Liu"
"Guojie Yin"
"Chenxia Du"
_chemical_name_systematic
;
catena-[ammonium 
bis(\m-4,4'-propane-1,3-diyldipyridine-2-carboxylato)-europium dihydrate]
;
_cell_volume   6404.772
_exptl_crystal_colour 'colorless'
_exptl_crystal_density_diffrn 1.598
_exptl_crystal_description 'block'
_diffrn_ambient_temperature 296
_refine_special_details
;
O10,O9 and O10',O9' disordered over two sites with occupancies 0.50:0.50.

;
#These two values have been output from a single CSD field.
_refine_ls_R_factor_gt 0.0443
_refine_ls_wR_factor_gt 0.0443
_symmetry_cell_setting monoclinic
_symmetry_space_group_name_H-M 'C 2/c'
_symmetry_Int_Tables_number 15
loop_
_symmetry_equiv_pos_site_id
_symmetry_equiv_pos_as_xyz
1 x,y,z
2 -x,y,1/2-z
3 1/2+x,1/2+y,z
4 1/2-x,1/2+y,1/2-z
5 -x,-y,-z
6 x,-y,-1/2+z
7 -1/2-x,-1/2-y,-z
8 -1/2+x,-1/2-y,-1/2+z
_cell_length_a 22.848(3)
_cell_length_b 13.2562(17)
_cell_length_c 23.117(5)
_cell_angle_alpha 90
_cell_angle_beta 113.829(2)
_cell_angle_gamma 90
_cell_formula_units_Z 8
loop_
_atom_type_symbol
_atom_type_radius_bond
C 0.68
H 0.23
Eu 1.98
N 0.68
O 0.68
loop_
_atom_site_label
_atom_site_type_symbol
_atom_site_fract_x
_atom_site_fract_y
_atom_site_fract_z
Eu1 Eu 0.733396(10) 0.207821(16) 0.232033(11)
O1 O 0.73468(15) 0.2499(2) 0.33218(15)
O2 O 0.7118(2) 0.2343(4) 0.4156(2)
O3 O 0.30361(14) -0.3523(2) 0.18557(14)
O4 O 0.39562(16) -0.4269(3) 0.19897(16)
O5 O 0.74695(13) 0.3893(2) 0.25119(13)
O6 O 0.72386(14) 0.5474(2) 0.21938(14)
O7 O 0.43425(19) 0.8893(3) -0.05896(19)
O8 O 0.34025(13) 0.8749(2) -0.14092(14)
N1 N 0.65491(17) 0.1010(3) 0.27080(18)
N2 N 0.35507(17) -0.2685(3) 0.29985(19)
N3 N 0.72311(17) 0.3246(3) 0.13610(17)
N4 N 0.38134(16) 0.7166(3) -0.18630(18)
C1 C 0.6197(2) 0.0208(4) 0.2431(3)
H1 H 0.61330 0.00600 0.20170
C2 C 0.5924(3) -0.0412(4) 0.2732(3)
H2 H 0.56930 -0.09760 0.25230
C3 C 0.5989(2) -0.0204(4) 0.3345(3)
C4 C 0.6341(2) 0.0635(4) 0.3624(3)
H3 H 0.63900 0.08190 0.40290
C5 C 0.6625(2) 0.1218(4) 0.3304(3)
C6 C 0.7060(2) 0.2090(4) 0.3616(3)
C7 C 0.5696(3) -0.0863(4) 0.3705(3)
H4 H 0.58240 -0.06040 0.41310
H5 H 0.52330 -0.08310 0.34960
C8 C 0.5905(2) -0.1922(4) 0.3735(3)
H6 H 0.63660 -0.19550 0.39650
H7 H 0.58020 -0.21640 0.33090
C9 C 0.5584(2) -0.2624(4) 0.4061(3)
H8 H 0.57600 -0.32990 0.40930
H9 H 0.56840 -0.23820 0.44860
C10 C 0.3817(2) -0.2213(4) 0.3554(3)
H10 H 0.35490 -0.18840 0.37080
C11 C 0.4468(2) -0.2186(4) 0.3914(2)
H11 H 0.46300 -0.18410 0.42960
C12 C 0.4870(2) -0.2669(4) 0.3703(2)
C13 C 0.4602(2) -0.3179(3) 0.3133(2)
H12 H 0.48630 -0.35270 0.29790
C14 C 0.3949(2) -0.3172(3) 0.2794(2)
C15 C 0.3634(2) -0.3700(3) 0.2163(2)
C16 C 0.71539(18) 0.4235(3) 0.1432(2)
C17 C 0.69766(19) 0.4905(4) 0.0931(2)
H13 H 0.69200 0.55840 0.09970
C18 C 0.6882(2) 0.4567(4) 0.0328(2)
C19 C 0.6987(2) 0.3549(4) 0.0274(2)
H14 H 0.69440 0.32870 -0.01140
C20 C 0.7152(2) 0.2930(4) 0.0785(2)
H15 H 0.72130 0.22480 0.07310
C21 C 0.72940(19) 0.4563(3) 0.2094(2)
C22 C 0.6676(2) 0.5267(4) -0.0230(2)
H16 H 0.67400 0.49340 -0.05730
H17 H 0.69470 0.58610 -0.01150
C23 C 0.5979(2) 0.5599(4) -0.0463(2)
H18 H 0.59200 0.59870 -0.01350
H19 H 0.57070 0.50080 -0.05500
C24 C 0.5782(2) 0.6240(4) -0.1063(2)
H20 H 0.60440 0.68440 -0.09650
H21 H 0.58720 0.58630 -0.13770
C25 C 0.4239(2) 0.7616(4) -0.1345(2)
C26 C 0.4872(2) 0.7332(4) -0.1078(2)
H22 H 0.51550 0.76620 -0.07190
C27 C 0.5092(2) 0.6548(4) -0.1346(2)
C28 C 0.4651(2) 0.6081(4) -0.1864(2)
H23 H 0.47700 0.55440 -0.20520
C29 C 0.4029(2) 0.6415(3) -0.2106(2)
H24 H 0.37380 0.60930 -0.24650
C30 C 0.3978(2) 0.8480(4) -0.1086(3)
O9 O 0.8214(5) 0.3574(8) 0.4867(5)
O10? O 0.8326(5) 0.2945(7) 0.4895(6)
O11 O 0.4482(7) 0.9436(12) 0.5104(7)
O12? O 0.4098(7) 0.9519(12) 0.4872(7)
N5 N 0.7538(2) 0.4645(3) 0.3713(2)
H25 H 0.72040 0.50400 0.35800
H26 H 0.78820 0.49910 0.39410
H27 H 0.74820 0.41700 0.39520
H28 H 0.75890 0.43690 0.33940
Eu1B Eu 0.233396(10) -0.292179(16) 0.232033(11)
Eu1C Eu 0.766604(10) 0.707821(16) 0.267967(11)
Eu1D Eu 0.266604(10) 0.792179(16) -0.232033(11)
O3B O 0.80361(14) 0.1477(2) 0.18557(14)
O6C O 0.77614(14) 0.0474(2) 0.28062(14)
O8D O 0.65975(13) 0.1251(2) 0.14092(14)
N2B N 0.85507(17) 0.2315(3) 0.29985(19)
N4D N 0.61866(16) 0.2834(3) 0.18630(18)
#END
