
#######################################################################
#
#                 Cambridge Crystallographic Data Centre
#                                CCDC
#
#######################################################################
#
# If this CIF has been generated from an entry in the Cambridge
# Structural Database, then it will include bibliographic, chemical,
# crystal, experimental, refinement or atomic coordinate data resulting
# from the CCDC's data processing and validation procedures.
#
#######################################################################

data_CSD_CIF_FOWWIZ
_audit_creation_date 2014-11-12
_audit_creation_method CSD-ConQuest-V1
_database_code_CSD FOWWIZ
_database_code_depnum_ccdc_archive 'CCDC 971686'
_chemical_formula_sum 'C30 H32 N5 O10 Pr1'
_chemical_formula_moiety
;
(C30 H24 N4 O8 Pr1 1-)n,H4 N1 1+,2(H2 O1)
;
_journal_coden_Cambridge 154
_journal_volume 67
_journal_year 2014
_journal_page_first 895
_journal_name_full 'Aust.J.Chem. '
loop_
_publ_author_name
"Baoming Ji"
"Chunying Xu"
"L.Liu"
"Guojie Yin"
"Chenxia Du"
_chemical_name_systematic
;
catena-[ammonium 
bis(\m-4,4'-propane-1,3-diyldipyridine-2-carboxylato)-praseodymium dihydrate]
;
_cell_volume   6494.529
_exptl_crystal_colour 'colorless'
_exptl_crystal_density_diffrn 1.554
_exptl_crystal_description 'block'
_diffrn_ambient_temperature 296
_refine_special_details
;
O10,O9 and O10',O9' disordered over two sites with occupancies 0.50:0.50.

;
#These two values have been output from a single CSD field.
_refine_ls_R_factor_gt 0.0398
_refine_ls_wR_factor_gt 0.0398
_symmetry_cell_setting monoclinic
_symmetry_space_group_name_H-M 'C 2/c'
_symmetry_Int_Tables_number 15
loop_
_symmetry_equiv_pos_site_id
_symmetry_equiv_pos_as_xyz
1 x,y,z
2 -x,y,1/2-z
3 1/2+x,1/2+y,z
4 1/2-x,1/2+y,1/2-z
5 -x,-y,-z
6 x,-y,-1/2+z
7 -1/2-x,-1/2-y,-z
8 -1/2+x,-1/2-y,-1/2+z
_cell_length_a 22.957(2)
_cell_length_b 13.3907(14)
_cell_length_c 23.079(3)
_cell_angle_alpha 90
_cell_angle_beta 113.737(1)
_cell_angle_gamma 90
_cell_formula_units_Z 8
loop_
_atom_type_symbol
_atom_type_radius_bond
C 0.68
H 0.23
N 0.68
O 0.68
Pr 2.03
loop_
_atom_site_label
_atom_site_type_symbol
_atom_site_fract_x
_atom_site_fract_y
_atom_site_fract_z
Pr1 Pr 0.733716(12) 0.206335(18) 0.231717(12)
O1 O 0.73470(17) 0.2480(3) 0.33390(17)
O2 O 0.7122(3) 0.2302(4) 0.4173(3)
O3 O 0.30637(16) -0.3543(2) 0.18567(15)
O4 O 0.39724(18) -0.4283(3) 0.19901(19)
O5 O 0.74604(16) 0.3887(2) 0.25008(15)
O6 O 0.72210(16) 0.5460(2) 0.21787(16)
O7 O 0.4365(2) 0.8865(4) -0.0563(2)
O8 O 0.34289(17) 0.8742(2) -0.13804(16)
N1 N 0.65513(19) 0.1012(3) 0.2723(2)
N2 N 0.3571(2) -0.2691(3) 0.2992(2)
N3 N 0.72363(19) 0.3254(3) 0.13444(19)
N4 N 0.38285(19) 0.7169(3) -0.18438(19)
C1 C 0.6205(3) 0.0225(4) 0.2445(3)
H1 H 0.61470 0.00810 0.20310
C2 C 0.5920(3) -0.0403(4) 0.2738(3)
H2 H 0.56830 -0.09510 0.25220
C3 C 0.5990(3) -0.0210(4) 0.3346(3)
C4 C 0.6349(3) 0.0618(4) 0.3631(3)
H3 H 0.64030 0.07920 0.40400
C5 C 0.6630(2) 0.1194(4) 0.3314(3)
C6 C 0.7061(3) 0.2070(4) 0.3628(3)
C7 C 0.5706(3) -0.0866(4) 0.3701(3)
H4 H 0.58330 -0.06090 0.41270
H5 H 0.52460 -0.08300 0.34930
C8 C 0.5907(3) -0.1929(4) 0.3735(3)
H6 H 0.63640 -0.19660 0.39680
H7 H 0.58080 -0.21670 0.33090
C9 C 0.5590(3) -0.2624(5) 0.4050(3)
H8 H 0.57650 -0.32900 0.40780
H9 H 0.56890 -0.23910 0.44770
C10 C 0.3832(3) -0.2210(4) 0.3546(3)
H10 H 0.35650 -0.18790 0.36980
C11 C 0.4483(3) -0.2184(4) 0.3904(3)
H11 H 0.46430 -0.18360 0.42850
C12 C 0.4892(3) -0.2669(4) 0.3700(3)
C13 C 0.4614(3) -0.3185(4) 0.3137(3)
H12 H 0.48700 -0.35460 0.29860
C14 C 0.3969(2) -0.3179(3) 0.2794(2)
C15 C 0.3650(3) -0.3721(4) 0.2164(3)
C16 C 0.7152(2) 0.4235(3) 0.1412(2)
C17 C 0.6966(2) 0.4898(4) 0.0923(2)
H13 H 0.68950 0.55630 0.09910
C18 C 0.6881(2) 0.4578(4) 0.0318(2)
C19 C 0.6991(2) 0.3574(4) 0.0261(2)
H14 H 0.69490 0.33200 -0.01290
C20 C 0.7162(3) 0.2952(4) 0.0773(3)
H15 H 0.72290 0.22810 0.07160
C21 C 0.7287(2) 0.4557(3) 0.2087(2)
C22 C 0.6669(2) 0.5280(4) -0.0241(3)
H16 H 0.69370 0.58690 -0.01260
H17 H 0.67310 0.49550 -0.05880
C23 C 0.5984(2) 0.5601(4) -0.0468(2)
H18 H 0.59230 0.59690 -0.01350
H19 H 0.57130 0.50150 -0.05650
C24 C 0.5795(3) 0.6249(5) -0.1051(3)
H20 H 0.60580 0.68440 -0.09450
H21 H 0.58820 0.58880 -0.13720
C25 C 0.4255(2) 0.7611(4) -0.1327(2)
C26 C 0.4891(3) 0.7332(4) -0.1060(3)
H22 H 0.51730 0.76610 -0.07020
C27 C 0.5107(2) 0.6560(4) -0.1326(2)
C28 C 0.4663(3) 0.6101(4) -0.1848(2)
H23 H 0.47820 0.55730 -0.20390
C29 C 0.4041(3) 0.6421(4) -0.2089(2)
H24 H 0.37510 0.60970 -0.24440
C30 C 0.3999(3) 0.8474(4) -0.1063(3)
O9 O 0.8182(6) 0.3555(9) 0.4827(6)
O10? O 0.8346(7) 0.2913(9) 0.4889(6)
O11 O 0.4385(13) 0.983(2) 0.4730(13)
O12? O 0.3486(15) 0.987(2) 0.4691(13)
N5 N 0.7533(3) 0.4640(3) 0.3702(2)
H25 H 0.71990 0.50350 0.35690
H26 H 0.78770 0.49860 0.39300
H27 H 0.74780 0.41650 0.39410
H28 H 0.75840 0.43640 0.33830
Pr1B Pr 0.233716(12) -0.293665(18) 0.231717(12)
Pr1C Pr 0.766284(12) 0.706335(18) 0.268283(12)
Pr1D Pr 0.266284(12) 0.793665(18) -0.231717(12)
O3B O 0.80637(16) 0.1457(2) 0.18567(15)
O6C O 0.77790(16) 0.0460(2) 0.28213(16)
O8D O 0.65711(17) 0.1258(2) 0.13804(16)
N2B N 0.8571(2) 0.2309(3) 0.2992(2)
N4D N 0.61715(19) 0.2831(3) 0.18438(19)
#END
