
#######################################################################
#
#                 Cambridge Crystallographic Data Centre
#                                CCDC
#
#######################################################################
#
# If this CIF has been generated from an entry in the Cambridge
# Structural Database, then it will include bibliographic, chemical,
# crystal, experimental, refinement or atomic coordinate data resulting
# from the CCDC's data processing and validation procedures.
#
#######################################################################

data_CSD_CIF_FOWWAR
_audit_creation_date 2014-11-12
_audit_creation_method CSD-ConQuest-V1
_database_code_CSD FOWWAR
_database_code_depnum_ccdc_archive 'CCDC 971684'
_chemical_formula_sum 'C30 H32 N5 O10 Sm1'
_chemical_formula_moiety
;
(C30 H24 N4 O8 Sm1 1-)n,H4 N1 1+,2(H2 O1)
;
_journal_coden_Cambridge 154
_journal_volume 67
_journal_year 2014
_journal_page_first 895
_journal_name_full 'Aust.J.Chem. '
loop_
_publ_author_name
"Baoming Ji"
"Chunying Xu"
"L.Liu"
"Guojie Yin"
"Chenxia Du"
_chemical_name_systematic
;
catena-[ammonium 
bis(\m-4,4'-propane-1,3-diyldipyridine-2-carboxylato)-samarium dihydrate]
;
_cell_volume   6461.009
_exptl_crystal_colour 'colorless'
_exptl_crystal_density_diffrn 1.581
_exptl_crystal_description 'Prism'
_diffrn_ambient_temperature 293
_refine_special_details
;
O1W,O2W and O1W',O2W' disordered over two sites with occupancies 0.50:0.50.

;
#These two values have been output from a single CSD field.
_refine_ls_R_factor_gt 0.0323
_refine_ls_wR_factor_gt 0.0323
_symmetry_cell_setting monoclinic
_symmetry_space_group_name_H-M 'C 2/c'
_symmetry_Int_Tables_number 15
loop_
_symmetry_equiv_pos_site_id
_symmetry_equiv_pos_as_xyz
1 x,y,z
2 -x,y,1/2-z
3 1/2+x,1/2+y,z
4 1/2-x,1/2+y,1/2-z
5 -x,-y,-z
6 x,-y,-1/2+z
7 -1/2-x,-1/2-y,-z
8 -1/2+x,-1/2-y,-1/2+z
_cell_length_a 22.7409(16)
_cell_length_b 13.2827(9)
_cell_length_c 25.3097(18)
_cell_angle_alpha 90
_cell_angle_beta 122.315(1)
_cell_angle_gamma 90
_cell_formula_units_Z 8
loop_
_atom_type_symbol
_atom_type_radius_bond
C 0.68
H 0.23
N 0.68
O 0.68
Sm 1.98
loop_
_atom_site_label
_atom_site_type_symbol
_atom_site_fract_x
_atom_site_fract_y
_atom_site_fract_z
Sm1 Sm 0.748611(8) 0.459309(11) 0.232329(7)
O1 O 0.63133(11) 0.39959(17) 0.18658(10)
O2 O 0.55328(14) 0.3220(2) 0.20006(13)
O3 O 0.34723(12) 1.00186(18) 0.33150(11)
O4 O 0.45280(15) 0.9850(3) 0.41518(15)
O5 O 0.73144(11) 0.37619(16) 0.14176(10)
O6 O 0.73986(19) 0.3646(3) 0.05847(15)
O7 O 0.74616(11) 0.85888(16) -0.25024(10)
O8 O 0.75430(12) 0.70074(16) -0.21829(11)
N1 N 0.69364(15) 0.4827(2) 0.29953(14)
N2 N 0.36695(14) 0.8535(2) 0.27206(13)
N3 N 0.81738(14) 0.53426(19) 0.18570(12)
N4 N 0.83690(14) 0.92389(19) -0.13651(12)
C1 C 0.60274(17) 0.3801(2) 0.21715(16)
C2 C 0.63367(17) 0.4334(2) 0.27937(16)
C3 C 0.60216(19) 0.4313(3) 0.31340(17)
H1 H 0.56120 0.39520 0.29850
C4 C 0.6316(2) 0.4830(3) 0.36974(18)
C5 C 0.6936(2) 0.5322(3) 0.39038(19)
H2 H 0.71570 0.56670 0.42820
C6 C 0.7229(2) 0.5300(3) 0.35439(19)
H3 H 0.76500 0.56310 0.36920
C7 C 0.5958(2) 0.4870(3) 0.4056(2)
H4 H 0.62820 0.51120 0.44760
H5 H 0.58130 0.41970 0.40870
C8 C 0.5316(2) 0.5568(3) 0.3732(2)
H6 H 0.49930 0.53210 0.33130
H7 H 0.50840 0.55430 0.39600
C9 C 0.5497(2) 0.6647(3) 0.3694(2)
H8 H 0.57480 0.66710 0.34820
H9 H 0.58010 0.69070 0.41140
C10 C 0.48579(19) 0.7311(3) 0.33478(18)
C11 C 0.4323(2) 0.7110(3) 0.27402(19)
H10 H 0.43510 0.65550 0.25310
C12 C 0.3747(2) 0.7733(3) 0.24432(18)
H11 H 0.33980 0.75890 0.20330
C13 C 0.41803(17) 0.8724(2) 0.33084(16)
C14 C 0.47773(19) 0.8141(3) 0.36305(18)
H12 H 0.51240 0.83100 0.40380
C15 C 0.40598(18) 0.9598(3) 0.36192(17)
C16 C 0.75545(19) 0.4036(3) 0.10876(17)
C17 C 0.80729(18) 0.4896(3) 0.13356(15)
C18 C 0.8432(2) 0.5179(3) 0.10621(17)
H13 H 0.83510 0.48480 0.07050
C19 C 0.89152(18) 0.5954(3) 0.13157(16)
C20 C 0.90109(19) 0.6419(3) 0.18450(16)
H14 H 0.93260 0.69470 0.20300
C21 C 0.86368(18) 0.6096(3) 0.20970(16)
H15 H 0.87090 0.64180 0.24530
C22 C 0.93312(19) 0.6272(3) 0.10385(17)
H16 H 0.95090 0.56750 0.09490
H17 H 0.97280 0.66650 0.13470
C23 C 0.89214(19) 0.6889(3) 0.04433(16)
H18 H 0.87220 0.74720 0.05220
H19 H 0.85430 0.64860 0.01210
C24 C 0.93918(19) 0.7235(3) 0.02155(17)
H20 H 0.97920 0.75800 0.05550
H21 H 0.95600 0.66470 0.01090
C25 C 0.90381(17) 0.7923(3) -0.03414(15)
C26 C 0.92091(18) 0.8932(3) -0.02892(16)
H22 H 0.95610 0.91890 0.00930
C27 C 0.88621(19) 0.9560(3) -0.08002(16)
H23 H 0.89780 1.02390 -0.07480
C28 C 0.82168(16) 0.8253(2) -0.14310(14)
C29 C 0.85317(17) 0.7579(2) -0.09330(15)
H24 H 0.84040 0.69040 -0.09960
C30 C 0.77000(16) 0.7918(2) -0.20893(14)
O9 O 0.5891(5) 0.8823(7) 0.5182(4)
O10? O 0.5911(5) 0.9534(6) 0.5080(4)
O11 O 0.6877(4) 0.8088(6) 0.4976(3)
O12? O 0.6198(4) 0.7466(6) 0.5248(3)
N5 N 0.63364(14) 0.21597(17) 0.13409(12)
H25 H 0.59750 0.20120 0.09680
H26 H 0.65200 0.16410 0.15940
H27 H 0.62080 0.26080 0.15160
H28 H 0.66590 0.24390 0.12970
Sm1B Sm 0.248611(8) 0.959309(11) 0.232329(7)
Sm1E Sm 0.748611(8) 0.540691(11) -0.267671(7)
Sm1F Sm 0.751389(8) 1.040691(11) -0.232329(7)
O3B O 0.84723(12) 0.50186(18) 0.33150(11)
O7F O 0.75384(11) 0.64112(16) 0.25024(10)
O8E O 0.75430(12) 0.29926(16) 0.28171(11)
N2B N 0.86695(14) 0.3535(2) 0.27206(13)
N4F N 0.66310(14) 0.57611(19) 0.13651(12)
#END
