
#######################################################################
#
#                 Cambridge Crystallographic Data Centre
#                                CCDC
#
#######################################################################
#
# If this CIF has been generated from an entry in the Cambridge
# Structural Database, then it will include bibliographic, chemical,
# crystal, experimental, refinement or atomic coordinate data resulting
# from the CCDC's data processing and validation procedures.
#
#######################################################################

data_CSD_CIF_FOXMIQ
_audit_creation_date 2014-11-12
_audit_creation_method CSD-ConQuest-V1
_database_code_CSD FOXMIQ
_database_code_depnum_ccdc_archive 'CCDC 1017803'
_chemical_formula_sum 'C48 H52 Mo5 N12 O29 P2 Zn1'
_chemical_formula_moiety
;
(C24 H20 Mo5 N6 O24 P2 Zn1 4-)n,2(C12 H11 N3 2+),5(H2 O1)
;
_journal_coden_Cambridge 1699
_journal_volume 3
_journal_year 2015
_journal_page_first 198
_journal_name_full 'J.Mater.Chem.A '
loop_
_publ_author_name
"Xinxin Xu"
"Xin Gao"
"Tingting Lu"
"Xiaoxia Liu"
"Xiuli Wang"
_chemical_name_systematic
;
catena-[bis(\m-phosphato)-pentakis(\m-oxo)-bis( 
2-(pyridin-3-yl)-1H-benzimidazole)-aqua-decaoxo-penta-molybdenum-zinc  
2-(pyridin-3-yl)-1H-benzimidazole solvate pentahydrate]
;
_cell_volume   6382.288
_exptl_crystal_colour 'yellow'
_exptl_crystal_density_diffrn 1.944
_exptl_crystal_description 'sheet'
_diffrn_ambient_temperature 293
#These two values have been output from a single CSD field.
_refine_ls_R_factor_gt 0.0523
_refine_ls_wR_factor_gt 0.0523
_symmetry_cell_setting monoclinic
_symmetry_space_group_name_H-M 'P 21/c'
_symmetry_Int_Tables_number 14
loop_
_symmetry_equiv_pos_site_id
_symmetry_equiv_pos_as_xyz
1 x,y,z
2 -x,1/2+y,1/2-z
3 -x,-y,-z
4 x,-1/2-y,-1/2+z
_cell_length_a 10.1704(6)
_cell_length_b 21.3474(12)
_cell_length_c 29.3979(16)
_cell_angle_alpha 90
_cell_angle_beta 90.589(1)
_cell_angle_gamma 90
_cell_formula_units_Z 4
loop_
_atom_type_symbol
_atom_type_radius_bond
C 0.68
H 0.23
Mo 1.54
N 0.68
O 0.68
P 1.05
Zn 1.22
loop_
_atom_site_label
_atom_site_type_symbol
_atom_site_fract_x
_atom_site_fract_y
_atom_site_fract_z
Mo1 Mo 0.24687(5) 0.15513(2) 0.420605(17)
Mo2 Mo 0.23194(5) 0.08182(2) 0.318443(17)
Mo3 Mo 0.29769(5) 0.33237(2) 0.284027(18)
Mo4 Mo 0.22997(5) 0.32258(2) 0.395755(17)
Mo5 Mo 0.27579(5) 0.18949(2) 0.236359(17)
Zn1 Zn -0.24312(7) 0.17666(3) 0.33272(2)
P1 P 0.44400(14) 0.20912(7) 0.33813(5)
P2 P 0.06975(15) 0.22158(7) 0.32728(5)
O1 O 0.1750(4) 0.12174(19) 0.26119(13)
O2 O 0.2404(4) 0.2425(2) 0.42631(13)
O3 O -0.0639(4) 0.1980(2) 0.31139(14)
O4 O 0.3671(4) 0.27237(18) 0.33921(13)
O5 O 0.4346(4) 0.3780(2) 0.28121(15)
O6 O 0.2177(4) 0.36662(19) 0.33873(14)
O7 O 0.3685(4) 0.26595(18) 0.24647(13)
O8 O 0.1505(4) 0.24619(19) 0.28616(13)
O9 O 0.4367(4) 0.18138(18) 0.38596(13)
O10 O 0.3973(4) 0.1490(2) 0.20924(14)
N1 N -0.2562(5) 0.1106(2) 0.27463(17)
O11 O 0.0608(4) 0.27315(19) 0.36276(14)
O12 O 0.0951(4) 0.1357(2) 0.44095(15)
N2 N -0.5880(5) 0.0002(2) 0.42903(16)
H1 H -0.61080 0.03140 0.41220
O13 O 0.1169(5) 0.3627(2) 0.42637(15)
O14 O 0.2835(4) 0.08190(18) 0.38203(13)
N3 N -0.0359(5) -0.0457(2) 0.18103(18)
H2 H -0.10170 -0.07000 0.17550
C1 C -0.1490(6) 0.0867(3) 0.2542(2)
H3 H -0.06750 0.10510 0.25960
O15 O 0.3462(4) 0.1343(2) 0.46597(14)
N4 N -0.4682(5) -0.0702(2) 0.46303(18)
O16 O -0.1959(5) 0.2284(2) 0.39253(16)
C2 C -0.2291(7) -0.0229(3) 0.4163(2)
H4 H -0.22080 -0.06200 0.43010
O17 O 0.0966(4) 0.0340(2) 0.32027(15)
N5 N -0.2529(5) 0.0931(2) 0.37400(17)
O18 O 0.3740(4) 0.16379(18) 0.30409(13)
C3 C -0.6535(7) -0.1233(3) 0.5061(2)
H5 H -0.60280 -0.15330 0.52120
C4 C -0.2835(6) 0.0096(3) 0.2168(2)
H6 H -0.29350 -0.02420 0.19720
O19 O 0.1726(4) 0.2105(2) 0.19237(14)
C5 C -0.0403(6) 0.0082(3) 0.2042(2)
C6 C 0.0934(6) -0.0559(3) 0.1674(2)
O20 O 0.3766(5) 0.3527(2) 0.41588(16)
C7 C -0.1570(6) 0.0348(3) 0.2249(2)
O21 O 0.3518(4) 0.0334(2) 0.29928(15)
C8 C -0.3507(6) 0.0070(3) 0.41370(19)
C9 C -0.1369(6) 0.0652(3) 0.3782(2)
H7 H -0.06320 0.08610 0.36740
O22 O 0.1869(4) 0.3683(2) 0.24782(15)
N6 N 0.0808(5) 0.0326(2) 0.20668(17)
C10 C 0.3006(7) -0.0022(3) 0.1761(3)
H8 H 0.34990 0.03130 0.18710
C11 C 0.1662(6) -0.0063(3) 0.1836(2)
C12 C -0.3731(7) 0.0847(3) 0.2660(2)
H9 H -0.44730 0.10110 0.27990
C13 C -0.3574(6) 0.0650(3) 0.39137(19)
H10 H -0.43870 0.08460 0.38860
C14 C -0.3873(6) 0.0336(3) 0.2368(2)
H11 H -0.47010 0.01660 0.23130
C15 C -0.8073(7) -0.0294(3) 0.4620(2)
H12 H -0.85650 0.00230 0.44850
C16 C -0.5976(6) -0.0807(3) 0.4770(2)
C17 C 0.1493(7) -0.1064(3) 0.1437(2)
H13 H 0.10040 -0.14050 0.13350
C18 C -0.6737(6) -0.0355(3) 0.4550(2)
C19 C -0.4667(6) -0.0207(3) 0.4339(2)
C20 C 0.3570(7) -0.0491(4) 0.1520(2)
H14 H 0.44600 -0.04670 0.14530
C21 C -0.7858(8) -0.1198(3) 0.5121(2)
H15 H -0.82620 -0.14880 0.53100
C22 C -0.8637(7) -0.0738(3) 0.4906(2)
H16 H -0.95380 -0.07300 0.49560
C23 C -0.1198(7) 0.0069(3) 0.3977(2)
H17 H -0.03750 -0.01210 0.39840
C24 C 0.2844(7) -0.1010(4) 0.1369(3)
H18 H 0.32790 -0.13310 0.12180
O23 O 0.1472(4) 0.16611(18) 0.35008(13)
O24 O 0.5855(4) 0.21883(19) 0.32308(14)
H19 H -0.267(4) 0.241(3) 0.403(2)
H20 H -0.169(5) 0.254(2) 0.3731(18)
N7 N 0.2743(6) 0.8121(3) 0.40208(18)
H21 H 0.19230 0.82180 0.40090
C25 C 0.3756(8) 0.8900(3) 0.3474(2)
H22 H 0.29940 0.91180 0.33960
C26 C 0.2538(8) 0.7249(3) 0.4578(2)
C27 C 0.4898(7) 0.8081(3) 0.3904(2)
N8 N 0.4572(6) 0.7625(3) 0.4217(2)
H23 H 0.51020 0.73650 0.43470
C28 C 0.3287(7) 0.7663(3) 0.4277(2)
C29 C 0.3741(7) 0.8407(3) 0.3782(2)
C30 C 0.6090(8) 0.8238(4) 0.3719(3)
H24 H 0.68540 0.80240 0.37990
C31 C 0.4941(8) 0.9049(4) 0.3291(2)
H25 H 0.49840 0.93750 0.30820
C32 C 0.1257(8) 0.7368(4) 0.4690(3)
H26 H 0.08310 0.77180 0.45700
N9 N 0.2506(8) 0.6343(3) 0.5034(2)
H27 H 0.28960 0.60150 0.51370
C33 C 0.6108(8) 0.8726(4) 0.3409(2)
H28 H 0.68970 0.88420 0.32760
C34 C 0.0593(9) 0.6972(4) 0.4981(3)
H29 H -0.02770 0.70500 0.50570
C35 C 0.3167(9) 0.6725(4) 0.4755(3)
H30 H 0.40350 0.66400 0.46810
C36 C 0.1252(10) 0.6454(4) 0.5158(3)
H31 H 0.08340 0.61860 0.53600
C37 C 0.1665(7) 0.6757(3) 0.3435(2)
N10 N 0.1607(7) 0.8088(3) 0.2588(2)
H32 H 0.10640 0.83390 0.24550
N11 N 0.2449(8) 0.6344(3) 0.3611(2)
H33 H 0.32840 0.63160 0.35710
C38 C 0.3732(6) 0.7728(3) 0.2708(2)
H34 H 0.46240 0.77570 0.26440
C39 C 0.3354(6) 0.7309(4) 0.3001(3)
H35 H 0.39760 0.70490 0.31390
C40 C 0.1165(6) 0.7648(3) 0.2899(2)
H36 H 0.02740 0.76260 0.29650
C41 C 0.2043(6) 0.7244(3) 0.3111(2)
N12 N 0.0420(7) 0.6669(3) 0.3573(2)
H37 H -0.02460 0.68950 0.34960
C42 C 0.2909(7) 0.8114(4) 0.2496(2)
H38 H 0.32240 0.84010 0.22860
C43 C 0.1678(14) 0.5955(4) 0.3875(3)
C44 C 0.0390(12) 0.6156(5) 0.3859(3)
C45 C -0.0613(15) 0.5843(6) 0.4081(4)
H39 H -0.14920 0.59590 0.40550
C46 C 0.0829(13) 0.5148(6) 0.4354(4)
H40 H 0.09870 0.47800 0.45160
C47 C 0.1991(14) 0.5419(6) 0.4125(5)
H41 H 0.28330 0.52500 0.41450
C48 C -0.0167(14) 0.5315(6) 0.4361(4)
H42 H -0.07660 0.51170 0.45510
O25 O 0.5814(5) 0.2648(2) 0.43834(17)
H43 H 0.542(5) 0.2336(17) 0.427(2)
H44 H 0.526(4) 0.2927(18) 0.444(2)
O26 O 0.0070(6) 0.4136(3) 0.1852(2)
H45 H 0.081(3) 0.411(3) 0.1738(17)
H46 H 0.008(5) 0.399(3) 0.2116(9)
O27 O 0.1507(6) 0.1659(3) 0.5394(2)
H47 H 0.208(4) 0.1942(18) 0.539(2)
H48 H 0.178(5) 0.1342(16) 0.526(2)
O28 O 0.0123(6) 0.8336(3) 0.3859(2)
H49 H 0.023(5) 0.859(2) 0.4075(15)
H50 H -0.061(3) 0.816(3) 0.389(2)
O29 O 0.6815(6) 0.7308(3) 0.4762(2)
H51 H 0.621(4) 0.705(2) 0.471(2)
H52 H 0.739(4) 0.713(2) 0.4925(19)
Zn1* Zn 0.75688(7) 0.17666(3) 0.33272(2)
O24* O -0.4145(4) 0.21883(19) 0.32308(14)
#END
