
#######################################################################
#
#                 Cambridge Crystallographic Data Centre
#                                CCDC
#
#######################################################################
#
# If this CIF has been generated from an entry in the Cambridge
# Structural Database, then it will include bibliographic, chemical,
# crystal, experimental, refinement or atomic coordinate data resulting
# from the CCDC's data processing and validation procedures.
#
#######################################################################

data_CSD_CIF_FOZCAA
_audit_creation_date 2015-03-26
_audit_creation_method CSD-ConQuest-V1
_database_code_CSD FOZCAA
_database_code_depnum_ccdc_archive 'CCDC 1041739'
_chemical_formula_sum 'C52 H56 Cl4 Fe3 N11 O4'
_chemical_formula_moiety
;
(C44 H36 Cl4 Fe3 N10 O4 1-)n,C8 H20 N1 1+
;
_journal_coden_Cambridge 1350
_journal_volume 17
_journal_year 2015
_journal_page_first 3082
_journal_name_full 'CrystEngComm '
loop_
_publ_author_name
"Elif Gungor"
"Y.Yahsi"
"H.Kara"
"A.Caneschi"
_chemical_name_systematic
;
catena-[tetraethylammonium 
tetrakis(\m-cyano)-bis(2,2'-((2,2-dimethylpropane-1,3-diyl)bis(nitrilomethylyl
idene))bis(4-chlorophenolato))-dicyano-iron]
;
_cell_volume   4513.668
_exptl_crystal_colour 'red'
_exptl_crystal_density_diffrn 1.334
_exptl_crystal_description 'Block'
_diffrn_ambient_temperature 100
#These two values have been output from a single CSD field.
_refine_ls_R_factor_gt 0.0563
_refine_ls_wR_factor_gt 0.0563
_symmetry_cell_setting hexagonal
_symmetry_space_group_name_H-M 'P 31 2 1'
_symmetry_Int_Tables_number 152
loop_
_symmetry_equiv_pos_site_id
_symmetry_equiv_pos_as_xyz
1 x,y,z
2 -y,x-y,1/3+z
3 -x+y,-x,2/3+z
4 y,x,-z
5 x-y,-y,2/3-z
6 -x,-x+y,1/3-z
_cell_length_a 16.3482(10)
_cell_length_b 16.3482(10)
_cell_length_c 19.5011(10)
_cell_angle_alpha 90
_cell_angle_beta 90
_cell_angle_gamma 120
_cell_formula_units_Z 3
loop_
_atom_type_symbol
_atom_type_radius_bond
C 0.68
H 0.23
Cl 0.99
Fe 1.52
N 0.68
O 0.68
loop_
_atom_site_label
_atom_site_type_symbol
_atom_site_fract_x
_atom_site_fract_y
_atom_site_fract_z
C1 C 0.2998(3) 0.7057(3) 0.1377(2)
H1 H 0.24190 0.66380 0.15980
Fe1 Fe 0.46699(5) 0.46699(5) 0.00000
Fe2 Fe 0.50048(4) 0.78314(4) 0.11677(3)
Cl1 Cl 0.94523(9) 1.11878(10) 0.26345(7)
Cl2 Cl 0.12710(11) 0.88100(11) 0.06778(8)
N1 N 0.3686(2) 0.6894(2) 0.14618(15)
N2 N 0.5575(2) 0.7482(2) 0.19539(15)
N3 N 0.5051(2) 0.6621(2) 0.05384(17)
N4 N 0.2648(3) 0.4049(3) 0.0455(2)
N5 N 0.5073(2) 0.4017(3) 0.13924(16)
O1 O 0.4492(2) 0.8209(2) 0.04437(12)
O2 O 0.6204(2) 0.8793(2) 0.09031(13)
C2 C 0.3021(3) 0.7803(3) 0.09836(19)
C3 C 0.2256(3) 0.7952(3) 0.1017(2)
H2 H 0.17560 0.75970 0.13300
C4 C 0.2220(4) 0.8608(3) 0.0602(2)
C5 C 0.2919(4) 0.9118(4) 0.0138(2)
H3 H 0.28840 0.95720 -0.01470
C6 C 0.3668(3) 0.8969(3) 0.0087(2)
H4 H 0.41440 0.93120 -0.02450
C7 C 0.3755(3) 0.8328(3) 0.05101(19)
C8 C 0.3474(3) 0.5997(3) 0.1795(2)
H5 H 0.35840 0.56050 0.14620
H6 H 0.27980 0.56480 0.19240
C9 C 0.4069(3) 0.6137(3) 0.2433(2)
C10 C 0.3955(4) 0.6775(3) 0.2941(2)
H7 H 0.32830 0.65140 0.30460
H8 H 0.42080 0.74060 0.27420
H9 H 0.42980 0.68170 0.33630
C11 C 0.3717(4) 0.5164(3) 0.2739(3)
H10 H 0.41290 0.52090 0.31190
H11 H 0.37220 0.47390 0.23870
H12 H 0.30710 0.49160 0.29100
C12 C 0.5102(3) 0.6527(3) 0.2247(2)
H13 H 0.54480 0.65300 0.26640
H14 H 0.51440 0.60930 0.19130
C13 C 0.6378(3) 0.8100(3) 0.22167(19)
H15 H 0.65660 0.79130 0.26200
C14 C 0.7002(3) 0.9016(3) 0.1972(2)
C15 C 0.7818(3) 0.9613(3) 0.2373(2)
H16 H 0.79060 0.93990 0.28050
C16 C 0.8462(3) 1.0471(3) 0.2145(2)
C17 C 0.8338(3) 1.0809(3) 0.1524(2)
H17 H 0.87880 1.14280 0.13770
C18 C 0.7565(3) 1.0250(3) 0.1120(2)
H18 H 0.74880 1.04850 0.06930
C19 C 0.6892(3) 0.9339(3) 0.13317(19)
C20 C 0.4963(3) 0.5928(3) 0.03392(18)
C21 C 0.4951(3) 0.4308(3) 0.08901(18)
C22 C 0.3394(3) 0.4265(3) 0.0300(2)
N6 N 0.8119(3) 0.8119(3) 0.00000
C23 C 0.6820(6) 0.7348(5) -0.0893(4)
H19 H 0.71920 0.76730 -0.13010
H20 H 0.61590 0.71700 -0.09680
H21 H 0.68620 0.67790 -0.08080
C24 C 0.7190(4) 0.7976(4) -0.0300(3)
H22 H 0.67060 0.77240 0.00660
H23 H 0.72840 0.86020 -0.04340
C25 C 0.8426(4) 0.8864(4) 0.0544(3)
H24 H 0.85050 0.94470 0.03270
H25 H 0.79070 0.86540 0.08820
C26 C 0.9285(5) 0.9105(5) 0.0914(4)
H26 H 0.92560 0.85270 0.10830
H27 H 0.93510 0.95140 0.13030
H28 H 0.98280 0.94380 0.06070
C1C C 0.7057(3) 0.2998(3) -0.1377(2)
H1C H 0.66380 0.24190 -0.15980
Fe2C Fe 0.78314(4) 0.50048(4) -0.11677(3)
Cl1C Cl 1.11878(9) 0.94523(10) -0.26345(7)
Cl2C Cl 0.88100(11) 0.12710(11) -0.06778(8)
N1C N 0.6894(2) 0.3686(2) -0.14618(15)
N2C N 0.7482(2) 0.5575(2) -0.19539(15)
N3C N 0.6621(2) 0.5051(2) -0.05384(17)
N4C N 0.4049(3) 0.2648(3) -0.0455(2)
N5C N 0.4017(2) 0.5073(3) -0.13924(16)
O1C O 0.8209(2) 0.4492(2) -0.04437(12)
O2C O 0.8793(2) 0.6204(2) -0.09031(13)
C2C C 0.7803(3) 0.3021(3) -0.09836(19)
C3C C 0.7952(3) 0.2256(3) -0.1017(2)
H2C H 0.75970 0.17560 -0.13300
C4C C 0.8608(4) 0.2220(3) -0.0602(2)
C5C C 0.9118(4) 0.2919(4) -0.0138(2)
H3C H 0.95720 0.28840 0.01470
C6C C 0.8969(3) 0.3668(3) -0.0087(2)
H4C H 0.93120 0.41440 0.02450
C7C C 0.8328(3) 0.3755(3) -0.05101(19)
C8C C 0.5997(3) 0.3474(3) -0.1795(2)
H5C H 0.56050 0.35840 -0.14620
H6C H 0.56480 0.27980 -0.19240
C9C C 0.6137(3) 0.4069(3) -0.2433(2)
C10C C 0.6775(4) 0.3955(3) -0.2941(2)
H7C H 0.65140 0.32830 -0.30460
H8C H 0.74060 0.42080 -0.27420
H9C H 0.68170 0.42980 -0.33630
C11C C 0.5164(4) 0.3717(3) -0.2739(3)
H10C H 0.52090 0.41290 -0.31190
H11C H 0.47390 0.37220 -0.23870
H12C H 0.49160 0.30710 -0.29100
C12C C 0.6527(3) 0.5102(3) -0.2247(2)
H13C H 0.65300 0.54480 -0.26640
H14C H 0.60930 0.51440 -0.19130
C13C C 0.8100(3) 0.6378(3) -0.22167(19)
H15C H 0.79130 0.65660 -0.26200
C14C C 0.9016(3) 0.7002(3) -0.1972(2)
C15C C 0.9613(3) 0.7818(3) -0.2373(2)
H16C H 0.93990 0.79060 -0.28050
C16C C 1.0471(3) 0.8462(3) -0.2145(2)
C17C C 1.0809(3) 0.8338(3) -0.1524(2)
H17C H 1.14280 0.87880 -0.13770
C18C C 1.0250(3) 0.7565(3) -0.1120(2)
H18C H 1.04850 0.74880 -0.06930
C19C C 0.9339(3) 0.6892(3) -0.13317(19)
C20C C 0.5928(3) 0.4963(3) -0.03392(18)
C21C C 0.4308(3) 0.4951(3) -0.08901(18)
C22C C 0.4265(3) 0.3394(3) -0.0300(2)
Fe2B Fe 0.28266(4) 0.49952(4) -0.216563(30)
Fe2E Fe 0.49952(4) 0.28266(4) 0.216563(30)
N5B N 0.8944(2) 0.4927(3) -0.194093(160)
N5E N 0.4927(2) 0.8944(3) 0.194093(160)
C23C C 0.7348(6) 0.6820(5) 0.0893(4)
H19C H 0.76730 0.71920 0.13010
H20C H 0.71700 0.61590 0.09680
H21C H 0.67790 0.68620 0.08080
C24C C 0.7976(4) 0.7190(4) 0.0300(3)
H22C H 0.77240 0.67060 -0.00660
H23C H 0.86020 0.72840 0.04340
C25C C 0.8864(4) 0.8426(4) -0.0544(3)
H24C H 0.94470 0.85050 -0.03270
H25C H 0.86540 0.79070 -0.08820
C26C C 0.9105(5) 0.9285(5) -0.0914(4)
H26C H 0.85270 0.92560 -0.10830
H27C H 0.95140 0.93510 -0.13030
H28C H 0.94380 0.98280 -0.06070
#END
