
#######################################################################
#
#                 Cambridge Crystallographic Data Centre
#                                CCDC
#
#######################################################################
#
# If this CIF has been generated from an entry in the Cambridge
# Structural Database, then it will include bibliographic, chemical,
# crystal, experimental, refinement or atomic coordinate data resulting
# from the CCDC's data processing and validation procedures.
#
#######################################################################

data_CSD_CIF_FUBZUA
_audit_creation_date 2020-01-24
_audit_creation_method CSD-ConQuest-V1
_database_code_CSD FUBZUA
_database_code_depnum_ccdc_archive 'CCDC 1966034'
_chemical_formula_sum 'C34 H42 N2 O17 U2'
_chemical_formula_moiety
;
(C30 H24 O16 U2 2-)n,2n(C2 H8 N1 1+),n(H2 O1)
;
_journal_coden_Cambridge 9
_journal_volume 59
_journal_year 2020
_journal_page_first 2503
_journal_name_full 'Inorg.Chem. '
loop_
_publ_author_name
"P.Thuery"
"Y.Atoini"
"J.Harrowfield"
_chemical_name_systematic
;
catena-(bis(dimethylammonium) 
tris(\m-2,2'-(1,2-phenylene)diacetato)-tetraoxo-di-uranium monohydrate)
;
_cell_volume   1931.659
_exptl_crystal_colour 'light yellow'
_exptl_crystal_density_diffrn 2.109
_exptl_crystal_description 'platelet'
_diffrn_ambient_temperature 100
#These two values have been output from a single CSD field.
_refine_ls_R_factor_gt 0.0247
_refine_ls_wR_factor_gt 0.0247
_symmetry_cell_setting triclinic
_symmetry_space_group_name_H-M 'P -1'
_symmetry_Int_Tables_number 2
loop_
_symmetry_equiv_pos_site_id
_symmetry_equiv_pos_as_xyz
1 x,y,z
2 -x,-y,-z
_cell_length_a 7.6382(3)
_cell_length_b 13.6662(7)
_cell_length_c 19.0828(10)
_cell_angle_alpha 97.104(3)
_cell_angle_beta 90.847(3)
_cell_angle_gamma 102.018(3)
_cell_formula_units_Z 2
loop_
_atom_type_symbol
_atom_type_radius_bond
C 0.68
H 0.23
N 0.68
O 0.68
U 1.96
loop_
_atom_site_label
_atom_site_type_symbol
_atom_site_fract_x
_atom_site_fract_y
_atom_site_fract_z
U1 U 0.88959(2) 0.22732(2) 0.13263(2)
U2 U 0.69800(2) 0.66890(2) 0.39028(2)
O1 O 0.9941(4) 0.1840(2) 0.05648(12)
O2 O 0.7847(4) 0.2686(2) 0.20915(12)
O3 O 0.6180(4) 0.76329(19) 0.35287(12)
O4 O 0.7749(4) 0.5720(2) 0.42701(12)
O5 O 1.0704(3) 0.40183(19) 0.15046(12)
O6 O 0.8366(4) 0.3689(2) 0.07756(12)
O7 O 0.7801(4) 0.6078(2) 0.26886(12)
O8 O 0.5161(4) 0.5385(2) 0.30197(12)
O9 O 0.5896(4) 0.1852(2) 0.06973(12)
O10 O 0.6653(3) 0.06855(19) 0.12559(12)
O11 O -0.0017(4) 0.0947(2) 0.18883(12)
O12 O 0.1717(4) 0.2456(2) 0.20298(12)
O13 O 0.3896(3) 0.60555(19) 0.42693(11)
O14 O 0.5635(4) 0.7220(2) 0.50019(12)
O15 O -0.0871(3) 0.7937(2) 0.46894(11)
O16 O 0.0073(4) 0.7421(2) 0.36589(11)
C1 C 0.7883(5) 0.5697(3) 0.09224(17)
C2 C 0.6232(5) 0.5407(3) 0.12252(16)
C3 C 0.4726(5) 0.5676(3) 0.09464(17)
H1 H 0.35960 0.54770 0.11470
C4 C 0.4859(6) 0.6234(3) 0.03782(17)
H2 H 0.38300 0.64260 0.01990
C5 C 0.6479(5) 0.6504(3) 0.00785(18)
H3 H 0.65690 0.68710 -0.03160
C6 C 0.7978(5) 0.6244(3) 0.03479(16)
H4 H 0.90970 0.64410 0.01390
C7 C 0.9579(5) 0.5433(3) 0.11956(18)
H5 H 1.05940 0.57520 0.09270
H6 H 0.98060 0.57330 0.16960
C8 C 0.9554(5) 0.4329(3) 0.11478(17)
C9 C 0.5947(5) 0.4801(3) 0.18469(16)
H7 H 0.46890 0.44220 0.18260
H8 H 0.67300 0.43060 0.18070
C10 C 0.6346(5) 0.5459(3) 0.25536(17)
C11 C 0.3176(5) -0.0342(3) 0.13832(17)
C12 C 0.2894(5) -0.0007(3) 0.20954(17)
C13 C 0.2557(5) -0.0712(3) 0.25697(17)
H9 H 0.23170 -0.04980 0.30450
C14 C 0.2563(6) -0.1723(3) 0.23647(19)
H10 H 0.23500 -0.21910 0.26980
C15 C 0.2882(5) -0.2043(3) 0.16685(18)
H11 H 0.28970 -0.27320 0.15250
C16 C 0.3180(5) -0.1354(3) 0.11822(18)
H12 H 0.33890 -0.15790 0.07060
C17 C 0.3580(5) 0.0399(3) 0.08494(17)
H13 H 0.27280 0.08570 0.09000
H14 H 0.33910 0.00230 0.03670
C18 C 0.5468(5) 0.1022(3) 0.09336(16)
C19 C 0.2996(5) 0.1098(3) 0.23529(17)
H15 H 0.30090 0.11890 0.28760
H16 H 0.41430 0.14930 0.22100
C20 C 0.1485(5) 0.1525(3) 0.20810(17)
C21 C 0.2693(5) 0.7872(3) 0.56466(16)
C22 C 0.2612(5) 0.8693(3) 0.52760(17)
C23 C 0.2804(5) 0.9643(3) 0.56418(18)
H17 H 0.27540 1.01940 0.53880
C24 C 0.3071(6) 0.9823(3) 0.63777(18)
H18 H 0.32130 1.04860 0.66210
C25 C 0.3123(5) 0.9018(3) 0.67424(17)
H19 H 0.32740 0.91230 0.72430
C26 C 0.2955(5) 0.8057(3) 0.63791(17)
H20 H 0.30200 0.75120 0.66360
C27 C 0.2525(5) 0.6816(3) 0.52686(17)
H21 H 0.23960 0.63380 0.56240
H22 H 0.14210 0.66400 0.49600
C28 C 0.4107(5) 0.6685(3) 0.48228(17)
C29 C 0.2240(5) 0.8526(3) 0.44823(17)
H23 H 0.23990 0.91900 0.43070
H24 H 0.31310 0.81700 0.42560
C30 C 0.0394(6) 0.7926(3) 0.42624(18)
O17 O 0.7717(4) 0.8965(2) 0.59222(12)
H25 H 0.67380 0.85300 0.56950
H26 H 0.87630 0.89370 0.57710
N1 N 0.1911(4) 0.4137(2) 0.31552(14)
H27 H 0.16980 0.37040 0.27470
H28 H 0.29170 0.46230 0.31170
C31 C 0.2135(6) 0.3549(3) 0.3736(2)
H29 H 0.23720 0.40010 0.41830
H30 H 0.31420 0.32150 0.36450
H31 H 0.10370 0.30380 0.37670
C32 C 0.0455(5) 0.4707(3) 0.3267(2)
H32 H -0.07040 0.42320 0.32450
H33 H 0.04680 0.51470 0.28980
H34 H 0.06430 0.51170 0.37320
N2 N 0.7929(4) -0.0960(2) 0.15938(14)
H35 H 0.69550 -0.07070 0.15990
H36 H 0.88970 -0.05010 0.18440
C33 C 0.7606(5) -0.1909(3) 0.19312(18)
H37 H 0.66730 -0.24180 0.16560
H38 H 0.72170 -0.17700 0.24140
H39 H 0.87160 -0.21600 0.19450
C34 C 0.8519(5) -0.1103(3) 0.08516(17)
H40 H 0.95520 -0.14260 0.08390
H41 H 0.88580 -0.04450 0.06800
H42 H 0.75350 -0.15300 0.05490
U1* U -0.11041(2) 0.22732(2) 0.13263(2)
U2* U -0.30200(2) 0.66890(2) 0.39028(2)
O11* O 0.9983(4) 0.0947(2) 0.18883(12)
O12* O 1.1717(4) 0.2456(2) 0.20298(12)
O15* O 0.9129(3) 0.7937(2) 0.46894(11)
O16* O 1.0073(4) 0.7421(2) 0.36589(11)
#END
