
#######################################################################
#
#                 Cambridge Crystallographic Data Centre
#                                CCDC
#
#######################################################################
#
# If this CIF has been generated from an entry in the Cambridge
# Structural Database, then it will include bibliographic, chemical,
# crystal, experimental, refinement or atomic coordinate data resulting
# from the CCDC's data processing and validation procedures.
#
#######################################################################

data_CSD_CIF_FUDBUE
_audit_creation_date 2020-01-24
_audit_creation_method CSD-ConQuest-V1
_database_code_CSD FUDBUE
_database_code_depnum_ccdc_archive 'CCDC 1966039'
_chemical_formula_sum 'C34 H40 N7 O16.5 U2'
_chemical_formula_moiety
;
(C30 H24 O16 U2 2-)n,2n(C1 H6 N3 1+),n(C2 H3 N1),0.5n(H2 O1)
;
_journal_coden_Cambridge 9
_journal_volume 59
_journal_year 2020
_journal_page_first 2503
_journal_name_full 'Inorg.Chem. '
loop_
_publ_author_name
"P.Thuery"
"Y.Atoini"
"J.Harrowfield"
_chemical_name_systematic
;
catena-(bis(guanidinium) 
tris(\m-2,2'-(1,2-phenylene)diacetato)-tetraoxo-di-uranium acetonitrile 
solvate hemihydrate)
;
_cell_volume   8312.723
_exptl_crystal_colour 'light yellow'
_exptl_crystal_density_diffrn 2.056
_exptl_crystal_description 'platelet'
_diffrn_ambient_temperature 100
_diffrn_special_details
;
twin

;
#These two values have been output from a single CSD field.
_refine_ls_R_factor_gt 0.0402
_refine_ls_wR_factor_gt 0.0402
_symmetry_cell_setting monoclinic
_symmetry_space_group_name_H-M 'C c'
_symmetry_Int_Tables_number 9
loop_
_symmetry_equiv_pos_site_id
_symmetry_equiv_pos_as_xyz
1 x,y,z
2 x,-y,1/2+z
3 1/2+x,1/2+y,z
4 1/2+x,1/2-y,1/2+z
_cell_length_a 26.7267(12)
_cell_length_b 15.2891(3)
_cell_length_c 20.4990(9)
_cell_angle_alpha 90
_cell_angle_beta 97.072(2)
_cell_angle_gamma 90
_cell_formula_units_Z 8
loop_
_atom_type_symbol
_atom_type_radius_bond
C 0.68
H 0.23
N 0.68
O 0.68
U 1.96
loop_
_atom_site_label
_atom_site_type_symbol
_atom_site_fract_x
_atom_site_fract_y
_atom_site_fract_z
U1 U 0.38468(2) 0.20114(4) 0.62065(3)
U2 U 0.72342(2) 0.18231(4) 0.64169(3)
O1 O 0.3657(6) 0.1824(9) 0.7009(7)
O2 O 0.4036(5) 0.2209(9) 0.5427(7)
O3 O 0.7085(6) 0.2007(9) 0.7238(6)
O4 O 0.7376(5) 0.1612(10) 0.5627(8)
O5 O 0.4394(5) 0.3211(8) 0.6632(7)
O6 O 0.4746(6) 0.1909(9) 0.6668(8)
O7 O 0.6343(5) 0.1724(8) 0.6027(8)
O8 O 0.6657(4) 0.3056(8) 0.6110(7)
O9 O 0.4160(4) 0.0497(7) 0.6211(5)
O10 O 0.3400(5) 0.0679(7) 0.5733(7)
O11 O 0.2680(4) -0.1774(7) 0.6369(6)
O12 O 0.3131(4) -0.2854(9) 0.6860(6)
O13 O 0.7706(5) 0.0524(8) 0.6852(7)
O14 O 0.6902(4) 0.0328(7) 0.6472(6)
O15 O 0.7959(5) -0.2750(9) 0.5784(7)
O16 O 0.8399(5) -0.1558(8) 0.6063(7)
C1 C 0.5392(6) 0.3889(11) 0.6537(8)
C2 C 0.5611(6) 0.3795(13) 0.5964(10)
C3 C 0.5690(7) 0.4535(12) 0.5585(10)
H1 H 0.58610 0.44700 0.52080
C4 C 0.5528(8) 0.5340(13) 0.574(1)
H2 H 0.55710 0.58230 0.54610
C5 C 0.5295(8) 0.5465(12) 0.6318(12)
H3 H 0.51740 0.60200 0.64360
C6 C 0.5251(9) 0.4672(14) 0.6729(12)
H4 H 0.51200 0.47270 0.71380
C7 C 0.5290(7) 0.3112(12) 0.6968(10)
H5 H 0.55540 0.26610 0.69460
H6 H 0.53000 0.33040 0.74300
C8 C 0.4777(6) 0.2732(11) 0.6730(8)
C9 C 0.5768(7) 0.2909(11) 0.573(1)
H7 H 0.57440 0.29370 0.52450
H8 H 0.55120 0.24820 0.58370
C10 C 0.6280(6) 0.2526(13) 0.5974(9)
C11 C 0.4103(7) -0.1361(11) 0.6034(8)
C12 C 0.4013(6) -0.1664(10) 0.6661(8)
C13 C 0.4374(7) -0.2163(12) 0.7051(9)
H9 H 0.43120 -0.23540 0.74750
C14 C 0.4832(7) -0.2378(13) 0.6809(10)
H10 H 0.50800 -0.27220 0.70640
C15 C 0.4912(6) -0.2078(11) 0.6193(10)
H11 H 0.52180 -0.22280 0.60290
C16 C 0.4577(7) -0.1588(12) 0.5822(10)
H12 H 0.46550 -0.13860 0.54070
C17 C 0.3750(6) -0.0759(10) 0.5651(9)
H13 H 0.34030 -0.09820 0.56570
H14 H 0.38210 -0.07640 0.51880
C18 C 0.3770(7) 0.0181(11) 0.5892(8)
C19 C 0.3514(6) -0.1429(10) 0.6921(8)
H15 H 0.35670 -0.14280 0.74080
H16 H 0.34120 -0.08310 0.67740
C20 C 0.3094(7) -0.2056(11) 0.6691(9)
C21 C 0.7015(6) -0.1521(11) 0.6538(8)
C22 C 0.7081(6) -0.1716(10) 0.5886(9)
C23 C 0.6737(7) -0.2271(11) 0.5522(9)
H17 H 0.67760 -0.23950 0.50760
C24 C 0.6348(7) -0.2637(14) 0.5794(10)
H18 H 0.61180 -0.30090 0.55370
C25 C 0.6285(7) -0.2470(12) 0.6449(11)
H19 H 0.60190 -0.27410 0.66420
C26 C 0.6615(6) -0.1904(11) 0.6812(9)
H20 H 0.65680 -0.17750 0.72540
C27 C 0.7374(6) -0.0918(12) 0.6943(8)
H21 H 0.73180 -0.09740 0.74100
H22 H 0.77230 -0.11110 0.69070
C28 C 0.7327(6) 0.0023(11) 0.6753(8)
C29 C 0.7527(7) -0.1373(11) 0.5578(9)
H23 H 0.75890 -0.07520 0.56990
H24 H 0.74610 -0.14140 0.50930
C30 C 0.7985(7) -0.1922(11) 0.5829(9)
U3 U 0.45892(2) 1.07166(4) 0.40402(2)
U4 U 0.61919(2) 0.58444(4) 0.37384(3)
O17 O 0.4360(5) 1.0585(8) 0.4818(7)
O18 O 0.4823(6) 1.0830(8) 0.3282(8)
O19 O 0.6091(6) 0.5864(8) 0.4585(7)
O20 O 0.6299(6) 0.5820(8) 0.2910(8)
O21 O 0.5452(4) 1.0503(8) 0.4579(6)
O22 O 0.5037(4) 0.9326(7) 0.4226(6)
O23 O 0.5653(5) 0.7164(7) 0.3494(6)
O24 O 0.6467(4) 0.7385(7) 0.3778(6)
O25 O 0.4035(4) 0.9444(8) 0.3621(7)
O26 O 0.3731(5) 1.0766(7) 0.3476(7)
O27 O 0.2109(5) 1.1050(9) 0.4159(7)
O28 O 0.1846(4) 0.9697(8) 0.3973(7)
O29 O 0.5805(5) 0.4358(8) 0.3574(6)
O30 O 0.5292(4) 0.5477(9) 0.3476(6)
O31 O 0.4261(5) 0.2266(7) 0.3952(6)
O32 O 0.5025(4) 0.2050(8) 0.4478(7)
C31 C 0.6343(6) 0.9430(11) 0.4355(8)
C32 C 0.6354(6) 0.9186(11) 0.3687(9)
C33 C 0.6787(7) 0.9447(12) 0.3401(9)
H25 H 0.68250 0.92540 0.29690
C34 C 0.7157(7) 0.9979(11) 0.3731(8)
H26 H 0.74280 1.01810 0.35120
C35 C 0.7133(7) 1.0208(12) 0.4365(9)
H27 H 0.73970 1.05450 0.45940
C36 C 0.6721(6) 0.9954(11) 0.4688(8)
H28 H 0.67000 1.01360 0.51270
C37 C 0.5893(6) 0.9151(10) 0.4702(9)
H29 H 0.58130 0.85300 0.45990
H30 H 0.59850 0.92020 0.51840
C38 C 0.5440(6) 0.9698(11) 0.4497(8)
C39 C 0.5975(6) 0.8622(10) 0.3346(8)
H31 H 0.59960 0.86620 0.28680
H32 H 0.56380 0.88370 0.34240
C40 C 0.6023(6) 0.7673(10) 0.3551(8)
C41 C 0.2984(7) 0.8829(9) 0.3459(8)
C42 C 0.2803(6) 0.8987(11) 0.4088(9)
C43 C 0.2655(6) 0.8308(11) 0.4433(9)
H33 H 0.25370 0.84100 0.48460
C44 C 0.2670(7) 0.7472(12) 0.420(1)
H34 H 0.25690 0.70020 0.44570
C45 C 0.2833(6) 0.7297(10) 0.3590(9)
H35 H 0.28280 0.67180 0.34210
C46 C 0.2999(6) 0.7973(9) 0.3244(9)
H36 H 0.31280 0.78550 0.28420
C47 C 0.3180(7) 0.9584(11) 0.3070(8)
H37 H 0.32300 0.93740 0.26260
H38 H 0.29220 1.00530 0.30170
C48 C 0.3676(7) 0.9965(12) 0.3406(8)
C49 C 0.2736(6) 0.9928(10) 0.4305(8)
H39 H 0.28350 0.99740 0.47850
H40 H 0.29610 1.03140 0.40840
C50 C 0.2203(7) 1.0225(12) 0.4142(8)
C51 C 0.4444(7) 0.4368(12) 0.3499(9)
C52 C 0.4322(6) 0.4115(11) 0.4123(10)
C53 C 0.3891(8) 0.4457(14) 0.4375(11)
H41 H 0.38090 0.42900 0.47950
C54 C 0.3590(7) 0.5052(13) 0.3980(12)
H42 H 0.33060 0.53130 0.41390
C55 C 0.3702(8) 0.5253(16) 0.3379(12)
H43 H 0.34840 0.56330 0.31090
C56 C 0.4112(8) 0.4936(12) 0.3147(11)
H44 H 0.41770 0.51100 0.27210
C57 C 0.4919(8) 0.4040(13) 0.3252(10)
H45 H 0.48630 0.39860 0.27680
H46 H 0.50040 0.34530 0.34380
C58 C 0.5364(7) 0.4672(11) 0.3451(8)
C59 C 0.4678(7) 0.3492(11) 0.4558(9)
H47 H 0.50300 0.36990 0.45640
H48 H 0.45920 0.35130 0.50140
C60 C 0.4643(6) 0.2561(11) 0.4317(9)
O33 O 0.1632(5) 0.8678(8) 0.2791(6)
H49 H 0.14620 0.87200 0.31510
H50 H 0.19580 0.88120 0.30500
N1 N 0.5385(7) 0.0529(12) 0.6096(8)
H51 H 0.50770 0.06540 0.59180
H52 H 0.56440 0.06710 0.58900
N2 N 0.5933(5) -0.0054(10) 0.6942(8)
H53 H 0.59880 -0.03170 0.73260
H54 H 0.61890 0.00910 0.67310
N3 N 0.5088(5) -0.0093(9) 0.6994(7)
H55 H 0.47760 0.00250 0.68260
H56 H 0.51470 -0.03580 0.73770
C61 C 0.5460(6) 0.0125(11) 0.6678(9)
N4 N 0.2414(6) 0.0052(11) 0.6043(8)
H57 H 0.26050 0.03830 0.58240
H58 H 0.23640 -0.05000 0.59320
N5 N 0.1883(6) -0.0145(10) 0.6814(8)
H59 H 0.18190 -0.06810 0.66710
H60 H 0.17360 0.00590 0.71440
N6 N 0.2270(6) 0.117(1) 0.6702(8)
H61 H 0.24580 0.15200 0.64950
H62 H 0.21230 0.13690 0.70340
C62 C 0.2209(6) 0.0373(12) 0.6522(8)
N7 N 0.4604(6) 0.7663(10) 0.3468(8)
H63 H 0.44730 0.81570 0.33060
H64 H 0.48500 0.74110 0.32890
N8 N 0.4066(5) 0.7682(9) 0.4245(7)
H65 H 0.39510 0.74460 0.45890
H66 H 0.39350 0.81730 0.40780
N9 N 0.4624(6) 0.6559(11) 0.4240(8)
H67 H 0.45050 0.63310 0.45830
H68 H 0.48690 0.62970 0.40680
C63 C 0.4432(7) 0.7301(12) 0.3981(9)
N10 N 0.7514(5) 0.7577(11) 0.3569(9)
H69 H 0.73850 0.78060 0.31910
H70 H 0.73130 0.73630 0.38390
N11 N 0.8179(6) 0.7245(10) 0.4321(7)
H71 H 0.79670 0.70640 0.45890
H72 H 0.85060 0.72200 0.44450
N12 N 0.8312(6) 0.7869(11) 0.3337(8)
H73 H 0.81910 0.81000 0.29570
H74 H 0.86400 0.78480 0.34520
C64 C 0.8005(7) 0.7554(11) 0.3730(9)
N13 N 0.5968(7) -0.1307(14) 0.8069(10)
C65 C 0.6068(8) -0.1666(15) 0.8542(11)
C66 C 0.6216(8) -0.2138(12) 0.9158(10)
H75 H 0.62520 -0.17220 0.95250
H76 H 0.65380 -0.24350 0.91360
H77 H 0.59570 -0.25710 0.92260
N14 N 0.3867(11) 0.6445(16) 0.5312(11)
C67 C 0.3832(10) 0.6013(14) 0.5773(11)
C68 C 0.3848(10) 0.5491(15) 0.6353(12)
H78 H 0.41970 0.54440 0.65610
H79 H 0.37160 0.49070 0.62360
H80 H 0.36420 0.57660 0.66590
U1B U 0.88468(2) -0.29886(4) 0.62065(3)
U2B U 0.22342(2) -0.31769(4) 0.64169(3)
O11B O 0.7680(4) 0.3226(7) 0.6369(6)
O12B O 0.8131(4) 0.2146(9) 0.6860(6)
O15B O 0.2959(5) 0.2250(9) 0.5784(7)
O16B O 0.3399(5) 0.3442(8) 0.6063(7)
U3* U 0.45892(2) 0.07166(4) 0.40402(2)
U4B U 0.11919(2) 1.08444(4) 0.37384(3)
O27B O 0.7109(5) 0.6050(9) 0.4159(7)
O28B O 0.6846(4) 0.4697(8) 0.3973(7)
O31* O 0.4261(5) 1.2266(7) 0.3952(6)
O32* O 0.5025(4) 1.2050(8) 0.4478(7)
#END
