
#######################################################################
#
#                 Cambridge Crystallographic Data Centre
#                                CCDC
#
#######################################################################
#
# If this CIF has been generated from an entry in the Cambridge
# Structural Database, then it will include bibliographic, chemical,
# crystal, experimental, refinement or atomic coordinate data resulting
# from the CCDC's data processing and validation procedures.
#
#######################################################################

data_CSD_CIF_FUDBAK
_audit_creation_date 2020-01-24
_audit_creation_method CSD-ConQuest-V1
_database_code_CSD FUDBAK
_database_code_depnum_ccdc_archive 'CCDC 1966035'
_chemical_formula_sum 'C34 H46 N2 O19 U2'
_chemical_formula_moiety
;
(C30 H24 O16 U2 2-)n,2n(C2 H8 N1 1+),3n(H2 O1)
;
_journal_coden_Cambridge 9
_journal_volume 59
_journal_year 2020
_journal_page_first 2503
_journal_name_full 'Inorg.Chem. '
loop_
_publ_author_name
"P.Thuery"
"Y.Atoini"
"J.Harrowfield"
_chemical_name_systematic
;
catena-(bis(dimethylammonium) 
tris(\m-2,2'-(1,2-phenylene)diacetato)-tetraoxo-di-uranium trihydrate)
;
_cell_volume   4093.310
_exptl_crystal_colour 'light yellow'
_exptl_crystal_density_diffrn 2.049
_exptl_crystal_description 'platelet'
_diffrn_ambient_temperature 100
_diffrn_special_details
;
twin

;
#These two values have been output from a single CSD field.
_refine_ls_R_factor_gt 0.0404
_refine_ls_wR_factor_gt 0.0404
_symmetry_cell_setting orthorhombic
_symmetry_space_group_name_H-M 'P 21 21 21'
_symmetry_Int_Tables_number 19
loop_
_symmetry_equiv_pos_site_id
_symmetry_equiv_pos_as_xyz
1 x,y,z
2 1/2-x,-y,1/2+z
3 -x,1/2+y,1/2-z
4 1/2+x,1/2-y,-z
_cell_length_a 7.7336(3)
_cell_length_b 17.1240(11)
_cell_length_c 30.9092(18)
_cell_angle_alpha 90
_cell_angle_beta 90
_cell_angle_gamma 90
_cell_formula_units_Z 4
loop_
_atom_type_symbol
_atom_type_radius_bond
C 0.68
H 0.23
N 0.68
O 0.68
U 1.96
loop_
_atom_site_label
_atom_site_type_symbol
_atom_site_fract_x
_atom_site_fract_y
_atom_site_fract_z
U1 U 0.68567(6) 0.43778(3) 0.70066(2)
U2 U 0.32272(7) 0.55542(3) 0.48351(2)
O1 O 0.7930(12) 0.3657(5) 0.7317(3)
O2 O 0.5831(11) 0.5099(6) 0.6699(3)
O3 O 0.2019(13) 0.4900(5) 0.4504(3)
O4 O 0.4444(13) 0.6202(5) 0.5167(3)
O5 O 0.8099(14) 0.3876(5) 0.6323(3)
O6 O 0.5652(11) 0.3365(6) 0.6537(3)
O7 O 0.4248(11) 0.4402(6) 0.5242(3)
O8 O 0.1949(14) 0.4979(6) 0.5490(3)
O9 O 0.4020(11) 0.3931(6) 0.7254(3)
O10 O 0.5209(11) 0.4851(5) 0.7640(3)
O11 O -0.1561(12) 0.5380(5) 0.7417(3)
O12 O -0.0283(12) 0.4948(5) 0.6835(3)
O13 O 0.0449(13) 0.6177(6) 0.5054(3)
O14 O 0.1675(13) 0.6614(5) 0.4464(3)
O15 O -0.5131(11) 0.6046(6) 0.4207(3)
O16 O -0.3972(11) 0.5076(6) 0.4568(3)
C1 C 0.4912(17) 0.2698(8) 0.5687(4)
C2 C 0.320(2) 0.2991(7) 0.5714(4)
C3 C 0.179(2) 0.2522(8) 0.5587(4)
H1 H 0.06480 0.27280 0.56000
C4 C 0.204(2) 0.1769(9) 0.5443(5)
H2 H 0.10880 0.14460 0.53700
C5 C 0.3747(19) 0.1488(9) 0.5408(5)
H3 H 0.39510 0.09780 0.52980
C6 C 0.5119(19) 0.1950(9) 0.5531(5)
H4 H 0.62560 0.17440 0.55070
C7 C 0.6459(16) 0.3186(8) 0.5776(5)
H5 H 0.64030 0.36500 0.55860
H6 H 0.74930 0.28830 0.56900
C8 C 0.6742(19) 0.3473(7) 0.6239(4)
C9 C 0.2790(19) 0.3816(7) 0.5860(4)
H7 H 0.35470 0.39490 0.61070
H8 H 0.15790 0.38340 0.59630
C10 C 0.302(2) 0.4430(8) 0.5510(4)
C11 C 0.1993(17) 0.5235(7) 0.8038(4)
C12 C 0.1576(16) 0.5878(7) 0.7787(4)
C13 C 0.1348(15) 0.6588(8) 0.7984(5)
H9 H 0.11600 0.70370 0.78100
C14 C 0.1385(16) 0.6672(8) 0.8431(4)
H10 H 0.11830 0.71650 0.85620
C15 C 0.172(2) 0.6020(9) 0.8678(5)
H11 H 0.17230 0.60620 0.89840
C16 C 0.2062(17) 0.5307(8) 0.8488(4)
H12 H 0.23410 0.48670 0.86630
C17 C 0.2326(16) 0.4454(8) 0.7838(4)
H13 H 0.13300 0.43160 0.76520
H14 H 0.23930 0.40590 0.80710
C18 C 0.3963(15) 0.4407(8) 0.7570(4)
C19 C 0.1413(16) 0.5808(8) 0.7289(4)
H15 H 0.24280 0.55280 0.71710
H16 H 0.13790 0.63360 0.71580
C20 C -0.0257(17) 0.5360(7) 0.7175(4)
C21 C -0.1474(16) 0.7083(8) 0.4096(4)
C22 C -0.1934(17) 0.6450(7) 0.3824(4)
C23 C -0.200(2) 0.6567(8) 0.3373(4)
H17 H -0.22750 0.61420 0.31880
C24 C -0.166(2) 0.7285(9) 0.3199(4)
H18 H -0.17790 0.73630 0.28960
C25 C -0.1148(16) 0.7912(9) 0.3466(4)
H19 H -0.08410 0.84010 0.33430
C26 C -0.1096(18) 0.7803(8) 0.3916(5)
H20 H -0.07980 0.82280 0.40990
C27 C -0.1245(16) 0.6969(8) 0.4580(4)
H21 H -0.12770 0.74870 0.47210
H22 H -0.22390 0.66640 0.46900
C28 C 0.0342(19) 0.6575(8) 0.4707(4)
C29 C -0.2229(16) 0.5636(8) 0.3999(4)
H23 H -0.12220 0.54810 0.41780
H24 H -0.23180 0.52650 0.37550
C30 C -0.3883(16) 0.5585(9) 0.4276(4)
O17 O 0.1419(12) 0.3104(6) 0.6867(3)
H25 H 0.05450 0.31780 0.66780
H26 H 0.15220 0.35620 0.69980
O18 O 0.3054(16) 0.6966(6) 0.3617(3)
H27 H 0.38040 0.67310 0.38170
H28 H 0.37820 0.71930 0.34200
O19 O 0.4098(14) 0.7575(7) 0.2831(4)
N1 N -0.0879(13) 0.5529(8) 0.5931(4)
H29 H 0.01570 0.53680 0.57760
H30 H -0.07680 0.51310 0.61550
C31 C -0.070(3) 0.6312(11) 0.6106(6)
H31 H -0.07570 0.66920 0.58690
H32 H 0.04190 0.63590 0.62530
H33 H -0.16340 0.64130 0.63120
C32 C -0.243(2) 0.5432(11) 0.5671(5)
H34 H -0.34510 0.54410 0.58600
H35 H -0.23810 0.49320 0.55180
H36 H -0.25100 0.58590 0.54610
N2 N -0.2841(13) 0.6621(7) 0.7967(4)
H37 H -0.21600 0.62230 0.78190
H38 H -0.20220 0.70110 0.79720
C33 C -0.339(2) 0.6315(9) 0.8384(5)
H39 H -0.39950 0.67240 0.85450
H40 H -0.23740 0.61440 0.85480
H41 H -0.41680 0.58710 0.83390
C34 C -0.4334(17) 0.686(1) 0.7690(5)
H42 H -0.50610 0.64040 0.76300
H43 H -0.39020 0.70760 0.74170
H44 H -0.50190 0.72570 0.78420
U1* U -0.31433(6) 0.43778(3) 0.70066(2)
U2* U -0.67728(7) 0.55542(3) 0.48351(2)
O11* O 0.8439(12) 0.5380(5) 0.7417(3)
O12* O 0.9717(12) 0.4948(5) 0.6835(3)
O15* O 0.4869(11) 0.6046(6) 0.4207(3)
O16* O 0.6028(11) 0.5076(6) 0.4568(3)
#END
