
#######################################################################
#
#                 Cambridge Crystallographic Data Centre
#                                CCDC
#
#######################################################################
#
# If this CIF has been generated from an entry in the Cambridge
# Structural Database, then it will include bibliographic, chemical,
# crystal, experimental, refinement or atomic coordinate data resulting
# from the CCDC's data processing and validation procedures.
#
#######################################################################

data_CSD_CIF_FUDBOY
_audit_creation_date 2020-01-24
_audit_creation_method CSD-ConQuest-V1
_database_code_CSD FUDBOY
_database_code_depnum_ccdc_archive 'CCDC 1966038'
_chemical_formula_sum 'C34 H40 N2 O16 U2'
_chemical_formula_moiety
;
(C30 H24 O16 U2 2-)n,2n(C2 H8 N1 1+)
;
_journal_coden_Cambridge 9
_journal_volume 59
_journal_year 2020
_journal_page_first 2503
_journal_name_full 'Inorg.Chem. '
loop_
_publ_author_name
"P.Thuery"
"Y.Atoini"
"J.Harrowfield"
_chemical_name_systematic
;
catena(bis(dimethylammonium) 
(\m-2,2'-(1,2-phenylene)diacetato)-bis(\m-2,2'-(1,4-phenylene)diacetato)-tetra
oxo-di-uranium)
;
_cell_volume   3922.038
_exptl_crystal_colour 'light yellow'
_exptl_crystal_density_diffrn 2.047
_exptl_crystal_description 'platelet'
_diffrn_ambient_temperature 100
_diffrn_special_details
;
twin

;
#These two values have been output from a single CSD field.
_refine_ls_R_factor_gt 0.0358
_refine_ls_wR_factor_gt 0.0358
_symmetry_cell_setting orthorhombic
_symmetry_space_group_name_H-M 'P n a 21'
_symmetry_Int_Tables_number 33
loop_
_symmetry_equiv_pos_site_id
_symmetry_equiv_pos_as_xyz
1 x,y,z
2 -x,-y,1/2+z
3 1/2+x,1/2-y,z
4 1/2-x,1/2+y,1/2+z
_cell_length_a 11.7580(7)
_cell_length_b 12.2222(4)
_cell_length_c 27.2916(15)
_cell_angle_alpha 90
_cell_angle_beta 90
_cell_angle_gamma 90
_cell_formula_units_Z 4
loop_
_atom_type_symbol
_atom_type_radius_bond
C 0.68
H 0.23
N 0.68
O 0.68
U 1.96
loop_
_atom_site_label
_atom_site_type_symbol
_atom_site_fract_x
_atom_site_fract_y
_atom_site_fract_z
U1 U 0.90541(2) 0.35094(3) 0.63467(2)
U2 U 0.91728(2) 0.26333(2) 0.34920(2)
O1 O 0.7767(6) 0.3714(5) 0.6664(2)
O2 O 1.0344(5) 0.3317(5) 0.6021(2)
O3 O 0.8065(6) 0.3229(5) 0.3150(2)
O4 O 1.0284(6) 0.2047(5) 0.3837(2)
O5 O 0.8098(6) 0.4431(5) 0.5638(2)
O6 O 0.9148(6) 0.5440(6) 0.6115(3)
O7 O 0.9605(5) 0.4451(5) 0.3841(2)
O8 O 0.8402(5) 0.3475(5) 0.4271(3)
O9 O 0.9983(6) 0.4637(5) 0.6953(2)
O10 O 0.9962(5) 0.2890(5) 0.7112(2)
O11 O 1.2146(6) -0.1456(5) 0.8931(3)
O12 O 1.1489(6) -0.0795(5) 0.8239(2)
O13 O 0.8742(7) 0.1461(5) 0.6463(2)
O14 O 0.8201(5) 0.2200(5) 0.5769(2)
O15 O 0.9846(5) -0.2094(5) 0.7705(2)
O16 O 0.9418(6) -0.3686(5) 0.8026(3)
C1 C 0.7327(9) 0.6255(7) 0.5071(3)
C2 C 0.7663(8) 0.5706(7) 0.4633(3)
C3 C 0.6840(9) 0.5590(8) 0.4261(4)
H1 H 0.70440 0.52230 0.39670
C4 C 0.5750(9) 0.5990(9) 0.4310(4)
H2 H 0.52050 0.58860 0.40570
C5 C 0.5463(10) 0.6542(9) 0.4732(4)
H3 H 0.47170 0.68310 0.47670
C6 C 0.6242(9) 0.6682(8) 0.5105(4)
H4 H 0.60290 0.70790 0.53900
C7 C 0.8170(9) 0.6388(7) 0.5483(3)
H5 H 0.78540 0.69180 0.57210
H6 H 0.88750 0.67090 0.53470
C8 C 0.8483(8) 0.5349(7) 0.5758(3)
C9 C 0.8848(8) 0.5281(7) 0.4569(4)
H7 H 0.91320 0.50260 0.48910
H8 H 0.93420 0.58900 0.44610
C10 C 0.8953(7) 0.4357(7) 0.4207(4)
C11 C 1.1443(9) 0.3139(8) 0.7948(4)
C12 C 1.1193(8) 0.2960(7) 0.8434(4)
H9 H 1.06960 0.34460 0.86010
C13 C 1.1664(8) 0.2065(8) 0.8686(4)
H10 H 1.14980 0.19580 0.90240
C14 C 1.2380(7) 0.1327(6) 0.8440(4)
C15 C 1.2627(8) 0.1526(7) 0.7956(4)
H11 H 1.31140 0.10350 0.77860
C16 C 1.2190(8) 0.2416(7) 0.7709(4)
H12 H 1.23940 0.25400 0.73770
C17 C 1.0946(9) 0.4107(8) 0.7686(4)
H13 H 1.15730 0.46090 0.75970
H14 H 1.04400 0.45010 0.79160
C18 C 1.0282(8) 0.3848(8) 0.7230(3)
C19 C 1.2812(8) 0.0325(7) 0.8705(4)
H15 H 1.28330 0.04800 0.90610
H16 H 1.36000 0.01740 0.85970
C20 C 1.2095(8) -0.0684(7) 0.8618(3)
C21 C 0.8042(8) -0.0672(7) 0.6214(3)
C22 C 0.7179(8) -0.0907(7) 0.6536(4)
H17 H 0.64930 -0.04970 0.65240
C23 C 0.7300(8) -0.1740(7) 0.6883(3)
H18 H 0.66930 -0.18980 0.71010
C24 C 0.8307(8) -0.2343(7) 0.6908(4)
C25 C 0.9176(8) -0.2097(7) 0.6573(4)
H19 H 0.98640 -0.25050 0.65810
C26 C 0.9048(7) -0.1276(7) 0.6236(3)
H20 H 0.96500 -0.11160 0.60150
C27 C 0.7919(9) 0.0258(7) 0.5850(4)
H21 H 0.71100 0.03230 0.57540
H22 H 0.83610 0.00820 0.55520
C28 C 0.8327(8) 0.1365(7) 0.6054(4)
C29 C 0.8454(9) -0.3223(7) 0.7289(4)
H23 H 0.77020 -0.33740 0.74370
H24 H 0.87050 -0.39000 0.71210
C30 C 0.9279(8) -0.2977(8) 0.7693(4)
N1 N 0.6749(7) 0.2801(7) 0.4974(4)
H25 H 0.71810 0.27800 0.52510
H26 H 0.71880 0.30700 0.47280
C31 C 0.5772(8) 0.3544(8) 0.5054(4)
H27 H 0.53260 0.36000 0.47520
H28 H 0.60510 0.42700 0.51470
H29 H 0.52910 0.32530 0.53170
C32 C 0.6382(11) 0.1661(8) 0.4846(4)
H30 H 0.59000 0.13700 0.51080
H31 H 0.70540 0.11950 0.48080
H32 H 0.59530 0.16730 0.45380
N2 N 0.9570(7) 0.0028(7) 0.7310(3)
H33 H 0.90520 0.02340 0.70800
H34 H 0.94810 -0.07030 0.73620
C33 C 0.933(1) 0.0614(9) 0.7767(4)
H35 H 0.99200 0.04420 0.80090
H36 H 0.85870 0.03870 0.78940
H37 H 0.93240 0.14030 0.77040
C34 C 1.0734(8) 0.0229(9) 0.7115(4)
H38 H 1.08380 0.10140 0.70580
H39 H 1.08320 -0.01690 0.68070
H40 H 1.12980 -0.00260 0.73540
U2A U 1.08272(2) -0.26333(2) 0.84920(2)
O11A O 0.7854(6) 0.1456(5) 0.3931(3)
O12A O 0.8511(6) 0.0795(5) 0.3239(2)
O15A O 1.0154(5) 0.2094(5) 0.2705(2)
O16A O 1.0582(6) 0.3686(5) 0.3026(3)
#END
