
#######################################################################
#
#                 Cambridge Crystallographic Data Centre
#                                CCDC
#
#######################################################################
#
# If this CIF has been generated from an entry in the Cambridge
# Structural Database, then it will include bibliographic, chemical,
# crystal, experimental, refinement or atomic coordinate data resulting
# from the CCDC's data processing and validation procedures.
#
#######################################################################

data_CSD_CIF_FUDBEO
_audit_creation_date 2020-01-24
_audit_creation_method CSD-ConQuest-V1
_database_code_CSD FUDBEO
_database_code_depnum_ccdc_archive 'CCDC 1966036'
_chemical_formula_sum 'C34 H41 N2 O16.5 U2'
_chemical_formula_moiety
;
(C30 H24 O16 U2 2-)n,2n(C2 H8 N1 1+),0.5n(H2 O1)
;
_journal_coden_Cambridge 9
_journal_volume 59
_journal_year 2020
_journal_page_first 2503
_journal_name_full 'Inorg.Chem. '
loop_
_publ_author_name
"P.Thuery"
"Y.Atoini"
"J.Harrowfield"
_chemical_name_systematic
;
catena-(bis(dimethylammonium) 
tris(\m-2,2'-(1,3-phenylene)diacetato)-tetraoxo-di-uranium hemihydrate)
;
_cell_volume   1922.375
_exptl_crystal_colour 'light yellow'
_exptl_crystal_density_diffrn 2.104
_exptl_crystal_description 'irregular'
_diffrn_ambient_temperature 100
#These two values have been output from a single CSD field.
_refine_ls_R_factor_gt 0.03
_refine_ls_wR_factor_gt 0.03
_symmetry_cell_setting triclinic
_symmetry_space_group_name_H-M 'P -1'
_symmetry_Int_Tables_number 2
loop_
_symmetry_equiv_pos_site_id
_symmetry_equiv_pos_as_xyz
1 x,y,z
2 -x,-y,-z
_cell_length_a 11.0491(5)
_cell_length_b 11.4663(6)
_cell_length_c 16.0160(8)
_cell_angle_alpha 98.882(3)
_cell_angle_beta 106.200(3)
_cell_angle_gamma 90.460(3)
_cell_formula_units_Z 2
loop_
_atom_type_symbol
_atom_type_radius_bond
C 0.68
H 0.23
N 0.68
O 0.68
U 1.96
loop_
_atom_site_label
_atom_site_type_symbol
_atom_site_fract_x
_atom_site_fract_y
_atom_site_fract_z
U1 U 0.32178(2) 0.24488(2) 0.44277(2)
U2 U 0.19990(2) 0.76277(2) 0.06250(2)
O1 O 0.3006(3) 0.1058(3) 0.3743(2)
O2 O 0.3475(4) 0.3861(3) 0.5107(3)
O3 O 0.2034(4) 0.6247(3) -0.0030(3)
O4 O 0.1959(3) 0.8983(3) 0.1299(2)
O5 O 0.5501(3) 0.2525(3) 0.4550(2)
O6 O 0.4251(3) 0.3256(3) 0.3448(2)
O7 O 0.4344(3) 0.7732(3) 0.1015(3)
O8 O 0.3492(3) 0.6944(3) 0.1896(2)
O9 O 0.1668(3) 0.3120(3) 0.3161(2)
O10 O 0.0978(3) 0.2702(3) 0.4236(3)
O11 O 0.0905(3) 0.6697(3) 0.1518(2)
O12 O -0.0284(3) 0.7293(3) 0.0341(2)
O13 O 0.2420(3) 0.1454(3) 0.5425(2)
O14 O 0.4469(3) 0.1530(3) 0.5695(2)
O15 O 0.0772(3) -0.1499(3) 0.9321(2)
O16 O 0.2826(4) -0.1233(3) 0.9712(3)
C1 C 0.6175(4) 0.3763(4) 0.2718(3)
C2 C 0.6059(4) 0.4978(4) 0.2788(3)
H1 H 0.61462 0.54370 0.33510
C3 C 0.5819(4) 0.5532(4) 0.2052(3)
C4 C 0.5683(5) 0.4851(4) 0.1224(3)
H2 H 0.55290 0.52249 0.07168
C5 C 0.5770(5) 0.3638(4) 0.1137(3)
H3 H 0.56660 0.31749 0.05741
C6 C 0.6015(5) 0.3105(4) 0.1890(4)
H4 H 0.60717 0.22722 0.18330
C7 C 0.6465(5) 0.3197(5) 0.3529(4)
H5 H 0.71152 0.37023 0.40030
H6 H 0.68289 0.24260 0.34035
C8 C 0.5333(5) 0.2999(4) 0.3862(3)
C9 C 0.5748(4) 0.6862(4) 0.2158(4)
H7 H 0.59238 0.71931 0.27908
H8 H 0.63997 0.71999 0.19337
C10 C 0.4462(5) 0.7204(4) 0.1662(3)
C11 C -0.0755(4) 0.4479(4) 0.2954(3)
C12 C -0.0960(4) 0.4924(4) 0.2173(3)
H9 H -0.10022 0.44036 0.16421
C13 C -0.1104(4) 0.6126(4) 0.2157(3)
C14 C -0.1028(4) 0.6872(4) 0.2929(4)
H10 H -0.11252 0.76931 0.29225
C15 C -0.0811(4) 0.6442(4) 0.3722(3)
H11 H -0.07526 0.69674 0.42534
C16 C -0.0682(4) 0.5248(4) 0.3730(3)
H12 H -0.05420 0.49497 0.42689
C17 C -0.0579(4) 0.3167(4) 0.2958(4)
H13 H -0.11867 0.28400 0.32249
H14 H -0.07462 0.27474 0.23451
C18 C 0.0749(5) 0.2973(4) 0.3476(3)
C19 C -0.1351(5) 0.6574(4) 0.1288(4)
H15 H -0.18329 0.72958 0.13179
H16 H -0.18847 0.59700 0.08177
C20 C -0.0170(5) 0.6858(4) 0.1038(3)
C21 C 0.2463(5) 0.0066(4) 0.6772(4)
C22 C 0.2575(5) 0.0152(4) 0.7642(4)
H17 H 0.33964 0.02671 0.80447
C23 C 0.1543(5) 0.0081(4) 0.7981(4)
C24 C 0.0320(6) -0.0117(5) 0.7383(4)
H18 H -0.04021 -0.01603 0.75910
C25 C 0.0194(5) -0.0249(5) 0.6482(4)
H19 H -0.06215 -0.03847 0.60729
C26 C 0.1256(5) -0.0184(4) 0.6170(4)
H20 H 0.11612 -0.03085 0.55546
C27 C 0.3580(5) 0.0185(5) 0.6412(4)
H21 H 0.36848 -0.05893 0.60765
H22 H 0.43501 0.03786 0.69146
C28 C 0.3482(5) 0.1115(4) 0.5819(3)
C29 C 0.1662(6) 0.0219(5) 0.8925(4)
H23 H 0.09271 0.06386 0.90340
H24 H 0.24270 0.07319 0.92456
C30 C 0.1744(5) -0.0919(5) 0.9319(4)
O17 O 0.4778(9) 0.0545(8) 1.0576(7)
H25 H 0.45196 -0.01871 1.02201
H26 H 0.44340 0.10335 1.01879
N1 N 0.3102(4) 0.7144(3) 0.3568(3)
H27 H 0.34273 0.71222 0.30544
H28 H 0.39030 0.71942 0.39748
C31 C 0.2558(5) 0.5979(4) 0.3618(4)
H29 H 0.24004 0.60047 0.41925
H30 H 0.31529 0.53687 0.35435
H31 H 0.17627 0.57936 0.31495
C32 C 0.2256(5) 0.8131(4) 0.3632(4)
H32 H 0.14709 0.79652 0.31519
H33 H 0.26744 0.88667 0.35876
H34 H 0.20640 0.82145 0.41994
N2 N 0.1873(4) 0.2893(3) 0.1453(3)
H35 H 0.15740 0.29263 0.19502
H36 H 0.11341 0.28480 0.10272
C33 C 0.2640(5) 0.1853(4) 0.1391(4)
H37 H 0.28992 0.17811 0.08489
H38 H 0.21396 0.11396 0.13826
H39 H 0.33908 0.19479 0.19014
C34 C 0.2535(5) 0.4012(4) 0.1439(4)
H40 H 0.32917 0.41607 0.19438
H41 H 0.19729 0.46639 0.14718
H42 H 0.27791 0.39540 0.08911
U2* U 0.19990(2) -0.23723(2) 1.06250(2)
O15* O 0.0772(3) 0.8501(3) -0.0679(2)
O16* O 0.2826(4) 0.8767(3) -0.0288(3)
#END
