
#######################################################################
#
#                 Cambridge Crystallographic Data Centre
#                                CCDC
#
#######################################################################
#
# If this CIF has been generated from an entry in the Cambridge
# Structural Database, then it will include bibliographic, chemical,
# crystal, experimental, refinement or atomic coordinate data resulting
# from the CCDC's data processing and validation procedures.
#
#######################################################################

data_CSD_CIF_FUDCIT
_audit_creation_date 2020-01-24
_audit_creation_method CSD-ConQuest-V1
_database_code_CSD FUDCIT
_database_code_depnum_ccdc_archive 'CCDC 1966042'
_chemical_formula_sum 'C102 H104 N2 O34 P2 U4'
_chemical_formula_moiety
;
(C60 H48 O32 U4 4-)n,2n(C2 H8 N1 1+),2n(H2 O1),2n(C19 H18 P1 1+)
;
_journal_coden_Cambridge 9
_journal_volume 59
_journal_year 2020
_journal_page_first 2503
_journal_name_full 'Inorg.Chem. '
loop_
_publ_author_name
"P.Thuery"
"Y.Atoini"
"J.Harrowfield"
_chemical_name_systematic
;
catena-(bis(dimethylammmonium) bis(methyl(triphenyl)phosphonium) 
hexakis(\m-2,2'-(1,4-phenylene)diacetato)-octaoxo-tetra-uranium dihydrate)
;
_cell_volume   2631.298
_exptl_crystal_colour 'light yellow'
_exptl_crystal_density_diffrn 1.84
_exptl_crystal_description 'irregular'
_diffrn_ambient_temperature 100
#These two values have been output from a single CSD field.
_refine_ls_R_factor_gt 0.0331
_refine_ls_wR_factor_gt 0.0331
_symmetry_cell_setting triclinic
_symmetry_space_group_name_H-M 'P -1'
_symmetry_Int_Tables_number 2
loop_
_symmetry_equiv_pos_site_id
_symmetry_equiv_pos_as_xyz
1 x,y,z
2 -x,-y,-z
_cell_length_a 10.3991(6)
_cell_length_b 12.9692(10)
_cell_length_c 20.1775(14)
_cell_angle_alpha 76.166(4)
_cell_angle_beta 89.632(4)
_cell_angle_gamma 84.832(4)
_cell_formula_units_Z 1
loop_
_atom_type_symbol
_atom_type_radius_bond
C 0.68
H 0.23
N 0.68
O 0.68
P 1.05
U 1.96
loop_
_atom_site_label
_atom_site_type_symbol
_atom_site_fract_x
_atom_site_fract_y
_atom_site_fract_z
U1 U 0.47364(2) 0.28083(2) 0.90578(2)
U2 U 1.04304(2) 0.72391(2) 0.58599(2)
O1 O 0.3490(3) 0.3871(2) 0.88474(15)
O2 O 0.6019(4) 0.1772(3) 0.92581(17)
O3 O 0.9419(4) 0.8403(2) 0.58992(16)
O4 O 1.1437(4) 0.6086(2) 0.58182(15)
O5 O 0.4264(3) 0.2046(2) 0.80983(15)
O6 O 0.5406(3) 0.3421(2) 0.78207(15)
O7 O 0.9027(4) 0.6994(3) 0.49628(16)
O8 O 0.8531(4) 0.6146(2) 0.59928(15)
O9 O 0.6396(4) 0.4083(3) 0.89367(16)
O10 O 0.5503(3) 0.3642(2) 0.99325(15)
O11 O 0.9959(4) 0.6504(2) 0.70784(15)
O12 O 1.1665(3) 0.7403(3) 0.68691(15)
O13 O 0.3796(3) 0.2118(2) 1.01567(15)
O14 O 0.3009(3) 0.1572(2) 0.93086(15)
O15 O 1.2246(3) 0.8357(2) 0.55561(15)
O16 O 1.1100(3) 0.8143(2) 0.46979(15)
C1 C 0.5273(5) 0.3566(4) 0.6412(2)
C2 C 0.6476(5) 0.3338(4) 0.6172(2)
H1 H 0.68870 0.26350 0.63170
C3 C 0.7102(5) 0.4098(4) 0.5727(2)
H2 H 0.79220 0.39140 0.55570
C4 C 0.6529(6) 0.5146(4) 0.5526(2)
C5 C 0.5316(5) 0.5382(4) 0.5775(2)
H3 H 0.49140 0.60890 0.56410
C6 C 0.4686(5) 0.4608(4) 0.6211(2)
H4 H 0.38560 0.47820 0.63760
C7 C 0.4606(5) 0.2731(4) 0.6902(2)
H5 H 0.49380 0.20220 0.68380
H6 H 0.36720 0.28340 0.67860
C8 C 0.4770(5) 0.2730(4) 0.7656(2)
C9 C 0.7211(6) 0.5981(4) 0.5045(2)
H7 H 0.65720 0.65890 0.48490
H8 H 0.75510 0.56810 0.46650
C10 C 0.8316(6) 0.6400(4) 0.5358(2)
C11 C 0.8282(5) 0.5222(4) 0.9385(2)
C12 C 0.8166(5) 0.6295(4) 0.9043(2)
H9 H 0.74130 0.67330 0.91020
C13 C 0.9121(5) 0.6733(4) 0.8620(2)
H10 H 0.90100 0.74670 0.83940
C14 C 1.0230(6) 0.6137(4) 0.8517(2)
C15 C 1.0377(5) 0.5066(4) 0.8869(2)
H11 H 1.11420 0.46340 0.88180
C16 C 0.9412(5) 0.4632(4) 0.9290(2)
H12 H 0.95300 0.39010 0.95240
C17 C 0.7250(5) 0.4757(4) 0.9856(2)
H13 H 0.67340 0.53450 0.99980
H14 H 0.76700 0.42840 1.02720
C18 C 0.6333(5) 0.4123(4) 0.9559(3)
C19 C 1.1270(5) 0.6606(4) 0.8049(2)
H15 H 1.20570 0.61000 0.81340
H16 H 1.14800 0.72710 0.81650
C20 C 1.0923(5) 0.6855(4) 0.7293(2)
C21 C 0.1129(6) 0.0383(4) 1.0198(2)
C22 C 0.0908(5) -0.0687(4) 1.0425(2)
H17 H 0.15250 -0.11670 1.07160
C23 C -0.0204(5) -0.1056(4) 1.0228(2)
H18 H -0.03370 -0.17890 1.03890
C24 C 0.2287(5) 0.0796(4) 1.0454(2)
H19 H 0.28790 0.01740 1.06850
H20 H 0.19920 0.11790 1.08050
C25 C 0.3066(5) 0.1537(4) 0.9932(2)
C26 C 1.3905(5) 0.9694(4) 0.4717(2)
C27 C 1.3840(5) 1.0628(4) 0.4958(2)
H21 H 1.30510 1.10670 0.49290
C28 C 1.4923(5) 1.0905(4) 0.5237(3)
H22 H 1.48600 1.15330 0.54030
C29 C 1.2718(5) 0.9375(3) 0.4420(2)
H23 H 1.29780 0.90680 0.40300
H24 H 1.21260 1.00230 0.42420
C30 C 1.1983(5) 0.8569(3) 0.4924(2)
P1 P 0.08170(14) 0.04595(10) 0.72039(6)
C31 C 0.1171(5) 0.0259(4) 0.6368(2)
H25 H 0.20160 0.05070 0.62270
H26 H 0.05060 0.06630 0.60420
H27 H 0.11840 -0.05010 0.63780
C32 C -0.0832(5) 0.0233(3) 0.7409(2)
C33 C -0.1393(5) -0.0614(4) 0.7233(2)
H28 H -0.08920 -0.10860 0.70170
C34 C -0.2677(6) -0.0758(4) 0.7376(3)
H29 H -0.30670 -0.13200 0.72510
C35 C -0.3403(6) -0.0066(4) 0.7708(3)
H30 H -0.42870 -0.01570 0.78060
C36 C -0.2835(6) 0.0733(4) 0.7887(3)
H31 H -0.33210 0.11850 0.81230
C37 C -0.1560(5) 0.0899(4) 0.7733(2)
H32 H -0.11870 0.14750 0.78500
C38 C 0.0990(5) 0.1832(3) 0.7193(2)
C39 C 0.0633(5) 0.2603(3) 0.6614(2)
H33 H 0.03020 0.24100 0.62270
C40 C 0.0758(5) 0.3664(4) 0.6596(3)
H34 H 0.05400 0.42000 0.61920
C41 C 0.1197(5) 0.3934(4) 0.7165(3)
H35 H 0.12890 0.46610 0.71500
C42 C 0.1507(5) 0.3174(4) 0.7755(3)
H36 H 0.17780 0.33790 0.81500
C43 C 0.1425(5) 0.2091(4) 0.7775(3)
H37 H 0.16590 0.15530 0.81760
C44 C 0.1907(5) -0.0414(4) 0.7813(2)
C45 C 0.3035(6) -0.0901(4) 0.7570(3)
H38 H 0.32050 -0.07600 0.70960
C46 C 0.3885(6) -0.1585(4) 0.8039(3)
H39 H 0.46270 -0.19390 0.78860
C47 C 0.3642(6) -0.1750(4) 0.8734(3)
H40 H 0.42550 -0.21860 0.90500
C48 C 0.2544(7) -0.1304(4) 0.8979(3)
H41 H 0.23920 -0.14310 0.94550
C49 C 0.1649(6) -0.0648(4) 0.8499(3)
H42 H 0.08590 -0.03660 0.86530
O17 O 1.4464(4) 0.7845(4) 0.6504(2)
H43 H 1.37250 0.76340 0.67300
H44 H 1.41000 0.81140 0.61140
N1 N 0.7090(6) 0.5024(4) 0.7243(3)
H45 H 0.64270 0.45380 0.72190
H46 H 0.73310 0.52130 0.67770
C50 C 0.8162(6) 0.4423(4) 0.7615(3)
H47 H 0.89080 0.48460 0.75470
H48 H 0.83650 0.37710 0.74550
H49 H 0.79580 0.42340 0.81020
C51 C 0.6665(6) 0.6029(5) 0.7420(3)
H50 H 0.63130 0.58810 0.78810
H51 H 0.59960 0.64240 0.70930
H52 H 0.74010 0.64560 0.74030
O13A O -0.3796(3) -0.2118(2) 0.98433(15)
O14A O -0.3009(3) -0.1572(2) 1.06914(15)
C21A C -0.1129(6) -0.0383(4) 0.9802(2)
C22A C -0.0908(5) 0.0687(4) 0.9575(2)
H17A H -0.15250 0.11670 0.92840
C23A C 0.0204(5) 0.1056(4) 0.9772(2)
H18A H 0.03370 0.17890 0.96110
C24A C -0.2287(5) -0.0796(4) 0.9546(2)
H19A H -0.28790 -0.01740 0.93150
H20A H -0.19920 -0.11790 0.91950
C25A C -0.3066(5) -0.1537(4) 1.0068(2)
O15A O 1.7754(3) 1.1643(2) 0.44439(15)
O16A O 1.8900(3) 1.1857(2) 0.53021(15)
C26A C 1.6095(5) 1.0306(4) 0.5283(2)
C27A C 1.6160(5) 0.9372(4) 0.5042(2)
H21A H 1.69490 0.89330 0.50710
C28A C 1.5077(5) 0.9095(4) 0.4763(3)
H22A H 1.51400 0.84670 0.45970
C29A C 1.7282(5) 1.0625(3) 0.5580(2)
H23A H 1.70220 1.09320 0.59700
H24A H 1.78740 0.99770 0.57580
C30A C 1.8017(5) 1.1431(3) 0.5076(2)
U1A U -0.47364(2) -0.28083(2) 1.09422(2)
U2A U -1.04304(2) -0.72391(2) 1.41401(2)
O1A O -0.3490(3) -0.3871(2) 1.11526(15)
O2A O -0.6019(4) -0.1772(3) 1.07419(17)
O3A O -0.9419(4) -0.8403(2) 1.41008(16)
O4A O -1.1437(4) -0.6086(2) 1.41818(15)
O5A O -0.4264(3) -0.2046(2) 1.19017(15)
O6A O -0.5406(3) -0.3421(2) 1.21793(15)
O7A O -0.9027(4) -0.6994(3) 1.50372(16)
O8A O -0.8531(4) -0.6146(2) 1.40072(15)
O9A O -0.6396(4) -0.4083(3) 1.10633(16)
O10A O -0.5503(3) -0.3642(2) 1.00675(15)
O11A O -0.9959(4) -0.6504(2) 1.29216(15)
O12A O -1.1665(3) -0.7403(3) 1.31309(15)
C1A C -0.5273(5) -0.3566(4) 1.3588(2)
C2A C -0.6476(5) -0.3338(4) 1.3828(2)
H1A H -0.68870 -0.26350 1.36830
C3A C -0.7102(5) -0.4098(4) 1.4273(2)
H2A H -0.79220 -0.39140 1.44430
C4A C -0.6529(6) -0.5146(4) 1.4474(2)
C5A C -0.5316(5) -0.5382(4) 1.4225(2)
H3A H -0.49140 -0.60890 1.43590
C6A C -0.4686(5) -0.4608(4) 1.3789(2)
H4A H -0.38560 -0.47820 1.36240
C7A C -0.4606(5) -0.2731(4) 1.3098(2)
H5A H -0.49380 -0.20220 1.31620
H6A H -0.36720 -0.28340 1.32140
C8A C -0.4770(5) -0.2730(4) 1.2344(2)
C9A C -0.7211(6) -0.5981(4) 1.4955(2)
H7A H -0.65720 -0.65890 1.51510
H8A H -0.75510 -0.56810 1.53350
C10A C -0.8316(6) -0.6400(4) 1.4642(2)
C11A C -0.8282(5) -0.5222(4) 1.0615(2)
C12A C -0.8166(5) -0.6295(4) 1.0957(2)
H9A H -0.74130 -0.67330 1.08980
C13A C -0.9121(5) -0.6733(4) 1.1380(2)
H10A H -0.90100 -0.74670 1.16060
C14A C -1.0230(6) -0.6137(4) 1.1483(2)
C15A C -1.0377(5) -0.5066(4) 1.1131(2)
H11A H -1.11420 -0.46340 1.11820
C16A C -0.9412(5) -0.4632(4) 1.0710(2)
H12A H -0.95300 -0.39010 1.04760
C17A C -0.7250(5) -0.4757(4) 1.0144(2)
H13A H -0.67340 -0.53450 1.00020
H14A H -0.76700 -0.42840 0.97280
C18A C -0.6333(5) -0.4123(4) 1.0441(3)
C19A C -1.1270(5) -0.6606(4) 1.1951(2)
H15A H -1.20570 -0.61000 1.18660
H16A H -1.14800 -0.72710 1.18350
C20A C -1.0923(5) -0.6855(4) 1.2707(2)
U2A* U 1.95696(2) 1.27609(2) 0.41401(2)
O15A* O -1.2246(3) -0.8357(2) 1.44439(15)
O16A* O -1.1100(3) -0.8143(2) 1.53021(15)
#END
