
#######################################################################
#
#                 Cambridge Crystallographic Data Centre
#                                CCDC
#
#######################################################################
#
# If this CIF has been generated from an entry in the Cambridge
# Structural Database, then it will include bibliographic, chemical,
# crystal, experimental, refinement or atomic coordinate data resulting
# from the CCDC's data processing and validation procedures.
#
#######################################################################

data_CSD_CIF_FUDCOZ
_audit_creation_date 2020-01-24
_audit_creation_method CSD-ConQuest-V1
_database_code_CSD FUDCOZ
_database_code_depnum_ccdc_archive 'CCDC 1966043'
_chemical_formula_sum 'C102 H100 N2 O32 P2 U4'
_chemical_formula_moiety
;
(C60 H48 O32 U4 4-)n,2n(C19 H18 P1 1+),2n(C2 H8 N1 1+)
;
_journal_coden_Cambridge 9
_journal_volume 59
_journal_year 2020
_journal_page_first 2503
_journal_name_full 'Inorg.Chem. '
loop_
_publ_author_name
"P.Thuery"
"Y.Atoini"
"J.Harrowfield"
_chemical_name_systematic
;
catena-(bis(dimethylammonium) bis(methyl(triphenyl)phosphonium) 
bis(\m-2,2'-(1,2-phenylene)diacetato)-tetrakis(\m-2,2'-(1,4-phenylene)diacetat
o)-octaoxo-tetra-uranium)
;
_cell_volume   5076.672
_exptl_crystal_colour 'light yellow'
_exptl_crystal_density_diffrn 1.884
_exptl_crystal_description 'parallelepiped'
_diffrn_ambient_temperature 100
_diffrn_special_details
;
twin

;
#These two values have been output from a single CSD field.
_refine_ls_R_factor_gt 0.0742
_refine_ls_wR_factor_gt 0.0742
_symmetry_cell_setting triclinic
_symmetry_space_group_name_H-M 'P -1'
_symmetry_Int_Tables_number 2
loop_
_symmetry_equiv_pos_site_id
_symmetry_equiv_pos_as_xyz
1 x,y,z
2 -x,-y,-z
_cell_length_a 10.9871(6)
_cell_length_b 18.7607(13)
_cell_length_c 25.6024(19)
_cell_angle_alpha 88.907(3)
_cell_angle_beta 85.983(4)
_cell_angle_gamma 74.655(4)
_cell_formula_units_Z 2
loop_
_atom_type_symbol
_atom_type_radius_bond
C 0.68
H 0.23
N 0.68
O 0.68
P 1.05
U 1.96
loop_
_atom_site_label
_atom_site_type_symbol
_atom_site_fract_x
_atom_site_fract_y
_atom_site_fract_z
U1 U 0.83604(6) 0.00092(3) 0.59864(2)
U2 U 0.83512(6) 0.44755(3) 0.38110(2)
U3 U 0.68480(6) 0.07436(3) 0.89612(2)
U4 U 0.70613(6) 0.49871(3) 1.11120(2)
O1 O 0.9147(11) -0.0486(7) 0.5423(4)
O2 O 0.7599(10) 0.0519(6) 0.6544(4)
O3 O 0.9265(10) 0.3761(6) 0.3395(4)
O4 O 0.7429(10) 0.5192(5) 0.4235(4)
O5 O 0.7759(9) -0.0072(5) 0.9258(4)
O6 O 0.5912(10) 0.1559(6) 0.8672(4)
O7 O 0.7445(10) 0.4486(6) 1.1697(4)
O8 O 0.6697(12) 0.5473(6) 1.0528(5)
O9 O 1.0434(11) 0.0050(6) 0.6234(5)
O10 O 0.9474(10) 0.0984(5) 0.5756(4)
O11 O 1.0217(11) 0.4538(5) 0.4254(4)
O12 O 0.9311(10) 0.3690(6) 0.4544(4)
O13 O 0.7110(11) 0.1004(6) 0.5424(5)
O14 O 0.629(1) 0.0081(6) 0.5637(5)
O15 O 0.6972(10) 0.3677(6) 0.4183(4)
O16 O 0.6389(9) 0.4304(6) 0.3470(4)
O17 O 0.7461(10) -0.1028(5) 0.6243(4)
O18 O 0.9246(10) -0.1046(5) 0.6589(4)
O19 O 0.7401(10) 0.0204(6) 0.8096(4)
O20 O 0.5811(9) -0.0103(6) 0.8520(4)
O21 O 0.759(1) 0.5284(6) 0.3082(4)
O22 O 0.934(1) 0.5408(6) 0.3404(4)
O23 O 0.8023(10) 0.5933(6) 0.1422(4)
O24 O 0.5996(11) 0.6129(6) 0.1593(4)
O25 O 0.4979(10) 0.0627(5) 0.9499(4)
O26 O 0.6086(9) 0.1307(6) 0.9818(4)
O27 O 0.4787(10) 0.5088(6) 1.1318(4)
O28 O 0.5887(11) 0.4070(6) 1.0910(4)
O29 O 0.8278(10) 0.1502(6) 0.9290(4)
O30 O 0.8831(10) 0.0902(5) 0.8547(4)
O31 O 0.8414(10) 0.3923(6) 1.0574(5)
O32 O 0.9301(12) 0.4748(6) 1.0848(5)
C1 C 1.1524(16) 0.1649(10) 0.5674(7)
C2 C 1.1142(14) 0.2268(9) 0.5981(7)
H1 H 1.09710 0.22200 0.63470
C3 C 1.0998(14) 0.2983(9) 0.5756(7)
H2 H 1.07330 0.34120 0.59700
C4 C 1.1249(15) 0.3047(9) 0.5220(7)
C5 C 1.1667(15) 0.2409(8) 0.4920(7)
H3 H 1.18800 0.24430 0.45560
C6 C 1.1772(16) 0.1730(9) 0.5147(7)
H4 H 1.20250 0.13020 0.49320
C7 C 1.1666(17) 0.0876(9) 0.5914(8)
H5 H 1.23020 0.05140 0.56930
H6 H 1.20010 0.08710 0.62640
C8 C 1.0464(19) 0.0625(10) 0.5974(7)
C9 C 1.1165(14) 0.3786(8) 0.4971(7)
H7 H 1.20030 0.37810 0.47990
H8 H 1.09730 0.41660 0.52490
C10 C 1.0161(14) 0.4018(9) 0.4560(6)
C11 C 0.4992(17) 0.1746(10) 0.4840(8)
C12 C 0.5264(19) 0.1653(10) 0.4307(8)
H9 H 0.54430 0.11730 0.41590
C13 C 0.5276(17) 0.2244(9) 0.3992(7)
H10 H 0.54870 0.21670 0.36270
C14 C 0.4994(14) 0.2948(9) 0.4186(6)
C15 C 0.4703(17) 0.3029(10) 0.4722(7)
H11 H 0.44990 0.35100 0.48710
C16 C 0.4700(17) 0.2436(10) 0.5043(7)
H12 H 0.44930 0.25100 0.54080
C17 C 0.4994(19) 0.1057(11) 0.5181(9)
H13 H 0.43150 0.11990 0.54650
H14 H 0.47830 0.06830 0.49620
C18 C 0.6218(18) 0.0703(10) 0.5426(7)
C19 C 0.4996(15) 0.3625(8) 0.3844(6)
H15 H 0.48600 0.35070 0.34810
H16 H 0.42650 0.40340 0.39670
C20 C 0.6161(16) 0.3900(9) 0.3831(6)
C21 C 0.8589(16) -0.1961(8) 0.7463(6)
C22 C 0.7992(14) -0.1452(7) 0.7861(6)
C23 C 0.8398(15) -0.1538(8) 0.8358(6)
H17 H 0.79560 -0.12140 0.86300
C24 C 0.9455(14) -0.2100(8) 0.8463(6)
H18 H 0.97620 -0.21400 0.88030
C25 C 1.0085(15) -0.2612(9) 0.8075(7)
H19 H 1.08000 -0.30030 0.81500
C26 C 0.9630(16) -0.2530(9) 0.7581(7)
H20 H 1.00420 -0.28730 0.73140
C27 C 0.8089(15) -0.1917(9) 0.6917(6)
H21 H 0.85180 -0.23810 0.67280
H22 H 0.71750 -0.18910 0.69570
C28 C 0.8256(15) -0.1274(8) 0.6580(6)
C29 C 0.6823(14) -0.0834(8) 0.7756(6)
H23 H 0.60620 -0.10240 0.77930
H24 H 0.69020 -0.06500 0.73930
C30 C 0.6681(14) -0.0199(9) 0.8145(6)
C31 C 0.6994(15) 0.6843(8) 0.2821(6)
C32 C 0.6361(16) 0.7203(8) 0.2400(6)
C33 C 0.5181(16) 0.7689(9) 0.2484(7)
H25 H 0.47730 0.79390 0.21920
C34 C 0.4571(16) 0.7828(9) 0.2975(7)
H26 H 0.37550 0.81640 0.30200
C35 C 0.5164(15) 0.7470(8) 0.3399(7)
H27 H 0.47540 0.75500 0.37400
C36 C 0.6366(17) 0.6993(9) 0.3326(7)
H28 H 0.67780 0.67590 0.36220
C37 C 0.8302(15) 0.6335(8) 0.2768(7)
H29 H 0.89140 0.66010 0.28720
H30 H 0.85170 0.61880 0.23970
C38 C 0.8426(16) 0.5635(8) 0.3109(7)
C39 C 0.6955(16) 0.7078(8) 0.1842(6)
H31 H 0.64790 0.74740 0.16160
H32 H 0.78330 0.71240 0.18370
C40 C 0.6982(16) 0.6341(8) 0.1611(6)
C41 C 0.4090(14) 0.2007(8) 1.0542(7)
C42 C 0.3888(15) 0.2642(9) 1.0238(7)
H33 H 0.38090 0.26070 0.98730
C43 C 0.3800(15) 0.3323(9) 1.0453(7)
H34 H 0.37070 0.37430 1.02310
C44 C 0.3844(15) 0.3403(9) 1.0980(7)
C45 C 0.4005(15) 0.2772(10) 1.1299(7)
H35 H 0.40130 0.28170 1.16670
C46 C 0.4153(14) 0.2082(8) 1.1076(6)
H36 H 0.42990 0.16560 1.12930
C47 C 0.4145(16) 0.1262(9) 1.0300(6)
H37 H 0.43380 0.08740 1.05720
H38 H 0.33050 0.12750 1.01770
C48 C 0.5127(15) 0.1062(8) 0.9848(7)
C49 C 0.3726(18) 0.4145(9) 1.1217(8)
H39 H 0.29580 0.44910 1.10890
H40 H 0.35740 0.40990 1.16000
C50 C 0.4789(18) 0.4497(8) 1.1124(6)
C51 C 1.0355(15) 0.2153(9) 0.9193(7)
C52 C 1.0803(14) 0.1945(9) 0.9693(6)
H41 H 1.10290 0.14390 0.97940
C53 C 1.0907(17) 0.249(1) 1.0036(7)
H42 H 1.12190 0.23470 1.03690
C54 C 1.0576(16) 0.3222(9) 0.9909(7)
C55 C 1.0126(17) 0.3436(9) 0.9418(8)
H43 H 0.98790 0.39440 0.93250
C56 C 1.0042(14) 0.2894(9) 0.9064(7)
H44 H 0.97620 0.30400 0.87260
C57 C 1.0234(16) 0.1579(9) 0.8820(6)
H45 H 1.09860 0.11520 0.88390
H46 H 1.02530 0.17830 0.84620
C58 C 0.9072(15) 0.1299(8) 0.8903(6)
C59 C 1.0656(15) 0.3810(9) 1.0300(8)
H47 H 1.12670 0.35790 1.05600
H48 H 1.09870 0.41930 1.01110
C60 C 0.9405(15) 0.4178(10) 1.0585(7)
P1 P 0.1792(4) 0.9397(2) 0.77359(16)
C61 C 0.0228(13) 0.9722(8) 0.7535(6)
H49 H -0.02890 0.94050 0.76840
H50 H 0.02440 0.97110 0.71520
H51 H -0.01360 1.02300 0.76580
C62 C 0.1845(17) 0.9558(9) 0.8420(6)
C63 C 0.0806(14) 0.9465(8) 0.8770(6)
H52 H 0.01010 0.93470 0.86340
C64 C 0.0837(15) 0.9546(9) 0.9287(7)
H53 H 0.01630 0.94760 0.95180
C65 C 0.1843(16) 0.9730(9) 0.9482(7)
H54 H 0.18490 0.97950 0.98490
C66 C 0.2852(17) 0.9825(9) 0.9157(7)
H55 H 0.35380 0.99560 0.93000
C67 C 0.2854(14) 0.9728(9) 0.8622(7)
H56 H 0.35500 0.97800 0.83970
C68 C 0.2362(14) 0.8427(8) 0.7613(6)
C69 C 0.3024(17) 0.7961(10) 0.7987(7)
H57 H 0.32290 0.81570 0.82980
C70 C 0.3381(17) 0.7199(10) 0.7894(8)
H58 H 0.38320 0.68700 0.81440
C71 C 0.3066(15) 0.6924(9) 0.7427(7)
H59 H 0.32970 0.64060 0.73680
C72 C 0.2437(14) 0.7387(8) 0.7060(6)
H60 H 0.22640 0.71910 0.67420
C73 C 0.2049(14) 0.8144(9) 0.7148(6)
H61 H 0.15780 0.84660 0.69000
C74 C 0.2787(16) 0.9880(9) 0.7374(6)
C75 C 0.3802(14) 0.9490(8) 0.7033(6)
H62 H 0.39660 0.89710 0.69890
C76 C 0.4549(15) 0.9881(9) 0.6765(7)
H63 H 0.52420 0.96220 0.65400
C77 C 0.4320(16) 1.0628(9) 0.6814(7)
H64 H 0.48640 1.08800 0.66300
C78 C 0.3283(16) 1.1027(10) 0.7134(8)
H65 H 0.30870 1.15500 0.71530
C79 C 0.2562(16) 1.0643(9) 0.7419(8)
H66 H 0.18900 1.09050 0.76530
P2 P 0.3275(4) 0.5647(2) 0.28506(16)
C80 C 0.4854(14) 0.5348(9) 0.2559(6)
H67 H 0.52530 0.48470 0.26800
H68 H 0.53430 0.56850 0.26610
H69 H 0.48320 0.53480 0.21770
C81 C 0.3291(14) 0.5563(7) 0.3548(6)
C82 C 0.4364(18) 0.5658(8) 0.3783(6)
H70 H 0.50710 0.57320 0.35750
C83 C 0.4360(16) 0.5640(9) 0.4318(7)
H71 H 0.50490 0.57300 0.44860
C84 C 0.3362(16) 0.5494(7) 0.4611(6)
H72 H 0.33720 0.54880 0.49820
C85 C 0.2360(15) 0.5358(8) 0.4391(6)
H73 H 0.17160 0.52260 0.46070
C86 C 0.2260(17) 0.5410(9) 0.3843(7)
H74 H 0.15410 0.53440 0.36840
C87 C 0.2298(13) 0.5127(8) 0.2595(6)
C88 C 0.1414(15) 0.5427(8) 0.2234(6)
H75 H 0.12730 0.59340 0.21420
C89 C 0.0726(15) 0.5000(9) 0.2005(7)
H76 H 0.01550 0.52010 0.17450
C90 C 0.0902(15) 0.4286(8) 0.2166(6)
H77 H 0.04040 0.39990 0.20300
C91 C 0.1779(16) 0.3966(9) 0.2520(7)
H78 H 0.19070 0.34590 0.26090
C92 C 0.2475(16) 0.4383(9) 0.2745(7)
H79 H 0.30620 0.41700 0.29970
C93 C 0.2605(13) 0.6598(8) 0.2696(6)
C94 C 0.2883(14) 0.6850(8) 0.2198(6)
H80 H 0.34190 0.65190 0.19510
C95 C 0.2389(16) 0.7575(9) 0.2063(7)
H81 H 0.25710 0.77430 0.17220
C96 C 0.1628(15) 0.8059(9) 0.2424(7)
H82 H 0.12960 0.85630 0.23330
C97 C 0.1344(16) 0.7812(8) 0.2921(7)
H83 H 0.08160 0.81480 0.31670
C98 C 0.1829(15) 0.7077(9) 0.3059(6)
H84 H 0.16300 0.69060 0.33970
N1 N 0.857(2) 0.1930(12) 0.4948(7)
H85 H 0.93860 0.17440 0.50360
H86 H 0.81540 0.15850 0.50420
C99 C 0.8021(19) 0.2576(9) 0.5282(7)
H87 H 0.85170 0.29380 0.52240
H88 H 0.80290 0.24230 0.56500
H89 H 0.71480 0.27990 0.51940
C100 C 0.862(2) 0.1977(10) 0.4388(7)
H90 H 0.77660 0.22100 0.42770
H91 H 0.89180 0.14790 0.42390
H92 H 0.91920 0.22740 0.42660
N2 N 0.7690(14) 0.2804(9) 1.0006(6)
H93 H 0.82410 0.24630 0.97950
H94 H 0.81110 0.31270 1.01120
C101 C 0.7289(16) 0.2428(9) 1.0466(7)
H95 H 0.66940 0.27910 1.06950
H96 H 0.80300 0.21830 1.06560
H97 H 0.68760 0.20590 1.03540
C102 C 0.6637(18) 0.3208(10) 0.9699(7)
H98 H 0.62720 0.28550 0.95310
H99 H 0.69520 0.35060 0.94300
H100 H 0.59860 0.35330 0.99320
U4* U 0.70613(6) 0.49871(3) 0.11120(2)
O23* O 0.8023(10) 0.5933(6) 1.1422(4)
O24* O 0.5996(11) 0.6129(6) 1.1593(4)
#END
