
#######################################################################
#
#                 Cambridge Crystallographic Data Centre
#                                CCDC
#
#######################################################################
#
# If this CIF has been generated from an entry in the Cambridge
# Structural Database, then it will include bibliographic, chemical,
# crystal, experimental, refinement or atomic coordinate data resulting
# from the CCDC's data processing and validation procedures.
#
#######################################################################

data_CSD_CIF_FUDCEP
_audit_creation_date 2020-01-24
_audit_creation_method CSD-ConQuest-V1
_database_code_CSD FUDCEP
_database_code_depnum_ccdc_archive 'CCDC 1966041'
_chemical_formula_sum 'C78 H64 O16 P2 U2'
_chemical_formula_moiety
;
(C30 H24 O16 U2 2-)n,2n(C24 H20 P1 1+)
;
_journal_coden_Cambridge 9
_journal_volume 59
_journal_year 2020
_journal_page_first 2503
_journal_name_full 'Inorg.Chem. '
loop_
_publ_author_name
"P.Thuery"
"Y.Atoini"
"J.Harrowfield"
_chemical_name_systematic
;
catena-(bis(tetraphenylphosphonium) 
tris(\m-2,2'-(1,4-phenylene)diacetato)-tetraoxo-di-uranium)
;
_cell_volume   3338.900
_exptl_crystal_density_diffrn 1.786
_exptl_crystal_description 'parallelepiped'
_diffrn_ambient_temperature 100
#These two values have been output from a single CSD field.
_refine_ls_R_factor_gt 0.0318
_refine_ls_wR_factor_gt 0.0318
_symmetry_cell_setting monoclinic
_symmetry_space_group_name_H-M 'P 21/n'
_symmetry_Int_Tables_number 14
loop_
_symmetry_equiv_pos_site_id
_symmetry_equiv_pos_as_xyz
1 x,y,z
2 1/2-x,1/2+y,1/2-z
3 -x,-y,-z
4 -1/2+x,-1/2-y,-1/2+z
_cell_length_a 11.2905(5)
_cell_length_b 22.4381(12)
_cell_length_c 13.5908(7)
_cell_angle_alpha 90
_cell_angle_beta 104.129(3)
_cell_angle_gamma 90
_cell_formula_units_Z 2
loop_
_atom_type_symbol
_atom_type_radius_bond
C 0.68
H 0.23
O 0.68
P 1.05
U 1.96
loop_
_atom_site_label
_atom_site_type_symbol
_atom_site_fract_x
_atom_site_fract_y
_atom_site_fract_z
U1 U 0.66468(2) 0.30837(2) 0.24660(2)
O1 O 0.7033(2) 0.33732(13) 0.13766(18)
O2 O 0.6224(2) 0.28043(14) 0.35457(17)
O3 O 0.4497(2) 0.31843(14) 0.1535(2)
O4 O 0.5329(2) 0.23117(13) 0.14542(19)
O5 O -0.2210(2) 0.21443(14) 0.23826(19)
O6 O -0.1193(2) 0.28582(15) 0.33017(19)
O7 O 0.7761(2) 0.39124(14) 0.3484(2)
O8 O 0.5808(2) 0.40497(14) 0.2845(2)
C1 C 0.2361(3) 0.2260(2) 0.1434(3)
C2 C 0.2434(3) 0.2582(2) 0.2319(3)
H1 H 0.30280 0.28880 0.25040
C3 C 0.1652(3) 0.2463(2) 0.2935(3)
H2 H 0.17260 0.26840 0.35430
C4 C 0.0761(3) 0.2026(2) 0.2682(3)
C5 C 0.0708(3) 0.1698(2) 0.1807(3)
H3 H 0.01270 0.13860 0.16320
C6 C 0.1484(3) 0.18176(19) 0.1185(3)
H4 H 0.14140 0.15930 0.05810
C7 C 0.3166(3) 0.2403(2) 0.0709(3)
H5 H 0.32830 0.20370 0.03380
H6 H 0.27460 0.27000 0.02050
C8 C 0.4405(3) 0.2646(2) 0.1261(3)
C9 C -0.0148(3) 0.19241(19) 0.3328(3)
H7 H -0.04210 0.15030 0.32670
H8 H 0.02520 0.20030 0.40490
C10 C -0.1246(3) 0.2333(2) 0.2985(3)
C11 C 0.5915(4) 0.4914(2) 0.4479(3)
C12 C 0.6080(3) 0.4737(2) 0.5475(3)
H9 H 0.68290 0.45540 0.58110
C13 C 0.5182(4) 0.4819(2) 0.5996(3)
H10 H 0.53180 0.46920 0.66810
C14 C 0.6903(4) 0.4818(2) 0.3918(4)
H11 H 0.68540 0.51400 0.34120
H12 H 0.77090 0.48470 0.44070
C15 C 0.6817(4) 0.4226(2) 0.3384(3)
P1 P 0.11159(8) 0.44347(5) 0.19808(7)
C16 C 0.0551(3) 0.38571(19) 0.1080(3)
C17 C -0.0220(3) 0.3426(2) 0.1315(3)
H13 H -0.04280 0.34370 0.19510
C18 C -0.0678(3) 0.2986(2) 0.0634(3)
H14 H -0.12160 0.26970 0.07950
C19 C -0.0364(3) 0.2956(2) -0.0296(3)
H15 H -0.06710 0.26440 -0.07610
C20 C 0.0398(3) 0.3386(2) -0.0533(3)
H16 H 0.06150 0.33690 -0.11650
C21 C 0.0847(3) 0.3839(2) 0.0137(3)
H17 H 0.13540 0.41380 -0.00390
C22 C 0.2267(3) 0.4848(2) 0.1553(3)
C23 C 0.3308(3) 0.4543(2) 0.1435(3)
H18 H 0.34090 0.41310 0.15900
C24 C 0.4188(3) 0.4854(2) 0.1089(3)
H19 H 0.49060 0.46550 0.10190
C25 C 0.4028(4) 0.5448(2) 0.0844(3)
H20 H 0.46380 0.56540 0.06050
C26 C 0.3000(3) 0.5748(2) 0.0940(3)
H21 H 0.28970 0.61580 0.07630
C27 C 0.2106(4) 0.5444(2) 0.1301(3)
H22 H 0.13920 0.56470 0.13710
C28 C -0.0096(3) 0.4936(2) 0.2070(3)
C29 C 0.0173(3) 0.5419(2) 0.2720(3)
H23 H 0.09780 0.54670 0.31330
C30 C -0.0717(4) 0.5834(2) 0.2775(3)
H24 H -0.05160 0.61770 0.31920
C31 C -0.1883(4) 0.5744(2) 0.2225(3)
H25 H -0.25020 0.60200 0.22810
C32 C -0.2186(3) 0.5256(2) 0.1586(3)
H26 H -0.30040 0.52030 0.12030
C33 C -0.1286(3) 0.4843(2) 0.1506(3)
H27 H -0.14840 0.45060 0.10740
C34 C 0.1683(3) 0.41156(19) 0.3219(3)
C35 C 0.0834(3) 0.3981(2) 0.3780(3)
H28 H 0.00010 0.40890 0.35230
C36 C 0.1191(4) 0.3695(2) 0.4700(3)
H29 H 0.06030 0.35970 0.50690
C37 C 0.2403(4) 0.3552(2) 0.5087(3)
H30 H 0.26510 0.33650 0.57320
C38 C 0.3264(4) 0.3678(2) 0.4537(3)
H31 H 0.40960 0.35740 0.48040
C39 C 0.2907(3) 0.3956(2) 0.3602(3)
H32 H 0.34920 0.40390 0.32220
O7B O 0.2239(2) 0.60876(14) 0.6516(2)
O8B O 0.4192(2) 0.59503(14) 0.7155(2)
C11B C 0.4085(4) 0.5086(2) 0.5521(3)
C12B C 0.3920(3) 0.5263(2) 0.4525(3)
H9B H 0.31710 0.54460 0.41890
C13B C 0.4818(4) 0.5181(2) 0.4004(3)
H10B H 0.46820 0.53080 0.33190
C14B C 0.3097(4) 0.5182(2) 0.6082(4)
H11B H 0.31460 0.48600 0.65880
H12B H 0.22910 0.51530 0.55930
C15B C 0.3183(4) 0.5774(2) 0.6616(3)
U1B U 0.33532(2) 0.69163(2) 0.75340(2)
O1B O 0.2967(2) 0.66268(13) 0.86234(18)
O2B O 0.3776(2) 0.71957(14) 0.64543(17)
O3B O 0.5503(2) 0.68157(14) 0.8465(2)
O4B O 0.4671(2) 0.76883(13) 0.85458(19)
O5B O 1.2210(2) 0.78557(14) 0.76174(19)
O6B O 1.1193(2) 0.71418(15) 0.66983(19)
C1B C 0.7639(3) 0.7740(2) 0.8566(3)
C2B C 0.7566(3) 0.7418(2) 0.7681(3)
H1B H 0.69720 0.71120 0.74960
C3B C 0.8348(3) 0.7537(2) 0.7065(3)
H2B H 0.82740 0.73160 0.64570
C4B C 0.9239(3) 0.7974(2) 0.7318(3)
C5B C 0.9292(3) 0.8302(2) 0.8193(3)
H3B H 0.98730 0.86140 0.83680
C6B C 0.8516(3) 0.81824(19) 0.8815(3)
H4B H 0.85860 0.84070 0.94190
C7B C 0.6834(3) 0.7597(2) 0.9291(3)
H5B H 0.67170 0.79630 0.96620
H6B H 0.72540 0.73000 0.97950
C8B C 0.5595(3) 0.7354(2) 0.8739(3)
C9B C 1.0148(3) 0.80759(19) 0.6672(3)
H7B H 1.04210 0.84970 0.67330
H8B H 0.97480 0.79970 0.59510
C10B C 1.1246(3) 0.7667(2) 0.7015(3)
U1* U -0.33532(2) 0.30837(2) 0.24660(2)
U1B* U 1.33532(2) 0.69163(2) 0.75340(2)
O5* O 0.7790(2) 0.21443(14) 0.23826(19)
O5B* O 0.2210(2) 0.78557(14) 0.76174(19)
O6* O 0.8807(2) 0.28582(15) 0.33017(19)
O6B* O 0.1193(2) 0.71418(15) 0.66983(19)
#END
