
#######################################################################
#
#                 Cambridge Crystallographic Data Centre
#                                CCDC
#
#######################################################################
#
# If this CIF has been generated from an entry in the Cambridge
# Structural Database, then it will include bibliographic, chemical,
# crystal, experimental, refinement or atomic coordinate data resulting
# from the CCDC's data processing and validation procedures.
#
#######################################################################

data_CSD_CIF_FUHNIH
_audit_creation_date 2015-03-27
_audit_creation_method CSD-ConQuest-V1
_database_code_CSD FUHNIH
_database_code_depnum_ccdc_archive 'CCDC 990733'
_chemical_formula_sum 'C21 H24 N2 Na1 O11.5 Zn1'
_chemical_formula_moiety
;
(C19 H13 N1 Na1 O10 Zn1 1-)n,n(C2 H8 N1 1+),1.5n(H2 O1)
;
_journal_coden_Cambridge 155
_journal_volume 423a
_journal_year 2014
_journal_page_first 62
_journal_name_full 'Inorg.Chim.Acta '
loop_
_publ_author_name
"De-Liang Yang"
"Xin Zhang"
"Jin-Xia Yang"
"Yuan-Gen Yao"
"Jian Zhang"
_chemical_name_systematic
;
catena-(Dimethylammonium 
(\m~7~-3-(3,5-dicarboxylatophenoxy)phthalato)-dimethylformamide-sodium-zinc 
sesquihydrate)
;
_cell_volume   4915.886
_exptl_crystal_colour 'colorless'
_exptl_crystal_density_diffrn 1.55
_exptl_crystal_description 'rod'
_diffrn_ambient_temperature 293
#These two values have been output from a single CSD field.
_refine_ls_R_factor_gt 0.0442
_refine_ls_wR_factor_gt 0.0442
_symmetry_cell_setting monoclinic
_symmetry_space_group_name_H-M 'C 2/c'
_symmetry_Int_Tables_number 15
loop_
_symmetry_equiv_pos_site_id
_symmetry_equiv_pos_as_xyz
1 x,y,z
2 -x,y,1/2-z
3 1/2+x,1/2+y,z
4 1/2-x,1/2+y,1/2-z
5 -x,-y,-z
6 x,-y,-1/2+z
7 -1/2-x,-1/2-y,-z
8 -1/2+x,-1/2-y,-1/2+z
_cell_length_a 15.1153(5)
_cell_length_b 14.8786(4)
_cell_length_c 21.8613(7)
_cell_angle_alpha 90
_cell_angle_beta 90.895(3)
_cell_angle_gamma 90
_cell_formula_units_Z 8
loop_
_atom_type_symbol
_atom_type_radius_bond
C 0.68
H 0.23
N 0.68
Na 1.66
O 0.68
Zn 1.22
loop_
_atom_site_label
_atom_site_type_symbol
_atom_site_fract_x
_atom_site_fract_y
_atom_site_fract_z
Zn1 Zn 0.27393(3) 1.31487(3) -0.623871(18)
Na1 Na 0.25283(11) 1.37308(10) -0.48213(7)
C1 C 0.4811(2) 1.2655(2) -0.49491(16)
C2 C 0.4749(2) 1.2600(2) -0.43103(16)
C3 C 0.5495(3) 1.2753(3) -0.39499(18)
H1 H 0.54560 1.27090 -0.35270
C4 C 0.6288(3) 1.2970(3) -0.4206(2)
H2 H 0.67780 1.30840 -0.39560
C5 C 0.6362(3) 1.3020(3) -0.4831(2)
H3 H 0.68990 1.31660 -0.50070
C6 C 0.5626(2) 1.2849(2) -0.51943(17)
C7 C 0.4044(2) 1.2498(3) -0.53874(16)
C8 C 0.3898(3) 1.2356(3) -0.40002(18)
C9 C 0.6107(2) 1.2275(2) -0.61578(16)
C10 C 0.6362(2) 1.1455(2) -0.59152(16)
H4 H 0.62530 1.13210 -0.55080
C11 C 0.6785(2) 1.0829(2) -0.62866(16)
C12 C 0.6942(2) 1.1040(2) -0.68924(16)
H5 H 0.72260 1.06240 -0.71400
C13 C 0.6683(2) 1.1862(2) -0.71358(16)
C14 C 0.6269(2) 1.2486(2) -0.67621(17)
H6 H 0.61030 1.30440 -0.69180
C15 C 0.7080(3) 0.9937(2) -0.60273(18)
C16 C 0.6887(3) 1.2084(3) -0.77935(18)
C17 C 0.4089(8) 1.4935(5) -0.4162(5)
H7 H 0.44040 1.51000 -0.45070
C18 C 0.4015(5) 1.4613(6) -0.3094(4)
H8 H 0.34290 1.44080 -0.31970
H9 H 0.39800 1.51030 -0.28100
H10 H 0.43460 1.41290 -0.29110
C19 C 0.5357(5) 1.5220(5) -0.3531(4)
H11 H 0.56340 1.54160 -0.39000
H12 H 0.56880 1.47310 -0.33560
H13 H 0.53390 1.57080 -0.32450
O1 O 0.38610(18) 1.17284(18) -0.55515(13)
O2 O 0.36543(16) 1.32183(17) -0.55658(12)
O3 O 0.31769(16) 1.24174(16) -0.43019(12)
O4 O 0.3925(2) 1.2095(3) -0.34619(14)
O5 O 0.56704(17) 1.29337(17) -0.58286(12)
O6 O 0.74778(19) 0.94266(18) -0.63918(12)
O7 O 0.6925(3) 0.9763(2) -0.54897(14)
O8 O 0.7125(2) 1.1484(2) -0.81406(13)
O9 O 0.6800(2) 1.29021(19) -0.79497(13)
O10 O 0.3252(4) 1.4723(3) -0.4231(2)
N1 N 0.4473(3) 1.4926(3) -0.3670(3)
C20 C 0.6089(11) 2.0405(7) -0.4228(6)
H14 H 0.66490 2.05920 -0.43850
H15 H 0.56960 2.09110 -0.42150
H16 H 0.58390 1.99490 -0.44890
C21 C 0.5397(5) 1.9757(6) -0.3329(5)
H17 H 0.54860 1.95360 -0.29210
H18 H 0.51410 1.92930 -0.35800
H19 H 0.50050 2.02650 -0.33220
N2 N 0.6223(3) 2.0023(4) -0.3574(3)
H20 H 0.65890 1.95460 -0.35850
H21 H 0.64730 2.04440 -0.33310
O11 O 0.6786(5) 2.1191(6) -0.2770(4)
O12 O 0.50000 1.1517(13) -0.25000
Zn1A Zn 0.72607(3) 1.31487(3) -0.876129(18)
Zn1B Zn 0.77393(3) 0.81487(3) -0.623871(18)
Zn1F Zn 0.22607(3) 1.18513(3) -0.376129(18)
Na1B Na 0.75283(11) 0.87308(10) -0.48213(7)
Na1F Na 0.24717(11) 1.12692(10) -0.51787(7)
O1F O 0.11390(18) 1.32716(18) -0.44485(13)
O3F O 0.18231(16) 1.25826(16) -0.56981(12)
O6B O 0.24778(19) 1.44266(18) -0.63918(12)
O7B O 0.1925(3) 1.4763(2) -0.54897(14)
O9A O 0.3200(2) 1.29021(19) -0.70503(13)
#END
