
#######################################################################
#
#                 Cambridge Crystallographic Data Centre
#                                CCDC
#
#######################################################################
#
# If this CIF has been generated from an entry in the Cambridge
# Structural Database, then it will include bibliographic, chemical,
# crystal, experimental, refinement or atomic coordinate data resulting
# from the CCDC's data processing and validation procedures.
#
#######################################################################

data_CSD_CIF_FUHYIT
_audit_creation_date 2020-01-28
_audit_creation_method CSD-ConQuest-V1
_database_code_CSD FUHYIT
_database_code_depnum_ccdc_archive 'CCDC 1953394'
_chemical_formula_sum 'C38 H27 Co1 I6 N7 Pb2'
_chemical_formula_moiety
;
C36 H24 Co1 N6 2+,n(I6 Pb2 2-),C2 H3 N1
;
_journal_coden_Cambridge 222
_journal_volume 49
_journal_year 2020
_journal_page_first 1803
_journal_name_full 'Dalton Trans. '
loop_
_publ_author_name
"Bo Zhang"
"Hai-Yan Sun"
"Jun Li"
"Ya-Ru Xu"
"Yu-Ping Xu"
"Xue Yang"
"Guo-Dong Zou"
_chemical_name_systematic
;
catena-[tris(1,10-phenanthroline)-cobalt(ii) 
tetrakis(\m-iodo)-bis(iodo)-di-lead(ii) acetonitrile solvate]
;
_cell_volume   9185.253
_exptl_crystal_colour 'red'
_exptl_crystal_density_diffrn 2.627
_exptl_special_details
;
Isostructural with the Fe and Ni analogues.

;
_exptl_crystal_description 'Block'
_diffrn_ambient_temperature 293
_refine_special_details
;
C37B,C38B,N7B and C37,C38,N7 disordered over two sites with occupancies 
0.56:0.44.
;
#These two values have been output from a single CSD field.
_refine_ls_R_factor_gt 0.0317
_refine_ls_wR_factor_gt 0.0317
_symmetry_cell_setting orthorhombic
_symmetry_space_group_name_H-M 'P b c a'
_symmetry_Int_Tables_number 61
loop_
_symmetry_equiv_pos_site_id
_symmetry_equiv_pos_as_xyz
1 x,y,z
2 1/2-x,-y,1/2+z
3 1/2+x,1/2-y,-z
4 -x,1/2+y,1/2-z
5 -x,-y,-z
6 -1/2+x,y,-1/2-z
7 -1/2-x,-1/2+y,z
8 x,-1/2-y,-1/2+z
_cell_length_a 22.4431(12)
_cell_length_b 17.4343(8)
_cell_length_c 23.4749(14)
_cell_angle_alpha 90
_cell_angle_beta 90
_cell_angle_gamma 90
_cell_formula_units_Z 8
loop_
_atom_type_symbol
_atom_type_radius_bond
C 0.68
H 0.23
Co 1.26
I 1.40
N 0.68
Pb 1.46
loop_
_atom_site_label
_atom_site_type_symbol
_atom_site_fract_x
_atom_site_fract_y
_atom_site_fract_z
Pb1 Pb 0.74098(2) 0.54363(2) 0.50786(2)
Pb2 Pb 0.74507(2) 0.79490(2) 0.49526(2)
I1 I 0.65269(2) 0.41167(3) 0.45488(2)
I2 I 0.85316(2) 0.42640(3) 0.48759(2)
I3 I 0.72359(2) 0.47199(3) 0.62007(2)
I4 I 0.63862(2) 0.66699(2) 0.52508(2)
I5 I 0.83735(2) 0.66882(3) 0.54603(3)
I6 I 0.73184(2) 0.73001(3) 0.38010(2)
Co1 Co 0.45318(3) 0.38235(4) 0.25061(3)
N1 N 0.3800(2) 0.3211(3) 0.2863(2)
N2 N 0.3797(2) 0.4423(3) 0.2148(2)
N3 N 0.4654(2) 0.3078(3) 0.1799(2)
N4 N 0.5223(2) 0.3064(3) 0.2809(2)
N5 N 0.5243(2) 0.4550(3) 0.2189(2)
N6 N 0.46747(19) 0.4580(2) 0.32002(19)
C1 C 0.3808(3) 0.2624(4) 0.3215(3)
H1 H 0.41727 0.24307 0.33353
C2 C 0.3285(5) 0.2283(5) 0.3414(4)
H2 H 0.33079 0.18666 0.36606
C3 C 0.2757(4) 0.2545(6) 0.3256(4)
H3 H 0.24111 0.23171 0.33942
C4 C 0.2722(3) 0.3162(5) 0.2884(4)
C5 C 0.3264(3) 0.3491(4) 0.2696(3)
C6 C 0.2180(4) 0.3509(7) 0.2664(5)
H4 H 0.18163 0.33198 0.27913
C7 C 0.2176(4) 0.4083(7) 0.2289(5)
H5 H 0.18143 0.42711 0.21552
C8 C 0.2718(3) 0.4413(5) 0.2092(4)
C9 C 0.3262(3) 0.4122(4) 0.2305(3)
C10 C 0.2751(4) 0.5023(6) 0.1708(4)
H6 H 0.24025 0.52276 0.15559
C11 C 0.3276(4) 0.5313(5) 0.1557(4)
H7 H 0.32940 0.57217 0.13028
C12 C 0.3808(3) 0.5001(4) 0.1784(3)
H8 H 0.41722 0.52072 0.16751
C13 C 0.4389(3) 0.3114(3) 0.1295(3)
H9 H 0.40464 0.34115 0.12611
C14 C 0.4596(3) 0.2730(4) 0.0813(3)
H10 H 0.43970 0.27710 0.04673
C15 C 0.5101(3) 0.2290(4) 0.0861(3)
H11 H 0.52544 0.20414 0.05423
C16 C 0.5384(3) 0.2216(3) 0.1389(3)
C17 C 0.5146(2) 0.2632(3) 0.1847(2)
C18 C 0.5434(2) 0.2609(3) 0.2388(2)
C19 C 0.5941(2) 0.2132(3) 0.2463(3)
C20 C 0.6146(3) 0.1692(3) 0.1993(3)
H12 H 0.64657 0.13599 0.20454
C21 C 0.5895(3) 0.1740(3) 0.1481(3)
H13 H 0.60532 0.14607 0.11797
C22 C 0.6224(3) 0.2161(4) 0.2991(3)
H14 H 0.65605 0.18640 0.30570
C23 C 0.6010(3) 0.2621(4) 0.3407(3)
H15 H 0.61989 0.26413 0.37589
C24 C 0.5501(3) 0.3067(4) 0.3303(3)
H16 H 0.53542 0.33756 0.35940
C25 C 0.5527(3) 0.4529(4) 0.1696(3)
H17 H 0.53756 0.42152 0.14097
C26 C 0.6039(3) 0.4950(4) 0.1582(3)
H18 H 0.62232 0.49171 0.12276
C27 C 0.6264(3) 0.5405(4) 0.1988(3)
H19 H 0.66102 0.56826 0.19172
C28 C 0.5983(2) 0.5465(3) 0.2520(3)
C29 C 0.5468(2) 0.5019(3) 0.2598(2)
C30 C 0.5177(2) 0.5023(3) 0.3140(2)
C31 C 0.5412(2) 0.5449(3) 0.3590(2)
C32 C 0.5933(3) 0.5903(4) 0.3491(3)
H20 H 0.60905 0.61938 0.37875
C33 C 0.6198(3) 0.5918(4) 0.2981(3)
H21 H 0.65295 0.62297 0.29260
C34 C 0.5126(3) 0.5406(3) 0.4116(3)
H22 H 0.52807 0.56657 0.44287
C35 C 0.4620(3) 0.4983(3) 0.4171(3)
H23 H 0.44190 0.49632 0.45175
C36 C 0.4408(3) 0.4582(3) 0.3703(3)
H24 H 0.40591 0.42997 0.37445
N7? N 0.499(2) 0.624(3) 0.1512(15)
C37? C 0.495(2) 0.619(3) 0.1007(18)
C38? C 0.4805(18) 0.657(3) 0.0450(14)
H25? H 0.51029 0.64466 0.01721
H26? H 0.47939 0.71189 0.05026
H27? H 0.44229 0.63976 0.03203
N8 N 0.510(2) 0.639(3) 0.1301(18)
C39 C 0.491(3) 0.631(2) 0.0833(17)
C40 C 0.4792(12) 0.579(2) 0.0338(13)
H28 H 0.44890 0.60081 0.00995
H29 H 0.46609 0.53000 0.04769
H30 H 0.51518 0.57256 0.01222
Pb2F Pb 0.75493(2) 0.29490(2) 0.49526(2)
I1F I 0.84731(2) 0.91167(3) 0.45488(2)
I2F I 0.64684(2) 0.92640(3) 0.48759(2)
#END
