
#######################################################################
#
#                 Cambridge Crystallographic Data Centre
#                                CCDC
#
#######################################################################
#
# If this CIF has been generated from an entry in the Cambridge
# Structural Database, then it will include bibliographic, chemical,
# crystal, experimental, refinement or atomic coordinate data resulting
# from the CCDC's data processing and validation procedures.
#
#######################################################################

data_CSD_CIF_FUQPAK
_audit_creation_date 2015-09-09
_audit_creation_method CSD-ConQuest-V1
_database_code_CSD FUQPAK
_database_code_depnum_ccdc_archive 'CCDC 1409244'
_chemical_formula_sum 'C30 H26 Cu2 N12 O40 Si1 W12'
_chemical_formula_moiety
;
O40 Si1 W12 4-,2n(C15 H13 Cu1 N6 2+)
;
_journal_coden_Cambridge 1046
_journal_volume 180
_journal_year 2015
_journal_page_first 887
_journal_name_full 'Electrochimica Acta '
loop_
_publ_author_name
"Wanli Zhou"
"Jun Peng"
"Zheyu Zhang"
"Yanhong Ding"
"Shifa Ullah Khan"
_chemical_name_systematic
;
catena-(bis((\m-1-(3,5-bis(1H-imidazol-1-yl)phenyl)-1H-imidazol-3-ium)-copper(
i)) (\m-silicato)-tetracosakis(\m-oxo)-dodecaoxo-dodeca-tungsten)
;
_cell_volume   5823.913
_exptl_crystal_colour 'red'
_exptl_crystal_density_diffrn 4.056
_exptl_crystal_description 'block'
_diffrn_ambient_temperature 293
_refine_special_details
;
O11,O16,O17,O19 disordered by symmetry over two configurations with occupancy 
0.50.
;
#These two values have been output from a single CSD field.
_refine_ls_R_factor_gt 0.0871
_refine_ls_wR_factor_gt 0.0871
_symmetry_cell_setting monoclinic
_symmetry_space_group_name_H-M 'C 2/c'
_symmetry_Int_Tables_number 15
loop_
_symmetry_equiv_pos_site_id
_symmetry_equiv_pos_as_xyz
1 x,y,z
2 -x,y,1/2-z
3 1/2+x,1/2+y,z
4 1/2-x,1/2+y,1/2-z
5 -x,-y,-z
6 x,-y,-1/2+z
7 -1/2-x,-1/2-y,-z
8 -1/2+x,-1/2-y,-1/2+z
_cell_length_a 20.591(5)
_cell_length_b 14.688(5)
_cell_length_c 19.330(5)
_cell_angle_alpha 90
_cell_angle_beta 95.002(5)
_cell_angle_gamma 90
_cell_formula_units_Z 4
loop_
_atom_type_symbol
_atom_type_radius_bond
C 0.68
H 0.23
Cu 1.32
N 0.68
O 0.68
Si 1.20
W 1.62
loop_
_atom_site_label
_atom_site_type_symbol
_atom_site_fract_x
_atom_site_fract_y
_atom_site_fract_z
W1 W 0.32829(6) 0.46312(8) 0.49613(7)
W2 W 0.15987(6) 0.45100(8) 0.51468(7)
W3 W 0.21924(5) 0.39351(8) 0.35552(7)
W4 W 0.30265(6) 0.18659(9) 0.33806(8)
W5 W 0.36418(6) 0.31447(9) 0.63613(8)
W6 W 0.41698(5) 0.26211(10) 0.47178(8)
Si1 Si 0.25000 0.25000 0.50000
O1 O 0.3673(12) 0.5602(17) 0.4906(12)
O2 O 0.1166(13) 0.5470(18) 0.5222(14)
O3 O 0.2053(14) 0.4627(18) 0.2881(14)
O4 O 0.3300(12) 0.1582(15) 0.2602(11)
O5 O 0.4183(11) 0.3444(15) 0.7000(11)
O6 O 0.4952(12) 0.2673(19) 0.4583(13)
O7 O 0.3795(16) 0.2427(19) 0.3867(16)
O8 O 0.1783(15) 0.418(2) 0.6115(16)
O9 O 0.2460(14) 0.499(3) 0.5154(13)
O10 O 0.2878(12) 0.4585(19) 0.4020(14)
O11 O 0.2324(18) 0.256(2) 0.416(2)
O12 O 0.2766(13) 0.3111(17) 0.3261(16)
O13 O 0.393(2) 0.385(3) 0.470(3)
O14 O 0.425(2) 0.278(3) 0.567(2)
O15 O 0.1635(12) 0.4419(19) 0.4263(14)
O16 O 0.3071(16) 0.204(2) 0.4623(18)
O17 O 0.2432(16) 0.353(2) 0.4823(18)
O18 O 0.2839(15) 0.349(2) 0.670(2)
O19 O 0.3151(17) 0.307(2) 0.515(2)
O20 O 0.3519(18) 0.426(2) 0.5829(13)
O21 O 0.1482(14) 0.3076(18) 0.3425(18)
O22 O 0.0916(17) 0.367(2) 0.5140(14)
Cu1 Cu 0.4418(2) 0.6119(3) 0.6268(3)
C1 C 0.6099(14) 0.3352(19) 0.6555(14)
C2 C 0.6777(16) 0.335(2) 0.6510(19)
H1 H 0.70360 0.38670 0.65320
C3 C 0.7023(14) 0.243(2) 0.6424(16)
C4 C 0.5695(15) 0.264(2) 0.6568(18)
H2 H 0.52500 0.26950 0.66120
C5 C 0.6034(17) 0.178(2) 0.6507(16)
C6 C 0.5287(14) -0.040(2) 0.676(2)
H3 H 0.52920 -0.10020 0.69100
C7 C 0.5774(17) 0.020(2) 0.6895(19)
H4 H 0.61750 0.00720 0.71350
C8 C 0.497(2) 0.087(3) 0.630(3)
H5 H 0.47150 0.13080 0.60630
C9 C 0.5273(14) 0.454(2) 0.6299(16)
H6 H 0.49950 0.41850 0.60080
C10 C 0.5710(16) 0.564(2) 0.6905(19)
H7 H 0.57890 0.62200 0.70830
C11 C 0.6104(18) 0.494(2) 0.703(2)
H8 H 0.64740 0.49140 0.73430
C12 C 0.8593(19) 0.266(3) 0.570(2)
H9 H 0.88870 0.28900 0.54100
C13 C 0.8144(15) 0.179(2) 0.6446(17)
H10 H 0.80600 0.13220 0.67520
C14 C 0.7976(16) 0.293(2) 0.5788(17)
H11 H 0.77750 0.34220 0.55570
C15 C 0.6635(16) 0.169(3) 0.6492(17)
H12 H 0.68200 0.11080 0.65280
N1 N 0.5153(14) 0.5395(17) 0.647(2)
N2 N 0.5847(12) 0.4263(17) 0.6601(17)
N3 N 0.8676(17) 0.188(2) 0.620(2)
N4 N 0.7694(11) 0.2420(17) 0.6229(15)
N5 N 0.5599(14) 0.0987(19) 0.6633(17)
N6 N 0.4798(19) 0.001(3) 0.640(2)
H13 H 0.44360 -0.02430 0.62440
O11F O 0.2676(18) 0.244(2) 0.584(2)
O16F O 0.1929(16) 0.296(2) 0.5377(18)
O17F O 0.2568(16) 0.147(2) 0.5177(18)
O19F O 0.1849(17) 0.193(2) 0.485(2)
W1F W 0.17171(6) 0.03688(8) 0.50387(7)
W2F W 0.34013(6) 0.04900(8) 0.48532(7)
W3F W 0.28076(5) 0.10649(8) 0.64448(7)
W4F W 0.19735(6) 0.31341(9) 0.66194(8)
W5F W 0.13582(6) 0.18553(9) 0.36387(8)
W6F W 0.08302(5) 0.23789(10) 0.52822(8)
O1F O 0.1327(12) -0.0602(17) 0.5094(12)
O2F O 0.3834(13) -0.0470(18) 0.4778(14)
O3F O 0.2947(14) 0.0373(18) 0.7119(14)
O4F O 0.1700(12) 0.3418(15) 0.7398(11)
O5F O 0.0817(11) 0.1556(15) 0.3000(11)
O6F O 0.0048(12) 0.2327(19) 0.5417(13)
O7F O 0.1205(16) 0.2573(19) 0.6133(16)
O8F O 0.3217(15) 0.082(2) 0.3885(16)
O9F O 0.2540(14) 0.001(3) 0.4846(13)
O10F O 0.2122(12) 0.0415(19) 0.5980(14)
O12F O 0.2234(13) 0.1889(17) 0.6739(16)
O13F O 0.107(2) 0.115(3) 0.530(3)
O14F O 0.075(2) 0.222(3) 0.433(2)
O15F O 0.3365(12) 0.0581(19) 0.5737(14)
O18F O 0.2161(15) 0.151(2) 0.330(2)
O20F O 0.1481(18) 0.074(2) 0.4171(13)
O21F O 0.3518(14) 0.1924(18) 0.6575(18)
O22F O 0.4084(17) 0.133(2) 0.4860(14)
Cu1B Cu 0.9418(2) 0.1119(3) 0.6268(3)
N3B N 0.3676(17) 0.688(2) 0.620(2)
#END
