
#######################################################################
#
#                 Cambridge Crystallographic Data Centre
#                                CCDC
#
#######################################################################
#
# If this CIF has been generated from an entry in the Cambridge
# Structural Database, then it will include bibliographic, chemical,
# crystal, experimental, refinement or atomic coordinate data resulting
# from the CCDC's data processing and validation procedures.
#
#######################################################################

data_CSD_CIF_FURWOF
_audit_creation_date 2010-04-07
_audit_creation_method CSD-ConQuest-V1
_database_code_CSD FURWOF
_database_code_depnum_ccdc_archive 'CCDC 696770'
_chemical_formula_sum 'C32 H47 Mn3 N2 O23.5'
_chemical_formula_moiety
;
(C2 H16 Mn1 O6 2+)n,n(C30 H26 Mn2 N2 O15 2-),2.5n(H2 O1)
;
_journal_coden_Cambridge 155
_journal_volume 362
_journal_year 2009
_journal_page_first 2189
_journal_name_full 'Inorg.Chim.Acta '
loop_
_publ_author_name
"Wei Lee Leong"
"J.J.Vittal"
_chemical_name_systematic
;
catena-(Tetra-aqua-bis(methanol)-manganese(ii) 
(\m~3~-4-methylumbelliferone-8-ylmethyleneiminodiacetato-N,O,O,O',O'')-(\m~2~-
4-methylumbelliferone-8-ylmethyleneiminodiacetato-N,O,O,O')-aqua-di-manganese(
ii) hydrate)
;
_cell_volume   2063.326
_exptl_crystal_colour 'yellow'
_exptl_crystal_density_diffrn 1.599
_exptl_special_details
;
fluorescent
air-sensitive

;
_exptl_crystal_description 'triclinic'
_diffrn_ambient_temperature 223
_refine_special_details
;
A methanol and a water molecule liganded to the cationic manganese atom have 
partial occupancies giving a formula of 4.5aqua and 1.5 methanol ligands.
;
#These two values have been output from a single CSD field.
_refine_ls_R_factor_gt 0.0731
_refine_ls_wR_factor_gt 0.0731
_symmetry_cell_setting triclinic
_symmetry_space_group_name_H-M 'P -1'
_symmetry_Int_Tables_number 2
loop_
_symmetry_equiv_pos_site_id
_symmetry_equiv_pos_as_xyz
1 x,y,z
2 -x,-y,-z
_cell_length_a 11.0083(7)
_cell_length_b 12.5277(9)
_cell_length_c 16.1039(10)
_cell_angle_alpha 91.777(2)
_cell_angle_beta 108.460(2)
_cell_angle_gamma 100.321(2)
_cell_formula_units_Z 2
loop_
_atom_type_symbol
_atom_type_radius_bond
C 0.68
H 0.23
Mn 1.61
N 0.68
O 0.68
loop_
_atom_site_label
_atom_site_type_symbol
_atom_site_fract_x
_atom_site_fract_y
_atom_site_fract_z
Mn1 Mn 0.58052(8) 0.40466(7) 0.54699(5)
O1 O 0.4161(3) 0.4265(3) 0.4329(2)
C1 C 0.3148(5) 0.3439(5) 0.4039(3)
C2 C 0.1874(6) 0.3588(5) 0.3940(4)
H1 H 0.17340 0.42920 0.40420
C3 C 0.0837(6) 0.2728(5) 0.3698(4)
H2 H -0.00010 0.28490 0.36470
C4 C 0.0998(6) 0.1675(5) 0.3524(4)
C5 C 0.2257(5) 0.1550(5) 0.3577(3)
C6 C 0.3334(5) 0.2397(5) 0.3829(3)
C7 C 0.4688(5) 0.2224(5) 0.3922(3)
H3 H 0.46270 0.15010 0.36420
H4 H 0.50940 0.27680 0.36150
N1 N 0.5530(4) 0.2309(4) 0.4857(3)
C8 C 0.6866(6) 0.2181(5) 0.4901(4)
H5 H 0.68040 0.15910 0.44670
H6 H 0.73250 0.19840 0.54860
C9 C 0.7634(6) 0.3228(5) 0.4722(4)
O2 O 0.7255(4) 0.4098(3) 0.4795(3)
O3 O 0.8655(7) 0.3189(5) 0.4577(6)
C10 C 0.4924(6) 0.1569(5) 0.5369(4)
H7 H 0.56110 0.13550 0.58510
H8 H 0.44080 0.09090 0.49900
C11 C 0.4049(6) 0.2090(5) 0.5745(4)
O4 O 0.4373(4) 0.3106(3) 0.5956(2)
O5 O 0.3065(5) 0.1500(4) 0.5829(4)
C12 C -0.0015(6) 0.0724(5) 0.3344(5)
C13 C 0.0257(6) -0.0254(6) 0.3206(5)
H9 H -0.04050 -0.08790 0.31070
C14 C 0.1511(6) -0.0379(5) 0.3203(4)
C15 C -0.1356(6) 0.0827(7) 0.3343(7)
H10 H -0.19480 0.01260 0.31500
H11 H -0.16720 0.13580 0.29470
H12 H -0.13150 0.10610 0.39330
O6 O 0.2486(4) 0.0530(3) 0.3400(3)
O7 O 0.1828(4) -0.1235(4) 0.3043(3)
Mn2 Mn 0.84526(8) 0.44894(7) 0.94221(5)
O8 O 0.9851(4) 0.6040(3) 0.9813(2)
C16 C 0.9448(5) 0.6966(4) 0.9888(4)
C17 C 1.0035(6) 0.7713(5) 1.0637(4)
H13 H 1.07530 0.75710 1.10890
C18 C 0.9584(6) 0.8643(5) 1.0721(4)
H14 H 0.99950 0.91230 1.12340
C19 C 0.8532(6) 0.8897(5) 1.0068(4)
C20 C 0.7955(6) 0.8151(5) 0.9325(4)
C21 C 0.8381(5) 0.7202(5) 0.9207(4)
C22 C 0.7755(5) 0.6440(4) 0.8382(3)
H15 H 0.71630 0.67990 0.79430
H16 H 0.84370 0.62980 0.81480
N2 N 0.7016(4) 0.5392(4) 0.8510(3)
C23 C 0.6458(5) 0.4703(4) 0.7663(3)
H17 H 0.60800 0.51440 0.71940
H18 H 0.57580 0.41180 0.76960
C24 C 0.7498(5) 0.4215(4) 0.7450(4)
O9 O 0.7441(4) 0.5124(3) 1.0254(2)
O10 O 0.6058(4) 0.6193(4) 1.0316(3)
C25 C 0.6021(5) 0.5556(5) 0.8898(3)
H19 H 0.52750 0.49430 0.86890
H20 H 0.57120 0.62220 0.87060
C26 C 0.6554(5) 0.5647(5) 0.9901(4)
O11 O 0.8493(4) 0.4126(3) 0.8080(2)
O12 O 0.7329(4) 0.3925(3) 0.6669(2)
C27 C 0.8002(7) 0.9867(5) 1.0107(5)
C28 C 0.6961(8) 1.0009(6) 0.9447(5)
H21 H 0.66010 1.06270 0.94870
C29 C 0.6374(8) 0.9244(6) 0.8679(5)
C30 C 0.8601(8) 1.0689(6) 1.0901(5)
H22 H 0.82150 1.13300 1.07910
H23 H 0.95360 1.08940 1.10150
H24 H 0.84390 1.03720 1.14070
O13 O 0.6902(5) 0.8350(3) 0.8648(3)
O14 O 0.5445(6) 0.9331(5) 0.8041(4)
O15 O 0.7077(4) 0.2978(4) 0.9224(3)
H25 H 0.682(6) 0.246(4) 0.877(3)
H26 H 0.652(5) 0.293(6) 0.953(4)
Mn3 Mn 0.1667(1) 0.38729(8) 0.70252(6)
O16 O 0.3222(4) 0.4556(4) 0.6544(3)
H27 H 0.366(7) 0.400(6) 0.633(5)
H28 H 0.300(8) 0.489(6) 0.604(5)
O17 O 0.0004(5) 0.3177(4) 0.7338(4)
H29 H -0.072(8) 0.282(6) 0.669(4)
H30 H -0.040(8) 0.352(6) 0.759(4)
O18 O 0.0486(4) 0.4850(4) 0.6089(3)
H31 H 0.055(7) 0.5554(15) 0.598(4)
H32 H 0.007(7) 0.431(3) 0.566(3)
O19 O 0.1172(6) 0.2464(5) 0.6042(4)
H33 H 0.030(6) 0.197(6) 0.547(5)
H34 H 0.180(6) 0.209(6) 0.596(5)
O20 O 0.2081(4) 0.5190(3) 0.8063(2)
H35 H 0.28280 0.52470 0.85620
C31 C 0.1231(4) 0.5989(3) 0.8007(2)
H36 H 0.15850 0.65020 0.85290
H37 H 0.03600 0.56120 0.79630
H38 H 0.11900 0.63790 0.74900
O21 O 0.3018(4) 0.3118(3) 0.7999(2)
H39 H 0.35290 0.35830 0.85050
C32 C 0.3259(12) 0.2088(9) 0.8009(7)
H40 H 0.39310 0.20280 0.85560
H41 H 0.35530 0.19340 0.75190
H42 H 0.24650 0.15700 0.79590
O22 O 0.6251(5) 0.1624(4) 0.7707(3)
H43 H 0.692(5) 0.158(5) 0.750(5)
H44 H 0.582(6) 0.096(2) 0.776(5)
O23 O 0.5591(6) 0.2394(5) 1.0244(4)
H45 H 0.500(6) 0.282(5) 1.014(4)
H46 H 0.567(7) 0.208(6) 1.075(3)
O24 O 0.3446(14) 0.7371(12) 0.7749(9)
H47 H 0.371(14) 0.802(6) 0.808(8)
H48 H 0.287(12) 0.691(8) 0.793(9)
Mn1A Mn 0.41948(8) 0.59534(7) 0.45301(5)
O1A O 0.5839(3) 0.5735(3) 0.5671(2)
Mn2A Mn 1.15474(8) 0.55106(7) 1.05779(5)
O8A O 1.0149(4) 0.3960(3) 1.0187(2)
#END
