
#######################################################################
#
#                 Cambridge Crystallographic Data Centre
#                                CCDC
#
#######################################################################
#
# If this CIF has been generated from an entry in the Cambridge
# Structural Database, then it will include bibliographic, chemical,
# crystal, experimental, refinement or atomic coordinate data resulting
# from the CCDC's data processing and validation procedures.
#
#######################################################################

data_CSD_CIF_FUSQUG
_audit_creation_date 2010-04-15
_audit_creation_method CSD-ConQuest-V1
_database_code_CSD FUSQUG
_database_code_depnum_ccdc_archive 'CCDC 708578'
_chemical_formula_sum 'C2 H6 Ce1 N1 O9 S1'
_chemical_formula_moiety
;
(H4 N1 1+)n,n(C2 H2 Ce1 O9 S1 1-)
;
_journal_coden_Cambridge 222
_journal_year 2009
_journal_page_first 3447
_journal_name_full 'Dalton Trans. '
loop_
_publ_author_name
"Hsiao-Chan Liu"
"I-Han Chen"
"Anny Huang"
"Sin-Chiang Huang"
"Kuei Fang Hsu"
_chemical_name_systematic
;
catena-(Ammonium 
(\m~3~-sulfato-O,O',O'',O''')-(\m~2~-oxalato-O,O',O'',O''')-aqua-cerium(iii))
;
_cell_volume    823.749
_exptl_crystal_colour 'colorless'
_exptl_crystal_density_diffrn 2.905
_exptl_crystal_description 'columnar'
_diffrn_ambient_temperature 293
#These two values have been output from a single CSD field.
_refine_ls_R_factor_gt 0.0426
_refine_ls_wR_factor_gt 0.0426
_symmetry_cell_setting monoclinic
_symmetry_space_group_name_H-M 'P 21/n'
_symmetry_Int_Tables_number 14
loop_
_symmetry_equiv_pos_site_id
_symmetry_equiv_pos_as_xyz
1 x,y,z
2 1/2-x,1/2+y,1/2-z
3 -x,-y,-z
4 -1/2+x,-1/2-y,-1/2+z
_cell_length_a 6.9346(1)
_cell_length_b 8.2731(1)
_cell_length_c 14.3934(2)
_cell_angle_alpha 90
_cell_angle_beta 93.998(1)
_cell_angle_gamma 90
_cell_formula_units_Z 4
loop_
_atom_type_symbol
_atom_type_radius_bond
C 0.68
H 0.23
Ce 1.77
N 0.68
O 0.68
S 1.02
loop_
_atom_site_label
_atom_site_type_symbol
_atom_site_fract_x
_atom_site_fract_y
_atom_site_fract_z
Ce1 Ce 0.25442(6) 0.21949(5) 0.41353(3)
S1 S 0.2426(3) -0.1384(2) 0.49776(13)
O1 O 0.2851(10) 0.0193(7) 0.5443(4)
O2 O 0.4106(8) -0.2452(8) 0.5129(5)
O3 O 0.2018(10) -0.1002(8) 0.3989(4)
O4 O 0.0767(9) -0.2174(8) 0.5372(5)
O5 O 0.4504(9) 0.1220(8) 0.2807(4)
O6 O 0.4425(8) -0.0391(7) 0.1563(4)
O7 O 0.0629(9) 0.1413(8) 0.2632(4)
O8 O 0.0589(8) -0.0459(7) 0.1514(4)
O9 O 0.2429(9) 0.4078(8) 0.5513(4)
H1 H 0.13930 0.39120 0.57810
H2 H 0.33980 0.38980 0.58930
C1 C 0.3651(12) 0.0434(10) 0.2159(5)
C2 C 0.1415(11) 0.0483(9) 0.2099(5)
N1 N 0.7301(11) 0.3471(10) 0.2153(6)
Ce1B Ce 0.74558(6) -0.21949(5) 0.58647(3)
Ce1B* Ce -0.25442(6) -0.21949(5) 0.58647(3)
Ce1A Ce 0.24558(6) -0.28051(5) 0.08647(3)
O2B O 0.5894(8) 0.2452(8) 0.4871(5)
O4B O -0.0767(9) 0.2174(8) 0.4628(5)
O6A O 0.0575(8) 0.4609(7) 0.3437(4)
O8A O 0.4411(8) 0.4541(7) 0.3486(4)
#END
