
#######################################################################
#
#                 Cambridge Crystallographic Data Centre
#                                CCDC
#
#######################################################################
#
# If this CIF has been generated from an entry in the Cambridge
# Structural Database, then it will include bibliographic, chemical,
# crystal, experimental, refinement or atomic coordinate data resulting
# from the CCDC's data processing and validation procedures.
#
#######################################################################

data_CSD_CIF_FUSROB
_audit_creation_date 2010-04-15
_audit_creation_method CSD-ConQuest-V1
_database_code_CSD FUSROB
_database_code_depnum_ccdc_archive 'CCDC 708583'
_chemical_formula_sum 'C2 H6 N1 O9 S1 Tb1'
_chemical_formula_moiety
;
(H4 N1 1+)n,n(C2 H2 O9 S1 Tb1 1-)
;
_journal_coden_Cambridge 222
_journal_year 2009
_journal_page_first 3447
_journal_name_full 'Dalton Trans. '
loop_
_publ_author_name
"Hsiao-Chan Liu"
"I-Han Chen"
"Anny Huang"
"Sin-Chiang Huang"
"Kuei Fang Hsu"
_chemical_name_systematic
;
catena-(Ammonium 
(\m~3~-sulfato-O,O',O'')-(\m~2~-oxalato-O,O',O'',O''')-aqua-terbium)
;
_cell_volume    779.436
_exptl_crystal_colour 'colorless'
_exptl_crystal_density_diffrn 3.23
_exptl_crystal_description 'columnar'
_diffrn_ambient_temperature 293
#These two values have been output from a single CSD field.
_refine_ls_R_factor_gt 0.0183
_refine_ls_wR_factor_gt 0.0183
_symmetry_cell_setting monoclinic
_symmetry_space_group_name_H-M 'P 21/n'
_symmetry_Int_Tables_number 14
loop_
_symmetry_equiv_pos_site_id
_symmetry_equiv_pos_as_xyz
1 x,y,z
2 1/2-x,1/2+y,1/2-z
3 -x,-y,-z
4 -1/2+x,-1/2-y,-1/2+z
_cell_length_a 6.5786(3)
_cell_length_b 8.6025(3)
_cell_length_c 13.7919(6)
_cell_angle_alpha 90
_cell_angle_beta 93.015(1)
_cell_angle_gamma 90
_cell_formula_units_Z 4
loop_
_atom_type_symbol
_atom_type_radius_bond
C 0.68
H 0.23
N 0.68
O 0.68
S 1.02
Tb 1.95
loop_
_atom_site_label
_atom_site_type_symbol
_atom_site_fract_x
_atom_site_fract_y
_atom_site_fract_z
Tb1 Tb 0.24568(2) 0.240422(16) 0.910547(10)
S1 S 0.24003(10) -0.16655(8) 0.97480(5)
O1 O 0.2491(4) 0.0032(3) 0.99337(17)
O2 O 0.4386(4) -0.2376(3) 1.0019(2)
O3 O 0.1869(4) -0.1958(3) 0.87239(18)
O4 O 0.0858(4) -0.2358(3) 1.0358(2)
O5 O 0.4475(4) 0.4443(3) 0.84116(17)
O6 O 0.0446(3) 0.4437(3) 0.82790(17)
O7 O 0.0458(3) 0.6054(3) 0.70034(16)
O8 O 0.4539(3) 0.6214(3) 0.72188(17)
O9 O 0.2363(4) 0.4209(3) 1.04350(18)
H1 H 0.30160 0.38310 1.09280
H2 H 0.29110 0.50610 1.02760
C1 C 0.3646(5) 0.5328(4) 0.7779(2)
C2 C 0.1307(5) 0.5280(4) 0.7681(2)
N1 N 0.7328(5) 0.3410(4) 0.6908(2)
Tb1B Tb 0.75432(2) -0.240422(16) 1.089453(10)
Tb1B* Tb -0.24568(2) -0.240422(16) 1.089453(10)
Tb1A Tb 0.25432(2) 0.740422(16) 0.589453(10)
O2B O 0.5614(4) 0.2376(3) 0.9981(2)
O4B O -0.0858(4) 0.2358(3) 0.9642(2)
O7A O 0.4542(3) 0.1054(3) 0.79966(16)
O8A O 0.0461(3) 0.1214(3) 0.77812(17)
#END
