
#######################################################################
#
#                 Cambridge Crystallographic Data Centre
#                                CCDC
#
#######################################################################
#
# If this CIF has been generated from an entry in the Cambridge
# Structural Database, then it will include bibliographic, chemical,
# crystal, experimental, refinement or atomic coordinate data resulting
# from the CCDC's data processing and validation procedures.
#
#######################################################################

data_CSD_CIF_FUSRIV
_audit_creation_date 2010-04-15
_audit_creation_method CSD-ConQuest-V1
_database_code_CSD FUSRIV
_database_code_depnum_ccdc_archive 'CCDC 708581'
_chemical_formula_sum 'C4 H12 Gd2 N2 O18 S2'
_chemical_formula_moiety
;
(H4 N1 1+)2n,n(C4 H4 Gd2 O18 S2 2-)
;
_journal_coden_Cambridge 222
_journal_year 2009
_journal_page_first 3447
_journal_name_full 'Dalton Trans. '
loop_
_publ_author_name
"Hsiao-Chan Liu"
"I-Han Chen"
"Anny Huang"
"Sin-Chiang Huang"
"Kuei Fang Hsu"
_chemical_name_systematic
;
catena-(Diammonium 
bis(\m~3~-sulfato-O,O',O'')-bis(\m~2~-oxalato-O,O',O'',O''')-diaqua-di-gadolin
ium)
;
_cell_volume    839.291
_exptl_crystal_colour 'colorless'
_exptl_crystal_density_diffrn 2.987
_exptl_special_details
;
polymorph I

;
_exptl_crystal_description 'plate'
_diffrn_ambient_temperature 293
#These two values have been output from a single CSD field.
_refine_ls_R_factor_gt 0.0339
_refine_ls_wR_factor_gt 0.0339
_symmetry_cell_setting monoclinic
_symmetry_space_group_name_H-M 'P 21/c'
_symmetry_Int_Tables_number 14
loop_
_symmetry_equiv_pos_site_id
_symmetry_equiv_pos_as_xyz
1 x,y,z
2 -x,1/2+y,1/2-z
3 -x,-y,-z
4 x,-1/2-y,-1/2+z
_cell_length_a 8.0845(7)
_cell_length_b 11.7544(1)
_cell_length_c 9.3323(1)
_cell_angle_alpha 90
_cell_angle_beta 108.846(1)
_cell_angle_gamma 90
_cell_formula_units_Z 2
loop_
_atom_type_symbol
_atom_type_radius_bond
C 0.68
H 0.23
Gd 1.94
N 0.68
O 0.68
S 1.02
loop_
_atom_site_label
_atom_site_type_symbol
_atom_site_fract_x
_atom_site_fract_y
_atom_site_fract_z
Gd1 Gd 0.87722(4) 0.09095(3) 0.16291(4)
S1 S 1.2182(2) -0.12840(13) 0.21251(18)
O1 O 1.0746(7) -0.0477(5) 0.1442(7)
O2 O 1.2616(8) -0.1777(5) 0.0840(6)
O3 O 1.3678(8) -0.0698(6) 0.3142(8)
O4 O 1.1568(8) -0.2169(5) 0.2914(7)
O5 O 0.5674(7) 0.1119(4) 0.1296(6)
O6 O 0.2984(6) 0.0618(4) -0.0178(6)
O7 O 0.8227(8) -0.0399(6) 0.3455(6)
O8 O 0.9211(8) -0.1132(5) 0.5791(6)
O9 O 1.1305(7) 0.1905(4) 0.1360(6)
H1 H 1.09900 0.23030 0.05560
H2 H 1.20650 0.14210 0.13080
C1 C 0.4625(9) 0.0505(6) 0.0335(8)
C2 C 0.9248(9) -0.0436(6) 0.4776(8)
N1 N 0.4524(10) 0.1641(7) 0.4030(8)
Gd1B Gd 1.12278(4) -0.09095(3) -0.16291(4)
Gd1A Gd 1.12278(4) -0.40905(3) 0.33709(4)
Gd1B* Gd 0.12278(4) -0.09095(3) -0.16291(4)
Gd1B** Gd 1.12278(4) -0.09095(3) 0.83709(4)
Gd1C Gd 0.87722(4) 0.40905(3) -0.33709(4)
S1B S 0.7818(2) 0.12840(13) -0.21251(18)
O1B O 0.9254(7) 0.0477(5) -0.1442(7)
O2B O 0.7384(8) 0.1777(5) -0.0840(6)
O3B O 0.6322(8) 0.0698(6) -0.3142(8)
O4B O 0.8432(8) 0.2169(5) -0.2914(7)
O4A O 0.8432(8) 0.2831(5) 0.2086(7)
O4C O 1.1568(8) -0.2831(5) -0.2086(7)
O5B O 0.4326(7) -0.1119(4) -0.1296(6)
O5B* O 1.4326(7) -0.1119(4) -0.1296(6)
O6B O 0.7016(6) -0.0618(4) 0.0178(6)
O6* O 1.2984(6) 0.0618(4) -0.0178(6)
O7B O 1.1773(8) 0.0399(6) 0.6545(6)
O7B* O 1.1773(8) 0.0399(6) -0.3455(6)
O8B O 1.0789(8) 0.1132(5) 0.4209(6)
O8* O 0.9211(8) -0.1132(5) -0.4209(6)
O9B O 0.8695(7) -0.1905(4) -0.1360(6)
H1B H 0.90100 -0.23030 -0.05560
H2B H 0.79350 -0.14210 -0.13080
C1B C 0.5375(9) -0.0505(6) -0.0335(8)
C2B C 1.0752(9) 0.0436(6) 0.5224(8)
#END
