
#######################################################################
#
#                 Cambridge Crystallographic Data Centre
#                                CCDC
#
#######################################################################
#
# If this CIF has been generated from an entry in the Cambridge
# Structural Database, then it will include bibliographic, chemical,
# crystal, experimental, refinement or atomic coordinate data resulting
# from the CCDC's data processing and validation procedures.
#
#######################################################################

data_CSD_CIF_FUSRAN
_audit_creation_date 2010-04-15
_audit_creation_method CSD-ConQuest-V1
_database_code_CSD FUSRAN
_database_code_depnum_ccdc_archive 'CCDC 708579'
_chemical_formula_sum 'C4 H12 N2 Nd2 O18 S2'
_chemical_formula_moiety
;
(H4 N1 1+)2n,n(C4 H4 Nd2 O18 S2 2-)
;
_journal_coden_Cambridge 222
_journal_year 2009
_journal_page_first 3447
_journal_name_full 'Dalton Trans. '
loop_
_publ_author_name
"Hsiao-Chan Liu"
"I-Han Chen"
"Anny Huang"
"Sin-Chiang Huang"
"Kuei Fang Hsu"
_chemical_name_systematic
;
catena-(Diammonium 
bis(\m~3~-sulfato-O,O,O',O'')-bis(\m~2~-oxalato-O,O',O'',O''')-diaqua-di-neody
mium)
;
_cell_volume    851.689
_exptl_crystal_colour 'light-purple'
_exptl_crystal_density_diffrn 2.842
_exptl_crystal_description 'plate'
_diffrn_ambient_temperature 293
#These two values have been output from a single CSD field.
_refine_ls_R_factor_gt 0.0235
_refine_ls_wR_factor_gt 0.0235
_symmetry_cell_setting monoclinic
_symmetry_space_group_name_H-M 'P 21/c'
_symmetry_Int_Tables_number 14
loop_
_symmetry_equiv_pos_site_id
_symmetry_equiv_pos_as_xyz
1 x,y,z
2 -x,1/2+y,1/2-z
3 -x,-y,-z
4 x,-1/2-y,-1/2+z
_cell_length_a 8.1876(5)
_cell_length_b 11.7787(7)
_cell_length_c 9.2798(6)
_cell_angle_alpha 90
_cell_angle_beta 107.885(1)
_cell_angle_gamma 90
_cell_formula_units_Z 2
loop_
_atom_type_symbol
_atom_type_radius_bond
C 0.68
H 0.23
N 0.68
Nd 1.84
O 0.68
S 1.02
loop_
_atom_site_label
_atom_site_type_symbol
_atom_site_fract_x
_atom_site_fract_y
_atom_site_fract_z
Nd1 Nd 0.880407(19) 0.588382(13) 0.153911(17)
S1 S 0.77796(10) 0.63255(6) -0.21144(8)
O1 O 0.9196(3) 0.5537(2) -0.1275(3)
O2 O 0.7221(4) 0.6857(2) -0.0914(3)
O3 O 0.6399(5) 0.5698(3) -0.3161(4)
O4 O 0.8473(4) 0.7159(2) -0.2927(3)
O5 O 0.5701(3) 0.6086(2) 0.1312(3)
O6 O 0.3054(3) 0.5666(2) -0.0151(3)
O7 O 0.8349(4) 0.4516(3) 0.3458(3)
O8 O 0.9177(4) 0.3913(2) 0.5841(3)
O9 O 1.1390(3) 0.6942(2) 0.1391(3)
H1 H 1.10900 0.75940 0.10080
H2 H 1.18640 0.65760 0.08380
C1 C 0.4655(4) 0.5508(3) 0.0348(4)
C2 C 0.9279(4) 0.4561(3) 0.4795(3)
N1 N 0.4482(4) 0.6605(3) -0.5936(4)
Nd1B Nd 1.119593(19) 0.411618(13) -0.153911(17)
Nd1C Nd 0.880407(19) 0.911618(13) -0.346089(17)
Nd1B* Nd 0.119593(19) 0.411618(13) -0.153911(17)
Nd1B** Nd 1.119593(19) 0.411618(13) 0.846089(17)
Nd1A Nd 1.119593(19) 0.088382(13) 0.346089(17)
S1B S 1.22204(10) 0.36745(6) 0.21144(8)
O1B O 1.0804(3) 0.4463(2) 0.1275(3)
O2B O 1.2779(4) 0.3143(2) 0.0914(3)
O3B O 1.3601(5) 0.4302(3) 0.3161(4)
O4B O 1.1527(4) 0.2841(2) 0.2927(3)
O4C O 0.8473(4) 0.7841(2) 0.2073(3)
O4A O 1.1527(4) 0.2159(2) -0.2073(3)
O5B O 0.4299(3) 0.3914(2) -0.1312(3)
O5B* O 1.4299(3) 0.3914(2) -0.1312(3)
O6B O 0.6946(3) 0.4334(2) 0.0151(3)
O6* O 1.3054(3) 0.5666(2) -0.0151(3)
O7B O 1.1651(4) 0.5484(3) 0.6542(3)
O7B* O 1.1651(4) 0.5484(3) -0.3458(3)
O8B O 1.0823(4) 0.6087(2) 0.4159(3)
O8* O 0.9177(4) 0.3913(2) -0.4159(3)
O9B O 0.8610(3) 0.3058(2) -0.1391(3)
H1B H 0.89100 0.24060 -0.10080
H2B H 0.81360 0.34240 -0.08380
C1B C 0.5345(4) 0.4492(3) -0.0348(4)
C2B C 1.0721(4) 0.5439(3) 0.5205(3)
#END
