
#######################################################################
#
#                 Cambridge Crystallographic Data Centre
#                                CCDC
#
#######################################################################
#
# If this CIF has been generated from an entry in the Cambridge
# Structural Database, then it will include bibliographic, chemical,
# crystal, experimental, refinement or atomic coordinate data resulting
# from the CCDC's data processing and validation procedures.
#
#######################################################################

data_CSD_CIF_FUSSAO
_audit_creation_date 2010-04-15
_audit_creation_method CSD-ConQuest-V1
_database_code_CSD FUSSAO
_database_code_depnum_ccdc_archive 'CCDC 708585'
_chemical_formula_sum 'C2 H6 Er1 N1 O9 S1'
_chemical_formula_moiety
;
(H4 N1 1+)n,n(C2 H2 Er1 O9 S1 1-)
;
_journal_coden_Cambridge 222
_journal_year 2009
_journal_page_first 3447
_journal_name_full 'Dalton Trans. '
loop_
_publ_author_name
"Hsiao-Chan Liu"
"I-Han Chen"
"Anny Huang"
"Sin-Chiang Huang"
"Kuei Fang Hsu"
_chemical_name_systematic
;
catena-(Ammonium 
(\m~3~-sulfato-O,O',O'')-(\m~2~-oxalato-O,O',O'',O''')-aqua-erbium)
;
_cell_volume    744.584
_exptl_crystal_colour 'light-pink'
_exptl_crystal_density_diffrn 3.456
_exptl_crystal_description 'columnar'
_diffrn_ambient_temperature 293
#These two values have been output from a single CSD field.
_refine_ls_R_factor_gt 0.0404
_refine_ls_wR_factor_gt 0.0404
_symmetry_cell_setting monoclinic
_symmetry_space_group_name_H-M 'P 21/n'
_symmetry_Int_Tables_number 14
loop_
_symmetry_equiv_pos_site_id
_symmetry_equiv_pos_as_xyz
1 x,y,z
2 1/2-x,1/2+y,1/2-z
3 -x,-y,-z
4 -1/2+x,-1/2-y,-1/2+z
_cell_length_a 6.4752(9)
_cell_length_b 8.4502(12)
_cell_length_c 13.627(2)
_cell_angle_alpha 90
_cell_angle_beta 93.028(3)
_cell_angle_gamma 90
_cell_formula_units_Z 4
loop_
_atom_type_symbol
_atom_type_radius_bond
C 0.68
H 0.23
Er 1.89
N 0.68
O 0.68
S 1.02
loop_
_atom_site_label
_atom_site_type_symbol
_atom_site_fract_x
_atom_site_fract_y
_atom_site_fract_z
Er1 Er 0.24576(6) 0.24042(4) 0.90952(3)
S1 S 0.2418(3) -0.1668(2) 0.97529(17)
O1 O 0.2514(9) 0.0066(7) 0.9922(5)
O2 O 0.4411(9) -0.2369(7) 1.0042(5)
O3 O 0.1938(11) -0.1980(8) 0.8719(5)
O4 O 0.0849(9) -0.2349(7) 1.0357(5)
O5 O 0.4491(9) 0.4423(7) 0.8402(5)
O6 O 0.0455(9) 0.4417(7) 0.8274(5)
O7 O 0.0456(10) 0.6049(7) 0.7000(5)
O8 O 0.4528(10) 0.6179(7) 0.7194(5)
O9 O 0.2369(11) 0.4210(8) 1.0403(5)
H1 H 0.30370 0.38310 1.09030
H2 H 0.29210 0.50760 1.02370
C1 C 0.3615(14) 0.530(1) 0.7754(8)
C2 C 0.1314(14) 0.5273(10) 0.7669(7)
N1 N 0.7328(12) 0.3392(9) 0.6894(6)
Er1B Er 0.75424(6) -0.24042(4) 1.09048(3)
Er1B* Er -0.24576(6) -0.24042(4) 1.09048(3)
Er1A Er 0.25424(6) 0.74042(4) 0.59048(3)
O2B O 0.5589(9) 0.2369(7) 0.9958(5)
O4B O -0.0849(9) 0.2349(7) 0.9643(5)
O7A O 0.4544(10) 0.1049(7) 0.8000(5)
O8A O 0.0472(10) 0.1179(7) 0.7806(5)
#END
