
#######################################################################
#
#                 Cambridge Crystallographic Data Centre
#                                CCDC
#
#######################################################################
#
# If this CIF has been generated from an entry in the Cambridge
# Structural Database, then it will include bibliographic, chemical,
# crystal, experimental, refinement or atomic coordinate data resulting
# from the CCDC's data processing and validation procedures.
#
#######################################################################

data_CSD_CIF_FUSSOC01
_audit_creation_date 2015-06-02
_audit_creation_method CSD-ConQuest-V1
_database_code_CSD FUSSOC01
_database_code_depnum_ccdc_archive 'CCDC 1008579'
_chemical_formula_sum 'C2 H2 Dy1 K1 O9 S1'
_chemical_formula_moiety
;
(C2 H2 Dy1 O9 S1 1-)n,K1 1+
;
_journal_coden_Cambridge 1500
_journal_volume 5
_journal_year 2015
_journal_page_first 49110
_journal_name_full 'RSC Advances '
loop_
_publ_author_name
"Qipeng Li"
"Zeli Yuan"
"Jinjie Qian"
"Shaowu Du"
_chemical_name_systematic
;
catena-[potassium (\m-oxalato)-(\m-sulfato)-aqua-dysprosium]
;
_cell_volume    758.203
_exptl_crystal_colour 'white'
_exptl_crystal_density_diffrn 3.537
_exptl_crystal_description 'Prism'
_diffrn_ambient_temperature 173
#These two values have been output from a single CSD field.
_refine_ls_R_factor_gt 0.0188
_refine_ls_wR_factor_gt 0.0188
_symmetry_cell_setting monoclinic
_symmetry_space_group_name_H-M 'P 21/c'
_symmetry_Int_Tables_number 14
loop_
_symmetry_equiv_pos_site_id
_symmetry_equiv_pos_as_xyz
1 x,y,z
2 -x,1/2+y,1/2-z
3 -x,-y,-z
4 x,-1/2-y,-1/2+z
_cell_length_a 6.551(2)
_cell_length_b 8.512(3)
_cell_length_c 14.719(4)
_cell_angle_alpha 90
_cell_angle_beta 112.515(12)
_cell_angle_gamma 90
_cell_formula_units_Z 4
loop_
_atom_type_symbol
_atom_type_radius_bond
C 0.68
H 0.23
Dy 1.92
K 2.03
O 0.68
S 1.02
loop_
_atom_site_label
_atom_site_type_symbol
_atom_site_fract_x
_atom_site_fract_y
_atom_site_fract_z
Dy1 Dy 1.16628(2) -0.239677(17) -0.087855(12)
S1 S 0.75864(13) -0.16400(9) 0.02313(6)
O1 O 1.3169(4) -0.4083(3) 0.0506(2)
H1 H 1.37770 -0.50060 0.04470
H2 H 1.31300 -0.37990 0.10880
O2 O 0.8949(4) -0.4436(3) -0.15657(19)
O3 O 1.2824(4) -0.4446(3) -0.17210(19)
O4 O 1.1539(4) -0.6079(3) -0.30086(19)
O5 O 0.7953(5) -0.1896(4) 0.1257(2)
O6 O 0.9393(5) -0.2363(3) 0.0012(2)
O7 O 0.5485(5) -0.2359(3) -0.0416(3)
O8 O 0.7684(4) -0.6241(3) -0.2753(2)
O9 O 0.7480(4) 0.0067(3) 0.0021(2)
C1 C 0.9144(5) -0.5352(4) -0.2203(3)
C2 C 1.1361(5) -0.5306(4) -0.2319(3)
K1 K 0.46747(15) -0.34338(12) -0.30155(7)
Dy1* Dy 0.16628(2) -0.239677(17) -0.087855(12)
Dy1A Dy 0.83372(2) -0.739677(17) -0.412145(12)
Dy1B Dy 0.83372(2) 0.239677(17) 0.087855(12)
O4A O 0.8461(4) -0.1079(3) -0.19914(19)
O7* O 1.5485(5) -0.2359(3) -0.0416(3)
O8A O 1.2316(4) -0.1241(3) -0.2247(2)
O9B O 1.2520(4) -0.0067(3) -0.0021(2)
#END
