
#######################################################################
#
#                 Cambridge Crystallographic Data Centre
#                                CCDC
#
#######################################################################
#
# If this CIF has been generated from an entry in the Cambridge
# Structural Database, then it will include bibliographic, chemical,
# crystal, experimental, refinement or atomic coordinate data resulting
# from the CCDC's data processing and validation procedures.
#
#######################################################################

data_CSD_CIF_FUSSOC
_audit_creation_date 2010-04-15
_audit_creation_method CSD-ConQuest-V1
_database_code_CSD FUSSOC
_database_code_depnum_ccdc_archive 'CCDC 708588'
_chemical_formula_sum 'C2 H2 Dy1 K1 O9 S1'
_chemical_formula_moiety
;
(K1 1+)n,n(C2 H2 Dy1 O9 S1 1-)
;
_journal_coden_Cambridge 222
_journal_year 2009
_journal_page_first 3447
_journal_name_full 'Dalton Trans. '
loop_
_publ_author_name
"Hsiao-Chan Liu"
"I-Han Chen"
"Anny Huang"
"Sin-Chiang Huang"
"Kuei Fang Hsu"
_chemical_name_systematic
;
catena-(Potassium (\m~3~-sulfato-O,O',O'')-(\m~2~-oxalato)-aqua-dysprosium)
;
_cell_volume    785.281
_exptl_crystal_colour 'light-yellow'
_exptl_crystal_density_diffrn 3.415
_exptl_crystal_description 'columnar'
_diffrn_ambient_temperature 273
#These two values have been output from a single CSD field.
_refine_ls_R_factor_gt 0.025
_refine_ls_wR_factor_gt 0.025
_symmetry_cell_setting monoclinic
_symmetry_space_group_name_H-M 'P 21/n'
_symmetry_Int_Tables_number 14
loop_
_symmetry_equiv_pos_site_id
_symmetry_equiv_pos_as_xyz
1 x,y,z
2 1/2-x,1/2+y,1/2-z
3 -x,-y,-z
4 -1/2+x,-1/2-y,-1/2+z
_cell_length_a 6.6007(3)
_cell_length_b 8.6186(4)
_cell_length_c 13.8238(7)
_cell_angle_alpha 90
_cell_angle_beta 93.083(1)
_cell_angle_gamma 90
_cell_formula_units_Z 4
loop_
_atom_type_symbol
_atom_type_radius_bond
C 0.68
H 0.23
Dy 1.92
K 1.70
O 0.68
S 1.02
loop_
_atom_site_label
_atom_site_type_symbol
_atom_site_fract_x
_atom_site_fract_y
_atom_site_fract_z
Dy1 Dy 0.24545(3) 0.24027(2) 0.912215(15)
S1 S 0.23559(17) -0.16430(13) 0.97620(8)
O1 O 0.2449(5) 0.0063(4) 0.9971(3)
O2 O 0.4386(5) -0.2363(4) 0.9984(3)
O3 O 0.1697(6) -0.1895(5) 0.8730(3)
O4 O 0.0898(5) -0.2366(4) 1.0411(3)
O5 O 0.4480(5) 0.4435(4) 0.8438(2)
O6 O 0.0455(5) 0.4448(4) 0.8275(2)
O7 O 0.0450(5) 0.6083(4) 0.6989(2)
O8 O 0.4567(5) 0.6237(4) 0.7243(2)
O9 O 0.2351(5) 0.4086(4) 1.0514(2)
H1 H 0.24360 0.50240 1.03310
H2 H 0.12380 0.39520 1.07850
C1 C 0.3665(7) 0.5347(5) 0.7797(3)
C2 C 0.1310(7) 0.5303(5) 0.7677(3)
K1 K -0.26909(18) 0.34341(15) 0.69807(9)
Dy1B Dy 0.75455(3) -0.24027(2) 1.087785(15)
Dy1B* Dy -0.24545(3) -0.24027(2) 1.087785(15)
Dy1A Dy 0.25455(3) 0.74027(2) 0.587785(15)
O2B O 0.5614(5) 0.2363(4) 1.0016(3)
O4B O -0.0898(5) 0.2366(4) 0.9589(3)
O7A O 0.4550(5) 0.1083(4) 0.8011(2)
O8A O 0.0433(5) 0.1237(4) 0.7757(2)
#END
