
#######################################################################
#
#                 Cambridge Crystallographic Data Centre
#                                CCDC
#
#######################################################################
#
# If this CIF has been generated from an entry in the Cambridge
# Structural Database, then it will include bibliographic, chemical,
# crystal, experimental, refinement or atomic coordinate data resulting
# from the CCDC's data processing and validation procedures.
#
#######################################################################

data_CSD_CIF_FUTTAR
_audit_creation_date 2015-09-11
_audit_creation_method CSD-ConQuest-V1
_database_code_CSD FUTTAR
_database_code_depnum_ccdc_archive 'CCDC 1423709'
_chemical_formula_sum 'C2 H62 Cl1 Cs3 Dy3 Na4 O97 Si2 W18'
_chemical_formula_moiety
;
(Cs1 1+)3n,4n(Na1 1+),n(C2 H26 Dy3 O79 Si2 W18 6-),n(Cl1 1-),18n(H2 O1)
;
_journal_coden_Cambridge 9
_journal_volume 50
_journal_year 2011
_journal_page_first 4944
_journal_name_full 'Inorg.Chem. '
loop_
_publ_author_name
"Lubin Ni"
"F.Hussain"
"B.Spingler"
"S.Weyeneth"
"G.R.Patzke"
_chemical_name_systematic
;
catena-[tris(Cesium) tetra(sodium) 
bis(\m~9~-silicato)-(\m~2~-hydroxo)-tritetracontakis(\m~2~-oxo)-acetato-undeca
-aqua-tetradeca-oxo-tri-dysprosium-octadeca-tungsten chloride 
octadecahydrate]
;
_cell_volume   4551.913
_exptl_crystal_colour 'colorless'
_exptl_crystal_description 'block'
_diffrn_ambient_temperature 183
_refine_special_details
;
The structure is disordered.

;
#These two values have been output from a single CSD field.
_refine_ls_R_factor_gt 0.0401
_refine_ls_wR_factor_gt 0.0401
_symmetry_cell_setting triclinic
_symmetry_space_group_name_H-M 'P -1'
_symmetry_Int_Tables_number 2
loop_
_symmetry_equiv_pos_site_id
_symmetry_equiv_pos_as_xyz
1 x,y,z
2 -x,-y,-z
_cell_length_a 12.8335(3)
_cell_length_b 15.7343(3)
_cell_length_c 23.1443(4)
_cell_angle_alpha 99.304(2)
_cell_angle_beta 98.206(2)
_cell_angle_gamma 92.871(2)
_cell_formula_units_Z 2
loop_
_atom_type_symbol
_atom_type_radius_bond
C 0.68
Cl 0.99
Cs 2.44
Dy 1.92
Na 1.66
O 0.68
Si 1.20
W 1.62
loop_
_atom_site_label
_atom_site_type_symbol
_atom_site_fract_x
_atom_site_fract_y
_atom_site_fract_z
O1 O 0.1380(6) 0.4166(6) 0.7717(3)
O2 O 0.1087(6) 0.3381(6) 0.8678(3)
O3 O 0.0706(7) 0.3196(6) 0.9805(4)
O4 O 0.2738(6) 0.3353(6) 0.9523(3)
O5 O 0.4817(7) 0.3938(6) 0.9444(4)
O6 O 0.3099(6) 0.3834(6) 0.8523(3)
O7 O 0.2584(6) 0.2727(6) 0.7465(3)
O8 O 0.0685(6) 0.2404(6) 0.7639(3)
O9 O 0.0339(6) 0.1833(6) 0.8820(3)
O10 O 0.1928(6) 0.1776(6) 0.9630(3)
O11 O 0.4265(6) 0.2194(6) 0.9437(3)
O12 O 0.4541(6) 0.2661(6) 0.8417(3)
O13 O 0.2446(6) 0.2252(6) 0.8579(3)
O14 O -0.0588(7) 0.1501(6) 0.6643(4)
O15 O -0.0652(6) 0.1004(6) 0.7733(3)
O16 O -0.1248(7) 0.0626(6) 0.8747(4)
O17 O 0.0868(6) 0.0345(6) 0.9093(3)
O18 O 0.1672(7) 0.0510(6) 1.0298(4)
O19 O 0.3607(6) 0.0903(5) 0.9924(3)
O20 O 0.5707(6) 0.1144(6) 0.9841(3)
O21 O 0.5001(6) 0.1103(5) 0.8640(3)
O22 O 0.6346(7) 0.1973(6) 0.8013(4)
O23 O 0.4431(6) 0.2115(6) 0.7266(3)
O24 O 0.2891(7) 0.2243(6) 0.6312(4)
O25 O 0.1589(6) 0.1277(5) 0.6890(3)
O26 O 0.3264(6) 0.1204(5) 0.7776(3)
O27 O 0.1301(6) 0.0842(5) 0.7987(3)
O28 O 0.2954(6) 0.0723(5) 0.8809(3)
O29 O 0.5057(6) 0.0548(6) 0.7468(3)
O30 O 0.3409(6) 0.0690(6) 0.6588(3)
O31 O 0.2468(6) -0.0588(6) 0.9483(3)
O32 O 0.4521(6) -0.0263(5) 0.9172(3)
O33 O 0.1954(6) -0.2298(6) 0.8928(3)
O34 O 0.3676(6) -0.2747(6) 0.8363(3)
O35 O -0.0173(7) -0.0519(6) 0.8079(4)
O36 O 0.0216(7) 0.0001(6) 0.6918(4)
O37 O 0.2799(6) -0.1041(6) 0.5997(3)
O38 O 0.4186(7) -0.2079(6) 0.6527(4)
O39 O -0.1302(7) -0.0589(6) 0.5971(4)
O40 O -0.1380(6) -0.1146(6) 0.7040(3)
O41 O -0.1946(7) -0.1559(6) 0.8073(4)
O42 O 0.0090(6) -0.2146(6) 0.8242(3)
O43 O 0.0316(7) -0.3414(6) 0.8966(4)
O44 O 0.1951(6) -0.3878(5) 0.8305(3)
O45 O 0.3769(7) -0.4453(6) 0.7914(4)
O46 O 0.3460(6) -0.3285(5) 0.7146(3)
O47 O 0.4181(7) -0.3796(6) 0.6076(4)
O48 O 0.2678(6) -0.2773(6) 0.5616(4)
O49 O 0.1484(7) -0.1712(6) 0.4978(4)
O50 O 0.0702(7) -0.1219(6) 0.6046(4)
O51 O 0.2071(6) -0.2259(5) 0.6620(3)
O52 O 0.1743(6) -0.2713(5) 0.7657(3)
O53 O 0.0448(6) -0.1687(6) 0.7151(3)
O54 O -0.1257(6) -0.2765(6) 0.7286(3)
O55 O -0.0973(6) -0.2236(5) 0.6100(3)
O56 O 0.0575(6) -0.2838(6) 0.5578(3)
O57 O 0.2120(6) -0.4005(6) 0.6193(3)
O58 O 0.1870(6) -0.4511(5) 0.7169(3)
O59 O 0.0006(6) -0.3791(6) 0.7768(3)
O60 O 0.0431(6) -0.3340(5) 0.6667(3)
O61 O -0.0166(6) -0.4893(5) 0.6750(3)
O62 O 0.1299(7) -0.5688(6) 0.6085(4)
O63 O 0.0053(6) -0.4448(6) 0.5695(3)
O64 O -0.1489(6) -0.3530(6) 0.5122(3)
O65 O -0.1483(6) -0.3858(6) 0.6262(3)
O66 O -0.1991(7) -0.4523(6) 0.7236(4)
O67 O 0.2647(7) -0.0531(6) 0.7198(4)
O68 O 0.4552(7) -0.1210(7) 0.7663(4)
O69 O 0.6081(7) -0.0868(6) 0.6910(4)
O70 O 0.4931(9) -0.0230(8) 0.5944(5)
O71 O 0.5394(7) -0.1876(6) 0.9108(4)
O72 O 0.2871(7) -0.1118(6) 0.8295(4)
O73 O 0.3823(8) -0.2846(7) 0.9695(4)
O74 O 0.0791(9) 0.2552(8) 0.5786(5)
O75 O 0.2525(9) 0.2038(8) 0.5032(5)
O76 O 0.3183(7) 0.4588(7) 0.5474(4)
O77 O 0.3239(7) 0.4156(6) 0.6704(4)
O78 O 0.4293(8) 0.3196(7) 0.5753(4)
O79 O 0.563(2) 0.0046(19) 0.5191(11)
Si1 Si 0.1190(3) -0.2485(2) 0.70301(14)
Si2 Si 0.2484(3) 0.1239(2) 0.82803(14)
Dy1 Dy 0.42453(5) -0.05796(4) 0.67531(3)
Dy2 Dy 0.36072(5) -0.16172(4) 0.91685(2)
Dy3 Dy 0.24640(5) 0.33103(4) 0.57582(2)
W1 W 0.39138(4) 0.31003(3) 0.90588(2)
W2 W 0.18796(4) 0.33036(3) 0.80224(2)
W3 W 0.14258(4) 0.26820(4) 0.92945(2)
W4 W 0.45263(4) 0.08720(3) 0.93334(2)
W5 W 0.21567(4) 0.04955(3) 0.96412(2)
W6 W -0.00754(4) 0.06565(4) 0.84759(2)
W7 W 0.03253(4) 0.12937(3) 0.72300(2)
W8 W 0.30144(4) 0.16925(3) 0.69138(2)
W9 W 0.50070(4) 0.15679(3) 0.79215(2)
W10 W -0.09347(4) -0.39454(4) 0.70772(2)
W11 W -0.04372(4) -0.09878(3) 0.64852(2)
W12 W 0.30081(4) -0.35940(3) 0.78274(2)
W13 W 0.33716(4) -0.30405(3) 0.63566(2)
W14 W 0.10065(4) -0.46369(3) 0.63332(2)
W15 W 0.17561(4) -0.18425(4) 0.57080(2)
W16 W -0.06224(4) -0.32987(3) 0.57830(2)
W17 W 0.09711(4) -0.30220(3) 0.84514(2)
W18 W -0.08391(4) -0.16181(4) 0.77224(2)
C1 C 0.511(3) -0.046(2) 0.5480(15)
C2 C 0.500(4) -0.147(3) 0.5253(19)
O80 O 0.2917(17) -0.0923(15) 0.3943(9)
O81 O -0.0590(9) 0.4635(8) 0.8370(5)
O82 O -0.0443(10) -0.0716(9) 0.4499(5)
O83 O 0.2563(11) 0.0345(10) 0.5284(6)
O84 O -0.1857(12) 0.2838(11) 0.9708(7)
O85 O -0.1917(16) 0.4797(14) 1.0731(9)
O86 O -0.3556(19) -0.4507(16) 0.5811(10)
O87 O -0.181(3) -0.766(3) 0.6028(17)
O88 O -0.1830(18) 0.4423(16) 0.8931(10)
Na1 Na 0.1517(12) -0.0702(9) 0.4357(6)
Na2 Na -0.0554(8) 0.4093(7) 1.0175(4)
Na3 Na -0.1515(7) 0.2818(6) 0.8386(5)
Cs1 Cs 0.66058(7) -0.03400(7) 0.85539(4)
Cs2 Cs -0.04345(9) 0.14846(7) 1.01728(5)
Cs3 Cs -0.1619(3) -0.5873(3) 0.53590(18)
Cl1 Cl -0.0744(10) -0.6653(9) 0.6655(6)
O89 O -0.187(4) 0.401(4) 0.786(2)
O90 O 0.7310(8) 0.0621(7) 0.7253(4)
O91 O 0.6709(9) -0.2467(8) 0.6457(5)
O92 O 0.4694(9) -0.6006(8) 0.7657(5)
O93 O 0.6885(11) -0.5268(9) 0.7811(6)
O94 O 0.657(2) -0.395(2) 0.7892(12)
Na4 Na 0.5573(7) -0.4482(9) 0.7085(6)
O95 O 0.6085(10) -0.2595(9) 0.7589(5)
O96 O 0.4422(14) -0.4409(13) 0.9168(8)
O97 O 0.587(2) -0.357(2) 0.8802(12)
O98 O 0.675(2) -0.485(2) 0.9560(12)
O99 O 0.562(2) 0.226(2) 0.6383(13)
O100 O -0.429(3) -0.349(3) 0.5423(16)
Cl2? Cl -0.1053(10) -0.6469(9) 0.7213(6)
Na5? Na 0.0406(11) 0.4357(10) 1.0515(6)
O20A O 0.4293(6) -0.1144(6) 1.0159(3)
O62* O 0.1299(7) 0.4312(6) 0.6085(4)
O64A O 0.1489(6) 0.3530(6) 0.4878(3)
Dy2A Dy 0.63928(5) 0.16172(4) 1.08315(2)
Dy3* Dy 0.24640(5) -0.66897(4) 0.57582(2)
Dy3A Dy -0.24640(5) -0.33103(4) 0.42418(2)
#END
