
#######################################################################
#
#                 Cambridge Crystallographic Data Centre
#                                CCDC
#
#######################################################################
#
# If this CIF has been generated from an entry in the Cambridge
# Structural Database, then it will include bibliographic, chemical,
# crystal, experimental, refinement or atomic coordinate data resulting
# from the CCDC's data processing and validation procedures.
#
#######################################################################

data_CSD_CIF_FUTTEV
_audit_creation_date 2015-09-11
_audit_creation_method CSD-ConQuest-V1
_database_code_CSD FUTTEV
_database_code_depnum_ccdc_archive 'CCDC 1423710'
_chemical_formula_sum 'C2 H67 Cs3.5 Gd3 Na2.5 O99 Si2 W18'
_chemical_formula_moiety
;
(Cs1 1+)3.5n,2.5n(Na1 1+),n(C2 H27 Gd3 O79 Si2 W18 6-),20n(H2 O1)
;
_journal_coden_Cambridge 9
_journal_volume 50
_journal_year 2011
_journal_page_first 4944
_journal_name_full 'Inorg.Chem. '
loop_
_publ_author_name
"Lubin Ni"
"F.Hussain"
"B.Spingler"
"S.Weyeneth"
"G.R.Patzke"
_chemical_name_systematic
;
catena-[tetra(cesium) bis(sodium) 
bis(\m~9~-silicato)-bis(\m~2~-hydroxo)-ditetracontakis(\m~2~-oxo)-acetato-unde
ca-aqua-tetradeca-oxo-tri-gadolinium-octadeca-tungsten icosahydrate]
;
_cell_volume   4591.650
_exptl_crystal_colour 'colorless'
_exptl_crystal_density_diffrn 4.307
_exptl_crystal_description 'block'
_diffrn_ambient_temperature 183
_refine_special_details
;
The structure is disordered.

;
#These two values have been output from a single CSD field.
_refine_ls_R_factor_gt 0.0384
_refine_ls_wR_factor_gt 0.0384
_symmetry_cell_setting triclinic
_symmetry_space_group_name_H-M 'P -1'
_symmetry_Int_Tables_number 2
loop_
_symmetry_equiv_pos_site_id
_symmetry_equiv_pos_as_xyz
1 x,y,z
2 -x,-y,-z
_cell_length_a 12.8242(1)
_cell_length_b 15.7895(2)
_cell_length_c 23.2486(3)
_cell_angle_alpha 99.591(1)
_cell_angle_beta 97.904(1)
_cell_angle_gamma 91.547(1)
_cell_formula_units_Z 2
loop_
_atom_type_symbol
_atom_type_radius_bond
C 0.68
Cs 2.44
Gd 1.96
Na 1.66
O 0.68
Si 1.20
W 1.62
loop_
_atom_site_label
_atom_site_type_symbol
_atom_site_fract_x
_atom_site_fract_y
_atom_site_fract_z
O1 O -0.0159(6) 0.4425(6) 0.4309(4)
O2 O -0.1377(6) 0.5703(6) 0.3919(4)
O3 O 0.0093(6) 0.4869(5) 0.3263(3)
O4 O 0.1938(6) 0.4494(6) 0.2770(4)
O5 O 0.1402(6) 0.3826(6) 0.3740(3)
O6 O 0.1369(7) 0.3497(6) 0.4882(4)
O7 O -0.2216(6) 0.4040(6) 0.3808(4)
O8 O -0.1950(6) 0.4527(6) 0.2828(4)
O9 O -0.0041(6) 0.3768(5) 0.2241(3)
O10 O 0.1195(6) 0.2746(5) 0.2721(3)
O11 O 0.0899(6) 0.2208(5) 0.3889(3)
O12 O -0.0663(6) 0.2849(6) 0.4419(4)
O13 O -0.0507(6) 0.3329(5) 0.3327(3)
O14 O -0.1581(7) 0.1739(6) 0.5014(4)
O15 O -0.0774(6) 0.1227(5) 0.3937(3)
O16 O 0.1246(6) 0.0558(6) 0.4014(4)
O17 O 0.1330(6) 0.1124(5) 0.2956(3)
O18 O 0.1911(6) 0.1533(6) 0.1933(4)
O19 O -0.0127(6) 0.2139(5) 0.1757(3)
O20 O -0.0361(6) 0.3423(6) 0.1042(4)
O21 O -0.2009(6) 0.3895(6) 0.1697(4)
O22 O -0.3819(6) 0.4515(6) 0.2090(4)
O23 O -0.3526(6) 0.3345(5) 0.2851(3)
O24 O -0.4284(7) 0.3851(6) 0.3919(4)
O25 O -0.2769(6) 0.2806(5) 0.4365(3)
O26 O -0.2127(6) 0.2280(5) 0.3382(3)
O27 O -0.1803(6) 0.2737(5) 0.2334(3)
O28 O -0.0510(6) 0.1686(5) 0.2845(3)
O29 O -0.4287(6) 0.2145(5) 0.3462(3)
O30 O -0.2869(6) 0.1075(6) 0.4008(4)
O31 O -0.0262(6) 0.0002(6) 0.3075(4)
O32 O 0.0161(6) 0.0514(6) 0.1920(3)
O33 O -0.1962(6) 0.2301(6) 0.1079(4)
O34 O -0.3734(6) 0.2812(5) 0.1632(3)
O35 O -0.2456(6) 0.0591(6) 0.0535(4)
O36 O -0.4517(6) 0.0274(5) 0.0823(3)
O37 O -0.5096(6) -0.0515(6) 0.2508(4)
O38 O -0.3433(6) -0.0639(6) 0.3403(4)
O39 O -0.1622(6) -0.0510(6) -0.0288(4)
O40 O -0.3573(6) -0.0886(5) 0.0074(3)
O41 O -0.5664(6) -0.1135(5) 0.0169(3)
O42 O -0.4982(6) -0.1087(5) 0.1351(3)
O43 O -0.6295(6) -0.1931(6) 0.1976(4)
O44 O -0.4434(6) -0.2063(6) 0.2725(4)
O45 O -0.2900(6) -0.2204(6) 0.3684(4)
O46 O -0.1580(6) -0.1259(5) 0.3119(3)
O47 O 0.0602(7) -0.1476(6) 0.3353(4)
O48 O 0.0655(6) -0.1001(5) 0.2271(3)
O49 O 0.1247(7) -0.0635(6) 0.1263(4)
O50 O -0.0856(6) -0.0350(5) 0.0910(3)
O51 O -0.2939(6) -0.0713(5) 0.1189(3)
O52 O -0.3266(6) -0.1189(5) 0.2213(3)
O53 O -0.1294(6) -0.0840(5) 0.2012(3)
O54 O -0.1866(6) -0.1764(5) 0.0383(3)
O55 O -0.4207(6) -0.2180(6) 0.0567(4)
O56 O -0.4494(6) -0.2624(5) 0.1580(3)
O57 O -0.2564(6) -0.2712(6) 0.2547(4)
O58 O -0.0655(6) -0.2381(5) 0.2376(3)
O59 O -0.0304(6) -0.1839(5) 0.1188(3)
O60 O -0.2405(6) -0.2234(5) 0.1436(3)
O61 O -0.1341(6) -0.4140(6) 0.2293(4)
O62 O -0.1010(6) -0.3366(6) 0.1332(4)
O63 O -0.3030(6) -0.3782(6) 0.1483(4)
O64 O -0.0626(6) -0.3178(6) 0.0204(4)
O65 O -0.2657(6) -0.3355(6) 0.0489(4)
O66 O -0.4733(6) -0.3911(6) 0.0574(4)
O67 O -0.5476(7) 0.1905(6) 0.0903(4)
O68 O -0.3873(7) 0.2865(7) 0.0301(4)
O69 O -0.2931(7) 0.1155(6) 0.1714(4)
O70 O -0.4939(9) 0.0200(8) 0.4059(5)
O71 O -0.6151(7) 0.0881(7) 0.3136(4)
O72 O -0.4676(7) 0.1258(6) 0.2317(4)
O73 O -0.2673(7) 0.0554(6) 0.2785(4)
O74 O -0.0759(8) -0.2574(7) 0.4124(5)
O75 O -0.3307(8) -0.4061(7) 0.3328(5)
O76 O -0.3264(8) -0.4539(7) 0.4529(5)
O77 O -0.3538(9) -0.2852(8) 0.5151(5)
O78 O -0.2053(9) -0.1741(8) 0.4900(5)
O79 O -0.4393(8) -0.2981(8) 0.4253(5)
Si1 Si -0.1249(3) 0.2500(2) 0.29667(14)
Si2 Si -0.2479(2) -0.1221(2) 0.17181(14)
Gd1 Gd -0.42981(5) 0.06233(4) 0.32357(3)
Gd2 Gd -0.36450(4) 0.16403(4) 0.08309(3)
Gd3 Gd -0.24912(5) -0.32152(4) 0.42929(3)
W1 W 0.08750(4) 0.39196(3) 0.29283(2)
W2 W 0.05428(4) 0.32791(3) 0.42136(2)
W3 W -0.10940(4) 0.46387(3) 0.36686(2)
W4 W -0.30627(4) 0.36350(3) 0.21752(2)
W5 W -0.34577(4) 0.30882(3) 0.36366(2)
W6 W -0.18364(4) 0.18757(3) 0.42823(2)
W7 W 0.03746(4) 0.09815(3) 0.35091(2)
W8 W 0.07973(4) 0.16024(3) 0.22789(2)
W9 W -0.10120(4) 0.30325(3) 0.15554(2)
W10 W 0.00864(4) -0.06632(3) 0.15286(2)
W11 W -0.03232(4) -0.12847(3) 0.27720(2)
W12 W -0.30178(4) -0.16543(3) 0.30833(2)
W13 W -0.49984(4) -0.15301(3) 0.20716(2)
W14 W -0.45039(4) -0.08574(3) 0.06636(2)
W15 W -0.21353(4) -0.04922(3) 0.03685(2)
W16 W -0.38515(4) -0.30745(3) 0.09490(2)
W17 W -0.18348(4) -0.32836(3) 0.19845(2)
W18 W -0.13646(4) -0.26740(3) 0.07162(2)
C1 C -0.4331(15) -0.2726(13) 0.4828(9)
C2 C -0.520(2) -0.228(2) 0.5090(13)
O80 O 0.4437(14) 0.4589(13) 0.2913(8)
O81 O -0.1481(9) 0.0763(9) 0.5650(5)
O82 O -0.4219(14) 0.2213(13) 0.6448(8)
O83 O -0.1935(11) 0.4828(10) 0.0689(7)
O84 O -0.0792(16) 0.4809(15) -0.0602(9)
O85 O -0.3014(13) 0.0689(12) 0.5978(8)
O86 O -0.336(3) 0.374(3) -0.1088(16)
O87 O -0.219(3) 0.276(3) 0.6021(17)
O88 O 0.3185(8) 0.2447(7) 0.3625(5)
O89 O -0.2695(8) 0.0612(7) 0.7246(5)
O90 O 0.3461(19) 0.3935(18) 0.2120(11)
O91 O -0.286(2) 0.4608(18) -0.1902(12)
O92 O -0.1924(10) 0.2928(9) -0.0261(6)
Na1 Na -0.0629(5) 0.4089(4) 0.0179(3)
Na2 Na 0.3788(6) 0.2702(6) 0.2483(4)
Na3 Na -0.2626(16) 0.1755(15) 0.6556(11)
Cs1 Cs 0.33524(7) 0.03356(6) 0.14008(4)
Cs2 Cs -0.04634(7) 0.14876(6) 0.01684(4)
Cs3 Cs -0.1338(5) 0.3955(4) 0.5458(2)
Cs4 Cs -0.1533(4) 0.2811(3) -0.1655(3)
O93 O -0.0510(9) 0.3436(9) 0.6735(5)
O94 O -0.0568(10) 0.4664(10) -0.1690(6)
O95 O -0.0390(14) -0.0701(13) 0.4521(8)
O96 O -0.3426(12) 0.4425(11) -0.2820(7)
O97 O -0.4439(12) 0.4433(11) 0.0859(7)
O98 O -0.4749(10) -0.3910(9) 0.2369(6)
O99 O -0.3501(14) 0.5471(13) 0.5784(8)
O100 O 0.197(2) 0.3226(19) 0.1329(12)
Cs5? Cs -0.1650(3) 0.4240(2) 0.53186(16)
O2* O -0.1377(6) -0.4297(6) 0.3919(4)
O6A O -0.1369(7) -0.3497(6) 0.5118(4)
O41A O -0.4336(6) 0.1135(5) -0.0169(3)
Gd2A Gd -0.63550(4) -0.16403(4) -0.08309(3)
Gd3* Gd -0.24912(5) 0.67848(4) 0.42929(3)
Gd3A Gd 0.24912(5) 0.32152(4) 0.57071(3)
#END
