
#######################################################################
#
#                 Cambridge Crystallographic Data Centre
#                                CCDC
#
#######################################################################
#
# If this CIF has been generated from an entry in the Cambridge
# Structural Database, then it will include bibliographic, chemical,
# crystal, experimental, refinement or atomic coordinate data resulting
# from the CCDC's data processing and validation procedures.
#
#######################################################################

data_CSD_CIF_FUTYOK
_audit_creation_date 2015-09-11
_audit_creation_method CSD-ConQuest-V1
_database_code_CSD FUTYOK
_database_code_depnum_ccdc_archive 'CCDC 1423779'
_chemical_formula_sum 'C14.25 H17.75 N1.25 O6.25 Zn1'
_chemical_formula_moiety
;
(C9 H3 O6 Zn1 1-)n,0.25n(C5 H11 N1 O1),n(C4 H12 N1 1+)
;
_journal_coden_Cambridge 1147
_journal_volume 14
_journal_year 2014
_journal_page_first 5452
_journal_name_full 'Cryst.Growth Des. '
loop_
_publ_author_name
"C.Ordonez"
"M.Fonari"
"J.Lindline"
"Qiang Wei"
"T.Timofeeva"
_chemical_name_systematic
;
catena-[diethylammonium (\m-benzene-1,3,5-tricarboxylato)-zinc 
N,N-diethylformamide solvate]
;
_cell_volume   1763.711
_exptl_crystal_density_diffrn 1.401
_diffrn_ambient_temperature 100
_refine_special_details
;
C1S,C2S,C3S,C4S,C5S,N1S,O1S disordered by symmetry over two configurations 
with occupancy 0.25.
;
#These two values have been output from a single CSD field.
_refine_ls_R_factor_gt 0.0407
_refine_ls_wR_factor_gt 0.0407
_symmetry_cell_setting monoclinic
_symmetry_space_group_name_H-M 'P 21/n'
_symmetry_Int_Tables_number 14
loop_
_symmetry_equiv_pos_site_id
_symmetry_equiv_pos_as_xyz
1 x,y,z
2 1/2-x,1/2+y,1/2-z
3 -x,-y,-z
4 -1/2+x,-1/2-y,-1/2+z
_cell_length_a 9.509(3)
_cell_length_b 15.180(4)
_cell_length_c 12.246(3)
_cell_angle_alpha 90
_cell_angle_beta 93.835(4)
_cell_angle_gamma 90
_cell_formula_units_Z 4
loop_
_atom_type_symbol
_atom_type_radius_bond
C 0.68
H 0.23
N 0.68
O 0.68
Zn 1.22
loop_
_atom_site_label
_atom_site_type_symbol
_atom_site_fract_x
_atom_site_fract_y
_atom_site_fract_z
Zn1 Zn 0.14215(2) 0.078275(16) 0.447606(19)
O1 O 0.97616(15) 0.07106(10) 0.34236(12)
O2 O 0.31380(16) 0.06654(10) 0.37070(13)
O3 O 0.82106(16) 0.02645(11) 0.45990(14)
O4 O 0.58776(16) 0.32560(11) 0.04185(13)
C1 C 0.5192(2) 0.20645(16) 0.20338(19)
H1 H 0.44690 0.24000 0.16940
C2 C 0.3405(2) 0.13600(15) 0.31792(18)
O5 O 0.25548(17) 0.19676(13) 0.29921(16)
C3 C 0.4880(2) 0.14399(15) 0.28116(18)
C4 C 0.7356(2) 0.10802(15) 0.30724(17)
C5 C 0.5962(2) 0.09459(14) 0.33271(17)
H2 H 0.57570 0.05240 0.38440
C6 C 0.6576(2) 0.21942(16) 0.17573(19)
C7 C 0.8530(2) 0.06370(14) 0.37421(17)
O6 O 0.81628(19) 0.31415(15) 0.08961(18)
C8 C 0.7654(2) 0.16964(15) 0.22781(19)
H3 H 0.85780 0.17760 0.20940
C9 C 0.6919(2) 0.29087(17) 0.0968(2)
N1 N 0.5723(3) 0.18204(17) 0.7078(2)
H4 H 0.48360 0.19030 0.67920
H5 H 0.60160 0.23300 0.73920
C10 C 0.6632(3) 0.1613(2) 0.6183(3)
H6 H 0.62700 0.10980 0.57880
H7 H 0.75780 0.14800 0.64840
C11 C 0.6677(4) 0.2374(3) 0.5419(3)
H8 H 0.57540 0.24730 0.50750
H9 H 0.73230 0.22490 0.48690
H10 H 0.69830 0.28910 0.58190
C12 C 0.5707(5) 0.1136(2) 0.7933(3)
H11 H 0.66380 0.10790 0.83020
H12 H 0.54480 0.05720 0.76040
C13 C 0.4660(5) 0.1389(3) 0.8743(3)
H13 H 0.49570 0.19260 0.91030
H14 H 0.46030 0.09300 0.92770
H15 H 0.37520 0.14740 0.83680
C14 C 0.0207(5) 0.0961(3) -0.1603(3)
H16 H -0.06280 0.12880 -0.14660
H17 H 0.02230 0.08460 -0.23730
H18 H 0.10240 0.12970 -0.13610
C15 C 0.2282(5) -0.0010(3) -0.0218(3)
H19 H 0.25710 -0.02380 -0.08710
N2 N 0.0689(5) 0.0077(3) 0.0124(3)
C16 C 0.0852(5) 0.0160(3) 0.1177(3)
H20 H 0.02140 0.05870 0.14640
H21 H 0.18170 0.02890 0.14340
C17 C 0.0402(5) -0.0848(3) 0.1404(3)
H22 H -0.06070 -0.08890 0.13850
H23 H 0.07970 -0.10280 0.21100
H24 H 0.07470 -0.12230 0.08510
C18 C 0.0207(5) -0.0024(3) -0.0900(3)
H25 H -0.07460 -0.02550 -0.09200
H26 H 0.07880 -0.04470 -0.12550
O7 O 0.2993(5) 0.0259(3) 0.0491(3)
Zn1* Zn 1.14215(2) 0.078275(16) 0.447606(19)
Zn1B Zn 0.85785(2) -0.078275(16) 0.552394(19)
Zn1C Zn 0.64215(2) 0.421725(16) -0.052394(19)
O1* O -0.02384(15) 0.07106(10) 0.34236(12)
O3B O 0.17894(16) -0.02645(11) 0.54010(14)
O4C O 0.08776(16) 0.17440(11) 0.54185(13)
C14B C -0.0207(5) -0.0961(3) 0.1603(3)
H16B H 0.06280 -0.12880 0.14660
H17B H -0.02230 -0.08460 0.23730
H18B H -0.10240 -0.12970 0.13610
C15B C -0.2282(5) 0.0010(3) 0.0218(3)
H19B H -0.25710 0.02380 0.08710
N2B N -0.0689(5) -0.0077(3) -0.0124(3)
C16B C -0.0852(5) -0.0160(3) -0.1177(3)
H20B H -0.02140 -0.05870 -0.14640
H21B H -0.18170 -0.02890 -0.14340
C17B C -0.0402(5) 0.0848(3) -0.1404(3)
H22B H 0.06070 0.08890 -0.13850
H23B H -0.07970 0.10280 -0.21100
H24B H -0.07470 0.12230 -0.08510
C18B C -0.0207(5) 0.0024(3) 0.0900(3)
H25B H 0.07460 0.02550 0.09200
H26B H -0.07880 0.04470 0.12550
O7B O -0.2993(5) -0.0259(3) -0.0491(3)
#END
