
#######################################################################
#
#                 Cambridge Crystallographic Data Centre
#                                CCDC
#
#######################################################################
#
# If this CIF has been generated from an entry in the Cambridge
# Structural Database, then it will include bibliographic, chemical,
# crystal, experimental, refinement or atomic coordinate data resulting
# from the CCDC's data processing and validation procedures.
#
#######################################################################

data_CSD_CIF_FUTYIE
_audit_creation_date 2015-09-11
_audit_creation_method CSD-ConQuest-V1
_database_code_CSD FUTYIE
_database_code_depnum_ccdc_archive 'CCDC 1423778'
_chemical_formula_sum 'C10 H16 N4 O7 Zn1'
_chemical_formula_moiety
;
(C9 H9 N2 O6 Zn1 1-)n,n(C1 H3 N1 O1),n(H4 N1 1+)
;
_journal_coden_Cambridge 1147
_journal_volume 14
_journal_year 2014
_journal_page_first 5452
_journal_name_full 'Cryst.Growth Des. '
loop_
_publ_author_name
"C.Ordonez"
"M.Fonari"
"J.Lindline"
"Qiang Wei"
"T.Timofeeva"
_chemical_name_systematic
;
catena-[ammonium (\m-benzene-1,3,5-tricarboxylato)-bis(ammine)-zinc(ii) 
formamide solvate]
;
_cell_volume    720.765
_exptl_crystal_density_diffrn 1.703
_diffrn_ambient_temperature 100
#These two values have been output from a single CSD field.
_refine_ls_R_factor_gt 0.0244
_refine_ls_wR_factor_gt 0.0244
_symmetry_cell_setting triclinic
_symmetry_space_group_name_H-M 'P -1'
_symmetry_Int_Tables_number 2
loop_
_symmetry_equiv_pos_site_id
_symmetry_equiv_pos_as_xyz
1 x,y,z
2 -x,-y,-z
_cell_length_a 8.333(3)
_cell_length_b 9.780(4)
_cell_length_c 10.670(4)
_cell_angle_alpha 67.335(5)
_cell_angle_beta 68.389(5)
_cell_angle_gamma 68.702(5)
_cell_formula_units_Z 2
loop_
_atom_type_symbol
_atom_type_radius_bond
C 0.68
H 0.23
N 0.68
O 0.68
Zn 1.22
loop_
_atom_site_label
_atom_site_type_symbol
_atom_site_fract_x
_atom_site_fract_y
_atom_site_fract_z
Zn1 Zn 0.30902(3) 0.06347(2) 0.21798(2)
N1 N 0.2024(2) 0.0133(2) 0.10667(18)
O1 O 0.12055(17) 0.17499(14) 0.35501(13)
O2 O 0.06464(16) 0.33961(14) 0.15443(13)
O3 O -0.56821(17) 0.87917(14) 0.34748(13)
O4 O -0.42381(17) 0.80935(15) 0.15099(13)
O5 O -0.42964(17) 0.53910(15) 0.79752(13)
O6 O -0.22098(18) 0.31718(14) 0.80584(13)
C1 C 0.0347(2) 0.3020(2) 0.28547(19)
C2 C -0.1090(2) 0.4069(2) 0.36646(19)
C3 C -0.2109(2) 0.5411(2) 0.29329(19)
H1 H -0.18750 0.56420 0.19620
C4 C -0.1434(2) 0.3741(2) 0.51178(19)
H2 H -0.07600 0.28470 0.56130
C5 C -0.4531(2) 0.7850(2) 0.27960(19)
C6 C -0.3806(2) 0.6065(2) 0.50896(19)
H3 H -0.47210 0.67230 0.55660
C7 C -0.2775(2) 0.4736(2) 0.58341(19)
C8 C -0.3127(2) 0.4400(2) 0.74110(19)
C9 C -0.3469(2) 0.6409(2) 0.36318(19)
N2 N 0.4801(2) 0.19682(19) 0.10974(18)
H4 H 0.446(3) 0.276(3) 0.132(2)
H5 H 0.488(3) 0.222(3) 0.021(3)
H6 H 0.257(3) 0.049(3) 0.020(3)
H7 H 0.215(3) -0.084(3) 0.126(3)
H8 H 0.094(4) 0.057(3) 0.115(3)
H9 H 0.584(3) 0.159(3) 0.125(3)
N3 N 0.2235(2) 0.5883(2) 0.97801(19)
H10 H 0.221(3) 0.631(3) 1.036(3)
H11 H 0.172(3) 0.512(3) 1.027(3)
H12 H 0.333(3) 0.559(3) 0.923(3)
H13 H 0.154(4) 0.650(3) 0.926(3)
N4 N 0.7082(2) 0.9375(2) 0.4227(2)
O7 O 0.80295(19) 1.10463(18) 0.21247(16)
C10 C 0.8110(3) 1.0272(2) 0.3335(2)
H14 H 0.730(4) 0.887(3) 0.497(3)
H15 H 0.623(3) 0.928(3) 0.401(3)
H16 H 0.904(3) 1.026(3) 0.369(2)
Zn1* Zn -0.69098(3) 1.06347(2) 0.21798(2)
O3* O 0.43179(17) -0.12083(14) 0.34748(13)
#END
