
#######################################################################
#
#                 Cambridge Crystallographic Data Centre
#                                CCDC
#
#######################################################################
#
# If this CIF has been generated from an entry in the Cambridge
# Structural Database, then it will include bibliographic, chemical,
# crystal, experimental, refinement or atomic coordinate data resulting
# from the CCDC's data processing and validation procedures.
#
#######################################################################

data_CSD_CIF_FUTZOL
_audit_creation_date 2015-09-11
_audit_creation_method CSD-ConQuest-V1
_database_code_CSD FUTZOL
_database_code_depnum_ccdc_archive 'CCDC 1423784'
_chemical_formula_sum 'C96 H134 N10 O39 Zn5'
_chemical_formula_moiety
;
(C54 H18 O36 Zn5 8-)n,8n(C4 H12 N1 1+),2n(C5 H9 N1 O1),n(H2 O1)
;
_journal_coden_Cambridge 1147
_journal_volume 14
_journal_year 2014
_journal_page_first 5452
_journal_name_full 'Cryst.Growth Des. '
loop_
_publ_author_name
"C.Ordonez"
"M.Fonari"
"J.Lindline"
"Qiang Wei"
"T.Timofeeva"
_chemical_name_systematic
;
catena-[octakis(tetramethylammonium) 
hexakis(\m-benzene-1,3,5-tricarboxylato)-penta-zinc 1-methylpyrrolidin-2-one 
solvate monohydrate]
;
_cell_volume  11697.426
_exptl_crystal_density_diffrn 1.351
_diffrn_ambient_temperature 100
#These two values have been output from a single CSD field.
_refine_ls_R_factor_gt 0.0795
_refine_ls_wR_factor_gt 0.0795
_symmetry_cell_setting monoclinic
_symmetry_space_group_name_H-M 'P 21/n'
_symmetry_Int_Tables_number 14
loop_
_symmetry_equiv_pos_site_id
_symmetry_equiv_pos_as_xyz
1 x,y,z
2 1/2-x,1/2+y,1/2-z
3 -x,-y,-z
4 -1/2+x,-1/2-y,-1/2+z
_cell_length_a 23.31(2)
_cell_length_b 18.952(18)
_cell_length_c 26.57(2)
_cell_angle_alpha 90
_cell_angle_beta 94.757(14)
_cell_angle_gamma 90
_cell_formula_units_Z 4
loop_
_atom_type_symbol
_atom_type_radius_bond
C 0.68
H 0.23
N 0.68
O 0.68
Zn 1.22
loop_
_atom_site_label
_atom_site_type_symbol
_atom_site_fract_x
_atom_site_fract_y
_atom_site_fract_z
Zn1 Zn 0.95932(7) 1.27808(9) 0.19323(6)
Zn2 Zn 1.03422(7) 1.26088(9) 0.31804(6)
Zn3 Zn 0.86825(7) 0.77568(9) 0.31884(7)
Zn4 Zn 1.12953(7) 0.76305(9) 0.17881(6)
Zn5 Zn 0.72263(8) 0.40989(9) 0.50160(6)
O1 O 0.9222(4) 1.2241(5) 0.1390(4)
O2 O 0.9227(5) 1.3088(6) 0.0798(4)
O3 O 0.8985(5) 0.3935(6) 0.2079(4)
O4 O 0.9887(5) 0.3752(5) 0.1935(4)
O5 O 0.9146(4) 1.2497(5) 0.2504(4)
O6 O 0.9589(4) 1.3087(5) 0.3157(4)
O7 O 1.0358(4) 1.2310(5) 0.2006(3)
O8 O 1.0833(4) 1.2881(5) 0.2654(3)
O9 O 0.9348(5) 0.7243(7) 0.6121(4)
O10 O 1.0113(5) 1.1623(6) 0.3131(4)
O11 O 0.9057(4) 0.6190(6) 0.6353(4)
O12 O 1.1045(5) 1.1419(5) 0.3069(4)
O13 O 1.0876(4) 0.8414(6) 0.2058(4)
O14 O 1.1617(5) 0.9035(6) 0.2419(4)
O15 O 0.8714(5) 0.9515(6) 0.3021(4)
O16 O 0.9226(4) 0.8525(7) 0.3141(4)
O17 O 0.9147(8) 0.7944(9) 0.4307(5)
O18 O 0.8400(5) 0.7504(5) 0.3832(4)
O19 O 0.9179(4) 0.6984(6) 0.3021(4)
O20 O 0.8455(5) 0.6223(6) 0.2855(5)
O21 O 0.8729(5) 1.2312(6) -0.1036(4)
O22 O 0.8291(5) 1.1286(7) -0.1150(4)
O23 O 1.0720(4) 0.6882(7) 0.1832(4)
O24 O 1.1252(5) 0.5880(6) 0.1922(4)
O25 O 0.6529(5) 1.2883(8) 0.2867(4)
O26 O 0.7046(4) 1.2889(5) 0.2195(4)
O27 O 1.3411(5) 1.2257(6) 0.2187(4)
O28 O 1.2945(4) 1.2438(5) 0.2873(4)
O29 O 0.7729(5) 0.4898(5) 0.5176(4)
O30 O 0.7578(4) 0.5212(6) 0.4360(5)
O31 O 0.8541(4) 0.9474(6) 0.0174(4)
O32 O 0.8925(5) 0.9805(5) 0.0936(5)
O33 O 1.2255(5) 1.1348(6) 0.0677(4)
O34 O 1.1426(5) 1.1905(6) 0.0460(4)
O35 O 0.8437(5) 1.3524(7) 0.4641(4)
O36 O 0.7485(4) 1.3467(5) 0.4510(3)
C1 C 0.9144(6) 1.2479(10) 0.0922(7)
C2 C 0.8935(6) 1.1910(8) 0.0539(5)
C3 C 0.9150(7) 1.2826(9) 0.2912(7)
C4 C 0.8828(6) 1.2109(8) 0.0018(5)
H1 H 0.88860 1.25700 -0.00870
C5 C 0.8634(6) 1.1581(8) -0.0325(6)
C6 C 0.8567(6) 1.0901(8) -0.0157(5)
H2 H 0.84230 1.05630 -0.03880
C7 C 0.8703(6) 1.0693(8) 0.0341(5)
C8 C 0.8889(6) 1.1231(8) 0.0692(6)
H3 H 0.89800 1.11160 0.10300
C9 C 0.9487(9) 0.4115(10) 0.2063(6)
C10 C 0.8581(7) 1.2913(8) 0.3126(6)
C11 C 0.8554(6) 1.3083(8) 0.3639(6)
H4 H 0.88890 1.31050 0.38540
C12 C 1.0811(7) 1.2562(8) 0.2237(6)
C13 C 1.1369(6) 1.2415(7) 0.2008(5)
C14 C 1.1370(6) 1.2230(7) 0.1503(5)
H5 H 1.10290 1.22500 0.12960
C15 C 1.1876(6) 1.2464(7) 0.2288(5)
H6 H 1.18770 1.26260 0.26190
C16 C 0.9101(7) 0.6656(11) 0.6033(7)
C17 C 1.0529(9) 1.1232(9) 0.3051(6)
C18 C 1.0388(6) 1.0467(8) 0.2920(5)
C19 C 0.9841(6) 1.0199(8) 0.2989(5)
H7 H 0.95630 1.04890 0.31130
C20 C 0.9714(6) 0.9510(8) 0.2872(5)
C21 C 1.0122(6) 0.9086(8) 0.2650(5)
H8 H 1.00260 0.86280 0.25480
C22 C 1.0664(6) 0.9350(8) 0.2583(5)
C23 C 1.0795(7) 1.0019(7) 0.2738(5)
H9 H 1.11690 1.01820 0.27220
C24 C 0.9162(8) 0.9175(11) 0.3021(5)
C25 C 1.2968(8) 1.2319(8) 0.2386(7)
C26 C 1.1087(9) 0.8906(9) 0.2336(6)
C27 C 0.8734(9) 0.7532(11) 0.4229(8)
C28 C 1.2369(7) 1.2050(7) 0.1607(7)
H10 H 1.27070 1.19070 0.14740
C29 C 0.8638(7) 0.7017(9) 0.4641(6)
C30 C 0.8912(7) 0.7081(9) 0.5125(8)
H11 H 0.91670 0.74520 0.51930
C31 C 0.8816(7) 0.6612(9) 0.5509(6)
C32 C 0.8451(8) 0.6047(10) 0.5396(7)
H12 H 0.83900 0.57200 0.56470
C33 C 0.8167(7) 0.5950(9) 0.4910(7)
C34 C 0.8267(6) 0.6439(9) 0.4543(6)
H13 H 0.80840 0.63850 0.42200
C35 C 0.7793(6) 0.5324(10) 0.4797(8)
C36 C 0.6987(8) 1.2925(9) 0.2681(7)
C37 C 0.7544(7) 1.2995(7) 0.3009(6)
C38 C 0.8077(7) 1.2894(7) 0.2826(6)
H14 H 0.80920 1.28080 0.24830
C39 C 0.8963(10) 0.6433(11) 0.2822(6)
C40 C 0.9378(8) 0.6024(9) 0.2523(6)
C41 C 0.9231(7) 0.5326(11) 0.2399(6)
H15 H 0.88740 0.51450 0.24660
C42 C 0.9632(9) 0.4906(9) 0.2174(6)
C43 C 1.0153(8) 0.5187(10) 0.2053(5)
H16 H 1.04260 0.49010 0.19180
C44 C 1.0265(7) 0.5903(9) 0.2137(6)
C45 C 0.9880(8) 0.6305(9) 0.2378(6)
H17 H 0.99630 0.67780 0.24450
C46 C 1.0801(9) 0.6220(12) 0.1951(6)
C47 C 0.8720(7) 0.9938(8) 0.0516(7)
C48 C 0.7993(8) 1.3427(8) 0.4371(6)
C49 C 0.8018(6) 1.3218(8) 0.3826(6)
C50 C 0.7524(6) 1.3176(8) 0.3511(6)
H18 H 0.71710 1.32690 0.36360
C51 C 1.1844(9) 1.1744(9) 0.0767(6)
C52 C 0.8533(8) 1.1731(11) -0.0872(6)
C53 C 1.2393(7) 1.2285(7) 0.2106(6)
C54 C 1.1861(7) 1.2022(8) 0.1306(6)
N1 N 0.3024(6) 0.9815(7) 0.2087(5)
C55 C 0.2707(9) 0.9374(11) 0.1687(7)
H19 H 0.29730 0.90660 0.15390
H20 H 0.25260 0.96760 0.14310
H21 H 0.24200 0.90980 0.18350
C56 C 0.3295(9) 0.9348(10) 0.2481(9)
H22 H 0.34460 0.96260 0.27640
H23 H 0.36030 0.90900 0.23470
H24 H 0.30140 0.90230 0.25880
C57 C 0.3466(8) 1.0233(11) 0.1839(7)
H25 H 0.36550 1.05510 0.20800
H26 H 0.32820 1.04970 0.15630
H27 H 0.37440 0.99180 0.17150
C58 C 0.2617(8) 1.0301(10) 0.2313(7)
H28 H 0.23210 1.00320 0.24550
H29 H 0.24450 1.06100 0.20560
H30 H 0.28200 1.05760 0.25740
N2 N 0.0440(6) 0.5093(8) 0.6011(5)
C59 C 0.1040(7) 0.5156(10) 0.6271(6)
H31 H 0.13070 0.52650 0.60260
H32 H 0.11470 0.47180 0.64340
H33 H 0.10470 0.55260 0.65190
C60 C 0.0282(8) 0.5773(10) 0.5749(7)
H34 H 0.05530 0.58730 0.55050
H35 H 0.02900 0.61470 0.59930
H36 H -0.00970 0.57350 0.55810
C61 C 0.0416(7) 0.4503(9) 0.5640(7)
H37 H 0.00280 0.44470 0.54940
H38 H 0.05410 0.40750 0.58080
H39 H 0.06630 0.46070 0.53780
C62 C 0.0005(7) 0.497(1) 0.6398(7)
H40 H 0.00670 0.53060 0.66670
H41 H 0.00500 0.45010 0.65320
H42 H -0.03780 0.50240 0.62390
N3 N 0.2230(6) 0.1669(7) 0.4002(5)
C63 C 0.1701(7) 0.1408(10) 0.4227(6)
H43 H 0.16010 0.17290 0.44850
H44 H 0.17750 0.09490 0.43720
H45 H 0.13890 0.13770 0.39690
C64 C 0.2362(7) 0.1187(9) 0.3572(7)
H46 H 0.24470 0.07220 0.37010
H47 H 0.26880 0.13660 0.34140
H48 H 0.20350 0.11670 0.33280
C65 C 0.2723(8) 0.1702(10) 0.4383(7)
H49 H 0.26500 0.20490 0.46330
H50 H 0.30630 0.18290 0.42240
H51 H 0.27780 0.12490 0.45420
C66 C 0.2116(7) 0.2374(10) 0.3785(7)
H52 H 0.18060 0.23460 0.35240
H53 H 0.24560 0.25460 0.36450
H54 H 0.20110 0.26890 0.40450
N4 N 0.7760(6) 0.4022(10) 0.1210(6)
C67 C 0.7207(8) 0.4112(17) 0.0896(11)
H55 H 0.72530 0.39590 0.05580
H56 H 0.70980 0.46010 0.08930
H57 H 0.69140 0.38360 0.10350
C68 C 0.7897(9) 0.3290(13) 0.1295(8)
H58 H 0.79120 0.30550 0.09760
H59 H 0.76070 0.30750 0.14800
H60 H 0.82640 0.32510 0.14850
C69 C 0.8238(9) 0.4385(13) 0.1000(9)
H61 H 0.85880 0.42910 0.12070
H62 H 0.81660 0.48830 0.09930
H63 H 0.82760 0.42180 0.06630
C70 C 0.7658(10) 0.4361(11) 0.1706(9)
H64 H 0.73320 0.41440 0.18410
H65 H 0.75840 0.48550 0.16550
H66 H 0.79920 0.43010 0.19380
N5 N 0.6972(6) 0.5758(7) 0.2943(5)
C71 C 0.7161(7) 0.6299(9) 0.3322(6)
H67 H 0.71400 0.61090 0.36550
H68 H 0.69140 0.67040 0.32800
H69 H 0.75500 0.64360 0.32780
C72 C 0.7328(7) 0.5111(9) 0.3040(6)
H70 H 0.77220 0.52160 0.29900
H71 H 0.71910 0.47450 0.28100
H72 H 0.73000 0.49570 0.33810
C73 C 0.6355(7) 0.5565(10) 0.3003(6)
H73 H 0.63290 0.53470 0.33260
H74 H 0.62220 0.52420 0.27410
H75 H 0.61230 0.59830 0.29800
C74 C 0.7031(8) 0.6013(10) 0.2424(6)
H76 H 0.67900 0.64190 0.23590
H77 H 0.69160 0.56470 0.21870
H78 H 0.74250 0.61390 0.23900
N6 N 0.0531(6) 0.0310(7) 0.1168(5)
C75 C 0.1139(7) 0.0314(9) 0.1376(6)
H79 H 0.12610 0.07910 0.14430
H80 H 0.13750 0.01060 0.11360
H81 H 0.11770 0.00470 0.16850
C76 C 0.0164(7) 0.0600(9) 0.1546(6)
H82 H 0.02160 0.03260 0.18510
H83 H -0.02320 0.05800 0.14160
H84 H 0.02710 0.10810 0.16170
C77 C 0.0340(7) -0.0444(10) 0.1042(7)
H85 H 0.05370 -0.06120 0.07620
H86 H -0.00680 -0.04530 0.09550
H87 H 0.04320 -0.07410 0.13300
C78 C 0.0452(8) 0.0721(9) 0.0689(6)
H88 H 0.05830 0.11960 0.07490
H89 H 0.00520 0.07250 0.05700
H90 H 0.06710 0.05050 0.04400
N7 N 0.0731(7) 0.7502(10) 0.3919(6)
C79 C 0.041(1) 0.7434(13) 0.4373(9)
H91 H 0.00680 0.77190 0.43340
H92 H 0.06480 0.75900 0.46640
H93 H 0.03050 0.69490 0.44170
C80 C 0.054(1) 0.8121(14) 0.3657(9)
H94 H 0.06780 0.81220 0.33270
H95 H 0.06850 0.85280 0.38410
H96 H 0.01270 0.81330 0.36270
C81 C 0.1356(10) 0.7532(13) 0.4069(9)
H97 H 0.15550 0.72130 0.38620
H98 H 0.14260 0.73990 0.44170
H99 H 0.14940 0.80030 0.40240
C82 C 0.064(1) 0.6873(14) 0.3605(10)
H100 H 0.02390 0.67510 0.35770
H101 H 0.08600 0.64880 0.37560
H102 H 0.07620 0.69650 0.32740
N8 N 0.9371(6) 0.7619(9) 0.1013(5)
C83 C 0.9793(10) 0.7728(19) 0.0621(9)
H103 H 0.97650 0.73430 0.03860
H104 H 1.01760 0.77500 0.07830
H105 H 0.97060 0.81620 0.04440
C84 C 0.8796(8) 0.7802(12) 0.0780(8)
H106 H 0.87470 0.76050 0.04460
H107 H 0.87580 0.83060 0.07610
H108 H 0.85090 0.76130 0.09810
C85 C 0.9395(12) 0.6885(12) 0.1173(9)
H109 H 0.90330 0.67540 0.12950
H110 H 0.96960 0.68270 0.14390
H111 H 0.94710 0.65900 0.08930
C86 C 0.9514(8) 0.8074(10) 0.1446(7)
H112 H 0.92030 0.80710 0.16610
H113 H 0.95770 0.85460 0.13330
H114 H 0.98570 0.79030 0.16320
O37 O 0.8993(8) 0.5789(11) 1.0245(7)
N9 N 0.9398(12) 0.5465(18) 0.9512(11)
C87 C 0.9147(14) 0.533(2) 0.9908(14)
C88 C 0.9054(13) 0.4569(18) 0.9933(10)
H115 H 0.92070 0.43820 1.02570
H116 H 0.86470 0.44580 0.98840
C89 C 0.9361(13) 0.4283(18) 0.9527(10)
H117 H 0.91380 0.39120 0.93520
H118 H 0.97280 0.40890 0.96580
C90 C 0.9451(13) 0.4899(18) 0.9167(12)
H119 H 0.98290 0.48860 0.90390
H120 H 0.91560 0.49150 0.88880
C91 C 0.9414(14) 0.624(2) 0.9302(13)
H121 H 0.92310 0.65490 0.95230
H122 H 0.92140 0.62520 0.89710
H123 H 0.98070 0.63780 0.92820
O38 O 0.2443(6) 1.0056(8) 0.4725(5)
N10 N 0.2612(11) 0.8868(14) 0.4512(9)
C92 C 0.2509(14) 0.946(2) 0.4807(13)
C93 C 0.2487(15) 0.8987(17) 0.5371(12)
H124 H 0.28440 0.90420 0.55820
H125 H 0.21710 0.91450 0.55580
C94 C 0.2410(12) 0.8294(14) 0.5221(10)
H126 H 0.20020 0.81890 0.51640
H127 H 0.25780 0.79800 0.54810
C95 C 0.2693(14) 0.8192(17) 0.4749(12)
H128 H 0.30990 0.80820 0.48180
H129 H 0.25090 0.78200 0.45430
C96 C 0.2799(9) 0.9070(13) 0.3973(9)
H130 H 0.24630 0.91050 0.37390
H131 H 0.30500 0.87120 0.38600
H132 H 0.29960 0.95150 0.39910
O39 O 0.0856(9) 0.8860(13) 0.5988(9)
N11 N 0.0962(9) 0.9399(13) 0.5230(9)
C97 C 0.0825(9) 0.9505(13) 0.5686(9)
C98 C 0.0572(9) 1.0168(13) 0.5724(9)
H133 H 0.07310 1.04210 0.60220
H134 H 0.01580 1.01350 0.57290
C99 C 0.076(3) 1.054(3) 0.520(2)
H135 H 0.04170 1.06590 0.49800
H136 H 0.09730 1.09690 0.52760
C100 C 0.097(3) 1.024(3) 0.504(2)
H137 H 0.13700 1.04000 0.50800
H138 H 0.08530 1.02500 0.46820
C101 C 0.1023(12) 0.8926(15) 0.4829(11)
H139 H 0.12190 0.85090 0.49560
H140 H 0.12420 0.91460 0.45820
H141 H 0.06500 0.88000 0.46760
O40 O 0.8911(5) 0.4335(7) 0.5422(4)
H142 H 0.884(6) 0.415(9) 0.513(3)
H143 H 0.863(4) 0.433(10) 0.561(4)
Zn1* Zn 0.95932(7) 0.27808(9) 0.19323(6)
Zn2B Zn 0.96578(7) 0.73912(9) 0.68196(6)
Zn3A Zn 0.63175(7) 1.27568(9) 0.18116(7)
Zn4A Zn 1.37047(7) 1.26305(9) 0.32119(6)
Zn4B Zn 0.87047(7) 1.23695(9) -0.17881(6)
Zn5* Zn 0.72263(8) 1.40989(9) 0.50160(6)
Zn5A Zn 0.77737(8) 0.90989(9) -0.00160(6)
Zn5C Zn 1.22263(8) 1.09011(9) 0.00160(6)
O4* O 0.9887(5) 1.3752(5) 0.1935(4)
O9B O 1.0652(5) 1.2757(7) 0.3879(4)
O21B O 1.1271(5) 0.7688(6) 0.1036(4)
O26A O 0.7954(4) 0.7889(5) 0.2805(4)
O28A O 1.2055(4) 0.7438(5) 0.2127(4)
O31A O 0.6459(4) 0.4474(6) 0.4826(4)
O33C O 0.7255(5) 0.3652(6) 0.5677(4)
O36* O 0.7485(4) 0.3467(5) 0.4510(3)
#END
