
#######################################################################
#
#                 Cambridge Crystallographic Data Centre
#                                CCDC
#
#######################################################################
#
# If this CIF has been generated from an entry in the Cambridge
# Structural Database, then it will include bibliographic, chemical,
# crystal, experimental, refinement or atomic coordinate data resulting
# from the CCDC's data processing and validation procedures.
#
#######################################################################

data_CSD_CIF_FUTZAX
_audit_creation_date 2015-09-11
_audit_creation_method CSD-ConQuest-V1
_database_code_CSD FUTZAX
_database_code_depnum_ccdc_archive 'CCDC 1423781'
_chemical_formula_sum 'C38 H38 N2 O12 Zn2'
_chemical_formula_moiety
;
(C18 H6 O12 Zn2 2-)n,2n(C10 H16 N1 1+)
;
_journal_coden_Cambridge 1147
_journal_volume 14
_journal_year 2014
_journal_page_first 5452
_journal_name_full 'Cryst.Growth Des. '
loop_
_publ_author_name
"C.Ordonez"
"M.Fonari"
"J.Lindline"
"Qiang Wei"
"T.Timofeeva"
_chemical_name_systematic
;
catena-[bis(benzyl(trimethyl)ammonium) 
bis(\m-benzene-1,3,5-tricarboxylato)-di-zinc]
;
_cell_volume   3783.452
_exptl_crystal_density_diffrn 1.484
_diffrn_ambient_temperature 100
#These two values have been output from a single CSD field.
_refine_ls_R_factor_gt 0.0476
_refine_ls_wR_factor_gt 0.0476
_symmetry_cell_setting orthorhombic
_symmetry_space_group_name_H-M 'P n a 21'
_symmetry_Int_Tables_number 33
loop_
_symmetry_equiv_pos_site_id
_symmetry_equiv_pos_as_xyz
1 x,y,z
2 -x,-y,1/2+z
3 1/2+x,1/2-y,z
4 1/2-x,1/2+y,1/2+z
_cell_length_a 32.407(6)
_cell_length_b 9.5750(18)
_cell_length_c 12.193(2)
_cell_angle_alpha 90
_cell_angle_beta 90
_cell_angle_gamma 90
_cell_formula_units_Z 4
loop_
_atom_type_symbol
_atom_type_radius_bond
C 0.68
H 0.23
N 0.68
O 0.68
Zn 1.22
loop_
_atom_site_label
_atom_site_type_symbol
_atom_site_fract_x
_atom_site_fract_y
_atom_site_fract_z
Zn1 Zn 0.33180(3) 0.45653(9) 0.39104(8)
Zn2 Zn 0.41776(3) 0.7562(1) 0.43638(9)
O1 O 0.1630(2) 0.7779(7) 0.8162(7)
O2 O 0.1416(2) 0.2764(6) 0.8956(6)
O3 O 0.1723(2) 0.1149(7) 0.7895(5)
O4 O 0.3883(2) 0.4460(6) 0.4483(7)
C1 C 0.2013(3) 0.5987(10) 0.7328(8)
O5 O 0.2909(2) 0.4961(7) 0.5012(6)
O6 O 0.5185(2) 0.4459(9) 0.8373(7)
O7 O 0.4225(2) 0.6053(7) 0.5441(6)
C2 C 0.1867(3) 0.3532(11) 0.7561(8)
C3 C 0.2372(3) 0.427(1) 0.6236(8)
O8 O 0.4233(2) -0.0551(6) 0.4935(7)
C4 C 0.5222(3) 0.3332(13) 0.7889(9)
C5 C 0.4668(3) 0.3979(10) 0.6545(8)
H1 H 0.46820 0.48870 0.68120
C6 C 0.2297(3) 0.5644(10) 0.6529(8)
H2 H 0.24420 0.63540 0.61790
O9 O 0.4848(3) -0.1060(8) 0.5604(9)
C7 C 0.4877(3) 0.1607(11) 0.6622(9)
H3 H 0.50360 0.09040 0.69370
C8 C 0.4569(4) -0.0229(11) 0.5415(10)
C9 C 0.2149(3) 0.3227(10) 0.6754(8)
H4 H 0.21910 0.23010 0.65500
C10 C 0.1797(3) 0.4908(10) 0.7812(8)
H5 H 0.15960 0.51230 0.83300
C11 C 0.2706(4) 0.3916(13) 0.5395(9)
C12 C 0.4153(3) 0.4803(12) 0.5151(9)
C13 C 0.1644(3) 0.2401(10) 0.8172(9)
C14 C 0.4394(3) 0.3675(10) 0.5703(8)
C15 C 0.4357(3) 0.2310(11) 0.5333(9)
H6 H 0.41690 0.20910 0.47830
O10 O 0.2761(3) 0.2707(8) 0.5153(9)
C16 C 0.4918(3) 0.2963(11) 0.6994(8)
O11 O 0.5500(3) 0.2437(8) 0.8045(6)
C17 C 0.4602(3) 0.1275(10) 0.5785(8)
O12 O 0.2229(3) 0.8329(8) 0.7504(7)
C18 C 0.1956(4) 0.7487(11) 0.7679(9)
N1 N 0.4229(3) 0.3354(12) 1.1031(9)
C19 C 0.3083(4) 0.4530(16) 0.8994(13)
H7 H 0.28190 0.48730 0.91320
C20 C 0.4398(4) 0.2632(19) 1.2001(13)
H8 H 0.44920 0.17190 1.17930
H9 H 0.41870 0.25480 1.25500
H10 H 0.46250 0.31600 1.22900
C21 C 0.3289(5) 0.3896(16) 0.9810(12)
H11 H 0.31850 0.38850 1.05210
C22 C 0.3243(5) 0.4687(17) 0.7987(12)
H12 H 0.31040 0.52060 0.74600
C23 C 0.4004(4) 0.4664(14) 1.1412(13)
H13 H 0.39180 0.51980 1.07850
H14 H 0.41850 0.52170 1.18570
H15 H 0.37660 0.44030 1.18340
C24 C 0.4574(4) 0.3726(15) 1.0278(11)
H16 H 0.46650 0.29050 0.98980
H17 H 0.47980 0.41080 1.06950
H18 H 0.44800 0.44060 0.97560
C25 C 0.3923(4) 0.2422(14) 1.0457(11)
H19 H 0.37350 0.20310 1.09920
H20 H 0.40690 0.16560 1.01100
C26 C 0.3670(5) 0.3245(17) 0.9560(12)
C27 C 0.3591(5) 0.4116(17) 0.7754(13)
H21 H 0.36960 0.42310 0.70500
C28 C 0.3818(5) 0.3337(18) 0.8500(11)
H22 H 0.40610 0.28920 0.82940
N2 N 0.3168(3) -0.0191(10) 0.6787(9)
C29 C 0.3313(4) -0.1596(12) 0.7217(10)
H23 H 0.30730 -0.21080 0.74710
H24 H 0.34300 -0.21160 0.66080
C30 C 0.3616(5) -0.158(2) 0.8101(13)
C31 C 0.2889(4) -0.0472(12) 0.5843(10)
H25 H 0.28210 0.03920 0.54870
H26 H 0.26410 -0.09100 0.61030
H27 H 0.30240 -0.10800 0.53310
C32 C 0.3507(4) -0.1579(17) 0.9201(12)
H28 H 0.32280 -0.15740 0.93820
C33 C 0.2960(3) 0.0605(12) 0.7645(11)
H29 H 0.28700 0.14860 0.73540
H30 H 0.31470 0.07620 0.82430
H31 H 0.27250 0.00890 0.79030
C34 C 0.3528(4) 0.0677(13) 0.6383(13)
H32 H 0.34330 0.15920 0.61860
H33 H 0.36500 0.02370 0.57530
H34 H 0.37310 0.07540 0.69540
C35 C 0.4320(5) -0.1655(17) 0.8690(13)
H35 H 0.45990 -0.17040 0.85220
C36 C 0.4040(4) -0.1653(17) 0.7855(13)
H36 H 0.41280 -0.16990 0.71300
C37 C 0.4202(4) -0.1585(17) 0.9771(12)
H37 H 0.44000 -0.15380 1.03220
C38 C 0.3791(4) -0.1585(17) 1.0032(12)
H38 H 0.37070 -0.15880 1.07610
Zn1C Zn 0.16820(3) -0.04347(9) 0.89104(8)
Zn1C* Zn 0.16820(3) 0.95653(9) 0.89104(8)
Zn2* Zn 0.41776(3) -0.2438(1) 0.43638(9)
Zn2A Zn 0.58224(3) 0.2438(1) 0.93638(9)
Zn2C Zn 0.08224(3) 0.2562(1) 0.93638(9)
O1C O 0.3370(2) 0.2779(7) 0.3162(7)
O2C O 0.3584(2) 0.7764(6) 0.3956(6)
O3C O 0.3277(2) 0.6149(7) 0.2895(5)
O8* O 0.4233(2) 0.9449(6) 0.4935(7)
O11A O 0.4500(3) 0.7563(8) 0.3045(6)
#END
