
#######################################################################
#
#                 Cambridge Crystallographic Data Centre
#                                CCDC
#
#######################################################################
#
# If this CIF has been generated from an entry in the Cambridge
# Structural Database, then it will include bibliographic, chemical,
# crystal, experimental, refinement or atomic coordinate data resulting
# from the CCDC's data processing and validation procedures.
#
#######################################################################

data_CSD_CIF_FUTZEB
_audit_creation_date 2015-09-11
_audit_creation_method CSD-ConQuest-V1
_database_code_CSD FUTZEB
_database_code_depnum_ccdc_archive 'CCDC 1423782'
_chemical_formula_sum 'C17 H18 N2 O6 Zn1'
_chemical_formula_moiety
;
(C9 H3 O6 Zn1 1-)n,n(C8 H15 N2 1+)
;
_journal_coden_Cambridge 1147
_journal_volume 14
_journal_year 2014
_journal_page_first 5452
_journal_name_full 'Cryst.Growth Des. '
loop_
_publ_author_name
"C.Ordonez"
"M.Fonari"
"J.Lindline"
"Qiang Wei"
"T.Timofeeva"
_chemical_name_systematic
;
catena-[1-butyl-3-methyl-1H-imidazol-3-ium 
(\m-benzene-1,3,5-tricarboxylato)-zinc]
;
_cell_volume   1678.753
_exptl_crystal_density_diffrn 1.629
_diffrn_ambient_temperature 100
#These two values have been output from a single CSD field.
_refine_ls_R_factor_gt 0.0501
_refine_ls_wR_factor_gt 0.0501
_symmetry_cell_setting monoclinic
_symmetry_space_group_name_H-M 'P 21/n'
_symmetry_Int_Tables_number 14
loop_
_symmetry_equiv_pos_site_id
_symmetry_equiv_pos_as_xyz
1 x,y,z
2 1/2-x,1/2+y,1/2-z
3 -x,-y,-z
4 -1/2+x,-1/2-y,-1/2+z
_cell_length_a 9.2987(14)
_cell_length_b 16.670(2)
_cell_length_c 11.4189(17)
_cell_angle_alpha 90
_cell_angle_beta 108.481(3)
_cell_angle_gamma 90
_cell_formula_units_Z 4
loop_
_atom_type_symbol
_atom_type_radius_bond
C 0.68
H 0.23
N 0.68
O 0.68
Zn 1.22
loop_
_atom_site_label
_atom_site_type_symbol
_atom_site_fract_x
_atom_site_fract_y
_atom_site_fract_z
Zn1 Zn 0.62127(6) 0.09336(3) 0.95985(5)
C1 C 0.9633(5) -0.0946(3) 1.1836(4)
H1 H 0.97770 -0.05380 1.13300
O1 O 1.2315(4) -0.0915(2) 1.1284(3)
C2 C 0.8223(5) -0.1029(3) 1.2004(4)
O2 O 0.7268(4) 0.0050(2) 1.0684(4)
O3 O 0.5721(4) -0.0532(2) 1.1569(3)
C3 C 0.6966(6) -0.0460(3) 1.1369(5)
C4 C 0.9181(7) -0.2167(3) 1.3317(5)
C5 C 1.2336(6) -0.1355(3) 1.2189(5)
O4 O 0.9920(8) -0.3356(3) 1.4475(5)
C6 C 0.8008(7) -0.1645(3) 1.2745(5)
H2 H 0.70690 -0.17090 1.28610
C7 C 1.0575(7) -0.2069(3) 1.3162(5)
H3 H 1.13660 -0.24120 1.35620
O5 O 0.7735(9) -0.2890(3) 1.4352(6)
C8 C 1.0818(6) -0.1450(3) 1.2399(4)
O6 O 1.3450(5) -0.1716(3) 1.2847(5)
C9 C 0.8923(13) -0.2855(4) 1.4107(6)
N1 N -0.7813(12) 0.1296(5) 0.2440(8)
N2 N -0.5712(13) 0.0952(6) 0.3729(10)
C10 C -0.6619(16) 0.0838(6) 0.2562(10)
H4 H -0.64410 0.05060 0.19670
C11 C -0.7472(15) 0.1696(6) 0.3534(11)
H5 H -0.81140 0.20800 0.36880
C12 C -0.6117(19) 0.1494(6) 0.4392(11)
H6 H -0.56400 0.16810 0.51880
C13 C -0.296(2) 0.1097(10) 0.3809(11)
H7 H -0.28120 0.16320 0.41620
H8 H -0.32660 0.11270 0.29150
C14 C -0.9067(16) 0.1402(9) 0.1335(10)
H9 H -0.89870 0.10270 0.07210
H10 H -0.90580 0.19390 0.10340
H11 H -0.99980 0.13110 0.15100
C15 C -0.405(2) 0.0569(10) 0.4291(14)
H12 H -0.37270 0.05750 0.51870
H13 H -0.40410 0.00180 0.40180
C16 C -0.049(3) 0.1025(13) 0.3778(15)
H14 H 0.05140 0.07970 0.40060
H15 H -0.04240 0.15690 0.40640
H16 H -0.09280 0.10140 0.28960
C17 C -0.150(3) 0.0521(10) 0.4385(13)
H17 H -0.11300 0.05290 0.52800
H18 H -0.16680 -0.00250 0.40820
Zn1A Zn 0.87873(6) -0.40664(3) 1.54015(5)
Zn1B Zn 0.37873(6) -0.09336(3) 1.04015(5)
Zn1B* Zn 1.37873(6) -0.09336(3) 1.04015(5)
O1B O 0.7685(4) 0.0915(2) 0.8716(3)
O3B O 0.4279(4) 0.0532(2) 0.8431(3)
O4A O 0.5080(8) 0.1644(3) 1.0525(5)
O5A O 0.7265(9) 0.2110(3) 1.0648(6)
#END
