
#######################################################################
#
#                 Cambridge Crystallographic Data Centre
#                                CCDC
#
#######################################################################
#
# If this CIF has been generated from an entry in the Cambridge
# Structural Database, then it will include bibliographic, chemical,
# crystal, experimental, refinement or atomic coordinate data resulting
# from the CCDC's data processing and validation procedures.
#
#######################################################################

data_CSD_CIF_FUVBIJ
_audit_creation_date 2015-09-11
_audit_creation_method CSD-ConQuest-V1
_database_code_CSD FUVBIJ
_database_code_depnum_ccdc_archive 'CCDC 1423788'
_chemical_formula_sum 'C10 H9 N1 O6 Zn1'
_chemical_formula_moiety
;
(C9 H3 O6 Zn1 1-)n,n(C1 H6 N1 1+)
;
_journal_coden_Cambridge 1147
_journal_volume 14
_journal_year 2014
_journal_page_first 5452
_journal_name_full 'Cryst.Growth Des. '
loop_
_publ_author_name
"C.Ordonez"
"M.Fonari"
"J.Lindline"
"Qiang Wei"
"T.Timofeeva"
_chemical_name_systematic
;
catena-[methylammonium (\m-benzene-1,3,5-tricarboxylato)-zinc]
;
_cell_volume    532.069
_exptl_crystal_density_diffrn 1.901
_diffrn_ambient_temperature 100
#These two values have been output from a single CSD field.
_refine_ls_R_factor_gt 0.0288
_refine_ls_wR_factor_gt 0.0288
_symmetry_cell_setting triclinic
_symmetry_space_group_name_H-M 'P -1'
_symmetry_Int_Tables_number 2
loop_
_symmetry_equiv_pos_site_id
_symmetry_equiv_pos_as_xyz
1 x,y,z
2 -x,-y,-z
_cell_length_a 7.791(3)
_cell_length_b 8.989(4)
_cell_length_c 9.160(4)
_cell_angle_alpha 116.446(5)
_cell_angle_beta 104.488(5)
_cell_angle_gamma 98.089(5)
_cell_formula_units_Z 2
loop_
_atom_type_symbol
_atom_type_radius_bond
C 0.68
H 0.23
N 0.68
O 0.68
Zn 1.22
loop_
_atom_site_label
_atom_site_type_symbol
_atom_site_fract_x
_atom_site_fract_y
_atom_site_fract_z
Zn1 Zn 1.09397(3) 0.60541(3) 0.24789(3)
O1 O 0.9519(2) 0.6898(2) 0.1064(2)
O2 O 0.7336(2) 0.5101(2) -0.1555(2)
O3 O 0.0975(2) 0.5495(2) -0.2581(2)
O4 O 0.8015(2) 1.1813(2) 0.5313(2)
O5 O 0.0647(2) 0.8169(2) -0.1360(2)
O6 O 0.6057(2) 1.2941(2) 0.4187(2)
C1 C 0.6595(3) 0.7416(3) 0.0458(3)
C2 C 0.4753(3) 0.6810(3) -0.0643(3)
H1 H 0.43280 0.57300 -0.16540
C3 C 0.3540(3) 0.7803(3) -0.0247(3)
C4 C 0.4183(3) 0.9419(3) 0.1261(3)
H2 H 0.33980 1.01130 0.15000
C5 C 0.5998(3) 1.0006(3) 0.2417(3)
C6 C 0.7197(3) 0.8995(3) 0.2008(3)
H3 H 0.84080 0.93800 0.27770
C7 C 0.7912(3) 0.6398(3) -0.0027(3)
C8 C 0.1574(3) 0.7142(3) -0.1468(3)
C9 C 0.6710(3) 1.1724(3) 0.4075(3)
N1 N 0.2537(3) 0.3258(3) 0.4171(3)
H4 H 0.151(4) 0.282(4) 0.321(4)
H5 H 0.356(5) 0.324(4) 0.392(4)
H6 H 0.263(4) 0.427(4) 0.487(4)
C10 C 0.2430(4) 0.2208(3) 0.5024(3)
H7 H 0.35370 0.26610 0.60240
H8 H 0.23100 0.10250 0.42180
H9 H 0.13740 0.22530 0.53850
Zn1A Zn -0.09397(3) 0.39459(3) -0.24789(3)
Zn1A* Zn 0.90603(3) 0.39459(3) -0.24789(3)
Zn1A** Zn 0.90603(3) 1.39459(3) 0.75211(3)
O2A O 1.2664(2) 0.4899(2) 0.1555(2)
O3A O 0.9025(2) 0.4505(2) 0.2581(2)
O4A O 1.1985(2) 0.8187(2) 0.4687(2)
#END
