
#######################################################################
#
#                 Cambridge Crystallographic Data Centre
#                                CCDC
#
#######################################################################
#
# If this CIF has been generated from an entry in the Cambridge
# Structural Database, then it will include bibliographic, chemical,
# crystal, experimental, refinement or atomic coordinate data resulting
# from the CCDC's data processing and validation procedures.
#
#######################################################################

data_CSD_CIF_FUVBAB
_audit_creation_date 2015-09-11
_audit_creation_method CSD-ConQuest-V1
_database_code_CSD FUVBAB
_database_code_depnum_ccdc_archive 'CCDC 1423786'
_chemical_formula_sum 'C17 H23 N1 O6 Zn1'
_chemical_formula_moiety
;
(C8 H20 N1 1+)n,n(C9 H3 O6 Zn1 1-)
;
_journal_coden_Cambridge 1147
_journal_volume 14
_journal_year 2014
_journal_page_first 5452
_journal_name_full 'Cryst.Growth Des. '
loop_
_publ_author_name
"C.Ordonez"
"M.Fonari"
"J.Lindline"
"Qiang Wei"
"T.Timofeeva"
_chemical_name_systematic
;
catena-[di-n-butylammonium (\m-benzene-1,3,5-tricarboxylato)-zinc]
;
_cell_volume   1772.336
_exptl_crystal_density_diffrn 1.509
_exptl_crystal_description 'plate'
_diffrn_ambient_temperature 100
#These two values have been output from a single CSD field.
_refine_ls_R_factor_gt 0.0494
_refine_ls_wR_factor_gt 0.0494
_symmetry_cell_setting monoclinic
_symmetry_space_group_name_H-M 'P 21/c'
_symmetry_Int_Tables_number 14
loop_
_symmetry_equiv_pos_site_id
_symmetry_equiv_pos_as_xyz
1 x,y,z
2 -x,1/2+y,1/2-z
3 -x,-y,-z
4 x,-1/2-y,-1/2+z
_cell_length_a 9.488(6)
_cell_length_b 12.562(9)
_cell_length_c 15.477(10)
_cell_angle_alpha 90
_cell_angle_beta 106.099(10)
_cell_angle_gamma 90
_cell_formula_units_Z 4
loop_
_atom_type_symbol
_atom_type_radius_bond
C 0.68
H 0.23
N 0.68
O 0.68
Zn 1.22
loop_
_atom_site_label
_atom_site_type_symbol
_atom_site_fract_x
_atom_site_fract_y
_atom_site_fract_z
Zn1 Zn 0.68389(6) 0.05301(5) 0.08518(4)
O1 O 0.6700(4) -0.0518(3) -0.0114(3)
O2 O 0.7411(4) -0.4687(3) -0.3064(3)
O3 O 0.5188(4) -0.4428(3) -0.2860(3)
O4 O 0.4740(4) -0.1553(3) -0.0702(2)
O5 O 1.1336(4) -0.1146(3) -0.0723(2)
C1 C 0.6082(6) -0.1305(4) -0.0541(4)
O6 O 1.1545(4) -0.2397(3) -0.1692(3)
C2 C 0.6388(6) -0.2832(4) -0.1533(3)
H1 H 0.54070 -0.30050 -0.16120
C3 C 0.7015(6) -0.2018(4) -0.0953(3)
C4 C 0.8486(6) -0.1767(4) -0.0815(4)
H2 H 0.89150 -0.12360 -0.04090
C5 C 0.7205(6) -0.3394(4) -0.1998(4)
C6 C 0.6516(6) -0.4236(5) -0.2690(4)
C7 C 0.8667(6) -0.3119(4) -0.1866(4)
H3 H 0.92230 -0.34870 -0.21770
C8 C 0.9318(6) -0.2309(4) -0.1284(4)
C9 C 1.0859(6) -0.1943(5) -0.1228(4)
N1 N 0.2493(5) -0.1342(4) 0.2186(3)
H4 H 0.24630 -0.17000 0.26840
H5 H 0.34010 -0.10730 0.22760
C10 C 0.1428(8) -0.0479(6) 0.2023(5)
H6 H 0.04440 -0.07680 0.18150
H7 H 0.15840 -0.00130 0.15580
C11 C 0.2934(10) 0.1471(6) 0.3995(5)
H8 H 0.38730 0.18090 0.42150
H9 H 0.26980 0.10980 0.44790
H10 H 0.21990 0.20010 0.37590
C12 C 0.1579(8) 0.0143(6) 0.2867(5)
H11 H 0.08020 0.06710 0.27460
H12 H 0.14060 -0.03390 0.33160
C13 C 0.3238(9) -0.3014(6) 0.1505(6)
H13 H 0.32380 -0.33890 0.20530
H14 H 0.42100 -0.27170 0.15850
C14 C 0.2920(9) -0.3815(7) 0.0722(5)
H15 H 0.30240 -0.34600 0.01860
H16 H 0.36380 -0.43850 0.08670
C15 C 0.2983(8) 0.0701(7) 0.3269(5)
H17 H 0.32660 0.10800 0.27980
H18 H 0.37350 0.01740 0.35150
C16 C 0.2147(9) -0.2122(6) 0.1362(5)
H19 H 0.11710 -0.24140 0.12700
H20 H 0.21640 -0.17300 0.08250
C17 C 0.1442(11) -0.4274(7) 0.0533(7)
H21 H 0.12830 -0.47520 0.00310
H22 H 0.07270 -0.37130 0.03930
H23 H 0.13500 -0.46560 0.10510
Zn1B Zn 0.31611(6) -0.05301(5) -0.08518(4)
Zn1B* Zn 1.31611(6) -0.05301(5) -0.08518(4)
Zn1C Zn 0.68389(6) -0.55301(5) -0.41482(4)
O2C O 0.7411(4) -0.0313(3) 0.1936(3)
O4B O 0.5260(4) 0.1553(3) 0.0702(2)
O5B O 0.8664(4) 0.1146(3) 0.0723(2)
#END
