
#######################################################################
#
#                 Cambridge Crystallographic Data Centre
#                                CCDC
#
#######################################################################
#
# If this CIF has been generated from an entry in the Cambridge
# Structural Database, then it will include bibliographic, chemical,
# crystal, experimental, refinement or atomic coordinate data resulting
# from the CCDC's data processing and validation procedures.
#
#######################################################################

data_CSD_CIF_FUVYED
_audit_creation_date 2020-08-08
_audit_creation_method CSD-ConQuest-V1
_database_code_CSD FUVYED
_database_code_depnum_ccdc_archive 'CCDC 2022227'
_chemical_formula_sum 'C26 H32 Co1 N4 O13 S1'
_chemical_formula_moiety
;
(C22 H10 Co1 N2 O10 S1 2-)n,2n(C2 H8 N1 1+),3n(H2 O1)
;
_journal_coden_Cambridge 1078
_journal_year 2020
_journal_name_full 'CSD Communication(Private Communication) '
loop_
_publ_author_name
"haitao Yuan"
_chemical_name_systematic
;
catena-(bis(dimethylammonium) 
(\m-5,5'-[thiene-2,5-diylbis(carbonylazanediyl)]bis(benzene-1,3-dicarboxylato)
)-cobalt trihydrate)
;
_cell_volume   1605.273
_exptl_crystal_colour 'pink'
_exptl_crystal_description 'block'
_diffrn_ambient_temperature 293
_refine_special_details
;
The SQUEEZE/PLATON program was used to model the disordered cations and water 
molecules.
;
#These two values have been output from a single CSD field.
_refine_ls_R_factor_gt 0.0553
_refine_ls_wR_factor_gt 0.0553
_symmetry_cell_setting triclinic
_symmetry_space_group_name_H-M 'P -1'
_symmetry_Int_Tables_number 2
loop_
_symmetry_equiv_pos_site_id
_symmetry_equiv_pos_as_xyz
1 x,y,z
2 -x,-y,-z
_cell_length_a 9.552(1)
_cell_length_b 9.963(1)
_cell_length_c 17.856(3)
_cell_angle_alpha 102.23(2)
_cell_angle_beta 100.55(2)
_cell_angle_gamma 97.842(10)
_cell_formula_units_Z 2
loop_
_atom_type_symbol
_atom_type_radius_bond
C 0.68
H 0.23
Co 1.26
N 0.68
O 0.68
S 1.02
loop_
_atom_site_label
_atom_site_type_symbol
_atom_site_fract_x
_atom_site_fract_y
_atom_site_fract_z
Co1 Co -0.10371(4) 0.44188(4) -0.35418(2)
S1 S 0.57113(11) 0.80814(11) 0.16499(5)
O1 O 0.8414(3) 1.2530(2) 0.57716(13)
O2 O 0.8617(3) 1.1828(3) 0.68545(15)
O3 O 0.9547(4) 0.7117(3) 0.67807(16)
O4 O 0.8742(3) 0.5540(2) 0.56803(14)
O5 O 0.7597(3) 0.4710(3) -0.28917(14)
O6 O 0.5812(3) 0.4829(3) -0.38536(15)
O7 O 0.0930(3) 0.5459(3) -0.19771(15)
O8 O 0.1012(2) 0.4428(2) -0.31744(13)
O9 O 0.4446(3) 0.7486(4) 0.00125(16)
O10 O 0.6526(4) 0.9642(3) 0.33387(16)
N1 N 0.6013(3) 0.6266(3) -0.04323(16)
H1 H 0.68191 0.59961 -0.02975
N2 N 0.8035(3) 0.8237(3) 0.36473(15)
H2 H 0.84871 0.76066 0.34514
C1 C 0.8482(4) 1.1596(3) 0.6146(2)
C2 C 0.8448(3) 1.0183(3) 0.56873(19)
C3 C 0.8744(4) 0.9180(3) 0.60677(19)
H3 H 0.89296 0.93844 0.66134
C4 C 0.8771(4) 0.7867(3) 0.56510(19)
C5 C 0.8508(4) 0.7570(3) 0.48531(19)
H4 H 0.85251 0.66762 0.45702
C6 C 0.8220(4) 0.8581(3) 0.44655(18)
C7 C 0.8191(4) 0.9881(3) 0.48788(18)
H5 H 0.79977 1.05703 0.46167
C8 C 0.9055(4) 0.6800(4) 0.6075(2)
C9 C 0.7238(4) 0.8783(4) 0.3144(2)
C10 C 0.7242(4) 0.8234(3) 0.2322(2)
C11 C 0.8297(4) 0.7806(4) 0.1994(2)
H6 H 0.92209 0.78159 0.22753
C12 C 0.7858(4) 0.7340(4) 0.1181(2)
H7 H 0.84627 0.70118 0.08593
C13 C 0.6483(4) 0.7414(4) 0.0912(2)
C14 C 0.5556(4) 0.7047(4) 0.0121(2)
C15 C 0.3837(4) 0.5647(4) -0.14595(19)
H8 H 0.32807 0.58209 -0.10853
C16 C 0.5305(4) 0.5821(4) -0.12337(19)
C17 C 0.6115(4) 0.5540(4) -0.1775(2)
H9 H 0.71134 0.56292 -0.16182
C18 C 0.5447(4) 0.5121(4) -0.2563(2)
C19 C 0.3995(3) 0.4955(3) -0.27926(19)
H10 H 0.35503 0.46658 -0.33232
C20 C 0.3185(3) 0.5213(3) -0.22426(19)
C21 C 0.1596(4) 0.5037(3) -0.2468(2)
C22 C 0.6327(4) 0.4846(4) -0.3163(2)
Co1* Co 0.89629(4) 0.44188(4) -0.35418(2)
Co1** Co 0.89629(4) 0.44188(4) 0.64582(2)
Co1*** Co 0.89629(4) 1.44188(4) 0.64582(2)
O1* O -0.1586(3) 0.2530(2) -0.42284(13)
O4* O -0.1258(3) 0.5540(2) -0.43197(14)
O5* O -0.2403(3) 0.4710(3) -0.28917(14)
#END
