
#######################################################################
#
#                 Cambridge Crystallographic Data Centre
#                                CCDC
#
#######################################################################
#
# If this CIF has been generated from an entry in the Cambridge
# Structural Database, then it will include bibliographic, chemical,
# crystal, experimental, refinement or atomic coordinate data resulting
# from the CCDC's data processing and validation procedures.
#
#######################################################################

data_CSD_CIF_FUWXIF
_audit_creation_date 2011-02-04
_audit_creation_method CSD-ConQuest-V1
_database_code_CSD FUWXIF
_database_code_depnum_ccdc_archive 'CCDC 791491'
_chemical_formula_sum 'C38 H38 N16 O25 Zn8'
_chemical_formula_moiety
;
(C30 H6 N12 O25 Zn8 4-)n,4n(C2 H8 N1 1+)
;
_journal_coden_Cambridge 1147
_journal_volume 10
_journal_year 2010
_journal_page_first 3324
_journal_name_full 'Cryst.Growth Des. '
loop_
_publ_author_name
"Tuoping Hu"
"Wenhua Bi"
"Xiaoqin Hu"
"Xiaoliang Zhao"
"Daofeng Sun"
_chemical_name_systematic
;
catena-(Dimethylammonium 
hexakis(\m~4~-2H-imidazole-4,5-dicarboxylato)-(\m~4~-oxo)-octa-zinc)
;
_cell_volume  10648.436
_exptl_crystal_colour 'colorless'
_exptl_special_details
;
The cations were not located crystallographically

;
_exptl_crystal_description 'block'
_diffrn_ambient_temperature 273
#These two values have been output from a single CSD field.
_refine_ls_R_factor_gt 0.1289
_refine_ls_wR_factor_gt 0.1289
_symmetry_cell_setting cubic
_symmetry_space_group_name_H-M 'F m -3'
_symmetry_Int_Tables_number 202
loop_
_symmetry_equiv_pos_site_id
_symmetry_equiv_pos_as_xyz
1 x,y,z
2 -x,-y,z
3 -x,y,-z
4 x,-y,-z
5 z,x,y
6 z,-x,-y
7 -z,-x,y
8 -z,x,-y
9 y,z,x
10 -y,z,-x
11 y,-z,-x
12 -y,-z,x
13 x,1/2+y,1/2+z
14 -x,1/2-y,1/2+z
15 -x,1/2+y,1/2-z
16 x,1/2-y,1/2-z
17 z,1/2+x,1/2+y
18 z,1/2-x,1/2-y
19 -z,1/2-x,1/2+y
20 -z,1/2+x,1/2-y
21 y,1/2+z,1/2+x
22 -y,1/2+z,1/2-x
23 y,1/2-z,1/2-x
24 -y,1/2-z,1/2+x
25 1/2+x,y,1/2+z
26 1/2-x,-y,1/2+z
27 1/2-x,y,1/2-z
28 1/2+x,-y,1/2-z
29 1/2+z,x,1/2+y
30 1/2+z,-x,1/2-y
31 1/2-z,-x,1/2+y
32 1/2-z,x,1/2-y
33 1/2+y,z,1/2+x
34 1/2-y,z,1/2-x
35 1/2+y,-z,1/2-x
36 1/2-y,-z,1/2+x
37 1/2+x,1/2+y,z
38 1/2-x,1/2-y,z
39 1/2-x,1/2+y,-z
40 1/2+x,1/2-y,-z
41 1/2+z,1/2+x,y
42 1/2+z,1/2-x,-y
43 1/2-z,1/2-x,y
44 1/2-z,1/2+x,-y
45 1/2+y,1/2+z,x
46 1/2-y,1/2+z,-x
47 1/2+y,1/2-z,-x
48 1/2-y,1/2-z,x
49 -x,-y,-z
50 x,y,-z
51 x,-y,z
52 -x,y,z
53 -z,-x,-y
54 -z,x,y
55 z,x,-y
56 z,-x,y
57 -y,-z,-x
58 y,-z,x
59 -y,z,x
60 y,z,-x
61 -x,-1/2-y,-1/2-z
62 x,-1/2+y,-1/2-z
63 x,-1/2-y,-1/2+z
64 -x,-1/2+y,-1/2+z
65 -z,-1/2-x,-1/2-y
66 -z,-1/2+x,-1/2+y
67 z,-1/2+x,-1/2-y
68 z,-1/2-x,-1/2+y
69 -y,-1/2-z,-1/2-x
70 y,-1/2-z,-1/2+x
71 -y,-1/2+z,-1/2+x
72 y,-1/2+z,-1/2-x
73 -1/2-x,-y,-1/2-z
74 -1/2+x,y,-1/2-z
75 -1/2+x,-y,-1/2+z
76 -1/2-x,y,-1/2+z
77 -1/2-z,-x,-1/2-y
78 -1/2-z,x,-1/2+y
79 -1/2+z,x,-1/2-y
80 -1/2+z,-x,-1/2+y
81 -1/2-y,-z,-1/2-x
82 -1/2+y,-z,-1/2+x
83 -1/2-y,z,-1/2+x
84 -1/2+y,z,-1/2-x
85 -1/2-x,-1/2-y,-z
86 -1/2+x,-1/2+y,-z
87 -1/2+x,-1/2-y,z
88 -1/2-x,-1/2+y,z
89 -1/2-z,-1/2-x,-y
90 -1/2-z,-1/2+x,y
91 -1/2+z,-1/2+x,-y
92 -1/2+z,-1/2-x,y
93 -1/2-y,-1/2-z,-x
94 -1/2+y,-1/2-z,x
95 -1/2-y,-1/2+z,x
96 -1/2+y,-1/2+z,-x
_cell_length_a 22.0003(7)
_cell_length_b 22.0003(7)
_cell_length_c 22.0003(7)
_cell_angle_alpha 90
_cell_angle_beta 90
_cell_angle_gamma 90
_cell_formula_units_Z 8
loop_
_atom_type_symbol
_atom_type_radius_bond
C 0.68
H 0.23
N 0.68
O 0.68
Zn 1.22
loop_
_atom_site_label
_atom_site_type_symbol
_atom_site_fract_x
_atom_site_fract_y
_atom_site_fract_z
N1 N 0.3500(2) 0.3450(2) 0.0508(2)
Zn1 Zn 0.35702(3) 0.35702(3) 0.14298(3)
Zn2 Zn 0.30268(4) 0.19732(4) 0.19732(4)
O1 O 0.3281(2) 0.25815(18) 0.13368(16)
O2 O 0.3130(3) 0.1861(2) 0.0626(2)
O3 O 0.25000 0.25000 0.25000
C1 C 0.3248(2) 0.2396(2) 0.0783(2)
C2 C 0.3366(2) 0.2860(2) 0.03171(18)
C3 C 0.3576(3) 0.3778(4) 0.00000
H1 H 0.387(4) 0.424(4) 0.00000
N1WA N 0.3500(2) 0.3450(2) -0.0508(2)
N1EA N 0.4492(2) 0.3500(2) 0.1550(2)
N1ZB N 0.5508(2) 0.3500(2) 0.1550(2)
N1V N 0.3450(2) 0.4492(2) 0.1500(2)
N1SB N 0.3450(2) 0.5508(2) 0.1500(2)
N1GA N 0.1550(2) 0.0508(2) 0.1500(2)
N1BC N 0.1550(2) -0.0508(2) 0.1500(2)
N1PA N 0.4492(2) 0.1500(2) 0.3450(2)
N1MC N 0.5508(2) 0.1500(2) 0.3450(2)
N1YB N 0.4492(2) 0.3500(2) -0.1550(2)
N1BA N 0.5508(2) 0.3500(2) -0.1550(2)
N1QB N 0.3450(2) 0.4492(2) -0.1500(2)
N1PB N 0.6550(2) 0.4492(2) 0.1500(2)
N1YA N 0.6500(2) 0.3450(2) 0.0508(2)
N1XA N 0.3500(2) 0.6550(2) 0.0508(2)
N1XB N 0.4492(2) 0.6500(2) 0.1550(2)
Zn1WA Zn 0.35702(3) 0.35702(3) -0.14298(3)
Zn1YA Zn 0.64298(3) 0.35702(3) 0.14298(3)
Zn1XA Zn 0.35702(3) 0.64298(3) 0.14298(3)
Zn1Q Zn 0.14298(3) 0.14298(3) 0.14298(3)
Zn1NB Zn 0.14298(3) -0.14298(3) 0.14298(3)
Zn1H Zn 0.35702(3) 0.14298(3) 0.35702(3)
Zn1FB Zn 0.64298(3) 0.14298(3) 0.35702(3)
Zn1B Zn 0.64298(3) 0.35702(3) -0.14298(3)
Zn2WA Zn 0.30268(4) 0.19732(4) -0.19732(4)
Zn2O Zn 0.30268(4) 0.30268(4) 0.30268(4)
Zn2HB Zn 0.69732(4) 0.30268(4) 0.30268(4)
Zn2D Zn 0.19732(4) 0.30268(4) 0.19732(4)
Zn2H Zn 0.19732(4) 0.19732(4) 0.30268(4)
Zn2CB Zn 0.19732(4) 0.69732(4) 0.19732(4)
Zn2XA Zn 0.30268(4) -0.19732(4) 0.19732(4)
Zn2YA Zn 0.69732(4) 0.19732(4) 0.19732(4)
Zn2JB Zn 0.30268(4) 0.30268(4) -0.30268(4)
Zn2M Zn 0.69732(4) 0.30268(4) -0.30268(4)
O1WA O 0.3281(2) 0.25815(18) -0.13368(16)
O1EA O 0.36632(20) 0.32810(18) 0.24185(16)
O1ZB O 0.63368(20) 0.32810(18) 0.24185(16)
O1V O 0.25815(20) 0.36632(18) 0.17190(16)
O1SB O 0.25815(20) 0.63368(18) 0.17190(16)
O1GA O 0.24185(20) 0.13368(18) 0.17190(16)
O1BC O 0.24185(20) -0.13368(18) 0.17190(16)
O1PA O 0.36632(20) 0.17190(18) 0.25815(16)
O1MC O 0.63368(20) 0.17190(18) 0.25815(16)
O1YB O 0.36632(20) 0.32810(18) -0.24185(16)
O1BA O 0.63368(20) 0.32810(18) -0.24185(16)
O1QB O 0.25815(20) 0.36632(18) -0.17190(16)
O1PB O 0.74185(20) 0.36632(18) 0.17190(16)
O1YA O 0.6719(2) 0.25815(18) 0.13368(16)
O1XA O 0.3281(2) 0.74185(18) 0.13368(16)
O1XB O 0.36632(20) 0.67190(18) 0.24185(16)
O1DC O 0.24185(20) 0.13368(18) -0.17190(16)
O1JC O 0.36632(20) 0.17190(18) -0.25815(16)
O1O O 0.3281(2) 0.24185(18) 0.36632(16)
O1UA O 0.24185(20) 0.36632(18) 0.32810(16)
O1HB O 0.6719(2) 0.24185(18) 0.36632(16)
O1OC O 0.75815(20) 0.36632(18) 0.32810(16)
O2WA O 0.3130(3) 0.1861(2) -0.0626(2)
O2EA O 0.4374(3) 0.3130(2) 0.3139(2)
O2ZB O 0.5626(3) 0.3130(2) 0.3139(2)
O2V O 0.1861(3) 0.4374(2) 0.1870(2)
O2SB O 0.1861(3) 0.5626(2) 0.1870(2)
O2GA O 0.3139(3) 0.0626(2) 0.1870(2)
O2BC O 0.3139(3) -0.0626(2) 0.1870(2)
O2PA O 0.4374(3) 0.1870(2) 0.1861(2)
O2MC O 0.5626(3) 0.1870(2) 0.1861(2)
O2YB O 0.4374(3) 0.3130(2) -0.3139(2)
O2BA O 0.5626(3) 0.3130(2) -0.3139(2)
O3WA O 0.25000 0.25000 -0.25000
O3YA O 0.75000 0.25000 0.25000
C1WA C 0.3248(2) 0.2396(2) -0.0783(2)
C1EA C 0.4217(2) 0.3248(2) 0.2604(2)
C1ZB C 0.5783(2) 0.3248(2) 0.2604(2)
C1V C 0.2396(2) 0.4217(2) 0.1752(2)
C1SB C 0.2396(2) 0.5783(2) 0.1752(2)
C1GA C 0.2604(2) 0.0783(2) 0.1752(2)
C1BC C 0.2604(2) -0.0783(2) 0.1752(2)
C1PA C 0.4217(2) 0.1752(2) 0.2396(2)
C1MC C 0.5783(2) 0.1752(2) 0.2396(2)
C1YB C 0.4217(2) 0.3248(2) -0.2604(2)
C1BA C 0.5783(2) 0.3248(2) -0.2604(2)
C2WA C 0.3366(2) 0.2860(2) -0.03171(18)
C2EA C 0.46829(20) 0.3366(2) 0.21400(18)
C2ZB C 0.53171(20) 0.3366(2) 0.21400(18)
C2V C 0.2860(2) 0.46829(20) 0.16340(18)
C2SB C 0.2860(2) 0.53171(20) 0.16340(18)
C2GA C 0.2140(2) 0.03171(20) 0.16340(18)
C2BC C 0.2140(2) -0.03171(20) 0.16340(18)
C2PA C 0.46829(20) 0.1634(2) 0.28600(18)
C2MC C 0.53171(20) 0.1634(2) 0.28600(18)
C2YB C 0.46829(20) 0.3366(2) -0.21400(18)
C2BA C 0.53171(20) 0.3366(2) -0.21400(18)
C3EA C 0.5000(3) 0.3576(4) 0.12220
C3V C 0.3778(3) 0.5000(4) 0.14240
C3GA C 0.1222(3) 0.0000(4) 0.14240
C3PA C 0.5000(3) 0.1424(4) 0.37780
C3BA C 0.5000(3) 0.3576(4) -0.12220
H1EA H 0.500(4) 0.387(4) 0.07600
H1V H 0.424(4) 0.500(4) 0.11300
H1GA H 0.076(4) 0.000(4) 0.11300
H1PA H 0.500(4) 0.113(4) 0.42400
H1BA H 0.500(4) 0.387(4) -0.07600
#END
