
#######################################################################
#
#                 Cambridge Crystallographic Data Centre
#                                CCDC
#
#######################################################################
#
# If this CIF has been generated from an entry in the Cambridge
# Structural Database, then it will include bibliographic, chemical,
# crystal, experimental, refinement or atomic coordinate data resulting
# from the CCDC's data processing and validation procedures.
#
#######################################################################

data_CSD_CIF_FUXWOM
_audit_creation_date 2016-01-07
_audit_creation_method CSD-ConQuest-V1
_database_code_CSD FUXWOM
_database_code_depnum_ccdc_archive 'CCDC 1410062'
_chemical_formula_sum 'C8 H16 Mn2 N2 O13 S1'
_chemical_formula_moiety
;
(C4 H2 Mn2 O13 S1 2-)n,C4 H14 N2 2+
;
_journal_coden_Cambridge 1295
_journal_volume 63
_journal_year 2016
_journal_page_first 20
_journal_name_full 'Inorg.Chem.Commun. '
loop_
_publ_author_name
"Furong Guo"
"Kang Xiao"
"Meng Yang"
"Lindong Luan"
"Zhien Lin"
_chemical_name_systematic
;
catena-[butane-1,4-diaminium bis(\m-oxalato)-(\m-sulfato)-aqua-di-manganese]
;
_cell_volume    832.977
_exptl_crystal_colour 'light yellow'
_exptl_crystal_density_diffrn 1.954
_exptl_crystal_description 'plate'
_diffrn_ambient_temperature 293
#These two values have been output from a single CSD field.
_refine_ls_R_factor_gt 0.0391
_refine_ls_wR_factor_gt 0.0391
_symmetry_cell_setting triclinic
_symmetry_space_group_name_H-M 'P -1'
_symmetry_Int_Tables_number 2
loop_
_symmetry_equiv_pos_site_id
_symmetry_equiv_pos_as_xyz
1 x,y,z
2 -x,-y,-z
_cell_length_a 8.5468(3)
_cell_length_b 10.0050(4)
_cell_length_c 10.6532(4)
_cell_angle_alpha 75.445(3)
_cell_angle_beta 79.787(3)
_cell_angle_gamma 71.848(3)
_cell_formula_units_Z 2
loop_
_atom_type_symbol
_atom_type_radius_bond
C 0.68
H 0.23
Mn 1.61
N 0.68
O 0.68
S 1.02
loop_
_atom_site_label
_atom_site_type_symbol
_atom_site_fract_x
_atom_site_fract_y
_atom_site_fract_z
Mn1 Mn 0.05821(5) 0.60769(4) 0.34894(4)
Mn2 Mn 0.78881(5) 0.21084(4) 0.21597(4)
S1 S 0.45500(7) 0.48224(7) 0.25452(6)
O1 O 0.3176(2) 0.5107(2) 0.3576(2)
O2 O 0.5552(2) 0.3320(2) 0.29617(19)
O3 O 0.3948(3) 0.4972(2) 0.1306(2)
O4 O 0.5548(3) 0.5809(2) 0.2411(2)
O5 O 0.0419(3) 0.5821(2) 0.55916(18)
O6 O 0.1214(3) 0.7538(2) 0.60879(19)
O7 O 0.0021(3) 0.4608(2) 0.80903(19)
O8 O 0.0854(2) 0.6253(2) 0.86371(18)
O9 O 0.7237(2) 0.0175(2) 0.3225(2)
O10 O 0.8216(2) -0.2213(2) 0.3630(2)
O11 O 1.0016(2) 0.0376(2) 0.1650(2)
O12 O 1.1065(2) -0.2001(2) 0.2191(2)
O13 O 0.7052(3) 0.2385(2) 0.02720(19)
H1 H 0.78780 0.20450 -0.02890
H2 H 0.66150 0.33000 -0.00590
C1 C 0.0756(3) 0.6437(3) 0.6358(2)
C2 C 0.0532(3) 0.5685(3) 0.7829(2)
C3 C 0.8323(3) -0.0971(3) 0.3126(3)
C4 C 0.9953(3) -0.0849(3) 0.2247(3)
N1 N 0.5172(3) 0.2336(3) 0.5757(2)
H3 H 0.54920 0.26860 0.49300
H4 H 0.52620 0.28900 0.62610
H5 H 0.41230 0.23230 0.58310
N2 N 0.7301(3) -0.3364(3) 0.9920(2)
H6 H 0.69690 -0.37930 0.94200
H7 H 0.69080 -0.36290 1.07470
H8 H 0.84020 -0.36200 0.98510
C5 C 0.6245(4) 0.0844(3) 0.6174(3)
H9 H 0.73970 0.08240 0.59140
H10 H 0.59910 0.02040 0.57400
C6 C 0.5989(3) 0.0316(3) 0.7637(3)
H11 H 0.48120 0.05200 0.79230
H12 H 0.64590 0.08240 0.80680
C7 C 0.6801(4) -0.1295(3) 0.8021(3)
H13 H 0.62620 -0.18110 0.76580
H14 H 0.79580 -0.15120 0.76680
C8 C 0.6673(4) -0.1782(3) 0.9490(3)
H15 H 0.72980 -0.13250 0.98390
H16 H 0.55230 -0.14710 0.98430
Mn1* Mn 1.05821(5) -0.39231(4) 0.34894(4)
Mn1A Mn -0.05821(5) 0.39231(4) 0.65106(4)
Mn2A Mn 0.21119(5) 0.78916(4) 0.78403(4)
O5A O -0.0419(3) 0.4179(2) 0.44084(18)
O6A O 0.8786(3) 0.2462(2) 0.39121(19)
O7A O -0.0021(3) 0.5392(2) 0.19097(19)
O8A O 0.9146(2) 0.3747(2) 0.13629(18)
O10* O -0.1784(2) 0.7787(2) 0.3630(2)
O12* O 0.1065(2) 0.7999(2) 0.2191(2)
#END
