
#######################################################################
#
#                 Cambridge Crystallographic Data Centre
#                                CCDC
#
#######################################################################
#
# If this CIF has been generated from an entry in the Cambridge
# Structural Database, then it will include bibliographic, chemical,
# crystal, experimental, refinement or atomic coordinate data resulting
# from the CCDC's data processing and validation procedures.
#
#######################################################################

data_CSD_CIF_FUXWEC
_audit_creation_date 2016-01-07
_audit_creation_method CSD-ConQuest-V1
_database_code_CSD FUXWEC
_database_code_depnum_ccdc_archive 'CCDC 1410060'
_chemical_formula_sum 'C9 H18 N2 O14 S1 Zn2'
_chemical_formula_moiety
;
(C4 H4 O14 S1 Zn2 2-)n,C5 H14 N2 2+
;
_journal_coden_Cambridge 1295
_journal_volume 63
_journal_year 2016
_journal_page_first 20
_journal_name_full 'Inorg.Chem.Commun. '
loop_
_publ_author_name
"Furong Guo"
"Kang Xiao"
"Meng Yang"
"Lindong Luan"
"Zhien Lin"
_chemical_name_systematic
;
catena-[1-methylpiperazinediium bis(\m-oxalato)-(\m-sulfato)-diaqua-di-zinc]
;
_cell_volume   1704.745
_exptl_crystal_colour 'colorless'
_exptl_crystal_density_diffrn 2.108
_exptl_crystal_description 'block'
_diffrn_ambient_temperature 293
#These two values have been output from a single CSD field.
_refine_ls_R_factor_gt 0.0417
_refine_ls_wR_factor_gt 0.0417
_symmetry_cell_setting orthorhombic
_symmetry_space_group_name_H-M 'P 21 21 21'
_symmetry_Int_Tables_number 19
loop_
_symmetry_equiv_pos_site_id
_symmetry_equiv_pos_as_xyz
1 x,y,z
2 1/2-x,-y,1/2+z
3 1/2+x,1/2-y,-z
4 -x,1/2+y,1/2-z
_cell_length_a 8.85730(13)
_cell_length_b 11.42778(17)
_cell_length_c 16.8421(2)
_cell_angle_alpha 90
_cell_angle_beta 90
_cell_angle_gamma 90
_cell_formula_units_Z 4
loop_
_atom_type_symbol
_atom_type_radius_bond
C 0.68
H 0.23
N 0.68
O 0.68
S 1.02
Zn 1.22
loop_
_atom_site_label
_atom_site_type_symbol
_atom_site_fract_x
_atom_site_fract_y
_atom_site_fract_z
Zn1 Zn 0.45335(9) 0.57247(7) 0.40666(4)
Zn2 Zn 0.94934(9) 0.44206(7) 0.57560(4)
S1 S 0.64806(16) 0.47121(13) 0.25693(8)
O1 O 0.5416(7) 0.5526(5) 0.2930(3)
O2 O 0.5821(8) 0.3550(5) 0.2571(3)
O3 O 0.7899(6) 0.4731(7) 0.2999(3)
O4 O 0.6744(5) 0.5076(4) 0.1742(3)
O5 O 0.6500(5) 0.6442(4) 0.4526(3)
O6 O 0.8586(5) 0.5917(4) 0.5158(3)
O7 O 0.5529(5) 0.4217(4) 0.4548(3)
O8 O 0.7546(5) 0.3698(4) 0.5240(3)
O9 O 1.1483(5) 0.5359(4) 0.5929(3)
O10 O 1.3473(5) 0.6011(4) 0.5267(3)
O11 O 1.0634(5) 0.4118(4) 0.4651(3)
O12 O 1.2513(5) 0.4873(4) 0.3955(3)
O13 O 0.3737(5) 0.7341(4) 0.3778(3)
H1 H 0.42380 0.76380 0.33770
H2 H 0.38230 0.78240 0.41790
O14 O 1.0084(7) 0.2831(4) 0.6195(3)
H3 H 1.08410 0.28940 0.65210
H4 H 1.03460 0.23610 0.58130
C1 C 0.7336(6) 0.5711(5) 0.4857(3)
C2 C 0.6763(7) 0.4415(5) 0.4887(3)
C3 C 1.2274(7) 0.5432(5) 0.5332(4)
C4 C 1.1768(7) 0.4741(6) 0.4573(4)
N1 N 0.6438(9) 0.2484(6) 0.8399(4)
H5 H 0.68800 0.31840 0.83890
H6 H 0.67600 0.21070 0.88290
N2 N 0.4619(7) 0.2543(5) 0.6988(3)
H7 H 0.41630 0.17630 0.70270
C5 C 0.4772(11) 0.2637(9) 0.8446(5)
H8 H 0.45180 0.31040 0.89080
H9 H 0.42900 0.18790 0.85010
C6 C 0.4209(9) 0.3229(8) 0.7712(5)
H10 H 0.31200 0.33100 0.77410
H11 H 0.46430 0.40060 0.76760
C7 C 0.6876(9) 0.1815(8) 0.7678(5)
H12 H 0.64640 0.10300 0.77080
H13 H 0.79670 0.17550 0.76510
C8 C 0.6294(8) 0.2414(7) 0.6951(4)
H14 H 0.67570 0.31800 0.69040
H15 H 0.65670 0.19620 0.64840
C9 C 0.4041(9) 0.3134(8) 0.6251(5)
H16 H 0.43840 0.27130 0.57910
H17 H 0.44140 0.39220 0.62310
H18 H 0.29580 0.31440 0.62590
Zn1* Zn 1.45335(9) 0.57247(7) 0.40666(4)
Zn2A Zn 0.55066(9) 0.55794(7) 0.07560(4)
O4A O 0.8256(5) 0.4924(4) 0.6742(3)
O10* O 0.3473(5) 0.6011(4) 0.5267(3)
O12* O 0.2513(5) 0.4873(4) 0.3955(3)
#END
