
#######################################################################
#
#                 Cambridge Crystallographic Data Centre
#                                CCDC
#
#######################################################################
#
# If this CIF has been generated from an entry in the Cambridge
# Structural Database, then it will include bibliographic, chemical,
# crystal, experimental, refinement or atomic coordinate data resulting
# from the CCDC's data processing and validation procedures.
#
#######################################################################

data_CSD_CIF_FUYCIN
_audit_creation_date 2016-01-07
_audit_creation_method CSD-ConQuest-V1
_database_code_CSD FUYCIN
_database_code_depnum_ccdc_archive 'CCDC 1445971'
_chemical_formula_sum 'C22 H26 N2 O8 V1'
_chemical_formula_moiety
;
(C18 H6 O6 V1 2-)n,2(C2 H8 N1 1+),2(H2 O1)
;
_journal_coden_Cambridge 4
_journal_volume 137
_journal_year 2015
_journal_page_first 15394
_journal_name_full 'J.Am.Chem.Soc. '
loop_
_publ_author_name
"N.T.T.Nguyen"
"H.Furukawa"
"F.Gandara"
"C.A.Trickett"
"Hyung Mo Jeong"
"K.E.Cordova"
"O.M.Yaghi"
_chemical_name_systematic
;
catena-[bis(dimethylammonium) 
(\m-triphenylene-2,3,6,7,10,11-hexolato)-vanadium dihydrate]
;
_cell_volume   5607.307
_exptl_crystal_density_diffrn 0.581
_diffrn_ambient_temperature ?
_diffrn_special_details
;
The study was carried out at room temperature,in the range 283-303K

;
#These two values have been output from a single CSD field.
_refine_ls_R_factor_gt 0.0585
_refine_ls_wR_factor_gt 0.0585
_symmetry_cell_setting cubic
_symmetry_space_group_name_H-M 'P 43 3 2'
_symmetry_Int_Tables_number 212
loop_
_symmetry_equiv_pos_site_id
_symmetry_equiv_pos_as_xyz
1 x,y,z
2 1/2-x,-y,1/2+z
3 -x,1/2+y,1/2-z
4 1/2+x,1/2-y,-z
5 z,x,y
6 1/2+z,1/2-x,-y
7 1/2-z,-x,1/2+y
8 -z,1/2+x,1/2-y
9 y,z,x
10 -y,1/2+z,1/2-x
11 1/2+y,1/2-z,-x
12 1/2-y,-z,1/2+x
13 1/4+y,3/4+x,3/4-z
14 1/4-y,1/4-x,1/4-z
15 3/4+y,3/4-x,1/4+z
16 3/4-y,1/4+x,3/4+z
17 1/4+x,3/4+z,3/4-y
18 3/4-x,1/4+z,3/4+y
19 1/4-x,1/4-z,1/4-y
20 3/4+x,3/4-z,1/4+y
21 1/4+z,3/4+y,3/4-x
22 3/4+z,3/4-y,1/4+x
23 3/4-z,1/4+y,3/4+x
24 1/4-z,1/4-y,1/4-x
_cell_length_a 17.7658
_cell_length_b 17.7658
_cell_length_c 17.7658
_cell_angle_alpha 90
_cell_angle_beta 90
_cell_angle_gamma 90
_cell_formula_units_Z 4
loop_
_atom_type_symbol
_atom_type_radius_bond
C 0.68
H 0.23
N 0.68
O 0.68
V 1.53
loop_
_atom_site_label
_atom_site_type_symbol
_atom_site_fract_x
_atom_site_fract_y
_atom_site_fract_z
C1 C 0.46457 0.75577 0.65706
C2 C 0.55779 0.65880 0.65908
C3 C 0.49499 0.69276 0.69060
O1 O 0.40730 0.79113 0.68152
H1 H 0.46858 0.66892 0.74382
V1 V 0.87500 0.62500 0.37500
N1 N 1.09782 1.12828 0.92593
C4 C 1.09508 1.19328 0.87124
C5 C 1.01908 1.13716 0.95666
H2 H 1.10844 1.07522 0.89470
H3 H 1.05518 1.17903 0.82305
H4 H 1.15386 1.20406 0.84786
H5 H 1.07414 1.24584 0.90152
H6 H 1.00817 1.09201 1.00093
H7 H 0.97666 1.13099 0.90891
H8 H 1.01295 1.19520 0.98335
O2 O 0.40162 0.40162 0.40162
C1M C 0.49423 0.78543 0.59294
C2M C 0.59120 0.69221 0.59092
C3M C 0.55724 0.75501 0.55940
H1M H 0.58108 0.78142 0.50618
O1M O 0.45887 0.84270 0.56848
C1W C 0.59294 0.49423 0.78543
C2W C 0.59092 0.59120 0.69221
C3W C 0.55940 0.55724 0.75501
H1W H 0.50618 0.58108 0.78142
O1W O 0.56848 0.45887 0.84270
C1D C 0.65706 0.46457 0.75577
C2D C 0.65908 0.55779 0.65880
C3D C 0.69060 0.49499 0.69276
H1D H 0.74382 0.46858 0.66892
O1D O 0.68152 0.40730 0.79113
C1H C 0.75577 0.65706 0.46457
C2H C 0.65880 0.65908 0.55779
C3H C 0.69276 0.69060 0.49499
H1H H 0.66892 0.74382 0.46858
O1H O 0.79113 0.68152 0.40730
C1R C 0.78543 0.59294 0.49423
C2R C 0.69221 0.59092 0.59120
C3R C 0.75501 0.55940 0.55724
H1R H 0.78142 0.50618 0.58108
O1R O 0.84270 0.56848 0.45887
O1C O 0.90730 0.70887 0.31848
O1F O 0.81848 0.59270 0.29113
O1O O 0.95887 0.65730 0.43152
O1T O 0.93152 0.54113 0.34270
V1A V 0.62500 0.37500 0.87500
V1C V 0.37500 0.87500 0.62500
#END
