
#######################################################################
#
#                 Cambridge Crystallographic Data Centre
#                                CCDC
#
#######################################################################
#
# If this CIF has been generated from an entry in the Cambridge
# Structural Database, then it will include bibliographic, chemical,
# crystal, experimental, refinement or atomic coordinate data resulting
# from the CCDC's data processing and validation procedures.
#
#######################################################################

data_CSD_CIF_GABFEX
_audit_creation_date 2016-01-25
_audit_creation_method CSD-ConQuest-V1
_database_code_CSD GABFEX
_database_code_depnum_ccdc_archive 'CCDC 989595'
_chemical_formula_sum 'C36 H50 Co3 N8 O22'
_chemical_formula_moiety
;
(C18 H10 Co1 O14 4-)n,2n(C9 H20 Co1 N4 O4 2+)
;
_journal_coden_Cambridge 580
_journal_volume 107
_journal_year 2016
_journal_page_first 19
_journal_name_full 'Polyhedron '
loop_
_publ_author_name
"Jiu-Fu Lu"
"Zhi-Hong Liu"
_chemical_name_systematic
;
catena-(bis((\m~2~-1,1'-Propane-1,3-diylbis(1H-imidazole))-tetra-aqua-cobalt) 
bis(\m~2~-benzene-1,3,5-tricarboxylate)-diaqua-cobalt)
;
_cell_volume   2196.064
_exptl_crystal_density_diffrn 1.699
_diffrn_ambient_temperature 293
#These two values have been output from a single CSD field.
_refine_ls_R_factor_gt 0.0237
_refine_ls_wR_factor_gt 0.0237
_symmetry_cell_setting monoclinic
_symmetry_space_group_name_H-M 'P 21/n'
_symmetry_Int_Tables_number 14
loop_
_symmetry_equiv_pos_site_id
_symmetry_equiv_pos_as_xyz
1 x,y,z
2 1/2-x,1/2+y,1/2-z
3 -x,-y,-z
4 -1/2+x,-1/2-y,-1/2+z
_cell_length_a 11.3384(6)
_cell_length_b 16.6100(8)
_cell_length_c 11.9430(6)
_cell_angle_alpha 90
_cell_angle_beta 102.483(5)
_cell_angle_gamma 90
_cell_formula_units_Z 2
loop_
_atom_type_symbol
_atom_type_radius_bond
C 0.68
H 0.23
Co 1.26
N 0.68
O 0.68
loop_
_atom_site_label
_atom_site_type_symbol
_atom_site_fract_x
_atom_site_fract_y
_atom_site_fract_z
N1 N 0.52739(13) 0.10951(9) 0.33850(12)
N2 N 0.38444(13) 0.05582(10) 0.41425(13)
N3 N 0.00914(13) 0.12274(10) 0.44091(13)
N4 N -0.18287(13) 0.13671(9) 0.35830(13)
C1 C 0.51606(17) 0.15302(13) 0.43358(16)
H1 H 0.56150 0.19820 0.46130
C2 C 0.42901(17) 0.12029(13) 0.48074(16)
H2 H 0.40430 0.13820 0.54580
C3 C 0.44616(15) 0.05182(11) 0.32981(15)
H3 H 0.43300 0.01300 0.27230
C4 C 0.29294(17) -0.00142(13) 0.43541(19)
H4 H 0.30920 -0.01350 0.51680
H5 H 0.30130 -0.05110 0.39520
C5 C 0.16277(16) 0.02760(13) 0.39854(17)
H6 H 0.14610 0.04060 0.31750
H7 H 0.10880 -0.01560 0.40940
C6 C 0.13749(17) 0.10021(14) 0.46446(19)
H8 H 0.16450 0.08950 0.54580
H9 H 0.18390 0.14530 0.44560
C7 C -0.08136(16) 0.09894(12) 0.35571(16)
H10 H -0.07350 0.06040 0.30130
C8 C -0.15420(18) 0.18811(13) 0.44960(17)
H11 H -0.20800 0.22330 0.47290
C9 C -0.03717(18) 0.18033(14) 0.50069(17)
H12 H 0.00430 0.20860 0.56430
Co1 Co 0.652678(19) 0.130196(14) 0.231472(19)
O1 O 0.63828(12) 0.25324(8) 0.25229(13)
H13 H 0.70120 0.27510 0.24560
O2 O 0.50323(12) 0.1251(1) 0.09392(13)
H14 H 0.44130 0.12100 0.11850
O3 O 0.69381(13) 0.01219(9) 0.21381(14)
H15 H 0.75130 0.00890 0.18260
O4 O 0.75721(13) 0.16515(10) 0.10402(13)
H16 H 0.79130 0.20810 0.12280
H17 H 0.504(2) 0.1188(15) 0.031(2)
H18 H 0.586(2) 0.2802(14) 0.2701(18)
H19 H 0.641(3) -0.0198(17) 0.187(2)
H20 H 0.788(3) 0.1431(16) 0.068(2)
C10 C 0.11342(15) 0.86309(10) 0.15254(15)
C11 C 0.22476(15) 0.81504(10) 0.20123(14)
C12 C 0.33457(15) 0.84168(10) 0.18243(14)
H21 H 0.33710 0.88720 0.13760
C13 C 0.44065(15) 0.80146(10) 0.22956(14)
C14 C 0.55983(15) 0.83564(10) 0.21669(14)
C15 C 0.43431(15) 0.73144(10) 0.29030(14)
H22 H 0.50470 0.70290 0.31990
C16 C 0.32508(14) 0.70288(10) 0.30790(14)
C17 C 0.21964(15) 0.74602(10) 0.26617(14)
H23 H 0.14660 0.72900 0.28140
C18 C 0.32664(15) 0.62649(10) 0.37602(14)
Co2 Co 0.00000 1.00000 0.00000
O5 O 0.12087(11) 0.91075(7) 0.07274(11)
O6 O 0.02274(12) 0.85475(9) 0.19447(13)
O7 O 0.24069(11) 0.61079(9) 0.42200(12)
O8 O 0.41963(10) 0.58368(7) 0.38289(10)
O9 O 0.65324(10) 0.81028(8) 0.28335(11)
O10 O 0.55625(12) 0.88930(8) 0.14282(11)
O11 O 0.12941(10) 1.03162(7) -0.10283(10)
H24 H 0.18590 1.05640 -0.06320
H25 H 0.086(2) 1.0692(15) -0.143(2)
N4* N 0.81713(13) 0.13671(9) 0.35830(13)
Co1* Co -0.347322(19) 0.130196(14) 0.231472(19)
C10B C -0.11342(15) 1.13691(10) -0.15254(15)
C11B C -0.22476(15) 1.18496(10) -0.20123(14)
C12B C -0.33457(15) 1.15832(10) -0.18243(14)
H21B H -0.33710 1.11280 -0.13760
C13B C -0.44065(15) 1.19854(10) -0.22956(14)
C14B C -0.55983(15) 1.16436(10) -0.21669(14)
C15B C -0.43431(15) 1.26856(10) -0.29030(14)
H22B H -0.50470 1.29710 -0.31990
C16B C -0.32508(14) 1.29712(10) -0.30790(14)
C17B C -0.21964(15) 1.25398(10) -0.26617(14)
H23B H -0.14660 1.27100 -0.28140
C18B C -0.32664(15) 1.37351(10) -0.37602(14)
O5B O -0.12087(11) 1.08925(7) -0.07274(11)
O6B O -0.02274(12) 1.14525(9) -0.19447(13)
O7B O -0.24069(11) 1.38921(9) -0.42200(12)
O8B O -0.41963(10) 1.41632(7) -0.38289(10)
O9B O -0.65324(10) 1.18972(8) -0.28335(11)
O10B O -0.55625(12) 1.11070(8) -0.14282(11)
O11B O -0.12941(10) 0.96838(7) 0.10283(10)
H24B H -0.18590 0.94360 0.06320
H25B H -0.086(2) 0.9308(15) 0.143(2)
Co2A Co -0.50000 1.50000 -0.50000
Co2A* Co 0.50000 0.50000 0.50000
O8A O 0.08037(10) 1.08368(7) 0.11711(10)
O8C O -0.08037(10) 0.91632(7) -0.11711(10)
#END
