
#######################################################################
#
#                 Cambridge Crystallographic Data Centre
#                                CCDC
#
#######################################################################
#
# If this CIF has been generated from an entry in the Cambridge
# Structural Database, then it will include bibliographic, chemical,
# crystal, experimental, refinement or atomic coordinate data resulting
# from the CCDC's data processing and validation procedures.
#
#######################################################################

data_CSD_CIF_GADPOS
_audit_creation_date 2011-02-28
_audit_creation_method CSD-ConQuest-V1
_database_code_CSD GADPOS
_database_code_depnum_ccdc_archive 'CCDC 756156'
_chemical_formula_sum 'C24 H26 Mn1 N12 O12'
_chemical_formula_moiety
;
(C14 H6 Mn1 N2 O8 2-)n,2n(C5 H6 N5 1+),4n(H2 O1)
;
_journal_coden_Cambridge 1295
_journal_volume 13
_journal_year 2010
_journal_page_first 1244
_journal_name_full 'Inorg.Chem.Commun. '
loop_
_publ_author_name
"B.Das"
"A.K.Boudalis"
"J.B.Baruah"
_chemical_name_systematic
;
catena-(bis(6-amino-9H-purine-1,7-diium) 
bis(\m~2~-pyridine-2,3-dicarboxylato)-manganese(ii) tetrahydrate)
;
_cell_volume    740.507
_exptl_crystal_colour 'pale yellow'
_exptl_crystal_density_diffrn 1.636
_exptl_crystal_description 'plates'
_diffrn_ambient_temperature 296
#These two values have been output from a single CSD field.
_refine_ls_R_factor_gt 0.0697
_refine_ls_wR_factor_gt 0.0697
_symmetry_cell_setting triclinic
_symmetry_space_group_name_H-M 'P -1'
_symmetry_Int_Tables_number 2
loop_
_symmetry_equiv_pos_site_id
_symmetry_equiv_pos_as_xyz
1 x,y,z
2 -x,-y,-z
_cell_length_a 6.6148(7)
_cell_length_b 8.9184(13)
_cell_length_c 13.4019(13)
_cell_angle_alpha 77.094(8)
_cell_angle_beta 80.684(8)
_cell_angle_gamma 75.215(8)
_cell_formula_units_Z 1
loop_
_atom_type_symbol
_atom_type_radius_bond
C 0.68
H 0.23
Mn 1.61
N 0.68
O 0.68
loop_
_atom_site_label
_atom_site_type_symbol
_atom_site_fract_x
_atom_site_fract_y
_atom_site_fract_z
C1 C 1.1524(11) 0.1068(8) 0.3694(5)
C2 C 1.0605(11) 0.1910(8) 0.4576(5)
C3 C 0.8589(11) 0.2867(9) 0.4640(5)
C4 C 0.7980(13) 0.3633(10) 0.5461(6)
C5 C 0.9292(14) 0.3474(11) 0.6179(6)
C6 C 1.1288(13) 0.2499(9) 0.6066(6)
C7 C 0.7033(11) 0.3075(9) 0.3871(5)
C8 C 0.6870(13) 0.0602(10) 0.1854(6)
H1 H 0.67310 0.06720 0.25450
C9 C 0.7542(11) -0.0294(9) 0.0471(5)
C10 C 0.8132(11) -0.1174(9) -0.0304(5)
C11 C 0.7023(13) 0.1242(10) -0.1456(6)
C12 C 0.6694(11) 0.1316(9) 0.0207(6)
H2 H 0.678(13) 0.424(9) 0.559(6)
H3 H 0.896(14) 0.407(11) 0.677(7)
H4 H 1.226(15) 0.245(11) 0.655(7)
H5 H 0.706(12) 0.167(9) -0.217(6)
H6 H 0.424(15) 0.546(12) 0.142(8)
H7 H 0.129(8) 0.482(11) 0.184(7)
H8 H 0.890(16) -0.316(12) -0.067(8)
H9 H 0.490(17) 0.457(12) 0.228(8)
H10 H -0.077(16) 0.444(14) 0.221(5)
H11 H 0.920(12) -0.329(9) 0.045(7)
H12 H 0.817(16) -0.079(12) -0.189(8)
Mn1 Mn 1.50000 0.00000 0.50000
N1 N 1.192(1) 0.1713(7) 0.5300(4)
N2 N 0.7651(10) -0.0728(8) 0.1523(5)
N3 N 0.6278(10) 0.1876(8) 0.1095(5)
N4 N 0.6403(11) 0.2150(8) -0.0768(5)
N5 N 0.7852(10) -0.0327(8) -0.1277(5)
N6 N 0.8986(11) -0.2710(8) -0.0169(6)
O1 O 1.3231(8) 0.0035(6) 0.3770(4)
O2 O 1.0527(9) 0.1466(7) 0.2919(4)
O3 O 0.5997(8) 0.2047(6) 0.3984(4)
O4 O 0.6818(9) 0.4304(7) 0.3217(4)
O5 O 0.4264(10) 0.4636(8) 0.1767(5)
O6 O 0.0009(10) 0.4838(7) 0.1594(4)
H13 H 0.540(12) 0.273(7) 0.120(8)
C1A C 1.8476(11) -0.1068(8) 0.6306(5)
C2A C 1.9395(11) -0.1910(8) 0.5424(5)
C3A C 2.1411(11) -0.2867(9) 0.5360(5)
C4A C 2.2020(13) -0.3633(10) 0.4539(6)
C5A C 2.0708(14) -0.3474(11) 0.3821(6)
C6A C 1.8712(13) -0.2499(9) 0.3934(6)
C7A C 2.2967(11) -0.3075(9) 0.6129(5)
H2A H 2.322(13) -0.424(9) 0.441(6)
H3A H 2.104(14) -0.407(11) 0.323(7)
H4A H 1.774(15) -0.245(11) 0.345(7)
Mn1* Mn 0.50000 0.00000 0.50000
Mn1** Mn 2.50000 0.00000 0.50000
N1A N 1.808(1) -0.1713(7) 0.4700(4)
O1A O 1.6769(8) -0.0035(6) 0.6230(4)
O2A O 1.9473(9) -0.1466(7) 0.7081(4)
O3A O 2.4003(8) -0.2047(6) 0.6016(4)
O3* O 1.5997(8) 0.2047(6) 0.3984(4)
O3A* O 1.4003(8) -0.2047(6) 0.6016(4)
O4A O 2.3182(9) -0.4304(7) 0.6783(4)
#END
