
#######################################################################
#
#                 Cambridge Crystallographic Data Centre
#                                CCDC
#
#######################################################################
#
# If this CIF has been generated from an entry in the Cambridge
# Structural Database, then it will include bibliographic, chemical,
# crystal, experimental, refinement or atomic coordinate data resulting
# from the CCDC's data processing and validation procedures.
#
#######################################################################

data_CSD_CIF_GAFVAL
_audit_creation_date 2005-02-28
_audit_creation_method CSD-ConQuest-V1
_database_code_CSD GAFVAL
_database_code_depnum_ccdc_archive 'CCDC 1162721'
_chemical_formula_sum 'C4 H2 Cs1 O9 Y1'
_chemical_formula_moiety
;
(C4 H2 O9 Y1 1-)n,n(Cs1 1+)
;
_journal_coden_Cambridge 1145
_journal_volume 10
_journal_year 2000
_journal_page_first 1707
_journal_name_full 'J.Mater.Chem. '
loop_
_publ_author_name
"T.Bataille"
"J.-P.Auffredic"
"D.Louer"
_chemical_name_systematic
;
catena-[Cesium bis(\m~2~-oxalato)-aqua-yttrium(iii)]
;
_cell_volume    453.268
_exptl_special_details
;
powder data
isostructural with the ammonium analogue

;
_diffrn_ambient_temperature ?
_diffrn_special_details
;
The study was carried out at room temperature,in the range 283-303K

;
#These two values have been output from a single CSD field.
_refine_ls_R_factor_gt 0.045
_refine_ls_wR_factor_gt 0.045
_symmetry_cell_setting monoclinic
_symmetry_space_group_name_H-M 'P 2/n'
_symmetry_Int_Tables_number 13
loop_
_symmetry_equiv_pos_site_id
_symmetry_equiv_pos_as_xyz
1 x,y,z
2 1/2-x,y,1/2-z
3 -x,-y,-z
4 -1/2+x,-y,-1/2+z
_cell_length_a 8.979(2)
_cell_length_b 6.2299(8)
_cell_length_c 8.103(1)
_cell_angle_alpha 90
_cell_angle_beta 90.05(2)
_cell_angle_gamma 90
_cell_formula_units_Z 2
loop_
_atom_type_symbol
_atom_type_radius_bond
C 0.68
Cs 1.67
O 0.68
Y 1.58
loop_
_atom_site_label
_atom_site_type_symbol
_atom_site_fract_x
_atom_site_fract_y
_atom_site_fract_z
Y1 Y 0.75000 0.1058(4) 0.75000
O1 O 0.6736(8) -0.118(2) 0.518(1)
O2 O 0.474(1) -0.241(1) 0.396(1)
O3 O 0.560(1) -0.160(2) 0.828(1)
O4 O 0.401(1) -0.237(2) 1.022(2)
C1 C 0.5463(9) -0.090(2) 0.459(2)
C2 C 0.490(2) -0.109(2) 0.956(2)
O5 O 0.75000 0.509(2) 0.75000
Cs1 Cs 0.25000 0.4927(3) 0.75000
C1B C 0.4537(9) 0.090(2) 0.541(2)
O1B O 0.3264(8) 0.118(2) 0.482(1)
O2B O 0.526(1) 0.241(1) 0.604(1)
C2B C 0.510(2) 0.109(2) 1.044(2)
O3B O 0.440(1) 0.160(2) 1.172(1)
O4B O 0.599(1) 0.237(2) 0.978(2)
O1A O 0.8264(8) -0.118(2) 0.982(1)
O2C O 0.974(1) 0.241(1) 0.896(1)
O3A O 0.940(1) -0.160(2) 0.672(1)
O4C O 0.901(1) 0.237(2) 0.522(2)
Y1B Y 0.25000 -0.1058(4) 0.25000
Y1B* Y 0.25000 -0.1058(4) 1.25000
#END
