
#######################################################################
#
#                 Cambridge Crystallographic Data Centre
#                                CCDC
#
#######################################################################
#
# If this CIF has been generated from an entry in the Cambridge
# Structural Database, then it will include bibliographic, chemical,
# crystal, experimental, refinement or atomic coordinate data resulting
# from the CCDC's data processing and validation procedures.
#
#######################################################################

data_CSD_CIF_GAGQAI
_audit_creation_date 2010-11-04
_audit_creation_method CSD-ConQuest-V1
_database_code_CSD GAGQAI
_chemical_formula_sum 'C152 H80 Cl3 Fe27 N192 O8'
_chemical_formula_moiety
;
(Fe1 2+)3n,n(C152 H80 Cl3 Fe24 N192 O8 6-)
;
_journal_coden_Cambridge 1475
_journal_volume 1
_journal_year 2010
_journal_page_first 184
_journal_name_full 'Chemical Science '
loop_
_publ_author_name
"K.Sumida"
"S.Horike"
"S.S.Kaye"
"Z.R.Herm"
"W.L.Queen"
"C.M.Brown"
"F.Grandjean"
"G.J.Long"
"A.Dailly"
"J.R.Long"
_chemical_name_systematic
;
catena-[tris(Iron) 
octakis(\m~6~-1,3,5-benzenetristetrazolato)-tris(\m~4~-chloro)-octakis(methano
l)-tetracosa-iron]
;
_chemical_melting_point 500
_cell_volume   6724.941
_exptl_crystal_colour 'colorless'
_exptl_special_details
;
Melts above 500K
The framework has been desolvated by heating to 135 deg.C for 16h under 
powder data
air- and moisture-sensitive
The authors state residual methanol solvent remains coordinated to the 
degassed framework, whilst the charge balancing iron cation is modelled as 
weakly coordinated to the chloride ion (d = 4.23 A) with additional 
coordination to neighbouring tetrazolate rings. Polymeric structure in which 
program limits have been exceeded. A complete 2D diagram is pending. Further 
details may be found in the paper and deposited cif. No reply to our request 
for clarification of the structure
;
_exptl_crystal_description 'block-shaped'
_diffrn_ambient_temperature 4
_diffrn_radiation_probe 'neutron radiation'
_refine_special_details
;
The partial occupancy methanol solvent molecule has the carbon atom 
disordered by two-fold symmetry.
;
_symmetry_cell_setting cubic
_symmetry_space_group_name_H-M 'P m -3 m'
_symmetry_Int_Tables_number 221
loop_
_symmetry_equiv_pos_site_id
_symmetry_equiv_pos_as_xyz
1 x,y,z
2 -x,-y,z
3 -x,y,-z
4 x,-y,-z
5 z,x,y
6 z,-x,-y
7 -z,-x,y
8 -z,x,-y
9 y,z,x
10 -y,z,-x
11 y,-z,-x
12 -y,-z,x
13 y,x,-z
14 -y,-x,-z
15 y,-x,z
16 -y,x,z
17 x,z,-y
18 -x,z,y
19 -x,-z,-y
20 x,-z,y
21 z,y,-x
22 z,-y,x
23 -z,y,x
24 -z,-y,-x
25 -x,-y,-z
26 x,y,-z
27 x,-y,z
28 -x,y,z
29 -z,-x,-y
30 -z,x,y
31 z,x,-y
32 z,-x,y
33 -y,-z,-x
34 y,-z,x
35 -y,z,x
36 y,z,-x
37 -y,-x,z
38 y,x,z
39 -y,x,-z
40 y,-x,-z
41 -x,-z,y
42 x,-z,-y
43 x,z,y
44 -x,z,-y
45 -z,-y,x
46 -z,y,-x
47 z,-y,-x
48 z,y,x
_cell_length_a 18.8754(2)
_cell_length_b 18.8754(2)
_cell_length_c 18.8754(2)
_cell_angle_alpha 90
_cell_angle_beta 90
_cell_angle_gamma 90
_cell_formula_units_Z 1
loop_
_atom_type_symbol
_atom_type_radius_bond
C 0.68
H 0.23
Cl 0.99
Fe 1.52
N 0.68
O 0.71
loop_
_atom_site_label
_atom_site_type_symbol
_atom_site_fract_x
_atom_site_fract_y
_atom_site_fract_z
Fe1 Fe 0.13538 0.50000 0.00000
C1 C 0.15160 0.33575 0.15160
C2 C 0.18004 0.27115 0.18004
C3 C 0.24227 0.24227 0.14984
Cl1 Cl 0.00000 0.50000 0.00000
N1 N 0.13108 0.42056 0.08167
N2 N 0.17569 0.36802 0.09165
H1 H 0.26572 0.26572 0.10595
Fe2 Fe 0.27613 0.00000 0.00000
O1 O 0.24601 0.50000 0.00000
C4 C 0.33330 0.50000 0.03524
H2? H 0.29245 0.50000 0.09581
H3? H 0.34600 0.45522 0.00000
Fe1A Fe -0.13538 0.50000 0.00000
Fe1U Fe 0.00000 0.50000 0.13538
Fe1T Fe 0.00000 0.50000 -0.13538
Fe1H Fe 0.50000 0.00000 0.13538
Fe1L Fe 0.50000 0.13538 0.00000
Fe1P Fe 0.13538 0.00000 0.50000
Fe1D Fe 0.00000 0.13538 0.50000
Fe1M Fe -0.50000 0.86462 0.00000
Fe1I Fe -0.50000 1.00000 -0.13538
Fe1E Fe 0.00000 0.86462 -0.50000
Fe1Q Fe -0.13538 1.00000 -0.50000
C1H C 0.33575 0.15160 0.15160
C1D C 0.15160 0.15160 0.33575
C1W C -0.15160 0.66425 -0.15160
C1M C -0.33575 0.84840 -0.15160
C1R C -0.15160 0.84840 -0.33575
C2H C 0.27115 0.18004 0.18004
C2D C 0.18004 0.18004 0.27115
C2W C -0.18004 0.72885 -0.18004
C2M C -0.27115 0.81996 -0.18004
C2R C -0.18004 0.81996 -0.27115
C3D C 0.14984 0.24227 0.24227
C3H C 0.24227 0.14984 0.24227
C3M C -0.24227 0.75773 -0.14984
C3W C -0.14984 0.75773 -0.24227
C3R C -0.24227 0.85016 -0.24227
N1C N 0.13108 0.57944 -0.08167
N1Y N 0.13108 0.42056 -0.08167
N1Z N 0.13108 0.57944 0.08167
N1UA N 0.08167 0.42056 0.13108
N1U N 0.08167 0.57944 0.13108
N1V N -0.08167 0.42056 0.13108
N1RA N -0.08167 0.57944 0.13108
N1A N -0.13108 0.57944 0.08167
N1B N -0.13108 0.42056 -0.08167
N1X N -0.13108 0.57944 -0.08167
N1AA N -0.13108 0.42056 0.08167
N1T N 0.08167 0.42056 -0.13108
N1W N -0.08167 0.57944 -0.13108
N1SA N -0.08167 0.42056 -0.13108
N1TA N 0.08167 0.57944 -0.13108
N1H N 0.42056 0.08167 0.13108
N1KA N 0.42056 0.13108 0.08167
N1PA N 0.13108 0.08167 0.42056
N1D N 0.08167 0.13108 0.42056
N1M N -0.42056 0.86892 -0.08167
N1FA N -0.42056 0.91833 -0.13108
N1BA N -0.08167 0.86892 -0.42056
N1R N -0.13108 0.91833 -0.42056
N2UA N 0.09165 0.36802 0.17569
N2H N 0.36802 0.09165 0.17569
N2KA N 0.36802 0.17569 0.09165
N2D N 0.09165 0.17569 0.36802
N2PA N 0.17569 0.09165 0.36802
N2X N -0.17569 0.63198 -0.09165
N2W N -0.09165 0.63198 -0.17569
N2M N -0.36802 0.82431 -0.09165
N2FA N -0.36802 0.90835 -0.17569
N2R N -0.17569 0.90835 -0.36802
N2BA N -0.09165 0.82431 -0.36802
H1D H 0.10595 0.26572 0.26572
H1H H 0.26572 0.10595 0.26572
H1M H -0.26572 0.73428 -0.10595
H1W H -0.10595 0.73428 -0.26572
H1R H -0.26572 0.89405 -0.26572
O1U O 0.00000 0.50000 0.24601
O1A O -0.24601 0.50000 0.00000
O1T O 0.00000 0.50000 -0.24601
C4C C 0.33330 0.50000 -0.03524
#END
