
#######################################################################
#
#                 Cambridge Crystallographic Data Centre
#                                CCDC
#
#######################################################################
#
# If this CIF has been generated from an entry in the Cambridge
# Structural Database, then it will include bibliographic, chemical,
# crystal, experimental, refinement or atomic coordinate data resulting
# from the CCDC's data processing and validation procedures.
#
#######################################################################

data_CSD_CIF_GAGRIS01
_audit_creation_date 2016-01-27
_audit_creation_method CSD-ConQuest-V1
_database_code_CSD GAGRIS01
_database_code_depnum_ccdc_archive 'CCDC 1439150'
_chemical_formula_sum 'C22 H28 In1 N1 O8 S2'
_chemical_formula_moiety
;
(C10 H24 N1 1+)n,n(C12 H4 In1 O8 S2 1-)
;
_journal_coden_Cambridge 1147
_journal_volume 16
_journal_year 2016
_journal_page_first 1550
_journal_name_full 'Cryst.Growth Des. '
loop_
_publ_author_name
"J.J.Mihaly"
"M.Zeller"
"D.T.Genna"
_chemical_name_systematic
;
catena-[triethylbutylammonium  bis(\m-thiophene-2,5-dicarboxylato)-indium]
;
_chemical_name_common
;
YCM-21
;
_cell_volume   2476.719
_exptl_crystal_colour 'colorless'
_exptl_crystal_density_diffrn 1.645
_exptl_special_details
;
tetragonal P41 polymorph

;
_exptl_crystal_description 'block'
_diffrn_ambient_temperature 100
_refine_special_details
;
C13,C14,C15,C16,C17,C18,C19,C20,C21,C22,N1 and 
C13B,C14B,C15B,C16B,C17B,C18B,C19B,C20B,C21B,C22B,N1B disordered over two 
;
#These two values have been output from a single CSD field.
_refine_ls_R_factor_gt 0.0528
_refine_ls_wR_factor_gt 0.0528
_symmetry_cell_setting tetragonal
_symmetry_space_group_name_H-M 'P 41'
_symmetry_Int_Tables_number 76
loop_
_symmetry_equiv_pos_site_id
_symmetry_equiv_pos_as_xyz
1 x,y,z
2 -x,-y,1/2+z
3 -y,x,1/4+z
4 y,-x,3/4+z
_cell_length_a 10.2339(10)
_cell_length_b 10.2339(10)
_cell_length_c 23.648(2)
_cell_angle_alpha 90
_cell_angle_beta 90
_cell_angle_gamma 90
_cell_formula_units_Z 4
loop_
_atom_type_symbol
_atom_type_radius_bond
C 0.68
H 0.23
In 1.42
N 0.68
O 0.68
S 1.02
loop_
_atom_site_label
_atom_site_type_symbol
_atom_site_fract_x
_atom_site_fract_y
_atom_site_fract_z
C1 C -0.0599(9) 0.3830(9) 0.3746(4)
C2 C -0.0675(10) 0.2444(10) 0.3573(4)
C3 C -0.0894(10) 0.1931(10) 0.3043(4)
H1 H -0.10410 0.24470 0.27150
C4 C -0.0875(10) 0.0544(9) 0.3042(4)
H2 H -0.09940 0.00290 0.27120
C5 C -0.0668(9) 0.0034(9) 0.3567(4)
C6 C -0.0618(9) -0.1347(9) 0.3738(4)
C7 C 0.1854(10) 0.6269(9) 0.4477(4)
C8 C 0.3261(9) 0.6281(11) 0.4667(4)
C9 C 0.3743(9) 0.6566(10) 0.5198(4)
H3 H 0.32120 0.67410 0.55180
C10 C 0.5118(10) 0.6568(9) 0.5207(4)
H4 H 0.56150 0.67400 0.55380
C11 C 0.5673(9) 0.6296(9) 0.4692(4)
C12 C 0.7079(9) 0.6239(9) 0.4525(4)
O1 O -0.0606(7) 0.4719(6) 0.3382(3)
O2 O -0.0504(7) 0.4078(7) 0.4270(3)
O3 O -0.0661(7) -0.2248(7) 0.3386(3)
O4 O -0.0531(7) -0.1607(7) 0.4265(3)
O5 O 0.1637(8) 0.6227(8) 0.3958(3)
O6 O 0.0976(6) 0.6297(7) 0.4850(3)
O7 O 0.7305(7) 0.6168(7) 0.4006(3)
O8 O 0.7954(6) 0.6287(7) 0.4888(3)
S1 S -0.0490(2) 0.1239(2) 0.40785(14)
S2 S 0.4480(2) 0.6019(2) 0.41846(10)
In1 In -0.05404(5) 0.62405(5) 0.41149(5)
N1 N 0.3762(16) 0.0339(16) 0.3611(7)
C13 C 0.2932(17) 0.1512(18) 0.3490(7)
H5 H 0.27490 0.19490 0.38550
H6 H 0.20860 0.11960 0.33400
C14 C 0.3442(18) 0.2533(18) 0.3087(8)
H7 H 0.42960 0.28590 0.32240
H8 H 0.35780 0.21350 0.27100
C15 C 0.252(2) 0.364(2) 0.3038(8)
H9 H 0.23700 0.39970 0.34210
H10 H 0.16720 0.32890 0.29010
C16 C 0.293(2) 0.476(2) 0.2648(10)
H11 H 0.29580 0.44480 0.22560
H12 H 0.37980 0.50730 0.27590
H13 H 0.22980 0.54740 0.26790
C17 C 0.3123(15) -0.0551(16) 0.4046(7)
H14 H 0.35340 -0.14260 0.40330
H15 H 0.21820 -0.06520 0.39580
C18 C 0.329(2) 0.006(3) 0.4654(8)
H16 H 0.41600 -0.01530 0.48000
H17 H 0.26240 -0.03090 0.49070
H18 H 0.31840 0.10060 0.46330
C19 C 0.5154(16) 0.0733(18) 0.3787(8)
H19 H 0.56160 0.10930 0.34540
H20 H 0.50990 0.14330 0.40750
C20 C 0.5941(16) -0.0390(17) 0.4025(9)
H21 H 0.62060 -0.09720 0.37170
H22 H 0.54060 -0.08760 0.42970
H23 H 0.67190 -0.00480 0.42160
C21 C 0.3939(16) -0.0506(18) 0.3079(7)
H24 H 0.45980 -0.11890 0.31590
H25 H 0.42850 0.00500 0.27710
C22 C 0.268(2) -0.117(3) 0.2874(10)
H26 H 0.28290 -0.15760 0.25050
H27 H 0.19820 -0.05130 0.28390
H28 H 0.24100 -0.18380 0.31470
N2? N 0.378(2) 0.023(2) 0.3612(9)
C23? C 0.382(2) 0.127(3) 0.3157(11)
H29? H 0.43740 0.19950 0.32940
H30? H 0.42570 0.08910 0.28210
C24? C 0.254(3) 0.183(3) 0.2970(13)
H31? H 0.20450 0.11460 0.27690
H32? H 0.20340 0.20800 0.33100
C25? C 0.265(3) 0.300(3) 0.2592(12)
H33? H 0.17870 0.31320 0.24080
H34? H 0.32830 0.27970 0.22900
C26? C 0.304(4) 0.428(3) 0.2860(16)
H35? H 0.37340 0.41200 0.31390
H36? H 0.22870 0.46740 0.30470
H37? H 0.33710 0.48730 0.25670
C27? C 0.324(2) 0.087(2) 0.4141(11)
H38? H 0.24460 0.13720 0.40360
H39? H 0.38910 0.15000 0.42860
C28? C 0.288(4) -0.010(5) 0.4624(12)
H40? H 0.35900 -0.07240 0.46760
H41? H 0.20750 -0.05660 0.45230
H42? H 0.27380 0.03910 0.49750
C29? C 0.510(2) -0.047(3) 0.3689(12)
H43? H 0.49740 -0.12460 0.39340
H44? H 0.54120 -0.07850 0.33160
C30? C 0.613(3) 0.040(3) 0.3946(15)
H45? H 0.69940 0.00270 0.38720
H46? H 0.59840 0.04560 0.43550
H47? H 0.60690 0.12680 0.37780
C31? C 0.284(2) -0.088(3) 0.3448(11)
H48? H 0.28190 -0.15230 0.37610
H49? H 0.19490 -0.05100 0.34120
C32? C 0.317(3) -0.161(4) 0.2899(15)
H50? H 0.25250 -0.22940 0.28320
H51? H 0.40430 -0.19970 0.29310
H52? H 0.31620 -0.09890 0.25820
O3* O -0.0661(7) 0.7752(7) 0.3386(3)
O4* O -0.0531(7) 0.8393(7) 0.4265(3)
O7* O -0.2695(7) 0.6168(7) 0.4006(3)
O8* O -0.2046(6) 0.6287(7) 0.4888(3)
In1* In -0.05404(5) -0.37595(5) 0.41149(5)
In1** In 0.94596(5) 0.62405(5) 0.41149(5)
#END
