
#######################################################################
#
#                 Cambridge Crystallographic Data Centre
#                                CCDC
#
#######################################################################
#
# If this CIF has been generated from an entry in the Cambridge
# Structural Database, then it will include bibliographic, chemical,
# crystal, experimental, refinement or atomic coordinate data resulting
# from the CCDC's data processing and validation procedures.
#
#######################################################################

data_CSD_CIF_GAGSAL
_audit_creation_date 2016-01-27
_audit_creation_method CSD-ConQuest-V1
_database_code_CSD GAGSAL
_database_code_depnum_ccdc_archive 'CCDC 1439152'
_chemical_formula_sum 'C25 H31 In1 N2 O11 S2'
_chemical_formula_moiety
;
(C12 H4 In1 O8 S2 1-)n,n(C8 H16 N1 O1 1+),0.5n(C4 H8 O2),n(C3 H7 N1 O1)
;
_journal_coden_Cambridge 1147
_journal_volume 16
_journal_year 2016
_journal_page_first 1550
_journal_name_full 'Cryst.Growth Des. '
loop_
_publ_author_name
"J.J.Mihaly"
"M.Zeller"
"D.T.Genna"
_chemical_name_systematic
;
catena-[8-oxa-5-azoniaspiro[4.5]decane 
bis(\m-thiophene-2,5-dicarboxylato)-indium hemikis(1,4-dioxane)  
N,N-dimethylformamide solvate]
;
_chemical_name_common
;
YCM-21
;
_cell_volume   2817.636
_exptl_crystal_colour 'colorless'
_exptl_crystal_density_diffrn 1.684
_exptl_crystal_description 'plate'
_diffrn_ambient_temperature 100
_diffrn_special_details
;
twin

;
_refine_special_details
;
C13,C14,C15,N1,O9 and C13B,C14B,C15B,N1B,O9B disordered over two sites with 
occupancies 0.823:0.177.
;
#These two values have been output from a single CSD field.
_refine_ls_R_factor_gt 0.0509
_refine_ls_wR_factor_gt 0.0509
_symmetry_cell_setting monoclinic
_symmetry_space_group_name_H-M 'P 21/c'
_symmetry_Int_Tables_number 14
loop_
_symmetry_equiv_pos_site_id
_symmetry_equiv_pos_as_xyz
1 x,y,z
2 -x,1/2+y,1/2-z
3 -x,-y,-z
4 x,-1/2-y,-1/2+z
_cell_length_a 10.1955(7)
_cell_length_b 10.2208(7)
_cell_length_c 27.279(2)
_cell_angle_alpha 90
_cell_angle_beta 97.605(2)
_cell_angle_gamma 90
_cell_formula_units_Z 4
loop_
_atom_type_symbol
_atom_type_radius_bond
C 0.68
H 0.23
In 1.42
N 0.68
O 0.68
S 1.02
loop_
_atom_site_label
_atom_site_type_symbol
_atom_site_fract_x
_atom_site_fract_y
_atom_site_fract_z
C1 C 0.4757(3) -0.0542(3) 0.39679(11)
C2 C 0.3418(3) -0.0512(3) 0.41286(11)
C3 C 0.3062(4) -0.0366(3) 0.45952(12)
H1 H 0.36800 -0.02740 0.48860
C4 C 0.1679(4) -0.0368(4) 0.45939(12)
H2 H 0.12610 -0.02760 0.48830
C5 C 0.1003(3) -0.0517(3) 0.41264(11)
C6 C -0.0438(3) -0.0537(3) 0.39628(12)
C7 C 0.6855(3) 0.1847(3) 0.32825(11)
C8 C 0.6733(3) 0.3241(3) 0.31288(11)
C9 C 0.6290(3) 0.3744(3) 0.26676(12)
H3 H 0.60230 0.32240 0.23830
C10 C 0.6281(3) 0.5127(3) 0.26689(12)
H4 H 0.60040 0.56410 0.23840
C11 C 0.6715(3) 0.5651(3) 0.31260(11)
C12 C 0.6853(3) 0.7035(3) 0.32785(11)
In1 In 0.70305(2) -0.05616(2) 0.36361(2)
O1 O 0.5765(2) -0.0513(2) 0.42836(8)
O2 O 0.4815(2) -0.0606(2) 0.35155(8)
O3 O -0.1232(2) -0.0542(2) 0.42813(8)
O4 O -0.0839(2) -0.0552(2) 0.35093(8)
O5 O 0.6722(3) 0.0943(2) 0.29672(9)
O6 O 0.7079(3) 0.1581(2) 0.37491(8)
O7 O 0.6702(3) 0.7940(2) 0.29638(8)
O8 O 0.7120(2) 0.72655(19) 0.37329(8)
S1 S 0.20637(9) -0.06456(8) 0.36872(3)
S2 S 0.71154(8) 0.44426(7) 0.35644(3)
O9 O -0.0313(4) 0.6241(3) 0.26485(13)
C13 C 0.1094(4) 0.4324(4) 0.26662(13)
H5 H 0.10460 0.33580 0.26410
H6 H 0.15660 0.46480 0.23960
C14 C -0.0292(5) 0.4878(5) 0.26031(16)
H7 H -0.07470 0.46290 0.22730
H8 H -0.07890 0.44870 0.28550
C15 C 0.0338(6) 0.6616(5) 0.3113(2)
H9 H -0.01180 0.62210 0.33760
H10 H 0.02950 0.75790 0.31470
C16 C 0.1805(6) 0.6173(4) 0.31819(19)
H11 H 0.22670 0.65610 0.29200
H12 H 0.22520 0.64750 0.35060
C17 C 0.3266(4) 0.4207(5) 0.31919(16)
H13 H 0.36050 0.42800 0.28690
H14 H 0.38510 0.47140 0.34420
C18 C 0.3197(6) 0.2795(5) 0.3346(2)
H15 H 0.39930 0.25510 0.35760
H16 H 0.31290 0.22110 0.30540
C19 C 0.1945(7) 0.2690(5) 0.3605(2)
H17 H 0.21710 0.23800 0.39490
H18 H 0.13000 0.20760 0.34250
C20 C 0.1368(5) 0.4101(5) 0.35943(16)
H19 H 0.03890 0.40860 0.35560
H20 H 0.17020 0.45850 0.39000
N1 N 0.1857(3) 0.4696(3) 0.31541(10)
C21 C 0.0186(8) 0.5941(9) 0.4628(3)
H21 H -0.07240 0.61310 0.44690
H22 H 0.08100 0.64790 0.44650
C22 C -0.0310(12) 0.3740(11) 0.4843(3)
H23 H -0.00440 0.28180 0.48050
H24 H -0.12490 0.38250 0.46980
O10 O 0.0480(7) 0.4564(7) 0.4575(2)
O11 O 0.3432(6) 0.6123(5) 0.4307(2)
C23 C 0.4603(6) 0.6374(5) 0.44367(19)
H25 H 0.51780 0.63210 0.41910
N2 N 0.5141(8) 0.6711(10) 0.4887(2)
C24 C 0.4395(10) 0.6894(9) 0.5292(3)
H26 H 0.44940 0.78000 0.54100
H27 H 0.47220 0.62960 0.55610
H28 H 0.34580 0.67130 0.51820
C25 C 0.6577(8) 0.6903(8) 0.4982(3)
H29 H 0.69570 0.68120 0.46720
H30 H 0.69660 0.62450 0.52200
H31 H 0.67680 0.77800 0.51190
O12? O 0.399(3) 0.596(3) 0.4170(8)
C26? C 0.387(3) 0.640(3) 0.459(1)
H32? H 0.30030 0.65890 0.46580
N3? N 0.484(4) 0.663(6) 0.4944(14)
C27? C 0.622(4) 0.652(4) 0.4803(13)
H33? H 0.61690 0.61430 0.44700
H34? H 0.67490 0.59430 0.50400
H35? H 0.66270 0.73830 0.48080
C28? C 0.485(6) 0.714(6) 0.5438(15)
H36? H 0.54200 0.79160 0.54820
H37? H 0.51800 0.64720 0.56790
H38? H 0.39450 0.73870 0.54870
In1* In -0.29695(2) -0.05616(2) 0.36361(2)
In1** In 0.70305(2) 0.94384(2) 0.36361(2)
O3* O 0.8768(2) -0.0542(2) 0.42813(8)
O4* O 0.9161(2) -0.0552(2) 0.35093(8)
O7* O 0.6702(3) -0.2060(2) 0.29638(8)
O8* O 0.7120(2) -0.27345(19) 0.37329(8)
C21B C -0.0186(8) 0.4059(9) 0.5372(3)
H21B H 0.07240 0.38690 0.55310
H22B H -0.08100 0.35210 0.55350
C22B C 0.0310(12) 0.6260(11) 0.5157(3)
H23B H 0.00440 0.71820 0.51950
H24B H 0.12490 0.61750 0.53020
O10B O -0.0480(7) 0.5436(7) 0.5425(2)
#END
