
#######################################################################
#
#                 Cambridge Crystallographic Data Centre
#                                CCDC
#
#######################################################################
#
# If this CIF has been generated from an entry in the Cambridge
# Structural Database, then it will include bibliographic, chemical,
# crystal, experimental, refinement or atomic coordinate data resulting
# from the CCDC's data processing and validation procedures.
#
#######################################################################

data_CSD_CIF_GAGTEQ
_audit_creation_date 2016-01-27
_audit_creation_method CSD-ConQuest-V1
_database_code_CSD GAGTEQ
_database_code_depnum_ccdc_archive 'CCDC 1441517'
_chemical_formula_sum 'C35 H31 N3 O20 Th2'
_chemical_formula_moiety
;
(C33 H23 N2 O20 Th2 1-)n,n(C2 H8 N1 1+)
;
_journal_coden_Cambridge 1147
_journal_volume 16
_journal_year 2016
_journal_page_first 1667
_journal_name_full 'Cryst.Growth Des. '
loop_
_publ_author_name
"N.P.Martin"
"C.Volkringer"
"C.Falaise"
"N.Henry"
"T.Loiseau"
_chemical_name_systematic
;
catena-[dimethylammonium 
tris(\m-benzene-1,3,5-tricarboxylato)-bis(N,N-dimethylformamide)-di-thorium]
;
_cell_volume   4374.894
_exptl_crystal_colour 'colorless'
_exptl_crystal_description 'platelet'
_diffrn_ambient_temperature 296
#These two values have been output from a single CSD field.
_refine_ls_R_factor_gt 0.0377
_refine_ls_wR_factor_gt 0.0377
_symmetry_cell_setting monoclinic
_symmetry_space_group_name_H-M 'P 21/c'
_symmetry_Int_Tables_number 14
loop_
_symmetry_equiv_pos_site_id
_symmetry_equiv_pos_as_xyz
1 x,y,z
2 -x,1/2+y,1/2-z
3 -x,-y,-z
4 x,-1/2-y,-1/2+z
_cell_length_a 20.2327(14)
_cell_length_b 10.0714(7)
_cell_length_c 21.6730(14)
_cell_angle_alpha 90
_cell_angle_beta 97.856(3)
_cell_angle_gamma 90
_cell_formula_units_Z 4
loop_
_atom_type_symbol
_atom_type_radius_bond
C 0.68
H 0.23
N 0.68
O 0.68
Th 2.06
loop_
_atom_site_label
_atom_site_type_symbol
_atom_site_fract_x
_atom_site_fract_y
_atom_site_fract_z
Th1 Th 0.14896(2) 0.79057(2) 0.41306(2)
Th2 Th 0.35648(2) 0.78556(2) 0.59304(2)
O1 O 0.1615(2) 0.8651(5) 0.51827(17)
O2 O 0.1761(2) 0.7525(5) 0.80523(18)
O3 O 0.3441(2) 0.8522(5) 0.48742(18)
O4 O 0.1067(3) 0.8950(5) 0.83782(18)
O5 O 0.3276(3) 0.7422(6) 0.2000(2)
O6 O 0.2682(2) 0.7719(5) 0.4149(2)
O7 O 0.3839(3) 0.9045(5) 0.16743(19)
O8 O 0.1925(2) 0.6014(4) 0.4740(2)
O9 O 0.5408(2) 1.1524(5) 0.3307(2)
O10 O -0.0557(2) 1.1223(5) 0.66691(19)
O11 O 0.1925(3) -0.0011(5) 0.3984(2)
O12 O 0.0565(3) 0.6793(5) 0.4531(2)
O13 O -0.0569(2) 1.0438(6) 0.5723(2)
C1 C 0.1564(3) 0.8576(6) 0.6843(2)
H1 H 0.19690 0.81500 0.69630
C2 C 0.1371(3) 0.8908(6) 0.6218(2)
C3 C 0.3607(3) 0.8861(6) 0.3835(2)
C4 C 0.0751(3) 0.9502(6) 0.6031(2)
H2 H 0.06070 0.96570 0.56110
C5 C 0.3214(3) 0.8339(6) 0.4319(2)
C6 C 0.4164(3) 0.9644(7) 0.4001(3)
H3 H 0.43040 0.98390 0.44180
C7 C 0.1150(3) 0.8884(6) 0.7283(2)
C8 C 0.1339(3) 0.8455(6) 0.7944(2)
C9 C 0.0355(3) 0.9858(6) 0.6476(3)
C10 C 0.3627(3) 0.8476(7) 0.2104(3)
C11 C 0.0561(3) 0.9570(7) 0.7102(3)
H4 H 0.03020 0.98410 0.74020
C12 C 0.2891(4) 0.1992(6) 0.5560(3)
C13 C 0.3783(3) 0.8971(7) 0.2760(3)
C14 C 0.1832(3) 0.8634(6) 0.5752(2)
C15 C 0.2480(3) 0.4052(6) 0.5069(3)
C16 C 0.3414(3) 0.8520(7) 0.3213(3)
H5 H 0.30400 0.79910 0.31020
C17 C 0.2198(3) 0.3358(6) 0.4547(3)
H6 H 0.19740 0.38130 0.42080
C18 C 0.4517(3) 1.0139(7) 0.3542(3)
C19 C 0.2250(3) 0.1966(6) 0.4528(3)
C20 C 0.2832(3) 0.3380(6) 0.5574(3)
H7 H 0.30290 0.38530 0.59200
O14 O 0.5354(3) 1.1093(7) 0.4286(2)
O15 O 0.2426(2) 0.8431(7) 0.5962(2)
O16 O 0.3464(3) 0.0128(5) 0.6042(3)
O17 O 0.2834(3) 0.6163(5) 0.5442(3)
C21 C -0.0296(3) 1.0536(7) 0.6277(3)
C22 C 0.2414(3) 0.5521(6) 0.5089(3)
C23 C 0.2605(4) 0.1309(7) 0.5037(3)
H8 H 0.26490 0.03910 0.50240
C24 C 0.4323(3) 0.9812(7) 0.2921(3)
H9 H 0.45540 1.01550 0.26140
C25 C 0.1933(4) 0.1246(7) 0.3961(3)
C26 C 0.5123(3) 1.0983(8) 0.3721(3)
C27 C 0.3266(5) 0.1305(7) 0.6114(4)
C28 C 0.0459(5) 0.657(1) 0.5091(4)
C29 C 0.4411(8) 0.4942(19) 0.5631(8)
H10 H 0.45670 0.48300 0.60520
O18 O 0.1674(6) 0.1877(6) 0.3519(3)
N1 N -0.0152(4) 0.6760(9) 0.5273(4)
O19 O 0.3395(6) 0.1909(7) 0.6601(3)
N2 N 0.4414(6) 0.3876(13) 0.5303(5)
O20 O 0.4227(3) 0.6161(7) 0.5474(3)
C30 C -0.0268(7) 0.6434(15) 0.5903(7)
C31 C -0.0738(8) 0.7214(16) 0.4827(7)
C32 C 0.4723(9) 0.263(2) 0.5464(9)
C33 C 0.4101(11) 0.385(2) 0.4619(10)
N3 N 0.3453(13) 0.424(3) 0.2864(11)
C34 C 0.2917(11) 0.483(2) 0.3056(10)
C35 C 0.4063(14) 0.469(3) 0.2877(13)
N4 N 0.1655(9) 0.1195(19) 0.2235(8)
C36 C 0.2013(16) 0.020(3) 0.2100(14)
C37 C 0.106(2) 0.090(4) 0.2150(18)
Th1* Th 0.14896(2) -0.20943(2) 0.41306(2)
Th1B Th -0.14896(2) 1.20943(2) 0.58694(2)
Th1C Th 0.14896(2) 0.70943(2) 0.91306(2)
Th2* Th 0.35648(2) -0.21444(2) 0.59304(2)
Th2B Th 0.64352(2) 1.21444(2) 0.40696(2)
Th2C Th 0.35648(2) 0.71444(2) 0.09304(2)
O2C O 0.1761(2) 0.7475(5) 0.30523(18)
O4C O 0.1067(3) 0.6050(5) 0.33782(18)
O5C O 0.3276(3) 0.7578(6) 0.7000(2)
O7C O 0.3839(3) 0.5955(5) 0.66743(19)
O9B O 0.4592(2) 0.8476(5) 0.6693(2)
O10B O 0.0557(2) 0.8777(5) 0.33309(19)
O11* O 0.1925(3) 0.9989(5) 0.3984(2)
O13B O 0.0569(2) 0.9562(6) 0.4277(2)
O14B O 0.4646(3) 0.8907(7) 0.5714(2)
O16* O 0.3464(3) 1.0128(5) 0.6042(3)
#END
