
#######################################################################
#
#                 Cambridge Crystallographic Data Centre
#                                CCDC
#
#######################################################################
#
# If this CIF has been generated from an entry in the Cambridge
# Structural Database, then it will include bibliographic, chemical,
# crystal, experimental, refinement or atomic coordinate data resulting
# from the CCDC's data processing and validation procedures.
#
#######################################################################

data_CSD_CIF_GAHQIT
_audit_creation_date 2020-11-11
_audit_creation_method CSD-ConQuest-V1
_database_code_CSD GAHQIT
_database_code_depnum_ccdc_archive 'CCDC 1972659'
_chemical_formula_sum 'C44 H30 N10 O22 S5 Zn6'
_chemical_formula_moiety
;
(C40 H14 N8 O22 S5 Zn6 2-)n,2(C2 H8 N1 1+)
;
_journal_coden_Cambridge 1220
_journal_volume 26
_journal_year 2020
_journal_page_first 16402
_journal_name_full 'Chem.-Eur.J. '
loop_
_publ_author_name
"Yong-Zhi Li"
"Gang-Ding Wang"
"Hong-Yun Yang"
"Lei Hou"
"Yao-Yu Wang"
"Zhonghua Zhu"
_chemical_name_systematic
;
catena-[bis(dimethylammonium) 
pentakis(\m-thiophene-2,5-dicarboxylato)-bis(\m-4-oxo-4H-pyrazolo[3,4-d]pyrimi
dine-1,5-diyl)-hexa-zinc(ii) unknown solvate]
;
_cell_volume  24438.790
_exptl_crystal_colour 'colorless'
_exptl_crystal_density_diffrn 0.871
_exptl_crystal_description 'block'
_diffrn_ambient_temperature 150
_refine_special_details
;
Disordered solvent molecules were not modelled and the disordered density was 
taken into account using the SQUEEZE/PLATON procedure.
;
#These two values have been output from a single CSD field.
_refine_ls_R_factor_gt 0.0651
_refine_ls_wR_factor_gt 0.0651
_symmetry_cell_setting tetragonal
_symmetry_space_group_name_H-M 'P 42/m n m'
_symmetry_Int_Tables_number 136
loop_
_symmetry_equiv_pos_site_id
_symmetry_equiv_pos_as_xyz
1 x,y,z
2 -x,-y,z
3 1/2-y,1/2+x,1/2+z
4 1/2+y,1/2-x,1/2+z
5 1/2-x,1/2+y,1/2-z
6 1/2+x,1/2-y,1/2-z
7 y,x,-z
8 -y,-x,-z
9 -x,-y,-z
10 x,y,-z
11 -1/2+y,-1/2-x,-1/2-z
12 -1/2-y,-1/2+x,-1/2-z
13 -1/2+x,-1/2-y,-1/2+z
14 -1/2-x,-1/2+y,-1/2+z
15 -y,-x,z
16 y,x,z
_cell_length_a 30.687(2)
_cell_length_b 30.687(2)
_cell_length_c 25.952(4)
_cell_angle_alpha 90
_cell_angle_beta 90
_cell_angle_gamma 90
_cell_formula_units_Z 8
loop_
_atom_type_symbol
_atom_type_radius_bond
C 0.68
H 0.23
N 0.68
O 0.68
S 1.02
Zn 1.22
loop_
_atom_site_label
_atom_site_type_symbol
_atom_site_fract_x
_atom_site_fract_y
_atom_site_fract_z
Zn1 Zn 0.51441(2) 0.26923(2) 0.20858(3)
Zn2 Zn 0.41492(2) 0.21966(2) 0.16721(3)
Zn3 Zn 0.36573(2) 0.12332(2) 0.20741(3)
N1 N 0.44483(13) 0.18043(13) 0.2170(2)
N2 N 0.42339(14) 0.14219(14) 0.2331(2)
N3 N 0.51849(12) 0.20663(13) 0.22993(19)
N4 N 0.56505(13) 0.15535(13) 0.2703(2)
S1 S 0.35673(4) 0.35673(4) 0.18682(12)
S2 S 0.47881(6) 0.23337(7) 0.00000
S3 S 0.27852(4) 0.27852(4) 0.22048(11)
S4 S 0.37852(7) 0.17594(8) 0.00000
S5 S 0.63509(5) 0.36491(5) 0.24623(10)
O1 O 0.46435(17) 0.30289(17) 0.2316(2)
O2 O 0.41283(14) 0.28235(13) 0.1739(2)
O3 O 0.51710(13) 0.27753(13) 0.13384(17)
O4 O 0.46829(12) 0.22569(12) 0.11399(17)
O5 O 0.35411(12) 0.21980(12) 0.21168(19)
O6 O 0.31833(13) 0.15901(13) 0.2316(3)
O7 O 0.38610(14) 0.18965(17) 0.1111(2)
O8 O 0.3623(2) 0.12382(19) 0.1333(3)
O9 O 0.56747(13) 0.29982(13) 0.2284(2)
O10 O 0.55031(19) 0.28723(19) 0.3106(2)
O11 O 0.54182(13) 0.09164(13) 0.3046(2)
C1 C 0.4299(2) 0.3083(2) 0.2079(3)
C2 C 0.40485(19) 0.34938(19) 0.2173(3)
C3 C 0.4136(2) 0.3820(2) 0.2506(4)
H1 H 0.43890 0.38290 0.27170
C4 C 0.49582(18) 0.25420(18) 0.1020(3)
C5 C 0.50522(17) 0.26261(18) 0.0481(3)
C6 C 0.5333(2) 0.2922(2) 0.0267(3)
H2 H 0.55120 0.31100 0.04670
C7 C 0.32083(18) 0.19930(19) 0.2246(3)
C8 C 0.28007(18) 0.22403(18) 0.2324(3)
C9 C 0.2403(2) 0.2085(2) 0.2458(5)
H3 H 0.23490 0.17880 0.25430
C10 C 0.3717(3) 0.1533(3) 0.1024(4)
C11 C 0.3639(3) 0.1417(3) 0.0470(4)
C12 C 0.3467(5) 0.1055(4) 0.0287(4)
H4 H 0.33570 0.08250 0.04940
C13 C 0.5720(2) 0.3055(2) 0.2764(3)
C14 C 0.6068(2) 0.3366(2) 0.2911(3)
C15 C 0.6190(4) 0.3476(4) 0.3392(4)
H5 H 0.60720 0.33500 0.36950
C16 C 0.48558(15) 0.17661(15) 0.2359(2)
C17 C 0.55629(15) 0.19300(16) 0.2479(2)
H6 H 0.58010 0.21260 0.24420
C18 C 0.53199(18) 0.12556(18) 0.2820(3)
C19 C 0.49030(16) 0.13765(17) 0.2625(3)
C20 C 0.45079(17) 0.11750(17) 0.2589(3)
H7 H 0.44410 0.08970 0.27300
C21 C 0.5390(4) 0.0790(4) 0.1663(5)
H8 H 0.51590 0.05900 0.17730
H9 H 0.56480 0.06220 0.15600
H10 H 0.54660 0.09850 0.19480
C22 C 0.5623(6) 0.1349(6) 0.1083(7)
H11 H 0.55440 0.15340 0.07900
H12 H 0.56950 0.15330 0.13800
H13 H 0.58760 0.11700 0.09930
N5 N 0.5235(5) 0.1050(5) 0.1221(6)
H14 H 0.49970 0.12100 0.13090
H15 H 0.51650 0.08750 0.09510
O1O O 0.30289(17) 0.46435(17) 0.2316(2)
O2O O 0.28235(14) 0.41283(13) 0.1739(2)
C1O C 0.3083(2) 0.4299(2) 0.2079(3)
C2O C 0.34938(19) 0.40485(19) 0.2173(3)
C3O C 0.3820(2) 0.4136(2) 0.2506(4)
H1O H 0.38290 0.43890 0.27170
O3I O 0.51710(13) 0.27753(13) -0.13384(17)
O4I O 0.46829(12) 0.22569(12) -0.11399(17)
C4I C 0.49582(18) 0.25420(18) -0.1020(3)
C5I C 0.50522(17) 0.26261(18) -0.0481(3)
C6I C 0.5333(2) 0.2922(2) -0.0267(3)
H2I H 0.55120 0.31100 -0.04670
O5O O 0.21980(12) 0.35411(12) 0.21168(19)
O6O O 0.15901(13) 0.31833(13) 0.2316(3)
C7O C 0.19930(18) 0.32083(19) 0.2246(3)
C8O C 0.22403(18) 0.28007(18) 0.2324(3)
C9O C 0.2085(2) 0.2403(2) 0.2458(5)
H3O H 0.17880 0.23490 0.25430
O7I O 0.38610(14) 0.18965(17) -0.1111(2)
O8I O 0.3623(2) 0.12382(19) -0.1333(3)
C10I C 0.3717(3) 0.1533(3) -0.1024(4)
C11I C 0.3639(3) 0.1417(3) -0.0470(4)
C12I C 0.3467(5) 0.1055(4) -0.0287(4)
H4I H 0.33570 0.08250 -0.04940
O9N O 0.70018(13) 0.43253(13) 0.2284(2)
O10N O 0.71277(19) 0.44969(19) 0.3106(2)
C13N C 0.6945(2) 0.4280(2) 0.2764(3)
C14N C 0.6634(2) 0.3932(2) 0.2911(3)
C15N C 0.6524(4) 0.3810(4) 0.3392(4)
H5N H 0.66500 0.39280 0.36950
Zn1I Zn 0.51441(2) 0.26923(2) -0.20858(3)
Zn2I Zn 0.41492(2) 0.21966(2) -0.16721(3)
Zn3I Zn 0.36573(2) 0.12332(2) -0.20741(3)
N1I N 0.44483(13) 0.18043(13) -0.2170(2)
N2I N 0.42339(14) 0.14219(14) -0.2331(2)
N3I N 0.51849(12) 0.20663(13) -0.22993(19)
N4I N 0.56505(13) 0.15535(13) -0.2703(2)
O11I O 0.54182(13) 0.09164(13) -0.3046(2)
C16I C 0.48558(15) 0.17661(15) -0.2359(2)
C17I C 0.55629(15) 0.19300(16) -0.2479(2)
H6I H 0.58010 0.21260 -0.24420
C18I C 0.53199(18) 0.12556(18) -0.2820(3)
C19I C 0.49030(16) 0.13765(17) -0.2625(3)
C20I C 0.45079(17) 0.11750(17) -0.2589(3)
H7I H 0.44410 0.08970 -0.27300
Zn1N Zn 0.73077(2) 0.48559(2) 0.20858(3)
Zn1O Zn 0.26923(2) 0.51441(2) 0.20858(3)
Zn2O Zn 0.21966(2) 0.41492(2) 0.16721(3)
Zn3C Zn 0.62332(2) 0.13427(2) -0.29259(3)
Zn3J Zn 0.62332(2) 0.13427(2) 0.29259(3)
Zn3O Zn 0.12332(2) 0.36573(2) 0.20741(3)
N4B N 0.34465(13) 0.06505(13) -0.2297(2)
N4K N 0.34465(13) 0.06505(13) 0.2297(2)
O1I O 0.46435(17) 0.30289(17) -0.2316(2)
O2I O 0.41283(14) 0.28235(13) -0.1739(2)
O5I O 0.35411(12) 0.21980(12) -0.21168(19)
O6I O 0.31833(13) 0.15901(13) -0.2316(3)
O9I O 0.56747(13) 0.29982(13) -0.2284(2)
#END
