
#######################################################################
#
#                 Cambridge Crystallographic Data Centre
#                                CCDC
#
#######################################################################
#
# If this CIF has been generated from an entry in the Cambridge
# Structural Database, then it will include bibliographic, chemical,
# crystal, experimental, refinement or atomic coordinate data resulting
# from the CCDC's data processing and validation procedures.
#
#######################################################################

data_CSD_CIF_GAHSIV
_audit_creation_date 2020-11-11
_audit_creation_method CSD-ConQuest-V1
_database_code_CSD GAHSIV
_database_code_depnum_ccdc_archive 'CCDC 1949830'
_chemical_formula_sum 'C158 H200 Mn4 N30 O71 Si1 W12'
_chemical_formula_moiety
;
(C146 H154 Mn4 N26 O16 8+)n,O40 Si1 W12 4-,4(H1 O1 1-),4(C3 H7 N1 O1),7(H2 O1)
;
_journal_coden_Cambridge 1183
_journal_volume 835
_journal_year 2020
_journal_page_first 155314
_journal_name_full 'J.Alloys Compd. '
loop_
_publ_author_name
"Dan Liu"
"Bing-Bing Lu"
"Wen-Yuan Pei"
"Zhen-Yi Gu"
"Jin Yang"
"Xing-Long Wu"
"Jian-fang Ma"
_chemical_name_systematic
;
catena-[(\m-2,8,14,20-tetrakis(phenyl)-25,26,27,28-tetrakis[(3-[2-(pyridin-2-y
l)-4,5-dihydro-1H-imidazol-1-yl]propyl)oxy]calix[4]arene)-bis(N,N-dimethylform
amide)-hexa-aqua-tetra-manganese(ii) tetrakis(hydroxide) 
(\m-silicato)-tetracosakis(\m-oxo)-dodecaoxo-dodeca-tungsten 
N,N-dimethylformamide solvate heptahydrate]
;
_cell_volume   5175.086
_exptl_crystal_colour 'yellow'
_exptl_crystal_density_diffrn 1.96
_exptl_crystal_description 'block'
_diffrn_ambient_temperature 298
_refine_special_details
;
O19,O20,O28,O29 disordered by symmetry over two configurations with occupancy 
0.5; Disordered N,N-dimethylformamide and water solvent molecules were not 
modelled and the disordered density was taken into account using the 
SQUEEZE/PLATON procedure.
;
#These two values have been output from a single CSD field.
_refine_ls_R_factor_gt 0.0797
_refine_ls_wR_factor_gt 0.0797
_symmetry_cell_setting triclinic
_symmetry_space_group_name_H-M 'P -1'
_symmetry_Int_Tables_number 2
loop_
_symmetry_equiv_pos_site_id
_symmetry_equiv_pos_as_xyz
1 x,y,z
2 -x,-y,-z
_cell_length_a 17.0441(6)
_cell_length_b 17.4092(8)
_cell_length_c 20.7270(8)
_cell_angle_alpha 65.364(4)
_cell_angle_beta 81.412(3)
_cell_angle_gamma 67.783(4)
_cell_formula_units_Z 1
loop_
_atom_type_symbol
_atom_type_radius_bond
C 0.68
H 0.23
Mn 1.61
N 0.68
O 0.68
Si 1.20
W 1.62
loop_
_atom_site_label
_atom_site_type_symbol
_atom_site_fract_x
_atom_site_fract_y
_atom_site_fract_z
Mn1 Mn 0.0843(2) 0.1302(2) 0.57834(15)
Mn2 Mn 0.45546(16) -0.13660(16) 0.89562(12)
C1 C 0.4755(13) 0.0034(14) 0.7397(9)
H1 H 0.48610 -0.04610 0.72840
C2 C 0.4833(13) 0.0821(14) 0.6862(8)
H2 H 0.49930 0.08540 0.64050
C3 C 0.4657(12) 0.1570(11) 0.7047(9)
H3 H 0.46930 0.21110 0.67090
C4 C 0.4435(11) 0.1484(10) 0.7723(9)
H4 H 0.43230 0.19700 0.78480
C5 C 0.4374(9) 0.0709(10) 0.8212(8)
C6 C 0.4187(8) 0.0482(9) 0.8993(7)
C7 C 0.3892(9) 0.0469(11) 1.0054(8)
H5 H 0.37400 0.06490 1.04330
C8 C 0.4017(9) -0.0339(10) 1.0080(8)
H6 H 0.39910 -0.08330 1.04870
C9 C 0.3924(8) 0.1948(9) 0.9133(8)
H7 H 0.43010 0.20990 0.87390
H8 H 0.40950 0.20300 0.95180
C10 C 0.3017(9) 0.2608(12) 0.8903(7)
H9 H 0.28250 0.25000 0.85410
H10 H 0.30170 0.32210 0.86960
C11 C 0.2401(8) 0.2508(11) 0.9527(7)
H11 H 0.24050 0.18930 0.97510
H12 H 0.25580 0.26580 0.98790
C12 C 0.0917(8) 0.3197(9) 0.9693(7)
C13 C 0.0171(8) 0.380(1) 0.9391(7)
C14 C -0.0551(9) 0.3918(11) 0.9830(7)
H13 H -0.10720 0.43350 0.96240
C15 C -0.0502(8) 0.3429(10) 1.0560(7)
C16 C 0.0304(8) 0.2831(10) 1.0857(7)
C17 C 0.0982(10) 0.2732(10) 1.0437(7)
H14 H 0.15110 0.23450 1.06430
C18 C 0.1112(11) 0.1902(14) 1.1928(8)
H15 H 0.14330 0.23010 1.18020
H16 H 0.14420 0.13880 1.18080
C19 C 0.0900(17) 0.1601(16) 1.2702(9)
H17 H 0.06080 0.11800 1.28090
H18 H 0.14270 0.12720 1.29710
C20 C 0.0391(17) 0.2289(14) 1.2952(10)
H19 H -0.01280 0.26330 1.26720
H20 H 0.06930 0.26970 1.28620
C21 C -0.0233(16) 0.139(2) 1.3998(13)
H21 H -0.04780 0.11920 1.37540
C22 C -0.0216(18) 0.1121(18) 1.4728(11)
H22 H -0.04350 0.07020 1.50670
C23 C 0.0417(13) 0.2107(13) 1.4213(8)
C24 C 0.0755(12) 0.2734(16) 1.4181(11)
C25 C 0.0690(15) 0.3517(16) 1.3603(12)
H23 H 0.04210 0.36560 1.31890
C26 C 0.1035(19) 0.410(2) 1.3648(12)
H24 H 0.10120 0.46240 1.32490
C27 C 0.140(2) 0.395(2) 1.4241(12)
H25 H 0.15970 0.43610 1.42770
C28 C 0.1456(19) 0.312(2) 1.4803(12)
H26 H 0.17020 0.30010 1.52240
C29 C 0.0085(8) 0.4354(10) 0.8596(7)
H27 H 0.03450 0.39160 0.83760
C30 C -0.0836(8) 0.4835(9) 0.8327(7)
C31 C -0.1284(9) 0.5656(10) 0.8307(8)
H28 H -0.10270 0.59550 0.84390
C32 C -0.2129(13) 0.6076(15) 0.8093(11)
H29 H -0.24170 0.66750 0.80310
C33 C -0.252(1) 0.5619(17) 0.7976(11)
H30 H -0.31010 0.58780 0.78850
C34 C -0.2098(12) 0.4788(17) 0.7987(11)
H31 H -0.23670 0.45060 0.78460
C35 C -0.1244(10) 0.4346(13) 0.8212(9)
H32 H -0.09620 0.37430 0.82830
C36 C 0.0604(7) 0.4976(8) 0.8341(6)
C37 C 0.1021(8) 0.5091(10) 0.7697(7)
C38 C 0.1496(10) 0.5625(10) 0.7470(7)
H33 H 0.17650 0.57160 0.70340
C39 C 0.1579(9) 0.6026(11) 0.7881(7)
C40 C 0.1169(7) 0.5936(8) 0.8527(6)
C41 C 0.0700(7) 0.5406(8) 0.8713(6)
H34 H 0.04160 0.53310 0.91420
C42 C 0.1248(8) 0.6416(10) 0.8952(7)
H35 H 0.12390 0.70140 0.86120
C43 C 0.2106(9) 0.5948(12) 0.9356(7)
C44 C 0.2514(14) 0.6450(17) 0.9437(12)
H36 H 0.22680 0.70750 0.92280
C45 C 0.3217(18) 0.611(2) 0.9784(16)
H37 H 0.34610 0.65000 0.97960
C46 C 0.3235(16) 0.470(2) 1.0043(13)
H38 H 0.35120 0.40780 1.02410
C47 C 0.3604(17) 0.523(3) 1.0122(16)
H39 H 0.40910 0.49940 1.03950
C48 C 0.2433(12) 0.5050(13) 0.9664(10)
H40 H 0.21750 0.46770 0.96400
C49 C 0.1436(11) 0.4637(15) 0.6721(9)
H41 H 0.20240 0.44670 0.68400
H42 H 0.12660 0.52180 0.63240
C50 C 0.1317(12) 0.3947(16) 0.6549(11)
H43 H 0.16300 0.39150 0.61250
H44 H 0.07210 0.41130 0.64570
C51 C 0.1636(11) 0.2999(15) 0.7185(12)
H45 H 0.21760 0.29070 0.73580
H46 H 0.12340 0.29870 0.75700
C52 C 0.2496(15) 0.1659(17) 0.6929(13)
H47 H 0.30100 0.15840 0.70930
C53 C 0.2380(13) 0.1218(15) 0.6625(11)
H48 H 0.28160 0.07690 0.65200
C54 C 0.1197(10) 0.2102(13) 0.6702(9)
C55 C 0.0253(12) 0.2625(15) 0.6557(10)
C56 C -0.0224(11) 0.3150(15) 0.6936(12)
H49 H 0.00040 0.32380 0.72700
C57 C -0.1118(14) 0.3541(19) 0.6744(17)
H50 H -0.14960 0.38510 0.70010
C58 C -0.1413(18) 0.348(2) 0.6238(15)
H51 H -0.19640 0.38270 0.60670
C59 C -0.0862(14) 0.2866(19) 0.5961(13)
H52 H -0.10870 0.27380 0.56510
C60 C 0.2665(13) 0.6549(18) 0.7145(10)
H53 H 0.28680 0.59470 0.71480
H54 H 0.24160 0.69740 0.66810
C61 C 0.3216(11) 0.7476(18) 0.7488(13)
H55 H 0.27440 0.75080 0.78130
H56 H 0.30650 0.80430 0.70750
C62 C 0.3349(16) 0.674(2) 0.7264(16)
H57 H 0.36720 0.68530 0.68290
H58 H 0.37120 0.61900 0.76200
C63 C 0.4762(18) 0.695(2) 0.7807(15)
H59 H 0.50190 0.65160 0.76170
C64 C 0.5160(14) 0.7278(15) 0.8117(12)
H60 H 0.57410 0.70780 0.81920
C65 C 0.3835(16) 0.8024(16) 0.8124(9)
C66 C 0.3004(16) 0.870(2) 0.8218(14)
C67 C 0.2267(13) 0.9037(19) 0.7865(12)
H61 H 0.22250 0.88420 0.75210
C68 C 0.1570(16) 0.967(3) 0.8021(13)
H62 H 0.10530 0.99290 0.77840
C69 C 0.1686(15) 0.988(3) 0.8507(14)
H63 H 0.12130 1.02140 0.86870
C70 C 0.2531(13) 0.9622(15) 0.8808(12)
H64 H 0.26040 0.98880 0.90910
C71 C 0.4755(16) -0.3027(18) 1.0356(12)
C72 C 0.381(2) -0.317(2) 1.1344(18)
H65 H 0.38100 -0.36170 1.18160
H66 H 0.37610 -0.26180 1.13690
H67 H 0.33380 -0.30720 1.10800
C73 C 0.520(2) -0.438(2) 1.1368(14)
H68 H 0.50050 -0.46560 1.18360
H69 H 0.52750 -0.47490 1.11080
H70 H 0.57320 -0.43260 1.13990
N1 N 0.4190(8) -0.0334(9) 0.9410(6)
N2 N 0.4533(8) -0.0046(9) 0.8071(6)
N3 N 0.4026(6) 0.1004(8) 0.9362(6)
N4 N 0.0161(11) 0.1981(12) 1.3708(8)
N5 N 0.0186(12) 0.1594(13) 1.4855(8)
N6 N 0.1180(11) 0.2471(14) 1.4793(8)
N7 N 0.1734(9) 0.2260(13) 0.6967(9)
N8 N 0.1584(11) 0.1454(12) 0.6474(8)
N9 N -0.0046(9) 0.2455(11) 0.6107(7)
N10 N 0.3971(12) 0.7365(19) 0.7838(11)
N11 N 0.4562(10) 0.7939(11) 0.8292(8)
N12 N 0.3159(9) 0.9017(10) 0.8662(8)
N13 N 0.4579(19) -0.3488(17) 1.1002(11)
O1 O 0.6100(4) -0.1989(4) 0.9067(3)
O2 O 0.2003(13) 0.0355(16) 0.5557(13)
O3 O 0.0263(5) 0.0209(6) 0.6620(4)
O4 O 0.1585(5) 0.3117(6) 0.9236(4)
O5 O 0.0314(7) 0.2367(8) 1.1568(5)
O6 O 0.0910(6) 0.4667(8) 0.7311(5)
O7 O 0.2038(7) 0.6609(9) 0.7674(6)
O8 O 0.4333(10) -0.2296(10) 1.0001(7)
O9 O 0.2783(8) 0.3462(10) 0.5418(6)
O10 O 0.1880(6) 0.6613(9) 0.5542(6)
O11 O 0.3788(9) 0.3768(8) 0.7510(6)
O12 O 0.3745(9) 0.3708(8) 0.6224(7)
O13 O 0.2805(8) 0.5123(8) 0.5216(7)
O14 O 0.3309(9) 0.5266(7) 0.6264(7)
O15 O 0.3526(9) 0.4479(10) 0.4272(7)
O16 O 0.345(1) 0.6817(12) 0.5454(6)
O17 O 0.4771(6) 0.4824(8) 0.6822(7)
O18 O 0.5231(6) 0.3228(8) 0.6778(8)
O19 O 0.4041(11) 0.7453(12) 0.4169(6)
O20 O 0.4117(8) 0.8123(8) 0.5104(7)
O21 O 0.4878(7) 0.6351(10) 0.5984(7)
O22 O 0.6004(8) 0.5308(11) 0.7100(7)
O23 O 0.6348(6) 0.4007(8) 0.6556(8)
O24 O 0.6905(8) 0.2144(9) 0.7004(7)
O25 O 0.7073(12) 0.3346(14) 0.5627(6)
O26 O 0.5491(8) 0.6966(9) 0.4699(7)
O27 O 0.4173(12) 0.5970(12) 0.4795(9)
O28 O 0.4648(9) 0.4379(11) 0.4745(8)
O29 O 0.5832(9) 0.5134(11) 0.4537(8)
O30 O 0.4821(10) 0.5470(12) 0.4190(8)
Si1 Si 0.50000 0.50000 0.50000
W1 W 0.34936(4) 0.39739(5) 0.52813(3)
W2 W 0.28876(3) 0.60939(5) 0.53598(3)
W3 W 0.41755(3) 0.41712(4) 0.67041(3)
W4 W 0.43952(5) 0.71254(4) 0.50783(4)
W5 W 0.56890(4) 0.52061(5) 0.64255(3)
W6 W 0.62929(4) 0.30700(4) 0.63463(3)
C1A C -0.4755(13) 0.9966(14) 1.2603(9)
H1A H -0.48610 1.04610 1.27160
C2A C -0.4833(13) 0.9179(14) 1.3138(8)
H2A H -0.49930 0.91460 1.35950
C3A C -0.4657(12) 0.8430(11) 1.2953(9)
H3A H -0.46930 0.78890 1.32910
C4A C -0.4435(11) 0.8516(10) 1.2277(9)
H4A H -0.43230 0.80300 1.21520
C5A C -0.4374(9) 0.9291(10) 1.1788(8)
C6A C -0.4187(8) 0.9518(9) 1.1007(7)
C7A C -0.3892(9) 0.9531(11) 0.9946(8)
H5A H -0.37400 0.93510 0.95670
C8A C -0.4017(9) 1.0339(10) 0.9920(8)
H6A H -0.39910 1.08330 0.95130
C9A C -0.3924(8) 0.8052(9) 1.0867(8)
H7A H -0.43010 0.79010 1.12610
H8A H -0.40950 0.79700 1.04820
C10A C -0.3017(9) 0.7392(12) 1.1097(7)
H9A H -0.28250 0.75000 1.14590
H10A H -0.30170 0.67790 1.13040
C11A C -0.2401(8) 0.7492(11) 1.0473(7)
H11A H -0.24050 0.81070 1.02490
H12A H -0.25580 0.73420 1.01210
C12A C -0.0917(8) 0.6803(9) 1.0307(7)
C13A C -0.0171(8) 0.620(1) 1.0609(7)
C14A C 0.0551(9) 0.6082(11) 1.0170(7)
H13A H 0.10720 0.56650 1.03760
C15A C 0.0502(8) 0.6571(10) 0.9440(7)
C16A C -0.0304(8) 0.7169(10) 0.9143(7)
C17A C -0.0982(10) 0.7268(10) 0.9563(7)
H14A H -0.15110 0.76550 0.93570
C18A C -0.1112(11) 0.8098(14) 0.8072(8)
H15A H -0.14330 0.76990 0.81980
H16A H -0.14420 0.86120 0.81920
C19A C -0.0900(17) 0.8399(16) 0.7298(9)
H17A H -0.06080 0.88200 0.71910
H18A H -0.14270 0.87280 0.70290
C20A C -0.0391(17) 0.7711(14) 0.7048(10)
H19A H 0.01280 0.73670 0.73280
H20A H -0.06930 0.73030 0.71380
C21A C 0.0233(16) 0.861(2) 0.6002(13)
H21A H 0.04780 0.88080 0.62460
C22A C 0.0216(18) 0.8879(18) 0.5272(11)
H22A H 0.04350 0.92980 0.49330
C23A C -0.0417(13) 0.7893(13) 0.5787(8)
C24A C -0.0755(12) 0.7266(16) 0.5819(11)
C25A C -0.0690(15) 0.6483(16) 0.6397(12)
H23A H -0.04210 0.63440 0.68110
C26A C -0.1035(19) 0.590(2) 0.6352(12)
H24A H -0.10120 0.53760 0.67510
C27A C -0.140(2) 0.605(2) 0.5759(12)
H25A H -0.15970 0.56390 0.57230
C28A C -0.1456(19) 0.688(2) 0.5197(12)
H26A H -0.17020 0.69990 0.47760
C29A C -0.0085(8) 0.5646(10) 1.1404(7)
H27A H -0.03450 0.60840 1.16240
C30A C 0.0836(8) 0.5165(9) 1.1673(7)
C31A C 0.1284(9) 0.4344(10) 1.1693(8)
H28A H 0.10270 0.40450 1.15610
C32A C 0.2129(13) 0.3924(15) 1.1907(11)
H29A H 0.24170 0.33250 1.19690
C33A C 0.252(1) 0.4381(17) 1.2024(11)
H30A H 0.31010 0.41220 1.21150
C34A C 0.2098(12) 0.5212(17) 1.2013(11)
H31A H 0.23670 0.54940 1.21540
C35A C 0.1244(10) 0.5654(13) 1.1788(9)
H32A H 0.09620 0.62570 1.17170
C36A C -0.0604(7) 0.5024(8) 1.1659(6)
C37A C -0.1021(8) 0.4909(10) 1.2303(7)
C38A C -0.1496(10) 0.4375(10) 1.2530(7)
H33A H -0.17650 0.42840 1.29660
C39A C -0.1579(9) 0.3974(11) 1.2119(7)
C40A C -0.1169(7) 0.4064(8) 1.1473(6)
C41A C -0.0700(7) 0.4594(8) 1.1287(6)
H34A H -0.04160 0.46690 1.08580
C42A C -0.1248(8) 0.3584(10) 1.1048(7)
H35A H -0.12390 0.29860 1.13880
C43A C -0.2106(9) 0.4052(12) 1.0644(7)
C44A C -0.2514(14) 0.3550(17) 1.0563(12)
H36A H -0.22680 0.29250 1.07720
C45A C -0.3217(18) 0.389(2) 1.0216(16)
H37A H -0.34610 0.35000 1.02040
C46A C -0.3235(16) 0.530(2) 0.9957(13)
H38A H -0.35120 0.59220 0.97590
C47A C -0.3604(17) 0.477(3) 0.9878(16)
H39A H -0.40910 0.50060 0.96050
C48A C -0.2433(12) 0.4950(13) 1.0336(10)
H40A H -0.21750 0.53230 1.03600
C49A C -0.1436(11) 0.5363(15) 1.3279(9)
H41A H -0.20240 0.55330 1.31600
H42A H -0.12660 0.47820 1.36760
C50A C -0.1317(12) 0.6053(16) 1.3451(11)
H43A H -0.16300 0.60850 1.38750
H44A H -0.07210 0.58870 1.35430
C51A C -0.1636(11) 0.7001(15) 1.2815(12)
H45A H -0.21760 0.70930 1.26420
H46A H -0.12340 0.70130 1.24300
C52A C -0.2496(15) 0.8341(17) 1.3071(13)
H47A H -0.30100 0.84160 1.29070
C53A C -0.2380(13) 0.8782(15) 1.3375(11)
H48A H -0.28160 0.92310 1.34800
C54A C -0.1197(10) 0.7898(13) 1.3298(9)
C55A C -0.0253(12) 0.7375(15) 1.3443(10)
C56A C 0.0224(11) 0.6850(15) 1.3064(12)
H49A H -0.00040 0.67620 1.27300
C57A C 0.1118(14) 0.6459(19) 1.3256(17)
H50A H 0.14960 0.61490 1.29990
C58A C 0.1413(18) 0.652(2) 1.3762(15)
H51A H 0.19640 0.61730 1.39330
C59A C 0.0862(14) 0.7134(19) 1.4039(13)
H52A H 0.10870 0.72620 1.43490
C60A C -0.2665(13) 0.3451(18) 1.2855(10)
H53A H -0.28680 0.40530 1.28520
H54A H -0.24160 0.30260 1.33190
C61A C -0.3216(11) 0.2524(18) 1.2512(13)
H55A H -0.27440 0.24920 1.21870
H56A H -0.30650 0.19570 1.29250
C62A C -0.3349(16) 0.326(2) 1.2736(16)
H57A H -0.36720 0.31470 1.31710
H58A H -0.37120 0.38100 1.23800
C63A C -0.4762(18) 0.305(2) 1.2193(15)
H59A H -0.50190 0.34840 1.23830
C64A C -0.5160(14) 0.2722(15) 1.1883(12)
H60A H -0.57410 0.29220 1.18080
C65A C -0.3835(16) 0.1976(16) 1.1876(9)
C66A C -0.3004(16) 0.130(2) 1.1782(14)
C67A C -0.2267(13) 0.0963(19) 1.2135(12)
H61A H -0.22250 0.11580 1.24790
C68A C -0.1570(16) 0.033(3) 1.1979(13)
H62A H -0.10530 0.00710 1.22160
C69A C -0.1686(15) 0.012(3) 1.1493(14)
H63A H -0.12130 -0.02140 1.13130
C70A C -0.2531(13) 0.0378(15) 1.1192(12)
H64A H -0.26040 0.01120 1.09090
N1A N -0.4190(8) 1.0334(9) 1.0590(6)
N2A N -0.4533(8) 1.0046(9) 1.1929(6)
N3A N -0.4026(6) 0.8996(8) 1.0638(6)
N4A N -0.0161(11) 0.8019(12) 0.6292(8)
N5A N -0.0186(12) 0.8406(13) 0.5145(8)
N6A N -0.1180(11) 0.7529(14) 0.5207(8)
N7A N -0.1734(9) 0.7740(13) 1.3033(9)
N8A N -0.1584(11) 0.8546(12) 1.3526(8)
N9A N 0.0046(9) 0.7545(11) 1.3893(7)
N10A N -0.3971(12) 0.2635(19) 1.2162(11)
N11A N -0.4562(10) 0.2061(11) 1.1708(8)
N12A N -0.3159(9) 0.0983(10) 1.1338(8)
O4A O -0.1585(5) 0.6883(6) 1.0764(4)
O5A O -0.0314(7) 0.7633(8) 0.8432(5)
O6A O -0.0910(6) 0.5333(8) 1.2689(5)
O7A O -0.2038(7) 0.3391(9) 1.2326(6)
Mn2A Mn -0.45546(16) 0.13660(16) 1.10438(12)
C71A C -0.4755(16) 0.3027(18) 0.9644(12)
C72A C -0.381(2) 0.317(2) 0.8656(18)
H65A H -0.38100 0.36170 0.81840
H66A H -0.37610 0.26180 0.86310
H67A H -0.33380 0.30720 0.89200
C73A C -0.520(2) 0.438(2) 0.8632(14)
H68A H -0.50050 0.46560 0.81640
H69A H -0.52750 0.47490 0.88920
H70A H -0.57320 0.43260 0.86010
N13A N -0.4579(19) 0.3488(17) 0.8998(11)
O1A O -0.6100(4) 0.1989(4) 1.0933(3)
O8A O -0.4333(10) 0.2296(10) 0.9999(7)
Mn1* Mn 0.0843(2) 0.1302(2) 1.57834(15)
O2* O 0.2003(13) 0.0355(16) 1.5557(13)
O3* O 0.0263(5) 0.0209(6) 1.6620(4)
Mn1A Mn -0.0843(2) 0.8698(2) 0.42166(15)
Mn1A* Mn -0.0843(2) 0.8698(2) 1.42166(15)
Mn2* Mn 0.45546(16) 0.86340(16) 0.89562(12)
Mn2A* Mn -0.45546(16) 1.13660(16) 1.10438(12)
N1A* N -0.4190(8) 0.0334(9) 1.0590(6)
N2A* N -0.4533(8) 0.0046(9) 1.1929(6)
N5* N 0.0186(12) 0.1594(13) 0.4855(8)
N6* N 0.1180(11) 0.2471(14) 0.4793(8)
N8* N 0.1584(11) 0.1454(12) 1.6474(8)
N9* N -0.0046(9) 0.2455(11) 1.6107(7)
N11* N 0.4562(10) -0.2061(11) 0.8292(8)
N12* N 0.3159(9) -0.0983(10) 0.8662(8)
O27A O 0.5827(12) 0.4030(12) 0.5205(9)
O28A O 0.5352(9) 0.5621(11) 0.5255(8)
O29A O 0.4168(9) 0.4866(11) 0.5463(8)
O30A O 0.5179(10) 0.4530(12) 0.5810(8)
O9A O 0.7217(8) 0.6538(10) 0.4582(6)
O10A O 0.8120(6) 0.3387(9) 0.4458(6)
O11A O 0.6212(9) 0.6232(8) 0.2490(6)
O12A O 0.6255(9) 0.6292(8) 0.3776(7)
O13A O 0.7195(8) 0.4877(8) 0.4784(7)
O14A O 0.6691(9) 0.4734(7) 0.3736(7)
O15A O 0.6474(9) 0.5521(10) 0.5728(7)
O16A O 0.655(1) 0.3183(12) 0.4546(6)
O17A O 0.5229(6) 0.5176(8) 0.3178(7)
O18A O 0.4769(6) 0.6772(8) 0.3222(8)
O19A O 0.5959(11) 0.2547(12) 0.5831(6)
O20A O 0.5883(8) 0.1877(8) 0.4896(7)
O21A O 0.5122(7) 0.3649(10) 0.4016(7)
O22A O 0.3996(8) 0.4692(11) 0.2900(7)
O23A O 0.3652(6) 0.5993(8) 0.3444(8)
O24A O 0.3095(8) 0.7856(9) 0.2996(7)
O25A O 0.2927(12) 0.6654(14) 0.4373(6)
O26A O 0.4509(8) 0.3034(9) 0.5301(7)
W1A W 0.65064(4) 0.60261(5) 0.47187(3)
W2A W 0.71124(3) 0.39061(5) 0.46402(3)
W3A W 0.58245(3) 0.58288(4) 0.32959(3)
W4A W 0.56048(5) 0.28746(4) 0.49217(4)
W5A W 0.43110(4) 0.47939(5) 0.35745(3)
W6A W 0.37071(4) 0.69300(4) 0.36537(3)
#END
