
#######################################################################
#
#                 Cambridge Crystallographic Data Centre
#                                CCDC
#
#######################################################################
#
# If this CIF has been generated from an entry in the Cambridge
# Structural Database, then it will include bibliographic, chemical,
# crystal, experimental, refinement or atomic coordinate data resulting
# from the CCDC's data processing and validation procedures.
#
#######################################################################

data_CSD_CIF_GAJBUS
_audit_creation_date 2020-11-11
_audit_creation_method CSD-ConQuest-V1
_database_code_CSD GAJBUS
_database_code_depnum_ccdc_archive 'CCDC 1864372'
_chemical_formula_sum 'C24 H52 La2 N6 O23'
_chemical_formula_moiety
;
(C11 H16 La1 N2 O9 1-)2n,5(H2 O1),C2 H10 N2 2+
;
_journal_coden_Cambridge 1440
_journal_volume 12
_journal_year 2019
_journal_page_first 1412
_journal_name_full 'ACS Applied Materials and Interfaces '
loop_
_publ_author_name
"Mao-Long Chen"
"Yan-Ying Feng"
"Si-Yuan Wang"
"Yun-Hui Cheng"
"Zhao-Hui Zhou"
_chemical_name_systematic
;
catena-[ethane-1,2-bis(aminium) 
bis((\m-2,2',2'',2'''-(propane-1,3-diyldinitrilo)tetraacetato)-aqua-lanthanum)
 pentahydrate]
;
_cell_volume   3776.251
_exptl_crystal_colour 'colorless'
_exptl_crystal_density_diffrn 1.862
_exptl_crystal_description 'tetragonal'
_diffrn_ambient_temperature 173
_refine_special_details
;
C12A,N3A,N3B and C12,N3 disordered over two sites with occupancies 
0.588:0.412; O4 and O4A disordered over two sites with occupancies 0.68:0.32.
;
#These two values have been output from a single CSD field.
_refine_ls_R_factor_gt 0.0445
_refine_ls_wR_factor_gt 0.0445
_symmetry_cell_setting tetragonal
_symmetry_space_group_name_H-M 'P 4/n'
_symmetry_Int_Tables_number 85
loop_
_symmetry_equiv_pos_site_id
_symmetry_equiv_pos_as_xyz
1 x,y,z
2 1/2-x,1/2-y,z
3 1/2-y,x,z
4 y,1/2-x,z
5 -x,-y,-z
6 -1/2+x,-1/2+y,-z
7 -1/2+y,-x,-z
8 -y,-1/2+x,-z
_cell_length_a 19.4984(3)
_cell_length_b 19.4984(3)
_cell_length_c 9.9326(5)
_cell_angle_alpha 90
_cell_angle_beta 90
_cell_angle_gamma 90
_cell_formula_units_Z 4
loop_
_atom_type_symbol
_atom_type_radius_bond
C 0.68
H 0.23
La 2.07
N 0.68
O 0.68
loop_
_atom_site_label
_atom_site_type_symbol
_atom_site_fract_x
_atom_site_fract_y
_atom_site_fract_z
La1 La 0.45657(2) 0.89460(2) 0.04105(3)
C1 C 0.5391(3) 0.9748(3) 0.3325(6)
H1 H 0.57741 0.97850 0.39740
H2 H 0.49765 0.99416 0.37574
C2 C 0.5559(3) 1.0163(3) 0.2099(6)
C3 C 0.4814(4) 0.8704(4) 0.4054(7)
H3 H 0.45576 0.90754 0.45109
H4 H 0.51025 0.84746 0.47397
C4 C 0.4311(3) 0.8194(4) 0.3511(8)
C5 C 0.5614(3) 0.7731(3) -0.1142(7)
H5 H 0.52279 0.75456 -0.16773
H6 H 0.60007 0.74041 -0.12133
C6 C 0.5832(3) 0.8418(3) -0.1735(7)
C7 C 0.4969(3) 0.7176(3) 0.0576(7)
H7 H 0.49073 0.71349 0.15615
H8 H 0.52003 0.67552 0.02507
C8 C 0.4278(3) 0.7244(3) -0.0096(7)
C9 C 0.5943(3) 0.8672(3) 0.3001(7)
H9 H 0.61473 0.87100 0.39111
H10 H 0.62439 0.89282 0.23758
C10 C 0.5957(3) 0.7915(3) 0.2590(7)
H11 H 0.63397 0.76885 0.30711
H12 H 0.55259 0.76979 0.29012
C11 C 0.6036(3) 0.7774(3) 0.1100(7)
H13 H 0.63568 0.81177 0.07243
H14 H 0.62540 0.73183 0.09948
N1 N 0.5268(2) 0.9014(2) 0.3025(5)
N2 N 0.5403(2) 0.7783(2) 0.0272(5)
O1 O 0.54666(18) 0.98928(18) 0.0946(4)
O2 O 0.5756(2) 1.0772(2) 0.2216(5)
O3 O 0.4174(2) 0.8196(2) 0.2288(5)
O4 O 0.5632(2) 0.89445(19) -0.1123(5)
O5 O 0.6168(3) 0.8418(2) -0.2792(6)
O6 O 0.4119(2) 0.7819(2) -0.0576(5)
O7 O 0.3899(2) 0.6725(2) -0.0123(5)
O8 O 0.3999(2) 0.9808(2) 0.1959(5)
H15 H 0.40260 1.02453 0.16257
H16 H 0.35420 0.97193 0.20849
O9 O 0.3979(9) 0.7881(13) 0.4445(19)
O10 O 0.3208(4) 0.9771(5) 0.4192(8)
H17 H 0.29562 0.95557 0.36355
H18 H 0.30189 1.01506 0.43933
O11 O 0.6104(5) 0.7227(3) 0.5690(5)
H19 H 0.61589 0.76161 0.60612
H20 H 0.62467 0.69141 0.62140
O12 O 0.75000 0.75000 0.4136(15)
N3 N 0.2217(11) 0.6909(8) -0.172(2)
C12 C 0.2448(12) 0.7614(8) -0.1857(15)
N4 N 0.1719(6) 0.6782(6) -0.3064(13)
N5 N 0.1532(9) 0.6580(8) -0.3815(17)
C13 C 0.1951(8) 0.7484(7) -0.2843(16)
O13 O 0.75000 0.75000 -0.137(7)
O14? O 0.418(2) 0.759(3) 0.405(4)
La1D La 0.54343(2) 1.10540(2) -0.04105(3)
La1F La 0.39460(2) 0.54343(2) -0.04105(3)
O1D O 0.45334(18) 1.01072(18) -0.0946(4)
O2D O 0.4244(2) 0.9228(2) -0.2216(5)
O7G O 0.3275(2) 0.8899(2) 0.0123(5)
N3A N 0.2783(11) 0.8091(8) -0.172(2)
C12A C 0.2552(12) 0.7386(8) -0.1857(15)
N4A N 0.3281(6) 0.8218(6) -0.3064(13)
N5A N 0.3468(9) 0.8420(8) -0.3815(17)
C13A C 0.3049(8) 0.7516(7) -0.2843(16)
#END
