
#######################################################################
#
#                 Cambridge Crystallographic Data Centre
#                                CCDC
#
#######################################################################
#
# If this CIF has been generated from an entry in the Cambridge
# Structural Database, then it will include bibliographic, chemical,
# crystal, experimental, refinement or atomic coordinate data resulting
# from the CCDC's data processing and validation procedures.
#
#######################################################################

data_CSD_CIF_GAJCIH
_audit_creation_date 2020-11-11
_audit_creation_method CSD-ConQuest-V1
_database_code_CSD GAJCIH
_database_code_depnum_ccdc_archive 'CCDC 1864374'
_chemical_formula_sum 'C24 H52 N6 O23 Pr2'
_chemical_formula_moiety
;
(C11 H16 N2 O9 Pr1 1-)2n,5(H2 O1),C2 H10 N2 2+
;
_journal_coden_Cambridge 1440
_journal_volume 12
_journal_year 2019
_journal_page_first 1412
_journal_name_full 'ACS Applied Materials and Interfaces '
loop_
_publ_author_name
"Mao-Long Chen"
"Yan-Ying Feng"
"Si-Yuan Wang"
"Yun-Hui Cheng"
"Zhao-Hui Zhou"
_chemical_name_systematic
;
catena-[ethane-1,2-bis(aminium) 
bis((\m-2,2',2'',2'''-(propane-1,3-diyldinitrilo)tetraacetato)-aqua-praseodymi
um) pentahydrate]
;
_cell_volume   3735.623
_exptl_crystal_colour 'colorless'
_exptl_crystal_density_diffrn 1.911
_exptl_crystal_description 'tetragonal'
_diffrn_ambient_temperature 173
_refine_special_details
;
C13 and C12 disordered over two sites with occupancies 0.8:0.6.

;
#These two values have been output from a single CSD field.
_refine_ls_R_factor_gt 0.0625
_refine_ls_wR_factor_gt 0.0625
_symmetry_cell_setting tetragonal
_symmetry_space_group_name_H-M 'P 4/n'
_symmetry_Int_Tables_number 85
loop_
_symmetry_equiv_pos_site_id
_symmetry_equiv_pos_as_xyz
1 x,y,z
2 1/2-y,x,z
3 1/2-x,1/2-y,z
4 y,1/2-x,z
5 -x,-y,-z
6 -1/2+y,-x,-z
7 -1/2+x,-1/2+y,-z
8 -y,-1/2+x,-z
_cell_length_a 19.3748(3)
_cell_length_b 19.3748(3)
_cell_length_c 9.9515(5)
_cell_angle_alpha 90
_cell_angle_beta 90
_cell_angle_gamma 90
_cell_formula_units_Z 4
loop_
_atom_type_symbol
_atom_type_radius_bond
C 0.68
H 0.23
N 0.68
O 0.68
Pr 2.03
loop_
_atom_site_label
_atom_site_type_symbol
_atom_site_fract_x
_atom_site_fract_y
_atom_site_fract_z
Pr1 Pr 0.45677(2) 0.89452(2) 0.45894(4)
C1 C 0.5398(4) 0.9761(4) 0.1691(7)
H1 H 0.49818 0.99576 0.12602
H2 H 0.57856 0.98007 0.10472
C2 C 0.5565(3) 1.0170(3) 0.2939(7)
C3 C 0.4823(4) 0.8720(5) 0.0962(8)
H3 H 0.51129 0.84876 0.02791
H4 H 0.45689 0.90967 0.05071
C4 C 0.4305(4) 0.8203(5) 0.1511(9)
C5 C 0.5613(4) 0.7737(3) 0.6150(8)
H5 H 0.60077 0.74142 0.62210
H6 H 0.52269 0.75441 0.66809
C6 C 0.5821(4) 0.8434(4) 0.6742(8)
C7 C 0.4975(3) 0.7179(3) 0.4416(8)
H7 H 0.52128 0.67559 0.47289
H8 H 0.49071 0.71418 0.34323
C8 C 0.4278(4) 0.7247(4) 0.5116(8)
C9 C 0.5959(4) 0.8680(4) 0.2002(8)
H9 H 0.63686 0.89188 0.17602
C10 C 0.5970(4) 0.7921(4) 0.2422(8)
H10 H 0.55360 0.77029 0.21100
H11 H 0.63550 0.76905 0.19464
C11 C 0.6046(3) 0.7780(4) 0.3911(8)
H12 H 0.62642 0.73216 0.40211
H13 H 0.63677 0.81266 0.42888
N1 N 0.5275(3) 0.9022(3) 0.1992(6)
N2 N 0.5401(3) 0.7792(3) 0.4726(6)
O1 O 0.5463(2) 0.9899(2) 0.4076(5)
O2 O 0.5765(3) 1.0787(3) 0.2822(6)
O3 O 0.4185(3) 0.8207(3) 0.2754(6)
O4 O 0.4013(4) 0.7831(5) 0.0672(9)
O5 O 0.5616(2) 0.8957(2) 0.6114(5)
O6 O 0.6159(4) 0.8433(3) 0.7798(7)
O7 O 0.4118(3) 0.7830(2) 0.5575(6)
O8 O 0.3895(3) 0.6727(3) 0.5166(6)
O9 O 0.4012(3) 0.9791(3) 0.3075(6)
H14 H 0.414(4) 1.0200(15) 0.327(7)
H15 H 0.378(4) 0.980(3) 0.235(4)
C12 C 0.2541(7) 0.6958(9) 0.212(2)
N3 N 0.3238(6) 0.6672(7) 0.1758(13)
C13 C 0.25000 0.75000 0.3142(16)
O10 O 0.6102(5) 0.7241(4) -0.0698(7)
H16 H 0.623(5) 0.696(5) -0.131(9)
H17 H 0.5668(12) 0.722(6) -0.060(12)
O11 O 0.3200(5) 0.9759(6) 0.0857(9)
H18 H 0.282(4) 0.966(7) 0.123(10)
H19 H 0.322(6) 0.958(7) 0.008(6)
O12 O 0.75000 0.75000 0.082(2)
O13 O 0.75000 0.75000 0.650(12)
Pr1D Pr 0.54323(2) 1.10548(2) 0.54106(4)
Pr1E Pr 0.39452(2) 0.54323(2) 0.54106(4)
O1D O 0.4537(2) 1.0101(2) 0.5924(5)
O2D O 0.4235(3) 0.9213(3) 0.7178(6)
O8G O 0.3273(3) 0.8895(3) 0.4834(6)
C12B C 0.2459(7) 0.8042(9) 0.212(2)
N3B N 0.1762(6) 0.8328(7) 0.1758(13)
#END
