
#######################################################################
#
#                 Cambridge Crystallographic Data Centre
#                                CCDC
#
#######################################################################
#
# If this CIF has been generated from an entry in the Cambridge
# Structural Database, then it will include bibliographic, chemical,
# crystal, experimental, refinement or atomic coordinate data resulting
# from the CCDC's data processing and validation procedures.
#
#######################################################################

data_CSD_CIF_GAJCAZ
_audit_creation_date 2020-11-11
_audit_creation_method CSD-ConQuest-V1
_database_code_CSD GAJCAZ
_database_code_depnum_ccdc_archive 'CCDC 1864371'
_chemical_formula_sum 'C11 H24.5 La1 N3 O11.25'
_chemical_formula_moiety
;
(C11 H16 La1 N2 O9 1-)n,H4 N1 1+,2.25(H2 O1)
;
_journal_coden_Cambridge 1440
_journal_volume 12
_journal_year 2019
_journal_page_first 1412
_journal_name_full 'ACS Applied Materials and Interfaces '
loop_
_publ_author_name
"Mao-Long Chen"
"Yan-Ying Feng"
"Si-Yuan Wang"
"Yun-Hui Cheng"
"Zhao-Hui Zhou"
_chemical_name_systematic
;
catena-[ammonium 
(\m-2,2',2'',2'''-(propane-1,3-diyldinitrilo)tetraacetato)-aqua-lanthanum 
hydrate]
;
_cell_volume   3750.923
_exptl_crystal_colour 'colorless'
_exptl_crystal_density_diffrn 1.818
_exptl_crystal_description 'tetragonal'
_diffrn_ambient_temperature 173
#These two values have been output from a single CSD field.
_refine_ls_R_factor_gt 0.052
_refine_ls_wR_factor_gt 0.052
_symmetry_cell_setting tetragonal
_symmetry_space_group_name_H-M 'P 4/n'
_symmetry_Int_Tables_number 85
loop_
_symmetry_equiv_pos_site_id
_symmetry_equiv_pos_as_xyz
1 x,y,z
2 1/2-x,1/2-y,z
3 1/2-y,x,z
4 y,1/2-x,z
5 -x,-y,-z
6 -1/2+x,-1/2+y,-z
7 -1/2+y,-x,-z
8 -y,-1/2+x,-z
_cell_length_a 19.5153(7)
_cell_length_b 19.5153(7)
_cell_length_c 9.8489(10)
_cell_angle_alpha 90
_cell_angle_beta 90
_cell_angle_gamma 90
_cell_formula_units_Z 8
loop_
_atom_type_symbol
_atom_type_radius_bond
C 0.68
H 0.23
La 2.07
N 0.68
O 0.68
loop_
_atom_site_label
_atom_site_type_symbol
_atom_site_fract_x
_atom_site_fract_y
_atom_site_fract_z
La1 La 0.95591(2) 0.39397(2) 1.04073(5)
O1 O 0.8906(3) 0.1723(3) 0.9882(6)
N1 N 1.0397(3) 0.2777(3) 1.0285(8)
C1 C 0.9970(4) 0.2188(3) 1.0602(9)
H1 H 0.99050 0.21583 1.15968
H2 H 1.02037 0.17642 1.02984
O2 O 0.9120(3) 0.2814(3) 0.9386(6)
N2 N 1.0261(3) 0.4015(3) 1.3047(7)
C2 C 0.9283(5) 0.2240(4) 0.9919(9)
O3 O 1.0635(3) 0.3933(3) 0.8869(6)
C3 C 1.0609(4) 0.2739(4) 0.8855(10)
H3 H 1.02210 0.25636 0.83097
H4 H 1.09895 0.24050 0.87744
O4 O 1.1165(4) 0.3405(3) 0.7208(7)
C4 C 1.0835(4) 0.3402(4) 0.8280(9)
O5 O 0.9024(4) 0.2808(3) 1.4414(8)
C5 C 0.9810(5) 0.3709(5) 1.4092(9)
H5 H 0.95596 0.40818 1.45600
H6 H 1.00991 0.34753 1.47764
O6 O 0.9168(3) 0.3189(3) 1.2279(7)
C6 C 0.9296(5) 0.3201(5) 1.3537(13)
O7 O 1.0747(3) 0.5759(3) 1.2225(6)
C7 C 1.0380(4) 0.4740(4) 1.3331(8)
H7 H 1.07615 0.47814 1.39873
H8 H 0.99647 0.49342 1.37631
O8 O 1.0465(2) 0.4891(2) 1.0947(5)
O9 O 0.9001(3) 0.4814(3) 1.1967(6)
H9 H 0.901(3) 0.515(1) 1.146(3)
C8 C 1.0547(4) 0.5153(4) 1.2095(9)
C9 C 1.1030(4) 0.2779(4) 1.1113(9)
H10 H 1.13446 0.31271 1.07312
H11 H 1.12543 0.23273 1.10105
C10 C 1.0947(5) 0.2922(4) 1.2610(9)
H12 H 1.13305 0.26982 1.30974
H13 H 1.05181 0.27010 1.29206
C11 C 1.0927(4) 0.3666(4) 1.3028(9)
H14 H 1.11261 0.37008 1.39496
H15 H 1.12316 0.39240 1.24080
H16 H 0.8615(12) 0.4641(18) 1.203(5)
N3 N 1.2215(4) 0.3901(4) 1.5690(7)
O10 O 1.1645(7) 0.6735(8) 1.3234(15)
H17 H 1.125(4) 0.671(9) 1.291(17)
H18 H 1.171(8) 0.641(7) 1.378(16)
O11 O 0.8230(5) 0.4792(5) 1.4251(8)
H19 H 0.831(7) 0.457(4) 1.496(6)
H20 H 0.810(4) 0.453(4) 1.363(4)
O12 O 1.25000 0.25000 1.4144(18)
La1D La 1.04409(2) 0.60603(2) 0.95927(5)
La1F La 0.89397(2) 0.04409(2) 0.95927(5)
O1G O 0.8277(3) 0.3906(3) 1.0118(6)
O7D O 0.9253(3) 0.4241(3) 0.7775(6)
O8D O 0.9535(2) 0.5109(2) 0.9053(5)
#END
