
#######################################################################
#
#                 Cambridge Crystallographic Data Centre
#                                CCDC
#
#######################################################################
#
# If this CIF has been generated from an entry in the Cambridge
# Structural Database, then it will include bibliographic, chemical,
# crystal, experimental, refinement or atomic coordinate data resulting
# from the CCDC's data processing and validation procedures.
#
#######################################################################

data_CSD_CIF_GAJVIY01
_audit_creation_date 2019-05-23
_audit_creation_method CSD-ConQuest-V1
_database_code_CSD GAJVIY01
_database_code_depnum_ccdc_archive 'CCDC 1884532'
_chemical_formula_sum 'C69 H69 N5 O19 Zn3'
_chemical_formula_moiety
;
(C56 H32 O16 Zn3 2-)n,2(C2 H8 N1 1+),3(C3 H7 N1 O1)
;
_journal_coden_Cambridge 1500
_journal_volume 9
_journal_year 2019
_journal_page_first 16183
_journal_name_full 'RSC Advances '
loop_
_publ_author_name
"W.Xu"
"S.S.Yu"
"H.Zhang"
"H.B.Duan"
_chemical_name_systematic
;
catena-[bis(dimethylammonium) 
tetrakis(\m-[1,1'-biphenyl]-4,4'-dicarboxylato)-tri-zinc(ii) 
N,N-dimethylformamide solvate]
;
_cell_volume   8032.441
_exptl_crystal_colour 'colorless'
_exptl_crystal_description 'block'
_diffrn_ambient_temperature 100
_diffrn_special_details
;
twin

;
_refine_special_details
;
Disordered solvent molecules were not modelled and the disordered density was 
taken into account using the SQUEEZE/PLATON procedure.
;
#These two values have been output from a single CSD field.
_refine_ls_R_factor_gt 0.0884
_refine_ls_wR_factor_gt 0.0884
_symmetry_cell_setting orthorhombic
_symmetry_space_group_name_H-M 'P n a 21'
_symmetry_Int_Tables_number 33
loop_
_symmetry_equiv_pos_site_id
_symmetry_equiv_pos_as_xyz
1 x,y,z
2 -x,-y,1/2+z
3 1/2+x,1/2-y,z
4 1/2-x,1/2+y,1/2+z
_cell_length_a 24.7046(12)
_cell_length_b 14.5230(9)
_cell_length_c 22.3879(12)
_cell_angle_alpha 90
_cell_angle_beta 90
_cell_angle_gamma 90
_cell_formula_units_Z 4
loop_
_atom_type_symbol
_atom_type_radius_bond
C 0.68
H 0.23
N 0.68
O 0.68
Zn 1.22
loop_
_atom_site_label
_atom_site_type_symbol
_atom_site_fract_x
_atom_site_fract_y
_atom_site_fract_z
Zn1 Zn 0.33974(5) 0.03638(11) 0.95093(6)
Zn2 Zn 0.34370(5) -0.00503(10) 0.78634(8)
Zn3 Zn 0.34381(5) 0.95753(10) 0.62934(6)
O1 O -0.0953(4) -0.4593(6) 0.9396(4)
O2 O -0.1235(4) -0.4079(6) 0.8499(4)
O3 O 0.2726(4) -0.0211(8) 0.9266(5)
O4 O 0.2685(4) -0.0086(7) 0.8249(5)
O5 O 0.3697(4) 0.1086(7) 0.8351(5)
O6 O 0.3475(4) 0.1654(7) 0.9300(5)
O7 O 0.3070(3) 0.0861(6) 0.7266(4)
O8 O 0.2738(4) 0.0176(7) 0.6468(4)
O9 O -0.0827(3) 0.4958(7) 0.7437(4)
O10 O -0.0919(4) 0.4690(7) 0.6466(4)
O11 O 0.3211(4) 0.8788(6) 0.7389(4)
O12 O 0.3559(4) 0.8317(6) 0.6549(4)
O13 O 0.3485(4) 0.9645(7) 0.5456(4)
O14 O 0.2686(4) 0.8996(8) 0.5288(4)
O15 O 0.4049(4) 1.0897(9) 0.0539(5)
O16 O 0.3210(4) 1.0413(7) 0.0377(5)
C1 C -0.0886(6) -0.4131(10) 0.8884(6)
C2 C -0.0375(6) -0.3597(11) 0.8875(6)
C3 C -0.0076(5) -0.3444(11) 0.9403(6)
H1 H -0.01834 -0.37007 0.97643
C4 C 0.0375(5) -0.291(1) 0.9364(7)
H2 H 0.05740 -0.27965 0.97094
C5 C 0.0553(6) -0.2519(11) 0.8819(6)
C6 C 0.0239(6) -0.2670(12) 0.8314(7)
H3 H 0.03464 -0.24295 0.79480
C7 C -0.0228(6) -0.3170(11) 0.8353(6)
H4 H -0.04506 -0.32213 0.80199
C8 C 0.1071(5) -0.1984(11) 0.8778(7)
C9 C 0.1210(5) -0.1418(10) 0.9254(7)
H5 H 0.09748 -0.13887 0.95774
C10 C 0.1675(5) -0.0898(10) 0.9275(6)
H6 H 0.17744 -0.05622 0.96113
C11 C 0.2000(5) -0.0913(11) 0.8735(6)
C12 C 0.1857(6) -0.1450(13) 0.8275(7)
H7 H 0.20747 -0.14801 0.79365
C13 C 0.1382(5) -0.1962(11) 0.8304(7)
H8 H 0.12807 -0.23055 0.79718
C14 C 0.2528(5) -0.0351(10) 0.8754(6)
C15 C 0.2715(5) 0.0724(10) 0.6869(6)
C16 C 0.2210(6) 0.1308(11) 0.6920(6)
C17 C 0.1816(5) 0.1285(11) 0.6438(6)
H9 H 0.18780 0.09128 0.61074
C18 C 0.1371(5) 0.1785(11) 0.6465(6)
H10 H 0.11141 0.17353 0.61628
C19 C 0.1276(6) 0.2414(12) 0.6962(6)
C20 C 0.1655(6) 0.2458(12) 0.7413(7)
H11 H 0.15925 0.28478 0.77351
C21 C 0.2131(6) 0.1934(10) 0.7401(6)
H12 H 0.23891 0.19937 0.77002
C22 C 0.0775(6) 0.2999(13) 0.6954(6)
C23 C 0.0524(7) 0.3171(13) 0.7500(7)
H13 H 0.06639 0.29326 0.78532
C24 C 0.0033(7) 0.3738(13) 0.7503(7)
H14 H -0.01362 0.38747 0.78632
C25 C -0.0183(5) 0.4075(11) 0.6971(6)
C26 C 0.0075(6) 0.3822(12) 0.6437(7)
H15 H -0.00752 0.40117 0.60772
C27 C 0.0561(6) 0.3284(12) 0.6423(6)
H16 H 0.07259 0.31324 0.60627
C28 C -0.0685(6) 0.4603(12) 0.6970(7)
C29 C 0.3595(5) 0.1741(11) 0.8747(7)
C30 C 0.3626(5) 0.2698(10) 0.8457(7)
C31 C 0.3670(7) 0.3449(11) 0.8859(8)
H17 H 0.36655 0.33599 0.92705
C32 C 0.3720(8) 0.4315(12) 0.8614(8)
H18 H 0.38070 0.48052 0.88634
C33 C 0.3643(6) 0.4484(10) 0.8005(7)
C34 C 0.3577(7) 0.3727(10) 0.7611(7)
H19 H 0.35300 0.38142 0.72031
C35 C 0.3585(7) 0.2826(10) 0.7867(7)
H20 H 0.35601 0.23163 0.76175
C36 C 0.3616(6) 0.5448(9) 0.7759(7)
C37 C 0.3381(7) 0.6189(11) 0.8103(8)
H21 H 0.32581 0.60686 0.84876
C38 C 0.3336(6) 0.6999(10) 0.7895(7)
H22 H 0.32009 0.74595 0.81422
C39 C 0.3484(5) 0.7229(9) 0.7299(6)
C40 C 0.3738(7) 0.5625(10) 0.7189(7)
H23 H 0.38325 0.51551 0.69261
C41 C 0.3717(6) 0.654(1) 0.7003(7)
H24 H 0.38798 0.66817 0.66395
C42 C 0.3430(5) 0.8191(10) 0.7086(7)
C43 C 0.3100(6) 0.9365(11) 0.5103(6)
C44 C 0.3160(5) 0.9585(9) 0.4439(6)
C45 C 0.3593(6) 1.0120(11) 0.4271(7)
H25 H 0.38436 1.03351 0.45477
C46 C 0.3638(6) 1.0335(12) 0.3637(7)
H26 H 0.39097 1.07284 0.35051
C47 C 0.3286(7) 0.9965(12) 0.3237(7)
C48 C 0.2850(6) 0.9462(10) 0.3443(6)
H27 H 0.25868 0.92659 0.31745
C49 C 0.2799(6) 0.9246(11) 0.4035(6)
H28 H 0.25178 0.88680 0.41622
C50 C 0.3370(6) 1.0245(15) 0.2616(8)
C51 C 0.3861(6) 1.0428(11) 0.2347(7)
H29 H 0.41674 1.04534 0.25876
C52 C 0.3925(6) 1.0573(11) 0.1744(7)
H30 H 0.42731 1.07136 0.16130
C53 C 0.3483(6) 1.0528(11) 0.1266(8)
C54 C 0.2985(7) 1.0412(15) 0.1588(7)
H31 H 0.26692 1.04555 0.13630
C55 C 0.2917(6) 1.0243(13) 0.2192(7)
H32 H 0.25702 1.01223 0.23343
C56 C 0.3624(6) 1.0565(11) 0.0703(7)
N1 N 0.1864(5) 0.8614(10) 0.6080(5)
H33 H 0.17243 0.90548 0.63086
H34 H 0.21277 0.88717 0.58665
C57 C 0.1478(7) 0.8354(17) 0.5696(8)
H35 H 0.15247 0.86754 0.53245
H36 H 0.11289 0.84987 0.58597
H37 H 0.15029 0.77032 0.56278
C58 C 0.2133(8) 0.7894(14) 0.6504(9)
H38 H 0.24019 0.75522 0.62876
H39 H 0.18619 0.74790 0.66522
H40 H 0.23009 0.82069 0.68330
N2 N 0.4870(5) 1.1424(14) -0.0181(6)
H41 H 0.45422 1.12281 -0.00775
H42 H 0.48847 1.20320 -0.01315
C59 C 0.5304(8) 1.095(2) 0.0194(9)
H43 H 0.56297 1.08877 -0.00371
H44 H 0.51790 1.03501 0.03113
H45 H 0.53775 1.13106 0.05439
C60 C 0.4994(7) 1.1168(16) -0.0825(7)
H46 H 0.47571 1.15011 -0.10874
H47 H 0.49414 1.05190 -0.08800
H48 H 0.53633 1.13234 -0.09155
Zn1* Zn 0.33974(5) 1.03638(11) -0.04907(6)
Zn1B Zn -0.16026(5) -0.53638(11) 0.95093(6)
Zn2* Zn 0.34370(5) 0.99497(10) 0.78634(8)
Zn2B Zn -0.15630(5) -0.49497(10) 0.78634(8)
Zn2B* Zn -0.15630(5) 0.50503(10) 0.78634(8)
Zn3* Zn 0.34381(5) -0.04247(10) 0.62934(6)
Zn3B Zn -0.15619(5) 0.54247(10) 0.62934(6)
O1B O 0.4047(4) -0.0407(6) 0.9396(4)
O2B O 0.3765(4) -0.0921(6) 0.8499(4)
O8* O 0.2738(4) 1.0176(7) 0.6468(4)
O9B O 0.4173(3) 0.0042(7) 0.7437(4)
O10B O 0.4081(4) 1.0310(7) 0.6466(4)
O11* O 0.3211(4) -0.1212(6) 0.7389(4)
O16* O 0.3210(4) 0.0413(7) 1.0377(5)
#END
