
#######################################################################
#
#                 Cambridge Crystallographic Data Centre
#                                CCDC
#
#######################################################################
#
# If this CIF has been generated from an entry in the Cambridge
# Structural Database, then it will include bibliographic, chemical,
# crystal, experimental, refinement or atomic coordinate data resulting
# from the CCDC's data processing and validation procedures.
#
#######################################################################

data_CSD_CIF_GAJVIY
_audit_creation_date 2011-02-28
_audit_creation_method CSD-ConQuest-V1
_database_code_CSD GAJVIY
_database_code_depnum_ccdc_archive 'CCDC 769432'
_chemical_formula_sum 'C75 H83 N7 O21 Zn3'
_chemical_formula_moiety
;
(C2 H8 N1 1+)2n,n(C56 H32 O16 Zn3 2-),5n(C3 H7 N1 O1)
;
_journal_coden_Cambridge 440
_journal_volume 34
_journal_year 2010
_journal_page_first 2445
_journal_name_full 'New J.Chem. '
loop_
_publ_author_name
"S.A.Sapchenko"
"D.N.Dybtsev"
"D.G.Samsonenko"
"V.P.Fedin"
_chemical_name_systematic
;
catena-[bis(Dimethylammonium) 
tris(\m~4~-benzene-1,4-dicarboxylato-O,O',O'',O''')-(\m~2~-benzene-1,4-dicarbo
xylato-O,O')-tri-zinc(ii) dimethylformamide solvate]
;
_cell_volume   8046.780
_exptl_crystal_colour 'colorless'
_exptl_crystal_density_diffrn 1.333
_exptl_crystal_description 'block'
_diffrn_ambient_temperature 150
#These two values have been output from a single CSD field.
_refine_ls_R_factor_gt 0.0377
_refine_ls_wR_factor_gt 0.0377
_symmetry_cell_setting orthorhombic
_symmetry_space_group_name_H-M 'P n a 21'
_symmetry_Int_Tables_number 33
loop_
_symmetry_equiv_pos_site_id
_symmetry_equiv_pos_as_xyz
1 x,y,z
2 -x,-y,1/2+z
3 1/2-x,1/2+y,1/2+z
4 1/2+x,1/2-y,z
_cell_length_a 24.6744(5)
_cell_length_b 14.5575(5)
_cell_length_c 22.4021(6)
_cell_angle_alpha 90
_cell_angle_beta 90
_cell_angle_gamma 90
_cell_formula_units_Z 4
loop_
_atom_type_symbol
_atom_type_radius_bond
C 0.68
H 0.23
N 0.68
O 0.68
Zn 1.22
loop_
_atom_site_label
_atom_site_type_symbol
_atom_site_fract_x
_atom_site_fract_y
_atom_site_fract_z
Zn1 Zn 0.656167(12) 0.04083(2) 0.613224(13)
Zn2 Zn 0.655975(10) 0.00357(2) 0.770978(18)
Zn3 Zn 0.660280(12) -0.03922(2) -0.064820(13)
O1 O 0.65132(10) 0.03415(18) 0.52673(12)
O2 O 0.73147(10) 0.10132(17) 0.5111(1)
C1 C 0.69009(13) 0.0617(2) 0.49399(14)
C2 C 0.68285(13) 0.0407(2) 0.42810(14)
C3 C 0.64082(14) -0.0140(3) 0.40892(16)
H1 H 0.61540 -0.03710 0.43700
C4 C 0.63534(15) -0.0356(3) 0.34942(15)
H2 H 0.60600 -0.07330 0.33700
C5 C 0.67192(17) -0.0033(3) 0.30694(16)
C6 C 0.71524(15) 0.0506(3) 0.32674(16)
H3 H 0.74120 0.07230 0.29880
C7 C 0.72088(14) 0.0732(3) 0.38709(15)
H4 H 0.75030 0.11020 0.40010
C8 C 0.66523(16) -0.0247(3) 0.24238(17)
C9 C 0.61371(15) -0.0437(3) 0.21928(16)
H5 H 0.58350 -0.04560 0.24550
C10 C 0.60607(14) -0.0598(3) 0.15933(15)
H6 H 0.57100 -0.07480 0.14480
C11 C 0.64918(14) -0.0543(2) 0.12011(17)
C12 C 0.70067(15) -0.0390(3) 0.14272(17)
H7 H 0.73090 -0.03770 0.11640
C13 C 0.70850(15) -0.0254(3) 0.20383(15)
H8 H 0.74410 -0.01660 0.21890
C14 C 0.63907(14) -0.0633(3) 0.05411(15)
O3 O 0.59489(11) -0.0911(2) 0.03601(11)
O4 O 0.67835(11) -0.04154(18) 0.0203(1)
O5 O 0.59150(9) -0.03112(17) 0.62985(11)
O6 O 0.58202(9) -0.00190(16) 0.72784(11)
C15 C 0.56765(12) -0.0374(2) 0.67993(14)
C16 C 0.51619(12) -0.0940(2) 0.67999(14)
C17 C 0.49105(14) -0.1165(3) 0.62651(15)
H9 H 0.50630 -0.09650 0.58980
C18 C 0.44416(14) -0.1677(3) 0.62630(16)
H10 H 0.42680 -0.18150 0.58950
C19 C 0.42181(13) -0.1997(2) 0.67999(15)
C20 C 0.44787(15) -0.1779(3) 0.73331(15)
H11 H 0.43380 -0.19990 0.77010
C21 C 0.49419(14) -0.1242(3) 0.73288(15)
H12 H 0.51100 -0.10810 0.76960
C22 C 0.37198(13) -0.2575(2) 0.67905(15)
C23 C 0.36275(14) -0.3179(2) 0.63102(15)
H13 H 0.38820 -0.32160 0.59930
C24 C 0.31667(13) -0.3721(2) 0.62996(14)
H14 H 0.31100 -0.41310 0.59760
C25 C 0.27870(12) -0.3672(2) 0.67538(14)
C26 C 0.28737(13) -0.3071(2) 0.72297(15)
H15 H 0.26160 -0.30350 0.75430
C27 C 0.33384(14) -0.2521(3) 0.72473(17)
H16 H 0.33940 -0.21110 0.75710
C28 C 0.22839(11) -0.4247(2) 0.67267(13)
O7 O 0.22595(9) -0.48304(16) 0.63025(10)
O8 O 0.19221(8) -0.41125(13) 0.71039(9)
O9 O 0.6438(1) 0.16820(15) 0.63659(11)
O10 O 0.68059(9) 0.12252(14) 0.72257(10)
C29 C 0.65856(12) 0.1818(2) 0.69070(16)
C30 C 0.65152(14) 0.2772(2) 0.71488(16)
C31 C 0.62846(16) 0.3462(2) 0.67993(17)
H17 H 0.61620 0.33290 0.64070
C32 C 0.62350(16) 0.4339(2) 0.70266(17)
H18 H 0.60830 0.48090 0.67850
C33 C 0.64043(14) 0.45476(19) 0.76042(15)
C34 C 0.66324(17) 0.3849(2) 0.79543(18)
H19 H 0.67530 0.39760 0.83490
C35 C 0.66806(16) 0.2971(2) 0.77197(17)
H20 H 0.68310 0.24970 0.79590
C36 C 0.63644(14) 0.5502(2) 0.78454(16)
C37 C 0.63928(17) 0.6252(2) 0.74741(16)
H21 H 0.64160 0.61540 0.70560
C38 C 0.63883(15) 0.7148(2) 0.76872(16)
H22 H 0.63960 0.76540 0.74200
C39 C 0.63722(13) 0.7288(2) 0.83038(14)
C40 C 0.63428(16) 0.6544(2) 0.86821(16)
H23 H 0.63320 0.66400 0.91010
C41 C 0.63290(18) 0.5657(2) 0.84598(17)
H24 H 0.62950 0.51520 0.87260
C42 C 0.63964(12) 0.8242(2) 0.85455(15)
O11 O 0.62917(10) 0.88950(15) 0.82003(11)
O12 O 0.65149(9) 0.83349(16) 0.90893(12)
O13 O 0.73119(9) 0.00993(17) 0.80991(11)
O14 O 0.72770(9) 0.01906(17) 0.90990(11)
C43 C 0.74865(12) 0.0349(2) 0.85947(14)
C44 C 0.79978(12) 0.0902(2) 0.86135(15)
C45 C 0.81427(13) 0.1441(2) 0.81244(15)
H25 H 0.79250 0.14410 0.77750
C46 C 0.86088(14) 0.1978(3) 0.81524(16)
H26 H 0.87050 0.23540 0.78220
C47 C 0.89361(13) 0.1972(2) 0.86585(15)
C48 C 0.87887(13) 0.1421(3) 0.91361(16)
H27 H 0.90130 0.14020 0.94800
C49 C 0.83249(12) 0.0904(2) 0.91213(16)
H28 H 0.82260 0.05450 0.94580
C50 C 0.94379(13) 0.2525(2) 0.86813(15)
C51 C 0.97539(14) 0.2684(2) 0.81721(16)
H29 H 0.96390 0.24400 0.78000
C52 C 1.02299(13) 0.3189(2) 0.81977(15)
H30 H 1.04460 0.32650 0.78510
C53 C 1.03900(12) 0.3589(2) 0.87439(15)
C54 C 1.00759(13) 0.3451(2) 0.92453(15)
H31 H 1.01820 0.37190 0.96140
C55 C 0.96083(13) 0.2928(2) 0.92208(15)
H32 H 0.93990 0.28400 0.95720
C56 C 1.09007(11) 0.41488(19) 0.87653(14)
O15 O 1.12255(8) 0.40765(14) 0.83425(10)
O16 O 1.09628(9) 0.46312(15) 0.92298(10)
N1 N 0.81304(12) 0.1353(2) 0.59180(14)
H33 H 0.78460 0.10540 0.57360
H34 H 0.83160 0.09270 0.61420
C57 C 0.79097(18) 0.2044(3) 0.6318(2)
H35 H 0.76760 0.17470 0.66140
H36 H 0.76980 0.24900 0.60880
H37 H 0.82070 0.23610 0.65230
C58 C 0.84934(18) 0.1698(4) 0.5455(2)
H38 H 0.86220 0.11840 0.52100
H39 H 0.88040 0.20050 0.56410
H40 H 0.82980 0.21370 0.52020
N2 N 0.51243(13) 0.8586(3) 0.96493(16)
H41 H 0.54510 0.88420 0.97580
H42 H 0.51540 0.79590 0.96910
C59 C 0.50151(18) 0.8804(4) 0.9018(2)
H43 H 0.53070 0.85580 0.87690
H44 H 0.49950 0.94720 0.89680
H45 H 0.46700 0.85270 0.88980
C60 C 0.4698(2) 0.8924(4) 1.0055(2)
H46 H 0.47890 0.87540 1.04670
H47 H 0.43500 0.86490 0.99450
H48 H 0.46730 0.95940 1.00240
O17 O 0.64427(15) 0.4359(3) 0.98987(17)
C61 C 0.6867(2) 0.4096(3) 0.97261(18)
H49 H 0.71570 0.45260 0.97270
N3 N 0.69776(16) 0.3258(2) 0.95305(17)
C62 C 0.6564(3) 0.2568(4) 0.9490(3)
H50 H 0.67220 0.19960 0.93380
H51 H 0.62790 0.27760 0.92170
H52 H 0.64080 0.24600 0.98860
C63 C 0.7512(3) 0.3017(4) 0.9297(3)
H53 H 0.75130 0.23700 0.91760
H54 H 0.77860 0.31150 0.96080
H55 H 0.75950 0.34040 0.89510
O18 O 0.88881(15) 0.0634(3) 0.66870(19)
C64 C 0.8888(2) 0.0180(4) 0.7146(2)
H56 H 0.85420 -0.00080 0.72870
N4 N 0.9301(2) -0.0080(3) 0.7466(2)
C65 C 0.9840(3) 0.0217(7) 0.7303(4)
H57 H 1.01040 -0.00420 0.75840
H58 H 0.98580 0.08890 0.73170
H59 H 0.99240 0.00050 0.68980
C66 C 0.9238(4) -0.0627(4) 0.7992(3)
H60 H 0.95950 -0.07530 0.81660
H61 H 0.90610 -0.12080 0.78890
H62 H 0.90150 -0.02940 0.82830
O19 O 0.6111(3) 0.5668(3) 0.5635(2)
C67 C 0.6574(4) 0.5866(6) 0.5664(4)
H63 H 0.68220 0.53790 0.55920
N5 N 0.6791(3) 0.6661(4) 0.5782(2)
C68 C 0.6484(4) 0.7499(5) 0.5884(4)
H64 H 0.67350 0.80060 0.59650
H65 H 0.62420 0.74150 0.62260
H66 H 0.62690 0.76420 0.55280
C69 C 0.7401(4) 0.6739(5) 0.5798(3)
H67 H 0.75030 0.73730 0.58920
H68 H 0.75500 0.65700 0.54070
H69 H 0.75460 0.63260 0.61040
O20 O 0.40846(18) 0.7247(4) 0.8916(2)
C70 C 0.3573(3) 0.7146(5) 0.9011(3)
H70 H 0.33300 0.72840 0.86950
N6 N 0.33711(19) 0.6868(4) 0.9509(3)
C71 C 0.3741(3) 0.6789(5) 1.0019(3)
H71 H 0.35430 0.65470 1.03640
H72 H 0.38880 0.73960 1.01160
H73 H 0.40380 0.63720 0.99170
C72 C 0.2828(2) 0.6765(5) 0.9643(3)
H74 H 0.27900 0.65230 1.00490
H75 H 0.26630 0.63360 0.93590
H76 H 0.26470 0.73620 0.96150
O21 O 0.52288(18) 0.6784(4) 0.9913(3)
C73 C 0.5177(3) 0.6057(6) 0.9627(5)
H77 H 0.51370 0.60800 0.92060
N7 N 0.5178(2) 0.5236(5) 0.9907(5)
C74 C 0.5248(4) 0.5110(7) 1.0533(5)
H78 H 0.52320 0.44530 1.06270
H79 H 0.49600 0.54340 1.07480
H80 H 0.56020 0.53560 1.06530
C75 C 0.5163(3) 0.4452(6) 0.9482(5)
H81 H 0.51630 0.38730 0.97060
H82 H 0.54820 0.44760 0.92220
H83 H 0.48330 0.44890 0.92390
Zn1C Zn 0.156167(12) -0.54083(2) 0.613224(13)
Zn2C Zn 0.155975(10) -0.50357(2) 0.770978(18)
Zn2* Zn 0.655975(10) 1.00357(2) 0.770978(18)
Zn2C* Zn 1.155975(10) 0.49643(2) 0.770978(18)
Zn3* Zn 0.660280(12) 0.96078(2) 0.935180(13)
Zn3** Zn 0.660280(12) -0.03922(2) 0.935180(13)
Zn3C Zn 1.160280(12) 0.53922(2) 0.935180(13)
O7C O 0.72595(9) -0.01696(16) 0.63025(10)
O8C O 0.69221(8) -0.08875(13) 0.71039(9)
O11* O 0.62917(10) -0.11050(15) 0.82003(11)
O12* O 0.65149(9) -0.16651(16) -0.09107(12)
O14* O 0.72770(9) 0.01906(17) -0.09010(11)
O15C O 0.62255(8) 0.09235(14) 0.83425(10)
O16C O 0.59628(9) 0.03688(15) -0.07702(10)
#END
