
#######################################################################
#
#                 Cambridge Crystallographic Data Centre
#                                CCDC
#
#######################################################################
#
# If this CIF has been generated from an entry in the Cambridge
# Structural Database, then it will include bibliographic, chemical,
# crystal, experimental, refinement or atomic coordinate data resulting
# from the CCDC's data processing and validation procedures.
#
#######################################################################

data_CSD_CIF_GALHOS
_audit_creation_date 2012-03-13
_audit_creation_method CSD-ConQuest-V1
_database_code_CSD GALHOS
_database_code_depnum_ccdc_archive 'CCDC 646879'
_chemical_formula_sum 'C30 H25 In1 N1 O8.5'
_chemical_formula_moiety
;
(C28 H16 In1 O8 1-)n,n(C2 H8 N1 1+),0.5n(H2 O1)
;
_journal_coden_Cambridge 1350
_journal_volume 14
_journal_year 2012
_journal_page_first 1819
_journal_name_full 'CrystEngComm '
loop_
_publ_author_name
"Ja-Min Gu"
"Sung-Jin Kim"
"Youngmee Kim"
"Seong Huh"
_chemical_name_systematic
;
catena-(dimethylammonium bis(\m~2~-biphenyl-4,4'-dicarboxylato)-indium(iii) 
hemihydrate)
;
_chemical_name_common
;
In-MOF 1
;
_cell_volume  37950.230
_exptl_crystal_colour 'colorless'
_exptl_crystal_density_diffrn 0.911
_exptl_crystal_description 'octagon'
_diffrn_ambient_temperature 293
#These two values have been output from a single CSD field.
_refine_ls_R_factor_gt 0.0602
_refine_ls_wR_factor_gt 0.0602
_symmetry_cell_setting orthorhombic
_symmetry_space_group_name_H-M 'F d d d'
_symmetry_Int_Tables_number 70
loop_
_symmetry_equiv_pos_site_id
_symmetry_equiv_pos_as_xyz
1 x,y,z
2 3/4-x,3/4-y,z
3 3/4-x,y,3/4-z
4 x,3/4-y,3/4-z
5 x,1/2+y,1/2+z
6 3/4-x,1/4-y,1/2+z
7 3/4-x,1/2+y,1/4-z
8 x,1/4-y,1/4-z
9 1/2+x,y,1/2+z
10 1/4-x,3/4-y,1/2+z
11 1/4-x,y,1/4-z
12 1/2+x,3/4-y,1/4-z
13 1/2+x,1/2+y,z
14 1/4-x,1/4-y,z
15 1/4-x,1/2+y,3/4-z
16 1/2+x,1/4-y,3/4-z
17 -x,-y,-z
18 -3/4+x,-3/4+y,-z
19 -3/4+x,-y,-3/4+z
20 -x,-3/4+y,-3/4+z
21 -x,-1/2-y,-1/2-z
22 -3/4+x,-1/4+y,-1/2-z
23 -3/4+x,-1/2-y,-1/4+z
24 -x,-1/4+y,-1/4+z
25 -1/2-x,-y,-1/2-z
26 -1/4+x,-3/4+y,-1/2-z
27 -1/4+x,-y,-1/4+z
28 -1/2-x,-3/4+y,-1/4+z
29 -1/2-x,-1/2-y,-z
30 -1/4+x,-1/4+y,-z
31 -1/4+x,-1/2-y,-3/4+z
32 -1/2-x,-1/4+y,-3/4+z
_cell_length_a 23.760(5)
_cell_length_b 39.331(8)
_cell_length_c 40.610(9)
_cell_angle_alpha 90
_cell_angle_beta 90
_cell_angle_gamma 90
_cell_formula_units_Z 32
loop_
_atom_type_symbol
_atom_type_radius_bond
C 0.68
H 0.23
In 1.42
N 0.68
O 0.68
loop_
_atom_site_label
_atom_site_type_symbol
_atom_site_fract_x
_atom_site_fract_y
_atom_site_fract_z
In1 In 0.12500 0.497220(13) 0.12500
In2 In 0.87500 0.37500 0.136647(14)
O1 O 0.1366(2) 0.45797(11) 0.08330(12)
O2 O 0.05454(19) 0.46945(10) 0.10110(11)
O3 O -0.1347(3) 0.28550(13) -0.08208(14)
O4 O -0.0528(2) 0.27690(13) -0.10404(13)
C1 C 0.0844(3) 0.45391(16) 0.08222(18)
C2 C 0.0612(3) 0.43006(16) 0.05701(18)
C3 C 0.0934(3) 0.4173(2) 0.0311(2)
H1 H 0.13050 0.42430 0.02870
C4 C 0.0711(4) 0.39474(19) 0.0093(2)
H2 H 0.09410 0.38580 -0.00710
C5 C 0.0144(4) 0.38435(17) 0.01068(18)
C6 C -0.0151(3) 0.39653(18) 0.0360(2)
H3 H -0.05230 0.38950 0.03830
C7 C 0.0071(3) 0.42010(17) 0.06004(17)
H4 H -0.01530 0.42820 0.07710
C8 C -0.0101(4) 0.35985(17) -0.01177(18)
C9 C -0.0634(4) 0.3505(2) -0.0117(2)
H5 H -0.08660 0.36020 0.00420
C10 C -0.0872(4) 0.3284(2) -0.0326(2)
H6 H -0.12480 0.32250 -0.03000
C11 C -0.0571(4) 0.31483(16) -0.05718(19)
C12 C -0.0025(5) 0.3211(2) -0.0564(2)
H7 H 0.02060 0.30980 -0.07130
C13 C 0.0212(4) 0.3432(3) -0.0350(2)
H8 H 0.05970 0.34720 -0.03620
C14 C -0.0817(4) 0.29096(17) -0.0829(2)
O5 O 0.7953(2) 0.39897(11) 0.11434(11)
O6 O 0.8786(2) 0.41492(12) 0.09661(13)
O7 O 0.6885(2) 0.59369(11) -0.08835(12)
O8 O 0.6042(2) 0.58543(14) -0.06986(15)
C15 C 0.8266(4) 0.41697(16) 0.09579(18)
C16 C 0.7975(4) 0.44099(17) 0.07183(17)
C17 C 0.7410(3) 0.44095(18) 0.06614(19)
H9 H 0.71830 0.42600 0.07790
C18 C 0.7168(3) 0.4622(2) 0.0438(2)
H10 H 0.67820 0.46140 0.04010
C19 C 0.7502(4) 0.48515(17) 0.02628(18)
C20 C 0.8083(3) 0.4848(2) 0.0311(2)
H11 H 0.83150 0.49890 0.01870
C21 C 0.8306(3) 0.4639(2) 0.0538(2)
H12 H 0.86910 0.46470 0.05770
C22 C 0.7251(4) 0.50957(19) 0.0016(2)
C23 C 0.6686(4) 0.5195(2) 0.0042(2)
H13 H 0.64610 0.51200 0.02160
C24 C 0.6471(4) 0.5413(2) -0.0205(2)
H14 H 0.60900 0.54680 -0.02010
C25 C 0.6807(4) 0.55490(17) -0.04554(18)
C26 C 0.7339(4) 0.54414(18) -0.04654(18)
H15 H 0.75660 0.55240 -0.06340
C27 C 0.7578(3) 0.52174(18) -0.02467(19)
H16 H 0.79490 0.51480 -0.02720
C28 C 0.6535(5) 0.57928(18) -0.06855(19)
N1 N 0.7067(8) 0.3943(4) 0.1651(5)
C29 C 0.6857(7) 0.3663(4) 0.1441(4)
C30 C 0.7277(13) 0.3947(8) 0.1995(5)
N2 N 0.9299(7) 0.4932(4) 0.1219(5)
C31 C 0.9566(11) 0.5175(6) 0.0988(6)
C32 C 0.8863(19) 0.5152(14) 0.1369(14)
O9 O 0.12500 0.62500 0.12500
O10 O 1.00000 0.50000 0.00000
In1W In -0.12500 0.247220(13) -0.12500
In1U In 0.37500 0.247220(13) 0.37500
In2Z In 0.62500 0.62500 -0.113353(14)
In2V In 1.12500 0.12500 -0.113353(14)
O1J O 0.1134(2) 0.45797(11) 0.16670(12)
O2J O 0.19546(19) 0.46945(10) 0.14890(11)
O3J O 0.3847(3) 0.28550(13) 0.33208(14)
O3Q O 0.1153(3) 0.53550(13) 0.08208(14)
O3S O 0.1347(3) 0.53550(13) 0.16792(14)
O4J O 0.3028(2) 0.27690(13) 0.35404(13)
O4Q O 0.1972(2) 0.52690(13) 0.10404(13)
O4S O 0.0528(2) 0.52690(13) 0.14596(13)
C1J C 0.1656(3) 0.45391(16) 0.16778(18)
C2J C 0.1888(3) 0.43006(16) 0.19299(18)
C3J C 0.1566(3) 0.4173(2) 0.2189(2)
H1J H 0.11950 0.42430 0.22130
C4J C 0.1789(4) 0.39474(19) 0.2407(2)
H2J H 0.15590 0.38580 0.25710
C5J C 0.2356(4) 0.38435(17) 0.23932(18)
C6J C 0.2651(3) 0.39653(18) 0.2140(2)
H3J H 0.30230 0.38950 0.21170
C7J C 0.2429(3) 0.42010(17) 0.18996(17)
H4J H 0.26530 0.42820 0.17290
C8J C 0.2601(4) 0.35985(17) 0.26177(18)
C9J C 0.3134(4) 0.3505(2) 0.2617(2)
H5J H 0.33660 0.36020 0.24580
C10J C 0.3372(4) 0.3284(2) 0.2826(2)
H6J H 0.37480 0.32250 0.28000
C11J C 0.3071(4) 0.31483(16) 0.30718(19)
C12J C 0.2525(5) 0.3211(2) 0.3064(2)
H7J H 0.22940 0.30980 0.32130
C13J C 0.2288(4) 0.3432(3) 0.2850(2)
H8J H 0.19030 0.34720 0.28620
C14J C 0.3317(4) 0.29096(17) 0.3329(2)
O5A O 0.9547(2) 0.35103(11) 0.11434(11)
O6A O 0.8714(2) 0.33508(12) 0.09661(13)
O7A O 1.0615(2) 0.15631(11) -0.08835(12)
O7R O 0.9385(2) 0.40631(11) 0.16165(12)
O7EA O 0.8115(2) 0.34369(11) 0.16165(12)
O8A O 1.1458(2) 0.16457(14) -0.06986(15)
O8R O 0.8542(2) 0.41457(14) 0.18014(15)
O8EA O 0.8958(2) 0.33543(14) 0.18014(15)
C15A C 0.9234(4) 0.33303(16) 0.09579(18)
C16A C 0.9525(4) 0.30901(17) 0.07183(17)
C17A C 1.0090(3) 0.30905(18) 0.06614(19)
H9A H 1.03170 0.32400 0.07790
C18A C 1.0332(3) 0.2878(2) 0.0438(2)
H10A H 1.07180 0.28860 0.04010
C19A C 0.9998(4) 0.26485(17) 0.02628(18)
C20A C 0.9417(3) 0.2652(2) 0.0311(2)
H11A H 0.91850 0.25110 0.01870
C21A C 0.9194(3) 0.2861(2) 0.0538(2)
H12A H 0.88090 0.28530 0.05770
C22A C 1.0249(4) 0.24043(19) 0.0016(2)
C23A C 1.0814(4) 0.2305(2) 0.0042(2)
H13A H 1.10390 0.23800 0.02160
C24A C 1.1029(4) 0.2087(2) -0.0205(2)
H14A H 1.14100 0.20320 -0.02010
C25A C 1.0693(4) 0.19510(17) -0.04554(18)
C26A C 1.0161(4) 0.20586(18) -0.04654(18)
H15A H 0.99340 0.19760 -0.06340
C27A C 0.9922(3) 0.22826(18) -0.02467(19)
H16A H 0.95510 0.23520 -0.02720
C28A C 1.0965(5) 0.17072(18) -0.06855(19)
#END
