
#######################################################################
#
#                 Cambridge Crystallographic Data Centre
#                                CCDC
#
#######################################################################
#
# If this CIF has been generated from an entry in the Cambridge
# Structural Database, then it will include bibliographic, chemical,
# crystal, experimental, refinement or atomic coordinate data resulting
# from the CCDC's data processing and validation procedures.
#
#######################################################################

data_CSD_CIF_GALJAG
_audit_creation_date 2012-03-13
_audit_creation_method CSD-ConQuest-V1
_database_code_CSD GALJAG
_database_code_depnum_ccdc_archive 'CCDC 804064'
_chemical_formula_sum 'C32 H28 In1 N1 O8'
_chemical_formula_moiety
;
(C28 H16 In1 O8 1-)n,n(C4 H12 N1 1+)
;
_journal_coden_Cambridge 1350
_journal_volume 14
_journal_year 2012
_journal_page_first 1819
_journal_name_full 'CrystEngComm '
loop_
_publ_author_name
"Ja-Min Gu"
"Sung-Jin Kim"
"Youngmee Kim"
"Seong Huh"
_chemical_name_systematic
;
catena-(diethylammonium bis(\m~2~-biphenyl-4,4'-dicarboxylato)-indium(iii))
;
_cell_volume   4787.738
_exptl_crystal_colour 'colorless'
_exptl_crystal_description 'octagon'
_diffrn_ambient_temperature 293
#These two values have been output from a single CSD field.
_refine_ls_R_factor_gt 0.0754
_refine_ls_wR_factor_gt 0.0754
_symmetry_cell_setting orthorhombic
_symmetry_space_group_name_H-M 'P n n a'
_symmetry_Int_Tables_number 52
loop_
_symmetry_equiv_pos_site_id
_symmetry_equiv_pos_as_xyz
1 x,y,z
2 1/2-x,-y,z
3 1/2-x,1/2+y,1/2-z
4 x,1/2-y,1/2-z
5 -x,-y,-z
6 -1/2+x,y,-z
7 -1/2+x,-1/2-y,-1/2+z
8 -x,-1/2+y,-1/2+z
_cell_length_a 12.251(3)
_cell_length_b 18.631(4)
_cell_length_c 20.976(4)
_cell_angle_alpha 90
_cell_angle_beta 90
_cell_angle_gamma 90
_cell_formula_units_Z 4
loop_
_atom_type_symbol
_atom_type_radius_bond
C 0.68
H 0.23
In 1.42
N 0.68
O 0.68
loop_
_atom_site_label
_atom_site_type_symbol
_atom_site_fract_x
_atom_site_fract_y
_atom_site_fract_z
In1 In 0.75000 0.00000 0.37340(2)
O1 O 0.8872(3) 0.04705(19) 0.4326(2)
O2 O 0.7225(4) 0.0814(2) 0.4559(2)
O3 O 1.1060(4) 0.4578(2) 0.8144(2)
O4 O 1.2665(4) 0.4200(3) 0.7888(3)
C1 C 0.8239(5) 0.0845(3) 0.4656(3)
C2 C 0.8711(4) 0.1323(3) 0.5151(3)
C3 C 0.9775(5) 0.1255(3) 0.5403(3)
H1 H 1.01970 0.08710 0.52650
C4 C 1.0228(5) 0.1716(3) 0.5839(3)
H2 H 1.09250 0.16370 0.60000
C5 C 0.9657(5) 0.2265(3) 0.6020(3)
C6 C 0.8593(6) 0.2336(3) 0.5764(4)
H3 H 0.81830 0.27310 0.58900
C7 C 0.8121(5) 0.1865(3) 0.5344(4)
H4 H 0.74090 0.19290 0.52020
C8 C 1.0161(5) 0.2767(3) 0.6476(3)
C9 C 1.1298(6) 0.2857(4) 0.6476(4)
H5 H 1.17260 0.26110 0.61820
C10 C 1.1775(7) 0.3310(4) 0.6911(4)
H6 H 1.25320 0.33510 0.69260
C11 C 1.1146(6) 0.3703(3) 0.7326(3)
C12 C 1.0034(6) 0.3630(3) 0.7325(4)
H7 H 0.96140 0.38950 0.76090
C13 C 0.9530(6) 0.3164(3) 0.6902(4)
H8 H 0.87740 0.31160 0.69020
C14 C 1.1652(6) 0.4193(3) 0.7808(3)
N1 N 0.1099(12) 0.1384(10) 0.3137(8)
C15 C 0.2071(15) 0.1630(15) 0.2779(11)
C16 C 0.178(2) 0.2095(12) 0.2235(10)
C17 C 0.0372(17) 0.1808(16) 0.3557(12)
C18 C -0.0714(16) 0.2093(12) 0.3382(10)
In1F In 0.25000 -0.50000 0.87340(2)
In1F* In 1.25000 0.50000 0.87340(2)
O1A O 0.6128(3) -0.04705(19) 0.4326(2)
O2A O 0.7775(4) -0.0814(2) 0.4559(2)
O3A O 0.3940(4) -0.4578(2) 0.8144(2)
O3F O 0.6060(4) 0.0422(2) 0.3144(2)
O3G O 0.8940(4) -0.0422(2) 0.3144(2)
O4A O 0.2335(4) -0.4200(3) 0.7888(3)
O4F O 0.7665(4) 0.0800(3) 0.2888(3)
O4G O 0.7335(4) -0.0800(3) 0.2888(3)
C1A C 0.6761(5) -0.0845(3) 0.4656(3)
C2A C 0.6289(4) -0.1323(3) 0.5151(3)
C3A C 0.5225(5) -0.1255(3) 0.5403(3)
H1A H 0.48030 -0.08710 0.52650
C4A C 0.4772(5) -0.1716(3) 0.5839(3)
H2A H 0.40750 -0.16370 0.60000
C5A C 0.5343(5) -0.2265(3) 0.6020(3)
C6A C 0.6407(6) -0.2336(3) 0.5764(4)
H3A H 0.68170 -0.27310 0.58900
C7A C 0.6879(5) -0.1865(3) 0.5344(4)
H4A H 0.75910 -0.19290 0.52020
C8A C 0.4839(5) -0.2767(3) 0.6476(3)
C9A C 0.3702(6) -0.2857(4) 0.6476(4)
H5A H 0.32740 -0.26110 0.61820
C10A C 0.3225(7) -0.3310(4) 0.6911(4)
H6A H 0.24680 -0.33510 0.69260
C11A C 0.3854(6) -0.3703(3) 0.7326(3)
C12A C 0.4966(6) -0.3630(3) 0.7325(4)
H7A H 0.53860 -0.38950 0.76090
C13A C 0.5470(6) -0.3164(3) 0.6902(4)
H8A H 0.62260 -0.31160 0.69020
C14A C 0.3348(6) -0.4193(3) 0.7808(3)
#END
