
#######################################################################
#
#                 Cambridge Crystallographic Data Centre
#                                CCDC
#
#######################################################################
#
# If this CIF has been generated from an entry in the Cambridge
# Structural Database, then it will include bibliographic, chemical,
# crystal, experimental, refinement or atomic coordinate data resulting
# from the CCDC's data processing and validation procedures.
#
#######################################################################

data_CSD_CIF_GANBED06
_audit_creation_date 2017-11-23
_audit_creation_method CSD-ConQuest-V1
_database_code_CSD GANBED06
_database_code_depnum_ccdc_archive 'CCDC 1587348'
_chemical_formula_sum 'C72 H112 N40 Ni4'
_chemical_formula_moiety
;
(C24 N36 Ni4 4-)n,4(C12 H28 N1 1+)
;
_journal_coden_Cambridge 1695
_journal_volume 4
_journal_year 2016
_journal_page_first 4889
_journal_name_full 'J.Mater.Chem.C '
loop_
_publ_author_name
"J.M.Bermudez-Garcia"
"M.Sanchez-Andujar"
"S.Yanez-Vilar"
"S.Castro-Garcia"
"R.Artiaga"
"J.Lopez-Beceiro"
"L.Botana"
"A.Alegriade"
"M.A.Senaris-Rodriguez"
_chemical_name_systematic
;
catena-[tetrakis(tetrapropylammonium) 
dodecakis(\m-dicyanoazanide)-tetra-nickel]
;
_cell_volume   8917.808
_exptl_crystal_colour 'blue'
_exptl_crystal_density_diffrn 1.32
_exptl_special_details
;
orthorhombic Pnna polymorph 1a

;
_exptl_crystal_description 'prism'
_diffrn_ambient_temperature 300
_refine_special_details
;
C37,C37B,C41,C41B,C43,C43B,C45,C54B disordered by symmetry over two 
configurations with occupancy 0.50; C44 and C44A disordered over two sites 
with occupancies 0.55:0.45; N26 disordered by symmetry over two 
configurations with occupancy 0.50; N27 and N27B disordered over two sites 
with occupancies 0.50:0.50.
;
#These two values have been output from a single CSD field.
_refine_ls_R_factor_gt 0.0671
_refine_ls_wR_factor_gt 0.0671
_symmetry_cell_setting orthorhombic
_symmetry_space_group_name_H-M 'P n n a'
_symmetry_Int_Tables_number 52
loop_
_symmetry_equiv_pos_site_id
_symmetry_equiv_pos_as_xyz
1 x,y,z
2 1/2-x,-y,z
3 1/2-x,1/2+y,1/2-z
4 x,1/2-y,1/2-z
5 -x,-y,-z
6 -1/2+x,y,-z
7 -1/2+x,-1/2-y,-1/2+z
8 -x,-1/2+y,-1/2+z
_cell_length_a 17.1299(5)
_cell_length_b 22.9364(6)
_cell_length_c 22.6975(6)
_cell_angle_alpha 90
_cell_angle_beta 90
_cell_angle_gamma 90
_cell_formula_units_Z 4
loop_
_atom_type_symbol
_atom_type_radius_bond
C 0.68
H 0.23
N 0.68
Ni 1.24
loop_
_atom_site_label
_atom_site_type_symbol
_atom_site_fract_x
_atom_site_fract_y
_atom_site_fract_z
Ni1 Ni 1.02084(4) 0.25574(3) 0.99330(3)
N1 N 1.0345(3) 0.2842(2) 0.9068(2)
N2 N 1.1413(3) 0.2599(2) 1.0073(2)
N3 N 1.0336(3) 0.1691(2) 0.9664(2)
N4 N 1.0050(3) 0.2278(2) 1.0797(2)
N5 N 1.0094(3) 0.3416(2) 1.0225(2)
N6 N 0.9004(3) 0.2519(2) 0.9803(2)
C1 C 1.0363(3) 0.3043(2) 0.8607(2)
C2 C 1.0360(4) 0.1217(3) 0.9505(2)
N7 N 1.0421(4) 0.3222(2) 0.8064(2)
N8 N 1.0430(4) 0.0669(2) 0.9385(2)
C3 C 1.0233(3) 0.3747(2) 0.7906(2)
C4 C 1.0253(4) 0.0454(2) 0.8873(3)
N9 N 1.0091(3) 0.4193(2) 0.7709(2)
N10 N 1.0118(3) 0.0225(2) 0.8442(2)
Ni2 Ni 1.00265(3) 0.50585(3) 0.74328(3)
N11 N 0.8801(3) -0.0016(2) 0.7611(2)
N12 N 0.9941(3) -0.0328(2) 0.6688(2)
N13 N 1.0031(3) -0.0920(2) 0.7853(2)
N14 N 1.1221(3) -0.0101(3) 0.7485(2)
C5 C 0.8185(5) 0.0004(7) 0.7559(4)
C6 C 0.9931(4) -0.0495(2) 0.6217(3)
C7 C 1.0114(3) -0.1376(2) 0.8051(2)
N15 N 0.7479(8) -0.0409(7) 0.7471(9)
N16 N 0.9905(5) -0.0620(2) 0.5667(3)
N17 N 1.0222(3) -0.1909(2) 0.8218(2)
C8 C 0.9915(4) -0.1144(3) 0.5456(2)
C9 C 1.0070(3) -0.2077(2) 0.8751(3)
C10 C 0.3173(5) 0.0054(4) 0.7308(4)
N18 N 0.25000 0.00000 0.7026(6)
C11 C 0.2975(4) -0.2418(4) 0.4779(3)
N19 N 0.2303(11) -0.2189(10) 0.4499(8)
C12 C 0.1626(4) -0.2465(4) 0.4707(4)
C13 C 0.3129(7) 0.8811(5) 0.8414(5)
H1 H 0.28740 0.91300 0.86090
H2 H 0.34810 0.89610 0.81210
H3 H 0.34160 0.85860 0.86970
N20 N 0.2371(4) 0.75000 0.75000
C14 C 0.1835(4) 0.7200(3) 0.7939(3)
H4 H 0.15070 0.74960 0.81180
H5 H 0.14950 0.69390 0.77220
C15 C 0.2897(4) 0.7928(4) 0.7798(3)
H6 H 0.32450 0.80900 0.75030
H7 H 0.32180 0.77160 0.80780
C16 C 0.2211(5) 0.6857(4) 0.8425(4)
H8 H 0.25620 0.65690 0.82590
H9 H 0.25150 0.71160 0.86730
C17 C 0.2519(6) 0.8426(4) 0.8118(4)
H10 H 0.21640 0.82740 0.84140
H11 H 0.22170 0.86570 0.78420
C18 C 0.1598(6) 0.6559(5) 0.8787(5)
H12 H 0.18430 0.63460 0.91010
H13 H 0.13080 0.62960 0.85430
H14 H 0.12510 0.68460 0.89500
C19 C 0.7811(13) 0.4654(9) 0.4763(9)
C20 C 0.8137(12) 0.432(1) 0.4534(9)
C21 C 0.8309(13) 0.5862(8) 0.5651(8)
C22 C 0.7763(11) 0.5370(7) 0.5807(8)
N21 N 0.75000 0.50000 0.5273(3)
C23 C 0.8443(5) 0.6255(4) 0.6145(4)
C24 C 0.8869(6) 0.3996(4) 0.4386(4)
C25 C 0.7896(12) 0.4214(10) 0.9005(9)
C26 C 0.8044(8) 0.4673(5) 0.9375(5)
N22 N 0.75000 0.50000 0.9772(3)
C27 C 0.6554(7) 0.4752(5) 1.0560(5)
H15 H 0.61320 0.49670 1.03760
H16 H 0.68300 0.50200 1.08170
C28 C 0.7064(6) 0.4568(4) 1.0123(4)
H17 H 0.67660 0.43300 0.98500
H18 H 0.74440 0.43130 1.03080
C29 C 0.6210(6) 0.4278(4) 1.0928(4)
H19 H 0.58670 0.44450 1.12170
H20 H 0.66210 0.40690 1.11240
H21 H 0.59220 0.40150 1.06810
C30 C 0.8707(7) 0.3928(5) 0.8815(5)
C31 C 0.2858(5) 0.7023(4) 0.2266(4)
H22 H 0.30980 0.68370 0.26050
H23 H 0.25120 0.67370 0.20910
N23 N 0.2354(4) 0.75000 0.25000
C32 C 0.1841(5) 0.7730(4) 0.2016(4)
H24 H 0.21860 0.78680 0.17070
H25 H 0.15610 0.73980 0.18560
C33 C 0.3909(5) 0.6613(4) 0.1655(4)
H26 H 0.43000 0.67340 0.13780
H27 H 0.35630 0.63400 0.14700
H28 H 0.41560 0.64320 0.19880
C34 C 0.3464(5) 0.7123(4) 0.1853(5)
H29 H 0.38270 0.73990 0.20250
H30 H 0.32360 0.73070 0.15090
C35 C 0.0849(5) 0.8363(3) 0.1575(3)
H31 H 0.04900 0.86650 0.16840
H32 H 0.05660 0.80390 0.14130
H33 H 0.12080 0.85090 0.12860
C36 C 0.1292(6) 0.8166(5) 0.2108(5)
H34 H 0.15560 0.85020 0.22750
H35 H 0.09190 0.80300 0.23980
N24? N 1.2672(10) 0.2337(11) 1.0498(10)
C37? C 0.8409(16) 0.4324(14) 0.9286(17)
C38? C 0.8260(12) 0.4685(7) 0.5056(7)
C39? C 0.7799(11) 0.5911(8) 0.5911(8)
C40? C 0.8079(10) 0.5449(8) 0.5481(8)
C41? C 0.8508(12) 0.4266(8) 0.4954(8)
Ni2C Ni 1.00265(3) -0.00585(3) 0.75672(3)
N9C N 1.0091(3) 0.0807(2) 0.7291(2)
C3C C 1.0233(3) 0.1253(2) 0.7094(2)
N7C N 1.0421(4) 0.1778(2) 0.6936(2)
C5A C 0.6815(5) -0.0004(7) 0.7559(4)
C1C C 1.0363(3) 0.1957(2) 0.6393(2)
N11A N 0.6199(3) 0.0016(2) 0.7611(2)
N1C N 1.0345(3) 0.2158(2) 0.5932(2)
N5G N 0.9906(3) -0.1584(2) 0.5225(2)
N4D N 0.9950(3) -0.2278(2) 0.9203(2)
Ni2B Ni 0.49735(3) 0.00585(3) 0.75672(3)
Ni1C Ni 1.02084(4) 0.24426(3) 0.50670(3)
Ni1G Ni 0.97916(4) -0.24426(3) 0.49330(3)
Ni1D Ni 0.97916(4) -0.25574(3) 1.00670(3)
N9B N 0.4909(3) -0.0807(2) 0.7291(2)
N14A N 0.3779(3) 0.0101(3) 0.7485(2)
N13A N 0.4969(3) 0.0920(2) 0.7853(2)
N10A N 0.4882(3) -0.0225(2) 0.8442(2)
N12A N 0.5059(3) 0.0328(2) 0.6688(2)
C3B C 0.4767(3) -0.1253(2) 0.7094(2)
C7A C 0.4886(3) 0.1376(2) 0.8051(2)
C4A C 0.4747(4) -0.0454(2) 0.8873(3)
C6A C 0.5069(4) 0.0495(2) 0.6217(3)
N7B N 0.4579(4) -0.1778(2) 0.6936(2)
N17A N 0.4778(3) 0.1909(2) 0.8218(2)
N8A N 0.4570(4) -0.0669(2) 0.9385(2)
N16A N 0.5095(5) 0.0620(2) 0.5667(3)
C1B C 0.4637(3) -0.1957(2) 0.6393(2)
C10A C 0.1827(5) -0.0054(4) 0.7308(4)
C9A C 0.4930(3) 0.2077(2) 0.8751(3)
C2A C 0.4640(4) -0.1217(3) 0.9505(2)
C8A C 0.5085(4) 0.1144(3) 0.5456(2)
N1B N 0.4655(3) -0.2158(2) 0.5932(2)
N14* N 0.1221(3) -0.0101(3) 0.7485(2)
N4E N 0.5050(3) 0.2278(2) 0.9203(2)
N3A N 0.4664(3) -0.1691(2) 0.9664(2)
N5F N 0.5094(3) 0.1584(2) 0.5225(2)
Ni1B Ni 0.47916(4) -0.24426(3) 0.50670(3)
Ni2C* Ni 0.00265(3) -0.00585(3) 0.75672(3)
Ni1E Ni 0.52084(4) 0.25574(3) 1.00670(3)
Ni1A Ni 0.47916(4) -0.25574(3) 0.99330(3)
Ni1F Ni 0.52084(4) 0.24426(3) 0.49330(3)
N5B N 0.4906(3) -0.1584(2) 0.4775(2)
N2B N 0.3587(3) -0.2401(2) 0.4927(2)
N6B N 0.5996(3) -0.2481(2) 0.5197(2)
N4B N 0.4950(3) -0.2722(2) 0.4203(2)
N3B N 0.4664(3) -0.3309(2) 0.5336(2)
N6G N 0.0996(3) -0.2481(2) 0.4803(2)
Ni1G* Ni -0.02084(4) -0.24426(3) 0.49330(3)
C13C C 0.3129(7) 0.6189(5) 0.6586(5)
H1C H 0.28740 0.58700 0.63910
H2C H 0.34810 0.60390 0.68790
H3C H 0.34160 0.64140 0.63030
C14C C 0.1835(4) 0.7800(3) 0.7061(3)
H4C H 0.15070 0.75040 0.68820
H5C H 0.14950 0.80610 0.72780
C15C C 0.2897(4) 0.7072(4) 0.7202(3)
H6C H 0.32450 0.69100 0.74970
H7C H 0.32180 0.72840 0.69220
C16C C 0.2211(5) 0.8143(4) 0.6575(4)
H8C H 0.25620 0.84310 0.67410
H9C H 0.25150 0.78840 0.63270
C17C C 0.2519(6) 0.6574(4) 0.6882(4)
H10C H 0.21640 0.67260 0.65860
H11C H 0.22170 0.63430 0.71580
C18C C 0.1598(6) 0.8441(5) 0.6213(5)
H12C H 0.18430 0.86540 0.58990
H13C H 0.13080 0.87040 0.64570
H14C H 0.12510 0.81540 0.60500
C19A C 0.7189(13) 0.5346(9) 0.4763(9)
C20A C 0.6863(12) 0.568(1) 0.4534(9)
C21A C 0.6691(13) 0.4138(8) 0.5651(8)
C22A C 0.7237(11) 0.4630(7) 0.5807(8)
C23A C 0.6557(5) 0.3745(4) 0.6145(4)
C24A C 0.6131(6) 0.6004(4) 0.4386(4)
C25A C 0.7104(12) 0.5786(10) 0.9005(9)
C26A C 0.6956(8) 0.5327(5) 0.9375(5)
C27A C 0.8446(7) 0.5248(5) 1.0560(5)
H15A H 0.88680 0.50330 1.03760
H16A H 0.81700 0.49800 1.08170
C28A C 0.7936(6) 0.5432(4) 1.0123(4)
H17A H 0.82340 0.56700 0.98500
H18A H 0.75560 0.56870 1.03080
C29A C 0.8790(6) 0.5722(4) 1.0928(4)
H19A H 0.91330 0.55550 1.12170
H20A H 0.83790 0.59310 1.11240
H21A H 0.90780 0.59850 1.06810
C30A C 0.6293(7) 0.6072(5) 0.8815(5)
C31C C 0.2858(5) 0.7977(4) 0.2734(4)
H22C H 0.30980 0.81630 0.23950
H23C H 0.25120 0.82630 0.29090
C32C C 0.1841(5) 0.7270(4) 0.2984(4)
H24C H 0.21860 0.71320 0.32930
H25C H 0.15610 0.76020 0.31440
C33C C 0.3909(5) 0.8387(4) 0.3345(4)
H26C H 0.43000 0.82660 0.36220
H27C H 0.35630 0.86600 0.35300
H28C H 0.41560 0.85680 0.30120
C34C C 0.3464(5) 0.7877(4) 0.3147(5)
H29C H 0.38270 0.76010 0.29750
H30C H 0.32360 0.76930 0.34910
C35C C 0.0849(5) 0.6637(3) 0.3425(3)
H31C H 0.04900 0.63350 0.33160
H32C H 0.05660 0.69610 0.35870
H33C H 0.12080 0.64910 0.37140
C36C C 0.1292(6) 0.6834(5) 0.2892(5)
H34C H 0.15560 0.64980 0.27250
H35C H 0.09190 0.69700 0.26020
#END
