
#######################################################################
#
#                 Cambridge Crystallographic Data Centre
#                                CCDC
#
#######################################################################
#
# If this CIF has been generated from an entry in the Cambridge
# Structural Database, then it will include bibliographic, chemical,
# crystal, experimental, refinement or atomic coordinate data resulting
# from the CCDC's data processing and validation procedures.
#
#######################################################################

data_CSD_CIF_GAPDEH
_audit_creation_date 2005-09-05
_audit_creation_method CSD-ConQuest-V1
_database_code_CSD GAPDEH
_database_code_depnum_ccdc_archive 'CCDC 245527'
_chemical_formula_sum 'C19 H12 Cd1 K2 N4 O13'
_chemical_formula_moiety
;
(K1 1+)2n,n(C16 H6 Cd1 N2 O12 2-),n(C3 H4 N2),n(H2 O1)
;
_journal_coden_Cambridge 702
_journal_volume 21
_journal_year 2005
_journal_page_first 705
_journal_name_full 'Wuji Huaxue Xuebao(Chin.)(Chin.J.Inorg.Chem.) '
loop_
_publ_author_name
"Hong-Ji Chen"
_chemical_name_systematic
;
catena-(Dipotassium bis(\m~2~-5-nitro-1,3-benzenedicarboxylato)-cadmium(ii) 
imidazole solvate monohydrate)
;
_cell_volume   2528.188
_exptl_crystal_colour 'yellow'
_exptl_crystal_density_diffrn 1.826
_exptl_crystal_description 'Prismatic'
_diffrn_ambient_temperature 293
_refine_special_details
;
Short C-N bond at N4.

;
#These two values have been output from a single CSD field.
_refine_ls_R_factor_gt 0.0688
_refine_ls_wR_factor_gt 0.0688
_symmetry_cell_setting tetragonal
_symmetry_space_group_name_H-M 'P 41'
_symmetry_Int_Tables_number 76
loop_
_symmetry_equiv_pos_site_id
_symmetry_equiv_pos_as_xyz
1 x,y,z
2 -x,-y,1/2+z
3 -y,x,1/4+z
4 y,-x,3/4+z
_cell_length_a 10.186(1)
_cell_length_b 10.186(1)
_cell_length_c 24.367(5)
_cell_angle_alpha 90
_cell_angle_beta 90
_cell_angle_gamma 90
_cell_formula_units_Z 4
loop_
_atom_type_symbol
_atom_type_radius_bond
C 0.69
H 0.23
Cd 1.56
K 1.33
N 0.47
O 0.68
loop_
_atom_site_label
_atom_site_type_symbol
_atom_site_fract_x
_atom_site_fract_y
_atom_site_fract_z
Cd1 Cd 0.09765(4) -0.23870(4) 0.00090(3)
C1 C 0.0907(7) 0.5088(6) -0.0439(4)
C2 C 0.0856(6) 0.3805(6) -0.0763(4)
C3 C 0.0758(5) 0.3809(6) -0.1329(3)
H1 H 0.07330 0.46220 -0.15280
C4 C 0.0735(6) 0.2635(6) -0.1592(3)
C5 C 0.0811(6) 0.1420(6) -0.1318(4)
H2 H 0.07760 0.06170 -0.15240
C6 C 0.0896(6) 0.1420(6) -0.0765(4)
C7 C 0.0916(7) 0.2631(6) -0.0475(5)
H3 H 0.09350 0.26450 -0.00810
C8 C 0.0996(7) 0.0132(7) -0.0461(4)
C9 C -0.1488(6) -0.2457(6) 0.0496(4)
C10 C -0.2791(5) -0.2515(6) 0.0789(3)
C11 C -0.2834(6) -0.2543(6) 0.1363(4)
H4 H -0.20330 -0.25040 0.15700
C12 C -0.4036(6) -0.2579(7) 0.1630(4)
C13 C -0.5219(6) -0.2555(7) 0.1331(4)
H5 H -0.60480 -0.25540 0.15190
C14 C -0.5190(6) -0.2542(7) 0.0755(3)
C15 C -0.3979(5) -0.2510(5) 0.0490(3)
C16 C -0.6450(7) -0.2469(7) 0.0431(4)
H6 H -0.39570 -0.24570 0.01170
O1 O 0.0985(6) 0.5099(5) 0.0057(4)
O2 O 0.0874(7) 0.6158(5) -0.0716(3)
O3 O 0.1377(6) 0.0124(5) 0.0018(5)
O4 O 0.0660(5) -0.0879(5) -0.0703(3)
O5 O 0.0458(8) 0.3640(7) -0.2444(4)
O6 O 0.0588(9) 0.1570(6) -0.2422(3)
O7 O -0.1472(5) -0.2417(6) 0.0005(4)
O8 O -0.0458(4) -0.2448(6) 0.0783(3)
O9 O -0.6423(5) -0.2569(7) -0.0067(4)
O10 O -0.7494(4) -0.2382(6) 0.0698(2)
O11 O -0.5065(8) -0.3107(15) 0.2443(4)
O12 O -0.3169(9) -0.247(2) 0.2465(4)
N1 N 0.0598(6) 0.2589(7) -0.2191(4)
N2 N -0.4098(5) -0.2638(7) 0.2207(3)
C17 C -0.2454(19) 0.4130(11) 0.166(2)
C18 C -0.378(3) 0.4059(15) 0.2136(10)
C19 C -0.465(3) 0.394(3) 0.1725(17)
N3 N -0.353(5) 0.4180(14) 0.1310(9)
N4 N -0.323(7) 0.441(6) 0.191(3)
H7 H -0.39040 0.43970 0.25080
H8 H -0.39470 0.44730 0.09660
H9 H -0.18940 0.41460 0.11750
H10 H -0.53510 0.44090 0.16310
K1 K -0.4654(8) 0.8207(13) -0.0889(5)
O13 O 0.1623(12) 0.7135(16) -0.1772(5)
H11 H 0.10160 0.76900 -0.16230
H12 H 0.19550 0.80770 -0.16540
K2? K -0.2036(2) 0.88834(17) -0.08959(9)
Cd1* Cd 0.09765(4) 0.76130(4) 0.00090(3)
O1* O 0.0985(6) -0.4901(5) 0.0057(4)
O2* O 0.0874(7) -0.3842(5) -0.0716(3)
Cd1** Cd -0.90235(4) -0.23870(4) 0.00090(3)
O10* O 0.2506(4) -0.2382(6) 0.0698(2)
#END
