
#######################################################################
#
#                 Cambridge Crystallographic Data Centre
#                                CCDC
#
#######################################################################
#
# If this CIF has been generated from an entry in the Cambridge
# Structural Database, then it will include bibliographic, chemical,
# crystal, experimental, refinement or atomic coordinate data resulting
# from the CCDC's data processing and validation procedures.
#
#######################################################################

data_CSD_CIF_GAPLAN
_audit_creation_date 2017-03-13
_audit_creation_method CSD-ConQuest-V1
_database_code_CSD GAPLAN
_database_code_depnum_ccdc_archive 'CCDC 1494363'
_chemical_formula_sum 'C40 H48 Cu2 N4 O56 Si1 W12'
_chemical_formula_moiety
;
(C20 H18 Cu1 N2 O5 2+)2n,6n(H2 O1),n(O40 Si1 W12 4-)
;
_journal_coden_Cambridge 208
_journal_volume 249
_journal_year 2017
_journal_page_first 1
_journal_name_full 'J.Solid State Chem. '
loop_
_publ_author_name
"Yanli Ren"
"Ling Li"
"Bao Mu"
"Changxia Li"
"Rudan Huang"
_chemical_name_systematic
;
catena-(bis((\m-3-carboxylato-1-(4-((3-carbxoylatopyridinium-1-yl)methyl)benzy
l)pyridinium)-aqua-copper(ii)) 
(\m-silicato)-tetracosakis(\m-oxo)-dodecaoxo-dodeca-tungsten hexahydrate)
;
_cell_volume   1817.148
_exptl_crystal_density_diffrn 3.511
_diffrn_ambient_temperature 298
_refine_special_details
;
The oxygen atoms of the slicate moiety are disordered by symmetry.

;
#These two values have been output from a single CSD field.
_refine_ls_R_factor_gt 0.0604
_refine_ls_wR_factor_gt 0.0604
_symmetry_cell_setting triclinic
_symmetry_space_group_name_H-M 'P -1'
_symmetry_Int_Tables_number 2
loop_
_symmetry_equiv_pos_site_id
_symmetry_equiv_pos_as_xyz
1 x,y,z
2 -x,-y,-z
_cell_length_a 11.9840(11)
_cell_length_b 12.9129(12)
_cell_length_c 13.3401(13)
_cell_angle_alpha 77.355(2)
_cell_angle_beta 65.196(1)
_cell_angle_gamma 79.034(2)
_cell_formula_units_Z 1
loop_
_atom_type_symbol
_atom_type_radius_bond
C 0.68
H 0.23
Cu 1.32
N 0.68
O 0.68
Si 1.20
W 1.62
loop_
_atom_site_label
_atom_site_type_symbol
_atom_site_fract_x
_atom_site_fract_y
_atom_site_fract_z
W1 W 0.23733(6) 0.65830(6) 0.46731(6)
W2 W 0.28431(7) 0.37843(7) 0.45831(7)
W3 W 0.54807(9) 0.22155(7) 0.48831(7)
W4 W 0.74229(7) 0.39938(7) 0.26912(7)
W5 W 0.47777(7) 0.55285(6) 0.23502(6)
W6 W 0.69182(7) 0.67556(8) 0.27843(8)
O1 O 0.409(2) 0.525(2) 0.441(2)
O2 O 0.608(2) 0.404(2) 0.464(2)
O3 O 0.571(2) 0.614(2) 0.471(2)
O4 O 0.428(2) 0.484(2) 0.637(2)
O5 O 0.1994(13) 0.5173(12) 0.4816(12)
O6 O 0.3423(13) 0.6474(12) 0.3157(12)
O7 O 0.1878(14) 0.6319(12) 0.6251(12)
O8 O 0.1132(13) 0.7330(13) 0.4510(12)
O9 O 0.4139(15) 0.2671(15) 0.4437(14)
O10 O 0.3809(13) 0.4376(12) 0.3068(12)
O11 O 0.2378(15) 0.3421(14) 0.6151(13)
O12 O 0.1777(13) 0.3264(12) 0.4395(13)
O13 O 0.6584(15) 0.2746(13) 0.3420(13)
O14 O 0.6678(14) 0.2338(12) 0.5419(12)
O15 O 0.4348(15) 0.2266(14) 0.6374(13)
O16 O 0.5748(15) 0.0906(13) 0.4813(13)
O17 O 0.6177(15) 0.4481(14) 0.2136(15)
O18 O 0.7789(14) 0.5412(13) 0.2415(14)
O19 O 0.8583(14) 0.3503(15) 0.1600(13)
O20 O 0.5848(14) 0.6574(13) 0.2092(14)
O21 O 0.4665(16) 0.5793(14) 0.1109(14)
O22 O 0.7859(12) 0.7563(11) 0.1740(12)
Si1 Si 0.50000 0.50000 0.50000
Cu1 Cu -0.02795(19) 0.03906(16) 1.09451(17)
N1 N -0.1100(14) 0.4856(13) 0.8500(13)
N2 N -0.4330(15) 1.0198(14) 0.7714(14)
O23 O -0.0529(11) 0.1773(9) 1.0041(10)
O24 O -0.0063(11) 0.1121(10) 0.8469(10)
O25 O -0.8481(11) 1.0537(10) 1.0358(10)
O26 O -0.8044(12) 0.9879(10) 0.8798(11)
O27 O -0.0999(12) 0.0915(11) 1.2530(11)
H1 H -0.04150 0.07900 1.27570
H2 H -0.15480 0.05140 1.29770
C1 C -0.0370(17) 0.1889(15) 0.9041(16)
C2 C -0.0927(16) 0.3848(15) 0.9047(16)
H3 H -0.10620 0.37310 0.98000
C3 C -0.0540(17) 0.2998(15) 0.8438(15)
C4 C -0.0333(17) 0.3202(15) 0.7315(15)
H4 H -0.01290 0.26380 0.69180
C5 C -0.0426(18) 0.4227(16) 0.6788(17)
H5 H -0.02260 0.43720 0.60220
C6 C -0.0821(16) 0.5035(16) 0.7410(15)
H6 H -0.08950 0.57350 0.70570
C7 C -0.7781(17) 1.0306(16) 0.9417(17)
C8 C -0.5536(17) 1.0024(16) 0.8097(16)
H7 H -0.57660 0.95970 0.77530
C9 C -0.6448(18) 1.0497(16) 0.9024(17)
C10 C -0.6051(18) 1.1183(16) 0.9474(16)
H8 H -0.66130 1.15180 1.00700
C11 C -0.4839(19) 1.1344(17) 0.9024(17)
H9 H -0.45840 1.18030 0.93150
C12 C -0.3987(19) 1.0858(16) 0.8163(17)
H10 H -0.31630 1.09820 0.78800
C13 C -0.1528(19) 0.5748(16) 0.9183(17)
H11 H -0.21660 0.55210 0.99050
H12 H -0.08390 0.58960 0.93120
C14 C -0.3370(18) 0.9546(16) 0.6847(17)
H13 H -0.37430 0.93510 0.64050
H14 H -0.26990 0.99650 0.63490
C15 C -0.2027(16) 0.6752(14) 0.8626(15)
C16 C -0.3186(17) 0.6812(16) 0.8579(16)
H15 H -0.36700 0.62510 0.89380
C17 C -0.3605(18) 0.7710(16) 0.7996(16)
H16 H -0.43780 0.77510 0.79750
C18 C -0.2883(16) 0.8561(15) 0.7435(16)
C19 C -0.1747(18) 0.8491(16) 0.7497(16)
H17 H -0.12560 0.90460 0.71300
C20 C -0.1327(18) 0.7596(16) 0.8105(16)
H18 H -0.05730 0.75700 0.81580
O28 O 0.976(4) 0.945(3) 0.438(3)
H19 H 1.01600 0.88380 0.44120
H20 H 0.99130 0.98170 0.47590
O29 O 0.655(3) 0.244(2) 0.049(2)
H21 H 0.63690 0.29090 0.00080
H22 H 0.73350 0.23440 0.02740
O30 O 0.768(4) 0.920(4) 0.393(3)
H23 H 0.71150 0.96960 0.41800
H24 H 0.82980 0.92580 0.40610
H25? H 0.89860 0.93980 0.46550
H26? H 0.74210 0.85950 0.42390
O1A O 0.591(2) 0.475(2) 0.559(2)
O2A O 0.392(2) 0.596(2) 0.536(2)
O3A O 0.429(2) 0.386(2) 0.529(2)
O4A O 0.572(2) 0.516(2) 0.363(2)
W1A W 0.76267(6) 0.34170(6) 0.53269(6)
W2A W 0.71569(7) 0.62157(7) 0.54169(7)
W3A W 0.45193(9) 0.77845(7) 0.51169(7)
W4A W 0.25771(7) 0.60062(7) 0.73088(7)
W5A W 0.52223(7) 0.44715(6) 0.76498(6)
W6A W 0.30818(7) 0.32444(8) 0.72157(8)
O5A O 0.8006(13) 0.4827(12) 0.5184(12)
O6A O 0.6577(13) 0.3526(12) 0.6843(12)
O7A O 0.8122(14) 0.3681(12) 0.3749(12)
O8A O 0.8868(13) 0.2670(13) 0.5490(12)
O9A O 0.5861(15) 0.7329(15) 0.5563(14)
O10A O 0.6191(13) 0.5624(12) 0.6932(12)
O11A O 0.7622(15) 0.6579(14) 0.3849(13)
O12A O 0.8223(13) 0.6736(12) 0.5605(13)
O13A O 0.3416(15) 0.7254(13) 0.6580(13)
O14A O 0.3322(14) 0.7662(12) 0.4581(12)
O15A O 0.5652(15) 0.7734(14) 0.3626(13)
O16A O 0.4252(15) 0.9094(13) 0.5187(13)
O17A O 0.3823(15) 0.5519(14) 0.7864(15)
O18A O 0.2211(14) 0.4588(13) 0.7585(14)
O19A O 0.1417(14) 0.6497(15) 0.8400(13)
O20A O 0.4152(14) 0.3426(13) 0.7908(14)
O21A O 0.5335(16) 0.4207(14) 0.8891(14)
O22A O 0.2141(12) 0.2437(11) 0.8260(12)
Cu1* Cu -1.02795(19) 1.03906(16) 1.09451(17)
Cu1A Cu -0.97205(19) 0.96094(16) 0.90549(17)
Cu1A* Cu 0.02795(19) -0.03906(16) 0.90549(17)
O24A O 0.0063(11) -0.1121(10) 1.1531(10)
O25* O 0.1519(11) 0.0537(10) 1.0358(10)
O26A O -0.1956(12) 0.0121(10) 1.1202(11)
O28A O 1.024(4) 1.055(3) 0.562(3)
H19A H 0.98400 1.11620 0.55880
H20A H 1.00870 1.01830 0.52410
#END
