
#######################################################################
#
#                 Cambridge Crystallographic Data Centre
#                                CCDC
#
#######################################################################
#
# If this CIF has been generated from an entry in the Cambridge
# Structural Database, then it will include bibliographic, chemical,
# crystal, experimental, refinement or atomic coordinate data resulting
# from the CCDC's data processing and validation procedures.
#
#######################################################################

data_CSD_CIF_GAPLER
_audit_creation_date 2017-03-13
_audit_creation_method CSD-ConQuest-V1
_database_code_CSD GAPLER
_database_code_depnum_ccdc_archive 'CCDC 1494364'
_chemical_formula_sum 'C40 H64 Co2 N4 O64 Si1 W12'
_chemical_formula_moiety
;
(C40 H48 Co2 N4 O16 4+)n,8n(H2 O1),n(O40 Si1 W12 4-)
;
_journal_coden_Cambridge 208
_journal_volume 249
_journal_year 2017
_journal_page_first 1
_journal_name_full 'J.Solid State Chem. '
loop_
_publ_author_name
"Yanli Ren"
"Ling Li"
"Bao Mu"
"Changxia Li"
"Rudan Huang"
_chemical_name_systematic
;
catena-(bis(\m-3-carboxylato-1-(4-((3-carbxoylatopyridinium-1-yl)methyl)benzyl
)pyridinium)-octa-aqua-di-cobalt(ii) 
(\m-silicato)-tetracosakis(\m-oxo)-dodecaoxo-dodeca-tungsten octahydrate)
;
_cell_volume   1899.428
_exptl_crystal_density_diffrn 3.477
_diffrn_ambient_temperature 298
_refine_special_details
;
The oxygen atoms of the slicate moiety are disordered by symmetry.

;
#These two values have been output from a single CSD field.
_refine_ls_R_factor_gt 0.0886
_refine_ls_wR_factor_gt 0.0886
_symmetry_cell_setting triclinic
_symmetry_space_group_name_H-M 'P -1'
_symmetry_Int_Tables_number 2
loop_
_symmetry_equiv_pos_site_id
_symmetry_equiv_pos_as_xyz
1 x,y,z
2 -x,-y,-z
_cell_length_a 11.6180(8)
_cell_length_b 11.6850(9)
_cell_length_c 16.6350(13)
_cell_angle_alpha 103.712(2)
_cell_angle_beta 92.182(1)
_cell_angle_gamma 118.409(3)
_cell_formula_units_Z 1
loop_
_atom_type_symbol
_atom_type_radius_bond
C 0.68
H 0.23
Co 1.26
N 0.68
O 0.68
Si 1.20
W 1.62
loop_
_atom_site_label
_atom_site_type_symbol
_atom_site_fract_x
_atom_site_fract_y
_atom_site_fract_z
W1 W 0.2998(1) 0.42202(11) 0.30853(7)
W2 W 0.36646(10) 0.70632(11) 0.47648(7)
W3 W 0.55911(11) 0.78022(11) 0.66976(7)
W4 W 0.71118(13) 0.83420(11) 0.49261(8)
W5 W 0.64614(13) 0.55522(13) 0.32119(7)
W6 W 0.84453(11) 0.62588(12) 0.51150(8)
O1 O 0.468(4) 0.433(4) 0.399(2)
O2 O 0.376(4) 0.507(4) 0.453(3)
O3 O 0.522(4) 0.649(4) 0.529(3)
O4 O 0.642(4) 0.602(4) 0.464(2)
O5 O 0.324(2) 0.592(2) 0.3651(14)
O6 O 0.469(2) 0.515(2) 0.2835(15)
O7 O 0.320(2) 0.264(2) 0.2929(15)
O8 O 0.1719(19) 0.3465(17) 0.3739(12)
O9 O 0.204(2) 0.381(2) 0.2176(15)
O10 O 0.433(2) 0.777(2) 0.5963(14)
O11 O 0.540(2) 0.810(2) 0.4593(14)
O12 O 0.212(2) 0.554(2) 0.4981(14)
O13 O 0.297(2) 0.799(2) 0.4637(14)
O14 O 0.679(2) 0.863(2) 0.6045(13)
O15 O 0.421(2) 0.635(2) 0.6983(16)
O16 O 0.5841(19) 0.910(2) 0.7495(14)
O17 O 0.678(2) 0.723(2) 0.3814(15)
O18 O 0.840(2) 0.791(2) 0.5216(15)
O19 O 0.810(2) 0.988(2) 0.4887(13)
O20 O 0.788(2) 0.579(2) 0.3956(14)
O21 O 0.715(2) 0.582(2) 0.2364(13)
O22 O 1.0096(19) 0.685(2) 0.5164(13)
Si1 Si 0.50000 0.50000 0.50000
Co1 Co 0.50000 0.50000 0.00000
Co2 Co 0.50000 0.00000 0.00000
N1 N 0.792(3) 0.985(3) 0.2562(17)
N2 N 1.029(2) 0.546(2) 0.2541(16)
O23 O 0.502(2) 0.673(2) 0.0689(12)
O24 O 0.354(2) 0.636(2) 0.1544(14)
O25 O 0.669(2) 0.136(2) 0.0879(14)
O26 O 0.803(2) 0.279(3) 0.0212(14)
O27 O 0.5886(19) 0.602(2) -0.0894(13)
H1 H 0.57510 0.66810 -0.08620
H2 H 0.55760 0.54780 -0.13890
O28 O 0.311(2) 0.417(2) -0.0672(13)
H3 H 0.25930 0.43840 -0.04130
H4 H 0.29990 0.41790 -0.11770
O29 O 0.594(2) 0.083(2) -0.0951(12)
H5 H 0.58590 0.02020 -0.13730
H6 H 0.67570 0.13950 -0.07680
O30 O 0.434(2) 0.143(2) 0.0232(14)
H7 H 0.46530 0.20250 -0.00280
H8 H 0.34990 0.10600 0.01440
C1 C 0.462(3) 0.698(3) 0.1391(19)
C2 C 0.694(3) 0.875(3) 0.195(2)
H9 H 0.71690 0.84060 0.14540
C3 C 0.568(3) 0.816(3) 0.2053(19)
C4 C 0.533(3) 0.867(3) 0.279(2)
H10 H 0.44530 0.82850 0.28830
C5 C 0.644(3) 0.987(3) 0.342(2)
H11 H 0.62900 1.02670 0.39260
C6 C 0.760(3) 1.035(3) 0.325(2)
H12 H 0.82750 1.11150 0.36490
C7 C 0.770(3) 0.248(3) 0.084(2)
C8 C 0.956(3) 0.460(3) 0.1778(19)
H13 H 0.98170 0.48440 0.12930
C9 C 0.842(3) 0.334(3) 0.1715(19)
C10 C 0.805(3) 0.294(3) 0.2437(19)
H14 H 0.72880 0.21310 0.24090
C11 C 0.890(3) 0.385(3) 0.322(2)
H15 H 0.87330 0.36060 0.37150
C12 C 0.998(3) 0.512(3) 0.324(2)
H16 H 1.04830 0.57400 0.37570
C13 C 0.934(3) 1.044(3) 0.242(2)
H17 H 0.98900 1.13190 0.28330
H18 H 0.93810 1.05910 0.18650
C14 C 1.133(3) 0.676(3) 0.261(2)
H19 H 1.18370 0.67060 0.21650
H20 H 1.19160 0.71130 0.31420
C15 C 0.989(3) 0.951(3) 0.247(2)
C16 C 0.998(3) 0.918(3) 0.320(2)
H21 H 0.97460 0.95790 0.36680
C17 C 1.041(3) 0.826(3) 0.325(2)
H22 H 1.04260 0.80070 0.37410
C18 C 1.081(3) 0.774(3) 0.254(2)
C19 C 1.074(3) 0.807(3) 0.180(2)
H23 H 1.10130 0.77180 0.13330
C20 C 1.025(3) 0.890(3) 0.177(2)
H24 H 1.01450 0.90830 0.12680
O31 O 0.146(2) 0.486(2) 0.0247(14)
H25 H 0.20780 0.52200 0.06700
H26 H 0.15130 0.54920 0.00500
O32 O 0.218(3) 0.171(3) 0.159(2)
H27 H 0.26260 0.18610 0.20610
H28 H 0.20180 0.23580 0.16340
O33 O 0.051(3) 0.215(3) 0.0562(17)
H29 H 0.09100 0.24820 0.10690
H30 H 0.06810 0.28150 0.03640
O34 O 0.830(2) 0.948(2) 0.0195(16)
H31 H 0.81650 0.91160 -0.03310
H32 H 0.89610 1.02850 0.03150
O1A O 0.532(4) 0.567(4) 0.601(2)
O2A O 0.624(4) 0.493(4) 0.547(3)
O3A O 0.478(4) 0.351(4) 0.471(3)
O4A O 0.358(4) 0.398(4) 0.536(2)
W1A W 0.7002(1) 0.57798(11) 0.69147(7)
W2A W 0.63354(10) 0.29368(11) 0.52352(7)
W3A W 0.44089(11) 0.21978(11) 0.33024(7)
W4A W 0.28882(13) 0.16580(11) 0.50739(8)
W5A W 0.35386(13) 0.44478(13) 0.67881(7)
W6A W 0.15547(11) 0.37412(12) 0.48850(8)
O5A O 0.676(2) 0.408(2) 0.6349(14)
O6A O 0.531(2) 0.485(2) 0.7165(15)
O7A O 0.680(2) 0.736(2) 0.7071(15)
O8A O 0.8281(19) 0.6535(17) 0.6261(12)
O9A O 0.796(2) 0.619(2) 0.7824(15)
O10A O 0.567(2) 0.223(2) 0.4037(14)
O11A O 0.460(2) 0.190(2) 0.5407(14)
O12A O 0.788(2) 0.446(2) 0.5019(14)
O13A O 0.703(2) 0.201(2) 0.5363(14)
O14A O 0.321(2) 0.137(2) 0.3955(13)
O15A O 0.579(2) 0.365(2) 0.3017(16)
O16A O 0.4159(19) 0.090(2) 0.2505(14)
O17A O 0.322(2) 0.277(2) 0.6186(15)
O18A O 0.160(2) 0.209(2) 0.4784(15)
O19A O 0.190(2) 0.012(2) 0.5113(13)
O20A O 0.212(2) 0.421(2) 0.6044(14)
O21A O 0.285(2) 0.418(2) 0.7636(13)
O22A O -0.0096(19) 0.315(2) 0.4836(13)
N1A N 0.208(3) -0.985(3) -0.2562(17)
N2A N -0.029(2) -0.546(2) -0.2541(16)
O23A O 0.498(2) -0.673(2) -0.0689(12)
O24A O 0.646(2) -0.636(2) -0.1544(14)
O25A O 0.331(2) -0.136(2) -0.0879(14)
O26A O 0.197(2) -0.279(3) -0.0212(14)
O29A O 0.406(2) -0.083(2) 0.0951(12)
H5A H 0.41410 -0.02020 0.13730
H6A H 0.32430 -0.13950 0.07680
O30A O 0.566(2) -0.143(2) -0.0232(14)
H7A H 0.53470 -0.20250 0.00280
H8A H 0.65010 -0.10600 -0.01440
C1A C 0.538(3) -0.698(3) -0.1391(19)
C2A C 0.306(3) -0.875(3) -0.195(2)
H9A H 0.28310 -0.84060 -0.14540
C3A C 0.432(3) -0.816(3) -0.2053(19)
C4A C 0.467(3) -0.867(3) -0.279(2)
H10A H 0.55470 -0.82850 -0.28830
C5A C 0.356(3) -0.987(3) -0.342(2)
H11A H 0.37100 -1.02670 -0.39260
C6A C 0.240(3) -1.035(3) -0.325(2)
H12A H 0.17250 -1.11150 -0.36490
C7A C 0.230(3) -0.248(3) -0.084(2)
C8A C 0.044(3) -0.460(3) -0.1778(19)
H13A H 0.01830 -0.48440 -0.12930
C9A C 0.158(3) -0.334(3) -0.1715(19)
C10A C 0.195(3) -0.294(3) -0.2437(19)
H14A H 0.27120 -0.21310 -0.24090
C11A C 0.110(3) -0.385(3) -0.322(2)
H15A H 0.12670 -0.36060 -0.37150
C12A C 0.002(3) -0.512(3) -0.324(2)
H16A H -0.04830 -0.57400 -0.37570
C13A C 0.066(3) -1.044(3) -0.242(2)
H17A H 0.01100 -1.13190 -0.28330
H18A H 0.06190 -1.05910 -0.18650
C14A C -0.133(3) -0.676(3) -0.261(2)
H19A H -0.18370 -0.67060 -0.21650
H20A H -0.19160 -0.71130 -0.31420
C15A C 0.011(3) -0.951(3) -0.247(2)
C16A C 0.002(3) -0.918(3) -0.320(2)
H21A H 0.02540 -0.95790 -0.36680
C17A C -0.041(3) -0.826(3) -0.325(2)
H22A H -0.04260 -0.80070 -0.37410
C18A C -0.081(3) -0.774(3) -0.254(2)
C19A C -0.074(3) -0.807(3) -0.180(2)
H23A H -0.10130 -0.77180 -0.13330
C20A C -0.025(3) -0.890(3) -0.177(2)
H24A H -0.01450 -0.90830 -0.12680
O27A O 0.4114(19) 0.398(2) 0.0894(13)
H1A H 0.42490 0.33190 0.08620
H2A H 0.44240 0.45220 0.13890
O28A O 0.689(2) 0.583(2) 0.0672(13)
H3A H 0.74070 0.56160 0.04130
H4A H 0.70010 0.58210 0.11770
Co1* Co 0.50000 -0.50000 0.00000
O23A* O 0.498(2) 0.327(2) -0.0689(12)
#END
