
#######################################################################
#
#                 Cambridge Crystallographic Data Centre
#                                CCDC
#
#######################################################################
#
# If this CIF has been generated from an entry in the Cambridge
# Structural Database, then it will include bibliographic, chemical,
# crystal, experimental, refinement or atomic coordinate data resulting
# from the CCDC's data processing and validation procedures.
#
#######################################################################

data_CSD_CIF_GAPNAP
_audit_creation_date 2017-03-13
_audit_creation_method CSD-ConQuest-V1
_database_code_CSD GAPNAP
_database_code_depnum_ccdc_archive 'CCDC 1523101'
_chemical_formula_sum 'C21 H20 Ag1 N3 O8 U1'
_chemical_formula_moiety
;
(C9 H9 O8 U1 1-)n,n(C12 H11 Ag1 N3 1+)
;
_journal_coden_Cambridge 1147
_journal_volume 17
_journal_year 2017
_journal_page_first 2116
_journal_name_full 'Cryst.Growth Des. '
loop_
_publ_author_name
"P.Thuery"
"J.Harrowfield"
_chemical_name_systematic
;
catena-(acetonitrile-(2,2'-bipyridine)-silver 
(\m-cyclohexane-1,3,5-tricarboxylato)-dioxo-uranium)
;
_cell_volume   2289.702
_exptl_crystal_colour 'light yellow'
_exptl_crystal_density_diffrn 2.287
_exptl_crystal_description 'lath'
_diffrn_ambient_temperature 150
_diffrn_special_details
;
twin

;
#These two values have been output from a single CSD field.
_refine_ls_R_factor_gt 0.0592
_refine_ls_wR_factor_gt 0.0592
_symmetry_cell_setting monoclinic
_symmetry_space_group_name_H-M 'P 21/n'
_symmetry_Int_Tables_number 14
loop_
_symmetry_equiv_pos_site_id
_symmetry_equiv_pos_as_xyz
1 x,y,z
2 1/2-x,1/2+y,1/2-z
3 -x,-y,-z
4 -1/2+x,-1/2-y,-1/2+z
_cell_length_a 9.9284(4)
_cell_length_b 15.5092(11)
_cell_length_c 14.8738(10)
_cell_angle_alpha 90
_cell_angle_beta 91.299(4)
_cell_angle_gamma 90
_cell_formula_units_Z 4
loop_
_atom_type_symbol
_atom_type_radius_bond
C 0.68
H 0.23
Ag 1.45
N 0.68
O 0.68
U 1.96
loop_
_atom_site_label
_atom_site_type_symbol
_atom_site_fract_x
_atom_site_fract_y
_atom_site_fract_z
U1 U 0.80329(6) 0.67964(4) 0.08072(4)
O1 O 0.7783(12) 0.7694(8) 0.0067(8)
O2 O 0.8264(11) 0.5918(7) 0.1563(8)
O3 O 0.5564(11) 0.6534(8) 0.0857(8)
O4 O 0.6639(10) 0.5964(8) -0.0257(7)
O5 O -0.0660(11) 0.6026(8) -0.0313(8)
O6 O 0.0497(11) 0.6822(11) 0.0628(9)
O7 O 0.4147(12) 0.7184(9) -0.3121(8)
O8 O 0.1986(11) 0.7411(9) -0.2982(8)
C1 C 0.4268(15) 0.6071(11) -0.0447(11)
H1 H 0.42370 0.54600 -0.06630
C2 C 0.2992(15) 0.6237(11) 0.0091(10)
H2 H 0.29800 0.68440 0.02970
H3 H 0.29920 0.58600 0.06280
C3 C 0.1718(15) 0.6052(11) -0.0508(10)
H4 H 0.16770 0.54230 -0.06560
C4 C 0.1738(16) 0.6580(11) -0.138(1)
H5 H 0.09730 0.64010 -0.17760
H6 H 0.16160 0.71980 -0.12340
C5 C 0.3050(15) 0.6469(11) -0.1885(10)
H7 H 0.31070 0.58560 -0.20900
C6 C 0.4293(16) 0.6663(11) -0.1279(10)
H8 H 0.42820 0.72740 -0.10890
H9 H 0.51270 0.65600 -0.16170
C7 C 0.5559(16) 0.6191(11) 0.0090(11)
C8 C 0.0459(15) 0.6311(11) -0.0043(10)
C9 C 0.3067(16) 0.7037(12) -0.2698(12)
Ag1 Ag 0.91839(15) 0.41032(10) 0.48224(11)
N1 N 0.7549(15) 0.5132(10) 0.4492(10)
N2 N 0.8393(15) 0.4593(10) 0.6139(10)
N3 N 1.0492(16) 0.3403(10) 0.4008(12)
C10 C 0.718(2) 0.5398(13) 0.3661(12)
H10 H 0.76940 0.52010 0.31720
C11 C 0.608(2) 0.5943(12) 0.3464(13)
H11 H 0.58290 0.60980 0.28660
C12 C 0.5385(19) 0.6247(12) 0.4224(13)
H12 H 0.46550 0.66370 0.41420
C13 C 0.5758(17) 0.5978(10) 0.5088(11)
H13 H 0.52680 0.61650 0.55940
C14 C 0.6854(17) 0.5434(11) 0.5195(10)
C15 C 0.7354(16) 0.5146(11) 0.6100(11)
C16 C 0.6822(18) 0.5482(13) 0.6898(13)
H14 H 0.60560 0.58490 0.68700
C17 C 0.742(2) 0.5277(12) 0.7724(12)
H15 H 0.70920 0.55190 0.82640
C18 C 0.852(2) 0.4699(14) 0.7739(13)
H16 H 0.89730 0.45690 0.82920
C19 C 0.8953(19) 0.4313(15) 0.6925(12)
H17 H 0.96170 0.38720 0.69330
C20 C 1.1011(19) 0.3002(13) 0.3472(13)
C21 C 1.172(2) 0.2484(13) 0.2836(14)
H18 H 1.11150 0.20390 0.25920
H19 H 1.24970 0.22110 0.31370
H20 H 1.20290 0.28510 0.23450
U1* U -0.19671(6) 0.67964(4) 0.08072(4)
U1C U 0.30329(6) 0.82036(4) -0.41928(4)
O5* O 0.9340(11) 0.6026(8) -0.0313(8)
O6* O 1.0497(11) 0.6822(11) 0.0628(9)
O7C O 0.9147(12) 0.7816(9) 0.1879(8)
O8C O 0.6986(11) 0.7589(9) 0.2018(8)
#END
