
#######################################################################
#
#                 Cambridge Crystallographic Data Centre
#                                CCDC
#
#######################################################################
#
# If this CIF has been generated from an entry in the Cambridge
# Structural Database, then it will include bibliographic, chemical,
# crystal, experimental, refinement or atomic coordinate data resulting
# from the CCDC's data processing and validation procedures.
#
#######################################################################

data_CSD_CIF_GASPAU
_audit_creation_date 2017-03-15
_audit_creation_method CSD-ConQuest-V1
_database_code_CSD GASPAU
_database_code_depnum_ccdc_archive 'CCDC 1487764'
_chemical_formula_sum 'C35 H35 Ag2 Cl2 F12 N1 O12 P1 Rh1 S4'
_chemical_formula_moiety
;
(C31 H33 F3 N1 O3 P1 Rh1 S1 1+)n,n(C4 H2 Ag2 Cl2 F9 O9 S3 1-)
;
_journal_coden_Cambridge 579
_journal_volume 36
_journal_year 2017
_journal_page_first 1079
_journal_name_full 'Organometallics '
loop_
_publ_author_name
"M.K.Rong"
"Koen van Duin"
"Tom van Dijk"
"J.J.M.de Pater"
"B.-J.Deelman"
"M.Nieger"
"A.W.Ehlers"
"J.Chris Slootweg"
"K.Lammertsma"
_chemical_name_systematic
;
catena-(((N-methylphenylimidoyl)diphenylphosphanyl)-(pentamethylcyclopentadien
yl)-(trifluoromethanesulfonato)-rhodium(iii) 
tris(\m-trifluoromethanesulfonato)-(dichloromethane)-di-silver)
;
_cell_volume   4797.140
_exptl_crystal_colour 'orange'
_exptl_crystal_density_diffrn 1.992
_exptl_crystal_description 'blocks'
_diffrn_ambient_temperature 120
_refine_special_details
;
C1C,Cl2 and C1C',Cl2' disordered over two sites with occupancies 0.556:0.444.

;
#These two values have been output from a single CSD field.
_refine_ls_R_factor_gt 0.0302
_refine_ls_wR_factor_gt 0.0302
_symmetry_cell_setting monoclinic
_symmetry_space_group_name_H-M 'P 21/c'
_symmetry_Int_Tables_number 14
loop_
_symmetry_equiv_pos_site_id
_symmetry_equiv_pos_as_xyz
1 x,y,z
2 -x,1/2+y,1/2-z
3 -x,-y,-z
4 x,-1/2-y,-1/2+z
_cell_length_a 11.7340(2)
_cell_length_b 41.0647(6)
_cell_length_c 9.9590(1)
_cell_angle_alpha 90
_cell_angle_beta 91.496(1)
_cell_angle_gamma 90
_cell_formula_units_Z 4
loop_
_atom_type_symbol
_atom_type_radius_bond
C 0.68
H 0.23
Ag 1.45
Cl 0.99
F 0.64
N 0.68
O 0.68
P 1.05
Rh 1.42
S 1.02
loop_
_atom_site_label
_atom_site_type_symbol
_atom_site_fract_x
_atom_site_fract_y
_atom_site_fract_z
Rh1 Rh 0.73519(2) 0.59897(2) 0.09686(2)
S1 S 0.75897(6) 0.52298(2) -0.02378(7)
O1 O 0.79554(17) 0.54883(5) 0.07011(19)
O2 O 0.82396(18) 0.52204(5) -0.1435(2)
O3 O 0.63817(17) 0.51947(6) -0.0390(2)
C1 C 0.8049(3) 0.48697(7) 0.0697(3)
F1 F 0.91601(16) 0.48662(5) 0.0944(2)
F2 F 0.7784(2) 0.46039(5) -0.0016(3)
F3 F 0.75413(19) 0.48482(6) 0.1865(2)
P1 P 0.78282(5) 0.59300(2) 0.32441(6)
N1 N 0.60532(18) 0.57570(5) 0.2067(2)
C2 C 0.6460(2) 0.57097(6) 0.3272(3)
C3 C 0.4944(2) 0.56360(7) 0.1575(3)
H1 H 0.46390 0.54820 0.22270
H2 H 0.50360 0.55260 0.07120
H3 H 0.44160 0.58190 0.14560
C4 C 0.5932(2) 0.55474(6) 0.4416(3)
C5 C 0.4851(2) 0.56393(6) 0.4831(3)
H4 H 0.44310 0.58000 0.43420
C6 C 0.4391(2) 0.54966(7) 0.5955(3)
H5 H 0.36570 0.55600 0.62390
C7 C 0.5001(3) 0.52605(7) 0.6667(3)
H6 H 0.46830 0.51620 0.74360
C8 C 0.6072(2) 0.51678(7) 0.6260(3)
H7 H 0.64850 0.50050 0.67460
C9 C 0.6545(2) 0.53111(6) 0.5147(3)
H8 H 0.72860 0.52490 0.48790
C10 C 0.9011(2) 0.56990(6) 0.3941(3)
C11 C 0.9734(2) 0.55337(6) 0.3080(3)
H9 H 0.96050 0.55450 0.21350
C12 C 1.0643(2) 0.53538(7) 0.3607(3)
H10 H 1.11320 0.52400 0.30230
C13 C 1.0835(2) 0.53400(7) 0.4981(3)
H11 H 1.14600 0.52170 0.53370
C14 C 1.0127(3) 0.55034(7) 0.5842(3)
H12 H 1.02670 0.54940 0.67850
C15 C 0.9211(2) 0.56813(7) 0.5326(3)
H13 H 0.87190 0.57910 0.59170
C16 C 0.7612(2) 0.62775(6) 0.4318(2)
C17 C 0.6514(2) 0.63919(6) 0.4540(3)
H14 H 0.58740 0.62760 0.41840
C18 C 0.6350(2) 0.66741(7) 0.5277(3)
H15 H 0.56010 0.67490 0.54370
C19 C 0.7284(2) 0.68450(7) 0.5777(3)
H16 H 0.71740 0.70380 0.62820
C20 C 0.8379(3) 0.67364(7) 0.5548(3)
H17 H 0.90150 0.68580 0.58800
C21 C 0.8552(2) 0.64519(7) 0.4836(3)
H18 H 0.93040 0.63750 0.47000
C22 C 0.6436(2) 0.63357(6) -0.0358(3)
C23 C 0.7131(2) 0.65016(6) 0.0647(3)
C24 C 0.8307(2) 0.64198(7) 0.0417(3)
C25 C 0.8324(2) 0.61892(7) -0.0643(3)
C26 C 0.7156(2) 0.61404(6) -0.1141(3)
C27 C 0.5177(2) 0.63653(7) -0.0535(3)
H19 H 0.49960 0.65510 -0.11190
H20 H 0.48360 0.63990 0.03420
H21 H 0.48710 0.61660 -0.09440
C28 C 0.6719(3) 0.67598(7) 0.1570(3)
H22 H 0.66900 0.69690 0.10960
H23 H 0.72400 0.67770 0.23510
H24 H 0.59540 0.67030 0.18680
C29 C 0.9329(3) 0.65604(8) 0.1140(3)
H25 H 0.99410 0.63980 0.11780
H26 H 0.91250 0.66210 0.20550
H27 H 0.95890 0.67540 0.06600
C30 C 0.9348(3) 0.60262(8) -0.1189(3)
H28 H 0.95820 0.61400 -0.20020
H29 H 0.91640 0.57990 -0.14090
H30 H 0.99720 0.60320 -0.05150
C31 C 0.6796(3) 0.59357(7) -0.2316(3)
H31 H 0.60050 0.58650 -0.22130
H32 H 0.72910 0.57440 -0.23630
H33 H 0.68550 0.60630 -0.31430
Ag1 Ag 0.23321(2) 0.70986(2) 0.54559(2)
Ag2 Ag 0.22131(2) 0.78019(2) 0.63980(2)
S2 S 0.31265(6) 0.64831(2) 0.30757(8)
O4 O 0.3193(2) 0.66459(6) 0.4357(2)
O5 O 0.41511(17) 0.63161(5) 0.2727(2)
O6 O 0.2585(2) 0.66610(6) 0.1989(3)
C32 C 0.2109(3) 0.61540(8) 0.3329(3)
F4 F 0.24176(17) 0.59729(5) 0.4373(2)
F5 F 0.10813(15) 0.62705(6) 0.3569(2)
F6 F 0.2022(2) 0.59678(6) 0.2257(2)
S3 S 0.38460(6) 0.73011(2) 0.84550(7)
O7 O 0.37155(18) 0.71114(5) 0.7234(2)
O8 O 0.37091(18) 0.71188(5) 0.9673(2)
O9 O 0.32706(18) 0.76129(5) 0.8414(2)
C33 C 0.5357(3) 0.74080(7) 0.8487(3)
F7 F 0.59996(15) 0.71418(5) 0.8533(2)
F8 F 0.56207(18) 0.75741(6) 0.7409(2)
F9 F 0.56126(19) 0.75848(6) 0.9562(2)
S4 S 0.05174(6) 0.75509(2) 0.36296(7)
O10 O 0.09678(17) 0.78085(5) 0.4474(2)
O11 O 0.07045(18) 0.72242(5) 0.4140(2)
O12 O 0.07281(18) 0.75869(6) 0.2223(2)
C34 C -0.1026(3) 0.76024(8) 0.3752(3)
F10 F -0.13510(15) 0.75618(5) 0.50041(18)
F11 F -0.13285(16) 0.79032(5) 0.3371(2)
F12 F -0.15920(17) 0.73938(6) 0.2972(2)
C35 C 0.2522(5) 0.64373(13) 0.7715(7)
H34 H 0.26920 0.65730 0.85180
H35 H 0.31610 0.64620 0.70930
Cl1 Cl 0.12663(7) 0.65748(2) 0.69279(9)
Cl2 Cl 0.2416(6) 0.60275(11) 0.8201(5)
C36? C 0.2184(7) 0.64843(16) 0.8306(8)
H36? H 0.29380 0.65830 0.81460
H37? H 0.18770 0.65880 0.91190
Cl3? Cl 0.2373(7) 0.60709(15) 0.8622(8)
Ag1C Ag 0.23321(2) 0.79014(2) 1.04559(2)
Ag2C Ag 0.22131(2) 0.71981(2) 0.13980(2)
Ag2C* Ag 0.22131(2) 0.71981(2) 1.13980(2)
O6C O 0.2585(2) 0.83390(6) 0.6989(3)
O8C O 0.37091(18) 0.78812(5) 0.4673(2)
O9C O 0.32706(18) 0.73871(5) 0.3414(2)
O12C O 0.07281(18) 0.74131(6) 0.7223(2)
#END
