
#######################################################################
#
#                 Cambridge Crystallographic Data Centre
#                                CCDC
#
#######################################################################
#
# If this CIF has been generated from an entry in the Cambridge
# Structural Database, then it will include bibliographic, chemical,
# crystal, experimental, refinement or atomic coordinate data resulting
# from the CCDC's data processing and validation procedures.
#
#######################################################################

data_CSD_CIF_GATBUZ
_audit_creation_date 2005-12-08
_audit_creation_method CSD-ConQuest-V1
_database_code_CSD GATBUZ
_database_code_depnum_ccdc_archive 'CCDC 277286'
_chemical_formula_sum 'C52.5 H67.5 N4.5 O18.5 Zn3'
_chemical_formula_moiety
;
(C32 H16 O16 Zn3 2-)n,2n(C4 H12 N1 1+),2.5n(C5 H11 N1 O1)
;
_journal_coden_Cambridge 1350
_journal_volume 7
_journal_year 2005
_journal_page_first 548
_journal_name_full 'CrystEngComm '
loop_
_publ_author_name
"A.D.Burrows"
"K.Cassar"
"R.M.W.Friend"
"M.F.Mahon"
"S.P.Rigby"
"J.E.Warren"
_chemical_name_systematic
;
catena-(diethylammonium 
bis(\m~4~-1,4-benzenedicarboxylato-O,O',O'',O''')-(\m~4~-1,4-benzenedicarboxyl
ato-O,O')-(\m~2~-1,4-benzenecarboxylato)-tri-zinc(ii) diethylformamide 
solvate)
;
_cell_volume   6022.275
_exptl_crystal_colour 'colorless'
_exptl_crystal_density_diffrn 1.383
_exptl_special_details
;
powder data

;
_exptl_crystal_description 'Plate'
_diffrn_ambient_temperature 150
_diffrn_radiation_probe x-ray
_diffrn_source synchrotron
_refine_special_details
;
The formyl group of a solvent molecule has symmetry imposed disorder.

;
#These two values have been output from a single CSD field.
_refine_ls_R_factor_gt 0.051
_refine_ls_wR_factor_gt 0.051
_symmetry_cell_setting monoclinic
_symmetry_space_group_name_H-M 'C 2/c'
_symmetry_Int_Tables_number 15
loop_
_symmetry_equiv_pos_site_id
_symmetry_equiv_pos_as_xyz
1 x,y,z
2 1/2+x,1/2+y,z
3 -x,y,1/2-z
4 1/2-x,1/2+y,1/2-z
5 -x,-y,-z
6 -1/2-x,-1/2-y,-z
7 x,-y,-1/2+z
8 -1/2+x,-1/2-y,-1/2+z
_cell_length_a 33.6075(14)
_cell_length_b 9.8727(4)
_cell_length_c 18.1642(8)
_cell_angle_alpha 90
_cell_angle_beta 92.226(1)
_cell_angle_gamma 90
_cell_formula_units_Z 4
loop_
_atom_type_symbol
_atom_type_radius_bond
C 0.68
H 0.23
N 0.68
O 0.68
Zn 1.40
loop_
_atom_site_label
_atom_site_type_symbol
_atom_site_fract_x
_atom_site_fract_y
_atom_site_fract_z
Zn1 Zn 0.75000 0.25000 0.00000
Zn2 Zn 0.846927(10) 0.19730(4) 0.003436(18)
O1 O 0.78526(7) 0.3748(2) 0.06477(12)
O2 O 0.84512(7) 0.2929(3) 0.09847(13)
O3 O 0.77241(7) 0.6825(2) 0.40509(12)
O4 O 0.83904(7) 0.6777(3) 0.41874(13)
O5 O 0.79769(6) 0.0846(2) 0.00909(12)
O6 O 0.81803(9) -0.0200(3) -0.09053(16)
O7 O 0.90036(8) 0.1465(3) -0.02000(15)
O8 O 0.89959(9) 0.0060(4) 0.0742(2)
O9 O 0.91275(14) -0.1949(4) -0.1278(3)
O10? O 0.9907(7) -0.6230(17) -0.2960(16)
N1 N 0.90375(14) -0.3403(5) -0.0362(3)
N2 N 0.87669(13) 0.0304(5) -0.1931(2)
H1 H 0.85790 0.05970 -0.16130
H2 H 0.89140 -0.03630 -0.16940
N3? N 1.00000 -0.4095(10) -0.25000
C1 C 0.81396(9) 0.3607(3) 0.10988(17)
C2 C 0.81209(9) 0.4320(3) 0.18242(17)
C3 C 0.84422(11) 0.4308(4) 0.23267(19)
H3 H 0.86740 0.38010 0.22220
C4 C 0.77757(11) 0.5018(5) 0.1996(2)
H4 H 0.75520 0.50180 0.16590
C5 C 0.80624(9) 0.6503(3) 0.38563(16)
C6 C 0.80853(10) 0.5734(3) 0.31523(17)
C7 C 0.77590(11) 0.5711(4) 0.2655(2)
H5 H 0.75220 0.61760 0.27710
C8 C 0.84290(11) 0.5030(4) 0.29818(19)
H6 H 0.86540 0.50440 0.33140
C9 C 0.79759(10) -0.0158(3) -0.03530(19)
C10 C 0.77231(10) -0.1359(4) -0.01720(19)
C11 C 0.77017(13) -0.2471(4) -0.0652(2)
H7 H 0.78410 -0.24500 -0.10970
C12 C 0.75213(11) -0.1404(4) 0.04816(19)
H8 H 0.75370 -0.06580 0.08120
C13 C 0.91653(10) 0.0606(4) 0.0238(2)
C14 C 0.95973(10) 0.0283(4) 0.0115(2)
C15 C 0.98096(11) 0.1015(4) -0.0396(2)
H9 H 0.96810 0.17220 -0.06690
C16 C 0.97926(12) -0.0720(4) 0.0510(2)
H10 H 0.96540 -0.12200 0.08650
C17 C 0.89264(19) -0.2431(6) -0.0798(4)
H11 H 0.86680 -0.20630 -0.07420
C18 C 0.94367(19) -0.3940(7) -0.0361(4)
H12 H 0.95500 -0.39620 0.01500
H13 H 0.96060 -0.33410 -0.06540
C19 C 0.9438(3) -0.5311(8) -0.0672(6)
H14 H 0.97120 -0.56520 -0.06730
H15 H 0.93260 -0.52880 -0.11790
H16 H 0.92770 -0.59100 -0.03740
C20 C 0.8761(2) -0.3889(7) 0.0208(4)
H17 H 0.87700 -0.48910 0.02280
H18 H 0.84860 -0.36190 0.00620
C21 C 0.8865(4) -0.3332(9) 0.0960(5)
H19 H 0.86730 -0.36650 0.13100
H20 H 0.88560 -0.23410 0.09440
H21 H 0.91330 -0.36280 0.11170
C22 C 0.90330(18) 0.1444(7) -0.2083(3)
H22 H 0.91050 0.19200 -0.16170
H23 H 0.88930 0.20950 -0.24180
C23 C 0.9406(2) 0.0948(9) -0.2433(4)
H24 H 0.95780 0.17210 -0.25340
H25 H 0.93340 0.04810 -0.28950
H26 H 0.95470 0.03200 -0.20970
C24 C 0.8559(2) -0.0298(7) -0.2582(3)
H27 H 0.87590 -0.05380 -0.29470
H28 H 0.84270 -0.11450 -0.24320
C25 C 0.8264(2) 0.0591(10) -0.2929(4)
H29 H 0.81370 0.01340 -0.33560
H30 H 0.83930 0.14240 -0.30900
H31 H 0.80610 0.08150 -0.25750
C26? C 0.9642(3) -0.3458(15) -0.2702(6)
H32? H 0.96090 -0.26740 -0.23690
H33? H 0.94230 -0.40990 -0.26080
C27? C 0.9588(4) -0.2980(14) -0.3447(7)
H34? H 0.93260 -0.25480 -0.35110
H35? H 0.96040 -0.37450 -0.37880
H36? H 0.97960 -0.23200 -0.35500
C28? C 1.0118(5) -0.542(3) -0.2642(16)
H37? H 1.0361(12) -0.561(3) -0.245(5)
Zn1F Zn 0.75000 0.75000 0.50000
Zn1* Zn 0.75000 -0.75000 0.00000
Zn1F* Zn 0.75000 -0.25000 -0.50000
Zn2E Zn 0.653073(10) 0.30270(4) -0.003436(18)
Zn2F Zn 0.846927(10) 0.80270(4) 0.503436(18)
Zn2E* Zn 0.653073(10) -0.69730(4) -0.003436(18)
Zn2D Zn 1.153073(10) -0.19730(4) -0.003436(18)
Zn2C Zn 0.653073(10) -0.30270(4) -0.503436(18)
O1E O 0.71474(7) 0.1252(2) -0.06477(12)
O2E O 0.65488(7) 0.2071(3) -0.09847(13)
O3E O 0.72759(7) -0.1825(2) -0.40509(12)
O3F O 0.77241(7) 0.3175(2) -0.09491(12)
O3C O 0.72759(7) 0.1825(2) 0.09491(12)
O4E O 0.66096(7) -0.1777(3) -0.41874(13)
O4F O 0.83904(7) 0.3223(3) -0.08126(13)
O4C O 0.66096(7) 0.1777(3) 0.08126(13)
O5E O 0.70231(6) -0.5846(2) -0.00909(12)
O5E* O 0.70231(6) 0.4154(2) -0.00909(12)
O6E O 0.68197(9) -0.4800(3) 0.09053(16)
O7D O 1.09964(8) -0.1465(3) 0.02000(15)
O7E O 0.59964(8) 0.3535(3) 0.02000(15)
O8D O 1.10041(9) -0.0060(4) -0.0742(2)
C1E C 0.68604(9) 0.1393(3) -0.10988(17)
C2E C 0.68791(9) 0.0680(3) -0.18242(17)
C3E C 0.65578(11) 0.0692(4) -0.23267(19)
H3E H 0.63260 0.11990 -0.22220
C4E C 0.72243(11) -0.0018(5) -0.1996(2)
H4E H 0.74480 -0.00180 -0.16590
C5E C 0.69376(9) -0.1503(3) -0.38563(16)
C6E C 0.69147(10) -0.0734(3) -0.31523(17)
C7E C 0.72410(11) -0.0711(4) -0.2655(2)
H5E H 0.74780 -0.11760 -0.27710
C8E C 0.65710(11) -0.0030(4) -0.29818(19)
H6E H 0.63460 -0.00440 -0.33140
C9E C 0.70241(10) -0.4842(3) 0.03530(19)
C10E C 0.72769(10) -0.3641(4) 0.01720(19)
C11E C 0.72983(13) -0.2529(4) 0.0652(2)
H7E H 0.71590 -0.25500 0.10970
C12E C 0.74787(11) -0.3596(4) -0.04816(19)
H8E H 0.74630 -0.43420 -0.08120
C13D C 1.08347(10) -0.0606(4) -0.0238(2)
C14D C 1.04027(10) -0.0283(4) -0.0115(2)
C15D C 1.01904(11) -0.1015(4) 0.0396(2)
H9D H 1.03190 -0.17220 0.06690
C16D C 1.02074(12) 0.0720(4) -0.0510(2)
H10D H 1.03460 0.12200 -0.08650
#END
