
#######################################################################
#
#                 Cambridge Crystallographic Data Centre
#                                CCDC
#
#######################################################################
#
# If this CIF has been generated from an entry in the Cambridge
# Structural Database, then it will include bibliographic, chemical,
# crystal, experimental, refinement or atomic coordinate data resulting
# from the CCDC's data processing and validation procedures.
#
#######################################################################

data_CSD_CIF_GATKUK
_audit_creation_date 2017-03-16
_audit_creation_method CSD-ConQuest-V1
_database_code_CSD GATKUK
_database_code_depnum_ccdc_archive 'CCDC 1474620'
_chemical_formula_sum 'C50 H54 Co3 N4 O19 S3'
_chemical_formula_moiety
;
(C48 H46 Co3 N3 O19 S3 1-)n,C2 H8 N1 1+
;
_journal_coden_Cambridge 1220
_journal_volume 23
_journal_year 2017
_journal_page_first 767
_journal_name_full 'Chem.-Eur.J. '
loop_
_publ_author_name
"Chong-Bin Tian"
"Yun-Hu Han"
"Zhang-Zhen He"
"Shao-Wu Du"
_chemical_name_systematic
;
catena-[dimethylammonium tris(\m-4,4 -sulfon 
yldibenzoato)-(\m-hydroxy)-tris(dimethylamine)-tri-cobalt(ii)]
;
_cell_volume   1532.803
_exptl_crystal_colour 'pink'
_exptl_crystal_density_diffrn 1.395
_exptl_special_details
;
Magnetic properties

;
_exptl_crystal_description 'Prism'
_diffrn_ambient_temperature 293
_refine_special_details
;
C15 disordered by symmetry over three configurations with occupancy 0.67.

;
#These two values have been output from a single CSD field.
_refine_ls_R_factor_gt 0.0572
_refine_ls_wR_factor_gt 0.0572
_symmetry_cell_setting hexagonal
_symmetry_space_group_name_H-M 'P 3'
_symmetry_Int_Tables_number 143
loop_
_symmetry_equiv_pos_site_id
_symmetry_equiv_pos_as_xyz
1 x,y,z
2 -y,x-y,z
3 -x+y,-x,z
_cell_length_a 11.5884(3)
_cell_length_b 11.5884(3)
_cell_length_c 13.1798(6)
_cell_angle_alpha 90
_cell_angle_beta 90
_cell_angle_gamma 120
_cell_formula_units_Z 1
loop_
_atom_type_symbol
_atom_type_radius_bond
C 0.68
H 0.23
Co 1.26
N 0.68
O 0.68
S 1.02
loop_
_atom_site_label
_atom_site_type_symbol
_atom_site_fract_x
_atom_site_fract_y
_atom_site_fract_z
Co1 Co 1.49138(7) 0.33329(8) 1.28936(6)
S1 S 1.10227(14) -0.23082(15) 1.78946(12)
N1 N 1.3029(7) 0.3345(8) 1.2896(10)
H1 H 1.29590 0.32750 1.22160
O1 O 1.4091(6) 0.1873(6) 1.4030(5)
O2 O 1.5223(6) 0.0763(6) 1.4039(5)
O3 O 1.4076(6) 0.1863(6) 2.1755(5)
O4 O 1.5216(6) 0.0767(6) 2.1744(5)
O5 O 1.1006(6) -0.3545(4) 1.7888(3)
O6 O 0.9786(4) -0.2309(6) 1.7895(3)
O7 O 1.66670 0.33330 1.2871(12)
H2 H 1.66670 0.33330 1.35160
C1 C 1.4331(7) 0.1008(7) 1.4354(5)
C2 C 1.4333(7) 0.1003(7) 2.1424(5)
C3 C 1.3483(6) 0.0145(6) 1.5231(5)
C4 C 1.3690(8) -0.0816(8) 1.5628(5)
H3 H 1.43380 -0.09690 1.53490
C5 C 1.2939(8) -0.1578(8) 1.6455(6)
H4 H 1.30970 -0.22230 1.67360
C6 C 1.1977(6) -0.1363(6) 1.6841(4)
C7 C 1.1753(7) -0.0396(8) 1.6441(6)
H5 H 1.10980 -0.02520 1.67190
C8 C 1.2502(9) 0.0366(9) 1.5620(6)
H6 H 1.23460 0.10120 1.53390
C9 C 1.3481(6) 0.0145(7) 2.0562(5)
C10 C 1.2513(9) 0.0362(8) 2.0156(6)
H7 H 1.23690 0.10190 2.04310
C11 C 1.1743(8) -0.0395(8) 1.9334(6)
H8 H 1.10960 -0.02410 1.90520
C12 C 1.1963(6) -0.1366(6) 1.8953(4)
C13 C 1.2940(8) -0.1574(8) 1.9327(6)
H9 H 1.31100 -0.22060 1.90370
C14 C 1.3683(8) -0.0812(8) 2.0158(5)
H10 H 1.43290 -0.09680 2.04380
C15 C 1.3014(17) 0.451(2) 1.318(2)
H11 H 1.21110 0.43340 1.32000
H12 H 1.35100 0.52050 1.26940
H13 H 1.34110 0.47980 1.38380
C16 C 1.183(3) 0.224(3) 1.320(2)
H14 H 1.11270 0.24470 1.31670
H15 H 1.19140 0.20050 1.38860
H16 H 1.16240 0.14990 1.27610
N2 N 0.66670 -0.66670 1.734(4)
C17 C 0.7921(15) -0.6640(19) 1.7834(13)
H17 H 0.78290 -0.66900 1.85590
H18 H 0.87110 -0.58270 1.76500
H19 H 0.79870 -0.73860 1.75920
Co1A Co 1.66671(7) 0.15809(8) 1.28936(6)
S1A S 2.23082(14) 0.33309(15) 1.78946(12)
N1A N 1.6655(7) -0.0316(8) 1.2896(10)
H1A H 1.67250 -0.03160 1.22160
O1A O 1.8127(6) 0.2218(6) 1.4030(5)
O2A O 1.9237(6) 0.4460(6) 1.4039(5)
O3A O 1.8137(6) 0.2213(6) 2.1755(5)
O4A O 1.9233(6) 0.4449(6) 2.1744(5)
O5A O 2.3545(6) 0.4551(4) 1.7888(3)
O6A O 2.2309(4) 0.2095(6) 1.7895(3)
C1A C 1.8992(7) 0.3323(7) 1.4354(5)
C2A C 1.8997(7) 0.3330(7) 2.1424(5)
C3A C 1.9855(6) 0.3338(6) 1.5231(5)
C4A C 2.0816(8) 0.4506(8) 1.5628(5)
H3A H 2.09690 0.53070 1.53490
C5A C 2.1578(8) 0.4517(8) 1.6455(6)
H4A H 2.22230 0.53200 1.67360
C6A C 2.1363(6) 0.3340(6) 1.6841(4)
C7A C 2.0396(7) 0.2149(8) 1.6441(6)
H5A H 2.02520 0.13500 1.67190
C8A C 1.9634(9) 0.2136(9) 1.5620(6)
H6A H 1.89880 0.13340 1.53390
C9A C 1.9855(6) 0.3336(7) 2.0562(5)
C10A C 1.9638(9) 0.2151(8) 2.0156(6)
H7A H 1.89810 0.13500 2.04310
C11A C 2.0395(8) 0.2138(8) 1.9334(6)
H8A H 2.02410 0.13370 1.90520
C12A C 2.1366(6) 0.3329(6) 1.8953(4)
C13A C 2.1574(8) 0.4514(8) 1.9327(6)
H9A H 2.22060 0.53160 1.90370
C14A C 2.0812(8) 0.4495(8) 2.0158(5)
H10A H 2.09680 0.52970 2.04380
C15A C 1.5490(17) -0.1496(20) 1.318(2)
H11A H 1.56660 -0.22230 1.32000
H12A H 1.47950 -0.16950 1.26940
H13A H 1.52020 -0.13870 1.38380
C16A C 1.776(3) -0.041(3) 1.320(2)
H14A H 1.75530 -0.13200 1.31670
H15A H 1.79950 -0.00910 1.38860
H16A H 1.85010 0.01250 1.27610
Co1B Co 1.84191(7) 0.50862(8) 1.28936(6)
S1B S 1.66691(14) 0.89773(15) 1.78946(12)
N1B N 2.0316(7) 0.6971(8) 1.2896(10)
H1B H 2.03160 0.70410 1.22160
O1B O 1.7782(6) 0.5909(6) 1.4030(5)
O2B O 1.5540(6) 0.4777(6) 1.4039(5)
O3B O 1.7787(6) 0.5924(6) 2.1755(5)
O4B O 1.5551(6) 0.4784(6) 2.1744(5)
O5B O 1.5449(6) 0.8994(4) 1.7888(3)
O6B O 1.7905(4) 1.0214(6) 1.7895(3)
C1B C 1.6677(7) 0.5669(7) 1.4354(5)
C2B C 1.6670(7) 0.5667(7) 2.1424(5)
C3B C 1.6662(6) 0.6517(6) 1.5231(5)
C4B C 1.5494(8) 0.6310(8) 1.5628(5)
H3B H 1.46930 0.56620 1.53490
C5B C 1.5483(8) 0.7061(8) 1.6455(6)
H4B H 1.46800 0.69030 1.67360
C6B C 1.6660(6) 0.8023(6) 1.6841(4)
C7B C 1.7851(7) 0.8247(8) 1.6441(6)
H5B H 1.86500 0.89020 1.67190
C8B C 1.7864(9) 0.7498(9) 1.5620(6)
H6B H 1.86660 0.76540 1.53390
C9B C 1.6664(6) 0.6519(7) 2.0562(5)
C10B C 1.7849(9) 0.7487(8) 2.0156(6)
H7B H 1.86500 0.76310 2.04310
C11B C 1.7862(8) 0.8257(8) 1.9334(6)
H8B H 1.86630 0.89040 1.90520
C12B C 1.6671(6) 0.8037(6) 1.8953(4)
C13B C 1.5486(8) 0.7060(8) 1.9327(6)
H9B H 1.46840 0.68900 1.90370
C14B C 1.5505(8) 0.6317(8) 2.0158(5)
H10B H 1.47030 0.56710 2.04380
C15B C 2.1496(17) 0.6986(20) 1.318(2)
H11B H 2.22230 0.78890 1.32000
H12B H 2.16950 0.64900 1.26940
H13B H 2.13870 0.65890 1.38380
C16B C 2.041(3) 0.817(3) 1.320(2)
H14B H 2.13200 0.88730 1.31670
H15B H 2.00910 0.80860 1.38860
H16B H 1.98750 0.83760 1.27610
Co1* Co 1.49138(7) 0.33329(8) 2.28936(6)
Co1A* Co 1.66671(7) 0.15809(8) 2.28936(6)
Co1B* Co 1.84191(7) 0.50862(8) 2.28936(6)
O3* O 1.4076(6) 0.1863(6) 1.1755(5)
O3A* O 1.8137(6) 0.2213(6) 1.1755(5)
O3B* O 1.7787(6) 0.5924(6) 1.1755(5)
O4* O 1.5216(6) 0.0767(6) 1.1744(5)
O4A* O 1.9233(6) 0.4449(6) 1.1744(5)
O4B* O 1.5551(6) 0.4784(6) 1.1744(5)
C17A C 0.6640(15) -0.5439(19) 1.7834(13)
H17A H 0.66900 -0.54810 1.85590
H18A H 0.58270 -0.54620 1.76500
H19A H 0.73860 -0.46270 1.75920
C17B C 0.5439(15) -0.7921(19) 1.7834(13)
H17B H 0.54810 -0.78290 1.85590
H18B H 0.54620 -0.87110 1.76500
H19B H 0.46270 -0.79870 1.75920
#END
