
#######################################################################
#
#                 Cambridge Crystallographic Data Centre
#                                CCDC
#
#######################################################################
#
# If this CIF has been generated from an entry in the Cambridge
# Structural Database, then it will include bibliographic, chemical,
# crystal, experimental, refinement or atomic coordinate data resulting
# from the CCDC's data processing and validation procedures.
#
#######################################################################

data_CSD_CIF_GATTOL
_audit_creation_date 2005-12-08
_audit_creation_method CSD-ConQuest-V1
_database_code_CSD GATTOL
_database_code_depnum_ccdc_archive 'CCDC 283965'
_chemical_formula_sum 'C20 H26 Mn1 N4 O12 S2'
_chemical_formula_moiety
;
(C10 H10 N2 2+)n,n(C10 H12 Mn1 N2 O10 S2 2-),2n(H2 O1)
;
_journal_coeditor_code "IUCr NG6174"
_journal_coden_Cambridge 1370
_journal_volume 61
_journal_year 2005
_journal_page_first m1689
_journal_name_full 'Acta Crystallogr.,Sect.E:Struct.Rep.Online '
loop_
_publ_author_name
"Sai-Rong Fan"
"Long-Guan Zhu"
_chemical_name_systematic
;
catena-(4,4'-Bipyridinium 
(\m~2~-4,4'-bipyridine-N,N')-diaqua-disulfato-manganese(ii) dihydrate)
;
_cell_volume    614.817
_exptl_crystal_colour 'pale yellow'
_exptl_crystal_density_diffrn 1.711
_exptl_crystal_description 'needle'
_exptl_crystal_preparation 'water/DMF'
_diffrn_ambient_temperature 295
#These two values have been output from a single CSD field.
_refine_ls_R_factor_gt 0.0375
_refine_ls_wR_factor_gt 0.0375
_symmetry_cell_setting triclinic
_symmetry_space_group_name_H-M 'P -1'
_symmetry_Int_Tables_number 2
loop_
_symmetry_equiv_pos_site_id
_symmetry_equiv_pos_as_xyz
1 x,y,z
2 -x,-y,-z
_cell_length_a 6.9619(8)
_cell_length_b 9.3723(11)
_cell_length_c 9.9791(11)
_cell_angle_alpha 74.900(2)
_cell_angle_beta 89.418(2)
_cell_angle_gamma 78.241(2)
_cell_formula_units_Z 1
loop_
_atom_type_symbol
_atom_type_radius_bond
C 0.68
H 0.23
Mn 1.35
N 0.68
O 0.68
S 1.02
loop_
_atom_site_label
_atom_site_type_symbol
_atom_site_fract_x
_atom_site_fract_y
_atom_site_fract_z
Mn1 Mn 1.00000 1.00000 1.00000
S1 S 0.71399(9) 0.84489(7) 0.82931(6)
O1 O 0.7601(3) 0.9168(2) 0.93698(19)
O2 O 0.8678(3) 0.8447(2) 0.7283(2)
O3 O 0.6994(4) 0.6881(2) 0.8962(2)
O4 O 0.5230(3) 0.9281(3) 0.7612(2)
O5 O 0.8088(3) 1.1475(2) 1.10973(19)
O6 O 0.2878(4) 0.9321(2) 0.5347(2)
N1 N 0.9692(3) 1.2009(2) 0.8004(2)
N2 N 0.4119(3) 0.3750(3) 0.8512(2)
C1 C 0.9458(4) 1.3450(3) 0.8065(3)
H1 H 0.92260 1.36540 0.89230
C2 C 0.9541(4) 1.4644(3) 0.6930(3)
H2 H 0.93470 1.56220 0.70310
C3 C 0.9918(3) 1.4379(3) 0.5627(2)
C4 C 1.0115(4) 1.2890(3) 0.5558(3)
H3 H 1.03360 1.26530 0.47130
C5 C 0.9984(4) 1.1772(3) 0.6740(3)
H4 H 1.01040 1.07910 0.66590
C6 C 0.4619(4) 0.2738(3) 0.7779(3)
H5 H 0.47240 0.17160 0.82080
C7 C 0.4980(4) 0.3196(3) 0.6396(3)
H6 H 0.53280 0.24880 0.58880
C8 C 0.4822(4) 0.4732(3) 0.5754(3)
C9 C 0.4313(4) 0.5744(3) 0.6562(3)
H7 H 0.42120 0.67730 0.61670
C10 C 0.3960(4) 0.5232(3) 0.7936(3)
H8 H 0.36090 0.59130 0.84720
H9 H 0.707(3) 1.120(4) 1.146(3)
H10 H 0.367(4) 0.954(3) 0.588(3)
H11 H 0.880(4) 1.162(4) 1.171(2)
H12 H 0.255(5) 1.008(2) 0.464(2)
H13 H 0.379(5) 0.345(4) 0.9400(15)
Mn1* Mn 1.00000 2.00000 0.00000
S1A S 1.28601(9) 1.15511(7) 1.17069(6)
O1A O 1.2399(3) 1.0832(2) 1.06302(19)
O2A O 1.1322(3) 1.1553(2) 1.2717(2)
O3A O 1.3006(4) 1.3119(2) 1.1038(2)
O4A O 1.4770(3) 1.0719(3) 1.2388(2)
O5A O 1.1912(3) 0.8525(2) 0.89027(19)
N1A N 1.0308(3) 1.7991(2) 0.1996(2)
N1A* N 1.0308(3) 0.7991(2) 1.1996(2)
N2A N 0.5881(3) 0.6250(3) 0.1488(2)
C1A C 1.0542(4) 1.6550(3) 0.1935(3)
H1A H 1.07740 1.63460 0.10770
C2A C 1.0459(4) 1.5356(3) 0.3070(3)
H2A H 1.06530 1.43780 0.29690
C3A C 1.0082(3) 1.5621(3) 0.4373(2)
C4A C 0.9885(4) 1.7110(3) 0.4442(3)
H3A H 0.96640 1.73470 0.52870
C5A C 1.0016(4) 1.8228(3) 0.3260(3)
H4A H 0.98960 1.92090 0.33410
C6A C 0.5381(4) 0.7262(3) 0.2221(3)
H5A H 0.52760 0.82840 0.17920
C7A C 0.5020(4) 0.6804(3) 0.3604(3)
H6A H 0.46720 0.75120 0.41120
C8A C 0.5178(4) 0.5268(3) 0.4246(3)
C9A C 0.5687(4) 0.4256(3) 0.3438(3)
H7A H 0.57880 0.32270 0.38330
C10A C 0.6040(4) 0.4768(3) 0.2064(3)
H8A H 0.63910 0.40870 0.15280
H9A H 1.293(3) 0.880(4) 0.854(3)
H11A H 1.120(4) 0.838(4) 0.829(2)
H13A H 0.621(5) 0.655(4) 0.0600(15)
#END
