
#######################################################################
#
#                 Cambridge Crystallographic Data Centre
#                                CCDC
#
#######################################################################
#
# If this CIF has been generated from an entry in the Cambridge
# Structural Database, then it will include bibliographic, chemical,
# crystal, experimental, refinement or atomic coordinate data resulting
# from the CCDC's data processing and validation procedures.
#
#######################################################################

data_CSD_CIF_GAVTAZ
_audit_creation_date 2005-12-08
_audit_creation_method CSD-ConQuest-V1
_database_code_CSD GAVTAZ
_database_code_depnum_ccdc_archive 'CCDC 289704'
_chemical_formula_sum 'C28 H36 Mn2 N2 O18'
_chemical_formula_moiety
;
(C10 H16 Mn1 N2 O4 2+)n,n(C18 H16 Mn1 O12 2-),2n(H2 O1)
;
_journal_coeditor_code "IUCr CV6586"
_journal_coden_Cambridge 1370
_journal_volume 61
_journal_year 2005
_journal_page_first m2270
_journal_name_full 'Acta Crystallogr.,Sect.E:Struct.Rep.Online '
loop_
_publ_author_name
"Shan Gao"
"Li-Hua Huo"
"Seik Weng Ng"
_chemical_name_systematic
;
catena-(bis(\m~2~-4-Carboxyphenoxyacetato-O,O')-diaqua-manganese(ii) 
(\m~2~-4,4'-bipyridine)-tetra-aqua-manganese(ii) dihydrate)
;
_cell_volume    809.407
_exptl_crystal_colour 'colorless'
_exptl_crystal_density_diffrn 1.638
_exptl_crystal_description 'Prism'
_diffrn_ambient_temperature 295
#These two values have been output from a single CSD field.
_refine_ls_R_factor_gt 0.052
_refine_ls_wR_factor_gt 0.052
_symmetry_cell_setting triclinic
_symmetry_space_group_name_H-M 'P -1'
_symmetry_Int_Tables_number 2
loop_
_symmetry_equiv_pos_site_id
_symmetry_equiv_pos_as_xyz
1 x,y,z
2 -x,-y,-z
_cell_length_a 7.688(2)
_cell_length_b 10.163(2)
_cell_length_c 10.797(2)
_cell_angle_alpha 94.08(3)
_cell_angle_beta 101.01(3)
_cell_angle_gamma 100.46(3)
_cell_formula_units_Z 1
loop_
_atom_type_symbol
_atom_type_radius_bond
C 0.68
H 0.23
Mn 1.35
N 0.68
O 0.68
loop_
_atom_site_label
_atom_site_type_symbol
_atom_site_fract_x
_atom_site_fract_y
_atom_site_fract_z
Mn1 Mn 0.50000 0.50000 0.50000
Mn2 Mn 0.00000 0.50000 1.00000
O1 O -0.0672(3) 0.6088(2) 0.8310(2)
O2 O 0.0333(3) 0.6016(3) 0.6519(2)
O3 O 0.4536(3) 1.1873(2) 0.8933(2)
O4 O 0.6383(3) 1.4624(2) 1.1312(2)
O5 O 0.7252(3) 1.3919(2) 0.9574(2)
O6 O 0.2471(3) 0.5801(3) 0.4818(3)
O7 O 0.4249(3) 0.4573(3) 0.2964(3)
O8 O -0.0676(4) 0.6567(3) 1.1214(3)
O9 O 0.2645(4) 0.7645(3) 0.2788(3)
N1 N 0.3337(4) 0.2953(3) 0.5123(3)
C1 C 0.2211(6) 0.2843(4) 0.5917(4)
C2 C 0.0897(6) 0.1716(4) 0.5893(4)
C3 C 0.0704(4) 0.0615(3) 0.5025(3)
C4 C 0.1906(5) 0.0706(4) 0.4220(4)
C5 C 0.3166(5) 0.1880(4) 0.4301(4)
C6 C 0.0305(4) 0.6601(3) 0.7577(3)
C7 C 0.1435(4) 0.7992(3) 0.7976(3)
C8 C 0.1346(5) 0.8729(3) 0.9076(3)
C9 C 0.2351(5) 1.0034(4) 0.9445(4)
C10 C 0.3492(4) 1.0607(3) 0.8686(3)
C11 C 0.3616(5) 0.9874(4) 0.7586(4)
C12 C 0.2582(5) 0.8581(4) 0.7223(4)
C13 C 0.4641(4) 1.2628(3) 1.0114(3)
C14 C 0.6207(4) 1.3827(3) 1.0338(3)
H1 H 0.213(6) 0.599(5) 0.550(3)
H2 H 0.163(4) 0.523(3) 0.433(3)
H3 H 0.314(2) 0.445(5) 0.259(4)
H4 H 0.493(6) 0.456(5) 0.243(4)
H5 H -0.155(5) 0.612(5) 1.148(5)
H6 H 0.021(4) 0.682(5) 1.184(3)
H7 H 0.306(8) 0.742(6) 0.214(4)
H8 H 0.284(9) 0.718(6) 0.340(5)
H9 H 0.23140 0.35660 0.65230
H10 H 0.01360 0.16990 0.64680
H11 H 0.18670 -0.00160 0.36300
H12 H 0.39510 0.19220 0.37410
H13 H 0.05920 0.83450 0.95880
H14 H 0.22600 1.05130 1.01890
H15 H 0.43950 1.02470 0.70860
H16 H 0.26570 0.81060 0.64730
H17 H 0.48140 1.20620 1.07950
H18 H 0.35190 1.29390 1.01100
Mn1* Mn -0.50000 -0.50000 0.50000
Mn2* Mn 1.00000 1.50000 1.00000
Mn2** Mn -1.00000 -0.50000 1.00000
O1A O 0.0672(3) 0.3912(2) 1.1690(2)
O2A O -0.0333(3) 0.3984(3) 1.3481(2)
O3A O -0.4536(3) -0.1873(2) 1.1067(2)
O4A O -0.6383(3) -0.4624(2) 0.8688(2)
O5A O -0.7252(3) -0.3919(2) 1.0426(2)
O5* O -0.2748(3) 0.3919(2) 0.9574(2)
O5A* O 0.2748(3) 0.6081(2) 1.0426(2)
O6A O 0.7529(3) 0.4199(3) 0.5182(3)
O7A O 0.5751(3) 0.5427(3) 0.7036(3)
O8A O 0.0676(4) 0.3433(3) 0.8786(3)
N1A N -0.3337(4) -0.2953(3) 0.4877(3)
N1A* N 0.6663(4) 0.7047(3) 0.4877(3)
C1A C -0.2211(6) -0.2843(4) 0.4083(4)
C2A C -0.0897(6) -0.1716(4) 0.4107(4)
C3A C -0.0704(4) -0.0615(3) 0.4975(3)
C4A C -0.1906(5) -0.0706(4) 0.5780(4)
C5A C -0.3166(5) -0.1880(4) 0.5699(4)
C6A C -0.0305(4) 0.3399(3) 1.2423(3)
C7A C -0.1435(4) 0.2008(3) 1.2024(3)
C8A C -0.1346(5) 0.1271(3) 1.0924(3)
C9A C -0.2351(5) -0.0034(4) 1.0555(4)
C10A C -0.3492(4) -0.0607(3) 1.1314(3)
C11A C -0.3616(5) 0.0126(4) 1.2414(4)
C12A C -0.2582(5) 0.1419(4) 1.2777(4)
C13A C -0.4641(4) -0.2628(3) 0.9886(3)
C14A C -0.6207(4) -0.3827(3) 0.9662(3)
H1A H 0.787(6) 0.401(5) 0.450(3)
H2A H 0.837(4) 0.477(3) 0.567(3)
H3A H 0.686(2) 0.555(5) 0.741(4)
H4A H 0.507(6) 0.544(5) 0.757(4)
H5A H 0.155(5) 0.388(5) 0.852(5)
H6A H -0.021(4) 0.318(5) 0.816(3)
H9A H -0.23140 -0.35660 0.34770
H10A H -0.01360 -0.16990 0.35320
H11A H -0.18670 0.00160 0.63700
H12A H -0.39510 -0.19220 0.62590
H13A H -0.05920 0.16550 1.04120
H14A H -0.22600 -0.05130 0.98110
H15A H -0.43950 -0.02470 1.29140
H16A H -0.26570 0.18940 1.35270
H17A H -0.48140 -0.20620 0.92050
H18A H -0.35190 -0.29390 0.98900
#END
