
#######################################################################
#
#                 Cambridge Crystallographic Data Centre
#                                CCDC
#
#######################################################################
#
# If this CIF has been generated from an entry in the Cambridge
# Structural Database, then it will include bibliographic, chemical,
# crystal, experimental, refinement or atomic coordinate data resulting
# from the CCDC's data processing and validation procedures.
#
#######################################################################

data_CSD_CIF_GAXCOZ
_audit_creation_date 2012-09-26
_audit_creation_method CSD-ConQuest-V1
_database_code_CSD GAXCOZ
_database_code_depnum_ccdc_archive 'CCDC 857296'
_chemical_formula_sum 'C70 H62 N14 O97 P2 W24 Zn3'
_chemical_formula_moiety
;
(C70 H58 N14 O15 Zn3 6+)n,2n(O40 P1 W12 3-),2n(H2 O1)
;
_journal_coden_Cambridge 9
_journal_volume 51
_journal_year 2012
_journal_page_first 5118
_journal_name_full 'Inorg.Chem. '
loop_
_publ_author_name
"Qiuxia Han"
"Lejie Zhang"
"Cheng He"
"Jiangyang Niu"
"Chunying Duan"
_chemical_name_systematic
;
catena-[heptakis(\m~2~-4,4'-Bipyridine 1,1'-dioxide)-aqua-tri-zinc(ii) 
bis((\m~12~-phosphato)-tetracosakis(\m~2~-oxo)-dodeca-oxo-dodeca-tungsten(vi))
 dihydrate]
;
_cell_volume   3266.852
_exptl_crystal_colour 'pale green'
_exptl_crystal_density_diffrn 3.719
_exptl_crystal_description 'block'
_diffrn_ambient_temperature 293
_refine_special_details
;
O19,O20 and O19',O20' disordered over two sites with occupancies 0.50:0.50; 
O39,O39',O40,O40' disordered by symmetry over two sites with occupancy 0.50.
;
#These two values have been output from a single CSD field.
_refine_ls_R_factor_gt 0.0824
_refine_ls_wR_factor_gt 0.0824
_symmetry_cell_setting triclinic
_symmetry_space_group_name_H-M 'P -1'
_symmetry_Int_Tables_number 2
loop_
_symmetry_equiv_pos_site_id
_symmetry_equiv_pos_as_xyz
1 x,y,z
2 -x,-y,-z
_cell_length_a 12.5305(4)
_cell_length_b 16.1251(5)
_cell_length_c 16.4694(5)
_cell_angle_alpha 97.541(2)
_cell_angle_beta 91.323(2)
_cell_angle_gamma 97.644(2)
_cell_formula_units_Z 1
loop_
_atom_type_symbol
_atom_type_radius_bond
C 0.68
H 0.23
N 0.68
O 0.60
P 1.05
W 1.49
Zn 1.22
loop_
_atom_site_label
_atom_site_type_symbol
_atom_site_fract_x
_atom_site_fract_y
_atom_site_fract_z
W1 W 1.16592(4) 0.39353(3) 0.61718(3)
W2 W 1.08449(4) 0.30606(3) 0.41193(3)
W3 W 1.27311(4) 0.49337(3) 0.45104(3)
W4 W 0.89332(4) 0.40324(3) 0.66793(3)
W5 W 0.81195(4) 0.31282(3) 0.46269(3)
W6 W 1.08428(4) 0.58901(3) 0.70515(3)
W7 W 0.98956(4) 0.17011(3) -0.11590(3)
W8 W 1.23409(4) 0.08503(3) -0.09413(3)
W9 W 1.24465(4) -0.08517(3) 0.02034(3)
W10 W 0.89920(4) 0.11923(3) 0.17226(3)
W11 W 1.13193(4) 0.20623(3) 0.07764(3)
W12 W 1.14553(4) 0.03505(3) 0.19139(3)
Zn1 Zn -0.50000 0.50000 0.00000
Zn2 Zn -0.41880(11) -0.11246(9) 0.36410(8)
P1 P 1.00000 0.50000 0.50000
P2 P 1.00000 0.00000 0.00000
O1 O 1.2462(7) 0.3464(6) 0.6728(5)
O2 O 1.1275(11) 0.3135(8) 0.5260(7)
O3 O 1.2661(11) 0.4495(8) 0.5508(8)
O4 O 1.1700(9) 0.4971(7) 0.6877(8)
O5 O 0.9432(9) 0.2696(8) 0.4426(6)
O6 O 1.1269(9) 0.2132(6) 0.3745(9)
O7 O 1.2023(11) 0.3847(9) 0.4034(9)
O8 O 1.0176(8) 0.3412(7) 0.3192(7)
O9 O 1.4033(7) 0.4938(7) 0.4272(7)
O10 O 1.2193(8) 0.5361(7) 0.3599(6)
O11 O 1.2787(8) 0.6026(6) 0.5104(6)
O12 O 0.8421(12) 0.3589(7) 0.7460(6)
O13 O 0.8480(9) 0.3227(6) 0.5768(7)
O14 O 1.0268(9) 0.3616(6) 0.6604(10)
O15 O 0.9680(8) 0.5056(6) 0.725(1)
O16 O 0.7235(9) 0.2251(6) 0.4500(7)
O17 O 1.1815(8) 0.6546(7) 0.6457(5)
O18 O 1.1275(7) 0.6284(7) 0.8015(5)
O19 O 1.0211(11) 0.4835(9) 0.5916(8)
O20 O 1.0976(12) 0.4455(10) 0.4999(9)
O21 O 1.0301(10) 0.0634(8) 0.0804(8)
O22 O 1.1027(9) -0.0165(7) -0.0443(7)
O23 O 1.0572(12) 0.0811(9) -0.0227(9)
O24 O 0.9314(11) 0.0404(9) -0.0534(9)
O25 O 0.9862(10) 0.2514(6) -0.1714(6)
O26 O 1.1236(8) 0.1350(8) -0.1406(6)
O27 O 0.9270(8) 0.0747(7) -0.1905(7)
O28 O 1.0478(8) 0.2282(7) -0.0128(6)
O29 O 1.3465(8) 0.1283(7) -0.1347(5)
O30 O 1.2898(10) 0.0164(8) -0.0256(7)
O31 O 1.1861(10) -0.0125(7) -0.1698(7)
O32 O 1.2313(8) 0.1652(7) 0.0001(6)
O33 O 1.3624(7) -0.1229(7) 0.0364(7)
O34 O 0.8527(9) 0.1625(7) -0.0676(8)
O35 O 1.1934(10) -0.1400(7) -0.0871(7)
O36 O 1.2431(7) -0.0147(6) 0.1200(7)
O37 O 0.8503(9) 0.1722(7) 0.2561(6)
O38 O 1.0000(8) 0.1975(7) 0.1362(7)
O39 O 1.0112(8) 0.0708(6) 0.2169(7)
O40 O 1.1973(7) 0.3006(5) 0.1149(6)
O41 O 1.1852(8) 0.1390(7) 0.1520(6)
O42 O 1.2141(7) 0.0464(6) 0.2809(5)
C1 C -0.5175(10) 0.0179(10) 0.2115(11)
H1 H -0.56030 -0.03400 0.19750
C2 C -0.5073(10) 0.0699(7) 0.1530(7)
H2 H -0.53760 0.05460 0.10020
C3 C -0.4452(10) 0.1510(7) 0.1800(8)
C4 C -0.3938(8) 0.1651(6) 0.2530(6)
H3 H -0.34700 0.21490 0.26800
C5 C -0.4088(10) 0.1085(8) 0.3046(10)
H4 H -0.37340 0.12110 0.35580
C6 C -0.4405(9) 0.2127(7) 0.1216(7)
C7 C -0.5244(11) 0.2149(7) 0.0603(7)
H5 H -0.58410 0.17330 0.05410
C8 C -0.5168(9) 0.2758(7) 0.0129(7)
H6 H -0.57320 0.27670 -0.02440
C9 C -0.3477(8) 0.3341(7) 0.0683(6)
H7 H -0.28570 0.37270 0.06760
C10 C -0.3508(10) 0.2782(7) 0.1209(7)
H8 H -0.29330 0.28150 0.15850
C11 C -0.5819(10) 0.5427(7) -0.2549(8)
H9 H -0.64330 0.50280 -0.26010
C12 C -0.562(1) 0.5923(7) -0.3155(7)
H10 H -0.60960 0.58610 -0.36080
C13 C -0.4707(8) 0.6521(7) -0.3093(6)
C14 C -0.3987(10) 0.6531(7) -0.2424(7)
H11 H -0.33360 0.68890 -0.23820
C15 C -0.4232(9) 0.6017(7) -0.1826(7)
H12 H -0.37460 0.60360 -0.13870
C16 C -0.4393(8) 0.7038(6) -0.3756(6)
C17 C -0.4659(10) 0.6761(7) -0.4577(7)
H13 H -0.50750 0.62390 -0.47290
C18 C -0.4314(11) 0.7250(9) -0.5169(9)
H14 H -0.44830 0.70610 -0.57210
C19 C -0.3477(11) 0.8323(7) -0.4156(8)
H15 H -0.31060 0.88650 -0.40270
C20 C -0.1559(10) -0.1356(7) 0.3429(8)
H16 H -0.20930 -0.18180 0.33130
C21 C -0.0459(11) -0.1455(8) 0.3547(8)
H17 H -0.02630 -0.19940 0.34480
C22 C 0.0332(9) -0.0782(7) 0.3802(6)
C23 C -0.0011(9) -0.0008(7) 0.3894(7)
H18 H 0.04850 0.04580 0.41000
C24 C -0.1070(9) 0.0131(7) 0.3697(6)
H19 H -0.12500 0.06740 0.37110
C25 C 0.1484(9) -0.0954(7) 0.3899(8)
C26 C 0.1852(10) -0.1573(7) 0.3428(7)
H20 H 0.14090 -0.19180 0.30230
C27 C 0.2920(11) -0.1698(8) 0.3554(10)
H21 H 0.31900 -0.21130 0.32030
C28 C 0.3172(10) -0.0554(8) 0.4609(7)
H22 H 0.36110 -0.01810 0.49960
C29 C 0.2158(10) -0.0446(8) 0.4475(8)
H23 H 0.18930 -0.00010 0.47870
C30 C -0.1919(12) 0.5800(9) 0.0675(9)
H24 H -0.21430 0.61200 0.11350
C31 C -0.0918(13) 0.5588(12) 0.0680(12)
H25 H -0.04560 0.57470 0.11400
C32 C -0.0581(10) 0.5110(8) -0.0043(7)
C33 C -0.1272(12) 0.4834(10) -0.0667(11)
H26 H -0.10860 0.44740 -0.11140
C34 C -0.2296(12) 0.5100(11) -0.0638(9)
H27 H -0.27720 0.49500 -0.10920
C35 C -0.3784(9) 0.7826(6) -0.3519(6)
H28 H -0.35860 0.80190 -0.29720
N1 N -0.4727(8) 0.0333(6) 0.2870(6)
N2 N -0.4297(7) 0.3373(6) 0.0165(6)
N3 N -0.5152(8) 0.5497(6) -0.1873(6)
N4 N -0.3729(8) 0.8004(6) -0.4934(6)
N5 N -0.1794(8) -0.0543(6) 0.3494(6)
N6 N 0.3583(8) -0.1247(6) 0.4158(6)
N7 N -0.2598(9) 0.5562(7) 0.0026(6)
O43 O -0.4978(8) -0.0151(6) 0.3442(6)
O44 O -0.4291(8) 0.3925(6) -0.0354(5)
O45 O -0.5431(8) 0.4992(6) -0.1305(5)
O46 O -0.3313(7) -0.1507(7) 0.4488(6)
O47 O -0.2807(7) -0.0396(6) 0.3370(6)
O48 O -0.5464(8) -0.1434(6) 0.4335(6)
O49 O -0.3602(7) 0.5801(5) -0.0006(6)
O50 O -0.4377(12) -0.1952(9) 0.2648(7)
O51 O 0.553(3) 1.3416(17) -0.2198(16)
O52? O 0.9640(11) 0.4185(9) 0.4482(9)
O53? O 1.0956(11) 0.5504(9) 0.4714(8)
W1A W 0.83408(4) 0.60647(3) 0.38282(3)
W2A W 0.91551(4) 0.69394(3) 0.58807(3)
W3A W 0.72689(4) 0.50663(3) 0.54896(3)
W4A W 1.10668(4) 0.59676(3) 0.33207(3)
W5A W 1.18805(4) 0.68718(3) 0.53731(3)
W6A W 0.91572(4) 0.41099(3) 0.29485(3)
W7A W 1.01044(4) -0.17011(3) 0.11590(3)
W8A W 0.76591(4) -0.08503(3) 0.09413(3)
W9A W 0.75535(4) 0.08517(3) -0.02034(3)
W10A W 1.10080(4) -0.11923(3) -0.17226(3)
W11A W 0.86807(4) -0.20623(3) -0.07764(3)
W12A W 0.85447(4) -0.03505(3) -0.19139(3)
Zn1* Zn 0.50000 0.50000 0.00000
Zn1** Zn -0.50000 -0.50000 1.00000
Zn1*** Zn -1.50000 0.50000 0.00000
Zn2* Zn -0.41880(11) 0.88754(9) -0.63590(8)
Zn2** Zn 0.58120(11) -0.11246(9) 0.36410(8)
Zn2*** Zn -1.41880(11) -0.11246(9) 0.36410(8)
O1A O 0.7538(7) 0.6536(6) 0.3272(5)
O2A O 0.8725(11) 0.6865(8) 0.4740(7)
O3A O 0.7339(11) 0.5505(8) 0.4492(8)
O4A O 0.8300(9) 0.5029(7) 0.3123(8)
O5A O 1.0568(9) 0.7304(8) 0.5574(6)
O6A O 0.8731(9) 0.7868(6) 0.6255(9)
O7A O 0.7977(11) 0.6153(9) 0.5966(9)
O8A O 0.9824(8) 0.6588(7) 0.6808(7)
O9A O 0.5967(7) 0.5062(7) 0.5728(7)
O10A O 0.7807(8) 0.4639(7) 0.6401(6)
O11A O 0.7213(8) 0.3974(6) 0.4896(6)
O12A O 1.1579(12) 0.6411(7) 0.2540(6)
O13A O 1.1520(9) 0.6773(6) 0.4232(7)
O14A O 0.9732(9) 0.6384(6) 0.3396(10)
O15A O 1.0320(8) 0.4944(6) 0.275(1)
O16A O 1.2765(9) 0.7749(6) 0.5500(7)
O17A O 0.8185(8) 0.3454(7) 0.3543(5)
O18A O 0.8725(7) 0.3716(7) 0.1985(5)
O19A O 0.9789(11) 0.5165(9) 0.4084(8)
O20A O 0.9024(12) 0.5545(10) 0.5001(9)
O21A O 0.9699(10) -0.0634(8) -0.0804(8)
O22A O 0.8973(9) 0.0165(7) 0.0443(7)
O23A O 0.9428(12) -0.0811(9) 0.0227(9)
O24A O 1.0686(11) -0.0404(9) 0.0534(9)
O25A O 1.0138(10) -0.2514(6) 0.1714(6)
O26A O 0.8764(8) -0.1350(8) 0.1406(6)
O27A O 1.0730(8) -0.0747(7) 0.1905(7)
O28A O 0.9522(8) -0.2282(7) 0.0128(6)
O29A O 0.6535(8) -0.1283(7) 0.1347(5)
O30A O 0.7102(10) -0.0164(8) 0.0256(7)
O31A O 0.8139(10) 0.0125(7) 0.1698(7)
O32A O 0.7687(8) -0.1652(7) -0.0001(6)
O33A O 0.6376(7) 0.1229(7) -0.0364(7)
O34A O 1.1473(9) -0.1625(7) 0.0676(8)
O35A O 0.8066(10) 0.1400(7) 0.0871(7)
O36A O 0.7569(7) 0.0147(6) -0.1200(7)
O37A O 1.1497(9) -0.1722(7) -0.2561(6)
O38A O 1.0000(8) -0.1975(7) -0.1362(7)
O39A O 0.9888(8) -0.0708(6) -0.2169(7)
O40A O 0.8027(7) -0.3006(5) -0.1149(6)
O41A O 0.8148(8) -0.1390(7) -0.1520(6)
O42A O 0.7859(7) -0.0464(6) -0.2809(5)
C11* C -0.5819(10) -0.4573(7) 0.7451(8)
H9* H -0.64330 -0.49720 0.73990
C12* C -0.562(1) -0.4077(7) 0.6845(7)
H10* H -0.60960 -0.41390 0.63920
C13* C -0.4707(8) -0.3479(7) 0.6907(6)
C14* C -0.3987(10) -0.3469(7) 0.7576(7)
H11* H -0.33360 -0.31110 0.76180
C15* C -0.4232(9) -0.3983(7) 0.8174(7)
H12* H -0.37460 -0.39640 0.86130
C16* C -0.4393(8) -0.2962(6) 0.6244(6)
C17* C -0.4659(10) -0.3239(7) 0.5423(7)
H13* H -0.50750 -0.37610 0.52710
C18* C -0.4314(11) -0.2750(9) 0.4831(9)
H14* H -0.44830 -0.29390 0.42790
C19* C -0.3477(11) -0.1677(7) 0.5844(8)
H15* H -0.31060 -0.11350 0.59730
C20* C -1.1559(10) -0.1356(7) 0.3429(8)
H16* H -1.20930 -0.18180 0.33130
C21* C -1.0459(11) -0.1455(8) 0.3547(8)
H17* H -1.02630 -0.19940 0.34480
C22* C -0.9668(9) -0.0782(7) 0.3802(6)
C23* C -1.0011(9) -0.0008(7) 0.3894(7)
H18* H -0.95150 0.04580 0.41000
C24* C -1.1070(9) 0.0131(7) 0.3697(6)
H19* H -1.12500 0.06740 0.37110
C25* C -0.8516(9) -0.0954(7) 0.3899(8)
C26* C -0.8148(10) -0.1573(7) 0.3428(7)
H20* H -0.85910 -0.19180 0.30230
C27* C -0.7080(11) -0.1698(8) 0.3554(10)
H21* H -0.68100 -0.21130 0.32030
C28* C -0.6828(10) -0.0554(8) 0.4609(7)
H22* H -0.63890 -0.01810 0.49960
C29* C -0.7842(10) -0.0446(8) 0.4475(8)
H23* H -0.81070 -0.00010 0.47870
C30A C 0.1919(12) 0.4200(9) -0.0675(9)
C30A* C -0.8081(12) 0.4200(9) -0.0675(9)
C30* C -1.1919(12) 0.5800(9) 0.0675(9)
H24A H 0.21430 0.38800 -0.11350
H24A* H -0.78570 0.38800 -0.11350
H24* H -1.21430 0.61200 0.11350
C31A C 0.0918(13) 0.4412(12) -0.0680(12)
C31A* C -0.9082(13) 0.4412(12) -0.0680(12)
C31* C -1.0918(13) 0.5588(12) 0.0680(12)
H25A H 0.04560 0.42530 -0.11400
H25A* H -0.95440 0.42530 -0.11400
H25* H -1.04560 0.57470 0.11400
C32A C 0.0581(10) 0.4890(8) 0.0043(7)
C32A* C -0.9419(10) 0.4890(8) 0.0043(7)
C32* C -1.0581(10) 0.5110(8) -0.0043(7)
C33A C 0.1272(12) 0.5166(10) 0.0667(11)
C33A* C -0.8728(12) 0.5166(10) 0.0667(11)
C33* C -1.1272(12) 0.4834(10) -0.0667(11)
H26A H 0.10860 0.55260 0.11140
H26A* H -0.89140 0.55260 0.11140
H26* H -1.10860 0.44740 -0.11140
C34A C 0.2296(12) 0.4900(11) 0.0638(9)
C34A* C -0.7704(12) 0.4900(11) 0.0638(9)
C34* C -1.2296(12) 0.5100(11) -0.0638(9)
H27A H 0.27720 0.50500 0.10920
H27A* H -0.72280 0.50500 0.10920
H27* H -1.27720 0.49500 -0.10920
C35* C -0.3784(9) -0.2174(6) 0.6481(6)
H28* H -0.35860 -0.19810 0.70280
N2A N -0.5703(7) 0.6627(6) -0.0165(6)
N3A N -0.4848(8) 0.4503(6) 0.1873(6)
N3* N -0.5152(8) -0.4503(6) 0.8127(6)
N4* N -0.3729(8) -0.1996(6) 0.5066(6)
N5* N -1.1794(8) -0.0543(6) 0.3494(6)
N6* N -0.6417(8) -0.1247(6) 0.4158(6)
N7A N -0.7402(9) 0.4438(7) -0.0026(6)
N7A* N 0.2598(9) 0.4438(7) -0.0026(6)
N7* N -1.2598(9) 0.5562(7) 0.0026(6)
O43* O -0.4978(8) 0.9849(6) -0.6558(6)
O44A O -0.5709(8) 0.6075(6) 0.0354(5)
O45A O -0.4569(8) 0.5008(6) 0.1305(5)
O45* O -0.5431(8) -0.5008(6) 0.8695(5)
O46* O -0.3313(7) 0.8493(7) -0.5512(6)
O47* O -1.2807(7) -0.0396(6) 0.3370(6)
O47** O -0.2807(7) 0.9604(6) -0.6630(6)
O48* O 0.4536(8) -0.1434(6) 0.4335(6)
O48** O -0.5464(8) 0.8566(6) -0.5665(6)
O49A O -0.6398(7) 0.4199(5) 0.0006(6)
O49A* O 0.3602(7) 0.4199(5) 0.0006(6)
O49* O -1.3602(7) 0.5801(5) -0.0006(6)
O50* O -0.4377(12) 0.8048(9) -0.7352(7)
#END
