
#######################################################################
#
#                 Cambridge Crystallographic Data Centre
#                                CCDC
#
#######################################################################
#
# If this CIF has been generated from an entry in the Cambridge
# Structural Database, then it will include bibliographic, chemical,
# crystal, experimental, refinement or atomic coordinate data resulting
# from the CCDC's data processing and validation procedures.
#
#######################################################################

data_CSD_CIF_GAXCUF
_audit_creation_date 2012-09-26
_audit_creation_method CSD-ConQuest-V1
_database_code_CSD GAXCUF
_database_code_depnum_ccdc_archive 'CCDC 857297'
_chemical_formula_sum 'C40 H43 Ho2 N8 O55 P1 W12'
_chemical_formula_moiety
;
(C40 H37 Ho2 N8 O12 3+)n,n(O40 P1 W12 3-),3n(H2 O1)
;
_journal_coden_Cambridge 9
_journal_volume 51
_journal_year 2012
_journal_page_first 5118
_journal_name_full 'Inorg.Chem. '
loop_
_publ_author_name
"Qiuxia Han"
"Lejie Zhang"
"Cheng He"
"Jiangyang Niu"
"Chunying Duan"
_chemical_name_systematic
;
catena-[tetrakis(\m~2~-4,4'-Bipyridine 
1,1'-dioxide)-(\m~2~-hydroxo)-(\m~2~-oxo)-diaqua-di-holmium(iii) 
(\m~12~-phosphato)-tetracosakis(\m~2~-oxo)-dodeca-oxo-dodeca-tungsten(vi) 
trihydrate]
;
_cell_volume   3816.811
_exptl_crystal_colour 'pink'
_exptl_crystal_density_diffrn 3.555
_exptl_crystal_description 'block'
_diffrn_ambient_temperature 273
_refine_special_details
;
The central phosphate unit of the Keggin anion is disordered by symmetry.

;
#These two values have been output from a single CSD field.
_refine_ls_R_factor_gt 0.109
_refine_ls_wR_factor_gt 0.109
_symmetry_cell_setting monoclinic
_symmetry_space_group_name_H-M 'C 2/m'
_symmetry_Int_Tables_number 12
loop_
_symmetry_equiv_pos_site_id
_symmetry_equiv_pos_as_xyz
1 x,y,z
2 -x,y,-z
3 1/2+x,1/2+y,z
4 1/2-x,1/2+y,-z
5 -x,-y,-z
6 x,-y,z
7 -1/2-x,-1/2-y,-z
8 -1/2+x,-1/2-y,z
_cell_length_a 19.319(6)
_cell_length_b 17.529(5)
_cell_length_c 11.725(4)
_cell_angle_alpha 90
_cell_angle_beta 105.998(4)
_cell_angle_gamma 90
_cell_formula_units_Z 2
loop_
_atom_type_symbol
_atom_type_radius_bond
C 0.68
H 0.23
Ho 1.62
N 0.68
O 0.68
P 1.05
W 1.40
loop_
_atom_site_label
_atom_site_type_symbol
_atom_site_fract_x
_atom_site_fract_y
_atom_site_fract_z
W1 W 1.02807(12) -0.10121(11) 0.26952(14)
W2 W 1.00000 -0.20215(14) 0.00000
W3 W 0.85692(9) -0.10123(11) 0.06190(15)
W4 W 1.17167(12) 0.00000 0.20778(19)
P1 P 1.00000 0.00000 0.00000
Ho1 Ho 0.54071(12) 0.00000 0.3732(2)
O1 O 1.0428(16) -0.152(2) 0.397(3)
O2 O 1.019(3) 0.00000 0.324(5)
O3 O 1.035(2) -0.180(3) 0.168(4)
O4 O 0.784(3) -0.145(3) 0.086(5)
O5 O 1.145(3) -0.076(3) 0.304(5)
O6? O 1.110(3) -0.074(3) 0.244(5)
O7? O 0.936(3) -0.088(3) 0.186(5)
O8 O 0.909(3) -0.120(3) 0.221(5)
O9 O 1.00000 -0.297(3) 0.00000
O10 O 0.903(3) -0.181(3) 0.009(4)
O11 O 1.048(4) 0.00000 0.133(7)
O12? O 1.074(5) 0.00000 0.026(8)
O13 O 0.8150(17) -0.0755(19) -0.104(3)
O14 O 0.837(3) 0.00000 0.099(4)
O15 O 1.255(3) 0.00000 0.306(5)
O16 O 0.437(2) 0.00000 0.428(4)
O17 O 0.971(2) -0.074(3) 0.068(4)
O18 O 0.6221(17) -0.0995(19) 0.440(2)
O19 O 0.9836(17) -0.4105(18) 0.238(3)
O20 O 0.609(2) 0.00000 0.232(4)
O21 O 0.248(5) 0.50000 0.274(8)
O22 O 0.920(4) 0.00000 0.267(7)
N1 N 0.6676(14) -0.1360(17) 0.399(3)
N2 N 0.9288(17) -0.3605(19) 0.256(3)
C1 C 0.738(2) -0.133(2) 0.465(4)
H1 H 0.75130 -0.10680 0.53630
C2 C 0.787(2) -0.167(2) 0.428(3)
H2 H 0.83490 -0.15630 0.46480
C3 C 0.771(2) -0.219(2) 0.335(4)
C4 C 0.700(2) -0.225(2) 0.270(3)
H3 H 0.68690 -0.25820 0.20660
C5 C 0.648(2) -0.179(3) 0.301(4)
H4 H 0.60050 -0.17820 0.25390
C6 C 0.8279(19) -0.264(2) 0.300(4)
C7 C 0.902(2) -0.263(2) 0.368(3)
H5 H 0.91650 -0.22820 0.42930
C8 C 0.950(2) -0.309(2) 0.346(4)
H6 H 0.99720 -0.30760 0.39220
C9 C 0.865(3) -0.366(4) 0.186(6)
H7 H 0.85240 -0.40330 0.12700
C10 C 0.814(3) -0.313(3) 0.204(5)
H8 H 0.76910 -0.31010 0.14850
W1A W 0.97193(12) -0.10121(11) -0.26952(14)
W1D W 0.97193(12) 0.10121(11) -0.26952(14)
W1E W 1.02807(12) 0.10121(11) 0.26952(14)
W2D W 1.00000 0.20215(14) 0.00000
W3A W 1.14308(9) -0.10123(11) -0.06190(15)
W3D W 1.14308(9) 0.10123(11) -0.06190(15)
W3E W 0.85692(9) 0.10123(11) 0.06190(15)
W4A W 0.82833(12) 0.00000 -0.20778(19)
Ho1A Ho 0.45929(12) 0.00000 0.6268(2)
Ho1B Ho 1.04071(12) -0.50000 0.3732(2)
Ho1B* Ho 1.04071(12) 0.50000 0.3732(2)
Ho1B** Ho 0.04071(12) 0.50000 0.3732(2)
Ho1B*** Ho 0.04071(12) -0.50000 0.3732(2)
O1A O 0.9572(16) -0.152(2) -0.397(3)
O1D O 0.9572(16) 0.152(2) -0.397(3)
O1E O 1.0428(16) 0.152(2) 0.397(3)
O2A O 0.981(3) 0.00000 -0.324(5)
O3A O 0.965(2) -0.180(3) -0.168(4)
O3D O 0.965(2) 0.180(3) -0.168(4)
O3E O 1.035(2) 0.180(3) 0.168(4)
O4A O 1.216(3) -0.145(3) -0.086(5)
O4D O 1.216(3) 0.145(3) -0.086(5)
O4E O 0.784(3) 0.145(3) 0.086(5)
O5E O 1.145(3) 0.076(3) 0.304(5)
O5A O 0.855(3) -0.076(3) -0.304(5)
O5D O 0.855(3) 0.076(3) -0.304(5)
O8A O 1.091(3) -0.120(3) -0.221(5)
O8D O 1.091(3) 0.120(3) -0.221(5)
O8E O 0.909(3) 0.120(3) 0.221(5)
O9D O 1.00000 0.297(3) 0.00000
O10A O 1.097(3) -0.181(3) -0.009(4)
O10D O 1.097(3) 0.181(3) -0.009(4)
O10E O 0.903(3) 0.181(3) 0.009(4)
O11A O 0.952(4) 0.00000 -0.133(7)
O13A O 1.1850(17) -0.0755(19) 0.104(3)
O13D O 1.1850(17) 0.0755(19) 0.104(3)
O13E O 0.8150(17) 0.0755(19) -0.104(3)
O14A O 1.163(3) 0.00000 -0.099(4)
O15A O 0.745(3) 0.00000 -0.306(5)
O16A O 0.563(2) 0.00000 0.572(4)
O17A O 1.029(2) -0.074(3) -0.068(4)
O17D O 1.029(2) 0.074(3) -0.068(4)
O17E O 0.971(2) 0.074(3) 0.068(4)
O18E O 0.6221(17) 0.0995(19) 0.440(2)
O18B O 0.1221(17) 0.4005(19) 0.440(2)
O18G O 0.1221(17) -0.4005(19) 0.440(2)
O18A O 0.3779(17) -0.0995(19) 0.560(2)
O18D O 0.3779(17) 0.0995(19) 0.560(2)
O19E O 0.9836(17) 0.4105(18) 0.238(3)
O19B O 0.4836(17) 0.0895(18) 0.238(3)
O19G O 0.4836(17) -0.0895(18) 0.238(3)
O19C O 0.5164(17) 0.0895(18) 0.762(3)
O19F O 0.5164(17) -0.0895(18) 0.762(3)
O20A O 0.391(2) 0.00000 0.768(4)
N1E N 0.6676(14) 0.1360(17) 0.399(3)
N1B N 0.1676(14) 0.3640(17) 0.399(3)
N1G N 0.1676(14) -0.3640(17) 0.399(3)
N2E N 0.9288(17) 0.3605(19) 0.256(3)
N2B N 0.4288(17) 0.1395(19) 0.256(3)
N2G N 0.4288(17) -0.1395(19) 0.256(3)
C1E C 0.738(2) 0.133(2) 0.465(4)
C1B C 0.238(2) 0.367(2) 0.465(4)
C1G C 0.238(2) -0.367(2) 0.465(4)
H1E H 0.75130 0.10680 0.53630
H1B H 0.25130 0.39320 0.53630
H1G H 0.25130 -0.39320 0.53630
C2E C 0.787(2) 0.167(2) 0.428(3)
C2B C 0.287(2) 0.333(2) 0.428(3)
C2G C 0.287(2) -0.333(2) 0.428(3)
H2E H 0.83490 0.15630 0.46480
H2B H 0.33490 0.34370 0.46480
H2G H 0.33490 -0.34370 0.46480
C3E C 0.771(2) 0.219(2) 0.335(4)
C3B C 0.271(2) 0.281(2) 0.335(4)
C3G C 0.271(2) -0.281(2) 0.335(4)
C4E C 0.700(2) 0.225(2) 0.270(3)
C4B C 0.200(2) 0.275(2) 0.270(3)
C4G C 0.200(2) -0.275(2) 0.270(3)
H3E H 0.68690 0.25820 0.20660
H3B H 0.18690 0.24180 0.20660
H3G H 0.18690 -0.24180 0.20660
C5E C 0.648(2) 0.179(3) 0.301(4)
C5B C 0.148(2) 0.321(3) 0.301(4)
C5G C 0.148(2) -0.321(3) 0.301(4)
H4E H 0.60050 0.17820 0.25390
H4B H 0.10050 0.32180 0.25390
H4G H 0.10050 -0.32180 0.25390
C6E C 0.8279(19) 0.264(2) 0.300(4)
C6B C 0.3279(19) 0.236(2) 0.300(4)
C6G C 0.3279(19) -0.236(2) 0.300(4)
C7E C 0.902(2) 0.263(2) 0.368(3)
C7B C 0.402(2) 0.237(2) 0.368(3)
C7G C 0.402(2) -0.237(2) 0.368(3)
H5E H 0.91650 0.22820 0.42930
H5B H 0.41650 0.27180 0.42930
H5G H 0.41650 -0.27180 0.42930
C8E C 0.950(2) 0.309(2) 0.346(4)
C8B C 0.450(2) 0.191(2) 0.346(4)
C8G C 0.450(2) -0.191(2) 0.346(4)
H6E H 0.99720 0.30760 0.39220
H6B H 0.49720 0.19240 0.39220
H6G H 0.49720 -0.19240 0.39220
C9E C 0.865(3) 0.366(4) 0.186(6)
C9B C 0.365(3) 0.134(4) 0.186(6)
C9G C 0.365(3) -0.134(4) 0.186(6)
H7E H 0.85240 0.40330 0.12700
H7B H 0.35240 0.09670 0.12700
H7G H 0.35240 -0.09670 0.12700
C10E C 0.814(3) 0.313(3) 0.204(5)
C10B C 0.314(3) 0.187(3) 0.204(5)
C10G C 0.314(3) -0.187(3) 0.204(5)
H8E H 0.76910 0.31010 0.14850
H8B H 0.26910 0.18990 0.14850
H8G H 0.26910 -0.18990 0.14850
#END
