
#######################################################################
#
#                 Cambridge Crystallographic Data Centre
#                                CCDC
#
#######################################################################
#
# If this CIF has been generated from an entry in the Cambridge
# Structural Database, then it will include bibliographic, chemical,
# crystal, experimental, refinement or atomic coordinate data resulting
# from the CCDC's data processing and validation procedures.
#
#######################################################################

data_CSD_CIF_GAXDAM
_audit_creation_date 2012-09-26
_audit_creation_method CSD-ConQuest-V1
_database_code_CSD GAXDAM
_database_code_depnum_ccdc_archive 'CCDC 857298'
_chemical_formula_sum 'C40 H43 N8 O55 P1 W12 Yb2'
_chemical_formula_moiety
;
(C40 H37 N8 O12 Yb2 3+)n,n(O40 P1 W12 3-),3n(H2 O1)
;
_journal_coden_Cambridge 9
_journal_volume 51
_journal_year 2012
_journal_page_first 5118
_journal_name_full 'Inorg.Chem. '
loop_
_publ_author_name
"Qiuxia Han"
"Lejie Zhang"
"Cheng He"
"Jiangyang Niu"
"Chunying Duan"
_chemical_name_systematic
;
catena-[tetrakis(\m~2~-4,4'-Bipyridine 
1,1'-dioxide)-(\m~2~-hydroxo)-(\m~2~-oxo)-diaqua-di-ytterbium(iii) 
(\m~12~-phosphato)-tetracosakis(\m~2~-oxo)-dodeca-oxo-dodeca-tungsten(vi) 
trihydrate]
;
_cell_volume   3779.465
_exptl_crystal_colour 'colorless'
_exptl_crystal_density_diffrn 3.606
_exptl_crystal_description 'block'
_diffrn_ambient_temperature 293
_refine_special_details
;
O12,O13,O14,O14 disordered by symmetry over two sites with occupancy 0.50.

;
#These two values have been output from a single CSD field.
_refine_ls_R_factor_gt 0.1037
_refine_ls_wR_factor_gt 0.1037
_symmetry_cell_setting monoclinic
_symmetry_space_group_name_H-M 'C 2/m'
_symmetry_Int_Tables_number 12
loop_
_symmetry_equiv_pos_site_id
_symmetry_equiv_pos_as_xyz
1 x,y,z
2 -x,y,-z
3 1/2+x,1/2+y,z
4 1/2-x,1/2+y,-z
5 -x,-y,-z
6 x,-y,z
7 -1/2-x,-1/2-y,-z
8 -1/2+x,-1/2-y,z
_cell_length_a 19.232(6)
_cell_length_b 17.416(5)
_cell_length_c 11.738(3)
_cell_angle_alpha 90
_cell_angle_beta 105.990(4)
_cell_angle_gamma 90
_cell_formula_units_Z 2
loop_
_atom_type_symbol
_atom_type_radius_bond
C 0.68
H 0.23
N 0.68
O 0.57
P 1.05
W 1.51
Yb 1.59
loop_
_atom_site_label
_atom_site_type_symbol
_atom_site_fract_x
_atom_site_fract_y
_atom_site_fract_z
W1 W 0.64345(9) -0.60157(11) -0.06265(14)
W2 W 0.67208(12) -0.50000 0.20685(19)
W3 W 0.52840(11) -0.60167(10) 0.26890(13)
W4 W 0.50000 -0.70314(14) 0.00000
P1 P 0.50000 -0.50000 0.00000
Yb1 Yb 0.95988(11) -0.50000 0.62561(18)
O1 O 0.715(2) -0.651(3) -0.086(4)
O2 O 0.685(2) -0.5757(17) 0.100(2)
O3 O 0.595(2) -0.681(3) -0.012(4)
O4 O 0.577(3) -0.607(3) -0.209(5)
O5 O 0.662(3) -0.50000 -0.099(4)
O6 O 0.751(2) -0.50000 0.306(4)
O7 O 0.627(2) -0.576(3) 0.276(4)
O8 O 0.5425(16) -0.6509(19) 0.397(3)
O9 O 0.518(3) -0.50000 0.324(5)
O10 O 0.533(2) -0.683(2) 0.166(4)
O11 O 0.50000 -0.798(3) 0.00000
O12 O 0.579(6) -0.50000 0.017(10)
O13 O 0.546(4) -0.50000 0.136(6)
O14 O 0.529(2) -0.574(2) -0.062(4)
O15 O 0.9392(17) -0.50000 0.431(3)
O16 O 0.8797(15) -0.4019(16) 0.559(2)
O17 O 0.5179(17) -0.0888(18) 0.762(3)
O18 O 0.895(2) -0.50000 0.767(3)
O19 O 0.616(3) -0.50000 0.589(7)
O20 O 0.756(2) -0.50000 0.733(3)
C1 C 0.762(2) -0.368(3) 0.539(4)
H1 H 0.74900 -0.39710 0.47000
C2 C 0.712(2) -0.331(2) 0.572(4)
H2 H 0.66320 -0.33970 0.53190
C3 C 0.7301(18) -0.2810(19) 0.665(3)
C4 C 0.7994(19) -0.276(2) 0.730(3)
H3 H 0.81230 -0.24470 0.79680
C5 C 0.8529(18) -0.320(3) 0.696(3)
H4 H 0.90110 -0.31780 0.74030
C6 C 0.6714(19) -0.236(2) 0.696(3)
C7 C 0.600(2) -0.238(2) 0.633(3)
H5 H 0.58580 -0.27420 0.57290
C8 C 0.550(2) -0.190(2) 0.653(3)
H6 H 0.50190 -0.19170 0.60730
C9 C 0.686(3) -0.186(3) 0.791(5)
H7 H 0.73240 -0.18680 0.84260
C10 C 0.636(3) -0.135(4) 0.817(6)
H8 H 0.64780 -0.10190 0.88090
N1 N 0.8332(15) -0.3657(16) 0.599(2)
N2 N 0.5712(16) -0.1386(17) 0.744(3)
W1E W 0.64345(9) -0.39843(11) -0.06265(14)
W1A W 0.35655(9) -0.60157(11) 0.06265(14)
W1D W 0.35655(9) -0.39843(11) 0.06265(14)
W2A W 0.32792(12) -0.50000 -0.20685(19)
W3E W 0.52840(11) -0.39833(10) 0.26890(13)
W3A W 0.47160(11) -0.60167(10) -0.26890(13)
W3D W 0.47160(11) -0.39833(10) -0.26890(13)
W4D W 0.50000 -0.29686(14) 0.00000
Yb1A Yb 1.04012(11) -0.50000 0.37439(18)
Yb1B Yb 0.45988(11) 0.00000 0.62561(18)
Yb1B* Yb 0.45988(11) -1.00000 0.62561(18)
Yb1B** Yb 1.45988(11) -1.00000 0.62561(18)
Yb1B*** Yb 1.45988(11) 0.00000 0.62561(18)
O1E O 0.715(2) -0.349(3) -0.086(4)
O1A O 0.285(2) -0.651(3) 0.086(4)
O1D O 0.285(2) -0.349(3) 0.086(4)
O2E O 0.685(2) -0.4243(17) 0.100(2)
O2A O 0.315(2) -0.5757(17) -0.100(2)
O2D O 0.315(2) -0.4243(17) -0.100(2)
O3A O 0.405(2) -0.681(3) 0.012(4)
O3D O 0.405(2) -0.319(3) 0.012(4)
O3E O 0.595(2) -0.319(3) -0.012(4)
O4A O 0.423(3) -0.607(3) 0.209(5)
O4E O 0.577(3) -0.393(3) -0.209(5)
O4D O 0.423(3) -0.393(3) 0.209(5)
O5A O 0.338(3) -0.50000 0.099(4)
O6A O 0.249(2) -0.50000 -0.306(4)
O7E O 0.627(2) -0.424(3) 0.276(4)
O7A O 0.373(2) -0.576(3) -0.276(4)
O7D O 0.373(2) -0.424(3) -0.276(4)
O8E O 0.5425(16) -0.3491(19) 0.397(3)
O8A O 0.4575(16) -0.6509(19) -0.397(3)
O8D O 0.4575(16) -0.3491(19) -0.397(3)
O9A O 0.482(3) -0.50000 -0.324(5)
O10A O 0.467(2) -0.683(2) -0.166(4)
O10D O 0.467(2) -0.317(2) -0.166(4)
O10E O 0.533(2) -0.317(2) 0.166(4)
O11D O 0.50000 -0.202(3) 0.00000
O12A O 0.421(6) -0.50000 -0.017(10)
O13A O 0.454(4) -0.50000 -0.136(6)
O14A O 0.471(2) -0.574(2) 0.062(4)
O14E O 0.529(2) -0.426(2) -0.062(4)
O14D O 0.471(2) -0.426(2) 0.062(4)
O15A O 1.0608(17) -0.50000 0.569(3)
O16E O 0.8797(15) -0.5981(16) 0.559(2)
O16B O 1.3797(15) -0.9019(16) 0.559(2)
O16G O 1.3797(15) -0.0981(16) 0.559(2)
O16A O 1.1203(15) -0.4019(16) 0.441(2)
O16D O 1.1203(15) -0.5981(16) 0.441(2)
O17E O 0.5179(17) -0.9112(18) 0.762(3)
O17B O 1.0179(17) -0.5888(18) 0.762(3)
O17G O 1.0179(17) -0.4112(18) 0.762(3)
O17C O 0.9821(17) -0.5888(18) 0.238(3)
O17F O 0.9821(17) -0.4112(18) 0.238(3)
O18A O 1.105(2) -0.50000 0.233(3)
C1E C 0.762(2) -0.632(3) 0.539(4)
C1B C 1.262(2) -0.868(3) 0.539(4)
C1G C 1.262(2) -0.132(3) 0.539(4)
H1E H 0.74900 -0.60290 0.47000
H1B H 1.24900 -0.89710 0.47000
H1G H 1.24900 -0.10290 0.47000
C2E C 0.712(2) -0.669(2) 0.572(4)
C2B C 1.212(2) -0.831(2) 0.572(4)
C2G C 1.212(2) -0.169(2) 0.572(4)
H2E H 0.66320 -0.66030 0.53190
H2B H 1.16320 -0.83970 0.53190
H2G H 1.16320 -0.16030 0.53190
C3E C 0.7301(18) -0.7190(19) 0.665(3)
C3B C 1.2301(18) -0.7810(19) 0.665(3)
C3G C 1.2301(18) -0.2190(19) 0.665(3)
C4E C 0.7994(19) -0.724(2) 0.730(3)
C4B C 1.2994(19) -0.776(2) 0.730(3)
C4G C 1.2994(19) -0.224(2) 0.730(3)
H3E H 0.81230 -0.75530 0.79680
H3B H 1.31230 -0.74470 0.79680
H3G H 1.31230 -0.25530 0.79680
C5E C 0.8529(18) -0.680(3) 0.696(3)
C5B C 1.3529(18) -0.820(3) 0.696(3)
C5G C 1.3529(18) -0.180(3) 0.696(3)
H4E H 0.90110 -0.68220 0.74030
H4B H 1.40110 -0.81780 0.74030
H4G H 1.40110 -0.18220 0.74030
C6E C 0.6714(19) -0.764(2) 0.696(3)
C6B C 1.1714(19) -0.736(2) 0.696(3)
C6G C 1.1714(19) -0.264(2) 0.696(3)
C7E C 0.600(2) -0.762(2) 0.633(3)
C7B C 1.100(2) -0.738(2) 0.633(3)
C7G C 1.100(2) -0.262(2) 0.633(3)
H5E H 0.58580 -0.72580 0.57290
H5B H 1.08580 -0.77420 0.57290
H5G H 1.08580 -0.22580 0.57290
C8E C 0.550(2) -0.810(2) 0.653(3)
C8B C 1.050(2) -0.690(2) 0.653(3)
C8G C 1.050(2) -0.310(2) 0.653(3)
H6E H 0.50190 -0.80830 0.60730
H6B H 1.00190 -0.69170 0.60730
H6G H 1.00190 -0.30830 0.60730
C9E C 0.686(3) -0.814(3) 0.791(5)
C9B C 1.186(3) -0.686(3) 0.791(5)
C9G C 1.186(3) -0.314(3) 0.791(5)
H7E H 0.73240 -0.81320 0.84260
H7B H 1.23240 -0.68680 0.84260
H7G H 1.23240 -0.31320 0.84260
C10E C 0.636(3) -0.865(4) 0.817(6)
C10B C 1.136(3) -0.635(4) 0.817(6)
C10G C 1.136(3) -0.365(4) 0.817(6)
H8E H 0.64780 -0.89810 0.88090
H8B H 1.14780 -0.60190 0.88090
H8G H 1.14780 -0.39810 0.88090
N1E N 0.8332(15) -0.6343(16) 0.599(2)
N1B N 1.3332(15) -0.8657(16) 0.599(2)
N1G N 1.3332(15) -0.1343(16) 0.599(2)
N2E N 0.5712(16) -0.8614(17) 0.744(3)
N2B N 1.0712(16) -0.6386(17) 0.744(3)
N2G N 1.0712(16) -0.3614(17) 0.744(3)
#END
