
#######################################################################
#
#                 Cambridge Crystallographic Data Centre
#                                CCDC
#
#######################################################################
#
# If this CIF has been generated from an entry in the Cambridge
# Structural Database, then it will include bibliographic, chemical,
# crystal, experimental, refinement or atomic coordinate data resulting
# from the CCDC's data processing and validation procedures.
#
#######################################################################

data_CSD_CIF_GAZZIS
_audit_creation_date 2012-08-03
_audit_creation_method CSD-ConQuest-V1
_database_code_CSD GAZZIS
_database_code_depnum_ccdc_archive 'CCDC 789578'
_chemical_formula_sum 'C73.5 H52.5 In1.75 N1.75 O14'
_chemical_formula_moiety
;
(C40 H22 In1 O8 1-)1.75n,1.75n(C2 H8 N1 1+)
;
_journal_coden_Cambridge 771
_journal_volume 11
_journal_year 2012
_journal_page_first 710
_journal_name_full 'Nat.Mater '
loop_
_publ_author_name
"Sihai Yang"
"Xiang Lin"
"W.Lewis"
"M.Suyetin"
"E.Bichoutskaia"
"J.E.Parker"
"C.C.Tang"
"D.R.Allan"
"P.J.Rizkallah"
"P.Hubberstey"
"N.R.Champness"
"K.M.Thomas"
"A.J.Blake"
"M.Schroder"
_chemical_name_systematic
;
catena-(dimethylammonium 
(\m~4~-biphenyl-3,3',5,5'-tetrakis(4-carboxyphenyl))-tetra-indium)
;
_cell_volume  14579.048
_exptl_crystal_colour 'colorless'
_exptl_crystal_density_diffrn 0.631
_exptl_crystal_description 'tablet'
_diffrn_ambient_temperature 120
_diffrn_radiation_probe x-ray
_diffrn_source synchrotron
_refine_special_details
;
C20A,C21A,C23A,C24A and C20B,C21B,C23B,C24B disordered over two sites with 
occupancies 0.502:0.498; The SQUEEZE/PLATON program has been used to model 
some disorder.
;
#These two values have been output from a single CSD field.
_refine_ls_R_factor_gt 0.0479
_refine_ls_wR_factor_gt 0.0479
_symmetry_cell_setting monoclinic
_symmetry_space_group_name_H-M 'C 2/c'
_symmetry_Int_Tables_number 15
loop_
_symmetry_equiv_pos_site_id
_symmetry_equiv_pos_as_xyz
1 x,y,z
2 -x,y,1/2-z
3 1/2+x,1/2+y,z
4 1/2-x,1/2+y,1/2-z
5 -x,-y,-z
6 x,-y,-1/2+z
7 -1/2-x,-1/2-y,-z
8 -1/2+x,-1/2-y,-1/2+z
_cell_length_a 19.814(7)
_cell_length_b 28.33(1)
_cell_length_c 26.219(10)
_cell_angle_alpha 90
_cell_angle_beta 97.866(6)
_cell_angle_gamma 90
_cell_formula_units_Z 4
loop_
_atom_type_symbol
_atom_type_radius_bond
C 0.68
H 0.23
In 1.42
N 0.68
O 0.68
loop_
_atom_site_label
_atom_site_type_symbol
_atom_site_fract_x
_atom_site_fract_y
_atom_site_fract_z
In1 In 0.885810(9) 0.252180(6) 0.115710(7)
O1 O -0.01560(9) 0.21338(7) 0.12037(7)
O2 O -0.06523(10) 0.23737(8) 0.04448(7)
O3 O 0.39131(12) 0.24328(7) -0.30354(9)
O4 O 0.27906(13) 0.23800(9) -0.32681(9)
O5 O 0.8328(1) 0.17968(7) 0.11610(8)
O6 O 0.78807(9) 0.23727(7) 0.06608(7)
O7 O 0.34815(11) -0.17461(7) 0.0994(1)
O8 O 0.45763(11) -0.18246(7) 0.11846(9)
C1 C 0.04681(14) 0.20535(10) 0.04905(11)
C2 C 0.04870(17) 0.21094(16) -0.00245(13)
H1 H 0.00930 0.22170 -0.02400
C3 C 0.10807(17) 0.20096(17) -0.02397(14)
H2 H 0.10850 0.20480 -0.05990
C4 C 0.16646(14) 0.18542(11) 0.00719(11)
C5 C 0.16295(17) 0.17916(13) 0.05843(12)
H3 H 0.20200 0.16790 0.08020
C6 C 0.10446(16) 0.18866(12) 0.07941(12)
H4 H 0.10370 0.18370 0.11520
C7 C 0.32311(16) 0.22784(12) -0.23825(11)
C8 C 0.37873(15) 0.22608(11) -0.20033(11)
H5 H 0.42260 0.23350 -0.20880
C9 C 0.37189(14) 0.21392(11) -0.15084(11)
H6 H 0.41100 0.21250 -0.12560
C10 C 0.30730(14) 0.20355(11) -0.13702(11)
C11 C 0.25065(15) 0.20760(13) -0.17538(12)
H7 H 0.20620 0.20280 -0.16670
C12 C 0.25861(16) 0.21830(12) -0.22471(12)
H8 H 0.21980 0.21930 -0.25040
C13 C 0.71768(14) 0.17052(10) 0.07369(11)
C14 C 0.70378(15) 0.13179(11) 0.10328(13)
H9 H 0.73780 0.12000 0.12920
C15 C 0.64012(15) 0.11049(11) 0.09476(13)
H10 H 0.63080 0.08410 0.11500
C16 C 0.58979(14) 0.1274(1) 0.05695(12)
C17 C 0.60591(15) 0.16476(10) 0.02621(11)
H11 H 0.57310 0.17540 -0.00120
C18 C 0.66961(14) 0.18686(10) 0.03494(11)
H12 H 0.67950 0.21290 0.01430
C19 C 0.41638(14) -0.10552(10) 0.09501(12)
C20 C 0.43488(14) -0.00998(10) 0.07131(12)
C21 C 0.3618(3) -0.0732(2) 0.0956(3)
H13 H 0.31900 -0.08390 0.10350
C22 C 0.3711(3) -0.0263(2) 0.0846(3)
H14 H 0.33480 -0.00450 0.08580
C23 C 0.4875(3) -0.0410(2) 0.0754(3)
H15 H 0.53170 -0.03050 0.07070
C24 C 0.4768(3) -0.0883(2) 0.0865(3)
H16 H 0.51430 -0.10950 0.08820
C25 C 0.29933(14) 0.18751(11) -0.08441(11)
C26 C 0.35158(15) 0.16143(11) -0.05617(11)
H17 H 0.39330 0.15720 -0.06960
C27 C 0.34374(14) 0.1414(1) -0.00840(11)
C28 C 0.28281(14) 0.14851(11) 0.01097(11)
H18 H 0.27620 0.13440 0.04280
C29 C 0.23066(14) 0.17628(11) -0.01582(11)
C30 C 0.23996(14) 0.19529(11) -0.06279(11)
H19 H 0.20490 0.21420 -0.08080
C31 C 0.44460(14) 0.03927(11) 0.05681(11)
C32 C 0.38913(14) 0.06765(11) 0.03508(12)
H20 H 0.34410 0.05540 0.03160
C33 C 0.40031(14) 0.1135(1) 0.01870(11)
C34 C 0.46485(14) 0.13188(10) 0.02557(11)
H21 H 0.47190 0.16320 0.01440
C35 C 0.52002(14) 0.10588(11) 0.04848(12)
C36 C 0.50939(14) 0.05998(11) 0.06282(12)
H22 H 0.54740 0.04170 0.07730
C37 C -0.01432(14) 0.21891(10) 0.07229(11)
C38 C 0.33036(19) 0.23723(12) -0.29365(13)
C39 C 0.78372(14) 0.19645(10) 0.08589(11)
C40 C 0.40731(15) -0.15637(11) 0.10550(11)
N1 N -0.30410(15) 0.31354(11) 0.09391(11)
H23 H -0.29160 0.33760 0.11680
H24 H -0.26890 0.29210 0.09620
C41 C -0.3172(2) 0.33259(14) 0.04137(15)
H25 H -0.27610 0.34840 0.03300
H26 H -0.35470 0.35530 0.03910
H27 H -0.32940 0.30680 0.01700
C42 C -0.3673(3) 0.2898(2) 0.1072(3)
H28 H -0.35830 0.27690 0.14210
H29 H -0.38040 0.26420 0.08270
H30 H -0.40440 0.31290 0.10540
C43? C -0.6330(4) -0.0820(2) 0.0623(3)
C44? C -0.6238(3) -0.0355(2) 0.0506(3)
C45? C -0.5142(3) -0.0355(2) 0.1016(3)
C46? C -0.5223(3) -0.0843(2) 0.1124(3)
H31? H -0.67320 -0.09800 0.04800
H32? H -0.65800 -0.01990 0.02780
H33? H -0.47320 -0.02000 0.11530
H34? H -0.48620 -0.10170 0.13120
In1G In 0.385810(9) 0.247820(6) -0.384290(7)
In1* In -0.114190(9) 0.252180(6) 0.115710(7)
In1B In 0.385810(9) -0.247820(6) 0.115710(7)
O1* O 0.98440(9) 0.21338(7) 0.12037(7)
O2* O 0.93477(10) 0.23737(8) 0.04448(7)
O3G O 0.89131(12) 0.25672(7) 0.19646(9)
O7B O 0.84815(11) 0.32539(7) 0.0994(1)
O8B O 0.95763(11) 0.31754(7) 0.11846(9)
C37* C 0.98568(14) 0.21891(10) 0.07229(11)
C40B C 0.90731(15) 0.34363(11) 0.10550(11)
#END
