
#######################################################################
#
#                 Cambridge Crystallographic Data Centre
#                                CCDC
#
#######################################################################
#
# If this CIF has been generated from an entry in the Cambridge
# Structural Database, then it will include bibliographic, chemical,
# crystal, experimental, refinement or atomic coordinate data resulting
# from the CCDC's data processing and validation procedures.
#
#######################################################################

data_CSD_CIF_GAZZIS03
_audit_creation_date 2012-08-03
_audit_creation_method CSD-ConQuest-V1
_database_code_CSD GAZZIS03
_database_code_depnum_ccdc_archive 'CCDC 789581'
_chemical_formula_sum 'C73.5 H52.5 In1.75 N1.75 O14'
_chemical_formula_moiety
;
(C40 H22 In1 O8 1-)1.75n,1.75n(C2 H8 N1 1+)
;
_journal_coden_Cambridge 771
_journal_volume 11
_journal_year 2012
_journal_page_first 710
_journal_name_full 'Nat.Mater '
loop_
_publ_author_name
"Sihai Yang"
"Xiang Lin"
"W.Lewis"
"M.Suyetin"
"E.Bichoutskaia"
"J.E.Parker"
"C.C.Tang"
"D.R.Allan"
"P.J.Rizkallah"
"P.Hubberstey"
"N.R.Champness"
"K.M.Thomas"
"A.J.Blake"
"M.Schroder"
_chemical_name_systematic
;
catena-(dimethylammonium 
(\m~4~-biphenyl-3,3',5,5'-tetrakis(4-carboxyphenyl))-tetra-indium)
;
_cell_volume  14838.151
_exptl_crystal_colour 'colorless'
_exptl_crystal_density_diffrn 0.62
_exptl_crystal_description 'tablet'
_diffrn_ambient_temperature 200
_diffrn_radiation_probe x-ray
_diffrn_source synchrotron
_refine_special_details
;
C20A,C21A,C23A,C24A and C20B,C21B,C23B,C24B disordered over two sites with 
occupancies 0.555:0.445; The SQUEEZE/PLATON program has been used to model 
some disorder.
;
#These two values have been output from a single CSD field.
_refine_ls_R_factor_gt 0.0487
_refine_ls_wR_factor_gt 0.0487
_symmetry_cell_setting monoclinic
_symmetry_space_group_name_H-M 'C 2/c'
_symmetry_Int_Tables_number 15
loop_
_symmetry_equiv_pos_site_id
_symmetry_equiv_pos_as_xyz
1 x,y,z
2 -x,y,1/2-z
3 1/2+x,1/2+y,z
4 1/2-x,1/2+y,1/2-z
5 -x,-y,-z
6 x,-y,-1/2+z
7 -1/2-x,-1/2-y,-z
8 -1/2+x,-1/2-y,-1/2+z
_cell_length_a 19.722(3)
_cell_length_b 28.524(5)
_cell_length_c 26.562(5)
_cell_angle_alpha 90
_cell_angle_beta 96.774(3)
_cell_angle_gamma 90
_cell_formula_units_Z 4
loop_
_atom_type_symbol
_atom_type_radius_bond
C 0.68
H 0.23
In 1.42
N 0.68
O 0.68
loop_
_atom_site_label
_atom_site_type_symbol
_atom_site_fract_x
_atom_site_fract_y
_atom_site_fract_z
In1 In 0.885840(9) 0.256380(7) 0.115180(7)
O1 O -0.01534(10) 0.21768(7) 0.11868(7)
O2 O -0.06473(11) 0.23925(8) 0.04441(8)
O3 O 0.39454(14) 0.23873(9) -0.30492(9)
O4 O 0.28375(15) 0.23089(11) -0.32675(9)
O5 O 0.83171(10) 0.18432(7) 0.11792(8)
O6 O 0.78844(10) 0.24032(7) 0.06784(8)
O7 O 0.34894(11) -0.17077(8) 0.09603(10)
O8 O 0.45816(12) -0.17853(8) 0.11506(11)
C1 C 0.04806(15) 0.20845(10) 0.04803(11)
C2 C 0.05099(18) 0.21310(16) -0.00258(13)
H1 H 0.01180 0.22400 -0.02360
C3 C 0.10954(17) 0.20244(17) -0.02440(14)
H2 H 0.10980 0.20540 -0.06000
C4 C 0.16791(15) 0.18739(11) 0.00580(11)
C5 C 0.16462(17) 0.18316(13) 0.05689(12)
H3 H 0.20400 0.17300 0.07820
C6 C 0.10592(17) 0.19319(13) 0.07835(13)
H4 H 0.10510 0.18970 0.11380
C7 C 0.32644(18) 0.22296(13) -0.23920(12)
C8 C 0.38240(16) 0.22207(12) -0.20231(12)
H5 H 0.42660 0.22890 -0.21120
C9 C 0.37425(16) 0.21130(12) -0.15304(12)
H6 H 0.41320 0.21070 -0.12830
C10 C 0.31029(15) 0.20130(11) -0.13844(11)
C11 C 0.25448(17) 0.20302(14) -0.17581(12)
H7 H 0.21010 0.19680 -0.16700
C12 C 0.26243(17) 0.21354(14) -0.22492(13)
H8 H 0.22350 0.21440 -0.24970
C13 C 0.71826(14) 0.1741(1) 0.07552(12)
C14 C 0.70251(16) 0.13626(12) 0.10458(13)
H9 H 0.73550 0.12470 0.13060
C15 C 0.63903(16) 0.11502(12) 0.09601(14)
H10 H 0.62860 0.08950 0.11680
C16 C 0.59068(15) 0.13044(10) 0.05762(12)
C17 C 0.60888(15) 0.16738(11) 0.02717(12)
H11 H 0.57720 0.17770 -0.00030
C18 C 0.67092(15) 0.18889(11) 0.03595(11)
H12 H 0.68170 0.21410 0.01490
C19 C 0.41701(15) -0.10212(11) 0.09151(12)
C20 C 0.43556(15) -0.00760(11) 0.06851(12)
C21 C 0.3616(3) -0.0706(2) 0.0901(3)
H13 H 0.31800 -0.08170 0.09660
C22 C 0.3705(3) -0.0230(2) 0.0793(2)
H14 H 0.33370 -0.00150 0.07920
C23 C 0.4881(3) -0.0379(2) 0.0712(3)
H15 H 0.53190 -0.02750 0.06440
C24 C 0.4783(3) -0.0842(2) 0.0839(3)
H16 H 0.51680 -0.10450 0.08740
C25 C 0.30229(15) 0.18661(11) -0.08593(11)
C26 C 0.35414(15) 0.16121(11) -0.05792(11)
H17 H 0.39600 0.15610 -0.07150
C27 C 0.34542(15) 0.14343(10) -0.01065(11)
C28 C 0.28396(14) 0.15077(10) 0.00942(11)
H18 H 0.27730 0.13740 0.04120
C29 C 0.23235(15) 0.17756(11) -0.01691(11)
C30 C 0.24228(15) 0.19511(12) -0.06436(11)
H19 H 0.20730 0.21340 -0.08260
C31 C 0.44526(15) 0.04247(10) 0.05478(11)
C32 C 0.39133(15) 0.06957(10) 0.03271(11)
H20 H 0.34650 0.05680 0.02830
C33 C 0.40205(14) 0.11511(11) 0.01700(11)
C34 C 0.46704(14) 0.13424(11) 0.02471(11)
H21 H 0.47430 0.16530 0.01370
C35 C 0.52171(15) 0.10872(11) 0.04828(12)
C36 C 0.51021(15) 0.06280(11) 0.06283(12)
H22 H 0.54730 0.04480 0.07860
C37 C -0.01390(15) 0.22219(10) 0.07133(11)
C38 C 0.3347(2) 0.23159(13) -0.29389(13)
C39 C 0.78359(15) 0.2000(1) 0.08751(11)
C40 C 0.40784(17) -0.15309(11) 0.10173(12)
N1 N -0.30503(19) 0.31668(13) 0.09310(14)
H23 H -0.29340 0.34170 0.11420
H24 H -0.26850 0.29640 0.09570
C41 C -0.3184(3) 0.33341(18) 0.04099(18)
H25 H -0.27780 0.34950 0.03160
H26 H -0.35700 0.35520 0.03810
H27 H -0.32930 0.30670 0.01820
C42 C -0.3653(4) 0.2924(3) 0.1099(3)
H28 H -0.35350 0.28040 0.14440
H29 H -0.37860 0.26620 0.08690
H30 H -0.40340 0.31450 0.10940
C43? C -0.6311(4) -0.0795(3) 0.0593(3)
C44? C -0.6211(4) -0.0333(2) 0.0468(3)
C45? C -0.5120(4) -0.0344(3) 0.0968(4)
C46? C -0.5208(4) -0.0805(3) 0.1112(3)
H31? H -0.67130 -0.09550 0.04550
H32? H -0.65370 -0.01840 0.02290
H33? H -0.46900 -0.01990 0.10630
H34? H -0.48700 -0.09680 0.13290
In1G In 0.385840(9) 0.243620(7) -0.384820(7)
In1* In -0.114160(9) 0.256380(7) 0.115180(7)
In1B In 0.385840(9) -0.243620(7) 0.115180(7)
O1* O 0.98466(10) 0.21768(7) 0.11868(7)
O2* O 0.93527(11) 0.23925(8) 0.04441(8)
O3G O 0.89454(14) 0.26127(9) 0.19508(9)
O7B O 0.84894(11) 0.32923(8) 0.09603(10)
O8B O 0.95816(12) 0.32147(8) 0.11506(11)
C37* C 0.98610(15) 0.22219(10) 0.07133(11)
C40B C 0.90784(17) 0.34691(11) 0.10173(12)
#END
