
#######################################################################
#
#                 Cambridge Crystallographic Data Centre
#                                CCDC
#
#######################################################################
#
# If this CIF has been generated from an entry in the Cambridge
# Structural Database, then it will include bibliographic, chemical,
# crystal, experimental, refinement or atomic coordinate data resulting
# from the CCDC's data processing and validation procedures.
#
#######################################################################

data_CSD_CIF_GAZZIS02
_audit_creation_date 2012-08-03
_audit_creation_method CSD-ConQuest-V1
_database_code_CSD GAZZIS02
_database_code_depnum_ccdc_archive 'CCDC 789580'
_chemical_formula_sum 'C73.5 H52.5 In1.75 N1.75 O14'
_chemical_formula_moiety
;
(C40 H22 In1 O8 1-)1.75n,1.75n(C2 H8 N1 1+)
;
_journal_coden_Cambridge 771
_journal_volume 11
_journal_year 2012
_journal_page_first 710
_journal_name_full 'Nat.Mater '
loop_
_publ_author_name
"Sihai Yang"
"Xiang Lin"
"W.Lewis"
"M.Suyetin"
"E.Bichoutskaia"
"J.E.Parker"
"C.C.Tang"
"D.R.Allan"
"P.J.Rizkallah"
"P.Hubberstey"
"N.R.Champness"
"K.M.Thomas"
"A.J.Blake"
"M.Schroder"
_chemical_name_systematic
;
catena-(dimethylammonium 
(\m~4~-biphenyl-3,3',5,5'-tetrakis(4-carboxyphenyl))-tetra-indium)
;
_cell_volume  14788.619
_exptl_crystal_colour 'colorless'
_exptl_crystal_density_diffrn 0.622
_exptl_crystal_description 'tablet'
_diffrn_ambient_temperature 180
_diffrn_radiation_probe x-ray
_diffrn_source synchrotron
_refine_special_details
;
C20A,C21A,C23A,C24A and C20B,C21B,C23B,C24B disordered over two sites with 
occupancies 0.535:0.465; The SQUEEZE/PLATON program has been used to model 
some disorder.
;
#These two values have been output from a single CSD field.
_refine_ls_R_factor_gt 0.0499
_refine_ls_wR_factor_gt 0.0499
_symmetry_cell_setting monoclinic
_symmetry_space_group_name_H-M 'C 2/c'
_symmetry_Int_Tables_number 15
loop_
_symmetry_equiv_pos_site_id
_symmetry_equiv_pos_as_xyz
1 x,y,z
2 -x,y,1/2-z
3 1/2+x,1/2+y,z
4 1/2-x,1/2+y,1/2-z
5 -x,-y,-z
6 x,-y,-1/2+z
7 -1/2-x,-1/2-y,-z
8 -1/2+x,-1/2-y,-1/2+z
_cell_length_a 19.787(3)
_cell_length_b 28.491(5)
_cell_length_c 26.443(5)
_cell_angle_alpha 90
_cell_angle_beta 97.234(2)
_cell_angle_gamma 90
_cell_formula_units_Z 4
loop_
_atom_type_symbol
_atom_type_radius_bond
C 0.68
H 0.23
In 1.42
N 0.68
O 0.68
loop_
_atom_site_label
_atom_site_type_symbol
_atom_site_fract_x
_atom_site_fract_y
_atom_site_fract_z
In1 In 0.88575(1) 0.254800(7) 0.115440(7)
O1 O -0.0157(1) 0.21627(7) 0.11951(7)
O2 O -0.06489(11) 0.23867(8) 0.04460(8)
O3 O 0.39247(14) 0.23996(9) -0.30442(9)
O4 O 0.28073(15) 0.23348(11) -0.32677(9)
O5 O 0.83204(10) 0.18273(7) 0.11751(8)
O6 O 0.7881(1) 0.23926(7) 0.06714(8)
O7 O 0.34869(12) -0.17229(8) 0.0974(1)
O8 O 0.45809(12) -0.18007(8) 0.11659(11)
C1 C 0.04751(15) 0.20700(11) 0.04900(11)
C2 C 0.04905(18) 0.21278(18) -0.00260(14)
H1 H 0.01000 0.22410 -0.02360
C3 C 0.10859(19) 0.20182(18) -0.02406(14)
H2 H 0.10900 0.20470 -0.05980
C4 C 0.16724(16) 0.18666(11) 0.00665(11)
C5 C 0.16298(18) 0.18122(14) 0.05744(12)
H3 H 0.20180 0.17010 0.07890
C6 C 0.10516(17) 0.19116(13) 0.07851(12)
H4 H 0.10470 0.18710 0.11410
C7 C 0.32385(17) 0.22435(12) -0.23881(11)
C8 C 0.37970(17) 0.22357(13) -0.20177(12)
H5 H 0.42350 0.23090 -0.21080
C9 C 0.37281(15) 0.21235(12) -0.15189(11)
H6 H 0.41190 0.21150 -0.12710
C10 C 0.30898(15) 0.20235(11) -0.13774(11)
C11 C 0.25223(18) 0.20454(14) -0.17508(13)
H7 H 0.20800 0.19880 -0.16600
C12 C 0.26007(18) 0.21492(14) -0.22498(13)
H8 H 0.22130 0.21560 -0.25010
C13 C 0.71792(15) 0.17267(11) 0.07497(12)
C14 C 0.70282(17) 0.13498(12) 0.10443(14)
H9 H 0.73610 0.12380 0.13070
C15 C 0.63959(17) 0.11334(12) 0.09601(14)
H10 H 0.62980 0.08760 0.11670
C16 C 0.59045(15) 0.12906(11) 0.05763(12)
C17 C 0.60733(15) 0.16652(11) 0.02689(12)
H11 H 0.57510 0.17700 -0.00040
C18 C 0.67000(15) 0.18820(11) 0.03581(11)
H12 H 0.68030 0.21380 0.01510
C19 C 0.41693(16) -0.10360(11) 0.09306(12)
C20 C 0.43527(16) -0.00858(11) 0.07007(13)
C21 C 0.3623(3) -0.0717(2) 0.0920(3)
H13 H 0.31860 -0.08280 0.09770
C22 C 0.3715(4) -0.0240(2) 0.0827(3)
H14 H 0.33550 -0.00230 0.08470
C23 C 0.4876(3) -0.0390(2) 0.0731(3)
H15 H 0.53130 -0.02840 0.06670
C24 C 0.4783(3) -0.0858(2) 0.0853(3)
H16 H 0.51650 -0.10620 0.08850
C25 C 0.30035(15) 0.18695(11) -0.08516(11)
C26 C 0.35255(16) 0.16108(11) -0.05679(11)
H17 H 0.39420 0.15620 -0.07040
C27 C 0.34461(15) 0.14257(11) -0.00953(11)
C28 C 0.28321(15) 0.15016(11) 0.01020(12)
H18 H 0.27670 0.13670 0.04210
C29 C 0.23120(15) 0.17715(11) -0.01622(12)
C30 C 0.24098(15) 0.19519(12) -0.06367(11)
H19 H 0.20600 0.21370 -0.08190
C31 C 0.44531(16) 0.04137(11) 0.05627(12)
C32 C 0.39067(15) 0.06887(11) 0.03413(12)
H20 H 0.34590 0.05620 0.03020
C33 C 0.40114(15) 0.11430(11) 0.01781(11)
C34 C 0.46588(15) 0.13312(11) 0.02540(11)
H21 H 0.47290 0.16430 0.01440
C35 C 0.52107(15) 0.10749(11) 0.04874(12)
C36 C 0.51010(16) 0.06162(11) 0.06338(13)
H22 H 0.54760 0.04350 0.07860
C37 C -0.01464(15) 0.22088(11) 0.07193(11)
C38 C 0.3316(2) 0.23347(13) -0.29384(13)
C39 C 0.78316(15) 0.19868(11) 0.08707(11)
C40 C 0.40784(17) -0.15441(11) 0.10325(12)
N1 N -0.30412(18) 0.31605(12) 0.09323(13)
H23 H -0.29250 0.34060 0.11530
H24 H -0.26840 0.29510 0.09600
C41 C -0.3170(3) 0.33375(17) 0.04071(17)
H25 H -0.27620 0.34970 0.03190
H26 H -0.35520 0.35590 0.03790
H27 H -0.32830 0.30740 0.01730
C42 C -0.3670(4) 0.2921(3) 0.1072(3)
H28 H -0.35780 0.27940 0.14180
H29 H -0.37990 0.26650 0.08320
H30 H -0.40440 0.31490 0.10570
C43? C -0.6314(4) -0.0803(2) 0.0599(3)
C44? C -0.6206(4) -0.0343(2) 0.0477(3)
C45? C -0.5129(4) -0.0346(2) 0.0995(3)
C46? C -0.5219(4) -0.0813(2) 0.1126(3)
H31? H -0.67180 -0.09590 0.04570
H32? H -0.65240 -0.01940 0.02290
H33? H -0.47070 -0.01970 0.11070
H34? H -0.48760 -0.09770 0.13400
In1G In 0.38575(1) 0.245200(7) -0.384560(7)
In1* In -0.11425(1) 0.254800(7) 0.115440(7)
In1B In 0.38575(1) -0.245200(7) 0.115440(7)
O1* O 0.9843(1) 0.21627(7) 0.11951(7)
O2* O 0.93511(11) 0.23867(8) 0.04460(8)
O3G O 0.89247(14) 0.26004(9) 0.19558(9)
O7B O 0.84869(12) 0.32771(8) 0.0974(1)
O8B O 0.95809(12) 0.31993(8) 0.11659(11)
C37* C 0.98536(15) 0.22088(11) 0.07193(11)
C40B C 0.90784(17) 0.34559(11) 0.10325(12)
#END
