
#######################################################################
#
#                 Cambridge Crystallographic Data Centre
#                                CCDC
#
#######################################################################
#
# If this CIF has been generated from an entry in the Cambridge
# Structural Database, then it will include bibliographic, chemical,
# crystal, experimental, refinement or atomic coordinate data resulting
# from the CCDC's data processing and validation procedures.
#
#######################################################################

data_CSD_CIF_GAZZIS01
_audit_creation_date 2012-08-03
_audit_creation_method CSD-ConQuest-V1
_database_code_CSD GAZZIS01
_database_code_depnum_ccdc_archive 'CCDC 789579'
_chemical_formula_sum 'C73.5 H52.5 In1.75 N1.75 O14'
_chemical_formula_moiety
;
(C40 H22 In1 O8 1-)1.75n,1.75n(C2 H8 N1 1+)
;
_journal_coden_Cambridge 771
_journal_volume 11
_journal_year 2012
_journal_page_first 710
_journal_name_full 'Nat.Mater '
loop_
_publ_author_name
"Sihai Yang"
"Xiang Lin"
"W.Lewis"
"M.Suyetin"
"E.Bichoutskaia"
"J.E.Parker"
"C.C.Tang"
"D.R.Allan"
"P.J.Rizkallah"
"P.Hubberstey"
"N.R.Champness"
"K.M.Thomas"
"A.J.Blake"
"M.Schroder"
_chemical_name_systematic
;
catena-(dimethylammonium 
(\m~4~-biphenyl-3,3',5,5'-tetrakis(4-carboxyphenyl))-tetra-indium)
;
_cell_volume  14680.220
_exptl_crystal_colour 'colorless'
_exptl_crystal_density_diffrn 0.627
_exptl_crystal_description 'tablet'
_diffrn_ambient_temperature 150
_diffrn_radiation_probe x-ray
_diffrn_source synchrotron
_refine_special_details
;
C20B,C21B,C23B,C24B and C20A,C21A,C23A,C24A disordered over two sites with 
occupancies 0.510:0.490; The SQUEEZE/PLATON program has been used to model 
some disorder.
;
#These two values have been output from a single CSD field.
_refine_ls_R_factor_gt 0.0499
_refine_ls_wR_factor_gt 0.0499
_symmetry_cell_setting monoclinic
_symmetry_space_group_name_H-M 'C 2/c'
_symmetry_Int_Tables_number 15
loop_
_symmetry_equiv_pos_site_id
_symmetry_equiv_pos_as_xyz
1 x,y,z
2 -x,y,1/2-z
3 1/2+x,1/2+y,z
4 1/2-x,1/2+y,1/2-z
5 -x,-y,-z
6 x,-y,-1/2+z
7 -1/2-x,-1/2-y,-z
8 -1/2+x,-1/2-y,-1/2+z
_cell_length_a 19.812(6)
_cell_length_b 28.409(8)
_cell_length_c 26.330(8)
_cell_angle_alpha 90
_cell_angle_beta 97.863(4)
_cell_angle_gamma 90
_cell_formula_units_Z 4
loop_
_atom_type_symbol
_atom_type_radius_bond
C 0.68
H 0.23
In 1.42
N 0.68
O 0.68
loop_
_atom_site_label
_atom_site_type_symbol
_atom_site_fract_x
_atom_site_fract_y
_atom_site_fract_z
In1 In 0.885670(9) 0.253030(6) 0.115830(7)
O1 O -0.01585(9) 0.21414(7) 0.12039(7)
O2 O -0.06499(10) 0.23806(8) 0.04469(8)
O3 O 0.39092(13) 0.24219(8) -0.30375(9)
O4 O 0.27883(14) 0.23607(10) -0.32666(9)
O5 O 0.83231(10) 0.18074(7) 0.11692(8)
O6 O 0.78827(10) 0.23777(7) 0.06664(7)
O7 O 0.34838(11) -0.17374(7) 0.09846(10)
O8 O 0.45768(11) -0.18151(8) 0.11903(10)
C1 C 0.04721(14) 0.20602(10) 0.04941(11)
C2 C 0.04944(17) 0.21188(17) -0.00203(14)
H1 H 0.01020 0.22310 -0.02340
C3 C 0.10809(18) 0.20167(18) -0.02365(14)
H2 H 0.10840 0.20560 -0.05940
C4 C 0.16662(14) 0.18561(11) 0.00728(11)
C5 C 0.16271(17) 0.17943(14) 0.05819(13)
H3 H 0.20160 0.16800 0.07980
C6 C 0.10478(17) 0.18902(13) 0.07943(13)
H4 H 0.10420 0.18390 0.11500
C7 C 0.32221(17) 0.22641(12) -0.23854(11)
C8 C 0.37859(16) 0.22522(12) -0.20029(12)
H5 H 0.42240 0.23300 -0.20850
C9 C 0.37126(15) 0.21295(11) -0.15104(11)
H6 H 0.41040 0.21140 -0.12580
C10 C 0.30736(15) 0.20276(11) -0.13734(11)
C11 C 0.25124(17) 0.20593(13) -0.17510(12)
H7 H 0.20700 0.20010 -0.16640
C12 C 0.25845(17) 0.21731(13) -0.22466(12)
H8 H 0.21930 0.21900 -0.24980
C13 C 0.71743(14) 0.17152(10) 0.07446(12)
C14 C 0.70369(15) 0.13254(12) 0.10368(13)
H9 H 0.73770 0.12070 0.12940
C15 C 0.63993(15) 0.11105(11) 0.09499(13)
H10 H 0.63040 0.08480 0.11510
C16 C 0.58995(14) 0.12792(10) 0.05688(12)
C17 C 0.60599(14) 0.16533(10) 0.02660(12)
H11 H 0.57320 0.17610 -0.00060
C18 C 0.66910(14) 0.1872(1) 0.03547(11)
H12 H 0.67900 0.21300 0.01470
C19 C 0.41634(15) -0.10516(10) 0.09436(12)
C20 C 0.43486(15) -0.0099(1) 0.07064(12)
C21 C 0.3666(3) -0.0817(2) 0.0605(3)
H13 H 0.32640 -0.09760 0.04580
C22 C 0.3773(3) -0.0352(2) 0.0489(2)
H14 H 0.34420 -0.01970 0.02510
C23 C 0.4864(3) -0.0357(2) 0.1018(3)
H15 H 0.52780 -0.02050 0.11470
C24 C 0.4778(3) -0.0818(2) 0.1136(3)
H16 H 0.51280 -0.09820 0.13470
C25 C 0.29958(14) 0.18683(11) -0.08439(11)
C26 C 0.35165(15) 0.16091(11) -0.05632(11)
H17 H 0.39320 0.15620 -0.06990
C27 C 0.34393(14) 0.14166(10) -0.00842(11)
C28 C 0.28263(15) 0.14898(11) 0.01135(11)
H18 H 0.27630 0.13520 0.04320
C29 C 0.23062(15) 0.17634(11) -0.01531(11)
C30 C 0.24012(15) 0.19544(11) -0.06304(11)
H19 H 0.20550 0.21450 -0.08110
C31 C 0.44480(15) 0.03979(11) 0.05665(12)
C32 C 0.39010(14) 0.06775(11) 0.03504(12)
H20 H 0.34520 0.05530 0.03150
C33 C 0.40032(14) 0.1133(1) 0.01879(11)
C34 C 0.46512(14) 0.13224(10) 0.02563(11)
H21 H 0.47200 0.16340 0.01440
C35 C 0.52018(14) 0.10640(11) 0.04856(12)
C36 C 0.50975(15) 0.05986(11) 0.06318(12)
H22 H 0.54760 0.04160 0.07780
C37 C -0.01419(14) 0.21933(10) 0.07245(11)
C38 C 0.3298(2) 0.23555(12) -0.29369(13)
C39 C 0.78373(14) 0.19722(10) 0.08624(11)
C40 C 0.40752(16) -0.15582(11) 0.10491(12)
N1 N -0.30413(16) 0.31457(11) 0.09384(12)
H23 H -0.29270 0.33890 0.11640
H24 H -0.26840 0.29360 0.09680
C41 C -0.3172(2) 0.33305(15) 0.04064(15)
H25 H -0.27620 0.34890 0.03220
H26 H -0.35500 0.35550 0.03790
H27 H -0.32890 0.30690 0.01670
C42 C -0.3687(3) 0.2898(3) 0.1067(3)
H28 H -0.36010 0.27680 0.14150
H29 H -0.38110 0.26420 0.08220
H30 H -0.40620 0.31250 0.10470
C43? C -0.6381(4) -0.0724(2) 0.0947(3)
C44? C -0.6292(3) -0.0255(2) 0.0846(3)
C45? C -0.5128(3) -0.0400(2) 0.0754(3)
C46? C -0.5234(3) -0.0878(2) 0.0878(3)
H31? H -0.68110 -0.08320 0.10210
H32? H -0.66500 -0.00370 0.08680
H33? H -0.46860 -0.02950 0.07060
H34? H -0.48540 -0.10850 0.09160
In1G In 0.385670(9) 0.246970(6) -0.384170(7)
In1* In -0.114330(9) 0.253030(6) 0.115830(7)
In1B In 0.385670(9) -0.246970(6) 0.115830(7)
O1* O 0.98415(9) 0.21414(7) 0.12039(7)
O2* O 0.93501(10) 0.23806(8) 0.04469(8)
O3G O 0.89092(13) 0.25781(8) 0.19625(9)
O7B O 0.84838(11) 0.32626(7) 0.09846(10)
O8B O 0.95768(11) 0.31849(8) 0.11903(10)
C37* C 0.98581(14) 0.21933(10) 0.07245(11)
C40B C 0.90752(16) 0.34418(11) 0.10491(12)
#END
