
#######################################################################
#
#                 Cambridge Crystallographic Data Centre
#                                CCDC
#
#######################################################################
#
# If this CIF has been generated from an entry in the Cambridge
# Structural Database, then it will include bibliographic, chemical,
# crystal, experimental, refinement or atomic coordinate data resulting
# from the CCDC's data processing and validation procedures.
#
#######################################################################

data_CSD_CIF_GECRAI
_audit_creation_date 2006-07-13
_audit_creation_method CSD-ConQuest-V1
_database_code_CSD GECRAI
_database_code_depnum_ccdc_archive 'CCDC 273113'
_chemical_formula_sum 'C8 H35 N2 O23.5 P4 V4'
_chemical_formula_moiety
;
(C2 H10 N2 2+)n,n(C6 H14 O18 P4 V4 2-),5.5n(H2 O1)
;
_journal_coden_Cambridge 9
_journal_volume 45
_journal_year 2006
_journal_page_first 3224
_journal_name_full 'Inorg.Chem. '
loop_
_publ_author_name
"W.Ouellette"
"Ming Hui Yu"
"C.J.O'Connor"
"J.Zubieta"
_chemical_name_systematic
;
catena-(Ethane-1,2-diammonium 
bis(\m~6~-propane-1,3-diphosphonato)-bis(\m~2~-hydroxo)-tetraoxo-tetra-vanadiu
m hydrate)
;
_cell_volume   2771.312
_exptl_crystal_colour 'blue'
_exptl_crystal_density_diffrn 2.068
_exptl_crystal_description 'rod'
_diffrn_ambient_temperature 90
_refine_special_details
;
The cation is disordered over two sites with occupancies of 0.732:0.268.

;
#These two values have been output from a single CSD field.
_refine_ls_R_factor_gt 0.0423
_refine_ls_wR_factor_gt 0.0423
_symmetry_cell_setting monoclinic
_symmetry_space_group_name_H-M 'C 2/c'
_symmetry_Int_Tables_number 15
loop_
_symmetry_equiv_pos_site_id
_symmetry_equiv_pos_as_xyz
1 x,y,z
2 1/2+x,1/2+y,z
3 -x,y,1/2-z
4 1/2-x,1/2+y,1/2-z
5 -x,-y,-z
6 -1/2-x,-1/2-y,-z
7 x,-y,-1/2+z
8 -1/2+x,-1/2-y,-1/2+z
_cell_length_a 14.5794(11)
_cell_length_b 10.2424(8)
_cell_length_c 18.7815(14)
_cell_angle_alpha 90
_cell_angle_beta 98.837(1)
_cell_angle_gamma 90
_cell_formula_units_Z 4
loop_
_atom_type_symbol
_atom_type_radius_bond
C 0.68
H 0.23
N 0.68
O 0.68
P 1.05
V 1.30
loop_
_atom_site_label
_atom_site_type_symbol
_atom_site_fract_x
_atom_site_fract_y
_atom_site_fract_z
V1 V 0.15469(3) 0.62181(4) 0.08849(2)
V2 V 0.22975(4) 0.56336(5) 0.28294(2)
P1 P 0.66015(5) 0.83944(6) 0.17148(3)
P2 P 0.28201(5) 0.88091(6) 0.07392(3)
O1 O 0.19108(13) 0.80720(18) 0.07557(10)
O2 O 0.29155(16) 0.92290(19) -0.00276(10)
O3 O 0.04484(16) 0.6341(2) 0.06918(14)
O4 O 0.1936(2) 0.6558(2) 0.19040(12)
O5 O 0.67126(14) 0.93479(18) 0.11024(10)
O6 O 0.65681(15) 0.91020(19) 0.24249(10)
O7 O 0.33253(17) 0.5100(2) 0.27584(13)
O8 O 0.73854(14) 0.73995(18) 0.1756(1)
O9 O 0.28529(14) 1.00492(17) 0.11925(10)
O10 O 0.0803(2) 0.6500(3) 0.30017(17)
O11 O 0.0083(2) 0.9200(3) 0.05864(19)
O12 O 0.0479(6) 0.9134(6) 0.3081(4)
N1 N 0.1337(3) 0.6924(3) 0.46749(19)
H1 H 0.07930 0.73580 0.45460
H2 H 0.12730 0.63390 0.50290
H3 H 0.14900 0.64930 0.42860
N2? N 0.1616(7) 0.8431(9) 0.4308(5)
H4? H 0.15810 0.78700 0.39300
H5? H 0.19550 0.91440 0.42210
H6? H 0.10340 0.86860 0.43660
C1 C 0.55125(18) 0.7560(2) 0.14771(14)
H7 H 0.55630 0.69470 0.10770
H8 H 0.53860 0.70390 0.18950
C2 C 0.37743(19) 0.7756(2) 0.10803(14)
H9 H 0.36400 0.73230 0.15240
H10 H 0.38320 0.70670 0.07200
C3 C 0.46957(19) 0.8485(3) 0.12485(14)
H11 H 0.46580 0.91210 0.16400
H12 H 0.48060 0.89780 0.08160
C4 C 0.2038(2) 0.7815(4) 0.49273(18)
H13 H 0.18970 0.82240 0.53760
H14 H 0.20510 0.85140 0.45650
H15 H 0.205(3) 0.706(5) 0.196(3)
V1E V 0.34531(3) 0.87819(4) -0.08849(2)
V1A V 0.65469(3) 1.12181(4) 0.08849(2)
V1D V -0.15469(3) 0.37819(4) -0.08849(2)
V2A V 0.72975(4) 1.06336(5) 0.28294(2)
V2B V 0.77025(4) 0.56336(5) 0.21706(2)
V2C V 0.27025(4) 1.06336(5) 0.21706(2)
V2D V -0.22975(4) 0.43664(5) -0.28294(2)
V2G V -0.27025(4) 0.93664(5) -0.21706(2)
V2F V 0.22975(4) 0.43664(5) -0.21706(2)
P1E P -0.16015(5) 0.66056(6) -0.17148(3)
P2E P 0.21799(5) 0.61909(6) -0.07392(3)
O1E O 0.30892(13) 0.69280(18) -0.07557(10)
O2E O 0.20845(16) 0.57710(19) 0.00276(10)
O3E O 0.45516(16) 0.8659(2) -0.06918(14)
O4E O 0.3064(2) 0.8442(2) -0.19040(12)
O4A O 0.6936(2) 1.1558(2) 0.19040(12)
O5E O -0.17126(14) 0.56521(18) -0.11024(10)
O5A O 0.17126(14) 0.43479(18) 0.11024(10)
O5D O 0.32874(14) 1.06521(18) -0.11024(10)
O6E O -0.15681(15) 0.58980(19) -0.24249(10)
O6A O 0.15681(15) 0.41020(19) 0.24249(10)
O7A O 0.83253(17) 1.0100(2) 0.27584(13)
O8E O -0.23854(14) 0.76005(18) -0.1756(1)
O8B O 0.26146(14) 0.73995(18) 0.3244(1)
O8C O 0.76146(14) 1.23995(18) 0.3244(1)
O9E O 0.21471(14) 0.49508(17) -0.11925(10)
O9C O 0.21471(14) 0.50492(17) 0.38075(10)
O9B O 0.71471(14) 1.00492(17) 0.38075(10)
N1E N 0.3663(3) 0.8076(3) 0.53251(19)
H1E H 0.42070 0.76420 0.54540
H2E H 0.37270 0.86610 0.49710
H3E H 0.35100 0.85070 0.57140
C1E C -0.05125(18) 0.7440(2) -0.14771(14)
H7E H -0.05630 0.80530 -0.10770
H8E H -0.03860 0.79610 -0.18950
C2E C 0.12257(19) 0.7244(2) -0.10803(14)
H9E H 0.13600 0.76770 -0.15240
H10E H 0.11680 0.79330 -0.07200
C3E C 0.03043(19) 0.6515(3) -0.12485(14)
H11E H 0.03420 0.58790 -0.16400
H12E H 0.01940 0.60220 -0.08160
C4E C 0.2962(2) 0.7185(4) 0.50727(18)
H13E H 0.31030 0.67760 0.46240
H14E H 0.29490 0.64860 0.54350
H15E H 0.295(3) 0.794(5) -0.196(3)
H15A H 0.705(3) 1.206(5) 0.196(3)
#END
