
#######################################################################
#
#                 Cambridge Crystallographic Data Centre
#                                CCDC
#
#######################################################################
#
# If this CIF has been generated from an entry in the Cambridge
# Structural Database, then it will include bibliographic, chemical,
# crystal, experimental, refinement or atomic coordinate data resulting
# from the CCDC's data processing and validation procedures.
#
#######################################################################

data_CSD_CIF_GEFTET
_audit_creation_date 2017-08-03
_audit_creation_method CSD-ConQuest-V1
_database_code_CSD GEFTET
_database_code_depnum_ccdc_archive 'CCDC 1546167'
_chemical_formula_sum 'C58 H74 N8 O20 Zn3'
_chemical_formula_moiety
;
2(C2 H8 N1 1+),n(C42 H26 N2 O14 Zn3 2-),4(C3 H7 N1 O1),2(H2 O1)
;
_journal_coden_Cambridge 9
_journal_volume 56
_journal_year 2017
_journal_page_first 9765
_journal_name_full 'Inorg.Chem. '
loop_
_publ_author_name
"A.Verma"
"Dinesh De"
"K.Tomar"
"P.K.Bharadwaj"
_chemical_name_systematic
;
catena-[bis(Dimethylammonium) 
(\m-oxo)-bis(\m-2'-amino-1,1':3':1''-terphenyl-4,5',4''-tricarboxylato)-aqua-t
ri-zinc(ii) N,N-dimethylformamide solvate dihydrate]
;
_cell_volume   6006.121
_exptl_crystal_description 'block'
_diffrn_ambient_temperature 273.1
_refine_special_details
;
The MASK/OLEX2 program has been used to model disordered anion and solvent 
molecules.
;
#These two values have been output from a single CSD field.
_refine_ls_R_factor_gt 0.0674
_refine_ls_wR_factor_gt 0.0674
_symmetry_cell_setting monoclinic
_symmetry_space_group_name_H-M 'P 21/c'
_symmetry_Int_Tables_number 14
loop_
_symmetry_equiv_pos_site_id
_symmetry_equiv_pos_as_xyz
1 x,y,z
2 -x,1/2+y,1/2-z
3 -x,-y,-z
4 x,-1/2-y,-1/2+z
_cell_length_a 13.6154(10)
_cell_length_b 22.7304(17)
_cell_length_c 19.5742(14)
_cell_angle_alpha 90
_cell_angle_beta 97.496(2)
_cell_angle_gamma 90
_cell_formula_units_Z 4
loop_
_atom_type_symbol
_atom_type_radius_bond
C 0.68
H 0.23
N 0.68
O 0.68
Zn 1.22
loop_
_atom_site_label
_atom_site_type_symbol
_atom_site_fract_x
_atom_site_fract_y
_atom_site_fract_z
C1 C 0.5463(3) 0.7035(3) 0.1836(3)
C2 C 0.7400(4) 0.6278(3) 0.1874(3)
H1 H 0.70527 0.62689 0.14322
C3 C 0.8433(4) 0.6294(3) 0.3177(3)
H2 H 0.87753 0.62907 0.36209
C4 C 0.4420(3) 0.3892(2) 0.2170(3)
C5 C 0.7164(4) 0.3863(2) 0.2024(3)
C6 C 0.4341(3) 0.2647(2) 0.0884(3)
C7 C 0.3678(3) 0.1719(2) -0.0011(3)
C8 C 0.3762(4) 0.4158(2) 0.2638(3)
C9 C 0.3313(3) 0.8506(2) 0.0300(3)
C10 C 0.4090(3) 0.3439(2) 0.1715(3)
H3 H 0.34235 0.33358 0.16639
C11 C 0.5833(3) 0.6597(2) 0.2296(3)
C12 C 0.4333(4) 0.8184(2) 0.1321(3)
H4 H 0.47883 0.82758 0.17027
C13 C 0.2945(4) 0.7932(3) 0.0217(3)
H5 H 0.24530 0.78477 -0.01456
C14 C 0.3797(4) 0.6798(2) 0.2050(3)
H6 H 0.31165 0.68547 0.19591
C15 C 0.3998(4) 0.8623(3) 0.0868(3)
H7 H 0.42347 0.90045 0.09448
C16 C 0.3160(4) 0.2242(2) -0.0014(3)
H8 H 0.25817 0.22850 -0.03195
C17 C 0.4014(3) 0.7611(2) 0.1227(3)
C18 C 0.8390(4) 0.6120(3) 0.1972(3)
H9 H 0.87035 0.60069 0.15984
C19 C 0.3529(4) 0.6028(2) 0.2938(3)
C20 C 0.9190(4) 0.4052(3) 0.2392(3)
C21 C 0.9994(4) 0.5975(3) 0.2713(4)
C22 C 0.4413(4) 0.7137(2) 0.1711(3)
C23 C 0.3372(3) 0.1245(2) -0.0502(3)
C24 C 0.4526(3) 0.1655(2) 0.0475(3)
H10 H 0.48738 0.13019 0.05039
C25 C 0.7624(4) 0.4340(3) 0.1763(4)
H11 H 0.72580 0.45975 0.14606
C26 C 0.6917(4) 0.6450(2) 0.2421(3)
C27 C 1.0268(4) 0.4167(3) 0.2613(4)
C28 C 0.3471(3) 0.2701(2) 0.0418(3)
H12 H 0.31045 0.30473 0.04015
C29 C 0.6074(4) 0.3756(2) 0.1868(3)
C30 C 0.4159(3) 0.6375(2) 0.2523(3)
C31 C 0.4719(4) 0.3142(2) 0.1341(3)
C32 C 0.4843(4) 0.2112(2) 0.0907(3)
H13 H 0.54086 0.20627 0.12238
C33 C 0.3296(4) 0.7494(3) 0.0661(3)
H14 H 0.30571 0.71126 0.05870
C34 C 0.8635(4) 0.4437(3) 0.1952(4)
H15 H 0.89367 0.47626 0.17804
C35 C 0.8913(4) 0.6132(3) 0.2630(3)
C36 C 0.3014(4) 0.8965(2) -0.0226(3)
C37 C 0.5427(4) 0.4040(2) 0.2241(3)
H16 H 0.56628 0.43367 0.25457
C38 C 0.5742(3) 0.3306(2) 0.1407(3)
C39 C 0.7439(4) 0.6464(2) 0.3076(3)
H17 H 0.71285 0.65856 0.34477
C40 C 0.5180(4) 0.6276(2) 0.2644(3)
H18 H 0.54278 0.59908 0.29613
C41 C 0.8734(4) 0.3576(3) 0.2637(3)
H19 H 0.91040 0.33148 0.29335
C42 C 0.7730(4) 0.3474(3) 0.2453(3)
H20 H 0.74363 0.31427 0.26174
N1 N 0.6082(3) 0.7351(2) 0.1486(3)
H21 H 0.67085 0.72808 0.15487
H22 H 0.58484 0.76203 0.12026
N2 N 0.6384(3) 0.3039(2) 0.1026(2)
H23 H 0.69946 0.31471 0.10683
H24 H 0.61794 0.27625 0.07424
O1 O 0.3802(2) 0.07459(15) -0.04152(18)
O2 O 0.3930(2) 0.57363(15) 0.34211(19)
O3 O 0.2213(2) 0.49261(14) 0.37048(18)
O4 O 0.5280(2) 0.50831(15) 0.42791(18)
H25 H 0.55999 0.51159 0.39315
H26 H 0.54986 0.47833 0.45178
O5 O 0.3503(2) 0.94370(16) -0.02031(18)
O6 O 1.0405(3) 0.59065(18) 0.3334(2)
O7 O 0.4129(2) 0.44881(16) 0.31070(19)
O8 O 0.2584(2) 0.60653(18) 0.2764(2)
O9 O 0.2852(2) 0.40062(17) 0.25227(18)
O10 O 0.2714(2) 0.13633(16) -0.10029(19)
O11 O 1.0701(3) 0.38308(19) 0.3092(2)
O12 O 0.2294(2) 0.88383(16) -0.0685(2)
O13 O 1.0418(3) 0.5934(2) 0.2193(3)
O14 O 1.0700(3) 0.4563(2) 0.2355(3)
Zn1 Zn 0.20377(4) 0.41547(3) 0.32473(3)
Zn2 Zn 0.18019(4) 0.57348(3) 0.34484(3)
Zn3 Zn 0.37535(4) 0.49790(3) 0.39351(3)
O1C O 0.3802(2) 0.42541(15) 0.45848(18)
O5C O 0.3503(2) 0.55630(16) 0.47969(18)
O6* O 0.0405(3) 0.59065(18) 0.3334(2)
O10C O 0.2714(2) 0.36367(16) 0.39971(19)
O11* O 0.0701(3) 0.38308(19) 0.3092(2)
O12C O 0.2294(2) 0.61617(16) 0.4315(2)
O14* O 0.0700(3) 0.4563(2) 0.2355(3)
Zn1* Zn 1.20377(4) 0.41547(3) 0.32473(3)
Zn1C Zn 0.20377(4) 0.08453(3) -0.17527(3)
Zn2* Zn 1.18019(4) 0.57348(3) 0.34484(3)
Zn2C Zn 0.18019(4) 0.92652(3) -0.15516(3)
Zn3C Zn 0.37535(4) 0.00210(3) -0.10649(3)
Zn3C* Zn 0.37535(4) 1.00210(3) -0.10649(3)
#END
