
#######################################################################
#
#                 Cambridge Crystallographic Data Centre
#                                CCDC
#
#######################################################################
#
# If this CIF has been generated from an entry in the Cambridge
# Structural Database, then it will include bibliographic, chemical,
# crystal, experimental, refinement or atomic coordinate data resulting
# from the CCDC's data processing and validation procedures.
#
#######################################################################

data_CSD_CIF_GEGGEG01
_audit_creation_date 2015-06-19
_audit_creation_method CSD-ConQuest-V1
_database_code_CSD GEGGEG01
_database_code_depnum_ccdc_archive 'CCDC 1059844'
_chemical_formula_sum 'C18 H19 Co2 N1 O11'
_chemical_formula_moiety
;
(C16 H11 Co2 O11 1-)n,C2 H8 N1 1+
;
_journal_coden_Cambridge 222
_journal_volume 44
_journal_year 2015
_journal_page_first 12711
_journal_name_full 'Dalton Trans. '
loop_
_publ_author_name
"Xin Cui"
"Mei-Chen Xu"
"Ling-Juan Zhang"
"Ru-Xin Yao"
"Xian-Ming Zhang"
_chemical_name_systematic
;
catena-[dimethylammonium 
(\m~7~-biphenyl-3,3',4,4'-tetracarboxylato)-(\m~3~-hydroxo)-diaqua-di-cobalt]
;
_cell_volume   2021.775
_exptl_crystal_colour 'red'
_exptl_crystal_density_diffrn 1.775
_exptl_crystal_description 'plate'
_diffrn_ambient_temperature 298
#These two values have been output from a single CSD field.
_refine_ls_R_factor_gt 0.0299
_refine_ls_wR_factor_gt 0.0299
_symmetry_cell_setting monoclinic
_symmetry_space_group_name_H-M 'P 21/c'
_symmetry_Int_Tables_number 14
loop_
_symmetry_equiv_pos_site_id
_symmetry_equiv_pos_as_xyz
1 x,y,z
2 -x,1/2+y,1/2-z
3 -x,-y,-z
4 x,-1/2-y,-1/2+z
_cell_length_a 13.5820(4)
_cell_length_b 10.8173(3)
_cell_length_c 14.7037(5)
_cell_angle_alpha 90
_cell_angle_beta 110.628(1)
_cell_angle_gamma 90
_cell_formula_units_Z 4
loop_
_atom_type_symbol
_atom_type_radius_bond
C 0.68
H 0.23
Co 1.26
N 0.68
O 0.68
loop_
_atom_site_label
_atom_site_type_symbol
_atom_site_fract_x
_atom_site_fract_y
_atom_site_fract_z
Co1 Co 0.40941(2) 0.90254(3) 0.461141(19)
Co2 Co 0.50410(2) 1.01046(3) 0.292346(19)
O1 O 0.30172(12) 1.03083(14) 0.37160(11)
O2 O 0.49724(15) 0.73387(18) 0.54080(13)
H1 H 0.45450 0.67300 0.53320
H2 H 0.52550 0.75000 0.60170
O3 O 0.38877(12) 1.13630(14) 0.29235(12)
O4 O 0.48134(14) 1.09614(18) 0.15192(12)
H3 H 0.54020 1.12420 0.15070
H4 H 0.43750 1.15660 0.14220
O5 O 0.38447(13) 1.40418(15) 0.23928(13)
O6 O 0.31142(13) 1.28408(18) 0.10944(12)
O7 O -0.36636(11) 1.27725(14) 0.15496(10)
O8 O -0.37018(11) 1.39602(14) 0.27882(11)
O9 O -0.37858(12) 1.14716(16) 0.34224(11)
O10 O -0.28447(12) 1.15317(16) 0.50142(11)
O11 O 0.53886(10) 0.95816(13) 0.43238(10)
C1 C 0.31113(15) 1.11726(19) 0.31921(15)
C2 C 0.22301(16) 1.2096(2) 0.28510(15)
C3 C 0.13865(16) 1.1959(2) 0.31731(16)
H5 H 0.13880 1.13010 0.35800
C4 C 0.05419(16) 1.2777(2) 0.29054(16)
C5 C 0.05648(18) 1.3757(2) 0.22964(19)
H6 H 0.00120 1.43190 0.21060
C6 C 0.14014(18) 1.3906(2) 0.19701(19)
H7 H 0.13990 1.45670 0.15650
C7 C 0.22444(16) 1.3082(2) 0.22402(16)
C8 C 0.31480(16) 1.3317(2) 0.18789(17)
C9 C -0.03455(16) 1.2588(2) 0.32628(16)
C10 C -0.13718(16) 1.2938(2) 0.26968(16)
H8 H -0.14970 1.33280 0.21030
C11 C -0.22048(15) 1.27067(19) 0.30137(14)
C12 C -0.20311(16) 1.20917(19) 0.38915(15)
C13 C -0.10104(16) 1.1787(2) 0.44720(15)
H9 H -0.08850 1.14160 0.50730
C14 C -0.01772(16) 1.2030(2) 0.41637(16)
H10 H 0.05030 1.18200 0.45600
C15 C -0.32856(15) 1.31693(19) 0.24067(15)
C16 C -0.29655(16) 1.16676(19) 0.41314(15)
N1 N 0.2516(2) 0.0383(3) 0.05511(19)
H11 H 0.28910 -0.00850 0.10620
H12 H 0.27170 0.11740 0.06950
C17 C 0.1404(3) 0.0275(4) 0.0417(3)
H13 H 0.09980 0.07810 -0.01210
H14 H 0.12930 0.05430 0.09960
H15 H 0.11880 -0.05720 0.02860
C18 C 0.2772(4) -0.0002(4) -0.0319(3)
H16 H 0.24110 0.05280 -0.08580
H17 H 0.25530 -0.08410 -0.04840
H18 H 0.35170 0.00620 -0.01740
Co1A Co -0.40941(2) 1.40254(3) 0.038859(19)
Co1B Co -0.40941(2) 1.09746(3) 0.538859(19)
Co1B* Co 0.59059(2) 1.09746(3) 0.538859(19)
Co2* Co -0.49590(2) 1.01046(3) 0.292346(19)
Co2A Co -0.50410(2) 1.51046(3) 0.207654(19)
Co2A* Co 0.49590(2) 1.51046(3) 0.207654(19)
O5A O 0.61553(13) 0.90418(15) 0.26072(13)
O7A O 0.36636(11) 0.77725(14) 0.34504(10)
O8A O 0.37018(11) 0.89602(14) 0.22118(11)
O9* O 0.62142(12) 1.14716(16) 0.34224(11)
O10B O 0.28447(12) 0.84683(16) 0.49858(11)
O11B O 0.46114(10) 1.04184(13) 0.56762(10)
#END
