
#######################################################################
#
#                 Cambridge Crystallographic Data Centre
#                                CCDC
#
#######################################################################
#
# If this CIF has been generated from an entry in the Cambridge
# Structural Database, then it will include bibliographic, chemical,
# crystal, experimental, refinement or atomic coordinate data resulting
# from the CCDC's data processing and validation procedures.
#
#######################################################################

data_CSD_CIF_GEGPIU03
_audit_creation_date 2017-08-04
_audit_creation_method CSD-ConQuest-V1
_database_code_CSD GEGPIU03
_database_code_depnum_ccdc_archive 'CCDC 1566832'
_chemical_formula_sum 'C11 H13 Eu1 N1 O7 P1'
_chemical_formula_moiety
;
(C9 H5 Eu1 O7 P1 1-)n,C2 H8 N1 1+
;
_journal_coden_Cambridge 4
_journal_volume 139
_journal_year 2017
_journal_page_first 3505
_journal_name_full 'J.Am.Chem.Soc. '
loop_
_publ_author_name
"Yong-Sheng Wei"
"Xiao-Peng Hu"
"Zhen Han"
"Xi-Yan Dong"
"Shuang-Quan Zang"
"T.C.W.Mak"
_chemical_name_systematic
;
catena-[dimethylammonium (\m-5-(phosphonatomethyl)isophthalato)-europium]
;
_cell_volume   1428.054
_exptl_crystal_colour 'colorless'
_exptl_crystal_density_diffrn 2.112
_exptl_crystal_description 'block'
_diffrn_ambient_temperature 300
#These two values have been output from a single CSD field.
_refine_ls_R_factor_gt 0.018
_refine_ls_wR_factor_gt 0.018
_symmetry_cell_setting monoclinic
_symmetry_space_group_name_H-M 'P 21/c'
_symmetry_Int_Tables_number 14
loop_
_symmetry_equiv_pos_site_id
_symmetry_equiv_pos_as_xyz
1 x,y,z
2 -x,1/2+y,1/2-z
3 -x,-y,-z
4 x,-1/2-y,-1/2+z
_cell_length_a 10.05167(13)
_cell_length_b 15.26933(15)
_cell_length_c 9.30469(8)
_cell_angle_alpha 90
_cell_angle_beta 90.4838(10)
_cell_angle_gamma 90
_cell_formula_units_Z 4
loop_
_atom_type_symbol
_atom_type_radius_bond
C 0.68
H 0.23
Eu 1.98
N 0.68
O 0.68
P 1.05
loop_
_atom_site_label
_atom_site_type_symbol
_atom_site_fract_x
_atom_site_fract_y
_atom_site_fract_z
Eu1 Eu 1.09432(2) 0.66296(2) 0.50744(2)
O1 O 0.94936(16) 0.6423(1) 0.70416(14)
O2 O 0.99361(17) 0.72043(9) 0.89932(16)
O3 O 0.93802(16) 0.58532(10) 1.37579(15)
O4 O 0.81722(15) 0.46506(9) 1.39725(14)
O5 O 0.77594(17) 0.25892(10) 0.87676(18)
O6 O 0.74963(15) 0.35565(10) 0.65851(15)
O7 O 0.55757(15) 0.26351(9) 0.74202(15)
P1 P 0.68223(4) 0.31411(3) 0.78664(4)
C1 C 0.94595(16) 0.65454(10) 0.83734(17)
C2 C 0.87901(16) 0.58751(10) 0.93010(16)
C3 C 0.90167(16) 0.58888(10) 1.07848(16)
H1 H 0.95810 0.63060 1.11880
C4 C 0.83944(16) 0.52763(10) 1.16535(16)
C5 C 0.75165(17) 0.46673(10) 1.10488(17)
H2 H 0.71030 0.42600 1.16380
C6 C 0.72512(17) 0.46615(10) 0.95751(17)
C7 C 0.79261(16) 0.52579(10) 0.87012(17)
H3 H 0.77970 0.52430 0.77110
C8 C 0.62262(17) 0.40377(12) 0.89720(19)
H4 H 0.55960 0.43750 0.84040
H5 H 0.57420 0.37890 0.97710
C9 C 0.86747(16) 0.52591(10) 1.32394(16)
N1 N 0.45041(18) 0.30451(12) 0.4816(2)
H6 H 0.494(3) 0.283(2) 0.399(3)
H7 H 0.492(3) 0.292(2) 0.557(3)
C10 C 0.4540(4) 0.4004(2) 0.4692(4)
H8 H 0.54480 0.41980 0.46710
H9 H 0.41010 0.42610 0.55020
H10 H 0.40940 0.41800 0.38220
C11 C 0.3170(3) 0.2675(3) 0.4940(4)
H11 H 0.26270 0.28740 0.41520
H12 H 0.27830 0.28600 0.58300
H13 H 0.32230 0.20470 0.49200
Eu1* Eu 1.09432(2) 0.66296(2) 1.50744(2)
Eu1A Eu 0.90568(2) 0.16296(2) 0.99256(2)
Eu1B Eu 0.90568(2) 0.33704(2) 0.49256(2)
Eu1B* Eu 0.90568(2) 0.33704(2) 1.49256(2)
Eu1C Eu 1.09432(2) 0.83704(2) 1.00744(2)
O2C O 0.99361(17) 0.77957(9) 0.39932(16)
O3* O 0.93802(16) 0.58532(10) 0.37579(15)
O4B O 1.18278(15) 0.53494(9) 0.60275(14)
O5A O 1.22406(17) 0.75892(10) 0.62324(18)
O6B O 1.25037(15) 0.64435(10) 0.34149(15)
#END
