
#######################################################################
#
#                 Cambridge Crystallographic Data Centre
#                                CCDC
#
#######################################################################
#
# If this CIF has been generated from an entry in the Cambridge
# Structural Database, then it will include bibliographic, chemical,
# crystal, experimental, refinement or atomic coordinate data resulting
# from the CCDC's data processing and validation procedures.
#
#######################################################################

data_CSD_CIF_GEGPIU
_audit_creation_date 2017-08-04
_audit_creation_method CSD-ConQuest-V1
_database_code_CSD GEGPIU
_database_code_depnum_ccdc_archive 'CCDC 1566829'
_chemical_formula_sum 'C11 H13 Eu1 N1 O7 P1'
_chemical_formula_moiety
;
(C9 H5 Eu1 O7 P1 1-)n,C2 H8 N1 1+
;
_journal_coden_Cambridge 4
_journal_volume 139
_journal_year 2017
_journal_page_first 3505
_journal_name_full 'J.Am.Chem.Soc. '
loop_
_publ_author_name
"Yong-Sheng Wei"
"Xiao-Peng Hu"
"Zhen Han"
"Xi-Yan Dong"
"Shuang-Quan Zang"
"T.C.W.Mak"
_chemical_name_systematic
;
catena-[dimethylammonium (\m-5-(phosphonatomethyl)isophthalato)-europium]
;
_cell_volume   1422.691
_exptl_crystal_colour 'colorless'
_exptl_crystal_density_diffrn 2.12
_exptl_crystal_description 'block'
_diffrn_ambient_temperature 200
#These two values have been output from a single CSD field.
_refine_ls_R_factor_gt 0.0196
_refine_ls_wR_factor_gt 0.0196
_symmetry_cell_setting monoclinic
_symmetry_space_group_name_H-M 'P 21/c'
_symmetry_Int_Tables_number 14
loop_
_symmetry_equiv_pos_site_id
_symmetry_equiv_pos_as_xyz
1 x,y,z
2 -x,1/2+y,1/2-z
3 -x,-y,-z
4 x,-1/2-y,-1/2+z
_cell_length_a 10.00475(13)
_cell_length_b 15.27561(14)
_cell_length_c 9.30907(8)
_cell_angle_alpha 90
_cell_angle_beta 90.0894(10)
_cell_angle_gamma 90
_cell_formula_units_Z 4
loop_
_atom_type_symbol
_atom_type_radius_bond
C 0.68
H 0.23
Eu 1.98
N 0.68
O 0.68
P 1.05
loop_
_atom_site_label
_atom_site_type_symbol
_atom_site_fract_x
_atom_site_fract_y
_atom_site_fract_z
Eu1 Eu 1.09390(2) 0.66302(2) 0.50645(2)
O1 O 0.94808(16) 0.64209(10) 0.70377(14)
O2 O 0.99273(16) 0.72042(9) 0.89890(16)
O3 O 0.93832(16) 0.58461(10) 1.37561(15)
O4 O 0.81621(15) 0.46433(9) 1.39811(15)
O5 O 0.77619(17) 0.25911(10) 0.87855(18)
O6 O 0.74829(15) 0.35557(10) 0.65994(15)
O7 O 0.55674(15) 0.26224(9) 0.74505(15)
P1 P 0.68108(4) 0.31377(3) 0.78873(4)
C1 C 0.94478(17) 0.65426(10) 0.83753(18)
C2 C 0.87758(17) 0.58711(10) 0.93042(17)
C3 C 0.90073(17) 0.58833(10) 1.07882(17)
H1 H 0.95870 0.63090 1.11960
C4 C 0.83829(16) 0.52686(10) 1.16598(17)
C5 C 0.74981(17) 0.46607(11) 1.10644(18)
H2 H 0.70730 0.42450 1.16690
C6 C 0.72301(17) 0.46561(11) 0.95917(18)
C7 C 0.79056(17) 0.52546(11) 0.87107(17)
H3 H 0.77700 0.52400 0.77010
C8 C 0.61992(18) 0.40316(12) 0.89956(19)
H4 H 0.55530 0.43750 0.84190
H5 H 0.57020 0.37760 0.98130
C9 C 0.86685(16) 0.5252(1) 1.32437(17)
N1 N 0.45029(18) 0.30512(12) 0.4861(2)
H6 H 0.495(3) 0.286(2) 0.402(4)
H7 H 0.493(3) 0.290(2) 0.562(4)
C10 C 0.4553(3) 0.40133(18) 0.4772(4)
H8 H 0.54860 0.42040 0.47070
H9 H 0.41420 0.42670 0.56320
H10 H 0.40650 0.42090 0.39170
C11 C 0.3146(3) 0.2695(2) 0.4984(4)
H11 H 0.25960 0.29150 0.41900
H12 H 0.27540 0.28790 0.59000
H13 H 0.31810 0.20550 0.49440
Eu1* Eu 1.09390(2) 0.66302(2) 1.50645(2)
Eu1A Eu 0.90610(2) 0.16302(2) 0.99355(2)
Eu1B Eu 0.90610(2) 0.33698(2) 0.49355(2)
Eu1B* Eu 0.90610(2) 0.33698(2) 1.49355(2)
Eu1C Eu 1.09390(2) 0.83698(2) 1.00645(2)
O2C O 0.99273(16) 0.77958(9) 0.39890(16)
O3* O 0.93832(16) 0.58461(10) 0.37561(15)
O4B O 1.18379(15) 0.53567(9) 0.60189(15)
O5A O 1.22381(17) 0.75911(10) 0.62145(18)
O6B O 1.25171(15) 0.64443(10) 0.34006(15)
#END
