
#######################################################################
#
#                 Cambridge Crystallographic Data Centre
#                                CCDC
#
#######################################################################
#
# If this CIF has been generated from an entry in the Cambridge
# Structural Database, then it will include bibliographic, chemical,
# crystal, experimental, refinement or atomic coordinate data resulting
# from the CCDC's data processing and validation procedures.
#
#######################################################################

data_CSD_CIF_GEGPIU06
_audit_creation_date 2017-08-04
_audit_creation_method CSD-ConQuest-V1
_database_code_CSD GEGPIU06
_database_code_depnum_ccdc_archive 'CCDC 1566836'
_chemical_formula_sum 'C11 H13 Eu1 N1 O7 P1'
_chemical_formula_moiety
;
(C9 H5 Eu1 O7 P1 1-)n,C2 H8 N1 1+
;
_journal_coden_Cambridge 4
_journal_volume 139
_journal_year 2017
_journal_page_first 3505
_journal_name_full 'J.Am.Chem.Soc. '
loop_
_publ_author_name
"Yong-Sheng Wei"
"Xiao-Peng Hu"
"Zhen Han"
"Xi-Yan Dong"
"Shuang-Quan Zang"
"T.C.W.Mak"
_chemical_name_systematic
;
catena-[dimethylammonium (\m-5-(phosphonatomethyl)isophthalato)-europium]
;
_cell_volume   1436.706
_exptl_crystal_colour 'colorless'
_exptl_crystal_density_diffrn 2.1
_exptl_crystal_description 'block'
_diffrn_ambient_temperature 450
#These two values have been output from a single CSD field.
_refine_ls_R_factor_gt 0.0213
_refine_ls_wR_factor_gt 0.0213
_symmetry_cell_setting monoclinic
_symmetry_space_group_name_H-M 'P 21/c'
_symmetry_Int_Tables_number 14
loop_
_symmetry_equiv_pos_site_id
_symmetry_equiv_pos_as_xyz
1 x,y,z
2 -x,1/2+y,1/2-z
3 -x,-y,-z
4 x,-1/2-y,-1/2+z
_cell_length_a 10.1111(2)
_cell_length_b 15.2927(2)
_cell_length_c 9.29223(14)
_cell_angle_alpha 90
_cell_angle_beta 90.7228(17)
_cell_angle_gamma 90
_cell_formula_units_Z 4
loop_
_atom_type_symbol
_atom_type_radius_bond
C 0.68
H 0.23
Eu 1.98
N 0.68
O 0.68
P 1.05
loop_
_atom_site_label
_atom_site_type_symbol
_atom_site_fract_x
_atom_site_fract_y
_atom_site_fract_z
Eu1 Eu 1.09320(2) 0.66316(2) 0.50809(2)
O1 O 0.9489(2) 0.64333(13) 0.70489(18)
O2 O 0.9923(2) 0.72075(11) 0.9001(2)
O3 O 0.9370(2) 0.58571(12) 1.37637(19)
O4 O 0.81956(19) 0.4651(1) 1.39668(18)
O5 O 0.7767(2) 0.25851(13) 0.8758(2)
O6 O 0.7521(2) 0.35511(12) 0.6582(2)
O7 O 0.56061(19) 0.26418(12) 0.7400(2)
P1 P 0.68481(5) 0.31386(3) 0.78540(5)
C1 C 0.9451(2) 0.65523(12) 0.8376(2)
C2 C 0.8790(2) 0.58803(11) 0.93010(19)
C3 C 0.9011(2) 0.58951(12) 1.0785(2)
H1 H 0.95650 0.63150 1.11920
C4 C 0.8398(2) 0.52790(11) 1.16539(19)
C5 C 0.7536(2) 0.46694(13) 1.1041(2)
H2 H 0.71290 0.42600 1.16290
C6 C 0.7272(2) 0.46607(12) 0.9568(2)
C7 C 0.7940(2) 0.52597(12) 0.8696(2)
H3 H 0.78140 0.52430 0.77030
C8 C 0.6260(2) 0.40357(14) 0.8959(2)
H4 H 0.56320 0.43720 0.83870
H5 H 0.57790 0.37870 0.97570
C9 C 0.8685(2) 0.52611(12) 1.3241(2)
N1 N 0.4521(2) 0.30462(17) 0.4785(3)
H6 H 0.504(4) 0.281(2) 0.389(4)
H7 H 0.496(4) 0.289(3) 0.555(4)
C10 C 0.4522(7) 0.3992(3) 0.4633(7)
H8 H 0.54170 0.42020 0.46470
H9 H 0.40470 0.42500 0.54140
H10 H 0.41030 0.41500 0.37370
C11 C 0.3213(4) 0.2655(4) 0.4912(6)
H11 H 0.26480 0.28680 0.41510
H12 H 0.28450 0.28090 0.58250
H13 H 0.32850 0.20310 0.48430
Eu1* Eu 1.09320(2) 0.66316(2) 1.50809(2)
Eu1A Eu 0.90680(2) 0.16316(2) 0.99191(2)
Eu1B Eu 0.90680(2) 0.33684(2) 0.49191(2)
Eu1B* Eu 0.90680(2) 0.33684(2) 1.49191(2)
Eu1C Eu 1.09320(2) 0.83684(2) 1.00809(2)
O2C O 0.9923(2) 0.77925(11) 0.4001(2)
O3* O 0.9370(2) 0.58571(12) 0.37637(19)
O4B O 1.18044(19) 0.5349(1) 0.60332(18)
O5A O 1.2233(2) 0.75851(13) 0.6242(2)
O6B O 1.2479(2) 0.64489(12) 0.3418(2)
#END
