
#######################################################################
#
#                 Cambridge Crystallographic Data Centre
#                                CCDC
#
#######################################################################
#
# If this CIF has been generated from an entry in the Cambridge
# Structural Database, then it will include bibliographic, chemical,
# crystal, experimental, refinement or atomic coordinate data resulting
# from the CCDC's data processing and validation procedures.
#
#######################################################################

data_CSD_CIF_GEGPIU07
_audit_creation_date 2017-08-04
_audit_creation_method CSD-ConQuest-V1
_database_code_CSD GEGPIU07
_database_code_depnum_ccdc_archive 'CCDC 1566837'
_chemical_formula_sum 'C11 H13 Eu1 N1 O7 P1'
_chemical_formula_moiety
;
(C9 H5 Eu1 O7 P1 1-)n,C2 H8 N1 1+
;
_journal_coden_Cambridge 4
_journal_volume 139
_journal_year 2017
_journal_page_first 3505
_journal_name_full 'J.Am.Chem.Soc. '
loop_
_publ_author_name
"Yong-Sheng Wei"
"Xiao-Peng Hu"
"Zhen Han"
"Xi-Yan Dong"
"Shuang-Quan Zang"
"T.C.W.Mak"
_chemical_name_systematic
;
catena-[dimethylammonium (\m-5-(phosphonatomethyl)isophthalato)-europium]
;
_cell_volume   1439.471
_exptl_crystal_colour 'colorless'
_exptl_crystal_density_diffrn 2.096
_exptl_crystal_description 'block'
_diffrn_ambient_temperature 500.0
#These two values have been output from a single CSD field.
_refine_ls_R_factor_gt 0.0233
_refine_ls_wR_factor_gt 0.0233
_symmetry_cell_setting monoclinic
_symmetry_space_group_name_H-M 'P 21/c'
_symmetry_Int_Tables_number 14
loop_
_symmetry_equiv_pos_site_id
_symmetry_equiv_pos_as_xyz
1 x,y,z
2 -x,1/2+y,1/2-z
3 -x,-y,-z
4 x,-1/2-y,-1/2+z
_cell_length_a 10.1309(3)
_cell_length_b 15.2963(3)
_cell_length_c 9.28963(18)
_cell_angle_alpha 90
_cell_angle_beta 90.673(2)
_cell_angle_gamma 90
_cell_formula_units_Z 4
loop_
_atom_type_symbol
_atom_type_radius_bond
C 0.68
H 0.23
Eu 1.98
N 0.68
O 0.68
P 1.05
loop_
_atom_site_label
_atom_site_type_symbol
_atom_site_fract_x
_atom_site_fract_y
_atom_site_fract_z
Eu1 Eu 1.09267(2) 0.66325(2) 0.50808(2)
O1 O 0.9481(2) 0.64375(15) 0.7047(2)
O2 O 0.9913(3) 0.72090(13) 0.9001(2)
O3 O 0.9369(2) 0.58557(14) 1.3764(2)
O4 O 0.8203(2) 0.46500(12) 1.3967(2)
O5 O 0.7775(3) 0.25828(15) 0.8761(3)
O6 O 0.7533(2) 0.35483(14) 0.6583(2)
O7 O 0.5623(2) 0.26414(14) 0.7402(2)
P1 P 0.68593(6) 0.31371(4) 0.78549(6)
C1 C 0.9449(2) 0.65548(13) 0.8376(2)
C2 C 0.8785(2) 0.58825(13) 0.9300(2)
C3 C 0.9009(2) 0.58956(13) 1.0786(2)
H1 H 0.95620 0.63150 1.11940
C4 C 0.8402(2) 0.52795(13) 1.1652(2)
C5 C 0.7545(2) 0.46681(14) 1.1043(2)
H2 H 0.71430 0.42570 1.16310
C6 C 0.7278(2) 0.46596(14) 0.9565(2)
C7 C 0.7942(2) 0.52591(14) 0.8697(2)
H3 H 0.78200 0.52410 0.77030
C8 C 0.6270(2) 0.40356(16) 0.8957(3)
H4 H 0.56440 0.43710 0.83840
H5 H 0.57880 0.37880 0.97560
C9 C 0.8687(2) 0.52602(13) 1.3239(2)
N1 N 0.4526(3) 0.3044(2) 0.4784(3)
H6 H 0.503(4) 0.281(3) 0.383(5)
H7 H 0.493(4) 0.287(3) 0.560(5)
C10 C 0.4524(8) 0.3989(3) 0.4622(9)
H8 H 0.54160 0.42020 0.46610
H9 H 0.40280 0.42480 0.53850
H10 H 0.41290 0.41420 0.37120
C11 C 0.3227(5) 0.2650(5) 0.4903(8)
H11 H 0.26910 0.28200 0.40920
H12 H 0.28210 0.28450 0.57750
H13 H 0.33130 0.20250 0.49220
Eu1* Eu 1.09267(2) 0.66325(2) 1.50808(2)
Eu1A Eu 0.90733(2) 0.16325(2) 0.99192(2)
Eu1B Eu 0.90733(2) 0.33675(2) 0.49192(2)
Eu1B* Eu 0.90733(2) 0.33675(2) 1.49192(2)
Eu1C Eu 1.09267(2) 0.83675(2) 1.00808(2)
O2C O 0.9913(3) 0.77910(13) 0.4001(2)
O3* O 0.9369(2) 0.58557(14) 0.3764(2)
O4B O 1.1797(2) 0.53500(12) 0.6033(2)
O5A O 1.2225(3) 0.75828(15) 0.6239(3)
O6B O 1.2467(2) 0.64517(14) 0.3417(2)
#END
