
#######################################################################
#
#                 Cambridge Crystallographic Data Centre
#                                CCDC
#
#######################################################################
#
# If this CIF has been generated from an entry in the Cambridge
# Structural Database, then it will include bibliographic, chemical,
# crystal, experimental, refinement or atomic coordinate data resulting
# from the CCDC's data processing and validation procedures.
#
#######################################################################

data_CSD_CIF_GEGPIU04
_audit_creation_date 2017-08-04
_audit_creation_method CSD-ConQuest-V1
_database_code_CSD GEGPIU04
_database_code_depnum_ccdc_archive 'CCDC 1566834'
_chemical_formula_sum 'C11 H13 Eu1 N1 O7 P1'
_chemical_formula_moiety
;
(C9 H5 Eu1 O7 P1 1-)n,C2 H8 N1 1+
;
_journal_coden_Cambridge 4
_journal_volume 139
_journal_year 2017
_journal_page_first 3505
_journal_name_full 'J.Am.Chem.Soc. '
loop_
_publ_author_name
"Yong-Sheng Wei"
"Xiao-Peng Hu"
"Zhen Han"
"Xi-Yan Dong"
"Shuang-Quan Zang"
"T.C.W.Mak"
_chemical_name_systematic
;
catena-[dimethylammonium (\m-5-(phosphonatomethyl)isophthalato)-europium]
;
_cell_volume   1434.340
_exptl_crystal_colour 'colorless'
_exptl_crystal_density_diffrn 2.103
_exptl_crystal_description 'block'
_diffrn_ambient_temperature 400.0
#These two values have been output from a single CSD field.
_refine_ls_R_factor_gt 0.0197
_refine_ls_wR_factor_gt 0.0197
_symmetry_cell_setting monoclinic
_symmetry_space_group_name_H-M 'P 21/c'
_symmetry_Int_Tables_number 14
loop_
_symmetry_equiv_pos_site_id
_symmetry_equiv_pos_as_xyz
1 x,y,z
2 -x,1/2+y,1/2-z
3 -x,-y,-z
4 x,-1/2-y,-1/2+z
_cell_length_a 10.09162(18)
_cell_length_b 15.28212(18)
_cell_length_c 9.30120(12)
_cell_angle_alpha 90
_cell_angle_beta 90.6880(14)
_cell_angle_gamma 90
_cell_formula_units_Z 4
loop_
_atom_type_symbol
_atom_type_radius_bond
C 0.68
H 0.23
Eu 1.98
N 0.68
O 0.68
P 1.05
loop_
_atom_site_label
_atom_site_type_symbol
_atom_site_fract_x
_atom_site_fract_y
_atom_site_fract_z
Eu1 Eu 1.09369(2) 0.66307(2) 0.50795(2)
O1 O 0.94904(19) 0.64280(12) 0.70472(16)
O2 O 0.9926(2) 0.72055(10) 0.89974(18)
O3 O 0.93745(19) 0.58561(11) 1.37619(17)
O4 O 0.81859(17) 0.46509(10) 1.39686(16)
O5 O 0.7764(2) 0.25857(12) 0.8759(2)
O6 O 0.75135(18) 0.35505(11) 0.65818(18)
O7 O 0.55956(17) 0.26400(11) 0.74068(18)
P1 P 0.68379(5) 0.31397(3) 0.78562(5)
C1 C 0.94552(19) 0.65490(11) 0.83779(19)
C2 C 0.87919(18) 0.58775(11) 0.93016(18)
C3 C 0.90156(19) 0.58915(11) 1.07829(18)
H1 H 0.95760 0.63100 1.11880
C4 C 0.83979(18) 0.52784(11) 1.16534(18)
C5 C 0.75284(19) 0.46687(12) 1.1044(2)
H2 H 0.71180 0.42610 1.16320
C6 C 0.72647(19) 0.46606(11) 0.95683(19)
C7 C 0.79377(19) 0.52597(12) 0.86990(19)
H3 H 0.78120 0.52440 0.77070
C8 C 0.6247(2) 0.40367(13) 0.8960(2)
H4 H 0.56190 0.43740 0.83890
H5 H 0.57640 0.37880 0.97570
C9 C 0.86808(18) 0.52603(11) 1.32397(18)
N1 N 0.4513(2) 0.30434(15) 0.4793(2)
H6 H 0.499(3) 0.281(2) 0.399(4)
H7 H 0.492(3) 0.291(2) 0.561(4)
C10 C 0.4524(6) 0.3996(2) 0.4654(6)
H8 H 0.54240 0.42000 0.46370
H9 H 0.40770 0.42530 0.54560
H10 H 0.40790 0.41610 0.37770
C11 C 0.3200(4) 0.2660(4) 0.4919(6)
H11 H 0.26530 0.28500 0.41280
H12 H 0.28120 0.28440 0.58060
H13 H 0.32700 0.20340 0.49060
Eu1* Eu 1.09369(2) 0.66307(2) 1.50795(2)
Eu1A Eu 0.90631(2) 0.16307(2) 0.99205(2)
Eu1B Eu 0.90631(2) 0.33693(2) 0.49205(2)
Eu1B* Eu 0.90631(2) 0.33693(2) 1.49205(2)
Eu1C Eu 1.09369(2) 0.83693(2) 1.00795(2)
O2C O 0.9926(2) 0.77945(10) 0.39974(18)
O3* O 0.93745(19) 0.58561(11) 0.37619(17)
O4B O 1.18141(17) 0.53491(10) 0.60314(16)
O5A O 1.2236(2) 0.75857(12) 0.6241(2)
O6B O 1.24865(18) 0.64495(11) 0.34182(18)
#END
