
#######################################################################
#
#                 Cambridge Crystallographic Data Centre
#                                CCDC
#
#######################################################################
#
# If this CIF has been generated from an entry in the Cambridge
# Structural Database, then it will include bibliographic, chemical,
# crystal, experimental, refinement or atomic coordinate data resulting
# from the CCDC's data processing and validation procedures.
#
#######################################################################

data_CSD_CIF_GEGPIU05
_audit_creation_date 2017-08-04
_audit_creation_method CSD-ConQuest-V1
_database_code_CSD GEGPIU05
_database_code_depnum_ccdc_archive 'CCDC 1566835'
_chemical_formula_sum 'C11 H13 Eu1 N1 O7 P1'
_chemical_formula_moiety
;
(C9 H5 Eu1 O7 P1 1-)n,C2 H8 N1 1+
;
_journal_coden_Cambridge 4
_journal_volume 139
_journal_year 2017
_journal_page_first 3505
_journal_name_full 'J.Am.Chem.Soc. '
loop_
_publ_author_name
"Yong-Sheng Wei"
"Xiao-Peng Hu"
"Zhen Han"
"Xi-Yan Dong"
"Shuang-Quan Zang"
"T.C.W.Mak"
_chemical_name_systematic
;
catena-[dimethylammonium (\m-5-(phosphonatomethyl)isophthalato)-europium]
;
_cell_volume   1436.301
_exptl_crystal_colour 'colorless'
_exptl_crystal_density_diffrn 2.1
_exptl_crystal_description 'block'
_diffrn_ambient_temperature 450
#These two values have been output from a single CSD field.
_refine_ls_R_factor_gt 0.0225
_refine_ls_wR_factor_gt 0.0225
_symmetry_cell_setting monoclinic
_symmetry_space_group_name_H-M 'P 21/c'
_symmetry_Int_Tables_number 14
loop_
_symmetry_equiv_pos_site_id
_symmetry_equiv_pos_as_xyz
1 x,y,z
2 -x,1/2+y,1/2-z
3 -x,-y,-z
4 x,-1/2-y,-1/2+z
_cell_length_a 10.1126(2)
_cell_length_b 15.2907(2)
_cell_length_c 9.28926(14)
_cell_angle_alpha 90
_cell_angle_beta 90.6238(17)
_cell_angle_gamma 90
_cell_formula_units_Z 4
loop_
_atom_type_symbol
_atom_type_radius_bond
C 0.68
H 0.23
Eu 1.98
N 0.68
O 0.68
P 1.05
loop_
_atom_site_label
_atom_site_type_symbol
_atom_site_fract_x
_atom_site_fract_y
_atom_site_fract_z
Eu1 Eu 1.09308(2) 0.66318(2) 0.50791(2)
O1 O 0.9486(2) 0.64327(14) 0.70467(19)
O2 O 0.9921(2) 0.72071(12) 0.8997(2)
O3 O 0.9374(2) 0.58560(14) 1.3763(2)
O4 O 0.8196(2) 0.46502(11) 1.39677(19)
O5 O 0.7770(2) 0.25856(15) 0.8763(3)
O6 O 0.7523(2) 0.35493(13) 0.6582(2)
O7 O 0.5611(2) 0.26387(13) 0.7407(2)
P1 P 0.68490(6) 0.31376(3) 0.78582(6)
C1 C 0.9452(2) 0.65517(13) 0.8375(2)
C2 C 0.8788(2) 0.58801(13) 0.9299(2)
C3 C 0.9011(2) 0.58941(13) 1.0786(2)
H1 H 0.95660 0.63140 1.11930
C4 C 0.8402(2) 0.52786(13) 1.1650(2)
C5 C 0.7535(2) 0.46675(14) 1.1043(2)
H2 H 0.71280 0.42580 1.16320
C6 C 0.7269(2) 0.46614(13) 0.9569(2)
C7 C 0.7938(2) 0.52601(14) 0.8697(2)
H3 H 0.78130 0.52430 0.77040
C8 C 0.6258(2) 0.40341(16) 0.8961(3)
H4 H 0.56300 0.43690 0.83880
H5 H 0.57760 0.37850 0.97600
C9 C 0.8683(2) 0.52609(13) 1.3237(2)
N1 N 0.4517(3) 0.30458(19) 0.4793(3)
H6 H 0.500(4) 0.283(3) 0.387(5)
H7 H 0.492(4) 0.292(3) 0.557(5)
C10 C 0.4520(7) 0.3996(3) 0.4649(8)
H8 H 0.54140 0.42060 0.46860
H9 H 0.40270 0.42500 0.54210
H10 H 0.41210 0.41560 0.37440
C11 C 0.3207(5) 0.2657(5) 0.4917(7)
H11 H 0.26500 0.28640 0.41460
H12 H 0.28310 0.28190 0.58230
H13 H 0.32780 0.20320 0.48640
Eu1* Eu 1.09308(2) 0.66318(2) 1.50791(2)
Eu1A Eu 0.90692(2) 0.16318(2) 0.99209(2)
Eu1B Eu 0.90692(2) 0.33682(2) 0.49209(2)
Eu1B* Eu 0.90692(2) 0.33682(2) 1.49209(2)
Eu1C Eu 1.09308(2) 0.83682(2) 1.00791(2)
O2C O 0.9921(2) 0.77929(12) 0.3997(2)
O3* O 0.9374(2) 0.58560(14) 0.3763(2)
O4B O 1.1804(2) 0.53498(11) 0.60323(19)
O5A O 1.2230(2) 0.75856(15) 0.6237(3)
O6B O 1.2477(2) 0.64507(13) 0.3418(2)
#END
