
#######################################################################
#
#                 Cambridge Crystallographic Data Centre
#                                CCDC
#
#######################################################################
#
# If this CIF has been generated from an entry in the Cambridge
# Structural Database, then it will include bibliographic, chemical,
# crystal, experimental, refinement or atomic coordinate data resulting
# from the CCDC's data processing and validation procedures.
#
#######################################################################

data_CSD_CIF_GEGPIU01
_audit_creation_date 2017-08-04
_audit_creation_method CSD-ConQuest-V1
_database_code_CSD GEGPIU01
_database_code_depnum_ccdc_archive 'CCDC 1566830'
_chemical_formula_sum 'C11 H13 Eu1 N1 O7 P1'
_chemical_formula_moiety
;
(C9 H5 Eu1 O7 P1 1-)n,C2 H8 N1 1+
;
_journal_coden_Cambridge 4
_journal_volume 139
_journal_year 2017
_journal_page_first 3505
_journal_name_full 'J.Am.Chem.Soc. '
loop_
_publ_author_name
"Yong-Sheng Wei"
"Xiao-Peng Hu"
"Zhen Han"
"Xi-Yan Dong"
"Shuang-Quan Zang"
"T.C.W.Mak"
_chemical_name_systematic
;
catena-[dimethylammonium (\m-5-(phosphonatomethyl)isophthalato)-europium]
;
_cell_volume   1424.082
_exptl_crystal_colour 'colorless'
_exptl_crystal_density_diffrn 2.118
_exptl_crystal_description 'block'
_diffrn_ambient_temperature 200
#These two values have been output from a single CSD field.
_refine_ls_R_factor_gt 0.0173
_refine_ls_wR_factor_gt 0.0173
_symmetry_cell_setting monoclinic
_symmetry_space_group_name_H-M 'P 21/c'
_symmetry_Int_Tables_number 14
loop_
_symmetry_equiv_pos_site_id
_symmetry_equiv_pos_as_xyz
1 x,y,z
2 -x,1/2+y,1/2-z
3 -x,-y,-z
4 x,-1/2-y,-1/2+z
_cell_length_a 10.00928(12)
_cell_length_b 15.27490(13)
_cell_length_c 9.31443(7)
_cell_angle_alpha 90
_cell_angle_beta 90.1892(9)
_cell_angle_gamma 90
_cell_formula_units_Z 4
loop_
_atom_type_symbol
_atom_type_radius_bond
C 0.68
H 0.23
Eu 1.98
N 0.68
O 0.68
P 1.05
loop_
_atom_site_label
_atom_site_type_symbol
_atom_site_fract_x
_atom_site_fract_y
_atom_site_fract_z
Eu1 Eu 1.09417(2) 0.66297(2) 0.50664(2)
O1 O 0.94856(13) 0.64182(9) 0.70385(13)
O2 O 0.99317(14) 0.72037(8) 0.89895(14)
O3 O 0.93814(14) 0.58494(8) 1.37562(13)
O4 O 0.81607(12) 0.46452(7) 1.39773(13)
O5 O 0.77614(15) 0.25920(9) 0.87807(15)
O6 O 0.74835(13) 0.35584(8) 0.65959(13)
O7 O 0.55651(13) 0.26258(8) 0.74435(13)
P1 P 0.68102(4) 0.31399(2) 0.78829(4)
C1 C 0.94548(15) 0.65421(9) 0.83734(16)
C2 C 0.87805(14) 0.58709(9) 0.93040(15)
C3 C 0.90123(14) 0.58841(9) 1.07859(15)
H1 H 0.95930 0.63090 1.11940
C4 C 0.83856(14) 0.52705(9) 1.16584(15)
C5 C 0.75005(15) 0.46625(9) 1.10605(16)
H2 H 0.70760 0.42470 1.16640
C6 C 0.72318(15) 0.46577(9) 0.95884(15)
C7 C 0.79093(14) 0.52542(9) 0.87085(15)
H3 H 0.77750 0.52390 0.76990
C8 C 0.62020(15) 0.40339(10) 0.89911(17)
H4 H 0.55560 0.43770 0.84150
H5 H 0.57060 0.37780 0.98080
C9 C 0.86684(14) 0.52543(9) 1.32410(15)
N1 N 0.45022(15) 0.30479(10) 0.48547(17)
H6 H 0.494(3) 0.2829(18) 0.402(3)
H7 H 0.494(3) 0.2906(18) 0.564(3)
C10 C 0.4553(3) 0.40085(15) 0.4762(3)
H8 H 0.54860 0.42000 0.47150
H9 H 0.41280 0.42630 0.56110
H10 H 0.40780 0.42020 0.38970
C11 C 0.3140(2) 0.2695(2) 0.4978(3)
H11 H 0.26000 0.28970 0.41630
H12 H 0.27380 0.29000 0.58750
H13 H 0.31750 0.20540 0.49780
Eu1* Eu 1.09417(2) 0.66297(2) 1.50664(2)
Eu1A Eu 0.90583(2) 0.16297(2) 0.99336(2)
Eu1B Eu 0.90583(2) 0.33703(2) 0.49336(2)
Eu1B* Eu 0.90583(2) 0.33703(2) 1.49336(2)
Eu1C Eu 1.09417(2) 0.83703(2) 1.00664(2)
O2C O 0.99317(14) 0.77963(8) 0.39895(14)
O3* O 0.93814(14) 0.58494(8) 0.37562(13)
O4B O 1.18393(12) 0.53548(7) 0.60227(13)
O5A O 1.22386(15) 0.75920(9) 0.62193(15)
O6B O 1.25165(13) 0.64416(8) 0.34041(13)
#END
