
#######################################################################
#
#                 Cambridge Crystallographic Data Centre
#                                CCDC
#
#######################################################################
#
# If this CIF has been generated from an entry in the Cambridge
# Structural Database, then it will include bibliographic, chemical,
# crystal, experimental, refinement or atomic coordinate data resulting
# from the CCDC's data processing and validation procedures.
#
#######################################################################

data_CSD_CIF_GEJJOX
_audit_creation_date 2017-11-27
_audit_creation_method CSD-ConQuest-V1
_database_code_CSD GEJJOX
_database_code_depnum_ccdc_archive 'CCDC 1558406'
_chemical_formula_sum 'C26 H28 Eu1 N3 O17 Zn1'
_chemical_formula_moiety
;
(C21 H13 Eu1 N1 O16 Zn1 1-)n,C3 H7 N1 O1,C2 H8 N1 1+
;
_journal_coden_Cambridge 222
_journal_volume 46
_journal_year 2017
_journal_page_first 16432
_journal_name_full 'Dalton Trans. '
loop_
_publ_author_name
"Ling Li"
"Ji-Yong Zou"
"Sheng-Yong You"
"Hong-Min Cui"
"Guo-Ping Zeng"
"Jian-Zhong Cui"
_chemical_name_systematic
;
catena-(dimethylammonium 
tris(\m-furan-2,5-dicarboxylato)-dimethylformamide-europium-zinc 
dimethylformamide solvate)
;
_cell_volume   3210.298
_exptl_crystal_colour 'yellow'
_exptl_crystal_density_diffrn 1.804
_exptl_crystal_description 'block'
_diffrn_ambient_temperature 100
_refine_special_details
;
C22,O17 and C22A,O17A disordered over two sites with occupancies 0.621:0.379.

;
#These two values have been output from a single CSD field.
_refine_ls_R_factor_gt 0.0247
_refine_ls_wR_factor_gt 0.0247
_symmetry_cell_setting monoclinic
_symmetry_space_group_name_H-M 'P 21/c'
_symmetry_Int_Tables_number 14
loop_
_symmetry_equiv_pos_site_id
_symmetry_equiv_pos_as_xyz
1 x,y,z
2 -x,1/2+y,1/2-z
3 -x,-y,-z
4 x,-1/2-y,-1/2+z
_cell_length_a 18.0405(9)
_cell_length_b 12.9922(6)
_cell_length_c 14.9125(7)
_cell_angle_alpha 90
_cell_angle_beta 113.297(1)
_cell_angle_gamma 90
_cell_formula_units_Z 4
loop_
_atom_type_symbol
_atom_type_radius_bond
C 0.68
H 0.23
Eu 1.98
N 0.68
O 0.68
Zn 1.22
loop_
_atom_site_label
_atom_site_type_symbol
_atom_site_fract_x
_atom_site_fract_y
_atom_site_fract_z
Eu1 Eu 0.12181(2) 0.02431(2) 0.04783(2)
Zn1 Zn 0.35828(2) -0.09047(3) 0.14172(3)
O1 O 0.18727(13) -0.15092(17) 0.10420(16)
O2 O 0.31312(13) -0.18196(18) 0.21227(16)
O3 O 0.25560(13) -0.30834(17) 0.31448(16)
O4 O 0.31559(13) -0.38630(18) 0.49950(16)
O5 O 0.20639(14) -0.48571(18) 0.46359(17)
O6 O 0.09083(13) 0.17559(18) 0.13015(17)
O7 O -0.02255(13) 0.10377(17) 0.03103(15)
O8 O 0.00908(13) 0.29406(17) 0.21514(16)
O9 O 0.04661(13) 0.41202(18) 0.38314(16)
O10 O -0.08360(13) 0.46100(17) 0.32826(15)
O11 O 0.24357(13) 0.05305(17) 0.18757(16)
O12 O 0.36835(13) 0.05063(17) 0.18972(17)
O13 O 0.40084(13) 0.23768(17) 0.26320(16)
O14 O 0.47699(17) 0.4859(2) 0.3440(2)
O15 O 0.53467(13) 0.34578(19) 0.31279(18)
O16 O 0.18432(15) 0.18415(18) 0.02395(17)
C1 C 0.2376(2) -0.1968(3) 0.1756(2)
C2 C 0.2078(2) -0.2804(3) 0.2212(2)
C3 C 0.1395(2) -0.3387(3) 0.1866(3)
H1 H 0.09680 -0.33440 0.12390
C4 C 0.1449(2) -0.4073(3) 0.2634(2)
H2 H 0.10680 -0.45840 0.26170
C5 C 0.2154(2) -0.3852(3) 0.3394(2)
C6 C 0.2484(2) -0.4223(3) 0.4418(2)
C7 C 0.01553(19) 0.1702(2) 0.0953(2)
C8 C -0.03094(19) 0.2434(2) 0.1283(2)
C9 C -0.1092(2) 0.2719(3) 0.0890(2)
H3 H -0.14920 0.24840 0.02910
C10 C -0.1202(2) 0.3437(3) 0.1542(2)
H4 H -0.16900 0.37760 0.14670
C11 C -0.04742(19) 0.3545(2) 0.2296(2)
C12 C -0.02518(19) 0.4135(2) 0.3218(2)
C13 C 0.3100(2) 0.0937(3) 0.2027(3)
C14 C 0.3242(2) 0.2004(3) 0.2387(3)
C15 C 0.2751(2) 0.2755(3) 0.2469(3)
H5 H 0.21940 0.26930 0.23420
C16 C 0.3234(2) 0.3651(3) 0.2781(3)
H6 H 0.30610 0.43080 0.29020
C17 C 0.3990(2) 0.3389(3) 0.2876(3)
C18 C 0.4762(2) 0.3960(3) 0.3178(3)
C19 C 0.1733(3) 0.2340(3) -0.0498(3)
H7 H 0.17140 0.19700 -0.10560
C20 C 0.1522(4) 0.3883(4) -0.1471(3)
H8 H 0.19770 0.43510 -0.13520
H9 H 0.10200 0.42790 -0.16790
H10 H 0.14900 0.33910 -0.19830
C21 C 0.1561(4) 0.3935(4) 0.0193(4)
H11 H 0.13730 0.34900 0.05900
H12 H 0.11710 0.44910 -0.00890
H13 H 0.20860 0.42300 0.06030
N1 N 0.1639(2) 0.3335(2) -0.0587(2)
N2 N 0.5315(2) 0.6857(3) 0.3889(2)
H14 H 0.54130 0.74270 0.35990
H15 H 0.52370 0.63170 0.34720
C22 C 0.4588(3) 0.7017(4) 0.4080(4)
H16 H 0.44880 0.64070 0.44020
H17 H 0.41260 0.71350 0.34620
H18 H 0.46640 0.76180 0.45060
C23 C 0.6022(3) 0.6644(5) 0.4808(4)
H19 H 0.65010 0.65390 0.46640
H20 H 0.61120 0.72300 0.52540
H21 H 0.59200 0.60240 0.51150
C24 C 0.3753(4) 0.5214(4) -0.0718(4)
H22 H 0.37140 0.58530 -0.10840
H23 H 0.42410 0.48400 -0.06610
H24 H 0.32780 0.47860 -0.10610
C25 C 0.3849(4) 0.4666(5) 0.0825(5)
H25 H 0.37750 0.48220 0.14070
C26 C 0.3556(3) 0.6440(4) 0.0443(4)
H26 H 0.35440 0.69310 -0.00620
H27 H 0.30180 0.63920 0.04540
H28 H 0.39440 0.66740 0.10810
N3 N 0.3793(3) 0.5453(3) 0.0231(3)
O17 O 0.3984(6) 0.3765(5) 0.0709(5)
C27? C 0.4421(7) 0.4985(9) 0.0980(9)
H29? H 0.46430 0.53000 0.16050
O18? O 0.4699(11) 0.4151(11) 0.084(1)
Eu1A Eu -0.12181(2) 0.52431(2) 0.45217(2)
Eu1B Eu -0.12181(2) -0.02431(2) -0.04783(2)
Eu1C Eu 0.12181(2) -0.52431(2) 0.54783(2)
Eu1C* Eu 0.12181(2) 0.47569(2) 0.54783(2)
Zn1A Zn 0.64172(2) 0.40953(3) 0.35828(3)
Zn1C Zn 0.35828(2) -0.40953(3) 0.64172(3)
O4C O 0.31559(13) -0.11370(18) -0.00050(16)
O5C O 0.20639(14) -0.01429(18) -0.03641(17)
O7B O 0.02255(13) -0.10377(17) -0.03103(15)
O9C O 0.04661(13) 0.08798(18) -0.11686(16)
O10A O 0.08360(13) -0.03900(17) 0.17174(15)
O15A O 0.46533(13) -0.15422(19) 0.18721(18)
#END
