
#######################################################################
#
#                 Cambridge Crystallographic Data Centre
#                                CCDC
#
#######################################################################
#
# If this CIF has been generated from an entry in the Cambridge
# Structural Database, then it will include bibliographic, chemical,
# crystal, experimental, refinement or atomic coordinate data resulting
# from the CCDC's data processing and validation procedures.
#
#######################################################################

data_CSD_CIF_GEJXUQ
_audit_creation_date 2013-01-17
_audit_creation_method CSD-ConQuest-V1
_database_code_CSD GEJXUQ
_database_code_depnum_ccdc_archive 'CCDC 793229'
_chemical_formula_sum 'C57 H80 Cu4 Mg1 N8 Na6 O59'
_chemical_formula_moiety
;
(C56 H56 Cu4 Mg1 N8 Na4 O48 2-)n,n(H20 Na2 O10 2+),n(C1 H4 O1)
;
_journal_coden_Cambridge 367
_journal_volume 37
_journal_year 2011
_journal_page_first 540
_journal_name_full 'Koord.Khim.(Russ.)(Coord.Chem.) '
loop_
_publ_author_name
"R.F.Li"
"X.F.Liu"
"Y.N.Li"
"T.Zhang"
_chemical_name_systematic
;
catena-[bis(\m~3~-pyridine-2,6-dicarboxylato)-bis(\m~2~-pyridine-2,6-dicarboxy
lato)-hexakis(\m~2~-aqua)-tetrakis(pyridine-2,6-dicarboxylato)-decaaqua-tetra-
copper(ii)-magnesium-tetra-sodium bis(\m~2~-aqua)-octaaqua-di-sodium methanol 
solvate]
;
_cell_volume   2224.676
_exptl_crystal_colour 'blue'
_exptl_special_details
;
The formulation in the paper has two methanol molecules, but this is not 
consistent with the formula given in the paper and CIF
;
_exptl_crystal_description 'needle'
_diffrn_ambient_temperature 295
_refine_special_details
;
The solvent molecule is disordered by symmetry.

;
#These two values have been output from a single CSD field.
_refine_ls_R_factor_gt 0.0507
_refine_ls_wR_factor_gt 0.0507
_symmetry_cell_setting triclinic
_symmetry_space_group_name_H-M 'P -1'
_symmetry_Int_Tables_number 2
loop_
_symmetry_equiv_pos_site_id
_symmetry_equiv_pos_as_xyz
1 x,y,z
2 -x,-y,-z
_cell_length_a 13.5523(13)
_cell_length_b 14.1859(13)
_cell_length_c 14.3213(14)
_cell_angle_alpha 62.616(1)
_cell_angle_beta 68.254(1)
_cell_angle_gamma 89.711(1)
_cell_formula_units_Z 1
loop_
_atom_type_symbol
_atom_type_radius_bond
C 0.68
H 0.23
Cu 1.32
Mg 1.41
N 0.68
Na 1.50
O 0.68
loop_
_atom_site_label
_atom_site_type_symbol
_atom_site_fract_x
_atom_site_fract_y
_atom_site_fract_z
O1? O 1.0090(8) 0.9179(8) 0.9886(8)
H1? H 0.99760 0.89650 0.94850
C1? C 0.9781(12) 1.0101(14) 0.9676(15)
H2? H 0.90750 0.99770 0.02610
H3? H 0.97540 1.04340 0.89330
H4? H 1.02870 1.05700 0.96780
Cu1 Cu 0.29400 0.13450 0.41860
Cu2 Cu 0.24930 0.75540 0.16910
Mg1 Mg 0.50000 0.50000 0.00000
Na1 Na 0.5144(1) 1.5145(1) -0.3931(1)
Na2 Na 0.3325(1) 1.2835(2) -0.1288(2)
Na3 Na -0.0974(1) 0.3854(2) 0.1254(2)
O2 O 0.5317(2) 1.7047(2) -0.5159(3)
H5 H 0.58820 1.72310 -0.51430
H6 H 0.48140 1.73010 -0.48920
O3 O 0.6568(3) 1.5363(3) -0.3436(3)
H7 H 0.65350 1.58620 -0.32880
H8 H 0.66220 1.48010 -0.29210
O4 O 0.6308(2) 1.5091(2) -0.5591(3)
H9 H 0.67240 1.56420 -0.61880
H10 H 0.66500 1.46010 -0.53840
O5 O 0.3706(3) 1.4811(3) -0.2140(3)
H11 H 0.32810 1.51970 -0.23100
H12 H 0.39320 1.48980 -0.17210
O6 O 0.4909(2) 1.3121(2) -0.2957(3)
H13 H 0.46860 1.29190 -0.33130
H14 H 0.54770 1.29300 -0.29340
O7 O 0.2228(3) 1.2949(4) 0.0347(3)
H15 H 0.23760 1.33100 0.06330
H16 H 0.16670 1.24570 0.09000
O8 O 0.2399(2) 1.2982(3) -0.2436(3)
H17 H 0.18280 1.32090 -0.23630
H18 H 0.23380 1.23830 -0.23990
O9 O -0.1203(3) 0.1835(3) 0.2367(3)
H19 H -0.16940 0.14850 0.30340
H20 H -0.06080 0.19100 0.23860
O10 O -0.2405(2) 0.3690(3) 0.2923(3)
H21 H -0.21500 0.39790 0.31950
H22 H -0.26480 0.30320 0.33830
O11 O -0.1860(3) 0.4104(3) -0.0007(3)
H23 H -0.17490 0.38300 -0.04250
H24 H -0.23890 0.43990 0.00250
O12 O 0.0653(2) 0.4140(3) -0.0371(3)
H25 H 0.11510 0.38520 -0.02280
H26 H 0.05170 0.40070 -0.08190
O13 O 0.0274(3) 0.3939(3) 0.2099(3)
H27 H 0.07950 0.44530 0.16730
H28 H 0.04620 0.33490 0.23020
O14 O 0.3059(3) 0.4326(4) 0.1275(4)
H29 H 0.29960 0.39960 0.09360
H30 H 0.33080 0.39220 0.17540
O15 O 0.2835(2) 0.1632(3) 0.5568(3)
O16 O 0.1661(3) 0.1330(3) 0.7302(3)
O17 O 0.2293(2) 0.1506(3) 0.2970(3)
O18 O 0.0796(3) 0.1710(3) 0.2651(3)
O19 O 0.2770(2) -0.0422(2) 0.5209(3)
O20 O 0.3761(2) -0.1711(2) 0.5453(3)
O21 O 0.3919(3) 0.2958(2) 0.2883(3)
O22 O 0.5556(3) 0.3812(2) 0.1422(3)
O23 O 0.2531(3) 0.6582(3) 0.4902(3)
O24 O 0.3069(2) 0.7354(3) 0.2993(2)
O25 O 0.1332(2) 0.6994(3) 0.1268(3)
O26 O -0.0448(3) 0.6411(3) 0.1930(3)
O27 O 0.2067(2) 0.9149(2) 0.1084(3)
O28 O 0.2736(3) 1.0887(3) -0.0249(3)
O29 O 0.3512(2) 0.6456(2) 0.1366(3)
O30 O 0.5237(3) 0.6434(3) 0.0437(3)
N1 N 0.1353(3) 0.1336(3) 0.4975(3)
N2 N 0.4446(2) 0.1086(3) 0.3521(3)
N3 N 0.1157(3) 0.6787(3) 0.3209(3)
N4 N 0.3834(2) 0.8548(3) 0.0257(3)
C2 C 0.1301(3) 0.1525(3) 0.3263(4)
C3 C 0.0685(3) 0.1326(3) 0.4493(3)
C4 C -0.0432(3) 0.1165(3) 0.5090(4)
H31 H -0.08980 0.11850 0.47440
C5 C -0.0823(3) 0.0975(4) 0.6202(4)
H32 H -0.15670 0.08190 0.66360
C6 C -0.0122(4) 0.1015(3) 0.6690(4)
H33 H -0.03860 0.09050 0.74380
C7 C 0.0980(3) 0.1221(3) 0.6032(3)
C8 C 0.1888(4) 0.1392(3) 0.6350(4)
C9 C 0.3629(3) -0.0770(3) 0.4952(3)
C10 C 0.4627(3) 0.0078(3) 0.3938(3)
C11 C 0.5637(3) -0.0134(4) 0.3467(4)
H34 H 0.57570 -0.08380 0.37630
C12 C 0.6465(3) 0.0722(4) 0.2549(4)
H35 H 0.71480 0.05970 0.22160
C13 C 0.6271(3) 0.1763(4) 0.2128(4)
H36 H 0.68210 0.23470 0.15160
C14 C 0.5242(3) 0.1918(3) 0.2637(3)
C15 C 0.4895(4) 0.2994(3) 0.2272(4)
C16 C 0.0362(4) 0.6667(4) 0.2037(4)
C17 C 0.0215(3) 0.6550(3) 0.3191(4)
C18 C -0.0745(3) 0.6193(3) 0.4166(4)
H37 H -0.14020 0.60390 0.41480
C19 C -0.0709(3) 0.6067(4) 0.5173(4)
H38 H -0.13480 0.58490 0.58310
C20 C 0.0280(4) 0.6267(3) 0.5196(4)
H39 H 0.03200 0.61550 0.58730
C21 C 0.1210(3) 0.6638(3) 0.4178(3)
C22 C 0.2366(3) 0.6882(3) 0.4028(4)
C23 C 0.2803(3) 0.9927(4) 0.0218(4)
C24 C 0.3863(3) 0.9609(3) -0.0304(3)
C25 C 0.4778(3) 1.0311(4) -0.1266(4)
H40 H 0.47930 1.10500 -0.16600
C26 C 0.5674(3) 0.9881(4) -0.1628(4)
H41 H 0.63010 1.03380 -0.22690
C27 C 0.5643(3) 0.8783(4) -0.1047(4)
H42 H 0.62390 0.84900 -0.12840
C28 C 0.4686(3) 0.8126(3) -0.0093(3)
C29 C 0.4484(3) 0.6913(4) 0.0616(4)
Cu1A Cu 0.70600 0.86550 -0.41860
Cu2A Cu 0.75070 0.24460 -0.16910
Na1A Na 0.4856(1) -0.5145(1) 0.3931(1)
Na1A* Na 0.4856(1) 1.4855(1) -0.6069(1)
Na2A Na 0.6675(1) -0.2835(2) 0.1288(2)
Na3A Na 0.0974(1) 0.6146(2) -0.1254(2)
O2A O 0.4683(2) -0.7047(2) 0.5159(3)
H5A H 0.41180 -0.72310 0.51430
H6A H 0.51860 -0.73010 0.48920
O3A O 0.3432(3) -0.5363(3) 0.3436(3)
H7A H 0.34650 -0.58620 0.32880
H8A H 0.33780 -0.48010 0.29210
O4A O 0.3692(2) 1.4909(2) -0.4409(3)
O4A* O 0.3692(2) -0.5091(2) 0.5591(3)
O4* O 0.6308(2) -0.4909(2) 0.4409(3)
H9A H 0.32760 1.43580 -0.38120
H9A* H 0.32760 -0.56420 0.61880
H9* H 0.67240 -0.43580 0.38120
H10A H 0.33500 1.53990 -0.46160
H10A* H 0.33500 -0.46010 0.53840
H10* H 0.66500 -0.53990 0.46160
O5A O 0.6294(3) -0.4811(3) 0.2140(3)
H11A H 0.67190 -0.51970 0.23100
H12A H 0.60680 -0.48980 0.17210
O6A O 0.5091(2) -0.3121(2) 0.2957(3)
H13A H 0.53140 -0.29190 0.33130
H14A H 0.45230 -0.29300 0.29340
O7A O 0.7772(3) -0.2949(4) -0.0347(3)
H15A H 0.76240 -0.33100 -0.06330
H16A H 0.83330 -0.24570 -0.09000
O8A O 0.7601(2) -0.2982(3) 0.2436(3)
H17A H 0.81720 -0.32090 0.23630
H18A H 0.76620 -0.23830 0.23990
O9A O 0.1203(3) 0.8165(3) -0.2367(3)
H19A H 0.16940 0.85150 -0.30340
H20A H 0.06080 0.80900 -0.23860
O10A O 0.2405(2) 0.6310(3) -0.2923(3)
H21A H 0.21500 0.60210 -0.31950
H22A H 0.26480 0.69680 -0.33830
O11A O 0.1860(3) 0.5896(3) 0.0007(3)
H23A H 0.17490 0.61700 0.04250
H24A H 0.23890 0.56010 -0.00250
O12A O -0.0653(2) 0.5860(3) 0.0371(3)
H25A H -0.11510 0.61480 0.02280
H26A H -0.05170 0.59930 0.08190
O13A O -0.0274(3) 0.6061(3) -0.2099(3)
H27A H -0.07950 0.55470 -0.16730
H28A H -0.04620 0.66510 -0.23020
O14A O 0.6941(3) 0.5674(4) -0.1275(4)
H29A H 0.70040 0.60040 -0.09360
H30A H 0.66920 0.60780 -0.17540
O15A O 0.7165(2) 0.8368(3) -0.5568(3)
O16A O 0.8339(3) 0.8670(3) -0.7302(3)
O17A O 0.7707(2) 0.8494(3) -0.2970(3)
O18A O 0.9204(3) 0.8290(3) -0.2651(3)
O19A O 0.7230(2) 1.0422(2) -0.5209(3)
O20A O 0.6239(2) 1.1711(2) -0.5453(3)
O21A O 0.6081(3) 0.7042(2) -0.2883(3)
O22A O 0.4444(3) 0.6188(2) -0.1422(3)
O23A O 0.7469(3) 0.3418(3) -0.4902(3)
O24A O 0.6931(2) 0.2646(3) -0.2993(2)
O25A O 0.8668(2) 0.3006(3) -0.1268(3)
O26A O 1.0448(3) 0.3589(3) -0.1930(3)
O27A O 0.7933(2) 0.0851(2) -0.1084(3)
O28A O 0.7264(3) -0.0887(3) 0.0249(3)
O29A O 0.6488(2) 0.3544(2) -0.1366(3)
O30A O 0.4763(3) 0.3566(3) -0.0437(3)
N1A N 0.8647(3) 0.8664(3) -0.4975(3)
N2A N 0.5554(2) 0.8914(3) -0.3521(3)
N3A N 0.8843(3) 0.3213(3) -0.3209(3)
N4A N 0.6166(2) 0.1452(3) -0.0257(3)
C2A C 0.8699(3) 0.8475(3) -0.3263(4)
C3A C 0.9315(3) 0.8674(3) -0.4493(3)
C4A C 1.0432(3) 0.8835(3) -0.5090(4)
H31A H 1.08980 0.88150 -0.47440
C5A C 1.0823(3) 0.9025(4) -0.6202(4)
H32A H 1.15670 0.91810 -0.66360
C6A C 1.0122(4) 0.8985(3) -0.6690(4)
H33A H 1.03860 0.90950 -0.74380
C7A C 0.9020(3) 0.8779(3) -0.6032(3)
C8A C 0.8112(4) 0.8608(3) -0.6350(4)
C9A C 0.6371(3) 1.0770(3) -0.4952(3)
C10A C 0.5373(3) 0.9922(3) -0.3938(3)
C11A C 0.4363(3) 1.0134(4) -0.3467(4)
H34A H 0.42430 1.08380 -0.37630
C12A C 0.3535(3) 0.9278(4) -0.2549(4)
H35A H 0.28520 0.94030 -0.22160
C13A C 0.3729(3) 0.8237(4) -0.2128(4)
H36A H 0.31790 0.76530 -0.15160
C14A C 0.4758(3) 0.8082(3) -0.2637(3)
C15A C 0.5105(4) 0.7006(3) -0.2272(4)
C16A C 0.9638(4) 0.3333(4) -0.2037(4)
C17A C 0.9785(3) 0.3450(3) -0.3191(4)
C18A C 1.0745(3) 0.3807(3) -0.4166(4)
H37A H 1.14020 0.39610 -0.41480
C19A C 1.0709(3) 0.3933(4) -0.5173(4)
H38A H 1.13480 0.41510 -0.58310
C20A C 0.9720(4) 0.3733(3) -0.5196(4)
H39A H 0.96800 0.38450 -0.58730
C21A C 0.8790(3) 0.3362(3) -0.4178(3)
C22A C 0.7634(3) 0.3118(3) -0.4028(4)
C23A C 0.7197(3) 0.0073(4) -0.0218(4)
C24A C 0.6137(3) 0.0391(3) 0.0304(3)
C25A C 0.5222(3) -0.0311(4) 0.1266(4)
H40A H 0.52070 -0.10500 0.16600
C26A C 0.4326(3) 0.0119(4) 0.1628(4)
H41A H 0.36990 -0.03380 0.22690
C27A C 0.4357(3) 0.1217(4) 0.1047(4)
H42A H 0.37610 0.15100 0.12840
C28A C 0.5314(3) 0.1874(3) 0.0093(3)
C29A C 0.5516(3) 0.3087(4) -0.0616(4)
#END
