
#######################################################################
#
#                 Cambridge Crystallographic Data Centre
#                                CCDC
#
#######################################################################
#
# If this CIF has been generated from an entry in the Cambridge
# Structural Database, then it will include bibliographic, chemical,
# crystal, experimental, refinement or atomic coordinate data resulting
# from the CCDC's data processing and validation procedures.
#
#######################################################################

data_CSD_CIF_GELDUZ
_audit_creation_date 2017-11-28
_audit_creation_method CSD-ConQuest-V1
_database_code_CSD GELDUZ
_database_code_depnum_ccdc_archive 'CCDC 634960'
_chemical_formula_sum 'C12 H26 N2 O26 P4 Zn5'
_chemical_formula_moiety
;
(C8 H12 O26 P4 Zn5 2-)n,C4 H14 N2 2+
;
_journal_coden_Cambridge 1078
_journal_year 2017
_journal_name_full 'CSD Communication(Private Communication) '
loop_
_publ_author_name
"Zhen-Gang Sun"
"Yan-Yu Zhu"
_chemical_name_systematic
;
catena-[butane-1,4-diaminium 
tetrakis(\m-hydroxy(phosphonato)acetato)-diaqua-penta-zinc(ii)]
;
_cell_volume    705.101
_exptl_crystal_colour 'colorless'
_exptl_crystal_density_diffrn 2.508
_exptl_crystal_description 'block'
_diffrn_ambient_temperature 295
#These two values have been output from a single CSD field.
_refine_ls_R_factor_gt 0.0535
_refine_ls_wR_factor_gt 0.0535
_symmetry_cell_setting triclinic
_symmetry_space_group_name_H-M 'P -1'
_symmetry_Int_Tables_number 2
loop_
_symmetry_equiv_pos_site_id
_symmetry_equiv_pos_as_xyz
1 x,y,z
2 -x,-y,-z
_cell_length_a 5.5440(9)
_cell_length_b 10.2387(17)
_cell_length_c 12.946(2)
_cell_angle_alpha 80.623(2)
_cell_angle_beta 86.239(3)
_cell_angle_gamma 76.634(2)
_cell_formula_units_Z 1
loop_
_atom_type_symbol
_atom_type_radius_bond
C 0.68
H 0.23
N 0.68
O 0.68
P 1.05
Zn 1.22
loop_
_atom_site_label
_atom_site_type_symbol
_atom_site_fract_x
_atom_site_fract_y
_atom_site_fract_z
Zn1 Zn 1.000(5) 0.000(3) 0.500(2)
Zn2 Zn 0.41210(12) 0.38209(7) 0.16338(6)
Zn3 Zn 0.69272(12) -0.07979(7) 0.08749(6)
P1 P 0.4976(3) 0.14659(16) 0.37719(13)
P2 P 0.7377(3) 0.22210(15) -0.02180(12)
O1 O 0.6734(8) 0.1297(5) 0.4647(3)
O2 O 0.5136(10) 0.2698(5) 0.2971(4)
O3 O 0.2293(8) 0.1534(5) 0.4188(4)
O4 O 0.4489(8) 0.0067(5) 0.2216(4)
H1 H 0.33560 -0.03320 0.23470
O5 O 0.9216(8) -0.0412(4) 0.1898(3)
O6 O 1.0174(8) -0.0624(5) 0.3541(4)
O7 O 1.0141(7) 0.1764(4) -0.0041(3)
O8 O 0.6146(9) 0.3271(5) 0.0451(4)
O9 O 0.6108(8) 0.1024(4) -0.0134(3)
O10 O 0.8137(8) 0.4221(4) -0.1737(4)
H2 H 0.96420 0.39260 -0.17680
O11 O 0.2842(8) 0.2864(5) -0.1793(4)
O12 O 0.3427(8) 0.4941(4) -0.1875(4)
O13 O 0.1018(9) 0.3231(6) 0.1408(5)
H3 H 0.03900 0.36600 0.08340
H4 H 0.13700 0.23830 0.13820
C1 C 0.5841(11) -0.0061(6) 0.3142(5)
H5 H 0.54810 -0.08290 0.36380
C2 C 0.8598(10) -0.0386(6) 0.2840(5)
C3 C 0.6917(11) 0.3112(6) -0.1575(5)
H6 H 0.76070 0.24810 -0.20690
C4 C 0.4206(10) 0.3678(6) -0.1764(4)
N1 N 0.8859(14) 0.3810(8) 0.3850(6)
H7 H 1.01160 0.31040 0.37890
H8 H 0.92160 0.45580 0.34810
H9 H 0.74940 0.36630 0.36090
C5 C 0.844(5) 0.399(3) 0.4990(11)
H10 H 0.99570 0.41190 0.52440
H11 H 0.81200 0.31480 0.53830
C6 C 0.632(5) 0.515(3) 0.523(2)
H12 H 0.66240 0.60170 0.48880
H13 H 0.61480 0.51700 0.59830
Zn2A Zn 0.58790(12) -0.38209(7) -0.16338(6)
Zn3A Zn 0.30728(12) 0.07979(7) -0.08749(6)
P1A P 0.5024(3) -0.14659(16) -0.37719(13)
P2A P 0.2623(3) -0.22210(15) 0.02180(12)
O1A O 0.3266(8) -0.1297(5) -0.4647(3)
O2A O 0.4864(10) -0.2698(5) -0.2971(4)
O3A O 0.7707(8) -0.1534(5) -0.4188(4)
O4A O 0.5511(8) -0.0067(5) -0.2216(4)
H1A H 0.66440 0.03320 -0.23470
O5A O 0.0784(8) 0.0412(4) -0.1898(3)
O6A O -0.0174(8) 0.0624(5) -0.3541(4)
O7A O -0.0141(7) -0.1764(4) 0.0041(3)
O8A O 0.3854(9) -0.3271(5) -0.0451(4)
O9A O 0.3892(8) -0.1024(4) 0.0134(3)
O10A O 0.1863(8) -0.4221(4) 0.1737(4)
H2A H 0.03580 -0.39260 0.17680
O11A O 0.7158(8) -0.2864(5) 0.1793(4)
O12A O 0.6573(8) -0.4941(4) 0.1875(4)
O13A O 0.8982(9) -0.3231(6) -0.1408(5)
H3A H 0.96100 -0.36600 -0.08340
H4A H 0.86300 -0.23830 -0.13820
C1A C 0.4159(11) 0.0061(6) -0.3142(5)
H5A H 0.45190 0.08290 -0.36380
C2A C 0.1402(10) 0.0386(6) -0.2840(5)
C3A C 0.3083(11) -0.3112(6) 0.1575(5)
H6A H 0.23930 -0.24810 0.20690
C4A C 0.5794(10) -0.3678(6) 0.1764(4)
Zn1* Zn 0.000(5) 0.000(3) -0.500(2)
Zn1** Zn 0.000(5) 0.000(3) 0.500(2)
Zn1*** Zn 1.000(5) 0.000(3) -0.500(2)
Zn2* Zn 0.41210(12) -0.61791(7) 0.16338(6)
Zn2A* Zn 0.58790(12) 0.61791(7) -0.16338(6)
Zn3* Zn -0.30728(12) -0.07979(7) 0.08749(6)
Zn3A* Zn 1.30728(12) 0.07979(7) -0.08749(6)
O1A* O 1.3266(8) -0.1297(5) 0.5353(3)
O3* O 1.2293(8) 0.1534(5) 0.4188(4)
O3A* O 0.7707(8) -0.1534(5) 0.5812(4)
O6A* O 0.9826(8) 0.0624(5) 0.6459(4)
O7* O 0.0141(7) 0.1764(4) -0.0041(3)
O7A* O 0.9859(7) -0.1764(4) 0.0041(3)
O10* O 0.8137(8) -0.5779(4) -0.1737(4)
O10A* O 0.1863(8) 0.5779(4) 0.1737(4)
O12* O 0.3427(8) -0.5059(4) -0.1875(4)
O12A* O 0.6573(8) 0.5059(4) 0.1875(4)
N1A N 0.1141(14) 0.6190(8) 0.6150(6)
H7A H -0.01160 0.68960 0.62110
H8A H 0.07840 0.54420 0.65190
H9A H 0.25060 0.63370 0.63910
C5A C 0.156(5) 0.601(3) 0.5010(11)
H10A H 0.00430 0.58810 0.47560
H11A H 0.18800 0.68520 0.46170
C6A C 0.368(5) 0.485(3) 0.477(2)
H12A H 0.33760 0.39830 0.51120
H13A H 0.38520 0.48300 0.40170
#END
