
#######################################################################
#
#                 Cambridge Crystallographic Data Centre
#                                CCDC
#
#######################################################################
#
# If this CIF has been generated from an entry in the Cambridge
# Structural Database, then it will include bibliographic, chemical,
# crystal, experimental, refinement or atomic coordinate data resulting
# from the CCDC's data processing and validation procedures.
#
#######################################################################

data_CSD_CIF_GELDEJ
_audit_creation_date 2017-11-28
_audit_creation_method CSD-ConQuest-V1
_database_code_CSD GELDEJ
_database_code_depnum_ccdc_archive 'CCDC 641416'
_chemical_formula_sum 'C7 H28 N2 O18 P4 Zn3'
_chemical_formula_moiety
;
(C4 H10 O15 P4 Zn3 2-)n,C3 H12 N2 2+,3(H2 O1)
;
_journal_coden_Cambridge 1078
_journal_year 2017
_journal_name_full 'CSD Communication(Private Communication) '
loop_
_publ_author_name
"Zhen-Gang Sun"
"Yan-Yu Zhu"
_chemical_name_systematic
;
catena-[propane-1,2-diaminium 
bis(\m-(1-hydroxyethane-1,1-diyl)bis(phosphonato))-aqua-tri-zinc(ii) 
trihydrate]
;
_cell_volume   1042.525
_exptl_crystal_colour 'colorless'
_exptl_crystal_density_diffrn 2.384
_exptl_crystal_description 'Plate'
_diffrn_ambient_temperature 295
#These two values have been output from a single CSD field.
_refine_ls_R_factor_gt 0.0475
_refine_ls_wR_factor_gt 0.0475
_symmetry_cell_setting triclinic
_symmetry_space_group_name_H-M 'P -1'
_symmetry_Int_Tables_number 2
loop_
_symmetry_equiv_pos_site_id
_symmetry_equiv_pos_as_xyz
1 x,y,z
2 -x,-y,-z
_cell_length_a 8.079(4)
_cell_length_b 11.714(6)
_cell_length_c 11.966(6)
_cell_angle_alpha 101.458(9)
_cell_angle_beta 102.415(8)
_cell_angle_gamma 102.665(8)
_cell_formula_units_Z 2
loop_
_atom_type_symbol
_atom_type_radius_bond
C 0.68
H 0.23
N 0.68
O 0.68
P 1.05
Zn 1.22
loop_
_atom_site_label
_atom_site_type_symbol
_atom_site_fract_x
_atom_site_fract_y
_atom_site_fract_z
Zn1 Zn 0.0391(3) 0.1631(2) 0.4279(2)
Zn2 Zn 0.5889(3) 0.2152(2) 0.6144(2)
Zn3 Zn 0.3939(3) 0.4688(2) 0.6284(2)
P1 P 0.2221(7) 0.1038(5) 0.6616(5)
P2 P 0.4665(8) 0.3472(5) 0.8260(5)
P3 P 0.3823(7) 0.2894(5) 0.3887(5)
P4 P 0.7775(7) 0.3300(5) 0.4492(6)
O1 O 0.099(2) 0.1628(15) 0.5932(15)
O2 O 0.122(2) -0.0153(15) 0.6765(15)
O3 O 0.3730(19) 0.0881(13) 0.6095(14)
O4 O 0.612(2) 0.3238(15) 0.7705(15)
O5 O 0.358(2) 0.4200(14) 0.7666(15)
O6 O 0.543(2) 0.4088(15) 0.9585(15)
O7 O 0.421(2) 0.3282(13) 0.5233(14)
O8 O 0.209(2) 0.1919(14) 0.3344(14)
O9 O 0.391(2) 0.3954(14) 0.3327(15)
O10 O 0.535(2) 0.1229(13) 0.4189(16)
H1 H 0.47(3) 0.09(2) 0.460(19)
O11 O 0.781(2) 0.4543(14) 0.4293(17)
O12 O 0.918(2) 0.2850(14) 0.4020(16)
O13 O 0.791(2) 0.3251(15) 0.5764(15)
O14 O 0.175(3) 0.2221(18) 0.8613(19)
H2 H 0.10(3) 0.162(6) 0.87(3)
O15 O 0.759(2) 0.1093(17) 0.6606(17)
H3 H 0.72790 0.04210 0.60850
H4 H 0.86380 0.14690 0.66400
C1 C 0.318(3) 0.200(2) 0.814(2)
C2 C 0.418(4) 0.134(2) 0.887(2)
H5 H 0.46860 0.18310 0.96670
H6 H 0.34050 0.05890 0.88740
H7 H 0.51090 0.11650 0.85350
C3 C 0.560(3) 0.2230(19) 0.363(2)
C4 C 0.546(3) 0.180(2) 0.233(2)
H8 H 0.43190 0.12540 0.19370
H9 H 0.56350 0.24800 0.19950
H10 H 0.63490 0.13870 0.22400
O16 O 0.939(5) 1.011(3) 0.885(3)
H11 H 0.89000 1.05290 0.92600
H12 H 0.96570 1.04440 0.83200
O17 O 0.801(18) 0.684(11) 0.915(12)
H13 H 0.76690 0.74140 0.95090
H14 H 0.82960 0.64180 0.96190
O18 O 1.08(3) 0.90(2) 0.907(19)
H15 H 1.15560 0.87220 0.95060
H16 H 1.12880 0.92590 0.85720
N1 N 1.057(3) 0.439(3) 0.274(3)
H17 H 1.02760 0.38390 0.31340
H18 H 1.05370 0.51100 0.31470
H19 H 1.16480 0.44350 0.26670
N2 N 0.987(14) 0.611(9) 0.162(9)
H20 H 1.00500 0.66920 0.12390
H21 H 1.07840 0.62550 0.22380
H22 H 0.88980 0.61030 0.18590
C5 C 0.897(12) 0.285(8) 0.068(8)
H23 H 0.87100 0.22040 0.10480
H24 H 0.99920 0.28330 0.03990
H25 H 0.79830 0.27670 0.00260
C6 C 0.932(11) 0.405(7) 0.157(7)
H26 H 0.81770 0.40720 0.17210
C7 C 0.96(2) 0.492(9) 0.080(9)
H27 H 1.06890 0.48990 0.05370
H28 H 0.86400 0.47400 0.01130
Zn1* Zn 1.0391(3) 0.1631(2) 0.4279(2)
Zn1A Zn -0.0391(3) -0.1631(2) 0.5721(2)
Zn3A Zn 0.6061(3) 0.5312(2) 0.3716(2)
O2A O -0.122(2) 0.0153(15) 0.3235(15)
O9A O 0.609(2) 0.6046(14) 0.6673(15)
O11A O 0.219(2) 0.5457(14) 0.5707(17)
O12* O -0.082(2) 0.2850(14) 0.4020(16)
#END
