
#######################################################################
#
#                 Cambridge Crystallographic Data Centre
#                                CCDC
#
#######################################################################
#
# If this CIF has been generated from an entry in the Cambridge
# Structural Database, then it will include bibliographic, chemical,
# crystal, experimental, refinement or atomic coordinate data resulting
# from the CCDC's data processing and validation procedures.
#
#######################################################################

data_CSD_CIF_GELMUG
_audit_creation_date 2006-11-07
_audit_creation_method CSD-ConQuest-V1
_database_code_CSD GELMUG
_database_code_depnum_ccdc_archive 'CCDC 600903'
_chemical_formula_sum 'C22 H40 Cr2 Mn3 O34'
_chemical_formula_moiety
;
(C6 H24 Mn1 O6 2+)n,n(C14 H8 Cr2 Mn2 O26 2-),2n(C1 H4 O1)
;
_journal_coden_Cambridge 222
_journal_year 2006
_journal_page_first 3294
_journal_name_full 'Dalton Trans. '
loop_
_publ_author_name
"E.Coronado"
"J.R.Galan-Mascaros"
"C.Marti-Gastaldo"
"A.M.Martinez"
_chemical_name_systematic
;
catena-(hexakis(methanol-O)-manganese 
hexakis(\m~2~-oxalato-O,O',O'',O''')-bis(methanol-O)-di-chromium(iii)-di-manga
nese(ii) methanol solvate)
;
_cell_volume   2155.877
_exptl_crystal_colour 'dark green'
_exptl_crystal_density_diffrn 1.721
_exptl_special_details
;
magnetic properties

;
_exptl_crystal_description 'square prism'
_diffrn_ambient_temperature 293
_refine_special_details
;
A coordinated methanol C atom and the solvent methanol molecule are each 
disordered over two sites.
;
#These two values have been output from a single CSD field.
_refine_ls_R_factor_gt 0.0518
_refine_ls_wR_factor_gt 0.0518
_symmetry_cell_setting monoclinic
_symmetry_space_group_name_H-M 'P 21/n'
_symmetry_Int_Tables_number 14
loop_
_symmetry_equiv_pos_site_id
_symmetry_equiv_pos_as_xyz
1 x,y,z
2 1/2-x,1/2+y,1/2-z
3 -x,-y,-z
4 -1/2+x,-1/2-y,-1/2+z
_cell_length_a 9.0730(1)
_cell_length_b 14.2670(2)
_cell_length_c 16.8850(2)
_cell_angle_alpha 90
_cell_angle_beta 99.4710(6)
_cell_angle_gamma 90
_cell_formula_units_Z 2
loop_
_atom_type_symbol
_atom_type_radius_bond
C 0.68
H 0.23
Cr 1.35
Mn 1.80
O 0.68
loop_
_atom_site_label
_atom_site_type_symbol
_atom_site_fract_x
_atom_site_fract_y
_atom_site_fract_z
Cr1 Cr 0.05284(6) 0.22608(4) -0.26596(3)
Mn1 Mn 0.59986(6) 0.16510(4) -0.08687(3)
O1 O 0.1645(3) 0.12181(18) -0.20615(14)
O2 O 0.3922(3) 0.09337(18) -0.13575(15)
O3 O 0.2447(3) 0.29354(18) -0.23737(16)
O4 O 0.4649(3) 0.27541(18) -0.15754(17)
O5 O -0.1402(3) 0.15775(18) -0.27695(14)
O6 O -0.3252(3) 0.1303(2) -0.20692(16)
O7 O -0.0088(3) 0.27145(17) -0.16476(15)
O8 O -0.1803(3) 0.2400(2) -0.08746(15)
O9 O 0.1072(3) 0.18258(18) -0.36703(15)
O10 O -0.0386(3) 0.33114(18) -0.33389(16)
O11 O 0.1224(4) 0.2350(2) -0.48930(17)
O12 O -0.0527(4) 0.3830(2) -0.46047(19)
O13 O 0.7132(3) 0.0422(2) -0.03627(18)
C1 C 0.2973(4) 0.1441(2) -0.1755(2)
C2 C 0.3423(4) 0.2460(3) -0.1909(2)
C3 C -0.2067(4) 0.1673(2) -0.2165(2)
C4 C -0.1263(4) 0.2314(3) -0.1498(2)
C5 C 0.0800(4) 0.2420(3) -0.4235(2)
C6 C -0.0124(5) 0.3276(3) -0.4053(2)
C7 C 0.8164(6) 0.0428(4) 0.0385(3)
H1 H 0.88600 0.09340 0.03830
H2 H 0.86960 -0.01560 0.04470
H3 H 0.76210 0.05090 0.08230
Mn2 Mn -0.50000 0.00000 -0.50000
O14 O -0.2870(3) -0.0083(2) -0.4215(2)
O15 O -0.5947(4) -0.0537(2) -0.39829(18)
O16 O -0.5387(4) 0.1438(2) -0.46845(18)
C8 C -0.1431(6) 0.0005(4) -0.4423(4)
H4 H -0.11500 -0.05770 -0.46410
H5 H -0.07240 0.01610 -0.39540
H6 H -0.14400 0.04920 -0.48170
C9 C -0.6429(8) -0.0015(4) -0.3344(3)
H7 H -0.56150 0.00430 -0.29050
H8 H -0.72440 -0.03360 -0.31660
H9 H -0.67500 0.05980 -0.35350
C10 C -0.4752(13) 0.2020(7) -0.4040(6)
H10 H -0.40850 0.16580 -0.36580
H11 H -0.55320 0.22770 -0.37840
H12 H -0.47330 0.25320 -0.39960
H13 H 0.31710 0.12520 -0.75370
O17 O 0.2483(8) 0.0863(5) -0.7311(4)
C11 C 0.1224(6) 0.0762(4) -0.7844(3)
H14 H 0.04850 0.04500 -0.75930
H15 H 0.14280 0.03960 -0.82910
H16 H 0.08590 0.13680 -0.80300
H17? H -0.42090 0.25210 -0.42400
C12? C -0.4268(11) 0.2069(7) -0.4286(7)
H18? H -0.37760 0.23720 -0.46770
H19? H -0.35490 0.17230 -0.39180
O18? O 0.1224(6) 0.0762(4) -0.7844(3)
C13? C 0.2483(8) 0.0863(5) -0.7311(4)
H20? H 0.22540 0.11500 -0.68320
H21? H 0.29250 0.02590 -0.71830
Cr1* Cr -0.94716(6) 0.22608(4) -0.26596(3)
Cr1** Cr 1.05284(6) 0.22608(4) -0.26596(3)
Cr1C Cr 0.55284(6) 0.27392(4) 0.23404(3)
Mn1* Mn -0.40014(6) 0.16510(4) -0.08687(3)
Mn1C Mn 0.09986(6) 0.33490(4) -0.58687(3)
O1* O -0.8355(3) 0.12181(18) -0.20615(14)
O2* O -0.6078(3) 0.09337(18) -0.13575(15)
O3* O -0.7553(3) 0.29354(18) -0.23737(16)
O4* O -0.5351(3) 0.27541(18) -0.15754(17)
O5* O 0.8598(3) 0.15775(18) -0.27695(14)
O5** O -1.1402(3) 0.15775(18) -0.27695(14)
O6* O 0.6748(3) 0.1303(2) -0.20692(16)
O7* O 0.9912(3) 0.27145(17) -0.16476(15)
O7** O -1.0088(3) 0.27145(17) -0.16476(15)
O8* O 0.8197(3) 0.2400(2) -0.08746(15)
O9C O 0.6072(3) 0.31742(18) 0.13297(15)
O9* O -0.8928(3) 0.18258(18) -0.36703(15)
O10C O 0.4614(3) 0.16886(18) 0.16611(16)
O10* O -1.0386(3) 0.33114(18) -0.33389(16)
O11C O 0.6224(4) 0.2650(2) 0.01070(17)
O11C* O -0.3776(4) 0.2650(2) 0.01070(17)
O12C O 0.4473(4) 0.1170(2) 0.03953(19)
O12C* O -0.5527(4) 0.1170(2) 0.03953(19)
O13* O -0.2868(3) 0.0422(2) -0.03627(18)
C1* C -0.7027(4) 0.1441(2) -0.1755(2)
C2* C -0.6577(4) 0.2460(3) -0.1909(2)
C3* C 0.7933(4) 0.1673(2) -0.2165(2)
C4* C 0.8737(4) 0.2314(3) -0.1498(2)
C5C C 0.5800(4) 0.2580(3) 0.0765(2)
C6C C 0.4876(5) 0.1724(3) 0.0947(2)
C7* C -0.1836(6) 0.0428(4) 0.0385(3)
H1* H -0.11400 0.09340 0.03830
H2* H -0.13040 -0.01560 0.04470
H3* H -0.23790 0.05090 0.08230
O14B O -0.7130(3) 0.0083(2) -0.5785(2)
O15B O -0.4053(4) 0.0537(2) -0.60171(18)
O16B O -0.4613(4) -0.1438(2) -0.53155(18)
C8B C -0.8569(6) -0.0005(4) -0.5577(4)
H4B H -0.88500 0.05770 -0.53590
H5B H -0.92760 -0.01610 -0.60460
H6B H -0.85600 -0.04920 -0.51830
C9B C -0.3571(8) 0.0015(4) -0.6656(3)
H7B H -0.43850 -0.00430 -0.70950
H8B H -0.27560 0.03360 -0.68340
H9B H -0.32500 -0.05980 -0.64650
C10B C -0.5248(13) -0.2020(7) -0.5960(6)
H10B H -0.59150 -0.16580 -0.63420
H11B H -0.44680 -0.22770 -0.62160
H12B H -0.52670 -0.25320 -0.60040
#END
