
#######################################################################
#
#                 Cambridge Crystallographic Data Centre
#                                CCDC
#
#######################################################################
#
# If this CIF has been generated from an entry in the Cambridge
# Structural Database, then it will include bibliographic, chemical,
# crystal, experimental, refinement or atomic coordinate data resulting
# from the CCDC's data processing and validation procedures.
#
#######################################################################

data_CSD_CIF_GELNAN
_audit_creation_date 2006-11-07
_audit_creation_method CSD-ConQuest-V1
_database_code_CSD GELNAN
_database_code_depnum_ccdc_archive 'CCDC 600904'
_chemical_formula_sum 'C20 H39 Mn3 O35.5 Rh2'
_chemical_formula_moiety
;
(C4 H20 Mn1 O6 2+)n,n(C14 H8 Mn2 O26 Rh2 2-),2n(C1 H4 O1),1.5n(H2 O1)
;
_journal_coden_Cambridge 222
_journal_year 2006
_journal_page_first 3294
_journal_name_full 'Dalton Trans. '
loop_
_publ_author_name
"E.Coronado"
"J.R.Galan-Mascaros"
"C.Marti-Gastaldo"
"A.M.Martinez"
_chemical_name_systematic
;
catena-(diaqua-tetrakis(methanol-O)-manganese 
hexakis(\m~2~-oxalato-O,O',O'',O''')-bis(methanol-O)-di-rhodium(iii)-di-mangan
ese(ii) methanol solvate sesquihydrate)
;
_cell_volume   2204.083
_exptl_crystal_colour 'orange'
_exptl_crystal_density_diffrn 1.835
_exptl_special_details
;
magnetic properties

;
_exptl_crystal_description 'square prism'
_diffrn_ambient_temperature 293
_refine_special_details
;
The structure is disordered.

;
#These two values have been output from a single CSD field.
_refine_ls_R_factor_gt 0.0486
_refine_ls_wR_factor_gt 0.0486
_symmetry_cell_setting monoclinic
_symmetry_space_group_name_H-M 'P 21/n'
_symmetry_Int_Tables_number 14
loop_
_symmetry_equiv_pos_site_id
_symmetry_equiv_pos_as_xyz
1 x,y,z
2 1/2-x,1/2+y,1/2-z
3 -x,-y,-z
4 -1/2+x,-1/2-y,-1/2+z
_cell_length_a 9.5140(1)
_cell_length_b 16.0720(3)
_cell_length_c 14.9480(2)
_cell_angle_alpha 90
_cell_angle_beta 105.3560(7)
_cell_angle_gamma 90
_cell_formula_units_Z 2
loop_
_atom_type_symbol
_atom_type_radius_bond
C 0.68
H 0.23
Mn 1.35
O 0.68
Rh 1.45
loop_
_atom_site_label
_atom_site_type_symbol
_atom_site_fract_x
_atom_site_fract_y
_atom_site_fract_z
Rh1 Rh -0.01177(4) 0.21904(2) 0.23568(2)
Mn1 Mn -0.54644(7) 0.05424(4) 0.16591(5)
O1 O 0.1370(3) 0.2378(2) 0.1647(2)
O2 O 0.1058(4) 0.1154(2) 0.2805(2)
O3 O -0.1439(3) 0.1488(2) 0.1358(2)
O4 O -0.1664(3) 0.1969(2) 0.3043(2)
O5 O -0.1150(3) 0.3271(2) 0.1919(2)
O6 O 0.1121(3) 0.29062(19) 0.3360(2)
O7 O -0.3521(3) 0.0776(2) 0.1134(2)
O8 O -0.3854(3) 0.1372(2) 0.2751(2)
O9 O 0.3342(3) 0.1747(2) 0.1422(2)
O10 O 0.2974(4) 0.0496(2) 0.2546(3)
O11 O -0.0928(3) 0.4612(2) 0.2311(2)
O12 O 0.1358(4) 0.4247(2) 0.3744(2)
O13 O -0.6513(4) 0.0517(2) 0.0128(2)
C1 C 0.2308(5) 0.1796(3) 0.1775(3)
C2 C 0.2114(5) 0.1078(3) 0.2422(3)
C3 C -0.2559(5) 0.1245(3) 0.1596(3)
C4 C -0.2732(5) 0.1550(3) 0.2541(3)
C5 C -0.0543(5) 0.3875(3) 0.2422(3)
C6 C 0.0770(5) 0.3672(3) 0.3248(3)
C7 C -0.6866(7) 0.1163(4) -0.0525(4)
H1 H -0.73190 0.09350 -0.11260
H2 H -0.59940 0.14540 -0.05460
H3 H -0.75270 0.15420 -0.03500
Mn2 Mn 0.50000 0.50000 0.00000
O14 O 0.3792(4) 0.5076(3) -0.1438(3)
O15 O 0.4837(5) 0.3658(3) -0.0180(3)
O16 O 0.3023(6) 0.5024(4) 0.0446(4)
C8 C 0.5590(8) 0.2987(4) 0.0358(4)
H4 H 0.52400 0.24700 0.00600
H5 H 0.54230 0.30000 0.09640
H6 H 0.66150 0.30370 0.04150
C9 C 0.1912(15) 0.4457(13) 0.0357(14)
H7 H 0.11640 0.46900 0.06030
H8 H 0.22850 0.39600 0.06930
H9 H 0.15130 0.43250 -0.02870
O17 O 0.5060(7) 0.4358(4) 0.2726(4)
C10 C 0.4380(13) 0.3578(8) 0.2630(8)
O18 O 0.0383(12) 0.0226(7) 0.0768(8)
O19? O 0.00000 0.00000 0.00000
Rh1* Rh -1.01177(4) 0.21904(2) 0.23568(2)
Rh1A Rh -0.48823(4) -0.28096(2) 0.26432(2)
Rh1** Rh 0.98823(4) 0.21904(2) 0.23568(2)
Mn1* Mn 0.45356(7) 0.05424(4) 0.16591(5)
Mn1A Mn 0.04644(7) 0.55424(4) 0.33409(5)
O1* O -0.8630(3) 0.2378(2) 0.1647(2)
O2* O -0.8942(4) 0.1154(2) 0.2805(2)
O3* O 0.8561(3) 0.1488(2) 0.1358(2)
O3** O -1.1439(3) 0.1488(2) 0.1358(2)
O4* O 0.8336(3) 0.1969(2) 0.3043(2)
O4** O -1.1664(3) 0.1969(2) 0.3043(2)
O5A O -0.3850(3) -0.1729(2) 0.3081(2)
O5* O -1.1150(3) 0.3271(2) 0.1919(2)
O6A O -0.6121(3) -0.20938(19) 0.1640(2)
O6* O -0.8879(3) 0.29062(19) 0.3360(2)
O7* O 0.6479(3) 0.0776(2) 0.1134(2)
O8* O 0.6146(3) 0.1372(2) 0.2751(2)
O9* O -0.6658(3) 0.1747(2) 0.1422(2)
O10* O -0.7026(4) 0.0496(2) 0.2546(3)
O11A O -0.4072(3) -0.0388(2) 0.2689(2)
O11A* O 0.5928(3) -0.0388(2) 0.2689(2)
O12A O -0.6358(4) -0.0753(2) 0.1256(2)
O12A* O 0.3642(4) -0.0753(2) 0.1256(2)
O13* O 0.3487(4) 0.0517(2) 0.0128(2)
C1* C -0.7692(5) 0.1796(3) 0.1775(3)
C2* C -0.7886(5) 0.1078(3) 0.2422(3)
C3* C 0.7441(5) 0.1245(3) 0.1596(3)
C4* C 0.7268(5) 0.1550(3) 0.2541(3)
C5A C -0.4457(5) -0.1125(3) 0.2578(3)
C6A C -0.5770(5) -0.1328(3) 0.1752(3)
C7* C 0.3134(7) 0.1163(4) -0.0525(4)
H1* H 0.26810 0.09350 -0.11260
H2* H 0.40060 0.14540 -0.05460
H3* H 0.24730 0.15420 -0.03500
O14B O 0.6208(4) 0.4924(3) 0.1438(3)
O15B O 0.5163(5) 0.6342(3) 0.0180(3)
O16B O 0.6977(6) 0.4976(4) -0.0446(4)
C8B C 0.4410(8) 0.7013(4) -0.0358(4)
H4B H 0.47600 0.75300 -0.00600
H5B H 0.45770 0.70000 -0.09640
H6B H 0.33850 0.69630 -0.04150
C9B C 0.8088(15) 0.5543(13) -0.0357(14)
H7B H 0.88360 0.53100 -0.06030
H8B H 0.77150 0.60400 -0.06930
H9B H 0.84870 0.56750 0.02870
#END
