
#######################################################################
#
#                 Cambridge Crystallographic Data Centre
#                                CCDC
#
#######################################################################
#
# If this CIF has been generated from an entry in the Cambridge
# Structural Database, then it will include bibliographic, chemical,
# crystal, experimental, refinement or atomic coordinate data resulting
# from the CCDC's data processing and validation procedures.
#
#######################################################################

data_CSD_CIF_GENGIR
_audit_creation_date 2013-04-04
_audit_creation_method CSD-ConQuest-V1
_database_code_CSD GENGIR
_database_code_depnum_ccdc_archive 'CCDC 883819'
_chemical_formula_sum 'C54 H60 Dy2 N4 O22 P2'
_chemical_formula_moiety
;
(C2 H8 N1 1+)n,n(C43 H25 Dy2 O16 P2 1-),3n(C3 H7 N1 O1),3n(H2 O1)
;
_journal_coden_Cambridge 9
_journal_volume 51
_journal_year 2012
_journal_page_first 12242
_journal_name_full 'Inorg.Chem. '
loop_
_publ_author_name
"I.A.Ibarra"
"Ji Woong Yoon"
"Jong-San Chang"
"Su Kyoung Lee"
"V.M.Lynch"
"S.M.Humphrey"
_chemical_name_systematic
;
catena-[Dimethylammonium 
bis(\m~5~-4,4',4''-phosphoryltribenzoato)-(\m~2~-formato-O,O')-di-dysprosium(i
ii) N,N-dimethylformamide solvate trihydrate]
;
_chemical_name_common
;
PCM-16
;
_cell_volume   3407.626
_exptl_crystal_colour 'colorless'
_exptl_special_details
;
Study temperature given as 120 K and 393 K in the CIF

;
_exptl_crystal_description 'plate'
_diffrn_ambient_temperature 120
_refine_special_details
;
Disordered cation and solvent molecules were not modelled and the disordered 
density was taken into account using the SQUEEZE/PLATON procedure.
;
#These two values have been output from a single CSD field.
_refine_ls_R_factor_gt 0.0569
_refine_ls_wR_factor_gt 0.0569
_symmetry_cell_setting monoclinic
_symmetry_space_group_name_H-M 'P 2/c'
_symmetry_Int_Tables_number 13
loop_
_symmetry_equiv_pos_site_id
_symmetry_equiv_pos_as_xyz
1 x,y,z
2 -x,y,1/2-z
3 -x,-y,-z
4 x,-y,-1/2+z
_cell_length_a 14.537(3)
_cell_length_b 10.492(2)
_cell_length_c 23.403(5)
_cell_angle_alpha 90
_cell_angle_beta 107.32(3)
_cell_angle_gamma 90
_cell_formula_units_Z 2
loop_
_atom_type_symbol
_atom_type_radius_bond
C 0.68
H 0.23
Dy 1.66
O 0.68
P 1.05
loop_
_atom_site_label
_atom_site_type_symbol
_atom_site_fract_x
_atom_site_fract_y
_atom_site_fract_z
Dy1 Dy 0.15497(2) 0.93606(3) 0.226515(14)
P1 P 0.23095(14) 1.14155(19) 0.12079(8)
O1 O 0.1737(4) 1.0548(4) 0.1479(2)
O2 O 0.1546(3) 1.7065(5) 0.2360(2)
O3 O 0.0737(4) 1.1225(6) 0.2361(3)
O4 O 0.1890(4) 1.7815(5) 0.1568(2)
O5 O -0.0018(4) 1.1137(6) -0.1753(2)
O6 O 0.1488(4) 1.0931(5) -0.1774(2)
O7 O 0.7191(4) 1.0832(5) 0.2214(2)
O8 O 0.6768(3) 0.8835(6) 0.2285(2)
C1 C 0.2191(5) 1.3031(7) 0.1398(3)
C2 C 0.00000 1.1669(18) 0.25000
H1 H 0.00000 1.25550 0.25000
C3 C 0.2055(7) 1.3325(9) 0.1948(4)
H2 H 0.20400 1.26690 0.22130
C4 C 0.1942(8) 1.4582(8) 0.2112(4)
H3 H 0.18650 1.47590 0.24840
C5 C 0.1944(5) 1.5538(7) 0.1726(3)
C6 C 0.2077(7) 1.5308(7) 0.1169(4)
H4 H 0.20770 1.59720 0.09060
C7 C 0.2209(6) 1.4055(8) 0.1020(4)
H5 H 0.23130 1.38910 0.06540
C8 C 0.1785(6) 1.6914(8) 0.1885(3)
C9 C 0.1897(5) 1.1318(7) 0.0403(3)
C10 C 0.0929(5) 1.1296(9) 0.0109(3)
H6 H 0.04900 1.13350 0.03280
C11 C 0.0597(6) 1.1220(9) -0.0500(3)
H7 H -0.00630 1.12110 -0.06910
C12 C 0.1230(5) 1.1155(6) -0.0835(3)
C13 C 0.2202(6) 1.1197(9) -0.0554(3)
H8 H 0.26320 1.11790 -0.07790
C14 C 0.2547(6) 1.1267(10) 0.0069(4)
H9 H 0.32060 1.12790 0.02600
C15 C 0.0860(5) 1.1055(6) -0.1508(3)
C16 C 0.3581(5) 1.1018(7) 0.1454(3)
C17 C 0.3842(6) 0.9751(8) 0.1519(3)
H10 H 0.33680 0.91250 0.14250
C18 C 0.4791(6) 0.9406(9) 0.1721(4)
H11 H 0.49560 0.85480 0.17650
C19 C 0.5501(5) 1.0315(7) 0.1860(3)
C20 C 0.5252(6) 1.1586(8) 0.1778(3)
H12 H 0.57330 1.22020 0.18540
C21 C 0.4287(6) 1.1958(9) 0.1582(3)
H13 H 0.41200 1.28160 0.15370
C22 C 0.6544(6) 0.9970(9) 0.2128(3)
Dy1* Dy 0.15497(2) -0.06394(3) 0.226515(14)
Dy1** Dy 0.15497(2) 1.93606(3) 0.226515(14)
Dy1B Dy -0.15497(2) 1.06394(3) -0.226515(14)
Dy1C Dy 0.15497(2) 1.06394(3) -0.273485(14)
Dy1A Dy 0.84503(2) 0.93606(3) 0.273485(14)
Dy1A* Dy -0.15497(2) 0.93606(3) 0.273485(14)
Dy1B* Dy -0.15497(2) 0.06394(3) -0.226515(14)
Dy1C* Dy 0.15497(2) 0.06394(3) -0.273485(14)
Dy1A** Dy 0.84503(2) -0.06394(3) 0.273485(14)
P1* P 0.23095(14) 0.14155(19) 0.12079(8)
O1* O 0.1737(4) 0.0548(4) 0.1479(2)
O2* O 0.1546(3) 0.7065(5) 0.2360(2)
O2** O 0.1546(3) -0.2935(5) 0.2360(2)
O3A O -0.0737(4) 1.1225(6) 0.2639(3)
O3* O 0.0737(4) 0.1225(6) 0.2361(3)
O4* O 0.1890(4) 0.7815(5) 0.1568(2)
O4** O 0.1890(4) -0.2185(5) 0.1568(2)
O5* O -0.0018(4) 0.1137(6) -0.1753(2)
O5B O 0.0018(4) 0.8863(6) 0.1753(2)
O5B* O 0.0018(4) -0.1137(6) 0.1753(2)
O6* O 0.1488(4) 0.0931(5) -0.1774(2)
O6C O 0.1488(4) 0.9069(5) 0.3226(2)
O6C* O 0.1488(4) -0.0931(5) 0.3226(2)
O7* O 0.7191(4) 0.0832(5) 0.2214(2)
O7A O 0.2809(4) 1.0832(5) 0.2786(2)
O7A* O 0.2809(4) 0.0832(5) 0.2786(2)
O8* O 0.6768(3) -0.1165(6) 0.2285(2)
O8A O 0.3232(3) 0.8835(6) 0.2715(2)
O8A* O 0.3232(3) -0.1165(6) 0.2715(2)
C1* C 0.2191(5) 0.3031(7) 0.1398(3)
C3* C 0.2055(7) 0.3325(9) 0.1948(4)
H2* H 0.20400 0.26690 0.22130
C4* C 0.1942(8) 0.4582(8) 0.2112(4)
H3* H 0.18650 0.47590 0.24840
C5* C 0.1944(5) 0.5538(7) 0.1726(3)
C6* C 0.2077(7) 0.5308(7) 0.1169(4)
H4* H 0.20770 0.59720 0.09060
C7* C 0.2209(6) 0.4055(8) 0.1020(4)
H5* H 0.23130 0.38910 0.06540
C8* C 0.1785(6) 0.6914(8) 0.1885(3)
C9* C 0.1897(5) 0.1318(7) 0.0403(3)
C10* C 0.0929(5) 0.1296(9) 0.0109(3)
H6* H 0.04900 0.13350 0.03280
C11* C 0.0597(6) 0.1220(9) -0.0500(3)
H7* H -0.00630 0.12110 -0.06910
C12* C 0.1230(5) 0.1155(6) -0.0835(3)
C13* C 0.2202(6) 0.1197(9) -0.0554(3)
H8* H 0.26320 0.11790 -0.07790
C14* C 0.2547(6) 0.1267(10) 0.0069(4)
H9* H 0.32060 0.12790 0.02600
C15* C 0.0860(5) 0.1055(6) -0.1508(3)
C16* C 0.3581(5) 0.1018(7) 0.1454(3)
C17* C 0.3842(6) -0.0249(8) 0.1519(3)
H10* H 0.33680 -0.08750 0.14250
C18* C 0.4791(6) -0.0594(9) 0.1721(4)
H11* H 0.49560 -0.14520 0.17650
C19* C 0.5501(5) 0.0315(7) 0.1860(3)
C20* C 0.5252(6) 0.1586(8) 0.1778(3)
H12* H 0.57330 0.22020 0.18540
C21* C 0.4287(6) 0.1958(9) 0.1582(3)
H13* H 0.41200 0.28160 0.15370
C22* C 0.6544(6) -0.0030(9) 0.2128(3)
#END
