
#######################################################################
#
#                 Cambridge Crystallographic Data Centre
#                                CCDC
#
#######################################################################
#
# If this CIF has been generated from an entry in the Cambridge
# Structural Database, then it will include bibliographic, chemical,
# crystal, experimental, refinement or atomic coordinate data resulting
# from the CCDC's data processing and validation procedures.
#
#######################################################################

data_CSD_CIF_GERMOH
_audit_creation_date 2013-04-24
_audit_creation_method CSD-ConQuest-V1
_database_code_CSD GERMOH
_database_code_depnum_ccdc_archive 'CCDC 872132'
_chemical_formula_sum 'C66 H56 Cd5 N16 Na2 O34'
_chemical_formula_moiety
;
(C66 H40 Cd5 N16 O26 2-)n,2n(Na1 1+),8n(H2 O1)
;
_journal_coden_Cambridge 1350
_journal_volume 14
_journal_year 2012
_journal_page_first 6271
_journal_name_full 'CrystEngComm '
loop_
_publ_author_name
"Wei-Qiu Kan"
"Jin Yang"
"Ying-Ying Liu"
"Jian-Fang Ma"
_chemical_name_systematic
;
catena-(Di-sodium 
bis(\m~4~-4,4'-(1-(1H-1,2,4-triazol-1-ylmethyl)-1H-1,2,4-triazole-3,5-diyl)dip
yridine)-(\m~3~-4,4'-(1-(1H-1,2,4-triazol-1-ylmethyl)-1H-1,2,4-triazole-3,5-di
yl)dipyridine)-(\m~3~-benzene-1,2,3-tricarboxylato)-diaqua-penta-cadmium 
octahydrate)
;
_cell_volume   1893.963
_exptl_crystal_colour 'colorless'
_exptl_crystal_density_diffrn 1.951
_exptl_crystal_description 'block'
_diffrn_ambient_temperature 293
_refine_special_details
;
A number of lattice waters are disordered.

;
#These two values have been output from a single CSD field.
_refine_ls_R_factor_gt 0.0298
_refine_ls_wR_factor_gt 0.0298
_symmetry_cell_setting triclinic
_symmetry_space_group_name_H-M 'P -1'
_symmetry_Int_Tables_number 2
loop_
_symmetry_equiv_pos_site_id
_symmetry_equiv_pos_as_xyz
1 x,y,z
2 -x,-y,-z
_cell_length_a 11.2255(4)
_cell_length_b 11.5675(3)
_cell_length_c 15.6687(4)
_cell_angle_alpha 94.647(2)
_cell_angle_beta 110.543(3)
_cell_angle_gamma 92.245(3)
_cell_formula_units_Z 1
loop_
_atom_type_symbol
_atom_type_radius_bond
C 0.68
H 0.23
Cd 1.54
N 0.68
Na 0.35
O 0.68
loop_
_atom_site_label
_atom_site_type_symbol
_atom_site_fract_x
_atom_site_fract_y
_atom_site_fract_z
Cd1 Cd 0.00000 -0.50000 0.50000
Cd2 Cd 0.23357(2) 0.00224(2) 0.517590(16)
Cd3 Cd 0.35620(2) -0.15250(2) -0.262860(17)
Na1 Na 0.59215(14) 0.06479(14) 0.61893(11)
C1 C 0.0844(4) -0.3650(4) 0.3523(3)
H1 H 0.14980 -0.33130 0.40450
C2 C 0.0835(4) -0.3386(4) 0.2676(3)
H2 H 0.14820 -0.28970 0.26300
C3 C -0.0147(4) -0.3860(3) 0.1903(2)
C4 C -0.1082(4) -0.4577(4) 0.2003(3)
H3 H -0.17650 -0.49010 0.14930
C5 C -0.0988(5) -0.4809(4) 0.2876(3)
H4 H -0.16210 -0.53010 0.29390
C6 C -0.0196(4) -0.3651(3) 0.0970(3)
C7 C 0.0317(4) -0.3221(4) -0.0133(3)
C8 C 0.1055(4) -0.2834(4) -0.0692(3)
C9 C 0.0490(4) -0.2425(4) -0.1541(3)
H5 H -0.03850 -0.23530 -0.17760
C10 C 0.1238(4) -0.2131(4) -0.2027(3)
H6 H 0.08440 -0.18870 -0.26050
C11 C 0.3045(4) -0.2535(5) -0.0891(3)
H7 H 0.39280 -0.25540 -0.06570
C12 C 0.2359(4) -0.2880(5) -0.0369(3)
H8 H 0.27740 -0.31420 0.01990
C13 C -0.1846(4) -0.3941(4) -0.1369(3)
H9 H -0.23010 -0.46840 -0.14050
H10 H -0.14270 -0.39990 -0.18150
C14 C -0.3388(4) -0.1394(4) -0.1846(3)
H11 H -0.34240 -0.06100 -0.19370
C15 C -0.4000(4) -0.3110(4) -0.1754(3)
H12 H -0.44810 -0.37830 -0.17560
C16 C 0.4944(4) -0.4808(3) 0.6162(2)
H13 H 0.45620 -0.54730 0.62810
C17 C 0.6190(4) -0.4794(3) 0.6196(3)
H14 H 0.66590 -0.54360 0.63670
C18 C 0.6740(3) -0.3830(3) 0.5977(2)
H15 H 0.75760 -0.38300 0.59930
C19 C 0.6054(3) -0.2856(3) 0.5731(2)
C20 C 0.4820(3) -0.2835(3) 0.5754(2)
C21 C 0.4258(3) -0.3829(3) 0.5949(2)
C22 C 0.2902(3) -0.3880(3) 0.5924(2)
C23 C 0.4078(3) -0.1769(3) 0.5567(2)
C24 C 0.6640(3) -0.1881(3) 0.5396(2)
C25 C -0.0865(4) 0.0431(3) 0.6759(3)
C26 C 0.1778(3) 0.0399(3) 0.6750(2)
C27 C 0.3925(4) 0.0991(4) 0.8508(3)
C28 C 0.2555(4) 0.0849(4) 0.8467(3)
C29 C 0.2324(4) 0.0959(4) 0.9279(3)
H16 H 0.30040 0.11260 0.98300
C30 C 0.1099(4) 0.0824(4) 0.9284(3)
H17 H 0.09610 0.08470 0.98360
C31 C 0.0085(4) 0.0657(4) 0.8468(3)
H18 H -0.07410 0.05980 0.84740
C32 C 0.0275(3) 0.0574(3) 0.7633(2)
C33 C 0.1524(3) 0.0632(3) 0.7629(2)
N1 N -0.0045(3) -0.4367(3) 0.3624(2)
N2 N 0.0794(3) -0.3224(3) 0.0768(2)
N3 N -0.1243(3) -0.3947(3) 0.0258(2)
N4 N -0.0899(3) -0.3665(3) -0.0454(2)
N5 N 0.2500(3) -0.2175(3) -0.1717(2)
N6 N -0.2743(3) -0.3033(3) -0.1574(2)
N7 N -0.2334(3) -0.1930(3) -0.1632(3)
N8 N -0.4445(3) -0.2115(3) -0.1925(2)
O1 O 0.2201(2) -0.4774(2) 0.55307(18)
O2 O 0.2540(2) -0.3026(2) 0.62990(19)
O3 O 0.3222(2) -0.1736(2) 0.48052(18)
O4 O 0.4310(3) -0.0959(2) 0.62178(17)
O5 O 0.5971(2) -0.1038(2) 0.50929(17)
O6 O 0.7745(3) -0.1918(2) 0.5409(2)
O7 O 0.2065(3) 0.1211(3) 0.63708(19)
O8 O 0.1775(2) -0.0655(2) 0.64487(16)
O9 O 0.4292(3) 0.0268(3) 0.8022(2)
O10 O 0.4609(3) 0.1809(4) 0.9011(3)
O11 O -0.0630(2) 0.0451(2) 0.60311(17)
O12 O -0.1942(3) 0.0316(3) 0.68060(19)
O13 O 0.0153(3) -0.6892(3) 0.4432(2)
O14 O 0.6828(6) -0.3341(4) 0.3229(4)
O15 O 0.554(2) 0.1820(18) 0.7259(15)
O16? O 0.537(2) 0.2221(19) 0.6930(15)
O17? O 0.6215(17) 0.1598(13) 0.7671(11)
O18? O 0.6882(16) 0.1433(13) 0.8424(19)
O19 O 0.5664(13) -0.4812(10) 0.1683(8)
O20? O 0.4644(17) -0.4344(13) 0.1488(11)
O21? O 0.382(2) -0.3990(16) 0.1718(13)
O22 O 0.6031(6) -0.3765(5) 0.0253(4)
Cd2A Cd -0.23357(2) -1.00224(2) 0.482410(16)
Cd2A* Cd 0.76643(2) -0.00224(2) 0.482410(16)
Cd2A** Cd -0.23357(2) -0.00224(2) 0.482410(16)
Cd2* Cd -0.76643(2) -0.99776(2) 0.517590(16)
Cd3A Cd -0.35620(2) -0.84750(2) 1.262860(17)
Cd3* Cd -0.64380(2) -0.15250(2) -0.262860(17)
Cd3** Cd 0.35620(2) -0.15250(2) 0.737140(17)
Cd3A* Cd 0.64380(2) -0.84750(2) 1.262860(17)
Cd3A** Cd -0.35620(2) -0.84750(2) 0.262860(17)
Cd3A*** Cd -0.35620(2) 0.15250(2) 0.262860(17)
C1A C -0.0844(4) -0.6350(4) 0.6477(3)
H1A H -0.14980 -0.66870 0.59550
C2A C -0.0835(4) -0.6614(4) 0.7324(3)
H2A H -0.14820 -0.71030 0.73700
C3A C 0.0147(4) -0.6140(3) 0.8097(2)
C4A C 0.1082(4) -0.5423(4) 0.7997(3)
H3A H 0.17650 -0.50990 0.85070
C5A C 0.0988(5) -0.5191(4) 0.7124(3)
H4A H 0.16210 -0.46990 0.70610
C6A C 0.0196(4) -0.6349(3) 0.9030(3)
C7A C -0.0317(4) -0.6779(4) 1.0133(3)
C8A C -0.1055(4) -0.7166(4) 1.0692(3)
C9A C -0.0490(4) -0.7575(4) 1.1541(3)
H5A H 0.03850 -0.76470 1.17760
C10A C -0.1238(4) -0.7869(4) 1.2027(3)
H6A H -0.08440 -0.81130 1.26050
C11A C -0.3045(4) -0.7465(5) 1.0891(3)
H7A H -0.39280 -0.74460 1.06570
C12A C -0.2359(4) -0.7120(5) 1.0369(3)
H8A H -0.27740 -0.68580 0.98010
C13A C 0.1846(4) -0.6059(4) 1.1369(3)
H9A H 0.23010 -0.53160 1.14050
H10A H 0.14270 -0.60010 1.18150
C14A C 0.3388(4) -0.8606(4) 1.1846(3)
H11A H 0.34240 -0.93900 1.19370
C15A C 0.4000(4) -0.6890(4) 1.1754(3)
H12A H 0.44810 -0.62170 1.17560
C16A C -0.4944(4) -0.5192(3) 0.3838(2)
H13A H -0.45620 -0.45270 0.37190
C17A C -0.6190(4) -0.5206(3) 0.3804(3)
H14A H -0.66590 -0.45640 0.36330
C18A C -0.6740(3) -0.6170(3) 0.4023(2)
H15A H -0.75760 -0.61700 0.40070
C19A C -0.6054(3) -0.7144(3) 0.4269(2)
C20A C -0.4820(3) -0.7165(3) 0.4246(2)
C21A C -0.4258(3) -0.6171(3) 0.4051(2)
C22A C -0.2902(3) -0.6120(3) 0.4076(2)
C23A C -0.4078(3) -0.8231(3) 0.4433(2)
C24A C -0.6640(3) -0.8119(3) 0.4604(2)
C25A C 0.0865(4) -0.0431(3) 0.3241(3)
C26A C -0.1778(3) -0.0399(3) 0.3250(2)
C27A C -0.3925(4) -0.0991(4) 0.1492(3)
C28A C -0.2555(4) -0.0849(4) 0.1533(3)
C29A C -0.2324(4) -0.0959(4) 0.0721(3)
H16A H -0.30040 -0.11260 0.01700
C30A C -0.1099(4) -0.0824(4) 0.0716(3)
H17A H -0.09610 -0.08470 0.01640
C31A C -0.0085(4) -0.0657(4) 0.1532(3)
H18A H 0.07410 -0.05980 0.15260
C32A C -0.0275(3) -0.0574(3) 0.2367(2)
C33A C -0.1524(3) -0.0632(3) 0.2371(2)
N1A N 0.0045(3) -0.5633(3) 0.6376(2)
N2A N -0.0794(3) -0.6776(3) 0.9232(2)
N3A N 0.1243(3) -0.6053(3) 0.9742(2)
N4A N 0.0899(3) -0.6335(3) 1.0454(2)
N5A N -0.2500(3) -0.7825(3) 1.1717(2)
N6A N 0.2743(3) -0.6967(3) 1.1574(2)
N7A N 0.2334(3) -0.8070(3) 1.1632(3)
N8A N 0.4445(3) -0.7885(3) 1.1925(2)
N8* N 0.5555(3) -0.2115(3) -0.1925(2)
N8A* N -0.5555(3) -0.7885(3) 1.1925(2)
O1A O -0.2201(2) -0.5226(2) 0.44693(18)
O2A O -0.2540(2) -0.6974(2) 0.37010(19)
O2* O 0.2540(2) -0.3026(2) -0.37010(19)
O2A* O -0.2540(2) -0.6974(2) 1.37010(19)
O3A O -0.3222(2) -0.8264(2) 0.51948(18)
O4A O -0.4310(3) -0.9041(2) 0.37822(17)
O4* O 0.4310(3) -0.0959(2) -0.37822(17)
O4A* O -0.4310(3) -0.9041(2) 1.37822(17)
O5A O -0.5971(2) -0.8962(2) 0.49071(17)
O5A* O 0.4029(2) 0.1038(2) 0.49071(17)
O5* O -0.4029(2) -1.1038(2) 0.50929(17)
O6A O -0.7745(3) -0.8082(2) 0.4591(2)
O6A* O 0.2255(3) 0.1918(2) 0.4591(2)
O6* O -0.2255(3) -1.1918(2) 0.5409(2)
O7A O -0.2065(3) -0.1211(3) 0.36292(19)
O7A* O -0.2065(3) -1.1211(3) 0.36292(19)
O8A O -0.1775(2) 0.0655(2) 0.35513(16)
O8* O 0.1775(2) -0.0655(2) -0.35513(16)
O8A* O -0.1775(2) -0.9345(2) 0.35513(16)
O8A** O -0.1775(2) -0.9345(2) 1.35513(16)
O9A O -0.4292(3) -0.0268(3) 0.1978(2)
O9* O 0.4292(3) 0.0268(3) -0.1978(2)
O9A* O -0.4292(3) -1.0268(3) 1.1978(2)
O10A O -0.4609(3) -0.1809(4) 0.0989(3)
O11A O 0.0630(2) -0.0451(2) 0.39689(17)
O11* O -0.0630(2) -0.9549(2) 0.60311(17)
O12A O 0.1942(3) -0.0316(3) 0.31940(19)
O13A O -0.0153(3) -0.3108(3) 0.5568(2)
#END
