
#######################################################################
#
#                 Cambridge Crystallographic Data Centre
#                                CCDC
#
#######################################################################
#
# If this CIF has been generated from an entry in the Cambridge
# Structural Database, then it will include bibliographic, chemical,
# crystal, experimental, refinement or atomic coordinate data resulting
# from the CCDC's data processing and validation procedures.
#
#######################################################################

data_CSD_CIF_GERMOI
_audit_creation_date 2017-11-30
_audit_creation_method CSD-ConQuest-V1
_database_code_CSD GERMOI
_database_code_depnum_ccdc_archive 'CCDC 1540701'
_chemical_formula_sum 'C28 H76 Co3 Cr2 Mo12 N6 O73'
_chemical_formula_moiety
;
C24 H30 Co2 N6 O12 4+,n(H14 Co1 Cr1 Mo6 O28 1-),H6 Cr1 Mo6 O24 3-,2(C2 H6 
O1),7(H2 O1)
;
_journal_coden_Cambridge 1350
_journal_volume 20
_journal_year 2018
_journal_page_first 51
_journal_name_full 'CrystEngComm '
loop_
_publ_author_name
"Xiu-Li Wang"
"Ge Song"
"Hong-Yan Lin"
"Xiang Wang"
"Guo-Cheng Liu"
"Xing Rong"
_chemical_name_systematic
;
catena-[bis(\m-3-((pyridin-1-ium-3-yl)carbamoyl)pyridine-2-carboxylato)-hexaaq
ua-di-cobalt 
hexakis(\m-hydroxo)-hexakis(\m-oxo)-dodecaoxo-chromium-hexa-molybdenum 
hexakis(\m-hydroxo)-octakis(\m-oxo)-tetraaqua-decaoxo-chromium-cobalt-hexa-mol
ybdenum ethanol solvate heptahydrate]
;
_cell_volume   2009.827
_exptl_crystal_colour 'pink'
_exptl_crystal_density_diffrn 2.559
_exptl_crystal_description 'block'
_diffrn_ambient_temperature 293
_refine_special_details
;
C15,C16,O29 and C13,C14,O30 disordered over two sites with occupancies 
0.5:0.5.
;
#These two values have been output from a single CSD field.
_refine_ls_R_factor_gt 0.0283
_refine_ls_wR_factor_gt 0.0283
_symmetry_cell_setting triclinic
_symmetry_space_group_name_H-M 'P -1'
_symmetry_Int_Tables_number 2
loop_
_symmetry_equiv_pos_site_id
_symmetry_equiv_pos_as_xyz
1 x,y,z
2 -x,-y,-z
_cell_length_a 12.3636(5)
_cell_length_b 13.0466(5)
_cell_length_c 14.4949(5)
_cell_angle_alpha 106.060(1)
_cell_angle_beta 97.818(1)
_cell_angle_gamma 111.813(1)
_cell_formula_units_Z 1
loop_
_atom_type_symbol
_atom_type_radius_bond
C 0.68
H 0.23
Co 1.26
Cr 1.39
Mo 1.54
N 0.68
O 0.68
loop_
_atom_site_label
_atom_site_type_symbol
_atom_site_fract_x
_atom_site_fract_y
_atom_site_fract_z
Mo1 Mo 1.17247(2) 0.59117(2) 0.85218(2)
Mo2 Mo 1.20590(2) 0.40006(2) 0.95075(2)
Mo3 Mo 0.96054(3) 0.68428(2) 0.89512(2)
Co1 Co 1.00000 1.00000 1.00000
Cr1 Cr 1.00000 0.50000 1.00000
O1 O 1.1728(3) 1.0592(3) 1.0891(3)
H1 H 1.19100 1.02270 1.13430
H2 H 1.21760 1.13630 1.13880
O2 O 1.0727(3) 1.0241(3) 0.8848(2)
H3 H 1.12890 0.99570 0.87790
H4 H 1.11680 1.10120 0.89580
O3 O 1.1786(3) 0.2557(2) 0.89457(19)
O4 O 1.1937(2) 0.4023(2) 1.08501(17)
O5 O 1.1570(2) 0.43430(19) 0.83637(16)
O6 O 1.3588(2) 0.4770(3) 0.9834(2)
O7 O 1.1295(2) 0.5721(2) 0.72854(17)
O8 O 1.3246(2) 0.6715(2) 0.88955(19)
O9 O 0.97692(18) 0.51236(18) 0.86701(15)
H5 H 0.91620 0.44300 0.81140
O10 O 1.17355(18) 0.56676(18) 1.00433(15)
H6 H 1.23080 0.63230 1.06440
O11 O 1.1287(2) 0.71631(19) 0.91205(17)
O12 O 0.9151(3) 0.6572(3) 0.7721(2)
O13 O 0.99271(19) 0.65339(18) 1.04482(15)
H7 H 1.05640 0.71770 1.10220
O14 O 0.9827(3) 0.8268(2) 0.9553(2)
Mo4 Mo 0.39486(3) -0.28426(2) 0.46838(3)
Mo5 Mo 0.66635(3) 0.20514(2) 0.72335(2)
Mo6 Mo 0.54612(3) -0.08238(3) 0.69494(3)
Cr2 Cr 0.50000 0.00000 0.50000
O15 O 0.4796(2) -0.3586(2) 0.4861(2)
O16 O 0.2483(2) -0.3876(2) 0.4336(2)
O17 O 0.3946(2) -0.2068(2) 0.6046(2)
O18 O 0.4972(3) -0.0522(3) 0.7989(2)
O19 O 0.34375(19) -0.14034(18) 0.44214(18)
H8 H 0.27260 -0.13450 0.46130
O20 O 0.55984(19) -0.10822(19) 0.53445(18)
H9 H 0.63600 -0.10530 0.52030
O21 O 0.6284(3) -0.1583(2) 0.7125(2)
O22 O 0.4846(2) 0.04114(19) 0.63856(18)
H10 H 0.40980 0.04530 0.65000
O23 O 0.6852(2) 0.0676(2) 0.7242(2)
O24 O 0.6310(3) 0.2457(3) 0.8341(2)
O25 O 0.5838(2) 0.2758(2) 0.6580(2)
O26 O 0.8157(2) 0.2988(2) 0.7478(2)
Co2 Co 0.97488(4) 0.24353(4) 0.46954(3)
O27 O 0.8665(2) -0.2797(2) 0.41501(17)
O28 O 0.7507(2) -0.0838(2) 0.46434(19)
O29 O 0.83182(19) 0.10856(19) 0.48563(17)
O30 O 0.9590(2) 0.3671(3) 0.5794(2)
H11 H 0.89880 0.38400 0.55810
H12 H 1.02310 0.43660 0.59890
O31 O 1.0973(2) 0.3560(2) 0.4233(2)
H13 H 1.07450 0.33630 0.35840
H14 H 1.16530 0.34880 0.43260
O32 O 0.8317(2) 0.2489(2) 0.36208(18)
H15 H 0.75680 0.22070 0.35940
H16 H 0.88250 0.30370 0.36890
N1 N 0.9912(2) 0.0890(2) 0.38874(19)
N2 N 0.7225(2) -0.2843(2) 0.29591(19)
H17 H 0.70850 -0.24520 0.26050
N3 N 0.4216(2) -0.5219(3) 0.2056(2)
H18 H 0.35220 -0.53590 0.17070
C1 C 0.8232(3) 0.0036(3) 0.4524(2)
C2 C 0.9126(2) -0.0116(3) 0.3950(2)
C3 C 0.9184(3) -0.1185(3) 0.3565(2)
C4 C 1.0123(3) -0.1206(3) 0.3125(2)
H19 H 1.02040 -0.19040 0.28790
C5 C 1.0918(3) -0.0176(3) 0.3065(2)
H20 H 1.15420 -0.01710 0.27700
C6 C 1.0785(3) 0.0855(3) 0.3447(3)
H21 H 1.13220 0.15450 0.33940
C7 C 0.8326(3) -0.2336(3) 0.3603(2)
C8 C 0.6282(3) -0.3937(3) 0.2801(2)
C9 C 0.6411(3) -0.4790(3) 0.3142(3)
H22 H 0.71600 -0.46510 0.35120
C10 C 0.5416(4) -0.5848(4) 0.2926(3)
H23 H 0.54980 -0.64280 0.31450
C11 C 0.4309(3) -0.6045(3) 0.2391(3)
H24 H 0.36320 -0.67450 0.22630
C12 C 0.5150(3) -0.4183(3) 0.2236(2)
H25 H 0.50440 -0.36320 0.19870
O33 O 1.1839(7) 0.8592(7) 1.1046(6)
H26 H 1.22620 0.83730 1.06910
H27 H 1.22740 0.88630 1.16410
O34 O 1.3220(3) 0.3920(3) 0.4344(3)
H28 H 1.36720 0.46540 0.46420
H29 H 1.36340 0.35810 0.45270
O35 O 1.2261(3) 0.9365(3) 0.8256(3)
H30 H 1.17220 0.87160 0.78290
H31 H 1.29180 0.92980 0.82620
O36 O 0.3532(3) 0.1231(3) 0.7696(3)
H32 H 0.2955(12) 0.1171(18) 0.7968(13)
H33 H 0.385(2) 0.0836(16) 0.7910(11)
O37 O 0.3947(11) -0.0859(10) 1.0004(9)
H34 H 0.37960 -0.14580 1.01420
C13 C 0.3725(11) 0.0755(11) 1.0182(10)
H35 H 0.45690 0.10860 1.05140
H36 H 0.33530 0.11900 1.05580
H37 H 0.36330 0.08000 0.95280
C14 C 0.312(1) -0.0536(9) 1.0096(7)
H38 H 0.28660 -0.06060 1.06890
H39 H 0.24260 -0.09940 0.95180
O38? O 0.4526(5) 0.2856(6) 0.9651(5)
H40? H 0.44990 0.23840 0.91290
C15? C 0.3912(13) 0.2278(12) 1.0159(9)
H41? H 0.31230 0.18050 0.96850
H42? H 0.38120 0.28960 1.06420
C16? C 0.3965(13) 0.1524(12) 1.0710(11)
H43? H 0.32570 0.07850 1.04230
H44? H 0.40020 0.19000 1.13920
H45? H 0.46720 0.13860 1.06830
Mo1A Mo 0.82753(2) 0.40883(2) 1.14782(2)
Mo2A Mo 0.79410(2) 0.59994(2) 1.04925(2)
Mo3A Mo 1.03946(3) 0.31572(2) 1.10488(2)
O3A O 0.8214(3) 0.7443(2) 1.10543(19)
O4A O 0.8063(2) 0.5977(2) 0.91499(17)
O5A O 0.8430(2) 0.56570(19) 1.16363(16)
O6A O 0.6412(2) 0.5230(3) 1.0166(2)
O7A O 0.8705(2) 0.4279(2) 1.27146(17)
O8A O 0.6754(2) 0.3285(2) 1.11045(19)
O9A O 1.02308(18) 0.48764(18) 1.13299(15)
H5A H 1.08380 0.55700 1.18860
O10A O 0.82645(18) 0.43324(18) 0.99567(15)
H6A H 0.76920 0.36770 0.93560
O11A O 0.8713(2) 0.28369(19) 1.08795(17)
O12A O 1.0849(3) 0.3428(3) 1.2279(2)
O13A O 1.00729(19) 0.34661(18) 0.95518(15)
H7A H 0.94360 0.28230 0.89780
O14A O 1.0173(3) 0.1732(2) 1.0447(2)
O1A O 0.8272(3) 0.9408(3) 0.9109(3)
H1A H 0.80900 0.97730 0.86570
H2A H 0.78240 0.86370 0.86120
O2A O 0.9273(3) 0.9759(3) 1.1152(2)
H3A H 0.87110 1.00430 1.12210
H4A H 0.88320 0.89880 1.10420
Co1* Co 1.00000 0.00000 1.00000
O14A* O 1.0173(3) 1.1732(2) 1.0447(2)
Mo4A Mo 0.60514(3) 0.28426(2) 0.53162(3)
Mo5A Mo 0.33365(3) -0.20514(2) 0.27665(2)
Mo6A Mo 0.45388(3) 0.08238(3) 0.30506(3)
O15A O 0.5204(2) 0.3586(2) 0.5139(2)
O16A O 0.7517(2) 0.3876(2) 0.5664(2)
O17A O 0.6054(2) 0.2068(2) 0.3954(2)
O18A O 0.5028(3) 0.0522(3) 0.2011(2)
O19A O 0.65625(19) 0.14034(18) 0.55786(18)
H8A H 0.72740 0.13450 0.53870
O20A O 0.44016(19) 0.10822(19) 0.46555(18)
H9A H 0.36400 0.10530 0.47970
O21A O 0.3716(3) 0.1583(2) 0.2875(2)
O22A O 0.5154(2) -0.04114(19) 0.36144(18)
H10A H 0.59020 -0.04530 0.35000
O23A O 0.3148(2) -0.0676(2) 0.2758(2)
O24A O 0.3690(3) -0.2457(3) 0.1659(2)
O25A O 0.4162(2) -0.2758(2) 0.3420(2)
O26A O 0.1843(2) -0.2988(2) 0.2522(2)
Co2A Co 1.02512(4) -0.24353(4) 0.53046(3)
O27A O 1.1335(2) 0.2797(2) 0.58499(17)
O28A O 1.2493(2) 0.0838(2) 0.53566(19)
O29A O 1.16818(19) -0.10856(19) 0.51437(17)
O30A O 1.0410(2) -0.3671(3) 0.4206(2)
H11A H 1.10120 -0.38400 0.44190
H12A H 0.97690 -0.43660 0.40110
O31A O 0.9027(2) -0.3560(2) 0.5767(2)
H13A H 0.92550 -0.33630 0.64160
H14A H 0.83470 -0.34880 0.56740
O32A O 1.1683(2) -0.2489(2) 0.63792(18)
H15A H 1.24320 -0.22070 0.64060
H16A H 1.11750 -0.30370 0.63110
N1A N 1.0088(2) -0.0890(2) 0.61126(19)
N2A N 1.2775(2) 0.2843(2) 0.70409(19)
H17A H 1.29150 0.24520 0.73950
N3A N 1.5784(2) 0.5219(3) 0.7944(2)
H18A H 1.64780 0.53590 0.82930
C1A C 1.1768(3) -0.0036(3) 0.5476(2)
C2A C 1.0874(2) 0.0116(3) 0.6050(2)
C3A C 1.0816(3) 0.1185(3) 0.6435(2)
C4A C 0.9877(3) 0.1206(3) 0.6875(2)
H19A H 0.97960 0.19040 0.71210
C5A C 0.9082(3) 0.0176(3) 0.6935(2)
H20A H 0.84580 0.01710 0.72300
C6A C 0.9215(3) -0.0855(3) 0.6553(3)
H21A H 0.86780 -0.15450 0.66060
C7A C 1.1674(3) 0.2336(3) 0.6397(2)
C8A C 1.3718(3) 0.3937(3) 0.7199(2)
C9A C 1.3589(3) 0.4790(3) 0.6858(3)
H22A H 1.28400 0.46510 0.64880
C10A C 1.4584(4) 0.5848(4) 0.7074(3)
H23A H 1.45020 0.64280 0.68550
C11A C 1.5691(3) 0.6045(3) 0.7609(3)
H24A H 1.63680 0.67450 0.77370
C12A C 1.4850(3) 0.4183(3) 0.7764(2)
H25A H 1.49560 0.36320 0.80130
#END
