
#######################################################################
#
#                 Cambridge Crystallographic Data Centre
#                                CCDC
#
#######################################################################
#
# If this CIF has been generated from an entry in the Cambridge
# Structural Database, then it will include bibliographic, chemical,
# crystal, experimental, refinement or atomic coordinate data resulting
# from the CCDC's data processing and validation procedures.
#
#######################################################################

data_CSD_CIF_GERWIL
_audit_creation_date 2013-04-04
_audit_creation_method CSD-ConQuest-V1
_database_code_CSD GERWIL
_database_code_depnum_ccdc_archive 'CCDC 899431'
_chemical_formula_sum 'C82 H102 N8 O42 Si2 Zn5'
_chemical_formula_moiety
;
(C64 H28 O34 Si2 Zn5 6-)n,6n(C2 H8 N1 1+),2n(C3 H7 N1 O1),6n(H2 O1)
;
_journal_coden_Cambridge 1147
_journal_volume 12
_journal_year 2012
_journal_page_first 6158
_journal_name_full 'Cryst.Growth Des. '
loop_
_publ_author_name
"Yun-Shan Xue"
"Feng-Yan Jin"
"Lian Zhou"
"Mei-Pin Liu"
"Yan Xu"
"Hong-Bin Du"
"Min Fang"
"Xiao-Zeng You"
_chemical_name_systematic
;
catena-(hexakis(dimethylammonium) 
bis(\m~9~-5,5',5'',5'''-silanetetrayltetraisophthalato)-diaqua-penta-zinc 
N,N-dimethylformamide solvate hexahydrate)
;
_cell_volume  10759.116
_exptl_crystal_colour 'yellow'
_exptl_crystal_description 'block'
_diffrn_ambient_temperature 296
#These two values have been output from a single CSD field.
_refine_ls_R_factor_gt 0.064
_refine_ls_wR_factor_gt 0.064
_symmetry_cell_setting monoclinic
_symmetry_space_group_name_H-M 'C 2/c'
_symmetry_Int_Tables_number 15
loop_
_symmetry_equiv_pos_site_id
_symmetry_equiv_pos_as_xyz
1 x,y,z
2 -x,y,1/2-z
3 1/2+x,1/2+y,z
4 1/2-x,1/2+y,1/2-z
5 -x,-y,-z
6 x,-y,-1/2+z
7 -1/2-x,-1/2-y,-z
8 -1/2+x,-1/2-y,-1/2+z
_cell_length_a 23.168(8)
_cell_length_b 18.615(6)
_cell_length_c 25.483(8)
_cell_angle_alpha 90
_cell_angle_beta 101.768(4)
_cell_angle_gamma 90
_cell_formula_units_Z 4
loop_
_atom_type_symbol
_atom_type_radius_bond
C 0.68
H 0.23
N 0.74
O 0.68
Si 1.20
Zn 1.22
loop_
_atom_site_label
_atom_site_type_symbol
_atom_site_fract_x
_atom_site_fract_y
_atom_site_fract_z
C1 C 0.3997(2) 0.7115(3) 0.97030(19)
C2 C 0.38870(18) 0.6944(2) 0.91199(17)
C3 C 0.35415(18) 0.6355(3) 0.89170(18)
H1 H 0.33840 0.60660 0.91500
C4 C 0.34248(17) 0.6187(2) 0.83621(17)
C5 C 0.36928(17) 0.6611(2) 0.80292(17)
H2 H 0.36310 0.65070 0.76650
C6 C 0.40525(18) 0.7188(2) 0.82346(17)
C7 C 0.41411(19) 0.7356(2) 0.87730(18)
H3 H 0.43730 0.77500 0.89050
C8 C 0.43455(19) 0.7614(2) 0.7854(2)
C9 C 0.2912(3) 0.3227(3) 0.9501(2)
C10 C 0.3236(2) 0.3654(3) 0.91659(18)
C11 C 0.29583(19) 0.4208(2) 0.88454(17)
H4 H 0.25610 0.42980 0.88330
C12 C 0.32602(18) 0.4628(2) 0.85449(17)
C13 C 0.3860(2) 0.4485(3) 0.85682(19)
H5 H 0.40690 0.47660 0.83690
C14 C 0.4145(2) 0.3936(3) 0.8881(2)
C15 C 0.3839(2) 0.3519(3) 0.9179(2)
H6 H 0.40300 0.31480 0.93890
C16 C 0.4810(3) 0.3823(4) 0.8898(3)
C17 C 0.1447(2) 0.7038(3) 0.8939(2)
C18 C 0.15277(19) 0.6373(3) 0.8632(2)
C19 C 0.1074(2) 0.5885(3) 0.8484(2)
H7 H 0.07070 0.59790 0.85630
C20 C 0.11628(19) 0.5261(2) 0.82202(18)
C21 C 0.17064(18) 0.5126(2) 0.81003(17)
H8 H 0.17620 0.47050 0.79200
C22 C 0.21752(18) 0.5604(2) 0.82424(16)
C23 C 0.20717(19) 0.6222(2) 0.85124(18)
H9 H 0.23790 0.65470 0.86160
C24 C 0.0657(2) 0.4735(3) 0.8076(2)
C25 C 0.2330(2) 0.6196(3) 0.6071(2)
C26 C 0.2666(2) 0.5674(3) 0.64713(19)
C27 C 0.3005(2) 0.5138(3) 0.63130(19)
H10 H 0.30390 0.51060 0.59560
C28 C 0.3299(2) 0.4641(3) 0.66871(19)
C29 C 0.32632(18) 0.4711(2) 0.72234(18)
H11 H 0.34700 0.43910 0.74730
C30 C 0.29216(18) 0.5256(2) 0.73980(17)
C31 C 0.2629(2) 0.5719(3) 0.70082(19)
H12 H 0.23960 0.60790 0.71100
C32 C 0.3650(2) 0.4039(3) 0.6515(2)
C33 C 0.3715(4) 0.7045(6) 0.6187(3)
H13 H 0.36150 0.75260 0.60650
H14 H 0.35210 0.69310 0.64750
H15 H 0.35910 0.67140 0.58970
C34 C 0.4556(6) 0.6127(7) 0.6676(7)
H16 H 0.49770 0.61030 0.67910
H17 H 0.44270 0.57560 0.64170
H18 H 0.43740 0.60610 0.69780
C35 C 0.2084(4) 0.6468(5) 0.0512(3)
H19 H 0.21150 0.69470 0.06540
H20 H 0.21880 0.61300 0.08000
H21 H 0.16860 0.63810 0.03260
C36 C 0.2457(4) 0.5636(5) -0.0106(3)
H22 H 0.27130 0.56080 -0.03570
H23 H 0.20590 0.55370 -0.02860
H24 H 0.25770 0.52900 0.01740
C37 C 0.8942(5) 0.5246(7) 0.8364(4)
H25 H 0.88270 0.52950 0.79820
H26 H 0.92450 0.55890 0.85000
H27 H 0.86070 0.53310 0.85240
C38 C 0.9369(4) 0.4391(6) 0.9078(4)
H28 H 0.95150 0.39090 0.91330
H29 H 0.90470 0.44570 0.92570
H30 H 0.96790 0.47230 0.92200
C39 C 0.1947(5) 0.7727(6) 0.7425(5)
H31 H 0.17630 0.77680 0.77280
H32 H 0.19730 0.72290 0.73330
H33 H 0.17170 0.79800 0.71260
C40 C 0.2826(4) 0.7977(5) 0.7145(4)
H34 H 0.32220 0.81590 0.72390
H35 H 0.26100 0.82430 0.68460
H36 H 0.28360 0.74790 0.70500
C41 C 0.2638(6) 0.8248(7) 0.8023(5)
H37 H 0.23820 0.81580 0.82530
N1 N 0.2563(3) 0.8048(4) 0.7562(3)
N2 N 0.9164(2) 0.4524(3) 0.8496(2)
H38 H 0.94660 0.44420 0.83300
H39 H 0.88770 0.42070 0.83660
N3 N 0.2489(3) 0.6384(4) 0.0134(3)
H40 H 0.28610 0.64720 0.03090
H41 H 0.23960 0.67090 -0.01310
N4 N 0.4353(3) 0.6990(6) 0.6376(3)
H42 H 0.44750 0.73370 0.66190
H43 H 0.45330 0.70560 0.60990
O1 O 0.37953(14) 0.66786(17) 1.00053(12)
O2 O 0.42844(18) 0.7655(2) 0.98717(14)
O3 O 0.46995(12) 0.81173(15) 0.80755(12)
O4 O 0.42472(15) 0.74736(19) 0.73732(13)
O5 O 0.23678(17) 0.3350(2) 0.94552(14)
O6 O 0.32052(17) 0.27595(19) 0.98130(14)
O7 O 0.50282(17) 0.3321(2) 0.91374(17)
O8 O 0.5061(2) 0.4266(4) 0.8672(4)
O9 O 0.39537(19) 0.3664(3) 0.68579(16)
O10 O 0.36054(15) 0.39596(19) 0.60050(14)
O11 O 0.24777(18) 0.6189(2) 0.56072(15)
O12 O 0.1948(2) 0.6594(2) 0.61873(16)
O13 O 0.07084(13) 0.42368(17) 0.77522(14)
O14 O 0.02251(18) 0.4813(3) 0.8278(2)
O15 O 0.09299(13) 0.72958(17) 0.88625(13)
O16 O 0.18894(16) 0.7287(2) 0.92595(18)
O17 O 0.3190(2) 0.8654(3) 0.8166(3)
O18 O 0.1157(2) 0.3633(3) 0.9826(3)
O19 O 0.5412(5) 0.7543(5) 0.9651(5)
H44 H 0.51970 0.79430 0.96830
H45 H 0.51530 0.71960 0.97010
Si1 Si 0.29310(5) 0.54082(6) 0.81216(5)
Zn1 Zn 0.41170(2) 0.67763(3) 1.07913(2)
Zn2 Zn 0.50000 0.86275(4) 0.75000
Zn3 Zn 0.19734(3) 0.32425(3) 1.00712(3)
C1B C 0.8997(2) 1.2115(3) 0.97030(19)
C2B C 0.88870(18) 1.1944(2) 0.91199(17)
C3B C 0.85415(18) 1.1355(3) 0.89170(18)
H1B H 0.83840 1.10660 0.91500
C4B C 0.84248(17) 1.1187(2) 0.83621(17)
C5B C 0.86928(17) 1.1611(2) 0.80292(17)
H2B H 0.86310 1.15070 0.76650
C6B C 0.90525(18) 1.2188(2) 0.82346(17)
C7B C 0.91411(19) 1.2356(2) 0.87730(18)
H3B H 0.93730 1.27500 0.89050
C8B C 0.93455(19) 1.2614(2) 0.7854(2)
C9B C 0.7912(3) 0.8227(3) 0.9501(2)
C10B C 0.8236(2) 0.8654(3) 0.91659(18)
C11B C 0.79583(19) 0.9208(2) 0.88454(17)
H4B H 0.75610 0.92980 0.88330
C12B C 0.82602(18) 0.9628(2) 0.85449(17)
C13B C 0.8860(2) 0.9485(3) 0.85682(19)
H5B H 0.90690 0.97660 0.83690
C14B C 0.9145(2) 0.8936(3) 0.8881(2)
C15B C 0.8839(2) 0.8519(3) 0.9179(2)
H6B H 0.90300 0.81480 0.93890
C16B C 0.9810(3) 0.8823(4) 0.8898(3)
C17B C 0.6447(2) 1.2038(3) 0.8939(2)
C18B C 0.65277(19) 1.1373(3) 0.8632(2)
C19B C 0.6074(2) 1.0885(3) 0.8484(2)
H7B H 0.57070 1.09790 0.85630
C20B C 0.61628(19) 1.0261(2) 0.82202(18)
C21B C 0.67064(18) 1.0126(2) 0.81003(17)
H8B H 0.67620 0.97050 0.79200
C22B C 0.71752(18) 1.0604(2) 0.82424(16)
C23B C 0.70717(19) 1.1222(2) 0.85124(18)
H9B H 0.73790 1.15470 0.86160
C24B C 0.5657(2) 0.9735(3) 0.8076(2)
C25B C 0.7330(2) 1.1196(3) 0.6071(2)
C26B C 0.7666(2) 1.0674(3) 0.64713(19)
C27B C 0.8005(2) 1.0138(3) 0.63130(19)
H10B H 0.80390 1.01060 0.59560
C28B C 0.8299(2) 0.9641(3) 0.66871(19)
C29B C 0.82632(18) 0.9711(2) 0.72234(18)
H11B H 0.84700 0.93910 0.74730
C30B C 0.79216(18) 1.0256(2) 0.73980(17)
C31B C 0.7629(2) 1.0719(3) 0.70082(19)
H12B H 0.73960 1.10790 0.71100
C32B C 0.8650(2) 0.9039(3) 0.6515(2)
O1B O 0.87953(14) 1.16786(17) 1.00053(12)
O2B O 0.92844(18) 1.2655(2) 0.98717(14)
O3B O 0.96995(12) 1.31173(15) 0.80755(12)
O3A O 0.53005(12) 0.81173(15) 0.69245(12)
O4B O 0.92472(15) 1.24736(19) 0.73732(13)
O5B O 0.73678(17) 0.8350(2) 0.94552(14)
O6B O 0.82052(17) 0.77595(19) 0.98130(14)
O6F O 0.17948(17) 0.22405(19) 1.01870(14)
O6D O 0.67948(17) 0.72405(19) 1.01870(14)
O7B O 1.00282(17) 0.8321(2) 0.91374(17)
O7D O 0.49718(17) 0.6679(2) 1.08626(17)
O7F O 0.99718(17) 1.1679(2) 1.08626(17)
O8B O 1.0061(2) 0.9266(4) 0.8672(4)
O9B O 0.89537(19) 0.8664(3) 0.68579(16)
O10B O 0.86054(15) 0.89596(19) 0.60050(14)
O10E O 0.36054(15) 0.60404(19) 1.10050(14)
O10G O 0.86054(15) 1.10404(19) 1.10050(14)
O11B O 0.74777(18) 1.1189(2) 0.56072(15)
O11E O 0.24777(18) 0.3811(2) 1.06072(15)
O11G O 0.74777(18) 0.8811(2) 1.06072(15)
O12B O 0.6948(2) 1.1594(2) 0.61873(16)
O13B O 0.57084(13) 0.92368(17) 0.77522(14)
O13C O 0.42916(13) 0.92368(17) 0.72478(14)
O14B O 0.52251(18) 0.9813(3) 0.8278(2)
O15B O 0.59299(13) 1.22958(17) 0.88625(13)
O15F O 0.40701(13) 0.77042(17) 1.11375(13)
O15D O 0.90701(13) 1.27042(17) 1.11375(13)
O16B O 0.68894(16) 1.2287(2) 0.92595(18)
O18B O 0.6157(2) 0.8633(3) 0.9826(3)
Si1B Si 0.79310(5) 1.04082(6) 0.81216(5)
Zn1B Zn 0.91170(2) 1.17763(3) 1.07913(2)
Zn1D Zn 0.58830(2) 0.32237(3) 0.92087(2)
Zn1E Zn 0.41170(2) 0.32237(3) 0.57913(2)
Zn1F Zn 0.08830(2) 0.82237(3) 0.92087(2)
Zn1F* Zn 1.08830(2) 0.82237(3) 0.92087(2)
Zn1G Zn 0.91170(2) 0.82237(3) 0.57913(2)
Zn1D* Zn 0.58830(2) 1.32237(3) 0.92087(2)
Zn2B Zn 0.00000 0.36275(4) 0.75000
Zn2B* Zn 1.00000 1.36275(4) 0.75000
Zn3B Zn 0.69734(3) 0.82425(3) 1.00712(3)
Zn3F Zn 0.30266(3) 0.17575(3) 0.99288(3)
Zn3E Zn 0.19734(3) 0.67575(3) 0.50712(3)
Zn3D Zn 0.80266(3) 0.67575(3) 0.99288(3)
Zn3G Zn 0.69734(3) 1.17575(3) 0.50712(3)
#END
