
#######################################################################
#
#                 Cambridge Crystallographic Data Centre
#                                CCDC
#
#######################################################################
#
# If this CIF has been generated from an entry in the Cambridge
# Structural Database, then it will include bibliographic, chemical,
# crystal, experimental, refinement or atomic coordinate data resulting
# from the CCDC's data processing and validation procedures.
#
#######################################################################

data_CSD_CIF_GERWOR
_audit_creation_date 2013-04-04
_audit_creation_method CSD-ConQuest-V1
_database_code_CSD GERWOR
_database_code_depnum_ccdc_archive 'CCDC 899432'
_chemical_formula_sum 'C88 H132 Cd3 N10 O50 Si2'
_chemical_formula_moiety
;
(C64 H28 Cd3 O32 Si2 6-)n,6n(C2 H8 N1 1+),4n(C3 H7 N1 O1),14n(H2 O1)
;
_journal_coden_Cambridge 1147
_journal_volume 12
_journal_year 2012
_journal_page_first 6158
_journal_name_full 'Cryst.Growth Des. '
loop_
_publ_author_name
"Yun-Shan Xue"
"Feng-Yan Jin"
"Lian Zhou"
"Mei-Pin Liu"
"Yan Xu"
"Hong-Bin Du"
"Min Fang"
"Xiao-Zeng You"
_chemical_name_systematic
;
catena-(hexakis(dimethylammonium) bis(\m~6~-dihydrogen 
5,5',5'',5'''-silanetetrayltetraisophthalato)-tri-cadmium 
N,N-dimethylformamide solvate tetradecahydrate)
;
_cell_volume  11349.195
_exptl_crystal_colour 'colorless'
_exptl_crystal_description 'rod'
_diffrn_ambient_temperature 296
_refine_special_details
;
C37 disordered by symmetry over two sites with occupancy 0.50; Disordered 
solvent molecules were not modelled and the disordered density was taken into 
account using the SQUEEZE/PLATON procedure.
;
#These two values have been output from a single CSD field.
_refine_ls_R_factor_gt 0.0549
_refine_ls_wR_factor_gt 0.0549
_symmetry_cell_setting monoclinic
_symmetry_space_group_name_H-M 'C 2/c'
_symmetry_Int_Tables_number 15
loop_
_symmetry_equiv_pos_site_id
_symmetry_equiv_pos_as_xyz
1 x,y,z
2 -x,y,1/2-z
3 1/2+x,1/2+y,z
4 1/2-x,1/2+y,1/2-z
5 -x,-y,-z
6 x,-y,-1/2+z
7 -1/2-x,-1/2-y,-z
8 -1/2+x,-1/2-y,-1/2+z
_cell_length_a 23.179(2)
_cell_length_b 19.0074(19)
_cell_length_c 26.112(3)
_cell_angle_alpha 90
_cell_angle_beta 99.417(2)
_cell_angle_gamma 90
_cell_formula_units_Z 4
loop_
_atom_type_symbol
_atom_type_radius_bond
C 0.68
H 0.23
Cd 1.54
N 0.77
O 0.68
Si 1.20
loop_
_atom_site_label
_atom_site_type_symbol
_atom_site_fract_x
_atom_site_fract_y
_atom_site_fract_z
C1 C -0.06231(6) 0.25978(7) 0.30006(6)
C2 C -0.09262(6) 0.21375(7) 0.33462(5)
C3 C -0.08392(6) 0.22486(7) 0.38783(5)
H1 H -0.06030 0.26180 0.40200
C4 C -0.10995(6) 0.18169(8) 0.41997(5)
C5 C -0.14420(5) 0.12640(7) 0.39832(5)
H2 H -0.16040 0.09610 0.42010
C6 C -0.15535(5) 0.11456(7) 0.34498(5)
C7 C -0.12870(5) 0.15907(6) 0.31376(5)
H3 H -0.13520 0.15210 0.27800
C8 C -0.09907(7) 0.19278(9) 0.47847(6)
C9 C -0.03503(6) -0.14108(9) 0.39796(7)
C10 C -0.09881(6) -0.12031(7) 0.39226(6)
C11 C -0.13657(7) -0.15824(8) 0.41753(7)
H4 H -0.12290 -0.19770 0.43680
C12 C -0.19444(6) -0.13838(8) 0.41454(7)
C13 C -0.21402(6) -0.07988(7) 0.38486(6)
H5 H -0.25300 -0.06670 0.38250
C14 C -0.17782(5) -0.04002(7) 0.35851(5)
C15 C -0.11992(6) -0.06142(7) 0.36317(5)
H6 H -0.09440 -0.03570 0.34640
C16 C -0.23454(8) -0.17729(11) 0.44279(9)
C17 C -0.37322(6) 0.20027(8) 0.37888(6)
C18 C -0.35568(6) 0.13164(7) 0.35714(5)
C19 C -0.29768(5) 0.11972(7) 0.35166(5)
H7 H -0.26950 0.15330 0.36360
C20 C -0.28122(5) 0.05855(7) 0.32863(5)
C21 C -0.32530(5) 0.00882(7) 0.31200(5)
H8 H -0.31550 -0.03220 0.29600
C22 C -0.38258(6) 0.01909(7) 0.31865(6)
C23 C -0.39700(6) 0.08110(7) 0.34134(6)
H9 H -0.43550 0.08860 0.34600
C24 C -0.42898(7) -0.03580(8) 0.30150(7)
C25 C -0.28671(13) 0.10819(18) 0.12590(8)
C26 C -0.24372(9) 0.06169(11) 0.16046(7)
C27 C -0.24116(7) 0.06778(9) 0.21414(6)
H10 H -0.26490 0.10070 0.22680
C28 C -0.20438(6) 0.02646(7) 0.24908(5)
C29 C -0.17135(6) -0.02235(7) 0.22769(5)
H11 H -0.14710 -0.05210 0.24990
C30 C -0.17259(6) -0.02930(8) 0.17459(6)
C31 C -0.20811(7) 0.01285(10) 0.14176(7)
H12 H -0.20860 0.00900 0.10620
C32 C -0.13595(7) -0.08410(9) 0.15262(6)
C33 C 0.6004(2) 1.0268(2) 0.1641(2)
H13 H 0.61770 1.03130 0.20000
H14 H 0.56380 1.05160 0.15810
H15 H 0.62620 1.04640 0.14260
C34 C 0.5501(3) 0.9315(3) 0.1014(2)
H16 H 0.54040 0.88240 0.09980
H17 H 0.56910 0.94360 0.07260
H18 H 0.51500 0.95880 0.09980
C35 C 0.28215(17) 0.8063(2) 0.23169(19)
H19 H 0.32200 0.82170 0.23500
H20 H 0.25780 0.83610 0.20750
H21 H 0.27920 0.75860 0.21930
C36 C 0.20164(18) 0.7819(2) 0.25464(18)
H22 H 0.17210 0.77640 0.27610
H23 H 0.21030 0.73690 0.24100
H24 H 0.18780 0.81320 0.22650
C37? C 0.0381(3) 0.0950(3) 0.3111(3)
H25? H 0.04020 0.14530 0.31450
H26? H 0.07690 0.07600 0.31510
H27? H 0.01810 0.07600 0.33750
C38? C 0.00000 -0.0243(3) 0.25000
H28? H -0.02050 -0.04120 0.21740
H29? H -0.01910 -0.04120 0.27760
H30? H 0.03960 -0.04120 0.25510
C39 C 0.1105(3) 0.0235(3) 0.4771(2)
H31 H 0.13990 -0.00280 0.46350
H32 H 0.09830 -0.00220 0.50510
H33 H 0.12620 0.06810 0.48960
C40 C 0.0157(4) 0.0414(5) 0.4646(3)
H34 H -0.02240 0.04220 0.44360
H35 H 0.02180 0.08420 0.48430
H36 H 0.01840 0.00200 0.48790
Cd1 Cd 0.00000 0.355376(7) 0.25000
Cd2 Cd -0.081932(4) 0.176994(6) 0.588811(4)
N1 N 0.26538(14) 0.81953(15) 0.29555(18)
H37 H 0.26220 0.86450 0.30560
H38 H 0.28410 0.79160 0.32080
N2 N 0.58956(17) 0.9466(2) 0.15033(17)
H39 H 0.62430 0.92630 0.14890
H40 H 0.57480 0.92600 0.17640
N3? N 0.00000 0.0729(3) 0.25000
N4 N 0.0572(3) 0.0354(4) 0.4335(3)
H41 H 0.06070 0.07490 0.41530
H42 H 0.05070 -0.00160 0.41180
O1 O -0.07065(5) 0.24957(6) 0.25276(4)
O2 O -0.03030(5) 0.30823(5) 0.32110(4)
O3 O -0.07797(8) 0.24744(9) 0.49614(5)
O4 O -0.11350(7) 0.14683(8) 0.50589(5)
O5 O 0.00024(5) -0.10041(9) 0.38768(7)
O6 O -0.01978(6) -0.19748(8) 0.41238(9)
O7 O -0.28612(7) -0.16039(10) 0.43749(7)
O8 O -0.21373(6) -0.22548(7) 0.47306(6)
O9 O -0.41527(5) -0.08622(5) 0.27525(5)
O10 O -0.47856(5) -0.02852(7) 0.31367(6)
O11 O -0.42540(4) 0.21756(6) 0.37086(5)
O12 O -0.33541(5) 0.23862(6) 0.40361(5)
O13 O -0.31502(9) 0.15404(11) 0.14283(8)
O14 O -0.28952(11) 0.09266(13) 0.07721(8)
O15 O -0.13999(5) -0.08655(7) 0.10424(5)
O16 O -0.10377(6) -0.12386(7) 0.18274(5)
Si1 Si -0.204317(14) 0.039327(18) 0.319905(14)
C1A C 0.06231(6) 0.25978(7) 0.19994(6)
C2A C 0.09262(6) 0.21375(7) 0.16538(5)
C3A C 0.08392(6) 0.22486(7) 0.11217(5)
H1A H 0.06030 0.26180 0.09800
C4A C 0.10995(6) 0.18169(8) 0.08003(5)
C5A C 0.14420(5) 0.12640(7) 0.10168(5)
H2A H 0.16040 0.09610 0.07990
C6A C 0.15535(5) 0.11456(7) 0.15502(5)
C7A C 0.12870(5) 0.15907(6) 0.18624(5)
H3A H 0.13520 0.15210 0.22200
C8A C 0.09907(7) 0.19278(9) 0.02153(6)
C9A C 0.03503(6) -0.14108(9) 0.10204(7)
C10A C 0.09881(6) -0.12031(7) 0.10774(6)
C11A C 0.13657(7) -0.15824(8) 0.08247(7)
H4A H 0.12290 -0.19770 0.06320
C12A C 0.19444(6) -0.13838(8) 0.08546(7)
C13A C 0.21402(6) -0.07988(7) 0.11514(6)
H5A H 0.25300 -0.06670 0.11750
C14A C 0.17782(5) -0.04002(7) 0.14149(5)
C15A C 0.11992(6) -0.06142(7) 0.13683(5)
H6A H 0.09440 -0.03570 0.15360
C16A C 0.23454(8) -0.17729(11) 0.05721(9)
C17A C 0.37322(6) 0.20027(8) 0.12112(6)
C18A C 0.35568(6) 0.13164(7) 0.14286(5)
C19A C 0.29768(5) 0.11972(7) 0.14834(5)
H7A H 0.26950 0.15330 0.13640
C20A C 0.28122(5) 0.05855(7) 0.17137(5)
C21A C 0.32530(5) 0.00882(7) 0.18800(5)
H8A H 0.31550 -0.03220 0.20400
C22A C 0.38258(6) 0.01909(7) 0.18135(6)
C23A C 0.39700(6) 0.08110(7) 0.15866(6)
H9A H 0.43550 0.08860 0.15400
C24A C 0.42898(7) -0.03580(8) 0.19850(7)
C25A C 0.28671(13) 0.10819(18) 0.37410(8)
C26A C 0.24372(9) 0.06169(11) 0.33954(7)
C27A C 0.24116(7) 0.06778(9) 0.28586(6)
H10A H 0.26490 0.10070 0.27320
C28A C 0.20438(6) 0.02646(7) 0.25092(5)
C29A C 0.17135(6) -0.02235(7) 0.27231(5)
H11A H 0.14710 -0.05210 0.25010
C30A C 0.17259(6) -0.02930(8) 0.32541(6)
C31A C 0.20811(7) 0.01285(10) 0.35824(7)
H12A H 0.20860 0.00900 0.39380
C32A C 0.13595(7) -0.08410(9) 0.34738(6)
Cd1B Cd -0.50000 -0.144624(7) 0.25000
Cd1B* Cd 0.50000 -0.144624(7) 0.25000
Cd2A Cd 0.081932(4) 0.176994(6) -0.088811(4)
Cd2D Cd 0.081932(4) -0.176994(6) 0.411189(4)
Cd2F Cd -0.418068(4) 0.323006(6) 0.411189(4)
Cd2E Cd -0.081932(4) -0.176994(6) 0.088811(4)
Cd2G Cd 0.418068(4) 0.323006(6) 0.088811(4)
O1A O 0.07065(5) 0.24957(6) 0.24724(4)
O2A O 0.03030(5) 0.30823(5) 0.17890(4)
O3A O 0.07797(8) 0.24744(9) 0.00386(5)
O4A O 0.11350(7) 0.14683(8) -0.00589(5)
O5A O -0.00024(5) -0.10041(9) 0.11232(7)
O5D O -0.00024(5) 0.10041(9) 0.61232(7)
O5E O 0.00024(5) 0.10041(9) -0.11232(7)
O6A O 0.01978(6) -0.19748(8) 0.08762(9)
O6D O 0.01978(6) 0.19748(8) 0.58762(9)
O6E O -0.01978(6) 0.19748(8) -0.08762(9)
O7A O 0.28612(7) -0.16039(10) 0.06251(7)
O8A O 0.21373(6) -0.22548(7) 0.02694(6)
O9A O 0.41527(5) -0.08622(5) 0.22475(5)
O9B O 0.08473(5) 0.41378(5) 0.27525(5)
O9C O -0.08473(5) 0.41378(5) 0.22475(5)
O10A O 0.47856(5) -0.02852(7) 0.18633(6)
O11A O 0.42540(4) 0.21756(6) 0.12914(5)
O11F O -0.07460(4) 0.28244(6) 0.62914(5)
O11G O 0.07460(4) 0.28244(6) -0.12914(5)
O12A O 0.33541(5) 0.23862(6) 0.09639(5)
O12F O -0.16459(5) 0.26138(6) 0.59639(5)
O12G O 0.16459(5) 0.26138(6) -0.09639(5)
O13A O 0.31502(9) 0.15404(11) 0.35717(8)
O14A O 0.28952(11) 0.09266(13) 0.42279(8)
O15A O 0.13999(5) -0.08655(7) 0.39576(5)
O15E O -0.13999(5) 0.08655(7) 0.60424(5)
O15D O 0.13999(5) 0.08655(7) -0.10424(5)
O16A O 0.10377(6) -0.12386(7) 0.31726(5)
Si1A Si 0.204317(14) 0.039327(18) 0.180095(14)
#END
