
#######################################################################
#
#                 Cambridge Crystallographic Data Centre
#                                CCDC
#
#######################################################################
#
# If this CIF has been generated from an entry in the Cambridge
# Structural Database, then it will include bibliographic, chemical,
# crystal, experimental, refinement or atomic coordinate data resulting
# from the CCDC's data processing and validation procedures.
#
#######################################################################

data_CSD_CIF_GEWGUM
_audit_creation_date 2013-05-23
_audit_creation_method CSD-ConQuest-V1
_database_code_CSD GEWGUM
_database_code_depnum_ccdc_archive 'CCDC 882819'
_chemical_formula_sum 'C36 H33 Cu6 Mo12 N30 O42.5 P1'
_chemical_formula_moiety
;
(C18 H14 Cu3 N15 2+)2n,n(Mo12 O40 P1 4-),2.5n(H2 O1)
;
_journal_coden_Cambridge 580
_journal_volume 52
_journal_year 2013
_journal_page_first 582
_journal_name_full 'Polyhedron '
loop_
_publ_author_name
"S.Jones"
"A.Aldous"
"E.Burkholder"
"J.Zubieta"
_chemical_name_systematic
;
catena-(bis(tris(\m~2~-4-pyridyltetrazole)-tri-copper) 
phosphatododecamolybdate hydrate)
;
_cell_volume   1806.672
_exptl_crystal_colour 'black'
_exptl_crystal_density_diffrn 2.876
_exptl_crystal_description 'block'
_diffrn_ambient_temperature 90
_refine_special_details
;
O10A,O11A,O15A,O17A,O4A,O6A,O9A and O10B,O11B,O15B,O17B,O4B,O6B,O9B 
disordered over two sites with occupancies 0.517:0.490; O13A,O14A and 
O13B,O14B disordered over two sites with occupancies 0.510:0.490.
;
#These two values have been output from a single CSD field.
_refine_ls_R_factor_gt 0.0475
_refine_ls_wR_factor_gt 0.0475
_symmetry_cell_setting triclinic
_symmetry_space_group_name_H-M 'P -1'
_symmetry_Int_Tables_number 2
loop_
_symmetry_equiv_pos_site_id
_symmetry_equiv_pos_as_xyz
1 x,y,z
2 -x,-y,-z
_cell_length_a 12.0267(8)
_cell_length_b 12.2807(8)
_cell_length_c 13.9204(9)
_cell_angle_alpha 100.305(1)
_cell_angle_beta 98.523(1)
_cell_angle_gamma 113.035(1)
_cell_formula_units_Z 1
loop_
_atom_type_symbol
_atom_type_radius_bond
C 0.68
H 0.23
Cu 1.32
Mo 1.54
N 0.68
O 0.68
P 1.05
loop_
_atom_site_label
_atom_site_type_symbol
_atom_site_fract_x
_atom_site_fract_y
_atom_site_fract_z
Cu1 Cu 1.23514(7) 0.62796(6) 0.95661(6)
Cu2 Cu 0.98688(7) 0.33152(6) 0.90270(5)
Cu3 Cu 1.11970(6) 0.13775(6) 1.01115(5)
N1 N 1.0647(5) 0.5815(4) 0.8921(4)
N2 N 1.0331(5) 0.6596(5) 0.8538(4)
N3 N 0.9169(5) 0.6010(4) 0.7983(4)
N4 N 0.9662(4) 0.4685(4) 0.8623(4)
N5 N 0.5196(5) 0.2351(5) 0.6362(4)
H1 H 0.44410 0.18390 0.60030
N6 N 0.8900(4) 0.1664(4) 0.9154(3)
N7 N 0.7669(4) 0.1186(4) 0.9096(4)
N8 N 0.8473(4) 0.0003(4) 0.9642(3)
N9 N 0.9392(4) 0.0956(4) 0.9482(3)
N10 N 0.3911(4) -0.2318(4) 0.9655(4)
N11 N 1.1686(4) 0.3773(4) 0.9815(4)
N12 N 1.2566(4) 0.4906(4) 1.0023(4)
N13 N 1.3578(4) 0.5050(4) 1.0659(4)
N14 N 1.2116(4) 0.3143(4) 1.0342(3)
N15 N 1.5821(5) 0.3647(5) 1.3076(4)
H2 H 1.63640 0.36030 1.35490
C1 C 0.8777(5) 0.4845(5) 0.8040(4)
C2 C 0.7526(5) 0.3938(5) 0.7478(4)
C3 C 0.6919(6) 0.4252(6) 0.6709(5)
H3 H 0.73120 0.50270 0.65750
C4 C 0.5760(6) 0.3434(7) 0.6157(5)
H4 H 0.53500 0.36310 0.56240
C5 C 0.5744(6) 0.2021(6) 0.7095(5)
H5 H 0.53160 0.12460 0.72190
C6 C 0.6921(6) 0.2798(5) 0.7667(5)
H6 H 0.73160 0.25640 0.81830
C7 C 0.7442(5) 0.0177(5) 0.9413(4)
C8 C 0.6223(5) -0.0655(5) 0.9505(4)
C9 C 0.5129(5) -0.0844(5) 0.8855(4)
H7 H 0.51540 -0.04190 0.83460
C10 C 0.4005(5) -0.1664(5) 0.8964(4)
H8 H 0.32600 -0.17720 0.85300
C11 C 0.4976(5) -0.2112(5) 1.0292(4)
H9 H 0.49290 -0.25560 1.07900
C12 C 0.6135(5) -0.1279(5) 1.0252(4)
H10 H 0.68620 -0.11370 1.07290
C13 C 1.3282(5) 0.3957(5) 1.0860(4)
C14 C 1.4139(5) 0.3781(5) 1.1603(4)
C15 C 1.3739(6) 0.3040(6) 1.2253(5)
H11 H 1.28750 0.25770 1.21870
C16 C 1.4597(7) 0.2987(6) 1.2981(5)
H12 H 1.43300 0.24830 1.34230
C17 C 1.6233(6) 0.4362(6) 1.2474(5)
H13 H 1.71020 0.48280 1.25670
C18 C 1.5410(5) 0.4432(5) 1.1717(4)
H14 H 1.57100 0.49230 1.12740
Mo1 Mo 1.24571(5) 0.00107(5) 1.38530(4)
Mo2 Mo 1.02209(7) 0.09335(5) 1.27312(5)
Mo3 Mo 0.76578(5) 0.07244(5) 1.37921(5)
Mo4 Mo 0.98742(5) 0.28067(5) 1.60322(4)
Mo5 Mo 1.20656(6) 0.19869(6) 1.73209(5)
Mo6 Mo 1.24299(5) 0.28402(5) 1.50183(4)
P1 P 1.00000 0.00000 1.50000
O1 O 1.3048(5) -0.0090(5) 1.5215(4)
O2 O 1.3672(5) 0.0113(5) 1.3379(4)
O3 O 1.1468(5) -0.1641(5) 1.3522(4)
O4 O 1.1276(11) 0.0206(9) 1.2959(8)
O5 O 1.0382(4) 0.1336(4) 1.1675(3)
O6 O 0.9143(8) 0.1241(7) 1.3308(8)
O7 O 0.6589(4) 0.1080(5) 1.3218(4)
O8 O 0.8703(5) 0.2233(5) 1.4776(4)
O9 O 1.0067(13) 0.4177(14) 1.6632(11)
O10 O 1.1302(9) 0.3643(11) 1.5464(8)
O11 O 1.1040(9) 0.3000(11) 1.7204(7)
O12 O 1.3071(4) 0.2899(4) 1.8390(3)
O13 O 1.1133(8) 0.0778(7) 1.8038(8)
O14 O 1.3043(9) 0.0881(7) 1.7257(8)
O15 O 1.2954(10) 0.3046(11) 1.6408(8)
O16 O 1.3541(5) 0.4174(4) 1.5021(5)
O17 O 1.3347(11) 0.1891(12) 1.4569(10)
O18 O 1.1414(7) 0.2364(5) 1.3703(4)
O19 O 0.9301(7) -0.1365(7) 1.4458(6)
O20 O 0.9190(7) -0.0039(7) 1.3915(5)
O21 O 0.0317(19) 0.4136(16) 0.4083(16)
O22 O 0.7701(5) 0.3944(5) 0.4512(4)
O23? O 1.1775(11) 0.0464(10) 1.2820(8)
O24? O 0.8681(8) 0.1251(8) 1.2759(8)
O25? O 0.9566(13) 0.4048(13) 1.6362(10)
O26? O 1.1094(9) 0.3041(11) 1.5381(8)
O27? O 1.0896(10) 0.2419(12) 1.7057(8)
O28? O 1.0723(9) 0.0778(7) 1.7504(8)
O29? O 1.2585(8) 0.0884(7) 1.6710(7)
O30? O 1.2734(11) 0.2479(11) 1.6297(9)
O31? O 1.2856(12) 0.1644(12) 1.4634(10)
O32? O 1.0800(7) -0.0612(7) 1.4765(6)
O33? O 1.0985(7) 0.0659(7) 1.4454(6)
Cu1* Cu 0.23514(7) -0.37204(6) 0.95661(6)
Cu3A Cu 0.88030(6) -0.13775(6) 0.98885(5)
N8A N 1.1527(4) -0.0003(4) 1.0358(3)
N10* N 1.3911(4) 0.7682(4) 0.9655(4)
O19A O 1.0699(7) 0.1365(7) 1.5542(6)
O20A O 1.0810(7) 0.0039(7) 1.6085(5)
Mo1A Mo 0.75429(5) -0.00107(5) 1.61470(4)
Mo2A Mo 0.97791(7) -0.09335(5) 1.72688(5)
Mo3A Mo 1.23422(5) -0.07244(5) 1.62079(5)
Mo4A Mo 1.01258(5) -0.28067(5) 1.39678(4)
Mo5A Mo 0.79344(6) -0.19869(6) 1.26791(5)
Mo6A Mo 0.75701(5) -0.28402(5) 1.49817(4)
O1A O 0.6952(5) 0.0090(5) 1.4785(4)
O2A O 0.6328(5) -0.0113(5) 1.6621(4)
O3A O 0.8532(5) 0.1641(5) 1.6478(4)
O4A O 0.8724(11) -0.0206(9) 1.7041(8)
O5A O 0.9618(4) -0.1336(4) 1.8325(3)
O6A O 1.0857(8) -0.1241(7) 1.6692(8)
O7A O 1.3411(4) -0.1080(5) 1.6782(4)
O8A O 1.1297(5) -0.2233(5) 1.5224(4)
O9A O 0.9933(13) -0.4177(14) 1.3368(11)
O10A O 0.8698(9) -0.3643(11) 1.4536(8)
O11A O 0.8960(9) -0.3000(11) 1.2796(7)
O12A O 0.6929(4) -0.2899(4) 1.1610(3)
O13A O 0.8867(8) -0.0778(7) 1.1962(8)
O14A O 0.6957(9) -0.0881(7) 1.2743(8)
O15A O 0.7046(10) -0.3046(11) 1.3592(8)
O16A O 0.6459(5) -0.4174(4) 1.4979(5)
O17A O 0.6653(11) -0.1891(12) 1.5431(10)
O18A O 0.8586(7) -0.2364(5) 1.6297(4)
#END
