
#######################################################################
#
#                 Cambridge Crystallographic Data Centre
#                                CCDC
#
#######################################################################
#
# If this CIF has been generated from an entry in the Cambridge
# Structural Database, then it will include bibliographic, chemical,
# crystal, experimental, refinement or atomic coordinate data resulting
# from the CCDC's data processing and validation procedures.
#
#######################################################################

data_CSD_CIF_GEWGOG
_audit_creation_date 2013-05-23
_audit_creation_method CSD-ConQuest-V1
_database_code_CSD GEWGOG
_database_code_depnum_ccdc_archive 'CCDC 882820'
_chemical_formula_sum 'C24 H44 Cu3 Mo12 N20 O53.5 P1'
_chemical_formula_moiety
;
(C24 H23 Cu3 N20 O3 3+)n,n(Mo12 O40 P1 3-),10.5n(H2 O1)
;
_journal_coden_Cambridge 580
_journal_volume 52
_journal_year 2013
_journal_page_first 582
_journal_name_full 'Polyhedron '
loop_
_publ_author_name
"S.Jones"
"A.Aldous"
"E.Burkholder"
"J.Zubieta"
_chemical_name_systematic
;
catena-((\m~3~-hydroxo)-tetrakis(\m~2~-4-pyridyltetrazole)-diaqua-tri-copper 
phosphatododecamolybdate hydrate)
;
_cell_volume   7013.116
_exptl_crystal_colour 'green'
_exptl_crystal_density_diffrn 2.691
_exptl_crystal_description 'block'
_diffrn_ambient_temperature 90
#These two values have been output from a single CSD field.
_refine_ls_R_factor_gt 0.0768
_refine_ls_wR_factor_gt 0.0768
_symmetry_cell_setting monoclinic
_symmetry_space_group_name_H-M 'P 21/c'
_symmetry_Int_Tables_number 14
loop_
_symmetry_equiv_pos_site_id
_symmetry_equiv_pos_as_xyz
1 x,y,z
2 -x,1/2+y,1/2-z
3 -x,-y,-z
4 x,-1/2-y,-1/2+z
_cell_length_a 23.001(2)
_cell_length_b 12.9425(12)
_cell_length_c 25.023(2)
_cell_angle_alpha 90
_cell_angle_beta 109.700(2)
_cell_angle_gamma 90
_cell_formula_units_Z 4
loop_
_atom_type_symbol
_atom_type_radius_bond
C 0.68
H 0.23
Cu 1.32
Mo 1.54
N 0.68
O 0.68
P 1.05
loop_
_atom_site_label
_atom_site_type_symbol
_atom_site_fract_x
_atom_site_fract_y
_atom_site_fract_z
Mo1 Mo 0.27703(5) 1.10499(8) 0.89605(4)
Mo2 Mo 0.31189(5) 1.29567(10) 0.81749(4)
Mo3 Mo 0.18692(5) 1.31928(8) 0.86181(5)
Mo4 Mo 0.09313(5) 1.36617(9) 0.71326(5)
Mo5 Mo 0.21587(4) 1.33284(7) 0.66821(4)
Mo6 Mo 0.08595(6) 1.18655(8) 0.61138(4)
Mo7 Mo 0.31174(4) 1.09984(7) 0.70998(5)
Mo8 Mo 0.18284(5) 0.95504(10) 0.64899(5)
Mo9 Mo 0.04755(4) 0.98074(7) 0.69504(4)
Mo10 Mo 0.27256(6) 0.91118(7) 0.78655(5)
Mo11 Mo 0.13845(5) 0.94498(9) 0.83339(4)
Mo12 Mo 0.04941(6) 1.16252(8) 0.79423(6)
P1 P 0.18169(11) 1.13807(18) 0.75334(10)
O1 O 0.3188(3) 1.0650(5) 0.9624(3)
O2 O 0.0458(4) 1.0940(6) 0.6449(3)
O3 O 0.3329(3) 1.1870(6) 0.7747(3)
O4 O 0.0493(3) 1.2665(6) 0.7416(3)
O5 O 0.2227(3) 1.1926(5) 0.8083(3)
O6 O 0.2022(3) 1.0297(6) 0.8813(3)
O7 O 0.1683(4) 0.8722(8) 0.5948(4)
O8 O 0.2972(3) 1.0075(6) 0.8496(3)
O9 O 0.2003(4) 0.8933(6) 0.8049(3)
O10 O 0.1135(4) 0.9300(5) 0.6730(3)
O11 O 0.2455(3) 1.4185(5) 0.6343(3)
O12 O 0.0769(3) 0.9014(6) 0.7629(3)
O13 O 0.1504(3) 1.2778(6) 0.6053(3)
O14 O 0.3341(3) 1.2006(6) 0.8820(3)
O15 O 0.2629(4) 1.2135(5) 0.6706(3)
O16 O 0.1544(4) 1.4169(6) 0.6833(3)
O17 O 0.2210(3) 1.0593(5) 0.7335(3)
O18 O 0.2649(4) 1.3513(6) 0.7463(3)
O19 O -0.0137(4) 0.9132(6) 0.6550(3)
O20 O 0.1468(3) 1.3797(5) 0.7882(3)
O21 O 0.1550(3) 1.2206(5) 0.7058(3)
O22 O 0.3302(3) 0.9819(5) 0.7581(3)
O23 O 0.1279(3) 1.0808(5) 0.7644(3)
O24 O 0.2638(4) 1.3684(6) 0.8540(3)
O25 O 0.0794(4) 1.0418(6) 0.8406(3)
O26 O 0.0085(4) 1.0724(6) 0.7327(3)
O27 O 0.3755(4) 1.3688(8) 0.8361(4)
O28 O 0.3750(4) 1.1059(7) 0.6908(4)
O29 O 0.0504(4) 1.4723(7) 0.7035(4)
O30 O 0.1754(4) 1.4105(7) 0.9052(4)
O31 O 0.2608(4) 1.0098(6) 0.6513(3)
O32 O 0.1418(4) 1.0750(6) 0.6140(3)
O33 O 0.2310(4) 0.8656(6) 0.7115(3)
O34 O 0.2355(3) 1.2224(6) 0.9145(3)
O35 O 0.1174(3) 1.2363(5) 0.8464(3)
O36 O -0.0106(4) 1.1966(6) 0.8141(4)
O37 O 0.0534(4) 1.3024(7) 0.6375(4)
O38 O 0.3145(5) 0.8073(7) 0.8142(4)
O39 O 0.0392(5) 1.1805(9) 0.5433(4)
O40 O 0.1320(4) 0.8491(6) 0.8758(4)
Cu1 Cu 0.29440(5) 1.06099(8) 1.05142(5)
Cu2 Cu 0.37284(5) 0.83180(8) 1.10317(5)
Cu3 Cu 0.22590(5) 0.82385(8) 1.02678(5)
O41 O 0.3044(3) 0.9080(4) 1.0429(3)
O42 O 0.1466(3) 0.7470(5) 0.9963(3)
O43 O 0.4384(5) 0.8411(10) 1.0482(4)
N1 N 0.3708(3) 1.0561(6) 1.1179(3)
N2 N 0.3959(4) 1.1331(6) 1.1532(4)
N3 N 0.4517(4) 0.9909(6) 1.1815(4)
N4 N 0.4038(3) 0.9707(6) 1.1346(3)
N5 N 0.5679(3) 1.2525(6) 1.3318(3)
N6 N 0.2034(3) 1.0452(5) 1.0069(3)
N7 N 0.1584(3) 1.1132(6) 0.9871(3)
N8 N 0.1178(3) 0.9550(6) 0.9804(4)
N9 N 0.1789(3) 0.9508(6) 1.0027(3)
N10 N -0.0741(3) 1.1689(7) 0.9092(4)
H1 H -0.11230 1.19230 0.89790
N11 N 0.3339(4) 0.6980(6) 1.0646(3)
N12 N 0.3562(4) 0.6012(6) 1.0699(4)
N13 N 0.2550(4) 0.6015(6) 1.0211(3)
N14 N 0.2744(3) 0.6980(6) 1.0362(3)
N15 N 0.2974(3) 0.2155(6) 1.0463(3)
N16 N 0.2397(3) 0.8367(6) 1.1195(3)
N17 N 0.2013(4) 0.8449(6) 1.1490(3)
N18 N 0.2969(4) 0.8636(6) 1.2066(4)
N19 N 0.2972(3) 0.8485(6) 1.1541(3)
N20 N 0.1710(7) 0.8729(8) 1.3393(5)
H2 H 0.15710 0.87360 1.36800
C1 C 0.4453(4) 1.0910(7) 1.1917(4)
C2 C 0.4880(4) 1.1471(7) 1.2403(4)
C3 C 0.5511(5) 1.1277(7) 1.2581(4)
H3 H 0.56750 1.07740 1.23960
C4 C 0.5893(4) 1.1837(7) 1.3035(4)
H4 H 0.63260 1.17250 1.31500
C5 C 0.5073(4) 1.2700(7) 1.3149(5)
H5 H 0.49210 1.32010 1.33460
C6 C 0.4660(5) 1.2188(7) 1.2702(5)
H6 H 0.42300 1.23220 1.25970
C7 C 0.1064(4) 1.0558(7) 0.9709(4)
C8 C 0.0434(4) 1.0970(7) 0.9479(4)
C9 C 0.0326(5) 1.2032(7) 0.9448(4)
H7 H 0.06570 1.25130 0.95590
C10 C -0.0283(5) 1.2362(9) 0.9247(5)
H8 H -0.03710 1.30810 0.92210
C11 C -0.0650(4) 1.0668(9) 0.9101(4)
H9 H -0.09920 1.02110 0.89650
C12 C -0.0062(4) 1.0285(8) 0.9307(4)
H10 H 0.00070 0.95600 0.93320
C13 C 0.3066(4) 0.5439(7) 1.0426(4)
C14 C 0.3041(4) 0.4308(7) 1.0404(4)
C15 C 0.3541(4) 0.3694(7) 1.0426(5)
H11 H 0.39150 0.40010 1.04250
C16 C 0.3493(5) 0.2621(7) 1.0451(4)
H12 H 0.38370 0.22070 1.04590
C17 C 0.2482(4) 0.2761(6) 1.0432(4)
H13 H 0.21110 0.24420 1.04360
C18 C 0.2503(4) 0.3816(7) 1.0397(4)
H14 H 0.21460 0.42130 1.03670
C19 C 0.2367(5) 0.8608(7) 1.2015(4)
C20 C 0.2136(5) 0.8684(8) 1.2494(4)
C21 C 0.2515(8) 0.897(1) 1.3031(5)
H15 H 0.29310 0.91590 1.30930
C22 C 0.2292(9) 0.8982(11) 1.3476(6)
H16 H 0.25560 0.91730 1.38440
C23 C 0.1340(7) 0.8469(12) 1.2890(6)
H17 H 0.09210 0.83180 1.28410
C24 C 0.1536(6) 0.8406(11) 1.2429(6)
H18 H 0.12640 0.81760 1.20720
O44 O 0.0991(7) 0.6075(16) 0.9111(6)
O45 O 0.4582(18) 0.795(4) 0.8841(18)
O46 O 0.4871(7) 0.132(2) 0.6581(10)
O47 O 0.2956(13) 0.677(1) 0.4407(6)
O48 O 0.3840(8) 0.811(3) 0.4408(9)
O49 O 0.4020(7) 0.9258(18) 0.2942(8)
O50 O 0.5473(15) 0.943(4) 0.086(2)
O51 O 0.5452(7) 0.768(2) 0.0389(8)
O52 O 0.4832(6) 0.5439(13) 0.0993(9)
O53 O 0.5285(19) 0.567(2) 0.0325(15)
O54 O 0.6405(13) 0.4943(16) 0.0663(10)
O55 O 0.4697(11) 0.080(2) 0.0498(11)
Cu1* Cu 0.29440(5) 0.06099(8) 1.05142(5)
Cu2A Cu 0.62716(5) 1.33180(8) 1.39683(5)
N5A N 0.4321(3) 0.7525(6) 1.1682(3)
N15* N 0.2974(3) 1.2155(6) 1.0463(3)
#END
