
#######################################################################
#
#                 Cambridge Crystallographic Data Centre
#                                CCDC
#
#######################################################################
#
# If this CIF has been generated from an entry in the Cambridge
# Structural Database, then it will include bibliographic, chemical,
# crystal, experimental, refinement or atomic coordinate data resulting
# from the CCDC's data processing and validation procedures.
#
#######################################################################

data_CSD_CIF_GEXCOD
_audit_creation_date 2013-05-23
_audit_creation_method CSD-ConQuest-V1
_database_code_CSD GEXCOD
_database_code_depnum_ccdc_archive 'CCDC 882265'
_chemical_formula_sum 'C110 H102 Mn4 N6 O20'
_chemical_formula_moiety
;
(C80 H70 Mn4 O20 2-)n,2(C15 H16 N3 1+)
;
_journal_coden_Cambridge 580
_journal_volume 52
_journal_year 2013
_journal_page_first 781
_journal_name_full 'Polyhedron '
loop_
_publ_author_name
"A.Pons-Balague"
"M.J.H.Ojea"
"M.Ledezma-Gairaud"
"D.R.Maneru"
"S.J.Teat"
"J.S.Costa"
"G.Aromi"
"E.C.Sanudo"
_chemical_name_systematic
;
catena-(bis(2,7-dimethyl-3,6-diamine-acridinium) 
nonakis(\m~2~-4-methylbenzoate)-(4-methylbenzoate)-tetra-manganese)
;
_cell_volume   5196.230
_exptl_crystal_colour 'brown'
_exptl_crystal_density_diffrn 1.309
_exptl_crystal_description 'plate'
_diffrn_ambient_temperature 296
#These two values have been output from a single CSD field.
_refine_ls_R_factor_gt 0.0818
_refine_ls_wR_factor_gt 0.0818
_symmetry_cell_setting triclinic
_symmetry_space_group_name_H-M 'P -1'
_symmetry_Int_Tables_number 2
loop_
_symmetry_equiv_pos_site_id
_symmetry_equiv_pos_as_xyz
1 x,y,z
2 -x,-y,-z
_cell_length_a 13.2372(16)
_cell_length_b 16.1349(17)
_cell_length_c 27.301(3)
_cell_angle_alpha 101.212(7)
_cell_angle_beta 90.012(7)
_cell_angle_gamma 114.199(8)
_cell_formula_units_Z 2
loop_
_atom_type_symbol
_atom_type_radius_bond
C 0.68
H 0.23
Mn 1.61
N 0.68
O 0.68
loop_
_atom_site_label
_atom_site_type_symbol
_atom_site_fract_x
_atom_site_fract_y
_atom_site_fract_z
Mn1 Mn 0.42859(19) 0.60850(15) 0.77747(8)
Mn2 Mn -0.1797(2) 0.39156(15) 0.72256(8)
Mn3 Mn 0.6256(2) 0.50657(16) 0.73311(7)
Mn4 Mn 0.1193(2) 0.49327(17) 0.76717(8)
O1 O 0.0897(10) 0.3879(7) 0.6993(4)
O2 O -0.0562(9) 0.4042(7) 0.6701(3)
O3 O -0.1293(9) 0.3003(7) 0.7508(4)
O4 O 0.0242(9) 0.3864(7) 0.8049(4)
O5 O -0.0501(9) 0.5257(7) 0.7735(3)
O6 O -0.1749(9) 0.5338(7) 0.7246(4)
O7 O 0.7042(12) 0.3653(9) 0.7735(5)
O8 O 0.7012(9) 0.3281(7) 0.6607(4)
O9 O 0.1893(10) 0.5832(8) 0.8379(4)
O10 O 0.3687(10) 0.6726(7) 0.8385(4)
O11 O 0.2871(9) 0.4654(6) 0.7761(3)
O12 O 0.4243(10) 0.4764(7) 0.7275(3)
O13 O 0.1571(10) 0.5999(7) 0.7265(4)
O14 O 0.3353(11) 0.6365(9) 0.7263(4)
O15 O 0.5720(9) 0.6997(7) 0.7482(4)
O16 O 0.6358(8) 0.6110(7) 0.6952(3)
O17 O 0.5410(9) 0.5955(7) 0.8301(3)
O18 O 0.7038(8) 0.6108(7) 0.8001(3)
O19 O 0.5582(9) 0.3992(7) 0.7736(4)
O20 O 0.6072(8) 0.4167(7) 0.6618(3)
C1 C 0.0021(16) 0.3627(11) 0.6675(5)
C2 C -0.0095(14) 0.2895(10) 0.6242(6)
C3 C 0.0705(15) 0.255(1) 0.6131(5)
H1 H 0.13430 0.27540 0.63460
C4 C 0.0514(18) 0.1864(12) 0.5668(7)
H2 H 0.10480 0.16340 0.55930
C5 C -0.037(2) 0.1548(11) 0.5348(6)
C6 C -0.1173(18) 0.1878(13) 0.5489(7)
H3 H -0.18330 0.16530 0.52850
C7 C -0.1007(15) 0.2536(12) 0.5927(6)
H4 H -0.15640 0.27380 0.60040
C8 C -0.0614(16) 0.3104(12) 0.7864(6)
C9 C -0.0774(15) 0.2299(11) 0.8077(5)
C10 C -0.1750(17) 0.1512(13) 0.7938(6)
H5 H -0.22970 0.14930 0.77170
C11 C -0.1905(19) 0.0708(14) 0.8148(8)
H6 H -0.25560 0.01680 0.80530
C12 C -0.112(2) 0.0728(13) 0.8479(7)
C13 C -0.0243(17) 0.1492(14) 0.8623(6)
H7 H 0.02790 0.15100 0.88580
C14 C -0.0040(15) 0.2289(12) 0.8443(5)
H8 H 0.05970 0.28280 0.85680
C15 C -0.0882(15) 0.5732(12) 0.7560(6)
C16 C -0.0340(14) 0.6761(11) 0.7708(5)
C17 C 0.0569(14) 0.7169(11) 0.8069(6)
H9 H 0.08330 0.68130 0.82160
C18 C 0.1017(15) 0.8052(15) 0.8187(7)
H10 H 0.16380 0.83360 0.84190
C19 C 0.0636(17) 0.8641(12) 0.7987(8)
C20 C -0.0257(16) 0.8225(15) 0.7635(6)
H11 H -0.05280 0.85770 0.74890
C21 C -0.0722(14) 0.7310(12) 0.7508(6)
H12 H -0.13370 0.70210 0.72730
C22 C 0.2760(19) 0.6520(13) 0.8547(5)
C23 C 0.2726(15) 0.7180(11) 0.9013(6)
C24 C 0.3622(18) 0.7901(14) 0.9245(7)
H13 H 0.42950 0.79650 0.91170
C25 C 0.3670(18) 0.8568(14) 0.9653(8)
H14 H 0.43370 0.90600 0.97940
C26 C 0.265(2) 0.8463(16) 0.9847(6)
C27 C 0.1690(17) 0.7696(14) 0.9617(7)
H15 H 0.10100 0.76050 0.97450
C28 C 0.1734(15) 0.7066(11) 0.9203(5)
H16 H 0.10840 0.65630 0.90530
C29 C 0.2502(17) 0.6468(12) 0.7158(5)
C30 C 0.2648(16) 0.7183(11) 0.6852(5)
C31 C 0.1780(15) 0.7416(11) 0.6741(5)
H17 H 0.11110 0.71650 0.68820
C32 C 0.1907(19) 0.8009(13) 0.6426(6)
H18 H 0.13050 0.81080 0.63210
C33 C 0.299(2) 0.8479(14) 0.6260(7)
C34 C 0.3842(15) 0.8244(12) 0.6369(7)
H19 H 0.45230 0.85040 0.62380
C35 C 0.3681(16) 0.7631(12) 0.6667(6)
H20 H 0.42720 0.75010 0.67520
C36 C 0.3363(15) 0.4261(11) 0.7457(6)
C37 C 0.2864(14) 0.3219(11) 0.7285(5)
C38 C 0.1926(16) 0.2689(13) 0.7495(6)
H21 H 0.15900 0.29810 0.77230
C39 C 0.1499(15) 0.1750(12) 0.7369(6)
H22 H 0.09050 0.13860 0.75250
C40 C 0.200(2) 0.1336(13) 0.6984(8)
C41 C 0.2959(17) 0.1879(14) 0.6782(7)
H23 H 0.33130 0.16100 0.65520
C42 C 0.3337(14) 0.2790(12) 0.6935(6)
H24 H 0.39610 0.31630 0.67980
C43 C 0.6456(16) 0.6357(11) 0.8311(6)
C44 C 0.7096(16) 0.7142(11) 0.8767(5)
C45 C 0.6470(14) 0.7489(11) 0.9100(6)
H25 H 0.57080 0.72780 0.90270
C46 C 0.7009(18) 0.8156(13) 0.9540(6)
H26 H 0.65890 0.83830 0.97520
C47 C 0.812(2) 0.8484(14) 0.9669(7)
C48 C 0.8703(17) 0.8151(12) 0.9341(8)
H27 H 0.94660 0.83710 0.94180
C49 C 0.8224(15) 0.7495(12) 0.8894(7)
H28 H 0.86670 0.72960 0.86820
C50 C 0.6281(14) 0.6858(12) 0.7118(5)
C51 C 0.6910(9) 0.7714(7) 0.6909(4)
C52 C 0.7672(11) 0.7682(8) 0.6564(4)
H29 H 0.77740 0.71390 0.64620
C53 C 0.8281(9) 0.8460(12) 0.6371(4)
H30 H 0.87900 0.84390 0.61400
C54 C 0.8128(11) 0.9272(9) 0.6523(5)
C55 C 0.7366(13) 0.9304(7) 0.6869(5)
H31 H 0.72640 0.98470 0.69710
C56 C 0.6757(10) 0.8525(9) 0.7061(4)
H32 H 0.62480 0.85470 0.72920
C57 C 0.6091(19) 0.3525(12) 0.7823(5)
C58 C 0.5521(15) 0.2824(11) 0.8148(6)
C59 C 0.4389(14) 0.2579(11) 0.8268(6)
H33 H 0.39720 0.28490 0.81430
C60 C 0.3935(16) 0.1969(13) 0.8558(7)
H34 H 0.32100 0.18260 0.86420
C61 C 0.6059(16) 0.2364(12) 0.8323(6)
H35 H 0.67780 0.24880 0.82360
C62 C 0.6285(14) 0.3489(11) 0.6444(5)
C63 C 0.5582(12) 0.2829(11) 0.5990(5)
C64 C 0.5745(15) 0.2047(12) 0.5741(6)
H36 H 0.63440 0.19550 0.58570
C65 C 0.5053(18) 0.1411(12) 0.5335(8)
H37 H 0.51650 0.08880 0.51890
C66 C 0.420(2) 0.1569(15) 0.5152(7)
C67 C 0.4664(15) 0.2914(12) 0.5786(6)
H38 H 0.45140 0.34130 0.59410
C68 C 0.3966(15) 0.2306(14) 0.5370(6)
H39 H 0.33710 0.23940 0.52460
C69 C 0.458(3) 0.1527(14) 0.8741(7)
C70 C 0.5615(18) 0.1747(14) 0.8610(8)
H40 H 0.60330 0.14650 0.87200
C71 C -0.0429(19) 0.0903(13) 0.4862(6)
H41 H 0.02190 0.07760 0.48550
H42 H -0.04600 0.11880 0.45880
H43 H -0.10830 0.03320 0.48320
C72 C -0.1268(19) -0.0100(12) 0.8692(7)
H44 H -0.06380 0.00560 0.89220
H45 H -0.13270 -0.06070 0.84250
H46 H -0.19310 -0.02800 0.88640
C73 C 0.8757(18) 1.0085(15) 0.6315(9)
H47 H 0.92350 0.99440 0.60810
H48 H 0.91990 1.05970 0.65800
H49 H 0.82520 1.02480 0.61460
C74 C 0.248(2) 0.9093(17) 1.0333(7)
H50 H 0.17060 0.88770 1.03810
H51 H 0.27700 0.97250 1.02940
H52 H 0.28760 0.90580 1.06190
C75 C 0.335(2) 0.0872(15) 0.4685(8)
H53 H 0.28310 0.11110 0.46080
H54 H 0.29600 0.02740 0.47650
H55 H 0.37610 0.08110 0.43990
C76 C 0.1428(16) 0.0201(12) 0.6814(8)
H56 H 0.18210 0.00080 0.65530
H57 H 0.06650 -0.00090 0.66930
H58 H 0.14660 -0.00610 0.70970
C77 C 0.1325(19) 0.9807(12) 0.8145(9)
H59 H 0.09600 1.00850 0.79710
H60 H 0.20750 0.99870 0.80550
H61 H 0.13340 1.00120 0.85000
C78 C 0.308(2) 0.9106(15) 0.5925(7)
H62 H 0.23960 0.91720 0.58990
H63 H 0.32310 0.88540 0.55990
H64 H 0.36760 0.97040 0.60560
C79 C 0.402(2) 0.0854(16) 0.9086(8)
H65 H 0.45190 0.06050 0.91800
H66 H 0.33520 0.03550 0.89120
H67 H 0.38380 0.11790 0.93810
C80 C 0.8667(19) 0.9083(14) 1.0155(6)
H68 H 0.81410 0.92520 1.03420
H69 H 0.92760 0.96350 1.01040
H70 H 0.89410 0.87550 1.03380
N1 N 0.5274(12) 0.4747(8) 0.8997(4)
H71 H 0.53610 0.50670 0.87700
N2 N 0.8903(12) 0.4846(10) 0.8759(4)
H72 H 0.89830 0.51610 0.85310
H73 H 0.94220 0.46910 0.88360
N3 N 0.1588(11) 0.4604(9) 0.9127(5)
H74 H 0.16600 0.49290 0.89030
H75 H 0.09740 0.44020 0.92650
C81 C 0.4268(15) 0.4471(10) 0.9204(5)
C82 C 0.3431(15) 0.4705(10) 0.9062(5)
H76 H 0.35580 0.50720 0.88250
C83 C 0.2426(16) 0.4416(11) 0.9260(5)
C84 C 0.2290(14) 0.3874(10) 0.9653(5)
C85 C 0.3119(14) 0.3661(11) 0.9801(6)
H77 H 0.30000 0.33140 1.00480
C86 C 0.4177(15) 0.3954(10) 0.9590(5)
C87 C 0.5039(14) 0.3765(10) 0.9721(5)
H78 H 0.49640 0.34470 0.99780
C88 C 0.5979(14) 0.4012(10) 0.9502(5)
C89 C 0.6926(17) 0.3831(13) 0.9628(6)
H79 H 0.68880 0.35300 0.98900
C90 C 0.7888(16) 0.4083(12) 0.9375(6)
C91 C 0.7976(14) 0.4598(11) 0.8995(5)
C92 C 0.7119(15) 0.4825(10) 0.8889(5)
H80 H 0.72050 0.51790 0.86480
C93 C 0.6129(14) 0.456(1) 0.9119(5)
C94 C 0.1166(13) 0.3550(12) 0.9878(5)
H81 H 0.11770 0.32130 1.01300
H82 H 0.05860 0.31530 0.96190
H83 H 0.10300 0.40810 1.00260
C95 C 0.8805(15) 0.3808(13) 0.9488(6)
H84 H 0.86130 0.34640 0.97500
H85 H 0.94830 0.43560 0.95950
H86 H 0.89050 0.34270 0.91920
N4 N 0.9503(11) 0.4771(9) 0.3998(4)
H87 H 0.97510 0.51080 0.37800
N5 N 1.2950(13) 0.4613(9) 0.4136(4)
H88 H 1.32080 0.49390 0.39140
H89 H 1.33620 0.44200 0.42810
N6 N 0.5948(12) 0.4867(10) 0.3763(4)
H90 H 0.61750 0.51860 0.35350
H91 H 0.52770 0.47110 0.38450
C96 C 0.8467(17) 0.4571(11) 0.4118(5)
C97 C 0.7749(15) 0.4836(11) 0.3885(5)
H92 H 0.80070 0.51840 0.36400
C98 C 0.6672(16) 0.4603(12) 0.4002(5)
C99 C 0.6236(14) 0.4080(11) 0.4383(6)
C100 C 0.6960(15) 0.3839(11) 0.4617(5)
H93 H 0.67020 0.35100 0.48690
C101 C 0.8055(14) 0.4050(11) 0.4506(6)
C102 C 0.8731(13) 0.3764(10) 0.4711(5)
H94 H 0.84640 0.34130 0.49540
C103 C 0.9781(15) 0.3950(11) 0.4591(6)
C104 C 1.0521(14) 0.3664(11) 0.4807(5)
H95 H 1.03000 0.33400 0.50630
C105 C 1.1510(16) 0.3848(11) 0.4654(5)
C106 C 1.1878(14) 0.4402(11) 0.4261(6)
C107 C 1.1215(14) 0.4668(11) 0.4059(5)
H96 H 1.14540 0.50040 0.38080
C108 C 1.0183(14) 0.4471(12) 0.4203(6)
C109 C 0.5012(15) 0.3789(14) 0.4501(6)
H97 H 0.48690 0.34470 0.47640
H98 H 0.45310 0.34040 0.42060
H99 H 0.48740 0.43340 0.46070
C110 C 1.2326(14) 0.3524(11) 0.4885(6)
H100 H 1.19740 0.31800 0.51330
H101 H 1.29850 0.40580 0.50380
H102 H 1.25220 0.31360 0.46250
Mn2* Mn 0.8203(2) 0.39156(15) 0.72256(8)
O7* O -0.2958(12) 0.3653(9) 0.7735(5)
O8* O -0.2988(9) 0.3281(7) 0.6607(4)
#END
