
#######################################################################
#
#                 Cambridge Crystallographic Data Centre
#                                CCDC
#
#######################################################################
#
# If this CIF has been generated from an entry in the Cambridge
# Structural Database, then it will include bibliographic, chemical,
# crystal, experimental, refinement or atomic coordinate data resulting
# from the CCDC's data processing and validation procedures.
#
#######################################################################

data_CSD_CIF_GEZMIK
_audit_creation_date 2018-04-24
_audit_creation_method CSD-ConQuest-V1
_database_code_CSD GEZMIK
_database_code_depnum_ccdc_archive 'CCDC 1538551'
_chemical_formula_sum 'C42 H60 Co2 Ge1 Mo12 N36 O40'
_chemical_formula_moiety
;
(C21 H30 Co1 N18 2+)2n,n(Ge1 Mo12 O40 4-)
;
_journal_coden_Cambridge 1133
_journal_volume 29
_journal_year 2018
_journal_page_first 417
_journal_name_full 'J.Cluster Sci. '
loop_
_publ_author_name
"Shi Zhou"
"Ya-Guang Chen"
"Bo Liu"
"Yan-Hong Xu"
"Xiu-Yan Wang"
_chemical_name_systematic
;
catena-(tris(\m-1,1'-(propane-1,3-diyl)bis(1H-1,2,4-triazole))-cobalt(ii) 
(\m-germanato)-tetracosakis(\m-oxo)-dodecaoxo-dodeca-molybdenum)
;
_cell_volume   6031.419
_exptl_crystal_colour 'colorless'
_exptl_crystal_density_diffrn 2.52
_exptl_crystal_description 'block'
_diffrn_ambient_temperature 293
_refine_special_details
;
The germanate moiety is disordered by symmetry.

;
#These two values have been output from a single CSD field.
_refine_ls_R_factor_gt 0.0536
_refine_ls_wR_factor_gt 0.0536
_symmetry_cell_setting rhombohedral
_symmetry_space_group_name_H-M 'R -3'
_symmetry_Int_Tables_number 148
loop_
_symmetry_equiv_pos_site_id
_symmetry_equiv_pos_as_xyz
1 x,y,z
2 -y,x-y,z
3 -x+y,-x,z
4 2/3+x,1/3+y,1/3+z
5 2/3-y,1/3+x-y,1/3+z
6 2/3-x+y,1/3-x,1/3+z
7 1/3+x,2/3+y,2/3+z
8 1/3-y,2/3+x-y,2/3+z
9 1/3-x+y,2/3-x,2/3+z
10 -x,-y,-z
11 y,-x+y,-z
12 x-y,x,-z
13 -2/3-x,-1/3-y,-1/3-z
14 -2/3+y,-1/3-x+y,-1/3-z
15 -2/3+x-y,-1/3+x,-1/3-z
16 -1/3-x,-2/3-y,-2/3-z
17 -1/3+y,-2/3-x+y,-2/3-z
18 -1/3+x-y,-2/3+x,-2/3-z
_cell_length_a 16.4707(12)
_cell_length_b 16.4707(12)
_cell_length_c 25.6723(18)
_cell_angle_alpha 90
_cell_angle_beta 90
_cell_angle_gamma 120
_cell_formula_units_Z 3
loop_
_atom_type_symbol
_atom_type_radius_bond
C 0.68
H 0.23
Co 1.26
Ge 1.17
Mo 1.54
N 0.68
O 0.68
loop_
_atom_site_label
_atom_site_type_symbol
_atom_site_fract_x
_atom_site_fract_y
_atom_site_fract_z
Co1 Co 0.33330 0.66670 0.32874(8)
C1 C 0.4718(6) 0.8096(6) 0.4086(4)
H1 H 0.42560 0.82140 0.42090
C2 C 0.5443(7) 0.7545(7) 0.3696(5)
H2 H 0.55670 0.71670 0.34800
C3 C 0.6075(7) 0.9345(7) 0.4588(4)
H3 H 0.56180 0.94470 0.47690
H4 H 0.65060 0.99160 0.44060
C4 C 0.6602(11) 0.9081(14) 0.4971(6)
H5 H 0.61870 0.84280 0.50610
H6 H 0.71240 0.91070 0.47820
C5 C 0.6938(10) 0.9526(13) 0.5405(5)
H7 H 0.64260 0.93400 0.56500
H8 H 0.72110 1.01930 0.53420
C6 C 0.8139(7) 0.9688(8) 0.6050(5)
H9 H 0.80620 1.00790 0.62820
C7 C 0.8611(13) 0.8908(14) 0.5727(8)
H10 H 0.89450 0.86010 0.56620
N1 N 0.4571(5) 0.7425(5) 0.3749(3)
N2 N 0.6100(5) 0.8232(6) 0.3972(4)
N3 N 0.5611(5) 0.8576(5) 0.4222(3)
N4 N 0.7649(6) 0.9359(8) 0.5643(4)
N5 N 0.7928(13) 0.8824(15) 0.5408(7)
N6 N 0.8772(5) 0.9421(5) 0.6116(4)
Ge1 Ge 0.66670 0.33330 0.33330
Mo1 Mo 0.59174(5) 0.50017(5) 0.33701(3)
Mo2 Mo 0.68736(6) 0.46612(6) 0.22085(4)
O1 O 0.7202(5) 0.5782(7) 0.3457(3)
O2 O 0.5764(6) 0.4643(5) 0.4059(3)
O3 O 0.5549(5) 0.5758(5) 0.3366(4)
O4 O 0.6167(4) 0.4981(7) 0.2627(3)
O5 O 0.5857(5) 0.3530(5) 0.2020(6)
O6 O 0.7027(4) 0.5302(5) 0.1684(2)
O7 O 0.66670 0.33330 0.2616(6)
O8 O 0.6901(6) 0.4421(6) 0.3158(4)
C1A C 0.1904(6) 0.6622(6) 0.4086(4)
H1A H 0.17860 0.60420 0.42090
C2A C 0.2455(7) 0.7898(7) 0.3696(5)
H2A H 0.28330 0.84000 0.34800
C3A C 0.0655(7) 0.6730(7) 0.4588(4)
H3A H 0.05530 0.61710 0.47690
H4A H 0.00840 0.65900 0.44060
C4A C 0.0919(11) 0.7521(14) 0.4971(6)
H5A H 0.15720 0.77590 0.50610
H6A H 0.08930 0.80170 0.47820
C5A C 0.0474(10) 0.7412(13) 0.5405(5)
H7A H 0.06600 0.70860 0.56500
H8A H -0.01930 0.70180 0.53420
C6A C 0.0312(7) 0.8451(8) 0.6050(5)
H9A H -0.00790 0.79830 0.62820
C7A C 0.1092(13) 0.9703(14) 0.5727(8)
H10A H 0.13990 1.03440 0.56620
N1A N 0.2575(5) 0.7146(5) 0.3749(3)
N2A N 0.1768(5) 0.7868(6) 0.3972(4)
N3A N 0.1424(5) 0.7035(5) 0.4222(3)
N4A N 0.0641(6) 0.8290(8) 0.5643(4)
N5A N 0.1176(13) 0.9104(15) 0.5408(7)
N6A N 0.0579(5) 0.9351(5) 0.6116(4)
C1B C 0.3378(6) 0.5282(6) 0.4086(4)
H1B H 0.39580 0.57440 0.42090
C2B C 0.2102(7) 0.4557(7) 0.3696(5)
H2B H 0.16000 0.44330 0.34800
C3B C 0.3270(7) 0.3925(7) 0.4588(4)
H3B H 0.38290 0.43820 0.47690
H4B H 0.34100 0.34940 0.44060
C4B C 0.2479(11) 0.3398(14) 0.4971(6)
H5B H 0.22410 0.38130 0.50610
H6B H 0.19830 0.28760 0.47820
C5B C 0.2588(10) 0.3062(13) 0.5405(5)
H7B H 0.29140 0.35740 0.56500
H8B H 0.29820 0.27890 0.53420
C6B C 0.1549(7) 0.1861(8) 0.6050(5)
H9B H 0.20170 0.19380 0.62820
C7B C 0.0297(13) 0.1389(14) 0.5727(8)
H10B H -0.03440 0.10550 0.56620
N1B N 0.2854(5) 0.5429(5) 0.3749(3)
N2B N 0.2132(5) 0.3900(6) 0.3972(4)
N3B N 0.2965(5) 0.4389(5) 0.4222(3)
N4B N 0.1710(6) 0.2351(8) 0.5643(4)
N5B N 0.0896(13) 0.2072(15) 0.5408(7)
N6B N 0.0649(5) 0.1228(5) 0.6116(4)
Co1C Co -0.00003 0.00003 0.662073(80)
Co1C* Co -0.00003 1.00003 0.662073(80)
Co1C** Co 0.99997 1.00003 0.662073(80)
N6F N 0.210533(500) 0.608767(500) 0.278267(400)
N6G N 0.391233(500) 0.601767(500) 0.278267(400)
N6H N 0.398233(500) 0.789467(500) 0.278267(400)
Mo1A Mo 0.49983(5) 0.09157(5) 0.33701(3)
Mo2A Mo 0.53388(6) 0.22124(6) 0.22085(4)
O1A O 0.4218(5) 0.1420(7) 0.3457(3)
O2A O 0.5357(6) 0.1121(5) 0.4059(3)
O3A O 0.4242(5) -0.0209(5) 0.3366(4)
O4A O 0.5019(4) 0.1186(7) 0.2627(3)
O5A O 0.6470(5) 0.2327(5) 0.2020(6)
O6A O 0.4698(4) 0.1725(5) 0.1684(2)
O8A O 0.5579(6) 0.2480(6) 0.3158(4)
Mo1B Mo 0.90843(5) 0.40826(5) 0.33701(3)
Mo2B Mo 0.77876(6) 0.31264(6) 0.22085(4)
O1B O 0.8580(5) 0.2798(7) 0.3457(3)
O2B O 0.8879(6) 0.4236(5) 0.4059(3)
O3B O 1.0209(5) 0.4451(5) 0.3366(4)
O4B O 0.8814(4) 0.3833(7) 0.2627(3)
O5B O 0.7673(5) 0.4143(5) 0.2020(6)
O6B O 0.8275(4) 0.2973(5) 0.1684(2)
O8B O 0.7520(6) 0.3099(6) 0.3158(4)
Mo1L Mo 0.741593(50) 0.166497(50) 0.329657(30)
Mo2L Mo 0.645973(60) 0.200547(60) 0.445817(40)
O1L O 0.613133(500) 0.088467(700) 0.320967(300)
O2L O 0.756933(600) 0.202367(500) 0.260767(300)
O3L O 0.778433(500) 0.090867(500) 0.330067(400)
O4L O 0.716633(400) 0.168567(700) 0.403967(300)
O5L O 0.747633(500) 0.313667(500) 0.464667(600)
O6L O 0.630633(400) 0.136467(500) 0.498267(200)
O7L O 0.66663 0.33337 0.405067(600)
O8L O 0.643233(600) 0.224567(600) 0.350867(400)
Mo1M Mo 0.833503(50) 0.575097(50) 0.329657(30)
Mo2M Mo 0.799453(60) 0.445427(60) 0.445817(40)
O1M O 0.911533(500) 0.524667(700) 0.320967(300)
O2M O 0.797633(600) 0.554567(500) 0.260767(300)
O3M O 0.909133(500) 0.687567(500) 0.330067(400)
O4M O 0.831433(400) 0.548067(700) 0.403967(300)
O5M O 0.686333(500) 0.433967(500) 0.464667(600)
O6M O 0.863533(400) 0.494167(500) 0.498267(200)
O8M O 0.775433(600) 0.418667(600) 0.350867(400)
Mo1N Mo 0.424903(50) 0.258407(50) 0.329657(30)
Mo2N Mo 0.554573(60) 0.354027(60) 0.445817(40)
O1N O 0.475333(500) 0.386867(700) 0.320967(300)
O2N O 0.445433(600) 0.243067(500) 0.260767(300)
O3N O 0.312433(500) 0.221567(500) 0.330067(400)
O4N O 0.451933(400) 0.283367(700) 0.403967(300)
O5N O 0.566033(500) 0.252367(500) 0.464667(600)
O6N O 0.505833(400) 0.369367(500) 0.498267(200)
O8N O 0.581333(600) 0.356767(600) 0.350867(400)
#END
