
#######################################################################
#
#                 Cambridge Crystallographic Data Centre
#                                CCDC
#
#######################################################################
#
# If this CIF has been generated from an entry in the Cambridge
# Structural Database, then it will include bibliographic, chemical,
# crystal, experimental, refinement or atomic coordinate data resulting
# from the CCDC's data processing and validation procedures.
#
#######################################################################

data_CSD_CIF_GIBHUW
_audit_creation_date 2013-05-23
_audit_creation_method CSD-ConQuest-V1
_database_code_CSD GIBHUW
_database_code_depnum_ccdc_archive 'CCDC 880385'
_chemical_formula_sum 'C68 H102 Mo2 N2 O8 Sn2'
_chemical_formula_moiety
;
(C16 H36 N1 1+)2n,n(C36 H30 Mo2 O8 Sn2 2-)
;
_journal_coden_Cambridge 29
_journal_volume 638
_journal_year 2012
_journal_page_first 2213
_journal_name_full 'Z.Anorg.Allg.Chem. '
loop_
_publ_author_name
"D.Rohde"
"M.Kondracka"
"K.Merzweiler"
_chemical_name_systematic
;
catena-[bis(Tetra-n-butylammonium) 
tetrakis(\m~2~-oxo)-tetra-oxo-hexaphenyl-di-molybdenum-di-tin]
;
_cell_volume   3621.426
_exptl_crystal_colour 'colorless'
_exptl_crystal_density_diffrn 1.38
_exptl_special_details
;
Absolute configuration
air-sensitive, moisture-sensitive

;
_diffrn_ambient_temperature 220
_refine_special_details
;
C64 and C64A disordered over two sites with occupancies 0.50:0.50.

;
#These two values have been output from a single CSD field.
_refine_ls_R_factor_gt 0.0501
_refine_ls_wR_factor_gt 0.0501
_symmetry_cell_setting monoclinic
_symmetry_space_group_name_H-M 'P 21'
_symmetry_Int_Tables_number 4
loop_
_symmetry_equiv_pos_site_id
_symmetry_equiv_pos_as_xyz
1 x,y,z
2 -x,1/2+y,-z
_cell_length_a 13.4262(18)
_cell_length_b 22.803(4)
_cell_length_c 13.4399(16)
_cell_angle_alpha 90
_cell_angle_beta 118.344(13)
_cell_angle_gamma 90
_cell_formula_units_Z 2
loop_
_atom_type_symbol
_atom_type_radius_bond
C 0.68
H 0.23
Mo 1.54
N 0.68
O 0.68
Sn 1.39
loop_
_atom_site_label
_atom_site_type_symbol
_atom_site_fract_x
_atom_site_fract_y
_atom_site_fract_z
C1 C 0.9665(6) 0.3053(3) 0.5026(6)
C2 C 1.0581(7) 0.2792(4) 0.5038(7)
H1 H 1.05410 0.26860 0.43520
C3 C 1.1562(8) 0.2675(5) 0.6012(8)
H2 H 1.21400 0.24590 0.59920
C4 C 1.1674(9) 0.2888(5) 0.7033(9)
H3 H 1.23570 0.28490 0.76940
C5 C 1.0758(8) 0.3158(6) 0.7051(7)
H4 H 1.08080 0.32790 0.77350
C6 C 0.9769(7) 0.3247(6) 0.6055(6)
H5 H 0.91650 0.34390 0.60710
C7 C 0.7301(7) 0.4052(4) 0.3334(6)
C8 C 0.6102(7) 0.4063(4) 0.2929(6)
H6 H 0.56850 0.37170 0.27260
C9 C 0.5573(9) 0.4601(5) 0.2845(9)
H7 H 0.47940 0.46130 0.25750
C10 C 0.6175(11) 0.5108(5) 0.315(1)
H8 H 0.58010 0.54600 0.30930
C11 C 0.7323(10) 0.5112(4) 0.3543(9)
H9 H 0.77250 0.54620 0.37460
C12 C 0.7881(8) 0.4579(4) 0.3632(8)
H10 H 0.86590 0.45790 0.38980
C13 C 0.7524(7) 0.2547(4) 0.2205(7)
C14 C 0.6431(9) 0.2335(4) 0.1750(7)
H11 H 0.59180 0.25070 0.19440
C15 C 0.6094(9) 0.1859(5) 0.0990(8)
H12 H 0.53530 0.17230 0.06740
C16 C 0.6825(12) 0.1602(5) 0.0720(8)
H13 H 0.65850 0.12890 0.02170
C17 C 0.7908(11) 0.1788(4) 0.1160(8)
H14 H 0.84060 0.15980 0.09690
C18 C 0.8286(8) 0.2270(4) 0.1910(7)
H15 H 0.90270 0.24030 0.22050
C19 C 0.2993(7) 0.3473(4) 0.1965(7)
C20 C 0.3613(7) 0.3149(5) 0.1543(6)
H16 H 0.40780 0.28440 0.19700
C21 C 0.3539(8) 0.3281(6) 0.0502(7)
H17 H 0.39480 0.30650 0.02330
C22 C 0.2858(10) 0.3733(6) -0.0125(9)
H18 H 0.28050 0.38240 -0.08230
C23 C 0.2241(9) 0.4057(5) 0.0277(8)
H19 H 0.17800 0.43620 -0.01590
C24 C 0.2304(8) 0.3932(5) 0.1320(7)
H20 H 0.18920 0.41510 0.15820
C25 C 0.2796(7) 0.2372(5) 0.3848(7)
C26 C 0.3648(9) 0.2000(4) 0.4627(7)
H21 H 0.43800 0.21410 0.50650
C27 C 0.3385(11) 0.1421(5) 0.4734(9)
H22 H 0.39550 0.11730 0.52300
C28 C 0.2302(12) 0.1207(5) 0.4123(10)
H23 H 0.21360 0.08200 0.42130
C29 C 0.1455(11) 0.1578(5) 0.3366(11)
H24 H 0.07190 0.14390 0.29520
C30 C 0.1702(9) 0.2157(5) 0.3223(9)
H25 H 0.11330 0.24000 0.27090
C31 C 0.3741(7) 0.3895(4) 0.4925(7)
C32 C 0.3265(8) 0.3905(5) 0.5657(6)
H26 H 0.26830 0.36490 0.55490
C33 C 0.3691(10) 0.4318(5) 0.6574(8)
H27 H 0.33890 0.43290 0.70700
C34 C 0.4545(10) 0.4696(5) 0.6717(7)
H28 H 0.48140 0.49650 0.73080
C35 C 0.4995(9) 0.4681(4) 0.6016(8)
H29 H 0.55710 0.49420 0.61240
C36 C 0.4611(8) 0.4280(4) 0.5124(8)
H30 H 0.49460 0.42710 0.46570
O1 O 0.1430(5) 0.3509(3) 0.3065(5)
O2 O 0.0764(5) 0.4356(3) 0.4222(5)
O3 O 0.0021(6) 0.4510(3) 0.1945(5)
O4 O -0.0899(5) 0.3567(3) 0.2679(4)
O5 O 0.7108(5) 0.2831(2) 0.4192(5)
O6 O 0.7004(5) 0.3608(3) 0.5857(5)
O7 O 0.6756(6) 0.2400(3) 0.6008(5)
O8 O 0.4967(4) 0.3039(2) 0.4207(4)
Mo1 Mo 0.03291(6) 0.39899(3) 0.29777(6)
Mo2 Mo 0.64650(6) 0.29740(3) 0.50751(6)
Sn1 Sn 0.81277(5) 0.32266(3) 0.34840(4)
Sn2 Sn 0.31820(5) 0.32575(3) 0.36014(4)
C37 C 0.7899(9) 0.0594(4) 0.5972(8)
H31 H 0.72530 0.03650 0.54460
H32 H 0.85030 0.03190 0.64090
C38 C 0.7578(10) 0.0901(4) 0.6768(8)
H33 H 0.82060 0.11440 0.72850
H34 H 0.69370 0.11570 0.63390
C39 C 0.7283(10) 0.0480(5) 0.7426(9)
H35 H 0.79160 0.02170 0.78290
H36 H 0.66420 0.02470 0.69060
C40 C 0.6991(11) 0.0771(6) 0.8266(10)
H37 H 0.75730 0.10460 0.87140
H38 H 0.69350 0.04780 0.87500
H39 H 0.62810 0.09720 0.78680
C41 C 0.7357(10) 0.1420(4) 0.4544(8)
H40 H 0.71960 0.16690 0.50360
H41 H 0.76490 0.16690 0.41570
C42 C 0.6263(10) 0.1148(4) 0.3675(9)
H42 H 0.63490 0.10230 0.30300
H43 H 0.61030 0.08030 0.39980
C43 C 0.5278(10) 0.1566(5) 0.3278(9)
H44 H 0.54540 0.19170 0.29850
H45 H 0.51790 0.16800 0.39210
C44 C 0.4170(11) 0.1311(6) 0.2368(10)
H46 H 0.42650 0.11870 0.17360
H47 H 0.35880 0.16040 0.21260
H48 H 0.39580 0.09800 0.26690
C45 C 0.9328(9) 0.1338(4) 0.6061(8)
H49 H 0.91060 0.16250 0.64500
H50 H 0.95820 0.15500 0.55980
C46 C 1.0326(10) 0.0985(5) 0.6946(11)
H51 H 1.00880 0.07840 0.74340
H52 H 1.05400 0.06890 0.65640
C47 C 1.1335(13) 0.1357(7) 0.7656(14)
H53 H 1.10900 0.16980 0.79120
H54 H 1.16650 0.14930 0.71940
C48 C 1.2235(15) 0.1037(9) 0.8676(14)
H55 H 1.18840 0.08220 0.90410
H56 H 1.27590 0.13160 0.91970
H57 H 1.26320 0.07700 0.84370
C49 C 0.8538(9) 0.0567(4) 0.4534(8)
H58 H 0.91030 0.02860 0.50180
H59 H 0.78540 0.03490 0.40580
C50 C 0.8950(11) 0.0846(4) 0.3786(9)
H60 H 0.97220 0.09810 0.42370
H61 H 0.84800 0.11820 0.34010
C51 C 0.8893(18) 0.0379(7) 0.2889(15)
H62 H 0.80990 0.02990 0.23910
H63 H 0.91840 0.05690 0.24340
C52 C 0.9425(19) -0.0147(8) 0.3222(16)
H64 H 1.01700 -0.00900 0.38440
H65 H 0.94830 -0.03240 0.26030
H66 H 0.89990 -0.03990 0.34520
N1 N 0.8285(7) 0.0978(3) 0.5282(7)
C53 C 0.7250(9) 0.3872(6) 0.9962(8)
H67 H 0.70560 0.35360 1.02780
H68 H 0.79290 0.40470 1.05620
C54 C 0.6294(11) 0.4317(7) 0.9577(10)
H69 H 0.65190 0.46590 0.93030
H70 H 0.56410 0.41490 0.89350
C55 C 0.5945(14) 0.4508(8) 1.0313(10)
H71 H 0.66010 0.46610 1.09720
H72 H 0.56800 0.41710 1.05590
C56 C 0.5030(12) 0.4971(7) 0.9917(10)
H73 H 0.52440 0.52980 0.96090
H74 H 0.49340 0.51010 1.05460
H75 H 0.43320 0.48080 0.93470
C57 C 0.6502(8) 0.3313(5) 0.8127(7)
H76 H 0.58950 0.35880 0.77050
H77 H 0.67300 0.31450 0.76020
C58 C 0.6048(9) 0.2835(5) 0.8545(8)
H78 H 0.57660 0.29970 0.90310
H79 H 0.66460 0.25590 0.89840
C59 C 0.5082(10) 0.2518(5) 0.7537(9)
H80 H 0.45150 0.28060 0.70860
H81 H 0.53840 0.23550 0.70690
C60 C 0.4518(10) 0.2040(6) 0.7832(9)
H82 H 0.50550 0.17350 0.82250
H83 H 0.39070 0.18840 0.71530
H84 H 0.42260 0.21930 0.83080
C61 C 0.8551(8) 0.3264(6) 0.9622(8)
H85 H 0.91640 0.35000 1.01770
H86 H 0.83810 0.29660 1.00340
C62 C 0.8985(11) 0.2956(6) 0.8903(11)
H87 H 0.91010 0.32340 0.84220
H88 H 0.84520 0.26590 0.84310
C63 C 0.982(4) 0.2049(14) 0.968(4)
C64 C 0.7763(9) 0.4149(5) 0.8443(8)
H89 H 0.70940 0.43940 0.80820
H90 H 0.78880 0.39800 0.78490
C65 C 0.8769(10) 0.4540(5) 0.9169(9)
H91 H 0.87500 0.46350 0.98630
H92 H 0.94640 0.43260 0.93700
C66 C 0.8779(12) 0.5095(6) 0.8587(10)
H93 H 0.80760 0.53040 0.83700
H94 H 0.88140 0.49990 0.79010
C67 C 0.9747(13) 0.5490(7) 0.9298(13)
H95 H 0.97070 0.58380 0.88800
H96 H 1.04470 0.52900 0.95010
H97 H 0.97090 0.55940 0.99710
N2 N 0.7517(7) 0.3658(4) 0.9038(6)
C68 C 1.0156(16) 0.2662(10) 0.978(2)
C69? C 1.060(3) 0.2171(16) 0.941(3)
O4* O 0.9101(5) 0.3567(3) 0.2679(4)
Sn1* Sn -0.18723(5) 0.32266(3) 0.34840(4)
#END
