
#######################################################################
#
#                 Cambridge Crystallographic Data Centre
#                                CCDC
#
#######################################################################
#
# If this CIF has been generated from an entry in the Cambridge
# Structural Database, then it will include bibliographic, chemical,
# crystal, experimental, refinement or atomic coordinate data resulting
# from the CCDC's data processing and validation procedures.
#
#######################################################################

data_CSD_CIF_GIBJAE
_audit_creation_date 2013-05-23
_audit_creation_method CSD-ConQuest-V1
_database_code_CSD GIBJAE
_database_code_depnum_ccdc_archive 'CCDC 880384'
_chemical_formula_sum 'C32 H46 Mo1 N2 O4 Sn1'
_chemical_formula_moiety
;
(C12 H28 N1 1+)n,n(C18 H15 Mo1 O4 Sn1 1-),n(C2 H3 N1)
;
_journal_coden_Cambridge 29
_journal_volume 638
_journal_year 2012
_journal_page_first 2213
_journal_name_full 'Z.Anorg.Allg.Chem. '
loop_
_publ_author_name
"D.Rohde"
"M.Kondracka"
"K.Merzweiler"
_chemical_name_systematic
;
catena-[(Tetra-n-propylammonium) 
bis(\m~2~-oxo)-dioxo-triphenyl-molybdenum-tin acetonitrile solvate]
;
_cell_volume   3504.144
_exptl_crystal_colour 'colorless'
_exptl_crystal_density_diffrn 1.398
_exptl_special_details
;
Absolute configuration
air-sensitive, moisture-sensitive

;
_diffrn_ambient_temperature 220
#These two values have been output from a single CSD field.
_refine_ls_R_factor_gt 0.0288
_refine_ls_wR_factor_gt 0.0288
_symmetry_cell_setting orthorhombic
_symmetry_space_group_name_H-M 'P 21 21 21'
_symmetry_Int_Tables_number 19
loop_
_symmetry_equiv_pos_site_id
_symmetry_equiv_pos_as_xyz
1 x,y,z
2 1/2-x,-y,1/2+z
3 1/2+x,1/2-y,-z
4 -x,1/2+y,1/2-z
_cell_length_a 13.3991(17)
_cell_length_b 15.0889(19)
_cell_length_c 17.332(3)
_cell_angle_alpha 90
_cell_angle_beta 90
_cell_angle_gamma 90
_cell_formula_units_Z 4
loop_
_atom_type_symbol
_atom_type_radius_bond
C 0.68
H 0.23
Mo 1.54
N 0.68
O 0.68
Sn 1.39
loop_
_atom_site_label
_atom_site_type_symbol
_atom_site_fract_x
_atom_site_fract_y
_atom_site_fract_z
C1 C -0.4891(2) -0.1056(3) 0.01841(19)
C2 C -0.4126(3) -0.0952(4) 0.0741(3)
H1 H -0.393(3) -0.143(3) 0.099(2)
C3 C -0.3699(4) -0.0134(5) 0.0868(3)
H2 H -0.321(4) -0.003(4) 0.126(3)
C4 C -0.3994(4) 0.0583(5) 0.0444(4)
H3 H -0.379(4) 0.116(4) 0.045(3)
C5 C -0.4724(4) 0.0504(4) -0.0113(4)
H4 H -0.501(3) 0.086(4) -0.042(3)
C6 C -0.5181(3) -0.0312(3) -0.0224(2)
H5 H -0.555(3) -0.035(2) -0.058(2)
C7 C -0.6260(2) -0.3096(3) 0.0880(2)
C8 C -0.7252(2) -0.3379(3) 0.0794(2)
H6 H -0.755(2) -0.319(2) 0.0362(18)
C9 C -0.7716(3) -0.3893(3) 0.1345(3)
H7 H -0.832(4) -0.411(3) 0.124(3)
C10 C -0.7207(3) -0.4134(4) 0.2008(3)
H8 H -0.752(3) -0.445(3) 0.243(2)
C11 C -0.6227(3) -0.3863(4) 0.2109(3)
H9 H -0.587(3) -0.401(3) 0.256(3)
C12 C -0.5762(3) -0.3349(3) 0.1562(2)
H10 H -0.512(3) -0.315(3) 0.163(2)
C13 C -0.5487(3) -0.2926(3) -0.1142(2)
C14 C -0.6356(4) -0.3235(3) -0.1510(3)
H11 H -0.700(3) -0.320(3) -0.121(2)
C15 C -0.6311(7) -0.3618(5) -0.2240(4)
H12 H -0.681(4) -0.375(4) -0.238(3)
C16 C -0.5422(8) -0.3684(5) -0.2627(3)
H13 H -0.537(4) -0.394(4) -0.315(3)
C17 C -0.4552(6) -0.3385(4) -0.2275(3)
H14 H -0.393(4) -0.341(4) -0.252(3)
C18 C -0.4588(4) -0.3025(3) -0.1537(2)
H15 H -0.399(3) -0.283(3) -0.133(2)
O1 O -0.8184(2) -0.1503(4) -0.16237(16)
O2 O -0.91066(17) -0.2059(2) -0.02616(14)
O3 O -0.69641(19) -0.1709(2) -0.02854(14)
O4 O -0.8398(3) -0.0316(3) -0.0417(4)
Mo1 Mo -0.81616(2) -0.13863(2) -0.065019(19)
Sn1 Sn -0.554454(13) -0.233929(15) -0.00117(2)
C19 C -0.8173(3) -0.0567(3) -0.3347(2)
H16 H -0.88650 -0.06250 -0.35050
H17 H -0.81500 -0.06540 -0.27930
C20 C -0.7842(4) 0.0368(4) -0.3518(3)
H18 H -0.79750 0.05100 -0.40540
H19 H -0.71290 0.04230 -0.34300
C21 C -0.8399(4) 0.1000(4) -0.2999(3)
H20 H -0.81930 0.15960 -0.31080
H21 H -0.82570 0.08620 -0.24700
H22 H -0.91030 0.09440 -0.30910
C22 C -0.7751(3) -0.1282(3) -0.45955(19)
H23 H -0.84620 -0.13450 -0.46860
H24 H -0.75570 -0.07010 -0.47810
C23 C -0.7215(3) -0.1970(3) -0.5076(3)
H25 H -0.74270 -0.25590 -0.49220
H26 H -0.65010 -0.19250 -0.49920
C24 C -0.7451(4) -0.1822(4) -0.5928(2)
H27 H -0.71080 -0.22560 -0.62330
H28 H -0.72370 -0.12390 -0.60780
H29 H -0.81570 -0.18760 -0.60090
C25 C -0.7903(3) -0.2190(3) -0.3383(2)
H30 H -0.77190 -0.21930 -0.28420
H31 H -0.75310 -0.26600 -0.36340
C26 C -0.9008(3) -0.2410(4) -0.3441(3)
H32 H -0.93920 -0.19790 -0.31500
H33 H -0.92190 -0.23790 -0.39760
C27 C -0.9206(4) -0.3332(5) -0.3128(3)
H34 H -0.99060 -0.34600 -0.31610
H35 H -0.89970 -0.33610 -0.25990
H36 H -0.88390 -0.37580 -0.34250
C28 C -0.6460(3) -0.1203(3) -0.3567(2)
H37 H -0.61190 -0.17290 -0.37500
H38 H -0.62170 -0.07060 -0.38690
C29 C -0.6165(3) -0.1053(4) -0.2732(2)
H39 H -0.64640 -0.05090 -0.25430
H40 H -0.64050 -0.15390 -0.24160
C30 C -0.5037(3) -0.0993(4) -0.2675(3)
H41 H -0.48480 -0.08970 -0.21470
H42 H -0.48040 -0.05090 -0.29860
H43 H -0.47450 -0.15360 -0.28560
N1 N -0.7574(2) -0.1312(3) -0.37293(17)
C31 C -0.9320(4) -0.3936(5) -0.5194(3)
C32 C -0.9236(4) -0.4869(4) -0.5056(5)
H44 H -0.97830 -0.50620 -0.47400
H45 H -0.86180 -0.49910 -0.47970
H46 H -0.92520 -0.51810 -0.55390
N2 N -0.9406(4) -0.3195(4) -0.5309(3)
O2B O -0.41066(17) -0.2941(2) 0.02616(14)
Sn1B Sn -1.054454(13) -0.266071(15) 0.00117(2)
#END
