
#######################################################################
#
#                 Cambridge Crystallographic Data Centre
#                                CCDC
#
#######################################################################
#
# If this CIF has been generated from an entry in the Cambridge
# Structural Database, then it will include bibliographic, chemical,
# crystal, experimental, refinement or atomic coordinate data resulting
# from the CCDC's data processing and validation procedures.
#
#######################################################################

data_CSD_CIF_GICTAN
_audit_creation_date 1989-05-22
_audit_creation_method CSD-ConQuest-V1
_database_code_CSD GICTAN
_database_code_depnum_ccdc_archive 'CCDC 1167389'
_chemical_formula_sum 'C9 H14 Na1 O11.5 Zn1'
_chemical_formula_moiety
;
(C9 H9 O9 Zn1 1-)n,n(Na1 1+),2.5n(H2 O1)
;
_journal_coden_Cambridge 29
_journal_volume 561
_journal_year 1988
_journal_page_first 57
_journal_name_full 'Z.Anorg.Allg.Chem. '
loop_
_publ_author_name
"C.Robl"
_chemical_name_systematic
;
catena-(Sodium triaqua-(\m~2~-benzene-1,3,5-tricarboxylato-O,O')-zinc hydrate)
;
_cell_volume    688.260
_exptl_crystal_colour 'honey-yellow'
_exptl_crystal_density_diffrn 1.9
_diffrn_ambient_temperature ?
_diffrn_special_details
;
The study was carried out at room temperature,in the range 283-303K

;
#These two values have been output from a single CSD field.
_refine_ls_R_factor_gt 0.0302
_refine_ls_wR_factor_gt 0.0302
_symmetry_cell_setting triclinic
_symmetry_space_group_name_H-M 'P -1'
_symmetry_Int_Tables_number 2
loop_
_symmetry_equiv_pos_site_id
_symmetry_equiv_pos_as_xyz
1 x,y,z
2 -x,-y,-z
_cell_length_a 7.100(1)
_cell_length_b 9.793(2)
_cell_length_c 11.202(2)
_cell_angle_alpha 66.94(2)
_cell_angle_beta 73.86(1)
_cell_angle_gamma 84.76(1)
_cell_formula_units_Z 2
loop_
_atom_type_symbol
_atom_type_radius_bond
C 0.68
H 0.23
Na 0.97
O 0.68
Zn 1.45
loop_
_atom_site_label
_atom_site_type_symbol
_atom_site_fract_x
_atom_site_fract_y
_atom_site_fract_z
Zn1 Zn 0.19367(4) 0.17068(2) 0.17723(2)
O1 O -0.1131(3) 0.1490(3) 0.3068(2)
O2 O 0.4819(3) 0.1938(2) 0.0654(2)
O3 O 0.0771(3) 0.2361(2) 0.0192(2)
O4 O 0.2241(3) 0.3561(2) 0.2054(1)
O5 O 0.2328(3) 0.1927(2) 0.4060(2)
O6 O 0.2042(3) 0.9608(2) 0.2962(2)
O7 O 0.2436(3) 0.9004(2) 0.1205(2)
O8 O 0.2674(3) 0.5847(2) 0.7314(2)
O9 O 0.2596(3) 0.3469(2) 0.7655(2)
C1 C 0.2427(3) 0.4476(2) 0.3704(2)
C2 C 0.2382(3) 0.5953(2) 0.2856(2)
C3 C 0.2436(3) 0.7073(2) 0.3319(2)
C4 C 0.2561(3) 0.6705(2) 0.4623(2)
C5 C 0.2577(3) 0.5230(2) 0.5488(2)
C6 C 0.2510(3) 0.4122(2) 0.5015(2)
C7 C 0.2337(3) 0.3235(2) 0.3255(2)
C8 C 0.2302(3) 0.8661(2) 0.2417(2)
C9 C 0.2627(3) 0.4828(3) 0.6921(2)
H1 H 0.2277(37) 0.6200(28) 0.2006(26)
H2 H 0.2634(37) 0.7389(28) 0.4923(25)
H3 H 0.2557(37) 0.3149(29) 0.5570(26)
H4 H -0.1438(75) 0.2396(60) 0.2972(51)
H5 H -0.1746(58) 0.1114(47) 0.2983(39)
H6 H 0.5288(48) 0.1618(38) 0.0229(33)
H7 H 0.5310(19) 0.2590(39) 0.0600(34)
H8 H 0.1439(47) 0.2707(34) -0.0521(32)
H9 H -0.0198(44) 0.2838(32) 0.0292(30)
Na1 Na 0.00000 0.00000 0.50000
Na2 Na 0.00000 0.00000 0.00000
O10 O 0.7438(3) 0.3993(2) 0.0357(2)
H10 H 0.7270(42) 0.4184(32) 0.0962(30)
H11 H 0.7445(44) 0.4609(33) -0.0192(32)
O11 O 0.2647(5) 0.0542(3) 0.7972(3)
H12 H 0.3716(74) 0.0526(55) 0.7305(51)
H13 H 0.2863(61) 0.1409(48) 0.7866(42)
O12 O 0.4508(7) 0.0042(5) 0.5869(5)
O6* O 0.2042(3) -0.0392(2) 0.2962(2)
Zn1* Zn 0.19367(4) 1.17068(2) 0.17723(2)
#END
