
#######################################################################
#
#                 Cambridge Crystallographic Data Centre
#                                CCDC
#
#######################################################################
#
# If this CIF has been generated from an entry in the Cambridge
# Structural Database, then it will include bibliographic, chemical,
# crystal, experimental, refinement or atomic coordinate data resulting
# from the CCDC's data processing and validation procedures.
#
#######################################################################

data_CSD_CIF_GICXIB01
_audit_creation_date 2013-05-23
_audit_creation_method CSD-ConQuest-V1
_database_code_CSD GICXIB01
_database_code_depnum_ccdc_archive 'CCDC 879108'
_chemical_formula_sum 'C6 H11 N1 O6 Zn1'
_chemical_formula_moiety
;
(C3 H3 O6 Zn1 1-)n,C3 H8 N1 1+
;
_journal_coden_Cambridge 920
_journal_volume 7
_journal_year 2012
_journal_page_first 2786
_journal_name_full 'Chem.Asian J. '
loop_
_publ_author_name
"Yuji Imai"
"Biao Zhou"
"Y.Ito"
"H.Fijimori"
"A.Kobayashi"
"Zhe-Ming Wang"
"H.Kobayashi"
_chemical_name_systematic
;
catena-(Azetidinium tris(\m~2~-formato-O,O')-zinc)
;
_cell_volume    892.911
_exptl_crystal_colour 'colorless'
_exptl_crystal_density_diffrn 1.923
_exptl_special_details
;
Pna21 polymorph
phase transitions at 300 K and 250 K

;
_exptl_crystal_description 'prism'
_diffrn_ambient_temperature 273
#These two values have been output from a single CSD field.
_refine_ls_R_factor_gt 0.0275
_refine_ls_wR_factor_gt 0.0275
_symmetry_cell_setting orthorhombic
_symmetry_space_group_name_H-M 'P n a 21'
_symmetry_Int_Tables_number 33
loop_
_symmetry_equiv_pos_site_id
_symmetry_equiv_pos_as_xyz
1 x,y,z
2 1/2-x,1/2+y,1/2+z
3 1/2+x,1/2-y,z
4 -x,-y,1/2+z
_cell_length_a 8.5159(8)
_cell_length_b 8.7275(10)
_cell_length_c 12.014(2)
_cell_angle_alpha 90
_cell_angle_beta 90
_cell_angle_gamma 90
_cell_formula_units_Z 4
loop_
_atom_type_symbol
_atom_type_radius_bond
C 0.68
H 0.23
N 0.68
O 0.68
Zn 1.22
loop_
_atom_site_label
_atom_site_type_symbol
_atom_site_fract_x
_atom_site_fract_y
_atom_site_fract_z
Zn1 Zn 0.51572(1) 0.50062(2) 0.44889(6)
O1 O 0.63000(9) 0.29429(9) 0.39579(8)
O2 O 0.80354(9) 0.10549(10) 0.39964(8)
O3 O 0.48676(11) 0.40844(15) 0.60660(11)
O4 O 0.46561(11) 0.40811(14) 0.79048(11)
O5 O 0.40217(9) 0.70652(9) 0.50288(8)
O6 O 0.23216(9) 0.89742(9) 0.49922(9)
C1 C 0.75066(12) 0.22995(13) 0.43564(15)
C2 C 0.49922(17) 0.46903(8) 0.6996(3)
C3 C 0.29461(12) 0.78065(12) 0.45785(15)
H1 H 0.80250 0.27730 0.49660
H2 H 0.53970 0.57040 0.70260
H3 H 0.25660 0.74560 0.38800
N1 N 0.43531(13) 0.89441(12) 0.70492(15)
C4 C 0.60372(19) 0.90958(16) 0.67957(19)
C5 C 0.5852(2) 1.07496(18) 0.66250(13)
C6 C 0.4285(2) 1.06346(18) 0.7173(2)
H4 H 0.37510 0.85770 0.64390
H5 H 0.41050 0.83680 0.76970
H6 H 0.66900 0.88540 0.74130
H7 H 0.63780 0.85380 0.61610
H8 H 0.65980 1.13800 0.69930
H9 H 0.57920 1.10330 0.58630
H10 H 0.34450 1.11220 0.67920
H11 H 0.42940 1.09560 0.79280
Zn1B Zn 0.01572(1) 0.99938(2) 0.44889(6)
Zn1B* Zn 1.01572(1) -0.00062(2) 0.44889(6)
Zn1C Zn 0.48428(1) 0.49938(2) 0.94889(6)
O2B O 0.30354(9) 0.39451(10) 0.39964(8)
O4C O 0.53439(11) 0.59189(14) 0.29048(11)
O6B O 0.73216(9) 0.60258(9) 0.49922(9)
#END
