
#######################################################################
#
#                 Cambridge Crystallographic Data Centre
#                                CCDC
#
#######################################################################
#
# If this CIF has been generated from an entry in the Cambridge
# Structural Database, then it will include bibliographic, chemical,
# crystal, experimental, refinement or atomic coordinate data resulting
# from the CCDC's data processing and validation procedures.
#
#######################################################################

data_CSD_CIF_GICXIB
_audit_creation_date 2013-05-23
_audit_creation_method CSD-ConQuest-V1
_database_code_CSD GICXIB
_database_code_depnum_ccdc_archive 'CCDC 879109'
_chemical_formula_sum 'C6 H11 N1 O6 Zn1'
_chemical_formula_moiety
;
(C3 H3 O6 Zn1 1-)n,C3 H8 N1 1+
;
_journal_coden_Cambridge 920
_journal_volume 7
_journal_year 2012
_journal_page_first 2786
_journal_name_full 'Chem.Asian J. '
loop_
_publ_author_name
"Yuji Imai"
"Biao Zhou"
"Y.Ito"
"H.Fijimori"
"A.Kobayashi"
"Zhe-Ming Wang"
"H.Kobayashi"
_chemical_name_systematic
;
catena-(Azetidinium tris(\m~2~-formato-O,O')-zinc)
;
_cell_volume    894.426
_exptl_crystal_colour 'colorless'
_exptl_crystal_density_diffrn 1.92
_exptl_special_details
;
Pnma polymorph
phase transitions at 300 K and 250 K

;
_exptl_crystal_description 'prism'
_diffrn_ambient_temperature 308
#These two values have been output from a single CSD field.
_refine_ls_R_factor_gt 0.0512
_refine_ls_wR_factor_gt 0.0512
_symmetry_cell_setting orthorhombic
_symmetry_space_group_name_H-M 'P n m a'
_symmetry_Int_Tables_number 62
loop_
_symmetry_equiv_pos_site_id
_symmetry_equiv_pos_as_xyz
1 x,y,z
2 1/2-x,-y,1/2+z
3 1/2+x,1/2-y,1/2-z
4 -x,1/2+y,-z
5 -x,-y,-z
6 -1/2+x,y,-1/2-z
7 -1/2-x,-1/2+y,-1/2+z
8 x,-1/2-y,z
_cell_length_a 8.552(3)
_cell_length_b 12.027(4)
_cell_length_c 8.696(3)
_cell_angle_alpha 90
_cell_angle_beta 90
_cell_angle_gamma 90
_cell_formula_units_Z 4
loop_
_atom_type_symbol
_atom_type_radius_bond
C 0.68
H 0.23
N 0.68
O 0.68
Zn 1.22
loop_
_atom_site_label
_atom_site_type_symbol
_atom_site_fract_x
_atom_site_fract_y
_atom_site_fract_z
Zn1 Zn 0.50000 0.50000 0.50000
O1 O 0.71294(13) 0.45073(9) 0.60507(13)
O2 O 0.88552(12) 0.44652(9) 0.79318(13)
O3 O 0.52315(12) 0.65816(9) 0.59245(15)
C1 C 0.7708(2) 0.48733(15) 0.7265(2)
C2 C 0.4991(2) 0.75000(1) 0.5312(3)
H1 H 0.72410 0.54960 0.77030
H2 H 0.45990 0.75000 0.43150
N1 N 0.9383(3) 0.25000(1) 0.6029(3)
C3 C 0.9351(4) 0.25000(1) 0.4386(4)
C4 C 1.0995(4) 0.25000(1) 0.4262(4)
C5 C 1.1079(4) 0.25000(1) 0.5878(3)
H3 H 0.89840 0.18820 0.64620
H4 H 0.88680 0.18380 0.39620
H5 H 1.14180 0.18340 0.37900
H6 H 1.15600 0.18370 0.63020
O3G O 0.52315(12) 0.84184(9) 0.59245(15)
O1D O 0.28706(13) 0.54927(9) 0.39493(13)
O2D O 0.11448(12) 0.55348(9) 0.20682(13)
C1D C 0.2292(2) 0.51267(15) 0.2735(2)
H1D H 0.27590 0.45040 0.22970
Zn1G Zn 0.50000 1.00000 0.50000
Zn1A Zn 0.00000 0.50000 0.00000
Zn1A* Zn 1.00000 0.50000 1.00000
O2A O 0.61448(12) 0.55348(9) 0.29318(13)
O2E O 0.38552(12) 0.44652(9) 0.70682(13)
O3D O 0.47685(12) 0.34184(9) 0.40755(15)
H3G H 0.89840 0.31180 0.64620
H4G H 0.88680 0.31620 0.39620
H5G H 1.14180 0.31660 0.37900
H6G H 1.15600 0.31630 0.63020
#END
