
#######################################################################
#
#                 Cambridge Crystallographic Data Centre
#                                CCDC
#
#######################################################################
#
# If this CIF has been generated from an entry in the Cambridge
# Structural Database, then it will include bibliographic, chemical,
# crystal, experimental, refinement or atomic coordinate data resulting
# from the CCDC's data processing and validation procedures.
#
#######################################################################

data_CSD_CIF_GIDLOV
_audit_creation_date 2007-09-04
_audit_creation_method CSD-ConQuest-V1
_database_code_CSD GIDLOV
_database_code_depnum_ccdc_archive 'CCDC 635249'
_chemical_formula_sum 'C32 H44 Cu1 N4 O27 U2'
_chemical_formula_moiety
;
(C20 H20 Cu1 N4 O2 2+)n,n(C12 H14 O20 U2 2-),5n(H2 O1)
;
_journal_coden_Cambridge 1350
_journal_volume 9
_journal_year 2007
_journal_page_first 358
_journal_name_full 'CrystEngComm '
loop_
_publ_author_name
"P.Thuery"
_chemical_name_systematic
;
catena-(bis(\m~2~-4,4'-Bipyridine-N,N')-diaqua-copper(ii) bis(\m~2~-hydrogen 
citrato-O,O,O',O'')-diaqua-tetraoxo-di-uranium clathrate pentahydrate)
;
_cell_volume   4514.017
_exptl_crystal_colour 'light green'
_exptl_crystal_density_diffrn 2.143
_exptl_crystal_description 'irregular'
_diffrn_ambient_temperature 110
_diffrn_special_details
;
twin

;
#These two values have been output from a single CSD field.
_refine_ls_R_factor_gt 0.0472
_refine_ls_wR_factor_gt 0.0472
_symmetry_cell_setting orthorhombic
_symmetry_space_group_name_H-M 'P c a 21'
_symmetry_Int_Tables_number 29
loop_
_symmetry_equiv_pos_site_id
_symmetry_equiv_pos_as_xyz
1 x,y,z
2 -x,-y,1/2+z
3 1/2+x,-y,z
4 1/2-x,y,1/2+z
_cell_length_a 16.5938(7)
_cell_length_b 15.1034(6)
_cell_length_c 18.0112(4)
_cell_angle_alpha 90
_cell_angle_beta 90
_cell_angle_gamma 90
_cell_formula_units_Z 4
loop_
_atom_type_symbol
_atom_type_radius_bond
C 0.68
H 0.23
Cu 1.52
N 0.68
O 0.68
U 1.44
loop_
_atom_site_label
_atom_site_type_symbol
_atom_site_fract_x
_atom_site_fract_y
_atom_site_fract_z
U1 U 0.83229(2) 0.32499(2) -0.00121(2)
U2 U 0.64106(2) 0.17746(2) 0.00384(2)
Cu1 Cu 0.76270(8) 0.75044(8) 0.75024(13)
O1 O 0.8243(6) 0.2997(6) -0.0984(5)
O2 O 0.8404(5) 0.3564(7) 0.0934(5)
O3 O 0.6501(6) 0.1907(6) -0.0959(5)
O4 O 0.6306(6) 0.1575(6) 0.0998(5)
O5 O 0.7811(4) 0.1802(4) 0.0217(4)
O6 O 0.9342(5) 0.2210(5) 0.0107(8)
O7 O 0.9777(6) 0.0859(6) 0.0396(6)
O8 O 0.6825(5) 0.0308(5) -0.0141(6)
O9 O 0.7523(6) -0.0897(6) -0.0414(6)
O10 O 0.8699(6) 0.1820(7) 0.1758(6)
H1 H 0.85520 0.22200 0.20340
O11 O 0.7582(7) 0.1149(7) 0.2166(6)
O12 O 0.6909(5) 0.3238(4) 0.0155(4)
O13 O 0.5375(4) 0.2822(5) 0.0048(7)
O14 O 0.4916(5) 0.4193(6) 0.0296(6)
O15 O 0.7894(5) 0.4692(5) -0.0314(6)
O16 O 0.7227(5) 0.5902(6) -0.0580(5)
O17 O 0.7077(6) 0.4006(7) 0.2094(5)
H2 H 0.73870 0.35010 0.20940
O18 O 0.5957(6) 0.3345(6) 0.1665(5)
O19 O 0.9544(5) 0.4115(5) -0.0238(5)
H3 H 0.95340 0.46640 -0.00490
H4 H 1.00160 0.39010 -0.01640
O20 O 0.5189(5) 0.0877(5) -0.0137(5)
H5 H 0.47270 0.10660 0.00670
H6 H 0.52220 0.03530 0.00250
O21 O 0.7649(6) 0.7423(6) 0.6245(6)
H7 H 0.73270 0.71720 0.58590
H8 H 0.80930 0.75710 0.60190
O22 O 0.7594(5) 0.7539(5) 0.8801(7)
H9 H 0.72730 0.78760 0.90390
H10 H 0.78420 0.72340 0.91050
O23 O 0.8330(8) 0.3049(8) 0.2792(7)
O24 O 0.6533(5) 0.6575(6) 0.5350(5)
H11 H 0.66800 0.62090 0.50020
H12 H 0.60530 0.64290 0.53910
O25 O 0.3858(6) 0.1675(5) 0.0185(6)
O26 O 1.1227(6) 0.1664(6) 0.0354(5)
O27 O 0.5888(6) 0.6648(7) 0.0055(11)
N1 N 0.8486(8) 0.8458(9) 0.7555(8)
N2 N 0.8534(6) 0.6569(7) 0.7519(6)
N3 N 1.1785(6) 0.3458(7) 0.7573(6)
N4 N 1.1705(7) 1.1550(8) 0.7460(7)
C1 C 0.8355(8) 0.1073(8) 0.0316(8)
C2 C 0.9238(9) 0.1392(9) 0.0303(7)
C3 C 0.8250(7) 0.0435(9) -0.0340(8)
H13 H 0.82430 0.07740 -0.07970
H14 H 0.87110 0.00400 -0.03580
C4 C 0.7513(7) -0.0096(8) -0.0297(7)
C5 C 0.8207(9) 0.0602(8) 0.1061(8)
H15 H 0.77140 0.02600 0.10240
H16 H 0.86450 0.01920 0.11510
C6 C 0.8140(8) 0.1222(8) 0.1714(7)
C7 C 0.6372(7) 0.3978(8) 0.0228(6)
C8 C 0.5477(7) 0.3635(8) 0.0218(7)
C9 C 0.6431(9) 0.456(1) -0.0481(8)
H17 H 0.59770 0.49630 -0.05030
H18 H 0.64180 0.41870 -0.09190
C10 C 0.7255(8) 0.5109(9) -0.0461(7)
C11 C 0.6516(8) 0.4497(8) 0.0930(7)
H19 H 0.60910 0.49310 0.09890
H20 H 0.70230 0.48130 0.08880
C12 C 0.6542(6) 0.3908(7) 0.1615(6)
C13 C 0.8532(8) 0.9114(9) 0.7046(9)
H21 H 0.81340 0.91230 0.66820
C14 C 0.9089(10) 0.975(1) 0.7010(9)
H22 H 0.90550 1.01960 0.66550
C15 C 0.9729(8) 0.9731(8) 0.7523(8)
C16 C 0.9695(10) 0.9073(10) 0.8058(8)
H23 H 1.00900 0.90410 0.84240
C17 C 0.9072(9) 0.8462(11) 0.8049(8)
H24 H 0.90670 0.80270 0.84150
C18 C 0.9150(9) 0.6635(9) 0.7026(8)
H25 H 0.91380 0.70770 0.66670
C19 C 0.9805(8) 0.6048(10) 0.7050(7)
H26 H 1.02210 0.61100 0.67080
C20 C 0.9843(7) 0.5377(7) 0.7573(7)
C21 C 0.9209(8) 0.5349(9) 0.8084(8)
H27 H 0.92080 0.49240 0.84570
C22 C 0.8600(8) 0.5938(8) 0.8037(8)
H28 H 0.81940 0.59030 0.83920
C23 C 1.1806(7) 0.4190(8) 0.7146(7)
H29 H 1.22500 0.42710 0.68380
C24 C 1.1197(9) 0.4839(9) 0.7138(8)
H30 H 1.12570 0.53400 0.68420
C25 C 1.0508(6) 0.4737(7) 0.7569(6)
C26 C 1.0486(7) 0.3969(9) 0.8019(7)
H31 H 1.00510 0.38650 0.83340
C27 C 1.1109(9) 0.3383(9) 0.7986(8)
H32 H 1.10650 0.28790 0.82800
C28 C 1.1075(8) 1.1655(8) 0.7013(7)
H33 H 1.10750 1.21250 0.66790
C29 C 1.0418(7) 1.1087(8) 0.7028(7)
H34 H 0.99780 1.11920 0.67200
C30 C 1.0418(8) 1.0383(8) 0.7488(8)
C31 C 1.1096(10) 1.0285(11) 0.7948(9)
H35 H 1.11060 0.98260 0.82920
C32 C 1.1732(8) 1.0837(10) 0.7905(8)
H36 H 1.21910 1.07240 0.81840
Cu1B Cu 1.26270(8) 0.24956(8) 0.75024(13)
Cu1B* Cu 1.26270(8) 1.24956(8) 0.75024(13)
N3B N 0.6785(6) 0.6542(7) 0.7573(6)
N4B N 0.6705(7) 0.8450(8) 0.7460(7)
#END
