
#######################################################################
#
#                 Cambridge Crystallographic Data Centre
#                                CCDC
#
#######################################################################
#
# If this CIF has been generated from an entry in the Cambridge
# Structural Database, then it will include bibliographic, chemical,
# crystal, experimental, refinement or atomic coordinate data resulting
# from the CCDC's data processing and validation procedures.
#
#######################################################################

data_CSD_CIF_GIDZEZ
_audit_creation_date 2007-09-04
_audit_creation_method CSD-ConQuest-V1
_database_code_CSD GIDZEZ
_database_code_depnum_ccdc_archive 'CCDC 609830'
_chemical_formula_sum 'C12 H15 La1 O15 S4'
_chemical_formula_moiety
;
(C12 H8 La1 O12 S4 1-)n,n(H3 O1 1+),2n(H2 O1)
;
_journal_coden_Cambridge 440
_journal_volume 31
_journal_year 2007
_journal_page_first 634
_journal_name_full 'New J.Chem. '
loop_
_publ_author_name
"G.B.Deacon"
"R.Harika"
"P.C.Junk"
"B.W.Skelton"
"A.H.White"
_chemical_name_systematic
;
catena-[(Oxonium dihydrate) bis(\m~2~-benzene-1,2-disulfonato)-lanthanum(iii)]
;
_cell_volume   1019.015
_exptl_crystal_density_diffrn 2.172
_exptl_special_details
;
The cation is reported as H7O3+

;
_diffrn_ambient_temperature 123
#These two values have been output from a single CSD field.
_refine_ls_R_factor_gt 0.029
_refine_ls_wR_factor_gt 0.029
_symmetry_cell_setting triclinic
_symmetry_space_group_name_H-M 'P -1'
_symmetry_Int_Tables_number 2
loop_
_symmetry_equiv_pos_site_id
_symmetry_equiv_pos_as_xyz
1 x,y,z
2 -x,-y,-z
_cell_length_a 9.750(2)
_cell_length_b 10.216(2)
_cell_length_c 11.647(2)
_cell_angle_alpha 64.72(3)
_cell_angle_beta 84.92(3)
_cell_angle_gamma 76.29(3)
_cell_formula_units_Z 2
loop_
_atom_type_symbol
_atom_type_radius_bond
C 0.68
H 0.23
La 1.87
O 0.68
S 1.02
loop_
_atom_site_label
_atom_site_type_symbol
_atom_site_fract_x
_atom_site_fract_y
_atom_site_fract_z
La1 La 0.741988(18) 0.97488(2) 0.038221(16)
S1 S 0.49695(8) 1.17602(9) -0.25805(7)
O1 O 0.5295(2) 1.3194(3) -0.3269(2)
O2 O 0.5495(2) 1.0997(3) -0.1258(2)
O3 O 0.3457(2) 1.1789(3) -0.2562(2)
S2 S 0.58152(8) 0.79263(9) -0.12168(7)
O4 O 0.4332(2) 0.8518(3) -0.1054(2)
O5 O 0.6051(2) 0.6440(3) -0.1162(2)
O6 O 0.6762(2) 0.7964(3) -0.0334(2)
C1 C 0.5820(3) 1.0638(4) -0.3369(3)
C2 C 0.6212(3) 0.9087(4) -0.2814(3)
C3 C 0.6884(3) 0.8339(4) -0.3541(3)
C4 C 0.7133(3) 0.9126(4) -0.4818(3)
C5 C 0.6725(3) 1.0644(5) -0.5381(3)
C6 C 0.6092(3) 1.1411(4) -0.4652(3)
S3 S 1.09282(9) 0.69402(10) 0.16298(7)
O7 O 1.1338(2) 0.5444(3) 0.1734(2)
O8 O 0.9460(3) 0.7603(4) 0.1263(2)
O9 O 1.1882(4) 0.7840(4) 0.0821(2)
S4 S 1.00931(8) 0.98994(9) 0.24430(7)
O10 O 0.9993(3) 1.0796(3) 0.3123(2)
O11 O 0.8734(3) 1.0015(3) 0.1958(3)
O12 O 1.1132(3) 1.0203(3) 0.1449(3)
C7 C 1.1098(3) 0.6806(4) 0.3198(3)
C8 C 1.0697(3) 0.8016(4) 0.3535(3)
C9 C 1.0808(3) 0.7766(4) 0.4796(3)
C10 C 1.1336(3) 0.6334(4) 0.5712(3)
C11 C 1.1757(4) 0.5168(4) 0.5381(3)
C12 C 1.1630(3) 0.5407(4) 0.4118(3)
O13 O 0.9925(3) 0.3705(4) 0.1281(3)
O14 O 0.7383(3) 0.4216(3) 0.0890(3)
O15 O 0.5512(3) 0.4480(3) 0.2487(3)
H1 H 0.71700 0.72870 -0.31570
H2 H 0.75830 0.86080 -0.53090
H3 H 0.68800 1.11730 -0.62580
H4 H 0.58390 1.24640 -0.50350
H5 H 1.05230 0.85670 0.50370
H6 H 1.14040 0.61730 0.65700
H7 H 1.21300 0.41980 0.60080
H8 H 1.19180 0.45970 0.38870
H9 H 1.036(5) 0.420(6) 0.143(5)
H10 H 1.022(4) 0.284(6) 0.177(4)
H11 H 0.841(6) 0.406(6) 0.107(4)
H12 H 0.703(4) 0.492(6) 0.012(4)
H13 H 0.691(4) 0.428(5) 0.143(4)
H14 H 0.518(5) 0.515(6) 0.266(4)
H15 H 0.472(4) 0.442(5) 0.218(4)
La1A La 0.258012(18) 1.02512(2) -0.038221(16)
La1A* La 1.258012(18) 1.02512(2) -0.038221(16)
O3A O 0.6543(2) 0.8211(3) 0.2562(2)
O4A O 0.5668(2) 1.1482(3) 0.1054(2)
O9A O 0.8118(4) 1.2160(4) -0.0821(2)
O12A O 0.8868(3) 0.9797(3) -0.1449(3)
#END
