
#######################################################################
#
#                 Cambridge Crystallographic Data Centre
#                                CCDC
#
#######################################################################
#
# If this CIF has been generated from an entry in the Cambridge
# Structural Database, then it will include bibliographic, chemical,
# crystal, experimental, refinement or atomic coordinate data resulting
# from the CCDC's data processing and validation procedures.
#
#######################################################################

data_CSD_CIF_GIFJUD
_audit_creation_date 2018-04-25
_audit_creation_method CSD-ConQuest-V1
_database_code_CSD GIFJUD
_database_code_depnum_ccdc_archive 'CCDC 1504808'
_chemical_formula_sum 'C56 H48 N8 O32 Yb4'
_chemical_formula_moiety
;
(C49 H23 N6 O28 Yb4 1-)n,2n(H2 O1),n(C2 H8 N1 1+),n(C3 H7 N1 O1),n(C2 H6 O1)
;
_journal_coden_Cambridge 208
_journal_volume 262
_journal_year 2018
_journal_page_first 186
_journal_name_full 'J.Solid State Chem. '
loop_
_publ_author_name
"Xuelian Xin"
"Minghui Zhang"
"Shijie Ji"
"Hanxiao Dong"
"Liangliang Zhang"
_chemical_name_systematic
;
catena-(dimethylammonium 
tris(\m-3,3',5,5'-azobenzenetetracarboxylato)-(\m-formato)-tetra-ytterbium(iii
) dimethylformamide ethanol solvate dihydrate)
;
_chemical_name_common
;
UPC-22
;
_cell_volume   7823.184
_exptl_crystal_colour 'orange'
_exptl_crystal_description 'block'
_diffrn_ambient_temperature 107.4
_refine_special_details
;
The SQUEEZE/PLATON program was used to model the disordered cation and an 
unspecified number of the solvent molecules.
;
#These two values have been output from a single CSD field.
_refine_ls_R_factor_gt 0.053
_refine_ls_wR_factor_gt 0.053
_symmetry_cell_setting monoclinic
_symmetry_space_group_name_H-M 'C 2/c'
_symmetry_Int_Tables_number 15
loop_
_symmetry_equiv_pos_site_id
_symmetry_equiv_pos_as_xyz
1 x,y,z
2 -x,y,1/2-z
3 1/2+x,1/2+y,z
4 1/2-x,1/2+y,1/2-z
5 -x,-y,-z
6 x,-y,-1/2+z
7 -1/2-x,-1/2-y,-z
8 -1/2+x,-1/2-y,-1/2+z
_cell_length_a 22.59404(20)
_cell_length_b 14.31168(11)
_cell_length_c 24.5365(2)
_cell_angle_alpha 90
_cell_angle_beta 99.5912(9)
_cell_angle_gamma 90
_cell_formula_units_Z 4
loop_
_atom_type_symbol
_atom_type_radius_bond
C 0.68
H 0.23
N 0.68
O 0.68
Yb 1.87
loop_
_atom_site_label
_atom_site_type_symbol
_atom_site_fract_x
_atom_site_fract_y
_atom_site_fract_z
Yb1 Yb 0.242910(19) 0.74302(3) 0.170529(18)
Yb2 Yb 0.147604(19) 0.48156(3) 0.251240(18)
O1 O 0.2749(3) 0.5989(4) 0.1668(3)
O2 O 0.6935(3) 0.7965(5) 0.2527(2)
O3 O 0.1542(3) 0.3147(5) 0.6185(3)
O4 O 0.3673(3) 0.1287(4) 0.2119(3)
O5 O 0.0493(3) 0.4969(5) 0.2551(3)
O6 O 0.6966(3) 0.3796(4) 0.1674(3)
O7 O 0.1741(3) 0.2823(5) 0.3616(3)
O8 O 0.0995(3) 0.5509(5) 0.1712(3)
H1 H 0.09590 0.51180 0.14420
H2 H 0.11980 0.59840 0.16320
O9 O 0.7609(3) 0.4953(5) 0.1942(3)
O10 O 0.2161(3) 0.4865(5) 0.1917(3)
O11 O 0.3063(3) 0.1913(4) 0.2632(3)
O12 O 0.1328(3) 0.4188(5) 0.3326(3)
O13 O 0.2185(3) 0.2521(5) 0.5720(3)
N1 N 0.4913(4) 0.5302(5) 0.1846(4)
N2 N 0.0065(5) 0.4951(9) 0.4765(4)
N3 N 0.4828(4) 0.4434(6) 0.1866(4)
C1 C 0.0761(5) 0.4238(9) 0.4256(4)
H3 H 0.05570 0.45310 0.39420
C2 C 0.1461(4) 0.3554(7) 0.3678(4)
C3 C 0.2648(4) 0.5155(6) 0.1806(4)
C4 C 0.0875(5) 0.3938(9) 0.5239(4)
H4 H 0.07410 0.40200 0.55750
C5 C 0.00000 0.4554(9) 0.25000
H5 H 0.00000 0.39040 0.25000
C6 C 0.3432(4) 0.1991(6) 0.2299(4)
C7 C 0.1247(4) 0.3679(7) 0.4224(4)
C8 C 0.7090(4) 0.4631(6) 0.1820(4)
C9 C 0.1716(4) 0.2982(7) 0.5728(4)
C10 C 0.5529(4) 0.5567(7) 0.1871(4)
C11 C 0.1557(4) 0.3245(7) 0.4696(4)
H6 H 0.18830 0.28600 0.46700
C12 C 0.1375(4) 0.3391(8) 0.5210(4)
C13 C 0.6255(4) 0.6814(6) 0.2082(4)
C14 C 0.5989(4) 0.4947(7) 0.1796(4)
H7 H 0.59020 0.43260 0.17020
C15 C 0.4133(4) 0.3241(7) 0.2032(4)
H8 H 0.44520 0.28220 0.20790
C16 C 0.0577(6) 0.436(1) 0.4763(5)
C17 C 0.5659(4) 0.6510(7) 0.2000(4)
H9 H 0.53520 0.69280 0.20320
C18 C 0.3086(4) 0.3574(7) 0.2017(4)
H10 H 0.27060 0.33760 0.20670
C19 C 0.3739(4) 0.4798(6) 0.1796(4)
H11 H 0.38000 0.54120 0.16940
C20 C 0.3166(4) 0.4496(6) 0.1857(4)
C21 C 0.6580(4) 0.5272(6) 0.1862(4)
C22 C 0.4216(4) 0.4175(7) 0.1890(4)
C23 C 0.3558(4) 0.2955(6) 0.2102(4)
C24 C 0.6706(4) 0.6198(6) 0.2015(4)
H12 H 0.71020 0.64030 0.20740
O14 O 0.6046(3) 0.8444(4) 0.2108(3)
C25 C 0.6415(4) 0.7801(6) 0.2250(4)
O15 O -0.0114(4) 0.6279(7) 0.1635(4)
H13 H -0.02720 0.65930 0.13540
H14 H -0.00330 0.66400 0.19130
O5A O -0.0493(3) 0.4969(5) 0.2449(3)
O12D O -0.1328(3) 0.5812(5) 0.6674(3)
N2D N -0.0065(5) 0.5049(9) 0.5235(4)
C1D C -0.0761(5) 0.5762(9) 0.5744(4)
H3D H -0.05570 0.54690 0.60580
C2D C -0.1461(4) 0.6446(7) 0.6322(4)
C4D C -0.0875(5) 0.6062(9) 0.4761(4)
H4D H -0.07410 0.59800 0.44250
C7D C -0.1247(4) 0.6321(7) 0.5776(4)
C11D C -0.1557(4) 0.6755(7) 0.5304(4)
H6D H -0.18830 0.71400 0.53300
C12D C -0.1375(4) 0.6609(8) 0.4790(4)
C16D C -0.0577(6) 0.564(1) 0.5237(5)
O3D O -0.1542(3) 0.6853(5) 0.3815(3)
O13D O -0.2185(3) 0.7479(5) 0.4280(3)
C9D C -0.1716(4) 0.7018(7) 0.4272(4)
O7D O -0.1741(3) 0.7177(5) 0.6384(3)
Yb1A Yb -0.242910(19) 0.74302(3) 0.329471(18)
Yb2A Yb -0.147604(19) 0.48156(3) 0.248760(18)
O1A O -0.2749(3) 0.5989(4) 0.3332(3)
O2A O -0.6935(3) 0.7965(5) 0.2473(2)
O4A O -0.3673(3) 0.1287(4) 0.2881(3)
O6A O -0.6966(3) 0.3796(4) 0.3326(3)
O8A O -0.0995(3) 0.5509(5) 0.3288(3)
H1A H -0.09590 0.51180 0.35580
H2A H -0.11980 0.59840 0.33680
O9A O -0.7609(3) 0.4953(5) 0.3058(3)
O10A O -0.2161(3) 0.4865(5) 0.3083(3)
O11A O -0.3063(3) 0.1913(4) 0.2368(3)
N1A N -0.4913(4) 0.5302(5) 0.3154(4)
N3A N -0.4828(4) 0.4434(6) 0.3134(4)
C3A C -0.2648(4) 0.5155(6) 0.3194(4)
C6A C -0.3432(4) 0.1991(6) 0.2701(4)
C8A C -0.7090(4) 0.4631(6) 0.3180(4)
C10A C -0.5529(4) 0.5567(7) 0.3129(4)
C13A C -0.6255(4) 0.6814(6) 0.2918(4)
C14A C -0.5989(4) 0.4947(7) 0.3204(4)
H7A H -0.59020 0.43260 0.32980
C15A C -0.4133(4) 0.3241(7) 0.2968(4)
H8A H -0.44520 0.28220 0.29210
C17A C -0.5659(4) 0.6510(7) 0.3000(4)
H9A H -0.53520 0.69280 0.29680
C18A C -0.3086(4) 0.3574(7) 0.2983(4)
H10A H -0.27060 0.33760 0.29330
C19A C -0.3739(4) 0.4798(6) 0.3204(4)
H11A H -0.38000 0.54120 0.33060
C20A C -0.3166(4) 0.4496(6) 0.3143(4)
C21A C -0.6580(4) 0.5272(6) 0.3138(4)
C22A C -0.4216(4) 0.4175(7) 0.3110(4)
C23A C -0.3558(4) 0.2955(6) 0.2898(4)
C24A C -0.6706(4) 0.6198(6) 0.2985(4)
H12A H -0.71020 0.64030 0.29260
O14A O -0.6046(3) 0.8444(4) 0.2892(3)
C25A C -0.6415(4) 0.7801(6) 0.2750(4)
Yb1* Yb -0.757090(19) 0.74302(3) 0.170529(18)
Yb1A* Yb 0.757090(19) 0.74302(3) 0.329471(18)
Yb1B Yb -0.257090(19) 0.24302(3) 0.170529(18)
Yb1B* Yb 0.742910(19) 0.24302(3) 0.170529(18)
Yb1C Yb -0.742910(19) 0.24302(3) 0.329471(18)
Yb1C* Yb 0.257090(19) 0.24302(3) 0.329471(18)
Yb1E Yb 0.242910(19) 0.25698(3) 0.670529(18)
Yb1G Yb -0.257090(19) 0.75698(3) 0.670529(18)
Yb2* Yb -0.852396(19) 0.48156(3) 0.251240(18)
Yb2A* Yb 0.852396(19) 0.48156(3) 0.248760(18)
Yb2B Yb -0.352396(19) -0.01844(3) 0.251240(18)
Yb2B* Yb 0.647604(19) 0.98156(3) 0.251240(18)
Yb2C Yb -0.647604(19) 0.98156(3) 0.248760(18)
Yb2C* Yb 0.352396(19) -0.01844(3) 0.248760(18)
Yb2D Yb -0.147604(19) 0.51844(3) 0.748760(18)
O2* O -0.3065(3) 0.7965(5) 0.2527(2)
O2A* O 0.3065(3) 0.7965(5) 0.2473(2)
O2B O 0.1935(3) 0.2965(5) 0.2527(2)
O2C O -0.1935(3) 0.2965(5) 0.2473(2)
O3E O 0.1542(3) 0.6853(5) 0.1185(3)
O4B O -0.1327(3) 0.6287(4) 0.2119(3)
O4C O 0.1327(3) 0.6287(4) 0.2881(3)
O6B O 0.1966(3) 0.8796(4) 0.1674(3)
O6C O -0.1966(3) 0.8796(4) 0.3326(3)
O7B O -0.3259(3) 0.7823(5) 0.3616(3)
O7C O 0.3259(3) 0.7823(5) 0.1384(3)
O9* O -0.2391(3) 0.4953(5) 0.1942(3)
O9A* O 0.2391(3) 0.4953(5) 0.3058(3)
O11B O -0.1937(3) 0.6913(4) 0.2632(3)
O11C O 0.1937(3) 0.6913(4) 0.2368(3)
O12A O -0.1328(3) 0.4188(5) 0.1674(3)
O13E O 0.2185(3) 0.7479(5) 0.0720(3)
O14B O 0.1046(3) 0.3444(4) 0.2108(3)
O14C O -0.1046(3) 0.3444(4) 0.2892(3)
#END
