
#######################################################################
#
#                 Cambridge Crystallographic Data Centre
#                                CCDC
#
#######################################################################
#
# If this CIF has been generated from an entry in the Cambridge
# Structural Database, then it will include bibliographic, chemical,
# crystal, experimental, refinement or atomic coordinate data resulting
# from the CCDC's data processing and validation procedures.
#
#######################################################################

data_CSD_CIF_GIFTEX
_audit_creation_date 2018-04-25
_audit_creation_method CSD-ConQuest-V1
_database_code_CSD GIFTEX
_database_code_depnum_ccdc_archive 'CCDC 1573924'
_chemical_formula_sum 'C64 H80 N8 O40 Zn4'
_chemical_formula_moiety
;
(C48 H16 O40 Zn4 8-)n,8(C2 H8 N1 1+)
;
_journal_coden_Cambridge 155
_journal_volume 477
_journal_year 2018
_journal_page_first 8
_journal_name_full 'Inorg.Chim.Acta '
loop_
_publ_author_name
"Yang Zhang"
"Jian Wang"
_chemical_name_systematic
;
catena-[octakis(dimethylammonium) 
octakis(\m-furan-2,5-dicarboxylato)-tetra-zinc(ii)]
;
_cell_volume   7905.592
_exptl_crystal_colour 'colorless'
_exptl_crystal_density_diffrn 1.565
_exptl_crystal_description 'block'
_diffrn_ambient_temperature 173
#These two values have been output from a single CSD field.
_refine_ls_R_factor_gt 0.0313
_refine_ls_wR_factor_gt 0.0313
_symmetry_cell_setting monoclinic
_symmetry_space_group_name_H-M 'C 2/c'
_symmetry_Int_Tables_number 15
loop_
_symmetry_equiv_pos_site_id
_symmetry_equiv_pos_as_xyz
1 x,y,z
2 -x,y,1/2-z
3 1/2+x,1/2+y,z
4 1/2-x,1/2+y,1/2-z
5 -x,-y,-z
6 x,-y,-1/2+z
7 -1/2-x,-1/2-y,-z
8 -1/2+x,-1/2-y,-1/2+z
_cell_length_a 23.9341(17)
_cell_length_b 23.9427(17)
_cell_length_c 15.0301(11)
_cell_angle_alpha 90
_cell_angle_beta 113.383(1)
_cell_angle_gamma 90
_cell_formula_units_Z 4
loop_
_atom_type_symbol
_atom_type_radius_bond
C 0.68
H 0.23
N 0.68
O 0.68
Zn 1.22
loop_
_atom_site_label
_atom_site_type_symbol
_atom_site_fract_x
_atom_site_fract_y
_atom_site_fract_z
Zn1 Zn 0.75134(2) 0.68758(2) 0.24987(2)
Zn2 Zn 0.50000 0.93578(2) 0.25000
Zn3 Zn 1.00000 0.93834(2) 0.25000
O1 O 0.67880(9) 0.73497(8) 0.18457(16)
O2 O 0.63993(8) 0.66762(7) 0.07420(13)
O3 O 0.57128(7) 0.78972(7) 0.12008(12)
O4 O 0.53337(9) 0.88183(8) 0.18428(15)
O5 O 0.43767(7) 0.86907(7) 0.07507(13)
O6 O 0.81470(9) 0.74399(8) 0.31509(16)
O7 O 0.77463(8) 0.75599(7) 0.42536(13)
O8 O 0.88597(7) 0.83496(7) 0.37966(12)
O9 O 0.96275(9) 0.88824(8) 0.31592(16)
O10 O 0.97774(8) 0.95681(7) 0.42534(13)
O11 O 0.71928(8) 0.63149(8) 0.31417(15)
O12 O 0.81378(7) 0.62018(7) 0.42634(13)
O13 O 0.67964(7) 0.54091(7) 0.37913(12)
O14 O 0.57090(9) 0.48796(8) 0.31577(16)
O15 O 0.61069(8) 0.41870(7) 0.42363(13)
O16 O 0.79171(9) 0.63986(8) 0.18575(16)
O17 O 0.77569(8) 0.70645(7) 0.07364(13)
O18 O 0.86561(7) 0.58330(7) 0.12074(12)
O19 O 0.93375(9) 0.48992(8) 0.18380(16)
O20 O 0.97583(8) 0.50225(7) 0.07589(13)
C1 C 0.63605(11) 0.71247(10) 0.11258(18)
C2 C 0.57742(11) 0.74247(10) 0.07361(18)
C3 C 0.51227(11) 0.80708(10) 0.07334(19)
C4 C 0.49234(11) 0.85653(10) 0.11259(18)
C5 C 0.48162(14) 0.77215(12) -0.0011(2)
H1 H 0.44020 0.77520 -0.04470
C6 C 0.52370(13) 0.72998(12) -0.0012(2)
H2 H 0.51590 0.69930 -0.04460
C7 C 0.80988(11) 0.76888(11) 0.38676(19)
C8 C 0.85001(11) 0.81831(10) 0.42579(19)
C9 C 0.91567(11) 0.88227(10) 0.42678(18)
C10 C 0.95572(11) 0.91145(10) 0.38783(19)
C11 C 0.89953(13) 0.89439(13) 0.5017(2)
H3 H 0.91400 0.92460 0.54580
C12 C 0.85690(14) 0.85301(12) 0.5011(2)
H4 H 0.83710 0.85010 0.54460
C13 C 0.75916(11) 0.60691(10) 0.38660(19)
C14 C 0.73875(11) 0.55798(10) 0.42587(18)
C15 C 0.67352(11) 0.4936(1) 0.42561(18)
C16 C 0.61374(11) 0.46415(10) 0.38638(19)
C17 C 0.72697(13) 0.48144(13) 0.5002(2)
H5 H 0.73460 0.45090 0.54380
C18 C 0.76915(14) 0.52282(13) 0.5005(2)
H6 H 0.81060 0.52550 0.54420
C19 C 0.79831(11) 0.66168(10) 0.11331(19)
C20 C 0.83744(11) 0.63101(10) 0.07415(19)
C21 C 0.90076(11) 0.5647(1) 0.07363(19)
C22 C 0.93966(11) 0.5151(1) 0.11272(19)
C23 C 0.89477(13) 0.59978(12) -0.0008(2)
H7 H 0.91420 0.59630 -0.04460
C24 C 0.85396(14) 0.64258(13) -0.0004(2)
H8 H 0.84080 0.67330 -0.04380
N1 N 0.83733(12) 0.81148(11) 0.09822(19)
H9 H 0.84760 0.83340 0.05930
H10 H 0.81080 0.78630 0.06150
C25 C 0.80800(15) 0.84545(13) 0.1492(3)
H11 H 0.77490 0.86730 0.10190
H12 H 0.83810 0.87070 0.19460
H13 H 0.79150 0.82090 0.18500
C26 C 0.89244(14) 0.78232(13) 0.1661(3)
H14 H 0.90740 0.75670 0.12970
H15 H 0.88230 0.76120 0.21350
H16 H 0.92410 0.80980 0.19990
N2 N 0.58630(12) 0.56405(10) 0.09808(19)
H17 H 0.55640 0.54220 0.05950
H18 H 0.59470 0.58880 0.06100
C27 C 0.64073(14) 0.52958(13) 0.1494(2)
H19 H 0.65070 0.50810 0.10220
H20 H 0.63260 0.50390 0.19360
H21 H 0.67510 0.55380 0.18660
C28 C 0.56551(15) 0.59406(13) 0.1658(3)
H22 H 0.53230 0.61950 0.12910
H23 H 0.59950 0.61550 0.21220
H24 H 0.55110 0.56700 0.20080
N3 N 0.66472(11) 0.81324(10) 0.40199(19)
H25 H 0.65210 0.83300 0.44070
H26 H 0.69910 0.79600 0.43900
C29 C 0.67720(14) 0.85151(13) 0.3352(3)
H27 H 0.68780 0.82980 0.28880
H28 H 0.71120 0.87620 0.37220
H29 H 0.64090 0.87400 0.30000
C30 C 0.61828(14) 0.77096(13) 0.3506(2)
H30 H 0.58190 0.78950 0.30420
H31 H 0.60760 0.74990 0.39750
H32 H 0.63450 0.74530 0.31580
N4 N 0.91167(12) 0.56187(10) 0.4020(2)
H33 H 0.94290 0.54150 0.44110
H34 H 0.89590 0.57980 0.43850
C31 C 0.93402(14) 0.60321(13) 0.3508(3)
H35 H 0.96790 0.62430 0.39810
H36 H 0.90100 0.62890 0.31430
H37 H 0.94800 0.58380 0.30600
C32 C 0.86508(15) 0.52447(14) 0.3342(3)
H38 H 0.83230 0.54690 0.28730
H39 H 0.84830 0.50060 0.37050
H40 H 0.88370 0.50110 0.29980
Zn1A Zn 0.24866(2) 0.68758(2) 0.25013(2)
O1A O 0.32120(9) 0.73497(8) 0.31543(16)
O2A O 0.36007(8) 0.66762(7) 0.42580(13)
O3A O 0.42872(7) 0.78972(7) 0.37992(12)
O4A O 0.46663(9) 0.88183(8) 0.31572(15)
O5A O 0.56233(7) 0.86907(7) 0.42493(13)
O6A O 0.18530(9) 0.74399(8) 0.18491(16)
O7A O 0.22537(8) 0.75599(7) 0.07464(13)
O8A O 0.11403(7) 0.83496(7) 0.12034(12)
O9A O 0.03725(9) 0.88824(8) 0.18408(16)
O10A O 0.02226(8) 0.95681(7) 0.07466(13)
O11A O 0.28072(8) 0.63149(8) 0.18583(15)
O12A O 0.18622(7) 0.62018(7) 0.07366(13)
O13A O 0.32036(7) 0.54091(7) 0.12087(12)
O14A O 0.42910(9) 0.48796(8) 0.18423(16)
O15A O 0.38931(8) 0.41870(7) 0.07637(13)
O16A O 0.20829(9) 0.63986(8) 0.31425(16)
O17A O 0.22431(8) 0.70645(7) 0.42636(13)
O18A O 0.13439(7) 0.58330(7) 0.37926(12)
O19A O 0.06625(9) 0.48992(8) 0.31620(16)
O20A O 0.02417(8) 0.50225(7) 0.42411(13)
C1A C 0.36395(11) 0.71247(10) 0.38742(18)
C2A C 0.42258(11) 0.74247(10) 0.42639(18)
C3A C 0.48773(11) 0.80708(10) 0.42666(19)
C4A C 0.50766(11) 0.85653(10) 0.38741(18)
C5A C 0.51838(14) 0.77215(12) 0.5011(2)
H1A H 0.55980 0.77520 0.54470
C6A C 0.47630(13) 0.72998(12) 0.5012(2)
H2A H 0.48410 0.69930 0.54460
C7A C 0.19012(11) 0.76888(11) 0.11324(19)
C8A C 0.14999(11) 0.81831(10) 0.07421(19)
C9A C 0.08433(11) 0.88227(10) 0.07322(18)
C10A C 0.04428(11) 0.91145(10) 0.11217(19)
C11A C 0.10047(13) 0.89439(13) -0.0017(2)
H3A H 0.08600 0.92460 -0.04580
C12A C 0.14310(14) 0.85301(12) -0.0011(2)
H4A H 0.16290 0.85010 -0.04460
C13A C 0.24084(11) 0.60691(10) 0.11340(19)
C14A C 0.26125(11) 0.55798(10) 0.07413(18)
C15A C 0.32648(11) 0.4936(1) 0.07439(18)
C16A C 0.38626(11) 0.46415(10) 0.11362(19)
C17A C 0.27303(13) 0.48144(13) -0.0002(2)
H5A H 0.26540 0.45090 -0.04380
C18A C 0.23085(14) 0.52282(13) -0.0005(2)
H6A H 0.18940 0.52550 -0.04420
C19A C 0.20169(11) 0.66168(10) 0.38669(19)
C20A C 0.16256(11) 0.63101(10) 0.42585(19)
C21A C 0.09924(11) 0.5647(1) 0.42637(19)
C22A C 0.06034(11) 0.5151(1) 0.38728(19)
C23A C 0.10523(13) 0.59978(12) 0.5008(2)
H7A H 0.08580 0.59630 0.54460
C24A C 0.14604(14) 0.64258(13) 0.5004(2)
H8A H 0.15920 0.67330 0.54380
Zn2B Zn 0.00000 0.43578(2) 0.25000
Zn2B* Zn 1.00000 0.43578(2) 0.25000
Zn3* Zn 0.00000 0.93834(2) 0.25000
Zn3B Zn 0.50000 0.43834(2) 0.25000
O9A* O 1.03725(9) 0.88824(8) 0.18408(16)
O14B O 1.07090(9) 0.98796(8) 0.31577(16)
O14C O 0.92910(9) 0.98796(8) 0.18423(16)
O19B O 0.43375(9) 0.98992(8) 0.18380(16)
O19C O 0.56625(9) 0.98992(8) 0.31620(16)
#END
