
#######################################################################
#
#                 Cambridge Crystallographic Data Centre
#                                CCDC
#
#######################################################################
#
# If this CIF has been generated from an entry in the Cambridge
# Structural Database, then it will include bibliographic, chemical,
# crystal, experimental, refinement or atomic coordinate data resulting
# from the CCDC's data processing and validation procedures.
#
#######################################################################

data_CSD_CIF_GIFTEX01
_audit_creation_date 2018-11-23
_audit_creation_method CSD-ConQuest-V1
_database_code_CSD GIFTEX01
_database_code_depnum_ccdc_archive 'CCDC 1877432'
_chemical_formula_sum 'C64 H80 N8 O40 Zn4'
_chemical_formula_moiety
;
(C48 H16 O40 Zn4 8-)n,8(C2 H8 N1 1+)
;
_journal_coeditor_code "ov3119"
_journal_coden_Cambridge 1777
_journal_volume 74
_journal_year 2018
_journal_page_first 1719
_journal_name_full 'Acta Crystallogr.,Sect.C:Cryst.Struct.Chem. '
loop_
_publ_author_name
"Y.Mao"
"P.Y.Zavalij"
_chemical_name_systematic
;
catena-[octakis(dimethylammonium) 
octakis(\m-furan-2,5-dicarboxylato)-tetra-zinc(ii)]
;
_cell_volume   7874.723
_exptl_crystal_colour 'colorless'
_exptl_crystal_density_diffrn 1.571
_exptl_crystal_description 'plate'
_diffrn_ambient_temperature 150
#These two values have been output from a single CSD field.
_refine_ls_R_factor_gt 0.0372
_refine_ls_wR_factor_gt 0.0372
_symmetry_cell_setting monoclinic
_symmetry_space_group_name_H-M 'C 2/c'
_symmetry_Int_Tables_number 15
loop_
_symmetry_equiv_pos_site_id
_symmetry_equiv_pos_as_xyz
1 x,y,z
2 -x,y,1/2-z
3 1/2+x,1/2+y,z
4 1/2-x,1/2+y,1/2-z
5 -x,-y,-z
6 x,-y,-1/2+z
7 -1/2-x,-1/2-y,-z
8 -1/2+x,-1/2-y,-1/2+z
_cell_length_a 23.9306(6)
_cell_length_b 23.9322(6)
_cell_length_c 14.9917(4)
_cell_angle_alpha 90
_cell_angle_beta 113.4847(4)
_cell_angle_gamma 90
_cell_formula_units_Z 4
loop_
_atom_type_symbol
_atom_type_radius_bond
C 0.68
H 0.23
N 0.68
O 0.68
Zn 1.22
loop_
_atom_site_label
_atom_site_type_symbol
_atom_site_fract_x
_atom_site_fract_y
_atom_site_fract_z
Zn1 Zn 0.24880(2) 0.31244(2) 0.25004(2)
Zn2 Zn 0.50000 0.06399(2) 0.25000
Zn3 Zn 0.00000 0.06171(2) 0.25000
O1 O 0.32094(11) 0.26434(9) 0.31546(18)
O2 O 0.36043(9) 0.33271(7) 0.42596(15)
C1 C 0.36384(13) 0.28761(11) 0.3874(2)
C2 C 0.42328(13) 0.25774(11) 0.4273(2)
C3 C 0.47709(16) 0.27004(13) 0.5022(3)
H1 H 0.48509 0.30060 0.54599
C4 C 0.51892(16) 0.22800(13) 0.5017(3)
H2 H 0.56048 0.22505 0.54521
C5 C 0.48822(12) 0.19301(11) 0.4274(2)
O3 O 0.42898(8) 0.21053(7) 0.38013(14)
C6 C 0.50788(13) 0.14334(11) 0.3874(2)
O4 O 0.56281(8) 0.13080(8) 0.42544(15)
O5 O 0.46652(10) 0.11781(9) 0.31633(18)
O6 O 0.18488(11) 0.25644(9) 0.18466(19)
C7 C 0.19016(12) 0.23112(11) 0.1131(2)
O7 O 0.22561(9) 0.24406(8) 0.07421(15)
C8 C 0.15024(12) 0.18164(11) 0.0733(2)
C9 C 0.14337(16) 0.14663(14) -0.0019(3)
H3 H 0.16314 0.14938 -0.04554
C10 C 0.10090(15) 0.10527(13) -0.0023(3)
H4 H 0.08676 0.07471 -0.04604
C11 C 0.08430(12) 0.11797(11) 0.0725(2)
O8 O 0.11411(8) 0.16479(7) 0.11989(13)
C12 C 0.04462(12) 0.08835(11) 0.1127(2)
O9 O 0.02234(9) 0.04302(7) 0.07451(15)
O10 O 0.03711(10) 0.11202(9) 0.18358(18)
O11 O 0.20893(11) 0.36058(9) 0.31454(18)
O12 O 0.22469(9) 0.29314(8) 0.42659(15)
C13 C 0.20188(12) 0.33804(11) 0.3867(2)
C14 C 0.16255(12) 0.36865(11) 0.4266(2)
C15 C 0.14619(16) 0.35700(14) 0.5016(3)
H5 H 0.15955 0.32631 0.54526
C16 C 0.10528(15) 0.39969(13) 0.5018(3)
H6 H 0.08570 0.40315 0.54563
C17 C 0.09941(12) 0.43480(11) 0.4272(2)
O13 O 0.13433(8) 0.41634(7) 0.37979(13)
C18 C 0.06028(12) 0.48445(11) 0.3870(2)
O14 O 0.02389(9) 0.49740(8) 0.42431(15)
O15 O 0.06656(11) 0.50992(9) 0.31622(19)
O16 O 0.28125(10) 0.36821(9) 0.18571(18)
C19 C 0.24070(13) 0.39302(11) 0.1133(2)
O17 O 0.18587(8) 0.37994(8) 0.07375(15)
C20 C 0.26107(12) 0.44224(11) 0.0734(2)
C21 C 0.23017(16) 0.47734(13) -0.0017(3)
H7 H 0.18871 0.47440 -0.04570
C22 C 0.27237(16) 0.51919(13) -0.0011(3)
H8 H 0.26461 0.55000 -0.04438
C23 C 0.32608(13) 0.50652(11) 0.0735(2)
O18 O 0.31999(8) 0.45926(7) 0.12017(13)
C24 C 0.38583(13) 0.53592(11) 0.1130(2)
O19 O 0.38926(9) 0.58145(8) 0.07567(15)
O20 O 0.42923(10) 0.51187(9) 0.18375(19)
C25 C 0.32221(16) 0.14937(15) 0.1656(3)
H9 H 0.35815 0.12657 0.20197
H10 H 0.28799 0.12492 0.12842
H11 H 0.31151 0.17184 0.21120
N1 N 0.33578(13) 0.18674(11) 0.0983(2)
H12 H 0.34855 0.16587 0.05926
H13 H 0.30109 0.20482 0.05973
C26 C 0.38312(16) 0.22839(15) 0.1506(3)
H14 H 0.36744 0.25411 0.18606
H15 H 0.39402 0.24945 0.10384
H16 H 0.41928 0.20922 0.19673
C27 C 0.19098(17) 0.15395(14) 0.3494(3)
H17 H 0.16075 0.12782 0.30620
H18 H 0.22514 0.13295 0.39657
H19 H 0.20588 0.17814 0.31087
N2 N 0.16249(13) 0.18862(11) 0.4017(2)
H20 H 0.15170 0.16634 0.44140
H21 H 0.19020 0.21390 0.43958
C28 C 0.10794(16) 0.21866(15) 0.3343(3)
H22 H 0.11883 0.24101 0.28879
H23 H 0.09250 0.24330 0.37152
H24 H 0.07636 0.19157 0.29787
C29 C 0.06561(17) 0.39711(14) 0.1503(3)
H25 H 0.09888 0.37203 0.18873
H26 H 0.03233 0.37523 0.10311
H27 H 0.05073 0.41702 0.19367
N3 N 0.08809(13) 0.43795(11) 0.0982(2)
H28 H 0.05632 0.45904 0.05835
H29 H 0.10372 0.41925 0.06054
C30 C 0.13557(16) 0.47515(15) 0.1660(3)
H30 H 0.11772 0.49837 0.20172
H31 H 0.15179 0.49919 0.12902
H32 H 0.16859 0.45250 0.21205
C31 C 0.43391(17) 0.40512(15) 0.3345(3)
H33 H 0.39998 0.38275 0.28992
H34 H 0.46788 0.38043 0.37183
H35 H 0.44718 0.43167 0.29714
N4 N 0.41381(13) 0.43612(11) 0.4020(2)
H36 H 0.44477 0.45831 0.44111
H37 H 0.40494 0.41136 0.44060
C32 C 0.35951(16) 0.47112(15) 0.3494(3)
H38 H 0.36792 0.49604 0.30440
H39 H 0.34990 0.49345 0.39628
H40 H 0.32480 0.44703 0.31284
Zn1A Zn -0.24880(2) 0.31244(2) 0.24996(2)
O1A O -0.32094(11) 0.26434(9) 0.18454(18)
O2A O -0.36043(9) 0.33271(7) 0.07404(15)
C1A C -0.36384(13) 0.28761(11) 0.1126(2)
C2A C -0.42328(13) 0.25774(11) 0.0727(2)
C3A C -0.47709(16) 0.27004(13) -0.0022(3)
H1A H -0.48509 0.30060 -0.04599
C4A C -0.51892(16) 0.22800(13) -0.0017(3)
H2A H -0.56048 0.22505 -0.04521
C5A C -0.48822(12) 0.19301(11) 0.0726(2)
O3A O -0.42898(8) 0.21053(7) 0.11987(14)
C6A C -0.50788(13) 0.14334(11) 0.1126(2)
O4A O -0.56281(8) 0.13080(8) 0.07456(15)
O5A O -0.46652(10) 0.11781(9) 0.18367(18)
O6A O -0.18488(11) 0.25644(9) 0.31534(19)
C7A C -0.19016(12) 0.23112(11) 0.3869(2)
O7A O -0.22561(9) 0.24406(8) 0.42579(15)
C8A C -0.15024(12) 0.18164(11) 0.4267(2)
C9A C -0.14337(16) 0.14663(14) 0.5019(3)
H3A H -0.16314 0.14938 0.54554
C10A C -0.10090(15) 0.10527(13) 0.5023(3)
H4A H -0.08676 0.07471 0.54605
C11A C -0.08430(12) 0.11797(11) 0.4275(2)
O8A O -0.11411(8) 0.16479(7) 0.38011(13)
C12A C -0.04462(12) 0.08835(11) 0.3873(2)
O9A O -0.02234(9) 0.04302(7) 0.42549(15)
O10A O -0.03711(10) 0.11202(9) 0.31642(18)
O11A O -0.20893(11) 0.36058(9) 0.18546(18)
O12A O -0.22469(9) 0.29314(8) 0.07341(15)
C13A C -0.20188(12) 0.33804(11) 0.1133(2)
C14A C -0.16255(12) 0.36865(11) 0.0734(2)
C15A C -0.14619(16) 0.35700(14) -0.0016(3)
H5A H -0.15955 0.32631 -0.04526
C16A C -0.10528(15) 0.39969(13) -0.0018(3)
H6A H -0.08570 0.40315 -0.04563
C17A C -0.09941(12) 0.43480(11) 0.0728(2)
O13A O -0.13433(8) 0.41634(7) 0.12021(13)
C18A C -0.06028(12) 0.48445(11) 0.1130(2)
O14A O -0.02389(9) 0.49740(8) 0.07569(15)
O15A O -0.06656(11) 0.50992(9) 0.18378(19)
O16A O -0.28125(10) 0.36821(9) 0.31429(18)
C19A C -0.24070(13) 0.39302(11) 0.3867(2)
O17A O -0.18587(8) 0.37994(8) 0.42625(15)
C20A C -0.26107(12) 0.44224(11) 0.4266(2)
C21A C -0.23017(16) 0.47734(13) 0.5017(3)
H7A H -0.18871 0.47440 0.54570
C22A C -0.27237(16) 0.51919(13) 0.5011(3)
H8A H -0.26461 0.55000 0.54438
C23A C -0.32608(13) 0.50652(11) 0.4265(2)
O18A O -0.31999(8) 0.45926(7) 0.37983(13)
C24A C -0.38583(13) 0.53592(11) 0.3870(2)
O19A O -0.38926(9) 0.58145(8) 0.42433(15)
O20A O -0.42923(10) 0.51187(9) 0.31625(19)
Zn2* Zn -0.50000 0.06399(2) 0.25000
Zn2B Zn 0.00000 0.56399(2) 0.25000
Zn3B Zn -0.50000 0.56171(2) 0.25000
Zn3B* Zn 0.50000 0.56171(2) 0.25000
O5A* O 0.53348(10) 0.11781(9) 0.18367(18)
O15B O 0.56656(11) 0.00992(9) 0.31622(19)
O15C O 0.43344(11) 0.00992(9) 0.18378(19)
O20B O -0.07077(10) 0.01187(9) 0.18375(19)
O20C O 0.07077(10) 0.01187(9) 0.31625(19)
#END
