
#######################################################################
#
#                 Cambridge Crystallographic Data Centre
#                                CCDC
#
#######################################################################
#
# If this CIF has been generated from an entry in the Cambridge
# Structural Database, then it will include bibliographic, chemical,
# crystal, experimental, refinement or atomic coordinate data resulting
# from the CCDC's data processing and validation procedures.
#
#######################################################################

data_CSD_CIF_GIHYUS
_audit_creation_date 2007-12-14
_audit_creation_method CSD-ConQuest-V1
_database_code_CSD GIHYUS
_database_code_depnum_ccdc_archive 'CCDC 659410'
_chemical_formula_sum 'C44 H50 Mo12 N10 Ni2 O54 Si1'
_chemical_formula_moiety
;
(C44 H46 N10 Ni2 O12 4+)n,n(Mo12 O40 Si1 4-),2n(H2 O1)
;
_journal_coden_Cambridge 9
_journal_volume 46
_journal_year 2007
_journal_page_first 5957
_journal_name_full 'Inorg.Chem. '
loop_
_publ_author_name
"Meilin Wei"
"Cheng He"
"Qiaozhen Sun"
"Qingjin Meng"
"Chunying Duan"
_chemical_name_systematic
;
catena-(bis(\m~2~-4,4'-Bipyridine-N,N'-dioxide-O,O')-bis(acetonitrile)-tetraaq
ua-bis(4,4'-bipyridine-N,N'-dioxide-O)-di-nickel(ii) 
(\m~12~-silicato)-tetracosakis(\m~2~-oxo)-dodecaoxo-dodeca-molybdenum 
dihydrate)
;
_cell_volume   1884.567
_exptl_crystal_colour 'dark red'
_exptl_crystal_density_diffrn 2.537
_exptl_crystal_description 'block'
_diffrn_ambient_temperature 293
_refine_special_details
;
The dodecamolybdate anion is disordered by symmetry.

;
#These two values have been output from a single CSD field.
_refine_ls_R_factor_gt 0.0745
_refine_ls_wR_factor_gt 0.0745
_symmetry_cell_setting triclinic
_symmetry_space_group_name_H-M 'P -1'
_symmetry_Int_Tables_number 2
loop_
_symmetry_equiv_pos_site_id
_symmetry_equiv_pos_as_xyz
1 x,y,z
2 -x,-y,-z
_cell_length_a 11.430(3)
_cell_length_b 12.242(3)
_cell_length_c 14.279(3)
_cell_angle_alpha 106.196(4)
_cell_angle_beta 94.316(4)
_cell_angle_gamma 98.294(3)
_cell_formula_units_Z 1
loop_
_atom_type_symbol
_atom_type_radius_bond
C 0.68
H 0.23
Mo 1.37
N 0.68
Ni 1.50
O 0.68
Si 1.20
loop_
_atom_site_label
_atom_site_type_symbol
_atom_site_fract_x
_atom_site_fract_y
_atom_site_fract_z
Si1 Si 0.50000 0.50000 0.50000
Mo1 Mo 0.49359(7) 0.57893(7) 0.75678(6)
Mo2 Mo 0.34931(8) 0.30335(7) 0.60793(7)
Mo3 Mo 0.23246(8) 0.55090(7) 0.59443(7)
Mo4 Mo 0.67722(8) 0.75676(8) 0.64975(8)
Mo5 Mo 0.74728(8) 0.48723(8) 0.65640(7)
Mo6 Mo 0.40608(10) 0.76661(8) 0.52117(7)
O1 O 0.3774(9) 0.5609(9) 0.4957(9)
O2 O 0.4459(10) 0.3628(10) 0.4908(9)
O3 O 0.2985(10) 0.2717(9) 0.4648(9)
O4 O 0.4903(10) 0.2664(10) 0.5733(10)
O5 O 0.7251(10) 0.3226(10) 0.6006(9)
O6 O 0.1457(10) 0.5219(10) 0.4652(9)
O7 O 0.5679(11) 0.7006(11) 0.7203(9)
O8 O 0.4332(11) 0.4131(10) 0.7041(10)
O9 O 0.2717(7) 0.2085(6) 0.6536(6)
O10 O 0.3616(6) 0.8883(5) 0.5203(5)
O11 O 0.4899(8) 0.6045(7) 0.8762(6)
O12 O 0.8717(5) 0.4921(6) 0.7277(5)
O13 O 0.1111(6) 0.5802(6) 0.6464(6)
O14 O 0.3473(6) 0.6035(5) 0.7171(6)
O15 O 0.7511(6) 0.8805(6) 0.7264(6)
O16 O 0.2324(6) 0.4026(5) 0.6005(6)
O17 O 0.7588(12) 0.6445(12) 0.6425(10)
O18 O 0.6305(11) 0.4999(11) 0.7184(10)
O19 O 0.5129(11) 0.7813(10) 0.6209(10)
O20 O 0.2654(10) 0.7182(11) 0.5917(10)
O21? O 0.5713(9) 0.5616(9) 0.6124(8)
O22? O 0.5743(9) 0.5114(9) 0.4148(8)
O23? O 0.2638(12) 0.2097(11) 0.4681(10)
O24? O 0.4648(11) 0.2061(10) 0.5767(10)
O25? O 0.6662(12) 0.3444(11) 0.6023(10)
O26? O 0.2113(11) 0.5002(9) 0.4654(9)
O27? O 0.5856(11) 0.7232(11) 0.7704(10)
O28? O 0.4108(16) 0.4066(15) 0.7325(11)
O29? O 0.7816(11) 0.6705(11) 0.6943(10)
O30? O 0.6458(11) 0.5195(12) 0.7694(10)
O31? O 0.4598(11) 0.1593(11) 0.3804(10)
O32? O 0.6732(12) 0.3038(10) 0.4131(10)
Ni1 Ni 0.19952(12) -0.12989(10) -0.01886(10)
O33 O 0.3006(6) -0.1831(6) -0.1347(6)
H1 H 0.28760 -0.14490 -0.17460
H2 H 0.37560 -0.17580 -0.12170
O34 O 0.0899(6) -0.0723(5) 0.0865(5)
H3 H 0.08240 -0.12100 0.11890
H4 H 0.02020 -0.06090 0.07150
N1 N 0.0888(7) -0.0856(6) -0.1990(6)
N2 N 0.0470(7) -0.1930(7) -0.7087(6)
N3 N 0.1300(7) -0.3803(6) -0.0548(6)
N4 N 0.3003(6) -0.8802(6) 0.0149(6)
C1 C 0.1493(10) -0.0119(10) -0.2378(9)
H5 H 0.19350 0.05630 -0.19600
C2 C 0.1493(10) -0.0325(9) -0.3373(8)
H6 H 0.19490 0.01980 -0.36210
C3 C 0.0818(8) -0.1305(8) -0.3994(7)
C4 C 0.0190(8) -0.2064(8) -0.3587(7)
H7 H -0.02900 -0.27340 -0.39900
C5 C 0.0272(9) -0.1832(9) -0.2585(8)
H8 H -0.01160 -0.23740 -0.23180
C6 C 0.1019(10) -0.0895(9) -0.6485(8)
H9 H 0.13130 -0.03270 -0.67650
C7 C 0.1162(9) -0.0647(8) -0.5506(8)
H10 H 0.15380 0.00800 -0.51160
C8 C 0.0733(8) -0.1506(7) -0.5079(7)
C9 C 0.0234(9) -0.2594(8) -0.5703(8)
H11 H -0.00110 -0.31900 -0.54390
C10 C 0.0098(9) -0.2797(8) -0.6707(7)
H12 H -0.02460 -0.35240 -0.71200
C11 C 0.1694(8) -0.4552(8) -0.1306(7)
H13 H 0.16920 -0.44120 -0.19140
C12 C 0.2095(10) -0.5513(8) -0.1178(7)
H14 H 0.23970 -0.60060 -0.16870
C13 C 0.2043(9) -0.5738(7) -0.0287(8)
C14 C 0.1635(9) -0.4984(8) 0.0460(7)
H15 H 0.16080 -0.51260 0.10660
C15 C 0.1260(9) -0.4002(7) 0.0320(7)
H16 H 0.09830 -0.34880 0.08310
C16 C 0.2147(9) -0.8352(8) 0.0608(7)
H17 H 0.17630 -0.87050 0.10270
C17 C 0.1822(9) -0.7373(7) 0.0473(8)
H18 H 0.12070 -0.70730 0.07900
C18 C 0.2404(8) -0.6810(7) -0.0138(7)
C19 C 0.3283(9) -0.7301(8) -0.0607(8)
H19 H 0.36810 -0.69650 -0.10290
C20 C 0.3583(9) -0.8308(8) -0.0449(8)
H20 H 0.41880 -0.86370 -0.07610
O35 O 0.0867(5) -0.0603(5) -0.1004(5)
O36 O 0.0325(8) -0.2116(6) -0.8049(5)
O37 O 0.0912(6) -0.2888(5) -0.0711(5)
O38 O 0.3257(5) -0.9784(5) 0.0264(5)
N5 N 0.3038(8) -0.1803(8) 0.0861(7)
O39 O -0.5153(6) 0.9472(6) 0.8251(5)
H21 H -0.51240 0.92040 0.76380
H22 H -0.44690 0.96130 0.85810
C21 C 0.3480(12) -0.1849(12) 0.1567(11)
C22 C 0.3977(16) -0.1916(16) 0.2508(14)
H23 H 0.46390 -0.12970 0.27770
H24 H 0.42430 -0.26420 0.24230
H25 H 0.33800 -0.18510 0.29490
Mo1A Mo 0.50641(7) 0.42107(7) 0.24322(6)
Mo2A Mo 0.65069(8) 0.69665(7) 0.39207(7)
Mo3A Mo 0.76754(8) 0.44910(7) 0.40557(7)
Mo4A Mo 0.32278(8) 0.24324(8) 0.35025(8)
Mo5A Mo 0.25272(8) 0.51277(8) 0.34360(7)
Mo6A Mo 0.59392(10) 0.23339(8) 0.47883(7)
O1A O 0.6226(9) 0.4391(9) 0.5043(9)
O2A O 0.5541(10) 0.6372(10) 0.5092(9)
O3A O 0.7015(10) 0.7283(9) 0.5352(9)
O4A O 0.5097(10) 0.7336(10) 0.4267(10)
O5A O 0.2749(10) 0.6774(10) 0.3994(9)
O6A O 0.8543(10) 0.4781(10) 0.5348(9)
O7A O 0.4321(11) 0.2994(11) 0.2797(9)
O8A O 0.5668(11) 0.5869(10) 0.2959(10)
O9A O 0.7283(7) 0.7915(6) 0.3464(6)
O10A O 0.6384(6) 0.1117(5) 0.4797(5)
O11A O 0.5101(8) 0.3955(7) 0.1238(6)
O12A O 0.1283(5) 0.5079(6) 0.2723(5)
O13A O 0.8889(6) 0.4198(6) 0.3536(6)
O14A O 0.6527(6) 0.3965(5) 0.2829(6)
O15A O 0.2489(6) 0.1195(6) 0.2736(6)
O16A O 0.7676(6) 0.5974(5) 0.3995(6)
O17A O 0.2412(12) 0.3555(12) 0.3575(10)
O18A O 0.3695(11) 0.5001(11) 0.2816(10)
O19A O 0.4871(11) 0.2187(10) 0.3791(10)
O20A O 0.7346(10) 0.2818(11) 0.4083(10)
Ni1* Ni 0.19952(12) 0.87011(10) -0.01886(10)
Ni1** Ni 0.19952(12) -1.12989(10) -0.01886(10)
O33* O 0.3006(6) 0.8169(6) -0.1347(6)
H1* H 0.28760 0.85510 -0.17460
H2* H 0.37560 0.82420 -0.12170
O34* O 0.0899(6) 0.9277(5) 0.0865(5)
H3* H 0.08240 0.87900 0.11890
H4* H 0.02020 0.93910 0.07150
N1* N 0.0888(7) 0.9144(6) -0.1990(6)
N2* N 0.0470(7) 0.8070(7) -0.7087(6)
N3* N 0.1300(7) 0.6197(6) -0.0548(6)
N4* N 0.3003(6) 0.1198(6) 0.0149(6)
C1* C 0.1493(10) 0.9881(10) -0.2378(9)
H5* H 0.19350 1.05630 -0.19600
C2* C 0.1493(10) 0.9675(9) -0.3373(8)
H6* H 0.19490 1.01980 -0.36210
C3* C 0.0818(8) 0.8695(8) -0.3994(7)
C4* C 0.0190(8) 0.7936(8) -0.3587(7)
H7* H -0.02900 0.72660 -0.39900
C5* C 0.0272(9) 0.8168(9) -0.2585(8)
H8* H -0.01160 0.76260 -0.23180
C6* C 0.1019(10) 0.9105(9) -0.6485(8)
H9* H 0.13130 0.96730 -0.67650
C7* C 0.1162(9) 0.9353(8) -0.5506(8)
H10* H 0.15380 1.00800 -0.51160
C8* C 0.0733(8) 0.8494(7) -0.5079(7)
C9* C 0.0234(9) 0.7406(8) -0.5703(8)
H11* H -0.00110 0.68100 -0.54390
C10* C 0.0098(9) 0.7203(8) -0.6707(7)
H12* H -0.02460 0.64760 -0.71200
C11* C 0.1694(8) 0.5448(8) -0.1306(7)
H13* H 0.16920 0.55880 -0.19140
C12* C 0.2095(10) 0.4487(8) -0.1178(7)
H14* H 0.23970 0.39940 -0.16870
C13* C 0.2043(9) 0.4262(7) -0.0287(8)
C14* C 0.1635(9) 0.5016(8) 0.0460(7)
H15* H 0.16080 0.48740 0.10660
C15* C 0.1260(9) 0.5998(7) 0.0320(7)
H16* H 0.09830 0.65120 0.08310
C16* C 0.2147(9) 0.1648(8) 0.0608(7)
H17* H 0.17630 0.12950 0.10270
C17* C 0.1822(9) 0.2627(7) 0.0473(8)
H18* H 0.12070 0.29270 0.07900
C18* C 0.2404(8) 0.3190(7) -0.0138(7)
C19* C 0.3283(9) 0.2699(8) -0.0607(8)
H19* H 0.36810 0.30350 -0.10290
C20* C 0.3583(9) 0.1692(8) -0.0449(8)
H20* H 0.41880 0.13630 -0.07610
O35* O 0.0867(5) 0.9397(5) -0.1004(5)
O36* O 0.0325(8) 0.7884(6) -0.8049(5)
O37* O 0.0912(6) 0.7112(5) -0.0711(5)
O38* O 0.3257(5) 0.0216(5) 0.0264(5)
O38** O 0.3257(5) 1.0216(5) 0.0264(5)
N5* N 0.3038(8) 0.8197(8) 0.0861(7)
C21* C 0.3480(12) 0.8151(12) 0.1567(11)
C22* C 0.3977(16) 0.8084(16) 0.2508(14)
H23* H 0.46390 0.87030 0.27770
H24* H 0.42430 0.73580 0.24230
H25* H 0.33800 0.81490 0.29490
#END
