
#######################################################################
#
#                 Cambridge Crystallographic Data Centre
#                                CCDC
#
#######################################################################
#
# If this CIF has been generated from an entry in the Cambridge
# Structural Database, then it will include bibliographic, chemical,
# crystal, experimental, refinement or atomic coordinate data resulting
# from the CCDC's data processing and validation procedures.
#
#######################################################################

data_CSD_CIF_GIHYIG
_audit_creation_date 2007-12-14
_audit_creation_method CSD-ConQuest-V1
_database_code_CSD GIHYIG
_database_code_depnum_ccdc_archive 'CCDC 659408'
_chemical_formula_sum 'C46 H52.5 Gd1 Mo12 N9.5 O56 Si1'
_chemical_formula_moiety
;
(C40 H38 Gd1 N8 O11 3+)n,n(H3 O1 1+),n(Mo12 O40 Si1 4-),0.5n(C10 H8 N2 
O2),0.5n(C2 H3 N1),3n(H2 O1)
;
_journal_coden_Cambridge 9
_journal_volume 46
_journal_year 2007
_journal_page_first 5957
_journal_name_full 'Inorg.Chem. '
loop_
_publ_author_name
"Meilin Wei"
"Cheng He"
"Qiaozhen Sun"
"Qingjin Meng"
"Chunying Duan"
_chemical_name_systematic
;
catena-((\m~2~-4,4'-Bipyridine-N,N'-dioxide-O,O')-triaqua-tris(4,4'-bipyridine
-N,N'-dioxide-O)-gadolinium(iii) oxonium 
(\m~12~-silicato)-tetracosakis(\m~2~-oxo)-dodecaoxo-dodeca-molybdenum 
hemikis(4,4'-bipyridine-N,N'-dioxide) acetonitrile solvate trihydrate)
;
_cell_volume   3965.806
_exptl_crystal_colour 'orange'
_exptl_crystal_density_diffrn 2.488
_exptl_special_details
;
isomorphous with the Ho(iii) analogue

;
_exptl_crystal_description 'block'
_diffrn_ambient_temperature 293
#These two values have been output from a single CSD field.
_refine_ls_R_factor_gt 0.0639
_refine_ls_wR_factor_gt 0.0639
_symmetry_cell_setting triclinic
_symmetry_space_group_name_H-M 'P -1'
_symmetry_Int_Tables_number 2
loop_
_symmetry_equiv_pos_site_id
_symmetry_equiv_pos_as_xyz
1 x,y,z
2 -x,-y,-z
_cell_length_a 13.222(3)
_cell_length_b 16.498(4)
_cell_length_c 18.489(5)
_cell_angle_alpha 88.827(4)
_cell_angle_beta 82.058(5)
_cell_angle_gamma 83.139(5)
_cell_formula_units_Z 2
loop_
_atom_type_symbol
_atom_type_radius_bond
C 0.68
H 0.23
Gd 1.79
Mo 1.36
N 0.68
O 0.68
Si 1.20
loop_
_atom_site_label
_atom_site_type_symbol
_atom_site_fract_x
_atom_site_fract_y
_atom_site_fract_z
Si1 Si -0.51003(15) -0.66557(11) 0.23846(11)
Mo1 Mo -0.36845(7) -0.84917(4) 0.28194(5)
Mo2 Mo -0.43274(7) -0.82555(4) 0.11316(4)
Mo3 Mo -0.61219(6) -0.85366(4) 0.25510(5)
Mo4 Mo -0.76516(6) -0.66493(5) 0.20523(5)
Mo5 Mo -0.69368(6) -0.69142(5) 0.39057(4)
Mo6 Mo -0.45069(6) -0.68665(5) 0.41879(4)
Mo7 Mo -0.25340(6) -0.65650(5) 0.26382(5)
Mo8 Mo -0.31749(6) -0.63259(6) 0.09447(4)
Mo9 Mo -0.58570(7) -0.63618(6) 0.06395(4)
Mo10 Mo -0.66074(7) -0.48940(4) 0.18660(5)
Mo11 Mo -0.59127(7) -0.51623(4) 0.37234(4)
Mo12 Mo -0.39287(6) -0.48524(4) 0.21701(5)
O1 O -0.2865(5) -0.9249(3) 0.3125(4)
O2 O -0.3926(6) -0.8860(4) 0.0411(3)
O3 O -0.6853(6) -0.9311(4) 0.2713(4)
O4 O -0.8897(5) -0.6788(4) 0.2057(4)
O5 O -0.7907(5) -0.7177(4) 0.4514(3)
O6 O -0.3984(5) -0.7133(4) 0.4945(3)
O7 O -0.1361(5) -0.6673(5) 0.2871(4)
O8 O -0.2386(5) -0.6285(4) 0.0147(3)
O9 O -0.5961(5) -0.6346(4) -0.0253(3)
O10 O -0.7211(5) -0.3955(3) 0.1780(4)
O11 O -0.6252(5) -0.4305(3) 0.4193(3)
O12 O -0.3599(5) -0.3902(4) 0.2164(4)
O13 O -0.3478(4) -0.8782(3) 0.1799(3)
O14 O -0.5441(4) -0.8834(3) 0.1594(3)
O15 O -0.4927(5) -0.9036(3) 0.2925(3)
O16 O -0.4208(4) -0.7892(3) 0.3667(3)
O17 O -0.2806(4) -0.7663(3) 0.2580(3)
O18 O -0.3417(4) -0.7436(3) 0.0976(3)
O19 O -0.5294(4) -0.7474(3) 0.0767(3)
O20 O -0.7010(4) -0.7742(3) 0.2119(3)
O21 O -0.6507(4) -0.7921(3) 0.3418(3)
O22 O -0.5864(4) -0.7159(3) 0.4501(3)
O23 O -0.3392(4) -0.6529(3) 0.3551(3)
O24 O -0.2165(4) -0.6559(3) 0.1587(3)
O25 O -0.4499(4) -0.6108(3) 0.0643(3)
O26 O -0.7203(4) -0.6654(3) 0.1023(3)
O27 O -0.7602(4) -0.6601(3) 0.3081(3)
O28 O -0.6987(4) -0.5785(3) 0.4156(3)
O29 O -0.5050(5) -0.5754(3) 0.4376(3)
O30 O -0.2758(4) -0.5404(3) 0.2584(3)
O31 O -0.3257(4) -0.5196(3) 0.1228(3)
O32 O -0.6380(5) -0.5256(3) 0.0885(3)
O33 O -0.7798(4) -0.5474(3) 0.2008(3)
O34 O -0.6624(4) -0.4931(3) 0.2901(3)
O35 O -0.4720(4) -0.4923(3) 0.3110(3)
O36 O -0.5219(4) -0.4702(3) 0.1814(3)
O37 O -0.5491(4) -0.6470(3) 0.3243(3)
O38 O -0.4063(4) -0.6247(3) 0.2133(3)
O39 O -0.5996(4) -0.6279(3) 0.1913(3)
O40 O -0.4889(4) -0.7633(3) 0.2269(3)
Gd1 Gd -0.05223(3) -0.17320(2) 0.29408(2)
O41 O -0.0087(5) -0.1529(6) 0.1653(4)
H1 H -0.04910 -0.12920 0.13740
H2 H 0.05340 -0.17180 0.15200
O42 O -0.0827(6) -0.0275(4) 0.3020(4)
H3 H -0.13030 0.00250 0.28470
H4 H -0.03890 -0.01060 0.32560
O43 O -0.0066(5) -0.1279(3) 0.4068(3)
H5 H -0.03390 -0.08530 0.42990
H6 H 0.04130 -0.16160 0.41980
O44 O -0.1983(4) -0.1202(4) 0.2338(3)
O45 O -0.8461(5) -0.1787(6) 0.0715(4)
O46 O -0.1930(4) -0.1880(3) 0.3839(3)
O47 O -0.8773(4) -0.1625(4) 0.2587(3)
O48 O -0.1041(5) -0.2942(4) 0.2521(4)
O49 O 0.1569(8) -0.7385(5) -0.0752(5)
O50 O 0.0474(4) -0.2852(3) 0.3452(4)
O51 O -0.1293(5) -0.8164(4) 0.5042(5)
N1 N -0.2796(5) -0.1310(4) 0.2032(4)
N2 N -0.7546(6) -0.1714(5) 0.0905(4)
N3 N -0.2923(5) -0.1863(4) 0.3757(3)
N4 N -0.7915(5) -0.1703(4) 0.2892(4)
N5 N -0.0619(5) -0.3570(4) 0.2120(4)
N6 N 0.1230(7) -0.6795(5) -0.0263(5)
N7 N 0.0194(5) -0.3562(4) 0.3651(4)
N8 N -0.1093(6) -0.7425(4) 0.4798(5)
C1 C -0.3345(7) -0.0654(5) 0.1792(5)
H7 H -0.31020 -0.01480 0.17910
C2 C -0.4269(7) -0.0716(5) 0.1545(5)
H8 H -0.46430 -0.02490 0.13850
C3 C -0.4654(6) -0.1462(4) 0.1528(4)
C4 C -0.4024(6) -0.2132(5) 0.1734(5)
H9 H -0.42230 -0.26500 0.16990
C5 C -0.3113(6) -0.2053(4) 0.1988(4)
H10 H -0.27120 -0.25140 0.21310
C6 C -0.7359(7) -0.0985(7) 0.1145(5)
H11 H -0.78740 -0.05460 0.11750
C7 C -0.6426(7) -0.0884(6) 0.1346(5)
H12 H -0.63060 -0.03780 0.15080
C8 C -0.5654(6) -0.1543(5) 0.1306(4)
C9 C -0.5884(7) -0.2280(5) 0.1058(5)
H13 H -0.53880 -0.27320 0.10230
C10 C -0.6836(7) -0.2350(6) 0.0863(5)
H14 H -0.69800 -0.28480 0.07010
C11 C -0.3466(6) -0.1147(4) 0.3618(4)
H15 H -0.31560 -0.06690 0.36030
C12 C -0.4478(6) -0.1112(5) 0.3496(4)
H16 H -0.48340 -0.06150 0.33850
C13 C -0.4962(6) -0.1808(5) 0.3536(4)
C14 C -0.4379(6) -0.2540(5) 0.3721(4)
H17 H -0.46790 -0.30240 0.37720
C15 C -0.3384(6) -0.2538(5) 0.3825(5)
H18 H -0.30130 -0.30250 0.39470
C16 C -0.7605(7) -0.1020(5) 0.3157(5)
H19 H -0.80340 -0.05300 0.31800
C17 C -0.6662(6) -0.1060(5) 0.3386(5)
H20 H -0.64520 -0.05940 0.35640
C18 C -0.6012(6) -0.1790(5) 0.3357(4)
C19 C -0.6405(6) -0.2470(5) 0.3125(5)
H21 H -0.60190 -0.29800 0.31300
C20 C -0.7340(6) -0.2406(5) 0.2891(5)
H22 H -0.75760 -0.28690 0.27280
C21 C -0.1075(7) -0.4249(5) 0.2167(5)
H23 H -0.16620 -0.42810 0.25020
C22 C -0.0683(7) -0.4910(5) 0.1721(5)
H24 H -0.10120 -0.53800 0.17580
C23 C 0.0186(6) -0.4879(5) 0.1223(5)
C24 C 0.0660(7) -0.4166(6) 0.1215(5)
H25 H 0.12650 -0.41270 0.09010
C25 C 0.0255(7) -0.3532(6) 0.1656(6)
H26 H 0.05850 -0.30630 0.16390
C26 C 0.0427(8) -0.6867(6) 0.0234(5)
H27 H 0.00990 -0.73370 0.02500
C27 C 0.0072(7) -0.6249(6) 0.0729(5)
H28 H -0.04940 -0.63000 0.10800
C28 C 0.0562(6) -0.5558(5) 0.0697(5)
C29 C 0.1393(7) -0.5509(6) 0.0166(5)
H29 H 0.17310 -0.50440 0.01320
C30 C 0.1721(7) -0.6127(6) -0.0305(5)
H30 H 0.22870 -0.60900 -0.06590
C31 C -0.0678(6) -0.3615(5) 0.4120(5)
H31 H -0.10890 -0.31440 0.42960
C32 C -0.0949(7) -0.4372(5) 0.4332(5)
H32 H -0.15490 -0.44040 0.46550
C33 C -0.0367(6) -0.5084(4) 0.4084(4)
C34 C 0.0540(7) -0.4994(5) 0.3618(6)
H33 H 0.09700 -0.54580 0.34450
C35 C 0.0805(7) -0.4261(5) 0.3415(5)
H34 H 0.14160 -0.42230 0.31070
C36 C -0.1738(7) -0.6746(6) 0.5032(6)
H35 H -0.23340 -0.67980 0.53520
C37 C -0.1521(7) -0.6022(5) 0.4809(6)
H36 H -0.19680 -0.55670 0.49810
C38 C -0.0646(6) -0.5906(5) 0.4322(5)
C39 C -0.0025(8) -0.6611(5) 0.4066(6)
H37 H 0.05500 -0.65790 0.37200
C40 C -0.0276(9) -0.7351(5) 0.4333(6)
H38 H 0.01540 -0.78200 0.41750
O52 O -0.1343(5) -0.0217(4) 0.5101(4)
N9 N -0.2350(5) -0.0159(4) 0.5094(4)
C41 C -0.2874(7) -0.0782(5) 0.5321(5)
H39 H -0.25330 -0.12580 0.54900
C42 C -0.3919(7) -0.0720(5) 0.5304(5)
H40 H -0.42780 -0.11510 0.54800
C43 C -0.4449(6) -0.0028(5) 0.5030(4)
C44 C -0.3863(7) 0.0609(5) 0.4824(4)
H41 H -0.41860 0.10950 0.46580
C45 C -0.2847(7) 0.0545(5) 0.4858(5)
H42 H -0.24830 0.09840 0.47200
O53 O -0.0015(6) -0.9309(4) 0.3919(4)
O54 O -0.3350(6) -0.4451(5) 0.4194(4)
O55 O -0.8725(13) -0.1578(10) 0.9301(9)
N10 N -0.997(2) -0.8406(16) 0.2346(15)
C46 C -0.924(3) -0.883(2) 0.182(2)
C47 C -0.852(3) -0.890(2) 0.1317(19)
O56 O 0.294(2) -0.8387(17) 0.0198(15)
O57 O 0.181(3) -0.880(2) -0.0202(19)
O58 O -0.089(2) -0.0180(19) 0.0588(18)
Gd1* Gd -1.05223(3) -0.17320(2) 0.29408(2)
O47* O 0.1227(4) -0.1625(4) 0.2587(3)
O52A O -0.8657(5) 0.0217(4) 0.4899(4)
N9A N -0.7650(5) 0.0159(4) 0.4906(4)
C41A C -0.7126(7) 0.0782(5) 0.4679(5)
H39A H -0.74670 0.12580 0.45100
C42A C -0.6081(7) 0.0720(5) 0.4696(5)
H40A H -0.57220 0.11510 0.45200
C43A C -0.5551(6) 0.0028(5) 0.4970(4)
C44A C -0.6137(7) -0.0609(5) 0.5176(4)
H41A H -0.58140 -0.10950 0.53420
C45A C -0.7153(7) -0.0545(5) 0.5142(5)
H42A H -0.75170 -0.09840 0.52800
#END
