
#######################################################################
#
#                 Cambridge Crystallographic Data Centre
#                                CCDC
#
#######################################################################
#
# If this CIF has been generated from an entry in the Cambridge
# Structural Database, then it will include bibliographic, chemical,
# crystal, experimental, refinement or atomic coordinate data resulting
# from the CCDC's data processing and validation procedures.
#
#######################################################################

data_CSD_CIF_GIHYOM
_audit_creation_date 2007-12-14
_audit_creation_method CSD-ConQuest-V1
_database_code_CSD GIHYOM
_database_code_depnum_ccdc_archive 'CCDC 659409'
_chemical_formula_sum 'C46 H52.5 Ho1 Mo12 N9.5 O56 Si1'
_chemical_formula_moiety
;
(C40 H38 Ho1 N8 O11 3+)n,n(H3 O1 1+),n(Mo12 O40 Si1 4-),0.5n(C10 H8 N2 
O2),0.5n(C2 H3 N1),3n(H2 O1)
;
_journal_coden_Cambridge 9
_journal_volume 46
_journal_year 2007
_journal_page_first 5957
_journal_name_full 'Inorg.Chem. '
loop_
_publ_author_name
"Meilin Wei"
"Cheng He"
"Qiaozhen Sun"
"Qingjin Meng"
"Chunying Duan"
_chemical_name_systematic
;
catena-((\m~2~-4,4'-Bipyridine-N,N'-dioxide-O,O')-triaqua-tris(4,4'-bipyridine
-N,N'-dioxide-O)-holmium(iii) oxonium 
(\m~12~-silicato)-tetracosakis(\m~2~-oxo)-dodecaoxo-dodeca-molybdenum 
hemikis(4,4'-bipyridine-N,N'-dioxide) acetonitrile solvate trihydrate)
;
_cell_volume   3977.243
_exptl_crystal_colour 'orange'
_exptl_crystal_density_diffrn 2.487
_exptl_special_details
;
isomorphous with the Gd(iii) analogue

;
_exptl_crystal_description 'block'
_diffrn_ambient_temperature 293
#These two values have been output from a single CSD field.
_refine_ls_R_factor_gt 0.0574
_refine_ls_wR_factor_gt 0.0574
_symmetry_cell_setting triclinic
_symmetry_space_group_name_H-M 'P -1'
_symmetry_Int_Tables_number 2
loop_
_symmetry_equiv_pos_site_id
_symmetry_equiv_pos_as_xyz
1 x,y,z
2 -x,-y,-z
_cell_length_a 13.210(3)
_cell_length_b 16.532(3)
_cell_length_c 18.518(4)
_cell_angle_alpha 88.736(4)
_cell_angle_beta 81.983(4)
_cell_angle_gamma 83.310(4)
_cell_formula_units_Z 2
loop_
_atom_type_symbol
_atom_type_radius_bond
C 0.68
H 0.23
Ho 1.74
Mo 1.36
N 0.68
O 0.68
Si 1.20
loop_
_atom_site_label
_atom_site_type_symbol
_atom_site_fract_x
_atom_site_fract_y
_atom_site_fract_z
Si1 Si -0.51012(18) -0.66581(12) 0.23875(11)
Mo1 Mo -0.36613(8) -0.84846(5) 0.28112(5)
Mo2 Mo -0.43494(8) -0.82555(4) 0.11365(4)
Mo3 Mo -0.61186(7) -0.85387(4) 0.25755(5)
Mo4 Mo -0.76461(7) -0.66660(6) 0.20460(5)
Mo5 Mo -0.69506(7) -0.68973(5) 0.39061(4)
Mo6 Mo -0.45107(7) -0.68801(5) 0.41921(4)
Mo7 Mo -0.25300(7) -0.65471(6) 0.26494(5)
Mo8 Mo -0.31511(7) -0.63436(5) 0.09482(4)
Mo9 Mo -0.58460(8) -0.63460(6) 0.06406(4)
Mo10 Mo -0.66263(8) -0.48978(4) 0.18805(5)
Mo11 Mo -0.58860(8) -0.51622(4) 0.37239(4)
Mo12 Mo -0.39242(7) -0.48497(4) 0.21480(5)
O1 O -0.2839(5) -0.9238(3) 0.3114(3)
O2 O -0.3940(6) -0.8864(4) 0.0424(3)
O3 O -0.6864(6) -0.9309(4) 0.2734(4)
O4 O -0.8878(5) -0.6806(4) 0.2055(4)
O5 O -0.7944(5) -0.7158(4) 0.4520(3)
O6 O -0.3990(5) -0.7138(4) 0.4945(3)
O7 O -0.1352(5) -0.6656(4) 0.2878(4)
O8 O -0.2372(5) -0.6301(4) 0.0147(3)
O9 O -0.5950(5) -0.6347(4) -0.0257(3)
O10 O -0.7220(6) -0.3950(3) 0.1780(4)
O11 O -0.6225(6) -0.4298(3) 0.4195(3)
O12 O -0.3579(5) -0.3900(4) 0.2143(4)
O13 O -0.3483(5) -0.8779(3) 0.1804(3)
O14 O -0.5459(5) -0.8833(3) 0.1602(3)
O15 O -0.4913(5) -0.9036(3) 0.2932(3)
O16 O -0.4208(5) -0.7890(3) 0.3668(3)
O17 O -0.2803(5) -0.7660(3) 0.2580(3)
O18 O -0.3420(5) -0.7444(3) 0.0976(3)
O19 O -0.5306(5) -0.7473(3) 0.0772(3)
O20 O -0.7013(5) -0.7748(3) 0.2125(3)
O21 O -0.6499(5) -0.7918(3) 0.3422(3)
O22 O -0.5869(5) -0.7162(3) 0.4505(3)
O23 O -0.3375(5) -0.6523(3) 0.3562(3)
O24 O -0.2153(5) -0.6563(3) 0.1592(3)
O25 O -0.4498(5) -0.6111(3) 0.0650(3)
O26 O -0.7194(5) -0.6665(3) 0.1025(3)
O27 O -0.7614(5) -0.6603(3) 0.3083(3)
O28 O -0.6992(5) -0.5785(3) 0.4158(3)
O29 O -0.5037(5) -0.5756(3) 0.4376(3)
O30 O -0.2753(5) -0.5389(3) 0.2576(3)
O31 O -0.3241(5) -0.5201(3) 0.1228(3)
O32 O -0.6386(5) -0.5243(3) 0.0890(3)
O33 O -0.7803(5) -0.5486(3) 0.2010(3)
O34 O -0.6616(5) -0.4933(3) 0.2906(3)
O35 O -0.4705(4) -0.4909(3) 0.3110(3)
O36 O -0.5211(5) -0.4703(3) 0.1808(3)
O37 O -0.5488(4) -0.6468(3) 0.3249(3)
O38 O -0.4060(4) -0.6247(3) 0.2131(3)
O39 O -0.5991(5) -0.6286(3) 0.1918(3)
O40 O -0.4885(4) -0.7637(3) 0.2270(3)
Ho1 Ho -0.05099(3) -0.17282(2) 0.29478(2)
O41 O -0.0102(5) -0.1498(5) 0.1690(4)
H1 H -0.05050 -0.12620 0.14110
H2 H 0.05200 -0.16870 0.15560
O42 O -0.0817(6) -0.0301(3) 0.3035(4)
H3 H -0.12930 -0.00010 0.28610
H4 H -0.03790 -0.01320 0.32710
O43 O -0.0062(5) -0.1295(3) 0.4058(3)
H5 H -0.03350 -0.08690 0.42900
H6 H 0.04160 -0.16320 0.41880
O44 O -0.1963(5) -0.1181(4) 0.2343(3)
O45 O -0.8450(6) -0.1794(5) 0.0734(4)
O46 O -0.1930(5) -0.1871(3) 0.3821(3)
O47 O -0.8793(5) -0.1616(4) 0.2608(3)
O48 O -0.1057(5) -0.2906(3) 0.2542(3)
O49 O 0.1617(7) -0.7371(5) -0.0728(4)
O50 O 0.0487(5) -0.2840(3) 0.3427(3)
O51 O -0.1311(6) -0.8150(4) 0.5074(4)
N1 N -0.2773(6) -0.1297(4) 0.2034(4)
N2 N -0.7549(7) -0.1713(6) 0.0928(4)
N3 N -0.2892(5) -0.1856(4) 0.3748(4)
N4 N -0.7925(6) -0.1695(4) 0.2908(4)
N5 N -0.0621(6) -0.3532(4) 0.2129(4)
N6 N 0.1242(7) -0.6748(5) -0.0239(4)
N7 N 0.0193(6) -0.3564(4) 0.3646(4)
N8 N -0.1114(7) -0.7414(4) 0.4812(5)
C1 C -0.3320(8) -0.0644(5) 0.1790(5)
H7 H -0.30720 -0.01400 0.17880
C2 C -0.4238(8) -0.0702(5) 0.1543(5)
H8 H -0.46100 -0.02350 0.13840
C3 C -0.4626(7) -0.1451(5) 0.1526(4)
C4 C -0.4000(7) -0.2113(5) 0.1741(4)
H9 H -0.42030 -0.26300 0.17160
C5 C -0.3093(7) -0.2031(5) 0.1990(5)
H10 H -0.26920 -0.24920 0.21310
C6 C -0.7347(9) -0.0985(7) 0.1169(5)
H11 H -0.78640 -0.05500 0.12130
C7 C -0.6417(8) -0.0880(6) 0.1345(5)
H12 H -0.62980 -0.03710 0.14950
C8 C -0.5613(7) -0.1535(5) 0.1305(4)
C9 C -0.5862(8) -0.2273(5) 0.1059(5)
H13 H -0.53680 -0.27250 0.10230
C10 C -0.6819(8) -0.2345(6) 0.0871(5)
H14 H -0.69580 -0.28400 0.07010
C11 C -0.3442(7) -0.1140(5) 0.3611(4)
H15 H -0.31300 -0.06620 0.35910
C12 C -0.4462(7) -0.1106(5) 0.3499(4)
H16 H -0.48220 -0.06080 0.33980
C13 C -0.4952(7) -0.1808(5) 0.3535(4)
C14 C -0.4360(7) -0.2538(5) 0.3716(5)
H17 H -0.46610 -0.30210 0.37660
C15 C -0.3351(7) -0.2542(5) 0.3819(4)
H18 H -0.29800 -0.30270 0.39390
C16 C -0.7606(8) -0.1027(6) 0.3173(5)
H19 H -0.80350 -0.05370 0.32020
C17 C -0.6667(7) -0.1064(5) 0.3394(5)
H20 H -0.64570 -0.05950 0.35680
C18 C -0.6010(6) -0.1784(5) 0.3369(4)
C19 C -0.6396(8) -0.2471(5) 0.3130(5)
H21 H -0.60070 -0.29780 0.31330
C20 C -0.7329(7) -0.2406(5) 0.2895(5)
H22 H -0.75590 -0.28660 0.27210
C21 C -0.1085(8) -0.4215(5) 0.2178(5)
H23 H -0.16720 -0.42480 0.25140
C22 C -0.0695(8) -0.4868(5) 0.1733(5)
H24 H -0.10280 -0.53350 0.17660
C23 C 0.0183(7) -0.4834(5) 0.1242(5)
C24 C 0.0653(7) -0.4133(5) 0.1215(5)
H25 H 0.12480 -0.40880 0.08900
C25 C 0.0239(8) -0.3495(5) 0.1671(5)
H26 H 0.05700 -0.30280 0.16570
C26 C 0.0445(8) -0.6836(6) 0.0268(5)
H27 H 0.01220 -0.73090 0.02910
C27 C 0.0104(7) -0.6216(5) 0.0759(5)
H28 H -0.04430 -0.62760 0.11240
C28 C 0.0561(7) -0.5518(5) 0.0714(4)
C29 C 0.1395(7) -0.5462(6) 0.0185(5)
H29 H 0.17320 -0.49960 0.01540
C30 C 0.1734(8) -0.6086(6) -0.0297(5)
H30 H 0.22940 -0.60480 -0.06560
C31 C -0.0660(7) -0.3623(5) 0.4122(4)
H31 H -0.10570 -0.31540 0.43110
C32 C -0.0943(7) -0.4365(5) 0.4328(5)
H32 H -0.15520 -0.43950 0.46420
C33 C -0.0353(7) -0.5082(5) 0.4085(4)
C34 C 0.0541(9) -0.4991(5) 0.3619(5)
H33 H 0.09750 -0.54520 0.34500
C35 C 0.0802(8) -0.4236(5) 0.3402(5)
H34 H 0.14040 -0.41900 0.30840
C36 C -0.1730(8) -0.6744(6) 0.5050(6)
H35 H -0.23160 -0.67920 0.53830
C37 C -0.1506(8) -0.6002(5) 0.4810(5)
H36 H -0.19490 -0.55470 0.49800
C38 C -0.0657(7) -0.5894(5) 0.4329(5)
C39 C -0.0056(8) -0.6603(5) 0.4072(5)
H37 H 0.05130 -0.65720 0.37190
C40 C -0.0298(10) -0.7346(5) 0.4338(6)
H38 H 0.01290 -0.78130 0.41770
O52 O -0.1327(5) -0.0237(4) 0.5094(4)
N9 N -0.2336(6) -0.0168(5) 0.5085(4)
C41 C -0.2873(8) -0.0786(5) 0.5321(5)
H39 H -0.25360 -0.12580 0.55010
C42 C -0.3917(7) -0.0730(5) 0.5299(5)
H40 H -0.42770 -0.11640 0.54670
C43 C -0.4448(7) -0.0026(5) 0.5026(4)
C44 C -0.3870(8) 0.0604(5) 0.4817(4)
H41 H -0.41910 0.10910 0.46530
C45 C -0.2830(8) 0.0528(5) 0.4847(5)
H42 H -0.24590 0.09620 0.47010
O53 O -0.0020(6) -0.9327(4) 0.3933(4)
O54 O -0.3343(6) -0.4453(4) 0.4189(4)
N10 N -0.858(2) -0.8955(15) 0.1352(15)
C46 C -0.933(3) -0.8800(19) 0.1832(18)
C47 C -0.9979(19) -0.8405(13) 0.2323(13)
O55 O -0.1261(13) -0.8415(9) 0.0695(8)
O56 O -0.086(2) -0.0211(14) 0.0627(13)
O57 O 0.2959(19) -0.8331(13) 0.0169(12)
O58 O 0.1854(19) -0.8724(13) -0.0179(12)
Ho1* Ho -1.05099(3) -0.17282(2) 0.29478(2)
O47* O 0.1207(5) -0.1616(4) 0.2608(3)
O52A O -0.8673(5) 0.0237(4) 0.4906(4)
N9A N -0.7664(6) 0.0168(5) 0.4915(4)
C41A C -0.7127(8) 0.0786(5) 0.4679(5)
H39A H -0.74640 0.12580 0.44990
C42A C -0.6083(7) 0.0730(5) 0.4701(5)
H40A H -0.57230 0.11640 0.45330
C43A C -0.5552(7) 0.0026(5) 0.4974(4)
C44A C -0.6130(8) -0.0604(5) 0.5183(4)
H41A H -0.58090 -0.10910 0.53470
C45A C -0.7170(8) -0.0528(5) 0.5153(5)
H42A H -0.75410 -0.09620 0.52990
#END
