
#######################################################################
#
#                 Cambridge Crystallographic Data Centre
#                                CCDC
#
#######################################################################
#
# If this CIF has been generated from an entry in the Cambridge
# Structural Database, then it will include bibliographic, chemical,
# crystal, experimental, refinement or atomic coordinate data resulting
# from the CCDC's data processing and validation procedures.
#
#######################################################################

data_CSD_CIF_GIKREY
_audit_creation_date 2007-12-14
_audit_creation_method CSD-ConQuest-V1
_database_code_CSD GIKREY
_database_code_depnum_ccdc_archive 'CCDC 634959'
_chemical_formula_sum 'C10 H20 Cd4 N2 O24 P4'
_chemical_formula_moiety
;
(C2 H10 N2 2+)n,n(C8 H10 Cd4 O24 P4 2-)
;
_journal_coden_Cambridge 1295
_journal_volume 10
_journal_year 2007
_journal_page_first 1109
_journal_name_full 'Inorg.Chem.Commun. '
loop_
_publ_author_name
"Da-Peng Dong"
"Jing Li"
"Zhen-Gang Sun"
"Xue-Fang Zheng"
"Hui Chen"
"Lei Meng"
"Yan-Yu Zhu"
"Yan Zhao"
"Jing Zhang"
_chemical_name_systematic
;
catena-(Ethane-1,2-diammonium 
bis(\m~4~-2-hydroxyphosphonoacetato)-bis(\m~4~-2-hydroxy(hydrogen)phosphonoace
tato)-tetra-cadmium)
;
_cell_volume   2630.473
_exptl_crystal_colour 'colorless'
_exptl_crystal_density_diffrn 2.843
_exptl_crystal_description 'block'
_diffrn_ambient_temperature 295
#These two values have been output from a single CSD field.
_refine_ls_R_factor_gt 0.0595
_refine_ls_wR_factor_gt 0.0595
_symmetry_cell_setting monoclinic
_symmetry_space_group_name_H-M 'C 2/c'
_symmetry_Int_Tables_number 15
loop_
_symmetry_equiv_pos_site_id
_symmetry_equiv_pos_as_xyz
1 x,y,z
2 1/2+x,1/2+y,z
3 -x,y,1/2-z
4 1/2-x,1/2+y,1/2-z
5 -x,-y,-z
6 -1/2-x,-1/2-y,-z
7 x,-y,-1/2+z
8 -1/2+x,-1/2-y,-1/2+z
_cell_length_a 20.914(4)
_cell_length_b 5.7366(11)
_cell_length_c 21.963(4)
_cell_angle_alpha 90
_cell_angle_beta 93.365(3)
_cell_angle_gamma 90
_cell_formula_units_Z 4
loop_
_atom_type_symbol
_atom_type_radius_bond
C 0.68
H 0.23
Cd 1.57
N 0.68
O 0.68
P 1.05
loop_
_atom_site_label
_atom_site_type_symbol
_atom_site_fract_x
_atom_site_fract_y
_atom_site_fract_z
Cd1 Cd -0.18964(3) 1.31122(10) 0.23998(3)
Cd2 Cd 0.00010(3) 0.80129(10) 0.06264(3)
P1 P -0.20205(10) 0.8082(3) 0.15813(10)
P2 P -0.40817(10) 0.2034(3) 0.56579(10)
O1 O -0.2190(3) 1.0613(10) 0.1632(3)
O2 O -0.2742(3) 0.1627(10) 0.2896(3)
O3 O -0.2751(3) 0.2100(11) 0.4048(3)
H1 H -0.23620 0.22610 0.40990
O4 O -0.0892(3) 0.9477(10) 0.1185(3)
H2 H -0.092(5) 1.067(19) 0.144(5)
O5 O -0.3897(3) -0.1323(11) 0.3277(3)
O6 O -0.4415(3) 0.0099(10) 0.4033(3)
O7 O -0.3404(3) 0.2828(10) 0.5577(3)
O8 O -0.4567(3) 0.3623(10) 0.5320(3)
O9 O -0.4190(3) -0.0498(9) 0.5482(3)
O10 O -0.3815(3) 0.9439(10) 0.1801(3)
H3 H -0.39570 1.07560 0.17420
O11 O -0.4398(3) 0.365(1) 0.1529(3)
O12 O -0.3649(3) 0.5121(10) 0.2159(3)
N1 N 0.3361(6) 0.3015(19) -0.4824(6)
H4 H 0.37070 0.23110 -0.49520
H5 H 0.33550 0.28820 -0.44200
H6 H 0.33680 0.45170 -0.49250
C1 C -0.1148(4) 0.7807(13) 0.1580(4)
H7 H -0.40290 0.31270 0.30050
C2 C -0.4067(4) 0.0350(13) 0.3597(4)
C3 C -0.4224(4) 0.7777(13) 0.1480(4)
H8 H -0.46730 0.81590 0.15420
C4 C -0.4070(4) 0.5355(13) 0.1745(4)
C5 C 0.2808(5) 0.1963(16) -0.5099(5)
H9 H 0.28110 0.03170 -0.49990
H10 H 0.28190 0.21000 -0.55390
Cd1C Cd -0.31036(3) 0.81122(10) 0.26002(3)
Cd1* Cd -0.18964(3) 0.31122(10) 0.23998(3)
Cd1C* Cd -0.31036(3) -0.18878(10) 0.26002(3)
Cd1E Cd -0.31036(3) 0.18878(10) 0.76002(3)
Cd2C Cd -0.50010(3) 0.30129(10) 0.43736(3)
Cd2G Cd -0.49990(3) 0.69871(10) 0.56264(3)
Cd2G* Cd -0.49990(3) -0.30129(10) 0.56264(3)
Cd2A Cd -0.49990(3) 0.30129(10) 0.06264(3)
Cd2E Cd -0.50010(3) 0.69871(10) -0.06264(3)
Cd2A* Cd -0.49990(3) 1.30129(10) 0.06264(3)
P1C P -0.29795(10) 0.3082(3) 0.34187(10)
P2F P -0.40817(10) 0.7966(3) 0.06579(10)
O1C O -0.2810(3) 0.5613(10) 0.3368(3)
O2* O -0.2742(3) 1.1627(10) 0.2896(3)
O2C O -0.2258(3) 0.6627(10) 0.2104(3)
O2C* O -0.2258(3) 1.6627(10) 0.2104(3)
O3C O -0.2249(3) 0.7100(11) 0.0952(3)
H1C H -0.26380 0.72610 0.09010
O4C O -0.4108(3) 0.4477(10) 0.3815(3)
H2C H -0.408(5) 0.567(19) 0.356(5)
O5* O -0.3897(3) 0.8677(11) 0.3277(3)
O5C O -0.1103(3) 1.3677(11) 0.1723(3)
O5C* O -0.1103(3) 0.3677(11) 0.1723(3)
O6C O -0.0585(3) 0.5099(10) 0.0967(3)
O7F O -0.3404(3) 0.7172(10) 0.0577(3)
O8C O -0.0433(3) 0.8623(10) -0.0320(3)
O8G O 0.0433(3) 1.1377(10) 0.0320(3)
O8D O -0.5433(3) 0.6377(10) 0.4680(3)
O8F O -0.4567(3) 0.6377(10) 0.0320(3)
O9D O -0.5810(3) 0.0498(9) 0.4518(3)
O9G O 0.0810(3) 0.5498(9) 0.0482(3)
O9F O -0.4190(3) 1.0498(9) 0.0482(3)
O10C O -0.1185(3) 1.4439(10) 0.3199(3)
O10F O -0.3815(3) 0.0561(10) 0.6801(3)
H3C H -0.10430 1.57560 0.32580
H3F H -0.39570 -0.07560 0.67420
O11B O -0.5602(3) 0.365(1) 0.3471(3)
O11A O 0.0602(3) 0.865(1) 0.1529(3)
O11F O -0.4398(3) 0.635(1) 0.6529(3)
O12C O -0.1351(3) 1.0121(10) 0.2841(3)
O12F O -0.3649(3) 0.4879(10) 0.7159(3)
N1E N 0.1639(6) 0.1985(19) -0.5176(6)
H4E H 0.12930 0.26890 -0.50480
H5E H 0.16450 0.21180 -0.55800
H6E H 0.16320 0.04830 -0.50750
C1C C -0.3852(4) 0.2807(13) 0.3420(4)
H7C H -0.09710 0.81270 0.19950
C2C C -0.0933(4) 0.5350(13) 0.1403(4)
C3F C -0.4224(4) 0.2223(13) 0.6480(4)
H8F H -0.46730 0.18410 0.65420
C4F C -0.4070(4) 0.4645(13) 0.6745(4)
C5E C 0.2192(5) 0.3037(16) -0.4901(5)
H9E H 0.21890 0.46830 -0.50010
H10E H 0.21810 0.29000 -0.44610
#END
