
#######################################################################
#
#                 Cambridge Crystallographic Data Centre
#                                CCDC
#
#######################################################################
#
# If this CIF has been generated from an entry in the Cambridge
# Structural Database, then it will include bibliographic, chemical,
# crystal, experimental, refinement or atomic coordinate data resulting
# from the CCDC's data processing and validation procedures.
#
#######################################################################

data_CSD_CIF_GILFIT
_audit_creation_date 2018-09-21
_audit_creation_method CSD-ConQuest-V1
_database_code_CSD GILFIT
_database_code_depnum_ccdc_archive 'CCDC 1845585'
_chemical_formula_sum 'C50 H44 Cd1 N2 O10'
_chemical_formula_moiety
;
(C44 H22 Cd1 O8 2-)n,2(C2 H8 N1 1+),H2 O1,0.5(C4 H8 O2)
;
_journal_coden_Cambridge 1089
_journal_year 2018
_journal_page_first 1803401
_journal_name_full 'Adv.Mater. '
loop_
_publ_author_name
"Yejun Xiao"
"Yu Qi"
"Xiuli Wang"
"Xiaoyu Wang"
"Fuxiang Zhang"
"Can Li"
_chemical_name_systematic
;
catena-[bis(dimethylammonium) 
(\m-4,4',4'',4'''-(pyrene-1,3,6,8-tetrayl)tetrabenzoato)-cadmium(ii)  
1,4-dioxane solvate monohydrate]
;
_cell_volume   1133.608
_exptl_crystal_density_diffrn 1.385
_diffrn_ambient_temperature 293
_refine_special_details
;
C3AA,C5,O3 disordered by symmetry over two configurations with occupancy 
;
#These two values have been output from a single CSD field.
_refine_ls_R_factor_gt 0.0666
_refine_ls_wR_factor_gt 0.0666
_symmetry_cell_setting triclinic
_symmetry_space_group_name_H-M 'P -1'
_symmetry_Int_Tables_number 2
loop_
_symmetry_equiv_pos_site_id
_symmetry_equiv_pos_as_xyz
1 x,y,z
2 -x,-y,-z
_cell_length_a 7.6943(4)
_cell_length_b 10.7032(6)
_cell_length_c 15.4146(7)
_cell_angle_alpha 104.301(4)
_cell_angle_beta 94.915(4)
_cell_angle_gamma 110.230(5)
_cell_formula_units_Z 1
loop_
_atom_type_symbol
_atom_type_radius_bond
C 0.68
H 0.23
Cd 1.44
N 0.68
O 0.68
loop_
_atom_site_label
_atom_site_type_symbol
_atom_site_fract_x
_atom_site_fract_y
_atom_site_fract_z
Cd1 Cd -0.50000 0.00000 0.50000
O1 O -0.2246(7) -0.0344(5) 0.4464(3)
O2 O 1.2770(8) 0.8064(5) 0.4023(4)
O3 O -0.3987(7) 0.0381(6) 0.3662(3)
O4 O 1.4505(9) 0.6945(7) 0.4420(4)
C1 C 0.3229(8) -0.0029(6) 0.0783(4)
C2 C -0.1529(9) -0.0164(6) 0.3016(4)
C3 C 0.4304(9) 0.1260(6) 0.1480(4)
H1 H 0.37560 0.15620 0.19630
C4 C 0.1385(9) -0.0880(6) 0.0810(4)
C5 C 0.4056(8) -0.0423(6) 0.0021(4)
C6 C 0.6987(8) 0.1645(6) 0.0721(4)
C7 C 1.0085(9) 0.3635(6) 0.1499(4)
C8 C 0.8871(9) 0.2424(6) 0.0696(4)
C9 C 0.0422(8) -0.0580(6) 0.1595(4)
C10 C 0.6096(9) 0.2046(6) 0.1451(4)
H2 H 0.67560 0.28650 0.19190
C11 C 1.2244(9) 0.5847(7) 0.3039(5)
C12 C -0.2635(9) -0.0016(6) 0.3768(4)
C13 C -0.2350(9) -0.0382(7) 0.2128(4)
H3 H -0.35550 -0.03830 0.20030
C14 C 0.0286(9) -0.0127(7) 0.3190(4)
H4 H 0.08560 0.00330 0.37850
C15 C 0.0372(9) -0.2043(7) 0.0064(4)
H5 H -0.08610 -0.25830 0.00760
C16 C -0.1383(9) -0.0598(7) 0.1427(4)
H6 H -0.19550 -0.07580 0.08320
C17 C 1.3276(10) 0.7034(8) 0.3897(5)
C18 C 0.1256(9) -0.0324(6) 0.2493(4)
H7 H 0.24790 -0.02860 0.26220
C19 C 1.0376(11) 0.4992(7) 0.1524(5)
H8 H 0.98640 0.51750 0.10230
C20 C 1.1430(11) 0.6087(7) 0.2294(5)
H9 H 1.15900 0.69950 0.23090
C21 C 1.2051(12) 0.4506(8) 0.2996(5)
H10 H 1.26670 0.43370 0.34730
C22 C 1.0937(11) 0.3399(7) 0.2240(5)
H11 H 1.07620 0.24910 0.22320
O5 O -0.3941(17) 0.3155(12) 0.3771(8)
H12 H -0.35100 0.25440 0.38330
H13 H -0.50140 0.29680 0.39270
O6 O 0.6613(14) 0.5106(14) 0.0585(9)
C23 C 0.582(3) 0.4116(19) -0.0303(13)
H14 H 0.68410 0.41200 -0.06310
H15 H 0.52680 0.31960 -0.02250
C24 C 0.552(3) 0.569(2) 0.0837(15)
H16 H 0.63260 0.66150 0.12250
H17 H 0.48520 0.52020 0.12340
N1 N 0.1209(10) 0.2702(7) 0.5816(5)
H18 H 0.00010 0.23800 0.58880
H19 H 0.15590 0.19680 0.56760
C25 C 0.2355(14) 0.3651(11) 0.6682(7)
H20 H 0.36650 0.38860 0.66490
H21 H 0.20720 0.32130 0.71540
H22 H 0.20880 0.44830 0.68180
C26 C 0.1285(16) 0.3268(10) 0.5033(7)
H23 H 0.06150 0.25250 0.44850
H24 H 0.25760 0.37000 0.49800
H25 H 0.07140 0.39460 0.51230
O1A O 1.2246(7) 0.0344(5) -0.4464(3)
O2A O -0.2770(8) -0.8064(5) -0.4023(4)
O3A O 1.3987(7) -0.0381(6) -0.3662(3)
O4A O -0.4505(9) -0.6945(7) -0.4420(4)
C1A C 0.6771(8) 0.0029(6) -0.0783(4)
C2A C 1.1529(9) 0.0164(6) -0.3016(4)
C3A C 0.5696(9) -0.1260(6) -0.1480(4)
H1A H 0.62440 -0.15620 -0.19630
C4A C 0.8615(9) 0.0880(6) -0.0810(4)
C5A C 0.5944(8) 0.0423(6) -0.0021(4)
C6A C 0.3013(8) -0.1645(6) -0.0721(4)
C7A C -0.0085(9) -0.3635(6) -0.1499(4)
C8A C 0.1129(9) -0.2424(6) -0.0696(4)
C9A C 0.9578(8) 0.0580(6) -0.1595(4)
C10A C 0.3904(9) -0.2046(6) -0.1451(4)
H2A H 0.32440 -0.28650 -0.19190
C11A C -0.2244(9) -0.5847(7) -0.3039(5)
C12A C 1.2635(9) 0.0016(6) -0.3768(4)
C13A C 1.2350(9) 0.0382(7) -0.2128(4)
H3A H 1.35550 0.03830 -0.20030
C14A C 0.9714(9) 0.0127(7) -0.3190(4)
H4A H 0.91440 -0.00330 -0.37850
C15A C 0.9628(9) 0.2043(7) -0.0064(4)
H5A H 1.08610 0.25830 -0.00760
C16A C 1.1383(9) 0.0598(7) -0.1427(4)
H6A H 1.19550 0.07580 -0.08320
C17A C -0.3276(10) -0.7034(8) -0.3897(5)
C18A C 0.8744(9) 0.0324(6) -0.2493(4)
H7A H 0.75210 0.02860 -0.26220
C19A C -0.0376(11) -0.4992(7) -0.1524(5)
H8A H 0.01360 -0.51750 -0.10230
C20A C -0.1430(11) -0.6087(7) -0.2294(5)
H9A H -0.15900 -0.69950 -0.23090
C21A C -0.2051(12) -0.4506(8) -0.2996(5)
H10A H -0.26670 -0.43370 -0.34730
C22A C -0.0937(11) -0.3399(7) -0.2240(5)
H11A H -0.07620 -0.24910 -0.22320
Cd1* Cd -0.50000 -1.00000 -0.50000
Cd1** Cd 1.50000 0.00000 -0.50000
Cd1*** Cd 1.50000 1.00000 0.50000
O1A* O -0.7754(7) 0.0344(5) 0.5536(3)
O2* O -0.7230(8) -0.1936(5) 0.4023(4)
O2A* O -0.2770(8) 0.1936(5) 0.5977(4)
O3A* O -0.6013(7) -0.0381(6) 0.6338(3)
O6A O 0.3387(14) 0.4894(14) -0.0585(9)
C23A C 0.418(3) 0.5884(19) 0.0303(13)
H14A H 0.31590 0.58800 0.06310
H15A H 0.47320 0.68040 0.02250
C24A C 0.448(3) 0.431(2) -0.0837(15)
H16A H 0.36740 0.33850 -0.12250
H17A H 0.51480 0.47980 -0.12340
#END
