
#######################################################################
#
#                 Cambridge Crystallographic Data Centre
#                                CCDC
#
#######################################################################
#
# If this CIF has been generated from an entry in the Cambridge
# Structural Database, then it will include bibliographic, chemical,
# crystal, experimental, refinement or atomic coordinate data resulting
# from the CCDC's data processing and validation procedures.
#
#######################################################################

data_CSD_CIF_GINDAL
_audit_creation_date 2018-09-22
_audit_creation_method CSD-ConQuest-V1
_database_code_CSD GINDAL
_database_code_depnum_ccdc_archive 'CCDC 1856695'
_chemical_formula_sum 'C64 H60 Cd3 N6 O18'
_chemical_formula_moiety
;
C2 H8 N1 1+,n(C53 H29 Cd3 N2 O14 1-),3(C3 H7 N1 O1),H2 O1
;
_journal_coden_Cambridge 9
_journal_volume 57
_journal_year 2018
_journal_page_first 12961
_journal_name_full 'Inorg.Chem. '
loop_
_publ_author_name
"Lizhen Liu"
"Zizhu Yao"
"Yingxiang Ye"
"Liangji Chen"
"Quanjie Lin"
"Yisi Yang"
"Zhangjing Zhang"
"Shengchang Xiang"
_chemical_name_systematic
;
catena-[dimethylammonium 
bis(\m-4,4',4''-(pyridine-2,4,6-triyl)tribenzoato)-(\m-formato)-tri-cadmium(ii
) N,N-dimethylformamide solvate monohydrate]
;
_chemical_name_common
;
FJU-36
;
_cell_volume   7049.450
_exptl_crystal_density_diffrn 1.182
_diffrn_ambient_temperature 292.5
_refine_special_details
;
The MASK/OLEX2 program has been used to model some disordered cations and 
solvent molecules.
;
#These two values have been output from a single CSD field.
_refine_ls_R_factor_gt 0.0685
_refine_ls_wR_factor_gt 0.0685
_symmetry_cell_setting orthorhombic
_symmetry_space_group_name_H-M 'P b c n'
_symmetry_Int_Tables_number 60
loop_
_symmetry_equiv_pos_site_id
_symmetry_equiv_pos_as_xyz
1 x,y,z
2 1/2-x,1/2-y,1/2+z
3 1/2+x,1/2-y,-z
4 -x,y,1/2-z
5 -x,-y,-z
6 -1/2+x,-1/2+y,-1/2-z
7 -1/2-x,-1/2+y,z
8 x,-y,-1/2+z
_cell_length_a 16.7239(5)
_cell_length_b 32.8138(11)
_cell_length_c 12.8458(5)
_cell_angle_alpha 90
_cell_angle_beta 90
_cell_angle_gamma 90
_cell_formula_units_Z 4
loop_
_atom_type_symbol
_atom_type_radius_bond
C 0.68
H 0.23
Cd 1.44
N 0.68
O 0.68
loop_
_atom_site_label
_atom_site_type_symbol
_atom_site_fract_x
_atom_site_fract_y
_atom_site_fract_z
Cd1 Cd 0.50000 0.48541(2) 0.75000
O1 O -0.4416(3) 0.47071(16) 0.9237(4)
O2 O -0.3626(3) 0.52176(15) 0.9717(5)
O3 O 0.0175(4) 0.12812(18) 1.0017(7)
O4 O 0.3552(3) 0.49284(19) 0.7736(5)
O5 O 0.4160(3) 0.43733(18) 0.8290(4)
O6 O -0.1009(4) 0.12506(18) 0.9298(7)
C1 C -0.3738(4) 0.4854(2) 0.9500(6)
C2 C -0.0206(4) 0.4028(2) 0.8999(7)
H1 H -0.01760 0.43110 0.89830
C3 C 0.3511(5) 0.4575(3) 0.8083(6)
C4 C 0.2027(4) 0.4580(2) 0.8090(6)
H2 H 0.20430 0.48390 0.77950
C5 C -0.3021(4) 0.4578(2) 0.9493(6)
C6 C 0.2723(4) 0.4380(2) 0.8317(6)
C7 C -0.2411(4) 0.3932(2) 0.9109(7)
H3 H -0.24640 0.36630 0.88890
C8 C -0.3079(4) 0.4173(2) 0.9213(7)
H4 H -0.35810 0.40600 0.90910
C9 C -0.2276(5) 0.4732(2) 0.9737(7)
H5 H -0.22290 0.50000 0.99660
C10 C -0.1657(4) 0.4087(2) 0.9329(7)
C11 C -0.0407(7) 0.1450(3) 0.9603(11)
C12 C 0.1298(5) 0.4398(2) 0.8301(8)
H6 H 0.08290 0.45450 0.81980
C13 C 0.1968(4) 0.3803(3) 0.8878(8)
H7 H 0.19540 0.35390 0.91420
C14 C 0.1258(4) 0.4003(2) 0.8660(6)
C15 C -0.0922(4) 0.3842(2) 0.9177(8)
C16 C -0.1604(5) 0.4494(3) 0.9645(9)
H8 H -0.11050 0.46050 0.97960
N1 N -0.0973(4) 0.3420(2) 0.9202(9)
C17 C 0.2689(5) 0.3988(3) 0.8711(8)
H9 H 0.31600 0.38500 0.88650
C18 C 0.0466(4) 0.3801(2) 0.8846(8)
C19 C 0.0430(4) 0.3383(2) 0.8875(8)
H10 H 0.08900 0.32290 0.87700
C20 C -0.0277(5) 0.3196(3) 0.9057(10)
C21 C 0.0300(6) 0.2108(3) 0.9590(14)
H11 H 0.07540 0.19710 0.98170
C22 C 0.0329(7) 0.2532(3) 0.9440(14)
H12 H 0.08120 0.26670 0.95420
C23 C -0.0309(6) 0.2747(3) 0.9158(15)
C24 C -0.0978(6) 0.2530(3) 0.8876(14)
H13 H -0.14170 0.26670 0.86030
C25 C -0.1012(7) 0.2099(3) 0.8993(14)
H14 H -0.14650 0.19560 0.87890
C26 C -0.0372(7) 0.1899(3) 0.9410(15)
Cd2 Cd 0.46164(3) 0.56530(2) 0.50135(5)
O7 O 0.5044(4) 0.55087(16) 0.6665(4)
C27 C 0.50000 0.5693(3) 0.75000
H15 H 0.50000 0.59760 0.75000
O7C O 0.4956(4) 0.55087(16) 0.8335(4)
O1C O 0.4416(3) 0.47071(16) 0.5763(4)
O2C O 0.3626(3) 0.52176(15) 0.5283(5)
O3C O -0.0175(4) 0.12812(18) 0.4983(7)
O4C O -0.3552(3) 0.49284(19) 0.7264(5)
O5C O -0.4160(3) 0.43733(18) 0.6710(4)
O6C O 0.1009(4) 0.12506(18) 0.5702(7)
C1C C 0.3738(4) 0.4854(2) 0.5500(6)
C2C C 0.0206(4) 0.4028(2) 0.6001(7)
H1C H 0.01760 0.43110 0.60170
C3C C -0.3511(5) 0.4575(3) 0.6917(6)
C4C C -0.2027(4) 0.4580(2) 0.6910(6)
H2C H -0.20430 0.48390 0.72050
C5C C 0.3021(4) 0.4578(2) 0.5507(6)
C6C C -0.2723(4) 0.4380(2) 0.6683(6)
C7C C 0.2411(4) 0.3932(2) 0.5891(7)
H3C H 0.24640 0.36630 0.61110
C8C C 0.3079(4) 0.4173(2) 0.5787(7)
H4C H 0.35810 0.40600 0.59090
C9C C 0.2276(5) 0.4732(2) 0.5263(7)
H5C H 0.22290 0.50000 0.50340
C10C C 0.1657(4) 0.4087(2) 0.5671(7)
C11C C 0.0407(7) 0.1450(3) 0.5397(11)
C12C C -0.1298(5) 0.4398(2) 0.6699(8)
H6C H -0.08290 0.45450 0.68020
C13C C -0.1968(4) 0.3803(3) 0.6122(8)
H7C H -0.19540 0.35390 0.58580
C14C C -0.1258(4) 0.4003(2) 0.6340(6)
C15C C 0.0922(4) 0.3842(2) 0.5823(8)
C16C C 0.1604(5) 0.4494(3) 0.5355(9)
H8C H 0.11050 0.46050 0.52040
N1C N 0.0973(4) 0.3420(2) 0.5798(9)
C17C C -0.2689(5) 0.3988(3) 0.6289(8)
H9C H -0.31600 0.38500 0.61350
C18C C -0.0466(4) 0.3801(2) 0.6154(8)
C19C C -0.0430(4) 0.3383(2) 0.6125(8)
H10C H -0.08900 0.32290 0.62300
C20C C 0.0277(5) 0.3196(3) 0.5943(10)
C21C C -0.0300(6) 0.2108(3) 0.5410(14)
H11C H -0.07540 0.19710 0.51830
C22C C -0.0329(7) 0.2532(3) 0.5560(14)
H12C H -0.08120 0.26670 0.54580
C23C C 0.0309(6) 0.2747(3) 0.5842(15)
C24C C 0.0978(6) 0.2530(3) 0.6124(14)
H13C H 0.14170 0.26670 0.63970
C25C C 0.1012(7) 0.2099(3) 0.6007(14)
H14C H 0.14650 0.19560 0.62110
C26C C 0.0372(7) 0.1899(3) 0.5590(15)
Cd2C Cd -0.46164(3) 0.56530(2) 0.99865(5)
Cd1* Cd -0.50000 0.48541(2) 0.75000
O1* O 0.5584(3) 0.47071(16) 0.9237(4)
O1D O -0.5584(3) 0.52929(16) 1.0763(4)
O1G O 0.5584(3) 0.52929(16) 0.4237(4)
O3E O 0.5175(4) 0.62812(18) 0.4983(7)
O3F O -0.5175(4) 0.62812(18) 1.0017(7)
O4C* O 0.6448(3) 0.49284(19) 0.7264(5)
O5C* O 0.5840(3) 0.43733(18) 0.6710(4)
O5D O -0.4160(3) 0.56267(18) 1.1710(4)
O5G O 0.4160(3) 0.56267(18) 0.3290(4)
O6E O 0.3991(4) 0.62506(18) 0.5702(7)
O6F O -0.3991(4) 0.62506(18) 0.9298(7)
Cd2C* Cd 0.53836(3) 0.56530(2) 0.99865(5)
Cd2D Cd -0.46164(3) 0.43470(2) 0.49865(5)
Cd2D* Cd 0.53836(3) 0.43470(2) 0.49865(5)
Cd2E Cd -0.03836(3) 0.06530(2) 0.99865(5)
Cd2F Cd 0.03836(3) 0.06530(2) 0.50135(5)
Cd2G Cd -0.53836(3) 0.43470(2) 1.00135(5)
Cd2G* Cd 0.46164(3) 0.43470(2) 1.00135(5)
O7C* O -0.5044(4) 0.55087(16) 0.8335(4)
#END
