
#######################################################################
#
#                 Cambridge Crystallographic Data Centre
#                                CCDC
#
#######################################################################
#
# If this CIF has been generated from an entry in the Cambridge
# Structural Database, then it will include bibliographic, chemical,
# crystal, experimental, refinement or atomic coordinate data resulting
# from the CCDC's data processing and validation procedures.
#
#######################################################################

data_CSD_CIF_GINHOD
_audit_creation_date 2018-09-22
_audit_creation_method CSD-ConQuest-V1
_database_code_CSD GINHOD
_database_code_depnum_ccdc_archive 'CCDC 1818795'
_chemical_formula_sum 'C126 H126 Mn12 N12 O48 S3'
_chemical_formula_moiety
;
(C72 H24 Mn12 O48 S3 6-)n,6(C9 H17 N2 1+)
;
_journal_coden_Cambridge 182
_journal_volume 54
_journal_year 2018
_journal_page_first 11272
_journal_name_full 'Chem.Commun. '
loop_
_publ_author_name
"Huajun Yang"
"Min Luo"
"Zhou Wu"
"Wei Wang"
"Chaozhuang Xue"
"Tao Wu"
_chemical_name_systematic
;
catena-[hexakis(2,3,4,6,7,8,9,10-octahydropyrimido[1,2-a]azepin-1-ium) 
octakis(\m-benzene-1,3,5-tricarboxylato)-tris(\m-sulfido)-dodeca-manganese(ii)
 unknown solvate]
;
_chemical_name_common
;
MCOF-89
;
_cell_volume   3987.381
_exptl_crystal_colour 'colorless'
_exptl_crystal_density_diffrn 0.995
_exptl_crystal_description 'cubic'
_diffrn_ambient_temperature 296
_refine_special_details
;
Disordered cations and solvent molecules were not modelled and the disordered 
density was taken into account using the SQUEEZE/PLATON procedure.
;
#These two values have been output from a single CSD field.
_refine_ls_R_factor_gt 0.0347
_refine_ls_wR_factor_gt 0.0347
_symmetry_cell_setting cubic
_symmetry_space_group_name_H-M 'P m -3 m'
_symmetry_Int_Tables_number 221
loop_
_symmetry_equiv_pos_site_id
_symmetry_equiv_pos_as_xyz
1 x,y,z
2 -x,-y,z
3 -x,y,-z
4 x,-y,-z
5 z,x,y
6 z,-x,-y
7 -z,-x,y
8 -z,x,-y
9 y,z,x
10 -y,z,-x
11 y,-z,-x
12 -y,-z,x
13 y,x,-z
14 -y,-x,-z
15 y,-x,z
16 -y,x,z
17 x,z,-y
18 -x,z,y
19 -x,-z,-y
20 x,-z,y
21 z,y,-x
22 z,-y,x
23 -z,y,x
24 -z,-y,-x
25 -x,-y,-z
26 x,y,-z
27 x,-y,z
28 -x,y,z
29 -z,-x,-y
30 -z,x,y
31 z,x,-y
32 z,-x,y
33 -y,-z,-x
34 y,-z,x
35 -y,z,x
36 y,z,-x
37 -y,-x,z
38 y,x,z
39 -y,x,-z
40 y,-x,-z
41 -x,-z,y
42 x,-z,-y
43 x,z,y
44 -x,z,-y
45 -z,-y,x
46 -z,y,-x
47 z,-y,-x
48 z,y,x
_cell_length_a 15.8573(6)
_cell_length_b 15.8573(6)
_cell_length_c 15.8573(6)
_cell_angle_alpha 90
_cell_angle_beta 90
_cell_angle_gamma 90
_cell_formula_units_Z 1
loop_
_atom_type_symbol
_atom_type_radius_bond
C 0.68
Mn 1.61
O 0.68
S 1.02
loop_
_atom_site_label
_atom_site_type_symbol
_atom_site_fract_x
_atom_site_fract_y
_atom_site_fract_z
C1 C 0.26463(16) 0.26463(16) 0.1574(2)
Mn1 Mn 0.00000 0.50000 0.15384(4)
S1 S 0.00000 0.50000 0.00000
C2 C 0.15365(16) 0.3780(2) 0.15365(16)
O1 O 0.08958(12) 0.40694(13) 0.18885(13)
C3 C 0.19308(15) 0.3004(2) 0.19308(15)
C1D C 0.15740(16) 0.26463(16) 0.26463(20)
C2D C 0.15365(16) 0.15365(20) 0.37800(16)
O1D O 0.18885(12) 0.08958(13) 0.40694(13)
C3D C 0.19308(15) 0.19308(20) 0.30040(15)
C1H C 0.26463(16) 0.15740(16) 0.26463(20)
C2H C 0.37800(16) 0.15365(20) 0.15365(16)
O1H O 0.40694(12) 0.18885(13) 0.08958(13)
C3H C 0.30040(15) 0.19308(20) 0.19308(15)
O1KA O 0.40694(12) 0.08958(13) 0.18885(13)
O1PA O 0.08958(12) 0.18885(13) 0.40694(13)
O1UA O 0.18885(12) 0.40694(13) 0.08958(13)
C1B C -0.26463(16) 0.26463(16) -0.1574(2)
Mn1B Mn 0.00000 0.50000 -0.15384(4)
C2B C -0.15365(16) 0.3780(2) -0.15365(16)
O1B O -0.08958(12) 0.40694(13) -0.18885(13)
C3B C -0.19308(15) 0.3004(2) -0.19308(15)
C1G C -0.15740(16) 0.26463(16) -0.26463(20)
C2G C -0.15365(16) 0.15365(20) -0.37800(16)
O1G O -0.18885(12) 0.08958(13) -0.40694(13)
C3G C -0.19308(15) 0.19308(20) -0.30040(15)
C1I C -0.26463(16) 0.15740(16) -0.26463(20)
C2I C -0.37800(16) 0.15365(20) -0.15365(16)
O1I O -0.40694(12) 0.18885(13) -0.08958(13)
C3I C -0.30040(15) 0.19308(20) -0.19308(15)
O1LA O -0.40694(12) 0.08958(13) -0.18885(13)
O1QA O -0.08958(12) 0.18885(13) -0.40694(13)
O1SA O -0.18885(12) 0.40694(13) -0.08958(13)
Mn1D Mn 0.15384 0.00000 0.50000(4)
S1D S 0.00000 0.00000 0.50000
C1F C -0.15740(16) -0.26463(16) 0.26463(20)
Mn1F Mn -0.15384 0.00000 0.50000(4)
C2F C -0.15365(16) -0.15365(20) 0.37800(16)
O1F O -0.18885(12) -0.08958(13) 0.40694(13)
C3F C -0.19308(15) -0.19308(20) 0.30040(15)
C1K C -0.26463(16) -0.15740(16) 0.26463(20)
C2K C -0.37800(16) -0.15365(20) 0.15365(16)
O1K O -0.40694(12) -0.18885(13) 0.08958(13)
C3K C -0.30040(15) -0.19308(20) 0.19308(15)
C1A C -0.26463(16) -0.26463(16) 0.1574(2)
C2A C -0.15365(16) -0.3780(2) 0.15365(16)
O1A O -0.08958(12) -0.40694(13) 0.18885(13)
C3A C -0.19308(15) -0.3004(2) 0.19308(15)
O1RA O -0.18885(12) -0.40694(13) 0.08958(13)
O1JA O -0.40694(12) -0.08958(13) 0.18885(13)
O1NA O -0.08958(12) -0.18885(13) 0.40694(13)
Mn1F* Mn -0.15384 0.00000 -0.50000(4)
S1D* S 0.00000 0.00000 -0.50000
Mn1H Mn 0.50000 0.15384 0.00000(4)
Mn1H* Mn -0.50000 0.15384 0.00000(4)
C1J C 0.26463(16) -0.15740(16) -0.26463(20)
Mn1J Mn 0.50000 -0.15384 0.00000(4)
C2J C 0.37800(16) -0.15365(20) -0.15365(16)
O1J O 0.40694(12) -0.18885(13) -0.08958(13)
C3J C 0.30040(15) -0.19308(20) -0.19308(15)
C1C C 0.26463(16) -0.26463(16) -0.1574(2)
C2C C 0.15365(16) -0.3780(2) -0.15365(16)
O1C O 0.08958(12) -0.40694(13) -0.18885(13)
C3C C 0.19308(15) -0.3004(2) -0.19308(15)
C1E C 0.15740(16) -0.26463(16) -0.26463(20)
C2E C 0.15365(16) -0.15365(20) -0.37800(16)
O1E O 0.18885(12) -0.08958(13) -0.40694(13)
C3E C 0.19308(15) -0.19308(20) -0.30040(15)
O1OA O 0.08958(12) -0.18885(13) -0.40694(13)
O1TA O 0.18885(12) -0.40694(13) -0.08958(13)
O1MA O 0.40694(12) -0.08958(13) -0.18885(13)
Mn1J* Mn -0.50000 -0.15384 0.00000(4)
C1L C 0.26463(16) 0.26463(16) -0.1574(2)
C2L C 0.37800(16) 0.15365(20) -0.15365(16)
O1L O 0.40694(12) 0.08958(13) -0.18885(13)
C3L C 0.30040(15) 0.19308(20) -0.19308(15)
C1P C 0.26463(16) 0.15740(16) -0.26463(20)
C2P C 0.15365(16) 0.15365(20) -0.37800(16)
O1P O 0.08958(12) 0.18885(13) -0.40694(13)
C3P C 0.19308(15) 0.19308(20) -0.30040(15)
C1T C 0.15740(16) 0.26463(16) -0.26463(20)
C2T C 0.15365(16) 0.3780(2) -0.15365(16)
O1T O 0.18885(12) 0.40694(13) -0.08958(13)
C3T C 0.19308(15) 0.3004(2) -0.19308(15)
O1Y O 0.08958(12) 0.40694(13) -0.18885(13)
O1DA O 0.18885(12) 0.08958(13) -0.40694(13)
O1IA O 0.40694(12) 0.18885(13) -0.08958(13)
C1L* C 0.26463(16) 0.26463(16) 0.8426(2)
C2L* C 0.37800(16) 0.15365(20) 0.84635(16)
O1L* O 0.40694(12) 0.08958(13) 0.81115(13)
C3L* C 0.30040(15) 0.19308(20) 0.80692(15)
C1P* C 0.26463(16) 0.15740(16) 0.73537(20)
C2P* C 0.15365(16) 0.15365(20) 0.62200(16)
O1P* O 0.08958(12) 0.18885(13) 0.59306(13)
C3P* C 0.19308(15) 0.19308(20) 0.69960(15)
C1T* C 0.15740(16) 0.26463(16) 0.73537(20)
C2T* C 0.15365(16) 0.3780(2) 0.84635(16)
O1T* O 0.18885(12) 0.40694(13) 0.91042(13)
C3T* C 0.19308(15) 0.3004(2) 0.80692(15)
O1Y* O 0.08958(12) 0.40694(13) 0.81115(13)
O1DA* O 0.18885(12) 0.08958(13) 0.59306(13)
O1IA* O 0.40694(12) 0.18885(13) 0.91042(13)
C1N C 0.26463(16) -0.26463(16) 0.1574(2)
C2N C 0.37800(16) -0.15365(20) 0.15365(16)
O1N O 0.40694(12) -0.08958(13) 0.18885(13)
C3N C 0.30040(15) -0.19308(20) 0.19308(15)
C1S C 0.26463(16) -0.15740(16) 0.26463(20)
C2S C 0.15365(16) -0.15365(20) 0.37800(16)
O1S O 0.08958(12) -0.18885(13) 0.40694(13)
C3S C 0.19308(15) -0.19308(20) 0.30040(15)
C1U C 0.15740(16) -0.26463(16) 0.26463(20)
C2U C 0.15365(16) -0.3780(2) 0.15365(16)
O1U O 0.18885(12) -0.40694(13) 0.08958(13)
C3U C 0.19308(15) -0.3004(2) 0.19308(15)
O1Z O 0.08958(12) -0.40694(13) 0.18885(13)
O1EA O 0.18885(12) -0.08958(13) 0.40694(13)
O1GA O 0.40694(12) -0.18885(13) 0.08958(13)
C1N* C 0.26463(16) 0.73537(16) 0.1574(2)
C2N* C 0.37800(16) 0.84635(20) 0.15365(16)
O1N* O 0.40694(12) 0.91042(13) 0.18885(13)
C3N* C 0.30040(15) 0.80692(20) 0.19308(15)
C1S* C 0.26463(16) 0.84260(16) 0.26463(20)
C2S* C 0.15365(16) 0.84635(20) 0.37800(16)
O1S* O 0.08958(12) 0.81115(13) 0.40694(13)
C3S* C 0.19308(15) 0.80692(20) 0.30040(15)
C1U* C 0.15740(16) 0.73537(16) 0.26463(20)
C2U* C 0.15365(16) 0.6220(2) 0.15365(16)
O1U* O 0.18885(12) 0.59306(13) 0.08958(13)
C3U* C 0.19308(15) 0.6996(2) 0.19308(15)
O1Z* O 0.08958(12) 0.59306(13) 0.18885(13)
O1EA* O 0.18885(12) 0.91042(13) 0.40694(13)
O1GA* O 0.40694(12) 0.81115(13) 0.08958(13)
Mn1P Mn 0.00000 0.15384 0.50000(4)
Mn1V Mn -0.15384 0.50000 0.00000(4)
Mn1T Mn 0.15384 0.50000 0.00000(4)
Mn1* Mn 0.00000 -0.50000 0.15384(4)
Mn1B* Mn 0.00000 -0.50000 -0.15384(4)
Mn1B** Mn 0.00000 0.50000 0.84616(4)
Mn1D* Mn 0.15384 0.00000 -0.50000(4)
Mn1D** Mn 0.15384 1.00000 0.50000(4)
Mn1H** Mn 0.50000 0.15384 1.00000(4)
Mn1J** Mn 0.50000 0.84616 0.00000(4)
Mn1L Mn -0.50000 0.00000 -0.15384(4)
Mn1L* Mn 0.50000 0.00000 -0.15384(4)
Mn1L** Mn 0.50000 0.00000 0.84616(4)
Mn1N Mn -0.50000 0.00000 0.15384(4)
Mn1N* Mn 0.50000 0.00000 0.15384(4)
Mn1N** Mn 0.50000 1.00000 0.15384(4)
Mn1P* Mn 0.00000 0.15384 -0.50000(4)
Mn1R Mn 0.00000 -0.15384 -0.50000(4)
Mn1R* Mn 0.00000 -0.15384 0.50000(4)
Mn1R** Mn 0.00000 0.84616 0.50000(4)
Mn1T* Mn 0.15384 -0.50000 0.00000(4)
Mn1T** Mn 0.15384 0.50000 1.00000(4)
Mn1V* Mn -0.15384 -0.50000 0.00000(4)
S1H S -0.50000 0.00000 0.00000
S1H* S 0.50000 0.00000 0.00000
O1A* O -0.08958(12) 0.59306(13) 0.18885(13)
O1C* O 0.08958(12) 0.59306(13) -0.18885(13)
O1E* O 0.18885(12) -0.08958(13) 0.59306(13)
O1F* O -0.18885(12) -0.08958(13) -0.59306(13)
O1G* O -0.18885(12) 0.08958(13) 0.59306(13)
O1H* O -0.59306(12) 0.18885(13) 0.08958(13)
O1I* O 0.59306(12) 0.18885(13) -0.08958(13)
O1J* O -0.59306(12) -0.18885(13) -0.08958(13)
O1K* O 0.59306(12) -0.18885(13) 0.08958(13)
O1Q O -0.08958(12) 0.18885(13) 0.40694(13)
O1V O -0.18885(12) 0.40694(13) 0.08958(13)
O1W O -0.18885(12) 0.59306(13) -0.08958(13)
O1X O -0.08958(12) 0.59306(13) -0.18885(13)
O1AA O -0.08958(12) 0.40694(13) 0.18885(13)
O1BA O -0.18885(12) -0.08958(13) -0.40694(13)
O1BA* O -0.18885(12) -0.08958(13) 0.59306(13)
O1CA O -0.18885(12) 0.08958(13) -0.59306(13)
O1CA* O -0.18885(12) 0.08958(13) 0.40694(13)
O1FA O -0.40694(12) -0.18885(13) -0.08958(13)
O1FA* O 0.59306(12) -0.18885(13) -0.08958(13)
O1GA** O -0.59306(12) -0.18885(13) 0.08958(13)
O1HA O -0.40694(12) 0.18885(13) 0.08958(13)
O1HA* O 0.59306(12) 0.18885(13) 0.08958(13)
O1IA** O -0.59306(12) 0.18885(13) -0.08958(13)
O1QA* O -0.08958(12) 0.18885(13) 0.59306(13)
O1RA* O -0.18885(12) 0.59306(13) 0.08958(13)
O1TA* O 0.18885(12) 0.59306(13) -0.08958(13)
#END
