
#######################################################################
#
#                 Cambridge Crystallographic Data Centre
#                                CCDC
#
#######################################################################
#
# If this CIF has been generated from an entry in the Cambridge
# Structural Database, then it will include bibliographic, chemical,
# crystal, experimental, refinement or atomic coordinate data resulting
# from the CCDC's data processing and validation procedures.
#
#######################################################################

data_CSD_CIF_GIPDUF
_audit_creation_date 2008-03-13
_audit_creation_method CSD-ConQuest-V1
_database_code_CSD GIPDUF
_database_code_depnum_ccdc_archive 'CCDC 635454'
_chemical_formula_sum 'C56 H92 Mn3 N2 O54 S8'
_chemical_formula_moiety
;
(C56 H64 Mn3 O44 S8 2-)n,2n(H4 N1 1+),10n(H2 O1)
;
_journal_coden_Cambridge 1295
_journal_volume 10
_journal_year 2007
_journal_page_first 1257
_journal_name_full 'Inorg.Chem.Commun. '
loop_
_publ_author_name
"Rong-Guang Lin"
"La-Sheng Long"
"Rong-Bin Huang"
"Lan-Sun Zheng"
_chemical_name_systematic
;
catena-(bis(Ammonium) 
bis(\m~3~-5,11,17,23-tetrasulfato-25,26,27,28-tetrahydroxypentacyclo(19.3.1.1^
3,7^.1^9,13^.1^15,19^)octacosa-1(25),3,5,7(28),9,11,13(27),15,17,19(26),21,23-
dodecaene)-dodeca-aqua-tri-manganese(ii) decahydrate)
;
_chemical_name_common
;
catena-(bis(Ammonium) 
bis(mu!3$-5,11,17,23-tetrasulfato-25,26,27,28-tetrahydroxycalix(4)arene)-dodec
a-aqua-tri-manganese(ii) decahydrate)
;
_cell_volume   2011.188
_exptl_crystal_colour 'pink'
_exptl_crystal_density_diffrn 1.715
_exptl_special_details
;
The calix(4)arene molecules have cone-like conformations

;
_exptl_crystal_description 'block'
_diffrn_ambient_temperature 298
#These two values have been output from a single CSD field.
_refine_ls_R_factor_gt 0.0714
_refine_ls_wR_factor_gt 0.0714
_symmetry_cell_setting triclinic
_symmetry_space_group_name_H-M 'P -1'
_symmetry_Int_Tables_number 2
loop_
_symmetry_equiv_pos_site_id
_symmetry_equiv_pos_as_xyz
1 x,y,z
2 -x,-y,-z
_cell_length_a 11.458(4)
_cell_length_b 12.694(4)
_cell_length_c 14.918(5)
_cell_angle_alpha 79.087(6)
_cell_angle_beta 70.957(6)
_cell_angle_gamma 89.248(6)
_cell_formula_units_Z 1
loop_
_atom_type_symbol
_atom_type_radius_bond
C 0.68
H 0.23
Mn 1.35
N 0.68
O 0.68
S 1.02
loop_
_atom_site_label
_atom_site_type_symbol
_atom_site_fract_x
_atom_site_fract_y
_atom_site_fract_z
Mn1 Mn 1.00000 1.00000 0.00000
Mn2 Mn 1.38256(6) 0.79083(5) 0.19298(5)
S1 S 1.09236(10) 0.85386(8) 0.18933(8)
S2 S 1.17163(12) 1.45566(10) 0.10031(8)
S3 S 0.64312(11) 1.70271(9) 0.23559(9)
S4 S 0.51152(10) 1.15266(9) 0.16691(8)
C1 C 1.0193(4) 0.9344(3) 0.2738(3)
C2 C 0.8919(4) 0.9230(3) 0.3174(3)
H1 H 0.84620 0.87530 0.30000
C3 C 0.8324(4) 0.9820(3) 0.3864(3)
C4 C 0.9042(4) 1.0522(3) 0.4125(3)
C5 C 1.0316(4) 1.0646(3) 0.3688(3)
C6 C 1.0884(4) 1.0050(3) 0.2985(3)
H2 H 1.17350 1.01290 0.26800
C7 C 1.1061(4) 1.1429(3) 0.3959(3)
H3 H 1.19340 1.13120 0.36870
H4 H 1.08460 1.13010 0.46570
C8 C 1.1131(4) 1.4051(3) 0.2254(3)
C9 C 1.1337(4) 1.3007(3) 0.2622(3)
H5 H 1.18270 1.25890 0.22100
C10 C 1.0824(4) 1.2585(3) 0.3591(3)
C11 C 1.0084(4) 1.3229(3) 0.4200(3)
C12 C 0.9860(4) 1.4278(3) 0.3828(3)
C13 C 1.0404(4) 1.4674(3) 0.2860(3)
H6 H 1.02800 1.53780 0.26060
C14 C 0.8975(4) 1.4977(3) 0.4437(3)
H7 H 0.87770 1.46630 0.51180
H8 H 0.93630 1.56870 0.43210
C15 C 0.6603(4) 1.5957(3) 0.3236(3)
C16 C 0.7630(4) 1.5937(3) 0.3528(3)
H9 H 0.82100 1.65150 0.32880
C17 C 0.7803(4) 1.5064(3) 0.4175(3)
C18 C 0.6916(4) 1.4206(3) 0.4539(3)
C19 C 0.5874(4) 1.4216(3) 0.4241(3)
C20 C 0.5743(4) 1.5104(3) 0.3591(3)
H10 H 0.50550 1.51260 0.33880
C21 C 0.4938(4) 1.3274(3) 0.4606(3)
H11 H 0.41590 1.35180 0.45380
H12 H 0.48000 1.30160 0.52890
C22 C 0.5438(4) 1.1509(3) 0.2741(3)
C23 C 0.5082(4) 1.2346(3) 0.3235(3)
H13 H 0.46720 1.29090 0.29940
C24 C 0.5328(4) 1.2352(3) 0.4078(3)
C25 C 0.5966(4) 1.1509(3) 0.4436(3)
C26 C 0.6275(4) 1.0640(3) 0.3957(3)
C27 C 0.6007(4) 1.0656(3) 0.3114(3)
H14 H 0.62130 1.00820 0.27950
C28 C 0.6939(4) 0.9703(3) 0.4336(3)
H15 H 0.67400 0.96410 0.50280
H16 H 0.66370 0.90440 0.42260
O1 O 1.0504(3) 0.8836(3) 0.1059(2)
O2 O 0.8135(4) 0.9777(4) 0.0981(3)
H17 H 0.763(6) 1.013(5) 0.096(4)
H18 H 0.796(8) 0.918(8) 0.133(7)
O3 O 1.2243(3) 0.8762(3) 0.1641(2)
O4 O 1.0403(4) 1.1318(3) 0.0609(3)
H19 H 1.110(7) 1.142(6) 0.063(5)
H20 H 0.972(7) 1.153(6) 0.115(6)
O5 O 1.3916(5) 0.6887(3) 0.0890(3)
H21 H 1.416(6) 0.714(6) 0.037(5)
H22 H 1.329(6) 0.662(5) 0.096(5)
O6 O 1.0543(3) 0.7435(3) 0.2356(2)
O7 O 0.8544(3) 1.1084(3) 0.4830(2)
H23 H 0.78170 1.11790 0.48830
O8 O 1.2493(4) 0.6715(3) 0.3051(3)
H24 H 1.188(5) 0.680(4) 0.305(4)
H25 H 1.247(6) 0.673(5) 0.352(5)
O9 O 1.3732(4) 0.8952(4) 0.2921(3)
H26 H 1.379(6) 0.950(6) 0.274(5)
H27 H 1.391(6) 0.880(5) 0.336(5)
O10 O 1.0739(5) 1.4365(4) 0.0635(3)
O11 O 1.5182(4) 0.8952(4) 0.0791(3)
H28 H 1.528(5) 0.950(5) 0.080(4)
H29 H 1.566(7) 0.871(6) 0.045(5)
O12 O 1.2809(5) 1.4000(4) 0.0628(3)
O13 O 1.2794(3) 1.1759(3) 0.0515(3)
O14 O 1.1949(4) 1.5699(3) 0.0879(3)
O15 O 0.9592(3) 1.2846(2) 0.5170(2)
H30 H 0.91980 1.22780 0.52670
O16 O 0.8048(7) 0.4218(6) 0.1800(6)
O17 O 0.7107(5) 1.6736(5) 0.1433(3)
O18 O 0.9694(5) 0.6710(4) 0.0735(4)
O19 O 0.6925(6) 1.7967(3) 0.2464(4)
O20 O 0.3476(5) 0.4704(4) 0.2732(4)
O21 O 0.5154(4) 1.6994(3) 0.2447(3)
O22 O 0.8717(6) 1.2068(5) 0.2071(5)
O23 O 0.7078(3) 1.3382(2) 0.5195(2)
H31 H 0.78170 1.33390 0.51200
N1 N 1.5789(7) 0.4791(5) 0.1225(4)
H32 H 1.56190 0.41150 0.11830
H33 H 1.62290 0.51510 0.06310
H34 H 1.62240 0.47830 0.16320
H35 H 1.50830 0.51170 0.14600
O24 O 0.5999(3) 1.0863(3) 0.1120(3)
O25 O 0.3863(3) 1.1066(3) 0.1947(3)
O26 O 0.5205(4) 1.2626(3) 0.1168(3)
O27 O 0.6287(3) 1.1533(2) 0.5210(2)
H36 H 0.65430 1.21420 0.51830
Mn2A Mn 0.61744(6) 1.20917(5) -0.19298(5)
Mn2* Mn 0.38256(6) 1.79083(5) 0.19298(5)
Mn2A* Mn 1.61744(6) 0.20917(5) -0.19298(5)
S1A S 0.90764(10) 1.14614(8) -0.18933(8)
S2A S 0.82837(12) 0.54434(10) -0.10031(8)
S3A S 1.35688(11) 0.29729(9) -0.23559(9)
S4A S 1.48848(10) 0.84734(9) -0.16691(8)
C1A C 0.9807(4) 1.0656(3) -0.2738(3)
C2A C 1.1081(4) 1.0770(3) -0.3174(3)
H1A H 1.15380 1.12470 -0.30000
C3A C 1.1676(4) 1.0180(3) -0.3864(3)
C4A C 1.0958(4) 0.9478(3) -0.4125(3)
C5A C 0.9684(4) 0.9354(3) -0.3688(3)
C6A C 0.9116(4) 0.9950(3) -0.2985(3)
H2A H 0.82650 0.98710 -0.26800
C7A C 0.8939(4) 0.8571(3) -0.3959(3)
H3A H 0.80660 0.86880 -0.36870
H4A H 0.91540 0.86990 -0.46570
C8A C 0.8869(4) 0.5949(3) -0.2254(3)
C9A C 0.8663(4) 0.6993(3) -0.2622(3)
H5A H 0.81730 0.74110 -0.22100
C10A C 0.9176(4) 0.7415(3) -0.3591(3)
C11A C 0.9916(4) 0.6771(3) -0.4200(3)
C12A C 1.0140(4) 0.5722(3) -0.3828(3)
C13A C 0.9596(4) 0.5326(3) -0.2860(3)
H6A H 0.97200 0.46220 -0.26060
C14A C 1.1025(4) 0.5023(3) -0.4437(3)
H7A H 1.12230 0.53370 -0.51180
H8A H 1.06370 0.43130 -0.43210
C15A C 1.3397(4) 0.4043(3) -0.3236(3)
C16A C 1.2370(4) 0.4063(3) -0.3528(3)
H9A H 1.17900 0.34850 -0.32880
C17A C 1.2197(4) 0.4936(3) -0.4175(3)
C18A C 1.3084(4) 0.5794(3) -0.4539(3)
C19A C 1.4126(4) 0.5784(3) -0.4241(3)
C20A C 1.4257(4) 0.4896(3) -0.3591(3)
H10A H 1.49450 0.48740 -0.33880
C21A C 1.5062(4) 0.6726(3) -0.4606(3)
H11A H 1.58410 0.64820 -0.45380
H12A H 1.52000 0.69840 -0.52890
C22A C 1.4562(4) 0.8491(3) -0.2741(3)
C23A C 1.4918(4) 0.7654(3) -0.3235(3)
H13A H 1.53280 0.70910 -0.29940
C24A C 1.4672(4) 0.7648(3) -0.4078(3)
C25A C 1.4034(4) 0.8491(3) -0.4436(3)
C26A C 1.3725(4) 0.9360(3) -0.3957(3)
C27A C 1.3993(4) 0.9344(3) -0.3114(3)
H14A H 1.37870 0.99180 -0.27950
C28A C 1.3061(4) 1.0297(3) -0.4336(3)
H15A H 1.32600 1.03590 -0.50280
H16A H 1.33630 1.09560 -0.42260
O1A O 0.9496(3) 1.1164(3) -0.1059(2)
O2A O 1.1865(4) 1.0223(4) -0.0981(3)
H17A H 1.237(6) 0.987(5) -0.096(4)
H18A H 1.204(8) 1.082(8) -0.133(7)
O3A O 0.7757(3) 1.1238(3) -0.1641(2)
O4A O 0.9597(4) 0.8682(3) -0.0609(3)
H19A H 0.890(7) 0.858(6) -0.063(5)
H20A H 1.028(7) 0.847(6) -0.115(6)
O5A O 0.6084(5) 1.3113(3) -0.0890(3)
H21A H 0.584(6) 1.286(6) -0.037(5)
H22A H 0.671(6) 1.338(5) -0.096(5)
O6A O 0.9457(3) 1.2565(3) -0.2356(2)
O7A O 1.1456(3) 0.8916(3) -0.4830(2)
H23A H 1.21830 0.88210 -0.48830
O8A O 0.7507(4) 1.3285(3) -0.3051(3)
H24A H 0.812(5) 1.320(4) -0.305(4)
H25A H 0.753(6) 1.327(5) -0.352(5)
O9A O 0.6268(4) 1.1048(4) -0.2921(3)
H26A H 0.621(6) 1.050(6) -0.274(5)
H27A H 0.609(6) 1.120(5) -0.336(5)
O10A O 0.9261(5) 0.5635(4) -0.0635(3)
O11A O 0.4818(4) 1.1048(4) -0.0791(3)
H28A H 0.472(5) 1.050(5) -0.080(4)
H29A H 0.434(7) 1.129(6) -0.045(5)
O12A O 0.7191(5) 0.6000(4) -0.0628(3)
O14A O 0.8051(4) 0.4301(3) -0.0879(3)
O15A O 1.0408(3) 0.7154(2) -0.5170(2)
H30A H 1.08020 0.77220 -0.52670
O17A O 1.2893(5) 0.3264(5) -0.1433(3)
O19A O 1.3075(6) 0.2033(3) -0.2464(4)
O21A O 1.4846(4) 0.3006(3) -0.2447(3)
O21* O 1.5154(4) 0.6994(3) 0.2447(3)
O21A* O 0.4846(4) 1.3006(3) -0.2447(3)
O23A O 1.2922(3) 0.6618(2) -0.5195(2)
H31A H 1.21830 0.66610 -0.51200
O24A O 1.4001(3) 0.9137(3) -0.1120(3)
O25A O 1.6137(3) 0.8934(3) -0.1947(3)
O26A O 1.4795(4) 0.7374(3) -0.1168(3)
O27A O 1.3713(3) 0.8467(2) -0.5210(2)
H36A H 1.34570 0.78580 -0.51830
#END
