
#######################################################################
#
#                 Cambridge Crystallographic Data Centre
#                                CCDC
#
#######################################################################
#
# If this CIF has been generated from an entry in the Cambridge
# Structural Database, then it will include bibliographic, chemical,
# crystal, experimental, refinement or atomic coordinate data resulting
# from the CCDC's data processing and validation procedures.
#
#######################################################################

data_CSD_CIF_GIPFER
_audit_creation_date 2008-03-13
_audit_creation_method CSD-ConQuest-V1
_database_code_CSD GIPFER
_database_code_depnum_ccdc_archive 'CCDC 668665'
_chemical_formula_sum 'C56 H96 Mn2 N4 O52 S8'
_chemical_formula_moiety
;
(C56 H56 Mn2 O40 S8 4-)n,4n(H4 N1 1+),12n(H2 O1)
;
_journal_coden_Cambridge 1295
_journal_volume 10
_journal_year 2007
_journal_page_first 1257
_journal_name_full 'Inorg.Chem.Commun. '
loop_
_publ_author_name
"Rong-Guang Lin"
"La-Sheng Long"
"Rong-Bin Huang"
"Lan-Sun Zheng"
_chemical_name_systematic
;
catena-(tetrakis(Ammonium)-bis(\m~2~-5,11,17,23-tetrasulfato-25,26,27,28-tetra
hydroxypentacyclo(19.3.1.1^3,7^.1^9,13^.1^15,19^)octacosa-1(25),3,5,7(28),9,11
,13(27),15,17,19(26),21,23-dodecaene)-octa-aqua-di-manganese(ii) 
dodecahydrate)
;
_chemical_name_common
;
catena-(tetrakis(Ammonium) 
bis(mu!2$-5,11,17,23-tetrasulfato-25,26,27,28-tetrahydroxycalix(4)arene) 
octa-aqua-di-manganese(ii) dodecahydrate)
;
_cell_volume   2002.479
_exptl_crystal_colour 'colorless'
_exptl_crystal_density_diffrn 1.678
_exptl_special_details
;
The calix(4)arene molecules have cone-like conformations

;
_exptl_crystal_description 'block'
_diffrn_ambient_temperature 298
#These two values have been output from a single CSD field.
_refine_ls_R_factor_gt 0.0968
_refine_ls_wR_factor_gt 0.0968
_symmetry_cell_setting triclinic
_symmetry_space_group_name_H-M 'P -1'
_symmetry_Int_Tables_number 2
loop_
_symmetry_equiv_pos_site_id
_symmetry_equiv_pos_as_xyz
1 x,y,z
2 -x,-y,-z
_cell_length_a 11.158(3)
_cell_length_b 12.596(3)
_cell_length_c 14.375(4)
_cell_angle_alpha 93.055(5)
_cell_angle_beta 96.850(5)
_cell_angle_gamma 91.026(5)
_cell_formula_units_Z 1
loop_
_atom_type_symbol
_atom_type_radius_bond
C 0.68
H 0.23
Mn 1.35
N 0.68
O 0.68
S 1.02
loop_
_atom_site_label
_atom_site_type_symbol
_atom_site_fract_x
_atom_site_fract_y
_atom_site_fract_z
Mn1 Mn 1.00000 0.50000 0.00000
Mn2 Mn 1.00000 0.00000 0.00000
S1 S 0.82336(16) 0.38347(14) 0.14025(12)
S2 S 1.00279(15) -0.15595(14) 0.18145(12)
S3 S 1.57134(16) 0.06390(14) 0.16519(12)
S4 S 1.43432(17) 0.66286(14) 0.22326(13)
C1 C 1.4787(6) 0.4995(5) 0.3373(5)
H1 H 1.55440 0.49790 0.31640
C2 C 1.4134(5) 0.0610(5) 0.3996(4)
C3 C 1.1662(5) -0.0804(5) 0.3256(4)
H2 H 1.21700 -0.13180 0.30440
C4 C 1.4458(5) 0.1624(5) 0.4388(4)
C5 C 1.3356(6) 0.4333(5) 0.4304(4)
C6 C 1.2063(5) -0.0139(5) 0.4006(4)
C7 C 1.0274(6) 0.3290(5) 0.4208(4)
C8 C 1.3366(6) -0.0165(5) 0.4440(5)
H3 H 1.34160 0.00130 0.51080
H4 H 1.36670 -0.08770 0.43540
C9 C 1.4493(6) 0.4288(5) 0.3993(4)
C10 C 0.9014(6) 0.3657(5) 0.2515(5)
C11 C 0.9809(6) 0.4425(5) 0.2942(4)
H5 H 0.99210 0.50540 0.26490
C12 C 1.0443(5) 0.4268(5) 0.3803(4)
C13 C 1.5404(6) 0.2058(5) 0.3061(4)
H6 H 1.58160 0.25400 0.27380
C14 C 1.0109(5) 0.0670(5) 0.3890(4)
C15 C 0.9443(5) 0.2538(5) 0.3787(4)
C16 C 1.1277(5) 0.0591(5) 0.4330(4)
C17 C 1.5137(6) 0.1045(5) 0.2676(4)
C18 C 1.2523(5) 0.5075(4) 0.3967(4)
C19 C 1.3964(6) 0.5739(5) 0.3051(5)
C20 C 1.5062(5) 0.2355(5) 0.3923(4)
C21 C 1.5377(6) 0.3458(5) 0.4343(5)
H7 H 1.61760 0.36590 0.42010
H8 H 1.54090 0.34500 0.50200
C22 C 0.8811(6) 0.2745(5) 0.2923(4)
H9 H 0.82450 0.22490 0.26260
C23 C 1.2860(6) 0.5784(5) 0.3346(5)
H10 H 1.23250 0.62970 0.31270
C24 C 1.1289(6) 0.5107(5) 0.4294(5)
H11 H 1.13680 0.50140 0.49640
H12 H 1.09500 0.58000 0.41860
C25 C 1.4505(5) 0.0338(5) 0.3139(4)
H13 H 1.43250 -0.03410 0.28660
C26 C 1.0512(6) -0.0726(5) 0.2806(5)
C27 C 0.9747(6) 0.0006(5) 0.3122(5)
H14 H 0.89710 0.00530 0.28120
C28 C 0.9268(5) 0.1496(5) 0.4216(4)
H15 H 0.84390 0.12450 0.40480
H16 H 0.94110 0.15990 0.48940
O1 O 0.8782(5) 0.4767(4) 0.1054(3)
O2 O 0.7003(5) 0.4004(5) 0.1505(5)
O3 O 0.8427(6) 0.2896(4) 0.0833(4)
O4 O 1.0944(4) 0.3100(3) 0.5010(3)
H17 H 1.16460 0.32880 0.49820
O5 O 1.0609(4) -0.1167(4) 0.1037(3)
O6 O 1.0447(5) -0.2597(4) 0.2043(4)
O7 O 0.8738(4) -0.1501(4) 0.1638(4)
O8 O 1.1666(4) 0.1203(4) 0.5101(3)
H18 H 1.14150 0.18060 0.50400
O9 O 1.5025(7) -0.0269(5) 0.1279(5)
O10 O 1.6948(5) 0.0350(5) 0.1924(4)
O11 O 1.5653(5) 0.1514(4) 0.1067(4)
O12 O 1.4179(4) 0.1891(4) 0.5264(3)
H19 H 1.37280 0.14310 0.54240
O13 O 1.3825(7) 0.7619(5) 0.2454(5)
O14 O 1.5620(5) 0.6695(5) 0.2304(5)
O15 O 1.3825(6) 0.6208(5) 0.1335(4)
O16 O 1.3095(4) 0.3664(4) 0.4951(3)
H20 H 1.34700 0.31160 0.48920
O17 O 1.0889(5) 0.3512(4) 0.0277(4)
O18 O 1.1266(5) 0.5794(4) 0.1056(4)
O19 O 0.8864(5) 0.0792(4) 0.0909(4)
O20 O 1.1443(7) 0.1031(6) 0.0599(5)
O21 O 1.3077(6) -0.1617(6) 0.0616(5)
O22 O 1.2631(7) 0.3624(6) 0.1751(6)
O23 O 1.7128(7) 0.6476(6) 0.0965(6)
O24 O 1.1486(7) 0.3210(6) 0.6921(5)
O25 O 1.3038(6) 0.1484(5) 0.6921(4)
O26 O 1.3444(6) 0.1541(5) -0.0152(4)
N1 N 1.1862(8) 0.1761(7) 0.2373(6)
N2 N 0.4569(8) 0.4014(9) 0.0798(6)
Mn2* Mn 1.00000 1.00000 0.00000
S1A S 1.17664(16) 0.61653(14) -0.14025(12)
S2A S 0.99721(15) 1.15595(14) -0.18145(12)
S3A S 0.42866(16) 0.93610(14) -0.16519(12)
S4A S 0.56568(17) 0.33714(14) -0.22326(13)
C1A C 0.5213(6) 0.5005(5) -0.3373(5)
H1A H 0.44560 0.50210 -0.31640
C2A C 0.5866(5) 0.9390(5) -0.3996(4)
C3A C 0.8338(5) 1.0804(5) -0.3256(4)
H2A H 0.78300 1.13180 -0.30440
C4A C 0.5542(5) 0.8376(5) -0.4388(4)
C5A C 0.6644(6) 0.5667(5) -0.4304(4)
C6A C 0.7937(5) 1.0139(5) -0.4006(4)
C7A C 0.9726(6) 0.6710(5) -0.4208(4)
C8A C 0.6634(6) 1.0165(5) -0.4440(5)
H3A H 0.65840 0.99870 -0.51080
H4A H 0.63330 1.08770 -0.43540
C9A C 0.5507(6) 0.5712(5) -0.3993(4)
C10A C 1.0986(6) 0.6343(5) -0.2515(5)
C11A C 1.0191(6) 0.5575(5) -0.2942(4)
H5A H 1.00790 0.49460 -0.26490
C12A C 0.9557(5) 0.5732(5) -0.3803(4)
C13A C 0.4596(6) 0.7942(5) -0.3061(4)
H6A H 0.41840 0.74600 -0.27380
C14A C 0.9891(5) 0.9330(5) -0.3890(4)
C15A C 1.0557(5) 0.7462(5) -0.3787(4)
C16A C 0.8723(5) 0.9409(5) -0.4330(4)
C17A C 0.4863(6) 0.8955(5) -0.2676(4)
C18A C 0.7477(5) 0.4925(4) -0.3967(4)
C19A C 0.6036(6) 0.4261(5) -0.3051(5)
C20A C 0.4938(5) 0.7645(5) -0.3923(4)
C21A C 0.4623(6) 0.6542(5) -0.4343(5)
H7A H 0.38240 0.63410 -0.42010
H8A H 0.45910 0.65500 -0.50200
C22A C 1.1189(6) 0.7255(5) -0.2923(4)
H9A H 1.17550 0.77510 -0.26260
C23A C 0.7140(6) 0.4216(5) -0.3346(5)
H10A H 0.76750 0.37030 -0.31270
C24A C 0.8711(6) 0.4893(5) -0.4294(5)
H11A H 0.86320 0.49860 -0.49640
H12A H 0.90500 0.42000 -0.41860
C25A C 0.5495(5) 0.9662(5) -0.3139(4)
H13A H 0.56750 1.03410 -0.28660
C26A C 0.9488(6) 1.0726(5) -0.2806(5)
C27A C 1.0253(6) 0.9994(5) -0.3122(5)
H14A H 1.10290 0.99470 -0.28120
C28A C 1.0732(5) 0.8504(5) -0.4216(4)
H15A H 1.15610 0.87550 -0.40480
H16A H 1.05890 0.84010 -0.48940
O1A O 1.1218(5) 0.5233(4) -0.1054(3)
O2A O 1.2997(5) 0.5996(5) -0.1505(5)
O3A O 1.1573(6) 0.7104(4) -0.0833(4)
O4A O 0.9056(4) 0.6900(3) -0.5010(3)
H17A H 0.83540 0.67120 -0.49820
O5A O 0.9391(4) 1.1167(4) -0.1037(3)
O5A* O 0.9391(4) 0.1167(4) -0.1037(3)
O6A O 0.9553(5) 1.2597(4) -0.2043(4)
O7A O 1.1262(4) 1.1501(4) -0.1638(4)
O8A O 0.8334(4) 0.8797(4) -0.5101(3)
H18A H 0.85850 0.81940 -0.50400
O9A O 0.4975(7) 1.0269(5) -0.1279(5)
O10A O 0.3052(5) 0.9650(5) -0.1924(4)
O11A O 0.4347(5) 0.8486(4) -0.1067(4)
O12A O 0.5821(4) 0.8109(4) -0.5264(3)
H19A H 0.62720 0.85690 -0.54240
O13A O 0.6175(7) 0.2381(5) -0.2454(5)
O14A O 0.4380(5) 0.3305(5) -0.2304(5)
O15A O 0.6175(6) 0.3792(5) -0.1335(4)
O16A O 0.6905(4) 0.6336(4) -0.4951(3)
H20A H 0.65300 0.68840 -0.48920
O17A O 0.9111(5) 0.6488(4) -0.0277(4)
O18A O 0.8734(5) 0.4206(4) -0.1056(4)
O19A O 1.1136(5) -0.0792(4) -0.0909(4)
O20A O 0.8557(7) -0.1031(6) -0.0599(5)
#END
