
#######################################################################
#
#                 Cambridge Crystallographic Data Centre
#                                CCDC
#
#######################################################################
#
# If this CIF has been generated from an entry in the Cambridge
# Structural Database, then it will include bibliographic, chemical,
# crystal, experimental, refinement or atomic coordinate data resulting
# from the CCDC's data processing and validation procedures.
#
#######################################################################

data_CSD_CIF_GIVKOO
_audit_creation_date 2019-01-28
_audit_creation_method CSD-ConQuest-V1
_database_code_CSD GIVKOO
_database_code_depnum_ccdc_archive 'CCDC 1581289'
_chemical_formula_sum 'C66 H99 Gd2 N1 O33'
_chemical_formula_moiety
;
(C64 H87 Gd2 O31 1-)n,C2 H8 N1 1+,2(H2 O1)
;
_journal_coden_Cambridge 1500
_journal_volume 9
_journal_year 2019
_journal_page_first 3647
_journal_name_full 'RSC Advances '
loop_
_publ_author_name
"Hang Zhang"
"Jia-Chen Wang"
"Wei Jiang"
"Si-Si Zhao"
_chemical_name_systematic
;
catena-[dimethylammonium 
(\m-2,8,14,20-tetrapentyl-6,10,12,16,18,22,24-heptacarboxylatomethoxy-4-carbox
ymethoxyresorcin[4]arene)-heptaaqua-di-gadolinium dihydrate]
;
_cell_volume   3696.087
_exptl_crystal_colour 'colorless'
_exptl_crystal_density_diffrn 1.567
_exptl_special_details
;
Luminescent
Light-sensitive

;
_exptl_crystal_description 'block'
_diffrn_ambient_temperature 293
#These two values have been output from a single CSD field.
_refine_ls_R_factor_gt 0.1594
_refine_ls_wR_factor_gt 0.1594
_symmetry_cell_setting triclinic
_symmetry_space_group_name_H-M 'P -1'
_symmetry_Int_Tables_number 2
loop_
_symmetry_equiv_pos_site_id
_symmetry_equiv_pos_as_xyz
1 x,y,z
2 -x,-y,-z
_cell_length_a 11.573(5)
_cell_length_b 14.796(5)
_cell_length_c 22.058(5)
_cell_angle_alpha 97.762(5)
_cell_angle_beta 92.518(5)
_cell_angle_gamma 98.243(5)
_cell_formula_units_Z 2
loop_
_atom_type_symbol
_atom_type_radius_bond
C 0.68
H 0.23
Gd 1.96
N 0.68
O 0.68
loop_
_atom_site_label
_atom_site_type_symbol
_atom_site_fract_x
_atom_site_fract_y
_atom_site_fract_z
Gd1 Gd -0.19771(8) 0.34153(7) 0.52577(6)
Gd2 Gd 0.27193(9) 0.26641(7) 0.63614(6)
C1 C -0.100(2) 0.4058(15) 0.7533(11)
H1 H -0.05550 0.35920 0.74260
C2 C -0.0449(19) 0.4964(14) 0.7697(11)
C3 C -0.1097(19) 0.5659(14) 0.7857(11)
C4 C -0.2307(18) 0.5407(13) 0.7868(11)
H2 H -0.27480 0.58770 0.79720
C5 C -0.2880(17) 0.4547(15) 0.7741(11)
C6 C -0.2084(16) 0.3863(12) 0.7528(9)
C7 C 0.1732(19) 0.3915(14) 0.7225(11)
C8 C 0.1453(17) 0.4564(18) 0.7774(10)
H3 H 0.10800 0.41930 0.80610
H4 H 0.21870 0.48900 0.79740
C9 C -0.1627(17) 0.2451(13) 0.6521(9)
C10 C -0.2099(19) 0.2288(14) 0.7134(11)
H5 H -0.25900 0.16900 0.70820
H6 H -0.14470 0.22660 0.74200
C11 C -0.1503(18) 0.7880(14) 0.6678(11)
H7 H -0.14600 0.78170 0.62540
C12 C -0.1138(19) 0.7259(14) 0.7002(11)
C13 C -0.1138(17) 0.7306(12) 0.7662(10)
C14 C -0.1611(16) 0.8061(12) 0.7933(11)
H8 H -0.16370 0.81430 0.83570
C15 C -0.2063(15) 0.8723(12) 0.7606(9)
C16 C -0.195(2) 0.8629(15) 0.6994(11)
C17 C -0.1868(19) 0.5642(15) 0.5777(11)
C18 C -0.156(2) 0.5712(15) 0.6436(11)
H9 H -0.22670 0.57370 0.66540
H10 H -0.12590 0.51550 0.65110
C19 C -0.1585(19) 0.9658(14) 0.6254(11)
H11 H -0.16870 1.02980 0.62580
H12 H -0.07900 0.96520 0.64110
C20 C -0.171(2) 0.9230(15) 0.5649(11)
C21 C -0.6169(16) 0.5324(12) 0.6796(10)
H13 H -0.64870 0.51910 0.63940
C22 C -0.5492(17) 0.4771(13) 0.7016(10)
C23 C -0.4920(18) 0.4971(13) 0.7603(10)
C24 C -0.5107(16) 0.5754(12) 0.7951(9)
H14 H -0.47230 0.59090 0.83390
C25 C -0.5850(17) 0.6344(13) 0.7759(10)
C26 C -0.6393(16) 0.6095(12) 0.7171(10)
C27 C -0.4439(19) 0.3915(14) 0.6293(11)
C28 C -0.4751(19) 0.3201(14) 0.5774(11)
C29 C -0.8101(15) 0.6314(14) 0.6604(11)
H15 H -0.87190 0.66790 0.66960
H16 H -0.83610 0.57010 0.67020
C30 C -0.7941(17) 0.6239(13) 0.5942(10)
C31 C -0.5938(17) 0.9538(13) 0.7726(10)
H17 H -0.64500 0.99480 0.76530
C32 C -0.469(2) 0.9806(15) 0.7738(12)
C33 C -0.3955(18) 0.9214(14) 0.7848(10)
C34 C -0.4475(18) 0.8342(14) 0.7978(10)
H18 H -0.39850 0.79270 0.80720
C35 C -0.5686(17) 0.8068(13) 0.7974(10)
C36 C -0.633(2) 0.869(2) 0.7822(15)
C37 C -0.553(2) 1.1364(15) 0.7004(12)
C38 C -0.4934(17) 1.1390(13) 0.7615(10)
H19 H -0.44540 1.19880 0.77280
H20 H -0.55190 1.13280 0.79140
C39 C -0.853(3) 0.934(2) 0.7219(17)
C40 C -0.830(2) 0.9067(16) 0.7850(12)
H21 H -0.79610 0.96140 0.81300
H22 H -0.90390 0.88290 0.80000
C41 C -0.0513(17) 0.6697(12) 0.8005(9)
H23 H 0.02750 0.67290 0.78570
C42 C -0.0365(17) 0.6981(14) 0.8681(10)
H24 H -0.11290 0.69210 0.88480
H25 H -0.00230 0.76270 0.87640
C43 C 0.040(2) 0.6423(18) 0.9005(14)
H26 H 0.00600 0.57770 0.89230
H27 H 0.11660 0.64870 0.88420
C44 C 0.052(3) 0.672(2) 0.9680(13)
H28 H -0.02470 0.66660 0.98390
H29 H 0.08640 0.73700 0.97590
C45 C 0.128(3) 0.618(3) 1.0025(16)
H30 H 0.10200 0.55270 0.98830
H31 H 0.20760 0.63220 0.99140
C46 C 0.127(4) 0.632(3) 1.069(3)
H32 H 0.17770 0.59410 1.08530
H33 H 0.04930 0.61600 1.08060
H34 H 0.15530 0.69580 1.08370
C47 C -0.2661(16) 0.9500(13) 0.7903(10)
H35 H -0.24780 1.00280 0.76810
C48 C -0.221(2) 0.9812(18) 0.8591(13)
H36 H -0.27100 1.02190 0.87910
H37 H -0.22350 0.92780 0.88030
C49 C -0.097(3) 1.031(3) 0.8622(19)
H38 H -0.05020 0.99410 0.83650
H39 H -0.09670 1.08920 0.84630
C50 C -0.042(4) 1.050(4) 0.9266(17)
H40 H -0.05060 0.99250 0.94400
H41 H -0.08380 1.09240 0.95120
C51 C 0.085(4) 1.090(4) 0.929(3)
H42 H 0.10890 1.12340 0.96960
H43 H 0.13160 1.03980 0.92200
C52 C 0.110(5) 1.153(5) 0.882(4)
H44 H 0.19180 1.17770 0.88470
H45 H 0.06530 1.20330 0.88900
H46 H 0.08840 1.11990 0.84160
C53 C -0.4206(16) 0.4268(15) 0.7822(12)
H47 H -0.44680 0.36700 0.75690
C54 C -0.4350(19) 0.4147(15) 0.8489(11)
H48 H -0.38590 0.37060 0.85970
H49 H -0.40720 0.47320 0.87440
C55 C -0.558(3) 0.382(2) 0.8637(15)
H50 H -0.60990 0.42170 0.84860
H51 H -0.58330 0.32000 0.84290
C56 C -0.568(3) 0.384(3) 0.931(2)
H52 H -0.52840 0.44260 0.95220
H53 H -0.52900 0.33570 0.94440
C57 C -0.693(3) 0.370(4) 0.949(2)
H54 H -0.73310 0.31310 0.92590
H55 H -0.73070 0.42010 0.93660
C58 C -0.705(4) 0.368(4) 1.016(2)
H56 H -0.78680 0.35890 1.02370
H57 H -0.66740 0.42480 1.03880
H58 H -0.66980 0.31760 1.02810
C59 C -0.6138(18) 0.7193(12) 0.8173(10)
H59 H -0.69920 0.71490 0.81330
C60 C -0.584(2) 0.7186(17) 0.8841(11)
H60 H -0.49970 0.72910 0.89190
H61 H -0.61390 0.65880 0.89520
C61 C -0.637(3) 0.793(2) 0.9227(14)
H62 H -0.72140 0.77820 0.91870
H63 H -0.61510 0.85160 0.90780
C62 C -0.594(4) 0.802(3) 0.991(2)
H64 H -0.64800 0.83290 1.01590
H65 H -0.59490 0.74110 1.00230
C63 C -0.477(4) 0.854(4) 1.004(2)
H66 H -0.46320 0.90330 0.97940
H67 H -0.41770 0.81410 0.99770
C64 C -0.483(7) 0.894(6) 1.078(4)
H68 H -0.40940 0.93060 1.09320
H69 H -0.49910 0.84360 1.10100
H70 H -0.54390 0.93190 1.08280
O1 O 0.2568(13) 0.3471(11) 0.7360(8)
O2 O 0.1237(16) 0.3798(11) 0.6701(8)
O3 O -0.0850(14) 0.1973(10) 0.6372(8)
O4 O -0.2004(13) 0.3017(9) 0.6234(8)
O5 O 0.0740(12) 0.5217(9) 0.7662(7)
O6 O -0.2775(12) 0.2984(9) 0.7399(7)
O7 O -0.2469(13) 0.485(1) 0.5547(7)
O8 O -0.1603(14) 0.6276(11) 0.5480(8)
O9 O -0.0947(13) 0.9181(12) 0.5297(8)
H71 H -0.03230 0.94450 0.54690
O10 O -0.2802(16) 0.8942(12) 0.5388(9)
O11 O -0.0701(12) 0.6505(9) 0.6690(7)
O12 O -0.2353(15) 0.9269(12) 0.6652(8)
O13 O -0.4009(12) 0.3068(10) 0.5359(8)
O14 O -0.5684(12) 0.263(1) 0.5720(8)
O15 O -0.7113(14) 0.672(1) 0.5741(7)
O16 O -0.8752(12) 0.5743(9) 0.5599(7)
O17 O -0.5476(11) 0.3921(8) 0.6637(7)
O18 O -0.7082(12) 0.6716(8) 0.6996(7)
O19 O -0.5395(15) 1.0808(11) 0.6568(9)
O20 O -0.6157(13) 1.1991(9) 0.7006(8)
O21 O -0.8320(17) 0.8774(15) 0.6767(11)
O22 O -0.889(2) 1.0068(14) 0.7163(11)
O23 O -0.4191(12) 1.0668(9) 0.7645(7)
O24 O -0.7559(11) 0.8413(9) 0.7858(9)
O25 O -0.0150(13) 0.422(1) 0.5782(8)
O26 O -0.0460(13) 0.2674(10) 0.4704(8)
O27 O -0.2601(16) 0.1781(12) 0.5056(9)
O28 O 0.1241(14) 0.1755(10) 0.6861(8)
O29 O 0.0987(14) 0.2186(11) 0.5661(8)
O30 O 0.2612(14) 0.3804(10) 0.5664(10)
O31 O 0.2805(12) 0.1107(10) 0.5818(8)
C65 C -0.448(3) 0.7177(19) 0.6108(15)
H72 H -0.41320 0.67460 0.58370
H73 H -0.51700 0.68620 0.62600
H74 H -0.39330 0.74440 0.64460
C66 C -0.533(3) 0.854(2) 0.6217(16)
H75 H -0.55660 0.90430 0.60350
H76 H -0.47610 0.87760 0.65520
H77 H -0.59980 0.81940 0.63660
N1 N -0.4817(16) 0.7941(12) 0.5761(10)
O32 O -0.401(3) 0.0679(16) 0.5597(19)
O33 O -0.8657(14) 0.9419(10) 0.5695(8)
Gd1A Gd -0.80229(8) 0.65847(7) 0.47423(6)
Gd2* Gd -0.72807(9) 0.26641(7) 0.63614(6)
Gd2** Gd -0.72807(9) 1.26641(7) 0.63614(6)
O14* O 0.4316(12) 0.263(1) 0.5720(8)
O15A O -0.2887(14) 0.328(1) 0.4259(7)
O16A O -0.1248(12) 0.4257(9) 0.4401(7)
O17* O 0.4524(11) 0.3921(8) 0.6637(7)
O20* O 0.3843(13) 0.1991(9) 0.7006(8)
#END
