
#######################################################################
#
#                 Cambridge Crystallographic Data Centre
#                                CCDC
#
#######################################################################
#
# If this CIF has been generated from an entry in the Cambridge
# Structural Database, then it will include bibliographic, chemical,
# crystal, experimental, refinement or atomic coordinate data resulting
# from the CCDC's data processing and validation procedures.
#
#######################################################################

data_CSD_CIF_GIVKEE
_audit_creation_date 2019-01-28
_audit_creation_method CSD-ConQuest-V1
_database_code_CSD GIVKEE
_database_code_depnum_ccdc_archive 'CCDC 1581287'
_chemical_formula_sum 'C66 H99 N1 O33 Tb2'
_chemical_formula_moiety
;
(C64 H87 O31 Tb2 1-)n,C2 H8 N1 1+,2(H2 O1)
;
_journal_coden_Cambridge 1500
_journal_volume 9
_journal_year 2019
_journal_page_first 3647
_journal_name_full 'RSC Advances '
loop_
_publ_author_name
"Hang Zhang"
"Jia-Chen Wang"
"Wei Jiang"
"Si-Si Zhao"
_chemical_name_systematic
;
catena-[dimethylammonium 
(\m-2,8,14,20-tetrapentyl-6,10,12,16,18,22,24-heptacarboxylatomethoxy-4-carbox
ymethoxyresorcin[4]arene)-heptaaqua-di-terbium dihydrate]
;
_cell_volume   3751.624
_exptl_crystal_colour 'colorless'
_exptl_crystal_density_diffrn 1.547
_exptl_special_details
;
Luminescent
Light-sensitive

;
_exptl_crystal_description 'block'
_diffrn_ambient_temperature 293
#These two values have been output from a single CSD field.
_refine_ls_R_factor_gt 0.1461
_refine_ls_wR_factor_gt 0.1461
_symmetry_cell_setting triclinic
_symmetry_space_group_name_H-M 'P -1'
_symmetry_Int_Tables_number 2
loop_
_symmetry_equiv_pos_site_id
_symmetry_equiv_pos_as_xyz
1 x,y,z
2 -x,-y,-z
_cell_length_a 11.6240(5)
_cell_length_b 14.8640(9)
_cell_length_c 22.1860(16)
_cell_angle_alpha 97.698(5)
_cell_angle_beta 92.368(5)
_cell_angle_gamma 98.312(4)
_cell_formula_units_Z 2
loop_
_atom_type_symbol
_atom_type_radius_bond
C 0.68
H 0.23
N 0.68
O 0.68
Tb 1.94
loop_
_atom_site_label
_atom_site_type_symbol
_atom_site_fract_x
_atom_site_fract_y
_atom_site_fract_z
Tb1 Tb 0.19783(7) 1.15837(6) -0.02573(4)
Tb2 Tb 0.72862(7) 0.23353(6) -0.13632(4)
C1 C 0.6367(14) 0.8883(12) -0.2164(9)
C2 C 0.6186(13) 0.9659(10) -0.1785(8)
H1 H 0.65180 0.97970 -0.13890
C3 C 0.5475(14) 1.0233(11) -0.2026(9)
C4 C 0.4919(14) 1.0052(11) -0.2569(9)
C5 C 0.5103(15) 0.9257(13) -0.2937(9)
H2 H 0.47150 0.91200 -0.33200
C6 C 0.5830(15) 0.8647(11) -0.2769(8)
C7 C 0.8111(15) 0.8687(13) -0.1609(8)
H3 H 0.83710 0.93000 -0.17030
H4 H 0.87300 0.83260 -0.17010
C8 C 0.7945(14) 0.8754(12) -0.0931(9)
C9 C 0.4464(16) 1.1072(12) -0.1293(11)
H5 H 0.42890 1.04880 -0.11410
H6 H 0.37940 1.11600 -0.15420
C10 C 0.4751(16) 1.1878(13) -0.0747(9)
C11 C 0.4198(15) 1.0712(13) -0.2822(9)
H7 H 0.44440 1.13140 -0.25780
C12 C 0.2862(15) 1.0449(13) -0.2735(9)
C13 C 0.2051(13) 1.1136(10) -0.2526(7)
C14 C 0.1047(18) 1.0942(12) -0.2536(8)
H8 H 0.05990 1.14070 -0.24470
C15 C 0.0479(14) 1.0029(12) -0.2676(9)
C16 C 0.1122(14) 0.9328(12) -0.2833(8)
C17 C 0.2301(14) 0.9574(12) -0.2879(8)
H9 H 0.27350 0.91170 -0.30160
C18 C 0.2108(15) 1.2715(12) -0.2134(9)
H10 H 0.14670 1.27390 -0.24230
H11 H 0.25950 1.33110 -0.20760
C19 C 0.1609(15) 1.2530(12) -0.1516(10)
C20 C -0.1447(15) 1.0448(13) -0.2771(9)
H12 H -0.21680 1.01220 -0.29790
H13 H -0.10650 1.08320 -0.30470
C21 C -0.1744(16) 1.1066(14) -0.2216(9)
C22 C 0.0520(14) 0.8321(11) -0.2983(9)
H14 H -0.02650 0.83030 -0.28360
C23 C 0.1138(14) 0.7695(11) -0.2624(8)
C24 C 0.1139(14) 0.7783(12) -0.2002(8)
C25 C 0.1484(14) 0.7131(11) -0.1674(8)
H15 H 0.13950 0.71750 -0.12570
C26 C 0.1974(16) 0.6399(14) -0.1980(9)
C27 C 0.2053(13) 0.6291(11) -0.2599(8)
C28 C 0.1642(14) 0.6956(12) -0.2926(9)
H16 H 0.17050 0.69050 -0.33460
C29 C 0.1582(18) 0.9278(13) -0.1438(10)
H17 H 0.13110 0.98400 -0.15190
H18 H 0.22860 0.92300 -0.16520
C30 C 0.1881(15) 0.9352(13) -0.0766(9)
C31 C 0.1574(19) 0.5381(14) -0.1259(10)
H19 H 0.07940 0.54380 -0.14060
H20 H 0.16100 0.47300 -0.12780
C32 C 0.1731(17) 0.5790(12) -0.0622(10)
C33 C 0.2664(17) 0.5507(13) -0.2885(9)
C34 C 0.3960(14) 0.5807(12) -0.2844(8)
C35 C 0.4743(16) 0.5181(12) -0.2745(10)
C36 C 0.5933(16) 0.5446(12) -0.2730(9)
H21 H 0.64520 0.50380 -0.26770
C37 C 0.631(2) 0.6332(18) -0.2796(12)
C38 C 0.5683(15) 0.6928(12) -0.2988(9)
C39 C 0.4488(15) 0.6664(13) -0.2966(9)
H22 H 0.40050 0.70900 -0.30380
C40 C 0.4900(14) 0.3619(11) -0.2626(9)
H23 H 0.54680 0.36680 -0.29330
H24 H 0.43980 0.30330 -0.27340
C41 C 0.5542(16) 0.3625(14) -0.2010(11)
C42 C 0.8347(16) 0.5932(14) -0.2824(12)
H25 H 0.90960 0.61820 -0.29570
H26 H 0.80520 0.53790 -0.31020
C43 C 0.8533(17) 0.5674(18) -0.2206(15)
C44 C 0.6157(14) 0.7841(11) -0.3164(8)
H27 H 0.70070 0.78960 -0.31140
C45 C 0.4374(16) 1.0843(14) -0.3477(10)
H28 H 0.41080 1.02590 -0.37300
H29 H 0.38720 1.12710 -0.35860
C46 C 0.560(2) 1.1187(19) -0.3643(14)
H30 H 0.58160 1.18240 -0.34640
H31 H 0.61410 1.08360 -0.34680
C47 C 0.572(3) 1.111(3) -0.4294(18)
H32 H 0.52940 1.15520 -0.44530
H33 H 0.53610 1.05050 -0.44790
C48 C 0.687(4) 1.126(4) -0.448(2)
H34 H 0.72730 1.07800 -0.43600
H35 H 0.72620 1.18380 -0.42540
C49 C 0.705(4) 1.130(3) -0.515(2)
H36 H 0.78700 1.13940 -0.52150
H37 H 0.67080 1.18020 -0.52790
H38 H 0.66880 1.07360 -0.53880
C50 C 0.0367(18) 0.8005(14) -0.3661(9)
H39 H 0.11280 0.80470 -0.38290
H40 H 0.00130 0.73650 -0.37320
C51 C -0.039(2) 0.8565(18) -0.3996(12)
H41 H -0.00510 0.92090 -0.39070
H42 H -0.11570 0.84980 -0.38410
C52 C -0.050(3) 0.828(2) -0.4693(14)
H43 H 0.02720 0.83070 -0.48410
H44 H -0.08840 0.76520 -0.47800
C53 C -0.115(5) 0.884(3) -0.5037(19)
H45 H -0.19220 0.88130 -0.48810
H46 H -0.07760 0.94760 -0.49310
C54 C -0.131(4) 0.867(3) -0.568(2)
H47 H -0.17420 0.91190 -0.58250
H48 H -0.17370 0.80680 -0.58070
H49 H -0.05660 0.87180 -0.58580
C55 C 0.2211(16) 0.5155(16) -0.3573(10)
H50 H 0.22780 0.56750 -0.37980
H51 H 0.27080 0.47330 -0.37530
C56 C 0.094(4) 0.467(4) -0.364(3)
H52 H 0.04730 0.50500 -0.33990
H53 H 0.09080 0.40960 -0.34790
C57 C 0.041(5) 0.447(5) -0.428(3)
H54 H 0.05270 0.50240 -0.44730
H55 H 0.07840 0.40090 -0.45150
C58 C -0.094(5) 0.411(5) -0.428(3)
H56 H -0.12430 0.37270 -0.46560
H57 H -0.13920 0.46130 -0.41980
C59 C 0.586(2) 0.7826(15) -0.3851(10)
H58 H 0.50230 0.77380 -0.39290
H59 H 0.61810 0.84100 -0.39720
C60 C 0.637(3) 0.704(2) -0.4230(19)
C61 C 0.594(5) 0.691(4) -0.497(3)
H60 H 0.57920 0.74810 -0.50960
H61 H 0.64960 0.66450 -0.52220
C62 C 0.475(5) 0.620(4) -0.495(3)
C63 C 0.474(5) 0.607(4) -0.569(3)
H62 H 0.40490 0.56690 -0.58560
H63 H 0.54140 0.58180 -0.58170
H64 H 0.47460 0.66610 -0.58220
C64 C -0.089(6) 0.355(5) -0.373(3)
H65 H -0.16650 0.32720 -0.36550
H66 H -0.05600 0.39490 -0.33660
H67 H -0.04190 0.30720 -0.38190
O1 O 0.5703(11) 1.2372(9) -0.0734(7)
O2 O 0.3998(10) 1.1923(9) -0.0359(6)
O3 O 0.2019(14) 1.1994(10) -0.1223(7)
O4 O 0.0855(12) 1.3032(9) -0.1362(7)
O5 O -0.1238(13) 1.1193(10) -0.1707(7)
O6 O -0.2598(11) 1.1506(9) -0.2355(7)
O7 O 0.2457(11) 1.0149(8) -0.0562(7)
O8 O 0.1629(13) 0.8731(10) -0.0463(7)
O9 O 0.0918(13) 0.5822(11) -0.0280(7)
H68 H 0.03040 0.55920 -0.04720
O10 O 0.5388(14) 0.4184(11) -0.1567(7)
O11 O 0.6146(12) 0.2993(9) -0.1999(7)
O12 O 0.888(2) 0.4962(12) -0.2155(10)
O13 O 0.8309(15) 0.6227(14) -0.1759(10)
O14 O 0.7107(11) 0.8312(9) -0.0738(6)
O15 O 0.8754(10) 0.9265(8) -0.0584(6)
O16 O 0.2812(13) 0.6053(13) -0.0383(7)
O17 O 0.546(1) 1.1083(7) -0.1642(6)
O18 O 0.2789(10) 1.2024(8) -0.2393(6)
O19 O -0.0721(10) 0.9793(8) -0.2652(7)
O20 O 0.0709(11) 0.8512(9) -0.1683(6)
O21 O 0.2350(12) 0.5729(9) -0.1664(6)
O22 O 0.4214(10) 0.4335(8) -0.2642(6)
O23 O 0.7564(11) 0.6585(9) -0.2870(8)
O24 O 0.7114(11) 0.8293(8) -0.2001(6)
O25 O 0.2604(14) 1.3214(11) -0.0083(8)
O26 O 0.045(1) 1.2320(8) 0.0279(7)
O27 O 0.0144(12) 1.0797(9) -0.0761(6)
O28 O 0.7378(13) 0.1230(9) -0.0674(7)
O29 O 0.7217(10) 0.3909(8) -0.0827(6)
O30 O 0.8999(12) 0.281(1) -0.0652(7)
O31 O 0.8768(13) 0.3257(10) -0.1862(7)
C65 C 0.443(3) 0.784(3) -0.1069(18)
H69 H 0.40900 0.82480 -0.07780
H70 H 0.38540 0.75730 -0.13920
H71 H 0.50800 0.81740 -0.12330
C66 C 0.534(2) 0.6457(17) -0.1218(13)
H72 H 0.56010 0.59750 -0.10250
H73 H 0.59940 0.67950 -0.13830
H74 H 0.47660 0.61960 -0.15400
N1 N 0.4825(17) 0.7089(11) -0.0759(9)
O32 O 0.411(2) 1.4457(19) -0.0606(15)
O33 O 0.8666(12) 0.5598(10) -0.0693(7)
Tb1A Tb 0.80217(7) 0.84163(6) 0.02573(4)
Tb2* Tb -0.27138(7) 1.23353(6) -0.13632(4)
Tb2** Tb 0.72862(7) 1.23353(6) -0.13632(4)
O1* O 0.5703(11) 0.2372(9) -0.0734(7)
O5* O 0.8762(13) 0.1193(10) -0.1707(7)
O6* O 0.7402(11) 0.1506(9) -0.2355(7)
O14A O 0.2893(11) 1.1688(9) 0.0738(6)
O15A O 0.1246(10) 1.0735(8) 0.0584(6)
O17* O 0.546(1) 0.1083(7) -0.1642(6)
#END
