
#######################################################################
#
#                 Cambridge Crystallographic Data Centre
#                                CCDC
#
#######################################################################
#
# If this CIF has been generated from an entry in the Cambridge
# Structural Database, then it will include bibliographic, chemical,
# crystal, experimental, refinement or atomic coordinate data resulting
# from the CCDC's data processing and validation procedures.
#
#######################################################################

data_CSD_CIF_GIVKII
_audit_creation_date 2019-01-28
_audit_creation_method CSD-ConQuest-V1
_database_code_CSD GIVKII
_database_code_depnum_ccdc_archive 'CCDC 1581288'
_chemical_formula_sum 'C66 H99 Eu2 N1 O33'
_chemical_formula_moiety
;
(C64 H87 Eu2 O31 1-)n,C2 H8 N1 1+,2(H2 O1)
;
_journal_coden_Cambridge 1500
_journal_volume 9
_journal_year 2019
_journal_page_first 3647
_journal_name_full 'RSC Advances '
loop_
_publ_author_name
"Hang Zhang"
"Jia-Chen Wang"
"Wei Jiang"
"Si-Si Zhao"
_chemical_name_systematic
;
catena-[dimethylammonium 
(\m-2,8,14,20-tetrapentyl-6,10,12,16,18,22,24-heptacarboxylatomethoxy-4-carbox
ymethoxyresorcin[4]arene)-heptaaqua-di-europium dihydrate]
;
_cell_volume   3700.345
_exptl_crystal_colour 'colorless'
_exptl_crystal_density_diffrn 1.556
_exptl_special_details
;
Luminescent
Light-sensitive

;
_exptl_crystal_description 'block'
_diffrn_ambient_temperature 293
#These two values have been output from a single CSD field.
_refine_ls_R_factor_gt 0.139
_refine_ls_wR_factor_gt 0.139
_symmetry_cell_setting triclinic
_symmetry_space_group_name_H-M 'P -1'
_symmetry_Int_Tables_number 2
loop_
_symmetry_equiv_pos_site_id
_symmetry_equiv_pos_as_xyz
1 x,y,z
2 -x,-y,-z
_cell_length_a 11.6030(7)
_cell_length_b 14.799(1)
_cell_length_c 22.0270(14)
_cell_angle_alpha 97.853(6)
_cell_angle_beta 92.450(5)
_cell_angle_gamma 98.272(6)
_cell_formula_units_Z 2
loop_
_atom_type_symbol
_atom_type_radius_bond
C 0.68
H 0.23
Eu 1.98
N 0.68
O 0.68
loop_
_atom_site_label
_atom_site_type_symbol
_atom_site_fract_x
_atom_site_fract_y
_atom_site_fract_z
Eu1 Eu 0.69746(7) 0.15865(6) 0.47402(4)
Eu2 Eu 1.23066(7) 0.23313(6) 0.36287(4)
C1 C 0.419(2) -0.6612(18) 0.1318(11)
H1 H 0.34260 -0.69500 0.13420
H2 H 0.43830 -0.61650 0.16810
H3 H 0.47510 -0.70300 0.12880
C2 C 0.4204(17) -0.6127(18) 0.0763(11)
H4 H 0.36070 -0.57290 0.07770
H5 H 0.40520 -0.65730 0.03920
C3 C 0.5390(18) -0.5566(19) 0.0766(13)
H6 H 0.58690 -0.59210 0.05060
H7 H 0.53080 -0.50150 0.05860
C4 C 0.599(2) -0.530(2) 0.1359(13)
H8 H 0.59610 -0.58470 0.15540
H9 H 0.55300 -0.48930 0.15970
C5 C 0.723(2) -0.482(2) 0.1434(12)
H10 H 0.72950 -0.43000 0.12090
H11 H 0.77220 -0.52470 0.12510
C6 C 0.768(2) -0.4485(19) 0.2094(12)
H12 H 0.75090 -0.50010 0.23280
C7 C 0.8979(18) -0.4194(13) 0.2135(8)
C8 C 0.9719(14) -0.4820(11) 0.2257(8)
C9 C 1.0954(14) -0.4546(12) 0.2276(9)
H13 H 1.14710 -0.49470 0.23550
C10 C 1.1338(15) -0.3665(15) 0.2174(9)
C11 C 1.0682(13) -0.3068(11) 0.2019(8)
C12 C 0.9490(13) -0.3342(11) 0.2025(8)
H14 H 0.90020 -0.29180 0.19490
C13 C 0.9935(15) -0.6373(13) 0.2382(8)
H15 H 1.05200 -0.63070 0.20830
H16 H 0.94510 -0.69680 0.22620
C14 C 1.0544(14) -0.6375(12) 0.2997(9)
C15 C 1.3324(18) -0.4066(15) 0.2169(12)
H17 H 1.40680 -0.38220 0.20260
H18 H 1.30090 -0.46160 0.18860
C16 C 1.3539(18) -0.4341(18) 0.2767(13)
C17 C 0.954(5) -0.403(4) -0.073(3)
H19 H 0.88240 -0.44570 -0.08040
H20 H 1.01820 -0.43520 -0.08390
H21 H 0.95150 -0.35460 -0.09770
C18 C 0.971(3) -0.360(4) -0.001(2)
H22 H 0.91540 -0.31780 0.00930
H23 H 0.96300 -0.40750 0.02490
C19 C 1.091(3) -0.311(3) 0.0018(17)
H24 H 1.09330 -0.25260 -0.01410
H25 H 1.14070 -0.34790 -0.02190
C20 C 1.136(3) -0.2928(19) 0.0754(12)
H26 H 1.11730 -0.35010 0.09220
H27 H 1.22020 -0.27610 0.07890
C21 C 1.0834(19) -0.2187(15) 0.1136(9)
H28 H 0.99910 -0.23040 0.10670
H29 H 1.11120 -0.15920 0.10150
C22 C 1.1168(14) -0.2173(12) 0.1812(8)
H30 H 1.20210 -0.21160 0.18560
C23 C 1.0823(12) -0.1357(10) 0.2214(7)
C24 C 1.1366(13) -0.1118(11) 0.2824(7)
C25 C 1.1176(13) -0.0331(11) 0.3188(8)
H31 H 1.15290 -0.01780 0.35830
C26 C 1.0478(14) 0.0220(12) 0.2971(8)
C27 C 0.9921(13) 0.0025(11) 0.2408(8)
C28 C 1.0105(13) -0.0746(11) 0.2050(8)
H32 H 0.97190 -0.08800 0.16620
C29 C 1.3096(14) -0.1306(13) 0.3374(9)
H33 H 1.33670 -0.07000 0.32670
H34 H 1.37010 -0.16840 0.32810
C30 C 1.2959(14) -0.1205(12) 0.4058(9)
C31 C 0.9457(15) 0.1116(14) 0.3693(9)
H35 H 0.92010 0.05190 0.38160
H36 H 0.88260 0.12770 0.34450
C32 C 0.9767(13) 0.1819(13) 0.4238(8)
C33 C 1.204(3) 0.124(4) -0.019(2)
H37 H 1.28520 0.13210 -0.02730
H38 H 1.16860 0.17320 -0.03270
H39 H 1.16590 0.06600 -0.04060
C34 C 1.192(3) 0.126(3) 0.0481(17)
H40 H 1.23480 0.18380 0.06900
H41 H 1.23050 0.07680 0.06110
C35 C 1.071(3) 0.115(3) 0.0694(15)
H42 H 1.03370 0.16470 0.05640
H43 H 1.02900 0.05770 0.04800
C36 C 1.0568(19) 0.1162(17) 0.1363(12)
H44 H 1.08100 0.17850 0.15730
H45 H 1.10800 0.07710 0.15190
C37 C 0.9341(15) 0.0837(15) 0.1511(9)
H46 H 0.90670 0.02490 0.12580
H47 H 0.88490 0.12730 0.13990
C38 C 0.9182(14) 0.0720(12) 0.2184(9)
H48 H 0.94450 0.13220 0.24340
C39 C 0.7871(14) 0.0469(13) 0.2257(9)
C40 C 0.7118(13) 0.1126(11) 0.2453(7)
C41 C 0.6047(15) 0.0943(13) 0.2456(8)
H49 H 0.56080 0.14150 0.25560
C42 C 0.5482(13) 0.0026(11) 0.2309(8)
C43 C 0.6104(14) -0.0670(12) 0.2161(8)
C44 C 0.7311(13) -0.0427(11) 0.2115(8)
H50 H 0.77480 -0.08890 0.19840
C45 C 0.7120(15) 0.2716(11) 0.2853(8)
H51 H 0.64830 0.27440 0.25590
H52 H 0.76200 0.33090 0.29080
C46 C 0.6614(14) 0.2559(12) 0.3469(9)
C47 C 0.3568(13) 0.0423(11) 0.2199(8)
H53 H 0.28420 0.00790 0.20020
H54 H 0.39340 0.07830 0.19040
C48 C 0.3272(14) 0.1103(12) 0.2757(9)
C49 C 0.361(3) -0.138(3) -0.0700(17)
H55 H 0.31440 -0.09770 -0.08670
H56 H 0.32360 -0.20090 -0.08100
H57 H 0.43660 -0.13100 -0.08620
C50 C 0.374(3) -0.114(2) -0.0003(16)
H58 H 0.40790 -0.04990 0.01030
H59 H 0.29670 -0.12160 0.01560
C51 C 0.447(2) -0.1722(19) 0.0298(11)
H60 H 0.52340 -0.16610 0.01320
H61 H 0.41160 -0.23630 0.02010
C52 C 0.462(2) -0.1451(17) 0.1011(10)
H62 H 0.49370 -0.08010 0.11060
H63 H 0.38580 -0.15380 0.11770
C53 C 0.5388(17) -0.1985(13) 0.1321(10)
H64 H 0.61490 -0.19110 0.11520
H65 H 0.50630 -0.26340 0.12410
C54 C 0.5533(13) -0.1676(11) 0.2018(7)
H66 H 0.47420 -0.16980 0.21610
C55 C 0.6121(12) -0.2321(11) 0.2365(8)
C56 C 0.6152(13) -0.2223(12) 0.3004(8)
C57 C 0.6529(13) -0.2861(12) 0.3327(8)
H67 H 0.64900 -0.27980 0.37510
C58 C 0.6972(14) -0.3609(12) 0.3015(8)
C59 C 0.706(2) -0.3697(18) 0.2387(12)
C60 C 0.6659(13) -0.3047(11) 0.2068(8)
H68 H 0.67430 -0.30890 0.16480
C61 C 0.6537(16) -0.0736(14) 0.3555(9)
H69 H 0.62320 -0.01860 0.34720
H70 H 0.72390 -0.07670 0.33340
C62 C 0.6867(14) -0.0635(12) 0.4235(7)
C63 C 0.6574(18) -0.4625(14) 0.3741(10)
H71 H 0.66130 -0.52780 0.37220
H72 H 0.57920 -0.45670 0.35930
C64 C 0.6751(16) -0.4194(14) 0.4396(9)
O1 O 0.9213(10) -0.5660(8) 0.2354(5)
O2 O 1.1161(12) -0.6978(10) 0.3001(7)
O3 O 1.2564(9) -0.3409(8) 0.2132(6)
O4 O 1.3918(18) -0.5037(13) 0.2822(11)
O5 O 1.3336(13) -0.3754(13) 0.3228(9)
O6 O 1.0402(12) -0.5809(10) 0.3431(7)
O7 O 1.2089(10) -0.1695(8) 0.2996(5)
O8 O 1.2123(10) -0.1699(9) 0.4256(6)
O9 O 1.3750(9) -0.0739(8) 0.4413(6)
O10 O 1.0468(9) 0.1082(7) 0.3348(5)
O11 O 1.0689(11) 0.2378(9) 0.4268(6)
O12 O 0.9003(9) 0.1920(8) 0.4637(6)
O13 O 0.7778(9) 0.2020(8) 0.2601(6)
O14 O 0.6993(12) 0.1988(10) 0.3758(7)
O15 O 0.5878(11) 0.3051(10) 0.3626(7)
O16 O 0.4293(9) -0.0205(8) 0.2333(6)
O17 O 0.3762(11) 0.1204(10) 0.3271(6)
O18 O 0.2435(10) 0.1509(9) 0.2619(6)
O19 O 0.5716(9) -0.1505(8) 0.3319(6)
O20 O 0.7453(9) 0.0130(8) 0.4446(6)
O21 O 0.6617(13) -0.1273(10) 0.4518(6)
O22 O 0.7368(11) -0.4262(10) 0.3333(6)
O23 O 0.5914(11) -0.4187(11) 0.4727(7)
H73 H 0.53150 -0.44410 0.45270
O24 O 0.7807(12) -0.3944(11) 0.4607(7)
O25 O 1.3798(11) 0.3276(10) 0.3120(7)
O26 O 1.4029(11) 0.2843(10) 0.4349(6)
O27 O 1.2234(10) 0.3915(9) 0.4164(6)
O28 O 1.2408(12) 0.1202(11) 0.4348(7)
O29 O 0.5471(11) 0.2368(10) 0.5300(6)
O30 O 0.5146(10) 0.0788(9) 0.4222(6)
O31 O 0.7583(13) 0.3234(11) 0.4939(7)
C65 C 1.034(2) -0.3546(17) 0.3793(11)
H74 H 1.05560 -0.40480 0.39820
H75 H 1.10140 -0.32100 0.36470
H76 H 0.97780 -0.37840 0.34540
C66 C 0.948(2) -0.218(2) 0.3889(13)
H77 H 0.91360 -0.17420 0.41580
H78 H 0.89360 -0.24510 0.35530
H79 H 1.01700 -0.18680 0.37350
N1 N 0.9815(14) -0.2929(12) 0.4243(8)
O32 O 0.902(2) 0.4366(15) 0.4426(15)
O33 O 1.3658(11) -0.4415(9) 0.4291(6)
Eu1A Eu 1.30254(7) -0.15865(6) 0.52598(4)
Eu2* Eu 0.23066(7) 0.23313(6) 0.36287(4)
Eu2** Eu 1.23066(7) -0.76687(6) 0.36287(4)
O2* O 1.1161(12) 0.3022(10) 0.3001(7)
O8A O 0.7877(10) 0.1699(9) 0.5744(6)
O9A O 0.6250(9) 0.0739(8) 0.5587(6)
O17* O 1.3762(11) 0.1204(10) 0.3271(6)
O18* O 1.2435(10) 0.1509(9) 0.2619(6)
#END
