
#######################################################################
#
#                 Cambridge Crystallographic Data Centre
#                                CCDC
#
#######################################################################
#
# If this CIF has been generated from an entry in the Cambridge
# Structural Database, then it will include bibliographic, chemical,
# crystal, experimental, refinement or atomic coordinate data resulting
# from the CCDC's data processing and validation procedures.
#
#######################################################################

data_CSD_CIF_GIVPIL
_audit_creation_date 2008-06-26
_audit_creation_method CSD-ConQuest-V1
_database_code_CSD GIVPIL
_database_code_depnum_ccdc_archive 'CCDC 205540'
_chemical_formula_sum 'C14 H106 Al1 Cr1 Na20 O82 P12'
_chemical_formula_moiety
;
(H3 O1 1+)10n,n(C12 H54 Al1 Cr1 Na20 O63 P12 10-),n(C2 H6 O1),8n(H2 O1)
;
_journal_coden_Cambridge 542
_journal_volume 41
_journal_year 2006
_journal_page_first 1049
_journal_name_full 'Cryst.Res.Technol. '
loop_
_publ_author_name
"Zongbin Wu"
"Zhongmin Liu"
"Peng Tian"
"Lei Xu"
"Haibin Song"
"Xinhe Bao"
"Xiumei Liu"
"Xianchun Liu"
_chemical_name_systematic
;
catena-(decakis(Oxonium) 
hexakis(\m~8~-1-hydroxyethylidenediphosphonato)-tris(\m~2~-oxo)-octadecaaqua-a
luminium-chromium-icosa-sodium ethanol solvate octahydrate)
;
_cell_volume   2453.471
_exptl_crystal_density_diffrn 1.696
_diffrn_ambient_temperature 293
_refine_special_details
;
One sodium atom is disordered with occupancies 0.7:0.3. The solvent molecule 
is disordered. The aluminium and chromium atoms are equally mixed over two 
sites.
;
#These two values have been output from a single CSD field.
_refine_ls_R_factor_gt 0.0455
_refine_ls_wR_factor_gt 0.0455
_symmetry_cell_setting hexagonal
_symmetry_space_group_name_H-M 'P -3'
_symmetry_Int_Tables_number 147
loop_
_symmetry_equiv_pos_site_id
_symmetry_equiv_pos_as_xyz
1 x,y,z
2 -y,x-y,z
3 -x+y,-x,z
4 -x,-y,-z
5 y,-x+y,-z
6 x-y,x,-z
_cell_length_a 17.910(3)
_cell_length_b 17.910(3)
_cell_length_c 8.832(3)
_cell_angle_alpha 90
_cell_angle_beta 90
_cell_angle_gamma 120
_cell_formula_units_Z 1
loop_
_atom_type_symbol
_atom_type_radius_bond
C 0.68
H 0.23
Al 1.00
Cr 1.35
Na 1.44
O 0.85
P 1.05
loop_
_atom_site_label
_atom_site_type_symbol
_atom_site_fract_x
_atom_site_fract_y
_atom_site_fract_z
Cr1? Cr 0.33330 0.66670 0.49188(12)
Al1 Al 0.33330 0.66670 0.49188(12)
P1 P 0.24738(5) 0.46952(5) 0.61871(8)
P2 P 0.15894(5) 0.50939(5) 0.36147(8)
O1 O 0.29898(15) 0.56892(13) 0.6274(2)
O2 O 0.30735(15) 0.43450(15) 0.6463(2)
O3 O 0.17033(14) 0.43528(15) 0.7237(2)
O4 O 0.12731(14) 0.48504(14) 0.1986(2)
O5 O 0.23523(13) 0.60270(13) 0.3629(2)
O6 O 0.08908(13) 0.49775(14) 0.4708(2)
O7 O 0.27960(13) 0.46273(14) 0.3233(2)
C1 C 0.20662(19) 0.44318(18) 0.4222(3)
C2 C 0.1424(2) 0.3476(2) 0.4033(4)
H1 H 0.16840 0.31460 0.43540
H2 H 0.12590 0.33560 0.29880
H3 H 0.09220 0.33240 0.46390
Na1 Na 0.33330 0.66670 0.8479(2)
Na2 Na 0.44594(8) 0.58061(9) 0.72107(15)
Na3 Na 0.38726(9) 0.42834(9) 0.43753(14)
Na4 Na 0.2561(2) 0.3479(2) 0.1125(4)
Na5? Na 0.2310(6) 0.3031(7) 0.0543(10)
O8 O 0.19807(16) 0.61331(16) 0.9640(3)
O9 O 0.45378(17) 0.46164(16) 0.1815(3)
O10 O 0.7150(2) 1.0104(2) 0.2921(4)
O11 O 0.3502(2) 0.3738(2) -0.0911(3)
O12 O 0.22264(19) 0.4392(2) 0.0070(3)
O13 O 0.1126(10) 0.2238(7) 0.0580(15)
O14 O 0.1763(7) 0.2430(7) -0.2452(18)
O15 O 0.1428(5) 0.1357(5) 0.4047(13)
C3 C 0.00000 0.00000 0.0843(12)
O16 O 0.0824(8) 0.0665(11) 0.126(2)
Al1D Al 0.66670 0.33340 0.50812(12)
Al1C Al 0.66670 1.33330 0.50812(12)
Al1C* Al -0.33330 0.33330 0.50812(12)
P1A P 0.53048(5) 0.77786(5) 0.61871(8)
P1B P 0.22214(5) 0.75262(5) 0.61871(8)
P1D P 0.46952(5) 0.22214(5) 0.38129(8)
P1E P 0.77786(5) 1.24738(5) 0.38129(8)
P1C P -0.24738(5) 0.53048(5) 0.38129(8)
P2A P 0.49061(5) 0.64955(5) 0.36147(8)
P2B P 0.35045(5) 0.84106(5) 0.36147(8)
P2D P 0.50939(5) 0.35045(5) 0.63853(8)
P2E P 0.64955(5) 1.15894(5) 0.63853(8)
P2C P -0.15894(5) 0.49061(5) 0.63853(8)
O1A O 0.43108(15) 0.73006(13) 0.6274(2)
O1B O 0.26994(15) 0.70102(13) 0.6274(2)
O1D O 0.56892(15) 0.26994(13) 0.3726(2)
O1E O 0.73006(15) 1.29898(13) 0.3726(2)
O1C O -0.29898(15) 0.43108(13) 0.3726(2)
O1C* O 0.70102(15) 0.43108(13) 0.3726(2)
O1E* O 0.73006(15) 0.29898(13) 0.3726(2)
O2A O 0.56550(15) 0.87285(15) 0.6463(2)
O2B O 0.12715(15) 0.69265(15) 0.6463(2)
O2D O 0.43450(15) 0.12715(15) 0.3537(2)
O2E O 0.87285(15) 1.30735(15) 0.3537(2)
O2C O -0.30735(15) 0.56550(15) 0.3537(2)
O2E* O -0.12715(15) 0.30735(15) 0.3537(2)
O2C* O 0.69265(15) 0.56550(15) 0.3537(2)
O2D* O 0.43450(15) 1.12715(15) 0.3537(2)
O3A O 0.56472(14) 0.73505(15) 0.7237(2)
O3B O 0.26495(14) 0.82967(15) 0.7237(2)
O3D O 0.43528(14) 0.26495(15) 0.2763(2)
O3E O 0.73505(14) 1.17033(15) 0.2763(2)
O3C O -0.17033(14) 0.56472(15) 0.2763(2)
O3E* O 0.73505(14) 0.17033(15) 0.2763(2)
O3C* O 0.82967(14) 1.56472(15) 0.2763(2)
O3D* O -0.56472(14) 0.26495(15) 0.2763(2)
O4A O 0.51496(14) 0.64227(14) 0.1986(2)
O4B O 0.35773(14) 0.87269(14) 0.1986(2)
O4D O 0.48504(14) 0.35773(14) 0.8014(2)
O4E O 0.64227(14) 1.12731(14) 0.8014(2)
O4C O -0.12731(14) 0.51496(14) 0.8014(2)
O5A O 0.39730(13) 0.63253(13) 0.3629(2)
O5B O 0.36747(13) 0.76477(13) 0.3629(2)
O5D O 0.60270(13) 0.36747(13) 0.6371(2)
O5E O 0.63253(13) 1.23523(13) 0.6371(2)
O5C O -0.23523(13) 0.39730(13) 0.6371(2)
O5C* O 0.76477(13) 0.39730(13) 0.6371(2)
O5E* O 0.63253(13) 0.23523(13) 0.6371(2)
O6A O 0.50225(13) 0.59133(14) 0.4708(2)
O6B O 0.40867(13) 0.91092(14) 0.4708(2)
O6D O 0.49775(13) 0.40867(14) 0.5292(2)
O6E O 0.59133(13) 1.08908(14) 0.5292(2)
O6C O -0.08908(13) 0.50225(14) 0.5292(2)
O6E* O 0.59133(13) 0.08908(14) 0.5292(2)
O6C* O 0.91092(13) 1.50225(14) 0.5292(2)
O6D* O -0.50225(13) 0.40867(14) 0.5292(2)
O7A O 0.53727(13) 0.81687(14) 0.3233(2)
O7B O 0.18313(13) 0.72040(14) 0.3233(2)
O7D O 0.46273(13) 0.18313(14) 0.6767(2)
O7E O 0.81687(13) 1.27960(14) 0.6767(2)
O7C O -0.27960(13) 0.53727(14) 0.6767(2)
O7E* O -0.18313(13) 0.27960(14) 0.6767(2)
O7C* O 0.72040(13) 0.53727(14) 0.6767(2)
O7D* O 0.46273(13) 1.18313(14) 0.6767(2)
C1A C 0.55682(19) 0.76344(18) 0.4222(3)
C1B C 0.23656(19) 0.79338(18) 0.4222(3)
C1D C 0.44318(19) 0.23656(18) 0.5778(3)
C1E C 0.76344(19) 1.20662(18) 0.5778(3)
C1C C -0.20662(19) 0.55682(18) 0.5778(3)
C2A C 0.6524(2) 0.7948(2) 0.4033(4)
C2B C 0.2052(2) 0.8576(2) 0.4033(4)
C2D C 0.3476(2) 0.2052(2) 0.5967(4)
C2E C 0.7948(2) 1.1424(2) 0.5967(4)
C2C C -0.1424(2) 0.6524(2) 0.5967(4)
H1A H 0.68540 0.85380 0.43540
H1B H 0.14620 0.83160 0.43540
H1D H 0.31460 0.14620 0.56460
H1E H 0.85380 1.16840 0.56460
H1C H -0.16840 0.68540 0.56460
H2A H 0.66440 0.79030 0.29880
H2B H 0.20970 0.87410 0.29880
H2D H 0.33560 0.20970 0.70120
H2E H 0.79030 1.12590 0.70120
H2C H -0.12590 0.66440 0.70120
H3A H 0.66760 0.75980 0.46390
H3B H 0.24020 0.90780 0.46390
H3D H 0.33240 0.24020 0.53610
H3E H 0.75980 1.09220 0.53610
H3C H -0.09220 0.66760 0.53610
Na1D Na 0.66670 0.33340 0.1521(2)
Na1C Na 0.66670 1.33330 0.1521(2)
Na1C* Na -0.33330 0.33330 0.1521(2)
Na2A Na 0.41939(8) 0.86533(9) 0.72107(15)
Na2B Na 0.13467(8) 0.55406(9) 0.72107(15)
Na2D Na 0.58061(8) 0.13467(9) 0.27893(15)
Na2E Na 0.86533(8) 1.44594(9) 0.27893(15)
Na2C Na -0.44594(8) 0.41939(9) 0.27893(15)
Na2C* Na 0.55406(8) 0.41939(9) 0.27893(15)
Na2D* Na 0.58061(8) 1.13467(9) 0.27893(15)
Na2E* Na -0.13467(8) 0.44594(9) 0.27893(15)
Na2E** Na 0.86533(8) 0.44594(9) 0.27893(15)
Na3A Na 0.57166(9) 0.95892(9) 0.43753(14)
Na3B Na 0.04108(9) 0.61274(9) 0.43753(14)
Na3E Na -0.04108(9) 0.38726(9) 0.56247(14)
Na3C Na 0.61274(9) 0.57166(9) 0.56247(14)
Na3D Na 0.42834(9) 1.04108(9) 0.56247(14)
Na3D* Na 0.42834(9) 0.04108(9) 0.56247(14)
Na3E* Na 0.95892(9) 1.38726(9) 0.56247(14)
Na3C* Na -0.38726(9) 0.57166(9) 0.56247(14)
Na4A Na 0.6521(2) 0.9082(2) 0.1125(4)
Na4B Na 0.0918(2) 0.7439(2) 0.1125(4)
Na4D Na 0.3479(2) 0.0918(2) 0.8875(4)
Na4E Na 0.9082(2) 1.2561(2) 0.8875(4)
Na4C Na -0.2561(2) 0.6521(2) 0.8875(4)
Na4E* Na -0.0918(2) 0.2561(2) 0.8875(4)
Na4C* Na 0.7439(2) 0.6521(2) 0.8875(4)
Na4D* Na 0.3479(2) 1.0918(2) 0.8875(4)
O8A O 0.38669(16) 0.58476(16) 0.9640(3)
O8B O 0.41524(16) 0.80193(16) 0.9640(3)
O8D O 0.61331(16) 0.41524(16) 0.0360(3)
O8E O 0.58476(16) 0.19807(16) 0.0360(3)
O8C O 0.80193(16) 0.38669(16) 0.0360(3)
O8C* O 0.80193(16) 1.38669(16) 0.0360(3)
O8D* O -0.38669(16) 0.41524(16) 0.0360(3)
O9C O 0.54622(17) 0.53836(16) 0.8185(3)
O9D O 0.46164(17) 1.00786(16) 0.8185(3)
O9E O -0.00786(17) 0.45378(16) 0.8185(3)
O9A O 0.53836(17) 0.99214(16) 0.1815(3)
O9B O 0.00786(17) 0.54622(16) 0.1815(3)
O9A* O 0.53836(17) -0.00786(16) 0.1815(3)
O9B* O 1.00786(17) 1.54622(16) 0.1815(3)
O9* O -0.54622(17) 0.46164(16) 0.1815(3)
O10B O 0.2954(2) 0.2850(2) 0.2921(4)
O10A O -0.0104(2) 0.7046(2) 0.2921(4)
O10D O 0.0104(2) 0.2954(2) 0.7079(4)
O10E O 0.7046(2) 0.7150(2) 0.7079(4)
O10C O 0.2850(2) 0.9896(2) 0.7079(4)
O10C* O 0.2850(2) -0.0104(2) 0.7079(4)
O10D* O 1.0104(2) 1.2954(2) 0.7079(4)
O10E* O -0.2954(2) 0.7150(2) 0.7079(4)
O11A O 0.6262(2) 0.9764(2) -0.0911(3)
O11B O 0.0236(2) 0.6498(2) -0.0911(3)
O11D O 0.3738(2) 0.0236(2) 1.0911(3)
O11E O 0.9764(2) 1.3502(2) 1.0911(3)
O11C O -0.3502(2) 0.6262(2) 1.0911(3)
O12A O 0.56080(19) 0.78344(20) 0.0070(3)
O12B O 0.21656(19) 0.77736(20) 0.0070(3)
O12D O 0.43920(19) 0.21656(20) 0.9930(3)
O12E O 0.78344(19) 1.22264(20) 0.9930(3)
O12C O -0.22264(19) 0.5608(2) 0.9930(3)
O13A O 0.7762(10) 0.8888(7) 0.0580(15)
O13B O 0.1112(10) 0.8874(7) 0.0580(15)
O13D O 0.2238(10) 0.1112(7) 0.9420(15)
O13E O 0.8888(10) 1.1126(7) 0.9420(15)
O13C O -0.1126(10) 0.7762(7) 0.9420(15)
C3C C 0.00000 0.00000 -0.0843(12)
O16C O -0.0824(8) -0.0665(11) -0.126(2)
O16D O 0.0665(8) -0.0159(11) -0.126(2)
O16E O 0.0159(8) 0.0824(11) -0.126(2)
O16A O -0.0665(8) 0.0159(11) 0.126(2)
O16B O -0.0159(8) -0.0824(11) 0.126(2)
#END
