
#######################################################################
#
#                 Cambridge Crystallographic Data Centre
#                                CCDC
#
#######################################################################
#
# If this CIF has been generated from an entry in the Cambridge
# Structural Database, then it will include bibliographic, chemical,
# crystal, experimental, refinement or atomic coordinate data resulting
# from the CCDC's data processing and validation procedures.
#
#######################################################################

data_CSD_CIF_GIVPEH
_audit_creation_date 2008-06-26
_audit_creation_method CSD-ConQuest-V1
_database_code_CSD GIVPEH
_database_code_depnum_ccdc_archive 'CCDC 198393'
_chemical_formula_sum 'C6 H63 Cr1 Na6 O45 P6'
_chemical_formula_moiety
;
(C6 H12 Cr1 Na6 O21 P6 3-)n,3n(H3 O1 1+),21n(H2 O1)
;
_journal_coden_Cambridge 542
_journal_volume 41
_journal_year 2006
_journal_page_first 1049
_journal_name_full 'Cryst.Res.Technol. '
loop_
_publ_author_name
"Zongbin Wu"
"Zhongmin Liu"
"Peng Tian"
"Lei Xu"
"Haibin Song"
"Xinhe Bao"
"Xiumei Liu"
"Xianchun Liu"
_chemical_name_systematic
;
catena-(Trioxonium 
tris(\m~6~-1-hydroxyethylidenediphosphonato)-chromium(iii)-hexa-sodium 
hydrate)
;
_cell_volume   2476.912
_exptl_crystal_density_diffrn 1.663
_diffrn_ambient_temperature 293
#These two values have been output from a single CSD field.
_refine_ls_R_factor_gt 0.0574
_refine_ls_wR_factor_gt 0.0574
_symmetry_cell_setting hexagonal
_symmetry_space_group_name_H-M 'P -3'
_symmetry_Int_Tables_number 147
loop_
_symmetry_equiv_pos_site_id
_symmetry_equiv_pos_as_xyz
1 x,y,z
2 -y,x-y,z
3 -x+y,-x,z
4 -x,-y,-z
5 y,-x+y,-z
6 x-y,x,-z
_cell_length_a 17.974(4)
_cell_length_b 17.974(4)
_cell_length_c 8.853(4)
_cell_angle_alpha 90
_cell_angle_beta 90
_cell_angle_gamma 120
_cell_formula_units_Z 2
loop_
_atom_type_symbol
_atom_type_radius_bond
C 0.68
H 0.23
Cr 1.35
Na 1.51
O 0.78
P 1.05
loop_
_atom_site_label
_atom_site_type_symbol
_atom_site_fract_x
_atom_site_fract_y
_atom_site_fract_z
Cr1 Cr 0.33330 -0.33330 -0.50526(13)
P1 P 0.53160(8) -0.22092(8) -0.38037(13)
P2 P 0.34859(7) -0.15877(7) -0.63931(13)
O1 O 0.4337(2) -0.2695(2) -0.3680(4)
O2 O 0.2614(3) -0.1712(2) -0.2763(4)
O3 O 0.5656(2) -0.1269(2) -0.3555(4)
O4 O 0.1831(2) -0.2817(2) -0.6722(3)
H1 H 0.15780 -0.26900 -0.73500
O5 O 0.3661(2) -0.2333(2) -0.6442(4)
O6 O 0.4064(2) -0.0904(2) -0.5290(4)
O7 O 0.3539(2) -0.1257(2) -0.7990(4)
C1 C 0.2354(3) -0.2078(3) -0.5772(5)
C2 C 0.6510(3) -0.2029(4) -0.5962(6)
H2 H 0.68300 -0.14420 -0.56330
H3 H 0.66710 -0.23730 -0.53670
H4 H 0.66320 -0.20640 -0.70060
Na1 Na 0.56778(13) -0.04145(13) -0.5581(2)
Na2 Na 0.41593(15) -0.13960(15) -0.2794(3)
O8 O 0.4667(3) 0.0067(3) -0.1809(5)
O9 O 0.7050(3) 0.0080(3) -0.7021(6)
O10 O 0.4121(3) -0.1995(3) -0.0304(5)
O11 O 0.66670 0.33330 -0.1550(12)
O12 O 0.3648(6) 0.0907(3) -0.1126(5)
O13 O 0.4378(4) 0.2161(3) -0.0080(5)
O14 O 0.3464(5) 0.3706(5) -0.0963(8)
O15 O 0.66670 0.33330 -0.8441(5)
O16 O 0.1787(9) 0.2466(9) -0.2611(19)
O17 O 0.146(1) 0.1397(11) -0.599(3)
O18 O 0.2200(14) 0.1104(19) -0.053(3)
P1A P 0.22092(8) -0.24748(8) -0.38037(13)
P1B P 0.24748(8) -0.53160(8) -0.38037(13)
P2A P 0.15877(7) -0.49264(7) -0.63931(13)
P2B P 0.49264(7) -0.34859(7) -0.63931(13)
O1A O 0.2695(2) -0.2968(2) -0.3680(4)
O1B O 0.2968(2) -0.4337(2) -0.3680(4)
O2A O 0.1712(3) -0.5674(2) -0.2763(4)
O2B O 0.5674(3) -0.2614(2) -0.2763(4)
O3A O 0.1269(2) -0.3075(2) -0.3555(4)
O3B O 0.3075(2) -0.5656(2) -0.3555(4)
O4A O 0.2817(2) -0.5352(2) -0.6722(3)
O4B O 0.5352(2) -0.1831(2) -0.6722(3)
H1A H 0.26900 -0.57320 -0.73500
H1B H 0.57320 -0.15780 -0.73500
O5A O 0.2333(2) -0.4006(2) -0.6442(4)
O5B O 0.4006(2) -0.3661(2) -0.6442(4)
O6C O 0.5936(2) 0.0904(2) -0.4710(4)
O6D O -0.0904(2) -0.4968(2) -0.4710(4)
O6A O 0.0904(2) -0.5032(2) -0.5290(4)
O6B O 0.5032(2) -0.4064(2) -0.5290(4)
O6E O 0.4968(2) -0.5936(2) -0.4710(4)
O7A O 0.1257(2) -0.5204(2) -0.7990(4)
O7B O 0.5204(2) -0.3539(2) -0.7990(4)
C1A C 0.2078(3) -0.5568(3) -0.5772(5)
C1B C 0.5568(3) -0.2354(3) -0.5772(5)
C2B C 0.1461(3) -0.6510(4) -0.5962(6)
C2A C 0.2029(3) -0.1461(4) -0.5962(6)
H2B H 0.17280 -0.68300 -0.56330
H2A H 0.14420 -0.17280 -0.56330
H3B H 0.09560 -0.66710 -0.53670
H3A H 0.23730 -0.09560 -0.53670
H4B H 0.13040 -0.66320 -0.70060
H4A H 0.20640 -0.13040 -0.70060
Na1C Na 0.43222(13) 0.04145(13) -0.4419(2)
Na1A Na 0.04145(13) -0.39077(13) -0.5581(2)
Na1D Na -0.04145(13) -0.60923(13) -0.4419(2)
Na1E Na 0.60923(13) -0.43222(13) -0.4419(2)
Na1B Na 0.39077(13) -0.56778(13) -0.5581(2)
Na2C Na 0.58407(15) 0.13960(15) -0.7206(3)
Na2A Na 0.13960(15) -0.44447(15) -0.2794(3)
Na2D Na -0.13960(15) -0.55553(15) -0.7206(3)
Na2B Na 0.44447(15) -0.41593(15) -0.2794(3)
O8C O 0.5333(3) -0.0067(3) -0.8191(5)
O8B O 0.5400(3) -0.4667(3) -0.1809(5)
O8E O 0.4600(3) -0.5333(3) -0.8191(5)
O8D O 0.0067(3) -0.4600(3) -0.8191(5)
O8A O -0.0067(3) -0.5400(3) -0.1809(5)
O9B O 0.3030(3) -0.7050(3) -0.7021(6)
O9A O -0.0080(3) -0.3030(3) -0.7021(6)
O10B O 0.3884(3) -0.4121(3) -0.0304(5)
O10A O 0.1995(3) -0.3884(3) -0.0304(5)
#END
