
#######################################################################
#
#                 Cambridge Crystallographic Data Centre
#                                CCDC
#
#######################################################################
#
# If this CIF has been generated from an entry in the Cambridge
# Structural Database, then it will include bibliographic, chemical,
# crystal, experimental, refinement or atomic coordinate data resulting
# from the CCDC's data processing and validation procedures.
#
#######################################################################

data_CSD_CIF_GIWLOQ
_audit_creation_date 2019-01-29
_audit_creation_method CSD-ConQuest-V1
_database_code_CSD GIWLOQ
_database_code_depnum_ccdc_archive 'CCDC 1572859'
_chemical_formula_sum 'C39 H33 Eu4 N7 O29 S2'
_chemical_formula_moiety
;
(C35 H15 Eu4 N5 O28 S2 2-)n,2(C2 H8 N1 1+),H2 O1
;
_journal_coden_Cambridge 2020
_journal_volume 3
_journal_year 2018
_journal_page_first 9564
_journal_name_full 'Chem. Sel. '
loop_
_publ_author_name
"Xue-Zhi Song"
"Yu-Xiang Wang"
"Jia-Wei Yan"
"Xi Chen"
"Yu-Lan Meng"
"Zhenquan Tan"
_chemical_name_systematic
;
catena-[bis(dimethylammonium) 
pentakis(\m-pyridine-3,5-dicarboxylato)-bis(\m-sulfato)-tetra-europium(iii) 
monohydrate]
;
_cell_volume   4898.805
_exptl_crystal_colour 'light yellow'
_exptl_crystal_density_diffrn 2.353
_exptl_crystal_description 'block'
_diffrn_ambient_temperature 120
#These two values have been output from a single CSD field.
_refine_ls_R_factor_gt 0.0381
_refine_ls_wR_factor_gt 0.0381
_symmetry_cell_setting monoclinic
_symmetry_space_group_name_H-M 'P 21/c'
_symmetry_Int_Tables_number 14
loop_
_symmetry_equiv_pos_site_id
_symmetry_equiv_pos_as_xyz
1 x,y,z
2 -x,1/2+y,1/2-z
3 -x,-y,-z
4 x,-1/2-y,-1/2+z
_cell_length_a 8.299(2)
_cell_length_b 31.863(6)
_cell_length_c 19.556(6)
_cell_angle_alpha 90
_cell_angle_beta 108.68(3)
_cell_angle_gamma 90
_cell_formula_units_Z 4
loop_
_atom_type_symbol
_atom_type_radius_bond
C 0.68
H 0.23
Eu 1.98
N 0.68
O 0.68
S 1.02
loop_
_atom_site_label
_atom_site_type_symbol
_atom_site_fract_x
_atom_site_fract_y
_atom_site_fract_z
C1 C -0.3819(7) -0.05400(19) 0.3801(3)
C2 C -0.0803(8) -0.07725(19) 0.4363(3)
H1 H -0.09009 -0.09117 0.39216
C3 C -0.2198(7) -0.05466(19) 0.4419(3)
C4 C -0.2038(7) -0.03270(19) 0.5054(3)
H2 H -0.29584 -0.01649 0.51003
C5 C -0.0506(7) -0.03493(19) 0.5619(3)
C6 C 0.0775(8) -0.0595(2) 0.5518(3)
H3 H 0.18026 -0.06201 0.59099
C7 C -0.0211(8) -0.01158(19) 0.6310(3)
C8 C -1.0380(7) 0.01790(18) 0.1472(3)
C9 C -0.9156(8) 0.05796(19) 0.0627(3)
H4 H -0.81291 0.06093 0.10180
C10 C -1.0506(7) 0.03627(19) 0.0745(3)
C11 C -1.1967(7) 0.02999(19) 0.0167(3)
H5 H -1.29135 0.01573 0.02316
C12 C -1.2032(7) 0.04492(19) -0.0514(3)
C13 C -1.0659(8) 0.06826(19) -0.0575(3)
H6 H -1.07323 0.07989 -0.10316
C14 C -1.3561(7) 0.03569(18) -0.1148(3)
C15 C -0.8641(8) -0.26259(19) 0.1778(3)
C16 C -0.7530(8) -0.3077(2) 0.0957(3)
H7 H -0.64968 -0.31058 0.13452
C17 C -0.8840(7) -0.28416(19) 0.1071(3)
C18 C -1.0339(7) -0.27937(19) 0.0497(3)
H8 H -1.12635 -0.26375 0.05531
C19 C -1.0457(7) -0.29792(19) -0.0162(3)
C20 C -0.9095(8) -0.32120(19) -0.0221(3)
H9 H -0.91878 -0.33394 -0.06712
C21 C -1.2047(8) -0.29088(19) -0.0791(3)
C22 C -0.4792(8) -0.19333(19) 0.1540(3)
C23 C -0.7853(8) -0.1736(2) 0.0915(3)
H10 H -0.78185 -0.15956 0.13477
C24 C -0.6389(7) -0.1938(2) 0.0889(3)
C25 C -0.6432(8) -0.2145(2) 0.0255(3)
H11 H -0.54458 -0.22814 0.02190
C26 C -0.7942(8) -0.2148(2) -0.0325(3)
C27 C -0.9335(8) -0.1935(2) -0.0244(3)
H12 H -1.03603 -0.19341 -0.06399
C28 C -0.8077(8) -0.23780(19) -0.1018(3)
C29 C -0.5586(8) 0.0494(2) 0.2530(3)
C30 C -0.7983(9) 0.0861(2) 0.2812(4)
H13 H -0.82529 0.05959 0.29695
C31 C -0.6608(8) 0.08817(19) 0.2542(3)
C32 C -0.6203(8) 0.12682(19) 0.2316(3)
H14 H -0.53078 0.12942 0.21136
C33 C -0.7143(8) 0.1618(2) 0.2392(4)
C34 C -0.8485(9) 0.1568(2) 0.2655(4)
H15 H -0.91257 0.18079 0.26958
C35 C -0.6731(10) 0.2048(2) 0.2208(4)
Eu1 Eu -0.75023(3) -0.04206(2) 0.27829(2)
Eu2 Eu -0.32359(4) -0.02000(2) 0.22463(2)
Eu3 Eu -0.53308(3) -0.22354(2) 0.31522(2)
Eu4 Eu -1.10530(3) -0.20645(2) 0.25939(2)
N1 N 0.0675(7) -0.0801(2) 0.4909(3)
N2 N -0.9242(7) 0.07491(17) -0.0018(3)
N3 N -0.7651(6) -0.32645(17) 0.0332(3)
N4 N -0.9321(7) -0.17301(19) 0.0358(3)
N5 N -0.8932(8) 0.1188(2) 0.2860(3)
O1 O -0.3781(6) -0.05788(13) 0.3166(2)
O2 O -0.5202(5) -0.05059(15) 0.3940(2)
O3 O -0.1479(5) 0.00640(14) 0.6403(2)
O4 O 0.1266(5) -0.01187(14) 0.6754(2)
O5 O -1.3620(5) 0.04540(14) -0.1780(2)
O6 O -1.4785(6) 0.01680(14) -0.1033(2)
O7 O -1.1774(5) 0.01387(15) 0.1591(2)
O8 O -0.8951(5) 0.00787(14) 0.1885(2)
O9 O -0.8138(5) -0.17958(14) 0.2903(2)
O10 O -0.5420(6) -0.15396(14) 0.3595(2)
O11 O -0.7128(6) -0.11333(15) 0.2566(3)
O12 O -0.7905(6) -0.11493(17) 0.3631(3)
O13 O -1.3229(5) -0.08900(13) 0.1754(2)
O14 O -1.0460(5) -0.06506(14) 0.2432(2)
O15 O -1.1455(6) -0.13394(14) 0.2693(3)
O16 O -1.0777(6) -0.12533(17) 0.1605(3)
O17 O -0.7187(5) -0.26288(14) 0.2232(2)
O18 O -0.9945(6) -0.24544(16) 0.1853(2)
O19 O -1.3274(5) -0.27387(14) -0.0660(2)
O20 O -1.2134(5) -0.30253(14) -0.1418(2)
O21 O -0.3362(5) -0.19608(15) 0.1438(2)
O22 O -0.4958(6) -0.18960(14) 0.2158(2)
O23 O -0.9523(5) -0.24534(14) -0.1457(2)
O24 O -0.6683(5) -0.24745(16) -0.1100(2)
O25 O -0.7147(7) 0.23577(16) 0.2510(3)
O26 O -0.5929(7) 0.20823(16) 0.1762(3)
O27 O -0.4599(6) 0.04967(16) 0.2163(3)
O28 O -0.5733(6) 0.01817(15) 0.2909(3)
S1 S -0.71681(19) -0.13964(5) 0.31815(8)
S2 S -1.14649(19) -0.10454(5) 0.21104(8)
C36 C -0.5212(9) -0.4217(2) 0.0574(4)
C37 C -0.3823(10) -0.3566(3) 0.0338(4)
N6 N -0.5319(7) -0.38540(18) 0.0078(3)
C38 C -1.3515(9) -0.1644(2) -0.0372(4)
C39 C -1.4690(11) -0.1007(3) 0.0001(5)
N7 N -1.3313(8) -0.1321(2) 0.0200(3)
O29 O -0.2256(12) 0.1155(3) 0.2996(5)
Eu1B Eu -1.24977(3) 0.04206(2) -0.27829(2)
Eu1B* Eu -0.24977(3) 0.04206(2) 0.72171(2)
Eu2* Eu -1.32359(4) -0.02000(2) 0.22463(2)
Eu2B Eu -1.67641(4) 0.02000(2) -0.22463(2)
Eu2B* Eu 0.32359(4) 0.02000(2) 0.77537(2)
Eu3A Eu -0.46692(3) 0.27646(2) 0.18478(2)
Eu3C Eu -1.53308(3) -0.27646(2) -0.18478(2)
Eu3C* Eu -0.53308(3) -0.27646(2) -0.18478(2)
Eu4* Eu -0.10530(3) -0.20645(2) 0.25939(2)
Eu4A Eu -0.89470(3) 0.29355(2) 0.24061(2)
Eu4C Eu -1.10530(3) -0.29355(2) -0.24061(2)
O3B O -0.8521(5) -0.00640(14) 0.3597(2)
O4B O -0.1266(5) 0.01187(14) 0.3246(2)
O5B O -0.6380(5) -0.04540(14) 0.1780(2)
O6B O -0.5215(6) -0.01680(14) 0.1033(2)
O7* O -0.1774(5) 0.01387(15) 0.1591(2)
O13* O -0.3229(5) -0.08900(13) 0.1754(2)
O14* O -0.0460(5) -0.06506(14) 0.2432(2)
O19C O -0.3274(5) -0.22613(14) 0.4340(2)
O20C O -1.2134(5) -0.19747(14) 0.3582(2)
O20C* O -0.2134(5) -0.19747(14) 0.3582(2)
O21* O -1.3362(5) -0.19608(15) 0.1438(2)
O23C O -0.9523(5) -0.25466(14) 0.3543(2)
O24C O -0.6683(5) -0.25255(16) 0.3900(2)
O25A O -1.2853(7) -0.26423(16) 0.2490(3)
O26A O -0.4071(7) -0.29177(16) 0.3238(3)
#END
