
#######################################################################
#
#                 Cambridge Crystallographic Data Centre
#                                CCDC
#
#######################################################################
#
# If this CIF has been generated from an entry in the Cambridge
# Structural Database, then it will include bibliographic, chemical,
# crystal, experimental, refinement or atomic coordinate data resulting
# from the CCDC's data processing and validation procedures.
#
#######################################################################

data_CSD_CIF_GIXPEK
_audit_creation_date 2014-02-03
_audit_creation_method CSD-ConQuest-V1
_database_code_CSD GIXPEK
_database_code_depnum_ccdc_archive 'CCDC 933350'
_chemical_formula_sum 'C28 H24 Cu2 K4 N4 O22'
_chemical_formula_moiety
;
(C14 H6 Cu1 N2 O8 2-)n,n(C14 H6 Cu1 N2 O8 2-),6n(H2 O1),4n(K1 1+)
;
_journal_coden_Cambridge 208
_journal_volume 210
_journal_year 2014
_journal_page_first 224
_journal_name_full 'J.Solid State Chem. '
loop_
_publ_author_name
"O.Z.Yesilel"
"F.Semerci"
"S.SOYLU"
"Y.Yerli"
"R.Topkayae"
_chemical_name_systematic
;
catena-(Tetra-potassium bis(bis(\m~2~-pyridine-2,3-dicarboxylato)-copper) 
hexahydrate)
;
_cell_volume    880.045
_exptl_crystal_colour 'blue'
_exptl_crystal_density_diffrn 1.985
_diffrn_ambient_temperature 293
#These two values have been output from a single CSD field.
_refine_ls_R_factor_gt 0.0461
_refine_ls_wR_factor_gt 0.0461
_symmetry_cell_setting triclinic
_symmetry_space_group_name_H-M 'P -1'
_symmetry_Int_Tables_number 2
loop_
_symmetry_equiv_pos_site_id
_symmetry_equiv_pos_as_xyz
1 x,y,z
2 -x,-y,-z
_cell_length_a 6.8309(5)
_cell_length_b 7.8300(6)
_cell_length_c 17.8331(13)
_cell_angle_alpha 87.225(4)
_cell_angle_beta 86.004(4)
_cell_angle_gamma 67.693(4)
_cell_formula_units_Z 1
loop_
_atom_type_symbol
_atom_type_radius_bond
C 0.68
H 0.23
Cu 1.32
K 2.03
N 0.68
O 0.68
loop_
_atom_site_label
_atom_site_type_symbol
_atom_site_fract_x
_atom_site_fract_y
_atom_site_fract_z
Cu1 Cu 0.50000 1.00000 0.00000
N1 N 0.2094(5) 1.1736(4) -0.01543(16)
O1 O 0.3628(4) 0.9206(4) 0.08758(15)
O2 O 0.0538(4) 0.9924(4) 0.15277(15)
O3 O -0.4306(5) 1.2082(4) 0.09615(17)
O4 O -0.3127(5) 1.3897(4) 0.15648(16)
C1 C 0.0680(5) 1.1629(5) 0.03984(19)
C2 C -0.1434(5) 1.2775(5) 0.03955(19)
C3 C -0.2079(6) 1.3983(6) -0.0224(2)
H1 H -0.34980 1.47510 -0.02510
C4 C -0.0635(6) 1.4047(5) -0.0793(2)
H2 H -0.10630 1.48320 -0.12090
C5 C 0.1470(6) 1.2910(5) -0.0728(2)
H3 H 0.24720 1.29740 -0.10970
C6 C -0.3075(6) 1.2887(5) 0.1038(2)
C7 C 0.1640(6) 1.0156(5) 0.09892(19)
Cu2 Cu 0.00000 0.50000 0.50000
N2 N 0.7059(5) 0.6710(4) 0.51722(16)
O5 O 0.5973(4) 0.5239(4) 0.34703(15)
O6 O 0.8877(4) 0.4348(4) 0.41174(15)
O7 O 0.2197(5) 0.9176(4) 0.34918(16)
O8 O 0.1009(4) 0.7165(4) 0.41051(16)
C8 C 0.5805(5) 0.6716(5) 0.46189(19)
C9 C 0.3684(5) 0.7876(5) 0.46338(19)
C10 C 0.2888(6) 0.9009(5) 0.5257(2)
H4 H 0.14710 0.98020 0.52880
C11 C 0.4174(6) 0.8962(5) 0.5823(2)
H5 H 0.36390 0.97000 0.62400
C12 C 0.6283(6) 0.7795(5) 0.5757(2)
H6 H 0.71760 0.77710 0.61320
C13 C 0.2201(5) 0.8063(5) 0.4014(2)
C14 C 0.6940(6) 0.5343(5) 0.40131(19)
K1 K 0.41168(14) 0.71272(13) 0.22444(5)
K2 K -0.08776(16) 1.21217(14) 0.27900(5)
O9 O 0.0867(7) 0.5895(6) 0.2706(2)
H7 H 0.156(9) 0.477(3) 0.269(3)
H8 H 0.079(15) 0.612(9) 0.3155(16)
O10 O 0.7184(7) 0.8987(7) 0.2377(2)
H9 H 0.754(10) 0.940(8) 0.199(2)
H10 H 0.815(10) 0.803(8) 0.247(4)
O11 O 0.3155(7) 1.2185(6) 0.2289(2)
H11 H 0.377(10) 1.227(9) 0.188(2)
H12 H 0.384(12) 1.116(6) 0.246(4)
N1A N -0.2094(5) 0.8264(4) 0.01543(16)
O1A O -0.3628(4) 1.0794(4) -0.08758(15)
O2A O -0.0538(4) 1.0076(4) -0.15277(15)
O3A O 0.4306(5) 0.7918(4) -0.09615(17)
O4A O 0.3127(5) 0.6103(4) -0.15648(16)
C1A C -0.0680(5) 0.8371(5) -0.03984(19)
C2A C 0.1434(5) 0.7225(5) -0.03955(19)
C3A C 0.2079(6) 0.6017(6) 0.0224(2)
H1A H 0.34980 0.52490 0.02510
C4A C 0.0635(6) 0.5953(5) 0.0793(2)
H2A H 0.10630 0.51680 0.12090
C5A C -0.1470(6) 0.7090(5) 0.0728(2)
H3A H -0.24720 0.70260 0.10970
C6A C 0.3075(6) 0.7113(5) -0.1038(2)
C7A C -0.1640(6) 0.9844(5) -0.09892(19)
Cu1* Cu -0.50000 1.00000 0.00000
N1A* N 0.7906(5) 0.8264(4) 0.01543(16)
O1A* O 0.6372(4) 1.0794(4) -0.08758(15)
O3* O 0.5694(5) 1.2082(4) 0.09615(17)
N2A N -0.7059(5) 0.3290(4) 0.48278(16)
O5A O -0.5973(4) 0.4761(4) 0.65297(15)
O6A O -0.8877(4) 0.5652(4) 0.58826(15)
O7A O -0.2197(5) 0.0824(4) 0.65082(16)
O8A O -0.1009(4) 0.2835(4) 0.58949(16)
C8A C -0.5805(5) 0.3284(5) 0.53811(19)
C9A C -0.3684(5) 0.2124(5) 0.53662(19)
C10A C -0.2888(6) 0.0991(5) 0.4743(2)
H4A H -0.14710 0.01980 0.47120
C11A C -0.4174(6) 0.1038(5) 0.4177(2)
H5A H -0.36390 0.03000 0.37600
C12A C -0.6283(6) 0.2205(5) 0.4243(2)
H6A H -0.71760 0.22290 0.38680
C13A C -0.2201(5) 0.1937(5) 0.5986(2)
C14A C -0.6940(6) 0.4657(5) 0.59869(19)
Cu2* Cu -1.00000 0.50000 0.50000
Cu2** Cu 1.00000 0.50000 0.50000
N2* N -0.2941(5) 0.6710(4) 0.51722(16)
N2A* N 0.2941(5) 0.3290(4) 0.48278(16)
O6* O -0.1123(4) 0.4348(4) 0.41174(15)
O6A* O 0.1123(4) 0.5652(4) 0.58826(15)
#END
