
#######################################################################
#
#                 Cambridge Crystallographic Data Centre
#                                CCDC
#
#######################################################################
#
# If this CIF has been generated from an entry in the Cambridge
# Structural Database, then it will include bibliographic, chemical,
# crystal, experimental, refinement or atomic coordinate data resulting
# from the CCDC's data processing and validation procedures.
#
#######################################################################

data_CSD_CIF_GIXTUF
_audit_creation_date 2019-01-29
_audit_creation_method CSD-ConQuest-V1
_database_code_CSD GIXTUF
_database_code_depnum_ccdc_archive 'CCDC 1826029'
_chemical_formula_sum 'C24 H33 Cd1 N3 O10 S1'
_chemical_formula_moiety
;
(C16 H6 Cd1 O8 S1 2-)n,2(C2 H8 N1 1+),x(C4 H9 N1 O1),x(H2 O1)
;
_journal_coden_Cambridge 208
_journal_volume 270
_journal_year 2019
_journal_page_first 493
_journal_name_full 'J.Solid State Chem. '
loop_
_publ_author_name
"Ting Gao"
"Bao-Xia Dong"
"Yong-Mei Pan"
"Wen-Long Liu"
"Yun-Lei Teng"
_chemical_name_systematic
;
catena-[bis(dimethylammonium) 
(\m-5,5'-sulfanediyldi(benzene-1,3-dicarboxylato))-cadmium 
N,N-dimethylacetamide solvate hydrate]
;
_cell_volume   7226.865
_exptl_crystal_colour 'colorless'
_exptl_special_details
;
Luminescent

;
_exptl_crystal_description 'rod'
_diffrn_ambient_temperature 170
_refine_special_details
;
Disordered dimethylammonium ions, water and N,N-dimethylacetamide solvent 
molecules were not modelled and the disordered density was taken into account 
using the SQUEEZE/PLATON procedure.
;
#These two values have been output from a single CSD field.
_refine_ls_R_factor_gt 0.0672
_refine_ls_wR_factor_gt 0.0672
_symmetry_cell_setting hexagonal
_symmetry_space_group_name_H-M 'P 63/m'
_symmetry_Int_Tables_number 176
loop_
_symmetry_equiv_pos_site_id
_symmetry_equiv_pos_as_xyz
1 x,y,z
2 x-y,x,1/2+z
3 y,-x+y,1/2+z
4 -y,x-y,z
5 -x+y,-x,z
6 -x,-y,1/2+z
7 -x,-y,-z
8 -x+y,-x,-1/2-z
9 -y,x-y,-1/2-z
10 y,-x+y,-z
11 x-y,x,-z
12 x,y,-1/2-z
_cell_length_a 28.637(3)
_cell_length_b 28.637(3)
_cell_length_c 10.1757(11)
_cell_angle_alpha 90
_cell_angle_beta 90
_cell_angle_gamma 120
_cell_formula_units_Z 6
loop_
_atom_type_symbol
_atom_type_radius_bond
C 0.68
H 0.23
Cd 1.44
O 0.68
S 1.02
loop_
_atom_site_label
_atom_site_type_symbol
_atom_site_fract_x
_atom_site_fract_y
_atom_site_fract_z
Cd1 Cd 0.495417(16) 0.131587(15) 0.25000
C1 C 0.6461(2) 0.14038(19) 0.25000
C2 C 0.6938(2) 0.19196(19) 0.25000
H1 H 0.69080 0.22350 0.25000
C3 C 0.7422(2) 0.1967(2) 0.25000
C4 C 0.7482(2) 0.1507(2) 0.25000
H2 H 0.78310 0.15440 0.25000
C5 C 0.7032(2) 0.1008(2) 0.25000
C6 C 0.65251(19) 0.09570(18) 0.25000
H3 H 0.62150 0.06070 0.25000
C7 C 0.6465(2) -0.0114(2) 0.25000
C8 C 0.62173(18) -0.03123(15) 0.1313(4)
H4 H 0.63960 -0.01630 0.05040
C9 C 0.56914(18) -0.07435(15) 0.1355(4)
C10 C 0.5439(3) -0.0960(2) 0.25000
H5 H 0.50840 -0.12620 0.25000
C11 C 0.5931(2) 0.1354(2) 0.25000
C12 C 0.7929(3) 0.2516(5) 0.25000
C13 C 0.5421(2) -0.09707(17) 0.0049(4)
O1 O 0.58971(15) 0.17831(15) 0.25000
O2 O 0.55071(15) 0.08988(15) 0.25000
O3 O 0.78479(17) 0.29119(26) 0.25000
O4 O 0.8375(2) 0.2558(3) 0.25000
O5 O 0.49742(12) -0.13894(12) -0.0001(4)
O6 O 0.56522(13) -0.07189(12) -0.0976(3)
S1 S 0.71449(6) 0.04556(6) 0.25000
C8K C 0.62173(18) -0.03123(15) 0.3687(4)
H4K H 0.63960 -0.01630 0.44960
C9K C 0.56914(18) -0.07435(15) 0.3645(4)
C13K C 0.5421(2) -0.09707(17) 0.4951(4)
O5K O 0.49742(12) -0.13894(12) 0.5001(4)
O6K O 0.56522(13) -0.07189(12) 0.5976(3)
Cd1C Cd 0.868413(16) 0.363830(15) 0.25000
Cd1E Cd 0.504583(16) -0.131587(15) -0.25000
Cd1E* Cd 0.504583(16) -0.131587(15) 0.75000
O3D O 0.50640(17) 0.21521(26) 0.25000
O4D O 0.4183(2) 0.1625(3) 0.25000
O5E O 0.50258(12) 0.13894(12) 0.4999(4)
O5F O 0.50258(12) 0.13894(12) 0.0001(4)
O6E O 0.43478(13) 0.07189(12) 0.4024(3)
O6F O 0.43478(13) 0.07189(12) 0.0976(3)
#END
