
#######################################################################
#
#                 Cambridge Crystallographic Data Centre
#                                CCDC
#
#######################################################################
#
# If this CIF has been generated from an entry in the Cambridge
# Structural Database, then it will include bibliographic, chemical,
# crystal, experimental, refinement or atomic coordinate data resulting
# from the CCDC's data processing and validation procedures.
#
#######################################################################

data_CSD_CIF_GIYTOY
_audit_creation_date 2008-06-26
_audit_creation_method CSD-ConQuest-V1
_database_code_CSD GIYTOY
_database_code_depnum_ccdc_archive 'CCDC 618013'
_chemical_formula_sum 'C10 H10 Cd1 N2 O6'
_chemical_formula_moiety
;
(C2 H8 N1 1+)n,n(C8 H2 Cd1 N1 O6 1-)
;
_journal_coden_Cambridge 1147
_journal_volume 8
_journal_year 2008
_journal_page_first 452
_journal_name_full 'Cryst.Growth Des. '
loop_
_publ_author_name
"Ru-Qiang Zou"
"Rui-Qin Zhong"
"Miao Du"
"D.S.Pandey"
"Qiang Xu"
_chemical_name_systematic
;
catena-[Dimethylammonium 
(L)-(\m~4~-pyridine-2,4,6-tricarboxylato)-cadmium(ii)]
;
_cell_volume    933.903
_exptl_crystal_colour 'colorless'
_exptl_crystal_density_diffrn 1.957
_exptl_special_details
;
fluorescent

;
_exptl_crystal_description 'needle'
_diffrn_ambient_temperature 293
#These two values have been output from a single CSD field.
_refine_ls_R_factor_gt 0.0245
_refine_ls_wR_factor_gt 0.0245
loop_
_citation_database_id_CSD
_citation_special_details
GIZNOT "is a stereoisomer of this entry"
_symmetry_cell_setting hexagonal
_symmetry_space_group_name_H-M 'P 31 2 1'
_symmetry_Int_Tables_number 152
loop_
_symmetry_equiv_pos_site_id
_symmetry_equiv_pos_as_xyz
1 x,y,z
2 -y,x-y,1/3+z
3 -x+y,-x,2/3+z
4 y,x,-z
5 x-y,-y,2/3-z
6 -x,-x+y,1/3-z
_cell_length_a 9.1909(13)
_cell_length_b 9.1909(13)
_cell_length_c 12.766(3)
_cell_angle_alpha 90
_cell_angle_beta 90
_cell_angle_gamma 120
_cell_formula_units_Z 3
loop_
_atom_type_symbol
_atom_type_radius_bond
C 0.68
H 0.23
Cd 1.59
N 0.68
O 0.68
loop_
_atom_site_label
_atom_site_type_symbol
_atom_site_fract_x
_atom_site_fract_y
_atom_site_fract_z
Cd1 Cd 0.36260(3) 0.36260(3) 0.00000
C1 C 0.4835(5) 0.6807(4) 0.1443(3)
C2 C 0.6308(4) 0.7252(4) 0.0694(3)
C3 C 0.7798(4) 0.8802(4) 0.0704(3)
H1 H 0.79430 0.96420 0.11700
C4 C 0.9059(5) 0.9059(5) 0.00000
C5 C 1.0706(5) 1.0706(5) 0.00000
C6 C 0.9726(9) 0.4884(10) 0.0701(6)
H2 H 0.87060 0.49280 0.07510
H3 H 0.96350 0.41550 0.01360
H4 H 1.06520 0.59920 0.05730
N1 N 0.6078(4) 0.6078(4) 0.00000
N2 N 1.00000 0.4251(6) 0.16670
H5 H 1.00000 0.33150 0.16670
O1 O 0.3564(3) 0.5398(3) 0.1315(2)
O2 O 0.5010(4) 0.7860(4) 0.2097(2)
O3 O 1.0755(3) 1.1942(3) 0.0439(2)
Cd1A Cd 0.63740(3) 1.00000(3) 0.33333
Cd1* Cd 1.36260(3) 1.36260(3) 0.00000
Cd1B Cd 1.00000(3) 0.63740(3) -0.33333
C1C C 0.6807(5) 0.4835(4) -0.1443(3)
C2C C 0.7252(4) 0.6308(4) -0.0694(3)
C3C C 0.8802(4) 0.7798(4) -0.0704(3)
H1C H 0.96420 0.79430 -0.11700
C6E C 1.0274(9) 0.5158(10) 0.263233(600)
H2E H 1.12940 0.62220 0.25823
H3E H 1.03650 0.45200 0.31973
H4E H 0.93480 0.53400 0.27603
O1C O 0.5398(3) 0.3564(3) -0.1315(2)
O2C O 0.7860(4) 0.5010(4) -0.2097(2)
O2B O 0.2850(4) 0.4990(4) -0.123633(200)
O2E O 0.4990(4) 0.2850(4) 0.123633(200)
O3C O 1.1942(3) 1.0755(3) -0.0439(2)
O3* O 0.0755(3) 0.1942(3) 0.0439(2)
O3C* O 0.1942(3) 0.0755(3) -0.0439(2)
#END
