
#######################################################################
#
#                 Cambridge Crystallographic Data Centre
#                                CCDC
#
#######################################################################
#
# If this CIF has been generated from an entry in the Cambridge
# Structural Database, then it will include bibliographic, chemical,
# crystal, experimental, refinement or atomic coordinate data resulting
# from the CCDC's data processing and validation procedures.
#
#######################################################################

data_CSD_CIF_GIZNOT
_audit_creation_date 2008-06-26
_audit_creation_method CSD-ConQuest-V1
_database_code_CSD GIZNOT
_database_code_depnum_ccdc_archive 'CCDC 618014'
_chemical_formula_sum 'C10 H10 Cd1 N2 O6'
_chemical_formula_moiety
;
(C2 H8 N1 1+)n,n(C8 H2 Cd1 N1 O6 1-)
;
_journal_coden_Cambridge 1147
_journal_volume 8
_journal_year 2008
_journal_page_first 452
_journal_name_full 'Cryst.Growth Des. '
loop_
_publ_author_name
"Ru-Qiang Zou"
"Rui-Qin Zhong"
"Miao Du"
"D.S.Pandey"
"Qiang Xu"
_chemical_name_systematic
;
catena-[Dimethylammonium 
(R)-(\m~4~-pyridine-2,4,6-tricarboxylato)-cadmium(ii)]
;
_cell_volume    931.713
_exptl_crystal_colour 'colorless'
_exptl_crystal_density_diffrn 1.955
_exptl_special_details
;
fluorescent

;
_exptl_crystal_description 'needle'
_diffrn_ambient_temperature 293
#These two values have been output from a single CSD field.
_refine_ls_R_factor_gt 0.0156
_refine_ls_wR_factor_gt 0.0156
loop_
_citation_database_id_CSD
_citation_special_details
GIYTOY "is a stereoisomer of this entry"
_symmetry_cell_setting hexagonal
_symmetry_space_group_name_H-M 'P 32 2 1'
_symmetry_Int_Tables_number 154
loop_
_symmetry_equiv_pos_site_id
_symmetry_equiv_pos_as_xyz
1 x,y,z
2 -y,x-y,2/3+z
3 -x+y,-x,1/3+z
4 y,x,-z
5 x-y,-y,1/3-z
6 -x,-x+y,2/3-z
_cell_length_a 9.1884(13)
_cell_length_b 9.1884(13)
_cell_length_c 12.743(3)
_cell_angle_alpha 90
_cell_angle_beta 90
_cell_angle_gamma 120
_cell_formula_units_Z 3
loop_
_atom_type_symbol
_atom_type_radius_bond
C 0.68
H 0.23
Cd 1.59
N 0.68
O 0.68
loop_
_atom_site_label
_atom_site_type_symbol
_atom_site_fract_x
_atom_site_fract_y
_atom_site_fract_z
Cd1 Cd 1.359885(18) 1.359885(18) 0.00000
C1 C 2.0677(3) 2.0677(3) 0.00000
C2 C 1.9031(3) 1.9031(3) 0.00000
C3 C 1.8775(3) 1.7772(3) 0.07094(16)
H1 H 1.96120 1.79190 0.11790
C4 C 1.7232(3) 1.6287(3) 0.06965(16)
C5 C 1.6775(3) 1.4820(3) 0.14443(17)
N1 N 0.4245(4) 1.00000 0.16670
H2 H 0.33090 1.00000 0.16670
N2 N 1.6053(3) 1.6053(3) 0.00000
O1 O 2.1922(2) 2.0728(2) 0.04345(14)
O2 O 1.7829(3) 1.4988(3) 0.21107(16)
O3 O 1.5360(2) 1.3538(2) 0.13272(13)
C6 C 0.4919(7) 0.9741(6) 0.0709(4)
H3 H 0.59850 1.07190 0.05610
H4 H 0.41560 0.95480 0.01420
H5 H 0.50670 0.87840 0.07860
Cd1* Cd 2.359885(18) 2.359885(18) 0.00000
Cd1B Cd 2.000000(18) 1.640115(18) 0.33333
Cd1A Cd 1.640115(18) 2.000000(18) -0.33333
C3C C 1.7772(3) 1.8775(3) -0.07094(16)
H1C H 1.79190 1.96120 -0.11790
C4C C 1.6287(3) 1.7232(3) -0.06965(16)
C5C C 1.4820(3) 1.6775(3) -0.14443(17)
O1C O 2.0728(2) 2.1922(2) -0.04345(14)
O1* O 1.1922(2) 1.0728(2) 0.04345(14)
O1C* O 1.0728(2) 1.1922(2) -0.04345(14)
O2C O 1.4988(3) 1.7829(3) -0.21107(16)
O2A O 1.5012(3) 1.2841(3) -0.122263(160)
O2D O 1.2841(3) 1.5012(3) 0.122263(160)
O3C O 1.3538(2) 1.5360(2) -0.13272(13)
C6D C 0.5178(7) 1.0259(6) 0.262433(400)
H3D H 0.52660 0.92810 0.27723
H4D H 0.46080 1.04520 0.31913
H5D H 0.62830 1.12160 0.25473
#END
