
#######################################################################
#
#                 Cambridge Crystallographic Data Centre
#                                CCDC
#
#######################################################################
#
# If this CIF has been generated from an entry in the Cambridge
# Structural Database, then it will include bibliographic, chemical,
# crystal, experimental, refinement or atomic coordinate data resulting
# from the CCDC's data processing and validation procedures.
#
#######################################################################

data_CSD_CIF_GIZXET
_audit_creation_date 2008-11-13
_audit_creation_method CSD-ConQuest-V1
_database_code_CSD GIZXET
_database_code_depnum_ccdc_archive 'CCDC 623314'
_chemical_formula_sum 'C92 H80 N4 O20 Zn2'
_chemical_formula_moiety
;
(C7 H10 N1 1+)4n,n(C64 H32 O16 Zn2 4-),4n(H2 O1)
;
_journal_coden_Cambridge 1350
_journal_volume 10
_journal_year 2008
_journal_page_first 681
_journal_name_full 'CrystEngComm '
loop_
_publ_author_name
"Jun-Jie Wang"
"Chun-Sen Liu"
"Tong-Liang Hu"
"Ze Chang"
"Cai-Yun Li"
"Li-Fen Yan"
"Pei-Quan Chen"
"Xian-He Bu"
"Qiang Wu"
"Li-Juan Zhao"
"Zhe Wang"
"Xin-Zheng Zhang"
_chemical_name_systematic
;
catena-(tetrakis(2,6-dimethylpyridinium) 
tetrakis(\m~2~-anthracene-9,10-dicarboxylato)-zinc(ii) tetrahydrate)
;
_cell_volume   8009.934
_exptl_crystal_colour 'colorless'
_exptl_crystal_density_diffrn 1.403
_exptl_special_details
;
The paper indicates that this is a room temperature study whereas the cif 
gives a diffraction temperature of 113 K
;
_exptl_crystal_description 'block'
_diffrn_ambient_temperature 293
#These two values have been output from a single CSD field.
_refine_ls_R_factor_gt 0.0433
_refine_ls_wR_factor_gt 0.0433
_symmetry_cell_setting orthorhombic
_symmetry_space_group_name_H-M 'P b c a'
_symmetry_Int_Tables_number 61
loop_
_symmetry_equiv_pos_site_id
_symmetry_equiv_pos_as_xyz
1 x,y,z
2 1/2+x,1/2-y,-z
3 -x,1/2+y,1/2-z
4 1/2-x,-y,1/2+z
5 -x,-y,-z
6 -1/2-x,-1/2+y,z
7 x,-1/2-y,-1/2+z
8 -1/2+x,y,-1/2-z
_cell_length_a 16.442(2)
_cell_length_b 17.697(3)
_cell_length_c 27.528(4)
_cell_angle_alpha 90
_cell_angle_beta 90
_cell_angle_gamma 90
_cell_formula_units_Z 4
loop_
_atom_type_symbol
_atom_type_radius_bond
C 0.68
H 0.23
N 0.68
O 0.68
Zn 1.45
loop_
_atom_site_label
_atom_site_type_symbol
_atom_site_fract_x
_atom_site_fract_y
_atom_site_fract_z
Zn1 Zn 0.513871(15) 0.249175(11) 0.384131(8)
O1 O 0.61604(9) 0.25093(8) 0.34789(5)
O2 O 0.58926(11) 0.1459(1) 0.30530(7)
O3 O 0.91503(9) 0.21998(8) 0.15165(5)
O4 O 0.95249(10) 0.31589(9) 0.19872(6)
O5 O 0.51520(9) 0.34840(8) 0.41433(5)
O6 O 0.38590(9) 0.34480(8) 0.43957(5)
O7 O 0.50873(9) 0.17342(9) 0.43483(6)
O8 O 0.63531(11) 0.15874(10) 0.46207(7)
O9 O 0.44662(11) 0.07394(9) 0.32635(6)
H1 H 0.4988(18) 0.0851(16) 0.3204(11)
H2 H 0.4256(18) 0.1172(17) 0.3338(10)
O10 O 0.24285(11) 0.41384(9) 0.47466(7)
H3 H 0.2867(19) 0.3881(17) 0.4665(11)
H4 H 0.2184(18) 0.3893(17) 0.4992(10)
N1 N 0.62862(12) 0.50402(10) 0.24540(7)
H5 H 0.6045(17) 0.5354(15) 0.2183(11)
N2 N 0.25633(10) 0.06254(11) 0.49782(6)
H6 H 0.2566(16) 0.0101(18) 0.4915(10)
C1 C 0.62911(13) 0.20348(12) 0.31394(7)
C2 C 0.70128(13) 0.22083(12) 0.28207(7)
C3 C 0.77848(13) 0.19826(11) 0.29722(7)
C4 C 0.79242(14) 0.16391(12) 0.34388(8)
H7 H 0.74780 0.15460 0.36500
C5 C 0.86853(15) 0.14467(13) 0.35802(8)
H8 H 0.87680 0.12310 0.38920
C6 C 0.93586(15) 0.15621(13) 0.32693(8)
H9 H 0.98880 0.14190 0.33730
C7 C 0.92536(14) 0.18770(12) 0.28232(8)
H10 H 0.97100 0.19420 0.26160
C8 C 0.84707(13) 0.21118(11) 0.26613(7)
C9 C 0.83470(13) 0.24657(11) 0.22105(7)
C10 C 0.75778(13) 0.27026(12) 0.20621(7)
C11 C 0.74471(14) 0.30882(12) 0.16094(7)
H11 H 0.78900 0.31590 0.13920
C12 C 0.67021(15) 0.33518(14) 0.14880(8)
H12 H 0.66260 0.36040 0.11870
C13 C 0.60326(15) 0.32547(14) 0.18083(9)
H13 H 0.55150 0.34530 0.17220
C14 C 0.61237(14) 0.28823(13) 0.22362(8)
H14 H 0.56680 0.28210 0.24450
C15 C 0.68932(13) 0.25824(11) 0.23770(7)
C16 C 0.90634(13) 0.26313(12) 0.18899(7)
C17 C 0.45514(13) 0.37164(11) 0.43938(7)
C18 C 0.47641(12) 0.43821(11) 0.47122(7)
C19 C 0.52271(12) 0.42559(11) 0.51311(7)
C20 C 0.54775(14) 0.35148(11) 0.52757(7)
H15 H 0.53320 0.30930 0.50810
C21 C 0.59197(14) 0.34025(12) 0.56861(8)
H16 H 0.60790 0.29050 0.57750
C22 C 0.61447(13) 0.40246(12) 0.59830(8)
H17 H 0.64460 0.39390 0.62720
C23 C 0.59324(13) 0.47420(11) 0.58568(7)
H18 H 0.60930 0.51530 0.60570
C24 C 0.45291(12) 0.51156(11) 0.45740(7)
C25 C 0.56390(14) 0.13908(12) 0.45808(8)
C26 C 0.53397(13) 0.06655(11) 0.48100(8)
C27 C 0.49042(13) 0.06957(12) 0.52457(8)
C28 C 0.47851(15) 0.13879(13) 0.55074(8)
H19 H 0.50050 0.18440 0.53810
C29 C 0.43671(16) 0.14058(14) 0.59308(9)
H20 H 0.42900 0.18720 0.60960
C30 C 0.40434(16) 0.07294(15) 0.61289(8)
H21 H 0.37590 0.07460 0.64290
C31 C 0.41340(14) 0.00600(14) 0.58951(8)
H22 H 0.39120 -0.03860 0.60340
C32 C 0.54402(13) -0.00145(12) 0.45586(8)
C33 C 0.48987(15) 0.48332(15) 0.27251(11)
H23 H 0.48030 0.53720 0.26650
H24 H 0.46220 0.46820 0.30250
H25 H 0.46860 0.45370 0.24530
C34 C 0.57888(15) 0.46950(12) 0.27752(8)
C35 C 0.61283(16) 0.42235(13) 0.31170(8)
H26 H 0.57940 0.39770 0.33500
C36 C 0.69614(16) 0.41123(13) 0.31185(8)
H27 H 0.72000 0.37820 0.33500
C37 C 0.74483(16) 0.44800(14) 0.27840(8)
H28 H 0.80200 0.44040 0.27850
C38 C 0.70969(15) 0.49564(13) 0.24490(8)
C39 C 0.75663(16) 0.53850(17) 0.20728(9)
H29 H 0.76090 0.50800 0.17770
H30 H 0.81130 0.54950 0.21960
H31 H 0.72850 0.58600 0.19990
C40 C 0.33599(15) 0.07580(15) 0.42433(8)
H32 H 0.32710 0.02100 0.42420
H33 H 0.39450 0.08630 0.42450
H34 H 0.31140 0.09810 0.39520
C41 C 0.29788(13) 0.10923(12) 0.46841(8)
C42 C 0.30149(15) 0.18506(13) 0.48044(9)
H35 H 0.33050 0.21960 0.46050
C43 C 0.26236(15) 0.20994(13) 0.52183(9)
H36 H 0.26550 0.26180 0.53060
C44 C 0.21885(15) 0.16083(13) 0.55063(8)
H37 H 0.19060 0.17870 0.57850
C45 C 0.21701(13) 0.08524(12) 0.53840(8)
C46 C 0.17550(15) 0.02527(14) 0.56731(8)
H38 H 0.15390 -0.01340 0.54530
H39 H 0.13080 0.04770 0.58590
H40 H 0.21460 0.00210 0.58970
Zn1G Zn 0.013871(15) 0.249175(11) 0.115869(8)
Zn1G* Zn 1.013871(15) 0.249175(11) 0.115869(8)
Zn1D Zn 0.486129(15) 0.750825(11) 0.615869(8)
Zn1D* Zn 0.486129(15) -0.249175(11) 0.615869(8)
O1G O 0.11604(9) 0.25093(8) 0.15211(5)
O2G O 0.08926(11) 0.1459(1) 0.19470(7)
O3G O 0.41503(9) 0.21998(8) 0.34835(5)
O3* O -0.08497(9) 0.21998(8) 0.15165(5)
O4G O 0.45249(10) 0.31589(9) 0.30128(6)
O5D O 0.48480(9) 0.65160(8) 0.58567(5)
O5G O 0.01520(9) 0.34840(8) 0.08567(5)
O6D O 0.61410(9) 0.65520(8) 0.56043(5)
O7D O 0.49127(9) -0.17342(9) 0.56517(6)
O7G O 0.00873(9) 0.17342(9) 0.06517(6)
O8D O 0.36469(11) -0.15874(10) 0.53793(7)
C1G C 0.12911(13) 0.20348(12) 0.18606(7)
C2G C 0.20128(13) 0.22083(12) 0.21793(7)
C3G C 0.27848(13) 0.19826(11) 0.20278(7)
C4G C 0.29242(14) 0.16391(12) 0.15612(8)
H7G H 0.24780 0.15460 0.13500
C5G C 0.36853(15) 0.14467(13) 0.14198(8)
H8G H 0.37680 0.12310 0.11080
C6G C 0.43586(15) 0.15621(13) 0.17307(8)
H9G H 0.48880 0.14190 0.16270
C7G C 0.42536(14) 0.18770(12) 0.21768(8)
H10G H 0.47100 0.19420 0.23840
C8G C 0.34707(13) 0.21118(11) 0.23387(7)
C9G C 0.33470(13) 0.24657(11) 0.27895(7)
C10G C 0.25778(13) 0.27026(12) 0.29379(7)
C11G C 0.24471(14) 0.30882(12) 0.33906(7)
H11G H 0.28900 0.31590 0.36080
C12G C 0.17021(15) 0.33518(14) 0.35120(8)
H12G H 0.16260 0.36040 0.38130
C13G C 0.10326(15) 0.32547(14) 0.31917(9)
H13G H 0.05150 0.34530 0.32780
C14G C 0.11237(14) 0.28823(13) 0.27638(8)
H14G H 0.06680 0.28210 0.25550
C15G C 0.18932(13) 0.25824(11) 0.26230(7)
C16G C 0.40634(13) 0.26313(12) 0.31101(7)
C17D C 0.54486(13) 0.62836(11) 0.56062(7)
C18D C 0.52359(12) 0.56179(11) 0.52878(7)
C19D C 0.47729(12) 0.57441(11) 0.48689(7)
C20D C 0.45225(14) 0.64852(11) 0.47243(7)
H15D H 0.46680 0.69070 0.49190
C21D C 0.40803(14) 0.65975(12) 0.43139(8)
H16D H 0.39210 0.70950 0.42250
C22D C 0.38553(13) 0.59754(12) 0.40170(8)
H17D H 0.35540 0.60610 0.37280
C23D C 0.40676(13) 0.52580(11) 0.41432(7)
H18D H 0.39070 0.48470 0.39430
C24D C 0.54709(12) 0.48844(11) 0.54260(7)
C25D C 0.43610(14) -0.13908(12) 0.54192(8)
C26D C 0.46603(13) -0.06655(11) 0.51900(8)
C27D C 0.50958(13) -0.06957(12) 0.47543(8)
C28D C 0.52149(15) -0.13879(13) 0.44926(8)
H19D H 0.49950 -0.18440 0.46190
C29D C 0.56329(16) -0.14058(14) 0.40692(9)
H20D H 0.57100 -0.18720 0.39040
C30D C 0.59566(16) -0.07294(15) 0.38711(8)
H21D H 0.62410 -0.07460 0.35710
C31D C 0.58660(14) -0.00600(14) 0.41049(8)
H22D H 0.60880 0.03860 0.39660
C32D C 0.45598(13) 0.00145(12) 0.54414(8)
#END
