
#######################################################################
#
#                 Cambridge Crystallographic Data Centre
#                                CCDC
#
#######################################################################
#
# If this CIF has been generated from an entry in the Cambridge
# Structural Database, then it will include bibliographic, chemical,
# crystal, experimental, refinement or atomic coordinate data resulting
# from the CCDC's data processing and validation procedures.
#
#######################################################################

data_CSD_CIF_GLURLI
_audit_creation_date 1979-08-06
_audit_creation_method CSD-ConQuest-V1
_database_code_CSD GLURLI
_database_code_depnum_ccdc_archive 'CCDC 1169313'
_chemical_formula_sum 'C10 H21 Li1 O14 U1'
_chemical_formula_moiety
;
(C10 H13 O10 U1 1-)n,4n(H2 O1),n(Li1 1+)
;
_journal_coden_Cambridge 42
_journal_volume 41
_journal_year 1979
_journal_page_first 195
_journal_name_full 'J.Inorg.Nucl.Chem. '
loop_
_publ_author_name
"F.Benetollo"
"G.Bombieri"
"J.A.Herrero"
"R.M.Rojas"
_chemical_name_systematic
;
catena-[Lithium (\m~2~-glutatato)-(hydrogen glutatato)-dioxo-uranium(vi) 
tetrahydrate]
;
_cell_volume   1870.828
_exptl_crystal_colour 'pale yellow'
_exptl_crystal_density_diffrn 2.16
_diffrn_ambient_temperature ?
_diffrn_special_details
;
The study was carried out at room temperature,in the range 283-303K

;
#These two values have been output from a single CSD field.
_refine_ls_R_factor_gt 0.079
_refine_ls_wR_factor_gt 0.079
_symmetry_cell_setting monoclinic
_symmetry_space_group_name_H-M 'P 21/n'
_symmetry_Int_Tables_number 14
loop_
_symmetry_equiv_pos_site_id
_symmetry_equiv_pos_as_xyz
1 x,y,z
2 1/2-x,1/2+y,1/2-z
3 -x,-y,-z
4 -1/2+x,-1/2-y,-1/2+z
_cell_length_a 9.143(3)
_cell_length_b 26.825(11)
_cell_length_c 7.776(2)
_cell_angle_alpha 90
_cell_angle_beta 101.2(2)
_cell_angle_gamma 90
_cell_formula_units_Z 4
loop_
_atom_type_symbol
_atom_type_radius_bond
C 0.68
H 0.23
Li 0.68
O 0.52
U 1.55
loop_
_atom_site_label
_atom_site_type_symbol
_atom_site_fract_x
_atom_site_fract_y
_atom_site_fract_z
U1 U 0.02750 0.15320 0.36020
O1 O 0.01520 0.16300 0.14480
O2 O 0.04040 0.14050 0.56990
O3 O -0.23560 0.17860 0.32430
O4 O -0.69480 0.14180 0.40690
O5 O -0.78230 0.21670 0.43120
O6 O -0.06830 0.23760 0.40750
O7 O 0.08480 0.06580 0.31150
O8 O -0.15250 0.08410 0.28700
O9 O -0.48830 -0.07780 0.21680
O10 O -0.41540 -0.13840 0.04770
C1 C -0.67020 0.18820 0.44600
C2 C -0.51020 0.21030 0.49420
C3 C -0.47920 0.24110 0.33130
C4 C -0.32170 0.26240 0.38630
C5 C -0.20460 0.22210 0.36360
C6 C -0.05470 0.05390 0.27050
C7 C -0.08700 0.00110 0.21650
C8 C -0.23510 -0.01800 0.18720
C9 C -0.26150 -0.06880 0.11010
C10 C -0.40290 -0.09480 0.12820
H1 H -0.43100 0.18000 0.52300
H2 H -0.50100 0.23400 0.60700
H3 H -0.56100 0.27000 0.29900
H4 H -0.48300 0.21700 0.22000
H5 H -0.31200 0.29400 0.30100
H6 H -0.30300 0.27500 0.52100
H7 H -0.02300 -0.02200 0.31800
H8 H -0.04900 -0.00500 0.09500
H9 H -0.26900 -0.01900 0.31300
H10 H -0.30400 0.00800 0.10200
H11 H -0.16900 -0.09200 0.17000
H12 H -0.26200 -0.06500 -0.02800
O11 O 0.55680 0.08150 0.40670
O12 O 0.17270 0.31980 0.44970
O13 O -0.80460 -0.10380 0.23410
O14 O 0.16650 0.50720 0.16130
Li1 Li -0.63920 -0.06770 0.34710
O4* O 0.30520 0.14180 0.40690
O5* O 0.21770 0.21670 0.43120
U1* U -0.97250 0.15320 0.36020
#END
