
#######################################################################
#
#                 Cambridge Crystallographic Data Centre
#                                CCDC
#
#######################################################################
#
# If this CIF has been generated from an entry in the Cambridge
# Structural Database, then it will include bibliographic, chemical,
# crystal, experimental, refinement or atomic coordinate data resulting
# from the CCDC's data processing and validation procedures.
#
#######################################################################

data_CSD_CIF_GOBXUR
_audit_creation_date 2008-11-13
_audit_creation_method CSD-ConQuest-V1
_database_code_CSD GOBXUR
_database_code_depnum_ccdc_archive 'CCDC 657232'
_chemical_formula_sum 'C120 H100 Ag8 N24 O124 P4 W36'
_chemical_formula_moiety
;
(C80 H64 Ag8 N16 O124 P4 W36 4-)n,4n(C10 H9 N2 1+)
;
_journal_coden_Cambridge 9
_journal_volume 47
_journal_year 2008
_journal_page_first 5145
_journal_name_full 'Inorg.Chem. '
loop_
_publ_author_name
"Jingquan Sha"
"Jun Peng"
"Yaqan Lan"
"Zhongmin Su"
"Haijun Pang"
"Aixiang Tian"
"Pengpeng Zhang"
"Min Zhu"
_chemical_name_systematic
;
catena-(tetrakis(4,4'-Bipyridin-1-ium) 
tetrakis(\m~9~-phosphato)-hexakis(\m~3~-oxo)-octakis(\m~2~-4,4'-bipyridine)-he
xaheptacontakis(\m~2~-oxo)-hexacosaoxo-octa-silver(i)-hexatriaconta-tungsten(v
i))
;
_cell_volume  19778.973
_exptl_crystal_colour 'yellow'
_exptl_crystal_density_diffrn 3.852
_exptl_crystal_description 'polyhedron'
_diffrn_ambient_temperature 293
#These two values have been output from a single CSD field.
_refine_ls_R_factor_gt 0.0713
_refine_ls_wR_factor_gt 0.0713
_symmetry_cell_setting orthorhombic
_symmetry_space_group_name_H-M 'P c c n'
_symmetry_Int_Tables_number 56
loop_
_symmetry_equiv_pos_site_id
_symmetry_equiv_pos_as_xyz
1 x,y,z
2 1/2-x,1/2-y,z
3 1/2+x,-y,1/2-z
4 -x,1/2+y,1/2-z
5 -x,-y,-z
6 -1/2+x,-1/2+y,-z
7 -1/2-x,y,-1/2+z
8 x,-1/2-y,-1/2+z
_cell_length_a 49.793(5)
_cell_length_b 17.495(5)
_cell_length_c 22.705(5)
_cell_angle_alpha 90
_cell_angle_beta 90
_cell_angle_gamma 90
_cell_formula_units_Z 4
loop_
_atom_type_symbol
_atom_type_radius_bond
C 0.68
H 0.23
Ag 1.68
N 0.68
O 0.75
P 1.05
W 1.29
loop_
_atom_site_label
_atom_site_type_symbol
_atom_site_fract_x
_atom_site_fract_y
_atom_site_fract_z
P1 P 0.38959(10) 0.1662(3) -0.2120(2)
P2 P 0.37322(10) -0.0549(3) -0.2082(2)
W1 W 0.406030(19) 0.33080(5) -0.12979(4)
W2 W 0.367400(19) 0.35114(5) -0.25093(4)
W3 W 0.432800(18) 0.30800(5) -0.26440(4)
W4 W 0.457120(18) 0.11704(5) -0.22242(4)
W5 W 0.431670(17) 0.14093(5) -0.08717(4)
W6 W 0.359910(17) 0.18239(5) -0.07193(4)
W7 W 0.321690(18) 0.20459(5) -0.19159(4)
W8 W 0.349870(16) 0.18055(5) -0.33920(4)
W9 W 0.415500(16) 0.13950(5) -0.35459(4)
W10 W 0.441790(18) -0.09128(5) -0.21985(4)
W11 W 0.400020(17) -0.07117(5) -0.35110(4)
W12 W 0.334560(16) -0.02947(5) -0.33636(4)
W13 W 0.305750(18) -0.00558(5) -0.18901(4)
W14 W 0.326420(18) -0.19745(5) -0.23921(5)
W15 W 0.416170(17) -0.06889(5) -0.08460(4)
W16 W 0.343950(16) -0.02690(5) -0.06821(4)
W17 W 0.365460(19) -0.21755(5) -0.11857(4)
W18 W 0.391910(19) -0.24027(5) -0.25496(4)
Ag1 Ag 0.52115(7) 0.22936(14) -0.24920(9)
Ag2 Ag 0.48321(4) 0.47837(12) -0.24960(8)
Ag3 Ag 0.25912(7) -0.35487(19) -0.23599(11)
Ag4 Ag 0.24667(4) 0.15344(12) -0.18708(8)
O1 O 0.4134(4) 0.3955(10) -0.0760(8)
O2 O 0.3808(3) 0.3866(9) -0.1764(7)
O3 O 0.3512(3) 0.4291(9) -0.2759(8)
O4 O 0.4024(3) 0.3710(9) -0.2820(7)
O5 O 0.4325(3) 0.3543(8) -0.1876(7)
O6 O 0.4577(3) 0.3588(9) -0.2972(7)
O7 O 0.4519(3) 0.2237(9) -0.2343(6)
O8 O 0.4222(3) 0.2414(8) -0.3258(7)
O9 O 0.3964(3) 0.2539(8) -0.2143(6)
O10 O 0.4274(3) 0.2447(8) -0.1066(7)
O11 O 0.3766(3) 0.2759(8) -0.0944(6)
O12 O 0.3612(3) 0.2795(8) -0.3124(6)
O13 O 0.3403(3) 0.2959(8) -0.2072(6)
O14 O 0.2893(3) 0.2419(9) -0.1954(8)
O15 O 0.3277(3) 0.2103(9) -0.3913(7)
O16 O 0.4352(3) 0.1458(10) -0.4166(7)
O17 O 0.4899(3) 0.114(1) -0.2432(7)
O18 O 0.4483(3) 0.1507(9) -0.0216(8)
O19 O 0.4611(3) 0.1345(9) -0.1406(7)
O20 O 0.4401(3) 0.1073(9) -0.2967(6)
O21 O 0.3822(3) 0.1742(8) -0.3864(6)
O22 O 0.4132(3) 0.1260(9) -0.1851(6)
O23 O 0.3640(3) 0.1583(8) -0.1744(6)
O24 O 0.3284(3) 0.1773(9) -0.2710(6)
O25 O 0.3280(3) 0.2168(9) -0.1101(6)
O26 O 0.3946(3) 0.1434(8) -0.0640(6)
O27 O 0.4032(3) 0.0375(9) -0.3637(7)
O28 O 0.3455(3) 0.0731(9) -0.3493(6)
O29 O 0.4519(3) 0.0117(9) -0.2104(7)
O30 O 0.3112(3) 0.0998(9) -0.1790(6)
O31 O 0.4288(3) 0.0315(8) -0.0884(6)
O32 O 0.3465(3) 0.0823(8) -0.0708(7)
O33 O 0.2714(4) -0.0029(10) -0.1939(7)
O34 O 0.3156(3) 0.0044(9) -0.2685(6)
O35 O 0.3099(3) -0.1127(8) -0.2022(6)
O36 O 0.3969(3) -0.1641(8) -0.0995(6)
O37 O 0.4162(3) -0.1004(9) -0.4128(7)
O38 O 0.3919(3) -0.1701(8) -0.3200(6)
O39 O 0.4061(3) -0.3204(9) -0.2850(8)
O40 O 0.3630(4) -0.2841(10) -0.0636(8)
O41 O 0.4732(3) -0.1243(9) -0.2395(7)
O42 O 0.3340(3) -0.2427(9) -0.1647(6)
O43 O 0.3333(3) -0.0368(10) 0.0031(7)
O44 O 0.3096(3) -0.0204(9) -0.1071(7)
O45 O 0.3518(3) -0.0151(8) -0.1720(6)
O46 O 0.3721(3) -0.0301(8) -0.2729(6)
O47 O 0.3550(3) -0.2578(9) -0.2706(7)
O48 O 0.3856(4) -0.2745(9) -0.1765(7)
O49 O 0.3460(3) -0.1336(8) -0.0877(7)
O50 O 0.3827(3) -0.0322(8) -0.0605(7)
O51 O 0.4430(3) -0.1057(9) -0.1377(7)
O52 O 0.3298(3) -0.1312(8) -0.3056(7)
O53 O 0.2994(3) -0.2515(10) -0.2593(7)
O54 O 0.3669(3) -0.1425(8) -0.2063(6)
O55 O 0.4273(3) -0.0635(9) -0.2934(7)
O56 O 0.4220(3) -0.1848(8) -0.2280(6)
O57 O 0.3101(3) -0.0340(9) -0.3884(7)
O58 O 0.3642(3) -0.0655(8) -0.3819(6)
O59 O 0.4302(3) -0.0961(10) -0.0192(7)
O60 O 0.3846(3) 0.1409(8) -0.2758(5)
O61 O 0.4011(3) -0.0453(9) -0.1830(6)
O62 O 0.3515(4) 0.209(1) -0.0020(7)
N1 N 0.4884(4) 0.4867(12) -0.3462(8)
N2 N 0.4889(4) 0.4821(12) -0.1531(9)
N3 N 0.2444(3) 0.1412(12) -0.2822(7)
N4 N 0.2484(4) 0.1491(11) -0.0920(8)
N5 N 0.2523(5) -0.3700(18) -0.3298(12)
N6 N 0.2573(5) -0.3449(16) -0.1413(11)
N7 N 0.5213(5) 0.2559(13) -0.1544(11)
N8 N 0.5218(6) 0.2112(15) -0.3454(10)
C1 C 0.5208(5) 0.2164(14) -0.4672(10)
C2 C 0.2467(5) 0.1388(14) -0.4032(10)
C3 C 0.2706(8) -0.408(3) -0.3641(16)
H1 H 0.28460 -0.43400 -0.34630
C4 C 0.2686(9) -0.407(2) -0.4243(15)
H2 H 0.28100 -0.43490 -0.44620
C5 C 0.2312(8) -0.3514(19) -0.0529(13)
H3 H 0.21410 -0.35160 -0.03630
C6 C 0.4992(7) 0.205(2) -0.3734(16)
H4 H 0.48350 0.19850 -0.35200
C7 C 0.4979(6) 0.209(2) -0.4356(13)
H5 H 0.48140 0.20530 -0.45470
C8 C 0.2320(8) -0.336(3) -0.3576(14)
H6 H 0.21890 -0.31160 -0.33490
C9 C 0.5436(6) 0.250(2) -0.1231(13)
H7 H 0.55960 0.23870 -0.14220
C10 C 0.4721(5) 0.491(2) -0.0563(12)
H8 H 0.45700 0.49330 -0.03240
C11 C 0.2804(8) -0.354(2) -0.1085(14)
H9 H 0.29690 -0.35420 -0.12770
C12 C 0.2534(7) -0.3606(16) -0.0175(13)
C13 C 0.2798(9) -0.361(2) -0.0497(14)
H10 H 0.29570 -0.36740 -0.02890
C14 C 0.2342(6) -0.3419(19) -0.1123(15)
H11 H 0.21870 -0.33250 -0.13410
C15 C 0.4987(7) 0.2854(17) -0.0675(12)
H12 H 0.48280 0.30070 -0.04960
C16 C 0.4982(6) 0.2735(16) -0.1271(14)
H13 H 0.48220 0.27750 -0.14810
C17 C 0.2292(7) -0.333(2) -0.4169(12)
H14 H 0.21440 -0.30930 -0.43350
C18 C 0.5448(6) 0.2190(19) -0.3738(12)
H15 H 0.56090 0.22270 -0.35310
C19 C 0.4842(6) 0.5507(15) -0.3758(13)
H16 H 0.47860 0.59350 -0.35490
C20 C 0.5124(6) 0.4857(19) -0.1312(14)
H17 H 0.52660 0.48300 -0.15770
C21 C 0.4978(5) 0.4296(16) -0.3777(12)
H18 H 0.50190 0.38450 -0.35790
C22 C 0.2487(7) -0.3675(16) -0.4537(12)
C23 C 0.5022(5) 0.4313(14) -0.4370(11)
H19 H 0.50870 0.38820 -0.45640
C24 C 0.4878(6) 0.5577(16) -0.4359(12)
H20 H 0.48400 0.60390 -0.45430
C25 C 0.5448(6) 0.2215(17) -0.4353(12)
H21 H 0.56100 0.22660 -0.45540
C26 C 0.5437(5) 0.2600(19) -0.0645(12)
H22 H 0.55990 0.25570 -0.04450
C27 C 0.4699(5) 0.4833(19) -0.1166(11)
H23 H 0.45260 0.47860 -0.13180
C28 C 0.5193(5) 0.4933(18) -0.0721(11)
H24 H 0.53700 0.49700 -0.05940
C29 C 0.4969(5) 0.4980(14) -0.4682(11)
C30 C 0.4976(5) 0.4947(14) -0.0332(9)
C31 C 0.5207(5) 0.2765(16) -0.0323(12)
C32 C 0.2232(6) 0.1602(17) -0.3144(13)
H25 H 0.20740 0.17390 -0.29520
C33 C 0.2706(5) 0.1214(16) -0.0653(10)
H26 H 0.28490 0.10450 -0.08820
C34 C 0.2235(6) 0.1606(15) -0.3750(11)
H27 H 0.20840 0.17540 -0.39630
C35 C 0.2724(5) 0.1176(14) -0.0048(10)
H28 H 0.28810 0.09870 0.01230
C36 C 0.2667(5) 0.1196(15) -0.3107(10)
H29 H 0.28180 0.10670 -0.28860
C37 C 0.2289(5) 0.1694(14) 0.0028(10)
H30 H 0.21420 0.18560 0.02500
C38 C 0.2285(4) 0.1728(13) -0.058(1)
H31 H 0.21330 0.19300 -0.07600
C39 C 0.2684(5) 0.1158(16) -0.3708(11)
H32 H 0.28390 0.09810 -0.38920
C40 C 0.2478(5) 0.1406(14) -0.4702(10)
N9 N 0.3496(7) 0.785(2) -0.9020(14)
N10 N 0.4120(6) 1.139(2) -0.9173(13)
C41 C 0.4257(7) 1.071(3) -0.9117(19)
H33 H 0.44430 1.07550 -0.91240
C42 C 0.3730(9) 0.798(2) -0.9301(17)
H34 H 0.38060 0.75780 -0.95150
C43 C 0.3877(9) 1.137(2) -0.9154(15)
H35 H 0.37810 1.18230 -0.91720
C44 C 0.4164(7) 1.003(2) -0.9055(16)
H36 H 0.42710 0.95950 -0.90090
C45 C 0.3513(8) 0.912(3) -0.8719(17)
H37 H 0.34430 0.95100 -0.84920
C46 C 0.3379(9) 0.846(2) -0.8750(19)
H38 H 0.32080 0.84230 -0.85890
C47 C 0.3751(7) 0.923(2) -0.9013(13)
C48 C 0.3876(7) 1.002(2) -0.9066(14)
C49 C 0.3736(6) 1.066(2) -0.9103(15)
H39 H 0.35490 1.06560 -0.90970
C50 C 0.3857(7) 0.863(2) -0.9289(14)
H40 H 0.40230 0.86750 -0.94750
N11 N 0.3714(6) 0.0573(17) -0.4801(10)
N12 N 0.3071(5) -0.0526(16) -0.7403(13)
C51 C 0.2972(7) 0.004(2) -0.7066(15)
H41 H 0.28190 0.02990 -0.71930
C52 C 0.3089(6) 0.0263(18) -0.6534(14)
H42 H 0.30010 0.05980 -0.62820
C53 C 0.3782(8) -0.006(2) -0.5052(13)
H43 H 0.39160 -0.03640 -0.48880
C54 C 0.3654(6) -0.0283(17) -0.5566(13)
H44 H 0.36860 -0.07670 -0.57210
C55 C 0.3420(7) 0.0876(16) -0.5578(14)
H45 H 0.32970 0.12050 -0.57490
C56 C 0.3541(5) 0.107(2) -0.5055(13)
H46 H 0.35050 0.15410 -0.48780
C57 C 0.3298(8) -0.0823(16) -0.7240(13)
H47 H 0.33660 -0.12190 -0.74700
C58 C 0.3481(6) 0.0201(16) -0.5846(13)
C59 C 0.3344(4) -0.0030(14) -0.6384(11)
C60 C 0.3448(6) -0.0604(14) -0.6753(12)
H48 H 0.36130 -0.08310 -0.66730
P1A P 0.11041(10) 0.3338(3) -0.2120(2)
P2A P 0.12678(10) 0.5549(3) -0.2082(2)
W1A W 0.093970(19) 0.16920(5) -0.12979(4)
W2A W 0.132600(19) 0.14886(5) -0.25093(4)
W3A W 0.067200(18) 0.19200(5) -0.26440(4)
W4A W 0.042880(18) 0.38296(5) -0.22242(4)
W5A W 0.068330(17) 0.35907(5) -0.08717(4)
W6A W 0.140090(17) 0.31761(5) -0.07193(4)
W7A W 0.178310(18) 0.29541(5) -0.19159(4)
W8A W 0.150130(16) 0.31945(5) -0.33920(4)
W9A W 0.084500(16) 0.36050(5) -0.35459(4)
W10A W 0.058210(18) 0.59128(5) -0.21985(4)
W11A W 0.099980(17) 0.57117(5) -0.35110(4)
W12A W 0.165440(16) 0.52947(5) -0.33636(4)
W13A W 0.194250(18) 0.50558(5) -0.18901(4)
W14A W 0.173580(18) 0.69745(5) -0.23921(5)
W15A W 0.083830(17) 0.56889(5) -0.08460(4)
W16A W 0.156050(16) 0.52690(5) -0.06821(4)
W17A W 0.134540(19) 0.71755(5) -0.11857(4)
W18A W 0.108090(19) 0.74027(5) -0.25496(4)
Ag1A Ag -0.02115(7) 0.27064(14) -0.24920(9)
Ag1B Ag 0.02115(7) 0.77064(14) -0.25080(9)
Ag1C Ag 0.47885(7) -0.27064(14) -0.25080(9)
Ag1G Ag 0.52115(7) 0.27064(14) -0.74920(9)
Ag1G* Ag 0.52115(7) 0.27064(14) 0.25080(9)
Ag2B Ag -0.01679(4) 0.52163(12) -0.25040(8)
Ag2A Ag 0.01679(4) 0.02163(12) -0.24960(8)
Ag2C Ag 0.51679(4) -0.02163(12) -0.25040(8)
Ag2D Ag 0.51679(4) 0.52163(12) -0.75040(8)
Ag2D* Ag 0.51679(4) 0.52163(12) 0.24960(8)
Ag3A Ag 0.24088(7) 0.85487(19) -0.23599(11)
Ag3F Ag 0.24088(7) -0.35487(19) 0.26401(11)
Ag3F* Ag 0.24088(7) -0.35487(19) -0.73599(11)
Ag4A Ag 0.25333(4) 0.34656(12) -0.18708(8)
Ag4F Ag 0.25333(4) 0.15344(12) -0.68708(8)
Ag4F* Ag 0.25333(4) 0.15344(12) 0.31292(8)
O1A O 0.0866(4) 0.1045(10) -0.0760(8)
O2A O 0.1192(3) 0.1134(9) -0.1764(7)
O3A O 0.1488(3) 0.0709(9) -0.2759(8)
O4A O 0.0976(3) 0.1290(9) -0.2820(7)
O5A O 0.0675(3) 0.1457(8) -0.1876(7)
O6A O 0.0423(3) 0.1412(9) -0.2972(7)
O7A O 0.0481(3) 0.2763(9) -0.2343(6)
O8A O 0.0778(3) 0.2586(8) -0.3258(7)
O9A O 0.1036(3) 0.2461(8) -0.2143(6)
O10A O 0.0726(3) 0.2553(8) -0.1066(7)
O11A O 0.1234(3) 0.2241(8) -0.0944(6)
O12A O 0.1388(3) 0.2205(8) -0.3124(6)
O13A O 0.1597(3) 0.2041(8) -0.2072(6)
O14A O 0.2107(3) 0.2581(9) -0.1954(8)
O15A O 0.1723(3) 0.2897(9) -0.3913(7)
O16A O 0.0648(3) 0.3542(10) -0.4166(7)
O17C O 0.5101(3) 0.614(1) -0.2568(7)
O17A O 0.0101(3) 0.386(1) -0.2432(7)
O17B O -0.0101(3) -0.114(1) -0.2568(7)
O18A O 0.0517(3) 0.3493(9) -0.0216(8)
O19A O 0.0389(3) 0.3655(9) -0.1406(7)
O20A O 0.0599(3) 0.3927(9) -0.2967(6)
O21A O 0.1178(3) 0.3258(8) -0.3864(6)
O22A O 0.0868(3) 0.3740(9) -0.1851(6)
O23A O 0.1360(3) 0.3417(8) -0.1744(6)
O24A O 0.1716(3) 0.3227(9) -0.2710(6)
O25A O 0.1720(3) 0.2832(9) -0.1101(6)
O26A O 0.1054(3) 0.3566(8) -0.0640(6)
O27A O 0.0968(3) 0.4625(9) -0.3637(7)
O28A O 0.1545(3) 0.4269(9) -0.3493(6)
O29A O 0.0481(3) 0.4883(9) -0.2104(7)
O30A O 0.1888(3) 0.4002(9) -0.1790(6)
O31A O 0.0712(3) 0.4685(8) -0.0884(6)
O32A O 0.1535(3) 0.4177(8) -0.0708(7)
O33A O 0.2286(4) 0.5029(10) -0.1939(7)
O34A O 0.1844(3) 0.4956(9) -0.2685(6)
O35A O 0.1901(3) 0.6127(8) -0.2022(6)
O36A O 0.1031(3) 0.6641(8) -0.0995(6)
O37A O 0.0838(3) 0.6004(9) -0.4128(7)
O38A O 0.1081(3) 0.6701(8) -0.3200(6)
O39A O 0.0939(3) 0.8204(9) -0.2850(8)
O40A O 0.1370(4) 0.7841(10) -0.0636(8)
O41C O 0.5268(3) 0.3757(9) -0.2605(7)
O41A O 0.0268(3) 0.6243(9) -0.2395(7)
O41B O -0.0268(3) 0.1243(9) -0.2605(7)
O42A O 0.1660(3) 0.7427(9) -0.1647(6)
O43A O 0.1667(3) 0.5368(10) 0.0031(7)
O44A O 0.1904(3) 0.5204(9) -0.1071(7)
O45A O 0.1482(3) 0.5151(8) -0.1720(6)
O46A O 0.1279(3) 0.5301(8) -0.2729(6)
O47A O 0.1450(3) 0.7578(9) -0.2706(7)
O48A O 0.1144(4) 0.7745(9) -0.1765(7)
O49A O 0.1540(3) 0.6336(8) -0.0877(7)
O50A O 0.1173(3) 0.5322(8) -0.0605(7)
O51A O 0.0570(3) 0.6057(9) -0.1377(7)
O52A O 0.1702(3) 0.6312(8) -0.3056(7)
O53A O 0.2006(3) 0.7515(10) -0.2593(7)
O54A O 0.1331(3) 0.6425(8) -0.2063(6)
O55A O 0.0727(3) 0.5635(9) -0.2934(7)
O56A O 0.0780(3) 0.6848(8) -0.2280(6)
O57A O 0.1899(3) 0.5340(9) -0.3884(7)
O58A O 0.1358(3) 0.5655(8) -0.3819(6)
O59A O 0.0698(3) 0.5961(10) -0.0192(7)
O60A O 0.1154(3) 0.3591(8) -0.2758(5)
O61A O 0.0989(3) 0.5453(9) -0.1830(6)
O62A O 0.1485(4) 0.291(1) -0.0020(7)
N1A N 0.0116(4) 0.0133(12) -0.3462(8)
N1D N 0.5116(4) 0.5133(12) -0.6538(8)
N2A N 0.0111(4) 0.0179(12) -0.1531(9)
N2D N 0.5111(4) 0.5179(12) 0.1531(9)
N3A N 0.2556(3) 0.3588(12) -0.2822(7)
N3F N 0.2556(3) 0.1412(12) 0.2178(7)
N4A N 0.2516(4) 0.3509(11) -0.0920(8)
N4F N 0.2516(4) 0.1491(11) -0.5920(8)
N5F N 0.2477(5) -0.3700(18) 0.1702(12)
N5A N 0.2477(5) 0.8700(18) -0.3298(12)
N6F N 0.2427(5) -0.3449(16) -0.6413(11)
N6A N 0.2427(5) 0.8449(16) -0.1413(11)
N7A N -0.0213(5) 0.2441(13) -0.1544(11)
N7G N 0.5213(5) 0.2441(13) -0.6544(11)
N8A N -0.0218(6) 0.2888(15) -0.3454(10)
N8G N 0.5218(6) 0.2888(15) 0.1546(10)
C1G C 0.5208(5) 0.2836(14) 0.0328(10)
C2F C 0.2533(5) 0.1388(14) 0.0968(10)
C3F C 0.2294(8) -0.408(3) 0.1359(16)
H1F H 0.21540 -0.43400 0.15370
C4F C 0.2314(9) -0.407(2) 0.0757(15)
H2F H 0.21900 -0.43490 0.05380
C5F C 0.2688(8) -0.3514(19) -0.5529(13)
H3F H 0.28590 -0.35160 -0.53630
C6G C 0.4992(7) 0.295(2) 0.1266(16)
H4G H 0.48350 0.30150 0.14800
C7G C 0.4979(6) 0.291(2) 0.0644(13)
H5G H 0.48140 0.29470 0.04530
C8F C 0.2680(8) -0.336(3) 0.1424(14)
H6F H 0.28110 -0.31160 0.16510
C9G C 0.5436(6) 0.250(2) -0.6231(13)
H7G H 0.55960 0.26130 -0.64220
C10D C 0.5279(5) 0.509(2) 0.0563(12)
H8D H 0.54300 0.50670 0.03240
C11F C 0.2196(8) -0.354(2) -0.6085(14)
H9F H 0.20310 -0.35420 -0.62770
C12F C 0.2466(7) -0.3606(16) -0.5175(13)
C13F C 0.2202(9) -0.361(2) -0.5497(14)
H10F H 0.20430 -0.36740 -0.52890
C14F C 0.2658(6) -0.3419(19) -0.6123(15)
H11F H 0.28130 -0.33250 -0.63410
C15G C 0.4987(7) 0.2146(17) -0.5675(12)
H12G H 0.48280 0.19930 -0.54960
C16G C 0.4982(6) 0.2265(16) -0.6271(14)
H13G H 0.48220 0.22250 -0.64810
C17F C 0.2708(7) -0.333(2) 0.0831(12)
H14F H 0.28560 -0.30930 0.06650
C18G C 0.5448(6) 0.2810(19) 0.1262(12)
H15G H 0.56090 0.27730 0.14690
C19D C 0.5158(6) 0.4493(15) -0.6242(13)
H16D H 0.52140 0.40650 -0.64510
C20D C 0.4876(6) 0.5143(19) 0.1312(14)
H17D H 0.47340 0.51700 0.15770
C21D C 0.5022(5) 0.5704(16) -0.6223(12)
H18D H 0.49810 0.61550 -0.64210
C22F C 0.2513(7) -0.3675(16) 0.0463(12)
C23D C 0.4978(5) 0.5687(14) -0.5630(11)
H19D H 0.49130 0.61180 -0.54360
C24D C 0.5122(6) 0.4423(16) -0.5641(12)
H20D H 0.51600 0.39610 -0.54570
C25G C 0.5448(6) 0.2785(17) 0.0647(12)
H21G H 0.56100 0.27340 0.04460
C26G C 0.5437(5) 0.2400(19) -0.5645(12)
H22G H 0.55990 0.24430 -0.54450
C27D C 0.5301(5) 0.5167(19) 0.1166(11)
H23D H 0.54740 0.52140 0.13180
C28D C 0.4807(5) 0.5067(18) 0.0721(11)
H24D H 0.46300 0.50300 0.05940
C29D C 0.5031(5) 0.5020(14) -0.5318(11)
C30D C 0.5024(5) 0.5053(14) 0.0332(9)
C31G C 0.5207(5) 0.2235(16) -0.5323(12)
C32F C 0.2768(6) 0.1602(17) 0.1856(13)
H25F H 0.29260 0.17390 0.20480
C33F C 0.2294(5) 0.1214(16) -0.5653(10)
H26F H 0.21510 0.10450 -0.58820
C34F C 0.2765(6) 0.1606(15) 0.1250(11)
H27F H 0.29160 0.17540 0.10370
C35F C 0.2276(5) 0.1176(14) -0.5048(10)
H28F H 0.21190 0.09870 -0.48770
C36F C 0.2333(5) 0.1196(15) 0.1893(10)
H29F H 0.21820 0.10670 0.21140
C37F C 0.2711(5) 0.1694(14) -0.4972(10)
H30F H 0.28580 0.18560 -0.47500
C38F C 0.2715(4) 0.1728(13) -0.558(1)
H31F H 0.28670 0.19300 -0.57600
C39F C 0.2316(5) 0.1158(16) 0.1292(11)
H32F H 0.21610 0.09810 0.11080
C40F C 0.2522(5) 0.1406(14) 0.0298(10)
#END
