
#######################################################################
#
#                 Cambridge Crystallographic Data Centre
#                                CCDC
#
#######################################################################
#
# If this CIF has been generated from an entry in the Cambridge
# Structural Database, then it will include bibliographic, chemical,
# crystal, experimental, refinement or atomic coordinate data resulting
# from the CCDC's data processing and validation procedures.
#
#######################################################################

data_CSD_CIF_GOCFAI
_audit_creation_date 2019-01-31
_audit_creation_method CSD-ConQuest-V1
_database_code_CSD GOCFAI
_database_code_depnum_ccdc_archive 'CCDC 1885314'
_chemical_formula_sum 'C45 H49 Cu3 N9 O70 P2 W18'
_chemical_formula_moiety
;
(C30 H26 Cu2 N6 O64 P2 W18 2-)n,C15 H15 Cu1 N3 O2 2+,4(H2 O1)
;
_journal_coden_Cambridge 222
_journal_volume 48
_journal_year 2019
_journal_page_first 2598
_journal_name_full 'Dalton Trans. '
loop_
_publ_author_name
"Wanli Zhou"
"Yanping Zheng"
"Gang Yuan"
"Jun Peng"
_chemical_name_systematic
;
catena-[diaqua-(2,2':6',2''-terpyridine)-copper(ii) 
bis(\m-phosphato)-nonatriacontakis(\m-oxido)-bis(2,2':6',2''-terpyridine)-diaq
ua-pentadecaoxo-di-copper-octadeca-tungsten tetrahydrate]
;
_cell_volume   9068.626
_exptl_crystal_colour 'blue'
_exptl_crystal_density_diffrn 3.954
_exptl_crystal_description 'block'
_diffrn_ambient_temperature 293
#These two values have been output from a single CSD field.
_refine_ls_R_factor_gt 0.0394
_refine_ls_wR_factor_gt 0.0394
_symmetry_cell_setting monoclinic
_symmetry_space_group_name_H-M 'P 21/n'
_symmetry_Int_Tables_number 14
loop_
_symmetry_equiv_pos_site_id
_symmetry_equiv_pos_as_xyz
1 x,y,z
2 1/2-x,1/2+y,1/2-z
3 -x,-y,-z
4 -1/2+x,-1/2-y,-1/2+z
_cell_length_a 16.5866(4)
_cell_length_b 25.4564(5)
_cell_length_c 22.0082(5)
_cell_angle_alpha 90
_cell_angle_beta 102.606(2)
_cell_angle_gamma 90
_cell_formula_units_Z 4
loop_
_atom_type_symbol
_atom_type_radius_bond
C 0.68
H 0.23
Cu 1.32
N 0.68
O 0.68
P 1.05
W 1.62
loop_
_atom_site_label
_atom_site_type_symbol
_atom_site_fract_x
_atom_site_fract_y
_atom_site_fract_z
W1 W 0.11898(4) 0.23775(2) 0.30116(3)
W2 W -0.02692(3) -0.04179(2) 0.15241(3)
W3 W 0.22635(3) 0.00895(2) 0.33002(3)
W4 W -0.13300(3) 0.18749(2) 0.13520(3)
W5 W -0.09098(3) 0.06259(2) 0.06260(3)
W6 W 0.08629(3) 0.22949(2) 0.14492(3)
W7 W 0.00806(3) -0.03222(2) 0.32314(3)
W8 W -0.02962(3) 0.08223(2) 0.38853(3)
W9 W 0.33293(3) 0.19023(2) 0.31537(3)
W10 W 0.19190(3) -0.00048(2) 0.15938(3)
W11 W -0.10194(3) 0.19741(2) 0.29018(3)
W12 W 0.30109(3) 0.18333(2) 0.15829(3)
W13 W -0.20493(3) -0.03210(2) 0.22817(3)
W14 W 0.18993(3) 0.12227(2) 0.39745(3)
W15 W 0.12642(3) 0.10504(2) 0.07138(3)
W16 W -0.26971(3) 0.07301(2) 0.13776(3)
W17 W 0.36799(3) 0.07620(2) 0.24732(3)
W18 W -0.24281(3) 0.08411(2) 0.29433(3)
P1 P 0.1623(2) 0.11872(13) 0.23390(16)
P2 P -0.0693(2) 0.07477(13) 0.22495(16)
Cu1 Cu 0.47835(11) 0.30659(7) 0.36069(9)
Cu2 Cu -0.47811(10) 0.09692(7) 0.05652(9)
O1 O 0.4021(6) 0.2289(4) 0.3654(4)
O2 O 0.4344(7) 0.3285(4) 0.4338(5)
O3 O -0.4708(6) 0.1261(4) 0.1511(5)
O4 O -0.3626(5) 0.0791(4) 0.0830(4)
O5 O -0.0253(6) -0.1064(4) 0.1317(4)
O6 O 0.2313(5) 0.1369(3) 0.1039(4)
O7 O 0.2817(6) -0.0426(4) 0.3658(4)
O8 O 0.1247(6) 0.2932(4) 0.3467(5)
O9 O -0.1960(5) 0.1517(4) 0.2867(4)
O10 O 0.3491(6) 0.2150(3) 0.2365(4)
O11 O 0.2379(5) 0.0547(4) 0.4012(4)
O12 O 0.0988(5) 0.2687(3) 0.2199(4)
O13 O -0.1365(6) 0.2457(4) 0.3315(4)
O14 O 0.2334(5) 0.2314(4) 0.3019(4)
O15 O 0.0200(5) 0.0754(3) 0.0641(4)
O16 O 0.2202(6) 0.1416(4) 0.4730(4)
O17 O -0.0472(5) 0.1509(4) 0.3518(4)
O18 O -0.3100(5) 0.0920(3) 0.2111(4)
O19 O -0.2810(5) 0.0012(3) 0.1605(4)
O20 O -0.1349(5) -0.0440(3) 0.1732(4)
O21 O 0.1371(5) 0.0836(3) 0.1773(4)
O22 O 0.2840(5) 0.1500(3) 0.3699(4)
O23 O 0.1760(5) 0.0369(3) 0.0826(4)
O24 O 0.3490(6) 0.2160(4) 0.1086(4)
O25 O 0.2030(6) 0.2236(4) 0.1554(4)
O26 O -0.0285(5) 0.2176(3) 0.1463(4)
O27 O 0.0865(5) 0.0934(3) 0.3980(4)
O28 O 0.2541(5) 0.1361(3) 0.2372(4)
O29 O 0.2352(5) -0.0564(3) 0.1399(4)
O30 O 0.2941(5) 0.0374(3) 0.1872(4)
O31 O 0.0798(5) -0.0214(3) 0.1434(4)
O32 O -0.0751(5) -0.0115(3) 0.0746(4)
O33 O -0.1964(5) 0.0535(3) 0.0892(4)
O34 O -0.0419(5) 0.0491(3) 0.1713(4)
O35 O -0.3123(6) 0.0979(4) 0.3383(4)
O36 O 0.3186(5) 0.0439(3) 0.3077(4)
O37 O -0.2568(5) 0.0084(3) 0.2827(4)
O38 O -0.2257(5) 0.1414(4) 0.1398(4)
O39 O 0.0015(5) 0.2258(3) 0.2869(4)
O40 O 0.1965(6) -0.0113(3) 0.2466(4)
O41 O 0.1110(5) 0.1682(3) 0.2279(4)
O42 O -0.1618(5) 0.0577(3) 0.2212(4)
O43 O 0.0142(5) -0.0452(3) 0.2395(4)
O44 O 0.0226(6) -0.0937(4) 0.3561(4)
O45 O 0.3779(5) 0.1265(3) 0.1830(4)
O46 O -0.1309(6) 0.0682(4) -0.0156(4)
O47 O -0.0996(5) 0.1338(3) 0.0867(4)
O48 O 0.4002(5) 0.1333(3) 0.3056(4)
O49 O 0.1340(5) 0.1837(3) 0.3606(4)
O50 O -0.0683(5) 0.1346(3) 0.2201(4)
O51 O -0.0193(5) 0.0560(3) 0.2880(4)
O52 O -0.1507(5) 0.2219(3) 0.2090(4)
O53 O -0.1096(5) -0.0383(4) 0.2924(4)
O54 O -0.1871(6) 0.2281(4) 0.0791(4)
O55 O 0.1194(5) -0.0094(4) 0.3402(4)
O56 O 0.1608(5) 0.0899(3) 0.2950(4)
O57 O -0.0120(5) 0.0073(3) 0.3923(4)
O58 O 0.0795(5) 0.1687(4) 0.0942(4)
O59 O -0.1450(6) 0.0698(4) 0.3548(4)
O60 O -0.2522(6) -0.0921(4) 0.2300(4)
O61 O 0.0708(6) 0.2789(4) 0.0921(4)
O62 O 0.4586(6) 0.0430(4) 0.2538(5)
O63 O 0.1219(6) 0.1169(4) -0.0053(4)
O64 O -0.0325(6) 0.0962(4) 0.4640(4)
C1 C -0.6425(9) 0.0683(6) 0.0023(7)
C2 C 0.6227(10) 0.2342(6) 0.2526(7)
H1 H 0.67200 0.21540 0.26010
C3 C 0.6102(9) 0.2656(6) 0.4687(7)
H2 H 0.57980 0.28090 0.49480
C4 C -0.4605(11) 0.2707(6) -0.0235(8)
H3 H -0.46090 0.30510 -0.03790
C5 C 0.4768(10) 0.2915(6) 0.2332(7)
C6 C 0.6263(9) 0.2469(5) 0.3679(7)
C7 C -0.5294(9) 0.1890(6) -0.0130(7)
C8 C 0.5913(9) 0.2548(6) 0.3019(7)
C9 C 0.3132(11) 0.3513(6) 0.2944(8)
H4 H 0.30410 0.35900 0.33370
C10 C -0.5308(10) 0.2406(6) -0.0341(8)
H5 H -0.58030 0.25490 -0.05590
C11 C -0.7363(9) 0.1201(6) -0.0704(7)
H6 H -0.78760 0.12430 -0.09720
C12 C -0.7194(9) 0.0751(6) -0.0372(7)
H7 H -0.75920 0.04880 -0.04090
C13 C -0.6010(9) 0.1541(6) -0.0244(7)
C14 C -0.6562(9) -0.0218(6) 0.0439(7)
H8 H -0.71190 -0.02350 0.02440
C15 C -0.6095(9) 0.0222(6) 0.0393(7)
C16 C -0.6785(9) 0.1601(6) -0.0650(7)
H9 H -0.69100 0.19070 -0.08810
C17 C -0.3913(10) 0.1957(7) 0.0319(7)
H10 H -0.34350 0.18050 0.05520
C18 C -0.3875(11) 0.2470(7) 0.0105(8)
H11 H -0.33770 0.26530 0.01840
C19 C -0.4927(10) -0.0131(6) 0.1007(8)
H12 H -0.43780 -0.01010 0.12150
C20 C 0.5074(11) 0.2737(6) 0.1829(8)
H13 H 0.48050 0.28280 0.14270
C21 C 0.5779(11) 0.2426(7) 0.1924(8)
H14 H 0.59490 0.22770 0.15870
C22 C 0.3986(10) 0.3205(6) 0.2325(8)
C23 C 0.6983(11) 0.2200(6) 0.3915(9)
H15 H 0.72860 0.20550 0.36480
C24 C 0.7255(11) 0.2147(7) 0.4561(9)
H16 H 0.77220 0.19490 0.47290
C25 C -0.6170(11) -0.0635(7) 0.0789(8)
H17 H -0.64590 -0.09400 0.08360
C26 C -0.5334(12) -0.0590(6) 0.1069(9)
H18 H -0.50550 -0.08680 0.12960
C27 C 0.2517(13) 0.3617(6) 0.2421(11)
H19 H 0.20150 0.37590 0.24620
C28 C 0.6816(11) 0.2395(7) 0.4945(9)
H20 H 0.70040 0.23850 0.53750
C29 C 0.3405(11) 0.3318(6) 0.1793(8)
H21 H 0.35090 0.32650 0.13990
C30 C 0.2650(13) 0.3517(6) 0.1875(10)
H22 H 0.22310 0.35780 0.15260
N1 N -0.5868(7) 0.1086(4) 0.0068(6)
N2 N -0.5271(7) 0.0268(5) 0.0668(6)
N3 N -0.4606(7) 0.1677(4) 0.0204(6)
N4 N 0.5231(8) 0.2826(4) 0.2911(6)
N5 N 0.5823(8) 0.2698(4) 0.4064(6)
N6 N 0.3870(8) 0.3297(5) 0.2891(6)
Cu3 Cu 0.61894(11) 0.95365(7) 0.40008(9)
O65 O 0.5899(6) 0.9732(4) 0.3003(5)
O66 O 0.5301(7) 0.9014(4) 0.3898(5)
C31 C 0.7631(11) 1.0662(7) 0.5086(7)
H23 H 0.75480 1.09750 0.52810
C32 C 0.6957(10) 1.0382(7) 0.4715(7)
C33 C 0.8547(10) 1.0005(7) 0.4864(7)
H24 H 0.90770 0.98690 0.49070
C34 C 0.7877(9) 0.9758(7) 0.4510(7)
C35 C 0.789(1) 0.9251(7) 0.4168(8)
C36 C 0.8582(10) 0.8971(7) 0.4112(8)
H25 H 0.91030 0.90950 0.43040
C37 C 0.8406(10) 1.0455(7) 0.5147(8)
H26 H 0.88510 1.06310 0.53930
C38 C 0.608(1) 1.0502(7) 0.4592(7)
C39 C 0.5754(12) 1.0974(8) 0.4760(8)
H27 H 0.61120 1.12310 0.49630
C40 C 0.4765(10) 1.0232(7) 0.4178(7)
H28 H 0.44110 0.99750 0.39690
C41 C 0.8512(12) 0.8511(8) 0.3776(9)
H29 H 0.89810 0.83310 0.37250
C42 C 0.7764(13) 0.8330(6) 0.3527(8)
H30 H 0.77050 0.80110 0.33160
C43 C 0.7068(11) 0.8614(8) 0.3581(8)
H31 H 0.65480 0.84880 0.33900
C44 C 0.4917(11) 1.1066(9) 0.4633(8)
H32 H 0.46980 1.13790 0.47440
C45 C 0.4432(12) 1.0681(8) 0.4340(8)
H33 H 0.38620 1.07230 0.42470
N7 N 0.5575(8) 1.0138(5) 0.4301(6)
N8 N 0.7132(8) 0.9065(5) 0.3901(6)
N9 N 0.7111(7) 0.9935(5) 0.4444(6)
O67 O 0.5921(8) 0.8537(5) 0.2016(7)
O68 O 0.4734(9) 0.8694(5) 0.2761(6)
O69 O 0.6103(8) 0.8189(5) 0.4650(6)
O70 O 0.2834(8) 0.3010(7) 0.4462(6)
Cu1A Cu 0.02165(11) -0.19341(7) 0.13931(9)
O5A O 0.5253(6) 0.3936(4) 0.3683(4)
#END
