
#######################################################################
#
#                 Cambridge Crystallographic Data Centre
#                                CCDC
#
#######################################################################
#
# If this CIF has been generated from an entry in the Cambridge
# Structural Database, then it will include bibliographic, chemical,
# crystal, experimental, refinement or atomic coordinate data resulting
# from the CCDC's data processing and validation procedures.
#
#######################################################################

data_CSD_CIF_GODZOR
_audit_creation_date 2019-06-13
_audit_creation_method CSD-ConQuest-V1
_database_code_CSD GODZOR
_database_code_depnum_ccdc_archive 'CCDC 1901749'
_chemical_formula_sum 'C9 H9 Mn1 N1 O7'
_chemical_formula_moiety
;
(C9 H5 Mn1 O7 1-)n,H4 N1 1+
;
_journal_coden_Cambridge 222
_journal_volume 48
_journal_year 2019
_journal_page_first 10199
_journal_name_full 'Dalton Trans. '
loop_
_publ_author_name
"Ming-Yu Zhao"
"Jian-Nan Zhu"
"Peng Li"
"Wei Li"
"Ting Cai"
"Fang-Fang Cheng"
"Wei-Wei Xiong"
_chemical_name_systematic
;
catena-[ammonium (\m-1,3,5-tricarboxylato-benzene)-aqua-manganese(ii)]
;
_cell_volume   1044.796
_exptl_crystal_colour 'colorless'
_exptl_crystal_density_diffrn 1.895
_exptl_crystal_description 'prism'
_diffrn_ambient_temperature 293
#These two values have been output from a single CSD field.
_refine_ls_R_factor_gt 0.0251
_refine_ls_wR_factor_gt 0.0251
_symmetry_cell_setting monoclinic
_symmetry_space_group_name_H-M 'P 21/n'
_symmetry_Int_Tables_number 14
loop_
_symmetry_equiv_pos_site_id
_symmetry_equiv_pos_as_xyz
1 x,y,z
2 1/2-x,1/2+y,1/2-z
3 -x,-y,-z
4 -1/2+x,-1/2-y,-1/2+z
_cell_length_a 7.0734(5)
_cell_length_b 9.6325(7)
_cell_length_c 15.3798(11)
_cell_angle_alpha 90
_cell_angle_beta 94.408(2)
_cell_angle_gamma 90
_cell_formula_units_Z 4
loop_
_atom_type_symbol
_atom_type_radius_bond
C 0.68
H 0.23
Mn 1.61
N 0.68
O 0.68
loop_
_atom_site_label
_atom_site_type_symbol
_atom_site_fract_x
_atom_site_fract_y
_atom_site_fract_z
Mn1 Mn 0.08638(3) 0.59359(2) 0.36072(2)
O1 O 0.15897(18) -0.22603(11) 0.43112(8)
O2 O 0.3149(2) 0.64470(15) 0.27686(9)
O3 O 0.39519(19) -0.11286(12) 0.73666(7)
O4 O 0.15814(15) 0.46339(11) 0.56725(7)
O5 O 0.11163(19) -0.05829(13) 0.33264(8)
O6 O 0.25551(16) 0.44191(11) 0.43347(7)
O7 O 0.50688(19) 0.09610(12) 0.76425(8)
C1 C 0.1622(2) -0.10128(15) 0.40763(10)
C2 C 0.2923(2) -0.03951(16) 0.55926(10)
C3 C 0.3258(2) 0.19807(16) 0.60651(10)
C4 C 0.2229(2) 0.39334(15) 0.50699(10)
C5 C 0.2147(2) 0.14585(16) 0.45813(10)
C6 C 0.3464(2) 0.05716(16) 0.62428(10)
C7 C 0.2604(2) 0.24225(15) 0.52351(10)
C8 C 0.4204(2) 0.01167(16) 0.7135(1)
C9 C 0.2271(2) 0.00389(15) 0.47629(10)
H1 H 0.350(3) 0.2626(19) 0.6499(12)
H2 H 0.166(3) 0.176(2) 0.4015(12)
H3 H 0.289(3) -0.137(2) 0.5719(12)
H4 H 0.336(3) 0.589(3) 0.2316(17)
H5 H 0.356(4) 0.726(3) 0.2670(17)
N1 N -0.0641(2) 0.87267(17) 0.16837(10)
H6 H -0.091(3) 0.780(3) 0.1781(15)
H7 H -0.025(4) 0.909(3) 0.2230(18)
H8 H 0.030(4) 0.880(2) 0.1344(16)
H9 H -0.171(4) 0.919(3) 0.1378(18)
Mn1* Mn 0.08638(3) -0.40641(2) 0.36072(2)
Mn1B Mn -0.08638(3) 0.40641(2) 0.63928(2)
Mn1C Mn 0.58638(3) -0.09359(2) 0.86072(2)
O1* O 0.15897(18) 0.77397(11) 0.43112(8)
O3C O -0.10481(19) 0.61286(12) 0.23666(7)
O4B O -0.15814(15) 0.53661(11) 0.43275(7)
O7C O 0.00688(19) 0.40390(12) 0.26425(8)
#END
