
#######################################################################
#
#                 Cambridge Crystallographic Data Centre
#                                CCDC
#
#######################################################################
#
# If this CIF has been generated from an entry in the Cambridge
# Structural Database, then it will include bibliographic, chemical,
# crystal, experimental, refinement or atomic coordinate data resulting
# from the CCDC's data processing and validation procedures.
#
#######################################################################

data_CSD_CIF_GODZUX
_audit_creation_date 2019-06-13
_audit_creation_method CSD-ConQuest-V1
_database_code_CSD GODZUX
_database_code_depnum_ccdc_archive 'CCDC 1901750'
_chemical_formula_sum 'C28 H23 Mn3 N1 O21'
_chemical_formula_moiety
;
(C27 H11 Mn3 O18 1-)n,C1 H6 N1 1+,3(H2 O1)
;
_journal_coden_Cambridge 222
_journal_volume 48
_journal_year 2019
_journal_page_first 10199
_journal_name_full 'Dalton Trans. '
loop_
_publ_author_name
"Ming-Yu Zhao"
"Jian-Nan Zhu"
"Peng Li"
"Wei Li"
"Ting Cai"
"Fang-Fang Cheng"
"Wei-Wei Xiong"
_chemical_name_systematic
;
catena-[methylammonium 
(\m-1,3,5-tricarboxylato-benzene)-bis(\m-5-carboxybenzene-1,3-dicarboxylato)-t
ri-manganese(ii) trihydrate]
;
_cell_volume   1675.864
_exptl_crystal_colour 'colorless'
_exptl_crystal_density_diffrn 1.677
_exptl_crystal_description 'block'
_diffrn_ambient_temperature 293
_diffrn_special_details
;
twin

;
_refine_special_details
;
C16A,N1A and C16B,N1B disordered over two sites with occupancies 0.25:0.25.

;
#These two values have been output from a single CSD field.
_refine_ls_R_factor_gt 0.083
_refine_ls_wR_factor_gt 0.083
_symmetry_cell_setting monoclinic
_symmetry_space_group_name_H-M 'P 2/c'
_symmetry_Int_Tables_number 13
loop_
_symmetry_equiv_pos_site_id
_symmetry_equiv_pos_as_xyz
1 x,y,z
2 -x,y,1/2-z
3 -x,-y,-z
4 x,-y,-1/2+z
_cell_length_a 9.7273(11)
_cell_length_b 12.8613(14)
_cell_length_c 14.2241(17)
_cell_angle_alpha 90
_cell_angle_beta 109.652(13)
_cell_angle_gamma 90
_cell_formula_units_Z 2
loop_
_atom_type_symbol
_atom_type_radius_bond
C 0.68
H 0.23
Mn 1.61
N 0.68
O 0.68
loop_
_atom_site_label
_atom_site_type_symbol
_atom_site_fract_x
_atom_site_fract_y
_atom_site_fract_z
Mn1 Mn 1.00000 0.50000 0.50000
Mn2 Mn 1.05840(12) 0.72882(9) 0.64903(7)
C1 C 0.5291(9) 0.4057(7) 0.6214(6)
C2 C 1.0098(8) 0.1024(6) 0.6670(5)
H1 H 1.01522 0.06629 0.61171
C3 C 0.4118(8) 0.4652(7) 0.6236(5)
H2 H 0.32526 0.43254 0.62095
C4 C 1.0165(9) 0.2713(6) 0.5782(5)
C5 C 0.6576(8) 0.4535(7) 0.6255(6)
H3 H 0.73562 0.41373 0.62192
C6 C 1.0114(9) 0.2104(6) 0.6680(5)
C7 C 0.6713(8) 0.5608(7) 0.6349(5)
C8 C 0.4207(7) 0.5707(6) 0.6297(5)
C9 C 1.00000 0.0482(9) 0.75000
C10 C 0.2915(8) 0.6335(7) 0.6316(5)
C11 C 0.5506(8) 0.6199(6) 0.6375(5)
H4 H 0.55816 0.69176 0.64428
C12 C 1.00000 0.2642(8) 0.75000
H5 H 1.00000 0.33652 0.75000
C13 C 1.00000 -0.0693(8) 0.75000
C14 C 0.8103(8) 0.6116(7) 0.6364(5)
C15 C 0.5148(12) 0.2931(9) 0.6094(10)
O1 O 0.8783(6) 0.5714(5) 0.5862(5)
O2 O 0.1712(6) 0.5863(5) 0.6175(4)
O3 O 0.8526(6) 0.6943(5) 0.6851(4)
O4 O 1.0264(7) 0.3677(4) 0.5892(4)
O5 O 1.0119(6) 0.2206(4) 0.5020(3)
O6 O 0.9545(6) -0.1134(4) 0.8123(4)
O7 O 0.3026(6) 0.7289(5) 0.6512(4)
O8 O 0.3898(12) 0.2552(8) 0.5970(12)
O9 O 0.6176(11) 0.2397(7) 0.607(1)
O10 O 0.2544(15) 0.0839(14) 0.5122(13)
H6 H 0.28878 0.02799 0.55378
N1 N 0.328(3) 0.095(2) 0.0411(19)
C16 C 0.417(7) 0.045(5) 0.138(3)
N2? N 0.328(3) 0.095(2) 0.0411(19)
C17? C 0.417(7) 0.045(5) 0.138(3)
C2A C 0.9902(8) 0.1024(6) 0.8330(5)
H1A H 0.98478 0.06629 0.88829
C4A C 0.9835(9) 0.2713(6) 0.9218(5)
C6A C 0.9886(9) 0.2104(6) 0.8320(5)
O4A O 0.9736(7) 0.3677(4) 0.9108(4)
O5A O 0.9881(6) 0.2206(4) 0.9980(3)
O6A O 1.0455(6) -0.1134(4) 0.6877(4)
Mn2A Mn 0.94160(12) 0.72882(9) 0.85097(7)
C1A C 1.4709(9) 0.4057(7) 0.8786(6)
C3A C 1.5882(8) 0.4652(7) 0.8764(5)
H2A H 1.67474 0.43254 0.87905
C5A C 1.3424(8) 0.4535(7) 0.8745(6)
H3A H 1.26438 0.41373 0.87808
C7A C 1.3287(8) 0.5608(7) 0.8651(5)
C8A C 1.5793(7) 0.5707(6) 0.8703(5)
C10A C 1.7085(8) 0.6335(7) 0.8684(5)
C11A C 1.4494(8) 0.6199(6) 0.8625(5)
H4A H 1.44184 0.69176 0.85572
C14A C 1.1897(8) 0.6116(7) 0.8636(5)
C15A C 1.4852(12) 0.2931(9) 0.8906(10)
O1A O 1.1217(6) 0.5714(5) 0.9138(5)
O2A O 1.8288(6) 0.5863(5) 0.8825(4)
O3A O 1.1474(6) 0.6943(5) 0.8149(4)
O7A O 1.6974(6) 0.7289(5) 0.8488(4)
O8A O 1.6102(12) 0.2552(8) 0.9030(12)
O9A O 1.3824(11) 0.2397(7) 0.893(1)
Mn1* Mn 0.00000 0.50000 0.50000
Mn1A Mn 1.00000 0.50000 1.00000
Mn1A* Mn 2.00000 0.50000 1.00000
Mn2* Mn 0.05840(12) 0.72882(9) 0.64903(7)
Mn2** Mn 1.05840(12) -0.27118(9) 0.64903(7)
Mn2A* Mn 0.94160(12) -0.27118(9) 0.85097(7)
Mn2A** Mn 1.94160(12) 0.72882(9) 0.85097(7)
Mn2B Mn 0.94160(12) 0.27118(9) 0.35097(7)
Mn2C Mn 1.05840(12) 0.27118(9) 1.14903(7)
O1B O 1.1217(6) 0.4286(5) 0.4138(5)
O2* O 1.1712(6) 0.5863(5) 0.6175(4)
O2A* O 0.8288(6) 0.5863(5) 0.8825(4)
O2B O 0.8288(6) 0.4137(5) 0.3825(4)
O4B O 0.9736(7) 0.6323(4) 0.4108(4)
O5B O 0.9881(6) 0.7794(4) 0.4980(3)
O5C O 1.0119(6) 0.7794(4) 1.0020(3)
O6* O 0.9545(6) 0.8866(4) 0.8123(4)
O6A* O 1.0455(6) 0.8866(4) 0.6877(4)
O7* O 1.3026(6) 0.7289(5) 0.6512(4)
O7A* O 0.6974(6) 0.7289(5) 0.8488(4)
#END
