
#######################################################################
#
#                 Cambridge Crystallographic Data Centre
#                                CCDC
#
#######################################################################
#
# If this CIF has been generated from an entry in the Cambridge
# Structural Database, then it will include bibliographic, chemical,
# crystal, experimental, refinement or atomic coordinate data resulting
# from the CCDC's data processing and validation procedures.
#
#######################################################################

data_CSD_CIF_GOGMEV
_audit_creation_date 2008-11-13
_audit_creation_method CSD-ConQuest-V1
_database_code_CSD GOGMEV
_database_code_depnum_ccdc_archive 'CCDC 694740'
_chemical_formula_sum 'C48 H92.5 Cr2 Cu3 N24 O4.25'
_chemical_formula_moiety
;
(C36 H56 Cr2 Cu2 N20 2-)n,n(C12 H32 Cu1 N4 O2 2+),2.25n(H2 O1)
;
_journal_coden_Cambridge 9
_journal_volume 47
_journal_year 2008
_journal_page_first 5107
_journal_name_full 'Inorg.Chem. '
loop_
_publ_author_name
"O.Sereda"
"J.Ribas"
"H.Stoeckli-Evans"
_chemical_name_systematic
;
catena-(Diaqua-bis((1S,2S)-cyclohexane-1,2-diamine)-copper(ii) 
tetrakis(\m~2~-cyano)-octacyano-tetrakis((1S,2S)-cyclohexane-1,2-diamine)-di-c
hromium(iii)-di-copper(ii) hydrate)
;
_cell_volume   1645.098
_exptl_crystal_colour 'dark violet'
_exptl_crystal_density_diffrn 1.382
_exptl_special_details
;
Absolute configuration
magnetic properties
isostructural with the (1R,2R) and Fe(CN)6 analogues
;
_exptl_crystal_description 'block'
_diffrn_ambient_temperature 173
#These two values have been output from a single CSD field.
_refine_ls_R_factor_gt 0.0343
_refine_ls_wR_factor_gt 0.0343
_symmetry_cell_setting triclinic
_symmetry_space_group_name_H-M 'P 1'
_symmetry_Int_Tables_number 1
loop_
_symmetry_equiv_pos_site_id
_symmetry_equiv_pos_as_xyz
1 x,y,z
_cell_length_a 8.5435(8)
_cell_length_b 12.6309(12)
_cell_length_c 16.1711(17)
_cell_angle_alpha 104.632(8)
_cell_angle_beta 98.429(8)
_cell_angle_gamma 97.375(8)
_cell_formula_units_Z 1
loop_
_atom_type_symbol
_atom_type_radius_bond
C 0.68
H 0.23
Cr 1.35
Cu 1.67
N 0.68
O 0.68
loop_
_atom_site_label
_atom_site_type_symbol
_atom_site_fract_x
_atom_site_fract_y
_atom_site_fract_z
Cu1 Cu 0.93087(9) 0.18925(6) 0.80432(6)
Cu2 Cu 0.40938(10) 0.17153(7) 0.29470(7)
Cr1 Cr 0.8767(1) 0.03660(7) 0.47234(6)
Cr2 Cr 0.94381(9) 0.31134(7) 1.12846(6)
N1 N 0.9797(6) 0.0369(4) 0.7529(4)
H1 H 1.00360 0.03170 0.69850
H2 H 1.06690 0.02450 0.78750
N2 N 0.7398(6) 0.1075(4) 0.8338(4)
H3 H 0.72780 0.14170 0.88930
H4 H 0.64820 0.10740 0.79580
N3 N 0.8868(7) 0.3437(4) 0.8537(4)
H5 H 0.77840 0.34470 0.84260
H6 H 0.92280 0.36700 0.91290
N4 N 1.1254(6) 0.2670(4) 0.7748(4)
H7 H 1.21540 0.24260 0.79650
H8 H 1.11590 0.25100 0.71540
N5 N 0.4824(6) 0.1282(4) 0.1791(4)
H9 H 0.51830 0.19100 0.16360
H10 H 0.56580 0.08940 0.18360
N6 N 0.2090(6) 0.0582(4) 0.2345(4)
H11 H 0.17930 0.01670 0.27080
H12 H 0.12550 0.09330 0.21980
N7 N 0.3327(6) 0.2197(4) 0.4062(4)
H13 H 0.22780 0.23010 0.39540
H14 H 0.33720 0.16600 0.43530
N8 N 0.6119(6) 0.2802(4) 0.3587(4)
H15 H 0.70050 0.24770 0.34940
H16 H 0.61880 0.34190 0.33810
N9 N 0.7786(7) 0.1782(5) 0.6452(5)
N10 N 0.9917(7) 0.2574(5) 0.4178(5)
N11 N 1.2108(8) 0.0832(6) 0.6062(5)
N12 N 1.0342(8) -0.1144(6) 0.3263(5)
N13 N 0.7526(7) -0.1909(5) 0.5172(4)
N14 N 0.5316(7) 0.0198(4) 0.3516(4)
N15 N 1.2930(7) 0.3309(4) 1.2449(4)
N16 N 0.8258(7) 0.0864(5) 1.1759(5)
N17 N 1.0602(7) 0.5362(5) 1.0793(5)
N18 N 0.7943(8) 0.4638(6) 1.2773(5)
N19 N 0.6087(7) 0.2623(6) 0.9942(5)
N20 N 1.0713(7) 0.1814(5) 0.9615(5)
C1 C 0.8361(7) -0.0470(4) 0.7467(4)
H17 H 0.75520 -0.04800 0.69500
C2 C 0.8741(9) -0.1647(5) 0.7354(5)
H18 H 0.95910 -0.16520 0.78390
H19 H 0.91340 -0.18940 0.68020
C3 C 0.7208(9) -0.2436(5) 0.7342(5)
H20 H 0.64000 -0.24800 0.68230
H21 H 0.74580 -0.31900 0.72990
C4 C 0.6518(12) -0.2049(6) 0.8148(6)
H22 H 0.73020 -0.20370 0.86670
H23 H 0.55310 -0.25710 0.81210
C5 C 0.6117(10) -0.0871(6) 0.8227(6)
H24 H 0.53090 -0.08820 0.77180
H25 H 0.56670 -0.06170 0.87590
C6 C 0.7657(8) -0.0085(5) 0.8270(4)
H26 H 0.84530 -0.00830 0.87900
C7 C 0.9736(7) 0.4165(5) 0.8107(4)
H27 H 0.91880 0.39670 0.74850
C8 C 0.9782(11) 0.5407(5) 0.8502(5)
H28 H 1.02700 0.56210 0.91280
H29 H 0.86750 0.55710 0.84480
C9 C 1.0776(9) 0.6078(5) 0.8025(5)
H30 H 1.02240 0.59150 0.74120
H31 H 1.08500 0.68820 0.83010
C10 C 1.2445(10) 0.5801(5) 0.8047(6)
H32 H 1.30290 0.60180 0.86570
H33 H 1.30410 0.62280 0.77210
C11 C 1.2376(9) 0.4563(6) 0.7647(6)
H34 H 1.34800 0.43940 0.76830
H35 H 1.18600 0.43540 0.70260
C12 C 1.1422(7) 0.3889(4) 0.8128(4)
H36 H 1.19840 0.40850 0.87480
C13 C 0.3455(6) 0.0581(4) 0.1115(4)
H37 H 0.27600 0.10820 0.09170
C14 C 0.3965(8) -0.0116(5) 0.0328(4)
H38 H 0.47010 -0.05940 0.05120
H39 H 0.45490 0.03740 0.00420
C15 C 0.2495(8) -0.0841(5) -0.0314(5)
H40 H 0.18250 -0.03610 -0.05470
H41 H 0.28520 -0.13280 -0.08080
C16 C 0.1495(7) -0.1552(5) 0.0113(4)
H42 H 0.05250 -0.19790 -0.03120
H43 H 0.21270 -0.20880 0.02910
C17 C 0.0998(8) -0.0845(5) 0.0898(5)
H44 H 0.03840 -0.13280 0.11780
H45 H 0.02930 -0.03510 0.07150
C18 C 0.2477(6) -0.0145(4) 0.1551(4)
H46 H 0.31630 -0.06610 0.17330
C19 C 0.4364(6) 0.3255(4) 0.4604(4)
H47 H 0.40840 0.38630 0.43460
C20 C 0.4155(8) 0.3567(6) 0.5529(5)
H48 H 0.43420 0.29500 0.57850
H49 H 0.30360 0.36830 0.55510
C21 C 0.5326(8) 0.4640(5) 0.6077(5)
H50 H 0.50600 0.52810 0.58710
H51 H 0.52200 0.47870 0.66960
C22 C 0.7037(8) 0.4494(5) 0.5988(4)
H52 H 0.77790 0.51920 0.63130
H53 H 0.73280 0.38990 0.62480
C23 C 0.7236(8) 0.4197(5) 0.5044(5)
H54 H 0.83570 0.40950 0.50110
H55 H 0.70170 0.48130 0.47920
C24 C 0.6086(6) 0.3129(4) 0.4515(4)
H56 H 0.63630 0.25110 0.47600
C25 C 0.8058(8) 0.1282(5) 0.5807(5)
C26 C 0.9510(7) 0.1782(5) 0.4375(5)
C27 C 1.0956(9) 0.0633(6) 0.5549(5)
C28 C 0.9706(9) -0.0596(6) 0.3747(6)
C29 C 0.7964(8) -0.1096(5) 0.5029(5)
C30 C 0.6545(8) 0.0231(5) 0.3939(5)
C31 C 1.1681(8) 0.3271(4) 1.2046(5)
C32 C 0.8691(7) 0.1661(5) 1.1591(5)
C33 C 1.0162(8) 0.4548(6) 1.0942(5)
C34 C 0.8500(8) 0.4070(6) 1.2263(5)
C35 C 0.7275(8) 0.2831(5) 1.0444(5)
C36 C 1.0300(7) 0.2254(5) 1.0234(5)
Cu3 Cu 0.40334(11) 0.67548(7) 0.29759(7)
O1 O 0.6136(7) 0.6041(4) 0.3784(4)
H57 H 0.68770 0.64810 0.41400
H58 H 0.675(10) 0.570(7) 0.339(6)
O2 O 0.1948(6) 0.7410(4) 0.2155(4)
H59 H 0.13690 0.78200 0.23840
H60 H 0.165(9) 0.694(5) 0.178(5)
N21 N 0.5703(7) 0.7704(4) 0.2587(4)
H61 H 0.55300 0.84270 0.27120
H62 H 0.67140 0.76950 0.28710
N22 N 0.4149(6) 0.5588(4) 0.1877(4)
H63 H 0.43690 0.49510 0.20140
H64 H 0.31720 0.54150 0.15050
N23 N 0.2413(7) 0.5770(4) 0.3376(4)
H65 H 0.15320 0.54740 0.29380
H66 H 0.28640 0.51940 0.35040
N24 N 0.3914(6) 0.7902(4) 0.4082(4)
H67 H 0.49110 0.83270 0.43260
H68 H 0.32160 0.83640 0.39620
C37 C 0.5570(6) 0.7245(4) 0.1638(4)
H69 H 0.45440 0.74040 0.13500
C38 C 0.6918(8) 0.7744(6) 0.1262(6)
H70 H 0.69370 0.85530 0.13710
H71 H 0.79630 0.76310 0.15520
C39 C 0.6680(8) 0.7206(5) 0.0295(5)
H72 H 0.76280 0.74820 0.00750
H73 H 0.57310 0.74300 -0.00010
C40 C 0.6441(8) 0.5940(6) 0.0062(5)
H74 H 0.61830 0.56350 -0.05790
H75 H 0.74530 0.57100 0.02760
C41 C 0.5094(9) 0.5465(6) 0.0457(5)
H76 H 0.50280 0.46500 0.03360
H77 H 0.40540 0.56130 0.01910
C42 C 0.5420(7) 0.6000(5) 0.1442(4)
H78 H 0.64620 0.58250 0.16970
C43 C 0.1908(7) 0.6416(4) 0.4150(4)
H79 H 0.10290 0.68000 0.39560
C44 C 0.1293(9) 0.5717(6) 0.4719(5)
H80 H 0.03170 0.51860 0.43820
H81 H 0.21190 0.52820 0.48740
C45 C 0.0900(8) 0.6412(6) 0.5542(5)
H82 H 0.05940 0.59250 0.59060
H83 H -0.00350 0.67620 0.53900
C46 C 0.2303(8) 0.7314(5) 0.6064(5)
H84 H 0.31940 0.69700 0.62850
H85 H 0.19640 0.77920 0.65690
C47 C 0.2885(9) 0.8031(6) 0.5477(5)
H86 H 0.20170 0.84170 0.52900
H87 H 0.38230 0.86000 0.58110
C48 C 0.3340(7) 0.7306(4) 0.4695(4)
H88 H 0.42120 0.69220 0.48980
O3 O 0.5026(7) 0.1699(9) 0.7146(5)
O4 O 0.3256(7) 0.1381(6) 0.8687(4)
H89 H 0.402(9) 0.185(5) 0.914(5)
H90 H 0.274(8) 0.158(5) 0.904(4)
O5 O 0.5508(9) 0.3552(6) 0.8414(5)
Cu2* Cu 1.40938(10) 0.17153(7) 1.29470(7)
N15* N 0.2930(7) 0.3309(4) 0.2449(4)
#END
