
#######################################################################
#
#                 Cambridge Crystallographic Data Centre
#                                CCDC
#
#######################################################################
#
# If this CIF has been generated from an entry in the Cambridge
# Structural Database, then it will include bibliographic, chemical,
# crystal, experimental, refinement or atomic coordinate data resulting
# from the CCDC's data processing and validation procedures.
#
#######################################################################

data_CSD_CIF_GOJFAN
_audit_creation_date 2009-03-31
_audit_creation_method CSD-ConQuest-V1
_database_code_CSD GOJFAN
_database_code_depnum_ccdc_archive 'CCDC 709257'
_chemical_formula_sum 'C24 H30 O42 U5'
_chemical_formula_moiety
;
(H3 O1 1+)2n,n(C24 H24 O40 U5 2-)
;
_journal_coden_Cambridge 1147
_journal_volume 8
_journal_year 2008
_journal_page_first 3430
_journal_name_full 'Cryst.Growth Des. '
loop_
_publ_author_name
"P.Thuery"
"B.Masci"
_chemical_name_systematic
;
catena-(bis(oxonium) 
tris(\m~4~-trans,trans,trans-1,2,3,4-cyclobutanetetracarboxylato)-hexaaqua-dec
aoxo-penta-uranium)
;
_cell_volume  11498.797
_exptl_crystal_colour 'light yellow'
_exptl_crystal_density_diffrn 1.26
_exptl_crystal_description 'cube'
_diffrn_ambient_temperature 100
_refine_special_details
;
Several oxygen atoms are disordered with occupancies 0.5:0.5. Large voids in 
the lattice indicate the presence of unresolved water molecules which are 
probably disordered.
;
#These two values have been output from a single CSD field.
_refine_ls_R_factor_gt 0.044
_refine_ls_wR_factor_gt 0.044
_symmetry_cell_setting cubic
_symmetry_space_group_name_H-M 'P m -3 m'
_symmetry_Int_Tables_number 221
loop_
_symmetry_equiv_pos_site_id
_symmetry_equiv_pos_as_xyz
1 x,y,z
2 z,x,y
3 y,z,x
4 y,x,-z
5 y,-x,z
6 -y,x,z
7 x,z,-y
8 -x,z,y
9 x,-z,y
10 z,y,-x
11 z,-y,x
12 -z,y,x
13 -x,-y,z
14 -x,y,-z
15 x,-y,-z
16 z,-x,-y
17 -z,-x,y
18 -z,x,-y
19 -y,z,-x
20 y,-z,-x
21 -y,-z,x
22 -y,-x,-z
23 -x,-z,-y
24 -z,-y,-x
25 -x,-y,-z
26 -z,-x,-y
27 -y,-z,-x
28 -y,-x,z
29 -y,x,-z
30 y,-x,-z
31 -x,-z,y
32 x,-z,-y
33 -x,z,-y
34 -z,-y,x
35 -z,y,-x
36 z,-y,-x
37 x,y,-z
38 x,-y,z
39 -x,y,z
40 -z,x,y
41 z,x,-y
42 z,-x,y
43 y,-z,x
44 -y,z,x
45 y,z,-x
46 y,x,z
47 x,z,y
48 z,y,x
_cell_length_a 22.5710(8)
_cell_length_b 22.5710(8)
_cell_length_c 22.5710(8)
_cell_angle_alpha 90
_cell_angle_beta 90
_cell_angle_gamma 90
_cell_formula_units_Z 4
loop_
_atom_type_symbol
_atom_type_radius_bond
C 0.68
H 0.23
O 0.68
U 1.43
loop_
_atom_site_label
_atom_site_type_symbol
_atom_site_fract_x
_atom_site_fract_y
_atom_site_fract_z
O1 O 0.50000 -0.1024(6) 0.2763(7)
O2 O 0.6089(4) 0.1404(4) 0.1404(4)
U1 U 0.203081(17) 0.203081(17) 0.203081(17)
U2 U 0.50000 0.00000 0.22922(3)
O3 O 0.2485(3) 0.2485(3) 0.2485(3)
O4 O 0.1577(3) 0.1577(3) 0.1577(3)
O5 O 0.50000 -0.0345(7) 0.1571(4)
O6 O 0.50000 0.0258(7) 0.3011(4)
O7 O 0.2097(2) 0.1239(2) 0.2777(2)
O8 O 0.4013(5) -0.0480(4) 0.2416(6)
C1 C 0.2549(3) 0.1015(4) 0.2549(3)
C2 C 0.2819(3) 0.0482(4) 0.2819(3)
H1 H 0.31140 0.06000 0.31140
C3 C 0.3083(4) 0.00000 0.2402(4)
H2 H 0.28820 0.00000 0.20170
C4 C 0.3737(4) 0.00000 0.2326(5)
O9? O 0.4029(7) -0.0417(6) 0.2122(7)
O10? O 0.50000 -0.0960(8) 0.1844(9)
U1D U 0.203081(17) -0.203081(17) 0.203081(17)
U1C U 0.203081(17) 0.203081(17) -0.203081(17)
U1E U -0.203081(17) 0.203081(17) 0.203081(17)
U1E* U 0.796919(17) 0.203081(17) 0.203081(17)
U1AA U 0.796919(17) -0.203081(17) 0.203081(17)
U1AA* U -0.203081(17) -0.203081(17) 0.203081(17)
U1CA U 0.203081(17) -0.203081(17) -0.203081(17)
U2I U 0.22922 0.00000 0.50000(3)
U2A U 0.22922 0.50000 0.00000(3)
U2F U 0.50000 0.22922 0.00000(3)
U2B U 0.00000 0.22922 0.50000(3)
U2D U 0.00000 0.50000 0.22922(3)
U2K U 0.77078 0.00000 0.50000(3)
U2D* U 0.00000 -0.50000 0.22922(3)
U2PA U 0.00000 -0.22922 0.50000(3)
U2H U 0.50000 -0.22922 0.00000(3)
U2A* U 0.22922 -0.50000 0.00000(3)
O3D O 0.2485(3) -0.2485(3) 0.2485(3)
O3C O 0.2485(3) 0.2485(3) -0.2485(3)
O3E O -0.2485(3) 0.2485(3) 0.2485(3)
O4D O 0.1577(3) -0.1577(3) 0.1577(3)
O4C O 0.1577(3) 0.1577(3) -0.1577(3)
O4E O -0.1577(3) 0.1577(3) 0.1577(3)
O5KA O 0.50000 0.0345(7) 0.1571(4)
O5J O 0.15710 0.0345(7) 0.5000(4)
O5I O 0.15710 -0.0345(7) 0.5000(4)
O5A O 0.15710 0.5000(7) -0.0345(4)
O5NA O 0.15710 0.5000(7) 0.0345(4)
O5F O 0.50000 0.1571(7) 0.0345(4)
O5G O 0.50000 0.1571(7) -0.0345(4)
O5B O -0.03450 0.1571(7) 0.5000(4)
O5QA O 0.03450 0.1571(7) 0.5000(4)
O5E O 0.03450 0.5000(7) 0.1571(4)
O5D O -0.03450 0.5000(7) 0.1571(4)
O6KA O 0.50000 -0.0258(7) 0.3011(4)
O6J O 0.30110 -0.0258(7) 0.5000(4)
O6I O 0.30110 0.0258(7) 0.5000(4)
O6A O 0.30110 0.5000(7) 0.0258(4)
O6NA O 0.30110 0.5000(7) -0.0258(4)
O6F O 0.50000 0.3011(7) -0.0258(4)
O6G O 0.50000 0.3011(7) 0.0258(4)
O6B O 0.02580 0.3011(7) 0.5000(4)
O6QA O -0.02580 0.3011(7) 0.5000(4)
O6E O -0.02580 0.5000(7) 0.3011(4)
O6D O 0.02580 0.5000(7) 0.3011(4)
O7UA O 0.2777(2) 0.1239(2) 0.2097(2)
O7J O 0.2777(2) -0.1239(2) 0.2097(2)
O7KA O 0.2097(2) -0.1239(2) 0.2777(2)
O7A O 0.2777(2) 0.2097(2) 0.1239(2)
O7TA O 0.2097(2) 0.2777(2) 0.1239(2)
O7F O 0.2097(2) 0.2777(2) -0.1239(2)
O7NA O 0.2777(2) 0.2097(2) -0.1239(2)
O7B O 0.1239(2) 0.2777(2) 0.2097(2)
O7SA O 0.1239(2) 0.2097(2) 0.2777(2)
O7E O -0.1239(2) 0.2097(2) 0.2777(2)
O7QA O -0.1239(2) 0.2777(2) 0.2097(2)
O7LA O 0.7903(2) 0.1239(2) 0.2777(2)
O7K O 0.7223(2) 0.1239(2) 0.2097(2)
O7GA O 0.7223(2) -0.1239(2) 0.2097(2)
O7L O 0.7903(2) -0.1239(2) 0.2777(2)
O7D O 0.1239(2) -0.2097(2) 0.2777(2)
O7PA O 0.1239(2) -0.2777(2) 0.2097(2)
O7T O -0.1239(2) -0.2777(2) 0.2097(2)
O7AA O -0.1239(2) -0.2097(2) 0.2777(2)
O7H O 0.2097(2) -0.2777(2) 0.1239(2)
O7OA O 0.2777(2) -0.2097(2) 0.1239(2)
O7O O 0.2777(2) -0.2097(2) -0.1239(2)
O7EA O 0.2097(2) -0.2777(2) -0.1239(2)
O7I O 0.2777(2) 0.1239(2) -0.2097(2)
O7C O 0.1239(2) 0.2097(2) -0.2777(2)
O7RA O 0.1239(2) 0.2777(2) -0.2097(2)
O7JA O 0.2097(2) 0.1239(2) -0.2777(2)
O7G O -0.2097(2) 0.2777(2) 0.1239(2)
O7K* O -0.2777(2) 0.1239(2) 0.2097(2)
O7LA* O -0.2097(2) 0.1239(2) 0.2777(2)
O7MA O -0.2777(2) 0.2097(2) 0.1239(2)
O8J O 0.2416(5) 0.0480(4) 0.4013(6)
O8UA O 0.2416(5) -0.0480(4) 0.4013(6)
O8KA O 0.4013(5) 0.0480(4) 0.2416(6)
O8A O 0.2416(5) 0.4013(4) -0.0480(6)
O8F O 0.4013(5) 0.2416(4) 0.0480(6)
O8TA O 0.4013(5) 0.2416(4) -0.0480(6)
O8NA O 0.2416(5) 0.4013(4) 0.0480(6)
O8B O -0.0480(5) 0.2416(4) 0.4013(6)
O8E O 0.0480(5) 0.4013(4) 0.2416(6)
O8SA O -0.0480(5) 0.4013(4) 0.2416(6)
O8QA O 0.0480(5) 0.2416(4) 0.4013(6)
O8LA O 0.5987(5) -0.0480(4) 0.2416(6)
O8GA O 0.7584(5) 0.0480(4) 0.4013(6)
O8K O 0.7584(5) -0.0480(4) 0.4013(6)
O8L O 0.5987(5) 0.0480(4) 0.2416(6)
O8D O -0.0480(5) -0.4013(4) 0.2416(6)
O8T O 0.0480(5) -0.2416(4) 0.4013(6)
O8PA O -0.0480(5) -0.2416(4) 0.4013(6)
O8AA O 0.0480(5) -0.4013(4) 0.2416(6)
O8H O 0.4013(5) -0.2416(4) -0.0480(6)
O8O O 0.2416(5) -0.4013(4) 0.0480(6)
O8OA O 0.2416(5) -0.4013(4) -0.0480(6)
O8EA O 0.4013(5) -0.2416(4) 0.0480(6)
O8IA O 0.2416(5) 0.0480(4) 0.5987(6)
O8I O 0.2416(5) -0.0480(4) 0.5987(6)
O8OA* O 0.2416(5) 0.5987(4) -0.0480(6)
O8O* O 0.2416(5) 0.5987(4) 0.0480(6)
O8FA O 0.5987(5) 0.2416(4) 0.0480(6)
O8G O 0.5987(5) 0.2416(4) -0.0480(6)
O8RA O -0.0480(5) 0.2416(4) 0.5987(6)
O8R O 0.0480(5) 0.2416(4) 0.5987(6)
O8AA* O 0.0480(5) 0.5987(4) 0.2416(6)
O8D* O -0.0480(5) 0.5987(4) 0.2416(6)
C1J C 0.2549(3) -0.1015(4) 0.2549(3)
C1A C 0.2549(3) 0.2549(4) 0.1015(3)
C1F C 0.2549(3) 0.2549(4) -0.1015(3)
C1B C 0.1015(3) 0.2549(4) 0.2549(3)
C1E C -0.1015(3) 0.2549(4) 0.2549(3)
C1K C 0.7451(3) 0.1015(4) 0.2549(3)
C1GA C 0.7451(3) -0.1015(4) 0.2549(3)
C1D C 0.1015(3) -0.2549(4) 0.2549(3)
C1AA C -0.1015(3) -0.2549(4) 0.2549(3)
C1H C 0.2549(3) -0.2549(4) 0.1015(3)
C1EA C 0.2549(3) -0.2549(4) -0.1015(3)
C2J C 0.2819(3) -0.0482(4) 0.2819(3)
C2A C 0.2819(3) 0.2819(4) 0.0482(3)
C2F C 0.2819(3) 0.2819(4) -0.0482(3)
C2B C 0.0482(3) 0.2819(4) 0.2819(3)
C2E C -0.0482(3) 0.2819(4) 0.2819(3)
C2K C 0.7181(3) 0.0482(4) 0.2819(3)
C2GA C 0.7181(3) -0.0482(4) 0.2819(3)
C2D C 0.0482(3) -0.2819(4) 0.2819(3)
C2AA C -0.0482(3) -0.2819(4) 0.2819(3)
C2H C 0.2819(3) -0.2819(4) 0.0482(3)
C2EA C 0.2819(3) -0.2819(4) -0.0482(3)
H1J H 0.31140 -0.06000 0.31140
H1A H 0.31140 0.31140 0.06000
H1F H 0.31140 0.31140 -0.06000
H1B H 0.06000 0.31140 0.31140
H1E H -0.06000 0.31140 0.31140
H1K H 0.68860 0.06000 0.31140
H1GA H 0.68860 -0.06000 0.31140
H1D H 0.06000 -0.31140 0.31140
H1AA H -0.06000 -0.31140 0.31140
H1H H 0.31140 -0.31140 0.06000
H1EA H 0.31140 -0.31140 -0.06000
C3J C 0.2402(4) 0.00000 0.3083(4)
C3A C 0.2402(4) 0.30830 0.0000(4)
C3F C 0.3083(4) 0.24020 0.0000(4)
C3B C 0.0000(4) 0.24020 0.3083(4)
C3E C 0.0000(4) 0.30830 0.2402(4)
C3LA C 0.6917(4) 0.00000 0.2402(4)
C3K C 0.7598(4) 0.00000 0.3083(4)
C3D C 0.0000(4) -0.30830 0.2402(4)
C3PA C 0.0000(4) -0.24020 0.3083(4)
C3H C 0.3083(4) -0.24020 0.0000(4)
C3OA C 0.2402(4) -0.30830 0.0000(4)
H2J H 0.20170 0.00000 0.28820
H2A H 0.20170 0.28820 0.00000
H2F H 0.28820 0.20170 0.00000
H2B H 0.00000 0.20170 0.28820
H2E H 0.00000 0.28820 0.20170
H2LA H 0.71180 0.00000 0.20170
H2K H 0.79830 0.00000 0.28820
H2D H 0.00000 -0.28820 0.20170
H2PA H 0.00000 -0.20170 0.28820
H2H H 0.28820 -0.20170 0.00000
H2OA H 0.20170 -0.28820 0.00000
C4J C 0.2326(4) 0.00000 0.3737(5)
C4A C 0.2326(4) 0.37370 0.0000(5)
C4F C 0.3737(4) 0.23260 0.0000(5)
C4B C 0.0000(4) 0.23260 0.3737(5)
C4E C 0.0000(4) 0.37370 0.2326(5)
C4LA C 0.6263(4) 0.00000 0.2326(5)
C4K C 0.7674(4) 0.00000 0.3737(5)
C4D C 0.0000(4) -0.37370 0.2326(5)
C4PA C 0.0000(4) -0.23260 0.3737(5)
C4H C 0.3737(4) -0.23260 0.0000(5)
C4OA C 0.2326(4) -0.37370 0.0000(5)
#END
