
#######################################################################
#
#                 Cambridge Crystallographic Data Centre
#                                CCDC
#
#######################################################################
#
# If this CIF has been generated from an entry in the Cambridge
# Structural Database, then it will include bibliographic, chemical,
# crystal, experimental, refinement or atomic coordinate data resulting
# from the CCDC's data processing and validation procedures.
#
#######################################################################

data_CSD_CIF_GOKRAZ01
_audit_creation_date 2001-09-19
_audit_creation_method CSD-ConQuest-V1
_database_code_CSD GOKRAZ01
_chemical_formula_sum 'C90 H60 Fe3 Mn3 O36 P3'
_chemical_formula_moiety
;
(C24 H20 P1 1+)3n,n(C18 Fe3 Mn3 O36 3-)
;
_journal_coden_Cambridge 367
_journal_volume 27
_journal_year 2001
_journal_page_first 46
_journal_name_full 'Koord.Khim.(Russ.)(Coord.Chem.) '
loop_
_publ_author_name
"G.V.Shilov"
"L.O.Atovmyan"
"N.S.Ovanesyan"
"N.A.Sanina"
_chemical_name_systematic
;
catena-(tris(Tetraphenylphosphonium 
tris(\m~2~-oxalato)-iron(iii)-manganese(ii)))
;
_cell_volume  17440.060
_exptl_special_details
;
y(O1) is -0.0187 not 0.0187; z(C81) is -0.0985 not 0.0985; z(C82) is -0.0740 
not 0.0740; z(C122) is -0.0941 not 0.0941
;
_exptl_crystal_description 'pyramid'
_diffrn_ambient_temperature 140
_refine_special_details
;
One phenyl ring is disordered over three positions related by 3-fold axis.

;
#These two values have been output from a single CSD field.
_refine_ls_R_factor_gt 0.098
_refine_ls_wR_factor_gt 0.098
_symmetry_cell_setting rhombohedral
_symmetry_space_group_name_H-M 'R 3 c'
_symmetry_Int_Tables_number 161
loop_
_symmetry_equiv_pos_site_id
_symmetry_equiv_pos_as_xyz
1 x,y,z
2 -y,x-y,z
3 -y,-x,1/2+z
4 -x+y,-x,z
5 x,x-y,1/2+z
6 -x+y,y,1/2+z
7 1/3+x,2/3+y,2/3+z
8 1/3-y,2/3+x-y,2/3+z
9 1/3-y,2/3-x,1/6+z
10 1/3-x+y,2/3-x,2/3+z
11 1/3+x,2/3+x-y,1/6+z
12 1/3-x+y,2/3+y,1/6+z
13 2/3+x,1/3+y,1/3+z
14 2/3-y,1/3+x-y,1/3+z
15 2/3-y,1/3-x,5/6+z
16 2/3-x+y,1/3-x,1/3+z
17 2/3+x,1/3+x-y,5/6+z
18 2/3-x+y,1/3+y,5/6+z
_cell_length_a 18.826(5)
_cell_length_b 18.826(5)
_cell_length_c 56.82(1)
_cell_angle_alpha 90
_cell_angle_beta 90
_cell_angle_gamma 120
_cell_formula_units_Z 8
loop_
_atom_type_symbol
_atom_type_radius_bond
C 0.68
Fe 1.34
Mn 1.35
O 0.68
P 1.05
loop_
_atom_site_label
_atom_site_type_symbol
_atom_site_fract_x
_atom_site_fract_y
_atom_site_fract_z
Fe1 Fe 0.00000 0.00000 0.0002(3)
Mn1 Mn -0.3312(5) -0.1837(4) 0.0009(1)
Fe2 Fe -0.4851(4) -0.0033(4) 0.0023(1)
Mn2 Mn -0.33330 0.33330 0.0056(2)
P1 P 0.00000 0.00000 -0.0977(3)
P2 P -0.5010(4) -0.5091(4) -0.0986(1)
O1 O -0.0992(14) -0.0187(15) 0.0206(4)
O2 O -0.0997(10) -0.0928(9) -0.0158(3)
O3 O -0.2333(12) -0.0999(13) 0.0236(4)
O4 O -0.2337(16) -0.1748(18) -0.0201(5)
O5 O -0.4655(17) -0.0738(17) 0.0246(5)
O6 O -0.3975(12) -0.0141(12) -0.0169(4)
O7 O 0.0139(10) 0.4381(11) 0.0261(3)
O8 O 0.0809(15) 0.4997(14) -0.0175(4)
O9 O -0.3997(12) 0.0999(10) 0.0212(3)
O10 O -0.4821(16) 0.0943(14) -0.0148(5)
O11 O -0.4175(16) -0.1700(17) 0.0244(5)
O12 O -0.3591(15) -0.2888(14) 0.0215(5)
O13 O -0.3377(13) -0.0845(12) -0.0149(4)
O14 O -0.4304(11) -0.2848(11) -0.0147(4)
O15 O -0.3437(16) 0.2308(14) 0.0281(4)
O16 O -0.4153(13) 0.2366(12) -0.0179(4)
C1 C -0.1687(16) -0.0852(18) 0.0140(5)
C2 C -0.1689(16) -0.1265(18) -0.0085(5)
C3 C -0.3937(19) 0.1633(17) 0.0152(5)
C4 C -0.4296(17) 0.1640(15) -0.0089(5)
C5 C -0.4370(13) -0.1183(31) 0.0172(9)
C6 C -0.3883(19) -0.0660(18) -0.0049(6)
C7 C -0.4107(16) -0.3608(17) 0.0191(5)
C8 C -0.4495(19) -0.3450(16) -0.0033(5)
C9 C 0.00000 0.00000 -0.1296(4)
C10 C -0.0752(6) -0.0358(26) -0.1400(5)
C11 C -0.0831(20) -0.0471(30) -0.1643(6)
C12 C -0.0118(28) -0.0205(26) -0.1782(4)
C13 C -0.0165(22) 0.0471(35) -0.1679(6)
C14 C 0.0715(8) 0.0277(28) -0.1436(6)
C15 C -0.0025(13) -0.0938(11) -0.0880(4)
C16 C -0.0648(13) -0.1643(16) -0.0985(3)
C17 C -0.0844(12) -0.2410(12) -0.0898(4)
C18 C -0.0417(13) -0.2472(8) -0.0706(4)
C19 C 0.0206(11) -0.1767(11) -0.0602(3)
C20 C 0.0402(9) -0.1000(8) -0.0689(3)
C21 C -0.5052(11) -0.5015(12) -0.1303(2)
C22 C -0.4316(9) -0.4822(10) -0.1412(3)
C23 C -0.4283(11) -0.4881(12) -0.1655(33)
C24 C -0.4986(15) -0.5133(16) -0.1789(2)
C25 C -0.5722(12) -0.5326(15) -0.1681(4)
C26 C -0.5755(9) -0.5267(11) -0.1437(4)
C27 C -0.590(1) -0.5037(13) -0.0891(4)
C28 C -0.5873(12) -0.4443(11) -0.0740(4)
C29 C -0.6592(17) -0.4547(15) -0.0639(4)
C30 C -0.7337(13) -0.5245(18) -0.0689(4)
C31 C -0.7364(9) -0.5839(13) -0.0840(4)
C32 C -0.6646(13) -0.5735(12) -0.0941(4)
C33 C -0.5067(14) -0.6006(12) -0.0891(4)
C34 C -0.4743(15) -0.6419(16) -0.1014(3)
C35 C -0.4644(15) -0.7020(15) -0.0901(5)
C36 C -0.4869(14) -0.7208(11) -0.0666(5)
C37 C -0.5193(12) -0.6795(13) -0.0544(3)
C38 C -0.5292(12) -0.6194(12) -0.0656(4)
C39 C -0.4196(10) -0.4173(10) -0.0848(4)
C40 C -0.3874(13) -0.4188(11) -0.0629(4)
C41 C -0.3178(14) -0.3495(15) -0.0546(3)
C42 C -0.2804(10) -0.2786(11) -0.0682(4)
C43 C -0.3127(13) -0.2771(10) -0.0901(4)
C44 C -0.3823(13) -0.3464(14) -0.0984(3)
O1A O 0.0187(14) -0.0805(15) 0.0206(4)
O2A O 0.0928(10) -0.0069(9) -0.0158(3)
O1C O 0.0805(14) 0.0992(15) 0.0206(4)
C1C C 0.0835(16) 0.1687(18) 0.0140(5)
O3C O 0.1334(12) 0.2333(13) 0.0236(4)
Mn1C Mn 0.1475(5) 0.3312(4) 0.0009(1)
O4C O 0.0589(16) 0.2337(18) -0.0201(5)
C2C C 0.0424(16) 0.1689(18) -0.0085(5)
O2C O 0.0069(10) 0.0997(9) -0.0158(3)
O11C O 0.2475(16) 0.4175(17) 0.0244(5)
C5C C 0.3187(13) 0.4370(31) 0.0172(9)
O5C O 0.3917(17) 0.4655(17) 0.0246(5)
Fe2C Fe 0.4818(4) 0.4851(4) 0.0023(1)
O6C O 0.3834(12) 0.3975(12) -0.0169(4)
C6C C 0.3223(19) 0.3883(18) -0.0049(6)
O13C O 0.2532(13) 0.3377(12) -0.0149(4)
O12C O 0.0703(15) 0.3591(14) 0.0215(5)
C7C C 0.0499(16) 0.4107(17) 0.0191(5)
O7C O -0.5758(10) -0.0139(11) 0.0261(3)
Fe2A Fe 0.0033(4) 0.5182(4) 0.0023(1)
O5A O 0.0738(17) 0.6083(17) 0.0246(5)
O6A O 0.0141(12) 0.6166(12) -0.0169(4)
O8C O -0.5812(15) -0.0809(14) -0.0175(4)
C8C C 0.1045(19) 0.4495(16) -0.0033(5)
O14C O 0.1456(11) 0.4304(11) -0.0147(4)
O9A O -0.0999(12) 0.5004(10) 0.0212(3)
C3A C -0.1633(19) 0.4430(17) 0.0152(5)
O15A O -0.2308(16) 0.4255(14) 0.0281(4)
O15C O -0.4255(16) 0.3437(14) 0.0281(4)
C3C C -0.4430(19) 0.3937(17) 0.0152(5)
O9C O -0.5004(12) 0.3997(10) 0.0212(3)
Fe2C* Fe -0.5182(4) 0.4851(4) 0.0023(1)
O10C O -0.4236(16) 0.4821(14) -0.0148(5)
C4C C -0.4064(17) 0.4296(15) -0.0089(5)
O16C O -0.3481(13) 0.4153(12) -0.0179(4)
O16A O -0.2366(13) 0.3481(12) -0.0179(4)
C4A C -0.1640(17) 0.4064(15) -0.0089(5)
O10A O -0.0943(16) 0.4236(14) -0.0148(5)
C11A C 0.0471(20) -0.036(3) -0.1643(6)
C10A C 0.0358(6) -0.0394(26) -0.1400(5)
C10C C 0.0394(6) 0.0752(26) -0.1400(5)
C11C C 0.036(2) 0.0831(30) -0.1643(6)
C12C C -0.0087(28) 0.0118(26) -0.1782(4)
C12A C 0.0205(28) 0.0087(26) -0.1782(4)
C13A C -0.0471(22) -0.0636(35) -0.1679(6)
C14C C -0.0438(8) -0.0715(28) -0.1436(6)
C14A C -0.0277(8) 0.0438(28) -0.1436(6)
C13C C 0.0636(22) 0.0165(35) -0.1679(6)
C15A C 0.0938(13) 0.0913(11) -0.0880(4)
C16A C 0.1643(13) 0.0995(16) -0.0985(3)
C17A C 0.2410(12) 0.1566(12) -0.0898(4)
C18A C 0.2472(13) 0.2055(8) -0.0706(4)
C19A C 0.1767(11) 0.1973(11) -0.0602(3)
C20A C 0.1000(9) 0.1402(8) -0.0689(3)
C15C C -0.0913(13) 0.0025(11) -0.0880(4)
C16C C -0.0995(13) 0.0648(16) -0.0985(3)
C17C C -0.1566(12) 0.0844(12) -0.0898(4)
C18C C -0.2055(13) 0.0417(8) -0.0706(4)
C19C C -0.1973(11) -0.0206(11) -0.0602(3)
C20C C -0.1402(9) -0.0402(8) -0.0689(3)
O7A O -0.4381(10) -0.4242(11) 0.0261(3)
O8A O -0.4997(15) -0.4188(14) -0.0175(4)
Fe2C** Fe -0.5182(4) -0.5149(4) 0.0023(1)
#END
