
#######################################################################
#
#                 Cambridge Crystallographic Data Centre
#                                CCDC
#
#######################################################################
#
# If this CIF has been generated from an entry in the Cambridge
# Structural Database, then it will include bibliographic, chemical,
# crystal, experimental, refinement or atomic coordinate data resulting
# from the CCDC's data processing and validation procedures.
#
#######################################################################

data_CSD_CIF_GOKZOY
_audit_creation_date 2019-06-18
_audit_creation_method CSD-ConQuest-V1
_database_code_CSD GOKZOY
_database_code_depnum_ccdc_archive 'CCDC 1905531'
_chemical_formula_sum 'C36 H72 N2 O26 U3'
_chemical_formula_moiety
;
(C20 H28 O24 U3 2-)n,2(C8 H20 N1 1+),2(H2 O1)
;
_journal_coden_Cambridge 580
_journal_volume 170
_journal_year 2019
_journal_page_first 490
_journal_name_full 'Polyhedron '
loop_
_publ_author_name
"L.B.Serezhkina"
"S.A.Novikov"
"M.S.Grigoriev"
"V.N.Serezhkin"
_chemical_name_systematic
;
catena-[bis(tetraethylammonium) 
tetrakis(\m-pentanedioato)-diaqua-hexaoxo-tri-uranium(vi) dihydrate]
;
_cell_volume   1317.324
_exptl_crystal_colour 'yellow'
_exptl_crystal_density_diffrn 2.096
_diffrn_ambient_temperature 293
#These two values have been output from a single CSD field.
_refine_ls_R_factor_gt 0.0517
_refine_ls_wR_factor_gt 0.0517
_symmetry_cell_setting triclinic
_symmetry_space_group_name_H-M 'P -1'
_symmetry_Int_Tables_number 2
loop_
_symmetry_equiv_pos_site_id
_symmetry_equiv_pos_as_xyz
1 x,y,z
2 -x,-y,-z
_cell_length_a 8.4597(2)
_cell_length_b 8.5521(2)
_cell_length_c 18.7028(3)
_cell_angle_alpha 80.543(1)
_cell_angle_beta 82.378(1)
_cell_angle_gamma 83.586(1)
_cell_formula_units_Z 1
loop_
_atom_type_symbol
_atom_type_radius_bond
C 0.68
H 0.23
N 0.68
O 0.68
U 1.96
loop_
_atom_site_label
_atom_site_type_symbol
_atom_site_fract_x
_atom_site_fract_y
_atom_site_fract_z
U1 U 0.20966(4) 0.72922(4) 0.14663(2)
U2 U 0.00000 0.00000 0.50000
O1 O 0.0077(8) 0.6954(9) 0.1544(4)
O2 O 0.4136(7) 0.7602(7) 0.1405(3)
O3 O 0.1667(6) -0.1401(6) 0.5121(3)
O4 O 0.2903(10) 0.4536(8) 0.1231(4)
O5 O 0.2531(9) 0.6360(11) 0.0293(4)
O6 O 0.1725(9) -0.0518(9) 0.0473(3)
O7 O 0.1287(8) 0.0147(7) 0.1560(3)
O8 O 0.244(1) 0.5363(7) 0.2589(3)
O9 O 0.1650(9) 0.7782(7) 0.2779(3)
O10 O 0.1687(7) 0.2101(6) 0.4363(3)
O11 O 0.1303(7) 0.1924(6) 0.5538(3)
O12 O 0.0634(8) 0.0070(7) 0.3680(3)
H1 H 0.097(11) 0.085(6) 0.338(4)
H2 H 0.079(11) -0.072(6) 0.345(4)
C1 C 0.2837(14) 0.4934(17) 0.0545(7)
C2 C 0.3233(13) 0.3568(18) 0.0090(6)
H3 H 0.38840 0.39320 -0.03610
H4 H 0.38440 0.26920 0.03590
C3 C 0.1775(14) 0.3022(14) -0.0076(5)
H5 H 0.20650 0.23070 -0.04340
H6 H 0.11270 0.39340 -0.02980
C4 C 0.0799(13) 0.2205(12) 0.0546(4)
H7 H -0.02600 0.22030 0.04020
H8 H 0.06850 0.28530 0.09330
C5 C 0.1306(11) 0.0536(12) 0.0873(4)
C6 C 0.1966(14) 0.6341(11) 0.3026(5)
C7 C 0.1789(16) 0.5745(11) 0.3834(5)
H9 H 0.14940 0.66550 0.40880
H10 H 0.09070 0.50770 0.39450
C8 C 0.3194(13) 0.4844(12) 0.4127(4)
H11 H 0.40020 0.55690 0.41180
H12 H 0.36310 0.40700 0.38110
C9 C 0.2872(14) 0.4006(12) 0.4875(4)
H13 H 0.23040 0.47500 0.51800
H14 H 0.38840 0.36320 0.50630
C10 C 0.1897(10) 0.2603(9) 0.4929(4)
O13 O 0.1265(10) 0.2329(8) 0.2571(3)
H15 H 0.183(11) 0.310(9) 0.253(5)
H16 H 0.144(13) 0.197(11) 0.217(3)
N1 N 0.6328(7) 0.0669(9) 0.2549(4)
C11 C 0.5008(11) 0.0839(15) 0.3157(5)
H17 H 0.43210 -0.00120 0.31910
H18 H 0.43680 0.18390 0.30370
C12 C 0.5582(16) 0.080(2) 0.3905(6)
H19 H 0.46730 0.09100 0.42640
H20 H 0.61930 -0.02030 0.40360
H21 H 0.62400 0.16510 0.38820
C13 C 0.7403(11) -0.0848(12) 0.2718(5)
H22 H 0.82450 -0.09070 0.23140
H23 H 0.79090 -0.07850 0.31470
C14 C 0.6589(17) -0.2353(14) 0.2849(7)
H24 H 0.73610 -0.32480 0.29510
H25 H 0.57730 -0.23280 0.32570
H26 H 0.61100 -0.24500 0.24230
C15 C 0.5518(11) 0.0693(11) 0.1873(4)
H27 H 0.48300 -0.01700 0.19630
H28 H 0.48380 0.16820 0.17950
C16 C 0.6616(17) 0.0541(15) 0.1185(5)
H29 H 0.59940 0.05680 0.07890
H30 H 0.72830 0.14060 0.10790
H31 H 0.72750 -0.04500 0.12470
C17 C 0.7397(13) 0.2008(13) 0.2425(8)
H32 H 0.82660 0.17930 0.20500
H33 H 0.78660 0.20090 0.28710
C18 C 0.6588(18) 0.3657(14) 0.2199(9)
H34 H 0.73600 0.44260 0.21340
H35 H 0.61470 0.36870 0.17500
H36 H 0.57450 0.39030 0.25720
U1A U -0.20966(4) -0.72922(4) 0.85337(2)
O1A O -0.0077(8) -0.6954(9) 0.8456(4)
O2A O -0.4136(7) -0.7602(7) 0.8595(3)
O3A O -0.1667(6) 0.1401(6) 0.4879(3)
O4A O -0.2903(10) -0.4536(8) 0.8769(4)
O5A O -0.2531(9) -0.6360(11) 0.9707(4)
O6A O -0.1725(9) 0.0518(9) 0.9527(3)
O7A O -0.1287(8) -0.0147(7) 0.8440(3)
O8A O -0.244(1) -0.5363(7) 0.7411(3)
O9A O -0.1650(9) -0.7782(7) 0.7221(3)
O10A O -0.1687(7) -0.2101(6) 0.5637(3)
O11A O -0.1303(7) -0.1924(6) 0.4462(3)
O12A O -0.0634(8) -0.0070(7) 0.6320(3)
H1A H -0.097(11) -0.085(6) 0.662(4)
H2A H -0.079(11) 0.072(6) 0.655(4)
C1A C -0.2837(14) -0.4934(17) 0.9455(7)
C2A C -0.3233(13) -0.3568(18) 0.9910(6)
H3A H -0.38840 -0.39320 1.03610
H4A H -0.38440 -0.26920 0.96410
C3A C -0.1775(14) -0.3022(14) 1.0076(5)
H5A H -0.20650 -0.23070 1.04340
H6A H -0.11270 -0.39340 1.02980
C4A C -0.0799(13) -0.2205(12) 0.9454(4)
H7A H 0.02600 -0.22030 0.95980
H8A H -0.06850 -0.28530 0.90670
C5A C -0.1306(11) -0.0536(12) 0.9127(4)
C6A C -0.1966(14) -0.6341(11) 0.6974(5)
C7A C -0.1789(16) -0.5745(11) 0.6166(5)
H9A H -0.14940 -0.66550 0.59120
H10A H -0.09070 -0.50770 0.60550
C8A C -0.3194(13) -0.4844(12) 0.5873(4)
H11A H -0.40020 -0.55690 0.58820
H12A H -0.36310 -0.40700 0.61890
C9A C -0.2872(14) -0.4006(12) 0.5125(4)
H13A H -0.23040 -0.47500 0.48200
H14A H -0.38840 -0.36320 0.49370
C10A C -0.1897(10) -0.2603(9) 0.5071(4)
U1* U 0.20966(4) -0.27078(4) 0.14663(2)
U1A* U -0.20966(4) 0.27078(4) 0.85337(2)
O6* O 0.1725(9) 0.9482(9) 0.0473(3)
O6A* O -0.1725(9) -0.9482(9) 0.9527(3)
O7* O 0.1287(8) 1.0147(7) 0.1560(3)
O7A* O -0.1287(8) -1.0147(7) 0.8440(3)
#END
