
#######################################################################
#
#                 Cambridge Crystallographic Data Centre
#                                CCDC
#
#######################################################################
#
# If this CIF has been generated from an entry in the Cambridge
# Structural Database, then it will include bibliographic, chemical,
# crystal, experimental, refinement or atomic coordinate data resulting
# from the CCDC's data processing and validation procedures.
#
#######################################################################

data_CSD_CIF_GOKZIS
_audit_creation_date 2019-06-18
_audit_creation_method CSD-ConQuest-V1
_database_code_CSD GOKZIS
_database_code_depnum_ccdc_archive 'CCDC 1905530'
_chemical_formula_sum 'C35 H52 N2 O17 U2'
_chemical_formula_moiety
;
(C15 H18 O16 U2 2-)n,2(C10 H16 N1 1+),H2 O1
;
_journal_coden_Cambridge 580
_journal_volume 170
_journal_year 2019
_journal_page_first 490
_journal_name_full 'Polyhedron '
loop_
_publ_author_name
"L.B.Serezhkina"
"S.A.Novikov"
"M.S.Grigoriev"
"V.N.Serezhkin"
_chemical_name_systematic
;
catena-[bis(N,N,N-trimethyl(phenyl)methanaminium) 
tris(\m-pentanedioato)-tetraoxo-di-uranium(vi) monohydrate]
;
_cell_volume   4039.559
_exptl_crystal_density_diffrn 2.053
_exptl_crystal_description 'block'
_diffrn_ambient_temperature 100
#These two values have been output from a single CSD field.
_refine_ls_R_factor_gt 0.0261
_refine_ls_wR_factor_gt 0.0261
_symmetry_cell_setting monoclinic
_symmetry_space_group_name_H-M 'P 21/n'
_symmetry_Int_Tables_number 14
loop_
_symmetry_equiv_pos_site_id
_symmetry_equiv_pos_as_xyz
1 x,y,z
2 1/2-x,1/2+y,1/2-z
3 -x,-y,-z
4 -1/2+x,-1/2-y,-1/2+z
_cell_length_a 14.9514(6)
_cell_length_b 10.0218(4)
_cell_length_c 27.1965(10)
_cell_angle_alpha 90
_cell_angle_beta 97.575(1)
_cell_angle_gamma 90
_cell_formula_units_Z 4
loop_
_atom_type_symbol
_atom_type_radius_bond
C 0.68
H 0.23
N 0.68
O 0.68
U 1.96
loop_
_atom_site_label
_atom_site_type_symbol
_atom_site_fract_x
_atom_site_fract_y
_atom_site_fract_z
U1 U 0.69097(2) 0.10506(2) 0.32815(2)
U2 U 0.83944(2) 0.02779(2) 0.65179(2)
O1 O 0.74905(16) 0.1036(2) 0.27567(8)
O2 O 0.63290(17) 0.1091(2) 0.38159(8)
O3 O 0.95785(15) 0.0205(2) 0.65345(8)
O4 O 0.72069(15) 0.0354(2) 0.65014(8)
O5 O 0.82124(16) -0.0041(2) 0.37699(8)
O6 O 0.82209(16) 0.2143(2) 0.37573(9)
O7 O 0.83472(18) 0.1397(2) 0.57143(8)
O8 O 0.81723(17) -0.0770(2) 0.56861(8)
O9 O 0.68174(15) 0.3527(2) 0.32629(8)
O10 O 0.57325(15) 0.2417(2) 0.28240(8)
O11 O 0.68039(15) 0.8607(2) 0.32601(8)
O12 O 0.57320(16) 0.9683(2) 0.27999(9)
O13 O 0.84361(17) 0.2721(2) 0.65767(8)
O14 O 0.86066(15) 0.1624(2) 0.72765(8)
O15 O 0.83584(16) 0.7820(2) 0.65600(8)
O16 O 0.84770(15) 0.8871(2) 0.72689(8)
C1 C 0.8583(2) 0.1053(3) 0.39123(11)
C2 C 0.9408(2) 0.1060(3) 0.42921(11)
H1 H 0.98260 0.17700 0.42120
H2 H 0.97240 0.01920 0.42870
C3 C 0.9136(2) 0.1306(3) 0.48104(11)
H3 H 0.96730 0.12000 0.50620
H4 H 0.89170 0.22340 0.48300
C4 C 0.8399(2) 0.0344(3) 0.49274(11)
H5 H 0.78190 0.06070 0.47340
H6 H 0.85470 -0.05670 0.48220
C5 C 0.8293(2) 0.0322(3) 0.54685(11)
C6 C 0.6113(2) 0.3526(3) 0.29560(11)
C7 C 0.5715(2) 0.4794(3) 0.27297(12)
H7 H 0.50530 0.47680 0.27290
H8 H 0.58330 0.48390 0.23800
C8 C 0.6084(2) 0.6053(3) 0.29970(11)
H9 H 0.58960 0.60780 0.33330
H10 H 0.67510 0.60370 0.30350
C9 C 0.5743(2) 0.7299(3) 0.27129(14)
H11 H 0.59040 0.72370 0.23720
H12 H 0.50770 0.73190 0.26870
C10 C 0.6108(2) 0.8590(3) 0.29399(12)
C11 C 0.8568(2) 0.2721(3) 0.70447(11)
C12 C 0.8659(2) 0.4020(3) 0.73257(11)
H13 H 0.92490 0.40300 0.75390
H14 H 0.81820 0.40630 0.75460
C13 C 0.8591(2) 0.5254(3) 0.69986(11)
H15 H 0.91610 0.53750 0.68560
H16 H 0.80970 0.51380 0.67220
C14 C 0.8410(2) 0.6478(3) 0.72990(11)
H17 H 0.78120 0.63750 0.74140
H18 H 0.88680 0.65150 0.75970
C15 C 0.8424(2) 0.7775(3) 0.70284(11)
O17 O 0.8638(2) 0.8861(3) 0.83136(9)
H19 H 0.861(3) 0.879(4) 0.8000(7)
H20 H 0.823(2) 0.836(4) 0.8391(14)
N1 N 0.10631(18) 0.3641(3) 0.62726(10)
C16 C 0.1143(2) 0.2791(4) 0.67303(12)
H21 H 0.17260 0.29580 0.69310
H22 H 0.06550 0.30120 0.69240
H23 H 0.11010 0.18480 0.66350
C17 C 0.1128(3) 0.5076(3) 0.64199(15)
H24 H 0.17150 0.52430 0.66170
H25 H 0.10670 0.56350 0.61220
H26 H 0.06450 0.52910 0.66180
C18 C 0.0177(2) 0.3375(4) 0.59740(13)
H27 H 0.01400 0.24310 0.58790
H28 H -0.03080 0.35870 0.61710
H29 H 0.01140 0.39300 0.56750
C19 C 0.1835(2) 0.3260(3) 0.59860(11)
H30 H 0.24120 0.33870 0.62050
H31 H 0.17810 0.23000 0.59010
C20 C 0.1867(2) 0.4048(3) 0.55143(12)
C21 C 0.1435(2) 0.3579(3) 0.50625(12)
H32 H 0.11090 0.27640 0.50530
C22 C 0.1473(3) 0.4283(4) 0.46264(13)
H33 H 0.11790 0.39490 0.43200
C23 C 0.1944(3) 0.5481(4) 0.46413(14)
H34 H 0.19620 0.59830 0.43470
C24 C 0.2388(2) 0.5936(3) 0.50895(14)
H35 H 0.27210 0.67450 0.50980
C25 C 0.2355(2) 0.5232(3) 0.55239(13)
H36 H 0.26640 0.55560 0.58280
N2 N 0.42005(18) 0.2974(3) 0.40048(10)
C26 C 0.3999(2) 0.2693(4) 0.34587(12)
H37 H 0.34670 0.21160 0.33970
H38 H 0.38800 0.35350 0.32780
H39 H 0.45170 0.22460 0.33450
C27 C 0.5010(2) 0.3852(3) 0.40889(13)
H40 H 0.55280 0.33900 0.39810
H41 H 0.48940 0.46780 0.38980
H42 H 0.51410 0.40660 0.44430
C28 C 0.3412(2) 0.3680(4) 0.41691(12)
H43 H 0.28780 0.31030 0.41140
H44 H 0.35430 0.38940 0.45230
H45 H 0.32950 0.45060 0.39780
C29 C 0.4358(2) 0.1642(3) 0.42670(12)
H46 H 0.38070 0.10930 0.41930
H47 H 0.48530 0.11710 0.41300
C30 C 0.4594(2) 0.1746(3) 0.48194(12)
C31 C 0.3928(3) 0.1758(4) 0.51320(13)
H48 H 0.33110 0.17220 0.49940
C32 C 0.4154(3) 0.1822(4) 0.56424(13)
H49 H 0.36930 0.18240 0.58520
C33 C 0.5050(3) 0.1883(4) 0.58468(14)
H50 H 0.52040 0.19420 0.61960
C34 C 0.5727(3) 0.1859(4) 0.55415(14)
H51 H 0.63440 0.18960 0.56810
C35 C 0.5494(2) 0.1780(3) 0.50308(13)
H52 H 0.59560 0.17490 0.48220
U1* U 0.69097(2) 1.10506(2) 0.32815(2)
U2* U 0.83944(2) 1.02779(2) 0.65179(2)
O11* O 0.68039(15) -0.1393(2) 0.32601(8)
O12* O 0.57320(16) -0.0317(2) 0.27999(9)
O15* O 0.83584(16) -0.2180(2) 0.65600(8)
O16* O 0.84770(15) -0.1129(2) 0.72689(8)
#END
