
#######################################################################
#
#                 Cambridge Crystallographic Data Centre
#                                CCDC
#
#######################################################################
#
# If this CIF has been generated from an entry in the Cambridge
# Structural Database, then it will include bibliographic, chemical,
# crystal, experimental, refinement or atomic coordinate data resulting
# from the CCDC's data processing and validation procedures.
#
#######################################################################

data_CSD_CIF_GOPSUC
_audit_creation_date 2019-06-19
_audit_creation_method CSD-ConQuest-V1
_database_code_CSD GOPSUC
_database_code_depnum_ccdc_archive 'CCDC 1558408'
_chemical_formula_sum 'C26 H28 Gd1 N3 O17 Zn1'
_chemical_formula_moiety
;
C2 H8 N1 1+,n(C21 H13 Gd1 N1 O16 Zn1 1-),C3 H7 N1 O1
;
_journal_coden_Cambridge 1078
_journal_year 2019
_journal_name_full 'CSD Communication(Private Communication) '
loop_
_publ_author_name
"Jiyong Zou"
_chemical_name_systematic
;
catena-[dimethylammonium 
tris(\m-furan-2,5-dicarboxylato)-(N,N-dimethylformamide)-gadolinium(iii)-zinc(
ii) N,N-dimethylformamide solvate]
;
_cell_volume   3206.952
_exptl_crystal_colour 'yellow'
_exptl_crystal_density_diffrn 1.817
_exptl_crystal_description 'block'
_diffrn_ambient_temperature 100
_refine_special_details
;
C24,O14 and C24A,O14A disordered over two sites with occupancies 0.5:0.5.

;
#These two values have been output from a single CSD field.
_refine_ls_R_factor_gt 0.0253
_refine_ls_wR_factor_gt 0.0253
_symmetry_cell_setting monoclinic
_symmetry_space_group_name_H-M 'P 21/c'
_symmetry_Int_Tables_number 14
loop_
_symmetry_equiv_pos_site_id
_symmetry_equiv_pos_as_xyz
1 x,y,z
2 -x,1/2+y,1/2-z
3 -x,-y,-z
4 x,-1/2-y,-1/2+z
_cell_length_a 18.0337(8)
_cell_length_b 12.9920(5)
_cell_length_c 14.9037(6)
_cell_angle_alpha 90
_cell_angle_beta 113.305(1)
_cell_angle_gamma 90
_cell_formula_units_Z 4
loop_
_atom_type_symbol
_atom_type_radius_bond
C 0.68
H 0.23
Gd 1.96
N 0.68
O 0.68
Zn 1.22
loop_
_atom_site_label
_atom_site_type_symbol
_atom_site_fract_x
_atom_site_fract_y
_atom_site_fract_z
Gd1 Gd 0.12182(2) 0.02476(2) 0.04789(2)
Zn1 Zn 0.35806(2) -0.09024(3) 0.14150(3)
O1 O 0.31509(15) -0.38708(19) 0.49931(17)
O2 O 0.20519(15) -0.48564(19) 0.46314(17)
O3 O 0.31297(14) -0.18184(19) 0.21227(17)
O4 O 0.18693(14) -0.15035(18) 0.10427(17)
O5 O -0.08362(14) 0.46138(17) 0.32875(16)
O6 O 0.04652(14) 0.41019(19) 0.38456(17)
O7 O 0.09008(15) 0.17534(18) 0.12873(18)
O8 O -0.02369(14) 0.10301(17) 0.03147(16)
O9 O 0.24296(14) 0.05328(18) 0.18741(17)
O10 O 0.36808(15) 0.05092(18) 0.18960(18)
O11 O 0.53483(15) 0.3460(2) 0.31336(19)
O12 O 0.47713(18) 0.4863(2) 0.3440(2)
O13 O 0.18471(16) 0.18410(19) 0.02426(18)
O14 O 0.25520(14) -0.30864(18) 0.31431(17)
O15 O 0.00911(14) 0.29355(18) 0.21552(16)
O16 O 0.40050(14) 0.23773(18) 0.26338(18)
C1 C 0.2477(2) -0.4223(3) 0.4413(2)
C2 C 0.2145(2) -0.3856(3) 0.3387(3)
C3 C 0.1444(2) -0.4073(3) 0.2626(3)
H1 H 0.10610 -0.45830 0.26070
C4 C 0.1393(2) -0.3386(3) 0.1859(3)
H2 H 0.09670 -0.33430 0.12300
C5 C 0.2074(2) -0.2804(3) 0.2207(2)
C6 C 0.2372(2) -0.1965(3) 0.1756(2)
C7 C -0.0252(2) 0.4131(3) 0.3227(2)
C8 C -0.0475(2) 0.3543(3) 0.2301(2)
C9 C -0.1204(2) 0.3440(3) 0.1544(2)
H3 H -0.16900 0.37830 0.14690
C10 C -0.1099(2) 0.2724(3) 0.0888(3)
H4 H -0.15010 0.24940 0.02870
C11 C -0.0315(2) 0.2431(3) 0.1285(2)
C12 C 0.0149(2) 0.1698(3) 0.0952(2)
C13 C 0.3096(2) 0.0938(3) 0.2029(3)
C14 C 0.3240(2) 0.2006(3) 0.2388(3)
C15 C 0.2749(2) 0.2756(3) 0.2469(3)
H5 H 0.21910 0.26930 0.23400
C16 C 0.3232(2) 0.3655(3) 0.2784(3)
H6 H 0.30590 0.43120 0.29050
C17 C 0.3992(2) 0.3389(3) 0.2879(3)
C18 C 0.4762(2) 0.3962(3) 0.3177(3)
C19 C 0.1731(3) 0.2336(3) -0.0499(3)
H7 H 0.17110 0.19640 -0.10570
C20 C 0.1553(4) 0.3932(4) 0.0194(4)
H8 H 0.14450 0.34700 0.06480
H9 H 0.11060 0.44200 -0.00840
H10 H 0.20550 0.43110 0.05450
C21 C 0.1517(4) 0.3876(4) -0.1475(4)
H11 H 0.19610 0.43640 -0.13500
H12 H 0.10040 0.42510 -0.17000
H13 H 0.15070 0.33840 -0.19780
N1 N 0.1633(3) 0.3331(3) -0.0587(2)
O17 O 0.4629(6) 0.4114(6) 0.0859(6)
C22 C 0.4406(7) 0.5013(8) 0.0981(8)
H14 H 0.46680 0.53670 0.15830
C23 C 0.3547(4) 0.6443(4) 0.0441(4)
H15 H 0.40130 0.69080 0.06630
H16 H 0.33370 0.63780 0.09520
H17 H 0.31250 0.67220 -0.01530
C24 C 0.3747(4) 0.5206(5) -0.0712(4)
H18 H 0.32710 0.55350 -0.12050
H19 H 0.37050 0.44580 -0.08040
H20 H 0.42340 0.54540 -0.07820
N2 N 0.3789(3) 0.5452(3) 0.0236(3)
O18? O 0.3960(4) 0.3754(5) 0.0698(5)
C25? C 0.3827(6) 0.4658(7) 0.0823(7)
H21? H 0.37420 0.48100 0.13990
C26 C 0.3973(3) 0.1648(5) 0.0192(4)
H22 H 0.38760 0.22360 -0.02520
H23 H 0.34970 0.15340 0.03420
H24 H 0.40770 0.10310 -0.01200
C27 C 0.5413(3) 0.2021(4) 0.0919(4)
H25 H 0.53370 0.26200 0.04920
H26 H 0.55120 0.14090 0.05990
H27 H 0.58760 0.21400 0.15370
N3 N 0.4686(2) 0.1863(3) 0.1113(2)
H28 H 0.45890 0.24360 0.14020
H29 H 0.47660 0.13260 0.15330
Gd1A Gd -0.12182(2) 0.52476(2) 0.45211(2)
Gd1B Gd -0.12182(2) -0.02476(2) -0.04789(2)
Gd1C Gd 0.12182(2) -0.52476(2) 0.54789(2)
Gd1C* Gd 0.12182(2) 0.47524(2) 0.54789(2)
Zn1A Zn 0.64194(2) 0.40976(3) 0.35850(3)
Zn1C Zn 0.35806(2) -0.40976(3) 0.64150(3)
O1C O 0.31509(15) -0.11292(19) -0.00069(17)
O2C O 0.20519(15) -0.01436(19) -0.03686(17)
O5A O 0.08362(14) -0.03862(17) 0.17125(16)
O6C O 0.04652(14) 0.08981(19) -0.11544(17)
O8B O 0.02369(14) -0.10301(17) -0.03147(16)
O11A O 0.46517(15) -0.1540(2) 0.18664(19)
#END
