
#######################################################################
#
#                 Cambridge Crystallographic Data Centre
#                                CCDC
#
#######################################################################
#
# If this CIF has been generated from an entry in the Cambridge
# Structural Database, then it will include bibliographic, chemical,
# crystal, experimental, refinement or atomic coordinate data resulting
# from the CCDC's data processing and validation procedures.
#
#######################################################################

data_CSD_CIF_GOPTEM
_audit_creation_date 2014-07-11
_audit_creation_method CSD-ConQuest-V1
_database_code_CSD GOPTEM
_database_code_depnum_ccdc_archive 'CCDC 995908'
_chemical_formula_sum 'C80 H80 N12 Ni3 O30'
_chemical_formula_moiety
;
(C56 H36 N4 Ni1 O18 2-)n,n(C24 H36 N8 Ni2 O8 2+),4n(H2 O1)
;
_journal_coden_Cambridge 1350
_journal_volume 16
_journal_year 2014
_journal_page_first 7649
_journal_name_full 'CrystEngComm '
loop_
_publ_author_name
"Liming Fan"
"Yan Gao"
"Guangzeng Liu"
"Weiliu Fan"
"Weikuo Song"
"Liming Sun"
"Xian Zhao"
"Xiutang Zhang"
_chemical_name_systematic
;
catena-((\m~2~-1,4-bis(Imidazol-1-yl)benzene)-diaqua-bis(hydrogen 
4,5-bis(4'-carboxylatophenyl)phthalato)-nickel 
bis(\m~2~-1,4-bis(imidazol-1-yl)benzene)-octa-aqua-di-nickel tetrahydrate)
;
_cell_volume   2051.738
_exptl_crystal_colour 'green'
_exptl_crystal_density_diffrn 1.51
_exptl_crystal_description 'block'
_diffrn_ambient_temperature 296
#These two values have been output from a single CSD field.
_refine_ls_R_factor_gt 0.0508
_refine_ls_wR_factor_gt 0.0508
_symmetry_cell_setting triclinic
_symmetry_space_group_name_H-M 'P -1'
_symmetry_Int_Tables_number 2
loop_
_symmetry_equiv_pos_site_id
_symmetry_equiv_pos_as_xyz
1 x,y,z
2 -x,-y,-z
_cell_length_a 7.7686(11)
_cell_length_b 13.6512(7)
_cell_length_c 19.8766(11)
_cell_angle_alpha 99.250(3)
_cell_angle_beta 94.563(3)
_cell_angle_gamma 97.512(3)
_cell_formula_units_Z 1
loop_
_atom_type_symbol
_atom_type_radius_bond
C 0.68
H 0.23
N 0.68
Ni 1.24
O 0.68
loop_
_atom_site_label
_atom_site_type_symbol
_atom_site_fract_x
_atom_site_fract_y
_atom_site_fract_z
Ni1 Ni 0.00000 0.50000 0.50000
N1 N 0.0379(7) 0.6530(4) 0.5351(3)
O1 O 0.0142(6) 0.5355(3) 0.4002(2)
O2 O 0.2668(4) 0.5045(2) 0.52052(11)
C1 C 0.1137(11) 0.7020(5) 0.5981(4)
C2 C -0.0002(9) 0.7240(5) 0.5017(4)
C3 C 0.1503(8) 0.5553(5) 0.3727(3)
H1 H 0.28040 0.45330 0.53560
H2 H 0.27890 0.50160 0.47960
H3 H 0.15490 0.67070 0.63310
C4 C 0.1203(11) 0.8014(5) 0.6022(4)
H4 H -0.05350 0.71260 0.45700
N2 N 0.0476(8) 0.8160(4) 0.5404(3)
C5 C 0.1397(8) 0.6083(5) 0.3116(3)
O3 O 0.2989(6) 0.5368(4) 0.3922(2)
H5 H 0.16530 0.85070 0.63970
C6 C 0.0238(9) 0.9096(5) 0.5198(4)
C7 C -0.0030(8) 0.5868(5) 0.2610(3)
C8 C 0.2764(8) 0.6814(5) 0.3051(3)
C9 C -0.0140(9) 0.9876(5) 0.5674(4)
C10 C 0.0370(9) 0.9217(5) 0.4523(4)
C11 C -0.1566(8) 0.5069(5) 0.2603(3)
C12 C -0.0002(9) 0.6390(5) 0.2067(3)
C13 C 0.2799(8) 0.7342(5) 0.2503(3)
H6 H 0.37050 0.69600 0.33890
H7 H -0.02400 0.97910 0.61250
H8 H 0.06110 0.86900 0.42030
O4 O -0.1325(6) 0.4178(3) 0.2513(3)
O5 O -0.3020(6) 0.5359(4) 0.2656(3)
H9 H -0.09570 0.62490 0.17360
C14 C 0.1364(9) 0.7110(5) 0.1988(3)
C15 C 0.4305(8) 0.8124(5) 0.2495(3)
C16 C 0.1272(8) 0.7575(4) 0.1330(3)
C17 C 0.4106(9) 0.9045(5) 0.2307(3)
C18 C 0.6005(9) 0.7945(5) 0.2668(4)
C19 C 0.2573(11) 0.7559(6) 0.0938(4)
C20 C -0.0185(10) 0.7969(6) 0.1167(4)
H10 H 0.29900 0.91920 0.22030
C21 C 0.5541(9) 0.9747(5) 0.2273(3)
C22 C 0.7437(9) 0.8662(5) 0.2657(3)
H11 H 0.61770 0.73340 0.27920
H12 H 0.35620 0.72890 0.10670
C23 C 0.2454(11) 0.7949(6) 0.0333(4)
C24 C -0.0351(10) 0.8356(6) 0.0566(4)
H13 H -0.10680 0.79800 0.14570
H14 H 0.53770 1.03470 0.21290
C25 C 0.7211(8) 0.9569(5) 0.2451(3)
H15 H 0.85520 0.85370 0.27880
H16 H 0.33720 0.79500 0.00590
C26 C 0.0960(11) 0.8336(6) 0.0139(4)
H17 H -0.13480 0.86280 0.04510
C27 C 0.8772(8) 1.0330(5) 0.2403(3)
C28 C 0.0707(13) 0.8688(6) -0.0527(4)
O6 O 0.8458(6) 1.1136(3) 0.2194(2)
O7 O 1.0244(6) 1.0156(4) 0.2581(3)
O8 O -0.0612(8) 0.9013(4) -0.0709(3)
O9 O 0.2014(9) 0.8595(6) -0.0897(3)
H18 H 0.17400 0.87030 -0.12830
C29 C 0.4210(18) 0.2979(7) 0.3988(5)
H19 H 0.42290 0.36680 0.40240
C30 C 0.4524(18) 0.2514(7) 0.4517(5)
H20 H 0.47850 0.28110 0.49760
C31 C 0.3999(10) 0.1446(5) 0.3578(4)
H21 H 0.38460 0.08410 0.32720
C32 C 0.4696(9) 0.0744(5) 0.4634(3)
C33 C 0.5213(10) -0.0120(5) 0.4311(4)
H22 H 0.53730 -0.01950 0.38470
C34 C 0.4503(10) 0.0882(5) 0.5324(4)
H23 H 0.41880 0.14770 0.55430
C35 C 0.4128(11) 0.2957(6) 0.0914(4)
H24 H 0.50620 0.25950 0.08870
C36 C 0.3498(11) 0.3404(6) 0.0409(4)
H25 H 0.38980 0.34070 -0.00200
C37 C 0.2011(10) 0.3657(5) 0.1294(4)
H26 H 0.11890 0.38760 0.15760
C38 C 0.1035(10) 0.4432(5) 0.0317(4)
C39 C 0.1668(11) 0.4949(6) -0.0168(4)
H27 H 0.27990 0.49150 -0.02820
C40 C -0.0627(11) 0.4476(6) 0.0490(4)
H28 H -0.10540 0.41240 0.08200
N3 N 0.3860(7) 0.2316(4) 0.3395(3)
N4 N 0.4387(8) 0.1530(4) 0.4257(3)
N5 N 0.3211(8) 0.3106(4) 0.1468(3)
N6 N 0.2141(8) 0.3857(4) 0.0658(3)
Ni2 Ni 0.34967(10) 0.26876(6) 0.24239(4)
O10 O 0.6093(3) 0.2580(2) 0.22742(12)
H29 H 0.65090 0.20520 0.22170
H30 H 0.68210 0.30870 0.23360
O11 O 0.4127(3) 0.41912(14) 0.28037(11)
H31 H 0.50980 0.44610 0.27440
H32 H 0.36570 0.45080 0.31050
O12 O 0.2696(4) 0.11979(16) 0.19825(12)
H33 H 0.21220 0.08300 0.21970
H34 H 0.23570 0.11230 0.15740
O13 O 0.0922(2) 0.28063(19) 0.25641(11)
H35 H 0.02020 0.22960 0.24910
H36 H 0.05010 0.33300 0.25900
O14 O 0.3590(5) 0.3668(3) 0.60056(10)
H37 H 0.46590 0.37910 0.60590
H38 H 0.31060 0.38560 0.63460
O15 O 0.5313(7) 0.5777(2) 0.13315(16)
H39 H 0.53680 0.57170 0.17490
H40 H 0.58060 0.63610 0.12500
O1A O -0.0142(6) 0.4645(3) 0.5998(2)
O2A O -0.2668(4) 0.4955(2) 0.47948(11)
N1A N -0.0379(7) 0.3470(4) 0.4649(3)
C3A C -0.1503(8) 0.4447(5) 0.6273(3)
H1A H -0.28040 0.54670 0.46440
H2A H -0.27890 0.49840 0.52040
C5A C -0.1397(8) 0.3917(5) 0.6884(3)
O3A O -0.2989(6) 0.4632(4) 0.6078(2)
C7A C 0.0030(8) 0.4132(5) 0.7390(3)
C8A C -0.2764(8) 0.3186(5) 0.6949(3)
C11A C 0.1566(8) 0.4931(5) 0.7397(3)
C12A C 0.0002(9) 0.3610(5) 0.7933(3)
C13A C -0.2799(8) 0.2658(5) 0.7497(3)
H6A H -0.37050 0.30400 0.66110
C10A C -0.0370(9) 1.0783(5) 0.5477(4)
C9A C 0.0140(9) 1.0124(5) 0.4326(4)
O4A O 0.1325(6) 0.5822(3) 0.7487(3)
O5A O 0.3020(6) 0.4641(4) 0.7344(3)
H9A H 0.09570 0.37510 0.82640
C14A C -0.1364(9) 0.2890(5) 0.8012(3)
C15A C -0.4305(8) 0.1876(5) 0.7505(3)
C6A C -0.0238(9) 1.0904(5) 0.4802(4)
H8A H -0.06110 1.13100 0.57970
H7A H 0.02400 1.02090 0.38750
C16A C -0.1272(8) 0.2425(4) 0.8670(3)
C17A C -0.4106(9) 0.0955(5) 0.7693(3)
C18A C -0.6005(9) 0.2055(5) 0.7332(4)
N2A N -0.0476(8) 1.1840(4) 0.4596(3)
C19A C -0.2573(11) 0.2441(6) 0.9062(4)
C20A C 0.0185(10) 0.2031(6) 0.8833(4)
H10A H -0.29900 0.08080 0.77970
C21A C -0.5541(9) 0.0253(5) 0.7727(3)
C22A C -0.7437(9) 0.1338(5) 0.7343(3)
H11A H -0.61770 0.26660 0.72080
C4A C -0.1203(11) 1.1986(5) 0.3978(4)
C2A C 0.0002(9) 1.2760(5) 0.4983(4)
H12A H -0.35620 0.27110 0.89330
C23A C -0.2454(11) 0.2051(6) 0.9667(4)
C24A C 0.0351(10) 0.1644(6) 0.9434(4)
H13A H 0.10680 0.20200 0.85430
H14A H -0.53770 -0.03470 0.78710
C25A C -0.7211(8) 0.0431(5) 0.7549(3)
H15A H -0.85520 0.14630 0.72120
C1A C -0.1137(11) 1.2980(5) 0.4019(4)
H5A H -0.16530 1.14930 0.36030
H4A H 0.05350 1.28740 0.54300
N1A* N -0.0379(7) 1.3470(4) 0.4649(3)
H16A H -0.33720 0.20500 0.99410
C26A C -0.0960(11) 0.1664(6) 0.9861(4)
H17A H 0.13480 0.13720 0.95490
C27A C -0.8772(8) -0.0330(5) 0.7597(3)
H3A H -0.15490 1.32930 0.36690
Ni1* Ni 0.00000 1.50000 0.50000
C28A C -0.0707(13) 0.1312(6) 1.0527(4)
O6A O -0.8458(6) -0.1136(3) 0.7806(2)
O7A O -1.0244(6) -0.0156(4) 0.7419(3)
O8A O 0.0612(8) 0.0987(4) 1.0709(3)
O9A O -0.2014(9) 0.1405(6) 1.0897(3)
H18A H -0.17400 0.12970 1.12830
C29A C 0.5790(18) -0.2979(7) 0.6012(5)
H19A H 0.57710 -0.36680 0.59760
C30A C 0.5476(18) -0.2514(7) 0.5483(5)
H20A H 0.52150 -0.28110 0.50240
C31A C 0.6001(10) -0.1446(5) 0.6422(4)
H21A H 0.61540 -0.08410 0.67280
C32A C 0.5304(9) -0.0744(5) 0.5366(3)
C33A C 0.4787(10) 0.0120(5) 0.5689(4)
H22A H 0.46270 0.01950 0.61530
C34A C 0.5497(10) -0.0882(5) 0.4676(4)
H23A H 0.58120 -0.14770 0.44570
N3A N 0.6140(7) -0.2316(4) 0.6605(3)
N4A N 0.5613(8) -0.1530(4) 0.5743(3)
C35A C -0.4128(11) 0.7043(6) -0.0914(4)
H24A H -0.50620 0.74050 -0.08870
C36A C -0.3498(11) 0.6596(6) -0.0409(4)
H25A H -0.38980 0.65930 0.00200
C37A C -0.2011(10) 0.6343(5) -0.1294(4)
H26A H -0.11890 0.61240 -0.15760
C38A C -0.1035(10) 0.5568(5) -0.0317(4)
C39A C -0.1668(11) 0.5051(6) 0.0168(4)
H27A H -0.27990 0.50850 0.02820
C40A C 0.0627(11) 0.5524(6) -0.0490(4)
H28A H 0.10540 0.58760 -0.08200
N5A N -0.3211(8) 0.6894(4) -0.1468(3)
N6A N -0.2141(8) 0.6143(4) -0.0658(3)
Ni2A Ni -0.34967(10) 0.73124(6) -0.24239(4)
O10A O -0.6093(3) 0.7420(2) -0.22742(12)
H29A H -0.65090 0.79480 -0.22170
H30A H -0.68210 0.69130 -0.23360
O11A O -0.4127(3) 0.58088(14) -0.28037(11)
H31A H -0.50980 0.55390 -0.27440
H32A H -0.36570 0.54920 -0.31050
O12A O -0.2696(4) 0.88021(16) -0.19825(12)
H33A H -0.21220 0.91700 -0.21970
H34A H -0.23570 0.88770 -0.15740
O13A O -0.0922(2) 0.71937(19) -0.25641(11)
H35A H -0.02020 0.77040 -0.24910
H36A H -0.05010 0.66700 -0.25900
N3A* N -0.3860(7) 0.7684(4) -0.3395(3)
Ni2A* Ni 0.65033(10) -0.26876(6) 0.75761(4)
#END
