
#######################################################################
#
#                 Cambridge Crystallographic Data Centre
#                                CCDC
#
#######################################################################
#
# If this CIF has been generated from an entry in the Cambridge
# Structural Database, then it will include bibliographic, chemical,
# crystal, experimental, refinement or atomic coordinate data resulting
# from the CCDC's data processing and validation procedures.
#
#######################################################################

data_CSD_CIF_GOQXAO
_audit_creation_date 2019-10-11
_audit_creation_method CSD-ConQuest-V1
_database_code_CSD GOQXAO
_database_code_depnum_ccdc_archive 'CCDC 1832943'
_chemical_formula_sum 'C10 H14 Na1 Np1 O6'
_chemical_formula_moiety
;
(C10 H14 Np1 O6 1-)n,Na1 1+
;
_journal_coden_Cambridge 513
_journal_volume 61
_journal_year 2019
_journal_page_first 427
_journal_name_full 'Radiokhimiya(Russ.)(Radiochem.) '
loop_
_publ_author_name
"M.S.Grigor'ev"
"I.A.Charushnikova"
"A.M.Fedoseev"
_chemical_name_systematic
;
catena-[sodium 
(\m-cyclobutanecarboxylato)-(\m-oxo)-(cyclobutanecarboxylato)-neptunium(v)]
;
_cell_volume   1285.992
_exptl_crystal_colour 'green'
_exptl_crystal_density_diffrn 2.532
_exptl_crystal_description 'prism'
_diffrn_ambient_temperature 100
_diffrn_special_details
;
twin

;
#These two values have been output from a single CSD field.
_refine_ls_R_factor_gt 0.0218
_refine_ls_wR_factor_gt 0.0218
_symmetry_cell_setting monoclinic
_symmetry_space_group_name_H-M 'C c'
_symmetry_Int_Tables_number 9
loop_
_symmetry_equiv_pos_site_id
_symmetry_equiv_pos_as_xyz
1 x,y,z
2 x,-y,1/2+z
3 1/2+x,1/2+y,z
4 1/2+x,1/2-y,1/2+z
_cell_length_a 26.4812(8)
_cell_length_b 7.6843(2)
_cell_length_c 6.3714(2)
_cell_angle_alpha 90
_cell_angle_beta 97.304(2)
_cell_angle_gamma 90
_cell_formula_units_Z 4
loop_
_atom_type_symbol
_atom_type_radius_bond
C 0.68
H 0.23
Na 1.66
Np 1.90
O 0.68
loop_
_atom_site_label
_atom_site_type_symbol
_atom_site_fract_x
_atom_site_fract_y
_atom_site_fract_z
Np1 Np 0.48920(2) 0.65135(3) 0.47031(2)
O1 O 0.50730(17) 0.4487(6) 0.6256(6)
O2 O 0.47044(17) 0.8524(6) 0.3271(6)
O3 O 0.58155(17) 0.7220(6) 0.4831(6)
O4 O 0.54136(17) 0.8442(6) 0.7265(6)
O5 O 0.40669(16) 0.5242(6) 0.3494(6)
O6 O 0.43768(16) 0.2727(6) 0.2421(6)
C1 C 0.5833(2) 0.8023(8) 0.6569(9)
C2 C 0.6323(2) 0.8398(10) 0.7911(10)
H1 H 0.63320 0.96290 0.84240
C3 C 0.6828(3) 0.7916(12) 0.7124(12)
H2 H 0.67940 0.70170 0.60020
H3 H 0.70240 0.89300 0.67120
C4 C 0.7013(4) 0.7211(15) 0.9328(15)
H4 H 0.72260 0.80430 1.02400
H5 H 0.71810 0.60610 0.93170
C5 C 0.6455(3) 0.7122(13) 0.9789(12)
H6 H 0.64000 0.76070 1.11810
H7 H 0.62970 0.59580 0.95620
C6 C 0.4015(2) 0.3667(9) 0.2995(8)
C7 C 0.3519(2) 0.2768(9) 0.313(1)
H8 H 0.33750 0.23340 0.16980
C8 C 0.3529(3) 0.1262(10) 0.4769(11)
H9 H 0.35240 0.00850 0.41360
H10 H 0.38010 0.13700 0.59770
C9 C 0.3002(3) 0.1909(12) 0.5243(13)
H11 H 0.27130 0.12430 0.44960
H12 H 0.29730 0.20010 0.67720
C10 C 0.3095(3) 0.366(1) 0.4198(11)
H13 H 0.32190 0.45870 0.52120
H14 H 0.28030 0.40700 0.31910
Na1 Na 0.4944(3) 0.8805(3) 0.9941(12)
Np1A Np 0.48920(2) 0.34865(3) -0.02969(2)
Np1A* Np 0.48920(2) 0.34865(3) 0.97031(2)
O1A O 0.50730(17) 0.5513(6) 0.1256(6)
O6A O 0.43768(16) 0.7273(6) 0.7421(6)
#END
