
#######################################################################
#
#                 Cambridge Crystallographic Data Centre
#                                CCDC
#
#######################################################################
#
# If this CIF has been generated from an entry in the Cambridge
# Structural Database, then it will include bibliographic, chemical,
# crystal, experimental, refinement or atomic coordinate data resulting
# from the CCDC's data processing and validation procedures.
#
#######################################################################

data_CSD_CIF_GOQZUK
_audit_creation_date 2019-10-11
_audit_creation_method CSD-ConQuest-V1
_database_code_CSD GOQZUK
_database_code_depnum_ccdc_archive 'CCDC 1913491'
_chemical_formula_sum 'C12 H30 N16 O21 U2'
_chemical_formula_moiety
;
(C8 O20 U2 4-)n,4(C1 H7 N4 1+),H2 O1
;
_journal_coden_Cambridge 513
_journal_volume 61
_journal_year 2019
_journal_page_first 434
_journal_name_full 'Radiokhimiya(Russ.)(Radiochem.) '
loop_
_publ_author_name
"T.M.Ahamed Hussain"
"B.N.Sivasankar"
_chemical_name_systematic
;
catena-[tetrakis(amino(hydrazinyl)methaniminium) 
bis(\m-oxalato)-bis(oxalato)-tetraoxo-di-uranium(vi)]
;
_cell_volume   1605.122
_exptl_crystal_colour 'yellow'
_exptl_crystal_density_diffrn 2.505
_exptl_crystal_description 'block'
_diffrn_ambient_temperature 295
#These two values have been output from a single CSD field.
_refine_ls_R_factor_gt 0.03
_refine_ls_wR_factor_gt 0.03
_symmetry_cell_setting triclinic
_symmetry_space_group_name_H-M 'P -1'
_symmetry_Int_Tables_number 2
loop_
_symmetry_equiv_pos_site_id
_symmetry_equiv_pos_as_xyz
1 x,y,z
2 -x,-y,-z
_cell_length_a 10.6085(6)
_cell_length_b 11.1379(6)
_cell_length_c 14.8039(8)
_cell_angle_alpha 81.355(2)
_cell_angle_beta 70.896(2)
_cell_angle_gamma 77.042(2)
_cell_formula_units_Z 2
loop_
_atom_type_symbol
_atom_type_radius_bond
C 0.68
H 0.23
N 0.68
O 0.68
U 1.96
loop_
_atom_site_label
_atom_site_type_symbol
_atom_site_fract_x
_atom_site_fract_y
_atom_site_fract_z
U1 U 0.57473(3) 0.85331(2) 0.19501(2)
U2 U 0.28808(3) 0.42279(2) 0.45920(2)
C1 C 0.7449(9) 0.7467(8) -0.0167(6)
C2 C 0.7709(8) 0.8798(8) -0.0280(5)
C3 C 0.4933(8) 0.5877(7) 0.3064(5)
C4 C 0.3916(7) 0.6815(6) 0.3738(5)
C5 C 0.0760(8) 0.2996(7) 0.6407(5)
C6 C 0.0740(8) 0.4255(7) 0.6737(5)
C7 C 0.4782(9) 0.1029(7) 0.2535(5)
C8 C 0.4179(8) 0.2348(6) 0.2814(5)
O1 O 0.6768(6) 0.7133(5) 0.0681(4)
O2 O 0.7877(7) 0.6827(6) -0.0847(4)
O3 O 0.7215(6) 0.9359(5) 0.0478(4)
O4 O 0.8388(6) 0.9212(5) -0.1058(4)
O5 O 0.5835(6) 0.6285(5) 0.2398(4)
O6 O 0.4754(5) 0.4783(4) 0.3248(4)
O7 O 0.3030(5) 0.6407(4) 0.4429(4)
O8 O 0.4053(6) 0.7914(4) 0.3536(4)
O9 O 0.4313(6) 0.8770(5) 0.1544(4)
O10 O 0.7159(6) 0.8282(5) 0.2381(4)
O11 O 0.1575(6) 0.2786(5) 0.5563(4)
O12 O 0.0062(6) 0.2287(5) 0.6936(4)
O13 O 0.1371(5) 0.4979(5) 0.6071(4)
O14 O 0.0143(6) 0.4472(5) 0.7572(4)
O15 O 0.3765(6) 0.2473(5) 0.3715(4)
O16 O 0.4144(7) 0.3157(5) 0.2165(4)
O17 O 0.4599(7) 0.0116(5) 0.3140(4)
O18 O 0.5511(7) 0.0862(5) 0.1698(4)
O19 O 0.4111(6) 0.3721(5) 0.5210(4)
O20 O 0.1674(6) 0.4745(5) 0.3968(4)
C9 C 0.9335(8) 0.8239(8) -0.3404(6)
N1 N 1.0014(9) 0.8156(7) -0.4314(5)
H1 H 1.00(1) 0.876(5) -0.473(5)
H2 H 1.028(10) 0.748(4) -0.456(5)
N2 N 0.9257(11) 0.7254(7) -0.2792(6)
H3 H 0.962(11) 0.654(4) -0.298(6)
H4 H 0.900(11) 0.721(8) -0.2186(17)
N3 N 0.8738(8) 0.9323(7) -0.3088(5)
H5 H 0.832(9) 0.936(9) -0.250(2)
N4 N 0.8846(8) 1.0399(7) -0.3709(5)
H6 H 0.806(5) 1.069(7) -0.377(7)
H7 H 0.909(8) 1.094(6) -0.349(7)
C10 C 0.6336(8) 0.4001(7) -0.0006(6)
N5 N 0.5896(8) 0.2992(7) -0.0013(5)
H8 H 0.554(9) 0.254(7) 0.048(3)
H9 H 0.595(10) 0.268(7) -0.052(3)
N6 N 0.6211(8) 0.4442(8) 0.0806(5)
H10 H 0.571(9) 0.414(7) 0.132(4)
H11 H 0.626(10) 0.517(4) 0.087(6)
N7 N 0.6963(7) 0.4583(6) -0.0833(5)
H12 H 0.724(9) 0.524(5) -0.083(7)
N8 N 0.7084(8) 0.4147(7) -0.1703(5)
H13 H 0.794(3) 0.399(7) -0.201(5)
H14 H 0.674(7) 0.478(6) -0.201(5)
C11 C 0.2806(8) -0.0603(7) 0.5881(6)
N9 N 0.2055(9) -0.0285(7) 0.6741(5)
H15 H 0.181(10) 0.043(3) 0.693(5)
H16 H 0.192(10) -0.082(5) 0.722(4)
N10 N 0.3105(10) 0.0242(8) 0.5169(5)
H17 H 0.335(11) 0.007(8) 0.460(3)
H18 H 0.271(10) 0.097(4) 0.523(6)
N11 N 0.3294(9) -0.1772(7) 0.5739(5)
H19 H 0.376(9) -0.201(9) 0.519(3)
N12 N 0.2919(9) -0.2677(7) 0.6471(6)
H20 H 0.228(6) -0.303(7) 0.649(8)
H21 H 0.356(6) -0.320(6) 0.660(7)
C12 C -0.0774(8) 0.1964(7) 0.9686(6)
N13 N -0.0245(9) 0.2967(7) 0.9617(6)
H22 H -0.032(10) 0.336(7) 1.008(4)
H23 H 0.009(10) 0.337(7) 0.909(3)
N14 N -0.0740(9) 0.1500(7) 0.8911(5)
H24 H -0.08(1) 0.077(4) 0.887(6)
H25 H -0.036(9) 0.181(7) 0.835(3)
N15 N -0.1321(8) 0.1423(7) 1.0531(5)
H26 H -0.180(8) 0.087(7) 1.063(7)
N16 N -0.1388(8) 0.1819(8) 1.1397(5)
H27 H -0.058(3) 0.190(8) 1.133(7)
H28 H -0.194(6) 0.242(3) 1.169(3)
O21 O 0.1209(10) 0.5394(9) 0.8743(8)
H29 H 0.065(9) 0.532(12) 0.846(8)
H30 H 0.197(6) 0.494(11) 0.849(9)
U1* U 0.57473(3) -0.14669(2) 0.19501(2)
O17* O 0.4599(7) 1.0116(5) 0.3140(4)
O18* O 0.5511(7) 1.0862(5) 0.1698(4)
#END
