
#######################################################################
#
#                 Cambridge Crystallographic Data Centre
#                                CCDC
#
#######################################################################
#
# If this CIF has been generated from an entry in the Cambridge
# Structural Database, then it will include bibliographic, chemical,
# crystal, experimental, refinement or atomic coordinate data resulting
# from the CCDC's data processing and validation procedures.
#
#######################################################################

data_CSD_CIF_GOSBIB
_audit_creation_date 2014-12-04
_audit_creation_method CSD-ConQuest-V1
_database_code_CSD GOSBIB
_database_code_depnum_ccdc_archive 'CCDC 949056'
_chemical_formula_sum 'C48 H62 Cu2 N24 O68 P2 W18'
_chemical_formula_moiety
;
(C36 H40 Cu2 N18 O64 P2 W18 2-)n,n(C12 H14 N6 2+),4n(H2 O1)
;
_journal_coden_Cambridge 580
_journal_volume 85
_journal_year 2015
_journal_page_first 705
_journal_name_full 'Polyhedron '
loop_
_publ_author_name
"Yu-Hui Luo"
"Bo Li"
"Xiao-Yang Yu"
"Chao-Ming Han"
"Xin-Xin Lu"
"Hong Zhang"
"Xin Chen"
_chemical_name_systematic
;
catena-[1,1'-(benzene-1,3-diyldimethanediyl)bis(4H-1,2,4-triazol-1-ium) 
tris(\m-1,1'-(benzene-1,3-diyldimethanediyl)bis(1H-1,2,4-triazole))-tetraconta
kis(\m-oxo)-bis(\m-phosphato)-diaqua-tetradecaoxo-di-copper-octadeca-tungsten 
 tetrahydrate]
;
_cell_volume  10093.197
_exptl_crystal_colour 'blue'
_exptl_crystal_density_diffrn 3.66
_exptl_crystal_description 'block'
_diffrn_ambient_temperature 293
_refine_special_details
;
The structure is disordered.

;
#These two values have been output from a single CSD field.
_refine_ls_R_factor_gt 0.0489
_refine_ls_wR_factor_gt 0.0489
_symmetry_cell_setting monoclinic
_symmetry_space_group_name_H-M 'P 21/c'
_symmetry_Int_Tables_number 14
loop_
_symmetry_equiv_pos_site_id
_symmetry_equiv_pos_as_xyz
1 x,y,z
2 -x,1/2+y,1/2-z
3 -x,-y,-z
4 x,-1/2-y,-1/2+z
_cell_length_a 14.7871(3)
_cell_length_b 25.5360(5)
_cell_length_c 29.6432(6)
_cell_angle_alpha 90
_cell_angle_beta 115.616(2)
_cell_angle_gamma 90
_cell_formula_units_Z 4
loop_
_atom_type_symbol
_atom_type_radius_bond
C 0.68
H 0.23
Cu 1.32
N 0.68
O 0.68
P 1.05
W 1.62
loop_
_atom_site_label
_atom_site_type_symbol
_atom_site_fract_x
_atom_site_fract_y
_atom_site_fract_z
W1 W 0.25900(4) 0.66234(2) 0.42391(2)
W2 W 0.29485(4) 0.76703(2) 0.49967(2)
W3 W 0.21929(4) 0.78387(2) 0.37541(2)
W4 W 0.43226(4) 0.63560(2) 0.36632(2)
W5 W 0.51836(4) 0.61884(2) 0.50215(2)
W6 W 0.55573(4) 0.72293(2) 0.57771(2)
W7 W 0.51096(4) 0.85469(2) 0.52375(2)
W8 W 0.43429(4) 0.87189(2) 0.40022(2)
W9 W 0.39355(4) 0.75708(2) 0.31835(2)
W10 W 0.70147(4) 0.64341(2) 0.38679(2)
W11 W 0.78690(4) 0.62694(2) 0.52220(2)
W12 W 0.82199(4) 0.73164(2) 0.59579(2)
W13 W 0.77681(4) 0.86395(2) 0.54119(2)
W14 W 0.70035(4) 0.87876(2) 0.41736(2)
W15 W 0.66208(4) 0.76400(2) 0.33663(2)
W16 W 0.96097(4) 0.68215(2) 0.47435(2)
W17 W 0.99648(4) 0.78737(2) 0.54924(2)
W18 W 0.92002(4) 0.80306(2) 0.42489(2)
P1 P 0.4668(2) 0.74327(12) 0.44714(11)
P2 P 0.7484(2) 0.75097(12) 0.46740(12)
Cu1 Cu 1.00444(13) 0.71810(6) 0.74419(7)
Cu2 Cu 0.18696(13) 0.52287(7) 0.43857(6)
C1 C 0.9388(12) 0.7788(6) 0.8146(6)
H1 H 0.98930 0.76570 0.84390
C2 C 0.8395(10) 0.7887(6) 0.7386(6)
H2 H 0.80740 0.78540 0.70400
C3 C 0.7332(13) 0.8615(6) 0.7473(7)
H3 H 0.72410 0.87620 0.77520
H4 H 0.67040 0.84560 0.72450
C4 C 0.7617(12) 0.9056(7) 0.7200(6)
C5 C 0.8594(12) 0.9251(6) 0.7394(6)
H5 H 0.90860 0.91160 0.76890
C6 C 0.8824(11) 0.9650(6) 0.7139(6)
C7 C 0.8101(13) 0.9840(6) 0.6702(6)
H6 H 0.82530 1.01100 0.65350
C8 C 0.7146(13) 0.9634(6) 0.6507(6)
H7 H 0.66630 0.97630 0.62060
C9 C 0.6888(12) 0.9235(6) 0.6752(6)
H8 H 0.62440 0.90940 0.66170
C10 C 0.9877(13) 0.9848(8) 0.7328(6)
H9 H 0.98850 1.01570 0.71390
H10 H 1.02900 0.95830 0.72740
C11 C 1.0421(12) 1.0368(6) 0.8512(6)
H11 H 1.03200 1.06040 0.87250
C12 C 1.1000(11) 0.9739(6) 0.8264(5)
H12 H 1.13610 0.94460 0.82500
C13 C 0.1549(10) 0.6370(6) 0.7515(5)
H13 H 0.17210 0.63170 0.78520
C14 C 0.0916(12) 0.6650(6) 0.6776(6)
H14 H 0.05340 0.68520 0.64980
C15 C 0.2549(12) 0.5627(6) 0.7379(6)
H15 H 0.21560 0.53300 0.71930
H16 H 0.27680 0.55550 0.77320
C16 C 0.3444(12) 0.5684(6) 0.7277(5)
C17 C 0.3500(11) 0.5418(6) 0.6891(6)
H17 H 0.29770 0.52000 0.66890
C18 C 0.4362(11) 0.5476(6) 0.6799(6)
C19 C 0.5146(12) 0.5777(6) 0.7117(6)
H18 H 0.57150 0.58120 0.70610
C20 C 0.5103(13) 0.6025(8) 0.7516(7)
H19 H 0.56490 0.62220 0.77290
C21 C 0.4272(12) 0.5990(6) 0.7609(6)
H20 H 0.42500 0.61610 0.78800
C22 C 0.4425(12) 0.5183(7) 0.6373(6)
H21 H 0.50870 0.52290 0.63860
H22 H 0.43240 0.48120 0.64060
C23 C 0.3267(12) 0.5106(6) 0.5459(6)
H23 H 0.34110 0.47590 0.54210
C24 C 0.2675(13) 0.5880(6) 0.5334(6)
H24 H 0.23100 0.61750 0.51730
C25 C 1.0954(11) 1.1396(6) 0.7174(5)
H25 H 1.06090 1.15220 0.68500
C26 C 1.1464(11) 1.1262(6) 0.7936(6)
H26 H 1.15420 1.12880 0.82640
C27 C 1.2090(11) 1.0775(6) 0.7000(6)
H27 H 1.28040 1.07230 0.71980
H28 H 1.20030 1.10010 0.67210
C28 C 1.1596(11) 1.0244(5) 0.6797(6)
C29 C 1.0685(13) 1.0235(6) 0.6395(7)
H29 H 1.03750 1.05470 0.62470
C30 C 1.0223(13) 0.9766(6) 0.6209(6)
H30 H 0.95950 0.97640 0.59360
C31 C 1.0667(12) 0.9298(6) 0.6416(6)
H31 H 1.03390 0.89840 0.62880
C32 C 1.1606(11) 0.9298(5) 0.6817(6)
C33 C 1.2061(11) 0.9773(5) 0.7020(6)
H32 H 1.26720 0.97780 0.73030
C34 C 1.2133(11) 0.8798(6) 0.7042(6)
H33 H 1.22370 0.85980 0.67900
H34 H 1.27850 0.88770 0.73100
C35 C 1.1242(11) 0.7990(6) 0.7142(6)
H35 H 1.13190 0.77770 0.69060
C36 C 1.0862(11) 0.8295(5) 0.7695(6)
H36 H 1.05950 0.83200 0.79260
N1 N 0.9203(9) 0.7610(5) 0.7691(5)
N2 N 0.8123(9) 0.8215(5) 0.7656(5)
N3 N 0.8774(9) 0.8173(5) 0.8137(5)
N4 N 1.1104(9) 0.9976(4) 0.8680(4)
N5 N 1.0304(9) 0.9980(5) 0.7865(4)
N6 N 0.9915(10) 1.0387(5) 0.8027(5)
N7 N 0.0915(9) 0.6724(4) 0.7231(4)
N8 N 0.1908(9) 0.6098(5) 0.7243(5)
N9 N 0.1493(10) 0.6274(5) 0.6764(5)
N10 N 0.2635(10) 0.5415(5) 0.5096(5)
N11 N 0.3654(9) 0.5374(5) 0.5883(4)
N12 N 0.3276(10) 0.5865(5) 0.5808(5)
N13 N 1.0799(8) 1.1549(4) 0.7562(4)
N14 N 1.1665(10) 1.1039(4) 0.7314(4)
N15 N 1.1994(11) 1.0940(5) 0.7802(5)
N16 N 1.0794(8) 0.7845(5) 0.7432(4)
N17 N 1.1322(10) 0.8686(5) 0.7603(5)
N18 N 1.1554(9) 0.8478(4) 0.7241(4)
O1 O 0.3537(6) 0.7400(3) 0.4389(3)
O2 O 0.5278(7) 0.7100(4) 0.4931(3)
O3 O 0.4974(6) 0.8013(3) 0.4564(3)
O4 O 0.4687(7) 0.7218(3) 0.3998(3)
O5 O 0.8619(7) 0.7543(3) 0.4758(3)
O6 O 0.7486(7) 0.7167(3) 0.5085(3)
O7 O 0.7152(7) 0.8067(3) 0.4713(3)
O8 O 0.6881(6) 0.7275(3) 0.4156(3)
O9 O 0.2383(7) 0.7006(4) 0.4752(4)
O10 O 0.1752(6) 0.7131(3) 0.3782(3)
O11 O 0.3172(7) 0.6464(4) 0.3799(3)
O12 O 0.3786(7) 0.6354(4) 0.4755(4)
O13 O 0.1778(7) 0.6109(4) 0.4136(4)
O14 O 0.2050(7) 0.7958(4) 0.4363(4)
O15 O 0.3818(7) 0.8258(4) 0.5081(3)
O16 O 0.4136(7) 0.7336(4) 0.5470(3)
O17 O 0.2380(7) 0.7836(4) 0.5358(4)
O18 O 0.3056(7) 0.8419(4) 0.3905(4)
O19 O 0.2800(7) 0.7599(3) 0.3350(3)
O20 O 0.1083(7) 0.8095(4) 0.3308(4)
O21 O 0.4989(7) 0.6151(4) 0.4351(4)
O22 O 0.5593(7) 0.6413(4) 0.3659(4)
O23 O 0.3775(8) 0.6832(4) 0.3110(4)
O24 O 0.3956(8) 0.5778(4) 0.3356(4)
O25 O 0.5395(7) 0.6498(4) 0.5653(4)
O26 O 0.6584(7) 0.6219(4) 0.5226(4)
O27 O 0.5067(8) 0.5541(4) 0.5152(4)
O28 O 0.5653(7) 0.7942(3) 0.5627(3)
O29 O 0.6938(7) 0.7159(3) 0.5889(3)
O30 O 0.5772(7) 0.7254(4) 0.6389(4)
O31 O 0.4533(7) 0.8975(4) 0.4640(3)
O32 O 0.6405(7) 0.8693(3) 0.5261(4)
O33 O 0.5151(7) 0.8990(4) 0.5673(4)
O34 O 0.4290(7) 0.8226(3) 0.3520(4)
O35 O 0.5715(7) 0.8830(3) 0.4171(3)
O36 O 0.3868(8) 0.9266(4) 0.3650(4)
O37 O 0.5229(7) 0.7513(4) 0.3215(4)
O38 O 0.3310(8) 0.7756(4) 0.2573(4)
O39 O 0.7207(7) 0.6218(4) 0.4519(4)
O40 O 0.8392(7) 0.6617(4) 0.4178(4)
O41 O 0.6814(7) 0.6907(4) 0.3329(4)
O42 O 0.7116(8) 0.5863(4) 0.3603(4)
O43 O 0.8414(7) 0.6581(3) 0.5864(3)
O44 O 0.9015(7) 0.6478(4) 0.5126(3)
O45 O 0.8245(7) 0.5634(4) 0.5386(4)
O46 O 0.7839(6) 0.8006(3) 0.5784(3)
O47 O 0.9360(6) 0.7465(3) 0.5827(3)
O48 O 0.8839(7) 0.7334(4) 0.6598(3)
O49 O 0.7562(7) 0.9057(3) 0.4843(3)
O50 O 0.9048(7) 0.8415(4) 0.5449(3)
O51 O 0.8225(8) 0.9102(4) 0.5867(4)
O52 O 0.6501(7) 0.8281(4) 0.3659(3)
O53 O 0.8319(7) 0.8554(3) 0.4279(3)
O54 O 0.6963(8) 0.9345(4) 0.3849(4)
O55 O 0.8029(7) 0.7746(4) 0.3714(4)
O56 O 0.6458(8) 0.7821(4) 0.2782(4)
O57 O 1.0425(7) 0.7234(4) 0.5324(3)
O58 O 0.9805(7) 0.7350(4) 0.4332(4)
O59 O 1.0436(7) 0.6361(4) 0.4760(4)
O60 O 1.0093(7) 0.8179(4) 0.4928(3)
O61 O 1.1025(7) 0.8088(4) 0.5984(4)
O62 O 0.9768(8) 0.8361(4) 0.3937(4)
O63 O 0.3150(8) 0.5131(4) 0.4328(4)
O64 O 0.0569(9) 0.5338(5) 0.4434(4)
C37 C 0.2654(13) 0.7842(6) 0.1290(7)
H37 H 0.19920 0.79190 0.10750
C38 C 0.4257(14) 0.7921(7) 0.1682(8)
H38 H 0.49120 0.80440 0.18020
C39 C 0.4653(15) 0.7059(7) 0.2085(8)
H39 H 0.46600 0.70790 0.24130
H40 H 0.53250 0.71410 0.21260
C40 C 0.4433(11) 0.6500(7) 0.1910(6)
C41 C 0.4807(15) 0.6113(8) 0.2286(7)
H41 H 0.51420 0.62090 0.26210
C42 C 0.4672(15) 0.5599(8) 0.2154(8)
H42 H 0.49550 0.53420 0.23970
C43 C 0.4138(17) 0.5461(9) 0.1678(9)
H43 H 0.40360 0.51070 0.15990
C44 C 0.3716(15) 0.5835(8) 0.1283(8)
C45 C 0.3884(12) 0.6357(6) 0.1419(6)
H44 H 0.36220 0.66150 0.11750
C46 C 0.318(3) 0.5767(16) 0.0679(15)
H45 H 0.31790 0.61020 0.05240
H46 H 0.35620 0.55220 0.05810
N19 N 0.078(2) 0.5192(13) 0.0202(12)
H47 H 0.03830 0.49350 0.01730
C47 C 0.179(3) 0.5134(13) 0.0357(13)
H48 H 0.21310 0.48280 0.03560
N20 N 0.217(3) 0.5582(13) 0.0502(13)
N21 N 0.137(3) 0.5917(13) 0.0426(13)
C48 C 0.049(2) 0.5669(12) 0.0106(13)
H49 H -0.01270 0.58070 -0.01120
N22 N 0.3428(13) 0.8174(6) 0.1388(6)
H50 H 0.33900 0.84900 0.12790
N23 N 0.3973(10) 0.7472(5) 0.1769(5)
N24 N 0.2937(11) 0.7404(6) 0.1530(5)
O65 O 0.9122(10) 0.5753(6) 0.3631(5)
O66 O 0.190(4) 0.919(2) 0.425(2)
O67 O 0.6520(15) 0.9417(8) 0.1266(8)
O68 O 0.944(3) 0.4505(15) 0.4567(15)
C49? C 0.298(3) 0.5594(16) 0.0814(16)
H51? H 0.25790 0.53420 0.08930
H52? H 0.25360 0.58630 0.06040
N25? N 0.431(2) 0.4916(12) 0.0275(12)
H53? H 0.48150 0.47380 0.02830
C50? C 0.426(3) 0.5069(12) 0.0713(13)
H54? H 0.47060 0.49940 0.10420
N26? N 0.343(2) 0.5344(13) 0.0552(13)
N27? N 0.300(2) 0.5328(13) 0.0031(13)
C51? C 0.364(2) 0.5040(12) -0.0112(13)
H55? H 0.35550 0.49620 -0.04340
O69? O 0.131(4) 0.905(2) 0.442(2)
O70? O 0.682(2) 0.9840(13) 0.1513(12)
Cu1* Cu 0.00444(13) 0.71810(6) 0.74419(7)
Cu1A Cu 0.99556(13) 1.21810(6) 0.75581(7)
Cu1C Cu 0.00444(13) 0.78190(6) 0.24419(7)
Cu2B Cu 0.81304(13) 0.47713(7) 0.56143(6)
Cu2C Cu 1.18696(13) 0.97713(7) 0.93857(6)
N4C N 0.1104(9) 0.5024(4) 0.3680(4)
N7* N 1.0915(9) 0.6724(4) 0.7231(4)
N13A N 0.9201(8) 0.6549(4) 0.7438(4)
O20C O 1.1083(7) 0.6905(4) 0.8308(4)
O45B O 0.1755(7) 0.4366(4) 0.4614(4)
#END
