
#######################################################################
#
#                 Cambridge Crystallographic Data Centre
#                                CCDC
#
#######################################################################
#
# If this CIF has been generated from an entry in the Cambridge
# Structural Database, then it will include bibliographic, chemical,
# crystal, experimental, refinement or atomic coordinate data resulting
# from the CCDC's data processing and validation procedures.
#
#######################################################################

data_CSD_CIF_GOTPOX
_audit_creation_date 2019-10-14
_audit_creation_method CSD-ConQuest-V1
_database_code_CSD GOTPOX
_database_code_depnum_ccdc_archive 'CCDC 1950512'
_chemical_formula_sum 'C44 H66 N4 Ni1 O18 U2'
_chemical_formula_moiety
;
(C36 H42 O16 U2 2-)n,H2 O1,C8 H22 N4 Ni1 O1 2+
;
_journal_coden_Cambridge 1290
_journal_volume 2019
_journal_year 2019
_journal_page_first 4440
_journal_name_full 'Eur.J.Inorg.Chem. '
loop_
_publ_author_name
"P.Thuery"
"Y.Atoini"
"J.Harrowfield"
_chemical_name_systematic
;
catena-[aqua-(1,4,7,10-tetraazacyclododecane)-nickel 
tris(\m-adamantane-1,3-dicarboxylato)-tetraoxo-di-uranium monohydrate]
;
_cell_volume   5420.656
_exptl_crystal_colour 'light yellow'
_exptl_crystal_density_diffrn 1.806
_exptl_crystal_description 'lath'
_diffrn_ambient_temperature 100
_refine_special_details
;
O11,O12 disordered over one sites with occupancies 0.25; O13 and 
C26,C27,C28,C29,C30,C31,C32,C33,N1,N2,N3,N4 disordered over two sites with 
occupancies 0.5:0.5.
;
#These two values have been output from a single CSD field.
_refine_ls_R_factor_gt 0.043
_refine_ls_wR_factor_gt 0.043
_symmetry_cell_setting monoclinic
_symmetry_space_group_name_H-M 'C 2/m'
_symmetry_Int_Tables_number 12
loop_
_symmetry_equiv_pos_site_id
_symmetry_equiv_pos_as_xyz
1 x,y,z
2 -x,y,-z
3 1/2+x,1/2+y,z
4 1/2-x,1/2+y,-z
5 -x,-y,-z
6 x,-y,z
7 -1/2-x,-1/2-y,-z
8 -1/2+x,-1/2-y,z
_cell_length_a 36.526(2)
_cell_length_b 9.9335(3)
_cell_length_c 16.4695(12)
_cell_angle_alpha 90
_cell_angle_beta 114.889(3)
_cell_angle_gamma 90
_cell_formula_units_Z 4
loop_
_atom_type_symbol
_atom_type_radius_bond
C 0.68
H 0.23
N 0.68
Ni 1.24
O 0.68
U 1.96
loop_
_atom_site_label
_atom_site_type_symbol
_atom_site_fract_x
_atom_site_fract_y
_atom_site_fract_z
U1 U 0.80566(2) 0.50000 0.33382(2)
U2 U 0.53000(2) 0.50000 0.19915(3)
O1 O 0.7876(2) 0.50000 0.4188(5)
O2 O 0.8233(2) 0.50000 0.2491(5)
O3 O 0.5739(2) 0.50000 0.3018(5)
O4 O 0.4874(2) 0.50000 0.0948(6)
O5 O 0.74303(14) 0.3908(5) 0.2276(4)
O6 O 0.56996(15) 0.3904(5) 0.1278(3)
O7 O 0.81025(14) 0.7476(5) 0.3368(3)
O8 O 0.86375(14) 0.6382(5) 0.4262(3)
O9 O 0.52640(16) 0.7500(5) 0.2033(4)
O10 O 0.49226(19) 0.6340(5) 0.2616(5)
C1 C 0.6855(3) 0.50000 0.1105(6)
C2 C 0.6528(2) 0.50000 0.1412(6)
H1 H 0.65570 0.41920 0.17860
C3 C 0.6122(3) 0.50000 0.0664(6)
C4 C 0.6073(2) 0.3732(8) 0.0072(5)
H2 H 0.60970 0.29070 0.04290
H3 H 0.58030 0.37330 -0.04370
C5 C 0.6396(2) 0.3746(10) -0.0272(5)
H4 H 0.63670 0.29230 -0.06430
C6 C 0.6818(2) 0.3739(8) 0.0529(5)
H5 H 0.68500 0.29160 0.08920
H6 H 0.70310 0.37450 0.03070
C7 C 0.6350(3) 0.50000 -0.0852(7)
H7 H 0.60820 0.50000 -0.13680
H8 H 0.65600 0.50000 -0.10840
C8 C 0.7263(3) 0.50000 0.1920(7)
C9 C 0.5808(3) 0.50000 0.1060(6)
C10 C 0.8725(2) 0.8739(6) 0.4026(4)
C11 C 0.8875(2) 0.8743(7) 0.3269(5)
H9 H 0.90380 0.79270 0.33140
H10 H 0.86400 0.87390 0.26770
C12 C 0.9130(3) 1.00000 0.3359(7)
H11 H 0.92250 1.00000 0.28710
C13 C 0.9495(3) 1.00000 0.4261(7)
H12 H 0.96630 1.08070 0.43150
C14 C 0.9357(3) 1.00000 0.5014(6)
H13 H 0.95970 1.00000 0.56060
C15 C 0.90996(19) 0.8742(6) 0.4932(4)
H14 H 0.90130 0.87290 0.54260
H15 H 0.92630 0.79250 0.49810
C16 C 0.8472(3) 1.00000 0.3937(6)
H16 H 0.83710 1.00000 0.44090
H17 H 0.82360 1.00000 0.33480
C17 C 0.8473(2) 0.7466(6) 0.3892(5)
C18 C 0.4838(2) 0.8738(6) 0.2568(5)
C19 C 0.4383(3) 0.8734(8) 0.1957(7)
H18 H 0.42570 0.79100 0.20640
H19 H 0.43390 0.87430 0.13210
C20 C 0.4188(4) 1.00000 0.2166(13)
H20 H 0.38930 1.00000 0.17640
C21 C 0.4239(5) 1.00000 0.3094(13)
H21 H 0.41100 0.91930 0.32100
C22 C 0.4667(6) 1.00000 0.3698(10)
H22 H 0.46980 1.00000 0.43310
C23 C 0.4876(3) 0.8733(8) 0.3533(6)
H23 H 0.51650 0.87290 0.39580
H24 H 0.47490 0.79110 0.36370
C24 C 0.5028(3) 1.00000 0.2398(8)
H25 H 0.53200 1.00000 0.27930
H26 H 0.49950 1.00000 0.17700
C25 C 0.5017(2) 0.7462(7) 0.2410(5)
Ni1 Ni 0.84024(11) 0.50000 0.72967(15)
O11 O 0.8927(10) 0.376(3) 0.8229(17)
O12 O 0.8490(11) 0.547(2) 0.8543(15)
N1 N 0.7979(6) 0.6586(18) 0.6940(16)
H27 H 0.79860 0.69960 0.74410
N2 N 0.7924(5) 0.3629(19) 0.6684(16)
H28 H 0.77910 0.31880 0.69640
N3 N 0.8779(6) 0.3512(16) 0.7121(16)
H29 H 0.90090 0.33490 0.76210
N4 N 0.8502(7) 0.5990(18) 0.6271(14)
H30 H 0.82990 0.56360 0.57780
C26 C 0.7591(6) 0.583(3) 0.650(2)
H31 H 0.73840 0.64270 0.60650
H32 H 0.74970 0.55570 0.69580
C27 C 0.7649(8) 0.459(3) 0.6023(16)
H33 H 0.73840 0.41580 0.56770
H34 H 0.77630 0.48620 0.55990
C28 C 0.8092(7) 0.262(3) 0.629(2)
H35 H 0.79490 0.17500 0.62350
H36 H 0.80490 0.29060 0.56790
C29 C 0.8513(7) 0.242(2) 0.682(2)
H37 H 0.85400 0.19010 0.73510
H38 H 0.86140 0.18390 0.64660
C30 C 0.8875(8) 0.3900(17) 0.6370(16)
H39 H 0.86720 0.35100 0.58070
H40 H 0.91430 0.35410 0.64690
C31 C 0.8875(6) 0.5435(17) 0.6290(19)
H41 H 0.91090 0.58130 0.68050
H42 H 0.89010 0.56890 0.57360
C32 C 0.8421(8) 0.7452(19) 0.627(3)
H43 H 0.84100 0.78730 0.57180
H44 H 0.86390 0.78890 0.67910
C33 C 0.8014(8) 0.763(2) 0.633(2)
H45 H 0.80000 0.85400 0.65660
H46 H 0.77890 0.75440 0.57300
O13 O 0.7747(5) 0.8569(18) 0.1457(12)
O5E O 0.74303(14) 0.6092(5) 0.2276(4)
O6E O 0.56996(15) 0.6096(5) 0.1278(3)
H1E H 0.65570 0.58080 0.17860
C4E C 0.6073(2) 0.6268(8) 0.0072(5)
H2E H 0.60970 0.70930 0.04290
H3E H 0.58030 0.62670 -0.04370
C5E C 0.6396(2) 0.6254(10) -0.0272(5)
H4E H 0.63670 0.70770 -0.06430
C6E C 0.6818(2) 0.6261(8) 0.0529(5)
H5E H 0.68500 0.70840 0.08920
H6E H 0.70310 0.62550 0.03070
O7E O 0.81025(14) 1.2524(5) 0.3368(3)
O8E O 0.86375(14) 1.3618(5) 0.4262(3)
C10E C 0.8725(2) 1.1261(6) 0.4026(4)
C11E C 0.8875(2) 1.1257(7) 0.3269(5)
H9E H 0.90380 1.20730 0.33140
H10E H 0.86400 1.12610 0.26770
H12E H 0.96630 0.91930 0.43150
C15E C 0.90996(19) 1.1258(6) 0.4932(4)
H14E H 0.90130 1.12710 0.54260
H15E H 0.92630 1.20750 0.49810
C17E C 0.8473(2) 1.2534(6) 0.3892(5)
O9E O 0.52640(16) 1.2500(5) 0.2033(4)
O10E O 0.49226(19) 1.3660(5) 0.2616(5)
C18E C 0.4838(2) 1.1262(6) 0.2568(5)
C19E C 0.4383(3) 1.1266(8) 0.1957(7)
H18E H 0.42570 1.20900 0.20640
H19E H 0.43390 1.12570 0.13210
H21E H 0.41100 1.08070 0.32100
C23E C 0.4876(3) 1.1267(8) 0.3533(6)
H23E H 0.51650 1.12710 0.39580
H24E H 0.47490 1.20890 0.36370
C25E C 0.5017(2) 1.2538(7) 0.2410(5)
U1* U 0.80566(2) 1.50000 0.33382(2)
U2* U 0.53000(2) 1.50000 0.19915(3)
O7E* O 0.81025(14) 0.2524(5) 0.3368(3)
O8E* O 0.86375(14) 0.3618(5) 0.4262(3)
O9E* O 0.52640(16) 0.2500(5) 0.2033(4)
O10E* O 0.49226(19) 0.3660(5) 0.2616(5)
O11E O 0.8927(10) 0.624(3) 0.8229(17)
N1E N 0.7979(6) 0.3414(18) 0.6940(16)
H27E H 0.79860 0.30040 0.74410
N2E N 0.7924(5) 0.6371(19) 0.6684(16)
H28E H 0.77910 0.68120 0.69640
N3E N 0.8779(6) 0.6488(16) 0.7121(16)
H29E H 0.90090 0.66510 0.76210
N4E N 0.8502(7) 0.4010(18) 0.6271(14)
H30E H 0.82990 0.43640 0.57780
C26E C 0.7591(6) 0.417(3) 0.650(2)
H31E H 0.73840 0.35730 0.60650
H32E H 0.74970 0.44430 0.69580
C27E C 0.7649(8) 0.541(3) 0.6023(16)
H33E H 0.73840 0.58420 0.56770
H34E H 0.77630 0.51380 0.55990
C28E C 0.8092(7) 0.738(3) 0.629(2)
H35E H 0.79490 0.82500 0.62350
H36E H 0.80490 0.70940 0.56790
C29E C 0.8513(7) 0.758(2) 0.682(2)
H37E H 0.85400 0.80990 0.73510
H38E H 0.86140 0.81610 0.64660
C30E C 0.8875(8) 0.6100(17) 0.6370(16)
H39E H 0.86720 0.64900 0.58070
H40E H 0.91430 0.64590 0.64690
C31E C 0.8875(6) 0.4565(17) 0.6290(19)
H41E H 0.91090 0.41870 0.68050
H42E H 0.89010 0.43110 0.57360
C32E C 0.8421(8) 0.2548(19) 0.627(3)
H43E H 0.84100 0.21270 0.57180
H44E H 0.86390 0.21110 0.67910
C33E C 0.8014(8) 0.237(2) 0.633(2)
H45E H 0.80000 0.14600 0.65660
H46E H 0.77890 0.24560 0.57300
O12E O 0.8490(11) 0.453(2) 0.8543(15)
#END
