
#######################################################################
#
#                 Cambridge Crystallographic Data Centre
#                                CCDC
#
#######################################################################
#
# If this CIF has been generated from an entry in the Cambridge
# Structural Database, then it will include bibliographic, chemical,
# crystal, experimental, refinement or atomic coordinate data resulting
# from the CCDC's data processing and validation procedures.
#
#######################################################################

data_CSD_CIF_GOTPAJ
_audit_creation_date 2019-10-14
_audit_creation_method CSD-ConQuest-V1
_database_code_CSD GOTPAJ
_database_code_depnum_ccdc_archive 'CCDC 1950509'
_chemical_formula_sum 'C31 H32 N1 O9 P1 U1'
_chemical_formula_moiety
;
(C12 H14 N1 O9 U1 1-)n,C19 H18 P1 1+
;
_journal_coden_Cambridge 1290
_journal_volume 2019
_journal_year 2019
_journal_page_first 4440
_journal_name_full 'Eur.J.Inorg.Chem. '
loop_
_publ_author_name
"P.Thuery"
"Y.Atoini"
"J.Harrowfield"
_chemical_name_systematic
;
catena-[methyl(triphenyl)phosphanium 
(\m-adamantane-1,3-dicarboxylato)-(nitrato)-dioxo-uranium]
;
_cell_volume   3080.588
_exptl_crystal_colour 'yellow'
_exptl_crystal_density_diffrn 1.793
_exptl_crystal_description 'parallelepiped'
_diffrn_ambient_temperature 100
#These two values have been output from a single CSD field.
_refine_ls_R_factor_gt 0.0289
_refine_ls_wR_factor_gt 0.0289
_symmetry_cell_setting monoclinic
_symmetry_space_group_name_H-M 'P 21/n'
_symmetry_Int_Tables_number 14
loop_
_symmetry_equiv_pos_site_id
_symmetry_equiv_pos_as_xyz
1 x,y,z
2 1/2-x,1/2+y,1/2-z
3 -x,-y,-z
4 -1/2+x,-1/2-y,-1/2+z
_cell_length_a 13.3352(6)
_cell_length_b 15.0239(7)
_cell_length_c 15.5226(4)
_cell_angle_alpha 90
_cell_angle_beta 97.873(3)
_cell_angle_gamma 90
_cell_formula_units_Z 4
loop_
_atom_type_symbol
_atom_type_radius_bond
C 0.68
H 0.23
N 0.68
O 0.68
P 1.05
U 1.96
loop_
_atom_site_label
_atom_site_type_symbol
_atom_site_fract_x
_atom_site_fract_y
_atom_site_fract_z
U1 U 0.64282(2) 0.25032(2) 0.09130(2)
O1 O 0.6134(2) 0.35487(19) 0.04161(17)
O2 O 0.6743(2) 0.1463(2) 0.14018(17)
O3 O 0.7560(2) 0.3173(2) 0.21147(16)
O4 O 0.5958(2) 0.3019(2) 0.22826(16)
O5 O 0.9632(2) 0.2716(2) 0.59866(19)
O6 O 1.0207(2) 0.3214(2) 0.48163(16)
O7 O 0.7170(2) 0.2037(2) -0.04402(17)
O8 O 0.8219(2) 0.2648(2) 0.0571(2)
O9 O 0.8757(3) 0.2182(3) -0.0613(2)
N1 N 0.8076(3) 0.2294(3) -0.0184(2)
C1 C 0.7111(3) 0.3464(3) 0.3546(2)
C2 C 0.8163(3) 0.3123(3) 0.3930(2)
H1 H 0.81770 0.24650 0.38940
H2 H 0.86770 0.33610 0.35880
C3 C 0.8418(3) 0.3413(3) 0.4882(2)
C4 C 0.7611(3) 0.3055(3) 0.5417(2)
H3 H 0.76060 0.23960 0.54020
H4 H 0.77740 0.32470 0.60300
C5 C 0.6568(3) 0.3411(3) 0.5037(2)
H5 H 0.60460 0.31800 0.53860
C6 C 0.6308(3) 0.3107(3) 0.4090(2)
H6 H 0.56300 0.33330 0.38480
H7 H 0.62910 0.24490 0.40640
C7 C 0.7130(3) 0.4486(3) 0.3583(3)
H8 H 0.64630 0.47260 0.33270
H9 H 0.76490 0.47170 0.32410
C8 C 0.7376(3) 0.4792(3) 0.4540(3)
H10 H 0.73730 0.54570 0.45650
C9 C 0.8416(3) 0.4449(3) 0.4918(3)
H11 H 0.85830 0.46500 0.55280
H12 H 0.89350 0.46880 0.45810
C10 C 0.6579(3) 0.4426(3) 0.5069(3)
H13 H 0.67330 0.46270 0.56800
H14 H 0.59030 0.46580 0.48300
C11 C 0.6875(3) 0.3204(3) 0.2605(2)
C12 C 0.9470(3) 0.3085(3) 0.5247(2)
P1 P 0.30640(8) 0.46494(8) 0.18651(7)
C13 C 0.3530(3) 0.3612(3) 0.2330(3)
H15 H 0.42310 0.35260 0.22260
H16 H 0.31100 0.31240 0.20620
H17 H 0.35020 0.36180 0.29580
C14 C 0.3939(3) 0.5521(3) 0.2205(3)
C15 C 0.4551(3) 0.5494(3) 0.3008(3)
H18 H 0.45440 0.49860 0.33710
C16 C 0.5168(3) 0.6211(3) 0.3274(3)
H19 H 0.55760 0.61940 0.38260
C17 C 0.5198(3) 0.6946(3) 0.2752(3)
H20 H 0.56370 0.74280 0.29370
C18 C 0.4588(3) 0.6984(3) 0.1954(3)
H21 H 0.46000 0.74950 0.15950
C19 C 0.3969(3) 0.6282(3) 0.1685(3)
H22 H 0.35520 0.63110 0.11380
C20 C 0.1871(3) 0.4915(3) 0.2214(3)
C21 C 0.1351(4) 0.4290(3) 0.2632(3)
H23 H 0.16240 0.37110 0.27450
C22 C 0.0424(4) 0.4518(4) 0.2885(4)
H24 H 0.00610 0.40880 0.31680
C23 C 0.0027(3) 0.5356(3) 0.2732(3)
H25 H -0.06120 0.54980 0.29020
C24 C 0.0552(3) 0.5993(3) 0.2333(3)
H26 H 0.02850 0.65770 0.22370
C25 C 0.1475(3) 0.5768(3) 0.2076(3)
H27 H 0.18420 0.62020 0.18010
C26 C 0.2938(3) 0.4581(3) 0.0701(3)
C27 C 0.2018(3) 0.4761(3) 0.0183(3)
H28 H 0.14390 0.49170 0.04450
C28 C 0.1953(4) 0.4712(4) -0.0717(3)
H29 H 0.13310 0.48370 -0.10730
C29 C 0.2800(4) 0.4478(3) -0.1091(3)
H30 H 0.27550 0.44360 -0.17060
C30 C 0.3714(4) 0.4305(3) -0.0577(3)
H31 H 0.42920 0.41520 -0.08410
C31 C 0.3786(3) 0.4356(3) 0.0317(3)
H32 H 0.44130 0.42380 0.06680
U1C U 1.14282(2) 0.24968(2) 0.59130(2)
O5C O 0.4632(2) 0.2284(2) 0.09866(19)
O6C O 0.5207(2) 0.1786(2) -0.01837(16)
#END
