
#######################################################################
#
#                 Cambridge Crystallographic Data Centre
#                                CCDC
#
#######################################################################
#
# If this CIF has been generated from an entry in the Cambridge
# Structural Database, then it will include bibliographic, chemical,
# crystal, experimental, refinement or atomic coordinate data resulting
# from the CCDC's data processing and validation procedures.
#
#######################################################################

data_CSD_CIF_GOTPEN
_audit_creation_date 2019-10-14
_audit_creation_method CSD-ConQuest-V1
_database_code_CSD GOTPEN
_database_code_depnum_ccdc_archive 'CCDC 1950510'
_chemical_formula_sum 'C84 H86 O18 P2 U2'
_chemical_formula_moiety
;
(C36 H42 O16 U2 2-)n,2(C24 H20 P1 1+),2(H2 O1)
;
_journal_coden_Cambridge 1290
_journal_volume 2019
_journal_year 2019
_journal_page_first 4440
_journal_name_full 'Eur.J.Inorg.Chem. '
loop_
_publ_author_name
"P.Thuery"
"Y.Atoini"
"J.Harrowfield"
_chemical_name_systematic
;
catena-[bis(tetraphenylphosphonium) 
tris(\m-adamantane-1,3-dicarboxylato)-tetraoxo-di-uranium dihydrate]
;
_cell_volume   3908.986
_exptl_crystal_colour 'light yellow'
_exptl_crystal_density_diffrn 1.633
_exptl_special_details
;
Absolute configuration

;
_exptl_crystal_description 'lath'
_diffrn_ambient_temperature 100
#These two values have been output from a single CSD field.
_refine_ls_R_factor_gt 0.0359
_refine_ls_wR_factor_gt 0.0359
_symmetry_cell_setting monoclinic
_symmetry_space_group_name_H-M 'P 21'
_symmetry_Int_Tables_number 4
loop_
_symmetry_equiv_pos_site_id
_symmetry_equiv_pos_as_xyz
1 x,y,z
2 -x,1/2+y,-z
_cell_length_a 10.0202(3)
_cell_length_b 18.0979(9)
_cell_length_c 21.7247(10)
_cell_angle_alpha 90
_cell_angle_beta 97.154(3)
_cell_angle_gamma 90
_cell_formula_units_Z 2
loop_
_atom_type_symbol
_atom_type_radius_bond
C 0.68
H 0.23
O 0.68
P 1.05
U 1.96
loop_
_atom_site_label
_atom_site_type_symbol
_atom_site_fract_x
_atom_site_fract_y
_atom_site_fract_z
U1 U 1.06068(3) 0.79395(2) 0.20284(2)
U2 U 1.01565(3) 0.31174(2) 0.29322(2)
O1 O 1.0779(7) 0.7383(4) 0.2691(3)
O2 O 1.0450(6) 0.8494(4) 0.1352(3)
O3 O 1.0252(6) 0.3924(4) 0.3396(3)
O4 O 1.0040(6) 0.2302(4) 0.2471(3)
O5 O 1.1505(5) 0.6898(4) 0.1486(3)
O6 O 0.9316(6) 0.6998(4) 0.1407(3)
O7 O 1.1078(6) 0.3798(4) 0.2116(3)
O8 O 0.8892(6) 0.3814(4) 0.2044(3)
O9 O 0.8168(5) 0.8000(6) 0.2106(3)
O10 O 0.9373(6) 0.8897(4) 0.2542(3)
O11 O 0.2126(6) 0.8835(5) 0.2600(4)
O12 O 0.3093(5) 0.8030(6) 0.2042(3)
O13 O 0.7681(5) 0.3096(6) 0.2996(3)
O14 O 0.8975(5) 0.2480(4) 0.3702(3)
O15 O 0.1727(5) 0.2504(4) 0.3719(3)
O16 O 0.2646(5) 0.3087(6) 0.2991(3)
C1 C 1.0199(8) 0.5871(5) 0.1017(4)
C2 C 1.0137(9) 0.5315(5) 0.1558(4)
H1 H 1.09720 0.53460 0.18530
H2 H 0.93660 0.54340 0.17850
C3 C 0.9974(8) 0.4532(5) 0.1283(4)
C4 C 1.1180(8) 0.4353(5) 0.0936(4)
H3 H 1.20240 0.43860 0.12240
H4 H 1.10970 0.38430 0.07710
C5 C 1.1224(9) 0.4897(6) 0.0404(4)
H5 H 1.20020 0.47740 0.01750
C6 C 1.1410(9) 0.5682(5) 0.0676(4)
H6 H 1.22500 0.57070 0.09680
H7 H 1.14760 0.60430 0.03380
C7 C 0.8888(9) 0.5816(5) 0.0562(4)
H8 H 0.81060 0.59350 0.07810
H9 H 0.89130 0.61770 0.02200
C8 C 0.8743(9) 0.5036(5) 0.0298(4)
H10 H 0.79000 0.50050 0.00010
C9 C 0.8657(8) 0.4480(5) 0.0836(4)
H11 H 0.78800 0.46010 0.10580
H12 H 0.85360 0.39710 0.06690
C10 C 0.9931(9) 0.4853(5) -0.0039(4)
H13 H 0.99700 0.52060 -0.03850
H14 H 0.98240 0.43500 -0.02160
C11 C 1.0348(9) 0.6636(6) 0.1316(4)
C12 C 0.9960(9) 0.4005(6) 0.1843(4)
C13 C 0.7053(8) 0.8886(6) 0.2706(4)
C14 C 0.5713(8) 0.8560(6) 0.2383(4)
H15 H 0.55890 0.87030 0.19400
H16 H 0.57400 0.80140 0.24090
C15 C 0.4539(9) 0.8854(6) 0.2702(5)
C16 C 0.4525(9) 0.9718(6) 0.2657(5)
H17 H 0.44220 0.98700 0.22160
H18 H 0.37540 0.99170 0.28480
C17 C 0.5846(9) 1.0030(6) 0.2993(5)
H19 H 0.58280 1.05820 0.29670
C18 C 0.7016(9) 0.9734(6) 0.2667(5)
H20 H 0.68960 0.98890 0.22260
H21 H 0.78780 0.99400 0.28670
C19 C 0.7241(9) 0.8659(6) 0.3394(5)
H22 H 0.81040 0.88560 0.36010
H23 H 0.72660 0.81130 0.34280
C20 C 0.6056(9) 0.8968(6) 0.3717(5)
H24 H 0.61810 0.88240 0.41650
C21 C 0.4735(9) 0.8641(6) 0.3398(5)
H25 H 0.39720 0.88310 0.36000
H26 H 0.47540 0.80960 0.34400
C22 C 0.6043(9) 0.9800(6) 0.3661(5)
H27 H 0.53060 1.00040 0.38740
H28 H 0.69030 1.00030 0.38660
C23 C 0.8263(9) 0.8574(6) 0.2432(4)
C24 C 0.3197(9) 0.8552(7) 0.2426(5)
C25 C 0.6656(8) 0.2591(5) 0.3859(4)
C26 C 0.5289(7) 0.2712(6) 0.3468(4)
H29 H 0.52380 0.32230 0.33050
H30 H 0.51970 0.23680 0.31100
C27 C 0.4140(8) 0.2580(5) 0.3859(4)
C28 C 0.4218(9) 0.1783(5) 0.4122(5)
H31 H 0.34770 0.17000 0.43760
H32 H 0.41220 0.14220 0.37770
C29 C 0.5567(9) 0.1673(6) 0.4519(5)
H33 H 0.56170 0.11570 0.46850
C30 C 0.6721(9) 0.1793(5) 0.4121(5)
H34 H 0.66420 0.14340 0.37750
H35 H 0.75970 0.17130 0.43770
C31 C 0.6791(8) 0.3132(6) 0.4406(4)
H36 H 0.67410 0.36460 0.42490
H37 H 0.76740 0.30630 0.46590
C32 C 0.5656(8) 0.2994(8) 0.4806(4)
H38 H 0.57550 0.33450 0.51640
C33 C 0.4312(8) 0.3129(6) 0.4413(4)
H39 H 0.42740 0.36430 0.42560
H40 H 0.35710 0.30610 0.46700
C34 C 0.5713(9) 0.2204(8) 0.5051(5)
H41 H 0.65810 0.21190 0.53120
H42 H 0.49800 0.21240 0.53100
C35 C 0.7832(8) 0.2724(5) 0.3495(4)
C36 C 0.2774(8) 0.2722(6) 0.3493(4)
P1 P 0.5058(2) 0.74847(14) 0.01082(11)
C37 C 0.5593(9) 0.8376(5) 0.0419(4)
C38 C 0.4680(9) 0.8947(6) 0.0447(5)
H43 H 0.37570 0.88740 0.02990
C39 C 0.5117(11) 0.9621(6) 0.0691(5)
H44 H 0.44880 1.00110 0.07100
C40 C 0.6449(10) 0.9737(5) 0.0909(5)
H45 H 0.67380 1.02030 0.10780
C41 C 0.7363(10) 0.9170(6) 0.0879(4)
H46 H 0.82850 0.92480 0.10290
C42 C 0.6946(9) 0.8486(6) 0.0631(4)
H47 H 0.75780 0.80990 0.06080
C43 C 0.3295(9) 0.7481(5) -0.0168(4)
C44 C 0.2377(9) 0.7605(5) 0.0261(4)
H48 H 0.26930 0.76940 0.06850
C45 C 0.1017(9) 0.7596(5) 0.0063(4)
H49 H 0.03950 0.76960 0.03490
C46 C 0.0554(10) 0.7443(6) -0.0553(5)
H50 H -0.03850 0.74350 -0.06880
C47 C 0.1464(11) 0.7300(6) -0.0973(5)
H51 H 0.11440 0.71790 -0.13910
C48 C 0.2837(10) 0.7334(6) -0.0783(5)
H52 H 0.34590 0.72560 -0.10730
C49 C 0.5337(9) 0.6784(5) 0.0683(4)
C50 C 0.4828(8) 0.6076(5) 0.0542(4)
H53 H 0.43020 0.59890 0.01540
C51 C 0.5079(9) 0.5501(6) 0.0960(4)
H54 H 0.47180 0.50230 0.08640
C52 C 0.5863(10) 0.5631(5) 0.1520(4)
H55 H 0.60560 0.52350 0.18040
C53 C 0.6368(9) 0.6324(5) 0.1673(4)
H56 H 0.68930 0.64040 0.20620
C54 C 0.6111(8) 0.6903(5) 0.1260(4)
H57 H 0.64580 0.73810 0.13670
C55 C 0.6008(8) 0.7281(5) -0.0526(4)
C56 C 0.6562(8) 0.6582(5) -0.0591(4)
H58 H 0.64910 0.62150 -0.02850
C57 C 0.7214(10) 0.6421(6) -0.1098(5)
H59 H 0.76040 0.59470 -0.11350
C58 C 0.7301(10) 0.6948(6) -0.1553(5)
H60 H 0.77360 0.68350 -0.19050
C59 C 0.6754(11) 0.7634(7) -0.1492(5)
H61 H 0.68220 0.79980 -0.18020
C60 C 0.6102(10) 0.7805(7) -0.0980(5)
H62 H 0.57220 0.82810 -0.09440
P2 P 0.0625(2) 0.11763(13) 0.55398(11)
C61 C 0.0342(8) 0.2153(5) 0.5473(4)
C62 C -0.0393(8) 0.2505(5) 0.5897(4)
H63 H -0.07760 0.22250 0.62000
C63 C -0.0557(8) 0.3262(5) 0.5871(4)
H64 H -0.10460 0.34990 0.61630
C64 C -0.0020(8) 0.3683(5) 0.5429(4)
H65 H -0.01350 0.42050 0.54160
C65 C 0.0701(8) 0.3323(5) 0.4996(4)
H66 H 0.10750 0.36030 0.46900
C66 C 0.0863(8) 0.2568(5) 0.5015(4)
H67 H 0.13300 0.23280 0.47170
C67 C -0.0836(9) 0.0726(5) 0.5759(4)
C68 C -0.1097(10) 0.0765(5) 0.6372(5)
H68 H -0.04890 0.10170 0.66710
C69 C -0.2235(10) 0.0440(6) 0.6548(5)
H69 H -0.24170 0.04750 0.69660
C70 C -0.3108(11) 0.0065(6) 0.6115(5)
H70 H -0.38880 -0.01630 0.62370
C71 C -0.2851(10) 0.0018(5) 0.5500(5)
H71 H -0.34620 -0.02360 0.52040
C72 C -0.1710(9) 0.0340(5) 0.5321(5)
H72 H -0.15220 0.02990 0.49040
C73 C 0.1057(9) 0.0810(5) 0.4821(4)
C74 C 0.0332(9) 0.0997(5) 0.4257(4)
H73 H -0.03570 0.13600 0.42440
C75 C 0.0597(10) 0.0663(6) 0.3718(5)
H74 H 0.00790 0.07900 0.33360
C76 C 0.1608(9) 0.0145(5) 0.3726(5)
H75 H 0.17810 -0.00850 0.33510
C77 C 0.2371(9) -0.0039(5) 0.4281(5)
H76 H 0.30700 -0.03950 0.42860
C78 C 0.2115(9) 0.0295(5) 0.4827(5)
H77 H 0.26510 0.01780 0.52070
C79 C 0.2021(9) 0.0993(5) 0.6129(4)
C80 C 0.2112(11) 0.0312(6) 0.6425(4)
H78 H 0.13930 -0.00330 0.63580
C81 C 0.3274(11) 0.0139(6) 0.6824(5)
H79 H 0.33540 -0.03250 0.70300
C82 C 0.4312(11) 0.0652(7) 0.6917(5)
H80 H 0.51020 0.05400 0.71900
C83 C 0.420(1) 0.1325(6) 0.6614(5)
H81 H 0.49140 0.16720 0.66820
C84 C 0.3066(9) 0.1498(6) 0.6213(4)
H82 H 0.30030 0.19560 0.59990
O17 O 1.3778(8) 0.4477(5) 0.2312(4)
H83 H 1.29420 0.42400 0.22940
H84 H 1.43910 0.41280 0.23860
O18 O 0.6049(7) 0.3695(5) 0.1958(3)
H85 H 0.69410 0.37610 0.19120
H86 H 0.62490 0.34210 0.23340
U1* U 0.06068(3) 0.79395(2) 0.20284(2)
U2* U 0.01565(3) 0.31174(2) 0.29322(2)
O11* O 1.2126(6) 0.8835(5) 0.2600(4)
O12* O 1.3093(5) 0.8030(6) 0.2042(3)
O15* O 1.1727(5) 0.2504(4) 0.3719(3)
O16* O 1.2646(5) 0.3087(6) 0.2991(3)
#END
