
#######################################################################
#
#                 Cambridge Crystallographic Data Centre
#                                CCDC
#
#######################################################################
#
# If this CIF has been generated from an entry in the Cambridge
# Structural Database, then it will include bibliographic, chemical,
# crystal, experimental, refinement or atomic coordinate data resulting
# from the CCDC's data processing and validation procedures.
#
#######################################################################

data_CSD_CIF_GOTPIR
_audit_creation_date 2019-10-14
_audit_creation_method CSD-ConQuest-V1
_database_code_CSD GOTPIR
_database_code_depnum_ccdc_archive 'CCDC 1950511'
_chemical_formula_sum 'C90 H96 O17 P2 U2'
_chemical_formula_moiety
;
(C42 H54 O16 U2 2-)n,2(C24 H20 P1 1+),x(H2 O1)
;
_journal_coden_Cambridge 1290
_journal_volume 2019
_journal_year 2019
_journal_page_first 4440
_journal_name_full 'Eur.J.Inorg.Chem. '
loop_
_publ_author_name
"P.Thuery"
"Y.Atoini"
"J.Harrowfield"
_chemical_name_systematic
;
catena-[bis(tetraphenylphosphonium) 
tris(\m-adamantane-1,3-dicarboxylato)-tetraoxo-di-uranium hydrate]
;
_cell_volume   4049.737
_exptl_crystal_colour 'light yellow'
_exptl_crystal_description 'parallelepiped'
_diffrn_ambient_temperature 100
_refine_special_details
;
Disordered water solvent molecules were not modelled and the disordered 
density was taken into account using the SQUEEZE/PLATON procedure.
;
#These two values have been output from a single CSD field.
_refine_ls_R_factor_gt 0.0283
_refine_ls_wR_factor_gt 0.0283
_symmetry_cell_setting triclinic
_symmetry_space_group_name_H-M 'P -1'
_symmetry_Int_Tables_number 2
loop_
_symmetry_equiv_pos_site_id
_symmetry_equiv_pos_as_xyz
1 x,y,z
2 -x,-y,-z
_cell_length_a 9.9762(3)
_cell_length_b 19.7489(10)
_cell_length_c 21.4665(10)
_cell_angle_alpha 104.360(2)
_cell_angle_beta 91.041(3)
_cell_angle_gamma 98.130(3)
_cell_formula_units_Z 2
loop_
_atom_type_symbol
_atom_type_radius_bond
C 0.68
H 0.23
O 0.68
P 1.05
U 1.96
loop_
_atom_site_label
_atom_site_type_symbol
_atom_site_fract_x
_atom_site_fract_y
_atom_site_fract_z
U1 U 0.66461(2) 0.24616(2) 0.89806(2)
U2 U 0.31188(2) -0.24330(2) 0.54268(2)
O1 O 0.7172(3) 0.18911(11) 0.82889(11)
O2 O 0.6118(3) 0.30321(10) 0.96712(11)
O3 O 0.2588(3) -0.18270(12) 0.50184(12)
O4 O 0.3648(3) -0.30302(12) 0.58445(12)
O5 O 0.6885(3) 0.15585(12) 0.95780(12)
O6 O 0.4922(3) 0.14749(11) 0.90708(11)
O7 O 0.4654(3) -0.14208(13) 0.61166(13)
O8 O 0.2586(3) -0.16570(16) 0.64346(13)
O9 O 0.4403(2) 0.24764(11) 0.84635(11)
O10 O 0.6097(2) 0.32321(11) 0.83136(11)
O11 O -0.1435(2) 0.33735(12) 0.89813(12)
O12 O -0.1097(3) 0.26408(11) 0.95590(12)
O13 O 0.0797(3) -0.27421(13) 0.57407(13)
O14 O 0.1392(2) -0.34216(12) 0.48585(11)
O15 O -0.6206(3) -0.30753(11) 0.43880(11)
O16 O -0.4570(2) -0.23524(11) 0.50066(11)
C1 C 0.5672(4) -0.01002(16) 0.87783(16)
C2 C 0.4742(4) -0.00816(17) 0.82153(17)
H1 H 0.49320 0.03890 0.81230
H2 H 0.37870 -0.01540 0.83320
C3 C 0.4947(4) -0.06610(16) 0.76047(17)
C4 C 0.4693(5) -0.13823(18) 0.7767(2)
H3 H 0.37500 -0.14710 0.78960
H4 H 0.48100 -0.17600 0.73810
C5 C 0.5684(6) -0.13996(19) 0.83165(19)
H5 H 0.55330 -0.18750 0.84100
C6 C 0.5404(6) -0.08217(17) 0.89188(19)
H6 H 0.44500 -0.09190 0.90310
H7 H 0.59980 -0.08300 0.92900
C7 C 0.7138(4) 0.0041(2) 0.85883(17)
H8 H 0.73200 0.05130 0.84980
H9 H 0.77730 0.00330 0.89450
C8 C 0.7343(5) -0.0533(2) 0.7987(2)
H10 H 0.82970 -0.04360 0.78600
C9 C 0.6403(4) -0.05399(19) 0.74337(17)
H11 H 0.65590 -0.09190 0.70560
H12 H 0.65930 -0.00830 0.73160
C10 C 0.7138(5) -0.1233(3) 0.8130(2)
H13 H 0.77770 -0.12340 0.84880
H14 H 0.73180 -0.16000 0.77470
C11 C 0.5392(4) 0.04493(15) 0.93959(16)
H15 H 0.44220 0.03570 0.94840
H16 H 0.59310 0.03880 0.97640
C12 C 0.5733(4) 0.12030(17) 0.93479(17)
C13 C 0.3981(5) -0.0609(2) 0.7064(2)
H17 H 0.31000 -0.05160 0.72450
H18 H 0.43540 -0.02000 0.68980
C14 C 0.3733(5) -0.1265(2) 0.6505(2)
C15 C 0.3208(3) 0.39238(16) 0.84792(15)
C16 C 0.2181(3) 0.35447(15) 0.88528(15)
H19 H 0.26520 0.32640 0.90850
H20 H 0.14840 0.32160 0.85470
C17 C 0.1490(3) 0.40841(16) 0.93391(15)
C18 C 0.0780(4) 0.45230(16) 0.89865(16)
H21 H 0.03400 0.48690 0.93000
H22 H 0.00650 0.42110 0.86790
C19 C 0.1794(3) 0.49147(16) 0.86217(15)
H23 H 0.13120 0.51950 0.83860
C20 C 0.2464(3) 0.43692(16) 0.81423(15)
H24 H 0.17610 0.40550 0.78300
H25 H 0.31140 0.46170 0.79000
C21 C 0.4304(3) 0.44261(16) 0.89702(15)
H26 H 0.47750 0.41480 0.92060
H27 H 0.49850 0.46700 0.87390
C22 C 0.3629(4) 0.49721(15) 0.94474(15)
H28 H 0.43370 0.52950 0.97600
C23 C 0.2600(3) 0.45852(16) 0.98146(15)
H29 H 0.21770 0.49350 1.01320
H30 H 0.30730 0.43090 1.00510
C24 C 0.2892(4) 0.54065(16) 0.90922(16)
H31 H 0.24760 0.57630 0.94060
H32 H 0.35470 0.56580 0.88540
C25 C 0.3882(4) 0.33914(17) 0.79763(16)
H33 H 0.31620 0.30350 0.77100
H34 H 0.43800 0.36470 0.76880
C26 C 0.4850(4) 0.30124(16) 0.82586(15)
C27 C 0.0523(3) 0.36924(16) 0.97400(15)
H35 H 0.10600 0.34120 0.99430
H36 H 0.02120 0.40540 1.00920
C28 C -0.0710(4) 0.32077(17) 0.93973(17)
C29 C -0.1617(4) -0.41225(17) 0.47789(17)
C30 C -0.2301(3) -0.34996(15) 0.46902(15)
H37 H -0.27330 -0.32960 0.50920
H38 H -0.16040 -0.31270 0.46080
C31 C -0.3371(4) -0.37305(16) 0.41315(15)
C32 C -0.4465(4) -0.43009(16) 0.42719(17)
H39 H -0.51600 -0.44620 0.39100
H40 H -0.49170 -0.41000 0.46680
C33 C -0.3796(4) -0.49329(17) 0.43596(17)
H41 H -0.45060 -0.52970 0.44580
C34 C -0.2720(4) -0.46922(18) 0.49099(18)
H42 H -0.23010 -0.51020 0.49610
H43 H -0.31450 -0.44980 0.53160
C35 C -0.0970(4) -0.44454(17) 0.41391(16)
H44 H -0.02730 -0.40850 0.40380
H45 H -0.05220 -0.48470 0.41880
C36 C -0.2062(4) -0.47007(17) 0.35894(17)
H46 H -0.16380 -0.49100 0.31810
C37 C -0.2697(4) -0.40673(17) 0.35124(15)
H47 H -0.33850 -0.42200 0.31480
H48 H -0.19880 -0.37110 0.34130
C38 C -0.3151(4) -0.52569(17) 0.37373(18)
H49 H -0.38520 -0.54200 0.33780
H50 H -0.27390 -0.56700 0.37860
C39 C -0.0578(4) -0.38795(18) 0.53524(17)
H51 H -0.10620 -0.37000 0.57440
H52 H -0.01960 -0.42980 0.54100
C40 C 0.0585(4) -0.33163(19) 0.53107(18)
C41 C -0.3987(4) -0.31018(17) 0.40021(16)
H53 H -0.32420 -0.27150 0.39960
H54 H -0.44640 -0.32520 0.35710
C42 C -0.4967(4) -0.28199(17) 0.44934(16)
P1 P 0.11531(9) 0.08599(4) 0.67973(4)
C43 C 0.0355(3) 0.16097(16) 0.67505(16)
C44 C 0.0453(4) 0.18297(17) 0.61820(16)
H55 H 0.10200 0.16250 0.58600
C45 C -0.0267(3) 0.23407(16) 0.60852(17)
H56 H -0.02140 0.24790 0.56920
C46 C -0.1068(4) 0.26545(17) 0.65576(18)
H57 H -0.15560 0.30130 0.64930
C47 C -0.1156(4) 0.24457(18) 0.71202(19)
H58 H -0.17040 0.26650 0.74440
C48 C -0.0463(4) 0.19226(17) 0.72255(17)
H59 H -0.05430 0.17780 0.76150
C49 C 0.0130(3) 0.00960(16) 0.62843(15)
C50 C -0.1264(4) 0.00843(17) 0.62339(16)
H60 H -0.16410 0.04930 0.64400
C51 C -0.2111(4) -0.05105(17) 0.58887(16)
H61 H -0.30640 -0.05140 0.58640
C52 C -0.1559(4) -0.11055(17) 0.55769(16)
H62 H -0.21330 -0.15160 0.53370
C53 C -0.0175(4) -0.10961(17) 0.56178(17)
H63 H 0.02010 -0.15000 0.53980
C54 C 0.0679(4) -0.05023(16) 0.59767(16)
H64 H 0.16290 -0.05050 0.60110
C55 C 0.2848(4) 0.09746(16) 0.65299(16)
C56 C 0.3095(4) 0.08243(16) 0.58779(16)
H65 H 0.23730 0.06130 0.55650
C57 C 0.4394(4) 0.09832(18) 0.56849(18)
H66 H 0.45560 0.08850 0.52390
C58 C 0.5458(4) 0.12834(18) 0.61346(17)
H67 H 0.63460 0.13940 0.59990
C59 C 0.5221(4) 0.14228(18) 0.67864(18)
H68 H 0.59500 0.16240 0.70980
C60 C 0.3926(4) 0.12703(17) 0.69842(17)
H69 H 0.37690 0.13670 0.74310
C61 C 0.1193(4) 0.07705(17) 0.76068(16)
C62 C 0.1612(4) 0.1363(2) 0.81156(17)
H70 H 0.18440 0.18160 0.80350
C63 C 0.1688(5) 0.1288(2) 0.87371(19)
H71 H 0.19780 0.16890 0.90840
C64 C 0.1347(4) 0.0639(2) 0.88539(19)
H72 H 0.13850 0.05960 0.92850
C65 C 0.0947(4) 0.0041(2) 0.83547(19)
H73 H 0.07380 -0.04110 0.84400
C66 C 0.0856(4) 0.01136(19) 0.77244(17)
H74 H 0.05620 -0.02880 0.73780
P2 P 0.11292(9) 0.34733(4) 0.21015(4)
C67 C 0.1633(3) 0.44166(15) 0.23451(15)
C68 C 0.1705(3) 0.47940(16) 0.18726(17)
H75 H 0.14390 0.45580 0.14370
C69 C 0.2163(4) 0.55091(17) 0.20423(18)
H76 H 0.22450 0.57660 0.17210
C70 C 0.2504(4) 0.58552(17) 0.26830(18)
H77 H 0.28540 0.63450 0.27970
C71 C 0.2339(4) 0.54946(17) 0.31551(18)
H78 H 0.25160 0.57440 0.35950
C72 C 0.1918(4) 0.47717(17) 0.29943(17)
H79 H 0.18240 0.45200 0.33190
C73 C -0.0686(4) 0.32779(15) 0.19642(17)
C74 C -0.1306(4) 0.30907(17) 0.13447(18)
H80 H -0.07700 0.30320 0.09790
C75 C -0.2692(4) 0.29929(19) 0.1268(2)
H81 H -0.31200 0.28700 0.08480
C76 C -0.3478(4) 0.30728(17) 0.1805(2)
H82 H -0.44390 0.29960 0.17500
C77 C -0.2866(4) 0.32607(18) 0.2408(2)
H83 H -0.34100 0.33190 0.27710
C78 C -0.1479(4) 0.33678(17) 0.25032(18)
H84 H -0.10650 0.35000 0.29260
C79 C 0.1954(4) 0.31147(16) 0.13771(15)
C80 C 0.1482(4) 0.24240(17) 0.10322(16)
H85 H 0.06940 0.21670 0.11520
C81 C 0.2182(4) 0.21187(18) 0.05123(17)
H86 H 0.18720 0.16450 0.02790
C82 C 0.3316(4) 0.24848(17) 0.03237(16)
H87 H 0.37700 0.22700 -0.00420
C83 C 0.3785(4) 0.31670(18) 0.06731(16)
H88 H 0.45720 0.34220 0.05490
C84 C 0.3120(3) 0.34812(17) 0.12004(16)
H89 H 0.34580 0.39480 0.14430
C85 C 0.1708(4) 0.30862(16) 0.27081(15)
C86 C 0.0893(4) 0.25512(17) 0.29098(16)
H90 H -0.00240 0.24070 0.27500
C87 C 0.1430(5) 0.22333(18) 0.33435(17)
H91 H 0.08800 0.18700 0.34800
C88 C 0.2760(4) 0.24425(19) 0.35779(17)
H92 H 0.31210 0.22210 0.38750
C89 C 0.3570(4) 0.2969(2) 0.33853(17)
H93 H 0.44830 0.31140 0.35500
C90 C 0.3033(4) 0.32894(18) 0.29437(17)
H94 H 0.35890 0.36500 0.28060
U1* U -0.33539(2) 0.24616(2) 0.89806(2)
U2* U -0.68812(2) -0.24330(2) 0.54268(2)
O11* O 0.8565(2) 0.33735(12) 0.89813(12)
O12* O 0.8903(3) 0.26408(11) 0.95590(12)
O15* O 0.3794(3) -0.30753(11) 0.43880(11)
O16* O 0.5430(2) -0.23524(11) 0.50066(11)
#END
