
#######################################################################
#
#                 Cambridge Crystallographic Data Centre
#                                CCDC
#
#######################################################################
#
# If this CIF has been generated from an entry in the Cambridge
# Structural Database, then it will include bibliographic, chemical,
# crystal, experimental, refinement or atomic coordinate data resulting
# from the CCDC's data processing and validation procedures.
#
#######################################################################

data_CSD_CIF_GOVKUA
_audit_creation_date 2019-10-14
_audit_creation_method CSD-ConQuest-V1
_database_code_CSD GOVKUA
_database_code_depnum_ccdc_archive 'CCDC 1009731'
_chemical_formula_sum 'C6 H21.9 K1.51 N0.49 O15.97 P2 Zn2'
_chemical_formula_moiety
;
(C3 H4 O5 P1 Zn1 1-)2n,1.51(K1 1+),5.97(H2 O1),0.49(H4 N1 1+)
;
_journal_coden_Cambridge 1220
_journal_volume 25
_journal_year 2019
_journal_page_first 13865
_journal_name_full 'Chem.-Eur.J. '
loop_
_publ_author_name
"Chao Zhao"
"L.Male"
"Tzu-Yu Chen"
"J.A.Barker"
"I.J.Shannon"
"P.A.Anderson"
_chemical_name_systematic
;
catena-[ammonium potassium bis((\m-3-phosphonatopropanoato)-zinc) hydrate]
;
_cell_volume   8771.271
_exptl_crystal_colour 'colorless'
_exptl_crystal_density_diffrn 1.842
_exptl_crystal_description 'Needle'
_diffrn_ambient_temperature 100
_refine_special_details
;
N201,O01',O02',O03',O04',O05' and K101,K201,O101,O102,O12' disordered over 
two sites with occupancies 
0.49,0.44,0.43,0.189,0.24,0.20:0.420,0.337,0.420,0.28,0.15.
;
#These two values have been output from a single CSD field.
_refine_ls_R_factor_gt 0.089
_refine_ls_wR_factor_gt 0.089
_symmetry_cell_setting tetragonal
_symmetry_space_group_name_H-M 'I 41/a c d'
_symmetry_Int_Tables_number 142
loop_
_symmetry_equiv_pos_site_id
_symmetry_equiv_pos_as_xyz
1 x,y,z
2 1/2-x,-y,1/2+z
3 1/4-y,3/4+x,1/4+z
4 1/4+y,1/4-x,3/4+z
5 1/2-x,y,-z
6 x,-y,1/2-z
7 1/4+y,3/4+x,3/4-z
8 1/4-y,1/4-x,1/4-z
9 1/2+x,1/2+y,1/2+z
10 -x,1/2-y,z
11 3/4-y,1/4+x,3/4+z
12 3/4+y,3/4-x,1/4+z
13 -x,1/2+y,1/2-z
14 1/2+x,1/2-y,-z
15 3/4+y,1/4+x,1/4-z
16 3/4-y,3/4-x,3/4-z
17 -x,-y,-z
18 -1/2+x,y,-1/2-z
19 -1/4+y,-3/4-x,-1/4-z
20 -1/4-y,-1/4+x,-3/4-z
21 -1/2+x,-y,z
22 -x,y,-1/2+z
23 -1/4-y,-3/4-x,-3/4+z
24 -1/4+y,-1/4+x,-1/4+z
25 -1/2-x,-1/2-y,-1/2-z
26 x,-1/2+y,-z
27 -3/4+y,-1/4-x,-3/4-z
28 -3/4-y,-3/4+x,-1/4-z
29 x,-1/2-y,-1/2+z
30 -1/2-x,-1/2+y,z
31 -3/4-y,-1/4-x,-1/4+z
32 -3/4+y,-3/4+x,-3/4+z
_cell_length_a 22.153(9)
_cell_length_b 22.153(9)
_cell_length_c 17.873(10)
_cell_angle_alpha 90
_cell_angle_beta 90
_cell_angle_gamma 90
_cell_formula_units_Z 16
loop_
_atom_type_symbol
_atom_type_radius_bond
C 0.68
H 0.23
K 2.03
N 0.68
O 0.68
P 1.05
Zn 1.22
loop_
_atom_site_label
_atom_site_type_symbol
_atom_site_fract_x
_atom_site_fract_y
_atom_site_fract_z
C1 C 0.3056(5) 0.2335(4) 0.1666(5)
C2 C 0.3022(4) 0.3013(4) 0.1777(5)
H1 H 0.30600 0.32100 0.12820
H2 H 0.26170 0.31130 0.19760
C3 C 0.3491(5) 0.3281(4) 0.2294(5)
H3 H 0.38940 0.32530 0.20570
H4 H 0.35020 0.30470 0.27660
O1 O 0.3855(3) 0.4308(3) 0.2943(3)
O2 O 0.2724(3) 0.4092(3) 0.2932(3)
O3 O 0.3245(3) 0.4385(3) 0.1749(3)
O4 O 0.2670(4) 0.2137(3) 0.1221(4)
O5 O 0.3420(3) 0.2010(3) 0.2013(4)
P1 P 0.33236(11) 0.40606(11) 0.24987(11)
Zn1 Zn 0.24982(5) 0.12828(4) 0.11260(5)
K1 K 0.3236(5) 0.2580(3) -0.0250(3)
O6 O 0.4815(14) 0.3473(14) 0.3251(16)
O7 O 0.5595(9) 0.3739(9) 0.3083(11)
O8 O 0.544(2) 0.50000 0.25000
O9 O 0.6397(7) 0.4172(7) 0.2598(8)
O10 O 0.5289(13) 0.2840(14) 0.1947(16)
N1 N 0.2060(6) 0.4560(6) 0.12500
O11 O 0.50000 0.25000 0.37500
O12? O 0.5339(12) 0.3238(19) 0.1999(19)
O13? O 0.5455(18) 0.3584(18) 0.405(2)
O14? O 0.584(2) 0.405(2) 0.408(3)
K2? K 0.2339(4) 0.4557(4) 0.0657(7)
O1W O 0.1808(3) 0.1355(3) 0.0443(3)
O2X O 0.2276(3) 0.0908(3) 0.2068(3)
O3S O 0.3115(3) 0.0745(3) 0.0751(3)
Zn1X Zn 0.25018(5) 0.37172(4) 0.38740(5)
Zn1Z Zn 0.37828(5) 0.50018(4) 0.13740(5)
Zn1EA Zn 0.37828(5) 0.49982(4) 0.36260(5)
#END
