
#######################################################################
#
#                 Cambridge Crystallographic Data Centre
#                                CCDC
#
#######################################################################
#
# If this CIF has been generated from an entry in the Cambridge
# Structural Database, then it will include bibliographic, chemical,
# crystal, experimental, refinement or atomic coordinate data resulting
# from the CCDC's data processing and validation procedures.
#
#######################################################################

data_CSD_CIF_GOXHEJ
_audit_creation_date 2019-10-15
_audit_creation_method CSD-ConQuest-V1
_database_code_CSD GOXHEJ
_database_code_depnum_ccdc_archive 'CCDC 1906864'
_chemical_formula_sum 'C42 H48 N12 O10 Zn2'
_chemical_formula_moiety
;
(C32 H18 N8 O8 Zn2 2-)n,2(C3 H7 N1 O1),2(C2 H8 N1 1+)
;
_journal_coden_Cambridge 1147
_journal_volume 19
_journal_year 2019
_journal_page_first 6308
_journal_name_full 'Cryst.Growth Des. '
loop_
_publ_author_name
"Xiaodie Zhang"
"Guojian Ren"
"Meiling Li"
"Weiting Yang"
"Qinhe Pan"
_chemical_name_systematic
;
catena-[bis(dimethylammonium) 
(\m-4,4',4'',4'''-(ethene-1,1,2,2-tetrayl)tetrabenzoato)-bis(\m-tetrazolato)-d
i-zinc N,N-dimethylformamide solvate]
;
_cell_volume   4711.344
_exptl_crystal_colour 'pale yellow'
_exptl_crystal_density_diffrn 1.426
_exptl_crystal_description 'block'
_diffrn_ambient_temperature 150
#These two values have been output from a single CSD field.
_refine_ls_R_factor_gt 0.0363
_refine_ls_wR_factor_gt 0.0363
_symmetry_cell_setting orthorhombic
_symmetry_space_group_name_H-M 'P c c n'
_symmetry_Int_Tables_number 56
loop_
_symmetry_equiv_pos_site_id
_symmetry_equiv_pos_as_xyz
1 x,y,z
2 1/2-x,1/2-y,z
3 1/2+x,-y,1/2-z
4 -x,1/2+y,1/2-z
5 -x,-y,-z
6 -1/2+x,-1/2+y,-z
7 -1/2-x,y,-1/2+z
8 x,-1/2-y,-1/2+z
_cell_length_a 18.900(4)
_cell_length_b 24.784(5)
_cell_length_c 10.058(2)
_cell_angle_alpha 90
_cell_angle_beta 90
_cell_angle_gamma 90
_cell_formula_units_Z 4
loop_
_atom_type_symbol
_atom_type_radius_bond
C 0.68
H 0.23
N 0.68
O 0.68
Zn 1.22
loop_
_atom_site_label
_atom_site_type_symbol
_atom_site_fract_x
_atom_site_fract_y
_atom_site_fract_z
Zn1 Zn 0.163194(14) 0.908498(10) 0.26537(3)
O1 O 0.07526(9) 0.86977(7) 0.27701(18)
C1 C -0.23918(12) 0.64852(9) 0.2438(2)
H1 H -0.27440 0.66400 0.19160
O2 O 0.02548(9) 0.92463(7) 0.42708(18)
O3 O -0.11424(11) 0.48914(7) 0.3743(2)
O4 O -0.18939(10) 0.48509(7) 0.20658(18)
N1 N 0.21279(11) 0.88373(8) 0.0997(2)
C2 C -0.14535(12) 0.81403(9) 0.4551(2)
H2 H -0.17990 0.81710 0.52050
C3 C -0.09874(12) 0.76945(9) 0.2626(2)
H3 H -0.10150 0.74240 0.19870
N2 N 0.27740(11) 0.88225(8) -0.0791(2)
C4 C -0.08755(12) 0.84846(9) 0.4575(2)
H4 H -0.08360 0.87430 0.52420
C5 C -0.15272(11) 0.77488(9) 0.3563(2)
C6 C -0.21690(11) 0.73952(8) 0.3487(2)
C7 C -0.03555(12) 0.84451(9) 0.3607(2)
C8 C -0.13405(13) 0.60218(9) 0.3972(3)
H5 H -0.09870 0.58670 0.44900
C9 C -0.14903(12) 0.65642(9) 0.4106(2)
H6 H -0.12320 0.67720 0.47030
C10 C -0.04116(12) 0.80397(9) 0.2641(2)
H7 H -0.00580 0.80020 0.20040
C11 C -0.17127(12) 0.57034(9) 0.3072(2)
C12 C -0.20251(11) 0.68042(9) 0.3356(2)
C13 C -0.22368(12) 0.59413(9) 0.2297(2)
H8 H -0.24840 0.57340 0.16810
C14 C 0.02626(12) 0.88315(9) 0.3573(2)
N3 N 0.28103(16) 0.83376(9) -0.0187(2)
C15 C -0.15586(13) 0.51108(10) 0.2962(3)
C16 C 0.23441(14) 0.9113(1) -0.0046(2)
N4 N 0.24250(16) 0.83484(9) 0.0878(3)
H9 H 0.2214(16) 0.9467(13) -0.025(3)
O5 O 0.04031(18) 0.88818(12) 0.7545(3)
N5 N 0.09139(14) 0.80869(10) 0.8093(3)
C17 C 0.1386(2) 0.76481(13) 0.7736(4)
H10 H 0.15460 0.76960 0.68380
H11 H 0.11380 0.73110 0.78090
H12 H 0.17850 0.76470 0.83260
C18 C 0.0620(2) 0.80876(16) 0.9422(3)
H13 H 0.03680 0.84190 0.95680
H14 H 0.09950 0.80560 1.00600
H15 H 0.03010 0.77890 0.95180
C19 C 0.0769(2) 0.84813(15) 0.7271(4)
H16 H 0.09550 0.84600 0.64170
N6 N 0.94116(13) 1.00740(12) 0.3149(3)
C20 C 0.94103(19) 0.98616(18) 0.1776(3)
H17 H 0.92280 0.95000 0.17760
H18 H 0.98850 0.98610 0.14350
H19 H 0.91180 1.00860 0.12260
C21 C 0.87158(17) 1.00283(15) 0.3784(3)
H20 H 0.83770 1.02370 0.32920
H21 H 0.87430 1.01610 0.46780
H22 H 0.85720 0.96570 0.37960
H23 H 0.9730(19) 0.9870(15) 0.366(4)
H24 H 0.953(2) 1.0465(17) 0.308(4)
O1A O -0.57526(9) 0.63023(7) 0.27701(18)
O2A O -0.52548(9) 0.57537(7) 0.42708(18)
C2A C -0.35465(12) 0.68597(9) 0.4551(2)
H2A H -0.32010 0.68290 0.52050
C3A C -0.40126(12) 0.73055(9) 0.2626(2)
H3A H -0.39850 0.75760 0.19870
C4A C -0.41245(12) 0.65154(9) 0.4575(2)
H4A H -0.41640 0.62570 0.52420
C5A C -0.34728(11) 0.72512(9) 0.3563(2)
C6A C -0.28310(11) 0.76048(8) 0.3487(2)
C7A C -0.46445(12) 0.65549(9) 0.3607(2)
C10A C -0.45884(12) 0.69603(9) 0.2641(2)
H7A H -0.49420 0.69980 0.20040
C14A C -0.52626(12) 0.61685(9) 0.3573(2)
C1A C -0.26082(12) 0.85148(9) 0.2438(2)
H1A H -0.22560 0.83600 0.19160
O3A O -0.38576(11) 1.01086(7) 0.3743(2)
O4A O -0.31061(10) 1.01491(7) 0.20658(18)
C8A C -0.36595(13) 0.89782(9) 0.3972(3)
H5A H -0.40130 0.91330 0.44900
C9A C -0.35097(12) 0.84358(9) 0.4106(2)
H6A H -0.37680 0.82280 0.47030
C11A C -0.32873(12) 0.92966(9) 0.3072(2)
C12A C -0.29749(11) 0.81958(9) 0.3356(2)
C13A C -0.27632(12) 0.90587(9) 0.2297(2)
H8A H -0.25160 0.92660 0.16810
C15A C -0.34414(13) 0.98892(10) 0.2962(3)
Zn1A Zn -0.663194(14) 0.591502(10) 0.26537(3)
N1A N -0.71279(11) 0.61627(8) 0.0997(2)
N2A N -0.77740(11) 0.61775(8) -0.0791(2)
N3A N -0.78103(16) 0.66624(9) -0.0187(2)
C16A C -0.73441(14) 0.5887(1) -0.0046(2)
N4A N -0.74250(16) 0.66516(9) 0.0878(3)
H9A H -0.7214(16) 0.5533(13) -0.025(3)
Zn1B Zn -0.336806(14) 1.091502(10) 0.23463(3)
Zn1C Zn -0.163194(14) 0.408498(10) 0.23463(3)
Zn1F Zn 0.336806(14) 0.908498(10) -0.23463(3)
Zn1G Zn -0.836806(14) 0.591502(10) -0.23463(3)
O4B O -0.68939(10) 0.51491(7) 0.29342(18)
O4C O 0.18939(10) 0.98509(7) 0.29342(18)
N2F N 0.22260(11) 0.88225(8) 0.4209(2)
N2G N -0.72260(11) 0.61775(8) 0.4209(2)
#END
