
#######################################################################
#
#                 Cambridge Crystallographic Data Centre
#                                CCDC
#
#######################################################################
#
# If this CIF has been generated from an entry in the Cambridge
# Structural Database, then it will include bibliographic, chemical,
# crystal, experimental, refinement or atomic coordinate data resulting
# from the CCDC's data processing and validation procedures.
#
#######################################################################

data_CSD_CIF_GOYPAN
_audit_creation_date 2014-12-08
_audit_creation_method CSD-ConQuest-V1
_database_code_CSD GOYPAN
_database_code_depnum_ccdc_archive 'CCDC 1001377'
_chemical_formula_sum 'C4 H8 Co1 N2 O6'
_chemical_formula_moiety
;
(C3 H3 Co1 O6 1-)n,C1 H5 N2 1+
;
_journal_coden_Cambridge 580
_journal_volume 85
_journal_year 2015
_journal_page_first 137
_journal_name_full 'Polyhedron '
loop_
_publ_author_name
"A.Ciupa"
"M.Maczka"
"A.Gagor"
"A.Pikul"
"E.Kucharska"
"J.Hanuza"
"A.Sieradzki"
_chemical_name_systematic
;
catena-[aminomethaniminium tris(\m~2~-formato)-cobalt]
;
_cell_volume    839.331
_exptl_crystal_colour 'pink'
_exptl_crystal_density_diffrn 1.892
_diffrn_ambient_temperature 295
#These two values have been output from a single CSD field.
_refine_ls_R_factor_gt 0.0165
_refine_ls_wR_factor_gt 0.0165
_symmetry_cell_setting orthorhombic
_symmetry_space_group_name_H-M 'P n n a'
_symmetry_Int_Tables_number 52
loop_
_symmetry_equiv_pos_site_id
_symmetry_equiv_pos_as_xyz
1 x,y,z
2 1/2-x,-y,z
3 1/2-x,1/2+y,1/2-z
4 x,1/2-y,1/2-z
5 -x,-y,-z
6 -1/2+x,y,-z
7 -1/2+x,-1/2-y,-1/2+z
8 -x,-1/2+y,-1/2+z
_cell_length_a 8.7238(2)
_cell_length_b 11.6272(3)
_cell_length_c 8.2747(2)
_cell_angle_alpha 90
_cell_angle_beta 90
_cell_angle_gamma 90
_cell_formula_units_Z 4
loop_
_atom_type_symbol
_atom_type_radius_bond
C 0.68
H 0.23
Co 1.26
N 0.68
O 0.68
loop_
_atom_site_label
_atom_site_type_symbol
_atom_site_fract_x
_atom_site_fract_y
_atom_site_fract_z
Co1 Co 0.23720(2) 0.25000 0.25000
O1 O 0.58387(9) 0.32227(7) 0.58900(9)
O2 O 0.23808(8) 0.09475(7) 0.38367(9)
O3 O 0.41236(9) 0.31689(7) 0.39500(9)
C1 C 0.25000 0.00000 0.3143(2)
H1 H 0.25000 0.00000 0.20190
C2 C 0.47015(13) 0.28001(10) 0.52253(13)
H2 H 0.4220(13) 0.2123(9) 0.5711(13)
C3 C 0.75000 0.50000 0.2963(3)
H3 H 0.75000 0.50000 0.40870
N1 N 0.64941(16) 0.43705(11) 0.22274(15)
H4 H 0.585(2) 0.4010(12) 0.2784(17)
H5 H 0.6572(18) 0.4288(13) 0.1210(17)
O2A O 0.26192(8) -0.09475(7) 0.38367(9)
O1E O 0.08387(9) 0.32227(7) 0.41100(9)
O3E O -0.08764(9) 0.31689(7) 0.60500(9)
C2E C -0.02985(13) 0.28001(10) 0.47747(13)
H2E H -0.0780(13) 0.2123(9) 0.4289(13)
Co1A Co 0.26280(2) -0.25000 0.25000
Co1E Co -0.26280(2) 0.25000 0.75000
Co1E* Co 0.73720(2) 0.25000 0.75000
O1F O 0.08387(9) 0.17773(7) 0.08900(9)
O2C O 0.23808(8) 0.40525(7) 0.11633(9)
O3C O 0.41236(9) 0.18311(7) 0.10500(9)
N1A N 0.85059(16) 0.56295(11) 0.22274(15)
H4A H 0.915(2) 0.5990(12) 0.2784(17)
H5A H 0.8428(18) 0.5712(13) 0.1210(17)
#END
