
#######################################################################
#
#                 Cambridge Crystallographic Data Centre
#                                CCDC
#
#######################################################################
#
# If this CIF has been generated from an entry in the Cambridge
# Structural Database, then it will include bibliographic, chemical,
# crystal, experimental, refinement or atomic coordinate data resulting
# from the CCDC's data processing and validation procedures.
#
#######################################################################

data_CSD_CIF_GOYPER
_audit_creation_date 2014-12-08
_audit_creation_method CSD-ConQuest-V1
_database_code_CSD GOYPER
_database_code_depnum_ccdc_archive 'CCDC 1001378'
_chemical_formula_sum 'C4 H8 Fe1 N2 O6'
_chemical_formula_moiety
;
(C3 H3 Fe1 O6 1-)n,C1 H5 N2 1+
;
_journal_coden_Cambridge 580
_journal_volume 85
_journal_year 2015
_journal_page_first 137
_journal_name_full 'Polyhedron '
loop_
_publ_author_name
"A.Ciupa"
"M.Maczka"
"A.Gagor"
"A.Pikul"
"E.Kucharska"
"J.Hanuza"
"A.Sieradzki"
_chemical_name_systematic
;
catena-[aminomethaniminium tris(\m~2~-formato)-iron]
;
_cell_volume    862.089
_exptl_crystal_colour 'grey'
_exptl_crystal_density_diffrn 1.818
_diffrn_ambient_temperature 294
#These two values have been output from a single CSD field.
_refine_ls_R_factor_gt 0.0182
_refine_ls_wR_factor_gt 0.0182
_symmetry_cell_setting orthorhombic
_symmetry_space_group_name_H-M 'P n n a'
_symmetry_Int_Tables_number 52
loop_
_symmetry_equiv_pos_site_id
_symmetry_equiv_pos_as_xyz
1 x,y,z
2 1/2-x,-y,z
3 1/2-x,1/2+y,1/2-z
4 x,1/2-y,1/2-z
5 -x,-y,-z
6 -1/2+x,y,-z
7 -1/2+x,-1/2-y,-1/2+z
8 -x,-1/2+y,-1/2+z
_cell_length_a 8.8246(2)
_cell_length_b 11.7336(3)
_cell_length_c 8.3258(2)
_cell_angle_alpha 90
_cell_angle_beta 90
_cell_angle_gamma 90
_cell_formula_units_Z 4
loop_
_atom_type_symbol
_atom_type_radius_bond
C 0.68
H 0.23
Fe 1.52
N 0.68
O 0.68
loop_
_atom_site_label
_atom_site_type_symbol
_atom_site_fract_x
_atom_site_fract_y
_atom_site_fract_z
Fe1 Fe 0.23846(2) 0.25000 0.25000
O1 O 0.58295(10) 0.32212(7) 0.58916(10)
O2 O 0.23851(8) 0.09409(7) 0.38752(9)
O3 O 0.41520(9) 0.31665(7) 0.39495(10)
C1 C 0.25000 0.00000 0.3191(2)
H1 H 0.25000 0.00000 0.20740
C2 C 0.46995(14) 0.28163(10) 0.52333(14)
H2 H 0.4243(14) 0.2172(10) 0.5675(15)
C3 C 0.75000 0.50000 0.2979(3)
H3 H 0.75000 0.50000 0.40960
N1 N 0.65168(17) 0.43667(12) 0.22492(16)
H4 H 0.589(2) 0.4021(13) 0.2797(18)
H5 H 0.6589(19) 0.4300(14) 0.1230(19)
O2A O 0.26149(8) -0.09409(7) 0.38752(9)
O1E O 0.08295(10) 0.32212(7) 0.41084(10)
O3E O -0.08480(9) 0.31665(7) 0.60505(10)
C2E C -0.03005(14) 0.28163(10) 0.47667(14)
H2E H -0.0757(14) 0.2172(10) 0.4325(15)
Fe1A Fe 0.26154(2) -0.25000 0.25000
Fe1E Fe -0.26154(2) 0.25000 0.75000
Fe1E* Fe 0.73846(2) 0.25000 0.75000
O1F O 0.08295(10) 0.17788(7) 0.08916(10)
O2C O 0.23851(8) 0.40591(7) 0.11248(9)
O3C O 0.41520(9) 0.18335(7) 0.10505(10)
N1A N 0.84832(17) 0.56333(12) 0.22492(16)
H4A H 0.911(2) 0.5979(13) 0.2797(18)
H5A H 0.8411(19) 0.5700(14) 0.1230(19)
#END
