
#######################################################################
#
#                 Cambridge Crystallographic Data Centre
#                                CCDC
#
#######################################################################
#
# If this CIF has been generated from an entry in the Cambridge
# Structural Database, then it will include bibliographic, chemical,
# crystal, experimental, refinement or atomic coordinate data resulting
# from the CCDC's data processing and validation procedures.
#
#######################################################################

data_CSD_CIF_GUBPIE
_audit_creation_date 2015-04-16
_audit_creation_method CSD-ConQuest-V1
_database_code_CSD GUBPIE
_database_code_depnum_ccdc_archive 'CCDC 1038142'
_chemical_formula_sum 'C8 H14 Cr1 Mn1 N1 O12'
_chemical_formula_moiety
;
(C6 H6 Cr1 Mn1 O12 1-)n,n(C2 H8 N1 1+)
;
_journal_coden_Cambridge 182
_journal_volume 51
_journal_year 2015
_journal_page_first 8288
_journal_name_full 'Chem.Commun. '
loop_
_publ_author_name
"Jiong-Peng Zhao"
"Song-De Han"
"Xue Jiang"
"Sui-Jun Liu"
"Ran Zhao"
"Ze Chang"
"Xian-He Bu"
_chemical_name_systematic
;
catena-(Dimethylammonium hexakis(\m~2~-formato-O,O')-chromium-manganese)
;
_cell_volume    825.396
_exptl_crystal_colour 'purple'
_exptl_crystal_density_diffrn 1.703
_exptl_crystal_description 'block'
_diffrn_ambient_temperature 293
_refine_special_details
;
N1 disordered by symmetry over three configurations with occupancy 0.33.

;
#These two values have been output from a single CSD field.
_refine_ls_R_factor_gt 0.0333
_refine_ls_wR_factor_gt 0.0333
_symmetry_cell_setting hexagonal
_symmetry_space_group_name_H-M 'P -3 1 c'
_symmetry_Int_Tables_number 163
loop_
_symmetry_equiv_pos_site_id
_symmetry_equiv_pos_as_xyz
1 x,y,z
2 -y,x-y,z
3 -x+y,-x,z
4 -y,-x,1/2-z
5 -x+y,y,1/2-z
6 x,x-y,1/2-z
7 -x,-y,-z
8 y,-x+y,-z
9 x-y,x,-z
10 y,x,-1/2+z
11 x-y,-y,-1/2+z
12 -x,-x+y,-1/2+z
_cell_length_a 8.2865(12)
_cell_length_b 8.2865(12)
_cell_length_c 13.880(3)
_cell_angle_alpha 90
_cell_angle_beta 90
_cell_angle_gamma 120
_cell_formula_units_Z 2
loop_
_atom_type_symbol
_atom_type_radius_bond
C 0.68
H 0.23
Cr 1.39
Mn 1.61
N 0.68
O 0.68
loop_
_atom_site_label
_atom_site_type_symbol
_atom_site_fract_x
_atom_site_fract_y
_atom_site_fract_z
Mn1 Mn 0.33330 0.66670 0.25000
Cr1 Cr 0.00000 0.00000 0.00000
O1 O 0.3386(3) 0.4496(3) 0.16470(14)
O2 O 0.2031(2) 0.1893(2) 0.08085(13)
C1 C 0.2092(4) 0.3307(4) 0.11665(18)
H1 H 0.10750 0.34710 0.10610
C2 C 0.66670 0.33330 0.1603(17)
H2 H 0.72120 0.45420 0.10920
N1 N 0.562(3) 0.2809(17) 0.25000
H3 H 0.48190 0.14920 0.25000
O1A O -0.4496(3) -0.1110(3) 0.16470(14)
O2A O -0.1893(2) 0.0138(2) 0.08085(13)
C1A C -0.3307(4) -0.1215(4) 0.11665(18)
H1A H -0.34710 -0.23960 0.10610
O1B O 0.1110(3) -0.3386(3) 0.16470(14)
O2B O -0.0138(2) -0.2031(2) 0.08085(13)
C1B C 0.1215(4) -0.2092(4) 0.11665(18)
H1B H 0.23960 -0.10750 0.10610
O1D O 0.1110(3) 0.4496(3) 0.33530(14)
O2D O -0.0138(2) 0.1893(2) 0.41915(13)
C1D C 0.1215(4) 0.3307(4) 0.38335(18)
H1D H 0.23960 0.34710 0.39390
O1C O 0.5504(3) 0.6614(3) 0.33530(14)
O2C O 0.8107(2) 0.7969(2) 0.41915(13)
C1C C 0.6693(4) 0.7908(4) 0.38335(18)
H1C H 0.65290 0.89250 0.39390
O1E O 0.3386(3) 0.8890(3) 0.33530(14)
O2E O 0.2031(2) 1.0138(2) 0.41915(13)
C1E C 0.2092(4) 0.8785(4) 0.38335(18)
H1E H 0.10750 0.76040 0.39390
Mn1* Mn -0.66670 -0.33330 0.25000
Mn1** Mn 0.33330 -0.33330 0.25000
Cr1C Cr 0.00000 0.00000 0.50000
Cr1C* Cr 0.00000 1.00000 0.50000
Cr1C** Cr 1.00000 1.00000 0.50000
O1A* O 0.5504(3) 0.8890(3) 0.16470(14)
O1B* O 0.1110(3) 0.6614(3) 0.16470(14)
O2F O -0.2031(2) -0.1893(2) -0.08085(13)
O2G O 0.1893(2) -0.0138(2) -0.08085(13)
O2H O 0.0138(2) 0.2031(2) -0.08085(13)
H2A H 0.54580 0.26700 0.10920
N1A N 0.7191(30) 0.2811(17) 0.25000
H3A H 0.85080 0.33270 0.25000
H2B H 0.73300 0.27880 0.10920
N1B N 0.7189(30) 0.4380(17) 0.25000
H3B H 0.66730 0.51810 0.25000
C2C C 0.66670 0.33330 0.3397(17)
H2C H 0.54580 0.27880 0.39080
H3C H 0.85080 0.51810 0.25000
H2D H 0.73300 0.45420 0.39080
H3D H 0.66730 0.14920 0.25000
H2E H 0.72120 0.26700 0.39080
H3E H 0.48190 0.33270 0.25000
#END
