
#######################################################################
#
#                 Cambridge Crystallographic Data Centre
#                                CCDC
#
#######################################################################
#
# If this CIF has been generated from an entry in the Cambridge
# Structural Database, then it will include bibliographic, chemical,
# crystal, experimental, refinement or atomic coordinate data resulting
# from the CCDC's data processing and validation procedures.
#
#######################################################################

data_CSD_CIF_GUBPOK
_audit_creation_date 2015-04-16
_audit_creation_method CSD-ConQuest-V1
_database_code_CSD GUBPOK
_database_code_depnum_ccdc_archive 'CCDC 1038143'
_chemical_formula_sum 'C7 H12 Cr1 Mn1 N1 O12'
_chemical_formula_moiety
;
(C6 H6 Cr1 Mn1 O12 1-)n,n(C1 H6 N1 1+)
;
_journal_coden_Cambridge 182
_journal_volume 51
_journal_year 2015
_journal_page_first 8288
_journal_name_full 'Chem.Commun. '
loop_
_publ_author_name
"Jiong-Peng Zhao"
"Song-De Han"
"Xue Jiang"
"Sui-Jun Liu"
"Ran Zhao"
"Ze Chang"
"Xian-He Bu"
_chemical_name_systematic
;
catena-(Methylammonium hexakis(\m~2~-formato)-chromium-manganese)
;
_cell_volume    834.594
_exptl_crystal_colour 'purple'
_exptl_crystal_density_diffrn 1.628
_exptl_crystal_description 'block'
_diffrn_ambient_temperature 293
_refine_special_details
;
The cation is disordered by symmetry.

;
#These two values have been output from a single CSD field.
_refine_ls_R_factor_gt 0.0442
_refine_ls_wR_factor_gt 0.0442
_symmetry_cell_setting hexagonal
_symmetry_space_group_name_H-M 'P -3 1 c'
_symmetry_Int_Tables_number 163
loop_
_symmetry_equiv_pos_site_id
_symmetry_equiv_pos_as_xyz
1 x,y,z
2 -y,x-y,z
3 -x+y,-x,z
4 -y,-x,1/2-z
5 -x+y,y,1/2-z
6 x,x-y,1/2-z
7 -x,-y,-z
8 y,-x+y,-z
9 x-y,x,-z
10 y,x,-1/2+z
11 x-y,-y,-1/2+z
12 -x,-x+y,-1/2+z
_cell_length_a 8.2708(12)
_cell_length_b 8.2708(12)
_cell_length_c 14.088(3)
_cell_angle_alpha 90
_cell_angle_beta 90
_cell_angle_gamma 120
_cell_formula_units_Z 2
loop_
_atom_type_symbol
_atom_type_radius_bond
C 0.68
H 0.23
Cr 1.39
Mn 1.61
N 0.68
O 0.68
loop_
_atom_site_label
_atom_site_type_symbol
_atom_site_fract_x
_atom_site_fract_y
_atom_site_fract_z
Mn1 Mn 0.66670 0.33330 0.25000
Cr1 Cr 0.00000 0.00000 0.00000
O1 O 0.4485(4) 0.3378(4) 0.16533(19)
O2 O 0.1902(3) 0.2040(3) 0.07992(17)
C1 C 0.3320(5) 0.2099(5) 0.1160(3)
H1 H 0.35020 0.10940 0.10460
N1 N 0.2738(15) 0.548(3) 0.25000
H2 H 0.31430 0.63000 0.29880
H3 H 0.32640 0.46850 0.25000
C2 C 0.33330 0.66670 0.364(3)
H4 H 0.25090 0.66140 0.40180
O1A O -0.3378(4) 0.1107(4) 0.16533(19)
O2A O -0.2040(3) -0.0138(3) 0.07992(17)
C1A C -0.2099(5) 0.1221(5) 0.1160(3)
H1A H -0.10940 0.24080 0.10460
O1B O -0.1107(4) -0.4485(4) 0.16533(19)
O2B O 0.0138(3) -0.1902(3) 0.07992(17)
C1B C -0.1221(5) -0.3320(5) 0.1160(3)
H1B H -0.24080 -0.35020 0.10460
O1E O 0.4485(4) 0.1107(4) 0.33467(19)
O2E O 0.1902(3) -0.0138(3) 0.42008(17)
C1E C 0.3320(5) 0.1221(5) 0.3840(3)
H1E H 0.35020 0.24080 0.39540
O1C O 0.6622(4) 0.5515(4) 0.33467(19)
O2C O 0.7960(3) 0.8098(3) 0.42008(17)
C1C C 0.7901(5) 0.6680(5) 0.3840(3)
H1C H 0.89060 0.64980 0.39540
O1D O 0.8893(4) 0.3378(4) 0.33467(19)
O2D O 1.0138(3) 0.2040(3) 0.42008(17)
C1D C 0.8779(5) 0.2099(5) 0.3840(3)
H1D H 0.75920 0.10940 0.39540
Mn1* Mn -0.33330 -0.66670 0.25000
Mn1** Mn -0.33330 0.33330 0.25000
Cr1C Cr 0.00000 0.00000 0.50000
Cr1C* Cr 1.00000 0.00000 0.50000
Cr1C** Cr 1.00000 1.00000 0.50000
O1A* O 0.6622(4) 0.1107(4) 0.16533(19)
O1B* O 0.8893(4) 0.5515(4) 0.16533(19)
O2F O -0.1902(3) -0.2040(3) -0.07992(17)
O2G O 0.2040(3) 0.0138(3) -0.07992(17)
O2H O -0.0138(3) 0.1902(3) -0.07992(17)
N1A N 0.4520(15) 0.7258(30) 0.25000
H2A H 0.37000 0.68430 0.29880
H3A H 0.53150 0.85790 0.25000
H4A H 0.33860 0.58950 0.40180
N1B N 0.2742(15) 0.7262(30) 0.25000
H2B H 0.31570 0.68570 0.29880
H3B H 0.14210 0.67360 0.25000
H4B H 0.41050 0.74910 0.40180
H2C H 0.37000 0.68570 0.20120
H3C H 0.53150 0.67360 0.25000
C2C C 0.33330 0.66670 0.136(3)
H4C H 0.33860 0.74910 0.09820
H2D H 0.31570 0.63000 0.20120
H3D H 0.14210 0.46850 0.25000
H4D H 0.41050 0.66140 0.09820
H2E H 0.31430 0.68430 0.20120
H3E H 0.32640 0.85790 0.25000
H4E H 0.25090 0.58950 0.09820
#END
