
#######################################################################
#
#                 Cambridge Crystallographic Data Centre
#                                CCDC
#
#######################################################################
#
# If this CIF has been generated from an entry in the Cambridge
# Structural Database, then it will include bibliographic, chemical,
# crystal, experimental, refinement or atomic coordinate data resulting
# from the CCDC's data processing and validation procedures.
#
#######################################################################

data_CSD_CIF_GUBQAX
_audit_creation_date 2015-04-16
_audit_creation_method CSD-ConQuest-V1
_database_code_CSD GUBQAX
_database_code_depnum_ccdc_archive 'CCDC 1038145'
_chemical_formula_sum 'C8 H14 Cr1 Mg1 N1 O12'
_chemical_formula_moiety
;
(C6 H6 Cr1 Mg1 O12 1-)n,n(C2 H8 N1 1+)
;
_journal_coden_Cambridge 182
_journal_volume 51
_journal_year 2015
_journal_page_first 8288
_journal_name_full 'Chem.Commun. '
loop_
_publ_author_name
"Jiong-Peng Zhao"
"Song-De Han"
"Xue Jiang"
"Sui-Jun Liu"
"Ran Zhao"
"Ze Chang"
"Xian-He Bu"
_chemical_name_systematic
;
catena-(Dimethylammonium hexakis(\m~2~-formato-O,O')-chromium-magnesium)
;
_cell_volume    789.619
_exptl_crystal_colour 'purple'
_exptl_crystal_density_diffrn 1.651
_exptl_crystal_description 'block'
_diffrn_ambient_temperature 293
_refine_special_details
;
N1 disordered by symmetry over three configurations with occupancy 0.33.

;
#These two values have been output from a single CSD field.
_refine_ls_R_factor_gt 0.0543
_refine_ls_wR_factor_gt 0.0543
_symmetry_cell_setting hexagonal
_symmetry_space_group_name_H-M 'P -3 1 c'
_symmetry_Int_Tables_number 163
loop_
_symmetry_equiv_pos_site_id
_symmetry_equiv_pos_as_xyz
1 x,y,z
2 -y,x-y,z
3 -x+y,-x,z
4 -y,-x,1/2-z
5 -x+y,y,1/2-z
6 x,x-y,1/2-z
7 -x,-y,-z
8 y,-x+y,-z
9 x-y,x,-z
10 y,x,-1/2+z
11 x-y,-y,-1/2+z
12 -x,-x+y,-1/2+z
_cell_length_a 8.1565(12)
_cell_length_b 8.1565(12)
_cell_length_c 13.705(3)
_cell_angle_alpha 90
_cell_angle_beta 90
_cell_angle_gamma 120
_cell_formula_units_Z 2
loop_
_atom_type_symbol
_atom_type_radius_bond
C 0.68
H 0.23
Cr 1.39
Mg 1.41
N 0.68
O 0.68
loop_
_atom_site_label
_atom_site_type_symbol
_atom_site_fract_x
_atom_site_fract_y
_atom_site_fract_z
Cr1 Cr 0.00000 0.00000 0.00000
Mg1 Mg 0.66670 0.33330 0.25000
O1 O 0.1930(3) 0.2051(3) 0.08156(16)
O2 O 0.4574(3) 0.3364(4) 0.16715(17)
C1 C 0.3354(5) 0.2069(5) 0.1172(2)
H1 H 0.35020 0.10290 0.10510
C2 C 0.33330 0.66670 0.1602(19)
H2 H 0.28880 0.57760 0.10720
N1 N 0.2802(19) 0.560(4) 0.25000
H3 H 0.33430 0.48090 0.25000
O1A O -0.2051(3) -0.0121(3) 0.08156(16)
O2A O -0.3364(3) 0.1210(4) 0.16715(17)
C1A C -0.2069(5) 0.1285(5) 0.1172(2)
H1A H -0.10290 0.24730 0.10510
O1B O 0.0121(3) -0.1930(3) 0.08156(16)
O2B O -0.1210(3) -0.4574(4) 0.16715(17)
C1B C -0.1285(5) -0.3354(5) 0.1172(2)
H1B H -0.24730 -0.35020 0.10510
O1E O 0.1930(3) -0.0121(3) 0.41844(16)
O2E O 0.4574(3) 0.1210(4) 0.33285(17)
C1E C 0.3354(5) 0.1285(5) 0.3828(2)
H1E H 0.35020 0.24730 0.39490
O1F O -0.1930(3) -0.2051(3) -0.08156(16)
O2F O -0.4574(3) -0.3364(4) -0.16715(17)
C1F C -0.3354(5) -0.2069(5) -0.1172(2)
H1F H -0.35020 -0.10290 -0.10510
O1G O 0.2051(3) 0.0121(3) -0.08156(16)
O2G O 0.3364(3) -0.1210(4) -0.16715(17)
C1G C 0.2069(5) -0.1285(5) -0.1172(2)
H1G H 0.10290 -0.24730 -0.10510
Cr1C Cr 0.00000 0.00000 0.50000
Mg1* Mg -0.33330 -0.66670 0.25000
Mg1** Mg -0.33330 0.33330 0.25000
Mg1F Mg -0.66670 -0.33330 -0.25000
Mg1F* Mg 0.33330 -0.33330 -0.25000
O1H O -0.0121(3) 0.1930(3) -0.08156(16)
O2A* O 0.6636(3) 0.1210(4) 0.16715(17)
O2B* O 0.8790(3) 0.5426(4) 0.16715(17)
O2C O 0.6636(3) 0.5426(4) 0.33285(17)
O2D O 0.8790(3) 0.3364(4) 0.33285(17)
H2A H 0.42240 0.71120 0.10720
N1A N 0.4400(19) 0.7202(40) 0.25000
H3A H 0.51910 0.85340 0.25000
H2B H 0.28880 0.71120 0.10720
N1B N 0.2798(19) 0.7198(40) 0.25000
H3B H 0.14660 0.66570 0.25000
C2C C 0.33330 0.66670 0.3398(19)
H2C H 0.42240 0.71120 0.39280
H3C H 0.51910 0.66570 0.25000
H2D H 0.28880 0.57760 0.39280
H3D H 0.14660 0.48090 0.25000
H2E H 0.28880 0.71120 0.39280
H3E H 0.33430 0.85340 0.25000
#END
