
#######################################################################
#
#                 Cambridge Crystallographic Data Centre
#                                CCDC
#
#######################################################################
#
# If this CIF has been generated from an entry in the Cambridge
# Structural Database, then it will include bibliographic, chemical,
# crystal, experimental, refinement or atomic coordinate data resulting
# from the CCDC's data processing and validation procedures.
#
#######################################################################

data_CSD_CIF_GUBYOS
_audit_creation_date 2010-04-15
_audit_creation_method CSD-ConQuest-V1
_database_code_CSD GUBYOS
_database_code_depnum_ccdc_archive 'CCDC 703662'
_chemical_formula_sum 'C48 H52 Ag4 Mo12 N24 O42 Si1'
_chemical_formula_moiety
;
(C24 H24 Ag2 N12 2+)n,2n(C12 H12 Ag1 N6 1+),n(Mo12 O40 Si1 4-),2n(H2 O1)
;
_journal_coden_Cambridge 1147
_journal_volume 9
_journal_year 2009
_journal_page_first 2776
_journal_name_full 'Cryst.Growth Des. '
loop_
_publ_author_name
"Bao-xia Dong"
"Qiang Xu"
_chemical_name_systematic
;
catena-[bis(\m~2~-1,4-bis(1,2,4-Triazol-1-ylmethyl)benzene-N^4^,N^4'^)-di-silv
er(i) 
bis((\m~2~-1,4-bis(1,2,4-triazol-1-ylmethyl)benzene-N^4^,N^4'^)-silver(i)) 
(\m~12~-silicato)-tetracosakis(\m~2~-oxo)-dodeca-oxo-dodeca-molybdenum(vi) 
dihydrate]
;
_cell_volume   2097.253
_exptl_crystal_colour 'brown'
_exptl_crystal_density_diffrn 2.572
_exptl_special_details
;
luminescent

;
_exptl_crystal_description 'block'
_diffrn_ambient_temperature 293
_refine_special_details
;
The central silicate moiety of the Keggin anion has all four oxygen atoms 
disordered by two-fold symmetry.
;
#These two values have been output from a single CSD field.
_refine_ls_R_factor_gt 0.0857
_refine_ls_wR_factor_gt 0.0857
_symmetry_cell_setting triclinic
_symmetry_space_group_name_H-M 'P -1'
_symmetry_Int_Tables_number 2
loop_
_symmetry_equiv_pos_site_id
_symmetry_equiv_pos_as_xyz
1 x,y,z
2 -x,-y,-z
_cell_length_a 13.000(3)
_cell_length_b 13.300(3)
_cell_length_c 14.084(3)
_cell_angle_alpha 74.66(3)
_cell_angle_beta 63.59(3)
_cell_angle_gamma 87.00(3)
_cell_formula_units_Z 1
loop_
_atom_type_symbol
_atom_type_radius_bond
C 0.68
H 0.23
Ag 1.45
Mo 1.46
N 0.68
O 0.61
Si 1.20
loop_
_atom_site_label
_atom_site_type_symbol
_atom_site_fract_x
_atom_site_fract_y
_atom_site_fract_z
Mo1 Mo 0.77436(14) 0.85072(15) 0.74333(16)
Mo2 Mo 0.91094(18) 1.06929(13) 0.74782(15)
Mo3 Mo 1.05803(18) 0.84202(15) 0.70981(17)
Mo4 Mo 0.71862(14) 0.99886(15) 0.52678(14)
Mo5 Mo 0.84038(17) 1.22050(13) 0.54176(16)
Mo6 Mo 0.87315(14) 0.77434(12) 0.49725(14)
Si1 Si 1.00000 1.00000 0.50000
C1 C -0.3803(19) 0.2792(17) 0.0988(19)
H1 H -0.37650 0.30790 0.02930
C2 C -0.3404(15) 0.1980(15) 0.2244(18)
H2 H -0.30340 0.15960 0.26400
C3 C -0.5032(19) 0.2513(16) 0.3801(19)
H3 H -0.58530 0.24820 0.40200
H4 H -0.48860 0.19550 0.43190
C4 C -0.4634(18) 0.3576(15) 0.3813(16)
C5 C -0.3652(18) 0.3677(18) 0.3917(18)
H5 H -0.32710 0.30920 0.40710
C6 C -0.3248(17) 0.4628(19) 0.3796(15)
H6 H -0.25770 0.46880 0.38680
C7 C -0.3772(16) 0.5525(15) 0.3571(14)
C8 C -0.4762(18) 0.5418(17) 0.3493(18)
H7 H -0.51560 0.60040 0.33750
C9 C -0.5197(18) 0.4434(16) 0.3588(18)
H8 H -0.58550 0.43680 0.34990
C10 C -0.3273(19) 0.6577(17) 0.3392(17)
H9 H -0.38580 0.70750 0.34650
H10 H -0.30170 0.65560 0.39470
C11 C -0.1208(19) 0.7120(15) 0.2029(17)
H11 H -0.09130 0.70800 0.25290
C12 C -0.1399(19) 0.7374(16) 0.0593(18)
H12 H -0.12380 0.75350 -0.01460
C13 C 0.2296(19) 1.0578(17) -0.2254(15)
H13 H 0.18830 1.06110 -0.26550
C14 C 0.2622(15) 1.0365(15) -0.0899(15)
H14 H 0.25610 1.02480 -0.01940
C15 C 0.478(2) 1.082(3) -0.200(2)
H15 H 0.53120 1.04920 -0.25480
H16 H 0.49880 1.15700 -0.22750
C16 C 0.4886(16) 1.042(2) -0.0965(18)
C17 C 0.503(2) 1.1044(18) -0.040(2)
H17 H 0.50550 1.17660 -0.06610
C18 C 0.488(3) 0.938(2) -0.054(3)
H18 H 0.47990 0.89340 -0.09170
C19 C 0.871(2) 1.3812(16) -0.2522(16)
H19 H 0.86960 1.31810 -0.26860
C20 C 0.8953(17) 1.5401(17) -0.2718(17)
H20 H 0.91130 1.61210 -0.30060
C21 C 0.824(2) 1.5358(17) -0.0728(18)
H21 H 0.81760 1.61050 -0.09530
H22 H 0.75020 1.50460 -0.01230
C22 C 0.915(2) 1.5163(15) -0.0358(16)
C23 C 1.028(2) 1.5369(16) -0.1084(17)
H23 H 1.04980 1.56020 -0.18350
C24 C 0.891(2) 1.4755(15) 0.0740(15)
H24 H 0.81460 1.45610 0.12580
N1 N -0.3002(14) 0.2215(13) 0.1144(14)
N2 N -0.4390(13) 0.2375(12) 0.2665(13)
N3 N -0.4670(17) 0.2933(16) 0.1903(19)
N4 N -0.2313(13) 0.6911(12) 0.2312(12)
N5 N -0.2458(14) 0.7102(12) 0.1415(14)
N6 N -0.0574(14) 0.7392(11) 0.0937(13)
N7 N 0.1763(13) 1.0303(12) -0.1119(14)
N8 N 0.3615(12) 1.0623(13) -0.1832(14)
N9 N 0.3378(14) 1.0785(15) -0.2722(14)
N10 N 0.9152(18) 1.4716(13) -0.3327(15)
N11 N 0.8502(16) 1.4912(13) -0.1659(13)
N12 N 0.8318(17) 1.3862(12) -0.1529(13)
O1 O 0.8142(16) 0.6712(11) 0.4910(15)
O2 O 1.433(4) 1.362(4) -0.089(4)
O3 O 0.8847(17) 0.9233(15) 0.5430(15)
O4 O 0.594(4) 0.528(3) -0.113(4)
O5 O 1.0039(15) 0.9600(12) 0.768(2)
O6 O 0.7725(14) 1.3260(12) 0.5601(16)
O7 O 0.9469(18) 0.9607(15) 0.6401(16)
O8 O 0.7272(17) 1.1245(16) 0.5670(11)
O9 O 0.5852(11) 0.9992(12) 0.5453(13)
O10 O 1.2060(17) 0.9214(14) 0.6184(11)
O11 O 0.8047(17) 0.7600(14) 0.6484(11)
O12 O 1.0417(11) 1.1611(12) 0.6570(11)
O13 O 1.1037(17) 0.7573(15) 0.6154(10)
O14 O 0.8717(14) 1.1045(14) 0.8628(12)
O15 O 0.9039(14) 0.7950(11) 0.765(2)
O16 O 0.6736(11) 0.7753(10) 0.8549(10)
O17 O 0.8291(11) 1.1615(12) 0.6848(10)
O18 O 0.7895(16) 0.9638(12) 0.796(3)
O19 O 1.0864(11) 0.7739(9) 0.8102(10)
O20 O 0.6875(17) 0.9262(15) 0.6769(11)
O21 O 0.9946(11) 1.2787(11) 0.5019(10)
O22 O 1.0184(17) 0.9055(15) 0.4512(16)
O23 O 0.8998(18) 1.0763(16) 0.4817(17)
O24 O 0.7615(15) 0.8756(13) 0.4877(11)
Ag1 Ag 0.12275(14) 0.76669(14) 0.00103(14)
Ag2 Ag 0.00000 1.00000 0.00000
Ag3 Ag 1.00000 1.50000 -0.50000
Mo1A Mo 1.22564(14) 1.14928(15) 0.25667(16)
Mo2A Mo 1.08906(18) 0.93071(13) 0.25218(15)
Mo3A Mo 0.94197(18) 1.15798(15) 0.29019(17)
Mo4A Mo 1.28138(14) 1.00114(15) 0.47322(14)
Mo5A Mo 1.15962(17) 0.77950(13) 0.45824(16)
Mo6A Mo 1.12685(14) 1.22566(12) 0.50275(14)
C1A C 0.3803(19) 0.7208(17) -0.0988(19)
H1A H 0.37650 0.69210 -0.02930
C2A C 0.3404(15) 0.8020(15) -0.2244(18)
H2A H 0.30340 0.84040 -0.26400
C3A C 0.5032(19) 0.7487(16) -0.3801(19)
H3A H 0.58530 0.75180 -0.40200
H4A H 0.48860 0.80450 -0.43190
C4A C 0.4634(18) 0.6424(15) -0.3813(16)
C5A C 0.3652(18) 0.6323(18) -0.3917(18)
H5A H 0.32710 0.69080 -0.40710
C6A C 0.3248(17) 0.5372(19) -0.3796(15)
H6A H 0.25770 0.53120 -0.38680
C7A C 0.3772(16) 0.4475(15) -0.3571(14)
C8A C 0.4762(18) 0.4582(17) -0.3493(18)
H7A H 0.51560 0.39960 -0.33750
C9A C 0.5197(18) 0.5566(16) -0.3588(18)
H8A H 0.58550 0.56320 -0.34990
C10A C 0.3273(19) 0.3423(17) -0.3392(17)
H9A H 0.38580 0.29250 -0.34650
H10A H 0.30170 0.34440 -0.39470
C11A C 0.1208(19) 0.2880(15) -0.2029(17)
H11A H 0.09130 0.29200 -0.25290
C12A C 0.1399(19) 0.2626(16) -0.0593(18)
H12A H 0.12380 0.24650 0.01460
C13A C 0.7704(19) 0.9422(17) 0.2254(15)
H13A H 0.81170 0.93890 0.26550
C14A C 0.7378(15) 0.9635(15) 0.0899(15)
H14A H 0.74390 0.97520 0.01940
C15A C 0.522(2) 0.918(3) 0.200(2)
H15A H 0.46880 0.95080 0.25480
H16A H 0.50120 0.84300 0.22750
C16A C 0.5114(16) 0.958(2) 0.0965(18)
C17A C 0.497(2) 0.8956(18) 0.040(2)
H17A H 0.49450 0.82340 0.06610
C18A C 0.512(3) 1.062(2) 0.054(3)
H18A H 0.52010 1.10660 0.09170
C19A C 1.129(2) 1.6188(16) 0.2522(16)
H19A H 1.13040 1.68190 0.26860
C20A C 1.1047(17) 1.4599(17) 0.2718(17)
H20A H 1.08870 1.38790 0.30060
C21A C 1.176(2) 1.4642(17) 0.0728(18)
H21A H 1.18240 1.38950 0.09530
H22A H 1.24980 1.49540 0.01230
C22A C 1.085(2) 1.4837(15) 0.0358(16)
C23A C 0.972(2) 1.4631(16) 0.1084(17)
H23A H 0.95020 1.43980 0.18350
C24A C 1.109(2) 1.5245(15) -0.0740(15)
H24A H 1.18540 1.54390 -0.12580
N1A N 0.3002(14) 0.7785(13) -0.1144(14)
N2A N 0.4390(13) 0.7625(12) -0.2665(13)
N3A N 0.4670(17) 0.7067(16) -0.1903(19)
N4A N 0.2313(13) 0.3089(12) -0.2312(12)
N5A N 0.2458(14) 0.2898(12) -0.1415(14)
N6A N 0.0574(14) 0.2608(11) -0.0937(13)
N7A N 0.8237(13) 0.9697(12) 0.1119(14)
N7A* N -0.1763(13) 0.9697(12) 0.1119(14)
N8A N 0.6385(12) 0.9377(13) 0.1832(14)
N9A N 0.6622(14) 0.9215(15) 0.2722(14)
N10A N 1.0848(18) 1.5284(13) 0.3327(15)
N10A* N 1.0848(18) 1.5284(13) -0.6673(15)
N11A N 1.1498(16) 1.5088(13) 0.1659(13)
N12A N 1.1682(17) 1.6138(12) 0.1529(13)
O1A O 1.1858(16) 1.3288(11) 0.5090(15)
O3A O 1.1153(17) 1.0767(15) 0.4570(15)
O5A O 0.9961(15) 1.0400(12) 0.232(2)
O6A O 1.2275(14) 0.6740(12) 0.4399(16)
O7A O 1.0531(18) 1.0393(15) 0.3599(16)
O8A O 1.2728(17) 0.8755(16) 0.4330(11)
O9A O 1.4148(11) 1.0008(12) 0.4547(13)
O10A O 0.7940(17) 1.0786(14) 0.3816(11)
O11A O 1.1953(17) 1.2400(14) 0.3516(11)
O12A O 0.9583(11) 0.8389(12) 0.3430(11)
O13A O 0.8963(17) 1.2427(15) 0.3846(10)
O14A O 1.1283(14) 0.8955(14) 0.1372(12)
O15A O 1.0961(14) 1.2050(11) 0.235(2)
O16A O 1.3264(11) 1.2247(10) 0.1451(10)
O17A O 1.1709(11) 0.8385(12) 0.3152(10)
O18A O 1.2105(16) 1.0362(12) 0.204(3)
O19A O 0.9136(11) 1.2261(9) 0.1898(10)
O20A O 1.3125(17) 1.0738(15) 0.3231(11)
O21A O 1.0054(11) 0.7213(11) 0.4981(10)
O22A O 0.9816(17) 1.0945(15) 0.5488(16)
O23A O 1.1002(18) 0.9237(16) 0.5183(17)
O24A O 1.2385(15) 1.1244(13) 0.5123(11)
Ag1A Ag -0.12275(14) 0.23331(14) -0.00103(14)
Ag2* Ag 1.00000 1.00000 0.00000
Ag3* Ag 1.00000 1.50000 0.50000
#END
