
#######################################################################
#
#                 Cambridge Crystallographic Data Centre
#                                CCDC
#
#######################################################################
#
# If this CIF has been generated from an entry in the Cambridge
# Structural Database, then it will include bibliographic, chemical,
# crystal, experimental, refinement or atomic coordinate data resulting
# from the CCDC's data processing and validation procedures.
#
#######################################################################

data_CSD_CIF_GUBYUY
_audit_creation_date 2010-04-15
_audit_creation_method CSD-ConQuest-V1
_database_code_CSD GUBYUY
_database_code_depnum_ccdc_archive 'CCDC 703663'
_chemical_formula_sum 'C48 H48 Cu4 Mo12 N24 O40 Si1'
_chemical_formula_moiety
;
(C12 H12 Cu1 N6 1+)2n,n(C24 H24 Cu2 Mo12 N12 O40 Si1 2-)
;
_journal_coden_Cambridge 1147
_journal_volume 9
_journal_year 2009
_journal_page_first 2776
_journal_name_full 'Cryst.Growth Des. '
loop_
_publ_author_name
"Bao-xia Dong"
"Qiang Xu"
_chemical_name_systematic
;
catena-[bis((\m~2~-1,4-bis(1,2,4-Triazol-1-ylmethyl)benzene-N^4^,N^4'^)-copper
(i)) 
(\m~12~-silicato)-octacosakis(\m~2~-oxo)-bis(\m~2~-1,4-bis(1,2,4-triazol-1-ylm
ethyl)benzene-N^4^,N^4'^)-octa-oxo-di-copper(i)-dodeca-molybdenum(vi)]
;
_cell_volume   2023.097
_exptl_crystal_colour 'brown'
_exptl_crystal_density_diffrn 2.491
_exptl_special_details
;
luminescent

;
_exptl_crystal_description 'block'
_diffrn_ambient_temperature 293
_refine_special_details
;
The central silicate moiety of the Keggin anion has all four oxygen atoms 
disordered by two-fold symmetry.
;
#These two values have been output from a single CSD field.
_refine_ls_R_factor_gt 0.0855
_refine_ls_wR_factor_gt 0.0855
_symmetry_cell_setting triclinic
_symmetry_space_group_name_H-M 'P -1'
_symmetry_Int_Tables_number 2
loop_
_symmetry_equiv_pos_site_id
_symmetry_equiv_pos_as_xyz
1 x,y,z
2 -x,-y,-z
_cell_length_a 12.790(3)
_cell_length_b 13.830(3)
_cell_length_c 14.210(3)
_cell_angle_alpha 71.01(3)
_cell_angle_beta 65.67(3)
_cell_angle_gamma 63.80(3)
_cell_formula_units_Z 1
loop_
_atom_type_symbol
_atom_type_radius_bond
C 0.64
H 0.23
Cu 1.64
Mo 1.37
N 0.48
O 0.69
Si 1.20
loop_
_atom_site_label
_atom_site_type_symbol
_atom_site_fract_x
_atom_site_fract_y
_atom_site_fract_z
Mo1 Mo 0.30525(19) 0.87779(15) 0.70821(15)
Mo2 Mo 0.18264(19) 1.14631(15) 0.58059(18)
Mo3 Mo 0.6134(2) 0.71992(14) 0.59627(15)
Mo4 Mo 0.33360(19) 1.09468(14) 0.32109(14)
Mo5 Mo 0.35914(19) 1.09148(13) 0.74161(14)
Mo6 Mo 0.40498(18) 0.82033(13) 0.45418(14)
Cu1 Cu 1.00000 1.00000 -0.50000
Cu2 Cu 0.50000 0.00000 0.00000
Cu3 Cu -0.1203(3) 1.4398(3) 0.5891(3)
Si1 Si 0.50000 1.00000 0.50000
N1 N 0.941(2) 1.0021(19) -0.3640(15)
N2 N 0.824(2) 1.0502(16) -0.2042(17)
N3 N 0.9100(18) 0.9522(18) -0.1951(18)
N4 N 0.549(2) 0.1178(17) -0.0511(17)
N5 N 0.604(2) 0.265(2) -0.1612(19)
N6 N 0.6341(18) 0.2320(14) -0.0700(14)
N7 N -0.0811(17) 1.4665(14) 0.6888(15)
N8 N -0.0833(18) 1.5322(15) -0.1894(13)
N9 N 0.019(2) 1.4477(19) -0.2033(17)
N10 N -0.2494(18) 1.4349(15) 0.3771(12)
N11 N -0.144(2) 1.3411(17) 0.3595(15)
N12 N -0.1565(18) 1.4159(15) 0.4863(14)
O1 O 0.3211(14) 0.9475(11) 0.3867(13)
O2 O 0.4510(15) 0.7648(15) 0.7010(11)
O3 O 0.3041(17) 0.8324(16) 0.5879(12)
O4 O 0.461(2) 0.8888(17) 0.5470(19)
O5 O 0.3218(18) 0.9569(13) 0.7770(18)
O6 O 0.476(2) 0.9685(18) 0.420(2)
O7 O 0.5431(16) 0.7155(16) 0.5121(10)
O8 O 0.1815(19) 1.0127(11) 0.6588(17)
O9 O 0.380(2) 1.022(2) 0.6073(18)
O10 O 0.649(2) 0.7790(14) 0.6872(12)
O11 O 0.7536(18) 0.7338(13) 0.4947(12)
O12 O 0.2328(16) 1.1614(11) 0.6910(15)
O13 O 0.4831(13) 1.0299(10) 0.2362(11)
O14 O 0.2490(16) 1.1342(13) 0.2473(11)
O15 O 0.0332(13) 1.2234(11) 0.6218(15)
O16 O 0.2086(15) 0.8204(11) 0.8017(11)
O17 O 0.6612(14) 0.5908(9) 0.649(1)
O18 O 0.5537(15) 0.8194(11) 0.3315(12)
O19 O 0.3740(14) 0.7290(12) 0.4281(14)
O20 O 0.2985(16) 1.1195(12) 0.8627(10)
O21 O 0.202(2) 1.1268(14) 0.4537(13)
O22 O 0.619(2) 0.8965(18) 0.543(2)
C1 C 0.979(2) 0.919(2) -0.284(2)
H1 H 1.04320 0.85220 -0.29240
C2 C 0.852(3) 1.074(2) -0.307(2)
H2 H 0.80830 1.14180 -0.33950
C3 C 0.919(2) 0.8992(19) -0.0944(16)
H3 H 0.84010 0.89410 -0.04870
H4 H 0.97800 0.82510 -0.09870
C4 C 0.958(2) 0.955(2) -0.0436(18)
C5 C 0.988(3) 1.045(2) -0.0951(19)
H5 H 0.98860 1.07240 -0.16420
C6 C 0.981(2) 0.9056(18) 0.0475(17)
H6 H 0.97670 0.83650 0.07840
C7 C 0.605(2) 0.147(2) -0.007(2)
H7 H 0.62100 0.11320 0.05650
C8 C 0.559(3) 0.190(3) -0.141(2)
H8 H 0.53230 0.18690 -0.19170
C9 C 0.687(2) 0.2932(17) -0.0505(17)
H9 H 0.72080 0.25160 0.00690
H10 H 0.75450 0.30460 -0.11240
C10 C 0.595(2) 0.4005(19) -0.0238(17)
C11 C 0.527(3) 0.414(2) 0.075(2)
H11 H 0.54480 0.35590 0.12790
C12 C 0.570(3) 0.4895(18) -0.1034(17)
H12 H 0.61590 0.48510 -0.17340
C13 C -0.092(2) 1.3339(15) 0.4272(17)
H13 H -0.01900 1.27840 0.43400
C14 C -0.253(2) 1.471(2) 0.4567(16)
H14 H -0.31780 1.52930 0.48680
C15 C -0.332(2) 1.463(2) 0.3220(19)
H15 H -0.35300 1.40050 0.33190
H16 H -0.40740 1.52130 0.35080
C16 C -0.279(2) 1.5018(18) 0.2049(17)
C17 C -0.218(3) 1.4297(18) 0.1339(17)
H17 H -0.20720 1.35610 0.15940
C18 C -0.275(2) 1.609(2) 0.159(2)
H18 H -0.31190 1.66250 0.20050
C19 C -0.221(3) 1.632(2) 0.060(2)
H19 H -0.22050 1.70310 0.03470
C20 C -0.167(2) 1.5655(15) -0.0100(19)
C21 C -0.173(3) 1.4625(19) 0.029(2)
H20 H -0.14600 1.41520 -0.01700
C22 C -0.106(3) 1.6035(18) -0.1234(16)
H21 H -0.02940 1.60740 -0.13110
H22 H -0.15890 1.67650 -0.14590
C23 C 0.017(2) 1.406(2) 0.731(2)
H23 H 0.07600 1.33940 0.71120
C24 C -0.135(2) 1.5470(16) 0.7402(17)
H24 H -0.20300 1.60800 0.72930
Mo1A Mo 0.69475(19) 1.12221(15) 0.29179(15)
Mo2A Mo 0.81736(19) 0.85369(15) 0.41941(18)
Mo3A Mo 0.3866(2) 1.28008(14) 0.40373(15)
Mo4A Mo 0.66640(19) 0.90532(14) 0.67891(14)
Mo5A Mo 0.64086(19) 0.90852(13) 0.25839(14)
Mo6A Mo 0.59502(18) 1.17967(13) 0.54582(14)
Cu1* Cu 1.00000 1.00000 0.50000
Cu2* Cu 0.50000 1.00000 0.00000
Cu3* Cu 0.8797(3) 0.4398(3) 0.5891(3)
Cu3** Cu -0.1203(3) 1.4398(3) -0.4109(3)
Cu3A Cu 0.1203(3) 1.5602(3) 0.4109(3)
Cu3A* Cu 1.1203(3) 0.5602(3) 0.4109(3)
Cu3A** Cu 1.1203(3) 0.5602(3) 1.4109(3)
N1A N 1.059(2) 0.9979(19) -0.6360(15)
N1A* N 1.059(2) 0.9979(19) 0.3640(15)
N2A N 1.176(2) 0.9498(16) 0.2042(17)
N3A N 1.0900(18) 1.0478(18) 0.1951(18)
N4A N 0.451(2) -0.1178(17) 0.0511(17)
N4A* N 0.451(2) 0.8822(17) 0.0511(17)
N5A N 0.396(2) 0.735(2) 0.1612(19)
N6A N 0.3659(18) 0.7680(14) 0.0700(14)
N7* N -0.0811(17) 1.4665(14) -0.3112(15)
N7A N 1.0811(17) 0.5335(14) 0.3112(15)
N7A* N 1.0811(17) 0.5335(14) 1.3112(15)
N8* N -0.0833(18) 1.5322(15) 0.8106(13)
N8A N 1.0833(18) 0.4678(15) 1.1894(13)
N9* N 0.019(2) 1.4477(19) 0.7967(17)
N9A N 0.981(2) 0.5523(19) 1.2033(17)
N10A N 1.2494(18) 0.5651(15) 0.6229(12)
N11A N 1.144(2) 0.6589(17) 0.6405(15)
N12A N 1.1565(18) 0.5841(15) 0.5137(14)
O1A O 0.6789(14) 1.0525(11) 0.6133(13)
O2A O 0.5490(15) 1.2352(15) 0.2990(11)
O3A O 0.6959(17) 1.1676(16) 0.4121(12)
O4A O 0.539(2) 1.1112(17) 0.4530(19)
O5A O 0.6782(18) 1.0431(13) 0.2230(18)
O6A O 0.524(2) 1.0315(18) 0.580(2)
O7A O 0.4569(16) 1.2845(16) 0.4879(10)
O8A O 0.8185(19) 0.9873(11) 0.3412(17)
O9A O 0.620(2) 0.978(2) 0.3927(18)
O10A O 0.351(2) 1.2210(14) 0.3128(12)
O11A O 0.2464(18) 1.2662(13) 0.5053(12)
O12A O 0.7672(16) 0.8386(11) 0.3090(15)
O13A O 0.5169(13) 0.9701(10) 0.7638(11)
O14A O 0.7510(16) 0.8658(13) 0.7527(11)
O15A O 0.9668(13) 0.7766(11) 0.3782(15)
O16A O 0.7914(15) 1.1796(11) 0.1983(11)
O17* O -0.3388(14) 1.5908(9) 0.649(1)
O17A O 0.3388(14) 1.4092(9) 0.351(1)
O17A* O 1.3388(14) 0.4092(9) 0.351(1)
O18A O 0.4463(15) 1.1806(11) 0.6685(12)
O19A O 0.6260(14) 1.2710(12) 0.5719(14)
O20A O 0.7015(16) 0.8805(12) 0.1373(10)
O21A O 0.798(2) 0.8732(14) 0.5463(13)
O22A O 0.381(2) 1.1035(18) 0.457(2)
C1A C 1.021(2) 1.081(2) 0.284(2)
H1A H 0.95680 1.14780 0.29240
C2A C 1.148(3) 0.926(2) 0.307(2)
H2A H 1.19170 0.85820 0.33950
C3A C 1.081(2) 1.1008(19) 0.0944(16)
H3A H 1.15990 1.10590 0.04870
H4A H 1.02200 1.17490 0.09870
C4A C 1.042(2) 1.045(2) 0.0436(18)
C5A C 1.012(3) 0.955(2) 0.0951(19)
H5A H 1.01140 0.92760 0.16420
C6A C 1.019(2) 1.0944(18) -0.0475(17)
H6A H 1.02330 1.16350 -0.07840
C7A C 0.395(2) 0.853(2) 0.007(2)
H7A H 0.37900 0.88680 -0.05650
C8A C 0.441(3) 0.810(3) 0.141(2)
H8A H 0.46770 0.81310 0.19170
C9A C 0.313(2) 0.7068(17) 0.0505(17)
H9A H 0.27920 0.74840 -0.00690
H10A H 0.24550 0.69540 0.11240
C10A C 0.405(2) 0.5995(19) 0.0238(17)
C11A C 0.473(3) 0.586(2) -0.075(2)
H11A H 0.45520 0.64410 -0.12790
C12A C 0.430(3) 0.5105(18) 0.1034(17)
H12A H 0.38410 0.51490 0.17340
C13A C 1.092(2) 0.6661(15) 0.5728(17)
H13A H 1.01900 0.72160 0.56600
C14A C 1.253(2) 0.529(2) 0.5433(16)
H14A H 1.31780 0.47070 0.51320
C15A C 1.332(2) 0.537(2) 0.6780(19)
H15A H 1.35300 0.59950 0.66810
H16A H 1.40740 0.47870 0.64920
C16A C 1.279(2) 0.4982(18) 0.7951(17)
C17A C 1.218(3) 0.5703(18) 0.8661(17)
H17A H 1.20720 0.64390 0.84060
C18A C 1.275(2) 0.391(2) 0.841(2)
H18A H 1.31190 0.33750 0.79950
C19A C 1.221(3) 0.368(2) 0.940(2)
H19A H 1.22050 0.29690 0.96530
C20A C 1.167(2) 0.4345(15) 1.0100(19)
C21A C 1.173(3) 0.5375(19) 0.971(2)
H20A H 1.14600 0.58480 1.01700
C22A C 1.106(3) 0.3965(18) 1.1234(16)
H21A H 1.02940 0.39260 1.13110
H22A H 1.15890 0.32350 1.14590
C23* C 0.017(2) 1.406(2) -0.269(2)
C23A C 0.983(2) 0.594(2) 1.269(2)
H23* H 0.07600 1.33940 -0.28880
H23A H 0.92400 0.66060 1.28880
C24* C -0.135(2) 1.5470(16) -0.2598(17)
C24A C 1.135(2) 0.4530(16) 1.2598(17)
H24* H -0.20300 1.60800 -0.27070
H24A H 1.20300 0.39200 1.27070
#END
