
#######################################################################
#
#                 Cambridge Crystallographic Data Centre
#                                CCDC
#
#######################################################################
#
# If this CIF has been generated from an entry in the Cambridge
# Structural Database, then it will include bibliographic, chemical,
# crystal, experimental, refinement or atomic coordinate data resulting
# from the CCDC's data processing and validation procedures.
#
#######################################################################

data_CSD_CIF_GUCHUJ
_audit_creation_date 2015-04-16
_audit_creation_method CSD-ConQuest-V1
_database_code_CSD GUCHUJ
_database_code_depnum_ccdc_archive 'CCDC 1015031'
_chemical_formula_sum 'C30 H26 Cu3 N3 O21.5'
_chemical_formula_moiety
;
(C20 H10 Cu3 O19 2-)n,n(C10 H11 N3 2+),2.5n(H2 O1)
;
_journal_coden_Cambridge 208
_journal_volume 225
_journal_year 2015
_journal_page_first 222
_journal_name_full 'J.Solid State Chem. '
loop_
_publ_author_name
"J.E.Mizzi"
"R.J.Staples"
"R.L.LaDuca"
_chemical_name_systematic
;
catena-[4,4'-iminodipyridinium 
bis(\m-benzene-1,2,4,5-tetracarboxylato)-triaqua-tri-copper hydrate]
;
_cell_volume    797.599
_exptl_crystal_density_diffrn 2.005
_diffrn_ambient_temperature 173.2
#These two values have been output from a single CSD field.
_refine_ls_R_factor_gt 0.0675
_refine_ls_wR_factor_gt 0.0675
_symmetry_cell_setting triclinic
_symmetry_space_group_name_H-M 'P 1'
_symmetry_Int_Tables_number 1
loop_
_symmetry_equiv_pos_site_id
_symmetry_equiv_pos_as_xyz
1 x,y,z
_cell_length_a 7.9985(11)
_cell_length_b 9.7296(14)
_cell_length_c 10.8506(15)
_cell_angle_alpha 84.315(2)
_cell_angle_beta 78.168(2)
_cell_angle_gamma 75.064(2)
_cell_formula_units_Z 1
loop_
_atom_type_symbol
_atom_type_radius_bond
C 0.68
H 0.23
Cu 1.32
N 0.68
O 0.68
loop_
_atom_site_label
_atom_site_type_symbol
_atom_site_fract_x
_atom_site_fract_y
_atom_site_fract_z
Cu1 Cu 0.41470 0.68700 0.82400
Cu2 Cu 0.16130 0.54610 0.87490
Cu3 Cu 0.8040(4) 0.1282(3) 0.3454(3)
O1 O 0.4217(12) 0.6710(9) 0.6436(9)
O2 O 0.2045(12) 0.5515(9) 0.6901(9)
O3 O 0.5555(13) 0.3608(9) 0.5496(9)
O4 O 0.6456(13) 0.3073(9) 0.3460(9)
O5 O 0.1514(12) 0.5640(9) 0.0559(9)
O6 O 0.3727(12) 0.6750(9) 0.0093(9)
O7 O -0.0297(13) 0.9516(10) 0.3423(9)
O8 O 0.0249(13) 0.8803(9) 0.1465(9)
O9 O 0.7476(13) 0.1078(11) 0.1801(9)
H1 H 0.63450 0.10640 0.18670
H2 H 0.81380 0.02670 0.14620
O10 O 0.8163(16) 0.1252(11) 0.5242(10)
H3 H 0.82750 0.03730 0.56000
H4 H 0.71920 0.18110 0.56670
O11 O -0.2436(14) 0.8592(10) 0.6526(10)
O12 O -0.4274(13) 0.8298(9) 0.8331(9)
O13 O -0.0097(12) 0.7309(9) 0.8682(9)
O14 O 0.2064(12) 0.8497(9) 0.8257(9)
O15 O -0.6205(11) 1.3880(9) 0.8758(9)
O16 O -0.4074(12) 1.5014(9) 0.8218(10)
O17 O 0.0075(12) 1.4029(9) 0.8685(9)
O18 O -0.1893(12) 1.3943(9) 1.0439(9)
C1 C 0.4111(19) 0.5032(14) 0.3933(13)
C2 C 0.3747(15) 0.5090(11) 0.2675(11)
H5 H 0.42800 0.42810 0.21840
C3 C 0.2671(12) 0.6245(10) 0.2136(10)
C4 C 0.1628(17) 0.7302(13) 0.3044(12)
C5 C 0.1817(14) 0.7184(11) 0.4271(11)
H6 H 0.10660 0.78630 0.48400
C6 C 0.3078(17) 0.6097(12) 0.4705(11)
C7 C 0.317(2) 0.6093(14) 0.6139(13)
C8 C 0.545(2) 0.3794(15) 0.4372(14)
C9 C 0.260(2) 0.6276(14) 0.0851(14)
C10 C 0.0417(17) 0.8601(14) 0.2600(13)
C11 C -0.1642(17) 1.2383(13) 0.8898(12)
C12 C -0.0483(17) 1.1059(12) 0.8797(13)
H7 H 0.06770 1.09560 0.89370
C13 C -0.0952(17) 0.9862(13) 0.8496(12)
C14 C -0.2521(17) 0.9988(13) 0.8203(12)
C15 C -0.3730(18) 1.1353(13) 0.8193(13)
H8 H -0.48110 1.14420 0.79210
C16 C -0.3384(16) 1.2525(13) 0.8559(12)
C17 C -0.3104(19) 0.8807(14) 0.7663(14)
C18 C 0.0428(17) 0.8392(12) 0.8499(12)
C19 C -0.4634(17) 1.3880(12) 0.8535(12)
C20 C -0.1146(19) 1.3561(14) 0.9380(14)
O19 O 0.9955(11) 0.2690(8) 0.2258(7)
H9 H 1.05880 0.23320 0.14140
H10 H 1.09270 0.27710 0.26650
N1 N 0.7592(13) 0.6327(11) 0.1713(9)
H11 H 0.81000 0.57190 0.11190
N2 N 0.5378(12) 0.9004(9) 0.4581(9)
H12 H 0.58750 0.86350 0.52300
N3 N 0.1528(12) 1.2705(10) 0.5522(11)
H13 H 0.06930 1.34780 0.57300
C21 C 0.8018(17) 0.6019(14) 0.2863(13)
H14 H 0.87940 0.51310 0.30290
C22 C 0.7341(15) 0.6979(14) 0.3806(12)
H15 H 0.77320 0.67940 0.45890
C23 C 0.6031(15) 0.8269(11) 0.3585(11)
C24 C 0.5613(14) 0.8508(13) 0.2397(11)
H16 H 0.47640 0.93470 0.22180
C25 C 0.6426(18) 0.7524(14) 0.1431(15)
H17 H 0.61490 0.77100 0.06110
C26 C 0.2250(16) 1.1913(13) 0.6401(12)
H18 H 0.19400 1.22060 0.72450
C27 C 0.3500(15) 1.0611(13) 0.6099(11)
H19 H 0.39510 0.99870 0.67490
C28 C 0.4062(13) 1.0252(12) 0.4854(11)
C29 C 0.3272(18) 1.1195(13) 0.3946(13)
H20 H 0.36230 1.09950 0.30780
C30 C 0.2017(19) 1.2380(14) 0.4306(14)
H21 H 0.14710 1.29940 0.36890
O20 O 0.3226(12) -0.0042(11) 0.0274(9)
H22 H 0.38510 -0.07740 -0.01520
H23 H 0.26240 0.05670 -0.02130
O21 O 0.8866(13) 0.5103(10) 0.612(1)
H24 H 0.85620 0.56530 0.54790
H25 H 0.96010 0.54270 0.64310
O22 O 0.331(2) 0.2262(16) 0.1135(14)
H26 H 0.26090 0.28030 0.17150
H27 H 0.27060 0.18350 0.07900
Cu1* Cu -0.58530 0.68700 0.82400
Cu1** Cu -0.58530 1.68700 0.82400
Cu1*** Cu 0.41470 0.68700 -0.17600
Cu2* Cu -0.83870 1.54610 0.87490
Cu2** Cu 0.16130 0.54610 -0.12510
Cu2*** Cu 0.16130 1.54610 0.87490
Cu3* Cu -0.1960(4) 1.1282(3) 0.3454(3)
O5* O 0.1514(12) 0.5640(9) 1.0559(9)
O6* O 0.3727(12) 0.6750(9) 1.0093(9)
O7* O 0.9703(13) -0.0484(10) 0.3423(9)
O12* O 0.5726(13) 0.8298(9) 0.8331(9)
O15* O 0.3795(11) 0.3880(9) 0.8758(9)
O16* O 0.5926(12) 0.5014(9) 0.8218(10)
O17* O 0.0075(12) 0.4029(9) 0.8685(9)
#END
