
#######################################################################
#
#                 Cambridge Crystallographic Data Centre
#                                CCDC
#
#######################################################################
#
# If this CIF has been generated from an entry in the Cambridge
# Structural Database, then it will include bibliographic, chemical,
# crystal, experimental, refinement or atomic coordinate data resulting
# from the CCDC's data processing and validation procedures.
#
#######################################################################

data_CSD_CIF_GUCJAQ
_audit_creation_date 2010-04-15
_audit_creation_method CSD-ConQuest-V1
_database_code_CSD GUCJAQ
_database_code_depnum_ccdc_archive 'CCDC 723828'
_chemical_formula_sum 'C40 H29 N6 O12 P1 Zn2'
_chemical_formula_moiety
;
(C10 H9 N2 1+)n,n(C30 H20 N4 O12 P1 Zn2 1-)
;
_journal_coden_Cambridge 179
_journal_volume 48
_journal_year 2009
_journal_page_first 6124
_journal_name_full 'Angew.Chem.,Int.Ed. '
loop_
_publ_author_name
"Shu-Hao Huang"
"Chia-Her Lin"
"Wei-Chang Wu"
"Sue-Lein Wang"
_chemical_name_systematic
;
catena-[(4-(Pyridin-4-yl)pyridinium) 
(\m~4~-phosphato-O,O',O'',O''')-(\m~2~-benzene-1,2,4,5-tetracarboxylato-O,O')-
;
_chemical_name_common
;
NTHU-8
;
_cell_volume   4068.423
_exptl_crystal_colour 'colorless'
_exptl_crystal_density_diffrn 1.547
_exptl_crystal_description 'columnar'
_diffrn_ambient_temperature 296
_refine_special_details
;
The 4,4'-bipyridin-1-ium cation is partially disordered; the two independent 
CH carbon atoms of the non-protonated pyridine ring are modelled over two 
sites with occupancies 0.53:0.47.
;
#These two values have been output from a single CSD field.
_refine_ls_R_factor_gt 0.0382
_refine_ls_wR_factor_gt 0.0382
_symmetry_cell_setting monoclinic
_symmetry_space_group_name_H-M 'C 2/c'
_symmetry_Int_Tables_number 15
loop_
_symmetry_equiv_pos_site_id
_symmetry_equiv_pos_as_xyz
1 x,y,z
2 -x,y,1/2-z
3 1/2+x,1/2+y,z
4 1/2-x,1/2+y,1/2-z
5 -x,-y,-z
6 x,-y,-1/2+z
7 -1/2-x,-1/2-y,-z
8 -1/2+x,-1/2-y,-1/2+z
_cell_length_a 22.8823(6)
_cell_length_b 18.4474(5)
_cell_length_c 9.6823(3)
_cell_angle_alpha 90
_cell_angle_beta 95.477(1)
_cell_angle_gamma 90
_cell_formula_units_Z 4
loop_
_atom_type_symbol
_atom_type_radius_bond
C 0.68
H 0.23
N 0.68
O 0.68
P 1.05
Zn 1.22
loop_
_atom_site_label
_atom_site_type_symbol
_atom_site_fract_x
_atom_site_fract_y
_atom_site_fract_z
Zn1 Zn 0.084582(11) 0.033453(14) 0.01854(3)
P1 P 0.00000 -0.00757(5) 0.25000
O1 O 0.04195(7) 0.04290(9) 0.18154(17)
O2 O -0.03304(7) -0.05669(9) 0.14327(16)
O3 O 0.13510(7) 0.11851(9) 0.05198(18)
O4 O 0.18616(9) 0.07622(11) -0.1139(2)
O5 O 0.27764(9) 0.06813(10) 0.1300(2)
O6 O 0.35022(9) 0.09485(12) 0.0014(3)
C1 C 0.19009(10) 0.25528(14) -0.0296(3)
C2 C 0.21521(10) 0.18758(13) -0.0073(2)
C3 C 0.27596(10) 0.18255(13) 0.0245(3)
C4 C 0.17675(11) 0.12100(14) -0.0257(3)
C5 C 0.30501(12) 0.11027(15) 0.0504(3)
C6 C 0.14990(11) -0.08654(14) -0.1003(3)
C7 C 0.16711(12) -0.15619(14) -0.1214(3)
C8 C 0.15465(11) -0.21079(14) -0.0304(3)
C9 C 0.12601(14) -0.19007(15) 0.0830(3)
C10 C 0.10988(13) -0.11863(15) 0.0986(3)
C11 C 0.17034(12) -0.28750(14) -0.0522(3)
C12 C 0.20560(13) -0.30866(15) -0.1522(3)
C13 C 0.21811(13) -0.38077(16) -0.1725(3)
C14 C 0.1650(3) -0.4130(2) 0.0011(5)
C15 C 0.1504(2) -0.34211(19) 0.0271(5)
C16 C -0.0348(3) -0.2188(3) -0.1768(6)
C17 C -0.03712(18) -0.2927(2) -0.1734(5)
C18 C 0.00000 -0.3315(2) -0.25000
C19 C 0.00000 -0.4109(2) -0.25000
C20 C -0.0537(5) -0.4480(8) -0.2430(18)
C21 C -0.0512(6) -0.5232(7) -0.249(2)
N1 N 0.12038(9) -0.06712(11) 0.0075(2)
N2 N 0.19759(13) -0.43223(13) -0.0973(3)
N3 N 0.00000 -0.1835(3) -0.25000
N4 N 0.00000 -0.5624(4) -0.25000
H1 H 0.14530 0.25820 -0.05310
H2 H 0.15970 -0.05000 -0.16440
H3 H 0.18800 -0.16740 -0.20010
H4 H 0.11720 -0.22560 0.15010
H5 H 0.09000 -0.10510 0.17920
H6 H 0.22230 -0.27210 -0.20940
H7 H 0.24270 -0.39380 -0.24510
H8 H 0.15180 -0.45140 0.06160
H9 H 0.12770 -0.33040 0.10480
H10 H 0.20570 -0.48010 -0.11220
H11 H -0.06370 -0.19380 -0.11820
H12 H -0.06340 -0.31860 -0.11610
H13 H 0.00000 -0.13330 -0.25000
C22? C -0.0320(14) -0.4497(8) -0.163(4)
C23? C -0.0265(16) -0.5257(8) -0.161(4)
Zn1A Zn -0.084582(11) 0.033453(14) 0.48146(3)
Zn1D Zn -0.084582(11) -0.033453(14) -0.01854(3)
Zn1E Zn 0.084582(11) -0.033453(14) 0.51854(3)
Zn1F Zn 0.415418(11) 0.466547(14) -0.01854(3)
O1A O -0.04195(7) 0.04290(9) 0.31846(17)
O2A O 0.03304(7) -0.05669(9) 0.35673(16)
O2D O 0.03304(7) 0.05669(9) -0.14327(16)
O2E O -0.03304(7) 0.05669(9) 0.64327(16)
O3F O 0.36490(7) 0.38149(9) -0.05198(18)
O3A O -0.13510(7) 0.11851(9) 0.44802(18)
O4F O 0.31384(9) 0.42378(11) 0.1139(2)
O5F O 0.22236(9) 0.43187(10) -0.1300(2)
O6F O 0.14978(9) 0.40515(12) -0.0014(3)
C1F C 0.30991(10) 0.24472(14) 0.0296(3)
C2F C 0.28479(10) 0.31242(13) 0.0073(2)
C3F C 0.22404(10) 0.31745(13) -0.0245(3)
C4F C 0.32325(11) 0.37900(14) 0.0257(3)
C5F C 0.19499(12) 0.38973(15) -0.0504(3)
C6A C -0.14990(11) -0.08654(14) 0.6003(3)
C7A C -0.16711(12) -0.15619(14) 0.6214(3)
C8A C -0.15465(11) -0.21079(14) 0.5304(3)
C9A C -0.12601(14) -0.19007(15) 0.4170(3)
C10A C -0.10988(13) -0.11863(15) 0.4014(3)
C11A C -0.17034(12) -0.28750(14) 0.5522(3)
C12A C -0.20560(13) -0.30866(15) 0.6522(3)
C13A C -0.21811(13) -0.38077(16) 0.6725(3)
C14A C -0.1650(3) -0.4130(2) 0.4989(5)
C15A C -0.1504(2) -0.34211(19) 0.4729(5)
C16A C 0.0348(3) -0.2188(3) -0.3232(6)
C17A C 0.03712(18) -0.2927(2) -0.3266(5)
C20A C 0.0537(5) -0.4480(8) -0.2570(18)
C21A C 0.0512(6) -0.5232(7) -0.251(2)
N1A N -0.12038(9) -0.06712(11) 0.4925(2)
N2A N -0.19759(13) -0.43223(13) 0.5973(3)
H1F H 0.35470 0.24180 0.05310
H2A H -0.15970 -0.05000 0.66440
H3A H -0.18800 -0.16740 0.70010
H4A H -0.11720 -0.22560 0.34990
H5A H -0.09000 -0.10510 0.32080
H6A H -0.22230 -0.27210 0.70940
H7A H -0.24270 -0.39380 0.74510
H8A H -0.15180 -0.45140 0.43840
H9A H -0.12770 -0.33040 0.39520
H10A H -0.20570 -0.48010 0.61220
H11A H 0.06370 -0.19380 -0.38180
H12A H 0.06340 -0.31860 -0.38390
#END
