
#######################################################################
#
#                 Cambridge Crystallographic Data Centre
#                                CCDC
#
#######################################################################
#
# If this CIF has been generated from an entry in the Cambridge
# Structural Database, then it will include bibliographic, chemical,
# crystal, experimental, refinement or atomic coordinate data resulting
# from the CCDC's data processing and validation procedures.
#
#######################################################################

data_CSD_CIF_GUCRAA
_audit_creation_date 2020-02-12
_audit_creation_method CSD-ConQuest-V1
_database_code_CSD GUCRAA
_database_code_depnum_ccdc_archive 'CCDC 1964943'
_chemical_formula_sum 'C28 H51 K2 N5 O27 S2 U3'
_chemical_formula_moiety
;
(C14 H9 O20 S2 U3 3-)n,2(K1 1+),3(H2 O1),C2 H8 N1 1+,4(C3 H7 N1 O1)
;
_journal_coden_Cambridge 9
_journal_volume 59
_journal_year 2020
_journal_page_first 2952
_journal_name_full 'Inorg.Chem. '
loop_
_publ_author_name
"Dan-Dan Liu"
"Yu-Ling Wang"
"Feng Luo"
"Qing-Yan Liu"
_chemical_name_systematic
;
catena-[di-potassium diemthylammonium 
(\m-3,3'-disulfonato[1,1'-biphenyl]-4,4'-dicarboxylato)-(\m-oxo)-tris(\m-hydro
xo)-hexaoxo-tri-uranium(vi) trihydrate N,N-dimethylformamide solvate]
;
_cell_volume   7757.328
_exptl_crystal_colour 'yellow'
_exptl_crystal_description 'plate'
_diffrn_ambient_temperature 296
_refine_special_details
;
Disordered dimethylammonium cation and N,N-dimethylformamide solvent 
molecules were not modelled and the disordered density was taken into account 
using the SQUEEZE/PLATON procedure.
;
#These two values have been output from a single CSD field.
_refine_ls_R_factor_gt 0.0561
_refine_ls_wR_factor_gt 0.0561
_symmetry_cell_setting monoclinic
_symmetry_space_group_name_H-M 'C 2/c'
_symmetry_Int_Tables_number 15
loop_
_symmetry_equiv_pos_site_id
_symmetry_equiv_pos_as_xyz
1 x,y,z
2 -x,y,1/2-z
3 1/2+x,1/2+y,z
4 1/2-x,1/2+y,1/2-z
5 -x,-y,-z
6 x,-y,-1/2+z
7 -1/2-x,-1/2-y,-z
8 -1/2+x,-1/2-y,-1/2+z
_cell_length_a 28.743(3)
_cell_length_b 12.3968(14)
_cell_length_c 21.780(2)
_cell_angle_alpha 90
_cell_angle_beta 91.683(2)
_cell_angle_gamma 90
_cell_formula_units_Z 8
loop_
_atom_type_symbol
_atom_type_radius_bond
C 0.68
H 0.23
K 2.03
O 0.68
S 1.02
U 1.96
loop_
_atom_site_label
_atom_site_type_symbol
_atom_site_fract_x
_atom_site_fract_y
_atom_site_fract_z
U1 U 0.71020(2) 0.42892(5) 0.31357(3)
U2 U 0.77208(2) 0.57583(5) 0.18272(3)
U3 U 0.79434(2) 0.27849(5) 0.20679(3)
S1 S 0.66020(15) 0.1815(4) 0.5532(2)
S2 S 0.35859(16) 0.3575(5) 0.4717(2)
O1 O 0.7595(4) 0.4294(8) 0.2372(5)
O2 O 0.7034(3) 0.5947(7) 0.2551(5)
O3 O 0.7568(4) 0.2593(7) 0.3109(5)
O4 O 0.8147(4) 0.4284(8) 0.1436(5)
O5 O 0.6663(4) 0.3651(9) 0.2670(6)
O6 O 0.7522(4) 0.4890(9) 0.3649(5)
O7 O 0.7287(4) 0.5497(9) 0.1236(6)
O8 O 0.8178(4) 0.6103(9) 0.2376(6)
O9 O 0.7433(4) 0.2440(8) 0.1617(5)
O10 O 0.8470(4) 0.3059(9) 0.2481(5)
O11 O 0.6911(4) 0.3248(8) 0.4005(5)
O12 O 0.6761(4) 0.1497(9) 0.3960(5)
O13 O 0.7028(4) 0.2276(11) 0.5324(6)
O14 O 0.6514(4) 0.2109(11) 0.6163(5)
O15 O 0.6579(5) 0.0651(10) 0.5433(6)
O16 O 0.3521(4) 0.4752(9) 0.6407(5)
O17 O 0.3419(4) 0.3002(9) 0.6288(5)
O18 O 0.3710(5) 0.4080(12) 0.4139(7)
O19 O 0.3230(5) 0.4088(15) 0.5044(7)
O20 O 0.3476(6) 0.2446(12) 0.4628(9)
C1 C 0.6664(6) 0.2416(11) 0.4129(8)
C2 C 0.6221(6) 0.2618(12) 0.4445(9)
C3 C 0.6140(6) 0.2399(12) 0.5064(8)
C4 C 0.5723(6) 0.2654(14) 0.5321(8)
H1 H 0.56797 0.24759 0.57305
C5 C 0.5379(5) 0.3148(13) 0.5009(7)
C6 C 0.5452(5) 0.3382(15) 0.4402(8)
H2 H 0.52155 0.37138 0.41699
C7 C 0.5852(6) 0.3147(13) 0.4138(8)
H3 H 0.58879 0.33437 0.37304
C8 C 0.3622(6) 0.3846(12) 0.6186(8)
C9 C 0.4067(5) 0.3778(12) 0.5840(7)
C10 C 0.4091(6) 0.3590(12) 0.5213(7)
C11 C 0.4517(6) 0.3365(13) 0.4954(8)
H4 H 0.45229 0.31925 0.45390
C12 C 0.4926(6) 0.3388(13) 0.5287(8)
C13 C 0.4914(6) 0.3621(16) 0.5932(9)
H5 H 0.51874 0.36378 0.61710
C14 C 0.4495(6) 0.3817(14) 0.6191(9)
H6 H 0.44876 0.39801 0.66072
K1 K 0.76273(16) 0.0690(3) 0.50179(19)
K2 K 0.8335(2) 0.6034(4) 0.3688(3)
O21 O 0.8933(9) 0.7612(15) 0.3192(9)
O22 O 0.9177(12) 0.432(3) 0.3250(16)
O23 O 0.7792(7) 0.6293(15) 0.5260(8)
U1D U 0.28980(2) 0.57108(5) 0.68643(3)
U2C U 0.72792(2) 0.07583(5) 0.31728(3)
U3C U 0.70566(2) 0.77849(5) 0.29321(3)
U3G U 0.29434(2) 0.22151(5) 0.70679(3)
O2C O 0.7966(3) 0.0947(7) 0.2449(5)
O3C O 0.7432(4) 0.7593(7) 0.1891(5)
O12C O 0.8239(4) 0.6497(9) 0.1040(5)
O16D O 0.6479(4) 0.5248(9) 0.3593(5)
O17G O 0.8419(4) 0.1998(9) 0.1288(5)
#END
