
#######################################################################
#
#                 Cambridge Crystallographic Data Centre
#                                CCDC
#
#######################################################################
#
# If this CIF has been generated from an entry in the Cambridge
# Structural Database, then it will include bibliographic, chemical,
# crystal, experimental, refinement or atomic coordinate data resulting
# from the CCDC's data processing and validation procedures.
#
#######################################################################

data_CSD_CIF_GUCRII
_audit_creation_date 2020-02-12
_audit_creation_method CSD-ConQuest-V1
_database_code_CSD GUCRII
_database_code_depnum_ccdc_archive 'CCDC 1964945'
_chemical_formula_sum 'C52 H65 K3 N5 O40 S6 U2'
_chemical_formula_moiety
;
(C42 H18 O34 S6 U2 8-)n,3(K1 1+),6(H2 O1),5(C2 H7 N1 1+)
;
_journal_coden_Cambridge 9
_journal_volume 59
_journal_year 2020
_journal_page_first 2952
_journal_name_full 'Inorg.Chem. '
loop_
_publ_author_name
"Dan-Dan Liu"
"Yu-Ling Wang"
"Feng Luo"
"Qing-Yan Liu"
_chemical_name_systematic
;
catena-[tri-potassium pentakis(dimethylammonium) 
tris(\m-3,3'-disulfonato[1,1'-biphenyl]-4,4'-dicarboxylato)-tetraoxo-di-uraniu
m(vi) hexahydrate]
;
_cell_volume   6949.391
_exptl_crystal_colour 'colorless'
_exptl_crystal_description 'octahedron'
_diffrn_ambient_temperature 293
_refine_special_details
;
Disordered dimethylammonium cation molecules were not modelled and the 
disordered density was taken into account using the SQUEEZE/PLATON procedure.
;
#These two values have been output from a single CSD field.
_refine_ls_R_factor_gt 0.0545
_refine_ls_wR_factor_gt 0.0545
_symmetry_cell_setting cubic
_symmetry_space_group_name_H-M 'P 43 3 2'
_symmetry_Int_Tables_number 212
loop_
_symmetry_equiv_pos_site_id
_symmetry_equiv_pos_as_xyz
1 x,y,z
2 1/2-x,-y,1/2+z
3 -x,1/2+y,1/2-z
4 1/2+x,1/2-y,-z
5 z,x,y
6 1/2+z,1/2-x,-y
7 1/2-z,-x,1/2+y
8 -z,1/2+x,1/2-y
9 y,z,x
10 -y,1/2+z,1/2-x
11 1/2+y,1/2-z,-x
12 1/2-y,-z,1/2+x
13 1/4+y,3/4+x,3/4-z
14 1/4-y,1/4-x,1/4-z
15 3/4+y,3/4-x,1/4+z
16 3/4-y,1/4+x,3/4+z
17 1/4+x,3/4+z,3/4-y
18 3/4-x,1/4+z,3/4+y
19 1/4-x,1/4-z,1/4-y
20 3/4+x,3/4-z,1/4+y
21 1/4+z,3/4+y,3/4-x
22 3/4+z,3/4-y,1/4+x
23 3/4-z,1/4+y,3/4+x
24 1/4-z,1/4-y,1/4-x
_cell_length_a 19.0831(3)
_cell_length_b 19.0831(3)
_cell_length_c 19.0831(3)
_cell_angle_alpha 90
_cell_angle_beta 90
_cell_angle_gamma 90
_cell_formula_units_Z 4
loop_
_atom_type_symbol
_atom_type_radius_bond
C 0.68
H 0.23
K 2.03
O 0.68
S 1.02
U 1.96
loop_
_atom_site_label
_atom_site_type_symbol
_atom_site_fract_x
_atom_site_fract_y
_atom_site_fract_z
K1 K 0.4217(2) 0.37500 0.6717(2)
U1 U 0.46312(3) 0.46312(3) 0.46312(3)
S1 S 0.3551(3) 0.6552(4) 0.6257(4)
O1 O 0.5143(6) 0.5143(6) 0.5143(6)
O2 O 0.4094(6) 0.4094(6) 0.4094(6)
O3 O 0.3789(6) 0.4539(6) 0.5588(6)
O4 O 0.3632(5) 0.5424(6) 0.4877(5)
O5 O 0.4162(7) 0.6135(12) 0.6254(11)
O6 O 0.3452(15) 0.7097(14) 0.5645(9)
O7 O 0.3476(9) 0.6921(14) 0.692(1)
C1 C 0.3463(8) 0.5087(9) 0.5425(9)
C2 C 0.2846(8) 0.5345(8) 0.5835(7)
C3 C 0.2803(8) 0.5952(10) 0.6206(10)
C4 C 0.2196(9) 0.6168(11) 0.6528(9)
H1 H 0.21837 0.65806 0.67862
C5 C 0.1615(8) 0.5764(8) 0.6460(9)
C6 C 0.1648(11) 0.5107(10) 0.6171(13)
H2 H 0.12807 0.47891 0.62131
C7 C 0.2266(9) 0.4940(9) 0.5806(12)
H3 H 0.22768 0.45350 0.55352
O8 O 0.5302(17) 0.5159(16) 0.6717(16)
S1R S -0.1051(3) 0.6243(4) 0.5948(4)
O3R O -0.1289(6) 0.6912(6) 0.7961(6)
O4R O -0.1132(5) 0.7623(6) 0.7076(5)
O5R O -0.1662(7) 0.6246(12) 0.6365(11)
O6R O -0.0952(15) 0.6855(14) 0.5403(9)
O7R O -0.0976(9) 0.5580(14) 0.5579(10)
C1R C -0.0963(8) 0.7075(9) 0.7413(9)
C2R C -0.0346(8) 0.6665(8) 0.7155(7)
C3R C -0.0303(8) 0.6294(10) 0.6548(10)
C4R C 0.0304(9) 0.5972(11) 0.6332(9)
H1R H 0.03163 0.57138 0.59194
C5R C 0.0885(8) 0.6040(8) 0.6736(9)
C6R C 0.0852(11) 0.6329(10) 0.7393(13)
H2R H 0.12193 0.62869 0.77109
C7R C 0.0234(9) 0.6694(9) 0.7560(12)
H3R H 0.02232 0.69648 0.79650
S1D S 0.6257(3) 0.3551(4) 0.6552(4)
O3D O 0.5588(6) 0.3789(6) 0.4539(6)
O4D O 0.4877(5) 0.3632(6) 0.5424(5)
O5D O 0.6254(7) 0.4162(12) 0.6135(11)
O6D O 0.5645(15) 0.3452(14) 0.7097(9)
O7D O 0.6920(9) 0.3476(14) 0.6921(10)
C1D C 0.5425(8) 0.3463(9) 0.5087(9)
C2D C 0.5835(8) 0.2846(8) 0.5345(7)
C3D C 0.6206(8) 0.2803(10) 0.5952(10)
C4D C 0.6528(9) 0.2196(11) 0.6168(9)
H1D H 0.67862 0.21837 0.65806
C5D C 0.6460(8) 0.1615(8) 0.5764(9)
C6D C 0.6171(11) 0.1648(10) 0.5107(13)
H2D H 0.62131 0.12807 0.47891
C7D C 0.5806(9) 0.2266(9) 0.4940(12)
H3D H 0.55352 0.22768 0.45350
S1M S 0.5948(3) -0.1051(4) 0.6243(4)
O3M O 0.7961(6) -0.1289(6) 0.6912(6)
O4M O 0.7076(5) -0.1132(6) 0.7623(5)
O5M O 0.6365(7) -0.1662(12) 0.6246(11)
O6M O 0.5403(15) -0.0952(14) 0.6855(9)
O7M O 0.5579(9) -0.0976(14) 0.558(1)
C1M C 0.7413(8) -0.0963(9) 0.7075(9)
C2M C 0.7155(8) -0.0346(8) 0.6665(7)
C3M C 0.6548(8) -0.0303(10) 0.6294(10)
C4M C 0.6332(9) 0.0304(11) 0.5972(9)
H1M H 0.59194 0.03163 0.57138
C5M C 0.6736(8) 0.0885(8) 0.6040(9)
C6M C 0.7393(11) 0.0852(10) 0.6329(13)
H2M H 0.77109 0.12193 0.62869
C7M C 0.7560(9) 0.0234(9) 0.6694(12)
H3M H 0.79650 0.02232 0.69648
S1H S 0.6552(3) 0.6257(4) 0.3551(4)
O3H O 0.4539(6) 0.5588(6) 0.3789(6)
O4H O 0.5424(5) 0.4877(6) 0.3632(5)
O5H O 0.6135(7) 0.6254(12) 0.4162(11)
O6H O 0.7097(15) 0.5645(14) 0.3452(9)
O7H O 0.6921(9) 0.6920(14) 0.3476(10)
C1H C 0.5087(8) 0.5425(9) 0.3463(9)
C2H C 0.5345(8) 0.5835(8) 0.2846(7)
C3H C 0.5952(8) 0.6206(10) 0.2803(10)
C4H C 0.6168(9) 0.6528(11) 0.2196(9)
H1H H 0.65806 0.67862 0.21837
C5H C 0.5764(8) 0.6460(8) 0.1615(9)
C6H C 0.5107(11) 0.6171(10) 0.1648(13)
H2H H 0.47891 0.62131 0.12807
C7H C 0.4940(9) 0.5806(9) 0.2266(12)
H3H H 0.45350 0.55352 0.22768
S1W S 0.6243(3) 0.5948(4) -0.1051(4)
O3W O 0.6912(6) 0.7961(6) -0.1289(6)
O4W O 0.7623(5) 0.7076(6) -0.1132(5)
O5W O 0.6246(7) 0.6365(12) -0.1662(11)
O6W O 0.6855(15) 0.5403(14) -0.0952(9)
O7W O 0.5580(9) 0.5579(14) -0.0976(10)
C1W C 0.7075(8) 0.7413(9) -0.0963(9)
C2W C 0.6665(8) 0.7155(8) -0.0346(7)
C3W C 0.6294(8) 0.6548(10) -0.0303(10)
C4W C 0.5972(9) 0.6332(11) 0.0304(9)
H1W H 0.57138 0.59194 0.03163
C5W C 0.6040(8) 0.6736(8) 0.0885(9)
C6W C 0.6329(11) 0.7393(10) 0.0852(13)
H2W H 0.62869 0.77109 0.12193
C7W C 0.6694(9) 0.7560(9) 0.0234(12)
H3W H 0.69648 0.79650 0.02232
U1M U -0.21312(3) 0.78688(3) 0.78688(3)
O1M O -0.2643(6) 0.7357(6) 0.7357(6)
O2M O -0.1594(6) 0.8406(6) 0.8406(6)
U1M* U 0.78688(3) -0.21312(3) 0.78688(3)
U1M** U 0.78688(3) 0.78688(3) -0.21312(3)
O3M* O -0.2039(6) 0.8711(6) 0.6912(6)
O3W* O -0.3088(6) 0.7961(6) 0.8711(6)
O4M* O -0.2924(5) 0.8868(6) 0.7623(5)
O4W* O -0.2377(5) 0.7076(6) 0.8868(5)
#END
