
#######################################################################
#
#                 Cambridge Crystallographic Data Centre
#                                CCDC
#
#######################################################################
#
# If this CIF has been generated from an entry in the Cambridge
# Structural Database, then it will include bibliographic, chemical,
# crystal, experimental, refinement or atomic coordinate data resulting
# from the CCDC's data processing and validation procedures.
#
#######################################################################

data_CSD_CIF_GUFHUN
_audit_creation_date 2020-02-13
_audit_creation_method CSD-ConQuest-V1
_database_code_CSD GUFHUN
_database_code_depnum_ccdc_archive 'CCDC 1947661'
_chemical_formula_sum 'C80 H79 F4 In3 N10 O29'
_chemical_formula_moiety
;
(C60 H24 F4 In3 O24 3-)n,3(C2 H8 N1 1+),5(C2 H5 N1 O1),2(C2 H3 N1)
;
_journal_coden_Cambridge 9
_journal_volume 59
_journal_year 2020
_journal_page_first 2853
_journal_name_full 'Inorg.Chem. '
loop_
_publ_author_name
"Qianqian Chu"
"Bin Zhang"
"Huifang Zhou"
"Bo Liu"
"Lei Hou"
"Yao-Yu Wang"
_chemical_name_systematic
;
catena-[tris(dimethylammonium) 
bis(\m-2^2^,2^5^-difluoro[1^1^,2^1^:2^4^,3^1^-terphenyl]-1^2^,1^5^,3^2^,3^5^-t
etracarboxylato)-bis(\m-benzene-1,4-dicarboxylato)-tri-indium(iii) 
acetonitrile N-methylformamide solvate]
;
_cell_volume  10319.407
_exptl_crystal_colour 'colorless'
_exptl_crystal_description 'block'
_diffrn_ambient_temperature 296.1
_refine_special_details
;
Disordered cation and solvent molecules were not modelled and the disordered 
density was taken into account using the MASK/OLEX2 program.
;
#These two values have been output from a single CSD field.
_refine_ls_R_factor_gt 0.0586
_refine_ls_wR_factor_gt 0.0586
_symmetry_cell_setting orthorhombic
_symmetry_space_group_name_H-M 'C c c a'
_symmetry_Int_Tables_number 68
loop_
_symmetry_equiv_pos_site_id
_symmetry_equiv_pos_as_xyz
1 x,y,z
2 1/2-x,-y,z
3 -x,y,1/2-z
4 1/2+x,-y,1/2-z
5 1/2+x,1/2+y,z
6 -x,1/2-y,z
7 1/2-x,1/2+y,1/2-z
8 x,1/2-y,1/2-z
9 -x,-y,-z
10 -1/2+x,y,-z
11 x,-y,-1/2+z
12 -1/2-x,y,-1/2+z
13 -1/2-x,-1/2-y,-z
14 x,-1/2+y,-z
15 -1/2+x,-1/2-y,-1/2+z
16 -x,-1/2+y,-1/2+z
_cell_length_a 18.984(4)
_cell_length_b 26.394(6)
_cell_length_c 20.595(5)
_cell_angle_alpha 90
_cell_angle_beta 90
_cell_angle_gamma 90
_cell_formula_units_Z 4
loop_
_atom_type_symbol
_atom_type_radius_bond
C 0.68
H 0.23
F 0.64
In 1.42
O 0.68
loop_
_atom_site_label
_atom_site_type_symbol
_atom_site_fract_x
_atom_site_fract_y
_atom_site_fract_z
In1 In 0.25000 0.50000 0.38465(3)
In2 In 0.50000 0.25000 0.75000
F1 F 0.45379(18) 0.43081(14) 0.41262(15)
O1 O 0.3264(2) 0.48505(14) 0.46458(17)
O2 O 0.2638(2) 0.41996(16) 0.43314(18)
O3 O 0.5041(3) 0.31584(18) 0.6782(2)
O4 O 0.4069(3) 0.27684(18) 0.6913(2)
O5 O 0.1606(2) 0.45409(16) 0.33711(17)
O6 O 0.1723(2) 0.53420(17) 0.31404(17)
C1 C 0.3091(3) 0.4391(2) 0.4694(2)
C2 C 0.3476(3) 0.4055(2) 0.5193(2)
C3 C 0.4137(3) 0.4166(2) 0.5443(2)
C4 C 0.4572(3) 0.4602(2) 0.5205(3)
C5 C 0.4760(3) 0.4657(2) 0.4563(3)
C6 C 0.5191(3) 0.5039(2) 0.4345(3)
C7 C 0.4421(3) 0.3848(2) 0.5899(2)
H1 H 0.48721 0.39167 0.60526
C8 C 0.4074(4) 0.3437(2) 0.6137(3)
C9 C 0.4403(4) 0.3100(3) 0.6654(3)
C10 C 0.3411(4) 0.3324(2) 0.5888(3)
H2 H 0.31719 0.30392 0.60374
C11 C 0.3099(3) 0.3632(2) 0.5415(3)
H3 H 0.26539 0.35581 0.52518
C12 C 0.1374(3) 0.4936(3) 0.3110(2)
C13 C 0.0668(3) 0.4934(2) 0.2785(2)
C14 C 0.0326(3) 0.4471(2) 0.2648(2)
H4 H 0.05396 0.41656 0.27581
C15 C 0.0339(3) 0.5387(2) 0.2642(2)
H5 H 0.05638 0.56922 0.27333
F1H F 0.54621(18) 0.56919(14) 0.58738(15)
O1H O 0.6736(2) 0.51495(14) 0.53542(17)
O2H O 0.7362(2) 0.58004(16) 0.56686(18)
O3H O 0.4959(3) 0.68416(18) 0.3218(2)
O4H O 0.5931(3) 0.72316(18) 0.3087(2)
C1H C 0.6909(3) 0.5609(2) 0.5306(2)
C2H C 0.6524(3) 0.5945(2) 0.4807(2)
C3H C 0.5863(3) 0.5834(2) 0.4557(2)
C4H C 0.5428(3) 0.5398(2) 0.4795(3)
C5H C 0.5240(3) 0.5343(2) 0.5437(3)
C6H C 0.4809(3) 0.4961(2) 0.5655(3)
C7H C 0.5579(3) 0.6152(2) 0.4101(2)
H1H H 0.51279 0.60833 0.39474
C8H C 0.5926(4) 0.6563(2) 0.3863(3)
C9H C 0.5597(4) 0.6900(3) 0.3346(3)
C10H C 0.6589(4) 0.6676(2) 0.4112(3)
H2H H 0.68281 0.69608 0.39626
C11H C 0.6901(3) 0.6368(2) 0.4585(3)
H3H H 0.73461 0.64419 0.47482
O5B O -0.1606(2) 0.45409(16) 0.16289(17)
O6B O -0.1723(2) 0.53420(17) 0.18596(17)
C12B C -0.1374(3) 0.4936(3) 0.1890(2)
C13B C -0.0668(3) 0.4934(2) 0.2215(2)
C14B C -0.0326(3) 0.4471(2) 0.2352(2)
H4B H -0.05396 0.41656 0.22419
C15B C -0.0339(3) 0.5387(2) 0.2358(2)
H5B H -0.05638 0.56922 0.22667
F1A F 0.04621(18) 0.56919(14) 0.41262(15)
O1A O 0.1736(2) 0.51495(14) 0.46458(17)
O2A O 0.2362(2) 0.58004(16) 0.43314(18)
O3A O -0.0041(3) 0.68416(18) 0.6782(2)
O4A O 0.0931(3) 0.72316(18) 0.6913(2)
O5A O 0.3394(2) 0.54591(16) 0.33711(17)
O6A O 0.3277(2) 0.46580(17) 0.31404(17)
C1A C 0.1909(3) 0.5609(2) 0.4694(2)
C2A C 0.1524(3) 0.5945(2) 0.5193(2)
C3A C 0.0863(3) 0.5834(2) 0.5443(2)
C4A C 0.0428(3) 0.5398(2) 0.5205(3)
C5A C 0.0240(3) 0.5343(2) 0.4563(3)
C6A C -0.0191(3) 0.4961(2) 0.4345(3)
C7A C 0.0579(3) 0.6152(2) 0.5899(2)
H1A H 0.01279 0.60833 0.60526
C8A C 0.0926(4) 0.6563(2) 0.6137(3)
C9A C 0.0597(4) 0.6900(3) 0.6654(3)
C10A C 0.1589(4) 0.6676(2) 0.5888(3)
H2A H 0.18281 0.69608 0.60374
C11A C 0.1901(3) 0.6368(2) 0.5415(3)
H3A H 0.23461 0.64419 0.52518
C12A C 0.3626(3) 0.5064(3) 0.3110(2)
C13A C 0.4332(3) 0.5066(2) 0.2785(2)
C14A C 0.4674(3) 0.5529(2) 0.2648(2)
H4A H 0.44604 0.58344 0.27581
C15A C 0.4661(3) 0.4613(2) 0.2642(2)
H5A H 0.44362 0.43078 0.27333
F1I F -0.04621(18) 0.43081(14) 0.58738(15)
O1I O -0.1736(2) 0.48505(14) 0.53542(17)
O2I O -0.2362(2) 0.41996(16) 0.56686(18)
O3I O 0.0041(3) 0.31584(18) 0.3218(2)
O4I O -0.0931(3) 0.27684(18) 0.3087(2)
C1I C -0.1909(3) 0.4391(2) 0.5306(2)
C2I C -0.1524(3) 0.4055(2) 0.4807(2)
C3I C -0.0863(3) 0.4166(2) 0.4557(2)
C4I C -0.0428(3) 0.4602(2) 0.4795(3)
C5I C -0.0240(3) 0.4657(2) 0.5437(3)
C6I C 0.0191(3) 0.5039(2) 0.5655(3)
C7I C -0.0579(3) 0.3848(2) 0.4101(2)
H1I H -0.01279 0.39167 0.39474
C8I C -0.0926(4) 0.3437(2) 0.3863(3)
C9I C -0.0597(4) 0.3100(3) 0.3346(3)
C10I C -0.1589(4) 0.3324(2) 0.4112(3)
H2I H -0.18281 0.30392 0.39626
C11I C -0.1901(3) 0.3632(2) 0.4585(3)
H3I H -0.23461 0.35581 0.47482
O5C O 0.6606(2) 0.54591(16) 0.16289(17)
O6C O 0.6723(2) 0.46580(17) 0.18596(17)
C12C C 0.6374(3) 0.5064(3) 0.1890(2)
C13C C 0.5668(3) 0.5066(2) 0.2215(2)
C14C C 0.5326(3) 0.5529(2) 0.2352(2)
H4C H 0.55397 0.58344 0.22419
C15C C 0.5339(3) 0.4613(2) 0.2358(2)
H5C H 0.55638 0.43078 0.22667
In1B In -0.25000 0.50000 0.11535(3)
In1B* In 0.75000 0.50000 0.11535(3)
In1H In -0.25000 0.50000 0.61535(3)
In1H* In 0.75000 0.50000 0.61535(3)
In2A In 0.00000 0.75000 0.75000
In2H In 0.50000 0.75000 0.25000
In2I In 0.00000 0.25000 0.25000
O1B O -0.3264(2) 0.48505(14) 0.03542(17)
O1C O -0.1736(2) 0.51495(14) 0.03542(17)
O2B O -0.2638(2) 0.41996(16) 0.06686(18)
O2C O -0.2362(2) 0.58004(16) 0.06686(18)
O3B O 0.4959(3) 0.31584(18) 0.8218(2)
O3E O 0.4959(3) 0.18416(18) 0.6782(2)
O3G O 0.5041(3) 0.18416(18) 0.8218(2)
O4B O 0.5931(3) 0.27684(18) 0.8087(2)
O4E O 0.5931(3) 0.22316(18) 0.6913(2)
O4G O 0.4069(3) 0.22316(18) 0.8087(2)
O5C* O -0.3394(2) 0.54591(16) 0.16289(17)
O6C* O -0.3277(2) 0.46580(17) 0.18596(17)
#END
