
#######################################################################
#
#                 Cambridge Crystallographic Data Centre
#                                CCDC
#
#######################################################################
#
# If this CIF has been generated from an entry in the Cambridge
# Structural Database, then it will include bibliographic, chemical,
# crystal, experimental, refinement or atomic coordinate data resulting
# from the CCDC's data processing and validation procedures.
#
#######################################################################

data_CSD_CIF_GUFYUE
_audit_creation_date 2020-02-13
_audit_creation_method CSD-ConQuest-V1
_database_code_CSD GUFYUE
_database_code_depnum_ccdc_archive 'CCDC 1958798'
_chemical_formula_sum 'C41.5 H67.5 Al3 N2.5 O31.5'
_chemical_formula_moiety
;
(C36 H12 Al3 O13 2-)n,18(H2 O1),0.5(C3 H7 N1 O1),2(C2 H8 N1 1+)
;
_journal_coden_Cambridge 222
_journal_volume 49
_journal_year 2020
_journal_page_first 3088
_journal_name_full 'Dalton Trans. '
loop_
_publ_author_name
"S.Leubner"
"V.E.G.Bengtsson"
"A.K.Inge"
"M.Wahiduzzaman"
"F.Steinke"
"A.Jaworski"
"H.Xu"
"S.Halis"
"P.Ronfeldt"
"H.Reinsch"
"G.Maurin"
"X.Zou"
"N.Stock"
_chemical_name_systematic
;
catena-[bis(dimethylammonium) 
(\m-triphenylene-2,3,6,7,10,11-hexakis(olato))-(\m-triphenylene-2,3,6,7,10,11-
hexakis(olato) radical)-(\m-oxo)-tri-aluminium(iii) N,N-dimethylformamide 
solvate octadecahydrate]
;
_chemical_name_common
;
Al-CAU-42
;
_cell_volume  31954.601
_exptl_crystal_colour 'colorless'
_exptl_special_details
;
powder data
The cation and solvent molecules are not crystallographically located. A 
structure model generated from electron diffraction data of a metal-organic 
framework powder sample was used for Rietveld refinement
;
_exptl_crystal_description 'octahedra'
_diffrn_ambient_temperature 293
_refine_special_details
;
The structure is disordered.

;
#These two values have been output from a single CSD field.
_refine_ls_R_factor_gt 0.0436
_refine_ls_wR_factor_gt 0.0436
_symmetry_cell_setting cubic
_symmetry_space_group_name_H-M 'F 2 3'
_symmetry_Int_Tables_number 196
loop_
_symmetry_equiv_pos_site_id
_symmetry_equiv_pos_as_xyz
1 x,y,z
2 -x,y,-z
3 -y,-z,x
4 y,-z,-x
5 z,-x,-y
6 -y,z,-x
7 z,x,y
8 -z,x,-y
9 -z,-x,y
10 y,z,x
11 -x,-y,z
12 x,-y,-z
13 x,1/2+y,1/2+z
14 -x,1/2+y,1/2-z
15 -y,1/2-z,1/2+x
16 y,1/2-z,1/2-x
17 z,1/2-x,1/2-y
18 -y,1/2+z,1/2-x
19 z,1/2+x,1/2+y
20 -z,1/2+x,1/2-y
21 -z,1/2-x,1/2+y
22 y,1/2+z,1/2+x
23 -x,1/2-y,1/2+z
24 x,1/2-y,1/2-z
25 1/2+x,y,1/2+z
26 1/2-x,y,1/2-z
27 1/2-y,-z,1/2+x
28 1/2+y,-z,1/2-x
29 1/2+z,-x,1/2-y
30 1/2-y,z,1/2-x
31 1/2+z,x,1/2+y
32 1/2-z,x,1/2-y
33 1/2-z,-x,1/2+y
34 1/2+y,z,1/2+x
35 1/2-x,-y,1/2+z
36 1/2+x,-y,1/2-z
37 1/2+x,1/2+y,z
38 1/2-x,1/2+y,-z
39 1/2-y,1/2-z,x
40 1/2+y,1/2-z,-x
41 1/2+z,1/2-x,-y
42 1/2-y,1/2+z,-x
43 1/2+z,1/2+x,y
44 1/2-z,1/2+x,-y
45 1/2-z,1/2-x,y
46 1/2+y,1/2+z,x
47 1/2-x,1/2-y,z
48 1/2+x,1/2-y,-z
_cell_length_a 31.733(5)
_cell_length_b 31.733(5)
_cell_length_c 31.733(5)
_cell_angle_alpha 90
_cell_angle_beta 90
_cell_angle_gamma 90
_cell_formula_units_Z 4
loop_
_atom_type_symbol
_atom_type_radius_bond
C 0.68
Al 1.21
O 0.68
loop_
_atom_site_label
_atom_site_type_symbol
_atom_site_fract_x
_atom_site_fract_y
_atom_site_fract_z
Al1 Al 0.648(2) 0.648(2) 0.586(4)
O1 O 0.604(6) 0.604(6) 0.604(6)
C1 C 0.548(17) 0.580(24) 0.388(17)
C2 C 0.515(34) 0.580(47) 0.355(34)
C3 C 0.483(54) 0.613(79) 0.355(61)
C4 C 0.548(42) 0.613(42) 0.420(39)
C5 C 0.483(85) 0.645(99) 0.387(85)
C6 C 0.516(84) 0.645(84) 0.420(77)
O2 O 0.454(64) 0.613(99) 0.326(75)
O3 O 0.45(12) 0.67(14) 0.39(12)
O4 O 0.680(44) 0.626(70) 0.620(63)
C7 C 0.779(17) 0.658(19) 0.677(17)
C8 C 0.785(15) 0.696(17) 0.652(13)
C9 C 0.757(30) 0.706(34) 0.617(26)
C10 C 0.721(26) 0.678(47) 0.608(31)
C11 C 0.715(19) 0.641(50) 0.630(36)
C12 C 0.743(34) 0.631(39) 0.667(33)
O5 O 0.696(37) 0.687(61) 0.577(41)
O6 O 0.75000 0.25000 0.25000
O7 O 0.445(5) 0.555(5) 0.445(5)
C13? C 0.713(36) 0.634(54) 0.643(50)
O8? O 0.683(44) 0.616(67) 0.625(50)
C14? C 0.777(12) 0.678(19) 0.660(16)
C15? C 0.787(25) 0.650(22) 0.695(23)
C16? C 0.741(23) 0.669(38) 0.634(32)
C17? C 0.723(53) 0.606(58) 0.679(58)
C18? C 0.76(5) 0.615(45) 0.705(46)
O9? O 0.698(75) 0.575(77) 0.687(78)
C1C C 0.580(17) 0.612(24) 0.452(17)
C2C C 0.580(34) 0.645(47) 0.485(34)
C3C C 0.613(54) 0.645(79) 0.517(61)
C4C C 0.613(42) 0.580(42) 0.452(39)
C5C C 0.645(85) 0.613(99) 0.517(85)
C6C C 0.645(84) 0.580(84) 0.484(77)
O2C O 0.613(64) 0.674(99) 0.546(75)
O3C O 0.67(12) 0.61(14) 0.55(12)
C1G C 0.612(17) 0.548(24) 0.420(17)
C2G C 0.645(34) 0.515(47) 0.420(34)
C3G C 0.645(54) 0.483(79) 0.387(61)
C4G C 0.580(42) 0.548(42) 0.387(39)
C5G C 0.613(85) 0.483(99) 0.355(85)
C6G C 0.580(84) 0.516(84) 0.355(77)
O2G O 0.674(64) 0.454(99) 0.387(75)
O3G O 0.61(12) 0.45(14) 0.33(12)
O4CA O 0.874(44) 0.62(7) 0.820(63)
C7CA C 0.842(17) 0.677(19) 0.721(17)
C8CA C 0.804(15) 0.652(17) 0.715(13)
C9CA C 0.794(30) 0.617(34) 0.743(26)
C10CA C 0.822(26) 0.608(47) 0.779(31)
C11CA C 0.859(19) 0.63(5) 0.785(36)
C12CA C 0.869(34) 0.667(39) 0.757(33)
O5CA O 0.813(37) 0.577(61) 0.804(41)
O4RA O 0.880(44) 0.82(7) 0.626(63)
C7RA C 0.823(17) 0.721(19) 0.658(17)
C8RA C 0.848(15) 0.715(17) 0.696(13)
C9RA C 0.883(30) 0.743(34) 0.706(26)
C10RA C 0.892(26) 0.779(47) 0.678(31)
C11RA C 0.870(19) 0.785(50) 0.641(36)
C12RA C 0.833(34) 0.757(39) 0.631(33)
O5RA O 0.923(37) 0.804(61) 0.687(41)
Al1C Al 0.648(2) 0.414(2) 0.352(4)
Al1I Al 0.648(2) 0.586(2) 0.648(4)
Al1F Al 0.586(2) 0.648(2) 0.648(4)
Al1G Al 0.414(2) 0.648(2) 0.352(4)
Al1CA Al 0.852(2) 0.586(2) 0.852(4)
Al1EA Al 0.914(2) 0.648(2) 0.852(4)
Al1RA Al 0.914(2) 0.852(2) 0.648(4)
Al1TA Al 0.852(2) 0.852(2) 0.586(4)
O1C O 0.604(6) 0.396(6) 0.396(6)
O2H O 0.674(64) 0.546(99) 0.613(75)
O3H O 0.61(12) 0.55(14) 0.67(12)
O4C O 0.626(44) 0.38(7) 0.320(63)
O4F O 0.620(44) 0.68(7) 0.626(63)
O4I O 0.626(44) 0.62(7) 0.680(63)
O4K O 0.680(44) 0.374(70) 0.380(63)
O5C O 0.687(37) 0.423(61) 0.304(41)
O5I O 0.687(37) 0.577(61) 0.696(41)
#END
