
#######################################################################
#
#                 Cambridge Crystallographic Data Centre
#                                CCDC
#
#######################################################################
#
# If this CIF has been generated from an entry in the Cambridge
# Structural Database, then it will include bibliographic, chemical,
# crystal, experimental, refinement or atomic coordinate data resulting
# from the CCDC's data processing and validation procedures.
#
#######################################################################

data_CSD_CIF_GUGGAT
_audit_creation_date 2020-02-13
_audit_creation_method CSD-ConQuest-V1
_database_code_CSD GUGGAT
_database_code_depnum_ccdc_archive 'CCDC 957019'
_chemical_formula_sum 'C108 H89.36 Cu2 I2 N4 O12.68 P4 S4'
_chemical_formula_moiety
;
(C12 H8 Cu2 I2 N4 O12 S4 4-)n,4(C24 H20 P1 1+),0.68(H2 O1)
;
_journal_coden_Cambridge 1488
_journal_volume 29
_journal_year 2013
_journal_page_first 41
_journal_name_full 'X-ray.Str.Anal.Online. '
loop_
_publ_author_name
"H.Akutsu"
"J.Yamada"
"S.Nakatsuji"
"S.S.Turner"
_chemical_name_systematic
;
catena-[tetrakis(tetraphenylphosphonium) 
bis(\m-cyclohexa-2,5-diene-1,4-diylidenedisulfamato)-bis(iodo)-di-copper(i) 
hydrate]
;
_cell_volume   5204.682
_exptl_crystal_colour 'black'
_exptl_crystal_density_diffrn 1.454
_exptl_crystal_description 'block'
_diffrn_ambient_temperature 295
#These two values have been output from a single CSD field.
_refine_ls_R_factor_gt 0.059
_refine_ls_wR_factor_gt 0.059
_symmetry_cell_setting monoclinic
_symmetry_space_group_name_H-M 'P 21/c'
_symmetry_Int_Tables_number 14
loop_
_symmetry_equiv_pos_site_id
_symmetry_equiv_pos_as_xyz
1 x,y,z
2 -x,1/2+y,1/2-z
3 -x,-y,-z
4 x,-1/2-y,-1/2+z
_cell_length_a 16.7521(19)
_cell_length_b 13.8506(16)
_cell_length_c 22.607(3)
_cell_angle_alpha 90
_cell_angle_beta 97.146(3)
_cell_angle_gamma 90
_cell_formula_units_Z 2
loop_
_atom_type_symbol
_atom_type_radius_bond
C 0.68
H 0.23
Cu 1.32
I 1.40
N 0.68
O 0.68
P 1.05
S 1.02
loop_
_atom_site_label
_atom_site_type_symbol
_atom_site_fract_x
_atom_site_fract_y
_atom_site_fract_z
I1 I 0.313503(18) 0.06908(3) 0.122582(13)
Cu1 Cu 0.25529(3) 0.01411(4) 0.01652(2)
S1 S 0.16727(6) 0.18252(9) -0.04080(5)
S2 S 0.32302(6) -0.18811(7) 0.00883(5)
O1 O 0.25362(17) 0.1813(3) -0.04010(16)
O2 O 0.1230(2) 0.1847(3) -0.09898(15)
O3 O 0.1387(2) 0.2494(3) 0.00007(18)
O4 O 0.36143(19) -0.2158(3) 0.06637(14)
O5 O 0.3528(3) -0.2376(3) -0.03946(16)
O6 O 0.23702(17) -0.1827(3) 0.00490(17)
N1 N 0.15122(18) 0.0675(3) -0.01341(14)
N2 N 0.34640(17) -0.0675(3) -0.00016(13)
C1 C 0.0773(2) 0.0385(3) -0.00778(16)
C2 C 0.0056(2) 0.0978(3) -0.01817(18)
C3 C 0.0674(3) -0.0599(3) 0.01101(18)
C4 C 0.4215(2) -0.0390(3) -0.00027(16)
C5 C 0.4350(2) 0.0630(3) -0.00812(17)
C6 C 0.4915(2) -0.1016(3) 0.00720(17)
H1 H 0.00960 0.16190 -0.02970
H2 H 0.11270 -0.09890 0.01850
H3 H 0.39060 0.10380 -0.01410
H4 H 0.48540 -0.16790 0.01130
P1 P -0.02691(7) 0.00611(8) 0.32340(5)
C7 C -0.0949(3) -0.0925(3) 0.30816(19)
C8 C -0.1130(3) -0.1286(4) 0.2514(2)
C9 C -0.1685(3) -0.2013(4) 0.2402(3)
C10 C -0.2061(3) -0.2394(4) 0.2854(3)
C11 C -0.1866(4) -0.2067(4) 0.3427(3)
C12 C -0.1310(3) -0.1342(4) 0.3545(2)
C13 C -0.0794(3) 0.1125(3) 0.34035(18)
C14 C -0.1556(3) 0.1086(4) 0.3587(2)
C15 C -0.1919(4) 0.1936(4) 0.3741(2)
C16 C -0.1539(4) 0.2808(4) 0.3705(2)
C17 C -0.0798(4) 0.2851(4) 0.3517(3)
C18 C -0.0414(3) 0.2022(4) 0.3368(2)
C19 C 0.0460(3) -0.0277(4) 0.3841(2)
C20 C 0.0791(4) 0.0404(4) 0.4256(3)
C21 C 0.1382(4) 0.0131(6) 0.4712(3)
C22 C 0.1624(5) -0.0814(6) 0.4748(3)
C23 C 0.1310(4) -0.1490(5) 0.4349(4)
C24 C 0.0716(4) -0.1226(4) 0.3896(3)
C25 C 0.0224(3) 0.0308(4) 0.2593(2)
C26 C 0.1011(3) 0.0031(4) 0.2574(3)
C27 C 0.1386(5) 0.0197(5) 0.2079(4)
C28 C 0.0964(5) 0.0636(5) 0.1603(3)
C29 C 0.0184(5) 0.0910(5) 0.1596(3)
C30 C -0.0200(4) 0.0754(4) 0.2111(3)
H5 H -0.08740 -0.10370 0.22050
H6 H -0.18070 -0.22480 0.20160
H7 H -0.24470 -0.28740 0.27730
H8 H -0.21100 -0.23370 0.37350
H9 H -0.11730 -0.11270 0.39340
H10 H -0.18190 0.04970 0.36060
H11 H -0.24250 0.19140 0.38700
H12 H -0.17880 0.33720 0.38090
H13 H -0.05470 0.34450 0.34900
H14 H 0.00940 0.20570 0.32440
H15 H 0.06170 0.10420 0.42270
H16 H 0.16080 0.05820 0.49880
H17 H 0.20170 -0.09990 0.50540
H18 H 0.14920 -0.21240 0.43800
H19 H 0.04890 -0.16890 0.36280
H20 H 0.12920 -0.02730 0.29030
H21 H 0.19180 0.00120 0.20700
H22 H 0.12180 0.07540 0.12680
H23 H -0.00920 0.11960 0.12590
H24 H -0.07300 0.09490 0.21220
P2 P 0.49840(7) -0.00302(9) 0.32064(5)
C31 C 0.4259(3) -0.0950(4) 0.29876(19)
C32 C 0.4009(3) -0.1135(4) 0.2386(2)
C33 C 0.3389(4) -0.1760(4) 0.2227(3)
C34 C 0.2995(4) -0.2196(5) 0.2649(3)
C35 C 0.3231(4) -0.2022(5) 0.3245(3)
C36 C 0.3867(3) -0.1417(4) 0.3418(3)
C37 C 0.4455(3) 0.1056(4) 0.33365(19)
C38 C 0.3656(3) 0.1025(4) 0.3439(2)
C39 C 0.3281(4) 0.1870(5) 0.3581(3)
C40 C 0.3686(4) 0.2725(5) 0.3615(3)
C41 C 0.4475(4) 0.2765(4) 0.3508(3)
C42 C 0.4864(4) 0.1935(4) 0.3370(3)
C43 C 0.5596(3) -0.0411(4) 0.3875(2)
C44 C 0.5806(4) 0.0248(5) 0.4335(3)
C45 C 0.6284(5) -0.0073(6) 0.4839(3)
C46 C 0.6555(4) -0.1013(6) 0.4879(3)
C47 C 0.6347(4) -0.1651(5) 0.4426(3)
C48 C 0.5870(4) -0.1354(4) 0.3925(3)
C49 C 0.5602(3) 0.0194(4) 0.2622(2)
C50 C 0.6374(3) -0.0155(4) 0.2652(3)
C51 C 0.6811(4) -0.0004(5) 0.2181(3)
C52 C 0.6482(4) 0.0466(5) 0.1683(3)
C53 C 0.5711(4) 0.0827(5) 0.1648(3)
C54 C 0.5272(3) 0.0698(4) 0.2117(3)
H25 H 0.42650 -0.08320 0.20950
H26 H 0.32330 -0.18920 0.18250
H27 H 0.25670 -0.26100 0.25340
H28 H 0.29580 -0.23160 0.35310
H29 H 0.40370 -0.13170 0.38200
H30 H 0.33760 0.04440 0.34130
H31 H 0.27470 0.18530 0.36540
H32 H 0.34260 0.32860 0.37110
H33 H 0.47460 0.33530 0.35290
H34 H 0.53990 0.19610 0.32990
H35 H 0.56300 0.08850 0.43040
H36 H 0.64240 0.03500 0.51540
H37 H 0.68830 -0.12150 0.52190
H38 H 0.65300 -0.22850 0.44580
H39 H 0.57280 -0.17880 0.36150
H40 H 0.66010 -0.04910 0.29880
H41 H 0.73370 -0.02280 0.22060
H42 H 0.67770 0.05450 0.13640
H43 H 0.54890 0.11570 0.13090
H44 H 0.47540 0.09470 0.20970
O7 O 0.1760(9) -0.0908(16) -0.1198(7)
H45 H 0.19200 -0.11590 -0.08710
H46 H 0.18140 -0.03130 -0.11720
S1B S -0.16727(6) -0.18252(9) 0.04080(5)
O1B O -0.25362(17) -0.1813(3) 0.04010(16)
O2B O -0.1230(2) -0.1847(3) 0.09898(15)
O3B O -0.1387(2) -0.2494(3) -0.00007(18)
N1B N -0.15122(18) -0.0675(3) 0.01341(14)
C1B C -0.0773(2) -0.0385(3) 0.00778(16)
C2B C -0.0056(2) -0.0978(3) 0.01817(18)
C3B C -0.0674(3) 0.0599(3) -0.01101(18)
H1B H -0.00960 -0.16190 0.02970
H2B H -0.11270 0.09890 -0.01850
S2B S 0.67698(6) 0.18811(7) -0.00883(5)
O4B O 0.63857(19) 0.2158(3) -0.06637(14)
O5B O 0.6472(3) 0.2376(3) 0.03946(16)
O6B O 0.76298(17) 0.1827(3) -0.00490(17)
N2B N 0.65360(17) 0.0675(3) 0.00016(13)
C4B C 0.5785(2) 0.0390(3) 0.00027(16)
C5B C 0.5650(2) -0.0630(3) 0.00812(17)
C6B C 0.5085(2) 0.1016(3) -0.00720(17)
H3B H 0.60940 -0.10380 0.01410
H4B H 0.51460 0.16790 -0.01130
I1B I -0.313503(18) -0.06908(3) -0.122582(13)
Cu1B Cu -0.25529(3) -0.01411(4) -0.01652(2)
Cu1B* Cu 0.74471(3) -0.01411(4) -0.01652(2)
O6B* O -0.23702(17) 0.1827(3) -0.00490(17)
N2B* N -0.34640(17) 0.0675(3) 0.00016(13)
#END
