
#######################################################################
#
#                 Cambridge Crystallographic Data Centre
#                                CCDC
#
#######################################################################
#
# If this CIF has been generated from an entry in the Cambridge
# Structural Database, then it will include bibliographic, chemical,
# crystal, experimental, refinement or atomic coordinate data resulting
# from the CCDC's data processing and validation procedures.
#
#######################################################################

data_CSD_CIF_GUGNON
_audit_creation_date 2015-04-17
_audit_creation_method CSD-ConQuest-V1
_database_code_CSD GUGNON
_database_code_depnum_ccdc_archive 'CCDC 1009181'
_chemical_formula_sum 'C37 H41 N3 O8 Zn1'
_chemical_formula_moiety
;
(C2 H8 N1 1+)n,n(C31 H24 N1 O7 Zn1 1-),n(C4 H9 N1 O1)
;
_journal_coden_Cambridge 211
_journal_volume 68
_journal_year 2015
_journal_page_first 130
_journal_name_full 'J.Coord.Chem. '
loop_
_publ_author_name
"J.Wang"
_chemical_name_systematic
;
catena-[Dimethylammonium 
(\m~3~-1,3,5-tris(4-carboxylatophenyl)benzene)-(N,N-dimethylacetamide-O)-zinc 
N,N-dimethylacetamide solvate]
;
_cell_volume   3476.316
_exptl_crystal_colour 'colorless'
_exptl_crystal_density_diffrn 1.378
_exptl_crystal_description 'plate'
_diffrn_ambient_temperature 100
_refine_special_details
;
C32,C33,C34,C35,N2,O8 and C32B,C33B,C34B,C35B,N2B,O8B disordered over two 
sites with occupancies 0.580:0.420.
;
#These two values have been output from a single CSD field.
_refine_ls_R_factor_gt 0.0377
_refine_ls_wR_factor_gt 0.0377
_symmetry_cell_setting monoclinic
_symmetry_space_group_name_H-M 'P 21/n'
_symmetry_Int_Tables_number 14
loop_
_symmetry_equiv_pos_site_id
_symmetry_equiv_pos_as_xyz
1 x,y,z
2 1/2-x,1/2+y,1/2-z
3 -x,-y,-z
4 -1/2+x,-1/2-y,-1/2+z
_cell_length_a 14.3200(13)
_cell_length_b 8.7789(8)
_cell_length_c 27.653(3)
_cell_angle_alpha 90
_cell_angle_beta 90.3054(13)
_cell_angle_gamma 90
_cell_formula_units_Z 4
loop_
_atom_type_symbol
_atom_type_radius_bond
C 0.68
H 0.23
N 0.68
O 0.68
Zn 1.22
loop_
_atom_site_label
_atom_site_type_symbol
_atom_site_fract_x
_atom_site_fract_y
_atom_site_fract_z
C1 C 0.46896(9) 0.35448(15) 0.43669(5)
C2 C 0.38633(9) 0.38500(15) 0.46145(5)
H1 H 0.33650 0.43400 0.44480
C3 C 0.37501(9) 0.34551(15) 0.50985(5)
C4 C 0.44734(10) 0.26924(16) 0.53370(5)
H2 H 0.44010 0.24060 0.56660
C5 C 0.53048(9) 0.23445(15) 0.50967(5)
C6 C 0.54070(9) 0.27843(15) 0.46139(5)
H3 H 0.59730 0.25630 0.44510
C7 C 0.49671(10) 0.55610(16) 0.23706(5)
C8 C 0.49301(9) 0.50706(16) 0.28947(5)
C9 C 0.43724(10) 0.58516(16) 0.32238(5)
H4 H 0.40330 0.67250 0.31220
C10 C 0.43111(10) 0.53593(16) 0.36990(5)
H5 H 0.39370 0.59140 0.39210
C11 C 0.47900(9) 0.40584(16) 0.38593(5)
C12 C 0.5368(1) 0.33096(16) 0.35295(5)
H6 H 0.57160 0.24440 0.36310
C13 C 0.5438(1) 0.38189(16) 0.30550(5)
H7 H 0.58390 0.33030 0.28370
C14 C 0.04429(10) 0.60724(16) 0.59725(5)
C15 C 0.13065(9) 0.53707(16) 0.57589(5)
C16 C 0.12532(10) 0.46806(17) 0.53046(5)
H8 H 0.06750 0.46720 0.51340
C17 C 0.20331(10) 0.40068(16) 0.50987(5)
H9 H 0.19850 0.35540 0.47880
C18 C 0.28902(9) 0.39879(15) 0.53457(5)
C19 C 0.29330(9) 0.46322(16) 0.58076(5)
H10 H 0.35010 0.45880 0.59860
C20 C 0.21559(10) 0.53391(16) 0.60101(5)
H11 H 0.22040 0.58010 0.63200
C21 C 0.83885(10) -0.07291(16) 0.60603(5)
C22 C 0.75793(9) 0.00492(15) 0.58122(5)
C23 C 0.66585(10) -0.03464(16) 0.59152(5)
H12 H 0.65330 -0.11340 0.61410
C24 C 0.59211(9) 0.04085(16) 0.56877(5)
H13 H 0.52970 0.01380 0.57640
C25 C 0.60877(9) 0.15576(15) 0.53496(5)
C26 C 0.70173(10) 0.19588(16) 0.52514(5)
H14 H 0.71450 0.27470 0.50260
C27 C 0.77498(10) 0.12146(16) 0.54811(5)
H15 H 0.83750 0.15020 0.54120
O1 O 0.38450(7) 0.95953(12) 0.19828(4)
C28 C 0.34863(10) 1.08500(17) 0.18744(5)
C29 C 0.33213(13) 1.1291(2) 0.13581(6)
H16 H 0.35120 1.04530 0.11460
H17 H 0.36880 1.22020 0.12820
H18 H 0.26560 1.15060 0.13080
N1 N 0.32544(9) 1.18334(15) 0.22215(5)
C30 C 0.28283(14) 1.3319(2) 0.21333(7)
H19 H 0.26180 1.33790 0.17960
H20 H 0.32880 1.41230 0.21960
H21 H 0.22930 1.34530 0.23480
C31 C 0.34237(12) 1.15007(18) 0.27317(6)
H22 H 0.37370 1.05120 0.27620
H23 H 0.28270 1.14700 0.29030
H24 H 0.38210 1.22970 0.28720
O2 O 0.44770(8) 0.67428(13) 0.22725(4)
O3 O 0.54327(9) 0.48226(14) 0.20809(4)
O4 O -0.03153(8) 0.59222(15) 0.57642(4)
O5 O 0.05439(7) 0.67992(12) 0.63764(4)
O6 O 0.81924(7) -0.18605(13) 0.63337(4)
O7 O 0.91883(7) -0.02321(14) 0.59958(4)
Zn1 Zn 0.43119(2) 0.77056(2) 0.16406(2)
O8 O 0.7754(11) 0.559(3) 0.1551(4)
C32 C 0.78687(19) 0.5834(3) 0.19936(10)
C33 C 0.7240(3) 0.6883(4) 0.22764(14)
H25 H 0.67280 0.72350 0.20680
H26 H 0.76000 0.77620 0.23910
H27 H 0.69820 0.63330 0.25540
N2 N 0.8613(2) 0.5227(3) 0.22184(11)
C34 C 0.8886(11) 0.553(2) 0.2715(4)
H28 H 0.94830 0.60720 0.27210
H29 H 0.89540 0.45580 0.28890
H30 H 0.84070 0.61470 0.28720
C35 C 0.9232(4) 0.4224(7) 0.1939(2)
H31 H 0.88560 0.35870 0.17210
H32 H 0.95880 0.35720 0.21610
H33 H 0.96640 0.48440 0.17480
O9? O 0.7674(15) 0.538(3) 0.1599(6)
C36? C 0.8332(3) 0.5139(4) 0.18914(14)
C37? C 0.9126(7) 0.4101(12) 0.1764(3)
H34? H 0.90470 0.37390 0.14310
H35? H 0.91330 0.32290 0.19850
H36? H 0.97170 0.46580 0.17930
N3? N 0.8277(3) 0.5691(4) 0.23401(13)
C38? C 0.8986(16) 0.553(3) 0.2713(6)
H37? H 0.94680 0.48230 0.26040
H38? H 0.87000 0.51450 0.30100
H39? H 0.92700 0.65310 0.27780
C39? C 0.7499(4) 0.6663(6) 0.2484(3)
H40? H 0.70620 0.67730 0.22130
H41? H 0.77370 0.76670 0.25780
H42? H 0.71760 0.61990 0.27590
C40 C 0.60232(14) 0.3212(2) 0.11548(6)
H43 H 0.55820 0.27920 0.09180
H44 H 0.58110 0.29670 0.14820
H45 H 0.66430 0.27690 0.11030
C41 C 0.63807(16) 0.5330(2) 0.06102(6)
H46 H 0.59320 0.49530 0.03700
H47 H 0.69970 0.48910 0.05460
H48 H 0.64170 0.64430 0.05900
N4 N 0.60738(8) 0.48831(14) 0.10971(4)
H49 H 0.54510 0.53280 0.11600
H50 H 0.65150 0.53030 0.13400
O5C O 0.55439(7) 0.82008(12) 0.13764(4)
O6C O 0.31924(7) 0.68605(13) 0.13337(4)
Zn1C Zn -0.06881(2) 0.72944(2) 0.66406(2)
Zn1C* Zn 0.93119(2) -0.27056(2) 0.66406(2)
#END
