
#######################################################################
#
#                 Cambridge Crystallographic Data Centre
#                                CCDC
#
#######################################################################
#
# If this CIF has been generated from an entry in the Cambridge
# Structural Database, then it will include bibliographic, chemical,
# crystal, experimental, refinement or atomic coordinate data resulting
# from the CCDC's data processing and validation procedures.
#
#######################################################################

data_CSD_CIF_GUHJEZ
_audit_creation_date 2010-05-04
_audit_creation_method CSD-ConQuest-V1
_database_code_CSD GUHJEZ
_database_code_depnum_ccdc_archive 'CCDC 730173'
_chemical_formula_sum 'C24 H49 Cd2 Cr1 Mo6 N4 O45'
_chemical_formula_moiety
;
(C12 H12 Cd1 N2 O6 1+)2n,n(H7 Cr1 Mo6 O24 2-),9n(H2 O1)
;
_journal_coden_Cambridge 119
_journal_volume 933
_journal_year 2009
_journal_page_first 86
_journal_name_full 'J.Mol.Struct. '
loop_
_publ_author_name
"Haiyan An"
"Tieqi Xu"
"Cuiying Jia"
"Hui Zheng"
"Wenshung Mu"
_chemical_name_systematic
;
catena-((\m~2~-Pyridine-3-carboxylato-N,O,O')-diaqua-(pyridine-3-carboxylato-O
,O')-cadmium 
(\m~3~-hydroxo)-pentakis(\m~3~-oxo)-hexakis(\m~2~-hydroxo)-dodecaoxo-chromium-
hexa-molybdenum nonahydrate)
;
_cell_volume   1518.844
_exptl_crystal_colour 'purple'
_exptl_crystal_density_diffrn 2.152
_exptl_special_details
;
luminescent
The hydrogens of the hydroxo groups of the anion have been assigned 
arbitrarily, including the proton reported in the formula in the paper
;
_exptl_crystal_description 'plate'
_diffrn_ambient_temperature 293
_refine_special_details
;
One of the water molecules is disordered.

;
#These two values have been output from a single CSD field.
_refine_ls_R_factor_gt 0.0407
_refine_ls_wR_factor_gt 0.0407
_symmetry_cell_setting triclinic
_symmetry_space_group_name_H-M 'P -1'
_symmetry_Int_Tables_number 2
loop_
_symmetry_equiv_pos_site_id
_symmetry_equiv_pos_as_xyz
1 x,y,z
2 -x,-y,-z
_cell_length_a 7.9922(16)
_cell_length_b 13.861(3)
_cell_length_c 14.357(3)
_cell_angle_alpha 74.63(3)
_cell_angle_beta 84.59(3)
_cell_angle_gamma 82.96(3)
_cell_formula_units_Z 1
loop_
_atom_type_symbol
_atom_type_radius_bond
C 0.68
H 0.23
Cd 1.48
Cr 1.39
Mo 1.40
N 0.68
O 0.68
loop_
_atom_site_label
_atom_site_type_symbol
_atom_site_fract_x
_atom_site_fract_y
_atom_site_fract_z
Cr1 Cr 0.00000 0.00000 0.00000
Mo1 Mo -0.22330(6) -0.17961(4) 0.13900(3)
Mo2 Mo 0.03353(6) -0.06794(3) 0.23934(3)
Mo3 Mo 0.26819(6) 0.10511(4) 0.10028(4)
Cd1 Cd -0.90102(4) 0.34231(3) -0.59082(3)
O1 O 0.0387(5) -0.1249(3) 0.1027(3)
O2 O -0.0040(4) 0.0666(3) 0.1054(3)
O3 O 0.2416(4) 0.0285(3) -0.0214(3)
O4 O -0.1970(5) -0.0903(3) 0.2205(3)
O5 O 0.2535(5) -0.0264(3) 0.1853(3)
O6 O -0.1958(5) -0.2078(3) 0.0132(3)
O7 O -0.4374(5) -0.1815(4) 0.1628(4)
O8 O -0.1368(6) -0.2929(3) 0.2057(3)
O9 O -0.0231(6) 0.0078(3) 0.3161(3)
O10 O 0.1001(5) -0.1834(3) 0.3086(3)
O11 O 0.4847(5) 0.0962(3) 0.0782(3)
O12 O 0.2204(6) 0.1778(3) 0.1798(3)
O13 O -0.9022(6) 0.1635(3) -0.5581(4)
O14 O -0.6613(6) 0.2244(3) -0.6181(4)
O15 O -1.1945(5) 0.3463(3) -0.5856(4)
O16 O -1.1146(5) 0.4971(3) -0.6106(3)
C1 C -0.5271(7) 0.0398(4) -0.6514(4)
H1 H -0.47720 0.09670 -0.68650
C2 C -0.6725(7) 0.0493(4) -0.5937(4)
C3 C -0.7425(7) -0.0365(4) -0.5415(4)
H2 H -0.84050 -0.03150 -0.50190
C4 C -0.6670(8) -0.1304(4) -0.5479(5)
H3 H -0.71410 -0.18860 -0.51340
C5 C -0.5198(8) -0.1359(5) -0.6066(5)
H4 H -0.46600 -0.19830 -0.61030
C6 C -0.7516(7) 0.1524(4) -0.5886(5)
C7 C -1.5351(7) 0.4232(4) -0.6011(4)
H5 H -1.50800 0.35460 -0.57570
C8 C -1.4077(6) 0.4834(4) -0.6196(4)
C9 C -1.4480(7) 0.5870(4) -0.6578(5)
H6 H -1.36420 0.63070 -0.67240
C10 C -1.6157(7) 0.6229(4) -0.6735(5)
H7 H -1.64660 0.69130 -0.69750
C11 C -1.7352(7) 0.5557(4) -0.6531(5)
H8 H -1.84690 0.58030 -0.66480
C12 C -1.2286(6) 0.4396(4) -0.6037(4)
N1 N -0.4561(6) -0.0534(4) -0.6571(4)
N2 N -1.6994(5) 0.4563(3) -0.6172(4)
O17 O -0.9143(9) 0.3608(4) -0.7577(4)
O18 O -0.8694(5) 0.3156(3) -0.4278(3)
O19 O 0.3106(7) -0.2550(5) 0.0856(5)
O20 O 0.015(4) 0.377(2) 0.024(2)
O21 O -0.522(2) 0.3465(13) 0.1887(12)
O22 O -0.2374(10) 0.2173(6) 0.1157(6)
O23? O -0.220(3) 0.1952(18) 0.3043(19)
O24 O -0.315(5) 0.247(3) 0.293(3)
O25? O -0.192(5) 0.204(3) 0.313(3)
O26 O -1.168(3) 0.5061(16) -0.8351(15)
O27 O -0.743(4) 0.543(2) -0.889(2)
O28? O -0.053(5) 0.372(4) 0.024(4)
Mo1A Mo 0.22330(6) 0.17961(4) -0.13900(3)
Mo2A Mo -0.03353(6) 0.06794(3) -0.23934(3)
Mo3A Mo -0.26819(6) -0.10511(4) -0.10028(4)
Cd1* Cd -1.90102(4) 0.34231(3) -0.59082(3)
O1A O -0.0387(5) 0.1249(3) -0.1027(3)
O2A O 0.0040(4) -0.0666(3) -0.1054(3)
O3A O -0.2416(4) -0.0285(3) 0.0214(3)
O4A O 0.1970(5) 0.0903(3) -0.2205(3)
O5A O -0.2535(5) 0.0264(3) -0.1853(3)
O6A O 0.1958(5) 0.2078(3) -0.0132(3)
O7A O 0.4374(5) 0.1815(4) -0.1628(4)
O8A O 0.1368(6) 0.2929(3) -0.2057(3)
O9A O 0.0231(6) -0.0078(3) -0.3161(3)
O10A O -0.1001(5) 0.1834(3) -0.3086(3)
O11A O -0.4847(5) -0.0962(3) -0.0782(3)
O12A O -0.2204(6) -0.1778(3) -0.1798(3)
N2* N -0.6994(5) 0.4563(3) -0.6172(4)
#END
