
#######################################################################
#
#                 Cambridge Crystallographic Data Centre
#                                CCDC
#
#######################################################################
#
# If this CIF has been generated from an entry in the Cambridge
# Structural Database, then it will include bibliographic, chemical,
# crystal, experimental, refinement or atomic coordinate data resulting
# from the CCDC's data processing and validation procedures.
#
#######################################################################

data_CSD_CIF_GUHMIH
_audit_creation_date 2015-04-17
_audit_creation_method CSD-ConQuest-V1
_database_code_CSD GUHMIH
_database_code_depnum_ccdc_archive 'CCDC 938554'
_chemical_formula_sum 'C42 H79 Cu1.5 N12 O85 P2 W18'
_chemical_formula_moiety
;
(C28 H32 Cu1 N8 O6 2+)1.5n,14(H2 O1),H3 O62 P2 W18 3-
;
_journal_coden_Cambridge 1500
_journal_volume 5
_journal_year 2015
_journal_page_first 35535
_journal_name_full 'RSC Advances '
loop_
_publ_author_name
"Xiuli Wang"
"Zhihan Chang"
"Hongyan Lin"
"Chuang Xu"
"Jian Luan"
"Guocheng Liu"
"Aixiang Tian"
_chemical_name_systematic
;
catena-[sesquikis(bis(\m~2~-N,N'-ethane-1,2-diyldinicotinamide)-diaqua-copper(
ii)) 
bis(\m~9~-phosphato)-tritricontakis(\m~2~-oxido)-tris(\m~2~-hydroxo)-octadecao
xo-octadeca-tungsten tetradecahydrate]
;
_cell_volume  24152.105
_exptl_crystal_colour 'blue'
_exptl_crystal_density_diffrn 3.068
_exptl_special_details
;
The anion H atoms have not been located and have been placed arbitrarily in 
the 2D diagram
;
_exptl_crystal_description 'block'
_diffrn_ambient_temperature 296
_refine_special_details
;
O2W and O2W' disordered over two sites with occupancies 0.72:0.28; The 
SQUEEZE/PLATON program has been used to model some disorder.
;
#These two values have been output from a single CSD field.
_refine_ls_R_factor_gt 0.0229
_refine_ls_wR_factor_gt 0.0229
_symmetry_cell_setting cubic
_symmetry_space_group_name_H-M 'I 4 3 2'
_symmetry_Int_Tables_number 211
loop_
_symmetry_equiv_pos_site_id
_symmetry_equiv_pos_as_xyz
1 x,y,z
2 -y,x,z
3 -x,-y,z
4 y,-x,z
5 x,-y,-z
6 y,x,-z
7 -x,y,-z
8 -y,-x,-z
9 z,x,y
10 -x,z,y
11 -z,-x,y
12 x,-z,y
13 z,-x,-y
14 x,z,-y
15 -z,x,-y
16 -x,-z,-y
17 y,z,x
18 -z,-y,-x
19 -z,y,x
20 z,y,-x
21 z,-y,x
22 y,-z,-x
23 -y,-z,x
24 -y,z,-x
25 1/2+x,1/2+y,1/2+z
26 1/2-y,1/2+x,1/2+z
27 1/2-x,1/2-y,1/2+z
28 1/2+y,1/2-x,1/2+z
29 1/2+x,1/2-y,1/2-z
30 1/2+y,1/2+x,1/2-z
31 1/2-x,1/2+y,1/2-z
32 1/2-y,1/2-x,1/2-z
33 1/2+z,1/2+x,1/2+y
34 1/2-x,1/2+z,1/2+y
35 1/2-z,1/2-x,1/2+y
36 1/2+x,1/2-z,1/2+y
37 1/2+z,1/2-x,1/2-y
38 1/2+x,1/2+z,1/2-y
39 1/2-z,1/2+x,1/2-y
40 1/2-x,1/2-z,1/2-y
41 1/2+y,1/2+z,1/2+x
42 1/2-z,1/2-y,1/2-x
43 1/2-z,1/2+y,1/2+x
44 1/2+z,1/2+y,1/2-x
45 1/2+z,1/2-y,1/2+x
46 1/2+y,1/2-z,1/2-x
47 1/2-y,1/2-z,1/2+x
48 1/2-y,1/2+z,1/2-x
_cell_length_a 28.9058(4)
_cell_length_b 28.9058(4)
_cell_length_c 28.9058(4)
_cell_angle_alpha 90
_cell_angle_beta 90
_cell_angle_gamma 90
_cell_formula_units_Z 8
loop_
_atom_type_symbol
_atom_type_radius_bond
C 0.68
H 0.23
Cu 1.32
N 0.68
O 0.68
P 1.05
W 1.62
loop_
_atom_site_label
_atom_site_type_symbol
_atom_site_fract_x
_atom_site_fract_y
_atom_site_fract_z
Cu1 Cu 0.50000 0.80544(9) 0.50000
O1 O 0.50000 0.7220(5) 0.50000
O2 O 0.3585(3) 0.9201(3) 0.5472(3)
N1 N 0.4294(2) 0.8070(2) 0.4960(3)
N2 N 0.2939(3) 0.8766(3) 0.5584(3)
H1 H 0.27810 0.85270 0.55040
C1 C 0.4056(3) 0.7754(3) 0.4723(3)
H2 H 0.42150 0.75250 0.45620
C2 C 0.3576(3) 0.7759(3) 0.4710(3)
H3 H 0.34180 0.75290 0.45500
C3 C 0.3340(3) 0.8092(3) 0.4927(3)
H4 H 0.30190 0.80980 0.49170
C4 C 0.3585(3) 0.8429(3) 0.5168(3)
C5 C 0.4055(3) 0.8405(3) 0.5178(3)
H5 H 0.42170 0.86300 0.53420
C6 C 0.3369(3) 0.8831(4) 0.5411(3)
C7 C 0.2746(4) 0.9106(5) 0.5902(4)
H6 H 0.28530 0.90400 0.62130
H7 H 0.28540 0.94120 0.58180
O3 O 0.50000 0.8928(6) 0.50000
O4? O 0.50000 0.9380(15) 0.50000
W1 W 0.333674(10) 0.657362(10) 0.810795(10)
W2 W 0.236874(11) 0.613932(9) 0.763451(11)
W3 W 0.396535(10) 0.652972(11) 0.699304(11)
P1 P 0.28963(6) 0.71037(6) 0.71037(6)
O5 O 0.32079(15) 0.67921(15) 0.67921(15)
O6 O 0.27991(17) 0.68309(17) 0.75457(17)
O7 O 0.28997(18) 0.60976(17) 0.80342(18)
O8 O 0.36153(17) 0.71731(17) 0.80121(18)
O9 O 0.36737(18) 0.63938(17) 0.75720(16)
O10 O 0.40042(18) 0.67479(18) 0.63743(19)
O11 O 0.27842(19) 0.59518(17) 0.71293(18)
O12 O 0.44971(18) 0.6281(2) 0.7054(2)
O13 O 0.2115(2) 0.56066(18) 0.7731(2)
O14 O 0.36929(19) 0.6330(2) 0.85139(18)
O15 O 0.29329(17) 0.69015(17) 0.85196(17)
O2MA O 0.1415(3) 0.9528(3) 0.5799(3)
N1MA N 0.0706(2) 1.0040(2) 0.6930(3)
N2MA N 0.2061(3) 0.9416(3) 0.6234(3)
H1MA H 0.22190 0.94960 0.64730
C1MA C 0.0944(3) 1.0277(3) 0.7246(3)
H2MA H 0.07850 1.04380 0.74750
C2MA C 0.1424(3) 1.0290(3) 0.7241(3)
H3MA H 0.15820 1.04500 0.74710
C3MA C 0.1660(3) 1.0073(3) 0.6908(3)
H4MA H 0.19810 1.00830 0.69020
C4MA C 0.1415(3) 0.9832(3) 0.6571(3)
C5MA C 0.0945(3) 0.9822(3) 0.6595(3)
H5MA H 0.07830 0.96580 0.63700
C6MA C 0.1631(3) 0.9589(4) 0.6169(3)
C7MA C 0.2254(4) 0.9098(5) 0.5894(4)
H6MA H 0.21470 0.87870 0.59600
H7MA H 0.21460 0.91820 0.55880
O2F O 0.6415(3) 0.9201(3) 0.4528(3)
N1F N 0.5706(2) 0.8070(2) 0.5040(3)
N2F N 0.7061(3) 0.8766(3) 0.4416(3)
H1F H 0.72190 0.85270 0.44960
C1F C 0.5944(3) 0.7754(3) 0.5277(3)
H2F H 0.57850 0.75250 0.54380
C2F C 0.6424(3) 0.7759(3) 0.5290(3)
H3F H 0.65820 0.75290 0.54500
C3F C 0.6660(3) 0.8092(3) 0.5073(3)
H4F H 0.69810 0.80980 0.50830
C4F C 0.6415(3) 0.8429(3) 0.4832(3)
C5F C 0.5945(3) 0.8405(3) 0.4822(3)
H5F H 0.57830 0.86300 0.46580
C6F C 0.6631(3) 0.8831(4) 0.4589(3)
C7F C 0.7254(4) 0.9106(5) 0.4098(4)
H6F H 0.71470 0.90400 0.37870
H7F H 0.71460 0.94120 0.41820
O2IA O 0.8585(3) 0.9528(3) 0.4201(3)
N1IA N 0.9294(2) 1.0040(2) 0.3070(3)
N2IA N 0.7939(3) 0.9416(3) 0.3766(3)
H1IA H 0.77810 0.94960 0.35270
C1IA C 0.9056(3) 1.0277(3) 0.2754(3)
H2IA H 0.92150 1.04380 0.25250
C2IA C 0.8576(3) 1.0290(3) 0.2759(3)
H3IA H 0.84180 1.04500 0.25290
C3IA C 0.8340(3) 1.0073(3) 0.3092(3)
H4IA H 0.80190 1.00830 0.30980
C4IA C 0.8585(3) 0.9832(3) 0.3429(3)
C5IA C 0.9055(3) 0.9822(3) 0.3405(3)
H5IA H 0.92170 0.96580 0.36300
C6IA C 0.8369(3) 0.9589(4) 0.3831(3)
C7IA C 0.7746(4) 0.9098(5) 0.4106(4)
H6IA H 0.78530 0.87870 0.40400
H7IA H 0.78540 0.91820 0.44120
Cu1FA Cu 1.00000 1.00000(9) 0.30544
Cu1JA Cu 0.00000 1.00000(9) 0.69456
N1R N 0.5040(2) 0.8070(2) 0.4294(3)
N1S N 0.4960(2) 0.8070(2) 0.5706(3)
O6J O 0.24543(17) 0.72009(17) 0.68309(17)
O6W O 0.31691(17) 0.75457(17) 0.72009(17)
W1J W 0.189205(10) 0.666326(10) 0.657362(10)
W2J W 0.236549(11) 0.763126(9) 0.613932(11)
W3J W 0.300696(10) 0.603465(11) 0.652972(11)
O7J O 0.19658(18) 0.71003(17) 0.60976(18)
O8J O 0.19879(17) 0.63847(17) 0.71731(18)
O9J O 0.24280(18) 0.63263(17) 0.63938(16)
O10J O 0.36257(18) 0.59958(18) 0.67479(19)
O11J O 0.28707(19) 0.72158(17) 0.59518(18)
O12J O 0.29460(18) 0.55029(20) 0.6281(2)
O13J O 0.2269(2) 0.78850(18) 0.56066(20)
O14J O 0.14861(19) 0.63071(20) 0.63300(18)
O15J O 0.14804(17) 0.70671(17) 0.69015(17)
W1W W 0.342638(10) 0.810795(10) 0.666326(10)
W2W W 0.386068(11) 0.763451(9) 0.763126(11)
W3W W 0.347028(10) 0.699304(11) 0.603465(11)
O7W O 0.39024(18) 0.80342(17) 0.71003(18)
O8W O 0.28269(17) 0.80121(17) 0.63847(18)
O9W O 0.36062(18) 0.75720(17) 0.63263(16)
O10W O 0.32521(18) 0.63743(18) 0.59958(19)
O11W O 0.40482(19) 0.71293(17) 0.72158(18)
O12W O 0.37190(18) 0.7054(2) 0.55029(20)
O13W O 0.43934(20) 0.77310(18) 0.7885(2)
O14W O 0.36700(19) 0.85139(20) 0.63071(18)
O15W O 0.30985(17) 0.85196(17) 0.70671(17)
W1CA W 0.157362(10) 0.833674(10) 0.689205(10)
W2CA W 0.113932(11) 0.736874(9) 0.736549(11)
W3CA W 0.152972(10) 0.896535(11) 0.800696(11)
P1CA P 0.21037(6) 0.78963(6) 0.78963(6)
O5CA O 0.17921(15) 0.82079(15) 0.82079(15)
O6CA O 0.18309(17) 0.77991(17) 0.74543(17)
O7CA O 0.10976(18) 0.78997(17) 0.69658(18)
O8CA O 0.21731(17) 0.86153(17) 0.69879(18)
O9CA O 0.13938(18) 0.86737(17) 0.74280(16)
O10CA O 0.17479(18) 0.90042(18) 0.86257(19)
O11CA O 0.09518(19) 0.77842(17) 0.78707(18)
O12CA O 0.12810(18) 0.94971(20) 0.7946(2)
O13CA O 0.06066(20) 0.71150(18) 0.7269(2)
O14CA O 0.13300(19) 0.86929(20) 0.64861(18)
O15CA O 0.19015(17) 0.79329(17) 0.64804(17)
O6MA O 0.22009(17) 0.74543(17) 0.81691(17)
O6RA O 0.25457(17) 0.81691(17) 0.77991(17)
W1MA W 0.166326(10) 0.689205(10) 0.842638(10)
W2MA W 0.263126(11) 0.736549(9) 0.886068(11)
W3MA W 0.103465(10) 0.800696(11) 0.847028(11)
O7MA O 0.21003(18) 0.69658(17) 0.89024(18)
O8MA O 0.13847(17) 0.69879(17) 0.78269(18)
O9MA O 0.13263(18) 0.74280(17) 0.86062(16)
O10MA O 0.09958(18) 0.86257(18) 0.82521(19)
O11MA O 0.22158(19) 0.78707(17) 0.90482(18)
O12MA O 0.05029(18) 0.7946(2) 0.8719(2)
O13MA O 0.2885(2) 0.72690(18) 0.93934(20)
O14MA O 0.13071(19) 0.64861(20) 0.86700(18)
O15MA O 0.20671(17) 0.64804(17) 0.80985(17)
W1RA W 0.310795(10) 0.842638(10) 0.833674(10)
W2RA W 0.263451(11) 0.886068(9) 0.736874(11)
W3RA W 0.199304(10) 0.847028(11) 0.896535(11)
O7RA O 0.30342(18) 0.89024(17) 0.78997(18)
O8RA O 0.30121(17) 0.78269(17) 0.86153(18)
O9RA O 0.25720(18) 0.86062(17) 0.86737(16)
O10RA O 0.13743(18) 0.82521(18) 0.90042(19)
O11RA O 0.21293(19) 0.90482(17) 0.77842(18)
O12RA O 0.20540(18) 0.8719(2) 0.94971(20)
O13RA O 0.2731(2) 0.93934(18) 0.7115(2)
O14RA O 0.35139(19) 0.8670(2) 0.86929(18)
O15RA O 0.35196(17) 0.80985(17) 0.79329(17)
#END
