
#######################################################################
#
#                 Cambridge Crystallographic Data Centre
#                                CCDC
#
#######################################################################
#
# If this CIF has been generated from an entry in the Cambridge
# Structural Database, then it will include bibliographic, chemical,
# crystal, experimental, refinement or atomic coordinate data resulting
# from the CCDC's data processing and validation procedures.
#
#######################################################################

data_CSD_CIF_GUJVAI
_audit_creation_date 2001-04-02
_audit_creation_method CSD-ConQuest-V1
_database_code_CSD GUJVAI
_database_code_depnum_ccdc_archive 'CCDC 146191'
_chemical_formula_sum 'C10 H4 Ba4 Cl2 Fe4 O24'
_chemical_formula_moiety
;
(Ba1 2+)4n,2n(C4 H2 Fe2 O10 2-),n(C2 O4 2-),2n(Cl1 1-)
;
_journal_coden_Cambridge 1220
_journal_volume 7
_journal_year 2001
_journal_page_first 200
_journal_name_full 'Chem.-Eur.J. '
loop_
_publ_author_name
"D.J.Price"
"S.Tripp"
"A.K.Powell"
"P.T.Wood"
_chemical_name_systematic
;
catena-[Tetrabarium 
tetrakis(\m~4~-oxalato)-tetrakis(\m~2~-hydroxo)-tetra-iron(ii) dichloride 
oxalate]
;
_cell_volume   1340.165
_exptl_crystal_colour 'yellow'
_exptl_crystal_density_diffrn 3.35
_exptl_crystal_description 'needle'
_diffrn_ambient_temperature ?
_diffrn_special_details
;
The study was carried out at room temperature,in the range 283-303K

;
#These two values have been output from a single CSD field.
_refine_ls_R_factor_gt 0.0395
_refine_ls_wR_factor_gt 0.0395
_symmetry_cell_setting tetragonal
_symmetry_space_group_name_H-M 'P 42/m n m'
_symmetry_Int_Tables_number 136
loop_
_symmetry_equiv_pos_site_id
_symmetry_equiv_pos_as_xyz
1 x,y,z
2 1/2-y,1/2+x,1/2+z
3 1/2+y,1/2-x,1/2+z
4 y,x,-z
5 x,y,-z
6 1/2+x,1/2-y,1/2+z
7 1/2-x,1/2+y,1/2+z
8 y,x,z
9 -x,-y,-z
10 -1/2+y,-1/2-x,-1/2-z
11 -1/2-y,-1/2+x,-1/2-z
12 -y,-x,z
13 -x,-y,z
14 -1/2-x,-1/2+y,-1/2-z
15 -1/2+x,-1/2-y,-1/2-z
16 -y,-x,-z
_cell_length_a 13.811(3)
_cell_length_b 13.811(3)
_cell_length_c 7.026(2)
_cell_angle_alpha 90
_cell_angle_beta 90
_cell_angle_gamma 90
_cell_formula_units_Z 2
loop_
_atom_type_symbol
_atom_type_radius_bond
C 0.68
H 0.23
Ba 1.34
Cl 0.99
Fe 1.34
O 0.68
loop_
_atom_site_label
_atom_site_type_symbol
_atom_site_fract_x
_atom_site_fract_y
_atom_site_fract_z
Cl1 Cl 0.50000 0.00000 0.25000
O1 O 0.5896(2) 0.2398(2) 0.3413(4)
O2 O 0.3948(2) 0.2274(2) 0.3407(4)
O3 O 0.4861(5) 0.3777(5) 0.00000
O4 O 0.7904(3) 0.2096(3) 0.50000
H1 H 0.8380(3) 0.1620(3) 0.50000
O5 O 0.6921(3) 0.3079(3) 0.00000
H2 H 0.6445(3) 0.3555(3) 0.00000
C1 C 0.5490(4) 0.2387(4) 0.50000
C2 C 0.4360(4) 0.2313(4) 0.50000
C3 C 0.4613(4) 0.4613(4) 0.00000
Fe1 Fe 0.74154(4) 0.25846(4) 0.25020(8)
Ba1 Ba 0.49643(2) 0.19156(3) 0.00000
O1D O 0.5896(2) 0.2398(2) 0.6587(4)
O2D O 0.3948(2) 0.2274(2) 0.6593(4)
O3C O 0.3777(5) 0.4861(5) 0.00000
C3H C 0.5387(4) 0.5387(4) 0.00000
O3H O 0.5139(5) 0.6223(5) 0.00000
O3K O 0.6223(5) 0.5139(5) 0.00000
O1K O 0.7602(2) 0.4104(2) 0.3413(4)
O1O O 0.7602(2) 0.4104(2) 0.6587(4)
O1I O 0.7398(2) -0.0896(2) 0.1587(4)
O2I O 0.7274(2) 0.1052(2) 0.1593(4)
C1I C 0.7387(4) -0.0490(4) 0.00000
C2I C 0.7313(4) 0.0640(4) 0.00000
O1B O 0.7398(2) -0.0896(2) -0.1587(4)
O2B O 0.7274(2) 0.1052(2) -0.1593(4)
O2N O 0.8948(2) 0.2726(2) 0.1593(4)
Fe1D Fe 0.74154(4) 0.25846(4) 0.74980(8)
Fe1I Fe 0.75846(4) -0.24154(4) 0.24980(8)
Fe1B Fe 0.75846(4) -0.24154(4) -0.24980(8)
Fe1J Fe 0.24154(4) 0.24154(4) 0.24980(8)
Fe1A Fe 0.24154(4) 0.24154(4) 0.75020(8)
Fe1D* Fe 0.74154(4) 0.25846(4) -0.25020(8)
O2B* O 0.7274(2) 0.1052(2) 0.8407(4)
O2E O 0.8948(2) 0.2726(2) 0.8407(4)
O5D O 0.6921(3) 0.3079(3) 1.00000
H2D H 0.6445(3) 0.3555(3) 1.00000
#END
