
#######################################################################
#
#                 Cambridge Crystallographic Data Centre
#                                CCDC
#
#######################################################################
#
# If this CIF has been generated from an entry in the Cambridge
# Structural Database, then it will include bibliographic, chemical,
# crystal, experimental, refinement or atomic coordinate data resulting
# from the CCDC's data processing and validation procedures.
#
#######################################################################

data_CSD_CIF_GUKMOR
_audit_creation_date 2020-02-17
_audit_creation_method CSD-ConQuest-V1
_database_code_CSD GUKMOR
_database_code_depnum_ccdc_archive 'CCDC 1984495'
_chemical_formula_sum 'C10 H12 N4 O5 Zn1'
_chemical_formula_moiety
;
(C8 H4 N3 O5 Zn1 1-)n,C2 H8 N1 1+
;
_journal_coden_Cambridge 1078
_journal_year 2020
_journal_name_full 'CSD Communication(Private Communication) '
loop_
_publ_author_name
"Meng Qinghua"
_chemical_name_systematic
;
catena-[dimethylammonim 
(\m-1,2,3-triazolato)-(\m-furan-2,5-dicarboxylato)-zinc(ii) unknown solvate]
;
_cell_volume   7023.782
_exptl_crystal_colour 'colorless'
_exptl_crystal_density_diffrn 1.42
_exptl_crystal_description 'block'
_diffrn_ambient_temperature 150
_refine_special_details
;
Disordered solvent molecules were not modelled and the disordered density was 
taken into account using the SQUEEZE/PLATON procedure.
;
#These two values have been output from a single CSD field.
_refine_ls_R_factor_gt 0.0538
_refine_ls_wR_factor_gt 0.0538
_symmetry_cell_setting rhombohedral
_symmetry_space_group_name_H-M 'R 3 c'
_symmetry_Int_Tables_number 161
loop_
_symmetry_equiv_pos_site_id
_symmetry_equiv_pos_as_xyz
1 x,y,z
2 -y,x-y,z
3 -x+y,-x,z
4 -x+y,y,1/2+z
5 x,x-y,1/2+z
6 -y,-x,1/2+z
7 2/3+x,1/3+y,1/3+z
8 2/3-y,1/3+x-y,1/3+z
9 2/3-x+y,1/3-x,1/3+z
10 2/3-x+y,1/3+y,5/6+z
11 2/3+x,1/3+x-y,5/6+z
12 2/3-y,1/3-x,5/6+z
13 1/3+x,2/3+y,2/3+z
14 1/3-y,2/3+x-y,2/3+z
15 1/3-x+y,2/3-x,2/3+z
16 1/3-x+y,2/3+y,1/6+z
17 1/3+x,2/3+x-y,1/6+z
18 1/3-y,2/3-x,1/6+z
_cell_length_a 26.9735(2)
_cell_length_b 26.9735(2)
_cell_length_c 11.1472(4)
_cell_angle_alpha 90
_cell_angle_beta 90
_cell_angle_gamma 120
_cell_formula_units_Z 18
loop_
_atom_type_symbol
_atom_type_radius_bond
C 0.68
H 0.23
N 0.68
O 0.68
Zn 1.22
loop_
_atom_site_label
_atom_site_type_symbol
_atom_site_fract_x
_atom_site_fract_y
_atom_site_fract_z
Zn1 Zn -0.08464(4) 0.46855(4) 0.23623(7)
O1 O -0.0159(2) 0.4588(2) 0.2598(6)
O2 O -0.0912(2) 0.3725(2) 0.2729(6)
O3 O -0.0311(2) 0.3239(2) 0.3193(5)
O4 O -0.0727(2) 0.2177(2) 0.3674(6)
O5 O 0.0123(3) 0.2228(3) 0.3643(7)
N1 N -0.1234(3) 0.4558(3) 0.3942(7)
N2 N -0.0942(2) 0.4545(4) 0.4866(9)
N3 N -0.1239(3) 0.4450(3) 0.5854(6)
C1 C -0.0400(4) 0.4049(3) 0.2774(8)
C2 C -0.0015(3) 0.3815(3) 0.3016(8)
C3 C 0.0542(4) 0.3996(3) 0.3045(8)
H1 H 0.08418 0.43803 0.29446
C4 C 0.0609(3) 0.3511(4) 0.3254(9)
H2 H 0.09588 0.35067 0.33171
C5 C 0.0075(3) 0.3059(4) 0.3342(8)
C6 C -0.0180(4) 0.2441(4) 0.3564(8)
C7 C -0.1741(4) 0.4387(5) 0.5577(11)
H3 H -0.20455 0.43070 0.61126
C8 C -0.1736(5) 0.4462(5) 0.4299(11)
H4 H -0.20342 0.44452 0.38173
N4 N -0.1490(3) 0.2560(3) 0.3185(8)
H5 H -0.12769 0.29312 0.29447
H6 H -0.12452 0.24270 0.33255
C9 C -0.1772(7) 0.2546(6) 0.4302(13)
H7 H -0.20642 0.26533 0.41510
H8 H -0.14892 0.28165 0.48710
H9 H -0.19537 0.21588 0.46387
C10 C -0.1865(5) 0.2235(5) 0.2221(13)
H10 H -0.16541 0.23506 0.14610
H11 H -0.21871 0.23064 0.21850
H12 H -0.20097 0.18265 0.23575
Zn1D Zn -0.08464(4) 0.44681(4) 0.73623(7)
Zn1O Zn -0.113477(40) 0.135217(40) 0.402897(70)
O4I O -0.042933(200) 0.551033(200) 0.200733(600)
N3D N -0.1239(3) 0.4311(3) 0.0854(6)
#END
