
#######################################################################
#
#                 Cambridge Crystallographic Data Centre
#                                CCDC
#
#######################################################################
#
# If this CIF has been generated from an entry in the Cambridge
# Structural Database, then it will include bibliographic, chemical,
# crystal, experimental, refinement or atomic coordinate data resulting
# from the CCDC's data processing and validation procedures.
#
#######################################################################

data_CSD_CIF_GUKXOA
_audit_creation_date 2010-04-22
_audit_creation_method CSD-ConQuest-V1
_database_code_CSD GUKXOA
_database_code_depnum_ccdc_archive 'CCDC 689266'
_chemical_formula_sum 'C48 H65 Ag4 N8 Na3 O68 W12'
_chemical_formula_moiety
;
(C24 H35 Ag2 N4 Na2 O16 3+)n,n(C24 H26 Ag2 N4 Na1 O50 W12 3-),2n(H2 O1)
;
_journal_coden_Cambridge 208
_journal_volume 182
_journal_year 2009
_journal_page_first 1772
_journal_name_full 'J.Solid State Chem. '
loop_
_publ_author_name
"Chunjing Zhang"
"Haijun Pang"
"Mixia Hu"
"Jia Li"
"Yaguang Chen"
_chemical_name_systematic
;
catena-(tris(\m~2~-Isonicotinic 
acid)-(\m~2~-isonicotinato)-octaaqua-di-silver-di-sodium 
bis(\m~3~-hydroxo)-tetrakis(\m~3~-oxo)-octacosakis(\m~2~-oxo)-tetrakis(isonico
tinic 
acid)-diaqua-hexaoxo-di-silver-sodium-dodeca-tungsten(vi)-pseudo-polyrotaxane 
dihydrate)
;
_cell_volume   5043.872
_exptl_crystal_colour 'wheat'
_exptl_crystal_density_diffrn 2.976
_exptl_special_details
;
photoluminescent

;
_exptl_crystal_description 'block'
_diffrn_ambient_temperature 293
_refine_special_details
;
A bridging O atom in the dodecatungstate anion is disordered by symmetry.

;
#These two values have been output from a single CSD field.
_refine_ls_R_factor_gt 0.0846
_refine_ls_wR_factor_gt 0.0846
_symmetry_cell_setting monoclinic
_symmetry_space_group_name_H-M 'C 2/m'
_symmetry_Int_Tables_number 12
loop_
_symmetry_equiv_pos_site_id
_symmetry_equiv_pos_as_xyz
1 x,y,z
2 -x,y,-z
3 1/2+x,1/2+y,z
4 1/2-x,1/2+y,-z
5 -x,-y,-z
6 x,-y,z
7 -1/2-x,-1/2-y,-z
8 -1/2+x,-1/2-y,z
_cell_length_a 12.664(3)
_cell_length_b 24.343(2)
_cell_length_c 16.378(5)
_cell_angle_alpha 90
_cell_angle_beta 92.584(5)
_cell_angle_gamma 90
_cell_formula_units_Z 2
loop_
_atom_type_symbol
_atom_type_radius_bond
C 0.68
H 0.23
Ag 1.58
N 0.68
Na 1.66
O 0.76
W 1.21
loop_
_atom_site_label
_atom_site_type_symbol
_atom_site_fract_x
_atom_site_fract_y
_atom_site_fract_z
Ag1 Ag -0.25000 0.25000 0.50000
C1 C -0.3554(19) 0.2509(15) 0.1139(14)
C2 C -0.328(2) 0.2474(12) 0.2038(15)
C3 C -0.3123(19) 0.2056(10) 0.3306(14)
H1 H -0.32120 0.17400 0.36150
C4 C -0.332(2) 0.1996(14) 0.2484(16)
H2 H -0.34790 0.16580 0.22440
C5 C -0.3002(18) 0.2958(12) 0.2454(16)
H3 H -0.29820 0.32890 0.21700
N1 N -0.2851(19) 0.2452(11) 0.3684(13)
C6 C -0.276(2) 0.2947(12) 0.3271(16)
H4 H -0.25480 0.32640 0.35480
O1 O -0.357(2) 0.1495(12) -0.0819(19)
O2 O -0.580(4) 0.0827(17) -0.094(3)
O3 O -0.3370(18) 0.2936(10) 0.0730(12)
O4 O -0.395(2) 0.2081(10) 0.0832(13)
Na1 Na -0.50000 0.1562(6) 0.00000
O5 O -0.405(9) 0.00000 0.893(7)
W1 W -0.33161(12) 0.00000 0.33662(8)
W2 W -0.50000 -0.14218(6) 0.50000
W3 W -0.26125(8) -0.07173(4) 0.51682(7)
W4 W -0.56753(10) -0.07126(5) 0.32153(6)
Ag2 Ag 0.00000 -0.18278(11) 0.50000
N2 N -0.0406(17) -0.1808(10) 0.3685(12)
C7 C -0.0532(18) -0.1337(9) 0.3297(15)
H5 H -0.04600 -0.10240 0.36200
C8 C -0.086(2) -0.1715(13) 0.2032(14)
C9 C -0.069(2) -0.2212(9) 0.2373(14)
H6 H -0.07480 -0.25310 0.20610
C10 C -0.0432(17) -0.2236(9) 0.3222(14)
H7 H -0.02730 -0.25750 0.34560
C11 C -0.108(3) -0.1660(14) 0.1130(18)
C12 C -0.074(2) -0.1251(11) 0.2523(17)
H8 H -0.08140 -0.08980 0.23100
O6 O -0.429(2) -0.0549(8) 0.304(2)
O7 O -0.264(2) -0.0538(7) 0.4039(13)
O8 O -0.1189(19) -0.2132(10) 0.0736(11)
H9 H -0.06030 -0.23020 0.07900
O9 O -0.1492(18) -0.1044(10) 0.5237(11)
O10 O -0.516(2) -0.1297(14) 0.3838(17)
O11 O -0.122(3) -0.1242(12) 0.0785(15)
O12 O -0.213(4) 0.00000 0.5372(18)
O13 O -0.251(2) 0.00000 0.2630(17)
O14 O -0.6010(16) -0.1039(8) 0.2340(12)
O15 O -0.612(2) 0.00000 0.290(3)
O16 O -0.701(3) -0.0781(14) 0.3692(17)
O17 O -0.485(3) 0.00000 0.389(3)
O18 O -0.353(3) -0.1317(15) 0.4962(15)
Na2 Na 0.00000 0.00000 0.50000
O19 O -0.571(2) -0.0595(12) 0.4571(18)
O20 O -0.50000 0.2104(10) 0.50000
O21 O -0.364(8) 0.00000 0.465(5)
O22 O -0.017(5) 0.00000 0.367(4)
Ag1A Ag -0.75000 0.25000 -0.50000
Ag1* Ag -1.25000 0.25000 -1.50000
C1A C -0.6446(19) 0.2509(15) -0.1139(14)
C1G C -0.8554(19) 0.2491(15) -0.8861(14)
C1F C -1.1446(19) 0.2491(15) -1.1139(14)
C2A C -0.672(2) 0.2474(12) -0.2038(15)
C2G C -0.828(2) 0.2526(12) -0.7962(15)
C2F C -1.172(2) 0.2526(12) -1.2038(15)
C3A C -0.6877(19) 0.2056(10) -0.3306(14)
C3G C -0.8123(19) 0.2944(10) -0.6694(14)
C3F C -1.1877(19) 0.2944(10) -1.3306(14)
H1A H -0.67880 0.17400 -0.36150
H1G H -0.82120 0.32600 -0.63850
H1F H -1.17880 0.32600 -1.36150
C4A C -0.668(2) 0.1996(14) -0.2484(16)
C4G C -0.832(2) 0.3004(14) -0.7516(16)
C4F C -1.168(2) 0.3004(14) -1.2484(16)
H2F H -1.15210 0.33420 -1.22440
H2G H -0.84790 0.33420 -0.77560
H2A H -0.65210 0.16580 -0.22440
C5F C -1.1998(18) 0.2042(12) -1.2454(16)
C5G C -0.8002(18) 0.2042(12) -0.7546(16)
C5A C -0.6998(18) 0.2958(12) -0.2454(16)
H3F H -1.20180 0.17110 -1.21700
H3G H -0.79820 0.17110 -0.78300
H3A H -0.70180 0.32890 -0.21700
N1A N -0.7149(19) 0.2452(11) -0.3684(13)
N1G N -0.7851(19) 0.2548(11) -0.6316(13)
N1F N -1.2149(19) 0.2548(11) -1.3684(13)
N1F* N -0.2149(19) 0.2548(11) 0.6316(13)
C6F C -1.224(2) 0.2053(12) -1.3271(16)
C6G C -0.776(2) 0.2053(12) -0.6729(16)
C6A C -0.724(2) 0.2947(12) -0.3271(16)
H4F H -1.24520 0.17360 -1.35480
H4G H -0.75480 0.17360 -0.64520
H4A H -0.74520 0.32640 -0.35480
O1A O -0.643(2) 0.1495(12) 0.0819(19)
O1G O -0.857(2) 0.3505(12) -1.0819(19)
O1F O -1.143(2) 0.3505(12) -0.9181(19)
O2A O -0.420(4) 0.0827(17) 0.094(3)
O2G O -1.080(4) 0.4173(17) -1.094(3)
O2F O -0.920(4) 0.4173(17) -0.906(3)
O3G O -0.8370(18) 0.2064(10) -0.9270(12)
O3F O -1.1630(18) 0.2064(10) -1.0730(12)
O3A O -0.6630(18) 0.2936(10) -0.0730(12)
O4A O -0.605(2) 0.2081(10) -0.0832(13)
O4G O -0.895(2) 0.2919(10) -0.9168(13)
O4F O -1.105(2) 0.2919(10) -1.0832(13)
Na1F Na -1.00000 0.3438(6) -1.00000
W1A W -0.66839(12) 0.00000 0.66338(8)
W2D W -0.50000 0.14218(6) 0.50000
W3A W 0.26125(8) -0.07173(4) 0.48318(7)
W3D W 0.26125(8) 0.07173(4) 0.48318(7)
W3E W -0.26125(8) 0.07173(4) 0.51682(7)
W3D* W -0.73875(8) 0.07173(4) 0.48318(7)
W3A* W -0.73875(8) -0.07173(4) 0.48318(7)
W4A W -0.43247(10) -0.07126(5) 0.67847(6)
W4D W -0.43247(10) 0.07126(5) 0.67847(6)
W4E W -0.56753(10) 0.07126(5) 0.32153(6)
Ag2D Ag 0.00000 0.18278(11) 0.50000
Ag2B Ag -0.50000 0.31722(11) 0.50000
Ag2F Ag -0.50000 -0.31722(11) 0.50000
Ag2D* Ag -1.00000 0.18278(11) 0.50000
Ag2* Ag -1.00000 -0.18278(11) 0.50000
N2A N 0.0406(17) -0.1808(10) 0.6315(12)
N2D N 0.0406(17) 0.1808(10) 0.6315(12)
N2E N -0.0406(17) 0.1808(10) 0.3685(12)
C7A C 0.0532(18) -0.1337(9) 0.6703(15)
C7D C 0.0532(18) 0.1337(9) 0.6703(15)
C7E C -0.0532(18) 0.1337(9) 0.3297(15)
H5A H 0.04600 -0.10240 0.63800
H5D H 0.04600 0.10240 0.63800
H5E H -0.04600 0.10240 0.36200
C8A C 0.086(2) -0.1715(13) 0.7968(14)
C8D C 0.086(2) 0.1715(13) 0.7968(14)
C8E C -0.086(2) 0.1715(13) 0.2032(14)
C9A C 0.069(2) -0.2212(9) 0.7627(14)
C9D C 0.069(2) 0.2212(9) 0.7627(14)
C9E C -0.069(2) 0.2212(9) 0.2373(14)
H6A H 0.07480 -0.25310 0.79390
H6D H 0.07480 0.25310 0.79390
H6E H -0.07480 0.25310 0.20610
C10A C 0.0432(17) -0.2236(9) 0.6778(14)
C10D C 0.0432(17) 0.2236(9) 0.6778(14)
C10E C -0.0432(17) 0.2236(9) 0.3222(14)
H7A H 0.02730 -0.25750 0.65440
H7D H 0.02730 0.25750 0.65440
H7E H -0.02730 0.25750 0.34560
C11A C 0.108(3) -0.1660(14) 0.8870(18)
C11D C 0.108(3) 0.1660(14) 0.8870(18)
C11E C -0.108(3) 0.1660(14) 0.1130(18)
C12A C 0.074(2) -0.1251(11) 0.7477(17)
C12D C 0.074(2) 0.1251(11) 0.7477(17)
C12E C -0.074(2) 0.1251(11) 0.2523(17)
H8A H 0.08140 -0.08980 0.76900
H8D H 0.08140 0.08980 0.76900
H8E H -0.08140 0.08980 0.23100
O6A O -0.571(2) -0.0549(8) 0.696(2)
O6D O -0.571(2) 0.0549(8) 0.696(2)
O6E O -0.429(2) 0.0549(8) 0.304(2)
O7E O -0.264(2) 0.0538(7) 0.4039(13)
O7D O -0.736(2) 0.0538(7) 0.5961(13)
O7A O -0.736(2) -0.0538(7) 0.5961(13)
O8A O 0.1189(19) -0.2132(10) 0.9264(11)
O8D O 0.1189(19) 0.2132(10) 0.9264(11)
O8E O -0.1189(19) 0.2132(10) 0.0736(11)
H9A H 0.06030 -0.23020 0.92100
H9D H 0.06030 0.23020 0.92100
H9E H -0.06030 0.23020 0.07900
O9A O 0.1492(18) -0.1044(10) 0.4763(11)
O9D O 0.1492(18) 0.1044(10) 0.4763(11)
O9E O -0.1492(18) 0.1044(10) 0.5237(11)
O9D* O -0.8508(18) 0.1044(10) 0.4763(11)
O9A* O -0.8508(18) -0.1044(10) 0.4763(11)
O10A O -0.484(2) -0.1297(14) 0.6162(17)
O10D O -0.484(2) 0.1297(14) 0.6162(17)
O10E O -0.516(2) 0.1297(14) 0.3838(17)
O11A O 0.122(3) -0.1242(12) 0.9215(15)
O11D O 0.122(3) 0.1242(12) 0.9215(15)
O11E O -0.122(3) 0.1242(12) 0.0785(15)
O12A O -0.787(4) 0.00000 0.4628(18)
O12A* O 0.213(4) 0.00000 0.4628(18)
O13A O -0.749(2) 0.00000 0.7370(17)
O14E O -0.6010(16) 0.1039(8) 0.2340(12)
O14A O -0.3990(16) -0.1039(8) 0.7660(12)
O14D O -0.3990(16) 0.1039(8) 0.7660(12)
O15A O -0.388(2) 0.00000 0.710(3)
O16E O -0.701(3) 0.0781(14) 0.3692(17)
O16D O -0.299(3) 0.0781(14) 0.6308(17)
O16A O -0.299(3) -0.0781(14) 0.6308(17)
O17A O -0.515(3) 0.00000 0.611(3)
O18A O -0.647(3) -0.1317(15) 0.5038(15)
O18E O -0.353(3) 0.1317(15) 0.4962(15)
O18D O -0.647(3) 0.1317(15) 0.5038(15)
Na2* Na -1.00000 0.00000 0.50000
O19A O -0.429(2) -0.0595(12) 0.5429(18)
O19E O -0.571(2) 0.0595(12) 0.4571(18)
O19D O -0.429(2) 0.0595(12) 0.5429(18)
O20B O 0.00000 -0.2896(10) 0.50000
O20D O -0.50000 -0.2104(10) 0.50000
O20F O 0.00000 0.2896(10) 0.50000
O21A O -0.636(8) 0.00000 0.535(5)
O22A O 0.017(5) 0.00000 0.633(4)
#END
