
#######################################################################
#
#                 Cambridge Crystallographic Data Centre
#                                CCDC
#
#######################################################################
#
# If this CIF has been generated from an entry in the Cambridge
# Structural Database, then it will include bibliographic, chemical,
# crystal, experimental, refinement or atomic coordinate data resulting
# from the CCDC's data processing and validation procedures.
#
#######################################################################

data_CSD_CIF_GUKYOB
_audit_creation_date 2010-04-23
_audit_creation_method CSD-ConQuest-V1
_database_code_CSD GUKYOB
_database_code_depnum_ccdc_archive 'CCDC 713331'
_chemical_formula_sum 'C44 H92 Cu6 N20 O12 S6'
_chemical_formula_moiety
;
(C2 H9 N2 1+)4n,n(C32 H40 Cu6 N8 O12 S6 4-),2n(C2 H8 N2)
;
_journal_coden_Cambridge 208
_journal_volume 182
_journal_year 2009
_journal_page_first 1821
_journal_name_full 'J.Solid State Chem. '
loop_
_publ_author_name
"Jun He"
"Chen Yang"
"Zhengtao Xu"
"M.Zeller"
"A.D.Hunter"
"Jianhua Lin"
_chemical_name_systematic
;
catena-(tetrakis(2-Aminoethylammonium) 
(\m~4~-2,5-dimercaptobenzene-1,4-dicarboxylato-O,O',S,S,S',S')-bis(\m~4~-2,5-d
imercaptobenzene-1,4-dicarboxylato-S,S,S',S')-bis(2-aminoethylammonium-N)-bis(
ethylenediamine-N)-hexa-copper(i) bis(ethylenediamine))
;
_cell_volume   1642.666
_exptl_crystal_colour 'yellow'
_exptl_crystal_density_diffrn 1.685
_exptl_crystal_description 'plate'
_diffrn_ambient_temperature 100
_refine_special_details
;
An ethylenediamine molecule is disordered over two sites with occupancies 
0.672:0.328.
;
#These two values have been output from a single CSD field.
_refine_ls_R_factor_gt 0.0326
_refine_ls_wR_factor_gt 0.0326
_symmetry_cell_setting triclinic
_symmetry_space_group_name_H-M 'P -1'
_symmetry_Int_Tables_number 2
loop_
_symmetry_equiv_pos_site_id
_symmetry_equiv_pos_as_xyz
1 x,y,z
2 -x,-y,-z
_cell_length_a 9.7569(12)
_cell_length_b 12.5112(15)
_cell_length_c 14.8622(18)
_cell_angle_alpha 107.918(2)
_cell_angle_beta 103.421(2)
_cell_angle_gamma 96.912(2)
_cell_formula_units_Z 1
loop_
_atom_type_symbol
_atom_type_radius_bond
C 0.68
H 0.23
Cu 1.11
N 0.68
O 0.68
S 1.02
loop_
_atom_site_label
_atom_site_type_symbol
_atom_site_fract_x
_atom_site_fract_y
_atom_site_fract_z
C1 C 0.8920(2) 0.90186(19) 0.43608(16)
C2 C 0.9700(2) 0.97081(19) 0.39927(16)
H1 H 0.95060 0.95080 0.32980
C3 C 0.9243(2) 0.93171(19) 0.53920(16)
C4 C 0.8513(2) 0.8614(2) 0.58795(16)
C5 C 0.9961(2) 0.60102(18) 0.07440(16)
C6 C 0.9180(2) 0.57583(19) -0.02351(16)
H2 H 0.86160 0.62750 -0.04020
C7 C 1.0788(2) 0.52364(19) 0.09744(16)
C8 C 1.1639(2) 0.54431(19) 0.20273(16)
C9 C 0.6055(2) 0.97576(18) 0.07180(16)
C10 C 0.5141(2) 1.05081(18) 0.09786(16)
H3 H 0.52400 1.08710 0.16600
C11 C 0.5908(2) 0.92432(18) -0.02956(16)
C12 C 0.6834(2) 0.84579(19) -0.07389(17)
C13 C 0.3423(3) 0.7878(2) 0.10545(17)
H4 H 0.24610 0.73760 0.06960
H5 H 0.37160 0.82780 0.06270
C14 C 0.3368(3) 0.8744(2) 0.20058(18)
H6 H 0.30750 0.83360 0.24270
H7 H 0.43390 0.92300 0.23660
C15 C 0.6779(3) 0.4304(3) 0.2118(2)
H8 H 0.70730 0.44990 0.28430
H9 H 0.67390 0.34740 0.18060
C16 C 0.5316(3) 0.4575(3) 0.1788(2)
H10 H 0.46120 0.41630 0.20150
H11 H 0.53700 0.54090 0.20870
C17 C 0.6611(5) 0.1500(3) 0.5341(3)
H12 H 0.57330 0.12260 0.54990
H13 H 0.74240 0.12450 0.56970
C18 C 0.6400(4) 0.0990(3) 0.4246(3)
H14 H 0.73370 0.11810 0.41200
H15 H 0.61490 0.01450 0.40530
C19 C 0.9664(3) 0.2263(2) 0.21962(18)
H16 H 0.91640 0.27590 0.26110
H17 H 0.95050 0.15020 0.22700
C20 C 0.9000(3) 0.2124(2) 0.11271(18)
H18 H 0.79400 0.19210 0.09790
H19 H 0.92410 0.28750 0.10480
C21 C 0.0663(3) 0.5406(3) 0.5034(2)
H20 H 0.11530 0.58460 0.57400
H21 H 0.13290 0.49440 0.47690
Cu1 Cu 0.82812(3) 0.67464(2) 0.24092(2)
Cu2 Cu 0.83288(3) 0.81745(2) 0.11677(2)
Cu3 Cu 0.64528(3) 0.81484(2) 0.21964(2)
N1 N 0.4476(2) 0.71873(17) 0.13007(15)
H22 H 0.45910 0.67110 0.07250
H23 H 0.41130 0.67310 0.16080
N2 N 0.2336(2) 0.94841(18) 0.18157(17)
H24 H 0.27830 1.00820 0.16920
H25 H 0.20160 0.97580 0.23540
H26 H 0.15750 0.90650 0.12850
N3 N 0.7825(2) 0.49768(18) 0.18304(18)
H27 H 0.75140 0.47700 0.11550
H28 H 0.86810 0.47410 0.19770
N4 N 0.4823(3) 0.4223(2) 0.0691(2)
H29 H 0.432(3) 0.468(3) 0.041(2)
H30 H 0.412(3) 0.354(2) 0.043(2)
N5 N 0.6917(3) 0.2780(2) 0.56695(18)
H31 H 0.77470 0.30310 0.55480
H32 H 0.70150 0.30760 0.63270
H33 H 0.61770 0.30120 0.53330
N6 N 1.1237(2) 0.27719(16) 0.25646(14)
H34 H 1.16980 0.23490 0.21620
H35 H 1.15890 0.27710 0.31880
H36 H 1.13850 0.35060 0.25690
N7 N 0.9446(2) 0.1262(2) 0.03971(16)
H37 H 1.039(2) 0.149(3) 0.044(2)
H38 H 0.937(3) 0.0603(19) 0.053(2)
N8 N 0.0423(3) 0.6225(2) 0.45174(19)
H39 H -0.008(3) 0.583(3) 0.3874(15)
H40 H -0.019(3) 0.666(3) 0.475(2)
N9 N 0.5311(4) 0.1331(4) 0.3578(3)
H41 H 0.562(4) 0.2096(18) 0.374(3)
H42 H 0.451(3) 0.126(5) 0.380(3)
O1 O 0.7888(2) 0.91110(17) 0.64790(15)
O2 O 0.8618(2) 0.75799(14) 0.56868(13)
O3 O 1.28578(18) 0.60961(15) 0.23491(13)
O4 O 1.10569(18) 0.49351(14) 0.24962(12)
O5 O 0.6988(2) 0.84616(16) -0.15558(13)
O6 O 0.74197(19) 0.78382(15) -0.03096(12)
S1 S 0.74680(6) 0.78378(5) 0.35812(4)
S2 S 0.99385(6) 0.72806(5) 0.17030(4)
S3 S 0.73215(6) 0.96243(5) 0.17287(4)
N10 N 0.4567(5) 0.3853(4) 0.5447(5)
H43 H 0.384(5) 0.379(3) 0.574(4)
H44 H 0.409(6) 0.345(3) 0.4780(15)
C22 C 0.499(2) 0.4990(9) 0.5531(6)
H45 H 0.59580 0.53250 0.60050
H46 H 0.43030 0.54460 0.57740
C23? C 0.486(5) 0.4611(16) 0.4470(8)
H47? H 0.372(6) 0.329(5) 0.451(8)
H48? H 0.460(12) 0.299(3) 0.385(4)
H49? H 0.40150 0.47450 0.40380
H50? H 0.57100 0.47640 0.42330
N11? N 0.4620(11) 0.3474(9) 0.4454(11)
C1A C 1.1080(2) 1.09814(19) 0.56392(16)
C2A C 1.0300(2) 1.02919(19) 0.60073(16)
H1A H 1.04940 1.04920 0.67020
C3A C 1.0757(2) 1.06829(19) 0.46080(16)
C4A C 1.1487(2) 1.1386(2) 0.41205(16)
C5A C 1.0039(2) 0.39898(18) -0.07440(16)
C6A C 1.0820(2) 0.42417(19) 0.02351(16)
H2A H 1.13840 0.37250 0.04020
C7A C 0.9212(2) 0.47636(19) -0.09744(16)
C8A C 0.8361(2) 0.45569(19) -0.20273(16)
C9A C 0.3945(2) 1.02424(18) -0.07180(16)
C10A C 0.4859(2) 0.94919(18) -0.09786(16)
H3A H 0.47600 0.91290 -0.16600
C11A C 0.4092(2) 1.07568(18) 0.02956(16)
C12A C 0.3166(2) 1.15421(19) 0.07389(17)
C13A C 1.6577(3) 1.2122(2) 0.89455(17)
H4A H 1.75390 1.26240 0.93040
H5A H 1.62840 1.17220 0.93730
C14A C 1.6632(3) 1.1256(2) 0.79942(18)
H6A H 1.69250 1.16640 0.75730
H7A H 1.56610 1.07700 0.76340
C15A C 1.3221(3) 1.5696(3) 0.7882(2)
H8A H 1.29270 1.55010 0.71570
H9A H 1.32610 1.65260 0.81940
C16A C 1.4684(3) 1.5425(3) 0.8212(2)
H10A H 1.53880 1.58370 0.79850
H11A H 1.46300 1.45910 0.79130
C21A C -0.0663(3) 0.4594(3) 0.4966(2)
H20A H -0.11530 0.41540 0.42600
H21A H -0.13290 0.50560 0.52310
Cu1A Cu 1.17188(3) 1.32536(2) 0.75908(2)
Cu1A* Cu 1.17188(3) 0.32536(2) -0.24092(2)
Cu2A Cu 1.16712(3) 0.18255(2) -0.11677(2)
Cu2A* Cu 0.16712(3) 1.18255(2) -0.11677(2)
Cu3A Cu 1.35472(3) 1.18516(2) 0.78036(2)
Cu3A* Cu 0.35472(3) 1.18516(2) -0.21964(2)
N1A N 1.5524(2) 1.28127(17) 0.86993(15)
H22A H 1.54090 1.32890 0.92750
H23A H 1.58870 1.32690 0.83920
N2A N 1.7664(2) 1.05159(18) 0.81843(17)
H24A H 1.72170 0.99180 0.83080
H25A H 1.79840 1.02420 0.76460
H26A H 1.84250 1.09350 0.87150
N3A N 1.2175(2) 1.50232(18) 0.81696(18)
H27A H 1.24860 1.52300 0.88450
H28A H 1.13190 1.52590 0.80230
N4A N 1.5177(3) 1.5777(2) 0.9309(2)
H29A H 1.568(3) 1.532(3) 0.959(2)
H30A H 1.588(3) 1.646(2) 0.957(2)
N8A N -0.0423(3) 0.3775(2) 0.54826(19)
H39A H 0.008(3) 0.417(3) 0.6126(15)
H40A H 0.019(3) 0.334(3) 0.525(2)
O1A O 1.2112(2) 1.08890(17) 0.35210(15)
O2A O 1.1382(2) 1.24201(14) 0.43132(13)
O3A O 0.71422(18) 0.39039(15) -0.23491(13)
O4A O 0.89431(18) 0.50649(14) -0.24962(12)
O5A O 0.3012(2) 1.15384(16) 0.15558(13)
O6A O 0.25803(19) 1.21618(15) 0.03096(12)
O6A* O 1.25803(19) 0.21618(15) 0.03096(12)
S1A S 1.25320(6) 1.21622(5) 0.64188(4)
S2A S 1.00615(6) 0.27194(5) -0.17030(4)
S2A* S 1.00615(6) 1.27194(5) 0.82970(4)
S3A S 0.26785(6) 1.03757(5) -0.17287(4)
S3A* S 1.26785(6) 0.03757(5) -0.17287(4)
S3A** S 1.26785(6) 1.03757(5) 0.82713(4)
N10A N 0.5433(5) 0.6147(4) 0.4553(5)
H43A H 0.616(5) 0.621(3) 0.426(4)
H44A H 0.591(6) 0.655(3) 0.5220(15)
C22A C 0.501(2) 0.5010(9) 0.4469(6)
H45A H 0.40420 0.46750 0.39950
H46A H 0.56970 0.45540 0.42260
#END
