
#######################################################################
#
#                 Cambridge Crystallographic Data Centre
#                                CCDC
#
#######################################################################
#
# If this CIF has been generated from an entry in the Cambridge
# Structural Database, then it will include bibliographic, chemical,
# crystal, experimental, refinement or atomic coordinate data resulting
# from the CCDC's data processing and validation procedures.
#
#######################################################################

data_CSD_CIF_GULNAD
_audit_creation_date 2010-04-07
_audit_creation_method CSD-ConQuest-V1
_database_code_CSD GULNAD
_database_code_depnum_ccdc_archive 'CCDC 676865'
_chemical_formula_sum 'C26 H66 Cl2 Co2 Mn2 N14 O22'
_chemical_formula_moiety
;
(C9 H27 Co1 N7 3+)2n,n(C8 Mn2 O16 4-),2n(Cl1 1-),6n(H2 O1)
;
_journal_coden_Cambridge 1295
_journal_volume 12
_journal_year 2009
_journal_page_first 473
_journal_name_full 'Inorg.Chem.Commun. '
loop_
_publ_author_name
"A.O.Beznischenko"
"V.G.Makhankova"
"V.N.Kokozay"
"V.V.Dyakonenko"
"O.V.Shishkin"
_chemical_name_systematic
;
catena-(bis((tris(((Aminoethyl)amino)methyl)amine)-cobalt(iii)) 
bis(\m~2~-oxalato)-dioxalato-di-manganese(ii) dichloride hexahydrate)
;
_cell_volume   1194.288
_exptl_crystal_colour 'orange'
_exptl_crystal_density_diffrn 1.704
_exptl_crystal_description 'block'
_diffrn_ambient_temperature 100
_refine_special_details
;
One water molecule is disordered over two sites with occupancies 0.75:0.25.

;
#These two values have been output from a single CSD field.
_refine_ls_R_factor_gt 0.0492
_refine_ls_wR_factor_gt 0.0492
_symmetry_cell_setting triclinic
_symmetry_space_group_name_H-M 'P -1'
_symmetry_Int_Tables_number 2
loop_
_symmetry_equiv_pos_site_id
_symmetry_equiv_pos_as_xyz
1 x,y,z
2 -x,-y,-z
_cell_length_a 9.7368(3)
_cell_length_b 9.9048(2)
_cell_length_c 14.3865(3)
_cell_angle_alpha 105.882(2)
_cell_angle_beta 99.604(4)
_cell_angle_gamma 110.632(3)
_cell_formula_units_Z 1
loop_
_atom_type_symbol
_atom_type_radius_bond
C 0.68
H 0.23
Cl 0.99
Co 1.26
Mn 1.61
N 0.68
O 0.68
loop_
_atom_site_label
_atom_site_type_symbol
_atom_site_fract_x
_atom_site_fract_y
_atom_site_fract_z
Co1 Co 0.08988(5) 0.73389(4) 0.33049(3)
N1 N 0.2113(3) 0.8258(3) 0.2484(2)
H1 H 0.30760 0.82630 0.26760
N2 N -0.0020(4) 0.6132(3) 0.1067(2)
N3 N 0.0539(4) 0.5241(3) 0.2465(2)
H2 H -0.02330 0.45510 0.26240
N4 N 0.2655(3) 0.7340(3) 0.4211(2)
H3 H 0.35600 0.79780 0.41500
H4 H 0.26510 0.77010 0.48710
N5 N -0.0990(3) 0.7192(3) 0.2436(2)
H5 H -0.09390 0.81870 0.25990
N6 N -0.0398(3) 0.6573(3) 0.4118(2)
H6 H -0.06060 0.55510 0.40000
H7 H 0.01010 0.71280 0.47940
N7 N 0.1488(3) 0.9493(3) 0.4177(2)
H8 H 0.06460 0.97180 0.41040
H9 H 0.18410 0.96170 0.48420
C1 C 0.1450(5) 0.7383(4) 0.1358(3)
H10 H 0.13710 0.81120 0.10220
H11 H 0.21680 0.69740 0.11130
C2 C 0.0012(5) 0.4849(4) 0.1329(2)
H12 H 0.07110 0.44840 0.10180
H13 H -0.10280 0.39920 0.10460
C3 C 0.1964(5) 0.5028(4) 0.2795(3)
H14 H 0.27550 0.55470 0.25030
H15 H 0.17380 0.39140 0.25650
C4 C 0.2528(5) 0.5729(4) 0.3930(3)
H16 H 0.17960 0.51320 0.42250
H17 H 0.35400 0.57320 0.41800
C5 C -0.1203(4) 0.6573(4) 0.1314(3)
H18 H -0.22040 0.56630 0.09860
H19 H -0.12330 0.73740 0.10340
C6 C -0.2317(4) 0.6269(4) 0.2710(3)
H20 H -0.25940 0.51510 0.23880
H21 H -0.32170 0.64700 0.24790
C7 C -0.1853(4) 0.6741(4) 0.3832(3)
H22 H -0.16920 0.78260 0.41550
H23 H -0.26560 0.60700 0.40490
C8 C 0.2338(4) 0.9898(4) 0.2765(3)
H24 H 0.13930 0.99590 0.24400
H25 H 0.31900 1.04850 0.25420
C9 C 0.2707(4) 1.0555(4) 0.3891(3)
H26 H 0.37240 1.06280 0.42160
H27 H 0.27280 1.16020 0.41090
Mn1 Mn 0.79036(5) 0.04875(5) 0.10519(3)
O1 O 0.8188(3) -0.1276(3) -0.00789(17)
O2 O 0.6796(3) 0.1313(3) 0.00654(18)
O3 O 0.4468(3) 0.0970(3) -0.0732(2)
O4 O 0.9816(3) -0.1654(2) -0.09305(17)
O5 O 0.8122(3) 0.2394(3) 0.23145(17)
O6 O 0.8526(4) 0.3198(3) 0.39710(19)
O7 O 0.8680(3) -0.0053(2) 0.23269(16)
O8 O 0.9438(3) 0.0883(3) 0.40095(16)
C10 C 0.9417(3) -0.0858(3) -0.0299(2)
C11 C 0.5368(4) 0.0659(4) -0.0196(2)
C12 C 0.8456(4) 0.2283(4) 0.3162(2)
C13 C 0.8884(3) 0.0906(3) 0.3177(2)
Cl1 Cl 0.56802(11) -0.08785(13) 0.36567(8)
O9 O 0.4551(4) -0.3376(5) 0.1432(4)
H28 H 0.48070 -0.28630 0.10550
H29 H 0.48330 -0.27020 0.20210
O10 O 0.5279(5) 0.3358(5) 0.3446(5)
H30 H 0.61770 0.33850 0.35670
H31 H 0.50110 0.32080 0.28200
O11 O 0.5646(5) -0.3735(5) -0.1615(4)
H32 H 0.64370 -0.29380 -0.12140
H33 H 0.53520 -0.45090 -0.14310
H34? H 0.63810 -0.32660 -0.04550
H35? H 0.50340 -0.39460 -0.02770
O12? O 0.5457(13) -0.3926(11) -0.0748(10)
Mn1A Mn 1.20964(5) -0.04875(5) -0.10519(3)
Mn1A* Mn 0.20964(5) -0.04875(5) -0.10519(3)
O1A O 1.1812(3) 0.1276(3) 0.00789(17)
O2A O 0.3204(3) -0.1313(3) -0.00654(18)
O2A* O 1.3204(3) -0.1313(3) -0.00654(18)
O3A O 0.5532(3) -0.0970(3) 0.0732(2)
O3* O 1.4468(3) 0.0970(3) -0.0732(2)
O4A O 1.0184(3) 0.1654(2) 0.09305(17)
O5A O 1.1878(3) -0.2394(3) -0.23145(17)
O6A O 1.1474(4) -0.3198(3) -0.39710(19)
O7A O 1.1320(3) 0.0053(2) -0.23269(16)
O8A O 1.0562(3) -0.0883(3) -0.40095(16)
C10A C 1.0583(3) 0.0858(3) 0.0299(2)
C11A C 0.4632(4) -0.0659(4) 0.0196(2)
C12A C 1.1544(4) -0.2283(4) -0.3162(2)
C13A C 1.1116(3) -0.0906(3) -0.3177(2)
#END
