
#######################################################################
#
#                 Cambridge Crystallographic Data Centre
#                                CCDC
#
#######################################################################
#
# If this CIF has been generated from an entry in the Cambridge
# Structural Database, then it will include bibliographic, chemical,
# crystal, experimental, refinement or atomic coordinate data resulting
# from the CCDC's data processing and validation procedures.
#
#######################################################################

data_CSD_CIF_GUMVOB
_audit_creation_date 2015-04-21
_audit_creation_method CSD-ConQuest-V1
_database_code_CSD GUMVOB
_database_code_depnum_ccdc_archive 'CCDC 1060892'
_chemical_formula_sum 'C73.5 H144.5 Cu1 I1 Mn1 Mo6 N6.5 O25.5'
_chemical_formula_moiety
;
3(C16 H36 N1 1+),n(C18 H20 Cu1 I1 Mn1 Mo6 N2 O24 3-),1.5(C5 H11 N1 O1)
;
_journal_coden_Cambridge 1078
_journal_year 2015
_journal_name_full 'CSD Communication(Private Communication) '
loop_
_publ_author_name
"Xin-Xiong Li"
_chemical_name_systematic
;
catena-[tris(Tetra-n-butylammonium) 
bis(\m-2-(oxidomethyl)-2-(pyridin-4-yl)propane-1,3-diolato)-(\m-iodo)-hexakis(
\m-oxo)-dodeca-oxo-copper-manganese-molybdenum N,N-diethylformamide solvate]
;
_cell_volume   9711.174
_exptl_crystal_colour 'light yellow'
_exptl_crystal_density_diffrn 1.606
_exptl_crystal_description 'lamellar'
_diffrn_ambient_temperature 173
_refine_special_details
;
We calculate 55% void space in the structure. The formula given in the 
deposited cif suggests additional cations and solvent molecules were not 
modelled from the diffraction data.
;
#These two values have been output from a single CSD field.
_refine_ls_R_factor_gt 0.0881
_refine_ls_wR_factor_gt 0.0881
_symmetry_cell_setting monoclinic
_symmetry_space_group_name_H-M 'C 2/m'
_symmetry_Int_Tables_number 12
loop_
_symmetry_equiv_pos_site_id
_symmetry_equiv_pos_as_xyz
1 x,y,z
2 -x,y,-z
3 1/2+x,1/2+y,z
4 1/2-x,1/2+y,-z
5 -x,-y,-z
6 x,-y,z
7 -1/2-x,-1/2-y,-z
8 -1/2+x,-1/2-y,z
_cell_length_a 28.172(12)
_cell_length_b 26.818(10)
_cell_length_c 14.157(6)
_cell_angle_alpha 90
_cell_angle_beta 114.778(6)
_cell_angle_gamma 90
_cell_formula_units_Z 4
loop_
_atom_type_symbol
_atom_type_radius_bond
C 0.68
H 0.23
Cu 1.32
I 1.40
Mn 1.61
Mo 1.54
N 0.68
O 0.68
loop_
_atom_site_label
_atom_site_type_symbol
_atom_site_fract_x
_atom_site_fract_y
_atom_site_fract_z
Mn1 Mn 0.25000 0.25000 0.00000
Cu1 Cu 0.50000 0.04741(3) 0.50000
I1 I 0.54977(3) 0.00000 0.40442(6)
Mo1 Mo 0.27572(3) 0.33401(3) 0.18545(7)
Mo2 Mo 0.34178(3) 0.33549(3) 0.03860(8)
Mo3 Mo 0.31625(3) 0.25236(4) -0.14631(7)
O1 O 0.31451(16) 0.27594(18) 0.1212(4)
O2 O 0.23353(14) 0.20054(18) 0.0840(3)
O3 O 0.36190(18) 0.2778(2) -0.0157(5)
O4 O 0.2482(2) 0.2248(2) -0.2301(4)
O5 O 0.3997(2) 0.3428(3) 0.1472(7)
O6 O 0.3334(3) 0.3410(3) 0.2967(6)
O7 O 0.2913(2) 0.3651(2) 0.0804(6)
O8 O 0.2334(3) 0.3785(3) 0.1948(8)
O9 O 0.3567(3) 0.2039(4) -0.1549(7)
O10 O 0.3174(3) 0.2995(3) -0.2259(6)
O11 O 0.3412(3) 0.3794(3) -0.0434(8)
N1 N 0.4461(2) 0.08955(19) 0.3881(5)
C1 C 0.2768(3) 0.1729(3) 0.1596(6)
H1 H 0.26900 0.13680 0.14960
H2 H 0.28080 0.18190 0.23040
C2 C 0.3293(3) 0.1724(3) 0.0482(5)
H3 H 0.32200 0.13650 0.03340
H4 H 0.36480 0.17890 0.05290
C3 C 0.3712(3) 0.1510(3) 0.2326(6)
C4 C 0.3291(2) 0.1835(3) 0.1506(6)
C5 C 0.3488(2) 0.2377(3) 0.1882(6)
H5 H 0.35160 0.24220 0.25970
H6 H 0.38420 0.24190 0.19040
C6 C 0.3999(3) 0.1167(3) 0.2059(7)
H7 H 0.39520 0.11300 0.13580
C7 C 0.3817(4) 0.1531(4) 0.3355(8)
H8 H 0.36300 0.17650 0.35720
C8 C 0.4360(3) 0.0874(3) 0.2845(7)
H9 H 0.45530 0.06380 0.26470
C9 C 0.4181(4) 0.1229(4) 0.4107(8)
H10 H 0.42310 0.12650 0.48100
O12 O 0.29081(15) 0.20160(18) -0.0416(4)
N2 N 0.50000 0.3001(8) 0.00000
C10 C 0.4532(5) 0.3322(6) -0.0746(14)
H11 H 0.42590 0.30970 -0.12250
H12 H 0.43810 0.35040 -0.03280
C11 C 0.4807(4) 0.2653(5) 0.0775(14)
H13 H 0.46880 0.28750 0.11920
H14 H 0.45090 0.24390 0.03400
C12 C 0.4663(8) 0.3659(10) -0.132(2)
H15 H 0.47890 0.34810 -0.17850
H16 H 0.49480 0.38780 -0.08530
C13 C 0.4965(9) 0.2078(10) 0.206(2)
H17 H 0.46930 0.18590 0.15610
H18 H 0.47790 0.23320 0.22860
C14 C 0.5216(6) 0.2360(7) 0.1432(17)
H19 H 0.55150 0.25660 0.18910
H20 H 0.53350 0.21260 0.10350
C15 C 0.4188(15) 0.3972(14) -0.196(2)
H21 H 0.41180 0.42110 -0.15050
H22 H 0.38790 0.37520 -0.22860
C16 C 0.5315(9) 0.1712(12) 0.315(2)
H23 H 0.50780 0.15920 0.34500
H24 H 0.55930 0.19130 0.36710
H25 H 0.54690 0.14270 0.29490
C17 C 0.4271(12) 0.4266(13) -0.284(2)
H26 H 0.39570 0.44600 -0.32460
H27 H 0.43390 0.40300 -0.32980
H28 H 0.45710 0.44910 -0.25230
Mo1F Mo 0.22428(3) 0.16599(3) -0.18545(7)
Mo2F Mo 0.15822(3) 0.16451(3) -0.03860(8)
Mo3F Mo 0.18375(3) 0.24764(4) 0.14631(7)
O1F O 0.18549(16) 0.22406(18) -0.1212(4)
O2F O 0.26647(14) 0.29946(18) -0.0840(3)
O3F O 0.13810(18) 0.2222(2) 0.0157(5)
O4F O 0.2518(2) 0.2752(2) 0.2301(4)
O5F O 0.1003(2) 0.1572(3) -0.1472(7)
O6F O 0.1666(3) 0.1590(3) -0.2967(6)
O7F O 0.2087(2) 0.1349(2) -0.0804(6)
O8F O 0.2666(3) 0.1215(3) -0.1948(8)
O9F O 0.1433(3) 0.2961(4) 0.1549(7)
O10F O 0.1826(3) 0.2005(3) 0.2259(6)
O11F O 0.1588(3) 0.1206(3) 0.0434(8)
N1F N 0.0539(2) 0.41045(19) -0.3881(5)
C1F C 0.2232(3) 0.3271(3) -0.1596(6)
H1F H 0.23100 0.36320 -0.14960
H2F H 0.21920 0.31810 -0.23040
C2F C 0.1707(3) 0.3276(3) -0.0482(5)
H3F H 0.17800 0.36350 -0.03340
H4F H 0.13520 0.32110 -0.05290
C3F C 0.1288(3) 0.3490(3) -0.2326(6)
C4F C 0.1709(2) 0.3165(3) -0.1506(6)
C5F C 0.1512(2) 0.2623(3) -0.1882(6)
H5F H 0.14840 0.25780 -0.25970
H6F H 0.11580 0.25810 -0.19040
C6F C 0.1001(3) 0.3833(3) -0.2059(7)
H7F H 0.10480 0.38700 -0.13580
C7F C 0.1183(4) 0.3469(4) -0.3355(8)
H8F H 0.13700 0.32350 -0.35720
C8F C 0.0640(3) 0.4126(3) -0.2845(7)
H9F H 0.04470 0.43620 -0.26470
C9F C 0.0819(4) 0.3771(4) -0.4107(8)
H10F H 0.07690 0.37350 -0.48100
O12F O 0.20919(15) 0.29840(18) 0.0416(4)
Cu1D Cu 0.50000 -0.04741(3) 0.50000
Cu1F Cu 0.00000 0.45259(3) -0.50000
I1A I 0.45023(3) 0.00000 0.59558(6)
N1A N 0.5539(2) 0.08955(19) 0.6119(5)
C10A C 0.5468(5) 0.3322(6) 0.0746(14)
H11A H 0.57410 0.30970 0.12250
H12A H 0.56190 0.35040 0.03280
C11A C 0.5193(4) 0.2653(5) -0.0775(14)
H13A H 0.53120 0.28750 -0.11920
H14A H 0.54910 0.24390 -0.03400
C12A C 0.5337(8) 0.3659(10) 0.132(2)
H15A H 0.52110 0.34810 0.17850
H16A H 0.50520 0.38780 0.08530
C13A C 0.5035(9) 0.2078(10) -0.206(2)
H17A H 0.53070 0.18590 -0.15610
H18A H 0.52210 0.23320 -0.22860
C14A C 0.4784(6) 0.2360(7) -0.1432(17)
H19A H 0.44850 0.25660 -0.18910
H20A H 0.46650 0.21260 -0.10350
C15A C 0.5812(15) 0.3972(14) 0.196(2)
H21A H 0.58820 0.42110 0.15050
H22A H 0.61210 0.37520 0.22860
C16A C 0.4685(9) 0.1712(12) -0.315(2)
H23A H 0.49220 0.15920 -0.34500
H24A H 0.44070 0.19130 -0.36710
H25A H 0.45310 0.14270 -0.29490
C17A C 0.5729(12) 0.4266(13) 0.284(2)
H26A H 0.60430 0.44600 0.32460
H27A H 0.56610 0.40300 0.32980
H28A H 0.54290 0.44910 0.25230
#END
