
#######################################################################
#
#                 Cambridge Crystallographic Data Centre
#                                CCDC
#
#######################################################################
#
# If this CIF has been generated from an entry in the Cambridge
# Structural Database, then it will include bibliographic, chemical,
# crystal, experimental, refinement or atomic coordinate data resulting
# from the CCDC's data processing and validation procedures.
#
#######################################################################

data_CSD_CIF_GURTIX
_audit_creation_date 2010-10-03
_audit_creation_method CSD-ConQuest-V1
_database_code_CSD GURTIX
_database_code_depnum_ccdc_archive 'CCDC 714332'
_chemical_formula_sum 'C17 H25 In2 O18.5'
_chemical_formula_moiety
;
(C17 H11 In2 O12 1-)n,5.5n(H2 O1),n(H3 O1 1+)
;
_journal_coden_Cambridge 208
_journal_volume 182
_journal_year 2009
_journal_page_first 3067
_journal_name_full 'J.Solid State Chem. '
loop_
_publ_author_name
"Zheng-Bo Han"
"Yong-Juan Song"
"Jian-Wei Ji"
"Wei Zhang"
"Guang-Xi Han"
_chemical_name_systematic
;
catena-((\m~5~-Benzene-1,2,4-tricarboxylato)-(\m~3~-benzene-1,2,4-tricarboxyla
to)-bis(\m~2~-aqua)-di-indium(iii) oxonium hydrate)
;
_cell_volume   6768.734
_exptl_crystal_colour 'colorless'
_exptl_crystal_density_diffrn 1.478
_exptl_crystal_description 'block'
_diffrn_ambient_temperature 293
_refine_special_details
;
C12,C13 and C12',C13' disordered over two sites with occupancies 0.50:0.50; 
The SQUEEZE/PLATON program has been used to model disordered water molecules.
;
#These two values have been output from a single CSD field.
_refine_ls_R_factor_gt 0.0569
_refine_ls_wR_factor_gt 0.0569
_symmetry_cell_setting orthorhombic
_symmetry_space_group_name_H-M 'P b c a'
_symmetry_Int_Tables_number 61
loop_
_symmetry_equiv_pos_site_id
_symmetry_equiv_pos_as_xyz
1 x,y,z
2 1/2-x,-y,1/2+z
3 -x,1/2+y,1/2-z
4 1/2+x,1/2-y,-z
5 -x,-y,-z
6 -1/2+x,y,-1/2-z
7 x,-1/2-y,-1/2+z
8 -1/2-x,-1/2+y,z
_cell_length_a 13.502(2)
_cell_length_b 15.465(2)
_cell_length_c 32.416(4)
_cell_angle_alpha 90
_cell_angle_beta 90
_cell_angle_gamma 90
_cell_formula_units_Z 8
loop_
_atom_type_symbol
_atom_type_radius_bond
C 0.68
H 0.23
In 1.42
O 0.68
loop_
_atom_site_label
_atom_site_type_symbol
_atom_site_fract_x
_atom_site_fract_y
_atom_site_fract_z
In1 In 0.27763(4) 0.07624(4) 0.341180(16)
In2 In 0.72279(4) 0.18182(4) 0.618460(16)
C1 C 0.0811(6) -0.0827(6) 0.2694(3)
C2 C 0.0182(6) -0.0504(6) 0.2421(2)
H1 H 0.00160 0.00790 0.24040
C3 C -0.0221(6) -0.1175(6) 0.2149(3)
C4 C 0.0027(7) -0.2147(6) 0.2159(3)
H2 H -0.02710 -0.25110 0.19670
C5 C 0.0652(7) -0.2486(6) 0.2433(3)
H3 H 0.08190 -0.30690 0.24470
C6 C 0.1032(6) -0.1831(6) 0.2702(3)
C7 C 0.1217(6) -0.0043(6) 0.2970(3)
C8 C 0.1637(6) -0.2258(5) 0.3022(2)
C9 C -0.0911(6) -0.0842(6) 0.1862(2)
C10 C 0.6383(7) 0.1213(7) 0.5371(3)
C11 C 0.5754(7) 0.1427(7) 0.5033(3)
C12 C 0.5416(14) 0.2379(13) 0.4968(6)
H4 H 0.56360 0.28060 0.51480
C13 C 0.4840(15) 0.2583(14) 0.4671(6)
H5 H 0.46540 0.31450 0.46060
C14 C 0.4500(7) 0.1782(7) 0.4439(3)
C15 C 0.4987(9) 0.0957(9) 0.4431(4)
H6 H 0.48680 0.05580 0.42220
C16 C 0.5608(10) 0.0792(11) 0.4733(4)
H7 H 0.59410 0.02670 0.47460
C17 C 0.3782(6) 0.1938(6) 0.4133(3)
O1 O 0.2034(4) 0.0066(4) 0.29317(18)
O2 O 0.0764(5) 0.0468(5) 0.3189(2)
O3 O 0.1922(4) -0.3104(4) 0.29559(18)
O4 O 0.1771(4) -0.1745(4) 0.33387(19)
O5 O -0.1227(5) -0.1490(5) 0.1638(2)
O6 O -0.1128(4) 0.0038(4) 0.18701(18)
O7 O 0.6361(5) 0.1794(5) 0.5675(2)
O8 O 0.6856(6) 0.0476(7) 0.5350(2)
O9 O 0.3263(4) 0.2638(5) 0.42059(19)
O10 O 0.3771(4) 0.1370(4) 0.38256(18)
O11 O 0.1878(4) 0.1726(4) 0.36870(17)
H8 H 0.12520 0.15430 0.37690
O12 O 0.2503(4) -0.0311(4) 0.38647(17)
H9 H 0.22380 -0.01320 0.41150
O13 O 0.4480(18) 0.521(2) 0.4260(7)
H10 H 0.48480 0.52040 0.40470
H11 H 0.46200 0.55410 0.44620
O14 O 0.2897(11) -0.0711(15) 0.2193(6)
H12 H 0.33270 -0.03360 0.22620
H13 H 0.30130 -0.10540 0.19940
O15 O 0.502(2) 0.395(2) 0.4134(19)
H14 H 0.50950 0.35570 0.39530
H15 H 0.54730 0.43150 0.41790
O16 O 0.0634(14) 0.3565(16) 0.6672(7)
H16 H 0.04540 0.30900 0.67810
H17 H 0.09610 0.39310 0.68130
O17 O 0.568(3) 0.538(3) 0.365(3)
H18 H 0.55060 0.58810 0.37250
H19 H 0.62730 0.52880 0.35700
O18 O 0.3128(15) -0.2863(19) 0.2184(7)
H20 H 0.35410 -0.25600 0.20480
H21 H 0.32030 -0.34080 0.21990
O19 O 0.693(3) 0.683(3) 0.359(2)
H22 H 0.74830 0.66710 0.34900
H23 H 0.68390 0.73490 0.36630
O20 O 0.150(3) -0.021(4) 0.1481(13)
H24 H 0.13770 -0.05410 0.12760
H25 H 0.19280 0.01840 0.14600
O21 O -0.0791(17) 0.1015(14) 0.5149(6)
H26 H -0.13710 0.08560 0.52180
H27 H -0.04290 0.06840 0.50050
C18? C 0.008(2) 0.295(2) 0.4888(10)
C19? C -0.052(2) 0.2695(19) 0.5196(9)
H28? H 0.00350 0.27050 0.46270
H29? H -0.09240 0.22100 0.51740
In1G In 0.22237(4) -0.42376(4) 0.341180(16)
In1E In -0.22237(4) 0.07624(4) 0.158820(16)
In2D In 0.27721(4) -0.18182(4) 0.381540(16)
In2A In -0.22279(4) -0.18182(4) 0.118460(16)
In2C In 0.22279(4) 0.31818(4) 0.381540(16)
O3G O 0.3078(4) 0.1896(4) 0.29559(18)
O4D O 0.8229(4) 0.1745(4) 0.66613(19)
O5A O 0.6227(5) 0.1490(5) 0.6638(2)
O6E O 0.3872(4) 0.0038(4) 0.31299(18)
O9C O 0.8263(4) 0.2362(5) 0.57941(19)
O11C O 0.6878(4) 0.3274(4) 0.63130(17)
H8C H 0.62520 0.34570 0.62310
O12D O 0.7497(4) 0.0311(4) 0.61353(17)
H9D H 0.77620 0.01320 0.58850
#END
