
#######################################################################
#
#                 Cambridge Crystallographic Data Centre
#                                CCDC
#
#######################################################################
#
# If this CIF has been generated from an entry in the Cambridge
# Structural Database, then it will include bibliographic, chemical,
# crystal, experimental, refinement or atomic coordinate data resulting
# from the CCDC's data processing and validation procedures.
#
#######################################################################

data_CSD_CIF_GURTET
_audit_creation_date 2010-10-03
_audit_creation_method CSD-ConQuest-V1
_database_code_CSD GURTET
_database_code_depnum_ccdc_archive 'CCDC 294832'
_chemical_formula_sum 'C10 H32 Al2 F2 N4 O13 P4'
_chemical_formula_moiety
;
(C4 H8 Al2 F2 O12 P4 4-)n,n(H2 O1),n(C6 H22 N4 4+)
;
_journal_coden_Cambridge 208
_journal_volume 182
_journal_year 2009
_journal_page_first 3049
_journal_name_full 'J.Solid State Chem. '
loop_
_publ_author_name
"Zhanhui Yuan"
"W.Clegg"
"M.P.Attfield"
_chemical_name_systematic
;
catena-(bis(\m~4~-(2-Phosphonoethyl)phosphonato)-bis(\m~2~-fluoro)-di-aluminiu
m tris(2-ammonioethyl)ammonium monohydrate)
;
_cell_volume   2220.150
_exptl_crystal_colour 'colorless'
_exptl_crystal_density_diffrn 1.891
_exptl_crystal_description 'needle'
_diffrn_ambient_temperature 120
_diffrn_radiation_probe x-ray
_diffrn_source synchrotron
_refine_special_details
;
C10',C5',C6',C7',C8',C9',N1',N2',N3',N4' and C10,C5, C6,C7,C8,C9,N1,N2,N3,N4 
disordered over two sites with occupancies 0.560:0.440.
;
#These two values have been output from a single CSD field.
_refine_ls_R_factor_gt 0.0915
_refine_ls_wR_factor_gt 0.0915
_symmetry_cell_setting monoclinic
_symmetry_space_group_name_H-M 'P 21/n'
_symmetry_Int_Tables_number 14
loop_
_symmetry_equiv_pos_site_id
_symmetry_equiv_pos_as_xyz
1 x,y,z
2 1/2-x,1/2+y,1/2-z
3 -x,-y,-z
4 -1/2+x,-1/2-y,-1/2+z
_cell_length_a 12.145(4)
_cell_length_b 9.265(3)
_cell_length_c 20.422(6)
_cell_angle_alpha 90
_cell_angle_beta 104.952(4)
_cell_angle_gamma 90
_cell_formula_units_Z 4
loop_
_atom_type_symbol
_atom_type_radius_bond
C 0.68
H 0.23
Al 1.21
F 0.64
N 0.68
O 0.68
P 1.05
loop_
_atom_site_label
_atom_site_type_symbol
_atom_site_fract_x
_atom_site_fract_y
_atom_site_fract_z
Al1 Al 1.17035(14) 0.05763(17) 0.16230(8)
Al2 Al 1.11693(14) 0.31053(18) 0.27459(8)
P1 P 0.98044(12) 0.02217(16) 0.24289(8)
P2 P 1.19369(13) 0.77252(15) 0.08664(7)
P3 P 1.04573(13) 0.34833(16) 0.11512(7)
P4 P 1.07372(12) -0.40248(15) 0.34549(7)
F1 F 1.1978(2) 0.1846(3) 0.23350(14)
F2 F 1.2624(2) -0.0656(3) 0.22225(14)
O1 O 1.0384(3) -0.5467(4) 0.30872(17)
O2 O 1.0407(3) 0.3746(4) 0.18676(17)
O3 O 1.0396(3) -0.0038(4) 0.18688(18)
O4 O 1.0815(3) 0.1958(4) 0.10142(18)
O5 O 1.2024(3) -0.3823(4) 0.36630(18)
O6 O 1.0212(3) -0.3906(4) 0.40528(19)
O7 O 1.2084(3) 0.7648(4) 0.01408(18)
O8 O 1.3068(3) 0.7489(4) 0.13792(17)
O9 O 1.0031(3) 0.1741(4) 0.27277(18)
O10 O 1.1364(3) 0.9168(4) 0.09514(18)
O11 O 0.8532(3) -0.0080(4) 0.21768(19)
O12 O 0.9281(3) 0.3885(4) 0.06658(19)
C1 C 1.1422(5) 0.4795(6) 0.0949(3)
H1 H 1.21820 0.46850 0.12710
H2 H 1.15050 0.46040 0.04870
C2 C 1.0151(5) -0.2618(6) 0.2846(3)
H3 H 1.04540 -0.27560 0.24450
H4 H 0.93150 -0.27550 0.26960
C3 C 1.1010(5) 0.6320(6) 0.0984(3)
H5 H 1.08520 0.64580 0.14320
H6 H 1.02780 0.64300 0.06360
C4 C 1.0382(5) -0.1063(6) 0.3085(3)
H7 H 1.12150 -0.09150 0.32480
H8 H 1.00460 -0.08920 0.34710
O13 O 0.7105(3) 0.1712(5) 0.1352(2)
N1 N 1.8030(9) 0.2145(15) 0.4092(6)
H9 H 1.83800 0.30040 0.40230
N2 N 2.0460(12) 0.3134(15) 0.4752(9)
H10 H 2.11970 0.32210 0.47310
H11 H 2.04100 0.33530 0.51780
H12 H 2.00140 0.37510 0.44500
N3 N 1.6906(18) -0.094(2) 0.2860(11)
H13 H 1.62250 -0.13960 0.28150
H14 H 1.74780 -0.16050 0.29600
H15 H 1.69080 -0.04870 0.24660
N4 N 1.6286(9) 0.4581(12) 0.4292(6)
H16 H 1.62460 0.54890 0.44540
H17 H 1.56770 0.40570 0.43390
H18 H 1.62790 0.46270 0.38460
C5 C 1.8849(8) 0.1476(13) 0.4642(6)
H19 H 1.86750 0.04330 0.46490
H20 H 1.87800 0.19000 0.50750
C6 C 2.0076(9) 0.1663(13) 0.4588(7)
H21 H 2.05830 0.09880 0.49030
H22 H 2.01170 0.14290 0.41220
C7 C 1.7819(9) 0.1409(12) 0.3436(6)
H23 H 1.85560 0.11090 0.33560
H24 H 1.74510 0.20890 0.30710
C8 C 1.7075(11) 0.0109(13) 0.3405(7)
H25 H 1.73720 -0.04270 0.38340
H26 H 1.63100 0.04680 0.34110
C9 C 1.6949(9) 0.2602(12) 0.4186(6)
H27 H 1.66080 0.18420 0.44130
H28 H 1.64100 0.28430 0.37470
C10 C 1.7246(10) 0.3950(13) 0.4639(8)
H29 H 1.72730 0.37690 0.51200
H30 H 1.79450 0.44500 0.45960
C11? C 1.6954(12) 0.3755(16) 0.4711(10)
C12? C 1.8918(9) 0.2974(16) 0.4052(7)
C13? C 2.0034(11) 0.2325(17) 0.4443(9)
C14? C 1.7913(11) 0.0637(16) 0.3825(7)
C15? C 1.6914(13) 0.0473(18) 0.3212(8)
C16? C 1.7388(12) 0.2252(14) 0.4591(8)
H31? H 1.73380 0.25850 0.36740
H32? H 1.73670 0.39120 0.51910
H33? H 1.73660 0.43590 0.44530
H34? H 2.14380 0.30620 0.50630
H35? H 2.04080 0.38430 0.51370
H36? H 2.08840 0.41530 0.45510
H37? H 1.63530 -0.10710 0.25640
H38? H 1.73840 -0.15010 0.30970
H39? H 1.74940 -0.05410 0.25340
H40? H 1.61890 0.54410 0.48910
H41? H 1.54950 0.41100 0.48590
H42? H 1.56390 0.47750 0.42250
H43? H 1.88450 0.39350 0.42480
H44? H 1.89610 0.31300 0.35800
H45? H 1.98900 0.15660 0.47510
H46? H 2.04250 0.18750 0.41240
H47? H 1.78330 -0.00150 0.41940
H48? H 1.86380 0.04160 0.37100
H49? H 1.62040 0.03750 0.33600
H50? H 1.68470 0.13500 0.29270
H51? H 1.79650 0.19460 0.50050
H52? H 1.67450 0.15630 0.45170
N5? N 1.7881(12) 0.2167(17) 0.4030(8)
N6? N 2.0760(13) 0.3453(19) 0.4836(10)
N7? N 1.705(2) -0.078(3) 0.2815(14)
N8? N 1.5986(9) 0.4593(13) 0.4668(7)
Al1A Al 1.32965(14) -0.44237(17) 0.33770(8)
Al1* Al 1.17035(14) 1.05763(17) 0.16230(8)
Al2A Al 1.38307(14) -0.18947(18) 0.22541(8)
Al2* Al 1.11693(14) -0.68947(18) 0.27459(8)
Al2A* Al 1.38307(14) 0.81053(18) 0.22541(8)
F2A F 1.2376(2) 0.4344(3) 0.27775(14)
O1* O 1.0384(3) 0.4533(4) 0.30872(17)
O5A O 1.2976(3) 0.1177(4) 0.13370(18)
O8A O 1.1932(3) 0.2489(4) 0.36208(17)
O10* O 1.1364(3) -0.0832(4) 0.09514(18)
#END
