
#######################################################################
#
#                 Cambridge Crystallographic Data Centre
#                                CCDC
#
#######################################################################
#
# If this CIF has been generated from an entry in the Cambridge
# Structural Database, then it will include bibliographic, chemical,
# crystal, experimental, refinement or atomic coordinate data resulting
# from the CCDC's data processing and validation procedures.
#
#######################################################################

data_CSD_CIF_GUTCIJ
_audit_creation_date 2015-09-24
_audit_creation_method CSD-ConQuest-V1
_database_code_CSD GUTCIJ
_database_code_depnum_ccdc_archive 'CCDC 1414109'
_chemical_formula_sum 'C138 H146 Cd8 N24 O60'
_chemical_formula_moiety
;
(C138 H140 Cd8 N24 O58 2-)n,2n(H3 O1 1+)
;
_journal_coden_Cambridge 182
_journal_volume 51
_journal_year 2015
_journal_page_first 16331
_journal_name_full 'Chem.Commun. '
loop_
_publ_author_name
"Xin Wu"
"Hua-Bin Zhang"
"Zhong-Xuan Xu"
"Jian Zhang"
_chemical_name_systematic
;
catena-[bis(oxonium) 
hexakis(\m-(R)-2,2',2''-(benzene-1,3,5-triyltris(carbonylimino))tripropanoato)
-tris(\m-2,2'-bipyridine)-tetraaqua-octa-cadmium unknown solvate]
;
_cell_volume  13068.678
_exptl_crystal_colour 'colorless'
_exptl_special_details
;
The paper describes two oxonium ions which have not been modelled

;
_exptl_crystal_description 'block'
_diffrn_ambient_temperature 293
_refine_special_details
;
Disordered solvent molecules were not modelled and the disordered density was 
taken into account using the SQUEEZE/PLATON procedure.
;
#These two values have been output from a single CSD field.
_refine_ls_R_factor_gt 0.0545
_refine_ls_wR_factor_gt 0.0545
loop_
_citation_database_id_CSD
_citation_special_details
GUTCEF "is a stereoisomer of this entry"
_symmetry_cell_setting rhombohedral
_symmetry_space_group_name_H-M 'R 3 2'
_symmetry_Int_Tables_number 155
loop_
_symmetry_equiv_pos_site_id
_symmetry_equiv_pos_as_xyz
1 x,y,z
2 -y,x-y,z
3 -x+y,-x,z
4 y,x,-z
5 x-y,-y,-z
6 -x,-x+y,-z
7 2/3+x,1/3+y,1/3+z
8 2/3-y,1/3+x-y,1/3+z
9 2/3-x+y,1/3-x,1/3+z
10 2/3+y,1/3+x,1/3-z
11 2/3+x-y,1/3-y,1/3-z
12 2/3-x,1/3-x+y,1/3-z
13 1/3+x,2/3+y,2/3+z
14 1/3-y,2/3+x-y,2/3+z
15 1/3-x+y,2/3-x,2/3+z
16 1/3+y,2/3+x,2/3-z
17 1/3+x-y,2/3-y,2/3-z
18 1/3-x,2/3-x+y,2/3-z
_cell_length_a 26.8706(5)
_cell_length_b 26.8706(5)
_cell_length_c 20.9000(8)
_cell_angle_alpha 90
_cell_angle_beta 90
_cell_angle_gamma 120
_cell_formula_units_Z 3
loop_
_atom_type_symbol
_atom_type_radius_bond
C 0.68
H 0.23
Cd 1.44
N 0.68
O 0.68
loop_
_atom_site_label
_atom_site_type_symbol
_atom_site_fract_x
_atom_site_fract_y
_atom_site_fract_z
Cd1 Cd -0.33330 0.33330 0.02898(5)
Cd2 Cd -0.56614(3) -0.17166(3) -0.05987(4)
O1 O -0.33330 0.33330 -0.0837(4)
O2 O -0.5417(3) -0.1446(3) 0.0472(4)
C1 C -0.4568(3) 0.2592(3) 0.0187(4)
O3 O -0.4326(2) 0.2316(3) 0.0121(4)
N1 N -0.5503(3) 0.1726(3) 0.0269(3)
H1 H -0.54050 0.15080 0.00720
O4 O -0.4270(2) 0.3124(3) 0.0293(3)
C2 C -0.5192(4) 0.2332(3) 0.0136(4)
H2 H -0.53100 0.25180 0.04570
O5 O -0.33330 0.33330 0.1355(5)
O6 O -0.9443(4) -0.0656(4) 0.1726(4)
O7 O -0.5462(4) -0.0808(3) -0.0124(3)
C3 C -0.5402(4) -0.0972(4) 0.0395(5)
C4 C -0.5291(5) -0.0621(4) 0.0996(5)
H3 H -0.54790 -0.08860 0.13540
N2 N -0.4730(4) -0.1262(4) -0.1007(5)
O8 O -0.8636(3) -0.0531(4) 0.2040(4)
N3 N -0.5542(4) -0.0262(3) 0.0934(4)
H4 H -0.53250 0.01060 0.09450
C5 C -0.3732(4) -0.0673(5) -0.0899(6)
H5 H -0.34290 -0.04570 -0.06210
C6 C -0.8928(5) -0.0464(5) 0.1636(6)
C7 C -0.4275(5) -0.0986(6) -0.0671(5)
H6 H -0.43200 -0.10010 -0.02290
C8 C -0.3633(5) -0.0675(5) -0.1518(7)
O9 O -0.6450(3) -0.1014(3) 0.0850(3)
N4 N -0.8059(4) 0.0079(4) 0.0995(5)
H7 H -0.78270 0.04320 0.10960
O10 O -0.8136(4) -0.0767(4) 0.0639(4)
C9 C -0.5361(4) 0.2454(4) -0.0517(5)
H8 H -0.57710 0.22840 -0.05380
H9 H -0.52340 0.22940 -0.08460
H10 H -0.51850 0.28620 -0.05770
C10 C -0.7190(4) 0.0016(4) 0.0821(4)
C11 C -0.6249(5) 0.0849(4) 0.0740(5)
C12 C -0.6939(4) -0.0312(4) 0.0849(4)
H11 H -0.71710 -0.07080 0.08900
C13 C -0.6121(4) -0.0496(4) 0.0858(4)
C14 C -0.6008(4) 0.0511(4) 0.0781(4)
H12 H -0.56100 0.06740 0.07850
C15 C -0.6841(5) 0.0606(4) 0.0787(5)
H13 H -0.70030 0.08410 0.07960
C16 C -0.6359(4) -0.0082(3) 0.0819(4)
C17 C -0.8675(5) -0.0130(5) 0.1025(5)
H14 H -0.88590 -0.03890 0.06620
C18 C -0.5924(5) 0.1496(5) 0.0670(6)
O11 O -0.5960(6) 0.1780(5) 0.1113(5)
C19 C -0.8773(7) 0.0358(7) 0.0964(8)
H15 H -0.85980 0.05640 0.05770
H16 H -0.86070 0.06100 0.13240
H17 H -0.91790 0.02200 0.09510
C20 C -0.4642(6) -0.1317(7) -0.1602(7)
H18 H -0.49480 -0.15700 -0.18570
C21 C -0.4682(6) -0.0255(6) 0.1156(8)
H19 H -0.46480 -0.00590 0.15520
H20 H -0.44940 0.00220 0.08220
H21 H -0.45060 -0.04880 0.12000
C22 C -0.4097(5) -0.1005(8) -0.1868(8)
H22 H -0.40550 -0.10270 -0.23080
C23 C -0.7824(5) -0.0257(5) 0.0813(5)
N2Q N -0.193667(400) 0.013467(400) -0.232633(500)
C5Q C -0.293467(400) -0.027433(500) -0.243433(600)
H5Q H -0.32377 -0.03613 -0.27123
C7Q C -0.239167(500) -0.004433(600) -0.266233(500)
H6Q H -0.23467 -0.00143 -0.31043
C8Q C -0.303367(500) -0.037533(500) -0.181533(700)
C20Q C -0.202467(600) -0.000833(700) -0.173133(700)
H18Q H -0.17187 0.00447 -0.14763
C22Q C -0.256967(500) -0.024133(800) -0.146533(800)
H22Q H -0.26117 -0.03053 -0.10253
Cd2A Cd 0.17166(3) 0.60552(3) -0.05987(4)
O2A O 0.1446(3) 0.6029(3) 0.0472(4)
C1A C -0.2592(3) 0.2840(3) 0.0187(4)
O3A O -0.2316(2) 0.3358(3) 0.0121(4)
N1A N -0.1726(3) 0.2771(3) 0.0269(3)
H1A H -0.15080 0.30870 0.00720
O4A O -0.3124(2) 0.2606(3) 0.0293(3)
C2A C -0.2332(4) 0.2476(3) 0.0136(4)
H2A H -0.25180 0.21720 0.04570
O6A O 0.0656(4) 0.1213(4) 0.1726(4)
O7A O 0.0808(4) 0.5346(3) -0.0124(3)
C3A C 0.0972(4) 0.5570(4) 0.0395(5)
C4A C 0.0621(5) 0.5330(4) 0.0996(5)
H3A H 0.08860 0.54070 0.13540
N2A N 0.1262(4) 0.6532(4) -0.1007(5)
O8A O 0.0531(3) 0.1895(4) 0.2040(4)
N3A N 0.0262(4) 0.4720(3) 0.0934(4)
H4A H -0.01060 0.45690 0.09450
C5A C 0.0673(4) 0.6941(5) -0.0899(6)
H5A H 0.04570 0.70280 -0.06210
C6A C 0.0464(5) 0.1536(5) 0.1636(6)
C7A C 0.0986(5) 0.6711(6) -0.0671(5)
H6A H 0.10010 0.66810 -0.02290
C8A C 0.0675(5) 0.7042(5) -0.1518(7)
O9A O 0.1014(3) 0.4564(3) 0.0850(3)
N4A N -0.0079(4) 0.1862(4) 0.0995(5)
H7A H -0.04320 0.17410 0.10960
O10A O 0.0767(4) 0.2631(4) 0.0639(4)
C9A C -0.2454(4) 0.2185(4) -0.0517(5)
H8A H -0.22840 0.19450 -0.05380
H9A H -0.22940 0.24720 -0.08460
H10A H -0.28620 0.19530 -0.05770
C10A C -0.0016(4) 0.2794(4) 0.0821(4)
C11A C -0.0849(5) 0.2902(4) 0.0740(5)
C12A C 0.0312(4) 0.3373(4) 0.0849(4)
H11A H 0.07080 0.35370 0.08900
C13A C 0.0496(4) 0.4375(4) 0.0858(4)
C14A C -0.0511(4) 0.3481(4) 0.0781(4)
H12A H -0.06740 0.37160 0.07850
C15A C -0.0606(5) 0.2553(4) 0.0787(5)
H13A H -0.08410 0.21560 0.07960
C16A C 0.0082(4) 0.3723(3) 0.0819(4)
C17A C 0.0130(5) 0.1455(5) 0.1025(5)
H14A H 0.03890 0.15300 0.06620
C18A C -0.1496(5) 0.2580(5) 0.0670(6)
O11A O -0.1780(6) 0.2260(5) 0.1113(5)
C19A C -0.0358(7) 0.0869(7) 0.0964(8)
H15A H -0.05640 0.08380 0.05770
H16A H -0.06100 0.07830 0.13240
H17A H -0.02200 0.06010 0.09510
C20A C 0.1317(6) 0.6675(7) -0.1602(7)
H18A H 0.15700 0.66220 -0.18570
C21A C 0.0255(6) 0.5573(6) 0.1156(8)
H19A H 0.00590 0.54110 0.15520
H20A H -0.00220 0.54840 0.08220
H21A H 0.04880 0.59820 0.12000
C22A C 0.1005(5) 0.6908(8) -0.1868(8)
H22A H 0.10270 0.69720 -0.23080
C23A C 0.0257(5) 0.2433(5) 0.0813(5)
N2P N -0.013467(400) 0.792867(400) -0.232633(500)
C5P C 0.027433(400) 0.733967(500) -0.243433(600)
H5P H 0.03613 0.71237 -0.27123
C7P C 0.004433(500) 0.765267(600) -0.266233(500)
H6P H 0.00143 0.76677 -0.31043
C8P C 0.037533(500) 0.734167(500) -0.181533(700)
C20P C 0.000833(600) 0.798367(700) -0.173133(700)
H18P H -0.00447 0.82367 -0.14763
C22P C 0.024133(500) 0.767167(800) -0.146533(800)
H22P H 0.03053 0.76937 -0.10253
Cd2B Cd -0.60552(3) 0.56614(3) -0.05987(4)
O2B O -0.6029(3) 0.5417(3) 0.0472(4)
C1B C -0.2840(3) 0.4568(3) 0.0187(4)
O3B O -0.3358(2) 0.4326(3) 0.0121(4)
N1B N -0.2771(3) 0.5503(3) 0.0269(3)
H1B H -0.30870 0.54050 0.00720
O4B O -0.2606(2) 0.4270(3) 0.0293(3)
C2B C -0.2476(4) 0.5192(3) 0.0136(4)
H2B H -0.21720 0.53100 0.04570
O6B O -0.1213(4) 0.9443(4) 0.1726(4)
O7B O -0.5346(4) 0.5462(3) -0.0124(3)
C3B C -0.5570(4) 0.5402(4) 0.0395(5)
C4B C -0.5330(5) 0.5291(4) 0.0996(5)
H3B H -0.54070 0.54790 0.13540
N2B N -0.6532(4) 0.4730(4) -0.1007(5)
O8B O -0.1895(3) 0.8636(4) 0.2040(4)
N3B N -0.4720(4) 0.5542(3) 0.0934(4)
H4B H -0.45690 0.53250 0.09450
C5B C -0.6941(4) 0.3732(5) -0.0899(6)
H5B H -0.70280 0.34290 -0.06210
C6B C -0.1536(5) 0.8928(5) 0.1636(6)
C7B C -0.6711(5) 0.4275(6) -0.0671(5)
H6B H -0.66810 0.43200 -0.02290
C8B C -0.7042(5) 0.3633(5) -0.1518(7)
O9B O -0.4564(3) 0.6450(3) 0.0850(3)
N4B N -0.1862(4) 0.8059(4) 0.0995(5)
H7B H -0.17410 0.78270 0.10960
O10B O -0.2631(4) 0.8136(4) 0.0639(4)
C9B C -0.2185(4) 0.5361(4) -0.0517(5)
H8B H -0.19450 0.57710 -0.05380
H9B H -0.24720 0.52340 -0.08460
H10B H -0.19530 0.51850 -0.05770
C10B C -0.2794(4) 0.7190(4) 0.0821(4)
C11B C -0.2902(5) 0.6249(4) 0.0740(5)
C12B C -0.3373(4) 0.6939(4) 0.0849(4)
H11B H -0.35370 0.71710 0.08900
C13B C -0.4375(4) 0.6121(4) 0.0858(4)
C14B C -0.3481(4) 0.6008(4) 0.0781(4)
H12B H -0.37160 0.56100 0.07850
C15B C -0.2553(5) 0.6841(4) 0.0787(5)
H13B H -0.21560 0.70030 0.07960
C16B C -0.3723(4) 0.6359(3) 0.0819(4)
C17B C -0.1455(5) 0.8675(5) 0.1025(5)
H14B H -0.15300 0.88590 0.06620
C18B C -0.2580(5) 0.5924(5) 0.0670(6)
O11B O -0.2260(6) 0.5960(5) 0.1113(5)
C19B C -0.0869(7) 0.8773(7) 0.0964(8)
H15B H -0.08380 0.85980 0.05770
H16B H -0.07830 0.86070 0.13240
H17B H -0.06010 0.91790 0.09510
C20B C -0.6675(6) 0.4642(7) -0.1602(7)
H18B H -0.66220 0.49480 -0.18570
C21B C -0.5573(6) 0.4682(6) 0.1156(8)
H19B H -0.54110 0.46480 0.15520
H20B H -0.54840 0.44940 0.08220
H21B H -0.59820 0.45060 0.12000
C22B C -0.6908(5) 0.4097(8) -0.1868(8)
H22B H -0.69720 0.40550 -0.23080
C23B C -0.2433(5) 0.7824(5) 0.0813(5)
N2O N -0.792867(400) 0.193667(400) -0.232633(500)
C5O C -0.733967(400) 0.293467(500) -0.243433(600)
H5O H -0.71237 0.32377 -0.27123
C7O C -0.765267(500) 0.239167(600) -0.266233(500)
H6O H -0.76677 0.23467 -0.31043
C8O C -0.734167(500) 0.303367(500) -0.181533(700)
C20O C -0.798367(600) 0.202467(700) -0.173133(700)
H18O H -0.82367 0.17187 -0.14763
C22O C -0.767167(500) 0.256967(800) -0.146533(800)
H22O H -0.76937 0.26117 -0.10253
Cd1O Cd -0.33337 0.33337 -0.362313(50)
Cd2O Cd -0.838327(30) 0.100527(30) -0.273463(40)
O1O O -0.33337 0.33337 -0.249633(400)
O2O O -0.811267(300) 0.124967(300) -0.380533(400)
C1O C -0.407467(300) 0.209867(300) -0.352033(400)
O3O O -0.435067(200) 0.234067(300) -0.345433(400)
N1O N -0.494067(300) 0.116367(300) -0.360233(300)
H1O H -0.51587 0.12617 -0.34053
O4O O -0.354267(200) 0.239667(300) -0.362633(300)
C2O C -0.433467(400) 0.147467(300) -0.346933(400)
H2O H -0.41487 0.13567 -0.37903
O5O O -0.33337 0.33337 -0.468833(500)
O6O O -0.732267(400) -0.277633(400) -0.505933(400)
O7O O -0.747467(400) 0.120467(300) -0.320933(300)
C3O C -0.763867(400) 0.126467(400) -0.372833(500)
C4O C -0.728767(500) 0.137567(400) -0.432933(500)
H3O H -0.75527 0.11877 -0.46873
O8O O -0.719767(300) -0.196933(400) -0.537333(400)
N3O N -0.692867(400) 0.112467(300) -0.426733(400)
H4O H -0.65607 0.13417 -0.42783
C6O C -0.713067(500) -0.226133(500) -0.496933(600)
O9O O -0.768067(300) 0.021667(300) -0.418333(300)
N4O N -0.658767(400) -0.139233(400) -0.432833(500)
H7O H -0.62347 -0.11603 -0.44293
O10O O -0.743367(400) -0.146933(400) -0.397233(400)
C9O C -0.421267(400) 0.130567(400) -0.281633(500)
H8O H -0.43827 0.08957 -0.27953
H9O H -0.43727 0.14327 -0.24873
H10O H -0.38047 0.14817 -0.27563
C10O C -0.665067(400) -0.052333(400) -0.415433(400)
C11O C -0.581767(500) 0.041767(400) -0.407333(500)
C12O C -0.697867(400) -0.027233(400) -0.418233(400)
H11O H -0.73747 -0.05043 -0.42233
C13O C -0.716267(400) 0.054567(400) -0.419133(400)
C14O C -0.615567(400) 0.065867(400) -0.411433(400)
H12O H -0.59927 0.10567 -0.41183
C15O C -0.606067(500) -0.017433(400) -0.412033(500)
H13O H -0.58257 -0.03363 -0.41293
C16O C -0.674867(400) 0.030767(300) -0.415233(400)
C17O C -0.679667(500) -0.200833(500) -0.435833(500)
H14O H -0.70557 -0.21923 -0.39953
C18O C -0.517067(500) 0.074267(500) -0.400333(600)
O11O O -0.488667(600) 0.070667(500) -0.444633(500)
C19O C -0.630867(700) -0.210633(700) -0.429733(800)
H15O H -0.61027 -0.19313 -0.39103
H16O H -0.60567 -0.19403 -0.46573
H17O H -0.64467 -0.25123 -0.42843
C21O C -0.692167(600) 0.198467(600) -0.448933(800)
H19O H -0.67257 0.20187 -0.48853
H20O H -0.66447 0.21727 -0.41553
H21O H -0.71547 0.21607 -0.45333
C23O C -0.692367(500) -0.115733(500) -0.414633(500)
Cd2P Cd -0.061147(30) 0.838327(30) -0.273463(40)
O2P O -0.063767(300) 0.811267(300) -0.380533(400)
C1P C -0.382667(300) 0.407467(300) -0.352033(400)
O3P O -0.330867(200) 0.435067(300) -0.345433(400)
N1P N -0.389567(300) 0.494067(300) -0.360233(300)
H1P H -0.35797 0.51587 -0.34053
O4P O -0.406067(200) 0.354267(300) -0.362633(300)
C2P C -0.419067(400) 0.433467(300) -0.346933(400)
H2P H -0.44947 0.41487 -0.37903
O6P O -0.545367(400) 0.732267(400) -0.505933(400)
O7P O -0.132067(400) 0.747467(300) -0.320933(300)
C3P C -0.109667(400) 0.763867(400) -0.372833(500)
C4P C -0.133667(500) 0.728767(400) -0.432933(500)
H3P H -0.12597 0.75527 -0.46873
O8P O -0.477167(300) 0.719767(400) -0.537333(400)
N3P N -0.194667(400) 0.692867(300) -0.426733(400)
H4P H -0.20977 0.65607 -0.42783
C6P C -0.513067(500) 0.713067(500) -0.496933(600)
O9P O -0.210267(300) 0.768067(300) -0.418333(300)
N4P N -0.480467(400) 0.658767(400) -0.432833(500)
H7P H -0.49257 0.62347 -0.44293
O10P O -0.403567(400) 0.743367(400) -0.397233(400)
C9P C -0.448167(400) 0.421267(400) -0.281633(500)
H8P H -0.47217 0.43827 -0.27953
H9P H -0.41947 0.43727 -0.24873
H10P H -0.47137 0.38047 -0.27563
C10P C -0.387267(400) 0.665067(400) -0.415433(400)
C11P C -0.376467(500) 0.581767(400) -0.407333(500)
C12P C -0.329367(400) 0.697867(400) -0.418233(400)
H11P H -0.31297 0.73747 -0.42233
C13P C -0.229167(400) 0.716267(400) -0.419133(400)
C14P C -0.318567(400) 0.615567(400) -0.411433(400)
H12P H -0.29507 0.59927 -0.41183
C15P C -0.411367(500) 0.606067(400) -0.412033(500)
H13P H -0.45107 0.58257 -0.41293
C16P C -0.294367(400) 0.674867(300) -0.415233(400)
C17P C -0.521167(500) 0.679667(500) -0.435833(500)
H14P H -0.51367 0.70557 -0.39953
C18P C -0.408667(500) 0.517067(500) -0.400333(600)
O11P O -0.440667(600) 0.488667(500) -0.444633(500)
C19P C -0.579767(700) 0.630867(700) -0.429733(800)
H15P H -0.58287 0.61027 -0.39103
H16P H -0.58837 0.60567 -0.46573
H17P H -0.60657 0.64467 -0.42843
C21P C -0.109367(600) 0.692167(600) -0.448933(800)
H19P H -0.12557 0.67257 -0.48853
H20P H -0.11827 0.66447 -0.41553
H21P H -0.06847 0.71547 -0.45333
C23P C -0.423367(500) 0.692367(500) -0.414633(500)
Cd2Q Cd -0.100527(30) 0.061147(30) -0.273463(40)
O2Q O -0.124967(300) 0.063767(300) -0.380533(400)
C1Q C -0.209867(300) 0.382667(300) -0.352033(400)
O3Q O -0.234067(200) 0.330867(300) -0.345433(400)
N1Q N -0.116367(300) 0.389567(300) -0.360233(300)
H1Q H -0.12617 0.35797 -0.34053
O4Q O -0.239667(200) 0.406067(300) -0.362633(300)
C2Q C -0.147467(400) 0.419067(300) -0.346933(400)
H2Q H -0.13567 0.44947 -0.37903
O6Q O 0.277633(400) 0.545367(400) -0.505933(400)
O7Q O -0.120467(400) 0.132067(300) -0.320933(300)
C3Q C -0.126467(400) 0.109667(400) -0.372833(500)
C4Q C -0.137567(500) 0.133667(400) -0.432933(500)
H3Q H -0.11877 0.12597 -0.46873
O8Q O 0.196933(300) 0.477167(400) -0.537333(400)
N3Q N -0.112467(400) 0.194667(300) -0.426733(400)
H4Q H -0.13417 0.20977 -0.42783
C6Q C 0.226133(500) 0.513067(500) -0.496933(600)
O9Q O -0.021667(300) 0.210267(300) -0.418333(300)
N4Q N 0.139233(400) 0.480467(400) -0.432833(500)
H7Q H 0.11603 0.49257 -0.44293
O10Q O 0.146933(400) 0.403567(400) -0.397233(400)
C9Q C -0.130567(400) 0.448167(400) -0.281633(500)
H8Q H -0.08957 0.47217 -0.27953
H9Q H -0.14327 0.41947 -0.24873
H10Q H -0.14817 0.47137 -0.27563
C10Q C 0.052333(400) 0.387267(400) -0.415433(400)
C11Q C -0.041767(500) 0.376467(400) -0.407333(500)
C12Q C 0.027233(400) 0.329367(400) -0.418233(400)
H11Q H 0.05043 0.31297 -0.42233
C13Q C -0.054567(400) 0.229167(400) -0.419133(400)
C14Q C -0.065867(400) 0.318567(400) -0.411433(400)
H12Q H -0.10567 0.29507 -0.41183
C15Q C 0.017433(500) 0.411367(400) -0.412033(500)
H13Q H 0.03363 0.45107 -0.41293
C16Q C -0.030767(400) 0.294367(300) -0.415233(400)
C17Q C 0.200833(500) 0.521167(500) -0.435833(500)
H14Q H 0.21923 0.51367 -0.39953
C18Q C -0.074267(500) 0.408667(500) -0.400333(600)
O11Q O -0.070667(600) 0.440667(500) -0.444633(500)
C19Q C 0.210633(700) 0.579767(700) -0.429733(800)
H15Q H 0.19313 0.58287 -0.39103
H16Q H 0.19403 0.58837 -0.46573
H17Q H 0.25123 0.60657 -0.42843
C21Q C -0.198467(600) 0.109367(600) -0.448933(800)
H19Q H -0.20187 0.12557 -0.48853
H20Q H -0.21727 0.11827 -0.41553
H21Q H -0.21607 0.06847 -0.45333
C23Q C 0.115733(500) 0.423367(500) -0.414633(500)
Cd2C Cd -0.17166(3) 0.43386(3) 0.05987(4)
Cd2D Cd -0.39448(3) 0.17166(3) 0.05987(4)
Cd2E Cd -0.43386(3) 0.39448(3) 0.05987(4)
Cd2F Cd 0.100527(30) 0.161673(30) 0.273463(40)
Cd2G Cd -0.161673(30) 0.938853(30) 0.273463(40)
Cd2H Cd -0.938853(30) -0.100527(30) 0.273463(40)
Cd2I Cd -0.504993(30) 0.767193(30) -0.606797(40)
Cd2J Cd 0.272187(30) 0.504993(30) -0.606797(40)
Cd2K Cd -0.767193(30) -0.272187(30) -0.606797(40)
Cd2L Cd -0.232807(30) 0.495007(30) -0.393203(40)
Cd2M Cd -0.495007(30) 0.272187(30) -0.393203(40)
Cd2N Cd -0.272187(30) 0.232807(30) -0.393203(40)
O3C O 0.2316(2) 0.5674(3) -0.0121(4)
O3D O -0.6642(2) -0.2316(3) -0.0121(4)
O3E O -0.5674(2) 0.6642(3) -0.0121(4)
O3L O -0.099267(200) 0.898267(300) -0.321233(400)
O3M O -0.898267(200) 0.002467(300) -0.321233(400)
O3N O -0.002467(200) 0.099267(300) -0.321233(400)
O4C O -0.6876(2) 0.5730(3) -0.0293(3)
O4D O 0.2606(2) 0.6876(3) -0.0293(3)
O4E O -0.5730(2) -0.2606(3) -0.0293(3)
O4L O -0.093667(200) -0.020933(300) -0.304033(300)
O4M O 0.020933(200) 0.927267(300) -0.304033(300)
O4N O -0.927267(200) 0.093667(300) -0.304033(300)
O6C O -0.0656(4) 0.0557(4) -0.1726(4)
O6D O -0.8787(4) 0.0656(4) -0.1726(4)
O6E O -0.0557(4) 0.8787(4) -0.1726(4)
O6L O -0.610967(400) 0.601067(400) -0.160733(400)
O6M O -0.601067(400) -0.212033(400) -0.160733(400)
O6N O 0.212033(400) 0.610967(400) -0.160733(400)
O8C O -0.0531(3) 0.1364(4) -0.2040(4)
O8D O -0.8105(3) 0.0531(4) -0.2040(4)
O8E O -0.1364(3) 0.8105(4) -0.2040(4)
O8L O -0.530267(300) 0.613567(400) -0.129333(400)
O8M O -0.613567(300) -0.143833(400) -0.129333(400)
O8N O 0.143833(300) 0.530267(400) -0.129333(400)
#END
