
#######################################################################
#
#                 Cambridge Crystallographic Data Centre
#                                CCDC
#
#######################################################################
#
# If this CIF has been generated from an entry in the Cambridge
# Structural Database, then it will include bibliographic, chemical,
# crystal, experimental, refinement or atomic coordinate data resulting
# from the CCDC's data processing and validation procedures.
#
#######################################################################

data_CSD_CIF_GUTCEF
_audit_creation_date 2015-09-24
_audit_creation_method CSD-ConQuest-V1
_database_code_CSD GUTCEF
_database_code_depnum_ccdc_archive 'CCDC 1414108'
_chemical_formula_sum 'C138 H146 Cd8 N24 O60'
_chemical_formula_moiety
;
(C138 H140 Cd8 N24 O58 2-)n,2n(H3 O1 1+)
;
_journal_coden_Cambridge 182
_journal_volume 51
_journal_year 2015
_journal_page_first 16331
_journal_name_full 'Chem.Commun. '
loop_
_publ_author_name
"Xin Wu"
"Hua-Bin Zhang"
"Zhong-Xuan Xu"
"Jian Zhang"
_chemical_name_systematic
;
catena-[ bis(oxonium) 
hexakis(\m-(S)-2,2',2''-(benzene-1,3,5-triyltris(carbonylimino))tripropanoato)
-tris(\m-2,2'-bipyridine)-tetraaqua-octa-cadmium unknown solvate]
;
_cell_volume  13120.218
_exptl_crystal_colour 'colorless'
_exptl_special_details
;
The paper describes two oxonium ions which have not been modelled

;
_exptl_crystal_description 'block'
_diffrn_ambient_temperature 293
_refine_special_details
;
Disordered solvent molecules were not modelled and the disordered density was 
taken into account using the SQUEEZE/PLATON procedure.
;
#These two values have been output from a single CSD field.
_refine_ls_R_factor_gt 0.0455
_refine_ls_wR_factor_gt 0.0455
loop_
_citation_database_id_CSD
_citation_special_details
GUTCIJ "is a stereoisomer of this entry"
_symmetry_cell_setting rhombohedral
_symmetry_space_group_name_H-M 'R 3 2'
_symmetry_Int_Tables_number 155
loop_
_symmetry_equiv_pos_site_id
_symmetry_equiv_pos_as_xyz
1 x,y,z
2 -y,x-y,z
3 -x+y,-x,z
4 y,x,-z
5 x-y,-y,-z
6 -x,-x+y,-z
7 2/3+x,1/3+y,1/3+z
8 2/3-y,1/3+x-y,1/3+z
9 2/3-x+y,1/3-x,1/3+z
10 2/3+y,1/3+x,1/3-z
11 2/3+x-y,1/3-y,1/3-z
12 2/3-x,1/3-x+y,1/3-z
13 1/3+x,2/3+y,2/3+z
14 1/3-y,2/3+x-y,2/3+z
15 1/3-x+y,2/3-x,2/3+z
16 1/3+y,2/3+x,2/3-z
17 1/3+x-y,2/3-y,2/3-z
18 1/3-x,2/3-x+y,2/3-z
_cell_length_a 26.9207(9)
_cell_length_b 26.9207(9)
_cell_length_c 20.9044(14)
_cell_angle_alpha 90
_cell_angle_beta 90
_cell_angle_gamma 120
_cell_formula_units_Z 3
loop_
_atom_type_symbol
_atom_type_radius_bond
C 0.68
H 0.23
Cd 1.44
N 0.68
O 0.68
loop_
_atom_site_label
_atom_site_type_symbol
_atom_site_fract_x
_atom_site_fract_y
_atom_site_fract_z
Cd1 Cd 1.33330 0.66670 0.97055(4)
Cd2 Cd 1.56641(2) 1.17178(2) 1.06030(3)
O1 O 1.33330 0.66670 1.0836(4)
O2 O 1.5420(2) 1.1452(2) 0.9542(3)
C1 C 1.4560(3) 0.7408(3) 0.9807(3)
O3 O 1.4326(2) 0.7686(2) 0.9875(3)
N1 N 1.5504(2) 0.8269(2) 0.9722(3)
H1 H 1.54240 0.84910 0.99390
O4 O 1.4265(2) 0.6871(2) 0.9703(3)
C2 C 1.5196(3) 0.7667(3) 0.9858(3)
H2 H 1.53120 0.74790 0.95370
O5 O 1.33330 0.66670 0.8642(4)
O6 O 1.9440(3) 1.0656(4) 0.8294(4)
O7 O 1.5465(3) 1.0809(3) 1.0123(3)
C3 C 1.5406(3) 1.0969(3) 0.9608(4)
C4 C 1.5291(4) 1.0619(4) 0.9016(4)
H3 H 1.54800 1.08850 0.86600
N2 N 1.4731(3) 1.1262(3) 1.1008(4)
O8 O 1.8637(3) 1.0519(4) 0.7973(3)
N3 N 1.5550(3) 1.0259(3) 0.9073(4)
H4 H 1.53330 0.98920 0.90680
C5 C 1.3735(4) 1.0675(5) 1.0901(5)
H5 H 1.34300 1.04660 1.06240
C6 C 1.8930(4) 1.0453(4) 0.8383(5)
C7 C 1.4274(4) 1.0967(5) 1.0664(5)
H6 H 1.43200 1.09560 1.02240
C8 C 1.3632(4) 1.0677(5) 1.1516(6)
O9 O 1.6450(3) 1.1009(2) 0.9149(3)
N4 N 1.8057(3) 0.9909(4) 0.9015(4)
H7 H 1.78260 0.95550 0.89220
O10 O 1.8141(3) 1.0763(3) 0.9357(4)
C9 C 1.5360(4) 0.7541(4) 1.0509(4)
H8 H 1.57690 0.77100 1.05340
H9 H 1.51820 0.71340 1.05670
H10 H 1.52310 0.77000 1.08380
C10 C 1.7192(3) 0.9974(3) 0.9184(3)
C11 C 1.6246(4) 0.9146(3) 0.9253(4)
C12 C 1.6940(3) 1.0305(3) 0.9160(3)
H11 H 1.71750 1.07010 0.91300
C13 C 1.6121(3) 1.0485(3) 0.9133(3)
C14 C 1.6001(4) 0.9486(3) 0.9223(3)
H12 H 1.56040 0.93250 0.92310
C15 C 1.6830(4) 0.9387(3) 0.9208(4)
H13 H 1.69870 0.91480 0.91940
C16 C 1.6362(4) 1.0082(3) 0.9179(3)
C17 C 1.8673(4) 1.0125(5) 0.8991(5)
H14 H 1.88520 1.03880 0.93510
C18 C 1.5895(5) 0.8492(4) 0.9289(5)
O11 O 1.5943(6) 0.8209(4) 0.8886(6)
C19 C 1.8775(6) 0.9638(6) 0.9073(7)
H15 H 1.86000 0.94400 0.94630
H16 H 1.91810 0.97790 0.90910
H17 H 1.86120 0.93800 0.87180
C20 C 1.4647(5) 1.1328(6) 1.1600(6)
H18 H 1.49550 1.15810 1.18510
C21 C 1.4688(5) 1.0259(5) 0.8847(7)
H19 H 1.46570 1.00490 0.84640
H20 H 1.45200 1.04960 0.87770
H21 H 1.44900 0.99960 0.91900
C22 C 1.4091(5) 1.1022(7) 1.1875(7)
H22 H 1.40450 1.10600 1.23100
C23 C 1.7834(4) 1.0243(4) 0.9180(4)
N2K N 1.193567(300) 0.986433(300) 1.232533(400)
C5K C 1.293167(400) 1.027333(500) 1.243233(500)
H5K H 1.32367 1.03693 1.27093
C7K C 1.239267(400) 1.002633(500) 1.266933(500)
H6K H 1.23467 0.99693 1.31093
C8K C 1.303467(400) 1.037833(500) 1.181733(600)
C20K C 1.201967(500) 1.001433(600) 1.173333(600)
H18K H 1.17117 0.99593 1.14823
C22K C 1.257567(500) 1.026433(700) 1.145833(700)
H22K H 1.26217 1.03483 1.10233
Cd2A Cd 0.82822(2) 0.39463(2) 1.06030(3)
O2A O 0.8548(2) 0.3968(2) 0.9542(3)
C1A C 1.2592(3) 0.7152(3) 0.9807(3)
O3A O 1.2314(2) 0.6640(2) 0.9875(3)
N1A N 1.1731(2) 0.7235(2) 0.9722(3)
H1A H 1.15090 0.69330 0.99390
O4A O 1.3129(2) 0.7394(2) 0.9703(3)
C2A C 1.2333(3) 0.7529(3) 0.9858(3)
H2A H 1.25210 0.78330 0.95370
O6A O 0.9344(3) 0.8784(4) 0.8294(4)
O7A O 0.9191(3) 0.4656(3) 1.0123(3)
C3A C 0.9031(3) 0.4437(3) 0.9608(4)
C4A C 0.9381(4) 0.4672(4) 0.9016(4)
H3A H 0.91150 0.45950 0.86600
N2A N 0.8738(3) 0.3469(3) 1.1008(4)
O8A O 0.9481(3) 0.8118(4) 0.7973(3)
N3A N 0.9741(3) 0.5291(3) 0.9073(4)
H4A H 1.01080 0.54410 0.90680
C5A C 0.9325(4) 0.3060(5) 1.0901(5)
H5A H 0.95340 0.29640 1.06240
C6A C 0.9547(4) 0.8477(4) 0.8383(5)
C7A C 0.9033(4) 0.3307(5) 1.0664(5)
H6A H 0.90440 0.33640 1.02240
C8A C 0.9323(4) 0.2955(5) 1.1516(6)
O9A O 0.8991(3) 0.5441(2) 0.9149(3)
N4A N 1.0091(3) 0.8148(4) 0.9015(4)
H7A H 1.04450 0.82710 0.89220
O10A O 0.9237(3) 0.7378(3) 0.9357(4)
C9A C 1.2459(4) 0.7819(4) 1.0509(4)
H8A H 1.22900 0.80590 1.05340
H9A H 1.28660 0.80480 1.05670
H10A H 1.23000 0.75310 1.08380
C10A C 1.0026(3) 0.7218(3) 0.9184(3)
C11A C 1.0854(4) 0.7100(3) 0.9253(4)
C12A C 0.9695(3) 0.6635(3) 0.9160(3)
H11A H 0.92990 0.64740 0.91300
C13A C 0.9515(3) 0.5636(3) 0.9133(3)
C14A C 1.0514(4) 0.6515(3) 0.9223(3)
H12A H 1.06750 0.62790 0.92310
C15A C 1.0613(4) 0.7443(3) 0.9208(4)
H13A H 1.08520 0.78390 0.91940
C16A C 0.9918(4) 0.6280(3) 0.9179(3)
C17A C 0.9875(4) 0.8548(5) 0.8991(5)
H14A H 0.96120 0.84640 0.93510
C18A C 1.1508(5) 0.7403(4) 0.9289(5)
O11A O 1.1791(6) 0.7734(4) 0.8886(6)
C19A C 1.0362(6) 0.9137(6) 0.9073(7)
H15A H 1.05600 0.91600 0.94630
H16A H 1.02210 0.94020 0.90910
H17A H 1.06200 0.92320 0.87180
C20A C 0.8672(5) 0.3319(6) 1.1600(6)
H18A H 0.84190 0.33740 1.18510
C21A C 0.9741(5) 0.4429(5) 0.8847(7)
H19A H 0.99510 0.46080 0.84640
H20A H 0.95040 0.40240 0.87770
H21A H 1.00040 0.44940 0.91900
C22A C 0.8978(5) 0.3069(7) 1.1875(7)
H22A H 0.89400 0.29850 1.23100
C23A C 0.9757(4) 0.7591(4) 0.9180(4)
N2J N 1.013567(300) 0.207133(300) 1.232533(400)
C5J C 0.972667(400) 0.265833(500) 1.243233(500)
H5J H 0.96307 0.28673 1.27093
C7J C 0.997367(400) 0.236633(500) 1.266933(500)
H6J H 1.00307 0.23773 1.31093
C8J C 0.962167(400) 0.265633(500) 1.181733(600)
C20J C 0.998567(500) 0.200533(600) 1.173333(600)
H18J H 1.00407 0.17523 1.14823
C22J C 0.973567(500) 0.231133(700) 1.145833(700)
H22J H 0.96517 0.22733 1.10233
Cd2B Cd 1.60537(2) 0.43359(2) 1.06030(3)
O2B O 1.6032(2) 0.4580(2) 0.9542(3)
C1B C 1.2848(3) 0.5440(3) 0.9807(3)
O3B O 1.3360(2) 0.5674(2) 0.9875(3)
N1B N 1.2765(2) 0.4496(2) 0.9722(3)
H1B H 1.30670 0.45760 0.99390
O4B O 1.2606(2) 0.5735(2) 0.9703(3)
C2B C 1.2471(3) 0.4804(3) 0.9858(3)
H2B H 1.21670 0.46880 0.95370
O6B O 1.1216(3) 0.0560(4) 0.8294(4)
O7B O 1.5344(3) 0.4535(3) 1.0123(3)
C3B C 1.5563(3) 0.4594(3) 0.9608(4)
C4B C 1.5328(4) 0.4709(4) 0.9016(4)
H3B H 1.54050 0.45200 0.86600
N2B N 1.6531(3) 0.5269(3) 1.1008(4)
O8B O 1.1882(3) 0.1363(4) 0.7973(3)
N3B N 1.4709(3) 0.4450(3) 0.9073(4)
H4B H 1.45590 0.46670 0.90680
C5B C 1.6940(4) 0.6265(5) 1.0901(5)
H5B H 1.70360 0.65700 1.06240
C6B C 1.1523(4) 0.1070(4) 0.8383(5)
C7B C 1.6693(4) 0.5726(5) 1.0664(5)
H6B H 1.66360 0.56800 1.02240
C8B C 1.7045(4) 0.6368(5) 1.1516(6)
O9B O 1.4559(3) 0.3550(2) 0.9149(3)
N4B N 1.1852(3) 0.1943(4) 0.9015(4)
H7B H 1.17290 0.21740 0.89220
O10B O 1.2622(3) 0.1859(3) 0.9357(4)
C9B C 1.2181(4) 0.4640(4) 1.0509(4)
H8B H 1.19410 0.42310 1.05340
H9B H 1.19520 0.48180 1.05670
H10B H 1.24690 0.47690 1.08380
C10B C 1.2782(3) 0.2808(3) 0.9184(3)
C11B C 1.2900(4) 0.3754(3) 0.9253(4)
C12B C 1.3365(3) 0.3060(3) 0.9160(3)
H11B H 1.35260 0.28250 0.91300
C13B C 1.4364(3) 0.3879(3) 0.9133(3)
C14B C 1.3485(4) 0.3999(3) 0.9223(3)
H12B H 1.37210 0.43960 0.92310
C15B C 1.2557(4) 0.3170(3) 0.9208(4)
H13B H 1.21610 0.30130 0.91940
C16B C 1.3720(4) 0.3638(3) 0.9179(3)
C17B C 1.1452(4) 0.1327(5) 0.8991(5)
H14B H 1.15360 0.11480 0.93510
C18B C 1.2597(5) 0.4105(4) 0.9289(5)
O11B O 1.2266(6) 0.4057(4) 0.8886(6)
C19B C 1.0863(6) 0.1225(6) 0.9073(7)
H15B H 1.08400 0.14000 0.94630
H16B H 1.05980 0.08190 0.90910
H17B H 1.07680 0.13880 0.87180
C20B C 1.6681(5) 0.5353(6) 1.1600(6)
H18B H 1.66260 0.50450 1.18510
C21B C 1.5571(5) 0.5312(5) 0.8847(7)
H19B H 1.53920 0.53430 0.84640
H20B H 1.59760 0.54800 0.87770
H21B H 1.55060 0.55100 0.91900
C22B C 1.6931(5) 0.5909(7) 1.1875(7)
H22B H 1.70150 0.59550 1.23100
C23B C 1.2409(4) 0.2166(4) 0.9180(4)
N2I N 1.792867(300) 0.806433(300) 1.232533(400)
C5I C 1.734167(400) 0.706833(500) 1.243233(500)
H5I H 1.71327 0.67633 1.27093
C7I C 1.763367(400) 0.760733(500) 1.266933(500)
H6I H 1.76227 0.76533 1.31093
C8I C 1.734367(400) 0.696533(500) 1.181733(600)
C20I C 1.799467(500) 0.798033(600) 1.173333(600)
H18I H 1.82477 0.82883 1.14823
C22I C 1.768867(500) 0.742433(700) 1.145833(700)
H22I H 1.77267 0.73783 1.10233
Cd1I Cd 1.33337 0.66663 1.362783(40)
Cd2I Cd 1.838447(20) 0.899743(20) 1.273033(30)
O1I O 1.33337 0.66663 1.249733(400)
O2I O 1.811867(200) 0.875333(200) 1.379133(300)
C1I C 1.407467(300) 0.789333(300) 1.352633(300)
O3I O 1.435267(200) 0.765933(200) 1.345833(300)
N1I N 1.493567(200) 0.883733(200) 1.361133(300)
H1I H 1.51577 0.87573 1.33943
O4I O 1.353767(200) 0.759833(200) 1.363033(300)
C2I C 1.433367(300) 0.852933(300) 1.347533(300)
H2I H 1.41457 0.86453 1.37963
O5I O 1.33337 0.66663 1.469133(400)
O6I O 1.732267(300) 1.277333(400) 1.503933(400)
O7I O 1.747567(300) 0.879833(300) 1.321033(300)
C3I C 1.763567(300) 0.873933(300) 1.372533(400)
C4I C 1.728567(400) 0.862433(400) 1.431733(400)
H3I H 1.75517 0.88133 1.46733
O8I O 1.718567(300) 1.197033(400) 1.536033(300)
N3I N 1.692567(300) 0.888333(300) 1.426033(400)
H4I H 1.65587 0.86663 1.42653
C6I C 1.711967(400) 1.226333(400) 1.495033(500)
O9I O 1.767567(300) 0.978333(200) 1.418433(300)
N4I N 1.657567(300) 1.139033(400) 1.431833(400)
H7I H 1.62217 1.11593 1.44113
O10I O 1.742967(300) 1.147433(300) 1.397633(400)
C9I C 1.420767(400) 0.869333(400) 1.282433(400)
H8I H 1.43767 0.91023 1.27993
H9I H 1.38007 0.85153 1.27663
H10I H 1.43667 0.85643 1.24953
C10I C 1.664067(300) 1.052533(300) 1.414933(300)
C11I C 1.581267(400) 0.957933(300) 1.408033(400)
C12I C 1.697167(300) 1.027333(300) 1.417333(300)
H11I H 1.73677 1.05083 1.42033
C13I C 1.715167(300) 0.945433(300) 1.420033(300)
C14I C 1.615267(400) 0.933433(300) 1.411033(300)
H12I H 1.59917 0.89373 1.41023
C15I C 1.605367(400) 1.016333(300) 1.412533(400)
H13I H 1.58147 1.03203 1.41393
C16I C 1.674867(400) 0.969533(300) 1.415433(300)
C17I C 1.679167(400) 1.200633(500) 1.434233(500)
H14I H 1.70547 1.21853 1.39823
C18I C 1.515867(500) 0.922833(400) 1.404433(500)
O11I O 1.487567(600) 0.927633(400) 1.444733(600)
C19I C 1.630467(600) 1.210833(600) 1.426033(700)
H15I H 1.61067 1.19333 1.38703
H16I H 1.64457 1.25143 1.42423
H17I H 1.60467 1.19453 1.46153
C21I C 1.692567(500) 0.802133(500) 1.448633(700)
H19I H 1.67157 0.79903 1.48693
H20I H 1.71627 0.78533 1.45563
H21I H 1.66627 0.78233 1.41433
C23I C 1.690967(400) 1.116733(400) 1.415333(400)
Cd2J Cd 1.061297(20) 0.161553(20) 1.273033(30)
O2J O 1.063467(200) 0.188133(200) 1.379133(300)
C1J C 1.381867(300) 0.592533(300) 1.352633(300)
O3J O 1.330667(200) 0.564733(200) 1.345833(300)
N1J N 1.390167(200) 0.506433(200) 1.361133(300)
H1J H 1.35997 0.48423 1.33943
O4J O 1.406067(200) 0.646233(200) 1.363033(300)
C2J C 1.419567(300) 0.566633(300) 1.347533(300)
H2J H 1.44997 0.58543 1.37963
O6J O 1.545067(300) 0.267733(400) 1.503933(400)
O7J O 1.132267(300) 0.252433(300) 1.321033(300)
C3J C 1.110367(300) 0.236433(300) 1.372533(400)
C4J C 1.133867(400) 0.271433(400) 1.431733(400)
H3J H 1.12617 0.24483 1.46733
O8J O 1.478467(300) 0.281433(400) 1.536033(300)
N3J N 1.195767(300) 0.307433(300) 1.426033(400)
H4J H 1.21077 0.34413 1.42653
C6J C 1.514367(400) 0.288033(400) 1.495033(500)
O9J O 1.210767(300) 0.232433(200) 1.418433(300)
N4J N 1.481467(300) 0.342433(400) 1.431833(400)
H7J H 1.49377 0.37783 1.44113
O10J O 1.404467(300) 0.257033(300) 1.397633(400)
C9J C 1.448567(400) 0.579233(400) 1.282433(400)
H8J H 1.47257 0.56233 1.27993
H9J H 1.47147 0.61993 1.27663
H10J H 1.41977 0.56333 1.24953
C10J C 1.388467(300) 0.335933(300) 1.414933(300)
C11J C 1.376667(400) 0.418733(300) 1.408033(400)
C12J C 1.330167(300) 0.302833(300) 1.417333(300)
H11J H 1.31407 0.26323 1.42033
C13J C 1.230267(300) 0.284833(300) 1.420033(300)
C14J C 1.318167(400) 0.384733(300) 1.411033(300)
H12J H 1.29457 0.40083 1.41023
C15J C 1.410967(400) 0.394633(300) 1.412533(400)
H13J H 1.45057 0.41853 1.41393
C16J C 1.294667(400) 0.325133(300) 1.415433(300)
C17J C 1.521467(400) 0.320833(500) 1.434233(500)
H14J H 1.51307 0.29453 1.39823
C18J C 1.406967(500) 0.484133(400) 1.404433(500)
O11J O 1.440067(600) 0.512433(400) 1.444733(600)
C19J C 1.580367(600) 0.369533(600) 1.426033(700)
H15J H 1.58267 0.38933 1.38703
H16J H 1.60687 0.35543 1.42423
H17J H 1.58987 0.39533 1.46153
C21J C 1.109567(500) 0.307433(500) 1.448633(700)
H19J H 1.12747 0.32843 1.48693
H20J H 1.06907 0.28373 1.45563
H21J H 1.11607 0.33373 1.41433
C23J C 1.425767(400) 0.309033(400) 1.415333(400)
Cd2K Cd 1.100257(20) 0.938703(20) 1.273033(30)
O2K O 1.124667(200) 0.936533(200) 1.379133(300)
C1K C 1.210667(300) 0.618133(300) 1.352633(300)
O3K O 1.234067(200) 0.669333(200) 1.345833(300)
N1K N 1.116267(200) 0.609833(200) 1.361133(300)
H1K H 1.12427 0.64003 1.33943
O4K O 1.240167(200) 0.593933(200) 1.363033(300)
C2K C 1.147067(300) 0.580433(300) 1.347533(300)
H2K H 1.13547 0.55003 1.37963
O6K O 0.722667(300) 0.454933(400) 1.503933(400)
O7K O 1.120167(300) 0.867733(300) 1.321033(300)
C3K C 1.126067(300) 0.889633(300) 1.372533(400)
C4K C 1.137567(400) 0.866133(400) 1.431733(400)
H3K H 1.11867 0.87383 1.46733
O8K O 0.802967(300) 0.521533(400) 1.536033(300)
N3K N 1.111667(300) 0.804233(300) 1.426033(400)
H4K H 1.13337 0.78923 1.42653
C6K C 0.773667(400) 0.485633(400) 1.495033(500)
O9K O 1.021667(300) 0.789233(200) 1.418433(300)
N4K N 0.860967(300) 0.518533(400) 1.431833(400)
H7K H 0.88407 0.50623 1.44113
O10K O 0.852567(300) 0.595533(300) 1.397633(400)
C9K C 1.130667(400) 0.551433(400) 1.282433(400)
H8K H 1.08977 0.52743 1.27993
H9K H 1.14847 0.52853 1.27663
H10K H 1.14357 0.58023 1.24953
C10K C 0.947467(300) 0.611533(300) 1.414933(300)
C11K C 1.042067(400) 0.623333(300) 1.408033(400)
C12K C 0.972667(300) 0.669833(300) 1.417333(300)
H11K H 0.94917 0.68593 1.42033
C13K C 1.054567(300) 0.769733(300) 1.420033(300)
C14K C 1.066567(400) 0.681833(300) 1.411033(300)
H12K H 1.10627 0.70543 1.41023
C15K C 0.983667(400) 0.589033(300) 1.412533(400)
H13K H 0.96797 0.54943 1.41393
C16K C 1.030467(400) 0.705333(300) 1.415433(300)
C17K C 0.799367(400) 0.478533(500) 1.434233(500)
H14K H 0.78147 0.48693 1.39823
C18K C 1.077167(500) 0.593033(400) 1.404433(500)
O11K O 1.072367(600) 0.559933(400) 1.444733(600)
C19K C 0.789167(600) 0.419633(600) 1.426033(700)
H15K H 0.80667 0.41733 1.38703
H16K H 0.74857 0.39313 1.42423
H17K H 0.80547 0.41013 1.46153
C21K C 1.197867(500) 0.890433(500) 1.448633(700)
H19K H 1.20097 0.87253 1.48693
H20K H 1.21467 0.93093 1.45563
H21K H 1.21767 0.88393 1.41433
C23K C 0.883267(400) 0.574233(400) 1.415333(400)
Cd2C Cd 1.17178(2) 0.56641(2) 0.93970(3)
Cd2D Cd 1.39463(2) 0.82822(2) 0.93970(3)
Cd2E Cd 1.43359(2) 0.60537(2) 0.93970(3)
Cd2F Cd 1.233077(20) 0.505113(20) 1.393633(30)
Cd2G Cd 1.494887(20) 0.727963(20) 1.393633(30)
Cd2H Cd 1.272037(20) 0.766923(20) 1.393633(30)
Cd2L Cd 0.899743(20) 0.838447(20) 0.726967(30)
Cd2M Cd 1.161553(20) 0.061297(20) 0.726967(30)
Cd2N Cd 1.938703(20) 1.100257(20) 0.726967(30)
Cd2O Cd 1.505113(20) 0.233077(20) 1.606367(30)
Cd2P Cd 0.727963(20) 0.494887(20) 1.606367(30)
Cd2Q Cd 1.766923(20) 1.272037(20) 1.606367(30)
O3C O 0.7686(2) 0.4326(2) 1.0125(3)
O3D O 1.6640(2) 1.2314(2) 1.0125(3)
O3E O 1.5674(2) 0.3360(2) 1.0125(3)
O3F O 1.099267(200) 0.101933(200) 1.320833(300)
O3G O 1.898067(200) 0.997333(200) 1.320833(300)
O3H O 1.002667(200) 0.900733(200) 1.320833(300)
O4C O 1.6871(2) 0.4265(2) 1.0297(3)
O4D O 0.7394(2) 0.3129(2) 1.0297(3)
O4E O 1.5735(2) 1.2606(2) 1.0297(3)
O4F O 1.093167(200) 1.020433(200) 1.303633(300)
O4G O 0.979567(200) 0.072733(200) 1.303633(300)
O4H O 1.927267(200) 0.906833(200) 1.303633(300)
O6C O 1.0656(3) 0.9440(4) 1.1706(4)
O6D O 1.8784(3) 0.9344(4) 1.1706(4)
O6E O 1.0560(3) 0.1216(4) 1.1706(4)
O6F O 1.610667(300) 0.398933(400) 1.162733(400)
O6G O 1.601067(300) 1.211733(400) 1.162733(400)
O6H O 0.788267(300) 0.389333(400) 1.162733(400)
O8C O 1.0519(3) 0.8637(4) 1.2027(3)
O8D O 1.8118(3) 0.9481(4) 1.2027(3)
O8E O 1.1363(3) 0.1882(4) 1.2027(3)
O8F O 1.530367(300) 0.385233(400) 1.130633(300)
O8G O 1.614767(300) 1.145133(400) 1.130633(300)
O8H O 0.854867(300) 0.469633(400) 1.130633(300)
#END
