
#######################################################################
#
#                 Cambridge Crystallographic Data Centre
#                                CCDC
#
#######################################################################
#
# If this CIF has been generated from an entry in the Cambridge
# Structural Database, then it will include bibliographic, chemical,
# crystal, experimental, refinement or atomic coordinate data resulting
# from the CCDC's data processing and validation procedures.
#
#######################################################################

data_CSD_CIF_GUTYIE
_audit_creation_date 2010-10-03
_audit_creation_method CSD-ConQuest-V1
_database_code_CSD GUTYIE
_database_code_depnum_ccdc_archive 'CCDC 739316'
_chemical_formula_sum 'C20 H16 N4 O8 Zn1'
_chemical_formula_moiety
;
(C10 H2 O8 Zn1 2-)n,2n(C5 H7 N2 1+)
;
_journal_coden_Cambridge 1295
_journal_volume 12
_journal_year 2009
_journal_page_first 1157
_journal_name_full 'Inorg.Chem.Commun. '
loop_
_publ_author_name
"A.Rotondo"
"G.Bruno"
"F.Messina"
"F.Nicolo"
"F.Puntoriero"
_chemical_name_systematic
;
catena-[bis(4-Aminopyridinium) 
(\h^4^-1,2,4,5-benzenetetracarboxylato)-zinc(ii)]
;
_cell_volume   1947.351
_exptl_crystal_colour 'colorless'
_exptl_crystal_density_diffrn 1.725
_exptl_crystal_description 'regular'
_diffrn_ambient_temperature 296
#These two values have been output from a single CSD field.
_refine_ls_R_factor_gt 0.0195
_refine_ls_wR_factor_gt 0.0195
_symmetry_cell_setting monoclinic
_symmetry_space_group_name_H-M 'C 2/c'
_symmetry_Int_Tables_number 15
loop_
_symmetry_equiv_pos_site_id
_symmetry_equiv_pos_as_xyz
1 x,y,z
2 -x,y,1/2-z
3 1/2+x,1/2+y,z
4 1/2-x,1/2+y,1/2-z
5 -x,-y,-z
6 x,-y,-1/2+z
7 -1/2-x,-1/2-y,-z
8 -1/2+x,-1/2-y,-1/2+z
_cell_length_a 9.9218(3)
_cell_length_b 12.6530(4)
_cell_length_c 15.5131(4)
_cell_angle_alpha 90
_cell_angle_beta 90.761(1)
_cell_angle_gamma 90
_cell_formula_units_Z 4
loop_
_atom_type_symbol
_atom_type_radius_bond
C 0.68
H 0.23
N 0.68
O 0.68
Zn 1.22
loop_
_atom_site_label
_atom_site_type_symbol
_atom_site_fract_x
_atom_site_fract_y
_atom_site_fract_z
Zn1 Zn 0.00000 1.003412(15) 0.25000
O1 O 0.08033(11) 0.91261(9) 0.33845(6)
O2 O 0.24474(16) 0.82630(13) 0.27283(8)
O3 O 0.42578(11) 0.60225(9) 0.33355(7)
O4 O 0.20598(12) 0.59379(11) 0.30487(7)
C1 C 0.21048(13) 0.79261(11) 0.41998(9)
C2 C 0.28047(13) 0.69662(11) 0.42340(9)
C3 C 0.31984(14) 0.65644(11) 0.50319(9)
H1 H 0.36800 0.59340 0.50530
C4 C 0.17617(15) 0.84669(11) 0.33556(9)
C5 C 0.30448(14) 0.62737(11) 0.34556(9)
N1 N 0.27858(15) 0.86519(11) 0.10611(9)
H2 H 0.24950 0.85910 0.15780
C6 C 0.19016(17) 0.87414(13) 0.04024(11)
H3 H 0.09830 0.87360 0.05140
C7 C 0.23198(16) 0.88393(13) -0.04223(11)
H4 H 0.16930 0.88990 -0.08710
C8 C 0.37112(16) 0.88508(12) -0.05962(10)
C9 C 0.46029(17) 0.87587(14) 0.01159(10)
H5 H 0.55290 0.87680 0.00310
C10 C 0.41120(18) 0.86564(14) 0.09227(10)
H6 H 0.47080 0.85880 0.13870
N2 N 0.41791(16) 0.89375(14) -0.13919(9)
H7 H 0.36270 0.89890 -0.18220
H8 H 0.50340 0.89420 -0.14770
Zn1B Zn 0.50000 0.503412(15) 0.25000
Zn1D Zn 0.00000 0.996588(15) 0.75000
Zn1F Zn 0.50000 0.496588(15) 0.75000
O1F O 0.41967(11) 0.58739(9) 0.66155(6)
O1A O -0.08033(11) 0.91261(9) 0.16155(6)
O2F O 0.25526(16) 0.67370(13) 0.72717(8)
O3F O 0.07422(11) 0.89775(9) 0.66645(7)
O3B O -0.07422(11) 1.10225(9) 0.33355(7)
O3C O 0.07422(11) 1.10225(9) 0.16645(7)
O4F O 0.29402(12) 0.90621(11) 0.69513(7)
C1F C 0.28952(13) 0.70739(11) 0.58002(9)
C2F C 0.21953(13) 0.80338(11) 0.57660(9)
C3F C 0.18016(14) 0.84356(11) 0.49681(9)
H1F H 0.13200 0.90660 0.49470
C4F C 0.32383(15) 0.65331(11) 0.66444(9)
C5F C 0.19552(14) 0.87263(11) 0.65444(9)
#END
