
#######################################################################
#
#                 Cambridge Crystallographic Data Centre
#                                CCDC
#
#######################################################################
#
# If this CIF has been generated from an entry in the Cambridge
# Structural Database, then it will include bibliographic, chemical,
# crystal, experimental, refinement or atomic coordinate data resulting
# from the CCDC's data processing and validation procedures.
#
#######################################################################

data_CSD_CIF_GUVBOQ
_audit_creation_date 2015-09-25
_audit_creation_method CSD-ConQuest-V1
_database_code_CSD GUVBOQ
_database_code_depnum_ccdc_archive 'CCDC 1062611'
_chemical_formula_sum 'C162 H110 O64 Zn9'
_chemical_formula_moiety
;
(C162 H92 O56 Zn9 2-)n,6n(H2 O1),2n(H3 O1 1+)
;
_journal_coden_Cambridge 1350
_journal_volume 17
_journal_year 2015
_journal_page_first 8221
_journal_name_full 'CrystEngComm '
loop_
_publ_author_name
"Ruiqin Zhong"
"Jia Liu"
"Xing Huang"
"Xiaofeng Yu"
"Changyu Sun"
"Guangjin Chen"
"Ruqiang Zou"
_chemical_name_systematic
;
catena-[bis(oxonium) 
bis(\m-hydroxo)-hexakis(\m-1,3,5-tris(4-carboxylato-3-hydroxyphenyl)benzene)-n
ona-zinc hexahydrate]
;
_cell_volume  17600.144
_exptl_crystal_colour 'colorless'
_exptl_crystal_description 'block'
_diffrn_ambient_temperature 293
_refine_special_details
;
The structure is disordered.

;
#These two values have been output from a single CSD field.
_refine_ls_R_factor_gt 0.076
_refine_ls_wR_factor_gt 0.076
_symmetry_cell_setting cubic
_symmetry_space_group_name_H-M 'P 41 3 2'
_symmetry_Int_Tables_number 213
loop_
_symmetry_equiv_pos_site_id
_symmetry_equiv_pos_as_xyz
1 x,y,z
2 1/2-x,-y,1/2+z
3 -x,1/2+y,1/2-z
4 1/2+x,1/2-y,-z
5 z,x,y
6 1/2+z,1/2-x,-y
7 1/2-z,-x,1/2+y
8 -z,1/2+x,1/2-y
9 y,z,x
10 -y,1/2+z,1/2-x
11 1/2+y,1/2-z,-x
12 1/2-y,-z,1/2+x
13 3/4+y,1/4+x,1/4-z
14 3/4-y,3/4-x,3/4-z
15 1/4+y,1/4-x,3/4+z
16 1/4-y,3/4+x,1/4+z
17 3/4+x,1/4+z,1/4-y
18 1/4-x,3/4+z,1/4+y
19 3/4-x,3/4-z,3/4-y
20 1/4+x,1/4-z,3/4+y
21 3/4+z,1/4+y,1/4-x
22 1/4+z,1/4-y,3/4+x
23 1/4-z,3/4+y,1/4+x
24 3/4-z,3/4-y,3/4-x
_cell_length_a 26.0119(1)
_cell_length_b 26.0119(1)
_cell_length_c 26.0119(1)
_cell_angle_alpha 90
_cell_angle_beta 90
_cell_angle_gamma 90
_cell_formula_units_Z 4
loop_
_atom_type_symbol
_atom_type_radius_bond
C 0.68
H 0.23
O 0.68
Zn 1.22
loop_
_atom_site_label
_atom_site_type_symbol
_atom_site_fract_x
_atom_site_fract_y
_atom_site_fract_z
Zn1 Zn 0.45548(4) 0.54749(4) 0.54579(4)
Zn2 Zn 0.12428(4) 0.37428(4) 0.12500
C1 C 0.3707(4) 0.6015(4) 0.5086(3)
C2 C 0.3305(4) 0.6154(4) 0.4700(4)
C3 C 0.3177(6) 0.5826(6) 0.4293(5)
C4 C 0.2774(7) 0.5957(7) 0.3964(6)
H1 H 0.26870 0.57310 0.37010
C5 C 0.2502(5) 0.6402(4) 0.4013(4)
C6 C 0.2630(4) 0.6720(4) 0.4423(4)
H2 H 0.24500 0.70250 0.44720
C7 C 0.3018(4) 0.6594(4) 0.4759(4)
C8 C 0.2061(4) 0.6540(4) 0.3674(4)
C9 C 0.1945(4) 0.6213(5) 0.3257(4)
H3 H 0.21510 0.59270 0.31920
C10 C 0.1518(4) 0.6317(4) 0.2938(5)
C11 C 0.1210(5) 0.6736(4) 0.3055(4)
H4 H 0.09220 0.68010 0.28530
C12 C 0.1319(4) 0.7057(5) 0.3460(4)
C13 C 0.1751(4) 0.6951(4) 0.3764(5)
H5 H 0.18290 0.71690 0.40360
C14 C 0.1388(4) 0.5962(4) 0.2505(5)
C15 C 0.1749(4) 0.5603(4) 0.2332(5)
H6 H 0.20720 0.55910 0.24840
C16 C 0.1631(4) 0.5267(4) 0.1939(4)
C17 C 0.1144(4) 0.5275(4) 0.1702(4)
C18 C 0.0783(4) 0.5626(4) 0.1883(4)
C19 C 0.0907(5) 0.5965(4) 0.2282(4)
H7 H 0.06610 0.61970 0.23980
C20 C 0.1005(3) 0.4902(3) 0.1289(4)
C21 C 0.0971(4) 0.7485(4) 0.3599(4)
C22 C 0.0605(4) 0.7663(4) 0.3238(4)
H8 H 0.05940 0.75190 0.29110
C23 C 0.0265(4) 0.8047(4) 0.3365(4)
C24 C 0.0272(3) 0.8268(4) 0.3853(4)
C25 C 0.0633(4) 0.8098(4) 0.4209(4)
C26 C 0.0971(4) 0.7712(4) 0.4090(4)
H9 H 0.12040 0.75980 0.43370
C27 C -0.0098(3) 0.8683(3) 0.3998(3)
O1 O 0.5032(2) 0.5032(2) 0.5032(2)
O2 O 0.3967(2) 0.5602(3) 0.5002(3)
O3 O 0.3781(3) 0.6302(2) 0.5454(2)
O4 O 0.1317(2) 0.4543(2) 0.1209(3)
O5 O 0.0615(2) 0.4982(3) 0.1026(3)
O6 O -0.0459(2) 0.8785(3) 0.3688(2)
O7 O -0.0018(2) 0.8930(2) 0.4401(2)
O8 O 0.3142(9) 0.6950(8) 0.5086(8)
H10 H 0.29790 0.69090 0.53530
O9 O 0.1996(3) 0.4917(4) 0.1820(4)
H11 H 0.18680 0.46880 0.16440
O10 O -0.0076(3) 0.8178(4) 0.2992(3)
H12 H -0.03340 0.83010 0.31240
O11 O 0.3050(9) 0.3050(9) 0.3050(9)
O12? O 0.037(3) 0.561(3) 0.181(3)
O13? O 0.0625(15) 0.8268(15) 0.4688(15)
H13? H 0.04310 0.80880 0.48600
O14? O 0.3510(7) 0.5472(7) 0.4143(7)
H14? H 0.35080 0.52320 0.43470
Zn1D Zn 0.54579(4) 0.45548(4) 0.54749(4)
Zn2D Zn 0.12500(4) 0.12428(4) 0.37428
C1D C 0.5086(4) 0.3707(4) 0.6015(3)
C2D C 0.4700(4) 0.3305(4) 0.6154(4)
C3D C 0.4293(6) 0.3177(6) 0.5826(5)
C4D C 0.3964(7) 0.2774(7) 0.5957(6)
H1D H 0.37010 0.26870 0.57310
C5D C 0.4013(5) 0.2502(4) 0.6402(4)
C6D C 0.4423(4) 0.2630(4) 0.6720(4)
H2D H 0.44720 0.24500 0.70250
C7D C 0.4759(4) 0.3018(4) 0.6594(4)
C8D C 0.3674(4) 0.2061(4) 0.6540(4)
C9D C 0.3257(4) 0.1945(5) 0.6213(4)
H3D H 0.31920 0.21510 0.59270
C10D C 0.2938(4) 0.1518(4) 0.6317(5)
C11D C 0.3055(5) 0.1210(4) 0.6736(4)
H4D H 0.28530 0.09220 0.68010
C12D C 0.3460(4) 0.1319(5) 0.7057(4)
C13D C 0.3764(4) 0.1751(4) 0.6951(5)
H5D H 0.40360 0.18290 0.71690
C14D C 0.2505(4) 0.1388(4) 0.5962(5)
C15D C 0.2332(4) 0.1749(4) 0.5603(5)
H6D H 0.24840 0.20720 0.55910
C16D C 0.1939(4) 0.1631(4) 0.5267(4)
C17D C 0.1702(4) 0.1144(4) 0.5275(4)
C18D C 0.1883(4) 0.0783(4) 0.5626(4)
C19D C 0.2282(5) 0.0907(4) 0.5965(4)
H7D H 0.23980 0.06610 0.61970
C20D C 0.1289(3) 0.1005(3) 0.4902(4)
C21D C 0.3599(4) 0.0971(4) 0.7485(4)
C22D C 0.3238(4) 0.0605(4) 0.7663(4)
H8D H 0.29110 0.05940 0.75190
C23D C 0.3365(4) 0.0265(4) 0.8047(4)
C24D C 0.3853(3) 0.0272(4) 0.8268(4)
C25D C 0.4209(4) 0.0633(4) 0.8098(4)
C26D C 0.4090(4) 0.0971(4) 0.7712(4)
H9D H 0.43370 0.12040 0.75980
C27D C 0.3998(3) -0.0098(3) 0.8683(3)
O2D O 0.5002(2) 0.3967(3) 0.5602(3)
O3D O 0.5454(3) 0.3781(2) 0.6302(2)
O4D O 0.1209(2) 0.1317(2) 0.4543(3)
O5D O 0.1026(2) 0.0615(3) 0.4982(3)
O6D O 0.3688(2) -0.0459(3) 0.8785(2)
O7D O 0.4401(2) -0.0018(2) 0.8930(2)
O8D O 0.5086(9) 0.3142(8) 0.6950(8)
H10D H 0.53530 0.29790 0.69090
O9D O 0.1820(3) 0.1996(4) 0.4917(4)
H11D H 0.16440 0.18680 0.46880
O10D O 0.2992(3) -0.0076(4) 0.8178(3)
H12D H 0.31240 -0.03340 0.83010
Zn1H Zn 0.54749(4) 0.54579(4) 0.45548(4)
C1H C 0.6015(4) 0.5086(4) 0.3707(3)
C2H C 0.6154(4) 0.4700(4) 0.3305(4)
C3H C 0.5826(6) 0.4293(6) 0.3177(5)
C4H C 0.5957(7) 0.3964(7) 0.2774(6)
H1H H 0.57310 0.37010 0.26870
C5H C 0.6402(5) 0.4013(4) 0.2502(4)
C6H C 0.6720(4) 0.4423(4) 0.2630(4)
H2H H 0.70250 0.44720 0.24500
C7H C 0.6594(4) 0.4759(4) 0.3018(4)
C8H C 0.6540(4) 0.3674(4) 0.2061(4)
C9H C 0.6213(4) 0.3257(5) 0.1945(4)
H3H H 0.59270 0.31920 0.21510
C10H C 0.6317(4) 0.2938(4) 0.1518(5)
C11H C 0.6736(5) 0.3055(4) 0.1210(4)
H4H H 0.68010 0.28530 0.09220
C12H C 0.7057(4) 0.3460(5) 0.1319(4)
C13H C 0.6951(4) 0.3764(4) 0.1751(5)
H5H H 0.71690 0.40360 0.18290
C14H C 0.5962(4) 0.2505(4) 0.1388(5)
C15H C 0.5603(4) 0.2332(4) 0.1749(5)
H6H H 0.55910 0.24840 0.20720
C16H C 0.5267(4) 0.1939(4) 0.1631(4)
C17H C 0.5275(4) 0.1702(4) 0.1144(4)
C18H C 0.5626(4) 0.1883(4) 0.0783(4)
C19H C 0.5965(5) 0.2282(4) 0.0907(4)
H7H H 0.61970 0.23980 0.06610
C20H C 0.4902(3) 0.1289(3) 0.1005(4)
C21H C 0.7485(4) 0.3599(4) 0.0971(4)
C22H C 0.7663(4) 0.3238(4) 0.0605(4)
H8H H 0.75190 0.29110 0.05940
C23H C 0.8047(4) 0.3365(4) 0.0265(4)
C24H C 0.8268(3) 0.3853(4) 0.0272(4)
C25H C 0.8098(4) 0.4209(4) 0.0633(4)
C26H C 0.7712(4) 0.4090(4) 0.0971(4)
H9H H 0.75980 0.43370 0.12040
C27H C 0.8683(3) 0.3998(3) -0.0098(3)
O2H O 0.5602(2) 0.5002(3) 0.3967(3)
O3H O 0.6302(3) 0.5454(2) 0.3781(2)
O4H O 0.4543(2) 0.1209(2) 0.1317(3)
O5H O 0.4982(2) 0.1026(3) 0.0615(3)
O6H O 0.8785(2) 0.3688(3) -0.0459(2)
O7H O 0.8930(2) 0.4401(2) -0.0018(2)
O8H O 0.6950(9) 0.5086(8) 0.3142(8)
H10H H 0.69090 0.53530 0.29790
O9H O 0.4917(3) 0.1820(4) 0.1996(4)
H11H H 0.46880 0.16440 0.18680
O10H O 0.8178(3) 0.2992(4) -0.0076(3)
H12H H 0.83010 0.31240 -0.03340
Zn1M Zn 0.20251(4) 0.29452(4) 0.20421(4)
C1M C 0.1485(4) 0.3793(4) 0.2414(3)
C2M C 0.1346(4) 0.4195(4) 0.2800(4)
C3M C 0.1674(6) 0.4323(6) 0.3207(5)
C4M C 0.1543(7) 0.4726(7) 0.3536(6)
H1M H 0.17690 0.48130 0.37990
C5M C 0.1098(5) 0.4998(4) 0.3487(4)
C6M C 0.0780(4) 0.4870(4) 0.3077(4)
H2M H 0.04750 0.50500 0.30280
C7M C 0.0906(4) 0.4482(4) 0.2741(4)
C8M C 0.0960(4) 0.5439(4) 0.3826(4)
C9M C 0.1287(4) 0.5555(5) 0.4243(4)
H3M H 0.15730 0.53490 0.43080
C10M C 0.1183(4) 0.5982(4) 0.4562(5)
C11M C 0.0764(5) 0.6290(4) 0.4445(4)
H4M H 0.06990 0.65780 0.46470
C12M C 0.0443(4) 0.6181(5) 0.4040(4)
C13M C 0.0549(4) 0.5749(4) 0.3736(5)
H5M H 0.03310 0.56710 0.34640
C14M C 0.1538(4) 0.6112(4) 0.4995(5)
C15M C 0.1897(4) 0.5751(4) 0.5168(5)
H6M H 0.19090 0.54280 0.50160
C16M C 0.2233(4) 0.5869(4) 0.5561(4)
C17M C 0.2225(4) 0.6356(4) 0.5798(4)
C18M C 0.1874(4) 0.6717(4) 0.5617(4)
C19M C 0.1535(5) 0.6593(4) 0.5218(4)
H7M H 0.13030 0.68390 0.51020
C20M C 0.2598(3) 0.6495(3) 0.6211(4)
C21M C 0.0015(4) 0.6529(4) 0.3901(4)
C22M C -0.0163(4) 0.6895(4) 0.4262(4)
H8M H -0.00190 0.69060 0.45890
C23M C -0.0547(4) 0.7235(4) 0.4135(4)
C24M C -0.0768(3) 0.7228(4) 0.3647(4)
C25M C -0.0598(4) 0.6867(4) 0.3291(4)
C26M C -0.0212(4) 0.6529(4) 0.3410(4)
H9M H -0.00980 0.62960 0.31630
C27M C -0.1183(3) 0.7598(3) 0.3502(3)
O1M O 0.2468(2) 0.2468(2) 0.2468(2)
O2M O 0.1898(2) 0.3533(3) 0.2498(3)
O3M O 0.1198(3) 0.3719(2) 0.2046(2)
O4M O 0.2957(2) 0.6183(2) 0.6291(3)
O5M O 0.2518(2) 0.6885(3) 0.6474(3)
O6M O -0.1285(2) 0.7959(3) 0.3812(2)
O7M O -0.1430(2) 0.7518(2) 0.3099(2)
O8M O 0.0550(9) 0.4358(8) 0.2414(8)
H10M H 0.05910 0.45210 0.21470
O9M O 0.2583(3) 0.5504(4) 0.5680(4)
H11M H 0.28120 0.56320 0.58560
O10M O -0.0678(3) 0.7576(4) 0.4508(3)
H12M H -0.08010 0.78340 0.43760
Zn1R Zn 0.29452(4) 0.20421(4) 0.20251(4)
Zn2I Zn 0.62572(4) 0.62500(4) 0.37572
C1R C 0.3793(4) 0.2414(4) 0.1485(3)
C2R C 0.4195(4) 0.2800(4) 0.1346(4)
C3R C 0.4323(6) 0.3207(6) 0.1674(5)
C4R C 0.4726(7) 0.3536(7) 0.1543(6)
H1R H 0.48130 0.37990 0.17690
C5R C 0.4998(5) 0.3487(4) 0.1098(4)
C6R C 0.4870(4) 0.3077(4) 0.0780(4)
H2R H 0.50500 0.30280 0.04750
C7R C 0.4482(4) 0.2741(4) 0.0906(4)
C8R C 0.5439(4) 0.3826(4) 0.0960(4)
C9R C 0.5555(4) 0.4243(5) 0.1287(4)
H3R H 0.53490 0.43080 0.15730
C10R C 0.5982(4) 0.4562(4) 0.1183(5)
C11R C 0.6290(5) 0.4445(4) 0.0764(4)
H4R H 0.65780 0.46470 0.06990
C12R C 0.6181(4) 0.4040(5) 0.0443(4)
C13R C 0.5749(4) 0.3736(4) 0.0549(5)
H5R H 0.56710 0.34640 0.03310
C14R C 0.6112(4) 0.4995(4) 0.1538(5)
C15R C 0.5751(4) 0.5168(4) 0.1897(5)
H6R H 0.54280 0.50160 0.19090
C16R C 0.5869(4) 0.5561(4) 0.2233(4)
C17R C 0.6356(4) 0.5798(4) 0.2225(4)
C18R C 0.6717(4) 0.5617(4) 0.1874(4)
C19R C 0.6593(5) 0.5218(4) 0.1535(4)
H7R H 0.68390 0.51020 0.13030
C20R C 0.6495(3) 0.6211(3) 0.2598(4)
C21R C 0.6529(4) 0.3901(4) 0.0015(4)
C22R C 0.6895(4) 0.4262(4) -0.0163(4)
H8R H 0.69060 0.45890 -0.00190
C23R C 0.7235(4) 0.4135(4) -0.0547(4)
C24R C 0.7228(3) 0.3647(4) -0.0768(4)
C25R C 0.6867(4) 0.3291(4) -0.0598(4)
C26R C 0.6529(4) 0.3410(4) -0.0212(4)
H9R H 0.62960 0.31630 -0.00980
C27R C 0.7598(3) 0.3502(3) -0.1183(3)
O2R O 0.3533(2) 0.2498(3) 0.1898(3)
O3R O 0.3719(3) 0.2046(2) 0.1198(2)
O4R O 0.6183(2) 0.6291(2) 0.2957(3)
O5R O 0.6885(2) 0.6474(3) 0.2518(3)
O6R O 0.7959(2) 0.3812(3) -0.1285(2)
O7R O 0.7518(2) 0.3099(2) -0.1430(2)
O8R O 0.4358(9) 0.2414(8) 0.0550(8)
H10R H 0.45210 0.21470 0.05910
O9R O 0.5504(3) 0.5680(4) 0.2583(4)
H11R H 0.56320 0.58560 0.28120
O10R O 0.7576(3) 0.4508(4) -0.0678(3)
H12R H 0.78340 0.43760 -0.08010
Zn1W Zn 0.20421(4) 0.20251(4) 0.29452(4)
C1W C 0.2414(4) 0.1485(4) 0.3793(3)
C2W C 0.2800(4) 0.1346(4) 0.4195(4)
C3W C 0.3207(6) 0.1674(6) 0.4323(5)
C4W C 0.3536(7) 0.1543(7) 0.4726(6)
H1W H 0.37990 0.17690 0.48130
C5W C 0.3487(5) 0.1098(4) 0.4998(4)
C6W C 0.3077(4) 0.0780(4) 0.4870(4)
H2W H 0.30280 0.04750 0.50500
C7W C 0.2741(4) 0.0906(4) 0.4482(4)
C8W C 0.3826(4) 0.0960(4) 0.5439(4)
C9W C 0.4243(4) 0.1287(5) 0.5555(4)
H3W H 0.43080 0.15730 0.53490
C10W C 0.4562(4) 0.1183(4) 0.5982(5)
C11W C 0.4445(5) 0.0764(4) 0.6290(4)
H4W H 0.46470 0.06990 0.65780
C12W C 0.4040(4) 0.0443(5) 0.6181(4)
C13W C 0.3736(4) 0.0549(4) 0.5749(5)
H5W H 0.34640 0.03310 0.56710
C14W C 0.4995(4) 0.1538(4) 0.6112(5)
C15W C 0.5168(4) 0.1897(4) 0.5751(5)
H6W H 0.50160 0.19090 0.54280
C16W C 0.5561(4) 0.2233(4) 0.5869(4)
C17W C 0.5798(4) 0.2225(4) 0.6356(4)
C18W C 0.5617(4) 0.1874(4) 0.6717(4)
C19W C 0.5218(5) 0.1535(4) 0.6593(4)
H7W H 0.51020 0.13030 0.68390
C20W C 0.6211(3) 0.2598(3) 0.6495(4)
C21W C 0.3901(4) 0.0015(4) 0.6529(4)
C22W C 0.4262(4) -0.0163(4) 0.6895(4)
H8W H 0.45890 -0.00190 0.69060
C23W C 0.4135(4) -0.0547(4) 0.7235(4)
C24W C 0.3647(3) -0.0768(4) 0.7228(4)
C25W C 0.3291(4) -0.0598(4) 0.6867(4)
C26W C 0.3410(4) -0.0212(4) 0.6529(4)
H9W H 0.31630 -0.00980 0.62960
C27W C 0.3502(3) -0.1183(3) 0.7598(3)
O2W O 0.2498(2) 0.1898(3) 0.3533(3)
O3W O 0.2046(3) 0.1198(2) 0.3719(2)
O4W O 0.6291(2) 0.2957(2) 0.6183(3)
O5W O 0.6474(2) 0.2518(3) 0.6885(3)
O6W O 0.3812(2) -0.1285(3) 0.7959(2)
O7W O 0.3099(2) -0.1430(2) 0.7518(2)
O8W O 0.2414(9) 0.0550(8) 0.4358(8)
H10W H 0.21470 0.05910 0.45210
O9W O 0.5680(3) 0.2583(4) 0.5504(4)
H11W H 0.58560 0.28120 0.56320
O10W O 0.4508(3) -0.0678(4) 0.7576(3)
H12W H 0.43760 -0.08010 0.78340
Zn1A Zn 0.04452(4) 0.45251(4) 0.04579(4)
Zn1C Zn -0.04452(4) 0.95251(4) 0.45421(4)
Zn1E Zn 0.04579(4) 0.04452(4) 0.45251(4)
Zn1G Zn 0.45421(4) -0.04452(4) 0.95251(4)
Zn1I Zn 0.45251(4) 0.04579(4) 0.04452(4)
Zn1K Zn 0.95251(4) 0.45421(4) -0.04452(4)
Zn1L Zn 0.29749(4) 0.70548(4) 0.70421(4)
Zn1N Zn -0.20251(4) 0.79452(4) 0.29579(4)
Zn1Q Zn 0.79452(4) 0.29579(4) -0.20251(4)
Zn1S Zn 0.70548(4) 0.70421(4) 0.29749(4)
Zn1T Zn 0.29579(4) -0.20251(4) 0.79452(4)
Zn1V Zn 0.70421(4) 0.29749(4) 0.70548(4)
Zn2A Zn 0.37572(4) 0.62572(4) 0.62500
Zn2B Zn -0.12428(4) 0.87428(4) 0.37500
Zn2E Zn 0.62500(4) 0.37572(4) 0.62572
Zn2F Zn 0.37500(4) -0.12428(4) 0.87428
Zn2H Zn 0.37428(4) 0.12500(4) 0.12428
Zn2J Zn 0.87428(4) 0.37500(4) -0.12428
O3A O 0.1219(3) 0.3698(2) 0.0454(2)
O3E O 0.0454(3) 0.1219(2) 0.3698(2)
O3S O 0.6281(3) 0.7046(2) 0.3802(2)
O4I O 0.5457(2) 0.6209(2) 0.3683(3)
O4L O 0.2043(2) 0.3817(2) 0.1291(3)
O4V O 0.1291(2) 0.2043(2) 0.3817(3)
O5A O 0.4385(2) 0.5018(3) 0.6026(3)
O5E O 0.6026(2) 0.4385(3) 0.5018(3)
O5I O 0.5018(2) 0.6026(3) 0.4385(3)
O5L O 0.2482(2) 0.3115(3) 0.1474(3)
O5S O 0.3115(2) 0.1474(3) 0.2482(3)
O5V O 0.1474(2) 0.2482(3) 0.3115(3)
O6B O 0.0459(2) 0.3785(3) 0.1312(2)
O6F O 0.1312(2) 0.0459(3) 0.3785(2)
O6K O 0.6215(2) 0.6312(3) 0.4541(2)
O6N O 0.1285(2) 0.2959(3) 0.1188(2)
O6P O 0.7041(2) 0.6188(3) 0.3715(2)
O6T O 0.1188(2) 0.1285(3) 0.2959(2)
O7C O 0.4982(2) 0.6070(2) 0.5599(2)
O7G O 0.5599(2) 0.4982(2) 0.6070(2)
O7K O 0.6070(2) 0.5599(2) 0.4982(2)
O7N O 0.1430(2) 0.2518(2) 0.1901(2)
O7Q O 0.2518(2) 0.1901(2) 0.1430(2)
O7T O 0.1901(2) 0.1430(2) 0.2518(2)
#END
