
#######################################################################
#
#                 Cambridge Crystallographic Data Centre
#                                CCDC
#
#######################################################################
#
# If this CIF has been generated from an entry in the Cambridge
# Structural Database, then it will include bibliographic, chemical,
# crystal, experimental, refinement or atomic coordinate data resulting
# from the CCDC's data processing and validation procedures.
#
#######################################################################

data_CSD_CIF_GUVYAA
_audit_creation_date 2020-07-14
_audit_creation_method CSD-ConQuest-V1
_database_code_CSD GUVYAA
_database_code_depnum_ccdc_archive 'CCDC 1990629'
_chemical_formula_sum 'C18 H34 N2 O10 P2 S1 Zn2'
_chemical_formula_moiety
;
(C6 H4 O10 P2 S1 Zn2 2-)n,C12 H30 N2 2+
;
_journal_coden_Cambridge 222
_journal_volume 49
_journal_year 2020
_journal_page_first 11085
_journal_name_full 'Dalton Trans. '
loop_
_publ_author_name
"Jui Hsieh"
"Ju-Ying Chen"
"Han-Ying Li"
"Hsin-Kuan Liu"
"Hsiung-Lin Tu"
"Chih-Min Wang"
_chemical_name_systematic
;
catena-[dodecane-1,12-bis(aminium) 
bis(\m-phosphonato)-(\m-thiophene-2,5-dicarboxylato)-di-zinc(ii) unknown 
solvate]
;
_chemical_name_common
;
NTOU-2S
;
_cell_volume   5629.591
_exptl_crystal_colour 'yellow'
_exptl_crystal_description 'block'
_diffrn_ambient_temperature 296
_refine_special_details
;
Disordered cation and solvent molecules were not modelled and the disordered 
density was taken into account using the SQUEEZE/PLATON procedure.
;
#These two values have been output from a single CSD field.
_refine_ls_R_factor_gt 0.0453
_refine_ls_wR_factor_gt 0.0453
_symmetry_cell_setting orthorhombic
_symmetry_space_group_name_H-M 'P c c n'
_symmetry_Int_Tables_number 56
loop_
_symmetry_equiv_pos_site_id
_symmetry_equiv_pos_as_xyz
1 x,y,z
2 1/2-x,1/2-y,z
3 -x,1/2+y,1/2-z
4 1/2+x,-y,1/2-z
5 -x,-y,-z
6 -1/2+x,-1/2+y,-z
7 x,-1/2-y,-1/2+z
8 -1/2-x,y,-1/2+z
_cell_length_a 19.5786(9)
_cell_length_b 29.0287(13)
_cell_length_c 9.9053(4)
_cell_angle_alpha 90
_cell_angle_beta 90
_cell_angle_gamma 90
_cell_formula_units_Z 8
loop_
_atom_type_symbol
_atom_type_radius_bond
C 0.68
H 0.23
O 0.68
P 1.05
S 1.02
Zn 1.22
loop_
_atom_site_label
_atom_site_type_symbol
_atom_site_fract_x
_atom_site_fract_y
_atom_site_fract_z
S1 S -0.03701(7) 0.48414(4) 0.30537(12)
Zn1 Zn 0.07183(3) 0.313179(14) 0.21638(4)
Zn2 Zn 0.15619(2) 0.144054(15) 0.37053(4)
P1 P 0.09507(6) 0.23871(3) 0.43276(10)
H1 H 0.15880 0.24900 0.43420
P2 P 0.22694(6) 0.33226(3) 0.16022(10)
H2 H 0.23700 0.28830 0.16310
O1 O 0.0777(2) 0.23334(11) 0.5783(3)
O2 O 0.09154(16) 0.19472(10) 0.3513(3)
O3 O 0.05084(16) 0.27698(10) 0.3742(3)
O4 O 0.16233(17) 0.34135(11) 0.2384(3)
O5 O 0.28553(17) 0.36112(11) 0.2111(3)
O6 O 0.21979(16) 0.33857(12) 0.0114(3)
O7 O 0.0222(2) 0.39195(12) 0.3772(4)
O8 O 0.0070(2) 0.36091(10) 0.1735(4)
O9 O -0.07693(19) 0.58386(12) 0.3009(4)
O10 O -0.12256(18) 0.58269(10) 0.0941(3)
C1 C 0.0017(2) 0.39347(15) 0.2586(5)
C2 C -0.0303(2) 0.43591(14) 0.2056(4)
C3 C -0.0553(3) 0.44372(15) 0.0796(5)
H3 H -0.05640 0.42160 0.01180
C4 C -0.0793(3) 0.48893(16) 0.0633(5)
H4 H -0.09780 0.50000 -0.01690
C5 C -0.0729(2) 0.51474(14) 0.1765(5)
C6 C -0.0910(2) 0.56423(15) 0.1950(5)
Zn1F Zn 0.07183(3) 0.186821(14) 0.71638(4)
Zn2A Zn 0.34381(2) 0.355946(15) 0.37053(4)
Zn2B Zn -0.15619(2) 0.644054(15) 0.12947(4)
Zn2F Zn 0.15619(2) 0.355946(15) -0.12947(4)
O1F O 0.0777(2) 0.26666(11) 0.0783(3)
O5A O 0.21447(17) 0.13888(11) 0.2111(3)
O6F O 0.21979(16) 0.16143(12) 0.5114(3)
O10B O 0.12256(18) 0.08269(10) 0.4059(3)
#END
