
#######################################################################
#
#                 Cambridge Crystallographic Data Centre
#                                CCDC
#
#######################################################################
#
# If this CIF has been generated from an entry in the Cambridge
# Structural Database, then it will include bibliographic, chemical,
# crystal, experimental, refinement or atomic coordinate data resulting
# from the CCDC's data processing and validation procedures.
#
#######################################################################

data_CSD_CIF_GUWGUC
_audit_creation_date 2015-09-25
_audit_creation_method CSD-ConQuest-V1
_database_code_CSD GUWGUC
_database_code_depnum_ccdc_archive 'CCDC 947647'
_chemical_formula_sum 'C96 H80 Cu4 Mo8 N24 O26'
_chemical_formula_moiety
;
(C48 H40 Cu2 N12 2+)2n,n(Mo8 O26 4-)
;
_journal_coden_Cambridge 1350
_journal_volume 16
_journal_year 2014
_journal_page_first 10017
_journal_name_full 'CrystEngComm '
loop_
_publ_author_name
"Xiu-Li Hao"
"Yuan-Yuan Ma"
"Yong-Hui Wang"
"Hong-Ying Zang"
"Yang-Guang Li"
_chemical_name_systematic
;
catena-[bis(bis(\m~2~-2,2'-(1,4-Phenylenebis(methylene-1H-pyrazole-1,3-diyl))d
ipyridine)-di-copper(i)) 
(bis(\m~3~-oxo)-decakis(\m~2~-oxo)-tetradeca-oxo-octa-molybdenum)]
;
_cell_volume   2682.327
_exptl_crystal_colour 'yellow'
_exptl_crystal_density_diffrn 1.862
_exptl_crystal_description 'block'
_diffrn_ambient_temperature 150
#These two values have been output from a single CSD field.
_refine_ls_R_factor_gt 0.0586
_refine_ls_wR_factor_gt 0.0586
_symmetry_cell_setting triclinic
_symmetry_space_group_name_H-M 'P -1'
_symmetry_Int_Tables_number 2
loop_
_symmetry_equiv_pos_site_id
_symmetry_equiv_pos_as_xyz
1 x,y,z
2 -x,-y,-z
_cell_length_a 13.7656(6)
_cell_length_b 14.8306(6)
_cell_length_c 16.0531(5)
_cell_angle_alpha 117.470(3)
_cell_angle_beta 109.431(3)
_cell_angle_gamma 91.167(3)
_cell_formula_units_Z 1
loop_
_atom_type_symbol
_atom_type_radius_bond
C 0.68
H 0.23
Cu 1.32
Mo 1.54
N 0.68
O 0.68
loop_
_atom_site_label
_atom_site_type_symbol
_atom_site_fract_x
_atom_site_fract_y
_atom_site_fract_z
Cu1 Cu 0.72161(10) 0.0915(1) 0.29461(9)
C1 C 0.7494(7) 0.2001(8) 0.5208(6)
H1 H 0.79300 0.25730 0.53040
C2 C 0.7346(8) 0.2050(9) 0.6039(7)
H2 H 0.76700 0.26480 0.66940
C3 C 0.6726(8) 0.1221(9) 0.5896(7)
H3 H 0.66100 0.12370 0.64530
C4 C 0.6275(7) 0.0368(8) 0.4949(6)
H4 H 0.58540 -0.02180 0.48460
C5 C 0.6432(6) 0.0364(7) 0.4144(5)
C6 C 0.6000(6) -0.0528(7) 0.3109(6)
C7 C 0.5398(7) -0.1515(8) 0.2698(7)
H5 H 0.51580 -0.17840 0.30460
C8 C 0.5228(8) -0.2007(8) 0.1688(7)
H6 H 0.48320 -0.26900 0.11910
C9 C 0.5802(8) -0.1516(8) 0.0580(6)
H7 H 0.54000 -0.22190 0.00230
H8 H 0.65480 -0.14820 0.06580
C10 C 0.5385(7) -0.0723(8) 0.0294(6)
C11 C 0.5907(8) -0.0276(10) -0.0048(8)
H9 H 0.65560 -0.04560 -0.00840
C12 C 0.4465(9) -0.043(1) 0.0345(8)
H10 H 0.40750 -0.07150 0.05890
C13 C 0.8945(7) -0.0259(8) 0.4432(7)
H11 H 0.82080 -0.04360 0.40460
C14 C 0.9618(7) -0.0372(7) 0.3951(6)
C15 C 0.9188(8) -0.0785(8) 0.2817(7)
H12 H 0.95870 -0.13060 0.25170
H13 H 0.84450 -0.11470 0.25240
C16 C 0.9846(8) 0.0174(10) 0.2071(8)
H14 H 1.03960 -0.01750 0.19450
C17 C 0.9553(8) 0.0911(9) 0.1840(7)
H15 H 0.98370 0.11840 0.15190
C18 C 0.8734(8) 0.1190(8) 0.2177(6)
C19 C 0.8050(8) 0.1927(8) 0.2106(7)
C20 C 0.8222(10) 0.2565(9) 0.1742(7)
H16 H 0.88020 0.25690 0.15480
C21 C 0.7503(12) 0.3214(10) 0.1670(9)
H17 H 0.75650 0.36430 0.13890
C22 C 0.6713(12) 0.3218(9) 0.2011(9)
H18 H 0.62380 0.36690 0.19850
C23 C 0.6599(9) 0.2575(9) 0.2391(8)
H19 H 0.60390 0.25810 0.26130
N1 N 0.7040(5) 0.1170(6) 0.4270(5)
N2 N 0.6194(5) -0.0437(5) 0.2386(5)
N3 N 0.5724(6) -0.1349(6) 0.1524(5)
N4 N 0.9235(6) 0.0008(6) 0.2512(5)
N5 N 0.8540(6) 0.0630(6) 0.2583(5)
N6 N 0.7268(7) 0.1941(6) 0.2453(5)
C24 C 1.0692(7) -0.0113(8) 0.4515(7)
H20 H 1.11770 -0.01850 0.41950
Cu2 Cu 0.30697(11) 0.26815(13) 0.47389(10)
C25 C 0.3244(12) 0.0605(12) 0.3091(12)
H21 H 0.36330 0.04680 0.36170
C26 C 0.2999(13) -0.0146(11) 0.2135(13)
H22 H 0.32080 -0.07900 0.19970
C27 C 0.2449(10) 0.0019(11) 0.1363(10)
H23 H 0.22510 -0.05160 0.06770
C28 C 0.2177(9) 0.0970(11) 0.1580(9)
H24 H 0.17950 0.11060 0.10510
C29 C 0.2482(8) 0.1729(9) 0.2608(8)
C30 C 0.2183(7) 0.2740(9) 0.2899(7)
C31 C 0.1771(8) 0.3239(10) 0.2344(8)
H25 H 0.15700 0.29690 0.16330
C32 C 0.1720(9) 0.4198(11) 0.3041(9)
H26 H 0.14710 0.47270 0.29050
C33 C 0.2073(8) 0.5085(9) 0.4911(7)
H27 H 0.23090 0.57660 0.49910
H28 H 0.25780 0.50350 0.54860
C34 C 0.0990(8) 0.5035(8) 0.4955(7)
C35 C 0.0821(10) 0.4826(11) 0.5604(10)
H29 H 0.13780 0.46890 0.60430
C36 C 0.0176(11) 0.5202(12) 0.4333(10)
H30 H 0.02750 0.53410 0.38420
C37 C 0.0979(9) 0.2243(10) 0.4905(10)
H31 H 0.07060 0.18850 0.41830
C38 C 0.0294(13) 0.2305(12) 0.5338(12)
H32 H -0.04360 0.20150 0.49470
C39 C 0.0688(13) 0.2800(11) 0.6355(12)
H33 H 0.02160 0.28440 0.66840
C40 C 0.1716(11) 0.324(1) 0.6943(9)
H34 H 0.19780 0.35880 0.76650
C41 C 0.2382(9) 0.3142(9) 0.6393(7)
C42 C 0.3386(6) 0.3593(7) 0.6839(7)
C43 C 0.4016(8) 0.4226(8) 0.7845(7)
H35 H 0.38140 0.44130 0.84050
C44 C 0.4989(7) 0.4543(7) 0.7901(7)
H36 H 0.55800 0.49880 0.85070
N7 N 0.4960(6) 0.4106(7) 0.6930(7)
N8 N 0.3969(6) 0.3519(6) 0.6273(5)
C45 C 0.5624(14) 0.4107(14) 0.6453(13)
H37 H 0.55800 0.33800 0.59510
H38 H 0.63550 0.43830 0.69670
C46 C 0.5401(18) 0.4742(16) 0.5905(13)
C47 C 0.518(1) 0.4180(12) 0.4922(11)
H39 H 0.52970 0.34960 0.47380
C48 C 0.522(2) 0.5658(17) 0.600(2)
H40 H 0.53390 0.62220 0.66590
N9 N 0.2982(7) 0.1555(8) 0.3377(6)
N10 N 0.2387(6) 0.3382(7) 0.3898(6)
N11 N 0.2087(6) 0.4253(7) 0.3952(6)
N12 N 0.1999(7) 0.2628(7) 0.5379(5)
Mo1 Mo 0.02131(5) -0.47189(6) 0.12754(5)
Mo2 Mo 0.24203(6) -0.39443(6) 0.05767(5)
Mo3 Mo 0.05548(6) -0.25769(6) 0.06128(5)
Mo4 Mo 0.21156(6) -0.65652(6) -0.01103(5)
O1 O 0.0841(4) -0.4024(4) 0.0837(4)
O2 O 0.0782(5) -0.4064(5) 0.2577(4)
O3 O 0.3112(4) -0.3054(5) 0.1819(4)
O4 O -0.1154(4) -0.4745(4) 0.0923(4)
O5 O 0.2736(5) -0.6852(5) -0.0928(4)
O6 O 0.1651(4) -0.3085(4) 0.0147(4)
O7 O 0.0209(5) -0.1805(5) 0.0095(5)
O8 O 0.2472(4) -0.5156(5) 0.0787(4)
O9 O 0.2639(5) -0.7136(5) 0.0595(5)
O10 O 0.1280(4) -0.1726(5) 0.1868(4)
O11 O 0.0470(4) -0.5977(4) 0.0879(4)
O12 O 0.0721(5) -0.7196(5) -0.0864(4)
O13 O 0.3303(4) -0.4102(5) 0.0015(4)
C1A C 0.2506(7) -0.2001(8) -0.5208(6)
H1A H 0.20700 -0.25730 -0.53040
C2A C 0.2654(8) -0.2050(9) -0.6039(7)
H2A H 0.23300 -0.26480 -0.66940
C3A C 0.3274(8) -0.1221(9) -0.5896(7)
H3A H 0.33900 -0.12370 -0.64530
C4A C 0.3725(7) -0.0368(8) -0.4949(6)
H4A H 0.41460 0.02180 -0.48460
C5A C 0.3568(6) -0.0364(7) -0.4144(5)
C6A C 0.4000(6) 0.0528(7) -0.3109(6)
C7A C 0.4602(7) 0.1515(8) -0.2698(7)
H5A H 0.48420 0.17840 -0.30460
C8A C 0.4772(8) 0.2007(8) -0.1688(7)
H6A H 0.51680 0.26900 -0.11910
C9A C 0.4198(8) 0.1516(8) -0.0580(6)
H7A H 0.46000 0.22190 -0.00230
H8A H 0.34520 0.14820 -0.06580
C10A C 0.4615(7) 0.0723(8) -0.0294(6)
C11A C 0.4093(8) 0.0276(10) 0.0048(8)
H9A H 0.34440 0.04560 0.00840
C12A C 0.5535(9) 0.043(1) -0.0345(8)
H10A H 0.59250 0.07150 -0.05890
N1A N 0.2960(5) -0.1170(6) -0.4270(5)
N2A N 0.3806(5) 0.0437(5) -0.2386(5)
N3A N 0.4276(6) 0.1349(6) -0.1524(5)
C13A C 1.1055(7) 0.0259(8) 0.5568(7)
H11A H 1.17920 0.04360 0.59540
C14A C 1.0382(7) 0.0372(7) 0.6049(6)
C15A C 1.0812(8) 0.0785(8) 0.7183(7)
H12A H 1.04130 0.13060 0.74830
H13A H 1.15550 0.11470 0.74760
C16A C 1.0154(8) -0.0174(10) 0.7929(8)
H14A H 0.96040 0.01750 0.80550
C17A C 1.0447(8) -0.0911(9) 0.8160(7)
H15A H 1.01630 -0.11840 0.84810
C18A C 1.1266(8) -0.1190(8) 0.7823(6)
C19A C 1.1950(8) -0.1927(8) 0.7894(7)
C20A C 1.1778(10) -0.2565(9) 0.8258(7)
H16A H 1.11980 -0.25690 0.84520
C21A C 1.2497(12) -0.3214(10) 0.8330(9)
H17A H 1.24350 -0.36430 0.86110
C22A C 1.3287(12) -0.3218(9) 0.7989(9)
H18A H 1.37620 -0.36690 0.80150
C23A C 1.3401(9) -0.2575(9) 0.7609(8)
H19A H 1.39610 -0.25810 0.73870
N4A N 1.0765(6) -0.0008(6) 0.7488(5)
N5A N 1.1460(6) -0.0630(6) 0.7417(5)
N6A N 1.2732(7) -0.1941(6) 0.7547(5)
C24A C 0.9308(7) 0.0113(8) 0.5485(7)
H20A H 0.88230 0.01850 0.58050
Cu1A Cu 0.27839(10) -0.0915(1) -0.29461(9)
Cu1A* Cu 1.27839(10) -0.0915(1) 0.70539(9)
N5A* N 0.1460(6) -0.0630(6) -0.2583(5)
N6A* N 0.2732(7) -0.1941(6) -0.2453(5)
C25A C -0.3244(12) 0.9395(12) 0.6909(12)
H21A H -0.36330 0.95320 0.63830
C26A C -0.2999(13) 1.0146(11) 0.7865(13)
H22A H -0.32080 1.07900 0.80030
C27A C -0.2449(10) 0.9981(11) 0.8637(10)
H23A H -0.22510 1.05160 0.93230
C28A C -0.2177(9) 0.9030(11) 0.8420(9)
H24A H -0.17950 0.88940 0.89490
C29A C -0.2482(8) 0.8271(9) 0.7392(8)
C30A C -0.2183(7) 0.7260(9) 0.7101(7)
C31A C -0.1771(8) 0.6761(10) 0.7656(8)
H25A H -0.15700 0.70310 0.83670
C32A C -0.1720(9) 0.5802(11) 0.6959(9)
H26A H -0.14710 0.52730 0.70950
C33A C -0.2073(8) 0.4915(9) 0.5089(7)
H27A H -0.23090 0.42340 0.50090
H28A H -0.25780 0.49650 0.45140
C34A C -0.0990(8) 0.4965(8) 0.5045(7)
C35A C -0.0821(10) 0.5174(11) 0.4396(10)
H29A H -0.13780 0.53110 0.39570
C36A C -0.0176(11) 0.4798(12) 0.5667(10)
H30A H -0.02750 0.46590 0.61580
N9A N -0.2982(7) 0.8445(8) 0.6623(6)
N10A N -0.2387(6) 0.6618(7) 0.6102(6)
N11A N -0.2087(6) 0.5747(7) 0.6048(6)
C37A C 0.9021(9) 0.7757(10) 0.5095(10)
H31A H 0.92940 0.81150 0.58170
C38A C 0.9706(13) 0.7695(12) 0.4662(12)
H32A H 1.04360 0.79850 0.50530
C39A C 0.9312(13) 0.7200(11) 0.3645(12)
H33A H 0.97840 0.71560 0.33160
C40A C 0.8284(11) 0.676(1) 0.3057(9)
H34A H 0.80220 0.64120 0.23350
C41A C 0.7618(9) 0.6858(9) 0.3607(7)
C42A C 0.6614(6) 0.6407(7) 0.3161(7)
C43A C 0.5984(8) 0.5774(8) 0.2155(7)
H35A H 0.61860 0.55870 0.15950
C44A C 0.5011(7) 0.5457(7) 0.2099(7)
H36A H 0.44200 0.50120 0.14930
N7A N 0.5040(6) 0.5894(7) 0.3070(7)
N8A N 0.6031(6) 0.6481(6) 0.3727(5)
C45A C 0.4376(14) 0.5893(14) 0.3547(13)
H37A H 0.44200 0.66200 0.40490
H38A H 0.36450 0.56170 0.30330
C46A C 0.4599(18) 0.5258(16) 0.4095(13)
C47A C 0.482(1) 0.5820(12) 0.5078(11)
H39A H 0.47030 0.65040 0.52620
C48A C 0.478(2) 0.4342(17) 0.400(2)
H40A H 0.46610 0.37780 0.33410
N12A N 0.8001(7) 0.7372(7) 0.4621(5)
Cu2A Cu -0.30697(11) 0.73185(13) 0.52611(10)
Cu2A* Cu 0.69303(11) 0.73185(13) 0.52611(10)
N8A* N -0.3969(6) 0.6481(6) 0.3727(5)
N12A* N -0.1999(7) 0.7372(7) 0.4621(5)
Mo1A Mo -0.02131(5) -0.52811(6) -0.12754(5)
Mo2A Mo -0.24203(6) -0.60557(6) -0.05767(5)
Mo3A Mo -0.05548(6) -0.74231(6) -0.06128(5)
Mo4A Mo -0.21156(6) -0.34348(6) 0.01103(5)
O1A O -0.0841(4) -0.5976(4) -0.0837(4)
O2A O -0.0782(5) -0.5936(5) -0.2577(4)
O3A O -0.3112(4) -0.6946(5) -0.1819(4)
O4A O 0.1154(4) -0.5255(4) -0.0923(4)
O5A O -0.2736(5) -0.3148(5) 0.0928(4)
O6A O -0.1651(4) -0.6915(4) -0.0147(4)
O7A O -0.0209(5) -0.8195(5) -0.0095(5)
O8A O -0.2472(4) -0.4844(5) -0.0787(4)
O9A O -0.2639(5) -0.2864(5) -0.0595(5)
O10A O -0.1280(4) -0.8274(5) -0.1868(4)
O11A O -0.0470(4) -0.4023(4) -0.0879(4)
O12A O -0.0721(5) -0.2804(5) 0.0864(4)
O13A O -0.3303(4) -0.5898(5) -0.0015(4)
#END
