
#######################################################################
#
#                 Cambridge Crystallographic Data Centre
#                                CCDC
#
#######################################################################
#
# If this CIF has been generated from an entry in the Cambridge
# Structural Database, then it will include bibliographic, chemical,
# crystal, experimental, refinement or atomic coordinate data resulting
# from the CCDC's data processing and validation procedures.
#
#######################################################################

data_CSD_CIF_GUWXEB
_audit_creation_date 2003-05-28
_audit_creation_method CSD-ConQuest-V1
_database_code_CSD GUWXEB
_database_code_depnum_ccdc_archive 'CCDC 189347'
_chemical_formula_sum 'C50 H56 Cd2 Cl2 N2 O18'
_chemical_formula_moiety
;
(C3 H10 N1 1+)2n,n(C44 H24 Cd2 Cl2 O12 2-),6n(H2 O1)
;
_journal_coden_Cambridge 9
_journal_volume 42
_journal_year 2003
_journal_page_first 652
_journal_name_full 'Inorg.Chem. '
loop_
_publ_author_name
"Yong Cui"
"H.L.Ngo"
"P.S.White"
"Wenbin Lin"
_chemical_name_systematic
;
catena-(bis((Trimethylammonium) 
(\m~2~-chloro)-(\m~2~-2,2'-dihydroxy-1,1'-binaphthalene-6,6'-dicarboxylato)-ca
dmium) hexahydrate clathrate)
;
_cell_volume   3903.587
_exptl_crystal_density_diffrn 1.079
_diffrn_ambient_temperature 293
#These two values have been output from a single CSD field.
_refine_ls_R_factor_gt 0.0879
_refine_ls_wR_factor_gt 0.0879
_symmetry_cell_setting monoclinic
_symmetry_space_group_name_H-M 'C 2'
_symmetry_Int_Tables_number 5
loop_
_symmetry_equiv_pos_site_id
_symmetry_equiv_pos_as_xyz
1 x,y,z
2 -x,y,-z
3 1/2+x,1/2+y,z
4 1/2-x,1/2+y,-z
_cell_length_a 28.707(11)
_cell_length_b 14.507(6)
_cell_length_c 10.000(5)
_cell_angle_alpha 90
_cell_angle_beta 110.39
_cell_angle_gamma 90
_cell_formula_units_Z 2
loop_
_atom_type_symbol
_atom_type_radius_bond
C 0.68
H 0.23
Cd 1.59
Cl 0.99
N 0.68
O 0.68
loop_
_atom_site_label
_atom_site_type_symbol
_atom_site_fract_x
_atom_site_fract_y
_atom_site_fract_z
Cd1 Cd -0.43318(5) -0.8429(2) -0.43318(17)
Cl1 Cl -0.50008(18) -0.8424(10) -0.3213(5)
O1 O -0.4023(9) -0.7001(12) -0.347(3)
O2 O -0.3682(6) -0.7633(11) -0.491(2)
O3 O -0.1837(6) -0.2967(11) -0.3469(19)
O4 O -0.4035(9) 0.0119(13) -0.457(2)
O5 O -0.3689(6) 0.0773(11) -0.2471(17)
O6 O -0.1837(7) -0.3938(12) -0.0215(19)
O7 O -0.4217(19) 0.030(5) 0.085(5)
O8 O -0.547(3) -0.405(8) -0.631(10)
O9 O -0.50000 -0.114(4) -0.50000
O10 O 0.047(3) 0.120(9) 0.407(10)
O11 O -0.499(3) -0.474(6) -0.296(8)
C1 C -0.2476(8) -0.3775(14) -0.301(3)
C2 C -0.2148(10) -0.3694(17) -0.375(3)
C3 C -0.2114(10) -0.4345(18) -0.473(3)
H1 H -0.18840 -0.42750 -0.51830
C4 C -0.2435(10) -0.5122(18) -0.501(3)
H2 H -0.24200 -0.55580 -0.56790
C5 C -0.3072(10) -0.6038(17) -0.457(3)
H3 H -0.30380 -0.64970 -0.51800
C6 C -0.3413(9) -0.6134(18) -0.392(3)
C7 C -0.3453(10) -0.5462(16) -0.295(3)
H4 H -0.36820 -0.55410 -0.24910
C8 C -0.3153(10) -0.4685(18) -0.267(3)
H5 H -0.32000 -0.42330 -0.20690
C9 C -0.2776(9) -0.4559(16) -0.327(3)
C10 C -0.2765(8) -0.5234(15) -0.432(3)
C11 C -0.3711(10) -0.6957(17) -0.420(4)
C12 C -0.2476(8) -0.3100(13) -0.189(2)
C13 C -0.216(1) -0.3176(13) -0.056(3)
C14 C -0.2119(10) -0.2550(17) 0.053(3)
H6 H -0.19040 -0.26540 0.14570
C15 C -0.2416(9) -0.1754(17) 0.018(3)
H7 H -0.23820 -0.12930 0.08520
C16 C -0.3088(10) -0.0835(15) -0.160(3)
H8 H -0.30660 -0.03870 -0.09090
C17 C -0.3412(9) -0.0721(17) -0.292(3)
C18 C -0.3449(9) -0.1401(17) -0.392(3)
H9 H -0.36960 -0.13430 -0.48080
C19 C -0.313(1) -0.2196(18) -0.367(3)
H10 H -0.31410 -0.26060 -0.43940
C20 C -0.2792(9) -0.2318(16) -0.222(3)
C21 C -0.2763(9) -0.1666(17) -0.120(3)
C22 C -0.3708(12) 0.010(2) -0.335(4)
N1 N -0.4095(17) 0.348(3) 0.070(5)
C23 C -0.4308(18) 0.360(4) 0.180(5)
H11 H -0.46250 0.32940 0.15130
H12 H -0.43500 0.42420 0.19330
H13 H -0.40910 0.33320 0.26710
C24 C -0.438(2) 0.394(6) -0.058(5)
H14 H -0.46950 0.36330 -0.09990
H15 H -0.42050 0.39380 -0.12350
H16 H -0.44400 0.45680 -0.03620
C25 C -0.3609(16) 0.394(5) 0.123(7)
H17 H -0.34640 0.39310 0.05010
H18 H -0.33950 0.36170 0.20580
H19 H -0.36500 0.45630 0.14820
N2 N -0.334(3) -0.370(7) 0.176(10)
C26 C -0.368(4) -0.348(15) 0.030(7)
H20 H -0.35070 -0.34920 -0.03530
H21 H -0.38230 -0.28820 0.03050
H22 H -0.39450 -0.39330 0.00200
C27 C -0.366(3) -0.365(11) 0.266(9)
H23 H -0.34540 -0.37340 0.36460
H24 H -0.39020 -0.41340 0.23790
H25 H -0.38170 -0.30650 0.25340
C28 C -0.300(4) -0.289(8) 0.221(12)
H26 H -0.27820 -0.28790 0.16750
H27 H -0.28140 -0.29360 0.32060
H28 H -0.32000 -0.23410 0.20230
Cl1A Cl -0.49992(18) -0.8424(10) -0.6787(5)
O1* O -0.4023(9) -1.7001(12) -0.347(3)
O2* O -0.3682(6) -1.7633(11) -0.491(2)
O3* O -0.1837(6) -1.2967(11) -0.3469(19)
O4* O -0.4035(9) -0.9881(13) -0.457(2)
O5* O -0.3689(6) -0.9227(11) -0.2471(17)
O6* O -0.1837(7) -1.3938(12) -0.0215(19)
C1* C -0.2476(8) -1.3775(14) -0.301(3)
C2* C -0.2148(10) -1.3694(17) -0.375(3)
C3* C -0.2114(10) -1.4345(18) -0.473(3)
H1* H -0.18840 -1.42750 -0.51830
C4* C -0.2435(10) -1.5122(18) -0.501(3)
H2* H -0.24200 -1.55580 -0.56790
C5* C -0.3072(10) -1.6038(17) -0.457(3)
H3* H -0.30380 -1.64970 -0.51800
C6* C -0.3413(9) -1.6134(18) -0.392(3)
C7* C -0.3453(10) -1.5462(16) -0.295(3)
H4* H -0.36820 -1.55410 -0.24910
C8* C -0.3153(10) -1.4685(18) -0.267(3)
H5* H -0.32000 -1.42330 -0.20690
C9* C -0.2776(9) -1.4559(16) -0.327(3)
C10* C -0.2765(8) -1.5234(15) -0.432(3)
C11* C -0.3711(10) -1.6957(17) -0.420(4)
C12* C -0.2476(8) -1.3100(13) -0.189(2)
C13* C -0.216(1) -1.3176(13) -0.056(3)
C14* C -0.2119(10) -1.2550(17) 0.053(3)
H6* H -0.19040 -1.26540 0.14570
C15* C -0.2416(9) -1.1754(17) 0.018(3)
H7* H -0.23820 -1.12930 0.08520
C16* C -0.3088(10) -1.0835(15) -0.160(3)
H8* H -0.30660 -1.03870 -0.09090
C17* C -0.3412(9) -1.0721(17) -0.292(3)
C18* C -0.3449(9) -1.1401(17) -0.392(3)
H9* H -0.36960 -1.13430 -0.48080
C19* C -0.313(1) -1.2196(18) -0.367(3)
H10* H -0.31410 -1.26060 -0.43940
C20* C -0.2792(9) -1.2318(16) -0.222(3)
C21* C -0.2763(9) -1.1666(17) -0.120(3)
C22* C -0.3708(12) -0.990(2) -0.335(4)
Cd1A Cd -0.56682(5) -0.8429(2) -0.56682(17)
Cd1* Cd -0.43318(5) 0.1571(2) -0.43318(17)
Cd1** Cd -0.43318(5) -1.8429(2) -0.43318(17)
O1A O -0.5977(9) -0.7001(12) -0.653(3)
O2A O -0.6318(6) -0.7633(11) -0.509(2)
O4A O -0.5965(9) -0.9881(13) -0.543(2)
O5A O -0.6311(6) -0.9227(11) -0.7529(17)
#END
