
#######################################################################
#
#                 Cambridge Crystallographic Data Centre
#                                CCDC
#
#######################################################################
#
# If this CIF has been generated from an entry in the Cambridge
# Structural Database, then it will include bibliographic, chemical,
# crystal, experimental, refinement or atomic coordinate data resulting
# from the CCDC's data processing and validation procedures.
#
#######################################################################

data_CSD_CIF_GUXLEQ
_audit_creation_date 2003-05-28
_audit_creation_method CSD-ConQuest-V1
_database_code_CSD GUXLEQ
_database_code_depnum_ccdc_archive 'CCDC 206093'
_chemical_formula_sum 'C30 D20 Cr1 Fe1 O6 P1 S6'
_chemical_formula_moiety
;
(C24 D20 P1 1+)n,n(C6 Cr1 Fe1 O6 S6 1-)
;
_journal_coden_Cambridge 9
_journal_volume 42
_journal_year 2003
_journal_page_first 986
_journal_name_full 'Inorg.Chem. '
loop_
_publ_author_name
"J.M.Bradley"
"S.G.Carling"
"D.Visser"
"P.Day"
"D.Hautot"
"G.J.Long"
_chemical_name_systematic
;
catena-(Perdeutero-tetraphenylphosphonium 
tris(\m~2~-dithio-oxalato-O,O',S,S')-chromium(iii)-iron(ii))
;
_cell_volume   1590.582
_exptl_special_details
;
powder data

;
_diffrn_ambient_temperature 50
_diffrn_radiation_probe 'neutron radiation'
_refine_special_details
;
One of the rings of the cation is disordered by symmetry.

;
#These two values have been output from a single CSD field.
_refine_ls_R_factor_gt 0.0846
_refine_ls_wR_factor_gt 0.0846
_symmetry_cell_setting hexagonal
_symmetry_space_group_name_H-M 'P 63'
_symmetry_Int_Tables_number 173
loop_
_symmetry_equiv_pos_site_id
_symmetry_equiv_pos_as_xyz
1 x,y,z
2 x-y,x,1/2+z
3 -y,x-y,z
4 -x,-y,1/2+z
5 -x+y,-x,z
6 y,-x+y,1/2+z
_cell_length_a 10.101(2)
_cell_length_b 10.101(2)
_cell_length_c 18.001(4)
_cell_angle_alpha 90
_cell_angle_beta 90
_cell_angle_gamma 120
_cell_formula_units_Z 2
loop_
_atom_type_symbol
_atom_type_radius_bond
C 0.68
Cr 1.35
D 0.23
Fe 1.34
O 0.68
P 1.05
S 0.90
loop_
_atom_site_label
_atom_site_type_symbol
_atom_site_fract_x
_atom_site_fract_y
_atom_site_fract_z
Fe1 Fe 0.33333 0.66666 0.25332
Cr1 Cr 0.66666 0.33333 0.24668
C1 C 0.511(3) 0.565(4) 0.287(2)
C2 C 0.441(3) 0.484(4) 0.213(2)
O1 O 0.496(4) 0.662(4) 0.320(2)
O2 O 0.338(4) 0.504(4) 0.180(2)
S1 S 0.61(1) 0.49(1) 0.305(4)
S2 S 0.52(1) 0.38(1) 0.195(4)
P1 P 0.00000 0.00000 0.58(1)
C3 C 0.00000 0.00000 0.675(7)
C4 C 0.04(1) 0.10(1) 0.729(6)
C5 C 0.048(9) 0.105(9) 0.770(6)
C6 C 0.00000 0.00000 0.820(5)
C7 C 0.124(9) 0.056(9) 0.783(5)
C8 C -0.08(1) -0.14(1) 0.710(6)
D1 D 0.09(1) 0.19(1) 0.702(6)
D2 D 0.099(9) 0.199(9) 0.797(6)
D3 D 0.00000 0.00000 0.873(5)
D4 D 0.219(9) 0.100(9) 0.810(5)
D5 D -0.13(1) -0.23(1) 0.683(6)
C9 C 0.146(5) 0.144(4) 0.541(3)
C10 C 0.294(4) 0.225(4) 0.569(2)
C11 C 0.434(4) 0.348(4) 0.552(2)
C12 C 0.389(3) 0.405(3) 0.512(2)
C13 C 0.256(4) 0.391(3) 0.479(2)
C14 C 0.151(5) 0.266(3) 0.512(3)
D6 D 0.304(4) 0.156(4) 0.601(2)
D7 D 0.533(4) 0.373(4) 0.570(2)
D8 D 0.477(3) 0.498(3) 0.497(2)
D9 D 0.246(4) 0.460(3) 0.446(2)
D10 D 0.053(5) 0.241(3) 0.494(3)
C4B C -0.10(1) -0.06(1) 0.729(6)
C4D C 0.06(1) -0.04(1) 0.729(6)
C5B C -0.105(9) -0.057(9) 0.770(6)
C5D C 0.057(9) -0.048(9) 0.770(6)
C7D C -0.068(9) -0.124(9) 0.783(5)
C7B C -0.056(9) 0.068(9) 0.783(5)
C8B C 0.14(1) 0.06(1) 0.710(6)
C8D C -0.06(1) 0.08(1) 0.710(6)
D5D D -0.10(1) 0.13(1) 0.683(6)
D4B D -0.100(9) 0.119(9) 0.810(5)
D5B D 0.23(1) 0.10(1) 0.683(6)
D2D D 0.100(9) -0.099(9) 0.797(6)
D2B D -0.199(9) -0.100(9) 0.797(6)
D1D D 0.10(1) -0.09(1) 0.702(6)
D1B D -0.19(1) -0.10(1) 0.702(6)
D4D D -0.119(9) -0.219(9) 0.810(5)
C9B C -0.144(5) 0.002(4) 0.541(3)
C10B C -0.225(4) 0.069(4) 0.569(2)
C11B C -0.348(4) 0.086(4) 0.552(2)
C12B C -0.405(3) -0.016(3) 0.512(2)
C13B C -0.391(4) -0.135(3) 0.479(2)
C14B C -0.266(5) -0.115(3) 0.512(3)
D10B D -0.241(5) -0.188(3) 0.494(3)
D9B D -0.460(4) -0.214(3) 0.446(2)
D8B D -0.498(3) -0.021(3) 0.497(2)
D7B D -0.373(4) 0.160(4) 0.570(2)
D6B D -0.156(4) 0.148(4) 0.601(2)
C9D C -0.002(5) -0.146(4) 0.541(3)
C10D C -0.069(4) -0.294(4) 0.569(2)
C11D C -0.086(4) -0.434(4) 0.552(2)
C12D C 0.016(3) -0.389(3) 0.512(2)
C13D C 0.135(4) -0.256(3) 0.479(2)
C14D C 0.115(5) -0.151(3) 0.512(3)
D10D D 0.188(5) -0.053(3) 0.494(3)
D9D D 0.214(4) -0.246(3) 0.446(2)
D8D D 0.021(3) -0.477(3) 0.497(2)
D7D D -0.160(4) -0.533(4) 0.570(2)
D6D D -0.148(4) -0.304(4) 0.601(2)
C1B C 0.435(3) 0.946(4) 0.287(2)
C2B C 0.516(3) 0.957(4) 0.213(2)
O1B O 0.338(4) 0.834(4) 0.320(2)
O2B O 0.496(4) 0.834(4) 0.180(2)
S1B S 0.51(1) 1.12(1) 0.305(4)
S2B S 0.62(1) 1.14(1) 0.195(4)
C1D C 0.054(3) 0.489(4) 0.287(2)
C2D C 0.043(3) 0.559(4) 0.213(2)
O1D O 0.166(4) 0.504(4) 0.320(2)
O2D O 0.166(4) 0.662(4) 0.180(2)
S1D S -0.12(1) 0.39(1) 0.305(4)
S2D S -0.14(1) 0.48(1) 0.195(4)
S1B* S 0.51(1) 0.12(1) 0.305(4)
S1D* S 0.88(1) 0.39(1) 0.305(4)
S2B* S 0.62(1) 0.14(1) 0.195(4)
S2D* S 0.86(1) 0.48(1) 0.195(4)
Cr1* Cr 0.66666 1.33333 0.24668
Cr1** Cr -0.33334 0.33333 0.24668
#END
