
#######################################################################
#
#                 Cambridge Crystallographic Data Centre
#                                CCDC
#
#######################################################################
#
# If this CIF has been generated from an entry in the Cambridge
# Structural Database, then it will include bibliographic, chemical,
# crystal, experimental, refinement or atomic coordinate data resulting
# from the CCDC's data processing and validation procedures.
#
#######################################################################

data_CSD_CIF_GUXRAT
_audit_creation_date 2010-05-04
_audit_creation_method CSD-ConQuest-V1
_database_code_CSD GUXRAT
_database_code_depnum_ccdc_archive 'CCDC 734542'
_chemical_formula_sum 'C46 H52 N4 O15 Zn2'
_chemical_formula_moiety
;
(C35 H19 O10 Zn2 1-)n,n(C2 H8 N1 1+),3n(C3 H7 N1 O1),2n(H2 O1)
;
_journal_coden_Cambridge 1147
_journal_volume 9
_journal_year 2009
_journal_page_first 2415
_journal_name_full 'Cryst.Growth Des. '
loop_
_publ_author_name
"Lei Hou"
"Jie-Peng Zhang"
"Xiao-Ming Chen"
_chemical_name_systematic
;
catena-(Dimethylammonium 
(\m~6~-benzene-1,3,5-tris(4-benzoato))-bis(\m~2~-1,4-benzenedicarboxylato-O,O'
)-di-zinc dimethylformamide solvate dihydrate)
;
_chemical_name_common
;
MCF-26
;
_cell_volume   6692.394
_exptl_crystal_colour 'pale-yellow'
_exptl_crystal_description 'prism'
_diffrn_ambient_temperature 295
_refine_special_details
;
The SQUEEZE/PLATON program has been used to model the disordered solvent.

;
#These two values have been output from a single CSD field.
_refine_ls_R_factor_gt 0.0601
_refine_ls_wR_factor_gt 0.0601
_symmetry_cell_setting hexagonal
_symmetry_space_group_name_H-M 'P 65 2 2'
_symmetry_Int_Tables_number 179
loop_
_symmetry_equiv_pos_site_id
_symmetry_equiv_pos_as_xyz
1 x,y,z
2 x-y,x,5/6+z
3 -y,x-y,2/3+z
4 -x,-y,1/2+z
5 -x+y,-x,1/3+z
6 y,-x+y,1/6+z
7 -y,-x,1/6-z
8 x-y,-y,-z
9 x,x-y,5/6-z
10 y,x,2/3-z
11 -x+y,y,1/2-z
12 -x,-x+y,1/3-z
_cell_length_a 16.5748(7)
_cell_length_b 16.5748(7)
_cell_length_c 28.129(2)
_cell_angle_alpha 90
_cell_angle_beta 90
_cell_angle_gamma 120
_cell_formula_units_Z 6
loop_
_atom_type_symbol
_atom_type_radius_bond
C 0.68
H 0.23
O 0.68
Zn 1.22
loop_
_atom_site_label
_atom_site_type_symbol
_atom_site_fract_x
_atom_site_fract_y
_atom_site_fract_z
Zn1 Zn 0.50631(5) 0.49813(5) 0.14223(2)
C1 C 0.3359(5) 0.4194(5) 0.0859(3)
C2 C 0.2320(2) 0.3699(4) 0.08385(17)
C3 C 0.1841(3) 0.3789(4) 0.04552(15)
H1 H 0.21670 0.42020 0.02100
C4 C 0.0875(3) 0.3263(4) 0.04380(15)
H2 H 0.05540 0.33230 0.01820
C5 C 0.0387(2) 0.2646(3) 0.08040(17)
C6 C 0.0865(3) 0.2556(4) 0.11872(15)
H3 H 0.05390 0.21430 0.14320
C7 C 0.1832(3) 0.3083(4) 0.12045(15)
H4 H 0.21520 0.30230 0.14610
C8 C -0.0642(4) 0.2139(4) 0.0806(2)
C9 C -0.1162(3) 0.1162(3) 0.08330
H5 H -0.08380 0.08380 0.08330
C10 C -0.1128(4) 0.2590(4) 0.0791(2)
H6 H -0.08110 0.32330 0.07520
C11 C -0.2109(3) 0.2109(3) 0.08330
C12 C -0.2626(3) 0.2626(3) 0.08330
C13 C -0.2382(6) 0.3363(6) 0.0521(3)
H7 H -0.18880 0.35510 0.03100
C14 C -0.2901(6) 0.3808(6) 0.0535(3)
H8 H -0.27450 0.42880 0.03180
C15 C -0.3609(4) 0.3609(4) 0.08330
C16 C -0.4129(4) 0.4129(4) 0.08330
C17 C 0.5628(6) 0.5553(8) 0.2317(3)
C18 C 0.5560(8) 0.5504(8) 0.2846(3)
C19 C 0.6298(9) 0.6272(9) 0.3090(2)
H9 H 0.67890 0.67470 0.29220
C20 C 0.4845(8) 0.4792(9) 0.3083(3)
H10 H 0.43960 0.42750 0.29190
O1 O 0.3721(3) 0.4218(4) 0.12312(19)
O2 O 0.3776(4) 0.4577(4) 0.04896(18)
O3 O -0.4445(5) 0.4192(5) 0.12219(18)
O4 O 0.4973(4) 0.4943(4) 0.2108(2)
O5 O 0.6342(8) 0.5894(11) 0.2084(3)
Zn1F Zn -0.49813(5) -0.50631(5) 0.024437(20)
Zn1F* Zn 0.50187(5) 0.49369(5) 0.024437(20)
Zn1* Zn -0.49369(5) 0.49813(5) 0.14223(2)
Zn1** Zn -0.49369(5) -0.50187(5) 0.14223(2)
Zn1F** Zn -0.49813(5) 0.49369(5) 0.024437(20)
Zn1I Zn 0.49813(5) 0.50631(5) 0.524437(20)
C1F C -0.4194(5) -0.3359(5) 0.080767(300)
C2F C -0.3699(2) -0.2320(4) 0.082817(170)
C3F C -0.3789(3) -0.1841(4) 0.121147(150)
H1F H -0.42020 -0.21670 0.14567
C4F C -0.3263(3) -0.0875(4) 0.122867(150)
H2F H -0.33230 -0.05540 0.14847
C5F C -0.2646(2) -0.0387(3) 0.086267(170)
C6F C -0.2556(3) -0.0865(4) 0.047947(150)
H3F H -0.21430 -0.05390 0.02347
C7F C -0.3083(3) -0.1832(4) 0.046217(150)
H4F H -0.30230 -0.21520 0.02057
C8F C -0.2139(4) 0.0642(4) 0.086067(200)
C10F C -0.2590(4) 0.1128(4) 0.087567(200)
H6F H -0.32330 0.08110 0.09147
C13F C -0.3363(6) 0.2382(6) 0.114567(300)
H7F H -0.35510 0.18880 0.13567
C14F C -0.3808(6) 0.2901(6) 0.113167(300)
H8F H -0.42880 0.27450 0.13487
C17I C 0.5553(6) 0.5628(8) 0.434967(300)
C18I C 0.5504(8) 0.5560(8) 0.382067(300)
C19I C 0.6272(9) 0.6298(9) 0.357667(200)
H9I H 0.67470 0.67890 0.37447
C20I C 0.4792(8) 0.4845(9) 0.358367(300)
H10I H 0.42750 0.43960 0.37477
O1F O -0.4218(3) -0.3721(4) 0.043547(190)
O2F O -0.4577(4) -0.3776(4) 0.117707(180)
O2F* O 0.5423(4) 0.6224(4) 0.117707(180)
O2* O -0.6224(4) -0.5423(4) 0.04896(18)
O3F O -0.4192(5) 0.4445(5) 0.044477(180)
O3* O 0.5555(5) 0.4192(5) 0.12219(18)
O3F* O -0.4192(5) -0.5555(5) 0.044477(180)
O4I O 0.4943(4) 0.4973(4) 0.455867(200)
O4F O -0.4943(4) -0.4973(4) -0.044133(200)
O5I O 0.5894(8) 0.6342(11) 0.458267(300)
#END
