
#######################################################################
#
#                 Cambridge Crystallographic Data Centre
#                                CCDC
#
#######################################################################
#
# If this CIF has been generated from an entry in the Cambridge
# Structural Database, then it will include bibliographic, chemical,
# crystal, experimental, refinement or atomic coordinate data resulting
# from the CCDC's data processing and validation procedures.
#
#######################################################################

data_CSD_CIF_GUXSIC
_audit_creation_date 2010-05-04
_audit_creation_method CSD-ConQuest-V1
_database_code_CSD GUXSIC
_database_code_depnum_ccdc_archive 'CCDC 685774'
_chemical_formula_sum 'C16 H15 Er1 N3 O8.5'
_chemical_formula_moiety
;
(C14 H6 Er1 N2 O8 1-)n,n(C2 H8 N1 1+),0.5n(H2 O1)
;
_journal_coden_Cambridge 1147
_journal_volume 9
_journal_year 2009
_journal_page_first 2098
_journal_name_full 'Cryst.Growth Des. '
loop_
_publ_author_name
"Fa-Nian Shi"
"L.Cunha-Silva"
"T.Trindade"
"F.A.A.Paz"
"J.Rocha"
_chemical_name_systematic
;
catena-(Dimethylammonium 
bis(\m~3~-pyridine-2,5-dicarboxylato-N,O,O',O'')-erbium(iii) hydrate)
;
_cell_volume   8248.314
_exptl_crystal_colour 'pink'
_exptl_crystal_density_diffrn 1.78
_exptl_crystal_description 'prism'
_diffrn_ambient_temperature 100
_refine_special_details
;
The structure contains additional water molecules, which were taken into 
account using PLATON/SQUEEZE.
;
#These two values have been output from a single CSD field.
_refine_ls_R_factor_gt 0.0235
_refine_ls_wR_factor_gt 0.0235
_symmetry_cell_setting orthorhombic
_symmetry_space_group_name_H-M 'F d d d'
_symmetry_Int_Tables_number 70
loop_
_symmetry_equiv_pos_site_id
_symmetry_equiv_pos_as_xyz
1 x,y,z
2 1/4-x,1/4-y,z
3 x,1/4-y,1/4-z
4 1/4-x,y,1/4-z
5 x,1/2+y,1/2+z
6 1/4-x,3/4-y,1/2+z
7 x,3/4-y,3/4-z
8 1/4-x,1/2+y,3/4-z
9 1/2+x,y,1/2+z
10 3/4-x,1/4-y,1/2+z
11 1/2+x,1/4-y,3/4-z
12 3/4-x,y,3/4-z
13 1/2+x,1/2+y,z
14 3/4-x,3/4-y,z
15 1/2+x,3/4-y,1/4-z
16 3/4-x,1/2+y,1/4-z
17 -x,-y,-z
18 -1/4+x,-1/4+y,-z
19 -x,-1/4+y,-1/4+z
20 -1/4+x,-y,-1/4+z
21 -x,-1/2-y,-1/2-z
22 -1/4+x,-3/4+y,-1/2-z
23 -x,-3/4+y,-3/4+z
24 -1/4+x,-1/2-y,-3/4+z
25 -1/2-x,-y,-1/2-z
26 -3/4+x,-1/4+y,-1/2-z
27 -1/2-x,-1/4+y,-3/4+z
28 -3/4+x,-y,-3/4+z
29 -1/2-x,-1/2-y,-z
30 -3/4+x,-3/4+y,-z
31 -1/2-x,-3/4+y,-1/4+z
32 -3/4+x,-1/2-y,-1/4+z
_cell_length_a 26.4473(16)
_cell_length_b 17.9442(10)
_cell_length_c 17.3804(11)
_cell_angle_alpha 90
_cell_angle_beta 90
_cell_angle_gamma 90
_cell_formula_units_Z 16
loop_
_atom_type_symbol
_atom_type_radius_bond
C 0.68
H 0.23
Er 1.89
N 0.68
O 0.68
loop_
_atom_site_label
_atom_site_type_symbol
_atom_site_fract_x
_atom_site_fract_y
_atom_site_fract_z
Er1 Er -0.12500 0.37500 0.502830(12)
O1 O -0.07023(12) 0.30226(19) 0.43530(19)
O2 O -0.07425(12) 0.28598(18) 0.30908(18)
O3 O 0.11390(11) 0.02876(17) 0.33944(18)
O4 O 0.0675(2) -0.0369(4) 0.4195(5)
N1 N 0.04608(13) 0.13568(19) 0.33308(19)
C1 C -0.05963(15) 0.2690(2) 0.3750(3)
C2 C -0.02601(17) 0.2018(3) 0.3812(3)
C3 C 0.01407(16) 0.1929(2) 0.3321(2)
H1 H 0.01930 0.22970 0.29530
C4 C -0.0334(3) 0.1478(5) 0.4343(5)
H2 H -0.05950 0.15140 0.46990
C5 C -0.0014(3) 0.0876(6) 0.4345(6)
H3 H -0.00670 0.04920 0.46950
C6 C 0.0383(2) 0.0834(4) 0.3842(4)
C7 C 0.0758(2) 0.0191(4) 0.3815(4)
N2 N 0.1499(3) 0.87500 0.37500
H4 H 0.12970 0.91440 0.36610
C8 C 0.1774(3) 0.8896(4) 0.4438(4)
H5 H 0.20910 0.86370 0.44220
H6 H 0.15810 0.87280 0.48730
H7 H 0.18340 0.94220 0.44820
O5 O 0.12500 0.958(3) 0.62500
Er1F Er -0.12500 0.37500 0.247170(12)
Er1R Er 0.12500 0.12500 0.252830(12)
Er1P Er 0.12500 0.62500 0.497170(12)
O1F O -0.07023(12) 0.44774(19) 0.31470(19)
O1M O -0.17977(12) 0.44774(19) 0.43530(19)
O2F O -0.07425(12) 0.46402(18) 0.44092(18)
O2K O -0.17575(12) 0.28598(18) 0.44092(18)
O3F O 0.11390(11) 0.72124(17) 0.41056(18)
O3V O -0.11390(11) 0.27876(17) 0.58944(18)
O3W O -0.13610(11) 0.47124(17) 0.58944(18)
O4F O 0.0675(2) 0.7869(4) 0.3305(5)
N1F N 0.04608(13) 0.61432(19) 0.41692(19)
N1V N -0.04608(13) 0.38568(19) 0.58308(19)
N1W N -0.20392(13) 0.36432(19) 0.58308(19)
C1F C -0.05963(15) 0.4810(2) 0.3750(3)
C2F C -0.02601(17) 0.5482(3) 0.3688(3)
C3F C 0.01407(16) 0.5571(2) 0.4179(2)
H1F H 0.01930 0.52030 0.45470
C4F C -0.0334(3) 0.6022(5) 0.3157(5)
H2F H -0.05950 0.59860 0.28010
C5F C -0.0014(3) 0.6624(6) 0.3155(6)
H3F H -0.00670 0.70080 0.28050
C6F C 0.0383(2) 0.6666(4) 0.3658(4)
C7F C 0.0758(2) 0.7309(4) 0.3685(4)
H4F H 0.12970 0.83560 0.38390
C8F C 0.1774(3) 0.8604(4) 0.3062(4)
H5F H 0.20910 0.88630 0.30780
H6F H 0.15810 0.87720 0.26270
H7F H 0.18340 0.80780 0.30180
#END
