
#######################################################################
#
#                 Cambridge Crystallographic Data Centre
#                                CCDC
#
#######################################################################
#
# If this CIF has been generated from an entry in the Cambridge
# Structural Database, then it will include bibliographic, chemical,
# crystal, experimental, refinement or atomic coordinate data resulting
# from the CCDC's data processing and validation procedures.
#
#######################################################################

data_CSD_CIF_GUXZOR
_audit_creation_date 2020-07-15
_audit_creation_method CSD-ConQuest-V1
_database_code_CSD GUXZOR
_database_code_depnum_ccdc_archive 'CCDC 1977824'
_chemical_formula_sum 'C96 H236 Cd14 O276 Sb48'
_chemical_formula_moiety
;
(C96 H78 Cd14 O204 Sb48 14-)n,14n(H3 O1 1+),58n(H2 O1)
;
_journal_coden_Cambridge 1440
_journal_volume 12
_journal_year 2020
_journal_page_first 26222
_journal_name_full 'ACS Applied Materials and Interfaces '
loop_
_publ_author_name
"Wen Ma"
"Bing Hu"
"Ji-Long Li"
"Zhi-Zhuan Zhang"
"Xi Zeng"
"Jiance Jin"
"Zhong Li"
"Shou-Tian Zheng"
"Mei-Ling Feng"
"Xiao-Ying Huang"
_chemical_name_systematic
;
catena-(tetradecakis(oxonium) 
octatetracontakis(\m-oxo)-octadecakis(\m-tartrato)-hexakis(\m-hydrogen 
tartrato)-dodeca-aqua-octatetraconta-antimony-tetradeca-cadmium 
octapentacontahydrate)
;
_chemical_name_common
;
FJSM-CA
;
_cell_volume  17041.466
_exptl_crystal_colour 'colorless'
_exptl_crystal_density_diffrn 2.577
_exptl_special_details
;
Absolute configuration

;
_exptl_crystal_description 'sheet'
_diffrn_ambient_temperature 100
_diffrn_special_details
;
twin

;
_refine_special_details
;
The SQUEEZE/PLATON program was used to model the disordered cations and water 
molecules.
;
#These two values have been output from a single CSD field.
_refine_ls_R_factor_gt 0.053
_refine_ls_wR_factor_gt 0.053
_symmetry_cell_setting hexagonal
_symmetry_space_group_name_H-M 'P 63'
_symmetry_Int_Tables_number 173
loop_
_symmetry_equiv_pos_site_id
_symmetry_equiv_pos_as_xyz
1 x,y,z
2 x-y,x,1/2+z
3 -y,x-y,z
4 -x,-y,1/2+z
5 -x+y,-x,z
6 y,-x+y,1/2+z
_cell_length_a 24.7997(5)
_cell_length_b 24.7997(5)
_cell_length_c 31.9951(14)
_cell_angle_alpha 90
_cell_angle_beta 90
_cell_angle_gamma 120
_cell_formula_units_Z 2
loop_
_atom_type_symbol
_atom_type_radius_bond
C 0.68
H 0.23
Cd 1.44
O 0.68
Sb 1.39
loop_
_atom_site_label
_atom_site_type_symbol
_atom_site_fract_x
_atom_site_fract_y
_atom_site_fract_z
Cd1 Cd 0.28001(17) 0.35822(15) 0.35212(9)
Cd2 Cd 0.00000 0.00000 0.40566(9)
Cd3 Cd 0.17104(9) 0.04469(10) 0.42665(6)
Cd4 Cd 0.62165(13) 0.59183(15) 0.20286(10)
Cd5 Cd 0.33333 0.66667 0.15635(10)
Cd6 Cd 0.50354(10) 0.79459(9) 0.13431(6)
Sb1 Sb -0.01038(11) 0.09356(10) 0.31379(6)
Sb2 Sb 0.11169(9) 0.14746(8) 0.39029(6)
Sb3 Sb 0.11252(9) 0.11299(10) 0.49366(5)
Sb4 Sb 0.16163(10) -0.09276(10) 0.44883(8)
Sb5 Sb 0.30845(10) 0.03177(10) 0.47081(8)
Sb6 Sb 0.24115(9) 0.10806(10) 0.53138(6)
Sb7 Sb 0.25664(11) 0.12540(12) 0.34340(7)
Sb8 Sb 0.33264(9) 0.18398(10) 0.43888(7)
Sb9 Sb 0.3275(1) 0.56154(9) 0.24715(5)
Sb10 Sb 0.44689(9) 0.63308(9) 0.17025(6)
Sb11 Sb 0.44523(9) 0.66794(10) 0.06733(5)
Sb12 Sb 0.57274(9) 0.80107(10) 0.02901(6)
Sb13 Sb 0.66441(9) 0.8179(1) 0.12147(6)
Sb14 Sb 0.59281(9) 0.80344(10) 0.21832(6)
Sb15 Sb 0.49231(10) 0.92149(9) 0.11095(6)
Sb16 Sb 0.63943(9) 0.94490(9) 0.08841(6)
O1 O 0.1769(15) 0.3222(16) 0.3665(8)
O2 O 0.1939(12) 0.3294(13) 0.3042(7)
O3 O 0.0602(12) 0.2637(10) 0.3619(6)
H1 H 0.02176 0.24986 0.35945
O4 O 0.0676(11) 0.1760(11) 0.3117(7)
O5 O -0.0348(10) 0.1554(9) 0.2752(6)
O6 O -0.0025(18) 0.2532(17) 0.2592(10)
O7 O 0.1743(11) 0.1769(11) 0.5437(6)
O8 O 0.2380(12) 0.2789(13) 0.5544(8)
O9 O 0.1704(9) 0.1905(9) 0.4639(6)
O10 O 0.2915(11) 0.2121(11) 0.4804(7)
O11 O 0.3252(11) 0.2625(11) 0.4068(7)
O12 O 0.2814(13) 0.3219(12) 0.4177(8)
O13 O 0.1599(11) 0.0553(11) 0.5723(6)
O14 O 0.1028(17) -0.0450(17) 0.6019(11)
O15 O 0.2342(9) 0.0249(11) 0.5396(6)
O16 O 0.1350(11) -0.083(1) 0.5043(6)
O17 O 0.2274(13) -0.0983(14) 0.5012(8)
O18 O 0.2325(17) -0.1076(16) 0.5688(9)
O19 O 0.3192(13) -0.0311(13) 0.4233(8)
O20 O 0.3499(17) -0.0321(17) 0.3584(11)
O21 O 0.3517(11) 0.0854(11) 0.4214(7)
O22 O 0.2858(12) 0.0659(12) 0.3482(7)
O23 O 0.3646(14) 0.1868(15) 0.3522(9)
O24 O 0.4452(13) 0.1776(17) 0.3399(11)
O25 O 0.3027(18) 0.4485(16) 0.3911(10)
H2 H 0.33272 0.48849 0.38103
H3 H 0.28173 0.44470 0.41670
O26 O 0.2837(14) 0.2770(13) 0.3246(9)
H4 H 0.31035 0.28313 0.30154
H5 H 0.25867 0.23656 0.33594
O27 O -0.0552(8) 0.1153(9) 0.3564(5)
O28 O 0.039(1) 0.0807(9) 0.3589(5)
O29 O 0.0956(8) 0.0792(8) 0.4301(5)
O30 O 0.1736(9) 0.083(1) 0.4925(5)
O31 O 0.2997(11) 0.1099(11) 0.4804(7)
O32 O 0.2578(10) 0.1303(10) 0.4048(6)
O33 O 0.2258(12) -0.0042(12) 0.4452(7)
O34 O 0.1060(9) -0.0601(9) 0.4267(5)
O35 O 0.3489(12) 0.4205(11) 0.3063(7)
O36 O 0.3091(10) 0.4787(10) 0.2865(6)
O37 O 0.4069(10) 0.5605(11) 0.2501(6)
O38 O 0.3995(13) 0.4718(13) 0.1940(8)
H6 H 0.36141 0.44551 0.19594
O39 O 0.5292(19) 0.509(2) 0.2443(11)
O40 O 0.5123(15) 0.5581(15) 0.1930(9)
O41 O 0.6195(13) 0.6289(11) 0.1376(7)
O42 O 0.6539(11) 0.7282(10) 0.1532(7)
O43 O 0.6236(10) 0.7530(11) 0.0781(6)
O44 O 0.5079(10) 0.6518(9) 0.0947(6)
O45 O 0.5047(10) 0.6671(10) 0.0148(5)
O46 O 0.5687(11) 0.6348(12) -0.0029(7)
O47 O 0.6997(10) 0.8526(11) 0.2085(6)
O48 O 0.7823(12) 0.9405(13) 0.2117(7)
O49 O 0.6172(10) 0.8951(11) 0.2154(6)
O50 O 0.689(1) 0.9409(10) 0.1372(6)
O51 O 0.645(1) 1.0198(9) 0.1341(6)
O52 O 0.6686(12) 1.0478(11) 0.2008(7)
O53 O 0.5602(11) 0.9959(11) 0.0612(7)
O54 O 0.5699(14) 1.0149(15) -0.0068(7)
O55 O 0.4637(10) 0.8830(11) 0.0524(6)
O56 O 0.5658(10) 0.8804(10) 0.0216(6)
O57 O 0.4864(11) 0.7729(11) -0.0156(6)
O58 O 0.4233(14) 0.7975(19) -0.0345(11)
O59 O 0.652(2) 0.5409(17) 0.2622(10)
H7 H 0.66925 0.55977 0.28767
H8 H 0.64419 0.50074 0.25681
O60 O 0.6405(17) 0.6824(19) 0.2298(11)
H9 H 0.64369 0.71450 0.21191
H10 H 0.64544 0.68903 0.25910
O61 O 0.2848(8) 0.4978(8) 0.2066(5)
O62 O 0.3745(9) 0.6247(9) 0.2000(5)
O63 O 0.4295(8) 0.6849(8) 0.1302(5)
O64 O 0.5024(9) 0.7600(9) 0.0687(5)
O65 O 0.6290(8) 0.8579(9) 0.0784(5)
O66 O 0.4391(9) 0.8318(9) 0.1340(5)
O67 O 0.5573(10) 0.8982(10) 0.1142(5)
O68 O 0.5890(8) 0.7938(9) 0.1583(5)
C1 C 0.1553(12) 0.3019(14) 0.3320(7)
C2 C 0.0883(13) 0.2788(15) 0.3219(9)
H11 H 0.08441 0.31404 0.31015
C3 C 0.0696(15) 0.2288(15) 0.288(1)
H12 H 0.09962 0.24286 0.26413
C4 C 0.0053(13) 0.2114(13) 0.2747(10)
C5 C 0.2092(15) 0.2319(12) 0.5322(10)
C6 C 0.2185(13) 0.2435(15) 0.4875(8)
H13 H 0.21339 0.28014 0.48128
C7 C 0.2807(14) 0.2594(15) 0.4742(9)
H14 H 0.31065 0.29472 0.49221
C8 C 0.2951(13) 0.2816(13) 0.4286(8)
C9 C 0.1428(17) -0.0007(14) 0.5805(11)
C10 C 0.1919(15) -0.0167(14) 0.5668(10)
H15 H 0.21445 -0.01883 0.59214
C11 C 0.1603(18) -0.0806(17) 0.5452(12)
H16 H 0.12627 -0.11140 0.56368
C12 C 0.2067(15) -0.1027(17) 0.5374(8)
C13 C 0.3346(18) -0.0080(16) 0.3875(10)
C14 C 0.363(2) 0.0622(17) 0.3872(13)
H17 H 0.40933 0.07943 0.38689
C15 C 0.3480(15) 0.0835(15) 0.3463(10)
H18 H 0.35523 0.06216 0.32224
C16 C 0.3876(16) 0.1536(15) 0.3411(16)
C17 C 0.3503(12) 0.4688(13) 0.2873(8)
C18 C 0.4099(11) 0.5104(12) 0.2646(7)
H19 H 0.44364 0.52678 0.28617
C19 C 0.4279(13) 0.4777(13) 0.2320(8)
H20 H 0.41805 0.43576 0.24247
C20 C 0.4958(14) 0.5146(17) 0.2186(11)
C21 C 0.6315(16) 0.6820(12) 0.1283(8)
C22 C 0.6169(13) 0.6915(14) 0.0831(8)
H21 H 0.64682 0.68800 0.06386
C23 C 0.5514(11) 0.6420(13) 0.0717(7)
H22 H 0.54512 0.59957 0.07759
C24 C 0.5422(12) 0.6491(13) 0.0252(7)
C25 C 0.7239(13) 0.9046(14) 0.2114(8)
C26 C 0.6847(14) 0.9360(14) 0.2132(8)
H23 H 0.69776 0.96312 0.23855
C27 C 0.7010(16) 0.9794(14) 0.1741(8)
H24 H 0.74677 1.00947 0.17497
C28 C 0.6685(16) 1.0177(16) 0.1685(7)
C29 C 0.5465(15) 0.9793(14) 0.0234(12)
C30 C 0.4899(11) 0.9129(10) 0.0197(6)
H25 H 0.45807 0.91371 0.00090
C31 C 0.5219(13) 0.8820(13) -0.0033(9)
H26 H 0.54485 0.90975 -0.02737
C32 C 0.4776(13) 0.8183(12) -0.0218(9)
Cd1B Cd -0.35822(17) -0.07821(15) 0.35212(9)
Cd3B Cd -0.04469(9) 0.12635(10) 0.42665(6)
Cd4B Cd -0.59183(13) 0.02982(15) 0.20286(10)
Cd6B Cd -0.79459(10) -0.29105(9) 0.13431(6)
Sb1B Sb -0.09356(11) -0.10394(10) 0.31379(6)
Sb2B Sb -0.14746(9) -0.03577(8) 0.39029(6)
Sb3B Sb -0.11299(9) -0.00047(10) 0.49366(5)
Sb4B Sb 0.09276(10) 0.25439(10) 0.44883(8)
Sb5B Sb -0.03177(10) 0.27668(10) 0.47081(8)
Sb6B Sb -0.10806(9) 0.13309(10) 0.53138(6)
Sb7B Sb -0.12540(11) 0.13124(12) 0.34340(7)
Sb8B Sb -0.18398(9) 0.14866(10) 0.43888(7)
Sb9B Sb -0.56154(10) -0.23404(9) 0.24715(5)
Sb10B Sb -0.63308(9) -0.18619(9) 0.17025(6)
Sb11B Sb -0.66794(9) -0.22271(10) 0.06733(5)
Sb12B Sb -0.80107(9) -0.22833(10) 0.02901(6)
Sb13B Sb -0.81790(9) -0.15349(10) 0.12147(6)
Sb14B Sb -0.80344(9) -0.21063(10) 0.21832(6)
Sb15B Sb -0.92149(10) -0.42918(9) 0.11095(6)
Sb16B Sb -0.94490(9) -0.30547(9) 0.08841(6)
O1B O -0.3222(15) -0.1453(16) 0.3665(8)
O2B O -0.3294(12) -0.1355(13) 0.3042(7)
O3B O -0.2637(12) -0.2035(10) 0.3619(6)
H1B H -0.24986 -0.22810 0.35945
O4B O -0.1760(11) -0.1084(11) 0.3117(7)
O5B O -0.1554(10) -0.1902(9) 0.2752(6)
O6B O -0.2532(18) -0.2557(17) 0.2592(10)
O7B O -0.1769(11) -0.0026(11) 0.5437(6)
O8B O -0.2789(12) -0.0409(13) 0.5544(8)
O9B O -0.1905(9) -0.0201(9) 0.4639(6)
O10B O -0.2121(11) 0.0794(11) 0.4804(7)
O11B O -0.2625(11) 0.0627(11) 0.4068(7)
O12B O -0.3219(13) -0.0405(12) 0.4177(8)
O13B O -0.0553(11) 0.1046(11) 0.5723(6)
O14B O 0.0450(17) 0.1478(17) 0.6019(11)
O15B O -0.0249(9) 0.2093(11) 0.5396(6)
O16B O 0.0830(11) 0.218(1) 0.5043(6)
O17B O 0.0983(13) 0.3257(14) 0.5012(8)
O18B O 0.1076(17) 0.3401(16) 0.5688(9)
O19B O 0.0311(13) 0.3503(13) 0.4233(8)
O20B O 0.0321(17) 0.3820(17) 0.3584(11)
O21B O -0.0854(11) 0.2663(11) 0.4214(7)
O22B O -0.0659(12) 0.2199(12) 0.3482(7)
O23B O -0.1868(14) 0.1778(15) 0.3522(9)
O24B O -0.1776(13) 0.2676(17) 0.3399(11)
O25B O -0.4485(18) -0.1458(16) 0.3911(10)
H2B H -0.48849 -0.15577 0.38103
H3B H -0.44470 -0.16296 0.41670
O26B O -0.2770(14) 0.0067(13) 0.3246(9)
H4B H -0.28313 0.02723 0.30154
H5B H -0.23656 0.02212 0.33594
O27B O -0.1153(8) -0.1705(9) 0.3564(5)
O28B O -0.0807(10) -0.0417(9) 0.3589(5)
O29B O -0.0792(8) 0.0164(8) 0.4301(5)
O30B O -0.0830(9) 0.0906(10) 0.4925(5)
O31B O -0.1099(11) 0.1898(11) 0.4804(7)
O32B O -0.1303(10) 0.1275(10) 0.4048(6)
O33B O 0.0042(12) 0.2300(12) 0.4452(7)
O34B O 0.0601(9) 0.1661(9) 0.4267(5)
O35B O -0.4205(12) -0.0716(11) 0.3063(7)
O36B O -0.4787(10) -0.1696(10) 0.2865(6)
O37B O -0.5605(10) -0.1536(11) 0.2501(6)
O38B O -0.4718(13) -0.0723(13) 0.1940(8)
H6B H -0.44551 -0.08410 0.19594
O39B O -0.5090(19) 0.0202(20) 0.2443(11)
O40B O -0.5581(15) -0.0458(15) 0.1930(9)
O41B O -0.6289(13) -0.0094(11) 0.1376(7)
O42B O -0.7282(11) -0.0743(10) 0.1532(7)
O43B O -0.753(1) -0.1294(11) 0.0781(6)
O44B O -0.6518(10) -0.1439(9) 0.0947(6)
O45B O -0.6671(10) -0.1624(10) 0.0148(5)
O46B O -0.6348(11) -0.0661(12) -0.0029(7)
O47B O -0.8526(10) -0.1529(11) 0.2085(6)
O48B O -0.9405(12) -0.1582(13) 0.2117(7)
O49B O -0.8951(10) -0.2779(11) 0.2154(6)
O50B O -0.9409(10) -0.2519(10) 0.1372(6)
O51B O -1.0198(10) -0.3748(9) 0.1341(6)
O52B O -1.0478(12) -0.3792(11) 0.2008(7)
O53B O -0.9959(11) -0.4357(11) 0.0612(7)
O54B O -1.0149(14) -0.4450(15) -0.0068(7)
O55B O -0.883(1) -0.4193(11) 0.0524(6)
O56B O -0.8804(10) -0.3146(10) 0.0216(6)
O57B O -0.7729(11) -0.2865(11) -0.0156(6)
O58B O -0.7975(14) -0.3742(19) -0.0345(11)
O59B O -0.5409(20) 0.1111(17) 0.2622(10)
H7B H -0.55977 0.10947 0.28767
H8B H -0.50074 0.14344 0.25681
O60B O -0.6824(17) -0.0419(19) 0.2298(11)
H9B H -0.71450 -0.07081 0.21191
H10B H -0.68903 -0.04359 0.25910
O61B O -0.4978(8) -0.2130(8) 0.2066(5)
O62B O -0.6247(9) -0.2502(9) 0.2000(5)
O63B O -0.6849(8) -0.2554(8) 0.1302(5)
O64B O -0.7600(9) -0.2576(9) 0.0687(5)
O65B O -0.8579(8) -0.2289(9) 0.0784(5)
O66B O -0.8318(9) -0.3927(9) 0.1340(5)
O67B O -0.8982(10) -0.3409(10) 0.1142(5)
O68B O -0.7938(8) -0.2048(9) 0.1583(5)
C1B C -0.3019(12) -0.1466(14) 0.3320(7)
C2B C -0.2788(13) -0.1905(15) 0.3219(9)
H11B H -0.31404 -0.22963 0.31015
C3B C -0.2288(15) -0.1592(15) 0.288(1)
H12B H -0.24286 -0.14324 0.26413
C4B C -0.2114(13) -0.2061(13) 0.2747(10)
C5B C -0.2319(15) -0.0227(12) 0.5322(10)
C6B C -0.2435(13) -0.0250(15) 0.4875(8)
H13B H -0.28014 -0.06675 0.48128
C7B C -0.2594(14) 0.0213(15) 0.4742(9)
H14B H -0.29472 0.01593 0.49221
C8B C -0.2816(13) 0.0135(13) 0.4286(8)
C9B C 0.0007(17) 0.1435(14) 0.5805(11)
C10B C 0.0167(15) 0.2086(14) 0.5668(10)
H15B H 0.01883 0.23328 0.59214
C11B C 0.0806(18) 0.2409(17) 0.5452(12)
H16B H 0.11140 0.23768 0.56368
C12B C 0.1027(15) 0.3094(17) 0.5374(8)
C13B C 0.0080(18) 0.3426(16) 0.3875(10)
C14B C -0.0622(20) 0.3008(17) 0.3872(13)
H17B H -0.07943 0.32991 0.38689
C15B C -0.0835(15) 0.2645(15) 0.3463(10)
H18B H -0.06216 0.29307 0.32224
C16B C -0.1536(16) 0.2340(15) 0.3411(16)
C17B C -0.4688(12) -0.1185(13) 0.2873(8)
C18B C -0.5104(11) -0.1005(12) 0.2646(7)
H19B H -0.52678 -0.08314 0.28617
C19B C -0.4777(13) -0.0498(13) 0.2320(8)
H20B H -0.43576 -0.01771 0.24247
C20B C -0.5146(14) -0.0188(17) 0.2186(11)
C21B C -0.6820(16) -0.0505(12) 0.1283(8)
C22B C -0.6915(13) -0.0746(14) 0.0831(8)
H21B H -0.68800 -0.04118 0.06386
C23B C -0.6420(11) -0.0906(13) 0.0717(7)
H22B H -0.59957 -0.05446 0.07759
C24B C -0.6491(12) -0.1069(13) 0.0252(7)
C25B C -0.9046(13) -0.1807(14) 0.2114(8)
C26B C -0.9360(14) -0.2513(14) 0.2132(8)
H23B H -0.96312 -0.26537 0.23855
C27B C -0.9794(16) -0.2784(14) 0.1741(8)
H24B H -1.00947 -0.26271 0.17497
C28B C -1.0177(16) -0.3492(16) 0.1685(7)
C29B C -0.9793(15) -0.4328(14) 0.0234(12)
C30B C -0.9129(11) -0.423(1) 0.0197(6)
H25B H -0.91371 -0.45564 0.00090
C31B C -0.8820(13) -0.3601(13) -0.0033(9)
H26B H -0.90975 -0.36490 -0.02737
C32B C -0.8183(13) -0.3407(12) -0.0218(9)
Cd1D Cd 0.07821(17) -0.28001(15) 0.35212(9)
Cd3D Cd -0.12635(9) -0.17104(10) 0.42665(6)
Cd4D Cd -0.02982(13) -0.62165(15) 0.20286(10)
Cd6D Cd 0.29105(10) -0.50354(9) 0.13431(6)
Sb1D Sb 0.10394(11) 0.01038(10) 0.31379(6)
Sb2D Sb 0.03577(9) -0.11169(8) 0.39029(6)
Sb3D Sb 0.00047(9) -0.11252(10) 0.49366(5)
Sb4D Sb -0.25439(10) -0.16163(10) 0.44883(8)
Sb5D Sb -0.27668(10) -0.30845(10) 0.47081(8)
Sb6D Sb -0.13309(9) -0.24115(10) 0.53138(6)
Sb7D Sb -0.13124(11) -0.25664(12) 0.34340(7)
Sb8D Sb -0.14866(9) -0.33264(10) 0.43888(7)
Sb9D Sb 0.23404(10) -0.32750(9) 0.24715(5)
Sb10D Sb 0.18619(9) -0.44689(9) 0.17025(6)
Sb11D Sb 0.22271(9) -0.44523(10) 0.06733(5)
Sb12D Sb 0.22833(9) -0.57274(10) 0.02901(6)
Sb13D Sb 0.15349(9) -0.66441(10) 0.12147(6)
Sb14D Sb 0.21063(9) -0.59281(10) 0.21832(6)
Sb15D Sb 0.42918(10) -0.49231(9) 0.11095(6)
Sb16D Sb 0.30547(9) -0.63943(9) 0.08841(6)
O1D O 0.1453(15) -0.1769(16) 0.3665(8)
O2D O 0.1355(12) -0.1939(13) 0.3042(7)
O3D O 0.2035(12) -0.0602(10) 0.3619(6)
H1D H 0.22810 -0.02176 0.35945
O4D O 0.1084(11) -0.0676(11) 0.3117(7)
O5D O 0.1902(10) 0.0348(9) 0.2752(6)
O6D O 0.2557(18) 0.0025(17) 0.2592(10)
O7D O 0.0026(11) -0.1743(11) 0.5437(6)
O8D O 0.0409(12) -0.2380(13) 0.5544(8)
O9D O 0.0201(9) -0.1704(9) 0.4639(6)
O10D O -0.0794(11) -0.2915(11) 0.4804(7)
O11D O -0.0627(11) -0.3252(11) 0.4068(7)
O12D O 0.0405(13) -0.2814(12) 0.4177(8)
O13D O -0.1046(11) -0.1599(11) 0.5723(6)
O14D O -0.1478(17) -0.1028(17) 0.6019(11)
O15D O -0.2093(9) -0.2342(11) 0.5396(6)
O16D O -0.2180(11) -0.135(1) 0.5043(6)
O17D O -0.3257(13) -0.2274(14) 0.5012(8)
O18D O -0.3401(17) -0.2325(16) 0.5688(9)
O19D O -0.3503(13) -0.3192(13) 0.4233(8)
O20D O -0.3820(17) -0.3499(17) 0.3584(11)
O21D O -0.2663(11) -0.3517(11) 0.4214(7)
O22D O -0.2199(12) -0.2858(12) 0.3482(7)
O23D O -0.1778(14) -0.3646(15) 0.3522(9)
O24D O -0.2676(13) -0.4452(17) 0.3399(11)
O25D O 0.1458(18) -0.3027(16) 0.3911(10)
H2D H 0.15577 -0.33272 0.38103
H3D H 0.16296 -0.28173 0.41670
O26D O -0.0067(14) -0.2837(13) 0.3246(9)
H4D H -0.02723 -0.31035 0.30154
H5D H -0.02212 -0.25867 0.33594
O27D O 0.1705(8) 0.0552(9) 0.3564(5)
O28D O 0.0417(10) -0.0390(9) 0.3589(5)
O29D O -0.0164(8) -0.0956(8) 0.4301(5)
O30D O -0.0906(9) -0.1736(10) 0.4925(5)
O31D O -0.1898(11) -0.2997(11) 0.4804(7)
O32D O -0.1275(10) -0.2578(10) 0.4048(6)
O33D O -0.2300(12) -0.2258(12) 0.4452(7)
O34D O -0.1661(9) -0.1060(9) 0.4267(5)
O35D O 0.0716(12) -0.3489(11) 0.3063(7)
O36D O 0.1696(10) -0.3091(10) 0.2865(6)
O37D O 0.1536(10) -0.4069(11) 0.2501(6)
O38D O 0.0723(13) -0.3995(13) 0.1940(8)
H6D H 0.08410 -0.36141 0.19594
O39D O -0.0202(19) -0.5292(20) 0.2443(11)
O40D O 0.0458(15) -0.5123(15) 0.1930(9)
O41D O 0.0094(13) -0.6195(11) 0.1376(7)
O42D O 0.0743(11) -0.6539(10) 0.1532(7)
O43D O 0.1294(10) -0.6236(11) 0.0781(6)
O44D O 0.1439(10) -0.5079(9) 0.0947(6)
O45D O 0.1624(10) -0.5047(10) 0.0148(5)
O46D O 0.0661(11) -0.5687(12) -0.0029(7)
O47D O 0.1529(10) -0.6997(11) 0.2085(6)
O48D O 0.1582(12) -0.7823(13) 0.2117(7)
O49D O 0.2779(10) -0.6172(11) 0.2154(6)
O50D O 0.2519(10) -0.689(1) 0.1372(6)
O51D O 0.3748(10) -0.6450(9) 0.1341(6)
O52D O 0.3792(12) -0.6686(11) 0.2008(7)
O53D O 0.4357(11) -0.5602(11) 0.0612(7)
O54D O 0.4450(14) -0.5699(15) -0.0068(7)
O55D O 0.4193(10) -0.4637(11) 0.0524(6)
O56D O 0.3146(10) -0.5658(10) 0.0216(6)
O57D O 0.2865(11) -0.4864(11) -0.0156(6)
O58D O 0.3742(14) -0.4233(19) -0.0345(11)
O59D O -0.1111(20) -0.6520(17) 0.2622(10)
H7D H -0.10947 -0.66925 0.28767
H8D H -0.14344 -0.64419 0.25681
O60D O 0.0419(17) -0.6405(19) 0.2298(11)
H9D H 0.07081 -0.64369 0.21191
H10D H 0.04359 -0.64544 0.25910
O61D O 0.2130(8) -0.2848(8) 0.2066(5)
O62D O 0.2502(9) -0.3745(9) 0.2000(5)
O63D O 0.2554(8) -0.4295(8) 0.1302(5)
O64D O 0.2576(9) -0.5024(9) 0.0687(5)
O65D O 0.2289(8) -0.6290(9) 0.0784(5)
O66D O 0.3927(9) -0.4391(9) 0.1340(5)
O67D O 0.3409(10) -0.5573(10) 0.1142(5)
O68D O 0.2048(8) -0.5890(9) 0.1583(5)
C1D C 0.1466(12) -0.1553(14) 0.3320(7)
C2D C 0.1905(13) -0.0883(15) 0.3219(9)
H11D H 0.22963 -0.08441 0.31015
C3D C 0.1592(15) -0.0696(15) 0.288(1)
H12D H 0.14324 -0.09962 0.26413
C4D C 0.2061(13) -0.0053(13) 0.2747(10)
C5D C 0.0227(15) -0.2092(12) 0.5322(10)
C6D C 0.0250(13) -0.2185(15) 0.4875(8)
H13D H 0.06675 -0.21339 0.48128
C7D C -0.0213(14) -0.2807(15) 0.4742(9)
H14D H -0.01593 -0.31065 0.49221
C8D C -0.0135(13) -0.2951(13) 0.4286(8)
C9D C -0.1435(17) -0.1428(14) 0.5805(11)
C10D C -0.2086(15) -0.1919(14) 0.5668(10)
H15D H -0.23328 -0.21445 0.59214
C11D C -0.2409(18) -0.1603(17) 0.5452(12)
H16D H -0.23768 -0.12627 0.56368
C12D C -0.3094(15) -0.2067(17) 0.5374(8)
C13D C -0.3426(18) -0.3346(16) 0.3875(10)
C14D C -0.3008(20) -0.3630(17) 0.3872(13)
H17D H -0.32991 -0.40933 0.38689
C15D C -0.2645(15) -0.3480(15) 0.3463(10)
H18D H -0.29307 -0.35523 0.32224
C16D C -0.2340(16) -0.3876(15) 0.3411(16)
C17D C 0.1185(12) -0.3503(13) 0.2873(8)
C18D C 0.1005(11) -0.4099(12) 0.2646(7)
H19D H 0.08314 -0.44364 0.28617
C19D C 0.0498(13) -0.4279(13) 0.2320(8)
H20D H 0.01771 -0.41805 0.24247
C20D C 0.0188(14) -0.4958(17) 0.2186(11)
C21D C 0.0505(16) -0.6315(12) 0.1283(8)
C22D C 0.0746(13) -0.6169(14) 0.0831(8)
H21D H 0.04118 -0.64682 0.06386
C23D C 0.0906(11) -0.5514(13) 0.0717(7)
H22D H 0.05446 -0.54512 0.07759
C24D C 0.1069(12) -0.5422(13) 0.0252(7)
C25D C 0.1807(13) -0.7239(14) 0.2114(8)
C26D C 0.2513(14) -0.6847(14) 0.2132(8)
H23D H 0.26537 -0.69776 0.23855
C27D C 0.2784(16) -0.7010(14) 0.1741(8)
H24D H 0.26271 -0.74677 0.17497
C28D C 0.3492(16) -0.6685(16) 0.1685(7)
C29D C 0.4328(15) -0.5465(14) 0.0234(12)
C30D C 0.4230(11) -0.4899(10) 0.0197(6)
H25D H 0.45564 -0.45807 0.00090
C31D C 0.3601(13) -0.5219(13) -0.0033(9)
H26D H 0.36490 -0.54485 -0.02737
C32D C 0.3407(13) -0.4776(12) -0.0218(9)
Cd5* Cd -0.66667 -0.33333 0.15635(10)
Cd5** Cd 0.33333 -0.33333 0.15635(10)
Cd6* Cd -0.49646(10) -0.20541(9) 0.13431(6)
Cd6B* Cd 0.20541(10) -0.29105(9) 0.13431(6)
Cd6D* Cd 0.29105(10) 0.49646(9) 0.13431(6)
Sb10* Sb 0.44689(9) -0.36692(9) 0.17025(6)
Sb10B* Sb 0.36692(9) 0.81381(9) 0.17025(6)
Sb10D* Sb -0.81381(9) -0.44689(9) 0.17025(6)
Sb14* Sb -0.40719(9) -0.19656(10) 0.21832(6)
Sb14B* Sb 0.19656(9) -0.21063(10) 0.21832(6)
Sb14D* Sb 0.21063(9) 0.40719(10) 0.21832(6)
O61* O 0.2848(8) -0.5022(8) 0.2066(5)
O61B* O 0.5022(8) 0.7870(8) 0.2066(5)
O61D* O -0.7870(8) -0.2848(8) 0.2066(5)
O62B* O 0.3753(9) 0.7498(9) 0.2000(5)
O62D* O 0.2502(9) 0.6255(9) 0.2000(5)
O63B* O 0.3151(8) 0.7446(8) 0.1302(5)
O63D* O 0.2554(8) 0.5705(8) 0.1302(5)
O66* O -0.5609(9) -0.1682(9) 0.1340(5)
O66B* O 0.1682(9) -0.3927(9) 0.1340(5)
O66D* O 0.3927(9) 0.5609(9) 0.1340(5)
#END
