
#######################################################################
#
#                 Cambridge Crystallographic Data Centre
#                                CCDC
#
#######################################################################
#
# If this CIF has been generated from an entry in the Cambridge
# Structural Database, then it will include bibliographic, chemical,
# crystal, experimental, refinement or atomic coordinate data resulting
# from the CCDC's data processing and validation procedures.
#
#######################################################################

data_CSD_CIF_GUXZUV
_audit_creation_date 2010-05-14
_audit_creation_method CSD-ConQuest-V1
_database_code_CSD GUXZUV
_database_code_depnum_ccdc_archive 'CCDC 729462'
_chemical_formula_sum 'C38 H42 N4 O24 P6 U2'
_chemical_formula_moiety
;
(C18 H18 O22 P6 U2 4-)n,2n(C10 H10 N2 2+),2n(H2 O1)
;
_journal_coden_Cambridge 9
_journal_volume 48
_journal_year 2009
_journal_page_first 2732
_journal_name_full 'Inorg.Chem. '
loop_
_publ_author_name
"P.O.Adelani"
"T.E.Albrecht-Schmitt"
_chemical_name_systematic
;
catena-(bis(\m~4~-benzene-1,4-diylbis(phosphonato))-(\m~2~-benzene-1,4-diylbis
(phosphonato))-tetraoxo-di-uranium bis(2,2'-bipyridinium) dihydrate)
;
_cell_volume   1169.359
_exptl_crystal_colour 'yellow'
_exptl_crystal_density_diffrn 2.267
_exptl_crystal_description 'prism'
_diffrn_ambient_temperature 293
#These two values have been output from a single CSD field.
_refine_ls_R_factor_gt 0.0497
_refine_ls_wR_factor_gt 0.0497
_symmetry_cell_setting triclinic
_symmetry_space_group_name_H-M 'P -1'
_symmetry_Int_Tables_number 2
loop_
_symmetry_equiv_pos_site_id
_symmetry_equiv_pos_as_xyz
1 x,y,z
2 -x,-y,-z
_cell_length_a 8.8105(6)
_cell_length_b 12.0084(8)
_cell_length_c 12.3493(8)
_cell_angle_alpha 63.518(1)
_cell_angle_beta 89.233(1)
_cell_angle_gamma 89.590(1)
_cell_formula_units_Z 1
loop_
_atom_type_symbol
_atom_type_radius_bond
C 0.68
H 0.23
N 0.68
O 0.68
P 1.05
U 1.47
loop_
_atom_site_label
_atom_site_type_symbol
_atom_site_fract_x
_atom_site_fract_y
_atom_site_fract_z
U1 U 0.97951(3) 0.55022(3) 0.72784(2)
O1 O 1.1362(6) 0.6543(5) 0.6811(5)
O2 O 0.8207(6) 0.4502(5) 0.7726(5)
P1 P 0.8240(2) 0.86529(19) 0.57694(18)
O3 O 0.8045(6) 0.7284(5) 0.6545(5)
O4 O 0.9096(6) 0.8997(5) 0.4597(5)
O5 O 0.9031(6) 0.9226(5) 0.6531(5)
H1 H 0.96040 0.97850 0.60930
C1 C 0.6406(9) 0.9394(7) 0.5366(7)
C2 C 0.6324(10) 1.0692(8) 0.4758(7)
H2 H 0.72070 1.11630 0.45940
C3 C 0.5051(10) 0.8727(8) 0.5596(8)
H3 H 0.50840 0.78630 0.60020
P2 P 0.8264(2) 0.62712(17) 0.41964(16)
O6 O 0.9231(6) 0.5984(5) 0.5279(4)
O7 O 0.7962(6) 0.7723(5) 0.3551(5)
H4 H 0.83560 0.80450 0.39400
O8 O 0.8884(6) 0.5922(5) 0.3253(4)
C4 C 0.6424(8) 0.5582(7) 0.4637(7)
C5 C 0.5713(8) 0.5076(7) 0.3956(7)
H5 H 0.61880 0.51100 0.32650
C6 C 0.5709(9) 0.5481(7) 0.5691(7)
H6 H 0.61880 0.57910 0.61660
P3 P 0.8263(2) 0.6270(2) 0.97023(18)
O9 O 0.9282(7) 0.5943(6) 0.8910(5)
O10 O 0.8849(6) 0.5983(5) 1.0945(5)
O11 O 0.7967(7) 0.7712(6) 0.9004(5)
H7 H 0.83440 0.79840 0.83240
C7 C 0.6426(9) 0.5561(8) 0.9884(8)
C8 C 0.5479(10) 0.5876(9) 0.8871(8)
H8 H 0.58030 0.64630 0.81110
C9 C 0.5908(9) 0.4676(9) 1.0998(7)
H9 H 0.65180 0.44520 1.16720
N1 N 0.5212(7) 0.1521(6) 1.0160(6)
H10 H 0.44400 0.15030 0.97490
C10 C 0.6246(10) 0.2430(8) 0.9696(8)
H11 H 0.61120 0.30560 0.89150
C11 C 0.7524(11) 0.2477(9) 1.0339(9)
H12 H 0.82290 0.31150 0.99850
C12 C 0.7718(12) 0.1566(9) 1.1500(9)
H13 H 0.85440 0.15800 1.19550
C13 C 0.6651(10) 0.0628(8) 1.1973(8)
H14 H 0.67570 -0.00130 1.27500
C14 C 0.5427(9) 0.0652(7) 1.1280(7)
C15 C 0.4240(9) -0.0304(7) 1.1763(7)
C16 C 0.4310(9) -0.1396(7) 1.2834(7)
H15 H 0.51890 -0.15980 1.32920
C17 C 0.3065(11) -0.2187(8) 1.3220(8)
H16 H 0.30940 -0.28990 1.39560
C18 C 0.1797(10) -0.1923(8) 1.2521(8)
H17 H 0.09730 -0.24630 1.27680
C19 C 0.1754(9) -0.0862(8) 1.1461(8)
H18 H 0.09010 -0.06790 1.09750
N2 N 0.2943(7) -0.0076(6) 1.1113(6)
H19 H 0.28790 0.06000 1.04510
O12 O 0.8382(7) 0.8432(5) 0.0997(5)
U1A U 0.02049(3) 1.44978(3) 0.27216(2)
U1A* U 1.02049(3) 0.44978(3) 0.27216(2)
U1A** U 1.02049(3) 0.44978(3) 1.27216(2)
U1A*** U 0.02049(3) 0.44978(3) 0.27216(2)
U1* U -0.02049(3) 0.55022(3) 0.72784(2)
U1A**** U 0.02049(3) 0.44978(3) 1.27216(2)
O1A O -0.1362(6) 1.3457(5) 0.3189(5)
O2A O 0.1793(6) 1.5498(5) 0.2274(5)
P1A P 0.1760(2) 1.13471(19) 0.42306(18)
O3A O 0.1955(6) 1.2716(5) 0.3455(5)
O4A O 0.0904(6) 1.1003(5) 0.5403(5)
O5A O 0.0969(6) 1.0774(5) 0.3469(5)
H1A H 0.03960 1.02150 0.39070
C1A C 0.3594(9) 1.0606(7) 0.4634(7)
C2A C 0.3676(10) 0.9308(8) 0.5242(7)
H2A H 0.27930 0.88370 0.54060
C3A C 0.4949(10) 1.1273(8) 0.4404(8)
H3A H 0.49160 1.21370 0.39980
P2A P 0.1736(2) 0.37288(17) 0.58036(16)
O6A O 0.0769(6) 0.4016(5) 0.4721(4)
O6A* O 0.0769(6) 1.4016(5) 0.4721(4)
O7A O 0.2038(6) 0.2277(5) 0.6449(5)
H4A H 0.16440 0.19550 0.60600
O8A O 0.1116(6) 0.4078(5) 0.6747(4)
O8A* O 1.1116(6) 0.4078(5) 0.6747(4)
O8* O -0.1116(6) 1.5922(5) 0.3253(4)
C4A C 0.3576(8) 0.4418(7) 0.5363(7)
C5A C 0.4287(8) 0.4924(7) 0.6044(7)
H5A H 0.38120 0.48900 0.67350
C6A C 0.4291(9) 0.4519(7) 0.4309(7)
H6A H 0.38120 0.42090 0.38340
P3A P 0.1737(2) 0.3730(2) 1.02977(18)
O9A O 0.0718(7) 0.4057(6) 1.1090(5)
O9A* O 0.0718(7) 1.4057(6) 0.1090(5)
O10A O 0.1151(6) 0.4017(5) 0.9055(5)
O10A* O 1.1151(6) 0.4017(5) 0.9055(5)
O10* O -0.1151(6) 1.5983(5) 0.0945(5)
O11A O 0.2033(7) 0.2288(6) 1.0996(5)
H7A H 0.16560 0.20160 1.16760
C7A C 0.3574(9) 0.4439(8) 1.0116(8)
C8A C 0.4521(10) 0.4124(9) 1.1129(8)
H8A H 0.41970 0.35370 1.18890
C9A C 0.4092(9) 0.5324(9) 0.9002(7)
H9A H 0.34820 0.55480 0.83280
#END
