
#######################################################################
#
#                 Cambridge Crystallographic Data Centre
#                                CCDC
#
#######################################################################
#
# If this CIF has been generated from an entry in the Cambridge
# Structural Database, then it will include bibliographic, chemical,
# crystal, experimental, refinement or atomic coordinate data resulting
# from the CCDC's data processing and validation procedures.
#
#######################################################################

data_CSD_CIF_GUXZOP
_audit_creation_date 2010-05-14
_audit_creation_method CSD-ConQuest-V1
_database_code_CSD GUXZOP
_database_code_depnum_ccdc_archive 'CCDC 729461'
_chemical_formula_sum 'C22 H34 N2 O24 P6 U2'
_chemical_formula_moiety
;
(C18 H18 O22 P6 U2 2-)n,n(C4 H12 N2 2+),2n(H2 O1)
;
_journal_coden_Cambridge 9
_journal_volume 48
_journal_year 2009
_journal_page_first 2732
_journal_name_full 'Inorg.Chem. '
loop_
_publ_author_name
"P.O.Adelani"
"T.E.Albrecht-Schmitt"
_chemical_name_systematic
;
catena-((\m~4~-benzene-1,4-diylbis(phosphonato))-bis(\m~3~-benzene-1,4-diylbis
(phosphonato))-tetraoxo-di-uranium piperazinediium dihydrate)
;
_cell_volume   1857.061
_exptl_crystal_colour 'yellow'
_exptl_crystal_density_diffrn 2.447
_exptl_crystal_description 'tablet'
_diffrn_ambient_temperature 193
#These two values have been output from a single CSD field.
_refine_ls_R_factor_gt 0.0269
_refine_ls_wR_factor_gt 0.0269
_symmetry_cell_setting monoclinic
_symmetry_space_group_name_H-M 'P 21/n'
_symmetry_Int_Tables_number 14
loop_
_symmetry_equiv_pos_site_id
_symmetry_equiv_pos_as_xyz
1 x,y,z
2 1/2-x,1/2+y,1/2-z
3 -x,-y,-z
4 -1/2+x,-1/2-y,-1/2+z
_cell_length_a 10.2410(6)
_cell_length_b 11.4366(6)
_cell_length_c 15.9325(9)
_cell_angle_alpha 90
_cell_angle_beta 95.626(1)
_cell_angle_gamma 90
_cell_formula_units_Z 2
loop_
_atom_type_symbol
_atom_type_radius_bond
C 0.68
H 0.23
N 0.68
O 0.68
P 1.05
U 1.49
loop_
_atom_site_label
_atom_site_type_symbol
_atom_site_fract_x
_atom_site_fract_y
_atom_site_fract_z
U1 U 0.324430(12) 0.277310(11) 0.218371(8)
P1 P 0.04458(10) 0.06688(9) 0.19515(6)
P2 P 0.57451(9) 0.03411(9) -0.19002(6)
P3 P 0.65668(10) 0.31237(10) 0.15911(6)
O1 O 0.5587(3) 0.2728(3) 0.2176(2)
O2 O 0.7966(3) 0.2933(3) 0.1948(2)
O3 O 0.3512(3) 0.2318(3) 0.32512(19)
O4 O 0.1278(3) 0.1743(3) 0.20269(19)
O5 O 0.2982(3) 0.3243(3) 0.11155(17)
O6 O 0.4235(3) 0.0308(3) -0.2202(2)
H1 H 0.40180 0.09320 -0.24570
O7 O -0.0935(3) 0.0935(3) 0.22632(19)
H2 H -0.11720 0.16140 0.21150
O8 O 0.6178(3) -0.0886(2) -0.17219(19)
O9 O 0.6348(3) 0.4457(3) 0.1369(2)
H3 H 0.62360 0.48310 0.18100
C1 C 0.5932(4) 0.1151(4) -0.0926(2)
C2 C 0.0186(4) 0.0285(4) 0.0855(3)
C3 C 0.0491(4) 0.5051(4) 0.0870(2)
H4 H -0.01330 0.56090 0.10870
H5 H 0.11190 0.47990 0.13480
C4 C 0.6286(4) 0.2392(4) 0.0588(3)
C5 C 0.0736(4) 0.0972(4) 0.0253(3)
H6 H 0.12460 0.16380 0.04280
O10 O 0.6534(4) 0.1478(4) 0.3674(2)
C6 C 0.6462(4) 0.0611(4) -0.0195(3)
H7 H 0.66950 -0.01920 -0.02080
C7 C 0.6658(4) 0.1222(4) 0.0558(3)
H8 H 0.70460 0.08450 0.10520
C8 C 0.5552(5) 0.2318(4) -0.0898(3)
H9 H 0.51760 0.26940 -0.13950
C9 C 0.5722(5) 0.2938(4) -0.0138(3)
H10 H 0.54530 0.37320 -0.01190
N1 N -0.0236(6) 0.4015(5) 0.0498(3)
H11 H -0.06720 0.36550 0.09050
H12 H 0.03500 0.34880 0.03120
C10 C 0.1204(5) 0.5625(5) 0.0227(3)
H13 H 0.18580 0.50810 0.00270
H14 H 0.16740 0.63220 0.04710
C11 C -0.0541(4) -0.0689(4) 0.0600(3)
H15 H -0.09080 -0.11660 0.10050
O11 O 0.6446(3) 0.0967(3) -0.25605(18)
O12 O 0.0919(3) -0.0364(3) 0.2467(2)
U1B U 0.675570(12) -0.277310(11) -0.218371(8)
U1C U 0.824430(12) 0.222690(11) -0.281629(8)
U1A U 0.175570(12) -0.222690(11) 0.281629(8)
U1B* U -0.324430(12) -0.277310(11) -0.218371(8)
U1C* U -0.175570(12) 0.222690(11) -0.281629(8)
P1B P -0.04458(10) -0.06688(9) -0.19515(6)
P2B P 0.42549(9) -0.03411(9) 0.19002(6)
P3B P 0.34332(10) -0.31237(10) -0.15911(6)
O1B O 0.4413(3) -0.2728(3) -0.2176(2)
O2B O 0.2034(3) -0.2933(3) -0.1948(2)
O3B O 0.6488(3) -0.2318(3) -0.32512(19)
O4B O -0.1278(3) -0.1743(3) -0.20269(19)
O4B* O 0.8722(3) -0.1743(3) -0.20269(19)
O5B O 0.7018(3) -0.3243(3) -0.11155(17)
O6B O 0.5765(3) -0.0308(3) 0.2202(2)
H1B H 0.59820 -0.09320 0.24570
O7B O 0.0935(3) -0.0935(3) -0.22632(19)
H2B H 0.11720 -0.16140 -0.21150
O8B O 0.3822(3) 0.0886(2) 0.17219(19)
O9B O 0.3652(3) -0.4457(3) -0.1369(2)
H3B H 0.37640 -0.48310 -0.18100
C1B C 0.4068(4) -0.1151(4) 0.0926(2)
C2B C -0.0186(4) -0.0285(4) -0.0855(3)
C3B C -0.0491(4) 0.4949(4) -0.0870(2)
H4B H 0.01330 0.43910 -0.10870
H5B H -0.11190 0.52010 -0.13480
C4B C 0.3714(4) -0.2392(4) -0.0588(3)
C5B C -0.0736(4) -0.0972(4) -0.0253(3)
H6B H -0.12460 -0.16380 -0.04280
C6B C 0.3538(4) -0.0611(4) 0.0195(3)
H7B H 0.33050 0.01920 0.02080
C7B C 0.3342(4) -0.1222(4) -0.0558(3)
H8B H 0.29540 -0.08450 -0.10520
C8B C 0.4448(5) -0.2318(4) 0.0898(3)
H9B H 0.48240 -0.26940 0.13950
C9B C 0.4278(5) -0.2938(4) 0.0138(3)
H10B H 0.45470 -0.37320 0.01190
N1B N 0.0236(6) 0.5985(5) -0.0498(3)
H11B H 0.06720 0.63450 -0.09050
H12B H -0.03500 0.65120 -0.03120
C10B C -0.1204(5) 0.4375(5) -0.0227(3)
H13B H -0.18580 0.49190 -0.00270
H14B H -0.16740 0.36780 -0.04710
C11B C 0.0541(4) 0.0689(4) -0.0600(3)
H15B H 0.09080 0.11660 -0.10050
O11B O 0.3554(3) -0.0967(3) 0.25605(18)
O11C O 0.1446(3) 0.4033(3) 0.24395(18)
O11A O 0.8554(3) -0.4033(3) -0.24395(18)
O12B O -0.0919(3) 0.0364(3) -0.2467(2)
O12A O 0.4081(3) 0.4636(3) 0.2533(2)
O12C O 0.5919(3) -0.4636(3) -0.2533(2)
#END
