
#######################################################################
#
#                 Cambridge Crystallographic Data Centre
#                                CCDC
#
#######################################################################
#
# If this CIF has been generated from an entry in the Cambridge
# Structural Database, then it will include bibliographic, chemical,
# crystal, experimental, refinement or atomic coordinate data resulting
# from the CCDC's data processing and validation procedures.
#
#######################################################################

data_CSD_CIF_GUXZIJ
_audit_creation_date 2010-05-14
_audit_creation_method CSD-ConQuest-V1
_database_code_CSD GUXZIJ
_database_code_depnum_ccdc_archive 'CCDC 729460'
_chemical_formula_sum 'C44 H40 N4 O38 P8 U6'
_chemical_formula_moiety
;
(C24 H16 O36 P8 U6 4-)n,2n(H2 O1),2n(C10 H10 N2 2+)
;
_journal_coden_Cambridge 9
_journal_volume 48
_journal_year 2009
_journal_page_first 2732
_journal_name_full 'Inorg.Chem. '
loop_
_publ_author_name
"P.O.Adelani"
"T.E.Albrecht-Schmitt"
_chemical_name_systematic
;
catena-(bis(2,2'-bipyridinium) 
tetrakis(\m~6~-benzene-1,4-diylbis(phosphonato))-dodecaoxo-hexa-uranium 
dihydrate)
;
_cell_volume   1654.226
_exptl_crystal_colour 'yellow'
_exptl_crystal_density_diffrn 2.915
_diffrn_ambient_temperature 193
_refine_special_details
;
A 2,2'-bipyridinium ion is disordered by symmetry over two sites with 
occupancy 0.50.
;
#These two values have been output from a single CSD field.
_refine_ls_R_factor_gt 0.0445
_refine_ls_wR_factor_gt 0.0445
_symmetry_cell_setting triclinic
_symmetry_space_group_name_H-M 'P -1'
_symmetry_Int_Tables_number 2
loop_
_symmetry_equiv_pos_site_id
_symmetry_equiv_pos_as_xyz
1 x,y,z
2 -x,-y,-z
_cell_length_a 9.7932(10)
_cell_length_b 10.6592(11)
_cell_length_c 17.5643(17)
_cell_angle_alpha 83.846(2)
_cell_angle_beta 86.318(2)
_cell_angle_gamma 65.184(2)
_cell_formula_units_Z 1
loop_
_atom_type_symbol
_atom_type_radius_bond
C 0.68
H 0.23
N 0.68
O 0.68
P 1.05
U 1.49
loop_
_atom_site_label
_atom_site_type_symbol
_atom_site_fract_x
_atom_site_fract_y
_atom_site_fract_z
U1 U 0.94280(3) 0.18545(3) 0.751103(18)
U2 U 0.31303(3) 0.28899(3) 0.749610(18)
U3 U 0.62490(4) -0.26083(3) 0.75104(2)
P1 P 0.6863(2) 0.0206(2) 0.81288(13)
P2 P 1.0065(2) 0.5038(2) 0.68074(13)
P3 P 0.7547(2) 0.0266(2) 1.17183(13)
P4 P 0.5755(2) 0.4517(2) 0.67835(13)
O1 O 0.7939(7) 0.0676(6) 0.7657(4)
O2 O 0.7221(7) -0.1309(7) 0.8043(4)
O3 O 0.5235(7) 0.1123(7) 0.7933(4)
O4 O 1.0353(6) 0.3589(7) 0.7203(4)
O5 O 1.1454(7) 0.5239(6) 0.6994(4)
O6 O 0.8621(7) 0.6173(7) 0.7050(4)
O7 O 0.7874(7) -0.1221(6) 1.2092(4)
O8 O 0.8983(7) 0.0427(6) 1.1864(3)
O9 O 0.6127(7) 0.1383(7) 1.2024(4)
O10 O 0.7405(7) 0.3519(7) 0.6884(4)
O11 O 0.4718(7) 0.3990(7) 0.7249(4)
O12 O 0.5467(7) 0.5981(7) 0.6988(4)
O13 O 1.0178(7) 0.1179(7) 0.6620(3)
O14 O 0.8717(7) 0.2550(7) 0.8412(4)
O15 O 0.2742(7) 0.3496(7) 0.8425(4)
O16 O 0.3509(7) 0.2311(7) 0.6564(4)
O17 O 0.6698(8) -0.3738(7) 0.8375(4)
O18 O 0.5834(7) -0.1504(7) 0.6646(4)
O19 O 0.8983(9) -0.7994(8) 0.3078(4)
C1 C 0.5879(14) 0.1092(15) 0.9575(7)
H1 H 0.49300 0.16380 0.93490
C2 C 0.7054(10) 0.0319(10) 0.9124(5)
C3 C 0.8397(14) -0.045(2) 0.9485(7)
H2 H 0.92650 -0.09550 0.91900
C4 C 0.9289(11) 0.6224(10) 0.5332(6)
H3 H 0.88000 0.70750 0.55600
C5 C 0.9993(10) 0.4997(9) 0.5811(5)
C6 C 1.0727(10) 0.3752(10) 0.5454(5)
H4 H 1.12300 0.28990 0.57540
C7 C 0.8506(13) -0.049(2) 1.0260(8)
H5 H 0.94340 -0.10870 1.04910
C8 C 0.736(1) 0.0282(10) 1.0714(5)
C9 C 0.6028(15) 0.1103(16) 1.0343(8)
H6 H 0.51930 0.16920 1.06310
C10 C 0.388(1) 0.5101(10) 0.5541(5)
H7 H 0.31040 0.51780 0.59110
C11 C -0.0832(10) 0.029(1) 0.5046(6)
C12 C 0.5349(10) 0.4712(9) 0.5791(5)
C13 C -0.1608(11) 0.0088(10) 0.5709(6)
H8 H -0.10690 -0.04520 0.61470
C14 C 0.6472(10) 0.4626(10) 0.5228(5)
H9 H 0.74740 0.43790 0.53770
C15 C -0.3183(11) 0.0685(11) 0.5726(6)
H10 H -0.37110 0.05860 0.61860
C16 C -0.3981(12) 0.1417(11) 0.5080(6)
H11 H -0.50500 0.18050 0.50810
C17 C -0.3157(11) 0.1561(11) 0.4436(6)
H12 H -0.36730 0.20500 0.39830
C18? C -0.792(3) 0.570(3) -0.0205(16)
C19? C -0.849(3) 0.612(3) -0.0881(16)
H13? H -0.77630 0.62300 -0.12350
C20? C -0.984(3) 0.645(3) -0.1251(15)
H14? H -1.00770 0.66550 -0.17790
C21? C -1.076(4) 0.641(4) -0.060(2)
H15? H -1.18040 0.67630 -0.07080
C22? C -1.040(4) 0.591(4) 0.019(2)
H16? H -1.11180 0.58610 0.05680
C23? C -0.644(3) 0.551(3) -0.0161(18)
C24? C -0.615(3) 0.570(2) 0.0574(13)
H17? H -0.69150 0.60980 0.09480
C25? C -0.533(4) 0.472(3) -0.0701(17)
N1 N -0.1653(9) 0.1031(8) 0.4430(4)
H18 H -0.11780 0.11690 0.40090
N2? N -0.884(3) 0.552(3) 0.0336(16)
H19? H -0.84930 0.51410 0.07940
N3? N -0.467(4) 0.528(3) 0.0701(17)
H20? H -0.43880 0.54840 0.11190
U1A U 1.05720(3) -0.18545(3) 1.248897(18)
U1A* U 1.05720(3) 0.81455(3) 0.248897(18)
U1A** U 0.05720(3) 0.81455(3) 0.248897(18)
U2A U 1.68697(3) -0.28899(3) 1.250390(18)
U2* U 1.31303(3) 0.28899(3) 0.749610(18)
U2A* U 0.68697(3) -0.28899(3) 1.250390(18)
U2A** U 0.68697(3) 0.71101(3) 0.250390(18)
U3A U 1.37510(4) 0.26083(3) 1.24896(2)
U3* U 0.62490(4) 0.73917(3) 0.75104(2)
U3A* U 0.37510(4) 0.26083(3) 1.24896(2)
U3A** U 1.37510(4) 0.26083(3) 0.24896(2)
U3A*** U 0.37510(4) 0.26083(3) 0.24896(2)
U3** U 1.62490(4) -0.26083(3) 0.75104(2)
P1A P 1.3137(2) -0.0206(2) 1.18712(13)
P2A P 0.9935(2) 0.4962(2) 0.31926(13)
P3A P 1.2453(2) -0.0266(2) 0.82817(13)
P4A P 0.4245(2) 0.5483(2) 0.32165(13)
O1A O 1.2061(7) -0.0676(6) 1.2343(4)
O2A O 1.2779(7) 0.1309(7) 1.1957(4)
O3A O 1.4765(7) -0.1123(7) 1.2067(4)
O4A O 0.9647(6) 0.6411(7) 0.2797(4)
O4A* O 0.9647(6) -0.3589(7) 1.2797(4)
O5A O 0.8546(7) 0.4761(6) 0.3006(4)
O5* O 0.1454(7) 0.5239(6) 0.6994(4)
O5A* O 1.8546(7) -0.5239(6) 1.3006(4)
O6A O 1.1379(7) 0.3827(7) 0.2950(4)
O6* O 0.8621(7) -0.3827(7) 0.7050(4)
O6A* O 1.1379(7) 0.3827(7) 1.2950(4)
O7A O 1.2126(7) 0.1221(6) 0.7908(4)
O7A* O 0.2126(7) 0.1221(6) 0.7908(4)
O7* O 1.7874(7) -0.1221(6) 1.2092(4)
O8A O 1.1017(7) -0.0427(6) 0.8136(3)
O9A O 1.3873(7) -0.1383(7) 0.7976(4)
O9A* O 0.3873(7) -0.1383(7) 0.7976(4)
O9* O 1.6127(7) 0.1383(7) 1.2024(4)
O10A O 0.2595(7) 0.6481(7) 0.3116(4)
O10A* O 1.2595(7) -0.3519(7) 1.3116(4)
O11A O 0.5282(7) 0.6010(7) 0.2751(4)
O11A* O 1.5282(7) -0.3990(7) 1.2751(4)
O12A O 0.4533(7) 0.4019(7) 0.3012(4)
O12* O 0.5467(7) -0.4019(7) 0.6988(4)
O12A* O 1.4533(7) 0.4019(7) 1.3012(4)
O13A O 0.9822(7) -0.1179(7) 1.3380(3)
O14A O 1.1283(7) -0.2550(7) 1.1588(4)
O15A O 1.7258(7) -0.3496(7) 1.1575(4)
O16A O 1.6491(7) -0.2311(7) 1.3436(4)
O17A O 1.3302(8) 0.3738(7) 1.1625(4)
O18A O 1.4166(7) 0.1504(7) 1.3354(4)
C1A C 1.4121(14) -0.1092(15) 1.0425(7)
H1A H 1.50700 -0.16380 1.06510
C2A C 1.2946(10) -0.0319(10) 1.0876(5)
C3A C 1.1603(14) 0.045(2) 1.0515(7)
H2A H 1.07350 0.09550 1.08100
C4A C 1.0711(11) 0.3776(10) 0.4668(6)
H3A H 1.12000 0.29250 0.44400
C5A C 1.0007(10) 0.5003(9) 0.4189(5)
C6A C 0.9273(10) 0.6248(10) 0.4546(5)
H4A H 0.87700 0.71010 0.42460
C7A C 1.1494(13) 0.049(2) 0.9740(8)
H5A H 1.05660 0.10870 0.95090
C8A C 1.264(1) -0.0282(10) 0.9286(5)
C9A C 1.3972(15) -0.1103(16) 0.9657(8)
H6A H 1.48070 -0.16920 0.93690
C10A C 0.612(1) 0.4899(10) 0.4459(5)
H7A H 0.68960 0.48220 0.40890
C11A C 0.0832(10) -0.029(1) 0.4954(6)
C12A C 0.4651(10) 0.5288(9) 0.4209(5)
C13A C 0.1608(11) -0.0088(10) 0.4291(6)
H8A H 0.10690 0.04520 0.38530
C14A C 0.3528(10) 0.5374(10) 0.4772(5)
H9A H 0.25260 0.56210 0.46230
C15A C 0.3183(11) -0.0685(11) 0.4274(6)
H10A H 0.37110 -0.05860 0.38140
C16A C 0.3981(12) -0.1417(11) 0.4920(6)
H11A H 0.50500 -0.18050 0.49190
C17A C 0.3157(11) -0.1561(11) 0.5564(6)
H12A H 0.36730 -0.20500 0.60170
N1A N 0.1653(9) -0.1031(8) 0.5570(4)
H18A H 0.11780 -0.11690 0.59910
#END
