
#######################################################################
#
#                 Cambridge Crystallographic Data Centre
#                                CCDC
#
#######################################################################
#
# If this CIF has been generated from an entry in the Cambridge
# Structural Database, then it will include bibliographic, chemical,
# crystal, experimental, refinement or atomic coordinate data resulting
# from the CCDC's data processing and validation procedures.
#
#######################################################################

data_CSD_CIF_GUYBEK
_audit_creation_date 2020-07-15
_audit_creation_method CSD-ConQuest-V1
_database_code_CSD GUYBEK
_database_code_depnum_ccdc_archive 'CCDC 1977827'
_chemical_formula_sum 'C96 H276 Cd14 O314 Sb48 U6'
_chemical_formula_moiety
;
(C96 H78 Cd14 O204 Sb48 14-)n,6n(O2 U1 2+),2n(H3 O1 1+),96n(H2 O1)
;
_journal_coden_Cambridge 1440
_journal_volume 12
_journal_year 2020
_journal_page_first 26222
_journal_name_full 'ACS Applied Materials and Interfaces '
loop_
_publ_author_name
"Wen Ma"
"Bing Hu"
"Ji-Long Li"
"Zhi-Zhuan Zhang"
"Xi Zeng"
"Jiance Jin"
"Zhong Li"
"Shou-Tian Zheng"
"Mei-Ling Feng"
"Xiao-Ying Huang"
_chemical_name_systematic
;
catena-(dioxonium hexakis(dioxo-uranium(vi)) 
octatetracontakis(\m-oxo)-octadecakis(\m-tartrato)-hexakis(\m-hydrogen 
tartrato)-dodeca-aqua-octatetraconta-antimony-tetra-tetradeca-cadmium 
hexanonacontahydrate)
;
_chemical_name_common
;
FJSM-CA-UO2
;
_cell_volume  17393.438
_exptl_crystal_colour 'light yellow'
_exptl_crystal_density_diffrn 2.922
_exptl_special_details
;
Absolute configuration

;
_exptl_crystal_description 'sheet'
_diffrn_ambient_temperature 100
_diffrn_special_details
;
twin

;
_refine_special_details
;
The uranyl cations are disordered and we have represented the structure 
ionically. The oxygen atoms of the uranyl cations do not appear to have been 
located. The SQUEEZE/PLATON program was used to model the disordered oxonium 
cations and water molecules.
;
#These two values have been output from a single CSD field.
_refine_ls_R_factor_gt 0.0671
_refine_ls_wR_factor_gt 0.0671
_symmetry_cell_setting hexagonal
_symmetry_space_group_name_H-M 'P 63'
_symmetry_Int_Tables_number 173
loop_
_symmetry_equiv_pos_site_id
_symmetry_equiv_pos_as_xyz
1 x,y,z
2 x-y,x,1/2+z
3 -y,x-y,z
4 -x,-y,1/2+z
5 -x+y,-x,z
6 y,-x+y,1/2+z
_cell_length_a 24.9433(11)
_cell_length_b 24.9433(11)
_cell_length_c 32.281(5)
_cell_angle_alpha 90
_cell_angle_beta 90
_cell_angle_gamma 120
_cell_formula_units_Z 2
loop_
_atom_type_symbol
_atom_type_radius_bond
C 0.68
H 0.23
Cd 1.44
O 0.68
Sb 1.39
U 1.96
loop_
_atom_site_label
_atom_site_type_symbol
_atom_site_fract_x
_atom_site_fract_y
_atom_site_fract_z
Cd1 Cd 0.28483(11) 0.35216(10) 0.35126(8)
Cd2 Cd 0.00000 0.00000 0.40617(12)
Cd3 Cd 0.17017(10) 0.0426(1) 0.42786(8)
Cd4 Cd 0.62082(14) 0.59076(16) 0.20304(13)
Cd5 Cd 0.33333 0.66667 0.15459(13)
Cd6 Cd 0.50324(10) 0.79389(10) 0.13377(8)
Sb1 Sb -0.00989(11) 0.09347(11) 0.31562(7)
Sb2 Sb 0.11246(9) 0.14678(9) 0.39179(7)
Sb3 Sb 0.11217(9) 0.11071(11) 0.49382(7)
Sb4 Sb 0.16053(11) -0.0943(1) 0.44892(9)
Sb5 Sb 0.30731(11) 0.02978(11) 0.47082(10)
Sb6 Sb 0.2399(1) 0.10500(11) 0.53149(9)
Sb7 Sb 0.25531(11) 0.12552(12) 0.34535(9)
Sb8 Sb 0.33191(10) 0.18163(11) 0.44034(9)
Sb9 Sb 0.32756(11) 0.56351(10) 0.24503(7)
Sb10 Sb 0.44695(9) 0.63349(9) 0.16897(7)
Sb11 Sb 0.44522(10) 0.66789(11) 0.06682(7)
Sb12 Sb 0.57337(10) 0.80107(11) 0.02951(8)
Sb13 Sb 0.66378(10) 0.81606(11) 0.12187(8)
Sb14 Sb 0.59029(10) 0.80054(11) 0.21652(8)
Sb15 Sb 0.49246(10) 0.92056(10) 0.11072(8)
Sb16 Sb 0.63934(10) 0.94312(10) 0.08868(8)
O1 O 0.1676(13) 0.2868(14) 0.3692(8)
O2 O 0.1995(11) 0.3322(13) 0.3084(8)
O3 O 0.0572(11) 0.2567(12) 0.3617(8)
H1 H 0.01912 0.24312 0.35864
O4 O 0.0712(11) 0.1773(12) 0.3108(8)
O5 O -0.0362(11) 0.1513(11) 0.2773(8)
O6 O -0.0075(17) 0.2465(15) 0.2562(11)
O7 O 0.1746(12) 0.1712(12) 0.5432(8)
O8 O 0.2375(17) 0.2712(16) 0.5586(12)
O9 O 0.1691(11) 0.1868(11) 0.4628(8)
O10 O 0.2899(11) 0.2072(11) 0.4830(8)
O11 O 0.3259(11) 0.2626(12) 0.4085(8)
O12 O 0.2746(13) 0.3158(13) 0.4186(9)
O13 O 0.1573(12) 0.0466(13) 0.5757(8)
O14 O 0.0936(12) -0.0453(14) 0.5939(9)
O15 O 0.2401(13) 0.0271(13) 0.5367(8)
O16 O 0.1311(12) -0.0891(12) 0.5028(8)
O17 O 0.2293(12) -0.1014(14) 0.4926(8)
O18 O 0.2429(12) -0.1088(13) 0.5602(8)
O19 O 0.3181(14) -0.0311(14) 0.4260(9)
O20 O 0.3449(15) -0.0362(16) 0.3596(11)
O21 O 0.3520(12) 0.0816(12) 0.4201(9)
O22 O 0.2819(12) 0.0628(12) 0.3484(9)
O23 O 0.3681(13) 0.1832(13) 0.3545(9)
O24 O 0.4438(12) 0.1742(15) 0.3373(11)
O25 O 0.2882(18) 0.417(2) 0.4050(14)
H2 H 0.29385 0.40869 0.43283
H3 H 0.28399 0.45227 0.39892
O26 O 0.2871(14) 0.2860(14) 0.3296(11)
H4 H 0.30938 0.29048 0.30472
H5 H 0.26596 0.24696 0.34306
O27 O -0.0553(10) 0.1098(11) 0.3583(7)
O28 O 0.0381(10) 0.0836(9) 0.3631(6)
O29 O 0.0955(9) 0.0790(9) 0.4331(6)
O30 O 0.172(1) 0.0795(11) 0.4914(7)
O31 O 0.2966(12) 0.1062(12) 0.4804(8)
O32 O 0.2534(10) 0.1322(11) 0.4052(7)
O33 O 0.2217(12) -0.0093(12) 0.4446(8)
O34 O 0.1058(11) -0.0637(10) 0.4274(7)
O35 O 0.3440(13) 0.4154(13) 0.3001(9)
O36 O 0.3036(13) 0.4739(12) 0.2824(9)
O37 O 0.4019(13) 0.5605(12) 0.2453(9)
O38 O 0.3981(13) 0.4688(12) 0.1917(9)
H6 H 0.36022 0.44250 0.19339
O39 O 0.514(2) 0.483(2) 0.2079(13)
O40 O 0.5138(19) 0.5605(17) 0.2007(12)
O41 O 0.6174(13) 0.6280(11) 0.1380(8)
O42 O 0.6495(11) 0.7265(12) 0.1553(8)
O43 O 0.6255(10) 0.7514(10) 0.0786(7)
O44 O 0.5080(11) 0.6487(10) 0.0953(7)
O45 O 0.5032(11) 0.6655(12) 0.0123(8)
O46 O 0.5720(11) 0.6353(13) 0.0006(8)
O47 O 0.6915(11) 0.8455(12) 0.2063(7)
O48 O 0.7822(14) 0.9500(15) 0.2125(9)
O49 O 0.6191(11) 0.8945(11) 0.2134(7)
O50 O 0.6851(12) 0.9323(12) 0.1344(8)
O51 O 0.6435(12) 1.0203(12) 0.1354(8)
O52 O 0.6703(13) 1.0458(13) 0.1998(8)
O53 O 0.5602(13) 0.9955(12) 0.0609(9)
O54 O 0.5584(16) 0.9975(18) -0.0141(10)
O55 O 0.4626(12) 0.8804(13) 0.0500(8)
O56 O 0.5655(12) 0.8783(12) 0.0202(7)
O57 O 0.4843(13) 0.7681(12) -0.0134(9)
O58 O 0.4493(14) 0.8309(15) -0.0485(10)
O59 O 0.651(2) 0.5477(15) 0.2599(12)
H7 H 0.66791 0.56656 0.28534
H8 H 0.64285 0.50753 0.25450
O60 O 0.2792(10) 0.4978(11) 0.2015(7)
O61 O 0.3748(10) 0.6287(10) 0.1996(6)
O62 O 0.4315(9) 0.6864(9) 0.1300(6)
O63 O 0.5015(10) 0.7573(11) 0.0665(6)
O64 O 0.6269(10) 0.8516(10) 0.0764(7)
O65 O 0.4369(8) 0.8301(9) 0.1327(6)
O66 O 0.5557(10) 0.8938(11) 0.1152(7)
O67 O 0.5924(10) 0.7956(11) 0.1549(7)
C1 C 0.1566(12) 0.3026(13) 0.3336(8)
C2 C 0.0881(13) 0.2816(17) 0.3240(8)
H9 H 0.08239 0.31628 0.31382
C3 C 0.0685(15) 0.2303(15) 0.2922(11)
H10 H 0.09890 0.24670 0.26886
C4 C 0.0044(12) 0.2082(12) 0.2743(10)
C5 C 0.2072(15) 0.2272(13) 0.5343(11)
C6 C 0.2161(15) 0.2415(17) 0.4882(11)
H11 H 0.20999 0.27754 0.48267
C7 C 0.2790(13) 0.2577(14) 0.4735(9)
H12 H 0.30804 0.29220 0.49200
C8 C 0.2975(15) 0.2828(15) 0.4306(10)
C9 C 0.144(2) -0.0089(16) 0.577(2)
C10 C 0.2148(16) -0.1059(19) 0.5297(9)
C11 C 0.332(2) -0.0116(16) 0.3896(10)
C12 C 0.365(2) 0.0585(15) 0.3856(12)
H13 H 0.41028 0.07524 0.38409
C13 C 0.3438(12) 0.0768(12) 0.3464(9)
H14 H 0.34680 0.05717 0.32014
C14 C 0.3862(14) 0.1470(13) 0.3403(15)
C15 C 0.3459(19) 0.467(2) 0.2834(16)
C16 C 0.4060(15) 0.5085(15) 0.2609(10)
H15 H 0.43924 0.52530 0.28245
C17 C 0.4248(15) 0.4763(19) 0.2292(13)
H16 H 0.41386 0.43454 0.24025
C18 C 0.4953(13) 0.5154(14) 0.2262(9)
C19 C 0.627(2) 0.6817(14) 0.1301(10)
C20 C 0.6153(15) 0.6899(16) 0.0838(10)
H17 H 0.64511 0.68459 0.06603
C21 C 0.5496(17) 0.642(2) 0.0714(11)
H18 H 0.54342 0.59983 0.07528
C22 C 0.5437(15) 0.6531(17) 0.0253(9)
C23 C 0.7219(15) 0.9072(16) 0.2098(9)
C24 C 0.684(2) 0.939(2) 0.2124(12)
H19 H 0.69600 0.96703 0.23697
C25 C 0.7001(17) 0.9753(16) 0.1724(10)
H20 H 0.74579 1.00452 0.17257
C26 C 0.6685(17) 1.0136(18) 0.1678(9)
C27 C 0.5418(17) 0.9787(15) 0.0240(12)
C28 C 0.4929(14) 0.9114(12) 0.0163(9)
H21 H 0.46126 0.91235 -0.00220
C29 C 0.5200(16) 0.8783(16) -0.0077(12)
H22 H 0.54285 0.90484 -0.03199
C30 C 0.477(2) 0.8129(16) -0.0240(14)
C31 C 0.1642(17) -0.0893(19) 0.5381(13)
H23 H 0.13312 -0.12354 0.55590
C32 C 0.1888(17) -0.0309(17) 0.5645(11)
H24 H 0.20916 -0.03549 0.58991
O68 O 0.7368(13) 0.6863(18) 0.2006(8)
U1 U 0.6231(5) 1.1050(4) 0.1980(4)
U2 U 0.3786(5) 0.7226(6) -0.0815(4)
U3? U 0.3359(12) -0.1167(9) 0.5212(7)
U4? U 0.2804(10) -0.175(1) 0.5475(7)
Cd1B Cd -0.35216(11) -0.06733(10) 0.35126(8)
Cd3B Cd -0.0426(1) 0.12757(10) 0.42786(8)
Cd4B Cd -0.59076(14) 0.03006(16) 0.20304(13)
Cd6B Cd -0.79389(10) -0.29065(10) 0.13377(8)
Sb1B Sb -0.09347(11) -0.10336(11) 0.31562(7)
Sb2B Sb -0.14678(9) -0.03432(9) 0.39179(7)
Sb3B Sb -0.11071(9) 0.00146(11) 0.49382(7)
Sb4B Sb 0.09430(11) 0.25483(10) 0.44892(9)
Sb5B Sb -0.02978(11) 0.27753(11) 0.47082(10)
Sb6B Sb -0.1050(1) 0.13490(11) 0.53149(9)
Sb7B Sb -0.12552(11) 0.12979(12) 0.34535(9)
Sb8B Sb -0.18163(10) 0.15028(11) 0.44034(9)
Sb9B Sb -0.56351(11) -0.23595(10) 0.24503(7)
Sb10B Sb -0.63349(9) -0.18654(9) 0.16897(7)
Sb11B Sb -0.66789(10) -0.22267(11) 0.06682(7)
Sb12B Sb -0.80107(10) -0.22770(11) 0.02951(8)
Sb13B Sb -0.81606(10) -0.15228(11) 0.12187(8)
Sb14B Sb -0.80054(10) -0.21025(11) 0.21652(8)
Sb15B Sb -0.92056(10) -0.4281(1) 0.11072(8)
Sb16B Sb -0.94312(10) -0.30378(10) 0.08868(8)
O1B O -0.2868(13) -0.1192(14) 0.3692(8)
O2B O -0.3322(11) -0.1327(13) 0.3084(8)
O3B O -0.2567(11) -0.1995(12) 0.3617(8)
H1B H -0.24312 -0.22399 0.35864
O4B O -0.1773(11) -0.1061(12) 0.3108(8)
O5B O -0.1513(11) -0.1875(11) 0.2773(8)
O6B O -0.2465(17) -0.2540(15) 0.2562(11)
O7B O -0.1712(12) 0.0034(12) 0.5432(8)
O8B O -0.2712(17) -0.0337(16) 0.5586(12)
O9B O -0.1868(11) -0.0177(11) 0.4628(8)
O10B O -0.2072(11) 0.0827(11) 0.4830(8)
O11B O -0.2626(11) 0.0633(12) 0.4085(8)
O12B O -0.3158(13) -0.0412(13) 0.4186(9)
O13B O -0.0466(12) 0.1107(13) 0.5757(8)
O14B O 0.0453(12) 0.1389(14) 0.5939(9)
O15B O -0.0271(13) 0.2130(13) 0.5367(8)
O16B O 0.0891(12) 0.2202(12) 0.5028(8)
O17B O 0.1014(12) 0.3307(14) 0.4926(8)
O18B O 0.1088(12) 0.3517(13) 0.5602(8)
O19B O 0.0311(14) 0.3492(14) 0.4260(9)
O20B O 0.0362(15) 0.3811(16) 0.3596(11)
O21B O -0.0816(12) 0.2704(12) 0.4201(9)
O22B O -0.0628(12) 0.2191(12) 0.3484(9)
O23B O -0.1832(13) 0.1849(13) 0.3545(9)
O24B O -0.1742(12) 0.2696(15) 0.3373(11)
O25B O -0.4170(18) -0.1288(20) 0.4050(14)
H2B H -0.40869 -0.11484 0.43283
H3B H -0.45227 -0.16828 0.39892
O26B O -0.2860(14) 0.0011(14) 0.3296(11)
H4B H -0.29048 0.01891 0.30472
H5B H -0.24696 0.01900 0.34306
O27B O -0.1098(10) -0.1651(11) 0.3583(7)
O28B O -0.0836(10) -0.0455(9) 0.3631(6)
O29B O -0.0790(9) 0.0165(9) 0.4331(6)
O30B O -0.0795(10) 0.0925(11) 0.4914(7)
O31B O -0.1062(12) 0.1904(12) 0.4804(8)
O32B O -0.1322(10) 0.1212(11) 0.4052(7)
O33B O 0.0093(12) 0.2310(12) 0.4446(8)
O34B O 0.0637(11) 0.1695(10) 0.4274(7)
O35B O -0.4154(13) -0.0714(13) 0.3001(9)
O36B O -0.4739(13) -0.1703(12) 0.2824(9)
O37B O -0.5605(13) -0.1586(12) 0.2453(9)
O38B O -0.4688(13) -0.0707(12) 0.1917(9)
H6B H -0.44250 -0.08228 0.19339
O39B O -0.483(2) 0.031(2) 0.2079(13)
O40B O -0.5605(19) -0.0467(17) 0.2007(12)
O41B O -0.6280(13) -0.0106(11) 0.1380(8)
O42B O -0.7265(11) -0.0770(12) 0.1553(8)
O43B O -0.7514(10) -0.1259(10) 0.0786(7)
O44B O -0.6487(11) -0.1407(10) 0.0953(7)
O45B O -0.6655(11) -0.1623(12) 0.0123(8)
O46B O -0.6353(11) -0.0633(13) 0.0006(8)
O47B O -0.8455(11) -0.1540(12) 0.2063(7)
O48B O -0.9500(14) -0.1678(15) 0.2125(9)
O49B O -0.8945(11) -0.2754(11) 0.2134(7)
O50B O -0.9323(12) -0.2472(12) 0.1344(8)
O51B O -1.0203(12) -0.3768(12) 0.1354(8)
O52B O -1.0458(13) -0.3755(13) 0.1998(8)
O53B O -0.9955(13) -0.4353(12) 0.0609(9)
O54B O -0.9975(16) -0.4391(18) -0.0141(10)
O55B O -0.8804(12) -0.4178(13) 0.0500(8)
O56B O -0.8783(12) -0.3128(12) 0.0202(7)
O57B O -0.7681(13) -0.2838(12) -0.0134(9)
O58B O -0.8309(14) -0.3816(15) -0.0485(10)
O59B O -0.5477(20) 0.1033(15) 0.2599(12)
H7B H -0.56656 0.10136 0.28534
H8B H -0.50753 0.13533 0.25450
O60B O -0.4978(10) -0.2186(11) 0.2015(7)
O61B O -0.6287(10) -0.2539(10) 0.1996(6)
O62B O -0.6864(9) -0.2549(9) 0.1300(6)
O63B O -0.7573(10) -0.2558(11) 0.0665(6)
O64B O -0.8516(10) -0.2247(10) 0.0764(7)
O65B O -0.8301(8) -0.3932(9) 0.1327(6)
O66B O -0.8938(10) -0.3381(11) 0.1152(7)
O67B O -0.7956(10) -0.2032(11) 0.1549(7)
C1B C -0.3026(12) -0.1460(13) 0.3336(8)
C2B C -0.2816(13) -0.1935(17) 0.3240(8)
H9B H -0.31628 -0.23389 0.31382
C3B C -0.2303(15) -0.1618(15) 0.2922(11)
H10B H -0.24670 -0.14780 0.26886
C4B C -0.2082(12) -0.2038(12) 0.2743(10)
C5B C -0.2272(15) -0.0200(13) 0.5343(11)
C6B C -0.2415(15) -0.0254(17) 0.4882(11)
H11B H -0.27754 -0.06755 0.48267
C7B C -0.2577(13) 0.0213(14) 0.4735(9)
H12B H -0.29220 0.01584 0.49200
C8B C -0.2828(15) 0.0147(15) 0.4306(10)
C9B C 0.0089(20) 0.1529(16) 0.577(2)
C10B C 0.1059(16) 0.3207(19) 0.5297(9)
C11B C 0.0116(20) 0.3436(16) 0.3896(10)
C12B C -0.0585(20) 0.3065(15) 0.3856(12)
H13B H -0.07524 0.33504 0.38409
C13B C -0.0768(12) 0.2670(12) 0.3464(9)
H14B H -0.05717 0.28964 0.32014
C14B C -0.1470(14) 0.2392(13) 0.3403(15)
C15B C -0.4670(19) -0.1211(20) 0.2834(16)
C16B C -0.5085(15) -0.1025(15) 0.2609(10)
H15B H -0.52530 -0.08606 0.28245
C17B C -0.4763(15) -0.0515(19) 0.2292(13)
H16B H -0.43454 -0.02068 0.24025
C18B C -0.5154(13) -0.0201(14) 0.2262(9)
C19B C -0.6817(20) -0.0547(14) 0.1301(10)
C20B C -0.6899(15) -0.0746(16) 0.0838(10)
H17B H -0.68459 -0.03947 0.06603
C21B C -0.6420(17) -0.0924(20) 0.0714(11)
H18B H -0.59983 -0.05641 0.07528
C22B C -0.6531(15) -0.1094(17) 0.0253(9)
C23B C -0.9072(15) -0.1853(16) 0.2098(9)
C24B C -0.939(2) -0.255(2) 0.2124(12)
H19B H -0.96703 -0.27103 0.23697
C25B C -0.9753(17) -0.2752(16) 0.1724(10)
H20B H -1.00452 -0.25873 0.17257
C26B C -1.0136(17) -0.3451(18) 0.1678(9)
C27B C -0.9787(17) -0.4369(15) 0.0240(12)
C28B C -0.9114(14) -0.4185(12) 0.0163(9)
H21B H -0.91235 -0.45109 -0.00220
C29B C -0.8783(16) -0.3583(16) -0.0077(12)
H22B H -0.90484 -0.36199 -0.03199
C30B C -0.8129(20) -0.3359(16) -0.0240(14)
C31B C 0.0893(17) 0.2535(19) 0.5381(13)
H23B H 0.12354 0.25666 0.55590
C32B C 0.0309(17) 0.2197(17) 0.5645(11)
H24B H 0.03549 0.24466 0.58991
O68B O -0.6863(13) 0.0505(18) 0.2006(8)
Cd1D Cd 0.06733(11) -0.28483(10) 0.35126(8)
Cd3D Cd -0.12757(10) -0.17017(10) 0.42786(8)
Cd4D Cd -0.03006(14) -0.62082(16) 0.20304(13)
Cd6D Cd 0.29065(10) -0.50324(10) 0.13377(8)
Sb1D Sb 0.10336(11) 0.00989(11) 0.31562(7)
Sb2D Sb 0.03432(9) -0.11246(9) 0.39179(7)
Sb3D Sb -0.00146(9) -0.11217(11) 0.49382(7)
Sb4D Sb -0.25483(11) -0.16053(10) 0.44892(9)
Sb5D Sb -0.27753(11) -0.30731(11) 0.47082(10)
Sb6D Sb -0.1349(1) -0.23990(11) 0.53149(9)
Sb7D Sb -0.12979(11) -0.25531(12) 0.34535(9)
Sb8D Sb -0.15028(10) -0.33191(11) 0.44034(9)
Sb9D Sb 0.23595(11) -0.32756(10) 0.24503(7)
Sb10D Sb 0.18654(9) -0.44695(9) 0.16897(7)
Sb11D Sb 0.22267(10) -0.44522(11) 0.06682(7)
Sb12D Sb 0.2277(1) -0.57337(11) 0.02951(8)
Sb13D Sb 0.15228(10) -0.66378(11) 0.12187(8)
Sb14D Sb 0.21025(10) -0.59029(11) 0.21652(8)
Sb15D Sb 0.4281(1) -0.49246(10) 0.11072(8)
Sb16D Sb 0.30378(10) -0.63934(10) 0.08868(8)
O1D O 0.1192(13) -0.1676(14) 0.3692(8)
O2D O 0.1327(11) -0.1995(13) 0.3084(8)
O3D O 0.1995(11) -0.0572(12) 0.3617(8)
H1D H 0.22399 -0.01912 0.35864
O4D O 0.1061(11) -0.0712(12) 0.3108(8)
O5D O 0.1875(11) 0.0362(11) 0.2773(8)
O6D O 0.2540(17) 0.0075(15) 0.2562(11)
O7D O -0.0034(12) -0.1746(12) 0.5432(8)
O8D O 0.0337(17) -0.2375(16) 0.5586(12)
O9D O 0.0177(11) -0.1691(11) 0.4628(8)
O10D O -0.0827(11) -0.2899(11) 0.4830(8)
O11D O -0.0633(11) -0.3259(12) 0.4085(8)
O12D O 0.0412(13) -0.2746(13) 0.4186(9)
O13D O -0.1107(12) -0.1573(13) 0.5757(8)
O14D O -0.1389(12) -0.0936(14) 0.5939(9)
O15D O -0.2130(13) -0.2401(13) 0.5367(8)
O16D O -0.2202(12) -0.1311(12) 0.5028(8)
O17D O -0.3307(12) -0.2293(14) 0.4926(8)
O18D O -0.3517(12) -0.2429(13) 0.5602(8)
O19D O -0.3492(14) -0.3181(14) 0.4260(9)
O20D O -0.3811(15) -0.3449(16) 0.3596(11)
O21D O -0.2704(12) -0.3520(12) 0.4201(9)
O22D O -0.2191(12) -0.2819(12) 0.3484(9)
O23D O -0.1849(13) -0.3681(13) 0.3545(9)
O24D O -0.2696(12) -0.4438(15) 0.3373(11)
O25D O 0.1288(18) -0.2882(20) 0.4050(14)
H2D H 0.11484 -0.29385 0.43283
H3D H 0.16828 -0.28399 0.39892
O26D O -0.0011(14) -0.2871(14) 0.3296(11)
H4D H -0.01891 -0.30938 0.30472
H5D H -0.01900 -0.26596 0.34306
O27D O 0.1651(10) 0.0553(11) 0.3583(7)
O28D O 0.0455(10) -0.0381(9) 0.3631(6)
O29D O -0.0165(9) -0.0955(9) 0.4331(6)
O30D O -0.0925(10) -0.1720(11) 0.4914(7)
O31D O -0.1904(12) -0.2966(12) 0.4804(8)
O32D O -0.1212(10) -0.2534(11) 0.4052(7)
O33D O -0.2310(12) -0.2217(12) 0.4446(8)
O34D O -0.1695(11) -0.1058(10) 0.4274(7)
O35D O 0.0714(13) -0.3440(13) 0.3001(9)
O36D O 0.1703(13) -0.3036(12) 0.2824(9)
O37D O 0.1586(13) -0.4019(12) 0.2453(9)
O38D O 0.0707(13) -0.3981(12) 0.1917(9)
H6D H 0.08228 -0.36022 0.19339
O39D O -0.031(2) -0.514(2) 0.2079(13)
O40D O 0.0467(19) -0.5138(17) 0.2007(12)
O41D O 0.0106(13) -0.6174(11) 0.1380(8)
O42D O 0.0770(11) -0.6495(12) 0.1553(8)
O43D O 0.1259(10) -0.6255(10) 0.0786(7)
O44D O 0.1407(11) -0.508(1) 0.0953(7)
O45D O 0.1623(11) -0.5032(12) 0.0123(8)
O46D O 0.0633(11) -0.5720(13) 0.0006(8)
O47D O 0.1540(11) -0.6915(12) 0.2063(7)
O48D O 0.1678(14) -0.7822(15) 0.2125(9)
O49D O 0.2754(11) -0.6191(11) 0.2134(7)
O50D O 0.2472(12) -0.6851(12) 0.1344(8)
O51D O 0.3768(12) -0.6435(12) 0.1354(8)
O52D O 0.3755(13) -0.6703(13) 0.1998(8)
O53D O 0.4353(13) -0.5602(12) 0.0609(9)
O54D O 0.4391(16) -0.5584(18) -0.0141(10)
O55D O 0.4178(12) -0.4626(13) 0.0500(8)
O56D O 0.3128(12) -0.5655(12) 0.0202(7)
O57D O 0.2838(13) -0.4843(12) -0.0134(9)
O58D O 0.3816(14) -0.4493(15) -0.0485(10)
O59D O -0.1033(20) -0.6510(15) 0.2599(12)
H7D H -0.10136 -0.66791 0.28534
H8D H -0.13533 -0.64285 0.25450
O60D O 0.2186(10) -0.2792(11) 0.2015(7)
O61D O 0.2539(10) -0.3748(10) 0.1996(6)
O62D O 0.2549(9) -0.4315(9) 0.1300(6)
O63D O 0.2558(10) -0.5015(11) 0.0665(6)
O64D O 0.2247(10) -0.6269(10) 0.0764(7)
O65D O 0.3932(8) -0.4369(9) 0.1327(6)
O66D O 0.3381(10) -0.5557(11) 0.1152(7)
O67D O 0.2032(10) -0.5924(11) 0.1549(7)
C1D C 0.1460(12) -0.1566(13) 0.3336(8)
C2D C 0.1935(13) -0.0881(17) 0.3240(8)
H9D H 0.23389 -0.08239 0.31382
C3D C 0.1618(15) -0.0685(15) 0.2922(11)
H10D H 0.14780 -0.09890 0.26886
C4D C 0.2038(12) -0.0044(12) 0.2743(10)
C5D C 0.0200(15) -0.2072(13) 0.5343(11)
C6D C 0.0254(15) -0.2161(17) 0.4882(11)
H11D H 0.06755 -0.20999 0.48267
C7D C -0.0213(13) -0.2790(14) 0.4735(9)
H12D H -0.01584 -0.30804 0.49200
C8D C -0.0147(15) -0.2975(15) 0.4306(10)
C9D C -0.1529(20) -0.1440(16) 0.577(2)
C10D C -0.3207(16) -0.2148(19) 0.5297(9)
C11D C -0.3436(20) -0.3320(16) 0.3896(10)
C12D C -0.3065(20) -0.3650(15) 0.3856(12)
H13D H -0.33504 -0.41028 0.38409
C13D C -0.2670(12) -0.3438(12) 0.3464(9)
H14D H -0.28964 -0.34680 0.32014
C14D C -0.2392(14) -0.3862(13) 0.3403(15)
C15D C 0.1211(19) -0.3459(20) 0.2834(16)
C16D C 0.1025(15) -0.4060(15) 0.2609(10)
H15D H 0.08606 -0.43924 0.28245
C17D C 0.0515(15) -0.4248(19) 0.2292(13)
H16D H 0.02068 -0.41386 0.24025
C18D C 0.0201(13) -0.4953(14) 0.2262(9)
C19D C 0.0547(20) -0.6270(14) 0.1301(10)
C20D C 0.0746(15) -0.6153(16) 0.0838(10)
H17D H 0.03947 -0.64511 0.06603
C21D C 0.0924(17) -0.5496(20) 0.0714(11)
H18D H 0.05641 -0.54342 0.07528
C22D C 0.1094(15) -0.5437(17) 0.0253(9)
C23D C 0.1853(15) -0.7219(16) 0.2098(9)
C24D C 0.255(2) -0.684(2) 0.2124(12)
H19D H 0.27103 -0.69600 0.23697
C25D C 0.2752(17) -0.7001(16) 0.1724(10)
H20D H 0.25873 -0.74579 0.17257
C26D C 0.3451(17) -0.6685(18) 0.1678(9)
C27D C 0.4369(17) -0.5418(15) 0.0240(12)
C28D C 0.4185(14) -0.4929(12) 0.0163(9)
H21D H 0.45109 -0.46126 -0.00220
C29D C 0.3583(16) -0.5200(16) -0.0077(12)
H22D H 0.36199 -0.54285 -0.03199
C30D C 0.3359(20) -0.4770(16) -0.0240(14)
C31D C -0.2535(17) -0.1642(19) 0.5381(13)
H23D H -0.25666 -0.13312 0.55590
C32D C -0.2197(17) -0.1888(17) 0.5645(11)
H24D H -0.24466 -0.20916 0.58991
O68D O -0.0505(13) -0.7368(18) 0.2006(8)
Cd5* Cd -0.66667 -0.33333 0.15459(13)
Cd5** Cd 0.33333 -0.33333 0.15459(13)
Cd6* Cd -0.49676(10) -0.20611(10) 0.13377(8)
Cd6B* Cd 0.20611(10) -0.29065(10) 0.13377(8)
Cd6D* Cd 0.29065(10) 0.49676(10) 0.13377(8)
Sb10* Sb 0.44695(9) -0.36651(9) 0.16897(7)
Sb10B* Sb 0.36651(9) 0.81346(9) 0.16897(7)
Sb10D* Sb -0.81346(9) -0.44695(9) 0.16897(7)
Sb14* Sb -0.40971(10) -0.19946(11) 0.21652(8)
Sb14B* Sb 0.19946(10) -0.21025(11) 0.21652(8)
Sb14D* Sb 0.21025(10) 0.40971(11) 0.21652(8)
O60* O 0.2792(10) -0.5022(11) 0.2015(7)
O60B* O 0.5022(10) 0.7814(11) 0.2015(7)
O60D* O -0.7814(10) -0.2792(11) 0.2015(7)
O61B* O 0.3713(10) 0.7461(10) 0.1996(6)
O61D* O 0.2539(10) 0.6252(10) 0.1996(6)
O62B* O 0.3136(9) 0.7451(9) 0.1300(6)
O62D* O 0.2549(9) 0.5685(9) 0.1300(6)
O65* O -0.5631(8) -0.1699(9) 0.1327(6)
O65B* O 0.1699(8) -0.3932(9) 0.1327(6)
O65D* O 0.3932(8) 0.5631(9) 0.1327(6)
#END
