
#######################################################################
#
#                 Cambridge Crystallographic Data Centre
#                                CCDC
#
#######################################################################
#
# If this CIF has been generated from an entry in the Cambridge
# Structural Database, then it will include bibliographic, chemical,
# crystal, experimental, refinement or atomic coordinate data resulting
# from the CCDC's data processing and validation procedures.
#
#######################################################################

data_CSD_CIF_GUYGAK
_audit_creation_date 2015-09-25
_audit_creation_method CSD-ConQuest-V1
_database_code_CSD GUYGAK
_database_code_depnum_ccdc_archive 'CCDC 947641'
_chemical_formula_sum 'C60 H62 Cu2 Mo8 N16 O26'
_chemical_formula_moiety
;
(C24 H20 Cu1 N6 1+)2n,n(Mo8 O26 4-),2n(C6 H11 N2 1+)
;
_journal_coden_Cambridge 1350
_journal_volume 16
_journal_year 2014
_journal_page_first 10017
_journal_name_full 'CrystEngComm '
loop_
_publ_author_name
"Xiu-Li Hao"
"Yuan-Yuan Ma"
"Yong-Hui Wang"
"Hong-Ying Zang"
"Yang-Guang Li"
_chemical_name_systematic
;
catena-(bis(1-Ethyl-3-methylimidazolium) 
bis((\m~2~-2,2'-(1,4-phenylenebis(methylene-1H-pyrazole-1,3-diyl))dipyridine)-
copper) 
bis(\m~5~-oxo)-tetrakis(\m~3~-oxo)-hexakis(\m~2~-oxo)-tetradecaoxo-octa-molybd
enum)
;
_cell_volume   3751.681
_exptl_crystal_colour 'yellow'
_exptl_crystal_density_diffrn 2.052
_exptl_crystal_description 'block'
_diffrn_ambient_temperature 150
#These two values have been output from a single CSD field.
_refine_ls_R_factor_gt 0.0422
_refine_ls_wR_factor_gt 0.0422
_symmetry_cell_setting monoclinic
_symmetry_space_group_name_H-M 'P 21/c'
_symmetry_Int_Tables_number 14
loop_
_symmetry_equiv_pos_site_id
_symmetry_equiv_pos_as_xyz
1 x,y,z
2 -x,1/2+y,1/2-z
3 -x,-y,-z
4 x,-1/2-y,-1/2+z
_cell_length_a 14.4906(4)
_cell_length_b 13.7504(5)
_cell_length_c 18.9091(7)
_cell_angle_alpha 90
_cell_angle_beta 95.280(3)
_cell_angle_gamma 90
_cell_formula_units_Z 2
loop_
_atom_type_symbol
_atom_type_radius_bond
C 0.68
H 0.23
Cu 1.32
Mo 1.54
N 0.68
O 0.68
loop_
_atom_site_label
_atom_site_type_symbol
_atom_site_fract_x
_atom_site_fract_y
_atom_site_fract_z
Cu1 Cu 0.02195(6) 0.41688(6) 0.30279(5)
C1 C 0.0231(5) 0.5745(5) 0.4220(4)
H1 H -0.03100 0.54340 0.43580
C2 C 0.0548(6) 0.6563(6) 0.4589(4)
H2 H 0.02510 0.67900 0.49840
C3 C 0.1296(6) 0.7036(6) 0.4373(5)
H3 H 0.15220 0.76090 0.46110
C4 C 0.1726(5) 0.6676(5) 0.3804(4)
H4 H 0.22540 0.69910 0.36470
C5 C 0.1365(4) 0.5838(4) 0.3465(4)
C6 C 0.1747(4) 0.5405(4) 0.2851(4)
C7 C 0.2539(4) 0.5612(5) 0.2515(4)
H5 H 0.29950 0.60920 0.26450
C8 C 0.2520(5) 0.4982(5) 0.1962(4)
H6 H 0.29770 0.49250 0.16350
C9 C 0.1410(5) 0.3664(5) 0.1481(4)
H7 H 0.17660 0.36660 0.10590
H8 H 0.07480 0.37680 0.13180
C10 C 0.1523(5) 0.2699(5) 0.1850(4)
C11 C 0.0773(5) 0.2218(5) 0.2081(4)
H9 H 0.01690 0.24770 0.19730
C12 C 0.0880(5) 0.1370(5) 0.2467(4)
H10 H 0.03490 0.10500 0.26150
C13 C 0.1742(5) 0.0981(4) 0.2642(4)
C14 C 0.2510(5) 0.1463(5) 0.2405(4)
H11 H 0.31140 0.12060 0.25200
C15 C 0.2401(5) 0.2304(5) 0.2008(4)
H12 H 0.29260 0.26130 0.18420
C16 C 0.1868(5) 0.0046(4) 0.3045(4)
H13 H 0.24500 0.00760 0.33620
H14 H 0.13480 -0.00400 0.33440
C17 C 0.2658(5) -0.1257(5) 0.2391(4)
H15 H 0.32790 -0.11130 0.25670
C18 C 0.2388(4) -0.1972(4) 0.1919(4)
H16 H 0.27710 -0.24260 0.17050
C19 C 0.1430(4) -0.1893(4) 0.1819(3)
C20 C 0.0727(4) -0.2460(4) 0.1395(3)
C21 C 0.0948(4) -0.3298(4) 0.1049(3)
H17 H 0.15710 -0.35180 0.10650
C22 C 0.0240(5) -0.3812(5) 0.0679(4)
H18 H 0.03700 -0.44010 0.04440
C23 C -0.0653(5) -0.3466(5) 0.0653(4)
H19 H -0.11490 -0.38060 0.03990
C24 C -0.0807(5) -0.2613(5) 0.1004(4)
H20 H -0.14230 -0.23700 0.09790
N1 N 0.0637(3) 0.5370(4) 0.3684(3)
N2 N 0.1261(4) 0.4693(4) 0.2512(3)
N3 N 0.1735(4) 0.4451(4) 0.1958(3)
N4 N 0.1903(4) -0.0794(3) 0.2563(3)
N5 N 0.1132(3) -0.1162(4) 0.2214(3)
N6 N -0.0142(3) -0.2105(4) 0.1377(3)
Mo1 Mo 0.50638(3) 0.52628(3) 0.09303(3)
Mo2 Mo 0.56406(4) 0.28180(4) 0.10148(3)
Mo3 Mo 0.62411(4) 0.66237(4) -0.00315(3)
Mo4 Mo 0.68166(3) 0.41850(4) 0.00170(3)
O1 O 0.7372(3) 0.6750(3) -0.0159(2)
O2 O 0.5683(3) 0.7119(3) -0.0909(2)
O3 O 0.5236(2) 0.4024(3) 0.0076(2)
O4 O 0.5863(3) 0.2316(3) 0.1835(3)
O5 O 0.6760(3) 0.3526(3) 0.0890(2)
O6 O 0.5369(3) 0.4294(3) 0.1514(2)
O7 O 0.7908(3) 0.4643(3) 0.0112(3)
O8 O 0.5782(3) 0.1896(3) 0.0438(3)
O9 O 0.6018(3) 0.7530(3) 0.0531(2)
O10 O 0.3792(3) 0.4858(3) 0.0668(2)
O11 O 0.6297(2) 0.5528(3) 0.0660(2)
O12 O 0.6878(3) 0.3242(3) -0.0557(2)
O13 O 0.4893(3) 0.6197(3) 0.1477(2)
C25 C 0.5122(6) 0.5086(6) 0.3193(5)
H21 H 0.48030 0.54180 0.28030
C26 C 0.5721(6) 0.5472(7) 0.3686(6)
H22 H 0.58970 0.61370 0.37220
C27 C 0.5624(6) 0.3944(7) 0.3922(5)
H23 H 0.57210 0.33300 0.41470
C28 C 0.4434(6) 0.3430(5) 0.2957(4)
H24 H 0.45070 0.27840 0.31740
H25 H 0.45910 0.33990 0.24640
H26 H 0.37910 0.36460 0.29650
C29 C 0.6699(10) 0.4916(11) 0.4814(8)
H27 H 0.63880 0.53440 0.51390
H28 H 0.68250 0.42860 0.50570
C30 C 0.753(1) 0.5334(13) 0.4673(10)
H29 H 0.79310 0.54030 0.51170
H30 H 0.74120 0.59760 0.44590
H31 H 0.78360 0.49190 0.43440
N7 N 0.5047(4) 0.4112(4) 0.3352(3)
N8 N 0.6039(5) 0.4744(7) 0.4128(4)
Cu1A Cu -0.02195(6) -0.08312(6) 0.19721(5)
N5A N -0.1132(3) 0.3838(4) 0.2786(3)
N6A N 0.0142(3) 0.2895(4) 0.3623(3)
Mo1B Mo 0.49362(3) 0.47372(3) -0.09303(3)
Mo2B Mo 0.43594(4) 0.71820(4) -0.10148(3)
Mo3B Mo 0.37589(4) 0.33763(4) 0.00315(3)
Mo4B Mo 0.31834(3) 0.58150(4) -0.00170(3)
O1B O 0.2628(3) 0.3250(3) 0.0159(2)
O2B O 0.4317(3) 0.2881(3) 0.0909(2)
O3B O 0.4764(2) 0.5976(3) -0.0076(2)
O4B O 0.4137(3) 0.7684(3) -0.1835(3)
O5B O 0.3240(3) 0.6474(3) -0.0890(2)
O6B O 0.4631(3) 0.5706(3) -0.1514(2)
O7B O 0.2092(3) 0.5357(3) -0.0112(3)
O8B O 0.4218(3) 0.8104(3) -0.0438(3)
O9B O 0.3982(3) 0.2470(3) -0.0531(2)
O10B O 0.6208(3) 0.5142(3) -0.0668(2)
O11B O 0.3703(2) 0.4472(3) -0.0660(2)
O12B O 0.3122(3) 0.6758(3) 0.0557(2)
O13B O 0.5107(3) 0.3803(3) -0.1477(2)
#END
