
#######################################################################
#
#                 Cambridge Crystallographic Data Centre
#                                CCDC
#
#######################################################################
#
# If this CIF has been generated from an entry in the Cambridge
# Structural Database, then it will include bibliographic, chemical,
# crystal, experimental, refinement or atomic coordinate data resulting
# from the CCDC's data processing and validation procedures.
#
#######################################################################

data_CSD_CIF_GUZVUU
_audit_creation_date 2016-01-25
_audit_creation_method CSD-ConQuest-V1
_database_code_CSD GUZVUU
_database_code_depnum_ccdc_archive 'CCDC 1433006'
_chemical_formula_sum 'C42 H72 F18 Mn7 N15 O48'
_chemical_formula_moiety
;
3(C2 H8 N1 1+),n(C36 F18 Mn7 N12 O24 3-),24(H2 O1)
;
_journal_coden_Cambridge 1350
_journal_volume 18
_journal_year 2016
_journal_page_first 1174
_journal_name_full 'CrystEngComm '
loop_
_publ_author_name
"Song-Liang Cai"
"Sheng-Run Zheng"
"Jun Fan"
"Rong-Hua Zeng"
"Wei-Guang Zhang"
_chemical_name_systematic
;
catena-[tris(dimethylammonium) 
hexakis(\m-2-(trifluoromethyl)-imidazolyl-4,5-dicarboxylato)-hexa-manganese(ii
)-manganese(iii) tetracosahydrate]
;
_cell_volume  35829.949
_exptl_crystal_colour 'colorless'
_exptl_crystal_density_diffrn 1.371
_exptl_special_details
;
The formula in the associated publication describes 6 coordinated water 
molecules and 18 uncoordinated water molecules
;
_exptl_crystal_description 'polyhedra'
_diffrn_ambient_temperature 153
_refine_special_details
;
The SQUEEZE/PLATON program has been used to model some disorder.

;
#These two values have been output from a single CSD field.
_refine_ls_R_factor_gt 0.0795
_refine_ls_wR_factor_gt 0.0795
_symmetry_cell_setting cubic
_symmetry_space_group_name_H-M 'I -4 3 d'
_symmetry_Int_Tables_number 220
loop_
_symmetry_equiv_pos_site_id
_symmetry_equiv_pos_as_xyz
1 x,y,z
2 1/2-x,-y,1/2+z
3 -x,1/2+y,1/2-z
4 1/2+x,1/2-y,-z
5 z,x,y
6 1/2+z,1/2-x,-y
7 1/2-z,-x,1/2+y
8 -z,1/2+x,1/2-y
9 y,z,x
10 -y,1/2+z,1/2-x
11 1/2+y,1/2-z,-x
12 1/2-y,-z,1/2+x
13 1/4+y,1/4+x,1/4+z
14 1/4-y,3/4-x,3/4+z
15 3/4+y,1/4-x,3/4-z
16 3/4-y,3/4+x,1/4-z
17 1/4+x,1/4+z,1/4+y
18 3/4-x,3/4+z,1/4-y
19 1/4-x,3/4-z,3/4+y
20 3/4+x,1/4-z,3/4-y
21 1/4+z,1/4+y,1/4+x
22 3/4+z,1/4-y,3/4-x
23 3/4-z,3/4+y,1/4-x
24 1/4-z,3/4-y,3/4+x
25 1/2+x,1/2+y,1/2+z
26 -x,1/2-y,z
27 1/2-x,y,-z
28 x,-y,1/2-z
29 1/2+z,1/2+x,1/2+y
30 z,-x,1/2-y
31 -z,1/2-x,y
32 1/2-z,x,-y
33 1/2+y,1/2+z,1/2+x
34 1/2-y,z,-x
35 y,-z,1/2-x
36 -y,1/2-z,x
37 3/4+y,3/4+x,3/4+z
38 3/4-y,1/4-x,1/4+z
39 1/4+y,3/4-x,1/4-z
40 1/4-y,1/4+x,3/4-z
41 3/4+x,3/4+z,3/4+y
42 1/4-x,1/4+z,3/4-y
43 3/4-x,1/4-z,1/4+y
44 1/4+x,3/4-z,1/4-y
45 3/4+z,3/4+y,3/4+x
46 1/4+z,3/4-y,1/4-x
47 1/4-z,1/4+y,3/4-x
48 3/4-z,1/4-y,1/4+x
_cell_length_a 32.9672(2)
_cell_length_b 32.9672(2)
_cell_length_c 32.9672(2)
_cell_angle_alpha 90
_cell_angle_beta 90
_cell_angle_gamma 90
_cell_formula_units_Z 16
loop_
_atom_type_symbol
_atom_type_radius_bond
C 0.68
H 0.23
F 0.64
Mn 1.61
N 0.68
O 0.68
loop_
_atom_site_label
_atom_site_type_symbol
_atom_site_fract_x
_atom_site_fract_y
_atom_site_fract_z
C1 C 0.1184(4) 0.6497(3) 0.0757(3)
C2 C 0.1010(3) 0.6185(2) 0.0471(2)
C3 C 0.0897(3) 0.6169(3) 0.0070(3)
C4 C 0.0894(3) 0.6480(2) -0.0274(3)
C5 C 0.0847(3) 0.5596(3) 0.0329(3)
C6 C 0.0760(3) 0.5157(3) 0.0383(4)
C7 C 0.1931(3) 0.5339(3) 0.1160(4)
C8 C 0.1640(2) 0.5011(2) 0.1310(3)
C9 C 0.1669(2) 0.4602(3) 0.1393(3)
C10 C 0.1980(4) 0.4279(3) 0.1319(4)
C11 C 0.1090(2) 0.4811(3) 0.1543(2)
C12 C 0.0655(3) 0.4796(3) 0.1680(3)
F1 F 0.0581(2) 0.49834(15) 0.0080(2)
F2 F 0.1076(3) 0.49571(18) 0.0492(3)
F3 F 0.0537(3) 0.50657(18) 0.0694(2)
F4 F 0.0615(2) 0.4667(3) 0.2031(2)
F5 F 0.0444(2) 0.4548(3) 0.1465(3)
F6 F 0.0470(2) 0.5136(3) 0.1606(3)
Mn1 Mn 0.11722(4) 0.57911(4) 0.12967(4)
Mn2 Mn 0.06778(4) 0.56778(4) -0.06778(4)
Mn3 Mn 0.10248(9) 0.72850(5) 0.01999(6)
N1 N 0.0970(2) 0.5808(2) 0.0633(2)
N2 N 0.08009(19) 0.57749(18) -0.0032(2)
N3 N 0.12690(19) 0.5141(2) 0.14031(17)
N4 N 0.1309(2) 0.4456(2) 0.1532(2)
O1 O 0.1283(3) 0.6410(2) 0.10942(19)
O2 O 0.1155(4) 0.6885(2) 0.0639(3)
O3 O 0.0943(3) 0.6832(2) -0.0206(2)
O4 O 0.0795(2) 0.63293(16) -0.06156(19)
O5 O 0.17887(17) 0.56796(17) 0.1139(2)
O6 O 0.2299(2) 0.5247(2) 0.1092(4)
O7 O 0.2283(3) 0.4353(3) 0.1107(4)
O8 O 0.19253(19) 0.39578(18) 0.1501(2)
C13 C 0.1891(6) 0.7131(8) 0.1523(4)
H1 H 0.20970 0.73350 0.14530
H2 H 0.19760 0.68660 0.14200
H3 H 0.18600 0.71180 0.18180
C14 C 0.1109(5) 0.7263(4) 0.1596(4)
H4 H 0.11180 0.70460 0.17980
H5 H 0.08700 0.72280 0.14230
H6 H 0.10940 0.75260 0.17330
N5 N 0.1493(7) 0.7247(3) 0.1334(3)
H7 H 0.14450 0.70680 0.11250
H8 H 0.15260 0.74990 0.12180
C1G C -0.0757(4) 0.6184(3) -0.1497(3)
C2G C -0.0471(3) 0.6010(2) -0.1185(2)
C3G C -0.0070(3) 0.5897(3) -0.1169(3)
C4G C 0.0274(3) 0.5894(2) -0.1480(3)
C5G C -0.0329(3) 0.5847(3) -0.0596(3)
C6G C -0.0383(3) 0.5760(3) -0.0157(4)
C7G C -0.1160(3) 0.6931(3) -0.0339(4)
C8G C -0.1310(2) 0.6640(2) -0.0011(3)
C9G C -0.1393(2) 0.6669(3) 0.0398(3)
C10G C -0.1319(4) 0.6980(3) 0.0721(4)
C11G C -0.1543(2) 0.6090(3) 0.0189(2)
C12G C -0.1680(3) 0.5655(3) 0.0204(3)
F1G F -0.0080(2) 0.55810(15) 0.00166(20)
F2G F -0.0492(3) 0.60760(18) 0.00429(30)
F3G F -0.0694(3) 0.55370(18) -0.00657(20)
F4G F -0.2031(2) 0.5615(3) 0.0333(2)
F5G F -0.1465(2) 0.5444(3) 0.0452(3)
F6G F -0.1606(2) 0.5470(3) -0.0136(3)
Mn1G Mn -0.12967(4) 0.61722(4) -0.07911(4)
Mn3G Mn -0.01999(9) 0.60248(5) -0.22850(6)
N1G N -0.0633(2) 0.5970(2) -0.0808(2)
N2G N 0.00320(19) 0.58009(18) -0.07749(20)
N3G N -0.14031(19) 0.6269(2) -0.01410(17)
N4G N -0.1532(2) 0.6309(2) 0.0544(2)
O1G O -0.10942(30) 0.6283(2) -0.14100(19)
O2G O -0.0639(4) 0.6155(2) -0.1885(3)
O3G O 0.0206(3) 0.5943(2) -0.1832(2)
O4G O 0.06156(20) 0.57950(16) -0.13293(19)
O5G O -0.11390(17) 0.67887(17) -0.06796(20)
O6G O -0.1092(2) 0.7299(2) -0.0247(4)
O7G O -0.1107(3) 0.7283(3) 0.0647(4)
O8G O -0.15010(19) 0.69253(18) 0.10422(20)
C1J C 0.1497(4) 0.4243(3) -0.1184(3)
C2J C 0.1185(3) 0.4529(2) -0.1010(2)
C3J C 0.1169(3) 0.4930(3) -0.0897(3)
C4J C 0.1480(3) 0.5274(2) -0.0894(3)
C5J C 0.0596(3) 0.4671(3) -0.0847(3)
C6J C 0.0157(3) 0.4617(3) -0.0760(4)
C7J C 0.0339(3) 0.3840(3) -0.1931(4)
C8J C 0.0011(2) 0.3690(2) -0.1640(3)
C9J C -0.0398(2) 0.3607(3) -0.1669(3)
C10J C -0.0721(4) 0.3681(3) -0.1980(4)
C11J C -0.0189(2) 0.3457(3) -0.1090(2)
C12J C -0.0204(3) 0.3320(3) -0.0655(3)
F1J F -0.00166(20) 0.49200(15) -0.0581(2)
F2J F -0.00429(30) 0.45080(18) -0.1076(3)
F3J F 0.00657(30) 0.43060(18) -0.0537(2)
F4J F -0.0333(2) 0.2969(3) -0.0615(2)
F5J F -0.0452(2) 0.3535(3) -0.0444(3)
F6J F 0.0136(2) 0.3394(3) -0.0470(3)
Mn1J Mn 0.07911(4) 0.37033(4) -0.11722(4)
Mn3J Mn 0.22850(9) 0.48001(5) -0.10248(6)
N1J N 0.0808(2) 0.4367(2) -0.0970(2)
N2J N 0.07749(19) 0.50320(18) -0.08009(20)
N3J N 0.01410(19) 0.35969(20) -0.12690(17)
N4J N -0.0544(2) 0.3468(2) -0.1309(2)
O1J O 0.1410(3) 0.39058(20) -0.12830(19)
O2J O 0.1885(4) 0.4361(2) -0.1155(3)
O3J O 0.1832(3) 0.5206(2) -0.0943(2)
O4J O 0.13293(20) 0.56156(16) -0.07950(19)
O5J O 0.06796(17) 0.38610(17) -0.17887(20)
O6J O 0.0247(2) 0.3908(2) -0.2299(4)
O7J O -0.0647(3) 0.3893(3) -0.2283(4)
O8J O -0.10422(19) 0.34990(18) -0.19253(20)
Mn1LA Mn -0.17089(4) 0.63278(4) 0.12033(4)
Mn1OA Mn 0.13278(4) 0.37967(4) 0.17089(4)
Mn1RA Mn -0.12033(4) 0.32911(4) -0.13278(4)
Mn3Y Mn -0.10248(9) 0.77150(5) 0.01999(6)
Mn3DA Mn -0.01999(9) 0.39752(5) -0.27150(6)
Mn3IA Mn 0.27150(9) 0.48001(5) 0.10248(6)
N4M N -0.1956(2) 0.6191(2) -0.0968(2)
N4R N 0.1191(2) 0.5968(2) 0.1956(2)
N4W N 0.0968(2) 0.3044(2) -0.1191(2)
O6Z O 0.2701(2) 0.5247(2) -0.1092(4)
O6CA O 0.1092(2) 0.7701(2) -0.0247(4)
O6FA O 0.0247(2) 0.6092(2) -0.2701(4)
O7Z O 0.2717(3) 0.4353(3) -0.1107(4)
O7CA O 0.1107(3) 0.7717(3) 0.0647(4)
O7FA O -0.0647(3) 0.6107(3) -0.2717(4)
O8M O -0.14578(19) 0.55747(18) -0.0999(2)
O8R O 0.05747(19) 0.59990(18) 0.14578(20)
O8W O 0.09990(19) 0.35422(18) -0.05747(20)
#END
