
#######################################################################
#
#                 Cambridge Crystallographic Data Centre
#                                CCDC
#
#######################################################################
#
# If this CIF has been generated from an entry in the Cambridge
# Structural Database, then it will include bibliographic, chemical,
# crystal, experimental, refinement or atomic coordinate data resulting
# from the CCDC's data processing and validation procedures.
#
#######################################################################

data_CSD_CIF_HACWIR01
_audit_creation_date 1998-11-26
_audit_creation_method CSD-ConQuest-V1
_database_code_CSD HACWIR01
_database_code_depnum_ccdc_archive 'CCDC 1171169'
_chemical_formula_sum 'C24 H20 Mn2 N8 O20'
_chemical_formula_moiety
;
(C24 H8 Mn2 N8 O16 4-)n,4n(H3 O1 1+)
;
_journal_coden_Cambridge 15
_journal_volume 74
_journal_year 1996
_journal_page_first 2413
_journal_name_full 'Can.J.Chem. '
loop_
_publ_author_name
"Long Mao"
"S.J.Rettig"
"R.C.Thompson"
"J.Trotter"
"Shihua Xia"
_chemical_name_systematic
;
catena-(Dioxonium tetrakis(\m~2~-pyrazine-2,3-dicarboxylato)-manganese(ii))
;
_cell_volume   1456.544
_exptl_crystal_colour 'yellow'
_exptl_crystal_density_diffrn 1.939
_exptl_special_details
;
Data for deposition has not been received

;
_exptl_crystal_description 'octahedron'
_diffrn_ambient_temperature ?
_diffrn_special_details
;
The study was carried out at room temperature,in the range 283-303K

;
#These two values have been output from a single CSD field.
_refine_ls_R_factor_gt 0.032
_refine_ls_wR_factor_gt 0.032
_symmetry_cell_setting monoclinic
_symmetry_space_group_name_H-M 'C 2/c'
_symmetry_Int_Tables_number 15
loop_
_symmetry_equiv_pos_site_id
_symmetry_equiv_pos_as_xyz
1 x,y,z
2 -x,y,1/2-z
3 1/2+x,1/2+y,z
4 1/2-x,1/2+y,1/2-z
5 -x,-y,-z
6 x,-y,-1/2+z
7 -1/2-x,-1/2-y,-z
8 -1/2+x,-1/2-y,-1/2+z
_cell_length_a 14.472(1)
_cell_length_b 8.475(2)
_cell_length_c 13.0771(9)
_cell_angle_alpha 90
_cell_angle_beta 114.753(4)
_cell_angle_gamma 90
_cell_formula_units_Z 2
loop_
_atom_type_symbol
_atom_type_radius_bond
C 0.68
Mn 1.35
N 0.68
O 0.68
loop_
_atom_site_label
_atom_site_type_symbol
_atom_site_fract_x
_atom_site_fract_y
_atom_site_fract_z
Mn1 Mn 0.00000 -0.01093(4) 0.25000
O1 O 0.12682(8) 0.0398(1) 0.40711(8)
O2 O 0.18588(7) 0.1753(1) 0.56784(8)
O3 O -0.08342(10) -0.4505(1) 0.33109(9)
O4 O -0.08245(8) -0.2004(1) 0.28067(8)
N1 N -0.06109(8) 0.1511(1) 0.34954(9)
N2 N -0.11058(9) 0.3225(2) 0.49969(9)
C1 C 0.01003(10) 0.1881(2) 0.4521(1)
C2 C -0.01486(10) 0.2718(2) 0.5284(1)
C3 C -0.1807(1) 0.2846(2) 0.3978(1)
C4 C -0.1564(1) 0.1972(2) 0.3228(1)
C5 C 0.11626(10) 0.1297(2) 0.4772(1)
C6 C -0.05798(16) -0.3093(2) 0.3511(1)
O5 O 0.35500(9) 0.0469(1) 0.63133(10)
O1A O -0.12682(8) 0.0398(1) 0.09289(8)
N1A N 0.06109(8) 0.1511(1) 0.15046(9)
C2D C 0.01486(10) -0.2718(2) 0.4716(1)
N2D N 0.11058(9) -0.3225(2) 0.50031(9)
C3D C 0.1807(1) -0.2846(2) 0.6022(1)
C4D C 0.1564(1) -0.1972(2) 0.6772(1)
N1D N 0.06109(8) -0.1511(1) 0.65046(9)
Mn1D Mn 0.00000 0.01093(4) 0.75000
O1D O -0.12682(8) -0.0398(1) 0.59289(8)
C5D C -0.11626(10) -0.1297(2) 0.5228(1)
O2D O -0.18588(7) -0.1753(1) 0.43216(8)
C1D C -0.01003(10) -0.1881(2) 0.5479(1)
O1E O 0.12682(8) -0.0398(1) 0.90711(8)
C5E C 0.11626(10) -0.1297(2) 0.9772(1)
O2E O 0.18588(7) -0.1753(1) 1.06784(8)
C1E C 0.01003(10) -0.1881(2) 0.9521(1)
N1E N -0.06109(8) -0.1511(1) 0.84954(9)
O4D O 0.08245(8) 0.2004(1) 0.71933(8)
C6D C 0.05798(16) 0.3093(2) 0.6489(1)
O3D O 0.08342(10) 0.4505(1) 0.66891(9)
O4E O -0.08245(8) 0.2004(1) 0.78067(8)
C6E C -0.05798(16) 0.3093(2) 0.8511(1)
O3E O -0.08342(10) 0.4505(1) 0.83109(9)
C2A C 0.01486(10) 0.2718(2) 0.9716(1)
N2A N 0.11058(9) 0.3225(2) 1.00031(9)
C3A C 0.1807(1) 0.2846(2) 1.1022(1)
C4A C 0.1564(1) 0.1972(2) 1.1772(1)
N1A* N 0.06109(8) 0.1511(1) 1.15046(9)
Mn1A Mn 0.00000 -0.01093(4) 1.25000
C1A C -0.01003(10) 0.1881(2) 1.0479(1)
C5A C -0.11626(10) 0.1297(2) 1.0228(1)
O1A* O -0.12682(8) 0.0398(1) 1.09289(8)
O2A O -0.18588(7) 0.1753(1) 0.93216(8)
C4E C -0.1564(1) -0.1972(2) 0.8228(1)
C3E C -0.1807(1) -0.2846(2) 0.8978(1)
N2E N -0.11058(9) -0.3225(2) 0.99969(9)
C2E C -0.01486(10) -0.2718(2) 1.0284(1)
C6A C 0.05798(16) -0.3093(2) 1.1489(1)
O3A O 0.08342(10) -0.4505(1) 1.16891(9)
O4A O 0.08245(8) -0.2004(1) 1.21933(8)
O4A* O 0.08245(8) -0.2004(1) 0.21933(8)
#END
