
#######################################################################
#
#                 Cambridge Crystallographic Data Centre
#                                CCDC
#
#######################################################################
#
# If this CIF has been generated from an entry in the Cambridge
# Structural Database, then it will include bibliographic, chemical,
# crystal, experimental, refinement or atomic coordinate data resulting
# from the CCDC's data processing and validation procedures.
#
#######################################################################

data_CSD_CIF_HACWIR
_audit_creation_date 1993-12-06
_audit_creation_method CSD-ConQuest-V1
_database_code_CSD HACWIR
_database_code_depnum_ccdc_archive 'CCDC 1171168'
_chemical_formula_sum 'C24 H20 Mn2 N8 O20'
_chemical_formula_moiety
;
(C24 H8 Mn2 N8 O16 4-)n,4n(H3 O1 1+)
;
_journal_coeditor_code "IUCr DU1014"
_journal_coden_Cambridge 591
_journal_volume 49
_journal_year 1993
_journal_page_first 1465
_journal_name_full 'Acta Crystallogr.,Sect.C:Cryst.Struct.Commun. '
loop_
_publ_author_name
"F.Nepveu"
"M.Berkaoui"
"L.Walz"
_chemical_name_systematic
;
catena-(Dioxonium tetrakis(\m~2~-pyrazine-2,3-dicarboxylato)-manganese(ii))
;
_cell_volume   1459.716
_exptl_crystal_colour 'yellow'
_exptl_crystal_density_diffrn 1.93
_diffrn_ambient_temperature ?
_diffrn_special_details
;
The study was carried out at room temperature,in the range 283-303K

;
#These two values have been output from a single CSD field.
_refine_ls_R_factor_gt 0.0242
_refine_ls_wR_factor_gt 0.0242
_symmetry_cell_setting monoclinic
_symmetry_space_group_name_H-M 'C 2/c'
_symmetry_Int_Tables_number 15
loop_
_symmetry_equiv_pos_site_id
_symmetry_equiv_pos_as_xyz
1 x,y,z
2 1/2+x,1/2+y,z
3 -x,y,1/2-z
4 1/2-x,1/2+y,1/2-z
5 -x,-y,-z
6 -1/2-x,-1/2-y,-z
7 x,-y,-1/2+z
8 -1/2+x,-1/2-y,-1/2+z
_cell_length_a 14.484(2)
_cell_length_b 8.480(1)
_cell_length_c 13.087(1)
_cell_angle_alpha 90
_cell_angle_beta 114.753(7)
_cell_angle_gamma 90
_cell_formula_units_Z 2
loop_
_atom_type_symbol
_atom_type_radius_bond
C 0.68
H 0.23
Mn 1.35
N 0.68
O 0.68
loop_
_atom_site_label
_atom_site_type_symbol
_atom_site_fract_x
_atom_site_fract_y
_atom_site_fract_z
Mn1 Mn 0.00000 0.01081(5) 0.25000
O1 O 0.12703(9) -0.0397(1) 0.4073(1)
O2 O 0.18569(9) -0.1749(2) 0.5680(1)
O3 O -0.08248(9) 0.2001(1) 0.28068(9)
O4 O -0.0834(1) 0.4503(1) 0.3309(1)
C1 C 0.1160(1) -0.1298(2) 0.4772(1)
C2 C -0.0583(1) 0.3091(2) 0.3507(1)
C3 C 0.0102(1) -0.1882(2) 0.4522(1)
C4 C 0.0150(1) 0.2723(2) 0.4719(1)
N1 N 0.1104(1) 0.3229(2) 0.5001(1)
C5 C 0.1806(1) 0.2849(2) 0.6024(1)
C6 C 0.1561(1) 0.1976(2) 0.6771(1)
N2 N -0.0612(1) -0.1513(2) 0.3491(1)
H1 H 0.245(1) 0.323(2) 0.618(1)
H2 H 0.207(1) 0.168(2) 0.748(1)
O5 O 0.1452(1) -0.5470(2) 0.8687(1)
H3 H 0.124(2) -0.496(3) 0.790(2)
H4 H 0.138(2) -0.469(3) 0.911(2)
H5 H 0.217(2) -0.597(4) 0.899(2)
C4D C -0.0150(1) -0.2723(2) 0.5281(1)
C2D C 0.0583(1) -0.3091(2) 0.6493(1)
O3D O 0.08248(9) -0.2001(1) 0.71932(9)
Mn1D Mn 0.00000 -0.01081(5) 0.75000
O1D O -0.12703(9) 0.0397(1) 0.5927(1)
C1D C -0.1160(1) 0.1298(2) 0.5228(1)
O2D O -0.18569(9) 0.1749(2) 0.4320(1)
C3D C -0.0102(1) 0.1882(2) 0.5478(1)
O1B O -0.12703(9) -0.0397(1) 0.0927(1)
C1B C -0.1160(1) -0.1298(2) 0.0228(1)
O2B O -0.18569(9) -0.1749(2) -0.0680(1)
C3B C -0.0102(1) -0.1882(2) 0.0478(1)
C4F C 0.0150(1) -0.2723(2) -0.0281(1)
C2F C -0.0583(1) -0.3091(2) -0.1493(1)
O3F O -0.08248(9) -0.2001(1) -0.21932(9)
Mn1F Mn 0.00000 -0.01081(5) -0.25000
O1F O 0.12703(9) 0.0397(1) -0.0927(1)
C1F C 0.1160(1) 0.1298(2) -0.0228(1)
O2F O 0.18569(9) 0.1749(2) 0.0680(1)
C3F C 0.0102(1) 0.1882(2) -0.0478(1)
C4B C -0.0150(1) 0.2723(2) 0.0281(1)
C2B C 0.0583(1) 0.3091(2) 0.1493(1)
O3B O 0.08248(9) 0.2001(1) 0.21932(9)
C6D C -0.1561(1) -0.1976(2) 0.3229(1)
C5D C -0.1806(1) -0.2849(2) 0.3976(1)
N1D N -0.1104(1) -0.3229(2) 0.4999(1)
H1D H -0.245(1) -0.323(2) 0.382(1)
H2D H -0.207(1) -0.168(2) 0.252(1)
N2B N 0.0612(1) -0.1513(2) 0.1509(1)
C6F C 0.1561(1) -0.1976(2) 0.1771(1)
C5F C 0.1806(1) -0.2849(2) 0.1024(1)
N1F N 0.1104(1) -0.3229(2) 0.0001(1)
H1F H 0.245(1) -0.323(2) 0.118(1)
H2F H 0.207(1) -0.168(2) 0.248(1)
O4B O 0.0834(1) 0.4503(1) 0.1691(1)
N1B N -0.1104(1) 0.3229(2) -0.0001(1)
C5B C -0.1806(1) 0.2849(2) -0.1024(1)
C6B C -0.1561(1) 0.1976(2) -0.1771(1)
N2F N -0.0612(1) 0.1513(2) -0.1509(1)
H2B H -0.207(1) 0.168(2) -0.248(1)
H1B H -0.245(1) 0.323(2) -0.118(1)
O4F O -0.0834(1) -0.4503(1) -0.1691(1)
N2D N 0.0612(1) 0.1513(2) 0.6509(1)
O1F* O 0.12703(9) 0.0397(1) 0.9073(1)
O3F* O -0.08248(9) -0.2001(1) 0.78068(9)
N2F* N -0.0612(1) 0.1513(2) 0.8491(1)
O4D O 0.0834(1) -0.4503(1) 0.6691(1)
#END
