
#######################################################################
#
#                 Cambridge Crystallographic Data Centre
#                                CCDC
#
#######################################################################
#
# If this CIF has been generated from an entry in the Cambridge
# Structural Database, then it will include bibliographic, chemical,
# crystal, experimental, refinement or atomic coordinate data resulting
# from the CCDC's data processing and validation procedures.
#
#######################################################################

data_CSD_CIF_HAFWUI01
_audit_creation_date 2012-01-16
_audit_creation_method CSD-ConQuest-V1
_database_code_CSD HAFWUI01
_database_code_depnum_ccdc_archive 'CCDC 843913'
_chemical_formula_sum 'C50 H45 Co2 N6 Na1 O16'
_chemical_formula_moiety
;
(C32 H12 Co2 Na1 O16 3-)n,3n(C6 H11 N2 1+)
;
_journal_coden_Cambridge 182
_journal_volume 47
_journal_year 2011
_journal_page_first 11933
_journal_name_full 'Chem.Commun. '
loop_
_publ_author_name
"Wen-Xian Chen"
"Hao-Ran Xu"
"Gui-Lin Zhuang"
"La-Sheng Long"
"Rong-Bin Huang"
"Lan-Sun Zheng"
_chemical_name_systematic
;
catena-(bis(\m~5~-biphenyl-2,2',4,4'-tetracarboxylato)-sodium-di-cobalt 
tris(1-ethyl-3-methyl-1H-imidazol-3-ium))
;
_cell_volume   4914.169
_exptl_crystal_colour 'purple'
_exptl_crystal_density_diffrn 1.523
_exptl_crystal_description 'block'
_diffrn_ambient_temperature 298
_refine_special_details
;
C26 disordered by symmetry over two sites with occupancy 0.50.

;
#These two values have been output from a single CSD field.
_refine_ls_R_factor_gt 0.0504
_refine_ls_wR_factor_gt 0.0504
_symmetry_cell_setting monoclinic
_symmetry_space_group_name_H-M 'C 2/c'
_symmetry_Int_Tables_number 15
loop_
_symmetry_equiv_pos_site_id
_symmetry_equiv_pos_as_xyz
1 x,y,z
2 -x,y,1/2-z
3 1/2+x,1/2+y,z
4 1/2-x,1/2+y,1/2-z
5 -x,-y,-z
6 x,-y,-1/2+z
7 -1/2-x,-1/2-y,-z
8 -1/2+x,-1/2-y,-1/2+z
_cell_length_a 21.5119(5)
_cell_length_b 11.8062(3)
_cell_length_c 19.4114(5)
_cell_angle_alpha 90
_cell_angle_beta 94.591(2)
_cell_angle_gamma 90
_cell_formula_units_Z 4
loop_
_atom_type_symbol
_atom_type_radius_bond
C 0.68
H 0.23
Co 1.26
N 0.68
Na 1.66
O 0.68
loop_
_atom_site_label
_atom_site_type_symbol
_atom_site_fract_x
_atom_site_fract_y
_atom_site_fract_z
Co1 Co 0.623758(16) 0.99868(3) 1.161689(19)
Na1 Na 0.50000 0.90269(16) 1.25000
O1 O 0.50332(12) 0.7407(3) 1.14684(13)
O2 O 0.58237(9) 0.85175(17) 1.18067(10)
O3 O 0.43722(9) 0.92620(17) 0.90558(11)
O4 O 0.51200(11) 0.9579(2) 0.83609(11)
O5 O 0.69558(9) 0.99524(17) 1.10374(10)
O6 O 0.79341(11) 0.9513(2) 1.09077(17)
O7 O 0.80971(16) 0.4749(2) 1.24483(13)
O8 O 0.84963(11) 0.6380(3) 1.27417(14)
C1 C 0.62939(13) 0.7922(2) 1.04512(14)
C2 C 0.56775(12) 0.8077(2) 1.06117(14)
C3 C 0.52337(13) 0.8457(2) 1.01010(14)
H1 H 0.48200 0.85320 1.02020
C4 C 0.54003(12) 0.8723(2) 0.94458(14)
C5 C 0.60097(13) 0.8562(3) 0.92909(15)
H2 H 0.61250 0.87310 0.88510
C6 C 0.64511(13) 0.8150(3) 0.97887(15)
H3 H 0.68570 0.80260 0.96750
C7 C 0.67721(13) 0.7432(2) 1.09649(14)
C8 C 0.72946(12) 0.8040(2) 1.12351(14)
C9 C 0.77319(13) 0.7500(3) 1.16924(14)
H4 H 0.80760 0.79030 1.18810
C10 C 0.76636(14) 0.6375(3) 1.18703(15)
C11 C 0.71520(17) 0.5779(3) 1.15970(17)
H5 H 0.71040 0.50210 1.17120
C12 C 0.67108(16) 0.6307(3) 1.11530(18)
H6 H 0.63640 0.58990 1.09760
C13 C 0.54906(14) 0.7965(3) 1.13409(15)
C14 C 0.49351(13) 0.9227(2) 0.89037(15)
C15 C 0.74075(13) 0.9256(3) 1.10471(16)
C16 C 0.81172(16) 0.5792(3) 1.23812(16)
C17 C 0.32470(16) 0.6923(3) 0.06313(18)
H7 H 0.31300 0.61640 0.06190
C18 C 0.35199(18) 0.8603(3) 0.10029(19)
H8 H 0.36220 0.92070 0.12990
C19 C 0.35080(16) 0.8625(3) 0.03155(18)
H9 H 0.36010 0.92400 0.00430
C20 C 0.3291(3) 0.7146(4) 0.1906(2)
H10 H 0.31710 0.63620 0.18970
H11 H 0.29770 0.75860 0.21070
H12 H 0.36820 0.72320 0.21760
C21 C 0.32732(19) 0.7183(3) -0.06387(19)
H13 H 0.31740 0.78280 -0.09370
H14 H 0.29330 0.66440 -0.07040
C22 C 0.3855(2) 0.6648(4) -0.0837(2)
H15 H 0.38010 0.64130 -0.13120
H16 H 0.39500 0.60000 -0.05490
H17 H 0.41910 0.71830 -0.07800
C23? C 0.5168(3) 0.3247(5) 0.2794(3)
H18? H 0.53130 0.26090 0.30370
C24? C 0.50000 0.4968(7) 0.25000
H19? H 0.50000 0.57560 0.25000
C25? C 0.5588(4) 0.4733(9) 0.3663(6)
H20? H 0.59610 0.42750 0.37420
H21? H 0.57270 0.55000 0.35840
C26? C 0.5343(9) 0.4753(18) 0.4211(8)
H22? H 0.56290 0.50690 0.45650
H23? H 0.52350 0.39960 0.43380
H24? H 0.49720 0.52090 0.41610
N1 N 0.33562(14) 0.7540(2) 0.11961(14)
N2 N 0.33310(13) 0.7563(2) 0.00871(14)
N3? N 0.52686(19) 0.4337(4) 0.2991(3)
Co1D Co 0.376242(16) 1.00132(3) 0.838311(19)
Co1C Co 0.876242(16) 0.49868(3) 1.338311(19)
Co1G Co 0.123758(16) 1.50132(3) 0.661689(19)
Na1D Na 0.50000 1.09731(16) 0.75000
O1D O 0.49668(12) 1.2593(3) 0.85316(13)
O2D O 0.41763(9) 1.14825(17) 0.81933(10)
O2A O 0.41763(9) 0.85175(17) 1.31933(10)
O3D O 0.56278(9) 1.07380(17) 1.09442(11)
O4D O 0.48800(11) 1.0421(2) 1.16391(11)
O4E O 0.51200(11) 1.0421(2) 1.33609(11)
O5D O 0.30442(9) 1.00476(17) 0.89626(10)
O6D O 0.20659(11) 1.0487(2) 0.90923(17)
O7D O 0.19029(16) 1.5251(2) 0.75517(13)
O7C O 0.69029(16) 0.9749(2) 1.25517(13)
O7G O 0.30971(16) 1.0251(2) 0.74483(13)
O8D O 0.15037(11) 1.3620(3) 0.72583(14)
O8C O 0.65037(11) 1.1380(3) 1.22583(14)
O8G O 0.34963(11) 0.8620(3) 0.77417(14)
C1D C 0.37061(13) 1.2078(2) 0.95488(14)
C2D C 0.43225(12) 1.1923(2) 0.93883(14)
C3D C 0.47663(13) 1.1543(2) 0.98990(14)
H1D H 0.51800 1.14680 0.97980
C4D C 0.45997(12) 1.1277(2) 1.05542(14)
C5D C 0.39903(13) 1.1438(3) 1.07091(15)
H2D H 0.38750 1.12690 1.11490
C6D C 0.35489(13) 1.1850(3) 1.02113(15)
H3D H 0.31430 1.19740 1.03250
C7D C 0.32279(13) 1.2568(2) 0.90351(14)
C8D C 0.27054(12) 1.1960(2) 0.87649(14)
C9D C 0.22681(13) 1.2500(3) 0.83076(14)
H4D H 0.19240 1.20970 0.81190
C10D C 0.23364(14) 1.3625(3) 0.81297(15)
C11D C 0.28480(17) 1.4221(3) 0.84030(17)
H5D H 0.28960 1.49790 0.82880
C12D C 0.32892(16) 1.3693(3) 0.88470(18)
H6D H 0.36360 1.41010 0.90240
C13D C 0.45094(14) 1.2035(3) 0.86591(15)
C14D C 0.50649(13) 1.0773(2) 1.10963(15)
C15D C 0.25925(13) 1.0744(3) 0.89529(16)
C16D C 0.18828(16) 1.4208(3) 0.76188(16)
#END
