
#######################################################################
#
#                 Cambridge Crystallographic Data Centre
#                                CCDC
#
#######################################################################
#
# If this CIF has been generated from an entry in the Cambridge
# Structural Database, then it will include bibliographic, chemical,
# crystal, experimental, refinement or atomic coordinate data resulting
# from the CCDC's data processing and validation procedures.
#
#######################################################################

data_CSD_CIF_HAGGUT
_audit_creation_date 2012-01-09
_audit_creation_method CSD-ConQuest-V1
_database_code_CSD HAGGUT
_database_code_depnum_ccdc_archive 'CCDC 779523'
_chemical_formula_sum 'C48 H42 Ag2 N2 O6 P2 S1'
_chemical_formula_moiety
;
(C23 H21 Ag1 N2 P1 1+)n,n(C25 H19 Ag1 O5 P1 S1 1-),n(H2 O1)
;
_journal_coden_Cambridge 29
_journal_volume 637
_journal_year 2011
_journal_page_first 1566
_journal_name_full 'Z.Anorg.Allg.Chem. '
loop_
_publ_author_name
"Xiao-Feng Zheng"
"Long-Guan Zhu"
_chemical_name_systematic
;
catena-[((Pyridin-2-amine)-triphenylphosphine-silver(i)) 
(\m~2~-3-sulfonatobenzoato-O,O':O'')-triphenylphosphine-silver(i) 
monohydrate]
;
_cell_volume   2239.059
_exptl_crystal_colour 'brown'
_exptl_crystal_density_diffrn 1.561
_exptl_crystal_description 'plate'
_diffrn_ambient_temperature 295
#These two values have been output from a single CSD field.
_refine_ls_R_factor_gt 0.0515
_refine_ls_wR_factor_gt 0.0515
_symmetry_cell_setting triclinic
_symmetry_space_group_name_H-M 'P -1'
_symmetry_Int_Tables_number 2
loop_
_symmetry_equiv_pos_site_id
_symmetry_equiv_pos_as_xyz
1 x,y,z
2 -x,-y,-z
_cell_length_a 9.1199(4)
_cell_length_b 9.5148(4)
_cell_length_c 29.1988(12)
_cell_angle_alpha 91.426(1)
_cell_angle_beta 98.720(1)
_cell_angle_gamma 115.998(1)
_cell_formula_units_Z 2
loop_
_atom_type_symbol
_atom_type_radius_bond
C 0.68
H 0.23
Ag 1.45
N 0.68
O 0.68
P 1.05
S 1.02
loop_
_atom_site_label
_atom_site_type_symbol
_atom_site_fract_x
_atom_site_fract_y
_atom_site_fract_z
Ag1 Ag 0.79197(5) 0.01818(5) 0.202094(13)
Ag2 Ag 0.65640(5) 0.18232(5) 0.294070(13)
P1 P 0.73701(15) 0.03037(15) 0.12337(4)
P2 P 0.73272(15) 0.23766(14) 0.37475(4)
S1 S 1.42874(14) 0.80941(15) 0.23536(4)
N1 N 0.9376(5) 0.0047(5) 0.26108(14)
N2 N 1.1508(6) 0.2422(6) 0.25142(19)
H1 H 1.25410 0.30800 0.25810
H2 H 1.08420 0.26200 0.23150
O1 O 0.6801(4) 0.3916(5) 0.24174(15)
O2 O 0.8697(4) 0.3101(4) 0.24696(12)
O3 O 1.4338(4) 0.7719(5) 0.28126(13)
O4 O 1.4972(5) 0.7329(5) 0.20201(15)
O5 O 1.5014(4) 0.9810(4) 0.23552(13)
O6 O 0.4824(5) -0.5036(5) 0.29384(18)
C1 C 0.7314(6) -0.1371(6) 0.08234(16)
C2 C 0.6526(7) -0.2859(7) 0.0946(2)
H3 H 0.60730 -0.30320 0.12160
C3 C 0.6400(8) -0.4186(7) 0.0647(2)
H4 H 0.58450 -0.51910 0.07350
C4 C 0.7070(9) -0.4038(8) 0.0229(2)
H5 H 0.69690 -0.49080 0.00500
C5 C 0.7849(9) -0.2581(9) 0.0110(2)
H6 H 0.83100 -0.24170 -0.01580
C6 C 0.7979(7) -0.1238(7) 0.04020(19)
H7 H 0.85260 -0.02400 0.03080
C7 C 0.5427(6) 0.0329(6) 0.10837(17)
C8 C 0.5057(7) 0.1396(7) 0.1371(2)
H8 H 0.58410 0.20140 0.16270
C9 C 0.3619(7) 0.1497(8) 0.1271(2)
H9 H 0.33750 0.21740 0.14450
C10 C 0.2551(8) 0.0522(9) 0.0894(2)
H10 H 0.15400 0.05490 0.08080
C11 C 0.2885(8) -0.0564(9) 0.0614(2)
H11 H 0.20750 -0.12120 0.03670
C12 C 0.4336(7) -0.0657(8) 0.0705(2)
H12 H 0.45750 -0.13280 0.05270
C13 C 0.8890(4) 0.2095(3) 0.10683(12)
C14 C 0.8464(4) 0.2829(5) 0.07019(12)
H13 H 0.74010 0.23560 0.05250
C15 C 0.9628(6) 0.4269(5) 0.06005(14)
H14 H 0.93430 0.47600 0.03550
C16 C 1.1218(5) 0.4975(4) 0.08654(16)
H15 H 1.19970 0.59380 0.07970
C17 C 1.1644(3) 0.4241(4) 0.12318(14)
H16 H 1.27080 0.47130 0.14090
C18 C 1.0480(4) 0.2801(4) 0.13333(11)
H17 H 1.07650 0.23100 0.15780
C19 C 0.8808(7) -0.1250(7) 0.28107(19)
H18 H 0.76890 -0.19560 0.27340
C20 C 0.9767(9) -0.1562(8) 0.3109(2)
H19 H 0.93820 -0.24870 0.32530
C21 C 1.1393(9) -0.0463(9) 0.3208(2)
H20 H 1.21140 -0.06670 0.34260
C22 C 1.2006(8) 0.0861(8) 0.3017(2)
H21 H 1.31230 0.15750 0.30900
C23 C 1.0945(6) 0.1113(7) 0.27154(18)
C24 C 0.8196(6) 0.4055(5) 0.23622(16)
C25 C 0.9395(5) 0.5449(5) 0.21675(16)
C26 C 1.1057(5) 0.6042(5) 0.23090(15)
H22 H 1.14500 0.55150 0.25200
C27 C 1.2186(5) 0.7360(5) 0.21609(15)
C28 C 1.1688(6) 0.8088(6) 0.18531(18)
H23 H 1.24280 0.89840 0.17410
C29 C 1.0042(7) 0.7475(7) 0.1705(2)
H24 H 0.96540 0.79520 0.14750
C30 C 0.8894(6) 0.6188(6) 0.18711(18)
H25 H 0.77660 0.58560 0.17700
C31 C 0.7669(4) 0.0845(3) 0.39326(12)
C32 C 0.6478(3) -0.0692(4) 0.37899(12)
H26 H 0.54840 -0.08840 0.35980
C33 C 0.6771(4) -0.1941(3) 0.39348(13)
H27 H 0.59730 -0.29690 0.38390
C34 C 0.8255(5) -0.1653(4) 0.42223(14)
H28 H 0.84510 -0.24890 0.43190
C35 C 0.9447(4) -0.0117(5) 0.43649(13)
H29 H 1.04400 0.00760 0.45570
C36 C 0.9154(4) 0.1133(3) 0.42200(13)
H30 H 0.99520 0.21610 0.43150
C37 C 0.5875(5) 0.2611(6) 0.41254(16)
C38 C 0.5487(7) 0.1946(7) 0.45271(18)
H31 H 0.59560 0.12960 0.46350
C39 C 0.4377(8) 0.2192(8) 0.4799(2)
H32 H 0.41840 0.16940 0.50690
C40 C 0.3641(8) 0.3084(8) 0.4680(2)
H33 H 0.29330 0.32350 0.48520
C41 C 0.4007(8) 0.3749(8) 0.4289(3)
H34 H 0.35470 0.44120 0.41890
C42 C 0.5093(7) 0.3497(7) 0.4008(2)
H35 H 0.52480 0.39780 0.37350
C43 C 0.9213(6) 0.4218(5) 0.39271(16)
C44 C 0.9552(6) 0.5148(6) 0.43678(18)
H36 H 0.88030 0.48110 0.45720
C45 C 1.0993(7) 0.6533(7) 0.4480(2)
H37 H 1.12290 0.71500 0.47590
C46 C 1.2106(7) 0.6995(7) 0.4161(2)
H38 H 1.30840 0.79230 0.42380
C47 C 1.1794(7) 0.6093(7) 0.3724(2)
H39 H 1.25540 0.64380 0.35230
C48 C 1.0350(6) 0.4706(7) 0.36058(19)
H40 H 1.01200 0.41030 0.33250
H41 H 0.538(7) -0.525(6) 0.2763(19)
H42 H 0.498(8) -0.410(3) 0.290(2)
Ag2* Ag 1.65640(5) 1.18232(5) 0.294070(13)
O5* O 0.5014(4) -0.0190(4) 0.23552(13)
#END
