
#######################################################################
#
#                 Cambridge Crystallographic Data Centre
#                                CCDC
#
#######################################################################
#
# If this CIF has been generated from an entry in the Cambridge
# Structural Database, then it will include bibliographic, chemical,
# crystal, experimental, refinement or atomic coordinate data resulting
# from the CCDC's data processing and validation procedures.
#
#######################################################################

data_CSD_CIF_HAGRUD
_audit_creation_date 2003-08-20
_audit_creation_method CSD-ConQuest-V1
_database_code_CSD HAGRUD
_database_code_depnum_ccdc_archive 'CCDC 187219'
_chemical_formula_sum 'C44 H46 Cu1 N8 O14'
_chemical_formula_moiety
;
(C14 H19 N4 O3 1+)2n,n(C16 H8 Cu1 O8 2-)
;
_journal_coden_Cambridge 1295
_journal_volume 6
_journal_year 2003
_journal_page_first 748
_journal_name_full 'Inorg.Chem.Commun. '
loop_
_publ_author_name
"S.B.Raj"
"P.T.Muthiah"
"G.Bocelli"
"A.Cantoni"
_chemical_name_systematic
;
catena-(2,4-Diamino-5-(3',4',5'-trimethoxybenzyl)pyrimidinium 
bis(\m~2~-phthalato)-copper(ii))
;
_chemical_melting_point 492.15
_cell_volume   4426.594
_exptl_crystal_colour 'blue'
_exptl_crystal_density_diffrn 1.462
_diffrn_ambient_temperature 293
#These two values have been output from a single CSD field.
_refine_ls_R_factor_gt 0.0545
_refine_ls_wR_factor_gt 0.0545
_symmetry_cell_setting monoclinic
_symmetry_space_group_name_H-M 'C 2/c'
_symmetry_Int_Tables_number 15
loop_
_symmetry_equiv_pos_site_id
_symmetry_equiv_pos_as_xyz
1 x,y,z
2 1/2+x,1/2+y,z
3 -x,y,1/2-z
4 1/2-x,1/2+y,1/2-z
5 -x,-y,-z
6 -1/2-x,-1/2-y,-z
7 x,-y,-1/2+z
8 -1/2+x,-1/2-y,-1/2+z
_cell_length_a 36.735(4)
_cell_length_b 5.825(1)
_cell_length_c 22.634(3)
_cell_angle_alpha 90
_cell_angle_beta 113.94(2)
_cell_angle_gamma 90
_cell_formula_units_Z 4
loop_
_atom_type_symbol
_atom_type_radius_bond
C 0.63
H 0.23
Cu 1.62
N 0.68
O 0.73
loop_
_atom_site_label
_atom_site_type_symbol
_atom_site_fract_x
_atom_site_fract_y
_atom_site_fract_z
C1 C 0.34861(11) 0.0788(6) 0.49300(16)
C2 C 0.30797(11) 0.0443(6) 0.46066(16)
C3 C 0.28585(11) 0.1811(6) 0.40837(16)
C4 C 0.30454(12) 0.3497(6) 0.38722(16)
C5 C 0.34537(12) 0.3863(6) 0.42049(17)
C6 C 0.36748(11) 0.2533(6) 0.47389(15)
C7 C 0.41117(11) 0.3027(6) 0.51321(17)
C8 C 0.43744(10) 0.0940(5) 0.53397(14)
C9 C 0.45491(11) 0.0250(6) 0.59638(15)
N1 N 0.47927(10) -0.1607(5) 0.61354(12)
H1 H 0.48960 -0.20390 0.65330
C10 C 0.48752(11) -0.2781(5) 0.56945(14)
N2 N 0.47103(8) -0.2243(4) 0.50670(11)
C11 C 0.44581(9) -0.0436(5) 0.48870(13)
O1 O 0.28688(8) -0.1190(5) 0.47650(14)
C12 C 0.30883(17) -0.2662(9) 0.5299(3)
O2 O 0.24514(8) 0.1492(5) 0.37634(13)
C13 C 0.22345(16) 0.3042(9) 0.3977(3)
O3 O 0.27992(9) 0.4701(5) 0.33402(13)
C14 C 0.2958(2) 0.6627(9) 0.3142(3)
N3 N 0.51235(12) -0.4544(6) 0.58863(18)
N4 N 0.42874(10) 0.0041(6) 0.42601(13)
H2 H 0.3051(13) 0.773(8) 0.344(2)
H3 H 0.2918(15) -0.343(8) 0.538(2)
H4 H 0.3242(14) -0.175(7) 0.572(2)
H5 H 0.1986(16) 0.292(8) 0.379(2)
H6 H 0.2781(16) 0.724(9) 0.280(3)
H7 H 0.2313(13) 0.471(8) 0.392(2)
H8 H 0.3634(11) -0.010(6) 0.5281(17)
H9 H 0.3177(19) 0.595(11) 0.299(3)
H10 H 0.4138(13) 0.127(7) 0.4126(19)
H11 H 0.3256(17) -0.378(9) 0.522(3)
H12 H 0.4142(12) 0.383(6) 0.5515(19)
H13 H 0.2271(17) 0.284(10) 0.441(3)
H14 H 0.4350(13) -0.066(8) 0.399(2)
H15 H 0.4479(11) 0.091(6) 0.6274(18)
H16 H 0.4204(11) 0.396(6) 0.4892(17)
H17 H 0.5201(13) -0.498(7) 0.624(2)
H18 H 0.5157(14) -0.540(8) 0.561(2)
H19 H 0.3584(10) 0.485(6) 0.4068(16)
Cu1 Cu 0.50000 0.66594(8) 0.25000
O4 O 0.46176(7) 0.9087(3) 0.24429(10)
C15 C 0.44243(10) 0.9203(5) 0.27950(13)
O5 O 0.45103(8) 0.8177(4) 0.33127(10)
C16 C 0.40539(9) 1.0689(5) 0.25550(13)
C17 C 0.37256(10) 0.9907(6) 0.26514(15)
C18 C 0.33729(12) 1.1136(7) 0.2428(2)
C19 C 0.33398(12) 1.3156(7) 0.20910(19)
C20 C 0.36640(11) 1.3955(6) 0.19892(16)
C21 C 0.40248(9) 1.2761(5) 0.22236(13)
O6 O 0.43329(8) 1.4683(4) 0.16231(11)
C22 C 0.43705(10) 1.3925(5) 0.21521(13)
O7 O 0.46820(6) 1.4249(3) 0.26750(9)
H20 H 0.3099(19) 1.392(10) 0.193(3)
H21 H 0.3172(11) 1.048(6) 0.2536(16)
H22 H 0.3766(11) 0.850(6) 0.2875(17)
H23 H 0.3659(11) 1.530(7) 0.1760(17)
O4B O 0.53824(7) 0.9087(3) 0.25571(10)
C15B C 0.55757(10) 0.9203(5) 0.22050(13)
O5B O 0.54897(8) 0.8177(4) 0.16873(10)
C16B C 0.59461(9) 1.0689(5) 0.24450(13)
C17B C 0.62744(10) 0.9907(6) 0.23486(15)
C18B C 0.66271(12) 1.1136(7) 0.2572(2)
C19B C 0.66602(12) 1.3156(7) 0.29090(19)
C20B C 0.63360(11) 1.3955(6) 0.30108(16)
C21B C 0.59752(9) 1.2761(5) 0.27764(13)
O6B O 0.56671(8) 1.4683(4) 0.33769(11)
C22B C 0.56295(10) 1.3925(5) 0.28479(13)
O7B O 0.53180(6) 1.4249(3) 0.23250(9)
H20B H 0.6901(19) 1.392(10) 0.307(3)
H21B H 0.6828(11) 1.048(6) 0.2464(16)
H22B H 0.6234(11) 0.850(6) 0.2125(17)
H23B H 0.6341(11) 1.530(7) 0.3240(17)
O6* O 0.43329(8) 0.4683(4) 0.16231(11)
O6B* O 0.56671(8) 0.4683(4) 0.33769(11)
O7* O 0.46820(6) 0.4249(3) 0.26750(9)
O7B* O 0.53180(6) 0.4249(3) 0.23250(9)
Cu1* Cu 0.50000 1.66594(8) 0.25000
#END
