
#######################################################################
#
#                 Cambridge Crystallographic Data Centre
#                                CCDC
#
#######################################################################
#
# If this CIF has been generated from an entry in the Cambridge
# Structural Database, then it will include bibliographic, chemical,
# crystal, experimental, refinement or atomic coordinate data resulting
# from the CCDC's data processing and validation procedures.
#
#######################################################################

data_CSD_CIF_HAJDII
_audit_creation_date 2016-12-09
_audit_creation_method CSD-ConQuest-V1
_database_code_CSD HAJDII
_database_code_depnum_ccdc_archive 'CCDC 1521670'
_chemical_formula_sum 'C32 H28 N5 O10 Tb1'
_chemical_formula_moiety
;
(C28 H16 O10 Tb1 1-)n,C2 H4 N4,C2 H8 N1 1+
;
_journal_coden_Cambridge 1695
_journal_volume 5
_journal_year 2017
_journal_page_first 2311
_journal_name_full 'J.Mater.Chem.C '
loop_
_publ_author_name
"Di-Ming Chen"
"Nan-Nan Zhang"
"Chun-Sen Liu"
"Miao Du"
_chemical_name_systematic
;
catena-[dimethylammonium bis(\m-4,4'-oxydibenzoato)-terbium 
1H-1,2,4-triazol-3-amine]
;
_cell_volume   5296.348
_exptl_crystal_density_diffrn 1.508
_diffrn_ambient_temperature 293
_refine_special_details
;
C0AA,N2 disordered by symmetry over two configurations with occupancy 0.5; 
C1,C3,N4 disordered by symmetry over two configurations with occupancy 0.5; 
H6A and H6B disordered over two sites with occupancies 0.5:0.5.
;
#These two values have been output from a single CSD field.
_refine_ls_R_factor_gt 0.0381
_refine_ls_wR_factor_gt 0.0381
_symmetry_cell_setting hexagonal
_symmetry_space_group_name_H-M 'P 64 2 2'
_symmetry_Int_Tables_number 181
loop_
_symmetry_equiv_pos_site_id
_symmetry_equiv_pos_as_xyz
1 x,y,z
2 x-y,x,2/3+z
3 -y,x-y,1/3+z
4 -x,-y,z
5 -x+y,-x,2/3+z
6 y,-x+y,1/3+z
7 x-y,-y,-z
8 -x,-x+y,2/3-z
9 y,x,1/3-z
10 -y,-x,1/3-z
11 -x+y,y,-z
12 x,x-y,2/3-z
_cell_length_a 15.1834(4)
_cell_length_b 15.1834(4)
_cell_length_c 26.5282(9)
_cell_angle_alpha 90
_cell_angle_beta 90
_cell_angle_gamma 120
_cell_formula_units_Z 6
loop_
_atom_type_symbol
_atom_type_radius_bond
C 0.68
H 0.23
N 0.68
O 0.68
Tb 1.94
loop_
_atom_site_label
_atom_site_type_symbol
_atom_site_fract_x
_atom_site_fract_y
_atom_site_fract_z
Tb1 Tb 0.50000 0.50000 1.08869(2)
O1 O 0.5715(6) 0.4389(6) 1.0231(2)
C1 C 0.4830(7) 0.3641(7) 1.0090(3)
C2 C 0.2287(7) -0.2000(7) 0.8352(4)
O2 O 0.4587(7) 0.0980(6) 0.8560(3)
O3 O 0.4148(4) 0.3574(6) 1.0311(3)
O4 O 0.1149(6) -0.3327(5) 0.7806(3)
C3 C 0.3812(9) 0.0003(10) 0.8516(4)
C4 C 0.2588(9) -0.1642(9) 0.8828(4)
H1 H 0.22790 -0.20750 0.91000
C5 C 0.3743(9) 0.1467(10) 0.9184(5)
H2 H 0.31050 0.09390 0.90910
C6 C 0.4595(9) 0.1588(9) 0.8948(5)
C7 C 0.4759(8) 0.2945(8) 0.9691(4)
C8 C 0.3832(9) 0.2131(8) 0.9560(5)
H3 H 0.32520 0.20270 0.97300
C9 C 0.5602(9) 0.3077(8) 0.9444(4)
H4 H 0.62360 0.36200 0.95300
O5 O 0.1062(6) -0.3650(5) 0.8628(3)
C10 C 0.1432(7) -0.3068(7) 0.8250(4)
C11 C 0.335(1) -0.0638(9) 0.8917(4)
H5 H 0.35430 -0.04060 0.92450
C12 C 0.2799(10) -0.1361(8) 0.7955(4)
H6 H 0.26330 -0.16070 0.76270
C13 C 0.5528(10) 0.2401(9) 0.9059(5)
H7 H 0.61040 0.25080 0.88840
C14 C 0.3544(11) -0.0374(8) 0.8031(4)
H8 H 0.38710 0.00450 0.77560
C15 C 0.1726(10) -0.1725(5) 0.66670
N1 N 0.2201(10) -0.2201(4) 0.66670
H9 H 0.19100 -0.28190 0.67720
N2 N 0.0759(8) -0.1992(5) 0.6810(5)
N3 N 0.0383(21) -0.1439(16) 0.6582(11)
H10 H -0.03140 -0.15630 0.66050
C16 C 0.0602(22) -0.1185(17) 0.6906(11)
H11 H 0.00030 -0.12070 0.70590
C17 C 0.006(3) -0.094(3) 0.7884(14)
H12 H 0.01210 -0.14510 0.80700
H13 H -0.03620 -0.07490 0.80700
H14 H -0.02550 -0.12180 0.75640
N4 N 0.104(2) -0.007(3) 0.7807(13)
H15 H 0.14480 0.02270 0.81020
H16 H 0.14100 -0.02960 0.75910
C18 C 0.094(3) 0.066(2) 0.7536(15)
H17 H 0.09070 0.05170 0.71820
H18 H 0.15120 0.13220 0.76030
H19 H 0.03260 0.06490 0.76380
O1C O 0.4285(6) 0.5611(6) 1.0231(2)
C1C C 0.5170(7) 0.6359(7) 1.0090(3)
C2C C 0.7713(7) 1.2000(7) 0.8352(4)
O2C O 0.5413(7) 0.9020(6) 0.8560(3)
O3C O 0.5852(4) 0.6426(6) 1.0311(3)
O4C O 0.8851(6) 1.3327(5) 0.7806(3)
C3C C 0.6188(9) 0.9997(10) 0.8516(4)
C4C C 0.7412(9) 1.1642(9) 0.8828(4)
H1C H 0.77210 1.20750 0.91000
C5C C 0.6257(9) 0.8533(10) 0.9184(5)
H2C H 0.68950 0.90610 0.90910
C6C C 0.5405(9) 0.8412(9) 0.8948(5)
C7C C 0.5241(8) 0.7055(8) 0.9691(4)
C8C C 0.6168(9) 0.7869(8) 0.9560(5)
H3C H 0.67480 0.79730 0.97300
C9C C 0.4398(9) 0.6923(8) 0.9444(4)
H4C H 0.37640 0.63800 0.95300
O5C O 0.8938(6) 1.3650(5) 0.8628(3)
C10C C 0.8568(7) 1.3068(7) 0.8250(4)
C11C C 0.665(1) 1.0638(9) 0.8917(4)
H5C H 0.64570 1.04060 0.92450
C12C C 0.7201(10) 1.1361(8) 0.7955(4)
H6C H 0.73670 1.16070 0.76270
C13C C 0.4472(10) 0.7599(9) 0.9059(5)
H7C H 0.38960 0.74920 0.88840
C14C C 0.6456(11) 1.0374(8) 0.8031(4)
H8C H 0.61290 0.99550 0.77560
Tb1A Tb 0.00000 -0.50000 0.755357(20)
Tb1A* Tb 1.00000 1.50000 0.755357(20)
Tb1F Tb 0.00000 -0.50000 0.91131(2)
Tb1F* Tb 1.00000 1.50000 0.91131(2)
O4B O 0.3327(6) 0.4476(5) 1.113933(300)
O4E O 0.6673(6) 0.5524(5) 1.113933(300)
O5F O 0.4712(6) 0.3650(5) 1.1372(3)
O5J O 0.5288(6) 0.6350(5) 1.1372(3)
H9I H 0.28190 -0.19100 0.65613
N2I N 0.1992(8) -0.0759(5) 0.652333(500)
N3I N 0.1439(21) -0.0383(16) 0.675133(1100)
H10I H 0.15630 0.03140 0.67283
C16I C 0.1185(22) -0.0602(17) 0.642733(1100)
H11I H 0.12070 -0.00030 0.62743
C15C C -0.1726(10) 0.1725(5) 0.66670
N1C N -0.2201(10) 0.2201(4) 0.66670
H9C H -0.19100 0.28190 0.67720
N2C N -0.0759(8) 0.1992(5) 0.6810(5)
N3C N -0.0383(21) 0.1439(16) 0.6582(11)
H10C H 0.03140 0.15630 0.66050
C16C C -0.0602(22) 0.1185(17) 0.6906(11)
H11C H -0.00030 0.12070 0.70590
H9H H -0.28190 0.19100 0.65613
N2H N -0.1992(8) 0.0759(5) 0.652333(500)
N3H N -0.1439(21) 0.0383(16) 0.675133(1100)
H10H H -0.15630 -0.03140 0.67283
C16H C -0.1185(22) 0.0602(17) 0.642733(1100)
H11H H -0.12070 0.00030 0.62743
C17C C -0.006(3) 0.094(3) 0.7884(14)
H12C H -0.01210 0.14510 0.80700
H13C H 0.03620 0.07490 0.80700
H14C H 0.02550 0.12180 0.75640
N4C N -0.104(2) 0.007(3) 0.7807(13)
H15C H -0.14480 -0.02270 0.81020
H16C H -0.14100 0.02960 0.75910
C18C C -0.094(3) -0.066(2) 0.7536(15)
H17C H -0.09070 -0.05170 0.71820
H18C H -0.15120 -0.13220 0.76030
H19C H -0.03260 -0.06490 0.76380
C17H C -0.094(3) 0.006(3) 0.544933(1400)
H12H H -0.14510 0.01210 0.52633
H13H H -0.07490 -0.03620 0.52633
H14H H -0.12180 -0.02550 0.57693
N4H N -0.007(2) 0.104(3) 0.552633(1300)
H15H H 0.02270 0.14480 0.52313
H16H H -0.02960 0.14100 0.57423
C18H C 0.066(3) 0.094(2) 0.579733(1500)
H17H H 0.05170 0.09070 0.61513
H18H H 0.13220 0.15120 0.57303
H19H H 0.06490 0.03260 0.56953
C17I C 0.094(3) -0.006(3) 0.544933(1400)
H12I H 0.14510 -0.01210 0.52633
H13I H 0.07490 0.03620 0.52633
H14I H 0.12180 0.02550 0.57693
N4I N 0.007(2) -0.104(3) 0.552633(1300)
H15I H -0.02270 -0.14480 0.52313
H16I H 0.02960 -0.14100 0.57423
C18I C -0.066(3) -0.094(2) 0.579733(1500)
H17I H -0.05170 -0.09070 0.61513
H18I H -0.13220 -0.15120 0.57303
H19I H -0.06490 -0.03260 0.56953
#END
