
#######################################################################
#
#                 Cambridge Crystallographic Data Centre
#                                CCDC
#
#######################################################################
#
# If this CIF has been generated from an entry in the Cambridge
# Structural Database, then it will include bibliographic, chemical,
# crystal, experimental, refinement or atomic coordinate data resulting
# from the CCDC's data processing and validation procedures.
#
#######################################################################

data_CSD_CIF_HAJTEU
_audit_creation_date 2016-12-09
_audit_creation_method CSD-ConQuest-V1
_database_code_CSD HAJTEU
_database_code_depnum_ccdc_archive 'CCDC 1474526'
_chemical_formula_sum 'C4 H9 N2 O8 Tb1'
_chemical_formula_moiety
;
(C4 H4 O8 Tb1 1-)n,H5 N2 1+
;
_journal_coden_Cambridge 9
_journal_volume 55
_journal_year 2016
_journal_page_first 10075
_journal_name_full 'Inorg.Chem. '
loop_
_publ_author_name
"Tian-Meng Zhao"
"Sa Chen"
"Ran Shang"
"Bing-Wu Wang"
"Zhe-Ming Wang"
"Song Gao"
_chemical_name_systematic
;
catena-[hydrazinium tetrakis(\m-formato)-terbium]
;
_cell_volume    917.333
_exptl_crystal_colour 'colorless'
_exptl_crystal_density_diffrn 2.694
_exptl_crystal_description 'plate'
_diffrn_ambient_temperature 180
#These two values have been output from a single CSD field.
_refine_ls_R_factor_gt 0.0195
_refine_ls_wR_factor_gt 0.0195
_symmetry_cell_setting orthorhombic
_symmetry_space_group_name_H-M 'P c a 21'
_symmetry_Int_Tables_number 29
loop_
_symmetry_equiv_pos_site_id
_symmetry_equiv_pos_as_xyz
1 x,y,z
2 -x,-y,1/2+z
3 1/2+x,-y,z
4 1/2-x,y,1/2+z
_cell_length_a 18.2526(7)
_cell_length_b 6.5815(2)
_cell_length_c 7.6362(3)
_cell_angle_alpha 90
_cell_angle_beta 90
_cell_angle_gamma 90
_cell_formula_units_Z 4
loop_
_atom_type_symbol
_atom_type_radius_bond
C 0.68
H 0.23
N 0.68
O 0.68
Tb 1.94
loop_
_atom_site_label
_atom_site_type_symbol
_atom_site_fract_x
_atom_site_fract_y
_atom_site_fract_z
Tb1 Tb 0.398037(8) 0.80123(2) 0.26678(5)
O1 O 0.42838(19) 0.5927(5) 0.5174(4)
O2 O 0.49435(18) 0.3899(5) 0.6903(4)
O3 O 0.3241(2) 0.8869(6) 0.4993(5)
O4 O 0.2219(2) 0.8196(6) 0.6412(6)
O5 O 0.34512(17) 0.4747(5) 0.2210(4)
O6 O 0.3774(2) 0.1503(5) 0.1945(5)
O7 O 0.4929(2) 0.9762(5) 0.4102(4)
O8 O 0.5888(2) 1.1785(5) 0.4579(5)
C1 C 0.4880(3) 0.5182(7) 0.5702(6)
H1 H 0.53160 0.56300 0.51450
C2 C 0.2633(3) 0.9294(8) 0.5613(6)
H2 H 0.24710 1.06510 0.54410
C3 C 0.3599(2) 0.2995(6) 0.2807(15)
H3 H 0.35710 0.28250 0.40400
C4 C 0.5459(3) 1.0787(7) 0.3601(6)
H4 H 0.55510 1.08280 0.23770
N1 N 0.32144(19) 0.5350(5) 0.7749(9)
H5 H 0.33490 0.61530 0.86640
H6 H 0.27280 0.55140 0.75340
H7 H 0.34750 0.57050 0.67800
N2 N 0.3360(3) 0.3254(7) 0.8175(6)
H8 H 0.3816(16) 0.291(4) 0.778(7)
H9 H 0.335(3) 0.309(3) 0.9361(17)
Tb1* Tb 0.398037(8) -0.19877(2) 0.26678(5)
Tb1A Tb 0.601963(8) 0.19877(2) 0.76678(5)
Tb1A* Tb 0.601963(8) 1.19877(2) 0.76678(5)
Tb1C Tb 0.101963(8) 0.80123(2) 0.76678(5)
O2A O 0.50565(18) 0.6101(5) 0.1903(4)
O4C O 0.2781(2) 0.8196(6) 0.1412(6)
O6* O 0.3774(2) 1.1503(5) 0.1945(5)
O8A O 0.4112(2) 0.8215(5) -0.0421(5)
#END
