
#######################################################################
#
#                 Cambridge Crystallographic Data Centre
#                                CCDC
#
#######################################################################
#
# If this CIF has been generated from an entry in the Cambridge
# Structural Database, then it will include bibliographic, chemical,
# crystal, experimental, refinement or atomic coordinate data resulting
# from the CCDC's data processing and validation procedures.
#
#######################################################################

data_CSD_CIF_HAJVAS01
_audit_creation_date 2016-12-09
_audit_creation_method CSD-ConQuest-V1
_database_code_CSD HAJVAS01
_database_code_depnum_ccdc_archive 'CCDC 1474531'
_chemical_formula_sum 'C4 H9 Ho1 N2 O8'
_chemical_formula_moiety
;
(C4 H4 Ho1 O8 1-)n,H5 N2 1+
;
_journal_coden_Cambridge 9
_journal_volume 55
_journal_year 2016
_journal_page_first 10075
_journal_name_full 'Inorg.Chem. '
loop_
_publ_author_name
"Tian-Meng Zhao"
"Sa Chen"
"Ran Shang"
"Bing-Wu Wang"
"Zhe-Ming Wang"
"Song Gao"
_chemical_name_systematic
;
catena-[hydrazinium tetrakis(\m-formato)-holmium]
;
_cell_volume    913.683
_exptl_crystal_colour 'pale pink'
_exptl_crystal_density_diffrn 2.748
_exptl_crystal_description 'plate'
_diffrn_ambient_temperature 290
#These two values have been output from a single CSD field.
_refine_ls_R_factor_gt 0.021
_refine_ls_wR_factor_gt 0.021
_symmetry_cell_setting orthorhombic
_symmetry_space_group_name_H-M 'P c a 21'
_symmetry_Int_Tables_number 29
loop_
_symmetry_equiv_pos_site_id
_symmetry_equiv_pos_as_xyz
1 x,y,z
2 -x,-y,1/2+z
3 1/2+x,-y,z
4 1/2-x,y,1/2+z
_cell_length_a 18.3001(6)
_cell_length_b 6.5853(2)
_cell_length_c 7.5817(2)
_cell_angle_alpha 90
_cell_angle_beta 90
_cell_angle_gamma 90
_cell_formula_units_Z 4
loop_
_atom_type_symbol
_atom_type_radius_bond
C 0.68
H 0.23
Ho 1.92
N 0.68
O 0.68
loop_
_atom_site_label
_atom_site_type_symbol
_atom_site_fract_x
_atom_site_fract_y
_atom_site_fract_z
Ho1 Ho 0.397956(8) 0.79522(2) 0.26609(5)
O1 O 0.4273(2) 0.5948(5) 0.5230(5)
O2 O 0.4948(2) 0.3944(5) 0.6936(4)
O3 O 0.3221(2) 0.8814(7) 0.4909(5)
O4 O 0.2195(2) 0.8045(5) 0.6259(7)
O5 O 0.34766(19) 0.4683(5) 0.2201(5)
O6 O 0.3745(2) 0.1421(6) 0.1928(5)
O7 O 0.4903(2) 0.9738(6) 0.4080(5)
O8 O 0.5847(2) 1.1775(5) 0.4590(5)
C1 C 0.4874(3) 0.5239(8) 0.5746(6)
H1 H 0.52960 0.57150 0.52000
C2 C 0.2635(3) 0.9196(7) 0.5641(7)
H2 H 0.25170 1.05660 0.57260
C3 C 0.3619(3) 0.2939(6) 0.2805(15)
H3 H 0.36270 0.27970 0.40250
C4 C 0.5438(3) 1.0761(7) 0.3603(6)
H4 H 0.55450 1.07730 0.24040
N1 N 0.3200(2) 0.5290(6) 0.7840(9)
H5 H 0.33400 0.60180 0.87690
H6 H 0.27220 0.54560 0.76670
H7 H 0.34420 0.57030 0.68880
N2 N 0.3352(4) 0.3180(8) 0.8155(7)
H8 H 0.380(2) 0.291(4) 0.778(10)
H9 H 0.333(5) 0.294(4) 0.931(2)
Ho1* Ho 0.397956(8) -0.20478(2) 0.26609(5)
Ho1A Ho 0.602044(8) 0.20478(2) 0.76609(5)
Ho1A* Ho 0.602044(8) 1.20478(2) 0.76609(5)
Ho1C Ho 0.102044(8) 0.79522(2) 0.76609(5)
O2A O 0.5052(2) 0.6056(5) 0.1936(4)
O4C O 0.2805(2) 0.8045(5) 0.1259(7)
O6* O 0.3745(2) 1.1421(6) 0.1928(5)
O8A O 0.4153(2) 0.8225(5) -0.0410(5)
#END
