
#######################################################################
#
#                 Cambridge Crystallographic Data Centre
#                                CCDC
#
#######################################################################
#
# If this CIF has been generated from an entry in the Cambridge
# Structural Database, then it will include bibliographic, chemical,
# crystal, experimental, refinement or atomic coordinate data resulting
# from the CCDC's data processing and validation procedures.
#
#######################################################################

data_CSD_CIF_HAJVAS
_audit_creation_date 2016-12-09
_audit_creation_method CSD-ConQuest-V1
_database_code_CSD HAJVAS
_database_code_depnum_ccdc_archive 'CCDC 1474530'
_chemical_formula_sum 'C4 H9 Ho1 N2 O8'
_chemical_formula_moiety
;
(C4 H4 Ho1 O8 1-)n,H5 N2 1+
;
_journal_coden_Cambridge 9
_journal_volume 55
_journal_year 2016
_journal_page_first 10075
_journal_name_full 'Inorg.Chem. '
loop_
_publ_author_name
"Tian-Meng Zhao"
"Sa Chen"
"Ran Shang"
"Bing-Wu Wang"
"Zhe-Ming Wang"
"Song Gao"
_chemical_name_systematic
;
catena-[hydrazinium tetrakis(\m-formato)-holmium]
;
_cell_volume    908.715
_exptl_crystal_colour 'pale pink'
_exptl_crystal_density_diffrn 2.763
_exptl_crystal_description 'plate'
_diffrn_ambient_temperature 180
#These two values have been output from a single CSD field.
_refine_ls_R_factor_gt 0.0185
_refine_ls_wR_factor_gt 0.0185
_symmetry_cell_setting orthorhombic
_symmetry_space_group_name_H-M 'P c a 21'
_symmetry_Int_Tables_number 29
loop_
_symmetry_equiv_pos_site_id
_symmetry_equiv_pos_as_xyz
1 x,y,z
2 -x,-y,1/2+z
3 1/2+x,-y,z
4 1/2-x,y,1/2+z
_cell_length_a 18.2209(5)
_cell_length_b 6.5751(2)
_cell_length_c 7.5850(2)
_cell_angle_alpha 90
_cell_angle_beta 90
_cell_angle_gamma 90
_cell_formula_units_Z 4
loop_
_atom_type_symbol
_atom_type_radius_bond
C 0.68
H 0.23
Ho 1.92
N 0.68
O 0.68
loop_
_atom_site_label
_atom_site_type_symbol
_atom_site_fract_x
_atom_site_fract_y
_atom_site_fract_z
Ho1 Ho 0.397953(7) 0.79568(2) 0.26603(4)
O1 O 0.42679(17) 0.5940(4) 0.5232(4)
O2 O 0.49413(16) 0.3941(5) 0.6947(4)
O3 O 0.32209(18) 0.8852(5) 0.4906(4)
O4 O 0.21905(18) 0.8057(5) 0.6262(5)
O5 O 0.34694(15) 0.4690(4) 0.2218(4)
O6 O 0.37634(18) 0.1427(5) 0.1913(4)
O7 O 0.49067(17) 0.9728(5) 0.4086(4)
O8 O 0.58496(19) 1.1797(4) 0.4600(4)
C1 C 0.4869(2) 0.5228(7) 0.5757(5)
H1 H 0.53030 0.57110 0.52020
C2 C 0.2640(2) 0.9244(7) 0.5671(6)
H2 H 0.25290 1.06460 0.58150
C3 C 0.3621(2) 0.2922(5) 0.2801(12)
H3 H 0.36220 0.27510 0.40440
C4 C 0.5439(2) 1.0783(6) 0.3598(5)
H4 H 0.55420 1.08230 0.23710
N1 N 0.31969(18) 0.5305(5) 0.7805(7)
H5 H 0.33390 0.60910 0.87320
H6 H 0.27060 0.54530 0.76290
H7 H 0.34430 0.56980 0.68180
N2 N 0.3359(3) 0.3207(6) 0.8180(5)
H8 H 0.3832(13) 0.293(3) 0.784(7)
H9 H 0.332(3) 0.297(3) 0.936(2)
Ho1* Ho 0.397953(7) -0.20432(2) 0.26603(4)
Ho1A Ho 0.602047(7) 0.20432(2) 0.76603(4)
Ho1A* Ho 0.602047(7) 1.20432(2) 0.76603(4)
Ho1C Ho 0.102047(7) 0.79568(2) 0.76603(4)
O2A O 0.50587(16) 0.6059(5) 0.1947(4)
O4C O 0.28095(18) 0.8057(5) 0.1262(5)
O6* O 0.37634(18) 1.1427(5) 0.1913(4)
O8A O 0.41504(19) 0.8203(4) -0.0400(4)
#END
