
#######################################################################
#
#                 Cambridge Crystallographic Data Centre
#                                CCDC
#
#######################################################################
#
# If this CIF has been generated from an entry in the Cambridge
# Structural Database, then it will include bibliographic, chemical,
# crystal, experimental, refinement or atomic coordinate data resulting
# from the CCDC's data processing and validation procedures.
#
#######################################################################

data_CSD_CIF_HAJVUM02
_audit_creation_date 2016-12-09
_audit_creation_method CSD-ConQuest-V1
_database_code_CSD HAJVUM02
_database_code_depnum_ccdc_archive 'CCDC 1474536'
_chemical_formula_sum 'C4 H9 N2 O8 Tm1'
_chemical_formula_moiety
;
(C4 H4 O8 Tm1 1-)n,H5 N2 1+
;
_journal_coden_Cambridge 9
_journal_volume 55
_journal_year 2016
_journal_page_first 10075
_journal_name_full 'Inorg.Chem. '
loop_
_publ_author_name
"Tian-Meng Zhao"
"Sa Chen"
"Ran Shang"
"Bing-Wu Wang"
"Zhe-Ming Wang"
"Song Gao"
_chemical_name_systematic
;
catena-[hydrazinium tetrakis(\m-formato)-thulium]
;
_cell_volume    900.474
_exptl_crystal_colour 'colorless'
_exptl_crystal_density_diffrn 2.818
_exptl_crystal_description 'plate'
_diffrn_ambient_temperature 290
#These two values have been output from a single CSD field.
_refine_ls_R_factor_gt 0.0269
_refine_ls_wR_factor_gt 0.0269
_symmetry_cell_setting orthorhombic
_symmetry_space_group_name_H-M 'P c a 21'
_symmetry_Int_Tables_number 29
loop_
_symmetry_equiv_pos_site_id
_symmetry_equiv_pos_as_xyz
1 x,y,z
2 -x,-y,1/2+z
3 1/2+x,-y,z
4 1/2-x,y,1/2+z
_cell_length_a 18.2293(6)
_cell_length_b 6.5489(2)
_cell_length_c 7.5428(3)
_cell_angle_alpha 90
_cell_angle_beta 90
_cell_angle_gamma 90
_cell_formula_units_Z 4
loop_
_atom_type_symbol
_atom_type_radius_bond
C 0.68
H 0.23
N 0.68
O 0.68
Tm 1.90
loop_
_atom_site_label
_atom_site_type_symbol
_atom_site_fract_x
_atom_site_fract_y
_atom_site_fract_z
Tm1 Tm 0.397892(10) 0.79393(3) 0.26682(7)
O1 O 0.4272(2) 0.5950(6) 0.5244(6)
O2 O 0.4954(2) 0.3934(7) 0.6945(5)
O3 O 0.3218(3) 0.8783(8) 0.4907(6)
O4 O 0.2188(3) 0.8014(6) 0.6260(8)
O5 O 0.3480(2) 0.4668(6) 0.2213(6)
O6 O 0.3745(3) 0.1399(7) 0.1946(6)
O7 O 0.4893(3) 0.9730(7) 0.4082(6)
O8 O 0.5848(3) 1.1762(7) 0.4619(6)
C1 C 0.4875(3) 0.5238(9) 0.5749(8)
H1 H 0.52960 0.57160 0.51910
C2 C 0.2634(4) 0.9192(9) 0.5647(8)
H2 H 0.25220 1.05720 0.57480
C3 C 0.3623(4) 0.2932(7) 0.2818(16)
H3 H 0.36360 0.27980 0.40450
C4 C 0.5417(3) 1.0754(8) 0.3617(7)
H4 H 0.55130 1.08050 0.24070
N1 N 0.3196(3) 0.5276(8) 0.7835(11)
H5 H 0.33320 0.60120 0.87700
H6 H 0.27160 0.54270 0.76590
H7 H 0.34390 0.56990 0.68800
N2 N 0.3358(5) 0.3148(10) 0.8154(9)
H8 H 0.377(3) 0.284(5) 0.759(12)
H9 H 0.342(6) 0.297(4) 0.931(2)
Tm1* Tm 0.397892(10) -0.20607(3) 0.26682(7)
Tm1A Tm 0.602108(10) 0.20607(3) 0.76682(7)
Tm1A* Tm 0.602108(10) 1.20607(3) 0.76682(7)
Tm1C Tm 0.102108(10) 0.79393(3) 0.76682(7)
O2A O 0.5046(2) 0.6066(7) 0.1945(5)
O4C O 0.2812(3) 0.8014(6) 0.1260(8)
O6* O 0.3745(3) 1.1399(7) 0.1946(6)
O8A O 0.4152(3) 0.8238(7) -0.0381(6)
#END
