
#######################################################################
#
#                 Cambridge Crystallographic Data Centre
#                                CCDC
#
#######################################################################
#
# If this CIF has been generated from an entry in the Cambridge
# Structural Database, then it will include bibliographic, chemical,
# crystal, experimental, refinement or atomic coordinate data resulting
# from the CCDC's data processing and validation procedures.
#
#######################################################################

data_CSD_CIF_HAJVIA01
_audit_creation_date 2016-12-09
_audit_creation_method CSD-ConQuest-V1
_database_code_CSD HAJVIA01
_database_code_depnum_ccdc_archive 'CCDC 1474533'
_chemical_formula_sum 'C4 H9 Er1 N2 O8'
_chemical_formula_moiety
;
(C4 H4 Er1 O8 1-)n,H5 N2 1+
;
_journal_coden_Cambridge 9
_journal_volume 55
_journal_year 2016
_journal_page_first 10075
_journal_name_full 'Inorg.Chem. '
loop_
_publ_author_name
"Tian-Meng Zhao"
"Sa Chen"
"Ran Shang"
"Bing-Wu Wang"
"Zhe-Ming Wang"
"Song Gao"
_chemical_name_systematic
;
catena-[hydrazinium tetrakis(\m-formato)-erbium]
;
_cell_volume    906.743
_exptl_crystal_colour 'pink'
_exptl_crystal_density_diffrn 2.786
_exptl_crystal_description 'plate'
_diffrn_ambient_temperature 290
#These two values have been output from a single CSD field.
_refine_ls_R_factor_gt 0.0202
_refine_ls_wR_factor_gt 0.0202
_symmetry_cell_setting orthorhombic
_symmetry_space_group_name_H-M 'P c a 21'
_symmetry_Int_Tables_number 29
loop_
_symmetry_equiv_pos_site_id
_symmetry_equiv_pos_as_xyz
1 x,y,z
2 -x,-y,1/2+z
3 1/2+x,-y,z
4 1/2-x,y,1/2+z
_cell_length_a 18.2640(5)
_cell_length_b 6.5656(2)
_cell_length_c 7.5616(2)
_cell_angle_alpha 90
_cell_angle_beta 90
_cell_angle_gamma 90
_cell_formula_units_Z 4
loop_
_atom_type_symbol
_atom_type_radius_bond
C 0.68
H 0.23
Er 1.89
N 0.68
O 0.68
loop_
_atom_site_label
_atom_site_type_symbol
_atom_site_fract_x
_atom_site_fract_y
_atom_site_fract_z
Er1 Er 0.397907(7) 0.79435(2) 0.26611(6)
O1 O 0.42694(18) 0.5934(5) 0.5239(4)
O2 O 0.49478(18) 0.3942(5) 0.6931(4)
O3 O 0.3218(2) 0.8805(6) 0.4898(5)
O4 O 0.2185(2) 0.8027(5) 0.6253(6)
O5 O 0.34801(17) 0.4677(5) 0.2203(5)
O6 O 0.3749(2) 0.1405(5) 0.1931(5)
O7 O 0.48969(18) 0.9732(5) 0.4079(4)
O8 O 0.5848(2) 1.1758(5) 0.4608(5)
C1 C 0.4876(3) 0.5245(7) 0.5755(6)
H1 H 0.52980 0.57460 0.52200
C2 C 0.2635(3) 0.9203(7) 0.5642(6)
H2 H 0.25240 1.05790 0.57510
C3 C 0.3627(3) 0.2927(6) 0.2818(12)
H3 H 0.36430 0.27880 0.40410
C4 C 0.5428(3) 1.0767(6) 0.3602(6)
H4 H 0.55260 1.08190 0.23960
N1 N 0.3203(2) 0.5282(6) 0.7826(8)
H5 H 0.33150 0.60080 0.87830
H6 H 0.27300 0.54400 0.75740
H7 H 0.34720 0.57060 0.69170
N2 N 0.3351(3) 0.3175(8) 0.8156(6)
H8 H 0.376(2) 0.283(4) 0.760(8)
H9 H 0.341(4) 0.299(4) 0.9313(18)
Er1* Er 0.397907(7) -0.20565(2) 0.26611(6)
Er1A Er 0.602093(7) 0.20565(2) 0.76611(6)
Er1A* Er 0.602093(7) 1.20565(2) 0.76611(6)
Er1C Er 0.102093(7) 0.79435(2) 0.76611(6)
O2A O 0.50522(18) 0.6058(5) 0.1931(4)
O4C O 0.2815(2) 0.8027(5) 0.1253(6)
O6* O 0.3749(2) 1.1405(5) 0.1931(5)
O8A O 0.4152(2) 0.8242(5) -0.0392(5)
#END
