
#######################################################################
#
#                 Cambridge Crystallographic Data Centre
#                                CCDC
#
#######################################################################
#
# If this CIF has been generated from an entry in the Cambridge
# Structural Database, then it will include bibliographic, chemical,
# crystal, experimental, refinement or atomic coordinate data resulting
# from the CCDC's data processing and validation procedures.
#
#######################################################################

data_CSD_CIF_HAJVUM03
_audit_creation_date 2016-12-09
_audit_creation_method CSD-ConQuest-V1
_database_code_CSD HAJVUM03
_database_code_depnum_ccdc_archive 'CCDC 1474537'
_chemical_formula_sum 'C4 H9 N2 O8 Tm1'
_chemical_formula_moiety
;
(C4 H4 O8 Tm1 1-)n,H5 N2 1+
;
_journal_coden_Cambridge 9
_journal_volume 55
_journal_year 2016
_journal_page_first 10075
_journal_name_full 'Inorg.Chem. '
loop_
_publ_author_name
"Tian-Meng Zhao"
"Sa Chen"
"Ran Shang"
"Bing-Wu Wang"
"Zhe-Ming Wang"
"Song Gao"
_chemical_name_systematic
;
catena-[hydrazinium tetrakis(\m-formato)-thulium]
;
_cell_volume    906.076
_exptl_crystal_colour 'colorless'
_exptl_crystal_density_diffrn 2.801
_exptl_crystal_description 'plate'
_diffrn_ambient_temperature 375
#These two values have been output from a single CSD field.
_refine_ls_R_factor_gt 0.0211
_refine_ls_wR_factor_gt 0.0211
_symmetry_cell_setting orthorhombic
_symmetry_space_group_name_H-M 'P c a 21'
_symmetry_Int_Tables_number 29
loop_
_symmetry_equiv_pos_site_id
_symmetry_equiv_pos_as_xyz
1 x,y,z
2 -x,-y,1/2+z
3 1/2+x,-y,z
4 1/2-x,y,1/2+z
_cell_length_a 18.2946(5)
_cell_length_b 6.5596(2)
_cell_length_c 7.5503(2)
_cell_angle_alpha 90
_cell_angle_beta 90
_cell_angle_gamma 90
_cell_formula_units_Z 4
loop_
_atom_type_symbol
_atom_type_radius_bond
C 0.68
H 0.23
N 0.68
O 0.68
Tm 1.90
loop_
_atom_site_label
_atom_site_type_symbol
_atom_site_fract_x
_atom_site_fract_y
_atom_site_fract_z
Tm1 Tm 0.397913(8) 0.79345(2) 0.26689(7)
O1 O 0.42749(19) 0.5946(5) 0.5241(5)
O2 O 0.49545(19) 0.3944(6) 0.6940(5)
O3 O 0.3210(2) 0.8741(7) 0.4897(6)
O4 O 0.2185(2) 0.8002(5) 0.6256(7)
O5 O 0.34876(17) 0.4668(5) 0.2194(5)
O6 O 0.3739(2) 0.1395(6) 0.1955(5)
O7 O 0.4889(2) 0.9731(6) 0.4075(5)
O8 O 0.5840(2) 1.1735(6) 0.4622(5)
C1 C 0.4876(3) 0.5240(8) 0.5751(7)
H1 H 0.52960 0.57230 0.51980
C2 C 0.2631(3) 0.9142(7) 0.5619(8)
H2 H 0.25170 1.05220 0.56870
C3 C 0.3624(3) 0.2923(6) 0.2789(17)
H3 H 0.36390 0.27980 0.40160
C4 C 0.5422(3) 1.0743(7) 0.3629(7)
H4 H 0.55270 1.07770 0.24240
N1 N 0.3204(2) 0.5265(7) 0.7874(10)
H5 H 0.33190 0.59560 0.88490
H6 H 0.27320 0.54380 0.76320
H7 H 0.34720 0.57180 0.69710
N2 N 0.3348(4) 0.3160(9) 0.8144(8)
H8 H 0.378(3) 0.283(4) 0.768(11)
H9 H 0.336(5) 0.289(4) 0.9300(19)
Tm1* Tm 0.397913(8) -0.20655(2) 0.26689(7)
Tm1A Tm 0.602087(8) 0.20655(2) 0.76689(7)
Tm1A* Tm 0.602087(8) 1.20655(2) 0.76689(7)
Tm1C Tm 0.102087(8) 0.79345(2) 0.76689(7)
O2A O 0.50455(19) 0.6056(6) 0.1940(5)
O4C O 0.2815(2) 0.8002(5) 0.1256(7)
O6* O 0.3739(2) 1.1395(6) 0.1955(5)
O8A O 0.4160(2) 0.8265(6) -0.0378(5)
#END
