
#######################################################################
#
#                 Cambridge Crystallographic Data Centre
#                                CCDC
#
#######################################################################
#
# If this CIF has been generated from an entry in the Cambridge
# Structural Database, then it will include bibliographic, chemical,
# crystal, experimental, refinement or atomic coordinate data resulting
# from the CCDC's data processing and validation procedures.
#
#######################################################################

data_CSD_CIF_HAJXOI
_audit_creation_date 2016-12-09
_audit_creation_method CSD-ConQuest-V1
_database_code_CSD HAJXOI
_database_code_depnum_ccdc_archive 'CCDC 1474543'
_chemical_formula_sum 'C4 H9 N2 O8 Y1'
_chemical_formula_moiety
;
(C4 H4 O8 Y1 1-)n,H5 N2 1+
;
_journal_coden_Cambridge 9
_journal_volume 55
_journal_year 2016
_journal_page_first 10075
_journal_name_full 'Inorg.Chem. '
loop_
_publ_author_name
"Tian-Meng Zhao"
"Sa Chen"
"Ran Shang"
"Bing-Wu Wang"
"Zhe-Ming Wang"
"Song Gao"
_chemical_name_systematic
;
catena-[hydrazinium tetrakis(\m-formato)-yttrium]
;
_cell_volume    913.221
_exptl_crystal_colour 'colorless'
_exptl_crystal_density_diffrn 2.197
_exptl_crystal_description 'plate'
_diffrn_ambient_temperature 290
#These two values have been output from a single CSD field.
_refine_ls_R_factor_gt 0.0194
_refine_ls_wR_factor_gt 0.0194
_symmetry_cell_setting orthorhombic
_symmetry_space_group_name_H-M 'P c a 21'
_symmetry_Int_Tables_number 29
loop_
_symmetry_equiv_pos_site_id
_symmetry_equiv_pos_as_xyz
1 x,y,z
2 -x,-y,1/2+z
3 1/2+x,-y,z
4 1/2-x,y,1/2+z
_cell_length_a 18.2978(6)
_cell_length_b 6.5808(2)
_cell_length_c 7.5840(3)
_cell_angle_alpha 90
_cell_angle_beta 90
_cell_angle_gamma 90
_cell_formula_units_Z 4
loop_
_atom_type_symbol
_atom_type_radius_bond
C 0.68
H 0.23
N 0.68
O 0.68
Y 1.90
loop_
_atom_site_label
_atom_site_type_symbol
_atom_site_fract_x
_atom_site_fract_y
_atom_site_fract_z
Y1 Y 0.39783(1) 0.79458(3) 0.26596(3)
O1 O 0.42705(10) 0.5947(3) 0.5234(2)
O2 O 0.49484(10) 0.3957(3) 0.6931(2)
O3 O 0.32153(11) 0.8801(3) 0.4903(2)
O4 O 0.21905(11) 0.8033(3) 0.6250(3)
O5 O 0.34810(9) 0.4678(2) 0.2210(2)
O6 O 0.37476(11) 0.1417(3) 0.1932(3)
O7 O 0.4901(1) 0.9733(3) 0.4062(2)
O8 O 0.58431(10) 1.1770(3) 0.4600(2)
C1 C 0.48700(15) 0.5244(4) 0.5744(3)
H1 H 0.52900 0.57220 0.51920
C2 C 0.26333(16) 0.9195(4) 0.5652(4)
H2 H 0.25230 1.05680 0.57700
C3 C 0.36196(14) 0.2936(3) 0.2807(5)
H3 H 0.36250 0.27900 0.40270
C4 C 0.54339(15) 1.0767(4) 0.3608(3)
H4 H 0.55410 1.08000 0.24090
N1 N 0.32039(12) 0.5290(3) 0.7837(4)
H5 H 0.32790 0.59980 0.88210
H6 H 0.27410 0.54320 0.74980
H7 H 0.34990 0.57470 0.69920
N2 N 0.33540(16) 0.3191(4) 0.8160(3)
H8 H 0.3808(10) 0.291(3) 0.780(5)
H9 H 0.333(2) 0.295(3) 0.9317(16)
Y1* Y 0.39783(1) -0.20542(3) 0.26596(3)
Y1A Y 0.60217(1) 0.20542(3) 0.76596(3)
Y1A* Y 0.60217(1) 1.20542(3) 0.76596(3)
Y1C Y 0.10217(1) 0.79458(3) 0.76596(3)
O2A O 0.50516(10) 0.6043(3) 0.1931(2)
O4C O 0.28095(11) 0.8033(3) 0.1250(3)
O6* O 0.37476(11) 1.1417(3) 0.1932(3)
O8A O 0.41569(10) 0.8230(3) -0.0400(2)
#END
