
#######################################################################
#
#                 Cambridge Crystallographic Data Centre
#                                CCDC
#
#######################################################################
#
# If this CIF has been generated from an entry in the Cambridge
# Structural Database, then it will include bibliographic, chemical,
# crystal, experimental, refinement or atomic coordinate data resulting
# from the CCDC's data processing and validation procedures.
#
#######################################################################

data_CSD_CIF_HAJXAU
_audit_creation_date 2016-12-09
_audit_creation_method CSD-ConQuest-V1
_database_code_CSD HAJXAU
_database_code_depnum_ccdc_archive 'CCDC 1474540'
_chemical_formula_sum 'C4 H9 Lu1 N2 O8'
_chemical_formula_moiety
;
(C4 H4 Lu1 O8 1-)n,H5 N2 1+
;
_journal_coden_Cambridge 9
_journal_volume 55
_journal_year 2016
_journal_page_first 10075
_journal_name_full 'Inorg.Chem. '
loop_
_publ_author_name
"Tian-Meng Zhao"
"Sa Chen"
"Ran Shang"
"Bing-Wu Wang"
"Zhe-Ming Wang"
"Song Gao"
_chemical_name_systematic
;
catena-[hydrazinium tetrakis(\m-formato)-lutetium]
;
_cell_volume    886.673
_exptl_crystal_colour 'colorless'
_exptl_crystal_density_diffrn 2.907
_exptl_crystal_description 'plate'
_diffrn_ambient_temperature 180
#These two values have been output from a single CSD field.
_refine_ls_R_factor_gt 0.0199
_refine_ls_wR_factor_gt 0.0199
_symmetry_cell_setting orthorhombic
_symmetry_space_group_name_H-M 'P c a 21'
_symmetry_Int_Tables_number 29
loop_
_symmetry_equiv_pos_site_id
_symmetry_equiv_pos_as_xyz
1 x,y,z
2 -x,-y,1/2+z
3 1/2+x,-y,z
4 1/2-x,y,1/2+z
_cell_length_a 18.1048(5)
_cell_length_b 6.5261(2)
_cell_length_c 7.5044(2)
_cell_angle_alpha 90
_cell_angle_beta 90
_cell_angle_gamma 90
_cell_formula_units_Z 4
loop_
_atom_type_symbol
_atom_type_radius_bond
C 0.68
H 0.23
Lu 1.87
N 0.68
O 0.68
loop_
_atom_site_label
_atom_site_type_symbol
_atom_site_fract_x
_atom_site_fract_y
_atom_site_fract_z
Lu1 Lu 0.397839(7) 0.79069(2) 0.26597(5)
O1 O 0.42579(17) 0.5954(5) 0.5255(4)
O2 O 0.49466(17) 0.3969(5) 0.6973(4)
O3 O 0.32078(19) 0.8818(6) 0.4833(4)
O4 O 0.2168(2) 0.7955(5) 0.6155(6)
O5 O 0.34879(16) 0.4647(5) 0.2216(4)
O6 O 0.3749(2) 0.1356(5) 0.1905(4)
O7 O 0.48802(17) 0.9698(5) 0.4097(4)
O8 O 0.5817(2) 1.1808(5) 0.4633(4)
C1 C 0.4872(2) 0.5270(7) 0.5788(6)
H1 H 0.53060 0.57910 0.52420
C2 C 0.2643(3) 0.9179(7) 0.5703(6)
H2 H 0.25700 1.05610 0.60600
C3 C 0.3635(3) 0.2892(6) 0.2845(11)
H3 H 0.36610 0.27420 0.41030
C4 C 0.5411(3) 1.0760(6) 0.3619(6)
H4 H 0.55210 1.07870 0.23820
N1 N 0.3181(2) 0.5246(6) 0.7854(7)
H5 H 0.32620 0.59840 0.88640
H6 H 0.26970 0.53510 0.75370
H7 H 0.34700 0.57420 0.69600
N2 N 0.3362(3) 0.3126(7) 0.8172(6)
H8 H 0.3817(18) 0.285(4) 0.770(8)
H9 H 0.337(4) 0.289(4) 0.9373(17)
Lu1* Lu 0.397839(7) -0.20931(2) 0.26597(5)
Lu1A Lu 0.602161(7) 0.20931(2) 0.76597(5)
Lu1A* Lu 0.602161(7) 1.20931(2) 0.76597(5)
Lu1C Lu 0.102161(7) 0.79069(2) 0.76597(5)
O2A O 0.50534(17) 0.6031(5) 0.1973(4)
O4C O 0.2832(2) 0.7955(5) 0.1155(6)
O6* O 0.3749(2) 1.1356(5) 0.1905(4)
O8A O 0.4183(2) 0.8192(5) -0.0367(4)
#END
