
#######################################################################
#
#                 Cambridge Crystallographic Data Centre
#                                CCDC
#
#######################################################################
#
# If this CIF has been generated from an entry in the Cambridge
# Structural Database, then it will include bibliographic, chemical,
# crystal, experimental, refinement or atomic coordinate data resulting
# from the CCDC's data processing and validation procedures.
#
#######################################################################

data_CSD_CIF_HAJXAU01
_audit_creation_date 2016-12-09
_audit_creation_method CSD-ConQuest-V1
_database_code_CSD HAJXAU01
_database_code_depnum_ccdc_archive 'CCDC 1474541'
_chemical_formula_sum 'C4 H9 Lu1 N2 O8'
_chemical_formula_moiety
;
(C4 H4 Lu1 O8 1-)n,H5 N2 1+
;
_journal_coden_Cambridge 9
_journal_volume 55
_journal_year 2016
_journal_page_first 10075
_journal_name_full 'Inorg.Chem. '
loop_
_publ_author_name
"Tian-Meng Zhao"
"Sa Chen"
"Ran Shang"
"Bing-Wu Wang"
"Zhe-Ming Wang"
"Song Gao"
_chemical_name_systematic
;
catena-[hydrazinium tetrakis(\m-formato)-lutetium]
;
_cell_volume    890.521
_exptl_crystal_colour 'colorless'
_exptl_crystal_density_diffrn 2.895
_exptl_crystal_description 'plate'
_diffrn_ambient_temperature 290
#These two values have been output from a single CSD field.
_refine_ls_R_factor_gt 0.0215
_refine_ls_wR_factor_gt 0.0215
_symmetry_cell_setting orthorhombic
_symmetry_space_group_name_H-M 'P c a 21'
_symmetry_Int_Tables_number 29
loop_
_symmetry_equiv_pos_site_id
_symmetry_equiv_pos_as_xyz
1 x,y,z
2 -x,-y,1/2+z
3 1/2+x,-y,z
4 1/2-x,y,1/2+z
_cell_length_a 18.1702(5)
_cell_length_b 6.5224(2)
_cell_length_c 7.5141(2)
_cell_angle_alpha 90
_cell_angle_beta 90
_cell_angle_gamma 90
_cell_formula_units_Z 4
loop_
_atom_type_symbol
_atom_type_radius_bond
C 0.68
H 0.23
Lu 1.87
N 0.68
O 0.68
loop_
_atom_site_label
_atom_site_type_symbol
_atom_site_fract_x
_atom_site_fract_y
_atom_site_fract_z
Lu1 Lu 0.397812(8) 0.79278(2) 0.26611(5)
O1 O 0.4268(2) 0.5951(6) 0.5238(5)
O2 O 0.4954(2) 0.3941(6) 0.6942(5)
O3 O 0.3216(2) 0.8773(7) 0.4862(6)
O4 O 0.2183(2) 0.7986(6) 0.6217(7)
O5 O 0.34892(19) 0.4675(5) 0.2201(5)
O6 O 0.3743(3) 0.1377(6) 0.1921(5)
O7 O 0.4881(2) 0.9723(6) 0.4080(5)
O8 O 0.5832(2) 1.1756(6) 0.4623(5)
C1 C 0.4876(3) 0.5249(8) 0.5756(6)
H1 H 0.52990 0.57470 0.52090
C2 C 0.2635(3) 0.9172(8) 0.5631(7)
H2 H 0.25300 1.05570 0.57810
C3 C 0.3626(3) 0.2924(7) 0.2820(15)
H3 H 0.36400 0.27860 0.40510
C4 C 0.5416(3) 1.0755(7) 0.3622(7)
H4 H 0.55210 1.07930 0.24110
N1 N 0.3197(2) 0.5259(7) 0.7849(9)
H5 H 0.32980 0.59810 0.88240
H6 H 0.27220 0.54010 0.75800
H7 H 0.34700 0.57130 0.69490
N2 N 0.3356(4) 0.3137(9) 0.8163(7)
H8 H 0.377(3) 0.281(4) 0.762(10)
H9 H 0.341(5) 0.294(4) 0.9329(19)
Lu1* Lu 0.397812(8) -0.20722(2) 0.26611(5)
Lu1A Lu 0.602188(8) 0.20722(2) 0.76611(5)
Lu1A* Lu 0.602188(8) 1.20722(2) 0.76611(5)
Lu1C Lu 0.102188(8) 0.79278(2) 0.76611(5)
O2A O 0.5046(2) 0.6059(6) 0.1942(5)
O4C O 0.2817(2) 0.7986(6) 0.1217(7)
O6* O 0.3743(3) 1.1377(6) 0.1921(5)
O8A O 0.4168(2) 0.8244(6) -0.0377(5)
#END
