
#######################################################################
#
#                 Cambridge Crystallographic Data Centre
#                                CCDC
#
#######################################################################
#
# If this CIF has been generated from an entry in the Cambridge
# Structural Database, then it will include bibliographic, chemical,
# crystal, experimental, refinement or atomic coordinate data resulting
# from the CCDC's data processing and validation procedures.
#
#######################################################################

data_CSD_CIF_HAKZOI
_audit_creation_date 1994-03-15
_audit_creation_method CSD-ConQuest-V1
_database_code_CSD HAKZOI
_chemical_formula_sum 'C50 H54 Ho2 N10 O22'
_chemical_formula_moiety
;
(C2 H10 N2 2+)n,n(C48 H32 Ho2 N8 O16 2-),6n(H2 O1)
;
_journal_coeditor_code "IUCr AB1068"
_journal_coden_Cambridge 591
_journal_volume 49
_journal_year 1993
_journal_page_first 1895
_journal_name_full 'Acta Crystallogr.,Sect.C:Cryst.Struct.Commun. '
loop_
_publ_author_name
"P.Starynowicz"
_chemical_name_systematic
;
catena-(Ethylenediammonium 
bis(\m~2~-pyridine-2-carboxylato-N,O,O')-hexakis(pyridine-2-carboxylato-N,O)-d
i-holmium hexahydrate)
;
_cell_volume   5746.708
_exptl_crystal_colour 'yellow'
_exptl_crystal_density_diffrn 1.707
_exptl_special_details
;
Isomorphous with the neodymium analogue

;
_diffrn_ambient_temperature ?
_diffrn_special_details
;
The study was carried out at room temperature,in the range 283-303K

;
#These two values have been output from a single CSD field.
_refine_ls_R_factor_gt 0.0305
_refine_ls_wR_factor_gt 0.0305
_symmetry_cell_setting monoclinic
_symmetry_space_group_name_H-M 'C c'
_symmetry_Int_Tables_number 9
loop_
_symmetry_equiv_pos_site_id
_symmetry_equiv_pos_as_xyz
1 x,y,z
2 1/2+x,1/2+y,z
3 x,-y,1/2+z
4 1/2+x,1/2-y,1/2+z
_cell_length_a 13.518(9)
_cell_length_b 21.496(10)
_cell_length_c 20.055(10)
_cell_angle_alpha 90
_cell_angle_beta 99.56(4)
_cell_angle_gamma 90
_cell_formula_units_Z 4
loop_
_atom_type_symbol
_atom_type_radius_bond
C 0.68
H 0.23
Ho 1.74
N 0.68
O 0.68
loop_
_atom_site_label
_atom_site_type_symbol
_atom_site_fract_x
_atom_site_fract_y
_atom_site_fract_z
Ho1 Ho 0.00000 0.2119(1) 0.00000
Ho2 Ho 0.1898(1) 0.4768(1) -0.0275(1)
O1 O 0.0642(6) 0.2140(4) -0.1011(4)
O2 O 0.1458(10) 0.1838(5) -0.1808(6)
O3 O 0.1813(6) 0.5251(4) 0.0758(4)
O4 O 0.1044(7) 0.5681(5) 0.1534(5)
O5 O 0.0264(6) 0.1393(4) 0.0873(4)
O6 O 0.1314(7) 0.0869(5) 0.1652(5)
O7 O 0.2603(6) 0.3941(4) -0.0808(4)
O8 O 0.3675(7) 0.3153(4) -0.0794(4)
O9 O -0.1425(6) 0.2442(4) 0.0433(4)
O10 O -0.3040(7) 0.2693(5) 0.0308(5)
O11 O 0.0686(6) 0.4560(4) -0.1199(4)
O12 O -0.0660(7) 0.4796(5) -0.1928(5)
O13 O 0.1686(7) 0.3888(4) 0.0349(4)
O14 O 0.0713(6) 0.3105(4) -0.0086(4)
O15 O -0.2017(6) 0.0633(4) -0.0104(4)
O16 O -0.1273(7) 0.1452(4) -0.0443(4)
O17 O -0.5050(6) 0.1188(4) -0.7582(4)
O18 O -0.7475(8) -0.1457(5) -0.7778(5)
O19 O -0.7468(7) -0.0123(5) -0.7759(5)
O20 O -0.1734(8) -0.1184(5) -0.3682(5)
O21 O -0.0263(12) -0.0768(7) -0.2630(8)
O22 O -0.0295(11) -0.1773(8) -0.1888(9)
N1 N 0.0675(8) 0.1011(5) -0.0488(5)
N2 N 0.0144(7) 0.4727(4) 0.0152(4)
N3 N 0.1800(7) 0.1942(4) 0.0424(5)
N4 N 0.3631(8) 0.4400(5) 0.0329(5)
N5 N -0.1311(7) 0.2748(4) -0.0822(5)
N6 N 0.0845(7) 0.5706(5) -0.0706(5)
N7 N 0.0482(7) 0.2720(4) 0.1140(5)
N8 N -0.2411(7) 0.0188(5) -0.1350(5)
N9 N -0.2524(8) 0.2356(5) -0.8385(6)
N10 N -0.3467(8) 0.1800(5) -0.6838(5)
C1 C -0.3284(9) 0.2146(6) -0.7976(6)
H1 H -0.3706(9) 0.2490(6) -0.7902(6)
H2 H -0.3687(9) 0.1822(6) -0.8214(6)
C2 C -0.2764(10) 0.1901(7) -0.7305(6)
H3 H -0.2266(10) 0.2197(7) -0.7110(6)
H4 H -0.2445(10) 0.1514(7) -0.7376(6)
C3 C 0.0624(10) 0.0452(6) -0.0260(7)
H5 H 0.0359(10) 0.0399(6) 0.0152(7)
C4 C 0.0926(12) -0.0081(7) -0.0567(9)
H6 H 0.0898(12) -0.0484(7) -0.0364(9)
C5 C 0.1260(15) -0.0010(7) -0.1164(10)
H7 H 0.1457(15) -0.0365(7) -0.1402(10)
C6 C 0.1314(14) 0.0581(6) -0.1424(8)
H8 H 0.1546(14) 0.0643(6) -0.1846(8)
C7 C 0.1033(9) 0.1076(6) -0.1072(6)
C8 C 0.1059(11) 0.1732(6) -0.1319(6)
C9 C -0.0695(10) 0.4392(5) -0.0112(7)
H9 H -0.0718(10) 0.4200(5) -0.0546(7)
C10 C -0.1503(10) 0.4319(7) 0.0216(8)
H10 H -0.2078(10) 0.4086(7) 0.0007(8)
C11 C -0.1488(11) 0.4571(8) 0.0822(8)
H11 H -0.2042(11) 0.4510(8) 0.1059(8)
C12 C -0.0665(11) 0.4926(6) 0.1115(7)
H12 H -0.0639(11) 0.5118(6) 0.1550(7)
C13 C 0.0110(9) 0.4989(6) 0.0753(6)
C14 C 0.1055(10) 0.5339(5) 0.1044(6)
C15 C 0.2568(8) 0.2213(6) 0.0188(6)
H13 H 0.2416(8) 0.2513(6) -0.0169(6)
C16 C 0.3559(11) 0.2084(8) 0.0428(8)
H14 H 0.4085(11) 0.2286(8) 0.0242(8)
C17 C 0.3781(12) 0.1644(8) 0.0961(8)
H15 H 0.4463(12) 0.1545(8) 0.1149(8)
C18 C 0.298(1) 0.1358(7) 0.1204(7)
H16 H 0.3103(10) 0.1055(7) 0.1560(7)
C19 C 0.2026(9) 0.1518(5) 0.0926(6)
C20 C 0.116(1) 0.1230(6) 0.1181(6)
C21 C 0.4123(10) 0.4659(6) 0.0891(6)
H17 H 0.386(1) 0.5025(6) 0.1073(6)
C22 C 0.5029(10) 0.4395(7) 0.1219(7)
H18 H 0.5367(10) 0.4569(7) 0.1636(7)
C23 C 0.5425(9) 0.3892(7) 0.0942(7)
H19 H 0.6061(9) 0.3723(7) 0.1146(7)
C24 C 0.4891(10) 0.3632(6) 0.0364(7)
H20 H 0.5148(10) 0.3273(6) 0.0166(7)
C25 C 0.3984(8) 0.3889(5) 0.0066(6)
C26 C 0.3427(9) 0.3646(6) -0.0554(6)
C27 C -0.123(1) 0.2935(7) -0.1436(7)
H21 H -0.0596(10) 0.2875(7) -0.1582(7)
C28 C -0.1966(12) 0.3201(8) -0.1872(8)
H22 H -0.1853(12) 0.3328(8) -0.2313(8)
C29 C -0.2890(12) 0.3291(7) -0.1678(8)
H23 H -0.3436(12) 0.3474(7) -0.1982(8)
C30 C -0.3008(11) 0.3112(6) -0.1037(7)
H24 H -0.3633(11) 0.3175(6) -0.0880(7)
C31 C -0.2169(9) 0.2829(6) -0.0609(6)
C32 C -0.2223(10) 0.2625(5) 0.0098(6)
C33 C 0.0945(10) 0.6290(5) -0.0464(7)
H25 H 0.1503(10) 0.6383(5) -0.0115(7)
C34 C 0.0287(12) 0.6760(7) -0.0690(7)
H26 H 0.0402(12) 0.7176(7) -0.0521(7)
C35 C -0.0543(13) 0.6620(7) -0.1165(8)
H27 H -0.1051(13) 0.6927(7) -0.1307(8)
C36 C -0.0626(10) 0.6010(7) -0.1441(7)
H28 H -0.1167(10) 0.5903(7) -0.1796(7)
C37 C 0.0066(9) 0.5589(6) -0.1193(6)
C38 C 0.0013(10) 0.4935(6) -0.1463(6)
C39 C 0.029(1) 0.2556(6) 0.1738(6)
H29 H -0.0034(10) 0.2163(6) 0.1774(6)
C40 C 0.0521(11) 0.2909(7) 0.2315(6)
H30 H 0.0349(11) 0.2771(7) 0.2736(6)
C41 C 0.1014(12) 0.3473(7) 0.2267(6)
H31 H 0.1198(12) 0.3735(7) 0.2654(6)
C42 C 0.1222(11) 0.3636(6) 0.1651(7)
H32 H 0.1570(11) 0.4018(6) 0.1601(7)
C43 C 0.0938(9) 0.3256(5) 0.1096(6)
C44 C 0.1126(8) 0.3424(5) 0.0399(6)
C45 C -0.2584(11) -0.0084(6) -0.1953(6)
H33 H -0.2984(11) -0.0455(6) -0.2020(6)
C46 C -0.2183(10) 0.0174(7) -0.2491(6)
H34 H -0.2328(10) -0.0011(7) -0.2932(6)
C47 C -0.1583(11) 0.0689(7) -0.2388(7)
H35 H -0.1267(11) 0.0851(7) -0.2747(7)
C48 C -0.1440(11) 0.0968(7) -0.1772(6)
H36 H -0.1058(11) 0.1345(7) -0.1692(6)
C49 C -0.1868(8) 0.0687(5) -0.1257(5)
C50 C -0.1687(8) 0.0940(6) -0.0541(6)
H37 H -0.7545(87) -0.1051(26) -0.7977(43)
H38 H -0.7729(82) -0.142(4) -0.7362(34)
H39 H -0.7097(69) -0.0030(45) -0.7322(31)
H40 H -0.7964(64) 0.0197(38) -0.7849(47)
H41 H -0.1376(60) -0.1169(56) -0.4056(35)
H42 H -0.2413(37) -0.1083(54) -0.3872(44)
H43 H -0.3157(62) 0.1576(33) -0.6445(30)
H44 H -0.4010(47) 0.1541(32) -0.7044(41)
H45 H -0.3779(58) 0.2152(29) -0.6665(40)
O15A O 0.2983(6) 0.5633(4) -0.0104(4)
N8A N 0.2589(7) 0.5188(5) -0.1350(5)
Ho2A Ho -0.3102(1) -0.0232(1) -0.0275(1)
#END
