
#######################################################################
#
#                 Cambridge Crystallographic Data Centre
#                                CCDC
#
#######################################################################
#
# If this CIF has been generated from an entry in the Cambridge
# Structural Database, then it will include bibliographic, chemical,
# crystal, experimental, refinement or atomic coordinate data resulting
# from the CCDC's data processing and validation procedures.
#
#######################################################################

data_CSD_CIF_HALTEW
_audit_creation_date 2016-12-09
_audit_creation_method CSD-ConQuest-V1
_database_code_CSD HALTEW
_database_code_depnum_ccdc_archive 'CCDC 1007016'
_chemical_formula_sum 'C66 H66 Cd3 N4 O24'
_chemical_formula_moiety
;
(C56 H32 Cd3 O20 2-)n,2(C3 H7 N1 O1),2(C2 H8 N1 1+),2(H2 O1)
;
_journal_coden_Cambridge 784
_journal_volume 34
_journal_year 2017
_journal_page_first 984
_journal_name_full 'Ultrason.Sonochem. '
loop_
_publ_author_name
"M.Y.Masoomi"
"A.Morsali"
"P.C.Junk"
"Jun Wang"
_chemical_name_systematic
;
catena-[bis(dimethylammonium) tetrakis(\m-4,4'-oxydibenzoato)-tri-cadmium 
N,N-dimethylformamide solvate dihydrate]
;
_cell_volume   2121.698
_exptl_crystal_colour 'colorless'
_exptl_crystal_density_diffrn 1.278
_exptl_crystal_description 'irregular'
_diffrn_ambient_temperature 296
#These two values have been output from a single CSD field.
_refine_ls_R_factor_gt 0.0527
_refine_ls_wR_factor_gt 0.0527
_symmetry_cell_setting triclinic
_symmetry_space_group_name_H-M 'P -1'
_symmetry_Int_Tables_number 2
loop_
_symmetry_equiv_pos_site_id
_symmetry_equiv_pos_as_xyz
1 x,y,z
2 -x,-y,-z
_cell_length_a 11.6806(9)
_cell_length_b 14.4408(11)
_cell_length_c 14.7293(11)
_cell_angle_alpha 112.663(2)
_cell_angle_beta 103.871(3)
_cell_angle_gamma 100.277(3)
_cell_formula_units_Z 1
loop_
_atom_type_symbol
_atom_type_radius_bond
C 0.68
H 0.23
Cd 1.44
N 0.68
O 0.68
loop_
_atom_site_label
_atom_site_type_symbol
_atom_site_fract_x
_atom_site_fract_y
_atom_site_fract_z
Cd1 Cd 1.00000 0.50000 0.50000
Cd2 Cd 0.81442(4) 0.50557(3) 0.65256(3)
O1 O 0.9491(4) 1.4183(4) 0.6848(4)
O2 O 0.6569(4) 0.3904(3) 0.6682(3)
O3 O 0.9993(4) 0.6231(3) 0.6581(3)
O4 O 1.0404(4) 1.3909(3) 0.5646(3)
O5 O 0.7800(4) 0.5299(3) 0.8085(3)
O6 O 0.4677(4) 0.3113(4) 1.0087(3)
O7 O 0.6308(4) 0.4779(3) 1.4996(3)
C1 C 0.5540(6) 0.3112(5) 0.7885(5)
H1 H 0.53340 0.26570 0.71800
C2 C 0.5005(6) 0.2788(5) 0.8497(5)
H2 H 0.44460 0.21200 0.82090
C3 C 1.1382(6) 0.8218(5) 0.6943(6)
H3 H 1.17560 0.76860 0.68300
O8 O 1.2202(4) 1.0952(4) 0.7489(5)
C4 C 0.6942(5) 0.4462(5) 0.7659(5)
C5 C 1.1629(5) 1.1603(5) 0.7196(6)
C6 C 0.4536(5) 0.3648(5) 1.1770(5)
H4 H 0.37060 0.35800 1.14850
C7 C 1.1490(6) 0.9981(5) 0.7274(6)
C8 C 0.5258(6) 0.3438(5) 1.1138(4)
C9 C 1.0666(6) 1.2075(5) 0.5899(5)
H5 H 1.03490 1.19220 0.51980
C10 C 0.6998(5) 0.3800(5) 1.2606(5)
H6 H 0.78170 0.38280 1.28760
C11 C 0.5059(5) 0.3960(5) 1.2828(5)
H7 H 0.45830 0.41160 1.32590
C12 C 0.6480(6) 0.3515(6) 1.1552(5)
H8 H 0.69580 0.33760 1.11220
C13 C 0.6873(5) 0.4386(4) 1.4386(4)
C14 C 0.6667(6) 0.4766(5) 0.9358(5)
H9 H 0.72370 0.54310 0.96570
C15 C 0.6313(5) 0.4043(4) 1.3260(4)
C16 C 0.6381(5) 0.4109(5) 0.8309(4)
C17 C 0.6119(6) 0.4453(5) 0.9972(5)
H10 H 0.63010 0.49090 1.06730
C18 C 0.5309(5) 0.3464(5) 0.9533(5)
C19 C 1.1146(6) 1.1376(5) 0.6166(6)
H11 H 1.11420 1.07500 0.56480
C20 C 1.0187(5) 0.8017(4) 0.6945(4)
O9 O 0.8441(4) 0.6813(3) 0.6848(4)
O10 O 0.7914(3) 0.4277(3) 1.4741(3)
C21 C 0.9486(6) 0.6952(4) 0.6774(5)
C22 C 1.0133(5) 1.3764(4) 0.6367(5)
C23 C 1.0649(5) 1.2991(4) 0.6650(5)
C24 C 1.1118(7) 1.3202(5) 0.7688(6)
H12 H 1.10850 1.38110 0.82060
C25 C 1.1637(7) 1.2515(6) 0.7964(6)
H13 H 1.19870 1.26750 0.86640
C26 C 1.2032(6) 0.9191(5) 0.7104(6)
H14 H 1.28380 0.93150 0.70980
C27 C 1.0293(6) 0.9799(5) 0.7266(6)
H15 H 0.99180 1.03300 0.73650
C28 C 0.9644(6) 0.8808(5) 0.7107(6)
H16 H 0.88360 0.86820 0.71100
N1 N 0.5764(5) 0.6590(4) 0.4765(5)
H17 H 0.50370 0.64870 0.43000
H18 H 0.57250 0.59970 0.48400
C29 C 0.5929(8) 0.7449(6) 0.5768(6)
H19 H 0.52530 0.72770 0.59980
H20 H 0.59500 0.80820 0.56920
H21 H 0.66920 0.75530 0.62750
C30 C 0.6752(7) 0.6773(6) 0.4341(7)
H22 H 0.65840 0.61790 0.36830
H23 H 0.75300 0.68660 0.48220
H24 H 0.67870 0.73940 0.42390
C31 C 0.6872(13) 0.1650(8) 0.5100(11)
H25 H 0.74500 0.22200 0.57400
H26 H 0.60660 0.17450 0.49980
H27 H 0.71320 0.16370 0.45250
C32 C 0.6136(10) -0.0205(7) 0.4412(8)
H28 H 0.56670 -0.02290 0.37920
N2 N 0.6826(8) 0.0687(6) 0.5154(7)
O11 O 0.6058(8) -0.1053(6) 0.4481(7)
C33 C 0.7486(13) 0.0786(14) 0.6124(11)
H29 H 0.79500 0.15110 0.65790
H30 H 0.80420 0.03690 0.60410
H31 H 0.69220 0.05470 0.64220
O12 O 0.5274(18) 0.9378(19) 0.7686(16)
O13 O 1.0634(19) 0.700(3) 0.982(3)
Cd2A Cd 1.18558(4) 0.49443(3) 0.34744(3)
O1A O 1.0509(4) -0.4183(4) 0.3152(4)
O2A O 1.3431(4) 0.6096(3) 0.3318(3)
O3A O 1.0007(4) 0.3769(3) 0.3419(3)
O4A O 0.9596(4) -0.3909(3) 0.4354(3)
O5A O 1.2200(4) 0.4701(3) 0.1915(3)
O6A O 1.5323(4) 0.6887(4) -0.0087(3)
O7A O 1.3692(4) 0.5221(3) -0.4996(3)
C1A C 1.4460(6) 0.6888(5) 0.2115(5)
H1A H 1.46660 0.73430 0.28200
C2A C 1.4995(6) 0.7212(5) 0.1503(5)
H2A H 1.55540 0.78800 0.17910
C3A C 0.8618(6) 0.1782(5) 0.3057(6)
H3A H 0.82440 0.23140 0.31700
O8A O 0.7798(4) -0.0952(4) 0.2511(5)
C4A C 1.3058(5) 0.5538(5) 0.2341(5)
C5A C 0.8371(5) -0.1603(5) 0.2804(6)
C6A C 1.5464(5) 0.6352(5) -0.1770(5)
H4A H 1.62940 0.64200 -0.14850
C7A C 0.8510(6) 0.0019(5) 0.2726(6)
C8A C 1.4742(6) 0.6562(5) -0.1138(4)
C9A C 0.9334(6) -0.2075(5) 0.4101(5)
H5A H 0.96510 -0.19220 0.48020
C10A C 1.3002(5) 0.6200(5) -0.2606(5)
H6A H 1.21830 0.61720 -0.28760
C11A C 1.4941(5) 0.6040(5) -0.2828(5)
H7A H 1.54170 0.58840 -0.32590
C12A C 1.3520(6) 0.6485(6) -0.1552(5)
H8A H 1.30420 0.66240 -0.11220
C13A C 1.3127(5) 0.5614(4) -0.4386(4)
C14A C 1.3333(6) 0.5234(5) 0.0642(5)
H9A H 1.27630 0.45690 0.03430
C15A C 1.3687(5) 0.5957(4) -0.3260(4)
C16A C 1.3619(5) 0.5891(5) 0.1691(4)
C17A C 1.3881(6) 0.5547(5) 0.0028(5)
H10A H 1.36990 0.50910 -0.06730
C18A C 1.4691(5) 0.6536(5) 0.0467(5)
C19A C 0.8854(6) -0.1376(5) 0.3834(6)
H11A H 0.88580 -0.07500 0.43520
C20A C 0.9813(5) 0.1983(4) 0.3055(4)
O9A O 1.1559(4) 0.3187(3) 0.3152(4)
O10A O 1.2086(3) 0.5723(3) -0.4741(3)
C21A C 1.0514(6) 0.3048(4) 0.3226(5)
C22A C 0.9867(5) -0.3764(4) 0.3633(5)
C23A C 0.9351(5) -0.2991(4) 0.3350(5)
C24A C 0.8882(7) -0.3202(5) 0.2312(6)
H12A H 0.89150 -0.38110 0.17940
C25A C 0.8363(7) -0.2515(6) 0.2036(6)
H13A H 0.80130 -0.26750 0.13360
C26A C 0.7968(6) 0.0809(5) 0.2896(6)
H14A H 0.71620 0.06850 0.29020
C27A C 0.9707(6) 0.0201(5) 0.2734(6)
H15A H 1.00820 -0.03300 0.26350
C28A C 1.0356(6) 0.1192(5) 0.2893(6)
H16A H 1.11640 0.13180 0.28900
Cd1* Cd 1.00000 -0.50000 0.50000
Cd1** Cd 1.00000 0.50000 -0.50000
Cd1*** Cd 1.00000 0.50000 1.50000
Cd1**** Cd 1.00000 1.50000 0.50000
Cd2* Cd 0.81442(4) 0.50557(3) 1.65256(3)
Cd2** Cd 0.81442(4) 1.50557(3) 0.65256(3)
Cd2A* Cd 1.18558(4) -0.50557(3) 0.34744(3)
Cd2A** Cd 1.18558(4) 0.49443(3) -0.65256(3)
O1* O 0.9491(4) 0.4183(4) 0.6848(4)
O1A* O 1.0509(4) 0.5817(4) 0.3152(4)
O4* O 1.0404(4) 0.3909(3) 0.5646(3)
O4A* O 0.9596(4) 0.6091(3) 0.4354(3)
O7* O 0.6308(4) 0.4779(3) 0.4996(3)
O7A* O 1.3692(4) 0.5221(3) 0.5004(3)
O10* O 0.7914(3) 0.4277(3) 0.4741(3)
O10A* O 1.2086(3) 0.5723(3) 0.5259(3)
#END
