
#######################################################################
#
#                 Cambridge Crystallographic Data Centre
#                                CCDC
#
#######################################################################
#
# If this CIF has been generated from an entry in the Cambridge
# Structural Database, then it will include bibliographic, chemical,
# crystal, experimental, refinement or atomic coordinate data resulting
# from the CCDC's data processing and validation procedures.
#
#######################################################################

data_CSD_CIF_HAMLIT
_audit_creation_date 2016-12-10
_audit_creation_method CSD-ConQuest-V1
_database_code_CSD HAMLIT
_database_code_depnum_ccdc_archive 'CCDC 1501692'
_chemical_formula_sum 'C148 H134 N46 O48 Zn8'
_chemical_formula_moiety
;
2(C2 H8 N1 1+),n(C120 H62 N36 O40 Zn8 2-),8(C3 H7 N1 O1)
;
_journal_coden_Cambridge 1295
_journal_volume 79
_journal_year 2016
_journal_page_first 55
_journal_name_full 'Inorg.Chem.Commun. '
loop_
_publ_author_name
"Shixing Zhang"
"Hongming He"
"Fuxing Sun"
"Nian Zhao"
"Jianshi Du"
"Qinhe Pan"
"Guangshan Zhu"
_chemical_name_systematic
;
catena-[bis(Dimethylammonium) 
bis(\m-2,7-bis(3,5-dicarboxylatophenyl)-1,3,6,8-tetraoxo-1,3,6,8-tetrahydroben
zo[lmn][3,8]phenanthroline)-hexakis(\m-adenin-9-yl)-tetra-aqua-octa-zinc 
N,N-dimethylformamide solvate]
;
_chemical_name_common
;
JUC-188
;
_cell_volume   4990.628
_exptl_crystal_colour 'yellow'
_exptl_crystal_description 'block'
_diffrn_ambient_temperature 100
_refine_special_details
;
The SQUEEZE/PLATON program has been used to model some disorder.

;
#These two values have been output from a single CSD field.
_refine_ls_R_factor_gt 0.05
_refine_ls_wR_factor_gt 0.05
_symmetry_cell_setting triclinic
_symmetry_space_group_name_H-M 'P -1'
_symmetry_Int_Tables_number 2
loop_
_symmetry_equiv_pos_site_id
_symmetry_equiv_pos_as_xyz
1 x,y,z
2 -x,-y,-z
_cell_length_a 12.1467(4)
_cell_length_b 18.1091(7)
_cell_length_c 24.1338(9)
_cell_angle_alpha 107.541(2)
_cell_angle_beta 98.670(2)
_cell_angle_gamma 91.332(2)
_cell_formula_units_Z 1
loop_
_atom_type_symbol
_atom_type_radius_bond
C 0.68
H 0.23
N 0.68
O 0.68
Zn 1.22
loop_
_atom_site_label
_atom_site_type_symbol
_atom_site_fract_x
_atom_site_fract_y
_atom_site_fract_z
C1 C 0.8555(3) 0.9512(2) 0.77810(15)
H1 H 0.89210 0.93290 0.74490
C2 C 0.7467(3) 0.9245(2) 0.77549(15)
C3 C 0.6918(3) 0.9508(2) 0.82390(15)
H2 H 0.61810 0.93070 0.82230
C4 C 0.6205(3) 0.8974(2) 0.68266(16)
C5 C 0.5770(3) 0.8432(2) 0.62361(16)
C6 C 0.6070(3) 0.7643(2) 0.60935(16)
C7 C 0.6721(3) 0.7369(2) 0.65075(17)
C8 C 0.7170(4) 0.7909(3) 0.71002(19)
C9 C 0.6969(4) 0.6602(3) 0.63613(19)
H3 H 0.73930 0.64150 0.66480
C10 C 0.6601(4) 0.6099(3) 0.5795(2)
H4 H 0.67880 0.55740 0.56960
C11 C 0.5965(3) 0.6361(2) 0.53752(16)
C12 C 0.5692(3) 0.7144(2) 0.55186(16)
C13 C 0.5062(3) 0.7422(2) 0.50966(15)
C14 C 0.4755(3) 0.8181(2) 0.52587(18)
H5 H 0.43130 0.83660 0.49760
C15 C 0.5085(4) 0.8673(2) 0.58296(18)
H6 H 0.48330 0.91820 0.59390
C16 C 0.4738(3) 0.6911(2) 0.44862(16)
C17 C 0.5567(3) 0.5816(2) 0.47796(17)
C18 C 0.4424(3) 0.5606(2) 0.38001(15)
C19 C 0.3295(3) 0.5608(2) 0.36153(16)
H7 H 0.28580 0.59450 0.38630
C20 C 0.2797(3) 0.5123(2) 0.30725(16)
C21 C 0.3448(3) 0.4617(2) 0.27140(15)
H8 H 0.31110 0.42750 0.23410
C22 C 0.4587(3) 0.4616(2) 0.29052(15)
C23 C 0.5086(3) 0.5119(2) 0.34471(15)
H9 H 0.58670 0.51300 0.35750
C24 C 0.5274(3) 0.4072(2) 0.25285(15)
C25 C 0.2110(3) 0.3797(2) -0.29572(18)
C26 C 0.1571(3) 0.5148(2) 0.28452(17)
C27 C 0.7599(3) 0.4048(2) 0.18107(16)
H10 H 0.72710 0.43310 0.21370
C28 C 0.7807(3) 0.3191(2) 0.10077(14)
C29 C 0.8767(3) 0.3691(2) 0.12242(15)
C30 C 0.9668(3) 0.3553(2) 0.09083(15)
C31 C 0.8563(3) 0.2527(2) 0.02243(15)
H11 H 0.84990 0.21230 -0.01400
C32 C 0.5449(3) 0.2088(2) 0.22319(17)
H12 H 0.50750 0.25290 0.24160
C33 C 0.6233(2) 0.13997(19) 0.14594(14)
C34 C 0.7025(3) 0.0507(2) 0.09042(15)
H13 H 0.73430 0.02190 0.05760
C35 C 0.3437(3) 0.3294(2) 0.08052(17)
H14 H 0.35080 0.37230 0.11550
C36 C 0.2280(3) 0.2550(2) -0.00485(16)
C37 C 0.3198(3) 0.2105(2) -0.01799(14)
C38 C 0.4188(3) 0.2300(2) 0.02145(15)
C39 C 0.4374(3) 0.1299(2) -0.05047(15)
H15 H 0.46990 0.08750 -0.07480
C40 C 0.6835(3) 1.0360(2) 0.92594(14)
C41 C 0.7460(3) 1.00651(19) 0.87428(14)
C42 C 0.8551(3) 1.0341(2) 0.87732(14)
H16 H 0.89140 1.07270 0.91190
C43 C 0.6458(3) 0.0839(2) 0.17349(15)
C44 C 0.6154(3) 0.0938(2) 0.22924(16)
C45 C 1.0308(3) 1.0306(2) 0.83260(15)
C46 C 0.9116(3) 1.0055(2) 0.83006(15)
C47 C 0.2529(3) 0.1680(2) -0.20376(16)
C48 C 0.2753(3) 0.2004(2) -0.25141(16)
C49 C 0.2389(3) 0.2729(2) -0.25142(16)
H17 H 0.20220 0.30190 -0.22060
C50 C 0.2559(3) 0.3026(2) -0.29596(18)
C51 C 0.3074(3) 0.2600(2) -0.34194(17)
H18 H 0.31820 0.27980 -0.37310
C52 C 0.3426(3) 0.1879(2) -0.34132(17)
C53 C 0.3266(3) 0.1579(2) -0.29677(17)
H19 H 0.35070 0.10820 -0.29730
C54 C 0.3182(4) 0.1036(3) -0.44279(19)
C55 C 0.3667(3) 0.0465(3) -0.48926(18)
C56 C 0.3025(4) 0.0112(3) -0.54266(19)
H20 H 0.22760 0.02440 -0.54990
C57 C 0.4774(3) 0.0279(2) -0.47819(17)
C58 C 0.5477(3) 0.0655(2) -0.42338(18)
C59 C 0.5029(3) 0.1235(2) -0.37641(17)
C60 C 0.6549(4) 0.0443(3) -0.41282(19)
H21 H 0.70010 0.06710 -0.37540
N1 N 0.6920(2) 0.86840(18) 0.72134(12)
N2 N 0.4906(2) 0.61265(19) 0.43742(13)
N3 N 0.8616(2) 0.42397(17) 0.17415(13)
N4 N 0.7058(2) 0.34215(17) 0.13848(13)
N5 N 0.7676(2) 0.25770(16) 0.05078(12)
N6 N 0.9517(2) 0.29727(18) 0.03914(13)
N7 N 1.0658(2) 0.39507(19) 0.10799(14)
H22 H 1.11830 0.38320 0.08590
H23 H 1.07890 0.43330 0.14140
N8 N 0.6601(2) 0.11936(17) 0.09292(12)
N9 N 0.5712(2) 0.20616(17) 0.16962(12)
N10 N 0.4343(2) 0.28882(18) 0.07257(13)
N11 N 0.2456(2) 0.31684(19) 0.04548(13)
N12 N 0.1252(2) 0.23931(19) -0.03656(13)
H24 H 0.07100 0.26850 -0.02480
H25 H 0.11170 0.19980 -0.06920
N13 N 0.4952(2) 0.17866(16) 0.00006(12)
N14 N 0.3325(2) 0.14523(17) -0.06389(12)
N15 N 0.6974(2) 0.02537(17) 0.13628(12)
N16 N 0.6362(3) 0.0456(2) 0.26002(15)
H26 H 0.61710 0.05590 0.29520
H27 H 0.66930 0.00300 0.24550
N17 N 0.5638(3) 0.15971(19) 0.25269(14)
N18 N 0.3917(3) 0.13996(19) -0.38986(14)
O1 O 0.7770(4) 0.7711(2) 0.74697(16)
O2 O 0.5991(2) 0.96462(16) 0.69739(12)
O3 O 0.4323(3) 0.71671(17) 0.40902(12)
O4 O 0.5778(3) 0.51389(17) 0.46334(12)
O5 O 0.48174(19) 0.37522(15) 0.19981(10)
O6 O 0.6213(2) 0.39518(16) 0.27422(12)
O7 O 0.1588(2) 0.41006(16) -0.25350(12)
O8 O 0.2272(3) 0.40798(19) -0.33498(15)
O9 O 0.9070(2) 0.47365(18) 0.31018(13)
O10 O 0.1070(2) 0.57044(18) 0.30931(13)
O11 O 0.11028(19) 0.45994(16) 0.24050(11)
O12 O 1.0123(2) 0.57009(17) 0.18346(13)
O13 O 0.72375(19) 1.10193(15) 0.96247(11)
O14 O 0.6013(2) 0.99816(15) 0.92879(11)
O15 O 0.1958(2) 0.20156(18) -0.16601(12)
O16 O 0.2957(2) 0.10315(15) -0.20315(10)
O17 O 1.0769(2) 1.00679(19) 0.78882(12)
O18 O 1.08294(18) 1.07439(15) 0.88149(11)
O19 O 0.5575(3) 0.15697(18) -0.32831(12)
O20 O 0.2226(3) 0.1198(2) -0.44935(15)
Zn1 Zn 0.55578(3) 0.30174(3) 0.143216(18)
Zn2 Zn 0.65469(3) 0.16436(3) 0.027063(18)
Zn3 Zn 0.95569(3) 0.51242(3) 0.24024(2)
Zn4 Zn 0.23687(3) 0.07623(3) -0.138884(18)
C25A C 0.7890(3) -0.3797(2) -0.70428(18)
C47A C 0.7471(3) -0.1680(2) -0.79624(16)
C48A C 0.7247(3) -0.2004(2) -0.74859(16)
C49A C 0.7611(3) -0.2729(2) -0.74858(16)
H17A H 0.79780 -0.30190 -0.77940
C50A C 0.7441(3) -0.3026(2) -0.70404(18)
C51A C 0.6926(3) -0.2600(2) -0.65806(17)
H18A H 0.68180 -0.27980 -0.62690
C52A C 0.6574(3) -0.1879(2) -0.65868(17)
C53A C 0.6734(3) -0.1579(2) -0.70323(17)
H19A H 0.64930 -0.10820 -0.70270
C54A C 0.6818(4) -0.1036(3) -0.55721(19)
C55A C 0.6333(3) -0.0465(3) -0.51074(18)
C56A C 0.6975(4) -0.0112(3) -0.45734(19)
H20A H 0.77240 -0.02440 -0.45010
C57A C 0.5226(3) -0.0279(2) -0.52181(17)
C58A C 0.4523(3) -0.0655(2) -0.57662(18)
C59A C 0.4971(3) -0.1235(2) -0.62359(17)
C60A C 0.3451(4) -0.0443(3) -0.58718(19)
H21A H 0.29990 -0.06710 -0.62460
N18A N 0.6083(3) -0.13996(19) -0.61014(14)
O7A O 0.8412(2) -0.41006(16) -0.74650(12)
O8A O 0.7728(3) -0.40798(19) -0.66502(15)
O15A O 0.8042(2) -0.20156(18) -0.83399(12)
O16A O 0.7043(2) -0.10315(15) -0.79685(10)
O19A O 0.4425(3) -0.15697(18) -0.67169(12)
O20A O 0.7774(3) -0.1198(2) -0.55065(15)
C1A C 0.1445(3) -0.9512(2) -1.77810(15)
H1A H 0.10790 -0.93290 -1.74490
C2A C 0.2533(3) -0.9245(2) -1.77549(15)
C3A C 0.3082(3) -0.9508(2) -1.82390(15)
H2A H 0.38190 -0.93070 -1.82230
C4A C 0.3795(3) -0.8974(2) -1.68266(16)
C5A C 0.4230(3) -0.8432(2) -1.62361(16)
C6A C 0.3930(3) -0.7643(2) -1.60935(16)
C7A C 0.3279(3) -0.7369(2) -1.65075(17)
C8A C 0.2830(4) -0.7909(3) -1.71002(19)
C9A C 0.3031(4) -0.6602(3) -1.63613(19)
H3A H 0.26070 -0.64150 -1.66480
C10A C 0.3399(4) -0.6099(3) -1.5795(2)
H4A H 0.32120 -0.55740 -1.56960
C11A C 0.4035(3) -0.6361(2) -1.53752(16)
C12A C 0.4308(3) -0.7144(2) -1.55186(16)
C13A C 0.4938(3) -0.7422(2) -1.50966(15)
C14A C 0.5245(3) -0.8181(2) -1.52587(18)
H5A H 0.56870 -0.83660 -1.49760
C15A C 0.4915(4) -0.8673(2) -1.58296(18)
H6A H 0.51670 -0.91820 -1.59390
C16A C 0.5262(3) -0.6911(2) -1.44862(16)
C17A C 0.4433(3) -0.5816(2) -1.47796(17)
C18A C 0.5576(3) -0.5606(2) -1.38001(15)
C19A C 0.6705(3) -0.5608(2) -1.36153(16)
H7A H 0.71420 -0.59450 -1.38630
C20A C 0.7203(3) -0.5123(2) -1.30725(16)
C21A C 0.6552(3) -0.4617(2) -1.27140(15)
H8A H 0.68890 -0.42750 -1.23410
C22A C 0.5413(3) -0.4616(2) -1.29052(15)
C23A C 0.4914(3) -0.5119(2) -1.34471(15)
H9A H 0.41330 -0.51300 -1.35750
C24A C 0.4726(3) -0.4072(2) -1.25285(15)
C26A C 0.8429(3) -0.5148(2) -1.28452(17)
C27A C 0.2401(3) -0.4048(2) -1.18107(16)
H10A H 0.27290 -0.43310 -1.21370
C28A C 0.2193(3) -0.3191(2) -1.10077(14)
C29A C 0.1233(3) -0.3691(2) -1.12242(15)
C30A C 0.0332(3) -0.3553(2) -1.09083(15)
C31A C 0.1437(3) -0.2527(2) -1.02243(15)
H11A H 0.15010 -0.21230 -0.98600
C32A C 0.4551(3) -0.2088(2) -1.22319(17)
H12A H 0.49250 -0.25290 -1.24160
C33A C 0.3767(2) -0.13997(19) -1.14594(14)
C34A C 0.2975(3) -0.0507(2) -1.09042(15)
H13A H 0.26570 -0.02190 -1.05760
C35A C 0.6563(3) -0.3294(2) -1.08052(17)
H14A H 0.64920 -0.37230 -1.11550
C36A C 0.7720(3) -0.2550(2) -0.99515(16)
C37A C 0.6802(3) -0.2105(2) -0.98201(14)
C38A C 0.5812(3) -0.2300(2) -1.02145(15)
C39A C 0.5626(3) -0.1299(2) -0.94953(15)
H15A H 0.53010 -0.08750 -0.92520
C40A C 0.3165(3) -1.0360(2) -1.92594(14)
C41A C 0.2540(3) -1.00651(19) -1.87428(14)
C42A C 0.1449(3) -1.0341(2) -1.87732(14)
H16A H 0.10860 -1.07270 -1.91190
C43A C 0.3542(3) -0.0839(2) -1.17349(15)
C44A C 0.3846(3) -0.0938(2) -1.22924(16)
C45A C -0.0308(3) -1.0306(2) -1.83260(15)
C46A C 0.0884(3) -1.0055(2) -1.83006(15)
N1A N 0.3080(2) -0.86840(18) -1.72134(12)
N2A N 0.5094(2) -0.61265(19) -1.43742(13)
N3A N 0.1384(2) -0.42397(17) -1.17415(13)
N4A N 0.2942(2) -0.34215(17) -1.13848(13)
N5A N 0.2324(2) -0.25770(16) -1.05078(12)
N6A N 0.0483(2) -0.29727(18) -1.03914(13)
N7A N -0.0658(2) -0.39507(19) -1.10799(14)
H22A H -0.11830 -0.38320 -1.08590
H23A H -0.07890 -0.43330 -1.14140
N8A N 0.3399(2) -0.11936(17) -1.09292(12)
N9A N 0.4288(2) -0.20616(17) -1.16962(12)
N10A N 0.5657(2) -0.28882(18) -1.07257(13)
N11A N 0.7544(2) -0.31684(19) -1.04548(13)
N12A N 0.8748(2) -0.23931(19) -0.96344(13)
H24A H 0.92900 -0.26850 -0.97520
H25A H 0.88830 -0.19980 -0.93080
N13A N 0.5048(2) -0.17866(16) -1.00006(12)
N14A N 0.6675(2) -0.14523(17) -0.93611(12)
N15A N 0.3026(2) -0.02537(17) -1.13628(12)
N16A N 0.3638(3) -0.0456(2) -1.26002(15)
H26A H 0.38290 -0.05590 -1.29520
H27A H 0.33070 -0.00300 -1.24550
N17A N 0.4362(3) -0.15971(19) -1.25269(14)
O1A O 0.2230(4) -0.7711(2) -1.74697(16)
O2A O 0.4009(2) -0.96462(16) -1.69739(12)
O3A O 0.5677(3) -0.71671(17) -1.40902(12)
O4A O 0.4222(3) -0.51389(17) -1.46334(12)
O5A O 0.51826(19) -0.37522(15) -1.19981(10)
O6A O 0.3787(2) -0.39518(16) -1.27422(12)
O9A O 0.0930(2) -0.47365(18) -1.31018(13)
O10A O 0.8930(2) -0.57044(18) -1.30931(13)
O11A O 0.88972(19) -0.45994(16) -1.24050(11)
O12A O -0.0123(2) -0.57009(17) -1.18346(13)
O13A O 0.27625(19) -1.10193(15) -1.96247(11)
O14A O 0.3987(2) -0.99816(15) -1.92879(11)
O17A O -0.0769(2) -1.00679(19) -1.78882(12)
O18A O -0.08294(18) -1.07439(15) -1.88149(11)
Zn1A Zn 0.44422(3) -0.30174(3) -1.143216(18)
Zn2A Zn 0.34531(3) -0.16436(3) -1.027063(18)
Zn3A Zn 0.04431(3) -0.51242(3) -1.24024(2)
Zn4A Zn 0.76313(3) -0.07623(3) -0.861116(18)
N15* N 0.6974(2) 0.02537(17) -0.86372(12)
N15A* N 0.3026(2) -0.02537(17) -0.13628(12)
O7* O 0.1588(2) -0.58994(16) -1.25350(12)
O7A* O 0.8412(2) 0.58994(16) 0.25350(12)
O10* O 1.1070(2) 0.57044(18) 0.30931(13)
O10A* O -0.1070(2) -0.57044(18) -1.30931(13)
O11* O 1.11028(19) 0.45994(16) 0.24050(11)
O11A* O -0.11028(19) -0.45994(16) -1.24050(11)
O13* O 0.72375(19) 0.10193(15) -0.03753(11)
O13A* O 0.27625(19) -0.10193(15) -0.96247(11)
O17* O 0.0769(2) 0.00679(19) -0.21118(12)
O17A* O 0.9231(2) -0.00679(19) -0.78882(12)
O18* O 0.08294(18) 0.07439(15) -0.11851(11)
O18A* O 0.91706(18) -0.07439(15) -0.88149(11)
Zn2* Zn 0.65469(3) 1.16436(3) 1.027063(18)
Zn2A* Zn 0.34531(3) -1.16436(3) -2.027063(18)
Zn3* Zn -0.04431(3) 0.51242(3) 0.24024(2)
Zn3** Zn 0.95569(3) -0.48758(3) -0.75976(2)
Zn3A* Zn 0.04431(3) 0.48758(3) -0.24024(2)
Zn3A** Zn 1.04431(3) -0.51242(3) -1.24024(2)
Zn4* Zn 0.23687(3) 0.07623(3) -1.138884(18)
Zn4** Zn 1.23687(3) 1.07623(3) 0.861116(18)
Zn4A* Zn -0.23687(3) -1.07623(3) -1.861116(18)
Zn4A** Zn 0.76313(3) -0.07623(3) 0.138884(18)
#END
