
#######################################################################
#
#                 Cambridge Crystallographic Data Centre
#                                CCDC
#
#######################################################################
#
# If this CIF has been generated from an entry in the Cambridge
# Structural Database, then it will include bibliographic, chemical,
# crystal, experimental, refinement or atomic coordinate data resulting
# from the CCDC's data processing and validation procedures.
#
#######################################################################

data_CSD_CIF_HAMSAP
_audit_creation_date 1994-04-27
_audit_creation_method CSD-ConQuest-V1
_database_code_CSD HAMSAP
_chemical_formula_sum 'C62 H57 N1 O8 Sn3'
_chemical_formula_moiety
;
(C58 H45 O8 Sn3 1-)n,n(C4 H12 N1 1+)
;
_journal_coden_Cambridge 36
_journal_volume 456
_journal_year 1993
_journal_page_first 175
_journal_name_full 'J.Organomet.Chem. '
loop_
_publ_author_name
"Seik Weng Ng"
"V.G.Kumar Das"
_chemical_name_systematic
;
catena-(Tetramethylammonium 
(\m~3~-oxalato)-(\m~2~-oxalato)-tris(triphenyl-tin))
;
_chemical_melting_point 393.15
_cell_volume   5685.863
_exptl_crystal_colour 'white'
_exptl_crystal_density_diffrn 1.519
_exptl_special_details
;
Melting point range 393.15-473.15K
y(C54) is 0.5650 not 0.5560

;
_diffrn_ambient_temperature ?
_diffrn_special_details
;
The study was carried out at room temperature,in the range 283-303K

;
#These two values have been output from a single CSD field.
_refine_ls_R_factor_gt 0.041
_refine_ls_wR_factor_gt 0.041
_symmetry_cell_setting monoclinic
_symmetry_space_group_name_H-M 'P 21/n'
_symmetry_Int_Tables_number 14
loop_
_symmetry_equiv_pos_site_id
_symmetry_equiv_pos_as_xyz
1 x,y,z
2 1/2-x,1/2+y,1/2-z
3 -x,-y,-z
4 -1/2+x,-1/2-y,-1/2+z
_cell_length_a 9.777(2)
_cell_length_b 26.679(2)
_cell_length_c 21.937(3)
_cell_angle_alpha 90
_cell_angle_beta 96.448(8)
_cell_angle_gamma 90
_cell_formula_units_Z 4
loop_
_atom_type_symbol
_atom_type_radius_bond
C 0.68
H 0.23
N 0.68
O 0.68
Sn 1.46
loop_
_atom_site_label
_atom_site_type_symbol
_atom_site_fract_x
_atom_site_fract_y
_atom_site_fract_z
Sn1 Sn 0.26228(6) 0.14934(2) 0.05657(3)
Sn2 Sn 0.19618(6) 0.35221(2) 0.16076(2)
Sn3 Sn 0.39648(6) 0.59699(2) 0.22095(3)
O1 O 0.2302(6) 0.2295(2) 0.0972(2)
O2 O 0.1593(6) 0.2678(2) 0.1785(2)
O3 O 0.1726(6) 0.1416(2) 0.1393(2)
O4 O 0.0891(6) 0.1752(2) 0.2202(2)
O5 O 0.2142(6) 0.4333(2) 0.1500(3)
O6 O 0.3565(7) 0.4409(2) 0.0772(3)
O7 O 0.3827(6) 0.5286(2) 0.1699(3)
O8 O 0.2063(7) 0.5408(2) 0.0987(3)
N1 N 0.7654(9) 0.4843(3) 0.0937(4)
C1 C 0.2677(9) 0.0685(3) 0.0565(4)
C2 C 0.390(1) 0.0437(4) 0.0547(5)
C3 C 0.393(1) -0.0093(4) 0.0567(6)
C4 C 0.272(1) -0.0361(4) 0.0596(5)
C5 C 0.150(1) -0.0115(4) 0.0630(5)
C6 C 0.148(1) 0.0417(4) 0.0614(5)
C7 C 0.4704(9) 0.1714(3) 0.0585(4)
C8 C 0.552(1) 0.1815(5) 0.1134(6)
C9 C 0.697(1) 0.1927(5) 0.1123(8)
C10 C 0.749(1) 0.1931(5) 0.0553(8)
C11 C 0.670(1) 0.1826(6) 0.0038(7)
C12 C 0.527(1) 0.1726(5) 0.0040(6)
C13 C 0.1212(9) 0.1704(3) -0.0200(4)
C14 C 0.064(1) 0.1323(4) -0.0574(5)
C15 C -0.030(1) 0.1434(5) -0.1090(5)
C16 C -0.062(1) 0.1925(5) -0.1248(5)
C17 C -0.006(1) 0.2314(5) -0.0878(5)
C18 C 0.087(1) 0.2200(4) -0.0349(4)
C19 C 0.0959(8) 0.3654(3) 0.2412(3)
C20 C 0.059(1) 0.4137(4) 0.2559(4)
C21 C -0.013(1) 0.4223(4) 0.3070(5)
C22 C -0.044(1) 0.3842(4) 0.3441(5)
C23 C -0.006(1) 0.3365(4) 0.3303(4)
C24 C 0.063(1) 0.3270(4) 0.2784(4)
C25 C 0.0673(8) 0.3452(3) 0.0770(4)
C26 C -0.058(1) 0.3206(4) 0.0763(5)
C27 C -0.153(1) 0.3199(4) 0.0230(6)
C28 C -0.120(1) 0.3428(4) -0.0300(5)
C29 C 0.003(1) 0.3668(4) -0.0309(5)
C30 C 0.100(1) 0.3681(4) 0.0228(4)
C31 C 0.4103(9) 0.3414(3) 0.1762(4)
C32 C 0.481(1) 0.3156(5) 0.1376(7)
C33 C 0.626(1) 0.3110(6) 0.1509(8)
C34 C 0.692(1) 0.3314(6) 0.2041(7)
C35 C 0.622(1) 0.3600(7) 0.2381(6)
C36 C 0.480(1) 0.3674(6) 0.2244(6)
C37 C 0.5325(8) 0.5596(3) 0.2901(4)
C38 C 0.6140(9) 0.5871(4) 0.3349(4)
C39 C 0.701(1) 0.5612(4) 0.3803(5)
C40 C 0.707(1) 0.5096(4) 0.3814(5)
C41 C 0.628(1) 0.4825(4) 0.3360(5)
C42 C 0.539(1) 0.5072(4) 0.2905(5)
C43 C 0.4860(8) 0.6401(3) 0.1532(4)
C44 C 0.469(1) 0.6246(4) 0.0921(4)
C45 C 0.532(1) 0.6509(4) 0.0468(5)
C46 C 0.617(1) 0.6911(4) 0.0628(5)
C47 C 0.638(1) 0.7069(4) 0.1245(5)
C48 C 0.572(1) 0.6811(4) 0.1703(5)
C49 C 0.1830(8) 0.6024(3) 0.2293(4)
C50 C 0.108(1) 0.6426(4) 0.2027(5)
C51 C -0.033(1) 0.6467(5) 0.2073(5)
C52 C -0.099(1) 0.6102(5) 0.2388(5)
C53 C -0.023(1) 0.5713(5) 0.2666(6)
C54 C 0.117(1) 0.5650(4) 0.2621(5)
C55 C 0.1805(8) 0.2301(3) 0.1469(3)
C56 C 0.1423(8) 0.1788(3) 0.1722(4)
C57 C 0.2897(8) 0.4576(3) 0.1157(4)
C58 C 0.2892(8) 0.5146(3) 0.1281(3)
C59 C 0.698(2) 0.4459(8) 0.056(1)
C60 C 0.903(1) 0.4900(8) 0.080(1)
C61 C 0.750(3) 0.471(1) 0.1546(8)
C62 C 0.689(2) 0.5295(7) 0.080(1)
H1 H 0.47197 0.06207 0.05200
H2 H 0.47834 -0.02649 0.05612
H3 H 0.27348 -0.07170 0.05913
H4 H 0.06820 -0.02978 0.06652
H5 H 0.06401 0.05908 0.06367
H6 H 0.51348 0.18099 0.15123
H7 H 0.75492 0.19963 0.14906
H8 H 0.84341 0.20100 0.05360
H9 H 0.70932 0.18185 -0.03388
H10 H 0.47096 0.16677 -0.03357
H11 H 0.08748 0.09845 -0.04800
H12 H -0.07087 0.11684 -0.13343
H13 H -0.12308 0.19959 -0.16070
H14 H -0.02957 0.26521 -0.09781
H15 H 0.12574 0.24644 -0.00952
H16 H 0.08266 0.44108 0.23147
H17 H -0.03985 0.45544 0.31568
H18 H -0.09119 0.39054 0.37892
H19 H -0.02685 0.30950 0.35601
H20 H 0.08617 0.29360 0.26908
H21 H -0.07991 0.30398 0.11224
H22 H -0.23951 0.30374 0.02342
H23 H -0.18333 0.34182 -0.06610
H24 H 0.02438 0.38266 -0.06748
H25 H 0.18665 0.38427 0.02190
H26 H 0.43416 0.30057 0.10180
H27 H 0.67757 0.29390 0.12314
H28 H 0.78726 0.32484 0.21592
H29 H 0.66944 0.37619 0.27296
H30 H 0.43203 0.38996 0.24805
H31 H 0.61095 0.62267 0.33482
H32 H 0.75618 0.57973 0.41066
H33 H 0.76405 0.49278 0.41279
H34 H 0.63508 0.44698 0.33543
H35 H 0.48301 0.48833 0.26051
H36 H 0.41368 0.59596 0.08082
H37 H 0.51515 0.64089 0.00503
H38 H 0.66083 0.70810 0.03243
H39 H 0.69574 0.73469 0.13562
H40 H 0.58613 0.69163 0.21188
H41 H 0.15344 0.66744 0.18128
H42 H -0.08355 0.67421 0.18893
H43 H -0.19486 0.61224 0.24120
H44 H -0.06812 0.54730 0.28945
H45 H 0.16743 0.53851 0.28074
H46 H 0.60632 0.44216 0.06542
H47 H 0.69782 0.45471 0.01408
H48 H 0.74629 0.41511 0.06364
H49 H 0.90292 0.49884 0.03785
H50 H 0.94753 0.51556 0.10487
H51 H 0.95141 0.45927 0.08743
H52 H 0.80005 0.44113 0.16495
H53 H 0.78530 0.49731 0.18128
H54 H 0.65570 0.46600 0.15873
H55 H 0.73063 0.55606 0.10470
H56 H 0.68845 0.53754 0.03821
H57 H 0.59707 0.52494 0.08958
Sn3A Sn 0.10352(6) 0.09699(2) 0.27905(3)
O4A O 0.4109(6) 0.6752(2) 0.2798(2)
#END
