
#######################################################################
#
#                 Cambridge Crystallographic Data Centre
#                                CCDC
#
#######################################################################
#
# If this CIF has been generated from an entry in the Cambridge
# Structural Database, then it will include bibliographic, chemical,
# crystal, experimental, refinement or atomic coordinate data resulting
# from the CCDC's data processing and validation procedures.
#
#######################################################################

data_CSD_CIF_HANKUE
_audit_creation_date 2012-07-02
_audit_creation_method CSD-ConQuest-V1
_database_code_CSD HANKUE
_database_code_depnum_ccdc_archive 'CCDC 843762'
_chemical_formula_sum 'C65 H53 Cd3 In6 N1 O56'
_chemical_formula_moiety
;
(C2 H8 N1 1+)n,n(C63 H45 Cd3 In6 O56 1-)
;
_journal_coden_Cambridge 4
_journal_volume 134
_journal_year 2012
_journal_page_first 1934
_journal_name_full 'J.Am.Chem.Soc. '
loop_
_publ_author_name
"Shou-Tian Zheng"
"Tao Wu"
"Fan Zuo"
"Chengtsung Chou"
"Pingyun Feng"
"Xianhui Bu"
_chemical_name_systematic
;
catena-[Dimethylammonium 
(\m~6~-benzene-1,3,5-tricarboxylato)-hexakis(\m~4~-benzene-1,3,5-tricarboxylat
o)-bis(\m~3~-oxo)-dodeca-aqua-tetra-cadmium-penta-indium unknown solvate]
;
_chemical_name_common
;
CPM-15-Cd
;
_cell_volume 129332.360
_exptl_crystal_colour 'colorless'
_exptl_special_details
;
Isostructural with the Co, Mg, Mn and Ni analogues

;
_exptl_crystal_description 'block'
_diffrn_ambient_temperature 296
_refine_special_details
;
One metal is modelled as a mixed occupancy indium:cadmium site, with an 
occupancy ratio 2:1. The sum formula is C65 H54 Cd4 In5 O56.
;
#These two values have been output from a single CSD field.
_refine_ls_R_factor_gt 0.0996
_refine_ls_wR_factor_gt 0.0996
_symmetry_cell_setting cubic
_symmetry_space_group_name_H-M 'F d -3 m'
_symmetry_Int_Tables_number 227
loop_
_symmetry_equiv_pos_site_id
_symmetry_equiv_pos_as_xyz
1 x,y,z
2 3/4-x,1/4-y,1/2+z
3 1/4-x,1/2+y,3/4-z
4 1/2+x,3/4-y,1/4-z
5 z,x,y
6 1/2+z,3/4-x,1/4-y
7 3/4-z,1/4-x,1/2+y
8 1/4-z,1/2+x,3/4-y
9 y,z,x
10 1/4-y,1/2+z,3/4-x
11 1/2+y,3/4-z,1/4-x
12 3/4-y,1/4-z,1/2+x
13 3/4+y,1/4+x,1/2-z
14 -y,-x,-z
15 1/4+y,1/2-x,3/4+z
16 1/2-y,3/4+x,1/4+z
17 3/4+x,1/4+z,1/2-y
18 1/2-x,3/4+z,1/4+y
19 -x,-z,-y
20 1/4+x,1/2-z,3/4+y
21 3/4+z,1/4+y,1/2-x
22 1/4+z,1/2-y,3/4+x
23 1/2-z,3/4+y,1/4+x
24 -z,-y,-x
25 x,1/2+y,1/2+z
26 3/4-x,3/4-y,z
27 1/4-x,y,1/4-z
28 1/2+x,1/4-y,3/4-z
29 z,1/2+x,1/2+y
30 1/2+z,1/4-x,3/4-y
31 3/4-z,3/4-x,y
32 1/4-z,x,1/4-y
33 y,1/2+z,1/2+x
34 1/4-y,z,1/4-x
35 1/2+y,1/4-z,3/4-x
36 3/4-y,3/4-z,x
37 3/4+y,3/4+x,-z
38 -y,1/2-x,1/2-z
39 1/4+y,-x,1/4+z
40 1/2-y,1/4+x,3/4+z
41 3/4+x,3/4+z,-y
42 1/2-x,1/4+z,3/4+y
43 -x,1/2-z,1/2-y
44 1/4+x,-z,1/4+y
45 3/4+z,3/4+y,-x
46 1/4+z,-y,1/4+x
47 1/2-z,1/4+y,3/4+x
48 -z,1/2-y,1/2-x
49 1/2+x,y,1/2+z
50 1/4-x,1/4-y,z
51 3/4-x,1/2+y,1/4-z
52 x,3/4-y,3/4-z
53 1/2+z,x,1/2+y
54 z,3/4-x,3/4-y
55 1/4-z,1/4-x,y
56 3/4-z,1/2+x,1/4-y
57 1/2+y,z,1/2+x
58 3/4-y,1/2+z,1/4-x
59 y,3/4-z,3/4-x
60 1/4-y,1/4-z,x
61 1/4+y,1/4+x,-z
62 1/2-y,-x,1/2-z
63 3/4+y,1/2-x,1/4+z
64 -y,3/4+x,3/4+z
65 1/4+x,1/4+z,-y
66 -x,3/4+z,3/4+y
67 1/2-x,-z,1/2-y
68 3/4+x,1/2-z,1/4+y
69 1/4+z,1/4+y,-x
70 3/4+z,1/2-y,1/4+x
71 -z,3/4+y,3/4+x
72 1/2-z,-y,1/2-x
73 1/2+x,1/2+y,z
74 1/4-x,3/4-y,1/2+z
75 3/4-x,y,3/4-z
76 x,1/4-y,1/4-z
77 1/2+z,1/2+x,y
78 z,1/4-x,1/4-y
79 1/4-z,3/4-x,1/2+y
80 3/4-z,x,3/4-y
81 1/2+y,1/2+z,x
82 3/4-y,z,3/4-x
83 y,1/4-z,1/4-x
84 1/4-y,3/4-z,1/2+x
85 1/4+y,3/4+x,1/2-z
86 1/2-y,1/2-x,-z
87 3/4+y,-x,3/4+z
88 -y,1/4+x,1/4+z
89 1/4+x,3/4+z,1/2-y
90 -x,1/4+z,1/4+y
91 1/2-x,1/2-z,-y
92 3/4+x,-z,3/4+y
93 1/4+z,3/4+y,1/2-x
94 3/4+z,-y,3/4+x
95 -z,1/4+y,1/4+x
96 1/2-z,1/2-y,-x
97 -x,-y,-z
98 -3/4+x,-1/4+y,-1/2-z
99 -1/4+x,-1/2-y,-3/4+z
100 -1/2-x,-3/4+y,-1/4+z
101 -z,-x,-y
102 -1/2-z,-3/4+x,-1/4+y
103 -3/4+z,-1/4+x,-1/2-y
104 -1/4+z,-1/2-x,-3/4+y
105 -y,-z,-x
106 -1/4+y,-1/2-z,-3/4+x
107 -1/2-y,-3/4+z,-1/4+x
108 -3/4+y,-1/4+z,-1/2-x
109 -3/4-y,-1/4-x,-1/2+z
110 y,x,z
111 -1/4-y,-1/2+x,-3/4-z
112 -1/2+y,-3/4-x,-1/4-z
113 -3/4-x,-1/4-z,-1/2+y
114 -1/2+x,-3/4-z,-1/4-y
115 x,z,y
116 -1/4-x,-1/2+z,-3/4-y
117 -3/4-z,-1/4-y,-1/2+x
118 -1/4-z,-1/2+y,-3/4-x
119 -1/2+z,-3/4-y,-1/4-x
120 z,y,x
121 -x,-1/2-y,-1/2-z
122 -3/4+x,-3/4+y,-z
123 -1/4+x,-y,-1/4+z
124 -1/2-x,-1/4+y,-3/4+z
125 -z,-1/2-x,-1/2-y
126 -1/2-z,-1/4+x,-3/4+y
127 -3/4+z,-3/4+x,-y
128 -1/4+z,-x,-1/4+y
129 -y,-1/2-z,-1/2-x
130 -1/4+y,-z,-1/4+x
131 -1/2-y,-1/4+z,-3/4+x
132 -3/4+y,-3/4+z,-x
133 -3/4-y,-3/4-x,z
134 y,-1/2+x,-1/2+z
135 -1/4-y,x,-1/4-z
136 -1/2+y,-1/4-x,-3/4-z
137 -3/4-x,-3/4-z,y
138 -1/2+x,-1/4-z,-3/4-y
139 x,-1/2+z,-1/2+y
140 -1/4-x,z,-1/4-y
141 -3/4-z,-3/4-y,x
142 -1/4-z,y,-1/4-x
143 -1/2+z,-1/4-y,-3/4-x
144 z,-1/2+y,-1/2+x
145 -1/2-x,-y,-1/2-z
146 -1/4+x,-1/4+y,-z
147 -3/4+x,-1/2-y,-1/4+z
148 -x,-3/4+y,-3/4+z
149 -1/2-z,-x,-1/2-y
150 -z,-3/4+x,-3/4+y
151 -1/4+z,-1/4+x,-y
152 -3/4+z,-1/2-x,-1/4+y
153 -1/2-y,-z,-1/2-x
154 -3/4+y,-1/2-z,-1/4+x
155 -y,-3/4+z,-3/4+x
156 -1/4+y,-1/4+z,-x
157 -1/4-y,-1/4-x,z
158 -1/2+y,x,-1/2+z
159 -3/4-y,-1/2+x,-1/4-z
160 y,-3/4-x,-3/4-z
161 -1/4-x,-1/4-z,y
162 x,-3/4-z,-3/4-y
163 -1/2+x,z,-1/2+y
164 -3/4-x,-1/2+z,-1/4-y
165 -1/4-z,-1/4-y,x
166 -3/4-z,-1/2+y,-1/4-x
167 z,-3/4-y,-3/4-x
168 -1/2+z,y,-1/2+x
169 -1/2-x,-1/2-y,-z
170 -1/4+x,-3/4+y,-1/2-z
171 -3/4+x,-y,-3/4+z
172 -x,-1/4+y,-1/4+z
173 -1/2-z,-1/2-x,-y
174 -z,-1/4+x,-1/4+y
175 -1/4+z,-3/4+x,-1/2-y
176 -3/4+z,-x,-3/4+y
177 -1/2-y,-1/2-z,-x
178 -3/4+y,-z,-3/4+x
179 -y,-1/4+z,-1/4+x
180 -1/4+y,-3/4+z,-1/2-x
181 -1/4-y,-3/4-x,-1/2+z
182 -1/2+y,-1/2+x,z
183 -3/4-y,x,-3/4-z
184 y,-1/4-x,-1/4-z
185 -1/4-x,-3/4-z,-1/2+y
186 x,-1/4-z,-1/4-y
187 -1/2+x,-1/2+z,y
188 -3/4-x,z,-3/4-y
189 -1/4-z,-3/4-y,-1/2+x
190 -3/4-z,y,-3/4-x
191 z,-1/4-y,-1/4-x
192 -1/2+z,-1/2+y,x
_cell_length_a 50.5711(11)
_cell_length_b 50.5711(11)
_cell_length_c 50.5711(11)
_cell_angle_alpha 90
_cell_angle_beta 90
_cell_angle_gamma 90
_cell_formula_units_Z 32
loop_
_atom_type_symbol
_atom_type_radius_bond
C 0.60
Cd 1.44
In 1.57
O 0.75
loop_
_atom_site_label
_atom_site_type_symbol
_atom_site_fract_x
_atom_site_fract_y
_atom_site_fract_z
In1 In -0.12028(2) 1.12028(2) 0.00000
In2 In -0.322103(15) 1.072103(15) 0.02235(2)
Cd1? Cd -0.322103(15) 1.072103(15) 0.02235(2)
Cd2 Cd 0.05576(5) 1.05576(5) 0.10667(7)
O1 O -0.1065(3) 1.0975(2) 0.0334(2)
O2 O -0.0711(3) 1.1195(3) 0.0215(3)
O3 O 0.0159(3) 1.0585(3) 0.0901(4)
O4 O -0.16128(17) 1.10572(19) 0.01137(19)
O5 O -0.15541(19) 1.12651(18) -0.02597(17)
O6 O -0.28444(17) 1.07789(17) 0.00322(17)
O7 O -0.30496(17) 1.05496(17) 0.05496(17)
O8 O -0.36202(15) 1.06984(17) 0.03935(18)
O9 O 0.0744(3) 1.0744(3) 0.0744(3)
C1 C -0.0830(5) 1.1027(3) 0.0353(4)
C2 C -0.0804(5) 1.0707(4) 0.0707(4)
C3 C -0.0664(4) 1.0870(3) 0.0534(3)
C4 C -0.0387(3) 1.0879(3) 0.0558(4)
C5 C -0.0249(6) 1.0726(4) 0.0726(4)
C6 C 0.0031(5) 1.0706(5) 0.0706(5)
C7 C -0.1701(3) 1.1147(3) -0.0102(3)
C8 C -0.2068(2) 1.1142(4) -0.0432(2)
C9 C -0.1986(2) 1.1101(2) -0.0182(2)
C10 C -0.2162(2) 1.0981(2) 0.0001(2)
C11 C -0.2412(2) 1.0929(3) -0.0088(2)
C12 C -0.2614(2) 1.0805(3) 0.0114(2)
C13 C -0.3716(3) 1.0587(2) 0.0587(2)
C14 C -0.3960(3) 1.0691(2) 0.0691(2)
C15 C -0.4073(2) 1.0927(2) 0.0589(3)
O10 O -0.33958(14) 1.08958(14) -0.0161(2)
O11 O 0.04934(14) 1.04934(14) 0.04934(14)
O12 O 0.0422(4) 1.0422(4) 0.1429(6)
O13 O 0.0491(3) 1.0897(3) 0.1278(3)
O14 O -0.0018(19) 1.0792(13) 0.1708(13)
In1ZC In -0.12028(2) 1.00000(2) 0.12028
In1VC In 0.00000(2) 1.12028(2) -0.12028
In1WD In -0.25000(2) 1.12028(2) -0.12972
In1XE In -0.12028(2) 1.25000(2) 0.12972
In1OE In -0.37028(2) 0.87028(2) 0.00000
In1CC In -0.37028(2) 1.00000(2) -0.12972
In1RC In 0.12028(2) 0.87972(2) 0.00000
In1D In 0.00000(2) 0.87972(2) 0.12028
In2DA In -0.272350(15) 1.072103(15) 0.072103(20)
In2M In -0.072103(15) 1.322103(15) -0.02235(2)
In2CC In -0.322103(15) 1.022350(15) 0.072103(20)
In2XB In -0.477650(15) 1.177897(15) 0.072103(20)
In2WA In -0.427897(15) 1.177897(15) 0.02235(2)
In2DB In -0.427897(15) 1.022350(15) 0.177897(20)
In2E In -0.477650(15) 1.072103(15) 0.177897(20)
In2LB In -0.072103(15) 1.272350(15) -0.072103(20)
Cd2H Cd 0.05576(5) 1.10667(5) 0.05576(7)
Cd2M Cd -0.05576(5) 0.94424(5) -0.10667(7)
Cd2D Cd 0.10667(5) 1.05576(5) 0.05576(7)
Cd2W Cd -0.10667(5) 0.94424(5) -0.05576(7)
O1JD O -0.1065(3) 1.0334(2) 0.0975(2)
O1M O -0.0975(3) 1.1065(2) -0.0334(2)
O1VC O -0.0334(3) 1.1065(2) -0.0975(2)
O1ED O 0.0975(3) 0.8935(2) 0.0334(2)
O1D O 0.0334(3) 0.8935(2) 0.0975(2)
O1ZC O -0.0975(3) 0.9666(2) 0.1065(2)
O1OD O 0.0334(3) 1.0975(2) -0.1065(2)
O2JD O -0.0711(3) 1.0215(3) 0.1195(3)
O2M O -0.1195(3) 1.0711(3) -0.0215(3)
O2VC O -0.0215(3) 1.0711(3) -0.1195(3)
O2ED O 0.1195(3) 0.9289(3) 0.0215(3)
O2D O 0.0215(3) 0.9289(3) 0.1195(3)
O2ZC O -0.1195(3) 0.9785(3) 0.0711(3)
O2OD O 0.0215(3) 1.1195(3) -0.0711(3)
O3JD O 0.0159(3) 1.0901(3) 0.0585(4)
O3M O -0.0585(3) 0.9841(3) -0.0901(4)
O3VC O -0.0901(3) 0.9841(3) -0.0585(4)
O3ED O 0.0585(3) 1.0159(3) 0.0901(4)
O3D O 0.0901(3) 1.0159(3) 0.0585(4)
O3H O 0.0585(3) 1.0901(3) 0.0159(4)
O3RC O -0.0159(3) 0.9415(3) -0.0901(4)
O4KE O -0.26137(17) 1.10572(19) -0.08872(19)
O4M O -0.10572(17) 1.16128(19) -0.01137(19)
O4XE O -0.10572(17) 1.26137(19) 0.08872(19)
O4ZE O -0.35572(17) 0.91128(19) 0.01137(19)
O4CC O -0.35572(17) 1.01137(19) -0.08872(19)
O4JD O -0.16128(17) 1.01137(19) 0.10572(19)
O4ZC O -0.10572(17) 0.98863(19) 0.16128(19)
O4VC O -0.01137(17) 1.16128(19) -0.10572(19)
O4OD O 0.01137(17) 1.10572(19) -0.16128(19)
O5KE O -0.22403(19) 1.12651(18) -0.09459(17)
O5M O -0.12651(19) 1.15541(18) 0.02597(17)
O5XE O -0.12651(19) 1.22403(18) 0.09459(17)
O5ZE O -0.37651(19) 0.90541(18) -0.02597(17)
O5CC O -0.37651(19) 0.97403(18) -0.09459(17)
O5JD O -0.15541(19) 0.97403(18) 0.12651(17)
O5ZC O -0.12651(19) 1.02597(18) 0.15541(17)
O5VC O 0.02597(19) 1.15541(18) -0.12651(17)
O5OD O -0.02597(19) 1.12651(18) -0.15541(17)
O6KE O -0.25322(17) 1.07789(17) 0.03444(17)
O6M O -0.07789(17) 1.28444(17) -0.00322(17)
O6XE O -0.07789(17) 1.25322(17) -0.03444(17)
O6ZE O -0.32789(17) 1.03444(17) 0.00322(17)
O6CC O -0.32789(17) 1.00322(17) 0.03444(17)
O6DA O -0.25322(17) 1.03444(17) 0.07789(17)
O6QD O -0.03444(17) 1.32789(17) -0.00322(17)
O7M O -0.05496(17) 1.30496(17) -0.05496(17)
O8JD O -0.36202(15) 1.03935(17) 0.06984(18)
O8XB O -0.46065(15) 1.13798(17) 0.06984(18)
O8YF O -0.43016(15) 1.13798(17) 0.03935(18)
O8DB O -0.43016(15) 1.03935(17) 0.13798(18)
O8KF O -0.46065(15) 1.06984(17) 0.13798(18)
O8ZE O -0.31984(15) 1.11202(17) 0.03935(18)
O8KE O -0.28935(15) 1.06984(17) 0.11202(18)
O8DA O -0.28935(15) 1.11202(17) 0.06984(18)
O8M O -0.06984(15) 1.36202(17) -0.03935(18)
O8QD O -0.11202(15) 1.31984(17) -0.03935(18)
O9M O -0.0744(3) 0.9256(3) -0.0744(3)
C1JD C -0.0830(5) 1.0353(3) 0.1027(4)
C1M C -0.1027(5) 1.0830(3) -0.0353(4)
C1VC C -0.0353(5) 1.0830(3) -0.1027(4)
C1ED C 0.1027(5) 0.9170(3) 0.0353(4)
C1D C 0.0353(5) 0.9170(3) 0.1027(4)
C2M C -0.0707(5) 1.0804(4) -0.0707(4)
C2D C 0.0707(5) 0.9196(4) 0.0707(4)
C3JD C -0.0664(4) 1.0534(3) 0.0870(3)
C3M C -0.0870(4) 1.0664(3) -0.0534(3)
C3VC C -0.0534(4) 1.0664(3) -0.0870(3)
C3ED C 0.0870(4) 0.9336(3) 0.0534(3)
C3D C 0.0534(4) 0.9336(3) 0.0870(3)
C4JD C -0.0387(3) 1.0558(3) 0.0879(4)
C4M C -0.0879(3) 1.0387(3) -0.0558(4)
C4VC C -0.0558(3) 1.0387(3) -0.0879(4)
C4ED C 0.0879(3) 0.9613(3) 0.0558(4)
C4D C 0.0558(3) 0.9613(3) 0.0879(4)
C5M C -0.0726(6) 1.0249(4) -0.0726(4)
C5D C 0.0726(6) 0.9751(4) 0.0726(4)
C6M C -0.0706(5) 0.9969(5) -0.0706(5)
C6D C 0.0706(5) 1.0031(5) 0.0706(5)
C7KE C -0.2398(3) 1.1147(3) -0.0799(3)
C7M C -0.1147(3) 1.1701(3) 0.0102(3)
C7XE C -0.1147(3) 1.2398(3) 0.0799(3)
C7ZE C -0.3647(3) 0.9201(3) -0.0102(3)
C7CC C -0.3647(3) 0.9898(3) -0.0799(3)
C8M C -0.1142(2) 1.2068(4) 0.0432(2)
C8CC C -0.3642(2) 0.9568(4) -0.0432(2)
C9KE C -0.2318(2) 1.1101(2) -0.0514(2)
C9M C -0.1101(2) 1.1986(2) 0.0182(2)
C9XE C -0.1101(2) 1.2318(2) 0.0514(2)
C9ZE C -0.3601(2) 0.9486(2) -0.0182(2)
C9CC C -0.3601(2) 0.9818(2) -0.0514(2)
C10KE C -0.2501(2) 1.0981(2) -0.0338(2)
C10M C -0.0981(2) 1.2162(2) -0.0001(2)
C10XE C -0.0981(2) 1.2501(2) 0.0338(2)
C10ZE C -0.3481(2) 0.9662(2) 0.0001(2)
C10CC C -0.3481(2) 1.0001(2) -0.0338(2)
C11M C -0.0929(2) 1.2412(3) 0.0088(2)
C11CC C -0.3429(2) 0.9912(3) -0.0088(2)
C12M C -0.0805(2) 1.2614(3) -0.0114(2)
C12CC C -0.3305(2) 1.0114(3) 0.0114(2)
C13XB C -0.4413(3) 1.1284(2) 0.0587(2)
C13DB C -0.4413(3) 1.0587(2) 0.1284(2)
C14XB C -0.4309(3) 1.1040(2) 0.0691(2)
C14DB C -0.4309(3) 1.0691(2) 0.1040(2)
C15XB C -0.4411(2) 1.0927(2) 0.0927(3)
C15DB C -0.4073(2) 1.0589(2) 0.0927(3)
O10DA O -0.23390(14) 1.08958(14) 0.08958(20)
O10M O -0.08958(14) 1.33958(14) 0.0161(2)
O12H O 0.0422(4) 1.1429(4) 0.0422(6)
O12M O -0.0422(4) 0.9578(4) -0.1429(6)
O13ED O 0.0897(3) 1.0491(3) 0.1278(3)
O13JD O 0.0491(3) 1.1278(3) 0.0897(3)
O13H O 0.0897(3) 1.1278(3) 0.0491(3)
O13M O -0.0897(3) 0.9509(3) -0.1278(3)
O13RC O -0.0491(3) 0.9103(3) -0.1278(3)
#END
