
#######################################################################
#
#                 Cambridge Crystallographic Data Centre
#                                CCDC
#
#######################################################################
#
# If this CIF has been generated from an entry in the Cambridge
# Structural Database, then it will include bibliographic, chemical,
# crystal, experimental, refinement or atomic coordinate data resulting
# from the CCDC's data processing and validation procedures.
#
#######################################################################

data_CSD_CIF_HAPNAP
_audit_creation_date 2012-06-19
_audit_creation_method CSD-ConQuest-V1
_database_code_CSD HAPNAP
_database_code_depnum_ccdc_archive 'CCDC 878754'
_chemical_formula_sum 'C72 H124 Cd4 In16 N20 S31'
_chemical_formula_moiety
;
(C23 H33 Cd4 In16 N6 S31 7-)n,7n(C7 H13 N2 1+)
;
_journal_coden_Cambridge 4
_journal_volume 134
_journal_year 2012
_journal_page_first 3619
_journal_name_full 'J.Am.Chem.Soc. '
loop_
_publ_author_name
"Tao Wu"
"Xianhui Bu"
"Puhong Liao"
"Le Wang"
"Shou-Tian Zheng"
"R.Ma"
"Pingyun Feng"
_chemical_name_systematic
;
catena-(heptakis(2,3,4,6,7,8-Hexahydropyrrolo[1,2-a]pyrimidinium) 
(\m~4~-sulfido)-dodecakis(\m~3~-sulfido)-octadecakis(\m~2~-sulfido)-(\m~2~-5,6
-dimethylbenzimidazolato)-bis(2,3,4,6,7,8-hexahydropyrrolo[1,2-a]pyrimidine)-t
etra-cadmium-hexadeca-indium unknown solvate)
;
_cell_volume   6725.414
_exptl_crystal_colour 'pale yellow'
_exptl_special_details
;
The exact composition of the charge balancing cations is unclear in the paper

;
_exptl_crystal_description 'block'
_diffrn_ambient_temperature 150
_refine_special_details
;
The solvent molecules are disordered and were not modelled.

;
#These two values have been output from a single CSD field.
_refine_ls_R_factor_gt 0.0973
_refine_ls_wR_factor_gt 0.0973
_symmetry_cell_setting triclinic
_symmetry_space_group_name_H-M 'P -1'
_symmetry_Int_Tables_number 2
loop_
_symmetry_equiv_pos_site_id
_symmetry_equiv_pos_as_xyz
1 x,y,z
2 -x,-y,-z
_cell_length_a 17.5175(5)
_cell_length_b 17.6943(5)
_cell_length_c 23.4522(7)
_cell_angle_alpha 106.526(2)
_cell_angle_beta 99.634(2)
_cell_angle_gamma 98.379(2)
_cell_formula_units_Z 2
loop_
_atom_type_symbol
_atom_type_radius_bond
C 0.68
H 0.23
Cd 1.44
In 1.42
N 0.68
S 1.02
loop_
_atom_site_label
_atom_site_type_symbol
_atom_site_fract_x
_atom_site_fract_y
_atom_site_fract_z
Cd1 Cd 0.65976(9) 0.10551(10) 0.35392(8)
Cd2 Cd 0.79680(9) 0.29089(9) 0.32897(7)
Cd3 Cd 0.63215(9) 0.13819(9) 0.18822(8)
Cd4 Cd 0.57156(8) 0.29239(8) 0.32544(7)
In1 In 0.93537(8) -0.03530(8) 0.21946(7)
In2 In 0.88769(7) 0.10582(8) 0.35621(6)
In3 In 0.71960(7) -0.04763(8) 0.21601(6)
In4 In 0.85840(7) 0.14064(8) 0.19103(6)
In5 In 0.82695(7) 0.25649(8) 0.49165(6)
In6 In 0.49334(7) -0.04468(8) 0.21531(6)
In7 In 0.77662(8) 0.32577(8) 0.16883(6)
In8 In 0.76107(9) 0.40166(9) 0.61403(7)
In9 In 0.59807(7) 0.25823(8) 0.48993(6)
In10 In 0.43231(7) 0.11350(8) 0.35217(6)
In11 In 0.28462(7) -0.02950(8) 0.21556(7)
In12 In 0.73538(8) 0.44629(8) 0.46542(7)
In13 In 0.40386(7) 0.14168(8) 0.18435(6)
In14 In 0.70949(8) 0.47996(8) 0.30534(7)
In15 In 0.54327(8) 0.32454(8) 0.16198(6)
In16 In 0.68507(9) 0.49458(8) 0.14714(7)
S1 S 0.9826(3) 0.0188(3) 0.3289(3)
S2 S 0.8118(3) -0.1343(3) 0.1824(3)
S3 S 0.9556(3) 0.0591(3) 0.1639(3)
S4 S 0.9237(3) 0.1746(3) 0.4654(2)
S5 S 0.7555(3) 0.0154(3) 0.3284(2)
S6 S 0.5872(3) -0.1307(3) 0.1904(3)
S7 S 0.8972(3) 0.2082(3) 0.3026(2)
S8 S 0.7259(3) 0.0488(3) 0.1573(2)
S9 S 0.8696(3) 0.2412(3) 0.1398(2)
S10 S 0.8652(3) 0.3248(3) 0.6006(3)
S11 S 0.6932(3) 0.1692(3) 0.4651(2)
S12 S 0.5243(3) 0.0212(3) 0.3278(2)
S13 S 0.3622(3) -0.1313(3) 0.1884(3)
S14 S 0.8331(3) 0.3616(3) 0.4401(2)
S15 S 0.6652(3) 0.2043(3) 0.2989(2)
S16 S 0.4980(2) 0.0527(3) 0.1570(2)
S17 S 0.8108(3) 0.3977(3) 0.2805(2)
S18 S 0.6411(3) 0.2402(3) 0.1347(2)
S19 S 0.4633(3) 0.1816(3) 0.4617(2)
S20 S 0.2973(3) 0.0378(3) 0.3230(3)
S21 S 0.6016(3) 0.3613(3) 0.4367(2)
S22 S 0.4332(3) 0.2144(3) 0.2969(2)
S23 S 0.2713(3) 0.0578(3) 0.1530(3)
S24 S 0.7403(3) 0.5483(3) 0.4140(2)
S25 S 0.5726(3) 0.3978(3) 0.2742(2)
S26 S 0.4117(3) 0.2383(3) 0.1286(3)
S27 S 0.7137(3) 0.5807(3) 0.2538(2)
S28 S 0.6292(3) 0.3260(3) 0.6006(3)
S29 S 0.5480(3) 0.4227(3) 0.1071(3)
S30 S 0.7902(3) 0.4270(3) 0.1171(3)
S31 S 0.7669(3) 0.5143(3) 0.5745(3)
N1 N 0.1601(9) -0.0945(8) 0.1973(6)
N2 N 0.0293(7) -0.0982(9) 0.1934(6)
C1 C 0.1058(11) -0.0572(10) 0.2154(8)
H1 H 0.11870 -0.00370 0.24270
C2 C 0.0351(9) -0.1703(10) 0.1564(8)
C3 C -0.0246(11) -0.230(1) 0.1145(10)
H2 H -0.07900 -0.22800 0.11130
C4 C 0.0001(14) -0.2907(14) 0.0789(12)
C5 C 0.0810(13) -0.2946(14) 0.0786(12)
C6 C 0.1389(11) -0.2323(10) 0.1147(8)
H3 H 0.19310 -0.23140 0.11440
C7 C 0.1142(12) -0.1711(10) 0.1515(12)
C8 C -0.0588(15) -0.3626(16) 0.0303(14)
H4 H -0.05030 -0.41280 0.03770
H5 H -0.05060 -0.36420 -0.01030
H6 H -0.11310 -0.35640 0.03250
C9 C 0.093(2) -0.360(2) 0.0211(17)
H7 H 0.05690 -0.35890 -0.01540
H8 H 0.08160 -0.41300 0.02610
H9 H 0.14770 -0.34760 0.01690
N3 N 0.68407(13) 0.58344(8) 0.09789(5)
N4 N 0.66507(10) 0.61290(6) 0.00629(4)
C10 C 0.66529(10) 0.66113(8) 0.12807(7)
H10 H 0.63950 0.65680 0.16180
H11 H 0.71450 0.70290 0.14540
C11 C 0.61277(10) 0.68355(12) 0.08380(5)
H12 H 0.56180 0.64430 0.07090
H13 H 0.60210 0.73680 0.10450
C12 C 0.63976(10) 0.68789(8) 0.02942(6)
H14 H 0.59630 0.69350 -0.00110
H15 H 0.68430 0.73430 0.03940
C13 C 0.66821(19) 0.58779(6) -0.05758(5)
H16 H 0.71520 0.61760 -0.06590
H17 H 0.61940 0.59000 -0.08470
C14 C 0.6748(2) 0.50420(7) -0.05928(6)
H18 H 0.70880 0.48490 -0.08780
H19 H 0.62160 0.46910 -0.07600
C15 C 0.70807(11) 0.49456(9) 0.00158(5)
H20 H 0.68240 0.44340 0.00580
H21 H 0.76610 0.49920 0.00930
C16 C 0.68447(13) 0.56636(7) 0.04091(4)
N5 N 0.80118(7) 0.44559(8) 0.71818(8)
N6 N 0.90918(6) 0.51473(8) 0.80122(4)
C17 C 0.75754(9) 0.38668(10) 0.74045(6)
H22 H 0.70860 0.40230 0.75150
H23 H 0.74460 0.33170 0.71070
C18 C 0.81755(11) 0.39408(9) 0.79356(8)
H24 H 0.79050 0.36950 0.81980
H25 H 0.85440 0.35940 0.77890
C19 C 0.86614(11) 0.47052(9) 0.83320(7)
H26 H 0.83190 0.50400 0.85380
H27 H 0.90440 0.46060 0.86510
C20 C 0.98360(9) 0.5726(1) 0.82378(5)
H28 H 1.02800 0.54810 0.83680
H29 H 0.98090 0.61990 0.85770
C21 C 0.98911(10) 0.59329(14) 0.76709(5)
H30 H 1.03910 0.58260 0.75530
H31 H 0.98930 0.65130 0.77460
C22 C 0.91953(8) 0.54357(11) 0.71596(6)
H32 H 0.89000 0.57900 0.69930
H33 H 0.93800 0.50780 0.68260
C23 C 0.86787(7) 0.49483(11) 0.74320(5)
N7 N 0.9120(2) 0.72122(7) 0.36995(6)
N8 N 0.89351(11) 0.71085(6) 0.26274(4)
C24 C 0.92375(13) 0.80816(7) 0.40064(7)
H34 H 0.90140 0.82280 0.43740
H35 H 0.97870 0.83820 0.40820
C25 C 0.87236(16) 0.8076(2) 0.34515(4)
H36 H 0.82150 0.77610 0.34640
H37 H 0.86510 0.86400 0.35560
C26 C 0.86835(14) 0.78693(9) 0.28014(5)
H38 H 0.81360 0.78160 0.25780
H39 H 0.90370 0.82890 0.27110
C27 C 0.89233(10) 0.67587(9) 0.19864(5)
H40 H 0.92080 0.71240 0.18050
H41 H 0.83940 0.64780 0.17270
C28 C 0.94013(12) 0.62290(9) 0.22115(5)
H42 H 0.99630 0.64400 0.22300
H43 H 0.92500 0.56880 0.19010
C29 C 0.93489(12) 0.61222(7) 0.28232(5)
H44 H 0.89350 0.56520 0.27800
H45 H 0.98620 0.60660 0.30410
C30 C 0.91311(14) 0.69003(8) 0.31355(4)
In1* In -0.06463(8) -0.03530(8) 0.21946(7)
N2* N 1.0293(7) -0.0982(9) 0.1934(6)
#END
