
#######################################################################
#
#                 Cambridge Crystallographic Data Centre
#                                CCDC
#
#######################################################################
#
# If this CIF has been generated from an entry in the Cambridge
# Structural Database, then it will include bibliographic, chemical,
# crystal, experimental, refinement or atomic coordinate data resulting
# from the CCDC's data processing and validation procedures.
#
#######################################################################

data_CSD_CIF_HAQRID
_audit_creation_date 2017-05-12
_audit_creation_method CSD-ConQuest-V1
_database_code_CSD HAQRID
_database_code_depnum_ccdc_archive 'CCDC 1521695'
_chemical_formula_sum 'C68.5 H79.5 N7.5 O33 Zn5'
_chemical_formula_moiety
;
(C48 H18 O24 Zn5 2-)n,2(C2 H8 N1 1+),5.5(C3 H7 N1 O1),3.5(H2 O1)
;
_journal_coden_Cambridge 9
_journal_volume 56
_journal_year 2017
_journal_page_first 4263
_journal_name_full 'Inorg.Chem. '
loop_
_publ_author_name
"Bo Liu"
"Rui Zhang"
"Chun-Yang Pan"
"Hai-Long Jiang"
_chemical_name_systematic
;
catena-[bis(dimethylammonium) 
tris(\m-biphenyl-3,3',5,5'-tetracarboxylato)-penta-zinc(ii) 
N,N-dimethylformamide solvate hydrate]
;
_cell_volume   8574.872
_exptl_crystal_colour 'colorless'
_exptl_crystal_density_diffrn 1.083
_exptl_crystal_description 'block'
_diffrn_ambient_temperature 296
_refine_special_details
;
The SQUEEZE/PLATON program has been used to model some disorder.

;
#These two values have been output from a single CSD field.
_refine_ls_R_factor_gt 0.0603
_refine_ls_wR_factor_gt 0.0603
_symmetry_cell_setting monoclinic
_symmetry_space_group_name_H-M 'C 2/c'
_symmetry_Int_Tables_number 15
loop_
_symmetry_equiv_pos_site_id
_symmetry_equiv_pos_as_xyz
1 x,y,z
2 -x,y,1/2-z
3 1/2+x,1/2+y,z
4 1/2-x,1/2+y,1/2-z
5 -x,-y,-z
6 x,-y,-1/2+z
7 -1/2-x,-1/2-y,-z
8 -1/2+x,-1/2-y,-1/2+z
_cell_length_a 12.3215(10)
_cell_length_b 30.711(3)
_cell_length_c 22.7224(18)
_cell_angle_alpha 90
_cell_angle_beta 94.229(2)
_cell_angle_gamma 90
_cell_formula_units_Z 4
loop_
_atom_type_symbol
_atom_type_radius_bond
C 0.68
H 0.23
N 0.68
O 0.68
Zn 1.22
loop_
_atom_site_label
_atom_site_type_symbol
_atom_site_fract_x
_atom_site_fract_y
_atom_site_fract_z
Zn1 Zn 0.74016(4) 0.917167(16) 0.661016(18)
Zn2 Zn 0.80535(4) 0.630815(15) 0.487920(17)
Zn3 Zn 1.00000 0.9484(2) 0.75000
O1 O 0.4477(2) 1.10650(11) 0.47561(12)
O2 O 0.4014(3) 1.09769(14) 0.38137(15)
O3 O 0.6748(3) 1.08083(13) 0.23754(13)
O4 O 0.8417(4) 1.0769(2) 0.26643(17)
O5 O 1.1742(2) 1.09824(12) 0.49172(14)
O6 O 1.2234(3) 1.06107(16) 0.57188(19)
O7 O 0.9449(3) 0.96293(14) 0.65541(17)
O8 O 0.7743(3) 0.9700(1) 0.62153(13)
O9 O 0.8208(3) 0.86344(9) 0.65315(13)
O10 O 0.7430(3) 0.82754(10) 0.57606(12)
O11 O 0.8280(3) 0.67482(10) 0.54896(13)
O12 O 0.9300(5) 0.63838(12) 0.61442(19)
C1 C 0.4707(3) 1.09827(14) 0.42388(17)
C2 C 0.5848(3) 1.08911(14) 0.41131(16)
C3 C 0.6646(3) 1.08117(14) 0.45614(17)
H1 H 0.64700 1.08290 0.49520
C4 C 0.7713(3) 1.07058(14) 0.44395(17)
C5 C 0.7957(4) 1.07015(16) 0.38570(18)
H2 H 0.86670 1.06420 0.37680
C6 C 0.7176(4) 1.07829(16) 0.34022(17)
C7 C 0.6122(4) 1.08742(16) 0.35279(17)
H3 H 0.55930 1.09250 0.32220
C8 C 0.7484(5) 1.0777(2) 0.2772(2)
C9 C 0.8536(3) 1.05767(14) 0.49202(16)
C10 C 0.8254(3) 1.02917(14) 0.53570(16)
H4 H 0.75380 1.01980 0.53650
C11 C 0.9035(3) 1.01454(14) 0.57828(16)
C12 C 0.8739(4) 0.98005(15) 0.62243(18)
C13 C 1.0093(3) 1.02876(14) 0.57787(17)
H5 H 1.06110 1.01910 0.60680
C14 C 1.0399(3) 1.05755(15) 0.53462(17)
C15 C 0.9609(4) 1.07168(14) 0.49139(18)
H6 H 0.98030 1.09060 0.46200
C16 C 1.1550(4) 1.07303(16) 0.5331(2)
C17 C 0.8027(3) 0.82992(13) 0.62321(16)
C18 C 0.8539(4) 0.78835(14) 0.64536(16)
C19 C 0.9157(4) 0.78774(14) 0.70020(17)
H7 H 0.92210 0.81300 0.72270
C20 C 0.9668(4) 0.75017(14) 0.72087(17)
C21 C 0.9550(4) 0.71275(14) 0.68722(17)
H8 H 0.98850 0.68720 0.70080
C22 C 0.8935(4) 0.71278(14) 0.63316(17)
C23 C 0.8440(4) 0.75038(14) 0.61316(16)
H9 H 0.80280 0.75030 0.57720
C24 C 0.8832(4) 0.67132(16) 0.59678(19)
N1 N 0.9493(8) 0.5524(3) 0.6139(4)
H10 H 1.00840 0.56940 0.62060
H11 H 0.89540 0.57000 0.59930
C25 C 0.9713(9) 0.5255(4) 0.5697(4)
H12 H 1.04440 0.51480 0.57630
H13 H 0.96400 0.54100 0.53290
H14 H 0.92130 0.50150 0.56830
C26 C 0.9235(14) 0.5405(6) 0.6627(7)
H15 H 0.84790 0.53260 0.66010
H16 H 0.93580 0.56370 0.69060
H17 H 0.96680 0.51570 0.67540
O9A O 1.1792(3) 0.86344(9) 0.84685(13)
O10A O 1.2570(3) 0.82754(10) 0.92394(12)
O11A O 1.1720(3) 0.67482(10) 0.95104(13)
O12A O 1.0700(5) 0.63838(12) 0.88558(19)
C17A C 1.1973(3) 0.82992(13) 0.87679(16)
C18A C 1.1461(4) 0.78835(14) 0.85464(16)
C19A C 1.0843(4) 0.78774(14) 0.79980(17)
H7A H 1.07790 0.81300 0.77730
C20A C 1.0332(4) 0.75017(14) 0.77913(17)
C21A C 1.0450(4) 0.71275(14) 0.81278(17)
H8A H 1.01150 0.68720 0.79920
C22A C 1.1065(4) 0.71278(14) 0.86684(17)
C23A C 1.1560(4) 0.75038(14) 0.88684(16)
H9A H 1.19720 0.75030 0.92280
C24A C 1.1168(4) 0.67132(16) 0.90322(19)
Zn1A Zn 1.25984(4) 0.917167(16) 0.838984(18)
Zn2A Zn 1.19465(4) 0.630815(15) 1.012080(17)
O1A O 1.5523(2) 1.10650(11) 1.02439(12)
O2A O 1.5986(3) 1.09769(14) 1.11863(15)
O3A O 1.3252(3) 1.08083(13) 1.26246(13)
O4A O 1.1583(4) 1.0769(2) 1.23357(17)
O5A O 0.8258(2) 1.09824(12) 1.00828(14)
O6A O 0.7766(3) 1.06107(16) 0.92812(19)
O7A O 1.0551(3) 0.96293(14) 0.84459(17)
O8A O 1.2257(3) 0.9700(1) 0.87847(13)
C1A C 1.5293(3) 1.09827(14) 1.07612(17)
C2A C 1.4152(3) 1.08911(14) 1.08869(16)
C3A C 1.3354(3) 1.08117(14) 1.04386(17)
H1A H 1.35300 1.08290 1.00480
C4A C 1.2287(3) 1.07058(14) 1.05605(17)
C5A C 1.2043(4) 1.07015(16) 1.11430(18)
H2A H 1.13330 1.06420 1.12320
C6A C 1.2824(4) 1.07829(16) 1.15978(17)
C7A C 1.3878(4) 1.08742(16) 1.14721(17)
H3A H 1.44070 1.09250 1.17780
C8A C 1.2516(5) 1.0777(2) 1.2228(2)
C9A C 1.1464(3) 1.05767(14) 1.00798(16)
C10A C 1.1746(3) 1.02917(14) 0.96430(16)
H4A H 1.24620 1.01980 0.96350
C11A C 1.0965(3) 1.01454(14) 0.92172(16)
C12A C 1.1261(4) 0.98005(15) 0.87757(18)
C13A C 0.9907(3) 1.02876(14) 0.92213(17)
H5A H 0.93890 1.01910 0.89320
C14A C 0.9601(3) 1.05755(15) 0.96538(17)
C15A C 1.0391(4) 1.07168(14) 1.00861(18)
H6A H 1.01970 1.09060 1.03800
C16A C 0.8450(4) 1.07303(16) 0.9669(2)
Zn1D Zn 0.25984(4) 1.082833(16) 0.338984(18)
Zn1D* Zn 1.25984(4) 1.082833(16) 1.338984(18)
Zn1E Zn 0.74016(4) 1.082833(16) 0.161016(18)
Zn1E* Zn 1.74016(4) 1.082833(16) 1.161016(18)
Zn2B Zn 0.30535(4) 1.130815(15) 0.487920(17)
Zn2B* Zn 1.30535(4) 1.130815(15) 0.487920(17)
Zn2C Zn 0.69465(4) 1.130815(15) 1.012080(17)
Zn2C* Zn 1.69465(4) 1.130815(15) 1.012080(17)
Zn2F Zn 0.69465(4) 0.869185(15) 0.512080(17)
Zn2G Zn 1.30535(4) 0.869185(15) 0.987920(17)
Zn3D Zn 1.00000 1.0516(2) 0.25000
Zn3D* Zn 1.00000 1.0516(2) 1.25000
O1B O 0.9477(2) 0.60650(11) 0.47561(12)
O1C O 1.0523(2) 0.60650(11) 1.02439(12)
O2D O 0.5986(3) 0.90231(14) 0.61863(15)
O2E O 1.4014(3) 0.90231(14) 0.88137(15)
O3D O 1.3252(3) 0.91917(13) 0.76246(13)
O3E O 0.6748(3) 0.91917(13) 0.73754(13)
O4D O 1.1583(4) 0.9231(2) 0.73357(17)
O4E O 0.8417(4) 0.9231(2) 0.76643(17)
O5B O 0.6742(2) 0.59824(12) 0.49172(14)
O5C O 1.3258(2) 0.59824(12) 1.00828(14)
O10F O 0.7570(3) 0.67246(10) 0.42394(12)
O10G O 1.2430(3) 0.67246(10) 1.07606(12)
#END
