
#######################################################################
#
#                 Cambridge Crystallographic Data Centre
#                                CCDC
#
#######################################################################
#
# If this CIF has been generated from an entry in the Cambridge
# Structural Database, then it will include bibliographic, chemical,
# crystal, experimental, refinement or atomic coordinate data resulting
# from the CCDC's data processing and validation procedures.
#
#######################################################################

data_CSD_CIF_HAQROJ
_audit_creation_date 2017-05-12
_audit_creation_method CSD-ConQuest-V1
_database_code_CSD HAQROJ
_database_code_depnum_ccdc_archive 'CCDC 1521696'
_chemical_formula_sum 'C54 H48 Li2 O32 Zn4'
_chemical_formula_moiety
;
(C48 H18 Li1 O24 Zn4 3-)n,Li1 1+,2(H3 O1 1+),6(C1 H4 O1)
;
_journal_coden_Cambridge 9
_journal_volume 56
_journal_year 2017
_journal_page_first 4263
_journal_name_full 'Inorg.Chem. '
loop_
_publ_author_name
"Bo Liu"
"Rui Zhang"
"Chun-Yang Pan"
"Hai-Long Jiang"
_chemical_name_systematic
;
catena-[lithium bis(oxonium) 
tris(\m-biphenyl-3,3',5,5'-tetracarboxylato)-lithium-tetra-zinc methanol 
solvate]
;
_cell_volume   8478.198
_exptl_crystal_colour 'colorless'
_exptl_crystal_density_diffrn 0.977
_exptl_crystal_description 'block'
_diffrn_ambient_temperature 296
_refine_special_details
;
Disordered cation and solvent molecules were not modelled and the disordered 
density was taken into account using the SQUEEZE/PLATON procedure.
;
#These two values have been output from a single CSD field.
_refine_ls_R_factor_gt 0.0562
_refine_ls_wR_factor_gt 0.0562
_symmetry_cell_setting monoclinic
_symmetry_space_group_name_H-M 'C 2/c'
_symmetry_Int_Tables_number 15
loop_
_symmetry_equiv_pos_site_id
_symmetry_equiv_pos_as_xyz
1 x,y,z
2 -x,y,1/2-z
3 1/2+x,1/2+y,z
4 1/2-x,1/2+y,1/2-z
5 -x,-y,-z
6 x,-y,-1/2+z
7 -1/2-x,-1/2-y,-z
8 -1/2+x,-1/2-y,-1/2+z
_cell_length_a 12.260(6)
_cell_length_b 30.207(15)
_cell_length_c 22.980(11)
_cell_angle_alpha 90
_cell_angle_beta 94.983(10)
_cell_angle_gamma 90
_cell_formula_units_Z 4
loop_
_atom_type_symbol
_atom_type_radius_bond
C 0.68
H 0.23
Li 1.28
O 0.68
Zn 1.22
loop_
_atom_site_label
_atom_site_type_symbol
_atom_site_fract_x
_atom_site_fract_y
_atom_site_fract_z
Li1 Li 1.00000 0.5546(5) 0.25000
Zn1 Zn 0.25964(5) 0.581487(19) 0.33833(2)
Zn2 Zn 0.31666(5) 0.629923(19) 0.48519(2)
O1 O 0.4580(3) 0.60313(13) 0.46955(14)
O2 O 0.4110(3) 0.59016(14) 0.37542(16)
O3 O 0.8671(3) 0.58201(13) 0.27184(14)
O4 O 0.6905(3) 0.57578(12) 0.24037(13)
O5 O 1.1902(3) 0.59433(13) 0.49117(16)
O6 O 1.2391(3) 0.56423(18) 0.5773(2)
O7 O 0.9550(3) 0.47904(15) 0.67660(17)
O8 O 0.7885(3) 0.47186(12) 0.62890(15)
O9 O 0.2626(3) 0.67227(11) 0.42315(13)
O10 O 0.1785(3) 0.63505(12) 0.34767(15)
O11 O 0.1563(3) 0.82536(12) 0.45480(13)
O12 O 0.0760(4) 0.86573(13) 0.38338(18)
C1 C 0.4797(4) 0.59222(17) 0.4190(2)
C2 C 0.5957(4) 0.58427(17) 0.40974(19)
C3 C 0.6254(4) 0.58508(16) 0.35284(19)
H1 H 0.57340 0.59090 0.32190
C4 C 0.7363(4) 0.57685(17) 0.34259(18)
C5 C 0.8134(4) 0.56883(17) 0.38899(19)
H2 H 0.88620 0.56420 0.38210
C6 C 0.7823(4) 0.56757(16) 0.44639(18)
C7 C 0.6742(4) 0.57598(16) 0.45562(19)
H3 H 0.65360 0.57610 0.49360
C8 C 0.7686(4) 0.57847(17) 0.2810(2)
C9 C 0.8668(4) 0.55630(16) 0.49562(19)
C10 C 0.9737(4) 0.56933(17) 0.4948(2)
H4 H 0.99440 0.58590 0.46350
C11 C 1.0517(4) 0.55835(16) 0.5399(2)
C12 C 1.0241(4) 0.53234(17) 0.5863(2)
H5 H 1.07660 0.52460 0.61620
C13 C 0.9177(4) 0.51833(16) 0.58707(19)
C14 C 0.8380(4) 0.52990(16) 0.54190(18)
H6 H 0.76630 0.52000 0.54280
C15 C 1.1716(4) 0.57300(19) 0.5362(2)
C16 C 0.8852(5) 0.48705(18) 0.6346(2)
C17 C 0.1984(4) 0.66943(18) 0.3771(2)
C18 C 0.1456(5) 0.71149(17) 0.3553(2)
C19 C 0.1521(5) 0.74944(17) 0.38875(19)
H7 H 0.19010 0.74900 0.42560
C20 C 0.1028(5) 0.78820(17) 0.3680(2)
C21 C 0.0426(5) 0.78836(18) 0.3131(2)
H8 H 0.00880 0.81430 0.29940
C22 C 0.0327(5) 0.75031(17) 0.27893(19)
C23 C 0.0845(5) 0.71208(17) 0.3003(2)
H9 H 0.07890 0.68630 0.27800
C24 C 0.1105(5) 0.83033(19) 0.4042(2)
O9A O -0.2626(3) 0.67227(11) 0.07685(13)
O10A O -0.1785(3) 0.63505(12) 0.15233(15)
O11A O -0.1563(3) 0.82536(12) 0.04520(13)
O12A O -0.0760(4) 0.86573(13) 0.11662(18)
C17A C -0.1984(4) 0.66943(18) 0.1229(2)
C18A C -0.1456(5) 0.71149(17) 0.1447(2)
C19A C -0.1521(5) 0.74944(17) 0.11125(19)
H7A H -0.19010 0.74900 0.07440
C20A C -0.1028(5) 0.78820(17) 0.1320(2)
C21A C -0.0426(5) 0.78836(18) 0.1869(2)
H8A H -0.00880 0.81430 0.20060
C22A C -0.0327(5) 0.75031(17) 0.22107(19)
C23A C -0.0845(5) 0.71208(17) 0.1997(2)
H9A H -0.07890 0.68630 0.22200
C24A C -0.1105(5) 0.83033(19) 0.0958(2)
Zn1A Zn -0.25964(5) 0.581487(19) 0.16167(2)
Zn2A Zn -0.31666(5) 0.629923(19) 0.01481(2)
O1A O -0.4580(3) 0.60313(13) 0.03045(14)
O2A O -0.4110(3) 0.59016(14) 0.12458(16)
O3A O -0.8671(3) 0.58201(13) 0.22816(14)
O4A O -0.6905(3) 0.57578(12) 0.25963(13)
O5A O -1.1902(3) 0.59433(13) 0.00883(16)
O6A O -1.2391(3) 0.56423(18) -0.0773(2)
O7A O -0.9550(3) 0.47904(15) -0.17660(17)
O8A O -0.7885(3) 0.47186(12) -0.12890(15)
C1A C -0.4797(4) 0.59222(17) 0.0810(2)
C2A C -0.5957(4) 0.58427(17) 0.09026(19)
C3A C -0.6254(4) 0.58508(16) 0.14716(19)
H1A H -0.57340 0.59090 0.17810
C4A C -0.7363(4) 0.57685(17) 0.15741(18)
C5A C -0.8134(4) 0.56883(17) 0.11101(19)
H2A H -0.88620 0.56420 0.11790
C6A C -0.7823(4) 0.56757(16) 0.05361(18)
C7A C -0.6742(4) 0.57598(16) 0.04438(19)
H3A H -0.65360 0.57610 0.00640
C8A C -0.7686(4) 0.57847(17) 0.2190(2)
C9A C -0.8668(4) 0.55630(16) 0.00438(19)
C10A C -0.9737(4) 0.56933(17) 0.0052(2)
H4A H -0.99440 0.58590 0.03650
C11A C -1.0517(4) 0.55835(16) -0.0399(2)
C12A C -1.0241(4) 0.53234(17) -0.0863(2)
H5A H -1.07660 0.52460 -0.11620
C13A C -0.9177(4) 0.51833(16) -0.08707(19)
C14A C -0.8380(4) 0.52990(16) -0.04190(18)
H6A H -0.76630 0.52000 -0.04280
C15A C -1.1716(4) 0.57300(19) -0.0362(2)
C16A C -0.8852(5) 0.48705(18) -0.1346(2)
Li1* Li -1.00000 0.5546(5) 0.25000
Li1D Li -1.00000 0.4454(5) -0.25000
Li1D* Li 1.00000 0.4454(5) 0.75000
Zn1* Zn -0.74036(5) 0.581487(19) 0.33833(2)
Zn1A* Zn 0.74036(5) 0.581487(19) 0.16167(2)
Zn1D Zn 0.74036(5) 0.418513(19) 0.66167(2)
Zn1E Zn -0.74036(5) 0.418513(19) -0.16167(2)
Zn2* Zn 1.31666(5) 0.629923(19) 0.48519(2)
Zn2A* Zn -1.31666(5) 0.629923(19) 0.01481(2)
Zn2F Zn 0.18334(5) 0.870077(19) 0.51481(2)
Zn2G Zn -0.18334(5) 0.870077(19) -0.01481(2)
O3A* O 1.1329(3) 0.58201(13) 0.22816(14)
O4* O -0.3095(3) 0.57578(12) 0.24037(13)
O4A* O 0.3095(3) 0.57578(12) 0.25963(13)
O5* O 0.1902(3) 0.59433(13) 0.49117(16)
O5A* O -0.1902(3) 0.59433(13) 0.00883(16)
O7D O 1.0450(3) 0.52096(15) 0.32340(17)
O7E O 0.9550(3) 0.52096(15) 0.17660(17)
O8D O 0.2115(3) 0.52814(12) 0.37110(15)
O8E O -0.2115(3) 0.52814(12) 0.12890(15)
O11F O 0.3437(3) 0.67464(12) 0.54520(13)
O11G O -0.3437(3) 0.67464(12) -0.04520(13)
#END
