
#######################################################################
#
#                 Cambridge Crystallographic Data Centre
#                                CCDC
#
#######################################################################
#
# If this CIF has been generated from an entry in the Cambridge
# Structural Database, then it will include bibliographic, chemical,
# crystal, experimental, refinement or atomic coordinate data resulting
# from the CCDC's data processing and validation procedures.
#
#######################################################################

data_CSD_CIF_HASNOH
_audit_creation_date 2017-05-15
_audit_creation_method CSD-ConQuest-V1
_database_code_CSD HASNOH
_database_code_depnum_ccdc_archive 'CCDC 1520647'
_chemical_formula_sum 'C28 H36 N8 O40 Tb4'
_chemical_formula_moiety
;
(C16 H8 O36 Tb4 4-)n,4(C3 H5 N2 1+),4(H2 O1)
;
_journal_coden_Cambridge 1290
_journal_year 2017
_journal_page_first 2295
_journal_name_full 'Eur.J.Inorg.Chem. '
loop_
_publ_author_name
"Kangcai Wang"
"Xiujuan Qi"
"Zhi Wang"
"Ruihao Wang"
"Jie Sun"
"Qinghua Zhang"
_chemical_name_systematic
;
catena-[tetrakis(imidazolium) octakis(\m-oxalato)-tetra-aqua-tetra-terbium 
tetrahydrate]
;
_cell_volume   2452.493
_exptl_crystal_colour 'colorless'
_exptl_crystal_density_diffrn 2.384
_exptl_crystal_description 'block'
_diffrn_ambient_temperature 293
#These two values have been output from a single CSD field.
_refine_ls_R_factor_gt 0.0448
_refine_ls_wR_factor_gt 0.0448
_symmetry_cell_setting monoclinic
_symmetry_space_group_name_H-M 'P 21/n'
_symmetry_Int_Tables_number 14
loop_
_symmetry_equiv_pos_site_id
_symmetry_equiv_pos_as_xyz
1 x,y,z
2 1/2-x,1/2+y,1/2-z
3 -x,-y,-z
4 -1/2+x,-1/2-y,-1/2+z
_cell_length_a 9.79094(9)
_cell_length_b 17.29874(15)
_cell_length_c 14.59293(13)
_cell_angle_alpha 90
_cell_angle_beta 97.1322(8)
_cell_angle_gamma 90
_cell_formula_units_Z 2
loop_
_atom_type_symbol
_atom_type_radius_bond
C 0.68
H 0.23
N 0.68
O 0.68
Tb 1.94
loop_
_atom_site_label
_atom_site_type_symbol
_atom_site_fract_x
_atom_site_fract_y
_atom_site_fract_z
Tb1 Tb 0.50465(3) 0.378114(17) 0.34159(2)
Tb2 Tb 0.01903(3) 0.163578(16) 0.41219(2)
O1 O 0.3901(4) 0.5008(2) 0.2996(3)
O2 O 0.4188(4) 0.6171(2) 0.2369(3)
O3 O 0.6258(4) 0.4530(2) 0.2399(3)
O4 O 0.6370(4) 0.5638(2) 0.1636(3)
O5 O 0.2559(4) 0.3661(2) 0.3396(3)
O6 O 0.0884(4) 0.2920(2) 0.3822(3)
O7 O 0.4350(4) 0.2497(2) 0.3722(3)
O8 O 0.2637(4) 0.1736(2) 0.4074(3)
O9 O -0.1503(4) 0.2201(2) 0.2970(3)
O10 O -0.3322(4) 0.2997(3) 0.2729(3)
O11 O -0.1468(4) 0.2385(2) 0.4783(3)
O12 O -0.3170(4) 0.3262(2) 0.4533(3)
O13 O 0.4275(5) 0.4088(2) 0.4888(3)
O14 O 0.3741(4) 0.5095(2) 0.5739(3)
O15 O -0.0864(4) 0.0844(2) 0.5235(3)
O16 O -0.1287(4) -0.0379(2) 0.5587(3)
O17 O 0.4012(5) 0.3387(3) 0.1871(3)
H1 H 0.40490 0.37620 0.14900
H2 H 0.31670 0.32600 0.18850
O18 O 0.1310(5) 0.1949(3) 0.5643(3)
C1 C 0.4523(5) 0.5488(3) 0.2546(4)
C2 C 0.5828(5) 0.5185(3) 0.2166(4)
C3 C 0.2095(5) 0.3049(3) 0.3667(4)
C4 C 0.3129(6) 0.2356(3) 0.3836(4)
C5 C -0.2398(6) 0.2651(3) 0.3225(4)
C6 C -0.2329(5) 0.2774(3) 0.4280(4)
C7 C 0.4422(5) 0.4758(3) 0.5181(4)
C8 C -0.0617(5) 0.0134(3) 0.5242(3)
H3 H 0.107(9) 0.182(5) 0.615(3)
H4 H 0.191(15) 0.186(11) 0.529(11)
O19 O 0.1969(8) 0.2303(4) 0.1492(4)
H5 H 0.20420 0.22190 0.09260
H6 H 0.14530 0.19620 0.16890
C9 C 1.0006(10) 0.5523(6) 0.1221(6)
H7 H 1.00110 0.60610 0.12080
C10 C 1.0651(12) 0.4358(8) 0.1186(8)
H8 H 1.12110 0.39280 0.11460
C11 C 0.9323(11) 0.4356(6) 0.1315(7)
H9 H 0.87730 0.39250 0.13750
N1 N 0.8945(6) 0.5098(5) 0.1341(5)
H10 H 0.798(11) 0.528(6) 0.116(7)
N2 N 1.1017(7) 0.5102(6) 0.1125(5)
H11 H 1.18190 0.52640 0.10340
C12 C -0.0360(12) 0.4734(7) 0.3743(7)
H12 H -0.06860 0.42280 0.37210
C13 C 0.0987(13) 0.5667(9) 0.3664(11)
H13 H 0.17670 0.59550 0.35860
C14 C -0.0286(18) 0.5941(7) 0.3867(10)
H14 H -0.05330 0.64520 0.39520
N3 N 0.0839(8) 0.4926(6) 0.3608(6)
H15 H 0.14720 0.46080 0.34950
N4 N -0.1066(7) 0.5321(6) 0.3912(6)
H16 H -0.19030 0.53170 0.40330
O20 O 0.3176(11) 0.3039(8) 0.6071(5)
H17 H 0.33610 0.35020 0.59330
H18 H 0.38610 0.27510 0.60080
O13B O 0.5725(5) 0.5912(2) 0.5112(3)
O14B O 0.6259(4) 0.4905(2) 0.4261(3)
C7B C 0.5578(5) 0.5242(3) 0.4819(4)
O15B O 0.0864(4) -0.0844(2) 0.4765(3)
O16B O 0.1287(4) 0.0379(2) 0.4413(3)
C8B C 0.0617(5) -0.0134(3) 0.4758(3)
Tb1B Tb -0.50465(3) -0.378114(17) 0.65841(2)
Tb2B Tb -0.01903(3) -0.163578(16) 0.58781(2)
O1B O -0.3901(4) -0.5008(2) 0.7004(3)
O2B O -0.4188(4) -0.6171(2) 0.7631(3)
O3B O -0.6258(4) -0.4530(2) 0.7601(3)
O4B O -0.6370(4) -0.5638(2) 0.8364(3)
O5B O -0.2559(4) -0.3661(2) 0.6604(3)
O6B O -0.0884(4) -0.2920(2) 0.6178(3)
O7B O -0.4350(4) -0.2497(2) 0.6278(3)
O8B O -0.2637(4) -0.1736(2) 0.5926(3)
O9B O 0.1503(4) -0.2201(2) 0.7030(3)
O10B O 0.3322(4) -0.2997(3) 0.7271(3)
O11B O 0.1468(4) -0.2385(2) 0.5217(3)
O12B O 0.3170(4) -0.3262(2) 0.5467(3)
O17B O -0.4012(5) -0.3387(3) 0.8129(3)
H1B H -0.40490 -0.37620 0.85100
H2B H -0.31670 -0.32600 0.81150
O18B O -0.1310(5) -0.1949(3) 0.4357(3)
C1B C -0.4523(5) -0.5488(3) 0.7454(4)
C2B C -0.5828(5) -0.5185(3) 0.7834(4)
C3B C -0.2095(5) -0.3049(3) 0.6333(4)
C4B C -0.3129(6) -0.2356(3) 0.6164(4)
C5B C 0.2398(6) -0.2651(3) 0.6775(4)
C6B C 0.2329(5) -0.2774(3) 0.5720(4)
H3B H -0.107(9) -0.182(5) 0.385(3)
H4B H -0.191(15) -0.186(11) 0.471(11)
Tb1* Tb -0.49535(3) 0.378114(17) 0.34159(2)
Tb1B* Tb 0.49535(3) -0.378114(17) 0.65841(2)
Tb1B** Tb 0.49535(3) 0.621886(17) 0.65841(2)
Tb2A Tb 0.48097(3) 0.663578(16) 0.08781(2)
Tb2C Tb -0.48097(3) -0.663578(16) 0.91219(2)
O2A O 0.0812(4) 0.1171(2) 0.2631(3)
O2C O -0.0812(4) -0.1171(2) 0.7369(3)
O4A O -0.1370(4) 0.0638(2) 0.3364(3)
O4C O 0.1370(4) -0.0638(2) 0.6636(3)
O10* O 0.6678(4) 0.2997(3) 0.2729(3)
O10B* O -0.6678(4) -0.2997(3) 0.7271(3)
O12* O 0.6830(4) 0.3262(2) 0.4533(3)
O12B* O -0.6830(4) -0.3262(2) 0.5467(3)
O13B* O -0.4275(5) -0.4088(2) 0.5112(3)
O14* O -0.6259(4) -0.4905(2) 0.5739(3)
#END
