
#######################################################################
#
#                 Cambridge Crystallographic Data Centre
#                                CCDC
#
#######################################################################
#
# If this CIF has been generated from an entry in the Cambridge
# Structural Database, then it will include bibliographic, chemical,
# crystal, experimental, refinement or atomic coordinate data resulting
# from the CCDC's data processing and validation procedures.
#
#######################################################################

data_CSD_CIF_HASNUN
_audit_creation_date 2017-05-15
_audit_creation_method CSD-ConQuest-V1
_database_code_CSD HASNUN
_database_code_depnum_ccdc_archive 'CCDC 1520648'
_chemical_formula_sum 'C32 H44 Eu4 N8 O40'
_chemical_formula_moiety
;
(C16 H8 Eu4 O36 4-)n,4(C4 H7 N2 1+),4(H2 O1)
;
_journal_coden_Cambridge 1290
_journal_year 2017
_journal_page_first 2295
_journal_name_full 'Eur.J.Inorg.Chem. '
loop_
_publ_author_name
"Kangcai Wang"
"Xiujuan Qi"
"Zhi Wang"
"Ruihao Wang"
"Jie Sun"
"Qinghua Zhang"
_chemical_name_systematic
;
catena-[tetrakis(3-methylimidazolium) 
octakis(\m-oxalato)-tetra-aqua-tetra-europium tetrahydrate]
;
_cell_volume   2541.798
_exptl_crystal_colour 'white'
_exptl_crystal_density_diffrn 2.332
_exptl_crystal_description 'block'
_diffrn_ambient_temperature 293
#These two values have been output from a single CSD field.
_refine_ls_R_factor_gt 0.0579
_refine_ls_wR_factor_gt 0.0579
_symmetry_cell_setting monoclinic
_symmetry_space_group_name_H-M 'P 21/n'
_symmetry_Int_Tables_number 14
loop_
_symmetry_equiv_pos_site_id
_symmetry_equiv_pos_as_xyz
1 x,y,z
2 1/2-x,1/2+y,1/2-z
3 -x,-y,-z
4 -1/2+x,-1/2-y,-1/2+z
_cell_length_a 10.05316(9)
_cell_length_b 17.72727(17)
_cell_length_c 14.44514(17)
_cell_angle_alpha 90
_cell_angle_beta 99.1201(10)
_cell_angle_gamma 90
_cell_formula_units_Z 2
loop_
_atom_type_symbol
_atom_type_radius_bond
C 0.68
H 0.23
Eu 1.98
N 0.68
O 0.68
loop_
_atom_site_label
_atom_site_type_symbol
_atom_site_fract_x
_atom_site_fract_y
_atom_site_fract_z
Eu1 Eu 0.49671(3) 0.124722(19) 0.15635(3)
Eu2 Eu 0.51861(3) -0.159090(19) 0.40800(2)
O1 O 0.3699(5) -0.0618(3) 0.3271(4)
O2 O 0.5822(5) -0.1114(3) 0.2595(4)
O3 O 0.6147(5) 0.0038(3) 0.2021(4)
O4 O 0.3894(5) 0.0510(3) 0.2626(4)
C1 C 0.5532(7) -0.0431(4) 0.2430(5)
C2 C 0.4251(6) -0.0151(4) 0.2805(5)
O5 O 0.7404(5) 0.1425(3) 0.1604(4)
O6 O 0.5649(5) 0.2547(3) 0.1238(4)
O7 O 0.3134(5) 0.1808(3) 0.0449(4)
O8 O 0.3362(5) 0.2021(3) 0.2286(4)
O9 O 0.6072(6) 0.1627(3) 0.3152(4)
H1 H 0.65060 0.20370 0.31170
H2 H 0.66160 0.12820 0.33840
O10 O 0.5730(6) 0.0892(3) 0.0093(4)
O11 O 0.4176(5) -0.0835(3) 0.5212(4)
O12 O 0.1423(5) 0.2634(3) 0.0226(4)
O13 O 0.9051(5) 0.2168(3) 0.1259(4)
O14 O 0.6210(5) -0.0127(3) -0.0717(4)
O15 O 0.1587(5) 0.2806(3) 0.2064(4)
O16 O 0.7334(5) 0.3294(3) 0.0938(4)
C3 C 0.2431(7) 0.2370(4) 0.1792(5)
C4 C 0.7852(7) 0.2030(4) 0.1357(5)
C5 C 0.5574(7) 0.0221(4) -0.0182(5)
C6 C 0.2315(7) 0.2265(4) 0.0727(5)
C7 C 0.6846(7) 0.2682(3) 0.1161(5)
C8 C 0.4388(7) -0.0142(4) 0.5220(5)
O17 O 0.3741(5) 0.0357(3) 0.5576(4)
O18 O 0.6386(6) -0.1897(3) 0.5644(4)
H3 H 0.69320 -0.22730 0.56140
H4 H 0.654(13) -0.163(6) 0.626(9)
N1 N 0.9997(7) 0.0624(4) 0.3702(6)
C9 C 0.8937(10) 0.0226(7) 0.3837(8)
H5 H 0.81000 0.04240 0.39040
C10 C 1.0081(16) 0.1443(7) 0.3636(13)
H6 H 0.92210 0.16400 0.33570
H7 H 1.07470 0.15750 0.32550
H8 H 1.03300 0.16520 0.42520
N2 N 0.9241(12) -0.0470(6) 0.3863(7)
H9 H 0.86980 -0.08340 0.39280
C11 C 1.1028(11) 0.0132(8) 0.3669(9)
H10 H 1.19060 0.02460 0.35900
C12 C 1.0507(15) -0.0546(7) 0.3774(10)
H11 H 1.09700 -0.10010 0.37830
C13 C 0.8967(10) -0.0410(8) 0.1491(9)
N3 N 0.9029(14) 0.0271(8) 0.1380(11)
H12 H 0.83790 0.05820 0.14020
C14 C 1.047(2) 0.0492(9) 0.1193(11)
H13 H 1.08920 0.09480 0.10990
N4 N 1.0106(12) -0.0741(6) 0.138(1)
C15 C 1.0314(18) -0.1513(11) 0.1490(18)
H14 H 0.95750 -0.17340 0.17400
H15 H 1.11370 -0.16010 0.19130
H16 H 1.03750 -0.17360 0.08930
C16 C 1.084(2) -0.0172(9) 0.1218(10)
O19 O 0.6684(9) 0.2022(4) -0.0961(5)
H17 H 0.59600 0.19130 -0.07560
H18 H 0.66820 0.18110 -0.14890
O20 O 0.7169(8) -0.2111(4) 0.1529(5)
H19 H 0.69210 -0.19510 0.09740
H20 H 0.69440 -0.17930 0.19180
O10B O 0.4270(6) -0.0892(3) -0.0093(4)
O14B O 0.3790(5) 0.0127(3) 0.0717(4)
C5B C 0.4426(7) -0.0221(4) 0.0182(5)
O11B O 0.5824(5) 0.0835(3) 0.4788(4)
C8B C 0.5612(7) 0.0142(4) 0.4780(5)
O17B O 0.6259(5) -0.0357(3) 0.4424(4)
Eu1B Eu 0.50329(3) -0.124722(19) -0.15635(3)
Eu2B Eu 0.48139(3) 0.159090(19) -0.40800(2)
O1B O 0.6301(5) 0.0618(3) -0.3271(4)
O2B O 0.4178(5) 0.1114(3) -0.2595(4)
O3B O 0.3853(5) -0.0038(3) -0.2021(4)
O4B O 0.6106(5) -0.0510(3) -0.2626(4)
C1B C 0.4468(7) 0.0431(4) -0.2430(5)
C2B C 0.5749(6) 0.0151(4) -0.2805(5)
O5B O 0.2596(5) -0.1425(3) -0.1604(4)
O6B O 0.4351(5) -0.2547(3) -0.1238(4)
O7B O 0.6866(5) -0.1808(3) -0.0449(4)
O8B O 0.6638(5) -0.2021(3) -0.2286(4)
O9B O 0.3928(6) -0.1627(3) -0.3152(4)
H1B H 0.34940 -0.20370 -0.31170
H2B H 0.33840 -0.12820 -0.33840
O12B O 0.8577(5) -0.2634(3) -0.0226(4)
O13B O 0.0949(5) -0.2168(3) -0.1259(4)
O15B O 0.8413(5) -0.2806(3) -0.2064(4)
O16B O 0.2666(5) -0.3294(3) -0.0938(4)
C3B C 0.7569(7) -0.2370(4) -0.1792(5)
C4B C 0.2148(7) -0.2030(4) -0.1357(5)
C6B C 0.7685(7) -0.2265(4) -0.0727(5)
C7B C 0.3154(7) -0.2682(3) -0.1161(5)
O18B O 0.3614(6) 0.1897(3) -0.5644(4)
H3B H 0.30680 0.22730 -0.56140
H4B H 0.346(13) 0.163(6) -0.626(9)
Eu2A Eu -0.01861(3) 0.340910(19) 0.09200(2)
Eu2A* Eu 0.98139(3) 0.340910(19) 0.09200(2)
Eu2B* Eu 0.48139(3) 0.159090(19) 0.59200(2)
Eu2C Eu 0.01861(3) -0.340910(19) -0.09200(2)
Eu2C* Eu 1.01861(3) -0.340910(19) -0.09200(2)
O11B* O 0.5824(5) 0.0835(3) -0.5212(4)
O12A O 0.3577(5) -0.2366(3) 0.4774(4)
O12C O 0.6423(5) 0.2366(3) -0.4774(4)
O13A O 0.5949(5) -0.2832(3) 0.3741(4)
O13C O 0.4051(5) 0.2832(3) -0.3741(4)
O15A O 0.3413(5) -0.2194(3) 0.2936(4)
O15C O 0.6587(5) 0.2194(3) -0.2936(4)
O16A O 0.7666(5) -0.1706(3) 0.4062(4)
O16C O 0.2334(5) 0.1706(3) -0.4062(4)
O17* O 0.3741(5) 0.0357(3) -0.4424(4)
#END
