
#######################################################################
#
#                 Cambridge Crystallographic Data Centre
#                                CCDC
#
#######################################################################
#
# If this CIF has been generated from an entry in the Cambridge
# Structural Database, then it will include bibliographic, chemical,
# crystal, experimental, refinement or atomic coordinate data resulting
# from the CCDC's data processing and validation procedures.
#
#######################################################################

data_CSD_CIF_HASNIB
_audit_creation_date 2017-05-15
_audit_creation_method CSD-ConQuest-V1
_database_code_CSD HASNIB
_database_code_depnum_ccdc_archive 'CCDC 1520637'
_chemical_formula_sum 'C28 H36 Eu4 N8 O40'
_chemical_formula_moiety
;
(C16 H8 Eu4 O36 4-)n,4(C3 H5 N2 1+),4(H2 O1)
;
_journal_coden_Cambridge 1290
_journal_year 2017
_journal_page_first 2295
_journal_name_full 'Eur.J.Inorg.Chem. '
loop_
_publ_author_name
"Kangcai Wang"
"Xiujuan Qi"
"Zhi Wang"
"Ruihao Wang"
"Jie Sun"
"Qinghua Zhang"
_chemical_name_systematic
;
catena-[tetrakis(imidazolium) octakis(\m-oxalato)-tetra-aqua-tetra-europium 
tetrahydrate]
;
_cell_volume   2491.668
_exptl_crystal_colour 'white'
_exptl_crystal_density_diffrn 2.309
_exptl_crystal_description 'block'
_diffrn_ambient_temperature 293
_refine_special_details
;
OW3A and OW3B disordered over two sites with occupancies 0.54:0.46.

;
#These two values have been output from a single CSD field.
_refine_ls_R_factor_gt 0.0522
_refine_ls_wR_factor_gt 0.0522
_symmetry_cell_setting monoclinic
_symmetry_space_group_name_H-M 'P 21/n'
_symmetry_Int_Tables_number 14
loop_
_symmetry_equiv_pos_site_id
_symmetry_equiv_pos_as_xyz
1 x,y,z
2 1/2-x,1/2+y,1/2-z
3 -x,-y,-z
4 -1/2+x,-1/2-y,-1/2+z
_cell_length_a 9.80286(10)
_cell_length_b 17.50590(17)
_cell_length_c 14.63240(12)
_cell_angle_alpha 90
_cell_angle_beta 97.1208(8)
_cell_angle_gamma 90
_cell_formula_units_Z 2
loop_
_atom_type_symbol
_atom_type_radius_bond
C 0.68
H 0.23
Eu 1.98
N 0.68
O 0.68
loop_
_atom_site_label
_atom_site_type_symbol
_atom_site_fract_x
_atom_site_fract_y
_atom_site_fract_z
Eu1 Eu 0.49477(3) 0.121621(18) 0.15829(2)
Eu2 Eu 0.51936(3) -0.163116(17) 0.41241(2)
O1 O 0.5800(5) -0.1164(3) 0.2624(3)
O2 O 0.6105(5) -0.0005(3) 0.2011(3)
O3 O 0.3745(5) 0.0462(3) 0.2610(3)
O4 O 0.3628(5) -0.0636(3) 0.3355(3)
C1 C 0.4166(6) -0.0191(4) 0.2831(4)
C2 C 0.5485(6) -0.0478(3) 0.2452(4)
O5 O 0.7439(5) 0.1349(3) 0.1592(4)
O6 O 0.3150(5) 0.1740(3) 0.0463(3)
O7 O 0.3295(5) 0.1990(3) 0.2267(3)
O8 O 0.5996(6) 0.1612(3) 0.3134(4)
H1 H 0.68840 0.16040 0.31670
H2 H 0.57470 0.13030 0.35440
O9 O 0.5715(6) 0.0910(3) 0.0095(3)
C3 C 0.2389(6) 0.2347(3) 0.1772(4)
C4 C 0.2332(6) 0.2228(3) 0.0724(4)
O10 O 0.4142(5) -0.0836(2) 0.5240(3)
O11 O 0.6265(5) -0.0092(3) -0.0731(3)
O12 O 0.7353(5) 0.3257(3) 0.0940(3)
O13 O 0.1511(5) 0.2799(3) 0.2032(3)
O14 O 0.1490(5) 0.2630(3) 0.0216(3)
C5 C 0.5573(6) 0.0240(4) -0.0186(4)
C6 C 0.4372(6) -0.0135(3) 0.5234(4)
O15 O 0.9105(5) 0.2082(3) 0.1168(4)
O16 O 0.5645(5) 0.2498(3) 0.1274(4)
C7 C 0.6865(6) 0.2635(3) 0.1161(4)
C8 C 0.7896(6) 0.1955(3) 0.1319(4)
O17 O 0.3699(4) 0.0370(2) 0.5582(3)
O18 O 0.6330(6) -0.1951(3) 0.5658(3)
H3 H 0.58880 -0.17490 0.60780
H4 H 0.71700 -0.17780 0.57330
N1 N 0.9178(9) 0.0096(6) 0.1384(6)
H5 H 0.85520 0.04160 0.14930
C9 C 1.0388(15) 0.0279(8) 0.1255(8)
H6 H 1.07330 0.07740 0.12720
C10 C 0.9006(15) -0.064(1) 0.1330(12)
H7 H 0.82100 -0.09150 0.13900
N2 N 1.1061(8) -0.0317(7) 0.1097(7)
H8 H 1.18940 -0.03270 0.09690
C11 C 1.026(2) -0.0921(8) 0.1163(11)
H9 H 1.04980 -0.14320 0.11080
N3 N 0.8959(8) -0.0108(8) 0.3863(7)
H10 H 0.81510 -0.02630 0.39480
C12 C 0.9973(11) -0.0543(7) 0.3772(7)
H11 H 0.99600 -0.10740 0.37870
C13 C 0.9333(13) 0.063(1) 0.3809(10)
H12 H 0.87770 0.10560 0.38520
N4 N 1.1051(7) -0.0116(5) 0.3652(6)
H13 H 1.18540 -0.02810 0.35720
C14 C 1.0668(13) 0.0631(7) 0.3678(8)
H14 H 1.12180 0.10560 0.36180
O19 O 0.7997(11) 0.2715(5) 0.3494(5)
H15 H 0.81760 0.30810 0.31470
H16 H 0.82320 0.28370 0.40530
O20 O 0.796(2) -0.318(2) 0.6081(11)
H17 H 0.82730 -0.31360 0.66460
H18 H 0.83500 -0.35600 0.58520
O21? O 0.852(10) -0.286(5) 0.6061(17)
O9B O 0.4285(6) -0.0910(3) -0.0095(3)
O11B O 0.3735(5) 0.0092(3) 0.0731(3)
C5B C 0.4427(6) -0.0240(4) 0.0186(4)
O10B O 0.5858(5) 0.0836(2) 0.4760(3)
C6B C 0.5628(6) 0.0135(3) 0.4766(4)
O17B O 0.6301(4) -0.0370(2) 0.4418(3)
Eu1B Eu 0.50523(3) -0.121621(18) -0.15829(2)
Eu2B Eu 0.48064(3) 0.163116(17) -0.41241(2)
O1B O 0.4200(5) 0.1164(3) -0.2624(3)
O2B O 0.3895(5) 0.0005(3) -0.2011(3)
O3B O 0.6255(5) -0.0462(3) -0.2610(3)
O4B O 0.6372(5) 0.0636(3) -0.3355(3)
C1B C 0.5834(6) 0.0191(4) -0.2831(4)
C2B C 0.4515(6) 0.0478(3) -0.2452(4)
O5B O 0.2561(5) -0.1349(3) -0.1592(4)
O6B O 0.6850(5) -0.1740(3) -0.0463(3)
O7B O 0.6705(5) -0.1990(3) -0.2267(3)
O8B O 0.4004(6) -0.1612(3) -0.3134(4)
H1B H 0.31160 -0.16040 -0.31670
H2B H 0.42530 -0.13030 -0.35440
C3B C 0.7611(6) -0.2347(3) -0.1772(4)
C4B C 0.7668(6) -0.2228(3) -0.0724(4)
O12B O 0.2647(5) -0.3257(3) -0.0940(3)
O13B O 0.8489(5) -0.2799(3) -0.2032(3)
O14B O 0.8510(5) -0.2630(3) -0.0216(3)
O15B O 0.0895(5) -0.2082(3) -0.1168(4)
O16B O 0.4355(5) -0.2498(3) -0.1274(4)
C7B C 0.3135(6) -0.2635(3) -0.1161(4)
C8B C 0.2104(6) -0.1955(3) -0.1319(4)
O18B O 0.3670(6) 0.1951(3) -0.5658(3)
H3B H 0.41120 0.17490 -0.60780
H4B H 0.28300 0.17780 -0.57330
Eu2A Eu -0.01936(3) 0.336884(17) 0.08759(2)
Eu2A* Eu 0.98064(3) 0.336884(17) 0.08759(2)
Eu2B* Eu 0.48064(3) 0.163116(17) 0.58759(2)
Eu2C Eu 0.01936(3) -0.336884(17) -0.08759(2)
Eu2C* Eu 1.01936(3) -0.336884(17) -0.08759(2)
O10B* O 0.5858(5) 0.0836(2) -0.5240(3)
O12A O 0.7647(5) -0.1743(3) 0.4060(3)
O12C O 0.2353(5) 0.1743(3) -0.4060(3)
O13A O 0.3489(5) -0.2201(3) 0.2968(3)
O13C O 0.6511(5) 0.2201(3) -0.2968(3)
O14A O 0.3510(5) -0.2370(3) 0.4784(3)
O14C O 0.6490(5) 0.2370(3) -0.4784(3)
O15A O 0.5895(5) -0.2918(3) 0.3832(4)
O15C O 0.4105(5) 0.2918(3) -0.3832(4)
O17* O 0.3699(4) 0.0370(2) -0.4418(3)
#END
