
#######################################################################
#
#                 Cambridge Crystallographic Data Centre
#                                CCDC
#
#######################################################################
#
# If this CIF has been generated from an entry in the Cambridge
# Structural Database, then it will include bibliographic, chemical,
# crystal, experimental, refinement or atomic coordinate data resulting
# from the CCDC's data processing and validation procedures.
#
#######################################################################

data_CSD_CIF_HAVGER
_audit_creation_date 2006-01-24
_audit_creation_method CSD-ConQuest-V1
_database_code_CSD HAVGER
_database_code_depnum_ccdc_archive 'CCDC 256142'
_chemical_formula_sum 'C64 H60 Mo6 N10 Ni2 O30 P2'
_chemical_formula_moiety
;
(C36 H24 N6 Ni1 2+)n,n(C28 H24 Mo6 N4 Ni1 O24 P2 2-),6n(H2 O1)
;
_journal_coden_Cambridge 603
_journal_volume 24
_journal_year 2005
_journal_page_first 997
_journal_name_full 'Jiegou Huaxue(Chin.)(Chin.J.Struct.Chem.) '
loop_
_publ_author_name
"Hui-Shuang Zhang"
"Rui-Biao Fu"
"Jian-Jun Zhang"
"Xin-Tao Wu"
"Ya-Min Li"
"Xi-He Huang"
_chemical_name_systematic
;
catena-(tris(1,10-Phenanthroline)-nickel 
(\m~10~-1,4-butanediphosphonato)-tetrakis((\m~3~-oxo)-(\m~2~-oxo))-bis(1,10-ph
enanthroline)-decaoxo-nickel-hexa-molybdenum hexahydrate)
;
_cell_volume   7428.916
_exptl_crystal_colour 'pink'
_exptl_crystal_density_diffrn 1.971
_exptl_crystal_description 'block'
_diffrn_ambient_temperature 293
#These two values have been output from a single CSD field.
_refine_ls_R_factor_gt 0.0702
_refine_ls_wR_factor_gt 0.0702
_symmetry_cell_setting monoclinic
_symmetry_space_group_name_H-M 'P 21/c'
_symmetry_Int_Tables_number 14
loop_
_symmetry_equiv_pos_site_id
_symmetry_equiv_pos_as_xyz
1 x,y,z
2 -x,1/2+y,1/2-z
3 -x,-y,-z
4 x,-1/2-y,-1/2+z
_cell_length_a 26.4760(5)
_cell_length_b 14.5799(3)
_cell_length_c 19.8146(2)
_cell_angle_alpha 90
_cell_angle_beta 103.771(1)
_cell_angle_gamma 90
_cell_formula_units_Z 4
loop_
_atom_type_symbol
_atom_type_radius_bond
C 0.68
H 0.23
Mo 1.40
N 0.68
Ni 1.50
O 0.68
P 1.05
loop_
_atom_site_label
_atom_site_type_symbol
_atom_site_fract_x
_atom_site_fract_y
_atom_site_fract_z
Mo1 Mo 0.70918(4) 0.48436(6) 0.44602(5)
Mo2 Mo 0.81448(3) 0.59134(7) 0.36243(5)
Mo3 Mo 0.81730(4) 0.68870(7) 0.87800(5)
Mo4 Mo 0.68040(4) 0.62323(6) 0.88058(5)
Mo5 Mo 0.61952(3) 0.81547(6) 0.87654(4)
Mo6 Mo 0.68107(3) 1.00296(6) 0.78746(5)
Ni1 Ni 0.53952(5) 0.94860(9) 0.73803(7)
Ni2 Ni 0.91075(5) 0.29823(10) 0.23048(7)
P1 P 0.74863(10) 0.69576(18) 0.48270(13)
P2 P 0.7076(1) 0.78668(19) 0.76536(13)
N1 N 0.4647(3) 0.8966(6) 0.7308(5)
N2 N 0.5227(3) 1.0125(6) 0.8229(5)
N3 N 0.5535(4) 0.8907(6) 0.6494(5)
N4 N 0.5224(3) 1.0602(6) 0.6710(4)
N5 N 0.8593(4) 0.2748(7) 0.2942(5)
N6 N 0.8734(3) 0.1801(6) 0.1845(5)
N7 N 0.9704(4) 0.2225(6) 0.2959(5)
N8 N 0.9494(4) 0.4024(7) 0.2952(5)
N9 N 0.8595(4) 0.3827(7) 0.1600(6)
N10 N 0.9528(3) 0.3168(7) 0.1546(5)
O1 O 0.7718(4) 0.2472(7) 0.5572(6)
O2 O 0.7055(3) 1.0729(5) 0.7336(4)
O3 O 0.6982(4) 1.1454(7) 0.4578(6)
O4 O 0.6146(3) 1.0022(5) 0.7535(4)
O5 O 0.6374(4) 0.2713(7) 0.5165(7)
O6 O 0.6904(3) 0.8833(5) 0.7396(3)
O7 O 0.7039(5) 0.2660(8) 0.1477(6)
O8 O 0.5913(3) 0.8417(5) 0.9427(4)
O9 O 0.8849(5) 0.7181(10) 0.2328(6)
O10 O 0.5716(3) 0.8386(5) 0.8017(4)
O11 O 0.9172(7) -0.0713(13) 0.2503(9)
O12 O 0.6611(3) 0.5510(6) 0.8123(5)
O13 O 0.6870(3) 0.5531(5) 0.9521(4)
O14 O 0.6161(3) 0.6835(5) 0.8807(4)
O15 O 0.6733(2) 0.7511(5) 0.8119(3)
O16 O 0.6971(3) 0.7427(5) 0.4497(3)
O17 O 0.8530(3) 0.5261(6) 0.4257(5)
O18 O 0.8256(3) 0.5498(6) 0.2868(4)
O19 O 0.6642(3) 0.4566(6) 0.4916(4)
O20 O 0.7611(3) 0.4156(5) 0.4819(4)
O21 O 0.7488(3) 0.5380(5) 0.3596(3)
O22 O 0.6825(3) 0.4138(5) 0.3630(4)
O23 O 0.7388(3) 0.5949(5) 0.5016(3)
O24 O 0.6616(3) 0.5828(5) 0.3776(3)
O25 O 0.8552(3) 0.6456(6) 0.9534(5)
O26 O 0.8345(3) 0.6245(6) 0.8143(5)
O27 O 0.8566(3) 0.7015(5) 0.3706(4)
O28 O 0.7654(3) 0.7860(5) 0.8005(3)
O29 O 0.7519(3) 0.6367(5) 0.8804(4)
O30 O 0.7885(3) 0.6937(5) 0.4378(3)
C1 C 0.4377(5) 0.8358(9) 0.6875(6)
H1 H 0.45110 0.81540 0.65080
C2 C 0.3900(5) 0.8007(10) 0.6941(7)
H2 H 0.37270 0.75710 0.66270
C3 C 0.3694(5) 0.8297(10) 0.7456(7)
H3 H 0.33750 0.80710 0.75000
C4 C 0.3962(5) 0.8946(9) 0.7928(7)
C5 C 0.3783(5) 0.9327(10) 0.8520(7)
H4 H 0.34590 0.91520 0.85830
C6 C 0.4069(5) 0.9913(10) 0.8967(7)
H5 H 0.39420 1.01270 0.93370
C7 C 0.4564(5) 1.0222(8) 0.8899(6)
C8 C 0.4893(5) 1.0803(8) 0.9366(6)
H6 H 0.47890 1.10320 0.97500
C9 C 0.5364(5) 1.1031(8) 0.9262(6)
H7 H 0.55830 1.14170 0.95740
C10 C 0.5525(5) 1.0682(8) 0.8673(6)
H8 H 0.58480 1.08520 0.86030
C11 C 0.4752(4) 0.9892(8) 0.8323(6)
C12 C 0.4447(4) 0.9272(8) 0.7841(6)
C13 C 0.5654(4) 0.8058(8) 0.6371(6)
H9 H 0.56250 0.76110 0.66950
C14 C 0.5820(5) 0.7786(9) 0.5781(6)
H10 H 0.58970 0.71740 0.57170
C15 C 0.5869(4) 0.8436(8) 0.5298(6)
H11 H 0.59820 0.82730 0.49050
C16 C 0.5745(4) 0.9354(8) 0.5410(5)
C17 C 0.5782(5) 1.0086(9) 0.4949(6)
H12 H 0.58980 0.99610 0.45510
C18 C 0.5653(5) 1.0959(10) 0.5072(6)
H13 H 0.56900 1.14220 0.47640
C19 C 0.5459(4) 1.1179(8) 0.5677(5)
C20 C 0.5316(4) 1.2055(8) 0.5822(6)
H14 H 0.53580 1.25450 0.55400
C21 C 0.5111(5) 1.2190(8) 0.6391(6)
H15 H 0.50020 1.27710 0.64910
C22 C 0.5067(4) 1.1440(8) 0.6818(6)
H16 H 0.49200 1.15370 0.71940
C23 C 0.5416(4) 1.0456(7) 0.6133(5)
C24 C 0.5567(4) 0.9549(7) 0.6014(5)
C25 C 0.8530(6) 0.3261(9) 0.3472(8)
H17 H 0.87380 0.37760 0.36000
C26 C 0.8155(7) 0.3036(11) 0.3838(9)
H18 H 0.81090 0.34050 0.42020
C27 C 0.7861(6) 0.2277(11) 0.3657(9)
H19 H 0.76150 0.21220 0.39030
C28 C 0.7920(5) 0.1729(9) 0.3113(8)
C29 C 0.7626(6) 0.0905(11) 0.2886(10)
H20 H 0.73850 0.07030 0.31270
C30 C 0.7694(6) 0.0416(11) 0.2328(9)
H21 H 0.75000 -0.01140 0.21960
C31 C 0.8061(5) 0.0708(9) 0.1941(8)
C32 C 0.8147(6) 0.0248(9) 0.1362(8)
H22 H 0.79600 -0.02790 0.11980
C33 C 0.8511(6) 0.0580(9) 0.1039(8)
H23 H 0.85650 0.02850 0.06460
C34 C 0.8799(5) 0.1348(9) 0.1290(7)
H24 H 0.90460 0.15560 0.10630
C35 C 0.8371(4) 0.1482(8) 0.2163(7)
C36 C 0.8303(5) 0.1994(8) 0.2760(7)
C37 C 0.9812(5) 0.1330(9) 0.2961(7)
H25 H 0.95990 0.09590 0.26290
C38 C 1.0227(6) 0.0922(10) 0.3434(7)
H26 H 1.02880 0.02950 0.34160
C39 C 1.0537(5) 0.1454(11) 0.3916(7)
H27 H 1.08180 0.11910 0.42300
C40 C 1.0444(5) 0.2395(10) 0.3953(6)
C41 C 1.0730(5) 0.3018(12) 0.4468(7)
H28 H 1.10180 0.28010 0.47950
C42 C 1.0594(6) 0.3900(13) 0.4492(7)
H29 H 1.07800 0.42720 0.48460
C43 C 1.0174(5) 0.4281(11) 0.3986(6)
C44 C 1.0007(6) 0.5201(10) 0.3991(8)
H30 H 1.01720 0.55960 0.43430
C45 C 0.9606(5) 0.5505(9) 0.3484(8)
H31 H 0.94950 0.61110 0.34830
C46 C 0.9359(4) 0.4899(8) 0.2960(7)
H32 H 0.90900 0.51180 0.26060
C47 C 0.9890(4) 0.3707(9) 0.3458(6)
C48 C 1.0024(5) 0.2738(9) 0.3450(6)
C49 C 0.8144(5) 0.4173(10) 0.1635(8)
H33 H 0.80310 0.40830 0.20400
C50 C 0.7821(5) 0.4677(10) 0.1083(12)
H34 H 0.75100 0.49350 0.11300
C51 C 0.7984(7) 0.4770(11) 0.0479(11)
H35 H 0.77780 0.50900 0.01080
C52 C 0.8450(6) 0.4396(9) 0.0412(9)
C53 C 0.8636(9) 0.4468(10) -0.0215(8)
H36 H 0.84320 0.47380 -0.06130
C54 C 0.9105(9) 0.4140(12) -0.0213(8)
H37 H 0.92230 0.41950 -0.06180
C55 C 0.9434(7) 0.3713(10) 0.0367(7)
C56 C 0.9942(8) 0.3401(14) 0.0392(9)
H38 H 1.00820 0.34690 0.00060
C57 C 1.0221(6) 0.3011(12) 0.0967(9)
H39 H 1.05600 0.28180 0.09920
C58 C 0.9995(5) 0.2892(10) 0.1543(8)
H40 H 1.01900 0.26030 0.19380
C59 C 0.9247(5) 0.3599(8) 0.0973(6)
C60 C 0.8747(5) 0.3952(8) 0.0994(7)
C61 C 0.7786(5) 0.7587(8) 0.5591(5)
H41 H 0.80890 0.72480 0.58380
H42 H 0.79070 0.81670 0.54490
C62 C 0.7441(5) 0.7790(8) 0.6104(6)
H43 H 0.76000 0.82730 0.64200
H44 H 0.71040 0.80060 0.58460
C63 C 0.6956(4) 0.7072(8) 0.6939(6)
H45 H 0.66330 0.72500 0.66200
H46 H 0.69000 0.64720 0.71200
C64 C 0.7368(5) 0.6963(8) 0.6514(6)
H47 H 0.72710 0.64510 0.61970
H48 H 0.76980 0.68130 0.68280
Mo1C Mo 0.70918(4) 1.01564(6) 0.94602(5)
Mo2C Mo 0.81448(3) 0.90866(7) 0.86243(5)
Mo3C Mo 0.81730(4) 0.81130(7) 0.37800(5)
Mo4C Mo 0.68040(4) 0.87677(6) 0.38058(5)
Mo5C Mo 0.61952(3) 0.68453(6) 0.37654(4)
Mo6C Mo 0.68107(3) 0.49704(6) 0.28746(5)
O16C O 0.6971(3) 0.7573(5) 0.9497(3)
O21C O 0.7488(3) 0.9620(5) 0.8596(3)
O22C O 0.6825(3) 1.0862(5) 0.8630(4)
O24C O 0.6616(3) 0.9172(5) 0.8776(3)
O27C O 0.8566(3) 0.7985(5) 0.8706(4)
O28C O 0.7654(3) 0.7140(5) 0.3005(3)
O30C O 0.7885(3) 0.8063(5) 0.9378(3)
#END
