
#######################################################################
#
#                 Cambridge Crystallographic Data Centre
#                                CCDC
#
#######################################################################
#
# If this CIF has been generated from an entry in the Cambridge
# Structural Database, then it will include bibliographic, chemical,
# crystal, experimental, refinement or atomic coordinate data resulting
# from the CCDC's data processing and validation procedures.
#
#######################################################################

data_CSD_CIF_HAVGIV
_audit_creation_date 2006-01-24
_audit_creation_method CSD-ConQuest-V1
_database_code_CSD HAVGIV
_database_code_depnum_ccdc_archive 'CCDC 256143'
_chemical_formula_sum 'C52 H56 Mo5 N8 Ni2 O29 P2'
_chemical_formula_moiety
;
(C24 H20 N4 Ni1 O2 2+)n,n(C28 H26 Mo5 N4 Ni1 O22 P2 2-),5n(H2 O1)
;
_journal_coden_Cambridge 603
_journal_volume 24
_journal_year 2005
_journal_page_first 997
_journal_name_full 'Jiegou Huaxue(Chin.)(Chin.J.Struct.Chem.) '
loop_
_publ_author_name
"Hui-Shuang Zhang"
"Rui-Biao Fu"
"Jian-Jun Zhang"
"Xin-Tao Wu"
"Ya-Min Li"
"Xi-He Huang"
_chemical_name_systematic
;
catena-(Diaqua-bis(1,10-phenanthroline)-nickel(ii) 
(\m~10~-1,4-butylenediphosphonato)-hexakis(\m~2~-oxo)-nonaoxo-aqua-bis(1,10-ph
enanthroline)-nickel(ii)-penta-molybdenum pentahydrate)
;
_cell_volume  12990.200
_exptl_crystal_density_diffrn 1.95
_exptl_special_details
;
Isomorphous with the cobalt analogue
The given formula weight appears to correspond to the pentahydrate, not the 
hexahydrate
;
_diffrn_ambient_temperature 130.15
_refine_special_details
;
A water molecule is equally disordered over two sites.

;
#These two values have been output from a single CSD field.
_refine_ls_R_factor_gt 0.0288
_refine_ls_wR_factor_gt 0.0288
_symmetry_cell_setting orthorhombic
_symmetry_space_group_name_H-M 'P b c a'
_symmetry_Int_Tables_number 61
loop_
_symmetry_equiv_pos_site_id
_symmetry_equiv_pos_as_xyz
1 x,y,z
2 1/2-x,-y,1/2+z
3 -x,1/2+y,1/2-z
4 1/2+x,1/2-y,-z
5 -x,-y,-z
6 -1/2+x,y,-1/2-z
7 x,-1/2-y,-1/2+z
8 -1/2-x,-1/2+y,z
_cell_length_a 24.205(3)
_cell_length_b 19.714(2)
_cell_length_c 27.223(3)
_cell_angle_alpha 90
_cell_angle_beta 90
_cell_angle_gamma 90
_cell_formula_units_Z 8
loop_
_atom_type_symbol
_atom_type_radius_bond
C 0.68
H 0.23
Mo 1.40
N 0.68
Ni 1.50
O 0.68
P 1.05
loop_
_atom_site_label
_atom_site_type_symbol
_atom_site_fract_x
_atom_site_fract_y
_atom_site_fract_z
Mo1 Mo 0.279942(9) 0.039740(11) 0.068248(8)
Mo2 Mo 0.354240(9) -0.457760(11) 0.132300(8)
Mo3 Mo 0.375798(9) 0.037135(11) 0.156405(8)
Mo4 Mo 0.185290(9) -0.499820(12) 0.265850(8)
Mo5 Mo 0.324270(9) -0.512440(12) 0.247960(8)
Ni1 Ni 0.462403(14) -0.116800(17) 0.153788(12)
Ni2 Ni 0.179611(14) -0.157550(18) -0.024689(13)
P1 P 0.25998(3) -0.07317(3) 0.15867(2)
P2 P 0.24604(3) -0.38633(3) 0.18698(2)
N1 N 0.53429(9) -0.08600(12) 0.11853(8)
N2 N 0.43579(9) -0.12029(12) 0.08125(8)
N3 N 0.49366(9) -0.10702(12) 0.22387(8)
N4 N 0.49318(9) -0.21411(12) 0.16283(9)
N5 N 0.11591(10) -0.09573(12) -0.05181(8)
N6 N 0.11119(10) -0.20417(12) 0.00721(8)
N7 N 0.23892(9) -0.22619(12) 0.00091(8)
N8 N 0.18694(10) -0.22055(12) -0.08600(9)
O1 O 0.71707(14) 0.11910(16) 0.14193(11)
O2 O 0.34299(9) -0.46460(11) 0.29817(8)
O3 O 0.37383(10) 0.71774(11) 0.21460(9)
O4 O 0.36032(8) -0.58598(10) 0.25514(7)
O5 O 0.23871(9) -0.09316(12) -0.05264(8)
O6 O 0.55650(13) 0.11744(16) 0.24845(12)
O7 O 0.25182(8) -0.43091(10) 0.23311(7)
O8 O 0.4610(2) -0.1204(3) -0.14774(16)
O9 O 0.18602(9) -0.45045(12) 0.31754(8)
O10 O 0.6204(3) 0.2176(2) 0.12077(16)
O11 O 0.14181(9) -0.56517(11) 0.28071(8)
O12 O 0.1595(2) 0.2928(3) 0.2972(2)
O13? O 0.1306(5) 0.2982(6) 0.3043(4)
O14 O 0.25374(8) -0.54802(10) 0.26986(7)
O15 O 0.41036(8) 0.11031(10) 0.14331(7)
O16 O 0.31245(8) -0.04710(9) 0.18518(7)
O17 O 0.42787(8) -0.02293(10) 0.16059(7)
O18 O 0.36181(8) 0.05445(10) 0.22469(7)
O19 O 0.39798(8) -0.39528(10) 0.11375(7)
O20 O 0.38548(8) -0.52944(10) 0.10837(7)
O21 O 0.30196(8) -0.37264(9) 0.16389(7)
O22 O 0.37115(8) -0.46511(10) 0.20084(7)
O23 O 0.20827(8) -0.03303(9) 0.17473(7)
O24 O 0.26505(8) -0.06832(9) 0.10319(7)
O25 O 0.29609(8) 0.11958(10) 0.04902(7)
O26 O 0.20776(7) -0.42046(9) 0.14854(7)
O27 O 0.27776(8) -0.00431(10) 0.01364(7)
O28 O 0.35122(7) 0.01220(9) 0.09279(7)
O29 O 0.20443(8) 0.04692(9) 0.08508(7)
O30 O 0.18165(8) -0.10043(11) 0.04016(7)
O31 O 0.38759(8) -0.15539(10) 0.17806(8)
C1 C 0.58288(12) -0.07047(16) 0.13758(11)
H1 H 0.58650 -0.06990 0.17160
C2 C 0.62937(12) -0.05473(16) 0.10859(11)
H2 H 0.66310 -0.04480 0.12330
C3 C 0.62429(12) -0.05426(17) 0.05835(12)
H3 H 0.65460 -0.04420 0.03870
C4 C 0.57261(12) -0.06912(15) 0.03687(11)
C5 C 0.56237(13) -0.06510(17) -0.01479(11)
H4 H 0.59110 -0.05350 -0.03590
C6 C 0.51142(13) -0.07792(17) -0.03350(11)
H5 H 0.50550 -0.07400 -0.06710
C7 C 0.46669(12) -0.09736(15) -0.00215(10)
C8 C 0.41308(13) -0.11090(15) -0.01902(11)
H6 H 0.40530 -0.10920 -0.05240
C9 C 0.37230(12) -0.12658(16) 0.01394(11)
H7 H 0.33640 -0.13430 0.00320
C10 C 0.38545(11) -0.13089(15) 0.06414(10)
H8 H 0.35750 -0.14170 0.08630
C11 C 0.47576(11) -0.10243(14) 0.0487(1)
C12 C 0.52929(11) -0.08576(14) 0.06867(10)
C13 C 0.49375(12) -0.05336(16) 0.25299(11)
H9 H 0.47820 -0.01320 0.24150
C14 C 0.51624(12) -0.05444(17) 0.30046(11)
H10 H 0.51640 -0.01540 0.31970
C15 C 0.53802(12) -0.11361(17) 0.31819(11)
H11 H 0.55280 -0.11520 0.34970
C16 C 0.53794(11) -0.17189(16) 0.28850(11)
C17 C 0.56046(13) -0.23643(17) 0.30318(12)
H12 H 0.57470 -0.24150 0.33470
C18 C 0.56129(13) -0.28972(17) 0.27200(13)
H13 H 0.57680 -0.33050 0.28220
C19 C 0.53874(12) -0.28456(15) 0.22349(12)
C20 C 0.53647(13) -0.33938(16) 0.19057(13)
H14 H 0.55160 -0.38110 0.19910
C21 C 0.51176(14) -0.33061(16) 0.14574(13)
H15 H 0.50890 -0.36670 0.12390
C22 C 0.49088(13) -0.26700(16) 0.13311(11)
H16 H 0.47460 -0.26160 0.10240
C23 C 0.51625(11) -0.22312(14) 0.20803(10)
C24 C 0.51595(11) -0.16576(14) 0.24094(10)
C25 C 0.11890(13) -0.04440(15) -0.08318(11)
H17 H 0.15280 -0.03430 -0.09750
C26 C 0.07279(14) -0.00462(15) -0.09559(11)
H18 H 0.07620 0.03030 -0.11830
C27 C 0.02263(14) -0.01765(15) -0.07398(11)
H19 H -0.00800 0.00880 -0.08150
C28 C 0.01821(12) -0.07159(15) -0.04038(10)
C29 C -0.03260(12) -0.09079(17) -0.01670(11)
H20 H -0.06450 -0.06590 -0.02280
C30 C -0.03480(12) -0.14415(17) 0.01424(12)
H21 H -0.06810 -0.15520 0.02930
C31 C 0.01369(12) -0.18443(16) 0.02431(11)
C32 C 0.01407(13) -0.24027(17) 0.05658(12)
H22 H -0.01790 -0.25290 0.07320
C33 C 0.06229(14) -0.27589(16) 0.06324(12)
H23 H 0.06330 -0.31250 0.08470
C34 C 0.10994(13) -0.25666(15) 0.03743(11)
H24 H 0.14200 -0.28190 0.04170
C35 C 0.06364(11) -0.16782(14) 0.00111(10)
C36 C 0.06612(11) -0.11001(14) -0.03107(10)
C37 C 0.26452(12) -0.22802(15) 0.04391(10)
H25 H 0.25520 -0.19580 0.06740
C38 C 0.30505(12) -0.27630(16) 0.05567(11)
H26 H 0.32220 -0.27570 0.08620
C39 C 0.31900(11) -0.32456(15) 0.02130(11)
H27 H 0.34570 -0.35700 0.02840
C40 C 0.29252(12) -0.32437(15) -0.02454(11)
C41 C 0.30352(14) -0.37332(16) -0.06229(12)
H28 H 0.32910 -0.40760 -0.05650
C42 C 0.27744(14) -0.37059(17) -0.10615(13)
H29 H 0.28570 -0.40270 -0.13010
C43 C 0.23714(13) -0.31875(16) -0.11651(11)
C44 C 0.20881(14) -0.31358(17) -0.16135(12)
H30 H 0.21570 -0.34430 -0.18650
C45 C 0.17090(14) -0.26278(18) -0.16762(12)
H31 H 0.15170 -0.25880 -0.19710
C46 C 0.16120(13) -0.21669(17) -0.12913(11)
H32 H 0.13570 -0.18200 -0.13400
C47 C 0.22466(12) -0.27085(14) -0.07968(11)
C48 C 0.25273(11) -0.27374(15) -0.03329(10)
C49 C 0.25105(11) -0.16005(13) 0.17673(10)
H33 H 0.27980 -0.18700 0.16140
H34 H 0.25590 -0.16330 0.21200
C50 C 0.19452(11) -0.19078(13) 0.16323(10)
H35 H 0.16810 -0.18030 0.18890
H36 H 0.18140 -0.17040 0.13300
C51 C 0.19792(11) -0.26769(13) 0.15671(10)
H37 H 0.22420 -0.27760 0.13080
H38 H 0.16210 -0.28420 0.14610
C52 C 0.21518(11) -0.30675(13) 0.20316(10)
H39 H 0.18300 -0.31470 0.22360
H40 H 0.24130 -0.27990 0.22180
Mo1G Mo 0.220058(9) -0.460260(11) 0.068248(8)
Mo2G Mo 0.145760(9) 0.042240(11) 0.132300(8)
Mo3G Mo 0.124202(9) -0.462865(11) 0.156405(8)
Mo4G Mo 0.314710(9) 0.000180(12) 0.265850(8)
Mo5G Mo 0.175730(9) -0.012440(12) 0.247960(8)
O16G O 0.18755(8) -0.54710(9) 0.18518(7)
O18G O 0.13819(8) -0.44555(10) 0.22469(7)
O23G O 0.29173(8) -0.53303(9) 0.17473(7)
O26G O 0.29224(7) 0.07954(9) 0.14854(7)
O29G O 0.29557(8) -0.45308(9) 0.08508(7)
#END
