
#######################################################################
#
#                 Cambridge Crystallographic Data Centre
#                                CCDC
#
#######################################################################
#
# If this CIF has been generated from an entry in the Cambridge
# Structural Database, then it will include bibliographic, chemical,
# crystal, experimental, refinement or atomic coordinate data resulting
# from the CCDC's data processing and validation procedures.
#
#######################################################################

data_CSD_CIF_HAVXAF
_audit_creation_date 2012-07-02
_audit_creation_method CSD-ConQuest-V1
_database_code_CSD HAVXAF
_database_code_depnum_ccdc_archive 'CCDC 831765'
_chemical_formula_sum 'C54 H65 Cu2 N18 O48 P1 W12'
_chemical_formula_moiety
;
(C36 H33 Cu1 N12 O40 P1 W12 2-)n,n(C18 H24 Cu1 N6 O4 2+),4n(H2 O1)
;
_journal_coden_Cambridge 1295
_journal_volume 17
_journal_year 2012
_journal_page_first 71
_journal_name_full 'Inorg.Chem.Commun. '
loop_
_publ_author_name
"Xiuli Wang"
"Xiaojing Liu"
"Aixiang Tian"
"Jun Ying"
"Hongyan Lin"
"Guocheng Liu"
"Juwen Zhang"
"Dan Zhao"
_chemical_name_systematic
;
catena-((\m~2~-4,4'-bis(1,2,4-triazol-1-ylmethyl)biphenyl)-tetraaqua-copper(ii
) 
(\m~12~-phosphato)-bis(\m~2~-4,4'-bis(1,2,4-triazol-1-ylmethyl)biphenyl)-(\m~2
~-hydroxo)-pentacosakis(\m~2~-oxo)-decaoxo-copper(ii)-deca-tungsten(vi)-di-tun
gsten(v) tetrahydrate)
;
_cell_volume   2655.689
_exptl_crystal_colour 'dark blue'
_exptl_crystal_density_diffrn 2.552
_exptl_special_details
;
The H atom on the anion was not located and has been placed arbitrarily on a 
bridging O atom in the 2D diagram
;
_exptl_crystal_description 'block'
_diffrn_ambient_temperature 296
_refine_special_details
;
The phosphate group is disordered by symmetry.

;
#These two values have been output from a single CSD field.
_refine_ls_R_factor_gt 0.0831
_refine_ls_wR_factor_gt 0.0831
_symmetry_cell_setting triclinic
_symmetry_space_group_name_H-M 'P -1'
_symmetry_Int_Tables_number 2
loop_
_symmetry_equiv_pos_site_id
_symmetry_equiv_pos_as_xyz
1 x,y,z
2 -x,-y,-z
_cell_length_a 14.6831(14)
_cell_length_b 15.0031(14)
_cell_length_c 15.362(3)
_cell_angle_alpha 106.352(2)
_cell_angle_beta 99.882(2)
_cell_angle_gamma 118.603(1)
_cell_formula_units_Z 1
loop_
_atom_type_symbol
_atom_type_radius_bond
C 0.68
H 0.23
Cu 1.39
N 0.68
O 0.68
P 1.05
W 1.40
loop_
_atom_site_label
_atom_site_type_symbol
_atom_site_fract_x
_atom_site_fract_y
_atom_site_fract_z
P1 P 0.50000 0.50000 0.50000
W1 W 0.39813(10) 0.64634(9) 0.62911(9)
W2 W 0.67343(10) 0.55077(10) 0.72672(9)
W3 W 0.20967(8) 0.37055(9) 0.44701(9)
W4 W 0.30998(8) 0.22290(8) 0.31742(8)
W5 W 0.38251(11) 0.42206(10) 0.67133(10)
W6 W 0.48433(9) 0.27406(8) 0.54501(8)
O1 O 0.511(3) 0.452(3) 0.576(2)
O2 O 0.389(2) 0.416(2) 0.420(2)
O3 O 0.1171(16) 0.0501(17) 0.4309(17)
O4 O 0.522(2) 0.609(2) 0.544(2)
O5 O 0.407(3) 0.491(3) 0.545(2)
O6 O -0.0542(15) -0.1808(15) 0.4141(15)
O7 O 0.5382(16) 0.5056(17) 0.7483(17)
O8 O 0.760(2) 0.581(2) 0.8372(16)
O9 O 0.391(2) 0.5588(16) 0.6968(15)
O10 O 0.3973(15) 0.3004(17) 0.6118(18)
O11 O 0.326(2) 0.3811(17) 0.7597(18)
O12 O 0.260(2) 0.5170(16) 0.5309(18)
O13 O 0.250(2) 0.3479(14) 0.5599(16)
O14 O 0.6137(17) 0.3966(18) 0.6533(16)
O15 O 0.5578(16) 0.7492(19) 0.7007(13)
O16 O 0.2237(17) 0.0874(14) 0.2313(14)
O17 O 0.4785(15) 0.1631(16) 0.5597(17)
O18 O 0.2157(17) 0.2460(16) 0.3774(15)
O19 O 0.7002(18) 0.6956(18) 0.7537(16)
O20 O 0.3591(14) 0.1963(18) 0.4241(15)
O21 O 0.7724(17) 0.5880(18) 0.6578(16)
O22 O 0.3570(17) 0.7238(17) 0.6875(15)
O23 O 0.5763(15) 0.3010(18) 0.4689(14)
O24 O 0.0723(15) 0.3063(15) 0.4185(16)
Cu1 Cu 0.50000 0.00000 0.50000
Cu2 Cu 0.00000 0.00000 0.50000
C1 C 0.515(3) -0.049(3) 0.301(3)
H1 H 0.55920 -0.07500 0.31810
C2 C 0.413(2) 0.011(2) 0.3046(18)
H2 H 0.37060 0.03880 0.32130
C3 C 0.382(2) 0.015(2) 0.1422(17)
H3 H 0.44280 0.07140 0.13180
H4 H 0.33800 0.04470 0.16050
C4 C 0.310(2) -0.089(2) 0.0491(17)
C5 C 0.353(3) -0.119(3) -0.017(2)
H5 H 0.42880 -0.07840 -0.00320
C6 C 0.275(3) -0.217(3) -0.109(3)
H6 H 0.30070 -0.23330 -0.15890
C7 C 0.167(2) -0.286(2) -0.122(2)
C8 C 0.130(3) -0.254(2) -0.054(2)
H7 H 0.05470 -0.29890 -0.06550
C9 C 0.198(2) -0.159(2) 0.033(2)
H8 H 0.16840 -0.14280 0.07970
C10 C 0.099(2) -0.3861(18) -0.2155(19)
C11 C 0.135(2) -0.443(2) -0.267(2)
H9 H 0.20910 -0.41830 -0.24250
C12 C 0.063(3) -0.538(2) -0.355(2)
H10 H 0.09050 -0.57750 -0.38440
C13 C -0.0375(19) -0.5726(19) -0.398(2)
C14 C -0.082(3) -0.519(2) -0.347(2)
H11 H -0.15770 -0.54710 -0.37190
C15 C -0.014(2) -0.426(2) -0.259(2)
H12 H -0.04270 -0.38850 -0.22870
C16 C -0.114(2) -0.675(2) -0.4979(18)
H13 H -0.15640 -0.65860 -0.53870
H14 H -0.06940 -0.69130 -0.53040
C17 C -0.246(2) -0.904(2) -0.449(2)
H15 H -0.24510 -0.95450 -0.42530
C18 C -0.296(2) -0.813(2) -0.4976(18)
H16 H -0.33470 -0.78430 -0.51850
C19 C -0.095(3) 0.055(2) 0.353(3)
H17 H -0.02690 0.11940 0.36680
C20 C -0.225(2) -0.095(3) 0.355(3)
H18 H -0.26270 -0.15330 0.37320
C21 C -0.210(3) 0.059(3) 0.214(3)
H19 H -0.28940 0.01720 0.17800
H20 H -0.18300 0.13690 0.24730
C22 C -0.1508(19) 0.0458(17) 0.1449(16)
C23 C -0.2026(19) -0.0583(17) 0.0664(18)
H21 H -0.27600 -0.11430 0.05210
C24 C -0.144(2) -0.0780(17) 0.0092(16)
H22 H -0.17830 -0.14720 -0.04300
C25 C -0.0333(19) 0.0063(17) 0.0307(16)
C26 C 0.0186(16) 0.1104(17) 0.1092(16)
H23 H 0.09200 0.16640 0.12350
C27 C -0.0402(17) 0.1302(16) 0.1664(15)
H24 H -0.00580 0.19930 0.21860
N1 N 0.4669(15) -0.0161(15) 0.3608(14)
N2 N 0.496(3) -0.043(3) 0.221(2)
N3 N 0.429(2) -0.0069(18) 0.2268(13)
N4 N -0.3374(15) -0.9011(17) -0.4765(14)
N5 N -0.162(2) -0.831(2) -0.4582(17)
N6 N -0.1905(18) -0.7723(15) -0.4845(15)
N7 N -0.1153(19) -0.0185(16) 0.3949(15)
N8 N -0.192(2) 0.017(2) 0.2880(17)
N9 N -0.275(2) -0.079(2) 0.286(2)
O25 O 0.041(4) 0.906(4) 0.244(4)
O26 O 0.525(6) 0.442(6) 0.918(5)
W1A W 0.60187(10) 0.35366(9) 0.37089(9)
W1* W 0.39813(10) -0.35366(9) 0.62911(9)
W2A W 0.32657(10) 0.44923(10) 0.27328(9)
W2A* W 0.32657(10) -0.55077(10) 0.27328(9)
W3A W 0.79033(8) 0.62945(9) 0.55299(9)
W4A W 0.69002(8) 0.77710(8) 0.68258(8)
W4A* W 0.69002(8) -0.22290(8) 0.68258(8)
W5A W 0.61749(11) 0.57794(10) 0.32867(10)
W5A* W 0.61749(11) -0.42206(10) 0.32867(10)
W6A W 0.51567(9) -0.27406(8) 0.45499(8)
W6A* W 0.51567(9) 0.72594(8) 0.45499(8)
O1A O 0.489(3) 0.548(3) 0.424(2)
O1A* O 0.489(3) -0.452(3) 0.424(2)
O2A O 0.611(2) 0.584(2) 0.580(2)
O3A O -0.1171(16) -0.0501(17) 0.5691(17)
O4A O 0.478(2) 0.391(2) 0.456(2)
O4* O 0.522(2) -0.391(2) 0.544(2)
O5A O 0.593(3) 0.509(3) 0.455(2)
O6A O 0.0542(15) 0.1808(15) 0.5859(15)
O7A O 0.4618(16) 0.4944(17) 0.2517(17)
O8A O 0.240(2) 0.419(2) 0.1628(16)
O9A O 0.609(2) 0.4412(16) 0.3032(15)
O10A O 0.6027(15) -0.3004(17) 0.3882(18)
O10A* O 0.6027(15) 0.6996(17) 0.3882(18)
O11A O 0.674(2) 0.6189(17) 0.2403(18)
O12A O 0.740(2) 0.4830(16) 0.4691(18)
O13A O 0.750(2) 0.6521(14) 0.4401(16)
O14A O 0.3863(17) -0.3966(18) 0.3467(16)
O14A* O 0.3863(17) 0.6034(18) 0.3467(16)
O15A O 0.4422(16) 0.2508(19) 0.2993(13)
O16A O 0.7763(17) 0.9126(14) 0.7687(14)
O17A O 0.5215(15) -0.1631(16) 0.4403(17)
O17A* O 0.5215(15) 0.8369(16) 0.4403(17)
O18A O 0.7843(17) 0.7540(16) 0.6226(15)
O19A O 0.2998(18) 0.3044(18) 0.2463(16)
O20A O 0.6409(14) -0.1963(18) 0.5759(15)
O20A* O 0.6409(14) 0.8037(18) 0.5759(15)
O21A O 0.2276(17) 0.4120(18) 0.3422(16)
O22A O 0.6430(17) 0.2762(17) 0.3125(15)
O23A O 0.4237(15) -0.3010(18) 0.5311(14)
O23A* O 0.4237(15) 0.6990(18) 0.5311(14)
O24A O 0.9277(15) 0.6937(15) 0.5815(16)
Cu1* Cu -0.50000 -1.00000 -0.50000
Cu1** Cu 1.50000 1.00000 1.50000
Cu1*** Cu 0.50000 1.00000 0.50000
Cu2* Cu 0.00000 0.00000 -0.50000
C1A C 0.485(3) 0.049(3) 0.699(3)
H1A H 0.44080 0.07500 0.68190
C2A C 0.587(2) -0.011(2) 0.6954(18)
H2A H 0.62940 -0.03880 0.67870
C3A C 0.618(2) -0.015(2) 0.8578(17)
H3A H 0.55720 -0.07140 0.86820
H4A H 0.66200 -0.04470 0.83950
C4A C 0.690(2) 0.089(2) 0.9509(17)
C5A C 0.647(3) 0.119(3) 1.017(2)
H5A H 0.57120 0.07840 1.00320
C6A C 0.725(3) 0.217(3) 1.109(3)
H6A H 0.69930 0.23330 1.15890
C7A C 0.833(2) 0.286(2) 1.122(2)
C8A C 0.870(3) 0.254(2) 1.054(2)
H7A H 0.94530 0.29890 1.06550
C9A C 0.802(2) 0.159(2) 0.967(2)
H8A H 0.83160 0.14280 0.92030
C10A C 0.901(2) 0.3861(18) 1.2155(19)
C11A C 0.865(2) 0.443(2) 1.267(2)
H9A H 0.79090 0.41830 1.24250
C12A C 0.937(3) 0.538(2) 1.355(2)
H10A H 0.90950 0.57750 1.38440
C13A C 1.0375(19) 0.5726(19) 1.398(2)
C14A C 1.082(3) 0.519(2) 1.347(2)
H11A H 1.15770 0.54710 1.37190
C15A C 1.014(2) 0.426(2) 1.259(2)
H12A H 1.04270 0.38850 1.22870
C16A C 1.114(2) 0.675(2) 1.4979(18)
H13A H 1.15640 0.65860 1.53870
H14A H 1.06940 0.69130 1.53040
C17A C 1.246(2) 0.904(2) 1.449(2)
H15A H 1.24510 0.95450 1.42530
C18A C 1.296(2) 0.813(2) 1.4976(18)
H16A H 1.33470 0.78430 1.51850
C19A C 0.095(3) -0.055(2) -0.353(3)
H17A H 0.02690 -0.11940 -0.36680
C20A C 0.225(2) 0.095(3) -0.355(3)
H18A H 0.26270 0.15330 -0.37320
C21A C 0.210(3) -0.059(3) -0.214(3)
H19A H 0.28940 -0.01720 -0.17800
H20A H 0.18300 -0.13690 -0.24730
C22A C 0.1508(19) -0.0458(17) -0.1449(16)
C23A C 0.2026(19) 0.0583(17) -0.0664(18)
H21A H 0.27600 0.11430 -0.05210
C24A C 0.144(2) 0.0780(17) -0.0092(16)
H22A H 0.17830 0.14720 0.04300
C25A C 0.0333(19) -0.0063(17) -0.0307(16)
C26A C -0.0186(16) -0.1104(17) -0.1092(16)
H23A H -0.09200 -0.16640 -0.12350
C27A C 0.0402(17) -0.1302(16) -0.1664(15)
H24A H 0.00580 -0.19930 -0.21860
N1A N 0.5331(15) 0.0161(15) 0.6392(14)
N2A N 0.504(3) 0.043(3) 0.779(2)
N3A N 0.571(2) 0.0069(18) 0.7732(13)
N4A N 1.3374(15) 0.9011(17) 1.4765(14)
N4* N 0.6626(15) 0.0989(17) 0.5235(14)
N4A* N 0.3374(15) -0.0989(17) 0.4765(14)
N5A N 1.162(2) 0.831(2) 1.4582(17)
N6A N 1.1905(18) 0.7723(15) 1.4845(15)
N7A N 0.1153(19) 0.0185(16) -0.3949(15)
N7A* N 0.1153(19) 0.0185(16) 0.6051(15)
N8A N 0.192(2) -0.017(2) -0.2880(17)
N9A N 0.275(2) 0.079(2) -0.286(2)
#END
