
#######################################################################
#
#                 Cambridge Crystallographic Data Centre
#                                CCDC
#
#######################################################################
#
# If this CIF has been generated from an entry in the Cambridge
# Structural Database, then it will include bibliographic, chemical,
# crystal, experimental, refinement or atomic coordinate data resulting
# from the CCDC's data processing and validation procedures.
#
#######################################################################

data_CSD_CIF_HAVYOU
_audit_creation_date 2012-07-02
_audit_creation_method CSD-ConQuest-V1
_database_code_CSD HAVYOU
_database_code_depnum_ccdc_archive 'CCDC 810135'
_chemical_formula_sum 'C14 H46 Ag5 N7 O57 W12'
_chemical_formula_moiety
;
(C14 H20 Ag5 N2 O54 W12 5-)n,5n(H4 N1 1+),3n(H2 O1)
;
_journal_coden_Cambridge 1295
_journal_volume 17
_journal_year 2012
_journal_page_first 38
_journal_name_full 'Inorg.Chem.Commun. '
loop_
_publ_author_name
"Zheyu Zhang"
_chemical_name_systematic
;
catena-(pentakis(ammonium) 
bis(\m~3~-pyridine-3,5-dicarboxylato)-hexakis(\m~3~-oxo)-bis(\m~2~-hydroxo)-oc
tacosakis(\m~2~-oxo)-hexaaqua-tetraoxo-penta-silver(i)-dodeca-tungsten 
trihydrate)
;
_cell_volume   5770.385
_exptl_crystal_colour 'wheat'
_exptl_crystal_density_diffrn 4.517
_exptl_special_details
;
The H atoms on the anion were not located and have been placed arbitrarily on 
two bridging O atoms in the 2D diagram
;
_exptl_crystal_description 'block'
_diffrn_ambient_temperature 296
_refine_special_details
;
Ag3,OW4 disordered by symmetry over two sites with occupancy 0.50.

;
#These two values have been output from a single CSD field.
_refine_ls_R_factor_gt 0.0255
_refine_ls_wR_factor_gt 0.0255
_symmetry_cell_setting tetragonal
_symmetry_space_group_name_H-M 'P 41 21 2'
_symmetry_Int_Tables_number 92
loop_
_symmetry_equiv_pos_site_id
_symmetry_equiv_pos_as_xyz
1 x,y,z
2 1/2-y,1/2+x,1/4+z
3 1/2+x,1/2-y,3/4-z
4 -x,-y,1/2+z
5 y,x,-z
6 1/2+y,1/2-x,3/4+z
7 1/2-x,1/2+y,1/4-z
8 -y,-x,1/2-z
_cell_length_a 12.7031(4)
_cell_length_b 12.7031(4)
_cell_length_c 35.759(2)
_cell_angle_alpha 90
_cell_angle_beta 90
_cell_angle_gamma 90
_cell_formula_units_Z 4
loop_
_atom_type_symbol
_atom_type_radius_bond
C 0.68
H 0.23
Ag 1.45
N 0.68
O 0.68
W 1.37
loop_
_atom_site_label
_atom_site_type_symbol
_atom_site_fract_x
_atom_site_fract_y
_atom_site_fract_z
O1 O 0.5623(6) 0.1797(6) -0.0474(2)
O2 O 0.7036(6) 0.5318(6) -0.0056(2)
O3 O 0.5177(6) 0.5047(5) 0.0406(2)
O4 O 0.6813(6) 0.3542(6) 0.02950(19)
O5 O 0.4788(6) 0.3068(6) 0.0748(2)
O6 O 0.7534(6) 0.1796(6) -0.0106(2)
C1 C -0.2823(9) 0.1464(10) 0.1066(3)
O7 O 0.3822(6) 0.1419(6) -0.0070(2)
O8 O 0.4509(6) 0.3386(6) -0.0834(2)
O9 O -0.3883(6) -0.0061(7) 0.1089(3)
O10 O 0.5948(5) 0.4832(6) -0.1025(2)
O11 O 0.2859(6) 0.2976(6) -0.0427(2)
O12 O 0.6670(6) 0.3616(6) -0.0437(2)
O13 O 0.5724(6) 0.1672(6) 0.0292(2)
O14 O 0.4800(6) 0.3147(5) -0.00502(19)
O15 O 0.4757(7) 0.4090(7) 0.1445(2)
O16 O 0.3806(7) 0.1305(7) -0.0832(2)
O17 O 0.8236(7) 0.4997(6) 0.0576(2)
O18 O 0.6367(6) 0.4488(6) 0.09378(19)
O19 O 0.7951(7) 0.5112(6) -0.0773(2)
O20 O 0.6549(6) 0.6380(6) 0.0597(2)
O21 O 0.3959(6) 0.1024(7) 0.0676(2)
O22 O 0.7948(8) -0.0281(9) -0.0416(3)
O23 O 0.5897(8) -0.0466(7) 0.0158(3)
C2 C -0.1099(11) 0.2589(10) 0.0852(3)
H1 H -0.05180 0.29820 0.07770
O24 O 0.9056(8) 0.2629(8) -0.0814(3)
C3 C -0.3812(11) 0.0899(11) 0.1179(3)
N1 N -0.1744(10) 0.2991(8) 0.1115(3)
O25 O -0.4507(8) 0.1394(7) 0.1354(3)
C4 C -0.2671(11) 0.2451(10) 0.1217(4)
H2 H -0.31590 0.27490 0.13800
C5 C -0.2140(11) 0.1041(10) 0.0800(4)
H3 H -0.22650 0.03800 0.06980
Ag1 Ag 0.1464(2) 0.1773(2) -0.01773(8)
O26 O -0.0673(8) 0.0342(8) 0.0270(3)
O27 O 0.0154(10) 0.1879(9) 0.0280(3)
C6 C -0.0531(12) 0.1251(10) 0.0387(4)
C7 C -0.1265(11) 0.163(1) 0.0689(4)
N2 N 0.9140(8) 0.3680(8) 0.9880(3)
O28 O 0.1746(9) 0.1118(8) 0.0904(3)
N3 N 0.8383(9) 0.7516(9) 0.9576(3)
O29? O 0.3214(8) 0.2122(8) 0.1406(3)
N4 N 0.3214(8) 0.2122(8) 0.1406(3)
W1 W 0.69443(3) 0.49956(4) 0.045469(11)
W2 W 0.67226(3) 0.50278(4) -0.057754(12)
W3 W 0.64041(3) 0.25313(3) -0.006048(13)
W4 W 0.41937(4) 0.22751(3) -0.051959(12)
W5 W 0.42385(4) 0.20730(3) 0.038700(12)
W6 W 0.48925(4) 0.43895(3) 0.097265(12)
Ag2 Ag 0.60165(10) -0.01284(11) -0.05139(3)
Ag3 Ag 0.95089(8) 0.43331(8) -0.10965(3)
O1D O 0.1797(6) 0.5623(6) 0.0474(2)
O1* O 0.5623(6) 1.1797(6) -0.0474(2)
O2D O 0.5318(6) 0.7036(6) 0.0056(2)
O3D O 0.5047(6) 0.5177(5) -0.0406(2)
O4D O 0.3542(6) 0.6813(6) -0.02950(19)
O5D O 0.3068(6) 0.4788(6) -0.0748(2)
O6D O 0.1796(6) 0.7534(6) 0.0106(2)
C1D C 1.1464(9) 0.7177(10) -0.1066(3)
O7D O 0.1419(6) 0.3822(6) 0.0070(2)
O8D O 0.3386(6) 0.4509(6) 0.0834(2)
O9D O 0.9939(6) 0.6117(7) -0.1089(3)
O9* O 0.6117(6) 0.9939(7) 0.1089(3)
O10D O 0.4832(5) 0.5948(6) 0.1025(2)
O11D O 0.2976(6) 0.2859(6) 0.0427(2)
O12D O 0.3616(6) 0.6670(6) 0.0437(2)
O13D O 0.1672(6) 0.5724(6) -0.0292(2)
O14D O 0.3147(6) 0.4800(5) 0.00502(19)
O15D O 0.4090(7) 0.4757(7) -0.1445(2)
O16B O 0.8806(7) 0.3695(7) -0.1668(2)
O16D O 0.1305(7) 0.3806(7) 0.0832(2)
O16A O 0.3695(7) 0.8806(7) 0.1668(2)
O17D O 0.4997(7) -0.1764(6) -0.0576(2)
O17D* O 0.4997(7) 0.8236(6) -0.0576(2)
O18D O 0.4488(6) 0.6367(6) -0.09378(19)
O19D O 0.5112(7) 0.7951(6) 0.0773(2)
O20D O 0.6380(6) 0.6549(6) -0.0597(2)
O21D O 1.1024(6) 0.3959(7) -0.0676(2)
O21D* O 0.1024(6) 0.3959(7) -0.0676(2)
O21* O 0.3959(6) 1.1024(7) 0.0676(2)
O22* O 0.7948(8) 0.9719(9) -0.0416(3)
O23* O 0.5897(8) 0.9534(7) 0.0158(3)
C2D C 1.2589(11) 0.8901(10) -0.0852(3)
H1D H 1.29820 0.94820 -0.07770
O24D O 0.2629(8) 0.9056(8) 0.0814(3)
C3D C 1.0899(11) 0.6188(11) -0.1179(3)
N1D N 1.2991(10) 0.8256(8) -0.1115(3)
O25E O 0.6394(8) -0.0493(7) -0.1146(3)
O25D O 1.1394(8) 0.5493(7) -0.1354(3)
O25E* O 0.6394(8) 0.9507(7) -0.1146(3)
C4D C 1.2451(11) 0.7329(10) -0.1217(4)
H2D H 1.27490 0.68410 -0.13800
C5D C 1.1041(11) 0.786(1) -0.0800(4)
H3D H 1.03800 0.77350 -0.06980
Ag1D Ag 0.1773(2) 0.1464(2) 0.01773(8)
Ag1* Ag 1.1464(2) 1.1773(2) -0.01773(8)
Ag1D* Ag 1.1773(2) 1.1464(2) 0.01773(8)
O26D O 1.0342(8) 0.9327(8) -0.0270(3)
O27D O 0.1879(10) 0.0154(9) -0.0280(3)
O27D* O 1.1879(10) 1.0154(9) -0.0280(3)
C6D C 1.1251(12) 0.9469(10) -0.0387(4)
C7D C 1.1630(11) 0.8735(10) -0.0689(4)
W1D W 0.49956(3) 0.69443(4) -0.045469(11)
W2D W 0.50278(3) 0.67226(4) 0.057754(12)
W3D W 0.25313(3) 0.64041(3) 0.006048(13)
W4D W 0.22751(4) 0.41937(3) 0.051959(12)
W5D W 0.20730(4) 0.42385(3) -0.038700(12)
W5D* W 1.20730(4) 0.42385(3) -0.038700(12)
W6D W 0.43895(4) 0.48925(3) -0.097265(12)
Ag2D Ag 0.98716(10) 0.60165(11) 0.05139(3)
Ag2A Ag -0.48716(10) 0.10165(11) 0.19861(3)
Ag2* Ag 0.60165(10) 0.98716(11) -0.05139(3)
Ag2B Ag 1.10165(10) 0.51284(11) -0.19861(3)
Ag3D Ag -0.56669(8) -0.04911(8) 0.10965(3)
Ag3B Ag 0.45089(8) 0.06669(8) -0.14035(3)
Ag3D* Ag 0.43331(8) -0.04911(8) 0.10965(3)
Ag3* Ag -0.04911(8) 0.43331(8) -0.10965(3)
Ag3A Ag 0.06669(8) 0.45089(8) 0.14035(3)
Ag3D** Ag 0.43331(8) 0.95089(8) 0.10965(3)
#END
