
#######################################################################
#
#                 Cambridge Crystallographic Data Centre
#                                CCDC
#
#######################################################################
#
# If this CIF has been generated from an entry in the Cambridge
# Structural Database, then it will include bibliographic, chemical,
# crystal, experimental, refinement or atomic coordinate data resulting
# from the CCDC's data processing and validation procedures.
#
#######################################################################

data_CSD_CIF_HAVZIP
_audit_creation_date 2012-07-02
_audit_creation_method CSD-ConQuest-V1
_database_code_CSD HAVZIP
_database_code_depnum_ccdc_archive 'CCDC 834821'
_chemical_formula_sum 'C52 H52 As2 Co2 N10 O70 W18'
_chemical_formula_moiety
;
(As2 O62 W18 6-)n,n(C32 H28 Co2 N6 O6 2+),2n(C10 H10 N2 2+),2n(H2 O1)
;
_journal_coden_Cambridge 1295
_journal_volume 17
_journal_year 2012
_journal_page_first 54
_journal_name_full 'Inorg.Chem.Commun. '
loop_
_publ_author_name
"Yuan Yang"
"Shuxia Liu"
"Congcong Li"
"Shujun Li"
"Guojian Ren"
"Feng Wei"
"Qun Tang"
_chemical_name_systematic
;
catena-(bis(4,4'-bipyridinium) 
tris(\m~2~-4,4'-bipyridine)-(\m~2~-oxalato)-diaqua-di-cobalt 
bis(\m~9~-arsenato)-hexatriacontakis(\m~2~-oxo)-octadecaoxo-octadeca-tungsten 
dihydrate)
;
_cell_volume   5373.450
_exptl_crystal_colour 'pink'
_exptl_crystal_density_diffrn 3.41
_exptl_crystal_description 'block'
_diffrn_ambient_temperature 293
#These two values have been output from a single CSD field.
_refine_ls_R_factor_gt 0.0489
_refine_ls_wR_factor_gt 0.0489
_symmetry_cell_setting monoclinic
_symmetry_space_group_name_H-M 'P 21/m'
_symmetry_Int_Tables_number 11
loop_
_symmetry_equiv_pos_site_id
_symmetry_equiv_pos_as_xyz
1 x,y,z
2 -x,1/2+y,-z
3 -x,-y,-z
4 x,-1/2-y,z
_cell_length_a 15.1316(6)
_cell_length_b 24.7369(7)
_cell_length_c 15.3613(8)
_cell_angle_alpha 90
_cell_angle_beta 110.847(5)
_cell_angle_gamma 90
_cell_formula_units_Z 2
loop_
_atom_type_symbol
_atom_type_radius_bond
C 0.68
H 0.23
As 1.21
Co 1.26
N 0.68
O 0.68
W 1.34
loop_
_atom_site_label
_atom_site_type_symbol
_atom_site_fract_x
_atom_site_fract_y
_atom_site_fract_z
As1 As 0.76655(17) 0.25000 0.3633(2)
As2 As 0.49754(17) 0.25000 0.3050(2)
W1 W 0.73142(5) 0.31825(3) 0.15260(6)
W2 W 0.46931(5) 0.31814(3) 0.09487(6)
W3 W 0.76542(5) 0.39319(3) 0.37020(7)
W4 W 0.53060(6) 0.32471(3) 0.51026(7)
W5 W 0.79425(6) 0.32495(3) 0.56748(7)
W6 W 0.50242(5) 0.39338(3) 0.31330(7)
W7 W 0.99653(8) 0.25000 0.54151(11)
W8 W 0.30657(8) 0.25000 0.39258(11)
W9 W 0.96700(5) 0.31797(3) 0.34271(7)
O1 O 1.0337(8) 0.3043(4) 0.4724(10)
O2 O 1.0916(12) 0.25000 0.6423(15)
O3 O 0.8832(10) 0.25000 0.3876(12)
O4 O 0.4396(10) 0.25000 0.0287(12)
O5 O 0.5957(7) 0.3128(4) 0.1046(9)
O6 O 0.5035(7) 0.3902(4) 0.4357(9)
O7 O 0.2445(13) 0.25000 0.4649(17)
O8 O 0.5074(7) 0.3669(4) 0.1995(9)
O9 O 0.4043(8) 0.3018(4) 0.4544(9)
O10 O 0.3801(11) 0.25000 0.2795(13)
O11 O 1.0019(12) 0.25000 0.3161(16)
O12 O 0.7437(7) 0.3628(4) 0.0743(10)
O13 O 0.7238(7) 0.3633(4) 0.2455(8)
O14 O 0.8616(7) 0.3129(4) 0.2304(9)
O15 O 0.9199(9) 0.3028(4) 0.5609(10)
O16 O 0.6360(8) 0.3992(3) 0.3568(9)
Co1 Co 0.89788(14) 0.52065(7) 0.11014(17)
W10 W 0.27940(5) 0.18185(3) 0.19530(7)
N1 N 0.9426(9) 0.5213(5) 0.2625(11)
O17 O 0.2203(11) 0.25000 0.1471(14)
O18 O 1.0395(7) 0.5091(4) 0.1222(9)
N2 N 0.7478(9) 0.5145(5) 0.0717(12)
O19 O 0.7977(7) 0.3905(4) 0.4951(10)
O20 O 0.5219(8) 0.3450(5) 0.6081(11)
O21 O 0.7397(10) 0.25000 0.0944(12)
N3 N 0.8984(9) 0.6060(5) 0.1116(11)
O22 O 0.7833(8) 0.4589(4) 0.3511(11)
O23 O 0.4274(9) 0.3603(4) 0.0030(9)
O24 O 0.5410(7) 0.1929(3) 0.3677(8)
O25 O 1.1187(7) 0.4841(4) 0.0297(9)
O26 O 0.8892(8) 0.4340(4) 0.1101(10)
O27 O 1.0440(7) 0.3615(4) 0.3176(10)
O28 O 0.4747(8) 0.4597(4) 0.2902(11)
O29 O 0.3520(7) 0.3124(4) 0.1183(9)
O30 O 0.7167(9) 0.25000 0.2429(12)
O31 O 0.7390(7) 0.3058(4) 0.4106(8)
O32 O 0.5126(10) 0.25000 0.2003(15)
O33 O 0.2462(8) 0.1965(4) 0.3045(9)
O34 O 0.3765(7) 0.3644(4) 0.2711(9)
O35 O 0.8865(7) 0.3662(4) 0.3779(10)
O36 O 0.1923(8) 0.1384(4) 0.1334(9)
O37 O 0.7781(12) 0.25000 0.5802(16)
C1 C 1.0238(11) 0.4714(6) 0.4001(14)
H1 H 1.06080 0.44180 0.42810
C2 C 0.9928(12) 0.5058(6) 0.4512(13)
C3 C 1.0441(11) 0.4983(6) 0.0436(14)
O38 O 0.8330(9) 0.3470(5) 0.6787(10)
C4 C 0.5957(11) 0.5210(5) -0.0416(14)
H2 H 0.56010 0.52970 -0.10300
C5 C 0.5519(10) 0.5019(6) 0.0150(13)
C6 C 1.0011(13) 0.4802(6) 0.3100(15)
H3 H 1.02610 0.45730 0.27670
C7 C 0.9030(12) 0.7220(5) 0.1160(14)
C8 C 0.7106(13) 0.4979(6) 0.1347(16)
H4 H 0.74790 0.49170 0.19670
C9 C 0.9376(14) 0.5490(7) 0.4078(18)
H5 H 0.91300 0.57230 0.44100
C10 C 0.6876(12) 0.5274(6) -0.0111(15)
H6 H 0.71290 0.54260 -0.05250
C11 C 0.9188(13) 0.5575(6) 0.3109(15)
H7 H 0.88940 0.58920 0.28250
C12 C 0.6116(14) 0.4904(7) 0.1014(16)
H8 H 0.58540 0.47630 0.14280
C13 C 0.9750(13) 0.6326(7) 0.1465(15)
H9 H 1.03080 0.61290 0.17030
C14 C 0.9827(14) 0.6911(8) 0.1523(18)
H10 H 1.04140 0.70740 0.18050
C15 C 0.8217(13) 0.6919(7) 0.0813(15)
H11 H 0.76390 0.70980 0.05900
C16 C 0.8222(15) 0.6357(7) 0.0780(17)
H12 H 0.76470 0.61810 0.05020
O39 O 0.5570(13) 0.25000 0.5351(14)
O40 O 0.6630(8) 0.3372(4) 0.5417(9)
O41 O 0.9991(11) 0.3639(6) 0.0639(14)
O42 O 0.014(2) 0.25000 0.122(3)
N4 N 0.2745(17) 0.5355(9) 0.254(2)
C17 C 0.3003(16) 0.4365(9) 0.498(2)
C18 C 0.2907(16) 0.4648(10) 0.4247(19)
C19 C 0.2459(14) 0.4465(8) 0.3361(18)
H13 H 0.21760 0.41270 0.32140
C20 C 0.2478(18) 0.4844(10) 0.271(2)
H14 H 0.21780 0.46850 0.21300
C21 C 0.367(2) 0.4481(11) 0.592(3)
H15 H 0.40580 0.47850 0.60160
N5 N 0.324(2) 0.3684(14) 0.662(2)
C22 C 0.2570(18) 0.3897(10) 0.504(2)
H16 H 0.21670 0.37660 0.44690
C23 C 0.2611(17) 0.3597(10) 0.574(2)
H17 H 0.21950 0.33070 0.56370
C24 C 0.312(2) 0.5411(11) 0.348(3)
H18 H 0.33790 0.57550 0.36130
C25 C 0.3740(19) 0.4164(12) 0.665(2)
H19 H 0.41620 0.42720 0.72250
C26 C 0.3237(18) 0.5166(10) 0.423(2)
H20 H 0.35560 0.53410 0.47940
W1C W 0.73142(5) 0.18175(3) 0.15260(6)
W2C W 0.46931(5) 0.18186(3) 0.09487(6)
W3C W 0.76542(5) 0.10681(3) 0.37020(7)
W4C W 0.53060(6) 0.17529(3) 0.51026(7)
W5C W 0.79425(6) 0.17505(3) 0.56748(7)
W6C W 0.50242(5) 0.10662(3) 0.31330(7)
W9C W 0.96700(5) 0.18203(3) 0.34271(7)
O1C O 1.0337(8) 0.1957(4) 0.4724(10)
O5C O 0.5957(7) 0.1872(4) 0.1046(9)
O6C O 0.5035(7) 0.1098(4) 0.4357(9)
O8C O 0.5074(7) 0.1331(4) 0.1995(9)
O9C O 0.4043(8) 0.1982(4) 0.4544(9)
O12C O 0.7437(7) 0.1372(4) 0.0743(10)
O13C O 0.7238(7) 0.1367(4) 0.2455(8)
O14C O 0.8616(7) 0.1871(4) 0.2304(9)
O15C O 0.9199(9) 0.1972(4) 0.5609(10)
O16C O 0.6360(8) 0.1008(3) 0.3568(9)
Co1B Co 1.10212(14) 0.47935(7) 0.88986(17)
Co1B* Co 1.10212(14) 0.47935(7) -0.11014(17)
Co1B** Co 0.10212(14) 0.47935(7) -0.11014(17)
Co1C Co 0.89788(14) 0.97935(7) 0.11014(17)
W10C W 0.27940(5) 0.31815(3) 0.19530(7)
N1B N 1.0574(9) 0.4787(5) 0.7375(11)
O18B O 0.9605(7) 0.4909(4) -0.1222(9)
O18B* O 0.9605(7) 0.4909(4) 0.8778(9)
N2B N 0.2522(9) 0.4855(5) -0.0717(12)
N2B* N 1.2522(9) 0.4855(5) 0.9283(12)
O19C O 0.7977(7) 0.1095(4) 0.4951(10)
O20C O 0.5219(8) 0.1550(5) 0.6081(11)
N3C N 0.8984(9) 0.8940(5) 0.1116(11)
N3B N 1.1016(9) 0.3940(5) 0.8884(11)
O22C O 0.7833(8) 0.0411(4) 0.3511(11)
O23C O 0.4274(9) 0.1397(4) 0.0030(9)
O24C O 0.5410(7) 0.3071(3) 0.3677(8)
O25B O 0.8813(7) 0.5159(4) -0.0297(9)
O25* O 1.1187(7) 0.4841(4) 1.0297(9)
O26B O 1.1108(8) 0.5660(4) 0.8899(10)
O27C O 1.0440(7) 0.1385(4) 0.3176(10)
O28C O 0.4747(8) 0.0403(4) 0.2902(11)
O29C O 0.3520(7) 0.1876(4) 0.1183(9)
O31C O 0.7390(7) 0.1942(4) 0.4106(8)
O33C O 0.2462(8) 0.3035(4) 0.3045(9)
O34C O 0.3765(7) 0.1356(4) 0.2711(9)
O35C O 0.8865(7) 0.1338(4) 0.3779(10)
O36C O 0.1923(8) 0.3616(4) 0.1334(9)
C1B C 0.9762(11) 0.5286(6) 0.5999(14)
H1B H 0.93920 0.55820 0.57190
C2B C 1.0072(12) 0.4942(6) 0.5488(13)
C3B C 0.9559(11) 0.5017(6) -0.0436(14)
O38C O 0.8330(9) 0.1530(5) 0.6787(10)
C4B C 0.4043(11) 0.4790(5) 0.0416(14)
H2B H 0.43990 0.47030 0.10300
C5B C 0.4481(10) 0.4981(6) -0.0150(13)
C6B C 0.9989(13) 0.5198(6) 0.6900(15)
H3B H 0.97390 0.54270 0.72330
C7C C 0.9030(12) 0.7780(5) 0.1160(14)
C8B C 0.2894(13) 0.5021(6) -0.1347(16)
H4B H 0.25210 0.50830 -0.19670
C9B C 1.0624(14) 0.4510(7) 0.5922(18)
H5B H 1.08700 0.42770 0.55900
C10B C 0.3124(12) 0.4726(6) 0.0111(15)
H6B H 0.28710 0.45740 0.05250
C11B C 1.0812(13) 0.4425(6) 0.6891(15)
H7B H 1.11060 0.41080 0.71750
C12B C 0.3884(14) 0.5096(7) -0.1014(16)
H8B H 0.41460 0.52370 -0.14280
C13C C 0.9750(13) 0.8674(7) 0.1465(15)
H9C H 1.03080 0.88710 0.17030
C14C C 0.9827(14) 0.8089(8) 0.1523(18)
H10C H 1.04140 0.79260 0.18050
C15C C 0.8217(13) 0.8081(7) 0.0813(15)
H11C H 0.76390 0.79020 0.05900
C16C C 0.8222(15) 0.8643(7) 0.0780(17)
H12C H 0.76470 0.88190 0.05020
O40C O 0.6630(8) 0.1628(4) 0.5417(9)
#END
