
#######################################################################
#
#                 Cambridge Crystallographic Data Centre
#                                CCDC
#
#######################################################################
#
# If this CIF has been generated from an entry in the Cambridge
# Structural Database, then it will include bibliographic, chemical,
# crystal, experimental, refinement or atomic coordinate data resulting
# from the CCDC's data processing and validation procedures.
#
#######################################################################

data_CSD_CIF_HAWDUG
_audit_creation_date 2012-07-02
_audit_creation_method CSD-ConQuest-V1
_database_code_CSD HAWDUG
_database_code_depnum_ccdc_archive 'CCDC 854473'
_chemical_formula_sum 'C34 H46 Ag2 N4 O12 S1'
_chemical_formula_moiety
;
(C20 H18 Ag1 N2 O6 S1 1-)n,n(C13 H16 Ag1 N2 O1 1+),n(C1 H4 O1),4n(H2 O1)
;
_journal_coden_Cambridge 1295
_journal_volume 17
_journal_year 2012
_journal_page_first 108
_journal_name_full 'Inorg.Chem.Commun. '
loop_
_publ_author_name
"Geng-Geng Luo"
"Dong-Xu Li"
"Dong-Liang Wu"
"Li Liu"
"Qing-Hua Zhao"
"Cheng Peng"
"Zi-Jing Xiao"
"Jing-Cao Dai"
_chemical_name_systematic
;
catena-((\m~2~-4,4'-propane-1,3-diyldipyridine)-aqua-silver 
(\m~2~-3-carboxy-4-oxybenzenesulfonato)-(\m~2~-4,4'-propane-1,3-diyldipyridine
)-silver methanol solvate tetrahydrate)
;
_cell_volume   3868.514
_exptl_crystal_density_diffrn 1.632
_diffrn_ambient_temperature 173
#These two values have been output from a single CSD field.
_refine_ls_R_factor_gt 0.0531
_refine_ls_wR_factor_gt 0.0531
_symmetry_cell_setting monoclinic
_symmetry_space_group_name_H-M 'P 21/c'
_symmetry_Int_Tables_number 14
loop_
_symmetry_equiv_pos_site_id
_symmetry_equiv_pos_as_xyz
1 x,y,z
2 -x,1/2+y,1/2-z
3 -x,-y,-z
4 x,-1/2-y,-1/2+z
_cell_length_a 17.256(3)
_cell_length_b 8.8829(13)
_cell_length_c 25.443(4)
_cell_angle_alpha 90
_cell_angle_beta 97.284(3)
_cell_angle_gamma 90
_cell_formula_units_Z 4
loop_
_atom_type_symbol
_atom_type_radius_bond
C 0.68
H 0.23
Ag 1.63
N 0.68
O 0.85
S 0.95
loop_
_atom_site_label
_atom_site_type_symbol
_atom_site_fract_x
_atom_site_fract_y
_atom_site_fract_z
Ag1 Ag 0.47133(3) 0.87080(5) 0.461901(16)
Ag2 Ag 0.02222(3) 0.92564(5) 0.053844(16)
C1 C 0.2197(6) 1.2714(11) 0.3428(3)
H1 H 0.23810 1.32780 0.37510
H2 H 0.17270 1.31960 0.32460
H3 H 0.26070 1.27040 0.31940
C2 C 0.2663(3) 1.0277(6) 0.5597(2)
C3 C 0.2521(3) 0.8943(6) 0.5856(2)
H4 H 0.24920 0.80160 0.56680
C4 C 0.2425(3) 0.8971(6) 0.6383(2)
H5 H 0.23340 0.80560 0.65580
C5 C 0.2458(3) 1.0311(7) 0.6662(2)
C6 C 0.2575(3) 1.1676(6) 0.6400(2)
C7 C 0.2680(2) 1.1620(6) 0.58711(19)
H6 H 0.27660 1.25300 0.56910
C8 C 0.2578(3) 1.3173(8) 0.6681(2)
C9 C 0.4081(3) 0.6458(6) 0.5362(2)
H7 H 0.35970 0.68090 0.51850
C10 C 0.4070(3) 0.5380(6) 0.5740(2)
H8 H 0.35850 0.50020 0.58230
C11 C 0.4762(3) 0.4835(5) 0.60028(19)
C12 C 0.5442(3) 0.5446(6) 0.5863(2)
H9 H 0.59320 0.50960 0.60300
C13 C 0.5417(3) 0.6548(6) 0.5487(2)
H10 H 0.58940 0.69730 0.54070
C14 C 0.4781(3) 0.3633(6) 0.6417(2)
H11 H 0.52680 0.30420 0.64200
H12 H 0.43360 0.29410 0.63230
C15 C 0.4741(3) 0.4262(6) 0.69697(19)
H13 H 0.51910 0.49420 0.70680
H14 H 0.42570 0.48590 0.69680
C16 C 0.4753(3) 0.3014(6) 0.73803(19)
H15 H 0.42940 0.23530 0.72890
H16 H 0.52290 0.23970 0.73740
C17 C 0.4739(3) 0.3636(5) 0.79267(19)
C18 C 0.5417(3) 0.3834(6) 0.8277(2)
H17 H 0.59050 0.35020 0.81840
C19 C 0.5378(3) 0.4507(6) 0.8754(2)
H18 H 0.58480 0.46330 0.89880
C20 C 0.4057(3) 0.4781(7) 0.8580(2)
H19 H 0.35750 0.50930 0.86880
C21 C 0.4051(3) 0.4127(7) 0.8093(2)
H20 H 0.35710 0.40100 0.78680
C22 C 0.0757(3) 0.7106(6) -0.0292(2)
H21 H 0.12530 0.75300 -0.01700
C23 C 0.0719(3) 0.5962(6) -0.0659(2)
H22 H 0.11800 0.56260 -0.07900
C24 C 0.0004(3) 0.5299(6) -0.0836(2)
C25 C -0.0637(3) 0.5888(6) -0.0636(2)
H23 H -0.11410 0.54860 -0.07480
C26 C -0.0558(3) 0.7030(6) -0.0282(2)
H24 H -0.10160 0.74110 -0.01570
C27 C -0.0072(3) 0.4015(6) -0.1219(2)
H25 H -0.05430 0.34230 -0.11670
H26 H 0.03870 0.33470 -0.11410
C28 C -0.0133(3) 0.4504(6) -0.1788(2)
H27 H 0.03550 0.50270 -0.18490
H28 H -0.05700 0.52260 -0.18630
C29 C -0.0270(3) 0.3147(6) -0.2173(2)
H29 H 0.01080 0.23380 -0.20580
H30 H -0.08030 0.27440 -0.21650
C30 C -0.0175(3) 0.3611(5) -0.2722(2)
C31 C 0.0555(3) 0.3845(7) -0.2872(2)
H31 H 0.10090 0.36470 -0.26300
C32 C 0.0629(3) 0.4364(7) -0.3370(2)
H32 H 0.11400 0.45250 -0.34610
C33 C -0.0688(3) 0.4384(7) -0.3597(2)
H33 H -0.11310 0.45450 -0.38530
C34 C -0.0806(3) 0.3887(7) -0.3105(2)
H34 H -0.13230 0.37290 -0.30250
N1 N 0.4743(2) 0.7047(5) 0.52275(16)
N2 N 0.4710(2) 0.4997(5) 0.89091(16)
N3 N 0.0123(2) 0.7648(5) -0.00996(16)
N4 N 0.0022(2) 0.4654(5) -0.37341(16)
O1 O 0.2024(3) 1.1253(6) 0.3560(2)
H35 H 0.21820 1.10680 0.38840
O2 O 0.1679(2) 0.9498(5) 0.05974(18)
H36 H 0.19810 0.98620 0.08560
H37 H 0.18220 0.98280 0.03110
O3 O 0.2389(3) 1.1414(4) 0.46551(16)
O4 O 0.2723(3) 0.6419(5) 0.40169(19)
H38 H 0.27340 0.72180 0.42010
H39 H 0.28370 0.66400 0.37110
O5 O 0.2698(2) 0.8783(4) 0.47300(15)
O6 O 0.2194(3) 0.5766(6) 0.7715(2)
H40 H 0.21260 0.53340 0.80040
H41 H 0.23020 0.50920 0.74990
O7 O 0.3700(2) 1.0627(5) 0.49762(17)
O8 O 0.3082(3) 0.8271(6) 0.79905(17)
H42 H 0.29000 0.89240 0.77640
H43 H 0.28290 0.74570 0.79260
O9 O 0.2632(2) 1.4359(5) 0.64413(17)
O10 O 0.2109(3) 1.4483(5) 0.46827(19)
H44 H 0.22260 1.35620 0.46470
H45 H 0.23250 1.50010 0.44610
O11 O 0.2520(2) 1.3090(5) 0.71766(16)
H46 H 0.24030 1.22000 0.72600
O12 O 0.2369(3) 1.0321(5) 0.71783(15)
S1 S 0.28816(7) 1.02732(15) 0.49398(5)
Ag1C Ag 0.47133(3) 0.62920(5) 0.961901(16)
Ag1B Ag 0.52867(3) 1.12920(5) 0.538099(16)
Ag2C Ag 0.02222(3) 0.57436(5) -0.446156(16)
N2C N 0.4710(2) 1.0003(5) 0.39091(16)
N4C N 0.0022(2) 1.0346(5) 0.12659(16)
O7B O 0.6300(2) 0.9373(5) 0.50238(17)
#END
