
#######################################################################
#
#                 Cambridge Crystallographic Data Centre
#                                CCDC
#
#######################################################################
#
# If this CIF has been generated from an entry in the Cambridge
# Structural Database, then it will include bibliographic, chemical,
# crystal, experimental, refinement or atomic coordinate data resulting
# from the CCDC's data processing and validation procedures.
#
#######################################################################

data_CSD_CIF_HAWVAE
_audit_creation_date 2012-07-02
_audit_creation_method CSD-ConQuest-V1
_database_code_CSD HAWVAE
_database_code_depnum_ccdc_archive 'CCDC 879212'
_chemical_formula_sum 'C17 H18 Gd1 N1 O9 S2'
_chemical_formula_moiety
;
(C12 H4 Gd1 O8 S2 1-)n,n(C5 H14 N1 O1 1+)
;
_journal_coden_Cambridge 9
_journal_volume 51
_journal_year 2012
_journal_page_first 523
_journal_name_full 'Inorg.Chem. '
loop_
_publ_author_name
"Cai-Hong Zhan"
"Fei Wang"
"Yao Kang"
"Jian Zhang"
_chemical_name_systematic
;
catena-(2-Hydroxy-N,N,N-trimethylethanaminium 
(\m~4~-thiophene-2,5-dicarboxylato)-(\m~2~-thiophene-2,5-dicarboxylato)-gadoli
nium)
;
_cell_volume   2101.272
_exptl_crystal_density_diffrn 1.902
_exptl_crystal_description 'block'
_diffrn_ambient_temperature 293
#These two values have been output from a single CSD field.
_refine_ls_R_factor_gt 0.0328
_refine_ls_wR_factor_gt 0.0328
_symmetry_cell_setting monoclinic
_symmetry_space_group_name_H-M 'P 21/c'
_symmetry_Int_Tables_number 14
loop_
_symmetry_equiv_pos_site_id
_symmetry_equiv_pos_as_xyz
1 x,y,z
2 -x,1/2+y,1/2-z
3 -x,-y,-z
4 x,-1/2-y,-1/2+z
_cell_length_a 11.6054(4)
_cell_length_b 16.2662(5)
_cell_length_c 12.0479(4)
_cell_angle_alpha 90
_cell_angle_beta 112.497(2)
_cell_angle_gamma 90
_cell_formula_units_Z 4
loop_
_atom_type_symbol
_atom_type_radius_bond
C 0.68
H 0.23
Gd 1.68
N 0.68
O 0.68
S 1.02
loop_
_atom_site_label
_atom_site_type_symbol
_atom_site_fract_x
_atom_site_fract_y
_atom_site_fract_z
Gd1 Gd 0.194172(18) 0.027350(13) 0.078247(18)
S1 S 0.05329(10) 0.21858(8) -0.28804(11)
S2 S 0.48992(11) 0.28305(8) 0.25164(11)
O1 O 0.1317(3) 0.0779(2) -0.1212(3)
O2 O -0.0589(3) 0.03046(19) -0.1540(3)
O3 O 0.0562(3) 0.36320(18) -0.4316(3)
O4 O -0.1424(3) 0.40046(19) -0.4758(3)
O5 O 0.2750(3) 0.1044(2) 0.2793(3)
O6 O 0.3393(3) 0.1400(2) 0.1365(3)
O7 O 0.6473(3) 0.4335(2) 0.2923(3)
O8 O 0.6231(3) 0.47571(19) 0.4575(3)
O9 O 0.8736(5) -0.0533(4) 0.5849(4)
H1 H 0.87440 -0.07840 0.64420
C1 C -0.0412(4) 0.1526(3) -0.2508(4)
C2 C -0.1628(4) 0.1766(3) -0.2980(4)
H2 H -0.22710 0.14850 -0.28630
C3 C -0.1797(4) 0.2490(3) -0.3668(4)
H3 H -0.25670 0.27400 -0.40570
C4 C -0.0715(4) 0.2783(3) -0.3703(4)
C5 C 0.0148(5) 0.0821(3) -0.1701(4)
C6 C -0.0506(4) 0.3533(3) -0.4304(4)
C7 C 0.3941(4) 0.2280(3) 0.3031(4)
C8 C 0.3839(4) 0.2645(3) 0.4008(4)
H4 H 0.33640 0.24320 0.44120
C9 C 0.4527(4) 0.3374(3) 0.4339(4)
H5 H 0.45450 0.37030 0.49760
C10 C 0.5168(4) 0.3549(3) 0.3624(4)
C11 C 0.3332(4) 0.1525(3) 0.2373(4)
C12 C 0.6001(4) 0.4257(3) 0.3709(4)
C13 C 0.7837(6) -0.0472(4) 0.3661(6)
H6 H 0.86610 -0.04610 0.36330
H7 H 0.73010 -0.07830 0.29700
C14 C 0.7925(7) -0.0938(5) 0.4791(6)
H8 H 0.71010 -0.09830 0.48130
H9 H 0.82320 -0.14890 0.47660
C15 C 0.6897(7) 0.0598(4) 0.2238(5)
H10 H 0.65670 0.11470 0.21160
H11 H 0.62520 0.02180 0.17940
H12 H 0.75710 0.05620 0.19640
C16 C 0.8367(6) 0.0972(5) 0.4190(6)
H13 H 0.80380 0.15200 0.41080
H14 H 0.90060 0.09490 0.38690
H15 H 0.87140 0.08230 0.50250
C17 C 0.6308(6) 0.0477(5) 0.3972(7)
H16 H 0.60210 0.10360 0.38800
H17 H 0.66020 0.03250 0.48050
H18 H 0.56330 0.01210 0.35130
N1 N 0.7358(4) 0.0394(3) 0.3529(4)
Gd1B Gd -0.194172(18) -0.027350(13) -0.078247(18)
Gd1C Gd 0.194172(18) 0.472650(13) -0.421753(18)
Gd1A Gd -0.194172(18) 0.527350(13) -0.578247(18)
Gd1A* Gd 0.805828(18) 0.527350(13) 0.421753(18)
O2B O 0.0589(3) -0.03046(19) 0.1540(3)
O3C O 0.0562(3) 0.13680(18) 0.0684(3)
O4A O 0.1424(3) -0.09954(19) -0.0242(3)
O7A O 0.3527(3) -0.0665(2) 0.2077(3)
O8A O 0.3769(3) -0.02429(19) 0.0425(3)
#END
