
#######################################################################
#
#                 Cambridge Crystallographic Data Centre
#                                CCDC
#
#######################################################################
#
# If this CIF has been generated from an entry in the Cambridge
# Structural Database, then it will include bibliographic, chemical,
# crystal, experimental, refinement or atomic coordinate data resulting
# from the CCDC's data processing and validation procedures.
#
#######################################################################

data_CSD_CIF_HAWVIM
_audit_creation_date 2012-07-02
_audit_creation_method CSD-ConQuest-V1
_database_code_CSD HAWVIM
_database_code_depnum_ccdc_archive 'CCDC 879214'
_chemical_formula_sum 'C17 H18 Eu1 N1 O9 S2'
_chemical_formula_moiety
;
(C12 H4 Eu1 O8 S2 1-)n,n(C5 H14 N1 O1 1+)
;
_journal_coden_Cambridge 9
_journal_volume 51
_journal_year 2012
_journal_page_first 523
_journal_name_full 'Inorg.Chem. '
loop_
_publ_author_name
"Cai-Hong Zhan"
"Fei Wang"
"Yao Kang"
"Jian Zhang"
_chemical_name_systematic
;
catena-(2-Hydroxy-N,N,N-trimethylethanaminium 
(\m~4~-thiophene-2,5-dicarboxylato)-(\m~2~-thiophene-2,5-dicarboxylato)-europi
um)
;
_cell_volume   2097.676
_exptl_crystal_density_diffrn 1.888
_exptl_crystal_description 'block'
_diffrn_ambient_temperature 293
#These two values have been output from a single CSD field.
_refine_ls_R_factor_gt 0.0377
_refine_ls_wR_factor_gt 0.0377
_symmetry_cell_setting monoclinic
_symmetry_space_group_name_H-M 'P 21/c'
_symmetry_Int_Tables_number 14
loop_
_symmetry_equiv_pos_site_id
_symmetry_equiv_pos_as_xyz
1 x,y,z
2 -x,1/2+y,1/2-z
3 -x,-y,-z
4 x,-1/2-y,-1/2+z
_cell_length_a 11.5776(8)
_cell_length_b 16.2984(11)
_cell_length_c 12.0326(9)
_cell_angle_alpha 90
_cell_angle_beta 112.500(2)
_cell_angle_gamma 90
_cell_formula_units_Z 4
loop_
_atom_type_symbol
_atom_type_radius_bond
C 0.68
H 0.23
Eu 1.68
N 0.68
O 0.68
S 1.02
loop_
_atom_site_label
_atom_site_type_symbol
_atom_site_fract_x
_atom_site_fract_y
_atom_site_fract_z
Eu1 Eu -0.80580(3) 0.027221(18) -0.42190(2)
S1 S -0.94630(14) 0.21823(10) -0.78859(14)
S2 S -0.51031(16) 0.28276(11) -0.24847(15)
O1 O -0.8671(4) 0.0781(3) -0.6228(3)
O2 O -1.0576(4) 0.0309(3) -0.6540(4)
O3 O -0.9441(4) 0.3629(2) -0.9324(4)
O4 O -1.1434(4) 0.3995(3) -0.9773(4)
O5 O -0.7249(4) 0.1042(3) -0.2190(4)
O6 O -0.6586(4) 0.1394(3) -0.3613(4)
O7 O -0.3542(4) 0.4332(3) -0.2084(4)
O8 O -0.3787(4) 0.4759(3) -0.0433(4)
O9 O -0.1277(6) -0.0532(5) 0.0843(6)
H1 H -0.12630 -0.07800 0.14410
C1 C -1.0415(6) 0.1522(4) -0.7511(5)
C2 C -1.1637(6) 0.1762(4) -0.7983(6)
H2 H -1.22790 0.14820 -0.78630
C3 C -1.1811(6) 0.2483(4) -0.8670(6)
H3 H -1.25840 0.27320 -0.90570
C4 C -1.0714(5) 0.2780(4) -0.8708(5)
C5 C -0.9845(6) 0.0828(4) -0.6717(5)
C6 C -1.0512(6) 0.3527(4) -0.9313(5)
C7 C -0.6060(6) 0.2277(4) -0.1968(5)
C8 C -0.6165(6) 0.2648(4) -0.0976(5)
H4 H -0.66340 0.24370 -0.05640
C9 C -0.5480(6) 0.3378(4) -0.0668(5)
H5 H -0.54670 0.37150 -0.00400
C10 C -0.4843(5) 0.3542(4) -0.1373(5)
C11 C -0.6678(5) 0.1523(4) -0.2621(6)
C12 C -0.4011(5) 0.4255(4) -0.1293(6)
C13 C -0.2182(8) -0.0476(5) -0.1349(7)
H6 H -0.13560 -0.04680 -0.13770
H7 H -0.27230 -0.07860 -0.20400
C14 C -0.2099(10) -0.0934(6) -0.0204(8)
H8 H -0.29250 -0.09670 -0.01770
H9 H -0.18060 -0.14890 -0.02250
C15 C -0.3118(9) 0.0608(6) -0.2765(7)
H10 H -0.34440 0.11560 -0.28760
H11 H -0.37670 0.02330 -0.32180
H12 H -0.24430 0.05750 -0.30400
C16 C -0.1632(8) 0.0968(6) -0.0799(8)
H13 H -0.19590 0.15160 -0.08800
H14 H -0.09900 0.09440 -0.11190
H15 H -0.12870 0.08180 0.00360
C17 C -0.3702(8) 0.0477(6) -0.1042(9)
H16 H -0.39840 0.10360 -0.11360
H17 H -0.34140 0.03260 -0.02080
H18 H -0.43800 0.01250 -0.15050
N1 N -0.2656(6) 0.0390(4) -0.1472(5)
Eu1B Eu -1.19420(3) -0.027221(18) -0.57810(2)
Eu1C Eu -0.80580(3) 0.472779(18) -0.92190(2)
Eu1A Eu -1.19420(3) 0.527221(18) -1.07810(2)
Eu1A* Eu -0.19420(3) 0.527221(18) -0.07810(2)
O2B O -0.9424(4) -0.0309(3) -0.3460(4)
O3C O -0.9441(4) 0.1371(2) -0.4324(4)
O4A O -0.8566(4) -0.1005(3) -0.5227(4)
O7A O -0.6458(4) -0.0668(3) -0.2916(4)
O8A O -0.6213(4) -0.0241(3) -0.4567(4)
#END
