
#######################################################################
#
#                 Cambridge Crystallographic Data Centre
#                                CCDC
#
#######################################################################
#
# If this CIF has been generated from an entry in the Cambridge
# Structural Database, then it will include bibliographic, chemical,
# crystal, experimental, refinement or atomic coordinate data resulting
# from the CCDC's data processing and validation procedures.
#
#######################################################################

data_CSD_CIF_HAWVEI
_audit_creation_date 2012-07-02
_audit_creation_method CSD-ConQuest-V1
_database_code_CSD HAWVEI
_database_code_depnum_ccdc_archive 'CCDC 879213'
_chemical_formula_sum 'C17 H18 N1 Nd1 O9 S2'
_chemical_formula_moiety
;
(C12 H4 Nd1 O8 S2 1-)n,n(C5 H14 N1 O1 1+)
;
_journal_coden_Cambridge 9
_journal_volume 51
_journal_year 2012
_journal_page_first 523
_journal_name_full 'Inorg.Chem. '
loop_
_publ_author_name
"Cai-Hong Zhan"
"Fei Wang"
"Yao Kang"
"Jian Zhang"
_chemical_name_systematic
;
catena-(2-Hydroxy-N,N,N-trimethylethanaminium 
(\m~4~-thiophene-2,5-dicarboxylato)-(\m~2~-thiophene-2,5-dicarboxylato)-neodym
ium)
;
_cell_volume   2133.213
_exptl_crystal_density_diffrn 1.833
_exptl_crystal_description 'block'
_diffrn_ambient_temperature 293
#These two values have been output from a single CSD field.
_refine_ls_R_factor_gt 0.0401
_refine_ls_wR_factor_gt 0.0401
_symmetry_cell_setting monoclinic
_symmetry_space_group_name_H-M 'P 21/c'
_symmetry_Int_Tables_number 14
loop_
_symmetry_equiv_pos_site_id
_symmetry_equiv_pos_as_xyz
1 x,y,z
2 -x,1/2+y,1/2-z
3 -x,-y,-z
4 x,-1/2-y,-1/2+z
_cell_length_a 11.6005(3)
_cell_length_b 16.4488(5)
_cell_length_c 12.0828(4)
_cell_angle_alpha 90
_cell_angle_beta 112.295(2)
_cell_angle_gamma 90
_cell_formula_units_Z 4
loop_
_atom_type_symbol
_atom_type_radius_bond
C 0.68
H 0.23
N 0.68
Nd 2.01
O 0.68
S 1.02
loop_
_atom_site_label
_atom_site_type_symbol
_atom_site_fract_x
_atom_site_fract_y
_atom_site_fract_z
Nd1 Nd -0.80624(4) 0.02640(2) -0.42306(4)
S1 S -0.9455(2) 0.21759(13) -0.7899(2)
S2 S -0.5101(2) 0.28146(14) -0.2464(2)
O1 O -0.8627(6) 0.0794(3) -0.6259(5)
O2 O -1.0498(6) 0.0319(3) -0.6501(5)
O3 O -0.9452(6) 0.3612(3) -0.9320(5)
O4 O -1.1449(5) 0.3975(3) -0.9757(5)
O5 O -0.7248(5) 0.1042(3) -0.2187(5)
O6 O -0.6542(6) 0.1384(3) -0.3585(6)
O7 O -0.3554(5) 0.4320(3) -0.2092(6)
O8 O -0.3804(5) 0.4733(3) -0.0440(5)
O9 O -0.1311(9) -0.0550(6) 0.0828(9)
H1 H -0.13220 -0.08120 0.14010
C1 C -1.0387(8) 0.1524(5) -0.7504(7)
C2 C -1.1596(9) 0.1761(5) -0.7954(8)
H2 H -1.22270 0.14860 -0.78130
C3 C -1.1793(8) 0.2465(5) -0.8653(8)
H3 H -1.25700 0.27050 -0.90380
C4 C -1.0711(7) 0.2760(5) -0.8706(7)
C5 C -0.9791(9) 0.0833(5) -0.6703(8)
C6 C -1.0519(9) 0.3509(5) -0.9300(8)
C7 C -0.6048(7) 0.2257(5) -0.1948(8)
C8 C -0.6163(8) 0.2631(5) -0.0968(8)
H4 H -0.66490 0.24280 -0.05710
C9 C -0.5461(8) 0.3355(5) -0.0638(8)
H5 H -0.54230 0.36760 0.00100
C10 C -0.4843(7) 0.3535(5) -0.1370(7)
C11 C -0.6650(8) 0.1510(5) -0.2604(9)
C12 C -0.4011(7) 0.4239(5) -0.1301(10)
C13 C -0.2182(12) -0.0455(7) -0.1370(11)
H6 H -0.13460 -0.04460 -0.13690
H7 H -0.27050 -0.07530 -0.20750
C14 C -0.2151(14) -0.0918(9) -0.0271(13)
H8 H -0.29840 -0.09340 -0.02630
H9 H -0.18900 -0.14730 -0.03150
C15 C -0.3122(12) 0.0618(7) -0.2746(10)
H10 H -0.34420 0.11630 -0.28440
H11 H -0.37760 0.02500 -0.31900
H12 H -0.24590 0.05850 -0.30360
C16 C -0.1639(11) 0.0951(8) -0.0799(12)
H13 H -0.19550 0.14960 -0.08740
H14 H -0.09900 0.09240 -0.11080
H15 H -0.13110 0.07960 0.00290
C17 C -0.3685(11) 0.0489(8) -0.1006(13)
H16 H -0.39670 0.10420 -0.10980
H17 H -0.33790 0.03420 -0.01750
H18 H -0.43650 0.01380 -0.14500
N1 N -0.2646(8) 0.0398(5) -0.1474(8)
Nd1B Nd -1.19376(4) -0.02640(2) -0.57694(4)
Nd1C Nd -0.80624(4) 0.47360(2) -0.92306(4)
Nd1A Nd -1.19376(4) 0.52640(2) -1.07694(4)
Nd1A* Nd -0.19376(4) 0.52640(2) -0.07694(4)
O2B O -0.9502(6) -0.0319(3) -0.3499(5)
O3C O -0.9452(6) 0.1388(3) -0.4320(5)
O4A O -0.8551(5) -0.1025(3) -0.5243(5)
O7A O -0.6446(5) -0.0680(3) -0.2908(6)
O8A O -0.6196(5) -0.0267(3) -0.4560(5)
#END
