
#######################################################################
#
#                 Cambridge Crystallographic Data Centre
#                                CCDC
#
#######################################################################
#
# If this CIF has been generated from an entry in the Cambridge
# Structural Database, then it will include bibliographic, chemical,
# crystal, experimental, refinement or atomic coordinate data resulting
# from the CCDC's data processing and validation procedures.
#
#######################################################################

data_CSD_CIF_HAYDUH
_audit_creation_date 2006-01-24
_audit_creation_method CSD-ConQuest-V1
_database_code_CSD HAYDUH
_database_code_depnum_ccdc_archive 'CCDC 202101'
_chemical_formula_sum 'C32 H68 Cr2 N8 Na2 Ni2 O34'
_chemical_formula_moiety
;
(C10 H28 N4 Ni1 O2 2+)n,n(C10 H24 N4 Ni1 2+),n(C12 Cr2 Na2 O24 4-),8n(H2 O1)
;
_journal_coden_Cambridge 261
_journal_volume 8
_journal_year 2005
_journal_page_first 1543
_journal_name_full 'Comptes Rendus Chimie '
loop_
_publ_author_name
"Myunghyun Paik Suh"
"Joong Won Jeon"
"Hoi Ri Moon"
"Kil Sik Min"
"Hye Jin Choi"
_chemical_name_systematic
;
catena-(Diaqua-(1,4,8,11-tetra-azacyclotetradecane)-nickel(ii) 
(1,4,8,11-tetra-azacyclotetradecane)-nickel(ii) 
hexakis(\m~2~-oxalato)-di-chromium-di-sodium octahydrate)
;
_cell_volume   1445.648
_exptl_crystal_colour 'green-brown'
_exptl_crystal_density_diffrn 1.581
_diffrn_ambient_temperature 100
#These two values have been output from a single CSD field.
_refine_ls_R_factor_gt 0.0565
_refine_ls_wR_factor_gt 0.0565
_symmetry_cell_setting triclinic
_symmetry_space_group_name_H-M 'P -1'
_symmetry_Int_Tables_number 2
loop_
_symmetry_equiv_pos_site_id
_symmetry_equiv_pos_as_xyz
1 x,y,z
2 -x,-y,-z
_cell_length_a 9.565
_cell_length_b 9.829
_cell_length_c 18.272(1)
_cell_angle_alpha 91.057(1)
_cell_angle_beta 104.607(2)
_cell_angle_gamma 118.210(2)
_cell_formula_units_Z 1
loop_
_atom_type_symbol
_atom_type_radius_bond
C 0.68
H 0.23
Cr 1.35
N 0.68
Na 1.37
Ni 1.50
O 0.68
loop_
_atom_site_label
_atom_site_type_symbol
_atom_site_fract_x
_atom_site_fract_y
_atom_site_fract_z
Cr1 Cr 0.31314(7) 0.55887(7) 0.25408(3)
Na1 Na -0.01651(18) 0.90730(17) 0.25693(9)
O1 O 0.3444(3) 0.7416(3) 0.31804(15)
O2 O 0.1062(3) 0.5546(3) 0.19689(15)
O3 O -0.0348(3) 0.6824(3) 0.19800(17)
O4 O 0.2165(4) 0.8780(4) 0.32831(19)
O5 O 0.5336(3) 0.5970(3) 0.31561(15)
O6 O 0.4420(3) 0.6933(3) 0.18906(15)
O7 O 0.7039(4) 0.8290(4) 0.18475(17)
O8 O 0.8022(3) 0.7510(4) 0.32533(18)
O9 O 0.1957(3) 0.4114(3) 0.31730(16)
O10 O 0.2607(3) 0.3650(3) 0.19236(15)
O11 O 0.1278(4) 0.1046(3) 0.18827(19)
O12 O 0.0525(4) 0.1543(3) 0.32006(17)
C1 C 0.2245(5) 0.7728(4) 0.2972(2)
C2 C 0.0842(5) 0.6620(4) 0.2241(2)
C3 C 0.6533(5) 0.6950(5) 0.2919(2)
C4 C 0.5972(5) 0.7440(5) 0.2150(2)
C5 C 0.1369(5) 0.2669(5) 0.2919(2)
C6 C 0.1757(5) 0.2372(5) 0.2174(2)
Ni1 Ni 0.50000 0.00000 0.00000
N1 N 0.7139(4) 0.1992(4) 0.06313(19)
H1 H 0.69620 0.28340 0.05380
N2 N 0.4386(4) -0.0301(4) 0.10133(19)
H2 H 0.46430 -0.10440 0.12150
O13 O 0.6215(4) -0.1385(4) 0.03032(17)
C7 C 0.8512(6) 0.2430(6) -0.0398(3)
H3 H 0.96340 0.28900 -0.04640
H4 H 0.80820 0.31550 -0.05500
C8 C 0.8675(6) 0.2342(6) 0.0444(3)
H5 H 0.89650 0.15200 0.05860
H6 H 0.95940 0.33520 0.07520
C9 C 0.7266(6) 0.1852(5) 0.1452(2)
H7 H 0.80220 0.28920 0.17760
H8 H 0.77180 0.11470 0.16130
C10 C 0.5536(6) 0.1195(5) 0.1543(2)
H9 H 0.55740 0.10200 0.20780
H10 H 0.51360 0.19520 0.14290
C11 C 0.7395(6) 0.0888(6) -0.0942(3)
H11 H 0.77050 0.01010 -0.07520
H12 H 0.75660 0.10290 -0.14540
Ni2 Ni 0.50000 0.00000 0.50000
N3 N 0.5767(5) 0.1885(4) 0.4547(2)
H13 H 0.66560 0.26610 0.49320
N4 N 0.6326(4) -0.0514(4) 0.4530(2)
H14 H 0.55790 -0.12290 0.40900
C12 C 0.3892(7) 0.2755(7) 0.4838(3)
H15 H 0.47930 0.34300 0.53060
H16 H 0.32690 0.33040 0.46380
C13 C 0.4659(7) 0.2543(6) 0.4243(3)
H17 H 0.37660 0.18310 0.37820
H18 H 0.53060 0.35660 0.40910
C14 C 0.6495(7) 0.1686(6) 0.3949(3)
H19 H 0.56000 0.10480 0.34720
H20 H 0.72290 0.27190 0.38310
C15 C 0.7460(6) 0.0895(6) 0.4250(3)
H21 H 0.84640 0.16010 0.46740
H22 H 0.78070 0.05790 0.38410
C16 C 0.2767(7) 0.1280(6) 0.5046(3)
H23 H 0.21770 0.14880 0.53680
H24 H 0.19260 0.05600 0.45740
O14 O 0.7005(4) 0.5054(4) 0.06753(18)
O15 O 0.3642(4) 0.3600(4) 0.06044(18)
O16 O 0.9033(6) 0.6030(6) 0.4343(2)
O17 O 0.1467(4) 0.5272(4) 0.44074(18)
Cr1* Cr 1.31314(7) 0.55887(7) 0.25408(3)
Cr1** Cr -0.68686(7) 0.55887(7) 0.25408(3)
Cr1*** Cr 0.31314(7) 1.55887(7) 0.25408(3)
Na1* Na 0.98349(18) 0.90730(17) 0.25693(9)
Na1** Na -0.01651(18) -0.09270(17) 0.25693(9)
O1* O 1.3444(3) 0.7416(3) 0.31804(15)
O2* O 1.1062(3) 0.5546(3) 0.19689(15)
O3* O 0.9652(3) 0.6824(3) 0.19800(17)
O4* O 1.2165(4) 0.8780(4) 0.32831(19)
O5* O -0.4664(3) 0.5970(3) 0.31561(15)
O5** O 1.5336(3) 0.5970(3) 0.31561(15)
O6* O -0.5580(3) 0.6933(3) 0.18906(15)
O6** O 1.4420(3) 0.6933(3) 0.18906(15)
O7* O -0.2961(4) 0.8290(4) 0.18475(17)
O8* O -0.1978(3) 0.7510(4) 0.32533(18)
O9* O 0.1957(3) 1.4114(3) 0.31730(16)
O9** O 1.1957(3) 0.4114(3) 0.31730(16)
O10* O 0.2607(3) 1.3650(3) 0.19236(15)
O10** O 1.2607(3) 0.3650(3) 0.19236(15)
O11* O 0.1278(4) 1.1046(3) 0.18827(19)
O11** O 1.1278(4) 1.1046(3) 0.18827(19)
O12* O 0.0525(4) 1.1543(3) 0.32006(17)
O12** O 1.0525(4) 1.1543(3) 0.32006(17)
C1* C 1.2245(5) 0.7728(4) 0.2972(2)
C2* C 1.0842(5) 0.6620(4) 0.2241(2)
C3* C -0.3467(5) 0.6950(5) 0.2919(2)
C4* C -0.4028(5) 0.7440(5) 0.2150(2)
C5* C 0.1369(5) 1.2669(5) 0.2919(2)
C6* C 0.1757(5) 1.2372(5) 0.2174(2)
N1A N 0.2861(4) -0.1992(4) -0.06313(19)
H1A H 0.30380 -0.28340 -0.05380
N2A N 0.5614(4) 0.0301(4) -0.10133(19)
H2A H 0.53570 0.10440 -0.12150
O13A O 0.3785(4) 0.1385(4) -0.03032(17)
C7A C 0.1488(6) -0.2430(6) 0.0398(3)
H3A H 0.03660 -0.28900 0.04640
H4A H 0.19180 -0.31550 0.05500
C8A C 0.1325(6) -0.2342(6) -0.0444(3)
H5A H 0.10350 -0.15200 -0.05860
H6A H 0.04060 -0.33520 -0.07520
C9A C 0.2734(6) -0.1852(5) -0.1452(2)
H7A H 0.19780 -0.28920 -0.17760
H8A H 0.22820 -0.11470 -0.16130
C10A C 0.4464(6) -0.1195(5) -0.1543(2)
H9A H 0.44260 -0.10200 -0.20780
H10A H 0.48640 -0.19520 -0.14290
C11A C 0.2605(6) -0.0888(6) 0.0942(3)
H11A H 0.22950 -0.01010 0.07520
H12A H 0.24340 -0.10290 0.14540
N3A N 0.4233(5) -0.1885(4) 0.5453(2)
H13A H 0.33440 -0.26610 0.50680
N4A N 0.3674(4) 0.0514(4) 0.5470(2)
H14A H 0.44210 0.12290 0.59100
C12A C 0.6108(7) -0.2755(7) 0.5162(3)
H15A H 0.52070 -0.34300 0.46940
H16A H 0.67310 -0.33040 0.53620
C13A C 0.5341(7) -0.2543(6) 0.5757(3)
H17A H 0.62340 -0.18310 0.62180
H18A H 0.46940 -0.35660 0.59090
C14A C 0.3505(7) -0.1686(6) 0.6051(3)
H19A H 0.44000 -0.10480 0.65280
H20A H 0.27710 -0.27190 0.61690
C15A C 0.2540(6) -0.0895(6) 0.5750(3)
H21A H 0.15360 -0.16010 0.53260
H22A H 0.21930 -0.05790 0.61590
C16A C 0.7233(7) -0.1280(6) 0.4954(3)
H23A H 0.78230 -0.14880 0.46320
H24A H 0.80740 -0.05600 0.54260
#END
