
#######################################################################
#
#                 Cambridge Crystallographic Data Centre
#                                CCDC
#
#######################################################################
#
# If this CIF has been generated from an entry in the Cambridge
# Structural Database, then it will include bibliographic, chemical,
# crystal, experimental, refinement or atomic coordinate data resulting
# from the CCDC's data processing and validation procedures.
#
#######################################################################

data_CSD_CIF_HAYGAQ
_audit_creation_date 2006-01-24
_audit_creation_method CSD-ConQuest-V1
_database_code_CSD HAYGAQ
_database_code_depnum_ccdc_archive 'CCDC 259132'
_chemical_formula_sum 'C18 H38 Co3 N6 O22 P2'
_chemical_formula_moiety
;
(C4 H12 Co1 N2 O4 2+)n,n(C14 H22 Co2 N4 O16 P2 2-),2n(H2 O1)
;
_journal_coden_Cambridge 119
_journal_volume 754
_journal_year 2005
_journal_page_first 51
_journal_name_full 'J.Mol.Struct. '
loop_
_publ_author_name
"Fa-Nian Shi"
"F.A.A.Paz"
"P.I.Girginova"
"L.Mafra"
"V.S.Amaral"
"J.Rocha"
"A.Makal"
"K.Wozniak"
"J.Klinowski"
"T.Trindade"
_chemical_name_systematic
;
catena-((\m~2~-Pyrazine-N,N')-tetra-aqua-cobalt(ii) 
(\m~2~-pyrazine-N,N')-diaqua-bis(N-(phosphonomethyl)iminodiacetato-N,O,O',O'')
-di-cobalt(ii) dihydrate)
;
_cell_volume    829.114
_exptl_crystal_colour 'orange'
_exptl_crystal_density_diffrn 1.861
_exptl_crystal_description 'needle'
_diffrn_ambient_temperature 293
#These two values have been output from a single CSD field.
_refine_ls_R_factor_gt 0.041
_refine_ls_wR_factor_gt 0.041
_symmetry_cell_setting triclinic
_symmetry_space_group_name_H-M 'P -1'
_symmetry_Int_Tables_number 2
loop_
_symmetry_equiv_pos_site_id
_symmetry_equiv_pos_as_xyz
1 x,y,z
2 -x,-y,-z
_cell_length_a 7.0480(14)
_cell_length_b 10.674(2)
_cell_length_c 12.234(2)
_cell_angle_alpha 71.18(3)
_cell_angle_beta 79.85(3)
_cell_angle_gamma 72.86(3)
_cell_formula_units_Z 1
loop_
_atom_type_symbol
_atom_type_radius_bond
C 0.68
H 0.23
Co 1.33
N 0.68
O 0.68
P 1.05
loop_
_atom_site_label
_atom_site_type_symbol
_atom_site_fract_x
_atom_site_fract_y
_atom_site_fract_z
Co1 Co 1.25978(13) 0.41883(9) 0.23970(7)
O1 O 1.0553(6) 0.5995(5) 0.2697(4)
H1 H 0.942(4) 0.596(7) 0.261(5)
H2 H 1.047(7) 0.630(7) 0.326(4)
N1 N 1.4382(7) 0.3592(5) 0.3834(4)
N2 N 1.1123(8) 0.4622(6) 0.0930(4)
P1 P 1.1137(3) 0.25715(19) 0.47572(16)
O2 O 1.0651(6) 0.3130(4) 0.3528(3)
O3 O 0.9459(6) 0.2786(5) 0.5669(4)
O4 O 1.2194(7) 0.1005(4) 0.4941(4)
H3 H 1.25(1) 0.041(6) 0.569(3)
O5 O 1.4528(7) 0.2447(5) 0.2080(4)
O6 O 1.6730(8) 0.0535(6) 0.2908(5)
O7 O 1.4603(6) 0.5349(5) 0.1654(4)
O8 O 1.6908(6) 0.6131(5) 0.2047(4)
C1 C 1.2984(9) 0.3382(7) 0.4894(5)
H4 H 1.23150 0.42590 0.50330
H5 H 1.37270 0.28130 0.55550
C2 C 1.5909(9) 0.2325(7) 0.3775(5)
H6 H 1.58460 0.16390 0.45190
H7 H 1.72120 0.25070 0.36470
C3 C 1.5716(11) 0.1741(9) 0.2840(7)
C4 C 1.5281(10) 0.4749(7) 0.3616(5)
H8 H 1.65300 0.44130 0.39720
H9 H 1.43980 0.54120 0.39860
C5 C 1.5670(11) 0.5456(7) 0.2345(6)
C6 C 0.9826(10) 0.3948(7) 0.0910(6)
H10 H 0.96600 0.32040 0.15380
C7 C 1.1282(9) 0.5674(7) 0.0021(6)
H11 H 1.21670 0.61760 0.00070
Co2 Co 0.50000 0.00000 0.00000
O9 O 0.4959(7) -0.0629(5) 0.1793(4)
H12 H 0.562(7) -0.016(6) 0.192(6)
H13 H 0.386(5) -0.055(7) 0.219(5)
O10 O 0.5905(8) -0.1998(4) -0.0033(4)
H14 H 0.573(10) -0.236(5) -0.051(4)
H15 H 0.629(10) -0.259(4) 0.058(3)
N3 N 0.1959(8) -0.0017(6) 0.0028(5)
C8 C 0.0737(11) 0.1038(8) -0.0627(6)
H16 H 0.12090 0.17880 -0.10790
C9 C 0.1226(10) -0.1062(7) 0.0662(6)
H17 H 0.20400 -0.18220 0.11370
O11 O 0.1540(12) 0.9752(9) 0.3174(6)
H18 H 0.244(15) 0.913(9) 0.354(9)
H19 H 0.107(16) 1.034(8) 0.354(9)
Co1A Co 0.74022(13) 0.58117(9) -0.23970(7)
O1A O 0.9447(6) 0.4005(5) -0.2697(4)
H1A H 1.058(4) 0.404(7) -0.261(5)
H2A H 0.953(7) 0.370(7) -0.326(4)
N1A N 0.5618(7) 0.6408(5) -0.3834(4)
N2A N 0.8877(8) 0.5378(6) -0.0930(4)
P1A P 0.8863(3) 0.74285(19) -0.47572(16)
O2A O 0.9349(6) 0.6870(4) -0.3528(3)
O3A O 1.0541(6) 0.7214(5) -0.5669(4)
O4A O 0.7806(7) 0.8995(4) -0.4941(4)
H3A H 0.75(1) 0.959(6) -0.569(3)
O5A O 0.5472(7) 0.7553(5) -0.2080(4)
O6A O 0.3270(8) 0.9465(6) -0.2908(5)
O7A O 0.5397(6) 0.4651(5) -0.1654(4)
O8A O 0.3092(6) 0.3869(5) -0.2047(4)
C1A C 0.7016(9) 0.6618(7) -0.4894(5)
H4A H 0.76850 0.57410 -0.50330
H5A H 0.62730 0.71870 -0.55550
C2A C 0.4091(9) 0.7675(7) -0.3775(5)
H6A H 0.41540 0.83610 -0.45190
H7A H 0.27880 0.74930 -0.36470
C3A C 0.4284(11) 0.8259(9) -0.2840(7)
C4A C 0.4719(10) 0.5251(7) -0.3616(5)
H8A H 0.34700 0.55870 -0.39720
H9A H 0.56020 0.45880 -0.39860
C5A C 0.4330(11) 0.4544(7) -0.2345(6)
C6A C 1.0174(10) 0.6052(7) -0.0910(6)
H10A H 1.03400 0.67960 -0.15380
C7A C 0.8718(9) 0.4326(7) -0.0021(6)
H11A H 0.78330 0.38240 -0.00070
Co2* Co -0.50000 0.00000 0.00000
O9A O 0.5041(7) 0.0629(5) -0.1793(4)
H12A H 0.438(7) 0.016(6) -0.192(6)
H13A H 0.614(5) 0.055(7) -0.219(5)
O10A O 0.4095(8) 0.1998(4) 0.0033(4)
H14A H 0.427(10) 0.236(5) 0.051(4)
H15A H 0.371(10) 0.259(4) -0.058(3)
N3A N -0.1959(8) 0.0017(6) -0.0028(5)
N3A* N 0.8041(8) 0.0017(6) -0.0028(5)
C8A C -0.0737(11) -0.1038(8) 0.0627(6)
H16A H -0.12090 -0.17880 0.10790
C9A C -0.1226(10) 0.1062(7) -0.0662(6)
H17A H -0.20400 0.18220 -0.11370
#END
