
#######################################################################
#
#                 Cambridge Crystallographic Data Centre
#                                CCDC
#
#######################################################################
#
# If this CIF has been generated from an entry in the Cambridge
# Structural Database, then it will include bibliographic, chemical,
# crystal, experimental, refinement or atomic coordinate data resulting
# from the CCDC's data processing and validation procedures.
#
#######################################################################

data_CSD_CIF_HAYGEU
_audit_creation_date 2006-01-24
_audit_creation_method CSD-ConQuest-V1
_database_code_CSD HAYGEU
_database_code_depnum_ccdc_archive 'CCDC 259133'
_chemical_formula_sum 'C18 H38 N6 Ni3 O22 P2'
_chemical_formula_moiety
;
(C4 H12 N2 Ni1 O4 2+)n,n(C14 H22 N4 Ni2 O16 P2 2-),2n(H2 O1)
;
_journal_coden_Cambridge 119
_journal_volume 754
_journal_year 2005
_journal_page_first 51
_journal_name_full 'J.Mol.Struct. '
loop_
_publ_author_name
"Fa-Nian Shi"
"F.A.A.Paz"
"P.I.Girginova"
"L.Mafra"
"V.S.Amaral"
"J.Rocha"
"A.Makal"
"K.Wozniak"
"J.Klinowski"
"T.Trindade"
_chemical_name_systematic
;
catena-((\m~2~-Pyrazine-N,N')-tetra-aqua-nickel(ii) 
(\m~2~-pyrazine-N,N')-diaqua-bis(N-(phosphonomethyl)iminodiacetato-N,O,O',O'')
-di-nickel(ii) dihydrate)
;
_cell_volume    813.949
_exptl_crystal_colour 'green'
_exptl_crystal_density_diffrn 1.894
_exptl_crystal_description 'needles'
_diffrn_ambient_temperature 293
#These two values have been output from a single CSD field.
_refine_ls_R_factor_gt 0.0305
_refine_ls_wR_factor_gt 0.0305
_symmetry_cell_setting triclinic
_symmetry_space_group_name_H-M 'P -1'
_symmetry_Int_Tables_number 2
loop_
_symmetry_equiv_pos_site_id
_symmetry_equiv_pos_as_xyz
1 x,y,z
2 -x,-y,-z
_cell_length_a 6.9600(14)
_cell_length_b 10.680(2)
_cell_length_c 12.140(2)
_cell_angle_alpha 71.13(3)
_cell_angle_beta 80.85(3)
_cell_angle_gamma 72.86(3)
_cell_formula_units_Z 1
loop_
_atom_type_symbol
_atom_type_radius_bond
C 0.68
H 0.23
N 0.68
Ni 1.50
O 0.68
P 1.05
loop_
_atom_site_label
_atom_site_type_symbol
_atom_site_fract_x
_atom_site_fract_y
_atom_site_fract_z
Ni1 Ni 0.74350(5) 0.58144(4) 0.75818(3)
O1 O 0.9425(3) 0.4013(2) 0.72950(18)
H1 H 0.941(4) 0.365(3) 0.678(2)
H2 H 1.061(2) 0.402(3) 0.735(3)
N1 N 0.5670(3) 0.6402(2) 0.61687(18)
N2 N 0.8900(3) 0.5369(2) 0.90372(19)
O2 O 0.9413(3) 0.6862(2) 0.64933(16)
O3 O 1.0590(3) 0.7198(2) 0.43479(17)
O4 O 0.7843(3) 0.8993(2) 0.50359(18)
H3 H 0.751(5) 0.950(3) 0.4265(13)
O5 O 0.5589(3) 0.7565(2) 0.78930(17)
O6 O 0.3325(4) 0.9484(2) 0.7062(2)
O7 O 0.5381(3) 0.4732(2) 0.83578(16)
O8 O 0.3126(3) 0.3884(2) 0.79435(16)
P1 P 0.89111(11) 0.74201(7) 0.52452(6)
C1 C 0.7040(4) 0.6611(3) 0.5099(2)
H4 H 0.62650 0.71840 0.44340
H5 H 0.77120 0.57340 0.49610
C2 C 0.4101(4) 0.7685(3) 0.6210(2)
H6 H 0.27890 0.74940 0.63600
H7 H 0.41210 0.83590 0.54510
C3 C 0.4357(4) 0.8292(3) 0.7123(3)
C4 C 0.4760(4) 0.5254(3) 0.6365(2)
H8 H 0.56580 0.45780 0.60150
H9 H 0.35000 0.55910 0.59900
C5 C 0.4367(4) 0.4582(3) 0.7655(2)
C6 C 1.0209(4) 0.6036(3) 0.9076(2)
H10 H 1.03870 0.67730 0.84410
C7 C 0.8689(4) 0.4333(3) 0.9969(2)
H11 H 0.77760 0.38450 0.99790
Ni2 Ni 0.50000 0.00000 1.00000
O9 O 0.4986(3) -0.0637(2) 1.17759(17)
H12 H 0.572(3) -0.031(3) 1.203(2)
H13 H 0.389(3) -0.059(3) 1.217(2)
O10 O 0.4043(3) 0.19860(19) 1.00314(17)
H14 H 0.386(5) 0.265(2) 0.9435(14)
H15 H 0.418(5) 0.221(3) 1.0604(16)
N3 N 0.1993(3) -0.0016(2) 1.0025(2)
C8 C 0.1268(4) -0.1065(3) 1.0662(3)
H16 H 0.21150 -0.18280 1.11370
C9 C 0.0703(4) 0.1054(3) 0.9362(3)
H17 H 0.11530 0.18120 0.89050
O11 O 0.1660(7) 0.9691(4) 0.3170(3)
H18 H 0.129(11) 1.051(2) 0.274(4)
H19 H 0.193(10) 0.970(6) 0.382(3)
Ni1A Ni 1.25650(5) 0.41856(4) 1.24182(3)
O1A O 1.0575(3) 0.5987(2) 1.27050(18)
H1A H 1.059(4) 0.635(3) 1.322(2)
H2A H 0.939(2) 0.598(3) 1.265(3)
N1A N 1.4330(3) 0.3598(2) 1.38313(18)
N2A N 1.1100(3) 0.4631(2) 1.09628(19)
O2A O 1.0587(3) 0.3138(2) 1.35067(16)
O3A O 0.9410(3) 0.2802(2) 1.56521(17)
O4A O 1.2157(3) 0.1007(2) 1.49641(18)
H3A H 1.249(5) 0.050(3) 1.5735(13)
O5A O 1.4411(3) 0.2435(2) 1.21070(17)
O6A O 1.6675(4) 0.0516(2) 1.2938(2)
O7A O 1.4619(3) 0.5268(2) 1.16422(16)
O8A O 1.6874(3) 0.6116(2) 1.20565(16)
P1A P 1.10889(11) 0.25799(7) 1.47548(6)
C1A C 1.2960(4) 0.3389(3) 1.4901(2)
H4A H 1.37350 0.28160 1.55660
H5A H 1.22880 0.42660 1.50390
C2A C 1.5899(4) 0.2315(3) 1.3790(2)
H6A H 1.72110 0.25060 1.36400
H7A H 1.58790 0.16410 1.45490
C3A C 1.5643(4) 0.1708(3) 1.2877(3)
C4A C 1.5240(4) 0.4746(3) 1.3635(2)
H8A H 1.43420 0.54220 1.39850
H9A H 1.65000 0.44090 1.40100
C5A C 1.5633(4) 0.5418(3) 1.2345(2)
C6A C 0.9791(4) 0.3964(3) 1.0924(2)
H10A H 0.96130 0.32270 1.15590
C7A C 1.1311(4) 0.5667(3) 1.0031(2)
H11A H 1.22240 0.61550 1.00210
Ni2* Ni -0.50000 0.00000 1.00000
O9A O 0.5014(3) 0.0637(2) 0.82241(17)
H12A H 0.428(3) 0.031(3) 0.797(2)
H13A H 0.611(3) 0.059(3) 0.783(2)
O10A O 0.5957(3) -0.19860(19) 0.99686(17)
H14A H 0.614(5) -0.265(2) 1.0565(14)
H15A H 0.582(5) -0.221(3) 0.9396(16)
N3A N -0.1993(3) 0.0016(2) 0.9975(2)
N3A* N 0.8007(3) 0.0016(2) 0.9975(2)
C8A C -0.1268(4) 0.1065(3) 0.9338(3)
H16A H -0.21150 0.18280 0.88630
C9A C -0.0703(4) -0.1054(3) 1.0638(3)
H17A H -0.11530 -0.18120 1.10950
#END
