
#######################################################################
#
#                 Cambridge Crystallographic Data Centre
#                                CCDC
#
#######################################################################
#
# If this CIF has been generated from an entry in the Cambridge
# Structural Database, then it will include bibliographic, chemical,
# crystal, experimental, refinement or atomic coordinate data resulting
# from the CCDC's data processing and validation procedures.
#
#######################################################################

data_CSD_CIF_HAZVEM
_audit_creation_date 2017-09-19
_audit_creation_method CSD-ConQuest-V1
_database_code_CSD HAZVEM
_database_code_depnum_ccdc_archive 'CCDC 1538103'
_chemical_formula_sum 'C16 H14 Co1 K1 N3 O8'
_chemical_formula_moiety
;
C2 H8 N1 1+,n(C14 H6 Co1 K1 N2 O8 1-)
;
_journal_coden_Cambridge 1290
_journal_year 2017
_journal_page_first 3736
_journal_name_full 'Eur.J.Inorg.Chem. '
loop_
_publ_author_name
"Hien Mai Duy"
"Inme Lee"
"Sangdon Lee"
"Hyojong Yoo"
_chemical_name_systematic
;
catena-[dimethylammonium bis(\m-pyridine-2,6-dicarboxylato)-cobalt-potassium]
;
_cell_volume   1833.860
_exptl_crystal_colour 'brown purple'
_exptl_crystal_density_diffrn 1.718
_exptl_crystal_description 'block'
_diffrn_ambient_temperature 100
#These two values have been output from a single CSD field.
_refine_ls_R_factor_gt 0.0342
_refine_ls_wR_factor_gt 0.0342
_symmetry_cell_setting orthorhombic
_symmetry_space_group_name_H-M 'P n n a'
_symmetry_Int_Tables_number 52
loop_
_symmetry_equiv_pos_site_id
_symmetry_equiv_pos_as_xyz
1 x,y,z
2 1/2-x,-y,z
3 1/2-x,1/2+y,1/2-z
4 x,1/2-y,1/2-z
5 -x,-y,-z
6 -1/2+x,y,-z
7 -1/2+x,-1/2-y,-1/2+z
8 -x,-1/2+y,-1/2+z
_cell_length_a 14.473(3)
_cell_length_b 11.075(2)
_cell_length_c 11.441(2)
_cell_angle_alpha 90
_cell_angle_beta 90
_cell_angle_gamma 90
_cell_formula_units_Z 4
loop_
_atom_type_symbol
_atom_type_radius_bond
C 0.68
H 0.23
Co 1.26
K 2.03
N 0.68
O 0.68
loop_
_atom_site_label
_atom_site_type_symbol
_atom_site_fract_x
_atom_site_fract_y
_atom_site_fract_z
Co1 Co 0.48055(2) 0.75000 0.75000
K1 K 0.25427(3) 0.75000 0.25000
O1 O 0.59036(6) 0.63450(8) 0.81876(9)
O2 O 0.63875(7) 0.44135(10) 0.82087(10)
O3 O 0.38306(6) 0.79029(9) 0.61412(10)
O4 O 0.29433(6) 0.70434(10) 0.47642(9)
N1 N 0.46008(7) 0.58853(9) 0.67082(9)
C1 C 0.50977(8) 0.49265(11) 0.70323(11)
C2 C 0.49346(9) 0.37962(12) 0.65465(13)
H1 H 0.52864 0.31311 0.67659
C3 C 0.42323(9) 0.36846(12) 0.57242(13)
H2 H 0.41014 0.29350 0.53973
C4 C 0.37257(9) 0.46946(12) 0.53909(13)
H3 H 0.32546 0.46321 0.48414
C5 C 0.39400(8) 0.57982(11) 0.58980(11)
C6 C 0.58612(8) 0.52358(12) 0.78914(12)
C7 C 0.35234(8) 0.70095(12) 0.55665(11)
N2 N 0.75000 0.50000 1.02341(17)
H4 H 0.77696 0.55439 0.97741
C8 C 0.82077(11) 0.44010(13) 1.09111(19)
H5 H 0.86697 0.40810 1.03949
H6 H 0.79358 0.37546 1.13519
H7 H 0.84875 0.49696 1.14362
H8? H 0.77696 0.55439 0.97741
O1C O 0.59036(6) 0.86550(8) -0.31876(9)
O2C O 0.63875(7) 1.05865(10) -0.32087(10)
O3C O 0.38306(6) 0.70971(9) -0.11412(10)
O4C O 0.29433(6) 0.79566(10) 0.02358(9)
N1C N 0.46008(7) 0.91147(9) -0.17082(9)
C1C C 0.50977(8) 1.00735(11) -0.20323(11)
C2C C 0.49346(9) 1.12038(12) -0.15465(13)
H1C H 0.52864 1.18689 -0.17659
C3C C 0.42323(9) 1.13154(12) -0.07242(13)
H2C H 0.41014 1.20650 -0.03973
C4C C 0.37257(9) 1.03054(12) -0.03909(13)
H3C H 0.32546 1.03679 0.01586
C5C C 0.39400(8) 0.92018(11) -0.08980(11)
C6C C 0.58612(8) 0.97642(12) -0.28914(12)
C7C C 0.35234(8) 0.79905(12) -0.05665(11)
Co1* Co 0.48055(2) 0.75000 -0.25000
K1D K 0.74573(3) 0.25000 0.75000
K1D* K 0.74573(3) 1.25000 -0.25000
K1E K 0.75427(3) 0.75000 -0.25000
K1E* K 0.75427(3) 0.75000 0.75000
O1C* O 0.59036(6) 0.86550(8) 0.68124(9)
O1E O 0.09036(6) 0.63450(8) 0.18124(9)
O1F O 0.09036(6) 0.86550(8) 0.31876(9)
O2D O 0.36125(7) 0.55865(10) 0.17913(10)
O2G O 0.36125(7) 0.94135(10) 0.32087(10)
O3C* O 0.38306(6) 0.70971(9) 0.88588(10)
N1C* N 0.46008(7) 0.91147(9) 0.82918(9)
H4A H 0.72304 0.44561 0.97741
C8A C 0.67923(11) 0.55990(13) 1.09111(19)
H5A H 0.63303 0.59190 1.03949
H6A H 0.70642 0.62454 1.13519
H7A H 0.65125 0.50304 1.14362
#END
