
#######################################################################
#
#                 Cambridge Crystallographic Data Centre
#                                CCDC
#
#######################################################################
#
# If this CIF has been generated from an entry in the Cambridge
# Structural Database, then it will include bibliographic, chemical,
# crystal, experimental, refinement or atomic coordinate data resulting
# from the CCDC's data processing and validation procedures.
#
#######################################################################

data_CSD_CIF_HAZWAG
_audit_creation_date 1994-09-08
_audit_creation_method CSD-ConQuest-V1
_database_code_CSD HAZWAG
_database_code_depnum_ccdc_archive 'CCDC 1173196'
_chemical_formula_sum 'C5 H7 Mn1 N8 Na1 O4'
_chemical_formula_moiety
;
(C5 H5 Mn1 N8 O3 1-)n,n(Na1 1+),n(H2 O1)
;
_journal_coden_Cambridge 580
_journal_volume 12
_journal_year 1993
_journal_page_first 2557
_journal_name_full 'Polyhedron '
loop_
_publ_author_name
"M.A.S.Goher"
"F.A.Mautner"
"A.Popitsch"
_chemical_name_systematic
;
catena-(Sodium 
(\m~2~-azido-N,N)-aqua-azido-(pyrazine-2-carboxylato-N,O)-manganese(ii) 
monohydrate)
;
_cell_volume   2315.764
_exptl_crystal_colour 'yellow'
_exptl_crystal_density_diffrn 1.842
_diffrn_ambient_temperature ?
_diffrn_special_details
;
The study was carried out at room temperature,in the range 283-303K

;
#These two values have been output from a single CSD field.
_refine_ls_R_factor_gt 0.042
_refine_ls_wR_factor_gt 0.042
_symmetry_cell_setting monoclinic
_symmetry_space_group_name_H-M 'I 2/a'
_symmetry_Int_Tables_number 15
loop_
_symmetry_equiv_pos_site_id
_symmetry_equiv_pos_as_xyz
1 x,y,z
2 1/2+x,1/2+y,1/2+z
3 1/2-x,y,-z
4 -x,1/2+y,1/2-z
5 -x,-y,-z
6 -1/2-x,-1/2-y,-1/2-z
7 -1/2+x,-y,z
8 x,-1/2-y,-1/2+z
_cell_length_a 7.633(3)
_cell_length_b 15.660(4)
_cell_length_c 19.379(5)
_cell_angle_alpha 90
_cell_angle_beta 91.37(2)
_cell_angle_gamma 90
_cell_formula_units_Z 8
loop_
_atom_type_symbol
_atom_type_radius_bond
C 0.68
H 0.23
Mn 1.35
N 0.68
Na 0.97
O 0.68
loop_
_atom_site_label
_atom_site_type_symbol
_atom_site_fract_x
_atom_site_fract_y
_atom_site_fract_z
Mn1 Mn 0.1837(1) 0.24690 0.16590
N1 N 0.1340(4) 0.3785(2) 0.1439(2)
N2 N 0.2216(4) 0.4320(2) 0.1211(2)
N3 N 0.3056(5) 0.4859(3) 0.0989(3)
N4 N 0.4264(4) 0.2662(2) 0.2330(2)
N5 N 0.5600(4) 0.2895(2) 0.2099(1)
N6 N 0.6869(5) 0.3111(3) 0.1873(2)
O1 O -0.0489(3) 0.2185(2) 0.0967(1)
O2 O 0.3496(3) 0.2212(2) 0.0804(1)
O3 O 0.4635(3) 0.1227(2) 0.0127(1)
C1 C 0.3797(4) 0.1452(2) 0.0631(2)
N7 N 0.2279(4) 0.1018(2) 0.1651(2)
C2 C 0.3099(4) 0.0765(2) 0.1092(2)
C3 C 0.3305(5) -0.0097(2) 0.0951(2)
N8 N 0.2743(4) -0.0691(2) 0.1377(2)
C4 C 0.1948(5) -0.0438(2) 0.1940(2)
C5 C 0.1706(5) 0.0425(2) 0.2076(2)
H1 H 0.39500 -0.02900 0.04900
H2 H 0.14800 -0.09100 0.23000
H3 H 0.10400 0.06100 0.25400
H4 H -0.002(6) 0.198(3) 0.056(2)
H5 H -0.118(5) 0.177(2) 0.117(2)
Na1 Na -0.1613(2) 0.3618(1) 0.0848(1)
O4 O -0.4502(3) 0.3577(2) 0.0282(2)
H6 H -0.514(5) 0.407(2) 0.036(3)
H7 H -0.523(5) 0.314(2) 0.042(2)
N4E N 0.0736(4) 0.2338(2) 0.2670(2)
Mn1E Mn 0.3163(1) 0.25310 0.33410
#END
