
#######################################################################
#
#                 Cambridge Crystallographic Data Centre
#                                CCDC
#
#######################################################################
#
# If this CIF has been generated from an entry in the Cambridge
# Structural Database, then it will include bibliographic, chemical,
# crystal, experimental, refinement or atomic coordinate data resulting
# from the CCDC's data processing and validation procedures.
#
#######################################################################

data_CSD_CIF_HAZZIT
_audit_creation_date 2013-01-14
_audit_creation_method CSD-ConQuest-V1
_database_code_CSD HAZZIT
_database_code_depnum_ccdc_archive 'CCDC 820665'
_chemical_formula_sum 'C24 H48 Eu2 Mg3 O42'
_chemical_formula_moiety
;
(C12 H12 Eu1 Mg1 O15 1-)2n,n(H12 Mg1 O6 2+),6n(H2 O1)
;
_journal_coden_Cambridge 29
_journal_volume 638
_journal_year 2012
_journal_page_first 652
_journal_name_full 'Z.Anorg.Allg.Chem. '
loop_
_publ_author_name
"Li-Mei Chang"
"Xia Zhao"
"Zhi-Gang Gu"
"Wen-Jing Liu"
"Zhi-Qiang Wei"
"Ying-Liang Liu"
"Hai-Hong Mo"
"Shan-Tang Yue"
_chemical_name_systematic
;
catena-(hexaaqua-magnesium 
bis(tris(\m~3~-2,2'-oxydiacetato)-europium-magnesium) hexahydrate)
;
_cell_volume  17169.119
_exptl_crystal_colour 'colorless'
_exptl_crystal_density_diffrn 2.125
_exptl_crystal_description 'block'
_diffrn_ambient_temperature 298
#These two values have been output from a single CSD field.
_refine_ls_R_factor_gt 0.0312
_refine_ls_wR_factor_gt 0.0312
_symmetry_cell_setting cubic
_symmetry_space_group_name_H-M 'F d -3 c'
_symmetry_Int_Tables_number 228
loop_
_symmetry_equiv_pos_site_id
_symmetry_equiv_pos_as_xyz
1 x,y,z
2 -y,1/4+x,3/4+z
3 3/4-x,1/4-y,1/2+z
4 3/4+y,-x,1/4+z
5 x,1/4-y,1/4-z
6 3/4+y,1/4+x,-z
7 3/4-x,y,3/4-z
8 -y,-x,1/2-z
9 z,x,y
10 -x,1/4+z,3/4+y
11 3/4-z,1/4-x,1/2+y
12 3/4+x,-z,1/4+y
13 z,1/4-x,1/4-y
14 3/4+x,1/4+z,-y
15 3/4-z,x,3/4-y
16 -x,-z,1/2-y
17 y,z,x
18 1/2-z,-y,-x
19 -z,3/4+y,1/4+x
20 1/4+z,3/4+y,-x
21 3/4+z,-y,1/4+x
22 y,3/4-z,3/4-x
23 1/4-y,1/4-z,x
24 1/4-y,1/2+z,3/4-x
25 x,1/2+y,1/2+z
26 -y,3/4+x,1/4+z
27 3/4-x,3/4-y,z
28 3/4+y,1/2-x,3/4+z
29 x,3/4-y,3/4-z
30 3/4+y,3/4+x,1/2-z
31 3/4-x,1/2+y,1/4-z
32 -y,1/2-x,-z
33 z,1/2+x,1/2+y
34 -x,3/4+z,1/4+y
35 3/4-z,3/4-x,y
36 3/4+x,1/2-z,3/4+y
37 z,3/4-x,3/4-y
38 3/4+x,3/4+z,1/2-y
39 3/4-z,1/2+x,1/4-y
40 -x,1/2-z,-y
41 y,1/2+z,1/2+x
42 1/2-z,1/2-y,1/2-x
43 -z,1/4+y,3/4+x
44 1/4+z,1/4+y,1/2-x
45 3/4+z,1/2-y,3/4+x
46 y,1/4-z,1/4-x
47 1/4-y,3/4-z,1/2+x
48 1/4-y,z,1/4-x
49 1/2+x,y,1/2+z
50 1/2-y,1/4+x,1/4+z
51 1/4-x,1/4-y,z
52 1/4+y,-x,3/4+z
53 1/2+x,1/4-y,3/4-z
54 1/4+y,1/4+x,1/2-z
55 1/4-x,y,1/4-z
56 1/2-y,-x,-z
57 1/2+z,x,1/2+y
58 1/2-x,1/4+z,1/4+y
59 1/4-z,1/4-x,y
60 1/4+x,-z,3/4+y
61 1/2+z,1/4-x,3/4-y
62 1/4+x,1/4+z,1/2-y
63 1/4-z,x,1/4-y
64 1/2-x,-z,-y
65 1/2+y,z,1/2+x
66 -z,-y,1/2-x
67 1/2-z,3/4+y,3/4+x
68 3/4+z,3/4+y,1/2-x
69 1/4+z,-y,3/4+x
70 1/2+y,3/4-z,1/4-x
71 3/4-y,1/4-z,1/2+x
72 3/4-y,1/2+z,1/4-x
73 1/2+x,1/2+y,z
74 1/2-y,3/4+x,3/4+z
75 1/4-x,3/4-y,1/2+z
76 1/4+y,1/2-x,1/4+z
77 1/2+x,3/4-y,1/4-z
78 1/4+y,3/4+x,-z
79 1/4-x,1/2+y,3/4-z
80 1/2-y,1/2-x,1/2-z
81 1/2+z,1/2+x,y
82 1/2-x,3/4+z,3/4+y
83 1/4-z,3/4-x,1/2+y
84 1/4+x,1/2-z,1/4+y
85 1/2+z,3/4-x,1/4-y
86 1/4+x,3/4+z,-y
87 1/4-z,1/2+x,3/4-y
88 1/2-x,1/2-z,1/2-y
89 1/2+y,1/2+z,x
90 -z,1/2-y,-x
91 1/2-z,1/4+y,1/4+x
92 3/4+z,1/4+y,-x
93 1/4+z,1/2-y,1/4+x
94 1/2+y,1/4-z,3/4-x
95 3/4-y,3/4-z,x
96 3/4-y,z,3/4-x
97 -x,-y,-z
98 y,-1/4-x,-3/4-z
99 -3/4+x,-1/4+y,-1/2-z
100 -3/4-y,x,-1/4-z
101 -x,-1/4+y,-1/4+z
102 -3/4-y,-1/4-x,z
103 -3/4+x,-y,-3/4+z
104 y,x,-1/2+z
105 -z,-x,-y
106 x,-1/4-z,-3/4-y
107 -3/4+z,-1/4+x,-1/2-y
108 -3/4-x,z,-1/4-y
109 -z,-1/4+x,-1/4+y
110 -3/4-x,-1/4-z,y
111 -3/4+z,-x,-3/4+y
112 x,z,-1/2+y
113 -y,-z,-x
114 -1/2+z,y,x
115 z,-3/4-y,-1/4-x
116 -1/4-z,-3/4-y,x
117 -3/4-z,y,-1/4-x
118 -y,-3/4+z,-3/4+x
119 -1/4+y,-1/4+z,-x
120 -1/4+y,-1/2-z,-3/4+x
121 -x,-1/2-y,-1/2-z
122 y,-3/4-x,-1/4-z
123 -3/4+x,-3/4+y,-z
124 -3/4-y,-1/2+x,-3/4-z
125 -x,-3/4+y,-3/4+z
126 -3/4-y,-3/4-x,-1/2+z
127 -3/4+x,-1/2-y,-1/4+z
128 y,-1/2+x,z
129 -z,-1/2-x,-1/2-y
130 x,-3/4-z,-1/4-y
131 -3/4+z,-3/4+x,-y
132 -3/4-x,-1/2+z,-3/4-y
133 -z,-3/4+x,-3/4+y
134 -3/4-x,-3/4-z,-1/2+y
135 -3/4+z,-1/2-x,-1/4+y
136 x,-1/2+z,y
137 -y,-1/2-z,-1/2-x
138 -1/2+z,-1/2+y,-1/2+x
139 z,-1/4-y,-3/4-x
140 -1/4-z,-1/4-y,-1/2+x
141 -3/4-z,-1/2+y,-3/4-x
142 -y,-1/4+z,-1/4+x
143 -1/4+y,-3/4+z,-1/2-x
144 -1/4+y,-z,-1/4+x
145 -1/2-x,-y,-1/2-z
146 -1/2+y,-1/4-x,-1/4-z
147 -1/4+x,-1/4+y,-z
148 -1/4-y,x,-3/4-z
149 -1/2-x,-1/4+y,-3/4+z
150 -1/4-y,-1/4-x,-1/2+z
151 -1/4+x,-y,-1/4+z
152 -1/2+y,x,z
153 -1/2-z,-x,-1/2-y
154 -1/2+x,-1/4-z,-1/4-y
155 -1/4+z,-1/4+x,-y
156 -1/4-x,z,-3/4-y
157 -1/2-z,-1/4+x,-3/4+y
158 -1/4-x,-1/4-z,-1/2+y
159 -1/4+z,-x,-1/4+y
160 -1/2+x,z,y
161 -1/2-y,-z,-1/2-x
162 z,y,-1/2+x
163 -1/2+z,-3/4-y,-3/4-x
164 -3/4-z,-3/4-y,-1/2+x
165 -1/4-z,y,-3/4-x
166 -1/2-y,-3/4+z,-1/4+x
167 -3/4+y,-1/4+z,-1/2-x
168 -3/4+y,-1/2-z,-1/4+x
169 -1/2-x,-1/2-y,-z
170 -1/2+y,-3/4-x,-3/4-z
171 -1/4+x,-3/4+y,-1/2-z
172 -1/4-y,-1/2+x,-1/4-z
173 -1/2-x,-3/4+y,-1/4+z
174 -1/4-y,-3/4-x,z
175 -1/4+x,-1/2-y,-3/4+z
176 -1/2+y,-1/2+x,-1/2+z
177 -1/2-z,-1/2-x,-y
178 -1/2+x,-3/4-z,-3/4-y
179 -1/4+z,-3/4+x,-1/2-y
180 -1/4-x,-1/2+z,-1/4-y
181 -1/2-z,-3/4+x,-1/4+y
182 -1/4-x,-3/4-z,y
183 -1/4+z,-1/2-x,-3/4+y
184 -1/2+x,-1/2+z,-1/2+y
185 -1/2-y,-1/2-z,-x
186 z,-1/2+y,x
187 -1/2+z,-1/4-y,-1/4-x
188 -3/4-z,-1/4-y,x
189 -1/4-z,-1/2+y,-1/4-x
190 -1/2-y,-1/4+z,-3/4+x
191 -3/4+y,-3/4+z,-x
192 -3/4+y,-z,-3/4+x
_cell_length_a 25.7978(7)
_cell_length_b 25.7978(7)
_cell_length_c 25.7978(7)
_cell_angle_alpha 90
_cell_angle_beta 90
_cell_angle_gamma 90
_cell_formula_units_Z 16
loop_
_atom_type_symbol
_atom_type_radius_bond
C 0.68
H 0.23
Eu 1.98
Mg 1.41
O 0.68
loop_
_atom_site_label
_atom_site_type_symbol
_atom_site_fract_x
_atom_site_fract_y
_atom_site_fract_z
Mg1 Mg 0.00000 0.00000 0.50000
Eu1 Eu 0.00000 0.00000 0.25000
O1 O -0.03000(12) 0.00803(12) 0.33823(12)
O2 O -0.01926(12) 0.01238(12) 0.42308(13)
O3 O 0.06728(11) 0.00000 0.31728(11)
C1 C 0.05605(18) 0.00268(19) 0.37127(18)
H1 H 0.07360 0.03220 0.38660
H2 H 0.06820 -0.02850 0.38850
C2 C -0.00207(16) 0.00802(19) 0.3782(2)
O4 O 0.12500 0.0455(2) 0.12500
H3 H 0.11610 0.02210 0.14710
Mg2 Mg 0.12500 0.12500 0.12500
O5 O 0.12500 0.3294(6) 0.12500
Mg1A Mg 0.00000 0.25000 0.25000
Mg1F Mg -0.25000 0.00000 0.25000
Mg1G Mg 0.00000 0.00000 0.00000
Mg1BA Mg 0.00000 -0.25000 0.25000
Mg1T Mg 0.25000 0.00000 0.25000
O1T O 0.08823(12) -0.00803(12) 0.22000(12)
O1G O -0.00803(12) 0.03000(12) 0.16177(12)
O1SA O 0.00803(12) -0.08823(12) 0.28000(12)
O1GA O 0.03000(12) 0.08823(12) 0.25803(12)
O1JB O -0.08823(12) -0.03000(12) 0.24197(12)
O2T O 0.17308(12) -0.01238(12) 0.23074(13)
O2G O -0.01238(12) 0.01926(12) 0.07692(13)
O2SA O 0.01238(12) -0.17308(12) 0.26926(13)
O2GA O 0.01926(12) 0.17308(12) 0.26238(13)
O2JB O -0.17308(12) -0.01926(12) 0.23762(13)
O2NA O 0.01238(12) -0.07692(12) 0.48074(13)
O2DB O -0.07692(12) -0.01926(12) 0.51238(13)
O2RC O 0.01926(12) -0.01238(12) 0.57692(13)
O2FE O -0.01238(12) 0.07692(12) 0.51926(13)
O2VE O 0.07692(12) 0.01926(12) 0.48762(13)
O3G O 0.00000(11) -0.06728 0.18272(11)
O3GA O -0.06728(11) 0.06728 0.25000(11)
C1T C 0.12127(18) -0.00268(19) 0.30605(18)
C1G C -0.00268(18) -0.05605(19) 0.12873(18)
C1SA C 0.00268(18) -0.12127(19) 0.19395(18)
C1GA C -0.05605(18) 0.12127(19) 0.25268(18)
C1JB C -0.12127(18) 0.05605(19) 0.24732(18)
H1T H 0.13660 -0.03220 0.32360
H1G H -0.03220 -0.07360 0.11340
H1SA H 0.03220 -0.13660 0.17640
H1GA H -0.07360 0.13660 0.28220
H1JB H -0.13660 0.07360 0.21780
H2T H 0.13850 0.02850 0.31820
H2G H 0.02850 -0.06820 0.11150
H2SA H -0.02850 -0.13850 0.18180
H2GA H -0.06820 0.13850 0.22150
H2JB H -0.13850 0.06820 0.27850
C2T C 0.12820(16) -0.00802(19) 0.24793(20)
C2G C -0.00802(16) 0.00207(19) 0.1218(2)
C2SA C 0.00802(16) -0.12820(19) 0.25207(20)
C2GA C 0.00207(16) 0.12820(19) 0.25802(20)
C2JB C -0.12820(16) -0.00207(19) 0.24198(20)
O4D O 0.12500 0.2045(2) 0.12500
O4H O 0.12500 0.1250(2) 0.04550
O4L O 0.12500 0.1250(2) 0.20450
O4P O 0.04550 0.1250(2) 0.12500
O4V O 0.20450 0.1250(2) 0.12500
H3BB H 0.13390 0.02210 0.10290
H3D H 0.11610 0.22790 0.10290
H3XA H 0.13390 0.22790 0.14710
H3H H 0.14710 0.11610 0.02210
H3FB H 0.10290 0.13390 0.02210
H3L H 0.14710 0.13390 0.22790
H3JB H 0.10290 0.11610 0.22790
H3P H 0.02210 0.14710 0.11610
H3SA H 0.02210 0.10290 0.13390
H3V H 0.22790 0.10290 0.11610
H3UA H 0.22790 0.14710 0.13390
#END
