
#######################################################################
#
#                 Cambridge Crystallographic Data Centre
#                                CCDC
#
#######################################################################
#
# If this CIF has been generated from an entry in the Cambridge
# Structural Database, then it will include bibliographic, chemical,
# crystal, experimental, refinement or atomic coordinate data resulting
# from the CCDC's data processing and validation procedures.
#
#######################################################################

data_CSD_CIF_HAZZUF
_audit_creation_date 2013-01-14
_audit_creation_method CSD-ConQuest-V1
_database_code_CSD HAZZUF
_database_code_depnum_ccdc_archive 'CCDC 820667'
_chemical_formula_sum 'C24 H48 Gd2 Mg3 O42'
_chemical_formula_moiety
;
(C12 H12 Gd1 Mg1 O15 1-)2n,n(H12 Mg1 O6 2+),6n(H2 O1)
;
_journal_coden_Cambridge 29
_journal_volume 638
_journal_year 2012
_journal_page_first 652
_journal_name_full 'Z.Anorg.Allg.Chem. '
loop_
_publ_author_name
"Li-Mei Chang"
"Xia Zhao"
"Zhi-Gang Gu"
"Wen-Jing Liu"
"Zhi-Qiang Wei"
"Ying-Liang Liu"
"Hai-Hong Mo"
"Shan-Tang Yue"
_chemical_name_systematic
;
catena-(hexaaqua-magnesium 
bis(tris(\m~3~-2,2'-oxydiacetato)-gadolinium-magnesium) hexahydrate)
;
_cell_volume  17092.565
_exptl_crystal_colour 'colorless'
_exptl_crystal_density_diffrn 2.151
_exptl_crystal_description 'block'
_diffrn_ambient_temperature 298
#These two values have been output from a single CSD field.
_refine_ls_R_factor_gt 0.0324
_refine_ls_wR_factor_gt 0.0324
_symmetry_cell_setting cubic
_symmetry_space_group_name_H-M 'F d -3 c'
_symmetry_Int_Tables_number 228
loop_
_symmetry_equiv_pos_site_id
_symmetry_equiv_pos_as_xyz
1 x,y,z
2 1/4-x,3/4-y,1/2+z
3 3/4-x,1/2+y,1/4-z
4 1/2+x,1/4-y,3/4-z
5 z,x,y
6 1/2+z,1/4-x,3/4-y
7 1/4-z,3/4-x,1/2+y
8 3/4-z,1/2+x,1/4-y
9 y,z,x
10 3/4-y,1/2+z,1/4-x
11 1/2+y,1/4-z,3/4-x
12 1/4-y,3/4-z,1/2+x
13 3/4+y,1/4+x,-z
14 1/2-y,1/2-x,1/2-z
15 1/4+y,-x,3/4+z
16 -y,3/4+x,1/4+z
17 3/4+x,1/4+z,-y
18 -x,3/4+z,1/4+y
19 1/2-x,1/2-z,1/2-y
20 1/4+x,-z,3/4+y
21 3/4+z,1/4+y,-x
22 1/4+z,-y,3/4+x
23 -z,3/4+y,1/4+x
24 1/2-z,1/2-y,1/2-x
25 x,1/2+y,1/2+z
26 1/4-x,1/4-y,z
27 3/4-x,y,3/4-z
28 1/2+x,3/4-y,1/4-z
29 z,1/2+x,1/2+y
30 1/2+z,3/4-x,1/4-y
31 1/4-z,1/4-x,y
32 3/4-z,x,3/4-y
33 y,1/2+z,1/2+x
34 3/4-y,z,3/4-x
35 1/2+y,3/4-z,1/4-x
36 1/4-y,1/4-z,x
37 3/4+y,3/4+x,1/2-z
38 1/2-y,-x,-z
39 1/4+y,1/2-x,1/4+z
40 -y,1/4+x,3/4+z
41 3/4+x,3/4+z,1/2-y
42 -x,1/4+z,3/4+y
43 1/2-x,-z,-y
44 1/4+x,1/2-z,1/4+y
45 3/4+z,3/4+y,1/2-x
46 1/4+z,1/2-y,1/4+x
47 -z,1/4+y,3/4+x
48 1/2-z,-y,-x
49 1/2+x,y,1/2+z
50 3/4-x,3/4-y,z
51 1/4-x,1/2+y,3/4-z
52 x,1/4-y,1/4-z
53 1/2+z,x,1/2+y
54 z,1/4-x,1/4-y
55 3/4-z,3/4-x,y
56 1/4-z,1/2+x,3/4-y
57 1/2+y,z,1/2+x
58 1/4-y,1/2+z,3/4-x
59 y,1/4-z,1/4-x
60 3/4-y,3/4-z,x
61 1/4+y,1/4+x,1/2-z
62 -y,1/2-x,-z
63 3/4+y,-x,1/4+z
64 1/2-y,3/4+x,3/4+z
65 1/4+x,1/4+z,1/2-y
66 1/2-x,3/4+z,3/4+y
67 -x,1/2-z,-y
68 3/4+x,-z,1/4+y
69 1/4+z,1/4+y,1/2-x
70 3/4+z,-y,1/4+x
71 1/2-z,3/4+y,3/4+x
72 -z,1/2-y,-x
73 1/2+x,1/2+y,z
74 3/4-x,1/4-y,1/2+z
75 1/4-x,y,1/4-z
76 x,3/4-y,3/4-z
77 1/2+z,1/2+x,y
78 z,3/4-x,3/4-y
79 3/4-z,1/4-x,1/2+y
80 1/4-z,x,1/4-y
81 1/2+y,1/2+z,x
82 1/4-y,z,1/4-x
83 y,3/4-z,3/4-x
84 3/4-y,1/4-z,1/2+x
85 1/4+y,3/4+x,-z
86 -y,-x,1/2-z
87 3/4+y,1/2-x,3/4+z
88 1/2-y,1/4+x,1/4+z
89 1/4+x,3/4+z,-y
90 1/2-x,1/4+z,1/4+y
91 -x,-z,1/2-y
92 3/4+x,1/2-z,3/4+y
93 1/4+z,3/4+y,-x
94 3/4+z,1/2-y,3/4+x
95 1/2-z,1/4+y,1/4+x
96 -z,-y,1/2-x
97 -x,-y,-z
98 -1/4+x,-3/4+y,-1/2-z
99 -3/4+x,-1/2-y,-1/4+z
100 -1/2-x,-1/4+y,-3/4+z
101 -z,-x,-y
102 -1/2-z,-1/4+x,-3/4+y
103 -1/4+z,-3/4+x,-1/2-y
104 -3/4+z,-1/2-x,-1/4+y
105 -y,-z,-x
106 -3/4+y,-1/2-z,-1/4+x
107 -1/2-y,-1/4+z,-3/4+x
108 -1/4+y,-3/4+z,-1/2-x
109 -3/4-y,-1/4-x,z
110 -1/2+y,-1/2+x,-1/2+z
111 -1/4-y,x,-3/4-z
112 y,-3/4-x,-1/4-z
113 -3/4-x,-1/4-z,y
114 x,-3/4-z,-1/4-y
115 -1/2+x,-1/2+z,-1/2+y
116 -1/4-x,z,-3/4-y
117 -3/4-z,-1/4-y,x
118 -1/4-z,y,-3/4-x
119 z,-3/4-y,-1/4-x
120 -1/2+z,-1/2+y,-1/2+x
121 -x,-1/2-y,-1/2-z
122 -1/4+x,-1/4+y,-z
123 -3/4+x,-y,-3/4+z
124 -1/2-x,-3/4+y,-1/4+z
125 -z,-1/2-x,-1/2-y
126 -1/2-z,-3/4+x,-1/4+y
127 -1/4+z,-1/4+x,-y
128 -3/4+z,-x,-3/4+y
129 -y,-1/2-z,-1/2-x
130 -3/4+y,-z,-3/4+x
131 -1/2-y,-3/4+z,-1/4+x
132 -1/4+y,-1/4+z,-x
133 -3/4-y,-3/4-x,-1/2+z
134 -1/2+y,x,z
135 -1/4-y,-1/2+x,-1/4-z
136 y,-1/4-x,-3/4-z
137 -3/4-x,-3/4-z,-1/2+y
138 x,-1/4-z,-3/4-y
139 -1/2+x,z,y
140 -1/4-x,-1/2+z,-1/4-y
141 -3/4-z,-3/4-y,-1/2+x
142 -1/4-z,-1/2+y,-1/4-x
143 z,-1/4-y,-3/4-x
144 -1/2+z,y,x
145 -1/2-x,-y,-1/2-z
146 -3/4+x,-3/4+y,-z
147 -1/4+x,-1/2-y,-3/4+z
148 -x,-1/4+y,-1/4+z
149 -1/2-z,-x,-1/2-y
150 -z,-1/4+x,-1/4+y
151 -3/4+z,-3/4+x,-y
152 -1/4+z,-1/2-x,-3/4+y
153 -1/2-y,-z,-1/2-x
154 -1/4+y,-1/2-z,-3/4+x
155 -y,-1/4+z,-1/4+x
156 -3/4+y,-3/4+z,-x
157 -1/4-y,-1/4-x,-1/2+z
158 y,-1/2+x,z
159 -3/4-y,x,-1/4-z
160 -1/2+y,-3/4-x,-3/4-z
161 -1/4-x,-1/4-z,-1/2+y
162 -1/2+x,-3/4-z,-3/4-y
163 x,-1/2+z,y
164 -3/4-x,z,-1/4-y
165 -1/4-z,-1/4-y,-1/2+x
166 -3/4-z,y,-1/4-x
167 -1/2+z,-3/4-y,-3/4-x
168 z,-1/2+y,x
169 -1/2-x,-1/2-y,-z
170 -3/4+x,-1/4+y,-1/2-z
171 -1/4+x,-y,-1/4+z
172 -x,-3/4+y,-3/4+z
173 -1/2-z,-1/2-x,-y
174 -z,-3/4+x,-3/4+y
175 -3/4+z,-1/4+x,-1/2-y
176 -1/4+z,-x,-1/4+y
177 -1/2-y,-1/2-z,-x
178 -1/4+y,-z,-1/4+x
179 -y,-3/4+z,-3/4+x
180 -3/4+y,-1/4+z,-1/2-x
181 -1/4-y,-3/4-x,z
182 y,x,-1/2+z
183 -3/4-y,-1/2+x,-3/4-z
184 -1/2+y,-1/4-x,-1/4-z
185 -1/4-x,-3/4-z,y
186 -1/2+x,-1/4-z,-1/4-y
187 x,z,-1/2+y
188 -3/4-x,-1/2+z,-3/4-y
189 -1/4-z,-3/4-y,x
190 -3/4-z,-1/2+y,-3/4-x
191 -1/2+z,-1/4-y,-1/4-x
192 z,y,-1/2+x
_cell_length_a 25.7594(18)
_cell_length_b 25.7594(18)
_cell_length_c 25.7594(18)
_cell_angle_alpha 90
_cell_angle_beta 90
_cell_angle_gamma 90
_cell_formula_units_Z 16
loop_
_atom_type_symbol
_atom_type_radius_bond
C 0.68
H 0.23
Gd 1.96
Mg 1.41
O 0.68
loop_
_atom_site_label
_atom_site_type_symbol
_atom_site_fract_x
_atom_site_fract_y
_atom_site_fract_z
Mg1 Mg 0.00000 0.00000 0.50000
Gd1 Gd 0.00000 0.00000 0.25000
O1 O -0.03020(14) 0.00817(13) 0.33792(13)
O2 O -0.01962(13) 0.01257(12) 0.42286(14)
O3 O 0.06702(12) 0.00000 0.31702(12)
C1 C 0.0561(2) 0.0024(2) 0.37116(19)
H1 H 0.07380 0.03180 0.38660
H2 H 0.06810 -0.02900 0.38820
C2 C -0.00217(16) 0.0081(2) 0.3782(2)
O4 O 0.12500 0.0452(2) 0.12500
H3 H 0.11610 0.02190 0.14710
Mg2 Mg 0.12500 0.12500 0.12500
O5 O 0.12500 0.3302(7) 0.12500
Mg1I Mg -0.25000 0.00000 0.25000
Mg1N Mg 0.25000 0.00000 0.25000
Mg1CA Mg 0.00000 -0.25000 0.25000
Mg1Q Mg 0.00000 0.25000 0.25000
Mg1UA Mg 0.00000 0.00000 0.00000
O1QB O 0.08792(14) -0.00817(13) 0.21980(13)
O1Q O 0.03020(14) 0.08792(13) 0.25817(13)
O1AC O -0.08792(14) -0.03020(13) 0.24183(13)
O1FB O 0.00817(14) -0.08792(13) 0.28020(13)
O1GC O -0.00817(14) 0.03020(13) 0.16208(13)
O2QB O 0.17286(13) -0.01257(12) 0.23038(14)
O2Q O 0.01962(13) 0.17286(12) 0.26257(14)
O2AC O -0.17286(13) -0.01962(12) 0.23743(14)
O2FB O 0.01257(13) -0.17286(12) 0.26962(14)
O2GC O -0.01257(13) 0.01962(12) 0.07714(14)
O2FA O 0.01257(13) -0.07714(12) 0.48038(14)
O2ZA O -0.07714(13) -0.01962(12) 0.51257(14)
O2RC O 0.01962(13) -0.01257(12) 0.57714(14)
O2XD O -0.01257(13) 0.07714(12) 0.51962(14)
O2RE O 0.07714(13) 0.01962(12) 0.48743(14)
O3Q O -0.06702(12) 0.06702 0.25000(12)
O3FB O 0.00000(12) -0.06702 0.18298(12)
C1QB C 0.12116(20) -0.0024(2) 0.30610(19)
C1Q C -0.0561(2) 0.12116(20) 0.25240(19)
C1AC C -0.12116(20) 0.0561(2) 0.24760(19)
C1FB C 0.0024(2) -0.12116(20) 0.19390(19)
C1GC C -0.0024(2) -0.0561(2) 0.12884(19)
H1QB H 0.13660 -0.03180 0.32380
H1Q H -0.07380 0.13660 0.28180
H1AC H -0.13660 0.07380 0.21820
H1FB H 0.03180 -0.13660 0.17620
H1GC H -0.03180 -0.07380 0.11340
H2QB H 0.13820 0.02900 0.31810
H2Q H -0.06810 0.13820 0.22100
H2AC H -0.13820 0.06810 0.27900
H2FB H -0.02900 -0.13820 0.18190
H2GC H 0.02900 -0.06810 0.11180
C2QB C 0.12820(16) -0.0081(2) 0.24783(20)
C2Q C 0.00217(16) 0.1282(2) 0.2581(2)
C2AC C -0.12820(16) -0.00217(20) 0.2419(2)
C2FB C 0.00810(16) -0.1282(2) 0.25217(20)
C2GC C -0.00810(16) 0.00217(20) 0.1218(2)
O4D O 0.12500 0.1250(2) 0.04520
O4H O 0.04520 0.1250(2) 0.12500
O4Y O 0.12500 0.2048(2) 0.12500
O4IA O 0.20480 0.1250(2) 0.12500
O4AB O 0.12500 0.1250(2) 0.20480
H3VB H 0.13390 0.02190 0.10290
H3D H 0.14710 0.11610 0.02190
H3DA H 0.10290 0.13390 0.02190
H3H H 0.02190 0.14710 0.11610
H3FB H 0.02190 0.10290 0.13390
H3Y H 0.13390 0.22810 0.14710
H3YA H 0.11610 0.22810 0.10290
H3IA H 0.22810 0.10290 0.11610
H3CC H 0.22810 0.14710 0.13390
H3AB H 0.14710 0.13390 0.22810
H3AC H 0.10290 0.11610 0.22810
#END
