
#######################################################################
#
#                 Cambridge Crystallographic Data Centre
#                                CCDC
#
#######################################################################
#
# If this CIF has been generated from an entry in the Cambridge
# Structural Database, then it will include bibliographic, chemical,
# crystal, experimental, refinement or atomic coordinate data resulting
# from the CCDC's data processing and validation procedures.
#
#######################################################################

data_CSD_CIF_HEFDUT
_audit_creation_date 2013-01-14
_audit_creation_method CSD-ConQuest-V1
_database_code_CSD HEFDUT
_database_code_depnum_ccdc_archive 'CCDC 878571'
_chemical_formula_sum 'C104 H70 Cd6 Cl2 N8 O27'
_chemical_formula_moiety
;
(C60 H34 Cd5 Cl1 O27 3-)n,n(C44 H36 Cd1 Cl1 N8 3+)
;
_journal_coden_Cambridge 179
_journal_volume 51
_journal_year 2012
_journal_page_first 9330
_journal_name_full 'Angew.Chem.,Int.Ed. '
loop_
_publ_author_name
"Zhenjie Zhang"
"Wen-Yang Gao"
"L.Wojtas"
"Shengqian Ma"
"M.Eddaoudi"
"M.J.Zaworotko"
_chemical_name_systematic
;
catena-(chloro-(4,4',4'',4'''-porphyrin-5,10,15,20-tetrayltetrakis(1-methylpyr
idinium))-cadmium 
bis(\m~6~-biphenyl-3,4',5-tricarboxylato)-bis(\m~5~-biphenyl-3,4',5-tricarboxy
lato)-triaqua-chloro-penta-cadmium unknown solvate)
;
_cell_volume   7388.799
_exptl_crystal_colour 'dark green'
_exptl_crystal_density_diffrn 1.169
_exptl_crystal_description 'prism'
_diffrn_ambient_temperature 203
_refine_special_details
;
The SQUEEZE/PLATON program has been used to model the solvent molecules.

;
#These two values have been output from a single CSD field.
_refine_ls_R_factor_gt 0.0605
_refine_ls_wR_factor_gt 0.0605
_symmetry_cell_setting triclinic
_symmetry_space_group_name_H-M 'P -1'
_symmetry_Int_Tables_number 2
loop_
_symmetry_equiv_pos_site_id
_symmetry_equiv_pos_as_xyz
1 x,y,z
2 -x,-y,-z
_cell_length_a 18.3226(9)
_cell_length_b 19.9426(8)
_cell_length_c 21.8982(9)
_cell_angle_alpha 67.945(2)
_cell_angle_beta 88.290(3)
_cell_angle_gamma 85.086(3)
_cell_formula_units_Z 2
loop_
_atom_type_symbol
_atom_type_radius_bond
C 0.68
H 0.23
Cd 1.44
Cl 0.99
N 0.68
O 0.76
loop_
_atom_site_label
_atom_site_type_symbol
_atom_site_fract_x
_atom_site_fract_y
_atom_site_fract_z
Cd1 Cd 0.94165(2) 0.33369(2) 0.45136(2)
Cd2 Cd 1.03707(2) 0.17781(2) 0.53219(2)
Cd3 Cd 1.45758(2) 0.17139(2) 0.045400(19)
Cd4 Cd 1.28050(3) 0.14578(3) 0.12578(3)
Cd5 Cd 1.45573(2) 0.67036(2) 0.043240(19)
Cl1 Cl 1.26702(16) 0.10952(17) 0.24524(11)
C1 C 1.0991(4) 0.2969(4) 0.4024(3)
C2 C 1.1577(4) 0.3166(4) 0.3510(3)
C3 C 1.1516(5) 0.3845(4) 0.3001(4)
H1 H 1.11190 0.41790 0.29950
C4 C 1.2029(5) 0.4034(4) 0.2506(3)
H2 H 1.19890 0.45000 0.21740
C5 C 1.2609(4) 0.3537(4) 0.2492(3)
C6 C 1.2684(5) 0.2860(4) 0.3014(4)
H3 H 1.30770 0.25210 0.30230
C7 C 1.2175(4) 0.2697(4) 0.3516(4)
H4 H 1.22390 0.22510 0.38740
C8 C 1.3135(4) 0.3723(4) 0.1941(3)
C9 C 1.3375(4) 0.3223(4) 0.1666(3)
H5 H 1.32110 0.27540 0.18420
C10 C 1.3855(4) 0.3399(3) 0.1132(3)
C11 C 1.4120(4) 0.4088(3) 0.0886(3)
H6 H 1.44610 0.42060 0.05400
C12 C 1.3880(4) 0.4595(4) 0.1152(3)
C13 C 1.3387(4) 0.4426(4) 0.1677(4)
H7 H 1.32240 0.47760 0.18530
C14 C 1.4133(4) 0.5350(4) 0.0878(3)
C15 C 0.9128(4) 0.2267(4) 0.4013(3)
C16 C 0.8898(3) 0.1697(4) 0.3774(3)
C17 C 0.9152(3) 0.0976(4) 0.4092(3)
H8 H 0.94960 0.08470 0.44360
C18 C 0.8903(4) 0.0450(3) 0.3908(3)
C19 C 0.8396(4) 0.0640(4) 0.3392(3)
H9 H 0.82240 0.02780 0.32680
C20 C 0.8145(4) 0.1363(4) 0.3062(3)
C21 C 0.8405(4) 0.1884(4) 0.3260(3)
H10 H 0.82410 0.23750 0.30400
C22 C 0.7614(4) 0.1566(4) 0.2508(3)
C23 C 0.7686(5) 0.2169(4) 0.1946(4)
H11 H 0.80740 0.24620 0.19060
C24 C 0.7179(4) 0.2346(4) 0.1431(4)
H12 H 0.72250 0.27620 0.10470
C25 C 0.6611(4) 0.1911(4) 0.1486(4)
C26 C 0.6552(4) 0.1305(4) 0.2047(4)
H13 H 0.61740 0.10030 0.20830
C27 C 0.7041(4) 0.1137(4) 0.2556(4)
H14 H 0.69860 0.07260 0.29420
C28 C 0.6073(4) 0.2113(4) 0.0930(3)
C29 C 0.9081(4) 0.4805(4) 0.4054(3)
C30 C 0.8918(4) 0.5624(4) 0.3750(3)
C31 C 0.9150(3) 0.6048(4) 0.4057(3)
H15 H 0.93790 0.58340 0.44720
C32 C 0.9047(4) 0.6798(4) 0.3755(3)
C33 C 0.9306(4) 0.7252(4) 0.4096(3)
C34 C 0.8727(4) 0.7111(4) 0.3133(3)
H16 H 0.86860 0.76180 0.29180
C35 C 0.8469(4) 0.6688(4) 0.2829(3)
C36 C 0.8579(4) 0.5937(4) 0.3138(3)
H17 H 0.84220 0.56390 0.29300
C37 C 0.8091(4) 0.7032(4) 0.2177(4)
C38 C 0.8358(6) 0.7613(6) 0.1675(5)
H18 H 0.87830 0.78100 0.17410
C39 C 0.7997(6) 0.7907(5) 0.1070(4)
H19 H 0.81860 0.83000 0.07280
C40 C 0.7366(4) 0.7634(4) 0.0962(3)
C41 C 0.7117(5) 0.7052(6) 0.1472(4)
H20 H 0.66980 0.68440 0.14110
C42 C 0.7472(5) 0.6769(5) 0.2071(4)
H21 H 0.72780 0.63820 0.24150
C43 C 0.6983(4) 0.7947(5) 0.0311(4)
C44 C 0.8773(4) 0.2287(4) 0.5794(4)
C45 C 0.8216(4) 0.2048(4) 0.6339(4)
C46 C 0.7561(4) 0.2452(4) 0.6326(4)
H22 H 0.74400 0.28780 0.59590
C47 C 0.7089(4) 0.2233(4) 0.6848(3)
H23 H 0.66520 0.25190 0.68430
C48 C 0.7249(4) 0.1588(4) 0.7389(4)
C49 C 0.7885(5) 0.1180(5) 0.7380(4)
H24 H 0.79960 0.07370 0.77330
C50 C 0.8366(5) 0.1411(5) 0.6859(5)
H25 H 0.88020 0.11250 0.68630
C51 C 0.6741(4) 0.1356(4) 0.7963(3)
C52 C 0.6475(4) 0.1833(4) 0.8253(3)
H26 H 0.66170 0.23110 0.80840
C53 C 0.5998(4) 0.1623(3) 0.8795(3)
C54 C 0.5778(4) 0.0915(3) 0.9027(3)
H27 H 0.54430 0.07660 0.93770
C55 C 0.6053(4) 0.0437(3) 0.8742(3)
C56 C 0.6539(4) 0.0644(4) 0.8218(3)
H28 H 0.67300 0.03080 0.80360
C57 C 0.5808(4) -0.0329(4) 0.8990(3)
C58 C 0.5738(4) 0.2132(4) 0.9113(3)
C59 C 1.4073(4) 0.2848(4) 0.0841(3)
C60 C 0.9186(4) -0.0336(4) 0.4228(3)
O1 O 1.1097(3) 0.2341(3) 0.4489(3)
O2 O 1.0459(3) 0.3421(3) 0.3961(2)
O3 O 1.3767(4) 0.5828(3) 0.1030(4)
O4 O 1.4671(3) 0.5482(3) 0.0530(2)
O5 O 1.4505(3) 0.3016(3) 0.0358(2)
O6 O 1.3834(3) 0.2241(3) 0.1084(2)
O7 O 0.8770(3) 0.4411(3) 0.3816(3)
O8 O 0.9501(3) 0.4547(3) 0.4517(3)
O9 O 0.9671(3) 0.6960(3) 0.4611(3)
O10 O 0.9123(4) 0.7931(3) 0.3866(3)
O11 O 0.7295(4) 0.8302(5) -0.0180(3)
O12 O 0.6304(3) 0.7796(4) 0.0337(3)
O13 O 0.8863(4) 0.2894(3) 0.3783(3)
O14 O 0.9583(5) 0.2059(4) 0.4460(3)
O15 O 0.9822(3) -0.0491(3) 0.4438(3)
O16 O 0.8758(3) -0.0817(3) 0.4293(3)
O17 O 0.6087(3) 0.2732(3) 0.0487(2)
O18 O 0.5637(3) 0.1631(3) 0.0950(3)
O19 O 0.8669(3) 0.2924(3) 0.5365(2)
O20 O 0.9287(4) 0.1827(3) 0.5820(3)
O21 O 0.6115(3) -0.0768(2) 0.8753(2)
O22 O 0.5328(3) -0.0498(3) 0.9420(2)
O23 O 0.5193(3) 0.1985(3) 0.9485(3)
O24 O 0.6068(3) 0.2686(3) 0.8999(3)
O25 O 1.1949(4) 0.0644(5) 0.1269(4)
O26 O 1.1960(5) 0.2467(5) 0.1045(5)
O27 O 1.5572(3) 0.6478(3) 0.1069(3)
Cd6 Cd 0.52394(3) 0.28813(3) 0.51964(2)
Cl2 Cl 0.59097(12) 0.36938(11) 0.55676(11)
C61 C 0.8852(6) -0.0848(6) 0.5990(6)
H29 H 0.93100 -0.06460 0.58080
H30 H 0.87610 -0.12280 0.58330
H31 H 0.88840 -0.10490 0.64670
C62 C 0.7558(5) -0.0445(5) 0.5779(5)
H32 H 0.74740 -0.09360 0.58880
C63 C 0.6978(5) 0.0049(5) 0.5629(5)
H33 H 0.65030 -0.00900 0.56180
C64 C 0.7097(4) 0.0779(4) 0.5488(3)
C65 C 0.7815(4) 0.0963(5) 0.5459(4)
H34 H 0.79150 0.14520 0.53270
C66 C 0.8382(4) 0.0419(5) 0.5627(4)
H35 H 0.88660 0.05400 0.56330
C67 C 0.6467(4) 0.1355(4) 0.5366(3)
C68 C 0.6376(4) 0.1860(4) 0.4718(4)
C69 C 0.6797(4) 0.1851(4) 0.4159(4)
H36 H 0.72010 0.15260 0.41640
C70 C 0.6502(5) 0.2399(5) 0.3620(4)
H37 H 0.66570 0.25150 0.31820
C71 C 0.5916(4) 0.2764(4) 0.3844(4)
C72 C 0.5438(4) 0.3358(4) 0.3444(3)
C73 C 0.5611(5) 0.3665(5) 0.2739(4)
C74 C 0.5612(6) 0.3254(5) 0.2340(5)
H38 H 0.54920 0.27690 0.25220
C75 C 0.5784(6) 0.3554(6) 0.1701(4)
H39 H 0.57630 0.32760 0.14380
C76 C 0.6203(6) 0.4531(7) 0.0722(4)
H40 H 0.62250 0.50520 0.05810
H41 H 0.58470 0.44300 0.04550
H42 H 0.66810 0.43090 0.06710
C77 C 0.5935(6) 0.4661(5) 0.1778(4)
H43 H 0.60250 0.51530 0.15720
C78 C 0.5760(5) 0.4390(5) 0.2434(4)
H44 H 0.57400 0.46920 0.26770
C79 C 0.4813(4) 0.3687(4) 0.3658(3)
C80 C 0.4279(5) 0.4200(5) 0.3224(4)
H45 H 0.43140 0.44200 0.27630
C81 C 0.3730(4) 0.4307(5) 0.3589(4)
H46 H 0.33000 0.46110 0.34360
C82 C 0.3915(4) 0.3865(4) 0.4280(4)
C83 C 0.3462(4) 0.3798(4) 0.4818(4)
C84 C 0.2777(4) 0.4290(4) 0.4669(3)
C85 C 0.2760(5) 0.5006(5) 0.4616(6)
H47 H 0.31760 0.51810 0.47260
C86 C 0.2147(5) 0.5449(5) 0.4407(6)
H48 H 0.21560 0.59380 0.43560
C87 C 0.0892(5) 0.5748(5) 0.3995(4)
C88 C 0.1522(4) 0.4519(5) 0.4364(4)
H49 H 0.10820 0.43530 0.42870
C89 C 0.2117(5) 0.4039(5) 0.4566(4)
H50 H 0.20880 0.35470 0.46350
C90 C 0.3571(4) 0.3310(4) 0.5480(4)
C91 C 0.3055(5) 0.3217(5) 0.6011(4)
H51 H 0.26030 0.34860 0.59910
C92 C 0.3345(4) 0.2672(5) 0.6540(4)
H52 H 0.31380 0.24970 0.69630
C93 C 0.4031(4) 0.2400(4) 0.6343(3)
C94 C 0.4488(4) 0.1785(4) 0.6721(3)
C95 C 0.4262(4) 0.1418(4) 0.7419(3)
C96 C 0.4233(5) 0.1758(5) 0.7878(4)
H53 H 0.43430 0.22450 0.77440
C97 C 0.4050(4) 0.1389(5) 0.8510(4)
H54 H 0.40360 0.16220 0.88130
C98 C 0.3680(6) 0.0311(6) 0.9420(4)
H55 H 0.37330 -0.02100 0.95340
H56 H 0.31750 0.04600 0.94860
H57 H 0.39980 0.04390 0.96990
C99 C 0.3905(5) 0.0340(5) 0.8305(4)
H58 H 0.37930 -0.01470 0.84590
C100 C 0.4090(4) 0.0686(4) 0.7647(4)
H59 H 0.41000 0.04370 0.73570
C101 C 0.5110(4) 0.1478(4) 0.6532(3)
C102 C 0.5555(4) 0.0828(4) 0.6930(3)
H60 H 0.54670 0.05370 0.73720
C103 C 0.6108(4) 0.0714(4) 0.6561(4)
H61 H 0.64830 0.03370 0.66990
C104 C 0.6023(4) 0.1279(4) 0.5909(3)
N1 N 0.4152(3) 0.2802(3) 0.5697(3)
N2 N 0.4578(3) 0.3506(3) 0.4284(3)
N3 N 0.5855(3) 0.2430(3) 0.4520(3)
N4 N 0.5421(3) 0.1728(3) 0.5913(3)
N5 N 0.1534(4) 0.5234(4) 0.4269(3)
N6 N 0.5982(4) 0.4231(5) 0.1421(3)
N7 N 0.8250(4) -0.0273(4) 0.5780(3)
N8 N 0.3884(4) 0.0684(4) 0.8719(3)
Cd1A Cd 1.05835(2) 0.66631(2) 0.54864(2)
Cd2A Cd 0.96293(2) 0.82219(2) 0.46781(2)
Cd2A* Cd 0.96293(2) -0.17781(2) 0.46781(2)
Cd3A Cd 0.54242(2) 0.82861(2) -0.045400(19)
Cd3* Cd 0.45758(2) 0.17139(2) 0.045400(19)
Cd3A* Cd 0.54242(2) -0.17139(2) 0.954600(19)
Cd3** Cd 0.45758(2) 0.17139(2) 1.045400(19)
Cd4A Cd 0.71950(3) 0.85422(3) -0.12578(3)
Cd4A* Cd 0.71950(3) -0.14578(3) 0.87422(3)
Cd5A Cd 1.54427(2) 0.32964(2) -0.043240(19)
Cd5A* Cd 0.54427(2) 0.32964(2) -0.043240(19)
Cd5A** Cd 0.54427(2) 0.32964(2) 0.956760(19)
O5A O 1.5495(3) 0.6984(3) -0.0358(2)
O9A O 1.0329(3) 0.3040(3) 0.5389(3)
O10A O 1.0877(4) 0.2069(3) 0.6134(3)
O11A O 1.2705(4) 0.1698(5) 0.0180(3)
O12A O 1.3696(3) 0.2204(4) -0.0337(3)
O15A O 1.0178(3) 0.0491(3) 0.5562(3)
O16A O 1.1242(3) 0.0817(3) 0.5707(3)
O17A O 1.3913(3) 0.7268(3) -0.0487(2)
O18* O 1.5637(3) 0.1631(3) 0.0950(3)
O21A O 1.3885(3) 0.0768(2) 0.1247(2)
O22A O 1.4672(3) 0.0498(3) 0.0580(2)
O23* O 1.5193(3) 0.1985(3) -0.0515(3)
O24A O 1.3932(3) 0.7314(3) 0.1001(3)
#END
