
#######################################################################
#
#                 Cambridge Crystallographic Data Centre
#                                CCDC
#
#######################################################################
#
# If this CIF has been generated from an entry in the Cambridge
# Structural Database, then it will include bibliographic, chemical,
# crystal, experimental, refinement or atomic coordinate data resulting
# from the CCDC's data processing and validation procedures.
#
#######################################################################

data_CSD_CIF_HEFDON
_audit_creation_date 2013-01-14
_audit_creation_method CSD-ConQuest-V1
_database_code_CSD HEFDON
_database_code_depnum_ccdc_archive 'CCDC 878570'
_chemical_formula_sum 'C104 H70 Ba0.5 Cd5 Cl1 N8 O27'
_chemical_formula_moiety
;
(C60 H28 Cd4 O24 4-)n,n(C44 H36 Cd1 Cl1 N8 3+),0.5n(Ba1 2+),3n(H2 O1)
;
_journal_coden_Cambridge 179
_journal_volume 51
_journal_year 2012
_journal_page_first 9330
_journal_name_full 'Angew.Chem.,Int.Ed. '
loop_
_publ_author_name
"Zhenjie Zhang"
"Wen-Yang Gao"
"L.Wojtas"
"Shengqian Ma"
"M.Eddaoudi"
"M.J.Zaworotko"
_chemical_name_systematic
;
catena-(hemi-barium 
chloro-(4,4',4'',4'''-porphyrin-5,10,15,20-tetrayltetrakis(1-methylpyridinium)
)-cadmium tetrakis(\m~5~-biphenyl-3,4',5-tricarboxylato)-tetra-cadmium 
unknown solvate trihydrate)
;
_cell_volume   3711.117
_exptl_special_details
;
The paper describes a number of bonds involving the Ba atom which have not 
been represented in the 2D diagram
;
_diffrn_ambient_temperature 100
_refine_special_details
;
O14 disordered by symmetry over two sites with occupancy 0.50; Cd3,Cl1 
disordered by symmetry over two sites with occupancy 0.50; O16,O18 disordered 
by symmetry over two sites with occupancy 0.50; The SQUEEZE/PLATON program 
has been used to model the solvent molecules.
;
#These two values have been output from a single CSD field.
_refine_ls_R_factor_gt 0.0653
_refine_ls_wR_factor_gt 0.0653
_symmetry_cell_setting triclinic
_symmetry_space_group_name_H-M 'P -1'
_symmetry_Int_Tables_number 2
loop_
_symmetry_equiv_pos_site_id
_symmetry_equiv_pos_as_xyz
1 x,y,z
2 -x,-y,-z
_cell_length_a 9.9445(6)
_cell_length_b 18.5391(11)
_cell_length_c 20.2889(12)
_cell_angle_alpha 88.904(3)
_cell_angle_beta 83.648(3)
_cell_angle_gamma 86.713(3)
_cell_formula_units_Z 1
loop_
_atom_type_symbol
_atom_type_radius_bond
C 0.68
H 0.23
Ba 1.26
Cd 1.31
Cl 0.99
N 0.82
O 0.78
loop_
_atom_site_label
_atom_site_type_symbol
_atom_site_fract_x
_atom_site_fract_y
_atom_site_fract_z
Cd1 Cd 0.41284(10) -0.02898(5) 0.01904(4)
C1 C 1.0417(9) -0.3954(5) 0.0955(4)
H1 H 1.00740 -0.44000 0.08040
H2 H 1.13600 -0.39140 0.07650
H3 H 1.03700 -0.39630 0.14410
C2 C 0.8325(8) -0.3404(4) 0.0606(4)
H4 H 0.79720 -0.38700 0.06280
C3 C 0.7548(8) -0.2808(4) 0.0439(4)
H5 H 0.66520 -0.28710 0.03380
C4 C 0.8015(9) -0.2120(4) 0.0410(4)
C5 C 0.9341(11) -0.2067(6) 0.0554(7)
H6 H 0.97210 -0.16080 0.05520
C6 C 1.0071(11) -0.2657(6) 0.0695(6)
H7 H 1.09880 -0.26140 0.07710
C7 C 0.6704(11) -0.1012(4) 0.0832(5)
C8 C 0.7056(9) -0.1158(4) 0.1493(4)
H8 H 0.75940 -0.15580 0.16360
C9 C 0.6471(10) -0.0614(5) 0.1863(4)
H9 H 0.65190 -0.05580 0.23240
C10 C 0.5750(11) -0.0125(5) 0.1442(4)
C11 C 0.7111(10) -0.1472(5) 0.0266(5)
C12 C 0.6795(11) -0.1379(4) -0.0383(5)
C13 C 0.7263(9) -0.1836(5) -0.0931(4)
H10 H 0.78750 -0.22480 -0.09190
C14 C 0.6686(9) -0.1582(5) -0.1464(4)
H11 H 0.67890 -0.17890 -0.18930
C15 C 0.5873(11) -0.0929(5) -0.1259(5)
C16 C 0.4945(11) 0.0498(5) 0.1643(4)
C17 C 0.4955(9) 0.0692(4) 0.2349(4)
C18 C 0.3752(10) 0.0749(5) 0.2795(5)
H12 H 0.28990 0.06730 0.26470
C19 C 0.3839(11) 0.0915(5) 0.3449(5)
H13 H 0.30320 0.09670 0.37450
C20 C 0.5029(11) 0.1171(6) 0.4374(4)
H14 H 0.45500 0.08050 0.46480
H15 H 0.45800 0.16480 0.44660
H16 H 0.59690 0.11700 0.44770
C21 C 0.6170(9) 0.0965(5) 0.3259(4)
H17 H 0.70080 0.10420 0.34230
C22 C 0.6148(8) 0.0815(4) 0.2610(3)
H18 H 0.69750 0.07950 0.23250
Cl1 Cl 0.2200(5) -0.1009(3) 0.0672(3)
N1 N 0.5923(11) -0.0844(4) -0.0596(4)
N2 N 0.597(1) -0.0385(4) 0.0802(4)
N3 N 0.9569(6) -0.3316(4) 0.0735(3)
N4 N 0.5013(8) 0.1005(4) 0.3672(3)
Ba1 Ba 1.0427(3) 0.24190(15) -0.42362(13)
O1 O 1.314(4) 0.274(3) -0.479(2)
O2 O 1.0726(16) 0.1952(9) -0.2718(7)
O3 O 1.183(5) 0.359(3) -0.341(3)
O4 O 0.822(4) 0.248(2) -0.4846(17)
Cd2 Cd 0.61289(4) 0.45305(2) 0.038866(19)
Cd3 Cd 0.89934(4) -0.04124(2) 0.455620(19)
C23 C 1.0156(9) 0.1149(4) 0.4157(4)
C24 C 1.0353(8) 0.1679(4) 0.3588(3)
C25 C 1.1141(8) 0.2272(4) 0.3631(4)
H19 H 1.15630 0.23430 0.40200
C26 C 1.1304(8) 0.2756(4) 0.3105(3)
H20 H 1.18460 0.31570 0.31360
C27 C 1.0685(7) 0.2664(4) 0.2531(3)
C28 C 0.9930(7) 0.2062(4) 0.2488(4)
H21 H 0.95360 0.19830 0.20920
C29 C 0.9743(7) 0.1576(4) 0.3012(4)
H22 H 0.92020 0.11750 0.29800
C30 C 1.0804(7) 0.3188(4) 0.1974(3)
C31 C 1.2066(7) 0.3462(4) 0.1750(3)
H23 H 1.28370 0.33220 0.19700
C32 C 1.2199(6) 0.3936(3) 0.1209(3)
C33 C 1.1084(7) 0.4162(3) 0.0893(3)
H24 H 1.11660 0.44910 0.05290
C34 C 0.9829(7) 0.3892(4) 0.1124(3)
C35 C 0.9711(7) 0.3415(4) 0.1646(3)
H25 H 0.88500 0.32340 0.17860
C36 C 0.8584(7) 0.4150(4) 0.0793(3)
C37 C 1.3575(7) 0.4161(4) 0.0930(3)
C38 C 0.5283(7) 0.3978(4) -0.0957(3)
C39 C 0.5347(7) 0.3407(4) -0.1484(3)
C40 C 0.4536(9) 0.3485(4) -0.1973(4)
H26 H 0.39200 0.38960 -0.19780
C41 C 0.4582(9) 0.2970(5) -0.2477(4)
H27 H 0.40150 0.30390 -0.28230
C42 C 0.5458(7) 0.2361(4) -0.2467(3)
C43 C 0.6227(8) 0.2269(4) -0.1949(4)
H28 H 0.68020 0.18450 -0.19240
C44 C 0.6179(8) 0.2784(5) -0.1462(4)
H29 H 0.67240 0.27100 -0.11070
C45 C 0.5526(7) 0.1833(4) -0.3004(3)
C46 C 0.4354(7) 0.1635(4) -0.3251(3)
H30 H 0.35020 0.18560 -0.30840
C47 C 0.4420(7) 0.1108(4) -0.3747(3)
C48 C 0.5656(7) 0.0795(4) -0.4007(3)
H31 H 0.56980 0.04400 -0.43410
C49 C 0.6842(7) 0.1006(4) -0.3774(3)
C50 C 0.6773(8) 0.1512(4) -0.3271(3)
H32 H 0.75830 0.16410 -0.31060
C51 C 0.8191(7) 0.0706(4) -0.4099(3)
C52 C 0.3155(7) 0.0873(4) -0.4016(3)
O5 O 0.9297(6) 0.0677(3) 0.4104(3)
O6 O 1.0812(7) 0.1230(3) 0.4631(3)
O7 O 0.7630(6) 0.3718(3) 0.0825(3)
O8 O 0.8539(5) 0.4741(3) 0.0516(2)
O9 O 1.3648(5) 0.4512(3) 0.0389(2)
O10 O 1.4589(5) 0.3960(3) 0.1202(2)
O11 O 0.6112(5) 0.3876(3) -0.0522(2)
O12 O 0.4416(5) 0.4478(3) -0.1003(2)
O13 O 0.9232(6) 0.0944(4) -0.3938(3)
O14 O 0.8173(6) 0.0225(4) -0.4498(3)
O15 O 0.3206(6) 0.0334(3) -0.4329(3)
O16 O 0.2107(7) 0.1256(5) -0.3901(5)
O17? O 0.958(8) 0.640(4) 0.501(3)
O18? O 1.154(8) 0.639(4) 0.377(4)
Cd1A Cd 0.58716(10) 0.02898(5) -0.01904(4)
C1A C -0.0417(9) 0.3954(5) -0.0955(4)
H1A H -0.00740 0.44000 -0.08040
H2A H -0.13600 0.39140 -0.07650
H3A H -0.03700 0.39630 -0.14410
C2A C 0.1675(8) 0.3404(4) -0.0606(4)
H4A H 0.20280 0.38700 -0.06280
C3A C 0.2452(8) 0.2808(4) -0.0439(4)
H5A H 0.33480 0.28710 -0.03380
C4A C 0.1985(9) 0.2120(4) -0.0410(4)
C5A C 0.0659(11) 0.2067(6) -0.0554(7)
H6A H 0.02790 0.16080 -0.05520
C6A C -0.0071(11) 0.2657(6) -0.0695(6)
H7A H -0.09880 0.26140 -0.07710
C7A C 0.3296(11) 0.1012(4) -0.0832(5)
C8A C 0.2944(9) 0.1158(4) -0.1493(4)
H8A H 0.24060 0.15580 -0.16360
C9A C 0.3529(10) 0.0614(5) -0.1863(4)
H9A H 0.34810 0.05580 -0.23240
C10A C 0.4250(11) 0.0125(5) -0.1442(4)
C11A C 0.2889(10) 0.1472(5) -0.0266(5)
C12A C 0.3205(11) 0.1379(4) 0.0383(5)
C13A C 0.2737(9) 0.1836(5) 0.0931(4)
H10A H 0.21250 0.22480 0.09190
C14A C 0.3314(9) 0.1582(5) 0.1464(4)
H11A H 0.32110 0.17890 0.18930
C15A C 0.4127(11) 0.0929(5) 0.1259(5)
C16A C 0.5055(11) -0.0498(5) -0.1643(4)
C17A C 0.5045(9) -0.0692(4) -0.2349(4)
C18A C 0.6248(10) -0.0749(5) -0.2795(5)
H12A H 0.71010 -0.06730 -0.26470
C19A C 0.6161(11) -0.0915(5) -0.3449(5)
H13A H 0.69680 -0.09670 -0.37450
C20A C 0.4971(11) -0.1171(6) -0.4374(4)
H14A H 0.54500 -0.08050 -0.46480
H15A H 0.54200 -0.16480 -0.44660
H16A H 0.40310 -0.11700 -0.44770
C21A C 0.3830(9) -0.0965(5) -0.3259(4)
H17A H 0.29920 -0.10420 -0.34230
C22A C 0.3852(8) -0.0815(4) -0.2610(3)
H18A H 0.30250 -0.07950 -0.23250
Cl1A Cl 0.7800(5) 0.1009(3) -0.0672(3)
N1A N 0.4077(11) 0.0844(4) 0.0596(4)
N2A N 0.403(1) 0.0385(4) -0.0802(4)
N3A N 0.0431(6) 0.3316(4) -0.0735(3)
N4A N 0.4987(8) -0.1005(4) -0.3672(3)
Cd2* Cd -0.38711(4) 0.45305(2) 0.038866(19)
Cd2** Cd 1.61289(4) 0.45305(2) 0.038866(19)
Cd2A Cd 1.38711(4) 0.54695(2) -0.038866(19)
Cd2A* Cd 0.38711(4) 0.54695(2) -0.038866(19)
Cd3* Cd -0.10066(4) -0.04124(2) 0.455620(19)
Cd3A Cd 1.10066(4) 0.04124(2) 0.544380(19)
Cd3A* Cd 1.10066(4) 0.04124(2) -0.455620(19)
Cd3** Cd 0.89934(4) -0.04124(2) -0.544380(19)
Cd3A** Cd 0.10066(4) 0.04124(2) -0.455620(19)
Cd3A*** Cd 0.10066(4) 0.04124(2) 0.544380(19)
Cd3*** Cd -0.10066(4) 0.95876(2) 0.455620(19)
Cd3A**** Cd 0.10066(4) 1.04124(2) 0.544380(19)
Cd3**** Cd 0.89934(4) 0.95876(2) 0.455620(19)
C23* C 0.0156(9) 0.1149(4) 0.4157(4)
C24* C 0.0353(8) 0.1679(4) 0.3588(3)
C25* C 0.1141(8) 0.2272(4) 0.3631(4)
H19* H 0.15630 0.23430 0.40200
C26* C 0.1304(8) 0.2756(4) 0.3105(3)
H20* H 0.18460 0.31570 0.31360
C27* C 0.0685(7) 0.2664(4) 0.2531(3)
C28* C -0.0070(7) 0.2062(4) 0.2488(4)
H21* H -0.04640 0.19830 0.20920
C29* C -0.0257(7) 0.1576(4) 0.3012(4)
H22* H -0.07980 0.11750 0.29800
C30* C 0.0804(7) 0.3188(4) 0.1974(3)
C31* C 0.2066(7) 0.3462(4) 0.1750(3)
H23* H 0.28370 0.33220 0.19700
C32* C 0.2199(6) 0.3936(3) 0.1209(3)
C33* C 0.1084(7) 0.4162(3) 0.0893(3)
H24* H 0.11660 0.44910 0.05290
C34* C -0.0171(7) 0.3892(4) 0.1124(3)
C35* C -0.0289(7) 0.3415(4) 0.1646(3)
H25* H -0.11500 0.32340 0.17860
C36* C -0.1416(7) 0.4150(4) 0.0793(3)
C37* C 0.3575(7) 0.4161(4) 0.0930(3)
C38A C 0.4717(7) 0.6022(4) 0.0957(3)
C39A C 0.4653(7) 0.6593(4) 0.1484(3)
C40A C 0.5464(9) 0.6515(4) 0.1973(4)
H26A H 0.60800 0.61040 0.19780
C41A C 0.5418(9) 0.7030(5) 0.2477(4)
H27A H 0.59850 0.69610 0.28230
C42A C 0.4542(7) 0.7639(4) 0.2467(3)
C43A C 0.3773(8) 0.7731(4) 0.1949(4)
H28A H 0.31980 0.81550 0.19240
C44A C 0.3821(8) 0.7216(5) 0.1462(4)
H29A H 0.32760 0.72900 0.11070
C45A C 0.4474(7) 0.8167(4) 0.3004(3)
C46A C 0.5646(7) 0.8365(4) 0.3251(3)
H30A H 0.64980 0.81440 0.30840
C47A C 0.5580(7) 0.8892(4) 0.3747(3)
C48A C 0.4344(7) 0.9205(4) 0.4007(3)
H31A H 0.43020 0.95600 0.43410
C49A C 0.3158(7) 0.8994(4) 0.3774(3)
C50A C 0.3227(8) 0.8488(4) 0.3271(3)
H32A H 0.24170 0.83590 0.31060
C51A C 0.1809(7) 0.9294(4) 0.4099(3)
C52A C 0.6845(7) 0.9127(4) 0.4016(3)
O5* O -0.0703(6) 0.0677(3) 0.4104(3)
O6* O 0.0812(7) 0.1230(3) 0.4631(3)
O6A O 0.9188(7) -0.1230(3) 0.5369(3)
O6A* O -0.0812(7) -0.1230(3) 0.5369(3)
O7* O -0.2370(6) 0.3718(3) 0.0825(3)
O8* O -0.1461(5) 0.4741(3) 0.0516(2)
O9* O 0.3648(5) 0.4512(3) 0.0389(2)
O9A O 0.6352(5) 0.5488(3) -0.0389(2)
O9** O -0.6352(5) 0.4512(3) 0.0389(2)
O9A* O -0.3648(5) 0.5488(3) -0.0389(2)
O10* O 0.4589(5) 0.3960(3) 0.1202(2)
O10** O -0.5411(5) 0.3960(3) 0.1202(2)
O11A O 0.3888(5) 0.6124(3) 0.0522(2)
O11* O -0.3888(5) 0.3876(3) -0.0522(2)
O12A O 0.5584(5) 0.5522(3) 0.1003(2)
O12A* O -0.4416(5) 0.5522(3) 0.1003(2)
O13A O 0.0768(6) 0.9056(4) 0.3938(3)
O13A* O 1.0768(6) -0.0944(4) 0.3938(3)
O13A** O 0.0768(6) -0.0944(4) 0.3938(3)
O14A O 0.1827(6) 0.9775(4) 0.4498(3)
O14* O 0.8173(6) 0.0225(4) 0.5502(3)
O14** O -0.1827(6) 0.0225(4) 0.5502(3)
O15A O 0.6794(6) 0.9666(3) 0.4329(3)
O15A* O 0.6794(6) -0.0334(3) 0.4329(3)
O15A** O -0.3206(6) -0.0334(3) 0.4329(3)
O16A O 0.7893(7) 0.8744(5) 0.3901(5)
O16A* O 0.7893(7) -0.1256(5) 0.3901(5)
O16A** O -0.2107(7) -0.1256(5) 0.3901(5)
#END
