
#######################################################################
#
#                 Cambridge Crystallographic Data Centre
#                                CCDC
#
#######################################################################
#
# If this CIF has been generated from an entry in the Cambridge
# Structural Database, then it will include bibliographic, chemical,
# crystal, experimental, refinement or atomic coordinate data resulting
# from the CCDC's data processing and validation procedures.
#
#######################################################################

data_CSD_CIF_HEFFEF
_audit_creation_date 2013-01-14
_audit_creation_method CSD-ConQuest-V1
_database_code_CSD HEFFEF
_database_code_depnum_ccdc_archive 'CCDC 878573'
_chemical_formula_sum 'C104 H70 Cd5 Cl1 N8 Na1 O27'
_chemical_formula_moiety
;
(C60 H28 Cd4 O24 4-)n,n(C44 H36 Cd1 Cl1 N8 3+),n(Na1 1+),3n(H2 O1)
;
_journal_coden_Cambridge 179
_journal_volume 51
_journal_year 2012
_journal_page_first 9330
_journal_name_full 'Angew.Chem.,Int.Ed. '
loop_
_publ_author_name
"Zhenjie Zhang"
"Wen-Yang Gao"
"L.Wojtas"
"Shengqian Ma"
"M.Eddaoudi"
"M.J.Zaworotko"
_chemical_name_systematic
;
catena-(sodium 
chloro-(4,4',4'',4'''-porphyrin-5,10,15,20-tetrayltetrakis(1-methylpyridinium)
)-cadmium tetrakis(\m~5~-biphenyl-3,4',5-tricarboxylato)-tetra-cadmium 
unknown solvate trihydrate)
;
_cell_volume   3687.688
_exptl_crystal_colour 'dark green'
_exptl_crystal_density_diffrn 1.116
_exptl_special_details
;
The published unit cell parameters are incorrect; we have used the values 
from the deposited .cif; The paper describes a number of bonds involving the 
Na atom which have not been represented in the 2D diagram
;
_exptl_crystal_description 'prism'
_diffrn_ambient_temperature 100
_refine_special_details
;
Disordered solvent molecules were not modelled and the disordered density was 
taken into account using the SQUEEZE/PLATON procedure.
;
#These two values have been output from a single CSD field.
_refine_ls_R_factor_gt 0.1152
_refine_ls_wR_factor_gt 0.1152
_symmetry_cell_setting triclinic
_symmetry_space_group_name_H-M 'P -1'
_symmetry_Int_Tables_number 2
loop_
_symmetry_equiv_pos_site_id
_symmetry_equiv_pos_as_xyz
1 x,y,z
2 -x,-y,-z
_cell_length_a 10.006(11)
_cell_length_b 18.34(2)
_cell_length_c 20.26(3)
_cell_angle_alpha 88.72(5)
_cell_angle_beta 83.46(8)
_cell_angle_gamma 86.86(4)
_cell_formula_units_Z 1
loop_
_atom_type_symbol
_atom_type_radius_bond
C 0.68
H 0.23
Cd 1.46
Cl 0.99
N 0.68
Na 0.86
O 0.68
loop_
_atom_site_label
_atom_site_type_symbol
_atom_site_fract_x
_atom_site_fract_y
_atom_site_fract_z
Cd1 Cd 0.91568(15) -0.03078(9) 1.01845(7)
Cl1 Cl 0.7295(8) -0.1177(5) 1.0525(4)
N1 N 0.9002(19) 0.0835(8) 1.0606(9)
N2 N 0.9019(16) 0.0362(7) 0.9219(7)
N3 N 1.0014(14) 0.1066(8) 1.3674(5)
N4 N 0.5400(13) 0.3367(7) 0.9232(10)
C1 C 0.4665(14) 0.4001(8) 0.8976(8)
H1 H 0.42830 0.38690 0.85850
H2 H 0.52710 0.43850 0.88670
H3 H 0.39580 0.41670 0.93080
C2 C 0.6618(15) 0.3427(11) 0.9335(8)
H4 H 0.69610 0.38890 0.92870
C3 C 0.7527(13) 0.2820(8) 0.9524(9)
H5 H 0.83840 0.29010 0.96340
C4 C 0.7075(13) 0.2152(8) 0.9533(9)
C5 C 0.5568(15) 0.2119(9) 0.9517(11)
H6 H 0.50980 0.17100 0.96580
C6 C 0.4970(16) 0.2725(8) 0.9284(12)
H7 H 0.41310 0.26710 0.91410
C7 C 0.7866(16) 0.1464(8) 0.9726(8)
C8 C 0.8194(18) 0.1366(7) 1.0394(8)
C9 C 0.7735(15) 0.1886(8) 1.0919(7)
H8 H 0.71960 0.23130 1.08920
C10 C 0.8293(12) 0.1594(8) 1.1464(8)
H9 H 0.81550 0.17810 1.18900
C11 C 0.9123(18) 0.0955(9) 1.1266(7)
C12 C 0.8242(16) 0.1037(7) 0.9161(7)
C13 C 0.7946(12) 0.1168(7) 0.8489(7)
H10 H 0.74300 0.15620 0.83390
C14 C 0.8548(17) 0.0622(10) 0.8117(9)
H11 H 0.85250 0.05740 0.76630
C15 C 0.9244(15) 0.0117(10) 0.8542(8)
C16 C 0.9936(13) 0.0493(8) 1.1648(6)
C17 C 0.9942(16) 0.0703(8) 1.2373(8)
C18 C 0.8794(14) 0.0778(9) 1.2805(8)
H12 H 0.79630 0.07090 1.26580
C19 C 0.8862(16) 0.0958(14) 1.3460(8)
H13 H 0.80750 0.10020 1.37520
C20 C 1.1221(17) 0.0815(11) 1.2613(7)
H14 H 1.20340 0.07420 1.23450
C21 C 1.1164(16) 0.1035(10) 1.3251(6)
H15 H 1.19530 0.11710 1.34050
C22 C 1.011(3) 0.1285(14) 1.4376(9)
H16 H 0.93070 0.15670 1.45390
H17 H 1.02010 0.08560 1.46500
H18 H 1.08780 0.15730 1.43880
Na1 Na 0.8929(12) 0.7208(8) 0.8791(9)
O1 O 0.740(2) 0.810(2) 0.8960(12)
O2 O 0.938(3) 0.6998(18) 0.7682(13)
O3 O 0.898(4) 0.754(2) 0.9849(17)
Cd2 Cd 0.88666(8) 0.54786(5) 0.96064(5)
Cd3 Cd 0.38930(9) 0.95980(7) 0.45490(4)
C23 C 0.9640(12) 0.5971(8) 1.1007(8)
C24 C 0.9570(12) 0.6564(7) 1.1534(6)
C25 C 1.0432(15) 0.6513(8) 1.2015(8)
H19 H 1.10690 0.61240 1.20150
C26 C 1.0356(13) 0.7045(8) 1.2507(6)
H20 H 1.09220 0.69900 1.28400
C27 C 0.9499(13) 0.7624(9) 1.2511(7)
C28 C 0.8626(15) 0.7681(10) 1.2011(6)
H21 H 0.79790 0.80660 1.20260
C29 C 0.8692(14) 0.7184(8) 1.1497(8)
H22 H 0.81780 0.72600 1.11450
C30 C 0.9346(12) 0.8207(7) 1.3043(6)
C31 C 0.8113(14) 0.8492(10) 1.3304(7)
H23 H 0.73390 0.83510 1.31380
C32 C 0.8003(13) 0.8997(8) 1.3824(6)
C33 C 0.9163(12) 0.9241(9) 1.4040(5)
H24 H 0.91100 0.95960 1.43630
C34 C 1.0393(11) 0.8949(8) 1.3770(6)
C35 C 1.0508(13) 0.8402(9) 1.3303(7)
H25 H 1.13400 0.81690 1.31670
C36 C 1.1687(14) 0.9121(9) 1.4007(7)
C37 C 0.6669(17) 0.9305(9) 1.4118(6)
C38 C 0.4827(19) 0.8933(12) 0.5852(11)
C39 C 0.4630(16) 0.8378(11) 0.6448(7)
C40 C 0.3870(19) 0.7762(13) 0.6364(10)
H26 H 0.35030 0.76920 0.59700
C41 C 0.3684(18) 0.7238(12) 0.6925(9)
H27 H 0.31590 0.68360 0.69170
C42 C 0.4327(16) 0.7385(9) 0.7449(8)
C43 C 0.5028(15) 0.7971(10) 0.7523(8)
H28 H 0.53540 0.80450 0.79270
C44 C 0.5295(16) 0.8505(10) 0.6971(7)
H29 H 0.58630 0.88890 0.69850
C45 C 0.4199(12) 0.6812(8) 0.8001(8)
C46 C 0.2931(10) 0.6540(7) 0.8227(6)
H30 H 0.21880 0.66460 0.79980
C47 C 0.2820(11) 0.6090(6) 0.8829(6)
C48 C 0.3939(10) 0.5872(6) 0.9102(6)
H31 H 0.38710 0.55410 0.94580
C49 C 0.5203(11) 0.6125(7) 0.8871(7)
C50 C 0.5296(13) 0.6601(10) 0.8309(8)
H32 H 0.61300 0.67720 0.81460
C51 C 0.6500(12) 0.5836(7) 0.9165(8)
C52 C 0.1480(11) 0.5844(6) 0.9130(7)
O4 O 0.6509(8) 0.5337(5) 0.9481(5)
O5 O 0.7435(11) 0.6295(6) 0.9126(8)
O6 O 0.1388(7) 0.5480(4) 0.9641(4)
O7 O 0.0420(8) 0.6082(5) 0.8877(5)
O8 O 0.4052(17) 0.8882(10) 0.5411(7)
O9 O 0.5782(16) 0.9309(7) 0.5928(10)
O10 O 1.1692(13) 0.9650(7) 1.4415(5)
O11 O 1.2792(14) 0.8894(8) 1.3815(7)
O12 O 0.675(2) 0.9665(14) 1.4579(11)
O13 O 0.5676(10) 0.9087(8) 1.3956(7)
O14 O 0.8878(8) 0.6119(5) 1.0536(5)
O15 O 1.0541(10) 0.5491(5) 1.1030(5)
Cd1A Cd 1.08432(15) 0.03078(9) 0.98155(7)
Cl1A Cl 1.2705(8) 0.1177(5) 0.9475(4)
N1A N 1.0998(19) -0.0835(8) 0.9394(9)
N2A N 1.0981(16) -0.0362(7) 1.0781(7)
N3A N 0.9986(14) -0.1066(8) 0.6326(5)
N4A N 1.4600(13) -0.3367(7) 1.0768(10)
C1A C 1.5335(14) -0.4001(8) 1.1024(8)
H1A H 1.57170 -0.38690 1.14150
H2A H 1.47290 -0.43850 1.11330
H3A H 1.60420 -0.41670 1.06920
C2A C 1.3382(15) -0.3427(11) 1.0665(8)
H4A H 1.30390 -0.38890 1.07130
C3A C 1.2473(13) -0.2820(8) 1.0476(9)
H5A H 1.16160 -0.29010 1.03660
C4A C 1.2925(13) -0.2152(8) 1.0467(9)
C5A C 1.4432(15) -0.2119(9) 1.0483(11)
H6A H 1.49020 -0.17100 1.03420
C6A C 1.5030(16) -0.2725(8) 1.0716(12)
H7A H 1.58690 -0.26710 1.08590
C7A C 1.2134(16) -0.1464(8) 1.0274(8)
C8A C 1.1806(18) -0.1366(7) 0.9606(8)
C9A C 1.2265(15) -0.1886(8) 0.9081(7)
H8A H 1.28040 -0.23130 0.91080
C10A C 1.1707(12) -0.1594(8) 0.8536(8)
H9A H 1.18450 -0.17810 0.81100
C11A C 1.0877(18) -0.0955(9) 0.8734(7)
C12A C 1.1758(16) -0.1037(7) 1.0839(7)
C13A C 1.2054(12) -0.1168(7) 1.1511(7)
H10A H 1.25700 -0.15620 1.16610
C14A C 1.1452(17) -0.0622(10) 1.1883(9)
H11A H 1.14750 -0.05740 1.23370
C15A C 1.0756(15) -0.0117(10) 1.1458(8)
C16A C 1.0064(13) -0.0493(8) 0.8352(6)
C17A C 1.0058(16) -0.0703(8) 0.7627(8)
C18A C 1.1206(14) -0.0778(9) 0.7195(8)
H12A H 1.20370 -0.07090 0.73420
C19A C 1.1138(16) -0.0958(14) 0.6540(8)
H13A H 1.19250 -0.10020 0.62480
C20A C 0.8779(17) -0.0815(11) 0.7387(7)
H14A H 0.79660 -0.07420 0.76550
C21A C 0.8836(16) -0.1035(10) 0.6749(6)
H15A H 0.80470 -0.11710 0.65950
C22A C 0.989(3) -0.1285(14) 0.5624(9)
H16A H 1.06930 -0.15670 0.54610
H17A H 0.97990 -0.08560 0.53500
H18A H 0.91220 -0.15730 0.56120
Cd2* Cd 1.88666(8) 0.54786(5) 0.96064(5)
Cd2** Cd -0.11334(8) 0.54786(5) 0.96064(5)
Cd2A Cd 0.11334(8) 0.45214(5) 1.03936(5)
Cd2A* Cd 1.11334(8) 0.45214(5) 1.03936(5)
Cd3* Cd 1.38930(9) 0.95980(7) 0.45490(4)
Cd3A Cd 0.61070(9) 1.04020(7) 0.54510(4)
Cd3** Cd 1.38930(9) 0.95980(7) 1.45490(4)
Cd3A* Cd 0.61070(9) 1.04020(7) 1.54510(4)
Cd3*** Cd 0.38930(9) 0.95980(7) 1.45490(4)
Cd3A** Cd 1.61070(9) 1.04020(7) 0.54510(4)
Cd3A*** Cd 0.61070(9) 0.04020(7) 0.54510(4)
Cd3**** Cd 1.38930(9) -0.04020(7) 0.45490(4)
Cd3A**** Cd 1.61070(9) 0.04020(7) 0.54510(4)
C23A C 1.0360(12) 0.4029(8) 0.8993(8)
C24A C 1.0430(12) 0.3436(7) 0.8466(6)
C25A C 0.9568(15) 0.3487(8) 0.7985(8)
H19A H 0.89310 0.38760 0.79850
C26A C 0.9644(13) 0.2955(8) 0.7493(6)
H20A H 0.90780 0.30100 0.71600
C27A C 1.0501(13) 0.2376(9) 0.7489(7)
C28A C 1.1374(15) 0.2319(10) 0.7989(6)
H21A H 1.20210 0.19340 0.79740
C29A C 1.1308(14) 0.2816(8) 0.8503(8)
H22A H 1.18220 0.27400 0.88550
C30A C 1.0654(12) 0.1793(7) 0.6957(6)
C31A C 1.1887(14) 0.1508(10) 0.6696(7)
H23A H 1.26610 0.16490 0.68620
C32A C 1.1997(13) 0.1003(8) 0.6176(6)
C33A C 1.0837(12) 0.0759(9) 0.5960(5)
H24A H 1.08900 0.04040 0.56370
C34A C 0.9607(11) 0.1051(8) 0.6230(6)
C35A C 0.9492(13) 0.1598(9) 0.6697(7)
H25A H 0.86600 0.18310 0.68330
C36A C 0.8313(14) 0.0879(9) 0.5993(7)
C37A C 1.3331(17) 0.0695(9) 0.5882(6)
C38* C 1.4827(19) 0.8933(12) 0.5852(11)
C39* C 1.4630(16) 0.8378(11) 0.6448(7)
C40* C 1.3870(19) 0.7762(13) 0.6364(10)
H26* H 1.35030 0.76920 0.59700
C41* C 1.3684(18) 0.7238(12) 0.6925(9)
H27* H 1.31590 0.68360 0.69170
C42* C 1.4327(16) 0.7385(9) 0.7449(8)
C43* C 1.5028(15) 0.7971(10) 0.7523(8)
H28* H 1.53540 0.80450 0.79270
C44* C 1.5295(16) 0.8505(10) 0.6971(7)
H29* H 1.58630 0.88890 0.69850
C45* C 1.4199(12) 0.6812(8) 0.8001(8)
C46* C 1.2931(10) 0.6540(7) 0.8227(6)
H30* H 1.21880 0.66460 0.79980
C47* C 1.2820(11) 0.6090(6) 0.8829(6)
C48* C 1.3939(10) 0.5872(6) 0.9102(6)
H31* H 1.38710 0.55410 0.94580
C49* C 1.5203(11) 0.6125(7) 0.8871(7)
C50* C 1.5296(13) 0.6601(10) 0.8309(8)
H32* H 1.61300 0.67720 0.81460
C51* C 1.6500(12) 0.5836(7) 0.9165(8)
C52* C 1.1480(11) 0.5844(6) 0.9130(7)
O4* O 1.6509(8) 0.5337(5) 0.9481(5)
O5* O 1.7435(11) 0.6295(6) 0.9126(8)
O6* O 1.1388(7) 0.5480(4) 0.9641(4)
O6A O 0.8612(7) 0.4520(4) 1.0359(4)
O6** O 2.1388(7) 0.5480(4) 0.9641(4)
O6A* O 1.8612(7) 0.4520(4) 1.0359(4)
O7* O 1.0420(8) 0.6082(5) 0.8877(5)
O7** O 2.0420(8) 0.6082(5) 0.8877(5)
O8* O 1.4052(17) 0.8882(10) 0.5411(7)
O9* O 1.5782(16) 0.9309(7) 0.5928(10)
O9A O 0.4218(16) 1.0691(7) 0.4072(10)
O9A* O 1.4218(16) 1.0691(7) 0.4072(10)
O10A O 0.8308(13) 0.0350(7) 0.5585(5)
O10* O 0.1692(13) 0.9650(7) 0.4415(5)
O10** O 1.1692(13) 0.9650(7) 0.4415(5)
O11A O 0.7208(14) 0.1106(8) 0.6185(7)
O11* O 0.2792(14) 0.8894(8) 0.3815(7)
O11** O 1.2792(14) 0.8894(8) 0.3815(7)
O12A O 1.325(2) 0.0335(14) 0.5421(11)
O12A* O 0.325(2) 1.0335(14) 0.5421(11)
O12A** O 1.325(2) 1.0335(14) 0.5421(11)
O13A O 1.4324(10) 0.0913(8) 0.6044(7)
O13* O 0.5676(10) 0.9087(8) 0.3956(7)
O13** O 1.5676(10) 0.9087(8) 0.3956(7)
O14A O 1.1122(8) 0.3881(5) 0.9464(5)
O14* O 1.8878(8) 0.6119(5) 1.0536(5)
O15A O 0.9459(10) 0.4509(5) 0.8970(5)
O15A* O 1.9459(10) 0.4509(5) 0.8970(5)
#END
