
#######################################################################
#
#                 Cambridge Crystallographic Data Centre
#                                CCDC
#
#######################################################################
#
# If this CIF has been generated from an entry in the Cambridge
# Structural Database, then it will include bibliographic, chemical,
# crystal, experimental, refinement or atomic coordinate data resulting
# from the CCDC's data processing and validation procedures.
#
#######################################################################

data_CSD_CIF_HEHZAY
_audit_creation_date 2017-09-22
_audit_creation_method CSD-ConQuest-V1
_database_code_CSD HEHZAY
_database_code_depnum_ccdc_archive 'CCDC 1463254'
_chemical_formula_sum 'C70 H84 Cd5 N11 O40 P3'
_chemical_formula_moiety
;
(C48 H26 Cd5 N3 O34 P3 2-)n,2(C2 H8 N1 1+),6(C3 H7 N1 O1)
;
_journal_coden_Cambridge 1564
_journal_volume 81
_journal_year 2016
_journal_page_first 786
_journal_name_full 'ChemPlusChem '
loop_
_publ_author_name
"Yajing Ling"
"Huimin Liu"
"Jingjing Jiao"
"YunLong Feng"
"Yabing He"
_chemical_name_systematic
;
catena-[bis(dimethylammonium) 
(\m-5,5',5'',5''',5'''',5'''''-[1,3,5,2,4,6-triazatriphosphinine-2,2,4,4,6,6-h
exaylhexakis(oxy)]hexakis(benzene-1,3-dicarboxylato))-tetra-aqua-penta-cadmium
 N,N-dimethylformamide solvate]
;
_cell_volume   8970.762
_exptl_crystal_colour 'colorless'
_exptl_crystal_description 'block'
_diffrn_ambient_temperature 293
_refine_special_details
;
Disordered dimethylammonium cations and N,N-dimethylformamide solvent 
molecules were not modelled and the disordered density was taken into account 
using the SQUEEZE/PLATON procedure.
;
#These two values have been output from a single CSD field.
_refine_ls_R_factor_gt 0.0936
_refine_ls_wR_factor_gt 0.0936
_symmetry_cell_setting orthorhombic
_symmetry_space_group_name_H-M 'P n n a'
_symmetry_Int_Tables_number 52
loop_
_symmetry_equiv_pos_site_id
_symmetry_equiv_pos_as_xyz
1 x,y,z
2 1/2-x,-y,z
3 x,1/2-y,1/2-z
4 1/2-x,1/2+y,1/2-z
5 -x,-y,-z
6 -1/2+x,y,-z
7 -x,-1/2+y,-1/2+z
8 -1/2+x,-1/2-y,-1/2+z
_cell_length_a 21.4650(15)
_cell_length_b 25.8553(8)
_cell_length_c 16.1640(12)
_cell_angle_alpha 90
_cell_angle_beta 90
_cell_angle_gamma 90
_cell_formula_units_Z 4
loop_
_atom_type_symbol
_atom_type_radius_bond
C 0.68
H 0.23
Cd 1.44
N 0.68
O 0.68
P 1.05
loop_
_atom_site_label
_atom_site_type_symbol
_atom_site_fract_x
_atom_site_fract_y
_atom_site_fract_z
Cd1 Cd 0.62628(5) -0.11210(3) 0.24905(7)
Cd2 Cd 0.31088(7) 0.25000 -0.25000
Cd3 Cd 0.48302(7) -0.03477(4) 0.33786(9)
P1 P 0.48823(19) 0.21839(11) 0.1842(2)
P2 P 0.3754(3) 0.25000 0.25000
O1 O 0.4303(7) 0.0441(4) 0.3069(9)
O2 O 0.4204(7) 0.0152(4) 0.4287(8)
O3 O 0.3255(6) 0.1286(4) 0.6423(8)
O4 O 0.3156(5) 0.2133(3) 0.6193(7)
O5 O 0.3259(4) 0.2146(4) 0.2920(7)
O6 O 0.5471(6) -0.0258(4) 0.2239(9)
O7 O 0.6470(7) -0.0307(4) 0.2229(10)
O8 O 0.7804(5) 0.1226(4) 0.1835(8)
O9 O 0.7353(5) 0.1978(3) 0.2088(7)
O10 O 0.5044(5) 0.1595(3) 0.1868(9)
O11 O 0.3889(5) 0.1975(2) -0.2085(6)
O12 O 0.4261(5) 0.1378(3) -0.1279(6)
O13 O 0.4697(6) 0.3796(3) -0.1747(7)
O14 O 0.5260(6) 0.3975(4) -0.0679(7)
O15 O 0.5226(5) 0.2374(5) 0.1068(7)
O16 O 0.5646(9) 0.0084(8) 0.4094(11)
O17 O 0.4191(10) -0.0742(8) 0.2565(10)
N1 N 0.5265(11) 0.25000 0.25000
N2 N 0.4147(5) 0.2213(4) 0.1800(6)
C1 C 0.4119(10) 0.0496(7) 0.3800(13)
C2 C 0.3806(8) 0.1004(6) 0.4002(11)
C3 C 0.3692(6) 0.1100(4) 0.4798(10)
H1 H 0.37910 0.08570 0.52010
C4 C 0.3427(8) 0.1566(5) 0.5012(10)
C5 C 0.3300(8) 0.1907(5) 0.4341(11)
H2 H 0.31050 0.22210 0.44560
C6 C 0.3440(7) 0.1805(5) 0.3591(11)
C7 C 0.3701(7) 0.1371(5) 0.3348(10)
H3 H 0.38090 0.13070 0.28010
C8 C 0.3256(8) 0.1660(5) 0.5933(10)
C9 C 0.598(1) -0.0077(6) 0.2202(13)
C10 C 0.6057(8) 0.0511(4) 0.2059(11)
C11 C 0.5513(8) 0.0815(4) 0.2023(11)
H4 H 0.51180 0.06670 0.20440
C12 C 0.5593(8) 0.1345(4) 0.1955(12)
C13 C 0.6163(7) 0.1575(4) 0.1935(10)
H5 H 0.61960 0.19330 0.19000
C14 C 0.6705(7) 0.1266(4) 0.197(1)
C15 C 0.6647(7) 0.0735(4) 0.2017(10)
H6 H 0.70010 0.05270 0.20210
C16 C 0.7307(7) 0.1525(5) 0.2004(11)
C17 C 0.4198(7) 0.1850(4) -0.1451(9)
C18 C 0.4477(7) 0.2237(4) -0.0959(8)
C19 C 0.4695(7) 0.2142(5) -0.0133(9)
H7 H 0.46180 0.18200 0.01030
C20 C 0.5027(8) 0.2524(7) 0.035(1)
C21 C 0.5097(8) 0.2988(6) 0.0032(10)
H8 H 0.53050 0.32370 0.03430
C22 C 0.4874(7) 0.3128(5) -0.0749(9)
C23 C 0.4566(7) 0.2745(4) -0.1238(9)
H9 H 0.44190 0.28360 -0.17590
C24 C 0.4915(9) 0.3668(5) -0.1069(11)
P1B P 0.48823(19) 0.28161(11) 0.3158(2)
O1B O 0.4303(7) 0.4559(4) 0.1931(9)
O2B O 0.4204(7) 0.4848(4) 0.0713(8)
O3B O 0.3255(6) 0.3714(4) -0.1423(8)
O4B O 0.3156(5) 0.2867(3) -0.1193(7)
O5B O 0.3259(4) 0.2854(4) 0.2080(7)
O6B O 0.5471(6) 0.5258(4) 0.2761(9)
O7B O 0.6470(7) 0.5307(4) 0.2771(10)
O8B O 0.7804(5) 0.3774(4) 0.3165(8)
O9B O 0.7353(5) 0.3022(3) 0.2912(7)
O10B O 0.5044(5) 0.3405(3) 0.3132(9)
O11B O 0.3889(5) 0.3025(2) 0.7085(6)
O12B O 0.4261(5) 0.3622(3) 0.6279(6)
O13B O 0.4697(6) 0.1204(3) 0.6747(7)
O14B O 0.5260(6) 0.1025(4) 0.5679(7)
O15B O 0.5226(5) 0.2626(5) 0.3932(7)
N2B N 0.4147(5) 0.2787(4) 0.3200(6)
C1B C 0.4119(10) 0.4504(7) 0.1200(13)
C2B C 0.3806(8) 0.3996(6) 0.0998(11)
C3B C 0.3692(6) 0.3900(4) 0.0202(10)
H1B H 0.37910 0.41430 -0.02010
C4B C 0.3427(8) 0.3434(5) -0.0012(10)
C5B C 0.3300(8) 0.3093(5) 0.0659(11)
H2B H 0.31050 0.27790 0.05440
C6B C 0.3440(7) 0.3195(5) 0.1409(11)
C7B C 0.3701(7) 0.3629(5) 0.1652(10)
H3B H 0.38090 0.36930 0.21990
C8B C 0.3256(8) 0.3340(5) -0.0933(10)
C9B C 0.598(1) 0.5077(6) 0.2798(13)
C10B C 0.6057(8) 0.4489(4) 0.2941(11)
C11B C 0.5513(8) 0.4185(4) 0.2977(11)
H4B H 0.51180 0.43330 0.29560
C12B C 0.5593(8) 0.3655(4) 0.3045(12)
C13B C 0.6163(7) 0.3425(4) 0.3065(10)
H5B H 0.61960 0.30670 0.31000
C14B C 0.6705(7) 0.3734(4) 0.303(1)
C15B C 0.6647(7) 0.4265(4) 0.2983(10)
H6B H 0.70010 0.44730 0.29790
C16B C 0.7307(7) 0.3475(5) 0.2996(11)
C17B C 0.4198(7) 0.3150(4) 0.6451(9)
C18B C 0.4477(7) 0.2763(4) 0.5959(8)
C19B C 0.4695(7) 0.2858(5) 0.5133(9)
H7B H 0.46180 0.31800 0.48970
C20B C 0.5027(8) 0.2476(7) 0.465(1)
C21B C 0.5097(8) 0.2012(6) 0.4968(10)
H8B H 0.53050 0.17630 0.46570
C22B C 0.4874(7) 0.1872(5) 0.5749(9)
C23B C 0.4566(7) 0.2255(4) 0.6238(9)
H9B H 0.44190 0.21640 0.67590
C24B C 0.4915(9) 0.1332(5) 0.6069(11)
Cd1A Cd 0.87372(5) 0.11210(3) 0.24905(7)
Cd3F Cd 0.51698(7) 0.46523(4) -0.16214(9)
O16F O 0.4354(9) 0.5084(8) -0.0906(11)
O17F O 0.5809(10) 0.4258(8) -0.2435(10)
Cd1B Cd 0.62628(5) 0.61210(3) 0.25095(7)
Cd1C Cd 0.87372(5) 0.38790(3) 0.25095(7)
Cd1D Cd 0.37372(5) 0.11210(3) -0.24905(7)
Cd1D* Cd 0.37372(5) 0.11210(3) 0.75095(7)
Cd1F Cd 0.37372(5) 0.38790(3) -0.25095(7)
Cd1F* Cd 0.37372(5) 0.38790(3) 0.74905(7)
Cd2* Cd 0.31088(7) 0.25000 0.75000
Cd2E Cd 0.81088(7) 0.25000 0.25000
Cd3B Cd 0.48302(7) 0.53477(4) 0.16214(9)
Cd3D Cd 0.51698(7) 0.03477(4) 0.66214(9)
O1F O 0.5697(7) 0.5441(4) -0.1931(9)
O2F O 0.5796(7) 0.5152(4) -0.0713(8)
O3D O 0.6745(6) -0.1286(4) 0.3577(8)
O3E O 0.8255(6) 0.1286(4) 0.3577(8)
O4* O 0.3156(5) 0.2133(3) -0.3807(7)
O6F O 0.4529(6) 0.4742(4) -0.2761(9)
O7A O 0.8530(7) 0.0307(4) 0.2229(10)
O8A O 0.7196(5) -0.1226(4) 0.1835(8)
O9E O 0.2353(5) 0.1978(3) -0.2088(7)
O9G O 0.2353(5) 0.3022(3) -0.2912(7)
O11B* O 0.3889(5) 0.3025(2) -0.2915(6)
O11D O 0.6111(5) -0.1975(2) 0.2085(6)
O11E O 0.8889(5) 0.1975(2) 0.2085(6)
O12D O 0.5739(5) -0.1378(3) 0.1279(6)
O12E O 0.9261(5) 0.1378(3) 0.1279(6)
O13F O 0.5303(6) -0.1204(3) 0.3253(7)
O13G O 0.9697(6) 0.1204(3) 0.3253(7)
O14F O 0.4740(6) -0.1025(4) 0.4321(7)
#END
