
#######################################################################
#
#                 Cambridge Crystallographic Data Centre
#                                CCDC
#
#######################################################################
#
# If this CIF has been generated from an entry in the Cambridge
# Structural Database, then it will include bibliographic, chemical,
# crystal, experimental, refinement or atomic coordinate data resulting
# from the CCDC's data processing and validation procedures.
#
#######################################################################

data_CSD_CIF_HEJWAX
_audit_creation_date 2017-09-22
_audit_creation_method CSD-ConQuest-V1
_database_code_CSD HEJWAX
_database_code_depnum_ccdc_archive 'CCDC 1560604'
_chemical_formula_sum 'C219 H316 K2 N24 O42 Zn3'
_chemical_formula_moiety
;
(C127 H86 K2 N7 O18 Zn3 3-)n,3n(C4 H12 N1 1+),10n(C1 H4 O1),14n(C5 H11 N1 O1)
;
_journal_coden_Cambridge 222
_journal_volume 46
_journal_year 2017
_journal_page_first 13352
_journal_name_full 'Dalton Trans. '
loop_
_publ_author_name
"Yan-Ping He"
"Lv-Bing Yuan"
"Jian Zhang"
_chemical_name_systematic
;
catena-(tris(diethylammonium) 
tris(\m-tris(4-carboxylatophenyl)amine)-bis(3,5-dimethylpyrazolato)-di-potassi
um-tri-zinc diethylformamide methanol solvate)
;
_chemical_name_common
;
FIR-37
;
_cell_volume  21631.555
_exptl_crystal_colour 'yellow'
_exptl_crystal_description 'block'
_diffrn_ambient_temperature 293
_refine_special_details
;
The SQUEEZE/PLATON program was used to model the cations and solvent 
molecules.
;
#These two values have been output from a single CSD field.
_refine_ls_R_factor_gt 0.0983
_refine_ls_wR_factor_gt 0.0983
_symmetry_cell_setting monoclinic
_symmetry_space_group_name_H-M 'C 2/c'
_symmetry_Int_Tables_number 15
loop_
_symmetry_equiv_pos_site_id
_symmetry_equiv_pos_as_xyz
1 x,y,z
2 -x,y,1/2-z
3 1/2+x,1/2+y,z
4 1/2-x,1/2+y,1/2-z
5 -x,-y,-z
6 x,-y,-1/2+z
7 -1/2-x,-1/2-y,-z
8 -1/2+x,-1/2-y,-1/2+z
_cell_length_a 21.6847(10)
_cell_length_b 36.8675(17)
_cell_length_c 27.338(2)
_cell_angle_alpha 90
_cell_angle_beta 98.212(6)
_cell_angle_gamma 90
_cell_formula_units_Z 4
loop_
_atom_type_symbol
_atom_type_radius_bond
C 0.68
H 0.23
K 2.03
N 0.68
O 0.68
Zn 1.22
loop_
_atom_site_label
_atom_site_type_symbol
_atom_site_fract_x
_atom_site_fract_y
_atom_site_fract_z
Zn1 Zn 0.50000 0.21579(5) 0.25000
O1 O 0.4305(3) 0.24210(17) 0.2725(3)
O2 O 0.4230(3) 0.25089(19) 0.1951(3)
O3 O 0.4616(6) 0.1673(2) 0.2187(4)
K1 K 0.48836(12) 0.27286(7) 0.35828(10)
C1 C 0.4026(5) 0.2552(3) 0.2330(6)
O4 O 0.3960(4) 0.3009(2) 0.4007(3)
O5 O 0.5268(3) 0.27714(14) 0.4594(2)
O6 O 0.4703(4) 0.20488(18) 0.3935(3)
C2 C 0.3422(4) 0.2738(3) 0.2353(5)
C3 C 0.3613(5) 0.2939(3) 0.4321(6)
Zn2 Zn 0.45526(5) 0.25155(3) 0.48042(5)
C4 C 0.3101(4) 0.2895(3) 0.1946(4)
C5 C 0.3203(4) 0.2764(3) 0.2808(4)
C6 C 0.4199(5) 0.2656(3) 0.0276(4)
O7 O 0.3752(3) 0.27464(19) 0.4673(3)
C7 C 0.3000(4) 0.3134(3) 0.4230(4)
N1 N 0.4741(5) 0.2516(2) 0.5564(4)
O8 O 0.4469(3) 0.19987(15) 0.4691(3)
C8 C 0.2524(4) 0.3051(3) 0.1971(4)
H1 H 0.32680 0.28990 0.16510
C9 C 0.2623(4) 0.2929(3) 0.2828(4)
H2 H 0.34370 0.26740 0.30940
O9 O 0.4055(3) 0.2380(2) 0.0038(4)
C10 C 0.3666(4) 0.2889(2) 0.0424(4)
C11 C 0.2885(5) 0.3417(3) 0.3956(4)
C12 C 0.2533(4) 0.3014(2) 0.4504(4)
N2 N 0.5305(5) 0.2374(2) 0.5760(5)
C13 C 0.4416(8) 0.2598(3) 0.5941(7)
C14 C 0.2298(4) 0.3087(3) 0.2414(4)
H3 H 0.22850 0.31320 0.16820
H4 H 0.24570 0.29310 0.31230
C15 C 0.3075(4) 0.2733(3) 0.0412(4)
C16 C 0.3758(4) 0.3228(2) 0.0590(4)
C17 C 0.2293(4) 0.3598(3) 0.3913(4)
H5 H 0.31920 0.35070 0.37830
C18 C 0.1967(4) 0.3180(3) 0.4436(4)
H6 H 0.26110 0.28240 0.47270
C19 C 0.5333(8) 0.2387(4) 0.6261(7)
C20 C 0.3770(7) 0.2748(3) 0.5873(5)
C21 C 0.4824(7) 0.2529(3) 0.6375(6)
C22 C 0.1679(4) 0.3268(3) 0.2440(4)
C23 C 0.2586(4) 0.2952(2) 0.0476(4)
H7 H 0.30170 0.24850 0.03600
C24 C 0.3256(4) 0.3442(2) 0.0648(4)
H8 H 0.41600 0.33190 0.06650
C25 C 0.1821(4) 0.3482(2) 0.4145(4)
H9 H 0.22330 0.38040 0.37160
H10 H 0.16570 0.30840 0.45990
C26 C 0.5920(7) 0.2254(4) 0.6583(5)
H11 H 0.36380 0.27840 0.61900
H12 H 0.37630 0.29760 0.57010
H13 H 0.34930 0.25810 0.56830
H14 H 0.47440 0.25770 0.66940
C27 C 0.1514(4) 0.3576(3) 0.2150(4)
C28 C 0.1266(4) 0.3130(3) 0.2731(4)
C29 C 0.2657(4) 0.3329(2) 0.0583(4)
H15 H 0.21900 0.28500 0.04500
H16 H 0.33330 0.36830 0.07380
C30 C 0.1209(4) 0.3656(2) 0.4094(4)
H17 H 0.62090 0.21630 0.63770
H18 H 0.61070 0.24510 0.67810
H19 H 0.58140 0.20630 0.67950
H20 H 0.17790 0.36680 0.19410
C31 C 0.0976(4) 0.3732(3) 0.2180(4)
H21 H 0.13560 0.29170 0.29080
C32 C 0.0727(4) 0.3310(2) 0.2755(4)
C33 C 0.2117(4) 0.3556(2) 0.0653(4)
C34 C 0.1155(4) 0.4019(2) 0.4137(4)
C35 C 0.0677(4) 0.3465(2) 0.4013(4)
H22 H 0.08720 0.39350 0.19830
C36 C 0.0576(4) 0.3625(3) 0.2465(4)
H23 H 0.04550 0.32270 0.29630
C37 C 0.2162(4) 0.3851(2) 0.0955(4)
C38 C 0.1513(4) 0.3464(2) 0.0416(4)
H24 H 0.15170 0.41570 0.41660
C39 C 0.0595(4) 0.4199(2) 0.4141(3)
H25 H 0.07000 0.32150 0.39730
C40 C 0.0102(4) 0.3623(2) 0.3986(3)
N3 N 0.00000 0.3805(3) 0.25000
C41 C 0.1648(4) 0.4050(2) 0.1038(4)
H26 H 0.25530 0.39210 0.11120
C42 C 0.1012(4) 0.3675(2) 0.0482(4)
H27 H 0.14570 0.32590 0.02150
C43 C 0.0050(4) 0.3991(2) 0.4070(4)
H28 H 0.05830 0.44490 0.41900
H29 H -0.02550 0.34830 0.39120
C44 C 0.00000 0.4184(4) 0.25000
C45 C 0.1067(4) 0.3959(2) 0.0812(4)
H30 H 0.16990 0.42490 0.12490
H31 H 0.06260 0.36250 0.03010
N4 N -0.0538(3) 0.41552(17) 0.4081(3)
C46 C 0.0466(5) 0.4372(2) 0.2767(4)
C47 C -0.0575(4) 0.4546(2) 0.4102(4)
H32 H 0.07920 0.42480 0.29540
C48 C 0.0460(5) 0.4751(2) 0.2763(4)
C49 C -0.0505(4) 0.4741(2) 0.3713(4)
C50 C -0.0677(4) 0.4728(2) 0.4502(4)
H33 H 0.07840 0.48760 0.29500
C51 C 0.00000 0.4939(4) 0.25000
H34 H -0.04460 0.46200 0.34250
C52 C -0.0515(4) 0.5128(2) 0.3707(4)
C53 C -0.0676(5) 0.5105(2) 0.4525(4)
H35 H -0.07520 0.45980 0.47780
C54 C 0.00000 0.5320(4) 0.25000
C55 C -0.0595(4) 0.5306(2) 0.4119(4)
H36 H -0.04660 0.52540 0.34200
H37 H -0.07300 0.52210 0.48180
C56 C 0.0486(5) 0.5530(3) 0.2678(4)
C57 C -0.0592(5) 0.5706(2) 0.4146(4)
H38 H 0.08480 0.54110 0.28130
C58 C 0.0506(6) 0.5924(3) 0.2681(4)
C59 C -0.0715(5) 0.5889(2) 0.4557(4)
C60 C -0.0391(5) 0.5918(2) 0.3803(4)
C61 C 0.00000 0.6093(4) 0.25000
H39 H 0.08660 0.60500 0.28060
C62 C -0.0656(5) 0.6270(2) 0.4607(4)
H40 H -0.08420 0.57570 0.48150
H41 H -0.02570 0.58080 0.35310
C63 C -0.0372(5) 0.6310(3) 0.3834(4)
C64 C 0.00000 0.6554(6) 0.25000
H42 H -0.07310 0.63810 0.48980
C65 C -0.0496(5) 0.6470(2) 0.4243(4)
H43 H -0.02730 0.64470 0.35710
C66 C -0.0419(5) 0.6867(3) 0.4266(5)
O1A O 0.5695(3) 0.24210(17) 0.2275(3)
O2A O 0.5770(3) 0.25089(19) 0.3049(3)
O3A O 0.5384(6) 0.1673(2) 0.2813(4)
K1A K 0.51164(12) 0.27286(7) 0.14172(10)
O5A O 0.4732(3) 0.27714(14) 0.0406(2)
Zn2A Zn 0.54474(5) 0.25155(3) 0.01958(5)
C36A C -0.0576(4) 0.3625(3) 0.2535(4)
C46A C -0.0466(5) 0.4372(2) 0.2233(4)
C31A C -0.0976(4) 0.3732(3) 0.2820(4)
C32A C -0.0727(4) 0.3310(2) 0.2245(4)
N4A N 0.0538(3) 0.41552(17) 0.0919(3)
C45A C -0.1067(4) 0.3959(2) 0.4188(4)
H32A H -0.07920 0.42480 0.20460
C48A C -0.0460(5) 0.4751(2) 0.2237(4)
C27A C -0.1514(4) 0.3576(3) 0.2850(4)
H22A H -0.08720 0.39350 0.30170
C28A C -0.1266(4) 0.3130(3) 0.2269(4)
H23A H -0.04550 0.32270 0.20370
C43A C -0.0050(4) 0.3991(2) 0.0930(4)
C47A C 0.0575(4) 0.4546(2) 0.0898(4)
C41A C -0.1648(4) 0.4050(2) 0.3962(4)
C42A C -0.1012(4) 0.3675(2) 0.4518(4)
H33A H -0.07840 0.48760 0.20500
H20A H -0.17790 0.36680 0.30590
C22A C -0.1679(4) 0.3268(3) 0.2560(4)
H21A H -0.13560 0.29170 0.20920
C39A C -0.0595(4) 0.4199(2) 0.0859(3)
C40A C -0.0102(4) 0.3623(2) 0.1014(3)
C49A C 0.0505(4) 0.4741(2) 0.1287(4)
C50A C 0.0677(4) 0.4728(2) 0.0498(4)
H30A H -0.16990 0.42490 0.37510
C37A C -0.2162(4) 0.3851(2) 0.4045(4)
H31A H -0.06260 0.36250 0.46990
C38A C -0.1513(4) 0.3464(2) 0.4584(4)
C14A C -0.2298(4) 0.3087(3) 0.2586(4)
C34A C -0.1155(4) 0.4019(2) 0.0863(4)
H28A H -0.05830 0.44490 0.08100
C35A C -0.0677(4) 0.3465(2) 0.0987(4)
H29A H 0.02550 0.34830 0.10880
H34A H 0.04460 0.46200 0.15750
C52A C 0.0515(4) 0.5128(2) 0.1293(4)
C53A C 0.0676(5) 0.5105(2) 0.0475(4)
H35A H 0.07520 0.45980 0.02220
C33A C -0.2117(4) 0.3556(2) 0.4347(4)
H26A H -0.25530 0.39210 0.38880
H27A H -0.14570 0.32590 0.47850
C56A C -0.0486(5) 0.5530(3) 0.2322(4)
C8A C -0.2524(4) 0.3051(3) 0.3029(4)
C9A C -0.2623(4) 0.2929(3) 0.2172(4)
H24A H -0.15170 0.41570 0.08340
C30A C -0.1209(4) 0.3656(2) 0.0906(4)
H25A H -0.07000 0.32150 0.10270
C55A C 0.0595(4) 0.5306(2) 0.0881(4)
H36A H 0.04660 0.52540 0.15800
H37A H 0.07300 0.52210 0.01820
C29A C -0.2657(4) 0.3329(2) 0.4417(4)
H38A H -0.08480 0.54110 0.21870
C58A C -0.0506(6) 0.5924(3) 0.2319(4)
H3A H -0.22850 0.31320 0.33180
C4A C -0.3101(4) 0.2895(3) 0.3054(4)
H4A H -0.24570 0.29310 0.18770
C5A C -0.3203(4) 0.2764(3) 0.2192(4)
C25A C -0.1821(4) 0.3482(2) 0.0855(4)
C57A C 0.0592(5) 0.5706(2) 0.0854(4)
C23A C -0.2586(4) 0.2952(2) 0.4524(4)
C24A C -0.3256(4) 0.3442(2) 0.4352(4)
H39A H -0.08660 0.60500 0.21940
C2A C -0.3422(4) 0.2738(3) 0.2647(5)
H1A H -0.32680 0.28990 0.33490
H2A H -0.34370 0.26740 0.19060
C17A C -0.2293(4) 0.3598(3) 0.1087(4)
C18A C -0.1967(4) 0.3180(3) 0.0564(4)
C59A C 0.0715(5) 0.5889(2) 0.0443(4)
C60A C 0.0391(5) 0.5918(2) 0.1197(4)
H15A H -0.21900 0.28500 0.45500
C15A C -0.3075(4) 0.2733(3) 0.4588(4)
H16A H -0.33330 0.36830 0.42620
C16A C -0.3758(4) 0.3228(2) 0.4410(4)
C1A C -0.4026(5) 0.2552(3) 0.2670(6)
H9A H -0.22330 0.38040 0.12840
C11A C -0.2885(5) 0.3417(3) 0.1044(4)
H10A H -0.16570 0.30840 0.04010
C12A C -0.2533(4) 0.3014(2) 0.0496(4)
C62A C 0.0656(5) 0.6270(2) 0.0393(4)
H40A H 0.08420 0.57570 0.01850
H41A H 0.02570 0.58080 0.14690
C63A C 0.0372(5) 0.6310(3) 0.1166(4)
C10A C -0.3666(4) 0.2889(2) 0.4576(4)
H7A H -0.30170 0.24850 0.46400
H8A H -0.41600 0.33190 0.43350
O3B O -0.0384(6) 0.6673(2) 0.2187(4)
O3C O 0.0384(6) 0.6673(2) 0.2813(4)
O1A* O -0.4305(3) 0.24210(17) 0.2275(3)
O2A* O -0.4230(3) 0.25089(19) 0.3049(3)
C7A C -0.3000(4) 0.3134(3) 0.0770(4)
H5A H -0.31920 0.35070 0.12170
H6A H -0.26110 0.28240 0.02730
H42A H 0.07310 0.63810 0.01020
C65A C 0.0496(5) 0.6470(2) 0.0757(4)
H43A H 0.02730 0.64470 0.14290
C6A C -0.4199(5) 0.2656(3) 0.4724(4)
Zn1B Zn 0.00000 0.71579(5) 0.25000
K1A* K -0.48836(12) 0.27286(7) 0.14172(10)
Zn1* Zn -0.50000 0.21579(5) 0.25000
K1* K -0.51164(12) 0.27286(7) 0.35828(10)
C3A C -0.3613(5) 0.2939(3) 0.0679(6)
C66A C 0.0419(5) 0.6867(3) 0.0734(5)
O5* O -0.4732(3) 0.27714(14) 0.4594(2)
O9A O -0.4055(3) 0.2380(2) 0.4962(4)
O6B O -0.0297(4) 0.70488(18) 0.3935(3)
O8B O -0.0531(3) 0.69987(15) 0.4691(3)
O4A O -0.3960(4) 0.3009(2) 0.0993(3)
O5A* O -0.5268(3) 0.27714(14) 0.0406(2)
O6A O -0.4703(4) 0.20488(18) 0.1065(3)
O2* O -0.5770(3) 0.25089(19) 0.1951(3)
O7A O -0.3752(3) 0.27464(19) 0.0327(3)
O6C O 0.0297(4) 0.70488(18) 0.1065(3)
O8C O 0.0531(3) 0.69987(15) 0.0309(3)
Zn2* Zn -0.54474(5) 0.25155(3) 0.48042(5)
K1B K -0.01164(12) 0.77286(7) 0.35828(10)
Zn2B Zn -0.04474(5) 0.75155(3) 0.48042(5)
K1C K 0.01164(12) 0.77286(7) 0.14172(10)
Zn2A* Zn -0.45526(5) 0.25155(3) 0.01958(5)
Zn2C Zn 0.04474(5) 0.75155(3) 0.01958(5)
N1A N -0.4741(5) 0.2516(2) -0.0564(4)
O8A O -0.4469(3) 0.19987(15) 0.0309(3)
N2A N -0.5305(5) 0.2374(2) -0.0760(5)
C13A C -0.4416(8) 0.2598(3) -0.0941(7)
C19A C -0.5333(8) 0.2387(4) -0.1261(7)
C20A C -0.3770(7) 0.2748(3) -0.0873(5)
C21A C -0.4824(7) 0.2529(3) -0.1375(6)
C26A C -0.5920(7) 0.2254(4) -0.1583(5)
H11A H -0.36380 0.27840 -0.11900
H12A H -0.37630 0.29760 -0.07010
H13A H -0.34930 0.25810 -0.06830
H14A H -0.47440 0.25770 -0.16940
H17A H -0.62090 0.21630 -0.13770
H18A H -0.61070 0.24510 -0.17810
H19A H -0.58140 0.20630 -0.17950
#END
