
#######################################################################
#
#                 Cambridge Crystallographic Data Centre
#                                CCDC
#
#######################################################################
#
# If this CIF has been generated from an entry in the Cambridge
# Structural Database, then it will include bibliographic, chemical,
# crystal, experimental, refinement or atomic coordinate data resulting
# from the CCDC's data processing and validation procedures.
#
#######################################################################

data_CSD_CIF_HEJWEB
_audit_creation_date 2017-09-22
_audit_creation_method CSD-ConQuest-V1
_database_code_CSD HEJWEB
_database_code_depnum_ccdc_archive 'CCDC 1560605'
_chemical_formula_sum 'C267 H357 K2 N25 O47 Zn4'
_chemical_formula_moiety
;
(C168 H120 K2 N8 O24 Zn4 2-)n,2n(C4 H12 N1 1+),8n(C2 H6 O1),15n(C5 H11 N1 O1)
;
_journal_coden_Cambridge 222
_journal_volume 46
_journal_year 2017
_journal_page_first 13352
_journal_name_full 'Dalton Trans. '
loop_
_publ_author_name
"Yan-Ping He"
"Lv-Bing Yuan"
"Jian Zhang"
_chemical_name_systematic
;
catena-(bis(diethylammonium) 
tetrakis(\m-tris(4-carboxylatophenyl)amine)-bis(\m-1,4-diazabicyclo(2.2.2)octa
ne)-di-potassium-di-zinc diethylformamide ethanol solvate)
;
_chemical_name_common
;
FIR-38
;
_cell_volume  13744.313
_exptl_crystal_colour 'yellow'
_exptl_crystal_description 'block'
_diffrn_ambient_temperature 100
_refine_special_details
;
The SQUEEZE/PLATON program was used to model the cations and solvent 
molecules.
;
#These two values have been output from a single CSD field.
_refine_ls_R_factor_gt 0.0766
_refine_ls_wR_factor_gt 0.0766
_symmetry_cell_setting triclinic
_symmetry_space_group_name_H-M 'P -1'
_symmetry_Int_Tables_number 2
loop_
_symmetry_equiv_pos_site_id
_symmetry_equiv_pos_as_xyz
1 x,y,z
2 -x,-y,-z
_cell_length_a 21.1565(7)
_cell_length_b 21.6297(6)
_cell_length_c 34.3390(8)
_cell_angle_alpha 86.156(2)
_cell_angle_beta 85.309(2)
_cell_angle_gamma 61.408(3)
_cell_formula_units_Z 2
loop_
_atom_type_symbol
_atom_type_radius_bond
C 0.68
H 0.23
K 2.03
N 0.68
O 0.68
Zn 1.22
loop_
_atom_site_label
_atom_site_type_symbol
_atom_site_fract_x
_atom_site_fract_y
_atom_site_fract_z
Zn1 Zn 0.90305(4) 0.39274(4) 0.16068(2)
Zn2 Zn 0.89706(4) 0.22342(4) 0.33959(2)
Zn3 Zn 0.86979(4) 0.14976(4) 0.53368(2)
Zn4 Zn 0.91411(4) 0.44261(4) -0.03586(2)
K1 K 0.93165(7) 0.35641(6) 0.26560(4)
O1 O -0.0024(2) 1.3424(2) 0.18137(13)
O2 O 0.82894(19) 1.3641(2) 0.16264(13)
O3 O 0.8675(2) 0.49205(19) 0.16959(13)
O4 O 0.8659(2) 0.32339(18) 0.33268(12)
O5 O 0.0013(2) 1.1775(2) 0.33866(14)
O6 O 0.8516(2) 1.1803(2) 0.31355(13)
O7 O -0.0294(2) 0.1169(2) 0.53764(13)
O8 O 0.81527(19) 0.09993(19) 0.54423(11)
O9 O 0.8066(2) -0.75144(19) 0.54415(14)
O10 O 1.0138(2) 0.4026(2) -0.05413(12)
O11 O 1.8712(3) -0.4578(3) -0.03352(18)
O12 O 1.8473(3) 0.4082(3) -0.04157(18)
O13 O 1.8924(3) -0.4534(3) -0.0933(2)
O14 O 0.7921(4) -0.7613(3) 0.60730(17)
O15 O 0.8637(2) 1.3152(2) 0.22127(13)
O16 O 1.8488(6) 0.4198(6) -0.1043(2)
O17 O -0.0378(2) 0.1055(3) 0.60209(15)
O18 O 0.0030(2) 1.2438(2) 0.16268(13)
O19 O 0.7586(3) 0.3311(2) 0.34687(18)
O20 O 0.9082(2) 0.0028(2) 0.56652(16)
O21 O 0.9397(3) 1.0960(3) 0.28070(17)
O22 O 0.0116(2) 1.2153(2) 0.27762(13)
O23 O 1.0171(3) 0.2982(3) -0.05412(18)
O24 O 0.8562(3) 0.4868(2) 0.23398(14)
N1 N 1.5829(3) 0.1043(3) -0.07145(17)
N2 N 0.5350(2) -0.1988(2) 0.57642(16)
N3 N 0.5729(2) 0.8854(2) 0.31992(14)
N4 N 0.5677(2) 1.0455(2) 0.18170(14)
N5 N 0.9131(2) 0.4055(2) 0.09969(13)
N6 N 0.9166(2) 0.4244(2) 0.02488(13)
N7 N 0.8862(2) 0.1959(2) 0.39810(13)
N8 N 0.8767(2) 0.1681(2) 0.47285(13)
C1 C 1.7883(5) 0.3604(5) -0.0730(3)
C2 C 1.7650(6) 0.3524(5) -0.1073(3)
H1 H 1.77290 0.37370 -0.13020
C3 C 1.7288(6) 0.3118(6) -0.1084(3)
H2 H 1.71290 0.30640 -0.13170
C4 C 0.8005(3) 0.0005(3) 0.55796(16)
C5 C 0.3092(3) -0.0737(3) 0.57007(17)
C6 C 0.6041(3) 0.8116(3) 0.32283(18)
C7 C 0.0793(3) 0.0553(3) 0.5706(2)
C8 C 0.1183(3) 1.1400(3) 0.3092(2)
C9 C 0.7138(3) -0.0682(3) 0.56375(15)
C10 C 0.6901(3) 0.8234(3) 0.19265(18)
C11 C 0.7192(3) 0.8649(3) 0.17435(16)
H3 H 0.76680 0.84310 0.16430
C12 C 0.7628(3) 0.4397(3) 0.33655(18)
C13 C 0.7474(3) 1.0199(3) 0.30296(16)
C14 C 0.7333(3) 0.7459(3) 0.19771(18)
C15 C 0.6793(3) 0.9366(3) 0.17102(16)
H4 H 0.69980 0.96260 0.15830
C16 C 0.6827(3) 0.0056(3) 0.56281(16)
H5 H 0.63270 0.03260 0.56430
C17 C 0.7278(3) 0.7100(3) 0.23097(19)
H6 H 0.69860 0.73460 0.25230
C18 C 0.4967(3) 0.9291(3) 0.31920(18)
C19 C 0.3391(3) -0.1373(3) 0.59356(18)
H7 H 0.30880 -0.15130 0.60820
C20 C 0.6993(3) 0.5861(3) 0.33200(17)
C21 C 0.7251(3) 0.0393(3) 0.55977(16)
H8 H 0.70300 0.08830 0.55890
C22 C 0.7812(3) 1.2919(3) 0.1897(2)
C23 C 0.6195(3) 0.8592(3) 0.20729(16)
H9 H 0.59860 0.83330 0.21960
C24 C 0.4588(3) -0.1584(3) 0.5749(2)
C25 C 0.6666(3) 0.6635(3) 0.32860(18)
C26 C 0.6787(3) 0.8918(3) 0.29029(17)
H10 H 0.69120 0.85260 0.27560
C27 C 0.1963(3) 0.0097(3) 0.53775(18)
H11 H 0.22410 0.01060 0.51550
C28 C 0.7671(3) 0.6343(3) 0.2330(2)
H12 H 0.76300 0.61010 0.25560
C29 C 0.2616(3) 1.1724(3) 0.18679(19)
C30 C 0.6001(3) 1.0879(3) 0.18444(19)
C31 C 0.4921(3) 1.0781(3) 0.18306(18)
C32 C 0.6651(3) 1.1769(3) 0.18566(18)
C33 C 0.8212(4) 0.9832(3) 0.29266(18)
H13 H 0.84250 0.93550 0.28770
C34 C 0.7019(3) 1.2181(3) 0.1872(2)
C35 C 0.1857(3) -0.0231(3) 0.60486(19)
H14 H 0.20670 -0.04720 0.62770
C36 C 0.2234(3) 1.0586(3) 0.3448(2)
H15 H 0.24320 1.03250 0.36740
C37 C 0.7195(3) 1.0894(3) 0.31078(16)
H16 H 0.67050 1.11490 0.31780
C38 C 0.6685(3) -0.1027(3) 0.56777(17)
C39 C 0.6183(3) 0.9170(3) 0.31549(19)
C40 C 0.7196(3) 0.9247(3) 0.28720(17)
H17 H 0.76040 0.90650 0.27020
C41 C 0.7609(4) 1.1241(3) 0.30870(18)
H18 H 0.73970 1.17130 0.31480
C42 C 0.6045(3) 0.7029(3) 0.30891(17)
H19 H 0.58280 0.68040 0.29760
C43 C 0.5692(3) -0.2753(3) 0.5780(2)
C44 C 0.6031(3) -0.0745(3) 0.58979(18)
H20 H 0.58780 -0.03280 0.60270
C45 C 0.3772(3) 0.9490(3) 0.33709(18)
H21 H 0.34690 0.93430 0.35100
C46 C 0.8105(3) 0.5977(3) 0.20174(19)
C47 C 0.5792(3) -0.1679(3) 0.57290(19)
C48 C 0.4494(3) 0.9095(3) 0.33795(17)
H22 H 0.46790 0.86680 0.35200
C49 C 0.7964(4) 0.3580(3) 0.3400(2)
C50 C 0.6594(3) 0.5516(3) 0.3326(2)
H23 H 0.60960 0.57800 0.33130
C51 C 0.3829(3) 1.0895(3) 0.16094(18)
H24 H 0.36100 1.07360 0.14470
C52 C 0.3404(3) 1.1401(3) 0.18511(19)
C53 C 0.2681(3) 1.0578(3) 0.3120(2)
C54 C 0.7884(3) -0.1064(3) 0.56126(16)
H25 H 0.81070 -0.15530 0.56150
C55 C 0.1111(3) 0.0188(3) 0.60503(19)
H26 H 0.08270 0.02260 0.62780
C56 C 0.9602(3) 0.4358(3) 0.08778(19)
H27 H 1.00780 0.40580 0.09720
H28 H 0.94120 0.48170 0.09900
C57 C 0.6089(3) 0.9709(3) 0.18638(18)
C58 C 0.5745(3) 0.7744(3) 0.30590(17)
H29 H 0.53300 0.79950 0.29220
C59 C 0.2301(3) -0.0297(3) 0.57060(19)
C60 C 1.2371(4) 0.3093(4) -0.06859(19)
H30 H 1.25940 0.33740 -0.06950
C61 C 1.2782(4) 0.2374(3) -0.07169(19)
C62 C 0.3479(3) 1.0131(3) 0.31484(19)
C63 C 0.4574(3) 1.0584(3) 0.15801(19)
H31 H 0.48380 1.02470 0.13940
C64 C 0.9287(3) 0.1044(3) 0.45253(17)
H32 H 0.91110 0.07020 0.45450
H33 H 0.97430 0.08370 0.46490
C65 C 0.8981(3) 0.2435(3) 0.4231(2)
H34 H 0.94320 0.24280 0.41450
H35 H 0.85970 0.29130 0.41980
C66 C 0.7046(3) 0.9848(3) 0.30807(17)
C67 C 0.8052(3) 0.4713(3) 0.33585(17)
H36 H 0.85500 0.44410 0.33650
C68 C 0.3561(3) -0.0567(3) 0.55036(18)
H37 H 0.33860 -0.01530 0.53510
C69 C 1.7053(4) -0.1184(3) -0.0614(2)
C70 C 0.5621(3) -0.1065(3) 0.59262(19)
H38 H 0.51990 -0.08690 0.60860
C71 C 0.6541(3) 1.0734(3) 0.20955(18)
H39 H 0.66880 1.03430 0.22650
C72 C 0.6864(3) 1.1155(3) 0.20991(19)
H40 H 0.72340 1.10320 0.22660
C73 C 0.6967(3) 0.6983(3) 0.34567(18)
H41 H 0.73820 0.67260 0.35940
C74 C 0.7436(3) -0.6474(3) 0.5788(2)
C75 C 1.1290(4) 0.3025(3) -0.06389(18)
C76 C 0.8481(3) 0.5187(3) 0.2026(2)
C77 C 0.2186(3) 1.2433(3) 0.19692(19)
H42 H 0.24030 1.26840 0.20500
C78 C 0.8169(3) 0.6343(3) 0.1689(2)
H43 H 0.84650 0.60970 0.14770
C79 C 0.1222(3) 0.0474(3) 0.5376(2)
H44 H 0.10100 0.06810 0.51430
C80 C 1.7451(4) -0.1954(4) -0.0600(2)
C81 C 0.1474(3) 1.1003(3) 0.3428(2)
H45 H 0.11700 1.10080 0.36410
C82 C 0.8351(4) 1.0870(4) 0.29730(18)
C83 C 0.5785(3) 0.9312(3) 0.20464(17)
H46 H 0.53110 0.95310 0.21490
C84 C 0.9654(3) 0.4430(3) 0.04172(19)
H47 H 0.95340 0.49120 0.03390
H48 H 1.01430 0.41240 0.03200
C85 C 0.5781(3) 1.1504(3) 0.15899(19)
H49 H 0.54190 1.16240 0.14180
C86 C 0.4686(3) 0.9921(3) 0.29728(18)
H50 H 0.49980 1.00640 0.28400
C87 C 0.4298(3) -0.0987(3) 0.55193(18)
H51 H 0.46040 -0.08570 0.53690
C88 C 1.6249(4) 0.0302(4) -0.0685(2)
C89 C 0.8634(3) 1.0172(3) 0.28970(18)
H52 H 0.91210 0.99160 0.28230
C90 C 0.9002(3) 0.2218(3) 0.46555(18)
H53 H 0.94890 0.20330 0.47380
H54 H 0.86900 0.26270 0.48090
C91 C 0.6664(3) 0.7711(3) 0.34279(17)
H55 H 0.68800 0.79330 0.35440
C92 C 0.8046(3) 0.1942(3) 0.4557(2)
H56 H 0.76970 0.23830 0.46730
H57 H 0.78730 0.16010 0.46120
C93 C 0.7744(3) 0.5430(3) 0.33422(16)
H58 H 0.80360 0.56410 0.33460
C94 C 0.8463(3) 0.0346(3) 0.55529(19)
C95 C 0.1651(3) 1.1373(3) 0.27832(19)
H59 H 0.14600 1.16410 0.25580
C96 C 0.4137(3) -0.1784(3) 0.59448(18)
H60 H 0.43270 -0.22060 0.60910
C97 C 0.8426(3) 0.4685(3) 0.0430(2)
H61 H 0.80880 0.45730 0.03180
H62 H 0.82780 0.51790 0.03740
C98 C 0.1437(3) 1.2765(3) 0.1950(2)
H63 H 0.11590 1.32350 0.20140
C99 C 0.6355(3) -0.4230(3) 0.5795(2)
C100 C 0.7272(3) 1.2252(3) 0.2212(2)
H64 H 0.71780 1.20520 0.24420
C101 C 1.1605(4) 0.3406(4) -0.06407(18)
H65 H 1.13320 0.38900 -0.06120
C102 C 0.8300(3) -0.0728(3) 0.55851(17)
H66 H 0.87990 -0.10010 0.55690
C103 C 0.0374(3) 1.1810(3) 0.3085(2)
C104 C 0.3961(3) 1.0332(3) 0.29506(18)
H67 H 0.37840 1.07500 0.28020
C105 C 0.5465(3) -0.3097(3) 0.5546(2)
H68 H 0.50840 -0.28370 0.53860
C106 C 1.5085(4) 0.1372(4) -0.0725(2)
C107 C 0.2275(3) 1.1345(3) 0.17857(18)
H69 H 0.25430 1.08630 0.17490
C108 C 0.6875(3) -0.1648(3) 0.54853(19)
H70 H 0.73020 -0.18460 0.53310
C109 C 1.2433(4) 0.1989(4) -0.07182(18)
H71 H 1.27020 0.15050 -0.07490
C110 C 0.9401(3) 0.1220(3) 0.40883(19)
H72 H 0.98840 0.11620 0.40400
H73 H 0.93530 0.08960 0.39260
C111 C 0.6116(3) 1.1925(3) 0.16040(18)
H74 H 0.59740 1.23210 0.14380
C112 C 0.3768(4) 1.1612(3) 0.2099(2)
H75 H 0.34980 1.19660 0.22750
C113 C 0.6452(3) 1.0073(3) 0.33434(19)
H76 H 0.63340 1.04610 0.34930
C114 C 1.4008(4) 0.1463(3) -0.0949(2)
H77 H 1.37940 0.12910 -0.11060
C115 C 0.8137(3) 0.2053(4) 0.4103(2)
H78 H 0.80530 0.17200 0.39700
H79 H 0.77780 0.25240 0.40260
C116 C 1.3564(4) 0.2034(4) -0.0724(2)
C117 C 0.2383(3) 1.0974(3) 0.27903(19)
H80 H 0.26770 1.09720 0.25730
C118 C 0.6704(3) -0.4988(3) 0.5793(2)
C119 C 0.7671(3) 1.2622(3) 0.2224(2)
H81 H 0.78360 1.26570 0.24600
C120 C -0.0036(3) 0.0959(3) 0.5691(3)
C121 C 0.7557(3) 1.2886(3) 0.1546(2)
H82 H 0.76450 1.31030 0.13210
C122 C 1.6942(4) -0.0050(4) -0.08419(19)
H83 H 1.71490 0.02070 -0.09700
C123 C 0.7162(4) 1.2518(3) 0.15355(19)
H84 H 0.69880 1.24970 0.12990
C124 C 0.9400(4) 0.3363(3) 0.08085(17)
H85 H 0.90980 0.31510 0.08970
H86 H 0.98890 0.30440 0.08780
C125 C 0.8787(4) 1.1214(4) 0.2975(2)
C126 C 0.7209(4) -0.6082(4) 0.5461(2)
H87 H 0.73060 -0.63080 0.52260
C127 C 0.7796(3) 0.7085(3) 0.16664(19)
H88 H 0.78600 0.73250 0.14440
C128 C 1.6173(4) 0.1495(4) -0.0736(2)
C129 C 0.8303(3) 1.3259(3) 0.1917(2)
C130 C 0.6212(4) -0.3137(3) 0.6031(2)
H89 H 0.63490 -0.29110 0.62010
C131 C 0.4499(3) 1.1311(3) 0.20872(18)
H90 H 0.47180 1.14630 0.22540
C132 C 0.9377(4) 0.3492(3) 0.0368(2)
H91 H 0.98490 0.31880 0.02470
H92 H 0.90360 0.33680 0.02710
C133 C 0.6538(4) -0.3860(3) 0.6036(2)
H93 H 0.68980 -0.41120 0.62100
C134 C 0.6453(3) -0.1976(3) 0.55167(19)
H94 H 0.66110 -0.24010 0.53950
C135 C 0.5799(4) -0.3816(4) 0.5549(2)
H95 H 0.56510 -0.40370 0.53820
C136 C 0.1113(3) 1.2387(3) 0.1836(2)
C137 C 0.6021(3) 0.9740(3) 0.3394(2)
H96 H 0.56370 0.98920 0.35800
C138 C 1.6701(5) 0.1356(4) -0.0483(2)
H97 H 1.68390 0.09710 -0.03090
C139 C 1.0480(4) 0.3357(4) -0.0579(2)
C140 C 1.3917(4) 0.2267(4) -0.0500(2)
H98 H 1.36430 0.26580 -0.03480
C141 C 0.8412(3) 0.4551(4) 0.0872(2)
H99 H 0.82370 0.49920 0.10030
H100 H 0.80840 0.43620 0.09460
C142 C 1.1691(4) 0.2292(3) -0.06750(17)
H101 H 1.14620 0.20170 -0.06700
C143 C 0.6910(3) 0.4767(3) 0.3352(2)
H102 H 0.66270 0.45430 0.33600
C144 C 1.6346(4) -0.0837(4) -0.0444(2)
H103 H 1.61430 -0.10930 -0.03100
C145 C 0.6825(4) -0.5331(3) 0.5457(2)
H104 H 0.66580 -0.50790 0.52240
C146 C 1.4732(4) 0.1141(3) -0.0955(2)
H105 H 1.50000 0.07600 -0.11150
C147 C 1.6824(4) 0.2325(5) -0.0718(2)
C148 C 1.8233(4) -0.3434(4) -0.0598(2)
C149 C 1.6287(5) 0.2470(4) -0.0985(3)
H106 H 1.61560 0.28490 -0.11630
C150 C 0.1512(3) 1.1689(3) 0.1756(2)
H107 H 0.12870 1.14390 0.16830
C151 C 1.7961(5) -0.2322(5) -0.0939(2)
H108 H 1.80270 -0.20570 -0.11470
C152 C 1.7754(6) 0.3309(6) -0.0423(3)
H109 H 1.79010 0.33780 -0.01890
C153 C 1.5942(4) -0.0085(4) -0.0480(2)
H110 H 1.54760 0.01490 -0.03670
C154 C 1.4670(4) 0.1940(4) -0.0492(2)
H111 H 1.48870 0.21040 -0.03310
C155 C 0.0303(4) 1.2788(4) 0.1749(2)
C156 C 1.5964(4) 0.2060(4) -0.0981(2)
H112 H 1.55970 0.21690 -0.11470
C157 C 1.7345(4) -0.0783(4) -0.0815(2)
H113 H 1.78100 -0.10080 -0.09310
C158 C 1.8341(6) 0.3968(5) -0.0739(4)
C159 C 1.8631(5) -0.4235(5) -0.0609(3)
C160 C 0.6939(5) -0.5396(4) 0.6125(3)
H114 H 0.68550 -0.51770 0.63610
C161 C 1.7029(4) 0.1767(4) -0.0480(2)
H115 H 1.73940 0.16550 -0.03110
C162 C 1.8347(4) -0.3071(4) -0.0946(3)
H116 H 1.86490 -0.33100 -0.11580
C163 C 0.7835(4) -0.7285(3) 0.5769(3)
C164 C 1.7171(5) 0.2795(4) -0.0730(3)
C165 C 0.7301(5) -0.6131(4) 0.6122(3)
H117 H 0.74520 -0.63870 0.63560
C166 C 1.7854(6) -0.3145(5) -0.0315(3)
H118 H 1.78210 -0.34110 -0.00970
C167 C 1.7430(6) -0.2344(6) -0.0312(3)
H119 H 1.71440 -0.21310 -0.00900
C168 C 1.7419(6) 0.2897(5) -0.0405(2)
H120 H 1.73640 0.26890 -0.01680
K2 K 0.96893(8) 1.16763(8) 0.22110(5)
Zn1* Zn -0.09695(4) 1.39274(4) 0.16068(2)
Zn1** Zn 0.90305(4) 1.39274(4) 0.16068(2)
Zn2* Zn -0.10294(4) 1.22342(4) 0.33959(2)
Zn2** Zn 0.89706(4) 1.22342(4) 0.33959(2)
Zn3* Zn -0.13021(4) 0.14976(4) 0.53368(2)
Zn3** Zn 0.86979(4) -0.85024(4) 0.53368(2)
Zn4* Zn 1.91411(4) -0.55739(4) -0.03586(2)
Zn4** Zn 1.91411(4) 0.44261(4) -0.03586(2)
K1* K -0.06835(7) 1.35641(6) 0.26560(4)
K1** K 0.93165(7) 1.35641(6) 0.26560(4)
O1* O 0.9976(2) 0.3424(2) 0.18137(13)
O2* O 0.82894(19) 0.3641(2) 0.16264(13)
O5* O 1.0013(2) 0.1775(2) 0.33866(14)
O6* O 0.8516(2) 0.1803(2) 0.31355(13)
O7* O 0.9706(2) 0.1169(2) 0.53764(13)
O9* O 0.8066(2) 0.24856(19) 0.54415(14)
O11* O 0.8712(3) 0.5422(3) -0.03352(18)
O12* O 0.8473(3) 0.4082(3) -0.04157(18)
O15* O 0.8637(2) 0.3152(2) 0.22127(13)
O18* O 1.0030(2) 1.2438(2) 0.16268(13)
O22* O 1.0116(2) 0.2153(2) 0.27762(13)
O22** O 1.0116(2) 1.2153(2) 0.27762(13)
K2* K -0.03107(8) 1.16763(8) 0.22110(5)
#END
