
#######################################################################
#
#                 Cambridge Crystallographic Data Centre
#                                CCDC
#
#######################################################################
#
# If this CIF has been generated from an entry in the Cambridge
# Structural Database, then it will include bibliographic, chemical,
# crystal, experimental, refinement or atomic coordinate data resulting
# from the CCDC's data processing and validation procedures.
#
#######################################################################

data_CSD_CIF_HEKVAW
_audit_creation_date 2013-01-17
_audit_creation_method CSD-ConQuest-V1
_database_code_CSD HEKVAW
_database_code_depnum_ccdc_archive 'CCDC904266'
_chemical_formula_sum 'C19 H23 Cd1 N1 O8'
_chemical_formula_moiety
;
(C15 H11 Cd1 O8 1-)n,n(C4 H12 N1 1+)
;
_journal_coden_Cambridge 1147
_journal_volume 12
_journal_year 2012
_journal_page_first 4109
_journal_name_full 'Cryst.Growth Des. '
loop_
_publ_author_name
"Lina Li"
"Shuyun Wang"
"Tianliang Chen"
"Zhihua Sun"
"Junhua Luo"
"Maochun Hong"
_chemical_name_systematic
;
catena-(diethylammonium 
(\m~3~-biphenyl-3,4',5-tricarboxylato)-diaqua-cadmium(ii))
;
_cell_volume   1968.232
_exptl_crystal_colour 'colorless'
_exptl_crystal_density_diffrn 1.686
_exptl_crystal_description 'prism'
_diffrn_ambient_temperature 293
#These two values have been output from a single CSD field.
_refine_ls_R_factor_gt 0.0632
_refine_ls_wR_factor_gt 0.0632
_symmetry_cell_setting monoclinic
_symmetry_space_group_name_H-M 'P 21/c'
_symmetry_Int_Tables_number 14
loop_
_symmetry_equiv_pos_site_id
_symmetry_equiv_pos_as_xyz
1 x,y,z
2 -x,1/2+y,1/2-z
3 -x,-y,-z
4 x,-1/2-y,-1/2+z
_cell_length_a 13.5962(13)
_cell_length_b 18.848(2)
_cell_length_c 7.7355(8)
_cell_angle_alpha 90
_cell_angle_beta 96.832(9)
_cell_angle_gamma 90
_cell_formula_units_Z 4
loop_
_atom_type_symbol
_atom_type_radius_bond
C 0.68
H 0.23
Cd 1.44
N 0.68
O 0.68
loop_
_atom_site_label
_atom_site_type_symbol
_atom_site_fract_x
_atom_site_fract_y
_atom_site_fract_z
Cd1 Cd 0.65033(3) 0.04423(2) 0.78328(6)
O1 O 0.7817(4) 0.1117(3) 0.6907(8)
O2 O 0.8209(5) 0.0589(3) 0.9399(9)
O3 O 1.4641(4) 0.4058(3) 0.7413(7)
O4 O 1.3054(4) 0.4304(2) 0.7406(8)
O5 O 1.5773(4) 0.1541(3) 0.8026(9)
O6 O 1.4643(4) 0.0707(2) 0.7558(7)
O7 O 0.6072(4) 0.0353(3) 0.4772(7)
O8 O 0.6173(4) 0.0339(3) 1.0770(7)
N1 N 0.7872(5) 0.0860(4) 0.3282(9)
C1 C 1.4088(5) 0.1896(3) 0.7963(10)
C2 C 1.4885(5) 0.1359(4) 0.7837(10)
C3 C 1.1337(5) 0.1897(3) 0.8329(9)
C4 C 1.0243(5) 0.1033(4) 0.9374(9)
H1 H 1.01490 0.06540 1.01050
C5 C 0.9446(5) 0.1317(4) 0.8310(9)
C6 C 0.8428(5) 0.0976(4) 0.8216(10)
C7 C 1.4282(5) 0.2615(3) 0.7749(9)
H2 H 1.49160 0.27630 0.75780
C8 C 0.9596(5) 0.1909(4) 0.7317(10)
H3 H 0.90590 0.21190 0.66520
C9 C 1.3127(5) 0.1679(3) 0.8132(9)
H4 H 1.29900 0.11980 0.82110
C10 C 1.1189(5) 0.1320(4) 0.9342(9)
H5 H 1.17260 0.11160 1.00190
C11 C 1.2583(5) 0.2879(4) 0.8012(9)
H6 H 1.20810 0.32130 0.80440
C12 C 1.2366(5) 0.2169(4) 0.8187(9)
C13 C 1.3530(5) 0.3109(3) 0.7790(9)
C14 C 1.3777(5) 0.3878(3) 0.7540(8)
C15 C 1.0537(5) 0.2195(4) 0.7298(10)
H7 H 1.06310 0.25850 0.65980
C16 C 0.8553(8) -0.0299(5) 0.4443(13)
H8 H 0.91490 -0.05770 0.46130
H9 H 0.80540 -0.05540 0.37110
H10 H 0.83240 -0.02080 0.55490
C17 C 0.7139(9) 0.2025(6) 0.254(2)
H11 H 0.72990 0.25000 0.22280
H12 H 0.68410 0.20340 0.36080
H13 H 0.66830 0.18210 0.16350
C18 C 0.8068(7) 0.1585(5) 0.2793(13)
H14 H 0.83710 0.15830 0.17200
H15 H 0.85330 0.17990 0.36910
C19 C 0.8764(7) 0.0396(6) 0.3589(16)
H16 H 0.92800 0.06460 0.43220
H17 H 0.90080 0.03000 0.24840
Cd1A Cd 1.34967(3) 0.54423(2) 0.71672(6)
Cd1* Cd 1.65033(3) 0.04423(2) 0.78328(6)
O4A O 0.6946(4) -0.0696(2) 0.7594(8)
O5* O 0.5773(4) 0.1541(3) 0.8026(9)
#END
