
#######################################################################
#
#                 Cambridge Crystallographic Data Centre
#                                CCDC
#
#######################################################################
#
# If this CIF has been generated from an entry in the Cambridge
# Structural Database, then it will include bibliographic, chemical,
# crystal, experimental, refinement or atomic coordinate data resulting
# from the CCDC's data processing and validation procedures.
#
#######################################################################

data_CSD_CIF_HELCOS
_audit_creation_date 2013-01-17
_audit_creation_method CSD-ConQuest-V1
_database_code_CSD HELCOS
_database_code_depnum_ccdc_archive 'CCDC 904275'
_chemical_formula_sum 'C12 H18 N3 Na1 O12 Zn1'
_chemical_formula_moiety
;
(C12 H12 N3 O9 Zn1 1-)n,n(Na1 1+),3n(H2 O1)
;
_journal_coden_Cambridge 1147
_journal_volume 12
_journal_year 2012
_journal_page_first 4170
_journal_name_full 'Cryst.Growth Des. '
loop_
_publ_author_name
"Huijun Li"
"Bei Zhao"
"Ran Ding"
"Yanyuan Jia"
"Hongwei Hou"
"Yaoting Fan"
_chemical_name_systematic
;
catena-(sodium 
(\m~4~-3,3',3''-(2,4,6-trioxo-1,3,5-triazinane-1,3,5-triyl)tripropanoato)-zinc
(ii) trihydrate)
;
_cell_volume   1678.429
_exptl_crystal_colour 'colorless'
_exptl_crystal_density_diffrn 1.918
_exptl_crystal_description 'prism'
_diffrn_ambient_temperature 293
#These two values have been output from a single CSD field.
_refine_ls_R_factor_gt 0.0595
_refine_ls_wR_factor_gt 0.0595
_symmetry_cell_setting monoclinic
_symmetry_space_group_name_H-M 'P 2/c'
_symmetry_Int_Tables_number 13
loop_
_symmetry_equiv_pos_site_id
_symmetry_equiv_pos_as_xyz
1 x,y,z
2 -x,y,1/2-z
3 -x,-y,-z
4 x,-y,-1/2+z
_cell_length_a 11.875(2)
_cell_length_b 5.0074(10)
_cell_length_c 30.424(8)
_cell_angle_alpha 90
_cell_angle_beta 111.91(3)
_cell_angle_gamma 90
_cell_formula_units_Z 4
loop_
_atom_type_symbol
_atom_type_radius_bond
C 0.68
H 0.23
N 0.68
Na 0.96
O 0.68
Zn 1.22
loop_
_atom_site_label
_atom_site_type_symbol
_atom_site_fract_x
_atom_site_fract_y
_atom_site_fract_z
Zn1 Zn 0.39568(5) 0.80040(13) 0.90552(2)
Na1 Na 0.5227(2) 1.2525(4) 0.87042(8)
O1 O 0.3633(4) 0.9120(8) 0.83792(14)
O2 O 0.4335(4) 0.5485(10) 0.81439(14)
O3 O 0.3564(4) 0.5466(9) 0.5734(2)
O4 O 0.4357(3) 0.9313(8) 0.56413(15)
O5 O -0.3663(3) 0.4109(7) 0.59798(13)
O6 O -0.2673(3) 0.0507(7) 0.59090(15)
O7 O 0.1357(4) 0.3368(10) 0.69176(16)
O8 O 0.3264(3) 1.0225(8) 0.64984(13)
O9 O -0.0210(4) 0.6716(9) 0.54285(14)
O10 O 0.4204(5) 0.7172(10) 0.98850(18)
N1 N 0.2347(4) 0.6783(9) 0.67199(16)
N2 N 0.1532(4) 0.8534(9) 0.59543(15)
N3 N 0.0535(4) 0.5002(9) 0.61702(15)
C1 C 0.3733(6) 0.7520(13) 0.8065(2)
C2 C 0.3012(7) 0.8338(13) 0.7550(2)
H1 H 0.21520 0.81810 0.74860
H2 H 0.31810 1.01960 0.75080
C3 C 0.3316(5) 0.6659(13) 0.7198(2)
H3 H 0.40720 0.72790 0.71810
H4 H 0.34280 0.48190 0.73060
C4 C 0.1413(5) 0.4945(12) 0.66266(19)
C5 C 0.2440(4) 0.8624(11) 0.64003(19)
C6 C 0.1635(5) 1.0252(11) 0.55781(19)
H5 H 0.21300 1.17960 0.57200
H6 H 0.08350 1.08840 0.53780
C7 C 0.2204(5) 0.8742(13) 0.52731(19)
H7 H 0.16840 0.72590 0.51160
H8 H 0.22620 0.99300 0.50300
C8 C 0.3450(5) 0.7700(12) 0.55663(19)
C9 C 0.0561(5) 0.6733(11) 0.58209(19)
C10 C -0.0509(5) 0.316(1) 0.6053(2)
H9 H -0.03330 0.17850 0.62940
H10 H -0.06450 0.22990 0.57520
C11 C -0.1646(5) 0.4674(12) 0.6023(3)
H11 H -0.14570 0.57360 0.63080
H12 H -0.18610 0.58990 0.57570
C12 C -0.2726(5) 0.297(1) 0.59670(19)
O11 O 0.1429(10) 0.288(2) 0.7909(4)
O12 O 0.0262(15) 0.818(3) 0.7977(7)
Zn1A Zn 0.60432(5) 0.80040(13) 0.59448(2)
Zn1A* Zn -0.39568(5) 0.80040(13) 0.59448(2)
Zn1A** Zn -0.39568(5) -0.19960(13) 0.59448(2)
O4A O 0.5643(3) 0.9313(8) 0.93587(15)
O5A O 0.3663(3) 0.4109(7) 0.90202(13)
O6A O 0.2673(3) 1.0507(7) 0.90910(15)
#END
