
#######################################################################
#
#                 Cambridge Crystallographic Data Centre
#                                CCDC
#
#######################################################################
#
# If this CIF has been generated from an entry in the Cambridge
# Structural Database, then it will include bibliographic, chemical,
# crystal, experimental, refinement or atomic coordinate data resulting
# from the CCDC's data processing and validation procedures.
#
#######################################################################

data_CSD_CIF_HEMTEZ
_audit_creation_date 2007-01-12
_audit_creation_method CSD-ConQuest-V1
_database_code_CSD HEMTEZ
_database_code_depnum_ccdc_archive 'CCDC 620973'
_chemical_formula_sum 'C40 H66 Mo12 N8 Ni3 O70 P8'
_chemical_formula_moiety
;
(C10 H10 N2 2+)2n,n(C20 H38 Mo12 N4 Ni3 O66 P8 4-),4n(H2 O1)
;
_journal_coden_Cambridge 9
_journal_volume 45
_journal_year 2006
_journal_page_first 6586
_journal_name_full 'Inorg.Chem. '
loop_
_publ_author_name
"Wen-Jung Chang"
"Yau-Chen Jiang"
"Sue-Lein Wang"
"Kwang-Hwa Lii"
_chemical_name_systematic
;
catena-(bis(4,4'-Bipyridinium) bis(\m~6~-hydrogen 
phosphato)-tetrakis(\m~3~-hydrogen 
phosphato)-hexakis(\m~3~-oxo)-bis(\m~2~-hydrogen 
phosphato)-bis(\m~2~-4,4'-bipyridine)-hexakis(\m~2~-oxo)-hexakis(\m~2~-hydroxo
)-tetra-aqua-dodecaoxo-tri-nickel-dodeca-molybdenum tetrahydrate)
;
_cell_volume  10230.122
_exptl_crystal_colour 'red-brown'
_exptl_crystal_density_diffrn 2.178
_exptl_crystal_description 'block'
_diffrn_ambient_temperature 293
#These two values have been output from a single CSD field.
_refine_ls_R_factor_gt 0.0414
_refine_ls_wR_factor_gt 0.0414
_symmetry_cell_setting orthorhombic
_symmetry_space_group_name_H-M 'P c c n'
_symmetry_Int_Tables_number 56
loop_
_symmetry_equiv_pos_site_id
_symmetry_equiv_pos_as_xyz
1 x,y,z
2 1/2-x,1/2-y,z
3 -x,1/2+y,1/2-z
4 1/2+x,-y,1/2-z
5 -x,-y,-z
6 -1/2+x,-1/2+y,-z
7 x,-1/2-y,-1/2+z
8 -1/2-x,y,-1/2+z
_cell_length_a 27.745(2)
_cell_length_b 16.1583(12)
_cell_length_c 22.8192(18)
_cell_angle_alpha 90
_cell_angle_beta 90
_cell_angle_gamma 90
_cell_formula_units_Z 4
loop_
_atom_type_symbol
_atom_type_radius_bond
C 0.68
H 0.23
Mo 1.38
N 0.68
Ni 1.50
O 0.68
P 1.05
loop_
_atom_site_label
_atom_site_type_symbol
_atom_site_fract_x
_atom_site_fract_y
_atom_site_fract_z
Mo1 Mo 0.049520(16) -0.20101(3) 0.43920(2)
Mo2 Mo -0.066809(16) 0.10353(3) 0.37375(2)
Mo3 Mo 0.060182(16) 0.11225(3) 0.36951(2)
Mo4 Mo -0.110690(15) -0.03223(3) 0.40365(2)
Mo5 Mo 0.109930(16) -0.01876(3) 0.39677(2)
Mo6 Mo -0.044240(16) -0.20750(3) 0.44344(2)
Ni1 Ni 0.00000 0.00000 0.50000
Ni2 Ni -0.25000 -0.25000 0.34202(4)
Ni3 Ni 0.25000 -0.25000 0.33384(4)
P1 P -0.13134(5) -0.21924(9) 0.34321(6)
P2 P 0.13351(5) -0.20347(9) 0.33514(6)
P3 P -0.00855(6) 0.18598(10) 0.26103(7)
P4 P -0.00200(4) -0.06720(8) 0.33956(6)
O1 O -0.17663(14) -0.2701(3) 0.34061(18)
O2 O -0.09564(15) -0.2549(2) 0.38777(19)
O3 O -0.14261(14) -0.1272(2) 0.35515(18)
O4 O -0.10565(17) -0.2184(3) 0.2810(2)
O5 O 0.17809(14) -0.2557(3) 0.33203(19)
O6 O 0.09782(15) -0.2419(3) 0.37850(19)
O7 O 0.14546(14) -0.1124(2) 0.35083(19)
O8 O 0.10968(17) -0.2022(3) 0.2721(2)
O9 O -0.01828(19) 0.2776(3) 0.2550(2)
O10 O 0.03997(15) 0.1667(3) 0.29031(19)
O11 O -0.05207(15) 0.1471(3) 0.29228(18)
O12 O -0.00681(19) 0.1451(4) 0.1982(2)
O13 O -0.00272(12) 0.0271(2) 0.34587(18)
O14 O 0.04487(13) -0.1019(2) 0.36576(16)
O15 O -0.04545(13) -0.1059(2) 0.37189(16)
O16 O -0.00599(14) -0.0839(3) 0.27288(18)
O17 O 0.06335(15) -0.2659(3) 0.49395(19)
O18 O 0.10162(13) -0.1122(2) 0.45955(16)
O19 O 0.00175(11) -0.1258(2) 0.47645(17)
O20 O 0.00238(12) -0.2604(3) 0.39201(18)
O21 O -0.05891(13) 0.0311(2) 0.44399(16)
O22 O -0.00416(12) 0.1668(3) 0.40041(18)
O23 O -0.10369(14) 0.0230(2) 0.32862(17)
O24 O -0.10603(15) 0.1760(3) 0.3964(2)
O25 O 0.05746(13) 0.0388(2) 0.43956(16)
O26 O 0.09753(14) 0.0353(2) 0.32231(17)
O27 O 0.09848(15) 0.1875(3) 0.3905(2)
O28 O -0.09850(13) -0.1243(2) 0.46659(17)
O29 O -0.16218(15) 0.0061(3) 0.4319(2)
O30 O 0.16032(15) 0.0252(3) 0.4233(2)
O31 O -0.05133(15) -0.2744(3) 0.49905(18)
O32 O -0.24146(15) -0.1193(3) 0.34169(19)
O33 O 0.24663(17) -0.1173(3) 0.3367(2)
N1 N -0.25000 -0.25000 0.2492(3)
N2 N -0.25000 -0.25000 -0.0637(3)
N3 N 0.25000 -0.25000 0.2409(3)
N4 N 0.25000 -0.25000 -0.0716(3)
N5 N -0.2912(3) 0.9509(5) 0.4355(3)
N6 N -0.4016(4) 0.9977(6) 0.7109(4)
C1 C -0.2226(3) -0.3012(6) 0.2185(3)
H1 H -0.20310 -0.33800 0.23880
C2 C -0.2214(3) -0.3031(6) 0.1579(3)
H2 H -0.20130 -0.34030 0.13870
C3 C -0.25000 -0.25000 0.1256(4)
C4 C -0.2153(3) -0.2881(5) -0.0328(3)
H3 H -0.19080 -0.31480 -0.05320
C5 C -0.2140(3) -0.2896(5) 0.0280(3)
H4 H -0.18920 -0.31700 0.04740
C6 C -0.25000 -0.25000 0.0600(4)
C7 C 0.2164(3) -0.2893(6) 0.2102(3)
H5 H 0.19230 -0.31700 0.23050
C8 C 0.2155(3) -0.2914(7) 0.1494(3)
H6 H 0.19140 -0.32090 0.13020
C9 C 0.25000 -0.25000 0.1173(4)
C10 C 0.2129(3) -0.2793(6) -0.0411(3)
H7 H 0.18650 -0.30000 -0.06150
C11 C 0.2117(3) -0.2807(7) 0.0199(3)
H8 H 0.18510 -0.30220 0.03930
C12 C 0.25000 -0.25000 0.0511(4)
C13 C -0.2736(3) 1.0032(6) 0.4764(5)
H9 H -0.24550 1.03230 0.46800
C14 C -0.2950(3) 1.0155(6) 0.5296(4)
H10 H -0.28220 1.05330 0.55610
C15 C -0.3367(3) 0.9704(4) 0.5437(3)
C16 C -0.3317(3) 0.9098(5) 0.4481(4)
H11 H -0.34440 0.87440 0.42000
C17 C -0.3552(3) 0.9174(5) 0.5006(4)
H12 H -0.38330 0.88750 0.50760
C18 C -0.3609(3) 0.9783(5) 0.6013(3)
C19 C -0.3622(3) 1.0559(6) 0.6303(3)
H13 H -0.34880 1.10250 0.61290
C20 C -0.3836(4) 1.0616(7) 0.6845(4)
H14 H -0.38520 1.11300 0.70270
C21 C -0.4025(6) 0.9179(8) 0.6841(6)
H15 H -0.41610 0.87240 0.70270
C22 C -0.3817(4) 0.9113(6) 0.6280(4)
H16 H -0.38210 0.86060 0.60880
O34 O -0.4346(2) 0.0046(5) 0.3080(3)
Mo1D Mo -0.049520(16) 0.20101(3) 0.56080(2)
Mo2D Mo 0.066809(16) -0.10353(3) 0.62625(2)
Mo3D Mo -0.060182(16) -0.11225(3) 0.63049(2)
Mo4D Mo 0.110690(15) 0.03223(3) 0.59635(2)
Mo5D Mo -0.109930(16) 0.01876(3) 0.60323(2)
Mo6D Mo 0.044240(16) 0.20750(3) 0.55656(2)
Ni2F Ni -0.25000 -0.25000 -0.15798(4)
Ni2E Ni 0.25000 0.25000 0.65798(4)
Ni3F Ni 0.25000 -0.25000 -0.16616(4)
Ni3E Ni -0.25000 0.25000 0.66616(4)
P1D P 0.13134(5) 0.21924(9) 0.65679(6)
P2D P -0.13351(5) 0.20347(9) 0.66486(6)
P3D P 0.00855(6) -0.18598(10) 0.73897(7)
P4D P 0.00200(4) 0.06720(8) 0.66044(6)
O1D O 0.17663(14) 0.2701(3) 0.65939(18)
O1A O -0.32337(14) -0.2299(3) 0.34061(18)
O2D O 0.09564(15) 0.2549(2) 0.61223(19)
O3D O 0.14261(14) 0.1272(2) 0.64485(18)
O4D O 0.10565(17) 0.2184(3) 0.7190(2)
O5D O -0.17809(14) 0.2557(3) 0.66797(19)
O5A O 0.32191(14) -0.2443(3) 0.33203(19)
O6D O -0.09782(15) 0.2419(3) 0.62150(19)
O7D O -0.14546(14) 0.1124(2) 0.64917(19)
O8D O -0.10968(17) 0.2022(3) 0.7279(2)
O9D O 0.01828(19) -0.2776(3) 0.7450(2)
O10D O -0.03997(15) -0.1667(3) 0.70969(19)
O11D O 0.05207(15) -0.1471(3) 0.70772(18)
O12D O 0.00681(19) -0.1451(4) 0.8018(2)
O13D O 0.00272(12) -0.0271(2) 0.65413(18)
O14D O -0.04487(13) 0.1019(2) 0.63424(16)
O15D O 0.04545(13) 0.1059(2) 0.62811(16)
O16D O 0.00599(14) 0.0839(3) 0.72712(18)
O17D O -0.06335(15) 0.2659(3) 0.50605(19)
O18D O -0.10162(13) 0.1122(2) 0.54045(16)
O19D O -0.00175(11) 0.1258(2) 0.52355(17)
O20D O -0.00238(12) 0.2604(3) 0.60799(18)
O21D O 0.05891(13) -0.0311(2) 0.55601(16)
O22D O 0.00416(12) -0.1668(3) 0.59959(18)
O23D O 0.10369(14) -0.0230(2) 0.67138(17)
O24D O 0.10603(15) -0.1760(3) 0.6036(2)
O25D O -0.05746(13) -0.0388(2) 0.56044(16)
O26D O -0.09753(14) -0.0353(2) 0.67769(17)
O27D O -0.09848(15) -0.1875(3) 0.6095(2)
O28D O 0.09850(13) 0.1243(2) 0.53341(17)
O29D O 0.16218(15) -0.0061(3) 0.5681(2)
O30D O -0.16032(15) -0.0252(3) 0.5767(2)
O31D O 0.05133(15) 0.2744(3) 0.50095(18)
O32A O -0.25854(15) -0.3807(3) 0.34169(19)
O33A O 0.25337(17) -0.3827(3) 0.3367(2)
N2F N -0.25000 -0.25000 0.4363(3)
N4F N 0.25000 -0.25000 0.4284(3)
C1A C -0.2774(3) -0.1988(6) 0.2185(3)
H1A H -0.29690 -0.16200 0.23880
C2A C -0.2786(3) -0.1969(6) 0.1579(3)
H2A H -0.29870 -0.15970 0.13870
C4A C -0.2847(3) -0.2119(5) -0.0328(3)
H3A H -0.30920 -0.18520 -0.05320
C5A C -0.2860(3) -0.2104(5) 0.0280(3)
H4A H -0.31080 -0.18300 0.04740
C7A C 0.2836(3) -0.2107(6) 0.2102(3)
H5A H 0.30770 -0.18300 0.23050
C8A C 0.2845(3) -0.2086(7) 0.1494(3)
H6A H 0.30860 -0.17910 0.13020
C10A C 0.2871(3) -0.2207(6) -0.0411(3)
H7A H 0.31350 -0.20000 -0.06150
C11A C 0.2883(3) -0.2193(7) 0.0199(3)
H8A H 0.31490 -0.19780 0.03930
#END
