
#######################################################################
#
#                 Cambridge Crystallographic Data Centre
#                                CCDC
#
#######################################################################
#
# If this CIF has been generated from an entry in the Cambridge
# Structural Database, then it will include bibliographic, chemical,
# crystal, experimental, refinement or atomic coordinate data resulting
# from the CCDC's data processing and validation procedures.
#
#######################################################################

data_CSD_CIF_HENSEB
_audit_creation_date 2018-02-02
_audit_creation_method CSD-ConQuest-V1
_database_code_CSD HENSEB
_database_code_depnum_ccdc_archive 'CCDC 1821706'
_chemical_formula_sum 'C37.25 H45.59 N5.084 O23.08 Zn3'
_chemical_formula_moiety
;
(C24 H8 O20 Zn3 2-)n,3.084(C3 H7 N1 O1),2(C2 H8 N1 1+)
;
_journal_coden_Cambridge 1078
_journal_year 2018
_journal_name_full 'CSD Communication(Private Communication) '
loop_
_publ_author_name
"Yimin Mao"
"Peter Y.Zavalij"
_chemical_name_systematic
;
catena-[bis(dimethylammonium) tetrakis(\m-furan-2,5-dicarboxylato)-tri-zinc 
N,N-dimethylformamide solvate]
;
_cell_volume   2489.974
_exptl_crystal_colour 'colorless'
_exptl_crystal_density_diffrn 1.508
_exptl_special_details
;
X-ray Crystallographic Center, Department of Chemistry and Biochemistry, 091 
Chemistry Building, University of Maryland, College Park, MD 20742
;
_exptl_crystal_description 'block'
_diffrn_ambient_temperature 150
_refine_special_details
;
C1C,C2C,N1C and C1D,C2D,N1D disordered over two sites with occupancies 
0.776:0.224.
;
#These two values have been output from a single CSD field.
_refine_ls_R_factor_gt 0.0476
_refine_ls_wR_factor_gt 0.0476
_symmetry_cell_setting monoclinic
_symmetry_space_group_name_H-M 'P 21/c'
_symmetry_Int_Tables_number 14
loop_
_symmetry_equiv_pos_site_id
_symmetry_equiv_pos_as_xyz
1 x,y,z
2 -x,1/2+y,1/2-z
3 -x,-y,-z
4 x,-1/2-y,-1/2+z
_cell_length_a 9.2803(3)
_cell_length_b 15.1916(5)
_cell_length_c 17.7731(6)
_cell_angle_alpha 90
_cell_angle_beta 96.4221(6)
_cell_angle_gamma 90
_cell_formula_units_Z 2
loop_
_atom_type_symbol
_atom_type_radius_bond
C 0.68
H 0.23
N 0.68
O 0.68
Zn 1.22
loop_
_atom_site_label
_atom_site_type_symbol
_atom_site_fract_x
_atom_site_fract_y
_atom_site_fract_z
Zn1 Zn 0.50000 0.50000 1.00000
Zn2 Zn 0.42599(3) 0.61076(2) 0.83985(2)
O1 O 0.3026(2) 0.46504(15) 0.94902(13)
O2 O 0.2326(2) 0.57061(16) 0.86327(12)
C1 C 0.2101(3) 0.5076(2) 0.90644(16)
C2 C 0.0572(3) 0.4795(2) 0.90756(16)
C3 C -0.0023(3) 0.4055(2) 0.93325(19)
H1 H 0.04794 0.35538 0.95473
C4 C -0.1553(3) 0.4177(2) 0.92162(18)
H2 H -0.22759 0.37734 0.93354
O3 O -0.0480(2) 0.53740(15) 0.87952(11)
C5 C -0.3087(3) 0.5513(2) 0.86701(16)
C6 C -0.1772(3) 0.4985(2) 0.89015(16)
O4 O -0.4299(2) 0.52153(15) 0.88787(12)
O5 O -0.3037(2) 0.61822(17) 0.82919(13)
O6 O 0.3871(4) 0.5295(2) 0.71541(18)
O7 O 0.4031(3) 0.6704(2) 0.73894(13)
C7 C 0.3940(4) 0.6060(3) 0.69386(19)
C8 C 0.3949(4) 0.6244(2) 0.61219(18)
C9 C 0.3848(5) 0.5702(3) 0.5522(2)
H3 H 0.37036 0.50829 0.55233
C10 C 0.4002(5) 0.6242(2) 0.48841(19)
H4 H 0.39757 0.60534 0.43731
C11 C 0.4194(3) 0.7075(2) 0.51421(16)
O8 O 0.4160(2) 0.70942(16) 0.59083(11)
C12 C 0.4401(3) 0.7915(2) 0.47440(16)
O9 O 0.4452(3) 0.78259(15) 0.40358(12)
O10 O 0.4473(2) 0.86162(15) 0.51109(12)
C13? C 0.663(2) 0.8323(12) 0.8278(11)
H5? H 0.70149 0.77745 0.80919
H6? H 0.64740 0.82537 0.88115
H7? H 0.73137 0.88029 0.82277
C14? C 0.513(3) 0.8508(15) 0.6928(12)
H8? H 0.50622 0.91134 0.67362
H9? H 0.42552 0.81825 0.67364
H10? H 0.59823 0.82212 0.67561
N1? N 0.529(3) 0.852(2) 0.7848(15)
H11? H 0.50240 0.90677 0.79906
H12? H 0.46216 0.81382 0.79955
C15 C 0.9981(9) 0.8863(6) 0.9853(5)
H13 H 1.05631 0.86825 1.03214
H14 H 0.91359 0.91979 0.99767
H15 H 1.05696 0.92327 0.95540
C16 C 1.0522(9) 0.7540(5) 0.9148(5)
H16 H 1.10646 0.78645 0.87955
H17 H 1.00187 0.70422 0.88840
H18 H 1.11933 0.73205 0.95712
N2 N 0.9505(6) 0.8100(4) 0.9424(4)
C17 C 0.8234(8) 0.8076(5) 0.9054(6)
H19 H 0.80336 0.75723 0.87429
O11 O 0.7253(6) 0.8607(4) 0.9045(5)
C18 C 0.6353(7) 0.8458(5) 0.7049(4)
H20 H 0.57489 0.84145 0.65611
H21 H 0.71365 0.80233 0.70671
H22 H 0.67677 0.90502 0.71065
C19 C 0.3980(7) 0.8689(4) 0.7584(4)
H23 H 0.40482 0.93142 0.77210
H24 H 0.34069 0.83793 0.79317
H25 H 0.35102 0.86296 0.70647
N3 N 0.5499(8) 0.8293(5) 0.7638(5)
H26 H 0.59991 0.84880 0.80760
H27 H 0.54095 0.76990 0.76811
C20 C 0.7740(8) 0.9140(9) 0.1494(6)
H28 H 0.77090 0.89792 0.09584
H29 H 0.73044 0.97225 0.15373
H30 H 0.71968 0.87046 0.17561
C21 C 0.9906(8) 0.8380(6) 0.2079(5)
H31 H 1.08039 0.85209 0.24008
H32 H 1.01342 0.80359 0.16418
H33 H 0.92661 0.80378 0.23708
N4 N 0.9213(6) 0.9158(6) 0.1830(4)
C22 C 0.9796(12) 0.9914(7) 0.2006(5)
H34 H 1.07689 0.98903 0.22379
O12 O 0.9289(12) 1.0651(6) 0.1920(6)
Zn2B Zn -0.42599(3) 0.38924(2) 1.16015(2)
O1B O -0.3026(2) 0.53496(15) 1.05098(13)
O2B O -0.2326(2) 0.42939(16) 1.13673(12)
C1B C -0.2101(3) 0.4924(2) 1.09356(16)
C2B C -0.0572(3) 0.5205(2) 1.09244(16)
C3B C 0.0023(3) 0.5945(2) 1.06675(19)
H1B H -0.04794 0.64462 1.04527
C4B C 0.1553(3) 0.5823(2) 1.07838(18)
H2B H 0.22759 0.62266 1.06646
O3B O 0.0480(2) 0.46260(15) 1.12048(11)
C5B C 0.3087(3) 0.4487(2) 1.13299(16)
C6B C 0.1772(3) 0.5015(2) 1.10985(16)
O4B O 0.4299(2) 0.47847(15) 1.11213(12)
O5B O 0.3037(2) 0.38178(17) 1.17081(13)
O6B O -0.3871(4) 0.4705(2) 1.28459(18)
O7B O -0.4031(3) 0.3296(2) 1.26106(13)
C7B C -0.3940(4) 0.3940(3) 1.30614(19)
C8B C -0.3949(4) 0.3756(2) 1.38781(18)
C9B C -0.3848(5) 0.4298(3) 1.4478(2)
H3B H -0.37036 0.49171 1.44767
C10B C -0.4002(5) 0.3758(2) 1.51159(19)
H4B H -0.39757 0.39466 1.56269
C11B C -0.4194(3) 0.2925(2) 1.48579(16)
O8B O -0.4160(2) 0.29058(16) 1.40917(11)
C12B C -0.4401(3) 0.2085(2) 1.52560(16)
O9B O -0.4452(3) 0.21741(15) 1.59642(12)
O10B O -0.4473(2) 0.13838(15) 1.48891(12)
Zn1* Zn -0.50000 0.50000 1.00000
Zn1A Zn -0.50000 0.00000 1.50000
Zn1A* Zn 0.50000 1.00000 0.50000
Zn2* Zn -0.57401(3) 0.61076(2) 0.83985(2)
Zn2A Zn -0.42599(3) 0.11076(2) 1.66015(2)
Zn2B* Zn 0.57401(3) 0.38924(2) 1.16015(2)
Zn2C Zn 0.42599(3) 0.88924(2) 0.33985(2)
O1B* O 0.6974(2) 0.53496(15) 1.05098(13)
O4* O 0.5701(2) 0.52153(15) 0.88787(12)
O4B* O -0.5701(2) 0.47847(15) 1.11213(12)
O5* O 0.6963(2) 0.61822(17) 0.82919(13)
O5B* O -0.6963(2) 0.38178(17) 1.17081(13)
O9A O -0.4452(3) 0.28259(15) 1.09642(12)
O9C O 0.4452(3) 0.71741(15) 0.90358(12)
O10A O 0.5527(2) 0.36162(15) 0.98891(12)
O10C O 0.4473(2) 0.63838(15) 1.01109(12)
#END
