
#######################################################################
#
#                 Cambridge Crystallographic Data Centre
#                                CCDC
#
#######################################################################
#
# If this CIF has been generated from an entry in the Cambridge
# Structural Database, then it will include bibliographic, chemical,
# crystal, experimental, refinement or atomic coordinate data resulting
# from the CCDC's data processing and validation procedures.
#
#######################################################################

data_CSD_CIF_HEPXEI
_audit_creation_date 2018-02-05
_audit_creation_method CSD-ConQuest-V1
_database_code_CSD HEPXEI
_database_code_depnum_ccdc_archive 'CCDC 1822044'
_chemical_formula_sum 'C36 H87 Cl1 Cu4 N12 O79 Si1 W12'
_chemical_formula_moiety
;
(C36 H24 Cl1 Cu4 N12 O8 3+)n,H1 O40 Si1 W12 3-,31(H2 O1)
;
_journal_coden_Cambridge 1078
_journal_year 2018
_journal_name_full 'CSD Communication(Private Communication) '
loop_
_publ_author_name
"Diming Chen"
_chemical_name_systematic
;
catena-[(\m-chloro)-tetrakis(\m-4-(4-carboxylatophenyl)-1,2,4-triazole)-tetra-
copper(ii) 
(\m-silicato)-(\m-hydroxo)-tricosakis(\m-oxo)-dodeca-oxo-dodeca-tungsten 
henitriacontahydrate]
;
_cell_volume   4446.279
_exptl_special_details
;
The anion H atoms have not been located and have been placed arbitrarily in 
the 2D diagram
;
_diffrn_ambient_temperature 293
_refine_special_details
;
The structure is disordered by symmetry. Disordered solvent water molecules 
were not modelled and the disordered density was taken into account using the 
SQUEEZE/PLATON procedure.
;
#These two values have been output from a single CSD field.
_refine_ls_R_factor_gt 0.086
_refine_ls_wR_factor_gt 0.086
_symmetry_cell_setting tetragonal
_symmetry_space_group_name_H-M 'I 4/m'
_symmetry_Int_Tables_number 87
loop_
_symmetry_equiv_pos_site_id
_symmetry_equiv_pos_as_xyz
1 x,y,z
2 -x,-y,z
3 -y,x,z
4 y,-x,z
5 1/2+x,1/2+y,1/2+z
6 1/2-x,1/2-y,1/2+z
7 1/2-y,1/2+x,1/2+z
8 1/2+y,1/2-x,1/2+z
9 -x,-y,-z
10 x,y,-z
11 y,-x,-z
12 -y,x,-z
13 -1/2-x,-1/2-y,-1/2-z
14 -1/2+x,-1/2+y,-1/2-z
15 -1/2+y,-1/2-x,-1/2-z
16 -1/2-y,-1/2+x,-1/2-z
_cell_length_a 15.6055(4)
_cell_length_b 15.6055(4)
_cell_length_c 18.2575(8)
_cell_angle_alpha 90
_cell_angle_beta 90
_cell_angle_gamma 90
_cell_formula_units_Z 2
loop_
_atom_type_symbol
_atom_type_radius_bond
C 0.68
H 0.23
Cl 0.99
Cu 1.32
N 0.68
O 0.68
Si 1.20
W 1.62
loop_
_atom_site_label
_atom_site_type_symbol
_atom_site_fract_x
_atom_site_fract_y
_atom_site_fract_z
W1 W 0.63424(10) 0.68254(9) -0.50000
W2 W 0.47534(7) 0.65833(7) -0.36343(6)
Si1 Si 0.50000 0.50000 -0.50000
O1 O 0.4653(14) 0.7340(12) -0.2983(10)
O2 O 0.7069(19) 0.7675(17) -0.50000
O3 O 0.5519(16) 0.7186(17) -0.4277(15)
O4 O 0.3885(16) 0.6913(15) -0.4282(13)
O5 O 0.4048(17) 0.5688(15) -0.3269(13)
O6 O 0.5527(17) 0.5696(17) -0.4473(17)
Cu1 Cu 0.5005(2) 0.6604(2) 0.00000
Cl1 Cl 0.50000 0.50000 0.00000
N1 N 0.598(2) 0.663(2) -0.071(2)
N2 N 0.660(2) 0.5994(19) -0.0755(17)
N3 N 0.6878(10) 0.6898(11) -0.1621(8)
C1 C 0.645(2) 0.733(3) -0.2136(18)
H1 H 0.58497 0.73090 -0.21180
C2 C 0.7244(18) 0.7321(18) -0.2216(16)
C3 C 0.708(2) 0.617(2) -0.1288(19)
C4 C 0.6824(10) 0.7793(14) -0.2692(10)
H2 H 0.63086 0.79894 -0.28363
C5 C 0.6166(16) 0.718(2) -0.1229(17)
H3 H 0.58703 0.76898 -0.13193
C6 C 0.783(2) 0.675(2) -0.1753(18)
H4 H 0.81489 0.63818 -0.14573
C7? C 0.6475(19) 0.648(2) -0.1051(17)
O7? O 0.688(2) 0.578(2) -0.0768(19)
O8? O 0.578(2) 0.675(2) -0.0827(18)
C8? C 0.6878(10) 0.6898(11) -0.1621(8)
O6A O 0.4473(17) 0.4304(17) -0.4473(17)
O6B O 0.4304(17) 0.5527(17) -0.4473(17)
O6C O 0.5696(17) 0.4473(17) -0.4473(17)
O6H O 0.4473(17) 0.4304(17) -0.5527(17)
O6I O 0.5527(17) 0.5696(17) -0.5527(17)
O6J O 0.5696(17) 0.4473(17) -0.5527(17)
O6K O 0.4304(17) 0.5527(17) -0.5527(17)
W1A W 0.36576(10) 0.31746(9) -0.50000
W2A W 0.52466(7) 0.34167(7) -0.36343(6)
O1A O 0.5347(14) 0.2660(12) -0.2983(10)
O2A O 0.2931(19) 0.2325(17) -0.50000
O3A O 0.4481(16) 0.2814(17) -0.4277(15)
O4A O 0.6115(16) 0.3087(15) -0.4282(13)
O5A O 0.5952(17) 0.4312(15) -0.3269(13)
W1B W 0.31746(10) 0.63424(9) -0.50000
W2B W 0.34167(7) 0.47534(7) -0.36343(6)
O1B O 0.2660(14) 0.4653(12) -0.2983(10)
O2B O 0.2325(19) 0.7069(17) -0.50000
O3B O 0.2814(16) 0.5519(17) -0.4277(15)
O4B O 0.3087(16) 0.3885(15) -0.4282(13)
O5B O 0.4312(17) 0.4048(15) -0.3269(13)
W1C W 0.68254(10) 0.36576(9) -0.50000
W2C W 0.65833(7) 0.52466(7) -0.36343(6)
O1C O 0.7340(14) 0.5347(12) -0.2983(10)
O2C O 0.7675(19) 0.2931(17) -0.50000
O3C O 0.7186(16) 0.4481(17) -0.4277(15)
O4C O 0.6913(16) 0.6115(15) -0.4282(13)
O5C O 0.5688(17) 0.5952(15) -0.3269(13)
W2H W 0.52466(7) 0.34167(7) -0.63657(6)
O1H O 0.5347(14) 0.2660(12) -0.7017(10)
O3H O 0.4481(16) 0.2814(17) -0.5723(15)
O4H O 0.6115(16) 0.3087(15) -0.5718(13)
O5H O 0.5952(17) 0.4312(15) -0.6731(13)
W2I W 0.47534(7) 0.65833(7) -0.63657(6)
O1I O 0.4653(14) 0.7340(12) -0.7017(10)
O3I O 0.5519(16) 0.7186(17) -0.5723(15)
O4I O 0.3885(16) 0.6913(15) -0.5718(13)
O5I O 0.4048(17) 0.5688(15) -0.6731(13)
W2J W 0.65833(7) 0.52466(7) -0.63657(6)
O1J O 0.7340(14) 0.5347(12) -0.7017(10)
O3J O 0.7186(16) 0.4481(17) -0.5723(15)
O4J O 0.6913(16) 0.6115(15) -0.5718(13)
O5J O 0.5688(17) 0.5952(15) -0.6731(13)
W2K W 0.34167(7) 0.47534(7) -0.63657(6)
O1K O 0.2660(14) 0.4653(12) -0.7017(10)
O3K O 0.2814(16) 0.5519(17) -0.5723(15)
O4K O 0.3087(16) 0.3885(15) -0.5718(13)
O5K O 0.4312(17) 0.4048(15) -0.6731(13)
N1L N 0.902(2) 0.837(2) -0.429(2)
N2L N 0.840(2) 0.9006(19) -0.4245(17)
N3L N 0.8122(10) 0.8102(11) -0.3379(8)
C1L C 0.855(2) 0.767(3) -0.2864(18)
H1L H 0.91503 0.76910 -0.28820
C2L C 0.7756(18) 0.7679(18) -0.2784(16)
C3L C 0.792(2) 0.883(2) -0.3712(19)
C4L C 0.8176(10) 0.7207(14) -0.2308(10)
H2L H 0.86914 0.70106 -0.21637
C5L C 0.8834(16) 0.782(2) -0.3771(17)
H3L H 0.91297 0.73102 -0.36807
C6L C 0.717(2) 0.825(2) -0.3247(18)
H4L H 0.68511 0.86182 -0.35427
Cu1A Cu 0.4995(2) 0.3396(2) 0.00000
N1A N 0.402(2) 0.337(2) -0.071(2)
N2A N 0.340(2) 0.4006(19) -0.0755(17)
N3A N 0.3122(10) 0.3102(11) -0.1621(8)
C1A C 0.355(2) 0.267(3) -0.2136(18)
H1A H 0.41503 0.26910 -0.21180
C2A C 0.2756(18) 0.2679(18) -0.2216(16)
C3A C 0.292(2) 0.383(2) -0.1288(19)
C4A C 0.3176(10) 0.2207(14) -0.2692(10)
H2A H 0.36914 0.20106 -0.28363
C5A C 0.3834(16) 0.282(2) -0.1229(17)
H3A H 0.41297 0.23102 -0.13193
C6A C 0.217(2) 0.325(2) -0.1753(18)
H4A H 0.18511 0.36182 -0.14573
N1M N 0.098(2) 0.163(2) -0.429(2)
N2M N 0.160(2) 0.0994(19) -0.4245(17)
N3M N 0.1878(10) 0.1898(11) -0.3379(8)
C1M C 0.145(2) 0.233(3) -0.2864(18)
H1M H 0.08497 0.23090 -0.28820
C2M C 0.2244(18) 0.2321(18) -0.2784(16)
C3M C 0.208(2) 0.117(2) -0.3712(19)
C4M C 0.1824(10) 0.2793(14) -0.2308(10)
H2M H 0.13086 0.29894 -0.21637
C5M C 0.1166(16) 0.218(2) -0.3771(17)
H3M H 0.08703 0.26898 -0.36807
C6M C 0.283(2) 0.175(2) -0.3247(18)
H4M H 0.31489 0.13818 -0.35427
Cu1B Cu 0.3396(2) 0.5005(2) 0.00000
N1B N 0.337(2) 0.598(2) -0.071(2)
N2B N 0.4006(20) 0.6600(19) -0.0755(17)
N3B N 0.3102(10) 0.6878(11) -0.1621(8)
C1B C 0.267(2) 0.645(3) -0.2136(18)
H1B H 0.26910 0.58497 -0.21180
C2B C 0.2679(18) 0.7244(18) -0.2216(16)
C3B C 0.383(2) 0.708(2) -0.1288(19)
C4B C 0.2207(10) 0.6824(14) -0.2692(10)
H2B H 0.20106 0.63086 -0.28363
C5B C 0.2820(16) 0.6166(20) -0.1229(17)
H3B H 0.23102 0.58703 -0.13193
C6B C 0.325(2) 0.783(2) -0.1753(18)
H4B H 0.36182 0.81489 -0.14573
N1N N 0.163(2) 0.902(2) -0.429(2)
N2N N 0.0994(20) 0.8400(19) -0.4245(17)
N3N N 0.1898(10) 0.8122(11) -0.3379(8)
C1N C 0.233(2) 0.855(3) -0.2864(18)
H1N H 0.23090 0.91503 -0.28820
C2N C 0.2321(18) 0.7756(18) -0.2784(16)
C3N C 0.117(2) 0.792(2) -0.3712(19)
C4N C 0.2793(10) 0.8176(14) -0.2308(10)
H2N H 0.29894 0.86914 -0.21637
C5N C 0.2180(16) 0.8834(20) -0.3771(17)
H3N H 0.26898 0.91297 -0.36807
C6N C 0.175(2) 0.717(2) -0.3247(18)
H4N H 0.13818 0.68511 -0.35427
Cu1C Cu 0.6604(2) 0.4995(2) 0.00000
N1C N 0.663(2) 0.402(2) -0.071(2)
N2C N 0.5994(20) 0.3400(19) -0.0755(17)
N3C N 0.6898(10) 0.3122(11) -0.1621(8)
C1C C 0.733(2) 0.355(3) -0.2136(18)
H1C H 0.73090 0.41503 -0.21180
C2C C 0.7321(18) 0.2756(18) -0.2216(16)
C3C C 0.617(2) 0.292(2) -0.1288(19)
C4C C 0.7793(10) 0.3176(14) -0.2692(10)
H2C H 0.79894 0.36914 -0.28363
C5C C 0.7180(16) 0.3834(20) -0.1229(17)
H3C H 0.76898 0.41297 -0.13193
C6C C 0.675(2) 0.217(2) -0.1753(18)
H4C H 0.63818 0.18511 -0.14573
N1O N 0.837(2) 0.098(2) -0.429(2)
N2O N 0.9006(20) 0.1600(19) -0.4245(17)
N3O N 0.8102(10) 0.1878(11) -0.3379(8)
C1O C 0.767(2) 0.145(3) -0.2864(18)
H1O H 0.76910 0.08497 -0.28820
C2O C 0.7679(18) 0.2244(18) -0.2784(16)
C3O C 0.883(2) 0.208(2) -0.3712(19)
C4O C 0.7207(10) 0.1824(14) -0.2308(10)
H2O H 0.70106 0.13086 -0.21637
C5O C 0.7820(16) 0.1166(20) -0.3771(17)
H3O H 0.73102 0.08703 -0.36807
C6O C 0.825(2) 0.283(2) -0.3247(18)
H4O H 0.86182 0.31489 -0.35427
Cu1D Cu 0.0005(2) 0.1604(2) -0.50000
Cu1D* Cu 1.0005(2) 0.1604(2) -0.50000
Cu1E Cu -0.0005(2) 0.8396(2) -0.50000
Cu1E* Cu 0.9995(2) 0.8396(2) -0.50000
Cu1F Cu 0.8396(2) 0.0005(2) -0.50000
Cu1F* Cu 0.8396(2) 1.0005(2) -0.50000
Cu1G Cu 0.1604(2) -0.0005(2) -0.50000
Cu1G* Cu 0.1604(2) 0.9995(2) -0.50000
N1H N 0.402(2) 0.337(2) 0.071(2)
N1I N 0.598(2) 0.663(2) 0.071(2)
N1J N 0.663(2) 0.402(2) 0.071(2)
N1K N 0.337(2) 0.598(2) 0.071(2)
N2H N 0.340(2) 0.4006(19) 0.0755(17)
N2I N 0.660(2) 0.5994(19) 0.0755(17)
N2J N 0.5994(20) 0.3400(19) 0.0755(17)
N2K N 0.4006(20) 0.6600(19) 0.0755(17)
#END
