
#######################################################################
#
#                 Cambridge Crystallographic Data Centre
#                                CCDC
#
#######################################################################
#
# If this CIF has been generated from an entry in the Cambridge
# Structural Database, then it will include bibliographic, chemical,
# crystal, experimental, refinement or atomic coordinate data resulting
# from the CCDC's data processing and validation procedures.
#
#######################################################################

data_CSD_CIF_HETCOB
_audit_creation_date 2018-02-06
_audit_creation_method CSD-ConQuest-V1
_database_code_CSD HETCOB
_database_code_depnum_ccdc_archive 'CCDC 1579606'
_chemical_formula_sum 'C117 H85 Fe9 O45 S12'
_chemical_formula_moiety
;
(C102 H58 Fe6 O32 S12 1-)n,n(C15 H27 Fe3 O13 1+)
;
_journal_coden_Cambridge 1475
_journal_volume 9
_journal_year 2018
_journal_page_first 2413
_journal_name_full 'Chemical Science '
loop_
_publ_author_name
"M.Souto"
"A.Santiago-Portillo"
"M.Palomino"
"I.J.Vitorica-Yrezabal"
"B.J.C.Vieira"
"J.C.Waerenborgh"
"S.Valencia"
"S.Navalon"
"F.Rey"
"H.Garcia"
"G.M.Espallargas"
_chemical_name_systematic
;
catena-((\m-oxo)-hexakis(\m-acetato)-triaqua-tri-iron 
tris(\m-4,4'-{2-[4,5-bis(4-carboxyphenyl)-2H-1,3-dithiol-2-ylidene]-2H-1,3-dit
hiole-4,5-diyl}dibenzoato)-bis(\m-oxo)-tetra-aqua-dihydroxy-hexa-iron unknown 
solvate)
;
_chemical_name_common
;
MUV-2
;
_cell_volume  11902.590
_exptl_crystal_colour 'dark red'
_exptl_crystal_density_diffrn 0.429
_exptl_special_details
;
The authors state that the structure is solved at 1.2 A resolution and should 
not be used for statistical studies
;
_exptl_crystal_description 'needle'
_diffrn_ambient_temperature 100
_diffrn_radiation_probe x-ray
_diffrn_source synchrotron
_diffrn_special_details
;
twin

;
_refine_special_details
;
C10,C11,C8,C9 and C3,C4,C6,C7 disordered over two sites with occupancies 
0.5:0.5; Fe2,Fe3,Fe4,O5 disordered by symmetry over two configurations with 
occupancy 0.0856. The MASK/OLEX2 program was used to model some disordered 
species, including starting material and solvent molecules.
;
#These two values have been output from a single CSD field.
_refine_ls_R_factor_gt 0.0324
_refine_ls_wR_factor_gt 0.0324
_symmetry_cell_setting hexagonal
_symmetry_space_group_name_H-M 'P -6 2 m'
_symmetry_Int_Tables_number 189
loop_
_symmetry_equiv_pos_site_id
_symmetry_equiv_pos_as_xyz
1 x,y,z
2 -y,x-y,z
3 -x+y,-x,z
4 x,y,-z
5 -y,x-y,-z
6 -x+y,-x,-z
7 y,x,-z
8 x-y,-y,-z
9 -x,-x+y,-z
10 y,x,z
11 x-y,-y,z
12 -x,-x+y,z
_cell_length_a 33.298(3)
_cell_length_b 33.298(3)
_cell_length_c 12.3958(7)
_cell_angle_alpha 90
_cell_angle_beta 90
_cell_angle_gamma 120
_cell_formula_units_Z 1
loop_
_atom_type_symbol
_atom_type_radius_bond
C 0.68
H 0.23
Fe 1.52
O 0.68
S 1.02
loop_
_atom_site_label
_atom_site_type_symbol
_atom_site_fract_x
_atom_site_fract_y
_atom_site_fract_z
Fe1 Fe 0.32386(5) 0.71869(5) 0.50000
S1 S 0.05621(6) 0.62406(9) 0.11668(12)
O1 O 0.33330 0.66670 0.50000
O2 O 0.31482(19) 0.7726(2) 0.50000
O3 O 0.24735(16) 0.61947(18) 0.3844(3)
O4 O 0.27451(19) 0.68974(19) 0.3797(4)
C1 C 0.2453(3) 0.6494(3) 0.3504(6)
C2 C 0.0197(2) 0.6065(3) 0.00000
C3 C 0.1057(2) 0.6329(3) 0.0553(5)
C4 C 0.2174(5) 0.6797(5) 0.2068(9)
H1 H 0.24380 0.70990 0.21120
C5 C 0.1826(4) 0.6688(5) 0.1212(9)
H2 H 0.19210 0.68720 0.05760
C6 C 0.1395(5) 0.6013(6) 0.1818(9)
H3 H 0.11290 0.57190 0.16940
C7 C 0.1739(5) 0.6053(5) 0.2576(9)
H4 H 0.17070 0.57910 0.29550
C8 C 0.21222(19) 0.6494(2) 0.2732(4)
C9 C 0.14421(19) 0.6389(3) 0.1273(4)
Fe2 Fe 0.23931(18) 0.84528(18) 0.00000
Fe3 Fe 0.17068(19) 0.8889(2) 0.00000
O5 O 0.2308(5) 0.8972(5) 0.00000
O6 O 0.2619(5) 0.9832(5) 0.1352(11)
Fe4 Fe 0.2825(2) 0.95719(19) 0.00000
O7 O 0.2904(6) 0.8713(6) 0.1295(13)
O8 O 0.1880(6) 0.8011(6) 0.1188(13)
O9 O 0.1326(6) 0.8301(6) 0.1079(13)
C10 C 0.1579(9) 0.8139(10) 0.152(2)
C11 C 0.1323(10) 0.7762(10) 0.239(2)
H5 H 0.10820 0.78070 0.27280
H6 H 0.11790 0.74550 0.20550
H7 H 0.15440 0.77850 0.29430
C12 C 0.3247(9) 0.9083(7) 0.175(2)
O10 O 0.3131(6) 0.9379(6) 0.1327(13)
C13 C 0.356(1) 0.9111(10) 0.234(2)
H8 H 0.37640 0.94360 0.25520
H9 H 0.34240 0.89230 0.29910
H10 H 0.37410 0.89980 0.19560
O11 O 0.1796(6) 0.9394(5) 0.1222(13)
C14 C 0.2190(6) 0.9726(8) 0.165(2)
C15 C 0.2150(7) 1.0108(8) 0.2281(19)
H11 H 0.24540 1.03350 0.25680
H12 H 0.20390 1.02630 0.17930
H13 H 0.19300 0.99660 0.28780
O12 O 0.2462(6) 0.7830(5) 0.00000
C16? C 0.1930(3) 0.6119(3) 0.2029(6)
H14? H 0.20320 0.58980 0.20470
C17? C 0.1974(3) 0.6817(2) 0.2706(6)
H15? H 0.21050 0.70740 0.31860
C18? C 0.1634(3) 0.6765(3) 0.1976(6)
H16? H 0.15320 0.69850 0.19580
C19? C 0.1590(3) 0.6066(2) 0.1299(6)
H17? H 0.14590 0.58100 0.08190
H18? H 0.299(15) 0.777(10) 0.45(2)
H19? H 0.301(15) 0.778(9) 0.55(2)
S1C S 0.05621(6) 0.62406(9) -0.11668(12)
O3C O 0.24735(16) 0.61947(18) -0.3844(3)
O4C O 0.27451(19) 0.68974(19) -0.3797(4)
C1C C 0.2453(3) 0.6494(3) -0.3504(6)
C3C C 0.1057(2) 0.6329(3) -0.0553(5)
C4C C 0.2174(5) 0.6797(5) -0.2068(9)
H1C H 0.24380 0.70990 -0.21120
C5C C 0.1826(4) 0.6688(5) -0.1212(9)
H2C H 0.19210 0.68720 -0.05760
C6C C 0.1395(5) 0.6013(6) -0.1818(9)
H3C H 0.11290 0.57190 -0.16940
C7C C 0.1739(5) 0.6053(5) -0.2576(9)
H4C H 0.17070 0.57910 -0.29550
C8C C 0.21222(19) 0.6494(2) -0.2732(4)
C9C C 0.14421(19) 0.6389(3) -0.1273(4)
S1H S -0.05621(6) 0.56785(9) -0.11668(12)
O3H O -0.24735(16) 0.37212(18) -0.3844(3)
O4H O -0.27451(19) 0.41523(19) -0.3797(4)
C1H C -0.2453(3) 0.4041(3) -0.3504(6)
C2H C -0.0197(2) 0.5868(3) 0.00000
C3H C -0.1057(2) 0.5272(3) -0.0553(5)
C4H C -0.2174(5) 0.4623(5) -0.2068(9)
H1H H -0.24380 0.46610 -0.21120
C5H C -0.1826(4) 0.4862(5) -0.1212(9)
H2H H -0.19210 0.49510 -0.05760
C6H C -0.1395(5) 0.4618(6) -0.1818(9)
H3H H -0.11290 0.45900 -0.16940
C7H C -0.1739(5) 0.4314(5) -0.2576(9)
H4H H -0.17070 0.40840 -0.29550
C8H C -0.21222(19) 0.43718(20) -0.2732(4)
C9H C -0.14421(19) 0.49469(30) -0.1273(4)
S1K S -0.05621(6) 0.56785(9) 0.11668(12)
O3K O -0.24735(16) 0.37212(18) 0.3844(3)
O4K O -0.27451(19) 0.41523(19) 0.3797(4)
C1K C -0.2453(3) 0.4041(3) 0.3504(6)
C3K C -0.1057(2) 0.5272(3) 0.0553(5)
C4K C -0.2174(5) 0.4623(5) 0.2068(9)
H1K H -0.24380 0.46610 0.21120
C5K C -0.1826(4) 0.4862(5) 0.1212(9)
H2K H -0.19210 0.49510 0.05760
C6K C -0.1395(5) 0.4618(6) 0.1818(9)
H3K H -0.11290 0.45900 0.16940
C7K C -0.1739(5) 0.4314(5) 0.2576(9)
H4K H -0.17070 0.40840 0.29550
C8K C -0.21222(19) 0.43718(20) 0.2732(4)
C9K C -0.14421(19) 0.49469(30) 0.1273(4)
Fe1A Fe 0.28131(5) 0.60517(5) 0.50000
S1A S 0.37594(6) 0.43215(9) 0.11668(12)
O2A O 0.22740(19) 0.54222(20) 0.50000
O3A O 0.38053(16) 0.62788(18) 0.3844(3)
O4A O 0.31026(19) 0.58477(19) 0.3797(4)
C1A C 0.3506(3) 0.5959(3) 0.3504(6)
C2A C 0.3935(2) 0.4132(3) 0.00000
C3A C 0.3671(2) 0.4728(3) 0.0553(5)
C4A C 0.3203(5) 0.5377(5) 0.2068(9)
H1A H 0.29010 0.53390 0.21120
C5A C 0.3312(4) 0.5138(5) 0.1212(9)
H2A H 0.31280 0.50490 0.05760
C6A C 0.3987(5) 0.5382(6) 0.1818(9)
H3A H 0.42810 0.54100 0.16940
C7A C 0.3947(5) 0.5686(5) 0.2576(9)
H4A H 0.42090 0.59160 0.29550
C8A C 0.35060(19) 0.56282(20) 0.2732(4)
C9A C 0.36110(19) 0.50531(30) 0.1273(4)
S1D S 0.37594(6) 0.43215(9) -0.11668(12)
O3D O 0.38053(16) 0.62788(18) -0.3844(3)
O4D O 0.31026(19) 0.58477(19) -0.3797(4)
C1D C 0.3506(3) 0.5959(3) -0.3504(6)
C3D C 0.3671(2) 0.4728(3) -0.0553(5)
C4D C 0.3203(5) 0.5377(5) -0.2068(9)
H1D H 0.29010 0.53390 -0.21120
C5D C 0.3312(4) 0.5138(5) -0.1212(9)
H2D H 0.31280 0.50490 -0.05760
C6D C 0.3987(5) 0.5382(6) -0.1818(9)
H3D H 0.42810 0.54100 -0.16940
C7D C 0.3947(5) 0.5686(5) -0.2576(9)
H4D H 0.42090 0.59160 -0.29550
C8D C 0.35060(19) 0.56282(20) -0.2732(4)
C9D C 0.36110(19) 0.50531(30) -0.1273(4)
S1G S 0.43215(6) 0.37594(9) -0.11668(12)
O3G O 0.62788(16) 0.38053(18) -0.3844(3)
O4G O 0.58477(19) 0.31026(19) -0.3797(4)
C1G C 0.5959(3) 0.3506(3) -0.3504(6)
C2G C 0.4132(2) 0.3935(3) 0.00000
C3G C 0.4728(2) 0.3671(3) -0.0553(5)
C4G C 0.5377(5) 0.3203(5) -0.2068(9)
H1G H 0.53390 0.29010 -0.21120
C5G C 0.5138(4) 0.3312(5) -0.1212(9)
H2G H 0.50490 0.31280 -0.05760
C6G C 0.5382(5) 0.3987(6) -0.1818(9)
H3G H 0.54100 0.42810 -0.16940
C7G C 0.5686(5) 0.3947(5) -0.2576(9)
H4G H 0.59160 0.42090 -0.29550
C8G C 0.56282(19) 0.3506(2) -0.2732(4)
C9G C 0.50531(19) 0.3611(3) -0.1273(4)
S1J S 0.43215(6) 0.37594(9) 0.11668(12)
O3J O 0.62788(16) 0.38053(18) 0.3844(3)
O4J O 0.58477(19) 0.31026(19) 0.3797(4)
C1J C 0.5959(3) 0.3506(3) 0.3504(6)
C3J C 0.4728(2) 0.3671(3) 0.0553(5)
C4J C 0.5377(5) 0.3203(5) 0.2068(9)
H1J H 0.53390 0.29010 0.21120
C5J C 0.5138(4) 0.3312(5) 0.1212(9)
H2J H 0.50490 0.31280 0.05760
C6J C 0.5382(5) 0.3987(6) 0.1818(9)
H3J H 0.54100 0.42810 0.16940
C7J C 0.5686(5) 0.3947(5) 0.2576(9)
H4J H 0.59160 0.42090 0.29550
C8J C 0.56282(19) 0.3506(2) 0.2732(4)
C9J C 0.50531(19) 0.3611(3) 0.1273(4)
Fe1B Fe 0.39483(5) 0.67614(5) 0.50000
S1B S 0.56785(6) 0.94379(9) 0.11668(12)
O2B O 0.45778(19) 0.68518(20) 0.50000
O3B O 0.37212(16) 0.75265(18) 0.3844(3)
O4B O 0.41523(19) 0.72549(19) 0.3797(4)
C1B C 0.4041(3) 0.7547(3) 0.3504(6)
C2B C 0.5868(2) 0.9803(3) 0.00000
C3B C 0.5272(2) 0.8943(3) 0.0553(5)
C4B C 0.4623(5) 0.7826(5) 0.2068(9)
H1B H 0.46610 0.75620 0.21120
C5B C 0.4862(4) 0.8174(5) 0.1212(9)
H2B H 0.49510 0.80790 0.05760
C6B C 0.4618(5) 0.8605(6) 0.1818(9)
H3B H 0.45900 0.88710 0.16940
C7B C 0.4314(5) 0.8261(5) 0.2576(9)
H4B H 0.40840 0.82930 0.29550
C8B C 0.43718(19) 0.78778(20) 0.2732(4)
C9B C 0.49469(19) 0.85579(30) 0.1273(4)
S1E S 0.56785(6) 0.94379(9) -0.11668(12)
O3E O 0.37212(16) 0.75265(18) -0.3844(3)
O4E O 0.41523(19) 0.72549(19) -0.3797(4)
C1E C 0.4041(3) 0.7547(3) -0.3504(6)
C3E C 0.5272(2) 0.8943(3) -0.0553(5)
C4E C 0.4623(5) 0.7826(5) -0.2068(9)
H1E H 0.46610 0.75620 -0.21120
C5E C 0.4862(4) 0.8174(5) -0.1212(9)
H2E H 0.49510 0.80790 -0.05760
C6E C 0.4618(5) 0.8605(6) -0.1818(9)
H3E H 0.45900 0.88710 -0.16940
C7E C 0.4314(5) 0.8261(5) -0.2576(9)
H4E H 0.40840 0.82930 -0.29550
C8E C 0.43718(19) 0.78778(20) -0.2732(4)
C9E C 0.49469(19) 0.85579(30) -0.1273(4)
S1F S 0.62406(6) 1.05621(9) -0.11668(12)
O3F O 0.61947(16) 1.24735(18) -0.3844(3)
O4F O 0.68974(19) 1.27451(19) -0.3797(4)
C1F C 0.6494(3) 1.2453(3) -0.3504(6)
C2F C 0.6065(2) 1.0197(3) 0.00000
C3F C 0.6329(2) 1.1057(3) -0.0553(5)
C4F C 0.6797(5) 1.2174(5) -0.2068(9)
H1F H 0.70990 1.24380 -0.21120
C5F C 0.6688(4) 1.1826(5) -0.1212(9)
H2F H 0.68720 1.19210 -0.05760
C6F C 0.6013(5) 1.1395(6) -0.1818(9)
H3F H 0.57190 1.11290 -0.16940
C7F C 0.6053(5) 1.1739(5) -0.2576(9)
H4F H 0.57910 1.17070 -0.29550
C8F C 0.64940(19) 1.21222(20) -0.2732(4)
C9F C 0.63890(19) 1.14421(30) -0.1273(4)
S1I S 0.62406(6) 1.05621(9) 0.11668(12)
O3I O 0.61947(16) 1.24735(18) 0.3844(3)
O4I O 0.68974(19) 1.27451(19) 0.3797(4)
C1I C 0.6494(3) 1.2453(3) 0.3504(6)
C3I C 0.6329(2) 1.1057(3) 0.0553(5)
C4I C 0.6797(5) 1.2174(5) 0.2068(9)
H1I H 0.70990 1.24380 0.21120
C5I C 0.6688(4) 1.1826(5) 0.1212(9)
H2I H 0.68720 1.19210 0.05760
C6I C 0.6013(5) 1.1395(6) 0.1818(9)
H3I H 0.57190 1.11290 0.16940
C7I C 0.6053(5) 1.1739(5) 0.2576(9)
H4I H 0.57910 1.17070 0.29550
C8I C 0.64940(19) 1.21222(20) 0.2732(4)
C9I C 0.63890(19) 1.14421(30) 0.1273(4)
Fe1* Fe 0.32386(5) 0.71869(5) -0.50000
O1* O 0.33330 0.66670 -0.50000
O2* O 0.31482(19) 0.7726(2) -0.50000
Fe1A* Fe 0.28131(5) 0.60517(5) -0.50000
O2A* O 0.22740(19) 0.54222(20) -0.50000
Fe1B* Fe 0.39483(5) 0.67614(5) -0.50000
O2B* O 0.45778(19) 0.68518(20) -0.50000
Fe1F Fe -0.28131(5) 0.32386(5) -0.50000
Fe1F* Fe -0.28131(5) 0.32386(5) 0.50000
Fe1F** Fe 0.71869(5) 1.32386(5) -0.50000
Fe1F*** Fe 0.71869(5) 1.32386(5) 0.50000
Fe1G Fe 0.60517(5) 0.28131(5) -0.50000
Fe1G* Fe 0.60517(5) 0.28131(5) 0.50000
Fe1G** Fe 0.60517(5) 1.28131(5) -0.50000
Fe1G*** Fe 0.60517(5) 1.28131(5) 0.50000
Fe1H Fe -0.32386(5) 0.39483(5) -0.50000
Fe1H* Fe -0.32386(5) 0.39483(5) 0.50000
Fe1H** Fe 0.67614(5) 0.39483(5) -0.50000
Fe1H*** Fe 0.67614(5) 0.39483(5) 0.50000
O3* O 0.24735(16) 0.61947(18) -0.6156(3)
O3A* O 0.38053(16) 0.62788(18) -0.6156(3)
O3B* O 0.37212(16) 0.75265(18) -0.6156(3)
O3C* O 0.24735(16) 0.61947(18) 0.6156(3)
O3D* O 0.38053(16) 0.62788(18) 0.6156(3)
O3E* O 0.37212(16) 0.75265(18) 0.6156(3)
O4* O 0.27451(19) 0.68974(19) -0.6203(4)
O4A* O 0.31026(19) 0.58477(19) -0.6203(4)
O4B* O 0.41523(19) 0.72549(19) -0.6203(4)
O4C* O 0.27451(19) 0.68974(19) 0.6203(4)
O4D* O 0.31026(19) 0.58477(19) 0.6203(4)
O4E* O 0.41523(19) 0.72549(19) 0.6203(4)
O6J O 0.2787(5) 1.0168(5) 0.1352(11)
O11J O 0.2402(6) 1.0606(5) 0.1222(13)
C14J C 0.2464(6) 1.0274(8) 0.165(2)
C15J C 0.2042(7) 0.9892(8) 0.2281(19)
H11J H 0.21190 0.96650 0.25680
H12J H 0.17760 0.97370 0.17930
H13J H 0.19640 1.00340 0.28780
O6C O 0.2619(5) 0.9832(5) -0.1352(11)
O7C O 0.2904(6) 0.8713(6) -0.1295(13)
O8C O 0.1880(6) 0.8011(6) -0.1188(13)
O9C O 0.1326(6) 0.8301(6) -0.1079(13)
C10C C 0.1579(9) 0.8139(10) -0.152(2)
C11C C 0.1323(10) 0.7762(10) -0.239(2)
H5C H 0.10820 0.78070 -0.27280
H6C H 0.11790 0.74550 -0.20550
H7C H 0.15440 0.77850 -0.29430
C12C C 0.3247(9) 0.9083(7) -0.175(2)
O10C O 0.3131(6) 0.9379(6) -0.1327(13)
C13C C 0.356(1) 0.9111(10) -0.234(2)
H8C H 0.37640 0.94360 -0.25520
H9C H 0.34240 0.89230 -0.29910
H10C H 0.37410 0.89980 -0.19560
O11C O 0.1796(6) 0.9394(5) -0.1222(13)
C14C C 0.2190(6) 0.9726(8) -0.165(2)
C15C C 0.2150(7) 1.0108(8) -0.2281(19)
H11C H 0.24540 1.03350 -0.25680
H12C H 0.20390 1.02630 -0.17930
H13C H 0.19300 0.99660 -0.28780
O6G O 0.2787(5) 1.0168(5) -0.1352(11)
O11G O 0.2402(6) 1.0606(5) -0.1222(13)
C14G C 0.2464(6) 1.0274(8) -0.165(2)
C15G C 0.2042(7) 0.9892(8) -0.2281(19)
H11G H 0.21190 0.96650 -0.25680
H12G H 0.17760 0.97370 -0.17930
H13G H 0.19640 1.00340 -0.28780
Fe2G Fe 0.39403(18) 1.15472(18) 0.00000
Fe3G Fe 0.28178(19) 1.1111(2) 0.00000
O5G O 0.3336(5) 1.1028(5) 0.00000
Fe4G Fe 0.32531(20) 1.04281(19) 0.00000
O7G O 0.4191(6) 1.1287(6) -0.1295(13)
O8G O 0.3869(6) 1.1989(6) -0.1188(13)
O9G O 0.3025(6) 1.1699(6) -0.1079(13)
C10G C 0.3440(9) 1.1861(10) -0.152(2)
C11G C 0.3561(10) 1.2238(10) -0.239(2)
H5G H 0.32750 1.21930 -0.27280
H6G H 0.37240 1.25450 -0.20550
H7G H 0.37590 1.22150 -0.29430
C12G C 0.4164(9) 1.0917(7) -0.175(2)
O10G O 0.3752(6) 1.0621(6) -0.1327(13)
C13G C 0.4449(10) 1.0889(10) -0.234(2)
H8G H 0.43280 1.05640 -0.25520
H9G H 0.45010 1.10770 -0.29910
H10G H 0.47430 1.10020 -0.19560
O12G O 0.4632(6) 1.2170(5) 0.00000
O7J O 0.4191(6) 1.1287(6) 0.1295(13)
O8J O 0.3869(6) 1.1989(6) 0.1188(13)
O9J O 0.3025(6) 1.1699(6) 0.1079(13)
C10J C 0.3440(9) 1.1861(10) 0.152(2)
C11J C 0.3561(10) 1.2238(10) 0.239(2)
H5J H 0.32750 1.21930 0.27280
H6J H 0.37240 1.25450 0.20550
H7J H 0.37590 1.22150 0.29430
C12J C 0.4164(9) 1.0917(7) 0.175(2)
O10J O 0.3752(6) 1.0621(6) 0.1327(13)
C13J C 0.4449(10) 1.0889(10) 0.234(2)
H8J H 0.43280 1.05640 0.25520
H9J H 0.45010 1.10770 0.29910
H10J H 0.47430 1.10020 0.19560
#END
