
#######################################################################
#
#                 Cambridge Crystallographic Data Centre
#                                CCDC
#
#######################################################################
#
# If this CIF has been generated from an entry in the Cambridge
# Structural Database, then it will include bibliographic, chemical,
# crystal, experimental, refinement or atomic coordinate data resulting
# from the CCDC's data processing and validation procedures.
#
#######################################################################

data_CSD_CIF_HEWCIV
_audit_creation_date 1995-09-14
_audit_creation_method CSD-ConQuest-V1
_database_code_CSD HEWCIV
_chemical_formula_sum 'C28 H38 N2 O16 P4 V3'
_chemical_formula_moiety
;
(C24 H22 O16 P4 V3 2-)n,2n(C2 H8 N1 1+)
;
_journal_coden_Cambridge 9
_journal_volume 33
_journal_year 1994
_journal_page_first 3855
_journal_name_full 'Inorg.Chem. '
loop_
_publ_author_name
"M.I.Khan"
"Young-Sook Lee"
"C.J.O'Connor"
"R.C.Haushalter"
"J.Zubieta"
_chemical_name_systematic
;
catena-(bis(Ethylammonium) 
(\m~2~-oxo)-tetrakis(\m~2~-phenylphosphonato)-aqua-tri-vanadium)
;
_cell_volume   1871.029
_exptl_crystal_colour 'light green'
_exptl_crystal_density_diffrn 1.657
_diffrn_ambient_temperature 213
_refine_special_details
;
Vanadium atoms are disordered.

;
#These two values have been output from a single CSD field.
_refine_ls_R_factor_gt 0.0702
_refine_ls_wR_factor_gt 0.0702
_symmetry_cell_setting monoclinic
_symmetry_space_group_name_H-M 'P 21/c'
_symmetry_Int_Tables_number 14
loop_
_symmetry_equiv_pos_site_id
_symmetry_equiv_pos_as_xyz
1 x,y,z
2 -x,1/2+y,1/2-z
3 -x,-y,-z
4 x,-1/2-y,-1/2+z
_cell_length_a 14.708(3)
_cell_length_b 12.406(2)
_cell_length_c 10.275(2)
_cell_angle_alpha 90
_cell_angle_beta 93.66(2)
_cell_angle_gamma 90
_cell_formula_units_Z 2
loop_
_atom_type_symbol
_atom_type_radius_bond
C 0.68
H 0.23
N 0.68
O 0.68
P 1.05
V 1.33
loop_
_atom_site_label
_atom_site_type_symbol
_atom_site_fract_x
_atom_site_fract_y
_atom_site_fract_z
V1 V -0.0368(3) 0.2086(3) 0.1088(4)
V2? V 0.0303(3) 0.7414(3) -0.1174(4)
V3? V 0.0013(5) 0.5138(6) -0.0193(5)
P1 P -0.1464(1) 0.3242(2) -0.1318(2)
P2 P 0.0982(1) 0.2023(2) 0.3786(2)
O1 O -0.0148(4) 0.3897(5) 0.1252(5)
O2 O -0.0507(7) 0.0791(9) 0.0991(10)
O3 O -0.1400(3) 0.2562(5) -0.0079(5)
O4 O -0.0953(4) 0.4314(5) -0.1176(5)
O5 O -0.1183(4) 0.2404(5) 0.2515(5)
O6 O 0.0700(4) 0.2102(5) 0.2352(5)
O7 O 0.0985(3) 0.0853(5) 0.4242(5)
O8 O 0.0437(4) 0.2250(5) -0.0389(5)
C1 C -0.2661(6) 0.3511(8) -0.1637(9)
C2 C -0.3085(7) 0.3257(9) -0.2877(10)
C3 C -0.4023(8) 0.3395(12) -0.3075(15)
C4 C -0.4522(8) 0.3763(12) -0.2111(16)
C5 C -0.4121(8) 0.4023(13) -0.0896(15)
C6 C -0.3177(7) 0.3896(9) -0.069(1)
C7 C 0.2136(5) 0.2506(7) 0.3919(8)
C8 C 0.2785(6) 0.2014(9) 0.4799(9)
C9 C 0.3661(7) 0.2424(10) 0.4932(11)
C10 C 0.3905(7) 0.3263(11) 0.4211(12)
C11 C 0.3274(7) 0.3782(9) 0.3320(11)
C12 C 0.2399(6) 0.3358(9) 0.3204(10)
N1 N 0.1270(6) 0.5310(7) 0.6711(9)
C13 C 0.2071(9) 0.4926(13) 0.6133(14)
C14 C 0.2937(14) 0.5207(19) 0.6857(21)
H1 H -0.27330 0.29950 -0.35660
H2 H -0.43200 0.32280 -0.39100
H3 H -0.51680 0.38450 -0.22700
H4 H -0.44800 0.42840 -0.02140
H5 H -0.28860 0.40840 0.01420
H6 H 0.26210 0.14010 0.53030
H7 H 0.41000 0.21040 0.55480
H8 H 0.45220 0.35180 0.42990
H9 H 0.34430 0.43960 0.28220
H10 H 0.19600 0.36810 0.25910
H11 H 0.07390 0.50980 0.61810
H12 H 0.12910 0.60820 0.67720
H13 H 0.12430 0.50080 0.75680
H14 H 0.20330 0.41550 0.60710
H15 H 0.20810 0.52300 0.52750
H16 H 0.34380 0.49230 0.64090
H17 H 0.29450 0.49020 0.77160
H18 H 0.29920 0.59760 0.69200
O5C O -0.1183(4) 0.2596(5) -0.2485(5)
P1C P -0.1464(1) 0.1758(2) 0.3682(2)
O8C O 0.0437(4) 0.2750(5) 0.4611(5)
P2C P 0.0982(1) 0.2977(2) -0.1214(2)
V1C V -0.0368(3) 0.2914(3) -0.3912(4)
O3C O -0.1400(3) 0.2438(5) 0.4921(5)
O4C O -0.0953(4) 0.0686(5) 0.3824(5)
C1C C -0.2661(6) 0.1489(8) 0.3363(9)
V1C* V -0.0368(3) 0.2914(3) 0.6088(4)
O6C O 0.0700(4) 0.2898(5) -0.2648(5)
O7C O 0.0985(3) 0.4147(5) -0.0758(5)
C7C C 0.2136(5) 0.2494(7) -0.1081(8)
O1C O -0.0148(4) 0.1103(5) -0.3748(5)
O2C O -0.0507(7) 0.4209(9) -0.4009(10)
O3C* O -0.1400(3) 0.2438(5) -0.5079(5)
O8C* O 0.0437(4) 0.2750(5) -0.5389(5)
C2C C -0.3085(7) 0.1743(9) 0.2123(10)
C6C C -0.3177(7) 0.1104(9) 0.431(1)
C8C C 0.2785(6) 0.2986(9) -0.0201(9)
C12C C 0.2399(6) 0.1642(9) -0.1796(10)
C3C C -0.4023(8) 0.1605(12) 0.1925(15)
H1C H -0.27330 0.20050 0.14340
C5C C -0.4121(8) 0.0977(13) 0.4104(15)
H5C H -0.28860 0.09160 0.51420
C9C C 0.3661(7) 0.2576(10) -0.0068(11)
H6C H 0.26210 0.35990 0.03030
C11C C 0.3274(7) 0.1218(9) -0.1680(11)
H10C H 0.19600 0.13190 -0.24090
C4C C -0.4522(8) 0.1237(12) 0.2889(16)
H2C H -0.43200 0.17720 0.10900
H4C H -0.44800 0.07160 0.47860
C10C C 0.3905(7) 0.1737(11) -0.0789(12)
H7C H 0.41000 0.28960 0.05480
H9C H 0.34430 0.06040 -0.21780
H3C H -0.51680 0.11550 0.27300
H8C H 0.45220 0.14820 -0.07010
#END
