
#######################################################################
#
#                 Cambridge Crystallographic Data Centre
#                                CCDC
#
#######################################################################
#
# If this CIF has been generated from an entry in the Cambridge
# Structural Database, then it will include bibliographic, chemical,
# crystal, experimental, refinement or atomic coordinate data resulting
# from the CCDC's data processing and validation procedures.
#
#######################################################################

data_CSD_CIF_HEWPIJ
_audit_creation_date 2007-04-19
_audit_creation_method CSD-ConQuest-V1
_database_code_CSD HEWPIJ
_database_code_depnum_ccdc_archive 'CCDC 636651'
_chemical_formula_sum 'C4 H9 N1 O6 Zn1'
_chemical_formula_moiety
;
(C1 H6 N1 1+)n,n(C3 H3 O6 Zn1 1-)
;
_journal_coeditor_code "IUCr HB2247"
_journal_coden_Cambridge 1370
_journal_volume 63
_journal_year 2007
_journal_page_first m411
_journal_name_full 'Acta Crystallogr.,Sect.E:Struct.Rep.Online '
loop_
_publ_author_name
"Chun-Xiang Wang"
"Xiao-Mei Zhou"
"Wen-Yuan Shi"
_chemical_name_systematic
;
catena-(Methylammonium tris(\m~2~-formato-O,O')-zinc(ii))
;
_cell_volume    799.901
_exptl_crystal_colour 'red'
_exptl_crystal_density_diffrn 1.914
_exptl_special_details
;
isostructural with the cobalt analogue

;
_exptl_crystal_description 'block'
_diffrn_ambient_temperature 296
#These two values have been output from a single CSD field.
_refine_ls_R_factor_gt 0.0504
_refine_ls_wR_factor_gt 0.0504
_symmetry_cell_setting orthorhombic
_symmetry_space_group_name_H-M 'P n m a'
_symmetry_Int_Tables_number 62
loop_
_symmetry_equiv_pos_site_id
_symmetry_equiv_pos_as_xyz
1 x,y,z
2 1/2-x,-y,1/2+z
3 -x,1/2+y,-z
4 1/2+x,1/2-y,1/2-z
5 -x,-y,-z
6 -1/2+x,y,-1/2-z
7 x,-1/2-y,z
8 -1/2-x,-1/2+y,-1/2+z
_cell_length_a 8.4127(8)
_cell_length_b 11.727(1)
_cell_length_c 8.1080(8)
_cell_angle_alpha 90
_cell_angle_beta 90
_cell_angle_gamma 90
_cell_formula_units_Z 4
loop_
_atom_type_symbol
_atom_type_radius_bond
C 0.68
H 0.23
N 0.68
O 0.68
Zn 1.45
loop_
_atom_site_label
_atom_site_type_symbol
_atom_site_fract_x
_atom_site_fract_y
_atom_site_fract_z
Zn1 Zn 0.00000 0.50000 0.00000
O1 O 0.09777(16) 0.43221(12) 0.21644(18)
O2 O -0.0282(2) 0.65592(13) 0.1257(2)
C1 C -0.0125(3) 0.75000 0.0563(5)
H1 H 0.01360 0.75000 -0.06020
C2 C 0.2213(3) 0.4709(2) 0.2801(3)
H2 H 0.27880 0.52930 0.22000
O3 O 0.27648(17) 0.43950(11) 0.41670(16)
N1 N 0.5847(6) 0.25000 0.9729(4)
H3 H 0.63660 0.18630 0.99830
H4 H 0.59340 0.25000 0.86350
C3 C 0.4193(9) 0.25000 1.0210(6)
H5 H 0.36850 0.18370 0.97570
H6 H 0.41260 0.25000 1.13920
Zn1E Zn 0.50000 0.50000 0.50000
Zn1F Zn 0.00000 1.00000 0.00000
Zn1E* Zn -0.50000 0.50000 -0.50000
O1D O -0.09777(16) 0.56779(12) -0.21644(18)
O2F O -0.0282(2) 0.84408(13) 0.1257(2)
O2D O 0.0282(2) 0.34408(13) -0.1257(2)
C2D C -0.2213(3) 0.5291(2) -0.2801(3)
H2D H -0.27880 0.47070 -0.22000
O3D O -0.27648(17) 0.56050(11) -0.41670(16)
O3E O -0.22352(17) 0.43950(11) 0.08330(16)
O3A O 0.22352(17) 0.56050(11) -0.08330(16)
H3F H 0.63660 0.31370 0.99830
H5F H 0.36850 0.31630 0.97570
#END
