
#######################################################################
#
#                 Cambridge Crystallographic Data Centre
#                                CCDC
#
#######################################################################
#
# If this CIF has been generated from an entry in the Cambridge
# Structural Database, then it will include bibliographic, chemical,
# crystal, experimental, refinement or atomic coordinate data resulting
# from the CCDC's data processing and validation procedures.
#
#######################################################################

data_CSD_CIF_HEWPIJ01
_audit_creation_date 2012-10-16
_audit_creation_method CSD-ConQuest-V1
_database_code_CSD HEWPIJ01
_database_code_depnum_ccdc_archive 'CCDC 864679'
_chemical_formula_sum 'C4 H9 N1 O6 Zn1'
_chemical_formula_moiety
;
(C1 H6 N1 1+)n,n(C3 H3 O6 Zn1 1-)
;
_journal_coden_Cambridge 920
_journal_volume 7
_journal_year 2012
_journal_page_first 1697
_journal_name_full 'Chem.Asian J. '
loop_
_publ_author_name
"Ran Shang"
"Xuan Sun"
"Zhe-Ming Wang"
"Song Gao"
_chemical_name_systematic
;
catena-[Methylammonium tris(\m~2~-formato-O,O')-zinc(ii)]
;
_cell_volume    797.573
_exptl_crystal_colour 'colorless'
_exptl_crystal_density_diffrn 1.936
_exptl_crystal_description 'block'
_diffrn_ambient_temperature 290
#These two values have been output from a single CSD field.
_refine_ls_R_factor_gt 0.0224
_refine_ls_wR_factor_gt 0.0224
_symmetry_cell_setting orthorhombic
_symmetry_space_group_name_H-M 'P n m a'
_symmetry_Int_Tables_number 62
loop_
_symmetry_equiv_pos_site_id
_symmetry_equiv_pos_as_xyz
1 x,y,z
2 1/2-x,-y,1/2+z
3 -x,1/2+y,-z
4 1/2+x,1/2-y,1/2-z
5 -x,-y,-z
6 -1/2+x,y,-1/2-z
7 x,-1/2-y,z
8 -1/2-x,-1/2+y,-1/2+z
_cell_length_a 8.4140(2)
_cell_length_b 11.7084(4)
_cell_length_c 8.0960(2)
_cell_angle_alpha 90
_cell_angle_beta 90
_cell_angle_gamma 90
_cell_formula_units_Z 4
loop_
_atom_type_symbol
_atom_type_radius_bond
C 0.68
H 0.23
N 0.68
O 0.68
Zn 1.22
loop_
_atom_site_label
_atom_site_type_symbol
_atom_site_fract_x
_atom_site_fract_y
_atom_site_fract_z
Zn1 Zn 0.00000 0.50000 0.00000
O1 O 0.09820(12) 0.56848(9) 0.21629(13)
O2 O 0.27632(12) 0.56053(10) 0.41714(12)
O3 O -0.02935(13) 0.34412(9) 0.12606(13)
C1 C 0.2204(2) 0.52950(15) 0.2805(2)
H1 H 0.27490 0.47290 0.22310
C2 C -0.0138(2) 0.25000 0.0562(3)
H2 H 0.01110 0.25000 -0.05570
C3 C -0.0825(4) 0.75000 0.4780(4)
N1 N 0.0847(3) 0.75000 0.5279(3)
H3 H 0.086(4) 0.75000 0.637(2)
H4 H 0.132(3) 0.6878(8) 0.490(2)
H5 H -0.083(4) 0.75000 0.361(2)
H6 H -0.130(3) 0.6838(8) 0.523(2)
Zn1A Zn 0.50000 0.50000 0.50000
Zn1B Zn 0.00000 0.00000 0.00000
Zn1A* Zn -0.50000 0.50000 -0.50000
O1D O -0.09820(12) 0.43152(9) -0.21629(13)
O2D O -0.27632(12) 0.43947(10) -0.41714(12)
O2A O 0.22368(12) 0.43947(10) -0.08286(12)
O2E O -0.22368(12) 0.56053(10) 0.08286(12)
O3F O -0.02935(13) 0.15588(9) 0.12606(13)
O3D O 0.02935(13) 0.65588(9) -0.12606(13)
C1D C -0.2204(2) 0.47050(15) -0.2805(2)
H1D H -0.27490 0.52710 -0.22310
H4F H 0.132(3) 0.8122(8) 0.490(2)
H6F H -0.130(3) 0.8162(8) 0.523(2)
#END
