
#######################################################################
#
#                 Cambridge Crystallographic Data Centre
#                                CCDC
#
#######################################################################
#
# If this CIF has been generated from an entry in the Cambridge
# Structural Database, then it will include bibliographic, chemical,
# crystal, experimental, refinement or atomic coordinate data resulting
# from the CCDC's data processing and validation procedures.
#
#######################################################################

data_CSD_CIF_HEXQIL
_audit_creation_date 2007-04-19
_audit_creation_method CSD-ConQuest-V1
_database_code_CSD HEXQIL
_database_code_depnum_ccdc_archive 'CCDC 638692'
_chemical_formula_sum 'C108 H96 Cl12 Fe1 Mn6 N24 Nb6 O17'
_chemical_formula_moiety
;
(C108 H84 Cl12 Fe1 Mn6 N24 Nb6 O12 2-)n,3n(H2 O1),2n(H3 O1 1+)
;
_journal_coden_Cambridge 4
_journal_volume 129
_journal_year 2007
_journal_page_first 250
_journal_name_full 'J.Am.Chem.Soc. '
loop_
_publ_author_name
"Jianjun Zhang"
"A.Lachgar"
_chemical_name_systematic
;
catena-(bis(oxonium) 
dodecakis(\m~2~-chloro)-dodecakis(\m~2~-cyano)-hexakis(2,2'-(ethane-1,2-diylbi
s(azanylylidenemethanylylidene))diphenolato)-iron-hexa-manganese(iii)-hexa-nio
bium trihydrate)
;
_cell_volume   9771.826
_exptl_crystal_colour 'black'
_exptl_crystal_density_diffrn 1.718
_exptl_crystal_description 'block'
_diffrn_ambient_temperature 193
_refine_special_details
;
Some of the water molecules are disordered.

;
#These two values have been output from a single CSD field.
_refine_ls_R_factor_gt 0.0528
_refine_ls_wR_factor_gt 0.0528
_symmetry_cell_setting rhombohedral
_symmetry_space_group_name_H-M 'R -3'
_symmetry_Int_Tables_number 148
loop_
_symmetry_equiv_pos_site_id
_symmetry_equiv_pos_as_xyz
1 x,y,z
2 -y,x-y,z
3 -x+y,-x,z
4 2/3+x,1/3+y,1/3+z
5 2/3-y,1/3+x-y,1/3+z
6 2/3-x+y,1/3-x,1/3+z
7 1/3+x,2/3+y,2/3+z
8 1/3-y,2/3+x-y,2/3+z
9 1/3-x+y,2/3-x,2/3+z
10 -x,-y,-z
11 y,-x+y,-z
12 x-y,x,-z
13 -2/3-x,-1/3-y,-1/3-z
14 -2/3+y,-1/3-x+y,-1/3-z
15 -2/3+x-y,-1/3+x,-1/3-z
16 -1/3-x,-2/3-y,-2/3-z
17 -1/3+y,-2/3-x+y,-2/3-z
18 -1/3+x-y,-2/3+x,-2/3-z
_cell_length_a 16.3466(18)
_cell_length_b 16.3466(18)
_cell_length_c 42.227(9)
_cell_angle_alpha 90
_cell_angle_beta 90
_cell_angle_gamma 120
_cell_formula_units_Z 3
loop_
_atom_type_symbol
_atom_type_radius_bond
C 0.68
H 0.23
Cl 0.99
Fe 1.34
Mn 1.35
N 0.68
Nb 1.28
O 0.68
loop_
_atom_site_label
_atom_site_type_symbol
_atom_site_fract_x
_atom_site_fract_y
_atom_site_fract_z
Cl1 Cl 0.44873(8) -0.34508(7) 0.23318(3)
Cl2 Cl 0.57650(7) -0.22747(7) 0.16630(3)
O1 O 0.7442(3) 0.0323(3) 0.29864(10)
O2 O 0.7975(3) 0.1305(3) 0.2428(1)
N1 N 0.5720(3) 0.0271(3) 0.29421(10)
N2 N 0.6182(3) 0.1090(3) 0.23846(10)
N3 N 0.6192(3) -0.0671(3) 0.24092(10)
N4 N 0.7325(3) 0.2172(3) 0.29420(11)
C1 C 0.7075(4) -0.0159(4) 0.32511(14)
C2 C 0.7617(5) -0.0465(5) 0.34230(16)
H1 H 0.82090 -0.03450 0.33410
C3 C 0.7307(7) -0.0923(5) 0.36997(18)
H2 H 0.76760 -0.11370 0.38070
C4 C 0.6452(8) -0.1093(6) 0.38351(19)
H3 H 0.62500 -0.13930 0.40350
C5 C 0.5929(6) -0.0814(5) 0.36694(16)
H4 H 0.53440 -0.09330 0.37570
C6 C 0.6199(5) -0.0358(4) 0.33756(14)
C7 C 0.5575(4) -0.0114(4) 0.32140(13)
H5 H 0.50060 -0.02530 0.33190
C8 C 0.5046(4) 0.0539(4) 0.28133(13)
H6 H 0.51730 0.11490 0.29050
H7 H 0.43920 0.00520 0.28680
Fe1 Fe 0.66670 0.33330 0.33330
Mn1 Mn 0.68895(5) 0.07403(5) 0.268572(19)
C9 C 0.5161(4) 0.0626(4) 0.24614(13)
H8 H 0.48220 -0.00080 0.23630
H9 H 0.48910 0.10060 0.23770
C10 C 0.6526(4) 0.1625(4) 0.21438(13)
H10 H 0.61090 0.17400 0.20210
C11 C 0.7495(5) 0.2068(4) 0.20432(15)
C12 C 0.7761(6) 0.2663(5) 0.17756(17)
H11 H 0.72930 0.27490 0.16720
C13 C 0.8647(7) 0.3113(6) 0.1660(2)
H12 H 0.88080 0.35160 0.14810
C14 C 0.9330(6) 0.2968(5) 0.1815(2)
H13 H 0.99610 0.32800 0.17380
C15 C 0.9103(5) 0.2392(5) 0.20687(19)
H14 H 0.95820 0.23160 0.21680
C16 C 0.8174(4) 0.1900(4) 0.21923(16)
C17 C 0.5608(3) -0.1257(3) 0.22577(11)
C18 C 0.7092(3) 0.2628(3) 0.30799(11)
O3 O 0.00000 0.00000 0.3549(10)
O4 O 0.00000 0.00000 0.2208(9)
O5? O 0.00000 0.00000 0.3181(10)
O6? O 0.879(3) -0.007(3) 0.2416(11)
O7 O 0.893(3) 0.013(3) 0.2582(10)
Nb1 Nb 0.44192(2) -0.23475(2) 0.195035(9)
Cl1A Cl 0.34508(8) -0.20619(7) 0.23318(3)
Cl1B Cl 0.20619(8) -0.44873(7) 0.23318(3)
Cl1P Cl 0.321587(80) -0.460477(70) 0.100153(30)
Cl1Q Cl 0.460477(80) -0.217937(70) 0.100153(30)
Cl1O Cl 0.217937(80) -0.321587(70) 0.100153(30)
Cl2Q Cl 0.470637(70) -0.090167(70) 0.167033(30)
Cl2B Cl 0.19603(7) -0.57650(7) 0.16630(3)
Cl2P Cl 0.439197(70) -0.470637(70) 0.167033(30)
Cl2A Cl 0.22747(7) -0.19603(7) 0.16630(3)
Cl2O Cl 0.090167(70) -0.439197(70) 0.167033(30)
O1N O 1.045233(300) 0.410867(300) 0.368027(100)
O1A O 0.9677(3) 0.7119(3) 0.29864(10)
O1L O 0.589133(300) 0.634367(300) 0.368027(100)
O1B O 0.2881(3) 0.2558(3) 0.29864(10)
O1M O 0.365633(300) -0.045233(300) 0.368027(100)
O2N O 1.000333(300) 0.464167(300) 0.423867(100)
O2A O 0.8695(3) 0.6670(3) 0.2428(1)
O2L O 0.535833(300) 0.536167(300) 0.423867(100)
O2B O 0.3330(3) 0.2025(3) 0.2428(1)
O2M O 0.463833(300) -0.000333(300) 0.423867(100)
N1N N 0.878233(300) 0.238667(300) 0.372457(100)
N1A N 0.9729(3) 0.5449(3) 0.29421(10)
N1L N 0.761333(300) 0.639567(300) 0.372457(100)
N1B N 0.4551(3) 0.4280(3) 0.29421(10)
N1M N 0.360433(300) 0.121767(300) 0.372457(100)
N2N N 0.842533(300) 0.284867(300) 0.428207(100)
N2A N 0.8910(3) 0.5092(3) 0.23846(10)
N2L N 0.715133(300) 0.557667(300) 0.428207(100)
N2B N 0.4908(3) 0.3818(3) 0.23846(10)
N2M N 0.442333(300) 0.157467(300) 0.428207(100)
N3N N 1.019633(300) 0.285867(300) 0.425747(100)
N3A N 1.0671(3) 0.6863(3) 0.24092(10)
N3L N 0.714133(300) 0.733767(300) 0.425747(100)
N3B N 0.3137(3) 0.3808(3) 0.24092(10)
N3M N 0.266233(300) -0.019633(300) 0.425747(100)
N4A N 0.7828(3) 0.5153(3) 0.29420(11)
N4B N 0.4847(3) 0.2675(3) 0.29420(11)
N4L N 0.600833(300) 0.449467(300) 0.372467(110)
N4M N 0.550533(300) 0.151367(300) 0.372467(110)
N4N N 0.848633(300) 0.399167(300) 0.372467(110)
C1A C 1.0159(4) 0.7234(4) 0.32511(14)
C1L C 0.625833(400) 0.682567(400) 0.341557(140)
C1B C 0.2766(4) 0.2925(4) 0.32511(14)
C1M C 0.317433(400) -0.056733(400) 0.341557(140)
C1N C 1.056733(400) 0.374167(400) 0.341557(140)
C2A C 1.0465(5) 0.8082(5) 0.34230(16)
C2L C 0.571633(500) 0.713167(500) 0.324367(160)
C2B C 0.1918(5) 0.2383(5) 0.34230(16)
C2M C 0.286833(500) -0.141533(500) 0.324367(160)
C2N C 1.141533(500) 0.428367(500) 0.324367(160)
H1A H 1.03450 0.85540 0.33410
H1L H 0.51243 0.70117 0.33257
H1B H 0.14460 0.17910 0.33410
H1M H 0.29883 -0.18873 0.33257
H1N H 1.18873 0.48757 0.33257
C3A C 1.0923(7) 0.8230(5) 0.36997(18)
C3L C 0.602633(700) 0.758967(500) 0.296697(180)
C3B C 0.1770(7) 0.2693(5) 0.36997(18)
C3M C 0.241033(700) -0.156333(500) 0.296697(180)
C3N C 1.156333(700) 0.397367(500) 0.296697(180)
H2B H 0.11870 0.23240 0.38070
H2A H 1.11370 0.88130 0.38070
H2L H 0.56573 0.78037 0.28597
H2N H 1.21463 0.43427 0.28597
H2M H 0.21963 -0.21463 0.28597
C4B C 0.2455(8) 0.3548(6) 0.38351(19)
C4A C 1.1093(8) 0.7545(6) 0.38351(19)
C4L C 0.688133(800) 0.775967(600) 0.283157(190)
C4N C 1.087833(800) 0.311867(600) 0.283157(190)
C4M C 0.224033(800) -0.087833(600) 0.283157(190)
H3A H 1.13930 0.76430 0.40350
H3M H 0.19403 -0.09763 0.26317
H3B H 0.23570 0.37500 0.40350
H3L H 0.70833 0.80597 0.26317
H3N H 1.09763 0.29167 0.26317
C5A C 1.0814(6) 0.6743(5) 0.36694(16)
C5L C 0.740433(600) 0.748067(500) 0.299727(160)
C5B C 0.3257(6) 0.4071(5) 0.36694(16)
C5M C 0.251933(600) -0.007633(500) 0.299727(160)
C5N C 1.007633(600) 0.259567(500) 0.299727(160)
H4B H 0.37230 0.46560 0.37570
H4A H 1.09330 0.62770 0.37570
H4L H 0.79893 0.75997 0.29097
H4N H 0.96103 0.20107 0.29097
H4M H 0.24003 0.03897 0.29097
C6A C 1.0358(5) 0.6557(4) 0.33756(14)
C6L C 0.713433(500) 0.702467(400) 0.329107(140)
C6B C 0.3443(5) 0.3801(4) 0.33756(14)
C6M C 0.297533(500) 0.010967(400) 0.329107(140)
C6N C 0.989033(500) 0.286567(400) 0.329107(140)
C7A C 1.0114(4) 0.5689(4) 0.32140(13)
C7L C 0.775833(400) 0.678067(400) 0.345267(130)
C7B C 0.4311(4) 0.4425(4) 0.32140(13)
C7M C 0.321933(400) 0.097767(400) 0.345267(130)
C7N C 0.902233(400) 0.224167(400) 0.345267(130)
H5B H 0.47410 0.49940 0.33190
H5L H 0.83273 0.69197 0.33477
H5A H 1.02530 0.52590 0.33190
H5N H 0.85923 0.16727 0.33477
H5M H 0.30803 0.14077 0.33477
C8A C 0.9461(4) 0.4507(4) 0.28133(13)
C8B C 0.5493(4) 0.4954(4) 0.28133(13)
C8M C 0.387233(400) 0.215967(400) 0.385337(130)
C8N C 0.784033(400) 0.171267(400) 0.385337(130)
C8L C 0.828733(400) 0.612767(400) 0.385337(130)
H6M H 0.44823 0.26427 0.37617
H6N H 0.73573 0.18397 0.37617
H6A H 0.88510 0.40240 0.29050
H6B H 0.59760 0.48270 0.29050
H6L H 0.81603 0.55177 0.37617
H7M H 0.33853 0.23267 0.37987
H7N H 0.76733 0.10587 0.37987
H7A H 0.99480 0.43400 0.28680
H7B H 0.56600 0.56080 0.28680
H7L H 0.89413 0.66147 0.37987
Mn1N Mn 0.948253(50) 0.355617(50) 0.398095(19)
Mn1A Mn 0.92597(5) 0.61492(5) 0.268572(19)
Mn1L Mn 0.644383(50) 0.592637(50) 0.398095(19)
Mn1B Mn 0.38508(5) 0.31105(5) 0.268572(19)
Mn1M Mn 0.407363(50) 0.051747(50) 0.398095(19)
C9A C 0.9374(4) 0.4535(4) 0.24614(13)
C9B C 0.5465(4) 0.4839(4) 0.24614(13)
C9M C 0.395933(400) 0.213167(400) 0.420527(130)
C9N C 0.786833(400) 0.182767(400) 0.420527(130)
C9L C 0.817233(400) 0.604067(400) 0.420527(130)
H8M H 0.33253 0.18367 0.43037
H8N H 0.81633 0.14887 0.43037
H8A H 1.00080 0.48300 0.23630
H8B H 0.51700 0.51780 0.23630
H8L H 0.85113 0.66747 0.43037
H9M H 0.43393 0.27817 0.42897
H9N H 0.72183 0.15577 0.42897
H9A H 0.89940 0.38850 0.23770
H9B H 0.61150 0.51090 0.23770
H9L H 0.84423 0.56607 0.42897
C10A C 0.8375(4) 0.4901(4) 0.21438(13)
C10L C 0.680733(400) 0.504167(400) 0.452287(130)
C10M C 0.495833(400) 0.176567(400) 0.452287(130)
C10B C 0.5099(4) 0.3474(4) 0.21438(13)
C10N C 0.823433(400) 0.319267(400) 0.452287(130)
H10B H 0.56310 0.38910 0.20210
H10L H 0.72243 0.49267 0.46457
H10M H 0.50733 0.22977 0.46457
H10N H 0.77023 0.27757 0.46457
H10A H 0.82600 0.43690 0.20210
C11A C 0.7932(5) 0.5427(4) 0.20432(15)
C11L C 0.583833(500) 0.459867(400) 0.462347(150)
C11B C 0.4573(5) 0.2505(4) 0.20432(15)
C11M C 0.540133(500) 0.123967(400) 0.462347(150)
C11N C 0.876033(500) 0.416167(400) 0.462347(150)
C12A C 0.7337(6) 0.5098(5) 0.17756(17)
C12L C 0.557233(600) 0.400367(500) 0.489107(170)
C12M C 0.599633(600) 0.156867(500) 0.489107(170)
C12B C 0.4902(6) 0.2239(5) 0.17756(17)
C12N C 0.843133(600) 0.442767(500) 0.489107(170)
H11B H 0.54560 0.27070 0.16720
H11L H 0.60403 0.39177 0.49947
H11M H 0.60823 0.21227 0.49947
H11N H 0.78773 0.39597 0.49947
H11A H 0.72510 0.45440 0.16720
C13B C 0.4466(7) 0.1353(6) 0.1660(2)
C13L C 0.468633(700) 0.355367(600) 0.500667(200)
C13M C 0.644633(700) 0.113267(600) 0.500667(200)
C13N C 0.886733(700) 0.531367(600) 0.500667(200)
C13A C 0.6887(7) 0.5534(6) 0.1660(2)
H12B H 0.47080 0.11920 0.14810
H12N H 0.86253 0.54747 0.51857
H12A H 0.64840 0.52920 0.14810
H12M H 0.68493 0.13747 0.51857
H12L H 0.45253 0.31507 0.51857
C14A C 0.7032(6) 0.6362(5) 0.1815(2)
C14L C 0.400333(600) 0.369867(500) 0.485167(200)
C14M C 0.630133(600) 0.030467(500) 0.485167(200)
C14B C 0.3638(6) 0.0670(5) 0.1815(2)
C14N C 0.969533(600) 0.599667(500) 0.485167(200)
H13L H 0.33723 0.33867 0.49287
H13B H 0.33190 0.00390 0.17380
H13M H 0.66133 -0.00143 0.49287
H13N H 1.00143 0.66277 0.49287
H13A H 0.67200 0.66810 0.17380
C15A C 0.7608(5) 0.6711(5) 0.20687(19)
C15L C 0.423033(500) 0.427467(500) 0.459797(190)
C15B C 0.3289(5) 0.0897(5) 0.20687(19)
C15M C 0.572533(500) -0.004433(500) 0.459797(190)
C15N C 1.004433(500) 0.576967(500) 0.459797(190)
H14A H 0.76840 0.72660 0.21680
H14L H 0.37513 0.43507 0.44987
H14M H 0.56493 -0.05993 0.44987
H14B H 0.27340 0.04180 0.21680
H14N H 1.05993 0.62487 0.44987
C16A C 0.8100(4) 0.6274(4) 0.21923(16)
C16L C 0.515933(400) 0.476667(400) 0.447437(160)
C16B C 0.3726(4) 0.1826(4) 0.21923(16)
C16M C 0.523333(400) 0.039267(400) 0.447437(160)
C16N C 0.960733(400) 0.484067(400) 0.447437(160)
C17B C 0.3135(3) -0.5608(3) 0.22577(11)
C17P C 0.540967(300) -0.353167(300) 0.107563(110)
C17A C 0.1257(3) -0.3135(3) 0.22577(11)
C17Q C 0.353167(300) -0.105867(300) 0.107563(110)
C17O C 0.105867(300) -0.540967(300) 0.107563(110)
C17A* C 1.1257(3) 0.6865(3) 0.22577(11)
C17L C 0.772533(300) 0.792367(300) 0.440897(110)
C17N C 1.019833(300) 0.227467(300) 0.440897(110)
C17M C 0.207633(300) -0.019833(300) 0.440897(110)
C17B* C 0.3135(3) 0.4392(3) 0.22577(11)
C18A C 0.7372(3) 0.4464(3) 0.30799(11)
C18B C 0.5536(3) 0.2908(3) 0.30799(11)
C18L C 0.624133(300) 0.403867(300) 0.358677(110)
C18M C 0.596133(300) 0.220267(300) 0.358677(110)
C18N C 0.779733(300) 0.375867(300) 0.358677(110)
Nb1B Nb 0.32333(2) -0.44192(2) 0.195035(9)
Nb1P Nb 0.431917(20) -0.343337(20) 0.138298(9)
Nb1A Nb 0.23475(2) -0.32333(2) 0.195035(9)
Nb1Q Nb 0.343337(20) -0.224747(20) 0.138298(9)
Nb1O Nb 0.224747(20) -0.431917(20) 0.138298(9)
Nb1A* Nb 1.23475(2) 0.67667(2) 0.195035(9)
Nb1L Nb 0.891413(20) 0.901417(20) 0.471632(9)
Nb1N Nb 1.010003(20) 0.108587(20) 0.471632(9)
Nb1M Nb 0.098583(20) -0.010003(20) 0.471632(9)
Nb1B* Nb 0.32333(2) 0.55808(2) 0.195035(9)
#END
