
#######################################################################
#
#                 Cambridge Crystallographic Data Centre
#                                CCDC
#
#######################################################################
#
# If this CIF has been generated from an entry in the Cambridge
# Structural Database, then it will include bibliographic, chemical,
# crystal, experimental, refinement or atomic coordinate data resulting
# from the CCDC's data processing and validation procedures.
#
#######################################################################

data_CSD_CIF_HIBQUE
_audit_creation_date 1999-05-27
_audit_creation_method CSD-ConQuest-V1
_database_code_CSD HIBQUE
_database_code_depnum_ccdc_archive 'CCDC 113939'
_database_code_depnum_ccdc_journal 186/1228
_chemical_formula_sum 'C6 H17 In2 N2 O17 P3'
_chemical_formula_moiety
;
(C2 H3 In2 O16 P3 2-)n,n(C4 H12 N2 2+),n(H2 O1)
;
_journal_coden_Cambridge 186
_journal_year 1998
_journal_page_first 4085
_journal_name_full 'J.Chem.Soc.,Dalton Trans. '
loop_
_publ_author_name
"Yuh-Feng Huang"
"Kwang-Hwa Lii"
_chemical_name_systematic
;
catena-(Piperazinium 
bis(\m~3~-monhydrogenphosphato)-(\m~2~-monohydrogenphosphato)-(\m~2~-oxalato)-
di-indium monohydrate)
;
_cell_volume    887.499
_exptl_crystal_colour 'colorless'
_exptl_crystal_density_diffrn 2.663
_exptl_crystal_description 'blade'
_diffrn_ambient_temperature ?
_diffrn_special_details
;
The study was carried out at room temperature,in the range 283-303K

;
#These two values have been output from a single CSD field.
_refine_ls_R_factor_gt 0.0435
_refine_ls_wR_factor_gt 0.0435
_symmetry_cell_setting monoclinic
_symmetry_space_group_name_H-M 'P 21'
_symmetry_Int_Tables_number 4
loop_
_symmetry_equiv_pos_site_id
_symmetry_equiv_pos_as_xyz
1 x,y,z
2 -x,1/2+y,-z
_cell_length_a 6.5052(2)
_cell_length_b 17.5005(2)
_cell_length_c 8.1811(2)
_cell_angle_alpha 90
_cell_angle_beta 107.656(1)
_cell_angle_gamma 90
_cell_formula_units_Z 2
loop_
_atom_type_symbol
_atom_type_radius_bond
C 0.68
In 1.63
N 0.68
O 0.68
P 1.05
loop_
_atom_site_label
_atom_site_type_symbol
_atom_site_fract_x
_atom_site_fract_y
_atom_site_fract_z
P1 P -0.2639(4) 0.0474(2) 0.7570(3)
P2 P -0.6060(4) 0.0913(2) 1.1582(4)
P3 P -0.9295(4) -0.16326(14) 0.8707(3)
O1 O -0.4482(11) -0.0117(4) 0.7273(9)
O2 O -0.0468(10) 0.0066(6) 0.8324(8)
O3 O -0.2919(11) 0.1127(4) 0.8717(8)
O4 O -0.2707(12) 0.0824(4) 0.5814(9)
O5 O -0.5934(11) 0.0282(4) 1.0322(9)
O6 O -0.5809(11) 0.0526(4) 1.3331(8)
O7 O -0.8132(10) 0.1367(5) 1.0928(8)
O8 O -0.4222(11) 0.1493(5) 1.1763(8)
O9 O -0.7617(11) -0.1191(4) 0.8151(9)
O10 O -1.1386(12) -0.1703(4) 0.7225(9)
O11 O -0.9828(15) -0.1193(5) 1.0212(10)
O12 O -0.8382(12) -0.2402(4) 0.9470(9)
O13 O -0.7885(11) 0.1145(4) 0.6509(9)
O14 O -0.9549(12) 0.1702(4) 0.4014(9)
O15 O -0.9182(12) -0.0245(4) 0.5083(9)
O16 O -1.0731(12) 0.0307(4) 0.2562(8)
C1 C -0.8972(16) 0.1133(6) 0.4952(13)
C2 C -0.9678(16) 0.0334(6) 0.4121(14)
N1 N -0.4315(20) -0.0998(6) 0.3943(14)
N2 N -0.4678(17) -0.2531(5) 0.2523(12)
C3 C -0.6175(21) -0.1517(8) 0.3977(17)
C4 C -0.5506(21) -0.2349(6) 0.4000(15)
C5 C -0.2769(21) -0.2040(7) 0.2605(16)
C6 C -0.3457(24) -0.1190(8) 0.2491(17)
In1 In -0.74437(11) 0.00250 0.77951(8)
In2 In -0.11908(10) 0.14147(5) 1.12599(8)
O17 O -0.4366(14) -0.2103(5) 0.8276(13)
In1* In 0.25563(11) 0.00250 0.77951(8)
In2* In -1.11908(10) 0.14147(5) 1.12599(8)
In2A In -0.88092(10) -0.35853(5) 0.87401(8)
In2** In -1.11908(10) 0.14147(5) 0.12599(8)
O2* O -1.0468(10) 0.0066(6) 0.8324(8)
O7* O 0.1868(10) 0.1367(5) 1.0928(8)
O12A O -0.1618(12) 0.2598(4) 1.0530(9)
O14* O 0.0451(12) 0.1702(4) 1.4014(9)
O16* O -0.0731(12) 0.0307(4) 1.2562(8)
#END
