
#######################################################################
#
#                 Cambridge Crystallographic Data Centre
#                                CCDC
#
#######################################################################
#
# If this CIF has been generated from an entry in the Cambridge
# Structural Database, then it will include bibliographic, chemical,
# crystal, experimental, refinement or atomic coordinate data resulting
# from the CCDC's data processing and validation procedures.
#
#######################################################################

data_CSD_CIF_HICFOP
_audit_creation_date 2007-07-25
_audit_creation_method CSD-ConQuest-V1
_database_code_CSD HICFOP
_database_code_depnum_ccdc_archive 'CCDC 611893'
_chemical_formula_sum 'C14 H36 F2 Ga4 N4 O26 Se6'
_chemical_formula_moiety
;
(C2 F2 Ga4 O22 Se6 4-)n,2n(C6 H14 N2 2+),4n(H2 O1)
;
_journal_coden_Cambridge 1147
_journal_volume 7
_journal_year 2007
_journal_page_first 770
_journal_name_full 'Cryst.Growth Des. '
loop_
_publ_author_name
"Mei-Ling Feng"
"Xiu-Ling Li"
"Jiang-Gao Mao"
_chemical_name_systematic
;
catena-(bis(1,4-Diazoniabicyclo(2.2.2)octane) 
hexakis(\m~3~-selenito)-(\m~2~-oxalato)-difluoro-tetra-gallium(iii) 
tetrahydrate)
;
_cell_volume    872.167
_exptl_crystal_colour 'colorless'
_exptl_crystal_density_diffrn 2.793
_exptl_crystal_description 'brick'
_diffrn_ambient_temperature 293
#These two values have been output from a single CSD field.
_refine_ls_R_factor_gt 0.0317
_refine_ls_wR_factor_gt 0.0317
_symmetry_cell_setting triclinic
_symmetry_space_group_name_H-M 'P -1'
_symmetry_Int_Tables_number 2
loop_
_symmetry_equiv_pos_site_id
_symmetry_equiv_pos_as_xyz
1 x,y,z
2 -x,-y,-z
_cell_length_a 8.9941(1)
_cell_length_b 9.4963(3)
_cell_length_c 11.2959(1)
_cell_angle_alpha 77.128(10)
_cell_angle_beta 68.073(8)
_cell_angle_gamma 83.776(12)
_cell_formula_units_Z 1
loop_
_atom_type_symbol
_atom_type_radius_bond
C 0.68
H 0.23
F 0.64
Ga 1.22
N 0.68
O 0.68
Se 1.22
loop_
_atom_site_label
_atom_site_type_symbol
_atom_site_fract_x
_atom_site_fract_y
_atom_site_fract_z
Ga1 Ga -0.10096(6) 0.72677(5) 0.10327(4)
Ga2 Ga 0.21921(5) 0.64599(5) -0.48024(4)
Se1 Se 0.06446(5) 0.61977(4) -0.15999(4)
Se2 Se -0.41248(5) 0.61922(4) 0.35127(4)
Se3 Se 0.02061(5) 0.62847(4) 0.34618(4)
F1 F 0.2919(3) 0.8283(3) -0.4998(3)
N1 N -0.7409(5) 1.2201(5) 0.2655(5)
H1 H -0.84460 1.24840 0.27730
N2 N -0.4584(5) 1.1429(5) 0.2351(5)
H2 H -0.35530 1.11370 0.22450
C1 C -0.6329(7) 1.3348(6) 0.1707(8)
H3 H -0.66680 1.42720 0.19700
H4 H -0.63770 1.34240 0.08510
C2 C -0.4613(7) 1.2964(6) 0.1659(6)
H5 H -0.38770 1.30740 0.07620
H6 H -0.42910 1.35970 0.20810
C3 C -0.7156(8) 1.2012(8) 0.3910(7)
H7 H -0.79720 1.13990 0.45910
H8 H -0.72390 1.29420 0.41540
C4 C -0.5528(7) 1.1337(7) 0.3762(6)
H9 H -0.49900 1.18420 0.41400
H10 H -0.56270 1.03350 0.42110
C5 C -0.7060(7) 1.0826(6) 0.2198(7)
H11 H -0.73770 1.09050 0.14530
H12 H -0.76660 1.00630 0.28830
C6 C -0.5284(7) 1.0461(6) 0.1819(6)
H13 H -0.51150 0.94560 0.21790
H14 H -0.47730 1.06160 0.08790
C7 C 0.0877(5) 0.9737(4) -0.0195(4)
O1 O -0.0925(4) 0.7150(3) -0.0717(3)
O2 O 0.0441(4) 0.6740(3) -0.3081(3)
O3 O -0.0209(4) 0.4539(3) -0.1136(3)
O4 O -0.6022(4) 0.6133(3) 0.3538(3)
O5 O -0.3649(4) 0.4393(3) 0.3825(3)
O6 O -0.3158(4) 0.6568(3) 0.1864(3)
O7 O -0.0735(4) 0.7587(3) 0.2635(3)
O8 O -0.1456(4) 0.5467(3) 0.4647(3)
O9 O 0.0712(4) 0.7331(3) 0.4282(3)
O10 O 0.1153(4) 0.8403(3) 0.0063(3)
O11 O 0.1908(4) 1.0697(3) -0.0753(3)
O12 O -0.3762(7) 0.2307(7) 0.8824(5)
O13 O -0.1885(5) 0.0397(4) 0.2949(4)
Ga1A Ga 0.10096(6) 0.27323(5) -0.10327(4)
Ga1A* Ga 0.10096(6) 1.27323(5) -0.10327(4)
Ga1* Ga 0.89904(6) 0.72677(5) -0.89673(4)
Ga2A Ga -0.21921(5) 0.35401(5) 0.48024(4)
Ga2* Ga -0.78079(5) 0.64599(5) 0.51976(4)
Ga2** Ga 0.21921(5) 0.64599(5) 0.51976(4)
Ga2A* Ga 0.78079(5) 0.35401(5) -0.51976(4)
Ga2A** Ga -0.21921(5) 0.35401(5) -0.51976(4)
Se1A Se -0.06446(5) 0.38023(4) 0.15999(4)
Se2* Se 0.58752(5) 0.61922(4) -0.64873(4)
Se3A Se -0.02061(5) 0.37153(4) -0.34618(4)
F1A F -0.2919(3) 0.1717(3) 0.4998(3)
C7A C -0.0877(5) 1.0263(4) 0.0195(4)
O1A O 0.0925(4) 0.2850(3) 0.0717(3)
O2A O -0.0441(4) 0.3260(3) 0.3081(3)
O3A O 0.0209(4) 0.5461(3) 0.1136(3)
O4* O 0.3978(4) 0.6133(3) -0.6462(3)
O4A O -0.3978(4) 0.3867(3) 0.6462(3)
O5* O 0.6351(4) 0.4393(3) -0.6175(3)
O5A O 0.3649(4) 0.5607(3) -0.3825(3)
O6* O 0.6842(4) 0.6568(3) -0.8136(3)
O6A O 0.3158(4) 0.3432(3) -0.1864(3)
O7A O 0.0735(4) 0.2413(3) -0.2635(3)
O8A O 0.1456(4) 0.4533(3) -0.4647(3)
O9A O -0.0712(4) 0.2669(3) -0.4282(3)
O9* O 0.0712(4) 0.7331(3) -0.5718(3)
O9A* O -0.0712(4) 0.2669(3) 0.5718(3)
O10A O -0.1153(4) 1.1597(3) -0.0063(3)
O10A* O -0.1153(4) 0.1597(3) -0.0063(3)
O11A O -0.1908(4) 0.9303(3) 0.0753(3)
O11* O 0.1908(4) 0.0697(3) -0.0753(3)
#END
