
#######################################################################
#
#                 Cambridge Crystallographic Data Centre
#                                CCDC
#
#######################################################################
#
# If this CIF has been generated from an entry in the Cambridge
# Structural Database, then it will include bibliographic, chemical,
# crystal, experimental, refinement or atomic coordinate data resulting
# from the CCDC's data processing and validation procedures.
#
#######################################################################

data_CSD_CIF_HICGAC
_audit_creation_date 2007-07-25
_audit_creation_method CSD-ConQuest-V1
_database_code_CSD HICGAC
_database_code_depnum_ccdc_archive 'CCDC 611895'
_chemical_formula_sum 'C6 H18 In2 N2 O20 Se2'
_chemical_formula_moiety
;
(C4 H8 In2 O20 Se2 2-)n,n(C2 H10 N2 2+)
;
_journal_coden_Cambridge 1147
_journal_volume 7
_journal_year 2007
_journal_page_first 770
_journal_name_full 'Cryst.Growth Des. '
loop_
_publ_author_name
"Mei-Ling Feng"
"Xiu-Ling Li"
"Jiang-Gao Mao"
_chemical_name_systematic
;
catena-(Ethylenediammonium 
bis(\m~2~-oxalato)-tetra-aqua-bis(selenato)-di-indium(iii))
;
_cell_volume   1012.345
_exptl_crystal_colour 'colorless'
_exptl_crystal_density_diffrn 2.709
_exptl_special_details
;
luminescent

;
_exptl_crystal_description 'needle'
_diffrn_ambient_temperature 293
#These two values have been output from a single CSD field.
_refine_ls_R_factor_gt 0.0321
_refine_ls_wR_factor_gt 0.0321
_symmetry_cell_setting monoclinic
_symmetry_space_group_name_H-M 'P 21/n'
_symmetry_Int_Tables_number 14
loop_
_symmetry_equiv_pos_site_id
_symmetry_equiv_pos_as_xyz
1 x,y,z
2 1/2-x,1/2+y,1/2-z
3 -x,-y,-z
4 -1/2+x,-1/2-y,-1/2+z
_cell_length_a 8.3749(16)
_cell_length_b 12.118(2)
_cell_length_c 10.648(3)
_cell_angle_alpha 90
_cell_angle_beta 110.478(8)
_cell_angle_gamma 90
_cell_formula_units_Z 2
loop_
_atom_type_symbol
_atom_type_radius_bond
C 0.68
H 0.23
In 1.63
N 0.68
O 0.68
Se 1.22
loop_
_atom_site_label
_atom_site_type_symbol
_atom_site_fract_x
_atom_site_fract_y
_atom_site_fract_z
In1 In 0.21237(4) 0.83250(2) 0.88258(3)
Se1 Se 0.57265(6) 0.76011(4) 0.81890(5)
O1 O 0.3285(4) 0.6822(2) 0.9986(3)
O2 O 0.3973(4) 0.8892(2) 1.0818(3)
O3 O 0.0315(4) 0.8349(3) 0.9836(4)
O4 O 0.3902(4) 0.8295(3) 0.7813(3)
O5 O 0.6443(6) 0.7901(4) 0.6999(5)
O6 O 0.2115(4) 1.0134(3) 0.8705(3)
O7 O 0.7021(5) 0.7978(3) 0.9641(4)
O8 O 0.5355(5) 0.6295(3) 0.8204(4)
O9 O 0.5224(4) 0.6205(2) 1.1862(3)
O10 O 0.5835(4) 0.8268(2) 1.2763(3)
C1 C 0.4400(5) 0.6958(3) 1.1118(4)
C2 C 0.0828(6) 0.4704(4) 1.0383(5)
H1 H 0.13990 0.50850 1.12220
H2 H 0.05790 0.39580 1.05900
C3 C 0.4773(5) 0.8152(3) 1.1607(4)
N1 N 0.1965(5) 0.4665(3) 0.9590(4)
H3 H 0.29280 0.43200 1.00570
H4 H 0.22020 0.53490 0.94060
H5 H 0.14510 0.43030 0.88280
In1C In -0.28763(4) 0.66750(2) 0.38258(3)
In1C* In 0.71237(4) 0.66750(2) 1.38258(3)
Se1C Se 0.07265(6) 0.73989(4) 0.31890(5)
O1C O -0.1715(4) 0.8178(2) 0.4986(3)
O2C O -0.1027(4) 0.6108(2) 0.5818(3)
O3C O -0.4685(4) 0.6651(3) 0.4836(4)
O4C O -0.1098(4) 0.6705(3) 0.2813(3)
O5C O 0.1443(6) 0.7099(4) 0.1999(5)
O6C O -0.2885(4) 0.4866(3) 0.3705(3)
O7C O 0.2021(5) 0.7022(3) 0.4641(4)
O8C O 0.0355(5) 0.8705(3) 0.3204(4)
O9C O 0.0224(4) 0.8795(2) 0.6862(3)
O9* O -0.4776(4) 0.6205(2) 0.1862(3)
O10C O 0.0835(4) 0.6732(2) 0.7763(3)
O10* O -0.4165(4) 0.8268(2) 0.2763(3)
C1C C -0.0600(5) 0.8042(3) 0.6118(4)
C2B C -0.0828(6) 0.5296(4) 0.9617(5)
H1B H -0.13990 0.49150 0.87780
H2B H -0.05790 0.60420 0.94100
C3C C -0.0227(5) 0.6848(3) 0.6607(4)
N1B N -0.1965(5) 0.5335(3) 1.0410(4)
H3B H -0.29280 0.56800 0.99430
H4B H -0.22020 0.46510 1.05940
H5B H -0.14510 0.56970 1.11720
#END
