
#######################################################################
#
#                 Cambridge Crystallographic Data Centre
#                                CCDC
#
#######################################################################
#
# If this CIF has been generated from an entry in the Cambridge
# Structural Database, then it will include bibliographic, chemical,
# crystal, experimental, refinement or atomic coordinate data resulting
# from the CCDC's data processing and validation procedures.
#
#######################################################################

data_CSD_CIF_HICKOU
_audit_creation_date 2007-07-25
_audit_creation_method CSD-ConQuest-V1
_database_code_CSD HICKOU
_database_code_depnum_ccdc_archive 'CCDC 647062'
_chemical_formula_sum 'C48 H96 Cl12 Fe6 N6 O24'
_chemical_formula_moiety
;
(C12 Cl12 Fe6 O24 6-)n,6n(C6 H16 N1 1+)
;
_journal_coden_Cambridge 9
_journal_volume 46
_journal_year 2007
_journal_page_first 3089
_journal_name_full 'Inorg.Chem. '
loop_
_publ_author_name
"Hong-Bin Xu"
"Zhe-Ming Wang"
"Tao Liu"
"Song Gao"
_chemical_name_systematic
;
catena-(hexakis(Triethylammonium) 
hexakis(\m~2~-oxalato)-dodecachloro-hexa-iron(iii))
;
_cell_volume   2245.314
_exptl_crystal_colour 'dark green'
_exptl_crystal_density_diffrn 1.406
_exptl_special_details
;
magnetic properties
triclinc polymorph

;
_exptl_crystal_description 'needle'
_diffrn_ambient_temperature 293
#These two values have been output from a single CSD field.
_refine_ls_R_factor_gt 0.0672
_refine_ls_wR_factor_gt 0.0672
_symmetry_cell_setting triclinic
_symmetry_space_group_name_H-M 'P -1'
_symmetry_Int_Tables_number 2
loop_
_symmetry_equiv_pos_site_id
_symmetry_equiv_pos_as_xyz
1 x,y,z
2 -x,-y,-z
_cell_length_a 10.9609(3)
_cell_length_b 14.4602(4)
_cell_length_c 14.5780(4)
_cell_angle_alpha 85.006(2)
_cell_angle_beta 78.845(2)
_cell_angle_gamma 83.0191(12)
_cell_formula_units_Z 1
loop_
_atom_type_symbol
_atom_type_radius_bond
C 0.68
H 0.23
Cl 0.99
Fe 1.34
N 0.68
O 0.68
loop_
_atom_site_label
_atom_site_type_symbol
_atom_site_fract_x
_atom_site_fract_y
_atom_site_fract_z
Fe1 Fe 0.09480(11) 0.98780(8) 0.16367(8)
Fe2 Fe 0.23571(10) 1.33711(8) 0.16307(8)
Fe3 Fe 0.41624(10) 1.33145(8) 0.48831(7)
Cl1 Cl 0.2610(2) 0.90109(19) 0.20822(18)
Cl2 Cl -0.0619(2) 0.9134(2) 0.2479(2)
Cl3 Cl 0.0660(2) 1.40973(19) 0.11110(19)
Cl4 Cl 0.3859(2) 1.41452(17) 0.07044(17)
Cl5 Cl 0.5791(2) 1.24085(18) 0.5490(2)
Cl6 Cl 0.2549(2) 1.25384(19) 0.57921(19)
O1 O 0.2121(5) 1.0832(4) 0.0781(3)
O2 O 0.0719(5) 1.0973(4) 0.2467(3)
O3 O 0.1221(5) 1.2403(4) 0.2498(3)
O4 O 0.2657(5) 1.2245(4) 0.0804(3)
O5 O 0.2131(5) 1.4097(3) 0.2785(4)
O6 O 0.3704(5) 1.2597(3) 0.2345(4)
O7 O 0.2843(5) 1.4118(3) 0.4120(4)
O8 O 0.4391(5) 1.2571(3) 0.3691(4)
O9 O 0.1121(5) 0.9223(3) 0.0424(4)
O10 O 0.0418(5) 0.9272(3) -0.0910(4)
O11 O 0.3934(5) 1.4347(4) 0.5786(4)
O12 O 0.4588(5) 1.5772(4) 0.5898(4)
C1 C 0.2107(7) 1.1575(6) 0.1146(5)
C2 C 0.1291(7) 1.1674(6) 0.2130(6)
C3 C 0.2832(7) 1.3794(5) 0.3369(6)
C4 C 0.3714(7) 1.2901(5) 0.3112(6)
C5 C 0.0448(7) 0.9568(5) -0.0141(6)
C6 C 0.4542(8) 1.5018(7) 0.5498(5)
C7 C -0.3693(11) 1.2028(8) 0.0417(8)
H1 H -0.34030 1.20290 -0.02550
H2 H -0.44050 1.24990 0.05320
C8 C -0.412(1) 1.1086(8) 0.0768(9)
H3 H -0.47790 1.09690 0.04600
H4 H -0.44210 1.10800 0.14320
H5 H -0.34300 1.06110 0.06360
C9 C -0.3224(11) 1.2517(10) 0.1835(8)
H6 H -0.38220 1.20810 0.21060
H7 H -0.36660 1.31400 0.18350
C10 C -0.2242(13) 1.2466(14) 0.2413(10)
H8 H -0.26220 1.26020 0.30440
H9 H -0.16660 1.29140 0.21590
H10 H -0.18010 1.18510 0.24110
C11 C -0.227(2) 1.3205(13) 0.0441(13)
H11 H -0.30170 1.36380 0.04360
H12 H -0.18070 1.34310 0.08640
C12 C -0.155(2) 1.3263(16) -0.0450(13)
H13 H -0.13690 1.38960 -0.06160
H14 H -0.19930 1.30660 -0.08910
H15 H -0.07750 1.28660 -0.04600
C13 C 0.0876(17) 1.7995(11) 0.4354(12)
H16 H 0.04820 1.81810 0.38160
H17 H 0.17610 1.80550 0.41520
C14 C 0.0386(18) 1.8673(10) 0.5053(12)
H18 H 0.05160 1.92900 0.47810
H19 H 0.08120 1.85410 0.55740
H20 H -0.04930 1.86340 0.52660
C15 C 0.0254(16) 1.6691(13) 0.5463(10)
H21 H -0.05210 1.64430 0.54360
H22 H 0.00580 1.71870 0.58910
C16 C 0.1113(13) 1.5937(11) 0.5836(11)
H23 H 0.07130 1.56980 0.64390
H24 H 0.18660 1.61850 0.58940
H25 H 0.13140 1.54430 0.54150
C17 C 0.116(2) 1.6377(13) 0.3867(10)
H26 H 0.20670 1.62670 0.38000
H27 H 0.08430 1.58010 0.41480
C18 C 0.0928(18) 1.6469(13) 0.3006(12)
H28 H 0.13130 1.59300 0.26760
H29 H 0.12600 1.70180 0.26840
H30 H 0.00410 1.65240 0.30310
C19 C 0.412(2) 1.2313(12) 0.8451(16)
H31 H 0.50260 1.22230 0.82950
H32 H 0.38740 1.24260 0.91100
C20 C 0.3586(19) 1.1497(14) 0.8241(15)
H33 H 0.38980 1.09550 0.85900
H34 H 0.38180 1.14060 0.75830
H35 H 0.26910 1.15920 0.84120
C21 C 0.2286(17) 1.3289(17) 0.8397(16)
H36 H 0.18950 1.27160 0.84420
H37 H 0.23170 1.34380 0.90270
C22 C 0.156(2) 1.4003(16) 0.7992(18)
H38 H 0.07160 1.40410 0.83380
H39 H 0.15610 1.38780 0.73560
H40 H 0.18930 1.45850 0.80030
C23 C 0.4254(19) 1.3902(14) 0.8073(14)
H41 H 0.38630 1.44840 0.78280
H42 H 0.41120 1.39220 0.87490
C24 C 0.5567(17) 1.3863(17) 0.7731(13)
H43 H 0.58830 1.43900 0.79250
H44 H 0.57260 1.38750 0.70600
H45 H 0.59760 1.32970 0.79780
N1 N -0.2678(8) 1.2291(6) 0.0857(7)
H46 H -0.20240 1.18350 0.08300
N2 N 0.0756(17) 1.7065(9) 0.4570(8)
H47 H -0.00190 1.71460 0.44190
N3 N 0.3606(14) 1.3131(9) 0.7851(8)
H48 H 0.36810 1.30400 0.72320
Fe1A Fe -0.09480(11) 1.01220(8) -0.16367(8)
Fe2A Fe -0.23571(10) 0.66289(8) -0.16307(8)
Fe3A Fe -0.41624(10) 0.66855(8) -0.48831(7)
Fe3A* Fe 0.58376(10) 1.66855(8) 0.51169(7)
Cl1A Cl -0.2610(2) 1.09891(19) -0.20822(18)
Cl2A Cl 0.0619(2) 1.0866(2) -0.2479(2)
Cl3A Cl -0.0660(2) 0.59027(19) -0.11110(19)
Cl4A Cl -0.3859(2) 0.58548(17) -0.07044(17)
Cl5A Cl -0.5791(2) 0.75915(18) -0.5490(2)
Cl6A Cl -0.2549(2) 0.74616(19) -0.57921(19)
O1A O -0.2121(5) 0.9168(4) -0.0781(3)
O2A O -0.0719(5) 0.9027(4) -0.2467(3)
O3A O -0.1221(5) 0.7597(4) -0.2498(3)
O4A O -0.2657(5) 0.7755(4) -0.0804(3)
O5A O -0.2131(5) 0.5903(3) -0.2785(4)
O6A O -0.3704(5) 0.7403(3) -0.2345(4)
O7A O -0.2843(5) 0.5882(3) -0.4120(4)
O8A O -0.4391(5) 0.7429(3) -0.3691(4)
O9A O -0.1121(5) 1.0777(3) -0.0424(4)
O10A O -0.0418(5) 1.0728(3) 0.0910(4)
O11A O 0.6066(5) 1.5653(4) 0.4214(4)
O11A* O -0.3934(5) 0.5653(4) -0.5786(4)
O12A O 0.5412(5) 1.4228(4) 0.4102(4)
O12* O -0.5412(5) 0.5772(4) -0.4102(4)
C1A C -0.2107(7) 0.8425(6) -0.1146(5)
C2A C -0.1291(7) 0.8326(6) -0.2130(6)
C3A C -0.2832(7) 0.6206(5) -0.3369(6)
C4A C -0.3714(7) 0.7099(5) -0.3112(6)
C5A C -0.0448(7) 1.0432(5) 0.0141(6)
C6A C 0.5458(8) 1.4982(7) 0.4502(5)
#END
