
#######################################################################
#
#                 Cambridge Crystallographic Data Centre
#                                CCDC
#
#######################################################################
#
# If this CIF has been generated from an entry in the Cambridge
# Structural Database, then it will include bibliographic, chemical,
# crystal, experimental, refinement or atomic coordinate data resulting
# from the CCDC's data processing and validation procedures.
#
#######################################################################

data_CSD_CIF_HICKOU01
_audit_creation_date 2007-07-25
_audit_creation_method CSD-ConQuest-V1
_database_code_CSD HICKOU01
_database_code_depnum_ccdc_archive 'CCDC 647063'
_chemical_formula_sum 'C8 H16 Cl2 Fe1 N1 O4'
_chemical_formula_moiety
;
(C2 Cl2 Fe1 O4 1-)n,n(C6 H16 N1 1+)
;
_journal_coden_Cambridge 9
_journal_volume 46
_journal_year 2007
_journal_page_first 3089
_journal_name_full 'Inorg.Chem. '
loop_
_publ_author_name
"Hong-Bin Xu"
"Zhe-Ming Wang"
"Tao Liu"
"Song Gao"
_chemical_name_systematic
;
catena-(Triethylammonium (\m~2~-oxalato)-dichloro-iron(iii))
;
_cell_volume   5583.159
_exptl_crystal_colour 'yellow-green'
_exptl_crystal_density_diffrn 1.508
_exptl_special_details
;
magnetic properties
orthorhombic polymorph

;
_exptl_crystal_description 'block'
_diffrn_ambient_temperature 293
#These two values have been output from a single CSD field.
_refine_ls_R_factor_gt 0.0403
_refine_ls_wR_factor_gt 0.0403
_symmetry_cell_setting orthorhombic
_symmetry_space_group_name_H-M 'F d d 2'
_symmetry_Int_Tables_number 43
loop_
_symmetry_equiv_pos_site_id
_symmetry_equiv_pos_as_xyz
1 x,y,z
2 -x,-y,z
3 1/4+x,1/4-y,1/4+z
4 1/4-x,1/4+y,1/4+z
5 x,1/2+y,1/2+z
6 -x,1/2-y,1/2+z
7 1/4+x,3/4-y,3/4+z
8 1/4-x,3/4+y,3/4+z
9 1/2+x,y,1/2+z
10 1/2-x,-y,1/2+z
11 3/4+x,1/4-y,3/4+z
12 3/4-x,1/4+y,3/4+z
13 1/2+x,1/2+y,z
14 1/2-x,1/2-y,z
15 3/4+x,3/4-y,1/4+z
16 3/4-x,3/4+y,1/4+z
_cell_length_a 13.5878(3)
_cell_length_b 37.972(1)
_cell_length_c 10.8210(2)
_cell_angle_alpha 90
_cell_angle_beta 90
_cell_angle_gamma 90
_cell_formula_units_Z 16
loop_
_atom_type_symbol
_atom_type_radius_bond
C 0.68
H 0.23
Cl 0.99
Fe 1.34
N 0.68
O 0.68
loop_
_atom_site_label
_atom_site_type_symbol
_atom_site_fract_x
_atom_site_fract_y
_atom_site_fract_z
Fe1 Fe 0.28815(4) 0.081310(14) 0.05066(5)
Cl1 Cl 0.39496(8) 0.04033(3) -0.02201(10)
Cl2 Cl 0.16814(9) 0.04468(3) 0.11287(11)
O1 O 0.1928(2) 0.12606(8) 0.0819(2)
O2 O 0.2385(2) 0.09169(7) -0.1233(2)
N1 N 0.2839(3) -0.03808(11) 0.0700(4)
H1 H 0.27100 -0.01480 0.05830
C1 C 0.3699(4) -0.04025(16) 0.1581(5)
H2 H 0.37600 -0.06440 0.18660
H3 H 0.42950 -0.03440 0.11340
C2 C 0.3368(5) -0.09193(17) -0.0569(6)
H4 H 0.35350 -0.09900 -0.13950
H5 H 0.28060 -0.10510 -0.02930
H6 H 0.39150 -0.09650 -0.00300
C3 C 0.1915(4) -0.0545(2) 0.1179(6)
H7 H 0.20220 -0.07960 0.12730
H8 H 0.17760 -0.04490 0.19910
C4 C 0.3625(4) -0.01751(16) 0.2642(5)
H9 H 0.41960 -0.02050 0.31540
H10 H 0.30460 -0.02340 0.31050
H11 H 0.35850 0.00650 0.23740
C5 C 0.3131(4) -0.05315(19) -0.0553(5)
H12 H 0.25970 -0.04890 -0.11290
H13 H 0.37010 -0.04030 -0.08510
C6 C 0.1039(3) -0.04894(17) 0.0375(6)
H14 H 0.04760 -0.06010 0.07400
H15 H 0.11600 -0.05890 -0.04260
H16 H 0.09150 -0.02420 0.02920
C7 C 0.1795(3) 0.11687(11) -0.1328(4)
O3 O 0.1403(2) 0.12759(7) -0.2306(2)
C8 C 0.1527(3) 0.13628(11) -0.0139(4)
O4 O 0.09304(19) 0.16157(7) -0.0263(3)
Fe1J Fe 0.03815(4) 0.168690(14) -0.19934(5)
O3B O 0.3903(2) 0.12241(7) 0.0194(2)
O4B O 0.34304(19) 0.08843(7) 0.2237(3)
#END
