
#######################################################################
#
#                 Cambridge Crystallographic Data Centre
#                                CCDC
#
#######################################################################
#
# If this CIF has been generated from an entry in the Cambridge
# Structural Database, then it will include bibliographic, chemical,
# crystal, experimental, refinement or atomic coordinate data resulting
# from the CCDC's data processing and validation procedures.
#
#######################################################################

data_CSD_CIF_HICKUA01
_audit_creation_date 2008-12-11
_audit_creation_method CSD-ConQuest-V1
_database_code_CSD HICKUA01
_database_code_depnum_ccdc_archive 'CCDC 669730'
_chemical_formula_sum 'C12 H24 Cl4 Fe2 N2 O8'
_chemical_formula_moiety
;
(C4 H12 N1 1+)2n,n(C4 Cl4 Fe2 O8 2-)
;
_journal_coden_Cambridge 9
_journal_volume 47
_journal_year 2008
_journal_page_first 3772
_journal_name_full 'Inorg.Chem. '
loop_
_publ_author_name
"D.Armentano"
"T.F.Mastropietro"
"G.De Munno"
"P.Rossi"
"F.Lloret"
"M.Julve"
_chemical_name_systematic
;
catena-(bis(tetramethylammonium) bis(\m~2~-oxalato)-tetrachloro-di-iron(iii))
;
_cell_volume   1177.375
_exptl_crystal_colour 'yellow'
_exptl_crystal_density_diffrn 1.63
_exptl_special_details
;
antiferromagnetic
Low study temperature was employed to give a clear-cut answer to the 
occurrence of spin-canting
;
_exptl_crystal_description 'parallelepiped'
_diffrn_ambient_temperature 9
#These two values have been output from a single CSD field.
_refine_ls_R_factor_gt 0.0707
_refine_ls_wR_factor_gt 0.0707
_symmetry_cell_setting monoclinic
_symmetry_space_group_name_H-M 'P 21/c'
_symmetry_Int_Tables_number 14
loop_
_symmetry_equiv_pos_site_id
_symmetry_equiv_pos_as_xyz
1 x,y,z
2 -x,1/2+y,1/2-z
3 -x,-y,-z
4 x,-1/2-y,-1/2+z
_cell_length_a 7.8875(16)
_cell_length_b 8.5335(17)
_cell_length_c 17.496(4)
_cell_angle_alpha 90
_cell_angle_beta 91.17(3)
_cell_angle_gamma 90
_cell_formula_units_Z 2
loop_
_atom_type_symbol
_atom_type_radius_bond
C 0.68
H 0.23
Cl 0.99
Fe 1.34
N 0.68
O 0.68
loop_
_atom_site_label
_atom_site_type_symbol
_atom_site_fract_x
_atom_site_fract_y
_atom_site_fract_z
Fe1 Fe 0.41712(10) 0.24948(10) 0.40850(5)
Cl1 Cl 0.50191(19) 0.14850(19) 0.29814(9)
Cl2 Cl 0.15571(18) 0.34440(19) 0.37361(9)
O1 O 0.3799(5) 0.3379(5) 0.5228(2)
O2 O 0.6296(5) 0.1492(5) 0.4668(2)
O3 O 0.4523(5) 0.5462(5) 0.5941(2)
O4 O 0.6905(5) -0.0498(5) 0.5461(2)
C1 C 0.5910(7) 0.0286(7) 0.5032(4)
C2 C 0.4508(7) 0.4661(8) 0.5345(3)
N1 N 0.0128(6) 0.2149(6) 0.6458(3)
C3 C -0.0188(7) 0.2480(7) 0.5630(3)
H1 H -0.06340 0.35210 0.55710
H2 H -0.09890 0.17370 0.54240
H3 H 0.08580 0.23960 0.53610
C4 C 0.0848(8) 0.0524(8) 0.6537(4)
H4 H 0.18950 0.04610 0.62680
H5 H 0.00560 -0.02210 0.63260
H6 H 0.10540 0.02940 0.70680
C5 C -0.1494(7) 0.2218(7) 0.6879(4)
H7 H -0.19650 0.32520 0.68370
H8 H -0.12820 0.19720 0.74080
H9 H -0.22800 0.14720 0.66630
C6 C 0.1353(7) 0.3297(8) 0.6790(3)
H10 H 0.08980 0.43360 0.67380
H11 H 0.24040 0.32310 0.65250
H12 H 0.15480 0.30670 0.73210
Fe1B Fe 0.58288(10) 0.75052(10) 0.59150(5)
Fe1B* Fe 0.58288(10) -0.24948(10) 0.59150(5)
Cl1B Cl 0.49809(19) 0.85150(19) 0.70186(9)
Cl2B Cl 0.84429(18) 0.65560(19) 0.62639(9)
O1B O 0.6201(5) 0.6621(5) 0.4772(2)
O2B O 0.3704(5) -0.1492(5) 0.5332(2)
O2B* O 0.3704(5) 0.8508(5) 0.5332(2)
O3B O 0.5477(5) 0.4538(5) 0.4059(2)
O4B O 0.3095(5) 0.0498(5) 0.4539(2)
O4* O 0.6905(5) 0.9502(5) 0.5461(2)
C1B C 0.4090(7) -0.0286(7) 0.4968(4)
C2B C 0.5492(7) 0.5339(8) 0.4655(3)
#END
