
#######################################################################
#
#                 Cambridge Crystallographic Data Centre
#                                CCDC
#
#######################################################################
#
# If this CIF has been generated from an entry in the Cambridge
# Structural Database, then it will include bibliographic, chemical,
# crystal, experimental, refinement or atomic coordinate data resulting
# from the CCDC's data processing and validation procedures.
#
#######################################################################

data_CSD_CIF_HICKUA
_audit_creation_date 2007-07-25
_audit_creation_method CSD-ConQuest-V1
_database_code_CSD HICKUA
_database_code_depnum_ccdc_archive 'CCDC 647064'
_chemical_formula_sum 'C12 H24 Cl4 Fe2 N2 O8'
_chemical_formula_moiety
;
(C4 Cl4 Fe2 O8 2-)n,2n(C4 H12 N1 1+)
;
_journal_coden_Cambridge 9
_journal_volume 46
_journal_year 2007
_journal_page_first 3089
_journal_name_full 'Inorg.Chem. '
loop_
_publ_author_name
"Hong-Bin Xu"
"Zhe-Ming Wang"
"Tao Liu"
"Song Gao"
_chemical_name_systematic
;
catena-(bis(Tetramethylammonium) bis(\m~2~-oxalato)-tetrachloro-di-iron(iii))
;
_cell_volume   1218.466
_exptl_crystal_colour 'pale green'
_exptl_crystal_density_diffrn 1.575
_exptl_special_details
;
magnetic properties

;
_exptl_crystal_description 'block'
_diffrn_ambient_temperature 293
#These two values have been output from a single CSD field.
_refine_ls_R_factor_gt 0.034
_refine_ls_wR_factor_gt 0.034
_symmetry_cell_setting monoclinic
_symmetry_space_group_name_H-M 'P 21/c'
_symmetry_Int_Tables_number 14
loop_
_symmetry_equiv_pos_site_id
_symmetry_equiv_pos_as_xyz
1 x,y,z
2 -x,1/2+y,1/2-z
3 -x,-y,-z
4 x,-1/2-y,-1/2+z
_cell_length_a 7.9441(3)
_cell_length_b 8.6093(3)
_cell_length_c 17.8251(7)
_cell_angle_alpha 90
_cell_angle_beta 91.869(2)
_cell_angle_gamma 90
_cell_formula_units_Z 2
loop_
_atom_type_symbol
_atom_type_radius_bond
C 0.68
H 0.23
Cl 0.99
Fe 1.34
N 0.68
O 0.68
loop_
_atom_site_label
_atom_site_type_symbol
_atom_site_fract_x
_atom_site_fract_y
_atom_site_fract_z
Fe1 Fe 0.08054(4) 0.25055(4) 0.089232(17)
Cl1 Cl 0.33933(9) 0.15900(8) 0.12616(4)
Cl2 Cl -0.00505(9) 0.34847(9) 0.19698(4)
O1 O 0.1191(2) 0.16054(19) -0.02215(8)
O2 O -0.1289(2) 0.35132(19) 0.03001(9)
O3 O -0.1880(2) 0.55240(18) -0.04566(8)
O4 O 0.0499(2) -0.04844(19) -0.09122(8)
C1 C 0.0492(3) 0.0327(3) -0.03286(12)
C2 C -0.0915(3) 0.4723(3) -0.00423(12)
N1 N -0.5174(3) 0.2138(2) 0.35545(11)
C3 C -0.6356(4) 0.3305(3) 0.32234(14)
H1 H -0.73850 0.32930 0.34910
H2 H -0.65900 0.30590 0.27050
H3 H -0.58560 0.43190 0.32600
C4 C -0.4813(4) 0.2516(3) 0.43548(13)
H4 H -0.58410 0.24870 0.46230
H5 H -0.43300 0.35360 0.43930
H6 H -0.40360 0.17700 0.45670
C5 C -0.3590(4) 0.2173(3) 0.31405(18)
H7 H -0.31090 0.31950 0.31710
H8 H -0.38230 0.19120 0.26240
H9 H -0.28110 0.14340 0.33580
C6 C -0.5935(5) 0.0572(3) 0.34913(19)
H10 H -0.69570 0.05450 0.37640
H11 H -0.51600 -0.01840 0.36960
H12 H -0.61820 0.03390 0.29730
Fe1B Fe -0.08054(4) -0.25055(4) -0.089232(17)
Fe1B* Fe -0.08054(4) 0.74945(4) -0.089232(17)
Cl1B Cl -0.33933(9) -0.15900(8) -0.12616(4)
Cl2B Cl 0.00505(9) -0.34847(9) -0.19698(4)
O1B O -0.1191(2) -0.16054(19) 0.02215(8)
O2B O 0.1289(2) 0.64868(19) -0.03001(9)
O2B* O 0.1289(2) -0.35132(19) -0.03001(9)
O3B O 0.1880(2) 0.44760(18) 0.04566(8)
O3* O -0.1880(2) -0.44760(18) -0.04566(8)
O4B O -0.0499(2) 0.04844(19) 0.09122(8)
C1B C -0.0492(3) -0.0327(3) 0.03286(12)
C2B C 0.0915(3) 0.5277(3) 0.00423(12)
#END
