
#######################################################################
#
#                 Cambridge Crystallographic Data Centre
#                                CCDC
#
#######################################################################
#
# If this CIF has been generated from an entry in the Cambridge
# Structural Database, then it will include bibliographic, chemical,
# crystal, experimental, refinement or atomic coordinate data resulting
# from the CCDC's data processing and validation procedures.
#
#######################################################################

data_CSD_CIF_HICLAH
_audit_creation_date 2007-07-25
_audit_creation_method CSD-ConQuest-V1
_database_code_CSD HICLAH
_database_code_depnum_ccdc_archive 'CCDC 647065'
_chemical_formula_sum 'C36 H72 Cl4 Fe2 N2 O8'
_chemical_formula_moiety
;
(C4 Cl4 Fe2 O8 2-)n,2n(C16 H36 N1 1+)
;
_journal_coden_Cambridge 9
_journal_volume 46
_journal_year 2007
_journal_page_first 3089
_journal_name_full 'Inorg.Chem. '
loop_
_publ_author_name
"Hong-Bin Xu"
"Zhe-Ming Wang"
"Tao Liu"
"Song Gao"
_chemical_name_systematic
;
catena-(bis(Tetra-n-butylammonium) 
bis(\m~2~-oxalato)-tetrachloro-di-iron(iii))
;
_cell_volume   2424.431
_exptl_crystal_colour 'yellow'
_exptl_crystal_density_diffrn 1.253
_exptl_special_details
;
magnetic properties

;
_exptl_crystal_description 'needle'
_diffrn_ambient_temperature 293
#These two values have been output from a single CSD field.
_refine_ls_R_factor_gt 0.0613
_refine_ls_wR_factor_gt 0.0613
_symmetry_cell_setting monoclinic
_symmetry_space_group_name_H-M 'P 21/c'
_symmetry_Int_Tables_number 14
loop_
_symmetry_equiv_pos_site_id
_symmetry_equiv_pos_as_xyz
1 x,y,z
2 -x,1/2+y,1/2-z
3 -x,-y,-z
4 x,-1/2-y,-1/2+z
_cell_length_a 8.8836(4)
_cell_length_b 15.1939(8)
_cell_length_c 17.9685(12)
_cell_angle_alpha 90
_cell_angle_beta 91.556(2)
_cell_angle_gamma 90
_cell_formula_units_Z 2
loop_
_atom_type_symbol
_atom_type_radius_bond
C 0.68
H 0.23
Cl 0.99
Fe 1.34
N 0.68
O 0.68
loop_
_atom_site_label
_atom_site_type_symbol
_atom_site_fract_x
_atom_site_fract_y
_atom_site_fract_z
Fe1 Fe 0.24497(9) 0.02455(6) 0.91276(5)
Cl1 Cl 0.15407(19) -0.03637(13) 0.80686(10)
Cl2 Cl 0.34419(19) 0.14890(13) 0.86534(11)
C1 C 0.0497(8) -0.2812(5) 0.7900(4)
H1 H 0.03420 -0.22200 0.77110
H2 H 0.11340 -0.27740 0.83460
C2 C -0.3068(8) -0.1641(5) 0.7647(5)
H3 H -0.25170 -0.19100 0.72470
H4 H -0.40280 -0.19400 0.76810
C3 C -0.0983(8) -0.3200(4) 0.8093(4)
H5 H -0.08080 -0.37820 0.83010
H6 H -0.15830 -0.32720 0.76380
C4 C 0.0250(8) -0.0463(4) 1.0086(4)
C5 C -0.2181(7) -0.1738(4) 0.8373(4)
H7 H -0.12170 -0.14490 0.83200
H8 H -0.27150 -0.14260 0.87560
C6 C -0.1082(8) -0.2601(5) 0.9395(4)
H9 H -0.16950 -0.22450 0.97160
H10 H -0.01460 -0.22850 0.93270
C7 C 0.4716(8) 0.0309(4) 1.0298(4)
C8 C -0.0712(8) -0.3453(5) 0.9800(5)
H11 H -0.16010 -0.38240 0.98070
H12 H 0.00660 -0.37670 0.95400
C9 C -0.448(1) -0.2732(5) 0.9258(5)
H13 H -0.39300 -0.25620 0.97100
H14 H -0.49040 -0.22040 0.90340
C10 C -0.3389(8) -0.3156(4) 0.8718(4)
H15 H -0.38820 -0.31930 0.82310
H16 H -0.31770 -0.37520 0.88840
C11 C -0.3323(10) -0.0697(6) 0.7481(5)
H17 H -0.37410 -0.04180 0.79150
H18 H -0.23600 -0.04210 0.73910
C12 C -0.0179(9) -0.3264(6) 1.0584(5)
H19 H -0.09600 -0.29510 1.08440
H20 H 0.07050 -0.28900 1.05760
C13 C 0.2695(9) -0.3017(6) 0.7080(5)
H21 H 0.30930 -0.34190 0.67240
H22 H 0.33890 -0.29630 0.74970
H23 H 0.25490 -0.24510 0.68520
C14 C 0.1266(9) -0.3345(6) 0.7335(5)
H24 H 0.14290 -0.39300 0.75380
H25 H 0.05890 -0.34040 0.69050
C15 C 0.0204(10) -0.4113(6) 1.1000(5)
H26 H 0.05350 -0.39770 1.14990
H27 H 0.09920 -0.44170 1.07490
H28 H -0.06740 -0.44810 1.10110
C16 C -0.4313(11) -0.0542(6) 0.6851(6)
H29 H -0.44390 0.00810 0.67810
H30 H -0.52740 -0.08070 0.69370
H31 H -0.38890 -0.07940 0.64150
C17 C -0.5700(14) -0.3330(9) 0.9449(8)
H32 H -0.64760 -0.32410 0.90670
H33 H -0.53060 -0.39170 0.93690
C18 C -0.6255(19) -0.3366(19) 0.9935(9)
H34 H -0.69370 -0.38560 0.99170
H35 H -0.68100 -0.28320 1.00070
H36 H -0.55420 -0.34440 1.03410
O1 O 0.1423(4) -0.0741(3) 0.9793(2)
O2 O 0.3416(4) 0.0622(3) 1.0185(2)
O3 O 0.5592(4) 0.0481(3) 1.0829(2)
O4 O -0.0574(4) -0.0899(3) 1.0533(3)
N1 N -0.1891(6) -0.2665(4) 0.8643(3)
Fe1B Fe -0.24497(9) -0.02455(6) 1.08724(5)
Fe1B* Fe 0.75503(9) -0.02455(6) 1.08724(5)
Cl1B Cl -0.15407(19) 0.03637(13) 1.19314(10)
Cl2B Cl -0.34419(19) -0.14890(13) 1.13466(11)
C4B C -0.0250(8) 0.0463(4) 0.9914(4)
C7B C 0.5284(8) -0.0309(4) 0.9702(4)
O1B O -0.1423(4) 0.0741(3) 1.0207(2)
O2B O 0.6584(4) -0.0622(3) 0.9815(2)
O2B* O -0.3416(4) -0.0622(3) 0.9815(2)
O3B O 0.4408(4) -0.0481(3) 0.9171(2)
O3* O -0.4408(4) 0.0481(3) 1.0829(2)
O4B O 0.0574(4) 0.0899(3) 0.9467(3)
#END
