
#######################################################################
#
#                 Cambridge Crystallographic Data Centre
#                                CCDC
#
#######################################################################
#
# If this CIF has been generated from an entry in the Cambridge
# Structural Database, then it will include bibliographic, chemical,
# crystal, experimental, refinement or atomic coordinate data resulting
# from the CCDC's data processing and validation procedures.
#
#######################################################################

data_CSD_CIF_HICZEA
_audit_creation_date 2013-06-17
_audit_creation_method CSD-ConQuest-V1
_database_code_CSD HICZEA
_database_code_depnum_ccdc_archive 'CCDC 922047'
_chemical_formula_sum 'C38 H38 N2 O21 Pr2'
_chemical_formula_moiety
;
(C34 H16 O18 Pr2 2-)n,2n(C2 H8 N1 1+),3n(H2 O1)
;
_journal_coden_Cambridge 222
_journal_volume 42
_journal_year 2013
_journal_page_first 10579
_journal_name_full 'Dalton Trans. '
loop_
_publ_author_name
"Ming-Li Ma"
"Can Ji"
"Shuang-Quan Zang"
_chemical_name_systematic
;
catena-[bis(dimethylammonium) 
bis(\m~6~-5-[(3,5-dicarboxylatobenzyl)oxy]benzene-1,3-dicarboxylato)-di-praseo
dymium trihydrate]
;
_cell_volume   4120.355
_exptl_crystal_colour 'colorless'
_exptl_crystal_density_diffrn 1.839
_exptl_crystal_description 'prism'
_diffrn_ambient_temperature 296
_refine_special_details
;
The structure is disordered by symmetry.

;
#These two values have been output from a single CSD field.
_refine_ls_R_factor_gt 0.0659
_refine_ls_wR_factor_gt 0.0659
_symmetry_cell_setting orthorhombic
_symmetry_space_group_name_H-M 'C 2 2 21'
_symmetry_Int_Tables_number 20
loop_
_symmetry_equiv_pos_site_id
_symmetry_equiv_pos_as_xyz
1 x,y,z
2 -x,-y,1/2+z
3 x,-y,-z
4 -x,y,1/2-z
5 1/2+x,1/2+y,z
6 1/2-x,1/2-y,1/2+z
7 1/2+x,1/2-y,-z
8 1/2-x,1/2+y,1/2-z
_cell_length_a 14.6650(12)
_cell_length_b 16.7949(10)
_cell_length_c 16.7292(9)
_cell_angle_alpha 90
_cell_angle_beta 90
_cell_angle_gamma 90
_cell_formula_units_Z 4
loop_
_atom_type_symbol
_atom_type_radius_bond
C 0.68
H 0.23
N 0.68
O 0.68
Pr 2.03
loop_
_atom_site_label
_atom_site_type_symbol
_atom_site_fract_x
_atom_site_fract_y
_atom_site_fract_z
Pr1 Pr 1.00000 0.33163(5) 0.25000
Pr2 Pr 0.83765(6) 0.50000 0.00000
O1 O 0.9486(9) 0.4016(8) 0.0226(5)
O2 O 1.0460(6) 0.3545(5) 0.1129(5)
O3 O 1.2292(10) 0.1147(9) 0.0332(8)
O4 O 1.2232(11) 0.0745(9) -0.0857(8)
C1 C 1.0392(10) 0.2712(9) -0.2390(11)
H1 H 1.06120 0.23560 -0.25800
H2 H 1.06710 0.31740 -0.26240
O5 O 0.8685(6) 0.5351(5) 0.1379(5)
O6 O 0.8950(8) 0.4356(7) 0.2219(6)
O7 O 0.5701(10) 0.7210(9) 0.3347(8)
O8 O 0.6451(8) 0.7506(6) 0.2259(6)
C2 C 0.7771(10) 0.5355(9) 0.4880(11)
H3 H 0.73500 0.55620 0.51020
H4 H 0.83130 0.55890 0.51000
C3 C 1.0107(13) 0.3569(8) 0.0434(8)
C4 C 1.2004(14) 0.1233(12) -0.0366(11)
C5 C 1.0501(9) 0.3064(8) -0.0192(7)
C6 C 1.1085(8) 0.2428(7) 0.0028(11)
H5 H 1.12380 0.23510 0.05620
C7 C 1.1427(10) 0.1922(10) -0.0555(8)
C8 C 1.1182(13) 0.2071(11) -0.1356(9)
H6 H 1.13710 0.17160 -0.17480
C9 C 1.0664(13) 0.2733(11) -0.1582(11)
C10 C 1.0255(10) 0.3155(11) -0.0968(9)
H7 H 0.97940 0.35150 -0.10930
C11 C 0.8625(9) 0.5033(10) 0.2057(7)
C12 C 0.6334(11) 0.7065(9) 0.2878(8)
C13 C 0.8129(10) 0.5459(7) 0.2686(7)
C14 C 0.7542(9) 0.6067(7) 0.2490(11)
H8 H 0.75000 0.62380 0.19630
C15 C 0.7010(11) 0.6430(9) 0.3078(8)
C16 C 0.7138(14) 0.6190(11) 0.3888(9)
H9 H 0.68190 0.64060 0.42530
C17 C 0.7763(13) 0.5622(11) 0.409(1)
C18 C 0.8229(13) 0.5197(10) 0.3482(9)
H10 H 0.85900 0.47580 0.36040
O9 O 0.0458(18) 0.0724(16) 0.1240(18)
H11 H 0.01490 0.11450 0.13450
H12 H 0.08930 0.08710 0.10610
O10 O 0.979(4) 0.00000 0.00000
H13 H 0.99380 0.02280 0.03630
O11 O 1.00000 0.971(4) 0.25000
H14 H 0.98600 1.00240 0.28800
N1 N 0.204(2) 0.2135(15) 0.6423(15)
H15 H 0.18110 0.23330 0.67310
H16 H 0.26290 0.22910 0.64420
C19 C 0.166(3) 0.2385(18) 0.5664(18)
H17 H 0.18920 0.21090 0.52880
H18 H 0.17990 0.29370 0.55760
H19 H 0.10140 0.23110 0.56730
C20 C 0.201(3) 0.1286(17) 0.6579(19)
H20 H 0.22670 0.11770 0.70940
H21 H 0.22810 0.10590 0.62510
H22 H 0.13830 0.11130 0.65710
O12? O 1.0392(10) 0.2712(9) -0.2390(11)
O13? O 0.7771(10) 0.5355(9) 0.4880(11)
O1C O 1.0514(9) 0.4016(8) -0.5226(5)
O2C O 0.9540(6) 0.3545(5) -0.6129(5)
O3C O 0.7708(10) 0.1147(9) -0.5332(8)
O4C O 0.7768(11) 0.0745(9) -0.4143(8)
C1C C 0.9608(10) 0.2712(9) -0.2610(11)
H1C H 0.93880 0.23560 -0.24200
H2C H 0.93290 0.31740 -0.23760
C3C C 0.9893(13) 0.3569(8) -0.5434(8)
C4C C 0.7996(14) 0.1233(12) -0.4634(11)
C5C C 0.9499(9) 0.3064(8) -0.4808(7)
C6C C 0.8915(8) 0.2428(7) -0.5028(11)
H5C H 0.87620 0.23510 -0.55620
C7C C 0.8573(10) 0.1922(10) -0.4445(8)
C8C C 0.8818(13) 0.2071(11) -0.3644(9)
H6C H 0.86290 0.17160 -0.32520
C9C C 0.9336(13) 0.2733(11) -0.3418(11)
C10C C 0.9745(10) 0.3155(11) -0.4032(9)
H7C H 1.02060 0.35150 -0.39070
O5B O 0.8685(6) 0.4649(5) 0.8621(5)
O6B O 0.8950(8) 0.5644(7) 0.7781(6)
O7B O 0.5701(10) 0.2790(9) 0.6653(8)
O8B O 0.6451(8) 0.2494(6) 0.7741(6)
C2B C 0.7771(10) 0.4645(9) 0.5120(11)
H3B H 0.73500 0.44380 0.48980
H4B H 0.83130 0.44110 0.49000
C11B C 0.8625(9) 0.4967(10) 0.7943(7)
C12B C 0.6334(11) 0.2935(9) 0.7122(8)
C13B C 0.8129(10) 0.4541(7) 0.7314(7)
C14B C 0.7542(9) 0.3933(7) 0.7510(11)
H8B H 0.75000 0.37620 0.80370
C15B C 0.7010(11) 0.3570(9) 0.6922(8)
C16B C 0.7138(14) 0.3810(11) 0.6112(9)
H9B H 0.68190 0.35940 0.57470
C17B C 0.7763(13) 0.4378(11) 0.591(1)
C18B C 0.8229(13) 0.4803(10) 0.6518(9)
H10B H 0.85900 0.52420 0.63960
Pr1* Pr 1.00000 0.33163(5) -0.75000
Pr1A Pr 1.00000 0.66837(5) 0.75000
Pr1D Pr 0.50000 0.83163(5) 0.25000
Pr1E Pr 0.50000 0.16837(5) 0.75000
Pr2* Pr 0.83765(6) 0.50000 1.00000
Pr2A Pr 1.16235(6) 0.50000 -0.50000
Pr2D Pr 1.33765(6) 0.00000 0.00000
Pr2E Pr 0.66235(6) 0.00000 -0.50000
O1B O 0.9486(9) 0.5984(8) -0.0226(5)
O2C* O 0.9540(6) 0.3545(5) 0.3871(5)
O3D O 0.7292(10) 0.6147(9) 0.0332(8)
O3F O 0.7292(10) 0.3853(9) -0.0332(8)
O4D O 0.7232(11) 0.5745(9) -0.0857(8)
O4F O 0.7232(11) 0.4255(9) 0.0857(8)
O5B* O 0.8685(6) 0.4649(5) -0.1379(5)
O6C O 1.1050(8) 0.4356(7) 0.2781(6)
O7D O 1.0701(10) 0.2210(9) 0.3347(8)
O7G O 0.9299(10) 0.2210(9) 0.1653(8)
O8D O 1.1451(8) 0.2506(6) 0.2259(6)
O8G O 0.8549(8) 0.2506(6) 0.2741(6)
H13B H 0.99380 -0.02280 -0.03630
H14C H 1.01400 1.00240 0.21200
#END
