
#######################################################################
#
#                 Cambridge Crystallographic Data Centre
#                                CCDC
#
#######################################################################
#
# If this CIF has been generated from an entry in the Cambridge
# Structural Database, then it will include bibliographic, chemical,
# crystal, experimental, refinement or atomic coordinate data resulting
# from the CCDC's data processing and validation procedures.
#
#######################################################################

data_CSD_CIF_HICZIE
_audit_creation_date 2013-06-17
_audit_creation_method CSD-ConQuest-V1
_database_code_CSD HICZIE
_database_code_depnum_ccdc_archive 'CCDC 922046'
_chemical_formula_sum 'C38 H38 Gd2 N2 O21'
_chemical_formula_moiety
;
(C34 H16 Gd2 O18 2-)n,2n(C2 H8 N1 1+),3n(H2 O1)
;
_journal_coden_Cambridge 222
_journal_volume 42
_journal_year 2013
_journal_page_first 10579
_journal_name_full 'Dalton Trans. '
loop_
_publ_author_name
"Ming-Li Ma"
"Can Ji"
"Shuang-Quan Zang"
_chemical_name_systematic
;
catena-[bis(dimethylammonium) 
bis(\m~6~-5-[(3,5-dicarboxylatobenzyl)oxy]benzene-1,3-dicarboxylato)-di-gadoli
nium trihydrate]
;
_cell_volume   3994.732
_exptl_crystal_colour 'colorless'
_exptl_crystal_density_diffrn 1.951
_exptl_crystal_description 'prism'
_diffrn_ambient_temperature 296
_refine_special_details
;
The structure is disordered by symmetry.

;
#These two values have been output from a single CSD field.
_refine_ls_R_factor_gt 0.0528
_refine_ls_wR_factor_gt 0.0528
_symmetry_cell_setting orthorhombic
_symmetry_space_group_name_H-M 'C 2 2 21'
_symmetry_Int_Tables_number 20
loop_
_symmetry_equiv_pos_site_id
_symmetry_equiv_pos_as_xyz
1 x,y,z
2 -x,-y,1/2+z
3 x,-y,-z
4 -x,y,1/2-z
5 1/2+x,1/2+y,z
6 1/2-x,1/2-y,1/2+z
7 1/2+x,1/2-y,-z
8 1/2-x,1/2+y,1/2-z
_cell_length_a 14.6484(8)
_cell_length_b 16.4358(7)
_cell_length_c 16.5923(8)
_cell_angle_alpha 90
_cell_angle_beta 90
_cell_angle_gamma 90
_cell_formula_units_Z 4
loop_
_atom_type_symbol
_atom_type_radius_bond
C 0.68
H 0.23
Gd 1.96
N 0.68
O 0.68
loop_
_atom_site_label
_atom_site_type_symbol
_atom_site_fract_x
_atom_site_fract_y
_atom_site_fract_z
Gd1 Gd 0.83793(5) 1.00000 0.50000
Gd2 Gd 1.00000 0.83214(5) 0.75000
O1 O 0.9446(8) 0.9034(7) 0.5245(6)
O2 O 1.0435(6) 0.8563(5) 0.6156(5)
O3 O 1.2238(11) 0.5711(9) 0.4164(9)
O4 O 1.2349(10) 0.6164(8) 0.5348(8)
C1 C 1.0352(9) 0.7670(9) 0.2634(11)
H1 H 1.06440 0.72030 0.24000
H2 H 1.06440 0.81360 0.24010
O5 O 0.8687(6) 1.0337(5) 0.6353(5)
O6 O 0.8978(9) 0.9340(7) 0.7228(6)
O7 O 0.6431(7) 1.2524(7) 0.7242(6)
O8 O 0.5678(10) 1.2226(8) 0.8329(7)
C2 C 0.7605(10) 1.0297(9) 0.9858(10)
H3 H 0.70250 1.05160 1.00160
H4 H 0.80470 1.05880 1.01740
C3 C 1.0085(12) 0.8591(9) 0.5454(8)
C4 C 1.2011(10) 0.6196(11) 0.466(1)
C5 C 1.0495(8) 0.8052(7) 0.4836(7)
C6 C 1.1095(7) 0.7427(7) 0.5052(11)
H5 H 1.12610 0.73540 0.55880
C7 C 1.1444(10) 0.6912(8) 0.4455(9)
C8 C 1.1216(12) 0.7054(12) 0.3671(11)
H6 H 1.14570 0.67220 0.32700
C9 C 1.0627(13) 0.7691(13) 0.3454(11)
C10 C 1.0240(9) 0.8148(10) 0.4036(9)
H7 H 0.97980 0.85300 0.39000
C11 C 0.8650(9) 1.0019(10) 0.7039(7)
C12 C 0.6274(10) 1.2070(7) 0.7868(8)
C13 C 0.8115(8) 1.0463(7) 0.7679(7)
C14 C 0.7540(8) 1.1081(6) 0.7473(10)
H8 H 0.75030 1.12570 0.69410
C15 C 0.701(1) 1.1445(7) 0.8069(8)
C16 C 0.7097(13) 1.1195(11) 0.8872(10)
H9 H 0.67700 1.13990 0.92180
C17 C 0.7728(12) 1.0610(11) 0.9089(11)
C18 C 0.8195(13) 1.0175(12) 0.8464(9)
H10 H 0.85410 0.97150 0.85790
O9 O 0.0460(17) 0.5662(15) 0.6236(19)
H11 H 0.01620 0.60560 0.63410
H12 H 0.09510 0.57850 0.59920
O10 O -0.044(4) 0.50000 0.50000
H13 H -0.01490 0.52120 0.53870
O11 O 0.00000 0.472(4) 0.75000
H14 H 0.01410 0.49640 0.71410
N1 N 0.7872(17) 0.2946(15) 0.6401(17)
H15 H 0.79920 0.26250 0.68280
H16 H 0.72660 0.29360 0.63130
C19 C 0.836(3) 0.2626(17) 0.5678(19)
H17 H 0.84400 0.30100 0.53430
H18 H 0.79960 0.22070 0.54340
H19 H 0.88720 0.24310 0.58180
C20 C 0.817(2) 0.3794(16) 0.6580(19)
H20 H 0.86660 0.39360 0.62330
H21 H 0.83530 0.38130 0.70970
H22 H 0.77320 0.41300 0.65120
O12? O 1.0352(9) 0.7670(9) 0.2634(11)
O13? O 0.7605(10) 1.0297(9) 0.9858(10)
O1C O 1.0554(8) 0.9034(7) -0.0245(6)
O2C O 0.9565(6) 0.8563(5) -0.1156(5)
O3C O 0.7762(11) 0.5711(9) 0.0836(9)
O4C O 0.7651(10) 0.6164(8) -0.0348(8)
C1C C 0.9648(9) 0.7670(9) 0.2366(11)
H1C H 0.93560 0.72030 0.26000
H2C H 0.93560 0.81360 0.25990
C3C C 0.9915(12) 0.8591(9) -0.0454(8)
C4C C 0.7989(10) 0.6196(11) 0.034(1)
C5C C 0.9505(8) 0.8052(7) 0.0164(7)
C6C C 0.8905(7) 0.7427(7) -0.0052(11)
H5C H 0.87390 0.73540 -0.05880
C7C C 0.8556(10) 0.6912(8) 0.0545(9)
C8C C 0.8784(12) 0.7054(12) 0.1329(11)
H6C H 0.85430 0.67220 0.17300
C9C C 0.9373(13) 0.7691(13) 0.1546(11)
C10C C 0.9760(9) 0.8148(10) 0.0964(9)
H7C H 1.02020 0.85300 0.11000
O5B O 0.8687(6) 0.9663(5) 1.3647(5)
O6B O 0.8978(9) 1.0660(7) 1.2772(6)
O7B O 0.6431(7) 0.7476(7) 1.2758(6)
O8B O 0.5678(10) 0.7774(8) 1.1671(7)
C2B C 0.7605(10) 0.9703(9) 1.0142(10)
H3B H 0.70250 0.94840 0.99840
H4B H 0.80470 0.94120 0.98260
C11B C 0.8650(9) 0.9981(10) 1.2961(7)
C12B C 0.6274(10) 0.7930(7) 1.2132(8)
C13B C 0.8115(8) 0.9537(7) 1.2321(7)
C14B C 0.7540(8) 0.8919(6) 1.2527(10)
H8B H 0.75030 0.87430 1.30590
C15B C 0.701(1) 0.8555(7) 1.1931(8)
C16B C 0.7097(13) 0.8805(11) 1.1128(10)
H9B H 0.67700 0.86010 1.07820
C17B C 0.7728(12) 0.9390(11) 1.0911(11)
C18B C 0.8195(13) 0.9825(12) 1.1536(9)
H10B H 0.85410 1.02850 1.14210
Gd1* Gd 0.83793(5) 1.00000 1.50000
Gd1A Gd 1.16207(5) 1.00000 0.00000
Gd1D Gd 1.33793(5) 0.50000 0.50000
Gd1E Gd 0.66207(5) 0.50000 0.00000
Gd2* Gd 1.00000 0.83214(5) -0.25000
Gd2A Gd 1.00000 1.16786(5) 1.25000
Gd2D Gd 0.50000 1.33214(5) 0.75000
Gd2E Gd 0.50000 0.66786(5) 1.25000
O1B O 0.9446(8) 1.0966(7) 0.4755(6)
O2C* O 0.9565(6) 0.8563(5) 0.8844(5)
O3D O 0.7238(11) 1.0711(9) 0.4164(9)
O3F O 0.7238(11) 0.9289(9) 0.5836(9)
O4D O 0.7349(10) 1.1164(8) 0.5348(8)
O4F O 0.7349(10) 0.8836(8) 0.4652(8)
O5B* O 0.8687(6) 0.9663(5) 0.3647(5)
O6C O 1.1022(9) 0.9340(7) 0.7772(6)
O7D O 1.1431(7) 0.7524(7) 0.7242(6)
O7G O 0.8569(7) 0.7524(7) 0.7758(6)
O8D O 1.0678(10) 0.7226(8) 0.8329(7)
O8G O 0.9322(10) 0.7226(8) 0.6671(7)
H13B H -0.01490 0.47880 0.46130
H14C H -0.01410 0.49640 0.78590
#END
