
#######################################################################
#
#                 Cambridge Crystallographic Data Centre
#                                CCDC
#
#######################################################################
#
# If this CIF has been generated from an entry in the Cambridge
# Structural Database, then it will include bibliographic, chemical,
# crystal, experimental, refinement or atomic coordinate data resulting
# from the CCDC's data processing and validation procedures.
#
#######################################################################

data_CSD_CIF_HICZAW
_audit_creation_date 2013-06-17
_audit_creation_method CSD-ConQuest-V1
_database_code_CSD HICZAW
_database_code_depnum_ccdc_archive 'CCDC 922048'
_chemical_formula_sum 'C38 H38 N2 O21 Sm2'
_chemical_formula_moiety
;
(C34 H16 O18 Sm2 2-)n,2n(C2 H8 N1 1+),3n(H2 O1)
;
_journal_coden_Cambridge 222
_journal_volume 42
_journal_year 2013
_journal_page_first 10579
_journal_name_full 'Dalton Trans. '
loop_
_publ_author_name
"Ming-Li Ma"
"Can Ji"
"Shuang-Quan Zang"
_chemical_name_systematic
;
catena-[bis(dimethylammonium) 
bis(\m~6~-5-[(3,5-dicarboxylatobenzyl)oxy]benzene-1,3-dicarboxylato)-di-samari
um trihydrate]
;
_cell_volume   4046.172
_exptl_crystal_colour 'colorless'
_exptl_crystal_density_diffrn 1.903
_exptl_crystal_description 'prism'
_diffrn_ambient_temperature 296
_refine_special_details
;
The structure is disordered by symmetry.

;
#These two values have been output from a single CSD field.
_refine_ls_R_factor_gt 0.0567
_refine_ls_wR_factor_gt 0.0567
_symmetry_cell_setting orthorhombic
_symmetry_space_group_name_H-M 'C 2 2 21'
_symmetry_Int_Tables_number 20
loop_
_symmetry_equiv_pos_site_id
_symmetry_equiv_pos_as_xyz
1 x,y,z
2 -x,-y,1/2+z
3 x,-y,-z
4 -x,y,1/2-z
5 1/2+x,1/2+y,z
6 1/2-x,1/2-y,1/2+z
7 1/2+x,1/2-y,-z
8 1/2-x,1/2+y,1/2-z
_cell_length_a 14.6026(4)
_cell_length_b 16.6301(4)
_cell_length_c 16.6617(5)
_cell_angle_alpha 90
_cell_angle_beta 90
_cell_angle_gamma 90
_cell_formula_units_Z 4
loop_
_atom_type_symbol
_atom_type_radius_bond
C 0.68
H 0.23
N 0.68
O 0.68
Sm 1.98
loop_
_atom_site_label
_atom_site_type_symbol
_atom_site_fract_x
_atom_site_fract_y
_atom_site_fract_z
Sm1 Sm 0.50000 0.16801(5) 0.75000
Sm2 Sm 0.66213(5) 0.00000 0.50000
O1 O 0.6316(6) -0.0343(5) 0.6362(5)
O2 O 0.6045(8) 0.0657(6) 0.7218(5)
O3 O 0.8554(7) -0.2514(6) 0.7253(6)
O4 O 0.9335(9) -0.2200(7) 0.8335(7)
O5 O 0.7338(10) -0.0298(8) 0.987(1)
H1 H 0.77990 -0.05060 1.00740
H2 H 0.68230 -0.05470 1.01270
O6 O 0.5541(8) 0.0960(7) 0.5235(6)
O7 O 0.4553(6) 0.1446(5) 0.6151(5)
O8 O 0.2742(10) 0.4265(8) 0.4155(8)
O9 O 0.2686(10) 0.3848(8) 0.5358(8)
O10 O 0.4637(9) 0.2316(8) 0.2622(11)
H3 H 0.43600 0.27770 0.23740
H4 H 0.43620 0.18510 0.23810
C1 C 0.6361(8) -0.0025(9) 0.7035(6)
C2 C 0.8695(11) -0.2053(8) 0.7871(8)
C3 C 0.6863(9) -0.0459(7) 0.7680(7)
C4 C 0.7461(9) -0.1088(7) 0.7491(11)
H5 H 0.74990 -0.12760 0.69660
C5 C 0.799(1) -0.1426(8) 0.8075(8)
C6 C 0.7877(13) -0.1198(11) 0.8879(9)
H6 H 0.81910 -0.14290 0.92420
C7 C 0.7269(15) -0.0612(11) 0.9084(10)
C8 C 0.6812(13) -0.0183(10) 0.8468(9)
H7 H 0.64810 0.02780 0.85890
C9 C 0.4899(11) 0.1426(7) 0.5437(7)
C10 C 0.2986(11) 0.3805(10) 0.4659(10)
C11 C 0.4506(8) 0.1941(7) 0.4827(7)
C12 C 0.3911(8) 0.2575(7) 0.5043(10)
H8 H 0.37530 0.26550 0.55780
C13 C 0.3556(11) 0.3087(8) 0.4442(9)
C14 C 0.3788(12) 0.2932(9) 0.3642(10)
H9 H 0.35490 0.32570 0.32390
C15 C 0.4359(13) 0.2313(13) 0.3438(10)
C16 C 0.4760(9) 0.1871(10) 0.4033(9)
H10 H 0.51820 0.15410 0.39090
O11 O 0.4557(15) 0.4314(13) 0.6243(16)
H11 H 0.48760 0.39010 0.63550
H12 H 0.40650 0.42030 0.59940
O12 O 0.518(4) 0.50000 0.50000
H13 H 0.49680 0.49950 0.54120
O13 O 0.50000 0.531(3) 0.75000
H14 H 0.48450 0.50290 0.70940
N1 N 0.7084(16) 0.7096(13) 0.6414(14)
H15 H 0.69040 0.73510 0.67890
H16 H 0.76950 0.71620 0.63830
C17 C 0.688(2) 0.6223(13) 0.6556(16)
H17 H 0.71770 0.59580 0.62510
H18 H 0.62410 0.61200 0.64710
H19 H 0.70410 0.60850 0.70970
C18 C 0.666(2) 0.7412(14) 0.5659(16)
H20 H 0.65880 0.70500 0.53490
H21 H 0.70490 0.78120 0.54240
H22 H 0.61710 0.76080 0.57620
C19? C 0.4637(9) 0.2316(8) 0.2622(11)
C20? C 0.7338(10) -0.0298(8) 0.987(1)
O1B O 0.6316(6) 0.0343(5) 1.3638(5)
O2B O 0.6045(8) -0.0657(6) 1.2782(5)
O3B O 0.8554(7) 0.2514(6) 1.2747(6)
O4B O 0.9335(9) 0.2200(7) 1.1665(7)
O5B O 0.7338(10) 0.0298(8) 1.013(1)
H1B H 0.77990 0.05060 0.99260
H2B H 0.68230 0.05470 0.98730
C1B C 0.6361(8) 0.0025(9) 1.2965(6)
C2B C 0.8695(11) 0.2053(8) 1.2129(8)
C3B C 0.6863(9) 0.0459(7) 1.2320(7)
C4B C 0.7461(9) 0.1088(7) 1.2509(11)
H5B H 0.74990 0.12760 1.30340
C5B C 0.799(1) 0.1426(8) 1.1925(8)
C6B C 0.7877(13) 0.1198(11) 1.1121(9)
H6B H 0.81910 0.14290 1.07580
C7B C 0.7269(15) 0.0612(11) 1.0916(10)
C8B C 0.6812(13) 0.0183(10) 1.1532(9)
H7B H 0.64810 -0.02780 1.14110
O6C O 0.4459(8) 0.0960(7) -0.0235(6)
O7C O 0.5447(6) 0.1446(5) -0.1151(5)
O8C O 0.7258(10) 0.4265(8) 0.0845(8)
O9C O 0.7314(10) 0.3848(8) -0.0358(8)
O10C O 0.5363(9) 0.2316(8) 0.2378(11)
H3C H 0.56400 0.27770 0.26260
H4C H 0.56380 0.18510 0.26190
C9C C 0.5101(11) 0.1426(7) -0.0437(7)
C10C C 0.7014(11) 0.3805(10) 0.0341(10)
C11C C 0.5494(8) 0.1941(7) 0.0173(7)
C12C C 0.6089(8) 0.2575(7) -0.0043(10)
H8C H 0.62470 0.26550 -0.05780
C13C C 0.6444(11) 0.3087(8) 0.0558(9)
C14C C 0.6212(12) 0.2932(9) 0.1358(10)
H9C H 0.64510 0.32570 0.17610
C15C C 0.5641(13) 0.2313(13) 0.1562(10)
C16C C 0.5240(9) 0.1871(10) 0.0967(9)
H10C H 0.48180 0.15410 0.10910
Sm1* Sm 0.50000 0.16801(5) -0.25000
Sm1A Sm 0.50000 -0.16801(5) 1.25000
Sm1D Sm 1.00000 -0.33199(5) 0.75000
Sm1E Sm 1.00000 0.33199(5) 1.25000
Sm2* Sm 0.66213(5) 0.00000 1.50000
Sm2A Sm 0.33787(5) 0.00000 0.00000
Sm2D Sm 0.16213(5) 0.50000 0.50000
Sm2E Sm 0.83787(5) 0.50000 0.00000
O1B* O 0.6316(6) 0.0343(5) 0.3638(5)
O2C O 0.3955(8) 0.0657(6) 0.7782(5)
O3D O 0.3554(7) 0.2486(6) 0.7253(6)
O3G O 0.6446(7) 0.2486(6) 0.7747(6)
O4D O 0.4335(9) 0.2800(7) 0.8335(7)
O4G O 0.5665(9) 0.2800(7) 0.6665(7)
O6B O 0.5541(8) -0.0960(7) 0.4765(6)
O7C* O 0.5447(6) 0.1446(5) 0.8849(5)
O8D O 0.7742(10) -0.0735(8) 0.4155(8)
O8F O 0.7742(10) 0.0735(8) 0.5845(8)
O9D O 0.7686(10) -0.1152(8) 0.5358(8)
O9F O 0.7686(10) 0.1152(8) 0.4642(8)
H13B H 0.49680 0.50050 0.45880
H14C H 0.51550 0.50290 0.79060
#END
