
#######################################################################
#
#                 Cambridge Crystallographic Data Centre
#                                CCDC
#
#######################################################################
#
# If this CIF has been generated from an entry in the Cambridge
# Structural Database, then it will include bibliographic, chemical,
# crystal, experimental, refinement or atomic coordinate data resulting
# from the CCDC's data processing and validation procedures.
#
#######################################################################

data_CSD_CIF_HIDCUU
_audit_creation_date 2013-06-17
_audit_creation_method CSD-ConQuest-V1
_database_code_CSD HIDCUU
_database_code_depnum_ccdc_archive 'CCDC 913882'
_chemical_formula_sum 'C38 H38 Eu2 N2 O21'
_chemical_formula_moiety
;
(C34 H16 Eu2 O18 2-)n,2n(C2 H8 N1 1+),3n(H2 O1)
;
_journal_coden_Cambridge 222
_journal_volume 42
_journal_year 2013
_journal_page_first 10579
_journal_name_full 'Dalton Trans. '
loop_
_publ_author_name
"Ming-Li Ma"
"Can Ji"
"Shuang-Quan Zang"
_chemical_name_systematic
;
catena-(bis(dimethylammonium) 
bis(\m~7~-5-(3,5-dicarboxybenzyloxy)isophthalato)-di-europium trihydrate)
;
_cell_volume   4022.151
_exptl_crystal_colour 'colorless'
_exptl_crystal_density_diffrn 1.92
_exptl_crystal_description 'prism'
_diffrn_ambient_temperature 296
_refine_special_details
;
There are two mixed atom C:O sites with occupancies 0.5:0.5. Water O1W is 
disorder with occupancy 0.5.
;
#These two values have been output from a single CSD field.
_refine_ls_R_factor_gt 0.0556
_refine_ls_wR_factor_gt 0.0556
_symmetry_cell_setting orthorhombic
_symmetry_space_group_name_H-M 'C 2 2 21'
_symmetry_Int_Tables_number 20
loop_
_symmetry_equiv_pos_site_id
_symmetry_equiv_pos_as_xyz
1 x,y,z
2 -x,-y,1/2+z
3 x,-y,-z
4 -x,y,1/2-z
5 1/2+x,1/2+y,z
6 1/2-x,1/2-y,1/2+z
7 1/2+x,1/2-y,-z
8 1/2-x,1/2+y,1/2-z
_cell_length_a 14.6077(6)
_cell_length_b 16.5568(6)
_cell_length_c 16.6303(7)
_cell_angle_alpha 90
_cell_angle_beta 90
_cell_angle_gamma 90
_cell_formula_units_Z 4
loop_
_atom_type_symbol
_atom_type_radius_bond
C 0.68
H 0.23
Eu 1.98
N 0.68
O 0.68
loop_
_atom_site_label
_atom_site_type_symbol
_atom_site_fract_x
_atom_site_fract_y
_atom_site_fract_z
Eu1 Eu 0.66194(5) 0.00000 0.50000
Eu2 Eu 0.50000 0.16804(4) 0.75000
O1 O 0.5538(7) 0.0969(6) 0.5239(6)
O2 O 0.4566(6) 0.1437(5) 0.6148(5)
O3 O 0.2664(9) 0.3848(8) 0.5362(8)
O4 O 0.2719(9) 0.4261(8) 0.4140(8)
O5 O 0.3569(7) 0.2480(6) 0.7251(6)
O6 O 0.4353(7) 0.2804(6) 0.8322(6)
O7 O 0.1310(6) 0.4654(5) 0.6353(6)
O8 O 0.1021(7) 0.5654(7) 0.7219(6)
C1 C 0.2315(10) 0.4688(9) 0.9872(11)
H1 H 0.28470 0.44450 1.01100
H2 H 0.17980 0.44390 1.01280
C2 C 0.4905(11) 0.1424(8) 0.5440(8)
C3 C 0.2968(11) 0.3792(10) 0.4654(10)
C4 C 0.4512(8) 0.1951(7) 0.4830(7)
C5 C 0.4755(10) 0.1858(11) 0.4033(9)
H3 H 0.51930 0.14750 0.38950
C6 C 0.4362(14) 0.2322(13) 0.3437(11)
C7 C 0.3783(12) 0.2932(11) 0.3646(10)
H4 H 0.35350 0.32560 0.32440
C8 C 0.3546(10) 0.3088(9) 0.4456(9)
C9 C 0.3916(8) 0.2579(7) 0.5055(10)
H5 H 0.37670 0.26580 0.55930
C10 C 0.3688(11) 0.2936(9) 0.7859(9)
C11 C 0.1365(8) 0.4984(10) 0.7037(6)
C12 C 0.2991(10) 0.3553(8) 0.8074(8)
C13 C 0.2471(8) 0.3922(7) 0.7488(10)
H6 H 0.25240 0.37560 0.69560
C14 C 0.1874(8) 0.4536(7) 0.7683(7)
C15 C 0.1794(12) 0.4803(9) 0.8468(8)
H7 H 0.14400 0.52530 0.85900
C16 C 0.2258(14) 0.4381(12) 0.9081(10)
C17 C 0.2871(13) 0.3790(11) 0.8873(9)
H8 H 0.32140 0.35410 0.92730
C18 C 0.4648(9) 0.2347(9) 0.2626(10)
H9 H 0.43660 0.28210 0.24040
H10 H 0.43540 0.18950 0.23740
O9 O 0.528(4) 0.50000 0.50000
H11 H 0.51580 0.52020 0.46330
N1 N 0.2094(16) 0.2066(14) 0.6396(16)
H12 H 0.19800 0.23970 0.68140
H13 H 0.26980 0.20850 0.62940
C19 C 0.184(3) 0.1220(16) 0.662(2)
H14 H 0.19470 0.11350 0.71860
H15 H 0.21390 0.08770 0.63510
H16 H 0.11950 0.11560 0.65150
C20 C 0.158(3) 0.2368(19) 0.567(2)
H17 H 0.20100 0.23320 0.52350
H18 H 0.14090 0.29220 0.57510
H19 H 0.10500 0.20520 0.55520
O10 O 0.5445(16) 0.4313(15) 0.8759(18)
H20 H 0.51290 0.38980 0.86430
H21 H 0.61510 0.44290 0.87910
O11 O 0.50000 0.527(4) 0.75000
H22 H 0.51380 0.49880 0.78310
O12? O 0.2315(10) 0.4688(9) 0.9872(11)
O13? O 0.4648(9) 0.2347(9) 0.2626(10)
O1C O 0.4462(7) 0.0969(6) -0.0239(6)
O2C O 0.5434(6) 0.1437(5) -0.1148(5)
O3C O 0.7336(9) 0.3848(8) -0.0362(8)
O4C O 0.7281(9) 0.4261(8) 0.0860(8)
C2C C 0.5095(11) 0.1424(8) -0.0440(8)
C3C C 0.7032(11) 0.3792(10) 0.0346(10)
C4C C 0.5488(8) 0.1951(7) 0.0170(7)
C5C C 0.5245(10) 0.1858(11) 0.0967(9)
H3C H 0.48070 0.14750 0.11050
C6C C 0.5638(14) 0.2322(13) 0.1563(11)
C7C C 0.6217(12) 0.2932(11) 0.1354(10)
H4C H 0.64650 0.32560 0.17560
C8C C 0.6454(10) 0.3088(9) 0.0544(9)
C9C C 0.6084(8) 0.2579(7) -0.0055(10)
H5C H 0.62330 0.26580 -0.05930
C18C C 0.5352(9) 0.2347(9) 0.2374(10)
H9C H 0.56340 0.28210 0.25960
H10C H 0.56460 0.18950 0.26260
O5B O 0.3569(7) 0.7520(6) 1.2749(6)
O6B O 0.4353(7) 0.7196(6) 1.1678(6)
O7B O 0.1310(6) 0.5346(5) 1.3647(6)
O8B O 0.1021(7) 0.4346(7) 1.2781(6)
C1B C 0.2315(10) 0.5312(9) 1.0128(11)
H1B H 0.28470 0.55550 0.98900
H2B H 0.17980 0.55610 0.98720
C10B C 0.3688(11) 0.7064(9) 1.2141(9)
C11B C 0.1365(8) 0.5016(10) 1.2963(6)
C12B C 0.2991(10) 0.6447(8) 1.1926(8)
C13B C 0.2471(8) 0.6078(7) 1.2512(10)
H6B H 0.25240 0.62440 1.30440
C14B C 0.1874(8) 0.5464(7) 1.2317(7)
C15B C 0.1794(12) 0.5197(9) 1.1532(8)
H7B H 0.14400 0.47470 1.14100
C16B C 0.2258(14) 0.5619(12) 1.0919(10)
C17B C 0.2871(13) 0.6210(11) 1.1127(9)
H8B H 0.32140 0.64590 1.07270
Eu1A Eu 0.33806(5) 0.00000 0.00000
Eu1D Eu 0.16194(5) 0.50000 0.50000
Eu1D* Eu 0.16194(5) 0.50000 1.50000
Eu1E Eu 0.83806(5) 0.50000 0.00000
Eu2* Eu 0.50000 0.16804(4) -0.25000
Eu2A Eu 0.50000 0.83196(4) 1.25000
Eu2D Eu 0.00000 0.66804(4) 0.75000
Eu2E Eu 0.00000 0.33196(4) 1.25000
O1B O 0.5538(7) -0.0969(6) 0.4761(6)
O2C* O 0.5434(6) 0.1437(5) 0.8852(5)
O3D O 0.7664(9) -0.1152(8) 0.5362(8)
O3F O 0.7664(9) 0.1152(8) 0.4638(8)
O4D O 0.7719(9) -0.0739(8) 0.4140(8)
O4F O 0.7719(9) 0.0739(8) 0.5860(8)
O5C O 0.6431(7) 0.2480(6) 0.7749(6)
O6C O 0.5647(7) 0.2804(6) 0.6678(6)
O7D O 0.6310(6) -0.0346(5) 0.6353(6)
O7F O 0.6310(6) 0.0346(5) 0.3647(6)
O8D O 0.6021(7) 0.0654(7) 0.7219(6)
O8G O 0.3979(7) 0.0654(7) 0.7781(6)
H11B H 0.51580 0.47980 0.53670
H22C H 0.48620 0.49880 0.71690
#END
