
#######################################################################
#
#                 Cambridge Crystallographic Data Centre
#                                CCDC
#
#######################################################################
#
# If this CIF has been generated from an entry in the Cambridge
# Structural Database, then it will include bibliographic, chemical,
# crystal, experimental, refinement or atomic coordinate data resulting
# from the CCDC's data processing and validation procedures.
#
#######################################################################

data_CSD_CIF_HIDDAB
_audit_creation_date 2013-06-17
_audit_creation_method CSD-ConQuest-V1
_database_code_CSD HIDDAB
_database_code_depnum_ccdc_archive 'CCDC 913881'
_chemical_formula_sum 'C38 H38 N2 O21 Tb2'
_chemical_formula_moiety
;
(C34 H16 O18 Tb2 2-)n,2n(C2 H8 N1 1+),3n(H2 O1)
;
_journal_coden_Cambridge 222
_journal_volume 42
_journal_year 2013
_journal_page_first 10579
_journal_name_full 'Dalton Trans. '
loop_
_publ_author_name
"Ming-Li Ma"
"Can Ji"
"Shuang-Quan Zang"
_chemical_name_systematic
;
catena-(bis(dimethylammonium) 
bis(\m~7~-5-(3,5-dicarboxybenzyloxy)isophthalato)-di-terbium trihydrate)
;
_cell_volume   3980.093
_exptl_crystal_colour 'colorless'
_exptl_crystal_density_diffrn 1.963
_exptl_crystal_description 'prism'
_diffrn_ambient_temperature 296
_refine_special_details
;
There are two mixed atom C:O sites with occupancies 0.5:0.5. Water O1W is 
disorder with occupancy 0.5.
;
#These two values have been output from a single CSD field.
_refine_ls_R_factor_gt 0.0528
_refine_ls_wR_factor_gt 0.0528
_symmetry_cell_setting orthorhombic
_symmetry_space_group_name_H-M 'C 2 2 21'
_symmetry_Int_Tables_number 20
loop_
_symmetry_equiv_pos_site_id
_symmetry_equiv_pos_as_xyz
1 x,y,z
2 -x,-y,1/2+z
3 x,-y,-z
4 -x,y,1/2-z
5 1/2+x,1/2+y,z
6 1/2-x,1/2-y,1/2+z
7 1/2+x,1/2-y,-z
8 1/2-x,1/2+y,1/2-z
_cell_length_a 14.6702(6)
_cell_length_b 16.3686(5)
_cell_length_c 16.5747(7)
_cell_angle_alpha 90
_cell_angle_beta 90
_cell_angle_gamma 90
_cell_formula_units_Z 4
loop_
_atom_type_symbol
_atom_type_radius_bond
C 0.68
H 0.23
N 0.68
O 0.68
Tb 1.94
loop_
_atom_site_label
_atom_site_type_symbol
_atom_site_fract_x
_atom_site_fract_y
_atom_site_fract_z
Tb1 Tb 0.66159(5) 0.00000 0.50000
Tb2 Tb 0.50000 -0.16773(4) 0.75000
O1 O 0.7622(8) 0.1166(7) 0.5348(7)
O2 O 0.7735(7) 0.0716(7) 0.4162(7)
O3 O 0.9574(6) 0.3571(5) 0.6154(5)
O4 O 1.0552(8) 0.4031(7) 0.5241(5)
O5 O 0.6016(9) -0.0678(6) 0.7225(6)
O6 O 0.6311(6) 0.0347(5) 0.6344(5)
O7 O 0.8590(7) 0.2533(7) 0.7234(6)
O8 O 0.9340(9) 0.2206(8) 0.8307(7)
C1 C 0.9652(10) 0.2663(10) 0.262(1)
H1 H 0.93770 0.31450 0.23960
H2 H 0.93980 0.22560 0.23930
C2 C 0.7973(9) 0.1203(11) 0.4662(10)
C3 C 0.9926(11) 0.3587(7) 0.5462(7)
C4 C 0.8540(11) 0.1900(9) 0.4453(8)
C5 C 0.8901(8) 0.2419(8) 0.5058(10)
H3 H 0.87520 0.23390 0.55790
C6 C 0.9508(8) 0.3049(7) 0.4846(7)
C7 C 0.9748(10) 0.3144(9) 0.4039(9)
H4 H 1.01090 0.34900 0.39200
C8 C 0.9392(12) 0.2652(11) 0.3434(10)
C9 C 0.8766(12) 0.2052(12) 0.3647(9)
H5 H 0.84910 0.17440 0.32440
C10 C 0.6355(8) 0.0015(10) 0.7028(6)
C11 C 0.8713(10) 0.2057(8) 0.7848(8)
C12 C 0.6873(8) 0.0456(7) 0.7680(7)
C13 C 0.6789(11) 0.0208(9) 0.8463(10)
H6 H 0.63990 -0.02210 0.85930
C14 C 0.7287(13) 0.0597(12) 0.9071(12)
C15 C 0.7845(11) 0.1211(10) 0.8878(11)
H7 H 0.81110 0.14450 0.92310
C16 C 0.8003(10) 0.1444(8) 0.8058(8)
C17 C 0.7466(8) 0.1078(7) 0.7479(11)
H8 H 0.75040 0.12530 0.69460
C18 C 0.7339(10) 0.0307(8) 0.9869(10)
H9 H 0.68330 0.05640 1.01330
H10 H 0.78720 0.03840 0.99410
N1 N 0.7144(17) 0.2946(14) 0.6403(16)
H11 H 0.77030 0.28820 0.62850
H12 H 0.70280 0.26640 0.68580
C19 C 0.681(2) 0.3776(16) 0.659(2)
H13 H 0.70170 0.39320 0.71200
H14 H 0.61530 0.37790 0.65850
H15 H 0.70340 0.41560 0.62010
C20 C 0.660(2) 0.264(2) 0.5718(19)
H16 H 0.60760 0.24890 0.58880
H17 H 0.69020 0.21810 0.54760
H18 H 0.65330 0.30150 0.53690
O9 O 0.50000 0.469(4) 0.75000
H19 H 0.47470 0.49460 0.71160
O10 O 0.9528(14) 0.0652(16) 0.6255(19)
H20 H 0.89690 0.07860 0.62160
H21 H 0.98430 0.10700 0.63780
O11 O 0.036(4) 0.00000 0.50000
H22 H 0.01250 0.02100 0.54210
O12? O 0.7339(10) 0.0307(8) 0.9869(10)
O13? O 0.9652(10) 0.2663(10) 0.262(1)
O1C O 1.2378(8) 0.1166(7) -0.0348(7)
O2C O 1.2265(7) 0.0716(7) 0.0838(7)
O3C O 1.0426(6) 0.3571(5) -0.1154(5)
O4C O 0.9448(8) 0.4031(7) -0.0241(5)
C1C C 1.0348(10) 0.2663(10) 0.238(1)
H1C H 1.06230 0.31450 0.26040
H2C H 1.06020 0.22560 0.26070
C2C C 1.2027(9) 0.1203(11) 0.0338(10)
C3C C 1.0074(11) 0.3587(7) -0.0462(7)
C4C C 1.1460(11) 0.1900(9) 0.0547(8)
C5C C 1.1099(8) 0.2419(8) -0.0058(10)
H3C H 1.12480 0.23390 -0.05790
C6C C 1.0492(8) 0.3049(7) 0.0154(7)
C7C C 1.0252(10) 0.3144(9) 0.0961(9)
H4C H 0.98910 0.34900 0.10800
C8C C 1.0608(12) 0.2652(11) 0.1566(10)
C9C C 1.1234(12) 0.2052(12) 0.1353(9)
H5C H 1.15090 0.17440 0.17560
O5B O 0.6016(9) 0.0678(6) 1.2775(6)
O6B O 0.6311(6) -0.0347(5) 1.3656(5)
O7B O 0.8590(7) -0.2533(7) 1.2766(6)
O8B O 0.9340(9) -0.2206(8) 1.1693(7)
C10B C 0.6355(8) -0.0015(10) 1.2972(6)
C11B C 0.8713(10) -0.2057(8) 1.2152(8)
C12B C 0.6873(8) -0.0456(7) 1.2320(7)
C13B C 0.6789(11) -0.0208(9) 1.1537(10)
H6B H 0.63990 0.02210 1.14070
C14B C 0.7287(13) -0.0597(12) 1.0929(12)
C15B C 0.7845(11) -0.1211(10) 1.1122(11)
H7B H 0.81110 -0.14450 1.07690
C16B C 0.8003(10) -0.1444(8) 1.1942(8)
C17B C 0.7466(8) -0.1078(7) 1.2521(11)
H8B H 0.75040 -0.12530 1.30540
C18B C 0.7339(10) -0.0307(8) 1.0131(10)
H9B H 0.68330 -0.05640 0.98670
H10B H 0.78720 -0.03840 1.00590
Tb1* Tb 0.66159(5) 0.00000 1.50000
Tb1A Tb 1.33841(5) 0.00000 0.00000
Tb1D Tb 1.16159(5) 0.50000 0.50000
Tb1E Tb 0.83841(5) 0.50000 0.00000
Tb2A Tb 0.50000 0.16773(4) 1.25000
Tb2D Tb 1.00000 0.33227(4) -0.25000
Tb2D* Tb 1.00000 0.33227(4) 0.75000
Tb2E Tb 1.00000 -0.33227(4) 1.25000
O1B O 0.7622(8) -0.1166(7) 0.4652(7)
O2B O 0.7735(7) -0.0716(7) 0.5838(7)
O3D O 0.4574(6) -0.1429(5) 0.6154(5)
O3G O 0.5426(6) -0.1429(5) 0.8846(5)
O4D O 0.5552(8) -0.0969(7) 0.5241(5)
O4F O 0.5552(8) 0.0969(7) 0.4759(5)
O5C O 0.3984(9) -0.0678(6) 0.7775(6)
O6B* O 0.6311(6) -0.0347(5) 0.3656(5)
O7D O 0.3590(7) -0.2467(7) 0.7234(6)
O7G O 0.6410(7) -0.2467(7) 0.7766(6)
O8D O 0.4340(9) -0.2794(8) 0.8307(7)
O8G O 0.5660(9) -0.2794(8) 0.6693(7)
H19C H 0.52530 0.49460 0.78840
H22B H 0.01250 -0.02100 0.45790
#END
