
#######################################################################
#
#                 Cambridge Crystallographic Data Centre
#                                CCDC
#
#######################################################################
#
# If this CIF has been generated from an entry in the Cambridge
# Structural Database, then it will include bibliographic, chemical,
# crystal, experimental, refinement or atomic coordinate data resulting
# from the CCDC's data processing and validation procedures.
#
#######################################################################

data_CSD_CIF_HIDGAF
_audit_creation_date 2018-06-20
_audit_creation_method CSD-ConQuest-V1
_database_code_CSD HIDGAF
_database_code_depnum_ccdc_archive 'CCDC 1585834'
_chemical_formula_sum 'C28 H50 Cl2 Cu4 N4 O18'
_chemical_formula_moiety
;
(C16 H24 Cl2 Cu4 O16 2-)n,2(C6 H11 N2 1+),2(H2 O1)
;
_journal_coeditor_code "zp2028"
_journal_coden_Cambridge 1828
_journal_volume 74
_journal_year 2018
_journal_page_first 981
_journal_name_full 'Acta Crystallogr.,Sect.E:Cryst.Commun. '
loop_
_publ_author_name
"N.Yu.Serov"
"V.G.Shtyrlin"
"D.R.Islamov"
"O.N.Kataeva"
"D.B.Krivolapov"
_chemical_name_systematic
;
catena-[bis(1-ethyl-3-methyl-1H-imidazol-3-ium) 
octakis(\m-acetato)-bis(\m-chloro)-tetra-copper dihydrate]
;
_cell_volume   2069.510
_exptl_crystal_colour 'green'
_exptl_crystal_density_diffrn 1.694
_exptl_crystal_description 'prism'
_diffrn_ambient_temperature 198
_refine_special_details
;
C10A,C11A,C12A,C13A,C14A,C9A,N1A,N2A,O9A and 
C10B,C11B,C12B,C13B,C14B,C9B,N1B,N2B,O9B disordered over two sites with 
occupancies 0.513:0.487.
;
#These two values have been output from a single CSD field.
_refine_ls_R_factor_gt 0.0818
_refine_ls_wR_factor_gt 0.0818
_symmetry_cell_setting monoclinic
_symmetry_space_group_name_H-M 'P 21/c'
_symmetry_Int_Tables_number 14
loop_
_symmetry_equiv_pos_site_id
_symmetry_equiv_pos_as_xyz
1 x,y,z
2 -x,1/2+y,1/2-z
3 -x,-y,-z
4 x,-1/2-y,-1/2+z
_cell_length_a 8.438(4)
_cell_length_b 16.315(7)
_cell_length_c 15.131(7)
_cell_angle_alpha 90
_cell_angle_beta 96.53(1)
_cell_angle_gamma 90
_cell_formula_units_Z 2
loop_
_atom_type_symbol
_atom_type_radius_bond
C 0.68
H 0.23
Cl 0.99
Cu 1.32
N 0.68
O 0.68
loop_
_atom_site_label
_atom_site_type_symbol
_atom_site_fract_x
_atom_site_fract_y
_atom_site_fract_z
C1 C 0.7268(11) 0.5647(5) 0.4896(7)
C2 C 0.5618(11) 0.6017(6) 0.4836(8)
H1 H 0.57040 0.66100 0.49380
H2 H 0.50250 0.57690 0.52890
H3 H 0.50550 0.59130 0.42450
C3 C 0.8705(10) 0.3595(5) 0.5044(7)
C4 C 0.7916(12) 0.2770(6) 0.5083(8)
H4 H 0.74230 0.26180 0.44880
H5 H 0.70960 0.27960 0.54910
H6 H 0.87170 0.23590 0.52950
C5 C 0.7238(11) 0.4373(6) -0.0335(8)
C6 C 0.5583(11) 0.4033(6) -0.0541(8)
H7 H 0.48310 0.44840 -0.06860
H8 H 0.52860 0.37350 -0.00230
H9 H 0.55530 0.36590 -0.10500
C7 C 1.1261(10) 0.3598(5) 0.0057(6)
C8 C 1.2080(12) 0.2769(5) 0.0107(7)
H10 H 1.17340 0.24530 0.06010
H11 H 1.32390 0.28460 0.02030
H12 H 1.17960 0.24720 -0.04520
Cl1 Cl 0.9622(3) 0.49055(16) 0.24814(16)
Cu1 Cu 0.98839(12) 0.49546(7) 0.41183(7)
Cu2 Cu 0.98635(12) 0.49562(7) 0.08689(7)
O1 O 0.7800(8) 0.5456(5) 0.4194(5)
O2 O 0.7991(8) 0.5550(4) 0.5671(5)
O3 O 0.8907(8) 0.3873(4) 0.4302(5)
O4 O 0.9075(9) 0.3949(4) 0.5780(4)
O5 O 0.7770(8) 0.4478(5) 0.0462(5)
O6 O 0.7989(8) 0.4548(5) -0.0980(5)
O7 O 1.0869(8) 0.3877(4) 0.0774(4)
O8 O 1.1090(8) 0.3948(4) -0.0674(4)
N1 N 0.142(3) 0.2561(15) 0.263(3)
N2 N 0.382(2) 0.3105(12) 0.2719(13)
C9 C 0.230(2) 0.3252(13) 0.2752(17)
H13 H 0.18710 0.37790 0.28470
C10 C -0.029(3) 0.248(3) 0.264(3)
H14 H -0.06730 0.29350 0.29890
H15 H -0.05230 0.19600 0.29200
H16 H -0.08170 0.25020 0.20340
C11 C 0.247(3) 0.1942(17) 0.246(4)
H17 H 0.21970 0.13830 0.23520
C12 C 0.391(3) 0.2268(14) 0.248(5)
H18 H 0.48500 0.19880 0.23570
C13 C 0.505(3) 0.3747(17) 0.2777(16)
H19 H 0.59410 0.35850 0.32240
H20 H 0.45920 0.42640 0.29800
C14 C 0.569(4) 0.390(2) 0.1885(19)
H21 H 0.61440 0.33860 0.16810
H22 H 0.65160 0.43200 0.19560
H23 H 0.48160 0.40770 0.14450
O9 O 0.715(3) 0.3631(15) 0.7359(15)
H24 H 0.77(2) 0.367(12) 0.689(10)
H25 H 0.72(3) 0.413(7) 0.761(16)
N3? N 0.193(3) 0.2668(17) 0.257(4)
N4? N 0.429(2) 0.3195(12) 0.2470(14)
C15? C 0.280(3) 0.3363(14) 0.2557(18)
H26? H 0.23790 0.39000 0.26050
C16? C 0.023(3) 0.261(3) 0.261(4)
H27? H -0.02210 0.31630 0.26340
H28? H 0.00260 0.23020 0.31380
H29? H -0.02700 0.23280 0.20750
C17? C 0.302(4) 0.2041(17) 0.251(4)
H30? H 0.27530 0.14750 0.24960
C18? C 0.448(4) 0.2333(15) 0.247(6)
H31? H 0.54380 0.20310 0.24530
C19? C 0.564(3) 0.3763(13) 0.246(2)
H32? H 0.61560 0.36740 0.19090
H33? H 0.64350 0.36560 0.29750
C20? C 0.506(2) 0.4652(12) 0.2484(14)
H34? H 0.39520 0.46860 0.22130
H35? H 0.57320 0.50010 0.21540
H36? H 0.51310 0.48370 0.31030
O10? O 0.691(3) 0.4074(14) 0.7142(16)
H37? H 0.766(18) 0.406(14) 0.675(9)
H38? H 0.72(4) 0.367(19) 0.75(2)
C1B C 1.2732(11) 0.4353(5) 0.5104(7)
C2B C 1.4382(11) 0.3983(6) 0.5164(8)
H1B H 1.42960 0.33900 0.50620
H2B H 1.49750 0.42310 0.47110
H3B H 1.49450 0.40870 0.57550
C3B C 1.1295(10) 0.6405(5) 0.4956(7)
C4B C 1.2084(12) 0.7230(6) 0.4917(8)
H4B H 1.25770 0.73820 0.55120
H5B H 1.29040 0.72040 0.45090
H6B H 1.12830 0.76410 0.47050
Cu1B Cu 1.01161(12) 0.50454(7) 0.58817(7)
O1B O 1.2200(8) 0.4544(5) 0.5806(5)
O2B O 1.2009(8) 0.4450(4) 0.4329(5)
O3B O 1.1093(8) 0.6127(4) 0.5698(5)
O4B O 1.0925(9) 0.6051(4) 0.4220(4)
C5B C 1.2762(11) 0.5627(6) 0.0335(8)
C6B C 1.4417(11) 0.5967(6) 0.0541(8)
H7B H 1.51690 0.55160 0.06860
H8B H 1.47140 0.62650 0.00230
H9B H 1.44470 0.63410 0.10500
C7B C 0.8739(10) 0.6402(5) -0.0057(6)
C8B C 0.7920(12) 0.7231(5) -0.0107(7)
H10B H 0.82660 0.75470 -0.06010
H11B H 0.67610 0.71540 -0.02030
H12B H 0.82040 0.75280 0.04520
Cu2B Cu 1.01365(12) 0.50438(7) -0.08689(7)
O5B O 1.2230(8) 0.5522(5) -0.0462(5)
O6B O 1.2011(8) 0.5452(5) 0.0980(5)
O7B O 0.9131(8) 0.6123(4) -0.0774(4)
O8B O 0.8910(8) 0.6052(4) 0.0674(4)
Cl1B Cl 1.0378(3) 0.50945(16) -0.24814(16)
Cl1B* Cl 1.0378(3) 0.50945(16) 0.75186(16)
Cu1B* Cu 1.01161(12) 0.50454(7) -0.41183(7)
#END
