
#######################################################################
#
#                 Cambridge Crystallographic Data Centre
#                                CCDC
#
#######################################################################
#
# If this CIF has been generated from an entry in the Cambridge
# Structural Database, then it will include bibliographic, chemical,
# crystal, experimental, refinement or atomic coordinate data resulting
# from the CCDC's data processing and validation procedures.
#
#######################################################################

data_CSD_CIF_HIDGEJ
_audit_creation_date 2018-06-20
_audit_creation_method CSD-ConQuest-V1
_database_code_CSD HIDGEJ
_database_code_depnum_ccdc_archive 'CCDC 1585835'
_chemical_formula_sum 'C16 H26 Cu2 N2 O10'
_chemical_formula_moiety
;
(C10 H15 Cu2 O10 1-)n,C6 H11 N2 1+
;
_journal_coeditor_code "zp2028"
_journal_coden_Cambridge 1828
_journal_volume 74
_journal_year 2018
_journal_page_first 981
_journal_name_full 'Acta Crystallogr.,Sect.E:Cryst.Commun. '
loop_
_publ_author_name
"N.Yu.Serov"
"V.G.Shtyrlin"
"D.R.Islamov"
"O.N.Kataeva"
"D.B.Krivolapov"
_chemical_name_systematic
;
catena-[1-ethyl-3-methyl-1H-imidazol-3-ium pentakis(\m-acetato)-di-copper(ii)]
;
_cell_volume   1082.279
_exptl_crystal_colour 'blue'
_exptl_crystal_density_diffrn 1.637
_exptl_crystal_description 'prism'
_diffrn_ambient_temperature 198
#These two values have been output from a single CSD field.
_refine_ls_R_factor_gt 0.0289
_refine_ls_wR_factor_gt 0.0289
_symmetry_cell_setting triclinic
_symmetry_space_group_name_H-M 'P -1'
_symmetry_Int_Tables_number 2
loop_
_symmetry_equiv_pos_site_id
_symmetry_equiv_pos_as_xyz
1 x,y,z
2 -x,-y,-z
_cell_length_a 8.0542(9)
_cell_length_b 8.1633(9)
_cell_length_c 16.7195(19)
_cell_angle_alpha 98.126(3)
_cell_angle_beta 94.745(3)
_cell_angle_gamma 92.964(3)
_cell_formula_units_Z 2
loop_
_atom_type_symbol
_atom_type_radius_bond
C 0.68
H 0.23
Cu 1.32
N 0.68
O 0.68
loop_
_atom_site_label
_atom_site_type_symbol
_atom_site_fract_x
_atom_site_fract_y
_atom_site_fract_z
Cu1 Cu 0.92345(4) 0.99123(3) 0.92550(2)
Cu2 Cu 0.56051(4) 0.98913(3) 0.57530(2)
O1 O 0.7481(2) 0.8938(2) 0.52154(11)
O2 O 0.7615(3) 0.9983(2) 0.82103(10)
O3 O 1.1356(2) 1.0928(2) 0.89944(11)
O4 O 0.6506(2) 0.9156(2) 0.39488(10)
O5 O 0.8587(2) 1.2104(2) 0.97397(10)
O6 O 0.6474(2) 1.0114(2) 0.69902(11)
O7 O 0.4417(2) 0.7682(2) 0.55935(11)
O8 O 0.3447(2) 0.7862(2) 0.43204(11)
O9 O 1.2610(2) 1.1154(2) 1.02491(11)
O10 O 0.9849(3) 1.2283(2) 1.09893(11)
C1 C 0.7587(3) 0.8778(3) 0.44641(15)
C2 C 1.2586(3) 1.1306(3) 0.95090(15)
C3 C 0.3605(3) 0.7127(3) 0.49278(16)
C4 C 0.8935(3) 1.2817(3) 1.04474(15)
C5 C 0.8185(4) 1.4451(3) 1.06738(17)
H1 H 0.90040 1.53600 1.06330
H2 H 0.78740 1.45370 1.12320
H3 H 0.71900 1.45220 1.03040
C6 C 0.7598(3) 0.9663(3) 0.74538(13)
C7 C 0.9154(3) 0.8103(3) 0.41572(18)
H4 H 0.89670 0.77340 0.35710
H5 H 0.94540 0.71620 0.44320
H6 H 1.00640 0.89710 0.42680
C8 C 1.4171(4) 1.1998(4) 0.92301(19)
H7 H 1.50080 1.11680 0.92230
H8 H 1.45930 1.29960 0.96020
H9 H 1.39440 1.22800 0.86830
C9 C 0.2743(4) 0.5423(3) 0.4847(2)
H10 H 0.34180 0.47240 0.51580
H11 H 0.26050 0.49300 0.42740
H12 H 0.16440 0.55060 0.50560
C10 C 0.8976(5) 0.8706(5) 0.71030(18)
H13 H 0.86100 0.81960 0.65460
H14 H 0.92530 0.78380 0.74320
H15 H 0.99640 0.94580 0.71020
N1 N 0.6086(3) 0.4848(3) 0.78982(12)
N2 N 0.4357(3) 0.6683(3) 0.76515(14)
C11 C 0.5724(3) 0.6410(3) 0.80908(16)
H16 H 0.63500 0.72090 0.84840
C12 C 0.4900(4) 0.4082(4) 0.73099(17)
H17 H 0.48490 0.29610 0.70570
C13 C 0.7545(4) 0.4061(4) 0.82256(17)
H18 H 0.71780 0.29790 0.83760
H19 H 0.80610 0.47700 0.87230
C14 C 0.8825(4) 0.3799(4) 0.76169(19)
H20 H 0.83010 0.31490 0.71130
H21 H 0.97400 0.32010 0.78380
H22 H 0.92670 0.48760 0.75040
C15 C 0.3825(4) 0.5232(4) 0.71625(18)
H23 H 0.28630 0.50660 0.67840
C16 C 0.3528(4) 0.8234(4) 0.7685(2)
H24 H 0.25080 0.81400 0.79610
H25 H 0.32420 0.84650 0.71330
H26 H 0.42780 0.91390 0.79840
Cu1A Cu 1.07655(4) 1.00877(3) 1.07450(2)
Cu2A Cu 0.43949(4) 1.01087(3) 0.42470(2)
O4A O 0.3494(2) 1.0844(2) 0.60512(10)
O8A O 0.6553(2) 1.2138(2) 0.56796(11)
O9A O 0.7390(2) 0.8846(2) 0.97509(11)
O10A O 1.0151(3) 0.7717(2) 0.90107(11)
#END
