
#######################################################################
#
#                 Cambridge Crystallographic Data Centre
#                                CCDC
#
#######################################################################
#
# If this CIF has been generated from an entry in the Cambridge
# Structural Database, then it will include bibliographic, chemical,
# crystal, experimental, refinement or atomic coordinate data resulting
# from the CCDC's data processing and validation procedures.
#
#######################################################################

data_CSD_CIF_HIFMEP
_audit_creation_date 2007-07-25
_audit_creation_method CSD-ConQuest-V1
_database_code_CSD HIFMEP
_database_code_depnum_ccdc_archive 'CCDC 652486'
_chemical_formula_sum 'C28 H20 Cu1 N6 P1'
_chemical_formula_moiety
;
(C4 Cu1 N6 1-)n,n(C24 H20 P1 1+)
;
_journal_coeditor_code "IUCr SF3036"
_journal_coden_Cambridge 591
_journal_volume 63
_journal_year 2007
_journal_page_first m235
_journal_name_full 'Acta Crystallogr.,Sect.C:Cryst.Struct.Commun. '
loop_
_publ_author_name
"J.A.Schlueter"
"U.Geiser"
_chemical_name_systematic
;
catena-[tetraphenylphosphonium bis(\m~2~-dicyanamide)-copper(i)]
;
_chemical_melting_point 433
_cell_volume   2483.149
_exptl_crystal_colour 'colorless'
_exptl_crystal_density_diffrn 1.431
_exptl_crystal_description 'rod'
_diffrn_ambient_temperature 150
#These two values have been output from a single CSD field.
_refine_ls_R_factor_gt 0.0388
_refine_ls_wR_factor_gt 0.0388
_symmetry_cell_setting orthorhombic
_symmetry_space_group_name_H-M 'P 21 21 21'
_symmetry_Int_Tables_number 19
loop_
_symmetry_equiv_pos_site_id
_symmetry_equiv_pos_as_xyz
1 x,y,z
2 1/2-x,-y,1/2+z
3 -x,1/2+y,1/2-z
4 1/2+x,1/2-y,-z
_cell_length_a 12.7929(12)
_cell_length_b 13.4006(12)
_cell_length_c 14.4847(14)
_cell_angle_alpha 90
_cell_angle_beta 90
_cell_angle_gamma 90
_cell_formula_units_Z 4
loop_
_atom_type_symbol
_atom_type_radius_bond
C 0.68
H 0.23
Cu 1.52
N 0.68
P 1.05
loop_
_atom_site_label
_atom_site_type_symbol
_atom_site_fract_x
_atom_site_fract_y
_atom_site_fract_z
P1 P 0.54674(5) 0.59794(5) 0.66257(4)
C1 C 0.4177(2) 0.62583(18) 0.70553(18)
C2 C 0.3308(2) 0.5742(2) 0.67337(18)
H1 H 0.33870 0.52400 0.62760
C3 C 0.2326(2) 0.5960(2) 0.70824(18)
H2 H 0.17300 0.56140 0.68580
C4 C 0.2215(2) 0.6679(2) 0.7755(2)
H3 H 0.15410 0.68310 0.79920
C5 C 0.3084(2) 0.7179(2) 0.8087(2)
H4 H 0.30040 0.76650 0.85590
C6 C 0.4065(2) 0.6978(2) 0.7738(2)
H5 H 0.46580 0.73290 0.79630
C7 C 0.6150(2) 0.71322(18) 0.64187(18)
C8 C 0.6701(2) 0.7571(2) 0.71444(18)
H6 H 0.67770 0.72280 0.77140
C9 C 0.7136(2) 0.8511(2) 0.7029(2)
H7 H 0.75130 0.88120 0.75210
C10 C 0.7024(2) 0.9008(2) 0.62045(19)
H8 H 0.73120 0.96560 0.61330
C11 C 0.6493(2) 0.8568(2) 0.5479(2)
H9 H 0.64310 0.89100 0.49070
C12 C 0.6051(2) 0.7633(2) 0.55822(19)
H10 H 0.56820 0.73350 0.50850
C13 C 0.6184(2) 0.5281(2) 0.74723(18)
C14 C 0.7242(2) 0.5086(2) 0.73136(19)
H11 H 0.75780 0.53560 0.67850
C15 C 0.7796(2) 0.4504(2) 0.7924(2)
H12 H 0.85100 0.43540 0.78100
C16 C 0.7304(3) 0.4138(3) 0.8707(2)
H13 H 0.76870 0.37420 0.91340
C17 C 0.6266(3) 0.4343(3) 0.8873(2)
H14 H 0.59400 0.40950 0.94160
C18 C 0.5696(2) 0.4910(2) 0.82533(19)
H15 H 0.49770 0.50430 0.83620
C19 C 0.5363(2) 0.52615(18) 0.55795(17)
C20 C 0.5928(2) 0.4376(2) 0.5492(2)
H16 H 0.63560 0.41510 0.59860
C21 C 0.5864(3) 0.3824(2) 0.4684(2)
H17 H 0.62390 0.32150 0.46280
C22 C 0.5257(2) 0.4161(2) 0.39650(19)
H18 H 0.52270 0.37910 0.34070
C23 C 0.4692(2) 0.50331(19) 0.40480(18)
H19 H 0.42680 0.52540 0.35490
C24 C 0.4737(2) 0.55907(19) 0.48554(17)
H20 H 0.43450 0.61900 0.49120
Cu1 Cu 0.50274(3) 0.09989(2) 0.39858(2)
N1 N 0.5245(2) 0.17433(17) 0.27500(16)
N2 N 0.5541(3) 0.27550(19) 0.13528(16)
N3 N 0.53432(19) 0.45741(18) 0.12412(16)
N4 N 0.4065(2) 0.1838(2) 0.4730(2)
N5 N 0.3303(2) 0.3264(3) 0.5561(2)
N6 N 0.1536(2) 0.3955(2) 0.54821(18)
C25 C 0.5369(2) 0.2252(2) 0.2121(2)
C26 C 0.5425(2) 0.3722(2) 0.13384(17)
C27 C 0.3659(2) 0.2495(3) 0.5103(2)
C28 C 0.2353(3) 0.3595(2) 0.54799(19)
Cu1B Cu 0.49726(3) 0.59989(2) 0.10142(2)
Cu1C Cu 0.00274(3) 0.40011(2) 0.60142(2)
N3B N 0.46568(19) -0.04259(18) 0.37588(16)
N6C N 0.6536(2) 0.1045(2) 0.45179(18)
#END
