
#######################################################################
#
#                 Cambridge Crystallographic Data Centre
#                                CCDC
#
#######################################################################
#
# If this CIF has been generated from an entry in the Cambridge
# Structural Database, then it will include bibliographic, chemical,
# crystal, experimental, refinement or atomic coordinate data resulting
# from the CCDC's data processing and validation procedures.
#
#######################################################################

data_CSD_CIF_HIFPOC
_audit_creation_date 2007-07-25
_audit_creation_method CSD-ConQuest-V1
_database_code_CSD HIFPOC
_database_code_depnum_ccdc_archive 'CCDC 652499'
_chemical_formula_sum 'C24 H36 Cu2 N4 O22'
_chemical_formula_moiety
;
(C2 H10 N2 2+)2n,n(C20 H8 Cu2 O18 4-),4n(H2 O1)
;
_journal_coeditor_code "IUCr SQ3073"
_journal_coden_Cambridge 591
_journal_volume 63
_journal_year 2007
_journal_page_first m273
_journal_name_full 'Acta Crystallogr.,Sect.C:Cryst.Struct.Commun. '
loop_
_publ_author_name
"Jian-Hai Luo"
"Chang-Cang Huang"
"Xi-He Huang"
"Xiao-Juan Chen"
_chemical_name_systematic
;
catena-[bis(Ethylenediammonium) 
bis(\m~4~-benzene-1,2,4,5-tetracarboxylato)-diaqua-di-copper(ii) 
tetrahydrate]
;
_cell_volume    810.815
_exptl_crystal_colour 'blue'
_exptl_crystal_density_diffrn 1.761
_exptl_crystal_description 'block'
_diffrn_ambient_temperature 293
#These two values have been output from a single CSD field.
_refine_ls_R_factor_gt 0.0262
_refine_ls_wR_factor_gt 0.0262
_symmetry_cell_setting triclinic
_symmetry_space_group_name_H-M 'P -1'
_symmetry_Int_Tables_number 2
loop_
_symmetry_equiv_pos_site_id
_symmetry_equiv_pos_as_xyz
1 x,y,z
2 -x,-y,-z
_cell_length_a 9.2104(18)
_cell_length_b 9.4058(19)
_cell_length_c 10.225(2)
_cell_angle_alpha 75.00(3)
_cell_angle_beta 75.50(3)
_cell_angle_gamma 75.15(3)
_cell_formula_units_Z 1
loop_
_atom_type_symbol
_atom_type_radius_bond
C 0.68
H 0.23
Cu 1.52
N 0.68
O 0.68
loop_
_atom_site_label
_atom_site_type_symbol
_atom_site_fract_x
_atom_site_fract_y
_atom_site_fract_z
Cu1 Cu 0.99060(2) 0.28496(2) 0.760656(19)
O1 O 1.13784(15) 0.37928(16) 0.61569(15)
O2 O 1.14910(14) 0.16153(13) 0.86459(13)
C1 C 1.2692(2) 0.3191(2) 0.55998(18)
C2 C 1.24273(18) 0.21590(18) 0.90039(17)
O3 O 1.3120(2) 0.18912(18) 0.5391(2)
C3 C 1.38756(18) 0.41587(18) 0.52142(16)
C4 C 1.37335(18) 0.10337(18) 0.95619(17)
O4 O 1.23888(9) 0.35098(8) 0.89015(9)
C5 C 1.53356(19) 0.34628(18) 0.54472(17)
C6 C 1.35306(18) 0.57210(18) 0.47571(16)
C7 C 1.51940(19) 0.13567(18) 0.91228(17)
C8 C 1.35329(18) -0.03331(17) 1.04649(16)
H1 H 1.558(2) 0.240(2) 0.577(2)
C9 C 1.20388(19) 0.65618(18) 0.43197(18)
H2 H 1.533(3) 0.228(3) 0.849(3)
C10 C 1.19666(18) -0.06731(18) 1.11373(16)
O5 O 1.17172(14) 0.60620(14) 0.34119(13)
O6 O 1.12960(17) 0.76978(17) 0.47644(18)
O7 O 1.17274(14) -0.19069(13) 1.10368(13)
O8 O 1.10546(15) 0.02207(15) 1.18159(15)
O9 O 1.05851(9) 0.52796(8) 0.12284(9)
H3 H 0.97140 0.54180 0.10940
H4 H 1.08060 0.44250 0.16810
O10 O 0.61525(9) 0.58506(8) 0.81357(9)
H5 H 0.66150 0.52210 0.76710
H6 H 0.65520 0.65870 0.78560
O11 O 0.84307(9) -0.24462(8) 0.71957(9)
H7 H 0.83980 -0.17120 0.75020
H8 H 0.85080 -0.22200 0.63550
N1 N 0.8196(2) 1.05301(19) 0.35928(19)
N2 N 0.6913(2) 1.3824(2) 0.08747(19)
H9 H 0.710(3) 1.340(3) 0.019(3)
H10 H 0.783(3) 0.977(3) 0.401(3)
H11 H 0.616(3) 1.172(3) 0.317(3)
H12 H 0.711(3) 1.098(3) 0.201(3)
H13 H 0.909(3) 1.030(3) 0.315(3)
H14 H 0.834(3) 1.100(3) 0.415(3)
H15 H 0.582(4) 1.399(3) 0.120(3)
H16 H 0.876(3) 1.268(3) 0.152(3)
H17 H 0.776(3) 1.354(3) 0.257(3)
H18 H 0.713(3) 1.468(3) 0.052(3)
C11 C 0.7189(2) 1.1511(2) 0.2652(2)
C12 C 0.7802(2) 1.2927(2) 0.1939(2)
C6A C 1.64694(18) 0.42790(18) 0.52429(16)
C5A C 1.46644(19) 0.65372(18) 0.45528(17)
C8A C 1.64671(18) 0.03331(17) 0.95351(16)
C7A C 1.48060(19) -0.13567(18) 1.08772(17)
O1A O 0.86216(15) 0.62072(16) 0.38431(15)
C9A C 1.79612(19) 0.34382(18) 0.56803(18)
C3A C 1.61244(18) 0.58413(18) 0.47858(16)
H1A H 1.442(2) 0.760(2) 0.423(2)
C10A C 1.80334(18) 0.06731(18) 0.88627(16)
C4A C 1.62665(18) -0.10337(18) 1.04381(17)
H2A H 1.467(3) -0.228(3) 1.151(3)
Cu1A Cu 1.00940(2) 0.71504(2) 0.239344(19)
Cu1A* Cu 1.00940(2) -0.28496(2) 1.239344(19)
O5A O 1.82828(14) 0.39380(14) 0.65881(13)
O6A O 1.87040(17) 0.23022(17) 0.52356(18)
C1A C 1.7308(2) 0.6809(2) 0.44002(18)
O8A O 1.89454(15) -0.02207(15) 0.81841(15)
O7A O 1.82726(14) 0.19069(13) 0.89632(13)
C2A C 1.75727(18) -0.21590(18) 1.09961(17)
O7* O 1.17274(14) 0.80931(13) 0.10368(13)
O2A O 0.85090(14) 0.83847(13) 0.13541(13)
Cu1* Cu 1.99060(2) 0.28496(2) 0.760656(19)
O1A* O 1.86216(15) 0.62072(16) 0.38431(15)
O3A O 1.6880(2) 0.81088(18) 0.4609(2)
O2A* O 1.85090(14) -0.16153(13) 1.13541(13)
O4A O 1.76112(9) -0.35098(8) 1.10985(9)
O9A O 1.94149(9) 0.47204(8) 0.87716(9)
O1* O 2.13784(15) 0.37928(16) 0.61569(15)
O2* O 2.14910(14) 0.16153(13) 0.86459(13)
Cu1A** Cu 2.00940(2) 0.71504(2) 0.239344(19)
Cu1A*** Cu 2.00940(2) -0.28496(2) 1.239344(19)
H4A H 1.91940 0.55750 0.83190
H3A H 2.02860 0.45820 0.89060
#END
