
#######################################################################
#
#                 Cambridge Crystallographic Data Centre
#                                CCDC
#
#######################################################################
#
# If this CIF has been generated from an entry in the Cambridge
# Structural Database, then it will include bibliographic, chemical,
# crystal, experimental, refinement or atomic coordinate data resulting
# from the CCDC's data processing and validation procedures.
#
#######################################################################

data_CSD_CIF_HIFPUI01
_audit_creation_date 2007-09-06
_audit_creation_method CSD-ConQuest-V1
_database_code_CSD HIFPUI01
_database_code_depnum_ccdc_archive 'CCDC 654724'
_chemical_formula_sum 'C12 H17 Cu1 N2 O10.5'
_chemical_formula_moiety
;
(C2 H10 N2 2+)n,n(C10 H2 Cu1 O8 2-),2.5n(H2 O1)
;
_journal_coeditor_code "IUCr HK2258"
_journal_coden_Cambridge 1370
_journal_volume 63
_journal_year 2007
_journal_page_first m1841
_journal_name_full 'Acta Crystallogr.,Sect.E:Struct.Rep.Online '
loop_
_publ_author_name
"M.Rafizadeh"
"V.Amani"
"L.Dehghan"
"F.Azadbakht"
"E.Sahlolbei"
_chemical_name_systematic
;
catena-[Ethylenediammonium 
(\m~4~-benzene-1,2,4,5-tetracarboxylato-\k^4^O:O':O'':O''')-copper(ii) 
hydrate]
;
_chemical_melting_point 562
_cell_volume   1543.639
_exptl_crystal_colour 'blue'
_exptl_crystal_density_diffrn 1.811
_exptl_crystal_description 'cube'
_diffrn_ambient_temperature 100
#These two values have been output from a single CSD field.
_refine_ls_R_factor_gt 0.0366
_refine_ls_wR_factor_gt 0.0366
_symmetry_cell_setting monoclinic
_symmetry_space_group_name_H-M 'P 21/c'
_symmetry_Int_Tables_number 14
loop_
_symmetry_equiv_pos_site_id
_symmetry_equiv_pos_as_xyz
1 x,y,z
2 -x,1/2+y,1/2-z
3 -x,-y,-z
4 x,-1/2-y,-1/2+z
_cell_length_a 7.3937(5)
_cell_length_b 18.4414(11)
_cell_length_c 11.3607(7)
_cell_angle_alpha 90
_cell_angle_beta 94.783(1)
_cell_angle_gamma 90
_cell_formula_units_Z 4
loop_
_atom_type_symbol
_atom_type_radius_bond
C 0.68
H 0.23
Cu 1.52
N 0.68
O 0.68
loop_
_atom_site_label
_atom_site_type_symbol
_atom_site_fract_x
_atom_site_fract_y
_atom_site_fract_z
Cu1 Cu 0.98260(3) 0.743122(11) 0.999045(17)
O1 O 1.00080(18) 0.81812(7) 1.12002(11)
O2 O 0.72149(18) 0.85964(7) 1.06384(11)
O3 O 0.95242(17) 1.16759(6) 1.38554(11)
O4 O 1.25174(18) 1.15069(7) 1.38605(12)
O5 O 1.03538(18) 1.18072(7) 1.12061(11)
O6 O 0.75133(18) 1.14655(7) 1.06256(11)
O7 O 0.92059(17) 0.83259(6) 1.38281(11)
O8 O 1.22206(18) 0.84199(7) 1.38507(12)
C1 C 0.8752(2) 0.86592(9) 1.11718(14)
C2 C 0.9277(2) 0.93511(9) 1.18051(14)
C3 C 0.8811(2) 1.00135(9) 1.12768(15)
H1 H 0.80760 1.00250 1.05500
C4 C 1.0934(2) 1.13317(9) 1.35678(15)
C5 C 1.0478(2) 1.06440(9) 1.28902(14)
C6 C 1.0952(2) 0.99801(9) 1.34200(15)
H2 H 1.16930 0.99680 1.41440
C7 C 0.9420(2) 1.06609(9) 1.18101(14)
C8 C 0.9025(2) 1.13636(9) 1.11720(14)
C9 C 1.0668(2) 0.86353(9) 1.35520(14)
C10 C 1.0338(2) 0.93355(9) 1.28862(14)
N1 N 1.5660(2) 0.65943(8) 1.32091(14)
H3 H 1.66290 0.64900 1.37290
H4 H 1.57740 0.63560 1.25180
H5 H 1.46210 0.64500 1.35180
N2 N 1.4052(2) 0.83478(9) 1.17836(14)
H6 H 1.31080 0.84500 1.12430
H7 H 1.51070 0.85000 1.15060
H8 H 1.38870 0.85800 1.24730
C11 C 1.5587(3) 0.73907(10) 1.29853(17)
H9 H 1.67810 0.75630 1.27640
H10 H 1.53030 0.76490 1.37110
C12 C 1.4139(3) 0.75515(10) 1.19949(17)
H11 H 1.44320 0.72990 1.12660
H12 H 1.29480 0.73740 1.22110
O9 O 0.6201(2) 0.42273(8) 0.89555(14)
H13 H 0.56290 0.41000 0.95400
H14 H 0.72440 0.40530 0.88610
O10 O 0.5892(2) 0.57443(9) 0.87753(16)
H15 H 0.57580 0.52870 0.88010
H16 H 0.69510 0.59220 0.89090
O11 O 1.4335(4) 0.99565(15) 1.1305(3)
H17 H 1.32680 1.00230 1.15100
H18 H 1.47550 1.01130 1.06790
Cu1A Cu 1.01740(3) 1.243122(11) 1.500955(17)
Cu1B Cu 1.01740(3) 1.256878(11) 1.000955(17)
Cu1C Cu 0.98260(3) 0.756878(11) 1.499045(17)
O3A O 1.04758(17) 0.66759(6) 1.11446(11)
O5B O 0.96462(18) 0.81928(7) 0.87939(11)
O7C O 0.92059(17) 0.66741(6) 0.88281(11)
#END
