
#######################################################################
#
#                 Cambridge Crystallographic Data Centre
#                                CCDC
#
#######################################################################
#
# If this CIF has been generated from an entry in the Cambridge
# Structural Database, then it will include bibliographic, chemical,
# crystal, experimental, refinement or atomic coordinate data resulting
# from the CCDC's data processing and validation procedures.
#
#######################################################################

data_CSD_CIF_HIFPUI
_audit_creation_date 2007-07-25
_audit_creation_method CSD-ConQuest-V1
_database_code_CSD HIFPUI
_database_code_depnum_ccdc_archive 'CCDC 652500'
_chemical_formula_sum 'C12 H17 Cu1 N2 O10.5'
_chemical_formula_moiety
;
(C10 H2 Cu1 O8 2-)n,n(C2 H10 N2 2+),2.5n(H2 O1)
;
_journal_coeditor_code "IUCr SQ3073"
_journal_coden_Cambridge 591
_journal_volume 63
_journal_year 2007
_journal_page_first m273
_journal_name_full 'Acta Crystallogr.,Sect.C:Cryst.Struct.Commun. '
loop_
_publ_author_name
"Jian-Hai Luo"
"Chang-Cang Huang"
"Xi-He Huang"
"Xiao-Juan Chen"
_chemical_name_systematic
;
catena-[ethylenediammonium 
(\m~4~-benzene-1,2,4,5-tetracarboxylato)-copper(ii) hydrate]
;
_cell_volume   1578.860
_exptl_crystal_colour 'blue'
_exptl_crystal_density_diffrn 1.77
_exptl_crystal_description 'needle'
_diffrn_ambient_temperature 293
_refine_special_details
;
A water molecule of crystallization is disordered across a mirror plane and 
the occupancy has been fixed at 0.5.
;
#These two values have been output from a single CSD field.
_refine_ls_R_factor_gt 0.0326
_refine_ls_wR_factor_gt 0.0326
_symmetry_cell_setting monoclinic
_symmetry_space_group_name_H-M 'C 2/m'
_symmetry_Int_Tables_number 12
loop_
_symmetry_equiv_pos_site_id
_symmetry_equiv_pos_as_xyz
1 x,y,z
2 1/2+x,1/2+y,z
3 -x,y,-z
4 1/2-x,1/2+y,-z
5 -x,-y,-z
6 -1/2-x,-1/2-y,-z
7 x,-y,z
8 -1/2+x,-1/2-y,z
_cell_length_a 11.432(2)
_cell_length_b 18.484(4)
_cell_length_c 7.4981(15)
_cell_angle_alpha 90
_cell_angle_beta 94.80(3)
_cell_angle_gamma 90
_cell_formula_units_Z 4
loop_
_atom_type_symbol
_atom_type_radius_bond
C 0.68
H 0.23
Cu 1.52
N 0.68
O 0.68
loop_
_atom_site_label
_atom_site_type_symbol
_atom_site_fract_x
_atom_site_fract_y
_atom_site_fract_z
Cu1 Cu 0.50000 0.24370(2) 0.00000
O1 O 0.38012(15) 0.31920(9) -0.0158(3)
O2 O 0.43585(16) 0.35615(10) 0.2638(3)
O3 O 0.11508(17) 0.34645(11) -0.2347(3)
O4 O 0.11590(15) 0.33154(9) 0.0613(3)
C1 C 0.3188(2) 0.43453(13) 0.0677(4)
C2 C 0.3706(3) 0.50000 0.1202(5)
H1 H 0.44120 0.50000 0.19160
C3 C 0.2109(2) 0.43458(13) -0.0378(4)
C4 C 0.1581(3) 0.50000 -0.0900(5)
H2 H 0.08710 0.50000 -0.16020
C5 C 0.3825(2) 0.36478(13) 0.1125(4)
C6 C 0.1439(2) 0.36512(13) -0.0789(4)
N1 N 0.3215(2) 0.33719(13) 0.5812(3)
H3 H 0.38000 0.34610 0.66410
H4 H 0.25680 0.35950 0.61040
H5 H 0.34050 0.35340 0.47560
C7 C 0.3000(2) 0.25815(15) 0.5702(4)
H6 H 0.28050 0.24030 0.68560
H7 H 0.37060 0.23370 0.53940
O5 O 0.1146(3) 0.42380(15) 0.3957(4)
H8 H 0.079(3) 0.408(2) 0.307(3)
H9 H 0.0952(17) 0.3992(18) 0.479(3)
O6 O 0.3683(10) 0.50000 0.5648(15)
H10 H 0.32760 0.46400 0.57630
Cu1G Cu 0.00000 0.25630(2) 0.00000
Cu1A Cu 0.00000 0.74370(2) 0.00000
Cu1F Cu 0.50000 0.75630(2) 0.00000
O1F O 0.38012(15) 0.68080(9) -0.0158(3)
O1B O 0.61988(15) 0.31920(9) 0.0158(3)
O2F O 0.43585(16) 0.64385(10) 0.2638(3)
O3F O 0.11508(17) 0.65355(11) -0.2347(3)
O4F O 0.11590(15) 0.66846(9) 0.0613(3)
O4G O 0.61590(15) 0.16846(9) 0.0613(3)
O4E O 0.38410(15) 0.16846(9) -0.0613(3)
C1F C 0.3188(2) 0.56547(13) 0.0677(4)
C3F C 0.2109(2) 0.56542(13) -0.0378(4)
C5F C 0.3825(2) 0.63522(13) 0.1125(4)
C6F C 0.1439(2) 0.63488(13) -0.0789(4)
N1E N 0.1785(2) 0.16281(13) 0.4188(3)
H3E H 0.12000 0.15390 0.33590
H4E H 0.24320 0.14050 0.38960
H5E H 0.15950 0.14660 0.52440
C7E C 0.2000(2) 0.24185(15) 0.4298(4)
H6E H 0.21950 0.25970 0.31440
H7E H 0.12940 0.26630 0.46060
H10F H 0.32760 0.53600 0.57630
#END
