
#######################################################################
#
#                 Cambridge Crystallographic Data Centre
#                                CCDC
#
#######################################################################
#
# If this CIF has been generated from an entry in the Cambridge
# Structural Database, then it will include bibliographic, chemical,
# crystal, experimental, refinement or atomic coordinate data resulting
# from the CCDC's data processing and validation procedures.
#
#######################################################################

data_CSD_CIF_HIGQOG
_audit_creation_date 2018-06-20
_audit_creation_method CSD-ConQuest-V1
_database_code_CSD HIGQOG
_database_code_depnum_ccdc_archive 'CCDC 1821613'
_chemical_formula_sum 'C17 H39 As1 Co1 K2 Mo6 N1 O39.5'
_chemical_formula_moiety
;
2(K1 1+),H3 O1 1+,n(C17 H25 As1 Co1 Mo6 N1 O33 3-),5.5(H2 O1)
;
_journal_coden_Cambridge 1499
_journal_volume 8
_journal_year 2018
_journal_page_first 6062
_journal_name_full 'ACS Catalysis '
loop_
_publ_author_name
"Yujiao Hou"
"Haiyan An"
"Yumeng Zhang"
"Tao Hu"
"Wei Yang"
"Shenzhen Chang"
_chemical_name_systematic
;
catena-[bis(potassium) oxonium 
(\m-arsorito)-(\m-3-ammoniopropanoato)-bis(\m-4-hydroxybenzoato)-octakis(\m-ox
o)-tetra-aqua-deca-oxo-cobalt(ii)-hexa-molybdenum hydrate]
;
_cell_volume   2406.965
_exptl_crystal_colour 'red'
_exptl_crystal_density_diffrn 2.314
_exptl_special_details
;
Isostructural with the Mn, Ni and Zn analogues.

;
_exptl_crystal_description 'block'
_diffrn_ambient_temperature 293
#These two values have been output from a single CSD field.
_refine_ls_R_factor_gt 0.04
_refine_ls_wR_factor_gt 0.04
_symmetry_cell_setting triclinic
_symmetry_space_group_name_H-M 'P -1'
_symmetry_Int_Tables_number 2
loop_
_symmetry_equiv_pos_site_id
_symmetry_equiv_pos_as_xyz
1 x,y,z
2 -x,-y,-z
_cell_length_a 12.0872(8)
_cell_length_b 12.5682(8)
_cell_length_c 17.2255(13)
_cell_angle_alpha 76.700(4)
_cell_angle_beta 74.058(4)
_cell_angle_gamma 76.399(4)
_cell_formula_units_Z 2
loop_
_atom_type_symbol
_atom_type_radius_bond
C 0.68
H 0.23
As 1.21
Co 1.26
K 2.03
Mo 1.54
N 0.68
O 0.68
loop_
_atom_site_label
_atom_site_type_symbol
_atom_site_fract_x
_atom_site_fract_y
_atom_site_fract_z
Mo1 Mo 0.07257(5) 0.14453(5) 0.63476(3)
O1 O -0.0618(4) 0.0516(4) 0.7102(3)
O2 O 0.1452(4) 0.0426(4) 0.7174(3)
O3 O -0.0536(4) 0.2462(4) 0.5982(3)
O4 O 0.1122(4) 0.0632(4) 0.5613(3)
O5 O 0.1809(4) 0.2264(4) 0.6044(3)
O6 O -0.0040(4) 0.2392(4) 0.7444(3)
Mo2 Mo 0.04744(5) -0.05611(5) 0.79483(4)
As1 As -0.21482(6) 0.10408(5) 0.74040(4)
Mo3 Mo -0.16719(5) 0.26306(5) 0.53649(4)
Co1 Co 0.27413(8) 0.32025(8) 0.64038(6)
C1 C -0.0241(6) 0.2035(6) 0.8211(4)
O7 O -0.0992(4) -0.0872(4) 0.8619(3)
O8 O -0.0176(4) 0.1008(4) 0.8543(3)
O9 O 0.1336(5) -0.1047(5) 0.8641(3)
O10 O 0.0816(5) -0.1597(4) 0.7389(3)
O11 O -0.2598(4) -0.0280(4) 0.7662(3)
O12 O -0.2413(4) 0.1406(4) 0.6390(3)
O13 O -0.3253(4) 0.2721(4) 0.5276(3)
O14 O -0.2634(4) 0.3750(4) 0.6302(3)
O15 O -0.1442(4) 0.3853(4) 0.4701(3)
O16 O -0.0981(4) 0.1632(4) 0.4780(3)
O17 O 0.2565(5) 0.2033(5) 0.7476(3)
O18 O 0.3482(5) 0.4161(5) 0.6898(4)
O19 O 0.2991(5) 0.4172(5) 0.5234(3)
O20 O 0.1065(4) 0.4165(4) 0.6796(3)
O21 O 0.4459(4) 0.2372(4) 0.5979(3)
C2 C -0.0585(6) 0.2886(6) 0.8765(4)
Mo4 Mo -0.21573(5) -0.16765(5) 0.86471(4)
Mo5 Mo -0.43786(5) -0.05426(5) 0.77878(4)
Mo6 Mo -0.41450(5) 0.17315(5) 0.61226(4)
C3 C -0.3600(6) 0.3723(5) 0.6818(4)
C4 C -0.1107(7) 0.3944(7) 0.8503(5)
C5 C -0.0371(7) 0.2603(6) 0.9543(5)
O22 O -0.3732(4) -0.1707(4) 0.8582(3)
O23 O -0.2193(4) -0.2572(4) 0.9580(3)
O24 O -0.1400(5) -0.2501(4) 0.7943(3)
O25 O -0.3180(4) -0.0315(4) 0.9383(3)
O26 O -0.4557(4) 0.0949(4) 0.7199(3)
O27 O -0.4667(4) 0.0528(4) 0.8801(3)
O28 O -0.5822(5) -0.0654(5) 0.8196(4)
O29 O -0.3986(5) -0.1220(5) 0.6976(3)
O30 O -0.3778(4) 0.0650(4) 0.5604(3)
O31 O -0.4314(4) 0.3106(4) 0.6850(3)
C6 C -0.3919(6) 0.4462(6) 0.7441(4)
H1 H -0.12390 0.41340 0.79770
C7 C -0.1444(8) 0.4736(6) 0.8996(5)
C8 C -0.0702(8) 0.3393(7) 1.0049(5)
H2 H -0.00070 0.18850 0.97260
C9 C -0.3997(6) 0.0487(6) 0.9256(4)
C10 C -0.4763(7) 0.4261(6) 0.8175(5)
C11 C -0.3372(7) 0.5375(6) 0.7301(5)
H3 H -0.18060 0.54520 0.88080
C12 C -0.1235(7) 0.4452(6) 0.9780(5)
H4 H -0.05620 0.32030 1.05730
C13 C -0.4168(7) 0.1458(6) 0.9674(5)
H5 H -0.51510 0.36690 0.82740
C14 C -0.5016(8) 0.4934(7) 0.8745(5)
C15 C -0.3656(7) 0.6058(6) 0.7870(5)
H6 H -0.28110 0.55210 0.68180
O32 O -0.1548(6) 0.5211(5) 1.0295(4)
H7 H -0.45540 0.21140 0.93610
H8 H -0.46890 0.13160 1.02120
C16 C -0.3080(8) 0.1704(8) 0.9778(6)
H9 H -0.55620 0.47840 0.92360
C17 C -0.4468(7) 0.5837(6) 0.8600(5)
H10 H -0.33000 0.66730 0.77640
H11 H -0.32780 0.23280 1.00650
H12 H -0.25830 0.19150 0.92420
N1 N -0.2426(8) 0.0728(8) 1.0246(7)
O33 O -0.4750(5) 0.6498(5) 0.9178(4)
H13 H -0.17800 0.09020 1.02970
H14 H -0.22330 0.01580 0.99800
H15 H -0.28750 0.05410 1.07420
K1 K -0.1182(2) -0.0704(2) 0.60373(14)
K2 K 0.2644(3) -0.1497(4) 0.6078(2)
K3 K 0.0603(5) -0.3585(4) 0.6996(3)
O34 O 0.2250(8) -0.4464(8) 0.8000(6)
O35 O -0.1621(10) -0.2732(9) 0.6004(7)
O36 O 0.3824(11) -0.0112(11) 0.6172(8)
O37 O 0.4856(17) -0.2593(18) 0.6340(12)
O38 O 0.3389(11) -0.2565(11) 0.7736(8)
O39 O -0.0591(6) 0.4981(5) 0.5824(4)
O40 O 0.3268(7) 0.2041(7) 0.8801(4)
O41 O 0.4717(10) -0.4163(11) 0.5653(8)
O42 O 0.6258(5) -0.1437(5) 0.5246(4)
O21* O -0.5541(4) 0.2372(4) 0.5979(3)
Co1* Co -0.72587(8) 0.32025(8) 0.64038(6)
#END
