
#######################################################################
#
#                 Cambridge Crystallographic Data Centre
#                                CCDC
#
#######################################################################
#
# If this CIF has been generated from an entry in the Cambridge
# Structural Database, then it will include bibliographic, chemical,
# crystal, experimental, refinement or atomic coordinate data resulting
# from the CCDC's data processing and validation procedures.
#
#######################################################################

data_CSD_CIF_HIGRAT
_audit_creation_date 2018-06-20
_audit_creation_method CSD-ConQuest-V1
_database_code_CSD HIGRAT
_database_code_depnum_ccdc_archive 'CCDC 1821615'
_chemical_formula_sum 'C17 H42 As1 K2 Mo6 N1 O41 Zn1'
_chemical_formula_moiety
;
2(K1 1+),H3 O1 1+,n(C17 H25 As1 Mo6 N1 O33 Zn1 3-),7(H2 O1)
;
_journal_coden_Cambridge 1499
_journal_volume 8
_journal_year 2018
_journal_page_first 6062
_journal_name_full 'ACS Catalysis '
loop_
_publ_author_name
"Yujiao Hou"
"Haiyan An"
"Yumeng Zhang"
"Tao Hu"
"Wei Yang"
"Shenzhen Chang"
_chemical_name_systematic
;
catena-[bis(potassium) oxonium 
(\m-arsorito)-(\m-3-ammoniopropanoato)-bis(\m-4-hydroxybenzoato)-octakis(\m-ox
o)-tetra-aqua-deca-oxo-zinc(ii)-hexa-molybdenum heptahydrate]
;
_cell_volume   2415.162
_exptl_crystal_colour 'colorless'
_exptl_crystal_density_diffrn 2.35
_exptl_special_details
;
Isostructural with the Co, Mn and Ni analogues.

;
_exptl_crystal_description 'block'
_diffrn_ambient_temperature 293
#These two values have been output from a single CSD field.
_refine_ls_R_factor_gt 0.043
_refine_ls_wR_factor_gt 0.043
_symmetry_cell_setting triclinic
_symmetry_space_group_name_H-M 'P -1'
_symmetry_Int_Tables_number 2
loop_
_symmetry_equiv_pos_site_id
_symmetry_equiv_pos_as_xyz
1 x,y,z
2 -x,-y,-z
_cell_length_a 12.1425(2)
_cell_length_b 12.5739(2)
_cell_length_c 17.2226(3)
_cell_angle_alpha 76.443(1)
_cell_angle_beta 74.062(1)
_cell_angle_gamma 76.225(1)
_cell_formula_units_Z 2
loop_
_atom_type_symbol
_atom_type_radius_bond
C 0.68
H 0.23
As 1.21
K 2.03
Mo 1.54
N 0.68
O 0.68
Zn 1.22
loop_
_atom_site_label
_atom_site_type_symbol
_atom_site_fract_x
_atom_site_fract_y
_atom_site_fract_z
Mo1 Mo 0.06354(6) 0.44648(5) 0.27817(4)
Mo2 Mo 0.57144(5) 0.64485(5) 0.13496(4)
Mo3 Mo 0.54559(5) 0.44451(5) 0.29571(4)
Mo4 Mo 0.08670(5) 0.67448(5) 0.11151(4)
Mo5 Mo 0.28408(5) 0.33304(5) 0.36516(4)
Mo6 Mo 0.33259(5) 0.76455(5) 0.03649(4)
As1 As 0.28482(6) 0.60506(5) 0.24060(4)
Zn1 Zn 0.77390(8) 0.82058(7) 0.14168(6)
O1 O 0.7979(5) 0.9146(5) 0.0235(3)
O2 O 0.6078(5) 0.9167(5) 0.1799(4)
O3 O 0.1030(5) 0.3793(5) 0.1969(3)
O4 O 0.8470(5) 0.9165(5) 0.1903(4)
O5 O 0.4961(4) 0.7400(4) 0.2443(3)
O6 O 0.7600(6) 0.6991(5) 0.2455(4)
O7 O -0.0802(5) 0.4352(5) 0.3189(4)
O8 O 0.4364(4) 0.5526(4) 0.2105(3)
O9 O -0.0519(4) 0.7387(4) 0.0963(3)
O10 O 0.6099(5) 0.5637(4) 0.0622(3)
O11 O 0.2362(4) 0.8749(4) 0.1308(3)
O12 O 0.2587(4) 0.6415(4) 0.1391(3)
O13 O 0.4813(5) 0.6021(4) 0.3542(3)
O14 O 0.2405(4) 0.4727(4) 0.2664(3)
O15 O 0.6791(4) 0.7262(4) 0.1042(3)
O16 O 0.3554(5) 0.8874(4) -0.0298(3)
O17 O 0.4458(4) 0.7472(4) 0.0986(3)
O18 O 0.5797(5) 0.3405(4) 0.2403(3)
O19 O 0.0685(4) 0.8115(4) 0.1845(3)
O20 O 0.1240(5) 0.5666(4) 0.0593(3)
O21 O 0.3999(4) 0.4138(4) 0.3626(3)
O22 O 0.4015(5) 0.6652(4) -0.0223(3)
O23 O 0.3604(5) 0.2510(4) 0.2952(3)
O24 O 0.1280(4) 0.3294(4) 0.3580(3)
O25 O 0.0456(4) 0.5961(4) 0.2193(3)
O26 O 0.1752(4) 0.7738(4) 0.0268(3)
O27 O 0.1811(4) 0.4692(4) 0.4385(3)
O28 O 0.6437(4) 0.5426(4) 0.2180(3)
O29 O 0.2805(5) 0.2437(4) 0.4584(3)
O30 O 0.6312(5) 0.3957(5) 0.3650(3)
O31 O 0.3462(6) 1.0216(5) 0.5290(4)
O32 O 0.0242(6) 1.1508(5) 0.4176(4)
O33 O 0.0331(4) 0.5527(4) 0.3804(3)
C1 C 0.4762(6) 0.7031(6) 0.3218(4)
C2 C 0.1007(6) 0.5488(6) 0.4257(4)
C3 C 0.4415(7) 0.7884(6) 0.3766(4)
C4 C 0.1404(6) 0.8734(6) 0.1814(4)
C5 C 0.1626(7) 1.0372(6) 0.2300(5)
H1 H 0.21900 1.05080 0.18180
C6 C 0.1068(7) 0.9472(6) 0.2439(4)
C7 C 0.3770(8) 0.9451(6) 0.4777(5)
C8 C 0.0830(7) 0.6461(7) 0.4683(5)
H2 H 0.04430 0.71200 0.43710
H3 H 0.03150 0.63140 0.52200
C9 C 0.4617(7) 0.7608(6) 0.4546(5)
H4 H 0.49750 0.68880 0.47340
C10 C 0.3556(8) 0.9741(7) 0.3994(5)
H5 H 0.31890 1.04580 0.38080
C11 C 0.1349(7) 1.1064(6) 0.2871(5)
H6 H 0.17120 1.16730 0.27660
C12 C 0.3895(7) 0.8954(7) 0.3500(5)
H7 H 0.37700 0.91500 0.29710
C13 C 0.0243(8) 0.9276(6) 0.3167(5)
H8 H -0.01340 0.86770 0.32690
C14 C 0.4290(8) 0.8395(7) 0.5052(5)
H9 H 0.44250 0.82020 0.55780
C15 C 0.0531(7) 1.0848(6) 0.3597(5)
C16 C 0.1908(8) 0.6702(8) 0.4785(6)
H10 H 0.24090 0.69010 0.42480
H11 H 0.17140 0.73320 0.50630
C17 C -0.0027(8) 0.9946(7) 0.3739(5)
H12 H -0.05830 0.98010 0.42240
N1 N 0.2539(9) 0.5736(8) 0.5261(7)
H13 H 0.31880 0.59030 0.53070
H14 H 0.27220 0.51580 0.50050
H15 H 0.20890 0.55650 0.57580
K1 K 0.3836(2) 0.43071(19) 0.10339(14)
K2 K 0.7635(3) 0.3497(3) 0.10869(18)
O34 O 0.3412(11) 0.2265(9) 0.1028(8)
O35 O 0.8819(13) 0.4872(12) 0.1209(8)
O36 O 0.8642(8) 0.6561(7) -0.0308(5)
O37 O 0.8366(11) 0.2451(10) 0.2743(8)
O38 O 0.9884(18) 0.2376(17) 0.1244(13)
O39 O 0.7259(9) 0.0536(8) 0.2997(6)
O40 O 0.4421(6) -0.0020(6) 0.0825(4)
O41 O 0.8258(7) 0.7012(7) 0.3800(5)
O42 O 0.9741(12) 0.0767(12) 0.0607(9)
O43 O 0.5601(5) 0.1409(4) 0.2002(3)
O44? O 0.891(3) 0.520(3) 0.083(2)
O45? O 0.8829(15) 0.6170(12) -0.0082(8)
Zn1* Zn -0.22610(8) 0.82058(7) 0.14168(6)
O9* O 0.9481(4) 0.7387(4) 0.0963(3)
#END
