
#######################################################################
#
#                 Cambridge Crystallographic Data Centre
#                                CCDC
#
#######################################################################
#
# If this CIF has been generated from an entry in the Cambridge
# Structural Database, then it will include bibliographic, chemical,
# crystal, experimental, refinement or atomic coordinate data resulting
# from the CCDC's data processing and validation procedures.
#
#######################################################################

data_CSD_CIF_HIHBEH
_audit_creation_date 2013-07-05
_audit_creation_method CSD-ConQuest-V1
_database_code_CSD HIHBEH
_database_code_depnum_ccdc_archive 'CCDC 894502'
_chemical_formula_sum 'C102.5 H170 Cr7 Cu1 F8 N5 Ni1 O39'
_chemical_formula_moiety
;
(C86 H142 Cr7 Cu1 F8 N4 Ni1 O39 1-)n,n(C6 H16 N1 1+),1.5n(C7 H8)
;
_journal_coden_Cambridge 182
_journal_volume 49
_journal_year 2013
_journal_page_first 7195
_journal_name_full 'Chem.Commun. '
loop_
_publ_author_name
"G.F.S.Whitehead"
"B.Cross"
"L.Carthy"
"V.A.Milway"
"H.Rath"
"A.Fernandez"
"S.L.Heath"
"C.A.Muryn"
"R.G.Pritchard"
"S.J.Teat"
"G.A.Timco"
"R.E.P.Winpenny"
_chemical_name_systematic
;
catena-[N-butylbutan-1-aminium 
bis(\m~3~-pyridine-4-carboxylato)-tetradecakis(\m~2~-pivalato)-octakis(\m~2~-f
luoro)-tetrahydrofuran-dinitrato-copper-nickel-hepta-chromium toluene 
solvate]
;
_cell_volume  14643.877
_exptl_crystal_colour 'green'
_exptl_crystal_density_diffrn 1.24
_exptl_crystal_description 'plate'
_diffrn_ambient_temperature 90
_diffrn_radiation_probe x-ray
_diffrn_source synchrotron
#These two values have been output from a single CSD field.
_refine_ls_R_factor_gt 0.1063
_refine_ls_wR_factor_gt 0.1063
_symmetry_cell_setting monoclinic
_symmetry_space_group_name_H-M 'P 21/n'
_symmetry_Int_Tables_number 14
loop_
_symmetry_equiv_pos_site_id
_symmetry_equiv_pos_as_xyz
1 x,y,z
2 1/2-x,1/2+y,1/2-z
3 -x,-y,-z
4 -1/2+x,-1/2-y,-1/2+z
_cell_length_a 16.9352(6)
_cell_length_b 29.4007(11)
_cell_length_c 29.4140(13)
_cell_angle_alpha 90
_cell_angle_beta 90.834(3)
_cell_angle_gamma 90
_cell_formula_units_Z 4
loop_
_atom_type_symbol
_atom_type_radius_bond
C 0.68
H 0.23
Cr 1.39
Cu 1.32
F 0.64
N 0.68
Ni 1.24
O 0.68
loop_
_atom_site_label
_atom_site_type_symbol
_atom_site_fract_x
_atom_site_fract_y
_atom_site_fract_z
C1 C 0.2554(13) 0.2027(9) 0.5261(8)
H1 H 0.29480 0.20890 0.54960
H2 H 0.25760 0.17070 0.51810
C2 C 0.1667(13) 0.2167(8) 0.5434(8)
H3 H 0.12770 0.19610 0.53040
H4 H 0.16450 0.21460 0.57630
C3 C 0.1518(15) 0.2587(9) 0.5302(8)
H5 H 0.16010 0.27970 0.55520
H6 H 0.09750 0.26140 0.51960
C4 C 0.2100(11) 0.2694(7) 0.4906(7)
H7 H 0.18110 0.27260 0.46210
H8 H 0.23800 0.29760 0.49670
C5 C 0.4450(7) 0.2778(5) 0.5100(4)
H9 H 0.39910 0.29510 0.50780
C6 C 0.5052(7) 0.2900(4) 0.5416(4)
H10 H 0.49850 0.31470 0.56090
C7 C 0.5740(6) 0.2648(4) 0.5435(4)
C8 C 0.6371(6) 0.2761(4) 0.5805(3)
C9 C 0.5894(7) 0.0756(4) 0.6052(3)
C10 C 0.5593(6) 0.0661(4) 0.5557(4)
C11 C 0.5658(15) 0.1073(5) 0.5272(6)
H11 H 0.62020 0.11640 0.52580
H12 H 0.53530 0.13140 0.54020
H13 H 0.54630 0.10080 0.49710
C12 C 0.6105(10) 0.0296(5) 0.5350(7)
H14 H 0.66340 0.04070 0.53220
H15 H 0.58990 0.02160 0.50550
H16 H 0.61060 0.00320 0.55430
C13 C 0.4779(7) 0.0503(7) 0.5620(7)
H17 H 0.47850 0.02240 0.57910
H18 H 0.45320 0.04510 0.53290
H19 H 0.44880 0.07290 0.57830
C14 C 0.7414(7) 0.0195(3) 0.6699(5)
C15 C 0.7908(6) -0.0245(4) 0.6578(3)
C16 C 0.7379(8) -0.0592(4) 0.6365(5)
H20 H 0.69680 -0.06710 0.65730
H21 H 0.76800 -0.08590 0.62940
H22 H 0.71480 -0.04700 0.60910
C17 C 0.8183(9) -0.0371(6) 0.7043(4)
H23 H 0.85380 -0.01420 0.71570
H24 H 0.84520 -0.06580 0.70340
H25 H 0.77380 -0.03940 0.72400
C18 C 0.8535(8) -0.0124(6) 0.6251(5)
H26 H 0.88880 0.00930 0.63880
H27 H 0.82970 0.00060 0.59820
H28 H 0.88230 -0.03920 0.61700
C19 C 0.5797(7) 0.0543(4) 0.7999(3)
C20 C 0.6262(6) 0.0480(3) 0.8462(3)
C21 C 0.7072(6) 0.0670(5) 0.8422(6)
H29 H 0.73570 0.05010 0.81980
H30 H 0.73430 0.06500 0.87100
H31 H 0.70390 0.09830 0.83300
C22 C 0.6309(12) -0.0028(3) 0.8518(7)
H32 H 0.57870 -0.01500 0.85490
H33 H 0.66180 -0.01000 0.87850
H34 H 0.65520 -0.01590 0.82560
C23 C 0.5824(10) 0.0722(6) 0.8821(5)
H35 H 0.52990 0.06010 0.88380
H36 H 0.57970 0.10400 0.87490
H37 H 0.60910 0.06820 0.91080
C24 C 0.4658(7) -0.0139(3) 0.7152(4)
C25 C 0.4428(5) -0.0645(3) 0.7040(3)
C26 C 0.5155(6) -0.0934(4) 0.7054(5)
H38 H 0.55200 -0.08280 0.68300
H39 H 0.50150 -0.12440 0.69900
H40 H 0.53980 -0.09150 0.73500
C27 C 0.4103(7) -0.0631(4) 0.6558(3)
H41 H 0.45140 -0.05400 0.63550
H42 H 0.36770 -0.04160 0.65400
H43 H 0.39130 -0.09270 0.64740
C28 C 0.3836(7) -0.0786(4) 0.7374(4)
H44 H 0.33840 -0.05890 0.73510
H45 H 0.40600 -0.07670 0.76750
H46 H 0.36760 -0.10930 0.73130
C29 C 0.8406(5) 0.1728(4) 0.7018(3)
C30 C 0.9051(6) 0.1709(3) 0.7404(3)
C31 C 0.8969(8) 0.2112(4) 0.7709(4)
H47 H 0.90340 0.23850 0.75350
H48 H 0.93660 0.20990 0.79450
H49 H 0.84550 0.21100 0.78420
C32 C 0.9832(6) 0.1729(6) 0.7160(5)
H50 H 0.98610 0.20060 0.69880
H51 H 0.98720 0.14740 0.69570
H52 H 1.02580 0.17190 0.73780
C33 C 0.8963(12) 0.1294(4) 0.7682(5)
H53 H 0.90150 0.10310 0.74910
H54 H 0.84530 0.12930 0.78190
H55 H 0.93660 0.12890 0.79150
C34 C 0.8323(7) 0.1554(4) 0.5789(3)
C35 C 0.8710(6) 0.1468(3) 0.5313(4)
C36 C 0.9451(6) 0.1733(5) 0.5307(6)
H56 H 0.98130 0.16150 0.55320
H57 H 0.93390 0.20460 0.53740
H58 H 0.96830 0.17110 0.50120
C37 C 0.8785(10) 0.0966(3) 0.5240(6)
H59 H 0.82700 0.08290 0.52440
H60 H 0.91080 0.08370 0.54780
H61 H 0.90240 0.09100 0.49510
C38 C 0.8153(11) 0.1662(8) 0.4958(6)
H62 H 0.76660 0.14950 0.49590
H63 H 0.83870 0.16380 0.46640
H64 H 0.80510 0.19760 0.50250
C39 C 0.5835(7) 0.2297(4) 0.5149(4)
H65 H 0.63000 0.21290 0.51540
C40 C 0.5222(8) 0.2187(5) 0.4844(4)
H66 H 0.52960 0.19480 0.46420
C41 C 0.3399(7) 0.1940(5) 0.3458(4)
H67 H 0.39390 0.19940 0.34390
C42 C 0.2995(6) 0.1816(4) 0.3073(4)
H68 H 0.32540 0.17910 0.27980
C43 C 0.2215(6) 0.1730(3) 0.3096(3)
C44 C 0.1754(5) 0.1626(3) 0.2670(3)
C45 C -0.2125(5) 0.3819(4) 0.2110(4)
C46 C -0.2828(6) 0.3882(3) 0.1769(3)
C47 C -0.3452(6) 0.4164(4) 0.1989(5)
H69 H -0.36490 0.40060 0.22500
H70 H -0.38780 0.42160 0.17760
H71 H -0.32310 0.44500 0.20830
C48 C -0.3163(8) 0.3423(4) 0.1645(6)
H72 H -0.33590 0.32780 0.19130
H73 H -0.27570 0.32380 0.15150
H74 H -0.35870 0.34600 0.14280
C49 C -0.2531(9) 0.4125(5) 0.1367(4)
H75 H -0.21350 0.39440 0.12230
H76 H -0.23050 0.44100 0.14600
H77 H -0.29590 0.41790 0.11560
C50 C -0.1959(7) 0.4258(5) 0.3255(4)
C51 C -0.2542(6) 0.4502(4) 0.3590(4)
C52 C -0.3362(7) 0.4334(6) 0.3518(7)
H78 H -0.33910 0.40200 0.36050
H79 H -0.35080 0.43650 0.32030
H80 H -0.37160 0.45090 0.37010
C53 C -0.2244(11) 0.4385(7) 0.4061(4)
H81 H -0.17200 0.45030 0.41040
H82 H -0.22360 0.40600 0.40980
H83 H -0.25880 0.45160 0.42830
C54 C -0.2512(12) 0.4991(4) 0.3470(7)
H84 H -0.19830 0.51010 0.35110
H85 H -0.28610 0.51580 0.36630
H86 H -0.26740 0.50300 0.31580
C55 C -0.2706(5) 0.2559(4) 0.3184(4)
C56 C -0.3557(6) 0.2444(3) 0.3353(3)
C57 C -0.4058(8) 0.2262(6) 0.2974(5)
H87 H -0.41290 0.24920 0.27450
H88 H -0.45630 0.21740 0.30890
H89 H -0.38050 0.20010 0.28430
C58 C -0.3901(9) 0.2881(4) 0.3514(6)
H90 H -0.35910 0.29950 0.37650
H91 H -0.44330 0.28310 0.36110
H92 H -0.39010 0.30990 0.32720
C59 C -0.3483(10) 0.2078(5) 0.3700(5)
H93 H -0.31750 0.21870 0.39550
H94 H -0.32270 0.18190 0.35700
H95 H -0.39990 0.19920 0.38010
C60 C -0.0794(6) 0.2815(4) 0.3646(3)
C61 C -0.0509(6) 0.2827(3) 0.4156(3)
C62 C 0.0055(7) 0.2450(4) 0.4250(5)
H96 H -0.01990 0.21640 0.41890
H97 H 0.02230 0.24600 0.45630
H98 H 0.05060 0.24810 0.40590
C63 C -0.1262(7) 0.2762(7) 0.4418(5)
H99 H -0.16100 0.30140 0.43610
H100 H -0.11400 0.27450 0.47380
H101 H -0.15150 0.24850 0.43230
C64 C -0.0133(11) 0.3275(4) 0.4252(7)
H102 H -0.05110 0.35130 0.42010
H103 H 0.03080 0.33170 0.40550
H104 H 0.00480 0.32830 0.45630
C65 C -0.1525(5) 0.1791(3) 0.2005(3)
C66 C -0.2135(5) 0.1693(3) 0.1616(3)
C67 C -0.1749(7) 0.1729(5) 0.1164(3)
H105 H -0.15510 0.20320 0.11230
H106 H -0.21270 0.16610 0.09270
H107 H -0.13190 0.15160 0.11500
C68 C -0.2796(6) 0.2041(4) 0.1647(5)
H108 H -0.30450 0.20150 0.19370
H109 H -0.31790 0.19860 0.14090
H110 H -0.25820 0.23410 0.16140
C69 C -0.2453(7) 0.1221(3) 0.1673(5)
H111 H -0.27040 0.11970 0.19620
H112 H -0.20270 0.10060 0.16580
H113 H -0.28310 0.11580 0.14350
C70 C -0.0857(6) 0.1246(3) 0.3076(3)
C71 C -0.1038(5) 0.0864(3) 0.3431(3)
C72 C -0.1828(6) 0.0928(5) 0.3635(5)
H114 H -0.18470 0.12190 0.37840
H115 H -0.19190 0.06920 0.38530
H116 H -0.22270 0.09150 0.34010
C73 C -0.0422(7) 0.0909(5) 0.3803(4)
H117 H 0.00930 0.08680 0.36780
H118 H -0.05110 0.06820 0.40310
H119 H -0.04570 0.12060 0.39380
C74 C -0.0971(11) 0.0422(4) 0.3189(5)
H120 H -0.04500 0.03920 0.30680
H121 H -0.13530 0.04100 0.29450
H122 H -0.10660 0.01780 0.33980
C75 C 0.0802(5) 0.0882(3) 0.1717(3)
C76 C 0.0593(5) 0.0411(3) 0.1496(3)
C77 C -0.0075(6) 0.0494(4) 0.1163(4)
H123 H 0.00960 0.06990 0.09300
H124 H -0.05140 0.06250 0.13190
H125 H -0.02330 0.02110 0.10270
C78 C 0.1302(6) 0.0230(4) 0.1253(5)
H126 H 0.17220 0.01750 0.14690
H127 H 0.14730 0.04490 0.10330
H128 H 0.11650 -0.00490 0.11020
C79 C 0.0322(9) 0.0087(4) 0.1850(4)
H129 H 0.07440 0.00310 0.20640
H130 H 0.01670 -0.01940 0.17080
H131 H -0.01210 0.02150 0.20050
C80 C 0.3364(5) 0.1808(3) 0.1342(4)
C81 C 0.4202(5) 0.1598(3) 0.1280(3)
C82 C 0.4693(7) 0.1815(5) 0.0930(4)
H132 H 0.47130 0.21370 0.09820
H133 H 0.44680 0.17570 0.06340
H134 H 0.52180 0.16930 0.09460
C83 C 0.4622(9) 0.1671(7) 0.1736(4)
H135 H 0.43250 0.15290 0.19720
H136 H 0.46650 0.19910 0.17960
H137 H 0.51400 0.15390 0.17270
C84 C 0.413(1) 0.1105(3) 0.1191(7)
H138 H 0.38160 0.09670 0.14220
H139 H 0.46460 0.09690 0.11930
H140 H 0.38820 0.10580 0.08990
C85 C 0.1864(6) 0.1767(3) 0.3509(3)
H141 H 0.13270 0.17050 0.35340
C86 C 0.2295(6) 0.1896(4) 0.3891(4)
H142 H 0.20500 0.19200 0.41710
Cr1 Cr 0.76270(9) 0.22833(5) 0.63267(6)
Cr2 Cr 0.72647(12) 0.11653(6) 0.64756(8)
Cr3 Cr 0.59314(11) 0.05337(6) 0.70199(7)
Ni1 Ni 0.17294(8) 0.17345(4) 0.16610(4)
Cr4 Cr 0.01121(9) 0.15559(5) 0.23204(6)
Cr5 Cr -0.12204(10) 0.22095(6) 0.28879(6)
Cr6 Cr -0.16530(13) 0.33168(7) 0.29211(9)
Cr7 Cr -0.07674(12) 0.42772(6) 0.25513(8)
Cu1 Cu 0.36919(10) 0.21944(8) 0.44040(5)
F1 F 0.6907(3) 0.17802(15) 0.64197(17)
F2 F 0.6520(3) 0.10846(16) 0.69480(18)
F3 F 0.5000(3) 0.08815(17) 0.71157(19)
F4 F 0.0671(3) 0.19225(16) 0.19155(16)
F5 F -0.0210(3) 0.21141(15) 0.26350(17)
F6 F -0.1227(3) 0.28019(18) 0.26203(18)
F7 F -0.0732(3) 0.36588(18) 0.27679(19)
F8 F 0.2036(3) 0.23989(15) 0.17546(16)
N1 N 0.4277(6) 0.1311(4) 0.4312(4)
N2 N 0.3794(8) 0.3024(5) 0.4003(5)
N3 N 0.4541(6) 0.2409(4) 0.4828(3)
N4 N 0.3055(6) 0.1985(4) 0.3856(3)
O1 O 0.4667(6) 0.1538(4) 0.4059(3)
O2 O 0.3802(5) 0.1548(4) 0.4606(3)
O3 O 0.4199(7) 0.0914(5) 0.4388(5)
O4 O 0.3348(6) 0.2789(4) 0.4301(3)
O5 O 0.4339(6) 0.2762(5) 0.3859(3)
O6 O 0.3720(9) 0.3406(5) 0.3881(4)
O7 O 0.2681(6) 0.2298(4) 0.4881(4)
O8 O 0.6256(4) 0.3096(2) 0.6047(2)
O9 O 0.6931(4) 0.2478(2) 0.5832(2)
O10 O 0.5677(5) 0.0527(3) 0.6392(3)
O11 O 0.6474(7) 0.0988(3) 0.6017(3)
O12 O 0.6885(5) 0.0164(3) 0.6942(3)
O13 O 0.7603(7) 0.0543(4) 0.6492(4)
O14 O 0.6185(5) 0.0550(3) 0.7675(3)
O15 O 0.5080(6) 0.0562(3) 0.8006(3)
O16 O 0.5368(6) -0.0038(3) 0.7084(3)
O17 O 0.4179(5) 0.0104(3) 0.7325(3)
O18 O 0.8065(5) 0.1368(3) 0.6928(4)
O19 O 0.8302(4) 0.2067(2) 0.6805(3)
O20 O 0.8022(7) 0.1251(4) 0.6004(4)
O21 O 0.8217(4) 0.1939(2) 0.5874(3)
O22 O 0.2112(3) 0.1633(2) 0.2312(2)
O23 O -0.1607(5) 0.4120(3) 0.2121(3)
O24 O -0.2206(5) 0.3498(3) 0.2361(4)
O25 O -0.1523(5) 0.4450(3) 0.2991(3)
O26 O -0.2166(7) 0.3813(4) 0.3187(5)
O27 O -0.2602(6) 0.2960(4) 0.3071(4)
O28 O -0.2231(5) 0.2281(3) 0.3140(3)
O29 O -0.1169(7) 0.3142(3) 0.3496(3)
O30 O -0.0737(5) 0.2455(3) 0.3441(3)
O31 O -0.1726(5) 0.1975(3) 0.2356(3)
O32 O -0.0846(4) 0.1611(2) 0.1933(2)
O33 O -0.1195(6) 0.1620(3) 0.3191(3)
O34 O -0.0440(4) 0.1176(2) 0.2757(3)
O35 O 0.1024(4) 0.15418(19) 0.2737(2)
O36 O 0.0346(4) 0.0999(2) 0.2016(2)
O37 O 0.1357(4) 0.1089(2) 0.1556(2)
O38 O 0.2804(4) 0.1582(2) 0.1449(2)
O39 O 0.3363(4) 0.2238(2) 0.1242(3)
C87 C 0.0045(6) 0.3041(3) 0.1863(3)
H143 H 0.00490 0.33710 0.18600
H144 H -0.04070 0.29470 0.20380
C88 C -0.0077(6) 0.2884(4) 0.1396(4)
H145 H -0.00820 0.25540 0.13990
H146 H 0.03760 0.29780 0.12210
C89 C -0.0798(8) 0.3042(5) 0.1156(5)
H147 H -0.08200 0.29100 0.08570
H148 H -0.07880 0.33670 0.11310
H149 H -0.12540 0.29500 0.13220
C90 C 0.0879(6) 0.3040(3) 0.2552(3)
H150 H 0.08820 0.33700 0.25510
H151 H 0.04330 0.29460 0.27320
C91 C 0.1582(8) 0.2893(5) 0.2785(5)
H152 H 0.20270 0.30060 0.26140
H153 H 0.15970 0.25640 0.27660
C92 C 0.1726(7) 0.3015(4) 0.3262(4)
H154 H 0.22180 0.28850 0.33640
H155 H 0.13050 0.28980 0.34440
H156 H 0.17480 0.33400 0.32910
N5 N 0.0732(5) 0.2891(3) 0.2091(3)
H157 H 0.11480 0.29770 0.19240
H158 H 0.07240 0.25850 0.20920
C93 C 0.6055(9) 0.4330(6) 0.4951(8)
H159 H 0.62930 0.45850 0.50810
C94 C 0.6394(9) 0.3929(5) 0.4982(6)
C95 C 0.6183(10) 0.3607(6) 0.4684(6)
H160 H 0.64540 0.33350 0.46440
C96 C 0.5529(9) 0.3728(6) 0.4450(7)
H161 H 0.53790 0.35040 0.42420
C97 C 0.5039(11) 0.4079(6) 0.4435(7)
H162 H 0.45830 0.41140 0.42580
C98 C 0.5353(12) 0.4365(7) 0.4728(8)
H163 H 0.50570 0.46230 0.47900
C99 C 0.7154(10) 0.3840(8) 0.5221(8)
H164 H 0.75330 0.40660 0.51370
H165 H 0.73450 0.35440 0.51370
H166 H 0.70770 0.38500 0.55430
C100 C 0.2454(10) 0.0607(6) 0.4990(6)
H167 H 0.29990 0.06450 0.49790
C101 C 0.2146(9) 0.0279(6) 0.5223(6)
C102 C 0.1367(10) 0.0231(7) 0.5264(7)
H168 H 0.11210 0.00240 0.54540
C103 C 0.0996(13) 0.0525(8) 0.4988(8)
H169 H 0.04510 0.04870 0.49940
C104 C 0.1202(12) 0.0858(9) 0.471(1)
H170 H 0.08760 0.10280 0.45180
C105 C 0.1963(13) 0.0892(8) 0.4765(10)
H171 H 0.21980 0.11440 0.46320
C106 C 0.2623(16) -0.0077(9) 0.5445(11)
H172 H 0.28290 -0.02780 0.52180
H173 H 0.22990 -0.02460 0.56500
H174 H 0.30520 0.00610 0.56110
Cr1C Cr 0.26270(9) 0.27167(5) 0.13267(6)
Ni1C Ni 0.67294(8) 0.32655(4) 0.66610(4)
Cr7C Cr 0.42326(12) 0.07228(6) 0.75513(8)
F3C F 0.0000(3) 0.41185(17) 0.21157(19)
F8C F 0.7036(3) 0.26011(15) 0.67546(16)
O8C O 0.1256(4) 0.1904(2) 0.1047(2)
O15C O 0.0080(6) 0.4438(3) 0.3006(3)
O17C O -0.0821(5) 0.4896(3) 0.2325(3)
O39C O 0.8363(4) 0.2762(2) 0.6242(3)
#END
