
#######################################################################
#
#                 Cambridge Crystallographic Data Centre
#                                CCDC
#
#######################################################################
#
# If this CIF has been generated from an entry in the Cambridge
# Structural Database, then it will include bibliographic, chemical,
# crystal, experimental, refinement or atomic coordinate data resulting
# from the CCDC's data processing and validation procedures.
#
#######################################################################

data_CSD_CIF_HIKTUS
_audit_creation_date 2013-11-13
_audit_creation_method CSD-ConQuest-V1
_database_code_CSD HIKTUS
_database_code_depnum_ccdc_archive 'CCDC 971705'
_chemical_formula_sum 'C6 H22 N2 O16 Se2 V2'
_chemical_formula_moiety
;
(C2 O12 Se2 V2 2-)n,n(C4 H14 N2 2+),4n(H2 O1)
;
_journal_coden_Cambridge 1147
_journal_volume 13
_journal_year 2013
_journal_page_first 4504
_journal_name_full 'Cryst.Growth Des. '
loop_
_publ_author_name
"J.H.Koffer"
"J.H.Olshansky"
"M.D.Smith"
"K.J.Hernandez"
"M.Zeller"
"G.M.Ferrence"
"J.Schrier"
"A.J.Norquist"
_chemical_name_systematic
;
catena-[N,N'-dimethylethane-1,2-diaminium 
bis(\m~3~-trioxoselenato)-(\m~2~-oxalato)-dioxido-di-vanadium tetrahydrate]
;
_cell_volume    456.462
_exptl_crystal_colour 'blue'
_exptl_crystal_description 'plate'
_diffrn_ambient_temperature 100
_refine_special_details
;
C4,O7 and C3,O8 disordered over two sites with occupancies 0.5880:0.4120.

;
#These two values have been output from a single CSD field.
_refine_ls_R_factor_gt 0.0271
_refine_ls_wR_factor_gt 0.0271
_symmetry_cell_setting triclinic
_symmetry_space_group_name_H-M 'P -1'
_symmetry_Int_Tables_number 2
loop_
_symmetry_equiv_pos_site_id
_symmetry_equiv_pos_as_xyz
1 x,y,z
2 -x,-y,-z
_cell_length_a 6.3369(16)
_cell_length_b 8.509(2)
_cell_length_c 9.413(2)
_cell_angle_alpha 95.363(3)
_cell_angle_beta 108.245(3)
_cell_angle_gamma 105.236(3)
_cell_formula_units_Z 1
loop_
_atom_type_symbol
_atom_type_radius_bond
C 0.68
H 0.23
N 0.68
O 0.68
Se 1.22
V 1.53
loop_
_atom_site_label
_atom_site_type_symbol
_atom_site_fract_x
_atom_site_fract_y
_atom_site_fract_z
V1 V 0.73349(6) 0.60217(5) 0.31781(4)
Se1 Se 0.78717(4) 0.52234(3) 0.64847(2)
O1 O 0.8847(4) 0.7767(2) 0.4328(2)
O2 O 0.5825(3) 0.3799(2) 0.6911(2)
O3 O 0.7173(3) 0.4445(2) 0.45974(18)
O4 O 1.0187(3) 0.4626(3) 0.7368(2)
O5 O 0.3315(3) 0.3074(2) -0.11769(18)
O6 O 0.5038(3) 0.3749(2) 0.13701(19)
C1 C 0.4528(4) 0.4087(3) 0.0062(2)
N1 N 0.5934(5) 0.0660(3) 0.7144(3)
C2 C 0.5947(5) -0.0141(4) 0.5663(3)
C3 C 0.8017(6) 0.0655(4) 0.8457(4)
H1 H 0.59170 0.17690 0.71060
H2 H 0.45490 0.00590 0.73010
H3 H 0.75100 0.03460 0.56070
H4 H 0.56640 -0.13370 0.56580
H5 H 0.80040 -0.04580 0.85050
H6 H 0.79600 0.11660 0.93780
H7 H 0.94000 0.12510 0.83080
C4? C 0.3604(10) -0.0378(6) 0.7464(6)
H8? H 0.72860 0.06650 0.79480
H9? H 0.36230 0.01430 0.84040
H10? H 0.36390 -0.14780 0.75100
H11? H 0.22600 -0.03790 0.66620
O7 O 0.2257(8) -0.1329(6) 0.7422(6)
H12 H 0.18620 -0.18510 0.81850
H13 H 0.11380 -0.18470 0.64510
O8? O 0.8444(13) 0.1990(8) 0.9782(7)
H14? H 0.87610 0.30660 0.95630
H15? H 0.96180 0.19660 1.07000
O6A O 0.4962(3) 0.6251(2) -0.13701(19)
C1A C 0.5472(4) 0.5913(3) -0.0062(2)
O5A O 0.6685(3) 0.6926(2) 0.11769(18)
V1A V 0.26651(6) 0.39783(5) -0.31781(4)
Se1A Se 0.21283(4) 0.47766(3) -0.64847(2)
O1A O 0.1153(4) 0.2233(2) -0.4328(2)
O2A O 0.4175(3) 0.6201(2) -0.6911(2)
O3A O 0.2827(3) 0.5555(2) -0.45974(18)
O4A O -0.0187(3) 0.5374(3) -0.7368(2)
V1* V -0.26651(6) 0.60217(5) -0.68219(4)
V1** V 0.73349(6) 0.60217(5) -0.68219(4)
V1A* V 0.26651(6) 0.39783(5) 0.68219(4)
V1A** V 1.26651(6) 0.39783(5) 0.68219(4)
O2* O 0.5825(3) 0.3799(2) -0.3089(2)
O2A* O 0.4175(3) 0.6201(2) 0.3089(2)
O4* O 0.0187(3) 0.4626(3) -0.2632(2)
O4A* O 0.9813(3) 0.5374(3) 0.2632(2)
N1A N 0.4066(5) -0.0660(3) 0.2856(3)
C2A C 0.4053(5) 0.0141(4) 0.4337(3)
C3A C 0.1983(6) -0.0655(4) 0.1543(4)
H1A H 0.40830 -0.17690 0.28940
H2A H 0.54510 -0.00590 0.26990
H3A H 0.24900 -0.03460 0.43930
H4A H 0.43360 0.13370 0.43420
H5A H 0.19960 0.04580 0.14950
H6A H 0.20400 -0.11660 0.06220
H7A H 0.06000 -0.12510 0.16920
O7A O 0.7743(8) 0.1329(6) 0.2578(6)
H12A H 0.81380 0.18510 0.18150
H13A H 0.88620 0.18470 0.35490
#END
