
#######################################################################
#
#                 Cambridge Crystallographic Data Centre
#                                CCDC
#
#######################################################################
#
# If this CIF has been generated from an entry in the Cambridge
# Structural Database, then it will include bibliographic, chemical,
# crystal, experimental, refinement or atomic coordinate data resulting
# from the CCDC's data processing and validation procedures.
#
#######################################################################

data_CSD_CIF_HIKVAA
_audit_creation_date 2013-11-13
_audit_creation_method CSD-ConQuest-V1
_database_code_CSD HIKVAA
_database_code_depnum_ccdc_archive 'CCDC 971706'
_chemical_formula_sum 'C8 H18 N2 O12 Se2 V2'
_chemical_formula_moiety
;
(C2 O12 Se2 V2 2-)n,n(C6 H18 N2 2+)
;
_journal_coden_Cambridge 1147
_journal_volume 13
_journal_year 2013
_journal_page_first 4504
_journal_name_full 'Cryst.Growth Des. '
loop_
_publ_author_name
"J.H.Koffer"
"J.H.Olshansky"
"M.D.Smith"
"K.J.Hernandez"
"M.Zeller"
"G.M.Ferrence"
"J.Schrier"
"A.J.Norquist"
_chemical_name_systematic
;
catena-[N,N,N',N'-tetramethylethane-1,2-diaminium 
bis(\m~3~-trioxoselenato)-(\m~2~-oxalato)-dioxido-di-vanadium]
;
_cell_volume    455.660
_exptl_crystal_colour 'blue'
_exptl_crystal_density_diffrn 2.165
_exptl_crystal_description 'prism'
_diffrn_ambient_temperature 100
#These two values have been output from a single CSD field.
_refine_ls_R_factor_gt 0.0189
_refine_ls_wR_factor_gt 0.0189
_symmetry_cell_setting triclinic
_symmetry_space_group_name_H-M 'P -1'
_symmetry_Int_Tables_number 2
loop_
_symmetry_equiv_pos_site_id
_symmetry_equiv_pos_as_xyz
1 x,y,z
2 -x,-y,-z
_cell_length_a 6.378(7)
_cell_length_b 8.444(7)
_cell_length_c 9.405(8)
_cell_angle_alpha 92.260(16)
_cell_angle_beta 107.27(3)
_cell_angle_gamma 107.84(2)
_cell_formula_units_Z 1
loop_
_atom_type_symbol
_atom_type_radius_bond
C 0.68
H 0.23
N 0.68
O 0.68
Se 1.22
V 1.53
loop_
_atom_site_label
_atom_site_type_symbol
_atom_site_fract_x
_atom_site_fract_y
_atom_site_fract_z
V1 V 0.73726(4) 0.60275(3) 0.31258(3)
Se1 Se 0.78919(2) 0.523184(17) 0.648937(15)
O1 O 0.8866(2) 0.78140(14) 0.41816(12)
O2 O 0.57731(18) 0.37734(13) 0.69710(12)
O3 O 0.71785(19) 0.44447(13) 0.46326(11)
O4 O 1.0164(2) 0.46205(19) 0.73943(13)
O5 O 0.31943(18) 0.30432(13) -0.10792(11)
O6 O 0.49796(19) 0.37368(13) 0.14307(11)
C1 C 0.4480(2) 0.40698(17) 0.01082(16)
N1 N 0.4442(2) -0.05032(16) 0.28892(14)
C2 C 0.4157(3) 0.0178(2) 0.43000(17)
C3 C 0.2400(3) -0.0601(2) 0.15364(19)
C4 C 0.6679(3) 0.0499(2) 0.26543(18)
H1 H 0.44650 -0.16140 0.29850
H2 H 0.25650 -0.03500 0.42740
H3 H 0.44930 0.13790 0.43090
H4 H 0.23580 0.05260 0.13980
H5 H 0.09720 -0.12480 0.17090
H6 H 0.25400 -0.11450 0.06550
H7 H 0.66240 0.16050 0.24690
H8 H 0.79470 0.05790 0.35340
H9 H 0.67770 -0.00860 0.18050
O6A O 0.50204(19) 0.62632(13) -0.14307(11)
C1A C 0.5520(2) 0.59302(17) -0.01082(16)
O5A O 0.68057(18) 0.69568(13) 0.10792(11)
V1A V 0.26274(4) 0.39725(3) -0.31258(3)
Se1A Se 0.21081(2) 0.476816(17) -0.648937(15)
O1A O 0.1134(2) 0.21860(14) -0.41816(12)
O2A O 0.42269(18) 0.62266(13) -0.69710(12)
O3A O 0.28215(19) 0.55553(13) -0.46326(11)
O4A O -0.0164(2) 0.53795(19) -0.73943(13)
V1* V -0.26274(4) 0.60275(3) -0.68742(3)
V1** V 0.73726(4) 0.60275(3) -0.68742(3)
V1A* V 0.26274(4) 0.39725(3) 0.68742(3)
V1A** V 1.26274(4) 0.39725(3) 0.68742(3)
O2* O 0.57731(18) 0.37734(13) -0.30290(12)
O2A* O 0.42269(18) 0.62266(13) 0.30290(12)
O4* O 0.0164(2) 0.46205(19) -0.26057(13)
O4A* O 0.9836(2) 0.53795(19) 0.26057(13)
N1A N 0.5558(2) 0.05032(16) 0.71108(14)
C2A C 0.5843(3) -0.0178(2) 0.57000(17)
C3A C 0.7600(3) 0.0601(2) 0.84636(19)
C4A C 0.3321(3) -0.0499(2) 0.73457(18)
H1A H 0.55350 0.16140 0.70150
H2A H 0.74350 0.03500 0.57260
H3A H 0.55070 -0.13790 0.56910
H4A H 0.76420 -0.05260 0.86020
H5A H 0.90280 0.12480 0.82910
H6A H 0.74600 0.11450 0.93450
H7A H 0.33760 -0.16050 0.75310
H8A H 0.20530 -0.05790 0.64660
H9A H 0.32230 0.00860 0.81950
#END
