
#######################################################################
#
#                 Cambridge Crystallographic Data Centre
#                                CCDC
#
#######################################################################
#
# If this CIF has been generated from an entry in the Cambridge
# Structural Database, then it will include bibliographic, chemical,
# crystal, experimental, refinement or atomic coordinate data resulting
# from the CCDC's data processing and validation procedures.
#
#######################################################################

data_CSD_CIF_HIKWAB
_audit_creation_date 2013-11-13
_audit_creation_method CSD-ConQuest-V1
_database_code_CSD HIKWAB
_database_code_depnum_ccdc_archive 'CCDC 971711'
_chemical_formula_sum 'C7 H18 N2 O14 Se2 V2'
_chemical_formula_moiety
;
(C2 O12 Se2 V2 2-)n,n(C5 H14 N2 2+),2n(H2 O1)
;
_journal_coden_Cambridge 1147
_journal_volume 13
_journal_year 2013
_journal_page_first 4504
_journal_name_full 'Cryst.Growth Des. '
loop_
_publ_author_name
"J.H.Koffer"
"J.H.Olshansky"
"M.D.Smith"
"K.J.Hernandez"
"M.Zeller"
"G.M.Ferrence"
"J.Schrier"
"A.J.Norquist"
_chemical_name_systematic
;
catena-[(S)-2-methylpiperazinediium 
bis(\m~3~-trioxoselenato)-(\m~2~-oxalato)-dioxido-di-vanadium dihydrate]
;
_cell_volume    872.999
_exptl_crystal_colour 'blue'
_exptl_crystal_density_diffrn 2.336
_exptl_special_details
;
Absolute configuration

;
_exptl_crystal_description 'lath'
_diffrn_ambient_temperature 100
#These two values have been output from a single CSD field.
_refine_ls_R_factor_gt 0.0346
_refine_ls_wR_factor_gt 0.0346
loop_
_citation_database_id_CSD
_citation_special_details
HIKVUU "is a stereoisomer of this entry"
HIKVOO "is a racemate of this entry"
_symmetry_cell_setting monoclinic
_symmetry_space_group_name_H-M 'P 21'
_symmetry_Int_Tables_number 4
loop_
_symmetry_equiv_pos_site_id
_symmetry_equiv_pos_as_xyz
1 x,y,z
2 -x,1/2+y,-z
_cell_length_a 9.2250(15)
_cell_length_b 11.2463(18)
_cell_length_c 9.3681(15)
_cell_angle_alpha 90
_cell_angle_beta 116.074(2)
_cell_angle_gamma 90
_cell_formula_units_Z 2
loop_
_atom_type_symbol
_atom_type_radius_bond
C 0.68
H 0.23
N 0.68
O 0.68
Se 1.22
V 1.53
loop_
_atom_site_label
_atom_site_type_symbol
_atom_site_fract_x
_atom_site_fract_y
_atom_site_fract_z
V1 V 1.07180(14) 0.51124(18) 1.03795(18)
V2 V 0.93033(14) 0.26845(17) 1.46135(18)
Se1 Se 1.00695(7) 0.25841(13) 1.15759(10)
Se2 Se 1.00088(7) 0.52082(13) 1.34459(9)
O1 O 1.2190(6) 0.5945(5) 1.1508(8)
O2 O 1.0728(7) 0.1285(5) 1.1250(9)
O3 O 0.9243(5) 0.5216(6) 1.1414(7)
O4 O 1.1449(6) 0.3511(5) 1.1403(8)
O5 O 1.1626(6) 0.4740(5) 0.8770(8)
O6 O 0.8804(7) 0.3912(5) 0.8513(8)
O7 O 0.7816(7) 0.1872(6) 1.3462(9)
O8 O 0.9296(7) 0.6531(6) 1.3753(9)
O9 O 1.0819(6) 0.2545(7) 1.3613(8)
O10 O 0.8648(6) 0.4304(5) 1.3659(8)
O11 O 0.8293(6) 0.3114(6) 0.6124(8)
O12 O 1.1224(6) 0.3858(5) 0.6512(7)
C1 C 1.0777(8) 0.4107(7) 0.7568(9)
C2 C 0.9139(8) 0.3664(7) 0.7395(11)
O13 O 0.6735(7) 0.6842(6) 0.9737(9)
H1 H 0.68790 0.75230 0.92130
H2 H 0.77030 0.63900 1.01690
O14 O 0.6634(7) 0.5911(6) 1.4646(9)
H3 H 0.70570 0.56720 1.39320
H4 H 0.74140 0.63760 1.54750
N1 N 0.4688(7) 0.5031(7) 0.8057(9)
N2 N 0.5354(7) 0.2797(8) 0.6945(9)
C3 C 0.5612(9) 0.4072(7) 0.9229(12)
C4 C 0.5089(9) 0.2881(8) 0.8437(11)
C5 C 0.4505(9) 0.3784(9) 0.5807(12)
C6 C 0.4953(8) 0.4996(8) 0.6611(11)
C7 C 0.5353(6) 0.4185(4) 1.0718(7)
H5 H 0.51050 0.57290 0.85460
H6 H 0.36450 0.49580 0.78010
H7 H 0.67620 0.41610 0.95300
H8 H 0.57030 0.22550 0.91740
H9 H 0.39470 0.27800 0.81290
H10 H 0.63950 0.28190 0.71830
H11 H 0.49050 0.20920 0.65020
H12 H 0.48000 0.37320 0.49400
H13 H 0.33460 0.36600 0.53990
H14 H 0.60790 0.51750 0.68910
H15 H 0.42550 0.55950 0.58620
H16 H 0.59140 0.35580 1.14500
H17 H 0.57690 0.49400 1.12070
H18 H 0.42220 0.41510 1.04440
V1A V 0.92820(14) 0.01124(18) 0.96205(18)
V2* V 0.93033(14) 0.26845(17) 0.46135(18)
V2A V 1.06967(14) 0.76845(17) 1.53865(18)
O2A O 0.9272(7) 0.6285(5) 0.8750(9)
O8A O 1.0704(7) 0.1531(6) 1.6247(9)
O11* O 0.8293(6) 0.3114(6) 1.6124(8)
O12* O 1.1224(6) 0.3858(5) 1.6512(7)
#END
