
#######################################################################
#
#                 Cambridge Crystallographic Data Centre
#                                CCDC
#
#######################################################################
#
# If this CIF has been generated from an entry in the Cambridge
# Structural Database, then it will include bibliographic, chemical,
# crystal, experimental, refinement or atomic coordinate data resulting
# from the CCDC's data processing and validation procedures.
#
#######################################################################

data_CSD_CIF_HINFER
_audit_creation_date 2013-11-14
_audit_creation_method CSD-ConQuest-V1
_database_code_CSD HINFER
_database_code_depnum_ccdc_archive 'CCDC 664809'
_chemical_formula_sum 'C96 H49 Na1 O50 Pb13'
_chemical_formula_moiety
;
(C96 H49 O50 Pb13 1-)n,n(Na1 1+)
;
_journal_coden_Cambridge 1295
_journal_volume 36
_journal_year 2013
_journal_page_first 216
_journal_name_full 'Inorg.Chem.Commun. '
loop_
_publ_author_name
"Jing Shi"
"Xiao-lin Liu"
"Yun Yan"
"Yun-feng Dong"
"Jie Li"
"Feng Wang"
"Xiu-jie Gu"
"Yan Jiang"
"Dong-hai Xu"
"Huan Chen"
_chemical_name_systematic
;
catena-(Sodium 
hexakis(\m~6~-Benzene-1,3-dicarboxylato)-hexakis(\m~6~-benzene-1,3-dicarboxyla
to)-(\m~3~-hydroxo)-(\m~3~-oxo)-trideca-lead)
;
_cell_volume   3007.767
_exptl_crystal_colour 'yellow'
_exptl_crystal_density_diffrn 2.605
_exptl_crystal_description 'block'
_diffrn_ambient_temperature 293
#These two values have been output from a single CSD field.
_refine_ls_R_factor_gt 0.0395
_refine_ls_wR_factor_gt 0.0395
_symmetry_cell_setting hexagonal
_symmetry_space_group_name_H-M 'P -3 m 1'
_symmetry_Int_Tables_number 164
loop_
_symmetry_equiv_pos_site_id
_symmetry_equiv_pos_as_xyz
1 x,y,z
2 -y,x-y,z
3 -x+y,-x,z
4 y,x,-z
5 -x,-x+y,-z
6 x-y,-y,-z
7 -x,-y,-z
8 y,-x+y,-z
9 x-y,x,-z
10 -y,-x,z
11 x,x-y,z
12 -x+y,y,z
_cell_length_a 15.492(2)
_cell_length_b 15.492(2)
_cell_length_c 14.471(3)
_cell_angle_alpha 90
_cell_angle_beta 90
_cell_angle_gamma 120
_cell_formula_units_Z 1
loop_
_atom_type_symbol
_atom_type_radius_bond
C 0.68
H 0.23
Na 1.66
O 0.68
Pb 1.46
loop_
_atom_site_label
_atom_site_type_symbol
_atom_site_fract_x
_atom_site_fract_y
_atom_site_fract_z
Pb1 Pb -0.137976(15) 0.137976(15) 0.54549(3)
Pb2 Pb -0.087740(16) 0.087740(16) 0.27131(3)
Pb3 Pb 0.00000 0.00000 0.00000
O1 O -0.0425(5) 0.2477(5) 0.3744(5)
O2 O -0.1113(5) 0.2916(5) 0.4859(4)
O3 O 0.1879(3) 0.3759(6) 0.3180(6)
O4 O 0.1100(3) 0.2200(6) 0.2598(5)
O5 O 0.0893(4) 0.1786(7) -0.0828(7)
O6 O 0.1574(6) 0.3149(11) -0.1651(9)
O7 O 0.00000 0.00000 0.2106(12)
C1 C -0.0567(7) 0.3935(7) 0.3529(6)
C2 C -0.0719(10) 0.4640(5) 0.3985(8)
H1 H -0.09240 0.45380 0.45990
C3 C -0.0268(11) 0.4092(8) 0.2648(7)
H2 H -0.01740 0.36160 0.23450
C4 C -0.009(2) 0.4955(12) 0.2160(13)
H3 H 0.01330 0.50670 0.15520
C5 C -0.0728(7) 0.3040(6) 0.4081(6)
C6 C 0.1790(6) 0.3579(12) 0.1585(10)
C7 C 0.1478(5) 0.2955(9) 0.0798(9)
H4 H 0.11340 0.22670 0.08780
C8 C 0.1671(6) 0.3341(12) -0.008(1)
C9 C 0.1583(5) 0.3166(10) 0.2522(9)
C10 C 0.1356(5) 0.2712(10) -0.0917(9)
C11 C 0.2175(9) 0.4350(18) -0.0277(18)
H5 H 0.23040 0.46070 -0.08740
C12 C 0.2282(8) 0.4564(16) 0.1483(15)
H6 H 0.24920 0.49830 0.19950
C13 C 0.2483(8) 0.4966(17) 0.0555(19)
H7 H 0.28280 0.56550 0.04850
Na1 Na 0.00000 0.00000 0.50000
O1J O -0.0425(5) 0.7098(5) 0.3744(5)
O2J O -0.1113(5) 0.5971(5) 0.4859(4)
C1J C -0.0567(7) 0.5498(7) 0.3529(6)
C3J C -0.0268(11) 0.5640(8) 0.2648(7)
H2J H -0.01740 0.62100 0.23450
C5J C -0.0728(7) 0.6232(6) 0.4081(6)
Pb1A Pb -0.137976(15) -0.275952(15) 0.54549(3)
Pb2A Pb -0.087740(16) -0.175480(16) 0.27131(3)
O1A O -0.2477(5) -0.2902(5) 0.3744(5)
O2A O -0.2916(5) -0.4029(5) 0.4859(4)
O3A O -0.3759(3) -0.1880(6) 0.3180(6)
O4A O -0.2200(3) -0.1100(6) 0.2598(5)
O5A O -0.1786(4) -0.0893(7) -0.0828(7)
O6A O -0.3149(6) -0.1575(11) -0.1651(9)
C1A C -0.3935(7) -0.4502(7) 0.3529(6)
C2A C -0.464(1) -0.5359(5) 0.3985(8)
H1A H -0.45380 -0.54620 0.45990
C3A C -0.4092(11) -0.4360(8) 0.2648(7)
H2A H -0.36160 -0.37900 0.23450
C4A C -0.4955(20) -0.5045(12) 0.2160(13)
H3A H -0.50670 -0.49340 0.15520
C5A C -0.3040(7) -0.3768(6) 0.4081(6)
C6A C -0.3579(6) -0.1789(12) 0.1585(10)
C7A C -0.2955(5) -0.1477(9) 0.0798(9)
H4A H -0.22670 -0.11330 0.08780
C8A C -0.3341(6) -0.1670(12) -0.008(1)
C9A C -0.3166(5) -0.1583(10) 0.2522(9)
C10A C -0.2712(5) -0.1356(10) -0.0917(9)
C11A C -0.4350(9) -0.2175(18) -0.0277(18)
H5A H -0.46070 -0.23030 -0.08740
C12A C -0.4564(8) -0.2282(16) 0.1483(15)
H6A H -0.49830 -0.24910 0.19950
C13A C -0.4966(8) -0.2483(17) 0.0555(19)
H7A H -0.56550 -0.28270 0.04850
O1K O -0.7098(5) -0.7523(5) 0.3744(5)
O2K O -0.5971(5) -0.7084(5) 0.4859(4)
C1K C -0.5498(7) -0.6065(7) 0.3529(6)
C3K C -0.5640(11) -0.5908(8) 0.2648(7)
H2K H -0.62100 -0.63840 0.23450
C5K C -0.6232(7) -0.6960(6) 0.4081(6)
Pb1B Pb -0.724048(15) 0.137976(15) 0.54549(3)
Pb2B Pb -0.824520(16) 0.087740(16) 0.27131(3)
O1B O -0.7098(5) 0.0425(5) 0.3744(5)
O2B O -0.5971(5) 0.1113(5) 0.4859(4)
O3B O -0.8120(3) -0.1879(6) 0.3180(6)
O4B O -0.8900(3) -0.1100(6) 0.2598(5)
O5B O -0.9107(4) -0.0893(7) -0.0828(7)
O6B O -0.8425(6) -0.1574(11) -0.1651(9)
C1B C -0.5498(7) 0.0567(7) 0.3529(6)
C2B C -0.4641(10) 0.0719(5) 0.3985(8)
H1B H -0.45380 0.09240 0.45990
C3B C -0.5640(11) 0.0268(8) 0.2648(7)
H2B H -0.62100 0.01740 0.23450
C4B C -0.4955(20) 0.0090(12) 0.2160(13)
H3B H -0.50660 -0.01330 0.15520
C5B C -0.6232(7) 0.0728(6) 0.4081(6)
C6B C -0.8211(6) -0.1790(12) 0.1585(10)
C7B C -0.8523(5) -0.1478(9) 0.0798(9)
H4B H -0.88670 -0.11340 0.08780
C8B C -0.8330(6) -0.1671(12) -0.008(1)
C9B C -0.8417(5) -0.1583(10) 0.2522(9)
C10B C -0.8644(5) -0.1356(10) -0.0917(9)
C11B C -0.7825(9) -0.2175(18) -0.0277(18)
H5B H -0.76970 -0.23040 -0.08740
C12B C -0.7718(8) -0.2282(16) 0.1483(15)
H6B H -0.75090 -0.24920 0.19950
C13B C -0.7517(8) -0.2483(17) 0.0555(19)
H7B H -0.71730 -0.28280 0.04850
O1I O -0.2477(5) 0.0425(5) 0.3744(5)
O2I O -0.2916(5) 0.1113(5) 0.4859(4)
C1I C -0.3935(7) 0.0567(7) 0.3529(6)
C3I C -0.4092(11) 0.0268(8) 0.2648(7)
H2I H -0.36160 0.01740 0.23450
C5I C -0.3040(7) 0.0728(6) 0.4081(6)
Pb1C Pb 0.137976(15) -0.137976(15) -0.54549(3)
Pb2C Pb 0.087740(16) -0.087740(16) -0.27131(3)
O1F O 0.0425(5) -0.2477(5) -0.3744(5)
O2F O 0.1113(5) -0.2916(5) -0.4859(4)
O3E O -0.1880(3) -0.3759(6) -0.3180(6)
O4E O -0.1100(3) -0.2200(6) -0.2598(5)
O5E O -0.0893(4) -0.1786(7) 0.0828(7)
O6E O -0.1575(6) -0.3149(11) 0.1651(9)
O7C O 0.00000 0.00000 -0.2106(12)
C1F C 0.0567(7) -0.3935(7) -0.3529(6)
C2D C 0.0719(10) -0.4641(5) -0.3985(8)
H1D H 0.09240 -0.45380 -0.45990
C3F C 0.0268(11) -0.4092(8) -0.2648(7)
H2F H 0.01740 -0.36160 -0.23450
C4D C 0.009(2) -0.4955(12) -0.2160(13)
H3D H -0.01330 -0.50660 -0.15520
C5F C 0.0728(7) -0.3040(6) -0.4081(6)
C6E C -0.1789(6) -0.3579(12) -0.1585(10)
C7E C -0.1477(5) -0.2955(9) -0.0798(9)
H4E H -0.11330 -0.22670 -0.08780
C8E C -0.1670(6) -0.3341(12) 0.008(1)
C9E C -0.1583(5) -0.3166(10) -0.2522(9)
C10E C -0.1356(5) -0.2712(10) 0.0917(9)
C11E C -0.2175(9) -0.4350(18) 0.0277(18)
H5E H -0.23030 -0.46070 0.08740
C12E C -0.2282(8) -0.4564(16) -0.1483(15)
H6E H -0.24910 -0.49830 -0.19950
C13E C -0.2483(8) -0.4966(17) -0.0555(19)
H7E H -0.28270 -0.56550 -0.04850
O1D O 0.0425(5) -0.7098(5) -0.3744(5)
O2D O 0.1113(5) -0.5971(5) -0.4859(4)
C1D C 0.0567(7) -0.5498(7) -0.3529(6)
C3D C 0.0268(11) -0.5640(8) -0.2648(7)
H2D H 0.01740 -0.62100 -0.23450
C5D C 0.0728(7) -0.6232(6) -0.4081(6)
Pb1D Pb -0.862024(15) 0.275952(15) -0.54549(3)
Pb2D Pb -0.912260(16) 0.175480(16) -0.27131(3)
O1G O -0.7523(5) 0.2902(5) -0.3744(5)
O2G O -0.7084(5) 0.4029(5) -0.4859(4)
O3C O -0.6241(3) 0.1879(6) -0.3180(6)
O4C O -0.7800(3) 0.1100(6) -0.2598(5)
O5C O -0.8214(4) 0.0893(7) 0.0828(7)
O6C O -0.6851(6) 0.1574(11) 0.1651(9)
C1G C -0.6065(7) 0.4502(7) -0.3529(6)
C2E C -0.5359(10) 0.5360(5) -0.3985(8)
H1E H -0.54620 0.54620 -0.45990
C3G C -0.5908(11) 0.4360(8) -0.2648(7)
H2G H -0.63840 0.37900 -0.23450
C4E C -0.5045(20) 0.5045(12) -0.2160(13)
H3E H -0.49340 0.49330 -0.15520
C5G C -0.6960(7) 0.3768(6) -0.4081(6)
C6C C -0.6421(6) 0.1790(12) -0.1585(10)
C7C C -0.7045(5) 0.1478(9) -0.0798(9)
H4C H -0.77330 0.11340 -0.08780
C8C C -0.6659(6) 0.1671(12) 0.008(1)
C9C C -0.6834(5) 0.1583(10) -0.2522(9)
C10C C -0.7288(5) 0.1356(10) 0.0917(9)
C11C C -0.5650(9) 0.2175(18) 0.0277(18)
H5C H -0.53930 0.23040 0.08740
C12C C -0.5436(8) 0.2282(16) -0.1483(15)
H6C H -0.50170 0.24920 -0.19950
C13C C -0.5034(8) 0.2483(17) -0.0555(19)
H7C H -0.43450 0.28280 -0.04850
O1E O -0.2902(5) 0.7523(5) -0.3744(5)
O2E O -0.4029(5) 0.7084(5) -0.4859(4)
C1E C -0.4502(7) 0.6065(7) -0.3529(6)
C3E C -0.4360(11) 0.5908(8) -0.2648(7)
H2E H -0.37900 0.63840 -0.23450
C5E C -0.3768(7) 0.6960(6) -0.4081(6)
Pb1E Pb -0.275952(15) -0.137976(15) -0.54549(3)
Pb2E Pb -0.175480(16) -0.087740(16) -0.27131(3)
O1H O -0.2902(5) -0.0425(5) -0.3744(5)
O2H O -0.4029(5) -0.1113(5) -0.4859(4)
O3D O -0.1879(3) 0.1880(6) -0.3180(6)
O4D O -0.1100(3) 0.1100(6) -0.2598(5)
O5D O -0.0893(4) 0.0893(7) 0.0828(7)
O6D O -0.1574(6) 0.1575(11) 0.1651(9)
C1H C -0.4502(7) -0.0567(7) -0.3529(6)
C2C C -0.536(1) -0.0719(5) -0.3985(8)
H1C H -0.54620 -0.09240 -0.45990
C3H C -0.4360(11) -0.0268(8) -0.2648(7)
H2H H -0.37900 -0.01740 -0.23450
C4C C -0.5045(20) -0.0090(12) -0.2160(13)
H3C H -0.49330 0.01330 -0.15520
C5H C -0.3768(7) -0.0728(6) -0.4081(6)
C6D C -0.1790(6) 0.1789(12) -0.1585(10)
C7D C -0.1478(5) 0.1477(9) -0.0798(9)
H4D H -0.11340 0.11330 -0.08780
C8D C -0.1671(6) 0.1670(12) 0.008(1)
C9D C -0.1583(5) 0.1583(10) -0.2522(9)
C10D C -0.1356(5) 0.1356(10) 0.0917(9)
C11D C -0.2175(9) 0.2175(18) 0.0277(18)
H5D H -0.23040 0.23030 0.08740
C12D C -0.2282(8) 0.2282(16) -0.1483(15)
H6D H -0.24920 0.24910 -0.19950
C13D C -0.2483(8) 0.2483(17) -0.0555(19)
H7D H -0.28280 0.28270 -0.04850
O1C O -0.7523(5) -0.0425(5) -0.3744(5)
O2C O -0.7084(5) -0.1113(5) -0.4859(4)
C1C C -0.6065(7) -0.0567(7) -0.3529(6)
C3C C -0.5908(11) -0.0268(8) -0.2648(7)
H2C H -0.63840 -0.01740 -0.23450
C5C C -0.6960(7) -0.0728(6) -0.4081(6)
Pb1* Pb -0.137976(15) -0.862024(15) -0.45451(3)
Pb1** Pb -0.137976(15) 0.137976(15) -0.45451(3)
Pb1A* Pb -0.137976(15) -0.275952(15) -0.45451(3)
Pb1A** Pb -0.137976(15) 0.724048(15) -0.45451(3)
Pb1A*** Pb -0.137976(15) 0.724048(15) 0.54549(3)
Pb1B* Pb -0.724048(15) -0.862024(15) 0.54549(3)
Pb1B** Pb -0.724048(15) 0.137976(15) -0.45451(3)
Pb1C* Pb -0.862024(15) -0.137976(15) -0.54549(3)
Pb1C** Pb -0.862024(15) -0.137976(15) 0.45451(3)
Pb1C*** Pb 0.137976(15) 0.862024(15) 0.45451(3)
Pb1D* Pb -0.862024(15) -0.724048(15) 0.45451(3)
Pb1D** Pb 0.137976(15) -0.724048(15) -0.54549(3)
Pb1D*** Pb 0.137976(15) 0.275952(15) 0.45451(3)
Pb1E* Pb -0.275952(15) -0.137976(15) 0.45451(3)
Pb1E** Pb -0.275952(15) 0.862024(15) -0.54549(3)
Pb2A* Pb -1.087740(16) -0.175480(16) 0.27131(3)
Pb2A** Pb -0.087740(16) 0.824520(16) 0.27131(3)
Pb2B* Pb -0.824520(16) -0.912260(16) 0.27131(3)
Pb2B** Pb 0.175480(16) 0.087740(16) 0.27131(3)
Pb2C* Pb -0.912260(16) -0.087740(16) -0.27131(3)
Pb2D* Pb 0.087740(16) -0.824520(16) -0.27131(3)
Pb2D** Pb 0.087740(16) 0.175480(16) -0.27131(3)
Pb2E* Pb -0.175480(16) 0.912260(16) -0.27131(3)
Pb3* Pb -1.00000 0.00000 0.00000
O1* O -1.0425(5) 0.2477(5) -0.6256(5)
O1A* O -0.2477(5) -0.2902(5) -0.6256(5)
O1B* O 0.2902(5) 0.0425(5) -0.6256(5)
O1C* O -0.7523(5) -0.0425(5) 0.6256(5)
O1C** O 0.2477(5) -0.0425(5) -0.3744(5)
O1D* O -0.9575(5) 0.2902(5) -0.3744(5)
O1D** O 0.0425(5) 0.2902(5) 0.6256(5)
O1E* O -0.2902(5) -0.2477(5) -0.3744(5)
O1E** O -0.2902(5) -0.2477(5) 0.6256(5)
O1F* O 0.0425(5) -0.2477(5) 0.6256(5)
O1G* O -0.7523(5) 0.2902(5) 0.6256(5)
O1H* O -0.2902(5) -0.0425(5) 0.6256(5)
O1I* O -0.2477(5) 0.0425(5) -0.6256(5)
O1J* O -0.0425(5) -0.2902(5) -0.6256(5)
O1J** O -0.0425(5) -0.2902(5) 0.3744(5)
O1K* O -0.7098(5) 0.2477(5) -0.6256(5)
O1K** O -0.7098(5) 0.2477(5) 0.3744(5)
O2C* O 0.2916(5) -0.1113(5) -0.4859(4)
O2D* O -0.8887(5) 0.4029(5) -0.4859(4)
O2E* O -0.4029(5) -0.2916(5) -0.4859(4)
O2J* O -0.1113(5) -0.4029(5) 0.4859(4)
O2K* O -0.5971(5) 0.2916(5) 0.4859(4)
O3* O -0.8121(3) 0.3759(6) -0.6820(6)
O3A* O -0.3759(3) -0.1880(6) -0.6820(6)
O3B* O 0.1880(3) -0.1879(6) -0.6820(6)
O3C* O -0.6241(3) 0.1879(6) 0.6820(6)
O3D* O -0.1879(3) 0.1880(6) 0.6820(6)
O3E* O -0.1880(3) -0.3759(6) 0.6820(6)
O4* O -0.8900(3) 0.2200(6) -0.7402(5)
O4** O -0.8900(3) 0.2200(6) 0.2598(5)
O4A* O -0.2200(3) -0.1100(6) -0.7402(5)
O4B* O 0.1100(3) -0.1100(6) -0.7402(5)
O4B** O 0.1100(3) -0.1100(6) 0.2598(5)
O4C* O -0.7800(3) 0.1100(6) 0.7402(5)
O4C** O 0.2200(3) 0.1100(6) -0.2598(5)
O4D* O -1.1100(3) 0.1100(6) -0.2598(5)
O4D** O -0.1100(3) 0.1100(6) 0.7402(5)
O4E* O -0.1100(3) -0.2200(6) 0.7402(5)
O5* O -0.9107(4) 0.1786(7) -0.0828(7)
O5B* O 0.0893(4) -0.0893(7) -0.0828(7)
O5C* O 0.1786(4) 0.0893(7) 0.0828(7)
O6* O -0.8426(6) 0.3149(11) -0.1651(9)
O6B* O 0.1575(6) -0.1574(11) -0.1651(9)
O7* O -1.00000 0.00000 0.2106(12)
O7C* O -1.00000 0.00000 -0.2106(12)
#END
