
#######################################################################
#
#                 Cambridge Crystallographic Data Centre
#                                CCDC
#
#######################################################################
#
# If this CIF has been generated from an entry in the Cambridge
# Structural Database, then it will include bibliographic, chemical,
# crystal, experimental, refinement or atomic coordinate data resulting
# from the CCDC's data processing and validation procedures.
#
#######################################################################

data_CSD_CIF_HIQJIC
_audit_creation_date 2013-11-15
_audit_creation_method CSD-ConQuest-V1
_database_code_CSD HIQJIC
_database_code_depnum_ccdc_archive 'CCDC 941753'
_chemical_formula_sum 'C12.5 H18.5 N0.5 O22 P6 Zn5'
_chemical_formula_moiety
;
(C12 H6 O18 P6 Zn5 2-)n,2.5n(H2 O1),0.5n(C1 H6 N1 1+),1.5n(H3 O1 1+)
;
_journal_coden_Cambridge 1147
_journal_volume 13
_journal_year 2013
_journal_page_first 2973
_journal_name_full 'Cryst.Growth Des. '
loop_
_publ_author_name
"T.L.Kinnibrugh"
"A.A.Ayi"
"V.I.Bakhmutov"
"J.Zon"
"A.Clearfield"
_chemical_name_systematic
;
catena-[hemikis(methylammonium) sesquikis(oxonium) 
bis(\m~10~-benzene-1,3,5-triyltris(phosphonato))-penta-zinc hydrate]
;
_cell_volume   2701.943
_exptl_crystal_colour 'colorless'
_exptl_crystal_density_diffrn 2.527
_exptl_crystal_description 'plate'
_diffrn_ambient_temperature 110
_refine_special_details
;
C5,N1 disordered by symmetry over two sites with occupancy 0.25.

;
#These two values have been output from a single CSD field.
_refine_ls_R_factor_gt 0.0611
_refine_ls_wR_factor_gt 0.0611
_symmetry_cell_setting orthorhombic
_symmetry_space_group_name_H-M 'I b a m'
_symmetry_Int_Tables_number 72
loop_
_symmetry_equiv_pos_site_id
_symmetry_equiv_pos_as_xyz
1 x,y,z
2 -x,-y,z
3 1/2-x,1/2+y,-z
4 1/2+x,1/2-y,-z
5 1/2+x,1/2+y,1/2+z
6 1/2-x,1/2-y,1/2+z
7 -x,y,1/2-z
8 x,-y,1/2-z
9 -x,-y,-z
10 x,y,-z
11 -1/2+x,-1/2-y,z
12 -1/2-x,-1/2+y,z
13 -1/2-x,-1/2-y,-1/2-z
14 -1/2+x,-1/2+y,-1/2-z
15 x,-y,-1/2+z
16 -x,y,-1/2+z
_cell_length_a 8.430(5)
_cell_length_b 16.155(12)
_cell_length_c 19.840(11)
_cell_angle_alpha 90
_cell_angle_beta 90
_cell_angle_gamma 90
_cell_formula_units_Z 4
loop_
_atom_type_symbol
_atom_type_radius_bond
C 0.68
H 0.23
N 0.68
O 0.68
P 1.05
Zn 1.22
loop_
_atom_site_label
_atom_site_type_symbol
_atom_site_fract_x
_atom_site_fract_y
_atom_site_fract_z
Zn1 Zn 0.61120(11) 0.24791(6) 0.08719(6)
P1 P 0.3710(2) 0.37823(15) 0.13866(12)
O1 O 0.3509(6) 0.4379(4) 0.1967(3)
C1 C 0.3224(9) 0.4321(5) 0.0613(5)
Zn2 Zn 0.50000 0.50000 0.25000
P2 P 0.1461(3) 0.65451(19) 0.00000
O2 O 0.5407(7) 0.3462(4) 0.1325(3)
C2 C 0.3591(13) 0.3961(7) 0.00000
H1 H 0.41190 0.34410 0.00000
C3 C 0.2147(14) 0.5492(7) 0.00000
O3 O 0.2559(7) 0.3054(4) 0.1464(3)
O4 O 0.0555(6) 0.6696(4) 0.0636(3)
C4 C 0.2508(8) 0.5098(5) 0.0612(4)
H2 H 0.22630 0.53630 0.10270
O5 O 0.2965(10) 0.7126(5) 0.00000
O6 O 0.8472(6) 0.3441(4) 0.2112(3)
N1 N 0.50000 0.00000 0.2122(17)
C5? C 0.50000 0.00000 0.2878(17)
P1I P 0.3710(2) 0.37823(15) -0.13866(12)
O1I O 0.3509(6) 0.4379(4) -0.1967(3)
C1I C 0.3224(9) 0.4321(5) -0.0613(5)
O2I O 0.5407(7) 0.3462(4) -0.1325(3)
O3I O 0.2559(7) 0.3054(4) -0.1464(3)
O4I O 0.0555(6) 0.6696(4) -0.0636(3)
C4I C 0.2508(8) 0.5098(5) -0.0612(4)
H2I H 0.22630 0.53630 -0.10270
Zn1A Zn 0.38880(11) 0.75209(6) 0.08719(6)
P1A P 0.6290(2) 0.62177(15) 0.13866(12)
O1A O 0.6491(6) 0.5621(4) 0.1967(3)
C1A C 0.6776(9) 0.5679(5) 0.0613(5)
P2A P 0.8539(3) 0.34549(19) 0.00000
O2A O 0.4593(7) 0.6538(4) 0.1325(3)
C2A C 0.6409(13) 0.6039(7) 0.00000
H1A H 0.58810 0.65590 0.00000
C3A C 0.7853(14) 0.4508(7) 0.00000
O3A O 0.7441(7) 0.6946(4) 0.1464(3)
O4A O 0.9445(6) 0.3304(4) 0.0636(3)
C4A C 0.7492(8) 0.4902(5) 0.0612(4)
H2A H 0.77370 0.46370 0.10270
O5A O 0.7035(10) 0.2874(5) 0.00000
P1H P 0.6290(2) 0.62177(15) -0.13866(12)
O1H O 0.6491(6) 0.5621(4) -0.1967(3)
C1H C 0.6776(9) 0.5679(5) -0.0613(5)
O2H O 0.4593(7) 0.6538(4) -0.1325(3)
O3H O 0.7441(7) 0.6946(4) -0.1464(3)
O4H O 0.9445(6) 0.3304(4) -0.0636(3)
C4H C 0.7492(8) 0.4902(5) -0.0612(4)
H2H H 0.77370 0.46370 -0.10270
Zn1J Zn 0.11120(11) 0.25209(6) 0.08719(6)
Zn1K Zn -0.11120(11) 0.74791(6) 0.08719(6)
Zn1B Zn -0.11120(11) 0.74791(6) -0.08719(6)
Zn1B* Zn 0.88880(11) 0.74791(6) -0.08719(6)
Zn1C Zn 0.11120(11) 0.25209(6) -0.08719(6)
Zn1C* Zn 1.11120(11) 0.25209(6) -0.08719(6)
Zn1H Zn 0.38880(11) 0.75209(6) -0.08719(6)
Zn1I Zn 0.61120(11) 0.24791(6) -0.08719(6)
Zn1J* Zn 1.11120(11) 0.25209(6) 0.08719(6)
Zn1K* Zn 0.88880(11) 0.74791(6) 0.08719(6)
O1F O 0.6491(6) 0.4379(4) 0.3033(3)
O1G O 0.3509(6) 0.5621(4) 0.3033(3)
Zn2H Zn 0.50000 0.50000 -0.25000
O2J O 0.0407(7) 0.1538(4) 0.1325(3)
O2K O -0.0407(7) 0.8462(4) 0.1325(3)
O3A* O -0.2559(7) 0.6946(4) 0.1464(3)
O3J O 0.7559(7) 0.1946(4) 0.1464(3)
O3K O 0.2441(7) 0.8054(4) 0.1464(3)
O4A* O -0.0555(6) 0.3304(4) 0.0636(3)
O4J O 0.5555(6) 0.8304(4) 0.0636(3)
O4K O 0.4445(6) 0.1696(4) 0.0636(3)
O5B O 0.2035(10) 0.2126(5) 0.00000
O5C O -0.2035(10) 0.7874(5) 0.00000
N1F N 0.50000 0.00000 0.2878(17)
#END
