
#######################################################################
#
#                 Cambridge Crystallographic Data Centre
#                                CCDC
#
#######################################################################
#
# If this CIF has been generated from an entry in the Cambridge
# Structural Database, then it will include bibliographic, chemical,
# crystal, experimental, refinement or atomic coordinate data resulting
# from the CCDC's data processing and validation procedures.
#
#######################################################################

data_CSD_CIF_HIQJUO
_audit_creation_date 2013-11-15
_audit_creation_method CSD-ConQuest-V1
_database_code_CSD HIQJUO
_database_code_depnum_ccdc_archive 'CCDC 941755'
_chemical_formula_sum 'C12 H19 N1 O22 P6 Zn5'
_chemical_formula_moiety
;
(C12 H6 O18 P6 Zn5 2-)n,3n(H2 O1),n(H4 N1 1+),n(H3 O1 1+)
;
_journal_coden_Cambridge 1147
_journal_volume 13
_journal_year 2013
_journal_page_first 2973
_journal_name_full 'Cryst.Growth Des. '
loop_
_publ_author_name
"T.L.Kinnibrugh"
"A.A.Ayi"
"V.I.Bakhmutov"
"J.Zon"
"A.Clearfield"
_chemical_name_systematic
;
catena-[ammonium oxonium 
bis(\m~10~-benzene-1,3,5-triyltris(phosphonato))-penta-zinc trihydrate]
;
_cell_volume   2721.018
_exptl_crystal_colour 'colorless'
_exptl_crystal_density_diffrn 2.515
_exptl_crystal_description 'needle'
_diffrn_ambient_temperature 110
_refine_special_details
;
O1S and N1 disordered over two sites with occupancies 0.70:0.30; O2S 
disordered by symmetry over two sites with occupancy 0.50.
;
#These two values have been output from a single CSD field.
_refine_ls_R_factor_gt 0.0358
_refine_ls_wR_factor_gt 0.0358
_symmetry_cell_setting orthorhombic
_symmetry_space_group_name_H-M 'I b a m'
_symmetry_Int_Tables_number 72
loop_
_symmetry_equiv_pos_site_id
_symmetry_equiv_pos_as_xyz
1 x,y,z
2 -x,-y,z
3 1/2-x,1/2+y,-z
4 1/2+x,1/2-y,-z
5 1/2+x,1/2+y,1/2+z
6 1/2-x,1/2-y,1/2+z
7 -x,y,1/2-z
8 x,-y,1/2-z
9 -x,-y,-z
10 x,y,-z
11 -1/2+x,-1/2-y,z
12 -1/2-x,-1/2+y,z
13 -1/2-x,-1/2-y,-1/2-z
14 -1/2+x,-1/2+y,-1/2-z
15 x,-y,-1/2+z
16 -x,y,-1/2+z
_cell_length_a 8.472(3)
_cell_length_b 16.208(7)
_cell_length_c 19.816(8)
_cell_angle_alpha 90
_cell_angle_beta 90
_cell_angle_gamma 90
_cell_formula_units_Z 4
loop_
_atom_type_symbol
_atom_type_radius_bond
C 0.68
H 0.23
N 0.68
O 0.68
P 1.05
Zn 1.22
loop_
_atom_site_label
_atom_site_type_symbol
_atom_site_fract_x
_atom_site_fract_y
_atom_site_fract_z
Zn1 Zn 0.39352(6) 0.25343(3) 0.41270(3)
O1 O 0.2498(4) 0.30780(18) 0.35359(14)
P1 P 0.13148(13) 0.37818(7) 0.36147(6)
C1 C 0.1770(5) 0.4326(3) 0.4384(2)
Zn2 Zn 0.00000 0.50000 0.25000
O2 O 0.1494(3) 0.43769(19) 0.30282(16)
P2 P 0.34682(18) 0.65552(9) 0.50000
C2 C 0.2448(5) 0.5110(3) 0.4391(2)
H1 H 0.26910 0.53710 0.39850
O3 O -0.0356(3) 0.34455(18) 0.36710(15)
C3 C 0.2764(7) 0.5505(4) 0.50000
O4 O 0.1991(5) 0.7137(3) 0.50000
C4 C 0.1422(7) 0.3957(4) 0.50000
H2 H 0.09370 0.34420 0.50000
O5 O 0.4378(3) 0.67036(18) 0.56433(15)
O6 O 0.00000 0.00000 0.2073(9)
H3 H -0.08870 0.01740 0.19130
N1 N 0.1459(4) 0.1546(3) 0.28716(19)
O7? O 0.1459(4) 0.1546(3) 0.28716(19)
O1I O 0.2498(4) 0.30780(18) 0.64641(14)
P1I P 0.13148(13) 0.37818(7) 0.63853(6)
C1I C 0.1770(5) 0.4326(3) 0.5616(2)
O2I O 0.1494(3) 0.43769(19) 0.69718(16)
C2I C 0.2448(5) 0.5110(3) 0.5609(2)
H1I H 0.26910 0.53710 0.60150
O3I O -0.0356(3) 0.34455(18) 0.63290(15)
O5I O 0.4378(3) 0.67036(18) 0.43567(15)
Zn1A Zn -0.39352(6) 0.74657(3) 0.41270(3)
O1A O -0.2498(4) 0.69220(18) 0.35359(14)
P1A P -0.13148(13) 0.62182(7) 0.36147(6)
C1A C -0.1770(5) 0.5674(3) 0.4384(2)
O2A O -0.1494(3) 0.56231(19) 0.30282(16)
P2A P -0.34682(18) 0.34448(9) 0.50000
C2A C -0.2448(5) 0.4890(3) 0.4391(2)
H1A H -0.26910 0.46290 0.39850
O3A O 0.0356(3) 0.65545(18) 0.36710(15)
C3A C -0.2764(7) 0.4495(4) 0.50000
O4A O -0.1991(5) 0.2863(3) 0.50000
C4A C -0.1422(7) 0.6043(4) 0.50000
H2A H -0.09370 0.65580 0.50000
O5A O -0.4378(3) 0.32964(18) 0.56433(15)
O1H O -0.2498(4) 0.69220(18) 0.64641(14)
P1H P -0.13148(13) 0.62182(7) 0.63853(6)
C1H C -0.1770(5) 0.5674(3) 0.5616(2)
O2H O -0.1494(3) 0.56231(19) 0.69718(16)
C2H C -0.2448(5) 0.4890(3) 0.5609(2)
H1H H -0.26910 0.46290 0.60150
O3H O 0.0356(3) 0.65545(18) 0.63290(15)
O5H O -0.4378(3) 0.32964(18) 0.43567(15)
Zn1J Zn -0.10648(6) 0.24657(3) 0.41270(3)
Zn1B Zn 0.10648(6) 0.75343(3) 0.58730(3)
Zn1* Zn -0.60648(6) 0.25343(3) 0.41270(3)
Zn1A* Zn 0.60648(6) 0.74657(3) 0.41270(3)
Zn1C Zn -0.10648(6) 0.24657(3) 0.58730(3)
Zn1H Zn -0.39352(6) 0.74657(3) 0.58730(3)
Zn1H* Zn 0.60648(6) 0.74657(3) 0.58730(3)
Zn1I Zn -0.60648(6) 0.25343(3) 0.58730(3)
Zn1I* Zn 0.39352(6) 0.25343(3) 0.58730(3)
Zn1K Zn 0.10648(6) 0.75343(3) 0.41270(3)
O1B O 0.2502(4) 0.80780(18) 0.64641(14)
O1J O -0.2502(4) 0.19220(18) 0.35359(14)
Zn2H Zn 0.00000 0.50000 0.75000
O2F O -0.1494(3) 0.43769(19) 0.19718(16)
O2G O 0.1494(3) 0.56231(19) 0.19718(16)
O3J O 0.4644(3) 0.15545(18) 0.36710(15)
O3K O -0.4644(3) 0.84455(18) 0.36710(15)
O4B O 0.3009(5) 0.2137(3) 0.50000
O4C O -0.3009(5) 0.7863(3) 0.50000
O5B O 0.0622(3) 0.17036(18) 0.43567(15)
O5H* O 0.5622(3) 0.32964(18) 0.43567(15)
O5I* O -0.5622(3) 0.67036(18) 0.43567(15)
O5J O -0.0622(3) 0.82964(18) 0.56433(15)
H3A H 0.08870 -0.01740 0.19130
#END
