
#######################################################################
#
#                 Cambridge Crystallographic Data Centre
#                                CCDC
#
#######################################################################
#
# If this CIF has been generated from an entry in the Cambridge
# Structural Database, then it will include bibliographic, chemical,
# crystal, experimental, refinement or atomic coordinate data resulting
# from the CCDC's data processing and validation procedures.
#
#######################################################################

data_CSD_CIF_HIQKAV
_audit_creation_date 2013-11-15
_audit_creation_method CSD-ConQuest-V1
_database_code_CSD HIQKAV
_database_code_depnum_ccdc_archive 'CCDC 941756'
_chemical_formula_sum 'C12 H18 N1 O22 P6 Zn5'
_chemical_formula_moiety
;
(C12 H6 O18 P6 Zn5 1-)n,4n(H2 O1),n(H4 N1 1+)
;
_journal_coden_Cambridge 1147
_journal_volume 13
_journal_year 2013
_journal_page_first 2973
_journal_name_full 'Cryst.Growth Des. '
loop_
_publ_author_name
"T.L.Kinnibrugh"
"A.A.Ayi"
"V.I.Bakhmutov"
"J.Zon"
"A.Clearfield"
_chemical_name_systematic
;
catena-[ammonium bis(\m~10~-benzene-1,3,5-triyltris(phosphonato))-penta-zinc 
tetrahydrate]
;
_cell_volume   2724.050
_exptl_crystal_colour 'colorless'
_exptl_crystal_density_diffrn 2.508
_exptl_special_details
;
powder data

;
_diffrn_ambient_temperature 333
_diffrn_radiation_probe x-ray
_diffrn_source synchrotron
_refine_special_details
;
N1 disordered by symmetry over two sites with occupancy 0.5.

;
#These two values have been output from a single CSD field.
_refine_ls_R_factor_gt 0.0342
_refine_ls_wR_factor_gt 0.0342
_symmetry_cell_setting orthorhombic
_symmetry_space_group_name_H-M 'I b a m'
_symmetry_Int_Tables_number 72
loop_
_symmetry_equiv_pos_site_id
_symmetry_equiv_pos_as_xyz
1 x,y,z
2 -x,-y,z
3 1/2-x,1/2+y,-z
4 1/2+x,1/2-y,-z
5 1/2+x,1/2+y,1/2+z
6 1/2-x,1/2-y,1/2+z
7 -x,y,1/2-z
8 x,-y,1/2-z
9 -x,-y,-z
10 x,y,-z
11 -1/2+x,-1/2-y,z
12 -1/2-x,-1/2+y,z
13 -1/2-x,-1/2-y,-1/2-z
14 -1/2+x,-1/2+y,-1/2-z
15 x,-y,-1/2+z
16 -x,y,-1/2+z
_cell_length_a 8.44253(17)
_cell_length_b 16.2850(4)
_cell_length_c 19.8132(4)
_cell_angle_alpha 90
_cell_angle_beta 90
_cell_angle_gamma 90
_cell_formula_units_Z 4
loop_
_atom_type_symbol
_atom_type_radius_bond
C 0.68
H 0.23
N 0.68
O 0.68
P 1.05
Zn 1.22
loop_
_atom_site_label
_atom_site_type_symbol
_atom_site_fract_x
_atom_site_fract_y
_atom_site_fract_z
Zn1 Zn 0.6039(3) 0.2470(2) 0.08806(13)
Zn2 Zn 1.00000 0.00000 0.25000
O1 O 0.7383(12) 0.1898(7) 0.1504(6)
P1 P 0.8627(9) 0.1236(3) 0.1396(3)
C1 C 0.8195(15) 0.0665(8) 0.06102(7)
O2 O 1.0297(9) 0.1580(7) 0.1354(5)
P2 P 0.6515(12) -0.1579(5) 0.00000
C2 C 0.7492(14) -0.0107(8) 0.06104(7)
O3 O 0.8479(13) 0.0629(6) 0.1978(5)
C3 C 0.719(3) -0.0497(9) 0.00000
O4 O 0.5626(11) -0.1736(7) 0.0656(4)
C4 C 0.858(3) 0.1034(8) 0.00000
O5 O 0.8020(14) -0.2092(9) 0.00000
H1 H 0.72197 -0.03686 0.10287
H2 H 0.91234 0.15528 0.00000
O6 O 0.870(2) 0.6510(7) 0.7149(7)
N1 N 0.00000 0.50000 0.228(3)
O1I O 0.7383(12) 0.1898(7) -0.1504(6)
P1I P 0.8627(9) 0.1236(3) -0.1396(3)
C1I C 0.8195(15) 0.0665(8) -0.06102(7)
O2I O 1.0297(9) 0.1580(7) -0.1354(5)
C2I C 0.7492(14) -0.0107(8) -0.06104(7)
O3I O 0.8479(13) 0.0629(6) -0.1978(5)
O4I O 0.5626(11) -0.1736(7) -0.0656(4)
H1I H 0.72197 -0.03686 -0.10287
Zn1A Zn 0.3961(3) -0.2470(2) 0.08806(13)
O1A O 0.2617(12) -0.1898(7) 0.1504(6)
P1A P 0.1373(9) -0.1236(3) 0.1396(3)
C1A C 0.1805(15) -0.0665(8) 0.06102(7)
O2A O -0.0297(9) -0.1580(7) 0.1354(5)
P2A P 0.3485(12) 0.1579(5) 0.00000
C2A C 0.2508(14) 0.0107(8) 0.06104(7)
O3A O 0.1521(13) -0.0629(6) 0.1978(5)
C3A C 0.281(3) 0.0497(9) 0.00000
O4A O 0.4374(11) 0.1736(7) 0.0656(4)
C4A C 0.142(3) -0.1034(8) 0.00000
O5A O 0.1980(14) 0.2092(9) 0.00000
H1A H 0.27803 0.03686 0.10287
H2A H 0.08766 -0.15528 0.00000
O1H O 0.2617(12) -0.1898(7) -0.1504(6)
P1H P 0.1373(9) -0.1236(3) -0.1396(3)
C1H C 0.1805(15) -0.0665(8) -0.06102(7)
O2H O -0.0297(9) -0.1580(7) -0.1354(5)
C2H C 0.2508(14) 0.0107(8) -0.06104(7)
O3H O 0.1521(13) -0.0629(6) -0.1978(5)
O4H O 0.4374(11) 0.1736(7) -0.0656(4)
H1H H 0.27803 0.03686 -0.10287
Zn1H Zn 0.3961(3) -0.2470(2) -0.08806(13)
Zn1I Zn 0.6039(3) 0.2470(2) -0.08806(13)
Zn1B Zn -0.1039(3) -0.2530(2) -0.08806(13)
Zn1B* Zn 0.8961(3) -0.2530(2) -0.08806(13)
Zn1C Zn 0.1039(3) 0.2530(2) -0.08806(13)
Zn1C* Zn 1.1039(3) 0.2530(2) -0.08806(13)
Zn1J Zn 0.1039(3) 0.2530(2) 0.08806(13)
Zn1J* Zn 1.1039(3) 0.2530(2) 0.08806(13)
Zn1K Zn -0.1039(3) -0.2530(2) 0.08806(13)
Zn1K* Zn 0.8961(3) -0.2530(2) 0.08806(13)
Zn2* Zn 0.00000 0.00000 0.25000
Zn2H Zn 0.00000 0.00000 -0.25000
Zn2H* Zn 1.00000 0.00000 -0.25000
O2B O 0.4703(9) -0.3420(7) -0.1354(5)
O2C O 0.5297(9) 0.3420(7) -0.1354(5)
O2J O 0.5297(9) 0.3420(7) 0.1354(5)
O2K O 0.4703(9) -0.3420(7) 0.1354(5)
O3A* O 1.1521(13) -0.0629(6) 0.1978(5)
O3F O 1.1521(13) 0.0629(6) 0.3022(5)
O3G O 0.8479(13) -0.0629(6) 0.3022(5)
O5B O 0.6980(14) 0.2908(9) 0.00000
O5C O 0.3020(14) -0.2908(9) 0.00000
N1F N 0.00000 0.50000 0.272(3)
#END
