
#######################################################################
#
#                 Cambridge Crystallographic Data Centre
#                                CCDC
#
#######################################################################
#
# If this CIF has been generated from an entry in the Cambridge
# Structural Database, then it will include bibliographic, chemical,
# crystal, experimental, refinement or atomic coordinate data resulting
# from the CCDC's data processing and validation procedures.
#
#######################################################################

data_CSD_CIF_HIQKEZ
_audit_creation_date 2013-11-15
_audit_creation_method CSD-ConQuest-V1
_database_code_CSD HIQKEZ
_database_code_depnum_ccdc_archive 'CCDC 941757'
_chemical_formula_sum 'C12 H10 N1 O18 P6 Zn5'
_chemical_formula_moiety
;
(C12 H6 O18 P6 Zn5 1-)n,n(H4 N1 1+)
;
_journal_coden_Cambridge 1147
_journal_volume 13
_journal_year 2013
_journal_page_first 2973
_journal_name_full 'Cryst.Growth Des. '
loop_
_publ_author_name
"T.L.Kinnibrugh"
"A.A.Ayi"
"V.I.Bakhmutov"
"J.Zon"
"A.Clearfield"
_chemical_name_systematic
;
catena-[bis(ammonium) 
bis(\m~10~-benzene-1,3,5-triyltris(phosphonato))-penta-zinc]
;
_cell_volume   2683.560
_exptl_crystal_colour 'colorless'
_exptl_crystal_density_diffrn 2.398
_exptl_special_details
;
powder data

;
_diffrn_ambient_temperature 423
_diffrn_radiation_probe x-ray
_diffrn_source synchrotron
#These two values have been output from a single CSD field.
_refine_ls_R_factor_gt 0.0469
_refine_ls_wR_factor_gt 0.0469
_symmetry_cell_setting orthorhombic
_symmetry_space_group_name_H-M 'I b a m'
_symmetry_Int_Tables_number 72
loop_
_symmetry_equiv_pos_site_id
_symmetry_equiv_pos_as_xyz
1 x,y,z
2 -x,-y,z
3 1/2-x,1/2+y,-z
4 1/2+x,1/2-y,-z
5 1/2+x,1/2+y,1/2+z
6 1/2-x,1/2-y,1/2+z
7 -x,y,1/2-z
8 x,-y,1/2-z
9 -x,-y,-z
10 x,y,-z
11 -1/2+x,-1/2-y,z
12 -1/2-x,-1/2+y,z
13 -1/2-x,-1/2-y,-1/2-z
14 -1/2+x,-1/2+y,-1/2-z
15 x,-y,-1/2+z
16 -x,y,-1/2+z
_cell_length_a 8.29575(18)
_cell_length_b 16.4162(4)
_cell_length_c 19.7053(5)
_cell_angle_alpha 90
_cell_angle_beta 90
_cell_angle_gamma 90
_cell_formula_units_Z 4
loop_
_atom_type_symbol
_atom_type_radius_bond
C 0.68
H 0.23
N 0.68
O 0.68
P 1.05
Zn 1.22
loop_
_atom_site_label
_atom_site_type_symbol
_atom_site_fract_x
_atom_site_fract_y
_atom_site_fract_z
O1 O 0.2773(18) 0.3087(9) 0.6583(7)
P1 P 0.1518(9) 0.3799(2) 0.64050(12)
C1 C 0.15642(10) 0.39402(7) 0.50000
Zn1 Zn 0.4001(3) 0.2515(2) 0.58990(13)
C2 C 0.18467(7) 0.43287(6) 0.56138(2)
P2 P 0.3415(7) 0.65531(13) 0.50000
O2 O 0.1743(15) 0.4357(7) 0.7057(6)
Zn2 Zn 0.00000 0.50000 0.75000
C3 C 0.24243(13) 0.51230(6) 0.56135(2)
O3 O -0.0228(17) 0.3418(7) 0.6411(6)
C4 C 0.2708(2) 0.55129(7) 0.50000
O4 O 0.4310(17) 0.6790(7) 0.4340(6)
O5 O 0.195(2) 0.7175(11) 0.50000
H1 H 0.11650 0.33913 0.50000
H2 H 0.26257 0.53999 0.60342
N1 N 0.39565(2) 0.343598(13) 0.220195(9)
H3 H 0.43101 0.30112 0.19839
H4 H 0.32566 0.36924 0.19520
H5 H 0.35004 0.32813 0.25781
H6 H 0.47588 0.37590 0.22938
O1I O 0.2773(18) 0.3087(9) 0.3417(7)
P1I P 0.1518(9) 0.3799(2) 0.35950(12)
C2I C 0.18467(7) 0.43287(6) 0.43862(2)
O2I O 0.1743(15) 0.4357(7) 0.2943(6)
C3I C 0.24243(13) 0.51230(6) 0.43865(2)
O3I O -0.0228(17) 0.3418(7) 0.3589(6)
O4I O 0.4310(17) 0.6790(7) 0.5660(6)
H2I H 0.26257 0.53999 0.39658
O1A O -0.2773(18) 0.6913(9) 0.6583(7)
P1A P -0.1518(9) 0.6201(2) 0.64050(12)
C1A C -0.15642(10) 0.60598(7) 0.50000
Zn1A Zn -0.4001(3) 0.7485(2) 0.58990(13)
C2A C -0.18467(7) 0.56713(6) 0.56138(2)
P2A P -0.3415(7) 0.34469(13) 0.50000
O2A O -0.1743(15) 0.5643(7) 0.7057(6)
C3A C -0.24243(13) 0.48770(6) 0.56135(2)
O3A O 0.0228(17) 0.6582(7) 0.6411(6)
C4A C -0.2708(2) 0.44871(7) 0.50000
O4A O -0.4310(17) 0.3210(7) 0.4340(6)
O5A O -0.195(2) 0.2825(11) 0.50000
H1A H -0.11650 0.66087 0.50000
H2A H -0.26257 0.46001 0.60342
O1H O -0.2773(18) 0.6913(9) 0.3417(7)
P1H P -0.1518(9) 0.6201(2) 0.35950(12)
C2H C -0.18467(7) 0.56713(6) 0.43862(2)
O2H O -0.1743(15) 0.5643(7) 0.2943(6)
C3H C -0.24243(13) 0.48770(6) 0.43865(2)
O3H O 0.0228(17) 0.6582(7) 0.3589(6)
O4H O -0.4310(17) 0.3210(7) 0.5660(6)
H2H H -0.26257 0.46001 0.39658
Zn1H Zn -0.4001(3) 0.7485(2) 0.41010(13)
Zn1I Zn 0.4001(3) 0.2515(2) 0.41010(13)
Zn1* Zn -0.5999(3) 0.2515(2) 0.58990(13)
Zn1A* Zn 0.5999(3) 0.7485(2) 0.58990(13)
Zn1B Zn 0.0999(3) 0.7515(2) 0.41010(13)
Zn1C Zn -0.0999(3) 0.2485(2) 0.41010(13)
Zn1H* Zn 0.5999(3) 0.7485(2) 0.41010(13)
Zn1I* Zn -0.5999(3) 0.2515(2) 0.41010(13)
Zn1J Zn -0.0999(3) 0.2485(2) 0.58990(13)
Zn1K Zn 0.0999(3) 0.7515(2) 0.58990(13)
O2F O -0.1743(15) 0.4357(7) 0.7943(6)
O2G O 0.1743(15) 0.5643(7) 0.7943(6)
Zn2H Zn 0.00000 0.50000 0.25000
O3B O -0.4772(17) 0.8418(7) 0.3589(6)
O3C O 0.4772(17) 0.1582(7) 0.3589(6)
O3J O 0.4772(17) 0.1582(7) 0.6411(6)
O3K O -0.4772(17) 0.8418(7) 0.6411(6)
O4* O -0.5690(17) 0.6790(7) 0.4340(6)
O4A* O 0.5690(17) 0.3210(7) 0.4340(6)
O4H* O 0.5690(17) 0.3210(7) 0.5660(6)
O4I* O -0.5690(17) 0.6790(7) 0.5660(6)
O5B O 0.305(2) 0.2175(11) 0.50000
O5C O -0.305(2) 0.7825(11) 0.50000
#END
