
#######################################################################
#
#                 Cambridge Crystallographic Data Centre
#                                CCDC
#
#######################################################################
#
# If this CIF has been generated from an entry in the Cambridge
# Structural Database, then it will include bibliographic, chemical,
# crystal, experimental, refinement or atomic coordinate data resulting
# from the CCDC's data processing and validation procedures.
#
#######################################################################

data_CSD_CIF_HIQKOJ
_audit_creation_date 2013-11-15
_audit_creation_method CSD-ConQuest-V1
_database_code_CSD HIQKOJ
_database_code_depnum_ccdc_archive 'CCDC 929465'
_chemical_formula_sum 'C33 H27 N1 O28 U4'
_chemical_formula_moiety
;
(C31 H19 O28 U4 1-)n,n(C2 H8 N1 1+)
;
_journal_coden_Cambridge 1147
_journal_volume 13
_journal_year 2013
_journal_page_first 3225
_journal_name_full 'Cryst.Growth Des. '
loop_
_publ_author_name
"C.Falaise"
"C.Volkringer"
"T.Loiseau"
_chemical_name_systematic
;
catena-[dimethylammonium 
tris(\m~4~-terephthalato)-bis(\m~3~-oxo)-heptakis(\m~2~-formato)-tetra-uranium
]
;
_cell_volume   4572.386
_exptl_crystal_colour 'green'
_exptl_crystal_density_diffrn 2.67
_exptl_crystal_description 'block'
_diffrn_ambient_temperature 293
#These two values have been output from a single CSD field.
_refine_ls_R_factor_gt 0.0292
_refine_ls_wR_factor_gt 0.0292
_symmetry_cell_setting monoclinic
_symmetry_space_group_name_H-M 'C 2/c'
_symmetry_Int_Tables_number 15
loop_
_symmetry_equiv_pos_site_id
_symmetry_equiv_pos_as_xyz
1 x,y,z
2 -x,y,1/2-z
3 1/2+x,1/2+y,z
4 1/2-x,1/2+y,1/2-z
5 -x,-y,-z
6 x,-y,-1/2+z
7 -1/2-x,-1/2-y,-z
8 -1/2+x,-1/2-y,-1/2+z
_cell_length_a 17.8701(5)
_cell_length_b 13.8872(4)
_cell_length_c 18.4391(5)
_cell_angle_alpha 90
_cell_angle_beta 92.262(2)
_cell_angle_gamma 90
_cell_formula_units_Z 4
loop_
_atom_type_symbol
_atom_type_radius_bond
C 0.68
H 0.23
N 0.68
O 0.68
U 1.96
loop_
_atom_site_label
_atom_site_type_symbol
_atom_site_fract_x
_atom_site_fract_y
_atom_site_fract_z
O1 O 0.21921(16) 0.00562(17) 0.04030(14)
O2 O 0.41706(15) 0.3670(2) -0.05501(16)
O3 O 0.26156(15) 0.2555(2) 0.18285(13)
O4 O 0.45425(16) 0.4193(2) 0.20927(16)
O5 O 0.14092(14) 0.31164(19) 0.09120(17)
O6 O 0.44894(16) 0.3954(2) 0.06007(17)
O7 O 0.16628(18) -0.02641(19) -0.06720(15)
O8 O 0.17596(19) 0.0932(2) 0.17867(14)
O9 O 0.17507(19) 0.0108(2) 0.27840(15)
O10 O 0.21435(15) 0.4332(2) 0.1305(2)
C1 C 0.1523(2) 0.3979(3) 0.1110(2)
C2 C 0.0861(2) 0.4634(3) 0.1117(3)
C3 C -0.0360(2) 0.5851(3) 0.1152(2)
O11 O 0.3319(2) 0.3078(3) 0.27136(17)
C4 C 0.2024(2) -0.0507(3) -0.0104(2)
C5 C 0.4619(2) 0.3857(3) -0.0045(3)
H1 H 0.51150 0.39330 -0.01670
C6 C -0.0451(2) 0.4907(3) 0.0930(2)
H2 H -0.09250 0.46810 0.07890
C7 C 0.2266(2) -0.1541(3) -0.0041(2)
C8 C 0.2140(3) -0.2165(3) -0.0620(2)
H3 H 0.19010 -0.19410 -0.10450
C9 C 0.0343(2) 0.6189(3) 0.1337(3)
H4 H 0.04090 0.68280 0.14760
C10 C 0.0158(2) 0.4298(3) 0.0917(2)
H5 H 0.00940 0.36600 0.07720
C11 C 0.2636(3) -0.1890(3) 0.0574(2)
H6 H 0.27350 -0.14790 0.09650
C12 C 0.0956(2) 0.5582(3) 0.1319(3)
H7 H 0.14320 0.58140 0.14430
C13 C 0.50000 0.3773(4) 0.25000
H8 H 0.50000 0.31030 0.25000
C14 C 0.1908(3) 0.0242(3) 0.2163(2)
H9 H 0.21770 -0.02460 0.19470
C15 C 0.2850(3) 0.2520(3) 0.2472(2)
H10 H 0.26600 0.20520 0.27760
U1 U 0.212571(6) 0.174029(8) 0.072962(5)
U2 U 0.343878(6) 0.383529(8) 0.136023(6)
O12 O 0.29257(12) 0.30629(15) 0.04336(11)
O13 O -0.16426(14) 0.61776(18) 0.09500(17)
O14 O -0.09056(14) 0.73426(18) 0.14083(16)
C16 C -0.1017(2) 0.6512(3) 0.1170(2)
N1 N 0.50000 0.6215(9) 0.25000
H11 H 0.46470 0.58270 0.26770
C17 C 0.4650(5) 0.6710(6) 0.1879(4)
H12 H 0.44560 0.62440 0.15360
H13 H 0.50150 0.71050 0.16530
H14 H 0.42480 0.71060 0.20380
H15? H 0.46470 0.58270 0.26770
O1F O 0.28079(16) -0.50562(17) -0.04030(14)
O7F O 0.33372(18) -0.47359(19) 0.06720(15)
C4F C 0.2976(2) -0.4493(3) 0.0104(2)
C7F C 0.2734(2) -0.3459(3) 0.0041(2)
C8F C 0.2860(3) -0.2835(3) 0.0620(2)
H3F H 0.30990 -0.30590 0.10450
C11F C 0.2364(3) -0.3110(3) -0.0574(2)
H6F H 0.22650 -0.35210 -0.09650
O4A O 0.54575(16) 0.4193(2) 0.29073(16)
O2A O 0.58294(15) 0.3670(2) 0.55501(16)
O3A O 0.73844(15) 0.2555(2) 0.31715(13)
O5A O 0.85908(14) 0.31164(19) 0.40880(17)
O6A O 0.55106(16) 0.3954(2) 0.43993(17)
O8A O 0.82404(19) 0.0932(2) 0.32133(14)
O9A O 0.82493(19) 0.0108(2) 0.22160(15)
O10A O 0.78565(15) 0.4332(2) 0.3695(2)
C1A C 0.8477(2) 0.3979(3) 0.3890(2)
C2A C 0.9139(2) 0.4634(3) 0.3883(3)
C3A C 1.0360(2) 0.5851(3) 0.3848(2)
O11A O 0.6681(2) 0.3078(3) 0.22864(17)
C5A C 0.5381(2) 0.3857(3) 0.5045(3)
H1A H 0.48850 0.39330 0.51670
C6A C 1.0451(2) 0.4907(3) 0.4070(2)
H2A H 1.09250 0.46810 0.42110
C9A C 0.9657(2) 0.6189(3) 0.3663(3)
H4A H 0.95910 0.68280 0.35240
C10A C 0.9842(2) 0.4298(3) 0.4083(2)
H5A H 0.99060 0.36600 0.42280
C12A C 0.9044(2) 0.5582(3) 0.3681(3)
H7A H 0.85680 0.58140 0.35570
C14A C 0.8092(3) 0.0242(3) 0.2837(2)
H9A H 0.78230 -0.02460 0.30530
C15A C 0.7150(3) 0.2520(3) 0.2528(2)
H10A H 0.73400 0.20520 0.22240
U1A U 0.787429(6) 0.174029(8) 0.427038(5)
U2A U 0.656122(6) 0.383529(8) 0.363977(6)
O12A O 0.70743(12) 0.30629(15) 0.45664(11)
O13A O 1.16426(14) 0.61776(18) 0.40500(17)
O14A O 1.09056(14) 0.73426(18) 0.35917(16)
C16A C 1.1017(2) 0.6512(3) 0.3830(2)
O1A O 0.78079(16) 0.00562(17) 0.45970(14)
O2F O 0.08294(15) 0.1330(2) 0.05501(16)
O2G O 0.91706(15) 0.1330(2) 0.44499(16)
O7F* O 0.33372(18) 0.52641(19) 0.06720(15)
O7G O 0.66628(18) 0.52641(19) 0.43280(15)
O9B O 0.67507(19) 0.5108(2) 0.27840(15)
O9C O 0.32493(19) 0.5108(2) 0.22160(15)
U1B U -0.287429(6) 0.674029(8) 0.072962(5)
U1C U 1.287429(6) 0.674029(8) 0.427038(5)
U1F U 0.287429(6) -0.674029(8) -0.072962(5)
U1F* U 0.287429(6) 0.325971(8) -0.072962(5)
U1G U 0.712571(6) 0.325971(8) 0.572962(5)
U2* U 0.343878(6) -0.616471(8) 0.136023(6)
U2B U -0.156122(6) 0.883529(8) 0.136023(6)
U2B* U 0.843878(6) -0.116471(8) 0.136023(6)
U2C U 0.156122(6) -0.116471(8) 0.363977(6)
U2C* U 1.156122(6) 0.883529(8) 0.363977(6)
U2F U 0.156122(6) 0.116471(8) -0.136023(6)
O12F O 0.20743(12) 0.19371(15) -0.04336(11)
O12G O 0.79257(12) 0.19371(15) 0.54336(11)
O13B O 0.33574(14) 0.11776(18) 0.09500(17)
O13C O 0.66426(14) 0.11776(18) 0.40500(17)
O14B O 0.40944(14) 0.23426(18) 0.14083(16)
O14C O 0.59056(14) 0.23426(18) 0.35917(16)
H11A H 0.53530 0.58270 0.23230
C17A C 0.5350(5) 0.6710(6) 0.3121(4)
H12A H 0.55440 0.62440 0.34640
H13A H 0.49850 0.71050 0.33470
H14A H 0.57520 0.71060 0.29620
#END
