
#######################################################################
#
#                 Cambridge Crystallographic Data Centre
#                                CCDC
#
#######################################################################
#
# If this CIF has been generated from an entry in the Cambridge
# Structural Database, then it will include bibliographic, chemical,
# crystal, experimental, refinement or atomic coordinate data resulting
# from the CCDC's data processing and validation procedures.
#
#######################################################################

data_CSD_CIF_HIQLUQ
_audit_creation_date 2013-11-15
_audit_creation_method CSD-ConQuest-V1
_database_code_CSD HIQLUQ
_database_code_depnum_ccdc_archive 'CCDC 927871'
_chemical_formula_sum 'C10 H34 Ag1 B18 Co1 N2'
_chemical_formula_moiety
;
(C4 H22 B18 Co1 1-)n,n(C6 H12 Ag1 N2 1+)
;
_journal_coden_Cambridge 1147
_journal_volume 13
_journal_year 2013
_journal_page_first 3162
_journal_name_full 'Cryst.Growth Des. '
loop_
_publ_author_name
"L.Cunha-Silva"
"M.J.Carr"
"J.D.Kennedy"
"M.J.Hardie"
_chemical_name_systematic
;
catena-((\m~2~-1,4-Diazabicyclo(2.2.2)octane)-silver 
3,3'-commo-bis(3-cobalta-1,2-dicarba-closo-dodecaborate))
;
_cell_volume   2300.107
_exptl_crystal_colour 'orange'
_exptl_crystal_density_diffrn 1.57
_exptl_crystal_description 'prism'
_diffrn_ambient_temperature 150
#These two values have been output from a single CSD field.
_refine_ls_R_factor_gt 0.0138
_refine_ls_wR_factor_gt 0.0138
_symmetry_cell_setting monoclinic
_symmetry_space_group_name_H-M 'C c'
_symmetry_Int_Tables_number 9
loop_
_symmetry_equiv_pos_site_id
_symmetry_equiv_pos_as_xyz
1 x,y,z
2 x,-y,1/2+z
3 1/2+x,1/2+y,z
4 1/2+x,1/2-y,1/2+z
_cell_length_a 6.9544(5)
_cell_length_b 29.4636(18)
_cell_length_c 11.2390(5)
_cell_angle_alpha 90
_cell_angle_beta 92.817(2)
_cell_angle_gamma 90
_cell_formula_units_Z 4
loop_
_atom_type_symbol
_atom_type_radius_bond
C 0.68
H 0.23
Ag 1.45
B 0.83
Co 1.26
N 0.68
loop_
_atom_site_label
_atom_site_type_symbol
_atom_site_fract_x
_atom_site_fract_y
_atom_site_fract_z
Ag1 Ag 0.352954(14) 0.937551(3) 0.429058(10)
N1 N 0.6659(2) 0.93782(4) 0.43087(12)
N2 N 1.0393(2) 0.93841(3) 0.42813(11)
C1 C 0.9660(2) 0.89289(4) 0.46467(12)
H1 H 1.00130 0.88760 0.54990
H2 H 1.02650 0.86880 0.41770
C2 C 0.7465(2) 0.89063(4) 0.44427(12)
H3 H 0.71320 0.87280 0.37150
H4 H 0.68950 0.87530 0.51260
C3 C 0.9694(2) 0.97329(5) 0.51373(12)
H5 H 0.99210 1.00410 0.48250
H6 H 1.04130 0.97030 0.59150
C4 C 0.7314(2) 0.95656(5) 0.31537(11)
H7 H 0.69990 0.98930 0.31000
H8 H 0.66280 0.94090 0.24790
C5 C 0.9510(2) 0.94992(6) 0.30720(11)
H9 H 0.97620 0.92510 0.25060
H10 H 1.00960 0.97810 0.27750
C6 C 0.7528(2) 0.96634(5) 0.52995(11)
H11 H 0.73410 0.95130 0.60730
H12 H 0.68740 0.99620 0.53070
Co1 Co 0.34419(2) 0.838833(5) 1.016526(14)
C7 C 0.4090(2) 0.83756(4) 0.84051(11)
H13 H 0.43490 0.80120 0.81670
B1 B 0.1767(2) 0.85464(5) 0.86115(12)
H14 H 0.04490 0.83290 0.85180
B2 B 0.1400(3) 0.79735(5) 1.25511(13)
H15 H 0.02290 0.80330 1.31820
C8 C 0.2498(2) 0.77335(4) 1.03215(11)
H16 H 0.20340 0.76140 0.94060
B3 B 0.4517(3) 0.90505(5) 1.01014(13)
H17 H 0.50390 0.91730 1.10040
B4 B 0.2751(3) 0.84427(5) 1.19809(12)
H18 H 0.24820 0.88000 1.22730
B5 B 0.3041(3) 0.87053(5) 0.73133(13)
H19 H 0.25670 0.85830 0.64020
B6 B 0.1974(2) 0.90005(5) 0.96831(12)
H20 H 0.08030 0.90920 1.02890
B7 B 0.5772(3) 0.92043(5) 0.87880(14)
H21 H 0.71120 0.94150 0.88530
B8 B 0.1220(3) 0.75343(5) 1.14599(12)
H22 H -0.00620 0.73050 1.13500
B9 B 0.2935(3) 0.74877(5) 1.26919(12)
H23 H 0.27800 0.72320 1.34190
B10 B 0.5525(2) 0.87641(5) 0.77219(13)
H24 H 0.66790 0.86820 0.70950
B11 B 0.3445(3) 0.94296(5) 0.90270(14)
H25 H 0.32440 0.97970 0.92440
B12 B 0.3573(3) 0.73257(5) 1.12446(13)
H26 H 0.38510 0.69640 1.09940
B13 B 0.1073(2) 0.81240(5) 1.10111(12)
H27 H -0.03150 0.82720 1.06410
B14 B 0.5125(2) 0.82283(5) 1.17163(11)
H28 H 0.64440 0.84460 1.18120
C9 C 0.5639(2) 0.86565(4) 0.92452(11)
H29 H 0.70070 0.84980 0.96110
B15 B 0.3894(3) 0.80406(5) 1.29917(12)
H30 H 0.43820 0.81450 1.39160
C10 C 0.4756(2) 0.77953(4) 1.07147(11)
H31 H 0.59070 0.77220 1.00790
B16 B 0.4031(3) 0.92550(6) 0.75652(14)
H32 H 0.41850 0.95050 0.68260
B17 B 0.1731(3) 0.91197(5) 0.81041(13)
H33 H 0.03860 0.92790 0.77060
B18 B 0.5226(3) 0.76397(5) 1.21640(13)
H34 H 0.66010 0.74820 1.25220
Ag1* Ag 1.352954(14) 0.937551(3) 0.429058(10)
N2* N 0.0393(2) 0.93841(3) 0.42813(11)
#END
