
#######################################################################
#
#                 Cambridge Crystallographic Data Centre
#                                CCDC
#
#######################################################################
#
# If this CIF has been generated from an entry in the Cambridge
# Structural Database, then it will include bibliographic, chemical,
# crystal, experimental, refinement or atomic coordinate data resulting
# from the CCDC's data processing and validation procedures.
#
#######################################################################

data_CSD_CIF_HITFIA
_audit_creation_date 2008-05-27
_audit_creation_method CSD-ConQuest-V1
_database_code_CSD HITFIA
_database_code_depnum_ccdc_archive 'CCDC 658056'
_chemical_formula_sum 'C40 H58 Cu3 N16 O27 V10'
_chemical_formula_moiety
;
(C20 H28 Cu1 N8 O26 V10 2-)n,n(C20 H28 Cu2 N8 2+),n(H2 O1)
;
_journal_coden_Cambridge 182
_journal_year 2008
_journal_page_first 58
_journal_name_full 'Chem.Commun. '
loop_
_publ_author_name
"Ya-Qian Lan"
"Shun-Li Li"
"Zhong-Min Su"
"Kui-Zhan Shao"
"Jian-Fang Ma"
"Xin-Long Wang"
"En-Bo Wang"
_chemical_name_systematic
;
catena-((D)-bis(\m~2~-1,1'-(1,4-Butanediyl)bis(imidazole)-N^3^,N^3'^)-di-coppe
r(i) 
bis(\m~2~-1,1'-(1,4-butanediyl)bis(imidazole)-N^3^,N^3'^)-octadecakis(\m~2~-ox
o)-octaoxo-di-vanadium(iv)-octa-vanadium(v) monohydrate)
;
_cell_volume  13337.221
_exptl_crystal_colour 'black'
_exptl_crystal_density_diffrn 1.888
_exptl_crystal_description 'block'
_diffrn_ambient_temperature 293
#These two values have been output from a single CSD field.
_refine_ls_R_factor_gt 0.0549
_refine_ls_wR_factor_gt 0.0549
loop_
_citation_database_id_CSD
_citation_special_details
HIYPUB "is a stereoisomer of this entry"
_symmetry_cell_setting orthorhombic
_symmetry_space_group_name_H-M 'I 2 2 2'
_symmetry_Int_Tables_number 23
loop_
_symmetry_equiv_pos_site_id
_symmetry_equiv_pos_as_xyz
1 x,y,z
2 -x,-y,z
3 x,-y,-z
4 -x,y,-z
5 1/2+x,1/2+y,1/2+z
6 1/2-x,1/2-y,1/2+z
7 1/2+x,1/2-y,1/2-z
8 1/2-x,1/2+y,1/2-z
_cell_length_a 23.0670(14)
_cell_length_b 23.1760(14)
_cell_length_c 24.9480(14)
_cell_angle_alpha 90
_cell_angle_beta 90
_cell_angle_gamma 90
_cell_formula_units_Z 8
loop_
_atom_type_symbol
_atom_type_radius_bond
C 0.68
H 0.23
Cu 1.43
N 0.68
O 0.77
V 1.19
loop_
_atom_site_label
_atom_site_type_symbol
_atom_site_fract_x
_atom_site_fract_y
_atom_site_fract_z
V1 V -0.24705(5) -0.25443(5) 0.03474(4)
V2 V -0.27986(6) -0.39884(6) 0.07794(5)
V3 V -0.10619(6) -0.29125(7) 0.08259(5)
V4 V -0.21643(7) -0.11707(6) 0.09021(5)
V5 V -0.32951(6) -0.14596(6) 0.16792(6)
V6 V -0.38982(6) -0.22661(7) 0.08487(6)
V7 V -0.37480(6) -0.34561(7) 0.15916(6)
V8 V -0.25297(5) -0.27243(5) 0.21120(5)
V9 V -0.17171(6) -0.38973(6) 0.15877(6)
V10 V -0.13210(6) -0.19062(7) 0.16517(6)
Cu1 Cu -0.25137(4) -0.24480(4) -0.12188(3)
Cu2 Cu -0.51590(6) -0.43128(6) 0.22735(5)
Cu3 Cu -0.06806(6) -0.51943(6) 0.22851(5)
C1 C -0.3714(3) -0.2541(4) -0.1649(3)
H1 H -0.35790 -0.26840 -0.19740
C2 C -0.3740(3) -0.2225(4) -0.0837(3)
H2 H -0.36270 -0.21040 -0.04970
C3 C -0.4302(4) -0.2246(4) -0.1021(4)
H3 H -0.46350 -0.21470 -0.08320
C4 C -0.4743(4) -0.2516(6) -0.1912(3)
H4 H -0.50920 -0.26040 -0.17100
H5 H -0.46620 -0.28440 -0.21410
C5 C -0.4856(5) -0.2001(6) -0.2255(4)
H6 H -0.45110 -0.19230 -0.24670
H7 H -0.49220 -0.16700 -0.20260
C6 C -0.5375(5) -0.2066(6) -0.2637(5)
H8 H -0.57230 -0.21250 -0.24260
H9 H -0.54240 -0.17090 -0.28350
C7 C -0.5319(5) -0.2528(5) -0.3008(4)
H10 H -0.53480 -0.28920 -0.28170
H11 H -0.49400 -0.25110 -0.31750
C8 C -0.6352(4) -0.2592(5) -0.3327(4)
H12 H -0.65050 -0.26900 -0.29950
C9 C -0.6270(4) -0.2402(4) -0.4162(3)
H13 H -0.63670 -0.23540 -0.45210
C10 C -0.5726(4) -0.2365(4) -0.3959(3)
H14 H -0.53900 -0.22660 -0.41430
C11 C -0.2467(5) -0.3613(4) -0.1734(3)
H15 H -0.23570 -0.34600 -0.20630
C12 C -0.2684(4) -0.3697(4) -0.0912(3)
H16 H -0.27490 -0.36100 -0.05530
C13 C -0.2706(4) -0.4233(4) -0.1123(3)
H17 H -0.28030 -0.45720 -0.09450
C14 C -0.2537(6) -0.4635(4) -0.2046(4)
H18 H -0.26140 -0.50020 -0.18730
H19 H -0.21490 -0.46520 -0.21970
C15 C -0.2960(5) -0.4549(5) -0.2487(4)
H20 H -0.28530 -0.42110 -0.26940
H21 H -0.33430 -0.44840 -0.23370
C16 C -0.2977(5) -0.5074(5) -0.2854(4)
H22 H -0.30970 -0.54050 -0.26430
H23 H -0.32720 -0.50100 -0.31240
C17 C -0.2436(6) -0.5218(4) -0.3124(3)
H24 H -0.21500 -0.53200 -0.28560
H25 H -0.22960 -0.48760 -0.33090
C18 C -0.2400(4) -0.6251(4) -0.3390(4)
H26 H -0.22780 -0.63810 -0.30560
C19 C -0.2668(4) -0.5676(5) -0.4038(4)
H27 H -0.27630 -0.53490 -0.42360
C20 C -0.2687(3) -0.6229(4) -0.4204(3)
H28 H -0.27990 -0.63480 -0.45450
C21 C -0.5478(4) -0.3950(5) 0.1248(4)
H29 H -0.53190 -0.35880 0.13150
C22 C -0.5760(4) -0.4813(5) 0.1331(5)
H30 H -0.58240 -0.51740 0.14810
C23 C -0.5922(5) -0.4660(5) 0.0837(5)
H31 H -0.61220 -0.48790 0.05870
C24 C -0.5762(6) -0.3729(6) 0.0294(4)
H32 H -0.61340 -0.37970 0.01250
H33 H -0.57530 -0.33290 0.04080
C25 C -0.5297(5) -0.3816(6) -0.0115(5)
H34 H -0.53250 -0.35120 -0.03810
H35 H -0.53630 -0.41810 -0.02960
C26 C -0.5185(5) -0.4246(4) 0.3423(4)
H36 H -0.55810 -0.43200 0.34360
C27 C -0.4341(5) -0.4100(7) 0.3131(5)
H37 H -0.40310 -0.40510 0.28980
C28 C -0.4309(6) -0.4051(9) 0.3670(5)
H38 H -0.39820 -0.39720 0.38750
C29 C -0.5059(7) -0.4165(7) 0.4414(4)
H39 H -0.54770 -0.42100 0.44260
H40 H -0.48890 -0.45020 0.45820
C30 C -0.4902(9) -0.3666(6) 0.4713(5)
H41 H -0.50640 -0.33290 0.45370
H42 H -0.44830 -0.36280 0.47060
C31 C -0.0724(5) -0.5209(5) 0.3426(4)
H43 H -0.06440 -0.56020 0.34430
C32 C -0.0884(6) -0.4376(6) 0.3125(5)
H44 H -0.09400 -0.40650 0.28940
C33 C -0.0931(8) -0.4353(6) 0.3664(6)
H45 H -0.10160 -0.40280 0.38680
C34 C -0.085(1) -0.5067(7) 0.4422(5)
H46 H -0.08420 -0.54860 0.44320
H47 H -0.05000 -0.49310 0.45970
C35 C -0.1308(7) -0.4887(15) 0.4712(6)
H48 H -0.16620 -0.50130 0.45350
H49 H -0.13100 -0.44690 0.47190
C36 C -0.1065(5) -0.5485(4) 0.1248(4)
H50 H -0.14300 -0.53340 0.13210
C37 C -0.0169(5) -0.5771(5) 0.1325(5)
H51 H 0.01970 -0.58420 0.14670
C38 C -0.0349(6) -0.5916(5) 0.0829(6)
H52 H -0.01340 -0.61090 0.05690
C39 C -0.1281(6) -0.5753(6) 0.0307(5)
H53 H -0.16810 -0.57220 0.04220
H54 H -0.12330 -0.61280 0.01390
C40 C -0.1168(6) -0.5297(5) -0.0105(5)
H55 H -0.07940 -0.53720 -0.02700
H56 H -0.14600 -0.53260 -0.03830
N1 N -0.3371(3) -0.2411(3) -0.1237(2)
N2 N -0.4271(3) -0.2443(4) -0.1544(3)
N3 N -0.5775(3) -0.2505(4) -0.3430(3)
N4 N -0.6653(3) -0.2518(3) -0.3763(3)
N5 N -0.2553(3) -0.3303(3) -0.1297(2)
N6 N -0.2558(4) -0.4177(3) -0.1645(3)
N7 N -0.2479(3) -0.5696(3) -0.3517(3)
N8 N -0.2518(3) -0.6589(3) -0.3800(2)
N9 N -0.5490(3) -0.4365(4) 0.1587(3)
N10 N -0.5724(4) -0.4105(4) 0.0785(3)
N11 N -0.4894(4) -0.4233(4) 0.2976(3)
N12 N -0.4875(4) -0.4146(4) 0.3852(3)
N13 N -0.0831(5) -0.4881(5) 0.3847(4)
N14 N -0.0746(4) -0.4906(4) 0.2974(3)
N15 N -0.0627(4) -0.5493(4) 0.1590(3)
N16 N -0.0909(4) -0.5728(4) 0.0780(3)
O1 O -0.2520(2) -0.2552(2) -0.02890(16)
O2 O -0.4359(3) -0.2159(3) 0.0370(2)
O3 O -0.2034(3) -0.0632(2) 0.0509(2)
O4 O -0.3491(3) -0.1094(3) 0.2183(3)
O5 O -0.0567(2) -0.3036(3) 0.0390(2)
O6 O -0.0999(3) -0.1747(3) 0.2203(2)
O7 O -0.1430(3) -0.4362(3) 0.1984(2)
O8 O -0.2468(2) -0.2647(2) 0.27436(18)
O9 O -0.4242(3) -0.3743(3) 0.1964(2)
O10 O -0.2913(3) -0.4372(3) 0.0257(2)
O11 O -0.4090(2) -0.2911(3) 0.1190(2)
O12 O -0.3919(2) -0.1650(3) 0.1295(2)
O13 O -0.2800(3) -0.1032(3) 0.1286(2)
O14 O -0.3231(3) -0.2327(3) 0.0594(2)
O15 O -0.1549(2) -0.1251(3) 0.1336(2)
O16 O -0.2240(3) -0.1766(3) 0.0529(2)
O17 O -0.1679(2) -0.2760(2) 0.0493(2)
O18 O -0.1901(3) -0.2321(3) 0.1786(3)
O19 O -0.2668(3) -0.3299(3) 0.0600(2)
O20 O -0.2968(3) -0.2061(3) 0.1895(3)
O21 O -0.3232(2) -0.3167(3) 0.1985(2)
O22 O -0.3440(2) -0.4011(2) 0.1175(2)
O23 O -0.2186(2) -0.4279(2) 0.1140(2)
O24 O -0.2108(3) -0.3427(3) 0.1953(2)
O25 O -0.1149(2) -0.3545(3) 0.1229(2)
O26 O -0.0838(2) -0.2306(3) 0.1225(2)
O27 O -0.1131(6) -1.00000 0.00000
O28 O -0.50000 -0.1170(6) 0.00000
Cu1F Cu -0.75137(4) -0.25520(4) -0.37812(3)
Cu1G Cu -0.24863(4) -0.74480(4) -0.37812(3)
Cu1E Cu -0.24863(4) -0.25520(4) 0.37812(3)
Cu2C Cu -0.48410(6) -0.43128(6) 0.77265(5)
Cu2C* Cu -0.48410(6) -0.43128(6) -0.22735(5)
Cu3B Cu -0.06806(6) -0.48057(6) 0.77149(5)
Cu3B* Cu -0.06806(6) -0.48057(6) -0.22851(5)
C21C C -0.4522(4) -0.3950(5) -0.1248(4)
H29C H -0.46810 -0.35880 -0.13150
C22C C -0.4240(4) -0.4813(5) -0.1331(5)
H30C H -0.41760 -0.51740 -0.14810
C23C C -0.4078(5) -0.4660(5) -0.0837(5)
H31C H -0.38780 -0.48790 -0.05870
C24C C -0.4238(6) -0.3729(6) -0.0294(4)
H32C H -0.38660 -0.37970 -0.01250
H33C H -0.42470 -0.33290 -0.04080
C25C C -0.4703(5) -0.3816(6) 0.0115(5)
H34C H -0.46750 -0.35120 0.03810
H35C H -0.46370 -0.41810 0.02960
C26C C -0.4815(5) -0.4246(4) 0.6577(4)
H36C H -0.44190 -0.43200 0.65640
C27C C -0.5659(5) -0.4100(7) 0.6869(5)
H37C H -0.59690 -0.40510 0.71020
C28C C -0.5691(6) -0.4051(9) 0.6330(5)
H38C H -0.60180 -0.39720 0.61250
C29C C -0.4941(7) -0.4165(7) 0.5586(4)
H39C H -0.45230 -0.42100 0.55740
H40C H -0.51110 -0.45020 0.54180
C30C C -0.5098(9) -0.3666(6) 0.5287(5)
H41C H -0.49360 -0.33290 0.54630
H42C H -0.55170 -0.36280 0.52940
C31B C -0.0724(5) -0.4791(5) 0.6574(4)
H43B H -0.06440 -0.43980 0.65570
C32B C -0.0884(6) -0.5624(6) 0.6875(5)
H44B H -0.09400 -0.59350 0.71060
C33B C -0.0931(8) -0.5647(6) 0.6336(6)
H45B H -0.10160 -0.59720 0.61320
C34B C -0.085(1) -0.4933(7) 0.5578(5)
H46B H -0.08420 -0.45140 0.55680
H47B H -0.05000 -0.50690 0.54030
C35B C -0.1308(7) -0.5113(15) 0.5288(6)
H48B H -0.16620 -0.49870 0.54650
H49B H -0.13100 -0.55310 0.52810
C36B C -0.1065(5) -0.4515(4) -0.1248(4)
H50B H -0.14300 -0.46660 -0.13210
C37B C -0.0169(5) -0.4229(5) -0.1325(5)
H51B H 0.01970 -0.41580 -0.14670
C38B C -0.0349(6) -0.4084(5) -0.0829(6)
H52B H -0.01340 -0.38910 -0.05690
C39B C -0.1281(6) -0.4247(6) -0.0307(5)
H53B H -0.16810 -0.42780 -0.04220
H54B H -0.12330 -0.38720 -0.01390
C40B C -0.1168(6) -0.4703(5) 0.0105(5)
H55B H -0.07940 -0.46280 0.02700
H56B H -0.14600 -0.46740 0.03830
N4F N -0.1653(3) -0.2482(3) -0.1237(3)
N8G N -0.2482(3) -0.1589(3) -0.1200(2)
N9C N -0.4510(3) -0.4365(4) -0.1587(3)
N10C N -0.4276(4) -0.4105(4) -0.0785(3)
N11C N -0.5106(4) -0.4233(4) 0.7024(3)
N11C* N -0.5106(4) -0.4233(4) -0.2976(3)
N12C N -0.5125(4) -0.4146(4) 0.6148(3)
N13B N -0.0831(5) -0.5119(5) 0.6153(4)
N14B N -0.0746(4) -0.5094(4) 0.7026(3)
N14B* N -0.0746(4) -0.5094(4) -0.2974(3)
N15B N -0.0627(4) -0.4507(4) -0.1590(3)
N16B N -0.0909(4) -0.4272(4) -0.0780(3)
O8E O -0.2532(2) -0.2353(2) -0.22564(18)
#END
