
#######################################################################
#
#                 Cambridge Crystallographic Data Centre
#                                CCDC
#
#######################################################################
#
# If this CIF has been generated from an entry in the Cambridge
# Structural Database, then it will include bibliographic, chemical,
# crystal, experimental, refinement or atomic coordinate data resulting
# from the CCDC's data processing and validation procedures.
#
#######################################################################

data_CSD_CIF_HIWHEB
_audit_creation_date 2008-05-27
_audit_creation_method CSD-ConQuest-V1
_database_code_CSD HIWHEB
_database_code_depnum_ccdc_archive 'CCDC 677744'
_chemical_formula_sum 'C20 H19 Ag2 N4 O16 P3 U2'
_chemical_formula_moiety
;
(C20 H16 Ag2 N4 2+)n,n(H3 O16 P3 U2 2-)
;
_journal_coden_Cambridge 9
_journal_volume 46
_journal_year 2007
_journal_page_first 10214
_journal_name_full 'Inorg.Chem. '
loop_
_publ_author_name
"Yaqin Yu"
"Wei Zhan"
"T.E.Albrecht-Schmitt"
_chemical_name_systematic
;
catena-(bis(\m~2~-4,4'-Bipyridine)-di-silver bis(\m~3~-hydrogen 
phosphato)-(\m~2~-hydrogen phosphato)-tetroxo-di-uranium(vi))
;
_cell_volume    755.566
_exptl_crystal_colour 'yellow'
_exptl_crystal_density_diffrn 2.974
_exptl_special_details
;
fluorescent

;
_exptl_crystal_description 'block'
_diffrn_ambient_temperature 193
_refine_special_details
;
A phosphate group is equally disordered over two sites by symmetry.

;
#These two values have been output from a single CSD field.
_refine_ls_R_factor_gt 0.0382
_refine_ls_wR_factor_gt 0.0382
_symmetry_cell_setting triclinic
_symmetry_space_group_name_H-M 'P -1'
_symmetry_Int_Tables_number 2
loop_
_symmetry_equiv_pos_site_id
_symmetry_equiv_pos_as_xyz
1 x,y,z
2 -x,-y,-z
_cell_length_a 7.0342(5)
_cell_length_b 10.6929(7)
_cell_length_c 11.1301(8)
_cell_angle_alpha 93.682(1)
_cell_angle_beta 106.908(1)
_cell_angle_gamma 107.031(1)
_cell_formula_units_Z 1
loop_
_atom_type_symbol
_atom_type_radius_bond
C 0.68
H 0.23
Ag 1.59
N 0.68
O 0.68
P 0.81
U 1.49
loop_
_atom_site_label
_atom_site_type_symbol
_atom_site_fract_x
_atom_site_fract_y
_atom_site_fract_z
U1 U 0.13711(4) -0.06363(2) -0.18575(2)
Ag1 Ag 0.04389(10) -0.49311(6) 0.28422(5)
P1 P -0.1336(7) 0.0133(4) -0.4899(4)
P2 P -0.3173(3) 0.01889(18) -0.16004(1)
O1 O -0.163(2) 0.1347(13) -0.4250(13)
O2 O -0.3558(19) -0.0968(12) -0.5392(11)
O3 O -0.3074(11) 0.1284(6) -0.2452(6)
O4 O 0.0356(11) -0.0503(6) -0.4004(6)
O5 O -0.1878(8) -0.0657(5) -0.1858(5)
O6 O -0.2276(9) 0.0889(6) -0.0212(5)
O7 O 0.2378(9) 0.1131(5) -0.1452(6)
O8 O -0.5471(8) -0.0695(6) -0.1930(6)
O9 O 0.0360(8) -0.2405(5) -0.2284(5)
N1 N -0.1377(9) -0.4867(6) 0.0994(6)
N2 N -0.7765(11) -0.4885(7) -0.5248(6)
C1 C -0.6665(14) -0.3746(9) -0.4448(8)
H1 H -0.67240 -0.29370 -0.47380
C2 C -0.7738(14) -0.6008(8) -0.4800(8)
H2 H -0.85470 -0.68270 -0.53510
C3 C -0.6589(14) -0.6031(8) -0.3575(8)
H3 H -0.66670 -0.68540 -0.32830
C4 C -0.2742(12) -0.3674(7) -0.0643(7)
H4 H -0.27600 -0.28430 -0.08910
C5 C -0.1515(13) -0.3754(8) 0.0553(8)
H5 H -0.06940 -0.29420 0.11120
C6 C -0.5430(15) -0.3702(8) -0.3198(8)
H6 H -0.46750 -0.28740 -0.26530
C7 C -0.2539(12) -0.6008(7) 0.0179(7)
H7 H -0.24900 -0.68260 0.04490
C8 C -0.3810(13) -0.6019(7) -0.1047(8)
H8 H -0.45910 -0.68400 -0.16000
C9 C -0.3950(11) -0.4858(7) -0.1467(7)
C10 C -0.5314(11) -0.4853(7) -0.2765(7)
U1A U -0.13711(4) 0.06363(2) -0.81425(2)
U1A* U -0.13711(4) 0.06363(2) 0.18575(2)
U1* U -0.86289(4) -0.06363(2) -0.18575(2)
U1A** U 0.86289(4) 0.06363(2) 0.18575(2)
Ag1* Ag 1.04389(10) -0.49311(6) 1.28422(5)
Ag1** Ag -0.95611(10) -0.49311(6) -0.71578(5)
P1A P 0.1336(7) -0.0133(4) -0.5101(4)
P2A P 0.3173(3) -0.01889(18) 0.16004(1)
O1A O 0.163(2) -0.1347(13) -0.5750(13)
O2A O 0.3558(19) 0.0968(12) -0.4608(11)
O3A O 0.3074(11) -0.1284(6) 0.2452(6)
O4A O -0.0356(11) 0.0503(6) -0.5996(6)
O5A O 0.1878(8) 0.0657(5) 0.1858(5)
O5A* O 0.1878(8) 0.0657(5) -0.8142(5)
O6A O 0.2276(9) -0.0889(6) 0.0212(5)
O6* O -0.2276(9) 0.0889(6) -1.0212(5)
O7A O -0.2378(9) -0.1131(5) -0.8548(6)
O8A O 0.5471(8) 0.0695(6) 0.1930(6)
O8* O 0.4529(8) -0.0695(6) -0.1930(6)
O8A* O -0.4529(8) 0.0695(6) -0.8070(6)
O9A O -0.0360(8) 0.2405(5) -0.7716(5)
N1* N 0.8623(9) -0.4867(6) 1.0994(6)
N2* N 0.2235(11) -0.4885(7) 0.4752(6)
N2** N 1.2235(11) -0.4885(7) 1.4752(6)
C1* C 0.3335(14) -0.3746(9) 0.5552(8)
H1* H 0.32760 -0.29370 0.52620
C2* C 0.2262(14) -0.6008(8) 0.5200(8)
H2* H 0.14530 -0.68270 0.46490
C3* C 0.3411(14) -0.6031(8) 0.6425(8)
H3* H 0.33330 -0.68540 0.67170
C4* C 0.7258(12) -0.3674(7) 0.9357(7)
H4* H 0.72400 -0.28430 0.91090
C5* C 0.8485(13) -0.3754(8) 1.0553(8)
H5* H 0.93060 -0.29420 1.11120
C6* C 0.4570(15) -0.3702(8) 0.6802(8)
H6* H 0.53250 -0.28740 0.73470
C7* C 0.7461(12) -0.6008(7) 1.0179(7)
H7* H 0.75100 -0.68260 1.04490
C8* C 0.6190(13) -0.6019(7) 0.8953(8)
H8* H 0.54090 -0.68400 0.84000
C9* C 0.6050(11) -0.4858(7) 0.8533(7)
C10* C 0.4686(11) -0.4853(7) 0.7235(7)
#END
