
#######################################################################
#
#                 Cambridge Crystallographic Data Centre
#                                CCDC
#
#######################################################################
#
# If this CIF has been generated from an entry in the Cambridge
# Structural Database, then it will include bibliographic, chemical,
# crystal, experimental, refinement or atomic coordinate data resulting
# from the CCDC's data processing and validation procedures.
#
#######################################################################

data_CSD_CIF_HIYPUB
_audit_creation_date 2008-05-27
_audit_creation_method CSD-ConQuest-V1
_database_code_CSD HIYPUB
_database_code_depnum_ccdc_archive 'CCDC 658057'
_chemical_formula_sum 'C40 H58 Cu3 N16 O27 V10'
_chemical_formula_moiety
;
(C20 H28 Cu1 N8 O26 V10 2-)n,n(C20 H28 Cu2 N8 2+),n(H2 O1)
;
_journal_coden_Cambridge 182
_journal_year 2008
_journal_page_first 58
_journal_name_full 'Chem.Commun. '
loop_
_publ_author_name
"Ya-Qian Lan"
"Shun-Li Li"
"Zhong-Min Su"
"Kui-Zhan Shao"
"Jian-Fang Ma"
"Xin-Long Wang"
"En-Bo Wang"
_chemical_name_systematic
;
catena-((L)-bis(\m~2~-1,1'-(1,4-Butanediyl)bis(imidazole)-N^3^,N^3'^)-di-coppe
r(i) 
bis(\m~2~-1,1'-(1,4-butanediyl)bis(imidazole)-N^3^,N^3'^)-octadecakis(\m~2~-ox
o)-octaoxo-di-vanadium(iv)-octa-vanadium(v) monohydrate)
;
_cell_volume  13337.221
_exptl_crystal_colour 'black'
_exptl_crystal_density_diffrn 1.888
_exptl_crystal_description 'block'
_diffrn_ambient_temperature 293
#These two values have been output from a single CSD field.
_refine_ls_R_factor_gt 0.0539
_refine_ls_wR_factor_gt 0.0539
loop_
_citation_database_id_CSD
_citation_special_details
HITFIA "is a stereoisomer of this entry"
_symmetry_cell_setting orthorhombic
_symmetry_space_group_name_H-M 'I 2 2 2'
_symmetry_Int_Tables_number 23
loop_
_symmetry_equiv_pos_site_id
_symmetry_equiv_pos_as_xyz
1 x,y,z
2 -x,-y,z
3 x,-y,-z
4 -x,y,-z
5 1/2+x,1/2+y,1/2+z
6 1/2-x,1/2-y,1/2+z
7 1/2+x,1/2-y,1/2-z
8 1/2-x,1/2+y,1/2-z
_cell_length_a 23.067(1)
_cell_length_b 23.176(1)
_cell_length_c 24.9480(9)
_cell_angle_alpha 90
_cell_angle_beta 90
_cell_angle_gamma 90
_cell_formula_units_Z 8
loop_
_atom_type_symbol
_atom_type_radius_bond
C 0.68
H 0.23
Cu 1.43
N 0.68
O 0.77
V 1.20
loop_
_atom_site_label
_atom_site_type_symbol
_atom_site_fract_x
_atom_site_fract_y
_atom_site_fract_z
V1 V 0.24710(5) 0.25441(4) -0.03473(4)
V2 V 0.27979(5) 0.39878(5) -0.07788(5)
V3 V 0.10624(5) 0.29127(6) -0.08237(5)
V4 V 0.21627(6) 0.11736(5) -0.09009(5)
V5 V 0.32952(5) 0.14615(5) -0.16776(5)
V6 V 0.38962(5) 0.22653(6) -0.08498(5)
V7 V 0.37486(5) 0.34560(6) -0.15911(5)
V8 V 0.25302(5) 0.27254(5) -0.21111(4)
V9 V 0.17184(5) 0.38986(5) -0.15866(5)
V10 V 0.13227(5) 0.19079(6) -0.16509(5)
Cu1 Cu 0.25138(3) 0.24478(3) 0.12192(3)
Cu2 Cu 0.51606(5) 0.43129(5) -0.22739(4)
Cu3 Cu 0.06800(5) 0.51963(5) -0.22847(4)
C1 C 0.3714(3) 0.2553(4) 0.1649(3)
H1 H 0.35800 0.27130 0.19670
C2 C 0.3745(3) 0.2222(3) 0.0839(3)
H2 H 0.36340 0.21030 0.04980
C3 C 0.4297(3) 0.2243(4) 0.1024(3)
H3 H 0.46300 0.21420 0.08360
C4 C 0.4753(3) 0.2537(4) 0.1908(3)
H4 H 0.46700 0.28650 0.21360
H5 H 0.51000 0.26240 0.17030
C5 C 0.4857(4) 0.2011(5) 0.2248(4)
H6 H 0.49170 0.16820 0.20140
H7 H 0.45110 0.19360 0.24580
C6 C 0.5383(4) 0.2059(5) 0.2635(4)
H8 H 0.54240 0.17000 0.28320
H9 H 0.57330 0.21170 0.24270
C7 C 0.5320(4) 0.2528(4) 0.3012(3)
H10 H 0.49420 0.25050 0.31810
H11 H 0.53420 0.28930 0.28210
C8 C 0.6349(3) 0.2604(4) 0.3323(4)
H12 H 0.65000 0.27090 0.29910
C9 C 0.6269(3) 0.2396(3) 0.4161(3)
H13 H 0.63670 0.23360 0.45190
C10 C 0.5731(3) 0.2370(3) 0.3961(3)
H14 H 0.53940 0.22760 0.41460
C11 C 0.2462(4) 0.3612(3) 0.1735(3)
H15 H 0.23470 0.34570 0.20620
C12 C 0.2687(3) 0.3698(3) 0.0912(3)
H16 H 0.27540 0.36110 0.05530
C13 C 0.2708(3) 0.4236(3) 0.1123(3)
H17 H 0.28070 0.45750 0.09450
C14 C 0.2530(5) 0.4633(3) 0.2046(3)
H18 H 0.21430 0.46470 0.21970
H19 H 0.26060 0.50020 0.18760
C15 C 0.2957(4) 0.4544(4) 0.2487(3)
H20 H 0.33370 0.44720 0.23340
H21 H 0.28460 0.42070 0.26940
C16 C 0.2987(4) 0.5075(4) 0.2860(4)
H22 H 0.32780 0.50070 0.31330
H23 H 0.31090 0.54080 0.26520
C17 C 0.2418(4) 0.5212(3) 0.3129(3)
H24 H 0.21330 0.53140 0.28590
H25 H 0.22790 0.48710 0.33160
C18 C 0.2391(3) 0.6244(3) 0.3391(3)
H26 H 0.22640 0.63720 0.30580
C19 C 0.2668(3) 0.5676(4) 0.4037(3)
H27 H 0.27640 0.53470 0.42320
C20 C 0.2691(3) 0.6226(3) 0.4207(3)
H28 H 0.28090 0.63430 0.45470
C21 C 0.5473(3) 0.3950(4) -0.1247(3)
H29 H 0.53100 0.35910 -0.13170
C22 C 0.5764(3) 0.4814(4) -0.1337(4)
H30 H 0.58380 0.51720 -0.14910
C23 C 0.5910(4) 0.4659(5) -0.0845(4)
H31 H 0.61010 0.48830 -0.05920
C24 C 0.5768(5) 0.3733(5) -0.0291(4)
H32 H 0.57670 0.33320 -0.04000
H33 H 0.61380 0.38100 -0.01200
C25 C 0.5304(4) 0.3819(5) 0.0110(4)
H34 H 0.53710 0.41840 0.02900
H35 H 0.53340 0.35160 0.03770
C26 C 0.5186(4) 0.4250(4) -0.3423(4)
H36 H 0.55810 0.43300 -0.34360
C27 C 0.4332(4) 0.4104(6) -0.3123(3)
H37 H 0.40210 0.40660 -0.28880
C28 C 0.4303(4) 0.4045(7) -0.3673(4)
H38 H 0.39810 0.39560 -0.38810
C29 C 0.5073(6) 0.4161(6) -0.4412(4)
H39 H 0.49110 0.44990 -0.45860
H40 H 0.54920 0.41950 -0.44230
C30 C 0.4906(8) 0.3665(5) -0.4703(4)
H41 H 0.44880 0.36300 -0.46870
H42 H 0.50700 0.33280 -0.45300
C31 C 0.0719(4) 0.5202(5) -0.3435(3)
H43 H 0.06340 0.55940 -0.34550
C32 C 0.0878(5) 0.4370(4) -0.3124(4)
H44 H 0.09260 0.40640 -0.28860
C33 C 0.0934(6) 0.4338(5) -0.3661(4)
H45 H 0.10270 0.40130 -0.38620
C34 C 0.0834(6) 0.5080(6) -0.4418(4)
H46 H 0.04790 0.49570 -0.45910
H47 H 0.08420 0.54980 -0.44230
C35 C 0.1328(5) 0.4863(10) -0.4726(5)
H48 H 0.13020 0.44470 -0.47610
H49 H 0.16870 0.49550 -0.45420
C36 C 0.1061(4) 0.5475(4) -0.1251(4)
H50 H 0.14210 0.53090 -0.13200
C37 C 0.0172(4) 0.5776(4) -0.1332(4)
H51 H -0.01920 0.58460 -0.14790
C38 C 0.0336(5) 0.5928(4) -0.0841(5)
H52 H 0.01180 0.61250 -0.05860
C39 C 0.1285(5) 0.5754(5) -0.0308(4)
H53 H 0.12450 0.61310 -0.01430
H54 H 0.16850 0.57150 -0.04240
C40 C 0.1160(5) 0.5297(4) 0.0108(4)
H55 H 0.14490 0.53230 0.03900
H56 H 0.07850 0.53740 0.02680
N1 N 0.3374(2) 0.2408(3) 0.1241(2)
N2 N 0.4272(2) 0.2442(3) 0.1545(2)
N3 N 0.5777(3) 0.2510(3) 0.3429(3)
N4 N 0.6652(2) 0.2524(2) 0.3763(2)
N5 N 0.2554(2) 0.3303(2) 0.12932(19)
N6 N 0.2556(3) 0.4179(2) 0.1645(2)
N7 N 0.2476(3) 0.5696(3) 0.3518(2)
N8 N 0.2513(2) 0.6590(2) 0.3804(2)
N9 N 0.5490(3) 0.4368(3) -0.1583(3)
N10 N 0.5723(3) 0.4101(4) -0.0781(3)
N11 N 0.4899(3) 0.4229(3) -0.2975(3)
N12 N 0.4884(3) 0.4152(4) -0.3850(3)
N13 N 0.0826(4) 0.4880(4) -0.3848(3)
N14 N 0.0744(3) 0.4911(3) -0.2986(3)
N15 N 0.0624(3) 0.5497(3) -0.1593(3)
N16 N 0.0904(3) 0.5730(3) -0.0787(3)
O1 O 0.25194(19) 0.25499(19) 0.02897(14)
O2 O 0.4354(2) 0.2162(3) -0.0371(2)
O3 O 0.2042(3) 0.0632(2) -0.0506(2)
O4 O 0.3491(3) 0.1091(3) -0.2185(2)
O5 O 0.0567(2) 0.3046(3) -0.0387(2)
O6 O 0.0999(3) 0.1741(3) -0.2202(2)
O7 O 0.1430(2) 0.4365(2) -0.1986(2)
O8 O 0.24698(19) 0.2641(2) -0.27435(16)
O9 O 0.4249(2) 0.3744(3) -0.1957(2)
O10 O 0.2918(3) 0.4380(3) -0.0264(2)
O11 O 0.40872(19) 0.2912(2) -0.11940(19)
O12 O 0.3920(2) 0.1655(2) -0.1295(2)
O13 O 0.2798(2) 0.1034(2) -0.12867(19)
O14 O 0.3233(2) 0.2327(2) -0.0598(2)
O15 O 0.1551(2) 0.1253(2) -0.13365(19)
O16 O 0.2247(2) 0.1765(2) -0.05259(18)
O17 O 0.16802(19) 0.2763(2) -0.0493(2)
O18 O 0.1900(2) 0.2329(2) -0.1778(2)
O19 O 0.2668(2) 0.3296(2) -0.0600(2)
O20 O 0.2970(2) 0.2060(2) -0.1892(3)
O21 O 0.3231(2) 0.3166(2) -0.1985(2)
O22 O 0.3441(2) 0.4014(2) -0.1177(2)
O23 O 0.2189(2) 0.4283(2) -0.11372(18)
O24 O 0.2105(2) 0.3427(2) -0.1952(2)
O25 O 0.1149(2) 0.3550(2) -0.1224(2)
O26 O 0.08401(18) 0.2309(2) -0.12216(18)
O27 O 0.1134(4) 1.00000 0.00000
O28 O 0.50000 0.1185(5) 0.00000
Cu1E Cu 0.24862(3) 0.25522(3) -0.37808(3)
Cu1G Cu 0.24862(3) 0.74478(3) 0.37808(3)
Cu1F Cu 0.75138(3) 0.25522(3) 0.37808(3)
Cu2C Cu 0.48394(5) 0.43129(5) -0.77261(4)
Cu2C* Cu 0.48394(5) 0.43129(5) 0.22739(4)
Cu3B Cu 0.06800(5) 0.48037(5) -0.77153(4)
Cu3B* Cu 0.06800(5) 0.48037(5) 0.22847(4)
C21C C 0.4527(3) 0.3950(4) 0.1247(3)
H29C H 0.46900 0.35910 0.13170
C22C C 0.4236(3) 0.4814(4) 0.1337(4)
H30C H 0.41620 0.51720 0.14910
C23C C 0.4090(4) 0.4659(5) 0.0845(4)
H31C H 0.38990 0.48830 0.05920
C24C C 0.4232(5) 0.3733(5) 0.0291(4)
H32C H 0.42330 0.33320 0.04000
H33C H 0.38620 0.38100 0.01200
C25C C 0.4696(4) 0.3819(5) -0.0110(4)
H34C H 0.46290 0.41840 -0.02900
H35C H 0.46660 0.35160 -0.03770
C26C C 0.4814(4) 0.4250(4) -0.6577(4)
H36C H 0.44190 0.43300 -0.65640
C27C C 0.5668(4) 0.4104(6) -0.6877(3)
H37C H 0.59790 0.40660 -0.71120
C28C C 0.5697(4) 0.4045(7) -0.6327(4)
H38C H 0.60190 0.39560 -0.61190
C29C C 0.4927(6) 0.4161(6) -0.5588(4)
H39C H 0.50890 0.44990 -0.54140
H40C H 0.45080 0.41950 -0.55770
C30C C 0.5094(8) 0.3665(5) -0.5297(4)
H41C H 0.55120 0.36300 -0.53130
H42C H 0.49300 0.33280 -0.54700
C31B C 0.0719(4) 0.4798(5) -0.6565(3)
H43B H 0.06340 0.44060 -0.65450
C32B C 0.0878(5) 0.5630(4) -0.6876(4)
H44B H 0.09260 0.59360 -0.71140
C33B C 0.0934(6) 0.5662(5) -0.6339(4)
H45B H 0.10270 0.59870 -0.61380
C34B C 0.0834(6) 0.4920(6) -0.5582(4)
H46B H 0.04790 0.50430 -0.54090
H47B H 0.08420 0.45020 -0.55770
C35B C 0.1328(5) 0.5137(10) -0.5274(5)
H48B H 0.13020 0.55530 -0.52390
H49B H 0.16870 0.50450 -0.54580
C36B C 0.1061(4) 0.4525(4) 0.1251(4)
H50B H 0.14210 0.46910 0.13200
C37B C 0.0172(4) 0.4224(4) 0.1332(4)
H51B H -0.01920 0.41540 0.14790
C38B C 0.0336(5) 0.4072(4) 0.0841(5)
H52B H 0.01180 0.38750 0.05860
C39B C 0.1285(5) 0.4246(5) 0.0308(4)
H53B H 0.12450 0.38690 0.01430
H54B H 0.16850 0.42850 0.04240
C40B C 0.1160(5) 0.4703(4) -0.0108(4)
H55B H 0.14490 0.46770 -0.03900
H56B H 0.07850 0.46260 -0.02680
N4F N 0.1652(2) 0.2476(2) 0.1237(2)
N8G N 0.2487(2) 0.1590(2) 0.1196(2)
N9C N 0.4510(3) 0.4368(3) -0.8417(3)
N9C* N 0.4510(3) 0.4368(3) 0.1583(3)
N10C N 0.4277(3) 0.4101(4) 0.0781(3)
N11C N 0.5101(3) 0.4229(3) -0.7025(3)
N12C N 0.5116(3) 0.4152(4) -0.6150(3)
N13B N 0.0826(4) 0.5120(4) -0.6152(3)
N14B N 0.0744(3) 0.5089(3) -0.7014(3)
N15B N 0.0624(3) 0.4503(3) 0.1593(3)
N15B* N 0.0624(3) 0.4503(3) -0.8407(3)
N16B N 0.0904(3) 0.4270(3) 0.0787(3)
O8E O 0.25302(19) 0.2359(2) 0.22565(16)
#END
