
#######################################################################
#
#                 Cambridge Crystallographic Data Centre
#                                CCDC
#
#######################################################################
#
# If this CIF has been generated from an entry in the Cambridge
# Structural Database, then it will include bibliographic, chemical,
# crystal, experimental, refinement or atomic coordinate data resulting
# from the CCDC's data processing and validation procedures.
#
#######################################################################

data_CSD_CIF_HOCDOU
_audit_creation_date 2014-04-10
_audit_creation_method CSD-ConQuest-V1
_database_code_CSD HOCDOU
_database_code_depnum_ccdc_archive 'CCDC 982207'
_chemical_formula_sum 'C14 H34 Mn5 N12 O30 P2'
_chemical_formula_moiety
;
(C10 H6 Mn5 O28 P2 4-)n,4n(C1 H6 N3 1+),2n(H2 O1)
;
_journal_coden_Cambridge 222
_journal_volume 43
_journal_year 2014
_journal_page_first 7695
_journal_name_full 'Dalton Trans. '
loop_
_publ_author_name
"Lin Liu"
"Daibing Luo"
"Defu Li"
"Zhien Lin"
_chemical_name_systematic
;
catena-(tetrakis(Guanidinium) (\m~4~-oxalato)-bis(\m~3~-hydrogen 
phosphito)-tetrakis(\m~2~-oxalato)-diaqua-penta-manganese dihydrate)
;
_cell_volume    977.447
_exptl_crystal_colour 'light pink'
_exptl_crystal_density_diffrn 2.017
_exptl_crystal_description 'block'
_diffrn_ambient_temperature 293
_refine_special_details
;
N4,N5 and N4',N5' disordered over two sites with occupancies 0.613:0.387.

;
#These two values have been output from a single CSD field.
_refine_ls_R_factor_gt 0.036
_refine_ls_wR_factor_gt 0.036
_symmetry_cell_setting triclinic
_symmetry_space_group_name_H-M 'P -1'
_symmetry_Int_Tables_number 2
loop_
_symmetry_equiv_pos_site_id
_symmetry_equiv_pos_as_xyz
1 x,y,z
2 -x,-y,-z
_cell_length_a 9.7205(6)
_cell_length_b 9.7468(6)
_cell_length_c 10.8926(5)
_cell_angle_alpha 83.989(4)
_cell_angle_beta 75.467(5)
_cell_angle_gamma 78.545(5)
_cell_formula_units_Z 1
loop_
_atom_type_symbol
_atom_type_radius_bond
C 0.68
H 0.23
Mn 1.61
N 0.68
O 0.68
P 1.05
loop_
_atom_site_label
_atom_site_type_symbol
_atom_site_fract_x
_atom_site_fract_y
_atom_site_fract_z
Mn1 Mn 0.50000 0.00000 1.00000
Mn2 Mn 0.36465(5) 0.25534(5) 0.52307(5)
Mn3 Mn 0.24086(5) 0.55013(5) 0.28165(5)
P1 P 0.47556(9) -0.02251(8) 0.69689(8)
H1 H 0.593(3) 0.0421(16) 0.6686(7)
O1 O 0.4174(3) -0.0237(3) 0.8398(2)
O2 O 0.3679(2) 0.0608(2) 0.6254(2)
O3 O 0.5276(3) -0.1717(2) 0.6539(2)
O4 O 0.7021(2) 0.0461(2) 0.8782(2)
O5 O 0.8004(2) 0.2221(2) 0.7697(2)
O6 O 0.4571(2) 0.2323(2) 0.9679(2)
O7 O 0.5654(2) 0.4039(2) 0.8580(2)
O8 O 0.0299(2) 0.5540(3) 0.2417(2)
O9 O -0.2046(2) 0.6386(3) 0.3111(2)
O10 O 0.0802(2) 0.6259(2) 0.4553(2)
O11 O -0.1545(2) 0.7089(2) 0.5247(2)
O12 O 0.3755(2) 0.4724(2) 0.4186(2)
O13 O 0.4643(2) 0.6651(2) 0.4237(2)
O14 O 0.3056(3) 0.3448(2) 0.2029(2)
H2 H 0.35230 0.28090 0.24360
H3 H 0.34040 0.32880 0.12530
C1 C 0.6998(3) 0.1731(3) 0.8432(3)
C2 C 0.5608(4) 0.2792(3) 0.8937(3)
C3 C -0.0765(3) 0.6107(3) 0.3219(3)
C4 C -0.0472(3) 0.6511(3) 0.4452(3)
C5 C 0.4536(3) 0.5411(3) 0.4547(3)
O15 O 0.1399(4) 0.1712(5) 0.9369(4)
H4 H 0.14960 0.25260 0.94840
H5 H 0.20350 0.14880 0.85480
N1 N 0.9253(3) -0.0261(3) 0.2926(3)
H6 H 0.99650 -0.07500 0.24230
H7 H 0.84060 -0.04740 0.30850
N2 N 0.8354(4) 0.1583(4) 0.4202(3)
H8 H 0.84820 0.22990 0.45300
H9 H 0.75080 0.13680 0.43590
N3 N 1.0750(3) 0.1137(4) 0.3212(4)
H10 H 1.14630 0.06490 0.27080
H11 H 1.08850 0.18390 0.35570
C6 C 0.9459(4) 0.0812(4) 0.3454(4)
N4 N 0.2951(9) -0.4228(12) 0.8127(9)
N5 N 0.0503(7) -0.3575(7) 0.8947(6)
N6 N 0.1854(6) -0.2191(5) 0.9238(4)
H12 H 0.25630 -0.17420 0.89960
H13 H 0.10660 -0.18190 0.97410
C7 C 0.1970(6) -0.3384(5) 0.8857(5)
N7? N 0.3512(11) -0.3668(11) 0.8225(12)
N8? N 0.1686(10) -0.4568(10) 0.9693(10)
O12A O 0.6245(2) 0.5276(2) 0.5814(2)
O13A O 0.5357(2) 0.3349(2) 0.5763(2)
C5A C 0.5464(3) 0.4589(3) 0.5453(3)
Mn2A Mn -0.36465(5) 0.74466(5) 0.47693(5)
Mn3A Mn -0.24086(5) 0.44987(5) 0.71835(5)
P1A P -0.47556(9) 1.02251(8) 0.30311(8)
H1A H -0.593(3) 0.9579(16) 0.3314(7)
O1A O -0.4174(3) 1.0237(3) 0.1602(2)
O2A O -0.3679(2) 0.9392(2) 0.3746(2)
O3A O -0.5276(3) 1.1717(2) 0.3461(2)
O8A O -0.0299(2) 0.4460(3) 0.7583(2)
O9A O 0.2046(2) 0.3614(3) 0.6889(2)
O10A O -0.0802(2) 0.3741(2) 0.5447(2)
O11A O 0.1545(2) 0.2911(2) 0.4753(2)
O14A O -0.3056(3) 0.6552(2) 0.7971(2)
H2A H -0.35230 0.71910 0.75640
H3A H -0.34040 0.67120 0.87470
C3A C 0.0765(3) 0.3893(3) 0.6781(3)
C4A C 0.0472(3) 0.3489(3) 0.5548(3)
O4A O 0.2979(2) -0.0461(2) 1.1218(2)
O5A O 0.1996(2) -0.2221(2) 1.2303(2)
O6A O 0.5429(2) -0.2323(2) 1.0321(2)
O7A O 0.4346(2) -0.4039(2) 1.1420(2)
C1A C 0.3002(3) -0.1731(3) 1.1568(3)
C2A C 0.4392(4) -0.2792(3) 1.1063(3)
Mn1* Mn -0.50000 1.00000 0.00000
Mn2* Mn -0.63535(5) 1.25534(5) 0.52307(5)
Mn2A* Mn 0.63535(5) -0.25534(5) 0.47693(5)
Mn2A** Mn 0.63535(5) 0.74466(5) 0.47693(5)
Mn3* Mn 0.24086(5) -0.44987(5) 1.28165(5)
Mn3A* Mn 0.75914(5) 0.44987(5) 0.71835(5)
O1A* O 0.5826(3) 0.0237(3) 1.1602(2)
O3* O -0.4724(3) 0.8283(2) 0.6539(2)
O3A* O 0.4724(3) 0.1717(2) 0.3461(2)
O5* O -0.1996(2) 0.2221(2) 0.7697(2)
O5A* O 0.1996(2) 0.7779(2) 0.2303(2)
O7* O -0.4346(2) 0.4039(2) 0.8580(2)
O7A* O 0.4346(2) 0.5961(2) 0.1420(2)
O12A* O -0.3755(2) 0.5276(2) 0.5814(2)
O13* O -0.5357(2) 0.6651(2) 0.4237(2)
#END
