
#######################################################################
#
#                 Cambridge Crystallographic Data Centre
#                                CCDC
#
#######################################################################
#
# If this CIF has been generated from an entry in the Cambridge
# Structural Database, then it will include bibliographic, chemical,
# crystal, experimental, refinement or atomic coordinate data resulting
# from the CCDC's data processing and validation procedures.
#
#######################################################################

data_CSD_CIF_HOCMOE
_audit_creation_date 2019-03-26
_audit_creation_method CSD-ConQuest-V1
_database_code_CSD HOCMOE
_database_code_depnum_ccdc_archive 'CCDC 1587738'
_chemical_formula_sum 'C156 H120 Co9 N18 O92 P2 W18'
_chemical_formula_moiety
;
(C52 H40 Co3 N6 O10 2+)3n,O62 P2 W18 6-
;
_journal_coden_Cambridge 1440
_journal_volume 10
_journal_year 2018
_journal_page_first 13462
_journal_name_full 'ACS Applied Materials and Interfaces '
loop_
_publ_author_name
"Wenlong Sun"
"Bowen An"
"Bo Qi"
"Tao Liu"
"Meng Jin"
"Chunying Duan"
_chemical_name_systematic
;
catena-[tris(tris(\m-4,4'-(1,4-phenylene)dipyridine)-bis(\m-oxalato)-diaqua-tr
i-cobalt(ii)) 
bis(\m-phosphato)-hexatriacontakis(\m-oxido)-octadecaoxo-octadeca-tungsten(vi)
]
;
_cell_volume   4811.161
_exptl_crystal_colour 'red'
_exptl_crystal_density_diffrn 2.626
_exptl_crystal_description 'Block'
_diffrn_ambient_temperature 293
_refine_special_details
;
O12 disordered by symmetry over two configurations with occupancy 0.50; 
O2,O4,W2 disordered by symmetry over two configurations with occupancy 0.50.
;
#These two values have been output from a single CSD field.
_refine_ls_R_factor_gt 0.0644
_refine_ls_wR_factor_gt 0.0644
_symmetry_cell_setting hexagonal
_symmetry_space_group_name_H-M 'P 6/m'
_symmetry_Int_Tables_number 175
loop_
_symmetry_equiv_pos_site_id
_symmetry_equiv_pos_as_xyz
1 x,y,z
2 x-y,x,z
3 -y,x-y,z
4 -x,-y,z
5 -x+y,-x,z
6 y,-x+y,z
7 -x,-y,-z
8 -x+y,-x,-z
9 y,-x+y,-z
10 x,y,-z
11 x-y,x,-z
12 -y,x-y,-z
_cell_length_a 18.7938(11)
_cell_length_b 18.7938(11)
_cell_length_c 15.7286(13)
_cell_angle_alpha 90
_cell_angle_beta 90
_cell_angle_gamma 120
_cell_formula_units_Z 1
loop_
_atom_type_symbol
_atom_type_radius_bond
C 0.68
H 0.23
Co 1.26
N 0.68
O 0.68
P 1.05
W 1.62
loop_
_atom_site_label
_atom_site_type_symbol
_atom_site_fract_x
_atom_site_fract_y
_atom_site_fract_z
P1 P 0.00000 0.00000 0.8748(4)
W1 W 0.18383(4) -0.00706(4) 0.88091(5)
W2 W 0.05709(8) -0.06329(8) 0.68787(12)
O1 O 0.0924(16) -0.1072(16) 0.6121(13)
O2 O 0.0447(15) -0.0518(15) 0.6442(18)
O3 O 0.1852(11) -0.0115(13) 1.00000
O4 O 0.1507(6) -0.0043(8) 0.7644(9)
O5 O 0.00000 0.00000 0.7778(18)
O6 O 0.2684(8) -0.0149(8) 0.8557(8)
O7 O 0.0884(13) 0.0432(13) 0.8988(12)
O8 O 0.1066(10) -0.1179(10) 0.8791(10)
Co1 Co 0.48020(15) 0.19772(15) 0.50000
Co2 Co 0.50000 0.50000 0.50000
O9 O 0.4073(7) 0.2544(7) 0.50000
O10 O 0.4187(8) 0.3779(7) 0.50000
O11 O 0.5744(9) 0.3270(8) 0.50000
O12 O 0.366(1) 0.0936(9) 0.50000
O13 O 0.5850(7) 0.4498(8) 0.50000
N1 N 0.4840(8) 0.2022(8) 0.3629(8)
N2 N 0.50000 0.50000 0.6358(9)
C1 C 0.4223(13) 0.2036(15) 0.0447(13)
H1 H 0.37750 0.20040 0.07340
C2 C 0.5474(11) 0.2029(14) 0.0414(10)
H2 H 0.58900 0.19930 0.06970
C3 C 0.50000 0.50000 0.8143(13)
C4 C 0.4182(11) 0.1840(11) 0.3188(11)
H3 H 0.36990 0.16800 0.34890
C5 C 0.4394(8) 0.4348(9) 0.6813(8)
H4 H 0.39750 0.38980 0.65330
C6 C 0.4878(9) 0.2073(9) 0.1846(10)
C7 C 0.5515(10) 0.2196(11) 0.3204(10)
H5 H 0.59850 0.23270 0.35150
C8 C 0.5440(9) 0.3740(9) 0.50000
C9 C 0.4139(11) 0.1865(12) 0.230(1)
H6 H 0.36570 0.17530 0.20210
C10 C 0.4865(10) 0.2083(10) 0.0908(10)
C11 C 0.50000 0.50000 0.9113(15)
C12 C 0.5566(10) 0.2195(10) 0.2321(9)
H7 H 0.60400 0.22720 0.20520
C13 C 0.5557(11) 0.5695(10) 0.9569(10)
H8 H 0.59330 0.61650 0.92780
C14 C 0.4423(11) 0.4378(10) 0.7697(9)
H9 H 0.40120 0.39350 0.79940
C15 C 0.4508(11) 0.3333(11) 0.50000
O7A O 0.0452(13) 0.0884(13) 0.8988(12)
O7B O -0.0432(13) 0.0452(13) 0.8988(12)
O7C O -0.0884(13) -0.0432(13) 0.8988(12)
O7D O -0.0452(13) -0.0884(13) 0.8988(12)
O7E O 0.0432(13) -0.0452(13) 0.8988(12)
W1A W 0.19089(4) 0.18383(4) 0.88091(5)
W2A W 0.12038(8) 0.05709(8) 0.68787(12)
O1A O 0.1996(16) 0.0924(16) 0.6121(13)
O2A O 0.0965(15) 0.0447(15) 0.6442(18)
O3A O 0.1967(11) 0.1852(13) 1.00000
O4A O 0.1550(6) 0.1507(8) 0.7644(9)
O6A O 0.2833(8) 0.2684(8) 0.8557(8)
O8A O 0.2245(10) 0.1066(10) 0.8791(10)
W1B W 0.00706(4) 0.19089(4) 0.88091(5)
W2B W 0.06329(8) 0.12038(8) 0.68787(12)
O1B O 0.1072(16) 0.1996(16) 0.6121(13)
O2B O 0.0518(15) 0.0965(15) 0.6442(18)
O3B O 0.0115(11) 0.1967(13) 1.00000
O4B O 0.0043(6) 0.1550(8) 0.7644(9)
O6B O 0.0149(8) 0.2833(8) 0.8557(8)
O8B O 0.1179(10) 0.2245(10) 0.8791(10)
W1C W -0.18383(4) 0.00706(4) 0.88091(5)
W2C W -0.05709(8) 0.06329(8) 0.68787(12)
O1C O -0.0924(16) 0.1072(16) 0.6121(13)
O2C O -0.0447(15) 0.0518(15) 0.6442(18)
O3C O -0.1852(11) 0.0115(13) 1.00000
O4C O -0.1507(6) 0.0043(8) 0.7644(9)
O6C O -0.2684(8) 0.0149(8) 0.8557(8)
O8C O -0.1066(10) 0.1179(10) 0.8791(10)
W1D W -0.19089(4) -0.18383(4) 0.88091(5)
W2D W -0.12038(8) -0.05709(8) 0.68787(12)
O1D O -0.1996(16) -0.0924(16) 0.6121(13)
O2D O -0.0965(15) -0.0447(15) 0.6442(18)
O3D O -0.1967(11) -0.1852(13) 1.00000
O4D O -0.1550(6) -0.1507(8) 0.7644(9)
O6D O -0.2833(8) -0.2684(8) 0.8557(8)
O8D O -0.2245(10) -0.1066(10) 0.8791(10)
W1E W -0.00706(4) -0.19089(4) 0.88091(5)
W2E W -0.06329(8) -0.12038(8) 0.68787(12)
O1E O -0.1072(16) -0.1996(16) 0.6121(13)
O2E O -0.0518(15) -0.0965(15) 0.6442(18)
O3E O -0.0115(11) -0.1967(13) 1.00000
O4E O -0.0043(6) -0.1550(8) 0.7644(9)
O6E O -0.0149(8) -0.2833(8) 0.8557(8)
O8E O -0.1179(10) -0.2245(10) 0.8791(10)
P1F P 0.00000 0.00000 1.1252(4)
W1F W -0.18383(4) 0.00706(4) 1.11909(5)
W2F W -0.05709(8) 0.06329(8) 1.31213(12)
O1F O -0.0924(16) 0.1072(16) 1.3879(13)
O2F O -0.0447(15) 0.0518(15) 1.3558(18)
O4F O -0.1507(6) 0.0043(8) 1.2356(9)
O5F O 0.00000 0.00000 1.2222(18)
O6F O -0.2684(8) 0.0149(8) 1.1443(8)
O7F O -0.0884(13) -0.0432(13) 1.1012(12)
O8F O -0.1066(10) 0.1179(10) 1.1209(10)
O7G O -0.0452(13) -0.0884(13) 1.1012(12)
O7H O 0.0432(13) -0.0452(13) 1.1012(12)
O7I O 0.0884(13) 0.0432(13) 1.1012(12)
O7J O 0.0452(13) 0.0884(13) 1.1012(12)
O7K O -0.0432(13) 0.0452(13) 1.1012(12)
W1G W -0.19089(4) -0.18383(4) 1.11909(5)
W2G W -0.12038(8) -0.05709(8) 1.31213(12)
O1G O -0.1996(16) -0.0924(16) 1.3879(13)
O2G O -0.0965(15) -0.0447(15) 1.3558(18)
O4G O -0.1550(6) -0.1507(8) 1.2356(9)
O6G O -0.2833(8) -0.2684(8) 1.1443(8)
O8G O -0.2245(10) -0.1066(10) 1.1209(10)
W1H W -0.00706(4) -0.19089(4) 1.11909(5)
W2H W -0.06329(8) -0.12038(8) 1.31213(12)
O1H O -0.1072(16) -0.1996(16) 1.3879(13)
O2H O -0.0518(15) -0.0965(15) 1.3558(18)
O4H O -0.0043(6) -0.1550(8) 1.2356(9)
O6H O -0.0149(8) -0.2833(8) 1.1443(8)
O8H O -0.1179(10) -0.2245(10) 1.1209(10)
W1I W 0.18383(4) -0.00706(4) 1.11909(5)
W2I W 0.05709(8) -0.06329(8) 1.31213(12)
O1I O 0.0924(16) -0.1072(16) 1.3879(13)
O2I O 0.0447(15) -0.0518(15) 1.3558(18)
O4I O 0.1507(6) -0.0043(8) 1.2356(9)
O6I O 0.2684(8) -0.0149(8) 1.1443(8)
O8I O 0.1066(10) -0.1179(10) 1.1209(10)
W1J W 0.19089(4) 0.18383(4) 1.11909(5)
W2J W 0.12038(8) 0.05709(8) 1.31213(12)
O1J O 0.1996(16) 0.0924(16) 1.3879(13)
O2J O 0.0965(15) 0.0447(15) 1.3558(18)
O4J O 0.1550(6) 0.1507(8) 1.2356(9)
O6J O 0.2833(8) 0.2684(8) 1.1443(8)
O8J O 0.2245(10) 0.1066(10) 1.1209(10)
W1K W 0.00706(4) 0.19089(4) 1.11909(5)
W2K W 0.06329(8) 0.12038(8) 1.31213(12)
O1K O 0.1072(16) 0.1996(16) 1.3879(13)
O2K O 0.0518(15) 0.0965(15) 1.3558(18)
O4K O 0.0043(6) 0.1550(8) 1.2356(9)
O6K O 0.0149(8) 0.2833(8) 1.1443(8)
O8K O 0.1179(10) 0.2245(10) 1.1209(10)
N1I N 0.4840(8) 0.2022(8) -0.3629(8)
C1I C 0.4223(13) 0.2036(15) -0.0447(13)
H1I H 0.37750 0.20040 -0.07340
C2I C 0.5474(11) 0.2029(14) -0.0414(10)
H2I H 0.58900 0.19930 -0.06970
C4I C 0.4182(11) 0.1840(11) -0.3188(11)
H3I H 0.36990 0.16800 -0.34890
C6I C 0.4878(9) 0.2073(9) -0.1846(10)
C7I C 0.5515(10) 0.2196(11) -0.3204(10)
H5I H 0.59850 0.23270 -0.35150
C9I C 0.4139(11) 0.1865(12) -0.230(1)
H6I H 0.36570 0.17530 -0.20210
C10I C 0.4865(10) 0.2083(10) -0.0908(10)
C12I C 0.5566(10) 0.2195(10) -0.2321(9)
H7I H 0.60400 0.22720 -0.20520
C5C C 0.5606(8) 0.5652(9) 0.6813(8)
H4C H 0.60250 0.61020 0.65330
C13C C 0.4443(11) 0.4305(10) 0.9569(10)
H8C H 0.40670 0.38350 0.92780
C14C C 0.5577(11) 0.5622(10) 0.7697(9)
H9C H 0.59880 0.60650 0.79940
N2F N 0.50000 0.50000 1.3642(9)
C3F C 0.50000 0.50000 1.1857(13)
C5F C 0.5606(8) 0.5652(9) 1.3187(8)
H4F H 0.60250 0.61020 1.34670
C11F C 0.50000 0.50000 1.0887(15)
C13F C 0.4443(11) 0.4305(10) 1.0431(10)
H8F H 0.40670 0.38350 1.07220
C14F C 0.5577(11) 0.5622(10) 1.2303(9)
H9F H 0.59880 0.60650 1.20060
C5I C 0.4394(8) 0.4348(9) 1.3187(8)
H4I H 0.39750 0.38980 1.34670
C13I C 0.5557(11) 0.5695(10) 1.0431(10)
H8I H 0.59330 0.61650 1.07220
C14I C 0.4423(11) 0.4378(10) 1.2303(9)
H9I H 0.40120 0.39350 1.20060
Co1B Co 0.80228(15) 0.28248(15) 0.50000
O9B O 0.7456(7) 0.1529(7) 0.50000
O10B O 0.6221(8) 0.0408(7) 0.50000
O11B O 0.6730(9) 0.2474(8) 0.50000
O12B O 0.9064(10) 0.2724(9) 0.50000
O13B O 0.5502(7) 0.1352(8) 0.50000
N1B N 0.7978(8) 0.2818(8) 0.3629(8)
C1B C 0.7964(13) 0.2187(15) 0.0447(13)
H1B H 0.79960 0.17710 0.07340
C2B C 0.7971(11) 0.3445(14) 0.0414(10)
H2B H 0.80070 0.38970 0.06970
C4B C 0.8160(11) 0.2342(11) 0.3188(11)
H3B H 0.83200 0.20190 0.34890
C6B C 0.7927(9) 0.2805(9) 0.1846(10)
C7B C 0.7804(10) 0.3319(11) 0.3204(10)
H5B H 0.76730 0.36580 0.35150
C8B C 0.6260(9) 0.1700(9) 0.50000
C9B C 0.8135(11) 0.2274(12) 0.230(1)
H6B H 0.82470 0.19040 0.20210
C10B C 0.7917(10) 0.2782(10) 0.0908(10)
C12B C 0.7805(10) 0.3371(10) 0.2321(9)
H7B H 0.77280 0.37680 0.20520
C15B C 0.6667(11) 0.1175(11) 0.50000
N1K N 0.7978(8) 0.2818(8) -0.3629(8)
C1K C 0.7964(13) 0.2187(15) -0.0447(13)
H1K H 0.79960 0.17710 -0.07340
C2K C 0.7971(11) 0.3445(14) -0.0414(10)
H2K H 0.80070 0.38970 -0.06970
C4K C 0.8160(11) 0.2342(11) -0.3188(11)
H3K H 0.83200 0.20190 -0.34890
C6K C 0.7927(9) 0.2805(9) -0.1846(10)
C7K C 0.7804(10) 0.3319(11) -0.3204(10)
H5K H 0.76730 0.36580 -0.35150
C9K C 0.8135(11) 0.2274(12) -0.230(1)
H6K H 0.82470 0.19040 -0.20210
C10K C 0.7917(10) 0.2782(10) -0.0908(10)
C12K C 0.7805(10) 0.3371(10) -0.2321(9)
H7K H 0.77280 0.37680 -0.20520
Co1* Co 0.48020(15) 0.19772(15) -0.50000
Co1B* Co 0.80228(15) 0.28248(15) -0.50000
Co1D Co 0.71752(15) 0.51980(15) 0.50000
Co2* Co 0.50000 0.50000 1.50000
Co2B Co 0.50000 0.00000 0.50000
O10C O 0.5813(8) 0.6221(7) 0.50000
O13C O 0.4150(7) 0.5502(8) 0.50000
O13D O 0.8648(7) 0.4150(8) 0.50000
N1I* N 0.4840(8) 0.2022(8) 0.6371(8)
N1K* N 0.7978(8) 0.2818(8) 0.6371(8)
N2F* N 0.50000 0.50000 0.3642(9)
#END
