
#######################################################################
#
#                 Cambridge Crystallographic Data Centre
#                                CCDC
#
#######################################################################
#
# If this CIF has been generated from an entry in the Cambridge
# Structural Database, then it will include bibliographic, chemical,
# crystal, experimental, refinement or atomic coordinate data resulting
# from the CCDC's data processing and validation procedures.
#
#######################################################################

data_CSD_CIF_HOCXEF
_audit_creation_date 2019-03-26
_audit_creation_method CSD-ConQuest-V1
_database_code_CSD HOCXEF
_database_code_depnum_ccdc_archive 'CCDC 1814036'
_chemical_formula_sum 'C16 H20 N3 O11 Tb1'
_chemical_formula_moiety
;
C2 H8 N1 1+,n(C14 H6 N2 O8 Tb1 1-),3(H2 O1)
;
_journal_coden_Cambridge 208
_journal_volume 272
_journal_year 2019
_journal_page_first 55
_journal_name_full 'J.Solid State Chem. '
loop_
_publ_author_name
"Li Tan"
"Tianen Fan"
"Tifeng Xia"
"Yuanjing Cui"
"Yu Yang"
"Guodong Qian"
_chemical_name_systematic
;
catena-[dimethylammonium 
(\m-1-((3,5-dicarboxylatophenyl)methyl)-1H-pyrazole-3,5-dicarboxylato)-terbium
(iii) trihydrate]
;
_chemical_name_common
;
ZJU-158-Tb
;
_cell_volume   2016.792
_exptl_crystal_description 'block'
_diffrn_ambient_temperature 296
#These two values have been output from a single CSD field.
_refine_ls_R_factor_gt 0.0291
_refine_ls_wR_factor_gt 0.0291
_symmetry_cell_setting monoclinic
_symmetry_space_group_name_H-M 'P 21/c'
_symmetry_Int_Tables_number 14
loop_
_symmetry_equiv_pos_site_id
_symmetry_equiv_pos_as_xyz
1 x,y,z
2 -x,1/2+y,1/2-z
3 -x,-y,-z
4 x,-1/2-y,-1/2+z
_cell_length_a 9.2390(2)
_cell_length_b 10.1754(3)
_cell_length_c 21.7961(5)
_cell_angle_alpha 90
_cell_angle_beta 100.182(1)
_cell_angle_gamma 90
_cell_formula_units_Z 4
loop_
_atom_type_symbol
_atom_type_radius_bond
C 0.68
H 0.23
N 0.68
O 0.68
Tb 1.94
loop_
_atom_site_label
_atom_site_type_symbol
_atom_site_fract_x
_atom_site_fract_y
_atom_site_fract_z
Tb1 Tb 0.38302(2) 0.37299(2) 0.43972(2)
C1 C 0.2549(4) 1.1277(4) 0.44337(18)
O1 O -0.4967(3) 0.5322(3) 0.38723(14)
O2 O -0.2605(3) 0.8915(3) 0.17369(13)
C2 C 0.0233(4) 0.7647(4) 0.44137(19)
H1 H -0.02780 0.68570 0.44060
C3 C 0.1765(4) 0.7650(4) 0.45806(19)
N1 N -0.2642(4) 0.8584(3) 0.29910(16)
C4 C 0.2549(4) 0.8822(4) 0.4606(2)
H2 H 0.35630 0.88330 0.47360
C5 C -0.3985(4) 0.6179(4) 0.40244(19)
C6 C 0.2588(4) 0.6364(4) 0.46743(19)
O3 O -0.4451(3) 0.7526(3) 0.15020(13)
O4 O 0.1782(3) 1.2282(3) 0.42335(14)
O5 O -0.3326(3) 0.6420(3) 0.45670(13)
O6 O 0.1985(3) 0.5365(3) 0.43960(14)
O7 O 0.3901(3) 1.1372(2) 0.46279(15)
O8 O 0.3870(3) 0.6319(3) 0.49953(15)
C7 C -0.0537(4) 0.8807(4) 0.42599(18)
N2 N -0.2784(3) 0.8079(3) 0.35479(15)
C8 C -0.3615(4) 0.6963(4) 0.34886(19)
C9 C -0.3487(4) 0.8092(4) 0.19007(19)
C10 C 0.0243(4) 0.9960(4) 0.42654(18)
H3 H -0.02610 1.07400 0.41560
C11 C 0.1769(4) 0.9987(4) 0.44308(18)
C12 C -0.3395(4) 0.7777(4) 0.25666(19)
C13 C -0.4031(5) 0.6754(4) 0.2858(2)
H4 H -0.46140 0.60750 0.26660
C14 C -0.2201(4) 0.8848(4) 0.41034(19)
H5 H -0.26030 0.85120 0.44540
H6 H -0.25180 0.97540 0.40370
Tb1* Tb -0.61698(2) 0.37299(2) 0.43972(2)
Tb1** Tb 0.38302(2) 1.37299(2) 0.43972(2)
Tb1A Tb -0.38302(2) 0.87299(2) 0.06028(2)
Tb1B Tb -0.38302(2) 0.62701(2) 0.56028(2)
Tb1B* Tb 0.61698(2) 0.62701(2) 0.56028(2)
O1* O 0.5033(3) 0.5322(3) 0.38723(14)
O2A O 0.2605(3) 0.3915(3) 0.32631(13)
O3A O 0.4451(3) 0.2526(3) 0.34980(13)
O4* O 0.1782(3) 0.2282(3) 0.42335(14)
O5B O 0.3326(3) 0.3580(3) 0.54330(13)
O7* O 0.3901(3) 0.1372(2) 0.46279(15)
O8B O 0.6130(3) 0.3681(3) 0.50047(15)
#END
