
#######################################################################
#
#                 Cambridge Crystallographic Data Centre
#                                CCDC
#
#######################################################################
#
# If this CIF has been generated from an entry in the Cambridge
# Structural Database, then it will include bibliographic, chemical,
# crystal, experimental, refinement or atomic coordinate data resulting
# from the CCDC's data processing and validation procedures.
#
#######################################################################

data_CSD_CIF_HODMEV
_audit_creation_date 2019-03-27
_audit_creation_method CSD-ConQuest-V1
_database_code_CSD HODMEV
_database_code_depnum_ccdc_archive 'CCDC 1868913'
_chemical_formula_sum 'C50 H140 N20 Ni15 O106 P2 W18'
_chemical_formula_moiety
;
(C44 H76 N14 Ni12 O86 P2 W18 6-)n,3(C2 H16 N2 Ni1 O4 2+),8(H2 O1)
;
_journal_coden_Cambridge 1350
_journal_volume 21
_journal_year 2019
_journal_page_first 2641
_journal_name_full 'CrystEngComm '
loop_
_publ_author_name
"Zhong Zhang"
"Yue-Lin Wang"
"Hai-Lou Li"
"Ke-Ning Sun"
"Guo-Yu Yang"
_chemical_name_systematic
;
catena-[tris(tetra-aqua-(ethane-1,2-diamine)-nickel(ii)) 
bis(\m-phosphato)-tris(\m-benzene-1,3-dicarboxylato)-bis(\m-2-amino-2-(oxidome
thyl)propane-1,3-diolato)-dotetracontakis(\m-oxido)-hexakis(ethane-1,2-diamine
)-octadecaoxo-dodeca-nickel(ii)-octadeca-tungsten(vi) octahydrate]
;
_cell_volume  23538.690
_exptl_crystal_density_diffrn 2.897
_diffrn_ambient_temperature 296
_refine_special_details
;
Disordered solvent molecules were not modelled and the disordered density was 
taken into account using the SQUEEZE/PLATON procedure.
;
#These two values have been output from a single CSD field.
_refine_ls_R_factor_gt 0.0712
_refine_ls_wR_factor_gt 0.0712
_symmetry_cell_setting rhombohedral
_symmetry_space_group_name_H-M 'R -3'
_symmetry_Int_Tables_number 148
loop_
_symmetry_equiv_pos_site_id
_symmetry_equiv_pos_as_xyz
1 x,y,z
2 -y,x-y,z
3 -x+y,-x,z
4 2/3+x,1/3+y,1/3+z
5 2/3-y,1/3+x-y,1/3+z
6 2/3-x+y,1/3-x,1/3+z
7 1/3+x,2/3+y,2/3+z
8 1/3-y,2/3+x-y,2/3+z
9 1/3-x+y,2/3-x,2/3+z
10 -x,-y,-z
11 y,-x+y,-z
12 x-y,x,-z
13 -2/3-x,-1/3-y,-1/3-z
14 -2/3+y,-1/3-x+y,-1/3-z
15 -2/3+x-y,-1/3+x,-1/3-z
16 -1/3-x,-2/3-y,-2/3-z
17 -1/3+y,-2/3-x+y,-2/3-z
18 -1/3+x-y,-2/3+x,-2/3-z
_cell_length_a 21.5089(16)
_cell_length_b 21.5089(16)
_cell_length_c 58.751(5)
_cell_angle_alpha 90
_cell_angle_beta 90
_cell_angle_gamma 120
_cell_formula_units_Z 6
loop_
_atom_type_symbol
_atom_type_radius_bond
C 0.68
H 0.23
N 0.68
Ni 1.24
O 0.68
P 1.05
W 1.62
loop_
_atom_site_label
_atom_site_type_symbol
_atom_site_fract_x
_atom_site_fract_y
_atom_site_fract_z
Ni1 Ni 0.91708(11) 1.00209(11) 0.67462(4)
Ni2 Ni 0.83218(12) 0.84391(12) 0.67866(5)
Ni3 Ni 0.50150(12) 0.67830(12) 0.76053(4)
Ni4 Ni 0.33464(11) 0.58359(11) 0.76483(4)
P1 P 1.00000 1.00000 0.62769(12)
P2 P 0.33333 0.66667 0.81161(11)
W1 W 0.52289(4) 0.76691(4) 0.81323(2)
W2 W 0.90579(4) 1.09697(4) 0.62736(2)
W3 W 0.42776(4) 0.56964(4) 0.81219(2)
W4 W 0.80987(4) 0.91354(4) 0.62642(2)
W5 W 0.33679(5) 0.56871(5) 0.86111(2)
W6 W 0.90296(5) 1.00545(5) 0.57853(2)
C1 C 0.7453(9) 0.7057(11) 0.7015(3)
C2 C 0.7224(13) 0.6932(10) 0.6768(3)
C3 C 0.6054(17) 0.6305(14) 0.7634(5)
C4 C 0.5773(11) 0.6144(19) 0.7392(5)
C5 C 0.7848(11) 0.9406(11) 0.7003(4)
C6 C 0.7229(10) 0.9441(10) 0.7099(4)
C7 C 0.6643(10) 0.8839(10) 0.7184(3)
H1 H 0.66390 0.84046 0.71825
C8 C 0.6057(10) 0.8861(10) 0.7273(4)
C9 C 0.6045(10) 0.9488(10) 0.7271(3)
H2 H 0.56422 0.94994 0.73232
C10 C 0.6646(10) 1.0121(11) 0.7190(4)
H3 H 0.66482 1.05542 0.71922
C11 C 0.7233(11) 1.0089(11) 0.7108(4)
H4 H 0.76344 1.05071 0.70574
C12 C 0.5462(10) 0.820(1) 0.7382(4)
C13 C 0.9332(11) 0.9314(10) 0.7156(5)
C14 C 1.00000 1.00000 0.7232(6)
C15 C 0.2645(15) 0.6014(16) 0.7245(7)
C16 C 0.33333 0.66667 0.7163(8)
N1 N 0.8204(8) 0.7647(8) 0.7012(3)
N2 N 0.7375(10) 0.7608(9) 0.6658(3)
N3 N 0.5969(10) 0.6889(10) 0.7730(4)
N4 N 0.5033(10) 0.6018(10) 0.7395(3)
N5 N 1.00000 1.00000 0.7482(6)
N6 N 0.33333 0.66667 0.6913(8)
O1 O 0.8430(6) 0.9222(6) 0.6555(2)
O2 O 0.9287(6) 1.0900(6) 0.6568(2)
O3 O 0.8766(7) 1.1574(7) 0.6287(3)
O4 O 0.8185(7) 1.0071(7) 0.6291(3)
O5 O 0.8931(8) 1.0767(8) 0.5941(2)
O6 O 0.8188(8) 0.9334(8) 0.5938(3)
O7 O 0.9335(9) 1.0028(7) 0.6187(2)
O8 O 1.00000 1.00000 0.6541(3)
O9 O 1.0025(9) 1.0695(9) 0.5753(3)
O10 O 0.8737(11) 1.0079(11) 0.5518(4)
O11 O 0.8410(7) 0.8460(7) 0.6199(3)
O12 O 0.7181(7) 0.8573(7) 0.6292(3)
O13 O 0.9230(7) 0.9234(7) 0.6922(2)
O14 O 0.7757(8) 0.8770(7) 0.6988(3)
O15 O 0.8386(7) 0.9969(6) 0.6945(2)
O16 O 0.4933(7) 0.8243(7) 0.7447(3)
O17 O 0.5568(7) 0.7675(7) 0.7402(3)
O18 O 0.4910(6) 0.7450(6) 0.7838(2)
O19 O 0.6136(7) 0.8003(8) 0.8114(2)
O20 O 0.5139(7) 0.7798(7) 0.8456(2)
O21 O 0.4913(7) 0.6694(7) 0.8200(3)
O22 O 0.4212(6) 0.5931(6) 0.7828(2)
O23 O 0.3362(7) 0.6003(6) 0.8203(2)
O24 O 0.33333 0.66667 0.7858(3)
O25 O 0.4085(7) 0.5581(7) 0.8456(2)
O26 O 0.4029(8) 0.6693(8) 0.8644(2)
O27 O 0.3381(9) 0.5379(10) 0.8883(3)
O28 O 0.2565(7) 0.5899(7) 0.7473(2)
O29 O 0.3366(8) 0.4828(7) 0.8111(2)
O30 O 0.4871(8) 0.5386(8) 0.8110(3)
Ni5 Ni 0.5927(2) 0.5804(3) 0.87244(7)
C17 C 0.459(2) 0.4414(17) 0.8820(5)
C18 C 0.4688(15) 0.4862(18) 0.9031(6)
N7 N 0.492(2) 0.4915(19) 0.8628(6)
N8 N 0.5466(15) 0.5376(16) 0.9044(6)
O31 O 0.5458(13) 0.6431(13) 0.8712(4)
O32 O 0.6235(15) 0.5964(12) 0.8380(4)
O33 O 0.6937(17) 0.6729(18) 0.8826(4)
O34 O 0.650(2) 0.522(2) 0.8735(6)
O35 O 0.6976(10) 0.7334(10) 0.8188(4)
W1A W 0.23309(4) 0.75598(4) 0.81323(2)
W3A W 0.43036(4) 0.85812(4) 0.81219(2)
W5A W 0.43129(5) 0.76808(5) 0.86111(2)
O18A O 0.2550(6) 0.7460(6) 0.7838(2)
O19A O 0.1997(7) 0.8133(8) 0.8114(2)
O20A O 0.2202(7) 0.7341(7) 0.8456(2)
O21A O 0.3306(7) 0.8219(7) 0.8200(3)
O22A O 0.4069(6) 0.8281(6) 0.7828(2)
O23A O 0.3997(7) 0.7359(6) 0.8203(2)
O25A O 0.4419(7) 0.8504(7) 0.8456(2)
O26A O 0.3307(8) 0.7336(8) 0.8644(2)
O27A O 0.4621(9) 0.8002(10) 0.8883(3)
O29A O 0.5172(8) 0.8538(7) 0.8111(2)
O30A O 0.4614(8) 0.9485(8) 0.8110(3)
W1B W 0.24402(4) 0.47711(4) 0.81323(2)
W3B W 0.14188(4) 0.57224(4) 0.81219(2)
W5B W 0.23192(5) 0.66321(5) 0.86111(2)
O18B O 0.2540(6) 0.5090(6) 0.7838(2)
O19B O 0.1867(7) 0.3864(8) 0.8114(2)
O20B O 0.2659(7) 0.4861(7) 0.8456(2)
O21B O 0.1781(7) 0.5087(7) 0.8200(3)
O22B O 0.1719(6) 0.5788(6) 0.7828(2)
O23B O 0.2641(7) 0.6638(6) 0.8203(2)
O25B O 0.1496(7) 0.5915(7) 0.8456(2)
O26B O 0.2664(8) 0.5971(8) 0.8644(2)
O27B O 0.1998(9) 0.6619(10) 0.8883(3)
O29B O 0.1462(8) 0.6634(7) 0.8111(2)
O30B O 0.0515(8) 0.5129(8) 0.8110(3)
W2A W 0.90303(4) 0.80882(4) 0.62736(2)
W4A W 1.08646(4) 0.89633(4) 0.62642(2)
W6A W 0.99455(5) 0.89751(5) 0.57853(2)
O1A O 1.0778(6) 0.9208(6) 0.6555(2)
O2A O 0.9100(6) 0.8387(6) 0.6568(2)
O3A O 0.8426(7) 0.7192(7) 0.6287(3)
O4A O 0.9929(7) 0.8114(7) 0.6291(3)
O5A O 0.9233(8) 0.8164(8) 0.5941(2)
O6A O 1.0666(8) 0.8854(8) 0.5938(3)
O9A O 0.9305(9) 0.9330(9) 0.5753(3)
O10A O 0.9921(11) 0.8658(11) 0.5518(4)
O11A O 1.1540(7) 0.9950(7) 0.6199(3)
O12A O 1.1427(7) 0.8608(7) 0.6292(3)
O7A O 0.9972(9) 0.9307(7) 0.6187(2)
W2B W 1.19118(4) 1.09421(4) 0.62736(2)
W4B W 1.10367(4) 1.19013(4) 0.62642(2)
W6B W 1.10249(5) 1.09704(5) 0.57853(2)
O1B O 1.0792(6) 1.1570(6) 0.6555(2)
O2B O 1.1613(6) 1.0713(6) 0.6568(2)
O3B O 1.2808(7) 1.1234(7) 0.6287(3)
O4B O 1.1886(7) 1.1815(7) 0.6291(3)
O5B O 1.1836(8) 1.1069(8) 0.5941(2)
O6B O 1.1146(8) 1.1812(8) 0.5938(3)
O9B O 1.0670(9) 0.9975(9) 0.5753(3)
O10B O 1.1342(11) 1.1263(11) 0.5518(4)
O11B O 1.0050(7) 1.1590(7) 0.6199(3)
O12B O 1.1392(7) 1.2819(7) 0.6292(3)
O7B O 1.0693(9) 1.0665(7) 0.6187(2)
C13A C 1.0686(11) 1.0018(10) 0.7156(5)
O13A O 1.0766(7) 0.9996(7) 0.6922(2)
C13B C 0.9982(11) 1.0668(10) 0.7156(5)
O13B O 1.0004(7) 1.0770(7) 0.6922(2)
C15A C 0.3986(15) 0.6631(16) 0.7245(7)
O28A O 0.4101(7) 0.6666(7) 0.7473(2)
C15B C 0.3369(15) 0.7355(16) 0.7245(7)
O28B O 0.3334(7) 0.7435(7) 0.7473(2)
Ni1A Ni -0.00209(11) 0.91499(11) 0.67462(4)
Ni2A Ni 0.15609(12) 0.98827(12) 0.67866(5)
Ni3A Ni 0.32170(12) 0.82320(12) 0.76053(4)
Ni4A Ni 0.41641(11) 0.75105(11) 0.76483(4)
C1A C 0.2943(9) 1.0396(11) 0.7015(3)
C2A C 0.3068(13) 1.0292(10) 0.6768(3)
C3A C 0.3695(17) 0.9749(14) 0.7634(5)
C4A C 0.3856(11) 0.9629(19) 0.7392(5)
C5A C 0.0594(11) 0.8442(11) 0.7003(4)
C6A C 0.0559(10) 0.7788(10) 0.7099(4)
C7A C 0.1161(10) 0.7804(10) 0.7184(3)
H1A H 0.15954 0.82343 0.71825
C8A C 0.1139(10) 0.7196(10) 0.7273(4)
C9A C 0.0512(10) 0.6557(10) 0.7271(3)
H2A H 0.05006 0.61428 0.73232
C10A C -0.0121(10) 0.6525(11) 0.7190(4)
H3A H -0.05542 0.60940 0.71922
C11A C -0.0089(11) 0.7144(11) 0.7108(4)
H4A H -0.05071 0.71273 0.70574
C12A C 0.180(1) 0.7262(10) 0.7382(4)
N1A N 0.2353(8) 1.0557(8) 0.7012(3)
N2A N 0.2392(10) 0.9767(9) 0.6658(3)
N3A N 0.3111(10) 0.908(1) 0.7730(4)
N4A N 0.3982(10) 0.9015(10) 0.7395(3)
O14A O 0.1230(8) 0.8987(7) 0.6988(3)
O15A O 0.0031(7) 0.8417(6) 0.6945(2)
O16A O 0.1757(7) 0.6690(7) 0.7447(3)
O17A O 0.2325(7) 0.7893(7) 0.7402(3)
Ni1B Ni 0.08501(11) 0.08292(11) 0.67462(4)
Ni2B Ni 0.01173(12) 0.16782(12) 0.67866(5)
Ni3B Ni 0.17680(12) 0.49850(12) 0.76053(4)
Ni4B Ni 0.24895(11) 0.66536(11) 0.76483(4)
C1B C -0.0396(9) 0.2547(11) 0.7015(3)
C2B C -0.0292(13) 0.2776(10) 0.6768(3)
C3B C 0.0251(17) 0.3946(14) 0.7634(5)
C4B C 0.0371(11) 0.4227(19) 0.7392(5)
C5B C 0.1558(11) 0.2152(11) 0.7003(4)
C6B C 0.2212(10) 0.2771(10) 0.7099(4)
C7B C 0.2196(10) 0.3357(10) 0.7184(3)
H1B H 0.17657 0.33610 0.71825
C8B C 0.2804(10) 0.3943(10) 0.7273(4)
C9B C 0.3443(10) 0.3955(10) 0.7271(3)
H2B H 0.38572 0.43578 0.73232
C10B C 0.3475(10) 0.3354(11) 0.7190(4)
H3B H 0.39060 0.33518 0.71922
C11B C 0.2856(11) 0.2767(11) 0.7108(4)
H4B H 0.28727 0.23656 0.70574
C12B C 0.2738(10) 0.4538(10) 0.7382(4)
N1B N -0.0557(8) 0.1796(8) 0.7012(3)
N2B N 0.0233(10) 0.2625(9) 0.6658(3)
N3B N 0.092(1) 0.4031(10) 0.7730(4)
N4B N 0.0985(10) 0.4967(10) 0.7395(3)
O14B O 0.1013(8) 0.2243(7) 0.6988(3)
O15B O 0.1583(7) 0.1614(6) 0.6945(2)
O16B O 0.3310(7) 0.5067(7) 0.7447(3)
O17B O 0.2107(7) 0.4432(7) 0.7402(3)
Ni1A* Ni 0.99791(11) 0.91499(11) 0.67462(4)
Ni1B* Ni 1.08501(11) 1.08292(11) 0.67462(4)
Ni2A* Ni 1.15609(12) 0.98827(12) 0.67866(5)
Ni2B* Ni 1.01173(12) 1.16782(12) 0.67866(5)
O1A* O 0.0778(6) 0.9208(6) 0.6555(2)
O1B* O 0.0792(6) 0.1570(6) 0.6555(2)
O2* O -0.0713(6) 0.0900(6) 0.6568(2)
O2A* O -0.0900(6) 0.8387(6) 0.6568(2)
O2B* O 0.1613(6) 0.0713(6) 0.6568(2)
O2B** O 0.1613(6) 1.0713(6) 0.6568(2)
O8* O 0.00000 0.00000 0.6541(3)
O8** O 0.00000 1.00000 0.6541(3)
O13* O -0.0770(7) 0.9234(7) 0.6922(2)
O13A* O 0.0766(7) -0.0004(7) 0.6922(2)
O13A** O 0.0766(7) 0.9996(7) 0.6922(2)
O13B* O 0.0004(7) 0.0770(7) 0.6922(2)
#END
