
#######################################################################
#
#                 Cambridge Crystallographic Data Centre
#                                CCDC
#
#######################################################################
#
# If this CIF has been generated from an entry in the Cambridge
# Structural Database, then it will include bibliographic, chemical,
# crystal, experimental, refinement or atomic coordinate data resulting
# from the CCDC's data processing and validation procedures.
#
#######################################################################

data_CSD_CIF_HOGJUK
_audit_creation_date 2014-04-14
_audit_creation_method CSD-ConQuest-V1
_database_code_CSD HOGJUK
_database_code_depnum_ccdc_archive 'CCDC 981441'
_chemical_formula_sum 'C18 H40 Cr3 Mn2 N5 O46'
_chemical_formula_moiety
;
(C18 Cr3 Mn2 O36 5-)n,5n(H4 N1 1+),10n(H2 O1)
;
_journal_coden_Cambridge 182
_journal_volume 50
_journal_year 2014
_journal_page_first 5629
_journal_name_full 'Chem.Commun. '
loop_
_publ_author_name
"C.Maxim"
"S.Ferlay"
"H.Tokoro"
"Shin-Ichi Ohkoshi"
"C.Train"
_chemical_name_systematic
;
catena-(pentakis(Ammonium) 
pentakis(\m~2~-oxalato-O,O',O'',O''')-tetrakis(\m~2~-oxalato-O,O',O'')-tri-chr
omium-di-manganese decahydrate)
;
_cell_volume   5099.020
_exptl_crystal_colour 'violet'
_exptl_crystal_density_diffrn 1.731
_exptl_crystal_description 'needle'
_diffrn_ambient_temperature 173
_refine_special_details
;
The SQUEEZE/PLATON program was used to model some disordered cations and 
water molecules.
;
#These two values have been output from a single CSD field.
_refine_ls_R_factor_gt 0.0732
_refine_ls_wR_factor_gt 0.0732
_symmetry_cell_setting monoclinic
_symmetry_space_group_name_H-M 'C 2/c'
_symmetry_Int_Tables_number 15
loop_
_symmetry_equiv_pos_site_id
_symmetry_equiv_pos_as_xyz
1 x,y,z
2 -x,y,1/2-z
3 1/2+x,1/2+y,z
4 1/2-x,1/2+y,1/2-z
5 -x,-y,-z
6 x,-y,-1/2+z
7 -1/2-x,-1/2-y,-z
8 -1/2+x,-1/2-y,-1/2+z
_cell_length_a 8.8345(11)
_cell_length_b 35.591(4)
_cell_length_c 16.246(2)
_cell_angle_alpha 90
_cell_angle_beta 93.437(6)
_cell_angle_gamma 90
_cell_formula_units_Z 4
loop_
_atom_type_symbol
_atom_type_radius_bond
C 0.68
Cr 1.39
Mn 1.61
N 0.68
O 0.68
loop_
_atom_site_label
_atom_site_type_symbol
_atom_site_fract_x
_atom_site_fract_y
_atom_site_fract_z
N1 N 0.00000 0.0401(5) 0.75000
C1 C 0.7858(8) 0.2391(2) 0.2930(4)
C2 C 0.3295(9) 0.1242(2) 0.3099(4)
C3 C 0.4104(8) 0.14231(19) 0.3867(4)
C4 C 0.5008(8) 0.02214(17) 0.3602(4)
C5 C 0.3458(8) 0.00271(17) 0.3652(4)
C6 C 0.2707(7) 0.06728(17) 0.5998(4)
C7 C 0.1171(8) 0.0800(2) 0.5582(5)
C8 C 0.9580(7) 0.36598(17) 0.2905(4)
C9 C 0.7202(9) 0.25833(19) 0.2126(4)
Cr1 Cr 0.31644(11) 0.07284(3) 0.43526(6)
Cr2 Cr 1.00000 0.29117(4) 0.25000
Mn1 Mn 1.00000 0.44948(4) 0.25000
Mn2 Mn 0.50000 0.19466(4) 0.25000
O1 O 0.9141(6) 0.25227(14) 0.3212(3)
O2 O 0.7128(6) 0.21379(13) 0.3231(3)
O3 O 0.7991(6) 0.28591(13) 0.1877(3)
O4 O 0.9351(6) 0.33273(12) 0.3203(3)
O5 O 0.4710(7) 0.17323(13) 0.3783(3)
O6 O 0.3285(7) 0.14141(15) 0.2436(3)
O7 O 0.4038(6) 0.12339(12) 0.4534(3)
O8 O 0.2630(5) 0.09273(13) 0.3239(3)
O9 O 0.5118(5) 0.05419(12) 0.3979(3)
O10 O 0.2461(5) 0.02196(12) 0.4028(3)
O11 O 0.1205(5) 0.08567(13) 0.4804(3)
O12 O 0.3728(5) 0.05957(12) 0.5501(3)
O13 O 0.3232(6) -0.02820(12) 0.3335(3)
O14 O 0.5991(5) 0.00686(14) 0.3226(3)
O15 O 0.9274(5) 0.39604(12) 0.3220(3)
O16 O 0.2833(5) 0.06594(13) 0.6761(3)
O17 O 0.0053(6) 0.0849(2) 0.5982(3)
O18 O 0.6022(6) 0.24659(14) 0.1811(3)
C8A C 1.0420(7) 0.36598(17) 0.2095(4)
O4A O 1.0649(6) 0.33273(12) 0.1797(3)
O15A O 1.0726(5) 0.39604(12) 0.1780(3)
C1A C 0.2142(8) 0.2391(2) 0.2070(4)
C2A C 0.6705(9) 0.1242(2) 0.1901(4)
C3A C 0.5896(8) 0.14231(19) 0.1133(4)
C4A C 0.4992(8) 0.02214(17) 0.1398(4)
C5A C 0.6542(8) 0.00271(17) 0.1348(4)
C6A C 0.7293(7) 0.06728(17) -0.0998(4)
C7A C 0.8829(8) 0.0800(2) -0.0582(5)
C9A C 0.2798(9) 0.25833(19) 0.2874(4)
Cr1A Cr 0.68356(11) 0.07284(3) 0.06474(6)
O1A O 0.0859(6) 0.25227(14) 0.1788(3)
O2A O 0.2872(6) 0.21379(13) 0.1769(3)
O3A O 0.2009(6) 0.28591(13) 0.3123(3)
O5A O 0.5290(7) 0.17323(13) 0.1217(3)
O6A O 0.6715(7) 0.14141(15) 0.2564(3)
O7A O 0.5962(6) 0.12339(12) 0.0466(3)
O8A O 0.7370(5) 0.09273(13) 0.1761(3)
O9A O 0.4882(5) 0.05419(12) 0.1021(3)
O10A O 0.7539(5) 0.02196(12) 0.0972(3)
O11A O 0.8795(5) 0.08567(13) 0.0196(3)
O12A O 0.6272(5) 0.05957(12) -0.0501(3)
O13A O 0.6768(6) -0.02820(12) 0.1665(3)
O14A O 0.4009(5) 0.00686(14) 0.1774(3)
O16A O 0.7167(5) 0.06594(13) -0.1761(3)
O17A O 0.9947(6) 0.0849(2) -0.0982(3)
O18A O 0.3978(6) 0.24659(14) 0.3189(3)
Cr2* Cr 0.00000 0.29117(4) 0.25000
Mn1B Mn 0.50000 -0.05052(4) 0.25000
Mn1F Mn 0.50000 0.05052(4) -0.25000
Mn1F* Mn 0.50000 0.05052(4) 0.75000
O1A* O 1.0859(6) 0.25227(14) 0.1788(3)
O3A* O 1.2009(6) 0.28591(13) 0.3123(3)
O13B O 0.8232(6) 0.47180(12) 0.3335(3)
O13C O 1.1768(6) 0.47180(12) 0.1665(3)
O16F O 1.2167(5) 0.43406(13) 0.3239(3)
O16G O 0.7833(5) 0.43406(13) 0.1761(3)
#END
