
#######################################################################
#
#                 Cambridge Crystallographic Data Centre
#                                CCDC
#
#######################################################################
#
# If this CIF has been generated from an entry in the Cambridge
# Structural Database, then it will include bibliographic, chemical,
# crystal, experimental, refinement or atomic coordinate data resulting
# from the CCDC's data processing and validation procedures.
#
#######################################################################

data_CSD_CIF_HOGQEB
_audit_creation_date 2014-08-28
_audit_creation_method CSD-ConQuest-V1
_database_code_CSD HOGQEB
_database_code_depnum_ccdc_archive 'CCDC 1003791'
_chemical_formula_sum 'C24 H22 N2 O16 Sm2'
_chemical_formula_moiety
;
(C20 H6 O16 Sm2 2-)n,2n(C2 H8 N1 1+)
;
_journal_coden_Cambridge 1350
_journal_volume 16
_journal_year 2014
_journal_page_first 9191
_journal_name_full 'CrystEngComm '
loop_
_publ_author_name
"Liming Fan"
"Weiliu Fan"
"Weikuo Song"
"Guangzeng Liu"
"Xiutang Zhang"
"Xian Zhao"
_chemical_name_systematic
;
catena-(bis(Dimethylammonium) 
(\m~8~-biphenyl-3,3',5,5'-tetracarboxylato)-bis(\m~2~-oxalato)-di-samarium)
;
_cell_volume   2724.226
_exptl_crystal_colour 'colorless'
_exptl_crystal_density_diffrn 2.183
_exptl_crystal_description 'block'
_diffrn_ambient_temperature 296
#These two values have been output from a single CSD field.
_refine_ls_R_factor_gt 0.0282
_refine_ls_wR_factor_gt 0.0282
_symmetry_cell_setting orthorhombic
_symmetry_space_group_name_H-M 'P n a 21'
_symmetry_Int_Tables_number 33
loop_
_symmetry_equiv_pos_site_id
_symmetry_equiv_pos_as_xyz
1 x,y,z
2 -x,-y,1/2+z
3 1/2+x,1/2-y,z
4 1/2-x,1/2+y,1/2+z
_cell_length_a 19.116(7)
_cell_length_b 15.714(6)
_cell_length_c 9.069(4)
_cell_angle_alpha 90
_cell_angle_beta 90
_cell_angle_gamma 90
_cell_formula_units_Z 4
loop_
_atom_type_symbol
_atom_type_radius_bond
C 0.68
H 0.23
N 0.68
O 0.68
Sm 1.98
loop_
_atom_site_label
_atom_site_type_symbol
_atom_site_fract_x
_atom_site_fract_y
_atom_site_fract_z
C1 C 0.0141(4) 0.1542(4) 0.3562(7)
C2 C 0.0000(4) 0.1522(4) 0.1859(8)
C3 C -0.1581(3) 0.0119(4) 0.5774(8)
C4 C -0.1560(3) -0.0414(4) 0.4341(8)
C5 C -0.1505(4) 0.3474(5) 0.1447(8)
C6 C -0.1133(3) 0.4211(4) 0.0690(7)
C7 C -0.1526(3) 0.4839(4) 0.0026(9)
H1 H -0.20110 0.48030 0.00370
C8 C -0.1204(3) 0.5524(4) -0.0659(7)
C9 C -0.0475(3) 0.5562(4) -0.0654(7)
H2 H -0.02560 0.60190 -0.11130
C10 C -0.0062(3) 0.4938(4) 0.0018(7)
C11 C -0.0418(3) 0.4259(4) 0.0673(7)
H3 H -0.01600 0.38250 0.11100
C12 C -0.1617(3) 0.6240(5) -0.1351(7)
C13 C 0.0707(3) 0.5002(4) 0.0048(7)
C14 C 0.1041(3) 0.5787(4) -0.0088(7)
H4 H 0.07710 0.62760 -0.01850
C15 C 0.1766(3) 0.5856(4) -0.0082(7)
C16 C 0.2175(3) 0.5135(4) 0.0101(8)
H5 H 0.26600 0.51760 0.01180
C17 C 0.1849(3) 0.4349(4) 0.0259(7)
C18 C 0.1129(3) 0.4291(4) 0.0212(7)
H6 H 0.09200 0.37580 0.02940
C19 C 0.2285(4) 0.3576(4) 0.0526(7)
C20 C 0.2119(4) 0.6689(4) -0.0323(7)
Sm1 Sm 0.167056(15) 0.179398(18) 0.20644(4)
Sm2 Sm -0.153796(15) 0.152858(19) 0.31565(3)
O1 O 0.0768(2) 0.1499(3) 0.3951(5)
O2 O 0.0491(3) 0.1767(3) 0.1056(5)
O3 O -0.0584(2) 0.1254(3) 0.1489(5)
O4 O -0.0389(3) 0.1600(3) 0.4361(6)
O5 O -0.1593(2) 0.0906(3) 0.5636(5)
O6 O -0.1583(2) -0.0272(3) 0.6982(7)
O7 O -0.1462(2) -0.0016(3) 0.3190(7)
O8 O -0.1638(2) -0.1191(3) 0.4484(5)
O9 O -0.1144(2) 0.2865(3) 0.1903(5)
O10 O -0.2156(3) 0.3527(3) 0.1573(6)
O11 O -0.2265(2) 0.6175(3) -0.1395(5)
O12 O -0.1273(2) 0.6880(2) -0.1797(6)
O13 O 0.1752(2) 0.7345(3) -0.0220(5)
O14 O 0.2764(2) 0.6691(3) -0.0617(5)
O15 O 0.2927(2) 0.3664(3) 0.0798(5)
O16 O 0.1977(2) 0.2875(3) 0.0468(5)
N1 N 0.9052(3) 0.1190(4) 0.8539(6)
H7 H 0.89930 0.11060 0.95130
H8 H 0.87030 0.09210 0.80650
C21 C 0.9731(4) 0.0812(5) 0.808(1)
H9 H 0.98130 0.09340 0.70580
H10 H 0.97160 0.02070 0.82230
H11 H 1.01010 0.10500 0.86640
C22 C 0.9008(5) 0.2127(6) 0.8220(11)
H12 H 0.90640 0.22210 0.71800
H13 H 0.93710 0.24200 0.87460
H14 H 0.85600 0.23390 0.85290
N2 N 0.1456(4) 0.2244(5) 0.6923(8)
H15 H 0.15050 0.19610 0.60670
H16 H 0.14830 0.18620 0.76610
C23 C 0.2037(5) 0.2866(7) 0.7075(12)
H17 H 0.21590 0.30850 0.61200
H18 H 0.24360 0.25900 0.75030
H19 H 0.18910 0.33270 0.77000
C24 C 0.0767(4) 0.2646(6) 0.6956(13)
H20 H 0.07750 0.31530 0.63660
H21 H 0.06490 0.27900 0.79540
H22 H 0.04250 0.22590 0.65690
Sm1A Sm -0.167056(15) -0.179398(18) 0.70644(4)
Sm1A* Sm -0.167056(15) 0.820602(18) -0.29356(4)
Sm1B Sm -0.332944(15) 0.320602(18) 0.20644(4)
Sm1C Sm 0.332944(15) 0.679398(18) -0.29356(4)
Sm2A Sm 0.153796(15) 0.847142(19) -0.18435(3)
Sm2B Sm 0.346204(15) 0.347142(19) 0.31565(3)
Sm2C Sm -0.346204(15) 0.652858(19) -0.18435(3)
O6A O 0.1583(2) 0.0272(3) 0.1982(7)
O8A O 0.1638(2) 0.1191(3) -0.0516(5)
O10B O 0.2844(3) 0.1473(3) 0.1573(6)
O11C O -0.2735(2) 0.1175(3) 0.3605(5)
O12A O 0.1273(2) 0.3120(2) 0.3203(6)
O13A O -0.1752(2) 0.2655(3) 0.4780(5)
O14C O 0.2236(2) 0.1691(3) 0.4383(5)
O15B O -0.2073(2) 0.1336(3) 0.0798(5)
#END
