
#######################################################################
#
#                 Cambridge Crystallographic Data Centre
#                                CCDC
#
#######################################################################
#
# If this CIF has been generated from an entry in the Cambridge
# Structural Database, then it will include bibliographic, chemical,
# crystal, experimental, refinement or atomic coordinate data resulting
# from the CCDC's data processing and validation procedures.
#
#######################################################################

data_CSD_CIF_HOGQAX
_audit_creation_date 2014-08-28
_audit_creation_method CSD-ConQuest-V1
_database_code_CSD HOGQAX
_database_code_depnum_ccdc_archive 'CCDC 1003790'
_chemical_formula_sum 'C24 H22 N2 O16 Yb2'
_chemical_formula_moiety
;
(C20 H6 O16 Yb2 2-)n,2n(C2 H8 N1 1+)
;
_journal_coden_Cambridge 1350
_journal_volume 16
_journal_year 2014
_journal_page_first 9191
_journal_name_full 'CrystEngComm '
loop_
_publ_author_name
"Liming Fan"
"Weiliu Fan"
"Weikuo Song"
"Guangzeng Liu"
"Xiutang Zhang"
"Xian Zhao"
_chemical_name_systematic
;
catena-(bis(Dimethylammonium) 
(\m~8~-biphenyl-3,3',5,5'-tetracarboxylato)-bis(\m~2~-oxalato)-di-ytterbium)
;
_cell_volume   2618.172
_exptl_crystal_colour 'colorless'
_exptl_crystal_density_diffrn 2.386
_exptl_crystal_description 'block'
_diffrn_ambient_temperature 296
#These two values have been output from a single CSD field.
_refine_ls_R_factor_gt 0.0376
_refine_ls_wR_factor_gt 0.0376
_symmetry_cell_setting orthorhombic
_symmetry_space_group_name_H-M 'P n a 21'
_symmetry_Int_Tables_number 33
loop_
_symmetry_equiv_pos_site_id
_symmetry_equiv_pos_as_xyz
1 x,y,z
2 -x,-y,1/2+z
3 1/2+x,1/2-y,z
4 1/2-x,1/2+y,1/2+z
_cell_length_a 18.825(14)
_cell_length_b 15.373(11)
_cell_length_c 9.047(7)
_cell_angle_alpha 90
_cell_angle_beta 90
_cell_angle_gamma 90
_cell_formula_units_Z 4
loop_
_atom_type_symbol
_atom_type_radius_bond
C 0.68
H 0.23
N 0.68
O 0.68
Yb 1.87
loop_
_atom_site_label
_atom_site_type_symbol
_atom_site_fract_x
_atom_site_fract_y
_atom_site_fract_z
C1 C 0.9864(6) 0.8443(6) 0.6461(13)
C2 C 1.0006(6) 0.8449(5) 0.8121(15)
C3 C 1.1566(6) 0.9875(7) 0.4221(14)
C4 C 1.1538(6) 1.0414(7) 0.5656(15)
C5 C 1.1550(6) 0.6525(7) 0.8543(13)
C6 C 1.1172(6) 0.5789(6) 0.9336(13)
C7 C 1.1549(6) 0.5150(8) 1.0002(17)
H1 H 1.20430 0.51710 0.99760
C8 C 1.1223(6) 0.4469(6) 1.0716(13)
C9 C 1.0486(5) 0.4432(6) 1.0709(13)
H2 H 1.02610 0.39710 1.11810
C10 C 1.0076(5) 0.5063(7) 1.0016(13)
C11 C 1.0430(5) 0.5756(6) 0.9348(12)
H3 H 1.01700 0.62010 0.89080
C12 C 1.1643(6) 0.3727(7) 1.1386(13)
C13 C 0.9286(5) 0.4996(6) 0.9989(14)
C14 C 0.8948(6) 0.4207(7) 1.0112(13)
H4 H 0.92210 0.37070 1.02300
C15 C 0.8203(6) 0.4129(6) 1.0064(13)
C16 C 0.7803(5) 0.4873(6) 0.9912(15)
H5 H 0.73100 0.48350 0.99290
C17 C 0.8120(5) 0.5665(7) 0.9737(13)
C18 C 0.8854(6) 0.5732(7) 0.9799(13)
H6 H 0.90650 0.62760 0.97130
C19 C 0.7692(6) 0.6467(7) 0.9402(13)
C20 C 0.7865(6) 0.3296(7) 1.0367(13)
Yb1 Yb 0.83464(2) 0.82224(3) 0.79565(6)
Yb2 Yb 1.15271(2) 0.84772(3) 0.68251(5)
O1 O 0.9225(4) 0.8508(4) 0.6036(9)
O2 O 0.9496(4) 0.8215(5) 0.8945(10)
O3 O 1.0605(4) 0.8715(5) 0.8505(8)
O4 O 1.0408(4) 0.8372(5) 0.5642(10)
O5 O 1.1586(4) 0.9070(4) 0.4373(9)
O6 O 1.1560(3) 1.0287(4) 0.3022(12)
O7 O 1.1452(4) 0.9991(4) 0.6846(13)
O8 O 1.1613(4) 1.1212(4) 0.5543(9)
O9 O 1.1194(4) 0.7144(4) 0.8055(11)
O10 O 1.2215(4) 0.6442(5) 0.8441(9)
O11 O 1.2300(4) 0.3798(4) 1.1417(8)
O12 O 1.1291(4) 0.3089(4) 1.1852(11)
O13 O 0.8219(4) 0.2624(4) 1.0297(8)
O14 O 0.7206(4) 0.3299(4) 1.0711(9)
O15 O 0.7055(4) 0.6363(4) 0.9086(9)
O16 O 0.8012(4) 0.7168(4) 0.9463(9)
N1 N 0.0951(5) 0.8760(6) 0.1465(10)
H7 H 0.10130 0.88450 0.04900
H8 H 0.13040 0.90390 0.19380
C21 C 0.0264(6) 0.9163(7) 0.1908(19)
H9 H -0.01200 0.88590 0.14370
H10 H 0.02580 0.97620 0.16110
H11 H 0.02110 0.91260 0.29610
C22 C 0.1012(6) 0.7827(7) 0.1773(19)
H12 H 0.06390 0.75200 0.12730
H13 H 0.09740 0.77300 0.28190
H14 H 0.14640 0.76200 0.14300
N2 N 0.8581(5) 0.7758(6) 0.3119(15)
H15 H 0.85350 0.80360 0.39900
H16 H 0.85780 0.81640 0.24010
C23 C 0.7976(7) 0.7191(9) 0.2916(19)
H17 H 0.80420 0.68480 0.20400
H18 H 0.75530 0.75350 0.28160
H19 H 0.79310 0.68140 0.37560
C24 C 0.9266(7) 0.7312(8) 0.309(2)
H20 H 0.93760 0.71420 0.21000
H21 H 0.92430 0.68050 0.37110
H22 H 0.96280 0.76960 0.34560
Yb1A Yb 1.16536(2) 0.17776(3) 1.29565(6)
Yb1A* Yb 1.16536(2) 1.17776(3) 0.29565(6)
Yb1B Yb 1.33464(2) 0.67776(3) 0.79565(6)
Yb1C Yb 0.66536(2) 0.32224(3) 1.29565(6)
Yb2A Yb 0.84729(2) 0.15228(3) 1.18251(5)
Yb2B Yb 0.65271(2) 0.65228(3) 0.68251(5)
Yb2C Yb 1.34729(2) 0.34772(3) 1.18251(5)
O6A O 0.8440(3) 0.9713(4) 0.8022(12)
O8A O 0.8387(4) 0.8788(4) 1.0543(9)
O10B O 0.7215(4) 0.8558(5) 0.8441(9)
O11C O 1.2700(4) 0.8798(4) 0.6417(8)
O12A O 0.8709(4) 0.6911(4) 0.6852(11)
O13A O 1.1781(4) 0.7376(4) 0.5297(8)
O14C O 0.7794(4) 0.8299(4) 0.5711(9)
O15B O 1.2055(4) 0.8637(4) 0.9086(9)
#END
