
#######################################################################
#
#                 Cambridge Crystallographic Data Centre
#                                CCDC
#
#######################################################################
#
# If this CIF has been generated from an entry in the Cambridge
# Structural Database, then it will include bibliographic, chemical,
# crystal, experimental, refinement or atomic coordinate data resulting
# from the CCDC's data processing and validation procedures.
#
#######################################################################

data_CSD_CIF_HOGTED
_audit_creation_date 2009-03-13
_audit_creation_method CSD-ConQuest-V1
_database_code_CSD HOGTED
_database_code_depnum_ccdc_archive 'CCDC 664103'
_chemical_formula_sum 'C20 H73 As4 N15 O46 V16 Zn4'
_chemical_formula_moiety
;
(C12 H39 N9 Zn2 4+)n,n(C8 H26 As4 N6 O42 V16 Zn2 4-),4n(H2 O1)
;
_journal_coden_Cambridge 222
_journal_year 2008
_journal_page_first 5584
_journal_name_full 'Dalton Trans. '
loop_
_publ_author_name
"Shou-Tian Zheng"
"Jie Zhang"
"Bing Li"
"Guo-Yu Yang"
_chemical_name_systematic
;
catena-((\m~2~-diethylenetriamine)-bis(diethylenetriamine)-di-zinc(ii) 
bis(\m~6~-diarsenato)-hexadecakis(\m~3~-oxo)-tetrakis(\m~2~-oxo)-bis(diethylen
etriamine)-dodecaoxo-hexadeca-vanadium(iv)-di-zinc(ii) monohydrate clathrate 
trihydrate)
;
_cell_volume   1864.095
_exptl_crystal_colour 'brown'
_exptl_crystal_density_diffrn 2.348
_exptl_special_details
;
antiferromagnetic

;
_exptl_crystal_description 'prism'
_diffrn_ambient_temperature 294
_refine_special_details
;
An As atom and a V atom are each disordered over two sites with occupancies 
of 0.95:0.05 and 0.93:0.07, respectively. The bridging diethylenetriamine 
ligand is disordered by symmetry with occupancy 0.50. Some of the water 
solvent molecules are also disordered.
;
#These two values have been output from a single CSD field.
_refine_ls_R_factor_gt 0.0417
_refine_ls_wR_factor_gt 0.0417
_symmetry_cell_setting triclinic
_symmetry_space_group_name_H-M 'P -1'
_symmetry_Int_Tables_number 2
loop_
_symmetry_equiv_pos_site_id
_symmetry_equiv_pos_as_xyz
1 x,y,z
2 -x,-y,-z
_cell_length_a 11.702(3)
_cell_length_b 13.109(3)
_cell_length_c 14.515(3)
_cell_angle_alpha 97.488(1)
_cell_angle_beta 110.323(1)
_cell_angle_gamma 111.049(3)
_cell_formula_units_Z 1
loop_
_atom_type_symbol
_atom_type_radius_bond
C 0.68
H 0.23
As 1.21
N 0.68
O 0.68
V 1.25
Zn 1.45
loop_
_atom_site_label
_atom_site_type_symbol
_atom_site_fract_x
_atom_site_fract_y
_atom_site_fract_z
Zn1 Zn 0.06933(6) 0.54001(5) 0.19519(4)
Zn2 Zn 0.36627(6) 0.17070(5) -0.37818(5)
As1 As -0.36692(5) -0.31641(4) -0.02045(4)
As2 As -0.47457(6) -0.14552(6) -0.12751(5)
As3? As -0.4662(12) -0.1931(14) -0.1163(11)
V1 V 0.29300(8) 0.25529(6) 0.22399(6)
V2 V 0.03341(8) 0.14567(6) 0.23975(6)
V3 V -0.24437(8) -0.03698(6) 0.13025(6)
V4 V -0.24800(8) 0.12598(7) 0.00256(6)
V5? V -0.3736(12) 0.0736(11) -0.061(1)
V6 V 0.28329(7) 0.02796(6) 0.24775(6)
V7 V -0.07199(8) -0.16593(6) 0.18651(6)
V8 V 0.10676(7) 0.32000(6) 0.06657(6)
V9 V 0.12550(7) -0.21499(6) 0.13465(6)
O1 O 0.4031(4) 0.0494(3) 0.3577(3)
O2 O -0.3409(4) 0.1871(3) 0.0143(3)
O3 O -0.1022(4) -0.2308(3) 0.2686(3)
O4 O -0.2548(3) -0.1908(3) 0.0822(3)
O5 O -0.4896(3) -0.2730(3) -0.0899(3)
O6 O -0.3327(4) -0.0406(3) 0.1947(3)
O7 O -0.3474(3) -0.0415(3) -0.0132(3)
O8 O 0.1488(3) 0.4568(3) 0.1031(2)
O9 O 0.1996(3) 0.1268(3) 0.2631(3)
O10 O 0.1219(3) 0.2641(3) 0.1834(2)
O11 O 0.4103(4) 0.3610(3) 0.3229(3)
O12 O 0.1227(3) -0.1019(3) 0.2304(2)
O13 O -0.1425(3) 0.1157(3) 0.1339(3)
O14 O -0.2759(3) -0.3009(3) -0.0972(2)
O15 O -0.3662(3) -0.1491(3) -0.1895(3)
O16 O -0.0671(3) -0.0183(3) 0.2208(2)
O17 O -0.0679(3) -0.2701(3) 0.0781(2)
O18 O -0.2768(3) 0.0844(3) -0.1418(2)
O19 O -0.0871(3) 0.2481(3) 0.0086(2)
O20 O 0.0519(4) 0.2127(3) 0.3497(3)
O21 O 0.1725(3) -0.3072(3) 0.1887(3)
N1 N 0.1625(6) 0.4903(5) 0.3192(4)
H1 H 0.17140 0.42740 0.29700
H2 H 0.24550 0.54640 0.36040
N2 N -0.0416(5) 0.5647(4) 0.2836(4)
H3 H -0.04040 0.63510 0.28860
N3 N -0.1217(4) 0.4528(4) 0.0794(3)
H4 H -0.12470 0.47690 0.02360
H5 H -0.14300 0.37770 0.06220
N4 N 0.5274(5) 0.2247(5) -0.2381(4)
H6 H 0.52260 0.16540 -0.21220
H7 H 0.60490 0.25110 -0.24580
N5 N 0.3470(5) 0.3200(4) -0.3103(4)
H8 H 0.28140 0.29710 -0.28740
N6 N 0.3554(6) 0.2468(4) -0.4968(4)
H9 H 0.41740 0.24440 -0.51930
H10 H 0.27300 0.20790 -0.54970
N7 N 0.4069(7) 0.0404(6) -0.4452(5)
H11 H 0.44000 0.06150 -0.49060
H12 H 0.46760 0.02700 -0.39640
N8 N 0.1813(5) 0.0396(4) -0.4109(4)
H13 H 0.16680 0.04630 -0.35320
C1 C 0.0775(8) 0.4660(6) 0.3763(5)
H14 H 0.13020 0.46430 0.44400
H15 H 0.00120 0.39150 0.34040
C2 C 0.0262(8) 0.5560(6) 0.3869(5)
H16 H -0.03710 0.53460 0.41780
H17 H 0.10110 0.62910 0.43060
C3 C -0.1806(6) 0.4762(6) 0.2228(5)
H18 H -0.24180 0.49390 0.24560
H19 H -0.18640 0.40270 0.23180
C4 C -0.2200(6) 0.4710(5) 0.1117(5)
H20 H -0.30930 0.40910 0.07010
H21 H -0.22300 0.54190 0.10170
C5 C 0.5284(7) 0.3152(6) -0.1667(5)
H22 H 0.61950 0.36030 -0.11330
H23 H 0.47020 0.28130 -0.13430
C6 C 0.4800(7) 0.3914(6) -0.2220(5)
H24 H 0.47150 0.44550 -0.17560
H25 H 0.54490 0.43400 -0.24610
C7 C 0.3093(7) 0.3753(5) -0.3902(5)
H26 H 0.33490 0.45470 -0.35860
H27 H 0.21200 0.33770 -0.43090
C8 C 0.3809(7) 0.3681(6) -0.4597(5)
H28 H 0.34700 0.39520 -0.51770
H29 H 0.47740 0.41590 -0.42170
C9 C 0.267(2) -0.0702(18) -0.5010(17)
H30 H 0.21490 -0.06750 -0.56850
H31 H 0.28170 -0.13820 -0.50890
C10 C 0.1902(19) -0.0728(14) -0.4352(13)
H32 H 0.23600 -0.08680 -0.37180
H33 H 0.09970 -0.13470 -0.47120
C11 C 0.0695(6) 0.0435(6) -0.4928(5)
H34 H 0.07830 0.02680 -0.55570
H35 H 0.07390 0.11890 -0.47960
O22 O 0.00000 0.00000 0.00000
O23 O 0.2099(16) -0.1901(13) -0.3453(13)
O24 O 0.6163(15) 0.3145(12) 0.4605(11)
O25? O 0.6430(18) 0.2836(14) 0.5647(13)
O26? O 0.6767(14) 0.3353(12) 0.3998(11)
Zn1A Zn -0.06933(6) -0.54001(5) -0.19519(4)
Zn1* Zn 0.06933(6) -0.45999(5) 0.19519(4)
Zn1A* Zn -0.06933(6) 0.45999(5) -0.19519(4)
Zn2A Zn -0.36627(6) -0.17070(5) -0.62182(5)
As1A As 0.36692(5) 0.31641(4) 0.02045(4)
As2A As 0.47457(6) 0.14552(6) 0.12751(5)
V1A V -0.29300(8) -0.25529(6) -0.22399(6)
V2A V -0.03341(8) -0.14567(6) -0.23975(6)
V3A V 0.24437(8) 0.03698(6) -0.13025(6)
V4A V 0.24800(8) -0.12598(7) -0.00256(6)
V6A V -0.28329(7) -0.02796(6) -0.24775(6)
V7A V 0.07199(8) 0.16593(6) -0.18651(6)
V8A V -0.10676(7) -0.32000(6) -0.06657(6)
V9A V -0.12550(7) 0.21499(6) -0.13465(6)
O1A O -0.4031(4) -0.0494(3) -0.3577(3)
O2A O 0.3409(4) -0.1871(3) -0.0143(3)
O3A O 0.1022(4) 0.2308(3) -0.2686(3)
O4A O 0.2548(3) 0.1908(3) -0.0822(3)
O5A O 0.4896(3) 0.2730(3) 0.0899(3)
O6A O 0.3327(4) 0.0406(3) -0.1947(3)
O7A O 0.3474(3) 0.0415(3) 0.0132(3)
O8A O -0.1488(3) -0.4568(3) -0.1031(2)
O9A O -0.1996(3) -0.1268(3) -0.2631(3)
O10A O -0.1219(3) -0.2641(3) -0.1834(2)
O11A O -0.4103(4) -0.3610(3) -0.3229(3)
O12A O -0.1227(3) 0.1019(3) -0.2304(2)
O13A O 0.1425(3) -0.1157(3) -0.1339(3)
O14A O 0.2759(3) 0.3009(3) 0.0972(2)
O15A O 0.3662(3) 0.1491(3) 0.1895(3)
O16A O 0.0671(3) 0.0183(3) -0.2208(2)
O17A O 0.0679(3) 0.2701(3) -0.0781(2)
O18A O 0.2768(3) -0.0844(3) 0.1418(2)
O19A O 0.0871(3) -0.2481(3) -0.0086(2)
O20A O -0.0519(4) -0.2127(3) -0.3497(3)
O21A O -0.1725(3) 0.3072(3) -0.1887(3)
O21* O 0.1725(3) 0.6928(3) 0.1887(3)
O21A* O -0.1725(3) -0.6928(3) -0.1887(3)
N1A N -0.1625(6) -0.4903(5) -0.3192(4)
H1A H -0.17140 -0.42740 -0.29700
H2A H -0.24550 -0.54640 -0.36040
N2A N 0.0416(5) -0.5647(4) -0.2836(4)
H3A H 0.04040 -0.63510 -0.28860
N3A N 0.1217(4) -0.4528(4) -0.0794(3)
H4A H 0.12470 -0.47690 -0.02360
H5A H 0.14300 -0.37770 -0.06220
N4A N -0.5274(5) -0.2247(5) -0.7619(4)
H6A H -0.52260 -0.16540 -0.78780
H7A H -0.60490 -0.25110 -0.75420
N5A N -0.3470(5) -0.3200(4) -0.6897(4)
H8A H -0.28140 -0.29710 -0.71260
N6A N -0.3554(6) -0.2468(4) -0.5032(4)
H9A H -0.41740 -0.24440 -0.48070
H10A H -0.27300 -0.20790 -0.45030
N7A N -0.4069(7) -0.0404(6) -0.5548(5)
H11A H -0.44000 -0.06150 -0.50940
H12A H -0.46760 -0.02700 -0.60360
N8A N -0.1813(5) -0.0396(4) -0.5891(4)
H13A H -0.16680 -0.04630 -0.64680
C1A C -0.0775(8) -0.4660(6) -0.3763(5)
H14A H -0.13020 -0.46430 -0.44400
H15A H -0.00120 -0.39150 -0.34040
C2A C -0.0262(8) -0.5560(6) -0.3869(5)
H16A H 0.03710 -0.53460 -0.41780
H17A H -0.10110 -0.62910 -0.43060
C3A C 0.1806(6) -0.4762(6) -0.2228(5)
H18A H 0.24180 -0.49390 -0.24560
H19A H 0.18640 -0.40270 -0.23180
C4A C 0.2200(6) -0.4710(5) -0.1117(5)
H20A H 0.30930 -0.40910 -0.07010
H21A H 0.22300 -0.54190 -0.10170
C5A C -0.5284(7) -0.3152(6) -0.8333(5)
H22A H -0.61950 -0.36030 -0.88670
H23A H -0.47020 -0.28130 -0.86570
C6A C -0.4800(7) -0.3914(6) -0.7780(5)
H24A H -0.47150 -0.44550 -0.82440
H25A H -0.54490 -0.43400 -0.75390
C7A C -0.3093(7) -0.3753(5) -0.6098(5)
H26A H -0.33490 -0.45470 -0.64140
H27A H -0.21200 -0.33770 -0.56910
C8A C -0.3809(7) -0.3681(6) -0.5403(5)
H28A H -0.34700 -0.39520 -0.48230
H29A H -0.47740 -0.41590 -0.57830
C9A C -0.267(2) 0.0702(18) -0.4990(17)
H30A H -0.21490 0.06750 -0.43150
H31A H -0.28170 0.13820 -0.49110
C10A C -0.1902(19) 0.0728(14) -0.5648(13)
H32A H -0.23600 0.08680 -0.62820
H33A H -0.09970 0.13470 -0.52880
C11A C -0.0695(6) -0.0435(6) -0.5072(5)
H34A H -0.07830 -0.02680 -0.44430
H35A H -0.07390 -0.11890 -0.52040
#END
