
#######################################################################
#
#                 Cambridge Crystallographic Data Centre
#                                CCDC
#
#######################################################################
#
# If this CIF has been generated from an entry in the Cambridge
# Structural Database, then it will include bibliographic, chemical,
# crystal, experimental, refinement or atomic coordinate data resulting
# from the CCDC's data processing and validation procedures.
#
#######################################################################

data_CSD_CIF_HOKQUW
_audit_creation_date 2019-07-23
_audit_creation_method CSD-ConQuest-V1
_database_code_CSD HOKQUW
_database_code_depnum_ccdc_archive 'CCDC 1889367'
_chemical_formula_sum 'C40 H39 Cu3 N8 O16.5'
_chemical_formula_moiety
;
(C34 H25 Cu3 N6 O16 1-)n,C6 H13 N2 1+,0.5(H2 O1)
;
_journal_coden_Cambridge 1486
_journal_volume 9
_journal_year 2019
_journal_page_first 4347
_journal_name_full 'Cat.Sci.Tech. '
loop_
_publ_author_name
"P.Muthukumar"
"Dohyun Moon"
"S.P.Anthony"
_chemical_name_systematic
;
catena-[1,4-diazabicyclo[2.2.2]octan-1-ium 
bis(\m-pyridine-2,6-dicarboxylato)-(1,4-diazabicyclo[2.2.2]octan-1-ium)-bis(py
ridine-2,6-dicarboxylato)-tri-copper hemihydrate]
;
_cell_volume   4239.260
_exptl_crystal_colour 'blue'
_exptl_crystal_density_diffrn 1.702
_exptl_crystal_description 'block'
_diffrn_ambient_temperature 100
_diffrn_radiation_probe x-ray
_diffrn_source synchrotron
#These two values have been output from a single CSD field.
_refine_ls_R_factor_gt 0.0518
_refine_ls_wR_factor_gt 0.0518
_symmetry_cell_setting monoclinic
_symmetry_space_group_name_H-M 'P 2/c'
_symmetry_Int_Tables_number 13
loop_
_symmetry_equiv_pos_site_id
_symmetry_equiv_pos_as_xyz
1 x,y,z
2 -x,y,1/2-z
3 -x,-y,-z
4 x,-y,-1/2+z
_cell_length_a 16.471(3)
_cell_length_b 13.801(3)
_cell_length_c 18.659(4)
_cell_angle_alpha 90
_cell_angle_beta 91.86(3)
_cell_angle_gamma 90
_cell_formula_units_Z 4
loop_
_atom_type_symbol
_atom_type_radius_bond
C 0.68
H 0.23
Cu 1.32
N 0.68
O 0.68
loop_
_atom_site_label
_atom_site_type_symbol
_atom_site_fract_x
_atom_site_fract_y
_atom_site_fract_z
Cu1 Cu 0.32562(2) 0.15773(2) 0.51219(2)
O1 O 0.38596(13) 0.17882(15) 0.42152(11)
O2 O 0.50985(14) 0.16707(17) 0.37536(12)
O3 O 0.30234(14) 0.12202(18) 0.61312(12)
O4 O 0.36336(17) 0.0649(2) 0.71425(13)
N1 N 0.43278(15) 0.11985(17) 0.54421(13)
C1 C 0.46375(18) 0.1603(2) 0.42505(15)
C2 C 0.49317(17) 0.12846(19) 0.49909(15)
C3 C 0.57254(19) 0.1103(2) 0.52198(16)
H1 H 0.61631 0.11644 0.49037
C4 C 0.5856(2) 0.0826(2) 0.59365(18)
H2 H 0.63921 0.06855 0.61097
C5 C 0.5212(2) 0.0755(2) 0.63981(17)
H3 H 0.53010 0.05794 0.68867
C6 C 0.4442(2) 0.0947(2) 0.61251(16)
C7 C 0.3647(2) 0.0927(2) 0.65140(17)
Cu2 Cu 0.27689(2) 0.54275(3) 0.53564(2)
O5 O 0.23506(13) 0.24311(15) 0.48487(13)
O6 O 0.30193(14) 0.37344(16) 0.52760(14)
O7 O 0.17356(13) 0.67161(14) 0.54798(12)
O8 O 0.07470(15) 0.71266(16) 0.46942(14)
O9 O 0.28239(14) 0.52454(17) 0.64276(13)
O10 O 0.37208(19) 0.5302(2) 0.73508(17)
O11 O 0.30422(17) 0.58933(19) 0.43704(15)
O12 O 0.4031(2) 0.6550(2) 0.37456(19)
N2 N 0.17368(15) 0.48838(17) 0.49571(13)
N3 N 0.38588(17) 0.58407(19) 0.55416(18)
C8 C 0.24214(18) 0.3330(2) 0.49857(17)
C9 C 0.17032(17) 0.39438(19) 0.47582(16)
C10 C 0.10516(19) 0.3588(2) 0.43427(18)
H4 H 0.10270 0.29206 0.42198
C11 C 0.04392(19) 0.4213(2) 0.41094(18)
H5 H -0.00084 0.39816 0.38244
C12 C 0.04943(18) 0.5186(2) 0.43017(17)
H6 H 0.00925 0.56360 0.41389
C13 C 0.11466(18) 0.5487(2) 0.47356(16)
C14 C 0.12067(18) 0.6530(2) 0.49779(16)
C15 C 0.3540(2) 0.5377(2) 0.6716(2)
C16 C 0.4180(2) 0.5680(2) 0.6188(2)
C17 C 0.5015(2) 0.5787(3) 0.6316(3)
H7 H 0.52622 0.56699 0.67745
C18 C 0.5465(2) 0.6075(3) 0.5735(3)
H8 H 0.60358 0.61491 0.58028
C19 C 0.5120(2) 0.6257(3) 0.5062(3)
H9 H 0.54370 0.64654 0.46742
C20 C 0.4291(2) 0.6120(2) 0.4983(2)
C21 C 0.3768(3) 0.6208(3) 0.4302(2)
Cu3 Cu 0.14918(2) 0.80644(2) 0.57516(2)
O13 O 0.04434(13) 0.77871(15) 0.63022(12)
O14 O -0.06819(14) 0.85322(18) 0.66566(14)
O15 O 0.22938(13) 0.87738(14) 0.51254(12)
O16 O 0.25828(13) 1.02589(15) 0.47173(12)
N4 N 0.10202(14) 0.93294(16) 0.57484(13)
N5 N 0.22534(15) 0.81068(18) 0.67816(13)
C22 C -0.00186(18) 0.8532(2) 0.63773(16)
C23 C 0.03174(18) 0.9453(2) 0.60709(16)
C24 C -0.0042(2) 1.0370(2) 0.6077(2)
H10 H -0.05416 1.04737 0.63058
C25 C 0.0349(2) 1.1125(2) 0.5739(2)
H11 H 0.01232 1.17585 0.57467
C26 C 0.10715(19) 1.0962(2) 0.53891(18)
H12 H 0.13328 1.14723 0.51445
C27 C 0.14001(17) 1.00353(19) 0.54065(15)
C28 C 0.21568(17) 0.96823(19) 0.50535(15)
N6 N 0.30904(16) 0.8122(2) 0.79429(14)
H13 H 0.34219 0.81265 0.84015
C29 C 0.31286(18) 0.8090(2) 0.66287(16)
H14 H 0.32620 0.86572 0.63294
H15 H 0.32537 0.74970 0.63555
C30 C 0.36521(19) 0.8113(3) 0.73257(17)
H16 H 0.40085 0.75362 0.73542
H17 H 0.39983 0.86999 0.73386
C31 C 0.20502(19) 0.7256(2) 0.72284(17)
H18 H 0.21441 0.66544 0.69548
H19 H 0.14680 0.72812 0.73433
C32 C 0.2566(2) 0.7238(3) 0.79249(18)
H20 H 0.22115 0.72329 0.83431
H21 H 0.29081 0.66477 0.79437
C33 C 0.20846(18) 0.9003(2) 0.71941(16)
H22 H 0.14965 0.90428 0.72841
H23 H 0.22348 0.95776 0.69093
C34 C 0.25679(19) 0.9008(2) 0.79130(16)
H24 H 0.29098 0.95971 0.79511
H25 H 0.21915 0.90067 0.83160
N7 N 0.2517(3) 0.6684(3) 0.2877(2)
H26 H 0.30526 0.65957 0.31370
N8 N 0.1154(4) 0.6923(6) 0.2200(4)
C35 C 0.2626(3) 0.6937(3) 0.2105(2)
H27 H 0.29694 0.75235 0.20708
H28 H 0.29025 0.63985 0.18606
C36 C 0.1829(4) 0.7115(6) 0.1754(4)
H29 H 0.18033 0.78004 0.15981
H30 H 0.17777 0.67054 0.13199
C37 C 0.2023(5) 0.7438(6) 0.3222(4)
H31 H 0.23133 0.80661 0.32219
H32 H 0.19254 0.72562 0.37254
C38 C 0.1230(6) 0.7523(8) 0.2807(5)
H33 H 0.07841 0.73679 0.31318
H34 H 0.11586 0.82045 0.26521
C39 C 0.2008(3) 0.5751(5) 0.2891(3)
H35 H 0.18795 0.55970 0.33934
H36 H 0.23300 0.52074 0.27027
C40 C 0.1200(5) 0.5846(7) 0.2437(5)
H37 H 0.12056 0.54134 0.20135
H38 H 0.07282 0.56754 0.27272
O17 O 0.00000 0.3430(3) 0.25000
H39 H -0.020(3) 0.3080(18) 0.2819(14)
Cu1* Cu 0.32562(2) 1.15773(2) 0.51219(2)
O16* O 0.25828(13) 0.02589(15) 0.47173(12)
H39A H 0.020(3) 0.3080(18) 0.2181(14)
#END
