
#######################################################################
#
#                 Cambridge Crystallographic Data Centre
#                                CCDC
#
#######################################################################
#
# If this CIF has been generated from an entry in the Cambridge
# Structural Database, then it will include bibliographic, chemical,
# crystal, experimental, refinement or atomic coordinate data resulting
# from the CCDC's data processing and validation procedures.
#
#######################################################################

data_CSD_CIF_HOMRAD
_audit_creation_date 2009-07-03
_audit_creation_method CSD-ConQuest-V1
_database_code_CSD HOMRAD
_database_code_depnum_ccdc_archive 'CCDC 691700'
_chemical_formula_sum 'C24 H40 Cu2 N24 O44 Si1 W12'
_chemical_formula_moiety
;
(C24 H36 Cu2 N24 O2 4+)n,n(O40 Si1 W12 4-),2n(H2 O1)
;
_journal_coden_Cambridge 9
_journal_volume 48
_journal_year 2009
_journal_page_first 100
_journal_name_full 'Inorg.Chem. '
loop_
_publ_author_name
"Ai-xiang Tian"
"Jun Ying"
"Jun Peng"
"Jing-quan Sha"
"Hai-jun Pang"
"Peng-peng Zhang"
"Yuan Chen"
"Min Zhu"
"Zhong-min Su"
_chemical_name_systematic
;
catena-(tetrakis(\m~2~-1,2-bis(1,2,4-Triazol-1-yl)ethane-N,N')-diaqua-di-coppe
r(ii) (\m~12~-silicato)-tetracosakis(\m~2~-oxo)-dodecaoxo-dodeca-tungsten(vi) 
dihydrate)
;
_cell_volume   3219.603
_exptl_crystal_colour 'blue'
_exptl_crystal_density_diffrn 3.839
_exptl_crystal_description 'block'
_diffrn_ambient_temperature 293
_refine_special_details
;
The silicate group is disordered by symmetry.

;
#These two values have been output from a single CSD field.
_refine_ls_R_factor_gt 0.0692
_refine_ls_wR_factor_gt 0.0692
_symmetry_cell_setting monoclinic
_symmetry_space_group_name_H-M 'P 21/n'
_symmetry_Int_Tables_number 14
loop_
_symmetry_equiv_pos_site_id
_symmetry_equiv_pos_as_xyz
1 x,y,z
2 1/2-x,1/2+y,1/2-z
3 -x,-y,-z
4 -1/2+x,-1/2-y,-1/2+z
_cell_length_a 13.460(3)
_cell_length_b 16.745(3)
_cell_length_c 15.169(3)
_cell_angle_alpha 90
_cell_angle_beta 109.66(3)
_cell_angle_gamma 90
_cell_formula_units_Z 2
loop_
_atom_type_symbol
_atom_type_radius_bond
C 0.68
H 0.23
Cu 1.52
N 0.68
O 0.70
Si 1.20
W 1.37
loop_
_atom_site_label
_atom_site_type_symbol
_atom_site_fract_x
_atom_site_fract_y
_atom_site_fract_z
Si1 Si 1.00000 0.50000 0.50000
W1 W 1.17886(5) 0.43471(4) 0.71620(4)
W2 W 0.91113(6) 0.46436(5) 0.68982(5)
W3 W 0.98443(7) 0.30297(5) 0.57545(6)
W4 W 0.81598(6) 0.36594(6) 0.35422(5)
W5 W 0.73016(5) 0.51921(5) 0.47009(6)
W6 W 1.08562(8) 0.33993(6) 0.39505(6)
Cu1 Cu 1.3322(2) 1.49750(11) 1.16007(14)
O1 O 1.4708(14) 1.4683(10) 1.1147(12)
O2 O 0.9757(15) 0.4031(12) 0.4690(13)
O3 O 0.9139(15) 0.5194(12) 0.5540(14)
O4 O 1.1156(15) 0.5043(13) 0.5778(15)
O5 O 0.9832(17) 0.5483(11) 0.4123(14)
O6 O 0.5390(19) 0.6087(14) 0.0594(18)
O7 O 0.9344(15) 0.334(2) 0.3321(13)
O8 O 0.8625(14) 0.303(2) 0.4682(12)
O9 O 1.0673(16) 0.288(2) 0.4971(13)
O10 O 0.791(2) 0.6207(12) 0.5286(14)
O11 O 1.2613(15) 0.4048(14) 0.8198(11)
O12 O 0.7818(19) 0.4721(10) 0.5877(14)
O13 O 1.2644(17) 0.4318(9) 0.6434(14)
O14 O 0.921(2) 0.5774(11) 0.6887(15)
O15 O 0.9798(16) 0.2108(8) 0.6125(16)
O16 O 1.2011(19) 0.5479(9) 0.7270(17)
O17 O 0.7302(17) 0.4232(10) 0.4131(15)
O18 O 1.1273(13) 0.2673(9) 0.3423(11)
O19 O 0.6024(11) 0.5307(12) 0.4534(12)
O20 O 1.1146(12) 0.3403(9) 0.6632(14)
O21 O 0.7283(15) 0.3021(9) 0.2879(10)
O22 O 0.8661(12) 0.4477(13) 0.7779(10)
O23 O 1.0569(12) 0.4565(8) 0.7495(14)
O24 O 0.9151(11) 0.3595(9) 0.6421(12)
C1 C 1.2179(18) 1.6407(15) 1.0539(16)
H1 H 1.19660 1.65940 1.10240
C2 C 1.286(3) 1.5786(14) 0.9723(16)
H2 H 1.32850 1.54320 0.95350
C3 C 1.125(3) 1.745(2) 0.945(2)
H3 H 1.16680 1.79020 0.97700
H4 H 1.06600 1.73940 0.96720
C4 C 1.090(3) 1.759(3) 0.858(3)
H5 H 1.14980 1.77440 0.83840
H6 H 1.06170 1.71020 0.82530
C5 C 1.471(2) 1.3894(16) 1.3013(17)
H7 H 1.53130 1.41590 1.30020
C6 C 1.3203(16) 1.3530(13) 1.2805(16)
H8 H 1.24700 1.35410 1.26000
C7 C 1.570(3) 1.2790(17) 1.429(2)
H9 H 1.55450 1.26820 1.48560
H10 H 1.63530 1.30880 1.44380
C8 C 1.573(2) 1.2126(19) 1.3819(19)
H11 H 1.50270 1.19450 1.34430
H12 H 1.61660 1.21780 1.34310
C9 C 1.6144(17) 1.0658(11) 1.5572(14)
H13 H 1.58700 1.02630 1.58550
C10 C 1.7221(18) 1.1343(14) 1.5192(16)
H14 H 1.78310 1.15630 1.51330
N1 N 1.2793(13) 1.5784(8) 1.0597(10)
N2 N 1.1911(15) 1.6724(11) 0.9712(13)
N3 N 1.229(2) 1.6316(14) 0.9186(14)
N4 N 1.0092(16) 1.8219(8) 0.8248(11)
N5 N 0.9374(17) 1.8336(12) 0.8651(13)
C11 C 0.8761(15) 1.8932(13) 0.8213(13)
H15 H 0.81910 1.91380 0.83540
N6 N 0.9101(12) 1.9183(9) 0.7538(9)
C12 C 0.9924(13) 1.8743(10) 0.756(1)
H16 H 1.03160 1.87920 0.71610
N7 N 1.3771(13) 1.4110(9) 1.2551(11)
N8 N 1.4715(14) 1.3257(12) 1.3501(16)
N9 N 1.3728(12) 1.2973(10) 1.3338(12)
N10 N 1.6257(16) 1.1564(13) 1.4723(17)
N11 N 1.5551(13) 1.1145(11) 1.4971(13)
N12 N 1.7189(11) 1.0755(9) 1.5766(10)
W1B W 0.82114(5) 0.56529(4) 0.28380(4)
W2B W 1.08887(6) 0.53564(5) 0.31018(5)
W3B W 1.01557(7) 0.69703(5) 0.42455(6)
W4B W 1.18402(6) 0.63406(6) 0.64578(5)
W5B W 1.26984(5) 0.48079(5) 0.52991(6)
W6B W 0.91438(8) 0.66007(6) 0.60495(6)
Cu1C Cu 1.8322(2) 2.00250(11) 1.66007(14)
Cu1C* Cu 0.8322(2) 2.00250(11) 0.66007(14)
Cu1C** Cu 1.8322(2) 1.00250(11) 1.66007(14)
Cu1C*** Cu 0.8322(2) 1.00250(11) 0.66007(14)
O1C O 1.9708(14) 2.0317(10) 1.6147(12)
O2B O 1.0243(15) 0.5969(12) 0.5310(13)
O3B O 1.0861(15) 0.4806(12) 0.4460(14)
O4B O 0.8844(15) 0.4957(13) 0.4222(15)
O5B O 1.0168(17) 0.4517(11) 0.5877(14)
O7B O 1.0656(15) 0.666(2) 0.6679(13)
O8B O 1.1375(14) 0.697(2) 0.5318(12)
O9B O 0.9327(16) 0.712(2) 0.5029(13)
O10B O 1.209(2) 0.3793(12) 0.4714(14)
O11B O 0.7387(15) 0.5952(14) 0.1802(11)
O12B O 1.2182(19) 0.5279(10) 0.4123(14)
O13B O 0.7356(17) 0.5682(9) 0.3566(14)
O14B O 1.079(2) 0.4226(11) 0.3113(15)
O15B O 1.0202(16) 0.7892(8) 0.3875(16)
O16B O 0.7989(19) 0.4521(9) 0.2730(17)
O17B O 1.2698(17) 0.5768(10) 0.5869(15)
O18B O 0.8727(13) 0.7327(9) 0.6577(11)
O19B O 1.3976(11) 0.4693(12) 0.5466(12)
O20B O 0.8854(12) 0.6597(9) 0.3368(14)
O21B O 1.2717(15) 0.6979(9) 0.7121(10)
O22B O 1.1339(12) 0.5523(13) 0.2221(10)
O23B O 0.9431(12) 0.5435(8) 0.2505(14)
O24B O 1.0849(11) 0.6405(9) 0.3579(12)
C1C C 1.7179(18) 1.8593(15) 1.5539(16)
H1C H 1.69660 1.84060 1.60240
C2C C 1.786(3) 1.9214(14) 1.4723(16)
H2C H 1.82850 1.95680 1.45350
C3C C 1.625(3) 1.755(2) 1.445(2)
H3C H 1.66680 1.70980 1.47700
H4C H 1.56600 1.76060 1.46720
C4C C 1.590(3) 1.741(3) 1.358(3)
H5C H 1.64980 1.72560 1.33840
H6C H 1.56170 1.78980 1.32530
C5C C 0.971(2) 1.1106(16) 0.8013(17)
H7C H 1.03130 1.08410 0.80020
C6C C 0.8203(16) 1.1470(13) 0.7805(16)
H8C H 0.74700 1.14590 0.76000
C7C C 1.070(3) 1.2210(17) 0.929(2)
H9C H 1.05450 1.23180 0.98560
H10C H 1.13530 1.19120 0.94380
C8C C 1.073(2) 1.2874(19) 0.8819(19)
H11C H 1.00270 1.30550 0.84430
H12C H 1.11660 1.28220 0.84310
C9C C 1.1144(17) 1.4342(11) 1.0572(14)
H13C H 1.08700 1.47370 1.08550
C10C C 1.2221(18) 1.3657(14) 1.0192(16)
H14C H 1.28310 1.34370 1.01330
N1C N 1.7793(13) 1.9216(8) 1.5597(10)
N2C N 1.6911(15) 1.8276(11) 1.4712(13)
N3C N 1.729(2) 1.8684(14) 1.4186(14)
N4C N 1.5092(16) 1.6781(8) 1.3248(11)
N5C N 1.4374(17) 1.6664(12) 1.3651(13)
C11C C 1.3761(15) 1.6068(13) 1.3213(13)
H15C H 1.31910 1.58620 1.33540
N6C N 1.4101(12) 1.5817(9) 1.2538(9)
N6* N 1.9101(12) 1.9183(9) 1.7538(9)
C12C C 1.4924(13) 1.6257(10) 1.256(1)
H16C H 1.53160 1.62080 1.21610
N7C N 0.8771(13) 1.0890(9) 0.7551(11)
N7C* N 1.8771(13) 2.0890(9) 1.7551(11)
N8C N 0.9715(14) 1.1743(12) 0.8501(16)
N9C N 0.8728(12) 1.2027(10) 0.8338(12)
N10C N 1.1257(16) 1.3436(13) 0.9723(17)
N11C N 1.0551(13) 1.3855(11) 0.9971(13)
N12C N 1.2189(11) 1.4245(9) 1.0766(10)
N12* N 1.7189(11) 2.0755(9) 1.5766(10)
#END
