
#######################################################################
#
#                 Cambridge Crystallographic Data Centre
#                                CCDC
#
#######################################################################
#
# If this CIF has been generated from an entry in the Cambridge
# Structural Database, then it will include bibliographic, chemical,
# crystal, experimental, refinement or atomic coordinate data resulting
# from the CCDC's data processing and validation procedures.
#
#######################################################################

data_CSD_CIF_HONSIN
_audit_creation_date 2009-07-03
_audit_creation_method CSD-ConQuest-V1
_database_code_CSD HONSIN
_database_code_depnum_ccdc_archive 'CCDC 662309'
_chemical_formula_sum 'C58 H62 Cu2 N12 O14'
_chemical_formula_moiety
;
(C28 H32 Cu1 N8 O2 2+)n,n(C30 H22 Cu1 N4 O8 2-),4n(H2 O1)
;
_journal_coden_Cambridge 1147
_journal_volume 8
_journal_year 2008
_journal_page_first 4383
_journal_name_full 'Cryst.Growth Des. '
loop_
_publ_author_name
"Jin Yang"
"Jian-Fang Ma"
"Ying-Ying Liu"
"Ji-Cheng Ma"
"S.R.Batten"
_chemical_name_systematic
;
catena-(bis(\m~2~-1,4-bis(Imidazol-1-ylmethyl)benzene-N,N')-diaqua-copper(ii) 
(\m~2~-1,4-bis(imidazol-1-ylmethyl)benzene-N,N')-bis(benzene-1,3-dicarboxylato
-O)-copper(ii) tetrahydrate)
;
_cell_volume   1517.637
_exptl_crystal_colour 'blue'
_exptl_crystal_density_diffrn 1.399
_exptl_crystal_description 'block'
_diffrn_ambient_temperature 293
_refine_special_details
;
A water molecule is disordered equally over two sites.

;
#These two values have been output from a single CSD field.
_refine_ls_R_factor_gt 0.0701
_refine_ls_wR_factor_gt 0.0701
_symmetry_cell_setting triclinic
_symmetry_space_group_name_H-M 'P -1'
_symmetry_Int_Tables_number 2
loop_
_symmetry_equiv_pos_site_id
_symmetry_equiv_pos_as_xyz
1 x,y,z
2 -x,-y,-z
_cell_length_a 8.6401(17)
_cell_length_b 13.569(3)
_cell_length_c 13.734(3)
_cell_angle_alpha 82.65(3)
_cell_angle_beta 71.95(3)
_cell_angle_gamma 89.35(3)
_cell_formula_units_Z 1
loop_
_atom_type_symbol
_atom_type_radius_bond
C 0.68
H 0.23
Cu 1.50
N 0.68
O 0.68
loop_
_atom_site_label
_atom_site_type_symbol
_atom_site_fract_x
_atom_site_fract_y
_atom_site_fract_z
Cu1 Cu 0.00000 1.00000 1.00000
Cu2 Cu 0.00000 1.50000 0.50000
O1 O -0.3727(5) 1.8706(3) 0.8739(3)
O2 O -0.0376(5) 1.6276(3) 0.6578(3)
N1 N 0.0678(5) 1.2852(3) 0.8506(3)
N2 N 0.0779(4) 1.1320(3) 0.9152(3)
N3 N -0.2869(5) 1.1373(3) 1.2440(3)
O3 O -0.5742(5) 1.8097(3) 1.0118(3)
O4 O -0.1796(5) 1.5081(3) 0.6268(3)
N4 N -0.1059(4) 1.0737(2) 1.1197(3)
C1 C -0.3182(5) 1.6842(3) 0.8061(3)
H1 H -0.23550 1.73250 0.77740
C2 C -0.4740(6) 1.0718(4) 1.4139(4)
C3 C -0.0282(6) 1.1381(3) 1.1603(3)
H2 H 0.08330 1.15230 1.13840
C4 C -0.4518(6) 1.7034(4) 0.8880(4)
N5 N 0.0682(8) 1.2191(5) 0.6217(4)
C5 C -0.0179(6) 1.2032(3) 0.8996(3)
H3 H -0.13090 1.19730 0.92020
C6 C -0.3057(6) 1.5953(4) 0.7664(4)
C7 C 0.2281(6) 1.2655(4) 0.8359(4)
H4 H 0.31650 1.30940 0.80430
C8 C -0.1407(7) 1.1776(4) 1.2380(4)
H5 H -0.12120 1.22290 1.27850
C9 C -0.1633(7) 1.5777(4) 0.6774(4)
C10 C -0.4654(6) 1.8025(4) 0.9271(4)
C11 C -0.4453(7) 1.1482(4) 1.3223(4)
H6 H -0.53160 1.14280 1.29170
H7 H -0.44890 1.21370 1.34390
C12 C 0.0066(8) 1.0578(5) 0.5751(4)
N6 N 0.0741(7) 1.3763(5) 0.5607(4)
C13 C -0.4206(7) 1.0882(4) 1.4953(4)
H8 H -0.36640 1.14760 1.49320
C14 C -0.5522(7) 0.9842(5) 1.4193(4)
H9 H -0.58840 0.97230 1.36470
C15 C -0.2620(6) 1.0749(4) 1.1720(4)
H10 H -0.34350 1.03790 1.16080
C16 C -0.0545(9) 0.9636(5) 0.6028(5)
H11 H -0.09160 0.93800 0.67240
C17 C -0.4275(7) 1.5226(4) 0.8135(5)
H12 H -0.41910 1.46100 0.78970
C18 C -0.5693(7) 1.6306(4) 0.9308(5)
H13 H -0.65880 1.64230 0.98610
C19 C 0.0632(9) 1.0964(5) 0.4714(5)
H14 H 0.10620 1.16100 0.45140
C20 C 0.2333(6) 1.1708(4) 0.8759(4)
H15 H 0.32710 1.13690 0.87680
C21 C -0.5595(7) 1.5408(5) 0.8945(5)
H16 H -0.64160 1.49240 0.92450
C22 C 0.0183(10) 1.1189(5) 0.6582(5)
H17 H -0.08730 1.11710 0.71060
H18 H 0.09470 1.08820 0.69090
C23 C -0.0123(9) 1.2986(6) 0.6041(5)
H19 H -0.12530 1.29780 0.62240
C24 C 0.233(1) 1.3461(8) 0.5449(6)
H20 H 0.32570 1.38640 0.51240
C25 C 0.2331(11) 1.2517(8) 0.5829(7)
H21 H 0.32360 1.21420 0.58400
C26 C 0.0021(5) 1.4440(3) 0.9215(3)
C27 C 0.0094(6) 1.3988(3) 1.0170(3)
H22 H 0.01550 1.33000 1.02900
C28 C -0.0075(6) 1.5447(3) 0.9065(3)
H23 H -0.01290 1.57580 0.84330
C29 C 0.0002(7) 1.3825(3) 0.8368(4)
H24 H -0.11110 1.37430 0.83660
H25 H 0.06250 1.41770 0.77040
O5 O 0.2613(4) 0.9860(3) 1.0420(3)
O6 O 0.2833(10) 1.6398(9) 0.5697(6)
O7 O -0.422(1) 1.3610(8) 0.6322(7)
O8 O -0.3506(10) 1.2276(12) 0.7791(7)
O9? O 0.3317(14) 1.5909(12) 0.6323(16)
Cu1* Cu 0.00000 2.00000 1.00000
Cu1** Cu -1.00000 1.00000 2.00000
Cu2* Cu 0.00000 0.50000 0.50000
O1A O 0.3727(5) 1.1294(3) 0.1261(3)
O2A O 0.0376(5) 1.3724(3) 0.3422(3)
N1A N -0.0678(5) 1.7148(3) 1.1494(3)
N2A N -0.0779(4) 1.8680(3) 1.0848(3)
N2A* N -0.0779(4) 0.8680(3) 1.0848(3)
N3A N -0.7131(5) 0.8627(3) 1.7560(3)
O3A O 0.5742(5) 1.1903(3) -0.0118(3)
O4A O 0.1796(5) 1.4919(3) 0.3732(3)
N4A N -0.8941(4) 0.9263(2) 1.8803(3)
N4A* N 0.1059(4) 0.9263(2) 0.8803(3)
C1A C 0.3182(5) 1.3158(3) 0.1939(3)
H1A H 0.23550 1.26750 0.22260
C2A C -0.5260(6) 0.9282(4) 1.5861(4)
C3A C -0.9718(6) 0.8619(3) 1.8397(3)
H2A H -1.08330 0.84770 1.86160
C4A C 0.4518(6) 1.2966(4) 0.1120(4)
N5A N -0.0682(8) 0.7809(5) 0.3783(4)
C5A C 0.0179(6) 1.7968(3) 1.1004(3)
H3A H 0.13090 1.80270 1.07980
C6A C 0.3057(6) 1.4047(4) 0.2336(4)
C7A C -0.2281(6) 1.7345(4) 1.1641(4)
H4A H -0.31650 1.69060 1.19570
C8A C -0.8593(7) 0.8224(4) 1.7620(4)
H5A H -0.87880 0.77710 1.72150
C9A C 0.1633(7) 1.4223(4) 0.3226(4)
C10A C 0.4654(6) 1.1975(4) 0.0729(4)
C11A C -0.5547(7) 0.8518(4) 1.6777(4)
H6A H -0.46840 0.85720 1.70830
H7A H -0.55110 0.78630 1.65610
C12A C -0.0066(8) 0.9422(5) 0.4249(4)
N6A N -0.0741(7) 0.6237(5) 0.4393(4)
N6A* N -0.0741(7) 1.6237(5) 0.4393(4)
C13A C -0.5794(7) 0.9118(4) 1.5047(4)
H8A H -0.63360 0.85240 1.50680
C14A C -0.4478(7) 1.0158(5) 1.5807(4)
H9A H -0.41160 1.02770 1.63530
C15A C -0.7380(6) 0.9251(4) 1.8280(4)
H10A H -0.65650 0.96210 1.83920
C16A C 0.0545(9) 1.0364(5) 0.3972(5)
H11A H 0.09160 1.06200 0.32760
C17A C 0.4275(7) 1.4774(4) 0.1865(5)
H12A H 0.41910 1.53900 0.21030
C18A C 0.5693(7) 1.3694(4) 0.0692(5)
H13A H 0.65880 1.35770 0.01390
C19A C -0.0632(9) 0.9036(5) 0.5286(5)
H14A H -0.10620 0.83900 0.54860
C20A C -0.2333(6) 1.8292(4) 1.1241(4)
H15A H -0.32710 1.86310 1.12320
C21A C 0.5595(7) 1.4592(5) 0.1055(5)
H16A H 0.64160 1.50760 0.07550
C22A C -0.0183(10) 0.8811(5) 0.3418(5)
H17A H 0.08730 0.88290 0.28940
H18A H -0.09470 0.91180 0.30910
C23A C 0.0123(9) 0.7014(6) 0.3959(5)
H19A H 0.12530 0.70220 0.37760
C24A C -0.233(1) 0.6539(8) 0.4551(6)
H20A H -0.32570 0.61360 0.48760
C25A C -0.2331(11) 0.7483(8) 0.4171(7)
H21A H -0.32360 0.78580 0.41600
C26A C -0.0021(5) 1.5560(3) 1.0785(3)
C27A C -0.0094(6) 1.6012(3) 0.9830(3)
H22A H -0.01550 1.67000 0.97100
C28A C 0.0075(6) 1.4553(3) 1.0935(3)
H23A H 0.01290 1.42420 1.15670
C29A C -0.0002(7) 1.6175(3) 1.1632(4)
H24A H 0.11110 1.62570 1.16340
H25A H -0.06250 1.58230 1.22960
O5A O -0.2613(4) 1.0140(3) 0.9580(3)
#END
