
#######################################################################
#
#                 Cambridge Crystallographic Data Centre
#                                CCDC
#
#######################################################################
#
# If this CIF has been generated from an entry in the Cambridge
# Structural Database, then it will include bibliographic, chemical,
# crystal, experimental, refinement or atomic coordinate data resulting
# from the CCDC's data processing and validation procedures.
#
#######################################################################

data_CSD_CIF_HOQBEW
_audit_creation_date 2014-09-04
_audit_creation_method CSD-ConQuest-V1
_database_code_CSD HOQBEW
_database_code_depnum_ccdc_archive 'CCDC 826324'
_chemical_formula_sum 'C23 H41 N1 O6 Sn2'
_chemical_formula_moiety
;
(C15 H21 O6 Sn2 1-)n,n(C8 H20 N1 1+)
;
_journal_coden_Cambridge 1115
_journal_volume 36
_journal_year 2013
_journal_page_first 215
_journal_name_full 'Main Group Met.Chem. '
loop_
_publ_author_name
"D.Ndoye"
"L.Diop"
"K.C.Molloy"
"G.Kociok-Kohn"
_chemical_name_systematic
;
catena-[diisobutylammonium (\m-1,3,5-benzenetricarboxylato)-hexamethyl-di-tin]
;
_cell_volume   2891.475
_exptl_crystal_colour 'colorless'
_exptl_crystal_density_diffrn 1.527
_exptl_crystal_description 'block'
_diffrn_ambient_temperature 150
_refine_special_details
;
C17,C18,C19,C21,C22,C23 and C17A,C18A,C19A,C21A,C22A,C23A disordered over two 
sites with occupancies 0.651:0.349.
;
#These two values have been output from a single CSD field.
_refine_ls_R_factor_gt 0.0307
_refine_ls_wR_factor_gt 0.0307
_symmetry_cell_setting monoclinic
_symmetry_space_group_name_H-M 'P 21/n'
_symmetry_Int_Tables_number 14
loop_
_symmetry_equiv_pos_site_id
_symmetry_equiv_pos_as_xyz
1 x,y,z
2 1/2-x,1/2+y,1/2-z
3 -x,-y,-z
4 -1/2+x,-1/2-y,-1/2+z
_cell_length_a 11.3431(1)
_cell_length_b 20.0231(2)
_cell_length_c 13.0078(2)
_cell_angle_alpha 90
_cell_angle_beta 101.845(1)
_cell_angle_gamma 90
_cell_formula_units_Z 4
loop_
_atom_type_symbol
_atom_type_radius_bond
C 0.68
H 0.23
N 0.68
O 0.68
Sn 1.39
loop_
_atom_site_label
_atom_site_type_symbol
_atom_site_fract_x
_atom_site_fract_y
_atom_site_fract_z
Sn1 Sn -0.247617(12) 0.454706(7) 0.202469(13)
Sn2 Sn 0.429029(13) 0.140396(7) 0.276809(14)
O1 O -0.06792(14) 0.42623(8) 0.17133(15)
O2 O 0.00427(14) 0.52902(8) 0.17202(16)
O3 O 0.39448(14) 0.24424(8) 0.23414(16)
O4 O 0.19659(15) 0.22826(8) 0.20106(16)
O5 O 0.56778(13) 0.46746(8) 0.24683(14)
O6 O 0.44942(15) 0.55438(8) 0.18612(15)
C1 C 0.14145(17) 0.43698(10) 0.18093(17)
C2 C 0.24261(18) 0.47757(10) 0.18716(17)
H1 H 0.23310 0.52470 0.18140
C3 C 0.35755(18) 0.44978(10) 0.20171(17)
C4 C 0.37097(18) 0.38094(10) 0.20881(17)
H2 H 0.44920 0.36180 0.21990
C5 C 0.27009(19) 0.33954(10) 0.19969(18)
C6 C 0.15568(19) 0.36801(10) 0.18568(18)
H3 H 0.08690 0.34000 0.17930
C7 C 0.01795(18) 0.46746(11) 0.17359(19)
C8 C 0.46662(18) 0.49446(11) 0.21162(17)
C9 C 0.2858(2) 0.26553(11) 0.21121(19)
C10 C -0.2937(3) 0.35229(15) 0.1812(5)
H4 H -0.37740 0.34830 0.14300
H5 H -0.28480 0.33060 0.24990
H6 H -0.24030 0.33070 0.14080
C11 C -0.3004(2) 0.51590(16) 0.0694(2)
H7 H -0.34740 0.55370 0.08700
H8 H -0.34970 0.48990 0.01250
H9 H -0.22870 0.53250 0.04650
C12 C -0.1663(2) 0.4888(2) 0.3543(2)
H10 H -0.08170 0.47470 0.37090
H11 H -0.20880 0.46980 0.40590
H12 H -0.17060 0.53760 0.35640
C13 C 0.3533(3) 0.14579(14) 0.4127(2)
H13 H 0.26750 0.13450 0.39400
H14 H 0.36280 0.19120 0.44140
H15 H 0.39470 0.11420 0.46550
C14 C 0.6146(2) 0.16291(15) 0.2967(4)
H16 H 0.64980 0.16760 0.37170
H17 H 0.62460 0.20480 0.26050
H18 H 0.65550 0.12680 0.26710
C15 C 0.3437(3) 0.09774(14) 0.1316(2)
H19 H 0.27010 0.07470 0.14010
H20 H 0.39830 0.06570 0.10870
H21 H 0.32310 0.13310 0.07880
N1 N -0.01662(17) 0.17232(10) 0.22362(17)
H22 H 0.004(3) 0.1332(17) 0.255(3)
H23 H 0.049(3) 0.1912(16) 0.213(2)
C16 C -0.0750(3) 0.2139(2) 0.2922(3)
H24 H -0.15630 0.19580 0.29140
H25 H -0.08510 0.25970 0.26270
C17 C -0.0049(5) 0.2182(3) 0.4084(5)
H26 H 0.03680 0.17480 0.42890
C18 C -0.0911(5) 0.2327(3) 0.4808(4)
H27 H -0.15030 0.19660 0.47540
H28 H -0.13280 0.27500 0.46040
H29 H -0.04580 0.23590 0.55340
C19 C 0.0879(5) 0.2729(3) 0.4155(4)
H30 H 0.14290 0.26250 0.36860
H31 H 0.13360 0.27620 0.48790
H32 H 0.04740 0.31550 0.39460
C20 C -0.0985(3) 0.15417(19) 0.1225(2)
H33 H -0.13420 0.19500 0.08600
H34 H -0.16470 0.12550 0.13610
C21 C -0.0235(7) 0.1156(5) 0.0518(6)
H35 H 0.04200 0.08960 0.09780
C22 C 0.0317(9) 0.1632(6) -0.0158(6)
H36 H 0.07610 0.13760 -0.05970
H37 H 0.08700 0.19370 0.02940
H38 H -0.03220 0.18900 -0.06070
C23 C -0.1102(7) 0.0667(3) -0.0195(6)
H39 H -0.06580 0.04220 -0.06470
H40 H -0.17590 0.09200 -0.06320
H41 H -0.14360 0.03500 0.02440
H42? H -0.11650 0.25170 0.25080
H43? H -0.13670 0.18690 0.31710
C24? C 0.0103(14) 0.2404(6) 0.3835(12)
H44? H 0.09320 0.24300 0.36860
C25? C 0.0034(15) 0.1857(8) 0.4622(11)
H45? H 0.05830 0.19600 0.52880
H46? H 0.02640 0.14310 0.43510
H47? H -0.07920 0.18260 0.47360
C26? C -0.0261(18) 0.3082(7) 0.4244(15)
H48? H 0.03590 0.32250 0.48450
H49? H -0.10330 0.30350 0.44640
H50? H -0.03380 0.34160 0.36840
H51? H -0.16990 0.13320 0.14180
H52? H -0.12660 0.19700 0.08800
C27? C -0.0691(17) 0.1142(11) 0.0446(16)
H53? H -0.03030 0.07230 0.07730
C28? C 0.015(2) 0.1487(16) -0.008(2)
H54? H 0.08920 0.15900 0.04280
H55? H -0.02150 0.19020 -0.03940
H56? H 0.03430 0.12000 -0.06370
C29? C -0.185(2) 0.0955(14) -0.0365(12)
H57? H -0.16360 0.06600 -0.09010
H58? H -0.22230 0.13620 -0.07000
H59? H -0.24110 0.07260 -0.00070
Sn1* Sn 0.752383(12) 0.454706(7) 0.202469(13)
Sn2A Sn 0.070971(13) 0.640396(7) 0.223191(14)
O2A O 0.49573(14) 0.02902(8) 0.32798(16)
O5* O -0.43222(13) 0.46746(8) 0.24683(14)
#END
