
#######################################################################
#
#                 Cambridge Crystallographic Data Centre
#                                CCDC
#
#######################################################################
#
# If this CIF has been generated from an entry in the Cambridge
# Structural Database, then it will include bibliographic, chemical,
# crystal, experimental, refinement or atomic coordinate data resulting
# from the CCDC's data processing and validation procedures.
#
#######################################################################

data_CSD_CIF_HOQYUI
_audit_creation_date 2009-07-03
_audit_creation_method CSD-ConQuest-V1
_database_code_CSD HOQYUI
_database_code_depnum_ccdc_archive 'CCDC 695598'
_chemical_formula_sum 'C6 H12 N2 O12 Se2 V2'
_chemical_formula_moiety
;
(C4 H12 N2 2+)n,n(C2 O12 Se2 V2 2-)
;
_journal_coden_Cambridge 119
_journal_volume 919
_journal_year 2009
_journal_page_first 122
_journal_name_full 'J.Mol.Struct. '
loop_
_publ_author_name
"Zhaoxun Lian"
"Jiamin Zhang"
"Yongqing Gu"
"Tianxi Wang"
"Tianjun Lou"
_chemical_name_systematic
;
catena-[Piperazinediium 
bis(\m~3~-selenito-O,O',O'')-(\m~2~-oxalato-O,O',O'',O''')-dioxo-di-vanadium(i
v)]
;
_cell_volume    367.352
_exptl_crystal_colour 'yellow'
_exptl_crystal_density_diffrn 2.54
_exptl_special_details
;
The paper describes the piperazidine molecule as a charge-balancing cation. 
The deposited cif, however, has modelled the piperazidine as a neutral 
molecule. The 2D representation shows the molecule as a dication
;
_exptl_crystal_description 'block'
_diffrn_ambient_temperature 298
#These two values have been output from a single CSD field.
_refine_ls_R_factor_gt 0.0402
_refine_ls_wR_factor_gt 0.0402
_symmetry_cell_setting triclinic
_symmetry_space_group_name_H-M 'P -1'
_symmetry_Int_Tables_number 2
loop_
_symmetry_equiv_pos_site_id
_symmetry_equiv_pos_as_xyz
1 x,y,z
2 -x,-y,-z
_cell_length_a 6.3532(9)
_cell_length_b 7.4690(15)
_cell_length_c 9.0380(15)
_cell_angle_alpha 114.000(8)
_cell_angle_beta 106.990(8)
_cell_angle_gamma 93.053(5)
_cell_formula_units_Z 1
loop_
_atom_type_symbol
_atom_type_radius_bond
C 0.68
H 0.23
N 0.68
O 0.68
Se 1.22
V 1.29
loop_
_atom_site_label
_atom_site_type_symbol
_atom_site_fract_x
_atom_site_fract_y
_atom_site_fract_z
Se1 Se 0.23657(12) 0.68818(11) 0.43217(9)
V1 V 0.3162(2) 0.41248(19) 0.64909(15)
O1 O 0.2472(9) 0.2168(8) 0.4711(7)
O2 O 0.2412(9) 0.6394(8) 0.5986(6)
O3 O 0.4262(9) 0.6679(8) 0.9169(6)
O4 O -0.0308(9) 0.5948(9) 0.2965(7)
O5 O 0.3606(9) 0.5108(8) 0.3207(6)
O6 O 0.5704(9) 0.7209(8) 1.1900(6)
C1 C 1.0121(14) 0.8273(12) 1.0327(10)
H1 H 1.16570 0.85710 1.10990
H2 H 0.94020 0.69830 1.01410
C2 C 0.8891(13) 0.9861(11) 1.1139(11)
H3 H 0.89810 0.99580 1.22600
H4 H 0.73190 0.94950 1.04200
C3 C 0.4978(12) 0.6101(7) 1.0310(9)
N1 N 1.0114(11) 0.8189(9) 0.8665(8)
H5 H 0.95930 0.71300 0.76980
Se1A Se -0.23657(12) 0.31182(11) 0.56783(9)
V1A V -0.3162(2) 0.58752(19) 0.35091(15)
V1A* V 0.6838(2) 0.58752(19) 0.35091(15)
V1A** V 0.6838(2) 0.58752(19) 1.35091(15)
V1* V -0.6838(2) 0.41248(19) 0.64909(15)
O1A O -0.2472(9) 0.7832(8) 0.5289(7)
O2A O -0.2412(9) 0.3606(8) 0.4014(6)
O3A O 0.5738(9) 0.3321(8) 1.0831(6)
O3A* O -0.4262(9) 0.3321(8) 0.0831(6)
O4A O 0.0308(9) 0.4052(9) 0.7035(7)
O5A O -0.3606(9) 0.4892(8) 0.6793(6)
O5A* O 0.6394(9) 0.4892(8) 0.6793(6)
O5* O -0.6394(9) 0.5108(8) 0.3207(6)
O6A O 0.4296(9) 0.2791(8) 0.8100(6)
O6* O -0.4296(9) 0.7209(8) 0.1900(6)
C1A C 0.9879(14) 1.1727(12) 0.9673(10)
H1A H 0.83430 1.14290 0.89010
H2A H 1.05980 1.30170 0.98590
C2A C 1.1109(13) 1.0139(11) 0.8861(11)
H3A H 1.10190 1.00420 0.77400
H4A H 1.26810 1.05050 0.95800
C3A C 0.5022(12) 0.3899(7) 0.9690(9)
N1A N 0.9886(11) 1.1811(9) 1.1335(8)
H5A H 1.04070 1.28700 1.23020
#END
