
#######################################################################
#
#                 Cambridge Crystallographic Data Centre
#                                CCDC
#
#######################################################################
#
# If this CIF has been generated from an entry in the Cambridge
# Structural Database, then it will include bibliographic, chemical,
# crystal, experimental, refinement or atomic coordinate data resulting
# from the CCDC's data processing and validation procedures.
#
#######################################################################

data_CSD_CIF_HOQZIX
_audit_creation_date 2009-07-03
_audit_creation_method CSD-ConQuest-V1
_database_code_CSD HOQZIX
_database_code_depnum_ccdc_archive 'CCDC 679359'
_chemical_formula_sum 'C84 H89 Cu7 K2 N16 O131 P4 W36'
_chemical_formula_moiety
;
(H3 O1 1+)n,n(C84 H78 Cu7 K2 N16 O126 P4 W36 1-),4n(H2 O1)
;
_journal_coden_Cambridge 119
_journal_volume 919
_journal_year 2009
_journal_page_first 160
_journal_name_full 'J.Mol.Struct. '
loop_
_publ_author_name
"Xinyu Zhao"
"Shuxia Liu"
"Yuanhang Ren"
"Chaoying Gao"
"Ruige Cao"
"Chaojie Yu"
_chemical_name_systematic
;
catena-[oxonium 
tetrakis(\m~9~-phosphato)-dodecakis(\m~3~-oxo)-hexakis(\m~2~-4,4'-bipyridine-N
,N')-octahexacontakis(\m~2~-oxo)-diaqua-bis(1-ethyl-4,4'-bipyridin-1-ium-N')-o
ctacosaoxo-hepta-copper(i)-di-potassium(i)-hexatriaconta-tungsten(vi) 
tetrahydrate]
;
_cell_volume   4551.071
_exptl_crystal_colour 'red'
_exptl_crystal_density_diffrn 3.898
_exptl_special_details
;
The authors state no attempt was made to locate the hydrogen atoms of the 
water molecules. The hydroxonium molecule is required for charge-balance but 
has not been identified explicitly
;
_exptl_crystal_description 'block'
_diffrn_ambient_temperature 293
#These two values have been output from a single CSD field.
_refine_ls_R_factor_gt 0.0694
_refine_ls_wR_factor_gt 0.0694
_symmetry_cell_setting triclinic
_symmetry_space_group_name_H-M 'P -1'
_symmetry_Int_Tables_number 2
loop_
_symmetry_equiv_pos_site_id
_symmetry_equiv_pos_as_xyz
1 x,y,z
2 -x,-y,-z
_cell_length_a 16.812(3)
_cell_length_b 17.650(4)
_cell_length_c 17.666(4)
_cell_angle_alpha 115.91(3)
_cell_angle_beta 93.08(3)
_cell_angle_gamma 101.93(3)
_cell_formula_units_Z 1
loop_
_atom_type_symbol
_atom_type_radius_bond
C 0.68
H 0.23
Cu 1.32
K 2.08
N 0.68
O 0.86
P 1.05
W 1.18
loop_
_atom_site_label
_atom_site_type_symbol
_atom_site_fract_x
_atom_site_fract_y
_atom_site_fract_z
Cu1 Cu -1.00000 -0.50000 -0.50000
Cu2 Cu -0.52296(18) -0.07681(19) 0.05191(19)
Cu3 Cu 0.00649(18) -0.3299(2) -0.5714(2)
Cu4 Cu -0.4180(2) -0.7933(2) -0.1508(2)
K1 K 0.0394(5) -0.1020(6) 0.1668(7)
P1 P -0.2584(3) -0.3718(3) -0.1660(3)
P2 P -0.2610(3) -0.2110(3) -0.2680(3)
W1 W -0.48160(5) -0.28793(5) -0.31573(6)
W2 W -0.16289(5) -0.03670(5) -0.06851(5)
W3 W -0.47704(5) -0.43723(6) -0.21729(6)
W4 W -0.35315(5) -0.39915(5) -0.46781(5)
W5 W -0.38749(5) -0.27093(6) -0.02509(6)
W6 W -0.04540(5) -0.13794(5) -0.20780(6)
W7 W -0.16227(5) -0.18784(6) 0.02738(6)
W8 W -0.14269(5) -0.47564(6) -0.31845(6)
W9 W -0.04380(5) -0.28927(6) -0.11146(6)
W10 W -0.14674(5) -0.32381(6) -0.41461(6)
W11 W -0.38977(5) -0.12114(5) -0.12437(5)
W12 W -0.34914(5) -0.54977(5) -0.37067(6)
W13 W -0.27696(6) -0.00478(5) -0.23299(6)
W14 W -0.35609(6) -0.56971(6) -0.17067(6)
W15 W -0.15618(6) -0.10309(6) -0.37345(6)
W16 W -0.26249(6) -0.39917(6) 0.02092(6)
W17 W -0.36494(6) -0.17646(6) -0.42523(6)
W18 W -0.14760(6) -0.50079(6) -0.12101(6)
O1 O -0.0396(8) -0.1986(8) -0.1437(9)
O2 O -0.3383(8) -0.4822(8) -0.4304(9)
O3 O -0.4800(8) -0.3594(8) -0.1021(9)
O4 O -0.4321(8) -0.3703(8) -0.3949(9)
O5 O -0.1495(8) -0.5210(9) -0.2384(9)
O6 O -0.1531(9) -0.4153(10) -0.3845(10)
O7 O -0.2409(8) -0.5624(8) -0.3851(9)
O8 O -0.4827(8) -0.1897(8) -0.2105(8)
O9 O -0.2767(8) -0.1990(9) 0.0105(9)
O10 O 0.0583(8) -0.2806(9) -0.0935(9)
O11 O -0.3390(8) -0.3466(8) -0.1541(8)
O12 O -0.2460(9) -0.3914(9) -0.4956(9)
O13 O -0.3401(8) -0.5855(8) -0.2821(8)
O14 O -0.2531(7) -0.2973(8) -0.3385(8)
O15 O -0.3504(9) -0.2908(9) -0.4730(9)
O16 O -0.2570(8) -0.4356(9) -0.1263(9)
O17 O -0.0814(9) -0.3865(9) -0.0891(9)
O18 O -0.0753(8) -0.3701(8) -0.2298(9)
O19 O -0.2519(7) -0.4230(8) -0.2599(9)
O20 O -0.1355(9) 0.0605(9) 0.0201(10)
O21 O -0.3499(9) -0.0590(9) -0.3394(10)
O22 O -0.0569(8) -0.2126(9) 0.0003(9)
O23 O -0.4369(8) -0.0476(9) -0.0547(10)
O24 O -0.5828(9) -0.3192(11) -0.3612(10)
O25 O -0.0794(8) -0.2484(9) -0.3095(8)
O26 O -0.3412(9) -0.2224(9) -0.2343(8)
O27 O -0.4337(9) -0.2236(10) 0.0619(10)
O28 O -0.2629(8) -0.1491(8) -0.3098(9)
O29 O -0.2582(9) -0.1359(9) -0.4505(10)
O30 O -0.1339(9) -0.1163(9) 0.1313(10)
O31 O -0.1563(8) -0.2236(9) -0.4255(9)
O32 O -0.4039(10) -0.6450(9) -0.4474(10)
O33 O 0.0631(8) 0.0403(8) 0.1116(9)
O34 O -0.3491(8) -0.3482(9) 0.0040(9)
O35 O -0.4093(9) -0.4668(9) -0.5635(10)
O36 O -0.3568(8) -0.0542(8) -0.1854(9)
O37 O -0.4334(9) -0.5085(9) -0.1731(9)
O38 O -0.4428(8) -0.2125(8) -0.3642(8)
O39 O -0.4296(9) -0.1777(9) -0.5063(10)
O40 O -0.1860(8) -0.2919(8) -0.1173(9)
O41 O -0.1883(9) -0.0017(9) -0.2983(10)
O42 O -0.0904(9) -0.0627(10) -0.4236(11)
O43 O -0.4878(8) -0.3514(9) -0.2516(9)
O44 O -0.2785(8) -0.0736(8) -0.0697(9)
O45 O -0.1753(9) -0.4543(9) -0.010(1)
O46 O 0.0562(10) -0.1057(12) -0.2095(11)
O47 O -0.0857(9) -0.0886(9) -0.2787(9)
O48 O -0.1960(8) 0.0052(9) -0.1473(9)
O49 O -0.1920(9) -0.2926(8) 0.0419(9)
O50 O -0.2469(9) -0.5879(9) -0.1575(10)
O51 O -0.4067(9) -0.2009(10) -0.0804(9)
O52 O -0.0726(9) -0.5288(9) -0.3708(9)
O53 O -0.1873(8) -0.1696(8) -0.1973(9)
O54 O -0.5769(9) -0.4982(9) -0.2456(11)
O55 O -0.1424(8) -0.1101(9) -0.0206(9)
O56 O -0.0769(10) -0.5536(9) -0.1102(10)
O57 O -0.0756(10) -0.3502(9) -0.4806(10)
O58 O -0.4164(10) -0.6693(8) -0.1893(10)
O59 O -0.4286(9) -0.4944(8) -0.3163(9)
O60 O -0.2873(10) 0.0982(9) -0.1971(10)
O61 O -0.2695(10) -0.3877(10) 0.1193(9)
O62 O -0.3400(9) -0.5059(9) -0.0451(9)
C1 C -0.7746(14) -0.3798(14) -0.3346(15)
H1 H -0.72270 -0.39050 -0.33430
C2 C -0.8328(12) -0.4284(13) -0.4031(14)
H2 H -0.81770 -0.47010 -0.45030
C3 C -0.9291(16) -0.3561(16) -0.3436(17)
H3 H -0.98130 -0.34630 -0.34490
C4 C -0.8687(15) -0.3008(16) -0.2711(17)
H4 H -0.88150 -0.25420 -0.22670
C5 C -0.7918(14) -0.3138(15) -0.2642(14)
C6 C -0.7309(12) -0.2599(14) -0.1877(15)
C7 C -0.6572(12) -0.2803(14) -0.1740(16)
H5 H -0.64590 -0.33070 -0.21430
C8 C -0.6017(13) -0.2254(13) -0.1007(14)
H6 H -0.55260 -0.23970 -0.09360
C9 C -0.6857(14) -0.1350(15) -0.0469(16)
H7 H -0.69770 -0.08900 -0.00110
C10 C -0.7442(15) -0.1829(15) -0.1219(15)
H8 H -0.79100 -0.16450 -0.12840
C11 C -0.2899(17) 0.0301(15) 0.2022(15)
H9 H -0.23790 0.01990 0.19630
C12 C -0.3524(14) -0.0195(15) 0.1338(14)
H10 H -0.34090 -0.05780 0.08190
C13 C -0.4438(14) 0.0469(14) 0.2193(15)
H11 H -0.49710 0.05120 0.22790
C14 C -0.3798(12) 0.1008(13) 0.2851(14)
H12 H -0.39080 0.14300 0.33500
C15 C -0.2995(14) 0.0941(15) 0.2792(15)
C16 C -0.2296(13) 0.1501(13) 0.3519(14)
C17 C -0.1621(16) 0.1211(16) 0.3555(15)
H13 H -0.15870 0.06670 0.31500
C18 C -0.0953(12) 0.1777(14) 0.4244(15)
H14 H -0.04720 0.15970 0.42540
C19 C -0.1677(15) 0.2788(16) 0.4857(17)
H15 H -0.17250 0.32980 0.53110
C20 C -0.2347(14) 0.2275(14) 0.4153(15)
H16 H -0.28140 0.24750 0.41310
C21 C -0.2068(15) -0.4724(16) -0.7484(18)
H17 H -0.26310 -0.47960 -0.74770
C22 C -0.1561(14) -0.4192(17) -0.6778(17)
H18 H -0.17800 -0.39450 -0.62800
C23 C -0.0455(15) -0.4440(14) -0.7450(14)
H19 H 0.01100 -0.43680 -0.74420
C24 C -0.0974(16) -0.5024(15) -0.8210(17)
H20 H -0.07600 -0.53080 -0.87020
C25 C -0.1814(12) -0.5175(12) -0.8226(13)
C26 C -0.2378(13) -0.5819(14) -0.9020(14)
C27 C -0.3215(13) -0.5848(14) -0.9197(14)
H21 H -0.34370 -0.54360 -0.87940
C28 C -0.3693(13) -0.6448(13) -0.9925(14)
H22 H -0.42290 -0.64120 -1.00300
C29 C -0.2666(15) -0.7132(16) -1.0358(17)
H23 H -0.24710 -0.75750 -1.07580
C30 C -0.2154(15) -0.6536(15) -0.9635(16)
H24 H -0.16290 -0.66020 -0.95400
C31 C -0.6209(15) -0.9349(14) -0.3447(19)
H25 H -0.67590 -0.93470 -0.35370
C32 C -0.5649(16) -0.8725(17) -0.2636(17)
H26 H -0.58510 -0.83260 -0.21960
C33 C -0.4581(14) -0.9330(16) -0.3179(16)
H27 H -0.40280 -0.93250 -0.31070
C34 C -0.5070(14) -0.9932(15) -0.3918(15)
H28 H -0.48570 -1.03470 -0.43290
C35 C -0.5865(15) -0.9934(16) -0.4063(16)
C36 C -0.6410(15) -1.0566(17) -0.4901(18)
C37 C -0.7014(17) -1.0373(18) -0.5197(18)
H29 H -0.70910 -0.98180 -0.48930
C38 C -0.755(2) -1.0948(17) -0.594(2)
H30 H -0.79660 -1.07680 -0.61370
C39 C -0.6837(15) -1.1971(18) -0.6077(18)
H31 H -0.67420 -1.25150 -0.63950
C40 C -0.6322(14) -1.1425(14) -0.5331(15)
H32 H -0.59280 -1.16090 -0.51110
C41 C -0.804(2) -1.238(2) -0.734(2)
H33 H -0.78140 -1.28360 -0.77310
H34 H -0.82020 -1.20430 -0.76110
C42 C -0.861(3) -1.265(3) -0.698(3)
H35 H -0.88240 -1.21650 -0.66180
H36 H -0.90540 -1.30960 -0.74030
H37 H -0.83820 -1.28700 -0.66340
N1 N -0.9132(12) -0.4228(12) -0.4109(13)
N2 N -0.6137(11) -0.1532(12) -0.0393(12)
N3 N -0.4328(11) -0.0127(12) 0.1419(12)
N4 N -0.0980(12) 0.2518(12) 0.4849(13)
N5 N -0.0714(11) -0.3976(12) -0.6729(12)
N6 N -0.3439(11) -0.7108(11) -1.0520(12)
N7 N -0.4863(11) -0.8729(12) -0.2532(12)
N8 N -0.7480(16) -1.1784(17) -0.6395(17)
O63 O -0.012(2) -0.316(2) 0.103(2)
O64 O 0.5676(14) 0.6618(15) 0.3531(15)
O65 O 0.4125(15) 0.3464(16) 0.8160(16)
O66 O 0.50000 0.50000 0.00000
Cu2A Cu -1.47704(18) -0.92319(19) -1.05191(19)
Cu2A* Cu -0.47704(18) 0.07681(19) -0.05191(19)
Cu3A Cu -1.00649(18) 0.3299(2) 0.5714(2)
Cu3A* Cu -0.00649(18) 0.3299(2) 0.5714(2)
Cu3* Cu -1.99351(18) -1.3299(2) -1.5714(2)
Cu3** Cu 0.00649(18) -0.3299(2) 0.4286(2)
Cu4A Cu -0.5820(2) 0.7933(2) 0.1508(2)
Cu4* Cu -0.4180(2) -0.7933(2) -1.1508(2)
K1A K -1.0394(5) 0.1020(6) -0.1668(7)
K1A* K -0.0394(5) 0.1020(6) -0.1668(7)
K1* K -0.9606(5) -0.1020(6) 0.1668(7)
P1A P -0.7416(3) 0.3718(3) 0.1660(3)
P2A P -0.7390(3) 0.2110(3) 0.2680(3)
W1A W -0.51840(5) 0.28793(5) 0.31573(6)
W2A W -0.83711(5) 0.03670(5) 0.06851(5)
W2A* W 0.16289(5) 0.03670(5) 0.06851(5)
W3A W -0.52296(5) 0.43723(6) 0.21729(6)
W4A W -0.64685(5) 0.39915(5) 0.46781(5)
W5A W -0.61251(5) 0.27093(6) 0.02509(6)
W6A W -0.95460(5) 0.13794(5) 0.20780(6)
W6A* W 0.04540(5) 0.13794(5) 0.20780(6)
W7A W -0.83773(5) 0.18784(6) -0.02738(6)
W8A W -0.85731(5) 0.47564(6) 0.31845(6)
W9A W -0.95620(5) 0.28927(6) 0.11146(6)
W10A W -0.85326(5) 0.32381(6) 0.41461(6)
W11A W -0.61023(5) 0.12114(5) 0.12437(5)
W12A W -0.65086(5) 0.54977(5) 0.37067(6)
W13A W -0.72304(6) 0.00478(5) 0.23299(6)
W14A W -0.64391(6) 0.56971(6) 0.17067(6)
W15A W -0.84382(6) 0.10309(6) 0.37345(6)
W16A W -0.73751(6) 0.39917(6) -0.02092(6)
W17A W -0.63506(6) 0.17646(6) 0.42523(6)
W18A W -0.85240(6) 0.50079(6) 0.12101(6)
O1A O -0.9604(8) 0.1986(8) 0.1437(9)
O2A O -0.6617(8) 0.4822(8) 0.4304(9)
O3A O -0.5200(8) 0.3594(8) 0.1021(9)
O4A O -0.5679(8) 0.3703(8) 0.3949(9)
O5A O -0.8505(8) 0.5210(9) 0.2384(9)
O6A O -0.8469(9) 0.4153(10) 0.3845(10)
O7A O -0.7591(8) 0.5624(8) 0.3851(9)
O8A O -0.5173(8) 0.1897(8) 0.2105(8)
O9A O -0.7233(8) 0.1990(9) -0.0105(9)
O10A O -1.0583(8) 0.2806(9) 0.0935(9)
O11A O -0.6610(8) 0.3466(8) 0.1541(8)
O12A O -0.7540(9) 0.3914(9) 0.4956(9)
O13A O -0.6599(8) 0.5855(8) 0.2821(8)
O14A O -0.7469(7) 0.2973(8) 0.3385(8)
O15A O -0.6496(9) 0.2908(9) 0.4730(9)
O16A O -0.7430(8) 0.4356(9) 0.1263(9)
O17A O -0.9186(9) 0.3865(9) 0.0891(9)
O18A O -0.9247(8) 0.3701(8) 0.2298(9)
O19A O -0.7481(7) 0.4230(8) 0.2599(9)
O20A O -0.8645(9) -0.0605(9) -0.0201(10)
O21A O -0.6501(9) 0.0590(9) 0.3394(10)
O22A O -0.9431(8) 0.2126(9) -0.0003(9)
O23A O -0.5631(8) 0.0476(9) 0.0547(10)
O23A* O -1.5631(8) -0.9524(9) -0.9453(10)
O23* O -1.4369(8) -1.0476(9) -1.0547(10)
O24A O -0.4172(9) 0.3192(11) 0.3612(10)
O25A O -0.9206(8) 0.2484(9) 0.3095(8)
O26A O -0.6588(9) 0.2224(9) 0.2343(8)
O27A O -0.5663(9) 0.2236(10) -0.0619(10)
O28A O -0.7371(8) 0.1491(8) 0.3098(9)
O29A O -0.7418(9) 0.1359(9) 0.4505(10)
O30A O -0.8661(9) 0.1163(9) -0.1313(10)
O31A O -0.8437(8) 0.2236(9) 0.4255(9)
O32A O -0.5961(10) 0.6450(9) 0.4474(10)
O33A O -0.0631(8) -0.0403(8) -0.1116(9)
O33A* O -1.0631(8) -0.0403(8) -0.1116(9)
O33* O -0.9369(8) 0.0403(8) 0.1116(9)
O34A O -0.6509(8) 0.3482(9) -0.0040(9)
O35A O -0.5907(9) 0.4668(9) 0.5635(10)
O36A O -0.6432(8) 0.0542(8) 0.1854(9)
O37A O -0.5666(9) 0.5085(9) 0.1731(9)
O38A O -0.5572(8) 0.2125(8) 0.3642(8)
O39A O -0.5704(9) 0.1777(9) 0.5063(10)
O40A O -0.8140(8) 0.2919(8) 0.1173(9)
O41A O -0.8117(9) 0.0017(9) 0.2983(10)
O41A* O 0.1883(9) 0.0017(9) 0.2983(10)
O41* O -1.1883(9) -0.0017(9) -0.2983(10)
O42A O -0.9096(9) 0.0627(10) 0.4236(11)
O43A O -0.5122(8) 0.3514(9) 0.2516(9)
O44A O -0.7215(8) 0.0736(8) 0.0697(9)
O45A O -0.8247(9) 0.4543(9) 0.010(1)
O46A O -1.0562(10) 0.1057(12) 0.2095(11)
O47A O -0.9143(9) 0.0886(9) 0.2787(9)
O47A* O 0.0857(9) 0.0886(9) 0.2787(9)
O47* O -1.0857(9) -0.0886(9) -0.2787(9)
O48A O -0.8040(8) -0.0052(9) 0.1473(9)
O48A* O 0.1960(8) -0.0052(9) 0.1473(9)
O48* O -1.1960(8) 0.0052(9) -0.1473(9)
O49A O -0.8080(9) 0.2926(8) -0.0419(9)
O50A O -0.7531(9) 0.5879(9) 0.1575(10)
O51A O -0.5933(9) 0.2009(10) 0.0804(9)
O52A O -0.9274(9) 0.5288(9) 0.3708(9)
O53A O -0.8127(8) 0.1696(8) 0.1973(9)
O54A O -0.4231(9) 0.4982(9) 0.2456(11)
O55A O -0.8576(8) 0.1101(9) 0.0206(9)
O56A O -0.9231(10) 0.5536(9) 0.1102(10)
O57A O -0.9244(10) 0.3502(9) 0.4806(10)
O58A O -0.5836(10) 0.6693(8) 0.1893(10)
O59A O -0.5714(9) 0.4944(8) 0.3163(9)
O60A O -0.7127(10) -0.0982(9) 0.1971(10)
O61A O -0.7305(10) 0.3877(10) -0.1193(9)
O62A O -0.6600(9) 0.5059(9) 0.0451(9)
C1A C -1.2254(14) -0.6202(14) -0.6654(15)
H1A H -1.27730 -0.60950 -0.66570
C2A C -1.1672(12) -0.5716(13) -0.5969(14)
H2A H -1.18230 -0.52990 -0.54970
C3A C -1.0709(16) -0.6439(16) -0.6564(17)
H3A H -1.01870 -0.65370 -0.65510
C4A C -1.1313(15) -0.6992(16) -0.7289(17)
H4A H -1.11850 -0.74580 -0.77330
C5A C -1.2082(14) -0.6862(15) -0.7358(14)
C6A C -1.2691(12) -0.7401(14) -0.8123(15)
C7A C -1.3428(12) -0.7197(14) -0.8260(16)
H5A H -1.35410 -0.66930 -0.78570
C8A C -1.3983(13) -0.7746(13) -0.8993(14)
H6A H -1.44740 -0.76030 -0.90640
C9A C -1.3143(14) -0.8650(15) -0.9531(16)
H7A H -1.30230 -0.91100 -0.99890
C10A C -1.2558(15) -0.8171(15) -0.8781(15)
H8A H -1.20900 -0.83550 -0.87160
C11A C -1.7101(17) -1.0301(15) -1.2022(15)
H9A H -1.76210 -1.01990 -1.19630
C12A C -1.6476(14) -0.9805(15) -1.1338(14)
H10A H -1.65910 -0.94220 -1.08190
C13A C -1.5562(14) -1.0469(14) -1.2193(15)
H11A H -1.50290 -1.05120 -1.22790
C14A C -1.6202(12) -1.1008(13) -1.2851(14)
H12A H -1.60920 -1.14300 -1.33500
C15A C -1.7005(14) -1.0941(15) -1.2792(15)
C16A C -1.7704(13) -1.1501(13) -1.3519(14)
C17A C -1.8379(16) -1.1211(16) -1.3555(15)
H13A H -1.84130 -1.06670 -1.31500
C18A C -1.9047(12) -1.1777(14) -1.4244(15)
H14A H -1.95280 -1.15970 -1.42540
C19A C -1.8323(15) -1.2788(16) -1.4857(17)
H15A H -1.82750 -1.32980 -1.53110
C20A C -1.7653(14) -1.2275(14) -1.4153(15)
H16A H -1.71860 -1.24750 -1.41310
C21* C -0.2068(15) -0.4724(16) 0.2516(18)
H17* H -0.26310 -0.47960 0.25230
C22* C -0.1561(14) -0.4192(17) 0.3222(17)
H18* H -0.17800 -0.39450 0.37200
C23* C -0.0455(15) -0.4440(14) 0.2550(14)
H19* H 0.01100 -0.43680 0.25580
C24* C -0.0974(16) -0.5024(15) 0.1790(17)
H20* H -0.07600 -0.53080 0.12980
C25* C -0.1814(12) -0.5175(12) 0.1774(13)
C26* C -0.2378(13) -0.5819(14) 0.0980(14)
C27* C -0.3215(13) -0.5848(14) 0.0803(14)
H21* H -0.34370 -0.54360 0.12060
C28* C -0.3693(13) -0.6448(13) 0.0075(14)
H22* H -0.42290 -0.64120 -0.00300
C29* C -0.2666(15) -0.7132(16) -0.0358(17)
H23* H -0.24710 -0.75750 -0.07580
C30* C -0.2154(15) -0.6536(15) 0.0365(16)
H24* H -0.16290 -0.66020 0.04600
C31A C -0.3791(15) 0.9349(14) 0.3447(19)
H25A H -0.32410 0.93470 0.35370
C32A C -0.4351(16) 0.8725(17) 0.2636(17)
H26A H -0.41490 0.83260 0.21960
C33A C -0.5419(14) 0.9330(16) 0.3179(16)
H27A H -0.59720 0.93250 0.31070
C34A C -0.4930(14) 0.9932(15) 0.3918(15)
H28A H -0.51430 1.03470 0.43290
C35A C -0.4135(15) 0.9934(16) 0.4063(16)
C36A C -0.3590(15) 1.0566(17) 0.4901(18)
C37A C -0.2986(17) 1.0373(18) 0.5197(18)
H29A H -0.29090 0.98180 0.48930
C38A C -0.245(2) 1.0948(17) 0.594(2)
H30A H -0.20340 1.07680 0.61370
C39A C -0.3163(15) 1.1971(18) 0.6077(18)
H31A H -0.32580 1.25150 0.63950
C40A C -0.3678(14) 1.1425(14) 0.5331(15)
H32A H -0.40720 1.16090 0.51110
C41A C -0.196(2) 1.238(2) 0.734(2)
H33A H -0.21860 1.28360 0.77310
H34A H -0.17980 1.20430 0.76110
C42A C -0.139(3) 1.265(3) 0.698(3)
H35A H -0.11760 1.21650 0.66180
H36A H -0.09460 1.30960 0.74030
H37A H -0.16180 1.28700 0.66340
N1A N -1.0868(12) -0.5772(12) -0.5891(13)
N2A N -1.3863(11) -0.8468(12) -0.9607(12)
N3A N -1.5672(11) -0.9873(12) -1.1419(12)
N4A N -1.9020(12) -1.2518(12) -1.4849(13)
N4A* N 0.0980(12) -0.2518(12) -0.4849(13)
N4* N -1.0980(12) 0.2518(12) 0.4849(13)
N5* N -0.0714(11) -0.3976(12) 0.3271(12)
N5A N -0.9286(11) 0.3976(12) 0.6729(12)
N6* N -0.3439(11) -0.7108(11) -0.0520(12)
N6A N -0.6561(11) 0.7108(11) 0.0520(12)
N7A N -0.5137(11) 0.8729(12) 0.2532(12)
N8A N -0.2520(16) 1.1784(17) 0.6395(17)
O63A O -0.988(2) 0.316(2) -0.103(2)
#END
