
#######################################################################
#
#                 Cambridge Crystallographic Data Centre
#                                CCDC
#
#######################################################################
#
# If this CIF has been generated from an entry in the Cambridge
# Structural Database, then it will include bibliographic, chemical,
# crystal, experimental, refinement or atomic coordinate data resulting
# from the CCDC's data processing and validation procedures.
#
#######################################################################

data_CSD_CIF_HORBAU
_audit_creation_date 2019-07-25
_audit_creation_method CSD-ConQuest-V1
_database_code_CSD HORBAU
_database_code_depnum_ccdc_archive 'CCDC 1866725'
_chemical_formula_sum 'C13 H25 Fe3 N2 O18'
_chemical_formula_moiety
;
2(C2 H8 N1 1+),n(C9 H9 Fe3 O18 2-)
;
_journal_coden_Cambridge 1295
_journal_volume 105
_journal_year 2019
_journal_page_first 26
_journal_name_full 'Inorg.Chem.Commun. '
loop_
_publ_author_name
"Kai-Hang Jin"
"Shen-Yu Wang"
"Kai Wang"
"Bin Xia"
"Yu-Zhang Tong"
"Yue Ma"
"Qing-Lun Wang"
_chemical_name_systematic
;
catena-[bis(dimethylammonium) nonakis(\m-formato)-di-iron(ii)-iron(iii)]
;
_cell_volume   3763.043
_exptl_crystal_colour 'black'
_exptl_crystal_density_diffrn 1.718
_exptl_crystal_description 'block'
_diffrn_ambient_temperature 110
_refine_special_details
;
N1 disordered by symmetry over three configurations with occupancy 0.3333.

;
#These two values have been output from a single CSD field.
_refine_ls_R_factor_gt 0.0362
_refine_ls_wR_factor_gt 0.0362
_symmetry_cell_setting rhombohedral
_symmetry_space_group_name_H-M 'R -3 c'
_symmetry_Int_Tables_number 167
loop_
_symmetry_equiv_pos_site_id
_symmetry_equiv_pos_as_xyz
1 x,y,z
2 -y,x-y,z
3 -x+y,-x,z
4 y,x,1/2-z
5 -x,-x+y,1/2-z
6 x-y,-y,1/2-z
7 2/3+x,1/3+y,1/3+z
8 2/3-y,1/3+x-y,1/3+z
9 2/3-x+y,1/3-x,1/3+z
10 2/3+y,1/3+x,5/6-z
11 2/3-x,1/3-x+y,5/6-z
12 2/3+x-y,1/3-y,5/6-z
13 1/3+x,2/3+y,2/3+z
14 1/3-y,2/3+x-y,2/3+z
15 1/3-x+y,2/3-x,2/3+z
16 1/3+y,2/3+x,1/6-z
17 1/3-x,2/3-x+y,1/6-z
18 1/3+x-y,2/3-y,1/6-z
19 -x,-y,-z
20 y,-x+y,-z
21 x-y,x,-z
22 -y,-x,-1/2+z
23 x,x-y,-1/2+z
24 -x+y,y,-1/2+z
25 -2/3-x,-1/3-y,-1/3-z
26 -2/3+y,-1/3-x+y,-1/3-z
27 -2/3+x-y,-1/3+x,-1/3-z
28 -2/3-y,-1/3-x,-5/6+z
29 -2/3+x,-1/3+x-y,-5/6+z
30 -2/3-x+y,-1/3+y,-5/6+z
31 -1/3-x,-2/3-y,-2/3-z
32 -1/3+y,-2/3-x+y,-2/3-z
33 -1/3+x-y,-2/3+x,-2/3-z
34 -1/3-y,-2/3-x,-1/6+z
35 -1/3+x,-2/3+x-y,-1/6+z
36 -1/3-x+y,-2/3+y,-1/6+z
_cell_length_a 8.278(3)
_cell_length_b 8.278(3)
_cell_length_c 63.41(3)
_cell_angle_alpha 90
_cell_angle_beta 90
_cell_angle_gamma 120
_cell_formula_units_Z 6
loop_
_atom_type_symbol
_atom_type_radius_bond
C 0.68
H 0.23
Fe 1.52
N 0.68
O 0.68
loop_
_atom_site_label
_atom_site_type_symbol
_atom_site_fract_x
_atom_site_fract_y
_atom_site_fract_z
Fe1 Fe 1.00000 0.00000 1.00000
Fe2 Fe 0.66670 0.33330 0.94440(2)
O1 O 0.4611(2) 0.3360(2) 0.92646(3)
O2 O 0.8794(2) 0.3471(2) 0.96292(3)
O3 O 1.0145(3) 0.2190(3) 0.98120(3)
C1 C 0.8789(4) 0.2124(4) 0.97203(4)
H1 H 0.76810 0.09850 0.97190
C2 C 0.33330 0.2015(4) 0.91670
H2 H 0.33330 0.08920 0.91670
N1 N 0.2407(8) 0.6742(9) 0.96552(11)
C3 C 0.33330 0.66670 0.94512(10)
C4 C 0.33330 0.66670 0.98416(9)
O1J O 0.205567(200) 0.208233(200) 0.906873(30)
O2A O 0.6529(2) -0.4677(2) 0.96292(3)
O3A O 0.7810(3) -0.2045(3) 0.98120(3)
C1A C 0.7876(4) -0.3335(4) 0.97203(4)
H1A H 0.90150 -0.33040 0.97190
Fe2R Fe 1.33330 -0.33330 1.05560(2)
O2R O 1.1206(2) -0.3471(2) 1.03708(3)
O3R O 0.9855(3) -0.2190(3) 1.01880(3)
C1R C 1.1211(4) -0.2124(4) 1.02797(4)
H1R H 1.23190 -0.09850 1.02810
O2S O 1.3471(2) 0.4677(2) 1.03708(3)
O3S O 1.2190(3) 0.2045(3) 1.01880(3)
C1S C 1.2124(4) 0.3335(4) 1.02797(4)
H1S H 1.09850 0.33040 1.02810
O2T O 0.5323(2) -0.1206(2) 1.03708(3)
O3T O 0.7955(3) 0.0145(3) 1.01880(3)
C1T C 0.6665(4) -0.1211(4) 1.02797(4)
H1T H 0.66960 -0.23190 1.02810
O1A O 0.6640(2) 0.1251(2) 0.92646(3)
C2A C 0.79850 0.1318(4) 0.91670
H2A H 0.91080 0.24410 0.91670
O1K O 0.791767(200) -0.002667(200) 0.906873(30)
O1B O 0.8749(2) 0.5389(2) 0.92646(3)
C2B C 0.86820 0.6667(4) 0.91670
H2B H 0.75590 0.66670 0.91670
O1I O 1.002667(200) 0.794433(200) 0.906873(30)
O2B O 1.4677(2) 0.1206(2) 0.96292(3)
O3B O 1.2045(3) -0.0145(3) 0.98120(3)
C1B C 1.3335(4) 0.1211(4) 0.97203(4)
H1B H 1.33040 0.23190 0.97190
Fe2* Fe 0.66670 -0.66670 0.94440(2)
Fe2** Fe 1.66670 0.33330 0.94440(2)
Fe2I Fe -0.00003 0.00003 0.888933(20)
Fe2I* Fe 0.99997 0.00003 0.888933(20)
Fe2I** Fe 0.99997 1.00003 0.888933(20)
Fe2R* Fe 0.33330 -0.33330 1.05560(2)
Fe2R** Fe 1.33330 0.66670 1.05560(2)
O1R O 1.5389(2) -0.3360(2) 1.07354(3)
O1S O 1.3360(2) -0.1251(2) 1.07354(3)
O1T O 1.1251(2) -0.5389(2) 1.07354(3)
O2A* O 0.6529(2) 0.5323(2) 0.96292(3)
O2B* O 0.4677(2) 0.1206(2) 0.96292(3)
O2S* O 1.3471(2) -0.5323(2) 1.03708(3)
O2T* O 1.5323(2) -0.1206(2) 1.03708(3)
N1A N 0.3258(8) 0.5665(9) 0.96552(11)
N1B N 0.4335(8) 0.7593(9) 0.96552(11)
#END
