
#######################################################################
#
#                 Cambridge Crystallographic Data Centre
#                                CCDC
#
#######################################################################
#
# If this CIF has been generated from an entry in the Cambridge
# Structural Database, then it will include bibliographic, chemical,
# crystal, experimental, refinement or atomic coordinate data resulting
# from the CCDC's data processing and validation procedures.
#
#######################################################################

data_CSD_CIF_HOSBUP
_audit_creation_date 2019-07-26
_audit_creation_method CSD-ConQuest-V1
_database_code_CSD HOSBUP
_database_code_depnum_ccdc_archive 'CCDC 1898284'
_chemical_formula_sum 'C18 H105.5 Ce2 N4 Na1 O90.25 P2 W17'
_chemical_formula_moiety
;
4(C4 H12 N1 1+),n(C2 H27 Ce2 Na1 O75 P2 W17 4-),15.25(H2 O1)
;
_journal_coden_Cambridge 1147
_journal_volume 19
_journal_year 2019
_journal_page_first 4860
_journal_name_full 'Cryst.Growth Des. '
loop_
_publ_author_name
"Wenyan Wang"
"N.V.Izarova"
"Jan van Leusen"
"P.Kogerler"
_chemical_name_systematic
;
catena-[tetrakis(tetramethylammonium) 
bis(\m-phosphato)-(\m-acetato)-tetracontakis(\m-oxido)-dodecakis(aqua)-trideca
kis(oxido)-heptadeca-tungsten(vi)-di-cerium(iii)-sodium(i) hydrate]
;
_cell_volume   4890.558
_exptl_crystal_colour 'orange'
_exptl_crystal_density_diffrn 3.584
_exptl_crystal_description 'block'
_diffrn_ambient_temperature 100
_refine_special_details
;
The structure is disordered.

;
#These two values have been output from a single CSD field.
_refine_ls_R_factor_gt 0.0436
_refine_ls_wR_factor_gt 0.0436
_symmetry_cell_setting triclinic
_symmetry_space_group_name_H-M 'P -1'
_symmetry_Int_Tables_number 2
loop_
_symmetry_equiv_pos_site_id
_symmetry_equiv_pos_as_xyz
1 x,y,z
2 -x,-y,-z
_cell_length_a 13.172(3)
_cell_length_b 13.700(3)
_cell_length_c 31.098(6)
_cell_angle_alpha 82.33(3)
_cell_angle_beta 80.38(3)
_cell_angle_gamma 62.34(3)
_cell_formula_units_Z 2
loop_
_atom_type_symbol
_atom_type_radius_bond
C 0.68
H 0.23
Ce 2.04
N 0.68
Na 1.66
O 0.68
P 1.05
W 1.62
loop_
_atom_site_label
_atom_site_type_symbol
_atom_site_fract_x
_atom_site_fract_y
_atom_site_fract_z
W1 W 0.80723(4) 0.33480(4) 0.35937(2)
W2 W 0.57308(4) 0.30256(4) 0.35357(2)
W3 W 0.86239(4) 0.54668(4) 0.28285(2)
W4 W 0.89096(4) 0.29857(4) 0.23899(2)
W5 W 0.65742(4) 0.26917(4) 0.23165(2)
W6 W 0.37347(4) 0.48465(4) 0.27141(2)
W7 W 0.34805(4) 0.70159(4) 0.32030(2)
W8 W 0.60206(4) 0.73130(4) 0.32657(2)
W9 W 0.84145(4) 0.69449(4) 0.17119(2)
W10 W 0.86669(4) 0.44770(4) 0.12656(2)
W11 W 0.62980(4) 0.41952(4) 0.12015(2)
W12 W 0.34131(4) 0.63380(4) 0.16023(2)
W13 W 0.31942(4) 0.84995(4) 0.20693(2)
W14 W 0.58205(4) 0.88051(4) 0.21294(2)
W15 W 0.74128(4) 0.72226(4) 0.06367(2)
W16 W 0.50034(4) 0.69312(4) 0.05889(2)
W17 W 0.47652(5) 0.91640(4) 0.10511(2)
P1 P 0.6240(3) 0.4970(3) 0.28316(11)
P2 P 0.5951(3) 0.6611(3) 0.16181(11)
Ce1 Ce 0.52185(6) 0.53793(6) 0.42840(2)
Ce2 Ce 0.46554(7) 0.04758(6) 0.37393(3)
O1 O 0.9339(8) 0.2426(8) 0.3801(3)
O2 O 0.5469(7) 0.1885(7) 0.3703(3)
O3 O 0.9957(7) 0.5247(7) 0.2935(3)
O4 O 1.0343(7) 0.2085(7) 0.2302(3)
O5 O 0.6478(8) 0.1588(7) 0.2158(3)
O6 O 0.2720(7) 0.4369(7) 0.2758(3)
O7 O 0.2241(8) 0.8082(8) 0.3437(3)
O8 O 0.5663(7) 0.8540(7) 0.3504(3)
O9 O 0.9697(8) 0.6996(8) 0.1623(3)
O10 O 1.0029(8) 0.3768(8) 0.1002(3)
O11 O 0.5652(8) 0.3915(8) 0.4924(3)
O12 O 0.6389(7) 0.4301(7) 0.3278(3)
O13 O 0.6169(8) 0.3299(7) 0.0904(3)
O14 O 0.7230(8) 0.4058(7) 0.4064(3)
O15 O 0.7304(7) 0.2395(7) 0.3645(3)
O16 O 0.6537(7) 0.7057(7) 0.1870(3)
O17 O 0.2365(8) 0.6099(7) 0.1449(3)
O18 O 0.3102(8) 0.5676(8) 0.4501(3)
O19 O 0.8449(7) 0.4473(7) 0.3322(3)
O20 O 0.1990(8) 0.9731(8) 0.2175(3)
O21 O 0.6081(8) 0.2650(8) 0.5466(3)
O22 O 0.8656(7) 0.2760(7) 0.2974(3)
O23 O 0.5406(7) 1.0150(7) 0.2250(3)
O24 O 0.6495(11) 0.6021(10) 0.4593(4)
O25 O 0.8405(7) 0.7328(7) 0.0220(3)
O26 O 0.4476(7) 0.6893(7) 0.0128(3)
O27 O 0.4076(7) 1.0514(7) 0.0852(3)
O28 O 0.5164(7) 0.3802(7) 0.4010(3)
O29 O 0.6716(7) 0.5813(7) 0.2831(3)
O30 O 0.5629(8) 0.0746(8) 0.3005(3)
O31 O 0.6700(7) 0.5387(7) 0.1543(3)
O32 O 0.6669(9) -0.0503(9) 0.3945(3)
O33 O 0.3269(9) 0.2415(9) 0.3485(3)
O34 O 0.4671(9) -0.0944(9) 0.4377(3)
O35 O 0.6438(7) 0.2447(7) 0.2908(3)
O36 O 0.4392(9) 0.1183(9) 0.4474(4)
O37 O 0.4449(7) 0.3944(7) 0.3216(3)
O38 O 0.3568(9) 0.0119(9) 0.3207(3)
O39 O 0.2609(9) 0.0940(9) 0.4053(4)
O40 O 0.6896(7) 0.4172(7) 0.2466(3)
O41 O 0.4733(7) 0.6830(7) 0.1834(3)
O42 O 0.9000(7) 0.4293(7) 0.2475(3)
O43 O 0.7678(7) 0.6702(7) 0.3182(3)
O44 O 0.8470(7) 0.6409(7) 0.2321(3)
O45 O 0.4941(7) 0.5596(7) 0.2779(3)
O46 O 0.5828(7) 0.7242(7) 0.1152(3)
O47 O 0.8226(7) 0.2128(7) 0.2261(3)
O48 O 0.4990(7) 0.3805(7) 0.2372(3)
O49 O 0.2834(7) 0.6096(7) 0.3068(3)
O50 O 0.4059(7) 0.6198(7) 0.3674(3)
O51 O 0.4567(7) 0.7618(7) 0.3114(3)
O52 O 0.5953(7) 0.6444(7) 0.3722(3)
O53 O 0.7875(7) 0.3847(7) 0.1017(3)
O54 O 0.8123(7) 0.5719(7) 0.0827(3)
O55 O 0.4753(7) 0.5013(7) 0.1466(3)
O56 O 0.5870(7) 0.5441(7) 0.0759(3)
O57 O 0.2531(7) 0.7805(7) 0.1784(3)
O58 O 0.3841(7) 0.6938(7) 0.1034(3)
O59 O 0.4371(7) 0.8802(7) 0.2193(3)
O60 O 0.3644(7) 0.8998(7) 0.1447(3)
O61 O 0.5508(7) 0.9233(7) 0.1490(3)
O62 O 0.6449(7) 0.6948(7) 0.0316(3)
O63 O 0.6241(7) 0.8717(7) 0.0660(3)
O64 O 0.4395(8) 0.8488(7) 0.0615(3)
O65 O 0.8767(7) 0.3599(7) 0.1772(3)
O66 O 0.6670(7) 0.3345(7) 0.1720(3)
O67 O 0.3362(7) 0.5778(7) 0.2198(3)
O68 O 0.3168(7) 0.7705(7) 0.2581(3)
O69 O 0.6172(7) 0.8083(7) 0.2644(3)
O70 O 0.8847(7) 0.5507(7) 0.1571(3)
O71 O 0.7408(7) 0.8391(7) 0.1903(3)
O72 O 0.7980(7) 0.7426(7) 0.1136(3)
C1 C 0.6183(12) 0.2932(12) 0.5060(5)
C2 C 0.7017(17) 0.2078(17) 0.4748(7)
H1 H 0.73574 0.13545 0.49079
H2 H 0.66058 0.20473 0.45195
H3 H 0.76298 0.22775 0.46152
Na1 Na 0.5799(5) 0.2069(4) 0.06018(18)
O73 O 0.3771(8) 0.2626(8) 0.0589(3)
O74 O 0.6336(8) 0.0548(8) 0.0188(3)
O75 O 0.6288(8) 0.0922(8) 0.1292(3)
N1 N 0.1671(9) 0.5960(9) 0.0392(4)
C3 C 0.1413(16) 0.5874(16) -0.0047(6)
H4 H 0.05756 0.62099 -0.00500
H5 H 0.17398 0.62610 -0.02702
H6 H 0.17563 0.50947 -0.01100
C4 C 0.1063(17) 0.7147(16) 0.0499(7)
H7 H 0.02339 0.74390 0.04839
H8 H 0.11876 0.72077 0.07938
H9 H 0.13690 0.75727 0.02875
C5 C 0.2926(13) 0.5461(13) 0.0407(5)
H10 H 0.30741 0.55267 0.06981
H11 H 0.32772 0.46796 0.03472
H12 H 0.32607 0.58459 0.01870
C6 C 0.1137(16) 0.5403(16) 0.0734(6)
H13 H 0.03034 0.57421 0.07206
H14 H 0.14795 0.46166 0.06831
H15 H 0.12791 0.54859 0.10237
N2 N 0.2599(10) 0.2941(10) 0.1898(4)
C7 C 0.2443(15) 0.2278(14) 0.1609(6)
H16 H 0.31437 0.15741 0.15751
H17 H 0.17866 0.21365 0.17343
H18 H 0.22952 0.26775 0.13222
C8 C 0.1568(13) 0.4010(13) 0.1960(5)
H19 H 0.17014 0.44324 0.21553
H20 H 0.14122 0.44246 0.16764
H21 H 0.09035 0.38836 0.20885
C9 C 0.3614(13) 0.3138(14) 0.1720(5)
H22 H 0.37074 0.35841 0.19181
H23 H 0.43105 0.24293 0.16941
H24 H 0.34937 0.35320 0.14318
C10 C 0.2850(15) 0.2282(14) 0.2331(5)
H25 H 0.29589 0.27071 0.25333
H26 H 0.22008 0.21270 0.24539
H27 H 0.35533 0.15852 0.22864
N3 N 0.9539(12) 0.8725(12) 0.2596(5)
C11 C 0.8375(14) 0.8833(15) 0.2785(6)
H28 H 0.78239 0.96163 0.28012
H29 H 0.81184 0.84872 0.25987
H30 H 0.84175 0.84657 0.30790
C12 C 0.9407(16) 0.9237(15) 0.2117(6)
H31 H 0.88153 1.00084 0.21201
H32 H 1.01453 0.92029 0.19766
H33 H 0.91779 0.88207 0.19545
C13 C 0.9868(16) 0.9382(15) 0.2830(6)
H34 H 0.92402 1.01359 0.28466
H35 H 1.00145 0.90455 0.31258
H36 H 1.05687 0.94020 0.26726
C14 C 1.0426(15) 0.7593(15) 0.2557(6)
H37 H 1.01618 0.71959 0.23995
H38 H 1.11342 0.75878 0.23959
H39 H 1.05800 0.72313 0.28491
N4 N 1.0705(10) 0.0729(10) 0.0944(4)
C15 C 1.144(2) 0.116(2) 0.0638(8)
H40 H 1.10992 0.19641 0.06530
H41 H 1.22191 0.08145 0.07218
H42 H 1.14652 0.09903 0.03386
C16 C 1.0729(19) 0.0996(19) 0.1385(7)
H43 H 1.03774 0.17998 0.13987
H44 H 1.02946 0.06986 0.16012
H45 H 1.15303 0.06687 0.14484
C17 C 1.1224(15) -0.0462(14) 0.0916(6)
H46 H 1.19984 -0.08049 0.10077
H47 H 1.07442 -0.07560 0.11064
H48 H 1.12779 -0.06275 0.06131
C18 C 0.955(2) 0.128(2) 0.0811(8)
H49 H 0.92316 0.20803 0.08350
H50 H 0.95881 0.11350 0.05076
H51 H 0.90544 0.10065 0.10010
O76 O 0.3636(10) 0.3291(9) 0.4604(4)
O77 O 0.2135(10) -0.0866(10) 0.4160(4)
O78 O 0.8328(11) 0.0162(10) 0.3797(4)
O79 O 0.3352(11) 0.0262(10) 0.5112(4)
O80 O 0.8591(11) 0.9335(11) 0.0986(4)
O81 O 0.7745(12) -0.2828(12) 0.4055(5)
O82 O 0.864(3) -0.460(3) 0.4102(10)
O83 O 0.1296(11) 0.0943(11) 0.3105(4)
O84 O 0.1047(13) 0.5730(13) 0.3546(5)
O85 O 0.1433(16) 0.4329(16) 0.4304(6)
O86 O 0.0834(17) 0.7382(17) 0.4076(7)
O87 O 0.0976(17) 0.3420(17) 0.3574(7)
O88 O 0.121(2) 0.299(2) 0.3305(9)
O89 O 0.8486(17) 0.3937(17) 0.4737(7)
O90 O 0.8385(18) 0.0511(18) 0.0187(7)
O91 O -0.017(3) 0.044(3) 0.4361(10)
O92 O 0.917(3) -0.411(3) 0.4672(11)
O93 O 1.094(3) 0.255(3) 0.4669(12)
O94 O 1.077(3) 0.265(3) 0.4350(13)
O95 O -0.096(3) -0.107(3) 0.4653(12)
O96 O -0.104(5) -0.180(5) 0.4721(18)
Ce1A Ce 0.47815(6) 0.46207(6) 0.57160(2)
Ce2* Ce 0.46554(7) 1.04758(6) 0.37393(3)
O8* O 0.5663(7) -0.1460(7) 0.3504(3)
O11A O 0.4348(8) 0.6085(8) 0.5076(3)
O21A O 0.3919(8) 0.7350(8) 0.4534(3)
O26A O 0.5524(7) 0.3107(7) -0.0128(3)
Na1A Na 0.4201(5) 0.7931(4) -0.06018(18)
#END
