
#######################################################################
#
#                 Cambridge Crystallographic Data Centre
#                                CCDC
#
#######################################################################
#
# If this CIF has been generated from an entry in the Cambridge
# Structural Database, then it will include bibliographic, chemical,
# crystal, experimental, refinement or atomic coordinate data resulting
# from the CCDC's data processing and validation procedures.
#
#######################################################################

data_CSD_CIF_HOWHUY
_audit_creation_date 2015-02-23
_audit_creation_method CSD-ConQuest-V1
_database_code_CSD HOWHUY
_database_code_depnum_ccdc_archive 'CCDC 1003585'
_chemical_formula_sum 'C59 H59.5 Cl15 Cr1 Fe2 Mn1 N20.5 O13'
_chemical_formula_moiety
;
(C18 H24 Fe1 N10 2+)2n,n(C18 Cl8 Cr1 Mn1 O12 3-),0.5n(C2 H3 N1),n(C1 H4 
O1),n(Cl1 1-),3n(C1 H2 Cl2)
;
_journal_coden_Cambridge 9
_journal_volume 53
_journal_year 2014
_journal_page_first 12014
_journal_name_full 'Inorg.Chem. '
loop_
_publ_author_name
"A.Abherve"
"M.Clemente-Leon"
"E.Coronado"
"C.J.Gomez-Garcia"
"M.Verneret"
_chemical_name_systematic
;
catena-[bis((2-((1H-imidazol-4-ylmethylene)amino)-N,N-bis(2-((1H-imidazol-4-yl
methylene)amino)ethyl)ethanamine)-iron(ii)) 
tris(\m-2,5-dichloro-3,4-dioxocyclohexa-1,5-dien-1,6-diolato)-dichloro-chromiu
m(iii)-manganese(ii) chloride acetonitrile dichloromethane methanol solvate]
;
_cell_volume   4231.548
_exptl_crystal_colour 'black'
_exptl_crystal_density_diffrn 1.581
_exptl_crystal_description 'prism'
_diffrn_ambient_temperature 120
#These two values have been output from a single CSD field.
_refine_ls_R_factor_gt 0.0812
_refine_ls_wR_factor_gt 0.0812
_symmetry_cell_setting triclinic
_symmetry_space_group_name_H-M 'P -1'
_symmetry_Int_Tables_number 2
loop_
_symmetry_equiv_pos_site_id
_symmetry_equiv_pos_as_xyz
1 x,y,z
2 -x,-y,-z
_cell_length_a 13.2167(3)
_cell_length_b 16.2053(4)
_cell_length_c 20.2599(5)
_cell_angle_alpha 97.796(2)
_cell_angle_beta 97.354(2)
_cell_angle_gamma 95.928(2)
_cell_formula_units_Z 2
loop_
_atom_type_symbol
_atom_type_radius_bond
C 0.68
H 0.23
Cl 0.99
Cr 1.39
Fe 1.52
Mn 1.61
N 0.68
O 0.68
loop_
_atom_site_label
_atom_site_type_symbol
_atom_site_fract_x
_atom_site_fract_y
_atom_site_fract_z
C1 C 0.8830(5) 0.2064(4) 0.3095(3)
C2 C 0.9438(4) 0.2797(4) 0.3558(3)
C3 C 0.8999(4) 0.3249(4) 0.4045(3)
C4 C 0.7997(5) 0.2991(4) 0.4160(3)
C5 C 0.7371(5) 0.2237(4) 0.3688(3)
C6 C 0.7834(5) 0.1831(4) 0.3157(3)
C7 C 1.0658(5) 0.2079(4) 0.1270(3)
C8 C 1.0245(5) 0.2905(4) 0.1447(3)
C9 C 1.0028(5) 0.3413(4) 0.0980(3)
C10 C 1.0158(5) 0.3175(4) 0.0292(3)
C11 C 1.0493(5) 0.2294(4) 0.0098(3)
C12 C 1.0743(5) 0.1801(4) 0.0610(3)
C13 C 0.4043(4) 0.2089(4) 0.4152(3)
C14 C 0.4360(5) 0.2930(4) 0.3903(3)
C15 C 0.3655(5) 0.3241(4) 0.3442(3)
C16 C 0.2714(5) 0.2781(4) 0.3196(3)
C17 C 0.2409(5) 0.1954(4) 0.3438(3)
C18 C 0.3078(5) 0.1637(4) 0.3887(3)
O1 O 0.9330(3) 0.1704(3) 0.2655(2)
O2 O 1.0363(3) 0.2968(3) 0.3451(2)
O3 O 0.7561(3) 0.3327(3) 0.4615(2)
O4 O 0.6480(3) 0.2033(3) 0.3796(2)
O5 O 1.0900(3) 0.1694(3) 0.1771(2)
O6 O 1.0125(3) 0.3070(3) 0.2069(2)
O7 O 1.0025(4) 0.3620(3) -0.0147(2)
O8 O 1.0519(4) 0.2079(3) -0.0504(2)
O9 O 0.4680(3) 0.1877(3) 0.4578(2)
O10 O 0.5222(3) 0.3295(3) 0.4142(2)
O11 O 0.2030(3) 0.3004(3) 0.2776(2)
O12 O 0.1499(3) 0.1598(3) 0.3189(2)
Cl1 Cl 0.96750(11) 0.41287(9) 0.45444(7)
Cl2 Cl 0.71201(13) 0.10086(11) 0.25990(9)
Cl3 Cl 0.96390(16) 0.43804(12) 0.12118(9)
Cl4 Cl 1.11874(15) 0.08501(11) 0.03938(9)
Cl5 Cl 0.39594(13) 0.4207(1) 0.32089(9)
Cl6 Cl 0.27338(12) 0.07022(10) 0.41708(8)
Cl7 Cl 0.71056(12) 0.15978(10) 0.53089(8)
Cl8 Cl 0.58441(13) 0.36531(11) 0.57730(8)
Cr1 Cr 1.06957(7) 0.23038(6) 0.26383(5)
Mn1 Mn 0.61845(7) 0.26703(6) 0.48668(5)
C19 C 0.6306(5) -0.1040(4) 0.2117(4)
H1 H 0.66350 -0.07740 0.25360
C20 C 0.6059(6) -0.1643(5) 0.1063(4)
H2 H 0.61720 -0.18610 0.06340
C21 C 0.5124(6) -0.1630(5) 0.1285(4)
C22 C 0.4065(6) -0.1843(5) 0.0998(4)
H3 H 0.38620 -0.21170 0.05590
C23 C 0.2312(6) -0.1807(5) 0.1121(4)
H4 H 0.22370 -0.19440 0.06340
H5 H 0.19840 -0.13070 0.12270
C24 C 0.1775(6) -0.2526(5) 0.1402(4)
H6 H 0.10620 -0.26200 0.11950
H7 H 0.20840 -0.30290 0.12680
C25 C 0.4632(6) 0.0527(4) 0.1571(4)
H8 H 0.52460 0.03850 0.14360
C26 C 0.3313(6) 0.1203(5) 0.1713(4)
H9 H 0.28580 0.16040 0.16990
C27 C 0.3197(5) 0.0488(4) 0.2001(4)
C28 C 0.2470(5) 0.0081(5) 0.2343(4)
H10 H 0.18800 0.03140 0.24360
C29 C 0.1943(6) -0.1051(5) 0.2898(4)
H11 H 0.15130 -0.06530 0.30800
H12 H 0.23270 -0.12510 0.32730
C30 C 0.1260(6) -0.1794(5) 0.2452(4)
H13 H 0.08180 -0.20640 0.27280
H14 H 0.08210 -0.15780 0.21110
C31 C 0.5216(5) 0.0297(4) 0.3492(3)
H15 H 0.52630 0.07860 0.32980
C32 C 0.5406(5) -0.0559(4) 0.4231(3)
H16 H 0.56000 -0.07780 0.46230
C33 C 0.4844(5) -0.0976(4) 0.3655(3)
C34 C 0.4388(5) -0.1826(4) 0.3419(3)
H17 H 0.44000 -0.22420 0.36930
C35 C 0.3497(6) -0.2842(5) 0.2516(4)
H18 H 0.37990 -0.32240 0.27910
H19 H 0.36480 -0.29860 0.20620
C36 C 0.2332(6) -0.2937(5) 0.2511(4)
H20 H 0.20600 -0.35170 0.23420
H21 H 0.21940 -0.28160 0.29700
N1 N 0.5290(4) -0.1242(4) 0.1951(3)
N2 N 0.6788(5) -0.1283(4) 0.1582(3)
H22 H 0.74400 -0.12180 0.15740
N3 N 0.3414(5) -0.1629(4) 0.1391(3)
N4 N 0.4048(4) 0.0063(4) 0.1911(3)
N5 N 0.4216(5) 0.1224(4) 0.1451(3)
H23 H 0.44710 0.16110 0.12480
N6 N 0.2664(4) -0.0627(4) 0.2520(3)
N7 N 0.4737(4) -0.0438(3) 0.3187(3)
N8 N 0.5625(4) 0.0236(4) 0.4122(3)
H24 H 0.59700 0.06390 0.44090
N9 N 0.3952(4) -0.1971(3) 0.2787(3)
N10 N 0.1801(5) -0.2419(4) 0.2121(3)
Fe1 Fe 0.39879(7) -0.09967(6) 0.22942(5)
C37 C 0.7337(6) 0.4507(5) 0.2014(4)
H25 H 0.76250 0.46980 0.16580
C38 C 0.6397(6) 0.3722(5) 0.2566(4)
H26 H 0.59440 0.32980 0.26720
C39 C 0.6931(5) 0.4394(4) 0.2995(4)
C40 C 0.6958(5) 0.4668(4) 0.3696(4)
H27 H 0.65390 0.43770 0.39450
C41 C 0.7587(5) 0.5602(4) 0.4699(3)
H28 H 0.82870 0.56630 0.49290
H29 H 0.71740 0.51940 0.48930
C42 C 0.7164(5) 0.6440(5) 0.4784(3)
H30 H 0.64340 0.63570 0.46160
H31 H 0.72500 0.66670 0.52590
C43 C 0.9466(5) 0.6322(4) 0.1938(3)
H32 H 1.00750 0.60870 0.20190
C44 C 0.8214(6) 0.6882(5) 0.1418(4)
H33 H 0.77990 0.70980 0.10930
C45 C 0.8026(5) 0.6794(4) 0.2053(3)
C46 C 0.7206(5) 0.6992(5) 0.2426(3)
H34 H 0.66780 0.72680 0.22460
C47 C 0.6446(5) 0.7049(5) 0.3424(3)
H35 H 0.60190 0.65620 0.35090
H36 H 0.60080 0.73950 0.31920
C48 C 0.6995(6) 0.7543(5) 0.4085(4)
H37 H 0.73860 0.80490 0.39990
H38 H 0.64940 0.77080 0.43720
C49 C 1.0142(5) 0.4716(4) 0.3015(3)
H39 H 0.97250 0.42740 0.27370
C50 C 1.1528(5) 0.5485(4) 0.3599(3)
H40 H 1.22030 0.56720 0.37930
C51 C 1.0681(5) 0.5888(4) 0.3671(3)
C52 C 1.0531(5) 0.6698(4) 0.4033(3)
H41 H 1.10800 0.70520 0.42910
C53 C 0.9428(5) 0.7689(4) 0.4356(3)
H42 H 0.91800 0.80520 0.40450
H43 H 1.00600 0.79730 0.46240
C54 C 0.8627(6) 0.7511(5) 0.4816(3)
H44 H 0.89030 0.71920 0.51540
H45 H 0.84680 0.80370 0.50450
N11 N 0.7527(4) 0.4885(3) 0.2636(3)
N12 N 0.6668(5) 0.3803(4) 0.1954(3)
H46 H 0.64510 0.34620 0.15870
N13 N 0.7563(4) 0.5316(3) 0.3976(3)
N14 N 0.8819(4) 0.6436(3) 0.2379(3)
N15 N 0.9128(5) 0.6590(4) 0.1356(3)
H47 H 0.94380 0.65770 0.10080
N16 N 0.7218(4) 0.6782(4) 0.3006(3)
N17 N 0.9814(4) 0.5397(3) 0.3304(3)
N18 N 1.1171(4) 0.4750(4) 0.3182(3)
H48 H 1.15400 0.43710 0.30470
N19 N 0.9625(4) 0.6903(3) 0.3984(3)
N20 N 0.7685(4) 0.7037(3) 0.4423(3)
Fe2 Fe 0.84162(7) 0.60151(6) 0.33205(4)
Cl9 Cl 0.5415(2) -0.74738(16) 0.07307(12)
C55 C 0.9718(9) 0.0152(9) 0.3858(7)
H49 H 1.02660 -0.00660 0.41220
H50 H 1.00130 0.06390 0.36870
Cl10 Cl 0.9111(3) -0.0659(2) 0.31470(15)
Cl11 Cl 0.8819(3) 0.0433(2) 0.43528(17)
C56 C 0.1938(8) -0.4707(7) 0.0253(5)
H51 H 0.12600 -0.45240 0.02020
H52 H 0.18900 -0.52530 -0.00210
Cl12 Cl 0.2270(3) -0.4819(2) 0.1075(2)
Cl13 Cl 0.2775(3) -0.4004(2) -0.00597(18)
C57 C 0.693(2) 0.080(2) 0.0722(10)
H53 H 0.70990 0.04630 0.10750
H54 H 0.63180 0.10490 0.08180
Cl14 Cl 0.6668(8) 0.0243(5) 0.0109(4)
Cl15 Cl 0.8064(7) 0.1709(10) 0.0791(6)
C58 C 0.5098(15) -0.462(2) 0.1108(15)
H55 H 0.52190 -0.51890 0.09680
H56 H 0.43930 -0.45870 0.09170
Cl16 Cl 0.5031(3) -0.4587(3) 0.1916(3)
Cl17 Cl 0.5707(5) -0.4129(4) 0.0687(3)
C59 C 0.3371(15) -0.6549(10) 0.1466(7)
H57 H 0.32040 -0.70370 0.16710
H58 H 0.30350 -0.60960 0.16570
H59 H 0.41010 -0.63920 0.15470
C60 C 0.3011(12) -0.6746(10) 0.0713(9)
N21 N 0.2779(9) -0.6907(9) 0.0195(6)
C61 C 0.9328(8) -0.0124(5) 0.1506(5)
H60 H 0.92450 0.01850 0.19310
H61 H 0.90420 0.01510 0.11470
H62 H 1.00460 -0.01500 0.14860
O13 O 0.8813(4) -0.0947(3) 0.1439(3)
H63 H 0.90950 -0.12680 0.11940
O11* O 1.2030(3) 0.3004(3) 0.2776(2)
O12* O 1.1499(3) 0.1598(3) 0.3189(2)
Cr1* Cr 0.06957(7) 0.23038(6) 0.26383(5)
#END
