
#######################################################################
#
#                 Cambridge Crystallographic Data Centre
#                                CCDC
#
#######################################################################
#
# If this CIF has been generated from an entry in the Cambridge
# Structural Database, then it will include bibliographic, chemical,
# crystal, experimental, refinement or atomic coordinate data resulting
# from the CCDC's data processing and validation procedures.
#
#######################################################################

data_CSD_CIF_HOWHOS
_audit_creation_date 2015-02-23
_audit_creation_method CSD-ConQuest-V1
_database_code_CSD HOWHOS
_database_code_depnum_ccdc_archive 'CCDC 998898'
_chemical_formula_sum 'C47 H46.5 Br6 Cl4 Cr1 Fe1 Mn1 N7.5 O19'
_chemical_formula_moiety
;
(C20 H22 Cl2 Fe1 N4 O2 1+)n,n(C18 Br6 Cr1 Mn1 O12 1-),3.5n(C2 H3 N1),4n(H2 
O1),n(C1 H2 Cl2),n(C1 H4 O1)
;
_journal_coden_Cambridge 9
_journal_volume 53
_journal_year 2014
_journal_page_first 12014
_journal_name_full 'Inorg.Chem. '
loop_
_publ_author_name
"A.Abherve"
"M.Clemente-Leon"
"E.Coronado"
"C.J.Gomez-Garcia"
"M.Verneret"
_chemical_name_systematic
;
catena-[(2,2'-(2,5,8,11-tetraazadodeca-1,11-diene-1,12-diyl)bis(4-chlorophenol
ato))-iron(iii) 
tris(\m-3,6-dibromo-4,5-dioxy-1,2-benzoquinone)-chromium(iii)-manganese(ii) 
acetonitrile dichloromethane methanol solvate tetrahydrate]
;
_cell_volume   7181.358
_exptl_crystal_colour 'black'
_exptl_crystal_description 'prism'
_diffrn_ambient_temperature 120
_refine_special_details
;
O106,O109 and C3A,C4A,N2A disordered over two sites with occupancies 0.5:0.5; 
Disordered solvent molecules were not modelled and the disordered density was 
taken into account using the SQUEEZE/PLATON procedure.
;
#These two values have been output from a single CSD field.
_refine_ls_R_factor_gt 0.1618
_refine_ls_wR_factor_gt 0.1618
_symmetry_cell_setting monoclinic
_symmetry_space_group_name_H-M 'P 21/c'
_symmetry_Int_Tables_number 14
loop_
_symmetry_equiv_pos_site_id
_symmetry_equiv_pos_as_xyz
1 x,y,z
2 -x,1/2+y,1/2-z
3 -x,-y,-z
4 x,-1/2-y,-1/2+z
_cell_length_a 13.9066(8)
_cell_length_b 23.1892(9)
_cell_length_c 22.7189(13)
_cell_angle_alpha 90
_cell_angle_beta 101.422(6)
_cell_angle_gamma 90
_cell_formula_units_Z 4
loop_
_atom_type_symbol
_atom_type_radius_bond
C 0.68
H 0.23
Br 1.21
Cl 0.99
Cr 1.39
Fe 1.52
Mn 1.61
N 0.68
O 0.68
loop_
_atom_site_label
_atom_site_type_symbol
_atom_site_fract_x
_atom_site_fract_y
_atom_site_fract_z
C1 C 0.8757(18) 0.6022(10) 0.9593(10)
C2 C 0.944(2) 0.5670(13) 0.9387(12)
H1 H 0.99950 0.58320 0.92820
C3 C 0.929(2) 0.5092(12) 0.9342(13)
H2 H 0.97660 0.48620 0.92210
C4 C 0.844(2) 0.4822(12) 0.9473(11)
C5 C 0.7709(16) 0.5181(9) 0.9651(9)
H3 H 0.71260 0.50280 0.97260
C6 C 0.7914(16) 0.5781(10) 0.971(1)
C7 C 0.7110(16) 0.6086(9) 0.9905(10)
H4 H 0.65710 0.58800 0.99760
C8 C 0.6281(14) 0.6923(9) 1.0156(9)
H5 H 0.58450 0.70770 0.98040
H6 H 0.59150 0.66560 1.03560
C9 C 0.6697(17) 0.7401(11) 1.0572(12)
H7 H 0.69750 0.72410 1.09630
H8 H 0.61750 0.76630 1.06190
C10 C 0.707(2) 0.8178(10) 0.9877(10)
H9 H 0.75180 0.85040 0.99080
H10 H 0.64460 0.83140 0.99460
C11 C 0.6951(16) 0.7915(10) 0.9269(10)
H11 H 0.68940 0.82180 0.89700
H12 H 0.63510 0.76900 0.91880
C12 C 0.863(2) 0.7808(11) 0.9035(10)
H13 H 0.83970 0.81140 0.87520
H14 H 0.89870 0.75310 0.88400
C13 C 0.9327(17) 0.8065(11) 0.9607(11)
H15 H 0.99640 0.81570 0.95190
H16 H 0.90460 0.84140 0.97380
C14 C 1.0258(15) 0.7557(8) 1.0458(10)
H17 H 1.07790 0.77910 1.04080
C15 C 1.0422(16) 0.7164(8) 1.0934(8)
C16 C 1.1343(15) 0.7148(10) 1.1274(10)
H18 H 1.18200 0.73970 1.11860
C17 C 1.1591(14) 0.6756(9) 1.1764(10)
C18 C 1.0812(17) 0.6381(11) 1.1891(10)
H19 H 1.09480 0.61040 1.21920
C19 C 0.9867(18) 0.6443(9) 1.1557(11)
H20 H 0.93640 0.62300 1.16670
C20 C 0.965(2) 0.6804(10) 1.1071(10)
N1 N 0.7141(14) 0.6623(8) 0.9978(7)
N2 N 0.7482(14) 0.7729(7) 1.0337(9)
H21 H 0.79040 0.79220 1.06760
N3 N 0.7815(13) 0.7530(8) 0.9223(8)
H22 H 0.75720 0.72320 0.89240
N4 N 0.9423(12) 0.7620(7) 1.0076(8)
O1 O 0.8920(12) 0.6589(6) 0.9628(7)
O2 O 0.8736(11) 0.6817(6) 1.0777(6)
Fe1 Fe 0.8280(2) 0.71261(13) 1.00167(13)
Cl1 Cl 0.8262(7) 0.4084(3) 0.9407(4)
Cl2 Cl 1.2761(4) 0.6700(3) 1.2183(3)
C21 C 0.7244(14) 0.5876(8) 0.2734(9)
C22 C 0.7013(17) 0.5386(9) 0.304(1)
C23 C 0.7227(15) 0.4829(9) 0.2835(9)
C24 C 0.7580(15) 0.4758(9) 0.2239(9)
C25 C 0.7731(14) 0.5229(8) 0.1901(9)
C26 C 0.7549(14) 0.5805(8) 0.2112(10)
C27 C 0.5545(14) 0.3263(9) 0.2431(8)
C28 C 0.5998(14) 0.2981(9) 0.3022(9)
C29 C 0.5402(16) 0.2619(9) 0.3288(9)
C30 C 0.4479(14) 0.2482(7) 0.3013(9)
C31 C 0.3994(14) 0.2795(7) 0.2407(9)
C32 C 0.4596(16) 0.3168(10) 0.2154(9)
C33 C 1.0925(18) 0.2807(8) 0.2997(9)
C34 C 1.0412(18) 0.2436(9) 0.2421(9)
C35 C 0.9402(15) 0.2524(10) 0.2193(10)
C36 C 0.8889(13) 0.2925(8) 0.2435(8)
C37 C 0.9356(13) 0.3300(8) 0.2979(9)
C38 C 1.0351(14) 0.3242(8) 0.3184(8)
O3 O 0.7132(11) 0.4353(6) 0.3111(7)
O4 O 0.7766(11) 0.4245(6) 0.2131(7)
O5 O 0.7179(11) 0.6367(6) 0.2893(7)
O6 O 0.7663(12) 0.6243(6) 0.1843(7)
O7 O 0.6088(10) 0.3590(6) 0.2194(6)
O8 O 0.6881(11) 0.3130(6) 0.3215(7)
O9 O 0.3109(11) 0.2653(6) 0.2186(7)
O10 O 0.3927(12) 0.2137(6) 0.3209(6)
O11 O 1.1767(11) 0.2708(6) 0.3173(6)
O12 O 1.0959(9) 0.2084(6) 0.2253(6)
O13 O 0.8804(10) 0.3644(5) 0.3162(6)
O14 O 0.7958(10) 0.3025(6) 0.2253(7)
Cr1 Cr 0.7442(2) 0.36618(13) 0.26839(15)
Mn1 Mn 0.7551(2) 0.70403(13) 0.22934(15)
Br1 Br 0.6619(2) 0.54620(11) 0.37750(12)
Br2 Br 0.81011(19) 0.5142(1) 0.11704(10)
Br3 Br 0.59713(18) 0.22843(11) 0.40353(11)
Br4 Br 0.40046(19) 0.35531(11) 0.14366(11)
Br5 Br 1.09447(18) 0.37349(9) 0.38206(10)
Br6 Br 0.88211(18) 0.20787(11) 0.15251(11)
C39 C 0.405(8) 0.720(5) 0.378(5)
H23 H 0.42630 0.75910 0.37000
H24 H 0.33560 0.71840 0.36030
Cl3 Cl 0.4721(12) 0.6671(6) 0.3314(7)
Cl4 Cl 0.4139(11) 0.7155(7) 0.4389(6)
C40 C 0.044(6) 0.538(3) 0.343(3)
H25 H 0.08880 0.56960 0.34140
H26 H 0.08090 0.50720 0.36630
Cl5 Cl -0.050(2) 0.5611(15) 0.380(3)
Cl6 Cl 0.0053(19) 0.5149(14) 0.2763(11)
O15 O 0.6240(19) 0.8772(11) 0.1410(11)
O16 O 0.514(4) 0.513(2) 0.105(2)
O17 O 0.834(5) 0.619(3) 0.795(3)
C41 C 0.093(6) 0.529(4) 0.562(4)
C42 C 0.119(5) 0.494(3) 0.521(3)
N5 N 0.148(4) 0.461(3) 0.485(3)
O18 O 0.445(4) 0.887(2) 1.072(2)
O19 O 0.200(5) 0.856(3) 0.970(3)
C43? C 0.340(4) 0.896(3) 1.048(3)
C44? C 0.255(5) 0.877(3) 1.011(3)
N6? N 0.165(9) 0.878(5) 0.972(5)
O20 O 0.395(4) 0.605(2) 0.972(2)
O21 O 0.290(4) 0.853(2) 0.425(2)
C45 C 0.461(5) 0.498(3) 0.234(3)
C46 C 0.467(6) 0.554(4) 0.205(4)
N7 N 0.489(3) 0.5869(16) 0.1944(15)
O9A O 0.6891(11) 0.7653(6) 0.2814(7)
O10A O 0.6073(12) 0.7137(6) 0.1791(6)
O11A O 0.8233(11) 0.7708(6) 0.1827(6)
O12A O 0.9041(9) 0.7084(6) 0.2747(6)
Mn1A Mn 0.2449(2) 0.20403(13) 0.27066(15)
Mn1A* Mn 1.2449(2) 0.20403(13) 0.27066(15)
#END
