
#######################################################################
#
#                 Cambridge Crystallographic Data Centre
#                                CCDC
#
#######################################################################
#
# If this CIF has been generated from an entry in the Cambridge
# Structural Database, then it will include bibliographic, chemical,
# crystal, experimental, refinement or atomic coordinate data resulting
# from the CCDC's data processing and validation procedures.
#
#######################################################################

data_CSD_CIF_HOWHAE
_audit_creation_date 2015-02-23
_audit_creation_method CSD-ConQuest-V1
_database_code_CSD HOWHAE
_database_code_depnum_ccdc_archive 'CCDC 998895'
_chemical_formula_sum 'C49.5 H45 Cl7 Cr1 Fe1 Mn1 N9 O15.5'
_chemical_formula_moiety
;
(C20 H24 Fe1 N4 O2 1+)n,n(C18 Cl6 Cr1 Mn1 O12 1-),5n(C2 H3 N1),n(C1 H4 
O1),0.5n(H2 O1),0.5n(C1 H2 Cl2)
;
_journal_coden_Cambridge 9
_journal_volume 53
_journal_year 2014
_journal_page_first 12014
_journal_name_full 'Inorg.Chem. '
loop_
_publ_author_name
"A.Abherve"
"M.Clemente-Leon"
"E.Coronado"
"C.J.Gomez-Garcia"
"M.Verneret"
_chemical_name_systematic
;
catena-[(2,2'-(2,5,8,11-tetraazadodeca-1,11-diene-1,12-diyl)diphenolato)-iron(
iii) 
tris(\m-2,5-dichloro-3,4-dioxocyclohexa-1,5-dien-1,6-diolato)-chromium(iii)-ma
nganese(ii) acetonitrile dichloromethane methanol solvate hemihydrate]
;
_cell_volume   7090.097
_exptl_crystal_colour 'black'
_exptl_crystal_density_diffrn 1.33
_exptl_crystal_description 'prism'
_diffrn_ambient_temperature 120
_refine_special_details
;
C1D,Cl1D,H1D1,H1D2 disordered over two configurations with occupancies 
0.5,0.5,0.25,0.25.
;
#These two values have been output from a single CSD field.
_refine_ls_R_factor_gt 0.0935
_refine_ls_wR_factor_gt 0.0935
_symmetry_cell_setting orthorhombic
_symmetry_space_group_name_H-M 'C 2 2 21'
_symmetry_Int_Tables_number 20
loop_
_symmetry_equiv_pos_site_id
_symmetry_equiv_pos_as_xyz
1 x,y,z
2 -x,-y,1/2+z
3 x,-y,-z
4 -x,y,1/2-z
5 1/2+x,1/2+y,z
6 1/2-x,1/2-y,1/2+z
7 1/2+x,1/2-y,-z
8 1/2-x,1/2+y,1/2-z
_cell_length_a 12.9780(6)
_cell_length_b 24.8692(12)
_cell_length_c 21.9676(9)
_cell_angle_alpha 90
_cell_angle_beta 90
_cell_angle_gamma 90
_cell_formula_units_Z 4
loop_
_atom_type_symbol
_atom_type_radius_bond
C 0.68
H 0.23
Cl 0.99
Cr 1.39
Fe 1.52
Mn 1.61
N 0.68
O 0.68
loop_
_atom_site_label
_atom_site_type_symbol
_atom_site_fract_x
_atom_site_fract_y
_atom_site_fract_z
C1 C 0.1559(9) 0.3268(4) 0.7824(5)
C2 C 0.1894(9) 0.2989(4) 0.7228(5)
C3 C 0.2795(9) 0.3154(5) 0.6959(5)
C4 C 0.3406(9) 0.3563(4) 0.7207(5)
C5 C 0.3081(9) 0.3832(4) 0.7814(5)
C6 C 0.2149(9) 0.3650(5) 0.8088(5)
C7 C 0.5326(8) 0.6486(4) 0.7785(4)
C8 C 0.5637(8) 0.6003(4) 0.8048(4)
C9 C 0.5322(8) 0.5501(4) 0.7795(4)
O1 O 0.0676(7) 0.3103(3) 0.8016(4)
O2 O 0.1289(6) 0.2637(3) 0.7026(3)
O3 O 0.4227(6) 0.3743(3) 0.6990(3)
O4 O 0.3657(6) 0.4187(3) 0.8016(3)
O5 O 0.5556(6) 0.6949(3) 0.7986(3)
O6 O 0.5538(5) 0.5046(3) 0.8005(3)
Cl1 Cl 0.3206(3) 0.28439(12) 0.62841(13)
Cl2 Cl 0.1775(3) 0.39528(13) 0.87676(14)
Cl3 Cl 0.6427(2) 0.60214(12) 0.86753(12)
Cr1 Cr 0.00000 0.25529(9) 0.75000
Mn1 Mn 0.50000 0.43695(8) 0.75000
C10 C 0.1458(8) 0.0504(4) 0.6025(5)
C11 C 0.2011(8) 0.0424(5) 0.6554(5)
H1 H 0.21270 0.00740 0.66890
C12 C 0.2393(9) 0.0847(5) 0.6886(5)
H2 H 0.27570 0.07750 0.72410
C13 C 0.2255(10) 0.1379(5) 0.6709(5)
H3 H 0.25110 0.16600 0.69440
C14 C 0.1734(9) 0.1478(4) 0.6182(5)
H4 H 0.16520 0.18310 0.60510
C15 C 0.1311(9) 0.1045(4) 0.5826(5)
C16 C 0.0798(10) 0.1185(5) 0.5274(5)
H5 H 0.07640 0.15480 0.51730
C17 C -0.0097(11) 0.1026(4) 0.4335(5)
H6 H 0.02940 0.08980 0.39880
H7 H -0.01230 0.14160 0.43200
C18 C -0.1194(10) 0.0789(5) 0.4329(5)
H8 H -0.16030 0.09480 0.46520
H9 H -0.15260 0.08650 0.39430
C19 C -0.2087(9) -0.0040(5) 0.4662(5)
H10 H -0.21150 -0.04200 0.45650
H11 H -0.26810 0.01350 0.44820
N1 N 0.0376(7) 0.0846(3) 0.4903(4)
N2 N -0.1115(8) 0.0202(4) 0.4421(4)
H12 H -0.09920 0.00410 0.40200
O7 O 0.1101(6) 0.0097(3) 0.5708(3)
Fe1 Fe 0.02401(18) 0.00000 0.50000
C20 C 0.838(2) 0.50000 0.50000
H13 H 0.79340 0.49200 0.53440
Cl4 Cl 0.9089(12) 0.4438(7) 0.4832(5)
H14? H 0.79340 0.49200 0.53440
C21 C 0.536(3) 0.9812(16) 0.3377(18)
H15 H 0.55270 0.96080 0.37340
H16 H 0.52520 0.95710 0.30410
H17 H 0.47400 1.00140 0.34480
C22 C 0.629(2) 1.0217(10) 0.3221(11)
N3 N 0.6878(14) 1.0472(7) 0.3119(7)
C23 C 0.0858(14) 0.3470(7) 0.5786(8)
H18 H 0.11040 0.31200 0.59000
H19 H 0.01200 0.34630 0.57580
H20 H 0.10640 0.37280 0.60870
C24 C 0.1277(17) 0.3615(9) 0.5216(10)
N4 N 0.1688(17) 0.3744(8) 0.4713(9)
C25 C -0.191(2) 0.2435(12) 0.5726(14)
H21 H -0.16640 0.24090 0.61360
H22 H -0.23470 0.21330 0.56370
H23 H -0.23000 0.27620 0.56800
C26 C -0.110(3) 0.2439(13) 0.5335(15)
N5 N -0.041(2) 0.2474(12) 0.5017(16)
C27 C 0.481(3) 0.1836(17) 0.8636(19)
O8 O 0.438(4) 0.2246(19) 0.825(2)
O9 O 0.50000 0.134(3) 0.75000
C8C C 0.4363(8) 0.6003(4) 0.6952(4)
C9C C 0.4678(8) 0.5501(4) 0.7205(4)
O6C O 0.4462(5) 0.5046(3) 0.6995(3)
Cl3C Cl 0.3573(2) 0.60214(12) 0.63247(12)
C7C C 0.4674(8) 0.6486(4) 0.7215(4)
O5C O 0.4444(6) 0.6949(3) 0.7014(3)
C1C C -0.1559(9) 0.3268(4) 0.7176(5)
C2C C -0.1894(9) 0.2989(4) 0.7772(5)
C3C C -0.2795(9) 0.3154(5) 0.8041(5)
C4C C -0.3406(9) 0.3563(4) 0.7793(5)
C5C C -0.3081(9) 0.3832(4) 0.7186(5)
C6C C -0.2149(9) 0.3650(5) 0.6912(5)
O1C O -0.0676(7) 0.3103(3) 0.6984(4)
O2C O -0.1289(6) 0.2637(3) 0.7974(3)
O3C O -0.4227(6) 0.3743(3) 0.8010(3)
O4C O -0.3657(6) 0.4187(3) 0.6984(3)
Cl1C Cl -0.3206(3) 0.28439(12) 0.87159(13)
Cl2C Cl -0.1775(3) 0.39528(13) 0.62324(14)
O3C* O 0.5773(6) 0.3743(3) 0.8010(3)
O4C* O 0.6343(6) 0.4187(3) 0.6984(3)
O5D O 0.0556(6) 0.1949(3) 0.7986(3)
O5G O -0.0556(6) 0.1949(3) 0.7014(3)
Cr1D Cr 0.50000 0.75529(9) 0.75000
Mn1* Mn -0.50000 0.43695(8) 0.75000
C10B C 0.1458(8) -0.0504(4) 0.3975(5)
C11B C 0.2011(8) -0.0424(5) 0.3446(5)
H1B H 0.21270 -0.00740 0.33110
C12B C 0.2393(9) -0.0847(5) 0.3114(5)
H2B H 0.27570 -0.07750 0.27590
C13B C 0.2255(10) -0.1379(5) 0.3291(5)
H3B H 0.25110 -0.16600 0.30560
C14B C 0.1734(9) -0.1478(4) 0.3818(5)
H4B H 0.16520 -0.18310 0.39490
C15B C 0.1311(9) -0.1045(4) 0.4174(5)
C16B C 0.0798(10) -0.1185(5) 0.4726(5)
H5B H 0.07640 -0.15480 0.48270
C17B C -0.0097(11) -0.1026(4) 0.5665(5)
H6B H 0.02940 -0.08980 0.60120
H7B H -0.01230 -0.14160 0.56800
C18B C -0.1194(10) -0.0789(5) 0.5671(5)
H8B H -0.16030 -0.09480 0.53480
H9B H -0.15260 -0.08650 0.60570
N1B N 0.0376(7) -0.0846(3) 0.5097(4)
O7B O 0.1101(6) -0.0097(3) 0.4292(3)
C19B C -0.2087(9) 0.0040(5) 0.5338(5)
H10B H -0.21150 0.04200 0.54350
H11B H -0.26810 -0.01350 0.55180
N2B N -0.1115(8) -0.0202(4) 0.5579(4)
H12B H -0.09920 -0.00410 0.59800
H13B H 0.79340 0.50800 0.46560
Cl4B Cl 0.9089(12) 0.5562(7) 0.5168(5)
#END
