
#######################################################################
#
#                 Cambridge Crystallographic Data Centre
#                                CCDC
#
#######################################################################
#
# If this CIF has been generated from an entry in the Cambridge
# Structural Database, then it will include bibliographic, chemical,
# crystal, experimental, refinement or atomic coordinate data resulting
# from the CCDC's data processing and validation procedures.
#
#######################################################################

data_CSD_CIF_HOWHEI
_audit_creation_date 2015-02-23
_audit_creation_method CSD-ConQuest-V1
_database_code_CSD HOWHEI
_database_code_depnum_ccdc_archive 'CCDC 998896'
_chemical_formula_sum 'C38 H116 Cl6 Cr1 Fe1 Mn1 N4 O62'
_chemical_formula_moiety
;
(C20 H24 Fe1 N4 O4 1+)n,n(C18 Cl6 Cr1 Mn1 O12 1-),46n(H2 O1)
;
_journal_coden_Cambridge 9
_journal_volume 53
_journal_year 2014
_journal_page_first 12014
_journal_name_full 'Inorg.Chem. '
loop_
_publ_author_name
"A.Abherve"
"M.Clemente-Leon"
"E.Coronado"
"C.J.Gomez-Garcia"
"M.Verneret"
_chemical_name_systematic
;
catena-[(2,2'-[2,5,8,11-tetraazadodeca-1,11-diene-1,12-diyl]bis(5-hydroxypheno
lato))-iron(iii) 
tris(\m-2,5-dichloro-3,6-dioxocyclohexa-1,4-diene-1,4-diolato)-chromium(iii)-m
anganese(ii) hydrate]
;
_cell_volume  10776.748
_exptl_crystal_colour 'black'
_exptl_crystal_description 'prism'
_diffrn_ambient_temperature 120
_diffrn_special_details
;
twin

;
_refine_special_details
;
Disordered water solvent molecules were not modelled and the disordered 
density was taken into account using the SQUEEZE/PLATON procedure.
;
#These two values have been output from a single CSD field.
_refine_ls_R_factor_gt 0.1354
_refine_ls_wR_factor_gt 0.1354
_symmetry_cell_setting hexagonal
_symmetry_space_group_name_H-M 'P 61 2 2'
_symmetry_Int_Tables_number 178
loop_
_symmetry_equiv_pos_site_id
_symmetry_equiv_pos_as_xyz
1 x,y,z
2 -x,-y,1/2+z
3 -y,x-y,1/3+z
4 -x+y,-x,2/3+z
5 x-y,x,1/6+z
6 y,-x+y,5/6+z
7 x-y,-y,-z
8 -x,-x+y,2/3-z
9 y,x,1/3-z
10 -y,-x,5/6-z
11 x,x-y,1/6-z
12 -x+y,y,1/2-z
_cell_length_a 13.7059(2)
_cell_length_b 13.7059(2)
_cell_length_c 66.2433(10)
_cell_angle_alpha 90
_cell_angle_beta 90
_cell_angle_gamma 120
_cell_formula_units_Z 6
loop_
_atom_type_symbol
_atom_type_radius_bond
C 0.68
H 0.23
Cl 0.99
Cr 1.39
Fe 1.52
Mn 1.61
N 0.68
O 0.68
loop_
_atom_site_label
_atom_site_type_symbol
_atom_site_fract_x
_atom_site_fract_y
_atom_site_fract_z
C1 C 0.2325(11) 0.5232(13) 0.2401(2)
C2 C 0.2586(12) 0.6312(13) 0.2312(2)
C3 C 0.3367(12) 0.7271(13) 0.2402(2)
C4 C 0.3327(12) 1.0326(13) 0.2596(2)
C5 C 0.3996(12) 1.0950(13) 0.2410(2)
C6 C 0.2372(18) 1.1394(13) 0.2590(2)
C7 C 0.2578(11) 1.0586(13) 0.2683(2)
C8 C 0.2996(18) 1.2024(13) 0.2397(2)
C9 C 0.3779(11) 1.1733(13) 0.2316(2)
O1 O 0.1611(8) 0.4280(9) 0.23407(16)
O2 O 0.3613(7) 0.8247(8) 0.23295(15)
O3 O 0.3548(9) 0.9603(10) 0.26640(14)
O4 O 0.4652(9) 1.0624(10) 0.23363(18)
O5 O 0.1671(12) 1.1668(8) 0.26672(15)
O6 O 0.2718(10) 1.2694(9) 0.23234(14)
Cl1 Cl 0.1899(4) 0.6266(4) 0.20912(6)
Cl2 Cl 0.1886(4) 0.9914(5) 0.29009(6)
Cl3 Cl 0.4557(4) 1.2493(4) 0.21120(6)
Cr1 Cr 0.47580(16) 0.9516(3) 0.25000
Mn1 Mn 0.14271(15) 0.2854(3) 0.25000
C10 C 0.1451(13) 0.0377(14) 0.1992(2)
C11 C 0.0850(13) -0.0079(14) 0.2172(2)
H1 H 0.03990 0.01990 0.22200
C12 C 0.0887(13) -0.0904(14) 0.2280(2)
C13 C 0.1631(12) -0.1310(14) 0.2221(2)
H2 H 0.17030 -0.18400 0.22970
C14 C 0.2219(13) -0.0879(13) 0.2049(2)
H3 H 0.27080 -0.11250 0.20070
C15 C 0.2133(13) -0.0060(14) 0.1925(2)
C16 C 0.2776(13) 0.0349(14) 0.1748(2)
H4 H 0.31950 0.00100 0.17120
C17 C 0.3474(16) 0.1412(16) 0.1439(2)
H5 H 0.29460 0.11750 0.13280
H6 H 0.39050 0.10290 0.14280
C18 C 0.4243(15) 0.2649(14) 0.1431(2)
H7 H 0.48440 0.28800 0.15290
H8 H 0.45750 0.28730 0.12970
C19 C 0.4232(13) 0.4307(13) 0.1557(2)
H9 H 0.49810 0.46780 0.14980
H10 H 0.38740 0.47430 0.15240
N1 N 0.2865(11) 0.1118(13) 0.16290(18)
N2 N 0.3565(11) 0.3156(11) 0.14758(18)
H11 H 0.32620 0.32310 0.13460
O7 O 0.1370(11) 0.1156(12) 0.18990(17)
O8 O 0.0267(12) -0.1358(11) 0.2451(2)
H12 H 0.02300 -0.19620 0.24760
Fe1 Fe 0.2103(2) 0.2103(2) 0.16670
C1K C 0.2907(11) 0.5232(13) 0.2599(2)
C2K C 0.3726(12) 0.6312(13) 0.2688(2)
C3K C 0.3904(12) 0.7271(13) 0.2598(2)
O1K O 0.2669(8) 0.4280(9) 0.26593(16)
O2K O 0.4634(7) 0.8247(8) 0.26705(15)
Cl1K Cl 0.4367(4) 0.6266(4) 0.29088(6)
C4K C 0.6999(12) 1.0326(13) 0.2404(2)
C5K C 0.6954(12) 1.0950(13) 0.2590(2)
C6K C 0.9022(18) 1.1394(13) 0.2410(2)
C7K C 0.8008(11) 1.0586(13) 0.2317(2)
C8K C 0.9028(18) 1.2024(13) 0.2603(2)
C9K C 0.7954(11) 1.1733(13) 0.2684(2)
O3K O 0.6055(9) 0.9603(10) 0.23360(14)
O4K O 0.5972(9) 1.0624(10) 0.26637(18)
O5K O 0.9997(12) 1.1668(8) 0.23328(15)
O6K O 0.9976(10) 1.2694(9) 0.26766(14)
Cl2K Cl 0.8028(4) 0.9914(5) 0.20991(6)
Cl3K Cl 0.7936(4) 1.2493(4) 0.28880(6)
O5* O 0.1671(12) 0.1668(8) 0.26672(15)
O5K* O -0.0003(12) 0.1668(8) 0.23328(15)
O6* O 0.2718(10) 0.2694(9) 0.23234(14)
O6K* O -0.0024(10) 0.2694(9) 0.26766(14)
Mn1* Mn 0.14271(15) 1.2854(3) 0.25000
Mn1** Mn 1.14271(15) 1.2854(3) 0.25000
C10H C 0.0377(13) 0.1451(14) 0.134133(200)
C11H C -0.0079(13) 0.0850(14) 0.116133(200)
H1H H 0.01990 0.03990 0.11133
C12H C -0.0904(13) 0.0887(14) 0.105333(200)
C13H C -0.1310(12) 0.1631(14) 0.111233(200)
H2H H -0.18400 0.17030 0.10363
C14H C -0.0879(13) 0.2219(13) 0.128433(200)
H3H H -0.11250 0.27080 0.13263
C15H C -0.0060(13) 0.2133(14) 0.140833(200)
C16H C 0.0349(13) 0.2776(14) 0.158533(200)
H4H H 0.00100 0.31950 0.16213
C17H C 0.1412(16) 0.3474(16) 0.189433(200)
H5H H 0.11750 0.29460 0.20053
H6H H 0.10290 0.39050 0.19053
C18H C 0.2649(15) 0.4243(14) 0.190233(200)
H7H H 0.28800 0.48440 0.18043
H8H H 0.28730 0.45750 0.20363
N1H N 0.1118(11) 0.2865(13) 0.170433(180)
O7H O 0.1156(11) 0.1370(12) 0.143433(170)
O8H O -0.1358(12) 0.0267(11) 0.088233(200)
H12H H -0.19620 0.02300 0.08573
C19H C 0.4307(13) 0.4232(13) 0.177633(200)
H9H H 0.46780 0.49810 0.18353
H10H H 0.47430 0.38740 0.18093
N2H N 0.3156(11) 0.3565(11) 0.185753(180)
H11H H 0.32310 0.32620 0.19873
#END
