
#######################################################################
#
#                 Cambridge Crystallographic Data Centre
#                                CCDC
#
#######################################################################
#
# If this CIF has been generated from an entry in the Cambridge
# Structural Database, then it will include bibliographic, chemical,
# crystal, experimental, refinement or atomic coordinate data resulting
# from the CCDC's data processing and validation procedures.
#
#######################################################################

data_CSD_CIF_HOWJAG
_audit_creation_date 2015-02-23
_audit_creation_method CSD-ConQuest-V1
_database_code_CSD HOWJAG
_database_code_depnum_ccdc_archive 'CCDC 1004948'
_chemical_formula_sum 'C58 H57.5 Cl13 Cr1 Fe2 Mn1 N20.5 O13'
_chemical_formula_moiety
;
(C18 H24 Fe1 N10 2+)2n,n(C18 Cl8 Cr1 Mn1 O12 3-),0.5n(C2 H3 N1),n(C1 H4 
O1),n(Cl1 1-),2n(C1 H2 Cl2)
;
_journal_coden_Cambridge 9
_journal_volume 53
_journal_year 2014
_journal_page_first 12014
_journal_name_full 'Inorg.Chem. '
loop_
_publ_author_name
"A.Abherve"
"M.Clemente-Leon"
"E.Coronado"
"C.J.Gomez-Garcia"
"M.Verneret"
_chemical_name_systematic
;
catena-[bis((2-((1H-imidazol-4-ylmethylene)amino)-N,N-bis(2-((1H-imidazol-4-yl
methylene)amino)ethyl)ethanamine)-iron(ii)) 
tris(\m-2,5-dichloro-3,4-dioxocyclohexa-1,5-dien-1,6-diolato)-dichloro-chromiu
m(iii)-manganese(ii) chloride acetonitrile dichloromethane methanol solvate]
;
_cell_volume   4347.860
_exptl_crystal_colour 'black'
_exptl_crystal_density_diffrn 1.472
_exptl_special_details
;
Magnetic properties
Heat-sensitive

;
_exptl_crystal_description 'prism'
_diffrn_ambient_temperature 220
_refine_special_details
;
C101,Cl12,Cl13 and C105,Cl22,Cl23 disordered over two sites with occupancies 
0.25:0.25; C102,Cl14,Cl15 and C115,Cl24,Cl25 disordered over two sites with 
occupancies 0.25:0.25.
;
#These two values have been output from a single CSD field.
_refine_ls_R_factor_gt 0.1101
_refine_ls_wR_factor_gt 0.1101
_symmetry_cell_setting triclinic
_symmetry_space_group_name_H-M 'P -1'
_symmetry_Int_Tables_number 2
loop_
_symmetry_equiv_pos_site_id
_symmetry_equiv_pos_as_xyz
1 x,y,z
2 -x,-y,-z
_cell_length_a 13.2687(6)
_cell_length_b 16.5753(4)
_cell_length_c 20.3252(7)
_cell_angle_alpha 98.056(3)
_cell_angle_beta 98.056(3)
_cell_angle_gamma 95.922(3)
_cell_formula_units_Z 2
loop_
_atom_type_symbol
_atom_type_radius_bond
C 0.68
H 0.23
Cl 0.99
Cr 1.39
Fe 1.52
Mn 1.61
N 0.68
O 0.68
loop_
_atom_site_label
_atom_site_type_symbol
_atom_site_fract_x
_atom_site_fract_y
_atom_site_fract_z
C1 C 0.7376(7) 0.2009(5) 0.8411(4)
C2 C 0.7684(7) 0.2807(5) 0.8184(4)
C3 C 0.8601(8) 0.3241(5) 0.8428(5)
C4 C 0.9327(8) 0.2946(5) 0.8859(5)
C5 C 0.9009(8) 0.2114(5) 0.9111(4)
C6 C 0.8046(7) 0.1705(5) 0.8850(4)
C7 C 1.2383(7) 0.2247(5) 0.8658(4)
C8 C 1.2991(7) 0.3012(5) 0.9133(5)
C9 C 1.3975(7) 0.3267(5) 0.9026(4)
C10 C 1.4404(8) 0.2835(5) 0.8518(4)
C11 C 1.3809(8) 0.2103(5) 0.8061(4)
C12 C 1.2819(7) 0.1851(6) 0.8123(4)
C13 C 0.5184(8) 0.2904(6) 0.6410(5)
C14 C 0.4968(8) 0.3372(6) 0.5918(5)
C15 C 0.5131(8) 0.3131(6) 0.5269(5)
C16 C 0.5486(8) 0.2299(6) 0.5080(5)
C17 C 0.5742(8) 0.1832(6) 0.5592(5)
C18 C 0.5630(7) 0.2107(6) 0.6244(5)
O1 O 0.6460(5) 0.1674(4) 0.8175(3)
O2 O 0.6995(5) 0.3037(4) 0.7761(3)
O3 O 0.9680(5) 0.1899(4) 0.9522(3)
O4 O 1.0225(5) 0.3286(4) 0.9083(3)
O5 O 1.1502(5) 0.2029(4) 0.8780(3)
O6 O 1.2562(5) 0.3339(4) 0.9594(3)
O7 O 1.4315(5) 0.1752(4) 0.7624(3)
O8 O 1.5322(5) 0.3021(4) 0.8411(3)
O9 O 0.5882(5) 0.1733(4) 0.6757(3)
O10 O 0.5079(5) 0.3089(4) 0.7031(3)
O11 O 0.5551(7) 0.2061(4) 0.4475(4)
O12 O 0.5018(6) 0.3551(4) 0.4818(3)
Cl1 Cl 0.76880(19) 0.07844(14) 0.91290(12)
Cl2 Cl 0.8937(2) 0.42029(16) 0.81984(16)
Cl3 Cl 1.2123(2) 0.10105(16) 0.75941(13)
Cl4 Cl 1.46451(18) 0.41478(13) 0.95153(11)
Cl5 Cl 0.6182(3) 0.08777(17) 0.53917(13)
Cl6 Cl 0.4538(3) 0.43103(19) 0.61385(15)
Cl7 Cl 1.2135(2) 0.16597(15) 1.03063(12)
Cl8 Cl 1.0831(2) 0.36573(16) 1.07164(13)
Cr1 Cr 0.56588(12) 0.23497(9) 0.76090(7)
Mn1 Mn 1.11842(11) 0.26793(9) 0.98266(7)
C19 C 0.5116(8) 0.4737(6) 0.7983(5)
H1 H 0.47020 0.43100 0.76920
C20 C 0.6503(9) 0.5489(6) 0.8596(5)
H2 H 0.71710 0.56760 0.88070
C21 C 0.5647(7) 0.5869(6) 0.8649(4)
C22 C 0.5509(8) 0.6640(6) 0.9029(5)
H3 H 0.60590 0.69740 0.93020
C23 C 0.4392(9) 0.7631(7) 0.9369(5)
H4 H 0.41120 0.79770 0.90600
H5 H 0.50220 0.79270 0.96310
C24 C 0.3624(8) 0.7436(7) 0.9837(5)
H6 H 0.39110 0.71080 1.01590
H7 H 0.34680 0.79410 1.00830
C25 C 0.4335(8) 0.6302(6) 0.6888(5)
H8 H 0.49210 0.60400 0.69400
C26 C 0.315(1) 0.6918(7) 0.6438(6)
H9 H 0.27440 0.71610 0.61300
C27 C 0.2967(9) 0.6804(6) 0.7065(5)
C28 C 0.2192(10) 0.7008(7) 0.7459(6)
H10 H 0.16870 0.73120 0.72990
C29 C 0.1439(9) 0.7023(7) 0.8449(5)
H11 H 0.10060 0.65400 0.85120
H12 H 0.10060 0.73770 0.82330
C30 C 0.1977(10) 0.7465(7) 0.9116(6)
H13 H 0.23370 0.79830 0.90570
H14 H 0.14750 0.75840 0.94080
C31 C 0.2256(9) 0.4479(7) 0.6986(6)
H15 H 0.25300 0.46580 0.66270
C32 C 0.1348(10) 0.3717(8) 0.7550(7)
H16 H 0.09090 0.32970 0.76550
C33 C 0.1902(9) 0.4410(7) 0.8000(5)
C34 C 0.1959(8) 0.4662(6) 0.8680(5)
H17 H 0.15580 0.43690 0.89280
C35 C 0.2585(9) 0.5567(6) 0.9681(5)
H18 H 0.32840 0.56230 0.99140
H19 H 0.21710 0.51670 0.98690
C36 C 0.2162(9) 0.6404(6) 0.9776(6)
H20 H 0.14350 0.63290 0.96000
H21 H 0.22490 0.66220 1.02510
N1 N 0.4794(6) 0.5387(5) 0.8281(4)
N2 N 0.6163(6) 0.4775(5) 0.8163(4)
H22 H 0.65380 0.44120 0.80270
N3 N 0.4617(7) 0.6845(5) 0.8978(4)
N4 N 0.3733(6) 0.6398(5) 0.7341(4)
N5 N 0.4020(7) 0.6616(5) 0.6352(4)
H23 H 0.43220 0.66260 0.60050
N6 N 0.2194(6) 0.6777(5) 0.8021(4)
N7 N 0.2465(6) 0.4862(5) 0.7617(4)
N8 N 0.1596(8) 0.3801(6) 0.6938(6)
H24 H 0.13630 0.34660 0.65730
N9 N 0.2557(6) 0.5291(5) 0.8964(4)
N10 N 0.2699(7) 0.6986(5) 0.9428(4)
Fe1 Fe 0.33715(11) 0.59809(8) 0.83034(7)
C37 C 0.1301(9) 0.8961(6) 0.7047(6)
H25 H 0.16480 0.92130 0.74670
C38 C 0.0993(11) 0.8411(8) 0.5995(7)
H26 H 0.10680 0.82080 0.55560
C39 C 0.0111(9) 0.8395(7) 0.6244(6)
C40 C -0.0976(11) 0.8131(8) 0.5940(7)
H27 H -0.11550 0.78770 0.54950
C41 C -0.2721(10) 0.7990(8) 0.6046(7)
H28 H -0.27930 0.77310 0.55800
H29 H -0.30930 0.84650 0.60580
C42 C -0.3180(9) 0.7402(7) 0.6444(5)
H30 H -0.39010 0.72470 0.62650
H31 H -0.28430 0.69090 0.64060
C43 C -0.0406(9) 1.0556(7) 0.6583(6)
H32 H 0.02000 1.04100 0.64470
C44 C -0.1711(11) 1.1234(8) 0.6735(6)
H33 H -0.21540 1.16330 0.67230
C45 C -0.1859(9) 1.0524(7) 0.7008(6)
C46 C -0.2596(10) 1.0158(8) 0.7312(6)
H34 H -0.31680 1.04150 0.73920
C47 C -0.3296(11) 0.9082(8) 0.7773(7)
H35 H -0.38040 0.94550 0.78380
H36 H -0.30200 0.89560 0.82090
C48 C -0.3807(11) 0.8288(8) 0.7311(7)
H37 H -0.42970 0.80020 0.75380
H38 H -0.41790 0.84260 0.69050
C49 C 0.0270(8) 1.0290(6) 0.8565(5)
H39 H 0.03110 1.07650 0.83700
C50 C 0.0476(8) 0.9444(7) 0.9292(5)
H40 H 0.06640 0.92220 0.96800
C51 C -0.0083(8) 0.9057(6) 0.8703(5)
C52 C -0.0585(7) 0.8200(6) 0.8505(5)
H41 H -0.05530 0.78200 0.88010
C53 C -0.1618(9) 0.7166(7) 0.7694(6)
H42 H -0.14260 0.68250 0.80310
H43 H -0.14350 0.69230 0.72710
C54 C -0.2763(9) 0.7216(7) 0.7614(6)
H44 H -0.31310 0.66700 0.74600
H45 H -0.29450 0.74170 0.80480
N11 N 0.0291(7) 0.8735(5) 0.6906(4)
N12 N 0.1757(8) 0.8775(6) 0.6495(5)
H46 H 0.23990 0.88690 0.64680
N13 N -0.1633(8) 0.8262(6) 0.6302(4)
N14 N -0.0997(7) 1.0111(5) 0.6897(4)
N15 N -0.0802(9) 1.1254(6) 0.6485(5)
H47 H -0.05340 1.16410 0.62990
N16 N -0.2490(7) 0.9469(6) 0.7483(5)
N17 N -0.0234(6) 0.9560(5) 0.8260(4)
N18 N 0.0702(6) 1.0238(5) 0.9187(4)
H48 H 0.10600 1.06310 0.94720
N19 N -0.1063(6) 0.8017(5) 0.7906(4)
N20 N -0.3072(8) 0.7758(6) 0.7136(5)
Fe2 Fe -0.11160(12) 0.89615(9) 0.73005(7)
C55 C 0.688(2) 0.5230(18) 0.5386(14)
H49 H 0.68200 0.46770 0.51400
H50 H 0.62240 0.54290 0.52950
Cl9 Cl 0.7143(9) 0.5176(6) 0.6261(7)
Cl10 Cl 0.7799(8) 0.5857(7) 0.5060(5)
C56 C 0.4324(11) 0.9901(8) 0.6511(7)
H51 H 0.48320 0.99420 0.69050
H52 H 0.38700 1.03080 0.65840
H53 H 0.46560 0.99890 0.61330
O13 O 0.3755(7) 0.9109(5) 0.6382(4)
H54 H 0.39620 0.88420 0.66720
C57 C 0.827(2) 0.3478(18) 0.6392(15)
H55 H 0.79150 0.30790 0.66040
H56 H 0.81580 0.40190 0.65790
H57 H 0.89940 0.34330 0.64670
C58 C 0.794(2) 0.3347(19) 0.5757(18)
N21 N 0.783(2) 0.3221(18) 0.5256(16)
Cl11 Cl 0.0352(4) 0.2505(3) 0.57502(19)
C59 C 0.200(6) 0.102(4) 0.574(3)
Cl12 Cl 0.1888(17) 0.0357(12) 0.5028(10)
Cl13 Cl 0.2914(14) 0.1838(11) 0.5851(9)
C60? C 0.213(4) 0.090(4) 0.572(3)
Cl14? Cl 0.3240(15) 0.1204(12) 0.5465(9)
Cl15? Cl 0.1392(18) 0.0134(13) 0.5223(10)
C61 C 0.990(3) 0.607(2) 0.6347(15)
H58 H 0.91770 0.60440 0.61680
H59 H 1.01320 0.66320 0.65530
Cl16 Cl 0.9973(13) 0.5484(10) 0.6984(8)
Cl17 Cl 1.051(2) 0.5872(18) 0.5697(15)
C62 C 0.450(4) 1.009(3) 0.866(2)
Cl18 Cl 0.3797(10) 1.0496(8) 0.9340(6)
Cl19 Cl 0.4017(11) 0.9237(8) 0.8153(7)
C63? C 0.367(4) 0.996(3) 0.904(3)
Cl20? Cl 0.4727(17) 1.0631(14) 0.9051(11)
Cl21? Cl 0.3692(18) 0.9308(14) 0.8309(11)
O7* O 0.4315(5) 0.1752(4) 0.7624(3)
O8* O 0.5322(5) 0.3021(4) 0.8411(3)
Cr1* Cr 1.56588(12) 0.23497(9) 0.76090(7)
#END
