
#######################################################################
#
#                 Cambridge Crystallographic Data Centre
#                                CCDC
#
#######################################################################
#
# If this CIF has been generated from an entry in the Cambridge
# Structural Database, then it will include bibliographic, chemical,
# crystal, experimental, refinement or atomic coordinate data resulting
# from the CCDC's data processing and validation procedures.
#
#######################################################################

data_CSD_CIF_HOXLUC
_audit_creation_date 2009-10-28
_audit_creation_method CSD-ConQuest-V1
_database_code_CSD HOXLUC
_database_code_depnum_ccdc_archive 'CCDC 613528'
_chemical_formula_sum 'C36 H48 Cu4 N2 O33 S9'
_chemical_formula_moiety
;
(C12 H14 N2 2+)n,n(C24 H16 Cu4 O24 S9 2-),9n(H2 O1)
;
_journal_coden_Cambridge 1147
_journal_volume 9
_journal_year 2009
_journal_page_first 1584
_journal_name_full 'Cryst.Growth Des. '
loop_
_publ_author_name
"Mingyan Wu"
"Wei Wei"
"Qiang Gao"
"Daqiang Yuan"
"Yougui Huang"
"Feilong Jaing"
"Maochun Hong"
_chemical_name_systematic
;
catena-(1,1'-Dimethyl-4,4'-bipyridinium 
(\m~8~-5,11,17,23-tetrasulfonato-25,26,27,28-tetraoxy-2,8,14,20-tetrathiacalix
(4)arene)-(\m~4~-sulfato)-tetra-aqua-tetra-copper(ii) nonahydrate)
;
_chemical_name_common
;
catena-(Methylviologen 
(mu!8$-5,11,17,23-tetrasulfonato-25,26,27,28-tetraoxy-2,8,14,20-tetrathiacalix
(4)arene)-(mu!4$-sulfato)-tetra-aqua-tetra-copper(ii) nonahydrate)
;
_cell_volume   2808.559
_exptl_crystal_colour 'orange'
_exptl_crystal_density_diffrn 1.868
_exptl_special_details
;
cone conformation

;
_exptl_crystal_description 'prism'
_diffrn_ambient_temperature 173
_refine_special_details
;
A water molecule is disordered over two sites with occupancies 0.553:0.447.

;
#These two values have been output from a single CSD field.
_refine_ls_R_factor_gt 0.0461
_refine_ls_wR_factor_gt 0.0461
_symmetry_cell_setting triclinic
_symmetry_space_group_name_H-M 'P -1'
_symmetry_Int_Tables_number 2
loop_
_symmetry_equiv_pos_site_id
_symmetry_equiv_pos_as_xyz
1 x,y,z
2 -x,-y,-z
_cell_length_a 13.7598(8)
_cell_length_b 14.4813(10)
_cell_length_c 14.6317(10)
_cell_angle_alpha 104.327(4)
_cell_angle_beta 90.613(4)
_cell_angle_gamma 95.779(2)
_cell_formula_units_Z 2
loop_
_atom_type_symbol
_atom_type_radius_bond
C 0.68
H 0.23
Cu 1.32
N 0.68
O 0.77
S 1.02
loop_
_atom_site_label
_atom_site_type_symbol
_atom_site_fract_x
_atom_site_fract_y
_atom_site_fract_z
Cu1 Cu 0.96480(3) 0.69870(3) 0.32144(3)
Cu2 Cu 0.80546(3) 0.69151(3) 0.10946(3)
Cu3 Cu 0.58054(3) 0.67656(3) 0.24447(3)
Cu4 Cu 0.72583(3) 0.68646(3) 0.42822(3)
S1 S 1.04137(6) 0.55664(6) 0.28814(6)
S2 S 0.79207(6) 0.54791(6) -0.01290(6)
S3 S 0.46277(6) 0.51892(6) 0.19859(6)
S4 S 0.71553(6) 0.55413(6) 0.50216(6)
S5 S 0.93580(7) 0.25201(6) 0.43855(6)
S6 S 0.98244(6) 0.23681(6) -0.00409(6)
S7 S 0.53280(6) 0.22836(6) -0.10428(6)
S8 S 0.44264(6) 0.24141(6) 0.39427(6)
S9 S 0.80721(6) 0.83464(6) 0.31704(6)
O1 O 0.86572(17) 0.63051(17) 0.38219(18)
O2 O 0.8571(2) 0.1878(2) 0.3831(2)
O3 O 0.9306(2) 0.2557(2) 0.53813(19)
O4 O 1.0314(2) 0.2323(2) 0.3996(2)
O5 O 0.89788(18) 0.63369(17) 0.17193(17)
O6 O 0.9570(2) 0.1823(2) 0.0652(2)
O7 O 1.0862(2) 0.2384(2) -0.0214(2)
O8 O 0.9205(2) 0.20645(19) -0.0894(2)
O9 O 0.65997(17) 0.60882(17) 0.14868(17)
O10 O 0.6138(2) 0.2026(2) -0.1634(2)
O11 O 0.44452(18) 0.23726(18) -0.16008(18)
O12 O 0.5047(2) 0.1654(2) -0.0444(2)
O13 O 0.63097(17) 0.60626(17) 0.33724(17)
O14 O 0.3530(2) 0.2165(2) 0.33595(19)
O15 O 0.4219(2) 0.2582(2) 0.49463(18)
O16 O 0.5147(2) 0.1747(2) 0.3671(2)
O17 O 0.72314(18) 0.77237(19) 0.34073(19)
O18 O 0.89769(18) 0.81437(17) 0.36068(19)
O19 O 0.8136(2) 0.81135(19) 0.21325(19)
O20 O 0.7942(2) 0.93496(19) 0.3525(2)
O21 O 1.06958(18) 0.7701(2) 0.26843(19)
O22 O 0.7150(2) 0.7507(2) 0.0428(2)
O23 O 0.49968(19) 0.7488(2) 0.33894(18)
O24 O 0.79080(18) 0.78325(18) 0.53527(18)
C1 C 0.8818(2) 0.5472(2) 0.3966(2)
C2 C 0.8193(2) 0.4992(2) 0.4505(2)
C3 C 0.8374(2) 0.4118(3) 0.4649(2)
H1 H 0.79440 0.38150 0.50170
C4 C 0.9183(2) 0.3674(2) 0.4259(2)
C5 C 0.9818(2) 0.4134(2) 0.3745(2)
H2 H 1.03800 0.38460 0.34930
C6 C 0.9639(2) 0.5010(2) 0.3598(2)
C7 C 0.9194(2) 0.5466(2) 0.1320(2)
C8 C 0.9855(2) 0.4995(2) 0.1748(2)
C9 C 1.0053(2) 0.4068(2) 0.1329(2)
H3 H 1.04990 0.37710 0.16330
C10 C 0.9605(2) 0.3569(2) 0.0469(2)
C11 C 0.8969(2) 0.4012(2) 0.0021(2)
H4 H 0.86670 0.36800 -0.05720
C12 C 0.8774(2) 0.4932(2) 0.0435(2)
C13 C 0.6283(2) 0.5263(2) 0.0920(2)
C14 C 0.6810(2) 0.4862(2) 0.0124(2)
C15 C 0.6514(2) 0.3967(2) -0.0477(2)
H5 H 0.68870 0.37220 -0.10090
C16 C 0.5677(2) 0.3434(2) -0.0301(2)
C17 C 0.5117(2) 0.3816(2) 0.0468(2)
H6 H 0.45380 0.34570 0.05880
C18 C 0.5404(2) 0.4711(2) 0.1053(2)
C19 C 0.5868(2) 0.5260(2) 0.3510(2)
C20 C 0.5070(2) 0.4749(2) 0.2926(2)
C21 C 0.4619(2) 0.3893(3) 0.3068(2)
H7 H 0.40830 0.35560 0.26670
C22 C 0.4948(3) 0.3529(2) 0.3792(2)
C23 C 0.5726(2) 0.4028(3) 0.4395(2)
H8 H 0.59430 0.37900 0.49020
C24 C 0.61741(8) 0.48707(8) 0.42425(8)
H9 H 1.06770 0.77650 0.20330
H10 H 1.12240 0.77850 0.28370
H11 H 0.66890 0.76210 0.07450
H12 H 0.69940 0.76300 -0.01150
H13 H 0.45100 0.77660 0.34920
H14 H 0.51780 0.74250 0.39310
H15 H 0.84560 0.76580 0.54740
H16 H 0.75580 0.77560 0.57810
O25 O 1.10503(8) 0.23522(8) 0.21662(8)
O26 O 0.68533(8) 0.19412(8) 0.48901(8)
N1 N 0.10263(8) 0.00392(8) 0.32071(8)
C25 C 0.17833(8) -0.00026(8) 0.14941(8)
O27 O 1.25733(8) 0.76623(8) 0.31071(8)
C26 C 0.18183(8) 0.03632(8) -0.01048(8)
H17 H 0.12500 0.06860 0.00390
C27 C 0.21873(8) -0.00367(8) 0.05511(8)
N2 N 0.29753(8) -0.01697(8) -0.11979(8)
C28 C 0.22003(8) 0.03283(8) -0.09209(8)
H18 H 0.19300 0.06590 -0.13320
C29 C 0.23893(8) -0.00148(8) 0.22401(8)
H19 H 0.30740 -0.00190 0.21640
C30 C 0.04303(8) 0.01172(8) 0.25401(8)
H20 H -0.02410 0.01850 0.26530
C31 C 0.07943(8) 0.00992(8) 0.16781(8)
H21 H 0.03680 0.01570 0.11850
C32 C 0.20003(8) -0.00206(8) 0.30911(8)
H22 H 0.24080 -0.00660 0.36030
C33 C 0.06243(8) 0.00123(8) 0.41270(8)
H23 H 0.03510 0.06160 0.44000
H24 H 0.11450 -0.00740 0.45510
H25 H 0.01080 -0.05230 0.40440
O28 O 0.45723(8) 0.15754(8) 0.14591(8)
O29 O 0.70949(8) 0.74760(8) -0.13626(8)
O30 O 0.48929(8) 0.93859(8) 0.36924(8)
O31 O 0.66529(8) 0.99820(8) 0.49654(8)
C34 C 0.29319(8) -0.05361(8) 0.02433(8)
H26 H 0.31720 -0.08900 0.06480
C35 C 0.33859(8) -0.05941(8) -0.05865(8)
H27 H 0.39570 -0.09130 -0.07280
C36 C 0.34639(8) -0.01821(8) -0.21186(8)
H28 H 0.41030 -0.04240 -0.21060
H29 H 0.35520 0.04700 -0.22080
H30 H 0.30540 -0.06000 -0.26400
O32 O 0.80789(8) 0.20408(8) 0.19684(8)
O33 O 0.64508(8) 0.27516(8) 0.18627(8)
O34? O 0.73598(8) 0.33647(8) 0.20167(8)
Cu1A Cu 1.03520(3) 0.30130(3) 0.67856(3)
Cu2A Cu 1.19454(3) 0.30849(3) -0.10946(3)
Cu3A Cu 0.41946(3) 0.32344(3) -0.24447(3)
Cu4A Cu 0.27417(3) 0.31354(3) 0.57178(3)
O3A O 1.0694(2) 0.7443(2) 0.46187(19)
O7A O 0.9138(2) 0.7616(2) 0.0214(2)
O11A O 0.55548(18) 0.76274(18) 0.16008(18)
O15A O 0.5781(2) 0.7418(2) 0.50537(18)
#END
