
#######################################################################
#
#                 Cambridge Crystallographic Data Centre
#                                CCDC
#
#######################################################################
#
# If this CIF has been generated from an entry in the Cambridge
# Structural Database, then it will include bibliographic, chemical,
# crystal, experimental, refinement or atomic coordinate data resulting
# from the CCDC's data processing and validation procedures.
#
#######################################################################

data_CSD_CIF_HOXXOK
_audit_creation_date 2019-11-24
_audit_creation_method CSD-ConQuest-V1
_database_code_CSD HOXXOK
_database_code_depnum_ccdc_archive 'CCDC 1836884'
_chemical_formula_sum 'C8 H16 Cr1 N2 Na1 O12'
_chemical_formula_moiety
;
(C6 H6 Cr1 Na1 O12 2-)n,C2 H10 N2 2+
;
_journal_coden_Cambridge 1326
_journal_volume 21
_journal_year 2019
_journal_page_first 7965
_journal_name_full 'Phys.Chem.Chem.Phys.(PCCP) '
loop_
_publ_author_name
"M.Ptak"
"B.Dziuk"
"D.Stefanska"
"K.Hermanowicz"
_chemical_name_systematic
;
catena-[ethane-1,2-diaminium 
tetrakis(\m-formato)-bis(formato)-chromium-sodium]
;
_cell_volume    396.996
_exptl_crystal_colour 'slightly purple'
_exptl_crystal_density_diffrn 1.703
_exptl_crystal_description 'plate'
_diffrn_ambient_temperature 293
#These two values have been output from a single CSD field.
_refine_ls_R_factor_gt 0.042
_refine_ls_wR_factor_gt 0.042
_symmetry_cell_setting triclinic
_symmetry_space_group_name_H-M 'P -1'
_symmetry_Int_Tables_number 2
loop_
_symmetry_equiv_pos_site_id
_symmetry_equiv_pos_as_xyz
1 x,y,z
2 -x,-y,-z
_cell_length_a 6.5779(3)
_cell_length_b 7.9856(4)
_cell_length_c 8.1362(3)
_cell_angle_alpha 94.930(4)
_cell_angle_beta 91.663(4)
_cell_angle_gamma 110.889(5)
_cell_formula_units_Z 1
loop_
_atom_type_symbol
_atom_type_radius_bond
C 0.68
H 0.23
Cr 1.39
N 0.68
Na 1.66
O 0.68
loop_
_atom_site_label
_atom_site_type_symbol
_atom_site_fract_x
_atom_site_fract_y
_atom_site_fract_z
Cr1 Cr 0.50000 0.50000 1.00000
O1 O 0.6385(3) 0.4640(3) 0.7952(2)
C1 C 0.7349(5) 0.5865(4) 0.7035(4)
H1 H 0.74900 0.70410 0.73970
Na1 Na 0.00000 1.00000 1.00000
C2 C 0.1418(6) 0.2595(5) 0.7780(4)
H2 H 0.19220 0.34810 0.70640
O2 O 0.3836(3) 0.6587(3) 0.8867(3)
C3 C 0.3047(6) 0.7679(5) 0.9486(4)
H3 H 0.29980 0.77740 1.06300
O3 O 0.8098(4) 0.5620(3) 0.5726(3)
O4 O 0.2328(4) 0.8642(3) 0.8746(3)
O5 O 0.2401(3) 0.2869(3) 0.9207(2)
O6 O -0.0159(4) 0.1227(3) 0.7292(3)
N1 N 0.7453(4) 0.2032(3) 0.4714(3)
H4 H 0.75960 0.18090 0.36410
H5 H 0.83970 0.17170 0.53020
H6 H 0.77180 0.32020 0.49550
C4 C 0.5203(5) 0.0978(4) 0.5121(4)
H7 H 0.41670 0.12470 0.44170
H8 H 0.49970 0.13160 0.62600
C2A C -0.1418(6) 0.7405(5) 1.2220(4)
H2A H -0.19220 0.65190 1.29360
O5A O -0.2401(3) 0.7131(3) 1.0793(2)
O6A O 0.0159(4) 0.8773(3) 1.2708(3)
O1A O 0.3615(3) 0.5360(3) 1.2048(2)
C1A C 0.2651(5) 0.4135(4) 1.2965(4)
H1A H 0.25100 0.29590 1.26030
O3A O 0.1902(4) 0.4380(3) 1.4274(3)
O2A O 0.6164(3) 0.3413(3) 1.1133(3)
C3A C 0.6953(6) 0.2321(5) 1.0514(4)
H3A H 0.70020 0.22260 0.93700
O4A O 0.7672(4) 0.1358(3) 1.1254(3)
Cr1* Cr -0.50000 0.50000 1.00000
Na1* Na 0.00000 0.00000 1.00000
Na1** Na 1.00000 0.00000 1.00000
O4A* O -0.2328(4) 1.1358(3) 1.1254(3)
O5* O 0.2401(3) 1.2869(3) 0.9207(2)
O5A* O 0.7599(3) 0.7131(3) 1.0793(2)
O6* O -0.0159(4) 1.1227(3) 0.7292(3)
N1A N 0.2547(4) -0.2032(3) 0.5286(3)
H4A H 0.24040 -0.18090 0.63590
H5A H 0.16030 -0.17170 0.46980
H6A H 0.22820 -0.32020 0.50450
C4A C 0.4797(5) -0.0978(4) 0.4879(4)
H7A H 0.58330 -0.12470 0.55830
H8A H 0.50030 -0.13160 0.37400
#END
