
#######################################################################
#
#                 Cambridge Crystallographic Data Centre
#                                CCDC
#
#######################################################################
#
# If this CIF has been generated from an entry in the Cambridge
# Structural Database, then it will include bibliographic, chemical,
# crystal, experimental, refinement or atomic coordinate data resulting
# from the CCDC's data processing and validation procedures.
#
#######################################################################

data_CSD_CIF_HOZBUW
_audit_creation_date 2019-11-25
_audit_creation_method CSD-ConQuest-V1
_database_code_CSD HOZBUW
_database_code_depnum_ccdc_archive 'CCDC 1954795'
_chemical_formula_sum 'C60 H52 N4 O8 P2 Pt1 Rh2'
_chemical_formula_moiety
;
(C12 H12 N4 O8 Pt1 Rh2 2-)n,2(C24 H20 P1 1+)
;
_journal_coden_Cambridge 1546
_journal_volume 9
_journal_year 2019
_journal_page_first 614
_journal_name_full 'Crystals '
loop_
_publ_author_name
"D.Prior"
"M.Cortijo"
"R.Gonzalez-Prieto"
"S.Herrero"
"R.Jimenez-Aparicio"
"J.Perles"
"J.L.Priego"
_chemical_name_systematic
;
catena-[bis(tetraphenylphosphanium) 
bis(\m-cyano)-tetrakis(\m-acetato)-bis(cyano)-platinum-di-rhodium unknown 
solvate]
;
_cell_volume   3791.791
_exptl_crystal_colour 'light pink'
_exptl_crystal_density_diffrn 1.244
_exptl_crystal_description 'prism'
_diffrn_ambient_temperature 293
_refine_special_details
;
The SQUEEZE/PLATON program has been used to model some disorder.

;
#These two values have been output from a single CSD field.
_refine_ls_R_factor_gt 0.0395
_refine_ls_wR_factor_gt 0.0395
_symmetry_cell_setting monoclinic
_symmetry_space_group_name_H-M 'P 21/n'
_symmetry_Int_Tables_number 14
loop_
_symmetry_equiv_pos_site_id
_symmetry_equiv_pos_as_xyz
1 x,y,z
2 1/2-x,1/2+y,1/2-z
3 -x,-y,-z
4 -1/2+x,-1/2-y,-1/2+z
_cell_length_a 13.0959(4)
_cell_length_b 11.7615(4)
_cell_length_c 25.1321(11)
_cell_angle_alpha 90
_cell_angle_beta 101.613(4)
_cell_angle_gamma 90
_cell_formula_units_Z 2
loop_
_atom_type_symbol
_atom_type_radius_bond
C 0.68
H 0.23
N 0.68
O 0.68
P 1.05
Pt 1.36
Rh 1.42
loop_
_atom_site_label
_atom_site_type_symbol
_atom_site_fract_x
_atom_site_fract_y
_atom_site_fract_z
C1 C 0.9637(6) 0.6194(5) 0.4114(3)
C2 C 0.9481(6) 0.6988(6) 0.3624(3)
H1 H 0.87500 0.70550 0.34710
H2 H 0.98350 0.66850 0.33560
H3 H 0.97600 0.77250 0.37370
C3 C 0.9902(5) 0.3067(5) 0.4470(3)
C4 C 0.9822(6) 0.1941(6) 0.4185(3)
H4 H 0.98760 0.13400 0.44480
H5 H 1.03770 0.18710 0.39880
H6 H 0.91640 0.18890 0.39360
C5 C 0.6523(5) 0.4978(5) 0.4994(2)
C6 C 0.4684(5) 0.5294(6) 0.4208(3)
N1 N 0.7393(4) 0.4925(4) 0.4987(2)
N2 N 0.4489(6) 0.5450(7) 0.3757(3)
O1 O 1.0602(3) 0.5960(3) 0.43165(17)
O2 O 0.8879(3) 0.5867(3) 0.42880(18)
O3 O 0.9064(3) 0.3477(3) 0.45637(17)
O4 O 1.0779(3) 0.3556(3) 0.45873(18)
Pt1 Pt 0.50000 0.50000 0.50000
Rh1 Rh 0.90798(3) 0.49592(4) 0.49880(2)
C7 C 0.6174(6) -0.0197(5) 0.3737(3)
C8 C 0.7177(6) -0.0027(6) 0.4002(3)
H7 H 0.74680 0.06970 0.40170
C9 C 0.7767(8) -0.0943(8) 0.4251(4)
H8 H 0.84630 -0.08420 0.44170
C10 C 0.7308(10) -0.1992(9) 0.4247(4)
H9 H 0.77070 -0.25960 0.44130
C11 C 0.6308(10) -0.2190(7) 0.4013(5)
H10 H 0.60110 -0.29030 0.40330
C12 C 0.5734(7) -0.1309(7) 0.3743(4)
H11 H 0.50520 -0.14390 0.35620
C13 C 0.4737(6) 0.0424(6) 0.2754(3)
C14 C 0.5286(7) -0.0292(6) 0.2459(4)
H12 H 0.59550 -0.05350 0.26150
C15 C 0.4834(9) -0.0633(7) 0.1939(4)
H13 H 0.52010 -0.10960 0.17430
C16 C 0.3829(9) -0.0282(8) 0.1709(4)
H14 H 0.35220 -0.04930 0.13570
C17 C 0.3303(8) 0.0371(10) 0.2006(4)
H15 H 0.26130 0.05610 0.18620
C18 C 0.3747(6) 0.0757(7) 0.2504(4)
H16 H 0.33780 0.12560 0.26820
C19 C 0.4477(5) 0.1397(5) 0.3785(3)
C20 C 0.4234(6) 0.0752(6) 0.4202(3)
H17 H 0.45530 0.00500 0.42830
C21 C 0.3522(6) 0.1137(6) 0.4500(4)
H18 H 0.33620 0.07030 0.47820
C22 C 0.3067(7) 0.2154(8) 0.4372(4)
H19 H 0.25630 0.23910 0.45610
C23 C 0.3301(7) 0.2865(7) 0.3978(4)
H20 H 0.30010 0.35810 0.39140
C24 C 0.4014(6) 0.2452(6) 0.3681(3)
H21 H 0.41830 0.28990 0.34050
C25 C 0.6213(5) 0.2114(5) 0.3311(3)
C26 C 0.6421(6) 0.2954(5) 0.3703(3)
H22 H 0.61430 0.28970 0.40150
C27 C 0.7040(6) 0.3882(5) 0.3637(3)
H23 H 0.71860 0.44420 0.39020
C28 C 0.7429(6) 0.3952(7) 0.3172(4)
H24 H 0.78470 0.45620 0.31170
C29 C 0.7195(9) 0.3110(9) 0.2786(4)
H25 H 0.74440 0.31670 0.24650
C30 C 0.6611(6) 0.2203(6) 0.2864(3)
H26 H 0.64850 0.16320 0.26030
P1 P 0.53961(14) 0.09343(14) 0.34010(8)
C1B C 0.0363(6) 0.3806(5) 0.5886(3)
C2B C 0.0519(6) 0.3012(6) 0.6376(3)
H1B H 0.12500 0.29450 0.65290
H2B H 0.01650 0.33150 0.66440
H3B H 0.02400 0.22750 0.62630
C3B C 0.0098(5) 0.6933(5) 0.5530(3)
C4B C 0.0178(6) 0.8059(6) 0.5815(3)
H4B H 0.01240 0.86600 0.55520
H5B H -0.03770 0.81290 0.60120
H6B H 0.08360 0.81110 0.60640
C5B C 0.3477(5) 0.5022(5) 0.5006(2)
C6B C 0.5316(5) 0.4706(6) 0.5792(3)
N1B N 0.2607(4) 0.5075(4) 0.5013(2)
N2B N 0.5511(6) 0.4550(7) 0.6243(3)
O1B O -0.0602(3) 0.4040(3) 0.56835(17)
O2B O 0.1121(3) 0.4133(3) 0.57120(18)
O3B O 0.0936(3) 0.6523(3) 0.54363(17)
O4B O -0.0779(3) 0.6444(3) 0.54127(18)
Rh1B Rh 0.09202(3) 0.50408(4) 0.50120(2)
O1* O 0.0602(3) 0.5960(3) 0.43165(17)
O1B* O 0.9398(3) 0.4040(3) 0.56835(17)
O4* O 0.0779(3) 0.3556(3) 0.45873(18)
O4B* O 0.9221(3) 0.6444(3) 0.54127(18)
Rh1* Rh -0.09202(3) 0.49592(4) 0.49880(2)
Rh1B* Rh 1.09202(3) 0.50408(4) 0.50120(2)
#END
