
#######################################################################
#
#                 Cambridge Crystallographic Data Centre
#                                CCDC
#
#######################################################################
#
# If this CIF has been generated from an entry in the Cambridge
# Structural Database, then it will include bibliographic, chemical,
# crystal, experimental, refinement or atomic coordinate data resulting
# from the CCDC's data processing and validation procedures.
#
#######################################################################

data_CSD_CIF_HOZCAD
_audit_creation_date 2019-11-25
_audit_creation_method CSD-ConQuest-V1
_database_code_CSD HOZCAD
_database_code_depnum_ccdc_archive 'CCDC 1954793'
_chemical_formula_sum 'C60 H52 N4 Ni1 O8 P2 Rh2'
_chemical_formula_moiety
;
2(C24 H20 P1 1+),(C12 H12 N4 Ni1 O8 Rh2 2-)n
;
_journal_coden_Cambridge 1546
_journal_volume 9
_journal_year 2019
_journal_page_first 614
_journal_name_full 'Crystals '
loop_
_publ_author_name
"D.Prior"
"M.Cortijo"
"R.Gonzalez-Prieto"
"S.Herrero"
"R.Jimenez-Aparicio"
"J.Perles"
"J.L.Priego"
_chemical_name_systematic
;
catena-[bis(tetraphenylphosphanium) 
bis(\m-cyano)-tetrakis(\m-acetato)-bis(cyano)-di-rhodium unknown solvate]
;
_cell_volume   2080.729
_exptl_crystal_colour 'intense violet'
_exptl_crystal_density_diffrn 1.024
_exptl_crystal_description 'prism'
_diffrn_ambient_temperature 293
_refine_special_details
;
The SQUEEZE/PLATON program has been used to model some disorder.

;
#These two values have been output from a single CSD field.
_refine_ls_R_factor_gt 0.074
_refine_ls_wR_factor_gt 0.074
_symmetry_cell_setting triclinic
_symmetry_space_group_name_H-M 'P -1'
_symmetry_Int_Tables_number 2
loop_
_symmetry_equiv_pos_site_id
_symmetry_equiv_pos_as_xyz
1 x,y,z
2 -x,-y,-z
_cell_length_a 12.6687(12)
_cell_length_b 12.8404(8)
_cell_length_c 14.6399(10)
_cell_angle_alpha 84.405(5)
_cell_angle_beta 67.765(7)
_cell_angle_gamma 70.795(7)
_cell_formula_units_Z 1
loop_
_atom_type_symbol
_atom_type_radius_bond
C 0.68
H 0.23
N 0.68
Ni 1.24
O 0.68
P 1.05
Rh 1.42
loop_
_atom_site_label
_atom_site_type_symbol
_atom_site_fract_x
_atom_site_fract_y
_atom_site_fract_z
C1 C 1.0944(9) 0.4572(7) 0.1346(7)
C2 C 1.1574(15) 0.4316(10) 0.205(1)
H1 H 1.12400 0.38480 0.25500
H2 H 1.14780 0.49880 0.23530
H3 H 1.24140 0.39440 0.17040
C3 C 0.7806(8) 0.5490(7) 0.1309(6)
C4 C 0.6537(8) 0.5802(8) 0.2019(7)
H4 H 0.62270 0.65880 0.21310
H5 H 0.65070 0.54460 0.26320
H6 H 0.60610 0.55740 0.17510
N1 N 0.9934(5) 0.7722(5) 0.0023(4)
N2 N 1.2263(8) 0.9431(7) -0.1791(7)
C5 C 0.9953(7) 0.8543(7) 0.0023(5)
C6 C 1.1410(8) 0.9656(6) -0.1101(6)
O1 O 1.0691(5) 0.5546(4) 0.1068(4)
O2 O 1.0794(5) 0.3776(4) 0.1025(4)
O3 O 0.8289(5) 0.6259(4) 0.1052(4)
O4 O 0.8343(5) 0.4491(4) 0.1032(4)
Ni1 Ni 1.00000 1.00000 0.00000
Rh1 Rh 0.99578(5) 0.59440(4) 0.00108(4)
C7 C 0.3532(8) 0.1646(7) 0.3073(6)
C8 C 0.2592(9) 0.2372(8) 0.3796(7)
H7 H 0.19340 0.21560 0.41950
C9 C 0.2613(13) 0.3393(10) 0.3934(8)
H8 H 0.19690 0.38760 0.44150
C10 C 0.3540(17) 0.3695(10) 0.3388(12)
H9 H 0.35510 0.43910 0.35010
C11 C 0.4495(11) 0.3028(8) 0.2659(10)
H10 H 0.51370 0.32740 0.22760
C12 C 0.4503(9) 0.1983(8) 0.2491(7)
H11 H 0.51490 0.15160 0.19970
C13 C 0.4589(8) -0.0412(7) 0.1846(6)
C14 C 0.5774(9) -0.0653(8) 0.1684(7)
H12 H 0.59980 -0.03780 0.21210
C15 C 0.6674(9) -0.1318(8) 0.0859(8)
H13 H 0.74840 -0.14900 0.07570
C16 C 0.6341(11) -0.1681(8) 0.0247(7)
H14 H 0.69350 -0.20910 -0.03100
C17 C 0.5145(12) -0.1491(8) 0.0381(7)
H15 H 0.49390 -0.18110 -0.00430
C18 C 0.4266(9) -0.0801(7) 0.1174(6)
H16 H 0.34610 -0.06010 0.12510
C19 C 0.3740(7) -0.0520(8) 0.3958(6)
C20 C 0.4169(13) -0.1609(10) 0.3834(8)
H17 H 0.43920 -0.19000 0.32060
C21 C 0.4308(18) -0.2338(12) 0.4560(11)
H18 H 0.45610 -0.30970 0.44460
C22 C 0.4059(11) -0.1900(15) 0.5449(12)
H19 H 0.41150 -0.23640 0.59700
C23 C 0.3699(13) -0.0700(16) 0.5603(9)
H20 H 0.35860 -0.03890 0.61940
C24 C 0.3542(10) -0.0076(10) 0.4842(7)
H21 H 0.32890 0.06880 0.49210
C25 C 0.2015(7) 0.0411(7) 0.3008(6)
C26 C 0.1363(9) -0.0215(9) 0.3627(8)
H22 H 0.16750 -0.07320 0.40260
C27 C 0.0183(11) -0.0041(11) 0.3635(9)
H23 H -0.02980 -0.04200 0.40800
C28 C -0.0243(10) 0.0645(10) 0.3025(8)
H24 H -0.09990 0.07150 0.30290
C29 C 0.0449(9) 0.1277(10) 0.2361(8)
H25 H 0.01590 0.17440 0.19230
C30 C 0.1514(9) 0.1186(9) 0.2383(7)
H26 H 0.19460 0.16320 0.19870
P1 P 0.3475(2) 0.02894(18) 0.29594(15)
C1A C 0.9056(9) 0.5428(7) -0.1346(7)
C2A C 0.8426(15) 0.5684(10) -0.205(1)
H1A H 0.87600 0.61520 -0.25500
H2A H 0.85220 0.50120 -0.23530
H3A H 0.75860 0.60560 -0.17040
C3A C 1.2194(8) 0.4510(7) -0.1309(6)
C4A C 1.3463(8) 0.4198(8) -0.2019(7)
H4A H 1.37730 0.34120 -0.21310
H5A H 1.34930 0.45540 -0.26320
H6A H 1.39390 0.44260 -0.17510
N1A N 1.0066(5) 0.2278(5) -0.0023(4)
C5A C 1.0047(7) 0.1457(7) -0.0023(5)
O1A O 0.9309(5) 0.4454(4) -0.1068(4)
O2A O 0.9206(5) 0.6224(4) -0.1025(4)
O3A O 1.1711(5) 0.3741(4) -0.1052(4)
O4A O 1.1657(5) 0.5509(4) -0.1032(4)
Rh1A Rh 1.00422(5) 0.40560(4) -0.00108(4)
N2A N 0.7737(8) 1.0569(7) 0.1791(7)
C6A C 0.8590(8) 1.0344(6) 0.1101(6)
C5A* C 1.0047(7) 1.1457(7) -0.0023(5)
Ni1* Ni 1.00000 0.00000 0.00000
#END
