
#######################################################################
#
#                 Cambridge Crystallographic Data Centre
#                                CCDC
#
#######################################################################
#
# If this CIF has been generated from an entry in the Cambridge
# Structural Database, then it will include bibliographic, chemical,
# crystal, experimental, refinement or atomic coordinate data resulting
# from the CCDC's data processing and validation procedures.
#
#######################################################################

data_CSD_CIF_HOZFIN
_audit_creation_date 2015-02-24
_audit_creation_method CSD-ConQuest-V1
_database_code_CSD HOZFIN
_database_code_depnum_ccdc_archive 'CCDC 994780'
_chemical_formula_sum 'C86 H101 Li11 O58'
_chemical_formula_moiety
;
(C54 H32 Li11 O40 1-)n,8(C4 H8 O2),H2 O1,H3 O1 1+
;
_journal_coden_Cambridge 1147
_journal_volume 14
_journal_year 2014
_journal_page_first 4355
_journal_name_full 'Cryst.Growth Des. '
loop_
_publ_author_name
"S.B.Aliev"
"D.G.Samsonenko"
"M.I.Rakhmanova"
"D.N.Dybtsev"
"V.P.Fedin"
_chemical_name_systematic
;
catena-[oxonium 
hexakis(\m-4-carboxybenzene-1,2-dicarboxylato)-(\m-aqua)-triaqua-undeca-lithiu
m monohydrate]
;
_cell_volume   5811.210
_exptl_crystal_colour 'colorless'
_exptl_crystal_density_diffrn 1.222
_exptl_crystal_description 'block'
_diffrn_ambient_temperature 150
_refine_special_details
;
C101,C102,C103,C104,O101,O102 and O1W disordered over two sites with 
occupancies 0.50:0.17; Li3,Li4 disordered by symmetry over two configurations 
with occupancy 0.50; The SQUEEZE/PLATON program has been used to model some 
disorder.
;
#These two values have been output from a single CSD field.
_refine_ls_R_factor_gt 0.083
_refine_ls_wR_factor_gt 0.083
_symmetry_cell_setting hexagonal
_symmetry_space_group_name_H-M 'P -3 1 c'
_symmetry_Int_Tables_number 163
loop_
_symmetry_equiv_pos_site_id
_symmetry_equiv_pos_as_xyz
1 x,y,z
2 -y,x-y,z
3 -x+y,-x,z
4 -y,-x,1/2-z
5 -x+y,y,1/2-z
6 x,x-y,1/2-z
7 -x,-y,-z
8 y,-x+y,-z
9 x-y,x,-z
10 y,x,-1/2+z
11 x-y,-y,-1/2+z
12 -x,-x+y,-1/2+z
_cell_length_a 18.6108(7)
_cell_length_b 18.6108(7)
_cell_length_c 19.3734(7)
_cell_angle_alpha 90
_cell_angle_beta 90
_cell_angle_gamma 120
_cell_formula_units_Z 2
loop_
_atom_type_symbol
_atom_type_radius_bond
C 0.68
H 0.23
Li 1.28
O 0.68
loop_
_atom_site_label
_atom_site_type_symbol
_atom_site_fract_x
_atom_site_fract_y
_atom_site_fract_z
Li1 Li 0.1676(2) 0.5067(2) 0.14122(16)
Li2 Li 0.21786(18) 0.4357(4) 0.25000
Li3 Li 0.33330 0.66670 0.3464(6)
O1 O -0.10203(9) 0.34892(10) 0.56221(7)
O2 O 0.0325(1) 0.42767(13) 0.58573(8)
H1 H 0.0281(13) 0.4320(18) 0.6362(9)
C1 C -0.02972(13) 0.38985(13) 0.5440(1)
C2 C -0.00712(13) 0.40023(13) 0.46915(9)
C3 C -0.06899(14) 0.35869(17) 0.42070(11)
H2 H -0.12460 0.32300 0.43510
C4 C -0.04939(14) 0.36939(18) 0.35100(11)
H3 H -0.09220 0.34150 0.31790
C5 C 0.03220(13) 0.42042(14) 0.32865(10)
C6 C 0.09463(12) 0.46098(12) 0.37775(9)
C7 C 0.07450(12) 0.45119(12) 0.44784(9)
H4 H 0.11680 0.47950 0.48120
C8 C 0.04913(13) 0.43189(15) 0.25189(10)
O3 O -0.01308(11) 0.40551(17) 0.21347(8)
O4 O 0.12232(9) 0.46648(11) 0.23151(7)
C9 C 0.18580(11) 0.51524(12) 0.36142(8)
O5 O 0.21701(9) 0.59195(9) 0.36965(8)
O6 O 0.22604(9) 0.47975(9) 0.34665(7)
O7 O 0.15830(11) 0.3166(2) 0.25000
O8 O 0.33330 0.66670 0.25000
O9 O 0.33330 0.66670 0.4817(5)
O10 O 0.1241(5) 0.2141(5) 0.3454(4)
C10 C 0.1483(7) 0.2941(7) 0.4432(6)
H5 H 0.18910 0.32730 0.47940
H6 H 0.13710 0.33210 0.41540
C11 C 0.0497(7) 0.1509(7) 0.3695(7)
H7 H 0.05750 0.10780 0.39270
H8 H 0.00960 0.12480 0.33130
C12 C 0.1836(8) 0.2555(8) 0.3984(7)
H9 H 0.23700 0.29830 0.37850
H10 H 0.19310 0.21560 0.42490
C13 C 0.0203(8) 0.1903(8) 0.4187(7)
H11 H 0.01010 0.23030 0.39290
H12 H -0.03380 0.14700 0.43720
O11 O 0.0727(5) 0.2326(5) 0.4752(5)
O12? O 0.2051(18) 0.2475(18) 0.3363(13)
Li4? Li 0.33330 0.66670 0.392(1)
Li1A Li 0.4933(2) 0.6609(2) 0.14122(16)
Li2A Li 0.56430(18) 0.78216(40) 0.25000
O1A O 0.65108(9) 0.54905(10) 0.56221(7)
O2A O 0.57233(10) 0.60483(13) 0.58573(8)
H1A H 0.5680(13) 0.5961(18) 0.6362(9)
C1A C 0.61015(13) 0.58043(13) 0.5440(1)
C2A C 0.59977(13) 0.59265(13) 0.46915(9)
C3A C 0.64131(14) 0.57232(17) 0.42070(11)
H2A H 0.67700 0.55240 0.43510
C4A C 0.63061(14) 0.58122(18) 0.35100(11)
H3A H 0.65850 0.56630 0.31790
C5A C 0.57958(13) 0.61178(14) 0.32865(10)
C6A C 0.53902(12) 0.63365(12) 0.37775(9)
C7A C 0.54881(12) 0.62331(12) 0.44784(9)
H4A H 0.52050 0.63730 0.48120
C8A C 0.56811(13) 0.61724(15) 0.25189(10)
O3A O 0.59449(11) 0.58141(17) 0.21347(8)
O4A O 0.53352(9) 0.65584(11) 0.23151(7)
C9A C 0.48476(11) 0.67056(12) 0.36142(8)
O5A O 0.40805(9) 0.62506(9) 0.36965(8)
O6A O 0.52025(9) 0.74629(9) 0.34665(7)
O7A O 0.68340(11) 0.8417(2) 0.25000
Li1B Li 0.3391(2) 0.8324(2) 0.14122(16)
Li2B Li 0.21784(18) 0.78214(40) 0.25000
O1B O 0.45095(9) 1.10203(10) 0.56221(7)
O2B O 0.39517(10) 0.96750(13) 0.58573(8)
H1B H 0.4039(13) 0.9719(18) 0.6362(9)
C1B C 0.41957(13) 1.02972(13) 0.5440(1)
C2B C 0.40735(13) 1.00712(13) 0.46915(9)
C3B C 0.42768(14) 1.06899(17) 0.42070(11)
H2B H 0.44760 1.12460 0.43510
C4B C 0.41878(14) 1.04939(18) 0.35100(11)
H3B H 0.43370 1.09220 0.31790
C5B C 0.38822(13) 0.96780(14) 0.32865(10)
C6B C 0.36635(12) 0.90537(12) 0.37775(9)
C7B C 0.37669(12) 0.92550(12) 0.44784(9)
H4B H 0.36270 0.88320 0.48120
C8B C 0.38276(13) 0.95087(15) 0.25189(10)
O3B O 0.41859(11) 1.01308(17) 0.21347(8)
O4B O 0.34416(9) 0.87768(11) 0.23151(7)
C9B C 0.32944(11) 0.81420(12) 0.36142(8)
O5B O 0.37494(9) 0.78299(9) 0.36965(8)
O6B O 0.25371(9) 0.77396(9) 0.34665(7)
O7B O 0.15830(11) 0.8417(2) 0.25000
Li1C Li 0.4933(2) 0.8324(2) 0.35878(16)
Li3C Li 0.33330 0.66670 0.1536(6)
O1C O 0.65108(9) 1.10203(10) -0.06221(7)
O2C O 0.57233(10) 0.96750(13) -0.08573(8)
H1C H 0.5680(13) 0.9719(18) -0.1362(9)
C1C C 0.61015(13) 1.02972(13) -0.0440(1)
C2C C 0.59977(13) 1.00712(13) 0.03085(9)
C3C C 0.64131(14) 1.06899(17) 0.07930(11)
H2C H 0.67700 1.12460 0.06490
C4C C 0.63061(14) 1.04939(18) 0.14900(11)
H3C H 0.65850 1.09220 0.18210
C5C C 0.57958(13) 0.96780(14) 0.17135(10)
C6C C 0.53902(12) 0.90537(12) 0.12225(9)
C7C C 0.54881(12) 0.92550(12) 0.05216(9)
H4C H 0.52050 0.88320 0.01880
C8C C 0.56811(13) 0.95087(15) 0.24811(10)
O3C O 0.59449(11) 1.01308(17) 0.28653(8)
O4C O 0.53352(9) 0.87768(11) 0.26849(7)
C9C C 0.48476(11) 0.81420(12) 0.13858(8)
O5C O 0.40805(9) 0.78299(9) 0.13035(8)
O6C O 0.52025(9) 0.77396(9) 0.15335(7)
Li1D Li 0.3391(2) 0.5067(2) 0.35878(16)
O1D O 0.45095(9) 0.34892(10) -0.06221(7)
O2D O 0.39517(10) 0.42767(13) -0.08573(8)
H1D H 0.4039(13) 0.4320(18) -0.1362(9)
C1D C 0.41957(13) 0.38985(13) -0.0440(1)
C2D C 0.40735(13) 0.40023(13) 0.03085(9)
C3D C 0.42768(14) 0.35869(17) 0.07930(11)
H2D H 0.44760 0.32300 0.06490
C4D C 0.41878(14) 0.36939(18) 0.14900(11)
H3D H 0.43370 0.34150 0.18210
C5D C 0.38822(13) 0.42042(14) 0.17135(10)
C6D C 0.36635(12) 0.46098(12) 0.12225(9)
C7D C 0.37669(12) 0.45119(12) 0.05216(9)
H4D H 0.36270 0.47950 0.01880
C8D C 0.38276(13) 0.43189(15) 0.24811(10)
O3D O 0.41859(11) 0.40551(17) 0.28653(8)
O4D O 0.34416(9) 0.46648(11) 0.26849(7)
C9D C 0.32944(11) 0.51524(12) 0.13858(8)
O5D O 0.37494(9) 0.59195(9) 0.13035(8)
O6D O 0.25371(9) 0.47975(9) 0.15335(7)
Li1E Li 0.1676(2) 0.6609(2) 0.35878(16)
O1E O -0.10203(9) 0.54905(10) -0.06221(7)
O2E O 0.0325(1) 0.60483(13) -0.08573(8)
H1E H 0.0281(13) 0.5961(18) -0.1362(9)
C1E C -0.02972(13) 0.58043(13) -0.0440(1)
C2E C -0.00712(13) 0.59265(13) 0.03085(9)
C3E C -0.06899(14) 0.57232(17) 0.07930(11)
H2E H -0.12460 0.55240 0.06490
C4E C -0.04939(14) 0.58122(18) 0.14900(11)
H3E H -0.09220 0.56630 0.18210
C5E C 0.03220(13) 0.61178(14) 0.17135(10)
C6E C 0.09463(12) 0.63365(12) 0.12225(9)
C7E C 0.07450(12) 0.62331(12) 0.05216(9)
H4E H 0.11680 0.63730 0.01880
C8E C 0.04913(13) 0.61724(15) 0.24811(10)
O3E O -0.01308(11) 0.58141(17) 0.28653(8)
O4E O 0.12232(9) 0.65584(11) 0.26849(7)
C9E C 0.18580(11) 0.67056(12) 0.13858(8)
O5E O 0.21701(9) 0.62506(9) 0.13035(8)
O6E O 0.22604(9) 0.74629(9) 0.15335(7)
Li1F Li -0.1676(2) 0.4933(2) -0.14122(16)
Li1G Li 0.5067(2) 0.3391(2) -0.14122(16)
Li1H Li 0.6609(2) 1.1676(2) -0.14122(16)
Li1I Li 0.5067(2) 1.1676(2) 0.64122(16)
Li1J Li 0.6609(2) 0.4933(2) 0.64122(16)
Li1K Li -0.1676(2) 0.3391(2) 0.64122(16)
O1F O 0.10203(9) 0.65108(10) 0.43779(7)
O1G O 0.34892(9) 0.45095(10) 0.43779(7)
O1H O 0.54905(9) 0.89797(10) 0.43779(7)
O1I O 0.34892(9) 0.89797(10) 0.06221(7)
O1J O 0.54905(9) 0.65108(10) 0.06221(7)
O1K O 0.10203(9) 0.45095(10) 0.06221(7)
#END
