
#######################################################################
#
#                 Cambridge Crystallographic Data Centre
#                                CCDC
#
#######################################################################
#
# If this CIF has been generated from an entry in the Cambridge
# Structural Database, then it will include bibliographic, chemical,
# crystal, experimental, refinement or atomic coordinate data resulting
# from the CCDC's data processing and validation procedures.
#
#######################################################################

data_CSD_CIF_HOZHOV
_audit_creation_date 2015-02-24
_audit_creation_method CSD-ConQuest-V1
_database_code_CSD HOZHOV
_database_code_depnum_ccdc_archive 'CCDC 997160'
_chemical_formula_sum 'C98 H118 Cu2 N28 O130 P4 W36'
_chemical_formula_moiety
;
(C70 H78 Cu2 N20 O126 P4 W36 4-)n,2(C14 H16 N4 2+),4(H2 O1)
;
_journal_coden_Cambridge 1147
_journal_volume 14
_journal_year 2014
_journal_page_first 4450
_journal_name_full 'Cryst.Growth Des. '
loop_
_publ_author_name
"Shaobin Li"
"Huiyuan Ma"
"Haijun Pang"
"Li Zhang"
_chemical_name_systematic
;
catena-[bis(1,1'-(2,5-dimethyl-1,4-phenylene)bis(1H-imidazol-3-ium)) 
tetrakis(\m-phosphato)-(\m-1,1'-(2,5-dimethyl-1,4-phenylene)bis(1H-imidazole))
-tetrakis(\m-hydroxo)-doheptacontakis(\m-oxo)-tetrakis(1,1'-(2,5-dimethyl-1,4-
phenylene)bis(1H-imidazole))-diaqua-dotriacontaoxo-di-copper-hexatriaconta-tun
gsten tetrahydrate]
;
_cell_volume   4817.530
_exptl_crystal_density_diffrn 3.659
_diffrn_ambient_temperature 293
#These two values have been output from a single CSD field.
_refine_ls_R_factor_gt 0.0585
_refine_ls_wR_factor_gt 0.0585
_symmetry_cell_setting triclinic
_symmetry_space_group_name_H-M 'P -1'
_symmetry_Int_Tables_number 2
loop_
_symmetry_equiv_pos_site_id
_symmetry_equiv_pos_as_xyz
1 x,y,z
2 -x,-y,-z
_cell_length_a 14.505(5)
_cell_length_b 15.007(5)
_cell_length_c 22.506(5)
_cell_angle_alpha 88.425(5)
_cell_angle_beta 83.881(5)
_cell_angle_gamma 81.521(5)
_cell_formula_units_Z 1
loop_
_atom_type_symbol
_atom_type_radius_bond
C 0.68
H 0.23
Cu 1.32
N 0.68
O 0.68
P 1.05
W 1.62
loop_
_atom_site_label
_atom_site_type_symbol
_atom_site_fract_x
_atom_site_fract_y
_atom_site_fract_z
Cu1 Cu 0.28818(15) 0.86440(15) 0.14758(10)
W1 W 0.80189(5) 0.98331(5) 0.10047(3)
W2 W 0.60952(5) 0.59600(5) 0.21066(3)
W3 W 0.93825(5) 0.67365(5) 0.16692(3)
W4 W 0.53162(5) 0.84357(5) 0.21451(3)
W5 W 0.54428(5) 0.83657(5) 0.36210(3)
W6 W 0.95437(5) 0.66695(5) 0.32856(3)
W7 W 1.02153(5) 0.89876(5) 0.31731(3)
W8 W 0.59819(5) 1.07632(5) 0.20280(3)
W9 W 0.80050(6) 1.19971(5) 0.17752(4)
W10 W 1.00303(5) 1.11873(5) 0.23564(3)
W11 W 0.83528(5) 0.98229(5) 0.41078(3)
W12 W 0.61346(5) 1.06961(5) 0.35090(3)
W13 W 0.62827(5) 0.59211(5) 0.35874(3)
W14 W 1.00564(5) 0.90638(5) 0.15489(3)
W15 W 0.73533(5) 0.75038(5) 0.11127(3)
W16 W 0.76773(5) 0.75032(5) 0.42239(3)
W17 W 0.81532(5) 0.51348(5) 0.26359(3)
W18 W 0.81260(6) 1.19945(6) 0.32835(4)
P1 P 0.8149(3) 0.9927(3) 0.25639(18)
P2 P 0.7425(3) 0.7470(3) 0.26838(18)
O1 O 0.5389(10) 0.544(1) 0.1730(6)
O2 O 0.2391(10) 0.937(1) 0.2228(6)
O3 O 0.5717(8) 0.5626(9) 0.2908(5)
O4 O 0.5741(9) 0.5378(9) 0.4146(5)
O5 O 0.7207(8) 0.5016(9) 0.2143(5)
O6 O 0.5404(8) 0.7116(8) 0.2202(5)
O7 O 0.4730(8) 0.8440(8) 0.2959(5)
O8 O 0.6858(8) 0.6468(9) 0.1475(5)
O9 O 0.4545(8) 0.8515(9) 0.4195(5)
O10 O 0.5557(8) 0.7071(8) 0.3605(5)
O11 O 0.7125(8) 0.6503(8) 0.2735(5)
O12 O 0.7312(8) 0.4990(8) 0.3324(5)
O13 O 0.8807(9) 0.4087(9) 0.2563(6)
O14 O 0.7144(9) 0.6476(9) 0.4006(5)
O15 O 0.8883(8) 0.5746(9) 0.3126(5)
O16 O 0.7486(9) 0.7345(9) 0.4973(5)
O17 O 0.6519(8) 0.8160(8) 0.4046(5)
O18 O 0.6269(9) 0.8181(9) 0.1523(5)
O19 O 0.6516(8) 0.8160(8) 0.2766(5)
O20 O 0.8050(7) 0.7535(8) 0.3182(5)
O21 O 0.9698(8) 0.7909(8) 0.1487(5)
O22 O 0.9761(8) 0.6833(8) 0.2443(6)
O23 O 0.8887(8) 0.6797(8) 0.4067(5)
O24 O 1.0569(9) 0.6048(9) 0.3452(6)
O25 O 0.7943(7) 0.7556(8) 0.2061(5)
O26 O 0.8587(8) 0.6850(8) 0.1038(5)
O27 O 1.0358(9) 0.6081(9) 0.1312(6)
O28 O 0.8755(8) 0.5761(8) 0.2001(5)
O29 O 0.7015(9) 0.7393(10) 0.0426(6)
O30 O 0.4343(8) 0.8567(8) 0.1770(6)
O31 O 0.5486(8) 0.9628(9) 0.2184(6)
O32 O 0.7848(9) 0.8612(9) 0.0987(5)
O33 O 0.5613(8) 0.9590(9) 0.3508(5)
O34 O 0.8201(9) 0.8568(9) 0.4210(5)
O35 O 0.9873(8) 0.7846(8) 0.3364(5)
O36 O 0.7082(8) 1.0050(8) 0.3947(5)
O37 O 0.5339(9) 1.1205(10) 0.4052(6)
O38 O 0.5501(8) 1.1083(9) 0.2823(6)
O39 O 0.5096(9) 1.1306(10) 0.1656(6)
O40 O 0.6814(8) 1.0135(9) 0.1425(5)
O41 O 0.8509(8) 0.9444(9) 0.1964(5)
O42 O 0.9355(8) 0.9496(9) 0.0908(5)
O43 O 1.1165(8) 0.8824(9) 0.1191(6)
O44 O 1.0271(8) 0.8750(9) 0.2354(5)
O45 O 1.1367(9) 0.8774(9) 0.3278(6)
O46 O 1.0134(8) 1.0298(9) 0.1768(5)
O47 O 0.8221(8) 1.1054(9) 0.1247(5)
O48 O 0.8614(7) 0.9441(8) 0.3086(5)
O49 O 0.6780(8) 1.1650(9) 0.1972(6)
O50 O 0.6907(8) 1.1613(9) 0.3372(6)
O51 O 0.8274(9) 1.0089(9) 0.4849(6)
O52 O 0.8486(8) 1.0991(9) 0.3789(6)
O53 O 0.7957(9) 1.2857(9) 0.3774(6)
O54 O 0.8465(8) 1.0898(8) 0.2514(5)
O55 O 0.7081(8) 1.0033(8) 0.2680(5)
O56 O 0.7764(9) 1.2603(9) 0.2557(6)
O57 O 0.7767(9) 1.2890(9) 0.1323(6)
O58 O 0.9402(9) 1.1986(9) 0.2994(6)
O59 O 1.1087(9) 1.1573(10) 0.2233(7)
O60 O 0.9305(8) 1.1981(9) 0.1822(5)
O61 O 1.0265(8) 1.0254(8) 0.2908(5)
O62 O 0.785(1) 1.0121(9) 0.0284(6)
O63 O 0.9669(9) 0.9452(9) 0.3931(5)
N1 N 0.2945(11) 0.9803(11) 0.1048(7)
N2 N 0.2399(11) 1.1169(11) 0.0766(7)
N3 N -0.0615(11) 1.3949(11) 0.0562(7)
N4 N -0.1789(12) 1.4932(12) 0.0898(8)
N5 N 0.2663(11) 0.7511(11) 0.1927(7)
N6 N 0.2860(11) 0.6294(12) 0.2486(7)
N7 N 0.4750(13) 0.3771(12) 0.3972(7)
N8 N 0.5919(13) 0.3013(13) 0.4378(8)
N9 N 0.3358(10) 0.7891(11) 0.0753(7)
N10 N 0.3960(12) 0.6706(12) 0.0235(7)
C1 C 0.3647(16) 1.0176(17) 0.0755(11)
H1 H 0.42630 0.98910 0.06910
C2 C 0.2182(13) 1.0428(13) 0.1046(8)
H2 H 0.15850 1.03520 0.12170
C3 C 0.3331(15) 1.1062(17) 0.0555(11)
H3 H 0.36680 1.14650 0.03380
C4 C 0.1709(14) 1.1965(15) 0.0660(9)
C5 C 0.1719(15) 1.2808(16) 0.0887(10)
C6 C 0.0979(13) 1.3418(14) 0.0828(9)
H4 H 0.09820 1.39980 0.09630
C7 C 0.0201(14) 1.3239(15) 0.0575(9)
C8 C 0.0151(13) 1.2415(14) 0.0335(9)
C9 C 0.0916(13) 1.1766(14) 0.0396(8)
H5 H 0.09130 1.11860 0.02610
C10 C 0.2517(19) 1.2980(19) 0.1225(15)
H6 H 0.27270 1.35330 0.10850
H7 H 0.30230 1.24920 0.11620
H8 H 0.23070 1.30250 0.16440
C11 C -0.0661(15) 1.2154(17) 0.0063(9)
H9 H -0.05090 1.15450 -0.00750
H10 H -0.07990 1.25500 -0.02690
H11 H -0.11970 1.22010 0.03550
C12 C -0.1130(15) 1.4313(15) 0.1055(9)
H12 H -0.10290 1.41460 0.14470
C13 C -0.0980(17) 1.4375(15) 0.0078(9)
H13 H -0.07660 1.42750 -0.03220
C14 C -0.1729(18) 1.4983(16) 0.0304(10)
H14 H -0.21270 1.53660 0.00800
C15 C 0.3112(14) 0.7086(14) 0.2357(9)
H15 H 0.35590 0.73230 0.25470
C16 C 0.2025(15) 0.6930(15) 0.1783(10)
H16 H 0.15810 0.70480 0.15110
C17 C 0.2188(15) 0.6195(17) 0.211(1)
H17 H 0.18960 0.56860 0.20920
C18 C 0.3276(12) 0.5627(15) 0.2891(9)
C19 C 0.3723(14) 0.4829(15) 0.2631(10)
H18 H 0.36830 0.47240 0.22300
C20 C 0.4225(15) 0.4196(15) 0.2968(9)
C21 C 0.4245(13) 0.4394(14) 0.3583(8)
C22 C 0.3777(13) 0.5179(15) 0.3808(9)
H19 H 0.37730 0.52700 0.42150
C23 C 0.3292(12) 0.5874(14) 0.3472(9)
C24 C 0.2833(17) 0.6701(15) 0.3761(11)
H20 H 0.31880 0.71810 0.36470
H21 H 0.27950 0.66170 0.41870
H22 H 0.22130 0.68510 0.36410
C25 C 0.4703(18) 0.3338(19) 0.2693(12)
H23 H 0.43810 0.31980 0.23640
H24 H 0.46980 0.28610 0.29860
H25 H 0.53390 0.34000 0.25520
C26 C 0.5639(13) 0.3465(16) 0.3911(10)
H26 H 0.60360 0.35590 0.35690
C27 C 0.4424(18) 0.3479(18) 0.4503(11)
H27 H 0.38000 0.35690 0.46620
C28 C 0.5139(19) 0.303(2) 0.4775(12)
H28 H 0.51070 0.27860 0.51590
C29 C 0.3946(17) 0.7151(16) 0.0745(11)
H29 H 0.43100 0.69540 0.10520
C30 C 0.2908(17) 0.7927(17) 0.0243(10)
H30 H 0.24220 0.83650 0.01460
C31 C 0.3312(16) 0.7193(17) -0.0098(11)
H31 H 0.31740 0.70540 -0.04760
C32 C 0.4514(15) 0.5828(15) 0.0095(10)
C33 C 0.4471(15) 0.5174(14) 0.0526(9)
H32 H 0.40930 0.53100 0.08820
C34 C 0.4975(14) 0.4307(15) 0.0453(9)
C35 C 0.499(2) 0.3641(18) 0.0958(10)
H33 H 0.45170 0.38630 0.12740
H34 H 0.55910 0.35560 0.11030
H35 H 0.48540 0.30770 0.08210
O64 O 0.7028(11) 0.1833(12) 0.5027(7)
O65 O 0.3171(14) 0.0922(13) 0.2309(9)
N11 N 0.2228(12) 0.1179(12) 0.3919(9)
N12 N 0.3562(16) 0.0332(16) 0.3895(10)
N13 N -0.0685(11) 0.3946(12) 0.4606(7)
C36 C -0.1564(16) 0.5008(16) 0.5109(12)
H36 H -0.18340 0.53970 0.54150
C37 C -0.1246(15) 0.4384(16) 0.424(1)
H37 H -0.12590 0.42600 0.38390
N14 N -0.1788(13) 0.5034(13) 0.4552(9)
C38 C -0.0882(15) 0.4326(15) 0.5148(10)
H38 H -0.05910 0.41420 0.54880
C39 C 0.0037(13) 0.3218(13) 0.4425(8)
C40 C 0.0721(13) 0.3400(15) 0.3992(9)
H39 H 0.06920 0.39770 0.38270
C41 C 0.1479(14) 0.1888(15) 0.4058(9)
C42 C 0.0728(13) 0.1706(16) 0.450(1)
H40 H 0.07410 0.11290 0.46650
C43 C 0.0003(14) 0.2355(15) 0.4680(9)
C44 C -0.0777(16) 0.2129(17) 0.5151(10)
H41 H -0.08660 0.15130 0.51100
H42 H -0.13490 0.25180 0.50950
H43 H -0.06040 0.22150 0.55430
C45 C 0.1477(17) 0.2727(16) 0.3787(11)
C46 C 0.222(2) 0.300(2) 0.3326(14)
H44 H 0.25620 0.24660 0.31340
H45 H 0.26380 0.33060 0.35150
H46 H 0.19260 0.33850 0.30330
C47 C 0.313(2) 0.112(2) 0.4039(13)
H47 H 0.33990 0.15690 0.42000
C48 C 0.2137(18) 0.0387(18) 0.3652(11)
H48 H 0.16080 0.02420 0.34980
C49 C 0.2963(17) -0.0126(18) 0.3660(11)
H49 H 0.31050 -0.07150 0.35240
N9A N 0.6642(10) 0.2109(11) -0.0753(7)
N10A N 0.6040(12) 0.3294(12) -0.0235(7)
C29A C 0.6054(17) 0.2849(16) -0.0745(11)
H29A H 0.56900 0.30460 -0.10520
C30A C 0.7092(17) 0.2073(17) -0.0243(10)
H30A H 0.75780 0.16350 -0.01460
C31A C 0.6688(16) 0.2807(17) 0.0098(11)
H31A H 0.68260 0.29460 0.04760
C32A C 0.5486(15) 0.4172(15) -0.0095(10)
C33A C 0.5529(15) 0.4826(14) -0.0526(9)
H32A H 0.59070 0.46900 -0.08820
C34A C 0.5025(14) 0.5693(15) -0.0453(9)
C35A C 0.501(2) 0.6359(18) -0.0958(10)
H33A H 0.54830 0.61370 -0.12740
H34A H 0.44090 0.64440 -0.11030
H35A H 0.51460 0.69230 -0.08210
Cu1A Cu 0.71182(15) 0.13560(15) -0.14758(10)
W1A W 0.19811(5) 0.01669(5) -0.10047(3)
W2A W 0.39048(5) 0.40400(5) -0.21066(3)
W3A W 0.06175(5) 0.32635(5) -0.16692(3)
W4A W 0.46838(5) 0.15643(5) -0.21451(3)
W5A W 0.45572(5) 0.16343(5) -0.36210(3)
W6A W 0.04563(5) 0.33305(5) -0.32856(3)
W7A W -0.02153(5) 0.10124(5) -0.31731(3)
W8A W 0.40181(5) -0.07632(5) -0.20280(3)
W9A W 0.19950(6) -0.19971(5) -0.17752(4)
W10A W -0.00303(5) -0.11873(5) -0.23564(3)
W11A W 0.16472(5) 0.01771(5) -0.41078(3)
W12A W 0.38654(5) -0.06961(5) -0.35090(3)
W13A W 0.37173(5) 0.40789(5) -0.35874(3)
W14A W -0.00564(5) 0.09362(5) -0.15489(3)
W15A W 0.26467(5) 0.24962(5) -0.11127(3)
W16A W 0.23227(5) 0.24968(5) -0.42239(3)
W17A W 0.18468(5) 0.48652(5) -0.26359(3)
W18A W 0.18740(6) -0.19945(6) -0.32835(4)
P1A P 0.1851(3) 0.0073(3) -0.25639(18)
P2A P 0.2575(3) 0.2530(3) -0.26838(18)
O1A O 0.4611(10) 0.456(1) -0.1730(6)
O2A O 0.7609(10) 0.063(1) -0.2228(6)
O3A O 0.4283(8) 0.4374(9) -0.2908(5)
O4A O 0.4259(9) 0.4622(9) -0.4146(5)
O5A O 0.2793(8) 0.4984(9) -0.2143(5)
O6A O 0.4596(8) 0.2884(8) -0.2202(5)
O7A O 0.5270(8) 0.1560(8) -0.2959(5)
O8A O 0.3142(8) 0.3532(9) -0.1475(5)
O9A O 0.5455(8) 0.1485(9) -0.4195(5)
O10A O 0.4443(8) 0.2929(8) -0.3605(5)
O11A O 0.2875(8) 0.3497(8) -0.2735(5)
O12A O 0.2688(8) 0.5010(8) -0.3324(5)
O13A O 0.1193(9) 0.5913(9) -0.2563(6)
O14A O 0.2856(9) 0.3524(9) -0.4006(5)
O15A O 0.1117(8) 0.4254(9) -0.3126(5)
O16A O 0.2514(9) 0.2655(9) -0.4973(5)
O17A O 0.3481(8) 0.1840(8) -0.4046(5)
O18A O 0.3731(9) 0.1819(9) -0.1523(5)
O19A O 0.3484(8) 0.1840(8) -0.2766(5)
O20A O 0.1950(7) 0.2465(8) -0.3182(5)
O21A O 0.0302(8) 0.2091(8) -0.1487(5)
O22A O 0.0239(8) 0.3167(8) -0.2443(6)
O23A O 0.1113(8) 0.3203(8) -0.4067(5)
O24A O -0.0569(9) 0.3952(9) -0.3452(6)
O25A O 0.2057(7) 0.2444(8) -0.2061(5)
O26A O 0.1413(8) 0.3150(8) -0.1038(5)
O27A O -0.0358(9) 0.3919(9) -0.1312(6)
O28A O 0.1245(8) 0.4239(8) -0.2001(5)
O29A O 0.2985(9) 0.2607(10) -0.0426(6)
O30A O 0.5657(8) 0.1433(8) -0.1770(6)
O31A O 0.4514(8) 0.0372(9) -0.2184(6)
O32A O 0.2152(9) 0.1388(9) -0.0987(5)
O33A O 0.4387(8) 0.0410(9) -0.3508(5)
O34A O 0.1799(9) 0.1432(9) -0.4210(5)
O35A O 0.0127(8) 0.2154(8) -0.3364(5)
O36A O 0.2918(8) -0.0050(8) -0.3947(5)
O37A O 0.4661(9) -0.1205(10) -0.4052(6)
O38A O 0.4499(8) -0.1083(9) -0.2823(6)
O39A O 0.4904(9) -0.1306(10) -0.1656(6)
O40A O 0.3186(8) -0.0135(9) -0.1425(5)
O41A O 0.1491(8) 0.0556(9) -0.1964(5)
O42A O 0.0645(8) 0.0504(9) -0.0908(5)
O43A O -0.1165(8) 0.1176(9) -0.1191(6)
O44A O -0.0271(8) 0.1250(9) -0.2354(5)
O45A O -0.1367(9) 0.1226(9) -0.3278(6)
O46A O -0.0134(8) -0.0298(9) -0.1768(5)
O47A O 0.1779(8) -0.1054(9) -0.1247(5)
O48A O 0.1386(7) 0.0559(8) -0.3086(5)
O49A O 0.3220(8) -0.1650(9) -0.1972(6)
O50A O 0.3093(8) -0.1613(9) -0.3372(6)
O51A O 0.1726(9) -0.0089(9) -0.4849(6)
O52A O 0.1514(8) -0.0991(9) -0.3789(6)
O53A O 0.2043(9) -0.2857(9) -0.3774(6)
O54A O 0.1535(8) -0.0898(8) -0.2514(5)
O55A O 0.2919(8) -0.0033(8) -0.2680(5)
O56A O 0.2236(9) -0.2603(9) -0.2557(6)
O57A O 0.2233(9) -0.2890(9) -0.1323(6)
O58A O 0.0598(9) -0.1986(9) -0.2994(6)
O59A O -0.1087(9) -0.1573(10) -0.2233(7)
O60A O 0.0695(8) -0.1981(9) -0.1822(5)
O61A O -0.0265(8) -0.0254(8) -0.2908(5)
O62A O 0.215(1) -0.0121(9) -0.0284(6)
O63A O 0.0331(9) 0.0548(9) -0.3931(5)
N1A N 0.7055(11) 0.0197(11) -0.1048(7)
N2A N 0.7601(11) -0.1169(11) -0.0766(7)
N3A N 1.0615(11) -0.3949(11) -0.0562(7)
N4A N 1.1789(12) -0.4932(12) -0.0898(8)
N5A N 0.7337(11) 0.2489(11) -0.1927(7)
N6A N 0.7140(11) 0.3706(12) -0.2486(7)
N7A N 0.5250(13) 0.6229(12) -0.3972(7)
N8A N 0.4081(13) 0.6987(13) -0.4378(8)
C1A C 0.6353(16) -0.0176(17) -0.0755(11)
H1A H 0.57370 0.01090 -0.06910
C2A C 0.7818(13) -0.0428(13) -0.1046(8)
H2A H 0.84150 -0.03520 -0.12170
C3A C 0.6669(15) -0.1062(17) -0.0555(11)
H3A H 0.63320 -0.14650 -0.03380
C4A C 0.8291(14) -0.1965(15) -0.0660(9)
C5A C 0.8281(15) -0.2808(16) -0.0887(10)
C6A C 0.9021(13) -0.3418(14) -0.0828(9)
H4A H 0.90180 -0.39980 -0.09630
C7A C 0.9799(14) -0.3239(15) -0.0575(9)
C8A C 0.9849(13) -0.2415(14) -0.0335(9)
C9A C 0.9084(13) -0.1766(14) -0.0396(8)
H5A H 0.90870 -0.11860 -0.02610
C10A C 0.7483(19) -0.2980(19) -0.1225(15)
H6A H 0.72730 -0.35330 -0.10850
H7A H 0.69770 -0.24920 -0.11620
H8A H 0.76930 -0.30250 -0.16440
C11A C 1.0661(15) -0.2154(17) -0.0063(9)
H9A H 1.05090 -0.15450 0.00750
H10A H 1.07990 -0.25500 0.02690
H11A H 1.11970 -0.22010 -0.03550
C12A C 1.1130(15) -0.4313(15) -0.1055(9)
H12A H 1.10290 -0.41460 -0.14470
C13A C 1.0980(17) -0.4375(15) -0.0078(9)
H13A H 1.07660 -0.42750 0.03220
C14A C 1.1729(18) -0.4983(16) -0.0304(10)
H14A H 1.21270 -0.53660 -0.00800
C15A C 0.6888(14) 0.2914(14) -0.2357(9)
H15A H 0.64410 0.26770 -0.25470
C16A C 0.7975(15) 0.3070(15) -0.1783(10)
H16A H 0.84190 0.29520 -0.15110
C17A C 0.7812(15) 0.3805(17) -0.211(1)
H17A H 0.81040 0.43140 -0.20920
C18A C 0.6724(12) 0.4373(15) -0.2891(9)
C19A C 0.6277(14) 0.5171(15) -0.2631(10)
H18A H 0.63170 0.52760 -0.22300
C20A C 0.5775(15) 0.5804(15) -0.2968(9)
C21A C 0.5755(13) 0.5606(14) -0.3583(8)
C22A C 0.6223(13) 0.4821(15) -0.3808(9)
H19A H 0.62270 0.47300 -0.42150
C23A C 0.6708(12) 0.4126(14) -0.3472(9)
C24A C 0.7167(17) 0.3299(15) -0.3761(11)
H20A H 0.68120 0.28190 -0.36470
H21A H 0.72050 0.33830 -0.41870
H22A H 0.77870 0.31490 -0.36410
C25A C 0.5297(18) 0.6662(19) -0.2693(12)
H23A H 0.56190 0.68020 -0.23640
H24A H 0.53020 0.71390 -0.29860
H25A H 0.46610 0.66000 -0.25520
C26A C 0.4361(13) 0.6535(16) -0.3911(10)
H26A H 0.39640 0.64410 -0.35690
C27A C 0.5576(18) 0.6521(18) -0.4503(11)
H27A H 0.62000 0.64310 -0.46620
C28A C 0.4861(19) 0.697(2) -0.4775(12)
H28A H 0.48930 0.72140 -0.51590
Cu1* Cu 1.28818(15) 0.86440(15) 0.14758(10)
Cu1A* Cu -0.28818(15) 0.13560(15) -0.14758(10)
O43* O 0.1165(8) 0.8824(9) 0.1191(6)
O43A* O 0.8835(8) 0.1176(9) -0.1191(6)
#END
