
#######################################################################
#
#                 Cambridge Crystallographic Data Centre
#                                CCDC
#
#######################################################################
#
# If this CIF has been generated from an entry in the Cambridge
# Structural Database, then it will include bibliographic, chemical,
# crystal, experimental, refinement or atomic coordinate data resulting
# from the CCDC's data processing and validation procedures.
#
#######################################################################

data_CSD_CIF_HUBQEC
_audit_creation_date 2015-02-24
_audit_creation_method CSD-ConQuest-V1
_database_code_CSD HUBQEC
_database_code_depnum_ccdc_archive 'CCDC 1013482'
_chemical_formula_sum 'C108 H160 Cu6 Mo36 N48 O122 P3'
_chemical_formula_moiety
;
(C18 H24 Cu1 N8 2+)6n,n(Mo12 O34 P1 6-),2n(Mo12 O40 P1 3-),8n(H2 O1)
;
_journal_coden_Cambridge 208
_journal_volume 226
_journal_year 2015
_journal_page_first 88
_journal_name_full 'J.Solid State Chem. '
loop_
_publ_author_name
"Na Li"
"Bao Mu"
"Lei Lv"
"Rudan Huang"
_chemical_name_systematic
;
catena-(hexakis(bis(\m~2~-1,3-bis(Imidazolyl)propane)-copper) 
(\m~8~-phosphato)-octadecakis(\m~2~-oxo)-dodecaoxo-dodeca-molybdenum 
bis((\m~12~-phosphato)-tetracosakis(\m~2~-oxo)-dodecaoxo-dodeca-molybdenum) 
octahydrate)
;
_cell_volume   5418.892
_exptl_crystal_density_diffrn 2.455
_diffrn_ambient_temperature 293
_refine_special_details
;
The phosphate moiety of the hexa-anion is disordered by symmetry.

;
#These two values have been output from a single CSD field.
_refine_ls_R_factor_gt 0.0854
_refine_ls_wR_factor_gt 0.0854
_symmetry_cell_setting hexagonal
_symmetry_space_group_name_H-M 'P -3'
_symmetry_Int_Tables_number 147
loop_
_symmetry_equiv_pos_site_id
_symmetry_equiv_pos_as_xyz
1 x,y,z
2 -y,x-y,z
3 -x+y,-x,z
4 -x,-y,-z
5 y,-x+y,-z
6 x-y,x,-z
_cell_length_a 22.2807(9)
_cell_length_b 22.2807(9)
_cell_length_c 12.6044(7)
_cell_angle_alpha 90
_cell_angle_beta 90
_cell_angle_gamma 120
_cell_formula_units_Z 1
loop_
_atom_type_symbol
_atom_type_radius_bond
C 0.68
H 0.23
Cu 1.32
Mo 1.54
N 0.68
O 0.68
P 1.05
loop_
_atom_site_label
_atom_site_type_symbol
_atom_site_fract_x
_atom_site_fract_y
_atom_site_fract_z
Cu1 Cu 0.20851(10) 0.36943(10) 0.83003(14)
N1 N 0.1523(7) 0.2967(7) 0.5216(10)
N2 N 0.1948(7) 0.3315(8) 0.6830(11)
N3 N 0.1714(7) 0.3701(7) 0.1504(10)
N4 N 0.2106(7) 0.3858(7) -0.0148(10)
N5 N 0.0384(8) 0.3985(8) 0.8124(12)
N6 N 0.1153(8) 0.3641(8) 0.8220(11)
N7 N 0.0194(10) 0.5876(7) 0.7653(11)
N8 N 0.0833(10) 0.6920(7) 0.8283(11)
C1 C 0.1135(9) 0.2892(9) 0.4242(12)
H1 H 0.08150 0.30600 0.43580
H2 H 0.08690 0.24060 0.40470
C2 C 0.1634(9) 0.3302(9) 0.3346(12)
H3 H 0.19680 0.37610 0.36000
H4 H 0.18850 0.30710 0.31280
C3 C 0.1252(9) 0.3365(9) 0.2411(13)
H5 H 0.08880 0.29080 0.22030
H6 H 0.10370 0.36340 0.26150
C4 C 0.1576(9) 0.3374(9) 0.6048(13)
H7 H 0.13810 0.36570 0.60720
C5 C 0.2097(10) 0.2821(10) 0.6470(15)
H8 H 0.23290 0.26450 0.68580
C6 C 0.1856(10) 0.2628(10) 0.5460(14)
H9 H 0.19120 0.23210 0.50290
C7 C 0.1609(10) 0.3435(10) 0.0497(14)
H10 H 0.12340 0.30120 0.02950
C8 C 0.2551(10) 0.4414(10) 0.0430(14)
H11 H 0.29500 0.47980 0.01760
C9 C 0.2312(10) 0.4317(10) 0.1472(14)
H12 H 0.25230 0.46190 0.20370
C10 C 0.0081(10) 0.444(1) 0.8057(16)
H13 H 0.02360 0.47580 0.86540
H14 H -0.04210 0.41630 0.80880
C11 C 0.0292(10) 0.4837(10) 0.7051(15)
H15 H 0.01600 0.45180 0.64590
H16 H 0.07920 0.51310 0.70400
C12 C -0.0047(13) 0.5287(9) 0.6927(14)
H17 H 0.00300 0.54620 0.62060
H18 H -0.05430 0.49920 0.70220
C13 C 0.1033(9) 0.4155(10) 0.8299(14)
H19 H 0.13770 0.46040 0.84660
C14 C 0.0525(10) 0.3083(11) 0.8030(16)
H20 H 0.04250 0.26260 0.79690
C15 C 0.0062(11) 0.3315(11) 0.7944(17)
H21 H -0.04060 0.30410 0.77840
C16 C 0.0747(13) 0.6501(9) 0.7480(14)
H22 H 0.10300 0.66240 0.68830
C17 C 0.0295(13) 0.6537(10) 0.8957(15)
H23 H 0.02140 0.66970 0.95920
C18 C -0.0094(14) 0.5901(10) 0.8569(15)
H24 H -0.04910 0.55420 0.88770
Mo1 Mo 0.28955(7) 0.56379(6) 0.69955(10)
Mo2 Mo 0.49154(7) 0.66338(7) 0.46433(11)
Mo3 Mo 0.34054(7) 0.51034(7) 0.45055(11)
Mo4 Mo 0.39446(8) 0.61998(7) 0.24019(11)
O1 O 0.33330 0.66670 0.5902(12)
O2 O 0.3736(5) 0.6313(5) 0.4276(7)
O3 O 0.3310(5) 0.5334(5) 0.6010(8)
O4 O 0.2116(5) 0.5295(5) 0.6060(8)
O5 O 0.2545(5) 0.6231(5) 0.7572(8)
O6 O 0.2607(6) 0.5008(5) 0.7943(8)
O7 O 0.4403(5) 0.5682(5) 0.4865(8)
O8 O 0.3649(5) 0.5279(5) 0.3104(8)
O9 O 0.3315(5) 0.4318(5) 0.4688(8)
O10 O 0.4824(5) 0.6519(5) 0.3154(8)
O11 O 0.5072(5) 0.7579(5) 0.4368(8)
O12 O 0.5736(5) 0.6790(6) 0.4811(9)
O13 O 0.2976(5) 0.5873(5) 0.2211(8)
O14 O 0.4172(8) 0.6003(7) 0.1160(12)
P1 P 0.33330 0.66670 0.4673(4)
O15 O 0.33330 0.66670 0.987(2)
O16 O 0.4281(8) 0.5715(8) 0.9061(13)
H25 H 0.41230 0.59040 0.86460
H26 H 0.42390 0.58180 0.96960
Mo5 Mo 0.1395(4) 0.1613(3) 0.9148(6)
Mo6 Mo -0.02602(18) 0.10071(16) 0.8072(2)
O17 O 0.068(1) 0.1333(10) 0.8013(15)
O18 O 0.1408(12) 0.1772(11) 1.0643(18)
O19 O 0.2098(15) 0.2371(13) 0.882(2)
O20 O -0.1129(11) 0.0243(10) 0.8032(16)
O21 O -0.0353(15) 0.1539(14) 0.722(2)
P2 P 0.00000 0.00000 1.00000
O22 O 0.047(2) 0.049(2) 0.905(3)
H27? H 0.36210 0.66210 0.94840
H28? H 0.29860 0.65780 0.94840
Mo7? Mo 0.1165(7) 0.1717(6) 0.9293(11)
Mo8? Mo -0.0185(3) 0.0515(3) 0.7421(4)
O23? O 0.166(2) 0.140(2) 1.018(4)
O24? O 0.160(2) 0.2526(19) 0.878(3)
O25? O -0.030(3) 0.071(3) 0.616(4)
O26? O 0.015(3) 0.0728(12) 0.970(4)
Cu1* Cu 0.20851(10) 0.36943(10) -0.16997(14)
Cu1B Cu 0.16092(10) 0.79149(10) 0.83003(14)
N4* N 0.2106(7) 0.3858(7) 0.9852(10)
N8A N 0.308(1) 0.3913(7) 0.8283(11)
O2A O 0.3687(5) 0.7423(5) 0.4276(7)
O2B O 0.2577(5) 0.6264(5) 0.4276(7)
Mo1A Mo 0.43621(7) 0.72576(6) 0.69955(10)
Mo2A Mo 0.33662(7) 0.82816(7) 0.46433(11)
Mo3A Mo 0.48966(7) 0.83020(7) 0.45055(11)
Mo4A Mo 0.38002(8) 0.77448(7) 0.24019(11)
O3A O 0.4666(5) 0.7976(5) 0.6010(8)
O4A O 0.4705(5) 0.6821(5) 0.6060(8)
O5A O 0.3769(5) 0.6314(5) 0.7572(8)
O6A O 0.4992(6) 0.7599(5) 0.7943(8)
O7A O 0.4318(5) 0.8721(5) 0.4865(8)
O8A O 0.4721(5) 0.8370(5) 0.3104(8)
O9A O 0.5682(5) 0.8997(5) 0.4688(8)
O10A O 0.3481(5) 0.8305(5) 0.3154(8)
O11A O 0.2421(5) 0.7493(5) 0.4368(8)
O12A O 0.3210(5) 0.8946(6) 0.4811(9)
O13A O 0.4127(5) 0.7103(5) 0.2211(8)
O14A O 0.3997(8) 0.8169(7) 0.1160(12)
Mo1B Mo 0.27424(7) 0.71045(6) 0.69955(10)
Mo2B Mo 0.17184(7) 0.50846(7) 0.46433(11)
Mo3B Mo 0.16980(7) 0.65946(7) 0.45055(11)
Mo4B Mo 0.22552(8) 0.60554(7) 0.24019(11)
O3B O 0.2024(5) 0.6690(5) 0.6010(8)
O4B O 0.3179(5) 0.7884(5) 0.6060(8)
O5B O 0.3686(5) 0.7455(5) 0.7572(8)
O6B O 0.2401(6) 0.7393(5) 0.7943(8)
O7B O 0.1279(5) 0.5597(5) 0.4865(8)
O8B O 0.1630(5) 0.6351(5) 0.3104(8)
O9B O 0.1003(5) 0.6685(5) 0.4688(8)
O10B O 0.1695(5) 0.5176(5) 0.3154(8)
O11B O 0.2507(5) 0.4928(5) 0.4368(8)
O12B O 0.1054(5) 0.4264(6) 0.4811(9)
O13B O 0.2897(5) 0.7024(5) 0.2211(8)
O14B O 0.1831(8) 0.5828(7) 0.1160(12)
O22A O -0.049(2) -0.002(2) 0.905(3)
O22B O 0.002(2) -0.047(2) 0.905(3)
O22C O -0.047(2) -0.049(2) 1.095(3)
O22D O 0.049(2) 0.002(2) 1.095(3)
O22E O -0.002(2) 0.047(2) 1.095(3)
Mo5A Mo -0.1613(4) -0.0218(3) 0.9148(6)
Mo6A Mo -0.10071(18) -0.12673(16) 0.8072(2)
O17A O -0.1333(10) -0.0653(10) 0.8013(15)
O18A O -0.1772(12) -0.0364(11) 1.0643(18)
O19A O -0.2371(15) -0.0273(13) 0.882(2)
O20A O -0.0243(11) -0.1372(10) 0.8032(16)
O21A O -0.1539(15) -0.1892(14) 0.722(2)
Mo5B Mo 0.0218(4) -0.1395(3) 0.9148(6)
Mo6B Mo 0.12673(18) 0.02602(16) 0.8072(2)
O17B O 0.0653(10) -0.068(1) 0.8013(15)
O18B O 0.0364(12) -0.1408(11) 1.0643(18)
O19B O 0.0273(15) -0.2098(13) 0.882(2)
O20B O 0.1372(11) 0.1129(10) 0.8032(16)
O21B O 0.1892(15) 0.0353(14) 0.722(2)
Mo5C Mo -0.1395(4) -0.1613(3) 1.0852(6)
Mo6C Mo 0.02602(18) -0.10071(16) 1.1928(2)
O17C O -0.068(1) -0.1333(10) 1.1987(15)
O18C O -0.1408(12) -0.1772(11) 0.9357(18)
O19C O -0.2098(15) -0.2371(13) 1.118(2)
O20C O 0.1129(11) -0.0243(10) 1.1968(16)
O21C O 0.0353(15) -0.1539(14) 1.278(2)
Mo5D Mo 0.1613(4) 0.0218(3) 1.0852(6)
Mo6D Mo 0.10071(18) 0.12673(16) 1.1928(2)
O17D O 0.1333(10) 0.0653(10) 1.1987(15)
O18D O 0.1772(12) 0.0364(11) 0.9357(18)
O19D O 0.2371(15) 0.0273(13) 1.118(2)
O20D O 0.0243(11) 0.1372(10) 1.1968(16)
O21D O 0.1539(15) 0.1892(14) 1.278(2)
Mo5E Mo -0.0218(4) 0.1395(3) 1.0852(6)
Mo6E Mo -0.12673(18) -0.02602(16) 1.1928(2)
O17E O -0.0653(10) 0.068(1) 1.1987(15)
O18E O -0.0364(12) 0.1408(11) 0.9357(18)
O19E O -0.0273(15) 0.2098(13) 1.118(2)
O20E O -0.1372(11) -0.1129(10) 1.1968(16)
O21E O -0.1892(15) -0.0353(14) 1.278(2)
#END
