
#######################################################################
#
#                 Cambridge Crystallographic Data Centre
#                                CCDC
#
#######################################################################
#
# If this CIF has been generated from an entry in the Cambridge
# Structural Database, then it will include bibliographic, chemical,
# crystal, experimental, refinement or atomic coordinate data resulting
# from the CCDC's data processing and validation procedures.
#
#######################################################################

data_CSD_CIF_HUBQOM
_audit_creation_date 2015-02-24
_audit_creation_method CSD-ConQuest-V1
_database_code_CSD HUBQOM
_database_code_depnum_ccdc_archive 'CCDC 1013484'
_chemical_formula_sum 'C108 H156 Cl1 Mo36 N48 Ni6 O126 P3'
_chemical_formula_moiety
;
(C18 H24 N8 Ni1 2+)6n,2n(Mo12 O40 P1 4-),n(Mo12 O40 P1 3-),n(Cl1 1-),6n(H2 O1)
;
_journal_coden_Cambridge 208
_journal_volume 226
_journal_year 2015
_journal_page_first 88
_journal_name_full 'J.Solid State Chem. '
loop_
_publ_author_name
"Na Li"
"Bao Mu"
"Lei Lv"
"Rudan Huang"
_chemical_name_systematic
;
catena-(hexakis(bis(\m~2~-1,3-bis(Imidazolyl)propane)-nickel) 
(\m~12~-phosphato)-tetracosakis(\m~2~-oxo)-dodecaoxo-dodeca-molybdenum(vi) 
bis((\m~12~-phosphato)-tetracosakis(\m~2~-oxo)-dodecaoxo-molybdenum(v)-undeca-
molybdenum(vi)) chloride hexahydrate)
;
_cell_volume   5398.491
_exptl_crystal_density_diffrn 2.485
_diffrn_ambient_temperature 293
_refine_special_details
;
The structure is disordered.

;
#These two values have been output from a single CSD field.
_refine_ls_R_factor_gt 0.0973
_refine_ls_wR_factor_gt 0.0973
_symmetry_cell_setting hexagonal
_symmetry_space_group_name_H-M 'P -3'
_symmetry_Int_Tables_number 147
loop_
_symmetry_equiv_pos_site_id
_symmetry_equiv_pos_as_xyz
1 x,y,z
2 -y,x-y,z
3 -x+y,-x,z
4 -x,-y,-z
5 y,-x+y,-z
6 x-y,x,-z
_cell_length_a 22.2555(9)
_cell_length_b 22.2555(9)
_cell_length_c 12.5854(8)
_cell_angle_alpha 90
_cell_angle_beta 90
_cell_angle_gamma 120
_cell_formula_units_Z 1
loop_
_atom_type_symbol
_atom_type_radius_bond
C 0.68
H 0.23
Cl 0.99
Mo 1.54
N 0.68
Ni 1.24
O 0.68
P 1.05
loop_
_atom_site_label
_atom_site_type_symbol
_atom_site_fract_x
_atom_site_fract_y
_atom_site_fract_z
Ni1 Ni 0.79173(13) 0.63123(13) 0.66984(17)
N1 N 0.5886(10) 0.5693(9) 0.7361(14)
N2 N 0.6935(9) 0.6107(9) 0.6730(13)
N3 N 0.3981(10) 0.3594(14) 0.6874(15)
N4 N 0.3652(9) 0.2482(13) 0.6772(13)
N5 N 0.8281(9) 0.6308(9) 0.3511(13)
N6 N 0.7895(9) 0.6152(9) 0.5144(13)
N7 N 0.8492(9) 0.7054(9) -0.0213(13)
N8 N 0.8064(9) 0.6694(9) -0.1820(13)
C1 C 0.6498(12) 0.5738(12) 0.7501(17)
H1 H 0.66060 0.55380 0.80640
C2 C 0.6552(12) 0.6257(12) 0.6029(17)
H2 H 0.67180 0.65020 0.53960
C3 C 0.5899(13) 0.5994(12) 0.6399(17)
H3 H 0.55340 0.60120 0.60730
C4 C 0.4146(12) 0.3107(17) 0.6728(17)
H4 H 0.46010 0.32160 0.65990
C5 C 0.3060(13) 0.2557(18) 0.7008(19)
H5 H 0.26070 0.21990 0.71100
C6 C 0.3287(12) 0.3252(18) 0.705(2)
H6 H 0.30160 0.34540 0.71850
C7 C 0.5294(12) 0.5329(12) 0.8092(18)
H7 H 0.50000 0.55330 0.80190
H8 H 0.54710 0.54160 0.88130
C8 C 0.4839(13) 0.4541(12) 0.7945(18)
H9 H 0.51360 0.43380 0.79470
H10 H 0.45290 0.43530 0.85490
C9 C 0.4416(13) 0.4325(12) 0.6953(19)
H11 H 0.41310 0.45420 0.69320
H12 H 0.47250 0.44900 0.63440
C10 C 0.8400(12) 0.6572(12) 0.4514(16)
H13 H 0.87830 0.69890 0.47210
C11 C 0.7451(13) 0.5593(12) 0.4545(16)
H14 H 0.70430 0.52150 0.47920
C12 C 0.7699(12) 0.5672(12) 0.3510(17)
H15 H 0.75100 0.53620 0.29480
C13 C 0.8425(11) 0.6632(11) -0.1050(16)
H16 H 0.86110 0.63400 -0.10700
C14 C 0.8152(12) 0.7381(12) -0.0479(18)
H17 H 0.81120 0.77060 -0.00650
C15 C 0.7862(11) 0.7153(11) -0.1497(16)
H18 H 0.75880 0.72870 -0.18730
C16 C 0.8735(12) 0.6631(12) 0.2559(16)
H19 H 0.91200 0.70800 0.27590
H20 H 0.89270 0.63420 0.23410
C17 C 0.8378(12) 0.6718(12) 0.1671(16)
H21 H 0.81490 0.69680 0.19020
H22 H 0.80250 0.62660 0.14180
C18 C 0.8879(11) 0.7117(11) 0.0756(15)
H23 H 0.91600 0.76020 0.09470
H24 H 0.91870 0.69330 0.06340
Mo1 Mo 0.71035(9) 0.43614(8) 0.80107(12)
Mo2 Mo 0.50811(8) 0.33623(9) 1.03610(13)
Mo3 Mo 0.6057(1) 0.38014(9) 1.26092(14)
Mo4 Mo 0.65919(8) 0.48956(8) 1.04996(13)
P1 P 0.66670 0.33330 1.0330(5)
O1 O 0.66670 0.33330 0.9128(15)
O2 O 0.6271(6) 0.3688(6) 1.0730(9)
O3 O 0.6688(6) 0.4665(6) 0.8985(9)
O4 O 0.7896(6) 0.4721(6) 0.8962(9)
O5 O 0.6227(6) 0.3698(6) 0.7419(9)
O6 O 0.7397(7) 0.4997(7) 0.7079(10)
O7 O 0.5598(6) 0.4313(6) 1.0138(9)
O8 O 0.5182(6) 0.3483(6) 1.1864(10)
O9 O 0.4932(6) 0.2415(6) 1.0638(9)
O10 O 0.4264(6) 0.3199(7) 1.0199(11)
O11 O 0.6348(6) 0.4714(6) 1.1896(9)
O12 O 0.7030(7) 0.4127(7) 1.2796(10)
O13 O 0.5808(9) 0.3978(9) 1.3865(13)
O14 O 0.6695(6) 0.5691(7) 1.0327(10)
Cl1 Cl 0.66670 0.33330 0.520(2)
O15 O 0.573(1) 0.4299(10) 0.5941(16)
H25 H 0.58850 0.41080 0.63590
H26 H 0.57630 0.41870 0.53070
Mo5? Mo 0.9496(4) 0.9313(4) 0.2409(5)
O16? O 0.929(3) 0.899(3) 0.116(5)
O17? O 0.845(3) 1.040(4) 0.529(4)
O18? O 0.8167(19) 0.888(3) 0.517(3)
Mo6? Mo 1.0257(3) 0.8995(2) 0.6937(3)
Mo7? Mo 0.86757(24) 0.83567(14) 0.5820(2)
P2? P 1.00000 1.00000 0.50000
O19? O 1.051(4) 1.009(3) 0.592(5)
O20? O 1.044(6) 0.967(4) 0.538(5)
O21? O 0.9421(17) 0.8537(11) 0.6816(18)
O22? O 1.1096(16) 0.9616(11) 0.6842(17)
O23? O 1.0385(24) 0.8481(17) 0.778(2)
O24? O 0.8556(26) 0.8186(17) 0.423(3)
O25? O 0.8120(22) 0.7543(13) 0.622(2)
Ni1* Ni 0.79173(13) 0.63123(13) -0.33016(17)
Ni1A Ni 0.36877(13) 0.16050(13) 0.66984(17)
N4B N 0.8830(9) 0.6348(13) 0.6772(13)
N8* N 0.8064(9) 0.6694(9) 0.8180(13)
O2A O 0.6312(6) 0.2583(6) 1.0730(9)
O2B O 0.7417(6) 0.3729(6) 1.0730(9)
Mo1A Mo 0.56386(9) 0.27421(8) 0.80107(12)
Mo2A Mo 0.66377(8) 0.17188(9) 1.03610(13)
Mo3A Mo 0.61986(10) 0.22556(9) 1.26092(14)
Mo4A Mo 0.51044(8) 0.16963(8) 1.04996(13)
O3A O 0.5335(6) 0.2023(6) 0.8985(9)
O4A O 0.5279(6) 0.3175(6) 0.8962(9)
O5A O 0.6302(6) 0.2529(6) 0.7419(9)
O6A O 0.5003(7) 0.2400(7) 0.7079(10)
O7A O 0.5687(6) 0.1285(6) 1.0138(9)
O8A O 0.6517(6) 0.1699(6) 1.1864(10)
O9A O 0.7585(6) 0.2517(6) 1.0638(9)
O10A O 0.6801(6) 0.1065(7) 1.0199(11)
O11A O 0.5286(6) 0.1634(6) 1.1896(9)
O12A O 0.5873(7) 0.2903(7) 1.2796(10)
O13A O 0.6022(9) 0.1830(9) 1.3865(13)
O14A O 0.4309(6) 0.1004(7) 1.0327(10)
Mo1B Mo 0.72579(9) 0.28965(8) 0.80107(12)
Mo2B Mo 0.82812(8) 0.49189(9) 1.03610(13)
Mo3B Mo 0.77444(10) 0.39430(9) 1.26092(14)
Mo4B Mo 0.83037(8) 0.34081(8) 1.04996(13)
O3B O 0.7977(6) 0.3312(6) 0.8985(9)
O4B O 0.6825(6) 0.2104(6) 0.8962(9)
O5B O 0.7471(6) 0.3773(6) 0.7419(9)
O6B O 0.7600(7) 0.2603(7) 0.7079(10)
O7B O 0.8715(6) 0.4402(6) 1.0138(9)
O8B O 0.8301(6) 0.4818(6) 1.1864(10)
O9B O 0.7483(6) 0.5068(6) 1.0638(9)
O10B O 0.8935(6) 0.5736(7) 1.0199(11)
O11B O 0.8366(6) 0.3652(6) 1.1896(9)
O12B O 0.7097(7) 0.2970(7) 1.2796(10)
O13B O 0.8170(9) 0.4192(9) 1.3865(13)
O14B O 0.8996(6) 0.3305(7) 1.0327(10)
#END
