
#######################################################################
#
#                 Cambridge Crystallographic Data Centre
#                                CCDC
#
#######################################################################
#
# If this CIF has been generated from an entry in the Cambridge
# Structural Database, then it will include bibliographic, chemical,
# crystal, experimental, refinement or atomic coordinate data resulting
# from the CCDC's data processing and validation procedures.
#
#######################################################################

data_CSD_CIF_HUCGAO
_audit_creation_date 2009-10-28
_audit_creation_method CSD-ConQuest-V1
_database_code_CSD HUCGAO
_database_code_depnum_ccdc_archive 'CCDC 747122'
_chemical_formula_sum 'C38 H68 N6 O20 Zn2'
_chemical_formula_moiety
;
(C28 H26 N2 O12 Zn2 2-)n,2n(C2 H8 N1 1+),2n(C3 H7 N1 O1),6n(H2 O1)
;
_journal_coeditor_code "IUCr AT2837"
_journal_coden_Cambridge 1370
_journal_volume 65
_journal_year 2009
_journal_page_first m1071
_journal_name_full 'Acta Crystallogr.,Sect.E:Struct.Rep.Online '
loop_
_publ_author_name
"Jie Xiao"
"Hu Zhou"
"Ai-Hua Yuan"
_chemical_name_systematic
;
catena-(bis(Dimethylammonium) 
tris(\m~2~-terephthalato-O,O')-bis(dimethylamine-N)-di-zinc(ii) 
N,N-dimethylformamide solvate hexahydrate)
;
_cell_volume   6459.498
_exptl_crystal_colour 'colorless'
_exptl_crystal_density_diffrn 1.09
_exptl_crystal_description 'block'
_diffrn_ambient_temperature 291
_refine_special_details
;
A number of water molecules are disordered.

;
#These two values have been output from a single CSD field.
_refine_ls_R_factor_gt 0.0489
_refine_ls_wR_factor_gt 0.0489
_symmetry_cell_setting orthorhombic
_symmetry_space_group_name_H-M 'P n m a'
_symmetry_Int_Tables_number 62
loop_
_symmetry_equiv_pos_site_id
_symmetry_equiv_pos_as_xyz
1 x,y,z
2 1/2-x,-y,1/2+z
3 -x,1/2+y,-z
4 1/2+x,1/2-y,1/2-z
5 -x,-y,-z
6 -1/2+x,y,-1/2-z
7 x,-1/2-y,z
8 -1/2-x,-1/2+y,-1/2+z
_cell_length_a 18.421(6)
_cell_length_b 30.906(11)
_cell_length_c 11.346(4)
_cell_angle_alpha 90
_cell_angle_beta 90
_cell_angle_gamma 90
_cell_formula_units_Z 4
loop_
_atom_type_symbol
_atom_type_radius_bond
C 0.68
H 0.23
N 0.68
O 0.68
Zn 1.22
loop_
_atom_site_label
_atom_site_type_symbol
_atom_site_fract_x
_atom_site_fract_y
_atom_site_fract_z
Zn1 Zn 0.748174(18) 0.574369(10) 0.82017(3)
O1 O 0.65833(10) 0.56316(7) 0.90871(16)
O2 O 0.66892(11) 0.49777(6) 0.82720(15)
O3 O 0.84206(11) 0.54729(7) 0.85243(16)
O4 O 0.80801(10) 0.52970(7) 1.03599(16)
O5 O 0.75628(10) 0.63783(6) 0.79740(15)
O6 O 0.78004(10) 0.63646(6) 0.98921(16)
N1 N 0.73121(13) 0.55959(8) 0.6450(2)
H1 H 0.72000 0.53100 0.64000
C1 C 0.63617(15) 0.52421(10) 0.8892(2)
C2 C 0.56500(15) 0.51227(9) 0.9466(2)
C3 C 0.52584(15) 0.54188(9) 1.0140(2)
H2 H 0.54310 0.56990 1.02410
C4 C 0.53859(14) 0.47065(9) 0.9343(2)
H3 H 0.56480 0.45070 0.89020
C5 C 0.85371(15) 0.53206(9) 0.9570(2)
C6 C 0.92994(15) 0.51533(9) 0.9779(2)
C7 C 0.97830(16) 0.50915(9) 0.8842(2)
H4 H 0.96370 0.51520 0.80760
C8 C 0.95059(16) 0.50634(9) 1.0942(2)
H5 H 0.91820 0.51050 1.15610
C9 C 0.76932(16) 0.65657(10) 0.8979(3)
C10 C 0.76968(16) 0.70493(10) 0.8943(3)
C11 C 0.77888(16) 0.72718(9) 0.9980(2)
H6 H 0.78510 0.71210 1.06830
C12 C 0.75900(15) 0.72744(10) 0.7922(3)
H7 H 0.75170 0.71250 0.72200
C13 C 0.79857(15) 0.56728(10) 0.5745(2)
H8 H 0.79850 0.54880 0.50650
H9 H 0.84040 0.56100 0.62200
H10 H 0.80010 0.59700 0.54970
C14 C 0.66929(16) 0.58483(10) 0.5948(3)
H11 H 0.68320 0.61460 0.58670
H12 H 0.62820 0.58280 0.64660
H13 H 0.65660 0.57330 0.51900
N2 N 0.71822(14) 0.58391(7) 0.1646(2)
H14 H 0.74330 0.57210 0.10390
H15 H 0.68980 0.60510 0.14000
C15 C 0.76977(15) 0.60535(9) 0.2428(3)
H16 H 0.76300 0.59500 0.32190
H17 H 0.76180 0.63600 0.24050
H18 H 0.81840 0.59910 0.21750
C16 C 0.67670(15) 0.54833(9) 0.2260(3)
H19 H 0.70520 0.53710 0.28990
H20 H 0.66660 0.52550 0.17090
H21 H 0.63190 0.55970 0.25610
N3 N 0.99518(13) 0.65769(8) 0.7182(2)
O7 O 0.94026(11) 0.70680(7) 0.62427(17)
C17 C 1.07238(16) 0.66164(10) 0.6734(3)
H22 H 1.07830 0.68890 0.63380
H23 H 1.08230 0.63850 0.61940
H24 H 1.10550 0.66010 0.73870
C18 C 0.97423(16) 0.61309(10) 0.7612(3)
H25 H 0.99700 0.60760 0.83590
H26 H 0.98990 0.59180 0.70510
H27 H 0.92250 0.61150 0.77000
C19 C 0.94719(16) 0.69498(10) 0.7315(3)
H28 H 0.92720 0.70690 0.79950
O8 O 0.9438(3) 0.67157(17) -0.0031(4)
H29 H 0.97460 0.66890 -0.05840
H30 H 0.96370 0.66520 0.06220
O9 O 0.8541(3) 0.71662(18) 0.2652(5)
H31 H 0.88350 0.73540 0.23840
H32 H 0.81090 0.72580 0.25770
O10? O 0.8853(4) 0.6581(2) 0.4696(6)
H33? H 0.92000 0.67600 0.47800
H34? H 0.89860 0.63330 0.49380
O11 O 0.9212(4) 0.6362(2) 0.3470(6)
H35 H 0.96600 0.62960 0.34750
H36 H 0.90330 0.64260 0.28020
O12 O 0.5802(4) 0.6679(2) 0.4913(6)
H37 H 0.54680 0.66160 0.44250
H38 H 0.57610 0.69370 0.51660
O13 O 0.6421(4) 0.7102(2) 0.3095(6)
H39 H 0.61650 0.70060 0.25280
H40 H 0.62470 0.73420 0.33310
O14? O 0.5498(4) 0.7708(2) 0.2396(6)
H41? H 0.52080 0.76140 0.18730
H42? H 0.53160 0.79310 0.27220
O15 O 0.5532(4) 0.6179(2) 0.2001(6)
H43 H 0.52130 0.62890 0.24520
H44 H 0.59330 0.63110 0.20890
O16 O 0.7248(3) 0.67473(17) 0.5303(5)
H45 H 0.69950 0.67400 0.46770
H46 H 0.75970 0.69250 0.52200
Zn1D Zn 0.251826(18) 0.425631(10) 1.17983(3)
Zn1D* Zn 1.251826(18) 0.425631(10) 1.17983(3)
Zn1F Zn 0.748174(18) 0.925631(10) 0.82017(3)
O1D O 0.34167(10) 0.43684(7) 1.09129(16)
O2D O 0.33108(11) 0.50223(6) 1.17280(15)
O3D O 1.15794(11) 0.45271(7) 1.14757(16)
O3D* O 0.15794(11) 0.45271(7) 1.14757(16)
O4D O 1.19199(10) 0.47030(7) 0.96401(16)
O5F O 0.75628(10) 0.86217(6) 0.79740(15)
O5D O 0.24372(10) 0.36217(6) 1.20260(15)
O6F O 0.78004(10) 0.86354(6) 0.98921(16)
N1D N 0.26879(13) 0.44041(8) 1.3550(2)
H1D H 0.28000 0.46900 1.36000
C1D C 0.36383(15) 0.47579(10) 1.1108(2)
C2D C 0.43500(15) 0.48773(9) 1.0534(2)
C3D C 0.47416(15) 0.45812(9) 0.9860(2)
H2D H 0.45690 0.43010 0.97590
C4D C 0.46141(14) 0.52935(9) 1.0657(2)
H3D H 0.43520 0.54930 1.10980
C5D C 1.14629(15) 0.46794(9) 1.0430(2)
C6D C 1.07006(15) 0.48467(9) 1.0221(2)
C7D C 1.02170(16) 0.49085(9) 1.1158(2)
H4D H 1.03630 0.48480 1.19240
C8D C 1.04941(16) 0.49366(9) 0.9058(2)
H5D H 1.08180 0.48950 0.84390
C9F C 0.76932(16) 0.84343(10) 0.8979(3)
C10F C 0.76968(16) 0.79507(10) 0.8943(3)
C11F C 0.77888(16) 0.77282(9) 0.9980(2)
H6F H 0.78510 0.78790 1.06830
C12F C 0.75900(15) 0.77256(10) 0.7922(3)
H7F H 0.75170 0.78750 0.72200
C13D C 0.20143(15) 0.43272(10) 1.4255(2)
H8D H 0.20150 0.45120 1.49350
H9D H 0.15960 0.43900 1.37800
H10D H 0.19990 0.40300 1.45030
C14D C 0.33071(16) 0.41517(10) 1.4052(3)
H11D H 0.31680 0.38540 1.41330
H12D H 0.37180 0.41720 1.35340
H13D H 0.34340 0.42670 1.48100
#END
