
#######################################################################
#
#                 Cambridge Crystallographic Data Centre
#                                CCDC
#
#######################################################################
#
# If this CIF has been generated from an entry in the Cambridge
# Structural Database, then it will include bibliographic, chemical,
# crystal, experimental, refinement or atomic coordinate data resulting
# from the CCDC's data processing and validation procedures.
#
#######################################################################

data_CSD_CIF_HUFTAF
_audit_creation_date 2015-07-04
_audit_creation_method CSD-ConQuest-V1
_database_code_CSD HUFTAF
_database_code_depnum_ccdc_archive 'CCDC 1410472'
_chemical_formula_sum 'C6 H20 Cl2 Mn2 N6 O12'
_chemical_formula_moiety
;
(C4 H4 Cl2 Mn2 O10 2-)n,2(C1 H6 N3 1+),2(H2 O1)
;
_journal_coden_Cambridge 1078
_journal_year 2015
_journal_name_full 'CSD Communication(Private Communication) '
loop_
_publ_author_name
"J.J.Bloggs"
_chemical_name_systematic
;
catena-[bis(diaminomethaniminium) 
bis(\m-oxalato)-dichloro-diaqua-di-manganese dihydrate]
;
_cell_volume    482.558
_exptl_crystal_colour 'yellow'
_exptl_crystal_density_diffrn 1.889
_diffrn_ambient_temperature 298
#These two values have been output from a single CSD field.
_refine_ls_R_factor_gt 0.1179
_refine_ls_wR_factor_gt 0.1179
_symmetry_cell_setting triclinic
_symmetry_space_group_name_H-M 'P -1'
_symmetry_Int_Tables_number 2
loop_
_symmetry_equiv_pos_site_id
_symmetry_equiv_pos_as_xyz
1 x,y,z
2 -x,-y,-z
_cell_length_a 6.7260(3)
_cell_length_b 7.5220(7)
_cell_length_c 9.7810(9)
_cell_angle_alpha 84.274(7)
_cell_angle_beta 78.56(1)
_cell_angle_gamma 88.145(6)
_cell_formula_units_Z 1
loop_
_atom_type_symbol
_atom_type_radius_bond
C 0.68
H 0.23
Cl 0.99
Mn 1.61
N 0.68
O 0.68
loop_
_atom_site_label
_atom_site_type_symbol
_atom_site_fract_x
_atom_site_fract_y
_atom_site_fract_z
Mn1 Mn 0.72551(13) -0.00349(11) 0.72102(8)
Cl1 Cl 1.0319(2) 0.1598(2) 0.73366(18)
O1 O 0.5097(6) 0.1603(5) 0.8576(4)
O2 O 0.3317(7) 0.1588(5) 1.0761(4)
C1 C 0.5653(9) 0.0797(7) 0.4614(6)
O3 O 0.5272(7) 0.1390(6) 0.3459(4)
O4 O 0.6931(7) 0.1384(6) 0.5205(5)
O5 O 0.9112(8) -0.2312(6) 0.6460(5)
C2 C 0.4549(9) 0.0917(7) 0.9805(6)
H1 H 0.878(12) -0.328(7) 0.593(7)
H2 H 0.87(3) -0.19(2) 0.556(10)
N1 N 0.1714(8) -0.2191(6) 0.9321(6)
H3 H 0.10700 -0.17010 1.00400
H4 H 0.19470 -0.15890 0.85120
N2 N 0.1978(9) -0.4774(7) 1.0699(6)
H5 H 0.13330 -0.42760 1.14140
H6 H 0.23840 -0.58670 1.07960
N3 N 0.3357(10) -0.4618(7) 0.8349(6)
H7 H 0.36030 -0.40130 0.75420
H8 H 0.37670 -0.57110 0.84390
C3 C 0.2342(9) -0.3865(8) 0.9457(7)
O6 O 0.7186(19) -0.4641(12) 0.5097(13)
H9 H 0.74(5) -0.47(4) 0.407(5)
H10 H 0.718(9) -0.514(7) 0.607(3)
O1A O 0.4903(6) -0.1603(5) 1.1424(4)
C2A C 0.5451(9) -0.0917(7) 1.0195(6)
O2A O 0.6683(7) -0.1588(5) 0.9239(4)
C1A C 0.4347(9) -0.0797(7) 0.5386(6)
O4A O 0.3069(7) -0.1384(6) 0.4795(5)
O3A O 0.4728(7) -0.1390(6) 0.6541(4)
Mn1A Mn 0.27449(13) 0.00349(11) 0.27898(8)
Cl1A Cl -0.0319(2) -0.1598(2) 0.26634(18)
O5A O 0.0888(8) 0.2312(6) 0.3540(5)
H1A H 0.122(12) 0.328(7) 0.407(7)
H2A H 0.13(3) 0.19(2) 0.444(10)
Mn1A* Mn 0.27449(13) 0.00349(11) 1.27898(8)
O1A* O 0.4903(6) -0.1603(5) 0.1424(4)
O2* O 0.3317(7) 0.1588(5) 0.0761(4)
#END
