
#######################################################################
#
#                 Cambridge Crystallographic Data Centre
#                                CCDC
#
#######################################################################
#
# If this CIF has been generated from an entry in the Cambridge
# Structural Database, then it will include bibliographic, chemical,
# crystal, experimental, refinement or atomic coordinate data resulting
# from the CCDC's data processing and validation procedures.
#
#######################################################################

data_CSD_CIF_HULREM
_audit_creation_date 2010-09-06
_audit_creation_method CSD-ConQuest-V1
_database_code_CSD HULREM
_database_code_depnum_ccdc_archive 'CCDC 723040'
_chemical_formula_sum 'C100 H80 Cu6 N20 O40 V1 W12'
_chemical_formula_moiety
;
(C20 H16 Cu1 N4 1+)3n,n(C40 H32 Cu3 N8 O40 V1 W12 3-)
;
_journal_coden_Cambridge 971
_journal_volume 11
_journal_year 2009
_journal_page_first 1998
_journal_name_full 'Solid State Sciences '
loop_
_publ_author_name
"Zhangang Han"
"Tao Chai"
"Xueliang Zhai"
"Jiye Wang"
"Changwen Hu"
_chemical_name_systematic
;
catena-(tris(bis(2,4'-Bipyridine)-copper(i)) 
tetrakis(\m~4~-oxo)-bis(\m~2~-2,4'-bipyridine)-hexacosakis(\m~2~-oxo)-decaoxo-
tri-copper(i)-vanadium(v)-nona-tungsten(vi)-tri-tungsten(v))
;
_cell_volume   2862.193
_exptl_crystal_colour 'black'
_exptl_crystal_density_diffrn 2.808
_exptl_crystal_description 'block'
_diffrn_ambient_temperature 298
_refine_special_details
;
The oxygen atoms associated with the central vanadium atom are equally 
disordered over two sites by symmetry.
;
#These two values have been output from a single CSD field.
_refine_ls_R_factor_gt 0.0648
_refine_ls_wR_factor_gt 0.0648
_symmetry_cell_setting triclinic
_symmetry_space_group_name_H-M 'P -1'
_symmetry_Int_Tables_number 2
loop_
_symmetry_equiv_pos_site_id
_symmetry_equiv_pos_as_xyz
1 x,y,z
2 -x,-y,-z
_cell_length_a 13.8520(14)
_cell_length_b 14.2530(18)
_cell_length_c 16.919(2)
_cell_angle_alpha 68.310(1)
_cell_angle_beta 73.855(2)
_cell_angle_gamma 69.349(1)
_cell_formula_units_Z 1
loop_
_atom_type_symbol
_atom_type_radius_bond
C 0.68
H 0.23
Cu 1.32
N 0.68
O 0.73
V 1.33
W 1.32
loop_
_atom_site_label
_atom_site_type_symbol
_atom_site_fract_x
_atom_site_fract_y
_atom_site_fract_z
W1 W 0.10986(8) 0.98910(7) 0.78722(6)
W2 W 0.18753(7) 0.77091(7) 0.96559(6)
W3 W 0.08358(7) 0.78214(7) 1.17772(6)
W4 W 0.26352(7) 0.99896(7) 0.91778(6)
W5 W 0.15153(7) 1.01663(6) 1.12873(6)
W6 W 0.07472(7) 1.22983(6) 0.94829(6)
V1 V 0.00000 1.00000 1.00000
Cu1 Cu 0.3625(2) 0.5127(2) 0.92749(19)
Cu2 Cu 0.50000 0.00000 1.00000
Cu3 Cu 0.1113(2) 0.5396(3) 0.95820(18)
Cu4 Cu 1.00000 -0.50000 0.50000
N1 N 0.3684(14) 0.5379(14) 0.8076(13)
N2 N 0.483(2) 0.1439(16) 0.9322(17)
N3 N 0.5640(17) 0.1417(18) 1.2928(16)
N4 N 0.4065(13) 0.4318(14) 1.0352(13)
N5 N 0.1146(18) 0.7002(18) 0.5199(17)
N6 N 0.0964(13) 0.6077(15) 0.8412(12)
N7 N 0.1393(17) 0.2994(18) 1.3907(15)
N8 N 0.1384(14) 0.4560(14) 1.0709(12)
N9 N 0.506(3) -0.293(2) 0.410(2)
N10 N 0.878(3) -0.435(3) 0.432(3)
O1 O 0.111(2) 0.958(2) 0.9366(18)
O2 O 0.027(2) 0.9630(19) 1.1002(17)
O3? O 0.0338(19) 0.8709(19) 1.0363(17)
O4? O -0.0893(18) 0.9496(18) 1.0039(16)
O5 O 0.2165(12) 1.0184(11) 0.8159(10)
O6 O 0.1617(12) 0.8467(11) 0.8513(10)
O7 O 0.1821(11) 0.7454(12) 1.083(1)
O8 O 0.2716(12) 0.8558(11) 0.9524(10)
O9 O 0.1593(11) 0.8724(10) 1.1665(10)
O10 O 0.2578(12) 0.9852(11) 1.0322(10)
O11 O 0.1145(11) 1.1565(11) 1.0590(9)
O12 O 0.1989(12) 1.1468(11) 0.8998(9)
O13 O 0.0359(12) 1.1337(11) 0.7638(11)
O14 O -0.0190(11) 0.9585(11) 0.8031(11)
O15 O 0.0644(11) 0.7308(12) 0.9907(10)
O16 O -0.0174(10) 0.7417(12) 1.1497(9)
O17 O 0.1580(11) 0.9812(11) 0.6901(9)
O18 O 0.2747(11) 0.6613(11) 0.9479(9)
O19 O 0.1199(11) 0.6806(11) 1.2621(9)
O20 O 0.3890(11) 0.9951(11) 0.881(1)
O21 O 0.2221(12) 1.0229(11) 1.1911(10)
O22 O 0.1082(11) 1.3415(10) 0.9254(9)
C1 C 0.420(2) 0.4576(19) 0.7700(18)
C2 C 0.4407(19) 0.481(2) 0.6806(18)
H1 H 0.47500 0.42730 0.65540
C3 C 0.4105(19) 0.585(2) 0.6289(18)
H2 H 0.42450 0.60010 0.56920
C4 C 0.3592(18) 0.665(2) 0.6666(18)
H3 H 0.33900 0.73400 0.63200
C5 C 0.3381(18) 0.6414(19) 0.7559(17)
H4 H 0.30380 0.69510 0.78110
C6 C 0.381(2) 0.208(2) 0.9351(19)
H5 H 0.32650 0.18060 0.97200
C7 C 0.359(2) 0.312(2) 0.8829(19)
H6 H 0.29020 0.35420 0.88490
C8 C 0.440(2) 0.352(2) 0.8279(18)
C9 C 0.542(2) 0.288(2) 0.8250(19)
H7 H 0.59660 0.31520 0.78810
C10 C 0.564(3) 0.184(2) 0.877(2)
H8 H 0.63290 0.14160 0.87510
C11 C 0.4854(19) 0.2363(19) 1.2788(18)
C12 C 0.4254(18) 0.2723(19) 1.3481(17)
H9 H 0.37280 0.33560 1.33870
C13 C 0.444(2) 0.214(2) 1.431(2)
H10 H 0.40400 0.23780 1.47780
C14 C 0.5227(19) 0.119(2) 1.4454(19)
H11 H 0.53510 0.07980 1.50120
C15 C 0.583(2) 0.083(2) 1.376(2)
H12 H 0.63520 0.01970 1.38540
C16 C 0.4596(18) 0.3257(18) 1.0488(17)
H13 H 0.47810 0.29670 1.00390
C17 C 0.4852(17) 0.2631(19) 1.1296(16)
H14 H 0.52070 0.19220 1.13870
C18 C 0.4576(17) 0.3066(19) 1.1967(17)
C19 C 0.4045(17) 0.4127(19) 1.1831(17)
H15 H 0.38610 0.44180 1.22800
C20 C 0.3790(17) 0.4752(18) 1.1023(17)
H16 H 0.34340 0.54620 1.09320
C21 C 0.108(2) 0.759(2) 0.5717(18)
C22 C 0.101(2) 0.866(2) 0.5353(18)
H17 H 0.09670 0.90550 0.56990
C23 C 0.102(2) 0.913(2) 0.447(2)
H18 H 0.09840 0.98400 0.42270
C24 C 0.109(2) 0.854(2) 0.3953(19)
H19 H 0.11010 0.88510 0.33630
C25 C 0.116(2) 0.747(2) 0.432(2)
H20 H 0.12030 0.70760 0.39710
C26 C 0.0666(16) 0.7169(19) 0.8099(15)
H21 H 0.04550 0.75660 0.84780
C27 C 0.0684(17) 0.7667(19) 0.7219(16)
H22 H 0.04840 0.83970 0.70090
C28 C 0.0999(19) 0.707(2) 0.6652(17)
C29 C 0.1297(19) 0.598(2) 0.6965(17)
H23 H 0.15080 0.55840 0.65860
C30 C 0.1279(17) 0.5484(19) 0.7845(15)
H24 H 0.14790 0.47530 0.80550
C31 C 0.185(2) 0.257(2) 1.3227(18)
C32 C 0.239(2) 0.151(2) 1.3390(19)
H25 H 0.26910 0.12220 1.29350
C33 C 0.247(2) 0.087(2) 1.423(2)
H26 H 0.28250 0.01590 1.43420
C34 C 0.201(2) 0.129(2) 1.491(2)
H27 H 0.20640 0.08680 1.54780
C35 C 0.147(2) 0.236(2) 1.4750(19)
H28 H 0.11690 0.26410 1.52060
C36 C 0.1219(19) 0.500(2) 1.1361(16)
H29 H 0.10110 0.57270 1.12420
C37 C 0.1363(19) 0.4354(19) 1.2191(16)
H30 H 0.12520 0.46490 1.26270
C38 C 0.1674(19) 0.3267(19) 1.2370(16)
C39 C 0.1839(18) 0.2827(19) 1.1718(16)
H31 H 0.20470 0.21000 1.18380
C40 C 0.1694(18) 0.3473(19) 1.0888(16)
H32 H 0.18050 0.31780 1.04520
C41 C 0.589(4) -0.251(3) 0.363(3)
C42 C 0.570(4) -0.152(4) 0.303(3)
H33 H 0.62570 -0.12410 0.27160
C43 C 0.404(3) -0.236(3) 0.397(3)
H34 H 0.34870 -0.26350 0.42820
C44 C 0.386(3) -0.136(3) 0.336(3)
H35 H 0.31770 -0.09800 0.32730
C45 C 0.469(3) -0.095(3) 0.289(3)
H36 H 0.45620 -0.02830 0.24890
C46 C 0.785(3) -0.452(3) 0.484(3)
H37 H 0.78620 -0.50600 0.53670
C47 C 0.690(3) -0.390(3) 0.459(3)
H38 H 0.62730 -0.40110 0.49350
C48 C 0.687(4) -0.309(3) 0.381(3)
C49 C 0.780(3) -0.292(3) 0.328(3)
H39 H 0.77900 -0.23850 0.27610
C50 C 0.876(3) -0.355(3) 0.354(3)
H40 H 0.93790 -0.34350 0.31930
W1A W -0.10986(8) 1.01090(7) 1.21278(6)
W2A W -0.18753(7) 1.22909(7) 1.03441(6)
W3A W -0.08358(7) 1.21786(7) 0.82228(6)
W4A W -0.26352(7) 1.00104(7) 1.08222(6)
W5A W -0.15153(7) 0.98337(6) 0.87127(6)
W6A W -0.07472(7) 0.77017(6) 1.05171(6)
Cu1A Cu -0.3625(2) 1.4873(2) 1.07251(19)
Cu2* Cu -0.50000 2.00000 1.00000
N1A N -0.3684(14) 1.4621(14) 1.1924(13)
N2A N -0.483(2) 1.8561(16) 1.0678(17)
N2A* N 0.517(2) -0.1439(16) 1.0678(17)
N3A N -0.5640(17) 1.8583(18) 0.7072(16)
N4A N -0.4065(13) 1.5682(14) 0.9648(13)
N9A N 1.494(3) -0.707(2) 0.590(2)
N10A N 1.122(3) -0.565(3) 0.568(3)
O1A O -0.111(2) 1.042(2) 1.0634(18)
O2A O -0.027(2) 1.0370(19) 0.8998(17)
O5A O -0.2165(12) 0.9816(11) 1.1841(10)
O6A O -0.1617(12) 1.1533(11) 1.1487(10)
O7A O -0.1821(11) 1.2546(12) 0.917(1)
O8A O -0.2716(12) 1.1442(11) 1.0476(10)
O9A O -0.1593(11) 1.1276(10) 0.8335(10)
O10A O -0.2578(12) 1.0148(11) 0.9678(10)
O11A O -0.1145(11) 0.8435(11) 0.9410(9)
O12A O -0.1989(12) 0.8532(11) 1.1002(9)
O13A O -0.0359(12) 0.8663(11) 1.2362(11)
O14A O 0.0190(11) 1.0415(11) 1.1969(11)
O15A O -0.0644(11) 1.2692(12) 1.0093(10)
O16A O 0.0174(10) 1.2583(12) 0.8503(9)
O17A O -0.1580(11) 1.0188(11) 1.3099(9)
O18A O -0.2747(11) 1.3387(11) 1.0521(9)
O19A O -0.1199(11) 1.3194(11) 0.7379(9)
O20A O -0.3890(11) 1.0049(11) 1.119(1)
O21A O -0.2221(12) 0.9771(11) 0.8089(10)
O22A O -0.1082(11) 0.6585(10) 1.0746(9)
C1A C -0.420(2) 1.5424(19) 1.2300(18)
C2A C -0.4407(19) 1.519(2) 1.3194(18)
H1A H -0.47500 1.57270 1.34460
C3A C -0.4105(19) 1.415(2) 1.3711(18)
H2A H -0.42450 1.39990 1.43080
C4A C -0.3592(18) 1.335(2) 1.3334(18)
H3A H -0.33900 1.26600 1.36800
C5A C -0.3381(18) 1.3586(19) 1.2441(17)
H4A H -0.30380 1.30490 1.21890
C6A C -0.381(2) 1.792(2) 1.0649(19)
H5A H -0.32650 1.81940 1.02800
C7A C -0.359(2) 1.688(2) 1.1171(19)
H6A H -0.29020 1.64580 1.11510
C8A C -0.440(2) 1.648(2) 1.1721(18)
C9A C -0.542(2) 1.712(2) 1.1750(19)
H7A H -0.59660 1.68480 1.21190
C10A C -0.564(3) 1.816(2) 1.123(2)
H8A H -0.63290 1.85840 1.12490
C11A C -0.4854(19) 1.7637(19) 0.7212(18)
C12A C -0.4254(18) 1.7277(19) 0.6519(17)
H9A H -0.37280 1.66440 0.66130
C13A C -0.444(2) 1.786(2) 0.569(2)
H10A H -0.40400 1.76220 0.52220
C14A C -0.5227(19) 1.881(2) 0.5546(19)
H11A H -0.53510 1.92020 0.49880
C15A C -0.583(2) 1.917(2) 0.624(2)
H12A H -0.63520 1.98030 0.61460
C16A C -0.4596(18) 1.6743(18) 0.9512(17)
H13A H -0.47810 1.70330 0.99610
C17A C -0.4852(17) 1.7369(19) 0.8704(16)
H14A H -0.52070 1.80780 0.86130
C18A C -0.4576(17) 1.6934(19) 0.8033(17)
C19A C -0.4045(17) 1.5873(19) 0.8169(17)
H15A H -0.38610 1.55820 0.77200
C20A C -0.3790(17) 1.5248(18) 0.8977(17)
H16A H -0.34340 1.45380 0.90680
C41A C 1.411(4) -0.749(3) 0.637(3)
C42A C 1.430(4) -0.848(4) 0.697(3)
H33A H 1.37430 -0.87590 0.72840
C43A C 1.596(3) -0.764(3) 0.603(3)
H34A H 1.65130 -0.73650 0.57180
C44A C 1.614(3) -0.864(3) 0.664(3)
H35A H 1.68230 -0.90200 0.67270
C45A C 1.531(3) -0.905(3) 0.711(3)
H36A H 1.54380 -0.97170 0.75110
C46A C 1.215(3) -0.548(3) 0.516(3)
H37A H 1.21380 -0.49400 0.46330
C47A C 1.310(3) -0.610(3) 0.541(3)
H38A H 1.37270 -0.59890 0.50650
C48A C 1.313(4) -0.691(3) 0.619(3)
C49A C 1.220(3) -0.708(3) 0.672(3)
H39A H 1.22100 -0.76150 0.72390
C50A C 1.124(3) -0.645(3) 0.646(3)
H40A H 1.06210 -0.65650 0.68070
#END
