
#######################################################################
#
#                 Cambridge Crystallographic Data Centre
#                                CCDC
#
#######################################################################
#
# If this CIF has been generated from an entry in the Cambridge
# Structural Database, then it will include bibliographic, chemical,
# crystal, experimental, refinement or atomic coordinate data resulting
# from the CCDC's data processing and validation procedures.
#
#######################################################################

data_CSD_CIF_HUMWET
_audit_creation_date 2015-07-07
_audit_creation_method CSD-ConQuest-V1
_database_code_CSD HUMWET
_database_code_depnum_ccdc_archive 'CCDC 1052826'
_chemical_formula_sum 'C291.5 H408.5 B8 Cl3 Mn12 N2.5 O90.5'
_chemical_formula_moiety
;
(H3 O1 1+)3n,n(C264 H288 B8 Cl3 Mn12 O48 3-),2.5n(C3 H7 N1 O1),5n(C4 H8 
O2),27n(H2 O1)
;
_journal_coden_Cambridge 920
_journal_volume 10
_journal_year 2015
_journal_page_first 1535
_journal_name_full 'Chem.Asian J. '
loop_
_publ_author_name
"Xiaoqing Wang"
"Liangliang Zhang"
"Jie Yang"
"Fangna Dai"
"Rongming Wang"
"Daofeng Sun"
_chemical_name_systematic
;
catena-[tris(Oxonium) 
octakis(\m~6~-tris(4-carboxylato-2,3,5,6-tetramethylphenyl)borane)-tris(\m~4~-
chloro)-dodeca-manganese N,N-dimethylformamide 1,4-dioxane solvate hydrate]
;
_chemical_name_common
;
UPC-15
;
_cell_volume  12913.369
_exptl_special_details
;
Absolute configuration
The formula given in the paper includes three additional H atoms (required 
for charge balance) with no clear indication of their location. These have 
been placed arbitrarily in the 2D diagram as oxonium cations
;
_exptl_crystal_description 'block'
_diffrn_ambient_temperature 273.1
_refine_special_details
;
Disordered solvent molecules were not modelled and the disordered density was 
taken into account using the SQUEEZE/PLATON procedure. The unit cell was 
found to contain a total void space of 7522 A$3! holding 2637 electrons.
;
#These two values have been output from a single CSD field.
_refine_ls_R_factor_gt 0.0869
_refine_ls_wR_factor_gt 0.0869
_symmetry_cell_setting cubic
_symmetry_space_group_name_H-M 'P 4 3 2'
_symmetry_Int_Tables_number 207
loop_
_symmetry_equiv_pos_site_id
_symmetry_equiv_pos_as_xyz
1 x,y,z
2 -x,-y,z
3 -x,y,-z
4 x,-y,-z
5 z,x,y
6 z,-x,-y
7 -z,-x,y
8 -z,x,-y
9 y,z,x
10 -y,z,-x
11 y,-z,-x
12 -y,-z,x
13 y,x,-z
14 -y,-x,-z
15 y,-x,z
16 -y,x,z
17 x,z,-y
18 -x,z,y
19 -x,-z,-y
20 x,-z,y
21 z,y,-x
22 z,-y,x
23 -z,y,x
24 -z,-y,-x
_cell_length_a 23.461(11)
_cell_length_b 23.461(11)
_cell_length_c 23.461(11)
_cell_angle_alpha 90
_cell_angle_beta 90
_cell_angle_gamma 90
_cell_formula_units_Z 1
loop_
_atom_type_symbol
_atom_type_radius_bond
C 0.68
H 0.23
B 0.83
Cl 0.99
Mn 1.61
O 0.68
loop_
_atom_site_label
_atom_site_type_symbol
_atom_site_fract_x
_atom_site_fract_y
_atom_site_fract_z
Mn1 Mn -0.40075(6) -0.50000 0.00000
C1 C -0.3177(3) -0.3225(3) 0.2349(3)
C2 C -0.3625(3) -0.3792(3) 0.1359(3)
B1 B -0.2906(4) -0.2906(4) 0.2906(4)
C3 C -0.3853(4) -0.4123(4) 0.0825(3)
C4 C -0.3302(4) -0.3834(3) 0.2368(3)
C5 C -0.3503(3) -0.3204(3) 0.1326(3)
C6 C -0.3276(4) -0.2907(3) 0.1820(3)
O1 O -0.4390(3) -0.4085(3) 0.0707(2)
C7 C -0.3536(4) -0.4123(3) 0.1867(3)
C8 C -0.3249(5) -0.4201(3) 0.2931(3)
H1 H -0.28590 -0.43120 0.29850
H2 H -0.34840 -0.45340 0.28990
H3 H -0.33720 -0.39770 0.32510
C9 C -0.3129(5) -0.2269(4) 0.1773(4)
H4 H -0.34660 -0.20580 0.16760
H5 H -0.28460 -0.22160 0.14820
H6 H -0.29830 -0.21360 0.21310
C10 C -0.3618(5) -0.2870(4) 0.0753(4)
H7 H -0.32680 -0.28310 0.05450
H8 H -0.37670 -0.24990 0.08380
H9 H -0.38890 -0.30770 0.05260
C11 C -0.3699(5) -0.4760(4) 0.1895(4)
H10 H -0.38760 -0.48710 0.15430
H11 H -0.39600 -0.48210 0.22040
H12 H -0.33620 -0.49850 0.19550
O2 O -0.3510(3) -0.4424(3) 0.0531(2)
Cl1 Cl -0.50000 -0.50000 0.00000
C1G C -0.2349(3) -0.3177(3) 0.3225(3)
C2G C -0.1359(3) -0.3625(3) 0.3792(3)
C3G C -0.0825(4) -0.3853(4) 0.4123(3)
C4G C -0.2368(4) -0.3302(3) 0.3834(3)
C5G C -0.1326(3) -0.3503(3) 0.3204(3)
C6G C -0.1820(4) -0.3276(3) 0.2907(3)
O1G O -0.0707(3) -0.4390(3) 0.4085(2)
C7G C -0.1867(4) -0.3536(3) 0.4123(3)
C8G C -0.2931(5) -0.3249(3) 0.4201(3)
H1G H -0.29850 -0.28590 0.43120
H2G H -0.28990 -0.34840 0.45340
H3G H -0.32510 -0.33720 0.39770
C9G C -0.1773(5) -0.3129(4) 0.2269(4)
H4G H -0.16760 -0.34660 0.20580
H5G H -0.14820 -0.28460 0.22160
H6G H -0.21310 -0.29830 0.21360
C10G C -0.0753(5) -0.3618(4) 0.2870(4)
H7G H -0.05450 -0.32680 0.28310
H8G H -0.08380 -0.37670 0.24990
H9G H -0.05260 -0.38890 0.30770
C11G C -0.1895(5) -0.3699(4) 0.4760(4)
H10G H -0.15430 -0.38760 0.48710
H11G H -0.22040 -0.39600 0.48210
H12G H -0.19550 -0.33620 0.49850
O2G O -0.0531(3) -0.3510(3) 0.4424(2)
C1J C -0.3225(3) -0.2349(3) 0.3177(3)
C2J C -0.3792(3) -0.1359(3) 0.3625(3)
C3J C -0.4123(4) -0.0825(4) 0.3853(3)
C4J C -0.3834(4) -0.2368(3) 0.3302(3)
C5J C -0.3204(3) -0.1326(3) 0.3503(3)
C6J C -0.2907(4) -0.1820(3) 0.3276(3)
O1J O -0.4085(3) -0.0707(3) 0.4390(2)
C7J C -0.4123(4) -0.1867(3) 0.3536(3)
C8J C -0.4201(5) -0.2931(3) 0.3249(3)
H1J H -0.43120 -0.29850 0.28590
H2J H -0.45340 -0.28990 0.34840
H3J H -0.39770 -0.32510 0.33720
C9J C -0.2269(5) -0.1773(4) 0.3129(4)
H4J H -0.20580 -0.16760 0.34660
H5J H -0.22160 -0.14820 0.28460
H6J H -0.21360 -0.21310 0.29830
C10J C -0.2870(5) -0.0753(4) 0.3618(4)
H7J H -0.28310 -0.05450 0.32680
H8J H -0.24990 -0.08380 0.37670
H9J H -0.30770 -0.05260 0.38890
C11J C -0.4760(5) -0.1895(4) 0.3699(4)
H10J H -0.48710 -0.15430 0.38760
H11J H -0.48210 -0.22040 0.39600
H12J H -0.49850 -0.19550 0.33620
O2J O -0.4424(3) -0.0531(3) 0.3510(2)
Mn1A Mn -0.59925(6) -0.50000 0.00000
C1A C -0.6823(3) -0.6775(3) 0.2349(3)
C2A C -0.6375(3) -0.6208(3) 0.1359(3)
B1A B -0.7094(4) -0.7094(4) 0.2906(4)
C3A C -0.6147(4) -0.5877(4) 0.0825(3)
C4A C -0.6698(4) -0.6166(3) 0.2368(3)
C5A C -0.6497(3) -0.6796(3) 0.1326(3)
C6A C -0.6724(4) -0.7093(3) 0.1820(3)
O1A O -0.5610(3) -0.5915(3) 0.0707(2)
C7A C -0.6464(4) -0.5877(3) 0.1867(3)
C8A C -0.6751(5) -0.5799(3) 0.2931(3)
H1A H -0.71410 -0.56880 0.29850
H2A H -0.65160 -0.54660 0.28990
H3A H -0.66280 -0.60230 0.32510
C9A C -0.6871(5) -0.7731(4) 0.1773(4)
H4A H -0.65340 -0.79420 0.16760
H5A H -0.71540 -0.77840 0.14820
H6A H -0.70170 -0.78640 0.21310
C10A C -0.6382(5) -0.7130(4) 0.0753(4)
H7A H -0.67320 -0.71690 0.05450
H8A H -0.62330 -0.75010 0.08380
H9A H -0.61110 -0.69230 0.05260
C11A C -0.6301(5) -0.5240(4) 0.1895(4)
H10A H -0.61240 -0.51290 0.15430
H11A H -0.60400 -0.51790 0.22040
H12A H -0.66380 -0.50150 0.19550
O2A O -0.6490(3) -0.5576(3) 0.0531(2)
C1E C -0.7651(3) -0.6823(3) 0.3225(3)
C2E C -0.8641(3) -0.6375(3) 0.3792(3)
C3E C -0.9175(4) -0.6147(4) 0.4123(3)
C4E C -0.7632(4) -0.6698(3) 0.3834(3)
C5E C -0.8674(3) -0.6497(3) 0.3204(3)
C6E C -0.8180(4) -0.6724(3) 0.2907(3)
O1E O -0.9293(3) -0.5610(3) 0.4085(2)
C7E C -0.8133(4) -0.6464(3) 0.4123(3)
C8E C -0.7069(5) -0.6751(3) 0.4201(3)
H1E H -0.70150 -0.71410 0.43120
H2E H -0.71010 -0.65160 0.45340
H3E H -0.67490 -0.66280 0.39770
C9E C -0.8227(5) -0.6871(4) 0.2269(4)
H4E H -0.83240 -0.65340 0.20580
H5E H -0.85180 -0.71540 0.22160
H6E H -0.78690 -0.70170 0.21360
C10E C -0.9247(5) -0.6382(4) 0.2870(4)
H7E H -0.94550 -0.67320 0.28310
H8E H -0.91620 -0.62330 0.24990
H9E H -0.94740 -0.61110 0.30770
C11E C -0.8105(5) -0.6301(4) 0.4760(4)
H10E H -0.84570 -0.61240 0.48710
H11E H -0.77960 -0.60400 0.48210
H12E H -0.80450 -0.66380 0.49850
O2E O -0.9469(3) -0.6490(3) 0.4424(2)
C1I C -0.6775(3) -0.7651(3) 0.3177(3)
C2I C -0.6208(3) -0.8641(3) 0.3625(3)
C3I C -0.5877(4) -0.9175(4) 0.3853(3)
C4I C -0.6166(4) -0.7632(3) 0.3302(3)
C5I C -0.6796(3) -0.8674(3) 0.3503(3)
C6I C -0.7093(4) -0.8180(3) 0.3276(3)
O1I O -0.5915(3) -0.9293(3) 0.4390(2)
C7I C -0.5877(4) -0.8133(3) 0.3536(3)
C8I C -0.5799(5) -0.7069(3) 0.3249(3)
H1I H -0.56880 -0.70150 0.28590
H2I H -0.54660 -0.71010 0.34840
H3I H -0.60230 -0.67490 0.33720
C9I C -0.7731(5) -0.8227(4) 0.3129(4)
H4I H -0.79420 -0.83240 0.34660
H5I H -0.77840 -0.85180 0.28460
H6I H -0.78640 -0.78690 0.29830
C10I C -0.7130(5) -0.9247(4) 0.3618(4)
H7I H -0.71690 -0.94550 0.32680
H8I H -0.75010 -0.91620 0.37670
H9I H -0.69230 -0.94740 0.38890
C11I C -0.5240(5) -0.8105(4) 0.3699(4)
H10I H -0.51290 -0.84570 0.38760
H11I H -0.51790 -0.77960 0.39600
H12I H -0.50150 -0.80450 0.33620
O2I O -0.5576(3) -0.9469(3) 0.3510(2)
Mn1E Mn -1.00000(6) -0.59925 0.50000
Cl1D Cl -1.00000 -0.50000 0.50000
Mn1D Mn 0.00000(6) -0.40075 0.50000
Cl1D* Cl 0.00000 -0.50000 0.50000
Mn1I Mn -0.50000(6) -1.00000 0.40075
Mn1I* Mn -0.50000(6) 0.00000 0.40075
Mn1H Mn -0.50000(6) 0.00000 0.59925
C1K C -0.6775(3) -0.2349(3) 0.6823(3)
C2K C -0.6208(3) -0.1359(3) 0.6375(3)
B1B B -0.7094(4) -0.2906(4) 0.7094(4)
C3K C -0.5877(4) -0.0825(4) 0.6147(3)
C4K C -0.6166(4) -0.2368(3) 0.6698(3)
C5K C -0.6796(3) -0.1326(3) 0.6497(3)
C6K C -0.7093(4) -0.1820(3) 0.6724(3)
O1K O -0.5915(3) -0.0707(3) 0.5610(2)
C7K C -0.5877(4) -0.1867(3) 0.6464(3)
C8K C -0.5799(5) -0.2931(3) 0.6751(3)
H1K H -0.56880 -0.29850 0.71410
H2K H -0.54660 -0.28990 0.65160
H3K H -0.60230 -0.32510 0.66280
C9K C -0.7731(5) -0.1773(4) 0.6871(4)
H4K H -0.79420 -0.16760 0.65340
H5K H -0.77840 -0.14820 0.71540
H6K H -0.78640 -0.21310 0.70170
C10K C -0.7130(5) -0.0753(4) 0.6382(4)
H7K H -0.71690 -0.05450 0.67320
H8K H -0.75010 -0.08380 0.62330
H9K H -0.69230 -0.05260 0.61110
C11K C -0.5240(5) -0.1895(4) 0.6301(4)
H10K H -0.51290 -0.15430 0.61240
H11K H -0.51790 -0.22040 0.60400
H12K H -0.50150 -0.19550 0.66380
O2K O -0.5576(3) -0.0531(3) 0.6490(2)
C1B C -0.6823(3) -0.3225(3) 0.7651(3)
C2B C -0.6375(3) -0.3792(3) 0.8641(3)
C3B C -0.6147(4) -0.4123(4) 0.9175(3)
C4B C -0.6698(4) -0.3834(3) 0.7632(3)
C5B C -0.6497(3) -0.3204(3) 0.8674(3)
C6B C -0.6724(4) -0.2907(3) 0.8180(3)
O1B O -0.5610(3) -0.4085(3) 0.9293(2)
C7B C -0.6464(4) -0.4123(3) 0.8133(3)
C8B C -0.6751(5) -0.4201(3) 0.7069(3)
H1B H -0.71410 -0.43120 0.70150
H2B H -0.65160 -0.45340 0.71010
H3B H -0.66280 -0.39770 0.67490
C9B C -0.6871(5) -0.2269(4) 0.8227(4)
H4B H -0.65340 -0.20580 0.83240
H5B H -0.71540 -0.22160 0.85180
H6B H -0.70170 -0.21360 0.78690
C10B C -0.6382(5) -0.2870(4) 0.9247(4)
H7B H -0.67320 -0.28310 0.94550
H8B H -0.62330 -0.24990 0.91620
H9B H -0.61110 -0.30770 0.94740
C11B C -0.6301(5) -0.4760(4) 0.8105(4)
H10B H -0.61240 -0.48710 0.84570
H11B H -0.60400 -0.48210 0.77960
H12B H -0.66380 -0.49850 0.80450
O2B O -0.6490(3) -0.4424(3) 0.9469(2)
C1D C -0.7651(3) -0.3177(3) 0.6775(3)
C2D C -0.8641(3) -0.3625(3) 0.6208(3)
C3D C -0.9175(4) -0.3853(4) 0.5877(3)
C4D C -0.7632(4) -0.3302(3) 0.6166(3)
C5D C -0.8674(3) -0.3503(3) 0.6796(3)
C6D C -0.8180(4) -0.3276(3) 0.7093(3)
O1D O -0.9293(3) -0.4390(3) 0.5915(2)
C7D C -0.8133(4) -0.3536(3) 0.5877(3)
C8D C -0.7069(5) -0.3249(3) 0.5799(3)
H1D H -0.70150 -0.28590 0.56880
H2D H -0.71010 -0.34840 0.54660
H3D H -0.67490 -0.33720 0.60230
C9D C -0.8227(5) -0.3129(4) 0.7731(4)
H4D H -0.83240 -0.34660 0.79420
H5D H -0.85180 -0.28460 0.77840
H6D H -0.78690 -0.29830 0.78640
C10D C -0.9247(5) -0.3618(4) 0.7130(4)
H7D H -0.94550 -0.32680 0.71690
H8D H -0.91620 -0.37670 0.75010
H9D H -0.94740 -0.38890 0.69230
C11D C -0.8105(5) -0.3699(4) 0.5240(4)
H10D H -0.84570 -0.38760 0.51290
H11D H -0.77960 -0.39600 0.51790
H12D H -0.80450 -0.33620 0.50150
O2D O -0.9469(3) -0.3510(3) 0.5576(2)
Mn1L Mn -0.50000(6) -0.40075 0.00000
C1L C -0.3225(3) -0.3177(3) -0.2349(3)
C2L C -0.3792(3) -0.3625(3) -0.1359(3)
B1L B -0.2906(4) -0.2906(4) -0.2906(4)
C3L C -0.4123(4) -0.3853(4) -0.0825(3)
C4L C -0.3834(4) -0.3302(3) -0.2368(3)
C5L C -0.3204(3) -0.3503(3) -0.1326(3)
C6L C -0.2907(4) -0.3276(3) -0.1820(3)
O1L O -0.4085(3) -0.4390(3) -0.0707(2)
C7L C -0.4123(4) -0.3536(3) -0.1867(3)
C8L C -0.4201(5) -0.3249(3) -0.2931(3)
H1L H -0.43120 -0.28590 -0.29850
H2L H -0.45340 -0.34840 -0.28990
H3L H -0.39770 -0.33720 -0.32510
C9L C -0.2269(5) -0.3129(4) -0.1773(4)
H4L H -0.20580 -0.34660 -0.16760
H5L H -0.22160 -0.28460 -0.14820
H6L H -0.21360 -0.29830 -0.21310
C10L C -0.2870(5) -0.3618(4) -0.0753(4)
H7L H -0.28310 -0.32680 -0.05450
H8L H -0.24990 -0.37670 -0.08380
H9L H -0.30770 -0.38890 -0.05260
C11L C -0.4760(5) -0.3699(4) -0.1895(4)
H10L H -0.48710 -0.38760 -0.15430
H11L H -0.48210 -0.39600 -0.22040
H12L H -0.49850 -0.33620 -0.19550
O2L O -0.4424(3) -0.3510(3) -0.0531(2)
C1S C -0.3177(3) -0.2349(3) -0.3225(3)
C2S C -0.3625(3) -0.1359(3) -0.3792(3)
C3S C -0.3853(4) -0.0825(4) -0.4123(3)
C4S C -0.3302(4) -0.2368(3) -0.3834(3)
C5S C -0.3503(3) -0.1326(3) -0.3204(3)
C6S C -0.3276(4) -0.1820(3) -0.2907(3)
O1S O -0.4390(3) -0.0707(3) -0.4085(2)
C7S C -0.3536(4) -0.1867(3) -0.4123(3)
C8S C -0.3249(5) -0.2931(3) -0.4201(3)
H1S H -0.28590 -0.29850 -0.43120
H2S H -0.34840 -0.28990 -0.45340
H3S H -0.33720 -0.32510 -0.39770
C9S C -0.3129(5) -0.1773(4) -0.2269(4)
H4S H -0.34660 -0.16760 -0.20580
H5S H -0.28460 -0.14820 -0.22160
H6S H -0.29830 -0.21310 -0.21360
C10S C -0.3618(5) -0.0753(4) -0.2870(4)
H7S H -0.32680 -0.05450 -0.28310
H8S H -0.37670 -0.08380 -0.24990
H9S H -0.38890 -0.05260 -0.30770
C11S C -0.3699(5) -0.1895(4) -0.4760(4)
H10S H -0.38760 -0.15430 -0.48710
H11S H -0.39600 -0.22040 -0.48210
H12S H -0.33620 -0.19550 -0.49850
O2S O -0.3510(3) -0.0531(3) -0.4424(2)
C1V C -0.2349(3) -0.3225(3) -0.3177(3)
C2V C -0.1359(3) -0.3792(3) -0.3625(3)
C3V C -0.0825(4) -0.4123(4) -0.3853(3)
C4V C -0.2368(4) -0.3834(3) -0.3302(3)
C5V C -0.1326(3) -0.3204(3) -0.3503(3)
C6V C -0.1820(4) -0.2907(3) -0.3276(3)
O1V O -0.0707(3) -0.4085(3) -0.4390(2)
C7V C -0.1867(4) -0.4123(3) -0.3536(3)
C8V C -0.2931(5) -0.4201(3) -0.3249(3)
H1V H -0.29850 -0.43120 -0.28590
H2V H -0.28990 -0.45340 -0.34840
H3V H -0.32510 -0.39770 -0.33720
C9V C -0.1773(5) -0.2269(4) -0.3129(4)
H4V H -0.16760 -0.20580 -0.34660
H5V H -0.14820 -0.22160 -0.28460
H6V H -0.21310 -0.21360 -0.29830
C10V C -0.0753(5) -0.2870(4) -0.3618(4)
H7V H -0.05450 -0.28310 -0.32680
H8V H -0.08380 -0.24990 -0.37670
H9V H -0.05260 -0.30770 -0.38890
C11V C -0.1895(5) -0.4760(4) -0.3699(4)
H10V H -0.15430 -0.48710 -0.38760
H11V H -0.22040 -0.48210 -0.39600
H12V H -0.19550 -0.49850 -0.33620
O2V O -0.0531(3) -0.4424(3) -0.3510(2)
Mn1L* Mn -0.50000(6) -0.40075 1.00000
C1L* C -0.3225(3) -0.3177(3) 0.7651(3)
C2L* C -0.3792(3) -0.3625(3) 0.8641(3)
B1L* B -0.2906(4) -0.2906(4) 0.7094(4)
C3L* C -0.4123(4) -0.3853(4) 0.9175(3)
C4L* C -0.3834(4) -0.3302(3) 0.7632(3)
C5L* C -0.3204(3) -0.3503(3) 0.8674(3)
C6L* C -0.2907(4) -0.3276(3) 0.8180(3)
O1L* O -0.4085(3) -0.4390(3) 0.9293(2)
C7L* C -0.4123(4) -0.3536(3) 0.8133(3)
C8L* C -0.4201(5) -0.3249(3) 0.7069(3)
H1L* H -0.43120 -0.28590 0.70150
H2L* H -0.45340 -0.34840 0.71010
H3L* H -0.39770 -0.33720 0.67490
C9L* C -0.2269(5) -0.3129(4) 0.8227(4)
H4L* H -0.20580 -0.34660 0.83240
H5L* H -0.22160 -0.28460 0.85180
H6L* H -0.21360 -0.29830 0.78690
C10L* C -0.2870(5) -0.3618(4) 0.9247(4)
H7L* H -0.28310 -0.32680 0.94550
H8L* H -0.24990 -0.37670 0.91620
H9L* H -0.30770 -0.38890 0.94740
C11L* C -0.4760(5) -0.3699(4) 0.8105(4)
H10L* H -0.48710 -0.38760 0.84570
H11L* H -0.48210 -0.39600 0.77960
H12L* H -0.49850 -0.33620 0.80450
O2L* O -0.4424(3) -0.3510(3) 0.9469(2)
C1S* C -0.3177(3) -0.2349(3) 0.6775(3)
C2S* C -0.3625(3) -0.1359(3) 0.6208(3)
C3S* C -0.3853(4) -0.0825(4) 0.5877(3)
C4S* C -0.3302(4) -0.2368(3) 0.6166(3)
C5S* C -0.3503(3) -0.1326(3) 0.6796(3)
C6S* C -0.3276(4) -0.1820(3) 0.7093(3)
O1S* O -0.4390(3) -0.0707(3) 0.5915(2)
C7S* C -0.3536(4) -0.1867(3) 0.5877(3)
C8S* C -0.3249(5) -0.2931(3) 0.5799(3)
H1S* H -0.28590 -0.29850 0.56880
H2S* H -0.34840 -0.28990 0.54660
H3S* H -0.33720 -0.32510 0.60230
C9S* C -0.3129(5) -0.1773(4) 0.7731(4)
H4S* H -0.34660 -0.16760 0.79420
H5S* H -0.28460 -0.14820 0.77840
H6S* H -0.29830 -0.21310 0.78640
C10S* C -0.3618(5) -0.0753(4) 0.7130(4)
H7S* H -0.32680 -0.05450 0.71690
H8S* H -0.37670 -0.08380 0.75010
H9S* H -0.38890 -0.05260 0.69230
C11S* C -0.3699(5) -0.1895(4) 0.5240(4)
H10S* H -0.38760 -0.15430 0.51290
H11S* H -0.39600 -0.22040 0.51790
H12S* H -0.33620 -0.19550 0.50150
O2S* O -0.3510(3) -0.0531(3) 0.5576(2)
C1V* C -0.2349(3) -0.3225(3) 0.6823(3)
C2V* C -0.1359(3) -0.3792(3) 0.6375(3)
C3V* C -0.0825(4) -0.4123(4) 0.6147(3)
C4V* C -0.2368(4) -0.3834(3) 0.6698(3)
C5V* C -0.1326(3) -0.3204(3) 0.6497(3)
C6V* C -0.1820(4) -0.2907(3) 0.6724(3)
O1V* O -0.0707(3) -0.4085(3) 0.5610(2)
C7V* C -0.1867(4) -0.4123(3) 0.6464(3)
C8V* C -0.2931(5) -0.4201(3) 0.6751(3)
H1V* H -0.29850 -0.43120 0.71410
H2V* H -0.28990 -0.45340 0.65160
H3V* H -0.32510 -0.39770 0.66280
C9V* C -0.1773(5) -0.2269(4) 0.6871(4)
H4V* H -0.16760 -0.20580 0.65340
H5V* H -0.14820 -0.22160 0.71540
H6V* H -0.21310 -0.21360 0.70170
C10V* C -0.0753(5) -0.2870(4) 0.6382(4)
H7V* H -0.05450 -0.28310 0.67320
H8V* H -0.08380 -0.24990 0.62330
H9V* H -0.05260 -0.30770 0.61110
C11V* C -0.1895(5) -0.4760(4) 0.6301(4)
H10V* H -0.15430 -0.48710 0.61240
H11V* H -0.22040 -0.48210 0.60400
H12V* H -0.19550 -0.49850 0.66380
O2V* O -0.0531(3) -0.4424(3) 0.6490(2)
Mn1M Mn -0.50000(6) -0.59925 0.00000
C1N C -0.3225(3) -0.6823(3) 0.2349(3)
C2N C -0.3792(3) -0.6375(3) 0.1359(3)
B1N B -0.2906(4) -0.7094(4) 0.2906(4)
C3N C -0.4123(4) -0.6147(4) 0.0825(3)
C4N C -0.3834(4) -0.6698(3) 0.2368(3)
C5N C -0.3204(3) -0.6497(3) 0.1326(3)
C6N C -0.2907(4) -0.6724(3) 0.1820(3)
O1N O -0.4085(3) -0.5610(3) 0.0707(2)
C7N C -0.4123(4) -0.6464(3) 0.1867(3)
C8N C -0.4201(5) -0.6751(3) 0.2931(3)
H1N H -0.43120 -0.71410 0.29850
H2N H -0.45340 -0.65160 0.28990
H3N H -0.39770 -0.66280 0.32510
C9N C -0.2269(5) -0.6871(4) 0.1773(4)
H4N H -0.20580 -0.65340 0.16760
H5N H -0.22160 -0.71540 0.14820
H6N H -0.21360 -0.70170 0.21310
C10N C -0.2870(5) -0.6382(4) 0.0753(4)
H7N H -0.28310 -0.67320 0.05450
H8N H -0.24990 -0.62330 0.08380
H9N H -0.30770 -0.61110 0.05260
C11N C -0.4760(5) -0.6301(4) 0.1895(4)
H10N H -0.48710 -0.61240 0.15430
H11N H -0.48210 -0.60400 0.22040
H12N H -0.49850 -0.66380 0.19550
O2N O -0.4424(3) -0.6490(3) 0.0531(2)
C1P C -0.3177(3) -0.7651(3) 0.3225(3)
C2P C -0.3625(3) -0.8641(3) 0.3792(3)
C3P C -0.3853(4) -0.9175(4) 0.4123(3)
C4P C -0.3302(4) -0.7632(3) 0.3834(3)
C5P C -0.3503(3) -0.8674(3) 0.3204(3)
C6P C -0.3276(4) -0.8180(3) 0.2907(3)
O1P O -0.4390(3) -0.9293(3) 0.4085(2)
C7P C -0.3536(4) -0.8133(3) 0.4123(3)
C8P C -0.3249(5) -0.7069(3) 0.4201(3)
H1P H -0.28590 -0.70150 0.43120
H2P H -0.34840 -0.71010 0.45340
H3P H -0.33720 -0.67490 0.39770
C9P C -0.3129(5) -0.8227(4) 0.2269(4)
H4P H -0.34660 -0.83240 0.20580
H5P H -0.28460 -0.85180 0.22160
H6P H -0.29830 -0.78690 0.21360
C10P C -0.3618(5) -0.9247(4) 0.2870(4)
H7P H -0.32680 -0.94550 0.28310
H8P H -0.37670 -0.91620 0.24990
H9P H -0.38890 -0.94740 0.30770
C11P C -0.3699(5) -0.8105(4) 0.4760(4)
H10P H -0.38760 -0.84570 0.48710
H11P H -0.39600 -0.77960 0.48210
H12P H -0.33620 -0.80450 0.49850
O2P O -0.3510(3) -0.9469(3) 0.4424(2)
C1W C -0.2349(3) -0.6775(3) 0.3177(3)
C2W C -0.1359(3) -0.6208(3) 0.3625(3)
C3W C -0.0825(4) -0.5877(4) 0.3853(3)
C4W C -0.2368(4) -0.6166(3) 0.3302(3)
C5W C -0.1326(3) -0.6796(3) 0.3503(3)
C6W C -0.1820(4) -0.7093(3) 0.3276(3)
O1W O -0.0707(3) -0.5915(3) 0.4390(2)
C7W C -0.1867(4) -0.5877(3) 0.3536(3)
C8W C -0.2931(5) -0.5799(3) 0.3249(3)
H1W H -0.29850 -0.56880 0.28590
H2W H -0.28990 -0.54660 0.34840
H3W H -0.32510 -0.60230 0.33720
C9W C -0.1773(5) -0.7731(4) 0.3129(4)
H4W H -0.16760 -0.79420 0.34660
H5W H -0.14820 -0.77840 0.28460
H6W H -0.21310 -0.78640 0.29830
C10W C -0.0753(5) -0.7130(4) 0.3618(4)
H7W H -0.05450 -0.71690 0.32680
H8W H -0.08380 -0.75010 0.37670
H9W H -0.05260 -0.69230 0.38890
C11W C -0.1895(5) -0.5240(4) 0.3699(4)
H10W H -0.15430 -0.51290 0.38760
H11W H -0.22040 -0.51790 0.39600
H12W H -0.19550 -0.50150 0.33620
O2W O -0.0531(3) -0.5576(3) 0.3510(2)
C1N* C -0.3225(3) 0.3177(3) 0.2349(3)
C2N* C -0.3792(3) 0.3625(3) 0.1359(3)
B1N* B -0.2906(4) 0.2906(4) 0.2906(4)
C3N* C -0.4123(4) 0.3853(4) 0.0825(3)
C4N* C -0.3834(4) 0.3302(3) 0.2368(3)
C5N* C -0.3204(3) 0.3503(3) 0.1326(3)
C6N* C -0.2907(4) 0.3276(3) 0.1820(3)
O1N* O -0.4085(3) 0.4390(3) 0.0707(2)
C7N* C -0.4123(4) 0.3536(3) 0.1867(3)
C8N* C -0.4201(5) 0.3249(3) 0.2931(3)
H1N* H -0.43120 0.28590 0.29850
H2N* H -0.45340 0.34840 0.28990
H3N* H -0.39770 0.33720 0.32510
C9N* C -0.2269(5) 0.3129(4) 0.1773(4)
H4N* H -0.20580 0.34660 0.16760
H5N* H -0.22160 0.28460 0.14820
H6N* H -0.21360 0.29830 0.21310
C10N* C -0.2870(5) 0.3618(4) 0.0753(4)
H7N* H -0.28310 0.32680 0.05450
H8N* H -0.24990 0.37670 0.08380
H9N* H -0.30770 0.38890 0.05260
C11N* C -0.4760(5) 0.3699(4) 0.1895(4)
H10N* H -0.48710 0.38760 0.15430
H11N* H -0.48210 0.39600 0.22040
H12N* H -0.49850 0.33620 0.19550
O2N* O -0.4424(3) 0.3510(3) 0.0531(2)
C1P* C -0.3177(3) 0.2349(3) 0.3225(3)
C2P* C -0.3625(3) 0.1359(3) 0.3792(3)
C3P* C -0.3853(4) 0.0825(4) 0.4123(3)
C4P* C -0.3302(4) 0.2368(3) 0.3834(3)
C5P* C -0.3503(3) 0.1326(3) 0.3204(3)
C6P* C -0.3276(4) 0.1820(3) 0.2907(3)
O1P* O -0.4390(3) 0.0707(3) 0.4085(2)
C7P* C -0.3536(4) 0.1867(3) 0.4123(3)
C8P* C -0.3249(5) 0.2931(3) 0.4201(3)
H1P* H -0.28590 0.29850 0.43120
H2P* H -0.34840 0.28990 0.45340
H3P* H -0.33720 0.32510 0.39770
C9P* C -0.3129(5) 0.1773(4) 0.2269(4)
H4P* H -0.34660 0.16760 0.20580
H5P* H -0.28460 0.14820 0.22160
H6P* H -0.29830 0.21310 0.21360
C10P* C -0.3618(5) 0.0753(4) 0.2870(4)
H7P* H -0.32680 0.05450 0.28310
H8P* H -0.37670 0.08380 0.24990
H9P* H -0.38890 0.05260 0.30770
C11P* C -0.3699(5) 0.1895(4) 0.4760(4)
H10P* H -0.38760 0.15430 0.48710
H11P* H -0.39600 0.22040 0.48210
H12P* H -0.33620 0.19550 0.49850
O2P* O -0.3510(3) 0.0531(3) 0.4424(2)
C1W* C -0.2349(3) 0.3225(3) 0.3177(3)
C2W* C -0.1359(3) 0.3792(3) 0.3625(3)
C3W* C -0.0825(4) 0.4123(4) 0.3853(3)
C4W* C -0.2368(4) 0.3834(3) 0.3302(3)
C5W* C -0.1326(3) 0.3204(3) 0.3503(3)
C6W* C -0.1820(4) 0.2907(3) 0.3276(3)
O1W* O -0.0707(3) 0.4085(3) 0.4390(2)
C7W* C -0.1867(4) 0.4123(3) 0.3536(3)
C8W* C -0.2931(5) 0.4201(3) 0.3249(3)
H1W* H -0.29850 0.43120 0.28590
H2W* H -0.28990 0.45340 0.34840
H3W* H -0.32510 0.39770 0.33720
C9W* C -0.1773(5) 0.2269(4) 0.3129(4)
H4W* H -0.16760 0.20580 0.34660
H5W* H -0.14820 0.22160 0.28460
H6W* H -0.21310 0.21360 0.29830
C10W* C -0.0753(5) 0.2870(4) 0.3618(4)
H7W* H -0.05450 0.28310 0.32680
H8W* H -0.08380 0.24990 0.37670
H9W* H -0.05260 0.30770 0.38890
C11W* C -0.1895(5) 0.4760(4) 0.3699(4)
H10W* H -0.15430 0.48710 0.38760
H11W* H -0.22040 0.48210 0.39600
H12W* H -0.19550 0.49850 0.33620
O2W* O -0.0531(3) 0.4424(3) 0.3510(2)
C1O C -0.6775(3) -0.3177(3) 0.2349(3)
C2O C -0.6208(3) -0.3625(3) 0.1359(3)
B1O B -0.7094(4) -0.2906(4) 0.2906(4)
C3O C -0.5877(4) -0.3853(4) 0.0825(3)
C4O C -0.6166(4) -0.3302(3) 0.2368(3)
C5O C -0.6796(3) -0.3503(3) 0.1326(3)
C6O C -0.7093(4) -0.3276(3) 0.1820(3)
O1O O -0.5915(3) -0.4390(3) 0.0707(2)
C7O C -0.5877(4) -0.3536(3) 0.1867(3)
C8O C -0.5799(5) -0.3249(3) 0.2931(3)
H1O H -0.56880 -0.28590 0.29850
H2O H -0.54660 -0.34840 0.28990
H3O H -0.60230 -0.33720 0.32510
C9O C -0.7731(5) -0.3129(4) 0.1773(4)
H4O H -0.79420 -0.34660 0.16760
H5O H -0.77840 -0.28460 0.14820
H6O H -0.78640 -0.29830 0.21310
C10O C -0.7130(5) -0.3618(4) 0.0753(4)
H7O H -0.71690 -0.32680 0.05450
H8O H -0.75010 -0.37670 0.08380
H9O H -0.69230 -0.38890 0.05260
C11O C -0.5240(5) -0.3699(4) 0.1895(4)
H10O H -0.51290 -0.38760 0.15430
H11O H -0.51790 -0.39600 0.22040
H12O H -0.50150 -0.33620 0.19550
O2O O -0.5576(3) -0.3510(3) 0.0531(2)
C1R C -0.6823(3) -0.2349(3) 0.3225(3)
C2R C -0.6375(3) -0.1359(3) 0.3792(3)
C3R C -0.6147(4) -0.0825(4) 0.4123(3)
C4R C -0.6698(4) -0.2368(3) 0.3834(3)
C5R C -0.6497(3) -0.1326(3) 0.3204(3)
C6R C -0.6724(4) -0.1820(3) 0.2907(3)
O1R O -0.5610(3) -0.0707(3) 0.4085(2)
C7R C -0.6464(4) -0.1867(3) 0.4123(3)
C8R C -0.6751(5) -0.2931(3) 0.4201(3)
H1R H -0.71410 -0.29850 0.43120
H2R H -0.65160 -0.28990 0.45340
H3R H -0.66280 -0.32510 0.39770
C9R C -0.6871(5) -0.1773(4) 0.2269(4)
H4R H -0.65340 -0.16760 0.20580
H5R H -0.71540 -0.14820 0.22160
H6R H -0.70170 -0.21310 0.21360
C10R C -0.6382(5) -0.0753(4) 0.2870(4)
H7R H -0.67320 -0.05450 0.28310
H8R H -0.62330 -0.08380 0.24990
H9R H -0.61110 -0.05260 0.30770
C11R C -0.6301(5) -0.1895(4) 0.4760(4)
H10R H -0.61240 -0.15430 0.48710
H11R H -0.60400 -0.22040 0.48210
H12R H -0.66380 -0.19550 0.49850
O2R O -0.6490(3) -0.0531(3) 0.4424(2)
C1T C -0.7651(3) -0.3225(3) 0.3177(3)
C2T C -0.8641(3) -0.3792(3) 0.3625(3)
C3T C -0.9175(4) -0.4123(4) 0.3853(3)
C4T C -0.7632(4) -0.3834(3) 0.3302(3)
C5T C -0.8674(3) -0.3204(3) 0.3503(3)
C6T C -0.8180(4) -0.2907(3) 0.3276(3)
O1T O -0.9293(3) -0.4085(3) 0.4390(2)
C7T C -0.8133(4) -0.4123(3) 0.3536(3)
C8T C -0.7069(5) -0.4201(3) 0.3249(3)
H1T H -0.70150 -0.43120 0.28590
H2T H -0.71010 -0.45340 0.34840
H3T H -0.67490 -0.39770 0.33720
C9T C -0.8227(5) -0.2269(4) 0.3129(4)
H4T H -0.83240 -0.20580 0.34660
H5T H -0.85180 -0.22160 0.28460
H6T H -0.78690 -0.21360 0.29830
C10T C -0.9247(5) -0.2870(4) 0.3618(4)
H7T H -0.94550 -0.28310 0.32680
H8T H -0.91620 -0.24990 0.37670
H9T H -0.94740 -0.30770 0.38890
C11T C -0.8105(5) -0.4760(4) 0.3699(4)
H10T H -0.84570 -0.48710 0.38760
H11T H -0.77960 -0.48210 0.39600
H12T H -0.80450 -0.49850 0.33620
O2T O -0.9469(3) -0.4424(3) 0.3510(2)
Mn1P Mn -0.40075(6) -1.00000 0.50000
Mn1P* Mn -0.40075(6) 0.00000 0.50000
Mn1* Mn -0.40075(6) -0.50000 1.00000
Mn1** Mn -0.40075(6) 0.50000 0.00000
Mn1A* Mn -0.59925(6) -0.50000 1.00000
Mn1D* Mn -1.00000(6) -0.40075 0.50000
Mn1D** Mn 0.00000(6) -0.40075 -0.50000
Mn1E* Mn 0.00000(6) -0.59925 0.50000
Mn1E** Mn 0.00000(6) 0.40075 0.50000
Mn1H* Mn -0.50000(6) 0.00000 -0.40075
Mn1M* Mn -0.50000(6) 0.40075 0.00000
Mn1P** Mn -0.40075(6) 0.00000 -0.50000
Mn1Q Mn -0.59925(6) -1.00000 0.50000
Mn1Q* Mn -0.59925(6) 0.00000 0.50000
Mn1T Mn -1.00000(6) -0.50000 0.40075
Mn1T* Mn 0.00000(6) -0.50000 0.40075
Mn1T** Mn 0.00000(6) 0.50000 0.40075
Mn1U Mn -1.00000(6) -0.50000 0.59925
Mn1U* Mn 0.00000(6) -0.50000 -0.40075
Mn1U** Mn 0.00000(6) -0.50000 0.59925
O1* O -0.4390(3) -0.4085(3) 1.0707(2)
O1B* O -0.5610(3) -0.4085(3) -0.0707(2)
O1C O -0.4390(3) -0.5915(3) -0.0707(2)
O1H O -0.4085(3) -0.9293(3) 0.5610(2)
O1H* O -0.4085(3) 0.0707(3) 0.5610(2)
O1J* O -0.4085(3) -1.0707(3) 0.4390(2)
O1M O -0.5915(3) -0.5610(3) -0.0707(2)
O1Q O -0.5610(3) 0.0707(3) 0.5915(2)
O1R* O -0.5610(3) -1.0707(3) 0.4085(2)
O1T* O 0.0707(3) -0.4085(3) 0.4390(2)
O1U O -0.9293(3) -0.5915(3) 0.5610(2)
O1W** O -1.0707(3) -0.5915(3) 0.4390(2)
O2B* O -0.6490(3) -0.4424(3) -0.0531(2)
O2C O -0.3510(3) -0.5576(3) -0.0531(2)
O2D* O 0.0531(3) -0.3510(3) 0.5576(2)
O2F O -1.0531(3) -0.6490(3) 0.5576(2)
O2H O -0.4424(3) 0.0531(3) 0.6490(2)
O2I* O -0.5576(3) 0.0531(3) 0.3510(2)
O2J* O -0.4424(3) -1.0531(3) 0.3510(2)
O2M O -0.5576(3) -0.6490(3) -0.0531(2)
O2O* O -0.5576(3) -0.3510(3) 1.0531(2)
O2S** O -0.3510(3) -1.0531(3) 0.5576(2)
Cl1* Cl -0.50000 -0.50000 1.00000
Cl1H Cl -0.50000 -1.00000 0.50000
Cl1H* Cl -0.50000 0.00000 0.50000
#END
