
#######################################################################
#
#                 Cambridge Crystallographic Data Centre
#                                CCDC
#
#######################################################################
#
# If this CIF has been generated from an entry in the Cambridge
# Structural Database, then it will include bibliographic, chemical,
# crystal, experimental, refinement or atomic coordinate data resulting
# from the CCDC's data processing and validation procedures.
#
#######################################################################

data_CSD_CIF_HUPZOH
_audit_creation_date 2003-03-31
_audit_creation_method CSD-ConQuest-V1
_database_code_CSD HUPZOH
_database_code_depnum_ccdc_archive 'CCDC 203111'
_chemical_formula_sum 'C164 H196 Na8 O20 P8'
_chemical_formula_moiety
;
(C12 H30 Na1 O6 1+)2n,n(C120 H120 Na6 O8 P8 2-),2n(C10 H8)
;
_journal_coden_Cambridge 9
_journal_volume 41
_journal_year 2002
_journal_page_first 6032
_journal_name_full 'Inorg.Chem. '
loop_
_publ_author_name
"C.Tirla"
"N.Mezailles"
"L.Ricard"
"F.Mathey"
"P.Le Floch"
_chemical_name_systematic
;
catena-(bis(tris(1,2-Dimethoxyethane-O,O')-sodium) 
tetrakis(\m~3~-1,2-diphenyl-1,2-bis(phenylphosphido)ethene-P,P,P',P')-tetrakis
(\m~2~-1,2-dimethoxyethane-O,O,O')-hexa-sodium naphthalene solvate)
;
_cell_volume   3970.559
_exptl_crystal_colour 'deep red'
_exptl_crystal_density_diffrn 1.221
_exptl_special_details
;
highly air-sensitive and moisture-sensitive

;
_exptl_crystal_description 'plate'
_diffrn_ambient_temperature 150.0
#These two values have been output from a single CSD field.
_refine_ls_R_factor_gt 0.0649
_refine_ls_wR_factor_gt 0.0649
_symmetry_cell_setting triclinic
_symmetry_space_group_name_H-M 'P -1'
_symmetry_Int_Tables_number 2
loop_
_symmetry_equiv_pos_site_id
_symmetry_equiv_pos_as_xyz
1 x,y,z
2 -x,-y,-z
_cell_length_a 15.366(5)
_cell_length_b 16.723(5)
_cell_length_c 17.533(5)
_cell_angle_alpha 93.820(5)
_cell_angle_beta 104.520(5)
_cell_angle_gamma 112.250(5)
_cell_formula_units_Z 1
loop_
_atom_type_symbol
_atom_type_radius_bond
C 0.68
H 0.23
Na 1.52
O 0.78
P 1.20
loop_
_atom_site_label
_atom_site_type_symbol
_atom_site_fract_x
_atom_site_fract_y
_atom_site_fract_z
P1 P 0.32459(6) 0.95420(6) 0.47833(5)
P2 P 0.31146(7) 0.80246(6) 0.35807(6)
P3 P 0.19581(6) 0.69201(6) 0.63290(6)
P4 P 0.17399(6) 0.54005(6) 0.50912(5)
Na1 Na 0.51180(9) 1.10988(8) 0.50820(8)
Na2 Na 0.25025(9) 0.74911(9) 0.49492(8)
Na3 Na 0.01288(9) 0.60994(8) 0.50703(8)
Na4 Na 0.23047(9) 0.24150(8) 0.98757(8)
O1 O 0.47241(17) 1.23430(15) 0.48705(15)
O2 O 0.56818(16) 1.17265(15) 0.40306(14)
O3 O -0.02511(17) 0.73602(15) 0.49078(15)
O4 O 0.06900(17) 0.67667(16) 0.40215(15)
O5 O 0.12487(18) 0.30657(16) 1.00676(15)
O6 O 0.20877(18) 0.31963(16) 0.88275(15)
O7 O 0.3824(2) 0.34390(19) 1.0674(2)
O8 O 0.2636(2) 0.1902(3) 1.1091(2)
O9 O 0.10167(16) 0.10959(15) 0.90918(16)
O10 O 0.29875(17) 0.15300(17) 0.94015(16)
C1 C 0.2612(2) 0.9433(2) 0.3725(2)
C2 C 0.2647(2) 0.8808(2) 0.3185(2)
C3 C 0.2812(2) 1.0150(2) 0.5395(2)
C4 C 0.3472(3) 1.0622(2) 0.6150(2)
H1 H 0.41290 1.06680 0.62820
C5 C 0.3194(3) 1.1019(3) 0.6704(2)
H2 H 0.36570 1.13250 0.72100
C6 C 0.2245(4) 1.0976(3) 0.6528(3)
H3 H 0.20520 1.12460 0.69100
C7 C 0.1582(3) 1.0531(2) 0.5786(3)
H4 H 0.09300 1.04990 0.56580
C8 C 0.1857(3) 1.0136(2) 0.5231(2)
H5 H 0.13900 0.98440 0.47220
C9 C 0.2075(2) 0.9991(2) 0.34750(19)
C10 C 0.1089(2) 0.9628(2) 0.2996(2)
H6 H 0.07660 0.90150 0.27920
C11 C 0.0580(3) 1.0155(3) 0.2816(2)
H7 H -0.00890 0.98960 0.24950
C12 C 0.1030(3) 1.1050(3) 0.3096(2)
H8 H 0.06750 1.14060 0.29720
C13 C 0.2007(3) 1.1419(2) 0.3561(2)
H9 H 0.23280 1.20350 0.37510
C14 C 0.2519(2) 1.0902(2) 0.3752(2)
H10 H 0.31860 1.11670 0.40780
C15 C 0.2332(2) 0.8786(2) 0.2308(2)
C16 C 0.2694(2) 0.9550(2) 0.1989(2)
H11 H 0.31010 1.00930 0.23440
C17 C 0.2474(3) 0.9533(2) 0.1166(2)
H12 H 0.27190 1.00620 0.09660
C18 C 0.1897(2) 0.8748(3) 0.0641(2)
H13 H 0.17570 0.87310 0.00790
C19 C 0.1525(2) 0.7983(2) 0.0940(2)
H14 H 0.11200 0.74420 0.05820
C20 C 0.1743(2) 0.8006(2) 0.1764(2)
H15 H 0.14830 0.74760 0.19590
C21 C 0.3393(2) 0.7474(2) 0.2806(2)
C22 C 0.3768(3) 0.7833(3) 0.2201(2)
H16 H 0.38560 0.84180 0.21460
C23 C 0.4018(3) 0.7358(3) 0.1677(2)
H17 H 0.42560 0.76170 0.12640
C24 C 0.3926(3) 0.6523(3) 0.1747(3)
H18 H 0.41080 0.62070 0.13920
C25 C 0.3563(3) 0.6148(3) 0.2342(2)
H19 H 0.35000 0.55690 0.24010
C26 C 0.3293(3) 0.6611(2) 0.2854(2)
H20 H 0.30300 0.63350 0.32510
C27 C 0.2444(2) 0.6137(2) 0.6698(2)
C28 C 0.2434(2) 0.5510(2) 0.6129(2)
C29 C 0.1627(2) 0.7396(2) 0.7107(2)
C30 C 0.1576(2) 0.8215(2) 0.7031(2)
H21 H 0.17800 0.85040 0.66180
C31 C 0.1240(3) 0.8607(2) 0.7539(2)
H22 H 0.12050 0.91520 0.74650
C32 C 0.0955(3) 0.8212(3) 0.8155(2)
H23 H 0.07160 0.84800 0.85000
C33 C 0.1020(3) 0.7427(3) 0.8263(3)
H24 H 0.08440 0.71610 0.86950
C34 C 0.1340(2) 0.7021(2) 0.7743(2)
H25 H 0.13660 0.64730 0.78220
C35 C 0.2860(2) 0.6190(2) 0.7567(2)
C36 C 0.3449(2) 0.6998(2) 0.8081(2)
H26 H 0.36050 0.75220 0.78620
C37 C 0.3811(3) 0.7057(2) 0.8900(2)
H27 H 0.42060 0.76160 0.92330
C38 C 0.3602(3) 0.6309(3) 0.9232(2)
H28 H 0.38540 0.63470 0.97930
C39 C 0.3021(3) 0.5502(3) 0.8740(2)
H29 H 0.28760 0.49820 0.89640
C40 C 0.2649(2) 0.5444(2) 0.7924(2)
H30 H 0.22400 0.48840 0.75980
C41 C 0.2967(2) 0.4942(2) 0.63567(19)
C42 C 0.3968(2) 0.5285(2) 0.6773(2)
H31 H 0.43280 0.59040 0.69150
C43 C 0.4451(3) 0.4746(2) 0.6986(2)
H32 H 0.51360 0.49990 0.72630
C44 C 0.3946(3) 0.3845(2) 0.6799(2)
H33 H 0.42720 0.34760 0.69660
C45 C 0.2960(3) 0.3486(2) 0.6366(2)
H34 H 0.26080 0.28670 0.62210
C46 C 0.2483(2) 0.4025(2) 0.6142(2)
H35 H 0.18080 0.37670 0.58330
C47 C 0.2135(2) 0.4783(2) 0.4449(2)
C48 C 0.3085(3) 0.4810(2) 0.4577(2)
H36 H 0.35750 0.51180 0.50710
C49 C 0.3326(3) 0.4397(3) 0.3998(2)
H37 H 0.39770 0.44320 0.40990
C50 C 0.2626(3) 0.3935(3) 0.3277(3)
H38 H 0.27910 0.36540 0.28810
C51 C 0.1679(3) 0.3890(3) 0.3141(3)
H39 H 0.11910 0.35750 0.26480
C52 C 0.1440(3) 0.4295(2) 0.3712(2)
H40 H 0.07820 0.42450 0.36070
C53 C 0.4479(3) 1.2815(3) 0.5428(2)
H41 H 0.50840 1.32630 0.58050
H42 H 0.41060 1.24080 0.57240
H43 H 0.40780 1.31000 0.51400
C54 C 0.5294(3) 1.2894(2) 0.4439(3)
H44 H 0.59760 1.32360 0.47900
H45 H 0.50080 1.33110 0.42490
C55 C 0.5301(3) 1.2338(3) 0.3744(2)
H46 H 0.46230 1.20220 0.33770
H47 H 0.57160 1.27110 0.34460
C56 C 0.5647(3) 1.1131(2) 0.3382(2)
H48 H 0.49590 1.07720 0.30740
H49 H 0.59620 1.07490 0.35980
H50 H 0.59960 1.14660 0.30330
C57 C -0.0579(3) 0.7797(3) 0.5426(3)
H51 H -0.00100 0.82860 0.57990
H52 H -0.09260 0.73820 0.57300
H53 H -0.10260 0.80230 0.51070
C58 C 0.0328(3) 0.7931(3) 0.4491(3)
H54 H 0.10120 0.82540 0.48450
H55 H 0.00560 0.83650 0.43280
C59 C 0.0319(3) 0.7402(3) 0.3775(3)
H56 H -0.03620 0.71020 0.34090
H57 H 0.07340 0.77890 0.34840
C60 C 0.0594(3) 0.6175(3) 0.3345(2)
H58 H -0.01050 0.58370 0.30560
H59 H 0.08960 0.57740 0.35290
H60 H 0.09260 0.65110 0.29870
C61 C 0.1231(3) 0.3391(3) 1.0832(3)
H61 H 0.17910 0.39590 1.10560
H62 H 0.12740 0.29740 1.11920
H63 H 0.06150 0.34620 1.07760
C62 C 0.1151(3) 0.3633(3) 0.9513(2)
H64 H 0.16970 0.42230 0.97150
H65 H 0.05220 0.36950 0.94490
C63 C 0.1171(3) 0.3261(3) 0.8730(2)
H66 H 0.06240 0.26720 0.85270
H67 H 0.10870 0.36430 0.83360
C64 C 0.2173(4) 0.2898(3) 0.8078(3)
H68 H 0.16850 0.22930 0.78670
H69 H 0.28360 0.29210 0.81550
H70 H 0.20550 0.32770 0.76980
C65 C 0.4166(4) 0.4334(4) 1.0665(6)
H71 H 0.37360 0.45660 1.08380
H72 H 0.41650 0.44340 1.01200
H73 H 0.48380 0.46340 1.10290
C66 C 0.4081(3) 0.3192(4) 1.1479(3)
H74 H 0.48050 0.34450 1.17210
H75 H 0.37930 0.34190 1.18400
C67 C 0.3678(4) 0.2226(4) 1.1360(3)
H76 H 0.39180 0.19970 1.09580
H77 H 0.38930 0.20350 1.18700
C68 C 0.2196(4) 0.1671(3) 1.1669(3)
H78 H 0.23670 0.12160 1.19040
H79 H 0.14790 0.14450 1.14350
H80 H 0.24220 0.21870 1.20860
C69 C 0.0093(3) 0.0866(3) 0.9245(3)
H81 H -0.03830 0.03040 0.89050
H82 H -0.01480 0.13230 0.91260
H83 H 0.01740 0.08140 0.98100
C70 C 0.1394(3) 0.0447(2) 0.9210(3)
H84 H 0.08940 -0.01300 0.88960
H85 H 0.15560 0.03970 0.97830
C71 C 0.2295(3) 0.0700(3) 0.8946(3)
H86 H 0.25750 0.02570 0.90300
H87 H 0.21300 0.07330 0.83690
C72 C 0.3896(3) 0.1805(3) 0.9215(3)
H88 H 0.42120 0.14060 0.93750
H89 H 0.43310 0.24030 0.95040
H90 H 0.37710 0.17940 0.86370
C73 C -0.0481(3) 0.4701(2) 0.9922(3)
C74 C -0.1172(3) 0.4323(3) 0.9197(4)
H91 H -0.18260 0.39210 0.91390
C75 C -0.0853(4) 0.4566(3) 0.8575(4)
H92 H -0.13170 0.43070 0.80590
C76 C 0.0075(3) 0.5151(3) 0.8594(3)
H93 H 0.02210 0.52810 0.81100
C77 C -0.0780(4) 0.4460(3) 1.0686(4)
H94 H -0.14260 0.40580 1.06540
C78 C 0.3799(3) 0.9198(3) 0.9300(3)
H95 H 0.32150 0.87300 0.93150
C79 C 0.3891(3) 0.9433(3) 0.8582(3)
H96 H 0.33750 0.91240 0.81010
C80 C 0.4731(3) 1.0116(3) 0.8554(3)
H97 H 0.47830 1.02750 0.80520
C81 C 0.5476(3) 1.0559(3) 0.9217(3)
H98 H 0.60480 1.10250 0.91790
C82 C 0.4578(2) 0.9653(2) 1.0033(3)
C73A C 0.0481(3) 0.5299(2) 1.0078(3)
C74A C 0.1172(3) 0.5677(3) 1.0803(4)
H91A H 0.18260 0.60790 1.08610
C75A C 0.0853(4) 0.5434(3) 1.1425(4)
H92A H 0.13170 0.56930 1.19410
C76A C -0.0075(3) 0.4849(3) 1.1406(3)
H93A H -0.02210 0.47190 1.18900
C77A C 0.0780(4) 0.5540(3) 0.9314(4)
H94A H 0.14260 0.59420 0.93460
C82A C 0.5422(2) 1.0347(2) 0.9967(3)
C78A C 0.6201(3) 1.0802(3) 1.0700(3)
H95A H 0.67850 1.12700 1.06850
C79A C 0.6109(3) 1.0567(3) 1.1418(3)
H96A H 0.66250 1.08760 1.18990
C80A C 0.5269(3) 0.9884(3) 1.1446(3)
H97A H 0.52170 0.97250 1.19480
C81A C 0.4524(3) 0.9441(3) 1.0783(3)
H98A H 0.39520 0.89750 1.08210
P1A P 0.67541(6) 1.04580(6) 0.52167(5)
P2A P 0.68854(7) 1.19754(6) 0.64193(6)
C1A C 0.7388(2) 1.0567(2) 0.6275(2)
C2A C 0.7353(2) 1.1192(2) 0.6815(2)
C3A C 0.7188(2) 0.9850(2) 0.4605(2)
C4A C 0.6528(3) 0.9378(2) 0.3850(2)
H1A H 0.58710 0.93320 0.37180
C5A C 0.6806(3) 0.8981(3) 0.3296(2)
H2A H 0.63430 0.86750 0.27900
C6A C 0.7755(4) 0.9024(3) 0.3472(3)
H3A H 0.79480 0.87540 0.30900
C7A C 0.8418(3) 0.9469(2) 0.4214(3)
H4A H 0.90700 0.95010 0.43420
C8A C 0.8143(3) 0.9864(2) 0.4769(2)
H5A H 0.86100 1.01560 0.52780
C9A C 0.7925(2) 1.0009(2) 0.65250(19)
C10A C 0.8911(2) 1.0372(2) 0.7004(2)
H6A H 0.92340 1.09850 0.72080
C11A C 0.9420(3) 0.9845(3) 0.7184(2)
H7A H 1.00890 1.01040 0.75050
C12A C 0.8970(3) 0.8950(3) 0.6904(2)
H8A H 0.93250 0.85940 0.70280
C13A C 0.7993(3) 0.8581(2) 0.6439(2)
H9A H 0.76720 0.79650 0.62490
C14A C 0.7481(2) 0.9098(2) 0.6248(2)
H10A H 0.68140 0.88330 0.59220
C15A C 0.7668(2) 1.1214(2) 0.7692(2)
C16A C 0.7306(2) 1.0450(2) 0.8011(2)
H11A H 0.68990 0.99070 0.76560
C17A C 0.7526(3) 1.0467(2) 0.8834(2)
H12A H 0.72810 0.99380 0.90340
C18A C 0.8103(2) 1.1252(3) 0.9359(2)
H13A H 0.82430 1.12690 0.99210
C19A C 0.8475(2) 1.2017(2) 0.9060(2)
H14A H 0.88800 1.25580 0.94180
C20A C 0.8257(2) 1.1994(2) 0.8236(2)
H15A H 0.85170 1.25240 0.80410
C21A C 0.6607(2) 1.2526(2) 0.7194(2)
C22A C 0.6232(3) 1.2167(3) 0.7799(2)
H16A H 0.61440 1.15820 0.78540
C23A C 0.5982(3) 1.2642(3) 0.8323(2)
H17A H 0.57440 1.23830 0.87360
C24A C 0.6074(3) 1.3477(3) 0.8253(3)
H18A H 0.58920 1.37930 0.86080
C25A C 0.6437(3) 1.3852(3) 0.7658(2)
H19A H 0.65000 1.44310 0.75990
C26A C 0.6707(3) 1.3389(2) 0.7146(2)
H20A H 0.69700 1.36650 0.67490
Na1A Na 0.48820(9) 0.89012(8) 0.49180(8)
Na2A Na 0.74975(9) 1.25089(9) 0.50508(8)
O1A O 0.52759(17) 0.76570(15) 0.51295(15)
O2A O 0.43182(16) 0.82735(15) 0.59694(14)
C53A C 0.5521(3) 0.7185(3) 0.4572(2)
H41A H 0.49160 0.67370 0.41950
H42A H 0.58940 0.75920 0.42760
H43A H 0.59220 0.69000 0.48600
C54A C 0.4706(3) 0.7106(2) 0.5561(3)
H44A H 0.40240 0.67640 0.52100
H45A H 0.49920 0.66890 0.57510
C55A C 0.4699(3) 0.7662(3) 0.6256(2)
H46A H 0.53770 0.79780 0.66230
H47A H 0.42840 0.72890 0.65540
C56A C 0.4353(3) 0.8869(2) 0.6618(2)
H48A H 0.50410 0.92280 0.69260
H49A H 0.40380 0.92510 0.64020
H50A H 0.40040 0.85340 0.69670
P3A P 0.80419(6) 1.30799(6) 0.36710(6)
P4A P 0.82601(6) 1.45995(6) 0.49088(5)
C27A C 0.7556(2) 1.3863(2) 0.3302(2)
C28A C 0.7566(2) 1.4490(2) 0.3871(2)
C29A C 0.8373(2) 1.2604(2) 0.2893(2)
C30A C 0.8424(2) 1.1785(2) 0.2969(2)
H21A H 0.82200 1.14960 0.33820
C31A C 0.8760(3) 1.1393(2) 0.2461(2)
H22A H 0.87950 1.08480 0.25350
C32A C 0.9045(3) 1.1788(3) 0.1845(2)
H23A H 0.92840 1.15200 0.15000
C33A C 0.8980(3) 1.2573(3) 0.1737(3)
H24A H 0.91560 1.28390 0.13050
C34A C 0.8660(2) 1.2979(2) 0.2257(2)
H25A H 0.86340 1.35270 0.21780
C35A C 0.7140(2) 1.3810(2) 0.2433(2)
C36A C 0.6551(2) 1.3002(2) 0.1919(2)
H26A H 0.63950 1.24780 0.21380
C37A C 0.6189(3) 1.2943(2) 0.1100(2)
H27A H 0.57940 1.23840 0.07670
C38A C 0.6398(3) 1.3691(3) 0.0768(2)
H28A H 0.61460 1.36530 0.02070
C39A C 0.6979(3) 1.4498(3) 0.1260(2)
H29A H 0.71240 1.50180 0.10360
C40A C 0.7351(2) 1.4556(2) 0.2076(2)
H30A H 0.77600 1.51160 0.24020
C41A C 0.7033(2) 1.5058(2) 0.36433(19)
C42A C 0.6032(2) 1.4715(2) 0.3227(2)
H31A H 0.56720 1.40960 0.30850
C43A C 0.5549(3) 1.5254(2) 0.3014(2)
H32A H 0.48640 1.50010 0.27370
C44A C 0.6054(3) 1.6155(2) 0.3201(2)
H33A H 0.57280 1.65240 0.30340
C45A C 0.7040(3) 1.6514(2) 0.3634(2)
H34A H 0.73920 1.71330 0.37790
C46A C 0.7517(2) 1.5975(2) 0.3858(2)
H35A H 0.81920 1.62330 0.41670
C47A C 0.7865(2) 1.5217(2) 0.5551(2)
C48A C 0.6915(3) 1.5190(2) 0.5423(2)
H36A H 0.64250 1.48820 0.49290
C49A C 0.6674(3) 1.5603(3) 0.6002(2)
H37A H 0.60230 1.55680 0.59010
C50A C 0.7374(3) 1.6065(3) 0.6723(3)
H38A H 0.72090 1.63460 0.71190
C51A C 0.8321(3) 1.6110(3) 0.6859(3)
H39A H 0.88090 1.64250 0.73520
C52A C 0.8560(3) 1.5705(2) 0.6288(2)
H40A H 0.92180 1.57550 0.63930
O3A O 1.02511(17) 1.26398(15) 0.50922(15)
O4A O 0.93100(17) 1.32333(16) 0.59785(15)
C57A C 1.0579(3) 1.2203(3) 0.4574(3)
H51A H 1.00100 1.17140 0.42010
H52A H 1.09260 1.26180 0.42700
H53A H 1.10260 1.19770 0.48930
C58A C 0.9672(3) 1.2069(3) 0.5509(3)
H54A H 0.89880 1.17460 0.51550
H55A H 0.99440 1.16350 0.56720
C59A C 0.9681(3) 1.2598(3) 0.6225(3)
H56A H 1.03620 1.28980 0.65910
H57A H 0.92660 1.22110 0.65160
C60A C 0.9406(3) 1.3825(3) 0.6655(2)
H58A H 1.01050 1.41630 0.69440
H59A H 0.91040 1.42260 0.64710
H60A H 0.90740 1.34890 0.70130
Na3A Na 0.98712(9) 1.39006(8) 0.49297(8)
Na3A* Na -0.01288(9) 0.39006(8) 0.49297(8)
P4A* P -0.17399(6) 0.45995(6) 0.49088(5)
Na3* Na 1.01288(9) 1.60994(8) 0.50703(8)
P4* P 1.17399(6) 1.54005(6) 0.50912(5)
#END
