
#######################################################################
#
#                 Cambridge Crystallographic Data Centre
#                                CCDC
#
#######################################################################
#
# If this CIF has been generated from an entry in the Cambridge
# Structural Database, then it will include bibliographic, chemical,
# crystal, experimental, refinement or atomic coordinate data resulting
# from the CCDC's data processing and validation procedures.
#
#######################################################################

data_CSD_CIF_HURGOR
_audit_creation_date 2010-12-14
_audit_creation_method CSD-ConQuest-V1
_database_code_CSD HURGOR
_database_code_depnum_ccdc_archive 'CCDC 759305'
_chemical_formula_sum 'C70 H70 Co3 N4 O18'
_chemical_formula_moiety
;
(C4 H12 N1 1+)2n,n(C56 H32 Co3 O16 2-),2n(C3 H7 N1 O1)
;
_journal_coden_Cambridge 222
_journal_volume 39
_journal_year 2010
_journal_page_first 3384
_journal_name_full 'Dalton Trans. '
loop_
_publ_author_name
"Yi Du"
"A.L.Thompson"
"D.O'Hare"
_chemical_name_systematic
;
catena-(bis(tetramethylammonium) 
bis(\m~4~-biphenyl-4,4'-dicarboxylato-O,O,O',O'',O'',O''')-(\m~4~-biphenyl-4,4
'-dicarboxylato-O,O',O'',O''')-(\m~2~-biphenyl-4,4'-dicarboxylato-O,O',O'',O''
')-tri-cobalt N,N-dimethylformamide unknown solvate)
;
_cell_volume   8062.908
_exptl_crystal_colour 'intense purple'
_exptl_crystal_description 'block'
_diffrn_ambient_temperature 150
_refine_special_details
;
The SQUEEZE/PLATON program has been used to model the tetramethylammonium 
cations and the solvent molecules.
;
#These two values have been output from a single CSD field.
_refine_ls_R_factor_gt 0.0732
_refine_ls_wR_factor_gt 0.0732
_symmetry_cell_setting orthorhombic
_symmetry_space_group_name_H-M 'P n n a'
_symmetry_Int_Tables_number 52
loop_
_symmetry_equiv_pos_site_id
_symmetry_equiv_pos_as_xyz
1 x,y,z
2 x,1/2-y,1/2-z
3 1/2-x,1/2+y,1/2-z
4 1/2-x,-y,z
5 -x,-y,-z
6 -x,-1/2+y,-1/2+z
7 -1/2+x,-1/2-y,-1/2+z
8 -1/2+x,y,-z
_cell_length_a 26.0986(1)
_cell_length_b 22.3068(3)
_cell_length_c 13.8496(3)
_cell_angle_alpha 90
_cell_angle_beta 90
_cell_angle_gamma 90
_cell_formula_units_Z 4
loop_
_atom_type_symbol
_atom_type_radius_bond
C 0.57
H 0.23
Co 1.51
O 0.85
loop_
_atom_site_label
_atom_site_type_symbol
_atom_site_fract_x
_atom_site_fract_y
_atom_site_fract_z
Co1 Co 0.406975(19) 0.25000 0.25000
O1 O 0.40899(8) 0.32136(9) 0.35178(13)
Co2 Co 0.407571(14) 0.409833(18) 0.27397(3)
O2 O 0.34322(8) 0.3879(1) 0.20555(15)
C1 C 0.32857(12) 0.33958(16) 0.1699(2)
O3 O 0.35089(9) 0.29094(11) 0.17234(16)
C2 C 0.27812(12) 0.34045(15) 0.1163(2)
C3 C 0.25235(13) 0.39333(15) 0.0997(3)
C4 C 0.20611(13) 0.39284(17) 0.0513(3)
C5 C 0.18397(13) 0.34078(17) 0.0183(3)
C6 C 0.13338(13) 0.34065(16) -0.0312(3)
C7 C 0.11841(15) 0.3881(2) -0.0887(4)
C8 C 0.07096(15) 0.3871(2) -0.1345(3)
C9 C 0.03805(13) 0.33944(15) -0.1229(3)
C10 C -0.01376(13) 0.33985(17) -0.1719(2)
O4 O -0.02816(9) 0.38827(11) -0.20864(19)
O5 O -0.03662(10) 0.29145(12) -0.17141(17)
C11 C 0.05395(15) 0.29216(17) -0.0688(3)
C12 C 0.10027(16) 0.29327(18) -0.0219(3)
C13 C 0.21071(15) 0.28817(17) 0.0332(3)
C14 C 0.25711(15) 0.28821(17) 0.0817(3)
O6 O 0.3910(1) 0.40556(11) 0.41985(15)
C15 C 0.39654(11) 0.35015(15) 0.4256(2)
C16 C 0.39074(12) 0.31934(15) 0.5212(2)
C17 C 0.37534(16) 0.35216(18) 0.6016(2)
C18 C 0.37162(17) 0.32368(16) 0.6904(2)
C19 C 0.38350(13) 0.26461(15) 0.7011(2)
C20 C 0.39808(14) 0.23223(16) 0.6200(2)
C21 C 0.40167(13) 0.25977(15) 0.5316(2)
O7 O 0.40150(11) 0.49662(11) 0.24498(18)
C22 C 0.4370(2) 0.5247(2) 0.2846(3)
O8 O 0.47191(15) 0.50098(15) 0.3315(3)
C23 C 0.43627(17) 0.59296(17) 0.2747(3)
C24 C 0.47824(17) 0.62708(18) 0.2992(3)
C25 C 0.47825(17) 0.68727(19) 0.2883(3)
C26 C 0.43393(17) 0.71692(18) 0.2564(3)
C27 C 0.39228(19) 0.6824(2) 0.2319(4)
C28 C 0.39256(18) 0.6208(2) 0.2407(3)
H1 H 0.26640 0.42890 0.12080
H2 H 0.18870 0.42910 0.04060
H3 H 0.14030 0.42060 -0.09740
H4 H 0.06070 0.41980 -0.17430
H5 H 0.03290 0.25860 -0.06280
H6 H 0.10990 0.26100 0.01700
H7 H 0.19810 0.25140 0.01120
H8 H 0.27410 0.25200 0.09280
H9 H 0.36700 0.39440 0.59760
H10 H 0.36080 0.34540 0.74500
H11 H 0.40590 0.19100 0.62440
H12 H 0.41150 0.23700 0.47790
H13 H 0.50750 0.60770 0.32520
H14 H 0.50810 0.70960 0.30220
H15 H 0.36300 0.70130 0.21000
H16 H 0.36370 0.59810 0.22390
Co1F Co -0.093025(19) 0.25000 -0.25000
Co1* Co 0.406975(19) 0.25000 1.25000
Co1F* Co -0.093025(19) 0.25000 0.75000
O1A O 0.40899(8) 0.17864(9) 1.14822(13)
O1A* O 0.40899(8) 0.17864(9) 0.14822(13)
Co2A Co 0.407571(14) 0.090167(18) 1.22603(3)
Co2G Co -0.092429(14) 0.409833(18) -0.27397(3)
Co2A* Co 0.407571(14) 1.090167(18) 0.22603(3)
Co2A** Co 0.407571(14) 0.090167(18) 0.22603(3)
Co2F Co -0.092429(14) 0.090167(18) 0.77397(3)
O2A O 0.34322(8) 0.1121(1) 0.29445(15)
O2A* O 0.34322(8) 0.1121(1) 1.29445(15)
C1A C 0.32857(12) 0.16042(16) 0.3301(2)
O3A O 0.35089(9) 0.20906(11) 0.32766(16)
C2A C 0.27812(12) 0.15955(15) 0.3837(2)
C3A C 0.25235(13) 0.10667(15) 0.4003(3)
C4A C 0.20611(13) 0.10716(17) 0.4487(3)
C5A C 0.18397(13) 0.15922(17) 0.4817(3)
C6A C 0.13338(13) 0.15935(16) 0.5312(3)
C7A C 0.11841(15) 0.1119(2) 0.5887(4)
C8A C 0.07096(15) 0.1129(2) 0.6345(3)
C9A C 0.03805(13) 0.16056(15) 0.6229(3)
C10A C -0.01376(13) 0.16015(17) 0.6719(2)
O4A O -0.02816(9) 0.11173(11) 0.70864(19)
O4G O 0.47184(9) 0.38827(11) 0.20864(19)
O4F O 0.47184(9) 0.11173(11) 1.29136(19)
O5A O -0.03662(10) 0.20855(12) 0.67141(17)
O5F O 0.46338(10) 0.20855(12) 0.32859(17)
O5G O 0.46338(10) 0.29145(12) 0.17141(17)
C11A C 0.05395(15) 0.20784(17) 0.5688(3)
C12A C 0.10027(16) 0.20673(18) 0.5219(3)
C13A C 0.21071(15) 0.21183(17) 0.4668(3)
C14A C 0.25711(15) 0.21179(17) 0.4183(3)
O6A O 0.3910(1) 0.09444(11) 1.08015(15)
C15A C 0.39654(11) 0.14985(15) 1.0744(2)
C16A C 0.39074(12) 0.18066(15) 0.9788(2)
C17A C 0.37534(16) 0.14784(18) 0.8984(2)
C18A C 0.37162(17) 0.17632(16) 0.8096(2)
C19A C 0.38350(13) 0.23539(15) 0.7989(2)
C20A C 0.39808(14) 0.26777(16) 0.8800(2)
C21A C 0.40167(13) 0.24023(15) 0.9684(2)
O7A O 0.40150(11) 1.00338(11) 0.25502(18)
O7A* O 0.40150(11) 0.00338(11) 1.25502(18)
C22A C 0.4370(2) 0.9753(2) 0.2154(3)
O8A O 0.47191(15) 0.99902(15) 0.1685(3)
O8A* O 0.47191(15) -0.00098(15) 1.1685(3)
C23A C 0.43627(17) 0.90704(17) 0.2253(3)
C24A C 0.47824(17) 0.87292(18) 0.2008(3)
C25A C 0.47825(17) 0.81273(19) 0.2117(3)
C26A C 0.43393(17) 0.78308(18) 0.2436(3)
C27A C 0.39228(19) 0.8176(2) 0.2681(4)
C28A C 0.39256(18) 0.8792(2) 0.2593(3)
H1A H 0.26640 0.07110 0.37920
H2A H 0.18870 0.07090 0.45940
H3A H 0.14030 0.07940 0.59740
H4A H 0.06070 0.08020 0.67430
H5A H 0.03290 0.24140 0.56280
H6A H 0.10990 0.23900 0.48300
H7A H 0.19810 0.24860 0.48880
H8A H 0.27410 0.24800 0.40720
H9A H 0.36700 0.10560 0.90240
H10A H 0.36080 0.15460 0.75500
H11A H 0.40590 0.30900 0.87560
H12A H 0.41150 0.26300 1.02210
H13A H 0.50750 0.89230 0.17480
H14A H 0.50810 0.79040 0.19780
H15A H 0.36300 0.79870 0.29000
H16A H 0.36370 0.90190 0.27610
#END
