
#######################################################################
#
#                 Cambridge Crystallographic Data Centre
#                                CCDC
#
#######################################################################
#
# If this CIF has been generated from an entry in the Cambridge
# Structural Database, then it will include bibliographic, chemical,
# crystal, experimental, refinement or atomic coordinate data resulting
# from the CCDC's data processing and validation procedures.
#
#######################################################################

data_CSD_CIF_HURKOX
_audit_creation_date 2020-09-04
_audit_creation_method CSD-ConQuest-V1
_database_code_CSD HURKOX
_database_code_depnum_ccdc_archive 'CCDC 1997911'
_chemical_formula_sum 'C65 H47 Eu3 N5 O26'
_chemical_formula_moiety
;
(C58 H22 Eu3 N2 O24 2-)n,2(C2 H8 N1 1+),x(C3 H7 N1 O1),y(H2 O1)
;
_journal_coden_Cambridge 9
_journal_volume 59
_journal_year 2020
_journal_page_first 13407
_journal_name_full 'Inorg.Chem. '
loop_
_publ_author_name
"Hongtai Chen"
"Liming Fan"
"Hongxiao Lv"
"Xiutang Zhang"
_chemical_name_systematic
;
catena-[bis(dimethylammonium) 
bis(\m-4,4',4''-(pyridine-2,4,6-triyl)tris(benzene-1,3-dicarboxylato))-tri-eur
opium(iii) N,N-dimethylformamide solvate hydrate]
;
_cell_volume   9239.627
_exptl_crystal_colour 'colorless'
_exptl_crystal_description 'block'
_diffrn_ambient_temperature 296.3
_refine_special_details
;
Disordered dimethylammonium cation and solvent molecules were not modelled 
and the disordered density was taken into account using the MASK/OLEX2 
program.
;
#These two values have been output from a single CSD field.
_refine_ls_R_factor_gt 0.0445
_refine_ls_wR_factor_gt 0.0445
_symmetry_cell_setting monoclinic
_symmetry_space_group_name_H-M 'C 2/c'
_symmetry_Int_Tables_number 15
loop_
_symmetry_equiv_pos_site_id
_symmetry_equiv_pos_as_xyz
1 x,y,z
2 -x,y,1/2-z
3 1/2+x,1/2+y,z
4 1/2-x,1/2+y,1/2-z
5 -x,-y,-z
6 x,-y,-1/2+z
7 -1/2-x,-1/2-y,-z
8 -1/2+x,-1/2-y,-1/2+z
_cell_length_a 18.9221(12)
_cell_length_b 23.2834(18)
_cell_length_c 21.4350(12)
_cell_angle_alpha 90
_cell_angle_beta 101.931(2)
_cell_angle_gamma 90
_cell_formula_units_Z 4
loop_
_atom_type_symbol
_atom_type_radius_bond
C 0.68
H 0.23
Eu 1.98
N 0.68
O 0.68
loop_
_atom_site_label
_atom_site_type_symbol
_atom_site_fract_x
_atom_site_fract_y
_atom_site_fract_z
Eu1 Eu 0.41447(2) 0.50214(2) 0.04150(2)
Eu2 Eu 0.00000 0.35147(3) 0.25000
C1 C 0.1637(3) 0.4151(3) 0.0460(3)
C2 C 0.1362(3) 0.3612(3) 0.0415(3)
H1 H 0.10244 0.35050 0.00541
C3 C 0.1574(3) 0.3230(3) 0.0889(3)
C4 C 0.2070(3) 0.3381(2) 0.1427(2)
H2 H 0.22159 0.31155 0.17522
C5 C 0.2347(3) 0.3922(3) 0.1481(2)
C6 C 0.2833(3) 0.4090(3) 0.2086(3)
C7 C 0.2638(4) 0.3952(3) 0.2665(3)
H3 H 0.22160 0.37449 0.26583
C8 C 0.3049(3) 0.4114(3) 0.3239(3)
H4 H 0.29039 0.40186 0.36146
C9 C 0.3682(3) 0.4421(3) 0.3263(2)
C10 C 0.3888(3) 0.4569(3) 0.2708(2)
H5 H 0.43115 0.47766 0.27250
C11 C 0.3469(3) 0.4411(3) 0.2115(2)
C12 C 0.3727(3) 0.4595(3) 0.1526(2)
C13 C 0.4142(3) 0.4605(3) 0.3895(2)
C14 C 0.1237(3) 0.2646(3) 0.0827(3)
C15 C 0.1386(4) 0.2274(3) 0.0379(4)
H6 H 0.17186 0.23832 0.01370
C16 C 0.1058(4) 0.1733(3) 0.0272(4)
H7 H 0.11929 0.14785 -0.00169
C17 C 0.0536(3) 0.1587(3) 0.0597(3)
C18 C 0.0367(4) 0.1961(3) 0.1044(3)
H8 H 0.00074 0.18617 0.12613
C19 C 0.0720(4) 0.2481(3) 0.1176(3)
C20 C 0.0498(5) 0.2849(3) 0.1682(4)
C21 C 0.0123(3) 0.1038(2) 0.0480(3)
C22 C 0.1380(3) 0.4564(3) -0.0058(3)
C23 C 0.0648(4) 0.4582(3) -0.0339(3)
H9 H 0.03365 0.43299 -0.01937
C24 C 0.0368(4) 0.4953(3) -0.0819(4)
H10 H -0.01240 0.49482 -0.09980
C25 C 0.0825(3) 0.5341(3) -0.1041(3)
C26 C 0.1539(3) 0.5338(3) -0.0762(3)
H11 H 0.18450 0.55981 -0.09022
C27 C 0.1828(3) 0.4958(3) -0.0270(3)
C28 C 0.2638(4) 0.4978(3) -0.0019(3)
C29 C 0.0538(4) 0.5742(3) -0.1575(3)
N1 N 0.2133(3) 0.4319(2) 0.1010(2)
O1 O 0.3802(2) 0.42437(18) 0.11114(18)
O2 O 0.3879(2) 0.51250(18) 0.14859(19)
O3 O 0.4755(2) 0.4798(2) 0.38744(18)
O4 O 0.3884(2) 0.4553(2) 0.43814(16)
O5 O -0.0178(4) 0.2839(3) 0.1729(3)
O6 O 0.0918(3) 0.3116(3) 0.2085(3)
O7 O -0.0429(2) 0.09768(17) 0.07132(19)
O8 O 0.0336(2) 0.06547(17) 0.01431(18)
O9 O 0.2906(2) 0.5422(2) 0.0279(2)
O10 O 0.3009(2) 0.45604(19) -0.0140(2)
O11 O -0.0129(3) 0.5750(3) -0.1807(3)
O12 O 0.0945(3) 0.6064(2) -0.1788(2)
Eu1A Eu -0.41447(2) 0.50214(2) 0.45850(2)
C1A C -0.1637(3) 0.4151(3) 0.4540(3)
C2A C -0.1362(3) 0.3612(3) 0.4585(3)
H1A H -0.10244 0.35050 0.49459
C3A C -0.1574(3) 0.3230(3) 0.4111(3)
C4A C -0.2070(3) 0.3381(2) 0.3573(2)
H2A H -0.22159 0.31155 0.32478
C5A C -0.2347(3) 0.3922(3) 0.3519(2)
C6A C -0.2833(3) 0.4090(3) 0.2914(3)
C7A C -0.2638(4) 0.3952(3) 0.2335(3)
H3A H -0.22160 0.37449 0.23417
C8A C -0.3049(3) 0.4114(3) 0.1761(3)
H4A H -0.29039 0.40186 0.13854
C9A C -0.3682(3) 0.4421(3) 0.1737(2)
C10A C -0.3888(3) 0.4569(3) 0.2292(2)
H5A H -0.43115 0.47766 0.22750
C11A C -0.3469(3) 0.4411(3) 0.2885(2)
C12A C -0.3727(3) 0.4595(3) 0.3474(2)
C13A C -0.4142(3) 0.4605(3) 0.1105(2)
C14A C -0.1237(3) 0.2646(3) 0.4173(3)
C15A C -0.1386(4) 0.2274(3) 0.4621(4)
H6A H -0.17186 0.23832 0.48630
C16A C -0.1058(4) 0.1733(3) 0.4728(4)
H7A H -0.11929 0.14785 0.50169
C17A C -0.0536(3) 0.1587(3) 0.4403(3)
C18A C -0.0367(4) 0.1961(3) 0.3956(3)
H8A H -0.00074 0.18617 0.37387
C19A C -0.0720(4) 0.2481(3) 0.3824(3)
C20A C -0.0498(5) 0.2849(3) 0.3318(4)
C21A C -0.0123(3) 0.1038(2) 0.4520(3)
C22A C -0.1380(3) 0.4564(3) 0.5058(3)
C23A C -0.0648(4) 0.4582(3) 0.5339(3)
H9A H -0.03365 0.43299 0.51937
C24A C -0.0368(4) 0.4953(3) 0.5819(4)
H10A H 0.01240 0.49482 0.59981
C25A C -0.0825(3) 0.5341(3) 0.6041(3)
C26A C -0.1539(3) 0.5338(3) 0.5762(3)
H11A H -0.18450 0.55981 0.59022
C27A C -0.1828(3) 0.4958(3) 0.5270(3)
C28A C -0.2638(4) 0.4978(3) 0.5019(3)
C29A C -0.0538(4) 0.5742(3) 0.6575(3)
N1A N -0.2133(3) 0.4319(2) 0.3990(2)
O1A O -0.3802(2) 0.42437(18) 0.38886(18)
O2A O -0.3879(2) 0.51250(18) 0.35141(19)
O3A O -0.4755(2) 0.4798(2) 0.11256(18)
O4A O -0.3884(2) 0.4553(2) 0.06186(16)
O5A O 0.0178(4) 0.2839(3) 0.3271(3)
O6A O -0.0918(3) 0.3116(3) 0.2915(3)
O7A O 0.0429(2) 0.09768(17) 0.42868(19)
O8A O -0.0336(2) 0.06547(17) 0.48569(18)
O9A O -0.2906(2) 0.5422(2) 0.4721(2)
O10A O -0.3009(2) 0.45604(19) 0.5140(2)
O11A O 0.0129(3) 0.5750(3) 0.6807(3)
O12A O -0.0945(3) 0.6064(2) 0.6788(2)
Eu1* Eu -0.58553(2) 0.50214(2) 0.04150(2)
Eu1A* Eu 0.58553(2) 0.50214(2) 0.45850(2)
Eu1B Eu -0.08553(2) 0.00214(2) 0.04150(2)
Eu1C Eu 0.08553(2) 0.00214(2) 0.45850(2)
Eu1D Eu -0.41447(2) 0.49786(2) -0.04150(2)
Eu1E Eu 0.41447(2) 0.49786(2) 0.54150(2)
Eu1F Eu 0.08553(2) -0.00214(2) -0.04150(2)
Eu1G Eu -0.08553(2) -0.00214(2) 0.54150(2)
Eu2D Eu 0.00000 0.64853(3) -0.25000
Eu2D* Eu 0.00000 0.64853(3) 0.75000
O3* O -0.5245(2) 0.4798(2) 0.38744(18)
O3A* O 0.5245(2) 0.4798(2) 0.11256(18)
O4D O -0.3884(2) 0.5447(2) 0.56186(16)
O4E O 0.3884(2) 0.5447(2) -0.06186(16)
O7B O 0.4571(2) 0.59768(17) 0.07132(19)
O7C O -0.4571(2) 0.59768(17) 0.42868(19)
O8B O 0.5336(2) 0.56547(17) 0.01431(18)
O8C O -0.5336(2) 0.56547(17) 0.48569(18)
O8F O 0.4664(2) 0.43453(17) -0.01431(18)
O8G O -0.4664(2) 0.43453(17) 0.51431(18)
O11D O 0.0129(3) 0.4250(3) 0.1807(3)
O11E O -0.0129(3) 0.4250(3) 0.3193(3)
O12D O -0.0945(3) 0.3936(2) 0.1788(2)
O12E O 0.0945(3) 0.3936(2) 0.3212(2)
#END
