
#######################################################################
#
#                 Cambridge Crystallographic Data Centre
#                                CCDC
#
#######################################################################
#
# If this CIF has been generated from an entry in the Cambridge
# Structural Database, then it will include bibliographic, chemical,
# crystal, experimental, refinement or atomic coordinate data resulting
# from the CCDC's data processing and validation procedures.
#
#######################################################################

data_CSD_CIF_HUSFEJ
_audit_creation_date 2020-09-04
_audit_creation_method CSD-ConQuest-V1
_database_code_CSD HUSFEJ
_database_code_depnum_ccdc_archive 'CCDC 2008437'
_chemical_formula_sum 'C63 H40 Er3 N4 O26'
_chemical_formula_moiety
;
(C58 H24 Er3 N2 O24 1-)n,n(C2 H7 N1 1+),n(C3 H7 N1 O1),n(H2 O1)
;
_journal_coden_Cambridge 9
_journal_volume 59
_journal_year 2020
_journal_page_first 13407
_journal_name_full 'Inorg.Chem. '
loop_
_publ_author_name
"Hongtai Chen"
"Liming Fan"
"Hongxiao Lv"
"Xiutang Zhang"
_chemical_name_systematic
;
catena-(dimethylammonium 
bis(\m-2,4,6-tris(2,4-dicarboxylatophenyl)pyridinium)-tri-erbium 
dimethylformamide solvate hydrate)
;
_cell_volume   9248.886
_diffrn_ambient_temperature 272
_refine_special_details
;
The SQUEEZE/PLATON program was used to model the cation and an unidentified 
number of dimethylformamide and water molecules.
;
#These two values have been output from a single CSD field.
_refine_ls_R_factor_gt 0.0552
_refine_ls_wR_factor_gt 0.0552
_symmetry_cell_setting monoclinic
_symmetry_space_group_name_H-M 'C 2/c'
_symmetry_Int_Tables_number 15
loop_
_symmetry_equiv_pos_site_id
_symmetry_equiv_pos_as_xyz
1 x,y,z
2 -x,y,1/2-z
3 1/2+x,1/2+y,z
4 1/2-x,1/2+y,1/2-z
5 -x,-y,-z
6 x,-y,-1/2+z
7 -1/2-x,-1/2-y,-z
8 -1/2+x,-1/2-y,-1/2+z
_cell_length_a 19.0782(13)
_cell_length_b 23.1744(15)
_cell_length_c 21.3856(12)
_cell_angle_alpha 90
_cell_angle_beta 101.989(2)
_cell_angle_gamma 90
_cell_formula_units_Z 4
loop_
_atom_type_symbol
_atom_type_radius_bond
C 0.68
H 0.23
Er 1.89
N 0.68
O 0.68
loop_
_atom_site_label
_atom_site_type_symbol
_atom_site_fract_x
_atom_site_fract_y
_atom_site_fract_z
C1 C 0.7313(4) 0.4989(4) 1.0007(4)
C2 C 0.8120(5) 0.5006(4) 1.0268(4)
C3 C 0.8401(4) 0.4631(5) 1.0754(4)
H1 H 0.81030 0.43680 1.08990
C4 C 0.9122(5) 0.4644(5) 1.1027(5)
C5 C 0.9564(6) 0.5041(5) 1.0808(6)
H2 H 1.00520 0.50470 1.09870
C6 C 0.9287(5) 0.5421(5) 1.0333(5)
H3 H 0.95890 0.56850 1.01950
C7 C 0.8565(4) 0.5421(4) 1.0052(4)
C8 C 0.9425(5) 0.4240(5) 1.1568(5)
C9 C 0.8293(4) 0.5841(4) 0.9535(4)
C10 C 0.7593(4) 0.6081(4) 0.8518(3)
C11 C 0.7869(4) 0.6636(3) 0.8584(3)
H4 H 0.77230 0.69070 0.82620
C12 C 0.8353(4) 0.6783(3) 0.9123(4)
C13 C 0.8566(4) 0.6387(3) 0.9610(4)
H5 H 0.88880 0.64910 0.99820
C14 C 0.8698(4) 0.7358(3) 0.9205(4)
C15 C 0.8567(6) 0.7733(4) 0.9660(5)
H6 H 0.82290 0.76310 0.98980
C16 C 0.8921(5) 0.8267(4) 0.9785(5)
H7 H 0.88140 0.85130 1.00960
C17 C 0.9430(4) 0.8420(3) 0.9437(4)
C18 C 0.9566(6) 0.8043(4) 0.8982(5)
H8 H 0.99160 0.81410 0.87560
C19 C 0.9205(6) 0.7520(4) 0.8842(4)
C20 C 0.5825(4) 0.5368(3) 0.6099(3)
C21 C 0.9435(6) 0.7144(4) 0.8345(5)
C22 C 0.9846(4) 0.8963(3) 0.9560(3)
C23 C 0.7108(4) 0.5915(3) 0.7910(3)
C24 C 0.6492(4) 0.5572(3) 0.7889(3)
C25 C 0.6081(4) 0.5412(3) 0.7302(3)
H9 H 0.56670 0.51970 0.72890
C26 C 0.6274(4) 0.5564(3) 0.6729(3)
C27 C 0.6897(5) 0.5882(4) 0.6755(4)
H10 H 0.70410 0.59770 0.63790
C28 C 0.7305(5) 0.6061(4) 0.7339(4)
H11 H 0.77150 0.62810 0.73480
C29 C 0.6242(4) 0.5384(3) 0.8477(3)
Er1 Er 0.584107(15) 0.495841(12) 0.958252(12)
Er2 Er 1.00000 0.65245(2) 0.75000
N1 N 0.7813(4) 0.5680(3) 0.8997(3)
H12 H 0.76490 0.53340 0.89560
O1 O 0.6154(3) 0.5739(3) 0.8891(3)
O2 O 0.6111(3) 0.4849(3) 0.8532(3)
O3 O 0.6084(3) 0.5439(3) 0.5613(2)
O4 O 0.5228(3) 0.5154(3) 0.6125(2)
O5 O 0.6946(3) 0.5417(3) 1.0106(3)
O6 O 0.7037(3) 0.4540(3) 0.9733(3)
O7 O 0.9018(4) 0.3897(3) 1.1779(4)
O8 O 1.0082(4) 0.4241(5) 1.1801(5)
O9 O 0.9640(3) 0.9354(2) 0.9892(2)
O10 O 1.0398(3) 0.9023(2) 0.9330(3)
O11 O 1.0146(7) 0.7198(6) 0.8298(6)
O12 O 0.9059(5) 0.6906(6) 0.7940(5)
C1A C 0.2687(4) 0.4989(4) 0.4993(4)
C2A C 0.1880(5) 0.5006(4) 0.4732(4)
C3A C 0.1599(4) 0.4631(5) 0.4246(4)
H1A H 0.18970 0.43680 0.41010
C4A C 0.0878(5) 0.4644(5) 0.3973(5)
C5A C 0.0436(6) 0.5041(5) 0.4192(6)
H2A H -0.00520 0.50470 0.40130
C6A C 0.0713(5) 0.5421(5) 0.4667(5)
H3A H 0.04110 0.56850 0.48050
C7A C 0.1435(4) 0.5421(4) 0.4948(4)
C8A C 0.0575(5) 0.4240(5) 0.3432(5)
C9A C 0.1707(4) 0.5841(4) 0.5465(4)
C10A C 0.2407(4) 0.6081(4) 0.6482(3)
C11A C 0.2131(4) 0.6636(3) 0.6416(3)
H4A H 0.22770 0.69070 0.67380
C12A C 0.1647(4) 0.6783(3) 0.5877(4)
C13A C 0.1434(4) 0.6387(3) 0.5390(4)
H5A H 0.11120 0.64910 0.50180
C14A C 0.1302(4) 0.7358(3) 0.5795(4)
C15A C 0.1433(6) 0.7733(4) 0.5340(5)
H6A H 0.17710 0.76310 0.51020
C16A C 0.1079(5) 0.8267(4) 0.5215(5)
H7A H 0.11860 0.85130 0.49040
C17A C 0.0570(4) 0.8420(3) 0.5563(4)
C18A C 0.0434(6) 0.8043(4) 0.6018(5)
H8A H 0.00840 0.81410 0.62440
C19A C 0.0795(6) 0.7520(4) 0.6158(4)
C20A C 0.4175(4) 0.5368(3) 0.8901(3)
C21A C 0.0565(6) 0.7144(4) 0.6655(5)
C22A C 0.0154(4) 0.8963(3) 0.5440(3)
C23A C 0.2892(4) 0.5915(3) 0.7090(3)
C24A C 0.3508(4) 0.5572(3) 0.7111(3)
C25A C 0.3919(4) 0.5412(3) 0.7698(3)
H9A H 0.43330 0.51970 0.77110
C26A C 0.3726(4) 0.5564(3) 0.8271(3)
C27A C 0.3103(5) 0.5882(4) 0.8245(4)
H10A H 0.29590 0.59770 0.86210
C28A C 0.2695(5) 0.6061(4) 0.7661(4)
H11A H 0.22850 0.62810 0.76520
C29A C 0.3758(4) 0.5384(3) 0.6523(3)
Er1A Er 0.415893(15) 0.495841(12) 0.541748(12)
N1A N 0.2187(4) 0.5680(3) 0.6003(3)
H12A H 0.23510 0.53340 0.60440
O1A O 0.3846(3) 0.5739(3) 0.6109(3)
O2A O 0.3889(3) 0.4849(3) 0.6468(3)
O3A O 0.3916(3) 0.5439(3) 0.9387(2)
O4A O 0.4772(3) 0.5154(3) 0.8875(2)
O5A O 0.3054(3) 0.5417(3) 0.4894(3)
O6A O 0.2963(3) 0.4540(3) 0.5267(3)
O7A O 0.0982(4) 0.3897(3) 0.3221(4)
O8A O -0.0082(4) 0.4241(5) 0.3199(5)
O9A O 0.0360(3) 0.9354(2) 0.5108(2)
O10A O -0.0398(3) 0.9023(2) 0.5670(3)
O11A O -0.0146(7) 0.7198(6) 0.6702(6)
O12A O 0.0941(5) 0.6906(6) 0.7060(5)
Er1B Er 1.084107(15) 0.995841(12) 0.958252(12)
Er1C Er -0.084107(15) 0.995841(12) 0.541748(12)
Er1D Er 0.415893(15) 0.504159(12) 1.041748(12)
Er1E Er 0.584107(15) 0.504159(12) 0.458252(12)
Er1F Er 0.915893(15) 1.004159(12) 1.041748(12)
Er1G Er 0.084107(15) 1.004159(12) 0.458252(12)
Er2* Er 0.00000 0.65245(2) 0.75000
Er2D Er 0.00000 0.34755(2) 0.25000
Er2D* Er 1.00000 0.34755(2) 1.25000
O3D O 0.3916(3) 0.4561(3) 0.4387(2)
O3E O 0.6084(3) 0.4561(3) 1.0613(2)
O7D O 1.0982(4) 0.6103(3) 0.8221(4)
O7E O 0.9018(4) 0.6103(3) 0.6779(4)
O8D O 0.9918(4) 0.5759(5) 0.8199(5)
O8E O 1.0082(4) 0.5759(5) 0.6801(5)
O9F O 0.5360(3) 0.5646(2) 1.0108(2)
O9G O 0.4640(3) 0.5646(2) 0.4892(2)
O10B O 0.5398(3) 0.4023(2) 0.9330(3)
O10C O 0.4602(3) 0.4023(2) 0.5670(3)
O11A* O 0.9854(7) 0.7198(6) 0.6702(6)
O12A* O 1.0941(5) 0.6906(6) 0.7060(5)
#END
