
#######################################################################
#
#                 Cambridge Crystallographic Data Centre
#                                CCDC
#
#######################################################################
#
# If this CIF has been generated from an entry in the Cambridge
# Structural Database, then it will include bibliographic, chemical,
# crystal, experimental, refinement or atomic coordinate data resulting
# from the CCDC's data processing and validation procedures.
#
#######################################################################

data_CSD_CIF_HUSFAF
_audit_creation_date 2020-09-04
_audit_creation_method CSD-ConQuest-V1
_database_code_CSD HUSFAF
_database_code_depnum_ccdc_archive 'CCDC 2008436'
_chemical_formula_sum 'C63 H41 Dy3 N4 O26'
_chemical_formula_moiety
;
(C58 H24 Dy3 N2 O24 1-)n,n(C2 H8 N1 1+),n(C3 H7 N1 O1),n(H2 O1)
;
_journal_coden_Cambridge 9
_journal_volume 59
_journal_year 2020
_journal_page_first 13407
_journal_name_full 'Inorg.Chem. '
loop_
_publ_author_name
"Hongtai Chen"
"Liming Fan"
"Hongxiao Lv"
"Xiutang Zhang"
_chemical_name_systematic
;
catena-(dimethylammonium 
bis(\m-2,4,6-tris(2,4-dicarboxylatophenyl)pyridinium)-tri-dysprosium 
dimethylformamide solvate hydrate)
;
_cell_volume   9242.315
_diffrn_ambient_temperature 284
_refine_special_details
;
The SQUEEZE/PLATON program was used to model the cation and an unidentified 
number of dimethylformamide and water molecules.
;
#These two values have been output from a single CSD field.
_refine_ls_R_factor_gt 0.0699
_refine_ls_wR_factor_gt 0.0699
_symmetry_cell_setting monoclinic
_symmetry_space_group_name_H-M 'C 2/c'
_symmetry_Int_Tables_number 15
loop_
_symmetry_equiv_pos_site_id
_symmetry_equiv_pos_as_xyz
1 x,y,z
2 -x,y,1/2-z
3 1/2+x,1/2+y,z
4 1/2-x,1/2+y,1/2-z
5 -x,-y,-z
6 x,-y,-1/2+z
7 -1/2-x,-1/2-y,-z
8 -1/2+x,-1/2-y,-1/2+z
_cell_length_a 18.994(10)
_cell_length_b 23.272(10)
_cell_length_c 21.381(9)
_cell_angle_alpha 90
_cell_angle_beta 102.063(19)
_cell_angle_gamma 90
_cell_formula_units_Z 4
loop_
_atom_type_symbol
_atom_type_radius_bond
C 0.68
H 0.23
Dy 1.92
N 0.68
O 0.68
loop_
_atom_site_label
_atom_site_type_symbol
_atom_site_fract_x
_atom_site_fract_y
_atom_site_fract_z
C1 C 0.081(1) 0.7468(7) 0.1126(8)
C2 C 0.0449(11) 0.6950(7) 0.1006(9)
H1 H 0.01080 0.68570 0.12450
C3 C 0.0569(7) 0.6570(5) 0.0556(6)
C4 C 0.0152(7) 0.6030(5) 0.0474(6)
C5 C 0.1108(9) 0.6696(7) 0.0219(7)
H2 H 0.12270 0.64380 -0.00750
C6 C 0.1458(10) 0.7219(7) 0.0341(8)
H3 H 0.18220 0.73010 0.01240
C7 C 0.1304(8) 0.7628(6) 0.0764(7)
C8 C 0.1654(8) 0.8202(6) 0.0832(6)
C9 C 0.2146(7) 0.8355(5) 0.1386(5)
H4 H 0.23000 0.80850 0.17050
C10 C 0.2403(7) 0.8911(6) 0.1459(6)
C11 C 0.1695(7) 0.9140(6) 0.0419(6)
C12 C 0.1459(7) 0.8594(6) 0.0356(6)
H5 H 0.11540 0.84820 -0.00230
C13 C 0.1423(8) 0.9560(7) -0.0072(7)
C14 C 0.0697(9) 0.9561(9) -0.0358(8)
H6 H 0.03990 0.92870 -0.02320
C15 C 0.0404(9) 0.9950(7) -0.0819(9)
H7 H -0.00890 0.99530 -0.09890
C16 C 0.0875(9) 1.0359(8) -0.1038(7)
C17 C 0.0562(9) 1.0769(8) -0.1577(8)
C18 C 0.1586(7) 1.0368(7) -0.0754(7)
H8 H 0.18900 1.06410 -0.08740
C19 C 0.1857(8) 0.9968(6) -0.0284(7)
C20 C 0.2670(7) 0.9990(6) -0.0024(6)
C21 C 0.3754(7) 0.9608(5) 0.1520(5)
C22 C 0.3488(7) 0.9409(6) 0.2089(5)
C23 C 0.2872(7) 0.9075(6) 0.2066(6)
C24 C 0.2694(8) 0.8914(6) 0.2631(6)
H9 H 0.22950 0.86790 0.26140
C25 C 0.3074(7) 0.9082(6) 0.3217(6)
H10 H 0.29210 0.89770 0.35870
C26 C 0.3684(7) 0.9407(6) 0.3251(6)
C27 C 0.3892(7) 0.9574(6) 0.2686(5)
H11 H 0.43020 0.97980 0.27080
C28 C 0.4151(8) 0.9619(6) 0.3887(6)
Dy1 Dy 0.41677(3) 1.00424(2) 0.04143(2)
Dy2 Dy 0.00000 0.84386(4) 0.25000
N1 N 0.2174(7) 0.9323(5) 0.0987(6)
H12 H 0.23170 0.96730 0.10370
O1 O -0.0403(5) 0.5989(4) 0.0709(4)
O2 O 0.0333(5) 0.5629(4) 0.0135(4)
O3 O -0.0089(7) 1.0747(8) -0.1843(7)
O4 O 0.0976(6) 1.1108(5) -0.1767(5)
O5 O 0.3047(5) 0.9574(4) -0.0148(5)
O6 O 0.2947(5) 1.0444(5) 0.0275(4)
O7 O 0.3833(5) 0.9253(4) 0.1109(4)
O8 O 0.3887(5) 1.0133(4) 0.1467(4)
O9 O 0.4749(5) 0.9830(5) 0.3868(4)
O10 O 0.3903(5) 0.9536(4) 0.4388(4)
C29 C 0.0548(16) 0.806(2) 0.1564(13)
O11 O -0.028(2) 0.7760(9) 0.1746(10)
O12 O 0.0953(8) 0.8031(10) 0.2071(9)
C1A C -0.081(1) 0.7468(7) 0.3874(8)
C2A C -0.0449(11) 0.6950(7) 0.3994(9)
H1A H -0.01080 0.68570 0.37550
C3A C -0.0569(7) 0.6570(5) 0.4444(6)
C4A C -0.0152(7) 0.6030(5) 0.4526(6)
C5A C -0.1108(9) 0.6696(7) 0.4781(7)
H2A H -0.12270 0.64380 0.50750
C6A C -0.1458(10) 0.7219(7) 0.4659(8)
H3A H -0.18220 0.73010 0.48760
C7A C -0.1304(8) 0.7628(6) 0.4236(7)
C8A C -0.1654(8) 0.8202(6) 0.4168(6)
C9A C -0.2146(7) 0.8355(5) 0.3614(5)
H4A H -0.23000 0.80850 0.32950
C10A C -0.2403(7) 0.8911(6) 0.3541(6)
C11A C -0.1695(7) 0.9140(6) 0.4581(6)
C12A C -0.1459(7) 0.8594(6) 0.4644(6)
H5A H -0.11540 0.84820 0.50230
C13A C -0.1423(8) 0.9560(7) 0.5072(7)
C14A C -0.0697(9) 0.9561(9) 0.5358(8)
H6A H -0.03990 0.92870 0.52320
C15A C -0.0404(9) 0.9950(7) 0.5819(9)
H7A H 0.00890 0.99530 0.59890
C16A C -0.0875(9) 1.0359(8) 0.6038(7)
C17A C -0.0562(9) 1.0769(8) 0.6577(8)
C18A C -0.1586(7) 1.0368(7) 0.5754(7)
H8A H -0.18900 1.06410 0.58740
C19A C -0.1857(8) 0.9968(6) 0.5284(7)
C20A C -0.2670(7) 0.9990(6) 0.5024(6)
C21A C -0.3754(7) 0.9608(5) 0.3480(5)
C22A C -0.3488(7) 0.9409(6) 0.2911(5)
C23A C -0.2872(7) 0.9075(6) 0.2934(6)
C24A C -0.2694(8) 0.8914(6) 0.2369(6)
H9A H -0.22950 0.86790 0.23860
C25A C -0.3074(7) 0.9082(6) 0.1783(6)
H10A H -0.29210 0.89770 0.14130
C26A C -0.3684(7) 0.9407(6) 0.1749(6)
C27A C -0.3892(7) 0.9574(6) 0.2314(5)
H11A H -0.43020 0.97980 0.22920
C28A C -0.4151(8) 0.9619(6) 0.1113(6)
Dy1A Dy -0.41677(3) 1.00424(2) 0.45857(2)
N1A N -0.2174(7) 0.9323(5) 0.4013(6)
H12A H -0.23170 0.96730 0.39630
O1A O 0.0403(5) 0.5989(4) 0.4291(4)
O2A O -0.0333(5) 0.5629(4) 0.4865(4)
O3A O 0.0089(7) 1.0747(8) 0.6843(7)
O4A O -0.0976(6) 1.1108(5) 0.6767(5)
O5A O -0.3047(5) 0.9574(4) 0.5148(5)
O6A O -0.2947(5) 1.0444(5) 0.4725(4)
O7A O -0.3833(5) 0.9253(4) 0.3891(4)
O8A O -0.3887(5) 1.0133(4) 0.3533(4)
O9A O -0.4749(5) 0.9830(5) 0.1132(4)
O10A O -0.3903(5) 0.9536(4) 0.0612(4)
C29A C -0.0548(16) 0.806(2) 0.3436(13)
O11A O 0.028(2) 0.7760(9) 0.3254(10)
O12A O -0.0953(8) 0.8031(10) 0.2929(9)
Dy1* Dy -0.58323(3) 1.00424(2) 0.04143(2)
Dy1A* Dy 0.58323(3) 1.00424(2) 0.45857(2)
Dy1B Dy -0.08323(3) 0.50424(2) 0.04143(2)
Dy1C Dy 0.08323(3) 0.50424(2) 0.45857(2)
Dy1D Dy -0.41677(3) 0.99576(2) -0.04143(2)
Dy1E Dy 0.41677(3) 0.99576(2) 0.54143(2)
Dy1F Dy 0.08323(3) 0.49576(2) -0.04143(2)
Dy1G Dy -0.08323(3) 0.49576(2) 0.54143(2)
Dy2D Dy 0.00000 1.15614(4) -0.25000
Dy2D* Dy 0.00000 1.15614(4) 0.75000
O1B O 0.4597(5) 1.0989(4) 0.0709(4)
O1C O -0.4597(5) 1.0989(4) 0.4291(4)
O2B O 0.5333(5) 1.0629(4) 0.0135(4)
O2C O -0.5333(5) 1.0629(4) 0.4865(4)
O2F O 0.4667(5) 0.9371(4) -0.0135(4)
O2G O -0.4667(5) 0.9371(4) 0.5135(4)
O3D O 0.0089(7) 0.9253(8) 0.1843(7)
O3E O -0.0089(7) 0.9253(8) 0.3157(7)
O4D O -0.0976(6) 0.8892(5) 0.1767(5)
O4E O 0.0976(6) 0.8892(5) 0.3233(5)
O9* O -0.5251(5) 0.9830(5) 0.3868(4)
O9A* O 0.5251(5) 0.9830(5) 0.1132(4)
O10D O -0.3903(5) 1.0464(4) 0.5612(4)
O10E O 0.3903(5) 1.0464(4) -0.0612(4)
#END
