
#######################################################################
#
#                 Cambridge Crystallographic Data Centre
#                                CCDC
#
#######################################################################
#
# If this CIF has been generated from an entry in the Cambridge
# Structural Database, then it will include bibliographic, chemical,
# crystal, experimental, refinement or atomic coordinate data resulting
# from the CCDC's data processing and validation procedures.
#
#######################################################################

data_CSD_CIF_HUSFOT
_audit_creation_date 2020-09-04
_audit_creation_method CSD-ConQuest-V1
_database_code_CSD HUSFOT
_database_code_depnum_ccdc_archive 'CCDC 2008439'
_chemical_formula_sum 'C63 H41 Lu3 N4 O26'
_chemical_formula_moiety
;
(C58 H24 Lu3 N2 O24 1-)n,n(C2 H8 N1 1+),n(C3 H7 N1 O1),n(H2 O1)
;
_journal_coden_Cambridge 9
_journal_volume 59
_journal_year 2020
_journal_page_first 13407
_journal_name_full 'Inorg.Chem. '
loop_
_publ_author_name
"Hongtai Chen"
"Liming Fan"
"Hongxiao Lv"
"Xiutang Zhang"
_chemical_name_systematic
;
catena-(dimethylammonium 
bis(\m-2,4,6-tris(2,4-dicarboxylatophenyl)pyridinium)-tri-lutetium 
dimethylformamide solvate hydrate)
;
_cell_volume   9085.984
_diffrn_ambient_temperature 272
_refine_special_details
;
The SQUEEZE/PLATON program was used to model the cation and an unidentified 
number of dimethylformamide and water molecules.
;
#These two values have been output from a single CSD field.
_refine_ls_R_factor_gt 0.0533
_refine_ls_wR_factor_gt 0.0533
_symmetry_cell_setting monoclinic
_symmetry_space_group_name_H-M 'C 2/c'
_symmetry_Int_Tables_number 15
loop_
_symmetry_equiv_pos_site_id
_symmetry_equiv_pos_as_xyz
1 x,y,z
2 -x,y,1/2-z
3 1/2+x,1/2+y,z
4 1/2-x,1/2+y,1/2-z
5 -x,-y,-z
6 x,-y,-1/2+z
7 -1/2-x,-1/2-y,-z
8 -1/2+x,-1/2-y,-1/2+z
_cell_length_a 18.7467(11)
_cell_length_b 23.2568(15)
_cell_length_c 21.2745(13)
_cell_angle_alpha 90
_cell_angle_beta 101.600(2)
_cell_angle_gamma 90
_cell_formula_units_Z 4
loop_
_atom_type_symbol
_atom_type_radius_bond
C 0.68
H 0.23
Lu 1.87
N 0.68
O 0.68
loop_
_atom_site_label
_atom_site_type_symbol
_atom_site_fract_x
_atom_site_fract_y
_atom_site_fract_z
C1 C 0.7340(5) 0.4991(4) 0.9999(4)
C2 C 0.8159(5) 0.5008(4) 1.0248(5)
C3 C 0.8435(5) 0.4637(4) 1.0730(5)
H1 H 0.81290 0.43700 1.08670
C4 C 0.9168(5) 0.4651(5) 1.1021(5)
C5 C 0.9618(6) 0.5045(5) 1.0802(7)
H2 H 1.01140 0.50480 1.09790
C6 C 0.9342(5) 0.5430(5) 1.0331(5)
H3 H 0.96510 0.57000 1.02020
C7 C 0.8608(5) 0.5426(4) 1.0040(4)
C8 C 0.9466(6) 0.4246(5) 1.1557(5)
C9 C 0.8336(4) 0.5846(4) 0.9522(4)
C10 C 0.7625(4) 0.6077(4) 0.8508(4)
C11 C 0.7889(4) 0.6633(3) 0.8564(4)
H4 H 0.77290 0.69010 0.82420
C12 C 0.8392(5) 0.6784(4) 0.9104(4)
C13 C 0.8611(4) 0.6391(3) 0.9588(4)
H5 H 0.89440 0.64960 0.99560
C14 C 0.8729(5) 0.7364(4) 0.9180(4)
C15 C 0.8582(6) 0.7723(5) 0.9644(5)
H6 H 0.82430 0.76110 0.98840
C16 C 0.8932(6) 0.8266(5) 0.9772(5)
H7 H 0.88100 0.85080 1.00810
C17 C 0.9451(4) 0.8427(3) 0.9438(4)
C18 C 0.9615(6) 0.8060(4) 0.8980(5)
H8 H 0.99790 0.81630 0.87630
C19 C 0.9251(6) 0.7532(4) 0.8829(4)
C20 C 0.5833(4) 0.5358(3) 0.6092(3)
C21 C 0.9502(6) 0.7171(4) 0.8321(5)
C22 C 0.9859(4) 0.8972(3) 0.9561(3)
C23 C 0.7133(4) 0.5908(4) 0.7898(3)
C24 C 0.6506(4) 0.5572(4) 0.7875(3)
C25 C 0.6089(4) 0.5413(4) 0.7296(3)
H9 H 0.56640 0.52040 0.72870
C26 C 0.6288(4) 0.5557(4) 0.6722(3)
C27 C 0.6918(5) 0.5876(4) 0.6738(4)
H10 H 0.70620 0.59710 0.63580
C28 C 0.7331(5) 0.6054(5) 0.7321(4)
H11 H 0.77470 0.62740 0.73270
C29 C 0.6251(4) 0.5385(4) 0.8472(3)
Lu1 Lu 0.585469(16) 0.496952(12) 0.958033(13)
Lu2 Lu 1.00000 0.64921(2) 0.75000
N1 N 0.7855(4) 0.5682(3) 0.8983(3)
H12 H 0.76970 0.53340 0.89420
O1 O 0.6167(4) 0.5740(3) 0.8886(3)
O2 O 0.6123(4) 0.4849(3) 0.8530(3)
O3 O 0.6094(3) 0.5418(3) 0.5600(2)
O4 O 0.5219(3) 0.5155(3) 0.6115(2)
O5 O 0.6962(3) 0.5420(3) 1.0095(3)
O6 O 0.7059(3) 0.4549(3) 0.9719(3)
O7 O 0.9038(4) 0.3912(3) 1.1772(3)
O8 O 1.0135(4) 0.4237(4) 1.1784(4)
O9 O 0.9626(3) 0.9350(2) 0.9898(3)
O10 O 1.0419(3) 0.9043(2) 0.9336(3)
O11 O 1.0176(5) 0.7193(5) 0.8278(5)
O12 O 0.9074(4) 0.6906(4) 0.7920(4)
C1A C 0.2660(5) 0.4991(4) 0.5001(4)
C2A C 0.1841(5) 0.5008(4) 0.4752(5)
C3A C 0.1565(5) 0.4637(4) 0.4270(5)
H1A H 0.18710 0.43700 0.41330
C4A C 0.0832(5) 0.4651(5) 0.3979(5)
C5A C 0.0382(6) 0.5045(5) 0.4198(7)
H2A H -0.01140 0.50480 0.40210
C6A C 0.0658(5) 0.5430(5) 0.4669(5)
H3A H 0.03490 0.57000 0.47980
C7A C 0.1392(5) 0.5426(4) 0.4960(4)
C8A C 0.0534(6) 0.4246(5) 0.3443(5)
C9A C 0.1664(4) 0.5846(4) 0.5478(4)
C10A C 0.2375(4) 0.6077(4) 0.6492(4)
C11A C 0.2111(4) 0.6633(3) 0.6436(4)
H4A H 0.22710 0.69010 0.67580
C12A C 0.1608(5) 0.6784(4) 0.5896(4)
C13A C 0.1389(4) 0.6391(3) 0.5412(4)
H5A H 0.10560 0.64960 0.50440
C14A C 0.1271(5) 0.7364(4) 0.5820(4)
C15A C 0.1418(6) 0.7723(5) 0.5356(5)
H6A H 0.17570 0.76110 0.51160
C16A C 0.1068(6) 0.8266(5) 0.5228(5)
H7A H 0.11900 0.85080 0.49190
C17A C 0.0549(4) 0.8427(3) 0.5562(4)
C18A C 0.0385(6) 0.8060(4) 0.6020(5)
H8A H 0.00210 0.81630 0.62370
C19A C 0.0749(6) 0.7532(4) 0.6171(4)
C20A C 0.4167(4) 0.5358(3) 0.8908(3)
C21A C 0.0498(6) 0.7171(4) 0.6679(5)
C22A C 0.0141(4) 0.8972(3) 0.5439(3)
C23A C 0.2867(4) 0.5908(4) 0.7102(3)
C24A C 0.3494(4) 0.5572(4) 0.7125(3)
C25A C 0.3911(4) 0.5413(4) 0.7704(3)
H9A H 0.43360 0.52040 0.77130
C26A C 0.3712(4) 0.5557(4) 0.8278(3)
C27A C 0.3082(5) 0.5876(4) 0.8262(4)
H10A H 0.29380 0.59710 0.86420
C28A C 0.2669(5) 0.6054(5) 0.7679(4)
H11A H 0.22530 0.62740 0.76730
C29A C 0.3749(4) 0.5385(4) 0.6528(3)
Lu1A Lu 0.414531(16) 0.496952(12) 0.541967(13)
N1A N 0.2145(4) 0.5682(3) 0.6017(3)
H12A H 0.23030 0.53340 0.60580
O1A O 0.3833(4) 0.5740(3) 0.6114(3)
O2A O 0.3877(4) 0.4849(3) 0.6470(3)
O3A O 0.3906(3) 0.5418(3) 0.9400(2)
O4A O 0.4781(3) 0.5155(3) 0.8885(2)
O5A O 0.3038(3) 0.5420(3) 0.4905(3)
O6A O 0.2941(3) 0.4549(3) 0.5281(3)
O7A O 0.0962(4) 0.3912(3) 0.3228(3)
O8A O -0.0135(4) 0.4237(4) 0.3216(4)
O9A O 0.0374(3) 0.9350(2) 0.5102(3)
O10A O -0.0419(3) 0.9043(2) 0.5664(3)
O11A O -0.0176(5) 0.7193(5) 0.6722(5)
O12A O 0.0926(4) 0.6906(4) 0.7080(4)
Lu1B Lu 1.085469(16) 0.996952(12) 0.958033(13)
Lu1C Lu -0.085469(16) 0.996952(12) 0.541967(13)
Lu1D Lu 0.414531(16) 0.503048(12) 1.041967(13)
Lu1E Lu 0.585469(16) 0.503048(12) 0.458033(13)
Lu1F Lu 0.914531(16) 1.003048(12) 1.041967(13)
Lu1G Lu 0.085469(16) 1.003048(12) 0.458033(13)
Lu2* Lu 0.00000 0.64921(2) 0.75000
Lu2D Lu 0.00000 0.35079(2) 0.25000
Lu2D* Lu 1.00000 0.35079(2) 1.25000
O3D O 0.3906(3) 0.4582(3) 0.4400(2)
O3E O 0.6094(3) 0.4582(3) 1.0600(2)
O7D O 1.0962(4) 0.6088(3) 0.8228(3)
O7E O 0.9038(4) 0.6088(3) 0.6772(3)
O8D O 0.9865(4) 0.5763(4) 0.8216(4)
O8E O 1.0135(4) 0.5763(4) 0.6784(4)
O9F O 0.5374(3) 0.5650(2) 1.0102(3)
O9G O 0.4626(3) 0.5650(2) 0.4898(3)
O10B O 0.5419(3) 0.4043(2) 0.9336(3)
O10C O 0.4581(3) 0.4043(2) 0.5664(3)
O11A* O 0.9824(5) 0.7193(5) 0.6722(5)
O12A* O 1.0926(4) 0.6906(4) 0.7080(4)
#END
