
#######################################################################
#
#                 Cambridge Crystallographic Data Centre
#                                CCDC
#
#######################################################################
#
# If this CIF has been generated from an entry in the Cambridge
# Structural Database, then it will include bibliographic, chemical,
# crystal, experimental, refinement or atomic coordinate data resulting
# from the CCDC's data processing and validation procedures.
#
#######################################################################

data_CSD_CIF_HUSFIN
_audit_creation_date 2020-09-04
_audit_creation_method CSD-ConQuest-V1
_database_code_CSD HUSFIN
_database_code_depnum_ccdc_archive 'CCDC 2008438'
_chemical_formula_sum 'C63 H41 Ho3 N4 O26'
_chemical_formula_moiety
;
(C58 H24 Ho3 N2 O24 1-)n,n(C2 H8 N1 1+),n(C3 H7 N1 O1),n(H2 O1)
;
_journal_coden_Cambridge 9
_journal_volume 59
_journal_year 2020
_journal_page_first 13407
_journal_name_full 'Inorg.Chem. '
loop_
_publ_author_name
"Hongtai Chen"
"Liming Fan"
"Hongxiao Lv"
"Xiutang Zhang"
_chemical_name_systematic
;
catena-(dimethylammonium 
bis(\m-2,4,6-tris(2,4-dicarboxylatophenyl)pyridinium)-tri-holmium 
dimethylformamide solvate hydrate)
;
_cell_volume   9188.233
_diffrn_ambient_temperature 296
_refine_special_details
;
The SQUEEZE/PLATON program was used to model the cation and an unidentified 
number of dimethylformamide and water molecules.
;
#These two values have been output from a single CSD field.
_refine_ls_R_factor_gt 0.0583
_refine_ls_wR_factor_gt 0.0583
_symmetry_cell_setting monoclinic
_symmetry_space_group_name_H-M 'C 2/c'
_symmetry_Int_Tables_number 15
loop_
_symmetry_equiv_pos_site_id
_symmetry_equiv_pos_as_xyz
1 x,y,z
2 -x,y,1/2-z
3 1/2+x,1/2+y,z
4 1/2-x,1/2+y,1/2-z
5 -x,-y,-z
6 x,-y,-1/2+z
7 -1/2-x,-1/2-y,-z
8 -1/2+x,-1/2-y,-1/2+z
_cell_length_a 18.951(5)
_cell_length_b 23.186(6)
_cell_length_c 21.379(6)
_cell_angle_alpha 90
_cell_angle_beta 102.011(12)
_cell_angle_gamma 90
_cell_formula_units_Z 4
loop_
_atom_type_symbol
_atom_type_radius_bond
C 0.68
H 0.23
Ho 1.92
N 0.68
O 0.68
loop_
_atom_site_label
_atom_site_type_symbol
_atom_site_fract_x
_atom_site_fract_y
_atom_site_fract_z
C1 C 0.4168(4) 0.5368(3) 0.3896(3)
C2 C 0.3713(4) 0.5568(3) 0.3265(3)
C3 C 0.3909(4) 0.5408(3) 0.2692(3)
H1 H 0.43220 0.51880 0.27060
C4 C 0.3502(4) 0.5573(3) 0.2108(3)
C5 C 0.2875(4) 0.5913(4) 0.2081(4)
C6 C 0.2679(5) 0.6061(4) 0.2652(4)
H2 H 0.22650 0.62800 0.26410
C7 C 0.3087(5) 0.5889(4) 0.3233(4)
H3 H 0.29430 0.59900 0.36090
C8 C 0.3757(4) 0.5386(3) 0.1521(3)
C9 C 0.2391(4) 0.6083(4) 0.1469(4)
C10 C 0.1687(5) 0.5844(4) 0.0451(4)
C11 C 0.1425(4) 0.6390(4) 0.0379(4)
H4 H 0.10990 0.64960 0.00090
C12 C 0.1645(5) 0.6783(3) 0.0859(4)
C13 C 0.1416(5) 0.5424(4) -0.0067(4)
C14 C 0.0690(5) 0.5423(5) -0.0346(5)
H5 H 0.03850 0.56920 -0.02170
C15 C 0.0416(6) 0.5033(5) -0.0807(7)
H6 H -0.00790 0.50270 -0.09720
C16 C 0.0858(5) 0.4645(5) -0.1036(5)
C17 C 0.1582(5) 0.4628(5) -0.0764(5)
H7 H 0.18800 0.43610 -0.09050
C18 C 0.1864(5) 0.5013(4) -0.0276(5)
C19 C 0.2674(5) 0.5001(4) -0.0022(4)
C20 C 0.0568(6) 0.4235(5) -0.1581(6)
C21 C 0.2131(4) 0.6639(3) 0.1401(4)
H8 H 0.22830 0.69110 0.17200
C22 C 0.1294(5) 0.7362(4) 0.0779(4)
C23 C 0.1438(6) 0.7749(4) 0.0326(5)
H9 H 0.17830 0.76540 0.00920
C24 C 0.1081(6) 0.8278(5) 0.0211(5)
H10 H 0.11850 0.85280 -0.00980
C25 C 0.0572(5) 0.8425(3) 0.0559(4)
C26 C 0.0427(6) 0.8049(4) 0.1011(5)
H11 H 0.00770 0.81460 0.12390
C27 C 0.0792(6) 0.7523(4) 0.1139(5)
C28 C 0.0571(8) 0.7143(5) 0.1634(7)
C29 C 0.0149(4) 0.8967(3) 0.0443(4)
Ho1 Ho 0.415766(16) 0.495864(12) 0.041489(13)
Ho2 Ho 0.00000 0.34576(3) -0.25000
N1 N 0.2163(4) 0.5677(3) 0.0994(3)
H12 H 0.23180 0.53280 0.10390
O1 O 0.3909(3) 0.5441(3) 0.4387(2)
O2 O 0.4766(3) 0.5156(3) 0.3875(3)
O3 O 0.3887(3) 0.4852(2) 0.1465(3)
O4 O 0.3835(3) 0.5735(3) 0.1108(3)
O5 O 0.2956(3) 0.4552(3) 0.0265(3)
O6 O 0.3050(3) 0.5422(3) -0.0121(3)
O7 O 0.0976(4) 0.3891(3) -0.1776(4)
O8 O -0.0098(5) 0.4238(5) -0.1817(5)
O9 O -0.0238(12) 0.7217(7) 0.1724(8)
O10 O 0.0929(6) 0.6938(6) 0.2070(6)
O11 O -0.0405(3) 0.9025(2) 0.0677(3)
O12 O 0.0353(3) 0.9363(2) 0.0116(3)
C1A C -0.4168(4) 0.5368(3) -0.8896(3)
C2A C -0.3713(4) 0.5568(3) -0.8265(3)
C3A C -0.3909(4) 0.5408(3) -0.7692(3)
H1A H -0.43220 0.51880 -0.77060
C4A C -0.3502(4) 0.5573(3) -0.7108(3)
C5A C -0.2875(4) 0.5913(4) -0.7081(4)
C6A C -0.2679(5) 0.6061(4) -0.7652(4)
H2A H -0.22650 0.62800 -0.76410
C7A C -0.3087(5) 0.5889(4) -0.8233(4)
H3A H -0.29430 0.59900 -0.86090
C8A C -0.3757(4) 0.5386(3) -0.6521(3)
C9A C -0.2391(4) 0.6083(4) -0.6469(4)
C10A C -0.1687(5) 0.5844(4) -0.5451(4)
C11A C -0.1425(4) 0.6390(4) -0.5379(4)
H4A H -0.10990 0.64960 -0.50090
C12A C -0.1645(5) 0.6783(3) -0.5859(4)
C13A C -0.1416(5) 0.5424(4) -0.4933(4)
C14A C -0.0690(5) 0.5423(5) -0.4654(5)
H5A H -0.03850 0.56920 -0.47830
C15A C -0.0416(6) 0.5033(5) -0.4193(7)
H6A H 0.00790 0.50270 -0.40280
C16A C -0.0858(5) 0.4645(5) -0.3964(5)
C17A C -0.1582(5) 0.4628(5) -0.4236(5)
H7A H -0.18800 0.43610 -0.40950
C18A C -0.1864(5) 0.5013(4) -0.4724(5)
C19A C -0.2674(5) 0.5001(4) -0.4978(4)
C20A C -0.0568(6) 0.4235(5) -0.3419(6)
C21A C -0.2131(4) 0.6639(3) -0.6401(4)
H8A H -0.22830 0.69110 -0.67200
C22A C -0.1294(5) 0.7362(4) -0.5779(4)
C23A C -0.1438(6) 0.7749(4) -0.5326(5)
H9A H -0.17830 0.76540 -0.50920
C24A C -0.1081(6) 0.8278(5) -0.5211(5)
H10A H -0.11850 0.85280 -0.49020
C25A C -0.0572(5) 0.8425(3) -0.5559(4)
C26A C -0.0427(6) 0.8049(4) -0.6011(5)
H11A H -0.00770 0.81460 -0.62390
C27A C -0.0792(6) 0.7523(4) -0.6139(5)
C28A C -0.0571(8) 0.7143(5) -0.6634(7)
C29A C -0.0149(4) 0.8967(3) -0.5443(4)
Ho1A Ho -0.415766(16) 0.495864(12) -0.541489(13)
N1A N -0.2163(4) 0.5677(3) -0.5994(3)
H12A H -0.23180 0.53280 -0.60390
O1A O -0.3909(3) 0.5441(3) -0.9387(2)
O2A O -0.4766(3) 0.5156(3) -0.8875(3)
O3A O -0.3887(3) 0.4852(2) -0.6465(3)
O4A O -0.3835(3) 0.5735(3) -0.6108(3)
O5A O -0.2956(3) 0.4552(3) -0.5265(3)
O6A O -0.3050(3) 0.5422(3) -0.4879(3)
O7A O -0.0976(4) 0.3891(3) -0.3224(4)
O8A O 0.0098(5) 0.4238(5) -0.3183(5)
O9A O 0.0238(12) 0.7217(7) -0.6724(8)
O10A O -0.0929(6) 0.6938(6) -0.7070(6)
O11A O 0.0405(3) 0.9025(2) -0.5677(3)
O12A O -0.0353(3) 0.9363(2) -0.5116(3)
Ho1* Ho -0.584234(16) 0.495864(12) -0.958511(13)
Ho1A* Ho 0.584234(16) 0.495864(12) 0.458511(13)
Ho1B Ho -0.084234(16) 0.995864(12) 0.041489(13)
Ho1C Ho 0.084234(16) 0.995864(12) -0.541489(13)
Ho1D Ho -0.415766(16) 0.504136(12) -1.041489(13)
Ho1E Ho 0.415766(16) 0.504136(12) 0.541489(13)
Ho1F Ho 0.084234(16) 1.004136(12) -0.041489(13)
Ho1G Ho -0.084234(16) 1.004136(12) -0.458511(13)
Ho2D Ho 0.00000 0.65424(3) -0.75000
Ho2D* Ho 0.00000 0.65424(3) 0.25000
O1D O -0.3909(3) 0.4559(3) -0.4387(2)
O1E O 0.3909(3) 0.4559(3) -0.0613(2)
O2* O -0.5234(3) 0.5156(3) -0.6125(3)
O2A* O 0.5234(3) 0.5156(3) 0.1125(3)
O9D O 0.0238(12) 0.2783(7) -0.1724(8)
O9E O -0.0238(12) 0.2783(7) -0.3276(8)
O10D O -0.0929(6) 0.3062(6) -0.2070(6)
O10E O 0.0929(6) 0.3062(6) -0.2930(6)
O11B O 0.4595(3) 0.4025(2) 0.0677(3)
O11C O -0.4595(3) 0.4025(2) -0.5677(3)
O12B O 0.5353(3) 0.4363(2) 0.0116(3)
O12C O -0.5353(3) 0.4363(2) -0.5116(3)
O12F O 0.4647(3) 0.5637(2) -0.0116(3)
O12G O -0.4647(3) 0.5637(2) -0.4884(3)
#END
