
#######################################################################
#
#                 Cambridge Crystallographic Data Centre
#                                CCDC
#
#######################################################################
#
# If this CIF has been generated from an entry in the Cambridge
# Structural Database, then it will include bibliographic, chemical,
# crystal, experimental, refinement or atomic coordinate data resulting
# from the CCDC's data processing and validation procedures.
#
#######################################################################

data_CSD_CIF_HUSGEK
_audit_creation_date 2020-09-04
_audit_creation_method CSD-ConQuest-V1
_database_code_CSD HUSGEK
_database_code_depnum_ccdc_archive 'CCDC 2008442'
_chemical_formula_sum 'C63 H41 N4 O26 Tm3'
_chemical_formula_moiety
;
(C58 H24 N2 O24 Tm3 1-)n,n(C2 H8 N1 1+),n(C3 H7 N1 O1),n(H2 O1)
;
_journal_coden_Cambridge 9
_journal_volume 59
_journal_year 2020
_journal_page_first 13407
_journal_name_full 'Inorg.Chem. '
loop_
_publ_author_name
"Hongtai Chen"
"Liming Fan"
"Hongxiao Lv"
"Xiutang Zhang"
_chemical_name_systematic
;
catena-(dimethylammonium 
bis(\m-2,4,6-tris(2,4-dicarboxylatophenyl)pyridinium)-tri-thulium 
dimethylformamide solvate hydrate)
;
_cell_volume   9067.922
_exptl_crystal_colour 'colorless'
_exptl_crystal_description 'needle'
_diffrn_ambient_temperature 298
_refine_special_details
;
The SQUEEZE/PLATON program was used to model the cation and an unidentified 
number of dimethylformamide and water molecules.
;
#These two values have been output from a single CSD field.
_refine_ls_R_factor_gt 0.0352
_refine_ls_wR_factor_gt 0.0352
_symmetry_cell_setting monoclinic
_symmetry_space_group_name_H-M 'C 2/c'
_symmetry_Int_Tables_number 15
loop_
_symmetry_equiv_pos_site_id
_symmetry_equiv_pos_as_xyz
1 x,y,z
2 -x,y,1/2-z
3 1/2+x,1/2+y,z
4 1/2-x,1/2+y,1/2-z
5 -x,-y,-z
6 x,-y,-1/2+z
7 -1/2-x,-1/2-y,-z
8 -1/2+x,-1/2-y,-1/2+z
_cell_length_a 18.8054(15)
_cell_length_b 23.1956(18)
_cell_length_c 21.1920(15)
_cell_angle_alpha 90
_cell_angle_beta 101.201(2)
_cell_angle_gamma 90
_cell_formula_units_Z 4
loop_
_atom_type_symbol
_atom_type_radius_bond
C 0.68
H 0.23
N 0.68
O 0.68
Tm 1.90
loop_
_atom_site_label
_atom_site_type_symbol
_atom_site_fract_x
_atom_site_fract_y
_atom_site_fract_z
Tm1 Tm 0.50000 0.35280(2) 0.25000
Tm2 Tm 0.41468(2) 0.00275(2) 0.04231(2)
O1 O 0.5920(3) 0.3115(2) 0.2067(2)
O2 O 0.4811(4) 0.2811(3) 0.1726(3)
O3 O 0.4584(2) 0.09508(17) 0.06863(17)
O4 O 0.5368(2) 0.06437(16) 0.01169(15)
O5 O 0.8912(2) 0.45578(17) 0.44135(15)
O6 O 0.9784(2) 0.48276(18) 0.38879(16)
O7 O 0.8881(2) 0.51394(17) 0.14786(17)
O8 O 0.8832(2) 0.42526(18) 0.11072(16)
O9 O 0.7945(2) 0.54334(19) 0.03012(18)
O10 O 0.8042(2) 0.4571(2) -0.0114(2)
O11 O 0.5962(3) 0.6062(2) -0.1783(2)
O12 O 0.4875(3) 0.5748(3) -0.1769(3)
N1 N 0.7151(3) 0.4309(2) 0.1028(2)
H1 H 0.73030 0.46590 0.10720
C1 C 0.5499(5) 0.2835(3) 0.1677(3)
C2 C 0.5760(4) 0.2456(3) 0.1183(3)
C3 C 0.5386(4) 0.1941(3) 0.1033(3)
H2 H 0.50100 0.18480 0.12430
C4 C 0.5557(3) 0.1567(2) 0.0583(3)
C5 C 0.6089(4) 0.1719(3) 0.0255(3)
H3 H 0.62180 0.14690 -0.00460
C6 C 0.6436(4) 0.2253(3) 0.0376(3)
H4 H 0.67780 0.23600 0.01350
C7 C 0.6289(4) 0.2619(3) 0.0832(3)
C8 C 0.5142(3) 0.1025(2) 0.0458(2)
C9 C 0.6623(3) 0.3204(3) 0.0906(2)
C10 C 0.6416(3) 0.3594(2) 0.0428(2)
H5 H 0.60920 0.34850 0.00580
C11 C 0.6674(3) 0.4143(3) 0.0482(2)
C12 C 0.7383(3) 0.3909(3) 0.1504(2)
C13 C 0.7121(3) 0.3355(2) 0.1439(2)
H6 H 0.72820 0.30830 0.17580
C14 C 0.7877(3) 0.4080(3) 0.2112(2)
C15 C 0.7680(4) 0.3933(3) 0.2690(2)
H7 H 0.72630 0.37170 0.26870
C16 C 0.8100(4) 0.4105(3) 0.3275(2)
H8 H 0.79590 0.40050 0.36580
C17 C 0.8718(3) 0.4419(3) 0.3291(2)
C18 C 0.8917(3) 0.4573(3) 0.2714(2)
H9 H 0.93350 0.47890 0.27230
C19 C 0.8504(3) 0.4411(2) 0.2132(2)
C20 C 0.8753(3) 0.4605(3) 0.1525(2)
C21 C 0.9173(3) 0.4616(3) 0.3914(2)
C22 C 0.6408(4) 0.4569(3) -0.0030(3)
C23 C 0.5681(4) 0.4562(3) -0.0310(3)
H10 H 0.53770 0.42980 -0.01640
C24 C 0.5393(4) 0.4935(3) -0.0796(4)
H11 H 0.49010 0.49230 -0.09750
C25 C 0.5846(4) 0.5330(3) -0.1019(3)
C26 C 0.6570(4) 0.5347(3) -0.0736(3)
H12 H 0.68710 0.56140 -0.08780
C27 C 0.6857(3) 0.4971(3) -0.0242(3)
C28 C 0.7663(3) 0.4992(3) 0.0006(3)
C29 C 0.5547(4) 0.5736(3) -0.1554(3)
Tm2A Tm 0.58532(2) 0.00275(2) 0.45769(2)
O1A O 0.4080(3) 0.3115(2) 0.2933(2)
O2A O 0.5189(4) 0.2811(3) 0.3274(3)
O3A O 0.5416(2) 0.09508(17) 0.43137(17)
O4A O 0.4632(2) 0.06437(16) 0.48831(15)
O5A O 0.1088(2) 0.45578(17) 0.05865(15)
O6A O 0.0216(2) 0.48276(18) 0.11121(16)
O7A O 0.1119(2) 0.51394(17) 0.35214(17)
O8A O 0.1168(2) 0.42526(18) 0.38928(16)
O9A O 0.2055(2) 0.54334(19) 0.46988(18)
O10A O 0.1958(2) 0.4571(2) 0.5114(2)
O11A O 0.4038(3) 0.6062(2) 0.6783(2)
O12A O 0.5125(3) 0.5748(3) 0.6769(3)
N1A N 0.2849(3) 0.4309(2) 0.3972(2)
H1A H 0.26970 0.46590 0.39280
C1A C 0.4501(5) 0.2835(3) 0.3323(3)
C2A C 0.4240(4) 0.2456(3) 0.3817(3)
C3A C 0.4614(4) 0.1941(3) 0.3967(3)
H2A H 0.49900 0.18480 0.37570
C4A C 0.4443(3) 0.1567(2) 0.4417(3)
C5A C 0.3911(4) 0.1719(3) 0.4745(3)
H3A H 0.37820 0.14690 0.50460
C6A C 0.3564(4) 0.2253(3) 0.4624(3)
H4A H 0.32220 0.23600 0.48650
C7A C 0.3711(4) 0.2619(3) 0.4168(3)
C8A C 0.4858(3) 0.1025(2) 0.4542(2)
C9A C 0.3377(3) 0.3204(3) 0.4094(2)
C10A C 0.3584(3) 0.3594(2) 0.4572(2)
H5A H 0.39080 0.34850 0.49420
C11A C 0.3326(3) 0.4143(3) 0.4518(2)
C12A C 0.2617(3) 0.3909(3) 0.3496(2)
C13A C 0.2879(3) 0.3355(2) 0.3561(2)
H6A H 0.27180 0.30830 0.32420
C14A C 0.2123(3) 0.4080(3) 0.2888(2)
C15A C 0.2320(4) 0.3933(3) 0.2310(2)
H7A H 0.27370 0.37170 0.23130
C16A C 0.1900(4) 0.4105(3) 0.1725(2)
H8A H 0.20410 0.40050 0.13420
C17A C 0.1282(3) 0.4419(3) 0.1709(2)
C18A C 0.1083(3) 0.4573(3) 0.2286(2)
H9A H 0.06650 0.47890 0.22770
C19A C 0.1496(3) 0.4411(2) 0.2868(2)
C20A C 0.1247(3) 0.4605(3) 0.3475(2)
C21A C 0.0827(3) 0.4616(3) 0.1086(2)
C22A C 0.3592(4) 0.4569(3) 0.5030(3)
C23A C 0.4319(4) 0.4562(3) 0.5310(3)
H10A H 0.46230 0.42980 0.51640
C24A C 0.4607(4) 0.4935(3) 0.5796(4)
H11A H 0.50990 0.49230 0.59750
C25A C 0.4154(4) 0.5330(3) 0.6019(3)
C26A C 0.3430(4) 0.5347(3) 0.5736(3)
H12A H 0.31290 0.56140 0.58780
C27A C 0.3143(3) 0.4971(3) 0.5242(3)
C28A C 0.2337(3) 0.4992(3) 0.4994(3)
C29A C 0.4453(4) 0.5736(3) 0.6554(3)
Tm1D Tm 0.50000 0.64720(2) -0.25000
Tm1D* Tm 0.50000 0.64720(2) 0.75000
Tm2B Tm -0.08532(2) 0.50275(2) 0.04231(2)
Tm2B* Tm 0.91468(2) 0.50275(2) 0.04231(2)
Tm2C Tm 0.08532(2) 0.50275(2) 0.45769(2)
Tm2C* Tm 1.08532(2) 0.50275(2) 0.45769(2)
Tm2D Tm 0.58532(2) -0.00275(2) -0.04231(2)
Tm2E Tm 0.41468(2) -0.00275(2) 0.54231(2)
Tm2F Tm 0.08532(2) 0.49725(2) -0.04231(2)
Tm2G Tm 0.91468(2) 0.49725(2) 0.54231(2)
O4D O 0.4632(2) -0.06437(16) -0.01169(15)
O4E O 0.5368(2) -0.06437(16) 0.51169(15)
O5F O 0.6088(2) 0.04422(17) 0.55865(15)
O5G O 0.3912(2) 0.04422(17) -0.05865(15)
O6B O 0.4784(2) -0.01724(18) 0.38879(16)
O6C O 0.5216(2) -0.01724(18) 0.11121(16)
O7B O 0.3881(2) 0.01394(17) 0.14786(17)
O7C O 0.6119(2) 0.01394(17) 0.35214(17)
O8B O 0.3832(2) -0.07474(18) 0.11072(16)
O8C O 0.6168(2) -0.07474(18) 0.38928(16)
O9B O 0.2945(2) 0.04334(19) 0.03012(18)
O9C O 0.7055(2) 0.04334(19) 0.46988(18)
O10B O 0.3042(2) -0.0429(2) -0.0114(2)
O10C O 0.6958(2) -0.0429(2) 0.5114(2)
O11D O 0.4038(3) 0.3938(2) 0.1783(2)
O11E O 0.5962(3) 0.3938(2) 0.3217(2)
O12D O 0.5125(3) 0.4252(3) 0.1769(3)
O12E O 0.4875(3) 0.4252(3) 0.3231(3)
#END
