
#######################################################################
#
#                 Cambridge Crystallographic Data Centre
#                                CCDC
#
#######################################################################
#
# If this CIF has been generated from an entry in the Cambridge
# Structural Database, then it will include bibliographic, chemical,
# crystal, experimental, refinement or atomic coordinate data resulting
# from the CCDC's data processing and validation procedures.
#
#######################################################################

data_CSD_CIF_HUSGAG
_audit_creation_date 2020-09-04
_audit_creation_method CSD-ConQuest-V1
_database_code_CSD HUSGAG
_database_code_depnum_ccdc_archive 'CCDC 2008441'
_chemical_formula_sum 'C63 H41 N4 O26 Yb3'
_chemical_formula_moiety
;
(C58 H24 N2 O24 Yb3 1-)n,n(C2 H8 N1 1+),n(C3 H7 N1 O1),n(H2 O1)
;
_journal_coden_Cambridge 9
_journal_volume 59
_journal_year 2020
_journal_page_first 13407
_journal_name_full 'Inorg.Chem. '
loop_
_publ_author_name
"Hongtai Chen"
"Liming Fan"
"Hongxiao Lv"
"Xiutang Zhang"
_chemical_name_systematic
;
catena-(dimethylammonium 
bis(\m-2,4,6-tris(2,4-dicarboxylatophenyl)pyridinium)-tri-ytterbium 
dimethylformamide solvate hydrate)
;
_cell_volume   9001.613
_diffrn_ambient_temperature 296
_refine_special_details
;
The SQUEEZE/PLATON program was used to model the cation and an unidentified 
number of dimethylformamide and water molecules.
;
#These two values have been output from a single CSD field.
_refine_ls_R_factor_gt 0.045
_refine_ls_wR_factor_gt 0.045
_symmetry_cell_setting monoclinic
_symmetry_space_group_name_H-M 'C 2/c'
_symmetry_Int_Tables_number 15
loop_
_symmetry_equiv_pos_site_id
_symmetry_equiv_pos_as_xyz
1 x,y,z
2 -x,y,1/2-z
3 1/2+x,1/2+y,z
4 1/2-x,1/2+y,1/2-z
5 -x,-y,-z
6 x,-y,-1/2+z
7 -1/2-x,-1/2-y,-z
8 -1/2+x,-1/2-y,-1/2+z
_cell_length_a 18.6003(5)
_cell_length_b 23.2583(6)
_cell_length_c 21.2376(4)
_cell_angle_alpha 90
_cell_angle_beta 101.549(1)
_cell_angle_gamma 90
_cell_formula_units_Z 4
loop_
_atom_type_symbol
_atom_type_radius_bond
C 0.68
H 0.23
N 0.68
O 0.68
Yb 1.87
loop_
_atom_site_label
_atom_site_type_symbol
_atom_site_fract_x
_atom_site_fract_y
_atom_site_fract_z
Yb1 Yb 0.50000 0.64989(3) -0.25000
Yb2 Yb 0.913733(19) 0.502826(13) 0.042234(14)
O1 O 0.8871(4) 0.5151(3) 0.1470(3)
O2 O 0.8824(4) 0.4261(3) 0.1116(3)
O3 O 0.8022(4) 0.4573(3) -0.0099(4)
O4 O 0.7929(3) 0.5442(3) 0.0285(3)
O5 O 0.5957(4) 0.6089(3) -0.1763(3)
C1 C 0.7646(6) 0.5000(4) 0.0000(5)
C2 C 0.6815(6) 0.4991(4) -0.0250(5)
C3 C 0.8740(5) 0.4611(4) 0.1528(4)
C4 C 0.6379(5) 0.3608(4) 0.0413(4)
H1 H 0.60460 0.35010 0.00440
C5 C 0.6607(5) 0.3216(4) 0.0893(4)
N1 N 0.7118(5) 0.4321(4) 0.1014(4)
H2 H 0.72670 0.46710 0.10540
C6 C 0.7856(5) 0.4100(4) 0.2109(4)
C7 C 0.8489(5) 0.4429(4) 0.2129(4)
C8 C 0.7107(5) 0.3366(4) 0.1426(4)
H3 H 0.72730 0.30950 0.17440
C9 C 0.7364(5) 0.3920(4) 0.1495(4)
O6 O 0.4835(4) 0.5769(4) -0.1793(4)
C10 C 0.8904(5) 0.4597(4) 0.2708(4)
H4 H 0.93240 0.48150 0.27170
C11 C 0.6272(5) 0.2632(4) 0.0819(4)
C12 C 0.6637(5) 0.4147(4) 0.0477(4)
C13 C 0.6368(5) 0.4571(4) -0.0040(4)
C14 C 0.6538(5) 0.5364(4) -0.0734(5)
H5 H 0.68450 0.56340 -0.08680
C15 C 0.7653(5) 0.3947(5) 0.2680(4)
H6 H 0.72330 0.37280 0.26710
C16 C 0.5812(6) 0.5345(5) -0.1024(5)
C17 C 0.5622(6) 0.4570(5) -0.0338(5)
H7 H 0.53070 0.43080 -0.02020
C18 C 0.6432(7) 0.2265(5) 0.0366(6)
H8 H 0.67860 0.23710 0.01350
C19 C 0.5522(6) 0.5765(5) -0.1555(5)
C20 C 0.5353(6) 0.4941(5) -0.0817(6)
H9 H 0.48580 0.49280 -0.10110
C21 C 0.8699(5) 0.4442(4) 0.3288(4)
C22 C 0.8071(6) 0.4119(5) 0.3262(4)
H10 H 0.79280 0.40160 0.36420
C23 C 0.9163(5) 0.4643(4) 0.3916(3)
O7 O 0.9778(3) 0.4844(3) 0.3890(3)
O8 O 0.8898(3) 0.4578(3) 0.4410(2)
C24 C 0.5744(6) 0.2461(4) 0.1169(4)
C25 C 0.6079(6) 0.1728(5) 0.0236(5)
H11 H 0.62060 0.14840 -0.00710
C26 C 0.5548(5) 0.1569(4) 0.0562(4)
C27 C 0.5381(6) 0.1935(4) 0.1019(5)
H12 H 0.50140 0.18310 0.12370
C28 C 0.5145(5) 0.1020(4) 0.0433(4)
O9 O 0.4579(4) 0.0950(2) 0.0663(3)
O10 O 0.5383(4) 0.0650(3) 0.0100(3)
C29 C 0.5487(6) 0.2815(5) 0.1674(5)
O11 O 0.5936(4) 0.3083(4) 0.2086(4)
O12 O 0.4812(5) 0.2805(4) 0.1722(5)
Yb2A Yb 0.086267(19) 0.502826(13) -0.542234(14)
O1A O 0.1129(4) 0.5151(3) -0.6470(3)
O2A O 0.1176(4) 0.4261(3) -0.6116(3)
O3A O 0.1978(4) 0.4573(3) -0.4901(4)
O4A O 0.2071(3) 0.5442(3) -0.5285(3)
O5A O 0.4043(4) 0.6089(3) -0.3237(3)
C1A C 0.2354(6) 0.5000(4) -0.5000(5)
C2A C 0.3185(6) 0.4991(4) -0.4750(5)
C3A C 0.1260(5) 0.4611(4) -0.6528(4)
C4A C 0.3621(5) 0.3608(4) -0.5413(4)
H1A H 0.39540 0.35010 -0.50440
C5A C 0.3393(5) 0.3216(4) -0.5893(4)
N1A N 0.2882(5) 0.4321(4) -0.6014(4)
H2A H 0.27330 0.46710 -0.60540
C6A C 0.2144(5) 0.4100(4) -0.7109(4)
C7A C 0.1511(5) 0.4429(4) -0.7129(4)
C8A C 0.2893(5) 0.3366(4) -0.6426(4)
H3A H 0.27270 0.30950 -0.67440
C9A C 0.2636(5) 0.3920(4) -0.6495(4)
O6A O 0.5165(4) 0.5769(4) -0.3207(4)
C10A C 0.1096(5) 0.4597(4) -0.7708(4)
H4A H 0.06760 0.48150 -0.77170
C11A C 0.3728(5) 0.2632(4) -0.5819(4)
C12A C 0.3363(5) 0.4147(4) -0.5477(4)
C13A C 0.3632(5) 0.4571(4) -0.4960(4)
C14A C 0.3462(5) 0.5364(4) -0.4266(5)
H5A H 0.31550 0.56340 -0.41320
C15A C 0.2347(5) 0.3947(5) -0.7680(4)
H6A H 0.27670 0.37280 -0.76710
C16A C 0.4188(6) 0.5345(5) -0.3976(5)
C17A C 0.4378(6) 0.4570(5) -0.4662(5)
H7A H 0.46930 0.43080 -0.47980
C18A C 0.3568(7) 0.2265(5) -0.5366(6)
H8A H 0.32140 0.23710 -0.51350
C19A C 0.4478(6) 0.5765(5) -0.3445(5)
C20A C 0.4647(6) 0.4941(5) -0.4183(6)
H9A H 0.51420 0.49280 -0.39890
C21A C 0.1301(5) 0.4442(4) -0.8288(4)
C22A C 0.1929(6) 0.4119(5) -0.8262(4)
H10A H 0.20720 0.40160 -0.86420
C23A C 0.0837(5) 0.4643(4) -0.8916(3)
O7A O 0.0222(3) 0.4844(3) -0.8890(3)
O8A O 0.1102(3) 0.4578(3) -0.9410(2)
C24A C 0.4256(6) 0.2461(4) -0.6169(4)
C25A C 0.3921(6) 0.1728(5) -0.5236(5)
H11A H 0.37940 0.14840 -0.49290
C26A C 0.4452(5) 0.1569(4) -0.5562(4)
C27A C 0.4619(6) 0.1935(4) -0.6019(5)
H12A H 0.49860 0.18310 -0.62370
C28A C 0.4855(5) 0.1020(4) -0.5433(4)
O9A O 0.5421(4) 0.0950(2) -0.5663(3)
O10A O 0.4617(4) 0.0650(3) -0.5100(3)
C29A C 0.4513(6) 0.2815(5) -0.6674(5)
O11A O 0.4064(4) 0.3083(4) -0.7086(4)
O12A O 0.5188(5) 0.2805(4) -0.6722(5)
Yb1D Yb 0.50000 0.35011(3) -0.75000
Yb1D* Yb 0.50000 0.35011(3) 0.25000
Yb2* Yb -0.086267(19) 0.502826(13) -0.957766(14)
Yb2A* Yb 1.086267(19) 0.502826(13) 0.457766(14)
Yb2B Yb 0.413733(19) 0.002826(13) 0.042234(14)
Yb2C Yb 0.586267(19) 0.002826(13) -0.542234(14)
Yb2D Yb 0.086267(19) 0.497174(13) -1.042234(14)
Yb2E Yb 0.913733(19) 0.497174(13) 0.542234(14)
Yb2F Yb 0.586267(19) -0.002826(13) -0.042234(14)
Yb2G Yb 0.413733(19) -0.002826(13) -0.457766(14)
O7* O -0.0222(3) 0.4844(3) -0.6110(3)
O7A* O 1.0222(3) 0.4844(3) 0.1110(3)
O8D O 0.1102(3) 0.5422(3) -0.4410(2)
O8E O 0.8898(3) 0.5422(3) -0.0590(2)
O9B O 0.9579(4) 0.5950(2) 0.0663(3)
O9C O 0.0421(4) 0.5950(2) -0.5663(3)
O10F O 0.9617(4) 0.4350(3) -0.0100(3)
O10G O 0.0383(4) 0.4350(3) -0.4900(3)
O11D O 0.4064(4) 0.6917(4) -0.2086(4)
O11E O 0.5936(4) 0.6917(4) -0.2914(4)
O12D O 0.5188(5) 0.7195(4) -0.1722(5)
O12E O 0.4812(5) 0.7195(4) -0.3278(5)
#END
