
#######################################################################
#
#                 Cambridge Crystallographic Data Centre
#                                CCDC
#
#######################################################################
#
# If this CIF has been generated from an entry in the Cambridge
# Structural Database, then it will include bibliographic, chemical,
# crystal, experimental, refinement or atomic coordinate data resulting
# from the CCDC's data processing and validation procedures.
#
#######################################################################

data_CSD_CIF_HUVHOX
_audit_creation_date 2015-11-12
_audit_creation_method CSD-ConQuest-V1
_database_code_CSD HUVHOX
_database_code_depnum_ccdc_archive 'CCDC 1409897'
_chemical_formula_sum 'C14 H29 N7 O14 P2 Zn2'
_chemical_formula_moiety
;
(C9 H9 N5 O11 P2 Zn2 2-)n,C5 H14 N2 2+,3(H2 O1)
;
_journal_coden_Cambridge 1147
_journal_volume 15
_journal_year 2015
_journal_page_first 5021
_journal_name_full 'Cryst.Growth Des. '
loop_
_publ_author_name
"Ruibiao Fu"
"Shengmin Hu"
"Xintao Wu"
_chemical_name_systematic
;
catena-[2-methylpiperazinediium  
(\m-2,2'-((6-hydroxy-1,3,5-triazine-2,4-diyl)bis[(phosphonatomethyl)imino])dia
cetato)-di-zinc trihydrate]
;
_cell_volume   2481.530
_exptl_crystal_colour 'orange'
_exptl_crystal_density_diffrn 1.906
_exptl_crystal_description 'prism'
_diffrn_ambient_temperature 293
_refine_special_details
;
C10,C6,C7,C9,N5 disordered by symmetry over two configurations with occupancy 
0.50.
;
#These two values have been output from a single CSD field.
_refine_ls_R_factor_gt 0.0617
_refine_ls_wR_factor_gt 0.0617
_symmetry_cell_setting orthorhombic
_symmetry_space_group_name_H-M 'P n m a'
_symmetry_Int_Tables_number 62
loop_
_symmetry_equiv_pos_site_id
_symmetry_equiv_pos_as_xyz
1 x,y,z
2 1/2-x,-y,1/2+z
3 -x,1/2+y,-z
4 1/2+x,1/2-y,1/2-z
5 -x,-y,-z
6 -1/2+x,y,-1/2-z
7 x,-1/2-y,z
8 -1/2-x,-1/2+y,-1/2+z
_cell_length_a 15.444(8)
_cell_length_b 17.895(10)
_cell_length_c 8.979(5)
_cell_angle_alpha 90
_cell_angle_beta 90
_cell_angle_gamma 90
_cell_formula_units_Z 4
loop_
_atom_type_symbol
_atom_type_radius_bond
C 0.68
H 0.23
N 0.68
O 0.68
P 1.05
Zn 1.22
loop_
_atom_site_label
_atom_site_type_symbol
_atom_site_fract_x
_atom_site_fract_y
_atom_site_fract_z
Zn1 Zn 0.08578(4) 0.39508(3) 0.05717(7)
P1 P -0.01326(9) 0.51468(7) 0.23076(14)
O1 O 0.0738(2) 0.4800(2) 0.1954(5)
O2 O -0.0355(3) 0.5807(2) 0.1351(4)
O3 O -0.0191(3) 0.5375(2) 0.3934(4)
O4 O -0.2913(2) 0.3921(2) 0.4970(5)
O5 O -0.2718(3) 0.3595(3) 0.2627(6)
O6 O 0.0954(4) 0.25000 -0.0049(6)
N1 N -0.0919(3) 0.3781(2) 0.2901(5)
N2 N 0.0041(3) 0.3163(2) 0.1368(5)
N3 N -0.0848(4) 0.25000 0.3050(7)
C1 C -0.0949(3) 0.4440(3) 0.1932(6)
H1 H -0.15150 0.46690 0.20240
H2 H -0.08850 0.42760 0.09080
C2 C -0.1479(3) 0.3801(3) 0.4189(6)
H3 H -0.13650 0.42590 0.47330
H4 H -0.13280 0.33870 0.48360
C3 C -0.2434(4) 0.3760(3) 0.3860(7)
C4 C -0.0563(3) 0.3129(3) 0.2447(6)
C5 C 0.0366(5) 0.25000 0.0871(8)
O7 O 0.2286(4) 0.5623(4) 0.2168(7)
N4 N 0.2128(8) 0.75000 0.0575(14)
N5 N 0.3854(11) 0.7174(7) 0.1700(14)
C6 C 0.2695(8) 0.6726(7) 0.0114(12)
C7 C 0.365(1) 0.6883(10) 0.0102(16)
C8 C 0.2419(8) 0.75000 0.2149(13)
C9 C 0.3804(11) 0.6316(9) -0.0215(16)
O8? O 0.4874(9) 0.75000 0.1629(16)
C10? C 0.3320(8) 0.7168(7) 0.2147(14)
P1F P -0.01326(9) -0.01468(7) 0.23076(14)
O1F O 0.0738(2) 0.0200(2) 0.1954(5)
O2F O -0.0355(3) -0.0807(2) 0.1351(4)
O3F O -0.0191(3) -0.0375(2) 0.3934(4)
O4F O -0.2913(2) 0.1079(2) 0.4970(5)
O5F O -0.2718(3) 0.1405(3) 0.2627(6)
N1F N -0.0919(3) 0.1219(2) 0.2901(5)
N2F N 0.0041(3) 0.1837(2) 0.1368(5)
C1F C -0.0949(3) 0.0560(3) 0.1932(6)
H1F H -0.15150 0.03310 0.20240
H2F H -0.08850 0.07240 0.09080
C2F C -0.1479(3) 0.1199(3) 0.4189(6)
H3F H -0.13650 0.07410 0.47330
H4F H -0.13280 0.16130 0.48360
C3F C -0.2434(4) 0.1240(3) 0.3860(7)
C4F C -0.0563(3) 0.1871(3) 0.2447(6)
Zn1D Zn -0.08578(4) 0.60492(3) -0.05717(7)
Zn1B Zn -0.08578(4) -0.10492(3) -0.05717(7)
Zn1C Zn -0.41422(4) 0.10492(3) 0.44283(7)
Zn1E Zn -0.41422(4) 0.39508(3) 0.44283(7)
Zn1F Zn 0.08578(4) 0.10492(3) 0.05717(7)
O1D O -0.0738(2) 0.5200(2) -0.1954(5)
O2D O 0.0355(3) 0.4193(2) -0.1351(4)
O4A O -0.2087(2) 0.6079(2) -0.0030(5)
O4E O 0.2087(2) 0.3921(2) 0.0030(5)
N2D N -0.0041(3) 0.6837(2) -0.1368(5)
N5F N 0.3854(11) 0.7826(7) 0.1700(14)
C6F C 0.2695(8) 0.8274(7) 0.0114(12)
C7F C 0.365(1) 0.8117(10) 0.0102(16)
C9F C 0.3804(11) 0.8684(9) -0.0215(16)
#END
