
#######################################################################
#
#                 Cambridge Crystallographic Data Centre
#                                CCDC
#
#######################################################################
#
# If this CIF has been generated from an entry in the Cambridge
# Structural Database, then it will include bibliographic, chemical,
# crystal, experimental, refinement or atomic coordinate data resulting
# from the CCDC's data processing and validation procedures.
#
#######################################################################

data_CSD_CIF_HUVHIR
_audit_creation_date 2015-11-12
_audit_creation_method CSD-ConQuest-V1
_database_code_CSD HUVHIR
_database_code_depnum_ccdc_archive 'CCDC 1409896'
_chemical_formula_sum 'C17 H36 N8 O19.5 P3 Zn3'
_chemical_formula_moiety
;
(C12 H15 N6 O16 P3 Zn3 2-)n,C5 H14 N2 2+,3.5(H2 O1)
;
_journal_coden_Cambridge 1147
_journal_volume 15
_journal_year 2015
_journal_page_first 5021
_journal_name_full 'Cryst.Growth Des. '
loop_
_publ_author_name
"Ruibiao Fu"
"Shengmin Hu"
"Xintao Wu"
_chemical_name_systematic
;
catena-[2-methylpiperazinediium 
(\m-2,2'-((6-[(carboxymethyl)(phosphonatomethyl)amino]-1,3,5-triazine-2,4-diyl
)bis[(phosphonatomethyl)imino])diacetato)-aqua-tri-zinc hydrate]
;
_cell_volume   1644.023
_exptl_crystal_colour 'colorless'
_exptl_crystal_description 'prism'
_diffrn_ambient_temperature 293
#These two values have been output from a single CSD field.
_refine_ls_R_factor_gt 0.0829
_refine_ls_wR_factor_gt 0.0829
_symmetry_cell_setting triclinic
_symmetry_space_group_name_H-M 'P -1'
_symmetry_Int_Tables_number 2
loop_
_symmetry_equiv_pos_site_id
_symmetry_equiv_pos_as_xyz
1 x,y,z
2 -x,-y,-z
_cell_length_a 10.137(6)
_cell_length_b 11.802(7)
_cell_length_c 13.768(8)
_cell_angle_alpha 86.899(12)
_cell_angle_beta 89.523(9)
_cell_angle_gamma 88.343(11)
_cell_formula_units_Z 2
loop_
_atom_type_symbol
_atom_type_radius_bond
C 0.68
H 0.23
N 0.68
O 0.68
P 1.05
Zn 1.22
loop_
_atom_site_label
_atom_site_type_symbol
_atom_site_fract_x
_atom_site_fract_y
_atom_site_fract_z
Zn1 Zn 0.15736(8) 0.51598(8) 0.39554(6)
Zn2 Zn 0.55467(9) 0.57495(9) 0.37833(7)
Zn3 Zn 0.62257(11) 0.11009(10) -0.11254(9)
P1 P 0.3750(2) 0.3440(2) 0.42563(17)
P2 P 0.6707(2) 0.3352(2) -0.22994(15)
P3 P 0.84407(18) 0.46155(19) 0.37929(15)
O1 O 0.2294(5) 0.3604(5) 0.4049(4)
O2 O 0.4443(8) 0.4517(7) 0.3927(8)
O3 O 0.4009(8) 0.3070(7) 0.5301(5)
O4 O 0.4079(8) 0.0364(6) 0.1730(6)
O5 O 0.1931(10) 0.0418(8) 0.1759(12)
O6 O 0.7821(6) 0.3901(6) -0.2846(4)
O7 O 0.7159(7) 0.2158(6) -0.1897(5)
O8 O 0.5448(6) 0.3249(6) -0.2845(5)
O9 O 0.4405(7) 0.1451(6) -0.0850(6)
O10 O 0.2432(7) 0.2162(7) -0.0545(7)
O11 O 0.7301(5) 0.5343(6) 0.3370(5)
O12 O 0.9679(5) 0.5315(5) 0.3721(5)
O13 O 0.8182(6) 0.4131(5) 0.4816(4)
O14 O 1.1033(7) 0.3673(7) 0.0267(5)
H1 H 1.14620 0.31640 0.00180
O15 O 0.9855(8) 0.2250(7) 0.0847(7)
O16 O 0.6846(19) 0.0682(12) 0.0212(10)
N1 N 0.4166(7) 0.2462(6) 0.2528(5)
N2 N 0.8394(7) 0.3630(7) 0.2032(5)
N3 N 0.5516(7) 0.3591(7) -0.0547(5)
N4 N 0.4835(7) 0.2998(7) 0.0982(5)
N5 N 0.6297(7) 0.3031(6) 0.2310(5)
N6 N 0.7014(7) 0.3646(6) 0.0710(5)
C1 C 0.5143(8) 0.2831(8) 0.1930(6)
C2 C 0.5811(9) 0.3421(8) 0.0419(6)
C3 C 0.7191(8) 0.3432(7) 0.1675(6)
C4 C 0.4394(8) 0.2275(7) 0.3576(6)
H2 H 0.53340 0.21800 0.36910
H3 H 0.39760 0.15810 0.38080
C5 C 0.2941(8) 0.2068(8) 0.2148(7)
H4 H 0.26940 0.25550 0.15850
H5 H 0.22560 0.21530 0.26370
C6 C 0.2978(11) 0.0853(10) 0.1856(9)
C7 C 0.6405(9) 0.4165(8) -0.1242(7)
H6 H 0.72370 0.42880 -0.09270
H7 H 0.60210 0.49010 -0.14460
C8 C 0.4122(8) 0.3486(9) -0.0812(6)
H8 H 0.40040 0.37750 -0.14790
H9 H 0.35810 0.39570 -0.04010
C9 C 0.3637(9) 0.2293(9) -0.0716(7)
C10 C 0.8688(8) 0.3403(8) 0.3061(6)
H10 H 0.95990 0.31360 0.31210
H11 H 0.81340 0.27980 0.33160
C11 C 0.9416(8) 0.4132(8) 0.1400(6)
H12 H 1.00550 0.44930 0.17930
H13 H 0.90170 0.47100 0.09590
C12 C 1.0112(9) 0.3234(9) 0.0817(7)
O17 O 0.689(3) 0.202(2) 0.526(2)
O18 O 1.00000 0.00000 0.00000
O19 O 0.492(3) 0.0972(18) 0.6443(19)
O20 O 0.095(3) -0.0800(12) 0.7591(17)
N7 N -0.0455(15) 0.1339(15) 0.732(2)
H14 H -0.12280 0.13550 0.76440
H15 H -0.01050 0.06320 0.74150
N8 N 0.1453(15) 0.2377(14) 0.6220(13)
H16 H 0.13240 0.31300 0.61060
H17 H 0.22260 0.21990 0.59320
C13 C 0.0422(16) 0.2110(19) 0.7781(14)
H18 H 0.05850 0.18320 0.84460
H19 H -0.00080 0.28540 0.77990
C14 C 0.1684(18) 0.2212(18) 0.7259(16)
H20 H 0.21540 0.28500 0.74860
H21 H 0.22240 0.15300 0.73890
C15 C -0.077(5) 0.152(5) 0.623(3)
H22 H -0.10730 0.08170 0.59770
H23 H -0.14570 0.20980 0.61250
C16 C 0.0505(18) 0.188(2) 0.569(2)
H24 H 0.09120 0.11320 0.58560
C17 C -0.004(11) 0.143(4) 0.471(3)
H25 H 0.06060 0.15400 0.42010
H26 H -0.08400 0.18460 0.45280
H27 H -0.02210 0.06380 0.47990
Zn1* Zn 1.15736(8) 0.51598(8) 0.39554(6)
Zn1A Zn 0.84264(8) 0.48402(8) -0.39554(6)
Zn1A* Zn 0.84264(8) 0.48402(8) 0.60446(6)
Zn2A Zn 0.44533(9) 0.42505(9) -0.37833(7)
Zn2A* Zn 0.44533(9) 0.42505(9) 0.62167(7)
Zn3A Zn 0.37743(11) -0.11009(10) 0.11254(9)
O3A O 0.5991(8) 0.6930(7) 0.4699(5)
O4A O 0.5921(8) -0.0364(6) -0.1730(6)
O6A O 0.2179(6) 0.6099(6) 0.2846(4)
O8A O 0.4552(6) 0.6751(6) 0.2845(5)
O12* O -0.0321(5) 0.5315(5) 0.3721(5)
O13A O 0.1818(6) 0.5869(5) 0.5184(4)
#END
