
#######################################################################
#
#                 Cambridge Crystallographic Data Centre
#                                CCDC
#
#######################################################################
#
# If this CIF has been generated from an entry in the Cambridge
# Structural Database, then it will include bibliographic, chemical,
# crystal, experimental, refinement or atomic coordinate data resulting
# from the CCDC's data processing and validation procedures.
#
#######################################################################

data_CSD_CIF_HUVLUF01
_audit_creation_date 2003-07-04
_audit_creation_method CSD-ConQuest-V1
_database_code_CSD HUVLUF01
_database_code_depnum_ccdc_archive 'CCDC 196747'
_chemical_formula_sum 'C4 H10 Co2 N2 O16 V4'
_chemical_formula_moiety
;
(C2 Co2 O16 V4 2-)n,n(C2 H10 N2 2+)
;
_journal_coden_Cambridge 1295
_journal_volume 6
_journal_year 2003
_journal_page_first 370
_journal_name_full 'Inorg.Chem.Commun. '
loop_
_publ_author_name
"Cheng-Ling Pan"
"Ji-Qing Xu"
"Kai-Xue Wang"
"Xiao-Bing Cui"
"Ling Ye"
"Zheng-Liang Lu"
"De-Qing Chu"
"Tie-Gang Wang"
_chemical_name_systematic
;
catena-(Ethylene-1,2-diammonium 
(\m~2~-oxalato-O,O',O'',O''')-dodecakis(\m~2~-oxo)-di-cobalt-tetra-vanadium)
;
_cell_volume   1726.434
_exptl_crystal_colour 'black'
_exptl_crystal_density_diffrn 2.554
_exptl_crystal_description 'blocks'
_exptl_crystal_preparation 'from the melt'
_diffrn_ambient_temperature 293
_refine_special_details
;
The cation has imposed disorder.

;
#These two values have been output from a single CSD field.
_refine_ls_R_factor_gt 0.0298
_refine_ls_wR_factor_gt 0.0298
_symmetry_cell_setting orthorhombic
_symmetry_space_group_name_H-M 'C m c m'
_symmetry_Int_Tables_number 63
loop_
_symmetry_equiv_pos_site_id
_symmetry_equiv_pos_as_xyz
1 x,y,z
2 1/2+x,1/2+y,z
3 x,y,1/2-z
4 x,-y,1/2+z
5 -x,y,z
6 1/2+x,1/2+y,1/2-z
7 1/2+x,1/2-y,1/2+z
8 1/2-x,1/2+y,z
9 -x,-y,-z
10 -1/2-x,-1/2-y,-z
11 -x,-y,-1/2+z
12 -x,y,-1/2-z
13 x,-y,-z
14 -1/2-x,-1/2-y,-1/2+z
15 -1/2-x,-1/2+y,-1/2-z
16 -1/2+x,-1/2-y,-z
_cell_length_a 11.624(2)
_cell_length_b 9.968(2)
_cell_length_c 14.900(3)
_cell_angle_alpha 90
_cell_angle_beta 90
_cell_angle_gamma 90
_cell_formula_units_Z 4
loop_
_atom_type_symbol
_atom_type_radius_bond
C 0.68
H 0.23
Co 1.33
N 0.68
O 0.68
V 1.33
loop_
_atom_site_label
_atom_site_type_symbol
_atom_site_fract_x
_atom_site_fract_y
_atom_site_fract_z
Co1 Co 0.26381(5) 0.00000 0.50000
V1 V 0.14101(4) 0.23807(5) 0.36329(3)
O1 O 0.1703(3) 0.1931(3) 0.25000
O2 O 0.00000 0.3100(3) 0.36877(19)
O3 O 0.14104(18) 0.0995(2) 0.42525(14)
O4 O 0.26368(18) 0.15406(19) 0.59888(16)
O5 O 0.40430(17) 0.09845(19) 0.43744(13)
C1 C 0.50000 0.0556(4) 0.4635(3)
N1 N 0.50000 0.3562(4) 0.3770(3)
H1 H 0.50000 0.35940 0.43470
C2 C 0.4530(7) 0.3507(12) 0.2802(5)
H2 H 0.39640 0.35070 0.32440
O5D O 0.59570(17) 0.09845(19) 0.43744(13)
C1H C 0.50000 -0.0556(4) 0.5365(3)
O5H O 0.59570(17) -0.09845(19) 0.56256(13)
O5L O 0.40430(17) -0.09845(19) 0.56256(13)
C2B C 0.4530(7) 0.3507(12) 0.2198(5)
N1B N 0.50000 0.3562(4) 0.1230(3)
H1B H 0.50000 0.35940 0.06530
C2K C 0.5470(7) 0.3507(12) 0.2198(5)
C2D C 0.5470(7) 0.3507(12) 0.2802(5)
H2K H 0.60360 0.35070 0.17560
H2B H 0.39640 0.35070 0.17560
H2D H 0.60360 0.35070 0.32440
O3L O 0.14104(18) -0.0995(2) 0.57475(14)
O4L O 0.26368(18) -0.15406(19) 0.40112(16)
Co1D Co 0.73619(5) 0.00000 0.50000
V1L V 0.14101(4) -0.23807(5) 0.63671(3)
V1I V 0.35899(4) 0.26193(5) 0.63671(3)
V1G V 0.35899(4) -0.26193(5) 0.36329(3)
O4I O 0.23632(18) 0.34594(19) 0.40112(16)
O3D O 0.85896(18) 0.0995(2) 0.42525(14)
O3H O 0.85896(18) -0.0995(2) 0.57475(14)
O4D O 0.73632(18) 0.15406(19) 0.59888(16)
O1L O 0.1703(3) -0.1931(3) 0.75000
O2L O 0.00000 -0.3100(3) 0.63123(19)
V1B V 0.14101(4) 0.23807(5) 0.13671(3)
V1D V -0.14101(4) 0.23807(5) 0.36329(3)
O4H O 0.73632(18) -0.15406(19) 0.40112(16)
O4G O 0.23632(18) -0.34594(19) 0.59888(16)
O1I O 0.3297(3) 0.3069(3) 0.75000
O2I O 0.50000 0.1900(3) 0.63123(19)
O3I O 0.35896(18) 0.4005(2) 0.57475(14)
O1G O 0.3297(3) -0.3069(3) 0.25000
O2A O 0.50000 -0.1900(3) 0.36877(19)
O3G O 0.35896(18) -0.4005(2) 0.42525(14)
Co1G Co 0.23619(5) 0.50000 0.50000
V1D* V 0.85899(4) 0.23807(5) 0.36329(3)
V1H V 0.85899(4) -0.23807(5) 0.63671(3)
V1O V 0.64101(4) 0.26193(5) 0.63671(3)
V1C V 0.14101(4) -0.23807(5) 0.86329(3)
V1H* V -0.14101(4) -0.23807(5) 0.63671(3)
#END
