
#######################################################################
#
#                 Cambridge Crystallographic Data Centre
#                                CCDC
#
#######################################################################
#
# If this CIF has been generated from an entry in the Cambridge
# Structural Database, then it will include bibliographic, chemical,
# crystal, experimental, refinement or atomic coordinate data resulting
# from the CCDC's data processing and validation procedures.
#
#######################################################################

data_CSD_CIF_HUVLUF
_audit_creation_date 2003-06-11
_audit_creation_method CSD-ConQuest-V1
_database_code_CSD HUVLUF
_database_code_depnum_ccdc_archive 'CCDC 206640'
_chemical_formula_sum 'C4 H10 Co2 N2 O16 V4'
_chemical_formula_moiety
;
(C2 H10 N2 2+)n,n(C2 Co2 O16 V4 2-)
;
_journal_coden_Cambridge 9
_journal_volume 42
_journal_year 2003
_journal_page_first 1170
_journal_name_full 'Inorg.Chem. '
loop_
_publ_author_name
"Guanghua Li"
"Zhan Shi"
"Yaohua Xu"
"Shouhua Feng"
_chemical_name_systematic
;
catena-(Ethylene-1,2-diammonium 
(\m~2~-oxalato-O,O',O'',O''')-dodecakis(\m~2~-oxo)-di-cobalt-tetra-vanadium)
;
_cell_volume   1694.763
_exptl_crystal_colour 'black brown'
_exptl_crystal_density_diffrn 2.601
_exptl_crystal_description 'block'
_diffrn_ambient_temperature 293
_refine_special_details
;
The cation is disordered by symmetry.

;
#These two values have been output from a single CSD field.
_refine_ls_R_factor_gt 0.0281
_refine_ls_wR_factor_gt 0.0281
_symmetry_cell_setting orthorhombic
_symmetry_space_group_name_H-M 'C m c m'
_symmetry_Int_Tables_number 63
loop_
_symmetry_equiv_pos_site_id
_symmetry_equiv_pos_as_xyz
1 x,y,z
2 1/2+x,1/2+y,z
3 x,y,1/2-z
4 x,-y,1/2+z
5 -x,y,z
6 1/2+x,1/2+y,1/2-z
7 1/2+x,1/2-y,1/2+z
8 1/2-x,1/2+y,z
9 -x,-y,-z
10 -1/2-x,-1/2-y,-z
11 -x,-y,-1/2+z
12 -x,y,-1/2-z
13 x,-y,-z
14 -1/2-x,-1/2-y,-1/2+z
15 -1/2-x,-1/2+y,-1/2-z
16 -1/2+x,-1/2-y,-z
_cell_length_a 11.527(2)
_cell_length_b 9.9476(18)
_cell_length_c 14.780(3)
_cell_angle_alpha 90
_cell_angle_beta 90
_cell_angle_gamma 90
_cell_formula_units_Z 4
loop_
_atom_type_symbol
_atom_type_radius_bond
C 0.68
Co 1.33
N 0.68
O 0.68
V 1.33
loop_
_atom_site_label
_atom_site_type_symbol
_atom_site_fract_x
_atom_site_fract_y
_atom_site_fract_z
V1 V 0.35784(5) 0.23749(6) 0.36394(4)
Co1 Co 0.23440(6) 0.00000 0.50000
O1 O 0.3276(3) 0.1917(4) 0.25000
O2 O 0.50000 -0.3085(4) 0.6311(2)
O3 O 0.3573(2) 0.0992(3) 0.42641(17)
O4 O 0.2369(2) 0.1529(3) 0.59781(18)
O5 O 0.0965(2) 0.0976(2) 0.43676(18)
C1 C 0.0478(9) 0.3530(13) 0.2811(6)
C2 C 0.00000 0.0556(5) 0.4635(3)
N1 N 0.00000 0.3568(5) 0.3781(3)
O5D O -0.0965(2) 0.0976(2) 0.43676(18)
C2H C 0.00000 -0.0556(5) 0.5365(3)
O5H O -0.0965(2) -0.0976(2) 0.56324(18)
O5L O 0.0965(2) -0.0976(2) 0.56324(18)
C1B C 0.0478(9) 0.3530(13) 0.2189(6)
C1K C -0.0478(9) 0.3530(13) 0.2189(6)
C1D C -0.0478(9) 0.3530(13) 0.2811(6)
N1K N 0.00000 0.3568(5) 0.1219(3)
O3L O 0.3573(2) -0.0992(3) 0.57359(17)
O4L O 0.2369(2) -0.1529(3) 0.40219(18)
Co1D Co -0.23440(6) 0.00000 0.50000
V1L V 0.35784(5) -0.23749(6) 0.63606(4)
V1I V 0.14216(5) 0.26251(6) 0.63606(4)
V1G V 0.14216(5) -0.26251(6) 0.36394(4)
O4I O 0.2631(2) 0.3471(3) 0.40219(18)
O3D O -0.3573(2) 0.0992(3) 0.42641(17)
O3H O -0.3573(2) -0.0992(3) 0.57359(17)
O4D O -0.2369(2) 0.1529(3) 0.59781(18)
O1L O 0.3276(3) -0.1917(4) 0.75000
O2H O 0.50000 0.3085(4) 0.3689(2)
V1B V 0.35784(5) 0.23749(6) 0.13606(4)
O4H O -0.2369(2) -0.1529(3) 0.40219(18)
O4G O 0.2631(2) -0.3471(3) 0.59781(18)
O1I O 0.1724(3) 0.3083(4) 0.75000
O2A O 0.00000 0.1915(4) 0.6311(2)
O3I O 0.1427(2) 0.4008(3) 0.57359(17)
O1G O 0.1724(3) -0.3083(4) 0.25000
O2I O 0.00000 -0.1915(4) 0.3689(2)
O3G O 0.1427(2) -0.4008(3) 0.42641(17)
Co1G Co 0.26560(6) 0.50000 0.50000
V1D V -0.35784(5) 0.23749(6) 0.36394(4)
V1H V -0.35784(5) -0.23749(6) 0.63606(4)
V1O V -0.14216(5) 0.26251(6) 0.63606(4)
V1C V 0.35784(5) -0.23749(6) 0.86394(4)
V1H* V 0.64216(5) -0.23749(6) 0.63606(4)
#END
