
#######################################################################
#
#                 Cambridge Crystallographic Data Centre
#                                CCDC
#
#######################################################################
#
# If this CIF has been generated from an entry in the Cambridge
# Structural Database, then it will include bibliographic, chemical,
# crystal, experimental, refinement or atomic coordinate data resulting
# from the CCDC's data processing and validation procedures.
#
#######################################################################

data_CSD_CIF_HUVMIW
_audit_creation_date 2015-11-12
_audit_creation_method CSD-ConQuest-V1
_database_code_CSD HUVMIW
_database_code_depnum_ccdc_archive 'CCDC 1407407'
_chemical_formula_sum 'C48 H40 Cu2 N8 O56 P1 W12'
_chemical_formula_moiety
;
(C24 H20 Cu1 N4 O8 2+)2n,O40 P1 W12 4-
;
_journal_coden_Cambridge 1147
_journal_volume 15
_journal_year 2015
_journal_page_first 4952
_journal_name_full 'Cryst.Growth Des. '
loop_
_publ_author_name
"Jian-Zhen Liao"
"Xiao-Yuan Wu"
"Jian-Ping Yong"
"Hai-Long Zhang"
"Wen-Bing Yang"
"Rongmin Yu"
"Can-Zhong Lu"
_chemical_name_systematic
;
catena-[bis((\m- 
2,7-di(pyridin-4-yl)benzo[lmn][3,8]phenanthroline-1,3,6,8(2H,7H)-tetrone)-tetr
a-aqua-copper) (\m-phosphato)-tetracosakis(\m-oxo)-dodecaoxo-dodeca-tungtsen 
unknown solvate]
;
_cell_volume  15032.613
_exptl_crystal_colour 'blue'
_exptl_crystal_density_diffrn 1.755
_exptl_crystal_description 'Block'
_diffrn_ambient_temperature 173
_refine_special_details
;
The SQUEEZE/PLATON program has been used to model some disorder.

;
#These two values have been output from a single CSD field.
_refine_ls_R_factor_gt 0.0535
_refine_ls_wR_factor_gt 0.0535
_symmetry_cell_setting tetragonal
_symmetry_space_group_name_H-M 'I 41/a m d'
_symmetry_Int_Tables_number 141
loop_
_symmetry_equiv_pos_site_id
_symmetry_equiv_pos_as_xyz
1 x,y,z
2 1/4-y,3/4+x,1/4+z
3 -x,1/2-y,z
4 1/4+y,1/4-x,3/4+z
5 x,-y,-z
6 -x,1/2+y,-z
7 1/4+y,3/4+x,1/4-z
8 1/4-y,1/4-x,3/4-z
9 1/2+x,1/2+y,1/2+z
10 3/4-y,1/4+x,3/4+z
11 1/2-x,-y,1/2+z
12 3/4+y,3/4-x,1/4+z
13 1/2+x,1/2-y,1/2-z
14 1/2-x,y,1/2-z
15 3/4+y,1/4+x,3/4-z
16 3/4-y,3/4-x,1/4-z
17 -x,-y,-z
18 -1/4+y,-3/4-x,-1/4-z
19 x,-1/2+y,-z
20 -1/4-y,-1/4+x,-3/4-z
21 -x,y,z
22 x,-1/2-y,z
23 -1/4-y,-3/4-x,-1/4+z
24 -1/4+y,-1/4+x,-3/4+z
25 -1/2-x,-1/2-y,-1/2-z
26 -3/4+y,-1/4-x,-3/4-z
27 -1/2+x,y,-1/2-z
28 -3/4-y,-3/4+x,-1/4-z
29 -1/2-x,-1/2+y,-1/2+z
30 -1/2+x,-y,-1/2+z
31 -3/4-y,-1/4-x,-3/4+z
32 -3/4+y,-3/4+x,-1/4+z
_cell_length_a 19.4044(6)
_cell_length_b 19.4044(6)
_cell_length_c 39.924(3)
_cell_angle_alpha 90
_cell_angle_beta 90
_cell_angle_gamma 90
_cell_formula_units_Z 4
loop_
_atom_type_symbol
_atom_type_radius_bond
C 0.68
H 0.23
Cu 1.32
N 0.68
O 0.68
P 1.05
W 1.62
loop_
_atom_site_label
_atom_site_type_symbol
_atom_site_fract_x
_atom_site_fract_y
_atom_site_fract_z
W1 W 0.91191(3) 0.65481(3) 0.562226(16)
W2 W 1.00000 0.56610(4) 0.62243(2)
P1 P 1.00000 0.75000 0.62500
O1 O 1.00000 0.6414(6) 0.5408(3)
O2 O 0.8571(4) 0.6241(5) 0.5323(2)
O3 O 0.9313(4) 0.5735(4) 0.5878(2)
O4 O 1.00000 0.4783(7) 0.6294(3)
O5 O 1.0669(4) 0.6003(4) 0.6533(2)
O6 O 0.9181(6) 0.75000 0.5505(3)
O7 O 1.00000 0.6854(5) 0.6032(3)
Cu1 Cu 0.50000 0.50000 0.50000
O8 O 0.8186(6) 0.5663(7) 0.4531(3)
O9 O 0.50000 0.3962(14) 0.5081(7)
O10 O 0.50000 0.5079(17) 0.5601(7)
N1 N 0.8198(8) 0.50000 0.50000
N2 N 0.6044(10) 0.50000 0.50000
C1 C 0.6380(9) 0.4644(12) 0.4773(5)
H1 H 0.61300 0.43960 0.46070
C2 C 0.7084(9) 0.4624(11) 0.4772(6)
H2 H 0.73190 0.43480 0.46120
C3 C 0.7452(11) 0.50000 0.50000
C4 C 0.8503(8) 0.5351(9) 0.4749(4)
C5 C 0.9627(8) 0.5692(9) 0.4502(4)
H3 H 0.93810 0.59320 0.43330
C6 C 0.9291(7) 0.5355(8) 0.4741(4)
C7 C 0.9630(9) 0.50000 0.50000
O7B O 1.00000 0.8146(5) 0.6032(3)
O7F O 0.93540 0.7500(5) 0.6468(3)
O7O O 1.06460 0.7500(5) 0.6468(3)
W1B W 1.08809(3) 0.84519(3) 0.562226(16)
W2B W 1.00000 0.93390(4) 0.62243(2)
O1B O 1.00000 0.8586(6) 0.5408(3)
O2B O 1.1429(4) 0.8759(5) 0.5323(2)
O3B O 1.0687(4) 0.9265(4) 0.5878(2)
O4B O 1.00000 1.0217(7) 0.6294(3)
O5B O 0.9331(4) 0.8997(4) 0.6533(2)
O6B O 1.0819(6) 0.75000 0.5505(3)
W1F W 0.90481(3) 0.66191(3) 0.687774(16)
W2F W 0.81610 0.75000(4) 0.62757(2)
O1F O 0.89140 0.7500(6) 0.7092(3)
O2F O 0.8741(4) 0.6071(5) 0.7177(2)
O3F O 0.8235(4) 0.6813(4) 0.6622(2)
O4F O 0.72830 0.7500(7) 0.6206(3)
O5F O 0.8503(4) 0.8169(4) 0.5967(2)
O6F O 1.0000(6) 0.66810 0.6995(3)
W1O W 1.09519(3) 0.83809(3) 0.687774(16)
W2O W 1.18390 0.75000(4) 0.62757(2)
O1O O 1.10860 0.7500(6) 0.7092(3)
O2O O 1.1259(4) 0.8929(5) 0.7177(2)
O3O O 1.1765(4) 0.8187(4) 0.6622(2)
O4O O 1.27170 0.7500(7) 0.6206(3)
O5O O 1.1497(4) 0.6831(4) 0.5967(2)
O6O O 1.0000(6) 0.83190 0.6995(3)
W1S W 1.09519(3) 0.66191(3) 0.687774(16)
O2S O 1.1259(4) 0.6071(5) 0.7177(2)
O3S O 1.1765(4) 0.6813(4) 0.6622(2)
O5S O 1.1497(4) 0.8169(4) 0.5967(2)
W1T W 1.08809(3) 0.65481(3) 0.562226(16)
O2T O 1.1429(4) 0.6241(5) 0.5323(2)
O3T O 1.0687(4) 0.5735(4) 0.5878(2)
O5T O 0.9331(4) 0.6003(4) 0.6533(2)
W1U W 0.91191(3) 0.84519(3) 0.562226(16)
O2U O 0.8571(4) 0.8759(5) 0.5323(2)
O3U O 0.9313(4) 0.9265(4) 0.5878(2)
O5U O 1.0669(4) 0.8997(4) 0.6533(2)
W1Y W 0.90481(3) 0.83809(3) 0.687774(16)
O2Y O 0.8741(4) 0.8929(5) 0.7177(2)
O3Y O 0.8235(4) 0.8187(4) 0.6622(2)
O5Y O 0.8503(4) 0.6831(4) 0.5967(2)
O8D O 0.8186(6) 0.4337(7) 0.5469(3)
C1D C 0.6380(9) 0.5356(12) 0.5227(5)
H1D H 0.61300 0.56040 0.53930
C2D C 0.7084(9) 0.5376(11) 0.5228(6)
H2D H 0.73190 0.56520 0.53880
C4D C 0.8503(8) 0.4649(9) 0.5251(4)
C5D C 0.9627(8) 0.4308(9) 0.5498(4)
H3D H 0.93810 0.40680 0.56670
C6D C 0.9291(7) 0.4645(8) 0.5259(4)
O8P O 1.1814(6) 0.4337(7) 0.5469(3)
N1P N 1.1802(8) 0.50000 0.50000
N2P N 1.3956(10) 0.50000 0.50000
C1P C 1.3620(9) 0.5356(12) 0.5227(5)
H1P H 1.38700 0.56040 0.53930
C2P C 1.2916(9) 0.5376(11) 0.5228(6)
H2P H 1.26810 0.56520 0.53880
C3P C 1.2548(11) 0.50000 0.50000
C4P C 1.1497(8) 0.4649(9) 0.5251(4)
C5P C 1.0373(8) 0.4308(9) 0.5498(4)
H3P H 1.06190 0.40680 0.56670
C6P C 1.0709(7) 0.4645(8) 0.5259(4)
C7P C 1.0370(9) 0.50000 0.50000
O8T O 1.1814(6) 0.5663(7) 0.4531(3)
C1T C 1.3620(9) 0.4644(12) 0.4773(5)
H1T H 1.38700 0.43960 0.46070
C2T C 1.2916(9) 0.4624(11) 0.4772(6)
H2T H 1.26810 0.43480 0.46120
C4T C 1.1497(8) 0.5351(9) 0.4749(4)
C5T C 1.0373(8) 0.5692(9) 0.4502(4)
H3T H 1.06190 0.59320 0.43330
C6T C 1.0709(7) 0.5355(8) 0.4741(4)
O9D O 0.50000 0.6038(14) 0.4919(7)
O10D O 0.50000 0.4921(17) 0.4399(7)
Cu1* Cu 1.50000 0.50000 0.50000
N2P* N 0.3956(10) 0.50000 0.50000
#END
