
#######################################################################
#
#                 Cambridge Crystallographic Data Centre
#                                CCDC
#
#######################################################################
#
# If this CIF has been generated from an entry in the Cambridge
# Structural Database, then it will include bibliographic, chemical,
# crystal, experimental, refinement or atomic coordinate data resulting
# from the CCDC's data processing and validation procedures.
#
#######################################################################

data_CSD_CIF_HUVMOC
_audit_creation_date 2015-11-12
_audit_creation_method CSD-ConQuest-V1
_database_code_CSD HUVMOC
_database_code_depnum_ccdc_archive 'CCDC 1407408'
_chemical_formula_sum 'C35 H39 Cu1 N6 O47 P1 W12'
_chemical_formula_moiety
;
(C35 H38 Cu1 N6 O7 2+)n,H1 O40 P1 W12 2-
;
_journal_coden_Cambridge 1147
_journal_volume 15
_journal_year 2015
_journal_page_first 4952
_journal_name_full 'Cryst.Growth Des. '
loop_
_publ_author_name
"Jian-Zhen Liao"
"Xiao-Yuan Wu"
"Jian-Ping Yong"
"Hai-Long Zhang"
"Wen-Bing Yang"
"Rongmin Yu"
"Can-Zhong Lu"
_chemical_name_systematic
;
catena-[(\m-2,7-bis(pyridin-4-ylmethyl)benzo[lmn][3,8]phenanthroline-1,3,6,8(2
H,7H)-tetrone)-bis(N,N-dimethylformamide)-methanol-copper 
(phosphato)-(\m-hydroxo)-tricosakis(\m-oxo)-dodecaoxo-dodeca-tungsten unknown 
solvate]
;
_cell_volume  11760.352
_exptl_crystal_colour 'blue'
_exptl_crystal_density_diffrn 2.031
_exptl_crystal_description 'Block'
_diffrn_ambient_temperature 173
_refine_special_details
;
The SQUEEZE/PLATON program has been used to model some disorder.

;
#These two values have been output from a single CSD field.
_refine_ls_R_factor_gt 0.0899
_refine_ls_wR_factor_gt 0.0899
_symmetry_cell_setting monoclinic
_symmetry_space_group_name_H-M 'P 21/n'
_symmetry_Int_Tables_number 14
loop_
_symmetry_equiv_pos_site_id
_symmetry_equiv_pos_as_xyz
1 x,y,z
2 1/2-x,1/2+y,1/2-z
3 -x,-y,-z
4 -1/2+x,-1/2-y,-1/2+z
_cell_length_a 16.1091(8)
_cell_length_b 24.0118(17)
_cell_length_c 30.5833(16)
_cell_angle_alpha 90
_cell_angle_beta 96.215(5)
_cell_angle_gamma 90
_cell_formula_units_Z 4
loop_
_atom_type_symbol
_atom_type_radius_bond
C 0.68
H 0.23
Cu 1.32
N 0.68
O 0.68
P 1.05
W 1.62
loop_
_atom_site_label
_atom_site_type_symbol
_atom_site_fract_x
_atom_site_fract_y
_atom_site_fract_z
W1 W 0.35467(3) 0.374475(15) 0.670321(13)
W2 W 0.49334(3) 0.242545(16) 0.835161(13)
W3 W 0.31287(3) 0.241043(16) 0.611494(13)
W4 W 0.44137(3) 0.374680(15) 0.777422(13)
W5 W 0.29153(3) 0.198109(16) 0.809026(13)
W6 W 0.23880(3) 0.330887(15) 0.751170(13)
W7 W 0.19750(3) 0.197057(16) 0.693186(14)
W8 W 0.45425(3) 0.118967(15) 0.780952(13)
W9 W 0.36081(3) 0.118304(15) 0.664873(13)
W10 W 0.61754(3) 0.289548(17) 0.747473(14)
W11 W 0.57849(3) 0.166276(17) 0.693308(15)
W12 W 0.53052(3) 0.289355(17) 0.639815(14)
P1 P 0.40467(13) 0.24434(7) 0.72277(6)
O1 O 0.5687(5) 0.3171(3) 0.5945(2)
O2 O 0.6066(4) 0.3149(2) 0.6889(2)
O3 O 0.4614(4) 0.3493(2) 0.65500(18)
O4 O 0.5823(5) 0.2164(2) 0.6443(2)
O5 O 0.4315(4) 0.2540(2) 0.61297(17)
O6 O 0.6477(6) 0.1190(3) 0.6820(2)
O7 O 0.2799(5) 0.2507(2) 0.55652(19)
O8 O 0.3336(5) 0.4304(2) 0.6372(2)
O9 O 0.7148(5) 0.3158(3) 0.7669(2)
O10 O 0.4083(5) 0.4104(2) 0.72132(19)
O11 O 0.5456(4) 0.3491(2) 0.75634(18)
O12 O 0.6490(5) 0.2164(3) 0.7294(2)
O13 O 0.4763(5) 0.1367(2) 0.6636(2)
O14 O 0.3304(5) 0.1608(3) 0.6120(2)
O15 O 0.3082(4) 0.3117(2) 0.63548(19)
O16 O 0.4807(5) 0.4279(2) 0.8096(2)
O17 O 0.3553(5) 0.0521(2) 0.64352(19)
O18 O 0.5760(5) 0.2537(2) 0.7985(2)
O19 O 0.5433(5) 0.1400(2) 0.74535(19)
O20 O 0.2084(4) 0.2235(2) 0.63544(18)
O21 O 0.2556(4) 0.3738(2) 0.69948(19)
O22 O 0.3309(5) 0.3734(2) 0.78393(19)
O23 O 0.4557(4) 0.3131(2) 0.81739(19)
O24 O 0.3917(4) 0.1068(2) 0.72581(19)
O25 O 0.2480(5) 0.1278(3) 0.6747(2)
O26 O 0.5098(4) 0.1632(2) 0.82610(18)
O27 O 0.1924(4) 0.2728(2) 0.7107(2)
O28 O 0.5438(5) 0.2509(2) 0.8879(2)
O29 O 0.1494(5) 0.3583(2) 0.7685(2)
O30 O 0.4870(5) 0.0550(2) 0.7977(2)
O31 O 0.0879(5) 0.1812(3) 0.6906(2)
O32 O 0.2635(5) 0.2734(3) 0.7952(2)
O33 O 0.3786(4) 0.2280(2) 0.84981(19)
O34 O 0.2280(4) 0.1777(2) 0.75441(18)
O35 O 0.3505(5) 0.1302(2) 0.8074(2)
O36 O 0.2282(6) 0.1821(3) 0.8437(2)
O37 O 0.4083(4) 0.2180(2) 0.76740(16)
O38 O 0.3719(4) 0.3038(2) 0.72757(18)
O39 O 0.4945(4) 0.2493(2) 0.70803(18)
O40 O 0.3455(4) 0.2139(2) 0.68894(17)
Cu1 Cu 0.55348(9) 0.75250(4) 0.98599(4)
N1 N 0.5944(5) 0.8252(3) 1.0130(2)
N2 N 0.7387(6) 0.9626(3) 1.1204(3)
N3 N 0.9149(6) 0.9638(3) 1.3420(2)
N4 N 1.0213(6) 0.8203(3) 1.4576(2)
N5 N 0.6838(5) 0.6619(4) 1.0902(3)
N6 N 0.3515(6) 0.8512(3) 0.9412(3)
O41 O 0.8592(5) 0.9189(3) 1.0979(2)
O42 O 0.6314(5) 1.0068(2) 1.1392(2)
O43 O 1.0428(5) 0.9281(3) 1.3212(2)
O44 O 0.8087(5) 1.0108(3) 1.36121(19)
O45 O 0.6110(5) 0.7095(2) 1.0353(2)
O46 O 0.4640(5) 0.7932(3) 0.9508(2)
O47 O 0.6539(6) 0.7584(3) 0.9381(3)
C1 C 0.6187(6) 0.8653(3) 0.9888(3)
H1 H 0.61050 0.86330 0.95760
C2 C 0.6563(7) 0.9105(4) 1.0097(3)
H2 H 0.67750 0.93810 0.99150
C3 C 0.6668(8) 0.9202(4) 1.0547(3)
C4 C 0.6240(8) 0.8820(4) 1.0784(4)
H3 H 0.61600 0.88860 1.10830
C5 C 0.5939(7) 0.8345(3) 1.0570(3)
H4 H 0.57140 0.80630 1.07400
C6 C 0.7027(8) 0.9670(4) 1.0765(3)
H5 H 0.65900 0.99610 1.07560
H6 H 0.74650 0.98110 1.05900
C7 C 0.7058(8) 0.9876(4) 1.1471(2)
C8 C 0.7386(8) 0.9880(4) 1.1955(2)
C9 C 0.8141(7) 0.9608(3) 1.2083(3)
C10 C 0.8507(7) 0.9367(4) 1.1779(2)
C11 C 0.8228(8) 0.9413(4) 1.1288(2)
C12 C 0.9369(8) 0.9165(4) 1.1860(4)
H7 H 0.96650 0.90350 1.16280
C13 C 0.9752(8) 0.9174(4) 1.2322(3)
H8 H 1.03000 0.90330 1.23990
C14 C 0.9297(8) 0.9392(4) 1.2638(4)
C15 C 0.8505(7) 0.9616(3) 1.2508(3)
C16 C 0.8063(8) 0.9874(4) 1.2864(2)
C17 C 0.7248(7) 1.0098(4) 1.2754(3)
H9 H 0.69510 1.02380 1.29830
C18 C 0.6856(8) 1.0119(4) 1.2304(3)
H10 H 0.63130 1.02690 1.22300
C19 C 0.8335(7) 0.9910(4) 1.3332(2)
C20 C 0.9675(8) 0.9432(4) 1.3128(4)
C21 C 0.9545(8) 0.9752(4) 1.3850(3)
H11 H 0.91740 0.99890 1.40090
H12 H 1.00690 0.99610 1.38270
C22 C 0.9755(9) 0.9192(5) 1.4124(4)
C23 C 0.9266(8) 0.8813(4) 1.4082(3)
H13 H 0.87590 0.88460 1.38930
C24 C 0.9470(7) 0.8305(4) 1.4325(3)
H14 H 0.90570 0.80210 1.43100
C25 C 1.0757(7) 0.8604(4) 1.4596(3)
H15 H 1.12820 0.85480 1.47630
C26 C 1.0603(8) 0.9119(4) 1.4379(3)
H16 H 1.10130 0.94050 1.43930
C27 C 0.6830(5) 0.7084(4) 1.0565(4)
C28 C 0.7615(6) 0.7368(5) 1.0461(4)
H17 H 0.80610 0.73020 1.06990
H18 H 0.75150 0.77690 1.04290
H19 H 0.77830 0.72190 1.01850
C29 C 0.6086(6) 0.6269(4) 1.0978(4)
H20 H 0.61900 0.60780 1.12620
H21 H 0.59850 0.59930 1.07420
H22 H 0.55950 0.65100 1.09800
C30 C 0.7664(9) 0.6515(5) 1.1150(4)
H23 H 0.76250 0.62010 1.13500
H24 H 0.78450 0.68480 1.13190
H25 H 0.80710 0.64290 1.09430
C31 C 0.3800(8) 0.8028(4) 1.0172(3)
H26 H 0.42090 0.77600 1.03080
H27 H 0.32350 0.78830 1.01870
H28 H 0.38630 0.83830 1.03290
C32 C 0.2713(7) 0.8755(4) 0.9526(3)
H29 H 0.25010 0.90220 0.92980
H30 H 0.28090 0.89470 0.98100
H31 H 0.23040 0.84570 0.95450
C33 C 0.3843(7) 0.8595(4) 0.8968(3)
H32 H 0.34790 0.88550 0.87900
H33 H 0.38520 0.82360 0.88150
H34 H 0.44110 0.87470 0.90120
C34 C 0.3941(8) 0.8112(4) 0.9708(3)
C35 C 0.6557(10) 0.7299(5) 0.8886(4)
H35 H 0.59840 0.72520 0.87470
H36 H 0.68320 0.69350 0.89160
H37 H 0.68660 0.75420 0.87030
Cu1C Cu 1.05348(9) 0.74750(4) 1.48599(4)
N4C N 0.5213(6) 0.6797(3) 0.9576(2)
#END
