
#######################################################################
#
#                 Cambridge Crystallographic Data Centre
#                                CCDC
#
#######################################################################
#
# If this CIF has been generated from an entry in the Cambridge
# Structural Database, then it will include bibliographic, chemical,
# crystal, experimental, refinement or atomic coordinate data resulting
# from the CCDC's data processing and validation procedures.
#
#######################################################################

data_CSD_CIF_HUVSIA
_audit_creation_date 2003-06-11
_audit_creation_method CSD-ConQuest-V1
_database_code_CSD HUVSIA
_database_code_depnum_ccdc_archive 'CCDC 197597'
_chemical_formula_sum 'C8 H8 K2 O8 Zn1'
_chemical_formula_moiety
;
(K1 1+)2n,n(C8 H8 O8 Zn1 2-)
;
_journal_coden_Cambridge 222
_journal_year 2003
_journal_page_first 936
_journal_name_full 'Dalton Trans. '
loop_
_publ_author_name
"T.A.Bowden"
"H.L.Milton"
"A.M.Z.Slawin"
"P.Lightfoot"
_chemical_name_systematic
;
catena-(Di-potassium bis(\m~2~-succinato)-zinc)
;
_cell_volume   1215.437
_exptl_crystal_colour 'colorless'
_exptl_crystal_density_diffrn 2.053
_exptl_special_details
;
isostructural with the Co analogue

;
_exptl_crystal_description 'platelet'
_diffrn_ambient_temperature 293
#These two values have been output from a single CSD field.
_refine_ls_R_factor_gt 0.0409
_refine_ls_wR_factor_gt 0.0409
_symmetry_cell_setting monoclinic
_symmetry_space_group_name_H-M 'I 2/a'
_symmetry_Int_Tables_number 15
loop_
_symmetry_equiv_pos_site_id
_symmetry_equiv_pos_as_xyz
1 x,y,z
2 1/2+x,1/2+y,1/2+z
3 1/2+x,-y,z
4 x,1/2-y,1/2+z
5 -x,-y,-z
6 -1/2-x,-1/2-y,-1/2-z
7 -1/2-x,y,-z
8 -x,-1/2+y,-1/2-z
_cell_length_a 7.402(3)
_cell_length_b 21.346(7)
_cell_length_c 8.013(3)
_cell_angle_alpha 90
_cell_angle_beta 106.26(3)
_cell_angle_gamma 90
_cell_formula_units_Z 4
loop_
_atom_type_symbol
_atom_type_radius_bond
C 0.68
H 0.23
K 1.33
O 0.68
Zn 1.45
loop_
_atom_site_label
_atom_site_type_symbol
_atom_site_fract_x
_atom_site_fract_y
_atom_site_fract_z
Zn1 Zn -0.25000 0.13831(4) 0.50000
K1 K 0.25000 0.05052(7) 0.00000
K2 K 0.75000 -0.03426(7) 0.50000
O1 O -0.4537(5) 0.19815(15) 0.4068(5)
O2 O -0.6259(5) 0.11615(18) 0.2924(5)
O3 O -0.1601(5) 0.07873(15) 0.3536(4)
O4 O -0.0437(5) 0.05197(16) 0.1403(4)
C1 C -0.6070(8) 0.1735(3) 0.3197(7)
C2 C -0.7715(9) 0.2155(3) 0.2505(9)
C3 C -0.1426(7) 0.0870(2) 0.1996(7)
C4 C -0.2503(9) 0.1398(3) 0.0935(6)
H1 H -0.859(8) 0.207(2) 0.320(7)
H2 H -0.825(7) 0.199(2) 0.129(7)
H3 H -0.210(6) 0.174(2) 0.154(6)
H4 H -0.385(7) 0.1412(19) 0.109(6)
C2E C -0.7285(9) 0.2845(3) 0.2495(9)
C1E C -0.8930(8) 0.3265(3) 0.1803(7)
O1E O -1.0463(5) 0.30185(15) 0.0932(5)
O2E O -0.8741(5) 0.38385(18) 0.2076(5)
H1E H -0.641(8) 0.293(2) 0.180(7)
H2E H -0.675(7) 0.301(2) 0.371(7)
C4F C -0.2497(9) 0.1398(3) -0.0935(6)
C3F C -0.3574(7) 0.0870(2) -0.1996(7)
O3F O -0.3399(5) 0.07873(15) -0.3536(4)
O4F O -0.4563(5) 0.05197(16) -0.1403(4)
H3F H -0.290(6) 0.174(2) -0.154(6)
H4F H -0.115(7) 0.1412(19) -0.109(6)
O1F O -0.0463(5) 0.19815(15) 0.5932(5)
O3F* O -0.3399(5) 0.07873(15) 0.6464(4)
Zn1C Zn -1.25000 0.36169(4) 0.00000
Zn1* Zn -0.25000 0.13831(4) -0.50000
#END
