
#######################################################################
#
#                 Cambridge Crystallographic Data Centre
#                                CCDC
#
#######################################################################
#
# If this CIF has been generated from an entry in the Cambridge
# Structural Database, then it will include bibliographic, chemical,
# crystal, experimental, refinement or atomic coordinate data resulting
# from the CCDC's data processing and validation procedures.
#
#######################################################################

data_CSD_CIF_HUWLUJ
_audit_creation_date 2020-09-07
_audit_creation_method CSD-ConQuest-V1
_database_code_CSD HUWLUJ
_database_code_depnum_ccdc_archive 'CCDC 1938529'
_chemical_formula_sum 'C48 H102 Fe7 N6 O103 V12'
_chemical_formula_moiety
;
(C48 H48 Fe7 O88 V12 6-)n,6(H4 N1 1+),15(H2 O1)
;
_journal_coden_Cambridge 9
_journal_volume 59
_journal_year 2020
_journal_page_first 12768
_journal_name_full 'Inorg.Chem. '
loop_
_publ_author_name
"Wan-Ting Jin"
"Chang Yuan"
"Lan Deng"
"Dong-Li An"
"Zhao-Hui Zhou"
_chemical_name_systematic
;
catena-[hexakis(ammonium) 
dodecakis(\m-malato)-decakis(\m-oxo)-dodecaoxo-hexa-aqua-tri-iron(ii)-tetra-ir
on(iii)-tetra-vanadium(iv)-octa-vanadium(v) pentadecahydrate]
;
_cell_volume   2926.754
_exptl_crystal_colour 'dark blue'
_exptl_crystal_density_diffrn 1.937
_exptl_crystal_description 'hexagonal'
_diffrn_ambient_temperature 193
_refine_special_details
;
Disordered water solvent molecules were not modelled and the disordered 
density was taken into account using the MASK/OLEX2 program.
;
#These two values have been output from a single CSD field.
_refine_ls_R_factor_gt 0.0436
_refine_ls_wR_factor_gt 0.0436
_symmetry_cell_setting hexagonal
_symmetry_space_group_name_H-M 'P 6/m'
_symmetry_Int_Tables_number 175
loop_
_symmetry_equiv_pos_site_id
_symmetry_equiv_pos_as_xyz
1 x,y,z
2 -y,x-y,z
3 -x+y,-x,z
4 -x,-y,z
5 y,-x+y,z
6 x-y,x,z
7 -x,-y,-z
8 y,-x+y,-z
9 x-y,x,-z
10 x,y,-z
11 -y,x-y,-z
12 -x+y,-x,-z
_cell_length_a 14.4915(4)
_cell_length_b 14.4915(4)
_cell_length_c 16.0927(4)
_cell_angle_alpha 90
_cell_angle_beta 90
_cell_angle_gamma 120
_cell_formula_units_Z 1
loop_
_atom_type_symbol
_atom_type_radius_bond
C 0.68
H 0.23
Fe 1.52
N 0.68
O 0.68
V 1.53
loop_
_atom_site_label
_atom_site_type_symbol
_atom_site_fract_x
_atom_site_fract_y
_atom_site_fract_z
V1 V 0.54365(4) 0.34854(4) 0.89356(3)
Fe1 Fe 0.66667 0.33333 0.70873(5)
Fe2 Fe 0.50000 0.00000 0.50000
O1 O 0.53748(16) 0.30140(18) 0.77508(13)
O2 O 0.38983(17) 0.2827(2) 0.87004(15)
O3 O 0.5721(2) 0.2127(2) 0.63096(15)
O4 O 0.2583(2) 0.1974(2) 0.77896(19)
O5 O 0.4385(3) 0.0557(3) 0.5941(2)
O6 O 0.3484(5) -0.1442(4) 0.50000
O7 O 0.66667 0.33333 0.8971(2)
O8 O 0.5082(2) 0.3038(3) 1.00000
O9 O 0.59529(19) 0.47525(18) 0.89387(15)
C1 C 0.4366(3) 0.2499(3) 0.7352(2)
H1 H 0.43792 0.29187 0.68697
C2 C 0.3528(3) 0.2415(3) 0.7974(2)
C3 C 0.4089(3) 0.1388(3) 0.7073(2)
H2 H 0.41410 0.10057 0.75484
H3 H 0.33537 0.10142 0.68872
C4 C 0.4771(3) 0.1354(3) 0.6393(2)
H4 H 0.357(3) -0.175(3) 0.5427(6)
N1 N 0.2693(4) 0.3307(4) 1.00000
H5 H 0.213(2) 0.271(2) 1.00000
H6 H 0.3071(16) 0.338(2) 0.9571(6)
H7 H 0.253(3) 0.380(3) 1.00000
H4I H 0.357(3) -0.175(3) 0.4573(6)
V1A V 0.65146(4) 0.19511(4) 0.89356(3)
Fe2A Fe 1.00000 0.50000 0.50000
O1A O 0.69860(16) 0.23608(18) 0.77508(13)
O2A O 0.71730(17) 0.10713(20) 0.87004(15)
O3A O 0.7873(2) 0.3594(2) 0.63096(15)
O4A O 0.8026(2) 0.0609(2) 0.77896(19)
O5A O 0.9443(3) 0.3828(3) 0.5941(2)
O6A O 1.1442(5) 0.4926(4) 0.50000
O8A O 0.6962(2) 0.2044(3) 1.00000
O9A O 0.52475(19) 0.12004(18) 0.89387(15)
C1A C 0.7501(3) 0.1867(3) 0.7352(2)
H1A H 0.70813 0.14604 0.68697
C2A C 0.7585(3) 0.1113(3) 0.7974(2)
C3A C 0.8612(3) 0.2701(3) 0.7073(2)
H2A H 0.89943 0.31353 0.75484
H3A H 0.89858 0.23395 0.68872
C4A C 0.8646(3) 0.3417(3) 0.6393(2)
H4A H 1.175(3) 0.532(3) 0.5427(6)
H4J H 1.175(3) 0.532(3) 0.4573(6)
V1B V 0.80489(4) 0.45635(4) 0.89356(3)
Fe2B Fe 0.50000 0.50000 0.50000
O1B O 0.76392(16) 0.46252(18) 0.77508(13)
O2B O 0.89287(17) 0.61017(20) 0.87004(15)
O3B O 0.6406(2) 0.4279(2) 0.63096(15)
O4B O 0.9391(2) 0.7417(2) 0.77896(19)
O5B O 0.6172(3) 0.5615(3) 0.5941(2)
O6B O 0.5074(5) 0.6516(4) 0.50000
O8B O 0.7956(2) 0.4918(3) 1.00000
O9B O 0.87996(19) 0.40471(18) 0.89387(15)
C1B C 0.8133(3) 0.5634(3) 0.7352(2)
H1B H 0.85396 0.56208 0.68697
C2B C 0.8887(3) 0.6472(3) 0.7974(2)
C3B C 0.7299(3) 0.5911(3) 0.7073(2)
H2B H 0.68647 0.58590 0.75484
H3B H 0.76605 0.66463 0.68872
C4B C 0.6583(3) 0.5229(3) 0.6393(2)
H4B H 0.468(3) 0.643(3) 0.5427(6)
H4K H 0.468(3) 0.643(3) 0.4573(6)
V1C V 0.45635(4) -0.34854(4) 0.89356(3)
Fe1C Fe 0.33333 -0.33333 0.70873(5)
O1C O 0.46252(16) -0.30140(18) 0.77508(13)
O2C O 0.61017(17) -0.2827(2) 0.87004(15)
O3C O 0.4279(2) -0.2127(2) 0.63096(15)
O4C O 0.7417(2) -0.1974(2) 0.77896(19)
O5C O 0.5615(3) -0.0557(3) 0.5941(2)
O6C O 0.6516(5) 0.1442(4) 0.50000
O7C O 0.33333 -0.33333 0.8971(2)
O8C O 0.4918(2) -0.3038(3) 1.00000
O9C O 0.40471(19) -0.47525(18) 0.89387(15)
C1C C 0.5634(3) -0.2499(3) 0.7352(2)
H1C H 0.56208 -0.29187 0.68697
C2C C 0.6472(3) -0.2415(3) 0.7974(2)
C3C C 0.5911(3) -0.1388(3) 0.7073(2)
H2C H 0.58590 -0.10057 0.75484
H3C H 0.66463 -0.10142 0.68872
C4C C 0.5229(3) -0.1354(3) 0.6393(2)
H4C H 0.643(3) 0.175(3) 0.5427(6)
H4F H 0.643(3) 0.175(3) 0.4573(6)
V1D V 0.34854(4) -0.19511(4) 0.89356(3)
O1D O 0.30140(16) -0.23608(18) 0.77508(13)
O2D O 0.28270(17) -0.10713(20) 0.87004(15)
O3D O 0.2127(2) -0.3594(2) 0.63096(15)
O4D O 0.1974(2) -0.0609(2) 0.77896(19)
O5D O 0.0557(3) -0.3828(3) 0.5941(2)
O8D O 0.3038(2) -0.2044(3) 1.00000
O9D O 0.47525(19) -0.12004(18) 0.89387(15)
C1D C 0.2499(3) -0.1867(3) 0.7352(2)
H1D H 0.29187 -0.14604 0.68697
C2D C 0.2415(3) -0.1113(3) 0.7974(2)
C3D C 0.1388(3) -0.2701(3) 0.7073(2)
H2D H 0.10057 -0.31353 0.75484
H3D H 0.10142 -0.23395 0.68872
C4D C 0.1354(3) -0.3417(3) 0.6393(2)
V1E V 0.19511(4) -0.45635(4) 0.89356(3)
O1E O 0.23608(16) -0.46252(18) 0.77508(13)
O2E O 0.10713(17) -0.61017(20) 0.87004(15)
O3E O 0.3594(2) -0.4279(2) 0.63096(15)
O4E O 0.0609(2) -0.7417(2) 0.77896(19)
O5E O 0.3828(3) -0.5615(3) 0.5941(2)
O8E O 0.2044(2) -0.4918(3) 1.00000
O9E O 0.12004(19) -0.40471(18) 0.89387(15)
C1E C 0.1867(3) -0.5634(3) 0.7352(2)
H1E H 0.14604 -0.56208 0.68697
C2E C 0.1113(3) -0.6472(3) 0.7974(2)
C3E C 0.2701(3) -0.5911(3) 0.7073(2)
H2E H 0.31353 -0.58590 0.75484
H3E H 0.23395 -0.66463 0.68872
C4E C 0.3417(3) -0.5229(3) 0.6393(2)
V1F V 0.45635(4) -0.34854(4) 0.10644(3)
Fe1F Fe 0.33333 -0.33333 0.29127(5)
O1F O 0.46252(16) -0.30140(18) 0.22492(13)
O2F O 0.61017(17) -0.2827(2) 0.12996(15)
O3F O 0.4279(2) -0.2127(2) 0.36904(15)
O4F O 0.7417(2) -0.1974(2) 0.22104(19)
O5F O 0.5615(3) -0.0557(3) 0.4059(2)
O7F O 0.33333 -0.33333 0.1029(2)
O9F O 0.40471(19) -0.47525(18) 0.10613(15)
C1F C 0.5634(3) -0.2499(3) 0.2648(2)
H1F H 0.56208 -0.29187 0.31303
C2F C 0.6472(3) -0.2415(3) 0.2026(2)
C3F C 0.5911(3) -0.1388(3) 0.2927(2)
H2F H 0.58590 -0.10057 0.24516
H3F H 0.66463 -0.10142 0.31128
C4F C 0.5229(3) -0.1354(3) 0.3607(2)
V1G V 0.34854(4) -0.19511(4) 0.10644(3)
O1G O 0.30140(16) -0.23608(18) 0.22492(13)
O2G O 0.28270(17) -0.10713(20) 0.12996(15)
O3G O 0.2127(2) -0.3594(2) 0.36904(15)
O4G O 0.1974(2) -0.0609(2) 0.22104(19)
O5G O 0.0557(3) -0.3828(3) 0.4059(2)
O9G O 0.47525(19) -0.12004(18) 0.10613(15)
C1G C 0.2499(3) -0.1867(3) 0.2648(2)
H1G H 0.29187 -0.14604 0.31303
C2G C 0.2415(3) -0.1113(3) 0.2026(2)
C3G C 0.1388(3) -0.2701(3) 0.2927(2)
H2G H 0.10057 -0.31353 0.24516
H3G H 0.10142 -0.23395 0.31128
C4G C 0.1354(3) -0.3417(3) 0.3607(2)
V1H V 0.19511(4) -0.45635(4) 0.10644(3)
O1H O 0.23608(16) -0.46252(18) 0.22492(13)
O2H O 0.10713(17) -0.61017(20) 0.12996(15)
O3H O 0.3594(2) -0.4279(2) 0.36904(15)
O4H O 0.0609(2) -0.7417(2) 0.22104(19)
O5H O 0.3828(3) -0.5615(3) 0.4059(2)
O9H O 0.12004(19) -0.40471(18) 0.10613(15)
C1H C 0.1867(3) -0.5634(3) 0.2648(2)
H1H H 0.14604 -0.56208 0.31303
C2H C 0.1113(3) -0.6472(3) 0.2026(2)
C3H C 0.2701(3) -0.5911(3) 0.2927(2)
H2H H 0.31353 -0.58590 0.24516
H3H H 0.23395 -0.66463 0.31128
C4H C 0.3417(3) -0.5229(3) 0.3607(2)
V1I V 0.54365(4) 0.34854(4) 0.10644(3)
Fe1I Fe 0.66667 0.33333 0.29127(5)
O1I O 0.53748(16) 0.30140(18) 0.22492(13)
O2I O 0.38983(17) 0.2827(2) 0.12996(15)
O3I O 0.5721(2) 0.2127(2) 0.36904(15)
O4I O 0.2583(2) 0.1974(2) 0.22104(19)
O5I O 0.4385(3) 0.0557(3) 0.4059(2)
O7I O 0.66667 0.33333 0.1029(2)
O9I O 0.59529(19) 0.47525(18) 0.10613(15)
C1I C 0.4366(3) 0.2499(3) 0.2648(2)
H1I H 0.43792 0.29187 0.31303
C2I C 0.3528(3) 0.2415(3) 0.2026(2)
C3I C 0.4089(3) 0.1388(3) 0.2927(2)
H2I H 0.41410 0.10057 0.24516
H3I H 0.33537 0.10142 0.31128
C4I C 0.4771(3) 0.1354(3) 0.3607(2)
V1J V 0.65146(4) 0.19511(4) 0.10644(3)
O1J O 0.69860(16) 0.23608(18) 0.22492(13)
O2J O 0.71730(17) 0.10713(20) 0.12996(15)
O3J O 0.7873(2) 0.3594(2) 0.36904(15)
O4J O 0.8026(2) 0.0609(2) 0.22104(19)
O5J O 0.9443(3) 0.3828(3) 0.4059(2)
O9J O 0.52475(19) 0.12004(18) 0.10613(15)
C1J C 0.7501(3) 0.1867(3) 0.2648(2)
H1J H 0.70813 0.14604 0.31303
C2J C 0.7585(3) 0.1113(3) 0.2026(2)
C3J C 0.8612(3) 0.2701(3) 0.2927(2)
H2J H 0.89943 0.31353 0.24516
H3J H 0.89858 0.23395 0.31128
C4J C 0.8646(3) 0.3417(3) 0.3607(2)
V1K V 0.80489(4) 0.45635(4) 0.10644(3)
O1K O 0.76392(16) 0.46252(18) 0.22492(13)
O2K O 0.89287(17) 0.61017(20) 0.12996(15)
O3K O 0.6406(2) 0.4279(2) 0.36904(15)
O4K O 0.9391(2) 0.7417(2) 0.22104(19)
O5K O 0.6172(3) 0.5615(3) 0.4059(2)
O9K O 0.87996(19) 0.40471(18) 0.10613(15)
C1K C 0.8133(3) 0.5634(3) 0.2648(2)
H1K H 0.85396 0.56208 0.31303
C2K C 0.8887(3) 0.6472(3) 0.2026(2)
C3K C 0.7299(3) 0.5911(3) 0.2927(2)
H2K H 0.68647 0.58590 0.24516
H3K H 0.76605 0.66463 0.31128
C4K C 0.6583(3) 0.5229(3) 0.3607(2)
O6D O 0.8558(5) 0.5074(4) 0.50000
H4D H 0.825(3) 0.468(3) 0.5427(6)
H4G H 0.825(3) 0.468(3) 0.4573(6)
O6E O 0.4926(5) 0.3484(4) 0.50000
H4E H 0.532(3) 0.357(3) 0.5427(6)
H4H H 0.532(3) 0.357(3) 0.4573(6)
V1F* V 0.45635(4) -0.34854(4) 1.10644(3)
V1G* V 0.34854(4) -0.19511(4) 1.10644(3)
V1H* V 0.19511(4) -0.45635(4) 1.10644(3)
V1I* V 0.54365(4) 0.34854(4) 1.10644(3)
V1J* V 0.65146(4) 0.19511(4) 1.10644(3)
V1K* V 0.80489(4) 0.45635(4) 1.10644(3)
Fe2A* Fe 0.00000 -0.50000 0.50000
Fe2B* Fe 0.50000 -0.50000 0.50000
O5D* O 1.0557(3) 0.6172(3) 0.5941(2)
O5E* O 0.3828(3) 0.4385(3) 0.5941(2)
O5G* O 1.0557(3) 0.6172(3) 0.4059(2)
O5H* O 0.3828(3) 0.4385(3) 0.4059(2)
O8* O 0.5082(2) 0.3038(3) 0.00000
O8A* O 0.6962(2) 0.2044(3) 0.00000
O8B* O 0.7956(2) 0.4918(3) 0.00000
O8C* O 0.4918(2) -0.3038(3) 0.00000
O8D* O 0.3038(2) -0.2044(3) 0.00000
O8E* O 0.2044(2) -0.4918(3) 0.00000
H6I H 0.3071(16) 0.338(2) 1.0429(6)
#END
