
#######################################################################
#
#                 Cambridge Crystallographic Data Centre
#                                CCDC
#
#######################################################################
#
# If this CIF has been generated from an entry in the Cambridge
# Structural Database, then it will include bibliographic, chemical,
# crystal, experimental, refinement or atomic coordinate data resulting
# from the CCDC's data processing and validation procedures.
#
#######################################################################

data_CSD_CIF_HUWMAQ
_audit_creation_date 2020-09-07
_audit_creation_method CSD-ConQuest-V1
_database_code_CSD HUWMAQ
_database_code_depnum_ccdc_archive 'CCDC 2005349'
_chemical_formula_sum 'C48 H88 Cu3 Fe4 K6 O108 V12'
_chemical_formula_moiety
;
(C48 H48 Cu3 Fe4 O88 V12 6-)n,6(K1 1+),20(H2 O1)
;
_journal_coden_Cambridge 9
_journal_volume 59
_journal_year 2020
_journal_page_first 12768
_journal_name_full 'Inorg.Chem. '
loop_
_publ_author_name
"Wan-Ting Jin"
"Chang Yuan"
"Lan Deng"
"Dong-Li An"
"Zhao-Hui Zhou"
_chemical_name_systematic
;
catena-[hexa-potassium 
dodecakis(\m-malato)-decakis(\m-oxo)-dodecaoxo-hexa-aqua-tri-copper(ii)-tetra-
iron(iii)-tetra-vanadium(iv)-octa-vanadium(v) icosahydrate]
;
_cell_volume   2857.275
_exptl_crystal_colour 'dark blue'
_exptl_crystal_density_diffrn 2.123
_exptl_crystal_description 'block'
_diffrn_ambient_temperature 193
_refine_special_details
;
Disordered water solvent molecules were not modelled and the disordered 
density was taken into account using the MASK/OLEX2 program.
;
#These two values have been output from a single CSD field.
_refine_ls_R_factor_gt 0.0522
_refine_ls_wR_factor_gt 0.0522
_symmetry_cell_setting hexagonal
_symmetry_space_group_name_H-M 'P 6/m'
_symmetry_Int_Tables_number 175
loop_
_symmetry_equiv_pos_site_id
_symmetry_equiv_pos_as_xyz
1 x,y,z
2 -y,x-y,z
3 -x+y,-x,z
4 -x,-y,z
5 y,-x+y,z
6 x-y,x,z
7 -x,-y,-z
8 y,-x+y,-z
9 x-y,x,-z
10 x,y,-z
11 -y,x-y,-z
12 -x+y,-x,-z
_cell_length_a 14.3904(6)
_cell_length_b 14.3904(6)
_cell_length_c 15.9322(5)
_cell_angle_alpha 90
_cell_angle_beta 90
_cell_angle_gamma 120
_cell_formula_units_Z 1
loop_
_atom_type_symbol
_atom_type_radius_bond
C 0.68
H 0.23
Cu 1.32
Fe 1.52
K 2.03
O 0.68
V 1.53
loop_
_atom_site_label
_atom_site_type_symbol
_atom_site_fract_x
_atom_site_fract_y
_atom_site_fract_z
Cu1 Cu 0.50000 1.00000 0.00000
O1 O 0.5603(3) 0.9494(3) 0.0891(2)
O2 O 0.6716(4) 1.1582(4) 0.00000
C1 C 0.5216(3) 0.8688(3) 0.1354(3)
H1 H 0.68383 1.19140 -0.04802
O3 O 0.4257(2) 0.7898(2) 0.12807(17)
C2 C 0.5923(4) 0.8678(4) 0.2034(3)
C3 C 0.5665(3) 0.7565(4) 0.2333(3)
H2 H 0.58743 0.90794 0.25205
H3 H 0.66740 0.90660 0.18324
O4 O 0.4647(2) 0.7024(2) 0.27281(17)
C4 C 0.6519(4) 0.7681(4) 0.2960(3)
H4 H 0.56669 0.71345 0.18407
V1 V 0.45967(6) 0.65539(7) 0.39243(4)
O5 O 0.7475(3) 0.8144(3) 0.2782(2)
O6 O 0.6139(3) 0.7230(3) 0.3686(2)
O7 O 0.33333 0.66667 0.3958(3)
O8 O 0.4944(4) 0.6998(5) 0.50000
O9 O 0.4104(3) 0.5284(3) 0.3926(2)
Fe1 Fe 0.33333 0.66667 0.20738(6)
K1 K 0.3036(3) 0.3494(2) 0.50000
H1I H 0.68383 1.19140 0.04802
Cu1A Cu 0.00000 0.50000 0.00000
O1A O 0.0506(3) 0.6109(3) 0.0891(2)
O2A O -0.1582(4) 0.5134(4) 0.00000
C1A C 0.1312(3) 0.6528(3) 0.1354(3)
H1A H -0.19140 0.49244 -0.04802
O3A O 0.2102(2) 0.6359(2) 0.12807(17)
C2A C 0.1322(4) 0.7245(4) 0.2034(3)
C3A C 0.2435(3) 0.8100(4) 0.2333(3)
H2A H 0.09206 0.67949 0.25205
H3A H 0.09340 0.76081 0.18324
O4A O 0.2976(2) 0.7623(2) 0.27281(17)
C4A C 0.2319(4) 0.8838(4) 0.2960(3)
H4A H 0.28655 0.85324 0.18407
V1A V 0.34461(6) 0.80428(7) 0.39243(4)
O5A O 0.1856(3) 0.9331(3) 0.2782(2)
O6A O 0.2770(3) 0.8909(3) 0.3686(2)
O8A O 0.3002(4) 0.7946(5) 0.50000
O9A O 0.4716(3) 0.8820(3) 0.3926(2)
H1J H -0.19140 0.49244 0.04802
Cu1B Cu 0.50000 0.50000 0.00000
O1B O 0.3891(3) 0.4397(3) 0.0891(2)
O2B O 0.4866(4) 0.3284(4) 0.00000
C1B C 0.3472(3) 0.4784(3) 0.1354(3)
H1B H 0.50756 0.31617 -0.04802
O3B O 0.3641(2) 0.5743(2) 0.12807(17)
C2B C 0.2755(4) 0.4077(4) 0.2034(3)
C3B C 0.1900(3) 0.4335(4) 0.2333(3)
H2B H 0.32051 0.41257 0.25205
H3B H 0.23919 0.33260 0.18324
O4B O 0.2377(2) 0.5353(2) 0.27281(17)
C4B C 0.1162(4) 0.3481(4) 0.2960(3)
H4B H 0.14676 0.43331 0.18407
V1B V 0.19572(6) 0.54033(7) 0.39243(4)
O5B O 0.0669(3) 0.2525(3) 0.2782(2)
O6B O 0.1091(3) 0.3861(3) 0.3686(2)
O8B O 0.2054(4) 0.5056(5) 0.50000
O9B O 0.1180(3) 0.5896(3) 0.3926(2)
H1K H 0.50756 0.31617 0.04802
O1C O 0.4397(3) 1.0506(3) 0.0891(2)
O2C O 0.3284(4) 0.8418(4) 0.00000
C1C C 0.4784(3) 1.1312(3) 0.1354(3)
H1C H 0.31617 0.80860 -0.04802
O3C O 0.5743(2) 1.2102(2) 0.12807(17)
C2C C 0.4077(4) 1.1322(4) 0.2034(3)
C3C C 0.4335(3) 1.2435(4) 0.2333(3)
H2C H 0.41257 1.09206 0.25205
H3C H 0.33260 1.09340 0.18324
O4C O 0.5353(2) 1.2976(2) 0.27281(17)
C4C C 0.3481(4) 1.2319(4) 0.2960(3)
H4C H 0.43331 1.28655 0.18407
V1C V 0.54033(6) 1.34461(7) 0.39243(4)
O5C O 0.2525(3) 1.1856(3) 0.2782(2)
O6C O 0.3861(3) 1.2770(3) 0.3686(2)
O7C O 0.66667 1.33333 0.3958(3)
O8C O 0.5056(4) 1.3002(5) 0.50000
O9C O 0.5896(3) 1.4716(3) 0.3926(2)
Fe1C Fe 0.66667 1.33333 0.20738(6)
H1F H 0.31617 0.80860 0.04802
O1D O -0.0506(3) 0.3891(3) 0.0891(2)
O2D O 0.1582(4) 0.4866(4) 0.00000
C1D C -0.1312(3) 0.3472(3) 0.1354(3)
H1D H 0.19140 0.50756 -0.04802
O3D O -0.2102(2) 0.3641(2) 0.12807(17)
C2D C -0.1322(4) 0.2755(4) 0.2034(3)
C3D C -0.2435(3) 0.1900(4) 0.2333(3)
H2D H -0.09206 0.32051 0.25205
H3D H -0.09340 0.23919 0.18324
O4D O -0.2976(2) 0.2377(2) 0.27281(17)
C4D C -0.2319(4) 0.1162(4) 0.2960(3)
H4D H -0.28655 0.14676 0.18407
V1D V -0.34461(6) 0.19572(7) 0.39243(4)
O5D O -0.1856(3) 0.0669(3) 0.2782(2)
O6D O -0.2770(3) 0.1091(3) 0.3686(2)
O7C* O -0.33333 0.33333 0.3958(3)
O8D O -0.3002(4) 0.2054(5) 0.50000
O9D O -0.4716(3) 0.1180(3) 0.3926(2)
Fe1C* Fe -0.33333 0.33333 0.20738(6)
H1G H 0.19140 0.50756 0.04802
O1E O 0.6109(3) 0.5603(3) 0.0891(2)
O2E O 0.5134(4) 0.6716(4) 0.00000
C1E C 0.6528(3) 0.5216(3) 0.1354(3)
H1E H 0.49244 0.68383 -0.04802
O3E O 0.6359(2) 0.4257(2) 0.12807(17)
C2E C 0.7245(4) 0.5923(4) 0.2034(3)
C3E C 0.8100(3) 0.5665(4) 0.2333(3)
H2E H 0.67949 0.58743 0.25205
H3E H 0.76081 0.66740 0.18324
O4E O 0.7623(2) 0.4647(2) 0.27281(17)
C4E C 0.8838(4) 0.6519(4) 0.2960(3)
H4E H 0.85324 0.56669 0.18407
V1E V 0.80428(6) 0.45967(7) 0.39243(4)
O5E O 0.9331(3) 0.7475(3) 0.2782(2)
O6E O 0.8909(3) 0.6139(3) 0.3686(2)
O7C** O 0.66667 0.33333 0.3958(3)
O8E O 0.7946(4) 0.4944(5) 0.50000
O9E O 0.8820(3) 0.4104(3) 0.3926(2)
Fe1C** Fe 0.66667 0.33333 0.20738(6)
H1H H 0.49244 0.68383 0.04802
O1F O 0.4397(3) 1.0506(3) -0.0891(2)
C1F C 0.4784(3) 1.1312(3) -0.1354(3)
O3F O 0.5743(2) 1.2102(2) -0.12807(17)
C2F C 0.4077(4) 1.1322(4) -0.2034(3)
C3F C 0.4335(3) 1.2435(4) -0.2333(3)
H2F H 0.41257 1.09206 -0.25205
H3F H 0.33260 1.09340 -0.18324
O4F O 0.5353(2) 1.2976(2) -0.27281(17)
C4F C 0.3481(4) 1.2319(4) -0.2960(3)
H4F H 0.43331 1.28655 -0.18407
V1F V 0.54033(6) 1.34461(7) -0.39243(4)
O5F O 0.2525(3) 1.1856(3) -0.2782(2)
O6F O 0.3861(3) 1.2770(3) -0.3686(2)
O9F O 0.5896(3) 1.4716(3) -0.3926(2)
O1G O -0.0506(3) 0.3891(3) -0.0891(2)
C1G C -0.1312(3) 0.3472(3) -0.1354(3)
O3G O -0.2102(2) 0.3641(2) -0.12807(17)
C2G C -0.1322(4) 0.2755(4) -0.2034(3)
C3G C -0.2435(3) 0.1900(4) -0.2333(3)
H2G H -0.09206 0.32051 -0.25205
H3G H -0.09340 0.23919 -0.18324
O4G O -0.2976(2) 0.2377(2) -0.27281(17)
C4G C -0.2319(4) 0.1162(4) -0.2960(3)
H4G H -0.28655 0.14676 -0.18407
V1G V -0.34461(6) 0.19572(7) -0.39243(4)
O5G O -0.1856(3) 0.0669(3) -0.2782(2)
O6G O -0.2770(3) 0.1091(3) -0.3686(2)
O9G O -0.4716(3) 0.1180(3) -0.3926(2)
O1H O 0.6109(3) 0.5603(3) -0.0891(2)
C1H C 0.6528(3) 0.5216(3) -0.1354(3)
O3H O 0.6359(2) 0.4257(2) -0.12807(17)
C2H C 0.7245(4) 0.5923(4) -0.2034(3)
C3H C 0.8100(3) 0.5665(4) -0.2333(3)
H2H H 0.67949 0.58743 -0.25205
H3H H 0.76081 0.66740 -0.18324
O4H O 0.7623(2) 0.4647(2) -0.27281(17)
C4H C 0.8838(4) 0.6519(4) -0.2960(3)
H4H H 0.85324 0.56669 -0.18407
V1H V 0.80428(6) 0.45967(7) -0.39243(4)
O5H O 0.9331(3) 0.7475(3) -0.2782(2)
O6H O 0.8909(3) 0.6139(3) -0.3686(2)
O9H O 0.8820(3) 0.4104(3) -0.3926(2)
O1I O 0.5603(3) 0.9494(3) -0.0891(2)
C1I C 0.5216(3) 0.8688(3) -0.1354(3)
O3I O 0.4257(2) 0.7898(2) -0.12807(17)
C2I C 0.5923(4) 0.8678(4) -0.2034(3)
C3I C 0.5665(3) 0.7565(4) -0.2333(3)
H2I H 0.58743 0.90794 -0.25205
H3I H 0.66740 0.90660 -0.18324
O4I O 0.4647(2) 0.7024(2) -0.27281(17)
C4I C 0.6519(4) 0.7681(4) -0.2960(3)
H4I H 0.56669 0.71345 -0.18407
V1I V 0.45967(6) 0.65539(7) -0.39243(4)
O5I O 0.7475(3) 0.8144(3) -0.2782(2)
O6I O 0.6139(3) 0.7230(3) -0.3686(2)
O9I O 0.4104(3) 0.5284(3) -0.3926(2)
O1J O 0.0506(3) 0.6109(3) -0.0891(2)
C1J C 0.1312(3) 0.6528(3) -0.1354(3)
O3J O 0.2102(2) 0.6359(2) -0.12807(17)
C2J C 0.1322(4) 0.7245(4) -0.2034(3)
C3J C 0.2435(3) 0.8100(4) -0.2333(3)
H2J H 0.09206 0.67949 -0.25205
H3J H 0.09340 0.76081 -0.18324
O4J O 0.2976(2) 0.7623(2) -0.27281(17)
C4J C 0.2319(4) 0.8838(4) -0.2960(3)
H4J H 0.28655 0.85324 -0.18407
V1J V 0.34461(6) 0.80428(7) -0.39243(4)
O5J O 0.1856(3) 0.9331(3) -0.2782(2)
O6J O 0.2770(3) 0.8909(3) -0.3686(2)
O9J O 0.4716(3) 0.8820(3) -0.3926(2)
O1K O 0.3891(3) 0.4397(3) -0.0891(2)
C1K C 0.3472(3) 0.4784(3) -0.1354(3)
O3K O 0.3641(2) 0.5743(2) -0.12807(17)
C2K C 0.2755(4) 0.4077(4) -0.2034(3)
C3K C 0.1900(3) 0.4335(4) -0.2333(3)
H2K H 0.32051 0.41257 -0.25205
H3K H 0.23919 0.33260 -0.18324
O4K O 0.2377(2) 0.5353(2) -0.27281(17)
C4K C 0.1162(4) 0.3481(4) -0.2960(3)
H4K H 0.14676 0.43331 -0.18407
V1K V 0.19572(6) 0.54033(7) -0.39243(4)
O5K O 0.0669(3) 0.2525(3) -0.2782(2)
O6K O 0.1091(3) 0.3861(3) -0.3686(2)
O9K O 0.1180(3) 0.5896(3) -0.3926(2)
O3C* O -0.4257(2) 0.2102(2) 0.12807(17)
O3C** O 0.5743(2) 0.2102(2) 0.12807(17)
O3D* O 0.7898(2) 0.3641(2) 0.12807(17)
O3D** O 0.7898(2) 1.3641(2) 0.12807(17)
O3E* O -0.3641(2) 0.4257(2) 0.12807(17)
O3E** O 0.6359(2) 1.4257(2) 0.12807(17)
O4C* O -0.4647(2) 0.2976(2) 0.27281(17)
O4C** O 0.5353(2) 0.2976(2) 0.27281(17)
O4D* O 0.7024(2) 0.2377(2) 0.27281(17)
O4D** O 0.7024(2) 1.2377(2) 0.27281(17)
O4E* O -0.2377(2) 0.4647(2) 0.27281(17)
O4E** O 0.7623(2) 1.4647(2) 0.27281(17)
V1C* V -0.45967(6) 0.34461(7) 0.39243(4)
V1C** V 0.54033(6) 0.34461(7) 0.39243(4)
V1D* V 0.65539(6) 0.19572(7) 0.39243(4)
V1D** V 0.65539(6) 1.19572(7) 0.39243(4)
V1E* V -0.19572(6) 0.45967(7) 0.39243(4)
V1E** V 0.80428(6) 1.45967(7) 0.39243(4)
V1F* V 0.54033(6) 1.34461(7) 0.60757(4)
V1G* V -0.34461(6) 0.19572(7) 0.60757(4)
V1H* V 0.80428(6) 0.45967(7) 0.60757(4)
V1I* V 0.45967(6) 0.65539(7) 0.60757(4)
V1J* V 0.34461(6) 0.80428(7) 0.60757(4)
V1K* V 0.19572(6) 0.54033(7) 0.60757(4)
O7F O -0.33333 0.33333 -0.3958(3)
O7F* O 0.66667 0.33333 -0.3958(3)
O7F** O 0.66667 1.33333 -0.3958(3)
O7I O 0.33333 0.66667 -0.3958(3)
O8* O 0.4944(4) 0.6998(5) -0.50000
O8A* O 0.3002(4) 0.7946(5) -0.50000
O8B* O 0.2054(4) 0.5056(5) -0.50000
O8C* O 0.5056(4) 1.3002(5) -0.50000
O8D* O -0.3002(4) 0.2054(5) -0.50000
O8E* O 0.7946(4) 0.4944(5) -0.50000
Fe1F Fe -0.33333 0.33333 -0.20738(6)
Fe1F* Fe 0.66667 0.33333 -0.20738(6)
Fe1F** Fe 0.66667 1.33333 -0.20738(6)
Fe1I Fe 0.33333 0.66667 -0.20738(6)
#END
