
#######################################################################
#
#                 Cambridge Crystallographic Data Centre
#                                CCDC
#
#######################################################################
#
# If this CIF has been generated from an entry in the Cambridge
# Structural Database, then it will include bibliographic, chemical,
# crystal, experimental, refinement or atomic coordinate data resulting
# from the CCDC's data processing and validation procedures.
#
#######################################################################

data_CSD_CIF_HUWMEU
_audit_creation_date 2020-09-07
_audit_creation_method CSD-ConQuest-V1
_database_code_CSD HUWMEU
_database_code_depnum_ccdc_archive 'CCDC 2005350'
_chemical_formula_sum 'C48 H74 Fe4 K6 O101 V12 Zn3'
_chemical_formula_moiety
;
(C48 H48 Fe4 O88 V12 Zn3 6-)n,6(K1 1+),13(H2 O1)
;
_journal_coden_Cambridge 9
_journal_volume 59
_journal_year 2020
_journal_page_first 12768
_journal_name_full 'Inorg.Chem. '
loop_
_publ_author_name
"Wan-Ting Jin"
"Chang Yuan"
"Lan Deng"
"Dong-Li An"
"Zhao-Hui Zhou"
_chemical_name_systematic
;
catena-[hexa-potassium 
dodecakis(\m-malato)-decakis(\m-oxo)-dodecaoxo-hexa-aqua-tri-zinc(ii)-tetra-ir
on(iii)-tetra-vanadium(iv)-octa-vanadium(v) tridecahydrate]
;
_cell_volume   2908.451
_exptl_crystal_colour 'dark blue'
_exptl_crystal_density_diffrn 2.007
_exptl_crystal_description 'hexagonal'
_diffrn_ambient_temperature 193
_refine_special_details
;
Disordered water solvent molecules were not modelled and the disordered 
density was taken into account using the MASK/OLEX2 program.
;
#These two values have been output from a single CSD field.
_refine_ls_R_factor_gt 0.0559
_refine_ls_wR_factor_gt 0.0559
_symmetry_cell_setting hexagonal
_symmetry_space_group_name_H-M 'P 6/m'
_symmetry_Int_Tables_number 175
loop_
_symmetry_equiv_pos_site_id
_symmetry_equiv_pos_as_xyz
1 x,y,z
2 -y,x-y,z
3 -x+y,-x,z
4 -x,-y,z
5 y,-x+y,z
6 x-y,x,z
7 -x,-y,-z
8 y,-x+y,-z
9 x-y,x,-z
10 x,y,-z
11 -y,x-y,-z
12 -x+y,-x,-z
_cell_length_a 14.4380(5)
_cell_length_b 14.4380(5)
_cell_length_c 16.1108(5)
_cell_angle_alpha 90
_cell_angle_beta 90
_cell_angle_gamma 120
_cell_formula_units_Z 1
loop_
_atom_type_symbol
_atom_type_radius_bond
C 0.68
H 0.23
Fe 1.52
K 2.03
O 0.68
V 1.53
Zn 1.22
loop_
_atom_site_label
_atom_site_type_symbol
_atom_site_fract_x
_atom_site_fract_y
_atom_site_fract_z
Zn1 Zn 0.00000 -0.50000 0.50000
Fe1 Fe 0.33333 -0.33333 0.70890(6)
V1 V 0.34726(7) -0.19503(7) 0.89348(5)
O1 O 0.33333 -0.33333 0.8968(3)
O2 O 0.3007(3) -0.2358(3) 0.77498(19)
O3 O 0.2118(3) -0.3605(3) 0.6307(2)
O4 O -0.1454(4) -0.4968(5) 0.50000
O5 O 0.3031(5) -0.2043(4) 1.00000
O6 O 0.2806(3) -0.1074(3) 0.8701(2)
O7 O 0.0532(3) -0.3845(3) 0.5930(2)
O8 O 0.1911(3) -0.0639(3) 0.7810(3)
O9 O 0.4737(3) -0.1190(3) 0.8941(2)
C1 C 0.2372(4) -0.1139(4) 0.7994(3)
C2 C 0.2468(4) -0.1885(4) 0.7355(3)
H1 H 0.28955 -0.14550 0.68681
C3 C 0.1334(4) -0.3431(4) 0.6386(3)
C4 C 0.1358(4) -0.2722(5) 0.7068(3)
H2 H 0.09627 -0.31735 0.75491
H3 H 0.09742 -0.23523 0.68796
H4 H -0.1793(17) -0.532(3) 0.4569(6)
K1 K 0.0471(2) -0.2993(3) 1.00000
H4I H -0.1793(17) -0.532(3) 0.5431(6)
Zn1A Zn 0.50000 -0.50000 0.50000
V1A V 0.19503(7) -0.45771(7) 0.89348(5)
O2A O 0.2358(3) -0.4635(3) 0.77498(19)
O3A O 0.3605(3) -0.4277(3) 0.6307(2)
O4A O 0.4968(4) -0.6486(5) 0.50000
O5A O 0.2043(5) -0.4926(4) 1.00000
O6A O 0.1074(3) -0.6120(3) 0.8701(2)
O7A O 0.3845(3) -0.5623(3) 0.5930(2)
O8A O 0.0639(3) -0.7450(3) 0.7810(3)
O9A O 0.1190(3) -0.4073(3) 0.8941(2)
C1A C 0.1139(4) -0.6489(4) 0.7994(3)
C2A C 0.1885(4) -0.5647(4) 0.7355(3)
H1A H 0.14550 -0.56495 0.68681
C3A C 0.3431(4) -0.5235(4) 0.6386(3)
C4A C 0.2722(4) -0.5920(5) 0.7068(3)
H2A H 0.31735 -0.58638 0.75491
H3A H 0.23523 -0.66735 0.68796
H4A H 0.5320(17) -0.6473(30) 0.4569(6)
H4J H 0.5320(17) -0.6473(30) 0.5431(6)
Zn1B Zn 0.50000 0.00000 0.50000
V1B V 0.45771(7) -0.34726(7) 0.89348(5)
O2B O 0.4635(3) -0.3007(3) 0.77498(19)
O3B O 0.4277(3) -0.2118(3) 0.6307(2)
O4B O 0.6486(4) 0.1454(5) 0.50000
O5B O 0.4926(5) -0.3031(4) 1.00000
O6B O 0.6120(3) -0.2806(3) 0.8701(2)
O7B O 0.5623(3) -0.0532(3) 0.5930(2)
O8B O 0.7450(3) -0.1911(3) 0.7810(3)
O9B O 0.4073(3) -0.4737(3) 0.8941(2)
C1B C 0.6489(4) -0.2372(4) 0.7994(3)
C2B C 0.5647(4) -0.2468(4) 0.7355(3)
H1B H 0.56495 -0.28955 0.68681
C3B C 0.5235(4) -0.1334(4) 0.6386(3)
C4B C 0.5920(4) -0.1358(5) 0.7068(3)
H2B H 0.58638 -0.09627 0.75491
H3B H 0.66735 -0.09742 0.68796
H4B H 0.6473(17) 0.1793(30) 0.4569(6)
H4K H 0.6473(17) 0.1793(30) 0.5431(6)
Fe1C Fe -0.33333 -0.66667 0.70890(6)
V1C V -0.34726(7) -0.80497(7) 0.89348(5)
O1C O -0.33333 -0.66667 0.8968(3)
O2C O -0.3007(3) -0.7642(3) 0.77498(19)
O3C O -0.2118(3) -0.6395(3) 0.6307(2)
O4C O 0.1454(4) -0.5032(5) 0.50000
O5C O -0.3031(5) -0.7957(4) 1.00000
O6C O -0.2806(3) -0.8926(3) 0.8701(2)
O7C O -0.0532(3) -0.6155(3) 0.5930(2)
O8C O -0.1911(3) -0.9361(3) 0.7810(3)
O9C O -0.4737(3) -0.8810(3) 0.8941(2)
C1C C -0.2372(4) -0.8861(4) 0.7994(3)
C2C C -0.2468(4) -0.8115(4) 0.7355(3)
H1C H -0.28955 -0.85450 0.68681
C3C C -0.1334(4) -0.6569(4) 0.6386(3)
C4C C -0.1358(4) -0.7278(5) 0.7068(3)
H2C H -0.09627 -0.68265 0.75491
H3C H -0.09742 -0.76477 0.68796
H4C H 0.1793(17) -0.468(3) 0.4569(6)
H4F H 0.1793(17) -0.468(3) 0.5431(6)
V1D V -0.19503(7) -0.54229(7) 0.89348(5)
O2D O -0.2358(3) -0.5365(3) 0.77498(19)
O3D O -0.3605(3) -0.5723(3) 0.6307(2)
O5D O -0.2043(5) -0.5074(4) 1.00000
O6D O -0.1074(3) -0.3880(3) 0.8701(2)
O7D O -0.3845(3) -0.4377(3) 0.5930(2)
O8D O -0.0639(3) -0.2550(3) 0.7810(3)
O9D O -0.1190(3) -0.5927(3) 0.8941(2)
C1D C -0.1139(4) -0.3511(4) 0.7994(3)
C2D C -0.1885(4) -0.4353(4) 0.7355(3)
H1D H -0.14550 -0.43505 0.68681
C3D C -0.3431(4) -0.4765(4) 0.6386(3)
C4D C -0.2722(4) -0.4080(5) 0.7068(3)
H2D H -0.31735 -0.41362 0.75491
H3D H -0.23523 -0.33265 0.68796
V1E V -0.45771(7) -0.65274(7) 0.89348(5)
O2E O -0.4635(3) -0.6993(3) 0.77498(19)
O3E O -0.4277(3) -0.7882(3) 0.6307(2)
O5E O -0.4926(5) -0.6969(4) 1.00000
O6E O -0.6120(3) -0.7194(3) 0.8701(2)
O7E O -0.5623(3) -0.9468(3) 0.5930(2)
O8E O -0.7450(3) -0.8089(3) 0.7810(3)
O9E O -0.4073(3) -0.5263(3) 0.8941(2)
C1E C -0.6489(4) -0.7628(4) 0.7994(3)
C2E C -0.5647(4) -0.7532(4) 0.7355(3)
H1E H -0.56495 -0.71045 0.68681
C3E C -0.5235(4) -0.8666(4) 0.6386(3)
C4E C -0.5920(4) -0.8642(5) 0.7068(3)
H2E H -0.58638 -0.90373 0.75491
H3E H -0.66735 -0.90258 0.68796
Fe1F Fe -0.33333 -0.66667 0.29110(6)
V1F V -0.34726(7) -0.80497(7) 0.10652(5)
O1F O -0.33333 -0.66667 0.1032(3)
O2F O -0.3007(3) -0.7642(3) 0.22502(19)
O3F O -0.2118(3) -0.6395(3) 0.3693(2)
O6F O -0.2806(3) -0.8926(3) 0.1299(2)
O7F O -0.0532(3) -0.6155(3) 0.4070(2)
O8F O -0.1911(3) -0.9361(3) 0.2190(3)
O9F O -0.4737(3) -0.8810(3) 0.1059(2)
C1F C -0.2372(4) -0.8861(4) 0.2006(3)
C2F C -0.2468(4) -0.8115(4) 0.2645(3)
H1F H -0.28955 -0.85450 0.31319
C3F C -0.1334(4) -0.6569(4) 0.3614(3)
C4F C -0.1358(4) -0.7278(5) 0.2932(3)
H2F H -0.09627 -0.68265 0.24509
H3F H -0.09742 -0.76477 0.31204
V1G V -0.19503(7) -0.54229(7) 0.10652(5)
O2G O -0.2358(3) -0.5365(3) 0.22502(19)
O3G O -0.3605(3) -0.5723(3) 0.3693(2)
O6G O -0.1074(3) -0.3880(3) 0.1299(2)
O7G O -0.3845(3) -0.4377(3) 0.4070(2)
O8G O -0.0639(3) -0.2550(3) 0.2190(3)
O9G O -0.1190(3) -0.5927(3) 0.1059(2)
C1G C -0.1139(4) -0.3511(4) 0.2006(3)
C2G C -0.1885(4) -0.4353(4) 0.2645(3)
H1G H -0.14550 -0.43505 0.31319
C3G C -0.3431(4) -0.4765(4) 0.3614(3)
C4G C -0.2722(4) -0.4080(5) 0.2932(3)
H2G H -0.31735 -0.41362 0.24509
H3G H -0.23523 -0.33265 0.31204
V1H V -0.45771(7) -0.65274(7) 0.10652(5)
O2H O -0.4635(3) -0.6993(3) 0.22502(19)
O3H O -0.4277(3) -0.7882(3) 0.3693(2)
O6H O -0.6120(3) -0.7194(3) 0.1299(2)
O7H O -0.5623(3) -0.9468(3) 0.4070(2)
O8H O -0.7450(3) -0.8089(3) 0.2190(3)
O9H O -0.4073(3) -0.5263(3) 0.1059(2)
C1H C -0.6489(4) -0.7628(4) 0.2006(3)
C2H C -0.5647(4) -0.7532(4) 0.2645(3)
H1H H -0.56495 -0.71045 0.31319
C3H C -0.5235(4) -0.8666(4) 0.3614(3)
C4H C -0.5920(4) -0.8642(5) 0.2932(3)
H2H H -0.58638 -0.90373 0.24509
H3H H -0.66735 -0.90258 0.31204
Fe1I Fe 0.33333 -0.33333 0.29110(6)
V1I V 0.34726(7) -0.19503(7) 0.10652(5)
O1I O 0.33333 -0.33333 0.1032(3)
O2I O 0.3007(3) -0.2358(3) 0.22502(19)
O3I O 0.2118(3) -0.3605(3) 0.3693(2)
O6I O 0.2806(3) -0.1074(3) 0.1299(2)
O7I O 0.0532(3) -0.3845(3) 0.4070(2)
O8I O 0.1911(3) -0.0639(3) 0.2190(3)
O9I O 0.4737(3) -0.1190(3) 0.1059(2)
C1I C 0.2372(4) -0.1139(4) 0.2006(3)
C2I C 0.2468(4) -0.1885(4) 0.2645(3)
H1I H 0.28955 -0.14550 0.31319
C3I C 0.1334(4) -0.3431(4) 0.3614(3)
C4I C 0.1358(4) -0.2722(5) 0.2932(3)
H2I H 0.09627 -0.31735 0.24509
H3I H 0.09742 -0.23523 0.31204
V1J V 0.19503(7) -0.45771(7) 0.10652(5)
O2J O 0.2358(3) -0.4635(3) 0.22502(19)
O3J O 0.3605(3) -0.4277(3) 0.3693(2)
O6J O 0.1074(3) -0.6120(3) 0.1299(2)
O7J O 0.3845(3) -0.5623(3) 0.4070(2)
O8J O 0.0639(3) -0.7450(3) 0.2190(3)
O9J O 0.1190(3) -0.4073(3) 0.1059(2)
C1J C 0.1139(4) -0.6489(4) 0.2006(3)
C2J C 0.1885(4) -0.5647(4) 0.2645(3)
H1J H 0.14550 -0.56495 0.31319
C3J C 0.3431(4) -0.5235(4) 0.3614(3)
C4J C 0.2722(4) -0.5920(5) 0.2932(3)
H2J H 0.31735 -0.58638 0.24509
H3J H 0.23523 -0.66735 0.31204
V1K V 0.45771(7) -0.34726(7) 0.10652(5)
O2K O 0.4635(3) -0.3007(3) 0.22502(19)
O3K O 0.4277(3) -0.2118(3) 0.3693(2)
O6K O 0.6120(3) -0.2806(3) 0.1299(2)
O7K O 0.5623(3) -0.0532(3) 0.4070(2)
O8K O 0.7450(3) -0.1911(3) 0.2190(3)
O9K O 0.4073(3) -0.4737(3) 0.1059(2)
C1K C 0.6489(4) -0.2372(4) 0.2006(3)
C2K C 0.5647(4) -0.2468(4) 0.2645(3)
H1K H 0.56495 -0.28955 0.31319
C3K C 0.5235(4) -0.1334(4) 0.3614(3)
C4K C 0.5920(4) -0.1358(5) 0.2932(3)
H2K H 0.58638 -0.09627 0.24509
H3K H 0.66735 -0.09742 0.31204
O4D O 0.5032(4) -0.3514(5) 0.50000
H4D H 0.4680(17) -0.3527(30) 0.4569(6)
H4G H 0.4680(17) -0.3527(30) 0.5431(6)
O4E O 0.3514(4) -0.1454(5) 0.50000
H4E H 0.3527(17) -0.1793(30) 0.4569(6)
H4H H 0.3527(17) -0.1793(30) 0.5431(6)
Zn1A* Zn -0.50000 -0.50000 0.50000
Zn1B* Zn -0.50000 -1.00000 0.50000
V1F* V -0.34726(7) -0.80497(7) 1.10652(5)
V1G* V -0.19503(7) -0.54229(7) 1.10652(5)
V1H* V -0.45771(7) -0.65274(7) 1.10652(5)
V1I* V 0.34726(7) -0.19503(7) 1.10652(5)
V1J* V 0.19503(7) -0.45771(7) 1.10652(5)
V1K* V 0.45771(7) -0.34726(7) 1.10652(5)
O5* O 0.3031(5) -0.2043(4) 0.00000
O5A* O 0.2043(5) -0.4926(4) 0.00000
O5B* O 0.4926(5) -0.3031(4) 0.00000
O5C* O -0.3031(5) -0.7957(4) 0.00000
O5D* O -0.2043(5) -0.5074(4) 0.00000
O5E* O -0.4926(5) -0.6969(4) 0.00000
O7D* O 0.6155(3) -0.4377(3) 0.5930(2)
O7E* O 0.4377(3) 0.0532(3) 0.5930(2)
O7G* O 0.6155(3) -0.4377(3) 0.4070(2)
O7H* O 0.4377(3) 0.0532(3) 0.4070(2)
#END
