
#######################################################################
#
#                 Cambridge Crystallographic Data Centre
#                                CCDC
#
#######################################################################
#
# If this CIF has been generated from an entry in the Cambridge
# Structural Database, then it will include bibliographic, chemical,
# crystal, experimental, refinement or atomic coordinate data resulting
# from the CCDC's data processing and validation procedures.
#
#######################################################################

data_CSD_CIF_HUWXEE
_audit_creation_date 2015-11-13
_audit_creation_method CSD-ConQuest-V1
_database_code_CSD HUWXEE
_database_code_depnum_ccdc_archive 'CCDC 927797'
_chemical_formula_sum 'C70 H75 N1 O9 Sn3'
_chemical_formula_moiety
;
(C60 H49 O8 Sn3 1-)n,n(C8 H20 N1 1+),n(C2 H6 O1)
;
_journal_coden_Cambridge 211
_journal_volume 66
_journal_year 2013
_journal_page_first 3647
_journal_name_full 'J.Coord.Chem. '
loop_
_publ_author_name
"D.Thorpe"
"A.Callejas"
"D.Royzman"
"R.D.Pike"
"George Eng"
"Xueqing Song"
_chemical_name_systematic
;
catena-[diisobutylammonium bis(\m-malonato)-nonaphenyl-tri-tin ethanol 
solvate]
;
_cell_volume   6526.939
_exptl_crystal_colour 'colorless'
_exptl_crystal_density_diffrn 1.456
_exptl_crystal_description 'plate'
_diffrn_ambient_temperature 100
#These two values have been output from a single CSD field.
_refine_ls_R_factor_gt 0.0368
_refine_ls_wR_factor_gt 0.0368
_symmetry_cell_setting orthorhombic
_symmetry_space_group_name_H-M 'P n a 21'
_symmetry_Int_Tables_number 33
loop_
_symmetry_equiv_pos_site_id
_symmetry_equiv_pos_as_xyz
1 x,y,z
2 -x,-y,1/2+z
3 1/2+x,1/2-y,z
4 1/2-x,1/2+y,1/2+z
_cell_length_a 23.1910(3)
_cell_length_b 19.9363(3)
_cell_length_c 14.1171(2)
_cell_angle_alpha 90
_cell_angle_beta 90
_cell_angle_gamma 90
_cell_formula_units_Z 4
loop_
_atom_type_symbol
_atom_type_radius_bond
C 0.68
H 0.23
N 0.68
O 0.68
Sn 1.39
loop_
_atom_site_label
_atom_site_type_symbol
_atom_site_fract_x
_atom_site_fract_y
_atom_site_fract_z
Sn1 Sn 0.004933(14) -0.028206(19) 0.030952(18)
Sn2 Sn 0.068696(10) 0.25116(2) 0.34868(5)
O1 O 0.02314(16) 0.0323(2) 0.1536(4)
O2 O 0.11539(17) 0.0035(2) 0.1505(3)
O3 O 0.07352(15) 0.14678(19) 0.2915(3)
O4 O 0.02577(16) 0.1019(2) 0.4119(3)
C1 C 0.0726(3) 0.0217(3) 0.1925(5)
C2 C 0.0732(3) 0.0280(3) 0.3013(4)
H1 H 0.04710 -0.00620 0.32840
H2 H 0.11270 0.01830 0.32440
C3 C 0.0552(2) 0.0965(3) 0.3370(4)
C4 C -0.0806(2) 0.0083(3) 0.0339(5)
C5 C -0.0912(2) 0.0779(3) 0.0395(5)
H3 H -0.05980 0.10790 0.04730
C6 C -0.1475(3) 0.1034(3) 0.0338(6)
H4 H -0.15430 0.15040 0.03670
C7 C -0.1934(3) 0.0589(4) 0.0237(6)
H5 H -0.23170 0.07560 0.01930
C8 C -0.1837(2) -0.0087(3) 0.0201(5)
H6 H -0.21540 -0.03850 0.01420
C9 C -0.1273(2) -0.0349(3) 0.0251(5)
H7 H -0.12130 -0.08200 0.02250
C10 C 0.0638(2) 0.0161(3) -0.0669(5)
C11 C 0.0845(3) 0.0821(3) -0.0519(5)
H8 H 0.07310 0.10600 0.00320
C12 C 0.1206(3) 0.1115(3) -0.1162(5)
H9 H 0.13300 0.15630 -0.10590
C13 C 0.1396(3) 0.0775(3) -0.1960(5)
H10 H 0.16520 0.09850 -0.23940
C14 C 0.1205(3) 0.0125(3) -0.2117(5)
H11 H 0.13330 -0.01160 -0.26590
C15 C 0.0824(2) -0.0178(3) -0.1475(5)
H12 H 0.06900 -0.06200 -0.15930
C16 C 0.0211(2) -0.1185(3) 0.1055(4)
C17 C -0.0023(2) -0.1270(4) 0.1952(5)
H13 H -0.02590 -0.09280 0.22160
C18 C 0.0083(3) -0.1845(4) 0.2461(5)
H14 H -0.00780 -0.18950 0.30750
C19 C 0.0424(4) -0.2355(4) 0.2086(6)
H15 H 0.05000 -0.27490 0.24450
C20 C 0.0649(3) -0.2283(3) 0.1194(5)
H16 H 0.08760 -0.26330 0.09310
C21 C 0.0549(3) -0.1703(3) 0.0669(4)
H17 H 0.07080 -0.16580 0.00530
C22 C 0.1228(2) 0.2765(3) 0.2314(4)
C23 C 0.1074(3) 0.2624(3) 0.1392(5)
H18 H 0.07100 0.24240 0.12660
C24 C 0.1447(3) 0.2770(4) 0.0641(5)
H19 H 0.13320 0.26790 0.00080
C25 C 0.1988(3) 0.3048(3) 0.0822(6)
H20 H 0.22450 0.31430 0.03160
C26 C 0.2145(2) 0.3185(3) 0.1744(5)
H21 H 0.25140 0.33710 0.18740
C27 C 0.1765(2) 0.3051(3) 0.2488(5)
H22 H 0.18740 0.31560 0.31190
C28 C 0.1200(3) 0.2276(3) 0.4705(5)
C29 C 0.0999(3) 0.2355(3) 0.5623(5)
H23 H 0.06120 0.24890 0.57290
C30 C 0.1356(3) 0.2240(3) 0.6382(5)
H24 H 0.12080 0.22840 0.70070
C31 C 0.1918(3) 0.2066(3) 0.6254(5)
H25 H 0.21630 0.20030 0.67860
C32 C 0.2132(2) 0.1981(3) 0.5344(6)
H26 H 0.25240 0.18630 0.52460
C33 C 0.1762(3) 0.2073(4) 0.4571(5)
H27 H 0.19000 0.19940 0.39470
C34 C -0.02424(19) 0.2516(4) 0.3471(7)
C35 C -0.0542(3) 0.3015(3) 0.3957(4)
H28 H -0.03350 0.33370 0.43190
C36 C -0.1136(3) 0.3047(3) 0.3916(5)
H29 H -0.13380 0.33820 0.42580
C37 C -0.1431(2) 0.2586(3) 0.3374(6)
H30 H -0.18390 0.26150 0.33270
C38 C -0.1141(3) 0.2079(3) 0.2892(5)
H31 H -0.13480 0.17550 0.25360
C39 C -0.0543(3) 0.2054(3) 0.2940(4)
H32 H -0.03400 0.17150 0.26040
Sn3 Sn 0.000805(13) 0.529211(18) 0.65523(2)
O5 O 0.07356(16) 0.35737(18) 0.4017(3)
O6 O 0.02933(16) 0.39956(18) 0.2758(3)
O7 O 0.02052(16) 0.47016(19) 0.5274(4)
O8 O 0.10951(16) 0.5123(2) 0.5364(3)
C40 C 0.0570(2) 0.4064(3) 0.3515(4)
C41 C 0.0741(3) 0.4754(3) 0.3860(5)
H33 H 0.04940 0.50890 0.35400
H34 H 0.11440 0.48410 0.36630
C42 C 0.0696(2) 0.4859(3) 0.4920(5)
C43 C 0.0139(3) 0.6207(3) 0.5812(4)
C44 C 0.0429(3) 0.6744(3) 0.6194(4)
H35 H 0.05840 0.67110 0.68150
C45 C 0.0500(3) 0.7337(3) 0.5686(5)
H36 H 0.07030 0.77030 0.59590
C46 C 0.0277(3) 0.7393(3) 0.4798(5)
H37 H 0.03340 0.77970 0.44540
C47 C -0.0028(3) 0.6877(4) 0.4386(5)
H38 H -0.01950 0.69310 0.37760
C48 C -0.0090(3) 0.6271(3) 0.4881(5)
H39 H -0.02840 0.59030 0.45940
C49 C 0.0613(2) 0.4830(3) 0.7485(4)
C50 C 0.0817(3) 0.5160(3) 0.8292(6)
H40 H 0.06750 0.55960 0.84350
C51 C 0.1217(3) 0.4871(4) 0.8884(5)
H41 H 0.13490 0.51010 0.94330
C52 C 0.1427(3) 0.4233(3) 0.8662(5)
H42 H 0.17030 0.40280 0.90670
C53 C 0.1245(3) 0.3899(3) 0.7880(5)
H43 H 0.13930 0.34660 0.77380
C54 C 0.0833(3) 0.4199(3) 0.7277(5)
H44 H 0.07070 0.39690 0.67260
C55 C -0.0840(2) 0.4878(3) 0.6514(5)
C56 C -0.1319(3) 0.5280(3) 0.6637(5)
H45 H -0.12650 0.57500 0.67080
C57 C -0.1868(2) 0.5030(3) 0.6659(5)
H46 H -0.21860 0.53240 0.67380
C58 C -0.1957(3) 0.4348(3) 0.6566(5)
H47 H -0.23360 0.41680 0.65980
C59 C -0.1487(2) 0.3930(3) 0.6426(5)
H48 H -0.15470 0.34630 0.63370
C60 C -0.0930(2) 0.4186(3) 0.6413(5)
H49 H -0.06100 0.38930 0.63360
O9 O 0.2084(2) 0.0834(3) 0.1310(5)
H50 H 0.24010 0.07830 0.10320
C61 C 0.2179(3) 0.1128(4) 0.2211(6)
H51 H 0.18040 0.11890 0.25350
H52 H 0.23560 0.15760 0.21270
C62 C 0.2560(4) 0.0710(6) 0.2810(7)
H53 H 0.23950 0.02590 0.28710
H54 H 0.25950 0.09140 0.34390
H55 H 0.29420 0.06790 0.25180
N1 N 0.7810(2) 0.4597(3) 0.9905(4)
H56 H 0.81760 0.47310 1.00750
H57 H 0.76270 0.44440 1.04410
C63 C 0.8208(4) 0.2906(5) 0.8787(7)
H58 H 0.78010 0.28050 0.86620
H59 H 0.83990 0.25050 0.90370
H60 H 0.83960 0.30450 0.81970
C64 C 0.8087(3) 0.3225(4) 1.0506(6)
H61 H 0.76730 0.31310 1.05270
H62 H 0.81830 0.35670 1.09790
H63 H 0.83020 0.28120 1.06430
C65 C 0.8250(3) 0.3479(4) 0.9521(5)
H64 H 0.86550 0.36500 0.95360
C66 C 0.7853(3) 0.4039(4) 0.9207(5)
H65 H 0.79950 0.42210 0.85980
H66 H 0.74640 0.38520 0.90980
C67 C 0.7486(3) 0.5188(3) 0.9519(5)
H67 H 0.71100 0.50290 0.92750
H68 H 0.77050 0.53720 0.89750
C68 C 0.7376(3) 0.5752(3) 1.0213(6)
H69 H 0.70930 0.55720 1.06840
C69 C 0.7868(6) 0.5970(6) 1.0757(10)
H70 H 0.80200 0.63870 1.04880
H71 H 0.81670 0.56230 1.07370
H72 H 0.77510 0.60470 1.14150
C70 C 0.7066(3) 0.6318(4) 0.9698(7)
H73 H 0.70450 0.67120 1.01110
H74 H 0.66750 0.61730 0.95310
H75 H 0.72780 0.64330 0.91200
Sn1A Sn -0.004933(14) 0.028206(19) 0.530952(18)
O4A O -0.02577(16) -0.1019(2) -0.0881(3)
Sn3A Sn -0.000805(13) 0.470789(18) 0.15523(2)
O6A O -0.02933(16) 0.60044(18) 0.7758(3)
#END
