
#######################################################################
#
#                 Cambridge Crystallographic Data Centre
#                                CCDC
#
#######################################################################
#
# If this CIF has been generated from an entry in the Cambridge
# Structural Database, then it will include bibliographic, chemical,
# crystal, experimental, refinement or atomic coordinate data resulting
# from the CCDC's data processing and validation procedures.
#
#######################################################################

data_CSD_CIF_HUXGOW
_audit_creation_date 2003-06-11
_audit_creation_method CSD-ConQuest-V1
_database_code_CSD HUXGOW
_database_code_depnum_ccdc_archive 'CCDC 184369'
_chemical_formula_sum 'C8 H28 Cu3 N2 O18 P4'
_chemical_formula_moiety
;
(C4 H16 Cu3 O18 P4 2-)n,n(C4 H12 N2 2+)
;
_journal_coden_Cambridge 702
_journal_volume 18
_journal_year 2002
_journal_page_first 941
_journal_name_full 'Wuji Huaxue Xuebao(Chin.)(Chin.J.Inorg.Chem.) '
loop_
_publ_author_name
"Hui-Hua Song"
"Li-Min Zheng"
"Xin-Quan Xin"
_chemical_name_systematic
;
catena-(piperazinium 
bis(\m~3~-1-hydroxyethylidenediphosphonato)-tetraaqua-tri-copper)
;
_cell_volume    548.398
_exptl_crystal_colour 'blue'
_exptl_crystal_density_diffrn 2.286
_exptl_crystal_description 'needle'
_diffrn_ambient_temperature 293
#These two values have been output from a single CSD field.
_refine_ls_R_factor_gt 0.0326
_refine_ls_wR_factor_gt 0.0326
_symmetry_cell_setting triclinic
_symmetry_space_group_name_H-M 'P -1'
_symmetry_Int_Tables_number 2
loop_
_symmetry_equiv_pos_site_id
_symmetry_equiv_pos_as_xyz
1 x,y,z
2 -x,-y,-z
_cell_length_a 6.2379(9)
_cell_length_b 8.8896(12)
_cell_length_c 11.0494(15)
_cell_angle_alpha 102.296(2)
_cell_angle_beta 104.790(2)
_cell_angle_gamma 104.353(2)
_cell_formula_units_Z 1
loop_
_atom_type_symbol
_atom_type_radius_bond
C 0.68
H 0.23
Cu 1.52
N 0.68
O 0.68
P 1.05
loop_
_atom_site_label
_atom_site_type_symbol
_atom_site_fract_x
_atom_site_fract_y
_atom_site_fract_z
Cu1 Cu 0.50000 0.00000 0.50000
Cu2 Cu 0.97614(7) -0.29506(5) 0.67831(4)
P1 P 0.51177(15) -0.23166(11) 0.66591(9)
P2 P 0.92919(15) 0.05995(11) 0.73117(9)
O1 O 0.4595(4) -0.2230(3) 0.5244(3)
O2 O 0.8449(5) -0.2947(3) 0.4586(3)
H1 H 0.94560 -0.21680 0.44150
H2 H 0.70680 -0.28340 0.46140
O3 O 0.6706(4) -0.3338(3) 0.6970(3)
O4 O 0.9158(5) -0.5292(3) 0.6502(3)
H3 H 0.76580 -0.58890 0.60160
H4 H 1.02710 -0.56820 0.63040
O5 O 0.2938(4) -0.2947(3) 0.7017(3)
O6 O 0.8368(4) 0.0626(3) 0.5892(3)
O7 O 1.0682(4) -0.0606(3) 0.7409(3)
O8 O 1.0678(5) 0.2236(3) 0.8274(3)
O9 O 0.5124(5) 0.0723(3) 0.7296(3)
H5 H 0.369(4) 0.039(5) 0.735(5)
C1 C 0.6618(6) -0.0222(4) 0.7696(4)
C2 C 0.7091(7) -0.0133(5) 0.9125(4)
H6 H 0.56430 -0.05800 0.92690
H7 H 0.78090 0.09810 0.96520
H8 H 0.81210 -0.07420 0.93600
N1 N 0.6449(9) 0.3997(6) 1.0241(5)
H9 H 0.51260 0.28570 0.99680
H10 H 0.81280 0.38190 1.05570
C3 C 0.6241(9) 0.4687(6) 0.9096(5)
H11 H 0.766(10) 0.568(7) 0.939(6)
H12 H 0.655(10) 0.400(7) 0.837(6)
C4 C 0.6034(7) 0.5076(4) 1.1333(3)
H13 H 0.72560 0.61220 1.16550
H14 H 0.61090 0.45980 1.20480
P1A P 0.48823(15) 0.23166(11) 0.33409(9)
P2A P 0.07081(15) -0.05995(11) 0.26883(9)
O1A O 0.5405(4) 0.2230(3) 0.4756(3)
O3A O 0.3294(4) 0.3338(3) 0.3030(3)
O5A O 0.7062(4) 0.2947(3) 0.2983(3)
O6A O 0.1632(4) -0.0626(3) 0.4108(3)
O7A O -0.0682(4) 0.0606(3) 0.2591(3)
O8A O -0.0678(5) -0.2236(3) 0.1726(3)
O9A O 0.4876(5) -0.0723(3) 0.2704(3)
H5A H 0.631(4) -0.039(5) 0.265(5)
C1A C 0.3382(6) 0.0222(4) 0.2304(4)
C2A C 0.2909(7) 0.0133(5) 0.0875(4)
H6A H 0.43570 0.05800 0.07310
H7A H 0.21910 -0.09810 0.03480
H8A H 0.18790 0.07420 0.06400
Cu2A Cu 0.02386(7) 0.29506(5) 0.32169(4)
O2A O 0.1551(5) 0.2947(3) 0.5414(3)
H1A H 0.05440 0.21680 0.55850
H2A H 0.29320 0.28340 0.53860
O4A O 0.0842(5) 0.5292(3) 0.3498(3)
H3A H 0.23420 0.58890 0.39840
H4A H -0.02710 0.56820 0.36960
O5* O 1.2938(4) -0.2947(3) 0.7017(3)
Cu2* Cu -0.02386(7) -0.29506(5) 0.67831(4)
Cu2A* Cu 1.02386(7) 0.29506(5) 0.32169(4)
O5A* O -0.2938(4) 0.2947(3) 0.2983(3)
C4A C 0.3966(7) 0.4924(4) 0.8667(3)
N1A N 0.3551(9) 0.6003(6) 0.9759(5)
H9A H 0.48740 0.71430 1.00320
H10A H 0.18720 0.61810 0.94430
C3A C 0.3759(9) 0.5313(6) 1.0904(5)
H11A H 0.234(10) 0.432(7) 1.061(6)
H12A H 0.345(10) 0.600(7) 1.163(6)
H13A H 0.27440 0.38780 0.83450
H14A H 0.38910 0.54020 0.79520
#END
