
#######################################################################
#
#                 Cambridge Crystallographic Data Centre
#                                CCDC
#
#######################################################################
#
# If this CIF has been generated from an entry in the Cambridge
# Structural Database, then it will include bibliographic, chemical,
# crystal, experimental, refinement or atomic coordinate data resulting
# from the CCDC's data processing and validation procedures.
#
#######################################################################

data_CSD_CIF_HUZKET
_audit_creation_date 2011-01-04
_audit_creation_method CSD-ConQuest-V1
_database_code_CSD HUZKET
_database_code_depnum_ccdc_archive 'CCDC 719434'
_chemical_formula_sum 'C18 H42 In4 N6 O30 P6'
_chemical_formula_moiety
;
(C4 H12 N2 2+)3n,n(C6 H6 In4 O30 P6 6-)
;
_journal_coden_Cambridge 9
_journal_volume 48
_journal_year 2009
_journal_page_first 11697
_journal_name_full 'Inorg.Chem. '
loop_
_publ_author_name
"P.Ramaswamy"
"N.N.Hegde"
"R.Prabhu"
"V.M.Vidya"
"A.Datta"
"S.Natarajan"
_chemical_name_systematic
;
catena-[tris(Piperazinediium) 
tetrakis(\m~3~-phosphito-O,O',O'')-(\m~2~-oxalato-O,O',O'',O''')-bis(\m~2~-pho
sphito-O,O')-bis(oxalato-O,O')-tetra-indium]
;
_cell_volume   1046.593
_exptl_crystal_colour 'colorless'
_exptl_crystal_density_diffrn 2.329
_exptl_crystal_description 'needle-like'
_diffrn_ambient_temperature 293
#These two values have been output from a single CSD field.
_refine_ls_R_factor_gt 0.0891
_refine_ls_wR_factor_gt 0.0891
_symmetry_cell_setting triclinic
_symmetry_space_group_name_H-M 'P -1'
_symmetry_Int_Tables_number 2
loop_
_symmetry_equiv_pos_site_id
_symmetry_equiv_pos_as_xyz
1 x,y,z
2 -x,-y,-z
_cell_length_a 6.564(3)
_cell_length_b 9.346(5)
_cell_length_c 17.980(9)
_cell_angle_alpha 100.366(9)
_cell_angle_beta 93.170(9)
_cell_angle_gamma 104.108(9)
_cell_formula_units_Z 1
loop_
_atom_type_symbol
_atom_type_radius_bond
C 0.68
H 0.23
In 1.42
N 0.68
O 0.68
P 1.05
loop_
_atom_site_label
_atom_site_type_symbol
_atom_site_fract_x
_atom_site_fract_y
_atom_site_fract_z
In1 In 0.41246(16) 0.04229(12) 0.34741(6)
In2 In 0.76337(16) 0.66097(12) 0.23184(6)
P1 P 0.2812(7) -0.2690(5) 0.2086(3)
H1 H 0.29920 -0.27290 0.15460
P2 P -0.1009(6) -0.0245(5) 0.3678(2)
H2 H -0.13010 -0.02360 0.42070
P3 P 0.5063(6) 0.3842(4) 0.3140(2)
H3 H 0.38210 0.40900 0.29230
O1 O 0.4784(19) 0.2143(13) 0.2856(7)
O2 O 0.1206(16) 0.0787(12) 0.3716(8)
O3 O -0.2692(19) 0.0363(15) 0.3326(7)
O4 O 0.287(3) -0.1088(13) 0.2417(7)
O5 O 0.5377(19) 0.1679(12) 0.4678(7)
O6 O 0.6140(17) 0.1318(12) 0.5816(6)
O7 O 0.6983(18) 0.4677(13) 0.2794(6)
O8 O 0.4454(18) -0.3369(15) 0.2390(8)
O9 O 0.067(2) -0.3756(16) 0.2114(8)
O10 O 0.7881(19) 0.8205(14) 0.1534(7)
O11 O 0.6840(18) 0.5190(13) 0.1170(7)
O12 O -0.108(2) -0.1859(13) 0.3339(7)
O13 O 0.511(2) 0.4241(13) 0.3983(7)
O14 O 0.769(2) 0.5333(15) 0.0000(7)
O15 O 0.796(3) 0.8351(17) 0.0308(8)
C1 C 0.740(3) 0.5893(19) 0.0627(11)
C2 C 0.776(3) 0.763(2) 0.0818(10)
C3 C 0.546(2) 0.0842(16) 0.5124(8)
N1 N 0.754(3) 0.1163(17) 0.1781(8)
H4 H 0.67530 0.10690 0.21710
H5 H 0.77350 0.02520 0.15910
N2 N 0.974(3) 0.3124(18) 0.0894(8)
H6 H 1.05730 0.33420 0.05260
H7 H 0.94500 0.39790 0.11220
C4 C 0.637(3) 0.165(2) 0.1179(11)
H8 H 0.59300 0.25350 0.14020
H9 H 0.51130 0.08550 0.09690
C5 C 1.087(3) 0.257(2) 0.1447(10)
H10 H 1.21670 0.33270 0.16560
H11 H 1.12490 0.16750 0.11960
C6 C 0.774(3) 0.200(2) 0.0546(10)
H12 H 0.80410 0.10930 0.02780
H13 H 0.70070 0.24110 0.01850
C7 C 0.960(3) 0.2204(19) 0.2068(9)
H14 H 1.03580 0.17570 0.24010
H15 H 0.93920 0.31240 0.23630
C8 C 0.196(3) 0.483(2) 0.4795(10)
H16 H 0.28580 0.43550 0.44770
H17 H 0.28760 0.56230 0.51810
C9 C 0.067(3) 0.373(2) 0.5160(13)
H18 H 0.15670 0.33100 0.54590
H19 H -0.02160 0.29160 0.47780
N3 N 0.071(3) 0.551(2) 0.4324(10)
H20 H -0.01110 0.47940 0.39500
H21 H 0.15650 0.61930 0.41100
In1* In 1.41246(16) 0.04229(12) 0.34741(6)
In1** In -0.58754(16) 0.04229(12) 0.34741(6)
In1A In 0.58754(16) -0.04229(12) 0.65259(6)
In1*** In 0.41246(16) 1.04229(12) 0.34741(6)
In2* In 0.76337(16) -0.33903(12) 0.23184(6)
In2** In -0.23663(16) -0.33903(12) 0.23184(6)
In2*** In -0.23663(16) 0.66097(12) 0.23184(6)
In2**** In 1.76337(16) 0.66097(12) 0.23184(6)
P1* P 0.2812(7) 0.7310(5) 0.2086(3)
H1* H 0.29920 0.72710 0.15460
P2* P 0.8991(6) -0.0245(5) 0.3678(2)
H2* H 0.86990 -0.02360 0.42070
P3* P 1.5063(6) 0.3842(4) 0.3140(2)
H3* H 1.38210 0.40900 0.29230
O1* O 1.4784(19) 0.2143(13) 0.2856(7)
O2* O 1.1206(16) 0.0787(12) 0.3716(8)
O3* O 0.7308(19) 0.0363(15) 0.3326(7)
O3** O 1.7308(19) 0.0363(15) 0.3326(7)
O4* O 0.287(3) 0.8912(13) 0.2417(7)
O4** O 1.287(3) -0.1088(13) 0.2417(7)
O5A O 0.4623(19) -0.1679(12) 0.5322(7)
O5* O 1.5377(19) 0.1679(12) 0.4678(7)
O6A O 0.3860(17) -0.1318(12) 0.4184(6)
O6A* O 1.3860(17) -0.1318(12) 0.4184(6)
O7* O 1.6983(18) 0.4677(13) 0.2794(6)
O7** O 0.6983(18) -0.5323(13) 0.2794(6)
O8* O 0.4454(18) 0.6631(15) 0.2390(8)
O9* O 0.067(2) 0.6244(16) 0.2114(8)
O9** O 1.067(2) 0.6244(16) 0.2114(8)
O9*** O 1.067(2) -0.3756(16) 0.2114(8)
O10* O 0.7881(19) -0.1795(14) 0.1534(7)
O11* O 0.6840(18) -0.4810(13) 0.1170(7)
O12* O 0.892(2) -0.1859(13) 0.3339(7)
O12** O 0.892(2) 0.8141(13) 0.3339(7)
O13* O 1.511(2) 0.4241(13) 0.3983(7)
O14* O 0.769(2) -0.4667(15) 0.0000(7)
O15* O 0.796(3) -0.1649(17) 0.0308(8)
C1* C 0.740(3) -0.4107(19) 0.0627(11)
C2* C 0.776(3) -0.237(2) 0.0818(10)
C3A C 0.454(2) -0.0842(16) 0.4876(8)
C8A C -0.196(3) 0.517(2) 0.5205(10)
H16A H -0.28580 0.56450 0.55230
H17A H -0.28760 0.43770 0.48190
C9A C -0.067(3) 0.627(2) 0.4840(13)
H18A H -0.15670 0.66900 0.45410
H19A H 0.02160 0.70840 0.52220
N3A N -0.071(3) 0.449(2) 0.5676(10)
H20A H 0.01110 0.52060 0.60500
H21A H -0.15650 0.38070 0.58900
#END
