
#######################################################################
#
#                 Cambridge Crystallographic Data Centre
#                                CCDC
#
#######################################################################
#
# If this CIF has been generated from an entry in the Cambridge
# Structural Database, then it will include bibliographic, chemical,
# crystal, experimental, refinement or atomic coordinate data resulting
# from the CCDC's data processing and validation procedures.
#
#######################################################################

data_CSD_CIF_HUZLEU
_audit_creation_date 2011-01-04
_audit_creation_method CSD-ConQuest-V1
_database_code_CSD HUZLEU
_database_code_depnum_ccdc_archive 'CCDC 742102'
_chemical_formula_sum 'C8 H22 In2 N2 O20 P2'
_chemical_formula_moiety
;
(C4 H12 N2 2+)n,n(C4 H6 In2 O18 P2 2-),2n(H2 O1)
;
_journal_coden_Cambridge 9
_journal_volume 48
_journal_year 2009
_journal_page_first 11697
_journal_name_full 'Inorg.Chem. '
loop_
_publ_author_name
"P.Ramaswamy"
"N.N.Hegde"
"R.Prabhu"
"V.M.Vidya"
"A.Datta"
"S.Natarajan"
_chemical_name_systematic
;
catena-[Piperazinediium bis(\m~2~-oxalato-O,O',O'',O''')-bis(\m~2~-hydrogen 
phosphato-O,O')-diaqua-di-indium dihydrate]
;
_cell_volume   1009.779
_exptl_crystal_colour 'colorless'
_exptl_special_details
;
Isostructural with the sulfate analogue

;
_exptl_crystal_description 'rod-like'
_diffrn_ambient_temperature 293
#These two values have been output from a single CSD field.
_refine_ls_R_factor_gt 0.028
_refine_ls_wR_factor_gt 0.028
_symmetry_cell_setting monoclinic
_symmetry_space_group_name_H-M 'P 21/c'
_symmetry_Int_Tables_number 14
loop_
_symmetry_equiv_pos_site_id
_symmetry_equiv_pos_as_xyz
1 x,y,z
2 -x,1/2+y,1/2-z
3 -x,-y,-z
4 x,-1/2-y,-1/2+z
_cell_length_a 6.4726(7)
_cell_length_b 11.0804(11)
_cell_length_c 14.3110(15)
_cell_angle_alpha 90
_cell_angle_beta 100.316(2)
_cell_angle_gamma 90
_cell_formula_units_Z 2
loop_
_atom_type_symbol
_atom_type_radius_bond
C 0.68
In 1.42
N 0.68
O 0.68
P 1.05
loop_
_atom_site_label
_atom_site_type_symbol
_atom_site_fract_x
_atom_site_fract_y
_atom_site_fract_z
In1 In 0.45034(4) 0.08995(2) 0.185965(16)
P1 P -0.06363(14) 0.13271(8) 0.15085(6)
O1 O 0.1248(4) 0.0522(3) 0.1804(2)
O2 O -0.2130(5) 0.0962(3) 0.2141(2)
O3 O 0.3409(5) 0.0938(2) 0.03005(19)
O4 O 0.5313(5) -0.2198(2) 0.36370(18)
O5 O 0.5451(5) -0.2925(2) 0.18635(18)
O6 O 0.4830(5) -0.0311(2) 0.31291(18)
O7 O 0.4955(5) -0.1016(2) 0.13591(19)
O8 O -0.1571(5) 0.1125(3) 0.0523(2)
O9 O 0.0018(5) 0.2576(2) 0.1688(2)
C1 C 0.5083(6) -0.1407(3) 0.3003(2)
C2 C 0.5163(6) -0.1832(3) 0.1985(2)
O10 O 0.9819(7) 0.3048(3) 0.3586(2)
C3 C 1.0228(6) 0.1294(3) 0.4889(3)
C4 C 0.8119(8) 0.0747(4) 0.4924(4)
N1 N 1.1612(8) 0.0418(5) 0.4491(4)
In1* In 1.45034(4) 0.08995(2) 0.185965(16)
In1** In -0.54966(4) 0.08995(2) 0.185965(16)
In1A In 0.54966(4) -0.41005(2) 0.314035(16)
In1A* In 0.54966(4) 0.58995(2) 0.314035(16)
P1* P 0.93637(14) 0.13271(8) 0.15085(6)
O1* O 1.1248(4) 0.0522(3) 0.1804(2)
O2* O 0.7870(5) 0.0962(3) 0.2141(2)
O2** O 1.7870(5) 0.0962(3) 0.2141(2)
O3* O 1.3409(5) 0.0938(2) 0.03005(19)
O4A O 0.4687(5) 0.2802(2) 0.13630(18)
O4A* O 1.4687(5) 0.2802(2) 0.13630(18)
O5A O 0.4549(5) 0.2075(2) 0.31365(18)
O5A* O 1.4549(5) 0.2075(2) 0.31365(18)
O6A O 0.5170(5) 0.4689(2) 0.18709(18)
O6* O 1.4830(5) -0.0311(2) 0.31291(18)
O7A O 0.5045(5) 0.3984(2) 0.36409(19)
O7* O 1.4955(5) -0.1016(2) 0.13591(19)
O8* O 0.8429(5) 0.1125(3) 0.0523(2)
O9* O 1.0018(5) 0.2576(2) 0.1688(2)
C1A C 0.4917(6) 0.3593(3) 0.1997(2)
C2A C 0.4837(6) 0.3168(3) 0.3015(2)
C3B C 0.9772(6) -0.1294(3) 0.5111(3)
C4B C 1.1881(8) -0.0747(4) 0.5076(4)
N1B N 0.8388(8) -0.0418(5) 0.5509(4)
#END
