
#######################################################################
#
#                 Cambridge Crystallographic Data Centre
#                                CCDC
#
#######################################################################
#
# If this CIF has been generated from an entry in the Cambridge
# Structural Database, then it will include bibliographic, chemical,
# crystal, experimental, refinement or atomic coordinate data resulting
# from the CCDC's data processing and validation procedures.
#
#######################################################################

data_CSD_CIF_HUZQOJ
_audit_creation_date 2011-01-04
_audit_creation_method CSD-ConQuest-V1
_database_code_CSD HUZQOJ
_database_code_depnum_ccdc_archive 'CCDC 743262'
_chemical_formula_sum 'C44 H56 Cu6 N10 S4'
_chemical_formula_moiety
;
(C28 H16 Cu6 N8 S4 2-)n,2n(C8 H20 N1 1+)
;
_journal_coden_Cambridge 1147
_journal_volume 10
_journal_year 2010
_journal_page_first 1155
_journal_name_full 'Cryst.Growth Des. '
loop_
_publ_author_name
"Shan-Ci Chen"
"Rong-Min Yu"
"Zhen-Guo Zhao"
"Shu-Mei Chen"
"Qi-Sheng Zhang"
"Xiao-Yuan Wu"
"Fei Wang"
"Can-Zhong Lu"
_chemical_name_systematic
;
catena-(tetrakis(\m~4~-1H-Benzimidazole-2-thiolato)-hexa-copper 
bis(tetraethylammonium))
;
_cell_volume   1243.766
_exptl_crystal_colour 'orange'
_exptl_special_details
;
Published unit-cell dimensions differ slightly than those deposited

;
_exptl_crystal_description 'block'
_diffrn_ambient_temperature 293
#These two values have been output from a single CSD field.
_refine_ls_R_factor_gt 0.0405
_refine_ls_wR_factor_gt 0.0405
_symmetry_cell_setting tetragonal
_symmetry_space_group_name_H-M 'P -4'
_symmetry_Int_Tables_number 81
loop_
_symmetry_equiv_pos_site_id
_symmetry_equiv_pos_as_xyz
1 x,y,z
2 -x,-y,z
3 y,-x,-z
4 -y,x,-z
_cell_length_a 10.0509(4)
_cell_length_b 10.0509(4)
_cell_length_c 12.3120(11)
_cell_angle_alpha 90
_cell_angle_beta 90
_cell_angle_gamma 90
_cell_formula_units_Z 1
loop_
_atom_type_symbol
_atom_type_radius_bond
C 0.68
Cu 1.15
N 0.68
S 1.02
loop_
_atom_site_label
_atom_site_type_symbol
_atom_site_fract_x
_atom_site_fract_y
_atom_site_fract_z
Cu1 Cu 0.63856(7) 1.48136(6) 0.42148(6)
Cu2 Cu 0.50000 1.00000 0.27120(8)
S1 S 0.57277(13) 1.26902(12) 0.41725(13)
N1 N 0.4042(5) 1.1565(4) 0.2707(4)
N2 N 0.3478(5) 1.3660(5) 0.3227(4)
N3 N 1.00000 1.00000 0.50000
N4 N 0.50000 1.50000 0.00000
C1 C 0.4347(6) 1.2661(5) 0.3322(5)
C2 C 0.2846(6) 1.1873(5) 0.2195(6)
C3 C 0.2497(6) 1.3189(6) 0.2531(5)
C4 C 0.2032(8) 1.1167(7) 0.1510(6)
C5 C 0.0866(8) 1.1753(8) 0.1154(7)
C6 C 0.1336(7) 1.3786(7) 0.2152(7)
C7 C 0.9704(12) 1.1129(9) 0.4259(9)
C8 C 0.0535(8) 1.3076(8) 0.1467(7)
C9 C 0.9332(12) 1.2423(11) 0.4815(12)
C10 C 0.653(2) 1.319(2) 0.0894(16)
C11 C 0.567(2) 1.408(3) 0.065(2)
Cu1A Cu 0.36144(7) 0.51864(6) 0.42148(6)
Cu1B Cu 0.48136(7) 1.36144(6) 0.57852(6)
Cu1C Cu 0.51864(7) 0.63856(6) 0.57852(6)
Cu1A* Cu 0.36144(7) 1.51864(6) 0.42148(6)
Cu1* Cu 0.63856(7) 0.48136(6) 0.42148(6)
Cu1C* Cu 0.51864(7) 1.63856(6) 0.57852(6)
Cu2B Cu 1.00000 1.50000 0.72880(8)
Cu2* Cu 0.50000 2.00000 0.27120(8)
S1A S 0.42723(13) 0.73098(12) 0.41725(13)
S1C S 0.73098(13) 1.57277(12) 0.58275(13)
S1A* S 0.42723(13) 1.73098(12) 0.41725(13)
S1B S 0.26902(13) 0.42723(12) 0.58275(13)
S1B* S 0.26902(13) 1.42723(12) 0.58275(13)
S1C* S 0.73098(13) 0.57277(12) 0.58275(13)
N1A N 0.5958(5) 0.8435(4) 0.2707(4)
N1C N 0.8435(5) 1.4042(4) 0.7293(4)
N1A* N 0.5958(5) 1.8435(4) 0.2707(4)
N1B N 1.1565(5) 1.5958(4) 0.7293(4)
N2A N 0.6522(5) 0.6340(5) 0.3227(4)
N2C N 0.6340(5) 1.3478(5) 0.6773(4)
N2A* N 0.6522(5) 1.6340(5) 0.3227(4)
N2* N 0.3478(5) 0.3660(5) 0.3227(4)
N2B N 0.3660(5) 0.6522(5) 0.6773(4)
C1A C 0.5653(6) 0.7339(5) 0.3322(5)
C1C C 0.7339(6) 1.4347(5) 0.6678(5)
C1A* C 0.5653(6) 1.7339(5) 0.3322(5)
C2A C 0.7154(6) 0.8127(5) 0.2195(6)
C2C C 0.8127(6) 1.2846(5) 0.7805(6)
C2A* C 0.7154(6) 1.8127(5) 0.2195(6)
C3A C 0.7503(6) 0.6811(6) 0.2531(5)
C3C C 0.6811(6) 1.2497(6) 0.7469(5)
C3A* C 0.7503(6) 1.6811(6) 0.2531(5)
C4A C 0.7968(8) 0.8833(7) 0.1510(6)
C4C C 0.8833(8) 1.2032(7) 0.8490(6)
C4A* C 0.7968(8) 1.8833(7) 0.1510(6)
C5A C 0.9134(8) 0.8247(8) 0.1154(7)
C5C C 0.8247(8) 1.0866(8) 0.8846(7)
C5A* C 0.9134(8) 1.8247(8) 0.1154(7)
C6A C 0.8664(7) 0.6214(7) 0.2152(7)
C6C C 0.6214(7) 1.1336(7) 0.7848(7)
C6A* C 0.8664(7) 1.6214(7) 0.2152(7)
C7A C 1.0296(12) 0.8871(9) 0.4259(9)
C7B C 1.1129(12) 1.0296(9) 0.5741(9)
C7C C 0.8871(12) 0.9704(9) 0.5741(9)
C8A C 0.9465(8) 0.6924(8) 0.1467(7)
C8C C 0.6924(8) 1.0535(8) 0.8533(7)
C8A* C 0.9465(8) 1.6924(8) 0.1467(7)
C9A C 1.0668(12) 0.7577(11) 0.4815(12)
C9B C 1.2423(12) 1.0668(11) 0.5185(12)
C9C C 0.7577(12) 0.9332(11) 0.5185(12)
C10A C 0.347(2) 1.681(2) 0.0894(16)
C10B C 0.319(2) 1.347(2) -0.0894(16)
C10C C 0.681(2) 1.653(2) -0.0894(16)
C11A C 0.433(2) 1.592(3) 0.065(2)
C11B C 0.408(2) 1.433(3) -0.065(2)
C11C C 0.592(2) 1.567(3) -0.065(2)
#END
