
#######################################################################
#
#                 Cambridge Crystallographic Data Centre
#                                CCDC
#
#######################################################################
#
# If this CIF has been generated from an entry in the Cambridge
# Structural Database, then it will include bibliographic, chemical,
# crystal, experimental, refinement or atomic coordinate data resulting
# from the CCDC's data processing and validation procedures.
#
#######################################################################

data_CSD_CIF_HUZVED
_audit_creation_date 2003-08-21
_audit_creation_method CSD-ConQuest-V1
_database_code_CSD HUZVED
_chemical_formula_sum 'C8 H80 Ca3 Mo18 N6 O84'
_chemical_formula_moiety
;
(C8 H28 Ca3 Mo18 O70 6-)n,6n(H4 N1 1+),14n(H2 O1)
;
_journal_coden_Cambridge 683
_journal_volume 18
_journal_year 2002
_journal_page_first 624
_journal_name_full 'Wuli Huaxue Xuebao(Chin.)(Acta Phys.-Chim.Sin) '
loop_
_publ_author_name
"Guang Liu"
"Shi-Wei Zhang"
_chemical_name_systematic
;
catena-(Hexa-ammonium 
tetrakis(\m~3~-hydroxo)-icosakis(\m~3~-oxo)-tetrakis(\m~2~-acetato-O,O')-decak
is(\m~2~-oxo)-hexa-aqua-docosaoxo-tri-calcium-octadeca-molybdenum(v,vi) 
tetradecahydrate)
;
_cell_volume   2019.403
_exptl_crystal_density_diffrn 2.839
_exptl_special_details
;
Hydroxo ligands have been arbitrarily assigned in the diagram; coordinates 
for the ammonium ions and the solvent water molecules are not given
;
_diffrn_ambient_temperature ?
_diffrn_special_details
;
The study was carried out at room temperature,in the range 283-303K

;
#These two values have been output from a single CSD field.
_refine_ls_R_factor_gt 0.0366
_refine_ls_wR_factor_gt 0.0366
_symmetry_cell_setting triclinic
_symmetry_space_group_name_H-M 'P -1'
_symmetry_Int_Tables_number 2
loop_
_symmetry_equiv_pos_site_id
_symmetry_equiv_pos_as_xyz
1 x,y,z
2 -x,-y,-z
_cell_length_a 10.552(2)
_cell_length_b 15.150(3)
_cell_length_c 15.449(3)
_cell_angle_alpha 60.84(3)
_cell_angle_beta 88.00(3)
_cell_angle_gamma 71.21(3)
_cell_formula_units_Z 1
loop_
_atom_type_symbol
_atom_type_radius_bond
C 0.68
Ca 1.39
Mo 1.36
O 0.68
loop_
_atom_site_label
_atom_site_type_symbol
_atom_site_fract_x
_atom_site_fract_y
_atom_site_fract_z
Mo1 Mo 0.9309(1) 0.5832(1) 0.2141(1)
Mo2 Mo 0.8216(1) 0.7469(1) 0.2412(1)
Mo3 Mo 0.7293(1) 0.7511(1) 0.4861(1)
Mo4 Mo 0.7601(1) 0.5902(1) 0.6677(1)
Mo5 Mo 1.1517(1) 0.7104(1) 0.1730(1)
Mo6 Mo 1.0085(1) 0.9198(1) 0.2026(1)
Mo7 Mo 0.9243(1) 0.9218(1) 0.4396(1)
Mo8 Mo 1.0350(1) 0.2811(1) 0.3335(1)
Mo9 Mo 0.7020(1) 0.9528(1) 0.2706(1)
Ca1 Ca 1.00000 0.50000 0.50000
Ca2 Ca 1.3203(1) 0.8358(1) 0.4029(1)
O1 O 0.9265(4) 0.7338(3) 0.1360(3)
O2 O 0.7803(4) 0.7719(3) 0.3556(3)
O3 O 1.0326(4) 0.4224(3) 0.3030(3)
O4 O 1.0300(4) 0.7471(3) 0.2797(3)
O5 O 0.7452(4) 0.7410(3) 0.6194(3)
O6 O 1.1343(4) 0.5712(3) 0.2577(3)
O7 O 0.7166(4) 0.9143(3) 0.4115(3)
O8 O 0.9152(4) 0.9179(3) 0.3145(3)
O9 O 0.9409(4) 0.7496(3) 0.5105(3)
O10 O 0.8095(4) 0.5960(3) 0.5428(3)
O11 O 0.8907(4) 0.5924(3) 0.3349(3)
O12 O 0.8025(4) 0.9090(3) 0.1795(3)
O13 O 1.0717(4) 0.8660(3) 0.1133(3)
O14 O 0.8937(4) 0.8747(3) 0.5759(3)
O15 O 0.9428(4) 1.0534(3) 0.1150(3)
O16 O 0.7905(4) 0.5777(3) 0.1705(3)
O17 O 0.6619(4) 0.7753(3) 0.1938(3)
O18 O 1.0957(4) 0.8941(3) 0.4485(3)
O19 O 1.3050(4) 0.6863(3) 0.2284(3)
O20 O 0.8657(4) 0.3053(3) 0.3261(3)
O21 O 0.8536(4) 1.0582(3) 0.3915(3)
O22 O 0.5608(4) 0.7833(3) 0.4605(3)
O23 O 0.6776(4) 1.0872(3) 0.2084(3)
O24 O 1.1853(4) 0.7059(3) 0.0655(3)
O25 O 1.1580(4) 0.9047(3) 0.2578(3)
O26 O 1.0787(4) 0.2795(3) 0.2271(3)
O27 O 0.6011(4) 0.5876(3) 0.6722(3)
O28 O 0.5443(4) 0.9504(3) 0.2499(3)
O29 O 1.2362(4) 0.4319(3) 0.1833(3)
O30 O 1.0336(4) 0.5607(3) 0.1001(3)
O31 O 1.1275(4) 0.6085(3) 0.4749(3)
O32 O 1.2905(5) 0.6764(4) 0.4656(4)
C1 C 1.1504(6) 0.4963(5) 0.1054(4)
C2 C 1.1888(6) 0.5009(6) 0.0092(4)
C3 C 1.2515(6) 0.5984(5) 0.4987(5)
C4 C 1.3508(7) 0.4878(6) 0.5712(6)
O33 O 1.2935(4) 1.0157(3) 0.3508(3)
O34 O 1.4372(4) 0.7780(4) 0.2964(4)
O35 O 1.3544(5) 0.7965(5) 0.5740(4)
O10A O 1.1905(4) 0.4040(3) 0.4572(3)
O11A O 1.1093(4) 0.4076(3) 0.6651(3)
O31A O 0.8725(4) 0.3915(3) 0.5251(3)
O32A O 0.7095(5) 0.3236(4) 0.5344(4)
C3A C 0.7485(6) 0.4016(5) 0.5013(5)
C4A C 0.6492(7) 0.5122(6) 0.4288(6)
Mo1A Mo 1.0691(1) 0.4168(1) 0.7859(1)
Mo2A Mo 1.1784(1) 0.2531(1) 0.7588(1)
Mo3A Mo 1.2707(1) 0.2489(1) 0.5139(1)
Mo4A Mo 1.2399(1) 0.4098(1) 0.3323(1)
Ca2A Ca 0.6797(1) 0.1642(1) 0.5971(1)
O3A O 0.9674(4) 0.5776(3) 0.6970(3)
O6A O 0.8657(4) 0.4288(3) 0.7423(3)
O29A O 0.7638(4) 0.5681(3) 0.8167(3)
O30A O 0.9664(4) 0.4393(3) 0.8999(3)
C1A C 0.8496(6) 0.5037(5) 0.8946(4)
C2A C 0.8112(6) 0.4991(6) 0.9908(4)
O22* O 1.5608(4) 0.7833(3) 0.4605(3)
O1A O 1.0735(4) 0.2662(3) 0.8640(3)
O16A O 1.2095(4) 0.4223(3) 0.8295(3)
O2A O 1.2197(4) 0.2281(3) 0.6444(3)
O4A O 0.9700(4) 0.2529(3) 0.7203(3)
O12A O 1.1975(4) 0.0910(3) 0.8205(3)
O17A O 1.3381(4) 0.2247(3) 0.8062(3)
O5A O 1.2548(4) 0.2590(3) 0.3806(3)
O7A O 1.2834(4) 0.0857(3) 0.5885(3)
O9A O 1.0591(4) 0.2504(3) 0.4895(3)
O27A O 1.3989(4) 0.4124(3) 0.3278(3)
O18A O 0.9043(4) 0.1059(3) 0.5515(3)
O25A O 0.8420(4) 0.0953(3) 0.7422(3)
O33A O 0.7065(4) -0.0157(3) 0.6492(3)
O34A O 0.5628(4) 0.2220(4) 0.7036(4)
O35A O 0.6456(5) 0.2035(5) 0.4260(4)
Mo5A Mo 0.8483(1) 0.2896(1) 0.8270(1)
Mo6A Mo 0.9915(1) 0.0802(1) 0.7974(1)
Mo7A Mo 1.0757(1) 0.0782(1) 0.5604(1)
Mo8A Mo 0.9650(1) 0.7189(1) 0.6665(1)
Mo9A Mo 1.2980(1) 0.0472(1) 0.7294(1)
O14A O 1.1063(4) 0.1253(3) 0.4241(3)
O13A O 0.9283(4) 0.1340(3) 0.8867(3)
O19A O 0.6950(4) 0.3137(3) 0.7716(3)
O24A O 0.8147(4) 0.2941(3) 0.9345(3)
O8A O 1.0848(4) 0.0821(3) 0.6855(3)
O15A O 1.0572(4) -0.0534(3) 0.8850(3)
O21A O 1.1464(4) -0.0582(3) 0.6085(3)
O20A O 1.1343(4) 0.6947(3) 0.6739(3)
O26A O 0.9213(4) 0.7205(3) 0.7729(3)
O23A O 1.3224(4) -0.0872(3) 0.7916(3)
O28A O 1.4557(4) 0.0496(3) 0.7501(3)
Ca2* Ca 0.3203(1) 0.8358(1) 0.4029(1)
O22A O 1.4392(4) 0.2167(3) 0.5395(3)
O22A* O 0.4392(4) 0.2167(3) 0.5395(3)
Mo3* Mo 1.7293(1) 0.7511(1) 0.4861(1)
#END
