
#######################################################################
#
#                 Cambridge Crystallographic Data Centre
#                                CCDC
#
#######################################################################
#
# If this CIF has been generated from an entry in the Cambridge
# Structural Database, then it will include bibliographic, chemical,
# crystal, experimental, refinement or atomic coordinate data resulting
# from the CCDC's data processing and validation procedures.
#
#######################################################################

data_CSD_CIF_IBABOF01
_audit_creation_date 2016-11-15
_audit_creation_method CSD-ConQuest-V1
_database_code_CSD IBABOF01
_database_code_depnum_ccdc_archive 'CCDC 1408171'
_chemical_formula_sum 'C44 H33 D10 Co2 N5 O24 S3'
_chemical_formula_moiety
;
H3 O1 1+,n(C30 H20 Co2 N5 O12 S2 1-),C14 H10 O6 S1,5(D2 O1)
;
_journal_coden_Cambridge 1564
_journal_volume 81
_journal_year 2016
_journal_page_first 733
_journal_name_full 'ChemPlusChem '
loop_
_publ_author_name
"S.Bhattacharya"
"S.Pal"
"S.Natarajan"
_chemical_name_systematic
;
catena-[Oxonium 
bis(\m-4,4'-sulfonyldibenzoato)-(\m-3,5-diamino-1,2,4-triazolyl)-di-cobalt 
4,4'-sulfonyldibenzoic acid pentakis(deuterium oxide) solvate]
;
_cell_volume   4967.858
_exptl_crystal_colour 'blue'
_exptl_crystal_density_diffrn 1.671
_exptl_crystal_description 'rod'
_diffrn_ambient_temperature 120
#These two values have been output from a single CSD field.
_refine_ls_R_factor_gt 0.0661
_refine_ls_wR_factor_gt 0.0661
_symmetry_cell_setting orthorhombic
_symmetry_space_group_name_H-M 'P n a 21'
_symmetry_Int_Tables_number 33
loop_
_symmetry_equiv_pos_site_id
_symmetry_equiv_pos_as_xyz
1 x,y,z
2 -x,-y,1/2+z
3 1/2-x,1/2+y,1/2+z
4 1/2+x,1/2-y,z
_cell_length_a 17.9598(8)
_cell_length_b 21.8386(9)
_cell_length_c 12.6661(5)
_cell_angle_alpha 90
_cell_angle_beta 90
_cell_angle_gamma 90
_cell_formula_units_Z 4
loop_
_atom_type_symbol
_atom_type_radius_bond
C 0.68
H 0.23
Co 1.26
D 0.23
N 0.68
O 0.68
S 1.02
loop_
_atom_site_label
_atom_site_type_symbol
_atom_site_fract_x
_atom_site_fract_y
_atom_site_fract_z
Co1 Co 0.33797(6) 0.72853(5) 0.03432(11)
Co2 Co 0.17465(6) 0.72006(5) 0.02574(11)
N1 N 0.4438(4) 0.7600(3) 0.0530(6)
O1 O 0.3455(4) 0.7032(3) -0.1220(5)
O2 O 0.3164(4) 0.7507(3) 0.1954(5)
O3 O 0.2134(4) 0.3076(3) -0.4980(5)
O4 O 0.1747(4) 1.1393(3) 0.5722(5)
O5 O 0.2221(4) 0.6934(3) -0.1080(5)
O6 O 0.1918(4) 0.7482(3) 0.1738(5)
N2 N 0.5618(4) 0.7929(3) 0.0404(7)
O7 O 0.3353(4) 0.3086(3) -0.5268(5)
O8 O 0.2986(4) 1.1314(3) 0.5837(5)
N3 N 0.4597(4) 0.7990(4) 0.1382(6)
C1 C 0.5056(5) 0.7595(4) -0.0023(7)
C2 C 0.2814(5) 0.6919(4) -0.1600(7)
C3 C 0.2512(6) 0.7555(4) 0.2271(8)
C4 C 0.5307(6) 0.8169(4) 0.1308(7)
N4 N 0.5129(5) 0.7311(4) -0.0966(6)
C5 C 0.2756(5) 0.6719(4) -0.2727(7)
C6 C 0.2385(5) 0.7738(4) 0.3419(7)
N5 N 0.5652(5) 0.8540(4) 0.1976(6)
H1 H 0.47570 0.71200 -0.12370
H2 H 0.55480 0.73230 -0.12950
C7 C 0.2055(6) 0.6669(5) -0.3179(8)
C8 C 0.3386(5) 0.6590(4) -0.3319(7)
C9 C 0.2986(6) 0.7793(5) 0.4083(8)
C10 C 0.1671(6) 0.7848(5) 0.3790(9)
H3 H 0.54160 0.86860 0.25110
H4 H 0.61110 0.86340 0.18760
H5 H 0.16350 0.67690 -0.27880
C11 C 0.1981(6) 0.6471(5) -0.4205(8)
C12 C 0.3326(6) 0.6396(5) -0.4337(8)
H6 H 0.38550 0.66350 -0.30170
H7 H 0.34630 0.77120 0.38330
C13 C 0.2884(6) 0.7970(5) 0.5131(8)
C14 C 0.1566(6) 0.8029(5) 0.4839(8)
H8 H 0.12630 0.78020 0.33440
H9 H 0.15120 0.64260 -0.45070
C15 C 0.2611(5) 0.6341(4) -0.4774(9)
H10 H 0.37470 0.63020 -0.47320
H11 H 0.32890 0.80010 0.55850
C16 C 0.2181(6) 0.8099(4) 0.5481(8)
H12 H 0.10890 0.81000 0.50990
S1 S 0.25130(16) 0.60461(11) -0.6085(2)
S2 S 0.20597(15) 0.83886(11) 0.67811(19)
O9 O 0.1778(4) 0.6192(3) -0.6456(5)
O10 O 0.3144(4) 0.6238(3) -0.6702(5)
C17 C 0.2573(6) 0.5245(4) -0.5880(7)
O11 O 0.1306(4) 0.8255(3) 0.7109(5)
O12 O 0.2679(4) 0.8190(3) 0.7417(5)
C18 C 0.2144(6) 0.9191(5) 0.6583(8)
C19 C 0.1933(6) 0.4931(4) -0.5623(7)
C20 C 0.3259(6) 0.4960(5) -0.5957(8)
C21 C 0.2833(6) 0.9470(5) 0.6679(8)
C22 C 0.1522(7) 0.9526(5) 0.6290(11)
H13 H 0.14760 0.51300 -0.55770
C23 C 0.1992(6) 0.4302(5) -0.5436(8)
C24 C 0.3307(6) 0.4339(4) -0.5754(7)
H14 H 0.36810 0.51820 -0.61410
H15 H 0.32490 0.92440 0.68770
C25 C 0.2893(6) 1.0094(5) 0.6474(8)
C26 C 0.1588(6) 1.0136(5) 0.609(1)
H16 H 0.10610 0.93350 0.62310
H17 H 0.15680 0.40780 -0.52690
C27 C 0.2672(6) 0.4010(5) -0.5493(7)
H18 H 0.37650 0.41420 -0.57920
H19 H 0.33520 1.02870 0.65440
C28 C 0.2270(6) 1.0432(4) 0.6163(7)
H20 H 0.11680 1.03590 0.59000
C29 C 0.2719(6) 0.3350(4) -0.5242(8)
C30 C 0.2341(6) 1.1095(5) 0.5883(8)
S3 S 0.99259(15) 0.46748(12) 0.3289(2)
O13 O 0.6701(5) 0.6000(6) 0.1988(8)
H21 H 0.71140 0.61270 0.18190
O14 O 0.6267(7) 0.5253(7) 0.2970(15)
O15 O 1.0218(5) 0.2389(4) -0.0258(8)
H22 H 1.01640 0.23280 0.03760
O16 O 1.0282(5) 0.3193(4) -0.1329(6)
O17 O 0.9985(4) 0.4334(4) 0.4257(6)
O18 O 1.0409(4) 0.5187(3) 0.3098(6)
C31 C 0.6776(9) 0.5516(8) 0.2621(14)
C32 C 0.7575(7) 0.5319(7) 0.2808(11)
C33 C 0.7702(7) 0.4806(6) 0.3415(11)
H23 H 0.73020 0.45970 0.37090
C34 C 0.8415(7) 0.4600(5) 0.3589(9)
H24 H 0.85030 0.42490 0.39850
C35 C 0.9002(6) 0.4935(5) 0.3154(9)
C36 C 0.8876(7) 0.5454(5) 0.2552(9)
H25 H 0.92740 0.56680 0.22580
C37 C 0.8182(6) 0.5643(6) 0.240(1)
H26 H 0.80970 0.59990 0.20150
C38 C 1.0027(6) 0.4159(5) 0.2202(8)
C39 C 1.0016(7) 0.3543(5) 0.2391(9)
H27 H 0.99770 0.33930 0.30760
C40 C 1.0064(7) 0.3145(6) 0.1539(10)
H28 H 1.00470 0.27240 0.16460
C41 C 1.0137(6) 0.3380(5) 0.0525(9)
C42 C 1.0144(6) 0.4008(5) 0.0372(10)
H29 H 1.01880 0.41600 -0.03110
C43 C 1.0089(6) 0.4406(5) 0.1178(9)
H30 H 1.00910 0.48270 0.10650
C44 C 1.0209(7) 0.2995(7) -0.0446(11)
O19 O 1.0432(4) 0.1701(4) -0.1910(8)
D1 D 1.016(6) 0.150(5) -0.152(10)
D2 D 1.084(3) 0.170(6) -0.217(10)
O20 O 0.0029(5) 0.8943(4) 0.7747(8)
D3 D 0.032(7) 0.871(5) 0.748(9)
D4 D -0.023(7) 0.901(6) 0.826(7)
O21 O 0.5473(3) 0.6431(3) 0.1414(5)
H31 H 0.58130 0.64570 0.09500
H32 H 0.52140 0.67560 0.14120
H33 H 0.539(5) 0.610(2) 0.183(7)
O22 O 0.0356(5) 1.0953(3) 0.4799(9)
D5 D 0.067(5) 1.120(4) 0.464(10)
D6 D 0.022(7) 1.061(2) 0.473(10)
O23 O 0.5029(4) 0.5677(3) 0.4202(5)
D7 D 0.541(5) 0.546(6) 0.434(8)
D8 D 0.488(6) 0.565(6) 0.356(4)
O24 O 0.5315(3) 0.4839(3) 0.1158(6)
D9 D 0.529(7) 0.520(2) 0.139(9)
D10 D 0.498(5) 0.470(5) 0.074(9)
Co1B Co 0.16203(6) 0.22853(5) -0.46568(11)
Co1B* Co 0.16203(6) 1.22853(5) 0.53432(11)
Co2B Co 0.32535(6) 0.22006(5) -0.47426(11)
Co2B* Co 0.32535(6) 1.22006(5) 0.52574(11)
Co2C Co 0.67465(6) 0.77994(5) 0.02574(11)
O3B O 0.2866(4) 0.8076(3) 0.0020(5)
O4B O 0.3253(4) 0.6393(3) 0.0722(5)
N2C N 0.0618(4) 0.7071(3) 0.0404(7)
O7B O 0.1647(4) 0.8086(3) -0.0268(5)
O8B O 0.2014(4) 0.6314(3) 0.0837(5)
#END
