
#######################################################################
#
#                 Cambridge Crystallographic Data Centre
#                                CCDC
#
#######################################################################
#
# If this CIF has been generated from an entry in the Cambridge
# Structural Database, then it will include bibliographic, chemical,
# crystal, experimental, refinement or atomic coordinate data resulting
# from the CCDC's data processing and validation procedures.
#
#######################################################################

data_CSD_CIF_IBABOF
_audit_creation_date 2016-11-15
_audit_creation_method CSD-ConQuest-V1
_database_code_CSD IBABOF
_database_code_depnum_ccdc_archive 'CCDC 1055792'
_chemical_formula_sum 'C44 H43 Co2 N5 O24 S3'
_chemical_formula_moiety
;
H3 O1 1+,n(C30 H20 Co2 N5 O12 S2 1-),C14 H10 O6 S1,5(H2 O1)
;
_journal_coden_Cambridge 1564
_journal_volume 81
_journal_year 2016
_journal_page_first 733
_journal_name_full 'ChemPlusChem '
loop_
_publ_author_name
"S.Bhattacharya"
"S.Pal"
"S.Natarajan"
_chemical_name_systematic
;
catena-[Oxonium 
bis(\m-4,4'-sulfonyldibenzoato)-(\m-3,5-diamino-1,2,4-triazolyl)-di-cobalt 
4,4'-sulfonyldibenzoic acid pentahydrate]
;
_cell_volume   4971.225
_exptl_crystal_colour 'blue'
_exptl_crystal_density_diffrn 1.657
_exptl_crystal_description 'rod'
_diffrn_ambient_temperature 120
#These two values have been output from a single CSD field.
_refine_ls_R_factor_gt 0.0489
_refine_ls_wR_factor_gt 0.0489
_symmetry_cell_setting orthorhombic
_symmetry_space_group_name_H-M 'P n a 21'
_symmetry_Int_Tables_number 33
loop_
_symmetry_equiv_pos_site_id
_symmetry_equiv_pos_as_xyz
1 x,y,z
2 -x,-y,1/2+z
3 1/2-x,1/2+y,1/2+z
4 1/2+x,1/2-y,z
_cell_length_a 17.9697(6)
_cell_length_b 21.8405(7)
_cell_length_c 12.6666(3)
_cell_angle_alpha 90
_cell_angle_beta 90
_cell_angle_gamma 90
_cell_formula_units_Z 4
loop_
_atom_type_symbol
_atom_type_radius_bond
C 0.68
H 0.23
Co 1.26
N 0.68
O 0.68
S 1.02
loop_
_atom_site_label
_atom_site_type_symbol
_atom_site_fract_x
_atom_site_fract_y
_atom_site_fract_z
Co1 Co 0.33730(5) 0.72967(4) 0.03428(8)
Co2 Co 0.17418(5) 0.72165(4) 0.02627(8)
S1 S 0.25065(12) 0.60570(9) -0.60812(14)
S2 S 0.20725(12) 0.84057(9) 0.67729(14)
N1 N 0.4430(3) 0.7603(3) 0.0526(4)
N2 N 0.5616(3) 0.7920(2) 0.0415(5)
N3 N 0.4598(3) 0.7995(3) 0.1376(5)
N4 N 0.5130(4) 0.7311(3) -0.0973(5)
N5 N 0.5645(4) 0.8529(3) 0.1980(5)
O1 O 0.2134(3) 0.3091(2) -0.4991(4)
O2 O 0.1750(3) 1.1404(2) 0.5720(4)
O3 O 0.3445(3) 0.7041(2) -0.1221(4)
O4 O 0.3158(3) 0.7524(2) 0.1947(4)
O5 O 0.2209(3) 0.6948(2) -0.1078(4)
O6 O 0.1916(3) 0.7492(2) 0.1743(4)
O7 O 0.3359(3) 0.3100(2) -0.5266(4)
O8 O 0.2982(3) 1.1331(2) 0.5830(4)
O9 O 0.1773(3) 0.6202(2) -0.6444(4)
O10 O 0.3133(3) 0.6249(2) -0.6689(4)
O11 O 0.1318(3) 0.8271(2) 0.7110(4)
O12 O 0.2685(3) 0.8206(2) 0.7406(4)
C1 C 0.2811(4) 0.6931(3) -0.1591(5)
C2 C 0.2744(4) 0.6730(3) -0.2725(5)
C3 C 0.2050(4) 0.6673(4) -0.3183(6)
H1 H 0.16270 0.67670 -0.27920
C4 C 0.1976(4) 0.6479(4) -0.4209(6)
H2 H 0.15080 0.64370 -0.45120
C5 C 0.2607(4) 0.6348(3) -0.4784(7)
C6 C 0.3314(4) 0.6408(4) -0.4344(6)
H3 H 0.37370 0.63160 -0.47360
C7 C 0.3373(4) 0.6608(4) -0.3313(6)
H4 H 0.38400 0.66600 -0.30110
C8 C 0.2572(5) 0.5251(3) -0.5885(6)
C9 C 0.1931(4) 0.4936(3) -0.5624(6)
H5 H 0.14760 0.51360 -0.55720
C10 C 0.1987(4) 0.4310(3) -0.5442(6)
H6 H 0.15620 0.40850 -0.52820
C11 C 0.2664(4) 0.4021(3) -0.5495(5)
C12 C 0.3307(4) 0.4354(3) -0.5759(6)
H7 H 0.37650 0.41560 -0.58050
C13 C 0.3258(4) 0.4977(3) -0.5950(6)
H8 H 0.36800 0.52040 -0.61180
C14 C 0.2725(4) 0.3354(3) -0.5240(5)
C15 C 0.2500(4) 0.7573(3) 0.2273(6)
C16 C 0.2385(4) 0.7756(3) 0.3415(5)
C17 C 0.2990(5) 0.7828(4) 0.4069(6)
H9 H 0.34690 0.77640 0.38120
C18 C 0.2880(5) 0.7999(4) 0.5122(6)
H10 H 0.32840 0.80320 0.55780
C19 C 0.2186(4) 0.8115(3) 0.5472(6)
C20 C 0.1568(5) 0.8039(4) 0.4834(6)
H11 H 0.10910 0.81090 0.50940
C21 C 0.1674(4) 0.7855(4) 0.3798(6)
H12 H 0.12660 0.77980 0.33580
C22 C 0.2151(5) 0.9203(3) 0.6582(5)
C23 C 0.2838(5) 0.9484(4) 0.6664(6)
H13 H 0.32540 0.92590 0.68620
C24 C 0.2901(4) 1.0105(3) 0.6450(6)
H14 H 0.33630 1.02970 0.64970
C25 C 0.2277(4) 1.0441(3) 0.6166(6)
C26 C 0.1594(5) 1.0156(4) 0.6107(8)
H15 H 0.11740 1.03830 0.59280
C27 C 0.1525(5) 0.9537(4) 0.6310(8)
H16 H 0.10630 0.93460 0.62640
C28 C 0.2345(4) 1.1114(3) 0.5889(5)
C29 C 0.5058(4) 0.7592(3) -0.0021(5)
C30 C 0.5306(4) 0.8162(3) 0.1300(6)
H17 H 0.562(6) 0.719(5) -0.114(8)
H18 H 0.474(6) 0.711(5) -0.104(9)
H19 H 0.549(6) 0.862(5) 0.265(8)
H20 H 0.6116(11) 0.857(5) 0.199(8)
S3 S 0.99245(12) 0.46767(10) 0.32747(17)
O13 O 0.6719(5) 0.5990(5) 0.1994(6)
H21 H 0.68310 0.62990 0.23270
O14 O 0.6277(5) 0.5249(6) 0.2986(12)
O15 O 1.0213(4) 0.2400(3) -0.0215(6)
H22 H 1.02360 0.22020 -0.07650
O16 O 1.0281(4) 0.3192(4) -0.1315(5)
O17 O 0.9998(3) 0.4342(3) 0.4241(4)
O18 O 1.0405(3) 0.5196(3) 0.3079(5)
C31 C 0.6779(7) 0.5498(6) 0.2626(11)
C32 C 0.7574(5) 0.5307(5) 0.2813(8)
C33 C 0.7705(5) 0.4794(5) 0.3413(8)
H23 H 0.73050 0.45830 0.37040
C34 C 0.8424(5) 0.4585(4) 0.3592(7)
H24 H 0.85160 0.42340 0.39880
C35 C 0.9003(5) 0.4928(4) 0.3147(6)
C36 C 0.8879(5) 0.5448(4) 0.2541(7)
H25 H 0.92760 0.56630 0.22490
C37 C 0.8146(5) 0.5641(5) 0.2378(8)
H26 H 0.80470 0.59900 0.19810
C38 C 1.0016(4) 0.4163(4) 0.2205(7)
C39 C 1.0022(5) 0.3543(4) 0.2384(7)
H27 H 0.99900 0.33910 0.30680
C40 C 1.0076(5) 0.3146(4) 0.1539(7)
H28 H 1.00700 0.27250 0.16490
C41 C 1.0139(4) 0.3384(4) 0.0511(7)
C42 C 1.0135(4) 0.4004(4) 0.0360(7)
H29 H 1.01710 0.41590 -0.03230
C43 C 1.0081(5) 0.4394(4) 0.1176(7)
H30 H 1.00860 0.48150 0.10590
C44 C 1.0210(5) 0.2988(6) -0.0437(9)
O19 O 0.0367(4) 1.0959(3) 0.4788(6)
H31 H 0.06440 1.11330 0.43340
H32 H 0.00560 1.07290 0.44760
O20 O 0.0026(3) 0.8918(3) 0.7738(6)
H33 H -0.01820 0.92440 0.75210
H34 H 0.01290 0.86900 0.72140
O21 O 0.5474(2) 0.6435(2) 0.1386(4)
H35 H 0.59430 0.64450 0.13070
H36 H 0.53500 0.61030 0.16880
H37 H 0.5153(15) 0.6713(15) 0.107(2)
O22 O 0.5026(3) 0.5671(2) 0.4167(4)
H38 H 0.49730 0.57870 0.35310
H39 H 0.53060 0.53570 0.41870
O23 O 0.5417(2) 0.4831(2) 0.1236(5)
H40 H 0.56030 0.51710 0.14290
H41 H 0.51590 0.48840 0.06810
O24 O 1.0432(3) 0.1692(3) -0.1890(6)
H42 H 1.08280 0.15460 -0.21580
H43 H 1.00880 0.16910 -0.23510
Co1B Co 0.16270(5) 0.22967(4) -0.46572(8)
Co1B* Co 0.16270(5) 1.22967(4) 0.53428(8)
Co2B Co 0.32582(5) 0.22165(4) -0.47373(8)
Co2B* Co 0.32582(5) 1.22165(4) 0.52627(8)
Co2C Co 0.67418(5) 0.77835(4) 0.02627(8)
N2C N 0.0616(3) 0.7080(2) 0.0415(5)
O1B O 0.2866(3) 0.8091(2) 0.0009(4)
O2B O 0.3250(3) 0.6404(2) 0.0720(4)
O7B O 0.1641(3) 0.8100(2) -0.0266(4)
O8B O 0.2018(3) 0.6331(2) 0.0830(4)
#END
