
#######################################################################
#
#                 Cambridge Crystallographic Data Centre
#                                CCDC
#
#######################################################################
#
# If this CIF has been generated from an entry in the Cambridge
# Structural Database, then it will include bibliographic, chemical,
# crystal, experimental, refinement or atomic coordinate data resulting
# from the CCDC's data processing and validation procedures.
#
#######################################################################

data_CSD_CIF_IBABUL
_audit_creation_date 2016-11-15
_audit_creation_method CSD-ConQuest-V1
_database_code_CSD IBABUL
_database_code_depnum_ccdc_archive 'CCDC 1055793'
_chemical_formula_sum 'C47 H45 Co2 N5 O22 S3'
_chemical_formula_moiety
;
H3 O1 1+,n(C30 H20 Co2 N5 O12 S2 1-),C14 H10 O6 S1,3(C1 H4 O1)
;
_journal_coden_Cambridge 1564
_journal_volume 81
_journal_year 2016
_journal_page_first 733
_journal_name_full 'ChemPlusChem '
loop_
_publ_author_name
"S.Bhattacharya"
"S.Pal"
"S.Natarajan"
_chemical_name_systematic
;
catena-[Oxonium 
bis(\m-4,4'-sulfonyldibenzoato)-(\m-3,5-diamino-1,2,4-triazolyl)-di-cobalt 
4,4'-sulfonyldibenzoic acid methanol solvate]
;
_cell_volume   4989.420
_exptl_crystal_colour 'blue'
_exptl_crystal_density_diffrn 1.659
_exptl_crystal_description 'rod'
_diffrn_ambient_temperature 120
#These two values have been output from a single CSD field.
_refine_ls_R_factor_gt 0.0668
_refine_ls_wR_factor_gt 0.0668
_symmetry_cell_setting orthorhombic
_symmetry_space_group_name_H-M 'P n a 21'
_symmetry_Int_Tables_number 33
loop_
_symmetry_equiv_pos_site_id
_symmetry_equiv_pos_as_xyz
1 x,y,z
2 -x,-y,1/2+z
3 1/2-x,1/2+y,1/2+z
4 1/2+x,1/2-y,z
_cell_length_a 18.072(2)
_cell_length_b 21.785(2)
_cell_length_c 12.6732(14)
_cell_angle_alpha 90
_cell_angle_beta 90
_cell_angle_gamma 90
_cell_formula_units_Z 4
loop_
_atom_type_symbol
_atom_type_radius_bond
C 0.68
H 0.23
Co 1.26
N 0.68
O 0.68
S 1.02
loop_
_atom_site_label
_atom_site_type_symbol
_atom_site_fract_x
_atom_site_fract_y
_atom_site_fract_z
Co1 Co 0.33838(6) 0.72868(5) 0.03295(12)
Co2 Co 0.17469(6) 0.72211(6) 0.02650(12)
S1 S 0.2453(2) 0.60635(12) -0.6066(2)
S2 S 0.20862(16) 0.83997(11) 0.6766(2)
N1 N 0.4438(4) 0.7581(4) 0.0529(6)
N2 N 0.5629(4) 0.7902(3) 0.0418(7)
N3 N 0.4604(5) 0.7984(4) 0.1357(7)
N4 N 0.5145(5) 0.7281(4) -0.0955(6)
H1 H 0.47790 0.70840 -0.12270
H2 H 0.55630 0.72930 -0.12770
N5 N 0.5653(5) 0.8514(4) 0.1969(7)
H3 H 0.54170 0.86640 0.24990
H4 H 0.61130 0.86020 0.18780
O1 O 0.2106(4) 0.3093(3) -0.4972(5)
O2 O 0.1789(4) 1.1409(3) 0.5742(5)
O3 O 0.3449(4) 0.7041(3) -0.1232(5)
O4 O 0.3193(4) 0.7520(3) 0.1937(5)
O5 O 0.2227(4) 0.6950(3) -0.1063(5)
O6 O 0.1952(4) 0.7467(3) 0.1751(5)
O7 O 0.3317(4) 0.3105(3) -0.5278(5)
O8 O 0.3026(4) 1.1321(3) 0.5796(6)
O9 O 0.1718(6) 0.6212(4) -0.6402(7)
O10 O 0.3062(6) 0.6263(3) -0.6687(6)
O11 O 0.1334(5) 0.8265(3) 0.7088(6)
O12 O 0.2694(5) 0.8199(3) 0.7403(6)
C1 C 0.2808(6) 0.6926(5) -0.1588(8)
C2 C 0.2734(6) 0.6747(5) -0.2720(8)
C3 C 0.2039(6) 0.6607(5) -0.3112(9)
H5 H 0.16260 0.66430 -0.26800
C4 C 0.1957(7) 0.6413(6) -0.4151(10)
H6 H 0.14920 0.63220 -0.44210
C5 C 0.2564(6) 0.6359(4) -0.4757(10)
C6 C 0.3256(7) 0.6499(6) -0.4419(8)
H7 H 0.36610 0.64670 -0.48690
C7 C 0.3343(6) 0.6697(5) -0.3364(9)
H8 H 0.38110 0.67920 -0.31070
C8 C 0.2524(7) 0.5244(5) -0.5896(8)
C9 C 0.1906(7) 0.4936(5) -0.5615(9)
H9 H 0.14570 0.51410 -0.55480
C10 C 0.1953(6) 0.4316(5) -0.5432(8)
H10 H 0.15310 0.40940 -0.52550
C11 C 0.2629(6) 0.4021(5) -0.5509(8)
C12 C 0.3251(6) 0.4358(5) -0.5810(9)
H11 H 0.37040 0.41620 -0.58870
C13 C 0.3199(7) 0.4977(5) -0.5994(10)
H12 H 0.36130 0.52060 -0.61800
C14 C 0.2692(6) 0.3359(5) -0.5240(8)
C15 C 0.2534(6) 0.7557(4) 0.2276(8)
C16 C 0.2412(6) 0.7755(5) 0.3419(8)
C17 C 0.3011(6) 0.7918(6) 0.4034(8)
H13 H 0.34840 0.79140 0.37450
C18 C 0.2918(7) 0.8085(7) 0.5059(10)
H14 H 0.33250 0.81780 0.54780
C19 C 0.2211(6) 0.8116(4) 0.5470(8)
C20 C 0.1603(6) 0.7955(6) 0.4852(9)
H15 H 0.11270 0.79820 0.51270
C21 C 0.1709(7) 0.7754(6) 0.3830(9)
H16 H 0.13110 0.76210 0.34250
C22 C 0.2160(6) 0.9204(4) 0.6566(8)
C23 C 0.2843(7) 0.9481(5) 0.6680(9)
H17 H 0.32520 0.92530 0.68930
C24 C 0.2909(6) 1.0103(5) 0.6471(8)
H18 H 0.33650 1.02950 0.65510
C25 C 0.2311(6) 1.0437(4) 0.6150(8)
C26 C 0.1621(7) 1.0161(6) 0.6067(12)
H19 H 0.12050 1.03870 0.58800
C27 C 0.1573(8) 0.9529(5) 0.6275(11)
H20 H 0.11180 0.93330 0.62070
C28 C 0.2377(6) 1.1118(5) 0.5889(8)
C29 C 0.5061(5) 0.7574(4) -0.0020(7)
C30 C 0.5308(5) 0.8147(5) 0.1290(8)
S3 S 0.99098(18) 0.46928(15) 0.3301(3)
O13 O 0.6798(6) 0.6128(5) 0.1954(8)
H21 H 0.70540 0.64100 0.21780
O14 O 0.6302(7) 0.5446(6) 0.3078(13)
O15 O 1.0220(6) 0.2403(5) -0.0153(9)
H22 H 0.99810 0.22060 -0.05870
O16 O 1.0242(5) 0.3205(5) -0.1289(7)
O17 O 0.9957(5) 0.4355(4) 0.4273(7)
O18 O 1.0413(5) 0.5192(4) 0.3115(8)
C31 C 0.6822(9) 0.5658(8) 0.2634(13)
C32 C 0.7613(8) 0.5429(6) 0.2828(11)
C33 C 0.7709(8) 0.4899(8) 0.3441(12)
H23 H 0.73020 0.46950 0.37210
C34 C 0.8426(7) 0.4680(6) 0.3627(9)
H24 H 0.85020 0.43400 0.40580
C35 C 0.9022(7) 0.4977(5) 0.3158(9)
C36 C 0.8911(8) 0.5489(6) 0.252(1)
H25 H 0.93110 0.56820 0.22010
C37 C 0.8195(7) 0.5712(6) 0.2363(11)
H26 H 0.81180 0.60550 0.19390
C38 C 0.9993(6) 0.4176(7) 0.2225(10)
C39 C 0.9963(7) 0.3558(5) 0.2432(11)
H27 H 0.99010 0.34120 0.31170
C40 C 1.0027(7) 0.3154(6) 0.1575(9)
H28 H 1.00200 0.27320 0.16830
C41 C 1.0103(7) 0.3395(6) 0.0542(10)
C42 C 1.0118(7) 0.4018(6) 0.0419(11)
H29 H 1.01580 0.41750 -0.02610
C43 C 1.0078(7) 0.4421(7) 0.1237(9)
H30 H 1.01060 0.48430 0.11300
C44 C 1.0182(7) 0.3008(8) -0.0391(12)
O19 O 1.0533(9) 0.1796(7) -0.1866(13)
H31 H 1.026(6) 0.147(3) -0.155(8)
H32 H 1.026(6) 0.196(6) -0.245(8)
H33 H 1.100(4) 0.165(5) -0.212(12)
O20 O 0.4874(15) 0.5762(12) -0.623(2)
H34 H 0.46940 0.54750 -0.65650
C45 C 0.494(2) 0.5593(18) -0.513(3)
H35 H 0.52260 0.58990 -0.47690
H36 H 0.51860 0.52030 -0.50790
H37 H 0.44580 0.55660 -0.48240
O21 O 0.464(4) 0.547(3) -0.238(6)
H38 H 0.42790 0.54470 -0.27600
C46 C 0.493(3) 0.6041(13) -0.244(4)
H39 H 0.45760 0.63310 -0.21720
H40 H 0.50360 0.61350 -0.31650
H41 H 0.53740 0.60620 -0.20330
O22 O 0.5494(6) 0.6543(5) 0.1564(9)
H42 H 0.56310 0.64010 0.21300
C47 C 0.5102(11) 0.6090(9) 0.0998(17)
H43 H 0.46270 0.60270 0.13180
H44 H 0.53760 0.57120 0.10100
H45 H 0.50380 0.62210 0.02810
Co1B Co 0.16162(6) 0.22868(5) -0.46705(12)
Co1B* Co 0.16162(6) 1.22868(5) 0.53295(12)
Co2B Co 0.32531(6) 0.22211(6) -0.47350(12)
Co2B* Co 0.32531(6) 1.22211(6) 0.52650(12)
Co2C Co 0.67469(6) 0.77789(6) 0.02650(12)
N2C N 0.0629(4) 0.7098(3) 0.0418(7)
O1B O 0.2894(4) 0.8093(3) 0.0028(5)
O2B O 0.3211(4) 0.6409(3) 0.0742(5)
O7B O 0.1683(4) 0.8105(3) -0.0278(5)
O8B O 0.1974(4) 0.6321(3) 0.0796(6)
#END
