
#######################################################################
#
#                 Cambridge Crystallographic Data Centre
#                                CCDC
#
#######################################################################
#
# If this CIF has been generated from an entry in the Cambridge
# Structural Database, then it will include bibliographic, chemical,
# crystal, experimental, refinement or atomic coordinate data resulting
# from the CCDC's data processing and validation procedures.
#
#######################################################################

data_CSD_CIF_IBACAS
_audit_creation_date 2016-11-15
_audit_creation_method CSD-ConQuest-V1
_database_code_CSD IBACAS
_database_code_depnum_ccdc_archive 'CCDC 1055627'
_chemical_formula_sum 'C48 H45 Co2 N5 O21 S3'
_chemical_formula_moiety
;
H3 O1 1+,n(C30 H20 Co2 N5 O12 S2 1-),C14 H10 O6 S1,2(C2 H6 O1)
;
_journal_coden_Cambridge 1564
_journal_volume 81
_journal_year 2016
_journal_page_first 733
_journal_name_full 'ChemPlusChem '
loop_
_publ_author_name
"S.Bhattacharya"
"S.Pal"
"S.Natarajan"
_chemical_name_systematic
;
catena-[Oxonium 
bis(\m-4,4'-sulfonyldibenzoato)-(\m-3,5-diamino-1,2,4-triazolyl)-di-cobalt 
4,4'-sulfonyldibenzoic acid ethanol solvate]
;
_cell_volume   4981.345
_exptl_crystal_colour 'blue'
_exptl_crystal_density_diffrn 1.652
_exptl_crystal_description 'rod'
_diffrn_ambient_temperature 120
#These two values have been output from a single CSD field.
_refine_ls_R_factor_gt 0.0845
_refine_ls_wR_factor_gt 0.0845
_symmetry_cell_setting orthorhombic
_symmetry_space_group_name_H-M 'P n a 21'
_symmetry_Int_Tables_number 33
loop_
_symmetry_equiv_pos_site_id
_symmetry_equiv_pos_as_xyz
1 x,y,z
2 -x,-y,1/2+z
3 1/2-x,1/2+y,1/2+z
4 1/2+x,1/2-y,z
_cell_length_a 18.0156(15)
_cell_length_b 21.7598(18)
_cell_length_c 12.7070(11)
_cell_angle_alpha 90
_cell_angle_beta 90
_cell_angle_gamma 90
_cell_formula_units_Z 4
loop_
_atom_type_symbol
_atom_type_radius_bond
C 0.68
H 0.23
Co 1.26
N 0.68
O 0.68
S 1.02
loop_
_atom_site_label
_atom_site_type_symbol
_atom_site_fract_x
_atom_site_fract_y
_atom_site_fract_z
Co1 Co 0.33485(9) 0.73629(7) 0.03861(16)
Co2 Co 0.17260(9) 0.72688(7) 0.03151(16)
N1 N 0.4404(6) 0.7665(5) 0.0524(9)
O1 O 0.3403(5) 0.7097(4) -0.1167(7)
O2 O 0.3140(5) 0.7612(4) 0.1986(7)
O3 O 0.2197(5) 0.3133(4) -0.4954(7)
O4 O 0.1752(5) 1.1483(4) 0.5815(7)
O5 O 0.2172(5) 0.7009(4) -0.1040(7)
O6 O 0.1900(5) 0.7517(4) 0.1809(8)
N2 N 0.5619(6) 0.7912(4) 0.0464(9)
O7 O 0.3419(5) 0.3165(4) -0.5205(7)
O8 O 0.2987(5) 1.1378(4) 0.5852(7)
N3 N 0.4584(6) 0.8054(5) 0.1374(9)
C1 C 0.5032(7) 0.7614(6) 0.0017(10)
C2 C 0.2764(8) 0.6988(6) -0.1556(10)
C3 C 0.2497(8) 0.7631(6) 0.2329(10)
C4 C 0.5310(8) 0.8177(7) 0.1310(12)
N4 N 0.5085(6) 0.7295(5) -0.0901(9)
C5 C 0.2694(8) 0.6795(6) -0.2691(10)
C6 C 0.2355(8) 0.7823(6) 0.3451(10)
N5 N 0.5668(6) 0.8534(5) 0.1996(9)
H1 H 0.46980 0.71210 -0.11620
H2 H 0.55040 0.72680 -0.12200
C7 C 0.2032(8) 0.6634(7) -0.3080(12)
C8 C 0.3309(10) 0.6749(9) -0.3315(13)
C9 C 0.2948(9) 0.7987(10) 0.4102(13)
C10 C 0.1664(9) 0.7824(7) 0.3862(11)
H3 H 0.54300 0.86980 0.25110
H4 H 0.61350 0.85990 0.19230
H5 H 0.16160 0.66420 -0.26480
C11 C 0.1963(9) 0.6458(8) -0.4104(13)
C12 C 0.3258(9) 0.6568(7) -0.435(1)
H6 H 0.37720 0.68430 -0.30350
H7 H 0.34280 0.79660 0.38370
C13 C 0.2846(10) 0.8174(7) 0.5106(11)
C14 C 0.1562(10) 0.8012(7) 0.4902(12)
H8 H 0.12610 0.77010 0.34570
H9 H 0.14960 0.63640 -0.43690
C15 C 0.2564(8) 0.6416(7) -0.4747(12)
H10 H 0.36780 0.65470 -0.47730
H11 H 0.32460 0.82970 0.55180
C16 C 0.2133(9) 0.8178(7) 0.5504(12)
H12 H 0.10850 0.80220 0.51810
S1 S 0.2476(3) 0.61212(15) -0.6022(3)
S2 S 0.1999(3) 0.84617(16) 0.6804(3)
O9 O 0.1728(7) 0.6237(5) -0.6376(8)
O10 O 0.3091(7) 0.6343(5) -0.6631(8)
C17 C 0.2581(9) 0.5319(6) -0.5844(11)
O11 O 0.1242(7) 0.8324(4) 0.7115(8)
O12 O 0.2602(7) 0.8261(4) 0.7449(7)
C18 C 0.2078(9) 0.9264(6) 0.6624(11)
C19 C 0.1941(8) 0.4982(6) -0.5614(11)
C20 C 0.3266(9) 0.5049(6) -0.5869(11)
C21 C 0.2771(9) 0.9552(6) 0.6726(11)
C22 C 0.1495(10) 0.9606(7) 0.6354(14)
H13 H 0.14800 0.51720 -0.55870
C23 C 0.2011(8) 0.4344(6) -0.5423(11)
C24 C 0.3335(8) 0.4427(7) -0.5696(11)
H14 H 0.36860 0.52860 -0.60030
H15 H 0.31860 0.93250 0.69260
C25 C 0.2833(8) 1.0159(7) 0.6531(11)
C26 C 0.1550(9) 1.0240(7) 0.6150(13)
H16 H 0.10320 0.94180 0.62990
H17 H 0.15960 0.41040 -0.52790
C27 C 0.2713(8) 0.4085(7) -0.5454(11)
H18 H 0.37970 0.42380 -0.57420
H19 H 0.32950 1.03430 0.66060
C28 C 0.2253(8) 1.0511(6) 0.6233(11)
H20 H 0.11360 1.04710 0.59660
C29 C 0.2787(8) 0.3413(7) -0.5198(11)
C30 C 0.2339(8) 1.1179(6) 0.5961(10)
S3 S 0.9951(3) 0.4647(2) 0.3265(4)
O13 O 0.6735(9) 0.5958(8) 0.2081(15)
H21 H 0.63020 0.59280 0.18870
O14 O 0.6400(12) 0.5454(12) 0.350(2)
O15 O 1.0225(8) 0.2459(9) -0.0272(13)
H22 H 1.02840 0.22530 -0.08050
O16 O 1.0299(9) 0.3249(9) -0.1362(12)
O17 O 1.0038(7) 0.4296(5) 0.4234(9)
O18 O 1.0441(7) 0.5160(6) 0.3096(11)
C31 C 0.6865(14) 0.5554(16) 0.284(2)
C32 C 0.7617(12) 0.5364(10) 0.2938(15)
C33 C 0.7781(13) 0.4823(14) 0.3586(16)
H23 H 0.73950 0.46140 0.39140
C34 C 0.8484(11) 0.4625(9) 0.3711(14)
H24 H 0.85930 0.42930 0.41460
C35 C 0.9049(10) 0.4936(8) 0.3163(13)
C36 C 0.8888(10) 0.5415(8) 0.2492(13)
H25 H 0.92630 0.56100 0.21180
C37 C 0.8180(12) 0.5595(10) 0.2388(15)
H26 H 0.80760 0.59010 0.18990
C38 C 1.0036(10) 0.4148(10) 0.2177(15)
C39 C 0.9982(11) 0.3515(9) 0.2345(17)
H27 H 0.98990 0.33600 0.30170
C40 C 1.0058(10) 0.3110(11) 0.1471(16)
H28 H 1.00470 0.26850 0.15520
C41 C 1.0150(9) 0.3391(10) 0.0464(15)
C42 C 1.0186(10) 0.4016(9) 0.0350(16)
H29 H 1.02350 0.41910 -0.03150
C43 C 1.0151(11) 0.4376(10) 0.1214(14)
H30 H 1.02090 0.47990 0.11360
C44 C 1.0253(12) 0.3013(17) -0.050(2)
O19 O 0.5446(10) 0.6352(8) 0.1315(14)
O20 O -0.049(7) 0.956(4) 0.695(5)
H31 H -0.03620 0.93490 0.64500
C45 C -0.037(3) 0.922(2) 0.795(4)
H32 H -0.06060 0.88230 0.78420
H33 H 0.01600 0.91360 0.79810
C46 C -0.057(5) 0.939(2) 0.902(5)
H34 H -0.04220 0.90750 0.94960
H35 H -0.03210 0.97690 0.91980
H36 H -0.10970 0.94520 0.90580
O21 O 1.0490(9) 0.1769(7) -0.2092(15)
H37 H 1.08760 0.17460 -0.17520
C47 C 0.9941(15) 0.1364(14) -0.164(2)
H38 H 0.97320 0.11540 -0.22470
H39 H 0.95550 0.16390 -0.13980
C48 C 0.9972(16) 0.0877(16) -0.081(3)
H40 H 0.94870 0.07010 -0.07210
H41 H 1.03140 0.05620 -0.10220
H42 H 1.01340 0.10550 -0.01600
Co1B Co 0.16515(9) 0.23629(7) -0.46139(16)
Co1B* Co 0.16515(9) 1.23629(7) 0.53861(16)
Co2B Co 0.32740(9) 0.22688(7) -0.46849(16)
Co2B* Co 0.32740(9) 1.22688(7) 0.53151(16)
Co2C Co 0.67260(9) 0.77312(7) 0.03151(16)
O3B O 0.2803(5) 0.8133(4) 0.0046(7)
O4B O 0.3248(5) 0.6483(4) 0.0815(7)
N2C N 0.0619(6) 0.7088(4) 0.0464(9)
O7B O 0.1581(5) 0.8165(4) -0.0205(7)
O8B O 0.2013(5) 0.6378(4) 0.0852(7)
#END
