
#######################################################################
#
#                 Cambridge Crystallographic Data Centre
#                                CCDC
#
#######################################################################
#
# If this CIF has been generated from an entry in the Cambridge
# Structural Database, then it will include bibliographic, chemical,
# crystal, experimental, refinement or atomic coordinate data resulting
# from the CCDC's data processing and validation procedures.
#
#######################################################################

data_CSD_CIF_IBAREJ
_audit_creation_date 2004-11-03
_audit_creation_method CSD-ConQuest-V1
_database_code_CSD IBAREJ
_database_code_depnum_ccdc_archive 'CCDC 251844'
_chemical_formula_sum 'C28 H58 Bi2 Cs2 N4 O27'
_chemical_formula_moiety
;
(Cs1 1+)2n,n(C28 H36 Bi2 N4 O16 2-),11n(H2 O1)
;
_journal_coden_Cambridge 233
_journal_volume 49
_journal_year 2004
_journal_page_first 231
_journal_name_full 'Zh.Neorg.Khim.(Russ.)(Russ.J.Inorg.Chem.) '
loop_
_publ_author_name
"R.L.Davidovich"
"D.Yu.Popov"
"A.V.Gerasimenko"
"V.B.Logvinova"
_chemical_name_systematic
;
catena-(Dicesium 
(\m~4~-1,2-cyclohexanediaminotetraacetato)-(\m~2~-1,2-cyclohexanediaminotetraa
cetato)-di-bismuth(iii) undecahydrate)
;
_cell_volume   2365.730
_exptl_crystal_colour 'colorless'
_exptl_crystal_density_diffrn 2.199
_exptl_crystal_description 'prism'
_diffrn_ambient_temperature 295
_refine_special_details
;
Two water molecules are disordered over two positions with occupancies 
0.5:0.5 and 0.60:0.40 respectively.
;
#These two values have been output from a single CSD field.
_refine_ls_R_factor_gt 0.0355
_refine_ls_wR_factor_gt 0.0355
_symmetry_cell_setting triclinic
_symmetry_space_group_name_H-M 'P -1'
_symmetry_Int_Tables_number 2
loop_
_symmetry_equiv_pos_site_id
_symmetry_equiv_pos_as_xyz
1 x,y,z
2 -x,-y,-z
_cell_length_a 13.5053(9)
_cell_length_b 13.5734(9)
_cell_length_c 14.712(1)
_cell_angle_alpha 71.145(2)
_cell_angle_beta 75.085(2)
_cell_angle_gamma 70.030(1)
_cell_formula_units_Z 2
loop_
_atom_type_symbol
_atom_type_radius_bond
C 0.68
H 0.23
Bi 1.84
Cs 1.67
N 0.68
O 0.68
loop_
_atom_site_label
_atom_site_type_symbol
_atom_site_fract_x
_atom_site_fract_y
_atom_site_fract_z
Bi1 Bi 0.43320(1) -0.072770(11) -0.083380(9)
Bi2 Bi 0.351300(9) 0.14547(1) -0.542330(9)
Cs1 Cs 0.51776(3) 0.42500(3) -0.11969(2)
Cs2 Cs 0.38788(3) -0.17113(3) -0.59865(3)
O1 O 0.4629(2) 0.0921(3) -0.0661(3)
O2 O 0.3908(4) 0.2611(3) -0.0610(4)
O3 O 0.3219(2) -0.1433(2) 0.0579(2)
O4 O 0.2385(3) -0.1081(3) 0.1991(2)
O5 O 0.4492(2) -0.2523(2) -0.0918(2)
O6 O 0.3519(3) -0.3634(3) -0.0686(3)
O7 O 0.4462(2) 0.0400(2) -0.24701(19)
O8 O 0.4672(2) 0.0257(2) -0.39794(19)
O9 O 0.2428(2) 0.1945(2) -0.4038(2)
O10 O 0.2239(3) 0.2996(3) -0.3087(2)
O11 O 0.4906(2) 0.2330(2) -0.5772(2)
O12 O 0.5447(3) 0.3687(3) -0.6885(3)
O13 O 0.3904(2) 0.1796(2) -0.71338(18)
O14 O 0.3592(2) 0.1362(3) -0.8340(2)
O15 O 0.2470(2) 0.0128(2) -0.4874(2)
O16 O 0.0795(2) 0.0068(2) -0.4281(2)
O17 O 0.1413(3) -0.0928(3) -0.6140(3)
O18 O 0.1902(4) -0.3188(4) -0.5273(4)
O19 O 0.2862(5) 0.4412(5) -0.2476(5)
O20 O 0.1918(4) 0.3668(4) -0.9381(4)
O21 O 0.0823(5) 0.8082(4) -0.2966(4)
O22 O 0.7333(5) 0.3489(5) -0.6455(5)
O23 O 0.6789(5) 0.3263(4) -0.2896(4)
O24 O 0.0140(5) 0.2774(5) -0.8887(4)
O25 O 0.3561(3) 0.4157(3) 0.1198(3)
O26 O 0.5179(10) -0.399(1) -0.6249(9)
O27? O 0.5069(10) -0.4246(9) -0.5601(10)
O28 O 0.1908(6) 0.5571(7) -0.0888(7)
O29? O 0.1508(13) 0.5986(13) -0.0083(15)
N1 N 0.2642(2) 0.0672(2) -0.0467(2)
N2 N 0.3010(2) -0.0736(2) -0.1730(2)
N3 N 0.2821(2) 0.3445(2) -0.5701(2)
N4 N 0.1876(2) 0.2074(2) -0.6187(2)
C1 C 0.2821(3) 0.1759(3) -0.0897(3)
H1 H 0.22390 0.22860 -0.06160
H2 H 0.28180 0.19650 -0.15920
C2 C 0.3870(4) 0.1782(4) -0.0723(4)
C3 C 0.2431(4) 0.0428(4) 0.0615(3)
H3 H 0.16840 0.07660 0.08290
H4 H 0.28550 0.07420 0.08220
C4 C 0.2693(3) -0.0781(4) 0.1096(3)
C5 C 0.1722(3) 0.0571(3) -0.0807(3)
H5 H 0.14670 -0.00190 -0.03230
C6 C 0.2080(3) 0.0275(3) -0.1774(2)
H6 H 0.23220 0.08720 -0.22590
C7 C 0.2710(3) -0.1761(3) -0.1274(3)
H7 H 0.24300 -0.19180 -0.17400
H8 H 0.21450 -0.16670 -0.07210
C8 C 0.3635(3) -0.2716(3) -0.0935(3)
C9 C 0.3603(3) -0.0736(3) -0.2730(2)
H9 H 0.30980 -0.05320 -0.31690
H10 H 0.40560 -0.14640 -0.27380
C10 C 0.4288(3) 0.0042(3) -0.3090(3)
C11 C 0.1143(3) 0.0168(3) -0.2103(3)
H11 H 0.13820 -0.00040 -0.27280
H12 H 0.08870 -0.04200 -0.16360
C12 C 0.0236(3) 0.1219(4) -0.2189(3)
H13 H 0.04810 0.18020 -0.26770
H14 H -0.03510 0.11360 -0.23960
C13 C -0.0145(3) 0.1503(4) -0.1231(4)
H15 H -0.04310 0.09410 -0.07530
H16 H -0.07120 0.21800 -0.12990
C14 C 0.0777(3) 0.1618(4) -0.0878(3)
H17 H 0.05240 0.17690 -0.02440
H18 H 0.10180 0.22240 -0.13270
C15 C 0.2810(3) 0.3643(3) -0.4770(3)
H19 H 0.23310 0.43560 -0.47420
H20 H 0.35210 0.36430 -0.47450
C16 C 0.2462(3) 0.2809(3) -0.3894(3)
C17 C 0.3604(3) 0.3914(3) -0.6483(3)
H21 H 0.35000 0.46520 -0.64670
H22 H 0.34740 0.39410 -0.71110
C18 C 0.4744(3) 0.3260(3) -0.6375(3)
C19 C 0.1697(3) 0.3860(3) -0.5925(3)
H23 H 0.12130 0.36930 -0.53100
C20 C 0.1567(3) 0.3282(3) -0.6606(3)
H24 H 0.20620 0.34390 -0.72150
C21 C 0.1029(3) 0.1668(3) -0.5443(3)
H25 H 0.04890 0.16670 -0.57670
H26 H 0.06910 0.21590 -0.50260
C22 C 0.1466(3) 0.0523(3) -0.4816(3)
C23 C 0.2199(3) 0.1536(3) -0.6993(3)
H27 H 0.16890 0.18930 -0.74390
H28 H 0.21890 0.07860 -0.67290
C24 C 0.3315(3) 0.1576(3) -0.7548(3)
C25 C 0.0431(3) 0.3734(3) -0.6854(3)
H29 H 0.03790 0.33880 -0.73170
H30 H -0.00760 0.35650 -0.62690
C26 C 0.0148(4) 0.4962(4) -0.7288(4)
H31 H 0.06320 0.51330 -0.78910
H32 H -0.05730 0.52270 -0.74340
C27 C 0.0227(4) 0.5507(4) -0.6577(4)
H33 H -0.02730 0.53530 -0.59810
H34 H 0.00440 0.62870 -0.68510
C28 C 0.1362(4) 0.5092(3) -0.6352(4)
H35 H 0.14080 0.54450 -0.58930
H36 H 0.18520 0.52820 -0.69460
H37 H 0.078(5) -0.057(5) -0.592(5)
H38 H 0.146(5) -0.070(5) -0.671(5)
H39 H 0.224(2) -0.345(7) -0.4827(17)
H40 H 0.252(8) 0.385(8) -0.260(7)
H41 H 0.268(8) 0.505(8) -0.314(7)
H42 H 0.142(6) 0.340(6) -0.935(6)
H43 H 0.193(7) 0.394(7) -0.996(6)
Bi1A Bi 0.56680(1) 0.072770(11) 0.083380(9)
O1A O 0.5371(2) -0.0921(3) 0.0661(3)
O8A O 0.5328(2) -0.0257(2) -0.60206(19)
Bi2A Bi 0.648700(9) -0.14547(1) -0.457670(9)
Bi1A* Bi 0.56680(1) 0.072770(11) -0.916620(9)
O14A O 0.6408(2) -0.1362(3) -0.1660(2)
#END
