
#######################################################################
#
#                 Cambridge Crystallographic Data Centre
#                                CCDC
#
#######################################################################
#
# If this CIF has been generated from an entry in the Cambridge
# Structural Database, then it will include bibliographic, chemical,
# crystal, experimental, refinement or atomic coordinate data resulting
# from the CCDC's data processing and validation procedures.
#
#######################################################################

data_CSD_CIF_IBEXAS
_audit_creation_date 2021-08-09
_audit_creation_method CSD-ConQuest-V1
_database_code_CSD IBEXAS
_database_code_depnum_ccdc_archive 'CCDC 2091685'
_chemical_formula_sum 'C31 H33 O8 P1 U1'
_chemical_formula_moiety
;
(C12 H15 O8 U1 1-)n,C19 H18 P1 1+
;
_journal_coden_Cambridge 222
_journal_volume 50
_journal_year 2021
_journal_page_first 11021
_journal_name_full 'Dalton Trans. '
loop_
_publ_author_name
"P.Thuery"
"J.Harrowfield"
_chemical_name_systematic
;
catena-(methyl(triphenyl)phosphonium 
(\m-cis,cis-1,3,5-trimethylcyclohexane-1,3,5-tricarboxylate)-dioxo-uranium)
;
_chemical_name_common
;
catena-(methyl(triphenyl)phosphonium (mu-kemps tricarboxylate)-dioxo-uranium)
;
_cell_volume   2868.917
_exptl_crystal_colour 'intense yellow'
_exptl_crystal_density_diffrn 1.858
_exptl_special_details
;
Absolute configuration

;
_exptl_crystal_description 'irregular'
_diffrn_ambient_temperature 100
#These two values have been output from a single CSD field.
_refine_ls_R_factor_gt 0.0099
_refine_ls_wR_factor_gt 0.0099
_symmetry_cell_setting cubic
_symmetry_space_group_name_H-M 'P 21 3'
_symmetry_Int_Tables_number 198
loop_
_symmetry_equiv_pos_site_id
_symmetry_equiv_pos_as_xyz
1 x,y,z
2 1/2-x,-y,1/2+z
3 -x,1/2+y,1/2-z
4 1/2+x,1/2-y,-z
5 z,x,y
6 1/2+z,1/2-x,-y
7 1/2-z,-x,1/2+y
8 -z,1/2+x,1/2-y
9 y,z,x
10 -y,1/2+z,1/2-x
11 1/2+y,1/2-z,-x
12 1/2-y,-z,1/2+x
_cell_length_a 14.2093(8)
_cell_length_b 14.2093(8)
_cell_length_c 14.2093(8)
_cell_angle_alpha 90
_cell_angle_beta 90
_cell_angle_gamma 90
_cell_formula_units_Z 4
loop_
_atom_type_symbol
_atom_type_radius_bond
C 0.68
H 0.23
O 0.68
P 1.05
U 1.96
loop_
_atom_site_label
_atom_site_type_symbol
_atom_site_fract_x
_atom_site_fract_y
_atom_site_fract_z
U1 U 0.57006(2) 0.07006(2) 0.42994(2)
O1 O 0.49778(10) -0.00222(10) 0.50222(10)
O2 O 0.64243(11) 0.14243(11) 0.35757(11)
O3 O 0.44485(10) 0.06153(11) 0.31173(10)
O4 O 0.43988(11) 0.18328(10) 0.40564(10)
C1 C 0.31601(13) 0.17243(13) 0.28620(14)
C2 C 0.24809(14) 0.21800(14) 0.35710(13)
H1 H 0.28593 0.25321 0.40382
H2 H 0.21508 0.16707 0.39131
C3 C 0.40431(14) 0.13657(14) 0.33831(14)
C4 C 0.27153(14) 0.08733(14) 0.23700(15)
H3 H 0.25696 0.03877 0.28376
H4 H 0.31572 0.06197 0.19052
H5 H 0.21349 0.10685 0.20528
P1 P -0.01257(4) 0.01257(4) 0.51257(4)
C5 C -0.08472(13) 0.08472(13) 0.58472(13)
H6 H -0.07377 0.15102 0.56919
C6 C 0.10864(15) 0.04262(15) 0.53263(15)
C7 C 0.18132(16) -0.01698(16) 0.50137(16)
H7 H 0.16674 -0.07412 0.46986
C8 C 0.27471(15) 0.00830(16) 0.51691(16)
H8 H 0.32394 -0.03121 0.49489
C9 C 0.29632(14) 0.09106(14) 0.56449(17)
H9 H 0.36018 0.10762 0.57535
C10 C 0.22460(16) 0.14957(17) 0.59616(16)
H10 H 0.23960 0.20573 0.62920
C11 C 0.13071(14) 0.12617(14) 0.57964(16)
H11 H 0.08189 0.16692 0.60029
H12? H -0.07377 0.15102 0.56919
H13? H -0.07377 0.15102 0.56919
O3D O 0.31173(10) 0.44485(11) 0.06153(10)
O4D O 0.40564(11) 0.43988(10) 0.18328(10)
C1D C 0.28620(13) 0.31601(13) 0.17243(14)
C2D C 0.35710(14) 0.24809(14) 0.21800(13)
H1D H 0.40382 0.28593 0.25321
H2D H 0.39131 0.21508 0.16707
C3D C 0.33831(14) 0.40431(14) 0.13657(14)
C4D C 0.23700(14) 0.27153(14) 0.08733(15)
H3D H 0.28376 0.25696 0.03877
H4D H 0.19052 0.31572 0.06197
H5D H 0.20528 0.21349 0.10685
O3H O 0.06153(10) 0.31173(11) 0.44485(10)
O4H O 0.18328(11) 0.40564(10) 0.43988(10)
C1H C 0.17243(13) 0.28620(13) 0.31601(14)
C2H C 0.21800(14) 0.35710(14) 0.24809(13)
H1H H 0.25321 0.40382 0.28593
H2H H 0.16707 0.39131 0.21508
C3H C 0.13657(14) 0.33831(14) 0.40431(14)
C4H C 0.08733(14) 0.23700(14) 0.27153(15)
H3H H 0.03877 0.28376 0.25696
H4H H 0.06197 0.19052 0.31572
H5H H 0.10685 0.20528 0.21349
U1B U 0.42994(2) 0.57006(2) 0.07006(2)
U1C U 0.07006(2) 0.42994(2) 0.57006(2)
O3G O 0.68827(10) -0.05515(11) 0.43847(10)
O3J O 0.56153(10) 0.18827(11) 0.55515(10)
O4G O 0.59436(11) -0.06012(10) 0.31672(10)
O4J O 0.68328(11) 0.09436(10) 0.56012(10)
H6F H -0.06919 0.07377 0.65102
H6I H -0.15102 0.06919 0.57377
C6F C -0.03263(15) -0.10864(15) 0.54262(15)
C7F C -0.00137(16) -0.18132(16) 0.48302(16)
H7F H 0.03014 -0.16674 0.42588
C8F C -0.01691(15) -0.27471(16) 0.50830(16)
H8F H 0.00511 -0.32394 0.46879
C9F C -0.06449(14) -0.29632(14) 0.59106(17)
H9F H -0.07535 -0.36018 0.60762
C10F C -0.09616(16) -0.22460(17) 0.64957(16)
H10F H -0.12920 -0.23960 0.70573
C11F C -0.07964(14) -0.13071(14) 0.62617(16)
H11F H -0.10029 -0.08189 0.66692
C6I C -0.04262(15) 0.03263(15) 0.39136(15)
C7I C 0.01698(16) 0.00137(16) 0.31868(16)
H7I H 0.07412 -0.03014 0.33326
C8I C -0.00830(15) 0.01691(16) 0.22529(16)
H8I H 0.03121 -0.00511 0.17606
C9I C -0.09106(14) 0.06449(14) 0.20368(17)
H9I H -0.10762 0.07535 0.13982
C10I C -0.14957(16) 0.09616(17) 0.27540(16)
H10I H -0.20573 0.12920 0.26040
C11I C -0.12617(14) 0.07964(14) 0.36929(16)
H11I H -0.16692 0.10029 0.41811
#END
