
#######################################################################
#
#                 Cambridge Crystallographic Data Centre
#                                CCDC
#
#######################################################################
#
# If this CIF has been generated from an entry in the Cambridge
# Structural Database, then it will include bibliographic, chemical,
# crystal, experimental, refinement or atomic coordinate data resulting
# from the CCDC's data processing and validation procedures.
#
#######################################################################

data_CSD_CIF_IBIHEI
_audit_creation_date 2012-03-13
_audit_creation_method CSD-ConQuest-V1
_database_code_CSD IBIHEI
_database_code_depnum_ccdc_archive 'CCDC 857883'
_chemical_formula_sum 'C172 H136 In20 N30 Ni4 O3 S38'
_chemical_formula_moiety
;
(C36 H24 N6 Ni1 1+)4n,2n(In10 S19 4-),2n(C12 H9 N2 1+),2n(C2 H8 N1 1+),3n(H2 
O1)
;
_journal_coden_Cambridge 9
_journal_volume 50
_journal_year 2011
_journal_page_first 6972
_journal_name_full 'Inorg.Chem. '
loop_
_publ_author_name
"Xu Zhang"
"Wen Luo"
"Ya-Ping Zhang"
"Jian-Bing Jiang"
"Qin-Yu Zhu"
"Jie Dai"
_chemical_name_systematic
;
catena-(tetrakis(tris(1,10-Phenanthroline)-nickel) bis(1,10-phenthrolinium) 
tetrakis(\m~3~-sulfido)-tridecakis(\m~2~-sulfido)-dithio-deca-indium 
bis(dimethylammonium) trihydrate)
;
_cell_volume  21777.163
_exptl_crystal_colour 'pink'
_exptl_crystal_density_diffrn 1.96
_exptl_crystal_description 'block'
_diffrn_ambient_temperature 223
_refine_special_details
;
The SQUEEZE/PLATON program has been used to model some disorder.

;
#These two values have been output from a single CSD field.
_refine_ls_R_factor_gt 0.0684
_refine_ls_wR_factor_gt 0.0684
_symmetry_cell_setting monoclinic
_symmetry_space_group_name_H-M 'C 2/c'
_symmetry_Int_Tables_number 15
loop_
_symmetry_equiv_pos_site_id
_symmetry_equiv_pos_as_xyz
1 x,y,z
2 -x,y,1/2-z
3 1/2+x,1/2+y,z
4 1/2-x,1/2+y,1/2-z
5 -x,-y,-z
6 x,-y,-1/2+z
7 -1/2-x,-1/2-y,-z
8 -1/2+x,-1/2-y,-1/2+z
_cell_length_a 29.9641(16)
_cell_length_b 18.4435(8)
_cell_length_c 41.506(2)
_cell_angle_alpha 90
_cell_angle_beta 108.306(1)
_cell_angle_gamma 90
_cell_formula_units_Z 4
loop_
_atom_type_symbol
_atom_type_radius_bond
C 0.68
H 0.23
In 1.42
N 0.68
Ni 1.24
S 1.02
loop_
_atom_site_label
_atom_site_type_symbol
_atom_site_fract_x
_atom_site_fract_y
_atom_site_fract_z
Ni1 Ni 0.28386(4) 0.14409(6) 0.10404(3)
N1 N 0.2711(3) 0.0350(4) 0.0989(2)
N2 N 0.3317(3) 0.1152(4) 0.07869(19)
N3 N 0.3375(3) 0.1270(4) 0.14987(19)
N4 N 0.3092(3) 0.2494(4) 0.11539(19)
N5 N 0.2285(3) 0.1685(4) 0.12308(19)
N6 N 0.2305(3) 0.1703(4) 0.05901(18)
C1 C 0.2416(4) -0.0052(6) 0.1095(3)
H1 H 0.22000 0.01810 0.11780
C2 C 0.2418(4) -0.0814(7) 0.1087(3)
H2 H 0.22110 -0.10770 0.11690
C3 C 0.2722(4) -0.1161(6) 0.0960(3)
H3 H 0.27260 -0.16660 0.09590
C4 C 0.3029(3) -0.0782(5) 0.0832(2)
C5 C 0.3006(3) -0.0021(5) 0.0853(2)
C6 C 0.3622(3) 0.1558(6) 0.0694(2)
H4 H 0.36270 0.20550 0.07310
C7 C 0.3933(3) 0.1261(6) 0.0542(3)
H5 H 0.41410 0.15620 0.04800
C8 C 0.3938(3) 0.0539(5) 0.0485(3)
H6 H 0.41420 0.03480 0.03770
C9 C 0.3636(3) 0.0082(5) 0.0586(2)
C10 C 0.3324(3) 0.0424(4) 0.0738(2)
C11 C 0.3346(3) -0.1082(6) 0.0676(3)
H7 H 0.33550 -0.15830 0.06540
C12 C 0.3627(4) -0.0682(6) 0.0561(3)
H8 H 0.38260 -0.09090 0.04600
C13 C 0.3530(4) 0.0635(6) 0.1662(2)
H9 H 0.33620 0.02130 0.15810
C14 C 0.3927(4) 0.0592(6) 0.1942(3)
H10 H 0.40270 0.01470 0.20450
C15 C 0.4167(4) 0.1204(7) 0.2065(3)
H11 H 0.44280 0.11790 0.22590
C16 C 0.4033(4) 0.1873(6) 0.1906(3)
C17 C 0.3629(3) 0.1867(5) 0.1619(2)
C18 C 0.2938(3) 0.3108(6) 0.1002(3)
H12 H 0.26810 0.30870 0.08050
C19 C 0.3126(4) 0.3792(6) 0.1108(3)
H13 H 0.29920 0.42090 0.09910
C20 C 0.3513(4) 0.3827(6) 0.1389(3)
H14 H 0.36530 0.42720 0.14640
C21 C 0.3702(4) 0.3191(6) 0.1566(3)
C22 C 0.3471(3) 0.2539(5) 0.1439(2)
C23 C 0.4262(4) 0.2538(7) 0.2022(4)
H15 H 0.45270 0.25480 0.22130
C24 C 0.4101(4) 0.3141(8) 0.1860(3)
H16 H 0.42600 0.35680 0.19440
C25 C 0.2296(4) 0.1684(5) 0.1552(2)
H17 H 0.25570 0.14950 0.17170
C26 C 0.1920(4) 0.1964(6) 0.1647(3)
H18 H 0.19360 0.19730 0.18750
C27 C 0.1529(4) 0.2223(5) 0.1403(3)
H19 H 0.12770 0.24050 0.14640
C28 C 0.1508(3) 0.2213(5) 0.1060(2)
C29 C 0.1897(3) 0.1938(5) 0.0984(2)
C30 C 0.2321(4) 0.1673(5) 0.0270(2)
H20 H 0.25960 0.15230 0.02310
C31 C 0.1932(3) 0.1862(6) -0.0004(2)
H21 H 0.19510 0.18290 -0.02230
C32 C 0.1523(4) 0.2096(5) 0.0042(3)
H22 H 0.12640 0.22180 -0.01420
C33 C 0.1504(3) 0.2147(5) 0.0381(2)
C34 C 0.1905(3) 0.1931(5) 0.0641(2)
C35 C 0.1107(3) 0.2454(6) 0.0789(3)
H23 H 0.08450 0.26350 0.08370
C36 C 0.1105(4) 0.2419(6) 0.0462(3)
H24 H 0.08410 0.25740 0.02890
Ni2 Ni 0.54746(4) 0.30162(7) -0.05415(3)
N7 N 0.5186(2) 0.1991(4) -0.05237(18)
N8 N 0.5588(3) 0.2518(5) -0.0965(2)
N9 N 0.6122(3) 0.2720(4) -0.02023(18)
N10 N 0.5876(3) 0.3943(4) -0.0562(2)
N11 N 0.5247(3) 0.3455(4) -0.0150(2)
N12 N 0.4861(3) 0.3543(5) -0.0827(2)
C37 C 0.5014(3) 0.1721(5) -0.0287(2)
H25 H 0.49830 0.20290 -0.01180
C38 C 0.4878(4) 0.0982(5) -0.0285(3)
H26 H 0.47650 0.08070 -0.01150
C39 C 0.4916(3) 0.0537(6) -0.0537(3)
H27 H 0.48170 0.00580 -0.05450
C40 C 0.5103(3) 0.0799(6) -0.0785(3)
C41 C 0.5236(3) 0.1540(5) -0.0767(2)
C42 C 0.5794(4) 0.2792(7) -0.1181(3)
H28 H 0.58970 0.32700 -0.11570
C43 C 0.5859(4) 0.2364(8) -0.1449(3)
H29 H 0.59960 0.25680 -0.16000
C44 C 0.5722(4) 0.1671(8) -0.1484(3)
H30 H 0.57690 0.13910 -0.16570
C45 C 0.5509(3) 0.1366(6) -0.1262(3)
C46 C 0.5449(3) 0.1827(5) -0.1004(3)
C47 C 0.5174(4) 0.0359(6) -0.1049(3)
H31 H 0.50860 -0.01270 -0.10640
C48 C 0.5363(4) 0.0633(6) -0.1273(3)
H32 H 0.54010 0.03330 -0.14420
C49 C 0.6246(3) 0.2109(5) -0.0026(2)
H33 H 0.60180 0.17530 -0.00480
C50 C 0.6700(4) 0.1973(5) 0.0192(2)
H34 H 0.67700 0.15380 0.03100
C51 C 0.7036(3) 0.2491(6) 0.0228(2)
H35 H 0.73400 0.24120 0.03710
C52 C 0.6922(3) 0.3146(6) 0.0047(2)
C53 C 0.6457(3) 0.3235(5) -0.0166(2)
C54 C 0.5751(4) 0.4537(6) -0.0744(3)
H36 H 0.54450 0.45810 -0.08890
C55 C 0.6070(5) 0.5106(7) -0.0722(4)
H37 H 0.59730 0.55200 -0.08540
C56 C 0.6514(4) 0.5060(6) -0.0514(3)
H38 H 0.67200 0.54440 -0.05020
C57 C 0.6672(4) 0.4443(6) -0.0314(3)
C58 C 0.6332(3) 0.3897(5) -0.0354(2)
C59 C 0.7253(4) 0.3717(6) 0.0070(3)
H39 H 0.75630 0.36540 0.02050
C60 C 0.7127(4) 0.4337(7) -0.0097(3)
H40 H 0.73470 0.47070 -0.00690
C61 C 0.5432(4) 0.3378(6) 0.0187(2)
H41 H 0.57010 0.30980 0.02750
C62 C 0.5224(5) 0.3715(6) 0.0411(3)
H42 H 0.53570 0.36640 0.06450
C63 C 0.4826(5) 0.4117(7) 0.0280(4)
H43 H 0.46850 0.43290 0.04280
C64 C 0.4621(5) 0.4219(6) -0.0071(4)
C65 C 0.4849(4) 0.3867(5) -0.0276(3)
C66 C 0.4680(4) 0.3591(6) -0.1156(3)
H44 H 0.48050 0.33100 -0.12930
C67 C 0.4291(5) 0.4066(8) -0.1312(4)
H45 H 0.41870 0.41290 -0.15460
C68 C 0.4080(5) 0.4419(8) -0.1118(5)
H46 H 0.38120 0.46940 -0.12190
C69 C 0.4258(4) 0.4374(6) -0.0774(4)
C70 C 0.4649(4) 0.3928(6) -0.0636(3)
C71 C 0.4206(5) 0.4667(7) -0.0217(5)
H47 H 0.40620 0.49150 -0.00810
C72 C 0.4044(5) 0.4705(8) -0.0550(5)
H48 H 0.37700 0.49680 -0.06460
In1 In 0.51641(2) 0.23066(4) 0.112746(17)
In2 In 0.64786(2) 0.26323(4) 0.155330(16)
In3 In 0.59933(2) 0.10716(3) 0.083815(16)
In4 In 0.57958(2) 0.08816(4) 0.177984(16)
In5 In 0.78610(2) 0.28633(4) 0.196974(16)
In6 In 0.73913(2) 0.13156(3) 0.129959(16)
In7 In 0.72240(2) 0.11922(4) 0.223185(16)
In8 In 0.68743(2) -0.02130(3) 0.066972(16)
In9 In 0.67472(2) -0.04259(3) 0.154472(16)
In10 In 0.65670(2) -0.04747(4) 0.244080(16)
S1 S 0.44236(9) 0.30238(14) 0.09145(7)
S2 S 0.57486(9) 0.32789(14) 0.13351(7)
S3 S 0.52413(8) 0.16787(13) 0.06310(6)
S4 S 0.50581(9) 0.15207(14) 0.15699(7)
S5 S 0.70946(9) 0.34846(13) 0.18183(6)
S6 S 0.66329(8) 0.19921(12) 0.10698(6)
S7 S 0.64380(8) 0.17996(13) 0.20157(6)
S8 S 0.61220(8) 0.03747(13) 0.03843(6)
S9 S 0.59847(8) 0.02291(12) 0.13096(6)
S10 S 0.57614(8) -0.00094(14) 0.21922(6)
S11 S 0.80169(9) 0.21772(14) 0.15110(6)
S12 S 0.78566(9) 0.20619(14) 0.24410(6)
S13 S 0.75314(8) 0.06553(13) 0.08424(6)
S14 S 0.73897(8) 0.04860(12) 0.17726(6)
S15 S 0.71638(9) 0.04492(14) 0.26940(6)
S16 S 0.71073(10) -0.09383(14) 0.02462(6)
S17 S 0.69068(10) -0.11078(12) 0.11051(6)
S18 S 0.67600(8) -0.12258(12) 0.20106(6)
S19 S 0.64957(9) -0.12675(13) 0.28961(6)
In5C In 0.71390(2) -0.21367(4) 0.303026(16)
S19C S 0.85043(9) 0.37325(13) 0.21039(6)
#END
