
#######################################################################
#
#                 Cambridge Crystallographic Data Centre
#                                CCDC
#
#######################################################################
#
# If this CIF has been generated from an entry in the Cambridge
# Structural Database, then it will include bibliographic, chemical,
# crystal, experimental, refinement or atomic coordinate data resulting
# from the CCDC's data processing and validation procedures.
#
#######################################################################

data_CSD_CIF_IBIJIP
_audit_creation_date 2017-01-03
_audit_creation_method CSD-ConQuest-V1
_database_code_CSD IBIJIP
_database_code_depnum_ccdc_archive 'CCDC 1525262'
_chemical_formula_sum 'C18 H40 Mn4 N4 O34 P4'
_chemical_formula_moiety
;
(C8 H8 Mn4 O32 P4 4-)n,2(C5 H14 N2 2+),2(H2 O1)
;
_journal_coden_Cambridge 1295
_journal_volume 75
_journal_year 2017
_journal_page_first 46
_journal_name_full 'Inorg.Chem.Commun. '
loop_
_publ_author_name
"Wei Wang"
"Lindong Luan"
"Meng Yang"
"Kangcai Wang"
"Zhien Lin"
_chemical_name_systematic
;
catena-[bis(1-methylpiperazinediium) tetrakis(\m-oxalato)-bis(\m-dihydrogen 
phosphate)-bis(dihydrogen phosphate)-tetra-manganese dihydrate]
;
_cell_volume   2059.170
_exptl_crystal_colour 'light yellow'
_exptl_crystal_density_diffrn 1.936
_exptl_special_details
;
Absolute configuration

;
_exptl_crystal_description 'block'
_diffrn_ambient_temperature 293
#These two values have been output from a single CSD field.
_refine_ls_R_factor_gt 0.0659
_refine_ls_wR_factor_gt 0.0659
_symmetry_cell_setting monoclinic
_symmetry_space_group_name_H-M 'P 21'
_symmetry_Int_Tables_number 4
loop_
_symmetry_equiv_pos_site_id
_symmetry_equiv_pos_as_xyz
1 x,y,z
2 -x,1/2+y,-z
_cell_length_a 8.9018(2)
_cell_length_b 24.0828(4)
_cell_length_c 10.1128(2)
_cell_angle_alpha 90
_cell_angle_beta 108.230(3)
_cell_angle_gamma 90
_cell_formula_units_Z 2
loop_
_atom_type_symbol
_atom_type_radius_bond
C 0.68
H 0.23
Mn 1.61
N 0.68
O 0.68
P 1.05
loop_
_atom_site_label
_atom_site_type_symbol
_atom_site_fract_x
_atom_site_fract_y
_atom_site_fract_z
Mn1 Mn -0.92996(17) -0.50211(5) -0.84128(16)
Mn2 Mn -0.64096(17) -0.44981(5) -1.26563(16)
Mn3 Mn -0.71353(17) -0.32035(5) -1.12626(16)
Mn4 Mn -0.43085(17) -0.26769(5) -0.55373(16)
P1 P -0.9525(3) -0.61628(10) -0.6590(3)
P2 P -1.2627(3) -0.49108(10) -1.0982(3)
P3 P -0.4116(3) -0.15044(9) -0.7290(3)
P4 P -0.0457(3) -0.29752(10) -0.3920(3)
O1 O -0.9999(9) -0.5797(3) -0.7838(9)
O2 O -1.0769(9) -0.6580(3) -0.6546(10)
O3 O -0.7928(10) -0.6457(4) -0.6514(11)
H1 H -0.75490 -0.66000 -0.57450
O4 O -0.9158(12) -0.5772(4) -0.5282(10)
H2 H -0.91240 -0.59570 -0.45920
O5 O -1.1513(8) -0.4715(3) -0.9631(9)
O6 O -1.4108(9) -0.4575(4) -1.1394(8)
O7 O -1.2903(12) -0.5534(3) -1.0805(10)
H3 H -1.35370 -0.56550 -1.15220
O8 O -1.1795(12) -0.4885(4) -1.2121(11)
H4 H -1.19860 -0.45860 -1.25260
O9 O -0.359(1) -0.1894(3) -0.6063(9)
O10 O -0.2528(10) -0.1189(3) -0.7270(9)
H5 H -0.26940 -0.08540 -0.73450
O11 O -0.4572(11) -0.1847(4) -0.869(1)
H6 H -0.55240 -0.18170 -0.90900
O12 O -0.5390(11) -0.1111(4) -0.7287(9)
O13 O -0.2097(9) -0.2809(3) -0.4050(8)
O14 O 0.0557(8) -0.3056(3) -0.2456(8)
O15 O -0.0583(9) -0.3528(3) -0.4793(9)
H7 H 0.03060 -0.36340 -0.47470
O16 O 0.0325(11) -0.2561(3) -0.4708(9)
H8 H 0.05090 -0.22660 -0.42840
O17 O -0.7007(8) -0.5026(3) -0.6725(8)
O18 O -0.5931(8) -0.4856(3) -0.4464(8)
O19 O -0.9682(8) -0.4529(3) -0.6680(7)
O20 O -0.8591(8) -0.4356(3) -0.4401(8)
O21 O -0.8346(10) -0.4295(3) -0.9368(9)
O22 O -0.7480(8) -0.4108(3) -1.1153(8)
O23 O -0.8278(9) -0.5390(3) -0.9939(8)
O24 O -0.7316(9) -0.5182(3) -1.1680(8)
O25 O -0.4912(8) -0.3283(3) -0.9506(8)
O26 O -0.3897(9) -0.3146(3) -0.7247(8)
O27 O -0.7689(8) -0.2864(3) -0.9482(7)
O28 O -0.6634(8) -0.2671(3) -0.7229(8)
O29 O -0.5317(9) -0.2308(3) -0.4015(8)
O30 O -0.6181(9) -0.2507(3) -0.2231(9)
O31 O -0.5293(9) -0.3392(3) -0.4618(8)
O32 O -0.6133(9) -0.3584(3) -0.2812(8)
C1 C -0.7034(11) -0.4841(3) -0.557(1)
C2 C -0.8600(11) -0.4550(4) -0.5568(10)
C3 C -0.7912(11) -0.4427(4) -1.0363(10)
C4 C -0.7859(11) -0.5064(4) -1.0684(10)
C5 C -0.4988(11) -0.3119(4) -0.8369(10)
C6 C -0.6576(11) -0.2858(4) -0.8342(11)
C7 C -0.5748(10) -0.2634(4) -0.3238(11)
C8 C -0.5731(11) -0.3265(4) -0.3607(11)
O33 O -0.7438(13) -0.1625(4) -1.0428(11)
H9 H -0.80070 -0.13490 -1.03720
H10 H -0.78120 -0.17760 -1.12240
O34 O -1.2863(12) -0.4155(3) -1.4078(12)
H11 H -1.38680 -0.41660 -1.43630
H12 H -1.25120 -0.42280 -1.47500
N1 N -1.4124(11) -0.5119(4) -0.7069(11)
H13 H -1.51480 -0.50960 -0.68990
N2 N -1.3666(14) -0.6269(4) -0.6378(15)
H14 H -1.39910 -0.65830 -0.60930
H15 H -1.27420 -0.63360 -0.65150
C9 C -1.3776(16) -0.4570(5) -0.7527(16)
H16 H -1.45780 -0.44720 -0.83780
H17 H -1.37580 -0.43000 -0.68240
H18 H -1.27640 -0.45780 -0.76780
C10 C -1.2934(18) -0.5298(5) -0.5757(14)
H19 H -1.28410 -0.50210 -0.50400
H20 H -1.19110 -0.53380 -0.58980
C11 C -1.344(2) -0.5853(6) -0.5301(17)
H21 H -1.26450 -0.59780 -0.44610
H22 H -1.44250 -0.58030 -0.50890
C12 C -1.4262(14) -0.5551(5) -0.8171(15)
H23 H -1.32460 -0.56030 -0.83200
H24 H -1.50200 -0.54320 -0.90410
C13 C -1.4809(15) -0.6100(5) -0.7686(19)
H25 H -1.58390 -0.60500 -0.75630
H26 H -1.49010 -0.63850 -0.83840
N3 N -0.0636(10) -0.2462(4) 0.0508(11)
H27 H 0.03970 -0.25560 0.04150
N4 N -0.1769(10) -0.3572(3) 0.0709(10)
H28 H -0.27210 -0.35080 0.07890
H29 H -0.16230 -0.39380 0.07250
C14 C -0.0791(18) -0.1850(5) 0.0482(19)
H30 H -0.07420 -0.17110 -0.03940
H31 H -0.17860 -0.17490 0.05970
H32 H 0.00560 -0.16920 0.12250
C15 C -0.0707(13) -0.2689(5) 0.1857(13)
H33 H -0.17060 -0.25860 0.19860
H34 H 0.01380 -0.25290 0.26140
C16 C -0.0550(14) -0.3317(5) 0.1897(13)
H35 H 0.04920 -0.34190 0.18640
H36 H -0.06600 -0.34560 0.27620
C17 C -0.1884(13) -0.2723(5) -0.0668(12)
H37 H -0.18110 -0.25810 -0.15430
H38 H -0.29180 -0.26270 -0.06070
C18 C -0.1704(14) -0.3347(5) -0.0638(14)
H39 H -0.25440 -0.35100 -0.13950
H40 H -0.07020 -0.34450 -0.07650
Mn2* Mn -1.64096(17) -0.44981(5) -1.26563(16)
Mn2** Mn -0.64096(17) -0.44981(5) -0.26563(16)
Mn3* Mn -0.71353(17) -0.32035(5) -0.12626(16)
Mn3** Mn 0.28647(17) -0.32035(5) -0.12626(16)
O6* O -0.4108(9) -0.4575(4) -1.1394(8)
O14* O -0.9443(8) -0.3056(3) -1.2456(8)
O18* O -0.5931(8) -0.4856(3) -1.4464(8)
O20* O -0.8591(8) -0.4356(3) -1.4401(8)
O30* O -0.6181(9) -0.2507(3) -1.2231(9)
O32* O -0.6133(9) -0.3584(3) -1.2812(8)
#END
