
#######################################################################
#
#                 Cambridge Crystallographic Data Centre
#                                CCDC
#
#######################################################################
#
# If this CIF has been generated from an entry in the Cambridge
# Structural Database, then it will include bibliographic, chemical,
# crystal, experimental, refinement or atomic coordinate data resulting
# from the CCDC's data processing and validation procedures.
#
#######################################################################

data_CSD_CIF_IBIROC01
_audit_creation_date 2013-02-22
_audit_creation_method CSD-ConQuest-V1
_database_code_CSD IBIROC01
_database_code_depnum_ccdc_archive 'CCDC 881819'
_chemical_formula_sum 'C16 H10 Na1 O10 Sm1'
_chemical_formula_moiety
;
(C16 H8 O9 Sm1 1-)n,n(Na1 1+),n(H2 O1)
;
_journal_coden_Cambridge 119
_journal_volume 1032
_journal_year 2013
_journal_page_first 93
_journal_name_full 'J.Mol.Struct. '
loop_
_publ_author_name
"Chongchen Wang"
"Guangliang Guo"
"Peng Wang"
_chemical_name_systematic
;
catena-(sodium (\m~3~-4,4'-oxydibenzoato)-(\m~3~-oxalato)-samarium(iii) 
monohydrate)
;
_cell_volume   1838.759
_exptl_crystal_density_diffrn 1.935
_exptl_special_details
;
The paper describes a number of bonds involving the Na atom which have not 
been represented in the 2D diagram
;
_diffrn_ambient_temperature 293
#These two values have been output from a single CSD field.
_refine_ls_R_factor_gt 0.0492
_refine_ls_wR_factor_gt 0.0492
_symmetry_cell_setting monoclinic
_symmetry_space_group_name_H-M 'P 21/c'
_symmetry_Int_Tables_number 14
loop_
_symmetry_equiv_pos_site_id
_symmetry_equiv_pos_as_xyz
1 x,y,z
2 -x,1/2+y,1/2-z
3 -x,-y,-z
4 x,-1/2-y,-1/2+z
_cell_length_a 15.9109(6)
_cell_length_b 10.9478(4)
_cell_length_c 10.5695(5)
_cell_angle_alpha 90
_cell_angle_beta 92.886(1)
_cell_angle_gamma 90
_cell_formula_units_Z 4
loop_
_atom_type_symbol
_atom_type_radius_bond
C 0.68
H 0.23
Na 0.86
O 0.68
Sm 1.78
loop_
_atom_site_label
_atom_site_type_symbol
_atom_site_fract_x
_atom_site_fract_y
_atom_site_fract_z
Sm1 Sm 0.56089(3) 0.39143(4) 0.37965(4)
Na1 Na -0.3662(3) 0.4006(3) 0.0571(4)
O1 O 0.6999(4) 0.3827(6) 0.2742(6)
O2 O 0.6784(4) 0.2472(6) 0.4214(6)
O3 O 1.4098(4) 0.3954(6) 0.3293(6)
O4 O 1.3457(4) 0.5006(7) 0.4798(7)
O5 O 1.0586(5) 0.1202(8) 0.3212(11)
O6 O 0.5051(4) 0.6041(5) 0.4149(5)
O7 O 0.5554(4) 0.5215(5) 0.1944(5)
O8 O 0.4486(4) 0.7675(6) 0.3177(6)
O9 O 0.4968(4) 0.6812(5) 0.0944(6)
O10 O -0.3668(6) 0.5784(8) -0.0620(8)
H1 H -0.37070 0.56110 -0.14050
H2 H -0.40870 0.62220 -0.04420
C1 C 0.7254(6) 0.2948(9) 0.3434(10)
C2 C 0.8124(6) 0.2474(10) 0.3325(11)
C3 C 0.8696(7) 0.3085(12) 0.2619(13)
H3 H 0.85260 0.37670 0.21470
C4 C 0.9521(8) 0.2687(12) 0.2608(14)
H4 H 0.99090 0.31250 0.21570
C5 C 0.9770(7) 0.1667(12) 0.3248(14)
C6 C 0.9205(8) 0.1000(12) 0.3868(15)
H5 H 0.93720 0.02760 0.42660
C7 C 0.8395(7) 0.1384(12) 0.3911(13)
H6 H 0.80130 0.09150 0.43370
C8 C 1.3463(6) 0.4195(10) 0.3943(9)
C9 C 1.2690(6) 0.3455(10) 0.3693(10)
C10 C 1.1959(7) 0.3746(12) 0.4287(13)
H7 H 1.19480 0.44310 0.48060
C11 C 1.1244(8) 0.3032(13) 0.4118(14)
H8 H 1.07550 0.32430 0.45120
C12 C 1.1259(7) 0.2012(12) 0.3368(14)
C13 C 1.1969(7) 0.1697(11) 0.2770(12)
H9 H 1.19750 0.10090 0.22530
C14 C 1.2686(7) 0.2426(10) 0.2948(11)
H10 H 1.31730 0.22090 0.25520
C15 C 0.4872(5) 0.6688(8) 0.3183(8)
C16 C 0.5155(6) 0.6198(7) 0.1899(8)
Sm1* Sm 1.56089(3) 0.39143(4) 0.37965(4)
Sm1B Sm 1.43911(3) 0.60857(4) 0.62035(4)
Sm1B* Sm 0.43911(3) 0.60857(4) 0.62035(4)
Sm1A Sm 0.43911(3) 0.89143(4) 0.12035(4)
O3* O 0.4098(4) 0.3954(6) 0.3293(6)
O4B O 0.6543(4) 0.4994(7) 0.5202(7)
O6B O 0.4949(4) 0.3959(5) 0.5851(5)
O8A O 0.5514(4) 0.2675(6) 0.1823(6)
O9A O 0.5032(4) 0.1812(5) 0.4056(6)
#END
