
#######################################################################
#
#                 Cambridge Crystallographic Data Centre
#                                CCDC
#
#######################################################################
#
# If this CIF has been generated from an entry in the Cambridge
# Structural Database, then it will include bibliographic, chemical,
# crystal, experimental, refinement or atomic coordinate data resulting
# from the CCDC's data processing and validation procedures.
#
#######################################################################

data_CSD_CIF_IBIYOI
_audit_creation_date 2005-02-10
_audit_creation_method CSD-ConQuest-V1
_database_code_CSD IBIYOI
_database_code_depnum_ccdc_archive 'CCDC 233039'
_chemical_formula_sum 'C76 H72 Cu8 I4 N20 S8 W2'
_chemical_formula_moiety
;
(C40 H32 Cu4 N8 S4 W1 2+)n,n(C20 H16 Cu4 I4 N4 S4 W1 2-),8n(C2 H3 N1)
;
_journal_coden_Cambridge 179
_journal_volume 43
_journal_year 2004
_journal_page_first 4741
_journal_name_full 'Angew.Chem.,Int.Ed. '
loop_
_publ_author_name
"Jian-Ping Lang"
"Qing-Feng Xu"
"Rong-Xin Yuan"
"B.F.Abrahams"
_chemical_name_systematic
;
catena-(tetrakis((\m~3~-Sulfido)-(\m~2~-4,4'-bipyridine)-copper(i))-tungsten(v
i) 
tetrakis(\m~3~-sulfido)-bis(\m~2~-4,4'-bipyridine)-tetraiodo-tetra-copper(i)-t
ungsten(vi) octakis(acetonitrile) clathrate)
;
_cell_volume  17329.869
_exptl_crystal_colour 'red'
_exptl_crystal_density_diffrn 2.227
_exptl_crystal_description 'prism'
_diffrn_ambient_temperature 193.1
_refine_special_details
;
The 4,4'-bipyridine unit belonging to the anionic net is disordered with two 
carbon atoms having two equally occupied sites; the disordered acetonitrile 
molecules could not be identified.
;
#These two values have been output from a single CSD field.
_refine_ls_R_factor_gt 0.052
_refine_ls_wR_factor_gt 0.052
_symmetry_cell_setting tetragonal
_symmetry_space_group_name_H-M 'I 41/a c d'
_symmetry_Int_Tables_number 142
loop_
_symmetry_equiv_pos_site_id
_symmetry_equiv_pos_as_xyz
1 x,y,z
2 1/2+x,1/2+y,1/2+z
3 1/4-y,3/4+x,1/4+z
4 1/4+y,1/4-x,3/4+z
5 3/4+y,1/4+x,1/4-z
6 3/4-y,1/4+x,3/4+z
7 1/2-x,-y,1/2+z
8 -x,1/2-y,z
9 3/4+y,3/4-x,1/4+z
10 x,-y,1/2-z
11 1/2+x,1/2-y,-z
12 1/4-y,1/4-x,1/4-z
13 3/4-y,3/4-x,3/4-z
14 1/2-x,y,-z
15 -x,1/2+y,1/2-z
16 1/4+y,3/4+x,3/4-z
17 -x,-y,-z
18 -1/2-x,-1/2-y,-1/2-z
19 -1/4+y,-3/4-x,-1/4-z
20 -1/4-y,-1/4+x,-3/4-z
21 -3/4-y,-1/4-x,-1/4+z
22 -3/4+y,-1/4-x,-3/4-z
23 -1/2+x,y,-1/2-z
24 x,-1/2+y,-z
25 -3/4-y,-3/4+x,-1/4-z
26 -x,y,-1/2+z
27 -1/2-x,-1/2+y,z
28 -1/4+y,-1/4+x,-1/4+z
29 -3/4+y,-3/4+x,-3/4+z
30 -1/2+x,-y,z
31 x,-1/2-y,-1/2+z
32 -1/4-y,-3/4-x,-3/4+z
_cell_length_a 24.803(1)
_cell_length_b 24.803(1)
_cell_length_c 28.170(2)
_cell_angle_alpha 90
_cell_angle_beta 90
_cell_angle_gamma 90
_cell_formula_units_Z 8
loop_
_atom_type_symbol
_atom_type_radius_bond
C 0.68
H 0.23
Cu 1.42
I 1.40
N 0.68
S 1.12
W 0.83
loop_
_atom_site_label
_atom_site_type_symbol
_atom_site_fract_x
_atom_site_fract_y
_atom_site_fract_z
W1 W 0.50000 0.25000 0.12500
I1 I 0.38231(4) 0.08823(4) 0.09786(4)
Cu1 Cu 0.41806(6) 0.17784(6) 0.13127(6)
S1 S 0.42618(13) 0.25045(13) 0.07932(11)
N1 N 0.3585(4) 0.1986(5) 0.1809(5)
C1 C 0.3652(5) 0.2371(5) 0.2122(5)
C2 C 0.3242(5) 0.2578(6) 0.2405(4)
C3 C 0.2723(7) 0.2398(9) 0.2357(6)
C4 C 0.2676(12) 0.185(1) 0.2182(13)
C5 C 0.3117(11) 0.1632(13) 0.1885(9)
W2 W 0.00000 0.25000 -0.37500
Cu2 Cu 0.07656(7) 0.32656(7) -0.37500
Cu3 Cu 0.07610(7) 0.17390(7) -0.37500
S2 S 0.0736(1) 0.2501(1) -0.32950(11)
N2 N 0.0817(5) 0.3887(5) -0.3281(4)
N3 N 0.0766(5) 0.1092(5) -0.3298(4)
C6 C 0.0995(9) 0.4369(8) -0.3416(6)
C7 C 0.0990(9) 0.4821(7) -0.3129(6)
C8 C 0.0821(6) 0.4765(6) -0.2668(5)
C9 C 0.0664(7) 0.4263(6) -0.2528(5)
C10 C 0.0656(6) 0.3845(6) -0.2833(5)
C11 C 0.0870(8) 0.1174(7) -0.2833(6)
C12 C 0.0847(7) 0.0755(6) -0.2522(6)
C13 C 0.0743(6) 0.0239(5) -0.2659(5)
C14 C 0.0597(8) 0.0167(6) -0.3141(5)
C15 C 0.0644(8) 0.0596(6) -0.3438(5)
H1 H 0.1141(9) 0.4404(8) -0.3726(6)
H2 H 0.1099(9) 0.5162(7) -0.3249(6)
H3 H 0.0558(7) 0.4207(6) -0.2207(5)
H4 H 0.0537(6) 0.3504(6) -0.2721(5)
H5 H 0.0950(8) 0.1526(7) -0.2721(6)
H6 H 0.0913(7) 0.0824(6) -0.2196(6)
H7 H 0.0472(8) -0.0173(6) -0.3252(5)
H8 H 0.0580(8) 0.0536(6) -0.3766(5)
C16? C 0.2604(11) 0.216(1) 0.188(2)
C17? C 0.3059(12) 0.192(2) 0.1648(13)
C3Q C 0.2277(7) 0.2602(9) 0.2643(6)
C2Q C 0.1758(5) 0.2422(6) 0.2595(4)
C1Q C 0.1348(5) 0.2629(5) 0.2878(5)
N1Q N 0.1415(4) 0.3014(5) 0.3191(5)
C5Q C 0.1883(11) 0.3368(13) 0.3115(9)
C4Q C 0.2324(12) 0.315(1) 0.2818(13)
S1U S 0.50045(13) 0.32382(13) 0.17068(11)
S1G S 0.57382(13) 0.24955(13) 0.07932(11)
S1S S 0.49955(13) 0.17618(13) 0.17068(11)
Cu1U Cu 0.42784(6) 0.33194(6) 0.11873(6)
Cu1G Cu 0.58194(6) 0.32216(6) 0.13127(6)
Cu1S Cu 0.57216(6) 0.16806(6) 0.11873(6)
I1U I 0.33823(4) 0.36769(4) 0.15214(4)
N1U N 0.4486(4) 0.3915(5) 0.0691(5)
C1U C 0.4871(5) 0.3848(5) 0.0378(5)
C2U C 0.5078(5) 0.4258(6) 0.0095(4)
C3U C 0.4898(7) 0.4777(9) 0.0143(6)
C4U C 0.4350(12) 0.4824(10) 0.0318(13)
C5U C 0.4132(11) 0.4383(13) 0.0615(9)
C3E C 0.5102(7) 0.5223(9) -0.0143(6)
C2E C 0.4922(5) 0.5742(6) -0.0095(4)
C1E C 0.5129(5) 0.6152(5) -0.0378(5)
N1E N 0.5514(4) 0.6085(5) -0.0691(5)
C5E C 0.5868(11) 0.5617(13) -0.0615(9)
C4E C 0.5650(12) 0.5176(10) -0.0318(13)
I1G I 0.61769(4) 0.41177(4) 0.09786(4)
I1S I 0.66177(4) 0.13231(4) 0.15214(4)
Cu1Q Cu 0.08194(6) 0.32216(6) 0.36873(6)
N1G N 0.6415(4) 0.3014(5) 0.1809(5)
N1S N 0.5514(4) 0.1085(5) 0.0691(5)
Cu1E Cu 0.57216(6) 0.66806(6) -0.11873(6)
C8I C 0.0821(6) 0.5235(6) -0.2332(5)
C7I C 0.0990(9) 0.5179(7) -0.1871(6)
C6I C 0.0995(9) 0.5631(8) -0.1584(6)
N2I N 0.0817(5) 0.6113(5) -0.1719(4)
C10I C 0.0656(6) 0.6155(6) -0.2167(5)
C9I C 0.0664(7) 0.5737(6) -0.2472(5)
H3I H 0.0558(7) 0.5793(6) -0.2793(5)
H4I H 0.0537(6) 0.6496(6) -0.2279(5)
H1I H 0.1141(9) 0.5596(8) -0.1274(6)
H2I H 0.1099(9) 0.4838(7) -0.1751(6)
C13I C 0.0743(6) -0.0239(5) -0.2341(5)
C12I C 0.0847(7) -0.0755(6) -0.2478(6)
C11I C 0.0870(8) -0.1174(7) -0.2167(6)
N3I N 0.0766(5) -0.1092(5) -0.1702(4)
C15I C 0.0644(8) -0.0596(6) -0.1562(5)
C14I C 0.0597(8) -0.0167(6) -0.1859(5)
H7I H 0.0472(8) 0.0173(6) -0.1748(5)
H8I H 0.0580(8) -0.0536(6) -0.1234(5)
H5I H 0.0950(8) -0.1526(7) -0.2279(6)
H6I H 0.0913(7) -0.0824(6) -0.2804(6)
S2D S 0.0001(1) 0.3236(1) -0.42050(11)
S2G S -0.0736(1) 0.2499(1) -0.32950(11)
S2K S -0.0001(1) 0.1764(1) -0.42050(11)
Cu2G Cu -0.07656(7) 0.17344(7) -0.37500
Cu3D Cu -0.07610(7) 0.32610(7) -0.37500
N2D N 0.1387(5) 0.3317(5) -0.4219(4)
C6D C 0.1869(9) 0.3495(8) -0.4084(6)
C7D C 0.2321(9) 0.3490(7) -0.4371(6)
C8D C 0.2265(6) 0.3321(6) -0.4832(5)
C9D C 0.1763(7) 0.3164(6) -0.4972(5)
C10D C 0.1345(6) 0.3156(6) -0.4667(5)
H1D H 0.1904(9) 0.3641(8) -0.3774(6)
H2D H 0.2662(9) 0.3599(7) -0.4251(6)
H3D H 0.1707(7) 0.3058(6) -0.5293(5)
H4D H 0.1004(6) 0.3037(6) -0.4779(5)
C8E C 0.2735(6) 0.3321(6) -0.5168(5)
C7E C 0.2679(9) 0.3490(7) -0.5629(6)
C6E C 0.3131(9) 0.3495(8) -0.5916(6)
N2E N 0.3613(5) 0.3317(5) -0.5781(4)
C10E C 0.3655(6) 0.3156(6) -0.5333(5)
C9E C 0.3237(7) 0.3164(6) -0.5028(5)
H3E H 0.3293(7) 0.3058(6) -0.4707(5)
H4E H 0.3996(6) 0.3037(6) -0.5221(5)
H1E H 0.3096(9) 0.3641(8) -0.6226(6)
H2E H 0.2338(9) 0.3599(7) -0.5749(6)
N3K N 0.1408(5) 0.1734(5) -0.4202(4)
C11K C 0.1326(8) 0.1630(7) -0.4667(6)
C12K C 0.1745(7) 0.1653(6) -0.4978(6)
C13K C 0.2261(6) 0.1757(5) -0.4841(5)
C14K C 0.2333(8) 0.1903(6) -0.4359(5)
C15K C 0.1904(8) 0.1856(6) -0.4062(5)
H5K H 0.0974(8) 0.1550(7) -0.4779(6)
H6K H 0.1676(7) 0.1587(6) -0.5304(6)
H7K H 0.2673(8) 0.2028(6) -0.4248(5)
H8K H 0.1964(8) 0.1920(6) -0.3734(5)
C13C C 0.2739(6) 0.1757(5) -0.5159(5)
C12C C 0.3255(7) 0.1653(6) -0.5022(6)
C11C C 0.3674(8) 0.1630(7) -0.5333(6)
N3C N 0.3592(5) 0.1734(5) -0.5798(4)
C15C C 0.3096(8) 0.1856(6) -0.5938(5)
C14C C 0.2667(8) 0.1903(6) -0.5641(5)
H7C H 0.2327(8) 0.2028(6) -0.5752(5)
H8C H 0.3036(8) 0.1920(6) -0.6266(5)
H5C H 0.4026(8) 0.1550(7) -0.5221(6)
H6C H 0.3324(7) 0.1587(6) -0.4696(6)
Cu2H Cu 0.07656(7) 0.67344(7) -0.12500
Cu3B Cu 0.07610(7) -0.17390(7) -0.12500
N2G N -0.0817(5) 0.1113(5) -0.3281(4)
N2K N -0.1387(5) 0.1683(5) -0.4219(4)
N3D N -0.1408(5) 0.3266(5) -0.4202(4)
N3G N -0.0766(5) 0.3908(5) -0.3298(4)
Cu2E Cu 0.42344(7) 0.32656(7) -0.62500
Cu3C Cu 0.42390(7) 0.17390(7) -0.62500
#END
