
#######################################################################
#
#                 Cambridge Crystallographic Data Centre
#                                CCDC
#
#######################################################################
#
# If this CIF has been generated from an entry in the Cambridge
# Structural Database, then it will include bibliographic, chemical,
# crystal, experimental, refinement or atomic coordinate data resulting
# from the CCDC's data processing and validation procedures.
#
#######################################################################

data_CSD_CIF_IBUBEP
_audit_creation_date 2017-01-04
_audit_creation_method CSD-ConQuest-V1
_database_code_CSD IBUBEP
_database_code_depnum_ccdc_archive 'CCDC 1504509'
_chemical_formula_sum 'C44 H48 Cd5 N22 O16'
_chemical_formula_moiety
;
(C40 H32 Cd5 N20 O16 2-)n,2(C2 H8 N1 1+)
;
_journal_coden_Cambridge 222
_journal_volume 46
_journal_year 2017
_journal_page_first 836
_journal_name_full 'Dalton Trans. '
loop_
_publ_author_name
"Jian-Wei Zhang"
"Man-Cheng Hu"
"Shu-Ni Li"
"Yu-Cheng Jiang"
"Quan-Guo Zhai"
_chemical_name_systematic
;
catena-[bis(dimethylammonium) 
tetrakis(\m-3,5-diamino-1,2,4-triazolyl)-tetrakis(\m-terephthtalato)-penta-cad
mium(ii) unknown solvate]
;
_chemical_name_common
;
SNNU-21
;
_cell_volume  18152.014
_exptl_crystal_colour 'colorless'
_exptl_crystal_density_diffrn 1.179
_exptl_crystal_description 'block'
_diffrn_ambient_temperature 296
_refine_special_details
;
Disordered cation and solvent molecules were not modelled and the disordered 
density was taken into account using the SQUEEZE/PLATON procedure.
;
#These two values have been output from a single CSD field.
_refine_ls_R_factor_gt 0.0627
_refine_ls_wR_factor_gt 0.0627
_symmetry_cell_setting orthorhombic
_symmetry_space_group_name_H-M 'I b c a'
_symmetry_Int_Tables_number 73
loop_
_symmetry_equiv_pos_site_id
_symmetry_equiv_pos_as_xyz
1 x,y,z
2 1/2-x,-y,1/2+z
3 -x,1/2+y,1/2-z
4 1/2+x,1/2-y,-z
5 1/2+x,1/2+y,1/2+z
6 -x,1/2-y,z
7 1/2-x,y,-z
8 x,-y,1/2-z
9 -x,-y,-z
10 -1/2+x,y,-1/2-z
11 x,-1/2-y,-1/2+z
12 -1/2-x,-1/2+y,z
13 -1/2-x,-1/2-y,-1/2-z
14 x,-1/2+y,-z
15 -1/2+x,-y,z
16 -x,y,-1/2+z
_cell_length_a 17.4956(8)
_cell_length_b 29.4158(11)
_cell_length_c 35.2708(14)
_cell_angle_alpha 90
_cell_angle_beta 90
_cell_angle_gamma 90
_cell_formula_units_Z 8
loop_
_atom_type_symbol
_atom_type_radius_bond
C 0.68
H 0.23
Cd 1.44
N 0.68
O 0.68
loop_
_atom_site_label
_atom_site_type_symbol
_atom_site_fract_x
_atom_site_fract_y
_atom_site_fract_z
Cd1 Cd 0.70141(4) 0.10061(2) 0.599126(18)
Cd2 Cd 0.75000 0.06675(3) 0.50000
Cd3 Cd 1.07223(4) 0.10432(2) 0.588512(18)
C1 C 1.1453(13) 0.2144(5) 0.4877(5)
H1 H 1.15690 0.18510 0.47950
C2 C 1.1584(16) 0.2504(5) 0.4634(5)
H2 H 1.17240 0.24550 0.43830
C3 C 1.1498(8) 0.2941(4) 0.4778(3)
C4 C 1.1688(8) 0.3347(4) 0.4527(3)
C5 C 1.0984(7) 0.1786(5) 0.5460(4)
C6 C 1.1261(6) 0.2991(3) 0.5137(3)
H3 H 1.12300 0.32820 0.52380
C7 C 0.5819(8) 0.0880(5) 0.7706(3)
H4 H 0.53930 0.07270 0.77980
C8 C 1.1169(8) 0.2200(4) 0.5221(3)
C9 C 1.1062(6) 0.2631(4) 0.5360(3)
H5 H 1.08600 0.26760 0.56010
C10 C 0.6971(8) 0.1268(5) 0.7808(3)
H6 H 0.73200 0.13910 0.79780
C11 C 0.6229(6) 0.0007(3) 0.5934(3)
C12 C 0.6545(5) -0.0227(3) 0.5390(3)
C13 C 0.7126(8) 0.1277(5) 0.7421(3)
H7 H 0.75750 0.14100 0.73340
C14 C 0.5959(8) 0.0907(4) 0.7311(3)
H8 H 0.55950 0.07970 0.71420
C15 C 0.6805(8) 0.1092(4) 0.6756(3)
C16 C 0.6124(8) 0.1071(4) 0.8371(3)
C17 C 0.9144(6) 0.0801(3) 0.5431(2)
C18 C 0.6308(7) 0.1079(4) 0.7940(3)
C19 C 0.8869(6) 0.1019(4) 0.5975(3)
C20 C 0.6630(7) 0.1095(3) 0.7171(3)
N1 N 0.5973(7) 0.0027(4) 0.6292(3)
H9 H 0.60290 0.02730 0.64220
H10 H 0.57520 -0.02050 0.63920
N2 N 0.6609(5) -0.0498(3) 0.5073(2)
H11 H 0.68050 -0.03910 0.48680
H12 H 0.64530 -0.07750 0.50800
N3 N 0.8949(5) 0.1176(4) 0.6350(2)
H13 H 0.85500 0.12220 0.64880
H14 H 0.93970 0.12270 0.64420
N4 N 0.9569(5) 0.0670(3) 0.5114(2)
H15 H 0.93400 0.05680 0.49150
H16 H 1.00590 0.06910 0.51170
N5 N 0.8403(4) 0.0783(3) 0.54549(18)
N6 N 0.9481(5) 0.0935(3) 0.5754(2)
N7 N 0.8231(4) 0.0936(3) 0.5819(2)
N8 N 0.6202(4) -0.0377(3) 0.5704(2)
N9 N 0.6580(5) 0.0360(3) 0.5762(2)
N10 N 0.6774(4) 0.0198(3) 0.53943(18)
O1 O 1.1710(7) 0.3279(3) 0.4167(2)
O2 O 1.1122(7) 0.1406(3) 0.5346(3)
O3 O 0.6603(5) 0.1220(3) 0.8601(2)
O4 O 1.0713(5) 0.1848(2) 0.5796(2)
O5 O 0.6282(6) 0.0932(3) 0.6532(2)
O6 O 0.5503(5) 0.0899(3) 0.8474(2)
O7 O 0.7405(5) 0.1238(4) 0.6641(2)
O8 O 1.1768(4) 0.3723(2) 0.46682(17)
Cd1E Cd 1.29859(4) 0.39939(2) 0.599126(18)
Cd3E Cd 0.92777(4) 0.39568(2) 0.588512(18)
C1E C 0.8547(13) 0.2856(5) 0.4877(5)
H1E H 0.84310 0.31490 0.47950
C2E C 0.8416(16) 0.2496(5) 0.4634(5)
H2E H 0.82760 0.25450 0.43830
C3E C 0.8502(8) 0.2059(4) 0.4778(3)
C4E C 0.8312(8) 0.1653(4) 0.4527(3)
C5E C 0.9016(7) 0.3214(5) 0.5460(4)
C6E C 0.8739(6) 0.2009(3) 0.5137(3)
H3E H 0.87700 0.17180 0.52380
C7E C 1.4181(8) 0.4120(5) 0.7706(3)
H4E H 1.46070 0.42730 0.77980
C8E C 0.8831(8) 0.2800(4) 0.5221(3)
C9E C 0.8938(6) 0.2369(4) 0.5360(3)
H5E H 0.91400 0.23240 0.56010
C10E C 1.3029(8) 0.3732(5) 0.7808(3)
H6E H 1.26800 0.36090 0.79780
C11E C 1.3771(6) 0.4993(3) 0.5934(3)
C12E C 1.3455(5) 0.5227(3) 0.5390(3)
C13E C 1.2874(8) 0.3723(5) 0.7421(3)
H7E H 1.24250 0.35900 0.73340
C14E C 1.4041(8) 0.4093(4) 0.7311(3)
H8E H 1.44050 0.42030 0.71420
C15E C 1.3195(8) 0.3908(4) 0.6756(3)
C16E C 1.3876(8) 0.3929(4) 0.8371(3)
C17E C 1.0856(6) 0.4199(3) 0.5431(2)
C18E C 1.3692(7) 0.3921(4) 0.7940(3)
C19E C 1.1131(6) 0.3981(4) 0.5975(3)
C20E C 1.3370(7) 0.3905(3) 0.7171(3)
N1E N 1.4027(7) 0.4973(4) 0.6292(3)
H9E H 1.39710 0.47270 0.64220
H10E H 1.42480 0.52050 0.63920
N2E N 1.3391(5) 0.5498(3) 0.5073(2)
H11E H 1.31950 0.53910 0.48680
H12E H 1.35470 0.57750 0.50800
N3E N 1.1051(5) 0.3824(4) 0.6350(2)
H13E H 1.14500 0.37780 0.64880
H14E H 1.06030 0.37730 0.64420
N4E N 1.0431(5) 0.4330(3) 0.5114(2)
H15E H 1.06600 0.44320 0.49150
H16E H 0.99410 0.43090 0.51170
N5E N 1.1597(4) 0.4217(3) 0.54549(18)
N6E N 1.0519(5) 0.4065(3) 0.5754(2)
N7E N 1.1769(4) 0.4064(3) 0.5819(2)
N8E N 1.3798(4) 0.5377(3) 0.5704(2)
N9E N 1.3420(5) 0.4640(3) 0.5762(2)
N10E N 1.3226(4) 0.4802(3) 0.53943(18)
O1E O 0.8290(7) 0.1721(3) 0.4167(2)
O2E O 0.8878(7) 0.3594(3) 0.5346(3)
O3E O 1.3397(5) 0.3780(3) 0.8601(2)
O4E O 0.9287(5) 0.3152(2) 0.5796(2)
O5E O 1.3718(6) 0.4068(3) 0.6532(2)
O6E O 1.4497(5) 0.4101(3) 0.8474(2)
O7E O 1.2595(5) 0.3762(4) 0.6641(2)
O8E O 0.8232(4) 0.1277(2) 0.46682(17)
Cd1C Cd 1.20141(4) 0.39939(2) 0.400874(18)
Cd1F Cd 0.79859(4) 0.10061(2) 0.400874(18)
Cd2C Cd 1.25000 0.43325(3) 0.50000
Cd3I Cd 0.57223(4) 0.10432(2) 0.911488(18)
Cd3K Cd 1.42777(4) 0.60432(2) 0.588512(18)
Cd3L Cd 1.42777(4) 0.39568(2) 0.911488(18)
Cd3N Cd 0.57223(4) -0.10432(2) 0.588512(18)
N5F N 0.6597(4) 0.0783(3) 0.45451(18)
N8K N 0.8798(4) 0.4623(3) 0.5704(2)
N8N N 1.1202(4) 0.0377(3) 0.5704(2)
N10F N 0.8226(4) 0.0198(3) 0.46057(18)
O1C O 0.6710(7) 0.1721(3) 0.5833(2)
O1F O 1.3290(7) 0.3279(3) 0.5833(2)
O3I O 1.1603(5) 0.1220(3) 0.6399(2)
O3L O 0.8397(5) 0.3780(3) 0.6399(2)
O6I O 1.0503(5) 0.0899(3) 0.6526(2)
O6L O 0.9497(5) 0.4101(3) 0.6526(2)
O8C O 0.6768(4) 0.1277(2) 0.53318(17)
O8F O 1.3232(4) 0.3723(2) 0.53318(17)
#END
