
#######################################################################
#
#                 Cambridge Crystallographic Data Centre
#                                CCDC
#
#######################################################################
#
# If this CIF has been generated from an entry in the Cambridge
# Structural Database, then it will include bibliographic, chemical,
# crystal, experimental, refinement or atomic coordinate data resulting
# from the CCDC's data processing and validation procedures.
#
#######################################################################

data_CSD_CIF_IBUYUB
_audit_creation_date 2012-02-03
_audit_creation_method CSD-ConQuest-V1
_database_code_CSD IBUYUB
_database_code_depnum_ccdc_archive 'CCDC 769132'
_chemical_formula_sum 'C36 H30 Cu2 N10 O48 Si1 W12'
_chemical_formula_moiety
;
(C36 H30 Cu2 N10 O8 2+)n,n(O40 Si1 W12 2-)
;
_journal_coden_Cambridge 1350
_journal_volume 13
_journal_year 2011
_journal_page_first 7143
_journal_name_full 'CrystEngComm '
loop_
_publ_author_name
"Yuanhang Ren"
"Chengbo Du"
"Sujiao Feng"
"Chunling Wang"
"Zuping Kong"
"Bin Yue"
"Heyong He"
_chemical_name_systematic
;
catena-(bis(\m~2~-pyridinium-4-carboxylato)-bis(\m~2~-4,4'-(1,3,4-oxadiazole-2
,5-diyl)dipyridine)-di-aqua-di-copper(ii) 
(\m~12~-silicato)-tetracosakis(\m~2~-oxo)-dodecaoxo-dodeca-tungsten(vi))
;
_cell_volume   3299.143
_exptl_crystal_density_diffrn 3.753
_diffrn_ambient_temperature 295
_refine_special_details
;
O20,O21,O22,O23 disordered by symmetry over two sites with occupancy 0.50.

;
#These two values have been output from a single CSD field.
_refine_ls_R_factor_gt 0.0439
_refine_ls_wR_factor_gt 0.0439
_symmetry_cell_setting monoclinic
_symmetry_space_group_name_H-M 'P 21/n'
_symmetry_Int_Tables_number 14
loop_
_symmetry_equiv_pos_site_id
_symmetry_equiv_pos_as_xyz
1 x,y,z
2 1/2-x,1/2+y,1/2-z
3 -x,-y,-z
4 -1/2+x,-1/2-y,-1/2+z
_cell_length_a 12.891(4)
_cell_length_b 13.631(4)
_cell_length_c 19.268(6)
_cell_angle_alpha 90
_cell_angle_beta 102.985(4)
_cell_angle_gamma 90
_cell_formula_units_Z 2
loop_
_atom_type_symbol
_atom_type_radius_bond
C 0.68
H 0.23
Cu 1.32
N 0.68
O 0.68
Si 1.20
W 1.33
loop_
_atom_site_label
_atom_site_type_symbol
_atom_site_fract_x
_atom_site_fract_y
_atom_site_fract_z
Si1 Si 0.00000 0.00000 -1.00000
W1 W 0.19617(6) -0.15640(4) -0.89956(3)
W2 W 0.26835(6) 0.07091(5) -0.96167(3)
W3 W 0.12990(6) 0.06494(5) -0.82456(3)
W4 W -0.07418(6) -0.22771(5) -0.93685(3)
W5 W 0.06576(6) -0.22166(5) -1.07446(3)
W6 W -0.13950(5) -0.00591(5) -0.86333(3)
O1 O 0.1729(12) -0.0672(7) -0.8294(5)
O2 O -0.1099(10) -0.3355(7) -0.9070(5)
O3 O 0.0976(9) -0.3287(6) -1.1099(5)
O4 O -0.2040(9) -0.0067(8) -0.7980(5)
O5 O 0.2303(11) 0.1056(6) -0.8761(5)
O6 O 0.2882(9) -0.2246(7) -0.8528(5)
O7 O 0.2829(12) -0.0617(7) -0.9328(6)
O8 O 0.1919(10) 0.0938(7) -0.7428(5)
O9 O 0.2019(10) 0.1891(7) -1.0025(5)
O10 O -0.107(1) -0.1433(7) -0.8676(5)
O11 O 0.0528(10) 0.1818(7) -0.8587(7)
O12 O 0.2541(10) 0.0254(7) -1.0580(5)
O13 O 0.0691(10) -0.2201(11) -0.8895(5)
O14 O -0.0266(10) -0.2679(10) -1.0188(6)
O15 O 0.393(1) 0.1057(8) -0.9449(6)
O16 O 0.0007(10) 0.0128(8) -0.8112(7)
O17 O 0.1739(10) -0.2149(10) -0.9911(5)
O18 O 0.1436(10) -0.1320(8) -1.1162(7)
O19 O -0.4304(8) -0.0259(6) 0.1448(5)
O20 O 0.0329(14) -0.1173(11) -0.9810(8)
O21 O -0.1175(15) 0.0019(13) -1.0562(8)
O22 O -0.0158(15) 0.0542(11) -0.9235(8)
O23 O 0.0900(15) 0.0568(11) -1.0262(8)
O24 O -0.536(1) -0.5564(7) 0.0914(6)
O25 O -0.3657(11) -0.5402(8) -0.0104(5)
O26 O -0.2225(8) -0.5025(7) 0.1265(5)
C1 C -0.3629(13) 0.2601(10) 0.0817(8)
H1 H -0.35090 0.27230 0.03660
C2 C -0.3845(13) 0.1632(9) 0.1001(9)
H2 H -0.38200 0.11070 0.06970
C3 C -0.4094(13) 0.1504(10) 0.1650(7)
C4 C -0.3990(16) 0.2246(11) 0.2109(8)
H3 H -0.40740 0.21490 0.25710
C5 C -0.3753(17) 0.3170(12) 0.1882(9)
H4 H -0.37100 0.36930 0.21980
C6 C -0.3945(17) -0.3126(11) 0.0748(11)
H5 H -0.37330 -0.32280 0.03230
C7 C -0.4113(17) -0.2147(10) 0.097(1)
H6 H -0.39740 -0.16160 0.07010
C8 C -0.4472(14) -0.199(1) 0.1568(8)
C9 C -0.4678(15) -0.2769(11) 0.1928(8)
H7 H -0.49760 -0.26890 0.23210
C10 C -0.4444(16) -0.3715(12) 0.1714(9)
H8 H -0.45470 -0.42470 0.19930
C11 C -0.4610(13) -0.1011(10) 0.1810(7)
C12 C -0.4380(12) 0.0545(11) 0.1856(6)
C13 C -0.8812(15) -0.5020(14) 0.1251(9)
H9 H -0.93880 -0.45990 0.12170
C14 C -0.8003(17) -0.4819(11) 0.0857(9)
H10 H -0.80750 -0.42990 0.05370
C15 C -0.7139(15) -0.5411(10) 0.0968(8)
C16 C -0.7059(14) -0.6189(10) 0.1405(8)
H11 H -0.64680 -0.66000 0.14730
C17 C -0.7893(17) -0.6371(12) 0.1760(8)
H12 H -0.78510 -0.68990 0.20700
C18 C -0.6237(15) -0.5142(12) 0.0600(9)
Cu1 Cu -0.38179(19) -0.52659(12) 0.09595(10)
N1 N -0.3592(12) 0.3339(8) 0.1263(7)
N2 N -0.4088(11) -0.3879(9) 0.1140(7)
N3 N -0.4908(11) -0.0714(8) 0.2373(6)
N4 N -0.4764(11) 0.0307(8) 0.2393(6)
N5 N -0.8727(13) -0.5785(10) 0.1646(7)
H13 H -0.93550 -0.59290 0.18480
W1B W -0.19617(6) 0.15640(4) -1.10044(3)
W2B W -0.26835(6) -0.07091(5) -1.03833(3)
W3B W -0.12990(6) -0.06494(5) -1.17544(3)
W4B W 0.07418(6) 0.22771(5) -1.06315(3)
W5B W -0.06576(6) 0.22166(5) -0.92554(3)
W6B W 0.13950(5) 0.00591(5) -1.13667(3)
O1B O -0.1729(12) 0.0672(7) -1.1706(5)
O2B O 0.1099(10) 0.3355(7) -1.0930(5)
O3B O -0.0976(9) 0.3287(6) -0.8901(5)
O4B O 0.2040(9) 0.0067(8) -1.2020(5)
O5B O -0.2303(11) -0.1056(6) -1.1239(5)
O6B O -0.2882(9) 0.2246(7) -1.1472(5)
O7B O -0.2829(12) 0.0617(7) -1.0672(6)
O8B O -0.1919(10) -0.0938(7) -1.2572(5)
O9B O -0.2019(10) -0.1891(7) -0.9975(5)
O10B O 0.107(1) 0.1433(7) -1.1324(5)
O11B O -0.0528(10) -0.1818(7) -1.1413(7)
O12B O -0.2541(10) -0.0254(7) -0.9420(5)
O13B O -0.0691(10) 0.2201(11) -1.1105(5)
O14B O 0.0266(10) 0.2679(10) -0.9812(6)
O15B O -0.393(1) -0.1057(8) -1.0551(6)
O16B O -0.0007(10) -0.0128(8) -1.1888(7)
O17B O -0.1739(10) 0.2149(10) -1.0089(5)
O18B O -0.1436(10) 0.1320(8) -0.8838(7)
O19B O -0.5696(8) 0.0259(6) -0.1448(5)
O20B O -0.0329(14) 0.1173(11) -1.0190(8)
O21B O 0.1175(15) -0.0019(13) -0.9438(8)
O22B O 0.0158(15) -0.0542(11) -1.0765(8)
O23B O -0.0900(15) -0.0568(11) -0.9738(8)
O24B O -0.464(1) -0.4436(7) -0.0914(6)
O25B O -0.6343(11) -0.4598(8) 0.0104(5)
O26B O -0.7775(8) -0.4975(7) -0.1265(5)
C1B C -0.6371(13) -0.2601(10) -0.0817(8)
H1B H -0.64910 -0.27230 -0.03660
C2B C -0.6155(13) -0.1632(9) -0.1001(9)
H2B H -0.61800 -0.11070 -0.06970
C3B C -0.5906(13) -0.1504(10) -0.1650(7)
C4B C -0.6010(16) -0.2246(11) -0.2109(8)
H3B H -0.59260 -0.21490 -0.25710
C5B C -0.6247(17) -0.3170(12) -0.1882(9)
H4B H -0.62900 -0.36930 -0.21980
C6B C -0.6055(17) 0.3126(11) -0.0748(11)
H5B H -0.62670 0.32280 -0.03230
C7B C -0.5887(17) 0.2147(10) -0.097(1)
H6B H -0.60260 0.16160 -0.07010
C8B C -0.5528(14) 0.199(1) -0.1568(8)
C9B C -0.5322(15) 0.2769(11) -0.1928(8)
H7B H -0.50240 0.26890 -0.23210
C10B C -0.5556(16) 0.3715(12) -0.1714(9)
H8B H -0.54530 0.42470 -0.19930
C11B C -0.5390(13) 0.1011(10) -0.1810(7)
C12B C -0.5620(12) -0.0545(11) -0.1856(6)
C13B C -0.1188(15) -0.4980(14) -0.1251(9)
H9B H -0.06120 -0.54010 -0.12170
C14B C -0.1997(17) -0.5181(11) -0.0857(9)
H10B H -0.19250 -0.57010 -0.05370
C15B C -0.2861(15) -0.4589(10) -0.0968(8)
C16B C -0.2941(14) -0.3811(10) -0.1405(8)
H11B H -0.35320 -0.34000 -0.14730
C17B C -0.2107(17) -0.3629(12) -0.1760(8)
H12B H -0.21490 -0.31010 -0.20700
C18B C -0.3763(15) -0.4858(12) -0.0600(9)
Cu1B Cu -0.61821(19) 0.52659(12) -0.09595(10)
Cu1* Cu -0.38179(19) 0.47341(12) 0.09595(10)
Cu1B* Cu -0.61821(19) -0.47341(12) -0.09595(10)
N1* N -0.3592(12) -0.6661(8) 0.1263(7)
N1B N -0.6408(12) -0.3339(8) -0.1263(7)
N2B N -0.5912(11) 0.3879(9) -0.1140(7)
N2B* N -0.5912(11) -0.6121(9) -0.1140(7)
N3B N -0.5092(11) 0.0714(8) -0.2373(6)
N4B N -0.5236(11) -0.0307(8) -0.2393(6)
N5B N -0.1273(13) -0.4215(10) -0.1646(7)
H13B H -0.06450 -0.40710 -0.18480
#END
