
#######################################################################
#
#                 Cambridge Crystallographic Data Centre
#                                CCDC
#
#######################################################################
#
# If this CIF has been generated from an entry in the Cambridge
# Structural Database, then it will include bibliographic, chemical,
# crystal, experimental, refinement or atomic coordinate data resulting
# from the CCDC's data processing and validation procedures.
#
#######################################################################

data_CSD_CIF_ICECAX
_audit_creation_date 2017-01-04
_audit_creation_method CSD-ConQuest-V1
_database_code_CSD ICECAX
_database_code_depnum_ccdc_archive 'CCDC 1495718'
_chemical_formula_sum 'C19 H88 N16 Ni8 O77 P2 W18'
_chemical_formula_moiety
;
(C15 H64 N12 Ni7 O73 P2 W18 2-)n,n(C4 H16 N4 Ni1 2+),4n(H2 O1)
;
_journal_coden_Cambridge 1295
_journal_volume 75
_journal_year 2017
_journal_page_first 12
_journal_name_full 'Inorg.Chem.Commun. '
loop_
_publ_author_name
"Ya-Xin Li"
"Zhong Zhang"
"Bai-Feng Yang"
"Xin-Xiong Li"
"Qiang Zhang"
"Guo-Yu Yang"
_chemical_name_systematic
;
catena-(bis(ethane-1,2-diamine)-nickel 
bis(\m-phosphato)-heptatetracontakis(\m-oxo)-penta-aqua-tris(ethane-1,2-diamin
e)-tris(1,2-diaminopropane)-tridecaoxo-hepta-nickel-octadeca-tungsten 
tetrahydrate)
;
_cell_volume   5425.301
_exptl_crystal_density_diffrn 3.425
_exptl_crystal_description 'block'
_diffrn_ambient_temperature 293
_refine_special_details
;
The SQUEEZE/PLATON program has been used to model some disorder.

;
#These two values have been output from a single CSD field.
_refine_ls_R_factor_gt 0.042
_refine_ls_wR_factor_gt 0.042
_symmetry_cell_setting triclinic
_symmetry_space_group_name_H-M 'P -1'
_symmetry_Int_Tables_number 2
loop_
_symmetry_equiv_pos_site_id
_symmetry_equiv_pos_as_xyz
1 x,y,z
2 -x,-y,-z
_cell_length_a 13.7369(4)
_cell_length_b 18.1151(5)
_cell_length_c 24.1156(6)
_cell_angle_alpha 96.681(2)
_cell_angle_beta 102.717(2)
_cell_angle_gamma 108.828(2)
_cell_formula_units_Z 2
loop_
_atom_type_symbol
_atom_type_radius_bond
C 0.68
H 0.23
N 0.68
Ni 1.24
O 0.68
P 1.05
W 1.62
loop_
_atom_site_label
_atom_site_type_symbol
_atom_site_fract_x
_atom_site_fract_y
_atom_site_fract_z
W1 W 0.60160(4) 0.73823(3) 0.622963(19)
W2 W 0.24018(4) 0.53347(3) 0.40999(2)
W3 W 1.28296(4) 1.00986(3) 0.09546(2)
W4 W 0.34134(4) 0.61981(3) 0.56792(2)
W5 W 0.78661(4) 0.78436(3) 0.53251(2)
W6 W 0.94389(4) 0.75422(3) -0.10367(2)
W7 W 0.41017(4) 0.57329(3) 0.32499(2)
W8 W 1.11916(4) 0.96442(3) 0.183769(19)
W9 W 0.61329(4) 0.85270(3) 0.44523(2)
W10 W 0.85732(4) 0.80446(3) 0.12978(2)
W11 W 0.42679(4) 0.80738(3) 0.53778(2)
W12 W 0.69047(4) 0.70460(3) 0.38866(2)
W13 W 1.18859(4) 0.90029(3) -0.05735(2)
W14 W 1.24158(4) 0.83480(3) 0.14456(2)
W15 W 0.32705(4) 0.72060(3) 0.37952(2)
W16 W 0.77068(4) 0.70296(3) -0.00865(2)
W17 W 0.97371(4) 0.67228(3) 0.08836(2)
W18 W 1.14930(5) 0.72461(3) -0.00887(2)
P1 P 0.5132(2) 0.65306(17) 0.47510(11)
P2 P 1.0249(2) 0.86125(17) 0.03907(11)
Ni1 Ni 0.45828(12) 0.46417(9) 0.43287(6)
Ni2 Ni 0.96134(12) 0.95369(9) -0.06442(6)
Ni3 Ni 0.70279(12) 0.57566(9) 0.48774(6)
Ni4 Ni 0.80924(12) 0.90853(9) 0.01763(6)
Ni5 Ni 0.77490(14) 0.75851(10) 0.26066(7)
Ni6 Ni 0.76690(14) 0.73606(10) 0.75895(6)
Ni7 Ni 1.0637(2) 0.52404(13) 0.16544(10)
C1 C 0.6044(12) 0.7323(11) 0.8207(9)
H1 H 0.61520 0.71780 0.85850
H2 H 0.55370 0.75950 0.81810
C2 C 0.5588(16) 0.6600(17) 0.7759(14)
H3 H 0.52300 0.67880 0.74380
C3 C 0.9239(13) 0.7371(10) 0.6948(9)
H4 H 0.98050 0.71980 0.71350
H5 H 0.92240 0.73310 0.65420
C4 C 0.9400(13) 0.9139(11) 0.3127(8)
H6 H 0.94070 0.93530 0.27770
H7 H 1.00540 0.94590 0.34250
C5 C 0.8438(14) 0.9162(9) 0.3328(7)
H8 H 0.84800 0.89640 0.36900
C6 C 0.7042(15) 0.6010(12) 0.1885(9)
H9 H 0.70430 0.54720 0.18600
H10 H 0.70160 0.61440 0.15060
C7 C 0.6085(15) 0.6057(12) 0.2066(9)
H11 H 0.54410 0.57590 0.17560
H12 H 0.60350 0.58220 0.24050
C8 C 0.952(2) 0.8209(13) 0.7204(12)
H13 H 0.91470 0.83830 0.68800
C9 C 1.060(3) 0.871(2) 0.7274(17)
H14 H 1.07240 0.92390 0.74750
H15 H 1.07290 0.87420 0.68990
H16 H 1.10830 0.85020 0.74940
C10 C 0.840(3) 0.9989(13) 0.3455(15)
H17 H 0.77700 0.99590 0.35790
H18 H 0.83730 1.02080 0.31100
H19 H 0.90220 1.03250 0.37570
C11 C 0.465(3) 0.596(2) 0.7840(17)
H20 H 0.42670 0.62130 0.80310
H21 H 0.42110 0.56700 0.74600
H22 H 0.48520 0.55990 0.80630
C12 C 0.5859(13) 0.8222(9) 0.0306(10)
H23 H 0.61210 0.82490 0.07180
H24 H 0.59620 0.77720 0.01020
C13 C 0.4686(17) 0.8061(15) 0.0168(13)
H25 H 0.43980 0.79610 -0.02500
H26 H 0.43430 0.75820 0.02990
C14 C 0.9341(11) 0.6403(9) 0.4813(8)
H27 H 0.94850 0.68340 0.51330
H28 H 0.90720 0.65600 0.44560
C15 C 1.0384(13) 0.6278(11) 0.4801(10)
H29 H 1.06670 0.61320 0.51600
H30 H 1.02460 0.58450 0.44820
N1 N 0.7066(8) 0.7872(7) 0.8164(4)
H31 H 0.75420 0.80320 0.85160
H32 H 0.69700 0.83060 0.80510
N2 N 0.6352(10) 0.6368(7) 0.7505(5)
H33 H 0.60430 0.61410 0.71270
H34 H 0.65480 0.60120 0.76870
N3 N 0.8218(9) 0.6810(7) 0.6984(5)
H35 H 0.83110 0.63720 0.70920
H36 H 0.77350 0.66590 0.66350
N4 N 0.8985(9) 0.8344(7) 0.7635(5)
H37 H 0.87770 0.87600 0.75840
H38 H 0.94450 0.84690 0.79900
N5 N 0.9335(10) 0.8308(8) 0.3013(5)
H39 H 0.95650 0.81660 0.33480
H40 H 0.97520 0.82530 0.27820
N6 N 0.7459(11) 0.8599(7) 0.2895(5)
H41 H 0.72840 0.88260 0.25940
H42 H 0.69110 0.84690 0.30560
N7 N 0.8016(11) 0.6565(8) 0.2311(5)
H43 H 0.85600 0.66920 0.21460
H44 H 0.81940 0.63370 0.26100
N8 N 0.6171(10) 0.6883(8) 0.2201(5)
H45 H 0.57590 0.69330 0.24360
H46 H 0.59430 0.70410 0.18720
N9 N 0.6524(8) 0.8950(7) 0.0162(5)
H47 H 0.65440 0.93690 0.04100
H48 H 0.61900 0.89790 -0.01960
N10 N 0.4417(15) 0.8715(13) 0.0435(10)
H49 H 0.49180 0.91390 0.06470
H50 H 0.37600 0.86720 0.03780
N11 N 0.8546(8) 0.5714(7) 0.4872(5)
H51 H 0.88100 0.55790 0.52050
H52 H 0.84460 0.53150 0.45800
N12 N 1.1160(12) 0.6993(11) 0.4732(7)
H53 H 1.09990 0.74110 0.47040
H54 H 1.17840 0.70020 0.47180
O1 O 0.6311(7) 0.9449(5) 0.4305(4)
O2 O 0.3915(7) 0.8864(5) 0.5567(4)
O3 O 0.6610(7) 0.8064(5) 0.3898(3)
O4 O 0.5398(7) 0.8528(5) 0.5049(3)
O5 O 0.5299(7) 0.8156(5) 0.6055(3)
O6 O 0.3404(7) 0.7623(5) 0.4596(3)
O7 O 0.7364(7) 0.8698(5) 0.5025(3)
O8 O 0.3491(7) 0.6605(5) 0.3184(3)
O9 O 0.4688(7) 0.7928(5) 0.3957(4)
O10 O 0.3305(7) 0.7247(5) 0.5598(3)
O11 O 1.1878(6) 1.0515(5) 0.0599(3)
O12 O 0.3831(8) 0.5352(6) 0.2526(3)
O13 O 0.7594(7) 0.7119(5) 0.3366(3)
O14 O 0.3152(6) 0.4739(5) 0.4398(3)
O15 O 0.5427(6) 0.5794(4) 0.4865(3)
O16 O 0.6943(7) 0.6171(5) 0.4124(3)
O17 O 0.2410(7) 0.5837(6) 0.6006(4)
O18 O 0.4599(7) 0.6800(5) 0.6312(3)
O19 O 0.6704(7) 0.7783(5) 0.6961(3)
O20 O 0.9154(7) 0.8401(5) 0.5719(4)
O21 O 0.2593(7) 0.5878(5) 0.4879(3)
O22 O 0.4835(6) 0.6880(5) 0.5271(3)
O23 O 0.1091(7) 0.4712(6) 0.3944(4)
O24 O 0.2578(7) 0.7734(6) 0.3439(4)
O25 O 0.4153(6) 0.6301(5) 0.4210(3)
O26 O 0.2193(7) 0.6302(5) 0.3864(4)
O27 O 0.3922(6) 0.5393(5) 0.5584(3)
O28 O 0.5458(7) 0.6562(5) 0.3405(3)
O29 O 0.8063(7) 0.7705(5) 0.4553(3)
O30 O 0.7912(8) 0.7980(6) 0.1830(3)
O31 O 0.9151(7) 0.7165(5) 0.1396(3)
O32 O 1.0420(7) 0.6732(5) 0.0276(3)
O33 O 1.2070(8) 0.6558(6) -0.0199(4)
O34 O 1.0378(7) 0.6945(5) -0.0784(3)
O35 O 1.1411(8) 1.0137(6) 0.2537(3)
O36 O 0.7614(7) 0.7934(5) -0.0234(3)
O37 O 1.2507(7) 1.0293(5) 0.1675(3)
O38 O 1.2072(7) 0.8944(5) 0.1995(3)
O39 O 0.9987(7) 0.8720(5) 0.1757(3)
O40 O 1.0610(6) 0.8263(5) -0.0107(3)
O41 O 1.2277(7) 0.8079(5) -0.0390(3)
O42 O 1.3307(7) 0.9283(5) 0.1291(3)
O43 O 1.1236(6) 0.9006(5) 0.0921(3)
O44 O 1.0763(7) 0.8241(5) -0.1171(3)
O45 O 0.8730(7) 0.7015(5) -0.1742(3)
O46 O 1.1187(7) 0.9703(5) -0.0547(3)
O47 O 1.2814(8) 0.9404(6) -0.0930(4)
O48 O 0.9056(7) 0.8381(5) -0.0979(3)
O49 O 0.9765(6) 0.9236(4) 0.0205(3)
O50 O 0.9441(7) 0.7925(5) 0.0552(3)
O51 O 1.3298(8) 0.8021(6) 0.1868(4)
O52 O 0.7513(7) 0.7243(5) 0.0678(4)
O53 O 0.8455(8) 0.6349(5) 0.0310(4)
O54 O 0.8550(7) 0.6982(5) -0.0628(3)
O55 O 1.4049(7) 1.0836(5) 0.1076(4)
O56 O 0.6487(8) 0.6323(6) -0.0465(4)
O57 O 1.1098(7) 0.7506(5) 0.1344(4)
O58 O 0.9804(9) 0.5877(6) 0.1131(4)
O59 O 0.2687(7) 0.5180(5) 0.3367(3)
O60 O 0.7728(7) 0.6861(5) 0.5381(3)
O61 O 0.6202(7) 0.6465(5) 0.6097(3)
O62 O 0.7042(7) 0.7926(5) 0.5870(3)
O63 O 0.4590(7) 0.5067(5) 0.3602(3)
O64 O 0.6072(6) 0.7179(5) 0.4643(3)
O65 O 0.8329(7) 0.8816(5) 0.0973(3)
O66 O 1.0500(7) 1.0139(5) 0.1406(3)
O67 O 1.2341(7) 0.7865(5) 0.0667(3)
O68 O 1.2710(7) 0.9494(5) 0.0218(3)
O69 O 0.9118(17) 0.4385(12) 0.1557(9)
O70 O 1.1012(17) 0.4813(11) 0.0915(8)
O71 O 1.2160(16) 0.6131(11) 0.1738(8)
O72 O 1.1363(18) 0.4528(12) 0.2124(8)
O73 O 1.037(2) 0.5629(16) 0.2424(10)
Ni8 Ni 0.40717(16) 0.00874(12) 0.33887(8)
C16 C 0.5088(12) 0.0942(15) 0.2655(9)
H55 H 0.56210 0.14260 0.29080
H56 H 0.49640 0.10190 0.22580
C17 C 0.544(2) 0.0239(17) 0.2714(13)
H57 H 0.50650 -0.01730 0.23660
H58 H 0.62000 0.04060 0.27440
C18 C 0.2408(13) -0.0353(10) 0.3898(7)
H59 H 0.19390 -0.08340 0.36170
H60 H 0.19940 -0.01800 0.41270
C19 C 0.3323(15) -0.0507(10) 0.4287(7)
H61 H 0.36860 -0.00750 0.46240
H62 H 0.30560 -0.10000 0.44200
N13 N 0.5243(13) -0.0089(11) 0.3213(7)
H63 H 0.58250 0.01420 0.35190
H64 H 0.51140 -0.06150 0.31380
N14 N 0.4089(11) 0.0724(8) 0.2831(5)
H65 H 0.35370 0.04610 0.25150
H66 H 0.39990 0.11710 0.29740
N15 N 0.4056(12) -0.0560(8) 0.3943(6)
H67 H 0.38620 -0.10700 0.37610
H68 H 0.47200 -0.04140 0.41810
N16 N 0.2898(9) 0.0274(7) 0.3603(5)
H69 H 0.31310 0.07540 0.38410
H70 H 0.24110 0.02720 0.32840
O74 O 0.0754(10) 0.7509(8) 0.2544(4)
O75 O 0.5009(10) 0.8166(9) 0.2783(5)
O76 O 0.0080(12) 0.8231(10) 0.4325(6)
O77 O 0.9073(17) 0.0135(12) 0.5023(9)
Ni1A Ni 0.54172(12) 0.53583(9) 0.56713(6)
Ni2A Ni 1.03866(12) 1.04631(9) 0.06442(6)
Ni3A Ni 0.29721(12) 0.42434(9) 0.51226(6)
Ni4A Ni 1.19076(12) 1.09147(9) -0.01763(6)
Ni6* Ni 0.76690(14) 0.73606(10) -0.24105(6)
O11A O 0.8122(6) 0.9485(5) -0.0599(3)
O14A O 0.6848(6) 0.5261(5) 0.5602(3)
O15A O 0.4573(6) 0.4206(4) 0.5135(3)
O27A O 0.6078(6) 0.4607(5) 0.4416(3)
O45* O 0.8730(7) 0.7015(5) 0.8258(3)
O46A O 0.8813(7) 1.0297(5) 0.0547(3)
O49A O 1.0235(6) 1.0764(4) -0.0205(3)
O61A O 0.3798(7) 0.3535(5) 0.3903(3)
O66A O 0.9500(7) 0.9861(5) -0.1406(3)
#END
