
#######################################################################
#
#                 Cambridge Crystallographic Data Centre
#                                CCDC
#
#######################################################################
#
# If this CIF has been generated from an entry in the Cambridge
# Structural Database, then it will include bibliographic, chemical,
# crystal, experimental, refinement or atomic coordinate data resulting
# from the CCDC's data processing and validation procedures.
#
#######################################################################

data_CSD_CIF_ICEKAD
_audit_creation_date 2005-02-10
_audit_creation_method CSD-ConQuest-V1
_database_code_CSD ICEKAD
_database_code_depnum_ccdc_archive 'CCDC 254089'
_chemical_formula_sum 'C36 H85 Ba3 N7 O57 Ti2'
_chemical_formula_moiety
;
(H4 N1 1+)7n,n(H18 Ba1 O9 2+),n(C36 H39 Ba2 O48 Ti2 9-)
;
_journal_coden_Cambridge 9
_journal_volume 43
_journal_year 2004
_journal_page_first 6266
_journal_name_full 'Inorg.Chem. '
loop_
_publ_author_name
"Yuan-Fu Deng"
"Zhao-Hui Zhou"
"Hui-Lin Wan"
_chemical_name_systematic
;
catena-(heptakis(Ammonium) nona-aqua-barium tris(\m~4~-hydrogen 
bis(citrato))-hexa-aqua-di-barium-di-titanium(iv))
;
_cell_volume   1791.625
_exptl_crystal_colour 'colorless'
_exptl_crystal_density_diffrn 1.887
_exptl_crystal_description 'column'
_diffrn_ambient_temperature 296
_refine_special_details
;
One of the water molecule sites of the cation is half occupied. One of the 
ammonium cation sites is disordered.
;
#These two values have been output from a single CSD field.
_refine_ls_R_factor_gt 0.0426
_refine_ls_wR_factor_gt 0.0426
_symmetry_cell_setting hexagonal
_symmetry_space_group_name_H-M 'P -3'
_symmetry_Int_Tables_number 147
loop_
_symmetry_equiv_pos_site_id
_symmetry_equiv_pos_as_xyz
1 x,y,z
2 -y,x-y,z
3 -x+y,-x,z
4 -x,-y,-z
5 y,-x+y,-z
6 x-y,x,-z
_cell_length_a 14.7993(6)
_cell_length_b 14.7993(6)
_cell_length_c 9.4457(4)
_cell_angle_alpha 90
_cell_angle_beta 90
_cell_angle_gamma 120
_cell_formula_units_Z 1
loop_
_atom_type_symbol
_atom_type_radius_bond
C 0.68
H 0.23
Ba 1.93
N 0.68
O 0.68
Ti 1.23
loop_
_atom_site_label
_atom_site_type_symbol
_atom_site_fract_x
_atom_site_fract_y
_atom_site_fract_z
Ba1 Ba 0.66670 0.33330 0.68441(3)
Ba2 Ba 0.00000 0.00000 0.00000
Ti1 Ti 0.66670 0.33330 0.30585(9)
O1 O 0.55643(15) 0.23276(15) 0.4144(2)
O2 O 0.54514(17) 0.29291(18) 0.1724(2)
O3 O 0.3727(2) 0.2037(2) 0.1524(3)
O4 O 0.5000(2) -0.0086(2) 0.3695(3)
O5 O 0.4582(3) 0.0338(3) 0.1696(3)
O6 O 0.2856(3) 0.1321(3) 0.6505(4)
O7 O 0.4525(2) 0.2210(3) 0.6953(3)
O8 O 0.6142(2) 0.1888(2) 0.9041(3)
O9 O 0.1491(7) 0.0880(13) 0.2175(14)
O10 O 0.2212(9) 0.1346(17) -0.0708(11)
C1 C 0.4515(2) 0.1922(2) 0.3718(3)
C2 C 0.4533(2) 0.2296(2) 0.2190(3)
C3 C 0.3954(2) 0.0729(2) 0.3793(3)
H1 H 0.38850 0.05130 0.47760
H2 H 0.32590 0.04420 0.33990
C4 C 0.4541(3) 0.0303(2) 0.2992(4)
C5 C 0.3966(2) 0.2354(3) 0.4638(3)
H3 H 0.43900 0.31090 0.46670
H4 H 0.33040 0.21790 0.42050
C6 C 0.3770(3) 0.1934(3) 0.6150(4)
N1 N 0.3952(3) 0.0500(3) -0.1085(3)
N2? N 0.1159(13) 0.0013(12) 0.501(3)
H5 H 0.50000 0.00000 0.50000
H6 H 0.3385(16) -0.0036(17) -0.134(4)
H7 H 0.390(3) 0.1040(17) -0.120(4)
H8 H 0.405(3) 0.044(3) -0.0212(13)
H9 H 0.4453(19) 0.055(3) -0.157(3)
H10 H 0.636(4) 0.150(3) 0.869(4)
H11 H 0.634(4) 0.202(4) 0.9901(19)
O4C O 0.5000(2) 0.0086(2) 0.6305(3)
C4C C 0.5459(3) -0.0303(2) 0.7008(4)
O5C O 0.5418(3) -0.0338(3) 0.8304(3)
C3C C 0.6046(2) -0.0729(2) 0.6207(3)
C1C C 0.5485(2) -0.1922(2) 0.6282(3)
O1C O 0.44357(15) -0.23276(15) 0.5856(2)
C2C C 0.5467(2) -0.2296(2) 0.7810(3)
O2C O 0.45486(17) -0.29291(18) 0.8276(2)
O3C O 0.6273(2) -0.2037(2) 0.8476(3)
C5C C 0.6034(2) -0.2354(3) 0.5362(3)
H3C H 0.56100 -0.31090 0.53330
H4C H 0.66960 -0.21790 0.57950
C6C C 0.6230(3) -0.1934(3) 0.3850(4)
O6C O 0.7144(3) -0.1321(3) 0.3495(4)
O7C O 0.5475(2) -0.2210(3) 0.3047(3)
H1C H 0.61150 -0.05130 0.52240
H2C H 0.67410 -0.04420 0.66010
O9A O -0.0880(7) 0.0611(13) 0.2175(14)
O9B O -0.0611(7) -0.1491(13) 0.2175(14)
O9C O -0.1491(7) -0.0880(13) -0.2175(14)
O9D O 0.0880(7) -0.0611(13) -0.2175(14)
O9E O 0.0611(7) 0.1491(13) -0.2175(14)
O10A O -0.1346(9) 0.0866(17) -0.0708(11)
O10B O -0.0866(9) -0.2212(17) -0.0708(11)
O10C O -0.2212(9) -0.1346(17) 0.0708(11)
O10D O 0.1346(9) -0.0866(17) 0.0708(11)
O10E O 0.0866(9) 0.2212(17) 0.0708(11)
O1A O 0.76724(15) 0.32367(15) 0.4144(2)
O2A O 0.70709(17) 0.25223(18) 0.1724(2)
O3A O 0.7963(2) 0.1690(2) 0.1524(3)
O4A O 1.0086(2) 0.5086(2) 0.3695(3)
O5A O 0.9662(3) 0.4244(3) 0.1696(3)
O6A O 0.8679(3) 0.1535(3) 0.6505(4)
O7A O 0.7790(2) 0.2315(3) 0.6953(3)
C1A C 0.8078(2) 0.2593(2) 0.3718(3)
C2A C 0.7704(2) 0.2237(2) 0.2190(3)
C3A C 0.9271(2) 0.3225(2) 0.3793(3)
H1A H 0.94870 0.33720 0.47760
H2A H 0.95580 0.28170 0.33990
C4A C 0.9697(3) 0.4238(2) 0.2992(4)
C5A C 0.7646(2) 0.1612(3) 0.4638(3)
H3A H 0.68910 0.12810 0.46670
H4A H 0.78210 0.11250 0.42050
C6A C 0.8066(3) 0.1836(3) 0.6150(4)
H5A H 1.00000 0.50000 0.50000
O4D O 0.9914(2) 0.4914(2) 0.6305(3)
C4D C 1.0303(3) 0.5762(2) 0.7008(4)
O5D O 1.0338(3) 0.5756(3) 0.8304(3)
C3D C 1.0729(2) 0.6775(2) 0.6207(3)
C1D C 1.1922(2) 0.7407(2) 0.6282(3)
O1D O 1.23276(15) 0.67633(15) 0.5856(2)
C2D C 1.2296(2) 0.7763(2) 0.7810(3)
O2D O 1.29291(17) 0.74777(18) 0.8276(2)
O3D O 1.2037(2) 0.8310(2) 0.8476(3)
C5D C 1.2354(2) 0.8388(3) 0.5362(3)
H3D H 1.31090 0.87190 0.53330
H4D H 1.21790 0.88750 0.57950
C6D C 1.1934(3) 0.8164(3) 0.3850(4)
O6D O 1.1321(3) 0.8465(3) 0.3495(4)
O7D O 1.2210(2) 0.7685(3) 0.3047(3)
H1D H 1.05130 0.66280 0.52240
H2D H 1.04420 0.71830 0.66010
O1B O 0.67633(15) 0.44357(15) 0.4144(2)
O2B O 0.74777(17) 0.45486(18) 0.1724(2)
O3B O 0.8310(2) 0.6273(2) 0.1524(3)
O4B O 0.4914(2) 0.5000(2) 0.3695(3)
O5B O 0.5756(3) 0.5418(3) 0.1696(3)
O6B O 0.8465(3) 0.7144(3) 0.6505(4)
O7B O 0.7685(2) 0.5475(3) 0.6953(3)
C1B C 0.7407(2) 0.5485(2) 0.3718(3)
C2B C 0.7763(2) 0.5467(2) 0.2190(3)
C3B C 0.6775(2) 0.6046(2) 0.3793(3)
H1B H 0.66280 0.61150 0.47760
H2B H 0.71830 0.67410 0.33990
C4B C 0.5762(3) 0.5459(2) 0.2992(4)
C5B C 0.8388(2) 0.6034(3) 0.4638(3)
H3B H 0.87190 0.56100 0.46670
H4B H 0.88750 0.66960 0.42050
C6B C 0.8164(3) 0.6230(3) 0.6150(4)
H5B H 0.50000 0.50000 0.50000
O4E O 0.5086(2) 0.5000(2) 0.6305(3)
C4E C 0.4238(3) 0.4541(2) 0.7008(4)
O5E O 0.4244(3) 0.4582(3) 0.8304(3)
C3E C 0.3225(2) 0.3954(2) 0.6207(3)
C1E C 0.2593(2) 0.4515(2) 0.6282(3)
O1E O 0.32367(15) 0.55643(15) 0.5856(2)
C2E C 0.2237(2) 0.4533(2) 0.7810(3)
O2E O 0.25223(17) 0.54514(18) 0.8276(2)
O3E O 0.1690(2) 0.3727(2) 0.8476(3)
C5E C 0.1612(2) 0.3966(3) 0.5362(3)
H3E H 0.12810 0.43900 0.53330
H4E H 0.11250 0.33040 0.57950
C6E C 0.1836(3) 0.3770(3) 0.3850(4)
O6E O 0.1535(3) 0.2856(3) 0.3495(4)
O7E O 0.2315(2) 0.4525(3) 0.3047(3)
H1E H 0.33720 0.38850 0.52240
H2E H 0.28170 0.32590 0.66010
O8A O 0.8112(2) 0.4254(2) 0.9041(3)
H10A H 0.850(4) 0.486(3) 0.869(4)
H11A H 0.798(4) 0.432(4) 0.9901(19)
O8B O 0.5746(2) 0.3858(2) 0.9041(3)
H10B H 0.514(4) 0.364(3) 0.869(4)
H11B H 0.568(4) 0.366(4) 0.9901(19)
Ba1C Ba 0.33330 -0.33330 0.31559(3)
Ti1C Ti 0.33330 -0.33330 0.69415(9)
O8C O 0.3858(2) -0.1888(2) 0.0959(3)
H10C H 0.364(4) -0.150(3) 0.131(4)
H11C H 0.366(4) -0.202(4) 0.0099(19)
O8D O 0.1888(2) -0.4254(2) 0.0959(3)
H10D H 0.150(4) -0.486(3) 0.131(4)
H11D H 0.202(4) -0.432(4) 0.0099(19)
O8E O 0.4254(2) -0.3858(2) 0.0959(3)
H10E H 0.486(4) -0.364(3) 0.131(4)
H11E H 0.432(4) -0.366(4) 0.0099(19)
Ba1C* Ba 1.33330 0.66670 0.31559(3)
Ti1C* Ti 1.33330 0.66670 0.69415(9)
Ba1C** Ba 0.33330 0.66670 0.31559(3)
Ti1C** Ti 0.33330 0.66670 0.69415(9)
O1D* O 0.23276(15) -0.32367(15) 0.5856(2)
O1E* O 0.32367(15) -0.44357(15) 0.5856(2)
O7D* O 0.2210(2) -0.2315(3) 0.3047(3)
O7E* O 0.2315(2) -0.5475(3) 0.3047(3)
O2D* O 0.29291(17) -0.25223(18) 0.8276(2)
O2E* O 0.25223(17) -0.45486(18) 0.8276(2)
#END
