
#######################################################################
#
#                 Cambridge Crystallographic Data Centre
#                                CCDC
#
#######################################################################
#
# If this CIF has been generated from an entry in the Cambridge
# Structural Database, then it will include bibliographic, chemical,
# crystal, experimental, refinement or atomic coordinate data resulting
# from the CCDC's data processing and validation procedures.
#
#######################################################################

data_CSD_CIF_ICEPIR
_audit_creation_date 2012-02-03
_audit_creation_method CSD-ConQuest-V1
_database_code_CSD ICEPIR
_database_code_depnum_ccdc_archive 'CCDC 822080'
_chemical_formula_sum 'C54 H56 Mg5 N2 O27'
_chemical_formula_moiety
;
(C4 H12 N1 1+)n,n(C2 H8 N1 1+),n(C48 H30 Mg5 O24 2-),3n(H2 O1)
;
_journal_coden_Cambridge 603
_journal_volume 30
_journal_year 2011
_journal_page_first 1585
_journal_name_full 'Jiegou Huaxue(Chin.)(Chin.J.Struct.Chem.) '
loop_
_publ_author_name
"Zhao-Feng Wu"
"Mei-Ling Feng"
"Bing Hu"
"Xiao-Ying Huang"
"Yu-Bao Zhao"
_chemical_name_systematic
;
catena-[Tetramethylammonium dimethylammonium 
tris(\m~4~-4,4'-biphenyldicarboxylato-O,O',O'',O''')-hexakis(\m~3~-formato-O,O
,O')-penta-magnesium(ii) trihydrate]
;
_cell_volume   4631.310
_exptl_crystal_colour 'colorless'
_exptl_crystal_density_diffrn 1.384
_exptl_crystal_description 'block'
_diffrn_ambient_temperature 293
_refine_special_details
;
The tetramethylammonium and dimethylammonium cations have been modelled on 
the same site.
;
#These two values have been output from a single CSD field.
_refine_ls_R_factor_gt 0.0457
_refine_ls_wR_factor_gt 0.0457
_symmetry_cell_setting rhombohedral
_symmetry_space_group_name_H-M 'R -3'
_symmetry_Int_Tables_number 148
loop_
_symmetry_equiv_pos_site_id
_symmetry_equiv_pos_as_xyz
1 x,y,z
2 -y,x-y,z
3 -x+y,-x,z
4 2/3+x,1/3+y,1/3+z
5 2/3-y,1/3+x-y,1/3+z
6 2/3-x+y,1/3-x,1/3+z
7 1/3+x,2/3+y,2/3+z
8 1/3-y,2/3+x-y,2/3+z
9 1/3-x+y,2/3-x,2/3+z
10 -x,-y,-z
11 y,-x+y,-z
12 x-y,x,-z
13 -2/3-x,-1/3-y,-1/3-z
14 -2/3+y,-1/3-x+y,-1/3-z
15 -2/3+x-y,-1/3+x,-1/3-z
16 -1/3-x,-2/3-y,-2/3-z
17 -1/3+y,-2/3-x+y,-2/3-z
18 -1/3+x-y,-2/3+x,-2/3-z
_cell_length_a 11.3427(3)
_cell_length_b 11.3427(3)
_cell_length_c 41.5662(18)
_cell_angle_alpha 90
_cell_angle_beta 90
_cell_angle_gamma 120
_cell_formula_units_Z 3
loop_
_atom_type_symbol
_atom_type_radius_bond
C 0.68
H 0.23
Mg 1.41
N 0.68
O 0.68
loop_
_atom_site_label
_atom_site_type_symbol
_atom_site_fract_x
_atom_site_fract_y
_atom_site_fract_z
Mg1 Mg 0.00000 0.00000 0.12817(2)
Mg2 Mg 0.33330 0.16670 0.16670
O1 O 0.14996(13) 0.14172(13) 0.09903(3)
O2 O 0.35563(14) 0.20351(17) 0.11866(3)
O3 O 0.14374(11) -0.01467(11) 0.15907(3)
O4 O 0.03971(14) -0.23470(13) 0.17228(4)
C1 C 0.27659(19) 0.20268(19) 0.09757(4)
C2 C 0.3424(2) 0.2864(2) 0.06769(4)
C3 C 0.2666(2) 0.2826(3) 0.04158(5)
H1 H 0.17290 0.22420 0.04160
C4 C 0.3286(2) 0.3650(3) 0.01507(5)
H2 H 0.27540 0.36040 -0.00240
C5 C 0.4669(2) 0.4536(2) 0.01406(5)
C6 C 0.5427(2) 0.4549(4) 0.04021(6)
H3 H 0.63650 0.51280 0.04010
C7 C 0.4816(2) 0.3715(3) 0.06662(6)
H4 H 0.53500 0.37300 0.08380
C8 C 0.13496(19) -0.11739(19) 0.17270(5)
H5 H 0.21050 -0.10260 0.18470
O5 O 0.0690(9) 0.3465(10) 0.0918(3)
H6 H -0.01470 0.30630 0.08670
H7 H 0.07770 0.28040 0.09850
N1 N 0.33330 0.66670 0.09735(17)
C9 C 0.33330 0.66670 0.0639(2)
H8? H 0.24990 0.65890 0.05620
H9? H 0.34110 0.59100 0.05620
H10? H 0.40900 0.75010 0.05620
C10 C 0.4648(13) 0.693(2) 0.1113(4)
H11 H 0.53190 0.78750 0.10830
H12 H 0.49430 0.63730 0.10070
H13 H 0.45350 0.67250 0.13380
N2? N 0.33330 0.66670 0.09735(17)
H14? H 0.30280 0.58300 0.10540
H15? H 0.28430 0.70230 0.10540
C11? C 0.33330 0.66670 0.0639(2)
H16? H 0.31500 0.73570 0.05620
H17? H 0.26430 0.57930 0.05620
H18? H 0.42070 0.68500 0.05620
C12? C 0.4813(19) 0.761(6) 0.1033(14)
H19? H 0.52100 0.71130 0.11240
H20? H 0.49240 0.83140 0.11790
H21? H 0.52570 0.80130 0.08330
Mg1I Mg 1.00000 1.00000 -0.12817(2)
Mg1I* Mg -1.00000 0.00000 -0.12817(2)
Mg1I** Mg 0.00000 -1.00000 -0.12817(2)
Mg1O Mg 0.66667 0.33333 0.205163(20)
Mg2I Mg 0.66670 0.83330 -0.16670
Mg2A Mg -0.16670 0.16660 0.16670
Mg2J Mg -0.83330 -0.16660 -0.16670
Mg2B Mg -0.16660 -0.33330 0.16670
Mg2K Mg 0.16660 -0.66670 -0.16670
Mg2Q Mg 0.83327 0.66663 0.16663
Mg2P Mg 0.83337 0.16673 0.16663
Mg2K* Mg 1.16660 1.33330 -0.16670
O1I O 0.85004(13) 0.85828(13) -0.09903(3)
O1A O -0.14172(13) 0.00824(13) 0.09903(3)
O1J O -0.85828(13) -0.00824(13) -0.09903(3)
O1B O -0.00824(13) -0.14996(13) 0.09903(3)
O1K O 0.00824(13) -0.85004(13) -0.09903(3)
O1J* O 1.14172(13) 0.99176(13) -0.09903(3)
O1K* O 1.00824(13) 1.14996(13) -0.09903(3)
O2I O 0.64437(14) 0.79649(17) -0.11866(3)
O2A O -0.20351(14) 0.15212(17) 0.11866(3)
O2J O -0.79649(14) -0.15212(17) -0.11866(3)
O2B O -0.15212(14) -0.35563(17) 0.11866(3)
O2K O 0.15212(14) -0.64437(17) -0.11866(3)
O2O O 0.311037(140) 0.129823(170) 0.214673(30)
O2F O 0.688963(140) 0.870177(170) -0.214673(30)
O2P O -0.129823(140) 0.181213(170) 0.214673(30)
O2G O -0.870177(140) -0.181213(170) -0.214673(30)
O2Q O -0.181213(140) -0.311037(170) 0.214673(30)
O2H O 0.181213(140) -0.688963(170) -0.214673(30)
O3A O 0.01467(11) 0.15841(11) 0.15907(3)
O3B O -0.15841(11) -0.14374(11) 0.15907(3)
O3O O 0.522927(110) 0.348003(110) 0.174263(30)
O3P O 0.651997(110) 0.174923(110) 0.174263(30)
O3I O 0.85626(11) 1.01467(11) -0.15907(3)
O3J O 0.98533(11) 0.84159(11) -0.15907(3)
O3K O 1.15841(11) 1.14374(11) -0.15907(3)
O3F O 0.477073(110) 0.651997(110) -0.174263(30)
O3P* O -0.348003(110) 0.174923(110) 0.174263(30)
O3J* O -1.01467(11) -0.15841(11) -0.15907(3)
O3G O -0.651997(110) -0.174923(110) -0.174263(30)
O3Q O -0.174923(110) -0.522927(110) 0.174263(30)
O3K* O 0.15841(11) -0.85626(11) -0.15907(3)
O3H O 0.174923(110) -0.477073(110) -0.174263(30)
O4A O 0.23470(14) 0.27441(13) 0.17228(4)
O4B O -0.27441(14) -0.03971(13) 0.17228(4)
O4O O 0.626957(140) 0.568033(130) 0.161053(40)
O4P O 0.431967(140) 0.058923(130) 0.161053(40)
O4I O 0.96029(14) 1.23470(13) -0.17228(4)
O4J O 0.76530(14) 0.72559(13) -0.17228(4)
O4G O 0.568033(140) 0.941077(130) -0.161053(40)
O4Q O -0.058923(140) 0.373043(130) 0.161053(40)
O4K O -0.72559(14) 0.03971(13) -0.17228(4)
O4H O -0.941077(140) -0.373043(130) -0.161053(40)
O4O* O -0.373043(140) -0.431967(130) 0.161053(40)
O4I* O -0.03971(14) -0.76530(13) -0.17228(4)
O4F O 0.373043(140) -0.568033(130) -0.161053(40)
C1I C 0.72341(19) 0.79732(19) -0.09757(4)
C1A C -0.20268(19) 0.07391(19) 0.09757(4)
C1J C -0.79732(19) -0.07391(19) -0.09757(4)
C1B C -0.07391(19) -0.27659(19) 0.09757(4)
C1K C 0.07391(19) -0.72341(19) -0.09757(4)
C2I C 0.6576(2) 0.7136(2) -0.06769(4)
C2A C -0.2864(2) 0.0560(2) 0.06769(4)
C2J C -0.7136(2) -0.0560(2) -0.06769(4)
C2B C -0.0560(2) -0.3424(2) 0.06769(4)
C2K C 0.0560(2) -0.6576(2) -0.06769(4)
C3I C 0.7334(2) 0.7174(3) -0.04158(5)
C3A C -0.2826(2) -0.0160(3) 0.04158(5)
C3J C -0.7174(2) 0.0160(3) -0.04158(5)
C3B C 0.0160(2) -0.2666(3) 0.04158(5)
C3K C -0.0160(2) -0.7334(3) -0.04158(5)
H1I H 0.82710 0.77580 -0.04160
H1A H -0.22420 -0.05130 0.04160
H1J H -0.77580 0.05130 -0.04160
H1B H 0.05130 -0.17290 0.04160
H1K H -0.05130 -0.82710 -0.04160
C4I C 0.6714(2) 0.6350(3) -0.01507(5)
C4A C -0.3650(2) -0.0364(3) 0.01507(5)
C4J C -0.6350(2) 0.0364(3) -0.01507(5)
C4B C 0.0364(2) -0.3286(3) 0.01507(5)
C4K C -0.0364(2) -0.6714(3) -0.01507(5)
H2I H 0.72460 0.63960 0.00240
H2A H -0.36040 -0.08500 -0.00240
H2J H -0.63960 0.08500 0.00240
H2B H 0.08500 -0.27540 -0.00240
H2K H -0.08500 -0.72460 0.00240
C5I C 0.5331(2) 0.5464(2) -0.01406(5)
C5A C -0.4536(2) 0.0133(2) 0.01406(5)
C5J C -0.5464(2) -0.0133(2) -0.01406(5)
C5B C -0.0133(2) -0.4669(2) 0.01406(5)
C5K C 0.0133(2) -0.5331(2) -0.01406(5)
C6I C 0.4573(2) 0.5451(4) -0.04021(6)
C6A C -0.4549(2) 0.0878(4) 0.04021(6)
C6J C -0.5451(2) -0.0878(4) -0.04021(6)
C6B C -0.0878(2) -0.5427(4) 0.04021(6)
C6K C 0.0878(2) -0.4573(4) -0.04021(6)
H3I H 0.36350 0.48720 -0.04010
H3A H -0.51280 0.12370 0.04010
H3J H -0.48720 -0.12370 -0.04010
H3B H -0.12370 -0.63650 0.04010
H3K H 0.12370 -0.36350 -0.04010
C7I C 0.5184(2) 0.6285(3) -0.06662(6)
C7A C -0.3715(2) 0.1101(3) 0.06662(6)
C7J C -0.6285(2) -0.1101(3) -0.06662(6)
C7B C -0.1101(2) -0.4816(3) 0.06662(6)
C7K C 0.1101(2) -0.5184(3) -0.06662(6)
H4I H 0.46500 0.62700 -0.08380
H4A H -0.37300 0.16200 0.08380
H4J H -0.62700 -0.16200 -0.08380
H4B H -0.16200 -0.53500 0.08380
H4K H 0.16200 -0.46500 -0.08380
C8A C 0.11739(19) 0.25235(19) 0.17270(5)
C8B C -0.25235(19) -0.13496(19) 0.17270(5)
C8O C 0.531707(190) 0.450723(190) 0.160633(50)
C8P C 0.549277(190) 0.080983(190) 0.160633(50)
C8I C 0.86504(19) 1.11739(19) -0.17270(5)
H5A H 0.10260 0.31310 0.18470
H5B H -0.31310 -0.21050 0.18470
H5O H 0.45617 0.43593 0.14863
H5P H 0.56407 0.02023 0.14863
H5I H 0.78950 1.10260 -0.18470
C10A C 0.3070(13) 0.7718(20) 0.1113(4)
C10B C 0.2282(13) 0.5352(20) 0.1113(4)
H11A H 0.21250 0.74440 0.10830
H11B H 0.25560 0.46810 0.10830
H12A H 0.36270 0.85700 0.10070
H12B H 0.14300 0.50570 0.10070
H13A H 0.32750 0.78100 0.13380
H13B H 0.21900 0.54650 0.13380
#END
