
#######################################################################
#
#                 Cambridge Crystallographic Data Centre
#                                CCDC
#
#######################################################################
#
# If this CIF has been generated from an entry in the Cambridge
# Structural Database, then it will include bibliographic, chemical,
# crystal, experimental, refinement or atomic coordinate data resulting
# from the CCDC's data processing and validation procedures.
#
#######################################################################

data_CSD_CIF_ICICON
_audit_creation_date 2005-02-10
_audit_creation_method CSD-ConQuest-V1
_database_code_CSD ICICON
_database_code_depnum_ccdc_archive 'CCDC 254212'
_chemical_formula_sum 'C15 H38 Ga6 N2 O33 P8'
_chemical_formula_moiety
;
(C3 H12 N2 2+)n,n(C12 H24 Ga6 O32 P8 2-),n(H2 O1)
;
_journal_coden_Cambridge 9
_journal_volume 43
_journal_year 2004
_journal_page_first 6403
_journal_name_full 'Inorg.Chem. '
loop_
_publ_author_name
"Chia-Hui Lin"
"Kwang-Hwa Lii"
_chemical_name_systematic
;
catena-[Propylene-1,3-diammonium 
octakis(\m~3~-methylphosphonato)-bis(\m~2~-oxalato)-hexa-gallium monohydrate]
;
_cell_volume   2157.528
_exptl_crystal_colour 'colorless'
_exptl_crystal_density_diffrn 2.217
_exptl_crystal_description 'plate'
_diffrn_ambient_temperature 294
_refine_special_details
;
The cation is disordered by symmetry.

;
#These two values have been output from a single CSD field.
_refine_ls_R_factor_gt 0.0402
_refine_ls_wR_factor_gt 0.0402
_symmetry_cell_setting monoclinic
_symmetry_space_group_name_H-M 'P 21/n'
_symmetry_Int_Tables_number 14
loop_
_symmetry_equiv_pos_site_id
_symmetry_equiv_pos_as_xyz
1 x,y,z
2 1/2+x,1/2-y,1/2+z
3 -x,-y,-z
4 -1/2-x,-1/2+y,-1/2-z
_cell_length_a 8.8514(4)
_cell_length_b 16.3030(7)
_cell_length_c 15.0816(7)
_cell_angle_alpha 90
_cell_angle_beta 97.539(1)
_cell_angle_gamma 90
_cell_formula_units_Z 2
loop_
_atom_type_symbol
_atom_type_radius_bond
C 0.68
Ga 1.22
N 0.68
O 0.68
P 1.05
loop_
_atom_site_label
_atom_site_type_symbol
_atom_site_fract_x
_atom_site_fract_y
_atom_site_fract_z
Ga1 Ga 0.53501(5) 0.01253(3) 0.28076(3)
Ga2 Ga 1.13971(5) 0.19273(3) 0.26882(3)
Ga3 Ga 0.54427(5) 0.28072(3) 0.21891(3)
P1 P 0.80151(12) 0.13332(7) 0.23153(7)
P2 P 0.34709(12) 0.13676(6) 0.12962(7)
P3 P 0.43079(12) 0.16561(6) 0.38593(7)
P4 P 0.26506(13) -0.12287(7) 0.24414(8)
O1 O 0.9606(3) 0.1474(2) 0.2846(2)
O2 O 0.7255(3) 0.07088(19) 0.2846(2)
O3 O 0.7225(4) 0.2141(2) 0.2167(3)
O4 O 0.1955(4) 0.1485(2) 0.1671(2)
O5 O 0.4323(4) 0.21696(19) 0.1269(2)
O6 O 0.4404(4) 0.07051(19) 0.1806(2)
O7 O 0.4927(3) 0.07865(17) 0.38236(19)
O8 O 0.4797(4) 0.22401(19) 0.3178(2)
O9 O 0.2555(3) 0.1626(2) 0.3737(2)
O10 O 0.1241(4) -0.14079(19) 0.2875(2)
O11 O 0.3724(4) -0.1972(2) 0.2441(3)
O12 O 0.3554(3) -0.05318(18) 0.2939(2)
O13 O 0.8229(4) -0.1466(2) 0.19419(19)
O14 O 0.6172(3) -0.06646(18) 0.19452(19)
O15 O 0.6608(3) -0.06408(17) 0.37186(19)
O16 O 0.8611(3) -0.14872(17) 0.37120(19)
O17 O 0.1386(9) 0.8104(5) 0.5309(5)
C1 C 0.8259(7) 0.0905(4) 0.1247(4)
C2 C 0.2985(7) 0.1037(3) 0.0169(3)
C3 C 0.4911(7) 0.2038(3) 0.4956(3)
C4 C 0.2097(7) -0.0928(4) 0.1311(4)
C5 C 0.7281(5) -0.1069(2) 0.2316(3)
C6 C 0.7517(5) -0.1070(2) 0.3339(3)
C7 C -0.1004(12) -0.0175(6) 0.5447(7)
C8? C -0.1431(11) 0.0624(6) 0.5052(6)
C9 C 0.016(7) 0.003(4) 0.486(4)
C10? C 0.014(6) 0.001(3) 0.475(4)
N1 N -0.2390(11) 0.0388(6) 0.5280(7)
N2? N -0.2807(11) 0.0272(6) 0.5380(7)
C7B C 0.1004(12) 0.0175(6) 0.4553(7)
C9B C -0.016(7) -0.003(4) 0.514(4)
N1B N 0.2390(11) -0.0388(6) 0.4720(7)
Ga2* Ga 0.13971(5) 0.19273(3) 0.26882(3)
Ga3C Ga -0.04427(5) -0.21928(3) 0.28109(3)
P2* P 1.34709(12) 0.13676(6) 0.12962(7)
O4* O 1.1955(4) 0.1485(2) 0.1671(2)
O5* O 1.4323(4) 0.21696(19) 0.1269(2)
O6* O 1.4404(4) 0.07051(19) 0.1806(2)
C2* C 1.2985(7) 0.1037(3) 0.0169(3)
P3* P 1.43079(12) 0.16561(6) 0.38593(7)
O7* O 1.4927(3) 0.07865(17) 0.38236(19)
O8* O 1.4797(4) 0.22401(19) 0.3178(2)
O9* O 1.2555(3) 0.1626(2) 0.3737(2)
C3* C 1.4911(7) 0.2038(3) 0.4956(3)
P4C P 1.23494(13) 0.37713(7) 0.25586(8)
O10C O 1.3759(4) 0.35921(19) 0.2125(2)
O11C O 1.1276(4) 0.3028(2) 0.2559(3)
O12C O 1.1446(3) 0.44682(18) 0.2061(2)
C4C C 1.2903(7) 0.4072(4) 0.3689(4)
O13C O 0.6771(4) 0.3534(2) 0.30581(19)
O14C O 0.8828(3) 0.43354(18) 0.30548(19)
O15C O 0.8392(3) 0.43592(17) 0.12814(19)
O16C O 0.6389(3) 0.35128(17) 0.12880(19)
C5C C 0.7719(5) 0.3931(2) 0.2684(3)
C6C C 0.7483(5) 0.3930(2) 0.1661(3)
P1* P -0.19849(12) 0.13332(7) 0.23153(7)
O1* O -0.0394(3) 0.1474(2) 0.2846(2)
O2* O -0.2745(3) 0.07088(19) 0.2846(2)
O3* O -0.2775(4) 0.2141(2) 0.2167(3)
C1* C -0.1741(7) 0.0905(4) 0.1247(4)
Ga1* Ga -0.46499(5) 0.01253(3) 0.28076(3)
O10C* O 0.3759(4) 0.35921(19) 0.2125(2)
Ga2C Ga 0.36029(5) -0.30727(3) 0.23118(3)
Ga3C* Ga 0.95573(5) -0.21928(3) 0.28109(3)
O11C* O 0.1276(4) 0.3028(2) 0.2559(3)
O3C O -0.2225(4) -0.2859(2) 0.2833(3)
O5C O 0.0677(4) -0.28304(19) 0.3731(2)
O8C O 0.0203(4) -0.27599(19) 0.1822(2)
O13* O -0.1771(4) -0.1466(2) 0.19419(19)
O16* O -0.1389(3) -0.14872(17) 0.37120(19)
Ga3* Ga 1.54427(5) 0.28072(3) 0.21891(3)
Ga1** Ga 1.53501(5) 0.01253(3) 0.28076(3)
Ga1C Ga 0.96499(5) 0.51253(3) 0.21924(3)
Ga3** Ga -0.45573(5) 0.28072(3) 0.21891(3)
O6** O -0.5596(4) 0.07051(19) 0.1806(2)
O7** O -0.5073(3) 0.07865(17) 0.38236(19)
O12* O -0.6446(3) -0.05318(18) 0.2939(2)
O14* O -0.3828(3) -0.06646(18) 0.19452(19)
O15* O -0.3392(3) -0.06408(17) 0.37186(19)
#END
