
#######################################################################
#
#                 Cambridge Crystallographic Data Centre
#                                CCDC
#
#######################################################################
#
# If this CIF has been generated from an entry in the Cambridge
# Structural Database, then it will include bibliographic, chemical,
# crystal, experimental, refinement or atomic coordinate data resulting
# from the CCDC's data processing and validation procedures.
#
#######################################################################

data_CSD_CIF_ICIFIK
_audit_creation_date 2005-02-10
_audit_creation_method CSD-ConQuest-V1
_database_code_CSD ICIFIK
_database_code_depnum_ccdc_archive 'CCDC 254219'
_chemical_formula_sum 'C3 H4 Bi1 Cl2 K1 O2 S1'
_chemical_formula_moiety
;
(K1 1+)n,n(C3 H4 Bi1 Cl2 O2 S1 1-)
;
_journal_coden_Cambridge 9
_journal_volume 43
_journal_year 2004
_journal_page_first 6495
_journal_name_full 'Inorg.Chem. '
loop_
_publ_author_name
"G.G.Briand"
"N.Burford"
"M.D.Eelman"
"N.Aumeerally"
"L.Chen"
"T.S.Cameron"
"K.N.Robertson"
_chemical_name_systematic
;
catena-[Potassium (\m~2~-2-thiopropionato)-dichloro-bismuth]
;
_chemical_melting_point 466.15
_cell_volume    922.829
_exptl_crystal_colour 'colorless'
_exptl_crystal_density_diffrn 3.045
_diffrn_ambient_temperature 293
#These two values have been output from a single CSD field.
_refine_ls_R_factor_gt 0.0597
_refine_ls_wR_factor_gt 0.0597
_symmetry_cell_setting monoclinic
_symmetry_space_group_name_H-M 'P 21/c'
_symmetry_Int_Tables_number 14
loop_
_symmetry_equiv_pos_site_id
_symmetry_equiv_pos_as_xyz
1 x,y,z
2 x,1/2-y,1/2+z
3 -x,-y,-z
4 -x,-1/2+y,-1/2-z
_cell_length_a 7.822(3)
_cell_length_b 14.475(3)
_cell_length_c 8.629(2)
_cell_angle_alpha 90
_cell_angle_beta 109.17(2)
_cell_angle_gamma 90
_cell_formula_units_Z 4
loop_
_atom_type_symbol
_atom_type_radius_bond
C 0.68
H 0.23
Bi 1.60
Cl 0.99
K 1.33
O 0.75
S 1.02
loop_
_atom_site_label
_atom_site_type_symbol
_atom_site_fract_x
_atom_site_fract_y
_atom_site_fract_z
Bi1 Bi 0.69133(11) 0.27971(8) 0.39575(10)
K1 K 0.2391(9) 0.4212(6) 0.5912(8)
Cl1 Cl 0.8483(9) 0.3888(6) 0.6469(8)
Cl2 Cl 0.9120(11) 0.3622(8) 0.2677(10)
S1 S 0.4671(8) 0.4098(5) 0.3211(8)
O1 O 0.529(2) 0.2556(14) 0.103(2)
O2 O 0.415(2) 0.3394(16) -0.1207(16)
C1 C 0.320(3) 0.3735(19) 0.116(3)
H1 H 0.22880 0.33030 0.12780
C2 C 0.429(3) 0.3274(16) 0.023(2)
C3 C 0.227(6) 0.459(3) 0.025(4)
H2 H 0.15800 0.48810 0.08530
H3 H 0.14730 0.44180 -0.08190
H4 H 0.31610 0.50160 0.01340
O1A O 0.529(2) 0.2444(14) 0.603(2)
O2A O 0.415(2) 0.1606(16) 0.3793(16)
Bi1A Bi 0.69133(11) 0.22029(8) -0.10425(10)
#END
