
#######################################################################
#
#                 Cambridge Crystallographic Data Centre
#                                CCDC
#
#######################################################################
#
# If this CIF has been generated from an entry in the Cambridge
# Structural Database, then it will include bibliographic, chemical,
# crystal, experimental, refinement or atomic coordinate data resulting
# from the CCDC's data processing and validation procedures.
#
#######################################################################

data_CSD_CIF_ICITEU
_audit_creation_date 2006-08-03
_audit_creation_method CSD-ConQuest-V1
_database_code_CSD ICITEU
_database_code_depnum_ccdc_archive 'CCDC 294671'
_chemical_formula_sum 'C196 H254 Fe12 N28 O97 S12'
_chemical_formula_moiety
;
(C156 H108 Fe12 N12 O76 S12 8-)n,8n(C2 H8 N1 1+),13n(H2 O1),8n(C3 H7 N1 O1)
;
_journal_coden_Cambridge 179
_journal_volume 45
_journal_year 2006
_journal_page_first 2528
_journal_name_full 'Angew.Chem.,Int.Ed. '
loop_
_publ_author_name
"A.C.Sudik"
"A.P.Cote"
"A.G.Wong-Foy"
"M.O'Keeffe"
"O.M.Yaghi"
_chemical_name_systematic
;
catena-(octakis(Dimethylammonium) 
hexakis(\m~4~-4,4'-biphenyldicarboxylato)-tetrakis(\m~3~-oxo)-hexakis(cis-1,2-
bis(4-pyridyl)ethane)-dodecakis(sulfato-O,O')-dodeca-iron dimethylformamide 
clathrate tridecahydrate)
;
_cell_volume  57107.100
_exptl_crystal_colour 'orange'
_exptl_crystal_description 'octahedron'
_diffrn_ambient_temperature 258
_refine_special_details
;
The cations are reported as completely disordered and do not appear to have 
been modelled.
;
#These two values have been output from a single CSD field.
_refine_ls_R_factor_gt 0.1005
_refine_ls_wR_factor_gt 0.1005
_symmetry_cell_setting cubic
_symmetry_space_group_name_H-M 'F -4 3 m'
_symmetry_Int_Tables_number 216
loop_
_symmetry_equiv_pos_site_id
_symmetry_equiv_pos_as_xyz
1 x,y,z
2 -x,-y,z
3 -x,y,-z
4 x,-y,-z
5 z,x,y
6 z,-x,-y
7 -z,-x,y
8 -z,x,-y
9 y,z,x
10 -y,z,-x
11 y,-z,-x
12 -y,-z,x
13 y,x,z
14 -y,-x,z
15 y,-x,-z
16 -y,x,-z
17 x,z,y
18 -x,z,-y
19 -x,-z,y
20 x,-z,-y
21 z,y,x
22 z,-y,-x
23 -z,y,-x
24 -z,-y,x
25 x,1/2+y,1/2+z
26 -x,1/2-y,1/2+z
27 -x,1/2+y,1/2-z
28 x,1/2-y,1/2-z
29 z,1/2+x,1/2+y
30 z,1/2-x,1/2-y
31 -z,1/2-x,1/2+y
32 -z,1/2+x,1/2-y
33 y,1/2+z,1/2+x
34 -y,1/2+z,1/2-x
35 y,1/2-z,1/2-x
36 -y,1/2-z,1/2+x
37 y,1/2+x,1/2+z
38 -y,1/2-x,1/2+z
39 y,1/2-x,1/2-z
40 -y,1/2+x,1/2-z
41 x,1/2+z,1/2+y
42 -x,1/2+z,1/2-y
43 -x,1/2-z,1/2+y
44 x,1/2-z,1/2-y
45 z,1/2+y,1/2+x
46 z,1/2-y,1/2-x
47 -z,1/2+y,1/2-x
48 -z,1/2-y,1/2+x
49 1/2+x,y,1/2+z
50 1/2-x,-y,1/2+z
51 1/2-x,y,1/2-z
52 1/2+x,-y,1/2-z
53 1/2+z,x,1/2+y
54 1/2+z,-x,1/2-y
55 1/2-z,-x,1/2+y
56 1/2-z,x,1/2-y
57 1/2+y,z,1/2+x
58 1/2-y,z,1/2-x
59 1/2+y,-z,1/2-x
60 1/2-y,-z,1/2+x
61 1/2+y,x,1/2+z
62 1/2-y,-x,1/2+z
63 1/2+y,-x,1/2-z
64 1/2-y,x,1/2-z
65 1/2+x,z,1/2+y
66 1/2-x,z,1/2-y
67 1/2-x,-z,1/2+y
68 1/2+x,-z,1/2-y
69 1/2+z,y,1/2+x
70 1/2+z,-y,1/2-x
71 1/2-z,y,1/2-x
72 1/2-z,-y,1/2+x
73 1/2+x,1/2+y,z
74 1/2-x,1/2-y,z
75 1/2-x,1/2+y,-z
76 1/2+x,1/2-y,-z
77 1/2+z,1/2+x,y
78 1/2+z,1/2-x,-y
79 1/2-z,1/2-x,y
80 1/2-z,1/2+x,-y
81 1/2+y,1/2+z,x
82 1/2-y,1/2+z,-x
83 1/2+y,1/2-z,-x
84 1/2-y,1/2-z,x
85 1/2+y,1/2+x,z
86 1/2-y,1/2-x,z
87 1/2+y,1/2-x,-z
88 1/2-y,1/2+x,-z
89 1/2+x,1/2+z,y
90 1/2-x,1/2+z,-y
91 1/2-x,1/2-z,y
92 1/2+x,1/2-z,-y
93 1/2+z,1/2+y,x
94 1/2+z,1/2-y,-x
95 1/2-z,1/2+y,-x
96 1/2-z,1/2-y,x
_cell_length_a 38.5091(12)
_cell_length_b 38.5091(12)
_cell_length_c 38.5091(12)
_cell_angle_alpha 90
_cell_angle_beta 90
_cell_angle_gamma 90
_cell_formula_units_Z 4
loop_
_atom_type_symbol
_atom_type_radius_bond
C 0.68
H 0.23
Fe 1.34
N 0.68
O 0.68
S 1.02
loop_
_atom_site_label
_atom_site_type_symbol
_atom_site_fract_x
_atom_site_fract_y
_atom_site_fract_z
N1 N 0.5598(4) 0.0598(4) 0.1883(5)
O1 O 0.5766(2) 0.1270(3) 0.1672(2)
O2 O 0.6012(3) 0.1012(3) 0.1012(3)
O3 O 0.5322(2) 0.0825(2) 0.1264(2)
O4 O 0.4831(4) 0.0897(3) 0.0897(3)
O5 O 0.4959(5) 0.1327(3) 0.1327(3)
O6? O 0.596(6) 0.596(6) 0.904(6)
O7 O 0.50000 0.0813(12) 0.00000
O8? O 0.388(3) 0.612(3) 0.888(3)
O9 O 0.50000 0.1401(13) 0.00000
S1 S 0.51009(15) 0.10803(11) 0.10803(11)
C1 C 0.5757(6) 0.1579(4) 0.1579(4)
C2 C 0.5719(6) 0.1849(3) 0.1849(3)
C3 C 0.5719(6) 0.1765(4) 0.2186(5)
H1 H 0.57240 0.15310 0.22460
C4 C 0.5712(7) 0.2016(4) 0.2455(4)
H2 H 0.57010 0.19510 0.26870
C5 C 0.5721(7) 0.2357(4) 0.2357(4)
C6 C 0.5329(6) 0.0704(6) 0.2031(5)
H3 H 0.52400 0.09090 0.19390
C7 C 0.5122(7) 0.0559(8) 0.2334(6)
H4 H 0.49110 0.06470 0.24110
C8 C 0.5285(6) 0.0285(6) 0.2475(8)
C9 C 0.5115(5) 0.0115(5) 0.2806(7)
Fe1 Fe 0.58132(4) 0.08132(4) 0.14222(6)
N1A N 0.4402(4) -0.0598(4) 0.1883(5)
N1P N 0.5598(4) 0.1883(4) 0.0598(5)
N1Q N 0.4402(4) 0.1883(4) -0.0598(5)
N1AA N 0.5598(4) 0.4402(4) 0.3117(5)
N1Z N 0.4402(4) 0.5598(4) 0.3117(5)
N1QA N 0.5598(4) 0.3117(4) 0.4402(5)
N1PA N 0.4402(4) 0.3117(4) 0.5598(5)
N1PB N 0.6883(4) 0.0598(4) 0.0598(5)
N1QB N 0.6883(4) -0.0598(4) -0.0598(5)
N1MA N 0.9402(4) 0.0598(4) 0.3117(5)
N1LA N 1.0598(4) -0.0598(4) 0.3117(5)
N1V N 0.8117(4) 0.0598(4) 0.4402(5)
O1P O 0.5766(2) 0.1672(3) 0.1270(2)
O1AA O 0.5766(2) 0.3730(3) 0.3328(2)
O1QA O 0.5766(2) 0.3328(3) 0.3730(2)
O1FC O 0.6270(2) 0.0766(3) 0.1672(2)
O1XB O 0.6672(2) 0.0766(3) 0.1270(2)
O1MA O 0.8730(2) 0.0766(3) 0.3328(2)
O1EA O 0.8328(2) 0.0766(3) 0.3730(2)
O1A O 0.4234(2) -0.1270(3) 0.1672(2)
O1R O 0.4234(2) -0.1672(3) 0.1270(2)
O1Z O 0.4234(2) -0.3730(3) 0.3328(2)
O1OA O 0.4234(2) -0.3328(3) 0.3730(2)
O1GC O 0.3730(2) -0.0766(3) 0.1672(2)
O1ZB O 0.3328(2) -0.0766(3) 0.1270(2)
O1LA O 0.1270(2) -0.0766(3) 0.3328(2)
O1CA O 0.1672(2) -0.0766(3) 0.3730(2)
O1DB O 0.6270(2) 0.1672(3) 0.0766(2)
O1PB O 0.6672(2) 0.1270(3) 0.0766(2)
O1IA O 0.8730(2) 0.3328(3) 0.0766(2)
O1UA O 0.8328(2) 0.3730(3) 0.0766(2)
O1JB O 0.6270(2) 0.4234(3) 0.3328(2)
O1AB O 0.6672(2) 0.4234(3) 0.3730(2)
O1M O 0.8730(2) 0.4234(3) 0.1672(2)
O1F O 0.8328(2) 0.4234(3) 0.1270(2)
O1DC O 0.6270(2) 0.3328(3) 0.4234(2)
O1XA O 0.9234(2) 0.1270(3) 0.3328(2)
O1V O 0.8328(2) 0.1270(3) 0.4234(2)
O1Q O 0.4234(2) 0.1672(3) -0.1270(2)
O1EB O 0.3730(2) 0.1672(3) -0.0766(2)
O1Z* O 0.4234(2) 0.6270(3) 0.3328(2)
O1KB O 0.3730(2) 0.5766(3) 0.3328(2)
O1PA O 0.4234(2) 0.3328(3) 0.6270(2)
O1EC O 0.3730(2) 0.3328(3) 0.5766(2)
O1QB O 0.6672(2) -0.1270(3) -0.0766(2)
O1YB O 0.6672(2) -0.0766(3) -0.1270(2)
O2A O 0.3988(3) -0.1012(3) 0.1012(3)
O2AA O 0.6012(3) 0.3988(3) 0.3988(3)
O2I O 0.8988(3) 0.1012(3) 0.3988(3)
O2B O 0.3988(3) 0.1012(3) -0.1012(3)
O2Z O 0.3988(3) 0.6012(3) 0.3988(3)
O2Y O 0.3988(3) 0.3988(3) 0.6012(3)
O2C O 0.6012(3) -0.1012(3) -0.1012(3)
O3P O 0.5322(2) 0.1264(2) 0.0825(2)
O3FC O 0.5825(2) 0.0322(2) 0.1264(2)
O3XB O 0.6264(2) 0.0322(2) 0.0825(2)
O3A O 0.4678(2) -0.0825(2) 0.1264(2)
O3R O 0.4678(2) -0.1264(2) 0.0825(2)
O3GC O 0.4175(2) -0.0322(2) 0.1264(2)
O3ZB O 0.3736(2) -0.0322(2) 0.0825(2)
O3DB O 0.5825(2) 0.1264(2) 0.0322(2)
O3PB O 0.6264(2) 0.0825(2) 0.0322(2)
O3AA O 0.5322(2) 0.4175(2) 0.3736(2)
O3QA O 0.5322(2) 0.3736(2) 0.4175(2)
O3JB O 0.5825(2) 0.4678(2) 0.3736(2)
O3AB O 0.6264(2) 0.4678(2) 0.4175(2)
O3DC O 0.5825(2) 0.3736(2) 0.4678(2)
O3OC O 0.6264(2) 0.4175(2) 0.4678(2)
O3MA O 0.9175(2) 0.0322(2) 0.3736(2)
O3EA O 0.8736(2) 0.0322(2) 0.4175(2)
O3XA O 0.9678(2) 0.0825(2) 0.3736(2)
O3MB O 0.9678(2) 0.1264(2) 0.4175(2)
O3V O 0.8736(2) 0.0825(2) 0.4678(2)
O3I O 0.9175(2) 0.1264(2) 0.4678(2)
O3Q O 0.4678(2) 0.1264(2) -0.0825(2)
O3B O 0.4678(2) 0.0825(2) -0.1264(2)
O3EB O 0.4175(2) 0.1264(2) -0.0322(2)
O3Z O 0.4678(2) 0.5825(2) 0.3736(2)
O3KB O 0.4175(2) 0.5322(2) 0.3736(2)
O3PA O 0.4678(2) 0.3736(2) 0.5825(2)
O3EC O 0.4175(2) 0.3736(2) 0.5322(2)
O3QB O 0.6264(2) -0.0825(2) -0.0322(2)
O3YB O 0.6264(2) -0.0322(2) -0.0825(2)
O4XB O 0.5897(4) -0.0169(3) 0.0897(3)
O4A O 0.5169(4) -0.0897(3) 0.0897(3)
O4ZB O 0.4103(4) 0.0169(3) 0.0897(3)
O4DB O 0.5897(4) 0.0897(3) -0.0169(3)
O4AA O 0.4831(4) 0.4103(3) 0.4103(3)
O4AB O 0.5897(4) 0.5169(3) 0.4103(3)
O4DC O 0.5897(4) 0.4103(3) 0.5169(3)
O4EA O 0.9103(4) -0.0169(3) 0.4103(3)
O4XA O 1.0169(4) 0.0897(3) 0.4103(3)
O4I O 0.9103(4) 0.0897(3) 0.5169(3)
O4B O 0.5169(4) 0.0897(3) -0.0897(3)
O5XB O 0.6327(5) -0.0041(3) 0.1327(3)
O5A O 0.5041(5) -0.1327(3) 0.1327(3)
O5ZB O 0.3673(5) 0.0041(3) 0.1327(3)
O5DB O 0.6327(5) 0.1327(3) -0.0041(3)
O5AA O 0.4959(5) 0.3673(3) 0.3673(3)
O5AB O 0.6327(5) 0.5041(3) 0.3673(3)
O5DC O 0.6327(5) 0.3673(3) 0.5041(3)
O5EA O 0.8673(5) -0.0041(3) 0.3673(3)
O5XA O 1.0041(5) 0.1327(3) 0.3673(3)
O5I O 0.8673(5) 0.1327(3) 0.5041(3)
O5B O 0.5041(5) 0.1327(3) -0.1327(3)
S1XB S 0.60803(15) 0.01009(11) 0.10803(11)
S1A S 0.48991(15) -0.10803(11) 0.10803(11)
S1ZB S 0.39197(15) -0.01009(11) 0.10803(11)
S1DB S 0.60803(15) 0.10803(11) 0.01009(11)
S1AA S 0.51009(15) 0.39197(11) 0.39197(11)
S1AB S 0.60803(15) 0.48991(11) 0.39197(11)
S1DC S 0.60803(15) 0.39197(11) 0.48991(11)
S1EA S 0.89197(15) 0.01009(11) 0.39197(11)
S1XA S 0.98991(15) 0.10803(11) 0.39197(11)
S1I S 0.89197(15) 0.10803(11) 0.48991(11)
S1B S 0.48991(15) 0.10803(11) -0.10803(11)
C1AA C 0.5757(6) 0.3421(4) 0.3421(4)
C1XB C 0.6579(6) 0.0757(4) 0.1579(4)
C1EA C 0.8421(6) 0.0757(4) 0.3421(4)
C1A C 0.4243(6) -0.1579(4) 0.1579(4)
C1Z C 0.4243(6) -0.3421(4) 0.3421(4)
C1ZB C 0.3421(6) -0.0757(4) 0.1579(4)
C1CA C 0.1579(6) -0.0757(4) 0.3421(4)
C1DB C 0.6579(6) 0.1579(4) 0.0757(4)
C1IA C 0.8421(6) 0.3421(4) 0.0757(4)
C1AB C 0.6579(6) 0.4243(4) 0.3421(4)
C1F C 0.8421(6) 0.4243(4) 0.1579(4)
C2AA C 0.5719(6) 0.3151(3) 0.3151(3)
C2XB C 0.6849(6) 0.0719(3) 0.1849(3)
C2EA C 0.8151(6) 0.0719(3) 0.3151(3)
C2A C 0.4281(6) -0.1849(3) 0.1849(3)
C2Z C 0.4281(6) -0.3151(3) 0.3151(3)
C2ZB C 0.3151(6) -0.0719(3) 0.1849(3)
C2CA C 0.1849(6) -0.0719(3) 0.3151(3)
C2DB C 0.6849(6) 0.1849(3) 0.0719(3)
C2IA C 0.8151(6) 0.3151(3) 0.0719(3)
C2AB C 0.6849(6) 0.4281(3) 0.3151(3)
C2F C 0.8151(6) 0.4281(3) 0.1849(3)
C3P C 0.5719(6) 0.2186(4) 0.1765(5)
C3AA C 0.5719(6) 0.3235(4) 0.2814(5)
C3QA C 0.5719(6) 0.2814(4) 0.3235(5)
C3FC C 0.6765(6) 0.0719(4) 0.2186(5)
C3XB C 0.7186(6) 0.0719(4) 0.1765(5)
C3MA C 0.8235(6) 0.0719(4) 0.2814(5)
C3EA C 0.7814(6) 0.0719(4) 0.3235(5)
C3A C 0.4281(6) -0.1765(4) 0.2186(5)
C3R C 0.4281(6) -0.2186(4) 0.1765(5)
C3Z C 0.4281(6) -0.3235(4) 0.2814(5)
C3OA C 0.4281(6) -0.2814(4) 0.3235(5)
C3GC C 0.3235(6) -0.0719(4) 0.2186(5)
C3ZB C 0.2814(6) -0.0719(4) 0.1765(5)
C3LA C 0.1765(6) -0.0719(4) 0.2814(5)
C3CA C 0.2186(6) -0.0719(4) 0.3235(5)
C3DB C 0.6765(6) 0.2186(4) 0.0719(5)
C3PB C 0.7186(6) 0.1765(4) 0.0719(5)
C3IA C 0.8235(6) 0.2814(4) 0.0719(5)
C3UA C 0.7814(6) 0.3235(4) 0.0719(5)
C3JB C 0.6765(6) 0.4281(4) 0.2814(5)
C3AB C 0.7186(6) 0.4281(4) 0.3235(5)
C3M C 0.8235(6) 0.4281(4) 0.2186(5)
C3F C 0.7814(6) 0.4281(4) 0.1765(5)
H1P H 0.57240 0.22460 0.15310
H1QA H 0.57240 0.27540 0.34690
H1AA H 0.57240 0.34690 0.27540
H1FC H 0.65310 0.07240 0.22460
H1XB H 0.72460 0.07240 0.15310
H1EA H 0.77540 0.07240 0.34690
H1MA H 0.84690 0.07240 0.27540
H1A H 0.42760 -0.15310 0.22460
H1R H 0.42760 -0.22460 0.15310
H1OA H 0.42760 -0.27540 0.34690
H1Z H 0.42760 -0.34690 0.27540
H1GC H 0.34690 -0.07240 0.22460
H1ZB H 0.27540 -0.07240 0.15310
H1CA H 0.22460 -0.07240 0.34690
H1LA H 0.15310 -0.07240 0.27540
H1DB H 0.65310 0.22460 0.07240
H1PB H 0.72460 0.15310 0.07240
H1UA H 0.77540 0.34690 0.07240
H1IA H 0.84690 0.27540 0.07240
H1JB H 0.65310 0.42760 0.27540
H1AB H 0.72460 0.42760 0.34690
H1F H 0.77540 0.42760 0.15310
H1M H 0.84690 0.42760 0.22460
C4P C 0.5712(7) 0.2455(4) 0.2016(4)
C4AA C 0.5712(7) 0.2984(4) 0.2545(4)
C4QA C 0.5712(7) 0.2545(4) 0.2984(4)
C4FC C 0.7016(7) 0.0712(4) 0.2455(4)
C4XB C 0.7455(7) 0.0712(4) 0.2016(4)
C4MA C 0.7984(7) 0.0712(4) 0.2545(4)
C4EA C 0.7545(7) 0.0712(4) 0.2984(4)
C4A C 0.4288(7) -0.2016(4) 0.2455(4)
C4R C 0.4288(7) -0.2455(4) 0.2016(4)
C4Z C 0.4288(7) -0.2984(4) 0.2545(4)
C4OA C 0.4288(7) -0.2545(4) 0.2984(4)
C4GC C 0.2984(7) -0.0712(4) 0.2455(4)
C4ZB C 0.2545(7) -0.0712(4) 0.2016(4)
C4LA C 0.2016(7) -0.0712(4) 0.2545(4)
C4CA C 0.2455(7) -0.0712(4) 0.2984(4)
C4DB C 0.7016(7) 0.2455(4) 0.0712(4)
C4PB C 0.7455(7) 0.2016(4) 0.0712(4)
C4IA C 0.7984(7) 0.2545(4) 0.0712(4)
C4UA C 0.7545(7) 0.2984(4) 0.0712(4)
C4JB C 0.7016(7) 0.4288(4) 0.2545(4)
C4AB C 0.7455(7) 0.4288(4) 0.2984(4)
C4M C 0.7984(7) 0.4288(4) 0.2455(4)
C4F C 0.7545(7) 0.4288(4) 0.2016(4)
H2P H 0.57010 0.26870 0.19510
H2QA H 0.57010 0.23130 0.30490
H2AA H 0.57010 0.30490 0.23130
H2FC H 0.69510 0.07010 0.26870
H2XB H 0.76870 0.07010 0.19510
H2EA H 0.73130 0.07010 0.30490
H2MA H 0.80490 0.07010 0.23130
H2A H 0.42990 -0.19510 0.26870
H2R H 0.42990 -0.26870 0.19510
H2OA H 0.42990 -0.23130 0.30490
H2Z H 0.42990 -0.30490 0.23130
H2GC H 0.30490 -0.07010 0.26870
H2ZB H 0.23130 -0.07010 0.19510
H2CA H 0.26870 -0.07010 0.30490
H2LA H 0.19510 -0.07010 0.23130
H2DB H 0.69510 0.26870 0.07010
H2PB H 0.76870 0.19510 0.07010
H2UA H 0.73130 0.30490 0.07010
H2IA H 0.80490 0.23130 0.07010
H2JB H 0.69510 0.42990 0.23130
H2AB H 0.76870 0.42990 0.30490
H2F H 0.73130 0.42990 0.19510
H2M H 0.80490 0.42990 0.26870
C5AA C 0.5721(7) 0.2643(4) 0.2643(4)
C5XB C 0.7357(7) 0.0721(4) 0.2357(4)
C5EA C 0.7643(7) 0.0721(4) 0.2643(4)
C5A C 0.4279(7) -0.2357(4) 0.2357(4)
C5Z C 0.4279(7) -0.2643(4) 0.2643(4)
C5ZB C 0.2643(7) -0.0721(4) 0.2357(4)
C5CA C 0.2357(7) -0.0721(4) 0.2643(4)
C5DB C 0.7357(7) 0.2357(4) 0.0721(4)
C5IA C 0.7643(7) 0.2643(4) 0.0721(4)
C5AB C 0.7357(7) 0.4279(4) 0.2643(4)
C5F C 0.7643(7) 0.4279(4) 0.2357(4)
C6FC C 0.5704(6) 0.0329(6) 0.2031(5)
C6A C 0.4671(6) -0.0704(6) 0.2031(5)
C6GC C 0.4296(6) -0.0329(6) 0.2031(5)
C6P C 0.5329(6) 0.2031(6) 0.0704(5)
C6DB C 0.5704(6) 0.2031(6) 0.0329(5)
C6Q C 0.4671(6) 0.2031(6) -0.0704(5)
C6EB C 0.4296(6) 0.2031(6) -0.0329(5)
C6AA C 0.5329(6) 0.4296(6) 0.2969(5)
C6JB C 0.5704(6) 0.4671(6) 0.2969(5)
C6Z C 0.4671(6) 0.5704(6) 0.2969(5)
C6KB C 0.4296(6) 0.5329(6) 0.2969(5)
C6QA C 0.5329(6) 0.2969(6) 0.4296(5)
C6DC C 0.5704(6) 0.2969(6) 0.4671(5)
C6PA C 0.4671(6) 0.2969(6) 0.5704(5)
C6EC C 0.4296(6) 0.2969(6) 0.5329(5)
C6XB C 0.7031(6) 0.0329(6) 0.0704(5)
C6PB C 0.7031(6) 0.0704(6) 0.0329(5)
C6YB C 0.7031(6) -0.0329(6) -0.0704(5)
C6QB C 0.7031(6) -0.0704(6) -0.0329(5)
C6MA C 0.9296(6) 0.0329(6) 0.2969(5)
C6XA C 0.9671(6) 0.0704(6) 0.2969(5)
C6LA C 1.0704(6) -0.0329(6) 0.2969(5)
C6YA C 1.0329(6) -0.0704(6) 0.2969(5)
H3FC H 0.59090 0.02400 0.19390
H3GC H 0.40910 -0.02400 0.19390
H3A H 0.47600 -0.09090 0.19390
H3P H 0.52400 0.19390 0.09090
H3DB H 0.59090 0.19390 0.02400
H3EB H 0.40910 0.19390 -0.02400
H3Q H 0.47600 0.19390 -0.09090
H3AA H 0.52400 0.40910 0.30610
H3JB H 0.59090 0.47600 0.30610
H3KB H 0.40910 0.52400 0.30610
H3Z H 0.47600 0.59090 0.30610
H3QA H 0.52400 0.30610 0.40910
H3DC H 0.59090 0.30610 0.47600
H3EC H 0.40910 0.30610 0.52400
H3PA H 0.47600 0.30610 0.59090
H3XB H 0.69390 0.02400 0.09090
H3PB H 0.69390 0.09090 0.02400
H3QB H 0.69390 -0.09090 -0.02400
H3YB H 0.69390 -0.02400 -0.09090
H3MA H 0.90910 0.02400 0.30610
H3XA H 0.97600 0.09090 0.30610
H3YA H 1.02400 -0.09090 0.30610
H3LA H 1.09090 -0.02400 0.30610
C7FC C 0.5559(7) 0.0122(8) 0.2334(6)
C7A C 0.4878(7) -0.0559(8) 0.2334(6)
C7GC C 0.4441(7) -0.0122(8) 0.2334(6)
C7P C 0.5122(7) 0.2334(8) 0.0559(6)
C7DB C 0.5559(7) 0.2334(8) 0.0122(6)
C7Q C 0.4878(7) 0.2334(8) -0.0559(6)
C7EB C 0.4441(7) 0.2334(8) -0.0122(6)
C7AA C 0.5122(7) 0.4441(8) 0.2666(6)
C7JB C 0.5559(7) 0.4878(8) 0.2666(6)
C7Z C 0.4878(7) 0.5559(8) 0.2666(6)
C7KB C 0.4441(7) 0.5122(8) 0.2666(6)
C7QA C 0.5122(7) 0.2666(8) 0.4441(6)
C7DC C 0.5559(7) 0.2666(8) 0.4878(6)
C7PA C 0.4878(7) 0.2666(8) 0.5559(6)
C7EC C 0.4441(7) 0.2666(8) 0.5122(6)
C7XB C 0.7334(7) 0.0122(8) 0.0559(6)
C7PB C 0.7334(7) 0.0559(8) 0.0122(6)
C7YB C 0.7334(7) -0.0122(8) -0.0559(6)
C7QB C 0.7334(7) -0.0559(8) -0.0122(6)
C7MA C 0.9441(7) 0.0122(8) 0.2666(6)
C7XA C 0.9878(7) 0.0559(8) 0.2666(6)
C7LA C 1.0559(7) -0.0122(8) 0.2666(6)
C7YA C 1.0122(7) -0.0559(8) 0.2666(6)
H4FC H 0.56470 -0.00890 0.24110
H4GC H 0.43530 0.00890 0.24110
H4A H 0.50890 -0.06470 0.24110
H4P H 0.49110 0.24110 0.06470
H4DB H 0.56470 0.24110 -0.00890
H4EB H 0.43530 0.24110 0.00890
H4Q H 0.50890 0.24110 -0.06470
H4AA H 0.49110 0.43530 0.25890
H4JB H 0.56470 0.50890 0.25890
H4KB H 0.43530 0.49110 0.25890
H4Z H 0.50890 0.56470 0.25890
H4QA H 0.49110 0.25890 0.43530
H4DC H 0.56470 0.25890 0.50890
H4EC H 0.43530 0.25890 0.49110
H4PA H 0.50890 0.25890 0.56470
H4XB H 0.74110 -0.00890 0.06470
H4PB H 0.74110 0.06470 -0.00890
H4QB H 0.74110 -0.06470 0.00890
H4YB H 0.74110 0.00890 -0.06470
H4MA H 0.93530 -0.00890 0.25890
H4XA H 1.00890 0.06470 0.25890
H4YA H 0.99110 -0.06470 0.25890
H4LA H 1.06470 0.00890 0.25890
C8A C 0.4715(6) -0.0285(6) 0.2475(8)
C8P C 0.5285(6) 0.2475(6) 0.0285(8)
C8Q C 0.4715(6) 0.2475(6) -0.0285(8)
C8AA C 0.5285(6) 0.4715(6) 0.2525(8)
C8Z C 0.4715(6) 0.5285(6) 0.2525(8)
C8QA C 0.5285(6) 0.2525(6) 0.4715(8)
C8PA C 0.4715(6) 0.2525(6) 0.5285(8)
C8PB C 0.7475(6) 0.0285(6) 0.0285(8)
C8QB C 0.7475(6) -0.0285(6) -0.0285(8)
C8MA C 0.9715(6) 0.0285(6) 0.2525(8)
C8LA C 1.0285(6) -0.0285(6) 0.2525(8)
C9A C 0.4885(5) -0.0115(5) 0.2806(7)
C9P C 0.5115(5) 0.2806(5) 0.0115(7)
C9Q C 0.4885(5) 0.2806(5) -0.0115(7)
C9AA C 0.5115(5) 0.4885(5) 0.2194(7)
C9Z C 0.4885(5) 0.5115(5) 0.2194(7)
C9QA C 0.5115(5) 0.2194(5) 0.4885(7)
C9PA C 0.4885(5) 0.2194(5) 0.5115(7)
C9PB C 0.7806(5) 0.0115(5) 0.0115(7)
C9QB C 0.7806(5) -0.0115(5) -0.0115(7)
C9MA C 0.9885(5) 0.0115(5) 0.2194(7)
C9LA C 1.0115(5) -0.0115(5) 0.2194(7)
Fe1A Fe 0.41868(4) -0.08132(4) 0.14222(6)
Fe1P Fe 0.58132(4) 0.14222(4) 0.08132(6)
Fe1AA Fe 0.58132(4) 0.41868(4) 0.35778(6)
Fe1QA Fe 0.58132(4) 0.35778(4) 0.41868(6)
Fe1PB Fe 0.64222(4) 0.08132(4) 0.08132(6)
Fe1MA Fe 0.91868(4) 0.08132(4) 0.35778(6)
Fe1V Fe 0.85778(4) 0.08132(4) 0.41868(6)
Fe1Q Fe 0.41868(4) 0.14222(4) -0.08132(6)
Fe1Z Fe 0.41868(4) 0.58132(4) 0.35778(6)
Fe1PA Fe 0.41868(4) 0.35778(4) 0.58132(6)
Fe1QB Fe 0.64222(4) -0.08132(4) -0.08132(6)
Fe1R Fe 0.41868(4) -0.14222(4) 0.08132(6)
Fe1Z* Fe 0.41868(4) -0.41868(4) 0.35778(6)
Fe1OA Fe 0.41868(4) -0.35778(4) 0.41868(6)
Fe1SB Fe 0.35778(4) -0.08132(4) 0.08132(6)
Fe1LA Fe 0.08132(4) -0.08132(4) 0.35778(6)
Fe1U Fe 0.14222(4) -0.08132(4) 0.41868(6)
Fe1IA Fe 0.91868(4) 0.35778(4) 0.08132(6)
Fe1F Fe 0.85778(4) 0.41868(4) 0.08132(6)
Fe1AB Fe 0.64222(4) 0.41868(4) 0.41868(6)
Fe1M Fe 0.91868(4) 0.41868(4) 0.14222(6)
Fe1LA* Fe 1.08132(4) -0.08132(4) 0.35778(6)
Fe1I Fe 0.91868(4) 0.14222(4) 0.41868(6)
Fe1B Fe 0.41868(4) 0.08132(4) -0.14222(6)
#END
