
#######################################################################
#
#                 Cambridge Crystallographic Data Centre
#                                CCDC
#
#######################################################################
#
# If this CIF has been generated from an entry in the Cambridge
# Structural Database, then it will include bibliographic, chemical,
# crystal, experimental, refinement or atomic coordinate data resulting
# from the CCDC's data processing and validation procedures.
#
#######################################################################

data_CSD_CIF_ICUDAN
_audit_creation_date 2012-02-03
_audit_creation_method CSD-ConQuest-V1
_database_code_CSD ICUDAN
_database_code_depnum_ccdc_archive 'CCDC 808884'
_chemical_formula_sum 'C14 H18 N4 O10 Zn1'
_chemical_formula_moiety
;
(C14 H6 N2 O8 Zn1 2-)n,2n(H4 N1 1+),2n(H2 O1)
;
_journal_coden_Cambridge 971
_journal_volume 13
_journal_year 2011
_journal_page_first 2100
_journal_name_full 'Solid State Sciences '
loop_
_publ_author_name
"A.T.Colak"
"G.Pamuk"
"O.K.Yesilel"
"F.Yuksel"
_chemical_name_systematic
;
catena-(diammonium bis(\m~2~-pyridine-2,3-dicarboxylato)-zinc(ii) dihydrate)
;
_cell_volume    892.323
_exptl_crystal_density_diffrn 1.741
_exptl_crystal_description 'block'
_diffrn_ambient_temperature 296
#These two values have been output from a single CSD field.
_refine_ls_R_factor_gt 0.0247
_refine_ls_wR_factor_gt 0.0247
_symmetry_cell_setting monoclinic
_symmetry_space_group_name_H-M 'P 21/n'
_symmetry_Int_Tables_number 14
loop_
_symmetry_equiv_pos_site_id
_symmetry_equiv_pos_as_xyz
1 x,y,z
2 1/2-x,1/2+y,1/2-z
3 -x,-y,-z
4 -1/2+x,-1/2-y,-1/2+z
_cell_length_a 7.2800(2)
_cell_length_b 11.6181(3)
_cell_length_c 10.8600(3)
_cell_angle_alpha 90
_cell_angle_beta 103.721(1)
_cell_angle_gamma 90
_cell_formula_units_Z 2
loop_
_atom_type_symbol
_atom_type_radius_bond
C 0.68
H 0.23
N 0.68
O 0.68
Zn 1.22
loop_
_atom_site_label
_atom_site_type_symbol
_atom_site_fract_x
_atom_site_fract_y
_atom_site_fract_z
Zn1 Zn 0.00000 1.00000 0.50000
N1 N 0.23872(14) 1.09448(9) 0.57772(9)
N2 N -0.24734(18) 0.52534(12) 0.58044(13)
H1 H -0.179(3) 0.4844(14) 0.6443(16)
H2 H -0.291(3) 0.4779(15) 0.5161(16)
H3 H -0.176(2) 0.5798(14) 0.5576(17)
H4 H -0.342(2) 0.5584(15) 0.6045(17)
O1 O 0.33608(14) 1.34165(8) 0.90738(10)
O2 O 0.50448(14) 1.18594(11) 0.98422(9)
O3 O -0.04919(14) 1.03453(9) 0.67603(9)
O4 O 0.08853(14) 1.10920(9) 0.86374(9)
O5 O 0.0131(2) 0.63288(14) 0.26946(12)
H5 H -0.093(2) 0.634(3) 0.2195(19)
H6 H -0.005(4) 0.658(2) 0.3360(14)
C1 C 0.37447(19) 1.12570(12) 0.52071(12)
H7 H 0.36880 1.09990 0.43880
C2 C 0.5236(2) 1.19547(14) 0.58010(14)
H8 H 0.61750 1.21590 0.53920
C3 C 0.5298(2) 1.23404(13) 0.70161(13)
H9 H 0.62750 1.28200 0.74280
C4 C 0.38917(17) 1.20088(10) 0.76245(11)
C5 C 0.40750(17) 1.24528(11) 0.89637(12)
C6 C 0.24515(16) 1.13005(10) 0.69667(11)
C7 C 0.08184(17) 1.08793(10) 0.75007(11)
Zn1A Zn 0.50000 1.50000 1.00000
Zn1A* Zn -0.50000 0.50000 0.00000
N1B N -0.23872(14) 0.90552(9) 0.42228(9)
O1B O -0.33608(14) 0.65835(8) 0.09262(10)
O1A O 0.16392(14) 0.84165(8) 0.59262(10)
O1C O -0.16392(14) 1.15835(8) 0.40738(10)
O2B O -0.50448(14) 0.81406(11) 0.01578(9)
O3B O 0.04919(14) 0.96547(9) 0.32397(9)
O4B O -0.08853(14) 0.89080(9) 0.13626(9)
C1B C -0.37447(19) 0.87430(12) 0.47929(12)
H7B H -0.36880 0.90010 0.56120
C2B C -0.5236(2) 0.80453(14) 0.41990(14)
H8B H -0.61750 0.78410 0.46080
C3B C -0.5298(2) 0.76596(13) 0.29839(13)
H9B H -0.62750 0.71800 0.25720
C4B C -0.38917(17) 0.79912(10) 0.23755(11)
C5B C -0.40750(17) 0.75472(11) 0.10363(12)
C6B C -0.24515(16) 0.86995(10) 0.30333(11)
C7B C -0.08184(17) 0.91207(10) 0.24993(11)
#END
