
#######################################################################
#
#                 Cambridge Crystallographic Data Centre
#                                CCDC
#
#######################################################################
#
# If this CIF has been generated from an entry in the Cambridge
# Structural Database, then it will include bibliographic, chemical,
# crystal, experimental, refinement or atomic coordinate data resulting
# from the CCDC's data processing and validation procedures.
#
#######################################################################

data_CSD_CIF_IDANOR
_audit_creation_date 2006-08-03
_audit_creation_method CSD-ConQuest-V1
_database_code_CSD IDANOR
_database_code_depnum_ccdc_archive 'CCDC 294938'
_chemical_formula_sum 'C88 H196 Co4 N4 O44'
_chemical_formula_moiety
;
(C16 H36 N1 1+)4n,n(C24 H36 Co4 O36 4-),8n(H2 O1)
;
_journal_coden_Cambridge 1350
_journal_volume 8
_journal_year 2006
_journal_page_first 346
_journal_name_full 'CrystEngComm '
loop_
_publ_author_name
"K.W.Galloway"
"A.Parkin"
"S.M.Harte"
"A.Ferguson"
"M.Murrie"
_chemical_name_systematic
;
catena-(tetrakis(Tetra-n-butylammonium) tetrakis(\m~2~-hydrogen 
citrato)-octa-aqua-tetra-cobalt octahydrate)
;
_cell_volume   5913.272
_exptl_crystal_colour 'pale pink'
_exptl_crystal_density_diffrn 1.264
_exptl_crystal_description 'rod'
_diffrn_ambient_temperature 100
#These two values have been output from a single CSD field.
_refine_ls_R_factor_gt 0.054
_refine_ls_wR_factor_gt 0.054
_symmetry_cell_setting monoclinic
_symmetry_space_group_name_H-M 'P 21/n'
_symmetry_Int_Tables_number 14
loop_
_symmetry_equiv_pos_site_id
_symmetry_equiv_pos_as_xyz
1 x,y,z
2 1/2-x,1/2+y,1/2-z
3 -x,-y,-z
4 -1/2+x,-1/2-y,-1/2+z
_cell_length_a 15.2597(4)
_cell_length_b 23.4134(6)
_cell_length_c 16.9043(3)
_cell_angle_alpha 90
_cell_angle_beta 101.739(1)
_cell_angle_gamma 90
_cell_formula_units_Z 2
loop_
_atom_type_symbol
_atom_type_radius_bond
C 0.68
H 0.23
Co 1.33
N 0.68
O 0.68
loop_
_atom_site_label
_atom_site_type_symbol
_atom_site_fract_x
_atom_site_fract_y
_atom_site_fract_z
Co1 Co 0.50000 0.00000 0.50000
O1 O 0.63156(18) -0.02507(13) 0.52597(15)
C1 C 0.6843(3) -0.03421(19) 0.4771(2)
C2 C 0.7839(3) -0.0408(2) 0.5152(2)
C3 C 0.8066(3) -0.02431(19) 0.6051(2)
O2 O 0.75279(18) -0.05875(12) 0.64808(16)
Co2 Co 0.74558(4) -0.00975(2) 0.75209(3)
O3 O 0.76054(18) -0.07554(12) 0.83972(16)
C4 C 0.7037(3) -0.05883(18) 0.8954(2)
C5 C 0.7398(3) -0.08722(18) 0.9775(2)
C6 C 0.8370(3) -0.07210(18) 1.0138(2)
O4 O 0.87973(18) -0.04545(12) 0.96715(15)
Co3 Co 1.00000 0.00000 1.00000
O5 O 0.95614(19) 0.05711(13) 0.90064(17)
O6 O 1.0588(2) -0.04858(13) 0.92383(17)
O7 O 0.86955(18) -0.08770(12) 1.08365(16)
C7 C 0.7054(3) 0.00682(18) 0.9056(2)
O8 O 0.73230(18) 0.03613(11) 0.85072(15)
O9 O 0.68149(19) 0.02713(12) 0.96525(15)
C8 C 0.6094(3) -0.08042(18) 0.8565(2)
C9 C 0.5734(3) -0.06979(18) 0.7660(2)
O10 O 0.61188(18) -0.03136(12) 0.73032(16)
O11 O 0.50790(18) -0.09713(12) 0.73216(16)
O12 O 0.74511(19) 0.05344(12) 0.66954(16)
C10 C 0.7878(3) 0.03989(19) 0.6149(2)
O13 O 0.8138(2) 0.07382(14) 0.56873(18)
O14 O 0.88425(18) -0.01090(12) 0.77323(16)
C11 C 0.9312(3) -0.03943(19) 0.7325(2)
C12 C 0.9035(3) -0.0400(2) 0.6406(2)
O15 O 0.99983(19) -0.06607(13) 0.76339(16)
O16 O 0.66066(19) -0.03965(14) 0.40228(16)
O17 O 0.51717(19) 0.04098(13) 0.61547(16)
O18 O 0.4685(2) -0.07394(13) 0.55957(16)
N1 N -0.2649(2) 0.03834(14) 0.22703(18)
C13 C -0.1862(3) -0.00160(18) 0.2268(2)
C14 C -0.1586(3) -0.03798(18) 0.3020(2)
C15 C -0.0875(3) -0.08136(18) 0.2901(2)
C16 C -0.0550(3) -0.1177(2) 0.3656(3)
C17 C -0.2711(3) 0.07738(18) 0.1539(2)
C18 C -0.3499(3) 0.11918(19) 0.1407(2)
C19 C -0.3346(3) 0.16881(19) 0.0878(3)
C20 C -0.4114(4) 0.2113(2) 0.0759(3)
C21 C -0.3508(3) 0.00468(18) 0.2240(2)
C22 C -0.3793(3) -0.03583(19) 0.1526(3)
C23 C -0.4612(3) -0.0692(2) 0.1627(3)
C24 C -0.4924(4) -0.1112(2) 0.0938(3)
C25 C -0.2502(3) 0.07273(18) 0.3045(2)
C26 C -0.1701(3) 0.11381(18) 0.3165(2)
C27 C -0.1430(3) 0.1310(2) 0.4059(2)
C28 C -0.0678(3) 0.1745(2) 0.4200(3)
N2 N 0.4685(2) 0.25429(15) 0.3812(2)
C29 C 0.4145(3) 0.28601(18) 0.3086(2)
C30 C 0.3955(3) 0.25094(19) 0.2301(3)
C31 C 0.3362(3) 0.28372(19) 0.1620(3)
C32 C 0.3218(3) 0.2513(2) 0.0833(3)
C33 C 0.5545(3) 0.23046(19) 0.3636(3)
C34 C 0.6124(3) 0.27493(19) 0.3335(3)
C35 C 0.7019(3) 0.2490(2) 0.3236(3)
C36 C 0.7604(3) 0.2911(2) 0.2899(3)
C37 C 0.4886(3) 0.29739(19) 0.4506(3)
C38 C 0.5509(4) 0.2760(2) 0.5265(3)
C39 C 0.5484(4) 0.3149(2) 0.5997(3)
C40 C 0.4659(5) 0.3022(4) 0.6349(5)
C41 C 0.4142(4) 0.2039(2) 0.4040(3)
C42 C 0.3185(4) 0.2167(2) 0.4179(3)
C43 C 0.2445(5) 0.2093(4) 0.3410(5)
O19 O 0.6645(2) 0.14299(14) 0.51511(19)
O20 O 0.3198(2) 0.38398(14) 0.47691(19)
O21 O 0.7166(3) 0.14267(15) 0.77361(19)
O22 O 0.5705(2) 0.15604(14) 0.6410(2)
H1 H 0.80170 -0.08150 0.50950
H2 H 0.81890 -0.01550 0.48540
H3 H 0.70170 -0.07480 1.01610
H4 H 0.73550 -0.12960 0.97040
H5 H 0.60870 -0.12260 0.86520
H6 H 0.56680 -0.06160 0.88610
H7 H 0.94230 -0.01190 0.61940
H8 H 0.91480 -0.07920 0.62140
H9 H -0.20250 -0.02790 0.17940
H10 H -0.13370 0.02230 0.22040
H11 H -0.21230 -0.05840 0.31350
H12 H -0.13300 -0.01280 0.34870
H13 H -0.11430 -0.10740 0.24470
H14 H -0.03520 -0.06080 0.27610
H15 H -0.00920 -0.14590 0.35580
H16 H -0.10700 -0.13850 0.37980
H17 H -0.02790 -0.09190 0.41120
H18 H -0.21470 0.10020 0.16100
H19 H -0.27680 0.05290 0.10460
H20 H -0.35740 0.13420 0.19430
H21 H -0.40550 0.09850 0.11420
H22 H -0.27760 0.18830 0.11350
H23 H -0.32920 0.15370 0.03370
H24 H -0.39890 0.24340 0.04080
H25 H -0.41690 0.22670 0.12990
H26 H -0.46850 0.19210 0.05010
H27 H -0.40040 0.03280 0.22270
H28 H -0.34350 -0.01870 0.27440
H29 H -0.39310 -0.01320 0.10140
H30 H -0.32930 -0.06300 0.15030
H31 H -0.51080 -0.04160 0.16420
H32 H -0.44700 -0.09070 0.21490
H33 H -0.54670 -0.13200 0.10300
H34 H -0.50720 -0.09010 0.04130
H35 H -0.44340 -0.13920 0.09210
H36 H -0.30530 0.09590 0.30450
H37 H -0.24080 0.04540 0.35100
H38 H -0.18670 0.14880 0.28290
H39 H -0.11870 0.09430 0.29940
H40 H -0.19610 0.14790 0.42350
H41 H -0.12310 0.09600 0.43880
H42 H -0.05190 0.18460 0.47870
H43 H -0.08740 0.20960 0.38760
H44 H -0.01440 0.15770 0.40280
H45 H 0.44930 0.32070 0.29910
H46 H 0.35600 0.29800 0.32120
H47 H 0.45330 0.24160 0.21380
H48 H 0.36450 0.21470 0.23980
H49 H 0.36530 0.32120 0.15520
H50 H 0.27690 0.29060 0.17670
H51 H 0.28270 0.27390 0.03970
H52 H 0.38100 0.24450 0.06830
H53 H 0.29260 0.21390 0.08990
H54 H 0.58930 0.21320 0.41440
H55 H 0.53920 0.20020 0.32130
H56 H 0.62450 0.30700 0.37340
H57 H 0.58060 0.29000 0.28000
H58 H 0.73500 0.23600 0.37780
H59 H 0.68930 0.21550 0.28640
H60 H 0.81780 0.27240 0.28470
H61 H 0.77360 0.32470 0.32700
H62 H 0.72780 0.30420 0.23560
H63 H 0.51570 0.33230 0.43120
H64 H 0.43050 0.30770 0.46560
H65 H 0.61330 0.27510 0.51660
H66 H 0.53270 0.23670 0.53940
H67 H 0.60350 0.30910 0.64240
H68 H 0.54560 0.35550 0.58100
H69 H 0.46480 0.32840 0.68150
H70 H 0.46840 0.26170 0.65390
H71 H 0.41050 0.30820 0.59250
H72 H 0.44950 0.18590 0.45410
H73 H 0.40690 0.17590 0.35840
H74 H 0.31780 0.25760 0.43470
H75 H 0.30610 0.19170 0.46240
H76 H 0.274(2) 0.4052(18) 0.473(3)
H77 H 0.7141(17) 0.126(2) 0.528(3)
H78 H 0.350(3) 0.400(2) 0.446(2)
H79 H 0.636(3) 0.150(2) 0.552(2)
H80 H 0.709(3) 0.148(2) 0.8216(12)
H81 H 0.485(3) -0.069(2) 0.6102(6)
H82 H 0.548(3) 0.0228(19) 0.655(2)
H83 H 0.4169(15) -0.084(2) 0.534(3)
H84 H 0.4625(10) 0.040(2) 0.619(3)
H85 H 0.735(3) 0.1236(19) 0.738(2)
C44 C 0.1549(6) 0.2193(5) 0.3721(6)
H86 H 0.25080 0.23880 0.29980
H87 H 0.24740 0.17040 0.31730
H88 H 0.10280 0.21530 0.32580
H89 H 0.15410 0.25820 0.39630
H90 H 0.15070 0.18980 0.41390
H91 H 1.033(3) -0.053(2) 0.8748(10)
H92 H 0.936(3) 0.0390(19) 0.8571(17)
H93 H 1.095(3) -0.0724(16) 0.951(3)
H94 H 0.557(3) 0.1209(6) 0.641(3)
H95 H 1.0087(14) 0.070(2) 0.903(3)
H96 H 0.610(3) 0.156(2) 0.6846(17)
H97 H 0.6973(8) -0.057(2) 0.627(3)
H98 H 0.8117(15) -0.063(2) 0.862(3)
O1B O 0.36844(18) 0.02507(13) 0.47403(15)
C1B C 0.3157(3) 0.03421(19) 0.5229(2)
C2B C 0.2161(3) 0.0408(2) 0.4848(2)
C3B C 0.1934(3) 0.02431(19) 0.3949(2)
O2B O 0.24721(18) 0.05875(12) 0.35192(16)
Co2B Co 0.25442(4) 0.00975(2) 0.24791(3)
O3B O 0.23946(18) 0.07554(12) 0.16028(16)
C4B C 0.2963(3) 0.05883(18) 0.1046(2)
C5B C 0.2602(3) 0.08722(18) 0.0225(2)
C6B C 0.1630(3) 0.07210(18) -0.0138(2)
O4B O 0.12027(18) 0.04545(12) 0.03285(15)
O4B* O 1.12027(18) 0.04545(12) 1.03285(15)
Co3* Co 0.00000 0.00000 0.00000
O5B O 1.04386(19) -0.05711(13) 1.09936(17)
O6B O 0.9412(2) 0.04858(13) 1.07617(17)
O7B O 0.13045(18) 0.08770(12) -0.08365(16)
C7B C 0.2946(3) -0.00682(18) 0.0944(2)
O8B O 0.26770(18) -0.03613(11) 0.14928(15)
O9B O 0.31851(19) -0.02713(12) 0.03475(15)
C8B C 0.3906(3) 0.08042(18) 0.1435(2)
C9B C 0.4266(3) 0.06979(18) 0.2340(2)
O10B O 0.38812(18) 0.03136(12) 0.26968(16)
O11B O 0.49210(18) 0.09713(12) 0.26784(16)
O12B O 0.25489(19) -0.05344(12) 0.33046(16)
C10B C 0.2122(3) -0.03989(19) 0.3851(2)
O13B O 0.1862(2) -0.07382(14) 0.43127(18)
O14B O 0.11575(18) 0.01090(12) 0.22677(16)
C11B C 0.0688(3) 0.03943(19) 0.2675(2)
C12B C 0.0965(3) 0.0400(2) 0.3594(2)
O15B O 0.00017(19) 0.06607(13) 0.23661(16)
O16B O 0.33934(19) 0.03965(14) 0.59772(16)
O17B O 0.48283(19) -0.04098(13) 0.38453(16)
O18B O 0.5315(2) 0.07394(13) 0.44043(16)
H1B H 0.19830 0.08150 0.49050
H2B H 0.18110 0.01550 0.51460
H3B H 0.29830 0.07480 -0.01610
H4B H 0.26450 0.12960 0.02960
H5B H 0.39130 0.12260 0.13480
H6B H 0.43320 0.06160 0.11390
H7B H 0.05770 0.01190 0.38060
H8B H 0.08520 0.07920 0.37860
H81B H 0.515(3) 0.069(2) 0.3898(6)
H82B H 0.452(3) -0.0228(19) 0.345(2)
H83B H 0.5831(15) 0.084(2) 0.466(3)
H84B H 0.5375(10) -0.040(2) 0.381(3)
H91B H 0.967(3) 0.053(2) 1.1252(10)
H92B H 1.064(3) -0.0390(19) 1.1429(17)
H93B H 0.905(3) 0.0724(16) 1.049(3)
H95B H 0.9913(14) -0.070(2) 1.097(3)
H97B H 0.3027(8) 0.057(2) 0.373(3)
H98B H 0.1883(15) 0.063(2) 0.138(3)
#END
