
#######################################################################
#
#                 Cambridge Crystallographic Data Centre
#                                CCDC
#
#######################################################################
#
# If this CIF has been generated from an entry in the Cambridge
# Structural Database, then it will include bibliographic, chemical,
# crystal, experimental, refinement or atomic coordinate data resulting
# from the CCDC's data processing and validation procedures.
#
#######################################################################

data_CSD_CIF_IDEROB
_audit_creation_date 2018-08-03
_audit_creation_method CSD-ConQuest-V1
_database_code_CSD IDEROB
_database_code_depnum_ccdc_archive 'CCDC 1589965'
_chemical_formula_sum 'C46 H34 N2 Ni3 O16'
_chemical_formula_moiety
;
(C32 H16 Ni3 O16 2-)n,C14 H18 N2 2+
;
_journal_coden_Cambridge 2020
_journal_volume 3
_journal_year 2018
_journal_page_first 8356
_journal_name_full 'Chem. Sel. '
loop_
_publ_author_name
"Jinjian Liu"
_chemical_name_systematic
;
catena-[1,1'-diethyl-4,4'-bipyridin-1-ium 
tetrakis(\m-benzene-1,3-dicarboxylato)-tri-nickel(ii)]
;
_cell_volume   1035.901
_exptl_crystal_colour 'green'
_exptl_crystal_density_diffrn 1.678
_exptl_crystal_description 'block'
_diffrn_ambient_temperature 293
#These two values have been output from a single CSD field.
_refine_ls_R_factor_gt 0.0415
_refine_ls_wR_factor_gt 0.0415
_symmetry_cell_setting triclinic
_symmetry_space_group_name_H-M 'P -1'
_symmetry_Int_Tables_number 2
loop_
_symmetry_equiv_pos_site_id
_symmetry_equiv_pos_as_xyz
1 x,y,z
2 -x,-y,-z
_cell_length_a 9.6061(4)
_cell_length_b 10.1802(5)
_cell_length_c 11.8289(6)
_cell_angle_alpha 101.373(4)
_cell_angle_beta 112.499(4)
_cell_angle_gamma 93.458(4)
_cell_formula_units_Z 1
loop_
_atom_type_symbol
_atom_type_radius_bond
C 0.68
H 0.23
N 0.68
Ni 1.24
O 0.68
loop_
_atom_site_label
_atom_site_type_symbol
_atom_site_fract_x
_atom_site_fract_y
_atom_site_fract_z
Ni1 Ni 0.31550(5) 0.73442(4) 0.25132(4)
O1 O 0.2237(4) 0.5602(3) 0.1093(3)
O2 O 0.1535(3) 0.7634(3) 0.3177(3)
O3 O 0.3152(4) 0.5131(3) 0.2930(3)
O4 O 0.5254(3) 0.8010(3) 0.3872(3)
O5 O 0.2777(4) 0.8732(3) 0.1498(3)
C1 C 0.2527(5) 0.4773(4) 0.1753(5)
C2 C 0.1831(5) 0.8317(4) 0.4274(4)
Ni2 Ni 0.50000 1.00000 0.50000
C3 C 0.2154(5) 0.3282(4) 0.1129(4)
O6 O 0.3088(3) 0.9006(4) 0.5027(3)
C4 C 0.0560(4) 0.8298(4) 0.4717(4)
O7 O 0.3830(3) 1.0441(3) 0.3227(3)
C5 C 0.2724(4) 0.2351(4) 0.1840(4)
C6 C 0.1290(5) 0.2833(4) -0.0156(4)
C7 C 0.0934(5) 0.8638(4) 0.6008(4)
C8 C -0.0951(4) 0.7940(4) 0.3885(4)
C9 C 0.3750(5) 1.2395(4) 0.6568(4)
C10 C 0.2451(4) 0.0977(4) 0.1280(4)
H1 H 0.32970 0.26530 0.27030
H2 H 0.09050 0.34510 -0.06380
C11 C 0.1002(5) 0.1459(4) -0.0720(4)
H3 H 0.19460 0.89140 0.65700
C12 C -0.0203(5) 0.8565(4) 0.6457(4)
C13 C -0.2110(4) 0.7936(4) 0.4327(4)
H4 H -0.12000 0.77010 0.30220
O8 O 0.4129(4) 1.3055(4) 0.7651(3)
C14 C 0.3073(5) -0.0023(4) 0.2070(4)
C15 C 0.1595(5) 0.0542(4) -0.0002(4)
H5 H 0.04120 0.11520 -0.15790
C16 C -0.1713(5) 0.8225(4) 0.5615(4)
H6 H 0.00490 0.87430 0.73200
H7 H 0.14140 -0.03770 -0.03880
H8 H -0.24720 0.81910 0.59180
N1 N 0.7064(5) 0.4026(5) 0.1976(5)
C17 C 0.7866(7) 0.4542(6) 0.4186(6)
H9 H 0.76130 0.46270 0.48780
C18 C 0.6753(7) 0.4169(6) 0.2999(7)
H10 H 0.57430 0.40080 0.28970
C19 C 0.9381(6) 0.4796(5) 0.4364(5)
C20 C 0.5464(8) 0.2018(8) 0.0387(7)
H11 H 0.46760 0.17050 -0.04460
H12 H 0.51210 0.17550 0.09840
H13 H 0.63590 0.16240 0.04250
C21 C 0.9666(7) 0.4669(5) 0.3276(7)
H14 H 1.06610 0.48530 0.33490
C22 C 0.8509(7) 0.4282(6) 0.2117(7)
H15 H 0.87260 0.41930 0.14060
C23 C 0.5833(8) 0.3536(8) 0.0696(7)
H16 H 0.61560 0.38070 0.00830
H17 H 0.49310 0.39370 0.06600
O4A O 0.4746(3) 1.1990(3) 0.6128(3)
O6A O 0.6912(3) 1.0994(4) 0.4973(3)
O7A O 0.6170(3) 0.9559(3) 0.6773(3)
Ni1A Ni 0.68450(5) 1.26558(4) 0.74868(4)
C13A C 0.2110(4) 1.2064(4) 0.5673(4)
C9A C -0.3750(5) 0.7605(4) 0.3432(4)
C8A C 0.0951(4) 1.2060(4) 0.6115(4)
C16A C 0.1713(5) 1.1775(4) 0.4385(4)
O5* O 0.2777(4) -0.1268(3) 0.1498(3)
O7* O 0.3830(3) 0.0441(3) 0.3227(3)
O4* O -0.4746(3) 0.8010(3) 0.3872(3)
O8A O -0.4129(4) 0.6945(4) 0.2349(3)
C4A C -0.0560(4) 1.1702(4) 0.5283(4)
H4A H 0.12000 1.22990 0.69780
C12A C 0.0203(5) 1.1435(4) 0.3543(4)
H8A H 0.24720 1.18090 0.40820
Ni1* Ni 0.31550(5) -0.26558(4) 0.25132(4)
Ni2* Ni 0.50000 0.00000 0.50000
Ni1** Ni -0.68450(5) 0.73442(4) 0.25132(4)
Ni2** Ni -0.50000 1.00000 0.50000
C2A C -0.1831(5) 1.1683(4) 0.5726(4)
C7A C -0.0934(5) 1.1362(4) 0.3992(4)
H6A H -0.00490 1.12570 0.26800
O6A* O -0.3088(3) 1.0994(4) 0.4973(3)
O4A* O -0.5254(3) 1.1990(3) 0.6128(3)
O2A O -0.1535(3) 1.2366(3) 0.6823(3)
H3A H -0.19460 1.10860 0.34300
Ni1A* Ni -0.31550(5) 1.26558(4) 0.74868(4)
O1A O -0.2237(4) 1.4398(3) 0.8907(3)
O3A O -0.3152(4) 1.4869(3) 0.7070(3)
O5A O -0.2777(4) 1.1268(3) 0.8502(3)
C1A C -0.2527(5) 1.5227(4) 0.8247(5)
C3A C -0.2154(5) 1.6718(4) 0.8871(4)
C5A C -0.2724(4) 1.7649(4) 0.8160(4)
C6A C -0.1290(5) 1.7167(4) 1.0156(4)
C10A C -0.2451(4) 1.9023(4) 0.8720(4)
H1A H -0.32970 1.73470 0.72970
H2A H -0.09050 1.65490 1.06380
C11A C -0.1002(5) 1.8541(4) 1.0720(4)
C14A C -0.3073(5) 2.0023(4) 0.7930(4)
C15A C -0.1595(5) 1.9458(4) 1.0002(4)
H5A H -0.04120 1.88480 1.15790
Ni2*** Ni -0.50000 2.00000 0.50000
O5A* O -0.2777(4) 2.1268(3) 0.8502(3)
O7A* O -0.3830(3) 1.9559(3) 0.6773(3)
H7A H -0.14140 2.03770 1.03880
Ni1A** Ni -0.31550(5) 2.26558(4) 0.74868(4)
N1A N 1.2936(5) 0.5974(5) 0.8024(5)
C17A C 1.2134(7) 0.5458(6) 0.5814(6)
H9A H 1.23870 0.53730 0.51220
C18A C 1.3247(7) 0.5831(6) 0.7001(7)
H10A H 1.42570 0.59920 0.71030
C19A C 1.0619(6) 0.5204(5) 0.5636(5)
C20A C 1.4536(8) 0.7982(8) 0.9613(7)
H11A H 1.53240 0.82950 1.04460
H12A H 1.48790 0.82450 0.90160
H13A H 1.36410 0.83760 0.95750
C21A C 1.0334(7) 0.5331(5) 0.6724(7)
H14A H 0.93390 0.51470 0.66510
C22A C 1.1491(7) 0.5718(6) 0.7883(7)
H15A H 1.12740 0.58070 0.85940
C23A C 1.4167(8) 0.6464(8) 0.9304(7)
H16A H 1.38440 0.61930 0.99170
H17A H 1.50690 0.60630 0.93400
#END
