
#######################################################################
#
#                 Cambridge Crystallographic Data Centre
#                                CCDC
#
#######################################################################
#
# If this CIF has been generated from an entry in the Cambridge
# Structural Database, then it will include bibliographic, chemical,
# crystal, experimental, refinement or atomic coordinate data resulting
# from the CCDC's data processing and validation procedures.
#
#######################################################################

data_CSD_CIF_IDEWAS
_audit_creation_date 2018-08-03
_audit_creation_method CSD-ConQuest-V1
_database_code_CSD IDEWAS
_database_code_depnum_ccdc_archive 'CCDC 1577363'
_chemical_formula_sum 'C20 H23 N3 O7 Zn1'
_chemical_formula_moiety
;
(C16 H9 N2 O6 Zn1 1-)n,C4 H12 N1 1+,H2 O1
;
_journal_coden_Cambridge 1078
_journal_year 2018
_journal_name_full 'CSD Communication(Private Communication) '
loop_
_publ_author_name
"R.TIWARI"
_chemical_name_systematic
;
catena-[diethylammonium 
(\m-3,5-dicarboxybenzoato)-(1H-benzimidazole)-zinc(ii) monohydrate]
;
_cell_volume   2236.406
_exptl_crystal_colour 'colorless'
_exptl_crystal_density_diffrn 1.434
_exptl_crystal_description 'plate'
_diffrn_ambient_temperature 296
_diffrn_special_details
;
twin

;
#These two values have been output from a single CSD field.
_refine_ls_R_factor_gt 0.0237
_refine_ls_wR_factor_gt 0.0237
_symmetry_cell_setting orthorhombic
_symmetry_space_group_name_H-M 'P n a 21'
_symmetry_Int_Tables_number 33
loop_
_symmetry_equiv_pos_site_id
_symmetry_equiv_pos_as_xyz
1 x,y,z
2 -x,-y,1/2+z
3 1/2+x,1/2-y,z
4 1/2-x,1/2+y,1/2+z
_cell_length_a 15.6345(8)
_cell_length_b 11.2144(5)
_cell_length_c 12.7553(6)
_cell_angle_alpha 90
_cell_angle_beta 90
_cell_angle_gamma 90
_cell_formula_units_Z 4
loop_
_atom_type_symbol
_atom_type_radius_bond
C 0.68
H 0.23
N 0.68
O 0.68
Zn 1.22
loop_
_atom_site_label
_atom_site_type_symbol
_atom_site_fract_x
_atom_site_fract_y
_atom_site_fract_z
Zn1 Zn 0.39596(2) 0.33968(2) 0.46948(4)
O1 O 0.47774(15) 0.27503(19) 0.57023(19)
O2 O 0.62977(17) -0.2260(2) 0.8541(2)
O3 O 0.83117(16) 0.0323(2) 0.6426(2)
O4 O 0.77578(15) 0.1241(2) 0.50641(18)
N1 N 0.46301(18) 0.4771(2) 0.4067(2)
O5 O 0.38494(18) 0.1352(3) 0.6100(4)
C1 C 0.6807(2) 0.0457(3) 0.6335(2)
C2 C 0.6668(2) -0.0447(3) 0.7071(2)
H1 H 0.71250 -0.09090 0.73010
C3 C 0.4579(3) 0.1736(3) 0.6055(3)
C4 C 0.6128(2) 0.1167(3) 0.6015(3)
H2 H 0.62200 0.17710 0.55290
O6 O 0.4920(2) -0.1864(3) 0.8448(3)
C5 C 0.5856(2) -0.0656(3) 0.7456(3)
C6 C 0.5184(2) 0.0070(3) 0.7135(3)
H3 H 0.46390 -0.00560 0.74040
C7 C 0.5667(3) -0.1657(3) 0.8205(3)
C8 C 0.5320(2) 0.0984(3) 0.6413(3)
C9 C 0.4783(2) 0.5936(3) 0.4398(2)
C10 C 0.7694(2) 0.0682(3) 0.5926(3)
N2 N 0.5499(2) 0.5629(3) 0.2945(3)
H4 H 0.58200 0.57150 0.24020
C11 C 0.5330(3) 0.6487(3) 0.3690(3)
C12 C 0.5601(4) 0.7649(4) 0.3808(4)
H5 H 0.59600 0.80100 0.33220
C13 C 0.4493(4) 0.6556(4) 0.5268(3)
H6 H 0.41320 0.62020 0.57570
C14 C 0.5314(4) 0.8244(4) 0.4673(7)
H7 H 0.54970 0.90210 0.47920
C15 C 0.5080(3) 0.4653(4) 0.3213(3)
H8 H 0.51030 0.39490 0.28290
C16 C 0.4759(4) 0.7715(5) 0.5378(5)
H9 H 0.45600 0.81590 0.59440
N3 N 0.7495(4) 0.0143(6) 0.1418(5)
H10 H 0.73090 0.05310 0.19820
H11 H 0.70770 -0.03480 0.12230
C17 C 0.7987(6) -0.1379(10) 0.2618(8)
H12 H 0.75450 -0.19190 0.24000
H13 H 0.77860 -0.09110 0.31980
H14 H 0.84820 -0.18250 0.28280
C18 C 0.8208(5) -0.0599(12) 0.1754(11)
H15 H 0.84010 -0.10790 0.11670
H16 H 0.86790 -0.00900 0.19660
C19 C 0.760(1) 0.1086(19) 0.0526(9)
H17 H 0.81250 0.15390 0.05980
H18 H 0.71160 0.16270 0.04920
C20 C 0.7630(13) 0.019(2) -0.0477(10)
H19 H 0.77510 -0.06070 -0.02410
H20 H 0.80690 0.04430 -0.09530
H21 H 0.70870 0.02000 -0.08290
O7 O 0.6771(4) 0.1351(10) 0.3137(5)
H22 H 0.72030 0.12190 0.35240
H23 H 0.63820 0.09050 0.33860
Zn1A Zn 0.60404(2) -0.33968(2) 0.96948(4)
Zn1B Zn 0.89596(2) 0.16032(2) 0.46948(4)
O2A O 0.37023(17) 0.2260(2) 0.3541(2)
O4B O 0.27578(15) 0.3759(2) 0.50641(18)
#END
