
#######################################################################
#
#                 Cambridge Crystallographic Data Centre
#                                CCDC
#
#######################################################################
#
# If this CIF has been generated from an entry in the Cambridge
# Structural Database, then it will include bibliographic, chemical,
# crystal, experimental, refinement or atomic coordinate data resulting
# from the CCDC's data processing and validation procedures.
#
#######################################################################

data_CSD_CIF_IDIGUZ
_audit_creation_date 2013-08-06
_audit_creation_method CSD-ConQuest-V1
_database_code_CSD IDIGUZ
_database_code_depnum_ccdc_archive 'CCDC 923163'
_chemical_formula_sum 'C54 H80 Cu2 Mn2 N6 O16'
_chemical_formula_moiety
;
(C22 H8 Cu2 Mn2 N4 O16 2-)n,2n(C16 H36 N1 1+)
;
_journal_coden_Cambridge 9
_journal_volume 52
_journal_year 2013
_journal_page_first 8812
_journal_name_full 'Inorg.Chem. '
loop_
_publ_author_name
"M.V.Marinho"
"T.R.G.Simoes"
"M.A.Ribeiro"
"C.L.M.Pereira"
"F.C.Machado"
"C.B.Pinheiro"
"H.O.Stumpf"
"Joan Cano"
"F.Lloret"
"M.Julve"
_chemical_name_systematic
;
catena-[bis(tetra-n-butylammonium) 
bis(\m~3~-(carboxylatocarbonyl)(2-([carboxylato(oxidanidyl)methylidene]amino)p
henyl)amido)-(\m~2~-oxalato)-di-copper-di-manganese]
;
_cell_volume   2926.732
_exptl_crystal_colour 'purple'
_exptl_crystal_density_diffrn 1.482
_exptl_crystal_description 'prismatic'
_diffrn_ambient_temperature 120
#These two values have been output from a single CSD field.
_refine_ls_R_factor_gt 0.0462
_refine_ls_wR_factor_gt 0.0462
_symmetry_cell_setting monoclinic
_symmetry_space_group_name_H-M 'P 21/n'
_symmetry_Int_Tables_number 14
loop_
_symmetry_equiv_pos_site_id
_symmetry_equiv_pos_as_xyz
1 x,y,z
2 1/2-x,1/2+y,1/2-z
3 -x,-y,-z
4 -1/2+x,-1/2-y,-1/2+z
_cell_length_a 9.7093(8)
_cell_length_b 16.5851(17)
_cell_length_c 18.1758(15)
_cell_angle_alpha 90
_cell_angle_beta 90.500(7)
_cell_angle_gamma 90
_cell_formula_units_Z 2
loop_
_atom_type_symbol
_atom_type_radius_bond
C 0.68
H 0.23
Cu 1.32
Mn 1.61
N 0.68
O 0.68
loop_
_atom_site_label
_atom_site_type_symbol
_atom_site_fract_x
_atom_site_fract_y
_atom_site_fract_z
Cu1 Cu 1.72892(5) 0.26245(3) 0.29513(2)
Mn1 Mn 1.52625(5) 0.33337(3) 0.02585(3)
O1 O 1.4776(2) 0.26706(14) 0.12614(12)
O2 O 1.4702(2) 0.44553(15) 0.08087(12)
O3 O 1.7256(2) 0.32526(15) 0.08303(12)
O4 O 1.5559(2) 0.24824(15) 0.24022(12)
O5 O 1.6918(2) 0.22464(16) 0.39414(12)
O6 O 2.0444(2) 0.25483(15) 0.43521(12)
N1 N 1.8003(3) 0.30162(17) 0.20386(14)
N2 N 1.9130(3) 0.27987(17) 0.33029(14)
C1 C 1.9414(3) 0.32128(19) 0.20610(18)
C2 C 1.7117(3) 0.30368(19) 0.14849(17)
C3 C 1.5694(3) 0.2704(2) 0.17346(18)
C4 C 1.8024(4) 0.2209(2) 0.43221(18)
C5 C 2.2225(3) 0.34479(19) 0.2245(2)
H1 H 2.31920 0.35160 0.23000
C6 C 2.0043(3) 0.30826(19) 0.27622(17)
C7 C 2.1448(3) 0.32001(19) 0.28505(19)
H2 H 2.18780 0.31140 0.33150
C8 C 2.0204(3) 0.34896(19) 0.14747(18)
H3 H 1.97820 0.36050 0.10130
C9 C 1.9353(3) 0.2555(2) 0.39782(18)
C10 C 2.1609(4) 0.3594(2) 0.1572(2)
H4 H 2.21540 0.37680 0.11710
O7 O 1.4472(2) 0.57750(15) 0.05887(12)
O8 O 1.8113(2) 0.19090(17) 0.49463(12)
C11 C 1.4757(3) 0.5064(2) 0.04056(17)
N3 N 1.2024(3) 0.08107(16) 0.19016(14)
C12 C 1.2588(3) 0.12673(19) 0.25668(17)
H5 H 1.33030 0.16480 0.23950
H6 H 1.18320 0.15910 0.27780
C13 C 1.3112(3) 0.02728(19) 0.15594(18)
H7 H 1.26920 -0.00140 0.11360
H8 H 1.33930 -0.01390 0.19260
C14 C 0.9610(3) 0.0647(2) 0.24720(19)
H9 H 0.92180 0.10500 0.21270
H10 H 0.98740 0.09270 0.29330
C15 C 1.3207(3) 0.0750(2) 0.31739(18)
H11 H 1.39720 0.04230 0.29760
H12 H 1.24990 0.03790 0.33680
C16 C 1.4399(3) 0.0708(2) 0.1295(2)
H13 H 1.41590 0.10590 0.08730
H14 H 1.47670 0.10540 0.16950
C17 C 0.8542(3) -0.0008(2) 0.26324(19)
H15 H 0.82490 -0.02630 0.21640
H16 H 0.89690 -0.04300 0.29450
C18 C 1.0859(3) 0.02512(19) 0.21363(19)
H17 H 1.05510 -0.00590 0.17000
H18 H 1.12370 -0.01400 0.24970
C19 C 1.1516(3) 0.14479(19) 0.13569(17)
H19 H 1.08060 0.17800 0.16010
H20 H 1.22960 0.18080 0.12360
C20 C 1.6770(4) 0.0525(3) 0.0777(2)
H21 H 1.65280 0.08370 0.03370
H22 H 1.74690 0.01220 0.06530
H23 H 1.71370 0.08880 0.11560
C21 C 1.0088(4) 0.1762(2) 0.02275(18)
H24 H 0.93010 0.19340 0.05320
H25 H 1.06820 0.22380 0.01450
C22 C 0.7276(4) 0.0331(3) 0.3021(2)
H26 H 0.75540 0.05570 0.34980
H27 H 0.66060 -0.01030 0.30980
H28 H 0.68570 0.07540 0.27170
C23 C 1.3746(4) 0.1302(2) 0.37970(18)
H29 H 1.44470 0.16750 0.35980
H30 H 1.29770 0.16300 0.39890
C24 C 1.0909(4) 0.1120(2) 0.06408(19)
H31 H 1.03000 0.06570 0.07510
H32 H 1.16640 0.09230 0.03250
C25 C 1.4379(4) 0.0811(3) 0.4420(2)
H33 H 1.36530 0.05130 0.46740
H34 H 1.48420 0.11740 0.47690
H35 H 1.50500 0.04300 0.42200
C26 C 0.9553(4) 0.1455(2) -0.0510(2)
H36 H 1.03310 0.12910 -0.08160
H37 H 0.90360 0.18850 -0.07590
H38 H 0.89460 0.09920 -0.04300
C27 C 1.5494(4) 0.0103(2) 0.1065(2)
H39 H 1.57510 -0.02370 0.14930
H40 H 1.51120 -0.02540 0.06770
O2B O 1.5298(2) 0.55447(15) -0.08087(12)
C11B C 1.5243(3) 0.4936(2) -0.04056(17)
O7B O 1.5528(2) 0.42250(15) -0.05887(12)
Cu1B Cu 1.27108(5) 0.73755(3) -0.29513(2)
Mn1B Mn 1.47375(5) 0.66663(3) -0.02585(3)
O1B O 1.5224(2) 0.73294(14) -0.12614(12)
O3B O 1.2744(2) 0.67474(15) -0.08303(12)
O4B O 1.4441(2) 0.75176(15) -0.24022(12)
O5B O 1.3082(2) 0.77536(16) -0.39414(12)
O6B O 0.9556(2) 0.74517(15) -0.43521(12)
N1B N 1.1997(3) 0.69838(17) -0.20386(14)
N2B N 1.0870(3) 0.72013(17) -0.33029(14)
C1B C 1.0586(3) 0.67872(19) -0.20610(18)
C2B C 1.2883(3) 0.69632(19) -0.14849(17)
C3B C 1.4306(3) 0.7296(2) -0.17346(18)
C4B C 1.1976(4) 0.7791(2) -0.43221(18)
C5B C 0.7775(3) 0.65521(19) -0.2245(2)
H1B H 0.68080 0.64840 -0.23000
C6B C 0.9957(3) 0.69174(19) -0.27622(17)
C7B C 0.8552(3) 0.67999(19) -0.28505(19)
H2B H 0.81220 0.68860 -0.33150
C8B C 0.9796(3) 0.65104(19) -0.14747(18)
H3B H 1.02180 0.63950 -0.10130
C9B C 1.0647(3) 0.7445(2) -0.39782(18)
C10B C 0.8391(4) 0.6406(2) -0.1572(2)
H4B H 0.78460 0.62320 -0.11710
O8B O 1.1887(2) 0.80910(17) -0.49463(12)
Mn1A Mn 0.97375(5) 0.83337(3) -0.52585(3)
Mn1C Mn 2.02625(5) 0.16663(3) 0.52585(3)
O6A O 1.4556(2) 0.75483(15) 0.06479(12)
O6C O 1.5444(2) 0.24517(15) -0.06479(12)
O8A O 1.6887(2) 0.69090(17) 0.00537(12)
O8C O 1.3113(2) 0.30910(17) -0.00537(12)
#END
