
#######################################################################
#
#                 Cambridge Crystallographic Data Centre
#                                CCDC
#
#######################################################################
#
# If this CIF has been generated from an entry in the Cambridge
# Structural Database, then it will include bibliographic, chemical,
# crystal, experimental, refinement or atomic coordinate data resulting
# from the CCDC's data processing and validation procedures.
#
#######################################################################

data_CSD_CIF_IDIMOA
_audit_creation_date 2018-08-04
_audit_creation_method CSD-ConQuest-V1
_database_code_CSD IDIMOA
_database_code_depnum_ccdc_archive 'CCDC 1843012'
_chemical_formula_sum 'C291 H531 Cd16 In64 N74 S126'
_chemical_formula_moiety
;
(C21 H21 Cd16 In64 N14 S126 30-)n,30(C9 H17 N2 1+)
;
_journal_coden_Cambridge 9
_journal_volume 57
_journal_year 2018
_journal_page_first 9790
_journal_name_full 'Inorg.Chem. '
loop_
_publ_author_name
"Jiaxu Zhang"
"Wei Wang"
"Chaozhuang Xue"
"Mufan Zhao"
"Dandan Hu"
"Jing Lv"
"Xiang Wang"
"Dongsheng Li"
"Tao Wu"
_chemical_name_systematic
;
catena-[triacontakis(2,3,4,6,7,8,9,10-octahydropyrimido[1,2-a]azepin-1-ium) 
tetracosahectakis(\m-sulfido)-heptakis(\m-imidazolato)-bis(sulfido)-hexadeca-c
admium-tetrahexaconta-indium unknown solvate]
;
_chemical_name_common
;
SCIF-12
;
_cell_volume  66481.879
_exptl_crystal_colour 'colorless'
_exptl_crystal_density_diffrn 1.364
_exptl_crystal_description 'block'
_diffrn_ambient_temperature 296
_refine_special_details
;
Disordered cation and solvent molecules were not modelled and the disordered 
density was taken into account using the SQUEEZE/PLATON procedure.
;
#These two values have been output from a single CSD field.
_refine_ls_R_factor_gt 0.0624
_refine_ls_wR_factor_gt 0.0624
_symmetry_cell_setting orthorhombic
_symmetry_space_group_name_H-M 'P n n n'
_symmetry_Int_Tables_number 48
loop_
_symmetry_equiv_pos_site_id
_symmetry_equiv_pos_as_xyz
1 x,y,z
2 1/2-x,1/2-y,z
3 1/2-x,y,1/2-z
4 x,1/2-y,1/2-z
5 -x,-y,-z
6 -1/2+x,-1/2+y,-z
7 -1/2+x,-y,-1/2+z
8 -x,-1/2+y,-1/2+z
_cell_length_a 30.481(4)
_cell_length_b 41.069(6)
_cell_length_c 53.108(8)
_cell_angle_alpha 90
_cell_angle_beta 90
_cell_angle_gamma 90
_cell_formula_units_Z 4
loop_
_atom_type_symbol
_atom_type_radius_bond
C 0.68
H 0.23
Cd 1.44
In 1.42
N 0.68
S 1.02
loop_
_atom_site_label
_atom_site_type_symbol
_atom_site_fract_x
_atom_site_fract_y
_atom_site_fract_z
In1 In 1.09841(10) 0.50345(7) 0.65468(6)
S1 S 1.1219(7) 0.4557(5) 0.6820(4)
S2 S 1.1166(4) 0.5496(3) 0.6815(2)
S3 S 1.1421(4) 0.4972(2) 0.6165(2)
S4 S 1.0203(4) 0.4920(3) 0.6506(2)
In2 In 1.09240(8) 0.59516(6) 0.65599(5)
In3 In 1.11745(8) 0.54363(6) 0.59216(5)
In4 In 0.99695(8) 0.53816(6) 0.62493(5)
S5 S 1.1343(3) 0.5945(2) 0.61563(17)
S6 S 1.0114(3) 0.5892(2) 0.64969(17)
S7 S 1.1072(3) 0.6449(2) 0.67850(19)
S8 S 1.0374(3) 0.5370(2) 0.58429(18)
S9 S 1.1572(3) 0.5449(2) 0.5525(2)
S10 S 0.9184(3) 0.5331(2) 0.6172(2)
Cd1 Cd 1.10900(8) 0.64153(6) 0.59031(5)
Cd2 Cd 0.98768(8) 0.63563(6) 0.62320(5)
In5 In 1.08285(9) 0.69104(6) 0.65341(5)
Cd3 Cd 1.01254(7) 0.58398(6) 0.55870(5)
In6 In 1.13187(8) 0.59009(6) 0.52728(5)
In7 In 0.89481(8) 0.57869(6) 0.59208(5)
S11 S 1.0271(2) 0.63632(17) 0.58228(15)
S12 S 1.1232(3) 0.6940(2) 0.61289(17)
S13 S 1.1487(3) 0.6422(2) 0.54938(17)
S14 S 0.9075(3) 0.6303(2) 0.61617(16)
S15 S 1.0017(3) 0.6868(2) 0.64643(17)
S16 S 1.0974(4) 0.7417(2) 0.67633(19)
S17 S 1.0518(3) 0.5843(2) 0.51733(17)
S18 S 0.9325(3) 0.5788(2) 0.55049(17)
S19 S 1.1721(3) 0.5908(3) 0.4876(2)
S20 S 0.8163(3) 0.5739(3) 0.5850(2)
Cd4 Cd 1.00212(7) 0.68321(6) 0.55584(5)
In8 In 1.09646(8) 0.73899(6) 0.58606(5)
In9 In 1.12119(8) 0.68906(6) 0.52440(5)
In10 In 0.88470(8) 0.67783(6) 0.59009(5)
In11 In 0.97675(8) 0.73264(6) 0.61935(5)
In12 In 1.06901(10) 0.78041(6) 0.64684(6)
In13 In 1.02593(7) 0.63202(6) 0.49288(5)
In14 In 0.90971(7) 0.62665(6) 0.52546(5)
In15 In 1.13882(8) 0.63708(8) 0.46710(5)
In16 In 0.80346(8) 0.62295(7) 0.56069(5)
S21 S 0.9214(3) 0.6786(2) 0.54827(16)
S22 S 1.0411(3) 0.68499(19) 0.51462(16)
S23 S 1.0155(3) 0.73530(19) 0.57857(17)
S24 S 1.1355(3) 0.7396(2) 0.54664(18)
S25 S 1.1104(4) 0.7896(2) 0.6087(2)
S26 S 1.1599(3) 0.6901(3) 0.48414(19)
S27 S 0.8061(3) 0.6732(3) 0.58381(19)
S28 S 0.8991(3) 0.7288(2) 0.61174(19)
S29 S 0.9894(4) 0.7832(2) 0.6419(2)
N1 N 1.0747(10) 0.8275(7) 0.6662(5)
S30 S 0.9478(3) 0.6274(2) 0.48517(17)
S31 S 1.0642(3) 0.6319(3) 0.45282(19)
S32 S 0.8311(3) 0.6229(3) 0.51801(18)
N2 N 1.1774(9) 0.6354(8) 0.4326(4)
N3 N 0.7350(9) 0.6216(7) 0.5526(6)
C1 C 1.1640(11) 0.6427(9) 0.4085(4)
C2 C 1.2195(12) 0.6297(9) 0.4309(7)
C3 C 0.7023(12) 0.6295(11) 0.5668(8)
C4 C 0.7203(10) 0.6173(8) 0.5301(7)
H1 H 1.13680 0.65120 0.40420
C5 C 1.1978(12) 0.6355(9) 0.3912(8)
N4 N 1.2332(9) 0.6316(8) 0.4064(6)
H2 H 1.23770 0.62500 0.44450
H3 H 0.70270 0.63450 0.58390
C6 C 0.6654(12) 0.6287(10) 0.5502(7)
H4 H 0.73810 0.61340 0.51630
N5 N 0.6761(8) 0.6192(5) 0.5290(5)
H5 H 1.19620 0.63390 0.37380
In17 In 1.30335(8) 0.62072(7) 0.39911(5)
H6 H 0.63700 0.63450 0.55480
In18 In 0.63645(7) 0.61205(6) 0.49418(5)
S33 S 0.5623(3) 0.6240(2) 0.50773(16)
S34 S 0.6548(3) 0.5561(2) 0.48492(16)
S35 S 0.6726(3) 0.6526(2) 0.46770(18)
In19 In 0.52482(7) 0.61594(5) 0.46774(4)
In20 In 0.61542(7) 0.54828(6) 0.44597(4)
In21 In 0.63398(7) 0.64365(6) 0.42836(5)
S36 S 0.5358(2) 0.55879(18) 0.45369(14)
S37 S 0.5549(2) 0.65540(19) 0.43644(16)
S38 S 0.4469(3) 0.6264(2) 0.47450(16)
S39 S 0.6470(2) 0.58640(19) 0.41453(15)
S40 S 0.6259(3) 0.4926(2) 0.43162(16)
S41 S 0.6631(3) 0.6808(2) 0.39785(17)
Cd5 Cd 0.49631(7) 0.55128(5) 0.41349(4)
Cd6 Cd 0.51566(7) 0.64706(6) 0.39584(4)
In22 In 0.40926(7) 0.61865(6) 0.43478(4)
Cd7 Cd 0.60616(7) 0.57870(6) 0.37425(4)
In23 In 0.58653(8) 0.48546(6) 0.39274(5)
In24 In 0.62398(8) 0.67285(6) 0.35820(5)
S42 S 0.5261(2) 0.58990(18) 0.38088(14)
S43 S 0.4168(3) 0.56170(19) 0.42007(15)
S44 S 0.5060(3) 0.49388(19) 0.39872(16)
S45 S 0.4362(2) 0.6583(2) 0.40261(16)
S46 S 0.5446(3) 0.6857(2) 0.36391(16)
S47 S 0.3318(3) 0.6307(2) 0.44161(18)
S48 S 0.6176(3) 0.5217(2) 0.35943(16)
S49 S 0.6360(3) 0.6168(2) 0.34199(16)
S50 S 0.5963(3) 0.4296(2) 0.37904(19)
S51 S 0.6547(3) 0.7097(2) 0.32715(19)
Cd8 Cd 0.48637(7) 0.58177(6) 0.33966(4)
In25 In 0.38000(7) 0.55448(6) 0.37854(5)
In26 In 0.46695(8) 0.48838(6) 0.35789(5)
In27 In 0.39850(7) 0.64989(6) 0.36141(5)
In28 In 0.50454(8) 0.67612(6) 0.32384(5)
In29 In 0.57667(8) 0.51539(6) 0.31930(5)
In30 In 0.59458(8) 0.60755(6) 0.30212(5)
In31 In 0.55611(10) 0.43047(6) 0.33919(5)
In32 In 0.60968(9) 0.69562(7) 0.29143(5)
S52 S 0.5148(3) 0.6193(2) 0.30709(16)
S53 S 0.4960(3) 0.5250(2) 0.32460(16)
S54 S 0.4072(3) 0.5934(2) 0.34615(16)
S55 S 0.3023(3) 0.5654(2) 0.38498(18)
S56 S 0.3900(3) 0.4991(2) 0.36463(18)
S57 S 0.4772(4) 0.4326(2) 0.34274(19)
S58 S 0.4278(3) 0.6870(2) 0.33039(18)
S59 S 0.3208(3) 0.6611(3) 0.3675(2)
S60 S 0.5337(3) 0.7134(2) 0.2928(2)
S61 S 0.6047(3) 0.5524(2) 0.28762(17)
S62 S 0.5895(4) 0.4596(2) 0.30498(19)
S63 S 0.6245(3) 0.6444(2) 0.27102(19)
N6 N 0.5675(11) 0.3790(7) 0.3269(7)
N7 N 0.6382(8) 0.7308(6) 0.2643(4)
C7 C 0.5856(14) 0.3657(9) 0.3064(8)
C8 C 0.5650(14) 0.3554(9) 0.3419(8)
C9 C 0.6788(11) 0.7375(8) 0.2586(6)
C10 C 0.6111(16) 0.75000 0.25000
H7 H 0.59280 0.37670 0.29170
C11 C 0.5919(12) 0.3320(9) 0.3109(5)
H8 H 0.55640 0.35850 0.35850
H9 H 0.70350 0.72720 0.26510
H10 H 0.58060 0.75000 0.25000
H11 H 0.60490 0.31670 0.30030
In17* In 0.30335(8) 0.62072(7) 0.39911(5)
N4* N 0.2332(9) 0.6316(8) 0.4064(6)
N1E N 0.5747(10) 0.3275(7) 0.3338(5)
C9C C 0.6788(11) 0.7625(8) 0.2414(6)
N7C N 0.6382(8) 0.7692(6) 0.2357(4)
In12E In 0.56901(10) 0.28041(6) 0.35316(6)
H9C H 0.70350 0.77280 0.23490
In32C In 0.60968(9) 0.80438(7) 0.20857(5)
S51C S 0.6547(3) 0.7903(2) 0.17285(19)
S63C S 0.6245(3) 0.8556(2) 0.22898(19)
S60C S 0.5337(3) 0.7866(2) 0.2072(2)
In24C In 0.62398(8) 0.82715(6) 0.14180(5)
In30C In 0.59458(8) 0.89245(6) 0.19788(5)
In28C In 0.50454(8) 0.82388(6) 0.17616(5)
S46C S 0.5446(3) 0.8143(2) 0.13609(16)
S49C S 0.6360(3) 0.8832(2) 0.15801(16)
S41C S 0.6631(3) 0.8192(2) 0.10215(17)
S52C S 0.5148(3) 0.8807(2) 0.19291(16)
S61C S 0.6047(3) 0.9476(2) 0.21238(17)
S58C S 0.4278(3) 0.8130(2) 0.16961(18)
Cd6C Cd 0.51566(7) 0.85294(6) 0.10416(4)
Cd7C Cd 0.60616(7) 0.92130(6) 0.12575(4)
In21C In 0.63398(7) 0.85635(6) 0.07164(5)
Cd8C Cd 0.48637(7) 0.91823(6) 0.16034(4)
In29C In 0.57667(8) 0.98461(6) 0.18070(5)
In27C In 0.39850(7) 0.85011(6) 0.13859(5)
S42C S 0.5261(2) 0.91010(18) 0.11912(14)
S45C S 0.4362(2) 0.8417(2) 0.09739(16)
S37C S 0.5549(2) 0.84460(19) 0.06356(16)
S39C S 0.6470(2) 0.91360(19) 0.08547(15)
S48C S 0.6176(3) 0.9783(2) 0.14057(16)
S35C S 0.6726(3) 0.8474(2) 0.03230(18)
S53C S 0.4960(3) 0.9750(2) 0.17540(16)
S54C S 0.4072(3) 0.9066(2) 0.15385(16)
S62C S 0.5895(4) 1.0404(2) 0.19502(19)
S59C S 0.3208(3) 0.8389(3) 0.1325(2)
Cd5C Cd 0.49631(7) 0.94872(5) 0.08651(4)
In22C In 0.40926(7) 0.88135(6) 0.06522(4)
In19C In 0.52482(7) 0.88406(5) 0.03226(4)
In20C In 0.61542(7) 0.95172(6) 0.05403(4)
In23C In 0.58653(8) 1.01454(6) 0.10726(5)
In18C In 0.63645(7) 0.88795(6) 0.00582(5)
In26C In 0.46695(8) 1.01162(6) 0.14211(5)
In25C In 0.38000(7) 0.94552(6) 0.12146(5)
In31C In 0.55611(10) 1.06953(6) 0.16081(5)
In17C In 0.30335(8) 0.87928(7) 0.10089(5)
S36C S 0.5358(2) 0.94121(18) 0.04631(14)
S43C S 0.4168(3) 0.93830(19) 0.07993(15)
S44C S 0.5060(3) 1.00612(19) 0.10128(16)
S38C S 0.4469(3) 0.8736(2) 0.02550(16)
S47C S 0.3318(3) 0.8693(2) 0.05839(18)
S33C S 0.5623(3) 0.8760(2) -0.00773(16)
S34C S 0.6548(3) 0.9439(2) 0.01508(16)
S40C S 0.6259(3) 1.0074(2) 0.06838(16)
S50C S 0.5963(3) 1.0704(2) 0.12096(19)
N5C N 0.6761(8) 0.8808(5) -0.0290(5)
S56C S 0.3900(3) 1.0009(2) 0.13537(18)
S57C S 0.4772(4) 1.0674(2) 0.15726(19)
S55C S 0.3023(3) 0.9346(2) 0.11502(18)
N6C N 0.5675(11) 1.1210(7) 0.1731(7)
N4C N 0.2332(9) 0.8684(8) 0.0936(6)
C6C C 0.6654(12) 0.8713(10) -0.0502(7)
C4C C 0.7203(10) 0.8827(8) -0.0301(7)
C7C C 0.5856(14) 1.1343(9) 0.1936(8)
C8C C 0.5650(14) 1.1446(9) 0.1581(8)
C3C C 0.7023(12) 0.8705(11) -0.0668(8)
H6C H 0.63700 0.86550 -0.05480
N3C N 0.7350(9) 0.8784(7) -0.0526(6)
H4C H 0.73810 0.88660 -0.01630
H7C H 0.59280 1.12330 0.20830
C11C C 0.5919(12) 1.1680(9) 0.1891(5)
N1F N 0.5747(10) 1.1725(7) 0.1662(5)
H8C H 0.55640 1.14150 0.14150
H3C H 0.70270 0.86550 -0.08390
In16C In 0.80346(8) 0.87705(7) -0.06069(5)
H11C H 0.60490 1.18330 0.19970
In12F In 0.56901(10) 1.21959(6) 0.14684(6)
S16F S 0.5974(4) 1.2583(2) 0.17633(19)
S29F S 0.4894(4) 1.2168(2) 0.1419(2)
S25F S 0.6104(4) 1.2104(2) 0.1087(2)
In5F In 0.58285(9) 1.30896(6) 0.15341(5)
In11F In 0.47675(8) 1.26736(6) 0.11935(5)
In8F In 0.59646(8) 1.26101(6) 0.08606(5)
S15F S 0.5017(3) 1.3132(2) 0.14643(17)
S12F S 0.6232(3) 1.3060(2) 0.11289(17)
S7F S 0.6072(3) 1.3551(2) 0.17850(19)
S23F S 0.5155(3) 1.26470(19) 0.07857(17)
S28F S 0.3991(3) 1.2712(2) 0.11174(19)
S24F S 0.6355(3) 1.2604(2) 0.04664(18)
Cd2F Cd 0.48768(8) 1.36437(6) 0.12320(5)
Cd1F Cd 0.60900(8) 1.35847(6) 0.09031(5)
In2F In 0.59240(8) 1.40484(6) 0.15599(5)
Cd4F Cd 0.50212(7) 1.31679(6) 0.05584(5)
In10F In 0.38470(8) 1.32217(6) 0.09009(5)
In9F In 0.62119(8) 1.31094(6) 0.02440(5)
S11F S 0.5271(2) 1.36368(17) 0.08228(15)
S14F S 0.4075(3) 1.3697(2) 0.11617(16)
S6F S 0.5114(3) 1.4108(2) 0.14969(17)
S13F S 0.6487(3) 1.3578(2) 0.04938(17)
S5F S 0.6343(3) 1.4055(2) 0.11563(17)
S2F S 0.6166(4) 1.4504(3) 0.1815(2)
S22F S 0.5411(3) 1.31501(19) 0.01462(16)
S21F S 0.4214(3) 1.3214(2) 0.04827(16)
S27F S 0.3061(3) 1.3268(3) 0.08381(19)
S26F S 0.6599(3) 1.3099(3) -0.01586(19)
Cd3F Cd 0.51254(7) 1.41602(6) 0.05870(5)
In7F In 0.39481(8) 1.42131(6) 0.09208(5)
In4F In 0.49695(8) 1.46184(6) 0.12493(5)
In6F In 0.63187(8) 1.40991(6) 0.02728(5)
In3F In 0.61745(8) 1.45637(6) 0.09216(5)
In1F In 0.59841(10) 1.49655(7) 0.15468(6)
In13F In 0.52593(7) 1.36798(6) -0.00712(5)
In14F In 0.40971(7) 1.37335(6) 0.02546(5)
In16F In 0.30346(8) 1.37705(7) 0.06069(5)
In15F In 0.63882(8) 1.36292(8) -0.03290(5)
S18F S 0.4325(3) 1.4212(2) 0.05049(17)
S17F S 0.5518(3) 1.4157(2) 0.01733(17)
S8F S 0.5374(3) 1.4630(2) 0.08429(18)
S10F S 0.4184(3) 1.4669(2) 0.1172(2)
S20F S 0.3163(3) 1.4261(3) 0.0850(2)
S4F S 0.5203(4) 1.5080(3) 0.1506(2)
S9F S 0.6572(3) 1.4551(2) 0.0525(2)
S19F S 0.6721(3) 1.4092(3) -0.0124(2)
S3F S 0.6421(4) 1.5028(2) 0.1165(2)
S1F S 0.6219(7) 1.5443(5) 0.1820(4)
S30F S 0.4478(3) 1.3726(2) -0.01483(17)
S31F S 0.5642(3) 1.3681(3) -0.04718(19)
S32F S 0.3311(3) 1.3771(3) 0.01801(18)
N3F N 0.2350(9) 1.3784(7) 0.0526(6)
N2F N 0.6774(9) 1.3646(8) -0.0674(4)
C2F C 0.7195(12) 1.3703(9) -0.0691(7)
C1F C 0.6640(11) 1.3573(9) -0.0915(4)
N4F N 0.7332(9) 1.3684(8) -0.0936(6)
H2F H 0.73770 1.37500 -0.05550
C5F C 0.6978(12) 1.3645(9) -0.1088(8)
H1F H 0.63680 1.34880 -0.09580
In17F In 0.80335(8) 1.37928(7) -0.10089(5)
H5F H 0.69620 1.36610 -0.12620
#END
