
#######################################################################
#
#                 Cambridge Crystallographic Data Centre
#                                CCDC
#
#######################################################################
#
# If this CIF has been generated from an entry in the Cambridge
# Structural Database, then it will include bibliographic, chemical,
# crystal, experimental, refinement or atomic coordinate data resulting
# from the CCDC's data processing and validation procedures.
#
#######################################################################

data_CSD_CIF_IDOKUK
_audit_creation_date 2018-08-06
_audit_creation_method CSD-ConQuest-V1
_database_code_CSD IDOKUK
_database_code_depnum_ccdc_archive 'CCDC 1851031'
_chemical_formula_sum 'C24 H39 Er2 O37.5 Zn3'
_chemical_formula_moiety
;
(C12 H12 Er1 O15 Zn1 1-)2n,H12 O6 Zn1 2+,1.5(H2 O1)
;
_journal_coden_Cambridge 1350
_journal_volume 20
_journal_year 2018
_journal_page_first 4942
_journal_name_full 'CrystEngComm '
loop_
_publ_author_name
"F.Igoa"
"S.Martinez"
"K.P.S.Zanoni"
"J.Castiglioni"
"L.Suescun"
"J.Gonzalez-Platas"
"A.S.S.de Camargo"
"C.Kremer"
"J.Torres"
_chemical_name_systematic
;
catena-[hexa-aqua-zinc(ii) 
bis(tris(\m-2,2'-oxydiacetato))-erbium(iii)-zinc(ii) sesquihydrate]
;
_cell_volume  16711.242
_exptl_crystal_colour 'light pink'
_exptl_crystal_density_diffrn 2.309
_exptl_crystal_description 'block'
_diffrn_ambient_temperature 298
#These two values have been output from a single CSD field.
_refine_ls_R_factor_gt 0.0353
_refine_ls_wR_factor_gt 0.0353
_symmetry_cell_setting cubic
_symmetry_space_group_name_H-M 'F d -3 c'
_symmetry_Int_Tables_number 228
loop_
_symmetry_equiv_pos_site_id
_symmetry_equiv_pos_as_xyz
1 x,y,z
2 1/4-x,3/4-y,1/2+z
3 3/4-x,1/2+y,1/4-z
4 1/2+x,1/4-y,3/4-z
5 z,x,y
6 1/2+z,1/4-x,3/4-y
7 1/4-z,3/4-x,1/2+y
8 3/4-z,1/2+x,1/4-y
9 y,z,x
10 3/4-y,1/2+z,1/4-x
11 1/2+y,1/4-z,3/4-x
12 1/4-y,3/4-z,1/2+x
13 3/4+y,1/4+x,-z
14 1/2-y,1/2-x,1/2-z
15 1/4+y,-x,3/4+z
16 -y,3/4+x,1/4+z
17 3/4+x,1/4+z,-y
18 -x,3/4+z,1/4+y
19 1/2-x,1/2-z,1/2-y
20 1/4+x,-z,3/4+y
21 3/4+z,1/4+y,-x
22 1/4+z,-y,3/4+x
23 -z,3/4+y,1/4+x
24 1/2-z,1/2-y,1/2-x
25 x,1/2+y,1/2+z
26 1/4-x,1/4-y,z
27 3/4-x,y,3/4-z
28 1/2+x,3/4-y,1/4-z
29 z,1/2+x,1/2+y
30 1/2+z,3/4-x,1/4-y
31 1/4-z,1/4-x,y
32 3/4-z,x,3/4-y
33 y,1/2+z,1/2+x
34 3/4-y,z,3/4-x
35 1/2+y,3/4-z,1/4-x
36 1/4-y,1/4-z,x
37 3/4+y,3/4+x,1/2-z
38 1/2-y,-x,-z
39 1/4+y,1/2-x,1/4+z
40 -y,1/4+x,3/4+z
41 3/4+x,3/4+z,1/2-y
42 -x,1/4+z,3/4+y
43 1/2-x,-z,-y
44 1/4+x,1/2-z,1/4+y
45 3/4+z,3/4+y,1/2-x
46 1/4+z,1/2-y,1/4+x
47 -z,1/4+y,3/4+x
48 1/2-z,-y,-x
49 1/2+x,y,1/2+z
50 3/4-x,3/4-y,z
51 1/4-x,1/2+y,3/4-z
52 x,1/4-y,1/4-z
53 1/2+z,x,1/2+y
54 z,1/4-x,1/4-y
55 3/4-z,3/4-x,y
56 1/4-z,1/2+x,3/4-y
57 1/2+y,z,1/2+x
58 1/4-y,1/2+z,3/4-x
59 y,1/4-z,1/4-x
60 3/4-y,3/4-z,x
61 1/4+y,1/4+x,1/2-z
62 -y,1/2-x,-z
63 3/4+y,-x,1/4+z
64 1/2-y,3/4+x,3/4+z
65 1/4+x,1/4+z,1/2-y
66 1/2-x,3/4+z,3/4+y
67 -x,1/2-z,-y
68 3/4+x,-z,1/4+y
69 1/4+z,1/4+y,1/2-x
70 3/4+z,-y,1/4+x
71 1/2-z,3/4+y,3/4+x
72 -z,1/2-y,-x
73 1/2+x,1/2+y,z
74 3/4-x,1/4-y,1/2+z
75 1/4-x,y,1/4-z
76 x,3/4-y,3/4-z
77 1/2+z,1/2+x,y
78 z,3/4-x,3/4-y
79 3/4-z,1/4-x,1/2+y
80 1/4-z,x,1/4-y
81 1/2+y,1/2+z,x
82 1/4-y,z,1/4-x
83 y,3/4-z,3/4-x
84 3/4-y,1/4-z,1/2+x
85 1/4+y,3/4+x,-z
86 -y,-x,1/2-z
87 3/4+y,1/2-x,3/4+z
88 1/2-y,1/4+x,1/4+z
89 1/4+x,3/4+z,-y
90 1/2-x,1/4+z,1/4+y
91 -x,-z,1/2-y
92 3/4+x,1/2-z,3/4+y
93 1/4+z,3/4+y,-x
94 3/4+z,1/2-y,3/4+x
95 1/2-z,1/4+y,1/4+x
96 -z,-y,1/2-x
97 -x,-y,-z
98 -1/4+x,-3/4+y,-1/2-z
99 -3/4+x,-1/2-y,-1/4+z
100 -1/2-x,-1/4+y,-3/4+z
101 -z,-x,-y
102 -1/2-z,-1/4+x,-3/4+y
103 -1/4+z,-3/4+x,-1/2-y
104 -3/4+z,-1/2-x,-1/4+y
105 -y,-z,-x
106 -3/4+y,-1/2-z,-1/4+x
107 -1/2-y,-1/4+z,-3/4+x
108 -1/4+y,-3/4+z,-1/2-x
109 -3/4-y,-1/4-x,z
110 -1/2+y,-1/2+x,-1/2+z
111 -1/4-y,x,-3/4-z
112 y,-3/4-x,-1/4-z
113 -3/4-x,-1/4-z,y
114 x,-3/4-z,-1/4-y
115 -1/2+x,-1/2+z,-1/2+y
116 -1/4-x,z,-3/4-y
117 -3/4-z,-1/4-y,x
118 -1/4-z,y,-3/4-x
119 z,-3/4-y,-1/4-x
120 -1/2+z,-1/2+y,-1/2+x
121 -x,-1/2-y,-1/2-z
122 -1/4+x,-1/4+y,-z
123 -3/4+x,-y,-3/4+z
124 -1/2-x,-3/4+y,-1/4+z
125 -z,-1/2-x,-1/2-y
126 -1/2-z,-3/4+x,-1/4+y
127 -1/4+z,-1/4+x,-y
128 -3/4+z,-x,-3/4+y
129 -y,-1/2-z,-1/2-x
130 -3/4+y,-z,-3/4+x
131 -1/2-y,-3/4+z,-1/4+x
132 -1/4+y,-1/4+z,-x
133 -3/4-y,-3/4-x,-1/2+z
134 -1/2+y,x,z
135 -1/4-y,-1/2+x,-1/4-z
136 y,-1/4-x,-3/4-z
137 -3/4-x,-3/4-z,-1/2+y
138 x,-1/4-z,-3/4-y
139 -1/2+x,z,y
140 -1/4-x,-1/2+z,-1/4-y
141 -3/4-z,-3/4-y,-1/2+x
142 -1/4-z,-1/2+y,-1/4-x
143 z,-1/4-y,-3/4-x
144 -1/2+z,y,x
145 -1/2-x,-y,-1/2-z
146 -3/4+x,-3/4+y,-z
147 -1/4+x,-1/2-y,-3/4+z
148 -x,-1/4+y,-1/4+z
149 -1/2-z,-x,-1/2-y
150 -z,-1/4+x,-1/4+y
151 -3/4+z,-3/4+x,-y
152 -1/4+z,-1/2-x,-3/4+y
153 -1/2-y,-z,-1/2-x
154 -1/4+y,-1/2-z,-3/4+x
155 -y,-1/4+z,-1/4+x
156 -3/4+y,-3/4+z,-x
157 -1/4-y,-1/4-x,-1/2+z
158 y,-1/2+x,z
159 -3/4-y,x,-1/4-z
160 -1/2+y,-3/4-x,-3/4-z
161 -1/4-x,-1/4-z,-1/2+y
162 -1/2+x,-3/4-z,-3/4-y
163 x,-1/2+z,y
164 -3/4-x,z,-1/4-y
165 -1/4-z,-1/4-y,-1/2+x
166 -3/4-z,y,-1/4-x
167 -1/2+z,-3/4-y,-3/4-x
168 z,-1/2+y,x
169 -1/2-x,-1/2-y,-z
170 -3/4+x,-1/4+y,-1/2-z
171 -1/4+x,-y,-1/4+z
172 -x,-3/4+y,-3/4+z
173 -1/2-z,-1/2-x,-y
174 -z,-3/4+x,-3/4+y
175 -3/4+z,-1/4+x,-1/2-y
176 -1/4+z,-x,-1/4+y
177 -1/2-y,-1/2-z,-x
178 -1/4+y,-z,-1/4+x
179 -y,-3/4+z,-3/4+x
180 -3/4+y,-1/4+z,-1/2-x
181 -1/4-y,-3/4-x,z
182 y,x,-1/2+z
183 -3/4-y,-1/2+x,-3/4-z
184 -1/2+y,-1/4-x,-1/4-z
185 -1/4-x,-3/4-z,y
186 -1/2+x,-1/4-z,-1/4-y
187 x,z,-1/2+y
188 -3/4-x,-1/2+z,-3/4-y
189 -1/4-z,-3/4-y,x
190 -3/4-z,-1/2+y,-3/4-x
191 -1/2+z,-1/4-y,-1/4-x
192 z,y,-1/2+x
_cell_length_a 25.5664(5)
_cell_length_b 25.5664(5)
_cell_length_c 25.5664(5)
_cell_angle_alpha 90
_cell_angle_beta 90
_cell_angle_gamma 90
_cell_formula_units_Z 16
loop_
_atom_type_symbol
_atom_type_radius_bond
C 0.68
H 0.23
Er 1.89
O 0.68
Zn 1.22
loop_
_atom_site_label
_atom_site_type_symbol
_atom_site_fract_x
_atom_site_fract_y
_atom_site_fract_z
Zn1 Zn 0.25000 0.25000 0.00000
Er1 Er 0.50000 0.25000 0.00000
C1 C 0.37282(15) 0.25309(15) 0.00842(15)
O1 O 0.43312(11) 0.18312(11) 0.00000
O2 O 0.41374(11) 0.28060(12) 0.00838(12)
O3 O 0.32804(12) 0.27204(12) 0.01337(12)
C2 C 0.37930(17) 0.19509(18) 0.0025(2)
H1 H 0.36347 0.17726 0.03199
H2 H 0.36201 0.18336 -0.02919
Zn2 Zn 0.37500 0.37500 -0.12500
O4 O 0.2934(2) 0.37500 -0.12500
H3 H 0.28228 0.38551 -0.09545
O5 O 0.1677(7) 0.37500 -0.12500
H4 H 0.18749 0.35543 -0.14322
H5? H 0.18157 0.40510 -0.12215
C1FC C 0.50309(15) 0.12282(15) -0.00842(15)
O2FC O 0.53060(11) 0.16374(12) -0.00838(12)
O3FC O 0.52204(12) 0.07804(12) -0.01337(12)
C2FC C 0.44509(17) 0.12930(18) -0.0025(2)
H1FC H 0.42726 0.11347 -0.03199
H2FC H 0.43336 0.11201 0.02919
C1W C 0.49158(15) 0.24691(15) 0.12718(15)
O1W O 0.50000(11) 0.31688(11) 0.06688
O2W O 0.49162(11) 0.21940(12) 0.08626(12)
O3W O 0.48663(12) 0.22796(12) 0.17196(12)
C2W C 0.49750(17) 0.30491(18) 0.1207(2)
H1W H 0.46801 0.32274 0.13653
H2W H 0.52919 0.31664 0.13799
C1CA C 0.50842(15) 0.37718(15) -0.00309(15)
O2CA O 0.50838(11) 0.33626(12) -0.03060(12)
O3CA O 0.51337(12) 0.42196(12) -0.02204(12)
C2CA C 0.50250(17) 0.37070(18) 0.05491(20)
H1CA H 0.53199 0.38653 0.07274
H2CA H 0.47081 0.38799 0.06664
C1OA C 0.62718(15) 0.25842(15) 0.00309(15)
O1OA O 0.56688(11) 0.25000(11) -0.06688
O2OA O 0.58626(11) 0.25838(12) 0.03060(12)
O3OA O 0.67196(12) 0.26337(12) 0.02204(12)
C2OA C 0.62070(17) 0.25250(18) -0.05491(20)
H1OA H 0.63653 0.28199 -0.07274
H2OA H 0.63799 0.22081 -0.06664
C1EC C 0.49691(15) 0.24158(15) -0.12718(15)
O2EC O 0.46940(11) 0.24162(12) -0.08626(12)
O3EC O 0.47796(12) 0.23663(12) -0.17196(12)
C2EC C 0.55491(17) 0.24750(18) -0.1207(2)
H1EC H 0.57274 0.21801 -0.13653
H2EC H 0.56664 0.27919 -0.13799
Zn1I Zn 0.50000 0.50000 0.00000
Zn1S Zn 0.50000 0.00000 0.00000
Zn1W Zn 0.50000 0.25000 0.25000
Zn1Z Zn 0.50000 0.25000 -0.25000
Zn1OA Zn 0.75000 0.25000 0.00000
O3FB O 0.27204(12) 0.23663(12) -0.07804(12)
O3AC O 0.23663(12) 0.32804(12) -0.02204(12)
O3YC O 0.26337(12) 0.17196(12) 0.02204(12)
O3ZD O 0.22796(12) 0.26337(12) 0.07804(12)
O3LF O 0.17196(12) 0.22796(12) -0.01337(12)
H3WB H 0.28228 0.36449 -0.15455
O4F O 0.3750(2) 0.45660 -0.12500
H3F H 0.34545 0.46772 -0.11449
H3CA H 0.40455 0.46772 -0.13551
O4I O 0.3750(2) 0.37500 -0.04340
H3I H 0.36449 0.40455 -0.03228
H3FB H 0.38551 0.34545 -0.03228
O4Z O 0.4566(2) 0.37500 -0.12500
H3Z H 0.46772 0.38551 -0.15455
H3WA H 0.46772 0.36449 -0.09545
O4FA O 0.3750(2) 0.37500 -0.20660
H3FA H 0.38551 0.40455 -0.21772
H3EC H 0.36449 0.34545 -0.21772
O4ZA O 0.3750(2) 0.29340 -0.12500
H3ZA H 0.40455 0.28228 -0.11449
H3AC H 0.34545 0.28228 -0.13551
H4WB H 0.18749 0.39457 -0.10678
#END
