
#######################################################################
#
#                 Cambridge Crystallographic Data Centre
#                                CCDC
#
#######################################################################
#
# If this CIF has been generated from an entry in the Cambridge
# Structural Database, then it will include bibliographic, chemical,
# crystal, experimental, refinement or atomic coordinate data resulting
# from the CCDC's data processing and validation procedures.
#
#######################################################################

data_CSD_CIF_IDOLOF
_audit_creation_date 2018-08-06
_audit_creation_method CSD-ConQuest-V1
_database_code_CSD IDOLOF
_database_code_depnum_ccdc_archive 'CCDC 1851035'
_chemical_formula_sum 'C24 H40 O38 Y2 Zn3'
_chemical_formula_moiety
;
2(C12 H12 O15 Y1 Zn1 1-)n,H12 O6 Zn1 2+,2(H2 O1)
;
_journal_coden_Cambridge 1350
_journal_volume 20
_journal_year 2018
_journal_page_first 4942
_journal_name_full 'CrystEngComm '
loop_
_publ_author_name
"F.Igoa"
"S.Martinez"
"K.P.S.Zanoni"
"J.Castiglioni"
"L.Suescun"
"J.Gonzalez-Platas"
"A.S.S.de Camargo"
"C.Kremer"
"J.Torres"
_chemical_name_systematic
;
catena-[hexa-aqua-zinc(ii) 
bis(tris(\m-2,2'-oxydiacetato)-yttrium(iii)-zinc(ii)) dihydrate]
;
_cell_volume  16730.271
_exptl_crystal_colour 'colorless'
_exptl_crystal_density_diffrn 2.065
_exptl_crystal_description 'block'
_diffrn_ambient_temperature 298
#These two values have been output from a single CSD field.
_refine_ls_R_factor_gt 0.067
_refine_ls_wR_factor_gt 0.067
_symmetry_cell_setting cubic
_symmetry_space_group_name_H-M 'F d -3 c'
_symmetry_Int_Tables_number 228
loop_
_symmetry_equiv_pos_site_id
_symmetry_equiv_pos_as_xyz
1 x,y,z
2 1/4-x,3/4-y,1/2+z
3 3/4-x,1/2+y,1/4-z
4 1/2+x,1/4-y,3/4-z
5 z,x,y
6 1/2+z,1/4-x,3/4-y
7 1/4-z,3/4-x,1/2+y
8 3/4-z,1/2+x,1/4-y
9 y,z,x
10 3/4-y,1/2+z,1/4-x
11 1/2+y,1/4-z,3/4-x
12 1/4-y,3/4-z,1/2+x
13 3/4+y,1/4+x,-z
14 1/2-y,1/2-x,1/2-z
15 1/4+y,-x,3/4+z
16 -y,3/4+x,1/4+z
17 3/4+x,1/4+z,-y
18 -x,3/4+z,1/4+y
19 1/2-x,1/2-z,1/2-y
20 1/4+x,-z,3/4+y
21 3/4+z,1/4+y,-x
22 1/4+z,-y,3/4+x
23 -z,3/4+y,1/4+x
24 1/2-z,1/2-y,1/2-x
25 x,1/2+y,1/2+z
26 1/4-x,1/4-y,z
27 3/4-x,y,3/4-z
28 1/2+x,3/4-y,1/4-z
29 z,1/2+x,1/2+y
30 1/2+z,3/4-x,1/4-y
31 1/4-z,1/4-x,y
32 3/4-z,x,3/4-y
33 y,1/2+z,1/2+x
34 3/4-y,z,3/4-x
35 1/2+y,3/4-z,1/4-x
36 1/4-y,1/4-z,x
37 3/4+y,3/4+x,1/2-z
38 1/2-y,-x,-z
39 1/4+y,1/2-x,1/4+z
40 -y,1/4+x,3/4+z
41 3/4+x,3/4+z,1/2-y
42 -x,1/4+z,3/4+y
43 1/2-x,-z,-y
44 1/4+x,1/2-z,1/4+y
45 3/4+z,3/4+y,1/2-x
46 1/4+z,1/2-y,1/4+x
47 -z,1/4+y,3/4+x
48 1/2-z,-y,-x
49 1/2+x,y,1/2+z
50 3/4-x,3/4-y,z
51 1/4-x,1/2+y,3/4-z
52 x,1/4-y,1/4-z
53 1/2+z,x,1/2+y
54 z,1/4-x,1/4-y
55 3/4-z,3/4-x,y
56 1/4-z,1/2+x,3/4-y
57 1/2+y,z,1/2+x
58 1/4-y,1/2+z,3/4-x
59 y,1/4-z,1/4-x
60 3/4-y,3/4-z,x
61 1/4+y,1/4+x,1/2-z
62 -y,1/2-x,-z
63 3/4+y,-x,1/4+z
64 1/2-y,3/4+x,3/4+z
65 1/4+x,1/4+z,1/2-y
66 1/2-x,3/4+z,3/4+y
67 -x,1/2-z,-y
68 3/4+x,-z,1/4+y
69 1/4+z,1/4+y,1/2-x
70 3/4+z,-y,1/4+x
71 1/2-z,3/4+y,3/4+x
72 -z,1/2-y,-x
73 1/2+x,1/2+y,z
74 3/4-x,1/4-y,1/2+z
75 1/4-x,y,1/4-z
76 x,3/4-y,3/4-z
77 1/2+z,1/2+x,y
78 z,3/4-x,3/4-y
79 3/4-z,1/4-x,1/2+y
80 1/4-z,x,1/4-y
81 1/2+y,1/2+z,x
82 1/4-y,z,1/4-x
83 y,3/4-z,3/4-x
84 3/4-y,1/4-z,1/2+x
85 1/4+y,3/4+x,-z
86 -y,-x,1/2-z
87 3/4+y,1/2-x,3/4+z
88 1/2-y,1/4+x,1/4+z
89 1/4+x,3/4+z,-y
90 1/2-x,1/4+z,1/4+y
91 -x,-z,1/2-y
92 3/4+x,1/2-z,3/4+y
93 1/4+z,3/4+y,-x
94 3/4+z,1/2-y,3/4+x
95 1/2-z,1/4+y,1/4+x
96 -z,-y,1/2-x
97 -x,-y,-z
98 -1/4+x,-3/4+y,-1/2-z
99 -3/4+x,-1/2-y,-1/4+z
100 -1/2-x,-1/4+y,-3/4+z
101 -z,-x,-y
102 -1/2-z,-1/4+x,-3/4+y
103 -1/4+z,-3/4+x,-1/2-y
104 -3/4+z,-1/2-x,-1/4+y
105 -y,-z,-x
106 -3/4+y,-1/2-z,-1/4+x
107 -1/2-y,-1/4+z,-3/4+x
108 -1/4+y,-3/4+z,-1/2-x
109 -3/4-y,-1/4-x,z
110 -1/2+y,-1/2+x,-1/2+z
111 -1/4-y,x,-3/4-z
112 y,-3/4-x,-1/4-z
113 -3/4-x,-1/4-z,y
114 x,-3/4-z,-1/4-y
115 -1/2+x,-1/2+z,-1/2+y
116 -1/4-x,z,-3/4-y
117 -3/4-z,-1/4-y,x
118 -1/4-z,y,-3/4-x
119 z,-3/4-y,-1/4-x
120 -1/2+z,-1/2+y,-1/2+x
121 -x,-1/2-y,-1/2-z
122 -1/4+x,-1/4+y,-z
123 -3/4+x,-y,-3/4+z
124 -1/2-x,-3/4+y,-1/4+z
125 -z,-1/2-x,-1/2-y
126 -1/2-z,-3/4+x,-1/4+y
127 -1/4+z,-1/4+x,-y
128 -3/4+z,-x,-3/4+y
129 -y,-1/2-z,-1/2-x
130 -3/4+y,-z,-3/4+x
131 -1/2-y,-3/4+z,-1/4+x
132 -1/4+y,-1/4+z,-x
133 -3/4-y,-3/4-x,-1/2+z
134 -1/2+y,x,z
135 -1/4-y,-1/2+x,-1/4-z
136 y,-1/4-x,-3/4-z
137 -3/4-x,-3/4-z,-1/2+y
138 x,-1/4-z,-3/4-y
139 -1/2+x,z,y
140 -1/4-x,-1/2+z,-1/4-y
141 -3/4-z,-3/4-y,-1/2+x
142 -1/4-z,-1/2+y,-1/4-x
143 z,-1/4-y,-3/4-x
144 -1/2+z,y,x
145 -1/2-x,-y,-1/2-z
146 -3/4+x,-3/4+y,-z
147 -1/4+x,-1/2-y,-3/4+z
148 -x,-1/4+y,-1/4+z
149 -1/2-z,-x,-1/2-y
150 -z,-1/4+x,-1/4+y
151 -3/4+z,-3/4+x,-y
152 -1/4+z,-1/2-x,-3/4+y
153 -1/2-y,-z,-1/2-x
154 -1/4+y,-1/2-z,-3/4+x
155 -y,-1/4+z,-1/4+x
156 -3/4+y,-3/4+z,-x
157 -1/4-y,-1/4-x,-1/2+z
158 y,-1/2+x,z
159 -3/4-y,x,-1/4-z
160 -1/2+y,-3/4-x,-3/4-z
161 -1/4-x,-1/4-z,-1/2+y
162 -1/2+x,-3/4-z,-3/4-y
163 x,-1/2+z,y
164 -3/4-x,z,-1/4-y
165 -1/4-z,-1/4-y,-1/2+x
166 -3/4-z,y,-1/4-x
167 -1/2+z,-3/4-y,-3/4-x
168 z,-1/2+y,x
169 -1/2-x,-1/2-y,-z
170 -3/4+x,-1/4+y,-1/2-z
171 -1/4+x,-y,-1/4+z
172 -x,-3/4+y,-3/4+z
173 -1/2-z,-1/2-x,-y
174 -z,-3/4+x,-3/4+y
175 -3/4+z,-1/4+x,-1/2-y
176 -1/4+z,-x,-1/4+y
177 -1/2-y,-1/2-z,-x
178 -1/4+y,-z,-1/4+x
179 -y,-3/4+z,-3/4+x
180 -3/4+y,-1/4+z,-1/2-x
181 -1/4-y,-3/4-x,z
182 y,x,-1/2+z
183 -3/4-y,-1/2+x,-3/4-z
184 -1/2+y,-1/4-x,-1/4-z
185 -1/4-x,-3/4-z,y
186 -1/2+x,-1/4-z,-1/4-y
187 x,z,-1/2+y
188 -3/4-x,-1/2+z,-3/4-y
189 -1/4-z,-3/4-y,x
190 -3/4-z,-1/2+y,-3/4-x
191 -1/2+z,-1/4-y,-1/4-x
192 z,y,-1/2+x
_cell_length_a 25.5761(10)
_cell_length_b 25.5761(10)
_cell_length_c 25.5761(10)
_cell_angle_alpha 90
_cell_angle_beta 90
_cell_angle_gamma 90
_cell_formula_units_Z 16
loop_
_atom_type_symbol
_atom_type_radius_bond
C 0.68
H 0.23
O 0.68
Y 1.90
Zn 1.22
loop_
_atom_site_label
_atom_site_type_symbol
_atom_site_fract_x
_atom_site_fract_y
_atom_site_fract_z
Zn1 Zn 0.75000 0.50000 0.75000
Y1 Y 0.75000 0.50000 0.50000
O1 O 0.8170(2) 0.50000 0.5670(2)
C1 C 0.7468(3) 0.4921(3) 0.6270(3)
O2 O 0.7198(2) 0.4918(3) 0.5867(2)
O3 O 0.7277(2) 0.4868(3) 0.6720(2)
C2 C 0.8052(4) 0.4974(4) 0.6207(4)
H1 H 0.81731 0.52885 0.63809
H2 H 0.82267 0.46761 0.63632
Zn2 Zn 0.62500 0.62500 0.62500
O4 O 0.7063(4) 0.62500 0.62500
H3 H 0.71920 0.62638 0.65720
O5 O 0.8303(11) 0.62500 0.62500
C1U C 0.8770(3) 0.5079(3) 0.4968(3)
O2U O 0.8367(2) 0.5082(3) 0.4698(2)
O3U O 0.9220(2) 0.5132(3) 0.4777(2)
C2U C 0.8707(4) 0.5026(4) 0.5552(4)
H1U H 0.88809 0.47115 0.56731
H2U H 0.88632 0.53239 0.57267
O1DA O 0.6830(2) 0.43300 0.5000(2)
C1DA C 0.6230(3) 0.5032(3) 0.4921(3)
O2DA O 0.6633(2) 0.5302(3) 0.4918(2)
O3DA O 0.5780(2) 0.5223(3) 0.4868(2)
C2DA C 0.6293(4) 0.4448(4) 0.4974(4)
H1DA H 0.61191 0.43269 0.52885
H2DA H 0.61368 0.42733 0.46761
C1PA C 0.7532(3) 0.3730(3) 0.5079(3)
O2PA O 0.7802(2) 0.4133(3) 0.5082(2)
O3PA O 0.7723(2) 0.3280(3) 0.5132(2)
C2PA C 0.6948(4) 0.3793(4) 0.5026(4)
H1PA H 0.68269 0.36191 0.47115
H2PA H 0.67733 0.36368 0.53239
O1CC O 0.7500(2) 0.56700 0.4330(2)
C1CC C 0.7579(3) 0.6270(3) 0.5032(3)
O2CC O 0.7582(2) 0.5867(3) 0.5302(2)
O3CC O 0.7632(2) 0.6720(3) 0.5223(2)
C2CC C 0.7526(4) 0.6207(4) 0.4448(4)
H1CC H 0.72115 0.63809 0.43269
H2CC H 0.78239 0.63632 0.42733
C1FC C 0.7421(3) 0.4968(3) 0.3730(3)
O2FC O 0.7418(2) 0.4698(3) 0.4133(2)
O3FC O 0.7368(2) 0.4777(3) 0.3280(2)
C2FC C 0.7474(4) 0.5552(4) 0.3793(4)
H1FC H 0.77885 0.56731 0.36191
H2FC H 0.71761 0.57267 0.36368
Zn1D Zn 0.75000 0.75000 0.50000
Zn1N Zn 0.75000 0.25000 0.50000
Zn1U Zn 1.00000 0.50000 0.50000
Zn1DA Zn 0.50000 0.50000 0.50000
Zn1UA Zn 0.75000 0.50000 0.25000
O3IA O 0.7632(2) 0.5780(3) 0.7277(2)
O3AB O 0.6720(2) 0.5223(3) 0.7632(2)
O3WC O 0.8280(2) 0.4777(3) 0.7368(2)
O3NE O 0.7723(2) 0.5132(3) 0.8280(2)
O3WF O 0.7368(2) 0.4220(3) 0.7723(2)
H3YA H 0.71920 0.62362 0.59280
O4D O 0.6250(4) 0.70630 0.62500
H3D H 0.65720 0.71920 0.62638
H3AC H 0.59280 0.71920 0.62362
O4H O 0.6250(4) 0.62500 0.70630
H3H H 0.62638 0.65720 0.71920
H3IA H 0.62362 0.59280 0.71920
O4Y O 0.5437(4) 0.62500 0.62500
H3Y H 0.53080 0.62362 0.65720
H3VB H 0.53080 0.62638 0.59280
O4DA O 0.6250(4) 0.54370 0.62500
H3DA H 0.59280 0.53080 0.62638
H3AB H 0.65720 0.53080 0.62362
O4FB O 0.6250(4) 0.62500 0.54370
H3FB H 0.62638 0.59280 0.53080
H3CC H 0.62362 0.65720 0.53080
#END
