
#######################################################################
#
#                 Cambridge Crystallographic Data Centre
#                                CCDC
#
#######################################################################
#
# If this CIF has been generated from an entry in the Cambridge
# Structural Database, then it will include bibliographic, chemical,
# crystal, experimental, refinement or atomic coordinate data resulting
# from the CCDC's data processing and validation procedures.
#
#######################################################################

data_CSD_CIF_IDOLIZ
_audit_creation_date 2018-08-06
_audit_creation_method CSD-ConQuest-V1
_database_code_CSD IDOLIZ
_database_code_depnum_ccdc_archive 'CCDC 1851034'
_chemical_formula_sum 'C24 H42 Dy2 O39 Zn3'
_chemical_formula_moiety
;
2(C12 H12 Dy1 O15 Zn1 1-)n,H12 O6 Zn1 2+,3(H2 O1)
;
_journal_coden_Cambridge 1350
_journal_volume 20
_journal_year 2018
_journal_page_first 4942
_journal_name_full 'CrystEngComm '
loop_
_publ_author_name
"F.Igoa"
"S.Martinez"
"K.P.S.Zanoni"
"J.Castiglioni"
"L.Suescun"
"J.Gonzalez-Platas"
"A.S.S.de Camargo"
"C.Kremer"
"J.Torres"
_chemical_name_systematic
;
catena-[hexa-aqua-zinc(ii) 
bis(tris(\m-2,2'-oxydiacetato)-dysprosium(iii)-zinc(ii)) trihydrate]
;
_cell_volume  16851.249
_exptl_crystal_colour 'colorless'
_exptl_crystal_density_diffrn 2.317
_exptl_crystal_description 'prism'
_diffrn_ambient_temperature 293
#These two values have been output from a single CSD field.
_refine_ls_R_factor_gt 0.0297
_refine_ls_wR_factor_gt 0.0297
_symmetry_cell_setting cubic
_symmetry_space_group_name_H-M 'F d -3 c'
_symmetry_Int_Tables_number 228
loop_
_symmetry_equiv_pos_site_id
_symmetry_equiv_pos_as_xyz
1 x,y,z
2 1/4-x,3/4-y,1/2+z
3 3/4-x,1/2+y,1/4-z
4 1/2+x,1/4-y,3/4-z
5 z,x,y
6 1/2+z,1/4-x,3/4-y
7 1/4-z,3/4-x,1/2+y
8 3/4-z,1/2+x,1/4-y
9 y,z,x
10 3/4-y,1/2+z,1/4-x
11 1/2+y,1/4-z,3/4-x
12 1/4-y,3/4-z,1/2+x
13 3/4+y,1/4+x,-z
14 1/2-y,1/2-x,1/2-z
15 1/4+y,-x,3/4+z
16 -y,3/4+x,1/4+z
17 3/4+x,1/4+z,-y
18 -x,3/4+z,1/4+y
19 1/2-x,1/2-z,1/2-y
20 1/4+x,-z,3/4+y
21 3/4+z,1/4+y,-x
22 1/4+z,-y,3/4+x
23 -z,3/4+y,1/4+x
24 1/2-z,1/2-y,1/2-x
25 x,1/2+y,1/2+z
26 1/4-x,1/4-y,z
27 3/4-x,y,3/4-z
28 1/2+x,3/4-y,1/4-z
29 z,1/2+x,1/2+y
30 1/2+z,3/4-x,1/4-y
31 1/4-z,1/4-x,y
32 3/4-z,x,3/4-y
33 y,1/2+z,1/2+x
34 3/4-y,z,3/4-x
35 1/2+y,3/4-z,1/4-x
36 1/4-y,1/4-z,x
37 3/4+y,3/4+x,1/2-z
38 1/2-y,-x,-z
39 1/4+y,1/2-x,1/4+z
40 -y,1/4+x,3/4+z
41 3/4+x,3/4+z,1/2-y
42 -x,1/4+z,3/4+y
43 1/2-x,-z,-y
44 1/4+x,1/2-z,1/4+y
45 3/4+z,3/4+y,1/2-x
46 1/4+z,1/2-y,1/4+x
47 -z,1/4+y,3/4+x
48 1/2-z,-y,-x
49 1/2+x,y,1/2+z
50 3/4-x,3/4-y,z
51 1/4-x,1/2+y,3/4-z
52 x,1/4-y,1/4-z
53 1/2+z,x,1/2+y
54 z,1/4-x,1/4-y
55 3/4-z,3/4-x,y
56 1/4-z,1/2+x,3/4-y
57 1/2+y,z,1/2+x
58 1/4-y,1/2+z,3/4-x
59 y,1/4-z,1/4-x
60 3/4-y,3/4-z,x
61 1/4+y,1/4+x,1/2-z
62 -y,1/2-x,-z
63 3/4+y,-x,1/4+z
64 1/2-y,3/4+x,3/4+z
65 1/4+x,1/4+z,1/2-y
66 1/2-x,3/4+z,3/4+y
67 -x,1/2-z,-y
68 3/4+x,-z,1/4+y
69 1/4+z,1/4+y,1/2-x
70 3/4+z,-y,1/4+x
71 1/2-z,3/4+y,3/4+x
72 -z,1/2-y,-x
73 1/2+x,1/2+y,z
74 3/4-x,1/4-y,1/2+z
75 1/4-x,y,1/4-z
76 x,3/4-y,3/4-z
77 1/2+z,1/2+x,y
78 z,3/4-x,3/4-y
79 3/4-z,1/4-x,1/2+y
80 1/4-z,x,1/4-y
81 1/2+y,1/2+z,x
82 1/4-y,z,1/4-x
83 y,3/4-z,3/4-x
84 3/4-y,1/4-z,1/2+x
85 1/4+y,3/4+x,-z
86 -y,-x,1/2-z
87 3/4+y,1/2-x,3/4+z
88 1/2-y,1/4+x,1/4+z
89 1/4+x,3/4+z,-y
90 1/2-x,1/4+z,1/4+y
91 -x,-z,1/2-y
92 3/4+x,1/2-z,3/4+y
93 1/4+z,3/4+y,-x
94 3/4+z,1/2-y,3/4+x
95 1/2-z,1/4+y,1/4+x
96 -z,-y,1/2-x
97 -x,-y,-z
98 -1/4+x,-3/4+y,-1/2-z
99 -3/4+x,-1/2-y,-1/4+z
100 -1/2-x,-1/4+y,-3/4+z
101 -z,-x,-y
102 -1/2-z,-1/4+x,-3/4+y
103 -1/4+z,-3/4+x,-1/2-y
104 -3/4+z,-1/2-x,-1/4+y
105 -y,-z,-x
106 -3/4+y,-1/2-z,-1/4+x
107 -1/2-y,-1/4+z,-3/4+x
108 -1/4+y,-3/4+z,-1/2-x
109 -3/4-y,-1/4-x,z
110 -1/2+y,-1/2+x,-1/2+z
111 -1/4-y,x,-3/4-z
112 y,-3/4-x,-1/4-z
113 -3/4-x,-1/4-z,y
114 x,-3/4-z,-1/4-y
115 -1/2+x,-1/2+z,-1/2+y
116 -1/4-x,z,-3/4-y
117 -3/4-z,-1/4-y,x
118 -1/4-z,y,-3/4-x
119 z,-3/4-y,-1/4-x
120 -1/2+z,-1/2+y,-1/2+x
121 -x,-1/2-y,-1/2-z
122 -1/4+x,-1/4+y,-z
123 -3/4+x,-y,-3/4+z
124 -1/2-x,-3/4+y,-1/4+z
125 -z,-1/2-x,-1/2-y
126 -1/2-z,-3/4+x,-1/4+y
127 -1/4+z,-1/4+x,-y
128 -3/4+z,-x,-3/4+y
129 -y,-1/2-z,-1/2-x
130 -3/4+y,-z,-3/4+x
131 -1/2-y,-3/4+z,-1/4+x
132 -1/4+y,-1/4+z,-x
133 -3/4-y,-3/4-x,-1/2+z
134 -1/2+y,x,z
135 -1/4-y,-1/2+x,-1/4-z
136 y,-1/4-x,-3/4-z
137 -3/4-x,-3/4-z,-1/2+y
138 x,-1/4-z,-3/4-y
139 -1/2+x,z,y
140 -1/4-x,-1/2+z,-1/4-y
141 -3/4-z,-3/4-y,-1/2+x
142 -1/4-z,-1/2+y,-1/4-x
143 z,-1/4-y,-3/4-x
144 -1/2+z,y,x
145 -1/2-x,-y,-1/2-z
146 -3/4+x,-3/4+y,-z
147 -1/4+x,-1/2-y,-3/4+z
148 -x,-1/4+y,-1/4+z
149 -1/2-z,-x,-1/2-y
150 -z,-1/4+x,-1/4+y
151 -3/4+z,-3/4+x,-y
152 -1/4+z,-1/2-x,-3/4+y
153 -1/2-y,-z,-1/2-x
154 -1/4+y,-1/2-z,-3/4+x
155 -y,-1/4+z,-1/4+x
156 -3/4+y,-3/4+z,-x
157 -1/4-y,-1/4-x,-1/2+z
158 y,-1/2+x,z
159 -3/4-y,x,-1/4-z
160 -1/2+y,-3/4-x,-3/4-z
161 -1/4-x,-1/4-z,-1/2+y
162 -1/2+x,-3/4-z,-3/4-y
163 x,-1/2+z,y
164 -3/4-x,z,-1/4-y
165 -1/4-z,-1/4-y,-1/2+x
166 -3/4-z,y,-1/4-x
167 -1/2+z,-3/4-y,-3/4-x
168 z,-1/2+y,x
169 -1/2-x,-1/2-y,-z
170 -3/4+x,-1/4+y,-1/2-z
171 -1/4+x,-y,-1/4+z
172 -x,-3/4+y,-3/4+z
173 -1/2-z,-1/2-x,-y
174 -z,-3/4+x,-3/4+y
175 -3/4+z,-1/4+x,-1/2-y
176 -1/4+z,-x,-1/4+y
177 -1/2-y,-1/2-z,-x
178 -1/4+y,-z,-1/4+x
179 -y,-3/4+z,-3/4+x
180 -3/4+y,-1/4+z,-1/2-x
181 -1/4-y,-3/4-x,z
182 y,x,-1/2+z
183 -3/4-y,-1/2+x,-3/4-z
184 -1/2+y,-1/4-x,-1/4-z
185 -1/4-x,-3/4-z,y
186 -1/2+x,-1/4-z,-1/4-y
187 x,z,-1/2+y
188 -3/4-x,-1/2+z,-3/4-y
189 -1/4-z,-3/4-y,x
190 -3/4-z,-1/2+y,-3/4-x
191 -1/2+z,-1/4-y,-1/4-x
192 z,y,-1/2+x
_cell_length_a 25.6376(6)
_cell_length_b 25.6376(6)
_cell_length_c 25.6376(6)
_cell_angle_alpha 90
_cell_angle_beta 90
_cell_angle_gamma 90
_cell_formula_units_Z 16
loop_
_atom_type_symbol
_atom_type_radius_bond
C 0.68
H 0.23
Dy 1.92
O 0.68
Zn 1.22
loop_
_atom_site_label
_atom_site_type_symbol
_atom_site_fract_x
_atom_site_fract_y
_atom_site_fract_z
Dy1 Dy 0.50000 0.50000 0.75000
Zn1 Zn 0.50000 0.75000 0.75000
O1 O 0.43283(10) 0.56717(10) 0.75000
O2 O 0.53034(11) 0.58685(11) 0.75825(12)
O3 O 0.52150(11) 0.67212(11) 0.76303(12)
C1 C 0.50279(15) 0.62743(14) 0.75827(14)
C2 C 0.44474(17) 0.62071(16) 0.7528(2)
H1 H 0.42718 0.63621 0.78253
H2 H 0.43269 0.63819 0.72150
Zn2 Zn 0.62500 0.62500 0.62500
O4 O 0.54398(18) 0.62500 0.62500
H3 H 0.53057 0.65166 0.64346
H4 H 0.53057 0.59730 0.64183
O5 O 0.4199(5) 0.62500 0.62500
O2GC O 0.41315(11) 0.46966(11) 0.74175(12)
O3GC O 0.32788(11) 0.47850(11) 0.73697(12)
C1GC C 0.37257(15) 0.49721(14) 0.74173(14)
C2GC C 0.37929(17) 0.55526(16) 0.7472(2)
H1GC H 0.36379 0.57282 0.71747
H2GC H 0.36181 0.56731 0.77850
O1Q O 0.56717(10) 0.5000(1) 0.81717
O2Q O 0.46966(11) 0.50825(11) 0.83685(12)
O3Q O 0.47850(11) 0.51303(11) 0.92212(12)
C1Q C 0.49721(15) 0.50827(14) 0.87743(14)
C2Q C 0.55526(17) 0.50280(16) 0.87071(20)
H1Q H 0.57282 0.53253 0.88621
H2Q H 0.56731 0.47150 0.88819
O2FB O 0.58685(11) 0.49175(11) 0.71966(12)
O3FB O 0.67212(11) 0.48697(11) 0.72850(12)
C1FB C 0.62743(15) 0.49173(14) 0.74721(14)
C2FB C 0.62071(17) 0.49720(16) 0.80526(20)
H1FB H 0.63621 0.46747 0.82282
H2FB H 0.63819 0.52850 0.81731
O1QB O 0.5000(1) 0.43283(10) 0.68283
O2QB O 0.50825(11) 0.41315(11) 0.78034(12)
O3QB O 0.51303(11) 0.32788(11) 0.77150(12)
C1QB C 0.50827(15) 0.37257(14) 0.75279(14)
C2QB C 0.50280(17) 0.37929(16) 0.69474(20)
H1QB H 0.53253 0.36379 0.67718
H2QB H 0.47150 0.36181 0.68269
O2AC O 0.49175(11) 0.53034(11) 0.66315(12)
O3AC O 0.48697(11) 0.52150(11) 0.57788(12)
C1AC C 0.49173(15) 0.50279(14) 0.62257(14)
C2AC C 0.49720(17) 0.44474(16) 0.62929(20)
H1AC H 0.46747 0.42718 0.61379
H2AC H 0.52850 0.43269 0.61181
Zn1D Zn 0.75000 0.50000 0.75000
Zn1Q Zn 0.50000 0.50000 1.00000
Zn1V Zn 0.25000 0.50000 0.75000
Zn1IA Zn 0.50000 0.50000 0.50000
Zn1JA Zn 0.50000 0.25000 0.75000
O3DA O 0.48697(11) 0.72850(11) 0.67212(12)
O3CC O 0.57788(11) 0.76303(11) 0.72850(12)
O3XC O 0.51303(11) 0.77150(11) 0.82788(12)
O3PD O 0.47850(11) 0.82788(11) 0.73697(12)
O3WE O 0.42212(11) 0.73697(11) 0.77150(12)
H3YA H 0.53057 0.59834 0.60654
H4YA H 0.53057 0.65270 0.60817
O4D O 0.62500(18) 0.54398 0.62500
H3D H 0.64346 0.53057 0.65166
H4D H 0.64183 0.53057 0.59730
H3AC H 0.60654 0.53057 0.59834
H4AC H 0.60817 0.53057 0.65270
O4H O 0.62500(18) 0.62500 0.54398
H3H H 0.65166 0.64346 0.53057
H4H H 0.59730 0.64183 0.53057
H3IA H 0.59834 0.60654 0.53057
H4IA H 0.65270 0.60817 0.53057
O4Y O 0.70602(18) 0.62500 0.62500
H3Y H 0.71943 0.59834 0.64346
H4Y H 0.71943 0.65270 0.64183
H3VB H 0.71943 0.65166 0.60654
H4VB H 0.71943 0.59730 0.60817
O4DA O 0.62500(18) 0.70602 0.62500
H3DA H 0.60654 0.71943 0.65166
H4DA H 0.60817 0.71943 0.59730
H3AB H 0.64346 0.71943 0.59834
H4AB H 0.64183 0.71943 0.65270
O4FB O 0.62500(18) 0.62500 0.70602
H3FB H 0.65166 0.60654 0.71943
H4FB H 0.59730 0.60817 0.71943
H3CC H 0.59834 0.64346 0.71943
H4CC H 0.65270 0.64183 0.71943
#END
