
#######################################################################
#
#                 Cambridge Crystallographic Data Centre
#                                CCDC
#
#######################################################################
#
# If this CIF has been generated from an entry in the Cambridge
# Structural Database, then it will include bibliographic, chemical,
# crystal, experimental, refinement or atomic coordinate data resulting
# from the CCDC's data processing and validation procedures.
#
#######################################################################

data_CSD_CIF_IDOMAS
_audit_creation_date 2018-08-06
_audit_creation_method CSD-ConQuest-V1
_database_code_CSD IDOMAS
_database_code_depnum_ccdc_archive 'CCDC 1851037'
_chemical_formula_sum 'C24 H40 O38 Yb2 Zn3'
_chemical_formula_moiety
;
2(C12 H12 O15 Yb1 Zn1 1-)n,H12 O6 Zn1 2+,2(H2 O1)
;
_journal_coden_Cambridge 1350
_journal_volume 20
_journal_year 2018
_journal_page_first 4942
_journal_name_full 'CrystEngComm '
loop_
_publ_author_name
"F.Igoa"
"S.Martinez"
"K.P.S.Zanoni"
"J.Castiglioni"
"L.Suescun"
"J.Gonzalez-Platas"
"A.S.S.de Camargo"
"C.Kremer"
"J.Torres"
_chemical_name_systematic
;
catena-[hexa-aqua-zinc bis(tris(\m-2,2'-oxydiacetato)-ytterbium-zinc) 
dihydrate]
;
_cell_volume  16543.949
_exptl_crystal_colour 'colorless'
_exptl_crystal_density_diffrn 2.359
_exptl_crystal_description 'block'
_diffrn_ambient_temperature 298
#These two values have been output from a single CSD field.
_refine_ls_R_factor_gt 0.0529
_refine_ls_wR_factor_gt 0.0529
_symmetry_cell_setting cubic
_symmetry_space_group_name_H-M 'F d -3 c'
_symmetry_Int_Tables_number 228
loop_
_symmetry_equiv_pos_site_id
_symmetry_equiv_pos_as_xyz
1 x,y,z
2 1/4-x,3/4-y,1/2+z
3 3/4-x,1/2+y,1/4-z
4 1/2+x,1/4-y,3/4-z
5 z,x,y
6 1/2+z,1/4-x,3/4-y
7 1/4-z,3/4-x,1/2+y
8 3/4-z,1/2+x,1/4-y
9 y,z,x
10 3/4-y,1/2+z,1/4-x
11 1/2+y,1/4-z,3/4-x
12 1/4-y,3/4-z,1/2+x
13 3/4+y,1/4+x,-z
14 1/2-y,1/2-x,1/2-z
15 1/4+y,-x,3/4+z
16 -y,3/4+x,1/4+z
17 3/4+x,1/4+z,-y
18 -x,3/4+z,1/4+y
19 1/2-x,1/2-z,1/2-y
20 1/4+x,-z,3/4+y
21 3/4+z,1/4+y,-x
22 1/4+z,-y,3/4+x
23 -z,3/4+y,1/4+x
24 1/2-z,1/2-y,1/2-x
25 x,1/2+y,1/2+z
26 1/4-x,1/4-y,z
27 3/4-x,y,3/4-z
28 1/2+x,3/4-y,1/4-z
29 z,1/2+x,1/2+y
30 1/2+z,3/4-x,1/4-y
31 1/4-z,1/4-x,y
32 3/4-z,x,3/4-y
33 y,1/2+z,1/2+x
34 3/4-y,z,3/4-x
35 1/2+y,3/4-z,1/4-x
36 1/4-y,1/4-z,x
37 3/4+y,3/4+x,1/2-z
38 1/2-y,-x,-z
39 1/4+y,1/2-x,1/4+z
40 -y,1/4+x,3/4+z
41 3/4+x,3/4+z,1/2-y
42 -x,1/4+z,3/4+y
43 1/2-x,-z,-y
44 1/4+x,1/2-z,1/4+y
45 3/4+z,3/4+y,1/2-x
46 1/4+z,1/2-y,1/4+x
47 -z,1/4+y,3/4+x
48 1/2-z,-y,-x
49 1/2+x,y,1/2+z
50 3/4-x,3/4-y,z
51 1/4-x,1/2+y,3/4-z
52 x,1/4-y,1/4-z
53 1/2+z,x,1/2+y
54 z,1/4-x,1/4-y
55 3/4-z,3/4-x,y
56 1/4-z,1/2+x,3/4-y
57 1/2+y,z,1/2+x
58 1/4-y,1/2+z,3/4-x
59 y,1/4-z,1/4-x
60 3/4-y,3/4-z,x
61 1/4+y,1/4+x,1/2-z
62 -y,1/2-x,-z
63 3/4+y,-x,1/4+z
64 1/2-y,3/4+x,3/4+z
65 1/4+x,1/4+z,1/2-y
66 1/2-x,3/4+z,3/4+y
67 -x,1/2-z,-y
68 3/4+x,-z,1/4+y
69 1/4+z,1/4+y,1/2-x
70 3/4+z,-y,1/4+x
71 1/2-z,3/4+y,3/4+x
72 -z,1/2-y,-x
73 1/2+x,1/2+y,z
74 3/4-x,1/4-y,1/2+z
75 1/4-x,y,1/4-z
76 x,3/4-y,3/4-z
77 1/2+z,1/2+x,y
78 z,3/4-x,3/4-y
79 3/4-z,1/4-x,1/2+y
80 1/4-z,x,1/4-y
81 1/2+y,1/2+z,x
82 1/4-y,z,1/4-x
83 y,3/4-z,3/4-x
84 3/4-y,1/4-z,1/2+x
85 1/4+y,3/4+x,-z
86 -y,-x,1/2-z
87 3/4+y,1/2-x,3/4+z
88 1/2-y,1/4+x,1/4+z
89 1/4+x,3/4+z,-y
90 1/2-x,1/4+z,1/4+y
91 -x,-z,1/2-y
92 3/4+x,1/2-z,3/4+y
93 1/4+z,3/4+y,-x
94 3/4+z,1/2-y,3/4+x
95 1/2-z,1/4+y,1/4+x
96 -z,-y,1/2-x
97 -x,-y,-z
98 -1/4+x,-3/4+y,-1/2-z
99 -3/4+x,-1/2-y,-1/4+z
100 -1/2-x,-1/4+y,-3/4+z
101 -z,-x,-y
102 -1/2-z,-1/4+x,-3/4+y
103 -1/4+z,-3/4+x,-1/2-y
104 -3/4+z,-1/2-x,-1/4+y
105 -y,-z,-x
106 -3/4+y,-1/2-z,-1/4+x
107 -1/2-y,-1/4+z,-3/4+x
108 -1/4+y,-3/4+z,-1/2-x
109 -3/4-y,-1/4-x,z
110 -1/2+y,-1/2+x,-1/2+z
111 -1/4-y,x,-3/4-z
112 y,-3/4-x,-1/4-z
113 -3/4-x,-1/4-z,y
114 x,-3/4-z,-1/4-y
115 -1/2+x,-1/2+z,-1/2+y
116 -1/4-x,z,-3/4-y
117 -3/4-z,-1/4-y,x
118 -1/4-z,y,-3/4-x
119 z,-3/4-y,-1/4-x
120 -1/2+z,-1/2+y,-1/2+x
121 -x,-1/2-y,-1/2-z
122 -1/4+x,-1/4+y,-z
123 -3/4+x,-y,-3/4+z
124 -1/2-x,-3/4+y,-1/4+z
125 -z,-1/2-x,-1/2-y
126 -1/2-z,-3/4+x,-1/4+y
127 -1/4+z,-1/4+x,-y
128 -3/4+z,-x,-3/4+y
129 -y,-1/2-z,-1/2-x
130 -3/4+y,-z,-3/4+x
131 -1/2-y,-3/4+z,-1/4+x
132 -1/4+y,-1/4+z,-x
133 -3/4-y,-3/4-x,-1/2+z
134 -1/2+y,x,z
135 -1/4-y,-1/2+x,-1/4-z
136 y,-1/4-x,-3/4-z
137 -3/4-x,-3/4-z,-1/2+y
138 x,-1/4-z,-3/4-y
139 -1/2+x,z,y
140 -1/4-x,-1/2+z,-1/4-y
141 -3/4-z,-3/4-y,-1/2+x
142 -1/4-z,-1/2+y,-1/4-x
143 z,-1/4-y,-3/4-x
144 -1/2+z,y,x
145 -1/2-x,-y,-1/2-z
146 -3/4+x,-3/4+y,-z
147 -1/4+x,-1/2-y,-3/4+z
148 -x,-1/4+y,-1/4+z
149 -1/2-z,-x,-1/2-y
150 -z,-1/4+x,-1/4+y
151 -3/4+z,-3/4+x,-y
152 -1/4+z,-1/2-x,-3/4+y
153 -1/2-y,-z,-1/2-x
154 -1/4+y,-1/2-z,-3/4+x
155 -y,-1/4+z,-1/4+x
156 -3/4+y,-3/4+z,-x
157 -1/4-y,-1/4-x,-1/2+z
158 y,-1/2+x,z
159 -3/4-y,x,-1/4-z
160 -1/2+y,-3/4-x,-3/4-z
161 -1/4-x,-1/4-z,-1/2+y
162 -1/2+x,-3/4-z,-3/4-y
163 x,-1/2+z,y
164 -3/4-x,z,-1/4-y
165 -1/4-z,-1/4-y,-1/2+x
166 -3/4-z,y,-1/4-x
167 -1/2+z,-3/4-y,-3/4-x
168 z,-1/2+y,x
169 -1/2-x,-1/2-y,-z
170 -3/4+x,-1/4+y,-1/2-z
171 -1/4+x,-y,-1/4+z
172 -x,-3/4+y,-3/4+z
173 -1/2-z,-1/2-x,-y
174 -z,-3/4+x,-3/4+y
175 -3/4+z,-1/4+x,-1/2-y
176 -1/4+z,-x,-1/4+y
177 -1/2-y,-1/2-z,-x
178 -1/4+y,-z,-1/4+x
179 -y,-3/4+z,-3/4+x
180 -3/4+y,-1/4+z,-1/2-x
181 -1/4-y,-3/4-x,z
182 y,x,-1/2+z
183 -3/4-y,-1/2+x,-3/4-z
184 -1/2+y,-1/4-x,-1/4-z
185 -1/4-x,-3/4-z,y
186 -1/2+x,-1/4-z,-1/4-y
187 x,z,-1/2+y
188 -3/4-x,-1/2+z,-3/4-y
189 -1/4-z,-3/4-y,x
190 -3/4-z,-1/2+y,-3/4-x
191 -1/2+z,-1/4-y,-1/4-x
192 z,y,-1/2+x
_cell_length_a 25.4808(7)
_cell_length_b 25.4808(7)
_cell_length_c 25.4808(7)
_cell_angle_alpha 90
_cell_angle_beta 90
_cell_angle_gamma 90
_cell_formula_units_Z 16
loop_
_atom_type_symbol
_atom_type_radius_bond
C 0.68
H 0.23
O 0.68
Yb 1.87
Zn 1.22
loop_
_atom_site_label
_atom_site_type_symbol
_atom_site_fract_x
_atom_site_fract_y
_atom_site_fract_z
Zn1 Zn 0.75000 0.50000 0.75000
Yb1 Yb 0.75000 0.50000 0.50000
O1 O 0.81654(18) 0.50000 0.56654(18)
C1 C 0.7463(3) 0.4915(2) 0.6268(2)
O2 O 0.71924(19) 0.4915(2) 0.58570(19)
O3 O 0.7271(2) 0.4866(2) 0.67166(19)
C2 C 0.8050(3) 0.4973(4) 0.6202(3)
H1 H 0.81698 0.52899 0.63760
H2 H 0.82285 0.46757 0.63582
Zn2 Zn 0.62500 0.62500 0.62500
O4 O 0.7066(3) 0.62500 0.62500
H3 H 0.71777 0.62758 0.59365
O5 O 0.8318(10) 0.62500 0.62500
C1U C 0.8768(3) 0.5085(2) 0.4963(2)
O2U O 0.83570(19) 0.5085(2) 0.46924(19)
O3U O 0.92166(20) 0.5134(2) 0.47710(19)
C2U C 0.8702(3) 0.5027(4) 0.5550(3)
H1U H 0.88760 0.47101 0.56698
H2U H 0.88582 0.53243 0.57285
O1DA O 0.68346(18) 0.43346 0.50000(18)
C1DA C 0.6232(3) 0.5037(2) 0.4915(2)
O2DA O 0.66430(19) 0.53076(20) 0.49150(19)
O3DA O 0.57834(20) 0.5229(2) 0.48660(19)
C2DA C 0.6298(3) 0.4450(4) 0.4973(3)
H1DA H 0.61240 0.43302 0.52899
H2DA H 0.61418 0.42715 0.46757
C1PA C 0.7537(3) 0.3732(2) 0.5085(2)
O2PA O 0.78076(19) 0.4143(2) 0.50850(19)
O3PA O 0.7729(2) 0.32834(20) 0.51340(19)
C2PA C 0.6950(3) 0.3798(4) 0.5027(3)
H1PA H 0.68302 0.36240 0.47101
H2PA H 0.67715 0.36418 0.53243
O1CC O 0.75000(18) 0.56654 0.43346(18)
C1CC C 0.7585(3) 0.6268(2) 0.5037(2)
O2CC O 0.75850(19) 0.5857(2) 0.53076(19)
O3CC O 0.7634(2) 0.67166(20) 0.52290(19)
C2CC C 0.7527(3) 0.6202(4) 0.4450(3)
H1CC H 0.72101 0.63760 0.43302
H2CC H 0.78243 0.63582 0.42715
C1FC C 0.7415(3) 0.4963(2) 0.3732(2)
O2FC O 0.74150(19) 0.46924(20) 0.41430(19)
O3FC O 0.7366(2) 0.4771(2) 0.32834(19)
C2FC C 0.7473(3) 0.5550(4) 0.3798(3)
H1FC H 0.77899 0.56698 0.36240
H2FC H 0.71757 0.57285 0.36418
Zn1D Zn 0.75000 0.75000 0.50000
Zn1N Zn 0.75000 0.25000 0.50000
Zn1U Zn 1.00000 0.50000 0.50000
Zn1DA Zn 0.50000 0.50000 0.50000
Zn1UA Zn 0.75000 0.50000 0.25000
O3IA O 0.7634(2) 0.57834(20) 0.72710(19)
O3AB O 0.67166(20) 0.5229(2) 0.76340(19)
O3WC O 0.82834(20) 0.4771(2) 0.73660(19)
O3NE O 0.7729(2) 0.5134(2) 0.82834(19)
O3WF O 0.7366(2) 0.42166(20) 0.77290(19)
H3YA H 0.71777 0.62242 0.65635
O4D O 0.6250(3) 0.70660 0.62500
H3D H 0.59365 0.71777 0.62758
H3AC H 0.65635 0.71777 0.62242
O4H O 0.6250(3) 0.62500 0.70660
H3H H 0.62758 0.59365 0.71777
H3IA H 0.62242 0.65635 0.71777
O4Y O 0.5434(3) 0.62500 0.62500
H3Y H 0.53223 0.62242 0.59365
H3VB H 0.53223 0.62758 0.65635
O4DA O 0.6250(3) 0.54340 0.62500
H3DA H 0.65635 0.53223 0.62758
H3AB H 0.59365 0.53223 0.62242
O4FB O 0.6250(3) 0.62500 0.54340
H3FB H 0.62758 0.65635 0.53223
H3CC H 0.62242 0.59365 0.53223
#END
