
#######################################################################
#
#                 Cambridge Crystallographic Data Centre
#                                CCDC
#
#######################################################################
#
# If this CIF has been generated from an entry in the Cambridge
# Structural Database, then it will include bibliographic, chemical,
# crystal, experimental, refinement or atomic coordinate data resulting
# from the CCDC's data processing and validation procedures.
#
#######################################################################

data_CSD_CIF_IDORAW
_audit_creation_date 2013-08-06
_audit_creation_method CSD-ConQuest-V1
_database_code_CSD IDORAW
_database_code_depnum_ccdc_archive 'CCDC 941373'
_chemical_formula_sum 'C44 H54 Cu2 Mn2 N6 O21'
_chemical_formula_moiety
;
(C22 H12 Cu2 Mn2 N4 O18 2-)n,2n(C11 H18 N1 1+),3n(H2 O1)
;
_journal_coden_Cambridge 1350
_journal_volume 15
_journal_year 2013
_journal_page_first 9312
_journal_name_full 'CrystEngComm '
loop_
_publ_author_name
"T.Grancha"
"C.Tourbillon"
"J.Ferrando-Soria"
"M.Julve"
"F.Lloret"
"J.Pasan"
"C.Ruiz-Perez"
"O.Fabelo"
"E.Pardo"
_chemical_name_systematic
;
catena-[bis(S-N,N,N-Trimethyl-1-phenylethanaminium) 
bis(\m~4~-1-([carboxylato(oxidanidyl)methylidene]amino)-3-([carboxylato(oxidan
idyl)methylidene]amino)benzene)-(\m~2~-oxalato)-diaqua-di-copper-di-manganese 
unknown solvate trihydrate]
;
_cell_volume  14386.636
_exptl_crystal_colour 'green'
_exptl_crystal_density_diffrn 1.141
_exptl_special_details
;
Absolute configuration

;
_exptl_crystal_description 'Prism'
_diffrn_ambient_temperature 100
_diffrn_radiation_probe x-ray
_diffrn_source synchrotron
_refine_special_details
;
Disordered solvent molecules were not modelled and the disordered density was 
taken into account using the SQUEEZE/PLATON procedure.
;
#These two values have been output from a single CSD field.
_refine_ls_R_factor_gt 0.0788
_refine_ls_wR_factor_gt 0.0788
_symmetry_cell_setting tetragonal
_symmetry_space_group_name_H-M 'P 41 21 2'
_symmetry_Int_Tables_number 92
loop_
_symmetry_equiv_pos_site_id
_symmetry_equiv_pos_as_xyz
1 x,y,z
2 -x,-y,1/2+z
3 1/2-y,1/2+x,1/4+z
4 1/2+y,1/2-x,3/4+z
5 1/2-x,1/2+y,1/4-z
6 1/2+x,1/2-y,3/4-z
7 y,x,-z
8 -y,-x,1/2-z
_cell_length_a 20.467(3)
_cell_length_b 20.467(3)
_cell_length_c 34.344(7)
_cell_angle_alpha 90
_cell_angle_beta 90
_cell_angle_gamma 90
_cell_formula_units_Z 8
loop_
_atom_type_symbol
_atom_type_radius_bond
C 0.68
H 0.23
Cu 1.32
Mn 1.61
N 0.68
O 0.68
loop_
_atom_site_label
_atom_site_type_symbol
_atom_site_fract_x
_atom_site_fract_y
_atom_site_fract_z
Mn1 Mn 0.31852(4) 0.13038(4) 0.19785(2)
Mn2 Mn 0.11302(4) 0.31028(4) 0.21380(2)
Cu1 Cu 0.31323(4) -0.02893(3) -0.079706(19)
Cu2 Cu 0.45192(3) 0.17063(4) 0.063902(19)
C1 C 0.3448(3) 0.0513(3) 0.03046(14)
H1 H 0.38820 0.03810 0.03160
C2 C 0.3014(3) 0.0219(3) 0.00379(14)
C3 C 0.2372(3) 0.0435(3) 0.00110(15)
H2 H 0.20960 0.02580 -0.01760
C4 C 0.2144(3) 0.0911(3) 0.02598(16)
H3 H 0.17110 0.10440 0.02440
C5 C 0.2556(3) 0.1196(3) 0.05362(15)
H4 H 0.23950 0.15080 0.07080
C6 C 0.3219(3) 0.1005(2) 0.05521(15)
C7 C 0.3560(3) -0.0764(2) -0.00948(15)
C8 C 0.3731(3) -0.1281(3) -0.03915(15)
C9 C 0.3582(3) 0.1363(2) 0.11685(15)
C10 C 0.4164(3) 0.1630(3) 0.13996(15)
C11 C 0.3880(2) 0.1185(3) -0.04589(14)
H5 H 0.41830 0.08480 -0.04780
C12 C 0.3320(2) 0.1186(2) -0.06992(14)
C13 C 0.2886(2) 0.1697(3) -0.06623(15)
H6 H 0.25130 0.17000 -0.08180
C14 C 0.2983(3) 0.2200(3) -0.04046(16)
H7 H 0.26840 0.25420 -0.03910
C15 C 0.3541(3) 0.2195(3) -0.01599(16)
H8 H 0.36100 0.25270 0.00200
C16 C 0.3976(2) 0.1688(3) -0.01955(13)
C17 C 0.3154(2) 0.0735(3) -0.13283(14)
C18 C 0.3068(3) 0.0095(3) -0.15543(15)
C19 C 0.5116(2) 0.1663(3) -0.00853(15)
C20 C 0.5662(3) 0.1647(3) 0.02265(16)
C21 C 0.1893(3) 0.1898(3) 0.21311(15)
C22 C 0.2402(3) 0.2475(2) 0.21238(16)
N1 N 0.3240(2) -0.0268(2) -0.02251(13)
N2 N 0.3674(2) 0.1319(2) 0.07976(13)
N3 N 0.3212(2) 0.0645(2) -0.09486(11)
N4 N 0.4524(2) 0.1670(2) 0.00616(12)
O1 O 0.62277(18) 0.1616(2) 0.01049(11)
O2 O 0.52798(17) 0.1695(2) -0.04307(11)
O3 O 0.4433(2) 0.2828(2) 0.06278(14)
O4 O 0.5494(2) 0.1677(3) 0.05775(11)
O5 O 0.2123(2) 0.13348(18) 0.20900(13)
O6 O 0.2985(2) 0.23326(19) 0.20693(13)
O7 O 0.2193(2) 0.30298(19) 0.22000(13)
O8 O 0.1308(2) 0.20500(19) 0.21551(12)
O9 O 0.4653(2) 0.1815(2) 0.12044(11)
O10 O 0.3984(2) -0.18021(19) -0.02764(11)
O11 O 0.3719(2) -0.08821(18) 0.02624(10)
O12 O 0.31761(19) 0.12606(18) -0.15126(10)
O13 O 0.3016(2) 0.0138(2) -0.19145(10)
O14 O 0.3055(2) -0.0431(2) -0.13629(12)
O15 O 0.2104(2) -0.0643(2) -0.07580(14)
O16 O 0.3570(2) -0.1180(2) -0.07433(11)
O17 O 0.4134(2) 0.1638(2) 0.17614(11)
O18 O 0.30757(19) 0.11697(18) 0.13624(10)
C23 C 1.0086(3) 0.1183(3) 0.88133(19)
C24 C 1.0646(3) 0.1435(3) 0.86480(17)
H9 H 1.06160 0.17550 0.84570
C25 C 1.1264(3) 0.1208(4) 0.87674(17)
H10 H 1.16400 0.13840 0.86580
C26 C 1.1312(4) 0.0723(4) 0.9048(2)
H11 H 1.17180 0.05630 0.91230
C27 C 1.0766(4) 0.0488(4) 0.9211(3)
H12 H 1.08020 0.01660 0.94000
C28 C 1.0165(4) 0.0699(3) 0.9110(2)
H13 H 0.97990 0.05280 0.92340
C29 C 0.9335(5) 0.1389(6) 0.8249(2)
H14 H 0.88950 0.15060 0.81820
H15 H 0.94360 0.09690 0.81400
H16 H 0.96310 0.17090 0.81460
N5 N 0.9183(2) 0.2020(2) 0.88587(14)
C30 C 0.9324(4) 0.2036(5) 0.92863(19)
H17 H 0.91350 0.16590 0.94080
H18 H 0.91380 0.24240 0.93980
H19 H 0.97880 0.20360 0.93270
C31 C 0.9464(4) 0.2589(3) 0.8666(3)
H20 H 0.99320 0.25720 0.86850
H21 H 0.93080 0.29790 0.87910
H22 H 0.93370 0.25920 0.83970
C32 C 0.8462(3) 0.2086(4) 0.8817(2)
H23 H 0.82500 0.17210 0.89390
H24 H 0.83490 0.20970 0.85460
H25 H 0.83200 0.24840 0.89390
C33 C 0.9403(3) 0.1363(3) 0.86807(19)
H26 H 0.91050 0.10240 0.87770
O19 O 0.1768(3) 0.8483(2) 0.98031(16)
O20 O 0.7337(4) 0.1460(7) 0.0569(2)
O21 O 0.5412(5) 0.3331(4) 0.0125(4)
C34 C 0.5022(5) -0.0581(6) 0.8273(3)
C35 C 0.5355(7) -0.0721(5) 0.8617(3)
H27 H 0.55800 -0.11150 0.86360
C36 C 0.5364(8) -0.0301(10) 0.8934(4)
H28 H 0.55480 -0.04180 0.91710
C37 C 0.5057(4) 0.0356(5) 0.8867(3)
H29 H 0.50950 0.06950 0.90460
C38 C 0.4727(4) 0.0420(5) 0.8537(3)
H30 H 0.45070 0.08120 0.84990
C39 C 0.4680(5) -0.0013(4) 0.8261(3)
H31 H 0.44060 0.00690 0.80510
C40 C 0.5014(6) -0.0794(6) 0.7577(4)
H32 H 0.53550 -0.04740 0.75560
H33 H 0.45970 -0.05820 0.75550
H34 H 0.50590 -0.11110 0.73730
N6 N 0.4519(6) -0.1627(6) 0.7989(4)
C41 C 0.3762(8) -0.1406(10) 0.8033(6)
H35 H 0.37400 -0.09990 0.81700
H36 H 0.35260 -0.17340 0.81740
H37 H 0.35720 -0.13550 0.77790
C42 C 0.451(3) -0.1757(15) 0.8454(8)
H38 H 0.45070 -0.13460 0.85890
H39 H 0.48990 -0.19960 0.85260
H40 H 0.41330 -0.20050 0.85220
C43 C 0.4528(9) -0.2245(10) 0.7770(8)
H41 H 0.41370 -0.24880 0.78250
H42 H 0.49020 -0.24980 0.78470
H43 H 0.45520 -0.21540 0.74960
C44 C 0.5060(6) -0.1129(6) 0.7965(3)
H44 H 0.54830 -0.13500 0.79850
Mn1C Mn 0.63038(4) 0.18148(4) -0.05215(2)
Mn2D Mn 0.38698(4) -0.18972(4) 0.03620(2)
Mn2F Mn 0.31028(4) 0.11302(4) -0.21380(2)
O1B O 0.33840(18) 0.12277(20) 0.26049(11)
O2B O 0.33050(17) 0.02798(20) 0.20693(11)
O10D O 0.1016(2) 0.31979(19) 0.27764(11)
O11D O 0.1281(2) 0.41179(18) 0.22376(10)
O12F O 0.12606(19) 0.31761(18) 0.15126(10)
O13F O 0.0138(2) 0.3016(2) 0.19145(10)
#END
