
#######################################################################
#
#                 Cambridge Crystallographic Data Centre
#                                CCDC
#
#######################################################################
#
# If this CIF has been generated from an entry in the Cambridge
# Structural Database, then it will include bibliographic, chemical,
# crystal, experimental, refinement or atomic coordinate data resulting
# from the CCDC's data processing and validation procedures.
#
#######################################################################

data_CSD_CIF_IDUTUW
_audit_creation_date 2002-05-01
_audit_creation_method CSD-ConQuest-V1
_database_code_CSD IDUTUW
_database_code_depnum_ccdc_archive 'CCDC 181598'
_chemical_formula_sum 'C2 H8 Br4 Cd2 Cs2 O8'
_chemical_formula_moiety
;
(Cs1 1+)2n,n(C2 H4 Br4 Cd2 O6 2-),2n(H2 O1)
;
_journal_coden_Cambridge 1096
_journal_volume 13
_journal_year 2001
_journal_page_first 3524
_journal_name_full 'Chem.Mater. '
loop_
_publ_author_name
"R.Vaidhyanathan"
"S.Natarajan"
"C.N.R.Rao"
_chemical_name_systematic
;
catena-[Di-cesium bis(\m~2~-bromo)-(\m~2~-oxalato)-diaqua-dibromo-di-cadmium 
dihydrate]
;
_cell_volume   1894.163
_exptl_crystal_density_diffrn 3.374
_exptl_special_details
;
the CsBr units form 8 membered rings with chair conformation

;
_diffrn_ambient_temperature 130
#These two values have been output from a single CSD field.
_refine_ls_R_factor_gt 0.0359
_refine_ls_wR_factor_gt 0.0359
_symmetry_cell_setting orthorhombic
_symmetry_space_group_name_H-M 'C m c m'
_symmetry_Int_Tables_number 63
loop_
_symmetry_equiv_pos_site_id
_symmetry_equiv_pos_as_xyz
1 x,y,z
2 1/2+x,1/2+y,z
3 x,y,1/2-z
4 x,-y,1/2+z
5 -x,y,z
6 1/2+x,1/2+y,1/2-z
7 1/2+x,1/2-y,1/2+z
8 1/2-x,1/2+y,z
9 -x,-y,-z
10 -1/2-x,-1/2-y,-z
11 -x,-y,-1/2+z
12 -x,y,-1/2-z
13 x,-y,-z
14 -1/2-x,-1/2-y,-1/2+z
15 -1/2-x,-1/2+y,-1/2-z
16 -1/2+x,-1/2-y,-z
_cell_length_a 23.6251(14)
_cell_length_b 10.2528(6)
_cell_length_c 7.8199(5)
_cell_angle_alpha 90
_cell_angle_beta 90
_cell_angle_gamma 90
_cell_formula_units_Z 4
loop_
_atom_type_symbol
_atom_type_radius_bond
C 0.68
Br 1.21
Cd 1.69
Cs 1.67
O 0.68
loop_
_atom_site_label
_atom_site_type_symbol
_atom_site_fract_x
_atom_site_fract_y
_atom_site_fract_z
Cs1 Cs 0.31159(4) 0.31699(9) 0.25000
Cd1 Cd 0.12428(4) 0.40048(9) 0.25000
Br1 Br 0.19264(5) 0.50000 0.00000
Br2 Br 0.16916(7) 0.16625(14) 0.25000
C1 C 0.00000 0.3538(11) 0.1500(15)
O1 O 0.0829(4) 0.6138(8) 0.25000
O2 O 0.0470(2) 0.3535(6) 0.0772(7)
O3 O 0.00000 0.00000 0.00000
C1B C 0.00000 0.3538(11) 0.3500(15)
O2B O 0.0470(2) 0.3535(6) 0.4228(7)
O2K O -0.0470(2) 0.3535(6) 0.4228(7)
O2D O -0.0470(2) 0.3535(6) 0.0772(7)
Br1B Br 0.19264(5) 0.50000 0.50000
Cd1C Cd 0.12428(4) 0.59952(9) -0.25000
Cd1D Cd -0.12428(4) 0.40048(9) 0.25000
Cd1C* Cd 0.12428(4) 0.59952(9) 0.75000
Br1B* Br 0.19264(5) 0.50000 -0.50000
Br2C Br 0.16916(7) 0.83375(14) -0.25000
O1C O 0.0829(4) 0.3862(8) -0.25000
O2C O 0.0470(2) 0.6465(6) -0.4228(7)
O2L O 0.0470(2) 0.6465(6) -0.0772(7)
#END
