
#######################################################################
#
#                 Cambridge Crystallographic Data Centre
#                                CCDC
#
#######################################################################
#
# If this CIF has been generated from an entry in the Cambridge
# Structural Database, then it will include bibliographic, chemical,
# crystal, experimental, refinement or atomic coordinate data resulting
# from the CCDC's data processing and validation procedures.
#
#######################################################################

data_CSD_CIF_IDUVAE
_audit_creation_date 2002-05-01
_audit_creation_method CSD-ConQuest-V1
_database_code_CSD IDUVAE
_database_code_depnum_ccdc_archive 'CCDC 181599'
_chemical_formula_sum 'C4 H8 Cd4 Cl10 O12 Rb6'
_chemical_formula_moiety
;
(Rb1 1+)6n,n(C4 H4 Cd4 Cl10 O10 6-),2n(H2 O1)
;
_journal_coden_Cambridge 1096
_journal_volume 13
_journal_year 2001
_journal_page_first 3524
_journal_name_full 'Chem.Mater. '
loop_
_publ_author_name
"R.Vaidhyanathan"
"S.Natarajan"
"C.N.R.Rao"
_chemical_name_systematic
;
catena[Hexa-rubidium 
tetrakis(\m~2~-chloro)-bis(\m~2~-oxalato)-diaqua-hexa-chloro-tetra-cadmium 
dihydrate]
;
_cell_volume   1681.096
_exptl_crystal_density_diffrn 3.076
_diffrn_ambient_temperature 293
#These two values have been output from a single CSD field.
_refine_ls_R_factor_gt 0.0409
_refine_ls_wR_factor_gt 0.0409
_symmetry_cell_setting monoclinic
_symmetry_space_group_name_H-M 'P 21/c'
_symmetry_Int_Tables_number 14
loop_
_symmetry_equiv_pos_site_id
_symmetry_equiv_pos_as_xyz
1 x,y,z
2 x,1/2-y,1/2+z
3 -x,-y,-z
4 -x,-1/2+y,-1/2-z
_cell_length_a 8.0648(2)
_cell_length_b 22.9026(4)
_cell_length_c 9.3967(3)
_cell_angle_alpha 90
_cell_angle_beta 104.399(1)
_cell_angle_gamma 90
_cell_formula_units_Z 2
loop_
_atom_type_symbol
_atom_type_radius_bond
C 0.68
Cd 1.69
Cl 0.99
O 0.68
Rb 1.47
loop_
_atom_site_label
_atom_site_type_symbol
_atom_site_fract_x
_atom_site_fract_y
_atom_site_fract_z
Cd1 Cd 0.31755(8) 0.44250(3) 0.46471(7)
Cd2 Cd -0.00621(8) 0.37033(3) -0.00314(7)
Rb1 Rb 0.03927(13) 0.31032(4) 0.57410(11)
Rb2 Rb 0.48920(13) 0.27927(5) 0.28606(11)
Rb3 Rb 0.47991(12) 0.41495(5) 0.93980(12)
Cl1 Cl 0.4605(3) 0.35257(11) 0.6111(3)
Cl2 Cl 0.1497(3) 0.36571(12) 0.2765(3)
Cl3 Cl 0.4832(3) 0.51771(12) 0.6845(3)
Cl4 Cl -0.2435(3) 0.30057(11) 0.0294(3)
Cl5 Cl 0.2212(3) 0.30088(10) -0.0608(3)
C1 C 0.0902(11) 0.4998(4) -0.0186(10)
C2 C 0.0047(12) 0.5220(4) 0.4394(10)
O1 O 0.1282(8) 0.5181(3) 0.3804(7)
O2 O 0.1511(8) 0.4507(3) -0.0334(7)
O3 O 0.1605(8) 0.5472(3) -0.0268(7)
O4 O -0.1083(8) 0.5612(3) 0.4100(7)
O5 O -0.1496(8) 0.3782(3) -0.2500(7)
O6 O 0.7572(10) 0.3677(4) 0.3508(9)
C1B C -0.0902(11) 0.5002(4) 0.0186(10)
O2B O -0.1511(8) 0.5493(3) 0.0334(7)
O3B O -0.1605(8) 0.4528(3) 0.0268(7)
C2B C -0.0047(12) 0.4780(4) 0.5606(10)
O1B O -0.1282(8) 0.4819(3) 0.6196(7)
O4B O 0.1083(8) 0.4388(3) 0.5900(7)
Cl3B Cl 0.5168(3) 0.48229(12) 0.3155(3)
Cd1B Cd 0.68245(8) 0.55750(3) 0.53529(7)
Cl1B Cl 0.5395(3) 0.64743(11) 0.3889(3)
Cl2B Cl 0.8503(3) 0.63429(12) 0.7235(3)
Cd2B Cd 1.00621(8) 0.62967(3) 1.00314(7)
Cl4B Cl 1.2435(3) 0.69943(11) 0.9706(3)
Cl5B Cl 0.7788(3) 0.69912(10) 1.0608(3)
O5B O 1.1496(8) 0.6218(3) 1.2500(7)
Cd2B* Cd 0.00621(8) 0.62967(3) 0.00314(7)
Cd1B* Cd -0.31755(8) 0.55750(3) 0.53529(7)
O1B* O 0.8718(8) 0.4819(3) 0.6196(7)
O4* O 0.8917(8) 0.5612(3) 0.4100(7)
O2B* O 0.8489(8) 0.5493(3) 1.0334(7)
O3* O 1.1605(8) 0.5472(3) 0.9732(7)
#END
