
#######################################################################
#
#                 Cambridge Crystallographic Data Centre
#                                CCDC
#
#######################################################################
#
# If this CIF has been generated from an entry in the Cambridge
# Structural Database, then it will include bibliographic, chemical,
# crystal, experimental, refinement or atomic coordinate data resulting
# from the CCDC's data processing and validation procedures.
#
#######################################################################

data_CSD_CIF_IDUYOX
_audit_creation_date 2013-08-07
_audit_creation_method CSD-ConQuest-V1
_database_code_CSD IDUYOX
_database_code_depnum_ccdc_archive 'CCDC 954550'
_chemical_formula_sum 'C113 H94 Cu9 N8 O34'
_chemical_formula_moiety
;
(C45 H42 Cu1 N8 O2 4+)n,2n(C34 H26 Cu4 O16 2-)
;
_journal_coden_Cambridge 4
_journal_volume 135
_journal_year 2013
_journal_page_first 5982
_journal_name_full 'J.Am.Chem.Soc. '
loop_
_publ_author_name
"Zhenjie Zhang"
"L.Wojtas"
"M.Eddaoudi"
"M.J.Zaworotko"
_chemical_name_systematic
;
catena-[(5,10,15,20-tetrakis(1-methylpyridinium-4-yl)porphyrinato)-methanol-aq
ua-copper 
bis(bis(\m~6~-biphenyl-3,4',5-tricarboxylato)-bis(\m~3~-methoxo)-dimethoxo-tet
ra-copper) unknown solvate]
;
_chemical_name_common
;
P11-Cu
;
_cell_volume   4132.999
_exptl_crystal_colour 'red'
_exptl_crystal_density_diffrn 1.06
_exptl_crystal_description 'prism'
_diffrn_ambient_temperature 100
_diffrn_radiation_probe x-ray
_diffrn_source synchrotron
_refine_special_details
;
The structure is disordered. Disordered solvent molecules were not modelled 
and the disordered density was taken into account using the SQUEEZE/PLATON 
procedure. The authors' formula is C109.59 H64 Cu9 N8 O35.85.
;
#These two values have been output from a single CSD field.
_refine_ls_R_factor_gt 0.0656
_refine_ls_wR_factor_gt 0.0656
_symmetry_cell_setting triclinic
_symmetry_space_group_name_H-M 'P -1'
_symmetry_Int_Tables_number 2
loop_
_symmetry_equiv_pos_site_id
_symmetry_equiv_pos_as_xyz
1 x,y,z
2 -x,-y,-z
_cell_length_a 10.6580(7)
_cell_length_b 18.4613(12)
_cell_length_c 21.0920(14)
_cell_angle_alpha 89.068(2)
_cell_angle_beta 88.119(1)
_cell_angle_gamma 85.215(2)
_cell_formula_units_Z 1
loop_
_atom_type_symbol
_atom_type_radius_bond
C 0.68
H 0.23
Cu 1.32
N 0.68
O 0.68
loop_
_atom_site_label
_atom_site_type_symbol
_atom_site_fract_x
_atom_site_fract_y
_atom_site_fract_z
Cu1 Cu 0.50504(4) 0.57171(3) 0.87954(2)
Cu2 Cu 0.36203(4) 0.49523(3) 0.99446(2)
Cu3 Cu 0.13851(4) 0.00690(3) 0.49590(2)
O1 O 0.4936(2) 0.56372(16) 0.97151(13)
O2 O 0.2587(2) 0.03771(17) 0.55423(14)
O3 O 0.2280(2) 0.56199(17) 0.96316(13)
O4 O 0.7194(3) 0.03896(19) 0.55174(15)
O5 O -0.2295(2) 0.54822(17) 0.95397(14)
O6 O 0.3243(3) 0.5933(2) 0.87156(16)
O7 O 0.3529(3) 0.4274(2) 0.91307(15)
O8 O 0.1450(3) 0.1336(2) 0.5974(2)
C1 C -0.2362(3) 0.5906(2) 0.90708(19)
C2 C 0.3608(4) 0.1189(2) 0.6159(2)
O9 O 0.5430(3) 0.4558(2) 0.87667(18)
C3 C 0.3512(4) 0.1723(3) 0.6612(2)
H1 H 0.27050 0.19080 0.67700
O10 O 0.8001(3) 0.1290(2) 0.6020(2)
C4 C 0.2455(4) 0.0935(2) 0.5872(2)
C5 C -0.0036(3) 0.5971(2) 0.90953(19)
H2 H -0.00190 0.56730 0.94670
C6 C 0.1075(4) 0.6194(3) 0.8823(2)
C7 C -0.1171(3) 0.6190(2) 0.88186(19)
C8 C 0.4589(4) 0.1995(3) 0.6839(2)
C9 C 0.4518(4) 0.2573(3) 0.7320(2)
C10 C 0.7126(3) 0.0924(3) 0.58755(19)
C11 C -0.1193(4) 0.6642(3) 0.8287(2)
H3 H -0.19770 0.67990 0.81080
C12 C 0.5761(4) 0.1716(3) 0.6592(2)
H4 H 0.65050 0.19000 0.67370
C13 C -0.0086(4) 0.6869(3) 0.8011(2)
C14 C 0.1053(4) 0.6634(3) 0.8289(2)
H5 H 0.18210 0.67790 0.81070
C15 C 0.2304(4) 0.5896(3) 0.9078(2)
C16 C 0.3615(4) 0.2594(3) 0.7812(2)
H6 H 0.30030 0.22480 0.78280
C17 C 0.4781(4) 0.0900(2) 0.59280(19)
H7 H 0.48470 0.05180 0.56290
C18 C 0.4485(4) 0.4199(3) 0.8752(2)
C19 C 0.4472(4) 0.3632(3) 0.8253(2)
C20 C 0.5363(5) 0.3103(3) 0.7289(3)
H8 H 0.59600 0.31100 0.69450
C21 C 0.3599(4) 0.3111(3) 0.8274(2)
H9 H 0.29860 0.31130 0.86120
C22 C 0.5348(5) 0.3621(3) 0.7755(3)
H10 H 0.59470 0.39750 0.77320
O11 O -0.3345(3) 0.6130(2) 0.87976(17)
C23 C 0.5856(4) 0.1185(3) 0.6148(2)
O12 O 0.5230(4) 0.5810(3) 0.78686(17)
C24 C 0.4307(17) 0.5683(11) 0.7474(9)
O13 O -0.0425(8) 0.2389(5) 0.5632(5)
C25 C -0.0692(19) 0.2622(12) 0.6252(10)
C26 C -0.003(2) 0.0037(10) 0.6260(11)
C27 C 0.4696(15) 0.6383(9) 0.9940(8)
O14 O -0.0070(3) 0.02793(19) 0.55637(15)
Cu4 Cu -0.02622(5) 0.13202(3) 0.56644(3)
O15 O 0.0723(4) 0.8539(3) 0.5314(2)
C28 C -0.1161(6) 0.7760(5) 0.7260(4)
H11 H -0.18660 0.78010 0.75480
C29 C -0.0110(5) 0.7312(4) 0.7408(3)
C30 C -0.1197(6) 0.8151(4) 0.6697(4)
H12 H -0.19400 0.84430 0.65950
C31 C -0.0184(5) 0.8123(3) 0.6285(3)
C32 C -0.0243(5) 0.8551(3) 0.5664(3)
C33 C 0.0904(6) 0.7286(5) 0.6985(4)
H13 H 0.16370 0.69780 0.70760
C34 C 0.0878(6) 0.7696(6) 0.6435(4)
H14 H 0.16010 0.76820 0.61580
O16 O -0.1268(3) 0.8897(2) 0.55485(19)
Cu5 Cu 1.00000 0.50000 0.50000
N1 N 1.0023(4) 0.5733(3) 0.14175(18)
N2 N 0.9025(5) 0.5448(3) 0.5745(2)
C35 C 0.9089(6) 0.5679(3) 0.3748(2)
N3 N 0.4880(5) 0.8108(3) 0.5523(2)
C36 C 0.8966(5) 0.5537(3) 0.1699(2)
H15 H 0.82290 0.55170 0.14600
C37 C 0.9968(6) 0.5262(3) 0.3389(2)
N4 N 0.8979(5) 0.5656(3) 0.4406(2)
C38 C 0.7647(6) 0.6354(3) 0.5186(3)
C39 C 1.0010(6) 0.5957(4) 0.0745(2)
H16 H 0.97680 0.55560 0.04900
H17 H 1.08510 0.60840 0.06070
H18 H 0.94020 0.63800 0.06920
C40 C 1.1087(5) 0.5739(4) 0.1741(3)
H19 H 1.18430 0.58530 0.15250
C41 C 0.6647(6) 0.6969(3) 0.5275(3)
C42 C 0.9167(6) 0.5280(4) 0.6382(2)
C43 C 0.9997(6) 0.5401(3) 0.2687(2)
C44 C 0.8939(5) 0.5363(3) 0.2334(3)
H20 H 0.81870 0.52150 0.25310
C45 C 0.6980(6) 0.7659(4) 0.5360(4)
H21 H 0.78430 0.77530 0.53250
C46 C 0.8342(7) 0.5751(4) 0.6752(3)
H22 H 0.82630 0.57450 0.72020
C47 C 1.1095(6) 0.5584(4) 0.2374(3)
H23 H 1.18470 0.56010 0.26000
C48 C 0.8048(7) 0.6182(3) 0.4572(3)
C49 C 0.6086(6) 0.8218(4) 0.5496(4)
H24 H 0.63400 0.86890 0.55720
C50 C 0.7687(7) 0.6210(4) 0.6361(3)
H25 H 0.70670 0.65870 0.64800
C51 C 0.3932(7) 0.8704(4) 0.5722(4)
H26 H 0.41030 0.88550 0.61520
H27 H 0.30870 0.85320 0.57170
H28 H 0.39800 0.91180 0.54280
C52 C 0.8101(6) 0.6022(3) 0.5731(3)
C53 C 0.8205(7) 0.6254(4) 0.3511(3)
H29 H 0.80940 0.63920 0.30790
C54 C 0.7578(7) 0.6552(4) 0.4012(3)
H30 H 0.69340 0.69400 0.40010
C55 C 0.5400(8) 0.6881(5) 0.5272(6)
H31 H 0.51280 0.64180 0.51820
C56 C 0.4523(7) 0.7451(5) 0.5397(6)
H32 H 0.36510 0.73770 0.53940
C57 C 0.795(3) 0.3227(17) 0.5010(14)
O17 O 0.8310(19) 0.4001(12) 0.4912(10)
O18? O 0.4276(16) 0.697(1) 1.0167(8)
O19? O -0.0406(10) 0.2330(6) 0.5931(6)
C58? C -0.144(3) 0.2866(18) 0.5793(15)
C59? C -0.128(3) 0.774(2) 0.733(2)
H33? H -0.19570 0.74410 0.73950
C60? C -0.135(2) 0.829(2) 0.6876(16)
H34? H -0.20750 0.83750 0.66300
C61? C -0.035(3) 0.8726(15) 0.6783(12)
C62? C 0.072(2) 0.8605(16) 0.7144(14)
H35? H 0.14010 0.89010 0.70800
C63? C 0.079(3) 0.8050(18) 0.7598(14)
H36? H 0.15190 0.79670 0.78440
C64? C -0.021(4) 0.7616(19) 0.7691(17)
O20? O 0.038(3) 0.9644(7) 0.6199(16)
C65? C -0.050(2) 0.9279(13) 0.6240(11)
O21? O -0.133(2) 0.9266(15) 0.5947(13)
O22? O -0.015(5) 0.077(3) 0.717(2)
Cu6? Cu -0.0162(4) 0.0767(3) 0.6182(2)
O23? O -0.017(2) 0.0634(14) 0.5313(12)
O24? O 0.0313(17) -0.0187(11) 0.6762(9)
O25? O 0.3630(16) 0.545(1) 0.7029(8)
Cu1* Cu -0.49496(4) 0.57171(3) 0.87954(2)
Cu2A Cu -0.36203(4) 0.50477(3) 1.00554(2)
Cu2A* Cu 0.63797(4) 0.50477(3) 1.00554(2)
Cu3A Cu -0.13851(4) -0.00690(3) 0.50410(2)
Cu3A* Cu -0.13851(4) 0.99310(3) 0.50410(2)
Cu3A** Cu 0.86149(4) -0.00690(3) 0.50410(2)
O1A O 0.5064(2) 0.43628(16) 1.02849(13)
O4A O 0.2806(3) -0.03896(19) 0.44826(15)
O5A O 0.2295(2) 0.45178(17) 1.04603(14)
O10* O -0.1999(3) 0.1290(2) 0.6020(2)
O11* O 0.6655(3) 0.6130(2) 0.87976(17)
O14A O 0.0070(3) -0.02793(19) 0.44363(15)
Cu4* Cu 0.97378(5) 0.13202(3) 0.56644(3)
Cu4A Cu 0.02622(5) 0.86798(3) 0.43356(3)
O15A O -0.0723(4) 0.1461(3) 0.4686(2)
O16A O 0.1268(3) 0.1103(2) 0.44515(19)
N1A N 0.9977(4) 0.4267(3) 0.85825(18)
N2A N 1.0975(5) 0.4552(3) 0.4255(2)
C35A C 1.0911(6) 0.4321(3) 0.6252(2)
N3A N 1.5120(5) 0.1892(3) 0.4477(2)
C36A C 1.1034(5) 0.4463(3) 0.8301(2)
H15A H 1.17710 0.44830 0.85400
C37A C 1.0032(6) 0.4738(3) 0.6611(2)
N4A N 1.1021(5) 0.4344(3) 0.5594(2)
C38A C 1.2353(6) 0.3646(3) 0.4814(3)
C39A C 0.9990(6) 0.4043(4) 0.9255(2)
H16A H 1.02320 0.44440 0.95100
H17A H 0.91490 0.39160 0.93930
H18A H 1.05980 0.36200 0.93080
C40A C 0.8913(5) 0.4261(4) 0.8259(3)
H19A H 0.81570 0.41470 0.84750
C41A C 1.3353(6) 0.3031(3) 0.4725(3)
C42A C 1.0833(6) 0.4720(4) 0.3618(2)
C43A C 1.0003(6) 0.4599(3) 0.7313(2)
C44A C 1.1061(5) 0.4637(3) 0.7666(3)
H20A H 1.18130 0.47850 0.74690
C45A C 1.3020(6) 0.2341(4) 0.4640(4)
H21A H 1.21570 0.22470 0.46750
C46A C 1.1658(7) 0.4249(4) 0.3248(3)
H22A H 1.17370 0.42550 0.27980
C47A C 0.8905(6) 0.4416(4) 0.7626(3)
H23A H 0.81530 0.43990 0.74000
C48A C 1.1952(7) 0.3818(3) 0.5428(3)
C49A C 1.3914(6) 0.1782(4) 0.4504(4)
H24A H 1.36600 0.13110 0.44280
C50A C 1.2313(7) 0.3790(4) 0.3639(3)
H25A H 1.29330 0.34130 0.35200
C51A C 1.6068(7) 0.1296(4) 0.4278(4)
H26A H 1.58970 0.11450 0.38480
H27A H 1.69130 0.14680 0.42830
H28A H 1.60200 0.08820 0.45720
C52A C 1.1899(6) 0.3978(3) 0.4269(3)
C53A C 1.1795(7) 0.3746(4) 0.6489(3)
H29A H 1.19060 0.36080 0.69210
C54A C 1.2422(7) 0.3448(4) 0.5988(3)
H30A H 1.30660 0.30600 0.59990
C55A C 1.4600(8) 0.3119(5) 0.4728(6)
H31A H 1.48720 0.35820 0.48180
C56A C 1.5477(7) 0.2549(5) 0.4603(6)
H32A H 1.63490 0.26230 0.46060
C57A C 1.205(3) 0.6773(17) 0.4990(14)
O17A O 1.1690(19) 0.5999(12) 0.5088(10)
#END
