
#######################################################################
#
#                 Cambridge Crystallographic Data Centre
#                                CCDC
#
#######################################################################
#
# If this CIF has been generated from an entry in the Cambridge
# Structural Database, then it will include bibliographic, chemical,
# crystal, experimental, refinement or atomic coordinate data resulting
# from the CCDC's data processing and validation procedures.
#
#######################################################################

data_CSD_CIF_IFAHAY
_audit_creation_date 2002-05-01
_audit_creation_method CSD-ConQuest-V1
_database_code_CSD IFAHAY
_database_code_depnum_ccdc_archive 'CCDC 181025'
_chemical_formula_sum 'C21.18 H18.77 Cr1 Mn1 N4.59 O12'
_chemical_formula_moiety
;
(C14 H17 N4 1+)n,n(C6 Cr1 Mn1 O12 1-),0.59n(C2 H3 N1)
;
_journal_coden_Cambridge 1096
_journal_volume 13
_journal_year 2001
_journal_page_first 3813
_journal_name_full 'Chem.Mater. '
loop_
_publ_author_name
"J.S.O.Evans"
"S.Benard"
"Pei Yu"
"R.Clement"
_chemical_name_systematic
;
catena-(4-(4-(Dimethylamino)phenylazo)-N-methylpyridinium 
tris(\m~2~-oxalato)-chromium(iii)-manganese(ii) acetonitrile solvate)
;
_cell_volume   1315.106
_exptl_special_details
;
powder data

;
_diffrn_ambient_temperature ?
_diffrn_special_details
;
The study was carried out at room temperature,in the range 283-303K

;
#These two values have been output from a single CSD field.
_refine_ls_R_factor_gt 0.0274
_refine_ls_wR_factor_gt 0.0274
_symmetry_cell_setting monoclinic
_symmetry_space_group_name_H-M 'P 21'
_symmetry_Int_Tables_number 4
loop_
_symmetry_equiv_pos_site_id
_symmetry_equiv_pos_as_xyz
1 x,y,z
2 -x,1/2+y,-z
_cell_length_a 9.334
_cell_length_b 16.2952
_cell_length_c 8.7134
_cell_angle_alpha 90
_cell_angle_beta 82.888
_cell_angle_gamma 90
_cell_formula_units_Z 2
loop_
_atom_type_symbol
_atom_type_radius_bond
C 0.68
H 0.23
Cr 1.35
Mn 1.35
N 0.68
O 0.68
loop_
_atom_site_label
_atom_site_type_symbol
_atom_site_fract_x
_atom_site_fract_y
_atom_site_fract_z
Cr1 Cr 0.24809 0.57325 0.00678
Mn1 Mn 0.24083 0.90759 -0.00082
O1 O 0.17376 0.80614 0.15763
O2 O 0.35069 0.80718 -0.12659
O3 O 0.15504 0.67397 0.14394
O4 O 0.33197 0.67500 -0.14027
O5 O 0.43687 0.57146 0.12828
O6 O 0.38785 0.48862 -0.14202
O7 O 0.63364 0.50183 0.13579
O8 O 0.58461 0.41900 -0.13451
O9 O -0.07887 0.41502 0.13417
O10 O -0.12171 0.51044 -0.12360
O11 O 0.12419 0.47719 0.14880
O12 O 0.08135 0.57261 -0.10898
C1 C 0.20389 0.74029 0.08734
C2 C 0.30184 0.74086 -0.06999
C3 C 0.52431 0.51816 0.07170
C4 C 0.49717 0.47230 -0.07793
C5 C 0.01310 0.46740 0.08394
C6 C -0.01062 0.52022 -0.05875
C7 C 0.11876 0.67829 0.61203
H1 H 0.03367 0.65352 0.67630
C8 C 0.13267 0.76128 0.60236
H2 H 0.05778 0.79741 0.65952
C9 C 0.33677 0.66283 0.44655
H3 H 0.41166 0.62670 0.38939
C10 C 0.35068 0.74582 0.43688
H4 H 0.43577 0.77059 0.37261
C11 C 0.22082 0.62906 0.53413
C12 C 0.26378 0.88554 0.50423
H5 H 0.32660 0.90500 0.58164
H6 H 0.16650 0.91157 0.52586
H7 H 0.30845 0.90096 0.39809
C13 C 0.17086 0.29128 0.60290
H8 H 0.10326 0.26618 0.68779
C14 C 0.18524 0.37714 0.59289
H9 H 0.12785 0.41294 0.67068
C15 C 0.34707 0.27620 0.37355
H10 H 0.40447 0.24040 0.29576
C16 C 0.36146 0.36206 0.36354
H11 H 0.42906 0.38716 0.27865
C17 C 0.25177 0.24081 0.49323
C18 C 0.28054 0.41253 0.47321
C19 C 0.11456 0.12181 0.59504
H12 H 0.13719 0.11331 0.70294
H13 H 0.09118 0.06793 0.54961
H14 H 0.02993 0.15941 0.59637
C20 C 0.34637 0.10541 0.42109
H15 H 0.42251 0.09313 0.48882
H16 H 0.30083 0.05310 0.39229
H17 H 0.39094 0.13388 0.32545
N1 N 0.20648 0.54351 0.54411
N2 N 0.29488 0.49809 0.46323
N3 N 0.24862 0.79505 0.51478
N4 N 0.23783 0.15758 0.50294
C21 C 0.21037 0.21422 0.07128
C22 C 0.34934 0.21545 -0.00097
N5 N 0.46294 0.21645 -0.06003
H18 H 0.16134 0.26681 0.05063
H19 H 0.21137 0.20754 0.18504
H20 H 0.15707 0.16741 0.03085
O7A O 0.36636 1.00183 -0.13579
O8A O 0.41539 0.91900 0.13451
O9A O 0.07887 0.91502 -0.13417
O10A O 0.12171 1.01044 0.12360
Mn1A Mn 0.75917 0.40759 0.00082
Mn1A* Mn -0.24083 0.40759 0.00082
#END
